 "x_c",  "y_c",  "u_c",  "v_c",  "exx",  "eyy",  "exy",  "e1",  "e2",  "gamma",  "e_vonmises",  "sigma",  "x",  "y",  "u",  "v"
-700,715,0,0,0,0,0,0,0,0,0,-1,524,309,0,0
-693,715,0,0,0,0,0,0,0,0,0,-1,531,309,0,0
-686,715,0,0,0,0,0,0,0,0,0,-1,538,309,0,0
-679,715,0,0,0,0,0,0,0,0,0,-1,545,309,0,0
-672,715,0,0,0,0,0,0,0,0,0,-1,552,309,0,0
-665,715,0,0,0,0,0,0,0,0,0,-1,559,309,0,0
-658,715,0,0,0,0,0,0,0,0,0,-1,566,309,0,0
-651,715,0,0,0,0,0,0,0,0,0,-1,573,309,0,0
-644,715,0,0,0,0,0,0,0,0,0,-1,580,309,0,0
-637,715,0,0,0,0,0,0,0,0,0,-1,587,309,0,0
-630,715,0,0,0,0,0,0,0,0,0,-1,594,309,0,0
-623,715,0,0,0,0,0,0,0,0,0,-1,601,309,0,0
-616,715,0,0,0,0,0,0,0,0,0,-1,608,309,0,0
-609,715,0,0,0,0,0,0,0,0,0,-1,615,309,0,0
-602,715,0,0,0,0,0,0,0,0,0,-1,622,309,0,0
-595,715,0,0,0,0,0,0,0,0,0,-1,629,309,0,0
-588,715,0,0,0,0,0,0,0,0,0,-1,636,309,0,0
-581,715,0,0,0,0,0,0,0,0,0,-1,643,309,0,0
-574,715,0,0,0,0,0,0,0,0,0,-1,650,309,0,0
-567,715,0,0,0,0,0,0,0,0,0,-1,657,309,0,0
-560,715,0,0,0,0,0,0,0,0,0,-1,664,309,0,0
-553,715,0,0,0,0,0,0,0,0,0,-1,671,309,0,0
-546,715,0,0,0,0,0,0,0,0,0,-1,678,309,0,0
-539,715,0,0,0,0,0,0,0,0,0,-1,685,309,0,0
-532,715,0,0,0,0,0,0,0,0,0,-1,692,309,0,0
-525,715,0,0,0,0,0,0,0,0,0,-1,699,309,0,0
-518,715,0,0,0,0,0,0,0,0,0,-1,706,309,0,0
-511,715,0,0,0,0,0,0,0,0,0,-1,713,309,0,0
-504,715,0,0,0,0,0,0,0,0,0,-1,720,309,0,0
-497,715,0,0,0,0,0,0,0,0,0,-1,727,309,0,0
-490,715,0,0,0,0,0,0,0,0,0,-1,734,309,0,0
-483,715,0,0,0,0,0,0,0,0,0,-1,741,309,0,0
-476,715,0,0,0,0,0,0,0,0,0,-1,748,309,0,0
-469,715,0,0,0,0,0,0,0,0,0,-1,755,309,0,0
-462,715,0,0,0,0,0,0,0,0,0,-1,762,309,0,0
-455,715,0,0,0,0,0,0,0,0,0,-1,769,309,0,0
-448,715,0,0,0,0,0,0,0,0,0,-1,776,309,0,0
-441,715,0,0,0,0,0,0,0,0,0,-1,783,309,0,0
-434,715,0,0,0,0,0,0,0,0,0,-1,790,309,0,0
-427,715,0,0,0,0,0,0,0,0,0,-1,797,309,0,0
-420,715,0,0,0,0,0,0,0,0,0,-1,804,309,0,0
-413,715,0,0,0,0,0,0,0,0,0,-1,811,309,0,0
-406,715,0,0,0,0,0,0,0,0,0,-1,818,309,0,0
-399,715,0,0,0,0,0,0,0,0,0,-1,825,309,0,0
-392,715,0,0,0,0,0,0,0,0,0,-1,832,309,0,0
-385,715,0,0,0,0,0,0,0,0,0,-1,839,309,0,0
-378,715,0,0,0,0,0,0,0,0,0,-1,846,309,0,0
-371,715,0,0,0,0,0,0,0,0,0,-1,853,309,0,0
-364,715,0,0,0,0,0,0,0,0,0,-1,860,309,0,0
-357,715,0,0,0,0,0,0,0,0,0,-1,867,309,0,0
-350,715,0,0,0,0,0,0,0,0,0,-1,874,309,0,0
-343,715,0,0,0,0,0,0,0,0,0,-1,881,309,0,0
-336,715,0,0,0,0,0,0,0,0,0,-1,888,309,0,0
-329,715,0,0,0,0,0,0,0,0,0,-1,895,309,0,0
-322,715,0,0,0,0,0,0,0,0,0,-1,902,309,0,0
-315,715,0,0,0,0,0,0,0,0,0,-1,909,309,0,0
-308,715,0,0,0,0,0,0,0,0,0,-1,916,309,0,0
-301,715,0,0,0,0,0,0,0,0,0,-1,923,309,0,0
-294,715,0,0,0,0,0,0,0,0,0,-1,930,309,0,0
-287,715,0,0,0,0,0,0,0,0,0,-1,937,309,0,0
-280,715,0,0,0,0,0,0,0,0,0,-1,944,309,0,0
-273,715,0,0,0,0,0,0,0,0,0,-1,951,309,0,0
-266,715,0,0,0,0,0,0,0,0,0,-1,958,309,0,0
-259,715,0,0,0,0,0,0,0,0,0,-1,965,309,0,0
-252,715,0,0,0,0,0,0,0,0,0,-1,972,309,0,0
-245,715,0,0,0,0,0,0,0,0,0,-1,979,309,0,0
-238,715,0,0,0,0,0,0,0,0,0,-1,986,309,0,0
-231,715,0,0,0,0,0,0,0,0,0,-1,993,309,0,0
-224,715,0,0,0,0,0,0,0,0,0,-1,1000,309,0,0
-217,715,0,0,0,0,0,0,0,0,0,-1,1007,309,0,0
-210,715,0,0,0,0,0,0,0,0,0,-1,1014,309,0,0
-203,715,0,0,0,0,0,0,0,0,0,-1,1021,309,0,0
-196,715,0,0,0,0,0,0,0,0,0,-1,1028,309,0,0
-189,715,0,0,0,0,0,0,0,0,0,-1,1035,309,0,0
-182,715,0,0,0,0,0,0,0,0,0,-1,1042,309,0,0
-175,715,0,0,0,0,0,0,0,0,0,-1,1049,309,0,0
-168,715,0,0,0,0,0,0,0,0,0,-1,1056,309,0,0
-161,715,0,0,0,0,0,0,0,0,0,-1,1063,309,0,0
-154,715,0,0,0,0,0,0,0,0,0,-1,1070,309,0,0
-147,715,0,0,0,0,0,0,0,0,0,-1,1077,309,0,0
-140,715,0,0,0,0,0,0,0,0,0,-1,1084,309,0,0
-133,715,0,0,0,0,0,0,0,0,0,-1,1091,309,0,0
-126,715,0,0,0,0,0,0,0,0,0,-1,1098,309,0,0
-119,715,0,0,0,0,0,0,0,0,0,-1,1105,309,0,0
-112,715,0,0,0,0,0,0,0,0,0,-1,1112,309,0,0
-105,715,0,0,0,0,0,0,0,0,0,-1,1119,309,0,0
-98,715,0,0,0,0,0,0,0,0,0,-1,1126,309,0,0
-91,715,0,0,0,0,0,0,0,0,0,-1,1133,309,0,0
-84,715,0,0,0,0,0,0,0,0,0,-1,1140,309,0,0
-77,715,0,0,0,0,0,0,0,0,0,-1,1147,309,0,0
-70,715,0,0,0,0,0,0,0,0,0,-1,1154,309,0,0
-63,715,0,0,0,0,0,0,0,0,0,-1,1161,309,0,0
-56,715,0,0,0,0,0,0,0,0,0,-1,1168,309,0,0
-49,715,0,0,0,0,0,0,0,0,0,-1,1175,309,0,0
-42,715,0,0,0,0,0,0,0,0,0,-1,1182,309,0,0
-35,715,0,0,0,0,0,0,0,0,0,-1,1189,309,0,0
-28,715,0,0,0,0,0,0,0,0,0,-1,1196,309,0,0
-21,715,0,0,0,0,0,0,0,0,0,-1,1203,309,0,0
-14,715,0,0,0,0,0,0,0,0,0,-1,1210,309,0,0
-7,715,0,0,0,0,0,0,0,0,0,-1,1217,309,0,0
0,715,0,0,0,0,0,0,0,0,0,-1,1224,309,0,0
7,715,0,0,0,0,0,0,0,0,0,-1,1231,309,0,0
14,715,0,0,0,0,0,0,0,0,0,-1,1238,309,0,0
21,715,0,0,0,0,0,0,0,0,0,-1,1245,309,0,0
28,715,0,0,0,0,0,0,0,0,0,-1,1252,309,0,0
35,715,0,0,0,0,0,0,0,0,0,-1,1259,309,0,0
42,715,0,0,0,0,0,0,0,0,0,-1,1266,309,0,0
49,715,0,0,0,0,0,0,0,0,0,-1,1273,309,0,0
56,715,0,0,0,0,0,0,0,0,0,-1,1280,309,0,0
63,715,5.70276,-11.1675,0.0934053,0.0348796,0.0474731,0.11991,0.008375,0.5092,0.0772997,0.0435935,1287,309,5.70282,11.1675
70,715,4.55298,-9.79025,0,0,0,0,0,0,0,-1,1294,309,4.55303,9.79024
77,715,0,0,0,0,0,0,0,0,0,-1,1301,309,0,0
84,715,0,0,0,0,0,0,0,0,0,-1,1308,309,0,0
91,715,0,0,0,0,0,0,0,0,0,-1,1315,309,0,0
98,715,0,0,0,0,0,0,0,0,0,-1,1322,309,0,0
105,715,0,0,0,0,0,0,0,0,0,-1,1329,309,0,0
112,715,0,0,0,0,0,0,0,0,0,-1,1336,309,0,0
119,715,0,0,0,0,0,0,0,0,0,-1,1343,309,0,0
126,715,0,0,0,0,0,0,0,0,0,-1,1350,309,0,0
133,715,0,0,0,0,0,0,0,0,0,-1,1357,309,0,0
140,715,0,0,0,0,0,0,0,0,0,-1,1364,309,0,0
147,715,0,0,0,0,0,0,0,0,0,-1,1371,309,0,0
154,715,0,0,0,0,0,0,0,0,0,-1,1378,309,0,0
161,715,0,0,0,0,0,0,0,0,0,-1,1385,309,0,0
168,715,0,0,0,0,0,0,0,0,0,-1,1392,309,0,0
175,715,0,0,0,0,0,0,0,0,0,-1,1399,309,0,0
182,715,0,0,0,0,0,0,0,0,0,-1,1406,309,0,0
189,715,0,0,0,0,0,0,0,0,0,-1,1413,309,0,0
196,715,0,0,0,0,0,0,0,0,0,-1,1420,309,0,0
203,715,0,0,0,0,0,0,0,0,0,-1,1427,309,0,0
210,715,0,0,0,0,0,0,0,0,0,-1,1434,309,0,0
217,715,0,0,0,0,0,0,0,0,0,-1,1441,309,0,0
224,715,0,0,0,0,0,0,0,0,0,-1,1448,309,0,0
231,715,0,0,0,0,0,0,0,0,0,-1,1455,309,0,0
238,715,0,0,0,0,0,0,0,0,0,-1,1462,309,0,0
245,715,0,0,0,0,0,0,0,0,0,-1,1469,309,0,0
252,715,0,0,0,0,0,0,0,0,0,-1,1476,309,0,0
259,715,0,0,0,0,0,0,0,0,0,-1,1483,309,0,0
266,715,0,0,0,0,0,0,0,0,0,-1,1490,309,0,0
273,715,0,0,0,0,0,0,0,0,0,-1,1497,309,0,0
280,715,0,0,0,0,0,0,0,0,0,-1,1504,309,0,0
287,715,0,0,0,0,0,0,0,0,0,-1,1511,309,0,0
294,715,0,0,0,0,0,0,0,0,0,-1,1518,309,0,0
301,715,0,0,0,0,0,0,0,0,0,-1,1525,309,0,0
308,715,0,0,0,0,0,0,0,0,0,-1,1532,309,0,0
315,715,0,0,0,0,0,0,0,0,0,-1,1539,309,0,0
322,715,0,0,0,0,0,0,0,0,0,-1,1546,309,0,0
329,715,0,0,0,0,0,0,0,0,0,-1,1553,309,0,0
336,715,0,0,0,0,0,0,0,0,0,-1,1560,309,0,0
343,715,0,0,0,0,0,0,0,0,0,-1,1567,309,0,0
350,715,0,0,0,0,0,0,0,0,0,-1,1574,309,0,0
357,715,0,0,0,0,0,0,0,0,0,-1,1581,309,0,0
364,715,0,0,0,0,0,0,0,0,0,-1,1588,309,0,0
371,715,0,0,0,0,0,0,0,0,0,-1,1595,309,0,0
378,715,0,0,0,0,0,0,0,0,0,-1,1602,309,0,0
385,715,0,0,0,0,0,0,0,0,0,-1,1609,309,0,0
392,715,0,0,0,0,0,0,0,0,0,-1,1616,309,0,0
399,715,0,0,0,0,0,0,0,0,0,-1,1623,309,0,0
406,715,0,0,0,0,0,0,0,0,0,-1,1630,309,0,0
413,715,0,0,0,0,0,0,0,0,0,-1,1637,309,0,0
420,715,0,0,0,0,0,0,0,0,0,-1,1644,309,0,0
427,715,0,0,0,0,0,0,0,0,0,-1,1651,309,0,0
434,715,0,0,0,0,0,0,0,0,0,-1,1658,309,0,0
441,715,0,0,0,0,0,0,0,0,0,-1,1665,309,0,0
448,715,0,0,0,0,0,0,0,0,0,-1,1672,309,0,0
455,715,0,0,0,0,0,0,0,0,0,-1,1679,309,0,0
462,715,0,0,0,0,0,0,0,0,0,-1,1686,309,0,0
469,715,0,0,0,0,0,0,0,0,0,-1,1693,309,0,0
476,715,0,0,0,0,0,0,0,0,0,-1,1700,309,0,0
483,715,0,0,0,0,0,0,0,0,0,-1,1707,309,0,0
490,715,0,0,0,0,0,0,0,0,0,-1,1714,309,0,0
497,715,0,0,0,0,0,0,0,0,0,-1,1721,309,0,0
504,715,0,0,0,0,0,0,0,0,0,-1,1728,309,0,0
511,715,0,0,0,0,0,0,0,0,0,-1,1735,309,0,0
518,715,0,0,0,0,0,0,0,0,0,-1,1742,309,0,0
525,715,0,0,0,0,0,0,0,0,0,-1,1749,309,0,0
532,715,0,0,0,0,0,0,0,0,0,-1,1756,309,0,0
539,715,0,0,0,0,0,0,0,0,0,-1,1763,309,0,0
546,715,0,0,0,0,0,0,0,0,0,-1,1770,309,0,0
553,715,0,0,0,0,0,0,0,0,0,-1,1777,309,0,0
560,715,0,0,0,0,0,0,0,0,0,-1,1784,309,0,0
567,715,0,0,0,0,0,0,0,0,0,-1,1791,309,0,0
574,715,0,0,0,0,0,0,0,0,0,-1,1798,309,0,0
581,715,0,0,0,0,0,0,0,0,0,-1,1805,309,0,0
588,715,0,0,0,0,0,0,0,0,0,-1,1812,309,0,0
595,715,0,0,0,0,0,0,0,0,0,-1,1819,309,0,0
602,715,0,0,0,0,0,0,0,0,0,-1,1826,309,0,0
609,715,0,0,0,0,0,0,0,0,0,-1,1833,309,0,0
616,715,0,0,0,0,0,0,0,0,0,-1,1840,309,0,0
623,715,0,0,0,0,0,0,0,0,0,-1,1847,309,0,0
630,715,0,0,0,0,0,0,0,0,0,-1,1854,309,0,0
637,715,0,0,0,0,0,0,0,0,0,-1,1861,309,0,0
644,715,0,0,0,0,0,0,0,0,0,-1,1868,309,0,0
651,715,0,0,0,0,0,0,0,0,0,-1,1875,309,0,0
658,715,0,0,0,0,0,0,0,0,0,-1,1882,309,0,0
665,715,0,0,0,0,0,0,0,0,0,-1,1889,309,0,0
672,715,0,0,0,0,0,0,0,0,0,-1,1896,309,0,0
679,715,0,0,0,0,0,0,0,0,0,-1,1903,309,0,0
686,715,0,0,0,0,0,0,0,0,0,-1,1910,309,0,0
693,715,0,0,0,0,0,0,0,0,0,-1,1917,309,0,0
700,715,0,0,0,0,0,0,0,0,0,-1,1924,309,0,0
707,715,0,0,0,0,0,0,0,0,0,-1,1931,309,0,0
714,715,0,0,0,0,0,0,0,0,0,-1,1938,309,0,0
721,715,0,0,0,0,0,0,0,0,0,-1,1945,309,0,0
728,715,0,0,0,0,0,0,0,0,0,-1,1952,309,0,0
735,715,0,0,0,0,0,0,0,0,0,-1,1959,309,0,0
742,715,0,0,0,0,0,0,0,0,0,-1,1966,309,0,0
749,715,0,0,0,0,0,0,0,0,0,-1,1973,309,0,0
756,715,0,0,0,0,0,0,0,0,0,-1,1980,309,0,0
763,715,0,0,0,0,0,0,0,0,0,-1,1987,309,0,0
770,715,0,0,0,0,0,0,0,0,0,-1,1994,309,0,0
777,715,0,0,0,0,0,0,0,0,0,-1,2001,309,0,0
784,715,0,0,0,0,0,0,0,0,0,-1,2008,309,0,0
791,715,0,0,0,0,0,0,0,0,0,-1,2015,309,0,0
798,715,0,0,0,0,0,0,0,0,0,-1,2022,309,0,0
805,715,0,0,0,0,0,0,0,0,0,-1,2029,309,0,0
812,715,0,0,0,0,0,0,0,0,0,-1,2036,309,0,0
-700,708,0,0,0,0,0,0,0,0,0,-1,524,316,0,0
-693,708,0,0,0,0,0,0,0,0,0,-1,531,316,0,0
-686,708,0,0,0,0,0,0,0,0,0,-1,538,316,0,0
-679,708,0,0,0,0,0,0,0,0,0,-1,545,316,0,0
-672,708,0,0,0,0,0,0,0,0,0,-1,552,316,0,0
-665,708,0,0,0,0,0,0,0,0,0,-1,559,316,0,0
-658,708,0,0,0,0,0,0,0,0,0,-1,566,316,0,0
-651,708,0,0,0,0,0,0,0,0,0,-1,573,316,0,0
-644,708,0,0,0,0,0,0,0,0,0,-1,580,316,0,0
-637,708,0,0,0,0,0,0,0,0,0,-1,587,316,0,0
-630,708,0,0,0,0,0,0,0,0,0,-1,594,316,0,0
-623,708,0,0,0,0,0,0,0,0,0,-1,601,316,0,0
-616,708,0,0,0,0,0,0,0,0,0,-1,608,316,0,0
-609,708,0,0,0,0,0,0,0,0,0,-1,615,316,0,0
-602,708,0,0,0,0,0,0,0,0,0,-1,622,316,0,0
-595,708,0,0,0,0,0,0,0,0,0,-1,629,316,0,0
-588,708,0,0,0,0,0,0,0,0,0,-1,636,316,0,0
-581,708,0,0,0,0,0,0,0,0,0,-1,643,316,0,0
-574,708,0,0,0,0,0,0,0,0,0,-1,650,316,0,0
-567,708,0,0,0,0,0,0,0,0,0,-1,657,316,0,0
-560,708,0,0,0,0,0,0,0,0,0,-1,664,316,0,0
-553,708,0,0,0,0,0,0,0,0,0,-1,671,316,0,0
-546,708,0,0,0,0,0,0,0,0,0,-1,678,316,0,0
-539,708,0,0,0,0,0,0,0,0,0,-1,685,316,0,0
-532,708,0,0,0,0,0,0,0,0,0,-1,692,316,0,0
-525,708,0,0,0,0,0,0,0,0,0,-1,699,316,0,0
-518,708,0,0,0,0,0,0,0,0,0,-1,706,316,0,0
-511,708,0,0,0,0,0,0,0,0,0,-1,713,316,0,0
-504,708,0,0,0,0,0,0,0,0,0,-1,720,316,0,0
-497,708,0,0,0,0,0,0,0,0,0,-1,727,316,0,0
-490,708,0,0,0,0,0,0,0,0,0,-1,734,316,0,0
-483,708,0,0,0,0,0,0,0,0,0,-1,741,316,0,0
-476,708,0,0,0,0,0,0,0,0,0,-1,748,316,0,0
-469,708,0,0,0,0,0,0,0,0,0,-1,755,316,0,0
-462,708,0,0,0,0,0,0,0,0,0,-1,762,316,0,0
-455,708,0,0,0,0,0,0,0,0,0,-1,769,316,0,0
-448,708,0,0,0,0,0,0,0,0,0,-1,776,316,0,0
-441,708,0,0,0,0,0,0,0,0,0,-1,783,316,0,0
-434,708,0,0,0,0,0,0,0,0,0,-1,790,316,0,0
-427,708,0,0,0,0,0,0,0,0,0,-1,797,316,0,0
-420,708,0,0,0,0,0,0,0,0,0,-1,804,316,0,0
-413,708,0,0,0,0,0,0,0,0,0,-1,811,316,0,0
-406,708,0,0,0,0,0,0,0,0,0,-1,818,316,0,0
-399,708,0,0,0,0,0,0,0,0,0,-1,825,316,0,0
-392,708,0,0,0,0,0,0,0,0,0,-1,832,316,0,0
-385,708,0,0,0,0,0,0,0,0,0,-1,839,316,0,0
-378,708,0,0,0,0,0,0,0,0,0,-1,846,316,0,0
-371,708,0,0,0,0,0,0,0,0,0,-1,853,316,0,0
-364,708,0,0,0,0,0,0,0,0,0,-1,860,316,0,0
-357,708,0,0,0,0,0,0,0,0,0,-1,867,316,0,0
-350,708,0,0,0,0,0,0,0,0,0,-1,874,316,0,0
-343,708,0,0,0,0,0,0,0,0,0,-1,881,316,0,0
-336,708,0,0,0,0,0,0,0,0,0,-1,888,316,0,0
-329,708,0,0,0,0,0,0,0,0,0,-1,895,316,0,0
-322,708,0,0,0,0,0,0,0,0,0,-1,902,316,0,0
-315,708,0,0,0,0,0,0,0,0,0,-1,909,316,0,0
-308,708,0,0,0,0,0,0,0,0,0,-1,916,316,0,0
-301,708,0,0,0,0,0,0,0,0,0,-1,923,316,0,0
-294,708,0,0,0,0,0,0,0,0,0,-1,930,316,0,0
-287,708,0,0,0,0,0,0,0,0,0,-1,937,316,0,0
-280,708,0,0,0,0,0,0,0,0,0,-1,944,316,0,0
-273,708,0,0,0,0,0,0,0,0,0,-1,951,316,0,0
-266,708,0,0,0,0,0,0,0,0,0,-1,958,316,0,0
-259,708,0,0,0,0,0,0,0,0,0,-1,965,316,0,0
-252,708,0,0,0,0,0,0,0,0,0,-1,972,316,0,0
-245,708,0,0,0,0,0,0,0,0,0,-1,979,316,0,0
-238,708,0,0,0,0,0,0,0,0,0,-1,986,316,0,0
-231,708,0,0,0,0,0,0,0,0,0,-1,993,316,0,0
-224,708,0,0,0,0,0,0,0,0,0,-1,1000,316,0,0
-217,708,0,0,0,0,0,0,0,0,0,-1,1007,316,0,0
-210,708,0,0,0,0,0,0,0,0,0,-1,1014,316,0,0
-203,708,0,0,0,0,0,0,0,0,0,-1,1021,316,0,0
-196,708,0,0,0,0,0,0,0,0,0,-1,1028,316,0,0
-189,708,0,0,0,0,0,0,0,0,0,-1,1035,316,0,0
-182,708,0,0,0,0,0,0,0,0,0,-1,1042,316,0,0
-175,708,0,0,0,0,0,0,0,0,0,-1,1049,316,0,0
-168,708,0,0,0,0,0,0,0,0,0,-1,1056,316,0,0
-161,708,0,0,0,0,0,0,0,0,0,-1,1063,316,0,0
-154,708,0,0,0,0,0,0,0,0,0,-1,1070,316,0,0
-147,708,0,0,0,0,0,0,0,0,0,-1,1077,316,0,0
-140,708,0,0,0,0,0,0,0,0,0,-1,1084,316,0,0
-133,708,0,0,0,0,0,0,0,0,0,-1,1091,316,0,0
-126,708,0,0,0,0,0,0,0,0,0,-1,1098,316,0,0
-119,708,0,0,0,0,0,0,0,0,0,-1,1105,316,0,0
-112,708,0,0,0,0,0,0,0,0,0,-1,1112,316,0,0
-105,708,0,0,0,0,0,0,0,0,0,-1,1119,316,0,0
-98,708,0,0,0,0,0,0,0,0,0,-1,1126,316,0,0
-91,708,0,0,0,0,0,0,0,0,0,-1,1133,316,0,0
-84,708,0,0,0,0,0,0,0,0,0,-1,1140,316,0,0
-77,708,0,0,0,0,0,0,0,0,0,-1,1147,316,0,0
-70,708,0,0,0,0,0,0,0,0,0,-1,1154,316,0,0
-63,708,0,0,0,0,0,0,0,0,0,-1,1161,316,0,0
-56,708,0,0,0,0,0,0,0,0,0,-1,1168,316,0,0
-49,708,0,0,0,0,0,0,0,0,0,-1,1175,316,0,0
-42,708,0,0,0,0,0,0,0,0,0,-1,1182,316,0,0
-35,708,-2.71204,-6.31558,0,0,0,0,0,0,0,-1,1189,316,-2.712,6.3156
-28,708,-2.92371,-5.53253,0,0,0,0,0,0,0,-1,1196,316,-2.92375,5.53254
-21,708,-5.32227,-7.36841,0,0,0,0,0,0,0,-1,1203,316,-5.32232,7.3684
-14,708,2.2572,-10.7642,0,0,0,0,0,0,0,-1,1210,316,2.25722,10.7642
-7,708,4.70288,-9.46448,0,0,0,0,0,0,0,-1,1217,316,4.70287,9.46448
0,708,3.86511,-8.90692,0,0,0,0,0,0,0,-1,1224,316,3.86513,8.90692
7,708,3.60962,-8.7742,0.0309902,2.37294e-05,0.0724192,0.0895628,-0.0585489,0.680084,0.086135,0.0461013,1231,316,3.60966,8.77419
14,708,3.36243,-8.59393,0.0573514,0.00620002,0.0651631,0.101778,-0.0382268,0.598392,0.0835617,0.0427972,1238,316,3.36245,8.59394
21,708,3.08582,-8.59799,0,0,0,0,0,0,0,-1,1245,316,3.08576,8.59798
28,708,2.87476,-8.53067,0.114431,0.0203152,0.0495634,0.135717,-0.000971481,0.405662,0.0908038,0.041979,1252,316,2.87473,8.53067
35,708,2.3761,-8.02213,0.135721,0.0270634,0.0427818,0.150544,0.012241,0.333523,0.0965412,0.044849,1259,316,2.37613,8.02213
42,708,7.29675,-11.8553,0.144148,0.0312277,0.0373898,0.155406,0.0199697,0.292463,0.0976308,0.045767,1266,316,7.29674,11.8553
49,708,6.67224,-11.3856,0.140331,0.0326468,0.0339347,0.150133,0.0228451,0.281187,0.0934096,0.0427541,1273,316,6.67222,11.3856
56,708,6.51245,-12.4454,0.116815,0.0341943,0.0334956,0.128688,0.022321,0.340655,0.0794045,0.0429683,1280,316,6.51243,12.4454
63,708,5.56616,-11.3211,0.087219,0.0355022,0.0313828,0.102024,0.0206969,0.440805,0.0622744,0.0410411,1287,316,5.56613,11.3211
70,708,5.05579,-10.7658,0,0,0,0,0,0,0,-1,1294,316,5.05583,10.7658
77,708,4.35962,-10.5536,0,0,0,0,0,0,0,-1,1301,316,4.35959,10.5536
84,708,3.46887,-9.89545,0,0,0,0,0,0,0,-1,1308,316,3.46887,9.89545
91,708,3.578,-8.18384,0,0,0,0,0,0,0,-1,1315,316,3.57799,8.18384
98,708,2.74512,-8.15933,0,0,0,0,0,0,0,-1,1322,316,2.74512,8.15933
105,708,1.91101,-8.16928,-0.147126,-0.0443991,0.0304547,-0.0360492,-0.155476,1.3032,0.0939684,0.0435205,1329,316,1.91105,8.16927
112,708,1.29492,-7.96701,-0.155715,-0.0580267,0.0307724,-0.0491413,-0.1646,1.2897,0.0975692,0.0434307,1336,316,1.29498,7.96701
119,708,-0.484497,-10.3253,-0.161325,-0.0767931,0.0308938,-0.0667061,-0.171412,1.2552,0.0997724,0.0432544,1343,316,-0.48453,10.3253
126,708,-1.94275,-9.21149,-0.161872,-0.0966504,0.0387038,-0.0786504,-0.179872,1.13548,0.104121,0.0455421,1350,316,-1.94273,9.21149
133,708,-3.22681,-8.05276,-0.161163,-0.118948,0.0479929,-0.0876259,-0.192485,0.992573,0.11128,0.0496257,1357,316,-3.22675,8.05276
140,708,-4.51648,-6.89447,0,0,0,0,0,0,0,-1,1364,316,-4.51652,6.89447
147,708,2.93713,-10.0973,0,0,0,0,0,0,0,-1,1371,316,2.93718,10.0973
154,708,0,0,0,0,0,0,0,0,0,-1,1378,316,0,0
161,708,0,0,0,0,0,0,0,0,0,-1,1385,316,0,0
168,708,0,0,0,0,0,0,0,0,0,-1,1392,316,0,0
175,708,0,0,0,0,0,0,0,0,0,-1,1399,316,0,0
182,708,0,0,0,0,0,0,0,0,0,-1,1406,316,0,0
189,708,0,0,0,0,0,0,0,0,0,-1,1413,316,0,0
196,708,0,0,0,0,0,0,0,0,0,-1,1420,316,0,0
203,708,0,0,0,0,0,0,0,0,0,-1,1427,316,0,0
210,708,0,0,0,0,0,0,0,0,0,-1,1434,316,0,0
217,708,0,0,0,0,0,0,0,0,0,-1,1441,316,0,0
224,708,0,0,0,0,0,0,0,0,0,-1,1448,316,0,0
231,708,0,0,0,0,0,0,0,0,0,-1,1455,316,0,0
238,708,0,0,0,0,0,0,0,0,0,-1,1462,316,0,0
245,708,0,0,0,0,0,0,0,0,0,-1,1469,316,0,0
252,708,0,0,0,0,0,0,0,0,0,-1,1476,316,0,0
259,708,0,0,0,0,0,0,0,0,0,-1,1483,316,0,0
266,708,0,0,0,0,0,0,0,0,0,-1,1490,316,0,0
273,708,0,0,0,0,0,0,0,0,0,-1,1497,316,0,0
280,708,0,0,0,0,0,0,0,0,0,-1,1504,316,0,0
287,708,0,0,0,0,0,0,0,0,0,-1,1511,316,0,0
294,708,0,0,0,0,0,0,0,0,0,-1,1518,316,0,0
301,708,0,0,0,0,0,0,0,0,0,-1,1525,316,0,0
308,708,0,0,0,0,0,0,0,0,0,-1,1532,316,0,0
315,708,0,0,0,0,0,0,0,0,0,-1,1539,316,0,0
322,708,0,0,0,0,0,0,0,0,0,-1,1546,316,0,0
329,708,0,0,0,0,0,0,0,0,0,-1,1553,316,0,0
336,708,0,0,0,0,0,0,0,0,0,-1,1560,316,0,0
343,708,0,0,0,0,0,0,0,0,0,-1,1567,316,0,0
350,708,0,0,0,0,0,0,0,0,0,-1,1574,316,0,0
357,708,0,0,0,0,0,0,0,0,0,-1,1581,316,0,0
364,708,0,0,0,0,0,0,0,0,0,-1,1588,316,0,0
371,708,0,0,0,0,0,0,0,0,0,-1,1595,316,0,0
378,708,0,0,0,0,0,0,0,0,0,-1,1602,316,0,0
385,708,0,0,0,0,0,0,0,0,0,-1,1609,316,0,0
392,708,0,0,0,0,0,0,0,0,0,-1,1616,316,0,0
399,708,0,0,0,0,0,0,0,0,0,-1,1623,316,0,0
406,708,0,0,0,0,0,0,0,0,0,-1,1630,316,0,0
413,708,0,0,0,0,0,0,0,0,0,-1,1637,316,0,0
420,708,0,0,0,0,0,0,0,0,0,-1,1644,316,0,0
427,708,0,0,0,0,0,0,0,0,0,-1,1651,316,0,0
434,708,0,0,0,0,0,0,0,0,0,-1,1658,316,0,0
441,708,0,0,0,0,0,0,0,0,0,-1,1665,316,0,0
448,708,0,0,0,0,0,0,0,0,0,-1,1672,316,0,0
455,708,0,0,0,0,0,0,0,0,0,-1,1679,316,0,0
462,708,0,0,0,0,0,0,0,0,0,-1,1686,316,0,0
469,708,0,0,0,0,0,0,0,0,0,-1,1693,316,0,0
476,708,0,0,0,0,0,0,0,0,0,-1,1700,316,0,0
483,708,0,0,0,0,0,0,0,0,0,-1,1707,316,0,0
490,708,0,0,0,0,0,0,0,0,0,-1,1714,316,0,0
497,708,0,0,0,0,0,0,0,0,0,-1,1721,316,0,0
504,708,0,0,0,0,0,0,0,0,0,-1,1728,316,0,0
511,708,0,0,0,0,0,0,0,0,0,-1,1735,316,0,0
518,708,0,0,0,0,0,0,0,0,0,-1,1742,316,0,0
525,708,0,0,0,0,0,0,0,0,0,-1,1749,316,0,0
532,708,0,0,0,0,0,0,0,0,0,-1,1756,316,0,0
539,708,0,0,0,0,0,0,0,0,0,-1,1763,316,0,0
546,708,0,0,0,0,0,0,0,0,0,-1,1770,316,0,0
553,708,0,0,0,0,0,0,0,0,0,-1,1777,316,0,0
560,708,0,0,0,0,0,0,0,0,0,-1,1784,316,0,0
567,708,0,0,0,0,0,0,0,0,0,-1,1791,316,0,0
574,708,0,0,0,0,0,0,0,0,0,-1,1798,316,0,0
581,708,0,0,0,0,0,0,0,0,0,-1,1805,316,0,0
588,708,0,0,0,0,0,0,0,0,0,-1,1812,316,0,0
595,708,0,0,0,0,0,0,0,0,0,-1,1819,316,0,0
602,708,0,0,0,0,0,0,0,0,0,-1,1826,316,0,0
609,708,0,0,0,0,0,0,0,0,0,-1,1833,316,0,0
616,708,0,0,0,0,0,0,0,0,0,-1,1840,316,0,0
623,708,0,0,0,0,0,0,0,0,0,-1,1847,316,0,0
630,708,0,0,0,0,0,0,0,0,0,-1,1854,316,0,0
637,708,0,0,0,0,0,0,0,0,0,-1,1861,316,0,0
644,708,0,0,0,0,0,0,0,0,0,-1,1868,316,0,0
651,708,0,0,0,0,0,0,0,0,0,-1,1875,316,0,0
658,708,0,0,0,0,0,0,0,0,0,-1,1882,316,0,0
665,708,0,0,0,0,0,0,0,0,0,-1,1889,316,0,0
672,708,0,0,0,0,0,0,0,0,0,-1,1896,316,0,0
679,708,0,0,0,0,0,0,0,0,0,-1,1903,316,0,0
686,708,0,0,0,0,0,0,0,0,0,-1,1910,316,0,0
693,708,0,0,0,0,0,0,0,0,0,-1,1917,316,0,0
700,708,0,0,0,0,0,0,0,0,0,-1,1924,316,0,0
707,708,0,0,0,0,0,0,0,0,0,-1,1931,316,0,0
714,708,0,0,0,0,0,0,0,0,0,-1,1938,316,0,0
721,708,0,0,0,0,0,0,0,0,0,-1,1945,316,0,0
728,708,0,0,0,0,0,0,0,0,0,-1,1952,316,0,0
735,708,0,0,0,0,0,0,0,0,0,-1,1959,316,0,0
742,708,0,0,0,0,0,0,0,0,0,-1,1966,316,0,0
749,708,0,0,0,0,0,0,0,0,0,-1,1973,316,0,0
756,708,0,0,0,0,0,0,0,0,0,-1,1980,316,0,0
763,708,0,0,0,0,0,0,0,0,0,-1,1987,316,0,0
770,708,0,0,0,0,0,0,0,0,0,-1,1994,316,0,0
777,708,0,0,0,0,0,0,0,0,0,-1,2001,316,0,0
784,708,0,0,0,0,0,0,0,0,0,-1,2008,316,0,0
791,708,0,0,0,0,0,0,0,0,0,-1,2015,316,0,0
798,708,0,0,0,0,0,0,0,0,0,-1,2022,316,0,0
805,708,0,0,0,0,0,0,0,0,0,-1,2029,316,0,0
812,708,0,0,0,0,0,0,0,0,0,-1,2036,316,0,0
-700,701,0,0,0,0,0,0,0,0,0,-1,524,323,0,0
-693,701,0,0,0,0,0,0,0,0,0,-1,531,323,0,0
-686,701,0,0,0,0,0,0,0,0,0,-1,538,323,0,0
-679,701,0,0,0,0,0,0,0,0,0,-1,545,323,0,0
-672,701,0,0,0,0,0,0,0,0,0,-1,552,323,0,0
-665,701,0,0,0,0,0,0,0,0,0,-1,559,323,0,0
-658,701,0,0,0,0,0,0,0,0,0,-1,566,323,0,0
-651,701,0,0,0,0,0,0,0,0,0,-1,573,323,0,0
-644,701,0,0,0,0,0,0,0,0,0,-1,580,323,0,0
-637,701,0,0,0,0,0,0,0,0,0,-1,587,323,0,0
-630,701,0,0,0,0,0,0,0,0,0,-1,594,323,0,0
-623,701,0,0,0,0,0,0,0,0,0,-1,601,323,0,0
-616,701,0,0,0,0,0,0,0,0,0,-1,608,323,0,0
-609,701,0,0,0,0,0,0,0,0,0,-1,615,323,0,0
-602,701,0,0,0,0,0,0,0,0,0,-1,622,323,0,0
-595,701,0,0,0,0,0,0,0,0,0,-1,629,323,0,0
-588,701,0,0,0,0,0,0,0,0,0,-1,636,323,0,0
-581,701,0,0,0,0,0,0,0,0,0,-1,643,323,0,0
-574,701,0,0,0,0,0,0,0,0,0,-1,650,323,0,0
-567,701,0,0,0,0,0,0,0,0,0,-1,657,323,0,0
-560,701,0,0,0,0,0,0,0,0,0,-1,664,323,0,0
-553,701,0,0,0,0,0,0,0,0,0,-1,671,323,0,0
-546,701,0,0,0,0,0,0,0,0,0,-1,678,323,0,0
-539,701,0,0,0,0,0,0,0,0,0,-1,685,323,0,0
-532,701,0,0,0,0,0,0,0,0,0,-1,692,323,0,0
-525,701,0,0,0,0,0,0,0,0,0,-1,699,323,0,0
-518,701,0,0,0,0,0,0,0,0,0,-1,706,323,0,0
-511,701,0,0,0,0,0,0,0,0,0,-1,713,323,0,0
-504,701,0,0,0,0,0,0,0,0,0,-1,720,323,0,0
-497,701,0,0,0,0,0,0,0,0,0,-1,727,323,0,0
-490,701,0,0,0,0,0,0,0,0,0,-1,734,323,0,0
-483,701,0,0,0,0,0,0,0,0,0,-1,741,323,0,0
-476,701,0,0,0,0,0,0,0,0,0,-1,748,323,0,0
-469,701,0,0,0,0,0,0,0,0,0,-1,755,323,0,0
-462,701,0,0,0,0,0,0,0,0,0,-1,762,323,0,0
-455,701,0,0,0,0,0,0,0,0,0,-1,769,323,0,0
-448,701,0,0,0,0,0,0,0,0,0,-1,776,323,0,0
-441,701,0,0,0,0,0,0,0,0,0,-1,783,323,0,0
-434,701,0,0,0,0,0,0,0,0,0,-1,790,323,0,0
-427,701,0,0,0,0,0,0,0,0,0,-1,797,323,0,0
-420,701,0,0,0,0,0,0,0,0,0,-1,804,323,0,0
-413,701,0,0,0,0,0,0,0,0,0,-1,811,323,0,0
-406,701,0,0,0,0,0,0,0,0,0,-1,818,323,0,0
-399,701,0,0,0,0,0,0,0,0,0,-1,825,323,0,0
-392,701,0,0,0,0,0,0,0,0,0,-1,832,323,0,0
-385,701,0,0,0,0,0,0,0,0,0,-1,839,323,0,0
-378,701,0,0,0,0,0,0,0,0,0,-1,846,323,0,0
-371,701,0,0,0,0,0,0,0,0,0,-1,853,323,0,0
-364,701,0,0,0,0,0,0,0,0,0,-1,860,323,0,0
-357,701,0,0,0,0,0,0,0,0,0,-1,867,323,0,0
-350,701,0,0,0,0,0,0,0,0,0,-1,874,323,0,0
-343,701,0,0,0,0,0,0,0,0,0,-1,881,323,0,0
-336,701,0,0,0,0,0,0,0,0,0,-1,888,323,0,0
-329,701,0,0,0,0,0,0,0,0,0,-1,895,323,0,0
-322,701,0,0,0,0,0,0,0,0,0,-1,902,323,0,0
-315,701,0,0,0,0,0,0,0,0,0,-1,909,323,0,0
-308,701,0,0,0,0,0,0,0,0,0,-1,916,323,0,0
-301,701,0,0,0,0,0,0,0,0,0,-1,923,323,0,0
-294,701,0,0,0,0,0,0,0,0,0,-1,930,323,0,0
-287,701,0,0,0,0,0,0,0,0,0,-1,937,323,0,0
-280,701,0,0,0,0,0,0,0,0,0,-1,944,323,0,0
-273,701,0,0,0,0,0,0,0,0,0,-1,951,323,0,0
-266,701,0,0,0,0,0,0,0,0,0,-1,958,323,0,0
-259,701,0,0,0,0,0,0,0,0,0,-1,965,323,0,0
-252,701,0,0,0,0,0,0,0,0,0,-1,972,323,0,0
-245,701,0,0,0,0,0,0,0,0,0,-1,979,323,0,0
-238,701,0,0,0,0,0,0,0,0,0,-1,986,323,0,0
-231,701,0,0,0,0,0,0,0,0,0,-1,993,323,0,0
-224,701,0,0,0,0,0,0,0,0,0,-1,1000,323,0,0
-217,701,0,0,0,0,0,0,0,0,0,-1,1007,323,0,0
-210,701,0,0,0,0,0,0,0,0,0,-1,1014,323,0,0
-203,701,0,0,0,0,0,0,0,0,0,-1,1021,323,0,0
-196,701,0,0,0,0,0,0,0,0,0,-1,1028,323,0,0
-189,701,0,0,0,0,0,0,0,0,0,-1,1035,323,0,0
-182,701,0,0,0,0,0,0,0,0,0,-1,1042,323,0,0
-175,701,0,0,0,0,0,0,0,0,0,-1,1049,323,0,0
-168,701,0,0,0,0,0,0,0,0,0,-1,1056,323,0,0
-161,701,0,0,0,0,0,0,0,0,0,-1,1063,323,0,0
-154,701,0,0,0,0,0,0,0,0,0,-1,1070,323,0,0
-147,701,0,0,0,0,0,0,0,0,0,-1,1077,323,0,0
-140,701,0,0,0,0,0,0,0,0,0,-1,1084,323,0,0
-133,701,0,0,0,0,0,0,0,0,0,-1,1091,323,0,0
-126,701,0,0,0,0,0,0,0,0,0,-1,1098,323,0,0
-119,701,0,0,0,0,0,0,0,0,0,-1,1105,323,0,0
-112,701,0,0,0,0,0,0,0,0,0,-1,1112,323,0,0
-105,701,0,0,0,0,0,0,0,0,0,-1,1119,323,0,0
-98,701,0,0,0,0,0,0,0,0,0,-1,1126,323,0,0
-91,701,0,0,0,0,0,0,0,0,0,-1,1133,323,0,0
-84,701,0,0,0,0,0,0,0,0,0,-1,1140,323,0,0
-77,701,0,0,0,0,0,0,0,0,0,-1,1147,323,0,0
-70,701,-2.36731,-1.49271,0,0,0,0,0,0,0,-1,1154,323,-2.36729,1.4927
-63,701,-2.479,-0.295959,0,0,0,0,0,0,0,-1,1161,323,-2.47895,0.295961
-56,701,-0.420166,-0.101776,0,0,0,0,0,0,0,-1,1168,323,-0.420119,0.101777
-49,701,-1.09021,-0.155762,0,0,0,0,0,0,0,-1,1175,323,-1.09024,0.155768
-42,701,-0.210327,-0.299133,0,0,0,0,0,0,0,-1,1182,323,-0.210379,0.29914
-35,701,-2.9635,-7.98676,0,0,0,0,0,0,0,-1,1189,323,-2.9635,7.98676
-28,701,-6.64417,-5.4917,0,0,0,0,0,0,0,-1,1196,323,-6.64411,5.4917
-21,701,-5.11584,-5.84219,0,0,0,0,0,0,0,-1,1203,323,-5.11583,5.8422
-14,701,3.48462,-9.72348,0,0,0,0,0,0,0,-1,1210,323,3.4846,9.72348
-7,701,3.74634,-9.46732,-0.015323,-0.00317904,0.0702403,0.0612513,-0.0797533,0.828514,0.0816423,0.0473324,1217,323,3.74632,9.46732
0,701,3.21826,-8.78455,0.00362997,0.000716845,0.06472,0.0669098,-0.062563,0.774147,0.0747652,0.0491906,1224,323,3.21822,8.78453
7,701,3.03564,-8.60715,0.0291188,0.00537903,0.0566177,0.0750975,-0.0405997,0.68207,0.0677804,0.0462235,1231,323,3.03569,8.60714
14,701,2.68103,-8.04318,0.0505053,0.0107677,0.0499743,0.0844156,-0.0231426,0.596189,0.0653713,0.0471541,1238,323,2.68106,8.04319
21,701,3.13245,-9.16699,0,0,0,0,0,0,0,-1,1245,323,3.13245,9.16699
28,701,2.55847,-8.58957,0.0966895,0.0225999,0.0360727,0.111351,0.00793828,0.386052,0.0717346,0.044224,1252,323,2.55846,8.58958
35,701,2.15051,-8.28952,0.114571,0.0280624,0.0301195,0.124025,0.0186088,0.304131,0.0772312,0.0428124,1259,323,2.15052,8.28953
42,701,1.74744,-7.92731,0.12165,0.0311042,0.0253779,0.128278,0.0244765,0.255455,0.0786398,0.0450716,1266,323,1.74748,7.9273
49,701,6.63,-12.4581,0.118889,0.031928,0.022266,0.124258,0.0265585,0.236638,0.0755584,0.0440877,1273,323,6.62999,12.4581
56,701,6.33008,-12.2567,0.100333,0.0326502,0.0218647,0.106781,0.0262013,0.286814,0.0642598,0.0429992,1280,323,6.33011,12.2567
63,701,5.79407,-11.5296,0.0757784,0.0334013,0.0205471,0.0841049,0.0250748,0.385016,0.0498597,0.0436756,1287,323,5.79412,11.5296
70,701,5.31384,-10.7965,0,0,0,0,0,0,0,-1,1294,323,5.31378,10.7965
77,701,4.46619,-10.3807,0,0,0,0,0,0,0,-1,1301,323,4.46618,10.3807
84,701,3.66858,-9.93991,0,0,0,0,0,0,0,-1,1308,323,3.66861,9.93991
91,701,2.91064,-9.74585,0,0,0,0,0,0,0,-1,1315,323,2.91061,9.74584
98,701,2.22876,-9.63638,0,0,0,0,0,0,0,-1,1322,323,2.22877,9.63637
105,701,1.84204,-8.71918,-0.12414,-0.0325134,0.0271716,-0.0250617,-0.131591,1.30313,0.0806817,0.0465514,1329,323,1.842,8.71916
112,701,1.10461,-8.14331,-0.130757,-0.0433335,0.0281924,-0.0350306,-0.13906,1.28438,0.0835159,0.0437599,1336,323,1.10456,8.14332
119,701,-0.0927734,-8.13373,-0.134609,-0.0579506,0.029431,-0.0479547,-0.144605,1.24338,0.0850512,0.0423505,1343,323,-0.0927965,8.13373
126,701,-1.62537,-8.08109,-0.134701,-0.0729791,0.035506,-0.0567967,-0.150883,1.14316,0.0879947,0.0476386,1350,323,-1.62535,8.08109
133,701,-2.94971,-7.12619,-0.133708,-0.0899802,0.0426755,-0.0638939,-0.159794,1.02213,0.0928722,0.0492755,1357,323,-2.9497,7.1262
140,701,-4.14014,-6.26611,0,0,0,0,0,0,0,-1,1364,323,-4.14016,6.26611
147,701,-1.35242,-6.08636,0,0,0,0,0,0,0,-1,1371,323,-1.35241,6.08638
154,701,-1.77588,-4.77414,0,0,0,0,0,0,0,-1,1378,323,-1.77588,4.77413
161,701,-2.26953,-3.39673,0,0,0,0,0,0,0,-1,1385,323,-2.26948,3.39672
168,701,6.88513,-0.0237427,0,0,0,0,0,0,0,-1,1392,323,6.88517,0.0237498
175,701,6.94556,0.0693054,0,0,0,0,0,0,0,-1,1399,323,6.94555,-0.0692958
182,701,8.80652,5.42807,0,0,0,0,0,0,0,-1,1406,323,8.8065,-5.42808
189,701,8.58081,4.24493,0,0,0,0,0,0,0,-1,1413,323,8.58082,-4.24494
196,701,0,0,0,0,0,0,0,0,0,-1,1420,323,0,0
203,701,0,0,0,0,0,0,0,0,0,-1,1427,323,0,0
210,701,0,0,0,0,0,0,0,0,0,-1,1434,323,0,0
217,701,0,0,0,0,0,0,0,0,0,-1,1441,323,0,0
224,701,0,0,0,0,0,0,0,0,0,-1,1448,323,0,0
231,701,0,0,0,0,0,0,0,0,0,-1,1455,323,0,0
238,701,0,0,0,0,0,0,0,0,0,-1,1462,323,0,0
245,701,0,0,0,0,0,0,0,0,0,-1,1469,323,0,0
252,701,0,0,0,0,0,0,0,0,0,-1,1476,323,0,0
259,701,0,0,0,0,0,0,0,0,0,-1,1483,323,0,0
266,701,0,0,0,0,0,0,0,0,0,-1,1490,323,0,0
273,701,0,0,0,0,0,0,0,0,0,-1,1497,323,0,0
280,701,0,0,0,0,0,0,0,0,0,-1,1504,323,0,0
287,701,0,0,0,0,0,0,0,0,0,-1,1511,323,0,0
294,701,0,0,0,0,0,0,0,0,0,-1,1518,323,0,0
301,701,0,0,0,0,0,0,0,0,0,-1,1525,323,0,0
308,701,0,0,0,0,0,0,0,0,0,-1,1532,323,0,0
315,701,0,0,0,0,0,0,0,0,0,-1,1539,323,0,0
322,701,0,0,0,0,0,0,0,0,0,-1,1546,323,0,0
329,701,0,0,0,0,0,0,0,0,0,-1,1553,323,0,0
336,701,0,0,0,0,0,0,0,0,0,-1,1560,323,0,0
343,701,0,0,0,0,0,0,0,0,0,-1,1567,323,0,0
350,701,0,0,0,0,0,0,0,0,0,-1,1574,323,0,0
357,701,0,0,0,0,0,0,0,0,0,-1,1581,323,0,0
364,701,0,0,0,0,0,0,0,0,0,-1,1588,323,0,0
371,701,0,0,0,0,0,0,0,0,0,-1,1595,323,0,0
378,701,0,0,0,0,0,0,0,0,0,-1,1602,323,0,0
385,701,0,0,0,0,0,0,0,0,0,-1,1609,323,0,0
392,701,0,0,0,0,0,0,0,0,0,-1,1616,323,0,0
399,701,0,0,0,0,0,0,0,0,0,-1,1623,323,0,0
406,701,0,0,0,0,0,0,0,0,0,-1,1630,323,0,0
413,701,0,0,0,0,0,0,0,0,0,-1,1637,323,0,0
420,701,0,0,0,0,0,0,0,0,0,-1,1644,323,0,0
427,701,0,0,0,0,0,0,0,0,0,-1,1651,323,0,0
434,701,0,0,0,0,0,0,0,0,0,-1,1658,323,0,0
441,701,0,0,0,0,0,0,0,0,0,-1,1665,323,0,0
448,701,0,0,0,0,0,0,0,0,0,-1,1672,323,0,0
455,701,0,0,0,0,0,0,0,0,0,-1,1679,323,0,0
462,701,0,0,0,0,0,0,0,0,0,-1,1686,323,0,0
469,701,0,0,0,0,0,0,0,0,0,-1,1693,323,0,0
476,701,0,0,0,0,0,0,0,0,0,-1,1700,323,0,0
483,701,0,0,0,0,0,0,0,0,0,-1,1707,323,0,0
490,701,0,0,0,0,0,0,0,0,0,-1,1714,323,0,0
497,701,0,0,0,0,0,0,0,0,0,-1,1721,323,0,0
504,701,0,0,0,0,0,0,0,0,0,-1,1728,323,0,0
511,701,0,0,0,0,0,0,0,0,0,-1,1735,323,0,0
518,701,0,0,0,0,0,0,0,0,0,-1,1742,323,0,0
525,701,0,0,0,0,0,0,0,0,0,-1,1749,323,0,0
532,701,0,0,0,0,0,0,0,0,0,-1,1756,323,0,0
539,701,0,0,0,0,0,0,0,0,0,-1,1763,323,0,0
546,701,0,0,0,0,0,0,0,0,0,-1,1770,323,0,0
553,701,0,0,0,0,0,0,0,0,0,-1,1777,323,0,0
560,701,0,0,0,0,0,0,0,0,0,-1,1784,323,0,0
567,701,0,0,0,0,0,0,0,0,0,-1,1791,323,0,0
574,701,0,0,0,0,0,0,0,0,0,-1,1798,323,0,0
581,701,0,0,0,0,0,0,0,0,0,-1,1805,323,0,0
588,701,0,0,0,0,0,0,0,0,0,-1,1812,323,0,0
595,701,0,0,0,0,0,0,0,0,0,-1,1819,323,0,0
602,701,0,0,0,0,0,0,0,0,0,-1,1826,323,0,0
609,701,0,0,0,0,0,0,0,0,0,-1,1833,323,0,0
616,701,0,0,0,0,0,0,0,0,0,-1,1840,323,0,0
623,701,0,0,0,0,0,0,0,0,0,-1,1847,323,0,0
630,701,0,0,0,0,0,0,0,0,0,-1,1854,323,0,0
637,701,0,0,0,0,0,0,0,0,0,-1,1861,323,0,0
644,701,0,0,0,0,0,0,0,0,0,-1,1868,323,0,0
651,701,0,0,0,0,0,0,0,0,0,-1,1875,323,0,0
658,701,0,0,0,0,0,0,0,0,0,-1,1882,323,0,0
665,701,0,0,0,0,0,0,0,0,0,-1,1889,323,0,0
672,701,0,0,0,0,0,0,0,0,0,-1,1896,323,0,0
679,701,0,0,0,0,0,0,0,0,0,-1,1903,323,0,0
686,701,0,0,0,0,0,0,0,0,0,-1,1910,323,0,0
693,701,0,0,0,0,0,0,0,0,0,-1,1917,323,0,0
700,701,0,0,0,0,0,0,0,0,0,-1,1924,323,0,0
707,701,0,0,0,0,0,0,0,0,0,-1,1931,323,0,0
714,701,0,0,0,0,0,0,0,0,0,-1,1938,323,0,0
721,701,0,0,0,0,0,0,0,0,0,-1,1945,323,0,0
728,701,0,0,0,0,0,0,0,0,0,-1,1952,323,0,0
735,701,0,0,0,0,0,0,0,0,0,-1,1959,323,0,0
742,701,0,0,0,0,0,0,0,0,0,-1,1966,323,0,0
749,701,0,0,0,0,0,0,0,0,0,-1,1973,323,0,0
756,701,0,0,0,0,0,0,0,0,0,-1,1980,323,0,0
763,701,0,0,0,0,0,0,0,0,0,-1,1987,323,0,0
770,701,0,0,0,0,0,0,0,0,0,-1,1994,323,0,0
777,701,0,0,0,0,0,0,0,0,0,-1,2001,323,0,0
784,701,0,0,0,0,0,0,0,0,0,-1,2008,323,0,0
791,701,0,0,0,0,0,0,0,0,0,-1,2015,323,0,0
798,701,0,0,0,0,0,0,0,0,0,-1,2022,323,0,0
805,701,0,0,0,0,0,0,0,0,0,-1,2029,323,0,0
812,701,0,0,0,0,0,0,0,0,0,-1,2036,323,0,0
-700,694,0,0,0,0,0,0,0,0,0,-1,524,330,0,0
-693,694,0,0,0,0,0,0,0,0,0,-1,531,330,0,0
-686,694,0,0,0,0,0,0,0,0,0,-1,538,330,0,0
-679,694,0,0,0,0,0,0,0,0,0,-1,545,330,0,0
-672,694,0,0,0,0,0,0,0,0,0,-1,552,330,0,0
-665,694,0,0,0,0,0,0,0,0,0,-1,559,330,0,0
-658,694,0,0,0,0,0,0,0,0,0,-1,566,330,0,0
-651,694,0,0,0,0,0,0,0,0,0,-1,573,330,0,0
-644,694,0,0,0,0,0,0,0,0,0,-1,580,330,0,0
-637,694,0,0,0,0,0,0,0,0,0,-1,587,330,0,0
-630,694,0,0,0,0,0,0,0,0,0,-1,594,330,0,0
-623,694,0,0,0,0,0,0,0,0,0,-1,601,330,0,0
-616,694,0,0,0,0,0,0,0,0,0,-1,608,330,0,0
-609,694,0,0,0,0,0,0,0,0,0,-1,615,330,0,0
-602,694,0,0,0,0,0,0,0,0,0,-1,622,330,0,0
-595,694,0,0,0,0,0,0,0,0,0,-1,629,330,0,0
-588,694,0,0,0,0,0,0,0,0,0,-1,636,330,0,0
-581,694,0,0,0,0,0,0,0,0,0,-1,643,330,0,0
-574,694,0,0,0,0,0,0,0,0,0,-1,650,330,0,0
-567,694,0,0,0,0,0,0,0,0,0,-1,657,330,0,0
-560,694,0,0,0,0,0,0,0,0,0,-1,664,330,0,0
-553,694,0,0,0,0,0,0,0,0,0,-1,671,330,0,0
-546,694,0,0,0,0,0,0,0,0,0,-1,678,330,0,0
-539,694,0,0,0,0,0,0,0,0,0,-1,685,330,0,0
-532,694,0,0,0,0,0,0,0,0,0,-1,692,330,0,0
-525,694,0,0,0,0,0,0,0,0,0,-1,699,330,0,0
-518,694,0,0,0,0,0,0,0,0,0,-1,706,330,0,0
-511,694,0,0,0,0,0,0,0,0,0,-1,713,330,0,0
-504,694,0,0,0,0,0,0,0,0,0,-1,720,330,0,0
-497,694,0,0,0,0,0,0,0,0,0,-1,727,330,0,0
-490,694,0,0,0,0,0,0,0,0,0,-1,734,330,0,0
-483,694,0,0,0,0,0,0,0,0,0,-1,741,330,0,0
-476,694,0,0,0,0,0,0,0,0,0,-1,748,330,0,0
-469,694,0,0,0,0,0,0,0,0,0,-1,755,330,0,0
-462,694,0,0,0,0,0,0,0,0,0,-1,762,330,0,0
-455,694,0,0,0,0,0,0,0,0,0,-1,769,330,0,0
-448,694,0,0,0,0,0,0,0,0,0,-1,776,330,0,0
-441,694,0,0,0,0,0,0,0,0,0,-1,783,330,0,0
-434,694,0,0,0,0,0,0,0,0,0,-1,790,330,0,0
-427,694,0,0,0,0,0,0,0,0,0,-1,797,330,0,0
-420,694,0,0,0,0,0,0,0,0,0,-1,804,330,0,0
-413,694,0,0,0,0,0,0,0,0,0,-1,811,330,0,0
-406,694,0,0,0,0,0,0,0,0,0,-1,818,330,0,0
-399,694,0,0,0,0,0,0,0,0,0,-1,825,330,0,0
-392,694,0,0,0,0,0,0,0,0,0,-1,832,330,0,0
-385,694,0,0,0,0,0,0,0,0,0,-1,839,330,0,0
-378,694,0,0,0,0,0,0,0,0,0,-1,846,330,0,0
-371,694,0,0,0,0,0,0,0,0,0,-1,853,330,0,0
-364,694,0,0,0,0,0,0,0,0,0,-1,860,330,0,0
-357,694,0,0,0,0,0,0,0,0,0,-1,867,330,0,0
-350,694,0,0,0,0,0,0,0,0,0,-1,874,330,0,0
-343,694,0,0,0,0,0,0,0,0,0,-1,881,330,0,0
-336,694,0,0,0,0,0,0,0,0,0,-1,888,330,0,0
-329,694,0,0,0,0,0,0,0,0,0,-1,895,330,0,0
-322,694,0,0,0,0,0,0,0,0,0,-1,902,330,0,0
-315,694,0,0,0,0,0,0,0,0,0,-1,909,330,0,0
-308,694,0,0,0,0,0,0,0,0,0,-1,916,330,0,0
-301,694,0,0,0,0,0,0,0,0,0,-1,923,330,0,0
-294,694,0,0,0,0,0,0,0,0,0,-1,930,330,0,0
-287,694,0,0,0,0,0,0,0,0,0,-1,937,330,0,0
-280,694,0,0,0,0,0,0,0,0,0,-1,944,330,0,0
-273,694,0,0,0,0,0,0,0,0,0,-1,951,330,0,0
-266,694,0,0,0,0,0,0,0,0,0,-1,958,330,0,0
-259,694,0,0,0,0,0,0,0,0,0,-1,965,330,0,0
-252,694,0,0,0,0,0,0,0,0,0,-1,972,330,0,0
-245,694,0,0,0,0,0,0,0,0,0,-1,979,330,0,0
-238,694,0,0,0,0,0,0,0,0,0,-1,986,330,0,0
-231,694,0,0,0,0,0,0,0,0,0,-1,993,330,0,0
-224,694,0,0,0,0,0,0,0,0,0,-1,1000,330,0,0
-217,694,0,0,0,0,0,0,0,0,0,-1,1007,330,0,0
-210,694,0,0,0,0,0,0,0,0,0,-1,1014,330,0,0
-203,694,0,0,0,0,0,0,0,0,0,-1,1021,330,0,0
-196,694,0,0,0,0,0,0,0,0,0,-1,1028,330,0,0
-189,694,0,0,0,0,0,0,0,0,0,-1,1035,330,0,0
-182,694,0,0,0,0,0,0,0,0,0,-1,1042,330,0,0
-175,694,0,0,0,0,0,0,0,0,0,-1,1049,330,0,0
-168,694,0,0,0,0,0,0,0,0,0,-1,1056,330,0,0
-161,694,0,0,0,0,0,0,0,0,0,-1,1063,330,0,0
-154,694,0,0,0,0,0,0,0,0,0,-1,1070,330,0,0
-147,694,0,0,0,0,0,0,0,0,0,-1,1077,330,0,0
-140,694,0,0,0,0,0,0,0,0,0,-1,1084,330,0,0
-133,694,0,0,0,0,0,0,0,0,0,-1,1091,330,0,0
-126,694,0,0,0,0,0,0,0,0,0,-1,1098,330,0,0
-119,694,0,0,0,0,0,0,0,0,0,-1,1105,330,0,0
-112,694,0,0,0,0,0,0,0,0,0,-1,1112,330,0,0
-105,694,-1.35962,-7.57141,0,0,0,0,0,0,0,-1,1119,330,-1.3596,7.57142
-98,694,1.34875,-10.1051,0,0,0,0,0,0,0,-1,1126,330,1.34874,10.1051
-91,694,1.35474,-9.22229,0,0,0,0,0,0,0,-1,1133,330,1.35476,9.22229
-84,694,-4.39136,-4.62332,0,0,0,0,0,0,0,-1,1140,330,-4.3914,4.62331
-77,694,-3.93665,-2.81979,0,0,0,0,0,0,0,-1,1147,330,-3.93667,2.81979
-70,694,-3.48193,-1.01627,0,0,0,0,0,0,0,-1,1154,330,-3.48194,1.01627
-63,694,-5.80835,-4.75275,0,0,0,0,0,0,0,-1,1161,330,-5.80834,4.75274
-56,694,-6.50623,-0.649139,0,0,0,0,0,0,0,-1,1168,330,-6.5062,0.649126
-49,694,-1.11426,0.0341797,0,0,0,0,0,0,0,-1,1175,330,-1.11424,-0.0341846
-42,694,-0.346313,-0.709595,0,0,0,0,0,0,0,-1,1182,330,-0.346298,0.709581
-35,694,-0.459106,-1.24713,0,0,0,0,0,0,0,-1,1189,330,-0.459142,1.24714
-28,694,-6.48413,-3.95972,0,0,0,0,0,0,0,-1,1196,330,-6.48414,3.9597
-21,694,-5.01636,-4.28162,0,0,0,0,0,0,0,-1,1203,330,-5.01641,4.28162
-14,694,2.71851,-9.58539,0,0,0,0,0,0,0,-1,1210,330,2.7185,9.58538
-7,694,3.00159,-9.5134,-0.0067553,0.000516923,0.0556034,0.052603,-0.0588414,0.818049,0.064376,0.0455991,1217,330,3.00164,9.51339
0,694,2.72339,-9.03625,0.00861083,0.00438629,0.0498538,0.0563971,-0.0433999,0.764226,0.0577805,0.046339,1224,330,2.72342,9.03625
7,694,2.84851,-8.89609,0,0,0,0,0,0,0,-1,1231,330,2.84847,8.8961
14,694,2.13135,-7.28989,0,0,0,0,0,0,0,-1,1238,330,2.13135,7.28988
21,694,2.8335,-9.3873,0,0,0,0,0,0,0,-1,1245,330,2.83355,9.3873
28,694,2.31409,-8.72461,0.0785465,0.0223042,0.0260755,0.0887755,0.0120752,0.373836,0.0555974,0.0446979,1252,330,2.31403,8.7246
35,694,1.94958,-8.22491,0.092793,0.0266279,0.0210999,0.098949,0.020472,0.283874,0.0603115,0.0434381,1259,330,1.9496,8.22491
42,694,2.11389,-7.63434,0.0984759,0.028866,0.0170858,0.102443,0.0248984,0.228171,0.0616942,0.0442991,1266,330,2.11392,7.63434
49,694,6.65674,-13.7707,0.0965119,0.0293823,0.0143483,0.0994501,0.0264441,0.201985,0.0594783,0.0477379,1273,330,6.6568,13.7707
56,694,6.48865,-12.5349,0,0,0,0,0,0,0,-1,1280,330,6.48862,12.5349
63,694,5.59436,-12.0322,0,0,0,0,0,0,0,-1,1287,330,5.59439,12.0322
70,694,5.57178,-10.8272,0,0,0,0,0,0,0,-1,1294,330,5.57173,10.8272
77,694,4.70483,-10.4128,0,0,0,0,0,0,0,-1,1301,330,4.70485,10.4128
84,694,3.83923,-9.79514,0,0,0,0,0,0,0,-1,1308,330,3.83925,9.79514
91,694,3.10107,-9.66467,-0.0379769,-0.000312251,0.0153017,0.00512061,-0.0434097,1.22963,0.030789,0.0485569,1315,330,3.10113,9.66469
98,694,2.36951,-9.54517,-0.0735604,-0.00931582,0.0139366,-0.00642283,-0.0764534,1.36612,0.0489686,0.0476436,1322,330,2.36946,9.54518
105,694,1.82837,-8.88437,-0.101854,-0.0230691,0.0232596,-0.0167147,-0.108209,1.30411,0.0672633,0.0445124,1329,330,1.82834,8.88437
112,694,0.942627,-8.3364,-0.106854,-0.0314123,0.0245427,-0.0241308,-0.114135,1.28238,0.0694581,0.0430451,1336,330,0.942571,8.33639
119,694,-0.234863,-8.0632,-0.109489,-0.0424865,0.0261082,-0.0335146,-0.118461,1.23979,0.0705095,0.0422095,1343,330,-0.234816,8.06321
126,694,-1.23804,-7.26974,-0.109363,-0.0536826,0.0307504,-0.0400418,-0.123004,1.15328,0.0724429,0.0446703,1350,330,-1.23808,7.26974
133,694,-2.35059,-6.35181,0,0,0,0,0,0,0,-1,1357,330,-2.35057,6.35181
140,694,-1.89612,-5.57465,-0.106731,-0.0799436,0.0422455,-0.0490195,-0.137655,0.938909,0.080565,0.0477146,1364,330,-1.89606,5.57465
147,694,-2.57214,-4.89383,-0.105232,-0.0938752,0.0485682,-0.0506546,-0.148453,0.843591,0.0871378,0.0456334,1371,330,-2.57218,4.89384
154,694,-3.33093,-3.67932,0,0,0,0,0,0,0,-1,1378,330,-3.33094,3.67932
161,694,-3.86377,-2.27493,0,0,0,0,0,0,0,-1,1385,330,-3.86381,2.27494
168,694,6.77161,1.01288,0,0,0,0,0,0,0,-1,1392,330,6.77156,-1.01287
175,694,6.72839,0.473175,0,0,0,0,0,0,0,-1,1399,330,6.72838,-0.473182
182,694,8.29028,5.75238,0,0,0,0,0,0,0,-1,1406,330,8.29034,-5.75237
189,694,7.9801,4.46118,0,0,0,0,0,0,0,-1,1413,330,7.9801,-4.46118
196,694,7.39331,3.32632,0,0,0,0,0,0,0,-1,1420,330,7.39329,-3.32633
203,694,7.04492,2.20529,0,0,0,0,0,0,0,-1,1427,330,7.04496,-2.20529
210,694,6.44714,0.646912,0,0,0,0,0,0,0,-1,1434,330,6.44717,-0.646903
217,694,7.12061,-0.644958,0,0,0,0,0,0,0,-1,1441,330,7.12059,0.644961
224,694,6.74011,-1.70544,0,0,0,0,0,0,0,-1,1448,330,6.74013,1.70546
231,694,0,0,0,0,0,0,0,0,0,-1,1455,330,0,0
238,694,0,0,0,0,0,0,0,0,0,-1,1462,330,0,0
245,694,0,0,0,0,0,0,0,0,0,-1,1469,330,0,0
252,694,0,0,0,0,0,0,0,0,0,-1,1476,330,0,0
259,694,0,0,0,0,0,0,0,0,0,-1,1483,330,0,0
266,694,0,0,0,0,0,0,0,0,0,-1,1490,330,0,0
273,694,0,0,0,0,0,0,0,0,0,-1,1497,330,0,0
280,694,0,0,0,0,0,0,0,0,0,-1,1504,330,0,0
287,694,0,0,0,0,0,0,0,0,0,-1,1511,330,0,0
294,694,0,0,0,0,0,0,0,0,0,-1,1518,330,0,0
301,694,0,0,0,0,0,0,0,0,0,-1,1525,330,0,0
308,694,0,0,0,0,0,0,0,0,0,-1,1532,330,0,0
315,694,0,0,0,0,0,0,0,0,0,-1,1539,330,0,0
322,694,0,0,0,0,0,0,0,0,0,-1,1546,330,0,0
329,694,0,0,0,0,0,0,0,0,0,-1,1553,330,0,0
336,694,0,0,0,0,0,0,0,0,0,-1,1560,330,0,0
343,694,0,0,0,0,0,0,0,0,0,-1,1567,330,0,0
350,694,0,0,0,0,0,0,0,0,0,-1,1574,330,0,0
357,694,0,0,0,0,0,0,0,0,0,-1,1581,330,0,0
364,694,0,0,0,0,0,0,0,0,0,-1,1588,330,0,0
371,694,0,0,0,0,0,0,0,0,0,-1,1595,330,0,0
378,694,0,0,0,0,0,0,0,0,0,-1,1602,330,0,0
385,694,0,0,0,0,0,0,0,0,0,-1,1609,330,0,0
392,694,0,0,0,0,0,0,0,0,0,-1,1616,330,0,0
399,694,0,0,0,0,0,0,0,0,0,-1,1623,330,0,0
406,694,0,0,0,0,0,0,0,0,0,-1,1630,330,0,0
413,694,0,0,0,0,0,0,0,0,0,-1,1637,330,0,0
420,694,0,0,0,0,0,0,0,0,0,-1,1644,330,0,0
427,694,0,0,0,0,0,0,0,0,0,-1,1651,330,0,0
434,694,0,0,0,0,0,0,0,0,0,-1,1658,330,0,0
441,694,0,0,0,0,0,0,0,0,0,-1,1665,330,0,0
448,694,0,0,0,0,0,0,0,0,0,-1,1672,330,0,0
455,694,0,0,0,0,0,0,0,0,0,-1,1679,330,0,0
462,694,0,0,0,0,0,0,0,0,0,-1,1686,330,0,0
469,694,0,0,0,0,0,0,0,0,0,-1,1693,330,0,0
476,694,0,0,0,0,0,0,0,0,0,-1,1700,330,0,0
483,694,0,0,0,0,0,0,0,0,0,-1,1707,330,0,0
490,694,0,0,0,0,0,0,0,0,0,-1,1714,330,0,0
497,694,0,0,0,0,0,0,0,0,0,-1,1721,330,0,0
504,694,0,0,0,0,0,0,0,0,0,-1,1728,330,0,0
511,694,0,0,0,0,0,0,0,0,0,-1,1735,330,0,0
518,694,0,0,0,0,0,0,0,0,0,-1,1742,330,0,0
525,694,0,0,0,0,0,0,0,0,0,-1,1749,330,0,0
532,694,0,0,0,0,0,0,0,0,0,-1,1756,330,0,0
539,694,0,0,0,0,0,0,0,0,0,-1,1763,330,0,0
546,694,0,0,0,0,0,0,0,0,0,-1,1770,330,0,0
553,694,0,0,0,0,0,0,0,0,0,-1,1777,330,0,0
560,694,0,0,0,0,0,0,0,0,0,-1,1784,330,0,0
567,694,0,0,0,0,0,0,0,0,0,-1,1791,330,0,0
574,694,0,0,0,0,0,0,0,0,0,-1,1798,330,0,0
581,694,0,0,0,0,0,0,0,0,0,-1,1805,330,0,0
588,694,0,0,0,0,0,0,0,0,0,-1,1812,330,0,0
595,694,0,0,0,0,0,0,0,0,0,-1,1819,330,0,0
602,694,0,0,0,0,0,0,0,0,0,-1,1826,330,0,0
609,694,0,0,0,0,0,0,0,0,0,-1,1833,330,0,0
616,694,0,0,0,0,0,0,0,0,0,-1,1840,330,0,0
623,694,0,0,0,0,0,0,0,0,0,-1,1847,330,0,0
630,694,0,0,0,0,0,0,0,0,0,-1,1854,330,0,0
637,694,0,0,0,0,0,0,0,0,0,-1,1861,330,0,0
644,694,0,0,0,0,0,0,0,0,0,-1,1868,330,0,0
651,694,0,0,0,0,0,0,0,0,0,-1,1875,330,0,0
658,694,0,0,0,0,0,0,0,0,0,-1,1882,330,0,0
665,694,0,0,0,0,0,0,0,0,0,-1,1889,330,0,0
672,694,0,0,0,0,0,0,0,0,0,-1,1896,330,0,0
679,694,0,0,0,0,0,0,0,0,0,-1,1903,330,0,0
686,694,0,0,0,0,0,0,0,0,0,-1,1910,330,0,0
693,694,0,0,0,0,0,0,0,0,0,-1,1917,330,0,0
700,694,0,0,0,0,0,0,0,0,0,-1,1924,330,0,0
707,694,0,0,0,0,0,0,0,0,0,-1,1931,330,0,0
714,694,0,0,0,0,0,0,0,0,0,-1,1938,330,0,0
721,694,0,0,0,0,0,0,0,0,0,-1,1945,330,0,0
728,694,0,0,0,0,0,0,0,0,0,-1,1952,330,0,0
735,694,0,0,0,0,0,0,0,0,0,-1,1959,330,0,0
742,694,0,0,0,0,0,0,0,0,0,-1,1966,330,0,0
749,694,0,0,0,0,0,0,0,0,0,-1,1973,330,0,0
756,694,0,0,0,0,0,0,0,0,0,-1,1980,330,0,0
763,694,0,0,0,0,0,0,0,0,0,-1,1987,330,0,0
770,694,0,0,0,0,0,0,0,0,0,-1,1994,330,0,0
777,694,0,0,0,0,0,0,0,0,0,-1,2001,330,0,0
784,694,0,0,0,0,0,0,0,0,0,-1,2008,330,0,0
791,694,0,0,0,0,0,0,0,0,0,-1,2015,330,0,0
798,694,0,0,0,0,0,0,0,0,0,-1,2022,330,0,0
805,694,0,0,0,0,0,0,0,0,0,-1,2029,330,0,0
812,694,0,0,0,0,0,0,0,0,0,-1,2036,330,0,0
-700,687,0,0,0,0,0,0,0,0,0,-1,524,337,0,0
-693,687,0,0,0,0,0,0,0,0,0,-1,531,337,0,0
-686,687,0,0,0,0,0,0,0,0,0,-1,538,337,0,0
-679,687,0,0,0,0,0,0,0,0,0,-1,545,337,0,0
-672,687,0,0,0,0,0,0,0,0,0,-1,552,337,0,0
-665,687,0,0,0,0,0,0,0,0,0,-1,559,337,0,0
-658,687,0,0,0,0,0,0,0,0,0,-1,566,337,0,0
-651,687,0,0,0,0,0,0,0,0,0,-1,573,337,0,0
-644,687,0,0,0,0,0,0,0,0,0,-1,580,337,0,0
-637,687,0,0,0,0,0,0,0,0,0,-1,587,337,0,0
-630,687,0,0,0,0,0,0,0,0,0,-1,594,337,0,0
-623,687,0,0,0,0,0,0,0,0,0,-1,601,337,0,0
-616,687,0,0,0,0,0,0,0,0,0,-1,608,337,0,0
-609,687,0,0,0,0,0,0,0,0,0,-1,615,337,0,0
-602,687,0,0,0,0,0,0,0,0,0,-1,622,337,0,0
-595,687,0,0,0,0,0,0,0,0,0,-1,629,337,0,0
-588,687,0,0,0,0,0,0,0,0,0,-1,636,337,0,0
-581,687,0,0,0,0,0,0,0,0,0,-1,643,337,0,0
-574,687,0,0,0,0,0,0,0,0,0,-1,650,337,0,0
-567,687,0,0,0,0,0,0,0,0,0,-1,657,337,0,0
-560,687,0,0,0,0,0,0,0,0,0,-1,664,337,0,0
-553,687,0,0,0,0,0,0,0,0,0,-1,671,337,0,0
-546,687,0,0,0,0,0,0,0,0,0,-1,678,337,0,0
-539,687,0,0,0,0,0,0,0,0,0,-1,685,337,0,0
-532,687,0,0,0,0,0,0,0,0,0,-1,692,337,0,0
-525,687,0,0,0,0,0,0,0,0,0,-1,699,337,0,0
-518,687,0,0,0,0,0,0,0,0,0,-1,706,337,0,0
-511,687,0,0,0,0,0,0,0,0,0,-1,713,337,0,0
-504,687,0,0,0,0,0,0,0,0,0,-1,720,337,0,0
-497,687,0,0,0,0,0,0,0,0,0,-1,727,337,0,0
-490,687,0,0,0,0,0,0,0,0,0,-1,734,337,0,0
-483,687,0,0,0,0,0,0,0,0,0,-1,741,337,0,0
-476,687,0,0,0,0,0,0,0,0,0,-1,748,337,0,0
-469,687,0,0,0,0,0,0,0,0,0,-1,755,337,0,0
-462,687,0,0,0,0,0,0,0,0,0,-1,762,337,0,0
-455,687,0,0,0,0,0,0,0,0,0,-1,769,337,0,0
-448,687,0,0,0,0,0,0,0,0,0,-1,776,337,0,0
-441,687,0,0,0,0,0,0,0,0,0,-1,783,337,0,0
-434,687,0,0,0,0,0,0,0,0,0,-1,790,337,0,0
-427,687,0,0,0,0,0,0,0,0,0,-1,797,337,0,0
-420,687,0,0,0,0,0,0,0,0,0,-1,804,337,0,0
-413,687,0,0,0,0,0,0,0,0,0,-1,811,337,0,0
-406,687,0,0,0,0,0,0,0,0,0,-1,818,337,0,0
-399,687,0,0,0,0,0,0,0,0,0,-1,825,337,0,0
-392,687,0,0,0,0,0,0,0,0,0,-1,832,337,0,0
-385,687,0,0,0,0,0,0,0,0,0,-1,839,337,0,0
-378,687,0,0,0,0,0,0,0,0,0,-1,846,337,0,0
-371,687,0,0,0,0,0,0,0,0,0,-1,853,337,0,0
-364,687,0,0,0,0,0,0,0,0,0,-1,860,337,0,0
-357,687,0,0,0,0,0,0,0,0,0,-1,867,337,0,0
-350,687,0,0,0,0,0,0,0,0,0,-1,874,337,0,0
-343,687,0,0,0,0,0,0,0,0,0,-1,881,337,0,0
-336,687,0,0,0,0,0,0,0,0,0,-1,888,337,0,0
-329,687,0,0,0,0,0,0,0,0,0,-1,895,337,0,0
-322,687,0,0,0,0,0,0,0,0,0,-1,902,337,0,0
-315,687,0,0,0,0,0,0,0,0,0,-1,909,337,0,0
-308,687,0,0,0,0,0,0,0,0,0,-1,916,337,0,0
-301,687,0,0,0,0,0,0,0,0,0,-1,923,337,0,0
-294,687,0,0,0,0,0,0,0,0,0,-1,930,337,0,0
-287,687,0,0,0,0,0,0,0,0,0,-1,937,337,0,0
-280,687,0,0,0,0,0,0,0,0,0,-1,944,337,0,0
-273,687,0,0,0,0,0,0,0,0,0,-1,951,337,0,0
-266,687,0,0,0,0,0,0,0,0,0,-1,958,337,0,0
-259,687,0,0,0,0,0,0,0,0,0,-1,965,337,0,0
-252,687,0,0,0,0,0,0,0,0,0,-1,972,337,0,0
-245,687,0,0,0,0,0,0,0,0,0,-1,979,337,0,0
-238,687,0,0,0,0,0,0,0,0,0,-1,986,337,0,0
-231,687,0,0,0,0,0,0,0,0,0,-1,993,337,0,0
-224,687,0,0,0,0,0,0,0,0,0,-1,1000,337,0,0
-217,687,0,0,0,0,0,0,0,0,0,-1,1007,337,0,0
-210,687,0,0,0,0,0,0,0,0,0,-1,1014,337,0,0
-203,687,0,0,0,0,0,0,0,0,0,-1,1021,337,0,0
-196,687,0,0,0,0,0,0,0,0,0,-1,1028,337,0,0
-189,687,0,0,0,0,0,0,0,0,0,-1,1035,337,0,0
-182,687,0,0,0,0,0,0,0,0,0,-1,1042,337,0,0
-175,687,0,0,0,0,0,0,0,0,0,-1,1049,337,0,0
-168,687,0,0,0,0,0,0,0,0,0,-1,1056,337,0,0
-161,687,0,0,0,0,0,0,0,0,0,-1,1063,337,0,0
-154,687,0,0,0,0,0,0,0,0,0,-1,1070,337,0,0
-147,687,0,0,0,0,0,0,0,0,0,-1,1077,337,0,0
-140,687,0,0,0,0,0,0,0,0,0,-1,1084,337,0,0
-133,687,1.63049,-10.3847,0,0,0,0,0,0,0,-1,1091,337,1.63044,10.3847
-126,687,0.941284,-10.8708,0,0,0,0,0,0,0,-1,1098,337,0.941263,10.8708
-119,687,0.577881,-11.4252,0,0,0,0,0,0,0,-1,1105,337,0.57784,11.4252
-112,687,0.14917,-11.9645,0,0,0,0,0,0,0,-1,1112,337,0.149153,11.9645
-105,687,-0.227173,-12.5151,0,0,0,0,0,0,0,-1,1119,337,-0.227166,12.5151
-98,687,-1.97437,-6.83603,0,0,0,0,0,0,0,-1,1126,337,-1.97434,6.83603
-91,687,2.28162,-7.72437,0,0,0,0,0,0,0,-1,1133,337,2.28167,7.72437
-84,687,-1.72876,-5.14783,0,0,0,0,0,0,0,-1,1140,337,-1.7288,5.14782
-77,687,-1.29443,-3.39886,0,0,0,0,0,0,0,-1,1147,337,-1.29447,3.39887
-70,687,-4.52661,-13.0772,0,0,0,0,0,0,0,-1,1154,337,-4.52662,13.0772
-63,687,-6.23987,-9.08102,0,0,0,0,0,0,0,-1,1161,337,-6.23981,9.08103
-56,687,-7.86511,-5.93417,0,0,0,0,0,0,0,-1,1168,337,-7.86511,5.93419
-49,687,-7.44934,-0.550262,0,0,0,0,0,0,0,-1,1175,337,-7.44938,0.550261
-42,687,-4.2019,-0.405609,0,0,0,0,0,0,0,-1,1182,337,-4.20192,0.405614
-35,687,-4.42273,-0.688171,0,0,0,0,0,0,0,-1,1189,337,-4.42276,0.688178
-28,687,-1.14038,-1.39072,0,0,0,0,0,0,0,-1,1196,337,-1.14035,1.3907
-21,687,1.70532,-9.20108,0,0,0,0,0,0,0,-1,1203,337,1.70537,9.20109
-14,687,2.04126,-9.34009,0,0,0,0,0,0,0,-1,1210,337,2.04128,9.34009
-7,687,2.30896,-9.38409,-0.00144843,0.00270694,0.0426779,0.0433577,-0.0420992,0.80972,0.0493404,0.0463254,1217,337,2.30901,9.38408
0,687,2.4281,-9.35373,0.0110398,0.00627647,0.0373406,0.0460746,-0.0287583,0.75355,0.0435886,0.0480805,1224,337,2.42813,9.35372
7,687,2.46582,-9.28214,0.0235153,0.00926195,0.032364,0.0495279,-0.0167507,0.677026,0.0397952,0.0471207,1231,337,2.46579,9.28215
14,687,1.97314,-9.30188,0,0,0,0,0,0,0,-1,1238,337,1.97316,9.30188
21,687,2.047,-9.42987,0,0,0,0,0,0,0,-1,1245,337,2.04695,9.42986
28,687,2.052,-9.14389,0.061504,0.0204822,0.0185863,0.0686725,0.0133137,0.368106,0.0420523,0.0438443,1252,337,2.05201,9.1439
35,687,1.45081,-9.18195,0.0722932,0.0238127,0.0146023,0.0763517,0.0197542,0.271091,0.0457605,0.0465752,1259,337,1.45079,9.18196
42,687,1.54126,-8.1459,0.0766054,0.0254462,0.0113312,0.0790028,0.0230488,0.2085,0.0469126,0.0467475,1266,337,1.5412,8.14591
49,687,6.99756,-15.2005,0,0,0,0,0,0,0,-1,1273,337,6.99756,15.2005
56,687,2.43433,-8.76608,0,0,0,0,0,0,0,-1,1280,337,2.43427,8.76609
63,687,5.64246,-12.2606,0,0,0,0,0,0,0,-1,1287,337,5.6425,12.2606
70,687,2.00293,-9.16974,0,0,0,0,0,0,0,-1,1294,337,2.00295,9.16973
77,687,4.86609,-9.36746,0,0,0,0,0,0,0,-1,1301,337,4.86611,9.36745
84,687,4.1073,-9.40668,0,0,0,0,0,0,0,-1,1308,337,4.10729,9.40669
91,687,3.27551,-9.44611,-0.0320443,0.0021085,0.0116678,0.00571399,-0.0356498,1.27109,0.0258823,0.0493318,1315,337,3.27546,9.4461
98,687,2.46545,-9.40875,-0.0595683,-0.00536518,0.0117384,-0.00293227,-0.0620013,1.36643,0.0403922,0.0484432,1322,337,2.46548,9.40875
105,687,1.84387,-9.07364,-0.0812192,-0.0155816,0.0192028,-0.0103765,-0.0864244,1.30609,0.0544878,0.045831,1329,337,1.84391,9.07365
112,687,0.491455,-8.59366,-0.0849269,-0.021827,0.0204915,-0.0157565,-0.0909974,1.28279,0.0561545,0.0419962,1336,337,0.491465,8.59366
119,687,-0.122681,-7.54648,-0.086705,-0.0300004,0.0220152,-0.0224567,-0.0942487,1.24068,0.0568453,0.0407941,1343,337,-0.122704,7.54649
126,687,-1.25708,-6.67505,-0.0864589,-0.0381837,0.0254943,-0.0272131,-0.0974294,1.16443,0.0580486,0.0412805,1350,337,-1.2571,6.67505
133,687,-2.25305,-5.62155,0,0,0,0,0,0,0,-1,1357,337,-2.25305,5.62155
140,687,-2.78064,-4.50946,-0.0837709,-0.0571296,0.0338808,-0.0340449,-0.106856,0.972697,0.0630318,0.0480137,1364,337,-2.78065,4.50947
147,687,-3.53174,-3.48975,-0.0822051,-0.0668153,0.038373,-0.0353732,-0.113647,0.88435,0.0671545,0.0470729,1371,337,-3.53172,3.48974
154,687,-4.39087,-2.49683,0,0,0,0,0,0,0,-1,1378,337,-4.39093,2.49683
161,687,6.5564,1.68158,0,0,0,0,0,0,0,-1,1385,337,6.55636,-1.68157
168,687,6.66968,1.37039,0,0,0,0,0,0,0,-1,1392,337,6.6697,-1.37039
175,687,6.64075,0.771606,0,0,0,0,0,0,0,-1,1399,337,6.64073,-0.771595
182,687,6.67249,0.289917,0,0,0,0,0,0,0,-1,1406,337,6.67247,-0.289916
189,687,7.76062,4.53635,0,0,0,0,0,0,0,-1,1413,337,7.76064,-4.53636
196,687,6.99048,3.2966,0,0,0,0,0,0,0,-1,1420,337,6.99046,-3.2966
203,687,6.36499,2.1445,0,0,0,0,0,0,0,-1,1427,337,6.36499,-2.14451
210,687,6.68066,0.674652,0,0,0,0,0,0,0,-1,1434,337,6.68062,-0.674655
217,687,5.99683,-0.630493,0,0,0,0,0,0,0,-1,1441,337,5.99684,0.630497
224,687,5.52917,0.524902,0,0,0,0,0,0,0,-1,1448,337,5.5292,-0.524915
231,687,5.85583,-1.73651,0,0,0,0,0,0,0,-1,1455,337,5.85577,1.73651
238,687,5.96582,-2.96774,0,0,0,0,0,0,0,-1,1462,337,5.96577,2.96773
245,687,1.28259,2.32211,0,0,0,0,0,0,0,-1,1469,337,1.28258,-2.32211
252,687,1.97278,3.88422,0,0,0,0,0,0,0,-1,1476,337,1.97281,-3.88421
259,687,0,0,0,0,0,0,0,0,0,-1,1483,337,0,0
266,687,0,0,0,0,0,0,0,0,0,-1,1490,337,0,0
273,687,0,0,0,0,0,0,0,0,0,-1,1497,337,0,0
280,687,0,0,0,0,0,0,0,0,0,-1,1504,337,0,0
287,687,0,0,0,0,0,0,0,0,0,-1,1511,337,0,0
294,687,0,0,0,0,0,0,0,0,0,-1,1518,337,0,0
301,687,0,0,0,0,0,0,0,0,0,-1,1525,337,0,0
308,687,0,0,0,0,0,0,0,0,0,-1,1532,337,0,0
315,687,0,0,0,0,0,0,0,0,0,-1,1539,337,0,0
322,687,0,0,0,0,0,0,0,0,0,-1,1546,337,0,0
329,687,0,0,0,0,0,0,0,0,0,-1,1553,337,0,0
336,687,0,0,0,0,0,0,0,0,0,-1,1560,337,0,0
343,687,0,0,0,0,0,0,0,0,0,-1,1567,337,0,0
350,687,0,0,0,0,0,0,0,0,0,-1,1574,337,0,0
357,687,0,0,0,0,0,0,0,0,0,-1,1581,337,0,0
364,687,0,0,0,0,0,0,0,0,0,-1,1588,337,0,0
371,687,0,0,0,0,0,0,0,0,0,-1,1595,337,0,0
378,687,0,0,0,0,0,0,0,0,0,-1,1602,337,0,0
385,687,0,0,0,0,0,0,0,0,0,-1,1609,337,0,0
392,687,0,0,0,0,0,0,0,0,0,-1,1616,337,0,0
399,687,0,0,0,0,0,0,0,0,0,-1,1623,337,0,0
406,687,0,0,0,0,0,0,0,0,0,-1,1630,337,0,0
413,687,0,0,0,0,0,0,0,0,0,-1,1637,337,0,0
420,687,0,0,0,0,0,0,0,0,0,-1,1644,337,0,0
427,687,0,0,0,0,0,0,0,0,0,-1,1651,337,0,0
434,687,0,0,0,0,0,0,0,0,0,-1,1658,337,0,0
441,687,0,0,0,0,0,0,0,0,0,-1,1665,337,0,0
448,687,0,0,0,0,0,0,0,0,0,-1,1672,337,0,0
455,687,0,0,0,0,0,0,0,0,0,-1,1679,337,0,0
462,687,0,0,0,0,0,0,0,0,0,-1,1686,337,0,0
469,687,0,0,0,0,0,0,0,0,0,-1,1693,337,0,0
476,687,0,0,0,0,0,0,0,0,0,-1,1700,337,0,0
483,687,0,0,0,0,0,0,0,0,0,-1,1707,337,0,0
490,687,0,0,0,0,0,0,0,0,0,-1,1714,337,0,0
497,687,0,0,0,0,0,0,0,0,0,-1,1721,337,0,0
504,687,0,0,0,0,0,0,0,0,0,-1,1728,337,0,0
511,687,0,0,0,0,0,0,0,0,0,-1,1735,337,0,0
518,687,0,0,0,0,0,0,0,0,0,-1,1742,337,0,0
525,687,0,0,0,0,0,0,0,0,0,-1,1749,337,0,0
532,687,0,0,0,0,0,0,0,0,0,-1,1756,337,0,0
539,687,0,0,0,0,0,0,0,0,0,-1,1763,337,0,0
546,687,0,0,0,0,0,0,0,0,0,-1,1770,337,0,0
553,687,0,0,0,0,0,0,0,0,0,-1,1777,337,0,0
560,687,0,0,0,0,0,0,0,0,0,-1,1784,337,0,0
567,687,0,0,0,0,0,0,0,0,0,-1,1791,337,0,0
574,687,0,0,0,0,0,0,0,0,0,-1,1798,337,0,0
581,687,0,0,0,0,0,0,0,0,0,-1,1805,337,0,0
588,687,0,0,0,0,0,0,0,0,0,-1,1812,337,0,0
595,687,0,0,0,0,0,0,0,0,0,-1,1819,337,0,0
602,687,0,0,0,0,0,0,0,0,0,-1,1826,337,0,0
609,687,0,0,0,0,0,0,0,0,0,-1,1833,337,0,0
616,687,0,0,0,0,0,0,0,0,0,-1,1840,337,0,0
623,687,0,0,0,0,0,0,0,0,0,-1,1847,337,0,0
630,687,0,0,0,0,0,0,0,0,0,-1,1854,337,0,0
637,687,0,0,0,0,0,0,0,0,0,-1,1861,337,0,0
644,687,0,0,0,0,0,0,0,0,0,-1,1868,337,0,0
651,687,0,0,0,0,0,0,0,0,0,-1,1875,337,0,0
658,687,0,0,0,0,0,0,0,0,0,-1,1882,337,0,0
665,687,0,0,0,0,0,0,0,0,0,-1,1889,337,0,0
672,687,0,0,0,0,0,0,0,0,0,-1,1896,337,0,0
679,687,0,0,0,0,0,0,0,0,0,-1,1903,337,0,0
686,687,0,0,0,0,0,0,0,0,0,-1,1910,337,0,0
693,687,0,0,0,0,0,0,0,0,0,-1,1917,337,0,0
700,687,0,0,0,0,0,0,0,0,0,-1,1924,337,0,0
707,687,0,0,0,0,0,0,0,0,0,-1,1931,337,0,0
714,687,0,0,0,0,0,0,0,0,0,-1,1938,337,0,0
721,687,0,0,0,0,0,0,0,0,0,-1,1945,337,0,0
728,687,0,0,0,0,0,0,0,0,0,-1,1952,337,0,0
735,687,0,0,0,0,0,0,0,0,0,-1,1959,337,0,0
742,687,0,0,0,0,0,0,0,0,0,-1,1966,337,0,0
749,687,0,0,0,0,0,0,0,0,0,-1,1973,337,0,0
756,687,0,0,0,0,0,0,0,0,0,-1,1980,337,0,0
763,687,0,0,0,0,0,0,0,0,0,-1,1987,337,0,0
770,687,0,0,0,0,0,0,0,0,0,-1,1994,337,0,0
777,687,0,0,0,0,0,0,0,0,0,-1,2001,337,0,0
784,687,0,0,0,0,0,0,0,0,0,-1,2008,337,0,0
791,687,0,0,0,0,0,0,0,0,0,-1,2015,337,0,0
798,687,0,0,0,0,0,0,0,0,0,-1,2022,337,0,0
805,687,0,0,0,0,0,0,0,0,0,-1,2029,337,0,0
812,687,0,0,0,0,0,0,0,0,0,-1,2036,337,0,0
-700,680,0,0,0,0,0,0,0,0,0,-1,524,344,0,0
-693,680,0,0,0,0,0,0,0,0,0,-1,531,344,0,0
-686,680,0,0,0,0,0,0,0,0,0,-1,538,344,0,0
-679,680,0,0,0,0,0,0,0,0,0,-1,545,344,0,0
-672,680,0,0,0,0,0,0,0,0,0,-1,552,344,0,0
-665,680,0,0,0,0,0,0,0,0,0,-1,559,344,0,0
-658,680,0,0,0,0,0,0,0,0,0,-1,566,344,0,0
-651,680,0,0,0,0,0,0,0,0,0,-1,573,344,0,0
-644,680,0,0,0,0,0,0,0,0,0,-1,580,344,0,0
-637,680,0,0,0,0,0,0,0,0,0,-1,587,344,0,0
-630,680,0,0,0,0,0,0,0,0,0,-1,594,344,0,0
-623,680,0,0,0,0,0,0,0,0,0,-1,601,344,0,0
-616,680,0,0,0,0,0,0,0,0,0,-1,608,344,0,0
-609,680,0,0,0,0,0,0,0,0,0,-1,615,344,0,0
-602,680,0,0,0,0,0,0,0,0,0,-1,622,344,0,0
-595,680,0,0,0,0,0,0,0,0,0,-1,629,344,0,0
-588,680,0,0,0,0,0,0,0,0,0,-1,636,344,0,0
-581,680,0,0,0,0,0,0,0,0,0,-1,643,344,0,0
-574,680,0,0,0,0,0,0,0,0,0,-1,650,344,0,0
-567,680,0,0,0,0,0,0,0,0,0,-1,657,344,0,0
-560,680,0,0,0,0,0,0,0,0,0,-1,664,344,0,0
-553,680,0,0,0,0,0,0,0,0,0,-1,671,344,0,0
-546,680,0,0,0,0,0,0,0,0,0,-1,678,344,0,0
-539,680,0,0,0,0,0,0,0,0,0,-1,685,344,0,0
-532,680,0,0,0,0,0,0,0,0,0,-1,692,344,0,0
-525,680,0,0,0,0,0,0,0,0,0,-1,699,344,0,0
-518,680,0,0,0,0,0,0,0,0,0,-1,706,344,0,0
-511,680,0,0,0,0,0,0,0,0,0,-1,713,344,0,0
-504,680,0,0,0,0,0,0,0,0,0,-1,720,344,0,0
-497,680,0,0,0,0,0,0,0,0,0,-1,727,344,0,0
-490,680,0,0,0,0,0,0,0,0,0,-1,734,344,0,0
-483,680,0,0,0,0,0,0,0,0,0,-1,741,344,0,0
-476,680,0,0,0,0,0,0,0,0,0,-1,748,344,0,0
-469,680,0,0,0,0,0,0,0,0,0,-1,755,344,0,0
-462,680,0,0,0,0,0,0,0,0,0,-1,762,344,0,0
-455,680,0,0,0,0,0,0,0,0,0,-1,769,344,0,0
-448,680,0,0,0,0,0,0,0,0,0,-1,776,344,0,0
-441,680,0,0,0,0,0,0,0,0,0,-1,783,344,0,0
-434,680,0,0,0,0,0,0,0,0,0,-1,790,344,0,0
-427,680,0,0,0,0,0,0,0,0,0,-1,797,344,0,0
-420,680,0,0,0,0,0,0,0,0,0,-1,804,344,0,0
-413,680,0,0,0,0,0,0,0,0,0,-1,811,344,0,0
-406,680,0,0,0,0,0,0,0,0,0,-1,818,344,0,0
-399,680,0,0,0,0,0,0,0,0,0,-1,825,344,0,0
-392,680,0,0,0,0,0,0,0,0,0,-1,832,344,0,0
-385,680,0,0,0,0,0,0,0,0,0,-1,839,344,0,0
-378,680,0,0,0,0,0,0,0,0,0,-1,846,344,0,0
-371,680,0,0,0,0,0,0,0,0,0,-1,853,344,0,0
-364,680,0,0,0,0,0,0,0,0,0,-1,860,344,0,0
-357,680,0,0,0,0,0,0,0,0,0,-1,867,344,0,0
-350,680,0,0,0,0,0,0,0,0,0,-1,874,344,0,0
-343,680,0,0,0,0,0,0,0,0,0,-1,881,344,0,0
-336,680,0,0,0,0,0,0,0,0,0,-1,888,344,0,0
-329,680,0,0,0,0,0,0,0,0,0,-1,895,344,0,0
-322,680,0,0,0,0,0,0,0,0,0,-1,902,344,0,0
-315,680,0,0,0,0,0,0,0,0,0,-1,909,344,0,0
-308,680,0,0,0,0,0,0,0,0,0,-1,916,344,0,0
-301,680,0,0,0,0,0,0,0,0,0,-1,923,344,0,0
-294,680,0,0,0,0,0,0,0,0,0,-1,930,344,0,0
-287,680,0,0,0,0,0,0,0,0,0,-1,937,344,0,0
-280,680,0,0,0,0,0,0,0,0,0,-1,944,344,0,0
-273,680,0,0,0,0,0,0,0,0,0,-1,951,344,0,0
-266,680,0,0,0,0,0,0,0,0,0,-1,958,344,0,0
-259,680,0,0,0,0,0,0,0,0,0,-1,965,344,0,0
-252,680,0,0,0,0,0,0,0,0,0,-1,972,344,0,0
-245,680,0,0,0,0,0,0,0,0,0,-1,979,344,0,0
-238,680,0,0,0,0,0,0,0,0,0,-1,986,344,0,0
-231,680,0,0,0,0,0,0,0,0,0,-1,993,344,0,0
-224,680,0,0,0,0,0,0,0,0,0,-1,1000,344,0,0
-217,680,0,0,0,0,0,0,0,0,0,-1,1007,344,0,0
-210,680,0,0,0,0,0,0,0,0,0,-1,1014,344,0,0
-203,680,0,0,0,0,0,0,0,0,0,-1,1021,344,0,0
-196,680,0,0,0,0,0,0,0,0,0,-1,1028,344,0,0
-189,680,0,0,0,0,0,0,0,0,0,-1,1035,344,0,0
-182,680,0,0,0,0,0,0,0,0,0,-1,1042,344,0,0
-175,680,0,0,0,0,0,0,0,0,0,-1,1049,344,0,0
-168,680,0,0,0,0,0,0,0,0,0,-1,1056,344,0,0
-161,680,0,0,0,0,0,0,0,0,0,-1,1063,344,0,0
-154,680,-1.22534,-3.19229,0,0,0,0,0,0,0,-1,1070,344,-1.22529,3.1923
-147,680,1.31897,-11.5357,0,0,0,0,0,0,0,-1,1077,344,1.31896,11.5357
-140,680,2.14502,-11.7579,0,0,0,0,0,0,0,-1,1084,344,2.145,11.7579
-133,680,3.11047,-11.7595,0,0,0,0,0,0,0,-1,1091,344,3.11044,11.7595
-126,680,1.31165,-10.1951,0,0,0,0,0,0,0,-1,1098,344,1.31166,10.1951
-119,680,1.04834,-10.3552,0,0,0,0,0,0,0,-1,1105,344,1.04835,10.3552
-112,680,0.719482,-10.732,0,0,0,0,0,0,0,-1,1112,344,0.719423,10.732
-105,680,3.65027,-10.3892,0,0,0,0,0,0,0,-1,1119,344,3.65033,10.3892
-98,680,3.77356,-9.74081,0,0,0,0,0,0,0,-1,1126,344,3.77359,9.74082
-91,680,3.05798,-8.14713,0,0,0,0,0,0,0,-1,1133,344,3.05802,8.14712
-84,680,2.71631,-7.27869,0,0,0,0,0,0,0,-1,1140,344,2.71634,7.2787
-77,680,1.31738,-3.86298,0,0,0,0,0,0,0,-1,1147,344,1.31733,3.86296
-70,680,1.79248,-2.08197,0,0,0,0,0,0,0,-1,1154,344,1.79242,2.08198
-63,680,-5.41333,-13.0013,0,0,0,0,0,0,0,-1,1161,344,-5.41332,13.0013
-56,680,-6.96912,-8.83356,0,0,0,0,0,0,0,-1,1168,344,-6.96907,8.83354
-49,680,-6.7677,-2.24063,0,0,0,0,0,0,0,-1,1175,344,-6.76772,2.24063
-42,680,-1.02368,0.618805,0,0,0,0,0,0,0,-1,1182,344,-1.0237,-0.618797
-35,680,-0.947876,-0.942719,0,0,0,0,0,0,0,-1,1189,344,-0.947842,0.942731
-28,680,-1.46118,-1.10574,0,0,0,0,0,0,0,-1,1196,344,-1.4612,1.10575
-21,680,1.02527,-8.81476,0,0,0,0,0,0,0,-1,1203,344,1.02531,8.81476
-14,680,1.23669,-9.1022,0,0,0,0,0,0,0,-1,1210,344,1.23674,9.10219
-7,680,1.47681,-9.25864,0.00139918,0.00379283,0.0316112,0.0342298,-0.0290378,0.80432,0.0365686,0.0471075,1217,344,1.47675,9.25864
0,680,1.75745,-9.44547,0.0113508,0.00687801,0.0270965,0.0363031,-0.0180742,0.744224,0.0319773,0.0480742,1224,344,1.75741,9.44545
7,680,2.02637,-9.41772,0.0197214,0.00917053,0.0234687,0.0385003,-0.0096084,0.674843,0.0293978,0.0461749,1231,344,2.0264,9.41772
14,680,2.0127,-9.41864,0.0278703,0.0120038,0.0201331,0.0415768,-0.00170271,0.597719,0.0283025,0.0442536,1238,344,2.01274,9.41863
21,680,2.04285,-9.45105,0.0372168,0.0149641,0.0165097,0.0459994,0.00618146,0.488892,0.0288275,0.0472257,1245,344,2.04289,9.45104
28,680,1.93042,-9.4599,0.0463844,0.0178109,0.0130089,0.0514197,0.0127755,0.369309,0.0309141,0.0436443,1252,344,1.93046,9.45989
35,680,1.73682,-9.42523,0.0541483,0.0203013,0.00994906,0.0568561,0.0175935,0.265732,0.0336112,0.0432636,1259,344,1.73676,9.42523
42,680,1.94775,-9.30695,0.0572133,0.0214725,0.00738843,0.0586805,0.0200054,0.196021,0.034446,0.0458716,1266,344,1.94769,9.30694
49,680,1.93835,-9.20383,0.056099,0.0217082,0.00548282,0.0569519,0.0208552,0.154331,0.0332714,0.0418572,1273,344,1.9384,9.20384
56,680,2.06873,-9.23593,0.048129,0.0214979,0.00511853,0.0490789,0.020548,0.183494,0.0284604,0.0390488,1280,344,2.06867,9.23594
63,680,2.10803,-9.19345,0.0362221,0.0214881,0.00487517,0.0376892,0.0200211,0.292298,0.021774,0.0394578,1287,344,2.10803,9.19345
70,680,1.96741,-9.25171,0.021731,0.017795,0.00507577,0.025207,0.0143191,0.600457,0.0145981,0.0383952,1294,344,1.96741,9.25171
77,680,1.96448,-9.32941,0,0,0,0,0,0,0,-1,1301,344,1.96445,9.32941
84,680,4.30847,-9.1424,0,0,0,0,0,0,0,-1,1308,344,4.30851,9.1424
91,680,3.36816,-9.26593,0,0,0,0,0,0,0,-1,1315,344,3.3682,9.26592
98,680,2.62317,-9.23157,-0.0468609,-0.00245074,0.00957868,-0.000472842,-0.0488388,1.36717,0.0324027,0.0457637,1322,344,2.62321,9.23156
105,680,1.80481,-9.17426,-0.0627857,-0.00978048,0.0152868,-0.00568773,-0.0668785,1.3092,0.0428159,0.0474286,1329,344,1.80485,9.17426
112,680,0.765747,-8.81772,-0.0654688,-0.0143169,0.0164432,-0.0094871,-0.0702986,1.28511,0.0440453,0.0440531,1336,344,0.765777,8.8177
119,680,1.69727,-9.0899,0,0,0,0,0,0,0,-1,1343,344,1.69727,9.08992
126,680,1.82849,-8.86661,0,0,0,0,0,0,0,-1,1350,344,1.82846,8.8666
133,680,1.82947,-8.8689,0,0,0,0,0,0,0,-1,1357,344,1.8295,8.86888
140,680,1.78101,-9.15729,0,0,0,0,0,0,0,-1,1364,344,1.78102,9.15728
147,680,1.79028,-9.02399,0,0,0,0,0,0,0,-1,1371,344,1.79023,9.024
154,680,1.90979,-8.94357,0,0,0,0,0,0,0,-1,1378,344,1.90982,8.94357
161,680,2.01001,-8.99158,0,0,0,0,0,0,0,-1,1385,344,2.01002,8.99157
168,680,6.85046,1.69257,0,0,0,0,0,0,0,-1,1392,344,6.85045,-1.69257
175,680,6.66541,0.942078,0,0,0,0,0,0,0,-1,1399,344,6.66538,-0.942088
182,680,6.52917,0.532379,0,0,0,0,0,0,0,-1,1406,344,6.52922,-0.532385
189,680,7.55884,4.77695,0,0,0,0,0,0,0,-1,1413,344,7.55886,-4.77694
196,680,6.55627,3.35254,0,0,0,0,0,0,0,-1,1420,344,6.55622,-3.35255
203,680,5.7334,1.90753,0,0,0,0,0,0,0,-1,1427,344,5.73341,-1.90754
210,680,5.27515,0.493622,0,0,0,0,0,0,0,-1,1434,344,5.27514,-0.493632
217,680,3.96936,1.3656,0,0,0,0,0,0,0,-1,1441,344,3.96942,-1.36559
224,680,3.9491,-0.640228,0,0,0,0,0,0,0,-1,1448,344,3.94908,0.64024
231,680,4.24866,-1.96881,0,0,0,0,0,0,0,-1,1455,344,4.2486,1.96882
238,680,4.29333,-3.23984,0,0,0,0,0,0,0,-1,1462,344,4.29332,3.23984
245,680,2.44397,0.985382,0,0,0,0,0,0,0,-1,1469,344,2.44402,-0.985394
252,680,3.07349,2.18951,0,0,0,0,0,0,0,-1,1476,344,3.0735,-2.18952
259,680,2.82971,1.30682,0,0,0,0,0,0,0,-1,1483,344,2.82972,-1.30684
266,680,2.67554,1.44067,0,0,0,0,0,0,0,-1,1490,344,2.67551,-1.44066
273,680,2.46411,1.54666,0,0,0,0,0,0,0,-1,1497,344,2.46407,-1.54666
280,680,0,0,0,0,0,0,0,0,0,-1,1504,344,0,0
287,680,0,0,0,0,0,0,0,0,0,-1,1511,344,0,0
294,680,0,0,0,0,0,0,0,0,0,-1,1518,344,0,0
301,680,0,0,0,0,0,0,0,0,0,-1,1525,344,0,0
308,680,0,0,0,0,0,0,0,0,0,-1,1532,344,0,0
315,680,0,0,0,0,0,0,0,0,0,-1,1539,344,0,0
322,680,0,0,0,0,0,0,0,0,0,-1,1546,344,0,0
329,680,0,0,0,0,0,0,0,0,0,-1,1553,344,0,0
336,680,0,0,0,0,0,0,0,0,0,-1,1560,344,0,0
343,680,0,0,0,0,0,0,0,0,0,-1,1567,344,0,0
350,680,0,0,0,0,0,0,0,0,0,-1,1574,344,0,0
357,680,0,0,0,0,0,0,0,0,0,-1,1581,344,0,0
364,680,0,0,0,0,0,0,0,0,0,-1,1588,344,0,0
371,680,0,0,0,0,0,0,0,0,0,-1,1595,344,0,0
378,680,0,0,0,0,0,0,0,0,0,-1,1602,344,0,0
385,680,0,0,0,0,0,0,0,0,0,-1,1609,344,0,0
392,680,0,0,0,0,0,0,0,0,0,-1,1616,344,0,0
399,680,0,0,0,0,0,0,0,0,0,-1,1623,344,0,0
406,680,0,0,0,0,0,0,0,0,0,-1,1630,344,0,0
413,680,0,0,0,0,0,0,0,0,0,-1,1637,344,0,0
420,680,0,0,0,0,0,0,0,0,0,-1,1644,344,0,0
427,680,0,0,0,0,0,0,0,0,0,-1,1651,344,0,0
434,680,0,0,0,0,0,0,0,0,0,-1,1658,344,0,0
441,680,0,0,0,0,0,0,0,0,0,-1,1665,344,0,0
448,680,0,0,0,0,0,0,0,0,0,-1,1672,344,0,0
455,680,0,0,0,0,0,0,0,0,0,-1,1679,344,0,0
462,680,0,0,0,0,0,0,0,0,0,-1,1686,344,0,0
469,680,0,0,0,0,0,0,0,0,0,-1,1693,344,0,0
476,680,0,0,0,0,0,0,0,0,0,-1,1700,344,0,0
483,680,0,0,0,0,0,0,0,0,0,-1,1707,344,0,0
490,680,0,0,0,0,0,0,0,0,0,-1,1714,344,0,0
497,680,0,0,0,0,0,0,0,0,0,-1,1721,344,0,0
504,680,0,0,0,0,0,0,0,0,0,-1,1728,344,0,0
511,680,0,0,0,0,0,0,0,0,0,-1,1735,344,0,0
518,680,0,0,0,0,0,0,0,0,0,-1,1742,344,0,0
525,680,0,0,0,0,0,0,0,0,0,-1,1749,344,0,0
532,680,0,0,0,0,0,0,0,0,0,-1,1756,344,0,0
539,680,0,0,0,0,0,0,0,0,0,-1,1763,344,0,0
546,680,0,0,0,0,0,0,0,0,0,-1,1770,344,0,0
553,680,0,0,0,0,0,0,0,0,0,-1,1777,344,0,0
560,680,0,0,0,0,0,0,0,0,0,-1,1784,344,0,0
567,680,0,0,0,0,0,0,0,0,0,-1,1791,344,0,0
574,680,0,0,0,0,0,0,0,0,0,-1,1798,344,0,0
581,680,0,0,0,0,0,0,0,0,0,-1,1805,344,0,0
588,680,0,0,0,0,0,0,0,0,0,-1,1812,344,0,0
595,680,0,0,0,0,0,0,0,0,0,-1,1819,344,0,0
602,680,0,0,0,0,0,0,0,0,0,-1,1826,344,0,0
609,680,0,0,0,0,0,0,0,0,0,-1,1833,344,0,0
616,680,0,0,0,0,0,0,0,0,0,-1,1840,344,0,0
623,680,0,0,0,0,0,0,0,0,0,-1,1847,344,0,0
630,680,0,0,0,0,0,0,0,0,0,-1,1854,344,0,0
637,680,0,0,0,0,0,0,0,0,0,-1,1861,344,0,0
644,680,0,0,0,0,0,0,0,0,0,-1,1868,344,0,0
651,680,0,0,0,0,0,0,0,0,0,-1,1875,344,0,0
658,680,0,0,0,0,0,0,0,0,0,-1,1882,344,0,0
665,680,0,0,0,0,0,0,0,0,0,-1,1889,344,0,0
672,680,0,0,0,0,0,0,0,0,0,-1,1896,344,0,0
679,680,0,0,0,0,0,0,0,0,0,-1,1903,344,0,0
686,680,0,0,0,0,0,0,0,0,0,-1,1910,344,0,0
693,680,0,0,0,0,0,0,0,0,0,-1,1917,344,0,0
700,680,0,0,0,0,0,0,0,0,0,-1,1924,344,0,0
707,680,0,0,0,0,0,0,0,0,0,-1,1931,344,0,0
714,680,0,0,0,0,0,0,0,0,0,-1,1938,344,0,0
721,680,0,0,0,0,0,0,0,0,0,-1,1945,344,0,0
728,680,0,0,0,0,0,0,0,0,0,-1,1952,344,0,0
735,680,0,0,0,0,0,0,0,0,0,-1,1959,344,0,0
742,680,0,0,0,0,0,0,0,0,0,-1,1966,344,0,0
749,680,0,0,0,0,0,0,0,0,0,-1,1973,344,0,0
756,680,0,0,0,0,0,0,0,0,0,-1,1980,344,0,0
763,680,0,0,0,0,0,0,0,0,0,-1,1987,344,0,0
770,680,0,0,0,0,0,0,0,0,0,-1,1994,344,0,0
777,680,0,0,0,0,0,0,0,0,0,-1,2001,344,0,0
784,680,0,0,0,0,0,0,0,0,0,-1,2008,344,0,0
791,680,0,0,0,0,0,0,0,0,0,-1,2015,344,0,0
798,680,0,0,0,0,0,0,0,0,0,-1,2022,344,0,0
805,680,0,0,0,0,0,0,0,0,0,-1,2029,344,0,0
812,680,0,0,0,0,0,0,0,0,0,-1,2036,344,0,0
-700,673,0,0,0,0,0,0,0,0,0,-1,524,351,0,0
-693,673,0,0,0,0,0,0,0,0,0,-1,531,351,0,0
-686,673,0,0,0,0,0,0,0,0,0,-1,538,351,0,0
-679,673,0,0,0,0,0,0,0,0,0,-1,545,351,0,0
-672,673,0,0,0,0,0,0,0,0,0,-1,552,351,0,0
-665,673,0,0,0,0,0,0,0,0,0,-1,559,351,0,0
-658,673,0,0,0,0,0,0,0,0,0,-1,566,351,0,0
-651,673,0,0,0,0,0,0,0,0,0,-1,573,351,0,0
-644,673,0,0,0,0,0,0,0,0,0,-1,580,351,0,0
-637,673,0,0,0,0,0,0,0,0,0,-1,587,351,0,0
-630,673,0,0,0,0,0,0,0,0,0,-1,594,351,0,0
-623,673,0,0,0,0,0,0,0,0,0,-1,601,351,0,0
-616,673,0,0,0,0,0,0,0,0,0,-1,608,351,0,0
-609,673,0,0,0,0,0,0,0,0,0,-1,615,351,0,0
-602,673,0,0,0,0,0,0,0,0,0,-1,622,351,0,0
-595,673,0,0,0,0,0,0,0,0,0,-1,629,351,0,0
-588,673,0,0,0,0,0,0,0,0,0,-1,636,351,0,0
-581,673,0,0,0,0,0,0,0,0,0,-1,643,351,0,0
-574,673,0,0,0,0,0,0,0,0,0,-1,650,351,0,0
-567,673,0,0,0,0,0,0,0,0,0,-1,657,351,0,0
-560,673,0,0,0,0,0,0,0,0,0,-1,664,351,0,0
-553,673,0,0,0,0,0,0,0,0,0,-1,671,351,0,0
-546,673,0,0,0,0,0,0,0,0,0,-1,678,351,0,0
-539,673,0,0,0,0,0,0,0,0,0,-1,685,351,0,0
-532,673,0,0,0,0,0,0,0,0,0,-1,692,351,0,0
-525,673,0,0,0,0,0,0,0,0,0,-1,699,351,0,0
-518,673,0,0,0,0,0,0,0,0,0,-1,706,351,0,0
-511,673,0,0,0,0,0,0,0,0,0,-1,713,351,0,0
-504,673,0,0,0,0,0,0,0,0,0,-1,720,351,0,0
-497,673,0,0,0,0,0,0,0,0,0,-1,727,351,0,0
-490,673,0,0,0,0,0,0,0,0,0,-1,734,351,0,0
-483,673,0,0,0,0,0,0,0,0,0,-1,741,351,0,0
-476,673,0,0,0,0,0,0,0,0,0,-1,748,351,0,0
-469,673,0,0,0,0,0,0,0,0,0,-1,755,351,0,0
-462,673,0,0,0,0,0,0,0,0,0,-1,762,351,0,0
-455,673,0,0,0,0,0,0,0,0,0,-1,769,351,0,0
-448,673,0,0,0,0,0,0,0,0,0,-1,776,351,0,0
-441,673,0,0,0,0,0,0,0,0,0,-1,783,351,0,0
-434,673,0,0,0,0,0,0,0,0,0,-1,790,351,0,0
-427,673,0,0,0,0,0,0,0,0,0,-1,797,351,0,0
-420,673,0,0,0,0,0,0,0,0,0,-1,804,351,0,0
-413,673,0,0,0,0,0,0,0,0,0,-1,811,351,0,0
-406,673,0,0,0,0,0,0,0,0,0,-1,818,351,0,0
-399,673,0,0,0,0,0,0,0,0,0,-1,825,351,0,0
-392,673,0,0,0,0,0,0,0,0,0,-1,832,351,0,0
-385,673,0,0,0,0,0,0,0,0,0,-1,839,351,0,0
-378,673,0,0,0,0,0,0,0,0,0,-1,846,351,0,0
-371,673,0,0,0,0,0,0,0,0,0,-1,853,351,0,0
-364,673,0,0,0,0,0,0,0,0,0,-1,860,351,0,0
-357,673,0,0,0,0,0,0,0,0,0,-1,867,351,0,0
-350,673,0,0,0,0,0,0,0,0,0,-1,874,351,0,0
-343,673,0,0,0,0,0,0,0,0,0,-1,881,351,0,0
-336,673,0,0,0,0,0,0,0,0,0,-1,888,351,0,0
-329,673,0,0,0,0,0,0,0,0,0,-1,895,351,0,0
-322,673,0,0,0,0,0,0,0,0,0,-1,902,351,0,0
-315,673,0,0,0,0,0,0,0,0,0,-1,909,351,0,0
-308,673,0,0,0,0,0,0,0,0,0,-1,916,351,0,0
-301,673,0,0,0,0,0,0,0,0,0,-1,923,351,0,0
-294,673,0,0,0,0,0,0,0,0,0,-1,930,351,0,0
-287,673,0,0,0,0,0,0,0,0,0,-1,937,351,0,0
-280,673,0,0,0,0,0,0,0,0,0,-1,944,351,0,0
-273,673,0,0,0,0,0,0,0,0,0,-1,951,351,0,0
-266,673,0,0,0,0,0,0,0,0,0,-1,958,351,0,0
-259,673,0,0,0,0,0,0,0,0,0,-1,965,351,0,0
-252,673,0,0,0,0,0,0,0,0,0,-1,972,351,0,0
-245,673,0,0,0,0,0,0,0,0,0,-1,979,351,0,0
-238,673,0,0,0,0,0,0,0,0,0,-1,986,351,0,0
-231,673,0,0,0,0,0,0,0,0,0,-1,993,351,0,0
-224,673,0,0,0,0,0,0,0,0,0,-1,1000,351,0,0
-217,673,0,0,0,0,0,0,0,0,0,-1,1007,351,0,0
-210,673,0,0,0,0,0,0,0,0,0,-1,1014,351,0,0
-203,673,0,0,0,0,0,0,0,0,0,-1,1021,351,0,0
-196,673,0,0,0,0,0,0,0,0,0,-1,1028,351,0,0
-189,673,0,0,0,0,0,0,0,0,0,-1,1035,351,0,0
-182,673,0,0,0,0,0,0,0,0,0,-1,1042,351,0,0
-175,673,0.35144,-5.74207,0,0,0,0,0,0,0,-1,1049,351,0.35139,5.74208
-168,673,0.501221,-5.83353,0,0,0,0,0,0,0,-1,1056,351,0.501161,5.83354
-161,673,3.87073,-11.1271,0,0,0,0,0,0,0,-1,1063,351,3.87074,11.1271
-154,673,0.910889,-11.0724,0,0,0,0,0,0,0,-1,1070,351,0.910902,11.0724
-147,673,1.51672,-11.1369,0.0500358,-0.0927766,0.00801365,0.050484,-0.0932248,0.0558793,0.0841846,0.0461224,1077,351,1.51672,11.1369
-140,673,2.18262,-11.1477,0,0,0,0,0,0,0,-1,1084,351,2.18266,11.1477
-133,673,2.93616,-10.9825,0,0,0,0,0,0,0,-1,1091,351,2.93615,10.9825
-126,673,1.7196,-9.62213,0,0,0,0,0,0,0,-1,1098,351,1.71964,9.62213
-119,673,1.62122,-9.49423,0,0,0,0,0,0,0,-1,1105,351,1.62124,9.49424
-112,673,1.45447,-9.44138,0,0,0,0,0,0,0,-1,1112,351,1.45441,9.44138
-105,673,3.03174,-9.67041,0,0,0,0,0,0,0,-1,1119,351,3.03169,9.67041
-98,673,3.24609,-9.58417,0,0,0,0,0,0,0,-1,1126,351,3.24609,9.58418
-91,673,3.28711,-9.47852,0,0,0,0,0,0,0,-1,1133,351,3.28706,9.47851
-84,673,2.64172,-8.18015,0,0,0,0,0,0,0,-1,1140,351,2.64176,8.18014
-77,673,2.36157,-7.52881,0,0,0,0,0,0,0,-1,1147,351,2.36159,7.5288
-70,673,1.88684,-4.7381,0,0,0,0,0,0,0,-1,1154,351,1.88682,4.73809
-63,673,1.11719,-2.95016,0,0,0,0,0,0,0,-1,1161,351,1.11724,2.95016
-56,673,-6.18872,-9.52338,0,0,0,0,0,0,0,-1,1168,351,-6.18874,9.52336
-49,673,-0.926758,-0.115448,0,0,0,0,0,0,0,-1,1175,351,-0.926732,0.115444
-42,673,-1.15015,0.289917,0,0,0,0,0,0,0,-1,1182,351,-1.15017,-0.289932
-35,673,-0.919556,-1.00711,0,0,0,0,0,0,0,-1,1189,351,-0.919514,1.00711
-28,673,1.03564,-2.58228,0,0,0,0,0,0,0,-1,1196,351,1.0356,2.58229
-21,673,2.05249,-9.17654,0,0,0,0,0,0,0,-1,1203,351,2.05252,9.17655
-14,673,2.05994,-9.29636,0,0,0,0,0,0,0,-1,1210,351,2.05993,9.29636
-7,673,0.575439,-9.13623,0,0,0,0,0,0,0,-1,1217,351,0.575482,9.13622
0,673,1.75293,-9.53052,0.0102137,0.00656111,0.0189993,0.0274742,-0.0106994,0.737483,0.0227378,0.0444936,1224,351,1.75296,9.53053
7,673,2.1106,-9.41748,0.0156869,0.00828498,0.0164796,0.028876,-0.00490412,0.674942,0.0210764,0.0422914,1231,351,2.11056,9.41748
14,673,2.08545,-9.45941,0.0211316,0.0104302,0.014102,0.0308639,0.000697928,0.604074,0.0203473,0.0375814,1238,351,2.08543,9.45942
21,673,2.03613,-9.47287,0.0273907,0.0126503,0.0114789,0.0336617,0.00637917,0.50001,0.0206459,0.0250708,1245,351,2.03619,9.47286
28,673,2.01477,-9.47363,0.0336339,0.0147473,0.00891,0.0371738,0.0112073,0.378174,0.0220189,0.0163546,1252,351,2.01482,9.47362
35,673,1.99377,-9.48004,0.0389381,0.016553,0.00665952,0.0407695,0.0147217,0.268366,0.0238391,0.0227615,1259,351,1.99378,9.48005
42,673,1.98767,-9.45093,0.0409626,0.0173743,0.00474148,0.04188,0.0164569,0.191123,0.0243634,0.0266796,1266,351,1.98764,9.45092
49,673,1.95166,-9.45776,0.0400333,0.0175376,0.00325447,0.0404946,0.0170762,0.140825,0.023475,0.0162338,1273,351,1.95168,9.45777
56,673,1.93884,-9.44382,0.0342509,0.0172693,0.00294002,0.0347455,0.0167747,0.166669,0.0200643,0.0132966,1280,351,1.93889,9.4438
63,673,1.96191,-9.40421,0.0254754,0.0171886,0.00281971,0.0263438,0.0163202,0.298771,0.0153537,0.0170163,1287,351,1.96196,9.4042
70,673,1.91577,-9.36816,0.0147808,0.014488,0.00318649,0.0178243,0.0114446,0.762446,0.0104284,0.0265666,1294,351,1.91573,9.36817
77,673,1.94788,-9.40677,0.00212425,0.011747,0.00410123,0.0132577,0.000613485,1.21785,0.00864127,0.0350379,1301,351,1.94791,9.40677
84,673,1.9386,-9.39761,-0.00873916,0.00839548,0.00480815,0.00965248,-0.00999616,1.31509,0.0113447,0.0381816,1308,351,1.93865,9.39763
91,673,1.83484,-9.34384,-0.0210082,0.00409987,0.00648804,0.00567731,-0.0225856,1.33229,0.0172636,0.0430486,1315,351,1.83485,9.34385
98,673,1.79333,-9.27939,-0.0356494,-0.000418222,0.00753659,0.00112628,-0.0371939,1.36866,0.0251798,0.0465115,1322,351,1.79338,9.27939
105,673,1.72266,-9.31027,-0.0469085,-0.00548783,0.0117169,-0.00240311,-0.0499932,1.31337,0.0325573,0.0425813,1329,351,1.7226,9.31026
112,673,1.3042,-9.17474,-0.0487844,-0.00867611,0.0126772,-0.00500517,-0.0524553,1.28894,0.0334269,0.041016,1336,351,1.30425,9.17474
119,673,1.77075,-9.17374,-0.0494805,-0.0127641,0.0137315,-0.00819684,-0.0540478,1.24969,0.0336342,0.0403883,1343,351,1.77078,9.17374
126,673,1.82336,-9.03897,-0.0490975,-0.0168146,0.015536,-0.0105527,-0.0553594,1.18765,0.0339401,0.0396832,1350,351,1.82334,9.03896
133,673,1.83862,-9.00894,-0.048005,-0.0211978,0.0174992,-0.0125588,-0.056644,1.11222,0.0343504,0.0422502,1357,351,1.83862,9.00893
140,673,1.76855,-9.15625,-0.0464926,-0.0257157,0.0195342,-0.0139794,-0.0582289,1.02978,0.0351,0.0432289,1364,351,1.7686,9.15624
147,673,1.76892,-9.05627,-0.0447184,-0.0299168,0.0215369,-0.0145446,-0.0600906,0.950894,0.0361996,0.0434559,1371,351,1.76895,9.05627
154,673,1.86829,-8.98407,-0.0428237,-0.0337992,0.0231609,-0.0147151,-0.0619078,0.881604,0.037346,0.0429625,1378,351,1.8683,8.98407
161,673,1.94214,-8.92963,0,0,0,0,0,0,0,-1,1385,351,1.94216,8.92961
168,673,6.87061,1.83954,0,0,0,0,0,0,0,-1,1392,351,6.87063,-1.83953
175,673,6.6228,1.1459,0,0,0,0,0,0,0,-1,1399,351,6.62276,-1.14591
182,673,6.37244,0.796112,0,0,0,0,0,0,0,-1,1406,351,6.3724,-0.796102
189,673,6.12097,0.265472,0,0,0,0,0,0,0,-1,1413,351,6.121,-0.265482
196,673,6.02173,3.12717,0,0,0,0,0,0,0,-1,1420,351,6.02176,-3.12717
203,673,5.04456,1.6351,0,0,0,0,0,0,0,-1,1427,351,5.04455,-1.63509
210,673,4.79224,0.447479,0,0,0,0,0,0,0,-1,1434,351,4.79229,-0.447469
217,673,2.01648,0.972687,0,0,0,0,0,0,0,-1,1441,351,2.01644,-0.972691
224,673,2.3689,-1.80539,0,0,0,0,0,0,0,-1,1448,351,2.36896,1.80539
231,673,2.65857,-2.18497,0,0,0,0,0,0,0,-1,1455,351,2.65852,2.18496
238,673,3.24146,-1.01593,0,0,0,0,0,0,0,-1,1462,351,3.24142,1.01593
245,673,3.5376,-0.190399,0,0,0,0,0,0,0,-1,1469,351,3.53759,0.1904
252,673,3.80518,0.55603,0,0,0,0,0,0,0,-1,1476,351,3.80519,-0.556022
259,673,3.88562,1.29617,0,0,0,0,0,0,0,-1,1483,351,3.88562,-1.29618
266,673,4.22424,2.04834,0,0,0,0,0,0,0,-1,1490,351,4.22429,-2.04834
273,673,6.07886,0.385895,0,0,0,0,0,0,0,-1,1497,351,6.0789,-0.385906
280,673,6.97534,-0.0820007,0,0,0,0,0,0,0,-1,1504,351,6.97536,0.0820122
287,673,7.66968,-0.348541,0,0,0,0,0,0,0,-1,1511,351,7.66969,0.348534
294,673,8.20996,0.28537,0,0,0,0,0,0,0,-1,1518,351,8.20993,-0.28536
301,673,0,0,0,0,0,0,0,0,0,-1,1525,351,0,0
308,673,0,0,0,0,0,0,0,0,0,-1,1532,351,0,0
315,673,0,0,0,0,0,0,0,0,0,-1,1539,351,0,0
322,673,0,0,0,0,0,0,0,0,0,-1,1546,351,0,0
329,673,0,0,0,0,0,0,0,0,0,-1,1553,351,0,0
336,673,0,0,0,0,0,0,0,0,0,-1,1560,351,0,0
343,673,0,0,0,0,0,0,0,0,0,-1,1567,351,0,0
350,673,0,0,0,0,0,0,0,0,0,-1,1574,351,0,0
357,673,0,0,0,0,0,0,0,0,0,-1,1581,351,0,0
364,673,0,0,0,0,0,0,0,0,0,-1,1588,351,0,0
371,673,0,0,0,0,0,0,0,0,0,-1,1595,351,0,0
378,673,0,0,0,0,0,0,0,0,0,-1,1602,351,0,0
385,673,0,0,0,0,0,0,0,0,0,-1,1609,351,0,0
392,673,0,0,0,0,0,0,0,0,0,-1,1616,351,0,0
399,673,0,0,0,0,0,0,0,0,0,-1,1623,351,0,0
406,673,0,0,0,0,0,0,0,0,0,-1,1630,351,0,0
413,673,0,0,0,0,0,0,0,0,0,-1,1637,351,0,0
420,673,0,0,0,0,0,0,0,0,0,-1,1644,351,0,0
427,673,0,0,0,0,0,0,0,0,0,-1,1651,351,0,0
434,673,0,0,0,0,0,0,0,0,0,-1,1658,351,0,0
441,673,0,0,0,0,0,0,0,0,0,-1,1665,351,0,0
448,673,0,0,0,0,0,0,0,0,0,-1,1672,351,0,0
455,673,0,0,0,0,0,0,0,0,0,-1,1679,351,0,0
462,673,0,0,0,0,0,0,0,0,0,-1,1686,351,0,0
469,673,0,0,0,0,0,0,0,0,0,-1,1693,351,0,0
476,673,0,0,0,0,0,0,0,0,0,-1,1700,351,0,0
483,673,0,0,0,0,0,0,0,0,0,-1,1707,351,0,0
490,673,0,0,0,0,0,0,0,0,0,-1,1714,351,0,0
497,673,0,0,0,0,0,0,0,0,0,-1,1721,351,0,0
504,673,0,0,0,0,0,0,0,0,0,-1,1728,351,0,0
511,673,0,0,0,0,0,0,0,0,0,-1,1735,351,0,0
518,673,0,0,0,0,0,0,0,0,0,-1,1742,351,0,0
525,673,0,0,0,0,0,0,0,0,0,-1,1749,351,0,0
532,673,0,0,0,0,0,0,0,0,0,-1,1756,351,0,0
539,673,0,0,0,0,0,0,0,0,0,-1,1763,351,0,0
546,673,0,0,0,0,0,0,0,0,0,-1,1770,351,0,0
553,673,0,0,0,0,0,0,0,0,0,-1,1777,351,0,0
560,673,0,0,0,0,0,0,0,0,0,-1,1784,351,0,0
567,673,0,0,0,0,0,0,0,0,0,-1,1791,351,0,0
574,673,0,0,0,0,0,0,0,0,0,-1,1798,351,0,0
581,673,0,0,0,0,0,0,0,0,0,-1,1805,351,0,0
588,673,0,0,0,0,0,0,0,0,0,-1,1812,351,0,0
595,673,0,0,0,0,0,0,0,0,0,-1,1819,351,0,0
602,673,0,0,0,0,0,0,0,0,0,-1,1826,351,0,0
609,673,0,0,0,0,0,0,0,0,0,-1,1833,351,0,0
616,673,0,0,0,0,0,0,0,0,0,-1,1840,351,0,0
623,673,0,0,0,0,0,0,0,0,0,-1,1847,351,0,0
630,673,0,0,0,0,0,0,0,0,0,-1,1854,351,0,0
637,673,0,0,0,0,0,0,0,0,0,-1,1861,351,0,0
644,673,0,0,0,0,0,0,0,0,0,-1,1868,351,0,0
651,673,0,0,0,0,0,0,0,0,0,-1,1875,351,0,0
658,673,0,0,0,0,0,0,0,0,0,-1,1882,351,0,0
665,673,0,0,0,0,0,0,0,0,0,-1,1889,351,0,0
672,673,0,0,0,0,0,0,0,0,0,-1,1896,351,0,0
679,673,0,0,0,0,0,0,0,0,0,-1,1903,351,0,0
686,673,0,0,0,0,0,0,0,0,0,-1,1910,351,0,0
693,673,0,0,0,0,0,0,0,0,0,-1,1917,351,0,0
700,673,0,0,0,0,0,0,0,0,0,-1,1924,351,0,0
707,673,0,0,0,0,0,0,0,0,0,-1,1931,351,0,0
714,673,0,0,0,0,0,0,0,0,0,-1,1938,351,0,0
721,673,0,0,0,0,0,0,0,0,0,-1,1945,351,0,0
728,673,0,0,0,0,0,0,0,0,0,-1,1952,351,0,0
735,673,0,0,0,0,0,0,0,0,0,-1,1959,351,0,0
742,673,0,0,0,0,0,0,0,0,0,-1,1966,351,0,0
749,673,0,0,0,0,0,0,0,0,0,-1,1973,351,0,0
756,673,0,0,0,0,0,0,0,0,0,-1,1980,351,0,0
763,673,0,0,0,0,0,0,0,0,0,-1,1987,351,0,0
770,673,0,0,0,0,0,0,0,0,0,-1,1994,351,0,0
777,673,0,0,0,0,0,0,0,0,0,-1,2001,351,0,0
784,673,0,0,0,0,0,0,0,0,0,-1,2008,351,0,0
791,673,0,0,0,0,0,0,0,0,0,-1,2015,351,0,0
798,673,0,0,0,0,0,0,0,0,0,-1,2022,351,0,0
805,673,0,0,0,0,0,0,0,0,0,-1,2029,351,0,0
812,673,0,0,0,0,0,0,0,0,0,-1,2036,351,0,0
-700,666,0,0,0,0,0,0,0,0,0,-1,524,358,0,0
-693,666,0,0,0,0,0,0,0,0,0,-1,531,358,0,0
-686,666,0,0,0,0,0,0,0,0,0,-1,538,358,0,0
-679,666,0,0,0,0,0,0,0,0,0,-1,545,358,0,0
-672,666,0,0,0,0,0,0,0,0,0,-1,552,358,0,0
-665,666,0,0,0,0,0,0,0,0,0,-1,559,358,0,0
-658,666,0,0,0,0,0,0,0,0,0,-1,566,358,0,0
-651,666,0,0,0,0,0,0,0,0,0,-1,573,358,0,0
-644,666,0,0,0,0,0,0,0,0,0,-1,580,358,0,0
-637,666,0,0,0,0,0,0,0,0,0,-1,587,358,0,0
-630,666,0,0,0,0,0,0,0,0,0,-1,594,358,0,0
-623,666,0,0,0,0,0,0,0,0,0,-1,601,358,0,0
-616,666,0,0,0,0,0,0,0,0,0,-1,608,358,0,0
-609,666,0,0,0,0,0,0,0,0,0,-1,615,358,0,0
-602,666,0,0,0,0,0,0,0,0,0,-1,622,358,0,0
-595,666,0,0,0,0,0,0,0,0,0,-1,629,358,0,0
-588,666,0,0,0,0,0,0,0,0,0,-1,636,358,0,0
-581,666,0,0,0,0,0,0,0,0,0,-1,643,358,0,0
-574,666,0,0,0,0,0,0,0,0,0,-1,650,358,0,0
-567,666,0,0,0,0,0,0,0,0,0,-1,657,358,0,0
-560,666,0,0,0,0,0,0,0,0,0,-1,664,358,0,0
-553,666,0,0,0,0,0,0,0,0,0,-1,671,358,0,0
-546,666,0,0,0,0,0,0,0,0,0,-1,678,358,0,0
-539,666,0,0,0,0,0,0,0,0,0,-1,685,358,0,0
-532,666,0,0,0,0,0,0,0,0,0,-1,692,358,0,0
-525,666,0,0,0,0,0,0,0,0,0,-1,699,358,0,0
-518,666,0,0,0,0,0,0,0,0,0,-1,706,358,0,0
-511,666,0,0,0,0,0,0,0,0,0,-1,713,358,0,0
-504,666,0,0,0,0,0,0,0,0,0,-1,720,358,0,0
-497,666,0,0,0,0,0,0,0,0,0,-1,727,358,0,0
-490,666,0,0,0,0,0,0,0,0,0,-1,734,358,0,0
-483,666,0,0,0,0,0,0,0,0,0,-1,741,358,0,0
-476,666,0,0,0,0,0,0,0,0,0,-1,748,358,0,0
-469,666,0,0,0,0,0,0,0,0,0,-1,755,358,0,0
-462,666,0,0,0,0,0,0,0,0,0,-1,762,358,0,0
-455,666,0,0,0,0,0,0,0,0,0,-1,769,358,0,0
-448,666,0,0,0,0,0,0,0,0,0,-1,776,358,0,0
-441,666,0,0,0,0,0,0,0,0,0,-1,783,358,0,0
-434,666,0,0,0,0,0,0,0,0,0,-1,790,358,0,0
-427,666,0,0,0,0,0,0,0,0,0,-1,797,358,0,0
-420,666,0,0,0,0,0,0,0,0,0,-1,804,358,0,0
-413,666,0,0,0,0,0,0,0,0,0,-1,811,358,0,0
-406,666,0,0,0,0,0,0,0,0,0,-1,818,358,0,0
-399,666,0,0,0,0,0,0,0,0,0,-1,825,358,0,0
-392,666,0,0,0,0,0,0,0,0,0,-1,832,358,0,0
-385,666,0,0,0,0,0,0,0,0,0,-1,839,358,0,0
-378,666,0,0,0,0,0,0,0,0,0,-1,846,358,0,0
-371,666,0,0,0,0,0,0,0,0,0,-1,853,358,0,0
-364,666,0,0,0,0,0,0,0,0,0,-1,860,358,0,0
-357,666,0,0,0,0,0,0,0,0,0,-1,867,358,0,0
-350,666,0,0,0,0,0,0,0,0,0,-1,874,358,0,0
-343,666,0,0,0,0,0,0,0,0,0,-1,881,358,0,0
-336,666,0,0,0,0,0,0,0,0,0,-1,888,358,0,0
-329,666,0,0,0,0,0,0,0,0,0,-1,895,358,0,0
-322,666,0,0,0,0,0,0,0,0,0,-1,902,358,0,0
-315,666,0,0,0,0,0,0,0,0,0,-1,909,358,0,0
-308,666,0,0,0,0,0,0,0,0,0,-1,916,358,0,0
-301,666,0,0,0,0,0,0,0,0,0,-1,923,358,0,0
-294,666,0,0,0,0,0,0,0,0,0,-1,930,358,0,0
-287,666,0,0,0,0,0,0,0,0,0,-1,937,358,0,0
-280,666,0,0,0,0,0,0,0,0,0,-1,944,358,0,0
-273,666,0,0,0,0,0,0,0,0,0,-1,951,358,0,0
-266,666,0,0,0,0,0,0,0,0,0,-1,958,358,0,0
-259,666,0,0,0,0,0,0,0,0,0,-1,965,358,0,0
-252,666,0,0,0,0,0,0,0,0,0,-1,972,358,0,0
-245,666,0,0,0,0,0,0,0,0,0,-1,979,358,0,0
-238,666,0,0,0,0,0,0,0,0,0,-1,986,358,0,0
-231,666,0,0,0,0,0,0,0,0,0,-1,993,358,0,0
-224,666,0,0,0,0,0,0,0,0,0,-1,1000,358,0,0
-217,666,0,0,0,0,0,0,0,0,0,-1,1007,358,0,0
-210,666,0,0,0,0,0,0,0,0,0,-1,1014,358,0,0
-203,666,0,0,0,0,0,0,0,0,0,-1,1021,358,0,0
-196,666,1.68958,-9.41406,0,0,0,0,0,0,0,-1,1028,358,1.68961,9.41406
-189,666,1.67078,-11.9919,0,0,0,0,0,0,0,-1,1035,358,1.67079,11.9919
-182,666,7.30676,-6.88602,0,0,0,0,0,0,0,-1,1042,358,7.30672,6.88601
-175,666,0.79187,-6.52982,0,0,0,0,0,0,0,-1,1049,358,0.791903,6.52981
-168,666,2.82861,-10.3423,0,0,0,0,0,0,0,-1,1056,358,2.82858,10.3423
-161,666,1.65515,-9.6423,0,0,0,0,0,0,0,-1,1063,358,1.65513,9.64229
-154,666,0.970825,-10.8174,0,0,0,0,0,0,0,-1,1070,358,0.970812,10.8174
-147,666,1.54553,-10.5376,0,0,0,0,0,0,0,-1,1077,358,1.54557,10.5376
-140,666,2.073,-9.9462,0,0,0,0,0,0,0,-1,1084,358,2.07299,9.94619
-133,666,2.38757,-9.25732,0,0,0,0,0,0,0,-1,1091,358,2.38757,9.25731
-126,666,1.68164,-9.00339,0,0,0,0,0,0,0,-1,1098,358,1.6816,9.00339
-119,666,2.59131,-8.62308,0,0,0,0,0,0,0,-1,1105,358,2.59132,8.62308
-112,666,2.49451,-9.84061,0,0,0,0,0,0,0,-1,1112,358,2.49454,9.84059
-105,666,2.50549,-9.65582,0,0,0,0,0,0,0,-1,1119,358,2.50554,9.65584
-98,666,2.68213,-9.54227,0.00698299,-0.0290022,0.0149524,0.012385,-0.0344042,0.346688,0.0279931,0.0465161,1126,358,2.6821,9.54227
-91,666,2.7489,-9.42953,0.000830216,-0.021907,0.0152935,0.00851779,-0.0295946,0.465779,0.0230985,0.0441765,1133,358,2.74889,9.42952
-84,666,2.58057,-8.95572,0,0,0,0,0,0,0,-1,1140,358,2.58059,8.95572
-77,666,1.60913,-8.7323,0,0,0,0,0,0,0,-1,1147,358,1.60917,8.73229
-70,666,2.05957,-6.51086,0,0,0,0,0,0,0,-1,1154,358,2.05959,6.51088
-63,666,1.47485,-3.79593,0,0,0,0,0,0,0,-1,1161,358,1.47481,3.79593
-56,666,0.424683,-2.04132,0,0,0,0,0,0,0,-1,1168,358,0.424665,2.04132
-49,666,0.754395,-2.23169,0,0,0,0,0,0,0,-1,1175,358,0.754383,2.23169
-42,666,1.34473,-3.53897,0,0,0,0,0,0,0,-1,1182,358,1.34476,3.53896
-35,666,1.8175,-9.53613,0,0,0,0,0,0,0,-1,1189,358,1.81757,9.53612
-28,666,2.01624,-9.3425,0,0,0,0,0,0,0,-1,1196,358,2.01625,9.34249
-21,666,2.01807,-9.34714,-0.00276699,0.00203946,0.0158466,0.015664,-0.0163915,0.860653,0.0185089,0.0328413,1203,358,2.01812,9.34714
-14,666,2.03845,-9.35495,-0.00171467,0.00294364,0.0153429,0.0161332,-0.0149042,0.860726,0.0179241,0.0237873,1210,358,2.03841,9.35496
-7,666,2.04175,-9.40219,0.00267931,0.00372249,0.0153881,0.0185979,-0.0121961,0.802339,0.0179065,0.0167453,1217,358,2.04169,9.40218
0,666,2.01245,-9.41843,0,0,0,0,0,0,0,-1,1224,358,2.0124,9.41842
7,666,2.02319,-9.44061,0.0118121,0.00696447,0.0111767,0.0208248,-0.00204823,0.67862,0.0146139,0.0138844,1231,358,2.02319,9.44061
14,666,1.99829,-9.46005,0.0153236,0.0085446,0.00956561,0.0220825,0.00178572,0.615129,0.014164,0.0142534,1238,358,1.99826,9.46006
21,666,1.99658,-9.48087,0.0193477,0.0101653,0.00775276,0.0237668,0.00574629,0.518065,0.0143187,0.010912,1245,358,1.99655,9.48088
28,666,1.99255,-9.48605,0.0234112,0.0116587,0.00594925,0.025897,0.0091729,0.395785,0.0151621,0.0105752,1252,358,1.99257,9.48606
35,666,1.97559,-9.47034,0.0268538,0.0129204,0.00436483,0.0281082,0.011666,0.279849,0.0163062,0.00968498,1259,358,1.97556,9.47033
42,666,1.948,-9.48077,0.0280891,0.0134761,0.00299274,0.0286783,0.012887,0.194377,0.0165857,0.0112322,1266,358,1.94805,9.48077
49,666,1.92358,-9.47949,0.0272877,0.0135828,0.0018915,0.027544,0.0133265,0.134663,0.0159053,0.00968559,1273,358,1.9236,9.47948
56,666,1.93823,-9.4758,0.0231714,0.0133126,0.00164234,0.0234378,0.0130462,0.160804,0.0135607,0.0111316,1280,358,1.93824,9.47581
63,666,1.9231,-9.46115,0.0169338,0.0132091,0.00158891,0.0175195,0.0126234,0.353166,0.0104377,0.0136994,1287,358,1.9231,9.46115
70,666,1.89905,-9.44547,0.0093828,0.0113104,0.00198881,0.0125566,0.00813655,1.01103,0.00735465,0.0144084,1294,358,1.899,9.44546
77,666,1.90234,-9.4689,0.000426479,0.00947287,0.00275068,0.0102436,-0.000344239,1.29761,0.00694665,0.0170782,1301,358,1.90238,9.46889
84,666,1.90271,-9.46503,-0.00740998,0.00715508,0.00336727,0.00789588,-0.00815078,1.35425,0.00926493,0.0217192,1308,358,1.90269,9.46502
91,666,1.83716,-9.43793,-0.0160689,0.00410338,0.0046748,0.00513408,-0.0170996,1.35379,0.013442,0.0216026,1315,358,1.83716,9.43793
98,666,1.81531,-9.40616,-0.0261213,0.00082789,0.00569117,0.00198047,-0.0272738,1.37098,0.0188774,0.0185811,1322,358,1.81535,9.40617
105,666,1.80469,-9.35004,-0.0337658,-0.0025419,0.0086276,-0.000316575,-0.0359912,1.31837,0.0238893,0.0183501,1329,358,1.80469,9.35005
112,666,1.78003,-9.33417,-0.0350178,-0.00469856,0.00937832,-0.00203217,-0.0376842,1.29379,0.0244736,0.0220579,1336,358,1.78002,9.33416
119,666,1.8031,-9.2663,-0.0353781,-0.00744312,0.010171,-0.0041323,-0.0386889,1.2561,0.0245315,0.023783,1343,358,1.80313,9.26631
126,666,1.81628,-9.18848,-0.0349586,-0.0101611,0.0114062,-0.0057126,-0.0394071,1.19893,0.0245894,0.0227946,1350,358,1.81634,9.18848
133,666,1.80444,-9.16501,-0.0339587,-0.0130324,0.0127029,-0.00703825,-0.0399529,1.12991,0.0246267,0.0209978,1357,358,1.80445,9.16502
140,666,1.77771,-9.16345,-0.0325617,-0.0159447,0.0139922,-0.00798011,-0.0405262,1.05332,0.0247894,0.0191735,1364,358,1.77766,9.16344
147,666,1.76477,-9.10706,-0.0308428,-0.018557,0.0152101,-0.00829613,-0.0411037,0.977317,0.0250984,0.0183066,1371,358,1.76474,9.10707
154,666,1.80176,-9.02634,-0.0289145,-0.0209782,0.01604,-0.0084228,-0.0414698,0.90666,0.0253105,0.0171074,1378,358,1.80179,9.02635
161,666,1.88232,-9.03067,-0.0265769,-0.023566,0.016568,-0.00843517,-0.0417078,0.830705,0.0254635,0.0237453,1385,358,1.88233,9.03068
168,666,1.92126,-9.05936,0,0,0,0,0,0,0,-1,1392,358,1.92125,9.05936
175,666,1.99829,-9.16711,0,0,0,0,0,0,0,-1,1399,358,1.99834,9.1671
182,666,2.60876,-5.17068,0,0,0,0,0,0,0,-1,1406,358,2.6088,5.17068
189,666,2.46973,-5.49979,0,0,0,0,0,0,0,-1,1413,358,2.46975,5.49979
196,666,2.32458,-5.23651,0,0,0,0,0,0,0,-1,1420,358,2.32461,5.23653
203,666,2.28064,-3.88004,0,0,0,0,0,0,0,-1,1427,358,2.28059,3.88003
210,666,3.02576,-5.83548,0,0,0,0,0,0,0,-1,1434,358,3.02581,5.83547
217,666,2.30444,-5.36011,0,0,0,0,0,0,0,-1,1441,358,2.30447,5.3601
224,666,1.82324,-6.03101,0,0,0,0,0,0,0,-1,1448,358,1.82322,6.031
231,666,1.79602,-8.302,0,0,0,0,0,0,0,-1,1455,358,1.79603,8.302
238,666,2.52429,-6.10568,0,0,0,0,0,0,0,-1,1462,358,2.52423,6.10567
245,666,4.53345,-1.38205,0,0,0,0,0,0,0,-1,1469,358,4.53349,1.38204
252,666,4.77405,-0.246979,0,0,0,0,0,0,0,-1,1476,358,4.77405,0.246993
259,666,4.83655,1.14087,0,0,0,0,0,0,0,-1,1483,358,4.83652,-1.14087
266,666,6.14148,0.749512,0,0,0,0,0,0,0,-1,1490,358,6.14144,-0.749519
273,666,2.61304,-1.53772,0,0,0,0,0,0,0,-1,1497,358,2.613,1.53773
280,666,8.70898,-0.836975,0,0,0,0,0,0,0,-1,1504,358,8.70894,0.836988
287,666,2.27039,-4.09058,0,0,0,0,0,0,0,-1,1511,358,2.27042,4.09059
294,666,9.87,-1.10745,0,0,0,0,0,0,0,-1,1518,358,9.87,1.10745
301,666,2.8064,-3.51654,0,0,0,0,0,0,0,-1,1525,358,2.80635,3.51654
308,666,1.08496,-1.87576,0,0,0,0,0,0,0,-1,1532,358,1.08491,1.87575
315,666,1.76294,-0.284027,0,0,0,0,0,0,0,-1,1539,358,1.76291,0.284016
322,666,0,0,0,0,0,0,0,0,0,-1,1546,358,0,0
329,666,0,0,0,0,0,0,0,0,0,-1,1553,358,0,0
336,666,0,0,0,0,0,0,0,0,0,-1,1560,358,0,0
343,666,0,0,0,0,0,0,0,0,0,-1,1567,358,0,0
350,666,0,0,0,0,0,0,0,0,0,-1,1574,358,0,0
357,666,0,0,0,0,0,0,0,0,0,-1,1581,358,0,0
364,666,0,0,0,0,0,0,0,0,0,-1,1588,358,0,0
371,666,0,0,0,0,0,0,0,0,0,-1,1595,358,0,0
378,666,0,0,0,0,0,0,0,0,0,-1,1602,358,0,0
385,666,0,0,0,0,0,0,0,0,0,-1,1609,358,0,0
392,666,0,0,0,0,0,0,0,0,0,-1,1616,358,0,0
399,666,0,0,0,0,0,0,0,0,0,-1,1623,358,0,0
406,666,0,0,0,0,0,0,0,0,0,-1,1630,358,0,0
413,666,0,0,0,0,0,0,0,0,0,-1,1637,358,0,0
420,666,0,0,0,0,0,0,0,0,0,-1,1644,358,0,0
427,666,0,0,0,0,0,0,0,0,0,-1,1651,358,0,0
434,666,0,0,0,0,0,0,0,0,0,-1,1658,358,0,0
441,666,0,0,0,0,0,0,0,0,0,-1,1665,358,0,0
448,666,0,0,0,0,0,0,0,0,0,-1,1672,358,0,0
455,666,0,0,0,0,0,0,0,0,0,-1,1679,358,0,0
462,666,0,0,0,0,0,0,0,0,0,-1,1686,358,0,0
469,666,0,0,0,0,0,0,0,0,0,-1,1693,358,0,0
476,666,0,0,0,0,0,0,0,0,0,-1,1700,358,0,0
483,666,0,0,0,0,0,0,0,0,0,-1,1707,358,0,0
490,666,0,0,0,0,0,0,0,0,0,-1,1714,358,0,0
497,666,0,0,0,0,0,0,0,0,0,-1,1721,358,0,0
504,666,0,0,0,0,0,0,0,0,0,-1,1728,358,0,0
511,666,0,0,0,0,0,0,0,0,0,-1,1735,358,0,0
518,666,0,0,0,0,0,0,0,0,0,-1,1742,358,0,0
525,666,0,0,0,0,0,0,0,0,0,-1,1749,358,0,0
532,666,0,0,0,0,0,0,0,0,0,-1,1756,358,0,0
539,666,0,0,0,0,0,0,0,0,0,-1,1763,358,0,0
546,666,0,0,0,0,0,0,0,0,0,-1,1770,358,0,0
553,666,0,0,0,0,0,0,0,0,0,-1,1777,358,0,0
560,666,0,0,0,0,0,0,0,0,0,-1,1784,358,0,0
567,666,0,0,0,0,0,0,0,0,0,-1,1791,358,0,0
574,666,0,0,0,0,0,0,0,0,0,-1,1798,358,0,0
581,666,0,0,0,0,0,0,0,0,0,-1,1805,358,0,0
588,666,0,0,0,0,0,0,0,0,0,-1,1812,358,0,0
595,666,0,0,0,0,0,0,0,0,0,-1,1819,358,0,0
602,666,0,0,0,0,0,0,0,0,0,-1,1826,358,0,0
609,666,0,0,0,0,0,0,0,0,0,-1,1833,358,0,0
616,666,0,0,0,0,0,0,0,0,0,-1,1840,358,0,0
623,666,0,0,0,0,0,0,0,0,0,-1,1847,358,0,0
630,666,0,0,0,0,0,0,0,0,0,-1,1854,358,0,0
637,666,0,0,0,0,0,0,0,0,0,-1,1861,358,0,0
644,666,0,0,0,0,0,0,0,0,0,-1,1868,358,0,0
651,666,0,0,0,0,0,0,0,0,0,-1,1875,358,0,0
658,666,0,0,0,0,0,0,0,0,0,-1,1882,358,0,0
665,666,0,0,0,0,0,0,0,0,0,-1,1889,358,0,0
672,666,0,0,0,0,0,0,0,0,0,-1,1896,358,0,0
679,666,0,0,0,0,0,0,0,0,0,-1,1903,358,0,0
686,666,0,0,0,0,0,0,0,0,0,-1,1910,358,0,0
693,666,0,0,0,0,0,0,0,0,0,-1,1917,358,0,0
700,666,0,0,0,0,0,0,0,0,0,-1,1924,358,0,0
707,666,0,0,0,0,0,0,0,0,0,-1,1931,358,0,0
714,666,0,0,0,0,0,0,0,0,0,-1,1938,358,0,0
721,666,0,0,0,0,0,0,0,0,0,-1,1945,358,0,0
728,666,0,0,0,0,0,0,0,0,0,-1,1952,358,0,0
735,666,0,0,0,0,0,0,0,0,0,-1,1959,358,0,0
742,666,0,0,0,0,0,0,0,0,0,-1,1966,358,0,0
749,666,0,0,0,0,0,0,0,0,0,-1,1973,358,0,0
756,666,0,0,0,0,0,0,0,0,0,-1,1980,358,0,0
763,666,0,0,0,0,0,0,0,0,0,-1,1987,358,0,0
770,666,0,0,0,0,0,0,0,0,0,-1,1994,358,0,0
777,666,0,0,0,0,0,0,0,0,0,-1,2001,358,0,0
784,666,0,0,0,0,0,0,0,0,0,-1,2008,358,0,0
791,666,0,0,0,0,0,0,0,0,0,-1,2015,358,0,0
798,666,0,0,0,0,0,0,0,0,0,-1,2022,358,0,0
805,666,0,0,0,0,0,0,0,0,0,-1,2029,358,0,0
812,666,0,0,0,0,0,0,0,0,0,-1,2036,358,0,0
-700,659,0,0,0,0,0,0,0,0,0,-1,524,365,0,0
-693,659,0,0,0,0,0,0,0,0,0,-1,531,365,0,0
-686,659,0,0,0,0,0,0,0,0,0,-1,538,365,0,0
-679,659,0,0,0,0,0,0,0,0,0,-1,545,365,0,0
-672,659,0,0,0,0,0,0,0,0,0,-1,552,365,0,0
-665,659,0,0,0,0,0,0,0,0,0,-1,559,365,0,0
-658,659,0,0,0,0,0,0,0,0,0,-1,566,365,0,0
-651,659,0,0,0,0,0,0,0,0,0,-1,573,365,0,0
-644,659,0,0,0,0,0,0,0,0,0,-1,580,365,0,0
-637,659,0,0,0,0,0,0,0,0,0,-1,587,365,0,0
-630,659,0,0,0,0,0,0,0,0,0,-1,594,365,0,0
-623,659,0,0,0,0,0,0,0,0,0,-1,601,365,0,0
-616,659,0,0,0,0,0,0,0,0,0,-1,608,365,0,0
-609,659,0,0,0,0,0,0,0,0,0,-1,615,365,0,0
-602,659,0,0,0,0,0,0,0,0,0,-1,622,365,0,0
-595,659,0,0,0,0,0,0,0,0,0,-1,629,365,0,0
-588,659,0,0,0,0,0,0,0,0,0,-1,636,365,0,0
-581,659,0,0,0,0,0,0,0,0,0,-1,643,365,0,0
-574,659,0,0,0,0,0,0,0,0,0,-1,650,365,0,0
-567,659,0,0,0,0,0,0,0,0,0,-1,657,365,0,0
-560,659,0,0,0,0,0,0,0,0,0,-1,664,365,0,0
-553,659,0,0,0,0,0,0,0,0,0,-1,671,365,0,0
-546,659,0,0,0,0,0,0,0,0,0,-1,678,365,0,0
-539,659,0,0,0,0,0,0,0,0,0,-1,685,365,0,0
-532,659,0,0,0,0,0,0,0,0,0,-1,692,365,0,0
-525,659,0,0,0,0,0,0,0,0,0,-1,699,365,0,0
-518,659,0,0,0,0,0,0,0,0,0,-1,706,365,0,0
-511,659,0,0,0,0,0,0,0,0,0,-1,713,365,0,0
-504,659,0,0,0,0,0,0,0,0,0,-1,720,365,0,0
-497,659,0,0,0,0,0,0,0,0,0,-1,727,365,0,0
-490,659,0,0,0,0,0,0,0,0,0,-1,734,365,0,0
-483,659,0,0,0,0,0,0,0,0,0,-1,741,365,0,0
-476,659,0,0,0,0,0,0,0,0,0,-1,748,365,0,0
-469,659,0,0,0,0,0,0,0,0,0,-1,755,365,0,0
-462,659,0,0,0,0,0,0,0,0,0,-1,762,365,0,0
-455,659,0,0,0,0,0,0,0,0,0,-1,769,365,0,0
-448,659,0,0,0,0,0,0,0,0,0,-1,776,365,0,0
-441,659,0,0,0,0,0,0,0,0,0,-1,783,365,0,0
-434,659,0,0,0,0,0,0,0,0,0,-1,790,365,0,0
-427,659,0,0,0,0,0,0,0,0,0,-1,797,365,0,0
-420,659,0,0,0,0,0,0,0,0,0,-1,804,365,0,0
-413,659,0,0,0,0,0,0,0,0,0,-1,811,365,0,0
-406,659,0,0,0,0,0,0,0,0,0,-1,818,365,0,0
-399,659,0,0,0,0,0,0,0,0,0,-1,825,365,0,0
-392,659,0,0,0,0,0,0,0,0,0,-1,832,365,0,0
-385,659,0,0,0,0,0,0,0,0,0,-1,839,365,0,0
-378,659,0,0,0,0,0,0,0,0,0,-1,846,365,0,0
-371,659,0,0,0,0,0,0,0,0,0,-1,853,365,0,0
-364,659,0,0,0,0,0,0,0,0,0,-1,860,365,0,0
-357,659,0,0,0,0,0,0,0,0,0,-1,867,365,0,0
-350,659,0,0,0,0,0,0,0,0,0,-1,874,365,0,0
-343,659,0,0,0,0,0,0,0,0,0,-1,881,365,0,0
-336,659,0,0,0,0,0,0,0,0,0,-1,888,365,0,0
-329,659,0,0,0,0,0,0,0,0,0,-1,895,365,0,0
-322,659,0,0,0,0,0,0,0,0,0,-1,902,365,0,0
-315,659,0,0,0,0,0,0,0,0,0,-1,909,365,0,0
-308,659,0,0,0,0,0,0,0,0,0,-1,916,365,0,0
-301,659,0,0,0,0,0,0,0,0,0,-1,923,365,0,0
-294,659,0,0,0,0,0,0,0,0,0,-1,930,365,0,0
-287,659,0,0,0,0,0,0,0,0,0,-1,937,365,0,0
-280,659,0,0,0,0,0,0,0,0,0,-1,944,365,0,0
-273,659,0,0,0,0,0,0,0,0,0,-1,951,365,0,0
-266,659,0,0,0,0,0,0,0,0,0,-1,958,365,0,0
-259,659,0,0,0,0,0,0,0,0,0,-1,965,365,0,0
-252,659,0,0,0,0,0,0,0,0,0,-1,972,365,0,0
-245,659,0,0,0,0,0,0,0,0,0,-1,979,365,0,0
-238,659,0,0,0,0,0,0,0,0,0,-1,986,365,0,0
-231,659,0,0,0,0,0,0,0,0,0,-1,993,365,0,0
-224,659,0,0,0,0,0,0,0,0,0,-1,1000,365,0,0
-217,659,1.62122,-1.10727,0,0,0,0,0,0,0,-1,1007,365,1.62123,1.10728
-210,659,0.368042,-7.90527,0,0,0,0,0,0,0,-1,1014,365,0.368058,7.90528
-203,659,2.09253,-9.38916,0,0,0,0,0,0,0,-1,1021,365,2.09255,9.38917
-196,659,2.74927,-10.1771,0,0,0,0,0,0,0,-1,1028,365,2.74931,10.1771
-189,659,1.65295,-11.0335,0,0,0,0,0,0,0,-1,1035,365,1.65292,11.0335
-182,659,2.13037,-11.0247,0,0,0,0,0,0,0,-1,1042,365,2.1304,11.0248
-175,659,1.6853,-9.86325,0,0,0,0,0,0,0,-1,1049,365,1.68526,9.86326
-168,659,2.04468,-8.85269,0,0,0,0,0,0,0,-1,1056,365,2.04473,8.85269
-161,659,1.85864,-8.99643,0.0184093,-0.052947,-0.00211121,0.0184717,-0.0530094,-0.0295524,0.0428453,0.0496053,1063,365,1.85867,8.99642
-154,659,1.7218,-9.16159,0,0,0,0,0,0,0,-1,1070,365,1.72176,9.16159
-147,659,1.29297,-9.97034,0.0205605,-0.0511682,0.00245321,0.0206443,-0.051252,0.0341481,0.0427448,0.0444467,1077,365,1.29299,9.97033
-140,659,1.80151,-9.51529,0.0205167,-0.0479536,0.00484395,0.0208577,-0.0482946,0.0702787,0.0409592,0.0459116,1084,365,1.80148,9.5153
-133,659,2.1488,-8.96118,0.0190801,-0.043613,0.00687042,0.0198242,-0.0443571,0.107882,0.0379467,0.0458795,1091,365,2.14884,8.96119
-126,659,2.55249,-8.36032,0,0,0,0,0,0,0,-1,1098,365,2.55251,8.36032
-119,659,2.35315,-8.70825,0,0,0,0,0,0,0,-1,1105,365,2.35318,8.70825
-112,659,2.26477,-8.814,0,0,0,0,0,0,0,-1,1112,365,2.26472,8.814
-105,659,2.09277,-9.05298,0,0,0,0,0,0,0,-1,1119,365,2.09272,9.05298
-98,659,2.21399,-9.0253,0.0043818,-0.0201527,0.0102363,0.0080916,-0.0238625,0.347694,0.0191831,0.0427165,1126,365,2.21405,9.0253
-91,659,2.4657,-9.10269,0.000411982,-0.0147534,0.0104156,0.00571268,-0.0200541,0.470758,0.0156257,0.0413697,1133,365,2.46569,9.10271
-84,659,2.40015,-8.95743,-0.00200395,-0.0120586,0.00864692,0.0029709,-0.0170334,0.522083,0.0124645,0.0398688,1140,365,2.40012,8.95742
-77,659,1.87317,-8.89664,-0.00422075,-0.0103027,0.00692075,0.000297671,-0.0148211,0.578398,0.00998143,0.046927,1147,365,1.87321,8.89662
-70,659,1.93445,-8.8381,0,0,0,0,0,0,0,-1,1154,365,1.93441,8.83809
-63,659,2.0907,-8.76874,0,0,0,0,0,0,0,-1,1161,365,2.09064,8.76873
-56,659,2.03674,-8.91049,0,0,0,0,0,0,0,-1,1168,365,2.03672,8.91049
-49,659,2.04321,-9.20605,0,0,0,0,0,0,0,-1,1175,365,2.04318,9.20604
-42,659,1.81409,-9.53867,0,0,0,0,0,0,0,-1,1182,365,1.81413,9.53868
-35,659,2.00171,-9.40121,-0.00255848,0.00139882,0.0088845,0.00852234,-0.00968199,0.894964,0.0105174,0.0425475,1189,365,2.00172,9.40122
-28,659,2.04163,-9.37961,-0.00142923,0.00140434,0.0093003,0.00939515,-0.00942005,0.860986,0.010863,0.0163962,1196,365,2.04159,9.37962
-21,659,2.02271,-9.37378,-0.00121263,0.00166173,0.010026,0.010353,-0.00990392,0.856586,0.0116963,0.0106642,1203,365,2.02273,9.37378
-14,659,2.0155,-9.40182,-0.000691874,0.00238517,0.00993422,0.0108993,-0.009206,0.862223,0.0116215,0.00820449,1210,365,2.01556,9.40182
-7,659,2.00549,-9.42407,0.00229769,0.00310599,0.0100767,0.0127866,-0.00738294,0.805441,0.0117834,0.00854539,1217,365,2.00553,9.42406
0,659,2.00171,-9.43866,0.00624445,0.00454591,0.00836566,0.0138038,-0.00301349,0.734812,0.0103543,0.0073079,1224,365,2.00174,9.43867
7,659,1.98755,-9.45169,0.00843588,0.00547769,0.00731627,0.0144211,-0.000507496,0.68566,0.0097876,0.00678469,1231,365,1.9876,9.4517
14,659,1.9823,-9.4585,0.0107528,0.00660946,0.00621206,0.0152295,0.00213273,0.624451,0.00952206,0.00974018,1238,365,1.98235,9.4585
21,659,1.97522,-9.47095,0.0133037,0.00776031,0.00497604,0.0162279,0.0048361,0.531295,0.00962064,0.0103492,1245,365,1.97517,9.47095
28,659,1.97058,-9.47723,0.0159209,0.00878421,0.00371636,0.0175047,0.00720043,0.402858,0.0101591,0.00934114,1252,365,1.97062,9.47723
35,659,1.96167,-9.48792,0.0181482,0.00963099,0.00259677,0.0188775,0.00890171,0.273787,0.0109048,0.0097332,1259,365,1.96168,9.48793
42,659,1.94189,-9.48849,0.0189324,0.00998886,0.00160978,0.0192133,0.00970793,0.172772,0.011093,0.0105812,1266,365,1.94183,9.4885
49,659,1.93103,-9.47797,0.0183211,0.0100517,0.000792671,0.0183963,0.00997641,0.0947074,0.0106338,0.0105638,1273,365,1.93102,9.47798
56,659,1.93298,-9.48837,0.0154748,0.00981231,0.000578301,0.0155333,0.00975385,0.100742,0.00906546,0.0138967,1280,365,1.93297,9.48837
63,659,1.93787,-9.49377,0.0111832,0.00971941,0.000540563,0.0113612,0.00954142,0.318081,0.00704629,0.0163519,1287,365,1.93786,9.49379
70,659,1.91833,-9.47836,0.00602962,0.00843063,0.000902873,0.00873225,0.005728,1.24838,0.00512267,0.0177291,1294,365,1.91831,9.47837
77,659,1.88757,-9.42773,-0.000124656,0.00725302,0.00151508,0.00755203,-0.000423673,1.37594,0.00518169,0.0165174,1301,365,1.88762,9.42772
84,659,1.89331,-9.44241,-0.00558941,0.00572169,0.00203104,0.00607533,-0.00594305,1.39841,0.00693896,0.0120896,1308,365,1.89331,9.4424
91,659,1.87915,-9.40381,-0.0115323,0.00365003,0.00302668,0.00423117,-0.0121135,1.3811,0.00979554,0.0108794,1315,365,1.87921,9.40382
98,659,1.8678,-9.38419,-0.0182597,0.0013919,0.00391231,0.00214213,-0.01901,1.38133,0.0134444,0.00787733,1322,365,1.86785,9.38417
105,659,1.86084,-9.35196,-0.0233077,-0.000749282,0.00594477,0.000721443,-0.0247784,1.32827,0.0167646,0.0088958,1329,365,1.86086,9.35195
112,659,1.85168,-9.31897,-0.024113,-0.00213345,0.00653557,-0.000336952,-0.0259095,1.30254,0.0171618,0.0107735,1336,365,1.85172,9.31897
119,659,1.854,-9.27692,-0.0242643,-0.00387851,0.00716936,-0.00160967,-0.0265332,1.26431,0.0171774,0.0119681,1343,365,1.85402,9.27693
126,659,1.8418,-9.2403,-0.0238354,-0.00564191,0.00799107,-0.00263048,-0.0268468,1.2104,0.0170887,0.0118017,1350,365,1.84181,9.2403
133,659,1.83252,-9.20837,-0.022965,-0.00746546,0.00882315,-0.00347185,-0.0269586,1.14576,0.0169342,0.0104231,1357,365,1.83247,9.20837
140,659,1.8158,-9.16757,-0.0217551,-0.00929093,0.00961108,-0.00406825,-0.0269778,1.07303,0.0167942,0.00832285,1364,365,1.8158,9.16758
147,659,1.79565,-9.10101,-0.0202297,-0.010865,0.0103107,-0.00422318,-0.0268714,0.998537,0.0166857,0.00742278,1371,365,1.79561,9.10101
154,659,1.79395,-9.02737,-0.0184875,-0.012339,0.0106655,-0.00431355,-0.026513,0.925716,0.0164273,0.00804642,1378,365,1.79395,9.02737
161,659,1.81335,-9.00232,-0.0163598,-0.0138585,0.0107927,-0.00424428,-0.025974,0.843081,0.016089,0.00950461,1385,365,1.81338,9.00232
168,659,1.83899,-8.99515,-0.0138087,-0.014752,0.0109718,-0.00329849,-0.0252623,0.763918,0.0158568,0.0176506,1392,365,1.83903,8.99514
175,659,1.84766,-8.97327,-0.0110061,-0.0128239,0.0107656,-0.00111106,-0.0227189,0.743284,0.0147895,0.0414632,1399,365,1.8476,8.97328
182,659,1.73547,-8.97293,0,0,0,0,0,0,0,-1,1406,365,1.73547,8.97292
189,659,1.83081,-8.72897,0,0,0,0,0,0,0,-1,1413,365,1.83079,8.72899
196,659,1.82507,-8.54077,0,0,0,0,0,0,0,-1,1420,365,1.82509,8.54078
203,659,1.79724,-8.50037,0,0,0,0,0,0,0,-1,1427,365,1.79721,8.50035
210,659,1.77344,-8.64114,0,0,0,0,0,0,0,-1,1434,365,1.77347,8.64113
217,659,1.82007,-8.35995,0,0,0,0,0,0,0,-1,1441,365,1.82006,8.35996
224,659,1.75012,-8.44858,0,0,0,0,0,0,0,-1,1448,365,1.75014,8.44858
231,659,1.83569,-8.18896,0,0,0,0,0,0,0,-1,1455,365,1.83574,8.18898
238,659,2.04382,-8.22839,0,0,0,0,0,0,0,-1,1462,365,2.04387,8.2284
245,659,1.89575,-8.30814,0,0,0,0,0,0,0,-1,1469,365,1.89579,8.30815
252,659,1.58228,-8.56213,0,0,0,0,0,0,0,-1,1476,365,1.58224,8.56213
259,659,2.33069,-3.36703,0,0,0,0,0,0,0,-1,1483,365,2.33073,3.36702
266,659,1.77869,-7.5657,0,0,0,0,0,0,0,-1,1490,365,1.77874,7.56571
273,659,1.74451,-7.42371,0,0,0,0,0,0,0,-1,1497,365,1.74453,7.42369
280,659,2.00793,-6.23972,0,0,0,0,0,0,0,-1,1504,365,2.0079,6.23972
287,659,2.1875,-5.42065,0,0,0,0,0,0,0,-1,1511,365,2.18748,5.42065
294,659,2.46265,-4.69769,0,0,0,0,0,0,0,-1,1518,365,2.46262,4.6977
301,659,3.15308,-3.47482,0,0,0,0,0,0,0,-1,1525,365,3.15309,3.47482
308,659,3.38879,-2.50711,0,0,0,0,0,0,0,-1,1532,365,3.38885,2.5071
315,659,1.4165,-2.37665,0,0,0,0,0,0,0,-1,1539,365,1.41651,2.37665
322,659,2.88672,-0.266174,0,0,0,0,0,0,0,-1,1546,365,2.88671,0.266163
329,659,5.20154,-4.3071,0,0,0,0,0,0,0,-1,1553,365,5.20158,4.3071
336,659,2.09851,-1.17941,0,0,0,0,0,0,0,-1,1560,365,2.09857,1.17942
343,659,0,0,0,0,0,0,0,0,0,-1,1567,365,0,0
350,659,0,0,0,0,0,0,0,0,0,-1,1574,365,0,0
357,659,0,0,0,0,0,0,0,0,0,-1,1581,365,0,0
364,659,0,0,0,0,0,0,0,0,0,-1,1588,365,0,0
371,659,0,0,0,0,0,0,0,0,0,-1,1595,365,0,0
378,659,0,0,0,0,0,0,0,0,0,-1,1602,365,0,0
385,659,0,0,0,0,0,0,0,0,0,-1,1609,365,0,0
392,659,0,0,0,0,0,0,0,0,0,-1,1616,365,0,0
399,659,0,0,0,0,0,0,0,0,0,-1,1623,365,0,0
406,659,0,0,0,0,0,0,0,0,0,-1,1630,365,0,0
413,659,0,0,0,0,0,0,0,0,0,-1,1637,365,0,0
420,659,0,0,0,0,0,0,0,0,0,-1,1644,365,0,0
427,659,0,0,0,0,0,0,0,0,0,-1,1651,365,0,0
434,659,0,0,0,0,0,0,0,0,0,-1,1658,365,0,0
441,659,0,0,0,0,0,0,0,0,0,-1,1665,365,0,0
448,659,0,0,0,0,0,0,0,0,0,-1,1672,365,0,0
455,659,0,0,0,0,0,0,0,0,0,-1,1679,365,0,0
462,659,0,0,0,0,0,0,0,0,0,-1,1686,365,0,0
469,659,0,0,0,0,0,0,0,0,0,-1,1693,365,0,0
476,659,0,0,0,0,0,0,0,0,0,-1,1700,365,0,0
483,659,0,0,0,0,0,0,0,0,0,-1,1707,365,0,0
490,659,0,0,0,0,0,0,0,0,0,-1,1714,365,0,0
497,659,0,0,0,0,0,0,0,0,0,-1,1721,365,0,0
504,659,0,0,0,0,0,0,0,0,0,-1,1728,365,0,0
511,659,0,0,0,0,0,0,0,0,0,-1,1735,365,0,0
518,659,0,0,0,0,0,0,0,0,0,-1,1742,365,0,0
525,659,0,0,0,0,0,0,0,0,0,-1,1749,365,0,0
532,659,0,0,0,0,0,0,0,0,0,-1,1756,365,0,0
539,659,0,0,0,0,0,0,0,0,0,-1,1763,365,0,0
546,659,0,0,0,0,0,0,0,0,0,-1,1770,365,0,0
553,659,0,0,0,0,0,0,0,0,0,-1,1777,365,0,0
560,659,0,0,0,0,0,0,0,0,0,-1,1784,365,0,0
567,659,0,0,0,0,0,0,0,0,0,-1,1791,365,0,0
574,659,0,0,0,0,0,0,0,0,0,-1,1798,365,0,0
581,659,0,0,0,0,0,0,0,0,0,-1,1805,365,0,0
588,659,0,0,0,0,0,0,0,0,0,-1,1812,365,0,0
595,659,0,0,0,0,0,0,0,0,0,-1,1819,365,0,0
602,659,0,0,0,0,0,0,0,0,0,-1,1826,365,0,0
609,659,0,0,0,0,0,0,0,0,0,-1,1833,365,0,0
616,659,0,0,0,0,0,0,0,0,0,-1,1840,365,0,0
623,659,0,0,0,0,0,0,0,0,0,-1,1847,365,0,0
630,659,0,0,0,0,0,0,0,0,0,-1,1854,365,0,0
637,659,0,0,0,0,0,0,0,0,0,-1,1861,365,0,0
644,659,0,0,0,0,0,0,0,0,0,-1,1868,365,0,0
651,659,0,0,0,0,0,0,0,0,0,-1,1875,365,0,0
658,659,0,0,0,0,0,0,0,0,0,-1,1882,365,0,0
665,659,0,0,0,0,0,0,0,0,0,-1,1889,365,0,0
672,659,0,0,0,0,0,0,0,0,0,-1,1896,365,0,0
679,659,0,0,0,0,0,0,0,0,0,-1,1903,365,0,0
686,659,0,0,0,0,0,0,0,0,0,-1,1910,365,0,0
693,659,0,0,0,0,0,0,0,0,0,-1,1917,365,0,0
700,659,0,0,0,0,0,0,0,0,0,-1,1924,365,0,0
707,659,0,0,0,0,0,0,0,0,0,-1,1931,365,0,0
714,659,0,0,0,0,0,0,0,0,0,-1,1938,365,0,0
721,659,0,0,0,0,0,0,0,0,0,-1,1945,365,0,0
728,659,0,0,0,0,0,0,0,0,0,-1,1952,365,0,0
735,659,0,0,0,0,0,0,0,0,0,-1,1959,365,0,0
742,659,0,0,0,0,0,0,0,0,0,-1,1966,365,0,0
749,659,0,0,0,0,0,0,0,0,0,-1,1973,365,0,0
756,659,0,0,0,0,0,0,0,0,0,-1,1980,365,0,0
763,659,0,0,0,0,0,0,0,0,0,-1,1987,365,0,0
770,659,0,0,0,0,0,0,0,0,0,-1,1994,365,0,0
777,659,0,0,0,0,0,0,0,0,0,-1,2001,365,0,0
784,659,0,0,0,0,0,0,0,0,0,-1,2008,365,0,0
791,659,0,0,0,0,0,0,0,0,0,-1,2015,365,0,0
798,659,0,0,0,0,0,0,0,0,0,-1,2022,365,0,0
805,659,0,0,0,0,0,0,0,0,0,-1,2029,365,0,0
812,659,0,0,0,0,0,0,0,0,0,-1,2036,365,0,0
-700,652,0,0,0,0,0,0,0,0,0,-1,524,372,0,0
-693,652,0,0,0,0,0,0,0,0,0,-1,531,372,0,0
-686,652,0,0,0,0,0,0,0,0,0,-1,538,372,0,0
-679,652,0,0,0,0,0,0,0,0,0,-1,545,372,0,0
-672,652,0,0,0,0,0,0,0,0,0,-1,552,372,0,0
-665,652,0,0,0,0,0,0,0,0,0,-1,559,372,0,0
-658,652,0,0,0,0,0,0,0,0,0,-1,566,372,0,0
-651,652,0,0,0,0,0,0,0,0,0,-1,573,372,0,0
-644,652,0,0,0,0,0,0,0,0,0,-1,580,372,0,0
-637,652,0,0,0,0,0,0,0,0,0,-1,587,372,0,0
-630,652,0,0,0,0,0,0,0,0,0,-1,594,372,0,0
-623,652,0,0,0,0,0,0,0,0,0,-1,601,372,0,0
-616,652,0,0,0,0,0,0,0,0,0,-1,608,372,0,0
-609,652,0,0,0,0,0,0,0,0,0,-1,615,372,0,0
-602,652,0,0,0,0,0,0,0,0,0,-1,622,372,0,0
-595,652,0,0,0,0,0,0,0,0,0,-1,629,372,0,0
-588,652,0,0,0,0,0,0,0,0,0,-1,636,372,0,0
-581,652,0,0,0,0,0,0,0,0,0,-1,643,372,0,0
-574,652,0,0,0,0,0,0,0,0,0,-1,650,372,0,0
-567,652,0,0,0,0,0,0,0,0,0,-1,657,372,0,0
-560,652,0,0,0,0,0,0,0,0,0,-1,664,372,0,0
-553,652,0,0,0,0,0,0,0,0,0,-1,671,372,0,0
-546,652,0,0,0,0,0,0,0,0,0,-1,678,372,0,0
-539,652,0,0,0,0,0,0,0,0,0,-1,685,372,0,0
-532,652,0,0,0,0,0,0,0,0,0,-1,692,372,0,0
-525,652,0,0,0,0,0,0,0,0,0,-1,699,372,0,0
-518,652,0,0,0,0,0,0,0,0,0,-1,706,372,0,0
-511,652,0,0,0,0,0,0,0,0,0,-1,713,372,0,0
-504,652,0,0,0,0,0,0,0,0,0,-1,720,372,0,0
-497,652,0,0,0,0,0,0,0,0,0,-1,727,372,0,0
-490,652,0,0,0,0,0,0,0,0,0,-1,734,372,0,0
-483,652,0,0,0,0,0,0,0,0,0,-1,741,372,0,0
-476,652,0,0,0,0,0,0,0,0,0,-1,748,372,0,0
-469,652,0,0,0,0,0,0,0,0,0,-1,755,372,0,0
-462,652,0,0,0,0,0,0,0,0,0,-1,762,372,0,0
-455,652,0,0,0,0,0,0,0,0,0,-1,769,372,0,0
-448,652,0,0,0,0,0,0,0,0,0,-1,776,372,0,0
-441,652,0,0,0,0,0,0,0,0,0,-1,783,372,0,0
-434,652,0,0,0,0,0,0,0,0,0,-1,790,372,0,0
-427,652,0,0,0,0,0,0,0,0,0,-1,797,372,0,0
-420,652,0,0,0,0,0,0,0,0,0,-1,804,372,0,0
-413,652,0,0,0,0,0,0,0,0,0,-1,811,372,0,0
-406,652,0,0,0,0,0,0,0,0,0,-1,818,372,0,0
-399,652,0,0,0,0,0,0,0,0,0,-1,825,372,0,0
-392,652,0,0,0,0,0,0,0,0,0,-1,832,372,0,0
-385,652,0,0,0,0,0,0,0,0,0,-1,839,372,0,0
-378,652,0,0,0,0,0,0,0,0,0,-1,846,372,0,0
-371,652,0,0,0,0,0,0,0,0,0,-1,853,372,0,0
-364,652,0,0,0,0,0,0,0,0,0,-1,860,372,0,0
-357,652,0,0,0,0,0,0,0,0,0,-1,867,372,0,0
-350,652,0,0,0,0,0,0,0,0,0,-1,874,372,0,0
-343,652,0,0,0,0,0,0,0,0,0,-1,881,372,0,0
-336,652,0,0,0,0,0,0,0,0,0,-1,888,372,0,0
-329,652,0,0,0,0,0,0,0,0,0,-1,895,372,0,0
-322,652,0,0,0,0,0,0,0,0,0,-1,902,372,0,0
-315,652,0,0,0,0,0,0,0,0,0,-1,909,372,0,0
-308,652,0,0,0,0,0,0,0,0,0,-1,916,372,0,0
-301,652,0,0,0,0,0,0,0,0,0,-1,923,372,0,0
-294,652,0,0,0,0,0,0,0,0,0,-1,930,372,0,0
-287,652,0,0,0,0,0,0,0,0,0,-1,937,372,0,0
-280,652,0,0,0,0,0,0,0,0,0,-1,944,372,0,0
-273,652,0,0,0,0,0,0,0,0,0,-1,951,372,0,0
-266,652,0,0,0,0,0,0,0,0,0,-1,958,372,0,0
-259,652,0,0,0,0,0,0,0,0,0,-1,965,372,0,0
-252,652,0,0,0,0,0,0,0,0,0,-1,972,372,0,0
-245,652,0,0,0,0,0,0,0,0,0,-1,979,372,0,0
-238,652,0,0,0,0,0,0,0,0,0,-1,986,372,0,0
-231,652,-3.17596,-5.87796,0,0,0,0,0,0,0,-1,993,372,-3.17597,5.87796
-224,652,-3.74396,-5.71695,0,0,0,0,0,0,0,-1,1000,372,-3.74397,5.71694
-217,652,-4.52545,-5.19208,0,0,0,0,0,0,0,-1,1007,372,-4.52543,5.19207
-210,652,2.33746,-9.61121,0,0,0,0,0,0,0,-1,1014,372,2.33747,9.61121
-203,652,2.37573,-9.60385,0,0,0,0,0,0,0,-1,1021,372,2.37575,9.60386
-196,652,2.40076,-9.9259,0,0,0,0,0,0,0,-1,1028,372,2.40074,9.92589
-189,652,1.66223,-10.1159,0,0,0,0,0,0,0,-1,1035,372,1.66229,10.1159
-182,652,1.48743,-9.48428,0,0,0,0,0,0,0,-1,1042,372,1.48746,9.48427
-175,652,1.63489,-8.9761,0,0,0,0,0,0,0,-1,1049,372,1.63492,8.97611
-168,652,2.2229,-8.15692,0,0,0,0,0,0,0,-1,1056,372,2.22293,8.15691
-161,652,1.97815,-8.38815,0,0,0,0,0,0,0,-1,1063,372,1.97817,8.38816
-154,652,1.96655,-8.72919,0,0,0,0,0,0,0,-1,1070,372,1.96654,8.7292
-147,652,1.9447,-8.86438,0.012593,-0.0365007,0.000954269,0.0126115,-0.0365193,0.0194279,0.0294639,0.0434923,1077,372,1.9447,8.86438
-140,652,1.38232,-9.08417,0.0128335,-0.0344489,0.00272437,0.01299,-0.0346054,0.0573661,0.0284081,0.0428691,1084,372,1.38235,9.08418
-133,652,1.90808,-8.81079,0.0120525,-0.0314188,0.00421714,0.0124578,-0.0318241,0.0958193,0.0263686,0.0415282,1091,372,1.90808,8.81079
-126,652,2.38208,-8.81564,0.0103377,-0.0276121,0.00515771,0.0110262,-0.0283006,0.132703,0.0234241,0.0395951,1098,372,2.38209,8.81565
-119,652,2.25342,-8.67731,0.00869231,-0.0239727,0.00602867,0.00976944,-0.0250498,0.176803,0.0207381,0.0340834,1105,372,2.25339,8.67729
-112,652,2.12732,-8.70151,0.00685231,-0.0204839,0.00652684,0.00833072,-0.0219623,0.222753,0.0180703,0.0248016,1112,372,2.12735,8.70151
-105,652,2.03735,-8.73889,0.00493973,-0.0169183,0.0069831,0.00698018,-0.0189587,0.284285,0.015499,0.0200968,1119,372,2.03731,8.7389
-98,652,2.02148,-8.78937,0.0027053,-0.0139276,0.00692508,0.00521105,-0.0164334,0.347181,0.0130443,0.0230948,1126,372,2.02154,8.78937
-91,652,2.1709,-8.8511,0.000184397,-0.00993065,0.00707704,0.00382532,-0.0135716,0.475157,0.0105564,0.0229765,1133,372,2.17095,8.85109
-84,652,2.19983,-8.94205,-0.00152517,-0.00789896,0.00590799,0.00200066,-0.0114248,0.538056,0.00836356,0.0176407,1140,372,2.19986,8.94206
-77,652,2.09082,-9.00739,-0.00319742,-0.0066652,0.00471368,9.11588e-05,-0.00995377,0.609158,0.00666644,0.0157124,1147,372,2.09081,9.00739
-70,652,2.07764,-9.06064,-0.00346786,-0.00539316,0.00372411,-0.000583993,-0.00827703,0.658922,0.00533402,0.0195499,1154,372,2.07758,9.06064
-63,652,2.12024,-9.15131,-0.00316076,-0.00433548,0.00282241,-0.000865239,-0.006631,0.68281,0.00416234,0.0373473,1161,372,2.12022,9.1513
-56,652,2.03015,-9.21249,-0.00267267,-0.00326981,0.00383021,0.000870583,-0.00681307,0.746501,0.00485831,0.0419527,1168,372,2.03018,9.21249
-49,652,2.04297,-9.22485,-0.00179814,-0.00151718,0.00460085,0.00294533,-0.00626066,0.80066,0.00542875,0.0226511,1175,372,2.04302,9.22485
-42,652,2.02063,-9.25906,-0.0015565,0.000401135,0.00476482,0.00428663,-0.005442,0.886702,0.00563001,0.0109261,1182,372,2.0206,9.25905
-35,652,2.01855,-9.30804,-0.00131505,0.00131703,0.00491836,0.00509237,-0.0050904,0.916124,0.00587903,0.00960906,1189,372,2.01861,9.30803
-28,652,2.0127,-9.33661,-0.000433068,0.00139608,0.00523329,0.00579412,-0.0048311,0.871905,0.00614287,0.00755284,1196,372,2.01264,9.3366
-21,652,1.99951,-9.37247,-0.00011189,0.00159906,0.00582221,0.00662831,-0.00514114,0.858343,0.00681316,0.00726999,1203,372,1.99946,9.37246
-14,652,1.99927,-9.40036,-0.000324429,0.0020839,0.00603676,0.00703542,-0.00527595,0.883842,0.00713213,0.00920209,1210,372,1.99921,9.40035
-7,652,1.98462,-9.42761,0.00119223,0.00274134,0.0058996,0.00791701,-0.00398344,0.850669,0.00699472,0.0121988,1217,372,1.98462,9.42762
0,652,1.96729,-9.45151,0.00378522,0.00367919,0.0047318,0.0084643,-0.000999892,0.779796,0.00600398,0.0113996,1224,372,1.96733,9.45152
7,652,1.974,-9.45441,0.00504235,0.0044031,0.00398603,0.00872155,0.000723897,0.74539,0.00558872,0.0120003,1231,372,1.97404,9.4544
14,652,1.98254,-9.47275,0.00640112,0.0052263,0.00313915,0.00900735,0.00262007,0.692906,0.00534986,0.011247,1238,372,1.98253,9.47274
21,652,1.97217,-9.46985,0.00784012,0.00604245,0.00219997,0.00931779,0.00456478,0.591463,0.00538,0.00992869,1245,372,1.97223,9.46984
28,652,1.95752,-9.4917,0.00936827,0.00677718,0.00124635,0.00987045,0.00627499,0.383022,0.00576828,0.00863071,1252,372,1.95749,9.49169
35,652,1.93408,-9.50708,0.0106918,0.00737293,0.000406458,0.0107409,0.00732388,0.120103,0.00633653,0.00911294,1259,372,1.93412,9.50709
42,652,1.91833,-9.49405,0.0111396,0.00759524,-0.000296518,0.0111642,0.0075706,-0.0828909,0.00658059,0.0107938,1266,372,1.91829,9.49404
49,652,1.94653,-9.48782,0.0106961,0.00761054,-0.000860436,0.0109198,0.00738682,-0.254376,0.0064341,0.0127272,1273,372,1.9465,9.48783
56,652,1.93372,-9.49692,0.00890941,0.00734964,-0.000969353,0.00937366,0.00688539,-0.446647,0.00560685,0.0140577,1280,372,1.9337,9.49693
63,652,1.92517,-9.52225,0.00622001,0.007212,-0.000820419,0.0076747,0.00575731,-1.05728,0.00461216,0.0176581,1287,372,1.92521,9.52224
70,652,1.9176,-9.47546,0.0031013,0.00644696,-0.000310506,0.00647553,0.00307272,-1.47903,0.00374027,0.0162888,1294,372,1.91762,9.47545
77,652,1.91919,-9.43518,-0.000636359,0.00585733,0.00029879,0.00587105,-0.000650078,1.52491,0.00414774,0.0148214,1301,372,1.9192,9.43518
84,652,1.91504,-9.43524,-0.00399633,0.00503538,0.000845805,0.0051139,-0.00407486,1.47822,0.00531643,0.012171,1308,372,1.91506,9.43526
91,652,1.91321,-9.42987,-0.00743751,0.00378934,0.0016434,0.00402496,-0.00767312,1.42839,0.00686249,0.0147196,1315,372,1.91322,9.42988
98,652,1.90002,-9.38214,-0.0114591,0.00233803,0.00266374,0.00283445,-0.0119555,1.38655,0.00906411,0.0126071,1322,372,1.90002,9.38214
105,652,1.89929,-9.33929,-0.0146799,0.00116141,0.0040559,0.00213947,-0.0156579,1.33417,0.01122,0.0108919,1329,372,1.89924,9.33929
112,652,1.90198,-9.32501,-0.0150925,0.000363079,0.00450893,0.00158231,-0.0163117,1.30671,0.0114385,0.00967899,1336,372,1.90199,9.325
119,652,1.89136,-9.27502,-0.0150481,-0.000653509,0.00498622,0.000904965,-0.0166066,1.26786,0.0113847,0.0104615,1343,372,1.89141,9.27503
126,652,1.86157,-9.24152,-0.0145778,-0.00173866,0.00552564,0.000311926,-0.0166284,1.21545,0.011191,0.0117548,1350,372,1.86158,9.24151
133,652,1.84045,-9.22192,-0.0138065,-0.00287501,0.0060421,-0.000193289,-0.0164882,1.15308,0.0109283,0.0118616,1357,372,1.84049,9.22192
140,652,1.8313,-9.17081,-0.0127875,-0.00399648,0.00650206,-0.000543591,-0.0162404,1.08262,0.0106504,0.00912922,1364,372,1.83128,9.1708
147,652,1.8324,-9.10107,-0.0115077,-0.00492968,0.00686632,-0.000605279,-0.0158321,1.00875,0.0103589,0.00888787,1371,372,1.83234,9.10109
154,652,1.83301,-9.0368,-0.0100614,-0.00584849,0.0069272,-0.000714561,-0.0151953,0.932998,0.00990063,0.00888287,1378,372,1.833,9.03679
161,652,1.82422,-8.99219,-0.00839741,-0.00669682,0.00682787,-0.000666504,-0.0144277,0.847346,0.0094042,0.0100523,1385,372,1.82424,8.99219
168,652,1.8252,-8.95602,-0.00671897,-0.00718231,0.00670482,-0.000241816,-0.0136595,0.768129,0.00902678,0.0107599,1392,372,1.82525,8.95601
175,652,1.82849,-8.88989,-0.00525861,-0.00634155,0.00629752,0.000520677,-0.0121208,0.742513,0.00825959,0.0106549,1399,372,1.82843,8.88989
182,652,1.81897,-8.83047,-0.00338922,-0.00597033,0.00603812,0.00149473,-0.0108543,0.680115,0.00778242,0.0158998,1406,372,1.81892,8.83049
189,652,1.82849,-8.75613,-0.00237948,-0.00467896,0.00563939,0.00222618,-0.00928461,0.684838,0.00704995,0.0197356,1413,372,1.82855,8.75613
196,652,1.80334,-8.66238,-0.00117359,-0.0023497,0.00433714,0.00261518,-0.00613847,0.718016,0.00518858,0.0277503,1420,372,1.80337,8.66239
203,652,1.78796,-8.73526,-0.000355064,3.52113e-05,0.0027085,0.00255559,-0.00287544,0.821359,0.00313742,0.0322497,1427,372,1.78802,8.73525
210,652,1.80115,-8.5993,-0.000979527,0.000250991,0.0029191,0.00261896,-0.0033475,0.889263,0.00345329,0.0242038,1434,372,1.80118,8.59931
217,652,1.82898,-8.36996,-0.00142135,0.000817939,0.00311116,0.00300479,-0.00360821,0.958123,0.00382331,0.0232901,1441,372,1.82895,8.36995
224,652,1.79492,-8.30939,-0.00153847,0.00133129,0.00330159,0.00349633,-0.00370351,0.990385,0.0041574,0.0256948,1448,372,1.79493,8.30938
231,652,1.87329,-8.21649,-0.00096665,0.00156387,0.00361387,0.00412757,-0.00353035,0.953786,0.00442578,0.0321388,1455,372,1.87329,8.21651
238,652,1.89526,-8.13583,-0.000915412,0.00146189,0.00400293,0.00444893,-0.00390245,0.929724,0.00482511,0.0357161,1462,372,1.89526,8.13584
245,652,1.83496,-8.12051,-0.00252795,-0.000133433,0.00302791,0.00192533,-0.00458671,0.973669,0.00386297,0.0376844,1469,372,1.83496,8.12053
252,652,1.68445,-8.13617,-0.00318017,-0.00118029,0.00265618,0.00065793,-0.00501839,0.965423,0.00358508,0.0440485,1476,372,1.68451,8.13616
259,652,1.62512,-7.81113,0,0,0,0,0,0,0,-1,1483,372,1.62513,7.81113
266,652,1.68958,-7.59906,0,0,0,0,0,0,0,-1,1490,372,1.68955,7.59906
273,652,1.81812,-7.59036,0,0,0,0,0,0,0,-1,1497,372,1.81817,7.59035
280,652,2.03369,-7.85016,0,0,0,0,0,0,0,-1,1504,372,2.03364,7.85015
287,652,2.79944,-7.61246,0,0,0,0,0,0,0,-1,1511,372,2.79942,7.61245
294,652,1.32043,-8.76904,0,0,0,0,0,0,0,-1,1518,372,1.32044,8.76905
301,652,3.14185,-3.39789,0,0,0,0,0,0,0,-1,1525,372,3.14186,3.3979
308,652,3.43018,-2.31943,0,0,0,0,0,0,0,-1,1532,372,3.43021,2.31944
315,652,2.12585,-6.6683,0,0,0,0,0,0,0,-1,1539,372,2.12587,6.66829
322,652,1.90149,-1.68723,0,0,0,0,0,0,0,-1,1546,372,1.90154,1.68724
329,652,0.233154,-6.18842,0,0,0,0,0,0,0,-1,1553,372,0.233206,6.18842
336,652,4.32825,-3.46991,0,0,0,0,0,0,0,-1,1560,372,4.3282,3.46991
343,652,4.18225,-6.7092,0,0,0,0,0,0,0,-1,1567,372,4.18231,6.70921
350,652,4.64563,-7.2074,0,0,0,0,0,0,0,-1,1574,372,4.6456,7.2074
357,652,0,0,0,0,0,0,0,0,0,-1,1581,372,0,0
364,652,0,0,0,0,0,0,0,0,0,-1,1588,372,0,0
371,652,0,0,0,0,0,0,0,0,0,-1,1595,372,0,0
378,652,0,0,0,0,0,0,0,0,0,-1,1602,372,0,0
385,652,0,0,0,0,0,0,0,0,0,-1,1609,372,0,0
392,652,0,0,0,0,0,0,0,0,0,-1,1616,372,0,0
399,652,0,0,0,0,0,0,0,0,0,-1,1623,372,0,0
406,652,0,0,0,0,0,0,0,0,0,-1,1630,372,0,0
413,652,0,0,0,0,0,0,0,0,0,-1,1637,372,0,0
420,652,0,0,0,0,0,0,0,0,0,-1,1644,372,0,0
427,652,0,0,0,0,0,0,0,0,0,-1,1651,372,0,0
434,652,0,0,0,0,0,0,0,0,0,-1,1658,372,0,0
441,652,0,0,0,0,0,0,0,0,0,-1,1665,372,0,0
448,652,0,0,0,0,0,0,0,0,0,-1,1672,372,0,0
455,652,0,0,0,0,0,0,0,0,0,-1,1679,372,0,0
462,652,0,0,0,0,0,0,0,0,0,-1,1686,372,0,0
469,652,0,0,0,0,0,0,0,0,0,-1,1693,372,0,0
476,652,0,0,0,0,0,0,0,0,0,-1,1700,372,0,0
483,652,0,0,0,0,0,0,0,0,0,-1,1707,372,0,0
490,652,0,0,0,0,0,0,0,0,0,-1,1714,372,0,0
497,652,0,0,0,0,0,0,0,0,0,-1,1721,372,0,0
504,652,0,0,0,0,0,0,0,0,0,-1,1728,372,0,0
511,652,0,0,0,0,0,0,0,0,0,-1,1735,372,0,0
518,652,0,0,0,0,0,0,0,0,0,-1,1742,372,0,0
525,652,0,0,0,0,0,0,0,0,0,-1,1749,372,0,0
532,652,0,0,0,0,0,0,0,0,0,-1,1756,372,0,0
539,652,0,0,0,0,0,0,0,0,0,-1,1763,372,0,0
546,652,0,0,0,0,0,0,0,0,0,-1,1770,372,0,0
553,652,0,0,0,0,0,0,0,0,0,-1,1777,372,0,0
560,652,0,0,0,0,0,0,0,0,0,-1,1784,372,0,0
567,652,0,0,0,0,0,0,0,0,0,-1,1791,372,0,0
574,652,0,0,0,0,0,0,0,0,0,-1,1798,372,0,0
581,652,0,0,0,0,0,0,0,0,0,-1,1805,372,0,0
588,652,0,0,0,0,0,0,0,0,0,-1,1812,372,0,0
595,652,0,0,0,0,0,0,0,0,0,-1,1819,372,0,0
602,652,0,0,0,0,0,0,0,0,0,-1,1826,372,0,0
609,652,0,0,0,0,0,0,0,0,0,-1,1833,372,0,0
616,652,0,0,0,0,0,0,0,0,0,-1,1840,372,0,0
623,652,0,0,0,0,0,0,0,0,0,-1,1847,372,0,0
630,652,0,0,0,0,0,0,0,0,0,-1,1854,372,0,0
637,652,0,0,0,0,0,0,0,0,0,-1,1861,372,0,0
644,652,0,0,0,0,0,0,0,0,0,-1,1868,372,0,0
651,652,0,0,0,0,0,0,0,0,0,-1,1875,372,0,0
658,652,0,0,0,0,0,0,0,0,0,-1,1882,372,0,0
665,652,0,0,0,0,0,0,0,0,0,-1,1889,372,0,0
672,652,0,0,0,0,0,0,0,0,0,-1,1896,372,0,0
679,652,0,0,0,0,0,0,0,0,0,-1,1903,372,0,0
686,652,0,0,0,0,0,0,0,0,0,-1,1910,372,0,0
693,652,0,0,0,0,0,0,0,0,0,-1,1917,372,0,0
700,652,0,0,0,0,0,0,0,0,0,-1,1924,372,0,0
707,652,0,0,0,0,0,0,0,0,0,-1,1931,372,0,0
714,652,0,0,0,0,0,0,0,0,0,-1,1938,372,0,0
721,652,0,0,0,0,0,0,0,0,0,-1,1945,372,0,0
728,652,0,0,0,0,0,0,0,0,0,-1,1952,372,0,0
735,652,0,0,0,0,0,0,0,0,0,-1,1959,372,0,0
742,652,0,0,0,0,0,0,0,0,0,-1,1966,372,0,0
749,652,0,0,0,0,0,0,0,0,0,-1,1973,372,0,0
756,652,0,0,0,0,0,0,0,0,0,-1,1980,372,0,0
763,652,0,0,0,0,0,0,0,0,0,-1,1987,372,0,0
770,652,0,0,0,0,0,0,0,0,0,-1,1994,372,0,0
777,652,0,0,0,0,0,0,0,0,0,-1,2001,372,0,0
784,652,0,0,0,0,0,0,0,0,0,-1,2008,372,0,0
791,652,0,0,0,0,0,0,0,0,0,-1,2015,372,0,0
798,652,0,0,0,0,0,0,0,0,0,-1,2022,372,0,0
805,652,0,0,0,0,0,0,0,0,0,-1,2029,372,0,0
812,652,0,0,0,0,0,0,0,0,0,-1,2036,372,0,0
-700,645,0,0,0,0,0,0,0,0,0,-1,524,379,0,0
-693,645,0,0,0,0,0,0,0,0,0,-1,531,379,0,0
-686,645,0,0,0,0,0,0,0,0,0,-1,538,379,0,0
-679,645,0,0,0,0,0,0,0,0,0,-1,545,379,0,0
-672,645,0,0,0,0,0,0,0,0,0,-1,552,379,0,0
-665,645,0,0,0,0,0,0,0,0,0,-1,559,379,0,0
-658,645,0,0,0,0,0,0,0,0,0,-1,566,379,0,0
-651,645,0,0,0,0,0,0,0,0,0,-1,573,379,0,0
-644,645,0,0,0,0,0,0,0,0,0,-1,580,379,0,0
-637,645,0,0,0,0,0,0,0,0,0,-1,587,379,0,0
-630,645,0,0,0,0,0,0,0,0,0,-1,594,379,0,0
-623,645,0,0,0,0,0,0,0,0,0,-1,601,379,0,0
-616,645,0,0,0,0,0,0,0,0,0,-1,608,379,0,0
-609,645,0,0,0,0,0,0,0,0,0,-1,615,379,0,0
-602,645,0,0,0,0,0,0,0,0,0,-1,622,379,0,0
-595,645,0,0,0,0,0,0,0,0,0,-1,629,379,0,0
-588,645,0,0,0,0,0,0,0,0,0,-1,636,379,0,0
-581,645,0,0,0,0,0,0,0,0,0,-1,643,379,0,0
-574,645,0,0,0,0,0,0,0,0,0,-1,650,379,0,0
-567,645,0,0,0,0,0,0,0,0,0,-1,657,379,0,0
-560,645,0,0,0,0,0,0,0,0,0,-1,664,379,0,0
-553,645,0,0,0,0,0,0,0,0,0,-1,671,379,0,0
-546,645,0,0,0,0,0,0,0,0,0,-1,678,379,0,0
-539,645,0,0,0,0,0,0,0,0,0,-1,685,379,0,0
-532,645,0,0,0,0,0,0,0,0,0,-1,692,379,0,0
-525,645,0,0,0,0,0,0,0,0,0,-1,699,379,0,0
-518,645,0,0,0,0,0,0,0,0,0,-1,706,379,0,0
-511,645,0,0,0,0,0,0,0,0,0,-1,713,379,0,0
-504,645,0,0,0,0,0,0,0,0,0,-1,720,379,0,0
-497,645,0,0,0,0,0,0,0,0,0,-1,727,379,0,0
-490,645,0,0,0,0,0,0,0,0,0,-1,734,379,0,0
-483,645,0,0,0,0,0,0,0,0,0,-1,741,379,0,0
-476,645,0,0,0,0,0,0,0,0,0,-1,748,379,0,0
-469,645,0,0,0,0,0,0,0,0,0,-1,755,379,0,0
-462,645,0,0,0,0,0,0,0,0,0,-1,762,379,0,0
-455,645,0,0,0,0,0,0,0,0,0,-1,769,379,0,0
-448,645,0,0,0,0,0,0,0,0,0,-1,776,379,0,0
-441,645,0,0,0,0,0,0,0,0,0,-1,783,379,0,0
-434,645,0,0,0,0,0,0,0,0,0,-1,790,379,0,0
-427,645,0,0,0,0,0,0,0,0,0,-1,797,379,0,0
-420,645,0,0,0,0,0,0,0,0,0,-1,804,379,0,0
-413,645,0,0,0,0,0,0,0,0,0,-1,811,379,0,0
-406,645,0,0,0,0,0,0,0,0,0,-1,818,379,0,0
-399,645,0,0,0,0,0,0,0,0,0,-1,825,379,0,0
-392,645,0,0,0,0,0,0,0,0,0,-1,832,379,0,0
-385,645,0,0,0,0,0,0,0,0,0,-1,839,379,0,0
-378,645,0,0,0,0,0,0,0,0,0,-1,846,379,0,0
-371,645,0,0,0,0,0,0,0,0,0,-1,853,379,0,0
-364,645,0,0,0,0,0,0,0,0,0,-1,860,379,0,0
-357,645,0,0,0,0,0,0,0,0,0,-1,867,379,0,0
-350,645,0,0,0,0,0,0,0,0,0,-1,874,379,0,0
-343,645,0,0,0,0,0,0,0,0,0,-1,881,379,0,0
-336,645,0,0,0,0,0,0,0,0,0,-1,888,379,0,0
-329,645,0,0,0,0,0,0,0,0,0,-1,895,379,0,0
-322,645,0,0,0,0,0,0,0,0,0,-1,902,379,0,0
-315,645,0,0,0,0,0,0,0,0,0,-1,909,379,0,0
-308,645,0,0,0,0,0,0,0,0,0,-1,916,379,0,0
-301,645,0,0,0,0,0,0,0,0,0,-1,923,379,0,0
-294,645,0,0,0,0,0,0,0,0,0,-1,930,379,0,0
-287,645,0,0,0,0,0,0,0,0,0,-1,937,379,0,0
-280,645,0,0,0,0,0,0,0,0,0,-1,944,379,0,0
-273,645,0,0,0,0,0,0,0,0,0,-1,951,379,0,0
-266,645,0,0,0,0,0,0,0,0,0,-1,958,379,0,0
-259,645,0,0,0,0,0,0,0,0,0,-1,965,379,0,0
-252,645,0.0778198,-6.9191,0,0,0,0,0,0,0,-1,972,379,0.0778175,6.9191
-245,645,0.52948,-6.83511,0,0,0,0,0,0,0,-1,979,379,0.529504,6.83511
-238,645,0.53125,-7.3454,0,0,0,0,0,0,0,-1,986,379,0.531259,7.34541
-231,645,1.97729,-7.08783,0,0,0,0,0,0,0,-1,993,379,1.97729,7.08784
-224,645,-2.62988,-5.69568,0,0,0,0,0,0,0,-1,1000,379,-2.62987,5.69567
-217,645,-3.33527,-5.9166,0,0,0,0,0,0,0,-1,1007,379,-3.33529,5.91658
-210,645,2.6474,-10.0573,0,0,0,0,0,0,0,-1,1014,379,2.6474,10.0572
-203,645,2.67316,-9.8866,0,0,0,0,0,0,0,-1,1021,379,2.67317,9.88661
-196,645,2.23718,-9.66687,0,0,0,0,0,0,0,-1,1028,379,2.23715,9.66687
-189,645,1.85193,-9.51505,0,0,0,0,0,0,0,-1,1035,379,1.85192,9.51505
-182,645,1.71667,-8.88516,0,0,0,0,0,0,0,-1,1042,379,1.71668,8.88515
-175,645,2.15332,-7.8382,0,0,0,0,0,0,0,-1,1049,379,2.1533,7.83819
-168,645,2.31372,-8.09253,0.00523972,-0.022428,-0.00368479,0.00572206,-0.0229103,-0.130158,0.0174956,0.045564,1056,379,2.31366,8.09252
-161,645,2.10303,-8.22589,0.00605437,-0.0244657,-0.00246625,0.00625237,-0.0246637,-0.0801148,0.018875,0.0449071,1063,379,2.103,8.22588
-154,645,2.01221,-8.47876,0.00671215,-0.0254114,-0.0012863,0.00676357,-0.0254629,-0.0399571,0.0196223,0.0399669,1070,379,2.01215,8.47876
-147,645,1.98755,-8.61722,0.00741498,-0.0253695,5.26888e-05,0.00741506,-0.0253696,0.00160712,0.0198519,0.0391885,1077,379,1.9875,8.61723
-140,645,1.77759,-8.58243,0.00776084,-0.0241983,0.00135095,0.00781784,-0.0242553,0.0421708,0.019311,0.035422,1084,379,1.77755,8.58241
-133,645,2.05261,-8.56015,0.0073919,-0.0221997,0.00243894,0.00759157,-0.0223993,0.0816853,0.018005,0.0294627,1091,379,2.0526,8.56014
-126,645,2.15649,-8.59152,0.00640751,-0.0195213,0.00313588,0.00678138,-0.0198952,0.118663,0.01601,0.0230919,1098,379,2.15654,8.59151
-119,645,2.13794,-8.63623,0.00546784,-0.0168812,0.0038135,0.00610063,-0.017514,0.164437,0.0141548,0.0159443,1105,379,2.13799,8.63624
-112,645,2.10815,-8.73132,0.0043687,-0.0142968,0.00419703,0.005269,-0.0151971,0.211306,0.0122708,0.0118255,1112,379,2.1081,8.73133
-105,645,2.10681,-8.80338,0.00314536,-0.0116109,0.00456183,0.00444174,-0.0129073,0.27688,0.0104064,0.0113091,1119,379,2.10685,8.80339
-98,645,2.07129,-8.85123,0.00168353,-0.00933963,0.00456956,0.00333145,-0.0109876,0.346113,0.00865202,0.011732,1126,379,2.07132,8.85121
-91,645,2.06995,-8.91068,0.000112231,-0.00635705,0.00468746,0.00257278,-0.0088176,0.483386,0.00689783,0.0123958,1133,379,2.06994,8.91068
-84,645,2.05017,-8.98242,-0.00106083,-0.00480304,0.00393327,0.0014237,-0.00728758,0.563383,0.00539593,0.0123459,1140,379,2.05014,8.98244
-77,645,2.02319,-9.05286,-0.00227587,-0.00390444,0.00312675,0.00014089,-0.0063212,0.658015,0.00426187,0.010675,1147,379,2.02316,9.05286
-70,645,2.02356,-9.10608,-0.00247609,-0.00304737,0.00245716,-0.000288029,-0.00523544,0.727534,0.00339835,0.0100527,1154,379,2.02354,9.10607
-63,645,2.03723,-9.14883,-0.00224235,-0.00238818,0.00185547,-0.000458359,-0.00417217,0.765759,0.00264195,0.0108588,1161,379,2.0372,9.14883
-56,645,2.02356,-9.17477,-0.00172732,-0.00181164,0.00204096,0.000271915,-0.00381087,0.775071,0.0026359,0.0119821,1168,379,2.02356,9.17477
-49,645,1.99988,-9.20425,-0.000958313,-0.000901475,0.00224952,0.00131981,-0.00317959,0.791714,0.00267068,0.0102326,1175,379,1.99993,9.20424
-42,645,1.9989,-9.25589,-0.000605693,0.000358168,0.00212378,0.00205402,-0.00230154,0.896969,0.00251603,0.00985033,1182,379,1.99891,9.2559
-35,645,1.99316,-9.31451,-0.00024,0.00105873,0.00199313,0.00250561,-0.00168688,0.942877,0.00243587,0.0104656,1189,379,1.99314,9.31451
-28,645,1.97754,-9.35638,0.00047692,0.00107462,0.00213283,0.00292944,-0.0013779,0.855004,0.00254005,0.00822126,1196,379,1.97753,9.35639
-21,645,1.97083,-9.37192,0.000874156,0.00114664,0.00252797,0.00354204,-0.00152125,0.812319,0.00299989,0.00927761,1203,379,1.97083,9.3719
-14,645,1.98035,-9.39932,0.000838322,0.00144212,0.00271014,0.00386713,-0.00158668,0.840868,0.00323921,0.00966066,1210,379,1.98033,9.39932
-7,645,1.98926,-9.44754,0.00148927,0.00201571,0.0026177,0.0043834,-0.000878415,0.835507,0.00325482,0.0131809,1217,379,1.98923,9.44754
0,645,1.99683,-9.43555,0.0027817,0.0027125,0.00203948,0.00478687,0.00070733,0.776917,0.00298355,0.0239001,1224,379,1.99682,9.43554
7,645,1.95996,-9.45441,0.00337468,0.0034773,0.00164414,0.00507093,0.00178105,0.800998,0.00297059,0.0163134,1231,379,1.95995,9.45442
14,645,1.9707,-9.4791,0.00396372,0.00424374,0.00118892,0.00530086,0.00290659,0.844009,0.00306522,0.016349,1238,379,1.97069,9.47908
21,645,1.94861,-9.4834,0.00450904,0.00512661,0.000671296,0.00555673,0.00407891,1.00096,0.00332328,0.0103123,1245,379,1.94865,9.48341
28,645,1.93738,-9.49899,0.00510734,0.0059855,0.000144488,0.00600866,0.00508418,1.41184,0.00373594,0.00829263,1252,379,1.93735,9.49899
35,645,1.9231,-9.51178,0.00562373,0.00671033,-0.000272977,0.00677505,0.00555901,-1.338,0.00417087,0.00818867,1259,379,1.92307,9.51179
42,645,1.91931,-9.51157,0.00565367,0.0071236,-0.000611013,0.00734441,0.00543286,-1.22401,0.00439976,0.00909906,1266,379,1.91927,9.51157
49,645,1.95496,-9.50174,0.00517518,0.00731212,-0.000868887,0.00762082,0.00486648,-1.22942,0.00445585,0.0117169,1273,379,1.9549,9.50174
56,645,1.9469,-9.49829,0.00403418,0.00723628,-0.00090669,0.00747519,0.00379527,-1.31316,0.00431597,0.01102,1280,379,1.94694,9.49829
63,645,1.93396,-9.50195,0.00248629,0.00719127,-0.000806963,0.00732582,0.00235173,-1.40557,0.00431895,0.0111115,1287,379,1.93399,9.50194
70,645,1.9397,-9.48145,0.000851061,0.00673511,-0.000450282,0.00676936,0.000816803,-1.49486,0.00426678,0.0152382,1294,379,1.93966,9.48143
77,645,1.9386,-9.45825,-0.00108676,0.00642719,-8.90397e-05,0.00642824,-0.00108781,-1.55895,0.00469034,0.0179337,1301,379,1.93854,9.45825
84,645,1.93506,-9.43558,-0.00280321,0.00589056,0.000226725,0.00589647,-0.00280911,1.54474,0.00513044,0.0123147,1308,379,1.93509,9.43559
91,645,1.91101,-9.43176,-0.00464249,0.00497852,0.000711291,0.00503082,-0.00469479,1.4974,0.0056162,0.0134925,1315,379,1.91104,9.43177
98,645,1.91296,-9.39804,-0.00664146,0.00389037,0.00138838,0.00407032,-0.00682141,1.4419,0.00635486,0.0129398,1322,379,1.91294,9.39804
105,645,1.92786,-9.34848,-0.00821309,0.00296586,0.00215804,0.00336799,-0.00861522,1.38657,0.00713618,0.00971423,1329,379,1.92784,9.34848
112,645,1.92517,-9.32086,-0.00834093,0.00217098,0.00249601,0.00273355,-0.00890349,1.34912,0.00702638,0.00836124,1336,379,1.92523,9.32087
119,645,1.90796,-9.28766,-0.0081696,0.00137908,0.00286093,0.00217064,-0.00896117,1.30087,0.0068139,0.00892269,1343,379,1.90793,9.28765
126,645,1.90149,-9.25513,-0.00771098,0.000427701,0.00325662,0.00157038,-0.00885366,1.23334,0.00648954,0.0114675,1350,379,1.90149,9.25513
133,645,1.89612,-9.20999,-0.0070927,-0.000493013,0.00361514,0.00110186,-0.00868757,1.15531,0.00619177,0.0118931,1357,379,1.89608,9.21
140,645,1.87781,-9.1658,-0.006335,-0.00131185,0.00390213,0.000817111,-0.00846397,1.07134,0.0059338,0.0115893,1364,379,1.87781,9.16581
147,645,1.85681,-9.11267,-0.00540392,-0.00191705,0.00410433,0.000798789,-0.00811976,0.98624,0.00569813,0.0123519,1371,379,1.85677,9.11267
154,645,1.87354,-9.05664,-0.00442381,-0.00249798,0.0040689,0.000720399,-0.00764218,0.901587,0.00535111,0.0111815,1378,379,1.87349,9.05663
161,645,1.8877,-9.00967,-0.00342106,-0.00299006,0.0039713,0.00077158,-0.0071827,0.812504,0.00506529,0.0136055,1385,379,1.88765,9.00968
168,645,1.89429,-8.95187,-0.00260236,-0.00326784,0.00388632,0.000965439,-0.00683564,0.742693,0.00491064,0.0159593,1392,379,1.89433,8.95186
175,645,1.90808,-8.88922,-0.00212146,-0.00293535,0.00357656,0.00107123,-0.00612804,0.728751,0.00448529,0.0132687,1399,379,1.90802,8.88923
182,645,1.88977,-8.82733,-0.00143162,-0.00288397,0.00341509,0.00133365,-0.00564924,0.68064,0.00428053,0.00958893,1406,379,1.88971,8.82732
189,645,1.875,-8.75693,-0.00121106,-0.00231269,0.00329121,0.00157511,-0.00509886,0.702487,0.00402827,0.0103241,1413,379,1.87498,8.75692
196,645,1.84521,-8.71313,-0.000632781,-0.00101892,0.00268657,0.00186764,-0.00351935,0.749527,0.00315854,0.010862,1420,379,1.84517,8.71314
203,645,1.84253,-8.62079,-0.000372842,0.000127122,0.00195759,0.00185063,-0.00209635,0.848904,0.00228026,0.0110109,1427,379,1.84254,8.62079
210,645,1.86096,-8.54324,-0.000773603,0.000300706,0.00216348,0.00199271,-0.00246561,0.907079,0.00257884,0.013372,1434,379,1.8609,8.54323
217,645,1.83997,-8.47095,-0.00101746,0.000756911,0.00231268,0.00234674,-0.00260729,0.968551,0.00286153,0.0125714,1441,379,1.83997,8.47093
224,645,1.81311,-8.3537,-0.00109979,0.00117686,0.00247887,0.00276628,-0.00268921,1.00064,0.00314983,0.0120966,1448,379,1.81314,8.35369
231,645,1.80847,-8.25592,-0.00062506,0.00139168,0.00275643,0.00331839,-0.00255177,0.960749,0.00339876,0.0131549,1455,379,1.80842,8.25592
238,645,1.79956,-8.18271,-0.000563782,0.00140197,0.00311951,0.00368978,-0.00285159,0.938012,0.00378698,0.0101249,1462,379,1.79953,8.1827
245,645,1.81543,-8.10648,-0.00175601,0.000235138,0.00243648,0.00187159,-0.00339247,0.979352,0.0030812,0.0119995,1469,379,1.81541,8.10649
252,645,1.83533,-7.94287,-0.00219977,-0.000425211,0.00223211,0.00108951,-0.00371449,0.974575,0.00290833,0.0186055,1476,379,1.83532,7.94288
259,645,1.78162,-7.81091,-0.00317496,-0.000520263,0.00221989,0.000738845,-0.00443407,1.05485,0.00323061,0.0262186,1483,379,1.78166,7.81092
266,645,1.76599,-7.69507,-0.00452201,0.000133423,0.00199067,0.000868554,-0.00525714,1.21704,0.00382727,0.0241512,1490,379,1.76601,7.69507
273,645,1.82336,-7.67368,-0.00589432,0.00027205,0.00175359,0.00073585,-0.00635812,1.31223,0.00450411,0.0242783,1497,379,1.82336,7.67366
280,645,1.97559,-7.64331,-0.0075751,0.000759632,0.00149974,0.00102128,-0.00783675,1.39807,0.00559608,0.041644,1504,379,1.97554,7.64332
287,645,2.50049,-7.46478,-0.00934153,0.00136279,0.00125611,0.00150821,-0.00948695,1.45554,0.00688268,0.0449001,1511,379,2.50047,7.46478
294,645,1.57874,-8.0845,-0.0113354,0.00295029,0.00112927,0.00303901,-0.0114241,1.4924,0.00880565,0.0441063,1518,379,1.57878,8.08449
301,645,1.4292,-7.12039,0,0,0,0,0,0,0,-1,1525,379,1.42926,7.12039
308,645,1.83118,-6.67303,0,0,0,0,0,0,0,-1,1532,379,1.83119,6.67305
315,645,1.9198,-6.4101,0,0,0,0,0,0,0,-1,1539,379,1.91983,6.41009
322,645,1.74829,-6.38162,0,0,0,0,0,0,0,-1,1546,379,1.74834,6.38161
329,645,1.11108,-5.34497,0,0,0,0,0,0,0,-1,1553,379,1.11112,5.34498
336,645,0.984131,-4.83829,0,0,0,0,0,0,0,-1,1560,379,0.984172,4.83828
343,645,3.48962,-5.22675,0,0,0,0,0,0,0,-1,1567,379,3.48959,5.22675
350,645,3.93213,-5.72198,0,0,0,0,0,0,0,-1,1574,379,3.9321,5.72198
357,645,1.63928,-6.465,0,0,0,0,0,0,0,-1,1581,379,1.63926,6.46499
364,645,-0.0794678,-3.22021,0,0,0,0,0,0,0,-1,1588,379,-0.0794987,3.22021
371,645,0,0,0,0,0,0,0,0,0,-1,1595,379,0,0
378,645,0,0,0,0,0,0,0,0,0,-1,1602,379,0,0
385,645,0,0,0,0,0,0,0,0,0,-1,1609,379,0,0
392,645,0,0,0,0,0,0,0,0,0,-1,1616,379,0,0
399,645,0,0,0,0,0,0,0,0,0,-1,1623,379,0,0
406,645,0,0,0,0,0,0,0,0,0,-1,1630,379,0,0
413,645,0,0,0,0,0,0,0,0,0,-1,1637,379,0,0
420,645,0,0,0,0,0,0,0,0,0,-1,1644,379,0,0
427,645,0,0,0,0,0,0,0,0,0,-1,1651,379,0,0
434,645,0,0,0,0,0,0,0,0,0,-1,1658,379,0,0
441,645,0,0,0,0,0,0,0,0,0,-1,1665,379,0,0
448,645,0,0,0,0,0,0,0,0,0,-1,1672,379,0,0
455,645,0,0,0,0,0,0,0,0,0,-1,1679,379,0,0
462,645,0,0,0,0,0,0,0,0,0,-1,1686,379,0,0
469,645,0,0,0,0,0,0,0,0,0,-1,1693,379,0,0
476,645,0,0,0,0,0,0,0,0,0,-1,1700,379,0,0
483,645,0,0,0,0,0,0,0,0,0,-1,1707,379,0,0
490,645,0,0,0,0,0,0,0,0,0,-1,1714,379,0,0
497,645,0,0,0,0,0,0,0,0,0,-1,1721,379,0,0
504,645,0,0,0,0,0,0,0,0,0,-1,1728,379,0,0
511,645,0,0,0,0,0,0,0,0,0,-1,1735,379,0,0
518,645,0,0,0,0,0,0,0,0,0,-1,1742,379,0,0
525,645,0,0,0,0,0,0,0,0,0,-1,1749,379,0,0
532,645,0,0,0,0,0,0,0,0,0,-1,1756,379,0,0
539,645,0,0,0,0,0,0,0,0,0,-1,1763,379,0,0
546,645,0,0,0,0,0,0,0,0,0,-1,1770,379,0,0
553,645,0,0,0,0,0,0,0,0,0,-1,1777,379,0,0
560,645,0,0,0,0,0,0,0,0,0,-1,1784,379,0,0
567,645,0,0,0,0,0,0,0,0,0,-1,1791,379,0,0
574,645,0,0,0,0,0,0,0,0,0,-1,1798,379,0,0
581,645,0,0,0,0,0,0,0,0,0,-1,1805,379,0,0
588,645,0,0,0,0,0,0,0,0,0,-1,1812,379,0,0
595,645,0,0,0,0,0,0,0,0,0,-1,1819,379,0,0
602,645,0,0,0,0,0,0,0,0,0,-1,1826,379,0,0
609,645,0,0,0,0,0,0,0,0,0,-1,1833,379,0,0
616,645,0,0,0,0,0,0,0,0,0,-1,1840,379,0,0
623,645,0,0,0,0,0,0,0,0,0,-1,1847,379,0,0
630,645,0,0,0,0,0,0,0,0,0,-1,1854,379,0,0
637,645,0,0,0,0,0,0,0,0,0,-1,1861,379,0,0
644,645,0,0,0,0,0,0,0,0,0,-1,1868,379,0,0
651,645,0,0,0,0,0,0,0,0,0,-1,1875,379,0,0
658,645,0,0,0,0,0,0,0,0,0,-1,1882,379,0,0
665,645,0,0,0,0,0,0,0,0,0,-1,1889,379,0,0
672,645,0,0,0,0,0,0,0,0,0,-1,1896,379,0,0
679,645,0,0,0,0,0,0,0,0,0,-1,1903,379,0,0
686,645,0,0,0,0,0,0,0,0,0,-1,1910,379,0,0
693,645,0,0,0,0,0,0,0,0,0,-1,1917,379,0,0
700,645,0,0,0,0,0,0,0,0,0,-1,1924,379,0,0
707,645,0,0,0,0,0,0,0,0,0,-1,1931,379,0,0
714,645,0,0,0,0,0,0,0,0,0,-1,1938,379,0,0
721,645,0,0,0,0,0,0,0,0,0,-1,1945,379,0,0
728,645,0,0,0,0,0,0,0,0,0,-1,1952,379,0,0
735,645,0,0,0,0,0,0,0,0,0,-1,1959,379,0,0
742,645,0,0,0,0,0,0,0,0,0,-1,1966,379,0,0
749,645,0,0,0,0,0,0,0,0,0,-1,1973,379,0,0
756,645,0,0,0,0,0,0,0,0,0,-1,1980,379,0,0
763,645,0,0,0,0,0,0,0,0,0,-1,1987,379,0,0
770,645,0,0,0,0,0,0,0,0,0,-1,1994,379,0,0
777,645,0,0,0,0,0,0,0,0,0,-1,2001,379,0,0
784,645,0,0,0,0,0,0,0,0,0,-1,2008,379,0,0
791,645,0,0,0,0,0,0,0,0,0,-1,2015,379,0,0
798,645,0,0,0,0,0,0,0,0,0,-1,2022,379,0,0
805,645,0,0,0,0,0,0,0,0,0,-1,2029,379,0,0
812,645,0,0,0,0,0,0,0,0,0,-1,2036,379,0,0
-700,638,0,0,0,0,0,0,0,0,0,-1,524,386,0,0
-693,638,0,0,0,0,0,0,0,0,0,-1,531,386,0,0
-686,638,0,0,0,0,0,0,0,0,0,-1,538,386,0,0
-679,638,0,0,0,0,0,0,0,0,0,-1,545,386,0,0
-672,638,0,0,0,0,0,0,0,0,0,-1,552,386,0,0
-665,638,0,0,0,0,0,0,0,0,0,-1,559,386,0,0
-658,638,0,0,0,0,0,0,0,0,0,-1,566,386,0,0
-651,638,0,0,0,0,0,0,0,0,0,-1,573,386,0,0
-644,638,0,0,0,0,0,0,0,0,0,-1,580,386,0,0
-637,638,0,0,0,0,0,0,0,0,0,-1,587,386,0,0
-630,638,0,0,0,0,0,0,0,0,0,-1,594,386,0,0
-623,638,0,0,0,0,0,0,0,0,0,-1,601,386,0,0
-616,638,0,0,0,0,0,0,0,0,0,-1,608,386,0,0
-609,638,0,0,0,0,0,0,0,0,0,-1,615,386,0,0
-602,638,0,0,0,0,0,0,0,0,0,-1,622,386,0,0
-595,638,0,0,0,0,0,0,0,0,0,-1,629,386,0,0
-588,638,0,0,0,0,0,0,0,0,0,-1,636,386,0,0
-581,638,0,0,0,0,0,0,0,0,0,-1,643,386,0,0
-574,638,0,0,0,0,0,0,0,0,0,-1,650,386,0,0
-567,638,0,0,0,0,0,0,0,0,0,-1,657,386,0,0
-560,638,0,0,0,0,0,0,0,0,0,-1,664,386,0,0
-553,638,0,0,0,0,0,0,0,0,0,-1,671,386,0,0
-546,638,0,0,0,0,0,0,0,0,0,-1,678,386,0,0
-539,638,0,0,0,0,0,0,0,0,0,-1,685,386,0,0
-532,638,0,0,0,0,0,0,0,0,0,-1,692,386,0,0
-525,638,0,0,0,0,0,0,0,0,0,-1,699,386,0,0
-518,638,0,0,0,0,0,0,0,0,0,-1,706,386,0,0
-511,638,0,0,0,0,0,0,0,0,0,-1,713,386,0,0
-504,638,0,0,0,0,0,0,0,0,0,-1,720,386,0,0
-497,638,0,0,0,0,0,0,0,0,0,-1,727,386,0,0
-490,638,0,0,0,0,0,0,0,0,0,-1,734,386,0,0
-483,638,0,0,0,0,0,0,0,0,0,-1,741,386,0,0
-476,638,0,0,0,0,0,0,0,0,0,-1,748,386,0,0
-469,638,0,0,0,0,0,0,0,0,0,-1,755,386,0,0
-462,638,0,0,0,0,0,0,0,0,0,-1,762,386,0,0
-455,638,0,0,0,0,0,0,0,0,0,-1,769,386,0,0
-448,638,0,0,0,0,0,0,0,0,0,-1,776,386,0,0
-441,638,0,0,0,0,0,0,0,0,0,-1,783,386,0,0
-434,638,0,0,0,0,0,0,0,0,0,-1,790,386,0,0
-427,638,0,0,0,0,0,0,0,0,0,-1,797,386,0,0
-420,638,0,0,0,0,0,0,0,0,0,-1,804,386,0,0
-413,638,0,0,0,0,0,0,0,0,0,-1,811,386,0,0
-406,638,0,0,0,0,0,0,0,0,0,-1,818,386,0,0
-399,638,0,0,0,0,0,0,0,0,0,-1,825,386,0,0
-392,638,0,0,0,0,0,0,0,0,0,-1,832,386,0,0
-385,638,0,0,0,0,0,0,0,0,0,-1,839,386,0,0
-378,638,0,0,0,0,0,0,0,0,0,-1,846,386,0,0
-371,638,0,0,0,0,0,0,0,0,0,-1,853,386,0,0
-364,638,0,0,0,0,0,0,0,0,0,-1,860,386,0,0
-357,638,0,0,0,0,0,0,0,0,0,-1,867,386,0,0
-350,638,0,0,0,0,0,0,0,0,0,-1,874,386,0,0
-343,638,0,0,0,0,0,0,0,0,0,-1,881,386,0,0
-336,638,0,0,0,0,0,0,0,0,0,-1,888,386,0,0
-329,638,0,0,0,0,0,0,0,0,0,-1,895,386,0,0
-322,638,0,0,0,0,0,0,0,0,0,-1,902,386,0,0
-315,638,0,0,0,0,0,0,0,0,0,-1,909,386,0,0
-308,638,0,0,0,0,0,0,0,0,0,-1,916,386,0,0
-301,638,0,0,0,0,0,0,0,0,0,-1,923,386,0,0
-294,638,0,0,0,0,0,0,0,0,0,-1,930,386,0,0
-287,638,0,0,0,0,0,0,0,0,0,-1,937,386,0,0
-280,638,0,0,0,0,0,0,0,0,0,-1,944,386,0,0
-273,638,0,0,0,0,0,0,0,0,0,-1,951,386,0,0
-266,638,-1.87286,-4.27911,0,0,0,0,0,0,0,-1,958,386,-1.87287,4.2791
-259,638,-0.718689,-3.6188,0,0,0,0,0,0,0,-1,965,386,-0.71871,3.61881
-252,638,0.300537,-6.37717,0,0,0,0,0,0,0,-1,972,386,0.300563,6.37716
-245,638,1.41455,-7.90482,0,0,0,0,0,0,0,-1,979,386,1.41455,7.90482
-238,638,0.552917,-6.91696,0,0,0,0,0,0,0,-1,986,386,0.552911,6.91695
-231,638,0.577515,-7.05582,0,0,0,0,0,0,0,-1,993,386,0.577542,7.05582
-224,638,3.45862,-6.89499,0,0,0,0,0,0,0,-1,1000,386,3.45865,6.89498
-217,638,4.18878,-11.0275,0,0,0,0,0,0,0,-1,1007,386,4.18878,11.0275
-210,638,3.63702,-10.4718,0,0,0,0,0,0,0,-1,1014,386,3.637,10.4718
-203,638,2.94855,-9.70029,0,0,0,0,0,0,0,-1,1021,386,2.94855,9.7003
-196,638,1.0614,-8.20001,0,0,0,0,0,0,0,-1,1028,386,1.06138,8.20001
-189,638,2.44739,-7.49753,0,0,0,0,0,0,0,-1,1035,386,2.44739,7.49752
-182,638,2.05042,-7.81531,0,0,0,0,0,0,0,-1,1042,386,2.05046,7.8153
-175,638,2.05872,-7.91803,0.00246071,-0.0108988,-0.00417741,0.0036594,-0.0120974,-0.279438,0.00952211,0.0429807,1049,386,2.0587,7.91802
-168,638,2.08362,-8.02811,0.00258462,-0.0137312,-0.00320926,0.00319317,-0.0143397,-0.187399,0.010783,0.0336186,1056,386,2.08357,8.02812
-161,638,2.07642,-8.13617,0.00315725,-0.01566,-0.00229707,0.0034336,-0.0159363,-0.119731,0.0119345,0.0288386,1063,386,2.07645,8.13618
-154,638,2.08276,-8.25656,0.0036067,-0.0167811,-0.00139927,0.00370229,-0.0168767,-0.0682063,0.0126669,0.0211822,1070,386,2.08278,8.25657
-147,638,2.05042,-8.37015,0.00415387,-0.0171398,-0.00043094,0.00416259,-0.0171485,-0.0202269,0.0130432,0.0178825,1077,386,2.05041,8.37014
-140,638,2.0321,-8.43011,0.00450771,-0.0165819,0.000504403,0.00451977,-0.0165939,0.023899,0.0128372,0.0148633,1084,386,2.03208,8.4301
-133,638,2.03906,-8.5174,0.00438691,-0.0153471,0.00127244,0.00446862,-0.0154288,0.0641259,0.0120547,0.0117649,1091,386,2.03907,8.51738
-126,638,2.05713,-8.57855,0.0038777,-0.0135368,0.00176464,0.00405472,-0.0137138,0.0999773,0.0107521,0.0125533,1098,386,2.05707,8.57856
-119,638,2.04358,-8.65701,0.00339116,-0.0116443,0.0022678,0.00372577,-0.0119789,0.14649,0.00947524,0.0141008,1105,386,2.04359,8.65702
-112,638,2.01929,-8.74002,0.00276655,-0.00972595,0.0025415,0.0032638,-0.0102232,0.193214,0.00812494,0.013194,1112,386,2.01924,8.74002
-105,638,2.03894,-8.80838,0.0019984,-0.00768053,0.00280394,0.00275201,-0.00843414,0.262564,0.00673033,0.014742,1119,386,2.03897,8.80837
-98,638,2.03174,-8.87622,0.00105612,-0.00592732,0.00281582,0.00205003,-0.00692124,0.339324,0.00542811,0.013805,1126,386,2.0317,8.87623
-91,638,1.98645,-8.94952,9.94613e-05,-0.00368886,0.00287034,0.00164429,-0.00523369,0.493743,0.00414734,0.0114481,1133,386,1.98645,8.94954
-84,638,1.96851,-8.99344,-0.000670862,-0.00247338,0.00237554,0.000968639,-0.00411288,0.604091,0.0031154,0.0135914,1140,386,1.96853,8.99343
-77,638,1.97363,-9.05466,-0.0015001,-0.00177552,0.00183376,0.000201109,-0.00347673,0.74792,0.00238768,0.0102369,1147,386,1.97363,9.05466
-70,638,1.99377,-9.09677,-0.00162628,-0.00116682,0.00139093,1.3228e-05,-0.00280632,0.867241,0.00187531,0.00883088,1154,386,1.99376,9.09678
-63,638,2.005,-9.15158,-0.00143567,-0.000770599,0.00102499,-2.55508e-05,-0.00218071,0.942254,0.00144537,0.0102719,1161,386,2.00496,9.15159
-56,638,2.0033,-9.20419,-0.00103578,-0.000486741,0.000966073,0.000243061,-0.00176558,0.923828,0.00126587,0.0140795,1168,386,2.00331,9.20421
-49,638,1.96143,-9.22617,-0.000465505,-0.000113263,0.000964359,0.000690926,-0.00126969,0.875718,0.00114829,0.0120729,1175,386,1.96146,9.22617
-42,638,1.95618,-9.26962,-0.0001841,0.000549327,0.00083507,0.00109466,-0.000729429,0.992292,0.00106015,0.0110126,1182,386,1.95617,9.26961
-35,638,1.96521,-9.32077,9.23319e-05,0.000865053,0.000725167,0.00130036,-0.000342978,1.03016,0.00100102,0.0103187,1189,386,1.9652,9.32076
-28,638,1.9613,-9.35718,0.000601533,0.000765066,0.000802502,0.00148996,-0.000123357,0.836168,0.00103687,0.00961681,1196,386,1.96136,9.35718
-21,638,1.93762,-9.36212,0.00100557,0.000695139,0.00102175,0.00188383,-0.00018312,0.710018,0.00132116,0.0105749,1203,386,1.93761,9.36211
-14,638,1.93823,-9.39053,0.00106787,0.00082447,0.00107751,0.00203053,-0.00013819,0.729164,0.00140202,0.0109896,1210,386,1.93829,9.39054
-7,638,1.94934,-9.48022,0.00117052,0.00119965,0.00111761,0.00230279,6.73833e-05,0.791915,0.00151323,0.0166058,1217,386,1.94928,9.48022
0,638,2.03967,-9.45135,0.00126645,0.00179982,0.00108527,0.00265069,0.000415577,0.905875,0.00164618,0.0291141,1224,386,2.03965,9.45136
7,638,1.98486,-9.48236,0.00129104,0.00276188,0.00104859,0.00330724,0.000745686,1.09121,0.00200307,0.0226055,1231,386,1.98488,9.48236
14,638,1.95618,-9.45923,0.00121636,0.00360133,0.000978122,0.00395116,0.000866528,1.22732,0.00239803,0.0133395,1238,386,1.95614,9.45924
21,638,1.92236,-9.47272,0.0010497,0.00496396,0.000824004,0.00513035,0.000883311,1.37155,0.00316713,0.0103564,1245,386,1.92237,9.47273
28,638,1.91211,-9.49796,0.000950371,0.00629974,0.000716234,0.00639398,0.000856134,1.43997,0.00400787,0.00792713,1252,386,1.91216,9.49794
35,638,1.92944,-9.50372,0.000919979,0.0075377,0.000712489,0.00761354,0.000844138,1.46475,0.00481902,0.00975723,1259,386,1.92949,9.50372
42,638,1.94604,-9.51685,0.000806867,0.00859797,0.000699593,0.00866029,0.000744547,1.48195,0.00554204,0.0100069,1266,386,1.94605,9.51686
49,638,1.95825,-9.4978,0.000530902,0.00940363,0.00066189,0.00945273,0.000481798,1.49674,0.00614752,0.00825393,1273,386,1.9582,9.49781
56,638,1.95129,-9.48541,4.51809e-05,0.00986779,0.00062348,0.00990721,5.76489e-06,1.50766,0.00660289,0.0104015,1280,386,1.95127,9.4854
63,638,1.95508,-9.50067,-0.000474393,0.0102192,0.000550828,0.0102475,-0.000502692,1.51947,0.00700525,0.0128341,1287,386,1.95513,9.50066
70,638,1.95825,-9.48087,-0.00090126,0.0100652,0.000587069,0.0100965,-0.000932598,1.51747,0.00706243,0.0174846,1294,386,1.9583,9.48088
77,638,1.94702,-9.46359,-0.00148062,0.00984528,0.000586968,0.00987562,-0.00151096,1.51916,0.00714088,0.0182071,1301,386,1.94701,9.46361
84,638,1.95581,-9.43018,-0.00199097,0.00921812,0.000574252,0.00924746,-0.00202031,1.51974,0.00693718,0.0122426,1308,386,1.95579,9.43018
91,638,1.93945,-9.41147,-0.00260002,0.00827488,0.000603638,0.00830829,-0.00263342,1.51552,0.00659433,0.0129191,1315,386,1.93939,9.41147
98,638,1.93811,-9.39886,-0.00320707,0.0071755,0.000648724,0.00721588,-0.00324745,1.50864,0.00618414,0.0119023,1322,386,1.93811,9.39887
105,638,1.94165,-9.36359,-0.00351714,0.00598494,0.000762821,0.00604579,-0.00357799,1.4912,0.00561685,0.00883903,1329,386,1.94163,9.36358
112,638,1.92847,-9.32343,-0.00358409,0.00473893,0.000848097,0.00482447,-0.00366963,1.47028,0.00491916,0.00876514,1336,386,1.92842,9.32343
119,638,1.927,-9.30441,-0.00346096,0.0037654,0.00102997,0.00390934,-0.00360489,1.43195,0.00433953,0.0116941,1343,386,1.92695,9.30443
126,638,1.9491,-9.26126,-0.00313334,0.00244031,0.00127143,0.00271665,-0.00340967,1.35678,0.00354457,0.0155702,1350,386,1.94904,9.26128
133,638,1.94324,-9.19354,-0.00274562,0.00141088,0.00143654,0.00185905,-0.00319379,1.26839,0.00295099,0.0149704,1357,386,1.94318,9.19354
140,638,1.93018,-9.16354,-0.00230231,0.000588624,0.00154787,0.001261,-0.00297469,1.161,0.00251131,0.0147889,1364,386,1.93016,9.16353
147,638,1.927,-9.13678,-0.0017609,8.04157e-06,0.00162927,0.000977431,-0.00273029,1.03407,0.00221896,0.0160889,1371,386,1.92695,9.13677
154,638,1.92676,-9.09167,-0.00119626,-0.000462219,0.00159148,0.000804013,-0.00246249,0.898724,0.00196527,0.0145473,1378,386,1.92677,9.09169
161,638,1.94543,-9.00818,-0.000657274,-0.000811469,0.00157696,0.000844468,-0.00231321,0.760973,0.00188768,0.0180215,1385,386,1.94541,9.00817
168,638,1.98425,-8.91025,-0.000338447,-0.0010158,0.00160502,0.000963243,-0.00231749,0.681418,0.00194718,0.0234436,1392,386,1.98431,8.91023
175,638,1.99316,-8.87698,-0.000310961,-0.000896925,0.00150031,0.000924704,-0.00213259,0.688971,0.00181047,0.0187188,1399,386,1.99316,8.87697
182,638,1.95776,-8.8313,-0.000176868,-0.000983024,0.00151012,0.000983044,-0.00214294,0.65498,0.00184573,0.012389,1406,386,1.9578,8.83131
189,638,1.92944,-8.76169,-0.000193699,-0.000712486,0.00156326,0.00113154,-0.00203772,0.703182,0.00185454,0.0104956,1413,386,1.9295,8.76169
196,638,1.94312,-8.6983,-0.000128177,-0.000199346,0.00149415,0.00133082,-0.00165834,0.773492,0.00172924,0.0133513,1420,386,1.9431,8.6983
203,638,1.95142,-8.6315,-0.000259954,0.000129189,0.00136478,0.0013132,-0.00144397,0.856204,0.00159245,0.0192424,1427,386,1.95146,8.63151
210,638,1.93909,-8.56216,-0.00058862,0.00033935,0.00151794,0.00146263,-0.0017119,0.933723,0.0018347,0.015688,1434,386,1.93904,8.56215
217,638,1.91528,-8.48773,-0.000817973,0.000706891,0.00166144,0.00177248,-0.00188356,1.00051,0.00211114,0.0116385,1441,386,1.91524,8.48772
224,638,1.8905,-8.38657,-0.000870215,0.00102749,0.00182314,0.00213391,-0.00197664,1.02533,0.00237381,0.010767,1448,386,1.89055,8.38656
231,638,1.87256,-8.27759,-0.000478733,0.00120173,0.00207528,0.00260041,-0.00187742,0.97775,0.00259649,0.0112315,1455,386,1.87253,8.27759
238,638,1.86072,-8.20639,-0.000399854,0.00125165,0.00240736,0.00297094,-0.00211915,0.950615,0.00295245,0.0116993,1462,386,1.8607,8.20639
245,638,1.88855,-8.12561,-0.00125239,0.00038578,0.00194591,0.00167797,-0.00254458,0.984605,0.00245494,0.014078,1469,386,1.88853,8.12561
252,638,1.88525,-8.0191,-0.00153985,-4.58856e-05,0.00184972,0.00120198,-0.00278772,0.977303,0.00236333,0.0157292,1476,386,1.88529,8.0191
259,638,1.87231,-7.89545,-0.00222972,-2.69823e-05,0.0019238,0.00108841,-0.0033451,1.04537,0.00266793,0.0137956,1483,386,1.87229,7.89544
266,638,1.84753,-7.79422,-0.00318478,0.000631633,0.0018206,0.00136082,-0.00391397,1.18984,0.00316208,0.0101962,1490,386,1.84749,7.79423
273,638,1.8407,-7.71753,-0.00410912,0.000920352,0.00173072,0.00145837,-0.00464713,1.2694,0.00368178,0.0101735,1497,386,1.84069,7.71752
280,638,1.90405,-7.53824,-0.00521233,0.00145001,0.00163854,0.00183118,-0.00559351,1.34223,0.00446633,0.0201756,1504,386,1.904,7.53824
287,638,2.11816,-7.34583,-0.00630342,0.00195915,0.00157834,0.00225038,-0.00659466,1.38833,0.00530803,0.0349875,1511,386,2.11822,7.34582
294,638,1.9071,-7.58783,-0.00754925,0.00324461,0.00160404,0.00347794,-0.00778258,1.42635,0.00665773,0.0432963,1518,386,1.90715,7.58783
301,638,1.81763,-7.14328,0,0,0,0,0,0,0,-1,1525,386,1.81757,7.14329
308,638,1.90234,-6.75714,-0.00907066,0.0070158,0.00223478,0.00732049,-0.00937535,1.43529,0.00966365,0.042562,1532,386,1.90237,6.75713
315,638,1.61304,-6.29733,-0.00910236,0.00873777,0.00280715,0.00916906,-0.00953365,1.41835,0.0107987,0.0402076,1539,386,1.61307,6.29733
322,638,2.02917,-6.52405,0,0,0,0,0,0,0,-1,1546,386,2.02915,6.52405
329,638,2.02319,-4.79565,0,0,0,0,0,0,0,-1,1553,386,2.02319,4.79565
336,638,2.75012,-8.26135,0,0,0,0,0,0,0,-1,1560,386,2.75016,8.26134
343,638,1.04028,-10.3387,0,0,0,0,0,0,0,-1,1567,386,1.04031,10.3387
350,638,2.3783,-11.33,0,0,0,0,0,0,0,-1,1574,386,2.37831,11.33
357,638,0.130371,-3.02618,0,0,0,0,0,0,0,-1,1581,386,0.130345,3.0262
364,638,3.78149,-6.45215,0,0,0,0,0,0,0,-1,1588,386,3.78155,6.45216
371,638,4.18604,-6.71164,0,0,0,0,0,0,0,-1,1595,386,4.18598,6.71164
378,638,4.59045,-6.97113,0,0,0,0,0,0,0,-1,1602,386,4.5904,6.97112
385,638,0,0,0,0,0,0,0,0,0,-1,1609,386,0,0
392,638,0,0,0,0,0,0,0,0,0,-1,1616,386,0,0
399,638,0,0,0,0,0,0,0,0,0,-1,1623,386,0,0
406,638,0,0,0,0,0,0,0,0,0,-1,1630,386,0,0
413,638,0,0,0,0,0,0,0,0,0,-1,1637,386,0,0
420,638,0,0,0,0,0,0,0,0,0,-1,1644,386,0,0
427,638,0,0,0,0,0,0,0,0,0,-1,1651,386,0,0
434,638,0,0,0,0,0,0,0,0,0,-1,1658,386,0,0
441,638,0,0,0,0,0,0,0,0,0,-1,1665,386,0,0
448,638,0,0,0,0,0,0,0,0,0,-1,1672,386,0,0
455,638,0,0,0,0,0,0,0,0,0,-1,1679,386,0,0
462,638,0,0,0,0,0,0,0,0,0,-1,1686,386,0,0
469,638,0,0,0,0,0,0,0,0,0,-1,1693,386,0,0
476,638,0,0,0,0,0,0,0,0,0,-1,1700,386,0,0
483,638,0,0,0,0,0,0,0,0,0,-1,1707,386,0,0
490,638,0,0,0,0,0,0,0,0,0,-1,1714,386,0,0
497,638,0,0,0,0,0,0,0,0,0,-1,1721,386,0,0
504,638,0,0,0,0,0,0,0,0,0,-1,1728,386,0,0
511,638,0,0,0,0,0,0,0,0,0,-1,1735,386,0,0
518,638,0,0,0,0,0,0,0,0,0,-1,1742,386,0,0
525,638,0,0,0,0,0,0,0,0,0,-1,1749,386,0,0
532,638,0,0,0,0,0,0,0,0,0,-1,1756,386,0,0
539,638,0,0,0,0,0,0,0,0,0,-1,1763,386,0,0
546,638,0,0,0,0,0,0,0,0,0,-1,1770,386,0,0
553,638,0,0,0,0,0,0,0,0,0,-1,1777,386,0,0
560,638,0,0,0,0,0,0,0,0,0,-1,1784,386,0,0
567,638,0,0,0,0,0,0,0,0,0,-1,1791,386,0,0
574,638,0,0,0,0,0,0,0,0,0,-1,1798,386,0,0
581,638,0,0,0,0,0,0,0,0,0,-1,1805,386,0,0
588,638,0,0,0,0,0,0,0,0,0,-1,1812,386,0,0
595,638,0,0,0,0,0,0,0,0,0,-1,1819,386,0,0
602,638,0,0,0,0,0,0,0,0,0,-1,1826,386,0,0
609,638,0,0,0,0,0,0,0,0,0,-1,1833,386,0,0
616,638,0,0,0,0,0,0,0,0,0,-1,1840,386,0,0
623,638,0,0,0,0,0,0,0,0,0,-1,1847,386,0,0
630,638,0,0,0,0,0,0,0,0,0,-1,1854,386,0,0
637,638,0,0,0,0,0,0,0,0,0,-1,1861,386,0,0
644,638,0,0,0,0,0,0,0,0,0,-1,1868,386,0,0
651,638,0,0,0,0,0,0,0,0,0,-1,1875,386,0,0
658,638,0,0,0,0,0,0,0,0,0,-1,1882,386,0,0
665,638,0,0,0,0,0,0,0,0,0,-1,1889,386,0,0
672,638,0,0,0,0,0,0,0,0,0,-1,1896,386,0,0
679,638,0,0,0,0,0,0,0,0,0,-1,1903,386,0,0
686,638,0,0,0,0,0,0,0,0,0,-1,1910,386,0,0
693,638,0,0,0,0,0,0,0,0,0,-1,1917,386,0,0
700,638,0,0,0,0,0,0,0,0,0,-1,1924,386,0,0
707,638,0,0,0,0,0,0,0,0,0,-1,1931,386,0,0
714,638,0,0,0,0,0,0,0,0,0,-1,1938,386,0,0
721,638,0,0,0,0,0,0,0,0,0,-1,1945,386,0,0
728,638,0,0,0,0,0,0,0,0,0,-1,1952,386,0,0
735,638,0,0,0,0,0,0,0,0,0,-1,1959,386,0,0
742,638,0,0,0,0,0,0,0,0,0,-1,1966,386,0,0
749,638,0,0,0,0,0,0,0,0,0,-1,1973,386,0,0
756,638,0,0,0,0,0,0,0,0,0,-1,1980,386,0,0
763,638,0,0,0,0,0,0,0,0,0,-1,1987,386,0,0
770,638,0,0,0,0,0,0,0,0,0,-1,1994,386,0,0
777,638,0,0,0,0,0,0,0,0,0,-1,2001,386,0,0
784,638,0,0,0,0,0,0,0,0,0,-1,2008,386,0,0
791,638,0,0,0,0,0,0,0,0,0,-1,2015,386,0,0
798,638,0,0,0,0,0,0,0,0,0,-1,2022,386,0,0
805,638,0,0,0,0,0,0,0,0,0,-1,2029,386,0,0
812,638,0,0,0,0,0,0,0,0,0,-1,2036,386,0,0
-700,631,0,0,0,0,0,0,0,0,0,-1,524,393,0,0
-693,631,0,0,0,0,0,0,0,0,0,-1,531,393,0,0
-686,631,0,0,0,0,0,0,0,0,0,-1,538,393,0,0
-679,631,0,0,0,0,0,0,0,0,0,-1,545,393,0,0
-672,631,0,0,0,0,0,0,0,0,0,-1,552,393,0,0
-665,631,0,0,0,0,0,0,0,0,0,-1,559,393,0,0
-658,631,0,0,0,0,0,0,0,0,0,-1,566,393,0,0
-651,631,0,0,0,0,0,0,0,0,0,-1,573,393,0,0
-644,631,0,0,0,0,0,0,0,0,0,-1,580,393,0,0
-637,631,0,0,0,0,0,0,0,0,0,-1,587,393,0,0
-630,631,0,0,0,0,0,0,0,0,0,-1,594,393,0,0
-623,631,0,0,0,0,0,0,0,0,0,-1,601,393,0,0
-616,631,0,0,0,0,0,0,0,0,0,-1,608,393,0,0
-609,631,0,0,0,0,0,0,0,0,0,-1,615,393,0,0
-602,631,0,0,0,0,0,0,0,0,0,-1,622,393,0,0
-595,631,0,0,0,0,0,0,0,0,0,-1,629,393,0,0
-588,631,0,0,0,0,0,0,0,0,0,-1,636,393,0,0
-581,631,0,0,0,0,0,0,0,0,0,-1,643,393,0,0
-574,631,0,0,0,0,0,0,0,0,0,-1,650,393,0,0
-567,631,0,0,0,0,0,0,0,0,0,-1,657,393,0,0
-560,631,0,0,0,0,0,0,0,0,0,-1,664,393,0,0
-553,631,0,0,0,0,0,0,0,0,0,-1,671,393,0,0
-546,631,0,0,0,0,0,0,0,0,0,-1,678,393,0,0
-539,631,0,0,0,0,0,0,0,0,0,-1,685,393,0,0
-532,631,0,0,0,0,0,0,0,0,0,-1,692,393,0,0
-525,631,0,0,0,0,0,0,0,0,0,-1,699,393,0,0
-518,631,0,0,0,0,0,0,0,0,0,-1,706,393,0,0
-511,631,0,0,0,0,0,0,0,0,0,-1,713,393,0,0
-504,631,0,0,0,0,0,0,0,0,0,-1,720,393,0,0
-497,631,0,0,0,0,0,0,0,0,0,-1,727,393,0,0
-490,631,0,0,0,0,0,0,0,0,0,-1,734,393,0,0
-483,631,0,0,0,0,0,0,0,0,0,-1,741,393,0,0
-476,631,0,0,0,0,0,0,0,0,0,-1,748,393,0,0
-469,631,0,0,0,0,0,0,0,0,0,-1,755,393,0,0
-462,631,0,0,0,0,0,0,0,0,0,-1,762,393,0,0
-455,631,0,0,0,0,0,0,0,0,0,-1,769,393,0,0
-448,631,0,0,0,0,0,0,0,0,0,-1,776,393,0,0
-441,631,0,0,0,0,0,0,0,0,0,-1,783,393,0,0
-434,631,0,0,0,0,0,0,0,0,0,-1,790,393,0,0
-427,631,0,0,0,0,0,0,0,0,0,-1,797,393,0,0
-420,631,0,0,0,0,0,0,0,0,0,-1,804,393,0,0
-413,631,0,0,0,0,0,0,0,0,0,-1,811,393,0,0
-406,631,0,0,0,0,0,0,0,0,0,-1,818,393,0,0
-399,631,0,0,0,0,0,0,0,0,0,-1,825,393,0,0
-392,631,0,0,0,0,0,0,0,0,0,-1,832,393,0,0
-385,631,0,0,0,0,0,0,0,0,0,-1,839,393,0,0
-378,631,0,0,0,0,0,0,0,0,0,-1,846,393,0,0
-371,631,0,0,0,0,0,0,0,0,0,-1,853,393,0,0
-364,631,0,0,0,0,0,0,0,0,0,-1,860,393,0,0
-357,631,0,0,0,0,0,0,0,0,0,-1,867,393,0,0
-350,631,0,0,0,0,0,0,0,0,0,-1,874,393,0,0
-343,631,0,0,0,0,0,0,0,0,0,-1,881,393,0,0
-336,631,0,0,0,0,0,0,0,0,0,-1,888,393,0,0
-329,631,0,0,0,0,0,0,0,0,0,-1,895,393,0,0
-322,631,0,0,0,0,0,0,0,0,0,-1,902,393,0,0
-315,631,0,0,0,0,0,0,0,0,0,-1,909,393,0,0
-308,631,0,0,0,0,0,0,0,0,0,-1,916,393,0,0
-301,631,0,0,0,0,0,0,0,0,0,-1,923,393,0,0
-294,631,0,0,0,0,0,0,0,0,0,-1,930,393,0,0
-287,631,0,0,0,0,0,0,0,0,0,-1,937,393,0,0
-280,631,1.12305,-12.4633,0,0,0,0,0,0,0,-1,944,393,1.12305,12.4633
-273,631,2.26263,-7.24976,0,0,0,0,0,0,0,-1,951,393,2.26261,7.24974
-266,631,4.86389,-5.45331,0,0,0,0,0,0,0,-1,958,393,4.86386,5.4533
-259,631,1.00366,-7.67264,0,0,0,0,0,0,0,-1,965,393,1.00368,7.67264
-252,631,1.211,-7.45691,0,0,0,0,0,0,0,-1,972,393,1.211,7.45692
-245,631,1.41357,-7.72195,0,0,0,0,0,0,0,-1,979,393,1.41358,7.72195
-238,631,1.61615,-7.987,0,0,0,0,0,0,0,-1,986,393,1.61616,7.98699
-231,631,0.917847,-6.79459,0,0,0,0,0,0,0,-1,993,393,0.917823,6.79459
-224,631,1.2984,-7.00464,0,0,0,0,0,0,0,-1,1000,393,1.29838,7.00465
-217,631,3.18634,-7.67078,0,0,0,0,0,0,0,-1,1007,393,3.18634,7.67077
-210,631,1.47839,-6.99234,0,0,0,0,0,0,0,-1,1014,393,1.47837,6.99234
-203,631,1.66785,-7.09964,0,0,0,0,0,0,0,-1,1021,393,1.66786,7.09963
-196,631,1.9209,-7.29068,0,0,0,0,0,0,0,-1,1028,393,1.92092,7.29069
-189,631,2.23669,-7.50824,0.00183583,0.000863952,-0.00593004,0.00729981,-0.00460003,-0.744517,0.00692906,0.0473804,1035,393,2.23674,7.50824
-182,631,2.28113,-7.70541,0.00168175,-0.00237211,-0.00474949,0.00481874,-0.00550911,-0.583715,0.00596723,0.0415128,1042,393,2.2811,7.7054
-175,631,2.03906,-8.00821,0.00109448,-0.00548865,-0.00341475,0.0025458,-0.00693997,-0.401882,0.00566909,0.0342448,1049,393,2.03904,8.00821
-168,631,2.00305,-8.08292,0.00110989,-0.00783963,-0.00268144,0.0018518,-0.00858154,-0.269929,0.00642783,0.0182964,1056,393,2.00302,8.08291
-161,631,1.99487,-8.16797,0.00151219,-0.0095435,-0.0020006,0.00186308,-0.00989438,-0.173624,0.007297,0.0090937,1063,393,1.99483,8.16797
-154,631,1.99646,-8.26093,0.00180444,-0.01069,-0.00132217,0.00194282,-0.0108284,-0.104281,0.00794611,0.00860949,1070,393,1.99644,8.26091
-147,631,1.99341,-8.34564,0.00220664,-0.011268,-0.000634529,0.00223646,-0.0112978,-0.0469523,0.00837744,0.00991782,1077,393,1.99343,8.34564
-140,631,1.97485,-8.44531,0.00253817,-0.01114,1.697e-05,0.00253819,-0.01114,0.00124066,0.0084015,0.00938369,1084,393,1.97479,8.44532
-133,631,1.9541,-8.52341,0.00257661,-0.0104831,0.00053248,0.00259829,-0.0105048,0.0406826,0.00801102,0.00799512,1091,393,1.95414,8.5234
-126,631,1.96814,-8.58023,0.00236872,-0.00932979,0.000859702,0.00243156,-0.00939263,0.0729657,0.00721026,0.0115059,1098,393,1.96816,8.58024
-119,631,1.96997,-8.65894,0.00216949,-0.00800214,0.00121274,0.00231208,-0.00814473,0.117042,0.00634258,0.0141741,1105,393,1.96992,8.65894
-112,631,1.92798,-8.74081,0.00185641,-0.00659194,0.00138685,0.00207824,-0.00681377,0.158612,0.005371,0.0125466,1112,393,1.92804,8.74081
-105,631,1.97644,-8.79831,0.00140018,-0.00502606,0.0015455,0.00175255,-0.00537843,0.224165,0.00429081,0.0159553,1119,393,1.97639,8.7983
-98,631,1.94458,-8.88705,0.00081857,-0.00366032,0.00152533,0.00128869,-0.00413044,0.298971,0.00326899,0.0154469,1126,393,1.94461,8.88705
-91,631,1.91248,-8.96405,0.000269753,-0.00197135,0.00149903,0.00102076,-0.00272236,0.464442,0.00223428,0.0175759,1133,393,1.91243,8.96404
-84,631,1.92358,-8.99826,-0.000193025,-0.000991721,0.00115839,0.000632917,-0.00181766,0.619405,0.00146892,0.0156628,1140,393,1.9236,8.99825
-77,631,1.91296,-9.04932,-0.00070103,-0.000395886,0.000797874,0.000263873,-0.00136079,0.879869,0.00100674,0.00933127,1147,393,1.91301,9.04933
-70,631,1.93274,-9.08435,-0.000763366,9.70097e-05,0.000519196,0.000341081,-0.00100744,1.13136,0.000809633,0.00949469,1154,393,1.93275,9.08435
-63,631,1.94556,-9.14069,-0.000613562,0.000374055,0.000334508,0.000476688,-0.000716195,1.2731,0.000693323,0.00976934,1161,393,1.94552,9.14069
-56,631,1.93591,-9.2067,-0.000371642,0.000521917,0.000281601,0.000603258,-0.000452983,1.2896,0.000611875,0.0113755,1168,393,1.93592,9.20669
-49,631,1.91321,-9.23798,-5.34975e-05,0.000628307,0.000288402,0.000733936,-0.000159126,1.21971,0.000550059,0.0101727,1175,393,1.91324,9.23796
-42,631,1.91443,-9.27576,7.39743e-05,0.000796732,0.000222037,0.000859493,1.12126e-05,1.29532,0.000569295,0.00844617,1182,393,1.91438,9.27577
-35,631,1.92554,-9.31018,0.00021531,0.000832813,0.000164112,0.000873719,0.000174405,1.32652,0.000533925,0.00906477,1189,393,1.92552,9.31019
-28,631,1.92126,-9.33743,0.000578025,0.000696321,0.000158494,0.000806344,0.000468002,0.963987,0.000467545,0.0113623,1196,393,1.92127,9.33742
-21,631,1.90149,-9.37506,0.00100449,0.000602307,0.000196455,0.00108453,0.000522271,0.386867,0.000626294,0.0107676,1203,393,1.90149,9.37506
-14,631,1.89404,-9.41034,0.0011789,0.00069711,8.94766e-05,0.00119498,0.000681029,0.177819,0.000692169,0.0133472,1210,393,1.89409,9.41035
-7,631,1.9187,-9.47678,0.00136831,0.000898147,-4.78336e-05,0.00137312,0.00089333,-0.100369,0.000804668,0.020106,1217,393,1.91872,9.47677
0,631,1.93591,-9.50903,0.00159739,0.00163049,-0.000188447,0.00180312,0.00142477,-0.829201,0.00109791,0.020108,1224,393,1.93597,9.50903
7,631,1.95715,-9.48648,0.00183,0.00289183,-0.000156414,0.00291439,0.00180744,-1.42754,0.00169875,0.0163919,1231,393,1.95719,9.48648
14,631,1.93127,-9.46606,0.00205084,0.00384486,-3.90366e-05,0.00384571,0.00204999,-1.54905,0.00222194,0.0100994,1238,393,1.93122,9.46607
21,631,1.91479,-9.48264,0.00207846,0.00564344,-8.1538e-05,0.0056453,0.00207659,-1.54794,0.00329705,0.0117199,1245,393,1.91479,9.48264
28,631,1.90869,-9.49878,0.00216777,0.00743174,1.74164e-05,0.0074318,0.00216771,1.56749,0.00441314,0.0132343,1252,393,1.90873,9.49879
35,631,1.92468,-9.49884,0.00234607,0.00916192,0.000285925,0.00917389,0.00233409,1.52894,0.00550538,0.0129323,1259,393,1.92464,9.49885
42,631,1.94165,-9.5036,0.00248649,0.0108737,0.000596792,0.010916,0.00244424,1.50012,0.00661484,0.0117001,1266,393,1.94161,9.50361
49,631,1.94336,-9.50339,0.0025113,0.0123471,0.000869457,0.0124234,0.00243504,1.4833,0.00760169,0.0103944,1273,393,1.94333,9.50339
56,631,1.96924,-9.5029,0.00237802,0.0133688,0.00102774,0.0134641,0.00228275,1.47836,0.00832018,0.0122772,1280,393,1.96921,9.50289
63,631,1.98279,-9.51752,0.0021782,0.01419,0.00109693,0.0142893,0.00207885,1.48047,0.00891443,0.014277,1287,393,1.98283,9.51751
70,631,1.97156,-9.47672,0.00198021,0.0143273,0.00114156,0.014432,0.00187556,1.47937,0.00906108,0.0144382,1294,393,1.97154,9.47672
77,631,1.96741,-9.45987,0.0016423,0.0140179,0.00111562,0.0141177,0.00154254,1.48161,0.00894207,0.0149336,1301,393,1.96744,9.45987
84,631,1.97021,-9.44949,0.00126293,0.0132305,0.00100149,0.0133137,0.0011797,1.48788,0.00850989,0.0122357,1308,393,1.9702,9.4495
91,631,1.96411,-9.41748,0.000835559,0.0120561,0.000793551,0.0121119,0.000779715,1.50054,0.00782766,0.0146346,1315,393,1.96415,9.41748
98,631,1.96057,-9.41077,0.000348399,0.0106857,0.000550718,0.010715,0.000319143,1.51772,0.00703934,0.0123345,1322,393,1.96053,9.41075
105,631,1.94617,-9.38168,1.27908e-05,0.0088802,0.000419257,0.00889997,-6.98771e-06,1.52366,0.00593565,0.0102961,1329,393,1.94621,9.3817
112,631,1.95593,-9.34735,-0.00017519,0.00700383,0.00015258,0.00700707,-0.000178432,1.54956,0.00473198,0.0106559,1336,393,1.95596,9.34735
119,631,1.96985,-9.31067,-0.000299795,0.00566739,4.34412e-05,0.00566771,-0.000300111,1.56352,0.00388238,0.0118201,1343,393,1.96986,9.31066
126,631,1.97266,-9.25879,-0.000156266,0.00374211,0.000211045,0.00375351,-0.000167658,1.51687,0.00256005,0.0173594,1350,393,1.97269,9.2588
133,631,1.96716,-9.18674,-3.27359e-05,0.00231497,0.000276493,0.00234709,-6.48594e-05,1.45513,0.00158679,0.0174115,1357,393,1.96718,9.18674
140,631,1.98145,-9.15591,6.7819e-05,0.00122258,0.000293878,0.00129307,-2.6683e-06,1.33539,0.000862935,0.0169949,1364,393,1.9815,9.1559
147,631,1.99915,-9.14386,0.0002316,0.000369861,0.000319017,0.000627152,-2.56907e-05,0.892098,0.000426923,0.0204941,1371,393,1.99914,9.14386
154,631,1.97742,-9.0726,0.000432285,-0.000198572,0.000318471,0.000565096,-0.000331384,0.395099,0.000523413,0.0195768,1378,393,1.97743,9.07259
161,631,2.00378,-8.97217,0.000638395,-0.000463845,0.000401596,0.000769193,-0.000594643,0.314862,0.000789558,0.0212543,1385,393,2.00375,8.97218
168,631,2.03833,-8.88922,0.000719589,-0.000611588,0.000479326,0.00087422,-0.000766219,0.312062,0.000947792,0.0262167,1392,393,2.0383,8.88921
175,631,2.03967,-8.8783,0.000613859,-0.00049295,0.000473196,0.000788583,-0.000667674,0.353713,0.000841736,0.0200448,1399,393,2.03969,8.87829
182,631,2.00476,-8.84073,0.000509701,-0.000384273,0.000496099,0.00073048,-0.000605052,0.418714,0.000772202,0.0106937,1406,393,2.00474,8.84074
189,631,1.99561,-8.7558,0.000364948,-0.000179284,0.000574707,0.000728706,-0.000543041,0.564292,0.000736847,0.00973817,1413,393,1.99563,8.75581
196,631,1.98303,-8.6907,0.000219595,6.94e-05,0.000722375,0.000870765,-0.00058177,0.733605,0.000844136,0.01059,1420,393,1.98298,8.69072
203,631,2.01221,-8.62933,-1.55312e-05,0.000165281,0.000806266,0.000886194,-0.000736444,0.84123,0.000938159,0.0124891,1427,393,2.01218,8.62934
210,631,2.00952,-8.57318,-0.000314346,0.000433531,0.000904784,0.0010386,-0.00091942,0.981354,0.00113116,0.0142981,1434,393,2.00957,8.57319
217,631,1.97888,-8.48819,-0.000566677,0.000746569,0.00106331,0.00133966,-0.00115976,1.062,0.00144429,0.015876,1441,393,1.97882,8.48819
224,631,1.96509,-8.39236,-0.000601207,0.000997409,0.00123794,0.00167166,-0.00127546,1.07206,0.00170664,0.0136635,1448,393,1.96505,8.39235
231,631,1.96326,-8.29883,-0.000296381,0.00114853,0.00148002,0.00207301,-0.00122086,1.01245,0.00192282,0.0116634,1455,393,1.96323,8.29884
238,631,1.948,-8.1936,-0.000211289,0.00121749,0.00178854,0.00242904,-0.00142283,0.975404,0.00224903,0.0158232,1462,393,1.94802,8.19361
245,631,1.98059,-8.10675,-0.000797074,0.000589137,0.00151166,0.00155902,-0.00176695,1.00035,0.0019215,0.0180519,1469,393,1.98058,8.10674
252,631,1.97266,-8.03604,-0.0009806,0.000297481,0.00149785,0.00128692,-0.00197004,0.987027,0.00189414,0.0181171,1476,393,1.97269,8.03603
259,631,1.93933,-7.92667,-0.00146396,0.000346841,0.00162261,0.00129956,-0.00241668,1.03988,0.00217765,0.0129324,1483,393,1.93928,7.92667
266,631,1.94385,-7.8165,-0.00214579,0.000932866,0.00159614,0.00161102,-0.00282394,1.16904,0.00259225,0.0116182,1490,393,1.94381,7.81651
273,631,1.94702,-7.70151,-0.00277983,0.00126421,0.00159058,0.00181483,-0.00333046,1.23753,0.00301329,0.0134124,1497,393,1.94698,7.70151
280,631,1.92493,-7.61423,-0.00350074,0.00175189,0.00159333,0.00219742,-0.00394627,1.29814,0.00359464,0.0124923,1504,393,1.92498,7.61423
287,631,1.94739,-7.4838,-0.00415688,0.00214424,0.00163304,0.00254233,-0.00455496,1.33169,0.00415218,0.0144272,1511,393,1.94733,7.4838
294,631,1.94458,-7.34543,-0.0049275,0.00318633,0.00170281,0.0035292,-0.00527038,1.3721,0.00511348,0.0182903,1518,393,1.94462,7.34541
301,631,1.90686,-7.1795,-0.00545714,0.00445482,0.00187826,0.0047988,-0.00580112,1.38967,0.00612898,0.0257094,1525,393,1.90689,7.17952
308,631,1.96448,-7.0238,-0.00563309,0.00573863,0.00228268,0.00617973,-0.00607418,1.37991,0.00707489,0.0304085,1532,393,1.96453,7.0238
315,631,1.99158,-6.84332,-0.0054256,0.00675823,0.00278786,0.00736583,-0.00603321,1.3562,0.00774869,0.0342305,1539,393,1.9916,6.84332
322,631,1.98706,-6.68997,-0.00460911,0.00775741,0.00359751,0.00872781,-0.00557951,1.30733,0.00832673,0.0420169,1546,393,1.98701,6.68998
329,631,1.98975,-6.4314,0,0,0,0,0,0,0,-1,1553,393,1.98978,6.43138
336,631,2.51489,-7.50998,0,0,0,0,0,0,0,-1,1560,393,2.51485,7.50997
343,631,2.39612,-6.96481,0,0,0,0,0,0,0,-1,1567,393,2.39608,6.96482
350,631,2.1344,-9.23401,0,0,0,0,0,0,0,-1,1574,393,2.13439,9.23401
357,631,2.6449,-9.60303,0,0,0,0,0,0,0,-1,1581,393,2.64491,9.60304
364,631,3.39136,-5.7594,0,0,0,0,0,0,0,-1,1588,393,3.39137,5.75939
371,631,3.72839,-6.0574,0,0,0,0,0,0,0,-1,1595,393,3.72845,6.05742
378,631,4.06555,-6.35544,0,0,0,0,0,0,0,-1,1602,393,4.06553,6.35544
385,631,3.90442,-3.58298,0,0,0,0,0,0,0,-1,1609,393,3.90437,3.58299
392,631,0.352295,-2.21301,0,0,0,0,0,0,0,-1,1616,393,0.352345,2.213
399,631,0,0,0,0,0,0,0,0,0,-1,1623,393,0,0
406,631,0,0,0,0,0,0,0,0,0,-1,1630,393,0,0
413,631,0,0,0,0,0,0,0,0,0,-1,1637,393,0,0
420,631,0,0,0,0,0,0,0,0,0,-1,1644,393,0,0
427,631,0,0,0,0,0,0,0,0,0,-1,1651,393,0,0
434,631,0,0,0,0,0,0,0,0,0,-1,1658,393,0,0
441,631,0,0,0,0,0,0,0,0,0,-1,1665,393,0,0
448,631,0,0,0,0,0,0,0,0,0,-1,1672,393,0,0
455,631,0,0,0,0,0,0,0,0,0,-1,1679,393,0,0
462,631,0,0,0,0,0,0,0,0,0,-1,1686,393,0,0
469,631,0,0,0,0,0,0,0,0,0,-1,1693,393,0,0
476,631,0,0,0,0,0,0,0,0,0,-1,1700,393,0,0
483,631,0,0,0,0,0,0,0,0,0,-1,1707,393,0,0
490,631,0,0,0,0,0,0,0,0,0,-1,1714,393,0,0
497,631,0,0,0,0,0,0,0,0,0,-1,1721,393,0,0
504,631,0,0,0,0,0,0,0,0,0,-1,1728,393,0,0
511,631,0,0,0,0,0,0,0,0,0,-1,1735,393,0,0
518,631,0,0,0,0,0,0,0,0,0,-1,1742,393,0,0
525,631,0,0,0,0,0,0,0,0,0,-1,1749,393,0,0
532,631,0,0,0,0,0,0,0,0,0,-1,1756,393,0,0
539,631,0,0,0,0,0,0,0,0,0,-1,1763,393,0,0
546,631,0,0,0,0,0,0,0,0,0,-1,1770,393,0,0
553,631,0,0,0,0,0,0,0,0,0,-1,1777,393,0,0
560,631,0,0,0,0,0,0,0,0,0,-1,1784,393,0,0
567,631,0,0,0,0,0,0,0,0,0,-1,1791,393,0,0
574,631,0,0,0,0,0,0,0,0,0,-1,1798,393,0,0
581,631,0,0,0,0,0,0,0,0,0,-1,1805,393,0,0
588,631,0,0,0,0,0,0,0,0,0,-1,1812,393,0,0
595,631,0,0,0,0,0,0,0,0,0,-1,1819,393,0,0
602,631,0,0,0,0,0,0,0,0,0,-1,1826,393,0,0
609,631,0,0,0,0,0,0,0,0,0,-1,1833,393,0,0
616,631,0,0,0,0,0,0,0,0,0,-1,1840,393,0,0
623,631,0,0,0,0,0,0,0,0,0,-1,1847,393,0,0
630,631,0,0,0,0,0,0,0,0,0,-1,1854,393,0,0
637,631,0,0,0,0,0,0,0,0,0,-1,1861,393,0,0
644,631,0,0,0,0,0,0,0,0,0,-1,1868,393,0,0
651,631,0,0,0,0,0,0,0,0,0,-1,1875,393,0,0
658,631,0,0,0,0,0,0,0,0,0,-1,1882,393,0,0
665,631,0,0,0,0,0,0,0,0,0,-1,1889,393,0,0
672,631,0,0,0,0,0,0,0,0,0,-1,1896,393,0,0
679,631,0,0,0,0,0,0,0,0,0,-1,1903,393,0,0
686,631,0,0,0,0,0,0,0,0,0,-1,1910,393,0,0
693,631,0,0,0,0,0,0,0,0,0,-1,1917,393,0,0
700,631,0,0,0,0,0,0,0,0,0,-1,1924,393,0,0
707,631,0,0,0,0,0,0,0,0,0,-1,1931,393,0,0
714,631,0,0,0,0,0,0,0,0,0,-1,1938,393,0,0
721,631,0,0,0,0,0,0,0,0,0,-1,1945,393,0,0
728,631,0,0,0,0,0,0,0,0,0,-1,1952,393,0,0
735,631,0,0,0,0,0,0,0,0,0,-1,1959,393,0,0
742,631,0,0,0,0,0,0,0,0,0,-1,1966,393,0,0
749,631,0,0,0,0,0,0,0,0,0,-1,1973,393,0,0
756,631,0,0,0,0,0,0,0,0,0,-1,1980,393,0,0
763,631,0,0,0,0,0,0,0,0,0,-1,1987,393,0,0
770,631,0,0,0,0,0,0,0,0,0,-1,1994,393,0,0
777,631,0,0,0,0,0,0,0,0,0,-1,2001,393,0,0
784,631,0,0,0,0,0,0,0,0,0,-1,2008,393,0,0
791,631,0,0,0,0,0,0,0,0,0,-1,2015,393,0,0
798,631,0,0,0,0,0,0,0,0,0,-1,2022,393,0,0
805,631,0,0,0,0,0,0,0,0,0,-1,2029,393,0,0
812,631,0,0,0,0,0,0,0,0,0,-1,2036,393,0,0
-700,624,0,0,0,0,0,0,0,0,0,-1,524,400,0,0
-693,624,0,0,0,0,0,0,0,0,0,-1,531,400,0,0
-686,624,0,0,0,0,0,0,0,0,0,-1,538,400,0,0
-679,624,0,0,0,0,0,0,0,0,0,-1,545,400,0,0
-672,624,0,0,0,0,0,0,0,0,0,-1,552,400,0,0
-665,624,0,0,0,0,0,0,0,0,0,-1,559,400,0,0
-658,624,0,0,0,0,0,0,0,0,0,-1,566,400,0,0
-651,624,0,0,0,0,0,0,0,0,0,-1,573,400,0,0
-644,624,0,0,0,0,0,0,0,0,0,-1,580,400,0,0
-637,624,0,0,0,0,0,0,0,0,0,-1,587,400,0,0
-630,624,0,0,0,0,0,0,0,0,0,-1,594,400,0,0
-623,624,0,0,0,0,0,0,0,0,0,-1,601,400,0,0
-616,624,0,0,0,0,0,0,0,0,0,-1,608,400,0,0
-609,624,0,0,0,0,0,0,0,0,0,-1,615,400,0,0
-602,624,0,0,0,0,0,0,0,0,0,-1,622,400,0,0
-595,624,0,0,0,0,0,0,0,0,0,-1,629,400,0,0
-588,624,0,0,0,0,0,0,0,0,0,-1,636,400,0,0
-581,624,0,0,0,0,0,0,0,0,0,-1,643,400,0,0
-574,624,0,0,0,0,0,0,0,0,0,-1,650,400,0,0
-567,624,0,0,0,0,0,0,0,0,0,-1,657,400,0,0
-560,624,0,0,0,0,0,0,0,0,0,-1,664,400,0,0
-553,624,0,0,0,0,0,0,0,0,0,-1,671,400,0,0
-546,624,0,0,0,0,0,0,0,0,0,-1,678,400,0,0
-539,624,0,0,0,0,0,0,0,0,0,-1,685,400,0,0
-532,624,0,0,0,0,0,0,0,0,0,-1,692,400,0,0
-525,624,0,0,0,0,0,0,0,0,0,-1,699,400,0,0
-518,624,0,0,0,0,0,0,0,0,0,-1,706,400,0,0
-511,624,0,0,0,0,0,0,0,0,0,-1,713,400,0,0
-504,624,0,0,0,0,0,0,0,0,0,-1,720,400,0,0
-497,624,0,0,0,0,0,0,0,0,0,-1,727,400,0,0
-490,624,0,0,0,0,0,0,0,0,0,-1,734,400,0,0
-483,624,0,0,0,0,0,0,0,0,0,-1,741,400,0,0
-476,624,0,0,0,0,0,0,0,0,0,-1,748,400,0,0
-469,624,0,0,0,0,0,0,0,0,0,-1,755,400,0,0
-462,624,0,0,0,0,0,0,0,0,0,-1,762,400,0,0
-455,624,0,0,0,0,0,0,0,0,0,-1,769,400,0,0
-448,624,0,0,0,0,0,0,0,0,0,-1,776,400,0,0
-441,624,0,0,0,0,0,0,0,0,0,-1,783,400,0,0
-434,624,0,0,0,0,0,0,0,0,0,-1,790,400,0,0
-427,624,0,0,0,0,0,0,0,0,0,-1,797,400,0,0
-420,624,0,0,0,0,0,0,0,0,0,-1,804,400,0,0
-413,624,0,0,0,0,0,0,0,0,0,-1,811,400,0,0
-406,624,0,0,0,0,0,0,0,0,0,-1,818,400,0,0
-399,624,0,0,0,0,0,0,0,0,0,-1,825,400,0,0
-392,624,0,0,0,0,0,0,0,0,0,-1,832,400,0,0
-385,624,0,0,0,0,0,0,0,0,0,-1,839,400,0,0
-378,624,0,0,0,0,0,0,0,0,0,-1,846,400,0,0
-371,624,0,0,0,0,0,0,0,0,0,-1,853,400,0,0
-364,624,0,0,0,0,0,0,0,0,0,-1,860,400,0,0
-357,624,0,0,0,0,0,0,0,0,0,-1,867,400,0,0
-350,624,0,0,0,0,0,0,0,0,0,-1,874,400,0,0
-343,624,0,0,0,0,0,0,0,0,0,-1,881,400,0,0
-336,624,0,0,0,0,0,0,0,0,0,-1,888,400,0,0
-329,624,0,0,0,0,0,0,0,0,0,-1,895,400,0,0
-322,624,0,0,0,0,0,0,0,0,0,-1,902,400,0,0
-315,624,0,0,0,0,0,0,0,0,0,-1,909,400,0,0
-308,624,0,0,0,0,0,0,0,0,0,-1,916,400,0,0
-301,624,0,0,0,0,0,0,0,0,0,-1,923,400,0,0
-294,624,1.59058,-11.9451,0,0,0,0,0,0,0,-1,930,400,1.59057,11.9451
-287,624,1.05115,-11.63,0,0,0,0,0,0,0,-1,937,400,1.05116,11.63
-280,624,0.533264,-11.3326,0,0,0,0,0,0,0,-1,944,400,0.533236,11.3326
-273,624,0.486511,-10.8438,0,0,0,0,0,0,0,-1,951,400,0.486522,10.8438
-266,624,0.908997,-7.1413,0,0,0,0,0,0,0,-1,958,400,0.908985,7.1413
-259,624,1.03998,-7.25168,0.0320328,0.00213657,0.0145854,0.0379696,-0.00380026,0.386559,0.0266702,0.0476893,965,400,1.03996,7.25167
-252,624,1.22797,-7.50723,0.0291788,0.00128184,-0.00356834,0.029628,0.000832644,-0.125225,0.0194804,0.0462284,972,400,1.22799,7.50724
-245,624,1.43774,-7.76529,0.0270534,0.00221479,-0.0139989,0.0333479,-0.00407977,-0.42256,0.0237092,0.0466774,979,400,1.43775,7.7653
-238,624,1.62433,-8.07269,0,0,0,0,0,0,0,-1,986,400,1.62434,8.07269
-231,624,1.45831,-6.76813,0,0,0,0,0,0,0,-1,993,400,1.45834,6.76814
-224,624,2.23303,-7.09128,0,0,0,0,0,0,0,-1,1000,400,2.23303,7.09128
-217,624,1.85822,-7.25671,0,0,0,0,0,0,0,-1,1007,400,1.85821,7.25673
-210,624,1.60333,-7.23123,0.00879551,0.00800133,-0.00786344,0.0162719,0.000524957,-0.76017,0.0106772,0.0461475,1014,400,1.60331,7.23124
-203,624,1.74658,-7.33063,0.00552996,0.00706455,-0.00651785,0.0128601,-0.000265607,-0.843989,0.0086633,0.0371772,1021,400,1.74658,7.33063
-196,624,1.88684,-7.48831,0.00308156,0.00409377,-0.00563898,0.00924931,-0.00207398,-0.830154,0.00696129,0.0347519,1028,400,1.88686,7.4883
-189,624,2.02148,-7.66391,0.00119211,0.00269435,-0.00453344,0.00653847,-0.00265201,-0.867495,0.00546198,0.0336162,1035,400,2.02154,7.66392
-182,624,1.99646,-7.8447,0.000920418,0.000178724,-0.00372916,0.00429712,-0.00319798,-0.735839,0.00434278,0.0275784,1042,400,1.99649,7.84471
-175,624,1.96606,-7.97562,0.00039463,-0.00226193,-0.00270132,0.00207658,-0.00394387,-0.556899,0.0035312,0.0177105,1049,400,1.96611,7.97562
-168,624,1.94141,-8.07126,0.000360789,-0.00413235,-0.00216585,0.00123479,-0.00500636,-0.383553,0.00381635,0.0115164,1056,400,1.94145,8.07125
-161,624,1.9187,-8.17355,0.000654117,-0.00556643,-0.00167221,0.00107514,-0.00598745,-0.246652,0.00439408,0.00947341,1063,400,1.91873,8.17354
-154,624,1.91919,-8.25705,0.000851841,-0.00663717,-0.00116738,0.00102959,-0.00681492,-0.151104,0.0049225,0.00878742,1070,400,1.91921,8.25706
-147,624,1.92041,-8.34717,0.00115655,-0.00731388,-0.00068571,0.0012117,-0.00736903,-0.080257,0.00536242,0.00983895,1077,400,1.9204,8.34718
-140,624,1.90283,-8.44476,0.00147231,-0.0075034,-0.000232881,0.00147835,-0.00750943,-0.0259225,0.00556492,0.00937098,1084,400,1.90289,8.44477
-133,624,1.88257,-8.52875,0.0016148,-0.00728681,0.000110641,0.00161618,-0.00728819,0.0124268,0.00547758,0.0103598,1091,400,1.88251,8.52875
-126,624,1.8916,-8.59277,0.00160611,-0.00665057,0.000336636,0.00161982,-0.00666428,0.0406813,0.00506979,0.0123798,1098,400,1.89163,8.59278
-119,624,1.88342,-8.66211,0.00160107,-0.00578262,0.000595641,0.00164881,-0.00583036,0.0799807,0.00453749,0.0140635,1105,400,1.88347,8.6621
-112,624,1.88538,-8.7301,0.00151121,-0.00479903,0.000717179,0.00159169,-0.00487951,0.111754,0.00389357,0.0146915,1112,400,1.88533,8.73011
-105,624,1.87122,-8.79611,0.00128948,-0.00362597,0.000811219,0.0014199,-0.00375639,0.159405,0.00308835,0.0112367,1119,400,1.87125,8.7961
-98,624,1.84412,-8.87543,0.000979545,-0.00257983,0.000772158,0.00113984,-0.00274012,0.204681,0.00230273,0.0138587,1126,400,1.84417,8.87543
-91,624,1.83411,-8.94888,0.00071611,-0.00131154,0.000682969,0.000924696,-0.00152012,0.296413,0.0014254,0.0198861,1133,400,1.8341,8.94889
-84,624,1.87708,-9.00763,0.000489987,-0.000496541,0.000436943,0.000655683,-0.000662237,0.362463,0.000760904,0.017089,1140,400,1.87705,9.00764
-77,624,1.8717,-9.08157,0.000239684,6.59153e-05,0.000196662,0.000367799,-6.21996e-05,0.577393,0.000268346,0.011428,1147,400,1.87176,9.08156
-70,624,1.86316,-9.12488,0.000230664,0.000569688,2.32637e-05,0.000571277,0.000229075,1.5026,0.000331975,0.0112585,1154,400,1.8632,9.12489
-63,624,1.89087,-9.14169,0.000338821,0.000883259,-3.96873e-05,0.000886137,0.000335943,-1.49841,0.000516572,0.0109197,1161,400,1.89084,9.14171
-56,624,1.88562,-9.1976,0.000448325,0.00103272,-4.17209e-05,0.00103568,0.000445362,-1.49988,0.000599902,0.00976908,1168,400,1.8856,9.19761
-49,624,1.88074,-9.23193,0.000534589,0.00107834,6.5628e-06,0.00107842,0.00053451,1.55873,0.000622633,0.00940354,1175,400,1.88069,9.23193
-42,624,1.8916,-9.27048,0.000416809,0.00100206,-1.97946e-05,0.00100273,0.00041614,-1.53703,0.000581709,0.00907585,1182,400,1.89165,9.27047
-35,624,1.90356,-9.3107,0.00035086,0.000974866,-9.06969e-05,0.000987781,0.000337945,-1.42935,0.000579694,0.0135668,1189,400,1.90362,9.31069
-28,624,1.89148,-9.35263,0.000599272,0.000860351,-0.000153613,0.000931399,0.000528224,-1.13759,0.000539356,0.0177365,1196,400,1.89146,9.35263
-21,624,1.88892,-9.38251,0.000948565,0.000849457,-0.000267312,0.00117088,0.000627145,-0.69375,0.000676578,0.013493,1203,400,1.8889,9.3825
-14,624,1.88,-9.39392,0.00110176,0.00104585,-0.000480257,0.00155488,0.000592735,-0.756326,0.000906113,0.0150068,1210,400,1.87998,9.39392
-7,624,1.88342,-9.39691,0.00125745,0.00136258,-0.000672408,0.00198448,0.000635556,-0.824407,0.00117015,0.0186184,1217,400,1.88343,9.39692
0,624,1.90686,-9.42993,0.00149211,0.00240765,-0.000864541,0.00292814,0.000971627,-1.02888,0.00172214,0.0178299,1224,400,1.9068,9.42994
7,624,1.91016,-9.46155,0.00191607,0.00415708,-0.000603224,0.00430914,0.00176402,-1.32387,0.00250147,0.0134991,1231,400,1.91013,9.46154
14,624,1.91443,-9.48471,0.00255184,0.00571924,2.86946e-05,0.0057195,0.00255158,1.56174,0.00330854,0.0113343,1238,400,1.91442,9.48472
21,624,1.91125,-9.49338,0.00283691,0.00827965,0.000264559,0.00829248,0.00282408,1.52234,0.00486813,0.0116121,1245,400,1.91121,9.49339
28,624,1.91199,-9.4968,0.00323188,0.0108402,0.000740783,0.0109116,0.00316043,1.47463,0.00648303,0.0107141,1252,400,1.912,9.49681
35,624,1.92517,-9.49503,0.00392974,0.0134057,0.00142592,0.0136157,0.00371982,1.42463,0.0081261,0.0134066,1259,400,1.92517,9.49504
42,624,1.94275,-9.49832,0.004573,0.0160261,0.00218125,0.0164275,0.00417165,1.38883,0.00985979,0.0155651,1266,400,1.94277,9.49832
49,624,1.93408,-9.50052,0.00516331,0.018383,0.00282721,0.0189623,0.00458406,1.36871,0.0114243,0.0171355,1273,400,1.93414,9.50052
56,624,1.98645,-9.49493,0.00562333,0.0201313,0.00323726,0.0208209,0.00493376,1.36092,0.0125632,0.017703,1280,400,1.98643,9.49494
63,624,2.0177,-9.49802,0.00595538,0.0215352,0.00350501,0.0222874,0.00520317,1.35939,0.0134633,0.0142647,1287,400,2.01765,9.49802
70,624,1.98132,-9.48087,0.00604947,0.0219563,0.0035651,0.0227188,0.00528699,1.3601,0.0137272,0.0119674,1294,400,1.98126,9.48088
77,624,1.96741,-9.47049,0.00592463,0.0216971,0.00347169,0.0224274,0.0051943,1.36345,0.0135561,0.0126544,1301,400,1.96738,9.47049
84,624,1.97351,-9.47006,0.00565158,0.0207216,0.00319821,0.0213723,0.00500094,1.3701,0.0129083,0.0120423,1308,400,1.97347,9.47006
91,624,1.98474,-9.44119,0.00525598,0.0191997,0.00283096,0.0197525,0.00470313,1.37794,0.0119142,0.0126625,1315,400,1.98475,9.4412
98,624,1.99866,-9.42435,0.00457825,0.0171915,0.00230328,0.017599,0.00417082,1.39571,0.010619,0.0121565,1322,400,1.9986,9.42433
105,624,1.98413,-9.39618,0.00395762,0.0146125,0.00199919,0.0149752,0.00359486,1.3913,0.00902703,0.0127983,1329,400,1.98413,9.39617
112,624,1.9895,-9.35526,0.00330254,0.0118718,0.00139492,0.0120932,0.00308119,1.41343,0.00725649,0.0130162,1336,400,1.98948,9.35525
119,624,2.01941,-9.31924,0.00255239,0.00965862,0.000924315,0.00977688,0.00243413,1.44355,0.00587704,0.0136342,1343,400,2.01944,9.31925
126,624,2.01721,-9.23209,0.00233521,0.00683188,0.00116504,0.0071158,0.00205129,1.33175,0.0042293,0.0179655,1350,400,2.01723,9.2321
133,624,2.01147,-9.16342,0.00206145,0.00468861,0.00120724,0.00515911,0.00159096,1.19918,0.00305065,0.0175959,1357,400,2.01146,9.16342
140,624,2.02856,-9.14813,0.00161669,0.00291799,0.00113863,0.00357876,0.000955919,1.04497,0.00213961,0.0164978,1364,400,2.02859,9.14815
147,624,2.02527,-9.14471,0.00139036,0.00137741,0.00100769,0.0023916,0.000376174,0.782186,0.00148498,0.0211469,1371,400,2.02522,9.14471
154,624,2.026,-9.07947,0.00126384,0.000304141,0.000885304,0.00179097,-0.000222995,0.537052,0.00127483,0.0228959,1378,400,2.02604,9.07946
161,624,2.05872,-8.97037,0.00120633,-0.000215778,0.000852028,0.00160503,-0.000614476,0.437673,0.00132329,0.0208747,1385,400,2.05868,8.97037
168,624,2.0885,-8.92303,0.00114867,-0.00060708,0.000706044,0.00139737,-0.000855776,0.338668,0.00131332,0.020447,1392,400,2.08853,8.92305
175,624,2.08557,-8.90854,0.00108881,-0.000491583,0.000549829,0.00126128,-0.00066405,0.303955,0.00112928,0.0163327,1399,400,2.08552,8.90853
182,624,2.06567,-8.8486,0.000906443,-0.000517398,0.000369948,0.000996827,-0.000607782,0.239621,0.000935454,0.00990984,1406,400,2.06565,8.84859
189,624,2.06628,-8.77084,0.000690181,-0.000257576,0.000276322,0.000764859,-0.000332254,0.263953,0.000649626,0.00939635,1413,400,2.06625,8.77083
196,624,2.04016,-8.70468,0.000479764,-2.05034e-05,0.000223616,0.000565146,-0.000105885,0.364741,0.00041657,0.0101943,1420,400,2.04019,8.70469
203,624,2.04626,-8.63165,0.000319994,0.0002041,0.000249534,0.00051822,5.87341e-06,0.671309,0.000343539,0.0127353,1427,400,2.04623,8.63166
210,624,2.09766,-8.56998,1.22905e-05,0.000548648,0.000261411,0.000654977,-9.40378e-05,1.18449,0.000471136,0.0166731,1434,400,2.0976,8.56997
217,624,2.05627,-8.44788,-0.000299323,0.000837809,0.000425867,0.000979616,-0.00044113,1.24936,0.000839677,0.0197745,1441,400,2.05621,8.44788
224,624,2.03638,-8.35196,-0.000322791,0.00104435,0.000609428,0.00127657,-0.000555011,1.20674,0.00108447,0.0164166,1448,400,2.03634,8.35196
231,624,2.06519,-8.31232,-0.000100796,0.00118299,0.00083864,0.0015972,-0.000515001,1.11204,0.00127171,0.0125274,1455,400,2.06521,8.31231
238,624,2.05969,-8.22073,-1.48357e-05,0.00125779,0.00112067,0.0019102,-0.00066724,1.0436,0.00154469,0.0156651,1462,400,2.05973,8.22074
245,624,2.06152,-8.14691,-0.000388368,0.000820497,0.000992644,0.00137825,-0.000946124,1.05887,0.00134969,0.0169555,1469,400,2.06156,8.14691
252,624,2.04919,-8.05661,-0.000500907,0.000623959,0.00103963,0.00124354,-0.00112049,1.03335,0.00136549,0.0131689,1476,400,2.04914,8.05662
259,624,2.02649,-7.95184,-0.000832771,0.00066732,0.00119785,0.00133057,-0.00149602,1.06511,0.00163287,0.00914535,1483,400,2.02648,7.95186
266,624,2.03015,-7.83426,-0.00132365,0.00115324,0.00123032,0.00166049,-0.00183089,1.17974,0.00201655,0.0127587,1490,400,2.0301,7.83427
273,624,2.04578,-7.70941,-0.00176679,0.0014862,0.00129731,0.0019402,-0.0022208,1.23415,0.00240418,0.0152011,1497,400,2.04584,7.70942
280,624,2.04871,-7.62314,-0.00224392,0.00189728,0.00137461,0.00231202,-0.00265866,1.27776,0.00287215,0.0134407,1504,400,2.04869,7.62313
287,624,2.02893,-7.52591,-0.00262725,0.00217576,0.00149061,0.00260076,-0.00305226,1.29305,0.00326724,0.0104403,1511,400,2.02896,7.5259
294,624,2.02051,-7.39087,-0.0030867,0.00294397,0.00161758,0.00335045,-0.00349318,1.32461,0.00395146,0.00941811,1518,400,2.02049,7.39088
301,624,2.00952,-7.27307,-0.00335254,0.00382007,0.00179339,0.00424348,-0.00377595,1.33895,0.00463264,0.0107728,1525,400,2.00947,7.27307
308,624,2.01147,-7.1261,-0.00334868,0.00459052,0.00214897,0.00513488,-0.00389303,1.3227,0.00522868,0.0135723,1532,400,2.01143,7.12609
315,624,2.00476,-7.00455,-0.00305818,0.00515223,0.00257802,0.00589459,-0.00380054,1.29042,0.00564084,0.0157902,1539,400,2.0047,7.00455
322,624,2.00354,-6.90021,-0.00233077,0.00572314,0.00323909,0.00686417,-0.0034718,1.2321,0.00607367,0.0235076,1546,400,2.00352,6.90022
329,624,2.0885,-6.79791,-0.00138281,0.0060995,0.00416606,0.00795766,-0.00324097,1.15125,0.00665395,0.0389935,1553,400,2.08846,6.79792
336,624,2.27454,-6.97449,-0.000699434,0.00642427,0.00510284,0.00908542,-0.00336059,1.09009,0.00743477,0.0401275,1560,400,2.27452,6.97449
343,624,2.42493,-6.6145,0,0,0,0,0,0,0,-1,1567,400,2.42495,6.61449
350,624,1.99194,-7.29742,0,0,0,0,0,0,0,-1,1574,400,1.99198,7.29741
357,624,2.64075,-3.13092,0,0,0,0,0,0,0,-1,1581,400,2.64076,3.13091
364,624,3.16565,-4.9458,0,0,0,0,0,0,0,-1,1588,400,3.16564,4.94579
371,624,3.37561,-5.23529,0,0,0,0,0,0,0,-1,1595,400,3.37563,5.23529
378,624,1.50439,-5.22165,0,0,0,0,0,0,0,-1,1602,400,1.50438,5.22164
385,624,0.724731,-2.43875,0,0,0,0,0,0,0,-1,1609,400,0.724746,2.43875
392,624,4.26819,-5.14236,0,0,0,0,0,0,0,-1,1616,400,4.26818,5.14236
399,624,3.86841,-2.36917,0,0,0,0,0,0,0,-1,1623,400,3.86838,2.36916
406,624,4.35376,-2.6962,0,0,0,0,0,0,0,-1,1630,400,4.35373,2.69619
413,624,0,0,0,0,0,0,0,0,0,-1,1637,400,0,0
420,624,0,0,0,0,0,0,0,0,0,-1,1644,400,0,0
427,624,0,0,0,0,0,0,0,0,0,-1,1651,400,0,0
434,624,0,0,0,0,0,0,0,0,0,-1,1658,400,0,0
441,624,0,0,0,0,0,0,0,0,0,-1,1665,400,0,0
448,624,0,0,0,0,0,0,0,0,0,-1,1672,400,0,0
455,624,0,0,0,0,0,0,0,0,0,-1,1679,400,0,0
462,624,0,0,0,0,0,0,0,0,0,-1,1686,400,0,0
469,624,0,0,0,0,0,0,0,0,0,-1,1693,400,0,0
476,624,0,0,0,0,0,0,0,0,0,-1,1700,400,0,0
483,624,0,0,0,0,0,0,0,0,0,-1,1707,400,0,0
490,624,0,0,0,0,0,0,0,0,0,-1,1714,400,0,0
497,624,0,0,0,0,0,0,0,0,0,-1,1721,400,0,0
504,624,0,0,0,0,0,0,0,0,0,-1,1728,400,0,0
511,624,0,0,0,0,0,0,0,0,0,-1,1735,400,0,0
518,624,0,0,0,0,0,0,0,0,0,-1,1742,400,0,0
525,624,0,0,0,0,0,0,0,0,0,-1,1749,400,0,0
532,624,0,0,0,0,0,0,0,0,0,-1,1756,400,0,0
539,624,0,0,0,0,0,0,0,0,0,-1,1763,400,0,0
546,624,0,0,0,0,0,0,0,0,0,-1,1770,400,0,0
553,624,0,0,0,0,0,0,0,0,0,-1,1777,400,0,0
560,624,0,0,0,0,0,0,0,0,0,-1,1784,400,0,0
567,624,0,0,0,0,0,0,0,0,0,-1,1791,400,0,0
574,624,0,0,0,0,0,0,0,0,0,-1,1798,400,0,0
581,624,0,0,0,0,0,0,0,0,0,-1,1805,400,0,0
588,624,0,0,0,0,0,0,0,0,0,-1,1812,400,0,0
595,624,0,0,0,0,0,0,0,0,0,-1,1819,400,0,0
602,624,0,0,0,0,0,0,0,0,0,-1,1826,400,0,0
609,624,0,0,0,0,0,0,0,0,0,-1,1833,400,0,0
616,624,0,0,0,0,0,0,0,0,0,-1,1840,400,0,0
623,624,0,0,0,0,0,0,0,0,0,-1,1847,400,0,0
630,624,0,0,0,0,0,0,0,0,0,-1,1854,400,0,0
637,624,0,0,0,0,0,0,0,0,0,-1,1861,400,0,0
644,624,0,0,0,0,0,0,0,0,0,-1,1868,400,0,0
651,624,0,0,0,0,0,0,0,0,0,-1,1875,400,0,0
658,624,0,0,0,0,0,0,0,0,0,-1,1882,400,0,0
665,624,0,0,0,0,0,0,0,0,0,-1,1889,400,0,0
672,624,0,0,0,0,0,0,0,0,0,-1,1896,400,0,0
679,624,0,0,0,0,0,0,0,0,0,-1,1903,400,0,0
686,624,0,0,0,0,0,0,0,0,0,-1,1910,400,0,0
693,624,0,0,0,0,0,0,0,0,0,-1,1917,400,0,0
700,624,0,0,0,0,0,0,0,0,0,-1,1924,400,0,0
707,624,0,0,0,0,0,0,0,0,0,-1,1931,400,0,0
714,624,0,0,0,0,0,0,0,0,0,-1,1938,400,0,0
721,624,0,0,0,0,0,0,0,0,0,-1,1945,400,0,0
728,624,0,0,0,0,0,0,0,0,0,-1,1952,400,0,0
735,624,0,0,0,0,0,0,0,0,0,-1,1959,400,0,0
742,624,0,0,0,0,0,0,0,0,0,-1,1966,400,0,0
749,624,0,0,0,0,0,0,0,0,0,-1,1973,400,0,0
756,624,0,0,0,0,0,0,0,0,0,-1,1980,400,0,0
763,624,0,0,0,0,0,0,0,0,0,-1,1987,400,0,0
770,624,0,0,0,0,0,0,0,0,0,-1,1994,400,0,0
777,624,0,0,0,0,0,0,0,0,0,-1,2001,400,0,0
784,624,0,0,0,0,0,0,0,0,0,-1,2008,400,0,0
791,624,0,0,0,0,0,0,0,0,0,-1,2015,400,0,0
798,624,0,0,0,0,0,0,0,0,0,-1,2022,400,0,0
805,624,0,0,0,0,0,0,0,0,0,-1,2029,400,0,0
812,624,0,0,0,0,0,0,0,0,0,-1,2036,400,0,0
-700,617,0,0,0,0,0,0,0,0,0,-1,524,407,0,0
-693,617,0,0,0,0,0,0,0,0,0,-1,531,407,0,0
-686,617,0,0,0,0,0,0,0,0,0,-1,538,407,0,0
-679,617,0,0,0,0,0,0,0,0,0,-1,545,407,0,0
-672,617,0,0,0,0,0,0,0,0,0,-1,552,407,0,0
-665,617,0,0,0,0,0,0,0,0,0,-1,559,407,0,0
-658,617,0,0,0,0,0,0,0,0,0,-1,566,407,0,0
-651,617,0,0,0,0,0,0,0,0,0,-1,573,407,0,0
-644,617,0,0,0,0,0,0,0,0,0,-1,580,407,0,0
-637,617,0,0,0,0,0,0,0,0,0,-1,587,407,0,0
-630,617,0,0,0,0,0,0,0,0,0,-1,594,407,0,0
-623,617,0,0,0,0,0,0,0,0,0,-1,601,407,0,0
-616,617,0,0,0,0,0,0,0,0,0,-1,608,407,0,0
-609,617,0,0,0,0,0,0,0,0,0,-1,615,407,0,0
-602,617,0,0,0,0,0,0,0,0,0,-1,622,407,0,0
-595,617,0,0,0,0,0,0,0,0,0,-1,629,407,0,0
-588,617,0,0,0,0,0,0,0,0,0,-1,636,407,0,0
-581,617,0,0,0,0,0,0,0,0,0,-1,643,407,0,0
-574,617,0,0,0,0,0,0,0,0,0,-1,650,407,0,0
-567,617,0,0,0,0,0,0,0,0,0,-1,657,407,0,0
-560,617,0,0,0,0,0,0,0,0,0,-1,664,407,0,0
-553,617,0,0,0,0,0,0,0,0,0,-1,671,407,0,0
-546,617,0,0,0,0,0,0,0,0,0,-1,678,407,0,0
-539,617,0,0,0,0,0,0,0,0,0,-1,685,407,0,0
-532,617,0,0,0,0,0,0,0,0,0,-1,692,407,0,0
-525,617,0,0,0,0,0,0,0,0,0,-1,699,407,0,0
-518,617,0,0,0,0,0,0,0,0,0,-1,706,407,0,0
-511,617,0,0,0,0,0,0,0,0,0,-1,713,407,0,0
-504,617,0,0,0,0,0,0,0,0,0,-1,720,407,0,0
-497,617,0,0,0,0,0,0,0,0,0,-1,727,407,0,0
-490,617,0,0,0,0,0,0,0,0,0,-1,734,407,0,0
-483,617,0,0,0,0,0,0,0,0,0,-1,741,407,0,0
-476,617,0,0,0,0,0,0,0,0,0,-1,748,407,0,0
-469,617,0,0,0,0,0,0,0,0,0,-1,755,407,0,0
-462,617,0,0,0,0,0,0,0,0,0,-1,762,407,0,0
-455,617,0,0,0,0,0,0,0,0,0,-1,769,407,0,0
-448,617,0,0,0,0,0,0,0,0,0,-1,776,407,0,0
-441,617,0,0,0,0,0,0,0,0,0,-1,783,407,0,0
-434,617,0,0,0,0,0,0,0,0,0,-1,790,407,0,0
-427,617,0,0,0,0,0,0,0,0,0,-1,797,407,0,0
-420,617,0,0,0,0,0,0,0,0,0,-1,804,407,0,0
-413,617,0,0,0,0,0,0,0,0,0,-1,811,407,0,0
-406,617,0,0,0,0,0,0,0,0,0,-1,818,407,0,0
-399,617,0,0,0,0,0,0,0,0,0,-1,825,407,0,0
-392,617,0,0,0,0,0,0,0,0,0,-1,832,407,0,0
-385,617,0,0,0,0,0,0,0,0,0,-1,839,407,0,0
-378,617,0,0,0,0,0,0,0,0,0,-1,846,407,0,0
-371,617,0,0,0,0,0,0,0,0,0,-1,853,407,0,0
-364,617,0,0,0,0,0,0,0,0,0,-1,860,407,0,0
-357,617,0,0,0,0,0,0,0,0,0,-1,867,407,0,0
-350,617,0,0,0,0,0,0,0,0,0,-1,874,407,0,0
-343,617,0,0,0,0,0,0,0,0,0,-1,881,407,0,0
-336,617,0,0,0,0,0,0,0,0,0,-1,888,407,0,0
-329,617,0,0,0,0,0,0,0,0,0,-1,895,407,0,0
-322,617,0,0,0,0,0,0,0,0,0,-1,902,407,0,0
-315,617,0,0,0,0,0,0,0,0,0,-1,909,407,0,0
-308,617,0,0,0,0,0,0,0,0,0,-1,916,407,0,0
-301,617,6.7511,-7.32471,0,0,0,0,0,0,0,-1,923,407,6.75112,7.3247
-294,617,0.739624,-10.7959,0,0,0,0,0,0,0,-1,930,407,0.739635,10.7959
-287,617,0.250366,-10.4579,0,0,0,0,0,0,0,-1,937,407,0.250386,10.4578
-280,617,-0.105164,-10.0824,0,0,0,0,0,0,0,-1,944,407,-0.105181,10.0824
-273,617,0.0418091,-9.35403,0,0,0,0,0,0,0,-1,951,407,0.041821,9.35404
-266,617,0.85376,-7.07715,0,0,0,0,0,0,0,-1,958,407,0.853743,7.07714
-259,617,1.05695,-7.29889,0.0244983,0.00240897,0.0145384,0.0317114,-0.00480421,0.460561,0.0229109,0.0457084,965,407,1.05694,7.29889
-252,617,1.25269,-7.52496,0.0215344,0.00178485,-0.000901672,0.0215755,0.00174377,-0.045529,0.0138391,0.0453604,972,407,1.25268,7.52495
-245,617,1.53271,-7.63336,0.0196474,0.00232334,-0.00991185,0.0241488,-0.00217805,-0.426293,0.0168721,0.0447383,979,407,1.53269,7.63335
-238,617,1.97424,-7.0694,0,0,0,0,0,0,0,-1,986,407,1.97427,7.06939
-231,617,1.53656,-6.88019,0.0149209,0.00526514,-0.00903626,0.0203381,-0.000152092,-0.540052,0.0136097,0.0448137,993,407,1.53655,6.8802
-224,617,2.03894,-7.13538,0.0121076,0.00635951,-0.00806651,0.0177968,0.000670333,-0.614263,0.0116475,0.0449014,1000,407,2.03893,7.13537
-217,617,1.87,-7.29358,0.00936556,0.00696865,-0.00693825,0.0152081,0.00112611,-0.699876,0.00978498,0.0372701,1007,407,1.86997,7.29359
-210,617,1.84528,-7.45972,0.00667227,0.00652968,-0.00592211,0.0125235,0.000678431,-0.779379,0.00813231,0.0241833,1014,407,1.84529,7.45973
-203,617,1.85876,-7.57498,0.00424998,0.00590296,-0.00486509,0.0100113,0.000141675,-0.869536,0.00662745,0.0176133,1021,407,1.85875,7.57498
-196,617,1.86072,-7.6767,0.00214389,0.00428694,-0.00415182,0.00750328,-0.00107244,-0.911685,0.00539531,0.0142672,1028,407,1.86073,7.6767
-189,617,1.85291,-7.78986,0.000611798,0.00341694,-0.00337335,0.00566768,-0.00163895,-0.982415,0.00442708,0.0126933,1035,407,1.8529,7.78987
-182,617,1.83911,-7.90045,0.000302404,0.00157354,-0.00284613,0.0038542,-0.00197826,-0.89525,0.00342494,0.0136036,1042,407,1.83911,7.90046
-175,617,1.85498,-7.97208,-0.000150805,-0.000265303,-0.00209144,0.00188417,-0.00230028,-0.771715,0.00241987,0.0110679,1049,407,1.85503,7.97208
-168,617,1.85693,-8.06363,-0.000196251,-0.00171011,-0.00174494,0.000948858,-0.00285522,-0.580754,0.00228636,0.00913852,1056,407,1.85699,8.06364
-161,617,1.83752,-8.18011,2.35154e-05,-0.00285581,-0.00143324,0.000615307,-0.00344761,-0.391581,0.00252859,0.0107672,1063,407,1.83758,8.18011
-154,617,1.82959,-8.2663,0.000161403,-0.00378704,-0.00108681,0.000440782,-0.00406641,-0.251615,0.00286918,0.0100842,1070,407,1.82955,8.26631
-147,617,1.83838,-8.34769,0.000418113,-0.00447399,-0.000766077,0.000535271,-0.00459115,-0.151756,0.0032539,0.0139311,1077,407,1.83835,8.3477
-140,617,1.83154,-8.4444,0.000735158,-0.00487662,-0.000458248,0.000772331,-0.0049138,-0.0809436,0.00356133,0.0117647,1084,407,1.83149,8.44441
-133,617,1.81567,-8.5253,0.000942448,-0.00497443,-0.000247054,0.000952745,-0.00498473,-0.0416574,0.00368205,0.0136771,1091,407,1.81573,8.5253
-126,617,1.81042,-8.59937,0.00106035,-0.00474968,-9.77018e-05,0.00106199,-0.00475132,-0.0168097,0.00357452,0.0139543,1098,407,1.81043,8.59937
-119,617,1.79553,-8.67902,0.00118637,-0.00428009,9.06276e-05,0.00118787,-0.0042816,0.0165727,0.00332192,0.0139456,1105,407,1.79558,8.67901
-112,617,1.8031,-8.75552,0.00126295,-0.00369168,0.000179584,0.00126946,-0.00369818,0.0361823,0.00298014,0.0141077,1112,407,1.80304,8.75553
-105,617,1.79846,-8.81497,0.00122604,-0.00287719,0.000235793,0.00123955,-0.0028907,0.0572142,0.00244729,0.0151322,1119,407,1.79844,8.81497
-98,617,1.78894,-8.89362,0.00112959,-0.00213801,0.000187449,0.00114031,-0.00214873,0.0571164,0.00192844,0.0129544,1126,407,1.78894,8.89361
-91,617,1.79504,-8.95612,0.00110076,-0.00123985,5.84713e-05,0.00110222,-0.00124131,0.0249605,0.00135383,0.0176874,1133,407,1.79503,8.95612
-84,617,1.81958,-9.02591,0.00106559,-0.000564261,-0.000114047,0.00107353,-0.000572203,-0.0695221,0.00096475,0.0168714,1140,407,1.81958,9.02592
-77,617,1.82397,-9.09644,0.00103217,-2.44336e-05,-0.000253669,0.00108991,-8.21785e-05,-0.223825,0.000755492,0.0123724,1147,407,1.82396,9.09644
-70,617,1.82227,-9.13879,0.00108317,0.000557902,-0.000347171,0.00125586,0.000385216,-0.461573,0.000742907,0.0124362,1154,407,1.82226,9.13878
-63,617,1.85645,-9.15594,0.00103102,0.0010368,-0.000360035,0.00139396,0.000673863,-0.789406,0.000804948,0.0124602,1161,407,1.85639,9.15593
-56,617,1.85132,-9.19684,0.000945727,0.00133685,-0.000296618,0.00149657,0.000786004,-1.07684,0.000864411,0.00992696,1168,407,1.85132,9.19685
-49,617,1.84131,-9.23532,0.000733752,0.00146882,-0.000238569,0.00153946,0.000663112,-1.28292,0.000891644,0.00924832,1175,407,1.84133,9.23533
-42,617,1.85706,-9.29633,0.000270735,0.00129528,-0.00027997,0.0013668,0.000199222,-1.32071,0.000852586,0.0112369,1182,407,1.85704,9.29631
-35,617,1.89075,-9.33356,-7.1687e-05,0.00134542,-0.00040553,0.00145327,-0.000179529,-1.31088,0.0010339,0.0156418,1189,407,1.89081,9.33355
-28,617,1.8822,-9.35837,0.00119834,0.00144226,-0.000414299,0.00175218,0.000888423,-0.928545,0.00101165,0.0174294,1196,407,1.88217,9.35837
-21,617,1.8811,-9.36987,0.00227048,0.00160973,-0.000516516,0.00255324,0.00132697,-0.500879,0.0014745,0.0130185,1203,407,1.8811,9.36989
-14,617,1.85168,-9.36893,0.00280534,0.00208394,-0.000726234,0.00325551,0.00163376,-0.554909,0.00187958,0.0145721,1210,407,1.8517,9.36894
-7,617,1.8429,-9.38724,0.00342943,0.00276582,-0.000899606,0.00405647,0.00213878,-0.608721,0.00234316,0.0172296,1217,407,1.84294,9.38724
0,617,1.87317,-9.41516,0.00414322,0.00429686,-0.00107213,0.00529492,0.00314517,-0.821164,0.00307498,0.0157502,1224,407,1.87313,9.41516
7,617,1.89832,-9.4556,0.00508859,0.00675464,-0.000591083,0.00694304,0.00490019,-1.26224,0.00412017,0.0110005,1231,407,1.89827,9.45559
14,617,1.89624,-9.47839,0.00626438,0.00941409,0.000412595,0.00946724,0.00621123,1.44268,0.00555397,0.0127799,1238,407,1.89624,9.47838
21,617,1.89453,-9.47879,0.00684364,0.0131532,0.000884384,0.0132748,0.00672202,1.43414,0.0076644,0.0116097,1245,407,1.89452,9.4788
28,617,1.90967,-9.48926,0.00741414,0.0168689,0.00160406,0.0171336,0.00714941,1.40724,0.00993712,0.00955381,1252,407,1.90965,9.48926
35,617,1.93445,-9.50629,0.00827991,0.0205716,0.00253558,0.0210741,0.0077774,1.37515,0.0123054,0.0120056,1259,407,1.9345,9.5063
42,617,1.97913,-9.50107,0.00903618,0.0243253,0.00359946,0.0251304,0.00823116,1.35077,0.0147939,0.0188148,1266,407,1.97918,9.50108
49,617,1.94275,-9.49808,0.0096551,0.0276856,0.00447532,0.0287353,0.0086054,1.34041,0.0170293,0.0185396,1273,407,1.94277,9.49809
56,617,1.94983,-9.4877,0.0101629,0.0302232,0.00506914,0.0314314,0.00895474,1.33682,0.0186983,0.0133208,1280,407,1.94983,9.48771
63,617,1.99084,-9.49545,0.0104685,0.0321582,0.00551393,0.0334794,0.00914723,1.33561,0.0199811,0.0101238,1287,407,1.99087,9.49545
70,617,1.97449,-9.48245,0.0104571,0.0327759,0.00565385,0.0341265,0.00910663,1.33632,0.0204045,0.0140042,1294,407,1.97444,9.48247
77,617,1.98767,-9.46622,0.00989683,0.032417,0.0055829,0.033725,0.00858877,1.34065,0.0202373,0.0125225,1301,407,1.98772,9.46622
84,617,1.99243,-9.45438,0.00950505,0.0311041,0.00528959,0.0323299,0.00827921,1.34307,0.0193919,0.0103384,1308,407,1.99247,9.45438
91,617,2.02881,-9.42993,0.00921244,0.0289886,0.00492045,0.0301452,0.00805584,1.33993,0.018022,0.0100705,1315,407,2.02882,9.42992
98,617,2.05444,-9.40604,0.00842278,0.0260982,0.00430914,0.0270928,0.00742821,1.34396,0.0161651,0.0112341,1322,407,2.05449,9.40605
105,617,2.0426,-9.37445,0.00761444,0.0226376,0.00396959,0.0236219,0.00663005,1.32772,0.0140687,0.0123361,1329,407,2.04266,9.37445
112,617,2.02661,-9.33096,0.00668331,0.018948,0.00320297,0.0197341,0.00589723,1.33013,0.0116968,0.0148556,1336,407,2.02665,9.33095
119,617,2.06079,-9.27536,0.00553933,0.0155796,0.00254797,0.0161892,0.00492973,1.33596,0.00958203,0.0169082,1343,407,2.06074,9.27536
126,617,2.0636,-9.23566,0.00507477,0.0117402,0.00278889,0.0127531,0.0040618,1.2224,0.00752299,0.0196593,1350,407,2.06364,9.23565
133,617,2.04688,-9.18716,0.00451547,0.0087895,0.00280066,0.0101753,0.00312962,1.1113,0.00601802,0.0171277,1357,407,2.04693,9.18717
140,617,2.08057,-9.16885,0.00366188,0.00624889,0.00263754,0.00789303,0.00201774,1.01338,0.00473498,0.0151154,1364,407,2.08063,9.16886
147,617,2.05945,-9.15314,0.00310622,0.00382618,0.00227168,0.00576622,0.00116618,0.863978,0.00352041,0.018738,1371,407,2.05943,9.15314
154,617,2.06763,-9.08362,0.00265926,0.00199465,0.00191038,0.00426602,0.000387889,0.699287,0.00272394,0.0205785,1378,407,2.06764,9.08362
161,617,2.09045,-8.98447,0.00227996,0.000939818,0.00167882,0.00341749,-0.000197713,0.595519,0.00234701,0.0206793,1385,407,2.09043,8.98446
168,617,2.11157,-8.94235,0.00199758,-4.66048e-05,0.00122061,0.00256752,-0.00061654,0.436842,0.00194996,0.0197082,1392,407,2.11163,8.94234
175,617,2.1333,-8.91437,0.00183457,-0.000243614,0.000827559,0.00212385,-0.000532892,0.336279,0.00162296,0.0171117,1399,407,2.13334,8.91436
182,617,2.12927,-8.85312,0.00144098,-0.000670201,0.000344713,0.00149584,-0.00072506,0.157821,0.00130772,0.0105664,1406,407,2.1293,8.85313
189,617,2.13184,-8.76834,0.00113949,-0.00033232,5.57319e-05,0.0011416,-0.000334427,0.037794,0.000893651,0.00959644,1413,407,2.13182,8.76835
196,617,2.12598,-8.71152,0.000829337,-0.000112285,-0.000255914,0.000894394,-0.000177342,-0.248943,0.000663327,0.0134926,1420,407,2.12602,8.71152
203,617,2.10486,-8.65671,0.000731945,0.000260843,-0.000307358,0.000883631,0.000109156,-0.458449,0.000556284,0.0145268,1427,407,2.10488,8.65671
210,617,2.13989,-8.5863,0.000381317,0.000712669,-0.000397462,0.000977603,0.000116384,-0.982865,0.000616613,0.0145393,1434,407,2.13991,8.5863
217,617,2.13672,-8.44867,-2.96811e-05,0.000993435,-0.000223128,0.00103998,-7.62248e-05,-1.36515,0.000720073,0.0190562,1441,407,2.13674,8.44868
224,617,2.12488,-8.35461,-4.60264e-05,0.00115796,-2.87842e-05,0.00115864,-4.67141e-05,-1.54691,0.000788462,0.0186745,1448,407,2.12494,8.3546
231,617,2.15308,-8.29214,0.000100287,0.00127,0.000189992,0.00130008,7.02013e-05,1.41375,0.000844294,0.0139607,1455,407,2.15307,8.29214
238,617,2.15906,-8.23932,0.00018703,0.0013166,0.000444883,0.00147077,3.28548e-05,1.2372,0.000969747,0.0143503,1462,407,2.15911,8.23932
245,617,2.16418,-8.17215,-1.21569e-05,0.0010082,0.000434888,0.0011684,-0.000172359,1.21785,0.000842285,0.0125731,1469,407,2.1642,8.17215
252,617,2.13794,-8.03809,-7.67557e-05,0.000844434,0.000521965,0.00107997,-0.00031229,1.14691,0.000843569,0.013444,1476,407,2.13789,8.03808
259,617,2.12646,-7.93533,-0.000292719,0.000822834,0.000693695,0.00115518,-0.00062507,1.12401,0.00104291,0.0112177,1483,407,2.12651,7.93532
266,617,2.12158,-7.82819,-0.000645732,0.00115818,0.000759742,0.00143552,-0.000923069,1.22078,0.0013724,0.012993,1490,407,2.12153,7.82819
273,617,2.13196,-7.71304,-0.000968148,0.00143108,0.000870096,0.0017134,-0.00125047,1.25704,0.00171814,0.0137395,1497,407,2.13193,7.71305
280,617,2.13391,-7.6283,-0.00129953,0.00172985,0.000993025,0.00202634,-0.00159602,1.28065,0.00209629,0.0125879,1504,407,2.1339,7.6283
287,617,2.1156,-7.52258,-0.00153064,0.00190522,0.00115532,0.00225756,-0.00188299,1.27478,0.0023938,0.0116291,1511,407,2.11566,7.52258
294,617,2.1228,-7.40189,-0.00181142,0.0024473,0.00132045,0.00282348,-0.00218761,1.29326,0.00290091,0.0102746,1518,407,2.12281,7.40188
301,617,2.12756,-7.28268,-0.00194774,0.00304808,0.0014983,0.00346298,-0.00236263,1.30065,0.00338336,0.00826314,1525,407,2.12758,7.28269
308,617,2.12537,-7.16208,-0.00187174,0.00353211,0.00182767,0.0040922,-0.00243183,1.27343,0.0038071,0.00808125,1532,407,2.12532,7.16208
315,617,2.12195,-7.03336,-0.0015748,0.00386575,0.00222638,0.00466068,-0.00236973,1.22785,0.00413022,0.00937141,1539,407,2.12191,7.03336
322,617,2.12207,-6.91895,-0.00097237,0.00418827,0.00279884,0.00541473,-0.00219882,1.1578,0.00452451,0.0117034,1546,407,2.12206,6.91894
329,617,2.1167,-6.80649,-0.00023781,0.00434945,0.00357694,0.00630496,-0.00219333,1.07049,0.00509431,0.012254,1553,407,2.11674,6.8065
336,617,2.1676,-6.66919,0.000299217,0.00449443,0.004362,0.00723697,-0.00244332,1.00952,0.00581285,0.0269872,1560,407,2.16759,6.66919
343,617,2.12708,-6.34692,0,0,0,0,0,0,0,-1,1567,407,2.12702,6.34693
350,617,2.20532,-6.34988,0,0,0,0,0,0,0,-1,1574,407,2.20526,6.34988
357,617,2.47241,-6.30441,0,0,0,0,0,0,0,-1,1581,407,2.47242,6.30443
364,617,2.45825,-5.81165,0,0,0,0,0,0,0,-1,1588,407,2.4582,5.81166
371,617,2.6051,-5.60654,0,0,0,0,0,0,0,-1,1595,407,2.60506,5.60654
378,617,2.65283,-5.68994,0,0,0,0,0,0,0,-1,1602,407,2.65289,5.68994
385,617,1.37012,-5.41284,0,0,0,0,0,0,0,-1,1609,407,1.37016,5.41286
392,617,3.40723,-2.54929,0,0,0,0,0,0,0,-1,1616,407,3.40725,2.54929
399,617,3.25,-2.14835,0,0,0,0,0,0,0,-1,1623,407,3.25006,2.14836
406,617,3.02429,-3.19577,0,0,0,0,0,0,0,-1,1630,407,3.02431,3.19577
413,617,2.92786,-3.80649,0,0,0,0,0,0,0,-1,1637,407,2.92788,3.8065
420,617,3.42737,-4.47391,0,0,0,0,0,0,0,-1,1644,407,3.42737,4.47391
427,617,0,0,0,0,0,0,0,0,0,-1,1651,407,0,0
434,617,0,0,0,0,0,0,0,0,0,-1,1658,407,0,0
441,617,0,0,0,0,0,0,0,0,0,-1,1665,407,0,0
448,617,0,0,0,0,0,0,0,0,0,-1,1672,407,0,0
455,617,0,0,0,0,0,0,0,0,0,-1,1679,407,0,0
462,617,0,0,0,0,0,0,0,0,0,-1,1686,407,0,0
469,617,0,0,0,0,0,0,0,0,0,-1,1693,407,0,0
476,617,0,0,0,0,0,0,0,0,0,-1,1700,407,0,0
483,617,0,0,0,0,0,0,0,0,0,-1,1707,407,0,0
490,617,0,0,0,0,0,0,0,0,0,-1,1714,407,0,0
497,617,0,0,0,0,0,0,0,0,0,-1,1721,407,0,0
504,617,0,0,0,0,0,0,0,0,0,-1,1728,407,0,0
511,617,0,0,0,0,0,0,0,0,0,-1,1735,407,0,0
518,617,0,0,0,0,0,0,0,0,0,-1,1742,407,0,0
525,617,0,0,0,0,0,0,0,0,0,-1,1749,407,0,0
532,617,0,0,0,0,0,0,0,0,0,-1,1756,407,0,0
539,617,0,0,0,0,0,0,0,0,0,-1,1763,407,0,0
546,617,0,0,0,0,0,0,0,0,0,-1,1770,407,0,0
553,617,0,0,0,0,0,0,0,0,0,-1,1777,407,0,0
560,617,0,0,0,0,0,0,0,0,0,-1,1784,407,0,0
567,617,0,0,0,0,0,0,0,0,0,-1,1791,407,0,0
574,617,0,0,0,0,0,0,0,0,0,-1,1798,407,0,0
581,617,0,0,0,0,0,0,0,0,0,-1,1805,407,0,0
588,617,0,0,0,0,0,0,0,0,0,-1,1812,407,0,0
595,617,0,0,0,0,0,0,0,0,0,-1,1819,407,0,0
602,617,0,0,0,0,0,0,0,0,0,-1,1826,407,0,0
609,617,0,0,0,0,0,0,0,0,0,-1,1833,407,0,0
616,617,0,0,0,0,0,0,0,0,0,-1,1840,407,0,0
623,617,0,0,0,0,0,0,0,0,0,-1,1847,407,0,0
630,617,0,0,0,0,0,0,0,0,0,-1,1854,407,0,0
637,617,0,0,0,0,0,0,0,0,0,-1,1861,407,0,0
644,617,0,0,0,0,0,0,0,0,0,-1,1868,407,0,0
651,617,0,0,0,0,0,0,0,0,0,-1,1875,407,0,0
658,617,0,0,0,0,0,0,0,0,0,-1,1882,407,0,0
665,617,0,0,0,0,0,0,0,0,0,-1,1889,407,0,0
672,617,0,0,0,0,0,0,0,0,0,-1,1896,407,0,0
679,617,0,0,0,0,0,0,0,0,0,-1,1903,407,0,0
686,617,0,0,0,0,0,0,0,0,0,-1,1910,407,0,0
693,617,0,0,0,0,0,0,0,0,0,-1,1917,407,0,0
700,617,0,0,0,0,0,0,0,0,0,-1,1924,407,0,0
707,617,0,0,0,0,0,0,0,0,0,-1,1931,407,0,0
714,617,0,0,0,0,0,0,0,0,0,-1,1938,407,0,0
721,617,0,0,0,0,0,0,0,0,0,-1,1945,407,0,0
728,617,0,0,0,0,0,0,0,0,0,-1,1952,407,0,0
735,617,0,0,0,0,0,0,0,0,0,-1,1959,407,0,0
742,617,0,0,0,0,0,0,0,0,0,-1,1966,407,0,0
749,617,0,0,0,0,0,0,0,0,0,-1,1973,407,0,0
756,617,0,0,0,0,0,0,0,0,0,-1,1980,407,0,0
763,617,0,0,0,0,0,0,0,0,0,-1,1987,407,0,0
770,617,0,0,0,0,0,0,0,0,0,-1,1994,407,0,0
777,617,0,0,0,0,0,0,0,0,0,-1,2001,407,0,0
784,617,0,0,0,0,0,0,0,0,0,-1,2008,407,0,0
791,617,0,0,0,0,0,0,0,0,0,-1,2015,407,0,0
798,617,0,0,0,0,0,0,0,0,0,-1,2022,407,0,0
805,617,0,0,0,0,0,0,0,0,0,-1,2029,407,0,0
812,617,0,0,0,0,0,0,0,0,0,-1,2036,407,0,0
-700,610,0,0,0,0,0,0,0,0,0,-1,524,414,0,0
-693,610,0,0,0,0,0,0,0,0,0,-1,531,414,0,0
-686,610,0,0,0,0,0,0,0,0,0,-1,538,414,0,0
-679,610,0,0,0,0,0,0,0,0,0,-1,545,414,0,0
-672,610,0,0,0,0,0,0,0,0,0,-1,552,414,0,0
-665,610,0,0,0,0,0,0,0,0,0,-1,559,414,0,0
-658,610,0,0,0,0,0,0,0,0,0,-1,566,414,0,0
-651,610,0,0,0,0,0,0,0,0,0,-1,573,414,0,0
-644,610,0,0,0,0,0,0,0,0,0,-1,580,414,0,0
-637,610,0,0,0,0,0,0,0,0,0,-1,587,414,0,0
-630,610,0,0,0,0,0,0,0,0,0,-1,594,414,0,0
-623,610,0,0,0,0,0,0,0,0,0,-1,601,414,0,0
-616,610,0,0,0,0,0,0,0,0,0,-1,608,414,0,0
-609,610,0,0,0,0,0,0,0,0,0,-1,615,414,0,0
-602,610,0,0,0,0,0,0,0,0,0,-1,622,414,0,0
-595,610,0,0,0,0,0,0,0,0,0,-1,629,414,0,0
-588,610,0,0,0,0,0,0,0,0,0,-1,636,414,0,0
-581,610,0,0,0,0,0,0,0,0,0,-1,643,414,0,0
-574,610,0,0,0,0,0,0,0,0,0,-1,650,414,0,0
-567,610,0,0,0,0,0,0,0,0,0,-1,657,414,0,0
-560,610,0,0,0,0,0,0,0,0,0,-1,664,414,0,0
-553,610,0,0,0,0,0,0,0,0,0,-1,671,414,0,0
-546,610,0,0,0,0,0,0,0,0,0,-1,678,414,0,0
-539,610,0,0,0,0,0,0,0,0,0,-1,685,414,0,0
-532,610,0,0,0,0,0,0,0,0,0,-1,692,414,0,0
-525,610,0,0,0,0,0,0,0,0,0,-1,699,414,0,0
-518,610,0,0,0,0,0,0,0,0,0,-1,706,414,0,0
-511,610,0,0,0,0,0,0,0,0,0,-1,713,414,0,0
-504,610,0,0,0,0,0,0,0,0,0,-1,720,414,0,0
-497,610,0,0,0,0,0,0,0,0,0,-1,727,414,0,0
-490,610,0,0,0,0,0,0,0,0,0,-1,734,414,0,0
-483,610,0,0,0,0,0,0,0,0,0,-1,741,414,0,0
-476,610,0,0,0,0,0,0,0,0,0,-1,748,414,0,0
-469,610,0,0,0,0,0,0,0,0,0,-1,755,414,0,0
-462,610,0,0,0,0,0,0,0,0,0,-1,762,414,0,0
-455,610,0,0,0,0,0,0,0,0,0,-1,769,414,0,0
-448,610,0,0,0,0,0,0,0,0,0,-1,776,414,0,0
-441,610,0,0,0,0,0,0,0,0,0,-1,783,414,0,0
-434,610,0,0,0,0,0,0,0,0,0,-1,790,414,0,0
-427,610,0,0,0,0,0,0,0,0,0,-1,797,414,0,0
-420,610,0,0,0,0,0,0,0,0,0,-1,804,414,0,0
-413,610,0,0,0,0,0,0,0,0,0,-1,811,414,0,0
-406,610,0,0,0,0,0,0,0,0,0,-1,818,414,0,0
-399,610,0,0,0,0,0,0,0,0,0,-1,825,414,0,0
-392,610,0,0,0,0,0,0,0,0,0,-1,832,414,0,0
-385,610,0,0,0,0,0,0,0,0,0,-1,839,414,0,0
-378,610,0,0,0,0,0,0,0,0,0,-1,846,414,0,0
-371,610,0,0,0,0,0,0,0,0,0,-1,853,414,0,0
-364,610,0,0,0,0,0,0,0,0,0,-1,860,414,0,0
-357,610,0,0,0,0,0,0,0,0,0,-1,867,414,0,0
-350,610,0,0,0,0,0,0,0,0,0,-1,874,414,0,0
-343,610,0,0,0,0,0,0,0,0,0,-1,881,414,0,0
-336,610,0,0,0,0,0,0,0,0,0,-1,888,414,0,0
-329,610,0,0,0,0,0,0,0,0,0,-1,895,414,0,0
-322,610,0,0,0,0,0,0,0,0,0,-1,902,414,0,0
-315,610,4.19971,-8.80606,0,0,0,0,0,0,0,-1,909,414,4.19972,8.80606
-308,610,4.86316,-7.87192,0.0315857,0.0399326,0.182769,0.218576,-0.147058,0.796813,0.212441,0.0444775,916,414,4.86317,7.87193
-301,610,4.92957,-7.07779,0.0296649,0.0303902,0.153374,0.183402,-0.123347,0.78658,0.178229,0.0478914,923,414,4.92957,7.07778
-294,610,5.0918,-6.28671,0,0,0,0,0,0,0,-1,930,414,5.09183,6.28671
-287,610,-0.659546,-9.21835,0,0,0,0,0,0,0,-1,937,414,-0.65956,9.21835
-280,610,-0.524048,-8.94217,0,0,0,0,0,0,0,-1,944,414,-0.524063,8.94217
-273,610,0.0860596,-8.49475,0,0,0,0,0,0,0,-1,951,414,0.0860349,8.49476
-266,610,0.935852,-7.97665,0,0,0,0,0,0,0,-1,958,414,0.935865,7.97665
-259,610,1.93713,-6.31357,0,0,0,0,0,0,0,-1,965,414,1.93712,6.31356
-252,610,1.9942,-6.66422,0,0,0,0,0,0,0,-1,972,414,1.99419,6.66421
-245,610,1.58698,-7.35028,0.0138999,0.00229027,-0.00691529,0.0171238,-0.000933593,-0.436238,0.0117394,0.0420052,979,414,1.587,7.35028
-238,610,1.88696,-7.02539,0.0123969,0.00334491,-0.00719257,0.016369,-0.000627187,-0.50457,0.0111276,0.0393145,986,414,1.88697,7.0254
-231,610,1.87109,-7.00552,0.0105621,0.00407454,-0.00652642,0.0146064,3.022e-05,-0.554768,0.00972753,0.0329998,993,414,1.87108,7.00553
-224,610,1.86157,-7.19998,0.00861837,0.00474992,-0.00586927,0.0128639,0.000504373,-0.626227,0.00841286,0.0244286,1000,414,1.86158,7.19997
-217,610,1.84601,-7.33353,0.00678522,0.00523596,-0.00515087,0.0112194,0.0008018,-0.710763,0.00722716,0.0159133,1007,414,1.84598,7.33353
-210,610,1.81171,-7.46045,0.00493207,0.00505324,-0.0044066,0.00939968,0.000585639,-0.792272,0.00608065,0.0106624,1014,414,1.81172,7.46044
-203,610,1.77753,-7.58221,0.00319777,0.00463806,-0.00360288,0.00759206,0.000243773,-0.884038,0.0049821,0.0126268,1021,414,1.77752,7.58221
-196,610,1.76343,-7.70316,0.00172099,0.00369181,-0.00305023,0.00591186,-0.000499055,-0.941637,0.00411768,0.0134718,1028,414,1.76339,7.70315
-189,610,1.76563,-7.81024,0.000607585,0.00322467,-0.00252723,0.00476203,-0.000929775,-1.02428,0.00352572,0.0108218,1035,414,1.76563,7.81025
-182,610,1.7616,-7.90277,0.00038609,0.00195356,-0.002214,0.00351845,-0.0011788,-0.95551,0.00282187,0.0106671,1042,414,1.76161,7.90276
-175,610,1.7561,-7.96982,7.65707e-05,0.000594005,-0.00167843,0.00203354,-0.00136296,-0.861867,0.00197367,0.0103257,1049,414,1.75614,7.96982
-168,610,1.75244,-8.04813,8.64041e-05,-0.000525025,-0.00147447,0.00128652,-0.00172514,-0.683177,0.00174492,0.010463,1056,414,1.75239,8.04814
-161,610,1.74707,-8.18799,0.000266727,-0.00148634,-0.00130459,0.000961906,-0.00218152,-0.489596,0.00185983,0.011313,1063,414,1.74711,8.18798
-154,610,1.73987,-8.28528,0.000363626,-0.0023236,-0.00107443,0.000740389,-0.00270036,-0.337266,0.00209119,0.012985,1070,414,1.73988,8.28529
-147,610,1.75183,-8.34793,0.000577116,-0.00300441,-0.00087931,0.000781351,-0.00320864,-0.228221,0.00244158,0.0135692,1077,414,1.75182,8.34793
-140,610,1.76001,-8.43622,0.000869751,-0.00358158,-0.000674125,0.000969603,-0.00368143,-0.147052,0.00283334,0.0113068,1084,414,1.76005,8.43622
-133,610,1.7594,-8.51895,0.00107596,-0.00392975,-0.000552679,0.00113625,-0.00399005,-0.108666,0.00310879,0.0125572,1091,414,1.75935,8.51896
-126,610,1.73926,-8.6015,0.00122379,-0.0040406,-0.000451968,0.00126231,-0.00407912,-0.0850245,0.00322365,0.0121499,1098,414,1.73922,8.60149
-119,610,1.73047,-8.67917,0.00138842,-0.00390581,-0.000320758,0.00140778,-0.00392517,-0.0602925,0.00319128,0.0108229,1105,414,1.7305,8.67917
-112,610,1.77417,-8.7605,0.00153316,-0.0036495,-0.000242017,0.00154444,-0.00366078,-0.0465623,0.00308692,0.0179832,1112,414,1.7742,8.76051
-105,610,1.76001,-8.83203,0.0015932,-0.00311459,-0.000181379,0.00160018,-0.00312156,-0.0384515,0.00277287,0.0172415,1119,414,1.75997,8.83203
-98,610,1.74609,-8.89981,0.00163639,-0.00265199,-0.000198862,0.00164559,-0.00266119,-0.04624,0.00250946,0.0115956,1126,414,1.74609,8.89982
-91,610,1.75146,-8.95795,0.00173505,-0.00203095,-0.000324365,0.00176278,-0.00205868,-0.0852928,0.00220853,0.012327,1133,414,1.75141,8.95795
-84,610,1.76379,-9.01596,0.00185419,-0.00148977,-0.000416094,0.00190519,-0.00154077,-0.121954,0.00199323,0.0130003,1140,414,1.76373,9.01596
-77,610,1.7655,-9.08884,0.00199234,-0.000981243,-0.000445988,0.00205779,-0.00104669,-0.145713,0.00182378,0.0105821,1147,414,1.76547,9.08883
-70,610,1.77563,-9.12213,0.00209247,-0.000294806,-0.000449927,0.00217446,-0.000376787,-0.180234,0.00159018,0.0126322,1154,414,1.77567,9.12215
-63,610,1.79993,-9.16711,0.00186459,0.000481577,-0.000434133,0.00198958,0.000356596,-0.280307,0.00122494,0.0110025,1161,414,1.79994,9.16711
-56,610,1.81018,-9.19589,0.00154868,0.00116708,-0.000364525,0.00176932,0.000946438,-0.544292,0.00102235,0.00880234,1168,414,1.81016,9.1959
-49,610,1.80676,-9.23596,0.00103482,0.00151076,-0.000370053,0.00171276,0.000832827,-1.07114,0.000988985,0.00940887,1175,414,1.80674,9.23597
-42,610,1.80273,-9.31659,0.000146907,0.00141644,-0.000567593,0.0016332,-6.98484e-05,-1.206,0.00111281,0.0138599,1182,414,1.80273,9.31658
-35,610,1.82544,-9.3631,-0.00053082,0.00175642,-0.000861156,0.00204439,-0.000818793,-1.24808,0.00170279,0.0140381,1189,414,1.82549,9.3631
-28,610,1.83948,-9.37952,0.001721,0.00214312,-0.000845177,0.00280319,0.00106093,-0.907758,0.00163428,0.0115879,1196,414,1.83944,9.3795
-21,610,1.83032,-9.38223,0.00343196,0.00249244,-0.000956233,0.00402759,0.00189681,-0.557082,0.00232664,0.010474,1203,414,1.83035,9.38223
-14,610,1.83215,-9.39667,0.00429805,0.00346824,-0.00111537,0.00507319,0.0026931,-0.607334,0.00293086,0.0117078,1210,414,1.83216,9.39667
-7,610,1.84668,-9.4162,0.00527861,0.00474841,-0.0012693,0.0063102,0.00371682,-0.68245,0.00366239,0.0133388,1217,414,1.84666,9.41621
0,610,1.86865,-9.4321,0.00633217,0.00686476,-0.00143845,0.00806135,0.00513557,-0.876924,0.00471215,0.0105946,1224,414,1.86864,9.43208
7,610,1.88562,-9.44827,0.00770721,0.0102001,-0.000754028,0.0104104,0.00749688,-1.29877,0.00620159,0.0106436,1231,414,1.88559,9.44828
14,610,1.89258,-9.46381,0.00933523,0.0141169,0.000640353,0.0142012,0.00925096,1.43995,0.00832344,0.0126657,1238,414,1.89264,9.46381
21,610,1.90503,-9.46152,0.0102626,0.0192124,0.00142091,0.0194326,0.0100425,1.41707,0.0112215,0.0116627,1245,414,1.90499,9.46151
28,610,1.93762,-9.49142,0.0112056,0.0241702,0.00242617,0.0246094,0.0107665,1.39173,0.0142452,0.0114397,1252,414,1.93765,9.49142
35,610,1.9519,-9.50717,0.0124012,0.0290882,0.00365823,0.0298549,0.0116344,1.36419,0.017376,0.0147913,1259,414,1.95195,9.50718
42,610,1.9696,-9.49335,0.0134389,0.0340061,0.00505996,0.0351836,0.0122614,1.34217,0.0206217,0.0146274,1266,414,1.96959,9.49335
49,610,1.95923,-9.50867,0.0143202,0.0383354,0.00625893,0.0398688,0.0127869,1.33055,0.0235063,0.0143877,1273,414,1.95929,9.50865
56,610,1.96643,-9.49927,0.0150548,0.0415868,0.00707952,0.0433576,0.013284,1.32569,0.0256505,0.0124232,1280,414,1.96648,9.49927
63,610,1.98071,-9.48099,0.0155748,0.0440306,0.00773137,0.0459955,0.0136099,1.32192,0.0272831,0.0156508,1287,414,1.98073,9.48098
70,610,2.04626,-9.43777,0.0156668,0.0448353,0.00799961,0.0468852,0.0136169,1.31995,0.0278505,0.0214777,1294,414,2.04624,9.43779
77,610,2.05054,-9.44583,0.014983,0.044471,0.00802585,0.0465139,0.0129401,1.32155,0.0277216,0.027935,1301,414,2.05055,9.44583
84,610,2.01733,-9.41904,0.0145763,0.0429335,0.00777033,0.0449231,0.0125867,1.32013,0.0267588,0.0291347,1308,414,2.01734,9.41902
91,610,2.0802,-9.40344,0.0143163,0.0403833,0.00745551,0.042365,0.0123345,1.311,0.0251607,0.025186,1315,414,2.08014,9.40343
98,610,2.10242,-9.38925,0.0133701,0.0368046,0.00683777,0.0386538,0.0115209,1.30667,0.0229155,0.0246991,1322,414,2.1024,9.38925
105,610,2.09265,-9.35004,0.0123659,0.0326975,0.00654613,0.0346228,0.0104406,1.28475,0.0205076,0.0189713,1329,414,2.09269,9.35003
112,610,2.06165,-9.31146,0.0111265,0.0282331,0.00571689,0.0299677,0.00939182,1.2762,0.017699,0.0119265,1336,414,2.0616,9.31147
119,610,2.06189,-9.26971,0.00962107,0.0239322,0.00498835,0.0254993,0.00805391,1.2664,0.0150512,0.0156828,1343,414,2.06195,9.26972
126,610,2.07129,-9.26886,0.008842,0.019194,0.00527437,0.0214079,0.00662815,1.17339,0.012655,0.0219377,1350,414,2.07123,9.26885
133,610,2.0946,-9.22165,0.00792399,0.0155692,0.00535635,0.0183271,0.0051661,1.09531,0.0109116,0.0182308,1357,414,2.09456,9.22164
140,610,2.1272,-9.1752,0.00677889,0.0122888,0.00518538,0.0154057,0.00366206,1.02958,0.00929346,0.014175,1364,414,2.12724,9.17519
147,610,2.11523,-9.11563,0.00597201,0.00886105,0.00462308,0.01226,0.00257303,0.936821,0.00746499,0.0157437,1371,414,2.11521,9.11564
154,610,2.11206,-9.05286,0.00512629,0.00601685,0.00389384,0.00949079,0.00165236,0.842328,0.00585466,0.0201146,1378,414,2.11203,9.05284
161,610,2.13086,-8.99359,0.00432536,0.00416953,0.00338678,0.00763512,0.000859768,0.773897,0.00482907,0.0239467,1385,414,2.13087,8.99358
168,610,2.16016,-8.95279,0.00349926,0.00201763,0.00245432,0.00532213,0.000194766,0.638825,0.00348498,0.0251199,1392,414,2.16015,8.95278
175,610,2.17395,-8.89334,0.00301213,0.000927717,0.00160673,0.00388506,5.47833e-05,0.497685,0.00257197,0.020988,1399,414,2.17391,8.89335
182,610,2.17712,-8.82138,0.00221698,-0.000690131,0.00054164,0.00231462,-0.000787768,0.178346,0.00186207,0.014633,1406,414,2.17716,8.82138
189,610,2.21191,-8.76913,0.00178449,-0.000293682,-1.56725e-05,0.00178461,-0.0002938,-0.00754088,0.0012988,0.012316,1413,414,2.21192,8.76914
196,610,2.20154,-8.71439,0.00129465,-0.000174755,-0.000720969,0.00158931,-0.000469412,-0.387981,0.00124585,0.0125804,1420,414,2.20159,8.71438
203,610,2.18164,-8.64597,0.00123831,0.000350601,-0.000874508,0.00177515,-0.000186244,-0.550564,0.00125015,0.0144008,1427,414,2.18162,8.64598
210,610,2.20288,-8.56104,0.000795103,0.000931771,-0.00109302,0.00195859,-0.00023172,-0.816617,0.00138943,0.0113803,1434,414,2.20282,8.56103
217,610,2.21228,-8.46811,0.000244114,0.00122122,-0.000905961,0.00176196,-0.000296629,-1.03268,0.00128498,0.0161516,1441,414,2.21228,8.4681
224,610,2.20349,-8.37845,0.000232718,0.00134726,-0.000698394,0.00168347,-0.000103489,-1.12214,0.00115835,0.0193907,1448,414,2.20353,8.37844
231,610,2.20862,-8.29669,0.000313296,0.00142071,-0.000485268,0.00160326,0.000130744,-1.21099,0.00102804,0.0152121,1455,414,2.20859,8.2967
238,610,2.23499,-8.23947,0.000398959,0.00141457,-0.000252703,0.00147397,0.000339556,-1.33992,0.000891289,0.0110569,1462,414,2.23494,8.23946
245,610,2.2467,-8.14813,0.000337612,0.00117904,-0.000177263,0.00121486,0.000301793,-1.37141,0.000730393,0.0121294,1469,414,2.24667,8.14814
252,610,2.245,-8.02139,0.00029548,0.00101139,-7.02928e-05,0.00101823,0.000288643,-1.47384,0.000605968,0.0133327,1476,414,2.24505,8.02138
259,610,2.22998,-7.91772,0.000156386,0.000896387,0.000103003,0.000910456,0.000142316,1.43504,0.000565533,0.0115539,1483,414,2.23,7.91773
266,610,2.22644,-7.819,-0.000103542,0.00106619,0.000185755,0.00109498,-0.000132331,1.41703,0.000777859,0.0117586,1490,414,2.22648,7.819
273,610,2.22986,-7.72803,-0.000356352,0.00125481,0.000317811,0.00131523,-0.000416776,1.38291,0.00104386,0.00983047,1497,414,2.2298,7.72803
280,610,2.21729,-7.62775,-0.000606867,0.00143331,0.00047009,0.00153642,-0.000709973,1.35488,0.00132589,0.00968247,1504,414,2.21734,7.62773
287,610,2.20923,-7.50659,-0.0007587,0.00152805,0.000662612,0.00170618,-0.000936824,1.30818,0.00154734,0.0123887,1511,414,2.20919,7.50658
294,610,2.23779,-7.38974,-0.000934575,0.00188439,0.000860606,0.00212635,-0.00117654,1.29671,0.00193303,0.0110153,1518,414,2.2378,7.38973
301,610,2.25391,-7.30319,-0.00101013,0.00229301,0.00104739,0.00259713,-0.00131425,1.28821,0.00229837,0.010376,1525,414,2.25389,7.3032
308,610,2.25916,-7.18271,-0.000913709,0.00262287,0.00136619,0.00308916,-0.00137999,1.24189,0.00264241,0.0118368,1532,414,2.25921,7.1827
315,610,2.22925,-7.05447,-0.000640741,0.00284317,0.00175274,0.00357235,-0.00136992,1.17655,0.00294635,0.0121726,1539,414,2.22925,7.05449
322,610,2.21155,-6.91302,-0.00015904,0.00302999,0.00226657,0.00420672,-0.00133577,1.09193,0.00333999,0.0118754,1546,414,2.21158,6.91303
329,610,2.19958,-6.77649,0.000398216,0.00308636,0.00293209,0.00496776,-0.00148319,1.00031,0.00390137,0.0113213,1553,414,2.19962,6.77649
336,610,2.22009,-6.6192,0.000806767,0.00316147,0.00359806,0.00576991,-0.00180167,0.943516,0.0045672,0.012341,1560,414,2.22004,6.6192
343,610,2.23804,-6.48105,0.00157479,0.00316688,0.00427841,0.00672267,-0.001981,0.877376,0.00526778,0.022584,1567,414,2.23799,6.48106
350,610,2.23157,-6.43286,0.00285608,0.0036816,0.00556825,0.00885236,-0.00231468,0.822394,0.00680564,0.0358342,1574,414,2.23155,6.43286
357,610,2.33679,-6.35535,0.00325068,0.00350559,0.00645702,0.00983641,-0.00308014,0.795266,0.00779001,0.0435407,1581,414,2.33682,6.35534
364,610,2.33032,-6.02472,0.00382648,0.00322604,0.00727143,0.0108039,-0.00375136,0.764766,0.00872611,0.0421931,1588,414,2.33034,6.02473
371,610,2.51465,-5.8176,0.00434653,0.00236857,0.00835131,0.0117672,-0.00505212,0.726461,0.00996529,0.0476041,1595,414,2.51468,5.8176
378,610,2.58716,-5.78525,0.00422224,0.00272195,0.00929181,0.0127941,-0.00584995,0.74512,0.0110102,0.0486999,1602,414,2.58713,5.78526
385,610,2.27087,-5.54062,0,0,0,0,0,0,0,-1,1609,414,2.27089,5.5406
392,610,2.54626,0.0437622,0,0,0,0,0,0,0,-1,1616,414,2.54632,-0.0437683
399,610,3.03833,-2.82547,0,0,0,0,0,0,0,-1,1623,414,3.03827,2.82546
406,610,2.91687,-2.9166,0,0,0,0,0,0,0,-1,1630,414,2.91688,2.91659
413,610,3.01929,-3.20306,0,0,0,0,0,0,0,-1,1637,414,3.01929,3.20306
420,610,4.78149,-3.64041,0,0,0,0,0,0,0,-1,1644,414,4.78152,3.64042
427,610,5.20764,-4.67545,0,0,0,0,0,0,0,-1,1651,414,5.20759,4.67545
434,610,5.39233,-5.45441,0,0,0,0,0,0,0,-1,1658,414,5.39228,5.4544
441,610,0,0,0,0,0,0,0,0,0,-1,1665,414,0,0
448,610,0,0,0,0,0,0,0,0,0,-1,1672,414,0,0
455,610,0,0,0,0,0,0,0,0,0,-1,1679,414,0,0
462,610,0,0,0,0,0,0,0,0,0,-1,1686,414,0,0
469,610,0,0,0,0,0,0,0,0,0,-1,1693,414,0,0
476,610,0,0,0,0,0,0,0,0,0,-1,1700,414,0,0
483,610,0,0,0,0,0,0,0,0,0,-1,1707,414,0,0
490,610,0,0,0,0,0,0,0,0,0,-1,1714,414,0,0
497,610,0,0,0,0,0,0,0,0,0,-1,1721,414,0,0
504,610,0,0,0,0,0,0,0,0,0,-1,1728,414,0,0
511,610,0,0,0,0,0,0,0,0,0,-1,1735,414,0,0
518,610,0,0,0,0,0,0,0,0,0,-1,1742,414,0,0
525,610,0,0,0,0,0,0,0,0,0,-1,1749,414,0,0
532,610,0,0,0,0,0,0,0,0,0,-1,1756,414,0,0
539,610,0,0,0,0,0,0,0,0,0,-1,1763,414,0,0
546,610,0,0,0,0,0,0,0,0,0,-1,1770,414,0,0
553,610,0,0,0,0,0,0,0,0,0,-1,1777,414,0,0
560,610,0,0,0,0,0,0,0,0,0,-1,1784,414,0,0
567,610,0,0,0,0,0,0,0,0,0,-1,1791,414,0,0
574,610,0,0,0,0,0,0,0,0,0,-1,1798,414,0,0
581,610,0,0,0,0,0,0,0,0,0,-1,1805,414,0,0
588,610,0,0,0,0,0,0,0,0,0,-1,1812,414,0,0
595,610,0,0,0,0,0,0,0,0,0,-1,1819,414,0,0
602,610,0,0,0,0,0,0,0,0,0,-1,1826,414,0,0
609,610,0,0,0,0,0,0,0,0,0,-1,1833,414,0,0
616,610,0,0,0,0,0,0,0,0,0,-1,1840,414,0,0
623,610,0,0,0,0,0,0,0,0,0,-1,1847,414,0,0
630,610,0,0,0,0,0,0,0,0,0,-1,1854,414,0,0
637,610,0,0,0,0,0,0,0,0,0,-1,1861,414,0,0
644,610,0,0,0,0,0,0,0,0,0,-1,1868,414,0,0
651,610,0,0,0,0,0,0,0,0,0,-1,1875,414,0,0
658,610,0,0,0,0,0,0,0,0,0,-1,1882,414,0,0
665,610,0,0,0,0,0,0,0,0,0,-1,1889,414,0,0
672,610,0,0,0,0,0,0,0,0,0,-1,1896,414,0,0
679,610,0,0,0,0,0,0,0,0,0,-1,1903,414,0,0
686,610,0,0,0,0,0,0,0,0,0,-1,1910,414,0,0
693,610,0,0,0,0,0,0,0,0,0,-1,1917,414,0,0
700,610,0,0,0,0,0,0,0,0,0,-1,1924,414,0,0
707,610,0,0,0,0,0,0,0,0,0,-1,1931,414,0,0
714,610,0,0,0,0,0,0,0,0,0,-1,1938,414,0,0
721,610,0,0,0,0,0,0,0,0,0,-1,1945,414,0,0
728,610,0,0,0,0,0,0,0,0,0,-1,1952,414,0,0
735,610,0,0,0,0,0,0,0,0,0,-1,1959,414,0,0
742,610,0,0,0,0,0,0,0,0,0,-1,1966,414,0,0
749,610,0,0,0,0,0,0,0,0,0,-1,1973,414,0,0
756,610,0,0,0,0,0,0,0,0,0,-1,1980,414,0,0
763,610,0,0,0,0,0,0,0,0,0,-1,1987,414,0,0
770,610,0,0,0,0,0,0,0,0,0,-1,1994,414,0,0
777,610,0,0,0,0,0,0,0,0,0,-1,2001,414,0,0
784,610,0,0,0,0,0,0,0,0,0,-1,2008,414,0,0
791,610,0,0,0,0,0,0,0,0,0,-1,2015,414,0,0
798,610,0,0,0,0,0,0,0,0,0,-1,2022,414,0,0
805,610,0,0,0,0,0,0,0,0,0,-1,2029,414,0,0
812,610,0,0,0,0,0,0,0,0,0,-1,2036,414,0,0
-700,603,0,0,0,0,0,0,0,0,0,-1,524,421,0,0
-693,603,0,0,0,0,0,0,0,0,0,-1,531,421,0,0
-686,603,0,0,0,0,0,0,0,0,0,-1,538,421,0,0
-679,603,0,0,0,0,0,0,0,0,0,-1,545,421,0,0
-672,603,0,0,0,0,0,0,0,0,0,-1,552,421,0,0
-665,603,0,0,0,0,0,0,0,0,0,-1,559,421,0,0
-658,603,0,0,0,0,0,0,0,0,0,-1,566,421,0,0
-651,603,0,0,0,0,0,0,0,0,0,-1,573,421,0,0
-644,603,0,0,0,0,0,0,0,0,0,-1,580,421,0,0
-637,603,0,0,0,0,0,0,0,0,0,-1,587,421,0,0
-630,603,0,0,0,0,0,0,0,0,0,-1,594,421,0,0
-623,603,0,0,0,0,0,0,0,0,0,-1,601,421,0,0
-616,603,0,0,0,0,0,0,0,0,0,-1,608,421,0,0
-609,603,0,0,0,0,0,0,0,0,0,-1,615,421,0,0
-602,603,0,0,0,0,0,0,0,0,0,-1,622,421,0,0
-595,603,0,0,0,0,0,0,0,0,0,-1,629,421,0,0
-588,603,0,0,0,0,0,0,0,0,0,-1,636,421,0,0
-581,603,0,0,0,0,0,0,0,0,0,-1,643,421,0,0
-574,603,0,0,0,0,0,0,0,0,0,-1,650,421,0,0
-567,603,0,0,0,0,0,0,0,0,0,-1,657,421,0,0
-560,603,0,0,0,0,0,0,0,0,0,-1,664,421,0,0
-553,603,0,0,0,0,0,0,0,0,0,-1,671,421,0,0
-546,603,0,0,0,0,0,0,0,0,0,-1,678,421,0,0
-539,603,0,0,0,0,0,0,0,0,0,-1,685,421,0,0
-532,603,0,0,0,0,0,0,0,0,0,-1,692,421,0,0
-525,603,0,0,0,0,0,0,0,0,0,-1,699,421,0,0
-518,603,0,0,0,0,0,0,0,0,0,-1,706,421,0,0
-511,603,0,0,0,0,0,0,0,0,0,-1,713,421,0,0
-504,603,0,0,0,0,0,0,0,0,0,-1,720,421,0,0
-497,603,0,0,0,0,0,0,0,0,0,-1,727,421,0,0
-490,603,0,0,0,0,0,0,0,0,0,-1,734,421,0,0
-483,603,0,0,0,0,0,0,0,0,0,-1,741,421,0,0
-476,603,0,0,0,0,0,0,0,0,0,-1,748,421,0,0
-469,603,0,0,0,0,0,0,0,0,0,-1,755,421,0,0
-462,603,0,0,0,0,0,0,0,0,0,-1,762,421,0,0
-455,603,0,0,0,0,0,0,0,0,0,-1,769,421,0,0
-448,603,0,0,0,0,0,0,0,0,0,-1,776,421,0,0
-441,603,0,0,0,0,0,0,0,0,0,-1,783,421,0,0
-434,603,0,0,0,0,0,0,0,0,0,-1,790,421,0,0
-427,603,0,0,0,0,0,0,0,0,0,-1,797,421,0,0
-420,603,0,0,0,0,0,0,0,0,0,-1,804,421,0,0
-413,603,0,0,0,0,0,0,0,0,0,-1,811,421,0,0
-406,603,0,0,0,0,0,0,0,0,0,-1,818,421,0,0
-399,603,0,0,0,0,0,0,0,0,0,-1,825,421,0,0
-392,603,0,0,0,0,0,0,0,0,0,-1,832,421,0,0
-385,603,0,0,0,0,0,0,0,0,0,-1,839,421,0,0
-378,603,0,0,0,0,0,0,0,0,0,-1,846,421,0,0
-371,603,0,0,0,0,0,0,0,0,0,-1,853,421,0,0
-364,603,0,0,0,0,0,0,0,0,0,-1,860,421,0,0
-357,603,0,0,0,0,0,0,0,0,0,-1,867,421,0,0
-350,603,0,0,0,0,0,0,0,0,0,-1,874,421,0,0
-343,603,0,0,0,0,0,0,0,0,0,-1,881,421,0,0
-336,603,0,0,0,0,0,0,0,0,0,-1,888,421,0,0
-329,603,2.60486,-10.5288,0.0393749,0.0881577,0.177054,0.242493,-0.11496,0.853848,0.210708,0.0473735,895,421,2.60488,10.5288
-322,603,2.92212,-10.1007,0.0366496,0.0644364,0.170911,0.222018,-0.120932,0.825954,0.200849,0.04696,902,421,2.92213,10.1007
-315,603,3.2041,-9.34003,0.0332528,0.0466133,0.162266,0.202337,-0.122471,0.805971,0.189408,0.0435965,909,421,3.20408,9.34003
-308,603,3.28351,-8.36868,0.0301301,0.0343146,0.143483,0.175721,-0.111276,0.792689,0.167084,0.0449616,916,421,3.28348,8.36868
-301,603,3.22705,-7.12155,0.0272443,0.0254297,0.12183,0.14817,-0.095496,0.781675,0.141772,0.046215,923,421,3.22707,7.12155
-294,603,2.09576,-6.14847,0,0,0,0,0,0,0,-1,930,421,2.09575,6.14846
-287,603,-1.55463,-8.51709,0,0,0,0,0,0,0,-1,937,421,-1.55464,8.51708
-280,603,-0.615967,-8.22064,0,0,0,0,0,0,0,-1,944,421,-0.615986,8.22065
-273,603,1.93085,-6.51489,0,0,0,0,0,0,0,-1,951,421,1.93084,6.51488
-266,603,1.73737,-6.05432,0,0,0,0,0,0,0,-1,958,421,1.7374,6.05433
-259,603,1.75165,-6.3526,0.0133913,0.00236751,0.010837,0.0200375,-0.00427874,0.550139,0.0149896,0.0475207,965,421,1.75164,6.35259
-252,603,1.79858,-6.67877,0.0108468,0.00207888,0.00106276,0.0109738,0.0019519,0.118915,0.00675984,0.0387463,972,421,1.79857,6.67878
-245,603,1.73547,-6.93185,0.00954598,0.00217707,-0.0047281,0.0118557,-0.000132651,-0.454413,0.00794839,0.0285605,979,421,1.73549,6.93187
-238,603,1.73462,-6.98163,0.00853375,0.00283196,-0.00508465,0.0115122,-0.000146493,-0.529893,0.0077241,0.0177835,986,421,1.73465,6.98164
-231,603,1.72687,-7.11481,0.00732503,0.00315301,-0.004633,0.01032,0.000158063,-0.573867,0.00682791,0.0122787,993,421,1.72684,7.11481
-224,603,1.70636,-7.24799,0.00606358,0.00352355,-0.00419124,0.00917299,0.000414134,-0.638287,0.00598207,0.0124064,1000,421,1.70639,7.24798
-217,603,1.69495,-7.353,0.00489506,0.00387582,-0.0037412,0.0081612,0.000609685,-0.717705,0.00524938,0.0117351,1007,421,1.69496,7.35301
-210,603,1.6922,-7.46426,0.00368244,0.00386179,-0.00321429,0.00698765,0.000556578,-0.799344,0.00448444,0.0101889,1014,421,1.69217,7.46425
-203,603,1.68158,-7.5871,0.00247467,0.00361025,-0.00264036,0.00574319,0.00034174,-0.891307,0.00372011,0.0153933,1021,421,1.68161,7.58709
-196,603,1.70178,-7.72012,0.00138237,0.00321169,-0.0022207,0.00469871,-0.000104663,-0.980751,0.00316794,0.0170117,1028,421,1.7018,7.72013
-189,603,1.70166,-7.79959,0.000493207,0.00309444,-0.00192737,0.00411898,-0.00053134,-1.08221,0.00293915,0.0136264,1035,421,1.7017,7.7996
-182,603,1.67944,-7.90591,0.000230894,0.00233286,-0.00180845,0.00337354,-0.000809787,-1.04862,0.00256198,0.00969686,1042,421,1.67942,7.90591
-175,603,1.66138,-7.99997,-4.64154e-05,0.00140769,-0.00146456,0.00231573,-0.000954457,-1.01579,0.0019418,0.0102855,1049,421,1.66136,7.99996
-168,603,1.65405,-8.06445,-5.29175e-05,0.000581013,-0.0013868,0.00168661,-0.00115852,-0.897747,0.00165204,0.0132992,1056,421,1.654,8.06445
-161,603,1.64905,-8.17819,5.45231e-05,-0.000219687,-0.00134648,0.00127086,-0.00143602,-0.734661,0.00156379,0.0135246,1063,421,1.64902,8.17818
-154,603,1.64246,-8.29279,0.000114759,-0.00096332,-0.00122112,0.000910525,-0.00175909,-0.577546,0.00156704,0.0124079,1070,421,1.64248,8.2928
-147,603,1.65552,-8.36487,0.000332018,-0.00166848,-0.00110256,0.000820439,-0.0021569,-0.417008,0.00177576,0.0127766,1077,421,1.65552,8.36487
-140,603,1.68567,-8.43976,0.000673801,-0.00246364,-0.000941546,0.000934669,-0.00272451,-0.270283,0.00219525,0.010641,1084,421,1.68561,8.43974
-133,603,1.68115,-8.51941,0.000968917,-0.00312293,-0.000863141,0.00114354,-0.00329755,-0.199614,0.0026627,0.0111787,1091,421,1.68117,8.51941
-126,603,1.65393,-8.5881,0.00128186,-0.00366936,-0.000751577,0.00139343,-0.00378093,-0.147375,0.00309161,0.0107724,1098,421,1.65389,8.58811
-119,603,1.6698,-8.64722,0.0016206,-0.00400811,-0.00062631,0.00168944,-0.00407696,-0.109486,0.00342303,0.0109666,1105,421,1.66979,8.64722
-112,603,1.69763,-8.74078,0.0019142,-0.00421337,-0.000482298,0.00195192,-0.0042511,-0.078069,0.0036624,0.0159078,1112,421,1.69768,8.74078
-105,603,1.69751,-8.84451,0.00215018,-0.00407675,-0.000342261,0.00216894,-0.00409551,-0.0547448,0.00367335,0.0151989,1119,421,1.69747,8.84451
-98,603,1.69263,-8.884,0.00239256,-0.00398064,-0.000264541,0.00240352,-0.0039916,-0.0414134,0.00372998,0.0116738,1126,421,1.69268,8.884
-91,603,1.68762,-8.92819,0.00262955,-0.00364338,-0.000320739,0.00264591,-0.00365973,-0.0509535,0.00365621,0.0081737,1133,421,1.68758,8.92818
-84,603,1.70764,-9.00137,0.00283225,-0.00321749,-0.00034288,0.00285162,-0.00323686,-0.056436,0.00351753,0.00827043,1140,421,1.70759,9.00136
-77,603,1.71545,-9.0795,0.00301168,-0.00272928,-0.000299813,0.00302729,-0.00274489,-0.0520348,0.0033339,0.00999039,1147,421,1.71543,9.07951
-70,603,1.75989,-9.18964,0.00308199,-0.00190678,-0.000225979,0.0030922,-0.00191699,-0.0451743,0.00291847,0.0190741,1154,421,1.75983,9.18963
-63,603,1.80286,-9.31076,0.0025087,-0.000731792,-0.000249524,0.0025278,-0.000750893,-0.0764016,0.00198346,0.0344311,1161,421,1.80286,9.31075
-56,603,1.77808,-9.45746,0.00182562,0.000455544,-0.000243171,0.0018675,0.000413664,-0.17055,0.00113258,0.0454255,1168,421,1.7781,9.45746
-49,603,1.76233,-9.58838,0,0,0,0,0,0,0,-1,1175,421,1.76236,9.58839
-42,603,1.77356,-9.29691,0,0,0,0,0,0,0,-1,1182,421,1.77352,9.29692
-35,603,1.70898,-9.31653,-0.00171464,0.0022837,-0.00160354,0.00284735,-0.00227829,-1.23279,0.00296536,0.036164,1189,421,1.70894,9.31653
-28,603,1.71655,-9.33652,0.00213886,0.00315071,-0.0015252,0.00425171,0.00103787,-0.945544,0.00255964,0.0223987,1196,421,1.7165,9.33653
-21,603,1.73962,-9.38132,0.00481399,0.0037027,-0.00156406,0.00591818,0.00259851,-0.614722,0.00342531,0.0200936,1203,421,1.73968,9.38132
-14,603,1.77759,-9.39542,0.00621629,0.00534356,-0.00167576,0.00751157,0.00404828,-0.658028,0.00434119,0.0197724,1210,421,1.77757,9.39541
-7,603,1.82605,-9.42236,0.00769905,0.00750522,-0.00174773,0.00935255,0.00585172,-0.757699,0.00545627,0.0215054,1217,421,1.82607,9.42237
0,603,1.82678,-9.44803,0.00913944,0.0101504,-0.0017687,0.0114844,0.00780541,-0.924584,0.0067717,0.024863,1224,421,1.82672,9.44804
7,603,1.8158,-9.42514,0.01102,0.0143191,-0.000863893,0.0145316,0.0108075,-1.32957,0.00871574,0.0292288,1231,421,1.81577,9.42513
14,603,1.93494,-9.43542,0.0131564,0.0196233,0.0010036,0.0197755,0.0130043,1.42032,0.0116049,0.0271302,1238,421,1.93498,9.43541
21,603,1.98425,-9.44742,0.0144378,0.0260951,0.00221252,0.0265009,0.014032,1.3894,0.0153092,0.0202906,1245,421,1.9843,9.44742
28,603,2.02405,-9.46436,0.0156622,0.0323358,0.00358066,0.0330722,0.0149258,1.36796,0.0191244,0.0236333,1252,421,2.0241,9.46436
35,603,2.01367,-9.48248,0.0171112,0.0385111,0.00515751,0.0396893,0.015933,1.34622,0.0230625,0.0325179,1259,421,2.01365,9.48249
42,603,1.9801,-9.46301,0.0182953,0.0446556,0.00690301,0.0463538,0.016597,1.32957,0.0271195,0.0282244,1266,421,1.98013,9.463
49,603,1.98938,-9.49023,0.0192561,0.0500002,0.00845732,0.0521731,0.0170831,1.31931,0.0307144,0.0160143,1273,421,1.98941,9.49022
56,603,1.99634,-9.48007,0.0200939,0.0540528,0.00951524,0.0565372,0.0176095,1.3154,0.0334063,0.0278658,1280,421,1.99639,9.48007
63,603,2.09851,-9.39133,0.0206995,0.0570638,0.0103377,0.0597972,0.0179662,1.3123,0.0354286,0.0362876,1287,421,2.09845,9.39134
70,603,2.1156,-9.30435,0.0207805,0.058076,0.0106357,0.0608958,0.0179607,1.31163,0.0361304,0.0414798,1294,421,2.11557,9.30435
77,603,2.03088,-9.26819,0.0198497,0.0577618,0.0106285,0.0605381,0.0170734,1.31529,0.0360418,0.0488299,1301,421,2.03085,9.26818
84,603,2.05811,-9.40298,0.019377,0.0560153,0.0102409,0.0586835,0.0167088,1.31592,0.034912,0.0475792,1308,421,2.05808,9.40298
91,603,2.1178,-9.38071,0.0191702,0.0531494,0.00990594,0.0558263,0.0164932,1.30686,0.0331183,0.0459421,1315,421,2.1178,9.3807
98,603,2.18738,-9.42883,0.0182545,0.0488368,0.00907434,0.0513266,0.0157647,1.30301,0.0303593,0.0470423,1322,421,2.18739,9.42884
105,603,2.41443,-9.38382,0.0172345,0.0441807,0.00862364,0.0467042,0.014711,1.28612,0.0275732,0.0397564,1329,421,2.41446,9.38383
112,603,2.24646,-9.36871,0.015867,0.0389677,0.00759974,0.0412436,0.0135911,1.27982,0.0242689,0.0319417,1336,421,2.24641,9.36873
119,603,2.18237,-9.30066,0.0142693,0.0337425,0.00668135,0.0358144,0.0121974,1.27009,0.0210249,0.0315649,1343,421,2.18238,9.30067
126,603,2.18982,-9.27454,0.0135467,0.0283413,0.00689395,0.0310557,0.0108323,1.1957,0.0182012,0.0361953,1350,421,2.18977,9.27454
133,603,2.2207,-9.21609,0.0127478,0.0242978,0.00698054,0.0275825,0.00946311,1.13098,0.0161841,0.033182,1357,421,2.22076,9.21611
140,603,2.22778,-9.15027,0.0117696,0.0205065,0.00677511,0.0241994,0.00807666,1.07175,0.0142266,0.0202391,1364,421,2.22778,9.15027
147,603,2.1626,-9.08673,0.0112214,0.0162885,0.00605742,0.0203208,0.00718901,0.983471,0.0118983,0.0157496,1371,421,2.16258,9.08674
154,603,2.12097,-9.04037,0.0103869,0.0125644,0.00489039,0.0164858,0.00646551,0.894928,0.00959153,0.0239954,1378,421,2.12101,9.04038
161,603,2.18811,-9.00146,0.00915445,0.00965562,0.00409353,0.0135062,0.00530384,0.815968,0.00785745,0.0282902,1385,421,2.18809,9.00147
168,603,2.2616,-8.96527,0.00756767,0.00617608,0.00281096,0.00976767,0.00397608,0.664072,0.00567175,0.0268347,1392,421,2.26163,8.96527
175,603,2.31018,-8.85788,0.00630088,0.0035576,0.00174553,0.00714921,0.00270926,0.452387,0.00416772,0.0287897,1399,421,2.31014,8.85789
182,603,2.36719,-8.79111,0.00458597,-0.000223574,0.000266638,0.00460071,-0.000238311,0.0552139,0.00314958,0.0328558,1406,421,2.36717,8.7911
189,603,2.35059,-8.74097,0.00352341,-5.67012e-05,-0.000265988,0.00354306,-7.63552e-05,-0.0737564,0.0023879,0.0276775,1413,421,2.35059,8.74096
196,603,2.30286,-8.66254,0.00248385,-0.000179419,-0.00142935,0.00310575,-0.00080132,-0.410388,0.00238295,0.020467,1420,421,2.30283,8.66255
203,603,2.27795,-8.62854,0.0018521,0.000471767,-0.0014731,0.0027887,-0.000464832,-0.566328,0.00203188,0.0113797,1427,421,2.2779,8.62853
210,603,2.28931,-8.56598,0.00127094,0.00121425,-0.00184612,0.00308894,-0.000603738,-0.777722,0.00228725,0.010116,1434,421,2.28928,8.56599
217,603,2.2876,-8.46713,0.000526202,0.00153263,-0.00164579,0.00275042,-0.000691591,-0.933763,0.00210241,0.0127487,1441,421,2.28754,8.46714
224,603,2.28516,-8.38312,0.000517993,0.00162065,-0.00142274,0.00259514,-0.000456505,-0.970245,0.00190063,0.0156337,1448,421,2.28512,8.38312
231,603,2.29053,-8.30844,0.000543554,0.00163676,-0.00120967,0.00241759,-0.000237273,-0.997599,0.00169636,0.0137629,1455,421,2.29051,8.30843
238,603,2.3175,-8.2359,0.000627667,0.00154908,-0.000993302,0.00218332,-6.56873e-06,-1.00254,0.00145774,0.0103646,1462,421,2.31752,8.2359
245,603,2.32825,-8.14865,0.00067122,0.00133352,-0.000850255,0.00191484,8.99054e-05,-0.971098,0.00124767,0.0106203,1469,421,2.32821,8.14866
252,603,2.33496,-8.03842,0.000637395,0.00112357,-0.0007274,0.00164743,0.00011354,-0.946658,0.00106246,0.00966494,1476,421,2.33497,8.03843
259,603,2.32996,-7.94095,0.000554018,0.000892052,-0.000552013,0.00130034,0.000145727,-0.933958,0.000822634,0.00987483,1483,421,2.32993,7.94095
266,603,2.31836,-7.84177,0.000358761,0.000890848,-0.000454546,0.00115148,9.81246e-05,-1.05017,0.000737128,0.0110357,1490,421,2.31832,7.84178
273,603,2.32422,-7.73999,0.000114395,0.000979284,-0.000313324,0.00108086,1.28166e-05,-1.25729,0.000716341,0.0102302,1497,421,2.32421,7.73998
280,603,2.34094,-7.63016,-0.000119486,0.00103486,-0.000139365,0.00105144,-0.000136074,-1.45233,0.000750445,0.0116024,1504,421,2.34094,7.63016
287,603,2.34619,-7.50418,-0.000252815,0.00106983,6.91179e-05,0.00107343,-0.000256417,1.51873,0.000814658,0.0112977,1511,421,2.3462,7.50418
294,603,2.35034,-7.39114,-0.000387279,0.00127575,0.000290413,0.001325,-0.000436535,1.40279,0.00105927,0.00989393,1518,421,2.35035,7.39114
301,603,2.34888,-7.29395,-0.000463524,0.00156253,0.000479048,0.00167009,-0.000571082,1.34993,0.0013448,0.0116726,1525,421,2.34893,7.29393
308,603,2.3418,-7.16934,-0.000395562,0.00184641,0.000782274,0.00209238,-0.000641529,1.26616,0.00165085,0.0168027,1532,421,2.34178,7.16933
315,603,2.34009,-7.06259,-0.000176156,0.00204207,0.00115506,0.0025343,-0.000668385,1.16795,0.00195088,0.0148424,1539,421,2.34014,7.06259
322,603,2.31848,-6.92007,0.000190838,0.00217061,0.00162221,0.0030811,-0.000719654,1.05934,0.00233127,0.0137412,1546,421,2.31843,6.92009
329,603,2.30396,-6.77499,0.000615013,0.00219096,0.00220377,0.00374339,-0.000937422,0.957093,0.00285975,0.0104566,1553,421,2.30398,6.77499
336,603,2.31519,-6.65601,0.000941031,0.00224998,0.00279082,0.00446204,-0.00127103,0.900572,0.0034767,0.00952804,1560,421,2.31518,6.65601
343,603,2.33948,-6.5307,0.00146327,0.00226502,0.00338225,0.00527007,-0.00154178,0.844385,0.00412451,0.0111607,1567,421,2.33953,6.53071
350,603,2.34277,-6.39719,0.00223957,0.00257958,0.00433285,0.00674577,-0.00192661,0.805006,0.00525838,0.0156251,1574,421,2.3428,6.3972
357,603,2.33374,-6.21893,0.00245972,0.00251946,0.0050339,0.00752358,-0.00254439,0.788365,0.00604506,0.0173778,1581,421,2.33372,6.21894
364,603,2.31812,-6.06146,0.00273215,0.00245672,0.00566887,0.00826498,-0.00307611,0.773254,0.00677237,0.0163393,1588,421,2.31814,6.06147
371,603,2.37073,-5.93613,0.00290166,0.00205549,0.00639996,0.0088925,-0.00393535,0.752392,0.00758825,0.019538,1595,421,2.37076,5.93614
378,603,2.43066,-5.85977,0.00261934,0.00229741,0.00698101,0.00944125,-0.00452449,0.773871,0.008228,0.0298744,1602,421,2.4307,5.85977
385,603,2.3512,-5.57745,0.00213675,0.0028319,0.00742435,0.00991681,-0.00494816,0.808789,0.00874064,0.0449578,1609,421,2.35125,5.57745
392,603,2.297,-5.40939,0,0,0,0,0,0,0,-1,1616,421,2.29695,5.40938
399,603,2.38013,-5.37076,0,0,0,0,0,0,0,-1,1623,421,2.38016,5.37075
406,603,3.01917,-2.37219,0,0,0,0,0,0,0,-1,1630,421,3.01915,2.37219
413,603,2.38928,-2.41275,0,0,0,0,0,0,0,-1,1637,421,2.38926,2.41274
420,603,2.74866,-2.30066,0,0,0,0,0,0,0,-1,1644,421,2.74867,2.30065
427,603,7.11548,-3.35352,0,0,0,0,0,0,0,-1,1651,421,7.11549,3.35351
434,603,7.32153,-4.50525,0,0,0,0,0,0,0,-1,1658,421,7.32149,4.50525
441,603,3.18213,-0.250946,0,0,0,0,0,0,0,-1,1665,421,3.18212,0.250944
448,603,2.95667,-0.066925,0,0,0,0,0,0,0,-1,1672,421,2.95662,0.0669226
455,603,0,0,0,0,0,0,0,0,0,-1,1679,421,0,0
462,603,0,0,0,0,0,0,0,0,0,-1,1686,421,0,0
469,603,0,0,0,0,0,0,0,0,0,-1,1693,421,0,0
476,603,0,0,0,0,0,0,0,0,0,-1,1700,421,0,0
483,603,0,0,0,0,0,0,0,0,0,-1,1707,421,0,0
490,603,0,0,0,0,0,0,0,0,0,-1,1714,421,0,0
497,603,0,0,0,0,0,0,0,0,0,-1,1721,421,0,0
504,603,0,0,0,0,0,0,0,0,0,-1,1728,421,0,0
511,603,0,0,0,0,0,0,0,0,0,-1,1735,421,0,0
518,603,0,0,0,0,0,0,0,0,0,-1,1742,421,0,0
525,603,0,0,0,0,0,0,0,0,0,-1,1749,421,0,0
532,603,0,0,0,0,0,0,0,0,0,-1,1756,421,0,0
539,603,0,0,0,0,0,0,0,0,0,-1,1763,421,0,0
546,603,0,0,0,0,0,0,0,0,0,-1,1770,421,0,0
553,603,0,0,0,0,0,0,0,0,0,-1,1777,421,0,0
560,603,0,0,0,0,0,0,0,0,0,-1,1784,421,0,0
567,603,0,0,0,0,0,0,0,0,0,-1,1791,421,0,0
574,603,0,0,0,0,0,0,0,0,0,-1,1798,421,0,0
581,603,0,0,0,0,0,0,0,0,0,-1,1805,421,0,0
588,603,0,0,0,0,0,0,0,0,0,-1,1812,421,0,0
595,603,0,0,0,0,0,0,0,0,0,-1,1819,421,0,0
602,603,0,0,0,0,0,0,0,0,0,-1,1826,421,0,0
609,603,0,0,0,0,0,0,0,0,0,-1,1833,421,0,0
616,603,0,0,0,0,0,0,0,0,0,-1,1840,421,0,0
623,603,0,0,0,0,0,0,0,0,0,-1,1847,421,0,0
630,603,0,0,0,0,0,0,0,0,0,-1,1854,421,0,0
637,603,0,0,0,0,0,0,0,0,0,-1,1861,421,0,0
644,603,0,0,0,0,0,0,0,0,0,-1,1868,421,0,0
651,603,0,0,0,0,0,0,0,0,0,-1,1875,421,0,0
658,603,0,0,0,0,0,0,0,0,0,-1,1882,421,0,0
665,603,0,0,0,0,0,0,0,0,0,-1,1889,421,0,0
672,603,0,0,0,0,0,0,0,0,0,-1,1896,421,0,0
679,603,0,0,0,0,0,0,0,0,0,-1,1903,421,0,0
686,603,0,0,0,0,0,0,0,0,0,-1,1910,421,0,0
693,603,0,0,0,0,0,0,0,0,0,-1,1917,421,0,0
700,603,0,0,0,0,0,0,0,0,0,-1,1924,421,0,0
707,603,0,0,0,0,0,0,0,0,0,-1,1931,421,0,0
714,603,0,0,0,0,0,0,0,0,0,-1,1938,421,0,0
721,603,0,0,0,0,0,0,0,0,0,-1,1945,421,0,0
728,603,0,0,0,0,0,0,0,0,0,-1,1952,421,0,0
735,603,0,0,0,0,0,0,0,0,0,-1,1959,421,0,0
742,603,0,0,0,0,0,0,0,0,0,-1,1966,421,0,0
749,603,0,0,0,0,0,0,0,0,0,-1,1973,421,0,0
756,603,0,0,0,0,0,0,0,0,0,-1,1980,421,0,0
763,603,0,0,0,0,0,0,0,0,0,-1,1987,421,0,0
770,603,0,0,0,0,0,0,0,0,0,-1,1994,421,0,0
777,603,0,0,0,0,0,0,0,0,0,-1,2001,421,0,0
784,603,0,0,0,0,0,0,0,0,0,-1,2008,421,0,0
791,603,0,0,0,0,0,0,0,0,0,-1,2015,421,0,0
798,603,0,0,0,0,0,0,0,0,0,-1,2022,421,0,0
805,603,0,0,0,0,0,0,0,0,0,-1,2029,421,0,0
812,603,0,0,0,0,0,0,0,0,0,-1,2036,421,0,0
-700,596,0,0,0,0,0,0,0,0,0,-1,524,428,0,0
-693,596,0,0,0,0,0,0,0,0,0,-1,531,428,0,0
-686,596,0,0,0,0,0,0,0,0,0,-1,538,428,0,0
-679,596,0,0,0,0,0,0,0,0,0,-1,545,428,0,0
-672,596,0,0,0,0,0,0,0,0,0,-1,552,428,0,0
-665,596,0,0,0,0,0,0,0,0,0,-1,559,428,0,0
-658,596,0,0,0,0,0,0,0,0,0,-1,566,428,0,0
-651,596,0,0,0,0,0,0,0,0,0,-1,573,428,0,0
-644,596,0,0,0,0,0,0,0,0,0,-1,580,428,0,0
-637,596,0,0,0,0,0,0,0,0,0,-1,587,428,0,0
-630,596,0,0,0,0,0,0,0,0,0,-1,594,428,0,0
-623,596,0,0,0,0,0,0,0,0,0,-1,601,428,0,0
-616,596,0,0,0,0,0,0,0,0,0,-1,608,428,0,0
-609,596,0,0,0,0,0,0,0,0,0,-1,615,428,0,0
-602,596,0,0,0,0,0,0,0,0,0,-1,622,428,0,0
-595,596,0,0,0,0,0,0,0,0,0,-1,629,428,0,0
-588,596,0,0,0,0,0,0,0,0,0,-1,636,428,0,0
-581,596,0,0,0,0,0,0,0,0,0,-1,643,428,0,0
-574,596,0,0,0,0,0,0,0,0,0,-1,650,428,0,0
-567,596,0,0,0,0,0,0,0,0,0,-1,657,428,0,0
-560,596,0,0,0,0,0,0,0,0,0,-1,664,428,0,0
-553,596,0,0,0,0,0,0,0,0,0,-1,671,428,0,0
-546,596,0,0,0,0,0,0,0,0,0,-1,678,428,0,0
-539,596,0,0,0,0,0,0,0,0,0,-1,685,428,0,0
-532,596,0,0,0,0,0,0,0,0,0,-1,692,428,0,0
-525,596,0,0,0,0,0,0,0,0,0,-1,699,428,0,0
-518,596,0,0,0,0,0,0,0,0,0,-1,706,428,0,0
-511,596,0,0,0,0,0,0,0,0,0,-1,713,428,0,0
-504,596,0,0,0,0,0,0,0,0,0,-1,720,428,0,0
-497,596,0,0,0,0,0,0,0,0,0,-1,727,428,0,0
-490,596,0,0,0,0,0,0,0,0,0,-1,734,428,0,0
-483,596,0,0,0,0,0,0,0,0,0,-1,741,428,0,0
-476,596,0,0,0,0,0,0,0,0,0,-1,748,428,0,0
-469,596,0,0,0,0,0,0,0,0,0,-1,755,428,0,0
-462,596,0,0,0,0,0,0,0,0,0,-1,762,428,0,0
-455,596,0,0,0,0,0,0,0,0,0,-1,769,428,0,0
-448,596,0,0,0,0,0,0,0,0,0,-1,776,428,0,0
-441,596,0,0,0,0,0,0,0,0,0,-1,783,428,0,0
-434,596,0,0,0,0,0,0,0,0,0,-1,790,428,0,0
-427,596,0,0,0,0,0,0,0,0,0,-1,797,428,0,0
-420,596,0,0,0,0,0,0,0,0,0,-1,804,428,0,0
-413,596,0,0,0,0,0,0,0,0,0,-1,811,428,0,0
-406,596,0,0,0,0,0,0,0,0,0,-1,818,428,0,0
-399,596,0,0,0,0,0,0,0,0,0,-1,825,428,0,0
-392,596,0,0,0,0,0,0,0,0,0,-1,832,428,0,0
-385,596,0,0,0,0,0,0,0,0,0,-1,839,428,0,0
-378,596,0,0,0,0,0,0,0,0,0,-1,846,428,0,0
-371,596,0,0,0,0,0,0,0,0,0,-1,853,428,0,0
-364,596,0,0,0,0,0,0,0,0,0,-1,860,428,0,0
-357,596,0,0,0,0,0,0,0,0,0,-1,867,428,0,0
-350,596,0,0,0,0,0,0,0,0,0,-1,874,428,0,0
-343,596,0,0,0,0,0,0,0,0,0,-1,881,428,0,0
-336,596,1.57922,-11.8646,0,0,0,0,0,0,0,-1,888,428,1.57922,11.8646
-329,596,1.8208,-11.4726,0.0366228,0.0717886,0.137643,0.192967,-0.0845557,0.848926,0.164252,0.0466697,895,428,1.82081,11.4726
-322,596,1.83429,-10.9059,0.0337175,0.0530812,0.131454,0.175209,-0.0884107,0.822158,0.154927,0.0488777,902,428,1.83428,10.9059
-315,596,-0.0229492,-7.5903,0.0303987,0.0389863,0.12342,0.158187,-0.0888017,0.802786,0.144462,0.0475863,909,428,-0.0229223,7.59031
-308,596,1.04559,-7.28033,0.027133,0.0284333,0.109478,0.137263,-0.0816966,0.788367,0.127766,0.0496482,916,428,1.04558,7.28033
-301,596,1.68652,-6.73145,0.0239902,0.0207173,0.0934574,0.115825,-0.0711179,0.776644,0.108956,0.0473345,923,428,1.68652,6.73145
-294,596,1.84558,-6.14603,0.0213053,0.0140922,0.0760018,0.0937861,-0.0583885,0.761689,0.0886468,0.0475858,930,428,1.8456,6.14601
-287,596,1.74237,-5.71918,0,0,0,0,0,0,0,-1,937,428,1.74236,5.71916
-280,596,1.75671,-6.05392,0,0,0,0,0,0,0,-1,944,428,1.75674,6.05392
-273,596,1.74896,-6.43842,0.0136811,0.00224346,0.0320484,0.0405169,-0.0245924,0.697106,0.0379638,0.0453644,951,428,1.74893,6.43841
-266,596,1.53247,-6.30704,0.0118705,0.000346238,0.0192407,0.0261934,-0.0139766,0.63991,0.023547,0.0407691,958,428,1.53249,6.30704
-259,596,1.57422,-6.53955,0.00957842,0.00214183,0.00853832,0.0151729,-0.00345269,0.58004,0.0114412,0.0333371,965,428,1.57423,6.53956
-252,596,1.62372,-6.7453,0.00738944,0.00192051,0.0011836,0.00763461,0.00167534,0.204249,0.00463338,0.0162306,972,428,1.62369,6.74529
-245,596,1.62854,-6.89499,0.00637781,0.00191033,-0.00319156,0.00803966,0.000248477,-0.480072,0.0052789,0.0113281,979,428,1.62852,6.89499
-238,596,1.6131,-7.02066,0.00574454,0.00229437,-0.00356361,0.00797865,6.02608e-05,-0.559982,0.00529913,0.0102145,986,428,1.61307,7.02067
-231,596,1.59393,-7.13959,0.00497539,0.00236232,-0.0032828,0.0072021,0.000135611,-0.59601,0.00475684,0.0117951,993,428,1.59395,7.13959
-224,596,1.58661,-7.25388,0.00415769,0.00255044,-0.00298237,0.00644281,0.000265323,-0.653794,0.00420955,0.0120993,1000,428,1.58661,7.25387
-217,596,1.58221,-7.36832,0.0034459,0.00279131,-0.00270639,0.00584472,0.000392496,-0.725223,0.00377246,0.0131624,1007,428,1.58223,7.36832
-210,596,1.58551,-7.47632,0.00266235,0.0027111,-0.00236041,0.00504726,0.000326189,-0.790561,0.00326155,0.011409,1014,428,1.58549,7.4763
-203,596,1.58069,-7.59219,0.00185927,0.00252349,-0.00198148,0.0042005,0.00018226,-0.86843,0.0027416,0.0134415,1021,428,1.5807,7.59219
-196,596,1.59473,-7.70566,0.00122445,0.00232986,-0.00168588,0.00355132,2.98896e-06,-0.943799,0.00236655,0.0138732,1028,428,1.59467,7.70567
-189,596,1.57983,-7.80334,0.0006781,0.00235523,-0.00151677,0.00324981,-0.000216477,-1.03792,0.00224218,0.0111832,1035,428,1.57979,7.80334
-182,596,1.56555,-7.90802,0.000527203,0.00194175,-0.00149999,0.00289285,-0.000423901,-1.0057,0.00208429,0.0111287,1042,428,1.56549,7.90802
-175,596,1.57581,-8.01904,0.000383781,0.00134354,-0.00131533,0.00226379,-0.000536473,-0.960313,0.0017162,0.0135233,1049,428,1.57577,8.01906
-168,596,1.56738,-8.1001,0.000462417,0.000718455,-0.00133158,0.00192815,-0.00074728,-0.833321,0.00159403,0.0161017,1056,428,1.56736,8.10009
-161,596,1.57788,-8.18246,0.000558116,-1.25587e-06,-0.00138432,0.00169072,-0.00113386,-0.685721,0.0016413,0.0148869,1063,428,1.57785,8.18247
-154,596,1.56372,-8.27795,0.000598949,-0.000687365,-0.00132751,0.00143089,-0.00151931,-0.559819,0.00170356,0.0125799,1070,428,1.56374,8.27795
-147,596,1.58386,-8.3671,0.000834859,-0.00144671,-0.00124128,0.00137995,-0.0019918,-0.413781,0.00195733,0.0130922,1077,428,1.58391,8.3671
-140,596,1.59814,-8.43509,0.00120776,-0.00244021,-0.00105701,0.0014919,-0.00272436,-0.262607,0.00246868,0.0129238,1084,428,1.59815,8.43509
-133,596,1.57764,-8.52542,0.00150816,-0.00337777,-0.000959474,0.00168982,-0.00355943,-0.18712,0.00309407,0.0135793,1091,428,1.57759,8.52542
-126,596,1.56921,-8.57962,0.00185104,-0.00433446,-0.000815534,0.00195676,-0.00444018,-0.128912,0.00378491,0.0112355,1098,428,1.56921,8.57961
-119,596,1.59143,-8.66949,0.00224586,-0.00515261,-0.000672559,0.0023065,-0.00521325,-0.0899229,0.00444834,0.0135248,1105,428,1.59146,8.6695
-112,596,1.59399,-8.74353,0.00258091,-0.00584337,-0.000446378,0.0026045,-0.00586696,-0.05279,0.00501044,0.0149824,1112,428,1.59403,8.74352
-105,596,1.61255,-8.81223,0.00290001,-0.006114,-0.000201636,0.00290452,-0.00611851,-0.0223543,0.00531846,0.0154266,1119,428,1.61252,8.81223
-98,596,1.63354,-8.8638,0.00326856,-0.00642698,-1.86052e-05,0.00326859,-0.00642702,-0.00191894,0.00569591,0.0098238,1126,428,1.63358,8.8638
-91,596,1.64221,-8.9353,0.0036678,-0.00632925,1.23651e-05,0.00366782,-0.00632927,0.00123687,0.0058396,0.00938878,1133,428,1.6422,8.93531
-84,596,1.68579,-9.03171,0.0039881,-0.00598389,5.02738e-05,0.00398835,-0.00598414,0.00504133,0.00579593,0.014233,1140,428,1.68576,9.03172
-77,596,1.67932,-9.12247,0.00418727,-0.00550784,0.00015348,0.0041897,-0.00551026,0.0158253,0.00561755,0.02265,1147,428,1.67935,9.12246
-70,596,1.63464,-9.37067,0.00426908,-0.00449925,0.000253172,0.00427638,-0.00450655,0.0288415,0.00507141,0.0449389,1154,428,1.6347,9.37067
-63,596,1.75159,-9.83572,0,0,0,0,0,0,0,-1,1161,428,1.75163,9.83572
-56,596,1.72339,-9.77545,0,0,0,0,0,0,0,-1,1168,428,1.7234,9.77546
-49,596,1.47827,-9.05042,0,0,0,0,0,0,0,-1,1175,428,1.47829,9.05041
-42,596,1.99585,-6.6246,0,0,0,0,0,0,0,-1,1182,428,1.99586,6.62459
-35,596,1.44348,-9.17999,0,0,0,0,0,0,0,-1,1189,428,1.44351,9.17998
-28,596,1.59399,-9.27417,0,0,0,0,0,0,0,-1,1196,428,1.59399,9.27416
-21,596,1.63953,-9.31439,0,0,0,0,0,0,0,-1,1203,428,1.63953,9.3144
-14,596,1.67334,-9.33096,0.00839249,0.00753953,-0.00228213,0.0102876,0.00564437,-0.693025,0.00594894,0.0457645,1210,428,1.67339,9.33097
-7,596,1.75659,-9.37457,0.0105944,0.0106118,-0.00219979,0.0128029,0.00840328,-0.787369,0.00751126,0.0469206,1217,428,1.75662,9.37456
0,596,1.80286,-9.44489,0.0126785,0.0137282,-0.00207736,0.015346,0.0110607,-0.909141,0.00914335,0.0469215,1224,428,1.80287,9.4449
7,596,1.85706,-9.42856,0.0152724,0.0187675,-0.000987547,0.0190272,0.0150127,-1.31361,0.0115809,0.0421283,1231,428,1.85702,9.42855
14,596,1.96558,-9.36148,0.0180684,0.025823,0.0013911,0.026065,0.0178264,1.39856,0.0153843,0.0416455,1238,428,1.96556,9.36149
21,596,2.0188,-9.39145,0.0198365,0.0338723,0.00316245,0.034552,0.0191569,1.35911,0.019988,0.0407927,1245,428,2.01875,9.39143
28,596,2.13635,-9.44467,0.0214279,0.0416503,0.00501219,0.0428244,0.0202538,1.34069,0.0247367,0.0429248,1252,428,2.13637,9.44467
35,596,2.17773,-9.55978,0.0231531,0.0493262,0.00703309,0.0510964,0.0213829,1.32423,0.0296309,0.0452632,1259,428,2.17773,9.55977
42,596,2.19934,-9.63739,0,0,0,0,0,0,0,-1,1266,428,2.19935,9.6374
49,596,2.2655,-10.5526,0.0256197,0.0634753,0.0112536,0.0665681,0.0225269,1.30259,0.0390965,0.0416444,1273,428,2.26547,10.5526
56,596,2.37329,-9.48007,0.0266984,0.0684477,0.0126969,0.0720059,0.0231403,1.29757,0.0424478,0.0421039,1280,428,2.37328,9.48007
63,596,2.19604,-9.27878,0.0274732,0.07209,0.013795,0.0760107,0.0235525,1.29388,0.0449301,0.0467203,1287,428,2.196,9.27877
70,596,2.19983,-9.08551,0.027581,0.0732571,0.0141901,0.0773065,0.0235316,1.29282,0.0457573,0.0476873,1294,428,2.19988,9.08552
77,596,1.47656,-10.4861,0.0263815,0.0728532,0.0142005,0.0768489,0.0223858,1.29651,0.0456389,0.0471908,1301,428,1.47656,10.4861
84,596,1.93518,-10.1956,0.025955,0.0707397,0.0136693,0.0745822,0.0221125,1.29676,0.0442331,0.0450884,1308,428,1.93521,10.1955
91,596,2.13208,-9.36575,0.0259539,0.0673905,0.0133128,0.071299,0.0220454,1.28523,0.0421518,0.0433663,1315,428,2.13214,9.36577
98,596,2.37683,-9.33987,0.0251149,0.0621788,0.0122707,0.065873,0.0214207,1.27837,0.0387989,0.0458968,1322,428,2.37681,9.33988
105,596,2.79797,-9.5152,0.0240871,0.0567623,0.0116346,0.0604816,0.0203677,1.26138,0.035534,0.0467363,1329,428,2.798,9.51519
112,596,2.61011,-9.40677,0.0225854,0.0506265,0.0103619,0.05404,0.019172,1.25257,0.0316356,0.0420999,1336,428,2.61005,9.40678
119,596,2.47168,-9.18155,0.0209119,0.0442732,0.00921209,0.0474687,0.0177164,1.2369,0.0276982,0.0435852,1343,428,2.47172,9.18154
126,596,2.37683,-9.14154,0.0202303,0.0382623,0.00924643,0.0421608,0.0163318,1.17179,0.0245465,0.0441655,1350,428,2.3768,9.14155
133,596,2.30042,-9.21573,0.0195761,0.0338798,0.00920371,0.0383837,0.0150721,1.1157,0.0223304,0.0447281,1357,428,2.30044,9.21573
140,596,2.31799,-9.10425,0.0189205,0.0298305,0.00886642,0.0347856,0.0139654,1.06117,0.0202131,0.0415264,1364,428,2.31804,9.10426
147,596,2.09534,-9.02209,0.0187423,0.0253201,0.00793796,0.0306236,0.0134389,0.981795,0.0177246,0.0362678,1371,428,2.09538,9.02209
154,596,1.8136,-8.87491,0.0179862,0.0212754,0.00633135,0.0261723,0.0130894,0.912468,0.0151106,0.0410601,1378,428,1.81355,8.87491
161,596,2.29163,-8.89676,0.0160677,0.0175153,0.00500323,0.0218468,0.0117362,0.857234,0.0126249,0.0452639,1385,428,2.29166,8.89676
168,596,2.39893,-8.83737,0,0,0,0,0,0,0,-1,1392,428,2.39895,8.83736
175,596,2.47827,-8.71561,0,0,0,0,0,0,0,-1,1399,428,2.4783,8.71561
182,596,2.52209,-8.7301,0,0,0,0,0,0,0,-1,1406,428,2.52214,8.7301
189,596,2.45154,-8.71573,0,0,0,0,0,0,0,-1,1413,428,2.4516,8.71574
196,596,2.44434,-8.55161,0,0,0,0,0,0,0,-1,1420,428,2.4444,8.5516
203,596,2.50403,-8.73117,0.00265515,0.000629617,-0.00208737,0.00396247,-0.000677704,-0.559534,0.00289412,0.0484903,1427,428,2.50403,8.73119
210,596,2.33923,-8.58878,0.00184084,0.00157716,-0.00267251,0.00438476,-0.000966768,-0.760752,0.00329308,0.0204884,1434,428,2.33929,8.58879
217,596,2.35388,-8.47275,0.000802498,0.00192741,-0.0024613,0.00388971,-0.0011598,-0.897729,0.00305405,0.0104273,1441,428,2.3539,8.47275
224,596,2.37354,-8.40015,0.00078225,0.00196058,-0.0022264,0.00367445,-0.000931623,-0.914747,0.0028121,0.0103328,1448,428,2.37348,8.40015
231,596,2.39636,-8.3161,0.000753637,0.00189162,-0.00201393,0.00341539,-0.000770136,-0.923074,0.00257236,0.0110528,1455,428,2.39639,8.31611
238,596,2.39685,-8.22049,0.000841948,0.00168617,-0.00181005,0.00312268,-0.000594563,-0.899952,0.00230567,0.0137727,1462,428,2.39682,8.2205
245,596,2.40637,-8.12888,0.000971545,0.00143923,-0.00161873,0.00284093,-0.000430147,-0.857132,0.00205241,0.0121951,1469,428,2.40634,8.12889
252,596,2.43152,-8.03137,0.00093715,0.00116216,-0.00148619,0.0025401,-0.000440791,-0.823176,0.00185784,0.00974586,1476,428,2.43156,8.03137
259,596,2.43506,-7.9454,0.000892006,0.00080435,-0.00130488,0.0021538,-0.000457442,-0.768611,0.00161015,0.00870204,1483,428,2.435,7.94542
266,596,2.42017,-7.85626,0.000741165,0.000642253,-0.00118972,0.00188246,-0.000499043,-0.764625,0.00145023,0.00970864,1490,428,2.42013,7.85626
273,596,2.43823,-7.75699,0.000488328,0.00064327,-0.001036,0.00160469,-0.000473091,-0.822718,0.00125751,0.0117878,1497,428,2.43826,7.75698
280,596,2.47009,-7.63141,0.000271102,0.000591139,-0.000839356,0.00128559,-0.000423352,-0.87959,0.00102767,0.0127619,1504,428,2.47011,7.6314
287,596,2.46094,-7.51373,0.000144517,0.000597978,-0.000622246,0.00103351,-0.000291019,-0.96011,0.000803773,0.0114411,1511,428,2.46091,7.51373
294,596,2.44531,-7.40994,2.45579e-05,0.000694678,-0.000377872,0.000864645,-0.00014541,-1.14811,0.000630514,0.00919271,1518,428,2.4453,7.40993
301,596,2.43115,-7.27896,-8.20755e-05,0.000897453,-0.000193598,0.000934328,-0.000118951,-1.38258,0.000666086,0.0104537,1525,428,2.43121,7.27897
308,596,2.46021,-7.17337,-6.85049e-05,0.00118795,9.05835e-05,0.00119444,-7.50019e-05,1.4992,0.000822437,0.0162513,1532,428,2.46024,7.17337
315,596,2.44507,-7.06708,8.01418e-05,0.00140265,0.000457005,0.00154521,-6.24139e-05,1.26843,0.00105156,0.015436,1539,428,2.44505,7.06708
322,596,2.44922,-6.92844,0.000318217,0.00150344,0.000890357,0.00198037,-0.000158716,1.07903,0.00137621,0.0124761,1546,428,2.44927,6.92844
329,596,2.42847,-6.79446,0.000599774,0.00151651,0.00140665,0.00253759,-0.000421307,0.942902,0.00184824,0.00965466,1553,428,2.42843,6.79447
336,596,2.4198,-6.66962,0.000824805,0.00158596,0.00193779,0.00318019,-0.000769424,0.882363,0.00241776,0.00870324,1560,428,2.41979,6.66961
343,596,2.44373,-6.54919,0.00114327,0.0016307,0.0024731,0.00387206,-0.00109809,0.834513,0.00301482,0.0116983,1567,428,2.44372,6.54919
350,596,2.45874,-6.3988,0.00158357,0.00185263,0.00322097,0.00494187,-0.00150568,0.80627,0.00389473,0.0125595,1574,428,2.45868,6.39881
357,596,2.44275,-6.25003,0.00169341,0.0018755,0.00380425,0.0055898,-0.00202088,0.797362,0.00455222,0.00966556,1581,428,2.44279,6.25004
364,596,2.42578,-6.11319,0.00180141,0.00194813,0.00431746,0.00619285,-0.00244331,0.793893,0.00514035,0.00895415,1588,428,2.42573,6.11319
371,596,2.42969,-5.97433,0.00180773,0.00179444,0.00483189,0.00663298,-0.00303081,0.78471,0.00570713,0.00913015,1595,428,2.42974,5.97433
378,596,2.44434,-5.81061,0.00154422,0.00197154,0.00521023,0.0069725,-0.00345673,0.805891,0.0061343,0.0128894,1602,428,2.44431,5.8106
385,596,2.46057,-5.63873,0.00122012,0.00225599,0.0054192,0.00718195,-0.00370584,0.833041,0.00639197,0.0233676,1609,428,2.46058,5.63873
392,596,2.42505,-5.46588,0.000990191,0.00272406,0.00548771,0.00741289,-0.00369865,0.863739,0.00653363,0.0384387,1616,428,2.42503,5.46588
399,596,2.41577,-5.32663,0,0,0,0,0,0,0,-1,1623,428,2.41575,5.32663
406,596,2.36121,-5.2243,0,0,0,0,0,0,0,-1,1630,428,2.36116,5.22431
413,596,3.39124,-2.63528,0,0,0,0,0,0,0,-1,1637,428,3.39122,2.6353
420,596,2.6344,-3.06308,0,0,0,0,0,0,0,-1,1644,428,2.63439,3.06308
427,596,2.99329,-1.90512,0,0,0,0,0,0,0,-1,1651,428,2.99327,1.90512
434,596,3.80896,-0.253998,0,0,0,0,0,0,0,-1,1658,428,3.80902,0.254004
441,596,3.86401,-0.131622,0,0,0,0,0,0,0,-1,1665,428,3.86406,0.131613
448,596,1.0769,0.0083313,0,0,0,0,0,0,0,-1,1672,428,1.07684,-0.00832231
455,596,2.00769,-1.43329,0,0,0,0,0,0,0,-1,1679,428,2.00765,1.4333
462,596,0,0,0,0,0,0,0,0,0,-1,1686,428,0,0
469,596,0,0,0,0,0,0,0,0,0,-1,1693,428,0,0
476,596,0,0,0,0,0,0,0,0,0,-1,1700,428,0,0
483,596,0,0,0,0,0,0,0,0,0,-1,1707,428,0,0
490,596,0,0,0,0,0,0,0,0,0,-1,1714,428,0,0
497,596,0,0,0,0,0,0,0,0,0,-1,1721,428,0,0
504,596,0,0,0,0,0,0,0,0,0,-1,1728,428,0,0
511,596,0,0,0,0,0,0,0,0,0,-1,1735,428,0,0
518,596,0,0,0,0,0,0,0,0,0,-1,1742,428,0,0
525,596,0,0,0,0,0,0,0,0,0,-1,1749,428,0,0
532,596,0,0,0,0,0,0,0,0,0,-1,1756,428,0,0
539,596,0,0,0,0,0,0,0,0,0,-1,1763,428,0,0
546,596,0,0,0,0,0,0,0,0,0,-1,1770,428,0,0
553,596,0,0,0,0,0,0,0,0,0,-1,1777,428,0,0
560,596,0,0,0,0,0,0,0,0,0,-1,1784,428,0,0
567,596,0,0,0,0,0,0,0,0,0,-1,1791,428,0,0
574,596,0,0,0,0,0,0,0,0,0,-1,1798,428,0,0
581,596,0,0,0,0,0,0,0,0,0,-1,1805,428,0,0
588,596,0,0,0,0,0,0,0,0,0,-1,1812,428,0,0
595,596,0,0,0,0,0,0,0,0,0,-1,1819,428,0,0
602,596,0,0,0,0,0,0,0,0,0,-1,1826,428,0,0
609,596,0,0,0,0,0,0,0,0,0,-1,1833,428,0,0
616,596,0,0,0,0,0,0,0,0,0,-1,1840,428,0,0
623,596,0,0,0,0,0,0,0,0,0,-1,1847,428,0,0
630,596,0,0,0,0,0,0,0,0,0,-1,1854,428,0,0
637,596,0,0,0,0,0,0,0,0,0,-1,1861,428,0,0
644,596,0,0,0,0,0,0,0,0,0,-1,1868,428,0,0
651,596,0,0,0,0,0,0,0,0,0,-1,1875,428,0,0
658,596,0,0,0,0,0,0,0,0,0,-1,1882,428,0,0
665,596,0,0,0,0,0,0,0,0,0,-1,1889,428,0,0
672,596,0,0,0,0,0,0,0,0,0,-1,1896,428,0,0
679,596,0,0,0,0,0,0,0,0,0,-1,1903,428,0,0
686,596,0,0,0,0,0,0,0,0,0,-1,1910,428,0,0
693,596,0,0,0,0,0,0,0,0,0,-1,1917,428,0,0
700,596,0,0,0,0,0,0,0,0,0,-1,1924,428,0,0
707,596,0,0,0,0,0,0,0,0,0,-1,1931,428,0,0
714,596,0,0,0,0,0,0,0,0,0,-1,1938,428,0,0
721,596,0,0,0,0,0,0,0,0,0,-1,1945,428,0,0
728,596,0,0,0,0,0,0,0,0,0,-1,1952,428,0,0
735,596,0,0,0,0,0,0,0,0,0,-1,1959,428,0,0
742,596,0,0,0,0,0,0,0,0,0,-1,1966,428,0,0
749,596,0,0,0,0,0,0,0,0,0,-1,1973,428,0,0
756,596,0,0,0,0,0,0,0,0,0,-1,1980,428,0,0
763,596,0,0,0,0,0,0,0,0,0,-1,1987,428,0,0
770,596,0,0,0,0,0,0,0,0,0,-1,1994,428,0,0
777,596,0,0,0,0,0,0,0,0,0,-1,2001,428,0,0
784,596,0,0,0,0,0,0,0,0,0,-1,2008,428,0,0
791,596,0,0,0,0,0,0,0,0,0,-1,2015,428,0,0
798,596,0,0,0,0,0,0,0,0,0,-1,2022,428,0,0
805,596,0,0,0,0,0,0,0,0,0,-1,2029,428,0,0
812,596,0,0,0,0,0,0,0,0,0,-1,2036,428,0,0
-700,589,0,0,0,0,0,0,0,0,0,-1,524,435,0,0
-693,589,0,0,0,0,0,0,0,0,0,-1,531,435,0,0
-686,589,0,0,0,0,0,0,0,0,0,-1,538,435,0,0
-679,589,0,0,0,0,0,0,0,0,0,-1,545,435,0,0
-672,589,0,0,0,0,0,0,0,0,0,-1,552,435,0,0
-665,589,0,0,0,0,0,0,0,0,0,-1,559,435,0,0
-658,589,0,0,0,0,0,0,0,0,0,-1,566,435,0,0
-651,589,0,0,0,0,0,0,0,0,0,-1,573,435,0,0
-644,589,0,0,0,0,0,0,0,0,0,-1,580,435,0,0
-637,589,0,0,0,0,0,0,0,0,0,-1,587,435,0,0
-630,589,0,0,0,0,0,0,0,0,0,-1,594,435,0,0
-623,589,0,0,0,0,0,0,0,0,0,-1,601,435,0,0
-616,589,0,0,0,0,0,0,0,0,0,-1,608,435,0,0
-609,589,0,0,0,0,0,0,0,0,0,-1,615,435,0,0
-602,589,0,0,0,0,0,0,0,0,0,-1,622,435,0,0
-595,589,0,0,0,0,0,0,0,0,0,-1,629,435,0,0
-588,589,0,0,0,0,0,0,0,0,0,-1,636,435,0,0
-581,589,0,0,0,0,0,0,0,0,0,-1,643,435,0,0
-574,589,0,0,0,0,0,0,0,0,0,-1,650,435,0,0
-567,589,0,0,0,0,0,0,0,0,0,-1,657,435,0,0
-560,589,0,0,0,0,0,0,0,0,0,-1,664,435,0,0
-553,589,0,0,0,0,0,0,0,0,0,-1,671,435,0,0
-546,589,0,0,0,0,0,0,0,0,0,-1,678,435,0,0
-539,589,0,0,0,0,0,0,0,0,0,-1,685,435,0,0
-532,589,0,0,0,0,0,0,0,0,0,-1,692,435,0,0
-525,589,0,0,0,0,0,0,0,0,0,-1,699,435,0,0
-518,589,0,0,0,0,0,0,0,0,0,-1,706,435,0,0
-511,589,0,0,0,0,0,0,0,0,0,-1,713,435,0,0
-504,589,0,0,0,0,0,0,0,0,0,-1,720,435,0,0
-497,589,0,0,0,0,0,0,0,0,0,-1,727,435,0,0
-490,589,0,0,0,0,0,0,0,0,0,-1,734,435,0,0
-483,589,0,0,0,0,0,0,0,0,0,-1,741,435,0,0
-476,589,0,0,0,0,0,0,0,0,0,-1,748,435,0,0
-469,589,0,0,0,0,0,0,0,0,0,-1,755,435,0,0
-462,589,0,0,0,0,0,0,0,0,0,-1,762,435,0,0
-455,589,0,0,0,0,0,0,0,0,0,-1,769,435,0,0
-448,589,0,0,0,0,0,0,0,0,0,-1,776,435,0,0
-441,589,0,0,0,0,0,0,0,0,0,-1,783,435,0,0
-434,589,0,0,0,0,0,0,0,0,0,-1,790,435,0,0
-427,589,0,0,0,0,0,0,0,0,0,-1,797,435,0,0
-420,589,0,0,0,0,0,0,0,0,0,-1,804,435,0,0
-413,589,0,0,0,0,0,0,0,0,0,-1,811,435,0,0
-406,589,0,0,0,0,0,0,0,0,0,-1,818,435,0,0
-399,589,0,0,0,0,0,0,0,0,0,-1,825,435,0,0
-392,589,0,0,0,0,0,0,0,0,0,-1,832,435,0,0
-385,589,0,0,0,0,0,0,0,0,0,-1,839,435,0,0
-378,589,0,0,0,0,0,0,0,0,0,-1,846,435,0,0
-371,589,0,0,0,0,0,0,0,0,0,-1,853,435,0,0
-364,589,0,0,0,0,0,0,0,0,0,-1,860,435,0,0
-357,589,0,0,0,0,0,0,0,0,0,-1,867,435,0,0
-350,589,-0.262695,-13.5742,0,0,0,0,0,0,0,-1,874,435,-0.262715,13.5742
-343,589,0.187195,-13.2853,0.0354996,0.0802194,0.122695,0.182575,-0.0668564,0.875529,0.149086,0.0444959,881,435,0.187181,13.2853
-336,589,0.677856,-12.7685,0,0,0,0,0,0,0,-1,888,435,0.677838,12.7685
-329,589,1.03149,-12.4765,0,0,0,0,0,0,0,-1,895,435,1.03147,12.4765
-322,589,0.63147,-12.0233,0,0,0,0,0,0,0,-1,902,435,0.63147,12.0233
-315,589,0.470947,-5.48187,0,0,0,0,0,0,0,-1,909,435,0.470922,5.48186
-308,589,0.975952,-5.49472,0,0,0,0,0,0,0,-1,916,435,0.97596,5.49472
-301,589,1.43237,-6.08478,0,0,0,0,0,0,0,-1,923,435,1.4324,6.08479
-294,589,1.4256,-5.94769,0.0176612,0.0111514,0.0562001,0.0707006,-0.041888,0.756472,0.0657088,0.046557,930,435,1.42563,5.94769
-287,589,1.45386,-5.8663,0.0146962,0.00606215,0.0442581,0.0548474,-0.034089,0.736781,0.0518116,0.040971,937,435,1.45384,5.86629
-280,589,1.5791,-6.09836,0.0124806,0.00454779,0.0333121,0.0420616,-0.0250332,0.726143,0.0391509,0.0327909,944,435,1.5791,6.09836
-273,589,1.52686,-6.3576,0.0103105,0.00194242,0.023761,0.030253,-0.0180001,0.698247,0.0281568,0.0201122,951,435,1.52688,6.35762
-266,589,1.5022,-6.49591,0.00869449,0.000559679,0.014201,0.0193991,-0.0101449,0.645924,0.017334,0.0169279,958,435,1.50217,6.49591
-259,589,1.48529,-6.62082,0.00673876,0.00188051,0.00640316,0.0111581,-0.0025388,0.604103,0.00841364,0.0153183,965,435,1.48526,6.62082
-252,589,1.50134,-6.76199,0.00495459,0.00171793,0.00106457,0.00527334,0.00139917,0.290926,0.00315436,0.0101078,972,435,1.50134,6.762
-245,589,1.51465,-6.8909,0.00422371,0.00164539,-0.00215232,0.00544341,0.000425684,-0.515569,0.0034957,0.0100152,979,435,1.51467,6.8909
-238,589,1.50604,-7.02673,0.00388002,0.00188038,-0.00253443,0.00560472,0.000155682,-0.597522,0.00368568,0.0129721,986,435,1.50606,7.02672
-231,589,1.48291,-7.14346,0.00341341,0.00185575,-0.00239579,0.00515378,0.000115371,-0.628245,0.00339805,0.0133091,993,435,1.48294,7.14346
-224,589,1.46027,-7.26566,0.00288136,0.00198957,-0.00220379,0.00468392,0.000187017,-0.68558,0.00306218,0.0127371,1000,435,1.46027,7.26566
-217,589,1.46722,-7.38782,0.00248313,0.00220036,-0.00205429,0.0044009,0.000282598,-0.75104,0.00284442,0.0139183,1007,435,1.46725,7.38782
-210,589,1.47876,-7.48798,0.00200679,0.00211648,-0.00184338,0.00390583,0.000217437,-0.80027,0.00253452,0.0135665,1014,435,1.47875,7.48797
-203,589,1.47845,-7.58206,0.00150523,0.00202209,-0.00161167,0.00339592,0.000131404,-0.864897,0.00222144,0.00973803,1021,435,1.47847,7.58206
-196,589,1.47803,-7.69238,0.00114114,0.00191591,-0.00143271,0.00301268,4.43723e-05,-0.917435,0.00199383,0.0121424,1028,435,1.47806,7.69239
-189,589,1.45215,-7.82379,0.000835886,0.00197761,-0.00134944,0.00287197,-5.84746e-05,-0.985502,0.00193444,0.0157045,1035,435,1.45217,7.8238
-182,589,1.45227,-7.89261,0.000795422,0.0017864,-0.00139601,0.00277225,-0.000190418,-0.95593,0.00191479,0.0121435,1042,435,1.45225,7.8926
-175,589,1.47778,-7.98914,0.000769869,0.00136774,-0.00132748,0.00242952,-0.000291916,-0.896145,0.00172524,0.0154167,1049,435,1.47782,7.98913
-168,589,1.48914,-8.10049,0.000917406,0.000783876,-0.00140812,0.00226034,-0.000559056,-0.761709,0.00172373,0.0130749,1056,435,1.48916,8.10048
-161,589,1.48669,-8.1871,0.000998846,-4.12258e-05,-0.00153205,0.00209671,-0.00113909,-0.621781,0.00189527,0.0120709,1063,435,1.4867,8.18711
-154,589,1.48071,-8.26935,0.00102855,-0.000831327,-0.00153331,0.00189189,-0.00169466,-0.512809,0.00207174,0.0125005,1070,435,1.48069,8.26935
-147,589,1.50073,-8.34991,0.00131852,-0.00180106,-0.00147425,0.00190497,-0.00238751,-0.378606,0.00248348,0.0126705,1077,435,1.50069,8.34992
-140,589,1.51404,-8.43018,0.0017695,-0.00308003,-0.00125012,0.0020728,-0.00338332,-0.238011,0.00318023,0.0136092,1084,435,1.51403,8.43017
-133,589,1.51147,-8.51166,0.00210437,-0.00436555,-0.00111191,0.00229013,-0.00455131,-0.165533,0.00402118,0.0135496,1091,435,1.51144,8.51166
-126,589,1.51648,-8.58829,0.00251118,-0.0058066,-0.000909203,0.00260941,-0.00590483,-0.107615,0.00503693,0.0107808,1098,435,1.51645,8.58829
-119,589,1.50891,-8.67526,0.00300001,-0.007212,-0.000726258,0.0030514,-0.0072634,-0.0706441,0.00611852,0.015734,1105,435,1.50896,8.67527
-112,589,1.52551,-8.74374,0.00338311,-0.00848049,-0.000374197,0.0033949,-0.00849228,-0.0314999,0.00707027,0.0167139,1112,435,1.52547,8.74373
-105,589,1.54651,-8.81982,0.00379745,-0.00924292,3.84678e-05,0.00379756,-0.00924304,0.00294987,0.00774471,0.0173545,1119,435,1.54648,8.81983
-98,589,1.58044,-8.87994,0.00431576,-0.0100318,0.000399402,0.00432687,-0.0100429,0.0278089,0.00851238,0.0175724,1126,435,1.58041,8.87993
-91,589,1.66772,-8.92636,0.00490172,-0.0102253,0.000559751,0.0049224,-0.010246,0.036936,0.00893546,0.0213255,1133,435,1.66777,8.92637
-84,589,1.76477,-9.0072,0.00535356,-0.0099726,0.000733286,0.00538856,-0.0100076,0.0477002,0.00902134,0.0302852,1140,435,1.76472,9.0072
-77,589,1.81531,-9.12109,0,0,0,0,0,0,0,-1,1147,435,1.81532,9.1211
-70,589,1.41296,-9.56818,0,0,0,0,0,0,0,-1,1154,435,1.41292,9.56817
-63,589,0.880127,-5.50586,0,0,0,0,0,0,0,-1,1161,435,0.880186,5.50587
-56,589,-2.78052,-7.28082,0,0,0,0,0,0,0,-1,1168,435,-2.78053,7.28082
-49,589,-0.525757,-2.76703,0,0,0,0,0,0,0,-1,1175,435,-0.525771,2.76702
-42,589,-2.7738,-2.87921,0,0,0,0,0,0,0,-1,1182,435,-2.77383,2.87922
-35,589,-2.55225,-3.27551,0,0,0,0,0,0,0,-1,1189,435,-2.55223,3.27552
-28,589,-0.0632324,-3.42938,0,0,0,0,0,0,0,-1,1196,435,-0.063241,3.42938
-21,589,-3.0675,-9.39285,0,0,0,0,0,0,0,-1,1203,435,-3.06755,9.39284
-14,589,1.56946,-9.27457,0,0,0,0,0,0,0,-1,1210,435,1.5695,9.27456
-7,589,1.68103,-9.32571,0,0,0,0,0,0,0,-1,1217,435,1.681,9.32572
0,589,1.77258,-9.4527,0,0,0,0,0,0,0,-1,1224,435,1.77254,9.45269
7,589,1.96289,-9.44052,0.0205361,0.0237305,-0.00104954,0.0240445,0.0202221,-1.28012,0.0149197,0.047767,1231,435,1.96287,9.44052
14,589,1.75342,-9.30521,0.0240704,0.0327997,0.00177512,0.0331469,0.0237232,1.37766,0.019722,0.0450546,1238,435,1.75341,9.3052
21,589,1.86328,-9.77847,0.0264302,0.0424628,0.00424388,0.0435168,0.0253762,1.32735,0.02524,0.0418579,1245,435,1.86333,9.77847
28,589,2.2113,-10.257,0.0284061,0.0518399,0.00662791,0.0535846,0.0266614,1.3134,0.0309372,0.0454377,1252,435,2.21125,10.2569
35,589,2.35962,-10.6189,0.0303187,0.061067,0.00909924,0.0635579,0.0278278,1.30359,0.0367896,0.045415,1259,435,2.35965,10.6189
42,589,2.33093,-11.07,0,0,0,0,0,0,0,-1,1266,435,2.33091,11.07
49,589,2.33728,-11.4954,0.0329312,0.0778883,0.0142517,0.0820254,0.028794,1.28827,0.0480529,0.0454792,1273,435,2.33722,11.4954
56,589,2.36304,-11.9512,0.0341443,0.0838112,0.0160748,0.0885599,0.0293957,1.28356,0.052084,0.0448735,1280,435,2.36301,11.9512
63,589,2.27563,-9.22287,0.0350305,0.0880552,0.0174472,0.093281,0.0298047,1.27978,0.0550129,0.0463532,1287,435,2.2756,9.22288
70,589,1.59937,-12.0158,0.0351261,0.0893938,0.0179379,0.0947871,0.0297328,1.27873,0.0559776,0.0459177,1294,435,1.59942,12.0158
77,589,1.74426,-11.4992,0.0335613,0.0890001,0.0179784,0.0943199,0.0282415,1.28311,0.0558971,0.0423766,1301,435,1.7443,11.4992
84,589,2.14746,-11.0216,0.0331434,0.0866301,0.01733,0.0917542,0.0280193,1.28331,0.0542956,0.0406078,1308,435,2.14752,11.0216
91,589,2.77136,-10.363,0.03337,0.0829222,0.0170138,0.0882014,0.0280908,1.26992,0.0520296,0.0422381,1315,435,2.77137,10.363
98,589,2.93213,-9.92209,0.0326573,0.0768994,0.0158059,0.081966,0.0275907,1.26059,0.0481579,0.0448033,1322,435,2.93213,9.92209
105,589,2.84253,-9.69125,0.0316113,0.0708363,0.0150052,0.075918,0.0265295,1.24425,0.0444887,0.0477033,1329,435,2.84256,9.69126
112,589,2.81812,-9.73801,0.0299441,0.0638018,0.0135472,0.068555,0.0251909,1.23335,0.0400411,0.0412971,1336,435,2.81811,9.73801
119,589,2.54126,-9.02341,0.0282172,0.0562302,0.012234,0.0608208,0.0236266,1.21182,0.0354049,0.0421195,1343,435,2.54127,9.02342
126,589,2.2052,-9.34293,0.0275895,0.0497048,0.0120515,0.0550028,0.0222914,1.15661,0.0319453,0.0471231,1350,435,2.20522,9.34292
133,589,2.27393,-9.26355,0.0271748,0.0450222,0.0118414,0.0509259,0.0212711,1.1083,0.0295346,0.0486187,1357,435,2.27393,9.26354
140,589,2.29541,-9.034,0,0,0,0,0,0,0,-1,1364,435,2.29543,9.034
147,589,2.05725,-8.90936,0,0,0,0,0,0,0,-1,1371,435,2.05723,8.90937
154,589,1.42151,-8.27371,0,0,0,0,0,0,0,-1,1378,435,1.4215,8.27372
161,589,2.40088,-8.82092,0,0,0,0,0,0,0,-1,1385,435,2.40092,8.82093
168,589,9.26831,-9.57684,0,0,0,0,0,0,0,-1,1392,435,9.26836,9.57684
175,589,8.66992,-7.65527,0,0,0,0,0,0,0,-1,1399,435,8.66994,7.65528
182,589,3.8136,-2.45389,0,0,0,0,0,0,0,-1,1406,435,3.81363,2.4539
189,589,3.69983,-3.68149,0,0,0,0,0,0,0,-1,1413,435,3.69987,3.68147
196,589,3.31055,-5.31677,0,0,0,0,0,0,0,-1,1420,435,3.31059,5.31678
203,589,2.72559,-8.84338,0,0,0,0,0,0,0,-1,1427,435,2.72558,8.84338
210,589,2.32312,-8.62592,0,0,0,0,0,0,0,-1,1434,435,2.3231,8.62592
217,589,2.42297,-8.46719,0.00115452,0.00260163,-0.00341923,0.00537303,-0.00161687,-0.889667,0.00422538,0.0241485,1441,435,2.42293,8.46721
224,589,2.48633,-8.40915,0.0011498,0.00255482,-0.00315764,0.00508716,-0.00138253,-0.894855,0.00393411,0.0218644,1448,435,2.48632,8.40914
231,589,2.49438,-8.35825,0.00113816,0.00231056,-0.00291969,0.00470231,-0.00125359,-0.884468,0.00362571,0.0192645,1455,435,2.49444,8.35824
238,589,2.47974,-8.23895,0.00119475,0.00188252,-0.00271316,0.0042735,-0.00119622,-0.848436,0.00332036,0.0204093,1462,435,2.47977,8.23896
245,589,2.46985,-8.06744,0.00125618,0.00144825,-0.00255453,0.00390855,-0.00120412,-0.804187,0.00308639,0.018732,1469,435,2.46989,8.06744
252,589,2.51257,-7.99411,0.00116621,0.0010363,-0.0024268,0.00352893,-0.00132642,-0.772019,0.00289778,0.0134159,1476,435,2.5126,7.99412
259,589,2.53345,-7.93866,0.00110537,0.00051821,-0.00224015,0.0030711,-0.00144752,-0.720243,0.00266436,0.00938863,1483,435,2.53349,7.93867
266,589,2.52893,-7.83899,0.000959065,0.000195964,-0.00210245,0.0027143,-0.00155927,-0.695635,0.00249721,0.00911417,1490,435,2.52888,7.83897
273,589,2.55042,-7.75464,0.000655196,0.000123371,-0.00193287,0.00234036,-0.00156179,-0.71704,0.0022678,0.0119602,1497,435,2.55037,7.75465
280,589,2.56055,-7.63849,0.000430901,1.22544e-05,-0.00169022,0.00192471,-0.00148155,-0.72379,0.00197215,0.0131975,1504,435,2.56056,7.63849
287,589,2.56335,-7.53329,0.000313341,6.09108e-05,-0.00143562,0.00162829,-0.00125404,-0.741553,0.00166878,0.0115299,1511,435,2.56336,7.53331
294,589,2.56396,-7.42636,0.000230835,0.000126284,-0.00113107,0.00131084,-0.000953719,-0.762306,0.00131285,0.00986771,1518,435,2.56391,7.42635
301,589,2.55298,-7.29303,9.96968e-05,0.000292194,-0.000938128,0.001139,-0.000747107,-0.836518,0.00109675,0.010461,1525,435,2.553,7.29302
308,589,2.5542,-7.17584,7.17418e-05,0.000638751,-0.000660599,0.00107411,-0.000363618,-0.988094,0.000863197,0.0107537,1532,435,2.55415,7.17583
315,589,2.5675,-7.06003,0.000160252,0.000892407,-0.00029844,0.000998642,5.40172e-05,-1.22882,0.000648506,0.0103988,1539,435,2.56749,7.06001
322,589,2.57581,-6.9325,0.000293579,0.000966258,0.00010236,0.000981489,0.000278348,1.42308,0.000584086,0.0110108,1546,435,2.57577,6.93249
329,589,2.57129,-6.79779,0.000467795,0.000961624,0.000553881,0.00132113,0.000108285,0.995072,0.000846971,0.0105047,1553,435,2.57124,6.79779
336,589,2.57202,-6.66782,0.000640263,0.00102294,0.00103519,0.00188433,-0.000221125,0.876784,0.00133604,0.00981648,1560,435,2.57202,6.66781
343,589,2.57458,-6.55621,0.000813914,0.00108033,0.00152987,0.00248279,-0.000588541,0.828824,0.00188229,0.0113056,1567,435,2.57462,6.55622
350,589,2.56677,-6.40451,0.00100546,0.00122861,0.00212345,0.00324341,-0.00100934,0.811646,0.00256578,0.0168004,1574,435,2.56683,6.40452
357,589,2.57117,-6.25641,0.0011069,0.00133112,0.00265705,0.00387842,-0.0014404,0.806482,0.00317654,0.0129702,1581,435,2.57112,6.25642
364,589,2.58362,-6.1116,0.00118905,0.00151511,0.0031229,0.00447924,-0.00177507,0.811477,0.00372173,0.0109041,1588,435,2.58363,6.1116
371,589,2.57397,-5.97171,0.00117527,0.00153027,0.00354843,0.00490564,-0.00220009,0.810389,0.00420045,0.0110317,1595,435,2.57398,5.97172
378,589,2.57141,-5.83099,0.000995088,0.00169973,0.00385611,0.00521958,-0.00252476,0.830955,0.00456054,0.0119271,1602,435,2.57144,5.83099
385,589,2.55847,-5.68192,0.000785862,0.00187145,0.00397637,0.0053419,-0.00268459,0.853231,0.00471799,0.0144751,1609,435,2.55843,5.68193
392,589,2.56348,-5.51645,0.000674599,0.00207262,0.00400035,0.00543457,-0.00268735,0.871893,0.00477777,0.0158435,1616,435,2.56351,5.51645
399,589,2.56506,-5.3678,0.000660116,0.00200336,0.00398883,0.00537671,-0.00271323,0.868804,0.00475436,0.019935,1623,435,2.56504,5.36779
406,589,2.50684,-5.21643,0.000595913,0.00165983,0.00378783,0.00495287,-0.00269713,0.855162,0.00448028,0.0459235,1630,435,2.5069,5.21644
413,589,2.50403,-5.01614,0,0,0,0,0,0,0,-1,1637,435,2.50401,5.01615
420,589,2.58801,-4.995,0,0,0,0,0,0,0,-1,1644,435,2.58798,4.99501
427,589,2.68567,-4.66809,0,0,0,0,0,0,0,-1,1651,435,2.68566,4.6681
434,589,2.52734,-2.73029,0,0,0,0,0,0,0,-1,1658,435,2.52736,2.73029
441,589,3.17639,-2.02435,0,0,0,0,0,0,0,-1,1665,435,3.17643,2.02435
448,589,0.453735,-3.2868,0,0,0,0,0,0,0,-1,1672,435,0.453701,3.28681
455,589,0.664307,-3.46848,0,0,0,0,0,0,0,-1,1679,435,0.66425,3.46846
462,589,1.39038,-3.79919,0,0,0,0,0,0,0,-1,1686,435,1.39034,3.79921
469,589,2.0033,-4.14169,0,0,0,0,0,0,0,-1,1693,435,2.00332,4.14168
476,589,0,0,0,0,0,0,0,0,0,-1,1700,435,0,0
483,589,0,0,0,0,0,0,0,0,0,-1,1707,435,0,0
490,589,0,0,0,0,0,0,0,0,0,-1,1714,435,0,0
497,589,0,0,0,0,0,0,0,0,0,-1,1721,435,0,0
504,589,0,0,0,0,0,0,0,0,0,-1,1728,435,0,0
511,589,0,0,0,0,0,0,0,0,0,-1,1735,435,0,0
518,589,0,0,0,0,0,0,0,0,0,-1,1742,435,0,0
525,589,0,0,0,0,0,0,0,0,0,-1,1749,435,0,0
532,589,0,0,0,0,0,0,0,0,0,-1,1756,435,0,0
539,589,0,0,0,0,0,0,0,0,0,-1,1763,435,0,0
546,589,0,0,0,0,0,0,0,0,0,-1,1770,435,0,0
553,589,0,0,0,0,0,0,0,0,0,-1,1777,435,0,0
560,589,0,0,0,0,0,0,0,0,0,-1,1784,435,0,0
567,589,0,0,0,0,0,0,0,0,0,-1,1791,435,0,0
574,589,0,0,0,0,0,0,0,0,0,-1,1798,435,0,0
581,589,0,0,0,0,0,0,0,0,0,-1,1805,435,0,0
588,589,0,0,0,0,0,0,0,0,0,-1,1812,435,0,0
595,589,0,0,0,0,0,0,0,0,0,-1,1819,435,0,0
602,589,0,0,0,0,0,0,0,0,0,-1,1826,435,0,0
609,589,0,0,0,0,0,0,0,0,0,-1,1833,435,0,0
616,589,0,0,0,0,0,0,0,0,0,-1,1840,435,0,0
623,589,0,0,0,0,0,0,0,0,0,-1,1847,435,0,0
630,589,0,0,0,0,0,0,0,0,0,-1,1854,435,0,0
637,589,0,0,0,0,0,0,0,0,0,-1,1861,435,0,0
644,589,0,0,0,0,0,0,0,0,0,-1,1868,435,0,0
651,589,0,0,0,0,0,0,0,0,0,-1,1875,435,0,0
658,589,0,0,0,0,0,0,0,0,0,-1,1882,435,0,0
665,589,0,0,0,0,0,0,0,0,0,-1,1889,435,0,0
672,589,0,0,0,0,0,0,0,0,0,-1,1896,435,0,0
679,589,0,0,0,0,0,0,0,0,0,-1,1903,435,0,0
686,589,0,0,0,0,0,0,0,0,0,-1,1910,435,0,0
693,589,0,0,0,0,0,0,0,0,0,-1,1917,435,0,0
700,589,0,0,0,0,0,0,0,0,0,-1,1924,435,0,0
707,589,0,0,0,0,0,0,0,0,0,-1,1931,435,0,0
714,589,0,0,0,0,0,0,0,0,0,-1,1938,435,0,0
721,589,0,0,0,0,0,0,0,0,0,-1,1945,435,0,0
728,589,0,0,0,0,0,0,0,0,0,-1,1952,435,0,0
735,589,0,0,0,0,0,0,0,0,0,-1,1959,435,0,0
742,589,0,0,0,0,0,0,0,0,0,-1,1966,435,0,0
749,589,0,0,0,0,0,0,0,0,0,-1,1973,435,0,0
756,589,0,0,0,0,0,0,0,0,0,-1,1980,435,0,0
763,589,0,0,0,0,0,0,0,0,0,-1,1987,435,0,0
770,589,0,0,0,0,0,0,0,0,0,-1,1994,435,0,0
777,589,0,0,0,0,0,0,0,0,0,-1,2001,435,0,0
784,589,0,0,0,0,0,0,0,0,0,-1,2008,435,0,0
791,589,0,0,0,0,0,0,0,0,0,-1,2015,435,0,0
798,589,0,0,0,0,0,0,0,0,0,-1,2022,435,0,0
805,589,0,0,0,0,0,0,0,0,0,-1,2029,435,0,0
812,589,0,0,0,0,0,0,0,0,0,-1,2036,435,0,0
-700,582,0,0,0,0,0,0,0,0,0,-1,524,442,0,0
-693,582,0,0,0,0,0,0,0,0,0,-1,531,442,0,0
-686,582,0,0,0,0,0,0,0,0,0,-1,538,442,0,0
-679,582,0,0,0,0,0,0,0,0,0,-1,545,442,0,0
-672,582,0,0,0,0,0,0,0,0,0,-1,552,442,0,0
-665,582,0,0,0,0,0,0,0,0,0,-1,559,442,0,0
-658,582,0,0,0,0,0,0,0,0,0,-1,566,442,0,0
-651,582,0,0,0,0,0,0,0,0,0,-1,573,442,0,0
-644,582,0,0,0,0,0,0,0,0,0,-1,580,442,0,0
-637,582,0,0,0,0,0,0,0,0,0,-1,587,442,0,0
-630,582,0,0,0,0,0,0,0,0,0,-1,594,442,0,0
-623,582,0,0,0,0,0,0,0,0,0,-1,601,442,0,0
-616,582,0,0,0,0,0,0,0,0,0,-1,608,442,0,0
-609,582,0,0,0,0,0,0,0,0,0,-1,615,442,0,0
-602,582,0,0,0,0,0,0,0,0,0,-1,622,442,0,0
-595,582,0,0,0,0,0,0,0,0,0,-1,629,442,0,0
-588,582,0,0,0,0,0,0,0,0,0,-1,636,442,0,0
-581,582,0,0,0,0,0,0,0,0,0,-1,643,442,0,0
-574,582,0,0,0,0,0,0,0,0,0,-1,650,442,0,0
-567,582,0,0,0,0,0,0,0,0,0,-1,657,442,0,0
-560,582,0,0,0,0,0,0,0,0,0,-1,664,442,0,0
-553,582,0,0,0,0,0,0,0,0,0,-1,671,442,0,0
-546,582,0,0,0,0,0,0,0,0,0,-1,678,442,0,0
-539,582,0,0,0,0,0,0,0,0,0,-1,685,442,0,0
-532,582,0,0,0,0,0,0,0,0,0,-1,692,442,0,0
-525,582,0,0,0,0,0,0,0,0,0,-1,699,442,0,0
-518,582,0,0,0,0,0,0,0,0,0,-1,706,442,0,0
-511,582,0,0,0,0,0,0,0,0,0,-1,713,442,0,0
-504,582,0,0,0,0,0,0,0,0,0,-1,720,442,0,0
-497,582,0,0,0,0,0,0,0,0,0,-1,727,442,0,0
-490,582,0,0,0,0,0,0,0,0,0,-1,734,442,0,0
-483,582,0,0,0,0,0,0,0,0,0,-1,741,442,0,0
-476,582,0,0,0,0,0,0,0,0,0,-1,748,442,0,0
-469,582,0,0,0,0,0,0,0,0,0,-1,755,442,0,0
-462,582,0,0,0,0,0,0,0,0,0,-1,762,442,0,0
-455,582,0,0,0,0,0,0,0,0,0,-1,769,442,0,0
-448,582,0,0,0,0,0,0,0,0,0,-1,776,442,0,0
-441,582,0,0,0,0,0,0,0,0,0,-1,783,442,0,0
-434,582,0,0,0,0,0,0,0,0,0,-1,790,442,0,0
-427,582,0,0,0,0,0,0,0,0,0,-1,797,442,0,0
-420,582,0,0,0,0,0,0,0,0,0,-1,804,442,0,0
-413,582,0,0,0,0,0,0,0,0,0,-1,811,442,0,0
-406,582,0,0,0,0,0,0,0,0,0,-1,818,442,0,0
-399,582,0,0,0,0,0,0,0,0,0,-1,825,442,0,0
-392,582,0,0,0,0,0,0,0,0,0,-1,832,442,0,0
-385,582,0,0,0,0,0,0,0,0,0,-1,839,442,0,0
-378,582,0,0,0,0,0,0,0,0,0,-1,846,442,0,0
-371,582,0,0,0,0,0,0,0,0,0,-1,853,442,0,0
-364,582,0,0,0,0,0,0,0,0,0,-1,860,442,0,0
-357,582,6.4043,-4.18127,0,0,0,0,0,0,0,-1,867,442,6.40427,4.18126
-350,582,-1.12933,-15.713,0,0,0,0,0,0,0,-1,874,442,-1.12935,15.713
-343,582,-0.551086,-15.4312,0,0,0,0,0,0,0,-1,881,442,-0.5511,15.4311
-336,582,0.0556641,-4.78558,0,0,0,0,0,0,0,-1,888,442,0.0556634,4.78559
-329,582,-0.111694,-4.91577,0,0,0,0,0,0,0,-1,895,442,-0.111685,4.91578
-322,582,0.0692139,-5.57755,0,0,0,0,0,0,0,-1,902,442,0.0691884,5.57755
-315,582,0.488342,-5.5929,0.0221768,0.0241002,0.0656734,0.0888189,-0.0425419,0.79272,0.077394,0.0494373,909,442,0.488372,5.59291
-308,582,0.991333,-5.58862,0.0194479,0.0175217,0.0574961,0.075989,-0.0390194,0.777024,0.0675339,0.0473596,916,442,0.991314,5.58862
-301,582,1.3775,-5.7153,0.0167666,0.0125537,0.049002,0.0637073,-0.0343871,0.763918,0.057472,0.0445585,923,442,1.37748,5.71529
-294,582,1.23468,-5.91437,0.0142347,0.00857322,0.0398168,0.0513213,-0.0285134,0.749911,0.0467154,0.0426006,930,442,1.23465,5.91435
-287,582,1.32123,-6.0578,0.0116079,0.00463296,0.031207,0.0395216,-0.0232808,0.729753,0.0366609,0.0318811,937,442,1.32121,6.0578
-280,582,1.4162,-6.20325,0.00959094,0.00354462,0.0236292,0.0303896,-0.017254,0.721773,0.0278533,0.0150688,944,442,1.4162,6.20325
-273,582,1.3996,-6.33777,0.00766188,0.00165489,0.016893,0.0218163,-0.0124995,0.69742,0.0200541,0.0102544,951,442,1.39962,6.33776
-266,582,1.38818,-6.48813,0.00631045,0.000696372,0.0100118,0.0139012,-0.00689443,0.648721,0.0122315,0.00953193,958,442,1.38819,6.48813
-259,582,1.38757,-6.63498,0.00472428,0.00167696,0.00451895,0.00796953,-0.00156829,0.622798,0.00590561,0.00836112,965,442,1.38757,6.63497
-252,582,1.38727,-6.77081,0.00334677,0.00162578,0.000745687,0.00362492,0.00134764,0.35702,0.00211566,0.00784331,972,442,1.38728,6.77083
-245,582,1.38611,-6.87915,0.00285899,0.00156274,-0.00158767,0.00392573,0.000495998,-0.59161,0.00246849,0.0111675,979,442,1.38611,6.87916
-238,582,1.3761,-6.9957,0.00271907,0.00174453,-0.00199236,0.00428288,0.000180719,-0.665467,0.00279696,0.0153524,986,442,1.37607,6.99569
-231,582,1.37646,-7.12585,0.00244824,0.00173245,-0.00199859,0.00412073,5.99639e-05,-0.6968,0.00272738,0.0120275,993,442,1.37648,7.12584
-224,582,1.36053,-7.25342,0.00208063,0.00188465,-0.00190995,0.00389511,7.01784e-05,-0.759768,0.00257367,0.0095068,1000,442,1.36051,7.25341
-217,582,1.35352,-7.3757,0.00183746,0.00208386,-0.00185619,0.00382094,0.000100383,-0.818536,0.0025145,0.0116702,1007,442,1.35354,7.37571
-210,582,1.37225,-7.47992,0.00152546,0.00198431,-0.00176055,0.00353032,-2.05514e-05,-0.850191,0.00236043,0.0124983,1014,442,1.37227,7.47993
-203,582,1.38556,-7.58856,0.00120622,0.00192541,-0.00165514,0.00325957,-0.000127937,-0.892366,0.00221692,0.00993353,1021,442,1.38554,7.58857
-196,582,1.38855,-7.71887,0.000997224,0.00181578,-0.00156097,0.00302023,-0.000207227,-0.91361,0.002086,0.0145982,1028,442,1.38856,7.71887
-189,582,1.33496,-7.83188,0.000850634,0.00180524,-0.00154775,0.00294762,-0.000291742,-0.934964,0.00206919,0.020473,1035,442,1.33495,7.83189
-182,582,1.33813,-7.91397,0.000897268,0.00171432,-0.00163715,0.00299314,-0.000381557,-0.907668,0.00213402,0.014439,1042,442,1.33819,7.91397
-175,582,1.38196,-7.97638,0.000974366,0.00137203,-0.00165585,0.00284095,-0.000494547,-0.845152,0.00207852,0.012951,1049,442,1.38196,7.97637
-168,582,1.39575,-8.08099,0.00120002,0.000724553,-0.00177346,0.00275161,-0.000827039,-0.71877,0.00216344,0.011155,1056,442,1.39575,8.081
-161,582,1.3905,-8.16843,0.00129938,-0.000361613,-0.00193663,0.00257608,-0.00163831,-0.58284,0.00245318,0.0120413,1063,442,1.39055,8.16843
-154,582,1.38879,-8.25302,0.00137143,-0.00139701,-0.00198417,0.00240651,-0.00243209,-0.48083,0.00279358,0.0115659,1070,442,1.38876,8.25303
-147,582,1.41406,-8.34573,0.00175117,-0.00261766,-0.00196573,0.00250542,-0.00337191,-0.366377,0.00340554,0.0111497,1077,442,1.41404,8.34572
-140,582,1.42859,-8.41257,0.00231658,-0.00422158,-0.00167794,0.00272206,-0.00462706,-0.237106,0.00429027,0.0119161,1084,442,1.42856,8.41256
-133,582,1.44604,-8.5098,0.00270987,-0.00591582,-0.00145723,0.00294941,-0.00615535,-0.16292,0.00536416,0.0145803,1091,442,1.44602,8.50978
-126,582,1.44775,-8.55902,0.00322784,-0.00794205,-0.00114563,0.00334413,-0.00805834,-0.101161,0.00676817,0.0129704,1098,442,1.44772,8.55902
-119,582,1.43457,-8.6116,0.0038538,-0.0100862,-0.000871803,0.00390811,-0.0101405,-0.0622167,0.00837278,0.0164856,1105,442,1.43455,8.6116
-112,582,1.40356,-8.71487,0.00426422,-0.0120651,-0.000299494,0.00426971,-0.0120706,-0.0183326,0.00978589,0.0241298,1112,442,1.40356,8.71487
-105,582,1.40027,-8.76013,0.00475872,-0.0134716,0.000407892,0.00476784,-0.0134808,0.0223594,0.0109288,0.0317807,1119,442,1.40026,8.76014
-98,582,1.56287,-8.82379,0.005444,-0.0149144,0.00108111,0.00550125,-0.0149716,0.0529055,0.0122343,0.0325623,1126,442,1.56286,8.82379
-91,582,1.77563,-8.80521,0.00626179,-0.0155744,0.0014959,0.00636379,-0.0156764,0.0680815,0.0130981,0.0359019,1133,442,1.7756,8.8052
-84,582,1.75281,-8.86377,0.00691904,-0.0156084,0.00192078,0.00708164,-0.015771,0.0844515,0.0135082,0.0416602,1140,442,1.7528,8.86377
-77,582,1.60889,-9.01514,0,0,0,0,0,0,0,-1,1147,442,1.60892,9.01515
-70,582,1.49255,-6.36548,0,0,0,0,0,0,0,-1,1154,442,1.49251,6.36549
-63,582,-4.62915,-4.0347,0,0,0,0,0,0,0,-1,1161,442,-4.6292,4.03471
-56,582,-5.81714,-5.24149,0,0,0,0,0,0,0,-1,1168,442,-5.81718,5.24149
-49,582,-3.88672,-10.1064,0,0,0,0,0,0,0,-1,1175,442,-3.88678,10.1064
-42,582,-0.948975,1.13968,0,0,0,0,0,0,0,-1,1182,442,-0.949003,-1.13969
-35,582,-2.58435,-3.86911,0,0,0,0,0,0,0,-1,1189,442,-2.58437,3.86912
-28,582,-0.825317,-3.45941,0,0,0,0,0,0,0,-1,1196,442,-0.825377,3.45942
-21,582,3.67322,-8.62357,0,0,0,0,0,0,0,-1,1203,442,3.67324,8.62355
-14,582,2.94043,-8.71582,0,0,0,0,0,0,0,-1,1210,442,2.94045,8.71583
-7,582,2.19702,-8.49255,0,0,0,0,0,0,0,-1,1217,442,2.19696,8.49255
0,582,1.58032,-8.1926,0,0,0,0,0,0,0,-1,1224,442,1.58037,8.19258
7,582,1.68933,-8.73349,0.026856,0.0290983,-0.000986994,0.0294708,0.0264835,-1.20987,0.018731,0.0484658,1231,442,1.68939,8.73348
14,582,1.73389,-9.42719,0.0311823,0.0403578,0.00210025,0.0408157,0.0307244,1.35614,0.0245481,0.0465475,1238,442,1.73387,9.42718
21,582,1.77808,-10.0993,0.0342318,0.0515485,0.00537315,0.0530802,0.0327,1.29309,0.0309198,0.0419032,1245,442,1.77803,10.0993
28,582,1.99646,-10.8104,0.0365681,0.0624756,0.0082962,0.0649045,0.0341392,1.28598,0.0374895,0.0451175,1252,442,1.99651,10.8104
35,582,2.0769,-10.954,0.0385012,0.0732081,0.0111738,0.0764943,0.035215,1.28476,0.0442103,0.0493532,1259,442,2.07696,10.954
42,582,2.07727,-11.3586,0,0,0,0,0,0,0,-1,1266,442,2.07731,11.3585
49,582,1.96375,-11.8614,0.0409672,0.0925291,0.0171675,0.097722,0.0357743,1.27706,0.0570904,0.0461851,1273,442,1.9638,11.8614
56,582,1.90833,-12.703,0.0422307,0.0993462,0.019378,0.1053,0.0362768,1.2727,0.0617672,0.0451569,1280,442,1.90827,12.703
63,582,2.35571,-9.16013,0.0431677,0.104115,0.021025,0.110664,0.0366185,1.26883,0.0650987,0.0468147,1287,442,2.3557,9.16014
70,582,2.41943,-8.83313,0,0,0,0,0,0,0,-1,1294,442,2.41947,8.83313
77,582,2.15442,-12.4463,0,0,0,0,0,0,0,-1,1301,442,2.15438,12.4463
84,582,2.56665,-12.0527,0,0,0,0,0,0,0,-1,1308,442,2.56671,12.0527
91,582,2.8175,-11.6168,0.0414256,0.0987612,0.0207073,0.105458,0.0347291,1.25802,0.0620573,0.0480233,1315,442,2.81752,11.6168
98,582,2.80127,-11.0164,0.0409857,0.0920688,0.019361,0.0985776,0.034477,1.24649,0.0577641,0.0445965,1322,442,2.80132,11.0164
105,582,2.89709,-9.81082,0,0,0,0,0,0,0,-1,1329,442,2.89707,9.81081
112,582,2.828,-10.1559,0,0,0,0,0,0,0,-1,1336,442,2.82801,10.1559
119,582,2.27942,-8.99234,0,0,0,0,0,0,0,-1,1343,442,2.27942,8.99235
126,582,2.17712,-9.52786,0,0,0,0,0,0,0,-1,1350,442,2.17713,9.52787
133,582,2.33105,-9.31082,0,0,0,0,0,0,0,-1,1357,442,2.33102,9.31083
140,582,5.72253,-5.90295,0,0,0,0,0,0,0,-1,1364,442,5.72254,5.90295
147,582,6.2583,-4.42792,0,0,0,0,0,0,0,-1,1371,442,6.25835,4.42791
154,582,1.38611,-7.71942,0,0,0,0,0,0,0,-1,1378,442,1.3861,7.71942
161,582,2.45288,-8.43344,0,0,0,0,0,0,0,-1,1385,442,2.4529,8.43345
168,582,4.51733,-5.80917,0,0,0,0,0,0,0,-1,1392,442,4.51737,5.80918
175,582,6.50549,-2.00424,0,0,0,0,0,0,0,-1,1399,442,6.50546,2.00425
182,582,5.18958,-2.18652,0,0,0,0,0,0,0,-1,1406,442,5.1896,2.18652
189,582,6.19751,-0.880951,0,0,0,0,0,0,0,-1,1413,442,6.19754,0.88096
196,582,4.87354,-2.22327,0,0,0,0,0,0,0,-1,1420,442,4.87348,2.22325
203,582,3.11401,-4.48257,0,0,0,0,0,0,0,-1,1427,442,3.11404,4.48259
210,582,2.40393,-8.27451,0,0,0,0,0,0,0,-1,1434,442,2.40388,8.2745
217,582,2.49268,-8.38553,0.00152134,0.00354813,-0.0047971,0.00743771,-0.00236824,-0.889493,0.00590828,0.0424845,1441,442,2.49268,8.38553
224,582,2.51074,-8.48566,0.00152139,0.00337689,-0.00444344,0.00698841,-0.00209012,-0.888315,0.00548991,0.048493,1448,442,2.51074,8.48565
231,582,2.64648,-8.431,0.00153369,0.0028926,-0.00410229,0.00637133,-0.00194504,-0.867467,0.00502303,0.0425296,1455,442,2.64643,8.431
238,582,2.59839,-8.32434,0.00159376,0.00217652,-0.00381435,0.00571061,-0.00194032,-0.823519,0.00459257,0.0382894,1462,442,2.59842,8.32435
245,582,2.61182,-8.29211,0.00159767,0.00140938,-0.00369537,0.00520009,-0.00219304,-0.772663,0.00438454,0.03553,1469,442,2.61179,8.2921
252,582,2.68237,-8.07721,0.00142417,0.000802121,-0.00356142,0.00468812,-0.00246184,-0.741843,0.0041942,0.022622,1476,442,2.68235,8.07721
259,582,2.61902,-7.98755,0.00126008,0.000127884,-0.00332004,0.00406194,-0.00267398,-0.700956,0.0039164,0.0168363,1483,442,2.61897,7.98756
266,582,2.61267,-7.89011,0.0010361,-0.000292356,-0.00314526,0.00358651,-0.00284276,-0.681335,0.00372021,0.0122618,1490,442,2.6127,7.89009
273,582,2.65198,-7.76242,0.000605601,-0.000445451,-0.00296765,0.0030939,-0.00293375,-0.697764,0.00348048,0.0115201,1497,442,2.65198,7.76242
280,582,2.64758,-7.64685,0.000325345,-0.0006257,-0.00268617,0.00257775,-0.00287811,-0.697793,0.00315154,0.0114126,1504,442,2.64755,7.64684
287,582,2.66748,-7.5343,0.00017961,-0.000537863,-0.00241768,0.00226503,-0.00262328,-0.711745,0.00282479,0.0109611,1511,442,2.66749,7.53431
294,582,2.6897,-7.43106,0.000104299,-0.00051814,-0.00207291,0.00188922,-0.00230306,-0.710886,0.00242435,0.00917889,1518,442,2.6897,7.43105
301,582,2.69397,-7.2998,-5.20748e-05,-0.000401416,-0.00188572,0.00166705,-0.00212054,-0.739216,0.00219198,0.00984439,1525,442,2.69392,7.29981
308,582,2.70288,-7.16977,-0.00013166,-6.42176e-05,-0.00167287,0.00157527,-0.00177115,-0.795476,0.00193316,0.0129745,1532,442,2.70291,7.16977
315,582,2.69958,-7.0513,-9.17093e-05,0.00020441,-0.00135114,0.00141557,-0.00130287,-0.839971,0.00156995,0.0135131,1539,442,2.69954,7.05129
322,582,2.6958,-6.92725,-3.18685e-05,0.000221869,-0.000998757,0.00110178,-0.000911782,-0.848573,0.00116426,0.0103251,1546,442,2.69585,6.92724
329,582,2.7074,-6.80566,7.64899e-05,0.000183871,-0.00060258,0.000735147,-0.000474787,-0.829831,0.000703926,0.0107313,1553,442,2.70741,6.80565
336,582,2.71387,-6.67795,0.000213484,0.000252444,-0.000161591,0.000395725,7.02031e-05,-0.845383,0.000243809,0.0112628,1560,442,2.71392,6.67795
343,582,2.70532,-6.53058,0.000320377,0.000334786,0.000313435,0.0006411,1.40641e-05,0.796889,0.00042279,0.0127312,1567,442,2.70535,6.53057
350,582,2.69385,-6.39731,0.000436049,0.000475221,0.000862385,0.00131824,-0.000406972,0.796752,0.00104134,0.0155497,1574,442,2.6938,6.39729
357,582,2.69873,-6.25656,0.000541147,0.000631316,0.00139193,0.00197889,-0.000806425,0.801587,0.00165491,0.0132299,1581,442,2.69869,6.25656
364,582,2.7085,-6.12253,0.000610226,0.0009041,0.0018797,0.00264259,-0.00112827,0.824404,0.00223486,0.0103135,1588,442,2.7085,6.12253
371,582,2.68909,-5.97479,0.000603676,0.00106619,0.00231091,0.00315738,-0.00148751,0.835269,0.00273889,0.0141563,1595,442,2.68903,5.9748
378,582,2.68079,-5.84354,0.000535573,0.00122528,0.00264988,0.00355265,-0.0017918,0.850104,0.00314094,0.0156092,1602,442,2.68084,5.84354
385,582,2.69971,-5.7066,0.00044352,0.00132917,0.00280051,0.00372165,-0.00194897,0.86381,0.00332683,0.0117845,1609,442,2.69974,5.7066
392,582,2.68018,-5.53918,0.000441538,0.00137393,0.00288844,0.00383356,-0.00201809,0.865408,0.00343222,0.0100513,1616,442,2.6802,5.53918
399,582,2.67773,-5.38776,0.00049934,0.00129519,0.00295253,0.00387649,-0.00208195,0.852382,0.00349173,0.0118504,1623,442,2.67777,5.38774
406,582,2.65955,-5.20905,0.000516803,0.00100327,0.00286315,0.0036335,-0.00211343,0.827773,0.00335646,0.0170102,1630,442,2.65954,5.20904
413,582,2.66528,-5.02475,0.000273658,0.00206957,0.00208217,0.00343916,-0.00109593,0.988979,0.00273236,0.0357427,1637,442,2.66532,5.02474
420,582,2.64355,-5.00775,0.00164637,0.00357643,0.000264417,0.003612,0.0016108,1.43708,0.00208945,0.0482942,1644,442,2.6436,5.00777
427,582,2.64966,-4.81964,0.0043305,0.0043063,-0.00160709,0.00592554,0.00271126,-0.781633,0.00342522,0.0461212,1651,442,2.64965,4.81965
434,582,2.56213,-4.73862,0,0,0,0,0,0,0,-1,1658,442,2.56207,4.73861
441,582,2.62695,-4.49017,0,0,0,0,0,0,0,-1,1665,442,2.62697,4.49016
448,582,1.52722,-2.85928,0,0,0,0,0,0,0,-1,1672,442,1.52724,2.85927
455,582,1.39661,-3.32297,0,0,0,0,0,0,0,-1,1679,442,1.3966,3.32297
462,582,2.10498,-3.58261,0,0,0,0,0,0,0,-1,1686,442,2.105,3.58262
469,582,2.18701,-3.2388,0,0,0,0,0,0,0,-1,1693,442,2.18701,3.23881
476,582,2.76086,-3.62173,0,0,0,0,0,0,0,-1,1700,442,2.7608,3.62174
483,582,0,0,0,0,0,0,0,0,0,-1,1707,442,0,0
490,582,0,0,0,0,0,0,0,0,0,-1,1714,442,0,0
497,582,0,0,0,0,0,0,0,0,0,-1,1721,442,0,0
504,582,0,0,0,0,0,0,0,0,0,-1,1728,442,0,0
511,582,0,0,0,0,0,0,0,0,0,-1,1735,442,0,0
518,582,0,0,0,0,0,0,0,0,0,-1,1742,442,0,0
525,582,0,0,0,0,0,0,0,0,0,-1,1749,442,0,0
532,582,0,0,0,0,0,0,0,0,0,-1,1756,442,0,0
539,582,0,0,0,0,0,0,0,0,0,-1,1763,442,0,0
546,582,0,0,0,0,0,0,0,0,0,-1,1770,442,0,0
553,582,0,0,0,0,0,0,0,0,0,-1,1777,442,0,0
560,582,0,0,0,0,0,0,0,0,0,-1,1784,442,0,0
567,582,0,0,0,0,0,0,0,0,0,-1,1791,442,0,0
574,582,0,0,0,0,0,0,0,0,0,-1,1798,442,0,0
581,582,0,0,0,0,0,0,0,0,0,-1,1805,442,0,0
588,582,0,0,0,0,0,0,0,0,0,-1,1812,442,0,0
595,582,0,0,0,0,0,0,0,0,0,-1,1819,442,0,0
602,582,0,0,0,0,0,0,0,0,0,-1,1826,442,0,0
609,582,0,0,0,0,0,0,0,0,0,-1,1833,442,0,0
616,582,0,0,0,0,0,0,0,0,0,-1,1840,442,0,0
623,582,0,0,0,0,0,0,0,0,0,-1,1847,442,0,0
630,582,0,0,0,0,0,0,0,0,0,-1,1854,442,0,0
637,582,0,0,0,0,0,0,0,0,0,-1,1861,442,0,0
644,582,0,0,0,0,0,0,0,0,0,-1,1868,442,0,0
651,582,0,0,0,0,0,0,0,0,0,-1,1875,442,0,0
658,582,0,0,0,0,0,0,0,0,0,-1,1882,442,0,0
665,582,0,0,0,0,0,0,0,0,0,-1,1889,442,0,0
672,582,0,0,0,0,0,0,0,0,0,-1,1896,442,0,0
679,582,0,0,0,0,0,0,0,0,0,-1,1903,442,0,0
686,582,0,0,0,0,0,0,0,0,0,-1,1910,442,0,0
693,582,0,0,0,0,0,0,0,0,0,-1,1917,442,0,0
700,582,0,0,0,0,0,0,0,0,0,-1,1924,442,0,0
707,582,0,0,0,0,0,0,0,0,0,-1,1931,442,0,0
714,582,0,0,0,0,0,0,0,0,0,-1,1938,442,0,0
721,582,0,0,0,0,0,0,0,0,0,-1,1945,442,0,0
728,582,0,0,0,0,0,0,0,0,0,-1,1952,442,0,0
735,582,0,0,0,0,0,0,0,0,0,-1,1959,442,0,0
742,582,0,0,0,0,0,0,0,0,0,-1,1966,442,0,0
749,582,0,0,0,0,0,0,0,0,0,-1,1973,442,0,0
756,582,0,0,0,0,0,0,0,0,0,-1,1980,442,0,0
763,582,0,0,0,0,0,0,0,0,0,-1,1987,442,0,0
770,582,0,0,0,0,0,0,0,0,0,-1,1994,442,0,0
777,582,0,0,0,0,0,0,0,0,0,-1,2001,442,0,0
784,582,0,0,0,0,0,0,0,0,0,-1,2008,442,0,0
791,582,0,0,0,0,0,0,0,0,0,-1,2015,442,0,0
798,582,0,0,0,0,0,0,0,0,0,-1,2022,442,0,0
805,582,0,0,0,0,0,0,0,0,0,-1,2029,442,0,0
812,582,0,0,0,0,0,0,0,0,0,-1,2036,442,0,0
-700,575,0,0,0,0,0,0,0,0,0,-1,524,449,0,0
-693,575,0,0,0,0,0,0,0,0,0,-1,531,449,0,0
-686,575,0,0,0,0,0,0,0,0,0,-1,538,449,0,0
-679,575,0,0,0,0,0,0,0,0,0,-1,545,449,0,0
-672,575,0,0,0,0,0,0,0,0,0,-1,552,449,0,0
-665,575,0,0,0,0,0,0,0,0,0,-1,559,449,0,0
-658,575,0,0,0,0,0,0,0,0,0,-1,566,449,0,0
-651,575,0,0,0,0,0,0,0,0,0,-1,573,449,0,0
-644,575,0,0,0,0,0,0,0,0,0,-1,580,449,0,0
-637,575,0,0,0,0,0,0,0,0,0,-1,587,449,0,0
-630,575,0,0,0,0,0,0,0,0,0,-1,594,449,0,0
-623,575,0,0,0,0,0,0,0,0,0,-1,601,449,0,0
-616,575,0,0,0,0,0,0,0,0,0,-1,608,449,0,0
-609,575,0,0,0,0,0,0,0,0,0,-1,615,449,0,0
-602,575,0,0,0,0,0,0,0,0,0,-1,622,449,0,0
-595,575,0,0,0,0,0,0,0,0,0,-1,629,449,0,0
-588,575,0,0,0,0,0,0,0,0,0,-1,636,449,0,0
-581,575,0,0,0,0,0,0,0,0,0,-1,643,449,0,0
-574,575,0,0,0,0,0,0,0,0,0,-1,650,449,0,0
-567,575,0,0,0,0,0,0,0,0,0,-1,657,449,0,0
-560,575,0,0,0,0,0,0,0,0,0,-1,664,449,0,0
-553,575,0,0,0,0,0,0,0,0,0,-1,671,449,0,0
-546,575,0,0,0,0,0,0,0,0,0,-1,678,449,0,0
-539,575,0,0,0,0,0,0,0,0,0,-1,685,449,0,0
-532,575,0,0,0,0,0,0,0,0,0,-1,692,449,0,0
-525,575,0,0,0,0,0,0,0,0,0,-1,699,449,0,0
-518,575,0,0,0,0,0,0,0,0,0,-1,706,449,0,0
-511,575,0,0,0,0,0,0,0,0,0,-1,713,449,0,0
-504,575,0,0,0,0,0,0,0,0,0,-1,720,449,0,0
-497,575,0,0,0,0,0,0,0,0,0,-1,727,449,0,0
-490,575,0,0,0,0,0,0,0,0,0,-1,734,449,0,0
-483,575,0,0,0,0,0,0,0,0,0,-1,741,449,0,0
-476,575,0,0,0,0,0,0,0,0,0,-1,748,449,0,0
-469,575,0,0,0,0,0,0,0,0,0,-1,755,449,0,0
-462,575,0,0,0,0,0,0,0,0,0,-1,762,449,0,0
-455,575,0,0,0,0,0,0,0,0,0,-1,769,449,0,0
-448,575,0,0,0,0,0,0,0,0,0,-1,776,449,0,0
-441,575,0,0,0,0,0,0,0,0,0,-1,783,449,0,0
-434,575,0,0,0,0,0,0,0,0,0,-1,790,449,0,0
-427,575,0,0,0,0,0,0,0,0,0,-1,797,449,0,0
-420,575,0,0,0,0,0,0,0,0,0,-1,804,449,0,0
-413,575,0,0,0,0,0,0,0,0,0,-1,811,449,0,0
-406,575,0,0,0,0,0,0,0,0,0,-1,818,449,0,0
-399,575,0,0,0,0,0,0,0,0,0,-1,825,449,0,0
-392,575,0,0,0,0,0,0,0,0,0,-1,832,449,0,0
-385,575,0,0,0,0,0,0,0,0,0,-1,839,449,0,0
-378,575,0,0,0,0,0,0,0,0,0,-1,846,449,0,0
-371,575,0.56897,-3.52304,0,0,0,0,0,0,0,-1,853,449,0.568955,3.52306
-364,575,-1.88873,-3.23779,0,0,0,0,0,0,0,-1,860,449,-1.88874,3.23779
-357,575,7.00562,-3.99518,0,0,0,0,0,0,0,-1,867,449,7.0056,3.99517
-350,575,-1.09674,-6.20343,0,0,0,0,0,0,0,-1,874,449,-1.09671,6.20344
-343,575,0.272766,-5.14453,0,0,0,0,0,0,0,-1,881,449,0.272767,5.14453
-336,575,0.343018,-5.08307,0.0243304,0.0386836,0.0619791,0.0939002,-0.0308862,0.843037,0.0750449,0.0497878,888,449,0.343009,5.08307
-329,575,0.194824,-5.17776,0.0229169,0.0310005,0.0552366,0.0823429,-0.0284256,0.82192,0.0664296,0.0487646,895,449,0.194835,5.17775
-322,575,0.201416,-5.61279,0,0,0,0,0,0,0,-1,902,449,0.201421,5.61281
-315,575,0.62207,-5.64166,0.0178606,0.0178292,0.0452598,0.0631047,-0.0274149,0.785225,0.0535985,0.0463997,909,449,0.622089,5.64166
-308,575,0.994263,-5.70575,0.0155285,0.0129671,0.0391219,0.0533907,-0.0248951,0.769036,0.0461856,0.0437195,916,449,0.994266,5.70576
-301,575,1.36267,-5.8226,0.0132932,0.00928116,0.033224,0.0445717,-0.0219973,0.755245,0.0391634,0.0335495,923,449,1.36268,5.82259
-294,575,1.29504,-5.98035,0.011134,0.00639083,0.0269468,0.0358134,-0.0182886,0.741506,0.0317773,0.0236645,930,449,1.29505,5.98036
-287,575,1.29327,-6.12308,0.00896316,0.0034786,0.021015,0.027414,-0.0149723,0.720519,0.0248207,0.0155299,937,449,1.29326,6.12309
-280,575,1.29932,-6.24359,0.00726859,0.00272514,0.0160285,0.0211856,-0.0111919,0.715002,0.0189876,0.0112278,944,449,1.29931,6.2436
-273,575,1.28668,-6.36664,0.0056757,0.00140633,0.0114902,0.0152279,-0.00814583,0.693554,0.0136997,0.0101265,951,449,1.28669,6.36663
-266,575,1.27002,-6.50122,0.00462517,0.000803123,0.00668931,0.00967108,-0.00424279,0.646263,0.00823444,0.0110579,958,449,1.26999,6.50121
-259,575,1.27155,-6.63733,0.00340105,0.0015721,0.00292718,0.00555328,-0.00058013,0.633998,0.00390993,0.0112291,965,449,1.27157,6.63733
-252,575,1.2522,-6.76401,0.00240483,0.00164128,0.000322221,0.00252264,0.00152347,0.3505,0.00146689,0.0105103,972,449,1.25223,6.76399
-245,575,1.23572,-6.88416,0.00213224,0.00161899,-0.0013427,0.00324262,0.000508609,-0.690974,0.00201374,0.0130582,979,449,1.23569,6.88414
-238,575,1.24127,-7.00797,0.00214469,0.00177369,-0.0017556,0.00372456,0.00019382,-0.732763,0.00242102,0.0132133,986,449,1.24126,7.00795
-231,575,1.25208,-7.12109,0.00201435,0.00179682,-0.00187606,0.00378479,2.63791e-05,-0.756442,0.00251445,0.01163,993,449,1.2521,7.1211
-224,575,1.2533,-7.23236,0.00174447,0.00198896,-0.00185678,0.00372752,5.91169e-06,-0.818269,0.00248304,0.0115414,1000,449,1.2533,7.23237
-217,575,1.25568,-7.35764,0.0015898,0.00217524,-0.00186303,0.00376841,-3.36382e-06,-0.863321,0.00251339,0.0100995,1007,449,1.25567,7.35764
-210,575,1.26373,-7.48715,0.00137915,0.00205105,-0.00186076,0.00360594,-0.000175745,-0.874709,0.00246463,0.0091353,1014,449,1.26375,7.48716
-203,575,1.26318,-7.59705,0.00117895,0.00201108,-0.00186886,0.00350963,-0.000319607,-0.894927,0.00245324,0.0119353,1021,449,1.26321,7.59705
-196,575,1.2738,-7.72836,0.00105865,0.00187588,-0.0018493,0.00336118,-0.000426637,-0.894129,0.00239569,0.0146945,1028,449,1.27385,7.72836
-189,575,1.26404,-7.83032,0.000995234,0.00178299,-0.00191093,0.00334021,-0.000561982,-0.887035,0.00243584,0.0151751,1035,449,1.26402,7.83033
-182,575,1.26001,-7.90155,0.00107887,0.00175291,-0.00205784,0.00350115,-0.000669368,-0.866565,0.00258626,0.0137345,1042,449,1.26006,7.90155
-175,575,1.28894,-7.97379,0.0012069,0.00149459,-0.00217605,0.00353154,-0.000830051,-0.818401,0.00267433,0.0117599,1049,449,1.28894,7.9738
-168,575,1.28845,-8.06876,0.001465,0.000768552,-0.00233331,0.00347593,-0.00124238,-0.711324,0.00282403,0.0107125,1056,449,1.28846,8.06875
-161,575,1.28516,-8.16971,0.00156194,-0.000658861,-0.00254901,0.00323191,-0.00232883,-0.579983,0.00322458,0.0137448,1063,449,1.2852,8.16971
-154,575,1.30579,-8.26431,0.00165023,-0.00202269,-0.0026526,0.00304004,-0.0034125,-0.48262,0.00372745,0.0142952,1070,449,1.30577,8.2643
-147,575,1.3396,-8.31534,0.00211152,-0.00361213,-0.00268305,0.00317255,-0.00467316,-0.376584,0.00455725,0.0137398,1077,449,1.33961,8.31534
-140,575,1.33142,-8.36197,0.00279793,-0.00561268,-0.00229948,0.00338556,-0.00620031,-0.250194,0.00561337,0.0238739,1084,449,1.33139,8.36198
-133,575,1.48682,-8.50516,0.00324828,-0.00783703,-0.0019435,0.00357914,-0.0081679,-0.168624,0.0069525,0.0340099,1091,449,1.48676,8.50516
-126,575,1.46814,-8.41241,0.00393824,-0.0106351,-0.00146867,0.00408478,-0.0107816,-0.0994458,0.00886864,0.0387651,1098,449,1.4681,8.41241
-119,575,1.45508,-8.33017,0.00478154,-0.0137651,-0.0010482,0.00484059,-0.0138242,-0.0562779,0.0111844,0.0389269,1105,449,1.45503,8.33017
-112,575,1.4696,-8.51617,0.00518884,-0.0166913,-0.000138778,0.00518972,-0.0166922,-0.00634232,0.0132025,0.0399412,1112,449,1.4696,8.51619
-105,575,1.25085,-8.68378,0.00574988,-0.0190114,0.00102102,0.00579191,-0.0190534,0.0411414,0.0150102,0.0407323,1119,449,1.25084,8.68377
-98,575,1.36353,-8.60266,0.00663155,-0.021424,0.0021745,0.00679909,-0.0215915,0.0768951,0.0171169,0.0421761,1126,449,1.36358,8.60267
-91,575,1.72742,-8.39795,0.00775818,-0.0228623,0.00300876,0.00805102,-0.0231552,0.0970233,0.0187072,0.0442129,1133,449,1.72747,8.39794
-84,575,1.85754,-8.48019,0,0,0,0,0,0,0,-1,1140,449,1.85759,8.4802
-77,575,0.659058,-9.26846,0,0,0,0,0,0,0,-1,1147,449,0.658999,9.26846
-70,575,-4.2467,-1.78738,0,0,0,0,0,0,0,-1,1154,449,-4.24674,1.78739
-63,575,-4.52209,-3.48798,0,0,0,0,0,0,0,-1,1161,449,-4.5221,3.48796
-56,575,-5.5968,-5.4928,0,0,0,0,0,0,0,-1,1168,449,-5.59683,5.49281
-49,575,-5.96863,-7.17612,0,0,0,0,0,0,0,-1,1175,449,-5.96868,7.1761
-42,575,-0.830322,0.773499,0,0,0,0,0,0,0,-1,1182,449,-0.83038,-0.77351
-35,575,-0.62085,0.205139,0,0,0,0,0,0,0,-1,1189,449,-0.620855,-0.205126
-28,575,0.49292,-3.87988,0,0,0,0,0,0,0,-1,1196,449,0.492941,3.87989
-21,575,4.37671,-8.89108,0,0,0,0,0,0,0,-1,1203,449,4.37669,8.89107
-14,575,2.12085,-8.32712,0,0,0,0,0,0,0,-1,1210,449,2.12081,8.32712
-7,575,1.96216,-8.44662,0.0214356,0.0230477,-0.00282235,0.0251768,0.0193065,-0.924486,0.0152102,0.0470329,1217,449,1.96213,8.44662
0,575,1.83398,-8.69534,0.0279144,0.0272578,-0.00153094,0.0291519,0.0260204,-0.679782,0.0184794,0.046865,1224,449,1.83402,8.69534
7,575,1.68323,-8.92413,0.0342655,0.0347575,-0.000696766,0.0352504,0.0337726,-0.955117,0.0230235,0.0476913,1231,449,1.68328,8.92413
14,575,1.89429,-9.51578,0,0,0,0,0,0,0,-1,1238,449,1.89432,9.51578
21,575,1.93738,-10.1393,0,0,0,0,0,0,0,-1,1245,449,1.93743,10.1393
28,575,1.99426,-10.732,0.0457993,0.073035,0.00984953,0.0762237,0.0426106,1.25771,0.0441098,0.0429918,1252,449,1.99425,10.732
35,575,1.84558,-11.0918,0.0474862,0.0851034,0.0130189,0.0891696,0.04342,1.26807,0.0514879,0.0462621,1259,449,1.84559,11.0918
42,575,1.7124,-11.3815,0.0486603,0.0966842,0.0163182,0.101704,0.0436403,1.27235,0.0589155,0.0450776,1266,449,1.71235,11.3815
49,575,1.46094,-12.181,0.049364,0.106535,0.0196215,0.112621,0.0432777,1.27002,0.0656,0.0430344,1273,449,1.46097,12.181
56,575,1.45483,-12.8408,0.0505529,0.114117,0.022196,0.121101,0.0435695,1.26598,0.0708281,0.0446796,1280,449,1.45488,12.8408
63,575,2.44214,-9.11227,0.0514525,0.119297,0.0240968,0.126984,0.043765,1.26198,0.0744847,0.0476999,1287,449,2.44211,9.11228
70,575,1.49817,-13.2504,0,0,0,0,0,0,0,-1,1294,449,1.49819,13.2504
77,575,0.925781,-13.5847,0,0,0,0,0,0,0,-1,1301,449,0.925773,13.5847
84,575,1.36938,-13.3276,0.0487934,0.118046,0.0240748,0.125593,0.0412465,1.26702,0.0739204,0.0466571,1308,449,1.36941,13.3276
91,575,2.672,-12.6517,0.0497721,0.114107,0.0240193,0.122085,0.0417939,1.2501,0.0716445,0.0472279,1315,449,2.67202,12.6517
98,575,2.84351,-12.0563,0.0498039,0.107002,0.0225911,0.114848,0.0419576,1.23651,0.0671047,0.0436535,1322,449,2.84356,12.0563
105,575,3.3501,-11.5238,0.0490079,0.100183,0.0213409,0.107915,0.0412765,1.22322,0.0628754,0.0420455,1329,449,3.35004,11.5238
112,575,3.89685,-10.7076,0.047183,0.0914956,0.0195145,0.0988642,0.0398145,1.20975,0.0574382,0.0448739,1336,449,3.89689,10.7076
119,575,4.39307,-9.80081,0,0,0,0,0,0,0,-1,1343,449,4.39305,9.80082
126,575,4.85754,-9.02722,0.0454279,0.0742577,0.0166426,0.0818602,0.0378254,1.14229,0.0473073,0.0466514,1350,449,4.85752,9.02721
133,575,5.26648,-8.18399,0,0,0,0,0,0,0,-1,1357,449,5.26644,8.184
140,575,5.65063,-6.81351,0.0478681,0.0636635,0.0134395,0.071354,0.0401776,1.05104,0.0413054,0.0460713,1364,449,5.65064,6.81352
147,575,6.01611,-5.44388,0,0,0,0,0,0,0,-1,1371,449,6.0161,5.44388
154,575,6.18042,-13.4699,0,0,0,0,0,0,0,-1,1378,449,6.18045,13.4699
161,575,6.88684,-13.4902,0,0,0,0,0,0,0,-1,1385,449,6.88685,13.4902
168,575,9.2522,-0.307129,0,0,0,0,0,0,0,-1,1392,449,9.25225,0.307127
175,575,4.32617,1.93634,0,0,0,0,0,0,0,-1,1399,449,4.32612,-1.93634
182,575,6.3147,-2.88345,0,0,0,0,0,0,0,-1,1406,449,6.31466,2.88346
189,575,6.10449,-1.30817,0,0,0,0,0,0,0,-1,1413,449,6.10455,1.30817
196,575,5.79895,0.818359,0,0,0,0,0,0,0,-1,1420,449,5.79895,-0.81837
203,575,3.29724,-1.46378,0,0,0,0,0,0,0,-1,1427,449,3.29722,1.46377
210,575,2.32739,-7.74503,0,0,0,0,0,0,0,-1,1434,449,2.32741,7.74502
217,575,2.5553,-8.30618,0,0,0,0,0,0,0,-1,1441,449,2.55528,8.30617
224,575,2.5874,-8.6409,0,0,0,0,0,0,0,-1,1448,449,2.58744,8.6409
231,575,2.83179,-8.64697,0,0,0,0,0,0,0,-1,1455,449,2.83183,8.64696
238,575,3.26758,-8.93506,0,0,0,0,0,0,0,-1,1462,449,3.26759,8.93505
245,575,3.19153,-8.70016,0,0,0,0,0,0,0,-1,1469,449,3.19154,8.70016
252,575,2.81616,-7.83139,0.00163531,0.000494148,-0.00500343,0.00610059,-0.00397113,-0.728624,0.00585808,0.049206,1476,449,2.81617,7.8314
259,575,2.80908,-7.73849,0.00138392,-0.000279197,-0.00466099,0.00528695,-0.00418223,-0.697123,0.00547942,0.0468588,1483,449,2.80911,7.73849
266,575,2.76758,-7.8598,0.00110851,-0.000702297,-0.00441389,0.0047089,-0.00430269,-0.684239,0.00520461,0.041861,1490,449,2.76759,7.85979
273,575,2.79761,-7.79681,0.000512163,-0.000843182,-0.00419385,0.00408274,-0.00441376,-0.705297,0.00490669,0.02799,1497,449,2.79762,7.7968
280,575,2.79822,-7.60172,0.000170655,-0.00106055,-0.00383035,0.00343455,-0.00432444,-0.705721,0.00448947,0.018135,1504,449,2.79819,7.6017
287,575,2.77368,-7.53583,-2.38713e-05,-0.000897626,-0.00352601,0.00309222,-0.00401372,-0.723762,0.0041141,0.0126198,1511,449,2.77372,7.53582
294,575,2.802,-7.42068,-0.000134587,-0.000898048,-0.00311415,0.00262114,-0.00365378,-0.724413,0.00363914,0.0104731,1518,449,2.80205,7.42067
301,575,2.81641,-7.3013,-0.000381111,-0.000848312,-0.00292944,0.00232403,-0.00355345,-0.745611,0.00341802,0.00941318,1525,449,2.81636,7.30131
308,575,2.82532,-7.1774,-0.000559529,-0.000535143,-0.00276866,0.00222135,-0.00331602,-0.7876,0.00321776,0.00996488,1532,449,2.82531,7.1774
315,575,2.8158,-7.05667,-0.000587592,-0.00022494,-0.00246477,0.00206516,-0.0028777,-0.822116,0.00286659,0.0100731,1539,449,2.81582,7.05666
322,575,2.81836,-6.94263,-0.000594647,-0.000247448,-0.00215321,0.00173915,-0.00258124,-0.825623,0.00251012,0.00880874,1546,449,2.81834,6.94262
329,575,2.8302,-6.8222,-0.000536621,-0.000325254,-0.00180031,0.00137247,-0.00223435,-0.814716,0.00210212,0.00976772,1553,449,2.83017,6.82222
336,575,2.84167,-6.68796,-0.000403692,-0.000231025,-0.00138046,0.0010658,-0.00170052,-0.816627,0.00161109,0.011784,1560,449,2.84166,6.68796
343,575,2.85974,-6.53366,-0.000314302,-0.000141457,-0.000918378,0.000694556,-0.00115031,-0.832312,0.00107592,0.01135,1567,449,2.85969,6.53366
350,575,2.84546,-6.40369,-0.000204564,2.65412e-06,-0.000374789,0.000287891,-0.000489801,-0.920254,0.000454017,0.0107914,1574,449,2.84544,6.40368
357,575,2.83582,-6.28006,-6.0726e-05,0.000170097,0.000151983,0.000245522,-0.000136151,1.11013,0.000223355,0.0114093,1581,449,2.83582,6.28005
364,575,2.83899,-6.14236,6.11622e-05,0.000452571,0.000641421,0.000927479,-0.000413746,0.933468,0.000793066,0.0110133,1588,449,2.83905,6.14235
371,575,2.80176,-5.9935,0.000109668,0.000645851,0.00108752,0.00149783,-0.000742313,0.906247,0.00131764,0.0184249,1595,449,2.80171,5.99351
378,575,2.80078,-5.82962,0.000123692,0.000801655,0.00147157,0.00197278,-0.00104743,0.8986,0.00177079,0.0180084,1602,449,2.80079,5.82961
385,575,2.82642,-5.68625,0.000100804,0.00085285,0.00166848,0.00218715,-0.0012335,0.896231,0.00200033,0.0121526,1609,449,2.82644,5.68624
392,575,2.81042,-5.52771,0.00016077,0.000802748,0.00182779,0.00233752,-0.001374,0.87232,0.00216678,0.00935851,1616,449,2.81043,5.52772
399,575,2.80701,-5.38089,0.000268968,0.000718253,0.00196287,0.00246929,-0.00148207,0.842373,0.00230493,0.0094236,1623,449,2.80698,5.38088
406,575,2.80493,-5.2254,0.00035007,0.000493866,0.00198152,0.0024048,-0.00156086,0.803532,0.00230679,0.010423,1630,449,2.80487,5.22541
413,575,2.79956,-5.08069,0.000193559,0.00141318,0.00144232,0.0023693,-0.000762568,0.9854,0.00188584,0.011946,1637,449,2.79953,5.08068
420,575,2.77002,-4.92474,0.00126424,0.00266475,0.000108345,0.00267309,0.00125591,1.49404,0.00154424,0.0141853,1644,449,2.77007,4.92474
427,575,2.73657,-4.79916,0.00335926,0.00339038,-0.00123365,0.00460857,0.00214107,-0.791705,0.00266298,0.0190699,1651,449,2.73653,4.79915
434,575,2.71643,-4.68286,0.00532228,0.00488227,-0.00279642,0.00790733,0.00229721,-0.746143,0.00469696,0.0269583,1658,449,2.7164,4.68285
441,575,2.86841,-4.54977,0.00887306,0.00608026,-0.0057079,0.0133529,0.00160043,-0.665433,0.00841931,0.042143,1665,449,2.86836,4.54976
448,575,3.01929,-4.42358,0,0,0,0,0,0,0,-1,1672,449,3.01923,4.42359
455,575,2.23486,-3.22467,0,0,0,0,0,0,0,-1,1679,449,2.2349,3.22467
462,575,2.46472,-2.67813,0,0,0,0,0,0,0,-1,1686,449,2.46471,2.67813
469,575,2.40125,-3.27963,0.0284686,0.0058933,-0.025112,0.0447132,-0.0103513,-0.574183,0.0337919,0.0479497,1693,449,2.40119,3.27963
476,575,2.94482,-3.64182,0.0344803,0.00416917,-0.031616,0.0543856,-0.0157361,-0.561897,0.0424852,0.0463016,1700,449,2.9448,3.64181
483,575,3.31189,-3.92654,0,0,0,0,0,0,0,-1,1707,449,3.31188,3.92654
490,575,3.83044,-4.01218,0,0,0,0,0,0,0,-1,1714,449,3.83048,4.01218
497,575,0,0,0,0,0,0,0,0,0,-1,1721,449,0,0
504,575,0,0,0,0,0,0,0,0,0,-1,1728,449,0,0
511,575,0,0,0,0,0,0,0,0,0,-1,1735,449,0,0
518,575,0,0,0,0,0,0,0,0,0,-1,1742,449,0,0
525,575,0,0,0,0,0,0,0,0,0,-1,1749,449,0,0
532,575,0,0,0,0,0,0,0,0,0,-1,1756,449,0,0
539,575,0,0,0,0,0,0,0,0,0,-1,1763,449,0,0
546,575,0,0,0,0,0,0,0,0,0,-1,1770,449,0,0
553,575,0,0,0,0,0,0,0,0,0,-1,1777,449,0,0
560,575,0,0,0,0,0,0,0,0,0,-1,1784,449,0,0
567,575,0,0,0,0,0,0,0,0,0,-1,1791,449,0,0
574,575,0,0,0,0,0,0,0,0,0,-1,1798,449,0,0
581,575,0,0,0,0,0,0,0,0,0,-1,1805,449,0,0
588,575,0,0,0,0,0,0,0,0,0,-1,1812,449,0,0
595,575,0,0,0,0,0,0,0,0,0,-1,1819,449,0,0
602,575,0,0,0,0,0,0,0,0,0,-1,1826,449,0,0
609,575,0,0,0,0,0,0,0,0,0,-1,1833,449,0,0
616,575,0,0,0,0,0,0,0,0,0,-1,1840,449,0,0
623,575,0,0,0,0,0,0,0,0,0,-1,1847,449,0,0
630,575,0,0,0,0,0,0,0,0,0,-1,1854,449,0,0
637,575,0,0,0,0,0,0,0,0,0,-1,1861,449,0,0
644,575,0,0,0,0,0,0,0,0,0,-1,1868,449,0,0
651,575,0,0,0,0,0,0,0,0,0,-1,1875,449,0,0
658,575,0,0,0,0,0,0,0,0,0,-1,1882,449,0,0
665,575,0,0,0,0,0,0,0,0,0,-1,1889,449,0,0
672,575,0,0,0,0,0,0,0,0,0,-1,1896,449,0,0
679,575,0,0,0,0,0,0,0,0,0,-1,1903,449,0,0
686,575,0,0,0,0,0,0,0,0,0,-1,1910,449,0,0
693,575,0,0,0,0,0,0,0,0,0,-1,1917,449,0,0
700,575,0,0,0,0,0,0,0,0,0,-1,1924,449,0,0
707,575,0,0,0,0,0,0,0,0,0,-1,1931,449,0,0
714,575,0,0,0,0,0,0,0,0,0,-1,1938,449,0,0
721,575,0,0,0,0,0,0,0,0,0,-1,1945,449,0,0
728,575,0,0,0,0,0,0,0,0,0,-1,1952,449,0,0
735,575,0,0,0,0,0,0,0,0,0,-1,1959,449,0,0
742,575,0,0,0,0,0,0,0,0,0,-1,1966,449,0,0
749,575,0,0,0,0,0,0,0,0,0,-1,1973,449,0,0
756,575,0,0,0,0,0,0,0,0,0,-1,1980,449,0,0
763,575,0,0,0,0,0,0,0,0,0,-1,1987,449,0,0
770,575,0,0,0,0,0,0,0,0,0,-1,1994,449,0,0
777,575,0,0,0,0,0,0,0,0,0,-1,2001,449,0,0
784,575,0,0,0,0,0,0,0,0,0,-1,2008,449,0,0
791,575,0,0,0,0,0,0,0,0,0,-1,2015,449,0,0
798,575,0,0,0,0,0,0,0,0,0,-1,2022,449,0,0
805,575,0,0,0,0,0,0,0,0,0,-1,2029,449,0,0
812,575,0,0,0,0,0,0,0,0,0,-1,2036,449,0,0
-700,568,0,0,0,0,0,0,0,0,0,-1,524,456,0,0
-693,568,0,0,0,0,0,0,0,0,0,-1,531,456,0,0
-686,568,0,0,0,0,0,0,0,0,0,-1,538,456,0,0
-679,568,0,0,0,0,0,0,0,0,0,-1,545,456,0,0
-672,568,0,0,0,0,0,0,0,0,0,-1,552,456,0,0
-665,568,0,0,0,0,0,0,0,0,0,-1,559,456,0,0
-658,568,0,0,0,0,0,0,0,0,0,-1,566,456,0,0
-651,568,0,0,0,0,0,0,0,0,0,-1,573,456,0,0
-644,568,0,0,0,0,0,0,0,0,0,-1,580,456,0,0
-637,568,0,0,0,0,0,0,0,0,0,-1,587,456,0,0
-630,568,0,0,0,0,0,0,0,0,0,-1,594,456,0,0
-623,568,0,0,0,0,0,0,0,0,0,-1,601,456,0,0
-616,568,0,0,0,0,0,0,0,0,0,-1,608,456,0,0
-609,568,0,0,0,0,0,0,0,0,0,-1,615,456,0,0
-602,568,0,0,0,0,0,0,0,0,0,-1,622,456,0,0
-595,568,0,0,0,0,0,0,0,0,0,-1,629,456,0,0
-588,568,0,0,0,0,0,0,0,0,0,-1,636,456,0,0
-581,568,0,0,0,0,0,0,0,0,0,-1,643,456,0,0
-574,568,0,0,0,0,0,0,0,0,0,-1,650,456,0,0
-567,568,0,0,0,0,0,0,0,0,0,-1,657,456,0,0
-560,568,0,0,0,0,0,0,0,0,0,-1,664,456,0,0
-553,568,0,0,0,0,0,0,0,0,0,-1,671,456,0,0
-546,568,0,0,0,0,0,0,0,0,0,-1,678,456,0,0
-539,568,0,0,0,0,0,0,0,0,0,-1,685,456,0,0
-532,568,0,0,0,0,0,0,0,0,0,-1,692,456,0,0
-525,568,0,0,0,0,0,0,0,0,0,-1,699,456,0,0
-518,568,0,0,0,0,0,0,0,0,0,-1,706,456,0,0
-511,568,0,0,0,0,0,0,0,0,0,-1,713,456,0,0
-504,568,0,0,0,0,0,0,0,0,0,-1,720,456,0,0
-497,568,0,0,0,0,0,0,0,0,0,-1,727,456,0,0
-490,568,0,0,0,0,0,0,0,0,0,-1,734,456,0,0
-483,568,0,0,0,0,0,0,0,0,0,-1,741,456,0,0
-476,568,0,0,0,0,0,0,0,0,0,-1,748,456,0,0
-469,568,0,0,0,0,0,0,0,0,0,-1,755,456,0,0
-462,568,0,0,0,0,0,0,0,0,0,-1,762,456,0,0
-455,568,0,0,0,0,0,0,0,0,0,-1,769,456,0,0
-448,568,0,0,0,0,0,0,0,0,0,-1,776,456,0,0
-441,568,0,0,0,0,0,0,0,0,0,-1,783,456,0,0
-434,568,0,0,0,0,0,0,0,0,0,-1,790,456,0,0
-427,568,0,0,0,0,0,0,0,0,0,-1,797,456,0,0
-420,568,0,0,0,0,0,0,0,0,0,-1,804,456,0,0
-413,568,0,0,0,0,0,0,0,0,0,-1,811,456,0,0
-406,568,0,0,0,0,0,0,0,0,0,-1,818,456,0,0
-399,568,0,0,0,0,0,0,0,0,0,-1,825,456,0,0
-392,568,0,0,0,0,0,0,0,0,0,-1,832,456,0,0
-385,568,0,0,0,0,0,0,0,0,0,-1,839,456,0,0
-378,568,-0.3974,-2.96585,0,0,0,0,0,0,0,-1,846,456,-0.397382,2.96585
-371,568,0.190552,-2.79074,0,0,0,0,0,0,0,-1,853,456,0.190559,2.79073
-364,568,0.426575,-1.56265,0,0,0,0,0,0,0,-1,860,456,0.426591,1.56264
-357,568,2.04034,-4.85086,0,0,0,0,0,0,0,-1,867,456,2.04033,4.85085
-350,568,-1.4032,-4.93024,0,0,0,0,0,0,0,-1,874,456,-1.40321,4.93024
-343,568,-0.535278,-5.005,0,0,0,0,0,0,0,-1,881,456,-0.535267,5.00499
-336,568,0.337158,-5.05737,0.0194236,0.0270693,0.0433165,0.0667313,-0.0202384,0.829411,0.0525492,0.0492139,888,456,0.337184,5.05738
-329,568,1.02356,-5.31097,0.0182117,0.0215705,0.0376158,0.0575444,-0.0177622,0.807706,0.0454555,0.044797,895,456,1.02358,5.31097
-322,568,0.231323,-5.69485,0,0,0,0,0,0,0,-1,902,456,0.231327,5.69486
-315,568,1.16736,-5.6293,0.0137772,0.0126427,0.0297588,0.0429741,-0.0165542,0.775869,0.0354791,0.0390745,909,456,1.16735,5.6293
-308,568,1.19409,-5.70016,0.0118916,0.00921619,0.0253935,0.0359826,-0.0148749,0.759083,0.0301938,0.0282043,916,456,1.19408,5.70016
-301,568,1.20691,-5.8262,0.0101368,0.00662802,0.0216081,0.0300616,-0.0132968,0.744892,0.0256492,0.0152231,923,456,1.20689,5.8262
-294,568,1.18396,-5.95746,0.00839997,0.00464325,0.0176047,0.0242262,-0.011183,0.732251,0.0209007,0.0111059,930,456,1.18399,5.95746
-287,568,1.16498,-6.10916,0.00669245,0.00259836,0.0137194,0.0185166,-0.00922584,0.71134,0.0163138,0.00953646,937,456,1.16497,6.10917
-280,568,1.15869,-6.24918,0.00533558,0.00209278,0.0105841,0.0144218,-0.00699344,0.709393,0.0126096,0.0100888,944,456,1.15871,6.24916
-273,568,1.15533,-6.37888,0.00408102,0.00120505,0.007634,0.0104113,-0.00512522,0.692306,0.00914143,0.010639,951,456,1.15532,6.37887
-266,568,1.14343,-6.51413,0.00329811,0.000876654,0.00434416,0.00659711,-0.00242234,0.649496,0.00539012,0.010176,958,456,1.14341,6.51413
-259,568,1.14471,-6.63696,0.00238208,0.00150615,0.00182073,0.00381678,7.14485e-05,0.66737,0.00252104,0.0116104,965,456,1.14469,6.63697
-252,568,1.12085,-6.75177,0.00170952,0.00168277,5.03488e-05,0.00174824,0.00164405,0.655587,0.00113236,0.0114208,972,456,1.12084,6.75178
-245,568,1.12231,-6.87534,0.00161304,0.001708,-0.00114728,0.00280878,0.000512262,-0.806081,0.00172727,0.0123217,979,456,1.12228,6.87533
-238,568,1.13263,-7.01895,0.00174593,0.00187705,-0.0015959,0.00340874,0.000214244,-0.805927,0.00220455,0.0111675,986,456,1.13262,7.01895
-231,568,1.12933,-7.1123,0.0017187,0.00198948,-0.00184994,0.00370898,-8.01636e-07,-0.821927,0.00247292,0.0103214,993,456,1.12935,7.11231
-224,568,1.13995,-7.2258,0.0015012,0.00228046,-0.00192895,0.00385873,-7.70767e-05,-0.885053,0.00259856,0.0121144,1000,456,1.13993,7.22579
-217,568,1.15771,-7.35297,0.00141166,0.00252668,-0.00202839,0.00407278,-0.000134436,-0.919513,0.00276109,0.010773,1007,456,1.15771,7.35296
-210,568,1.15955,-7.46469,0.00128305,0.00245372,-0.00215962,0.00410592,-0.000369154,-0.917738,0.00286826,0.0107201,1014,456,1.15955,7.4647
-203,568,1.15912,-7.59747,0.00117617,0.00250875,-0.00231976,0.00425601,-0.000571088,-0.925246,0.0030456,0.00973244,1021,456,1.15913,7.59747
-196,568,1.17126,-7.69946,0.00112428,0.00241023,-0.00239849,0.00425044,-0.000715926,-0.916356,0.00309995,0.0127067,1028,456,1.1712,7.69947
-189,568,1.17346,-7.79593,0.00112618,0.00230727,-0.00255807,0.00434207,-0.000908624,-0.898839,0.00324034,0.0127616,1035,456,1.17347,7.79594
-182,568,1.18127,-7.87988,0.00125225,0.00237463,-0.00278655,0.00465594,-0.00102906,-0.884766,0.00349781,0.0136542,1042,456,1.18126,7.87988
-175,568,1.20215,-7.9718,0.00143594,0.00221864,-0.003022,0.00487452,-0.00121994,-0.849791,0.00372355,0.0111878,1049,456,1.20211,7.97179
-168,568,1.19348,-8.06305,0.00173225,0.0013605,-0.00322006,0.00477179,-0.00167905,-0.756569,0.00386444,0.0146492,1056,456,1.19349,8.06303
-161,568,1.1842,-8.1452,0.00182008,-0.00062096,-0.00345205,0.00426103,-0.0030619,-0.615475,0.00424675,0.0232014,1063,456,1.18415,8.1452
-154,568,1.29846,-8.31161,0.00189622,-0.00258067,-0.00355957,0.00386268,-0.00454712,-0.504715,0.00486076,0.0306697,1070,456,1.29842,8.31163
-147,568,1.40601,-8.40842,0.00239407,-0.00478019,-0.00362754,0.00390856,-0.00629468,-0.395499,0.0059443,0.0352074,1077,456,1.406,8.40843
-140,568,1.43066,-8.51962,0.00317134,-0.00729758,-0.00310249,0.0040217,-0.00814794,-0.267519,0.0071595,0.0411624,1084,456,1.43072,8.51961
-133,568,1.49023,-8.75082,0.00366998,-0.0102087,-0.00255689,0.00412605,-0.0106647,-0.176514,0.00881323,0.0458447,1091,456,1.49029,8.75082
-126,568,1.57275,-8.85672,0,0,0,0,0,0,0,-1,1098,456,1.57272,8.85673
-119,568,1.40674,-7.90643,0,0,0,0,0,0,0,-1,1105,456,1.40678,7.90644
-112,568,1.3092,-8.48221,0.00610192,-0.0226036,8.69234e-05,0.00610218,-0.0226039,0.00302807,0.0174624,0.0481719,1112,456,1.30925,8.48222
-105,568,1.10901,-8.54416,0.00669454,-0.0261721,0.00189088,0.00680297,-0.0262805,0.0572799,0.020174,0.0487249,1119,456,1.10901,8.54416
-98,568,1.03564,-8.49728,0,0,0,0,0,0,0,-1,1126,456,1.03568,8.4973
-91,568,0.647339,-7.55716,0,0,0,0,0,0,0,-1,1133,456,0.647299,7.55716
-84,568,0.324463,-7.20621,0,0,0,0,0,0,0,-1,1140,456,0.324454,7.20621
-77,568,-1.13806,-8.57822,0,0,0,0,0,0,0,-1,1147,456,-1.13807,8.57821
-70,568,-4.09766,-1.42911,0,0,0,0,0,0,0,-1,1154,456,-4.09767,1.4291
-63,568,-5.92273,-3.70752,0,0,0,0,0,0,0,-1,1161,456,-5.92272,3.70751
-56,568,-5.24158,-6.01385,0,0,0,0,0,0,0,-1,1168,456,-5.24161,6.01386
-49,568,-5.24365,-8.33557,0,0,0,0,0,0,0,-1,1175,456,-5.24371,8.33557
-42,568,-0.664795,0.521973,0,0,0,0,0,0,0,-1,1182,456,-0.664829,-0.521984
-35,568,-0.153076,-1.67731,0,0,0,0,0,0,0,-1,1189,456,-0.153068,1.67731
-28,568,1.25439,-4.48798,0,0,0,0,0,0,0,-1,1196,456,1.2544,4.48797
-21,568,2.4928,-8.22787,0,0,0,0,0,0,0,-1,1203,456,2.49279,8.22786
-14,568,2.29736,-8.44226,0.0152358,0.0192969,-0.00398939,0.0217427,0.0127899,-1.0208,0.0126182,0.04838,1210,456,2.29731,8.44226
-7,568,1.82727,-8.47461,0.0248784,0.0275381,-0.00250201,0.0290418,0.0233748,-1.02967,0.0177759,0.0472029,1217,456,1.8273,8.47462
0,568,1.62451,-8.65002,0.0343384,0.0322963,-0.000381114,0.0344072,0.0322275,-0.178622,0.0222472,0.0493718,1224,456,1.62448,8.65003
7,568,1.47803,-8.87158,0,0,0,0,0,0,0,-1,1231,456,1.47798,8.8716
14,568,-2.89697,-11.508,0,0,0,0,0,0,0,-1,1238,456,-2.89695,11.508
21,568,-2.19128,-11.9514,0.0531335,0.0695202,0.00734458,0.0723302,0.0503235,1.20538,0.0428133,0.0436097,1245,456,-2.19123,11.9514
28,568,1.6106,-11.0298,0.0558404,0.0827552,0.0110259,0.0866952,0.0519003,1.22759,0.0503772,0.0428197,1252,456,1.61058,11.0298
35,568,1.4657,-11.2351,0.0568903,0.0958248,0.0142845,0.100503,0.0522117,1.25428,0.0580404,0.0427869,1259,456,1.46574,11.2352
42,568,0.588501,-12.3499,0.0574754,0.108221,0.0175681,0.113709,0.0519869,1.26799,0.0657302,0.0425807,1266,456,0.588528,12.3499
49,568,0.774292,-12.7207,0.0575602,0.118716,0.0210804,0.125278,0.0509979,1.26901,0.0727447,0.0417136,1273,456,0.774304,12.7207
56,568,0.853394,-13.3125,0.0585164,0.12686,0.0239658,0.134426,0.0509501,1.26499,0.0783646,0.042989,1280,456,0.853345,13.3125
63,568,1.06689,-13.9836,0.0592574,0.132296,0.0260736,0.140649,0.0509047,1.26078,0.0822291,0.0471855,1287,456,1.06685,13.9836
70,568,1.42346,-14.7915,0.0591481,0.133935,0.0268554,0.14258,0.0505038,1.25938,0.0834766,0.04738,1294,456,1.42341,14.7915
77,568,1.67834,-14.4505,0.0563475,0.134044,0.0271593,0.142596,0.0477952,1.26573,0.0838059,0.048289,1301,456,1.67839,14.4505
84,568,2.13062,-14.0533,0.0563695,0.13156,0.0262383,0.139811,0.0481188,1.26613,0.0820161,0.0443383,1308,456,2.13063,14.0533
91,568,2.63196,-13.6543,0.0579371,0.12794,0.0264607,0.136816,0.0490606,1.24713,0.080037,0.0415189,1315,456,2.63197,13.6543
98,568,2.96765,-12.8587,0.0587174,0.12084,0.0250612,0.129689,0.0498679,1.23135,0.075539,0.0450285,1322,456,2.96767,12.8587
105,568,3.53491,-12.1704,0.0583235,0.114181,0.0235711,0.122798,0.0497062,1.2203,0.0713246,0.0471419,1329,456,3.53488,12.1704
112,568,4.05115,-11.3607,0.056585,0.104878,0.0215925,0.113125,0.0483388,1.20599,0.0655422,0.0470465,1336,456,4.05117,11.3607
119,568,4.552,-10.5305,0.0555265,0.093852,0.0197191,0.102186,0.0471928,1.17094,0.0590542,0.0443272,1343,456,4.55198,10.5305
126,568,5.06226,-9.78415,0.0554612,0.0861954,0.0176215,0.0942092,0.0474474,1.14398,0.0543922,0.046804,1350,456,5.06221,9.78416
133,568,5.56372,-9.06702,0,0,0,0,0,0,0,-1,1357,456,5.56369,9.06702
140,568,5.59717,-7.65698,0,0,0,0,0,0,0,-1,1364,456,5.59722,7.65699
147,568,6.06067,-13.7202,0,0,0,0,0,0,0,-1,1371,456,6.06069,13.7202
154,568,6.76624,-13.7753,0,0,0,0,0,0,0,-1,1378,456,6.76623,13.7753
161,568,7.4718,-13.8305,0,0,0,0,0,0,0,-1,1385,456,7.47177,13.8305
168,568,9.09583,-0.563782,0,0,0,0,0,0,0,-1,1392,456,9.09586,0.563788
175,568,10.5151,0.747498,0,0,0,0,0,0,0,-1,1399,456,10.5152,-0.747501
182,568,6.35095,-3.63361,0,0,0,0,0,0,0,-1,1406,456,6.35093,3.63359
189,568,6.17493,-1.70911,0,0,0,0,0,0,0,-1,1413,456,6.17497,1.70911
196,568,6.04724,0.200836,0,0,0,0,0,0,0,-1,1420,456,6.04724,-0.200835
203,568,5.9281,2.08649,0,0,0,0,0,0,0,-1,1427,456,5.92812,-2.08648
210,568,1.46216,-2.50446,0,0,0,0,0,0,0,-1,1434,456,1.46219,2.50446
217,568,2.62366,-7.86703,0,0,0,0,0,0,0,-1,1441,456,2.62365,7.86704
224,568,3.75354,-8.08215,0,0,0,0,0,0,0,-1,1448,456,3.75349,8.08216
231,568,4.38245,-9.3205,0,0,0,0,0,0,0,-1,1455,456,4.38244,9.32048
238,568,3.88123,-9.43616,0,0,0,0,0,0,0,-1,1462,456,3.88117,9.43617
245,568,3.33423,-8.26453,0,0,0,0,0,0,0,-1,1469,456,3.33419,8.26453
252,568,2.90503,-7.68228,0,0,0,0,0,0,0,-1,1476,456,2.90501,7.68228
259,568,2.94116,-7.55008,0,0,0,0,0,0,0,-1,1483,456,2.94116,7.55009
266,568,2.94006,-7.83163,0,0,0,0,0,0,0,-1,1490,456,2.94009,7.83163
273,568,2.86255,-7.90381,0,0,0,0,0,0,0,-1,1497,456,2.86254,7.90382
280,568,2.82349,-7.68362,0,0,0,0,0,0,0,-1,1504,456,2.82347,7.68364
287,568,2.93384,-7.51407,-0.000248871,-0.00137971,-0.00498869,0.00420634,-0.00583492,-0.728969,0.00582268,0.0308951,1511,456,2.93388,7.51405
294,568,2.98889,-7.42575,-0.000362574,-0.00134114,-0.00445173,0.00362668,-0.0053304,-0.730663,0.00520246,0.0249573,1518,456,2.98889,7.42575
301,568,2.96753,-7.29871,-0.000702412,-0.00135037,-0.0042458,0.00323175,-0.00528454,-0.747319,0.00496427,0.0190529,1525,456,2.9675,7.29871
308,568,2.94958,-7.16675,-0.00100674,-0.00108422,-0.00414216,0.00309686,-0.00518782,-0.780722,0.00483367,0.0113291,1532,456,2.94962,7.16676
315,568,2.93481,-7.05716,-0.00112548,-0.000699086,-0.00383163,0.00292527,-0.00474984,-0.81319,0.00447277,0.00741813,1539,456,2.93484,7.05716
322,568,2.94336,-6.94687,-0.00117952,-0.000642716,-0.00358708,0.002686,-0.00450823,-0.822741,0.00419777,0.00847081,1546,456,2.94339,6.94687
329,568,2.96423,-6.8139,-0.00117494,-0.000713442,-0.00325226,0.00231624,-0.00420462,-0.820814,0.00381708,0.0092159,1553,456,2.96421,6.81391
336,568,2.97986,-6.67084,-0.00105242,-0.000563942,-0.00283507,0.00203739,-0.00365375,-0.828366,0.00332967,0.0109429,1560,456,2.9799,6.67083
343,568,3.00757,-6.53516,-0.000999632,-0.000470915,-0.0023778,0.00165718,-0.00312772,-0.84076,0.00280572,0.0109851,1567,456,3.00755,6.53515
350,568,2.99561,-6.41803,-0.000900252,-0.000322504,-0.001828,0.00123931,-0.00246207,-0.863764,0.00217551,0.00960479,1574,456,2.99561,6.41802
357,568,2.97461,-6.28241,-0.000713824,-0.000155448,-0.00128074,0.000876179,-0.00174545,-0.892714,0.00154108,0.00948073,1581,456,2.9746,6.2824
364,568,2.99609,-6.15128,-0.000532221,0.000118749,-0.000754153,0.000614657,-0.00102813,-0.989118,0.000958424,0.011879,1588,456,2.99608,6.15126
371,568,2.99194,-5.9881,-0.000413139,0.000315791,-0.000241441,0.000388508,-0.000485856,-1.27826,0.000505856,0.0203618,1595,456,2.99197,5.98809
378,568,2.99072,-5.83371,-0.000296672,0.000479795,0.000235445,0.000545609,-0.000362487,1.29822,0.000527831,0.0194469,1602,456,2.99076,5.8337
385,568,2.9657,-5.67368,-0.000237241,0.000531455,0.000538553,0.000808743,-0.000514529,1.09532,0.00077026,0.00975385,1609,456,2.96567,5.67368
392,568,2.94104,-5.53244,-9.62077e-05,0.000444751,0.000828053,0.00104538,-0.000696837,0.943258,0.00101256,0.0100087,1616,456,2.941,5.53244
399,568,2.91296,-5.41422,7.90107e-05,0.000397386,0.00109183,0.00134157,-0.000865174,0.857788,0.00128392,0.0153707,1623,456,2.91299,5.41421
406,568,2.94128,-5.24451,0.000242124,0.000282065,0.00127247,0.00153473,-0.00101054,0.793245,0.00147986,0.0144357,1630,456,2.94134,5.24451
413,568,2.96399,-5.07056,0.000196356,0.00110626,0.00100002,0.00174995,-0.000447335,0.998876,0.00134085,0.0117966,1637,456,2.96399,5.07055
420,568,2.95825,-4.90607,0.00104988,0.00209732,0.000102486,0.00210725,0.00103995,1.47417,0.00121666,0.0104413,1644,456,2.95826,4.90607
427,568,2.95581,-4.74246,0.00268442,0.00276926,-0.000819086,0.00354703,0.00190666,-0.81127,0.0020498,0.0119771,1651,456,2.95585,4.74248
434,568,2.96362,-4.62057,0.00413705,0.00395985,-0.0018699,0.00592045,0.00217645,-0.761725,0.00345788,0.0145607,1658,456,2.96362,4.62057
441,568,2.95972,-4.51691,0.00689664,0.00487539,-0.00399497,0.0100068,0.0017652,-0.66151,0.00616761,0.0215031,1665,456,2.95972,4.5169
448,568,2.995,-4.16864,0.0102862,0.00453623,-0.00739099,0.0153417,-0.000519237,-0.599909,0.0104052,0.0398593,1672,456,2.99494,4.16863
455,568,2.98743,-3.90302,0,0,0,0,0,0,0,-1,1679,456,2.98739,3.90302
462,568,2.85046,-3.19183,0.0183193,0.00553136,-0.0147303,0.0279835,-0.0041328,-0.580634,0.0201749,0.0477841,1686,456,2.85046,3.19184
469,568,2.70874,-3.54361,0.0231795,0.00543821,-0.0192043,0.0354629,-0.00684519,-0.569041,0.0262232,0.0431172,1693,456,2.70877,3.5436
476,568,3.05298,-3.58334,0.0285238,0.00456853,-0.0244723,0.0437924,-0.0107001,-0.557818,0.033339,0.0466113,1700,456,3.05297,3.58333
483,568,3.39246,-3.46143,0,0,0,0,0,0,0,-1,1707,456,3.39244,3.46144
490,568,4.98596,-3.90405,0.039808,0.00161262,-0.0367813,0.0621541,-0.0207335,-0.545945,0.0498071,0.0484394,1714,456,4.98591,3.90406
497,568,5.04871,-3.51193,0.0455367,0.000791562,-0.0436617,0.072224,-0.0258958,-0.548636,0.0587166,0.0461038,1721,456,5.04872,3.51193
504,568,0,0,0,0,0,0,0,0,0,-1,1728,456,0,0
511,568,0,0,0,0,0,0,0,0,0,-1,1735,456,0,0
518,568,0,0,0,0,0,0,0,0,0,-1,1742,456,0,0
525,568,0,0,0,0,0,0,0,0,0,-1,1749,456,0,0
532,568,0,0,0,0,0,0,0,0,0,-1,1756,456,0,0
539,568,0,0,0,0,0,0,0,0,0,-1,1763,456,0,0
546,568,0,0,0,0,0,0,0,0,0,-1,1770,456,0,0
553,568,0,0,0,0,0,0,0,0,0,-1,1777,456,0,0
560,568,0,0,0,0,0,0,0,0,0,-1,1784,456,0,0
567,568,0,0,0,0,0,0,0,0,0,-1,1791,456,0,0
574,568,0,0,0,0,0,0,0,0,0,-1,1798,456,0,0
581,568,0,0,0,0,0,0,0,0,0,-1,1805,456,0,0
588,568,0,0,0,0,0,0,0,0,0,-1,1812,456,0,0
595,568,0,0,0,0,0,0,0,0,0,-1,1819,456,0,0
602,568,0,0,0,0,0,0,0,0,0,-1,1826,456,0,0
609,568,0,0,0,0,0,0,0,0,0,-1,1833,456,0,0
616,568,0,0,0,0,0,0,0,0,0,-1,1840,456,0,0
623,568,0,0,0,0,0,0,0,0,0,-1,1847,456,0,0
630,568,0,0,0,0,0,0,0,0,0,-1,1854,456,0,0
637,568,0,0,0,0,0,0,0,0,0,-1,1861,456,0,0
644,568,0,0,0,0,0,0,0,0,0,-1,1868,456,0,0
651,568,0,0,0,0,0,0,0,0,0,-1,1875,456,0,0
658,568,0,0,0,0,0,0,0,0,0,-1,1882,456,0,0
665,568,0,0,0,0,0,0,0,0,0,-1,1889,456,0,0
672,568,0,0,0,0,0,0,0,0,0,-1,1896,456,0,0
679,568,0,0,0,0,0,0,0,0,0,-1,1903,456,0,0
686,568,0,0,0,0,0,0,0,0,0,-1,1910,456,0,0
693,568,0,0,0,0,0,0,0,0,0,-1,1917,456,0,0
700,568,0,0,0,0,0,0,0,0,0,-1,1924,456,0,0
707,568,0,0,0,0,0,0,0,0,0,-1,1931,456,0,0
714,568,0,0,0,0,0,0,0,0,0,-1,1938,456,0,0
721,568,0,0,0,0,0,0,0,0,0,-1,1945,456,0,0
728,568,0,0,0,0,0,0,0,0,0,-1,1952,456,0,0
735,568,0,0,0,0,0,0,0,0,0,-1,1959,456,0,0
742,568,0,0,0,0,0,0,0,0,0,-1,1966,456,0,0
749,568,0,0,0,0,0,0,0,0,0,-1,1973,456,0,0
756,568,0,0,0,0,0,0,0,0,0,-1,1980,456,0,0
763,568,0,0,0,0,0,0,0,0,0,-1,1987,456,0,0
770,568,0,0,0,0,0,0,0,0,0,-1,1994,456,0,0
777,568,0,0,0,0,0,0,0,0,0,-1,2001,456,0,0
784,568,0,0,0,0,0,0,0,0,0,-1,2008,456,0,0
791,568,0,0,0,0,0,0,0,0,0,-1,2015,456,0,0
798,568,0,0,0,0,0,0,0,0,0,-1,2022,456,0,0
805,568,0,0,0,0,0,0,0,0,0,-1,2029,456,0,0
812,568,0,0,0,0,0,0,0,0,0,-1,2036,456,0,0
-700,561,0,0,0,0,0,0,0,0,0,-1,524,463,0,0
-693,561,0,0,0,0,0,0,0,0,0,-1,531,463,0,0
-686,561,0,0,0,0,0,0,0,0,0,-1,538,463,0,0
-679,561,0,0,0,0,0,0,0,0,0,-1,545,463,0,0
-672,561,0,0,0,0,0,0,0,0,0,-1,552,463,0,0
-665,561,0,0,0,0,0,0,0,0,0,-1,559,463,0,0
-658,561,0,0,0,0,0,0,0,0,0,-1,566,463,0,0
-651,561,0,0,0,0,0,0,0,0,0,-1,573,463,0,0
-644,561,0,0,0,0,0,0,0,0,0,-1,580,463,0,0
-637,561,0,0,0,0,0,0,0,0,0,-1,587,463,0,0
-630,561,0,0,0,0,0,0,0,0,0,-1,594,463,0,0
-623,561,0,0,0,0,0,0,0,0,0,-1,601,463,0,0
-616,561,0,0,0,0,0,0,0,0,0,-1,608,463,0,0
-609,561,0,0,0,0,0,0,0,0,0,-1,615,463,0,0
-602,561,0,0,0,0,0,0,0,0,0,-1,622,463,0,0
-595,561,0,0,0,0,0,0,0,0,0,-1,629,463,0,0
-588,561,0,0,0,0,0,0,0,0,0,-1,636,463,0,0
-581,561,0,0,0,0,0,0,0,0,0,-1,643,463,0,0
-574,561,0,0,0,0,0,0,0,0,0,-1,650,463,0,0
-567,561,0,0,0,0,0,0,0,0,0,-1,657,463,0,0
-560,561,0,0,0,0,0,0,0,0,0,-1,664,463,0,0
-553,561,0,0,0,0,0,0,0,0,0,-1,671,463,0,0
-546,561,0,0,0,0,0,0,0,0,0,-1,678,463,0,0
-539,561,0,0,0,0,0,0,0,0,0,-1,685,463,0,0
-532,561,0,0,0,0,0,0,0,0,0,-1,692,463,0,0
-525,561,0,0,0,0,0,0,0,0,0,-1,699,463,0,0
-518,561,0,0,0,0,0,0,0,0,0,-1,706,463,0,0
-511,561,0,0,0,0,0,0,0,0,0,-1,713,463,0,0
-504,561,0,0,0,0,0,0,0,0,0,-1,720,463,0,0
-497,561,0,0,0,0,0,0,0,0,0,-1,727,463,0,0
-490,561,0,0,0,0,0,0,0,0,0,-1,734,463,0,0
-483,561,0,0,0,0,0,0,0,0,0,-1,741,463,0,0
-476,561,0,0,0,0,0,0,0,0,0,-1,748,463,0,0
-469,561,0,0,0,0,0,0,0,0,0,-1,755,463,0,0
-462,561,0,0,0,0,0,0,0,0,0,-1,762,463,0,0
-455,561,0,0,0,0,0,0,0,0,0,-1,769,463,0,0
-448,561,0,0,0,0,0,0,0,0,0,-1,776,463,0,0
-441,561,0,0,0,0,0,0,0,0,0,-1,783,463,0,0
-434,561,0,0,0,0,0,0,0,0,0,-1,790,463,0,0
-427,561,0,0,0,0,0,0,0,0,0,-1,797,463,0,0
-420,561,0,0,0,0,0,0,0,0,0,-1,804,463,0,0
-413,561,0,0,0,0,0,0,0,0,0,-1,811,463,0,0
-406,561,0,0,0,0,0,0,0,0,0,-1,818,463,0,0
-399,561,0,0,0,0,0,0,0,0,0,-1,825,463,0,0
-392,561,0.760742,-5.28458,0.00900257,0.0233733,0.0959041,0.112361,-0.079985,0.822789,0.111574,0.0476332,832,463,0.760731,5.28456
-385,561,0.909302,-3.83817,0.0109514,0.0209356,0.0826728,0.0987668,-0.0668799,0.815553,0.096225,0.0482434,839,463,0.909325,3.83816
-378,561,1.12054,-2.52811,0,0,0,0,0,0,0,-1,846,463,1.12052,2.52812
-371,561,0.00439453,-2.2468,0.0120911,0.0250378,0.0608277,0.0797356,-0.0426068,0.838409,0.0717105,0.0435892,853,463,0.00439777,2.24679
-364,561,0.384155,-1.07346,0.0134018,0.0187674,0.0538505,0.0700019,-0.0378326,0.810287,0.063175,0.045369,860,463,0.384125,1.07347
-357,561,0.653564,0.0280151,0,0,0,0,0,0,0,-1,867,463,0.653583,-0.028012
-350,561,1.86603,-4.23535,0,0,0,0,0,0,0,-1,874,463,1.866,4.23534
-343,561,1.38306,-5.54279,0,0,0,0,0,0,0,-1,881,463,1.38304,5.54279
-336,561,1.2771,-5.465,0.0147881,0.0182159,0.0290568,0.0456093,-0.0126053,0.814856,0.0353649,0.0475815,888,463,1.27711,5.46499
-329,561,1.07037,-5.36673,0.0138096,0.0143475,0.0244052,0.0384852,-0.0103281,0.790908,0.0297042,0.0342408,895,463,1.0704,5.36673
-322,561,1.11499,-5.43298,0.0119012,0.0110793,0.0215799,0.0330741,-0.0100936,0.775878,0.0260735,0.0256005,902,463,1.11498,5.43299
-315,561,1.1214,-5.51266,0.0101465,0.0085857,0.0185672,0.0279497,-0.00921748,0.764395,0.0223485,0.0191924,909,463,1.12139,5.51267
-308,561,1.07269,-5.64996,0.00871241,0.00625327,0.015555,0.0230864,-0.00812067,0.745957,0.0186952,0.0155678,916,463,1.07272,5.64996
-301,561,1.05536,-5.81888,0.00741354,0.00450279,0.0132357,0.0192736,-0.00735727,0.730639,0.0158801,0.0118372,923,463,1.05534,5.81889
-294,561,1.03735,-5.952,0.0060937,0.00319581,0.0107792,0.0155209,-0.0062314,0.718588,0.0129348,0.00968434,930,463,1.03732,5.95199
-287,561,1.02338,-6.09439,0.00482865,0.00183534,0.00833027,0.0117957,-0.00513166,0.696514,0.0100223,0.00836167,937,463,1.02336,6.0944
-280,561,1.0174,-6.2348,0.00376872,0.00148998,0.00647797,0.00920675,-0.00394805,0.698347,0.00779459,0.0111832,944,463,1.01739,6.2348
-273,561,1.0202,-6.37994,0.00283016,0.000922286,0.00464223,0.00661546,-0.00286301,0.684063,0.00561352,0.0134999,951,463,1.02021,6.37993
-266,561,1.02411,-6.51175,0.0022912,0.00081453,0.00246381,0.00412493,-0.0010192,0.63982,0.00314522,0.00872165,958,463,1.02408,6.51176
-259,561,1.02325,-6.63306,0.00166813,0.00139493,0.000825762,0.00236851,0.000694547,0.703431,0.00140589,0.00957126,965,463,1.02328,6.63306
-252,561,1.00507,-6.74158,0.00131194,0.00173396,-0.000349211,0.00193096,0.00111493,-1.05717,0.00111928,0.0132778,972,463,1.00508,6.74158
-245,561,1.01062,-6.88138,0.00140311,0.00188133,-0.00122853,0.00289381,0.000390642,-0.881512,0.00181307,0.0156819,979,463,1.0106,6.88136
-238,561,1.0191,-7.02615,0.00167199,0.00215913,-0.00174747,0.00367992,0.000151195,-0.854645,0.00240447,0.0124668,986,463,1.01912,7.02615
-231,561,1.01373,-7.12708,0.00176074,0.0024725,-0.00216033,0.00430607,-7.2829e-05,-0.867032,0.00289529,0.0102246,993,463,1.01375,7.12707
-224,561,1.02545,-7.24658,0.0016004,0.00297831,-0.00236935,0.00475684,-0.000178127,-0.926886,0.00323224,0.0102667,1000,463,1.02546,7.24658
-217,561,1.04565,-7.36072,0.00159253,0.00341397,-0.00260337,0.00526132,-0.000254818,-0.953657,0.0035955,0.0108143,1007,463,1.04568,7.36072
-210,561,1.05023,-7.47037,0.00155819,0.00349944,-0.00290309,0.00558987,-0.000532239,-0.946726,0.00391607,0.0114955,1014,463,1.05022,7.47036
-203,561,1.05792,-7.59521,0.00150128,0.00371638,-0.00323451,0.00602771,-0.000810047,-0.95035,0.00431391,0.0126387,1021,463,1.05793,7.59521
-196,561,1.05774,-7.69489,0.00144537,0.00369255,-0.00342133,0.00617007,-0.00103215,-0.944053,0.00449708,0.0139563,1028,463,1.05774,7.69488
-189,561,1.06543,-7.78168,0.00141346,0.00361044,-0.00368586,0.00635802,-0.00133411,-0.930222,0.0047463,0.016298,1035,463,1.06543,7.78169
-182,561,1.08801,-7.90509,0.00150888,0.00374971,-0.00400397,0.00678708,-0.00152848,-0.921822,0.00511097,0.0180247,1042,463,1.08798,7.90509
-175,561,1.07898,-8.01154,0.00159034,0.0036613,-0.00430335,0.007052,-0.00180036,-0.903465,0.00540239,0.0260533,1049,463,1.07892,8.01155
-168,561,1.09985,-8.08041,0.00182417,0.00256722,-0.00449655,0.00670757,-0.00231618,-0.826616,0.0054116,0.0387991,1056,463,1.09988,8.0804
-161,561,1.33838,-7.99411,0.0018979,-0.000265176,-0.00465428,0.00559465,-0.00396193,-0.671237,0.00554427,0.0423359,1063,463,1.33842,7.99411
-154,561,1.40894,-8.3996,0.00196474,-0.003172,-0.00469974,0.00475212,-0.00595939,-0.535325,0.00619737,0.0454135,1070,463,1.40894,8.39959
-147,561,1.47363,-8.43149,0.00246862,-0.00627683,-0.00482283,0.00460592,-0.00841413,-0.417153,0.00762355,0.0449106,1077,463,1.47358,8.43147
-140,561,1.55249,-8.62152,0,0,0,0,0,0,0,-1,1084,463,1.55251,8.62153
-133,561,1.58618,-8.92117,0,0,0,0,0,0,0,-1,1091,463,1.58617,8.92117
-126,561,1.34412,-8.5946,0,0,0,0,0,0,0,-1,1098,463,1.34418,8.5946
-119,561,1.57751,-8.33603,0.00677242,-0.0243473,-0.00170436,0.00686549,-0.0244404,-0.0545503,0.0190001,0.0438227,1105,463,1.57753,8.33603
-112,561,1.6554,-7.92682,0.00695607,-0.0300949,0.000276952,0.00695814,-0.0300969,0.00747433,0.0227416,0.0479063,1112,463,1.65536,7.92683
-105,561,0.954102,-8.35388,0,0,0,0,0,0,0,-1,1119,463,0.954082,8.35388
-98,561,2.0647,-7.44724,0,0,0,0,0,0,0,-1,1126,463,2.06467,7.44724
-91,561,-0.767456,-6.61673,0,0,0,0,0,0,0,-1,1133,463,-0.76745,6.61672
-84,561,-2.70227,-8.30252,0,0,0,0,0,0,0,-1,1140,463,-2.70232,8.30253
-77,561,-2.36023,1.00204,0,0,0,0,0,0,0,-1,1147,463,-2.3602,-1.00205
-70,561,-3.90015,-1.41541,0,0,0,0,0,0,0,-1,1154,463,-3.90009,1.4154
-63,561,-5.44373,-3.84851,0,0,0,0,0,0,0,-1,1161,463,-5.44376,3.8485
-56,561,-5.37988,-6.66855,0,0,0,0,0,0,0,-1,1168,463,-5.37988,6.66854
-49,561,-5.7439,-9.11029,0,0,0,0,0,0,0,-1,1175,463,-5.74387,9.1103
-42,561,-1.72644,-5.63065,0,0,0,0,0,0,0,-1,1182,463,-1.72648,5.63064
-35,561,-1.65674,-4.87994,0,0,0,0,0,0,0,-1,1189,463,-1.6567,4.87993
-28,561,-1.91418,-3.86896,0,0,0,0,0,0,0,-1,1196,463,-1.91414,3.86895
-21,561,2.90442,-8.57343,0,0,0,0,0,0,0,-1,1203,463,2.90441,8.57343
-14,561,2.65039,-8.66382,0,0,0,0,0,0,0,-1,1210,463,2.65043,8.66383
-7,561,1.70349,-8.6424,0,0,0,0,0,0,0,-1,1217,463,1.70349,8.64238
0,561,1.37842,-8.65625,0,0,0,0,0,0,0,-1,1224,463,1.37839,8.65625
7,561,3.33716,-7.58167,0,0,0,0,0,0,0,-1,1231,463,3.33715,7.58166
14,561,-2.86267,-12.0272,0,0,0,0,0,0,0,-1,1238,463,-2.86268,12.0272
21,561,-2.1377,-12.4526,0,0,0,0,0,0,0,-1,1245,463,-2.13769,12.4526
28,561,-0.470947,-12.0599,0,0,0,0,0,0,0,-1,1252,463,-0.470966,12.0599
35,561,-0.143555,-12.6245,0.0659975,0.103875,0.0143863,0.108719,0.061153,1.24598,0.0629323,0.0423655,1259,463,-0.143613,12.6245
42,561,0.152466,-13.0988,0.0655521,0.116493,0.0172467,0.121783,0.0602622,1.27319,0.0703124,0.0440683,1266,463,0.152464,13.0988
49,561,0.153076,-13.1625,0.0646144,0.127155,0.020705,0.133389,0.058381,1.27837,0.0772111,0.0440328,1273,463,0.153116,13.1625
56,561,0.38562,-13.8831,0.0651673,0.13555,0.0238308,0.14286,0.0578576,1.27317,0.0829749,0.0427965,1280,463,0.385596,13.8831
63,561,0.580444,-14.9604,0.0655995,0.141029,0.0260731,0.149165,0.0574645,1.26836,0.086873,0.0430284,1287,463,0.580491,14.9604
70,561,0.216675,-15.9264,0.0654228,0.142752,0.0269864,0.151238,0.0569363,1.26612,0.0882012,0.0481065,1294,463,0.216655,15.9264
77,561,2.28223,-15.3452,0.0623469,0.143406,0.0275223,0.151867,0.0538854,1.27253,0.0889042,0.0493525,1301,463,2.28222,15.3452
84,561,2.82153,-14.7696,0.0628506,0.141465,0.0266607,0.149654,0.054662,1.2728,0.0874423,0.0449188,1308,463,2.82154,14.7696
91,561,2.49414,-14.3872,0.0652222,0.138667,0.0273263,0.147718,0.0561706,1.25093,0.0860967,0.041703,1315,463,2.4941,14.3872
98,561,2.88489,-13.4839,0.0671438,0.132238,0.0261502,0.141442,0.0579399,1.23237,0.0821049,0.046102,1322,463,2.88494,13.4838
105,561,3.25964,-12.5705,0,0,0,0,0,0,0,-1,1329,463,3.2596,12.5705
112,561,4.23584,-12.0493,0.0660941,0.116932,0.0224651,0.125437,0.0575896,1.2089,0.0725015,0.0494373,1336,463,4.23579,12.0493
119,561,4.85828,-11.4977,0.0656574,0.105156,0.0203722,0.11378,0.0570331,1.17034,0.0656911,0.0451422,1343,463,4.85826,11.4977
126,561,5.15283,-10.6452,0.0659345,0.0971636,0.0171675,0.104755,0.0583426,1.15443,0.0606112,0.0454312,1350,463,5.15278,10.6452
133,561,5.48218,-9.91782,0,0,0,0,0,0,0,-1,1357,463,5.48215,9.91781
140,561,5.55396,-8.51221,0,0,0,0,0,0,0,-1,1364,463,5.55392,8.51222
147,561,6.80371,-13.8465,0,0,0,0,0,0,0,-1,1371,463,6.80377,13.8465
154,561,7.46887,-14.0081,0,0,0,0,0,0,0,-1,1378,463,7.46883,14.0081
161,561,8.1438,-14.2867,0,0,0,0,0,0,0,-1,1385,463,8.14376,14.2867
168,561,8.91394,-0.737396,0,0,0,0,0,0,0,-1,1392,463,8.91389,0.737391
175,561,10.4185,0.276398,0,0,0,0,0,0,0,-1,1399,463,10.4185,-0.276394
182,561,6.45703,-4.02127,0,0,0,0,0,0,0,-1,1406,463,6.45704,4.02127
189,561,6.50854,-2.08685,0,0,0,0,0,0,0,-1,1413,463,6.50851,2.08686
196,561,6.44775,-0.27182,0,0,0,0,0,0,0,-1,1420,463,6.44773,0.271814
203,561,6.18591,1.1301,0,0,0,0,0,0,0,-1,1427,463,6.18592,-1.13009
210,561,5.68713,2.68427,0,0,0,0,0,0,0,-1,1434,463,5.6871,-2.68425
217,561,3.61743,-7.33582,0,0,0,0,0,0,0,-1,1441,463,3.61738,7.33581
224,561,4.27466,-8.59171,0,0,0,0,0,0,0,-1,1448,463,4.27466,8.59171
231,561,4.93188,-9.8476,0,0,0,0,0,0,0,-1,1455,463,4.93193,9.84761
238,561,2.18018,-5.18359,0,0,0,0,0,0,0,-1,1462,463,2.18023,5.18359
245,561,3.07568,-3.50238,0,0,0,0,0,0,0,-1,1469,463,3.0757,3.50238
252,561,3.47412,-3.71109,0,0,0,0,0,0,0,-1,1476,463,3.47413,3.71109
259,561,3.42212,-3.2334,0,0,0,0,0,0,0,-1,1483,463,3.42214,3.2334
266,561,4.44373,-5.90027,0,0,0,0,0,0,0,-1,1490,463,4.44372,5.90026
273,561,2.59485,-3.65268,0,0,0,0,0,0,0,-1,1497,463,2.5948,3.65268
280,561,3.10767,-6.38235,0,0,0,0,0,0,0,-1,1504,463,3.10766,6.38235
287,561,3.06885,-7.52802,0,0,0,0,0,0,0,-1,1511,463,3.06885,7.52802
294,561,3.25378,-7.38501,-0.00081055,-0.00205231,-0.00610082,0.0047009,-0.00756376,-0.734688,0.00714502,0.0452826,1518,463,3.2538,7.38502
301,561,3.26404,-7.34216,-0.00124675,-0.00212945,-0.00585111,0.00417963,-0.00755583,-0.747754,0.0068683,0.0411981,1525,463,3.26407,7.34216
308,561,3.13318,-7.16785,-0.00169912,-0.00198537,-0.00583396,0.00399347,-0.00767796,-0.773134,0.00684951,0.0285877,1532,463,3.13318,7.16784
315,561,3.08911,-7.06564,-0.00188209,-0.00144867,-0.00550821,0.00384709,-0.00717785,-0.80506,0.00646135,0.0190373,1539,463,3.08912,7.06565
322,561,3.09558,-6.97305,-0.00192712,-0.00126273,-0.00531736,0.0037328,-0.00692265,-0.816594,0.00624314,0.0173126,1546,463,3.09564,6.97304
329,561,3.08423,-6.81454,-0.00192592,-0.00130835,-0.00497942,0.00337185,-0.00660612,-0.816365,0.00586079,0.0117479,1553,463,3.08421,6.81455
336,561,3.10388,-6.66702,-0.00179335,-0.00112203,-0.00449234,0.00304717,-0.00596256,-0.822688,0.00529177,0.0107008,1560,463,3.10394,6.66703
343,561,3.11743,-6.53943,-0.00175282,-0.00105092,-0.00399446,0.00260798,-0.00541172,-0.829215,0.00472356,0.00941657,1567,463,3.11737,6.53942
350,561,3.10876,-6.40326,-0.00165065,-0.000935129,-0.00341704,0.00214283,-0.00472861,-0.837558,0.00405978,0.00846098,1574,463,3.10877,6.40325
357,561,3.10205,-6.25958,-0.00143234,-0.000777635,-0.00283438,0.00174823,-0.0039582,-0.84289,0.00337597,0.0087034,1581,463,3.10203,6.25957
364,561,3.12134,-6.13672,-0.00120099,-0.000508218,-0.00224633,0.00141828,-0.00312749,-0.861896,0.00268563,0.00861514,1588,463,3.12129,6.13672
371,561,3.12878,-5.9921,-0.001015,-0.000282545,-0.00164494,0.00103644,-0.00233398,-0.894931,0.0019934,0.0144718,1595,463,3.12882,5.9921
378,561,3.11267,-5.83411,-0.000809338,-7.92881e-05,-0.00106229,0.000678946,-0.00156757,-0.950888,0.00133042,0.0117012,1602,463,3.11272,5.8341
385,561,3.11304,-5.68637,-0.000689594,2.74142e-05,-0.000640753,0.000403137,-0.00106532,-1.04045,0.000876074,0.0104819,1609,463,3.113,5.68636
392,561,3.10388,-5.52319,-0.000486511,1.61229e-08,-0.00021872,8.38852e-05,-0.00057038,-1.20464,0.000411078,0.0136245,1616,463,3.10385,5.52319
399,561,3.09473,-5.37036,-0.000233044,3.1358e-05,0.000159531,0.000106346,-0.000308032,1.13139,0.000248507,0.0192934,1623,463,3.09467,5.37036
406,561,3.11426,-5.21979,2.42596e-05,6.33439e-05,0.000489741,0.000533933,-0.000446329,0.805339,0.000566708,0.0172356,1630,463,3.1143,5.21978
413,561,3.12439,-5.06973,0.000104573,0.000836513,0.000468408,0.00106497,-0.000123881,1.11702,0.000754669,0.0156508,1637,463,3.12436,5.06974
420,561,3.10046,-4.90387,0.000809016,0.00161982,-4.68163e-05,0.00162251,0.000806322,-1.51331,0.000936764,0.0123633,1644,463,3.10041,4.90387
427,561,3.10657,-4.73297,0.00207194,0.00218342,-0.000568221,0.00269863,0.00155673,-0.834293,0.00156418,0.00947242,1651,463,3.10651,4.73297
434,561,3.12122,-4.59338,0.00316557,0.00313569,-0.00122224,0.00437296,0.0019283,-0.779286,0.00253059,0.0104576,1658,463,3.12122,4.59339
441,561,3.10779,-4.45657,0.0053161,0.00380336,-0.00272258,0.00738542,0.00173404,-0.649908,0.00445943,0.0136069,1665,463,3.10773,4.45657
448,561,3.10657,-4.29672,0.00803871,0.00354205,-0.00524684,0.0114986,8.21105e-05,-0.582978,0.00763854,0.0182572,1672,463,3.10652,4.29674
455,561,3.15796,-4.07413,0.0109635,0.00376736,-0.00771341,0.0158767,-0.00114591,-0.567166,0.0109864,0.0347352,1679,463,3.15794,4.07413
462,561,3.09863,-3.86508,0.0145232,0.00452665,-0.0108994,0.0215157,-0.00246588,-0.570414,0.0152324,0.0352142,1686,463,3.09866,3.86508
469,561,3.01575,-3.69589,0.0185721,0.00490053,-0.0143606,0.0276409,-0.00416822,-0.563262,0.0199623,0.0240186,1693,463,3.01574,3.69588
476,561,3.02991,-3.49252,0.0231545,0.00470978,-0.0185361,0.0346357,-0.00677146,-0.554562,0.0256473,0.0422693,1700,463,3.02989,3.49252
483,561,3.04834,-3.2847,0,0,0,0,0,0,0,-1,1707,463,3.04832,3.2847
490,561,6.13806,-3.71606,0.0330956,0.00442806,-0.0284226,0.0505942,-0.0130706,-0.551854,0.0388268,0.0491605,1714,463,6.13809,3.71606
497,561,6.27173,-3.02441,0.0382464,0.00550999,-0.0339803,0.0595953,-0.0158389,-0.560949,0.0459294,0.0482773,1721,463,6.2717,3.02441
504,561,6.45044,-2.35263,0,0,0,0,0,0,0,-1,1728,463,6.4504,2.35263
511,561,0,0,0,0,0,0,0,0,0,-1,1735,463,0,0
518,561,0,0,0,0,0,0,0,0,0,-1,1742,463,0,0
525,561,0,0,0,0,0,0,0,0,0,-1,1749,463,0,0
532,561,0,0,0,0,0,0,0,0,0,-1,1756,463,0,0
539,561,0,0,0,0,0,0,0,0,0,-1,1763,463,0,0
546,561,0,0,0,0,0,0,0,0,0,-1,1770,463,0,0
553,561,0,0,0,0,0,0,0,0,0,-1,1777,463,0,0
560,561,0,0,0,0,0,0,0,0,0,-1,1784,463,0,0
567,561,0,0,0,0,0,0,0,0,0,-1,1791,463,0,0
574,561,0,0,0,0,0,0,0,0,0,-1,1798,463,0,0
581,561,0,0,0,0,0,0,0,0,0,-1,1805,463,0,0
588,561,0,0,0,0,0,0,0,0,0,-1,1812,463,0,0
595,561,0,0,0,0,0,0,0,0,0,-1,1819,463,0,0
602,561,0,0,0,0,0,0,0,0,0,-1,1826,463,0,0
609,561,0,0,0,0,0,0,0,0,0,-1,1833,463,0,0
616,561,0,0,0,0,0,0,0,0,0,-1,1840,463,0,0
623,561,0,0,0,0,0,0,0,0,0,-1,1847,463,0,0
630,561,0,0,0,0,0,0,0,0,0,-1,1854,463,0,0
637,561,0,0,0,0,0,0,0,0,0,-1,1861,463,0,0
644,561,0,0,0,0,0,0,0,0,0,-1,1868,463,0,0
651,561,0,0,0,0,0,0,0,0,0,-1,1875,463,0,0
658,561,0,0,0,0,0,0,0,0,0,-1,1882,463,0,0
665,561,0,0,0,0,0,0,0,0,0,-1,1889,463,0,0
672,561,0,0,0,0,0,0,0,0,0,-1,1896,463,0,0
679,561,0,0,0,0,0,0,0,0,0,-1,1903,463,0,0
686,561,0,0,0,0,0,0,0,0,0,-1,1910,463,0,0
693,561,0,0,0,0,0,0,0,0,0,-1,1917,463,0,0
700,561,0,0,0,0,0,0,0,0,0,-1,1924,463,0,0
707,561,0,0,0,0,0,0,0,0,0,-1,1931,463,0,0
714,561,0,0,0,0,0,0,0,0,0,-1,1938,463,0,0
721,561,0,0,0,0,0,0,0,0,0,-1,1945,463,0,0
728,561,0,0,0,0,0,0,0,0,0,-1,1952,463,0,0
735,561,0,0,0,0,0,0,0,0,0,-1,1959,463,0,0
742,561,0,0,0,0,0,0,0,0,0,-1,1966,463,0,0
749,561,0,0,0,0,0,0,0,0,0,-1,1973,463,0,0
756,561,0,0,0,0,0,0,0,0,0,-1,1980,463,0,0
763,561,0,0,0,0,0,0,0,0,0,-1,1987,463,0,0
770,561,0,0,0,0,0,0,0,0,0,-1,1994,463,0,0
777,561,0,0,0,0,0,0,0,0,0,-1,2001,463,0,0
784,561,0,0,0,0,0,0,0,0,0,-1,2008,463,0,0
791,561,0,0,0,0,0,0,0,0,0,-1,2015,463,0,0
798,561,0,0,0,0,0,0,0,0,0,-1,2022,463,0,0
805,561,0,0,0,0,0,0,0,0,0,-1,2029,463,0,0
812,561,0,0,0,0,0,0,0,0,0,-1,2036,463,0,0
-700,554,0,0,0,0,0,0,0,0,0,-1,524,470,0,0
-693,554,0,0,0,0,0,0,0,0,0,-1,531,470,0,0
-686,554,0,0,0,0,0,0,0,0,0,-1,538,470,0,0
-679,554,0,0,0,0,0,0,0,0,0,-1,545,470,0,0
-672,554,0,0,0,0,0,0,0,0,0,-1,552,470,0,0
-665,554,0,0,0,0,0,0,0,0,0,-1,559,470,0,0
-658,554,0,0,0,0,0,0,0,0,0,-1,566,470,0,0
-651,554,0,0,0,0,0,0,0,0,0,-1,573,470,0,0
-644,554,0,0,0,0,0,0,0,0,0,-1,580,470,0,0
-637,554,0,0,0,0,0,0,0,0,0,-1,587,470,0,0
-630,554,0,0,0,0,0,0,0,0,0,-1,594,470,0,0
-623,554,0,0,0,0,0,0,0,0,0,-1,601,470,0,0
-616,554,0,0,0,0,0,0,0,0,0,-1,608,470,0,0
-609,554,0,0,0,0,0,0,0,0,0,-1,615,470,0,0
-602,554,0,0,0,0,0,0,0,0,0,-1,622,470,0,0
-595,554,0,0,0,0,0,0,0,0,0,-1,629,470,0,0
-588,554,0,0,0,0,0,0,0,0,0,-1,636,470,0,0
-581,554,0,0,0,0,0,0,0,0,0,-1,643,470,0,0
-574,554,0,0,0,0,0,0,0,0,0,-1,650,470,0,0
-567,554,0,0,0,0,0,0,0,0,0,-1,657,470,0,0
-560,554,0,0,0,0,0,0,0,0,0,-1,664,470,0,0
-553,554,0,0,0,0,0,0,0,0,0,-1,671,470,0,0
-546,554,0,0,0,0,0,0,0,0,0,-1,678,470,0,0
-539,554,0,0,0,0,0,0,0,0,0,-1,685,470,0,0
-532,554,0,0,0,0,0,0,0,0,0,-1,692,470,0,0
-525,554,0,0,0,0,0,0,0,0,0,-1,699,470,0,0
-518,554,0,0,0,0,0,0,0,0,0,-1,706,470,0,0
-511,554,0,0,0,0,0,0,0,0,0,-1,713,470,0,0
-504,554,0,0,0,0,0,0,0,0,0,-1,720,470,0,0
-497,554,0,0,0,0,0,0,0,0,0,-1,727,470,0,0
-490,554,0,0,0,0,0,0,0,0,0,-1,734,470,0,0
-483,554,0,0,0,0,0,0,0,0,0,-1,741,470,0,0
-476,554,0,0,0,0,0,0,0,0,0,-1,748,470,0,0
-469,554,0,0,0,0,0,0,0,0,0,-1,755,470,0,0
-462,554,0,0,0,0,0,0,0,0,0,-1,762,470,0,0
-455,554,0,0,0,0,0,0,0,0,0,-1,769,470,0,0
-448,554,0,0,0,0,0,0,0,0,0,-1,776,470,0,0
-441,554,0,0,0,0,0,0,0,0,0,-1,783,470,0,0
-434,554,0,0,0,0,0,0,0,0,0,-1,790,470,0,0
-427,554,0,0,0,0,0,0,0,0,0,-1,797,470,0,0
-420,554,0,0,0,0,0,0,0,0,0,-1,804,470,0,0
-413,554,0,0,0,0,0,0,0,0,0,-1,811,470,0,0
-406,554,0,0,0,0,0,0,0,0,0,-1,818,470,0,0
-399,554,0.889954,-6.90155,0,0,0,0,0,0,0,-1,825,470,0.889951,6.90156
-392,554,1.01978,-5.45602,-0.000232601,0.0153095,0.0753435,0.0832817,-0.0682048,0.836787,0.087605,0.0483993,832,470,1.01975,5.45604
-385,554,0.84198,-4.04935,0.00248387,0.0123589,0.0651182,0.0727265,-0.0578838,0.823238,0.07557,0.0470547,839,470,0.841999,4.04936
-378,554,0.374207,-2.9303,0,0,0,0,0,0,0,-1,846,470,0.37423,2.9303
-371,554,0.0341187,-1.98434,0.00611487,0.0135025,0.0471699,0.057123,-0.0375056,0.824473,0.0550238,0.0441594,853,470,0.0341089,1.98434
-364,554,0.00970459,-1.17307,0.008033,0.00878758,0.0404227,0.0488347,-0.0320142,0.790065,0.0470137,0.0478418,860,470,0.00972706,1.17305
-357,554,-0.25238,-0.154297,0,0,0,0,0,0,0,-1,867,470,-0.252385,0.154297
-350,554,1.15448,-4.94662,0,0,0,0,0,0,0,-1,874,470,1.15447,4.94661
-343,554,1.10059,-5.02448,0.0108961,0.0121151,0.0228649,0.0343787,-0.0113674,0.798723,0.0275028,0.044089,881,470,1.10057,5.02447
-336,554,1.03424,-5.13232,0.0108283,0.0115126,0.0180224,0.0291961,-0.00685517,0.79489,0.0221063,0.0312819,888,470,1.03425,5.13231
-329,554,0.956055,-5.27618,0.0100842,0.00880102,0.0142991,0.0237561,-0.00487087,0.762978,0.0176861,0.0151537,895,470,0.956042,5.27618
-322,554,0.932434,-5.41168,0.00853855,0.00679201,0.0122974,0.0199937,-0.00466311,0.749952,0.015125,0.00912749,902,470,0.932463,5.41168
-315,554,0.932678,-5.53375,0.0071768,0.00522846,0.0101247,0.0163741,-0.00396883,0.737437,0.0124517,0.00993654,909,470,0.932659,5.53375
-308,554,0.911011,-5.6846,0.00615195,0.00367523,0.00807821,0.0130862,-0.00325899,0.709342,0.00998924,0.013284,916,470,0.911018,5.6846
-301,554,0.91803,-5.82806,0.00527445,0.00254596,0.00678274,0.0108288,-0.00300837,0.686155,0.00840344,0.0133918,923,470,0.918012,5.82807
-294,554,0.895935,-5.97034,0.0043558,0.00176128,0.00542757,0.00863899,-0.00252191,0.668092,0.00675866,0.0111017,930,470,0.895949,5.97033
-287,554,0.882629,-6.11255,0.0035009,0.00095922,0.00404986,0.00647464,-0.00201451,0.633364,0.00512174,0.0108849,937,470,0.882612,6.11256
-280,554,0.866028,-6.23703,0.00279931,0.000771162,0.00309655,0.0050436,-0.00147313,0.627159,0.00394619,0.0102319,944,470,0.866046,6.23702
-273,554,0.878601,-6.38263,0.00222615,0.000486752,0.00207512,0.00360646,-0.000893552,0.586964,0.00275096,0.0133229,951,470,0.878591,6.38264
-266,554,0.892822,-6.51538,0.00195054,0.000612135,0.000745854,0.0022834,0.000279273,0.419758,0.00143824,0.0113208,958,470,0.892851,6.5154
-259,554,0.89856,-6.61905,0.00163271,0.00126081,-0.000249991,0.00175833,0.0011352,-0.465627,0.00102942,0.011348,965,470,0.89854,6.61905
-252,554,0.876831,-6.73151,0.00159622,0.00185515,-0.000965236,0.00269956,0.000751803,-0.852064,0.00160877,0.0135198,972,470,0.876837,6.7315
-245,554,0.864441,-6.85593,0.00186589,0.00220192,-0.00162099,0.00366358,0.000404229,-0.83704,0.00231942,0.0151827,979,470,0.864419,6.85593
-238,554,0.886475,-7.01123,0.00223102,0.00267431,-0.00225163,0.00471518,0.000190153,-0.834459,0.00308202,0.0111453,986,470,0.886475,7.01123
-231,554,0.900696,-7.1293,0.00236549,0.00327852,-0.00285073,0.00570905,-6.50489e-05,-0.864793,0.0038279,0.00955741,993,470,0.900691,7.12932
-224,554,0.916809,-7.23563,0.00218189,0.0041067,-0.00321186,0.00649724,-0.000208651,-0.930962,0.00440269,0.0102466,1000,470,0.916807,7.23563
-217,554,0.929138,-7.34869,0.00216478,0.00486177,-0.00361012,0.00736702,-0.000340474,-0.96414,0.00502868,0.0105261,1007,470,0.929139,7.3487
-210,554,0.936951,-7.48737,0.0021198,0.00518203,-0.00407072,0.00800006,-0.000698228,-0.965278,0.00558069,0.0123418,1014,470,0.936976,7.48738
-203,554,0.953857,-7.6163,0.00200536,0.00562286,-0.00456909,0.00872819,-0.00109996,-0.973867,0.00621796,0.0178201,1021,470,0.953875,7.61632
-196,554,0.995972,-7.69003,0.00184896,0.00570742,-0.0048613,0.0090083,-0.00145193,-0.974294,0.00654343,0.0255903,1028,470,0.995981,7.69003
-189,554,1.10852,-7.754,0.00164348,0.00569868,-0.00525328,0.00930207,-0.00195992,-0.969574,0.00694746,0.0324499,1035,470,1.10858,7.754
-182,554,1.00415,-7.909,0.00160235,0.00588877,-0.00570701,0.00984173,-0.00235061,-0.96502,0.00746902,0.0416073,1042,470,1.0042,7.90898
-175,554,0.457886,-8.1579,0.00156016,0.00585673,-0.00608081,0.0101576,-0.0027407,-0.955199,0.00784649,0.0455314,1049,470,0.457835,8.15788
-168,554,1.35706,-7.65707,0,0,0,0,0,0,0,-1,1056,470,1.35709,7.65707
-161,554,1.43872,-7.7197,0,0,0,0,0,0,0,-1,1063,470,1.43877,7.7197
-154,554,1.4928,-8.45355,0,0,0,0,0,0,0,-1,1070,470,1.49279,8.45356
-147,554,1.32764,-8.29684,0,0,0,0,0,0,0,-1,1077,470,1.32762,8.29685
-140,554,1.06201,-8.23303,0,0,0,0,0,0,0,-1,1084,470,1.06207,8.23304
-133,554,-0.830078,-5.08127,0,0,0,0,0,0,0,-1,1091,470,-0.830078,5.08128
-126,554,1.2655,-7.81555,0,0,0,0,0,0,0,-1,1098,470,1.26551,7.81555
-119,554,1.96191,-8.03354,0,0,0,0,0,0,0,-1,1105,470,1.96186,8.03354
-112,554,1.96594,-7.25043,0,0,0,0,0,0,0,-1,1112,470,1.96588,7.25043
-105,554,2.49744,-7.02872,0,0,0,0,0,0,0,-1,1119,470,2.49741,7.02871
-98,554,-0.573242,-8.06555,0,0,0,0,0,0,0,-1,1126,470,-0.573201,8.06555
-91,554,-0.60437,-5.328,0,0,0,0,0,0,0,-1,1133,470,-0.604344,5.32801
-84,554,-1.47241,3.85419,0,0,0,0,0,0,0,-1,1140,470,-1.47239,-3.8542
-77,554,-2.56958,1.33258,0,0,0,0,0,0,0,-1,1147,470,-2.56959,-1.33257
-70,554,-3.68164,-1.18332,0,0,0,0,0,0,0,-1,1154,470,-3.68158,1.18331
-63,554,-4.86853,-3.88708,0,0,0,0,0,0,0,-1,1161,470,-4.86853,3.88708
-56,554,-5.69958,-6.45422,0,0,0,0,0,0,0,-1,1168,470,-5.69955,6.45422
-49,554,-6.23645,-8.8569,0,0,0,0,0,0,0,-1,1175,470,-6.23643,8.85689
-42,554,-6.62524,-11.5382,0,0,0,0,0,0,0,-1,1182,470,-6.62522,11.5382
-35,554,-2.40173,-4.59482,0,0,0,0,0,0,0,-1,1189,470,-2.40169,4.59481
-28,554,-0.760132,-1.65555,0,0,0,0,0,0,0,-1,1196,470,-0.760095,1.65556
-21,554,6.67249,-10.1976,0,0,0,0,0,0,0,-1,1203,470,6.67249,10.1976
-14,554,2.79321,-8.9249,0,0,0,0,0,0,0,-1,1210,470,2.79327,8.92489
-7,554,5.47302,-10.242,0,0,0,0,0,0,0,-1,1217,470,5.47301,10.242
0,554,3.5321,-6.74414,0,0,0,0,0,0,0,-1,1224,470,3.53213,6.74415
7,554,-3.5614,-12.2537,0,0,0,0,0,0,0,-1,1231,470,-3.56135,12.2537
14,554,-2.77344,-12.6116,0,0,0,0,0,0,0,-1,1238,470,-2.77345,12.6116
21,554,-2.04407,-13.0558,0,0,0,0,0,0,0,-1,1245,470,-2.0441,13.0558
28,554,-1.54614,-13.141,0,0,0,0,0,0,0,-1,1252,470,-1.54611,13.141
35,554,-0.469116,-13.4424,0.0733567,0.105915,0.0121536,0.109951,0.0693202,1.25014,0.0641965,0.0397741,1259,470,-0.46907,13.4424
42,554,-0.00219727,-14.1856,0.0712577,0.117789,0.0139479,0.121649,0.0673971,1.30077,0.0703708,0.0433115,1266,470,-0.00218526,14.1856
49,554,-0.304565,-13.3423,0.0687444,0.127901,0.016939,0.132408,0.0642374,1.31075,0.0764573,0.0471422,1273,470,-0.304595,13.3423
56,554,0.695435,-15.5283,0,0,0,0,0,0,0,-1,1280,470,0.695377,15.5283
63,554,0.052002,-16.2183,0,0,0,0,0,0,0,-1,1287,470,0.0519982,16.2183
70,554,2.79407,-15.9146,0,0,0,0,0,0,0,-1,1294,470,2.79405,15.9145
77,554,3.14685,-15.6708,0.0655079,0.145129,0.0245242,0.152076,0.0585604,1.29474,0.088571,0.0488574,1301,470,3.14683,15.6708
84,554,3.45581,-15.5255,0.0668936,0.144493,0.0239317,0.15128,0.0601067,1.29446,0.0879535,0.0440401,1308,470,3.45581,15.5255
91,554,3.84607,-15.3787,0.0703861,0.143361,0.0252903,0.151269,0.0624783,1.26775,0.0877744,0.0409437,1315,470,3.84607,15.3787
98,554,2.90979,-14.3021,0.0740272,0.138715,0.0246683,0.147048,0.0656937,1.24501,0.0850587,0.0434474,1322,470,2.90981,14.3021
105,554,3.1676,-13.6383,0.0757442,0.134994,0.0229797,0.142861,0.0678764,1.24092,0.0825151,0.0476285,1329,470,3.16755,13.6383
112,554,4.46631,-12.783,0,0,0,0,0,0,0,-1,1336,470,4.46634,12.783
119,554,4.81335,-12.31,0.0756451,0.114272,0.0190207,0.122066,0.0678514,1.18192,0.0706211,0.0407605,1343,470,4.8133,12.31
126,554,5.23303,-12.44,0.0764541,0.106367,0.0145597,0.112284,0.0705377,1.18482,0.0655337,0.0392829,1350,470,5.23308,12.44
133,554,5.55652,-12.6933,0.0792149,0.0966515,0.00849236,0.100104,0.0757624,1.18466,0.0602832,0.0420147,1357,470,5.55652,12.6933
140,554,6.03955,-12.8024,0,0,0,0,0,0,0,-1,1364,470,6.0396,12.8024
147,554,7.1759,-13.8823,0.0912741,0.0765646,-0.00938906,0.095846,0.0719926,-0.453152,0.0576163,0.0491012,1371,470,7.1759,13.8823
154,554,8.06384,-14.2411,0,0,0,0,0,0,0,-1,1378,470,8.06389,14.2411
161,554,8.78625,-14.5414,0,0,0,0,0,0,0,-1,1385,470,8.7863,14.5414
168,554,9.53796,-14.8958,0,0,0,0,0,0,0,-1,1392,470,9.53791,14.8958
175,554,10.663,0.286957,0,0,0,0,0,0,0,-1,1399,470,10.663,-0.286966
182,554,6.71106,-4.50217,0,0,0,0,0,0,0,-1,1406,470,6.71107,4.50215
189,554,6.90479,-2.50348,0,0,0,0,0,0,0,-1,1413,470,6.90477,2.50348
196,554,6.96216,-0.740906,0,0,0,0,0,0,0,-1,1420,470,6.96214,0.740912
203,554,6.43518,0.414154,0,0,0,0,0,0,0,-1,1427,470,6.43523,-0.414141
210,554,6.21167,1.96707,0,0,0,0,0,0,0,-1,1434,470,6.21165,-1.96706
217,554,5.64551,3.4989,0,0,0,0,0,0,0,-1,1441,470,5.64555,-3.49891
224,554,4.85144,-8.85172,0,0,0,0,0,0,0,-1,1448,470,4.85146,8.85173
231,554,3.25073,-5.29642,0,0,0,0,0,0,0,-1,1455,470,3.25078,5.29642
238,554,4.28625,-3.25253,0,0,0,0,0,0,0,-1,1462,470,4.28622,3.25252
245,554,4.0752,-2.90033,0,0,0,0,0,0,0,-1,1469,470,4.07515,2.90032
252,554,3.52112,-0.934998,0,0,0,0,0,0,0,-1,1476,470,3.52113,0.934996
259,554,3.96448,-2.16425,0,0,0,0,0,0,0,-1,1483,470,3.96446,2.16424
266,554,3.0592,-2.71716,0,0,0,0,0,0,0,-1,1490,470,3.05923,2.71718
273,554,2.58521,-3.06876,0,0,0,0,0,0,0,-1,1497,470,2.58524,3.06874
280,554,2.83301,-0.991699,0,0,0,0,0,0,0,-1,1504,470,2.83303,0.991704
287,554,3.54126,-4.12277,0,0,0,0,0,0,0,-1,1511,470,3.54123,4.12277
294,554,3.59106,-7.19937,0,0,0,0,0,0,0,-1,1518,470,3.59108,7.19939
301,554,3.54358,-7.33115,0,0,0,0,0,0,0,-1,1525,470,3.54364,7.33116
308,554,3.35254,-7.24634,0,0,0,0,0,0,0,-1,1532,470,3.35259,7.24635
315,554,3.24963,-7.09378,0,0,0,0,0,0,0,-1,1539,470,3.24958,7.09378
322,554,3.41577,-6.89938,-0.00283094,-0.00207373,-0.0075216,0.00507879,-0.00998345,-0.810545,0.00884854,0.0402181,1546,470,3.41575,6.89939
329,554,3.20557,-6.77853,-0.00278464,-0.00204837,-0.00712559,0.00471858,-0.0095516,-0.811207,0.00839492,0.0201255,1553,470,3.20553,6.77854
336,554,3.20642,-6.6749,-0.00259919,-0.00175588,-0.00650207,0.00433819,-0.00869327,-0.817777,0.00766249,0.0104517,1560,470,3.20639,6.6749
343,554,3.22217,-6.55792,-0.00255302,-0.00167012,-0.00591282,0.00381771,-0.00804085,-0.822659,0.00698976,0.00915816,1567,470,3.22213,6.55794
350,554,3.24182,-6.40964,-0.00243957,-0.00154289,-0.00526169,0.00328953,-0.00727199,-0.8279,0.00624052,0.00858163,1574,470,3.24188,6.40965
357,554,3.26465,-6.26047,-0.00222918,-0.00136371,-0.00461391,0.00283772,-0.00643061,-0.832156,0.00548345,0.00945253,1581,470,3.26463,6.26048
364,554,3.2655,-6.12402,-0.0019909,-0.00108293,-0.00394666,0.00243577,-0.00550959,-0.842662,0.00470029,0.00785291,1588,470,3.26548,6.12402
371,554,3.2655,-5.98331,-0.00177789,-0.000808196,-0.00323461,0.0019777,-0.00456378,-0.859791,0.00387386,0.00769057,1595,470,3.26554,5.98329
378,554,3.26172,-5.82645,-0.00151907,-0.000566469,-0.0025239,0.00152568,-0.00361122,-0.878659,0.00304618,0.0098258,1602,470,3.26171,5.82644
385,554,3.27075,-5.68484,-0.00137425,-0.000420111,-0.00197018,0.00112993,-0.0029243,-0.904185,0.00241592,0.00973951,1609,470,3.27077,5.68485
392,554,3.27515,-5.54077,-0.00113726,-0.000399718,-0.0014079,0.000686903,-0.00222388,-0.913486,0.0017569,0.0126115,1616,470,3.27517,5.54076
399,554,3.27368,-5.35062,-0.000822015,-0.000337353,-0.000908153,0.000360245,-0.00151961,-0.91578,0.00115209,0.0170167,1623,470,3.27371,5.35062
406,554,3.27563,-5.20117,-0.00047606,-0.000216735,-0.000430342,0.000103054,-0.000795848,-0.931723,0.000568041,0.0155729,1630,470,3.2756,5.20116
413,554,3.27002,-5.06119,-0.000262447,0.000462829,-0.000210446,0.000519469,-0.000319087,-1.30788,0.000488727,0.0143503,1637,470,3.26997,5.06119
420,554,3.25964,-4.91907,0.000363782,0.0010528,-0.000392686,0.00123068,0.000185904,-1.14547,0.000766043,0.0150643,1644,470,3.25968,4.91907
427,554,3.25549,-4.75748,0.00138222,0.00152124,-0.000578556,0.00203444,0.000869011,-0.845182,0.00117874,0.0110664,1651,470,3.25544,4.75748
434,554,3.24902,-4.59573,0.00226974,0.00229464,-0.000918526,0.0032008,0.00136358,-0.792176,0.00185471,0.00947973,1658,470,3.24906,4.59572
441,554,3.2583,-4.43372,0.00399089,0.00279085,-0.00192007,0.00540251,0.00137923,-0.633957,0.00324127,0.0102676,1665,470,3.25826,4.43371
448,554,3.2688,-4.26797,0.00618719,0.00263763,-0.00369303,0.00850976,0.00031506,-0.561404,0.00557113,0.0116121,1672,470,3.26878,4.26797
455,554,3.26855,-4.10239,0.00851573,0.00278546,-0.00542726,0.0117877,-0.000486519,-0.542533,0.00802556,0.0128799,1679,470,3.26852,4.10239
462,554,3.26514,-3.9295,0.0113693,0.00364793,-0.00782575,0.0162349,-0.00121761,-0.556248,0.0112511,0.0163081,1686,470,3.26517,3.92949
469,554,3.22839,-3.74503,0.0146535,0.00431653,-0.0104355,0.0211303,-0.00216027,-0.555466,0.0148594,0.0223264,1693,470,3.22835,3.74502
476,554,3.36353,-3.505,0.0184536,0.00462144,-0.0136607,0.0268492,-0.00377418,-0.551071,0.0192811,0.0428921,1700,470,3.36349,3.505
483,554,3.51379,-3.26508,0,0,0,0,0,0,0,-1,1707,470,3.51381,3.26508
490,554,7.31543,-3.51794,0.0269303,0.00613992,-0.0214315,0.0403546,-0.0072844,-0.559593,0.0296312,0.0495957,1714,470,7.3154,3.51794
497,554,7.9751,-2.43454,0.0314084,0.00838777,-0.0258501,0.048195,-0.00839882,-0.575941,0.0352646,0.0486089,1721,470,7.97505,2.43453
504,554,8.44727,-1.61166,0,0,0,0,0,0,0,-1,1728,470,8.44723,1.61168
511,554,-0.234375,-0.243439,0,0,0,0,0,0,0,-1,1735,470,-0.234366,0.243431
518,554,-1.15686,-2.436,0,0,0,0,0,0,0,-1,1742,470,-1.15691,2.43599
525,554,0,0,0,0,0,0,0,0,0,-1,1749,470,0,0
532,554,0,0,0,0,0,0,0,0,0,-1,1756,470,0,0
539,554,0,0,0,0,0,0,0,0,0,-1,1763,470,0,0
546,554,0,0,0,0,0,0,0,0,0,-1,1770,470,0,0
553,554,0,0,0,0,0,0,0,0,0,-1,1777,470,0,0
560,554,0,0,0,0,0,0,0,0,0,-1,1784,470,0,0
567,554,0,0,0,0,0,0,0,0,0,-1,1791,470,0,0
574,554,0,0,0,0,0,0,0,0,0,-1,1798,470,0,0
581,554,0,0,0,0,0,0,0,0,0,-1,1805,470,0,0
588,554,0,0,0,0,0,0,0,0,0,-1,1812,470,0,0
595,554,0,0,0,0,0,0,0,0,0,-1,1819,470,0,0
602,554,0,0,0,0,0,0,0,0,0,-1,1826,470,0,0
609,554,0,0,0,0,0,0,0,0,0,-1,1833,470,0,0
616,554,0,0,0,0,0,0,0,0,0,-1,1840,470,0,0
623,554,0,0,0,0,0,0,0,0,0,-1,1847,470,0,0
630,554,0,0,0,0,0,0,0,0,0,-1,1854,470,0,0
637,554,0,0,0,0,0,0,0,0,0,-1,1861,470,0,0
644,554,0,0,0,0,0,0,0,0,0,-1,1868,470,0,0
651,554,0,0,0,0,0,0,0,0,0,-1,1875,470,0,0
658,554,0,0,0,0,0,0,0,0,0,-1,1882,470,0,0
665,554,0,0,0,0,0,0,0,0,0,-1,1889,470,0,0
672,554,0,0,0,0,0,0,0,0,0,-1,1896,470,0,0
679,554,0,0,0,0,0,0,0,0,0,-1,1903,470,0,0
686,554,0,0,0,0,0,0,0,0,0,-1,1910,470,0,0
693,554,0,0,0,0,0,0,0,0,0,-1,1917,470,0,0
700,554,0,0,0,0,0,0,0,0,0,-1,1924,470,0,0
707,554,0,0,0,0,0,0,0,0,0,-1,1931,470,0,0
714,554,0,0,0,0,0,0,0,0,0,-1,1938,470,0,0
721,554,0,0,0,0,0,0,0,0,0,-1,1945,470,0,0
728,554,0,0,0,0,0,0,0,0,0,-1,1952,470,0,0
735,554,0,0,0,0,0,0,0,0,0,-1,1959,470,0,0
742,554,0,0,0,0,0,0,0,0,0,-1,1966,470,0,0
749,554,0,0,0,0,0,0,0,0,0,-1,1973,470,0,0
756,554,0,0,0,0,0,0,0,0,0,-1,1980,470,0,0
763,554,0,0,0,0,0,0,0,0,0,-1,1987,470,0,0
770,554,0,0,0,0,0,0,0,0,0,-1,1994,470,0,0
777,554,0,0,0,0,0,0,0,0,0,-1,2001,470,0,0
784,554,0,0,0,0,0,0,0,0,0,-1,2008,470,0,0
791,554,0,0,0,0,0,0,0,0,0,-1,2015,470,0,0
798,554,0,0,0,0,0,0,0,0,0,-1,2022,470,0,0
805,554,0,0,0,0,0,0,0,0,0,-1,2029,470,0,0
812,554,0,0,0,0,0,0,0,0,0,-1,2036,470,0,0
-700,547,0,0,0,0,0,0,0,0,0,-1,524,477,0,0
-693,547,0,0,0,0,0,0,0,0,0,-1,531,477,0,0
-686,547,0,0,0,0,0,0,0,0,0,-1,538,477,0,0
-679,547,0,0,0,0,0,0,0,0,0,-1,545,477,0,0
-672,547,0,0,0,0,0,0,0,0,0,-1,552,477,0,0
-665,547,0,0,0,0,0,0,0,0,0,-1,559,477,0,0
-658,547,0,0,0,0,0,0,0,0,0,-1,566,477,0,0
-651,547,0,0,0,0,0,0,0,0,0,-1,573,477,0,0
-644,547,0,0,0,0,0,0,0,0,0,-1,580,477,0,0
-637,547,0,0,0,0,0,0,0,0,0,-1,587,477,0,0
-630,547,0,0,0,0,0,0,0,0,0,-1,594,477,0,0
-623,547,0,0,0,0,0,0,0,0,0,-1,601,477,0,0
-616,547,0,0,0,0,0,0,0,0,0,-1,608,477,0,0
-609,547,0,0,0,0,0,0,0,0,0,-1,615,477,0,0
-602,547,0,0,0,0,0,0,0,0,0,-1,622,477,0,0
-595,547,0,0,0,0,0,0,0,0,0,-1,629,477,0,0
-588,547,0,0,0,0,0,0,0,0,0,-1,636,477,0,0
-581,547,0,0,0,0,0,0,0,0,0,-1,643,477,0,0
-574,547,0,0,0,0,0,0,0,0,0,-1,650,477,0,0
-567,547,0,0,0,0,0,0,0,0,0,-1,657,477,0,0
-560,547,0,0,0,0,0,0,0,0,0,-1,664,477,0,0
-553,547,0,0,0,0,0,0,0,0,0,-1,671,477,0,0
-546,547,0,0,0,0,0,0,0,0,0,-1,678,477,0,0
-539,547,0,0,0,0,0,0,0,0,0,-1,685,477,0,0
-532,547,0,0,0,0,0,0,0,0,0,-1,692,477,0,0
-525,547,0,0,0,0,0,0,0,0,0,-1,699,477,0,0
-518,547,0,0,0,0,0,0,0,0,0,-1,706,477,0,0
-511,547,0,0,0,0,0,0,0,0,0,-1,713,477,0,0
-504,547,0,0,0,0,0,0,0,0,0,-1,720,477,0,0
-497,547,0,0,0,0,0,0,0,0,0,-1,727,477,0,0
-490,547,0,0,0,0,0,0,0,0,0,-1,734,477,0,0
-483,547,0,0,0,0,0,0,0,0,0,-1,741,477,0,0
-476,547,0,0,0,0,0,0,0,0,0,-1,748,477,0,0
-469,547,0,0,0,0,0,0,0,0,0,-1,755,477,0,0
-462,547,0,0,0,0,0,0,0,0,0,-1,762,477,0,0
-455,547,0,0,0,0,0,0,0,0,0,-1,769,477,0,0
-448,547,0,0,0,0,0,0,0,0,0,-1,776,477,0,0
-441,547,0,0,0,0,0,0,0,0,0,-1,783,477,0,0
-434,547,0,0,0,0,0,0,0,0,0,-1,790,477,0,0
-427,547,0,0,0,0,0,0,0,0,0,-1,797,477,0,0
-420,547,0,0,0,0,0,0,0,0,0,-1,804,477,0,0
-413,547,0,0,0,0,0,0,0,0,0,-1,811,477,0,0
-406,547,1.1496,-6.48575,0,0,0,0,0,0,0,-1,818,477,1.14957,6.48574
-399,547,1.45349,-5.67117,0,0,0,0,0,0,0,-1,825,477,1.4535,5.67117
-392,547,1.19794,-5.18564,-0.00638466,0.0104202,0.0586397,0.0612564,-0.0572208,0.856558,0.0684161,0.0480337,832,477,1.19791,5.18563
-385,547,0.923767,-4.40762,-0.00343014,0.00733378,0.0505049,0.0527427,-0.048839,0.838479,0.0586627,0.0465137,839,477,0.923773,4.40762
-378,547,0.662842,-3.73218,0,0,0,0,0,0,0,-1,846,477,0.66285,3.73218
-371,547,0.288574,-2.40091,0,0,0,0,0,0,0,-1,853,477,0.288591,2.40092
-364,547,0.0703735,-1.39441,0,0,0,0,0,0,0,-1,860,477,0.0703965,1.3944
-357,547,1.09869,-4.61111,0,0,0,0,0,0,0,-1,867,477,1.09867,4.61111
-350,547,0.882996,-4.83273,0,0,0,0,0,0,0,-1,874,477,0.882981,4.83272
-343,547,0.849121,-4.9306,0.00719401,0.00661504,0.0127317,0.0196395,-0.00583049,0.774032,0.0154087,0.0360969,881,477,0.849135,4.93061
-336,547,0.807129,-5.08981,0.00730792,0.00648838,0.00865183,0.0155597,-0.00176338,0.761735,0.0110081,0.0149697,888,477,0.807104,5.08981
-329,547,0.783447,-5.23724,0.00678806,0.00472534,0.0058114,0.0116589,-0.000145508,0.697577,0.00782156,0.00886966,895,477,0.783443,5.23725
-322,547,0.769897,-5.3988,0.00558317,0.00371135,0.00465376,0.0093942,-9.96799e-05,0.686168,0.00629629,0.0101806,902,477,0.769881,5.3988
-315,547,0.75415,-5.55042,0.00456397,0.00289771,0.0033117,0.00714574,0.000315952,0.66217,0.00466208,0.0100885,909,477,0.754136,5.55043
-308,547,0.760742,-5.68021,0.00388996,0.00197069,0.00221139,0.00534095,0.000519697,0.580684,0.00340067,0.011475,916,477,0.760713,5.68019
-301,547,0.779541,-5.832,0.00336773,0.00134003,0.00190143,0.00450872,0.000199038,0.54047,0.00294171,0.0110489,923,477,0.779544,5.832
-294,547,0.772827,-5.97867,0.00281929,0.000930612,0.00155121,0.003691,5.89003e-05,0.511975,0.00244127,0.00947432,930,477,0.772842,5.97866
-287,547,0.750549,-6.11237,0.00233554,0.000518394,0.00111206,0.002863,-9.06037e-06,0.442881,0.00191169,0.0109979,937,477,0.750532,6.11238
-280,547,0.735962,-6.23425,0.00196949,0.0004049,0.000876896,0.00236232,1.20637e-05,0.421177,0.00157088,0.0118981,944,477,0.735979,6.23424
-273,547,0.750366,-6.36691,0.00176784,0.00030217,0.000485194,0.00191391,0.000156109,0.292409,0.00122721,0.0115097,951,477,0.750378,6.36691
-266,547,0.7677,-6.48962,0.0017589,0.00056428,-0.000223494,0.00179934,0.000523837,-0.179021,0.00106864,0.0113923,958,477,0.767675,6.48962
-259,547,0.752258,-6.62616,0.00173631,0.00125909,-0.000816711,0.00234855,0.00064685,-0.643275,0.00140079,0.0104844,965,477,0.752283,6.62615
-252,547,0.75293,-6.75153,0.00199539,0.00205475,-0.00135499,0.00338039,0.000669755,-0.796348,0.00206683,0.0103952,972,477,0.752921,6.75151
-245,547,0.759033,-6.87094,0.00244727,0.00262013,-0.00201727,0.00455282,0.000514581,-0.806809,0.00287905,0.0112183,979,477,0.759018,6.87095
-238,547,0.774719,-7.00128,0.00294288,0.00335775,-0.00286379,0.00602161,0.000279023,-0.821552,0.00392471,0.00791662,986,477,0.774707,7.00127
-231,547,0.790833,-7.12738,0.00315648,0.00435963,-0.00373772,0.00754388,-2.77697e-05,-0.865187,0.00503854,0.00807318,993,477,0.790815,7.12738
-224,547,0.808167,-7.22302,0.00292741,0.00564346,-0.00434171,0.00883457,-0.000263703,-0.936971,0.00597956,0.0106756,1000,477,0.808157,7.22303
-217,547,0.828613,-7.36185,0.00287071,0.00688627,-0.00500218,0.0102686,-0.000511589,-0.976246,0.00702246,0.0135289,1007,477,0.828631,7.36186
-210,547,0.819824,-7.51172,0.00277805,0.00761184,-0.00571638,0.0114013,-0.00101137,-0.985402,0.00795941,0.0215569,1014,477,0.819805,7.51173
-203,547,0.951355,-7.46628,0.00253407,0.00837762,-0.00643617,0.0125242,-0.00161247,-0.99847,0.00893556,0.0326463,1021,477,0.951336,7.46626
-196,547,1.07861,-7.46161,0.00221845,0.00865751,-0.00685877,0.0130148,-0.00213883,-1.00483,0.00947032,0.0403285,1028,477,1.07863,7.46162
-189,547,1.17517,-7.67673,0.00181201,0.00883971,-0.00738425,0.0135035,-0.0028518,-1.00747,0.0100882,0.0475802,1035,477,1.17515,7.67673
-182,547,1.31287,-7.85818,0,0,0,0,0,0,0,-1,1042,477,1.31285,7.85819
-175,547,-0.13501,-8.37143,0,0,0,0,0,0,0,-1,1049,477,-0.134964,8.37142
-168,547,1.58667,-7.02173,0,0,0,0,0,0,0,-1,1056,477,1.58671,7.02172
-161,547,1.30334,-7.52402,0,0,0,0,0,0,0,-1,1063,477,1.30338,7.52403
-154,547,1.07068,-8.77097,0,0,0,0,0,0,0,-1,1070,477,1.07074,8.77097
-147,547,1.22559,-8.16782,0,0,0,0,0,0,0,-1,1077,477,1.22556,8.16781
-140,547,1.83264,-7.80319,0,0,0,0,0,0,0,-1,1084,477,1.83266,7.80318
-133,547,-0.473755,-4.74057,0,0,0,0,0,0,0,-1,1091,477,-0.473736,4.74058
-126,547,0.562256,-5.37524,0,0,0,0,0,0,0,-1,1098,477,0.562281,5.37525
-119,547,2.22949,-7.49625,0,0,0,0,0,0,0,-1,1105,477,2.22955,7.49624
-112,547,3.27466,-5.47641,0,0,0,0,0,0,0,-1,1112,477,3.27462,5.47642
-105,547,-0.50647,-7.05853,0,0,0,0,0,0,0,-1,1119,477,-0.506446,7.05853
-98,547,0.289429,-4.92862,0,0,0,0,0,0,0,-1,1126,477,0.289474,4.92861
-91,547,-0.491089,-4.73654,0,0,0,0,0,0,0,-1,1133,477,-0.491051,4.73654
-84,547,-0.648071,3.42496,0,0,0,0,0,0,0,-1,1140,477,-0.648118,-3.42494
-77,547,-2.28357,1.8588,0,0,0,0,0,0,0,-1,1147,477,-2.28356,-1.85879
-70,547,-3.70178,-0.874908,0,0,0,0,0,0,0,-1,1154,477,-3.70182,0.874918
-63,547,-5.12012,-3.60861,0,0,0,0,0,0,0,-1,1161,477,-5.12009,3.60862
-56,547,-6.01917,-6.2399,0,0,0,0,0,0,0,-1,1168,477,-6.01921,6.23991
-49,547,-6.729,-8.60349,0,0,0,0,0,0,0,-1,1175,477,-6.72899,8.60348
-42,547,-2.41736,-5.53012,0,0,0,0,0,0,0,-1,1182,477,-2.41734,5.53011
-35,547,-2.96838,-4.45734,0,0,0,0,0,0,0,-1,1189,477,-2.96839,4.45734
-28,547,-0.869141,-1.29901,0,0,0,0,0,0,0,-1,1196,477,-0.869135,1.29901
-21,547,7.02197,-10.6903,0,0,0,0,0,0,0,-1,1203,477,7.02195,10.6903
-14,547,6.62952,-10.9412,0,0,0,0,0,0,0,-1,1210,477,6.62958,10.9412
-7,547,6.28479,-11.3489,0,0,0,0,0,0,0,-1,1217,477,6.28479,11.3489
0,547,5.93384,-11.7541,0,0,0,0,0,0,0,-1,1224,477,5.93382,11.7541
7,547,3.41589,-7.16528,0,0,0,0,0,0,0,-1,1231,477,3.41595,7.16529
14,547,0,0,0,0,0,0,0,0,0,-1,1238,477,0,0
21,547,0,0,0,0,0,0,0,0,0,-1,1245,477,0,0
28,547,0,0,0,0,0,0,0,0,0,-1,1252,477,0,0
35,547,0,0,0,0,0,0,0,0,0,-1,1259,477,0,0
42,547,0,0,0,0,0,0,0,0,0,-1,1266,477,0,0
49,547,0,0,0,0,0,0,0,0,0,-1,1273,477,0,0
56,547,0,0,0,0,0,0,0,0,0,-1,1280,477,0,0
63,547,0,0,0,0,0,0,0,0,0,-1,1287,477,0,0
70,547,0,0,0,0,0,0,0,0,0,-1,1294,477,0,0
77,547,0,0,0,0,0,0,0,0,0,-1,1301,477,0,0
84,547,0,0,0,0,0,0,0,0,0,-1,1308,477,0,0
91,547,0,0,0,0,0,0,0,0,0,-1,1315,477,0,0
98,547,0,0,0,0,0,0,0,0,0,-1,1322,477,0,0
105,547,3.3385,-14.6412,0.0811401,0.136211,0.0165154,0.140784,0.0765669,1.30066,0.0813857,0.0454121,1329,477,3.33851,14.6412
112,547,4.35022,-13.2661,0,0,0,0,0,0,0,-1,1336,477,4.3502,13.2661
119,547,4.87329,-13.0283,0.0842626,0.118805,0.0137346,0.1236,0.0794673,1.23488,0.0723261,0.0403955,1343,477,4.87333,13.0283
126,547,5.17273,-12.8665,0.0860454,0.112292,0.00800566,0.114541,0.0837962,1.29691,0.0684539,0.0406508,1350,477,5.1727,12.8665
133,547,5.95557,-13.0614,0.0902599,0.101133,-3.20431e-05,0.101133,0.0902598,-1.56785,0.0641056,0.0450841,1357,477,5.95554,13.0614
140,547,6.58374,-13.5003,0,0,0,0,0,0,0,-1,1364,477,6.58374,13.5003
147,547,7.52747,-13.8989,0,0,0,0,0,0,0,-1,1371,477,7.52747,13.8989
154,547,8.47485,-14.3112,0,0,0,0,0,0,0,-1,1378,477,8.47489,14.3112
161,547,9.42883,-14.7961,0,0,0,0,0,0,0,-1,1385,477,9.42884,14.796
168,547,8.99524,-2.06577,0,0,0,0,0,0,0,-1,1392,477,8.99525,2.06576
175,547,3.35034,-0.26532,0,0,0,0,0,0,0,-1,1399,477,3.3503,0.265306
182,547,4.26038,3.72672,0,0,0,0,0,0,0,-1,1406,477,4.26039,-3.7267
189,547,3.40454,1.28671,0,0,0,0,0,0,0,-1,1413,477,3.40457,-1.28673
196,547,3.53931,1.87793,0,0,0,0,0,0,0,-1,1420,477,3.53928,-1.87794
203,547,6.49414,-0.425842,0,0,0,0,0,0,0,-1,1427,477,6.4941,0.425844
210,547,4.82092,0.53595,0,0,0,0,0,0,0,-1,1434,477,4.82096,-0.535942
217,547,4.68579,0.480072,0,0,0,0,0,0,0,-1,1441,477,4.68577,-0.480069
224,547,4.55615,0.739807,0,0,0,0,0,0,0,-1,1448,477,4.55613,-0.73981
231,547,5.90869,-3.57721,0,0,0,0,0,0,0,-1,1455,477,5.90871,3.57722
238,547,5.50049,-3.15356,0,0,0,0,0,0,0,-1,1462,477,5.50045,3.15356
245,547,5.13708,-2.65213,0,0,0,0,0,0,0,-1,1469,477,5.13708,2.65212
252,547,3.73511,-0.645233,0,0,0,0,0,0,0,-1,1476,477,3.73515,0.645237
259,547,5.86816,-3.20816,0,0,0,0,0,0,0,-1,1483,477,5.86815,3.20816
266,547,5.40222,-2.45731,0,0,0,0,0,0,0,-1,1490,477,5.40221,2.45732
273,547,3.05737,0.495789,0,0,0,0,0,0,0,-1,1497,477,3.05742,-0.49578
280,547,2.0885,1.47797,0,0,0,0,0,0,0,-1,1504,477,2.08848,-1.47795
287,547,2.31177,-2.21716,0,0,0,0,0,0,0,-1,1511,477,2.31174,2.21717
294,547,2.4823,-3.03659,0,0,0,0,0,0,0,-1,1518,477,2.48229,3.0366
301,547,4.72119,-3.93454,0,0,0,0,0,0,0,-1,1525,477,4.72119,3.93453
308,547,4.07471,-5.42175,0,0,0,0,0,0,0,-1,1532,477,4.07468,5.42174
315,547,3.58496,-6.62112,0,0,0,0,0,0,0,-1,1539,477,3.58497,6.62113
322,547,3.23254,-6.9035,0,0,0,0,0,0,0,-1,1546,477,3.23257,6.9035
329,547,3.32605,-6.76028,-0.0040363,-0.00282772,-0.00996314,0.00654944,-0.0134135,-0.815687,0.0117505,0.0442309,1553,477,3.32611,6.76027
336,547,3.47131,-6.70313,-0.00376384,-0.00238082,-0.00905219,0.00600624,-0.0121509,-0.82352,0.0106812,0.0283381,1560,477,3.4713,6.70313
343,547,3.44104,-6.60736,-0.00365197,-0.00229424,-0.00826846,0.00532318,-0.0112694,-0.826358,0.00978262,0.0227939,1567,477,3.4411,6.60736
350,547,3.40857,-6.4772,-0.00346468,-0.00217318,-0.00746874,0.00467767,-0.0103155,-0.828521,0.00885798,0.0169855,1574,477,3.40852,6.4772
357,547,3.40173,-6.30734,-0.00319301,-0.00196606,-0.00667693,0.00412552,-0.00928459,-0.83121,0.00793102,0.0123572,1581,477,3.40177,6.30735
364,547,3.40015,-6.12985,-0.00287914,-0.00166641,-0.00584906,0.00360763,-0.00815318,-0.837048,0.00695711,0.00920541,1588,477,3.4002,6.12986
371,547,3.41565,-5.96982,-0.00257692,-0.00133954,-0.00495975,0.00303996,-0.00695642,-0.847449,0.00591722,0.00862614,1595,477,3.4156,5.96983
378,547,3.41577,-5.82578,-0.00220808,-0.00105818,-0.0040628,0.00247015,-0.00573641,-0.855689,0.00486154,0.00994065,1602,477,3.41574,5.82577
385,547,3.4187,-5.6705,-0.00200602,-0.000870117,-0.0033401,0.00194998,-0.00482612,-0.869613,0.00402794,0.0106204,1609,477,3.41865,5.67051
392,547,3.42236,-5.54373,-0.00172096,-0.000795371,-0.00261538,0.00139785,-0.00391418,-0.872967,0.00317953,0.0109746,1616,477,3.42242,5.54373
399,547,3.40784,-5.3754,-0.00134837,-0.000704685,-0.0019812,0.000980643,-0.0030337,-0.865919,0.00241661,0.0125062,1623,477,3.40782,5.37538
406,547,3.4071,-5.21091,-0.000941123,-0.000498433,-0.00135698,0.000655133,-0.00209469,-0.866244,0.00165854,0.012536,1630,477,3.40713,5.2109
413,547,3.41064,-5.07553,-0.000632856,0.000106131,-0.000923205,0.000731038,-0.00125776,-0.97575,0.00116158,0.0124276,1637,477,3.41067,5.07554
420,547,3.43201,-4.9317,-9.52412e-05,0.000521253,-0.000833712,0.00110188,-0.000675865,-0.962469,0.00103616,0.0145007,1644,477,3.43204,4.9317
427,547,3.42908,-4.75378,0.000698126,0.000888375,-0.000751173,0.00155042,3.60784e-05,-0.84838,0.0010218,0.0144617,1651,477,3.42902,4.75379
434,547,3.39294,-4.58734,0.00142025,0.0015202,-0.000855234,0.00232692,0.000613532,-0.814584,0.00139257,0.00985425,1658,477,3.39295,4.58735
441,547,3.39233,-4.42783,0.0027941,0.00189984,-0.00145275,0.00386698,0.000826969,-0.636108,0.00235131,0.0102623,1665,477,3.39233,4.42782
448,547,3.41479,-4.26718,0.00456767,0.0018618,-0.00260811,0.00615288,0.000276596,-0.546134,0.0040129,0.0111432,1672,477,3.41479,4.26717
455,547,3.42444,-4.10614,0.00642169,0.00197408,-0.00375255,0.00855988,-0.000164105,-0.517914,0.00576206,0.0104994,1679,477,3.4244,4.10613
462,547,3.39478,-3.94669,0.00870417,0.00287785,-0.00547145,0.0119897,-0.000407642,-0.540772,0.00813239,0.0106378,1686,477,3.39474,3.94668
469,547,3.41699,-3.77365,0.0113218,0.00370112,-0.00734845,0.0157891,-0.000766119,-0.546219,0.0107905,0.0182792,1693,477,3.41704,3.77366
476,547,3.53516,-3.54251,0.014357,0.00429663,-0.00973535,0.0202849,-0.00163128,-0.546941,0.0140985,0.0379461,1700,477,3.5352,3.54252
483,547,3.67981,-3.26123,0,0,0,0,0,0,0,-1,1707,477,3.67983,3.26122
490,547,8.5188,-3.38141,0,0,0,0,0,0,0,-1,1714,477,8.51874,3.3814
497,547,9.0553,-2.45746,0,0,0,0,0,0,0,-1,1721,477,9.05531,2.45745
504,547,3.73865,-2.46948,0,0,0,0,0,0,0,-1,1728,477,3.73867,2.46949
511,547,3.3866,-0.592377,0,0,0,0,0,0,0,-1,1735,477,3.38662,0.592375
518,547,3.84949,-0.740387,0,0,0,0,0,0,0,-1,1742,477,3.84944,0.740383
525,547,0.781616,-3.76355,0,0,0,0,0,0,0,-1,1749,477,0.781645,3.76354
532,547,0,0,0,0,0,0,0,0,0,-1,1756,477,0,0
539,547,0,0,0,0,0,0,0,0,0,-1,1763,477,0,0
546,547,0,0,0,0,0,0,0,0,0,-1,1770,477,0,0
553,547,0,0,0,0,0,0,0,0,0,-1,1777,477,0,0
560,547,0,0,0,0,0,0,0,0,0,-1,1784,477,0,0
567,547,0,0,0,0,0,0,0,0,0,-1,1791,477,0,0
574,547,0,0,0,0,0,0,0,0,0,-1,1798,477,0,0
581,547,0,0,0,0,0,0,0,0,0,-1,1805,477,0,0
588,547,0,0,0,0,0,0,0,0,0,-1,1812,477,0,0
595,547,0,0,0,0,0,0,0,0,0,-1,1819,477,0,0
602,547,0,0,0,0,0,0,0,0,0,-1,1826,477,0,0
609,547,0,0,0,0,0,0,0,0,0,-1,1833,477,0,0
616,547,0,0,0,0,0,0,0,0,0,-1,1840,477,0,0
623,547,0,0,0,0,0,0,0,0,0,-1,1847,477,0,0
630,547,0,0,0,0,0,0,0,0,0,-1,1854,477,0,0
637,547,0,0,0,0,0,0,0,0,0,-1,1861,477,0,0
644,547,0,0,0,0,0,0,0,0,0,-1,1868,477,0,0
651,547,0,0,0,0,0,0,0,0,0,-1,1875,477,0,0
658,547,0,0,0,0,0,0,0,0,0,-1,1882,477,0,0
665,547,0,0,0,0,0,0,0,0,0,-1,1889,477,0,0
672,547,0,0,0,0,0,0,0,0,0,-1,1896,477,0,0
679,547,0,0,0,0,0,0,0,0,0,-1,1903,477,0,0
686,547,0,0,0,0,0,0,0,0,0,-1,1910,477,0,0
693,547,0,0,0,0,0,0,0,0,0,-1,1917,477,0,0
700,547,0,0,0,0,0,0,0,0,0,-1,1924,477,0,0
707,547,0,0,0,0,0,0,0,0,0,-1,1931,477,0,0
714,547,0,0,0,0,0,0,0,0,0,-1,1938,477,0,0
721,547,0,0,0,0,0,0,0,0,0,-1,1945,477,0,0
728,547,0,0,0,0,0,0,0,0,0,-1,1952,477,0,0
735,547,0,0,0,0,0,0,0,0,0,-1,1959,477,0,0
742,547,0,0,0,0,0,0,0,0,0,-1,1966,477,0,0
749,547,0,0,0,0,0,0,0,0,0,-1,1973,477,0,0
756,547,0,0,0,0,0,0,0,0,0,-1,1980,477,0,0
763,547,0,0,0,0,0,0,0,0,0,-1,1987,477,0,0
770,547,0,0,0,0,0,0,0,0,0,-1,1994,477,0,0
777,547,0,0,0,0,0,0,0,0,0,-1,2001,477,0,0
784,547,0,0,0,0,0,0,0,0,0,-1,2008,477,0,0
791,547,0,0,0,0,0,0,0,0,0,-1,2015,477,0,0
798,547,0,0,0,0,0,0,0,0,0,-1,2022,477,0,0
805,547,0,0,0,0,0,0,0,0,0,-1,2029,477,0,0
812,547,0,0,0,0,0,0,0,0,0,-1,2036,477,0,0
-700,540,0,0,0,0,0,0,0,0,0,-1,524,484,0,0
-693,540,0,0,0,0,0,0,0,0,0,-1,531,484,0,0
-686,540,0,0,0,0,0,0,0,0,0,-1,538,484,0,0
-679,540,0,0,0,0,0,0,0,0,0,-1,545,484,0,0
-672,540,0,0,0,0,0,0,0,0,0,-1,552,484,0,0
-665,540,0,0,0,0,0,0,0,0,0,-1,559,484,0,0
-658,540,0,0,0,0,0,0,0,0,0,-1,566,484,0,0
-651,540,0,0,0,0,0,0,0,0,0,-1,573,484,0,0
-644,540,0,0,0,0,0,0,0,0,0,-1,580,484,0,0
-637,540,0,0,0,0,0,0,0,0,0,-1,587,484,0,0
-630,540,0,0,0,0,0,0,0,0,0,-1,594,484,0,0
-623,540,0,0,0,0,0,0,0,0,0,-1,601,484,0,0
-616,540,0,0,0,0,0,0,0,0,0,-1,608,484,0,0
-609,540,0,0,0,0,0,0,0,0,0,-1,615,484,0,0
-602,540,0,0,0,0,0,0,0,0,0,-1,622,484,0,0
-595,540,0,0,0,0,0,0,0,0,0,-1,629,484,0,0
-588,540,0,0,0,0,0,0,0,0,0,-1,636,484,0,0
-581,540,0,0,0,0,0,0,0,0,0,-1,643,484,0,0
-574,540,0,0,0,0,0,0,0,0,0,-1,650,484,0,0
-567,540,0,0,0,0,0,0,0,0,0,-1,657,484,0,0
-560,540,0,0,0,0,0,0,0,0,0,-1,664,484,0,0
-553,540,0,0,0,0,0,0,0,0,0,-1,671,484,0,0
-546,540,0,0,0,0,0,0,0,0,0,-1,678,484,0,0
-539,540,0,0,0,0,0,0,0,0,0,-1,685,484,0,0
-532,540,0,0,0,0,0,0,0,0,0,-1,692,484,0,0
-525,540,0,0,0,0,0,0,0,0,0,-1,699,484,0,0
-518,540,0,0,0,0,0,0,0,0,0,-1,706,484,0,0
-511,540,0,0,0,0,0,0,0,0,0,-1,713,484,0,0
-504,540,0,0,0,0,0,0,0,0,0,-1,720,484,0,0
-497,540,0,0,0,0,0,0,0,0,0,-1,727,484,0,0
-490,540,0,0,0,0,0,0,0,0,0,-1,734,484,0,0
-483,540,0,0,0,0,0,0,0,0,0,-1,741,484,0,0
-476,540,0,0,0,0,0,0,0,0,0,-1,748,484,0,0
-469,540,0,0,0,0,0,0,0,0,0,-1,755,484,0,0
-462,540,0,0,0,0,0,0,0,0,0,-1,762,484,0,0
-455,540,0,0,0,0,0,0,0,0,0,-1,769,484,0,0
-448,540,0,0,0,0,0,0,0,0,0,-1,776,484,0,0
-441,540,0,0,0,0,0,0,0,0,0,-1,783,484,0,0
-434,540,0,0,0,0,0,0,0,0,0,-1,790,484,0,0
-427,540,0,0,0,0,0,0,0,0,0,-1,797,484,0,0
-420,540,3.71643,-1.39877,0,0,0,0,0,0,0,-1,804,484,3.71643,1.39876
-413,540,1.40637,-5.82919,0,0,0,0,0,0,0,-1,811,484,1.40638,5.82919
-406,540,1.33179,-5.54819,-0.0142256,0.0209091,0.054367,0.0604765,-0.053793,0.941666,0.0660111,0.0498679,818,484,1.33178,5.54818
-399,540,1.19696,-5.03491,-0.0127993,0.0118766,0.0497568,0.0508023,-0.051725,0.90693,0.059195,0.0462395,825,484,1.19697,5.03492
-392,540,1.03021,-4.5878,-0.00976754,0.00716667,0.0447409,0.0442346,-0.0468355,0.878916,0.0525865,0.0490014,832,484,1.03021,4.5878
-385,540,0.866638,-4.13699,0,0,0,0,0,0,0,-1,839,484,0.866635,4.13698
-378,540,-3.828,-3.2016,0,0,0,0,0,0,0,-1,846,484,-3.82798,3.20159
-371,540,0.311646,-2.65723,0,0,0,0,0,0,0,-1,853,484,0.311658,2.65722
-364,540,0.941589,-4.26291,0.00118644,-0.00198336,0.0194713,0.0191372,-0.0199341,0.744789,0.0225594,0.0489573,860,484,0.941599,4.2629
-357,540,0.823547,-4.57666,0.00284065,-6.59137e-05,0.0142015,0.0156631,-0.0128883,0.734409,0.0165101,0.0458516,867,484,0.823551,4.57667
-350,540,0.688721,-4.78214,0.00411506,0.00217049,0.00938615,0.0125791,-0.0062936,0.733789,0.0110958,0.0293289,874,484,0.688715,4.78214
-343,540,0.645508,-4.93106,0.0045887,0.00329356,0.00565065,0.00962876,-0.0017465,0.728347,0.00707358,0.0139282,881,484,0.645516,4.93105
-336,540,0.626282,-5.10187,0.00476336,0.00348348,0.00235728,0.00656602,0.00168082,0.652855,0.0039385,0.0117818,888,484,0.626288,5.10186
-329,540,0.622986,-5.22385,0.00435142,0.00242197,0.000295632,0.0043957,0.00237769,0.148678,0.00254069,0.0103089,895,484,0.623016,5.22383
-322,540,0.616455,-5.37393,0.0033986,0.00204287,-0.000256028,0.00344534,0.00199613,-0.180566,0.00199751,0.0143061,902,484,0.616428,5.37394
-315,540,0.604919,-5.53937,0.00264048,0.00168275,-0.000946603,0.00322245,0.00110078,-0.551229,0.00189135,0.0128267,909,484,0.604929,5.53938
-308,540,0.604126,-5.66403,0.00222479,0.00114477,-0.0013348,0.00312467,0.000244882,-0.593181,0.00200647,0.0120168,916,484,0.604153,5.66405
-301,540,0.614441,-5.79266,0.00196707,0.000782527,-0.000959055,0.00250199,0.000247602,-0.508784,0.00159189,0.0120605,923,484,0.614438,5.79268
-294,540,0.624878,-5.9552,0.00172215,0.000529391,-0.00060607,0.00197606,0.000275483,-0.396728,0.00123582,0.0108892,930,484,0.624897,5.95519
-287,540,0.635803,-6.11261,0.00155659,0.000309896,-0.000380291,0.00166344,0.000203049,-0.273899,0.00104785,0.00825087,937,484,0.635794,6.11263
-280,540,0.631775,-6.24194,0.00149434,0.000159088,-0.000141984,0.00150927,0.000144158,-0.104774,0.000961737,0.00948631,944,484,0.631786,6.24195
-273,540,0.640808,-6.36777,0.00161955,7.86783e-05,-0.00017457,0.00163908,5.91484e-05,-0.111411,0.00107355,0.0116617,951,484,0.640785,6.36776
-266,540,0.636536,-6.50638,0.0018369,0.000378794,-0.000551561,0.00202204,0.00019366,-0.323838,0.00128833,0.0122467,958,484,0.636528,6.50637
-259,540,0.621948,-6.65036,0.00205519,0.00120658,-0.00105854,0.00277129,0.00049047,-0.594783,0.00170768,0.011083,965,484,0.621966,6.65037
-252,540,0.632629,-6.76541,0.0025317,0.00225493,-0.00162692,0.00402611,0.000760515,-0.742971,0.00246991,0.0112675,972,484,0.632614,6.76542
-245,540,0.647339,-6.88226,0.00312887,0.0031238,-0.00245743,0.00558377,0.000668904,-0.784882,0.00352079,0.0120936,979,484,0.647351,6.88226
-238,540,0.648071,-6.9903,0.00373373,0.00424949,-0.00359898,0.00759981,0.000383404,-0.821164,0.0049437,0.00860409,986,484,0.64807,6.9903
-231,540,0.665527,-7.11755,0.00402718,0.0057933,-0.00481982,0.00981029,1.01975e-05,-0.876001,0.00653679,0.0110415,993,484,0.665504,7.11755
-224,540,0.703918,-7.24417,0.00375955,0.00772434,-0.00576643,0.0118396,-0.000355726,-0.95096,0.00801429,0.0165104,1000,484,0.703898,7.24417
-217,540,0.764038,-7.45474,0.00370842,0.00971807,-0.00683663,0.0141811,-0.000754584,-0.99245,0.00971535,0.0261336,1007,484,0.764027,7.45475
-210,540,0.762451,-7.68726,0.0035894,0.0110159,-0.00789614,0.0160283,-0.00142301,-1.00519,0.0111901,0.0412721,1014,484,0.762423,7.68726
-203,540,0.809204,-7.90033,0.00315663,0.0122728,-0.00892067,0.0177324,-0.00230299,-1.02159,0.0126593,0.0473134,1021,484,0.809217,7.90033
-196,540,0.976074,-8.06995,0,0,0,0,0,0,0,-1,1028,484,0.976057,8.06995
-189,540,1.32019,-7.52487,0,0,0,0,0,0,0,-1,1035,484,1.32023,7.52487
-182,540,1.55078,-7.81339,0,0,0,0,0,0,0,-1,1042,484,1.5508,7.81339
-175,540,1.20837,-6.45352,0,0,0,0,0,0,0,-1,1049,484,1.20834,6.45351
-168,540,1.96252,-6.69171,0,0,0,0,0,0,0,-1,1056,484,1.96253,6.69171
-161,540,1.53137,-2.62488,0,0,0,0,0,0,0,-1,1063,484,1.53137,2.62486
-154,540,0.62207,-2.01782,0,0,0,0,0,0,0,-1,1070,484,0.622083,2.01782
-147,540,-0.22937,-1.34387,0,0,0,0,0,0,0,-1,1077,484,-0.229346,1.34387
-140,540,0.147095,-7.30521,0,0,0,0,0,0,0,-1,1084,484,0.147099,7.30521
-133,540,0.530396,-6.52548,0,0,0,0,0,0,0,-1,1091,484,0.530384,6.52548
-126,540,1.78943,-1.73938,0,0,0,0,0,0,0,-1,1098,484,1.78942,1.73938
-119,540,1.22986,-5.17435,0,0,0,0,0,0,0,-1,1105,484,1.22989,5.17435
-112,540,2.65173,-3.42639,0,0,0,0,0,0,0,-1,1112,484,2.65174,3.42639
-105,540,1.73462,-4.61615,0,0,0,0,0,0,0,-1,1119,484,1.73465,4.61616
-98,540,0.73877,-3.08093,0,0,0,0,0,0,0,-1,1126,484,0.738754,3.08092
-91,540,0.586914,4.62909,0,0,0,0,0,0,0,-1,1133,484,0.586932,-4.6291
-84,540,-0.945923,4.43073,0,0,0,0,0,0,0,-1,1140,484,-0.945891,-4.43074
-77,540,-2.28894,2.14368,0,0,0,0,0,0,0,-1,1147,484,-2.28894,-2.14368
-70,540,-3.75244,-0.452576,0,0,0,0,0,0,0,-1,1154,484,-3.75244,0.452576
-63,540,-5.26257,-3.04767,0,0,0,0,0,0,0,-1,1161,484,-5.26262,3.04766
-56,540,-5.19055,-6.12595,0,0,0,0,0,0,0,-1,1168,484,-5.19057,6.12595
-49,540,-5.63867,-8.52298,0,0,0,0,0,0,0,-1,1175,484,-5.63871,8.52298
-42,540,0,0,0,0,0,0,0,0,0,-1,1182,484,0,0
-35,540,0,0,0,0,0,0,0,0,0,-1,1189,484,0,0
-28,540,0,0,0,0,0,0,0,0,0,-1,1196,484,0,0
-21,540,0,0,0,0,0,0,0,0,0,-1,1203,484,0,0
-14,540,0,0,0,0,0,0,0,0,0,-1,1210,484,0,0
-7,540,0,0,0,0,0,0,0,0,0,-1,1217,484,0,0
0,540,0,0,0,0,0,0,0,0,0,-1,1224,484,0,0
7,540,0,0,0,0,0,0,0,0,0,-1,1231,484,0,0
14,540,0,0,0,0,0,0,0,0,0,-1,1238,484,0,0
21,540,0,0,0,0,0,0,0,0,0,-1,1245,484,0,0
28,540,0,0,0,0,0,0,0,0,0,-1,1252,484,0,0
35,540,0,0,0,0,0,0,0,0,0,-1,1259,484,0,0
42,540,0,0,0,0,0,0,0,0,0,-1,1266,484,0,0
49,540,0,0,0,0,0,0,0,0,0,-1,1273,484,0,0
56,540,0,0,0,0,0,0,0,0,0,-1,1280,484,0,0
63,540,0,0,0,0,0,0,0,0,0,-1,1287,484,0,0
70,540,0,0,0,0,0,0,0,0,0,-1,1294,484,0,0
77,540,0,0,0,0,0,0,0,0,0,-1,1301,484,0,0
84,540,0,0,0,0,0,0,0,0,0,-1,1308,484,0,0
91,540,0,0,0,0,0,0,0,0,0,-1,1315,484,0,0
98,540,0,0,0,0,0,0,0,0,0,-1,1322,484,0,0
105,540,0,0,0,0,0,0,0,0,0,-1,1329,484,0,0
112,540,0,0,0,0,0,0,0,0,0,-1,1336,484,0,0
119,540,0,0,0,0,0,0,0,0,0,-1,1343,484,0,0
126,540,0,0,0,0,0,0,0,0,0,-1,1350,484,0,0
133,540,0,0,0,0,0,0,0,0,0,-1,1357,484,0,0
140,540,0,0,0,0,0,0,0,0,0,-1,1364,484,0,0
147,540,0,0,0,0,0,0,0,0,0,-1,1371,484,0,0
154,540,0,0,0,0,0,0,0,0,0,-1,1378,484,0,0
161,540,0,0,0,0,0,0,0,0,0,-1,1385,484,0,0
168,540,3.05078,-0.0010376,0,0,0,0,0,0,0,-1,1392,484,3.05084,0.00102554
175,540,3.37708,0.617035,0,0,0,0,0,0,0,-1,1399,484,3.37707,-0.617046
182,540,3.32678,1.23267,0,0,0,0,0,0,0,-1,1406,484,3.32678,-1.23266
189,540,3.5813,2.15619,0,0,0,0,0,0,0,-1,1413,484,3.58129,-2.1562
196,540,1.84448,-0.801483,0,0,0,0,0,0,0,-1,1420,484,1.84446,0.80148
203,540,4.14648,0.702087,0,0,0,0,0,0,0,-1,1427,484,4.14645,-0.702089
210,540,4.50671,-0.56076,0,0,0,0,0,0,0,-1,1434,484,4.50667,0.560771
217,540,5.00452,-0.278717,0,0,0,0,0,0,0,-1,1441,484,5.00452,0.278709
224,540,6.44458,-2.83527,0,0,0,0,0,0,0,-1,1448,484,6.44457,2.83525
231,540,6.9231,-3.10504,0,0,0,0,0,0,0,-1,1455,484,6.92307,3.10505
238,540,6.4823,-2.58365,0,0,0,0,0,0,0,-1,1462,484,6.48225,2.58363
245,540,6.02087,-1.97916,0,0,0,0,0,0,0,-1,1469,484,6.02088,1.97915
252,540,6.50647,-3.56006,0,0,0,0,0,0,0,-1,1476,484,6.50649,3.56006
259,540,6.01941,-2.798,0,0,0,0,0,0,0,-1,1483,484,6.01941,2.79801
266,540,5.5332,-2.02853,0,0,0,0,0,0,0,-1,1490,484,5.53323,2.02855
273,540,5.06787,-1.28137,0,0,0,0,0,0,0,-1,1497,484,5.06786,1.28136
280,540,1.62903,-2.14609,0,0,0,0,0,0,0,-1,1504,484,1.62906,2.1461
287,540,1.97156,-2.45053,0,0,0,0,0,0,0,-1,1511,484,1.97159,2.45053
294,540,2.44165,-2.6185,0,0,0,0,0,0,0,-1,1518,484,2.44167,2.6185
301,540,4.36169,-2.54272,0,0,0,0,0,0,0,-1,1525,484,4.36165,2.54272
308,540,4.2019,-4.30469,0,0,0,0,0,0,0,-1,1532,484,4.20193,4.3047
315,540,4.45923,-5.32101,0,0,0,0,0,0,0,-1,1539,484,4.45923,5.32103
322,540,4.71655,-6.33737,0,0,0,0,0,0,0,-1,1546,484,4.71653,6.33736
329,540,3.5,-6.82401,0,0,0,0,0,0,0,-1,1553,484,3.5,6.824
336,540,3.78418,-6.80603,0,0,0,0,0,0,0,-1,1560,484,3.78419,6.80603
343,540,3.68982,-6.70215,0,0,0,0,0,0,0,-1,1567,484,3.68977,6.70214
350,540,3.81628,-6.18359,-0.00480101,-0.002784,-0.0103323,0.00658893,-0.0141739,-0.834047,0.0122512,0.0434882,1574,484,3.81625,6.1836
357,540,3.61707,-6.19006,-0.00445955,-0.00256085,-0.00926958,0.00580787,-0.0128283,-0.836428,0.0110111,0.031429,1581,484,3.61708,6.19008
364,540,3.52258,-6.10858,-0.00405835,-0.00225725,-0.00815988,0.00505163,-0.0113672,-0.840357,0.00971038,0.0176648,1588,484,3.52256,6.10859
371,540,3.52942,-5.97162,-0.00364895,-0.00188593,-0.00698646,0.00427441,-0.00980929,-0.848154,0.00833791,0.0130511,1595,484,3.52942,5.97161
378,540,3.55029,-5.81461,-0.00315733,-0.00158154,-0.00582034,0.00350399,-0.00824286,-0.852674,0.00696357,0.011566,1602,484,3.55029,5.81461
385,540,3.55737,-5.67175,-0.0029053,-0.00135807,-0.00487122,0.00280058,-0.00706396,-0.864147,0.00586992,0.0134775,1609,484,3.55741,5.67175
392,540,3.55286,-5.52487,-0.00257064,-0.00122149,-0.00394087,0.00210212,-0.00589425,-0.870163,0.00478662,0.0119713,1616,484,3.55289,5.52487
399,540,3.53357,-5.37598,-0.00213518,-0.00109991,-0.00313781,0.00156267,-0.00479776,-0.867145,0.00382726,0.01544,1623,484,3.53359,5.37597
406,540,3.52234,-5.22177,-0.00165766,-0.000805869,-0.00235245,0.00115893,-0.00362246,-0.87495,0.00288008,0.0169288,1630,484,3.52236,5.22177
413,540,3.53882,-5.08566,-0.00124038,-0.000251348,-0.00170585,0.00103021,-0.00252195,-0.926479,0.00211026,0.0136231,1637,484,3.53883,5.08565
420,540,3.59155,-4.90451,-0.000741175,2.39211e-05,-0.00136782,0.00106168,-0.00177894,-0.921753,0.00165737,0.0125063,1644,484,3.59151,4.90452
427,540,3.58008,-4.72977,-0.000100037,0.000305866,-0.00104546,0.00116789,-0.000962063,-0.881269,0.00123164,0.0133113,1651,484,3.58011,4.72976
434,540,3.55493,-4.58292,0.000546101,0.00084882,-0.000958537,0.00166787,-0.000272954,-0.863705,0.00121318,0.0163828,1658,484,3.55489,4.58292
441,540,3.56445,-4.41248,0.00167931,0.00116201,-0.00122974,0.00267731,0.00016401,-0.681746,0.00173279,0.0195517,1665,484,3.56451,4.41247
448,540,3.55823,-4.25818,0.00312784,0.00124967,-0.00186786,0.00427939,9.81111e-05,-0.552472,0.00282079,0.0116192,1672,484,3.55825,4.25817
455,540,3.56165,-4.09317,0.00462708,0.00135925,-0.00253241,0.00600693,-2.05978e-05,-0.498901,0.0040115,0.00993761,1679,484,3.5617,4.09317
462,540,3.55042,-3.92819,0.00646266,0.00223573,-0.00369336,0.0086045,9.38908e-05,-0.525522,0.00570529,0.0100936,1686,484,3.55047,3.92819
469,540,3.55408,-3.76776,0.00853679,0.00309103,-0.00499196,0.0115002,0.000127633,-0.535725,0.0076246,0.0129292,1693,484,3.55408,3.76775
476,540,3.54883,-3.63751,0.0109214,0.00381566,-0.00669992,0.0149522,-0.000215133,-0.541609,0.0100406,0.018654,1700,484,3.54889,3.6375
483,540,3.57776,-3.4881,0.0135686,0.00488584,-0.00875582,0.0190002,-0.000545805,-0.555247,0.0128526,0.0303209,1707,484,3.57781,3.48808
490,540,3.70142,-3.29593,0,0,0,0,0,0,0,-1,1714,484,3.70141,3.29593
497,540,3.91577,-2.58365,0,0,0,0,0,0,0,-1,1721,484,3.91574,2.58365
504,540,3.73755,-1.7532,0,0,0,0,0,0,0,-1,1728,484,3.73752,1.7532
511,540,3.56714,-1.353,0.0247386,0.0181036,-0.0189995,0.0407081,0.00213414,-0.698965,0.0264561,0.048126,1735,484,3.56709,1.35298
518,540,3.9126,-1.66235,0.027178,0.0249629,-0.02142,0.0475191,0.00462184,-0.759568,0.0302567,0.0483449,1742,484,3.91266,1.66236
525,540,4.05652,-1.91122,0,0,0,0,0,0,0,-1,1749,484,4.05656,1.91124
532,540,2.84265,-1.07925,0,0,0,0,0,0,0,-1,1756,484,2.84269,1.07927
539,540,0,0,0,0,0,0,0,0,0,-1,1763,484,0,0
546,540,0,0,0,0,0,0,0,0,0,-1,1770,484,0,0
553,540,0,0,0,0,0,0,0,0,0,-1,1777,484,0,0
560,540,0,0,0,0,0,0,0,0,0,-1,1784,484,0,0
567,540,0,0,0,0,0,0,0,0,0,-1,1791,484,0,0
574,540,0,0,0,0,0,0,0,0,0,-1,1798,484,0,0
581,540,0,0,0,0,0,0,0,0,0,-1,1805,484,0,0
588,540,0,0,0,0,0,0,0,0,0,-1,1812,484,0,0
595,540,0,0,0,0,0,0,0,0,0,-1,1819,484,0,0
602,540,0,0,0,0,0,0,0,0,0,-1,1826,484,0,0
609,540,0,0,0,0,0,0,0,0,0,-1,1833,484,0,0
616,540,0,0,0,0,0,0,0,0,0,-1,1840,484,0,0
623,540,0,0,0,0,0,0,0,0,0,-1,1847,484,0,0
630,540,0,0,0,0,0,0,0,0,0,-1,1854,484,0,0
637,540,0,0,0,0,0,0,0,0,0,-1,1861,484,0,0
644,540,0,0,0,0,0,0,0,0,0,-1,1868,484,0,0
651,540,0,0,0,0,0,0,0,0,0,-1,1875,484,0,0
658,540,0,0,0,0,0,0,0,0,0,-1,1882,484,0,0
665,540,0,0,0,0,0,0,0,0,0,-1,1889,484,0,0
672,540,0,0,0,0,0,0,0,0,0,-1,1896,484,0,0
679,540,0,0,0,0,0,0,0,0,0,-1,1903,484,0,0
686,540,0,0,0,0,0,0,0,0,0,-1,1910,484,0,0
693,540,0,0,0,0,0,0,0,0,0,-1,1917,484,0,0
700,540,0,0,0,0,0,0,0,0,0,-1,1924,484,0,0
707,540,0,0,0,0,0,0,0,0,0,-1,1931,484,0,0
714,540,0,0,0,0,0,0,0,0,0,-1,1938,484,0,0
721,540,0,0,0,0,0,0,0,0,0,-1,1945,484,0,0
728,540,0,0,0,0,0,0,0,0,0,-1,1952,484,0,0
735,540,0,0,0,0,0,0,0,0,0,-1,1959,484,0,0
742,540,0,0,0,0,0,0,0,0,0,-1,1966,484,0,0
749,540,0,0,0,0,0,0,0,0,0,-1,1973,484,0,0
756,540,0,0,0,0,0,0,0,0,0,-1,1980,484,0,0
763,540,0,0,0,0,0,0,0,0,0,-1,1987,484,0,0
770,540,0,0,0,0,0,0,0,0,0,-1,1994,484,0,0
777,540,0,0,0,0,0,0,0,0,0,-1,2001,484,0,0
784,540,0,0,0,0,0,0,0,0,0,-1,2008,484,0,0
791,540,0,0,0,0,0,0,0,0,0,-1,2015,484,0,0
798,540,0,0,0,0,0,0,0,0,0,-1,2022,484,0,0
805,540,0,0,0,0,0,0,0,0,0,-1,2029,484,0,0
812,540,0,0,0,0,0,0,0,0,0,-1,2036,484,0,0
-700,533,0,0,0,0,0,0,0,0,0,-1,524,491,0,0
-693,533,0,0,0,0,0,0,0,0,0,-1,531,491,0,0
-686,533,0,0,0,0,0,0,0,0,0,-1,538,491,0,0
-679,533,0,0,0,0,0,0,0,0,0,-1,545,491,0,0
-672,533,0,0,0,0,0,0,0,0,0,-1,552,491,0,0
-665,533,0,0,0,0,0,0,0,0,0,-1,559,491,0,0
-658,533,0,0,0,0,0,0,0,0,0,-1,566,491,0,0
-651,533,0,0,0,0,0,0,0,0,0,-1,573,491,0,0
-644,533,0,0,0,0,0,0,0,0,0,-1,580,491,0,0
-637,533,0,0,0,0,0,0,0,0,0,-1,587,491,0,0
-630,533,0,0,0,0,0,0,0,0,0,-1,594,491,0,0
-623,533,0,0,0,0,0,0,0,0,0,-1,601,491,0,0
-616,533,0,0,0,0,0,0,0,0,0,-1,608,491,0,0
-609,533,0,0,0,0,0,0,0,0,0,-1,615,491,0,0
-602,533,0,0,0,0,0,0,0,0,0,-1,622,491,0,0
-595,533,0,0,0,0,0,0,0,0,0,-1,629,491,0,0
-588,533,0,0,0,0,0,0,0,0,0,-1,636,491,0,0
-581,533,0,0,0,0,0,0,0,0,0,-1,643,491,0,0
-574,533,0,0,0,0,0,0,0,0,0,-1,650,491,0,0
-567,533,0,0,0,0,0,0,0,0,0,-1,657,491,0,0
-560,533,0,0,0,0,0,0,0,0,0,-1,664,491,0,0
-553,533,0,0,0,0,0,0,0,0,0,-1,671,491,0,0
-546,533,0,0,0,0,0,0,0,0,0,-1,678,491,0,0
-539,533,0,0,0,0,0,0,0,0,0,-1,685,491,0,0
-532,533,0,0,0,0,0,0,0,0,0,-1,692,491,0,0
-525,533,0,0,0,0,0,0,0,0,0,-1,699,491,0,0
-518,533,0,0,0,0,0,0,0,0,0,-1,706,491,0,0
-511,533,0,0,0,0,0,0,0,0,0,-1,713,491,0,0
-504,533,0,0,0,0,0,0,0,0,0,-1,720,491,0,0
-497,533,0,0,0,0,0,0,0,0,0,-1,727,491,0,0
-490,533,0,0,0,0,0,0,0,0,0,-1,734,491,0,0
-483,533,0,0,0,0,0,0,0,0,0,-1,741,491,0,0
-476,533,0,0,0,0,0,0,0,0,0,-1,748,491,0,0
-469,533,0,0,0,0,0,0,0,0,0,-1,755,491,0,0
-462,533,0,0,0,0,0,0,0,0,0,-1,762,491,0,0
-455,533,0,0,0,0,0,0,0,0,0,-1,769,491,0,0
-448,533,0,0,0,0,0,0,0,0,0,-1,776,491,0,0
-441,533,0,0,0,0,0,0,0,0,0,-1,783,491,0,0
-434,533,0,0,0,0,0,0,0,0,0,-1,790,491,0,0
-427,533,3.10034,-2.32062,-0.00253508,0.0493032,0.0498488,0.0795686,-0.0328005,1.02514,0.0667231,0.0447479,797,491,3.10034,2.32062
-420,533,3.06226,-2.05475,-0.00854311,0.0359753,0.0478498,0.0664899,-0.0390578,1.0031,0.0616202,0.0481075,804,491,3.06228,2.05476
-413,533,1.2475,-5.25546,0,0,0,0,0,0,0,-1,811,491,1.24751,5.25546
-406,533,1.06805,-4.82755,-0.0132046,0.0161661,0.0417648,0.0457521,-0.0427907,0.954457,0.0511297,0.0484077,818,491,1.06807,4.82755
-399,533,0.848877,-4.39252,-0.0128662,0.00929715,0.037724,0.0375335,-0.0411025,0.928258,0.0454161,0.0450157,825,491,0.8489,4.39252
-392,533,0.367798,-3.70438,0,0,0,0,0,0,0,-1,832,491,0.367773,3.70437
-385,533,-1.06116,-3.88251,0,0,0,0,0,0,0,-1,839,491,-1.06113,3.8825
-378,533,-0.579285,-4.63278,0,0,0,0,0,0,0,-1,846,491,-0.579297,4.63279
-371,533,0.127747,-4.35217,0,0,0,0,0,0,0,-1,853,491,0.127739,4.35219
-364,533,0.557007,-4.23801,-0.00102604,-0.004892,0.013248,0.0104293,-0.0163473,0.712956,0.0155848,0.0412406,860,491,0.557003,4.238
-357,533,0.541687,-4.62228,0.000668317,-0.00317521,0.00944414,0.00838424,-0.0108911,0.685025,0.01116,0.025173,867,491,0.541695,4.6223
-350,533,0.500916,-4.74658,0.00197623,-0.00106664,0.00587236,0.00652104,-0.00561145,0.658643,0.00701126,0.012046,874,491,0.50092,4.74659
-343,533,0.538025,-4.94812,0.00254009,0.000229695,0.00325033,0.0048344,-0.00206462,0.614655,0.00408875,0.0107106,881,491,0.538032,4.94811
-336,533,0.500916,-5.11984,0.00280568,0.000659688,0.001045,0.00323046,0.000234904,0.38609,0.00207977,0.0139417,888,491,0.500937,5.11984
-329,533,0.493042,-5.23447,0.00257074,0.000234406,-0.000156792,0.00258121,0.000223931,-0.0667118,0.00165123,0.0132861,895,491,0.493067,5.23448
-322,533,0.486511,-5.36392,0.00191147,0.000368012,-0.000336009,0.00198144,0.000298035,-0.205323,0.00123368,0.0117914,902,491,0.486533,5.36391
-315,533,0.473999,-5.52924,0.00143627,0.000396356,-0.00069192,0.00178183,5.08029e-05,-0.463177,0.00117132,0.0124984,909,491,0.473971,5.52923
-308,533,0.466003,-5.66431,0.00126173,0.000210179,-0.000829255,0.00171784,-0.000245934,-0.502864,0.00123539,0.0117376,916,491,0.46601,5.66429
-301,533,0.447632,-5.78342,0.0011922,9.38252e-05,-0.000447557,0.00135147,-6.54462e-05,-0.341893,0.00092357,0.0131079,923,491,0.447632,5.7834
-294,533,0.463074,-5.93942,0.00114714,-5.26602e-06,-0.000102143,0.00115612,-1.42494e-05,-0.0877233,0.00077554,0.0119756,930,491,0.463052,5.93943
-287,533,0.481506,-6.10471,0.00118132,-2.76522e-05,0.000149727,0.00119959,-4.59194e-05,0.121403,0.000815462,0.00912435,937,491,0.481503,6.1047
-280,533,0.488708,-6.25537,0.00130966,-0.000204855,0.000307298,0.00136964,-0.000264831,0.192749,0.00101298,0.00871637,944,491,0.488731,6.25538
-273,533,0.478882,-6.39572,0.00165823,-0.000280406,0.00013856,0.00166809,-0.000290259,0.0709919,0.00122037,0.0120463,951,491,0.478887,6.39571
-266,533,0.503235,-6.52228,0.00203537,0.000107696,-0.000338604,0.00209312,4.99483e-05,-0.16892,0.00137906,0.0112239,958,491,0.503247,6.52229
-259,533,0.525269,-6.65417,0.00246154,0.00115791,-0.0010584,0.00305274,0.000566715,-0.509402,0.00187502,0.0113794,965,491,0.52524,6.65416
-252,533,0.524475,-6.77136,0.00312556,0.00252053,-0.00181705,0.00466511,0.000980981,-0.702912,0.00284012,0.0135823,972,491,0.524489,6.77135
-245,533,0.569519,-6.87549,0.00389159,0.0037507,-0.00291555,0.00673755,0.000904743,-0.77332,0.00422255,0.0180233,979,491,0.569509,6.87549
-238,533,0.579651,-6.92853,0.00464209,0.00535443,-0.00447621,0.00948861,0.000507906,-0.8251,0.00616342,0.0185844,986,491,0.579663,6.92854
-231,533,0.656555,-7.07162,0.00503708,0.00751787,-0.00615942,0.0125605,-5.59865e-06,-0.88476,0.00837556,0.0268721,993,491,0.656584,7.07163
-224,533,0.703064,-7.30099,0.0047245,0.0102604,-0.0075712,0.0155537,-0.000568869,-0.960644,0.0105639,0.0341976,1000,491,0.703076,7.30101
-217,533,0.865112,-7.76953,0.00468254,0.0133351,-0.0092096,0.0191839,-0.00116632,-1.00498,0.0131953,0.0392234,1007,491,0.865116,7.76953
-210,533,0.710632,-8.1571,0.00454603,0.0154915,-0.0107501,0.0220817,-0.00204418,-1.02084,0.0154477,0.049932,1014,491,0.710656,8.15711
-203,533,0.484192,-8.42535,0,0,0,0,0,0,0,-1,1021,491,0.484162,8.42535
-196,533,1.11646,-7.15869,0,0,0,0,0,0,0,-1,1028,491,1.11644,7.1587
-189,533,1.55664,-7.50671,0,0,0,0,0,0,0,-1,1035,491,1.55659,7.50672
-182,533,1.59631,-3.88702,0,0,0,0,0,0,0,-1,1042,491,1.59636,3.88702
-175,533,1.17761,-6.07086,0,0,0,0,0,0,0,-1,1049,491,1.17759,6.07086
-168,533,2.64807,-2.7543,0,0,0,0,0,0,0,-1,1056,491,2.64812,2.7543
-161,533,1.91833,-1.76553,0,0,0,0,0,0,0,-1,1063,491,1.91836,1.76554
-154,533,1.65686,-0.885834,0,0,0,0,0,0,0,-1,1070,491,1.65687,0.885832
-147,533,1.55835,-0.0189819,0,0,0,0,0,0,0,-1,1077,491,1.55836,0.0189716
-140,533,0.693359,-6.06354,0,0,0,0,0,0,0,-1,1084,491,0.69335,6.06352
-133,533,-4.95264,-6.48141,0,0,0,0,0,0,0,-1,1091,491,-4.95263,6.48142
-126,533,2.89612,-2.59003,0,0,0,0,0,0,0,-1,1098,491,2.89608,2.59003
-119,533,2.87903,-3.47372,0,0,0,0,0,0,0,-1,1105,491,2.87905,3.47373
-112,533,1.69788,-3.8486,0,0,0,0,0,0,0,-1,1112,491,1.69793,3.84862
-105,533,3.84839,1.12769,0,0,0,0,0,0,0,-1,1119,491,3.84843,-1.12769
-98,533,-1.39392,-5.16367,0,0,0,0,0,0,0,-1,1126,491,-1.39394,5.16367
-91,533,0.367432,4.49753,0,0,0,0,0,0,0,-1,1133,491,0.367468,-4.49754
-84,533,-0.88623,3.03604,0,0,0,0,0,0,0,-1,1140,491,-0.886288,-3.03605
-77,533,0,0,0,0,0,0,0,0,0,-1,1147,491,0,0
-70,533,0,0,0,0,0,0,0,0,0,-1,1154,491,0,0
-63,533,0,0,0,0,0,0,0,0,0,-1,1161,491,0,0
-56,533,0,0,0,0,0,0,0,0,0,-1,1168,491,0,0
-49,533,0,0,0,0,0,0,0,0,0,-1,1175,491,0,0
-42,533,0,0,0,0,0,0,0,0,0,-1,1182,491,0,0
-35,533,0,0,0,0,0,0,0,0,0,-1,1189,491,0,0
-28,533,0,0,0,0,0,0,0,0,0,-1,1196,491,0,0
-21,533,0,0,0,0,0,0,0,0,0,-1,1203,491,0,0
-14,533,0,0,0,0,0,0,0,0,0,-1,1210,491,0,0
-7,533,0,0,0,0,0,0,0,0,0,-1,1217,491,0,0
0,533,0,0,0,0,0,0,0,0,0,-1,1224,491,0,0
7,533,0,0,0,0,0,0,0,0,0,-1,1231,491,0,0
14,533,0,0,0,0,0,0,0,0,0,-1,1238,491,0,0
21,533,0,0,0,0,0,0,0,0,0,-1,1245,491,0,0
28,533,0,0,0,0,0,0,0,0,0,-1,1252,491,0,0
35,533,0,0,0,0,0,0,0,0,0,-1,1259,491,0,0
42,533,0,0,0,0,0,0,0,0,0,-1,1266,491,0,0
49,533,0,0,0,0,0,0,0,0,0,-1,1273,491,0,0
56,533,0,0,0,0,0,0,0,0,0,-1,1280,491,0,0
63,533,0,0,0,0,0,0,0,0,0,-1,1287,491,0,0
70,533,0,0,0,0,0,0,0,0,0,-1,1294,491,0,0
77,533,0,0,0,0,0,0,0,0,0,-1,1301,491,0,0
84,533,0,0,0,0,0,0,0,0,0,-1,1308,491,0,0
91,533,0,0,0,0,0,0,0,0,0,-1,1315,491,0,0
98,533,0,0,0,0,0,0,0,0,0,-1,1322,491,0,0
105,533,0,0,0,0,0,0,0,0,0,-1,1329,491,0,0
112,533,0,0,0,0,0,0,0,0,0,-1,1336,491,0,0
119,533,0,0,0,0,0,0,0,0,0,-1,1343,491,0,0
126,533,0,0,0,0,0,0,0,0,0,-1,1350,491,0,0
133,533,0,0,0,0,0,0,0,0,0,-1,1357,491,0,0
140,533,0,0,0,0,0,0,0,0,0,-1,1364,491,0,0
147,533,0,0,0,0,0,0,0,0,0,-1,1371,491,0,0
154,533,0,0,0,0,0,0,0,0,0,-1,1378,491,0,0
161,533,0,0,0,0,0,0,0,0,0,-1,1385,491,0,0
168,533,0,0,0,0,0,0,0,0,0,-1,1392,491,0,0
175,533,0,0,0,0,0,0,0,0,0,-1,1399,491,0,0
182,533,0,0,0,0,0,0,0,0,0,-1,1406,491,0,0
189,533,0,0,0,0,0,0,0,0,0,-1,1413,491,0,0
196,533,0,0,0,0,0,0,0,0,0,-1,1420,491,0,0
203,533,3.7887,1.16193,0,0,0,0,0,0,0,-1,1427,491,3.78872,-1.16193
210,533,5.09558,-0.216034,0,0,0,0,0,0,0,-1,1434,491,5.09559,0.216028
217,533,6.91614,-2.46814,0,0,0,0,0,0,0,-1,1441,491,6.91618,2.46814
224,533,7.23621,-2.1857,0,0,0,0,0,0,0,-1,1448,491,7.23621,2.1857
231,533,7.23474,-1.92282,0,0,0,0,0,0,0,-1,1455,491,7.2347,1.92282
238,533,7.23535,-1.67258,0,0,0,0,0,0,0,-1,1462,491,7.23539,1.67258
245,533,6.86682,-1.2301,0,0,0,0,0,0,0,-1,1469,491,6.86686,1.23011
252,533,6.63354,-3.07825,0,0,0,0,0,0,0,-1,1476,491,6.6335,3.07824
259,533,6.16431,-2.35037,0,0,0,0,0,0,0,-1,1483,491,6.1643,2.35037
266,533,5.68884,-1.6214,0,0,0,0,0,0,0,-1,1490,491,5.68885,1.6214
273,533,5.21399,-0.864227,0,0,0,0,0,0,0,-1,1497,491,5.21403,0.864227
280,533,1.41089,-1.97946,0,0,0,0,0,0,0,-1,1504,491,1.41087,1.97946
287,533,1.6814,-2.44443,0,0,0,0,0,0,0,-1,1511,491,1.6814,2.44444
294,533,2.2384,-2.57626,0,0,0,0,0,0,0,-1,1518,491,2.23839,2.57625
301,533,3.39941,-4.0817,0,0,0,0,0,0,0,-1,1525,491,3.3994,4.08171
308,533,4.13733,-4.14752,0,0,0,0,0,0,0,-1,1532,491,4.13727,4.14752
315,533,4.80762,-5.29349,0,0,0,0,0,0,0,-1,1539,491,4.80762,5.29347
322,533,5.47803,-6.43942,0,0,0,0,0,0,0,-1,1546,491,5.47798,6.43943
329,533,3.88477,-3.86301,0,0,0,0,0,0,0,-1,1553,491,3.88475,3.86299
336,533,3.53687,-5.68427,0,0,0,0,0,0,0,-1,1560,491,3.53689,5.68425
343,533,5.87952,-6.38858,0,0,0,0,0,0,0,-1,1567,491,5.87953,6.38857
350,533,4.10718,-5.78677,0,0,0,0,0,0,0,-1,1574,491,4.10722,5.78678
357,533,4.03442,-5.81091,-0.00614777,-0.00317307,-0.0126163,0.00804325,-0.0173641,-0.844073,0.0149944,0.0434188,1581,491,4.03445,5.81092
364,533,3.82275,-6.05847,-0.00565292,-0.00289576,-0.0110815,0.00689253,-0.0154412,-0.847282,0.0132055,0.0358234,1588,491,3.82272,6.05847
371,533,3.67908,-5.97919,-0.00511162,-0.00249648,-0.00949745,0.00578298,-0.0133911,-0.853806,0.0113569,0.0274635,1595,491,3.6791,5.97918
378,533,3.65247,-5.80835,-0.00445889,-0.00219308,-0.00795108,0.0047054,-0.0113574,-0.856164,0.00953524,0.0205726,1602,491,3.65249,5.80835
385,533,3.71033,-5.6756,-0.00411216,-0.00195035,-0.00669219,0.00374766,-0.00981017,-0.865465,0.00808427,0.019206,1609,491,3.7103,5.67559
392,533,3.69568,-5.54355,-0.00368322,-0.0017566,-0.00549564,0.00285952,-0.00829933,-0.87216,0.00669288,0.0127354,1616,491,3.69573,5.54356
399,533,3.70569,-5.39874,-0.00312935,-0.00159897,-0.00446438,0.00216532,-0.00689364,-0.870273,0.00546251,0.0113375,1623,491,3.70565,5.39873
406,533,3.69202,-5.25235,-0.00252899,-0.00120823,-0.00348422,0.00167764,-0.00541486,-0.879055,0.00428016,0.0143874,1630,491,3.69205,5.25236
413,533,3.72253,-5.0723,-0.0019558,-0.000667909,-0.00260531,0.00137186,-0.00399557,-0.906553,0.00321993,0.0134727,1637,491,3.72254,5.0723
420,533,3.73523,-4.8895,-0.0014284,-0.000482963,-0.00201957,0.00111847,-0.00302984,-0.900363,0.00247832,0.0125936,1644,491,3.7352,4.88951
427,533,3.74927,-4.72409,-0.000865335,-0.00025149,-0.00146318,0.000936608,-0.00205343,-0.888782,0.00176598,0.013281,1651,491,3.74925,4.72409
434,533,3.72205,-4.58856,-0.000234149,0.000268013,-0.00120579,0.00124859,-0.00121472,-0.888046,0.00142224,0.0135355,1658,491,3.722,4.58857
441,533,3.73889,-4.40131,0.000725011,0.000572404,-0.00120551,0.00185663,-0.000559219,-0.753793,0.0014603,0.015636,1665,491,3.73891,4.4013
448,533,3.73022,-4.24872,0.00192088,0.000795311,-0.00141792,0.00288362,-0.000167427,-0.596479,0.00198058,0.0163175,1672,491,3.73019,4.24872
455,533,3.71558,-4.086,0.00313611,0.000935904,-0.00169652,0.00405798,1.40292e-05,-0.497757,0.00270066,0.0152228,1679,491,3.71559,4.08601
462,533,3.71741,-3.89954,0.00460323,0.00172939,-0.0024059,0.00596865,0.000363971,-0.516202,0.0038635,0.0139667,1686,491,3.71735,3.89954
469,533,3.73352,-3.75644,0.00622708,0.00252611,-0.00326528,0.00812978,0.000623415,-0.527605,0.00522446,0.00934082,1693,491,3.73349,3.75643
476,533,3.74426,-3.59592,0.0080565,0.00325493,-0.00444909,0.0107112,0.000600209,-0.537982,0.00694939,0.010215,1700,491,3.74426,3.59591
483,533,3.76025,-3.40057,0.0100771,0.00431994,-0.00591037,0.0137726,0.000624428,-0.558785,0.00898085,0.0157383,1707,491,3.7603,3.40057
490,533,3.77625,-3.30859,0.0121737,0.00582287,-0.00759512,0.0172305,0.000766093,-0.587397,0.0112403,0.0346334,1714,491,3.77622,3.30859
497,533,3.89819,-2.87048,0.0142677,0.0081219,-0.00946291,0.0211441,0.00124547,-0.628403,0.0136998,0.0491756,1721,491,3.89818,2.87047
504,533,3.83423,-2.38184,0,0,0,0,0,0,0,-1,1728,491,3.83423,2.38183
511,533,3.74731,-2.16586,0.0183199,0.0154425,-0.0132984,0.0302572,0.00350519,-0.731514,0.0191105,0.0453513,1735,491,3.74732,2.16587
518,533,3.70959,-2.15445,0.0201529,0.0205396,-0.0150659,0.0354134,0.00527918,-0.791814,0.0220608,0.0481065,1742,491,3.7096,2.15446
525,533,3.63171,-2.09952,0,0,0,0,0,0,0,-1,1749,491,3.63166,2.09952
532,533,3.24243,0.0737,0,0,0,0,0,0,0,-1,1756,491,3.24239,-0.0737072
539,533,3.61609,1.62427,0,0,0,0,0,0,0,-1,1763,491,3.61606,-1.62426
546,533,3.59607,1.65799,0,0,0,0,0,0,0,-1,1770,491,3.59605,-1.658
553,533,0,0,0,0,0,0,0,0,0,-1,1777,491,0,0
560,533,0,0,0,0,0,0,0,0,0,-1,1784,491,0,0
567,533,0,0,0,0,0,0,0,0,0,-1,1791,491,0,0
574,533,0,0,0,0,0,0,0,0,0,-1,1798,491,0,0
581,533,0,0,0,0,0,0,0,0,0,-1,1805,491,0,0
588,533,0,0,0,0,0,0,0,0,0,-1,1812,491,0,0
595,533,0,0,0,0,0,0,0,0,0,-1,1819,491,0,0
602,533,0,0,0,0,0,0,0,0,0,-1,1826,491,0,0
609,533,0,0,0,0,0,0,0,0,0,-1,1833,491,0,0
616,533,0,0,0,0,0,0,0,0,0,-1,1840,491,0,0
623,533,0,0,0,0,0,0,0,0,0,-1,1847,491,0,0
630,533,0,0,0,0,0,0,0,0,0,-1,1854,491,0,0
637,533,0,0,0,0,0,0,0,0,0,-1,1861,491,0,0
644,533,0,0,0,0,0,0,0,0,0,-1,1868,491,0,0
651,533,0,0,0,0,0,0,0,0,0,-1,1875,491,0,0
658,533,0,0,0,0,0,0,0,0,0,-1,1882,491,0,0
665,533,0,0,0,0,0,0,0,0,0,-1,1889,491,0,0
672,533,0,0,0,0,0,0,0,0,0,-1,1896,491,0,0
679,533,0,0,0,0,0,0,0,0,0,-1,1903,491,0,0
686,533,0,0,0,0,0,0,0,0,0,-1,1910,491,0,0
693,533,0,0,0,0,0,0,0,0,0,-1,1917,491,0,0
700,533,0,0,0,0,0,0,0,0,0,-1,1924,491,0,0
707,533,0,0,0,0,0,0,0,0,0,-1,1931,491,0,0
714,533,0,0,0,0,0,0,0,0,0,-1,1938,491,0,0
721,533,0,0,0,0,0,0,0,0,0,-1,1945,491,0,0
728,533,0,0,0,0,0,0,0,0,0,-1,1952,491,0,0
735,533,0,0,0,0,0,0,0,0,0,-1,1959,491,0,0
742,533,0,0,0,0,0,0,0,0,0,-1,1966,491,0,0
749,533,0,0,0,0,0,0,0,0,0,-1,1973,491,0,0
756,533,0,0,0,0,0,0,0,0,0,-1,1980,491,0,0
763,533,0,0,0,0,0,0,0,0,0,-1,1987,491,0,0
770,533,0,0,0,0,0,0,0,0,0,-1,1994,491,0,0
777,533,0,0,0,0,0,0,0,0,0,-1,2001,491,0,0
784,533,0,0,0,0,0,0,0,0,0,-1,2008,491,0,0
791,533,0,0,0,0,0,0,0,0,0,-1,2015,491,0,0
798,533,0,0,0,0,0,0,0,0,0,-1,2022,491,0,0
805,533,0,0,0,0,0,0,0,0,0,-1,2029,491,0,0
812,533,0,0,0,0,0,0,0,0,0,-1,2036,491,0,0
-700,526,0,0,0,0,0,0,0,0,0,-1,524,498,0,0
-693,526,0,0,0,0,0,0,0,0,0,-1,531,498,0,0
-686,526,0,0,0,0,0,0,0,0,0,-1,538,498,0,0
-679,526,0,0,0,0,0,0,0,0,0,-1,545,498,0,0
-672,526,0,0,0,0,0,0,0,0,0,-1,552,498,0,0
-665,526,0,0,0,0,0,0,0,0,0,-1,559,498,0,0
-658,526,0,0,0,0,0,0,0,0,0,-1,566,498,0,0
-651,526,0,0,0,0,0,0,0,0,0,-1,573,498,0,0
-644,526,0,0,0,0,0,0,0,0,0,-1,580,498,0,0
-637,526,0,0,0,0,0,0,0,0,0,-1,587,498,0,0
-630,526,0,0,0,0,0,0,0,0,0,-1,594,498,0,0
-623,526,0,0,0,0,0,0,0,0,0,-1,601,498,0,0
-616,526,0,0,0,0,0,0,0,0,0,-1,608,498,0,0
-609,526,0,0,0,0,0,0,0,0,0,-1,615,498,0,0
-602,526,0,0,0,0,0,0,0,0,0,-1,622,498,0,0
-595,526,0,0,0,0,0,0,0,0,0,-1,629,498,0,0
-588,526,0,0,0,0,0,0,0,0,0,-1,636,498,0,0
-581,526,0,0,0,0,0,0,0,0,0,-1,643,498,0,0
-574,526,0,0,0,0,0,0,0,0,0,-1,650,498,0,0
-567,526,0,0,0,0,0,0,0,0,0,-1,657,498,0,0
-560,526,0,0,0,0,0,0,0,0,0,-1,664,498,0,0
-553,526,0,0,0,0,0,0,0,0,0,-1,671,498,0,0
-546,526,0,0,0,0,0,0,0,0,0,-1,678,498,0,0
-539,526,0,0,0,0,0,0,0,0,0,-1,685,498,0,0
-532,526,0,0,0,0,0,0,0,0,0,-1,692,498,0,0
-525,526,0,0,0,0,0,0,0,0,0,-1,699,498,0,0
-518,526,0,0,0,0,0,0,0,0,0,-1,706,498,0,0
-511,526,0,0,0,0,0,0,0,0,0,-1,713,498,0,0
-504,526,0,0,0,0,0,0,0,0,0,-1,720,498,0,0
-497,526,0,0,0,0,0,0,0,0,0,-1,727,498,0,0
-490,526,0,0,0,0,0,0,0,0,0,-1,734,498,0,0
-483,526,0,0,0,0,0,0,0,0,0,-1,741,498,0,0
-476,526,0,0,0,0,0,0,0,0,0,-1,748,498,0,0
-469,526,0,0,0,0,0,0,0,0,0,-1,755,498,0,0
-462,526,0,0,0,0,0,0,0,0,0,-1,762,498,0,0
-455,526,0,0,0,0,0,0,0,0,0,-1,769,498,0,0
-448,526,0,0,0,0,0,0,0,0,0,-1,776,498,0,0
-441,526,0,0,0,0,0,0,0,0,0,-1,783,498,0,0
-434,526,3.10223,-3.88477,0.0199069,0.0439656,0.0363639,0.0702382,-0.00636566,0.945135,0.0490852,0.0485893,790,498,3.10224,3.88476
-427,526,2.6554,-3.021,0.00648812,0.0350782,0.0371421,0.0605812,-0.0190148,0.969098,0.0479981,0.0457417,797,498,2.65539,3.021
-420,526,2.04388,-5.36987,-0.00180743,0.026043,0.0360059,0.0507227,-0.0264871,0.969913,0.0453032,0.046318,804,498,2.04388,5.36987
-413,526,1.54376,-4.89066,0,0,0,0,0,0,0,-1,811,498,1.54379,4.89067
-406,526,0.879883,-4.24271,-0.0102508,0.0121248,0.0313755,0.0342475,-0.0323735,0.95666,0.0384687,0.0433183,818,498,0.879909,4.24271
-399,526,0.404053,-3.73962,-0.0111741,0.00708253,0.0279987,0.0274034,-0.0314949,0.942978,0.0340323,0.0488054,825,498,0.404072,3.73964
-392,526,0.234741,-3.70737,-0.0101881,0.00293306,0.0241969,0.0214431,-0.0286981,0.917781,0.0290498,0.0492326,832,498,0.234768,3.70736
-385,526,-0.619263,-3.99643,-0.00876592,0.000793196,0.0201405,0.0167135,-0.0246862,0.901899,0.0240494,0.0481161,839,498,-0.61929,3.99644
-378,526,-0.299866,-4.38538,-0.00669997,-0.000423624,0.0152897,0.0120466,-0.0191702,0.886616,0.0181788,0.0467218,846,498,-0.29985,4.38538
-371,526,0.205383,-4.35974,-0.00437225,-0.0020089,0.0118726,0.00874067,-0.0151218,0.835,0.0139402,0.0381516,853,498,0.205388,4.35974
-364,526,0.38031,-4.49176,-0.00197414,-0.00441348,0.00877883,0.00566934,-0.012057,0.716374,0.0104534,0.0215888,860,498,0.380302,4.49177
-357,526,0.332031,-4.60809,-0.000391819,-0.00295848,0.0061915,0.00464796,-0.00799825,0.683209,0.00738621,0.0150541,867,498,0.332025,4.60809
-350,526,0.358154,-4.77255,0.000786202,-0.00116947,0.0036612,0.00359789,-0.00398116,0.654904,0.00437763,0.0120527,874,498,0.358172,4.77255
-343,526,0.371704,-4.93976,0.00125236,-5.11525e-05,0.00194759,0.00265435,-0.00145315,0.623932,0.00240503,0.0153191,881,498,0.371734,4.93975
-336,526,0.356262,-5.09814,0.00143506,0.000308584,0.000589699,0.00168728,5.63573e-05,0.404174,0.00110655,0.0132521,888,498,0.356251,5.09815
-329,526,0.351318,-5.22369,0.00121066,5.00842e-05,-2.59273e-05,0.00121123,4.95053e-05,-0.0223253,0.000791504,0.0134391,895,498,0.351318,5.22369
-322,526,0.345276,-5.37994,0.000682287,0.000139856,-1.71582e-05,0.000682829,0.000139314,-0.0315899,0.00041662,0.0101869,902,498,0.345254,5.37994
-315,526,0.350464,-5.53537,0.000355979,0.000147684,-0.000173194,0.000453928,4.97351e-05,-0.514698,0.000287478,0.00902553,909,498,0.350448,5.53538
-308,526,0.345093,-5.67953,0.000327471,-9.89576e-06,-0.000151148,0.000385283,-6.77071e-05,-0.365313,0.000282145,0.00841881,916,498,0.345097,5.67954
-301,526,0.318848,-5.80997,0.000399415,-0.0001394,0.000193002,0.000461414,-0.000201399,0.310822,0.000392368,0.00989967,923,498,0.318842,5.80996
-294,526,0.309021,-5.94669,0.000545094,-0.00025805,0.000501602,0.000786068,-0.000499023,0.447851,0.000748092,0.00993292,930,498,0.309017,5.94667
-287,526,0.315247,-6.08771,0.00077413,-0.000289687,0.000734585,0.00114916,-0.000664719,0.472041,0.00105962,0.00972161,937,498,0.315216,6.0877
-280,526,0.313843,-6.23648,0.00112911,-0.000494101,0.000828747,0.00147747,-0.000842463,0.397924,0.00135604,0.011951,944,498,0.313868,6.23648
-273,526,0.332275,-6.39304,0.0017625,-0.000571138,0.000525465,0.00187536,-0.000683999,0.211568,0.00153008,0.00997443,951,498,0.33225,6.39305
-266,526,0.366089,-6.52637,0.00238714,-0.000101508,-6.01598e-05,0.00238859,-0.000102962,-0.0241549,0.0016278,0.00977892,958,498,0.366115,6.52638
-259,526,0.40625,-6.62625,0.00303143,0.00113261,-0.00103474,0.00348632,0.000677718,-0.41419,0.00213448,0.0175299,965,498,0.406274,6.62626
-252,526,0.38324,-6.72781,0.00379787,0.00277941,-0.00199613,0.0053487,0.00122858,-0.660507,0.003235,0.0324175,972,498,0.383255,6.72783
-245,526,0.450195,-6.92264,0.00471966,0.00436691,-0.00338517,0.00793304,0.00115353,-0.759371,0.0049492,0.0411849,979,498,0.450207,6.92264
-238,526,0.601257,-7.0578,0.00566086,0.00649638,-0.00543005,0.0115247,0.000632525,-0.82379,0.00748122,0.0358864,986,498,0.601246,7.0578
-231,526,0.573486,-7.03864,0.00617981,0.00937379,-0.00767919,0.0156203,-6.66934e-05,-0.887919,0.0104358,0.0398531,993,498,0.573484,7.03864
-224,526,0.684204,-7.30374,0.0058121,0.0131677,-0.00973646,0.0198978,-0.000918026,-0.965981,0.0135816,0.0472563,1000,498,0.684202,7.30374
-217,526,0.850708,-7.92831,0,0,0,0,0,0,0,-1,1007,498,0.850686,7.92831
-210,526,0.736877,-8.60431,0,0,0,0,0,0,0,-1,1014,498,0.736865,8.60429
-203,526,0.621277,-6.82285,0,0,0,0,0,0,0,-1,1021,498,0.621281,6.82286
-196,526,0.375732,-6.21689,0,0,0,0,0,0,0,-1,1028,498,0.375732,6.2169
-189,526,0.401245,-5.96826,0,0,0,0,0,0,0,-1,1035,498,0.401197,5.96826
-182,526,1.7323,-2.99405,0,0,0,0,0,0,0,-1,1042,498,1.73226,2.99404
-175,526,2.27637,-2.07983,0,0,0,0,0,0,0,-1,1049,498,2.27639,2.07984
-168,526,2.12036,-1.66049,0,0,0,0,0,0,0,-1,1056,498,2.12035,1.66048
-161,526,2.09082,-1.20572,0,0,0,0,0,0,0,-1,1063,498,2.09086,1.2057
-154,526,2.15234,-0.381561,0,0,0,0,0,0,0,-1,1070,498,2.15234,0.381553
-147,526,2.28003,0.0862732,0,0,0,0,0,0,0,-1,1077,498,2.28002,-0.0862774
-140,526,1.70288,-4.23944,0,0,0,0,0,0,0,-1,1084,498,1.70289,4.23944
-133,526,2.84351,-4.6127,0,0,0,0,0,0,0,-1,1091,498,2.84349,4.61269
-126,526,3.42529,-2.36053,0,0,0,0,0,0,0,-1,1098,498,3.42523,2.36052
-119,526,2.7771,-0.764099,0,0,0,0,0,0,0,-1,1105,498,2.7771,0.764107
-112,526,2.57715,-1.1893,0,0,0,0,0,0,0,-1,1112,498,2.57718,1.1893
-105,526,0,0,0,0,0,0,0,0,0,-1,1119,498,0,0
-98,526,0,0,0,0,0,0,0,0,0,-1,1126,498,0,0
-91,526,0,0,0,0,0,0,0,0,0,-1,1133,498,0,0
-84,526,0,0,0,0,0,0,0,0,0,-1,1140,498,0,0
-77,526,0,0,0,0,0,0,0,0,0,-1,1147,498,0,0
-70,526,0,0,0,0,0,0,0,0,0,-1,1154,498,0,0
-63,526,0,0,0,0,0,0,0,0,0,-1,1161,498,0,0
-56,526,0,0,0,0,0,0,0,0,0,-1,1168,498,0,0
-49,526,0,0,0,0,0,0,0,0,0,-1,1175,498,0,0
-42,526,0,0,0,0,0,0,0,0,0,-1,1182,498,0,0
-35,526,0,0,0,0,0,0,0,0,0,-1,1189,498,0,0
-28,526,0,0,0,0,0,0,0,0,0,-1,1196,498,0,0
-21,526,0,0,0,0,0,0,0,0,0,-1,1203,498,0,0
-14,526,0,0,0,0,0,0,0,0,0,-1,1210,498,0,0
-7,526,0,0,0,0,0,0,0,0,0,-1,1217,498,0,0
0,526,0,0,0,0,0,0,0,0,0,-1,1224,498,0,0
7,526,0,0,0,0,0,0,0,0,0,-1,1231,498,0,0
14,526,0,0,0,0,0,0,0,0,0,-1,1238,498,0,0
21,526,0,0,0,0,0,0,0,0,0,-1,1245,498,0,0
28,526,0,0,0,0,0,0,0,0,0,-1,1252,498,0,0
35,526,0,0,0,0,0,0,0,0,0,-1,1259,498,0,0
42,526,0,0,0,0,0,0,0,0,0,-1,1266,498,0,0
49,526,0,0,0,0,0,0,0,0,0,-1,1273,498,0,0
56,526,0,0,0,0,0,0,0,0,0,-1,1280,498,0,0
63,526,0,0,0,0,0,0,0,0,0,-1,1287,498,0,0
70,526,0,0,0,0,0,0,0,0,0,-1,1294,498,0,0
77,526,0,0,0,0,0,0,0,0,0,-1,1301,498,0,0
84,526,0,0,0,0,0,0,0,0,0,-1,1308,498,0,0
91,526,0,0,0,0,0,0,0,0,0,-1,1315,498,0,0
98,526,0,0,0,0,0,0,0,0,0,-1,1322,498,0,0
105,526,0,0,0,0,0,0,0,0,0,-1,1329,498,0,0
112,526,0,0,0,0,0,0,0,0,0,-1,1336,498,0,0
119,526,0,0,0,0,0,0,0,0,0,-1,1343,498,0,0
126,526,0,0,0,0,0,0,0,0,0,-1,1350,498,0,0
133,526,0,0,0,0,0,0,0,0,0,-1,1357,498,0,0
140,526,0,0,0,0,0,0,0,0,0,-1,1364,498,0,0
147,526,0,0,0,0,0,0,0,0,0,-1,1371,498,0,0
154,526,0,0,0,0,0,0,0,0,0,-1,1378,498,0,0
161,526,0,0,0,0,0,0,0,0,0,-1,1385,498,0,0
168,526,0,0,0,0,0,0,0,0,0,-1,1392,498,0,0
175,526,0,0,0,0,0,0,0,0,0,-1,1399,498,0,0
182,526,0,0,0,0,0,0,0,0,0,-1,1406,498,0,0
189,526,0,0,0,0,0,0,0,0,0,-1,1413,498,0,0
196,526,0,0,0,0,0,0,0,0,0,-1,1420,498,0,0
203,526,0,0,0,0,0,0,0,0,0,-1,1427,498,0,0
210,526,0,0,0,0,0,0,0,0,0,-1,1434,498,0,0
217,526,0,0,0,0,0,0,0,0,0,-1,1441,498,0,0
224,526,0,0,0,0,0,0,0,0,0,-1,1448,498,0,0
231,526,7.93237,-1.30618,0,0,0,0,0,0,0,-1,1455,498,7.93238,1.30618
238,526,7.97717,-1.08197,0,0,0,0,0,0,0,-1,1462,498,7.97723,1.08196
245,526,7.2793,-0.792938,0,0,0,0,0,0,0,-1,1469,498,7.27931,0.792926
252,526,6.73523,-2.23608,0,0,0,0,0,0,0,-1,1476,498,6.73525,2.23608
259,526,6.22949,-1.84967,0,0,0,0,0,0,0,-1,1483,498,6.22953,1.84968
266,526,5.72375,-1.46329,0,0,0,0,0,0,0,-1,1490,498,5.72381,1.46328
273,526,4.33984,0.49173,0,0,0,0,0,0,0,-1,1497,498,4.33979,-0.491727
280,526,1.4585,-1.59897,0,0,0,0,0,0,0,-1,1504,498,1.45846,1.59895
287,526,1.46411,-2.40134,0,0,0,0,0,0,0,-1,1511,498,1.46406,2.40133
294,526,5.57471,-4.59085,0,0,0,0,0,0,0,-1,1518,498,5.57466,4.59084
301,526,4.42786,-3.99677,0,0,0,0,0,0,0,-1,1525,498,4.42788,3.99676
308,526,5.79529,-4.19366,0,0,0,0,0,0,0,-1,1532,498,5.79528,4.19368
315,526,5.09851,-5.20068,0,0,0,0,0,0,0,-1,1539,498,5.09851,5.20068
322,526,5.50708,-4.72348,0,0,0,0,0,0,0,-1,1546,498,5.50713,4.72347
329,526,3.88672,-4.345,0,0,0,0,0,0,0,-1,1553,498,3.88674,4.34501
336,526,4.97876,-2.23828,0,0,0,0,0,0,0,-1,1560,498,4.97877,2.23828
343,526,3.31665,-2.69696,0,0,0,0,0,0,0,-1,1567,498,3.31667,2.69696
350,526,6.06287,-6.12015,0,0,0,0,0,0,0,-1,1574,498,6.06286,6.12014
357,526,4.37854,-6.56735,0,0,0,0,0,0,0,-1,1581,498,4.37853,6.56736
364,526,4.22668,-6.24628,-0.007723,-0.00361986,-0.0147241,0.00919491,-0.0205378,-0.85462,0.0175776,0.0491171,1588,498,4.2267,6.24627
371,526,4.22656,-5.97217,-0.00706096,-0.00327956,-0.0126381,0.00760852,-0.017949,-0.859649,0.0151529,0.0463402,1595,498,4.2266,5.97216
378,526,3.65906,-6.10934,0,0,0,0,0,0,0,-1,1602,498,3.65912,6.10934
385,526,3.88452,-5.86884,-0.00574197,-0.00276595,-0.00892648,0.00479569,-0.0133036,-0.867987,0.0108276,0.045361,1609,498,3.88451,5.86883
392,526,3.9386,-5.57358,-0.00517855,-0.00248573,-0.00737728,0.003667,-0.0113313,-0.875659,0.00902827,0.0248863,1616,498,3.9386,5.57358
399,526,3.84705,-5.4039,-0.00446046,-0.00225791,-0.00604606,0.00278636,-0.00950472,-0.875484,0.00744124,0.0147283,1623,498,3.84708,5.40389
406,526,3.88635,-5.22852,-0.0036793,-0.00172168,-0.00482524,0.00222302,-0.007624,-0.885466,0.00596343,0.011234,1630,498,3.88635,5.22851
413,526,3.89233,-5.06671,-0.00290369,-0.00113289,-0.00368371,0.00177032,-0.00580691,-0.903339,0.00457696,0.0118402,1637,498,3.89228,5.06672
420,526,3.88342,-4.90033,-0.00228542,-0.000961201,-0.00284006,0.00129291,-0.00453953,-0.899919,0.00353699,0.0127362,1644,498,3.88342,4.90033
427,526,3.89807,-4.73682,-0.00172309,-0.000725515,-0.00204664,0.000882244,-0.00333085,-0.904923,0.00256571,0.0134041,1651,498,3.89803,4.73682
434,526,3.88647,-4.57471,-0.00103952,-0.000166573,-0.00162583,0.00108035,-0.00228644,-0.916537,0.00198496,0.0125703,1658,498,3.88651,4.5747
441,526,3.88623,-4.39511,-0.000177524,0.000181915,-0.00139704,0.00141074,-0.00140635,-0.849369,0.00162645,0.0113485,1665,498,3.88625,4.39511
448,526,3.90503,-4.25327,0.000849049,0.000535304,-0.00126304,0.00196492,-0.000580564,-0.723613,0.00154038,0.0105408,1672,498,3.90507,4.25325
455,526,3.90271,-4.10046,0.00187309,0.000723515,-0.00123218,0.00265795,-6.13448e-05,-0.567161,0.00179276,0.0130912,1679,498,3.90265,4.10045
462,526,3.89783,-3.92099,0.00307859,0.0013837,-0.00157022,0.00401545,0.00044684,-0.537947,0.00254115,0.00990175,1686,498,3.89784,3.92099
469,526,3.90833,-3.75793,0.00435554,0.0020487,-0.00208884,0.00558825,0.000815988,-0.53314,0.00348549,0.00733815,1693,498,3.90827,3.75792
476,526,3.9093,-3.58984,0.00574004,0.0026729,-0.00286576,0.00745677,0.000956177,-0.539718,0.00468509,0.00857199,1700,498,3.90931,3.58985
483,526,3.90991,-3.3797,0.00725166,0.00359136,-0.00386482,0.00969776,0.00114527,-0.564269,0.00611924,0.00969915,1707,498,3.90991,3.37971
490,526,3.93945,-3.16983,0.00880345,0.00481887,-0.00503271,0.0122239,0.00139845,-0.596929,0.0077254,0.0158403,1714,498,3.93946,3.16982
497,526,3.88696,-3.07971,0.0102926,0.0066629,-0.00633483,0.0150674,0.00188809,-0.64589,0.00947848,0.02151,1721,498,3.88695,3.07971
504,526,3.93091,-3.01047,0,0,0,0,0,0,0,-1,1728,498,3.93094,3.01047
511,526,4.06433,-2.81839,0,0,0,0,0,0,0,-1,1735,498,4.06439,2.81838
518,526,3.86304,-3.01636,0,0,0,0,0,0,0,-1,1742,498,3.86303,3.01635
525,526,2.98242,-3.75757,0,0,0,0,0,0,0,-1,1749,498,2.98243,3.75757
532,526,3.54285,-2.81274,0,0,0,0,0,0,0,-1,1756,498,3.54284,2.81273
539,526,3.29407,0.932312,0,0,0,0,0,0,0,-1,1763,498,3.2941,-0.93232
546,526,3.36731,1.07721,0,0,0,0,0,0,0,-1,1770,498,3.36735,-1.07719
553,526,3.40796,1.37137,0,0,0,0,0,0,0,-1,1777,498,3.40792,-1.37138
560,526,0,0,0,0,0,0,0,0,0,-1,1784,498,0,0
567,526,0,0,0,0,0,0,0,0,0,-1,1791,498,0,0
574,526,0,0,0,0,0,0,0,0,0,-1,1798,498,0,0
581,526,0,0,0,0,0,0,0,0,0,-1,1805,498,0,0
588,526,0,0,0,0,0,0,0,0,0,-1,1812,498,0,0
595,526,0,0,0,0,0,0,0,0,0,-1,1819,498,0,0
602,526,0,0,0,0,0,0,0,0,0,-1,1826,498,0,0
609,526,0,0,0,0,0,0,0,0,0,-1,1833,498,0,0
616,526,0,0,0,0,0,0,0,0,0,-1,1840,498,0,0
623,526,0,0,0,0,0,0,0,0,0,-1,1847,498,0,0
630,526,0,0,0,0,0,0,0,0,0,-1,1854,498,0,0
637,526,0,0,0,0,0,0,0,0,0,-1,1861,498,0,0
644,526,0,0,0,0,0,0,0,0,0,-1,1868,498,0,0
651,526,0,0,0,0,0,0,0,0,0,-1,1875,498,0,0
658,526,0,0,0,0,0,0,0,0,0,-1,1882,498,0,0
665,526,0,0,0,0,0,0,0,0,0,-1,1889,498,0,0
672,526,0,0,0,0,0,0,0,0,0,-1,1896,498,0,0
679,526,0,0,0,0,0,0,0,0,0,-1,1903,498,0,0
686,526,0,0,0,0,0,0,0,0,0,-1,1910,498,0,0
693,526,0,0,0,0,0,0,0,0,0,-1,1917,498,0,0
700,526,0,0,0,0,0,0,0,0,0,-1,1924,498,0,0
707,526,0,0,0,0,0,0,0,0,0,-1,1931,498,0,0
714,526,0,0,0,0,0,0,0,0,0,-1,1938,498,0,0
721,526,0,0,0,0,0,0,0,0,0,-1,1945,498,0,0
728,526,0,0,0,0,0,0,0,0,0,-1,1952,498,0,0
735,526,0,0,0,0,0,0,0,0,0,-1,1959,498,0,0
742,526,0,0,0,0,0,0,0,0,0,-1,1966,498,0,0
749,526,0,0,0,0,0,0,0,0,0,-1,1973,498,0,0
756,526,0,0,0,0,0,0,0,0,0,-1,1980,498,0,0
763,526,0,0,0,0,0,0,0,0,0,-1,1987,498,0,0
770,526,0,0,0,0,0,0,0,0,0,-1,1994,498,0,0
777,526,0,0,0,0,0,0,0,0,0,-1,2001,498,0,0
784,526,0,0,0,0,0,0,0,0,0,-1,2008,498,0,0
791,526,0,0,0,0,0,0,0,0,0,-1,2015,498,0,0
798,526,0,0,0,0,0,0,0,0,0,-1,2022,498,0,0
805,526,0,0,0,0,0,0,0,0,0,-1,2029,498,0,0
812,526,0,0,0,0,0,0,0,0,0,-1,2036,498,0,0
-700,519,0,0,0,0,0,0,0,0,0,-1,524,505,0,0
-693,519,0,0,0,0,0,0,0,0,0,-1,531,505,0,0
-686,519,0,0,0,0,0,0,0,0,0,-1,538,505,0,0
-679,519,0,0,0,0,0,0,0,0,0,-1,545,505,0,0
-672,519,0,0,0,0,0,0,0,0,0,-1,552,505,0,0
-665,519,0,0,0,0,0,0,0,0,0,-1,559,505,0,0
-658,519,0,0,0,0,0,0,0,0,0,-1,566,505,0,0
-651,519,0,0,0,0,0,0,0,0,0,-1,573,505,0,0
-644,519,0,0,0,0,0,0,0,0,0,-1,580,505,0,0
-637,519,0,0,0,0,0,0,0,0,0,-1,587,505,0,0
-630,519,0,0,0,0,0,0,0,0,0,-1,594,505,0,0
-623,519,0,0,0,0,0,0,0,0,0,-1,601,505,0,0
-616,519,0,0,0,0,0,0,0,0,0,-1,608,505,0,0
-609,519,0,0,0,0,0,0,0,0,0,-1,615,505,0,0
-602,519,0,0,0,0,0,0,0,0,0,-1,622,505,0,0
-595,519,0,0,0,0,0,0,0,0,0,-1,629,505,0,0
-588,519,0,0,0,0,0,0,0,0,0,-1,636,505,0,0
-581,519,0,0,0,0,0,0,0,0,0,-1,643,505,0,0
-574,519,0,0,0,0,0,0,0,0,0,-1,650,505,0,0
-567,519,0,0,0,0,0,0,0,0,0,-1,657,505,0,0
-560,519,0,0,0,0,0,0,0,0,0,-1,664,505,0,0
-553,519,0,0,0,0,0,0,0,0,0,-1,671,505,0,0
-546,519,0,0,0,0,0,0,0,0,0,-1,678,505,0,0
-539,519,0,0,0,0,0,0,0,0,0,-1,685,505,0,0
-532,519,0,0,0,0,0,0,0,0,0,-1,692,505,0,0
-525,519,0,0,0,0,0,0,0,0,0,-1,699,505,0,0
-518,519,0,0,0,0,0,0,0,0,0,-1,706,505,0,0
-511,519,0,0,0,0,0,0,0,0,0,-1,713,505,0,0
-504,519,0,0,0,0,0,0,0,0,0,-1,720,505,0,0
-497,519,0,0,0,0,0,0,0,0,0,-1,727,505,0,0
-490,519,0,0,0,0,0,0,0,0,0,-1,734,505,0,0
-483,519,0,0,0,0,0,0,0,0,0,-1,741,505,0,0
-476,519,0,0,0,0,0,0,0,0,0,-1,748,505,0,0
-469,519,0,0,0,0,0,0,0,0,0,-1,755,505,0,0
-462,519,0,0,0,0,0,0,0,0,0,-1,762,505,0,0
-455,519,0,0,0,0,0,0,0,0,0,-1,769,505,0,0
-448,519,0,0,0,0,0,0,0,0,0,-1,776,505,0,0
-441,519,3.11029,-4.43204,0,0,0,0,0,0,0,-1,783,505,3.11027,4.43204
-434,519,2.73761,-4.07739,0.0312955,0.029521,0.0245258,0.0549501,0.00586635,0.767318,0.034843,0.0443232,790,505,2.73758,4.0774
-427,519,2.3866,-3.57907,0.016161,0.0238765,0.0262393,0.0465401,-0.00650264,0.858387,0.0334059,0.0495684,797,505,2.38658,3.57908
-420,519,1.76398,-3.42145,0.0055276,0.0180616,0.0261442,0.0386794,-0.0150902,0.903033,0.0320242,0.0469662,804,505,1.76399,3.42145
-413,519,1.0379,-4.3548,0,0,0,0,0,0,0,-1,811,505,1.03791,4.35478
-406,519,0.658936,-2.68753,0,0,0,0,0,0,0,-1,818,505,0.658948,2.68752
-399,519,0.211304,-3.23721,-0.00855559,0.00518839,0.0204095,0.0198518,-0.023219,0.947789,0.0248923,0.0486323,825,505,0.2113,3.23721
-392,519,0.0244751,-3.72339,-0.00850847,0.00198275,0.0172574,0.0147742,-0.0212999,0.932942,0.0209407,0.0474531,832,505,0.024462,3.72339
-385,519,-0.152283,-3.96481,-0.00786545,0.000422773,0.014146,0.0110192,-0.0184619,0.927887,0.0172008,0.0404212,839,505,-0.152288,3.9648
-378,519,0.141357,-4.14792,-0.00639571,-0.000540579,0.010339,0.00727732,-0.0142136,0.923366,0.0126214,0.0291226,846,505,0.141371,4.14792
-371,519,0.230591,-4.29257,-0.00439374,-0.00183668,0.00772261,0.00471252,-0.0109429,0.867433,0.00927421,0.0185595,853,505,0.230576,4.29256
-364,519,0.200134,-4.43127,-0.00222124,-0.00375013,0.00563854,0.00270444,-0.00867581,0.718022,0.00686527,0.0119985,860,505,0.200136,4.43126
-357,519,0.194641,-4.6152,-0.000736736,-0.00258664,0.00395445,0.0023995,-0.00572287,0.670513,0.00481852,0.0100605,867,505,0.194636,4.6152
-350,519,0.203308,-4.785,0.000316032,-0.00113761,0.00220961,0.00191529,-0.00273686,0.626504,0.00269985,0.0122059,874,505,0.203329,4.78501
-343,519,0.207825,-4.92697,0.000701702,-0.000221571,0.00115686,0.00148563,-0.0010055,0.595557,0.00144713,0.0141165,881,505,0.207806,4.92697
-336,519,0.192993,-5.07599,0.000837866,7.89469e-05,0.000389836,0.00100243,-8.56172e-05,0.399443,0.000698577,0.0123313,888,505,0.193019,5.07598
-329,519,0.185669,-5.22452,0.000658062,-4.84846e-05,0.000133707,0.000682519,-7.29409e-05,0.180909,0.000481172,0.0110395,895,505,0.185684,5.22451
-322,519,0.197937,-5.38406,0.000266153,-9.61951e-06,0.000214676,0.000383411,-0.000126877,0.499927,0.000306774,0.0102777,902,505,0.197929,5.38405
-315,519,0.214233,-5.53415,6.28502e-05,-1.49117e-05,0.000161924,0.000190496,-0.000142557,0.66757,0.000192951,0.00910521,909,505,0.214204,5.53415
-308,519,0.210205,-5.68994,0.00056347,-0.000226034,0.000185234,0.000604769,-0.000267333,0.21937,0.000515919,0.00770106,916,505,0.210229,5.68995
-301,519,0.18158,-5.85471,0.00103093,-0.000433764,0.000405548,0.00113572,-0.000538555,0.252864,0.000986928,0.0120168,923,505,0.181574,5.8547
-294,519,0.177734,-5.96783,0.00175321,-0.000682555,0.000575733,0.00188243,-0.000811783,0.220799,0.00159592,0.015144,930,505,0.177742,5.96783
-287,519,0.167297,-6.08859,0.0027465,-0.000878948,0.00066584,0.00286492,-0.000997366,0.176008,0.00231516,0.0102474,937,505,0.16729,6.08858
-280,519,0.173828,-6.25458,0.00411238,-0.00131598,0.000551952,0.00416793,-0.00137154,0.100311,0.00333128,0.013302,944,505,0.173838,6.25458
-273,519,0.217163,-6.42139,0.00594793,-0.00165579,4.00839e-05,0.00594814,-0.001656,0.00527143,0.00461749,0.0184762,951,505,0.217162,6.4214
-266,519,0.20813,-6.56079,0.0079092,-0.00140072,-0.000801798,0.00797775,-0.00146927,-0.0852861,0.00586988,0.0258779,958,505,0.208126,6.56079
-259,519,0.270691,-6.61874,0.00996842,-0.000343931,-0.00220729,0.010421,-0.000796523,-0.202241,0.0072275,0.0452826,965,505,0.270702,6.61875
-252,519,0.234558,-6.7713,0,0,0,0,0,0,0,-1,972,505,0.234569,6.77131
-245,519,0.289368,-7.0343,0,0,0,0,0,0,0,-1,979,505,0.28935,7.03427
-238,519,0.479553,-7.37085,0,0,0,0,0,0,0,-1,986,505,0.479533,7.37083
-231,519,0.416809,-6.96341,0,0,0,0,0,0,0,-1,993,505,0.416793,6.96342
-224,519,0.609131,-7.28473,0,0,0,0,0,0,0,-1,1000,505,0.609146,7.28473
-217,519,-2.97125,-4.84393,0,0,0,0,0,0,0,-1,1007,505,-2.97128,4.84393
-210,519,-2.14398,-4.74774,0,0,0,0,0,0,0,-1,1014,505,-2.14397,4.74775
-203,519,-0.513611,-5.39017,0,0,0,0,0,0,0,-1,1021,505,-0.513585,5.39017
-196,519,-0.374023,-5.41635,0,0,0,0,0,0,0,-1,1028,505,-0.374047,5.41635
-189,519,-0.234497,-5.44254,0,0,0,0,0,0,0,-1,1035,505,-0.234508,5.44253
-182,519,2.76697,-1.19659,0,0,0,0,0,0,0,-1,1042,505,2.76696,1.19661
-175,519,2.31323,-0.960938,0,0,0,0,0,0,0,-1,1049,505,2.31319,0.960941
-168,519,2.07849,-0.696259,0,0,0,0,0,0,0,-1,1056,505,2.07853,0.696256
-161,519,2.32056,-0.522339,0,0,0,0,0,0,0,-1,1063,505,2.32057,0.522328
-154,519,2.55566,0.116669,0,0,0,0,0,0,0,-1,1070,505,2.55563,-0.116661
-147,519,1.20239,-3.77567,0,0,0,0,0,0,0,-1,1077,505,1.20242,3.77568
-140,519,2.0553,-3.98102,0,0,0,0,0,0,0,-1,1084,505,2.05531,3.98103
-133,519,2.70911,-4.4516,0,0,0,0,0,0,0,-1,1091,505,2.70915,4.45161
-126,519,0,0,0,0,0,0,0,0,0,-1,1098,505,0,0
-119,519,0,0,0,0,0,0,0,0,0,-1,1105,505,0,0
-112,519,0,0,0,0,0,0,0,0,0,-1,1112,505,0,0
-105,519,0,0,0,0,0,0,0,0,0,-1,1119,505,0,0
-98,519,0,0,0,0,0,0,0,0,0,-1,1126,505,0,0
-91,519,0,0,0,0,0,0,0,0,0,-1,1133,505,0,0
-84,519,0,0,0,0,0,0,0,0,0,-1,1140,505,0,0
-77,519,0,0,0,0,0,0,0,0,0,-1,1147,505,0,0
-70,519,0,0,0,0,0,0,0,0,0,-1,1154,505,0,0
-63,519,0,0,0,0,0,0,0,0,0,-1,1161,505,0,0
-56,519,0,0,0,0,0,0,0,0,0,-1,1168,505,0,0
-49,519,0,0,0,0,0,0,0,0,0,-1,1175,505,0,0
-42,519,0,0,0,0,0,0,0,0,0,-1,1182,505,0,0
-35,519,0,0,0,0,0,0,0,0,0,-1,1189,505,0,0
-28,519,0,0,0,0,0,0,0,0,0,-1,1196,505,0,0
-21,519,0,0,0,0,0,0,0,0,0,-1,1203,505,0,0
-14,519,0,0,0,0,0,0,0,0,0,-1,1210,505,0,0
-7,519,0,0,0,0,0,0,0,0,0,-1,1217,505,0,0
0,519,0,0,0,0,0,0,0,0,0,-1,1224,505,0,0
7,519,0,0,0,0,0,0,0,0,0,-1,1231,505,0,0
14,519,0,0,0,0,0,0,0,0,0,-1,1238,505,0,0
21,519,0,0,0,0,0,0,0,0,0,-1,1245,505,0,0
28,519,0,0,0,0,0,0,0,0,0,-1,1252,505,0,0
35,519,0,0,0,0,0,0,0,0,0,-1,1259,505,0,0
42,519,0,0,0,0,0,0,0,0,0,-1,1266,505,0,0
49,519,0,0,0,0,0,0,0,0,0,-1,1273,505,0,0
56,519,0,0,0,0,0,0,0,0,0,-1,1280,505,0,0
63,519,0,0,0,0,0,0,0,0,0,-1,1287,505,0,0
70,519,0,0,0,0,0,0,0,0,0,-1,1294,505,0,0
77,519,0,0,0,0,0,0,0,0,0,-1,1301,505,0,0
84,519,0,0,0,0,0,0,0,0,0,-1,1308,505,0,0
91,519,0,0,0,0,0,0,0,0,0,-1,1315,505,0,0
98,519,0,0,0,0,0,0,0,0,0,-1,1322,505,0,0
105,519,0,0,0,0,0,0,0,0,0,-1,1329,505,0,0
112,519,0,0,0,0,0,0,0,0,0,-1,1336,505,0,0
119,519,0,0,0,0,0,0,0,0,0,-1,1343,505,0,0
126,519,0,0,0,0,0,0,0,0,0,-1,1350,505,0,0
133,519,0,0,0,0,0,0,0,0,0,-1,1357,505,0,0
140,519,0,0,0,0,0,0,0,0,0,-1,1364,505,0,0
147,519,0,0,0,0,0,0,0,0,0,-1,1371,505,0,0
154,519,0,0,0,0,0,0,0,0,0,-1,1378,505,0,0
161,519,0,0,0,0,0,0,0,0,0,-1,1385,505,0,0
168,519,0,0,0,0,0,0,0,0,0,-1,1392,505,0,0
175,519,0,0,0,0,0,0,0,0,0,-1,1399,505,0,0
182,519,0,0,0,0,0,0,0,0,0,-1,1406,505,0,0
189,519,0,0,0,0,0,0,0,0,0,-1,1413,505,0,0
196,519,0,0,0,0,0,0,0,0,0,-1,1420,505,0,0
203,519,0,0,0,0,0,0,0,0,0,-1,1427,505,0,0
210,519,0,0,0,0,0,0,0,0,0,-1,1434,505,0,0
217,519,0,0,0,0,0,0,0,0,0,-1,1441,505,0,0
224,519,0,0,0,0,0,0,0,0,0,-1,1448,505,0,0
231,519,0,0,0,0,0,0,0,0,0,-1,1455,505,0,0
238,519,0,0,0,0,0,0,0,0,0,-1,1462,505,0,0
245,519,0,0,0,0,0,0,0,0,0,-1,1469,505,0,0
252,519,5.26208,0.0938416,0,0,0,0,0,0,0,-1,1476,505,5.26207,-0.0938493
259,519,6.14246,-1.36441,0,0,0,0,0,0,0,-1,1483,505,6.14241,1.36441
266,519,5.31909,-0.400787,0,0,0,0,0,0,0,-1,1490,505,5.31912,0.400773
273,519,4.02393,0.325531,0,0,0,0,0,0,0,-1,1497,505,4.0239,-0.325522
280,519,4.68848,0.53006,0,0,0,0,0,0,0,-1,1504,505,4.68842,-0.530073
287,519,7.9519,-3.80801,0,0,0,0,0,0,0,-1,1511,505,7.95193,3.808
294,519,6.92273,-3.38889,0,0,0,0,0,0,0,-1,1518,505,6.92268,3.38888
301,519,5.35669,-2.92661,0,0,0,0,0,0,0,-1,1525,505,5.35675,2.9266
308,519,7.37549,-5.64529,0,0,0,0,0,0,0,-1,1532,505,7.3755,5.64529
315,519,6.30029,-4.53754,0,0,0,0,0,0,0,-1,1539,505,6.30024,4.53753
322,519,5.84302,-5.45117,0,0,0,0,0,0,0,-1,1546,505,5.84303,5.45116
329,519,4.92407,0.62384,0,0,0,0,0,0,0,-1,1553,505,4.92403,-0.623832
336,519,3.10095,-0.329285,0,0,0,0,0,0,0,-1,1560,505,3.1009,0.329283
343,519,2.49146,-2.31119,0,0,0,0,0,0,0,-1,1567,505,2.49145,2.31119
350,519,3.47729,-2.22516,0,0,0,0,0,0,0,-1,1574,505,3.47726,2.22515
357,519,4.51917,-4.51691,0,0,0,0,0,0,0,-1,1581,505,4.51914,4.51691
364,519,4.52515,-6.33893,0,0,0,0,0,0,0,-1,1588,505,4.52516,6.33894
371,519,4.80054,-6.21454,-0.00964564,-0.00429374,-0.0165015,0.00974736,-0.0236867,-0.865781,0.0198545,0.0465266,1595,505,4.80057,6.21453
378,519,4.88977,-6.20718,0,0,0,0,0,0,0,-1,1602,505,4.88973,6.20718
385,519,4.0415,-6.12933,0,0,0,0,0,0,0,-1,1609,505,4.04151,6.12933
392,519,4.23267,-5.41763,-0.00714646,-0.00354031,-0.00972839,0.00455069,-0.0152375,-0.877029,0.0119672,0.0379183,1616,505,4.23268,5.41763
399,519,4.07983,-5.32407,-0.00617886,-0.00318858,-0.0079843,0.00343936,-0.0128068,-0.877956,0.00988581,0.0276699,1623,505,4.07988,5.32406
406,519,4.0614,-5.23151,-0.0051396,-0.00245226,-0.00644016,0.00278292,-0.0103748,-0.888242,0.00800701,0.0171364,1630,505,4.06144,5.23152
413,519,4.07227,-5.05756,-0.00410287,-0.00174443,-0.00496911,0.00218346,-0.00803076,-0.901898,0.00621094,0.0125767,1637,505,4.0723,5.05755
420,519,4.05505,-4.88123,-0.00331739,-0.00148232,-0.00385234,0.00156024,-0.00635996,-0.902308,0.00484454,0.014256,1644,505,4.05499,4.88123
427,519,4.06799,-4.75336,-0.00270349,-0.0011865,-0.0027864,0.000942797,-0.00483279,-0.918285,0.00357777,0.0130901,1651,505,4.06804,4.75336
434,519,4.05774,-4.59128,-0.00195738,-0.000516888,-0.00215487,0.00103492,-0.00350919,-0.946682,0.00275013,0.0123717,1658,505,4.05769,4.59128
441,519,4.04968,-4.41263,-0.00118259,-7.29361e-05,-0.0016875,0.0011486,-0.00240413,-0.944224,0.00209343,0.0123306,1665,505,4.04969,4.41261
448,519,4.06189,-4.26233,-0.000310021,0.000398853,-0.00123767,0.00133184,-0.00124301,-0.924853,0.00148688,0.009537,1672,505,4.06195,4.26233
455,519,4.05981,-4.11145,0.000534324,0.000637658,-0.00092297,0.00151041,-0.000338424,-0.813359,0.00113666,0.010353,1679,505,4.0598,4.11145
462,519,4.05762,-3.93796,0.00151589,0.001139,-0.000929815,0.00227617,0.000378728,-0.685417,0.00140828,0.00945744,1686,505,4.05764,3.93797
469,519,4.07239,-3.75528,0.00250933,0.00163916,-0.00116378,0.0033167,0.000831797,-0.606516,0.0019926,0.00943933,1693,505,4.07243,3.75528
476,519,4.08398,-3.57181,0.00353711,0.00211706,-0.00161777,0.00459381,0.00106037,-0.578609,0.0027774,0.0115689,1700,505,4.08392,3.57182
483,519,4.07532,-3.39462,0.00465917,0.00283059,-0.00227378,0.00619559,0.00129416,-0.59424,0.00377371,0.0127319,1707,505,4.07526,3.39463
490,519,4.06763,-3.19858,0.00581181,0.00373076,-0.00305941,0.00800279,0.00153977,-0.621481,0.0049032,0.0108085,1714,505,4.06758,3.19858
497,519,4.05115,-3.03891,0.00687107,0.00509304,-0.00394827,0.0100292,0.00193493,-0.674662,0.00614357,0.0126061,1721,505,4.0511,3.0389
504,519,4.04163,-2.87881,0.00784815,0.00687288,-0.00479505,0.0121803,0.00254074,-0.734724,0.00741973,0.0129041,1728,505,4.04163,2.8788
511,519,4.08423,-2.72546,0.00892018,0.00910443,-0.00570894,0.014722,0.00330262,-0.793466,0.00891996,0.0173578,1735,505,4.08426,2.72547
518,519,4.04077,-2.65414,0.00987341,0.0116442,-0.00656582,0.0173841,0.00413357,-0.85242,0.0104867,0.0367493,1742,505,4.04073,2.65416
525,519,4.09888,-2.57007,0,0,0,0,0,0,0,-1,1749,505,4.09884,2.57005
532,519,3.5155,-2.86511,0,0,0,0,0,0,0,-1,1756,505,3.51554,2.8651
539,519,3.30005,0.0229797,0,0,0,0,0,0,0,-1,1763,505,3.30008,-0.0229869
546,519,4.62024,-2.89774,0,0,0,0,0,0,0,-1,1770,505,4.62023,2.89775
553,519,4.14136,0.0667419,0,0,0,0,0,0,0,-1,1777,505,4.14141,-0.0667503
560,519,3.77856,0.279724,0,0,0,0,0,0,0,-1,1784,505,3.77861,-0.279731
567,519,0,0,0,0,0,0,0,0,0,-1,1791,505,0,0
574,519,0,0,0,0,0,0,0,0,0,-1,1798,505,0,0
581,519,0,0,0,0,0,0,0,0,0,-1,1805,505,0,0
588,519,0,0,0,0,0,0,0,0,0,-1,1812,505,0,0
595,519,0,0,0,0,0,0,0,0,0,-1,1819,505,0,0
602,519,0,0,0,0,0,0,0,0,0,-1,1826,505,0,0
609,519,0,0,0,0,0,0,0,0,0,-1,1833,505,0,0
616,519,0,0,0,0,0,0,0,0,0,-1,1840,505,0,0
623,519,0,0,0,0,0,0,0,0,0,-1,1847,505,0,0
630,519,0,0,0,0,0,0,0,0,0,-1,1854,505,0,0
637,519,0,0,0,0,0,0,0,0,0,-1,1861,505,0,0
644,519,0,0,0,0,0,0,0,0,0,-1,1868,505,0,0
651,519,0,0,0,0,0,0,0,0,0,-1,1875,505,0,0
658,519,0,0,0,0,0,0,0,0,0,-1,1882,505,0,0
665,519,0,0,0,0,0,0,0,0,0,-1,1889,505,0,0
672,519,0,0,0,0,0,0,0,0,0,-1,1896,505,0,0
679,519,0,0,0,0,0,0,0,0,0,-1,1903,505,0,0
686,519,0,0,0,0,0,0,0,0,0,-1,1910,505,0,0
693,519,0,0,0,0,0,0,0,0,0,-1,1917,505,0,0
700,519,0,0,0,0,0,0,0,0,0,-1,1924,505,0,0
707,519,0,0,0,0,0,0,0,0,0,-1,1931,505,0,0
714,519,0,0,0,0,0,0,0,0,0,-1,1938,505,0,0
721,519,0,0,0,0,0,0,0,0,0,-1,1945,505,0,0
728,519,0,0,0,0,0,0,0,0,0,-1,1952,505,0,0
735,519,0,0,0,0,0,0,0,0,0,-1,1959,505,0,0
742,519,0,0,0,0,0,0,0,0,0,-1,1966,505,0,0
749,519,0,0,0,0,0,0,0,0,0,-1,1973,505,0,0
756,519,0,0,0,0,0,0,0,0,0,-1,1980,505,0,0
763,519,0,0,0,0,0,0,0,0,0,-1,1987,505,0,0
770,519,0,0,0,0,0,0,0,0,0,-1,1994,505,0,0
777,519,0,0,0,0,0,0,0,0,0,-1,2001,505,0,0
784,519,0,0,0,0,0,0,0,0,0,-1,2008,505,0,0
791,519,0,0,0,0,0,0,0,0,0,-1,2015,505,0,0
798,519,0,0,0,0,0,0,0,0,0,-1,2022,505,0,0
805,519,0,0,0,0,0,0,0,0,0,-1,2029,505,0,0
812,519,0,0,0,0,0,0,0,0,0,-1,2036,505,0,0
-700,512,0,0,0,0,0,0,0,0,0,-1,524,512,0,0
-693,512,0,0,0,0,0,0,0,0,0,-1,531,512,0,0
-686,512,0,0,0,0,0,0,0,0,0,-1,538,512,0,0
-679,512,0,0,0,0,0,0,0,0,0,-1,545,512,0,0
-672,512,0,0,0,0,0,0,0,0,0,-1,552,512,0,0
-665,512,0,0,0,0,0,0,0,0,0,-1,559,512,0,0
-658,512,0,0,0,0,0,0,0,0,0,-1,566,512,0,0
-651,512,0,0,0,0,0,0,0,0,0,-1,573,512,0,0
-644,512,0,0,0,0,0,0,0,0,0,-1,580,512,0,0
-637,512,0,0,0,0,0,0,0,0,0,-1,587,512,0,0
-630,512,0,0,0,0,0,0,0,0,0,-1,594,512,0,0
-623,512,0,0,0,0,0,0,0,0,0,-1,601,512,0,0
-616,512,0,0,0,0,0,0,0,0,0,-1,608,512,0,0
-609,512,0,0,0,0,0,0,0,0,0,-1,615,512,0,0
-602,512,0,0,0,0,0,0,0,0,0,-1,622,512,0,0
-595,512,0,0,0,0,0,0,0,0,0,-1,629,512,0,0
-588,512,0,0,0,0,0,0,0,0,0,-1,636,512,0,0
-581,512,0,0,0,0,0,0,0,0,0,-1,643,512,0,0
-574,512,0,0,0,0,0,0,0,0,0,-1,650,512,0,0
-567,512,0,0,0,0,0,0,0,0,0,-1,657,512,0,0
-560,512,0,0,0,0,0,0,0,0,0,-1,664,512,0,0
-553,512,0,0,0,0,0,0,0,0,0,-1,671,512,0,0
-546,512,0,0,0,0,0,0,0,0,0,-1,678,512,0,0
-539,512,0,0,0,0,0,0,0,0,0,-1,685,512,0,0
-532,512,0,0,0,0,0,0,0,0,0,-1,692,512,0,0
-525,512,0,0,0,0,0,0,0,0,0,-1,699,512,0,0
-518,512,0,0,0,0,0,0,0,0,0,-1,706,512,0,0
-511,512,0,0,0,0,0,0,0,0,0,-1,713,512,0,0
-504,512,0,0,0,0,0,0,0,0,0,-1,720,512,0,0
-497,512,0,0,0,0,0,0,0,0,0,-1,727,512,0,0
-490,512,0,0,0,0,0,0,0,0,0,-1,734,512,0,0
-483,512,0,0,0,0,0,0,0,0,0,-1,741,512,0,0
-476,512,0,0,0,0,0,0,0,0,0,-1,748,512,0,0
-469,512,0,0,0,0,0,0,0,0,0,-1,755,512,0,0
-462,512,0,0,0,0,0,0,0,0,0,-1,762,512,0,0
-455,512,0,0,0,0,0,0,0,0,0,-1,769,512,0,0
-448,512,-1.57416,-1.1181,0,0,0,0,0,0,0,-1,776,512,-1.57417,1.11813
-441,512,2.80768,-3.99408,0,0,0,0,0,0,0,-1,783,512,2.80769,3.99407
-434,512,2.19012,-3.79993,0.0404114,0.0191345,0.0147506,0.0479596,0.0115863,0.472985,0.0288959,0.0448118,790,512,2.19015,3.79994
-427,512,1.9209,-3.61914,0.0241998,0.0155825,0.0173396,0.0377581,0.00202426,0.663621,0.0245251,0.046764,797,512,1.92093,3.61915
-420,512,1.5481,-3.5528,0.0120567,0.0119391,0.0181532,0.0301512,-0.00615532,0.783779,0.0224358,0.0446726,804,512,1.54811,3.55278
-413,512,1.1153,-3.47296,0.00336909,0.00870178,0.0177631,0.0239975,-0.0119267,0.859895,0.0211275,0.0431459,811,512,1.11529,3.47297
-406,512,0.672852,-3.45288,-0.00260029,0.00593572,0.0166689,0.0188743,-0.0155389,0.910729,0.0198995,0.0440785,818,512,0.672859,3.45285
-399,512,0.307373,-3.6507,-0.00559096,0.00361056,0.0146021,0.0143195,-0.0162999,0.938013,0.0176905,0.0436202,825,512,0.307395,3.6507
-392,512,0.0510254,-3.83856,-0.00635315,0.00123112,0.0120616,0.0100827,-0.0152047,0.937705,0.0146992,0.0328416,832,512,0.051053,3.83854
-385,512,0.0787354,-3.94476,-0.00651528,0.000171001,0.00972342,0.00710996,-0.0134542,0.950979,0.0120596,0.0163776,839,512,0.0787498,3.94479
-378,512,0.0772095,-4.0968,-0.00575586,-0.000536212,0.00670242,0.00404658,-0.0103386,0.971059,0.00856604,0.0125933,846,512,0.0771916,4.09677
-371,512,0.0751953,-4.27118,-0.00420769,-0.00155341,0.00469538,0.00199879,-0.00775988,0.923129,0.00595245,0.0111034,853,512,0.0751783,4.27115
-364,512,0.0727539,-4.45367,-0.00234829,-0.00299706,0.0033241,0.000667215,-0.00601257,0.736759,0.00424829,0.00952465,860,512,0.0727802,4.4537
-357,512,0.0634155,-4.60767,-0.000982455,-0.00210133,0.00224971,0.000776328,-0.00386011,0.663535,0.00286743,0.0106659,867,512,0.0633919,4.60766
-350,512,0.0767212,-4.78149,-5.16907e-05,-0.000967707,0.00106507,0.000649671,-0.00166907,0.582338,0.00138118,0.0111268,874,512,0.0767258,4.78152
-343,512,0.0684204,-4.93701,0.000284556,-0.000229993,0.000459617,0.000554006,-0.000499442,0.530246,0.00060848,0.0109838,881,512,0.0684329,4.93704
-336,512,0.0478516,-5.07361,0.000436634,4.91902e-05,7.6114e-05,0.00045105,3.47739e-05,0.187187,0.000289805,0.0101889,888,512,0.0478686,5.0736
-329,512,0.0386353,-5.23224,0.000402456,5.70626e-05,1.71729e-05,0.000403308,5.62109e-05,0.0495569,0.000252231,0.0103648,895,512,0.0386138,5.23223
-322,512,0.0445557,-5.40253,0.000259449,6.25885e-05,0.000111261,0.00030957,1.24674e-05,0.423255,0.000202353,0.00936049,902,512,0.0445496,5.4025
-315,512,0.0663452,-5.55402,0.000646309,2.24447e-06,-2.41553e-05,0.000647214,1.33982e-06,-0.0374344,0.00043103,0.00962998,909,512,0.0663205,5.55401
-308,512,0.0632935,-5.69775,0.0023778,-0.00041145,-0.000200375,0.00239212,-0.000425771,-0.0713501,0.00175398,0.0103052,916,512,0.0632989,5.69774
-301,512,0.041626,-5.84851,0.00394674,-0.000853806,-0.00028783,0.00396394,-0.000871002,-0.0596729,0.00297576,0.0152511,923,512,0.0416347,5.84852
-294,512,0.0472412,-5.97522,0.00619527,-0.00146307,-0.000522121,0.0062307,-0.00149851,-0.0677589,0.00473305,0.0143378,930,512,0.047245,5.97523
-287,512,-0.003479,-6.06403,0.0092231,-0.00214961,-0.000957855,0.00930321,-0.00222972,-0.0834406,0.00706368,0.0171288,937,512,-0.003456,6.06402
-280,512,0.0778809,-6.26312,0.0130436,-0.0032498,-0.00169239,0.0132175,-0.00342373,-0.102413,0.0101473,0.021843,944,512,0.0778653,6.26313
-273,512,0.182983,-6.31702,0.0177064,-0.004313,-0.00287117,0.0180746,-0.00468123,-0.127552,0.0138759,0.0395311,951,512,0.183007,6.317
-266,512,0.0755005,-6.51099,0.023155,-0.00477983,-0.0046014,0.0238934,-0.00551825,-0.15912,0.0180517,0.0433163,958,512,0.0755065,6.511
-259,512,0.0608521,-6.77588,0,0,0,0,0,0,0,-1,965,512,0.0608277,6.7759
-252,512,1.45941,-3.43475,0,0,0,0,0,0,0,-1,972,512,1.45938,3.43475
-245,512,4.12927,-11.272,0,0,0,0,0,0,0,-1,979,512,4.1293,11.272
-238,512,0.547546,-7.45624,0,0,0,0,0,0,0,-1,986,512,0.547559,7.45623
-231,512,-2.54437,-10.169,0,0,0,0,0,0,0,-1,993,512,-2.54439,10.169
-224,512,-4.84601,-7.52783,0,0,0,0,0,0,0,-1,1000,512,-4.84602,7.52786
-217,512,-7.37274,-3.89563,0,0,0,0,0,0,0,-1,1007,512,-7.37274,3.89561
-210,512,-3.76642,-1.94702,0,0,0,0,0,0,0,-1,1014,512,-3.76641,1.94702
-203,512,-2.48328,-5.19061,0,0,0,0,0,0,0,-1,1021,512,-2.48328,5.19059
-196,512,-1.14929,-4.63202,0,0,0,0,0,0,0,-1,1028,512,-1.14934,4.632
-189,512,0.197998,4.55505,0,0,0,0,0,0,0,-1,1035,512,0.197996,-4.55506
-182,512,2.73938,0.0778503,0,0,0,0,0,0,0,-1,1042,512,2.73944,-0.077852
-175,512,2.29565,0.209808,0,0,0,0,0,0,0,-1,1049,512,2.29565,-0.209813
-168,512,2.09399,-0.302856,0,0,0,0,0,0,0,-1,1056,512,2.09403,0.302826
-161,512,2.76636,0.0921021,0,0,0,0,0,0,0,-1,1063,512,2.76633,-0.0921104
-154,512,3.41382,0.466187,0,0,0,0,0,0,0,-1,1070,512,3.41382,-0.466178
-147,512,0,0,0,0,0,0,0,0,0,-1,1077,512,0,0
-140,512,0,0,0,0,0,0,0,0,0,-1,1084,512,0,0
-133,512,0,0,0,0,0,0,0,0,0,-1,1091,512,0,0
-126,512,0,0,0,0,0,0,0,0,0,-1,1098,512,0,0
-119,512,0,0,0,0,0,0,0,0,0,-1,1105,512,0,0
-112,512,0,0,0,0,0,0,0,0,0,-1,1112,512,0,0
-105,512,0,0,0,0,0,0,0,0,0,-1,1119,512,0,0
-98,512,0,0,0,0,0,0,0,0,0,-1,1126,512,0,0
-91,512,0,0,0,0,0,0,0,0,0,-1,1133,512,0,0
-84,512,0,0,0,0,0,0,0,0,0,-1,1140,512,0,0
-77,512,0,0,0,0,0,0,0,0,0,-1,1147,512,0,0
-70,512,0,0,0,0,0,0,0,0,0,-1,1154,512,0,0
-63,512,0,0,0,0,0,0,0,0,0,-1,1161,512,0,0
-56,512,0,0,0,0,0,0,0,0,0,-1,1168,512,0,0
-49,512,0,0,0,0,0,0,0,0,0,-1,1175,512,0,0
-42,512,0,0,0,0,0,0,0,0,0,-1,1182,512,0,0
-35,512,0,0,0,0,0,0,0,0,0,-1,1189,512,0,0
-28,512,0,0,0,0,0,0,0,0,0,-1,1196,512,0,0
-21,512,0,0,0,0,0,0,0,0,0,-1,1203,512,0,0
-14,512,0,0,0,0,0,0,0,0,0,-1,1210,512,0,0
-7,512,0,0,0,0,0,0,0,0,0,-1,1217,512,0,0
0,512,0,0,0,0,0,0,0,0,0,-1,1224,512,0,0
7,512,0,0,0,0,0,0,0,0,0,-1,1231,512,0,0
14,512,0,0,0,0,0,0,0,0,0,-1,1238,512,0,0
21,512,0,0,0,0,0,0,0,0,0,-1,1245,512,0,0
28,512,0,0,0,0,0,0,0,0,0,-1,1252,512,0,0
35,512,0,0,0,0,0,0,0,0,0,-1,1259,512,0,0
42,512,0,0,0,0,0,0,0,0,0,-1,1266,512,0,0
49,512,0,0,0,0,0,0,0,0,0,-1,1273,512,0,0
56,512,0,0,0,0,0,0,0,0,0,-1,1280,512,0,0
63,512,0,0,0,0,0,0,0,0,0,-1,1287,512,0,0
70,512,0,0,0,0,0,0,0,0,0,-1,1294,512,0,0
77,512,0,0,0,0,0,0,0,0,0,-1,1301,512,0,0
84,512,0,0,0,0,0,0,0,0,0,-1,1308,512,0,0
91,512,0,0,0,0,0,0,0,0,0,-1,1315,512,0,0
98,512,0,0,0,0,0,0,0,0,0,-1,1322,512,0,0
105,512,0,0,0,0,0,0,0,0,0,-1,1329,512,0,0
112,512,0,0,0,0,0,0,0,0,0,-1,1336,512,0,0
119,512,0,0,0,0,0,0,0,0,0,-1,1343,512,0,0
126,512,0,0,0,0,0,0,0,0,0,-1,1350,512,0,0
133,512,0,0,0,0,0,0,0,0,0,-1,1357,512,0,0
140,512,0,0,0,0,0,0,0,0,0,-1,1364,512,0,0
147,512,0,0,0,0,0,0,0,0,0,-1,1371,512,0,0
154,512,0,0,0,0,0,0,0,0,0,-1,1378,512,0,0
161,512,0,0,0,0,0,0,0,0,0,-1,1385,512,0,0
168,512,0,0,0,0,0,0,0,0,0,-1,1392,512,0,0
175,512,0,0,0,0,0,0,0,0,0,-1,1399,512,0,0
182,512,0,0,0,0,0,0,0,0,0,-1,1406,512,0,0
189,512,0,0,0,0,0,0,0,0,0,-1,1413,512,0,0
196,512,0,0,0,0,0,0,0,0,0,-1,1420,512,0,0
203,512,0,0,0,0,0,0,0,0,0,-1,1427,512,0,0
210,512,0,0,0,0,0,0,0,0,0,-1,1434,512,0,0
217,512,0,0,0,0,0,0,0,0,0,-1,1441,512,0,0
224,512,0,0,0,0,0,0,0,0,0,-1,1448,512,0,0
231,512,0,0,0,0,0,0,0,0,0,-1,1455,512,0,0
238,512,0,0,0,0,0,0,0,0,0,-1,1462,512,0,0
245,512,0,0,0,0,0,0,0,0,0,-1,1469,512,0,0
252,512,0,0,0,0,0,0,0,0,0,-1,1476,512,0,0
259,512,0,0,0,0,0,0,0,0,0,-1,1483,512,0,0
266,512,0,0,0,0,0,0,0,0,0,-1,1490,512,0,0
273,512,4.00745,0.618622,0,0,0,0,0,0,0,-1,1497,512,4.00747,-0.618611
280,512,4.49609,0.649841,0,0,0,0,0,0,0,-1,1504,512,4.49612,-0.649834
287,512,4.77234,0.458069,0,0,0,0,0,0,0,-1,1511,512,4.77233,-0.458083
294,512,8.54956,-2.36273,0,0,0,0,0,0,0,-1,1518,512,8.54952,2.36274
301,512,6.302,-1.69092,0,0,0,0,0,0,0,-1,1525,512,6.30196,1.69093
308,512,8.2439,-6.22754,0,0,0,0,0,0,0,-1,1532,512,8.24394,6.22757
315,512,7.53687,-6.04211,0,0,0,0,0,0,0,-1,1539,512,7.53691,6.04211
322,512,6.82983,-5.85663,0,0,0,0,0,0,0,-1,1546,512,6.82988,5.85666
329,512,4.38147,-0.329651,0,0,0,0,0,0,0,-1,1553,512,4.38144,0.329662
336,512,4.41467,-0.741455,0,0,0,0,0,0,0,-1,1560,512,4.41467,0.741442
343,512,4.44727,-1.21667,0,0,0,0,0,0,0,-1,1567,512,4.44732,1.21666
350,512,4.55469,-1.65082,0,0,0,0,0,0,0,-1,1574,512,4.5547,1.65083
357,512,5.79993,-2.67456,0,0,0,0,0,0,0,-1,1581,512,5.79991,2.67454
364,512,5.18298,-6.80133,0,0,0,0,0,0,0,-1,1588,512,5.18296,6.80132
371,512,5.3894,-6.50586,0,0,0,0,0,0,0,-1,1595,512,5.38939,6.50588
378,512,4.78015,-5.58118,0,0,0,0,0,0,0,-1,1602,512,4.78018,5.58116
385,512,4.67419,-5.46033,-0.010786,-0.00558352,-0.0151229,0.00716027,-0.0235298,-0.870568,0.01854,0.0453092,1609,512,4.67415,5.46033
392,512,4.52722,-5.23175,-0.00975035,-0.00502248,-0.0125844,0.00541805,-0.0201909,-0.87824,0.0155838,0.0471,1616,512,4.52722,5.23173
399,512,4.48486,-5.04938,-0.00842044,-0.00442528,-0.0102798,0.00404925,-0.016895,-0.881362,0.0128279,0.0432008,1623,512,4.48484,5.04941
406,512,4.37317,-5.17834,-0.00699336,-0.00338576,-0.00832013,0.00332385,-0.013703,-0.892146,0.0104215,0.0315874,1630,512,4.37311,5.17835
413,512,4.21643,-5.10992,-0.00562876,-0.00233404,-0.00653164,0.00275477,-0.0107176,-0.908928,0.00821867,0.0246368,1637,512,4.21642,5.10993
420,512,4.25269,-4.91278,-0.00457879,-0.00189121,-0.00512911,0.00206722,-0.00853722,-0.913515,0.00649122,0.0148995,1644,512,4.25272,4.91277
427,512,4.24963,-4.77045,-0.00376799,-0.00151289,-0.00376953,0.00129411,-0.00657499,-0.930724,0.00487232,0.0128129,1651,512,4.24967,4.77045
434,512,4.22559,-4.6087,-0.00280144,-0.00069342,-0.00288945,0.00132825,-0.00482312,-0.960288,0.00373768,0.0114387,1658,512,4.22561,4.60872
441,512,4.22131,-4.42896,-0.00195812,-0.000154415,-0.00219755,0.00131914,-0.00343167,-0.980114,0.00283183,0.0134148,1665,512,4.2213,4.42893
448,512,4.22278,-4.27039,-0.00108626,0.000381494,-0.00145544,0.00127761,-0.00198238,-1.01891,0.00189676,0.00936481,1672,512,4.22274,4.27036
455,512,4.21887,-4.09363,-0.000265457,0.000641808,-0.000858672,0.00115931,-0.000782958,-1.02841,0.00112836,0.00834774,1679,512,4.21881,4.09363
462,512,4.22668,-3.91083,0.000637804,0.000958441,-0.000528369,0.00135028,0.000245967,-0.932695,0.000830429,0.00844835,1686,512,4.22664,3.91082
469,512,4.22351,-3.73969,0.00147727,0.00129816,-0.00047181,0.00186795,0.000907482,-0.691608,0.00107861,0.0101376,1693,512,4.22347,3.73967
476,512,4.22375,-3.56873,0.00227781,0.00166042,-0.000609351,0.0026522,0.00128603,-0.550942,0.00153148,0.0135415,1700,512,4.22374,3.56874
483,512,4.22961,-3.37524,0.00312401,0.0022275,-0.000942013,0.00371898,0.00163253,-0.56333,0.00215248,0.0126675,1707,512,4.2296,3.37524
490,512,4.24536,-3.19415,0.00397412,0.00290069,-0.00138448,0.00492227,0.00195253,-0.600484,0.00286203,0.00965758,1714,512,4.24537,3.19416
497,512,4.24646,-3.02759,0.00468556,0.00392454,-0.00192459,0.00626689,0.00234321,-0.687803,0.00365634,0.0101826,1721,512,4.24643,3.02761
504,512,4.21594,-2.83044,0.00527976,0.00526644,-0.00241617,0.00768928,0.00285692,-0.78402,0.00448798,0.0112441,1728,512,4.21594,2.83042
511,512,4.21265,-2.64429,0.0059674,0.00684795,-0.00298878,0.00942871,0.00338665,-0.858527,0.00551516,0.0118689,1735,512,4.21262,2.64426
518,512,4.29114,-2.5127,0.00645318,0.0086331,-0.00358894,0.0112939,0.00379234,-0.932822,0.00663675,0.0188647,1742,512,4.29117,2.51268
525,512,4.31494,-2.47345,0,0,0,0,0,0,0,-1,1749,512,4.31495,2.47344
532,512,4.60242,-2.26056,0,0,0,0,0,0,0,-1,1756,512,4.60241,2.26055
539,512,4.39929,-3.11737,0,0,0,0,0,0,0,-1,1763,512,4.3993,3.11735
546,512,3.94604,-0.9953,0,0,0,0,0,0,0,-1,1770,512,3.94606,0.99528
553,512,3.927,-0.448853,0,0,0,0,0,0,0,-1,1777,512,3.92704,0.448843
560,512,3.55762,-0.201233,0,0,0,0,0,0,0,-1,1784,512,3.55768,0.201259
567,512,3.09045,0.191193,0,0,0,0,0,0,0,-1,1791,512,3.09045,-0.191203
574,512,0,0,0,0,0,0,0,0,0,-1,1798,512,0,0
581,512,0,0,0,0,0,0,0,0,0,-1,1805,512,0,0
588,512,0,0,0,0,0,0,0,0,0,-1,1812,512,0,0
595,512,0,0,0,0,0,0,0,0,0,-1,1819,512,0,0
602,512,0,0,0,0,0,0,0,0,0,-1,1826,512,0,0
609,512,0,0,0,0,0,0,0,0,0,-1,1833,512,0,0
616,512,0,0,0,0,0,0,0,0,0,-1,1840,512,0,0
623,512,0,0,0,0,0,0,0,0,0,-1,1847,512,0,0
630,512,0,0,0,0,0,0,0,0,0,-1,1854,512,0,0
637,512,0,0,0,0,0,0,0,0,0,-1,1861,512,0,0
644,512,0,0,0,0,0,0,0,0,0,-1,1868,512,0,0
651,512,0,0,0,0,0,0,0,0,0,-1,1875,512,0,0
658,512,0,0,0,0,0,0,0,0,0,-1,1882,512,0,0
665,512,0,0,0,0,0,0,0,0,0,-1,1889,512,0,0
672,512,0,0,0,0,0,0,0,0,0,-1,1896,512,0,0
679,512,0,0,0,0,0,0,0,0,0,-1,1903,512,0,0
686,512,0,0,0,0,0,0,0,0,0,-1,1910,512,0,0
693,512,0,0,0,0,0,0,0,0,0,-1,1917,512,0,0
700,512,0,0,0,0,0,0,0,0,0,-1,1924,512,0,0
707,512,0,0,0,0,0,0,0,0,0,-1,1931,512,0,0
714,512,0,0,0,0,0,0,0,0,0,-1,1938,512,0,0
721,512,0,0,0,0,0,0,0,0,0,-1,1945,512,0,0
728,512,0,0,0,0,0,0,0,0,0,-1,1952,512,0,0
735,512,0,0,0,0,0,0,0,0,0,-1,1959,512,0,0
742,512,0,0,0,0,0,0,0,0,0,-1,1966,512,0,0
749,512,0,0,0,0,0,0,0,0,0,-1,1973,512,0,0
756,512,0,0,0,0,0,0,0,0,0,-1,1980,512,0,0
763,512,0,0,0,0,0,0,0,0,0,-1,1987,512,0,0
770,512,0,0,0,0,0,0,0,0,0,-1,1994,512,0,0
777,512,0,0,0,0,0,0,0,0,0,-1,2001,512,0,0
784,512,0,0,0,0,0,0,0,0,0,-1,2008,512,0,0
791,512,0,0,0,0,0,0,0,0,0,-1,2015,512,0,0
798,512,0,0,0,0,0,0,0,0,0,-1,2022,512,0,0
805,512,0,0,0,0,0,0,0,0,0,-1,2029,512,0,0
812,512,0,0,0,0,0,0,0,0,0,-1,2036,512,0,0
-700,505,0,0,0,0,0,0,0,0,0,-1,524,519,0,0
-693,505,0,0,0,0,0,0,0,0,0,-1,531,519,0,0
-686,505,0,0,0,0,0,0,0,0,0,-1,538,519,0,0
-679,505,0,0,0,0,0,0,0,0,0,-1,545,519,0,0
-672,505,0,0,0,0,0,0,0,0,0,-1,552,519,0,0
-665,505,0,0,0,0,0,0,0,0,0,-1,559,519,0,0
-658,505,0,0,0,0,0,0,0,0,0,-1,566,519,0,0
-651,505,0,0,0,0,0,0,0,0,0,-1,573,519,0,0
-644,505,0,0,0,0,0,0,0,0,0,-1,580,519,0,0
-637,505,0,0,0,0,0,0,0,0,0,-1,587,519,0,0
-630,505,0,0,0,0,0,0,0,0,0,-1,594,519,0,0
-623,505,0,0,0,0,0,0,0,0,0,-1,601,519,0,0
-616,505,0,0,0,0,0,0,0,0,0,-1,608,519,0,0
-609,505,0,0,0,0,0,0,0,0,0,-1,615,519,0,0
-602,505,0,0,0,0,0,0,0,0,0,-1,622,519,0,0
-595,505,0,0,0,0,0,0,0,0,0,-1,629,519,0,0
-588,505,0,0,0,0,0,0,0,0,0,-1,636,519,0,0
-581,505,0,0,0,0,0,0,0,0,0,-1,643,519,0,0
-574,505,0,0,0,0,0,0,0,0,0,-1,650,519,0,0
-567,505,0,0,0,0,0,0,0,0,0,-1,657,519,0,0
-560,505,0,0,0,0,0,0,0,0,0,-1,664,519,0,0
-553,505,0,0,0,0,0,0,0,0,0,-1,671,519,0,0
-546,505,0,0,0,0,0,0,0,0,0,-1,678,519,0,0
-539,505,0,0,0,0,0,0,0,0,0,-1,685,519,0,0
-532,505,0,0,0,0,0,0,0,0,0,-1,692,519,0,0
-525,505,0,0,0,0,0,0,0,0,0,-1,699,519,0,0
-518,505,0,0,0,0,0,0,0,0,0,-1,706,519,0,0
-511,505,0,0,0,0,0,0,0,0,0,-1,713,519,0,0
-504,505,0,0,0,0,0,0,0,0,0,-1,720,519,0,0
-497,505,0,0,0,0,0,0,0,0,0,-1,727,519,0,0
-490,505,0,0,0,0,0,0,0,0,0,-1,734,519,0,0
-483,505,0,0,0,0,0,0,0,0,0,-1,741,519,0,0
-476,505,0,0,0,0,0,0,0,0,0,-1,748,519,0,0
-469,505,0,0,0,0,0,0,0,0,0,-1,755,519,0,0
-462,505,0,0,0,0,0,0,0,0,0,-1,762,519,0,0
-455,505,-2.9278,-1.07245,0.114356,0.0188449,-0.0152261,0.116725,0.0164763,-0.154322,0.0729475,0.0433447,769,519,-2.92782,1.07242
-448,505,-2.08551,-1.31732,0.0889414,0.0163021,-0.00565972,0.0893798,0.0158637,-0.0772937,0.0550656,0.0437621,776,519,-2.08552,1.31731
-441,505,-1.40857,-2.60925,0.0661032,0.0140188,0.00170175,0.0661587,0.0139632,0.0326266,0.0402666,0.0455049,783,519,-1.40854,2.60926
-434,505,1.49866,-3.87421,0.0461525,0.0121724,0.00685714,0.0474841,0.0108408,0.191802,0.0287325,0.049624,790,519,1.49866,3.87423
-427,505,1.52185,-3.7381,0.0294921,0.00977763,0.0101009,0.0337484,0.0055213,0.398803,0.020903,0.0474456,797,519,1.52184,3.7381
-420,505,1.40063,-3.62439,0.0164484,0.00749214,0.01157,0.0243766,-0.000436127,0.600754,0.0163984,0.0443259,804,519,1.40066,3.62439
-413,505,0.993408,-3.51959,0.00676678,0.0054675,0.0117051,0.0178403,-0.00560601,0.757676,0.0141377,0.0455576,811,519,0.993423,3.51957
-406,505,-0.330627,-3.51874,1.73813e-05,0.00372591,0.0111701,0.0131946,-0.00945131,0.867649,0.013134,0.0426514,818,519,-0.330635,3.51871
-399,505,-0.0658569,-3.66968,-0.00358771,0.002274,0.00955718,0.00933963,-0.0106533,0.934178,0.0115512,0.0392289,825,519,-0.0658322,3.66967
-392,505,-0.0629272,-3.80414,-0.00493748,0.000546086,0.0074973,0.00578722,-0.0101786,0.960696,0.00933338,0.018417,832,519,-0.0629327,3.80414
-385,505,-0.0953979,-3.96912,-0.0055574,-8.41956e-05,0.00568945,0.00349258,-0.00913418,1.00956,0.00752871,0.0081514,839,519,-0.0953715,3.96912
-378,505,-0.108154,-4.11798,-0.00520781,-0.000548624,0.00322366,0.00109909,-0.00685552,1.09828,0.00497733,0.00996912,846,519,-0.108126,4.11795
-371,505,-0.0891724,-4.2998,-0.00394995,-0.00130744,0.00167582,-0.000494665,-0.00476272,1.11922,0.00302378,0.0126501,853,519,-0.0891501,4.2998
-364,505,-0.0875244,-4.45721,-0.00224129,-0.00235238,0.000831053,-0.00146393,-0.00312974,0.752029,0.00180821,0.0140125,860,519,-0.0875133,4.45721
-357,505,-0.0825806,-4.59705,-0.000825375,-0.00164439,0.000254199,-0.000752894,-0.00171688,0.277765,0.000993733,0.0116393,867,519,-0.0825667,4.59706
-350,505,-0.078064,-4.76721,0.000138531,-0.000751069,-0.00043218,0.000313914,-0.000926452,-0.385504,0.000744664,0.0107357,874,519,-0.0780497,4.76721
-343,505,-0.10022,-4.93231,0.000537936,-0.000156182,-0.000615038,0.000897079,-0.000515325,-0.528525,0.000825321,0.0085924,881,519,-0.100221,4.9323
-336,505,-0.113098,-5.06744,0.000754858,0.000114499,-0.000609663,0.0011233,-0.000253946,-0.543606,0.000846314,0.00961878,888,519,-0.113077,5.06747
-329,505,-0.108093,-5.22504,0.000818456,0.000212017,-0.000434404,0.001045,-1.45271e-05,-0.480703,0.000701559,0.011359,895,519,-0.108077,5.22501
-322,505,-0.117432,-5.40283,0.000795299,0.000156014,-0.000238223,0.000874306,7.70067e-05,-0.320236,0.000558973,0.0127672,902,519,-0.117456,5.40282
-315,505,-0.0982056,-5.55713,0.00154119,2.89405e-05,-0.000371079,0.00162734,-5.72079e-05,-0.228116,0.00110446,0.011698,909,519,-0.0981882,5.55713
-308,505,-0.0874023,-5.68506,0.00445119,-0.000648564,-0.000733755,0.00455466,-0.000752038,-0.140095,0.00331567,0.0116149,916,519,-0.0874183,5.68507
-301,505,-0.086792,-5.84521,0.00706286,-0.00137013,-0.00103615,0.0071883,-0.00149558,-0.120481,0.00536072,0.0168448,923,519,-0.0867861,5.84522
-294,505,-0.0908813,-5.97394,0,0,0,0,0,0,0,-1,930,519,-0.0908904,5.97396
-287,505,-0.195984,-6.06451,0.0162656,-0.00364672,-0.00259195,0.0165975,-0.00397858,-0.127341,0.0126023,0.0345175,937,519,-0.19598,6.0645
-280,505,-0.0723267,-6.16785,0.0230298,-0.00555199,-0.00396132,0.0235687,-0.00609085,-0.135201,0.0180879,0.0490499,944,519,-0.0722999,6.16782
-273,505,-0.0184326,-6.08521,0.0311076,-0.00740391,-0.00591497,0.0319956,-0.00829191,-0.149015,0.0245654,0.046379,951,519,-0.0184316,6.08518
-266,505,0.112488,-6.56299,0,0,0,0,0,0,0,-1,958,519,0.112468,6.56298
-259,505,0.10321,-6.69824,0,0,0,0,0,0,0,-1,965,519,0.103235,6.69826
-252,505,6.82312,-15.6972,0,0,0,0,0,0,0,-1,972,519,6.82314,15.6972
-245,505,4.26727,-12.9861,0,0,0,0,0,0,0,-1,979,519,4.2673,12.9861
-238,505,1.67432,-11.2307,0,0,0,0,0,0,0,-1,986,519,1.67429,11.2307
-231,505,-0.958435,-8.3075,0,0,0,0,0,0,0,-1,993,519,-0.958421,8.30751
-224,505,-3.69653,-5.12732,0,0,0,0,0,0,0,-1,1000,519,-3.69653,5.12733
-217,505,-6.34302,-1.65533,0,0,0,0,0,0,0,-1,1007,519,-6.34299,1.65535
-210,505,-3.06128,-0.396301,0,0,0,0,0,0,0,-1,1014,519,-3.06129,0.396294
-203,505,-4.26465,2.03607,0,0,0,0,0,0,0,-1,1021,519,-4.26462,-2.03606
-196,505,-5.47595,4.27295,0,0,0,0,0,0,0,-1,1028,519,-5.47597,-4.27292
-189,505,1.51526,5.56207,0,0,0,0,0,0,0,-1,1035,519,1.51523,-5.56209
-182,505,2.97815,7.5097,0,0,0,0,0,0,0,-1,1042,519,2.97812,-7.5097
-175,505,-2.38416,-2.17548,0,0,0,0,0,0,0,-1,1049,519,-2.38411,2.1755
-168,505,0,0,0,0,0,0,0,0,0,-1,1056,519,0,0
-161,505,0,0,0,0,0,0,0,0,0,-1,1063,519,0,0
-154,505,0,0,0,0,0,0,0,0,0,-1,1070,519,0,0
-147,505,0,0,0,0,0,0,0,0,0,-1,1077,519,0,0
-140,505,0,0,0,0,0,0,0,0,0,-1,1084,519,0,0
-133,505,0,0,0,0,0,0,0,0,0,-1,1091,519,0,0
-126,505,0,0,0,0,0,0,0,0,0,-1,1098,519,0,0
-119,505,0,0,0,0,0,0,0,0,0,-1,1105,519,0,0
-112,505,0,0,0,0,0,0,0,0,0,-1,1112,519,0,0
-105,505,0,0,0,0,0,0,0,0,0,-1,1119,519,0,0
-98,505,0,0,0,0,0,0,0,0,0,-1,1126,519,0,0
-91,505,0,0,0,0,0,0,0,0,0,-1,1133,519,0,0
-84,505,0,0,0,0,0,0,0,0,0,-1,1140,519,0,0
-77,505,0,0,0,0,0,0,0,0,0,-1,1147,519,0,0
-70,505,0,0,0,0,0,0,0,0,0,-1,1154,519,0,0
-63,505,0,0,0,0,0,0,0,0,0,-1,1161,519,0,0
-56,505,0,0,0,0,0,0,0,0,0,-1,1168,519,0,0
-49,505,0,0,0,0,0,0,0,0,0,-1,1175,519,0,0
-42,505,0,0,0,0,0,0,0,0,0,-1,1182,519,0,0
-35,505,0,0,0,0,0,0,0,0,0,-1,1189,519,0,0
-28,505,0,0,0,0,0,0,0,0,0,-1,1196,519,0,0
-21,505,0,0,0,0,0,0,0,0,0,-1,1203,519,0,0
-14,505,0,0,0,0,0,0,0,0,0,-1,1210,519,0,0
-7,505,0,0,0,0,0,0,0,0,0,-1,1217,519,0,0
0,505,0,0,0,0,0,0,0,0,0,-1,1224,519,0,0
7,505,0,0,0,0,0,0,0,0,0,-1,1231,519,0,0
14,505,0,0,0,0,0,0,0,0,0,-1,1238,519,0,0
21,505,0,0,0,0,0,0,0,0,0,-1,1245,519,0,0
28,505,0,0,0,0,0,0,0,0,0,-1,1252,519,0,0
35,505,0,0,0,0,0,0,0,0,0,-1,1259,519,0,0
42,505,0,0,0,0,0,0,0,0,0,-1,1266,519,0,0
49,505,0,0,0,0,0,0,0,0,0,-1,1273,519,0,0
56,505,0,0,0,0,0,0,0,0,0,-1,1280,519,0,0
63,505,0,0,0,0,0,0,0,0,0,-1,1287,519,0,0
70,505,0,0,0,0,0,0,0,0,0,-1,1294,519,0,0
77,505,0,0,0,0,0,0,0,0,0,-1,1301,519,0,0
84,505,0,0,0,0,0,0,0,0,0,-1,1308,519,0,0
91,505,0,0,0,0,0,0,0,0,0,-1,1315,519,0,0
98,505,0,0,0,0,0,0,0,0,0,-1,1322,519,0,0
105,505,0,0,0,0,0,0,0,0,0,-1,1329,519,0,0
112,505,0,0,0,0,0,0,0,0,0,-1,1336,519,0,0
119,505,0,0,0,0,0,0,0,0,0,-1,1343,519,0,0
126,505,0,0,0,0,0,0,0,0,0,-1,1350,519,0,0
133,505,0,0,0,0,0,0,0,0,0,-1,1357,519,0,0
140,505,0,0,0,0,0,0,0,0,0,-1,1364,519,0,0
147,505,0,0,0,0,0,0,0,0,0,-1,1371,519,0,0
154,505,0,0,0,0,0,0,0,0,0,-1,1378,519,0,0
161,505,0,0,0,0,0,0,0,0,0,-1,1385,519,0,0
168,505,0,0,0,0,0,0,0,0,0,-1,1392,519,0,0
175,505,0,0,0,0,0,0,0,0,0,-1,1399,519,0,0
182,505,0,0,0,0,0,0,0,0,0,-1,1406,519,0,0
189,505,0,0,0,0,0,0,0,0,0,-1,1413,519,0,0
196,505,0,0,0,0,0,0,0,0,0,-1,1420,519,0,0
203,505,0,0,0,0,0,0,0,0,0,-1,1427,519,0,0
210,505,0,0,0,0,0,0,0,0,0,-1,1434,519,0,0
217,505,0,0,0,0,0,0,0,0,0,-1,1441,519,0,0
224,505,0,0,0,0,0,0,0,0,0,-1,1448,519,0,0
231,505,0,0,0,0,0,0,0,0,0,-1,1455,519,0,0
238,505,0,0,0,0,0,0,0,0,0,-1,1462,519,0,0
245,505,0,0,0,0,0,0,0,0,0,-1,1469,519,0,0
252,505,0,0,0,0,0,0,0,0,0,-1,1476,519,0,0
259,505,0,0,0,0,0,0,0,0,0,-1,1483,519,0,0
266,505,0,0,0,0,0,0,0,0,0,-1,1490,519,0,0
273,505,0,0,0,0,0,0,0,0,0,-1,1497,519,0,0
280,505,0,0,0,0,0,0,0,0,0,-1,1504,519,0,0
287,505,4.39478,0.499512,0,0,0,0,0,0,0,-1,1511,519,4.39476,-0.499506
294,505,4.88867,0.0822754,0,0,0,0,0,0,0,-1,1518,519,4.88871,-0.0822748
301,505,4.82153,-0.0704346,0,0,0,0,0,0,0,-1,1525,519,4.82156,0.0704312
308,505,4.67761,-0.29187,0,0,0,0,0,0,0,-1,1532,519,4.67762,0.291845
315,505,8.44055,-6.54352,0,0,0,0,0,0,0,-1,1539,519,8.44059,6.54349
322,505,4.78955,-0.594116,0,0,0,0,0,0,0,-1,1546,519,4.78957,0.594096
329,505,5.16321,0.434631,0,0,0,0,0,0,0,-1,1553,519,5.16316,-0.434614
336,505,4.94495,-0.920471,0,0,0,0,0,0,0,-1,1560,519,4.945,0.920495
343,505,5.01855,-1.4823,0,0,0,0,0,0,0,-1,1567,519,5.01851,1.48227
350,505,5.33154,-1.77838,0,0,0,0,0,0,0,-1,1574,519,5.33152,1.77838
357,505,5.56567,-1.9425,0,0,0,0,0,0,0,-1,1581,519,5.56562,1.94248
364,505,5.85205,-2.6579,0,0,0,0,0,0,0,-1,1588,519,5.85211,2.65788
371,505,5.88477,-7.00922,0,0,0,0,0,0,0,-1,1595,519,5.88473,7.00924
378,505,4.65857,-5.534,0,0,0,0,0,0,0,-1,1602,519,4.65861,5.53401
385,505,4.76294,-5.24506,0,0,0,0,0,0,0,-1,1609,519,4.76299,5.24507
392,505,4.72534,-4.9577,0,0,0,0,0,0,0,-1,1616,519,4.72534,4.95769
399,505,4.85876,-4.73663,0,0,0,0,0,0,0,-1,1623,519,4.85882,4.73664
406,505,4.85095,-5.06592,-0.00933688,-0.0045481,-0.0105309,0.00385716,-0.0177421,-0.897182,0.0133015,0.0431986,1630,519,4.85099,5.06593
413,505,4.60522,-5.01807,-0.00753559,-0.00298494,-0.00831909,0.00336437,-0.0138849,-0.918887,0.0105583,0.0454018,1637,519,4.60522,5.01807
420,505,4.48792,-4.97375,-0.00616461,-0.0022412,-0.00656952,0.00265325,-0.0110591,-0.930487,0.00839801,0.0285976,1644,519,4.48787,4.97376
427,505,4.42163,-4.77283,-0.00510129,-0.00169584,-0.00487843,0.00176848,-0.00856561,-0.953304,0.0063821,0.0132116,1651,519,4.42161,4.77281
434,505,4.39636,-4.60815,-0.00383213,-0.000636777,-0.00374775,0.00183963,-0.00630855,-0.986885,0.00493457,0.0100644,1658,519,4.39638,4.60815
441,505,4.39514,-4.42194,-0.00282762,5.74248e-05,-0.00289948,0.0018534,-0.00462359,-1.01623,0.00385182,0.0102243,1665,519,4.39515,4.42192
448,505,4.40979,-4.2464,-0.00186388,0.000644567,-0.00198058,0.00173465,-0.00295396,-1.06766,0.00273731,0.0107019,1672,519,4.40981,4.24641
455,505,4.39941,-4.07501,-0.000989003,0.000940913,-0.00120018,0.00151594,-0.00156403,-1.12399,0.0017783,0.0104872,1679,519,4.39941,4.07501
462,505,4.37744,-3.8949,-8.91139e-05,0.00106044,-0.000632322,0.00134018,-0.000368854,-1.15428,0.00103848,0.0100977,1686,519,4.37747,3.89492
469,505,4.36633,-3.73022,0.000668092,0.00122253,-0.00037726,0.00141348,0.000477151,-1.10226,0.0008303,0.01084,1693,519,4.36639,3.73023
476,505,4.37146,-3.55927,0.00132048,0.00143047,-0.000308519,0.00168886,0.00106209,-0.873596,0.000985801,0.0112833,1700,519,4.37148,3.55927
483,505,4.39233,-3.37885,0.0019681,0.00180657,-0.000418153,0.00231322,0.00146146,-0.69,0.00135091,0.012012,1707,519,4.39238,3.37883
490,505,4.422,-3.19897,0.0026004,0.0022183,-0.000609541,0.00304813,0.00177057,-0.633528,0.0017675,0.0106904,1714,519,4.42196,3.199
497,505,4.4342,-3.04065,0.00305693,0.0028759,-0.000901469,0.00387242,0.00206041,-0.735364,0.00223727,0.0106233,1721,519,4.4342,3.04065
504,505,4.41248,-2.83936,0.00337328,0.00378255,-0.00115136,0.00474731,0.00240851,-0.873346,0.00274096,0.0118934,1728,519,4.41253,2.83937
511,505,4.42468,-2.664,0.00377791,0.00478362,-0.00145807,0.00582311,0.00273842,-0.951451,0.00336395,0.0126789,1735,519,4.42471,2.66401
518,505,4.5072,-2.54303,0.0039583,0.00589954,-0.00182896,0.00699947,0.00285836,-1.02935,0.0040637,0.0247596,1742,519,4.50719,2.54302
525,505,4.58228,-2.41248,0,0,0,0,0,0,0,-1,1749,519,4.58232,2.41249
532,505,4.34058,-2.19281,0,0,0,0,0,0,0,-1,1756,519,4.34061,2.19284
539,505,4.39722,-2.09186,0,0,0,0,0,0,0,-1,1763,519,4.39721,2.09185
546,505,4.14404,-1.93304,0,0,0,0,0,0,0,-1,1770,519,4.14408,1.93306
553,505,3.8103,-0.864807,0,0,0,0,0,0,0,-1,1777,519,3.8103,0.864829
560,505,3.66223,-0.479797,0,0,0,0,0,0,0,-1,1784,519,3.66219,0.47982
567,505,4.65271,-0.950256,0,0,0,0,0,0,0,-1,1791,519,4.65274,0.95028
574,505,5.54443,-1.19977,0,0,0,0,0,0,0,-1,1798,519,5.54443,1.19974
581,505,0,0,0,0,0,0,0,0,0,-1,1805,519,0,0
588,505,0,0,0,0,0,0,0,0,0,-1,1812,519,0,0
595,505,0,0,0,0,0,0,0,0,0,-1,1819,519,0,0
602,505,0,0,0,0,0,0,0,0,0,-1,1826,519,0,0
609,505,0,0,0,0,0,0,0,0,0,-1,1833,519,0,0
616,505,0,0,0,0,0,0,0,0,0,-1,1840,519,0,0
623,505,0,0,0,0,0,0,0,0,0,-1,1847,519,0,0
630,505,0,0,0,0,0,0,0,0,0,-1,1854,519,0,0
637,505,0,0,0,0,0,0,0,0,0,-1,1861,519,0,0
644,505,0,0,0,0,0,0,0,0,0,-1,1868,519,0,0
651,505,0,0,0,0,0,0,0,0,0,-1,1875,519,0,0
658,505,0,0,0,0,0,0,0,0,0,-1,1882,519,0,0
665,505,0,0,0,0,0,0,0,0,0,-1,1889,519,0,0
672,505,0,0,0,0,0,0,0,0,0,-1,1896,519,0,0
679,505,0,0,0,0,0,0,0,0,0,-1,1903,519,0,0
686,505,0,0,0,0,0,0,0,0,0,-1,1910,519,0,0
693,505,0,0,0,0,0,0,0,0,0,-1,1917,519,0,0
700,505,0,0,0,0,0,0,0,0,0,-1,1924,519,0,0
707,505,0,0,0,0,0,0,0,0,0,-1,1931,519,0,0
714,505,0,0,0,0,0,0,0,0,0,-1,1938,519,0,0
721,505,0,0,0,0,0,0,0,0,0,-1,1945,519,0,0
728,505,0,0,0,0,0,0,0,0,0,-1,1952,519,0,0
735,505,0,0,0,0,0,0,0,0,0,-1,1959,519,0,0
742,505,0,0,0,0,0,0,0,0,0,-1,1966,519,0,0
749,505,0,0,0,0,0,0,0,0,0,-1,1973,519,0,0
756,505,0,0,0,0,0,0,0,0,0,-1,1980,519,0,0
763,505,0,0,0,0,0,0,0,0,0,-1,1987,519,0,0
770,505,0,0,0,0,0,0,0,0,0,-1,1994,519,0,0
777,505,0,0,0,0,0,0,0,0,0,-1,2001,519,0,0
784,505,0,0,0,0,0,0,0,0,0,-1,2008,519,0,0
791,505,0,0,0,0,0,0,0,0,0,-1,2015,519,0,0
798,505,0,0,0,0,0,0,0,0,0,-1,2022,519,0,0
805,505,0,0,0,0,0,0,0,0,0,-1,2029,519,0,0
812,505,0,0,0,0,0,0,0,0,0,-1,2036,519,0,0
-700,498,0,0,0,0,0,0,0,0,0,-1,524,526,0,0
-693,498,0,0,0,0,0,0,0,0,0,-1,531,526,0,0
-686,498,0,0,0,0,0,0,0,0,0,-1,538,526,0,0
-679,498,0,0,0,0,0,0,0,0,0,-1,545,526,0,0
-672,498,0,0,0,0,0,0,0,0,0,-1,552,526,0,0
-665,498,0,0,0,0,0,0,0,0,0,-1,559,526,0,0
-658,498,0,0,0,0,0,0,0,0,0,-1,566,526,0,0
-651,498,0,0,0,0,0,0,0,0,0,-1,573,526,0,0
-644,498,0,0,0,0,0,0,0,0,0,-1,580,526,0,0
-637,498,0,0,0,0,0,0,0,0,0,-1,587,526,0,0
-630,498,0,0,0,0,0,0,0,0,0,-1,594,526,0,0
-623,498,0,0,0,0,0,0,0,0,0,-1,601,526,0,0
-616,498,0,0,0,0,0,0,0,0,0,-1,608,526,0,0
-609,498,0,0,0,0,0,0,0,0,0,-1,615,526,0,0
-602,498,0,0,0,0,0,0,0,0,0,-1,622,526,0,0
-595,498,0,0,0,0,0,0,0,0,0,-1,629,526,0,0
-588,498,0,0,0,0,0,0,0,0,0,-1,636,526,0,0
-581,498,0,0,0,0,0,0,0,0,0,-1,643,526,0,0
-574,498,0,0,0,0,0,0,0,0,0,-1,650,526,0,0
-567,498,0,0,0,0,0,0,0,0,0,-1,657,526,0,0
-560,498,0,0,0,0,0,0,0,0,0,-1,664,526,0,0
-553,498,0,0,0,0,0,0,0,0,0,-1,671,526,0,0
-546,498,0,0,0,0,0,0,0,0,0,-1,678,526,0,0
-539,498,0,0,0,0,0,0,0,0,0,-1,685,526,0,0
-532,498,0,0,0,0,0,0,0,0,0,-1,692,526,0,0
-525,498,0,0,0,0,0,0,0,0,0,-1,699,526,0,0
-518,498,0,0,0,0,0,0,0,0,0,-1,706,526,0,0
-511,498,0,0,0,0,0,0,0,0,0,-1,713,526,0,0
-504,498,0,0,0,0,0,0,0,0,0,-1,720,526,0,0
-497,498,0,0,0,0,0,0,0,0,0,-1,727,526,0,0
-490,498,0,0,0,0,0,0,0,0,0,-1,734,526,0,0
-483,498,0,0,0,0,0,0,0,0,0,-1,741,526,0,0
-476,498,0,0,0,0,0,0,0,0,0,-1,748,526,0,0
-469,498,0,0,0,0,0,0,0,0,0,-1,755,526,0,0
-462,498,-3.86688,0.246216,0.142716,0.0174012,-0.0329505,0.150852,0.0092653,-0.24207,0.097626,0.0440069,762,526,-3.86689,-0.246232
-455,498,-3.14093,-0.863586,0.11573,0.0142623,-0.0216163,0.120143,0.00984915,-0.201389,0.0770225,0.0416665,769,526,-3.14095,0.863582
-448,498,-2.46637,-1.63342,0.0906376,0.0117168,-0.0120061,0.0924236,0.00993074,-0.147679,0.0585867,0.0457007,776,526,-2.46634,1.63341
-441,498,-1.72546,-2.40198,0.0681414,0.00969583,-0.00443744,0.0684764,0.00936084,-0.0753488,0.0428726,0.0480997,783,526,-1.72547,2.402
-434,498,-1.79535,-2.24066,0.0486835,0.00810115,0.000991517,0.0487077,0.00807694,0.0244128,0.0301424,0.0443022,790,526,-1.79532,2.24065
-427,498,-1.0744,-2.9975,0.0324189,0.00618271,0.00465984,0.0332219,0.00537965,0.17066,0.0205903,0.0470641,797,526,-1.07437,2.9975
-420,498,-0.650513,-3.19812,0,0,0,0,0,0,0,-1,804,526,-0.650492,3.19814
-413,498,-0.403748,-3.22198,0,0,0,0,0,0,0,-1,811,526,-0.403765,3.222
-406,498,-0.232361,-3.42175,0.00284646,0.00210526,0.00723315,0.00971849,-0.00476677,0.759803,0.0085244,0.0396783,818,526,-0.232374,3.42174
-399,498,-0.225037,-3.63995,-0.00094283,0.00125797,0.00607973,0.00633608,-0.00602094,0.874926,0.0071351,0.0230617,825,526,-0.225023,3.63996
-392,498,-0.250305,-3.81482,-0.00267895,3.98076e-05,0.00450781,0.00338875,-0.00602789,0.931842,0.00550742,0.0112325,832,526,-0.250327,3.81483
-385,498,-0.259277,-3.97589,-0.00364519,-0.000251644,0.0031395,0.00162027,-0.0055171,1.03314,0.00432064,0.00825261,839,526,-0.259291,3.97591
-378,498,-0.26239,-4.12854,-0.00369324,-0.000526214,0.00117712,-0.000136628,-0.00408283,1.25118,0.0026775,0.0094828,846,526,-0.262377,4.12853
-371,498,-0.246765,-4.29059,-0.00284057,-0.00105767,-1.08566e-05,-0.0010576,-0.00284063,-1.56471,0.00165777,0.0143862,853,526,-0.246751,4.29059
-364,498,-0.245789,-4.44275,-0.00151656,-0.00175787,-0.000503542,-0.00111942,-0.00215501,-0.667806,0.00124451,0.0152346,860,526,-0.245781,4.44275
-357,498,-0.258057,-4.60858,-0.000358749,-0.00123153,-0.000796694,0.000113243,-0.00170352,-0.534841,0.00117525,0.0109642,867,526,-0.258062,4.60857
-350,498,-0.259094,-4.76471,0.0003706,-0.000569105,-0.00116642,0.00115825,-0.00135675,-0.593933,0.00145354,0.0107126,874,526,-0.259075,4.76472
-343,498,-0.263367,-4.92126,0.000591951,-0.000119498,-0.00111069,0.00140249,-0.000930034,-0.630422,0.00135586,0.0113155,881,526,-0.263396,4.92124
-336,498,-0.256226,-5.07349,0.000649427,0.00011697,-0.000913486,0.00133469,-0.000568292,-0.643605,0.001128,0.0142271,888,526,-0.256229,5.07348
-329,498,-0.254578,-5.21777,0.000651967,0.000245565,-0.000670268,0.00114916,-0.000251627,-0.63822,0.000862307,0.0180384,895,526,-0.25456,5.2178
-322,498,-0.258179,-5.38708,0.000673675,0.000102424,-0.000427355,0.000902067,-0.000125969,-0.490813,0.000647465,0.0170998,902,526,-0.258187,5.38711
-315,498,-0.246582,-5.54901,0.00199408,-0.000157231,-0.000709735,0.00220713,-0.00037028,-0.291623,0.00160911,0.0152859,909,526,-0.246563,5.54904
-308,498,-0.228699,-5.69769,0.00692442,-0.00129607,-0.00151766,0.00719566,-0.00156731,-0.176855,0.00539596,0.0149787,916,526,-0.228725,5.6977
-301,498,-0.159119,-5.91394,0.0114076,-0.00247457,-0.00225133,0.0117635,-0.00283055,-0.156821,0.00893657,0.0238624,923,526,-0.159142,5.91394
-294,498,-0.268738,-5.94348,0.0181902,-0.00399584,-0.00342354,0.0187065,-0.00451211,-0.149674,0.0142158,0.0390539,930,526,-0.268748,5.94349
-287,498,-0.442017,-6.11798,0.0276256,-0.00604065,-0.00542754,0.028479,-0.00689403,-0.155954,0.021653,0.0479933,937,526,-0.441999,6.11797
-280,498,-0.171021,-6.06439,0,0,0,0,0,0,0,-1,944,526,-0.171033,6.06441
-273,498,-0.469604,-5.99005,0,0,0,0,0,0,0,-1,951,526,-0.469635,5.99008
-266,498,0.362488,-6.33545,0,0,0,0,0,0,0,-1,958,526,0.362478,6.33547
-259,498,10.9454,-17.3615,0,0,0,0,0,0,0,-1,965,526,10.9454,17.3614
-252,498,8.56586,-14.6886,0,0,0,0,0,0,0,-1,972,526,8.56584,14.6886
-245,498,5.97382,-11.928,0,0,0,0,0,0,0,-1,979,526,5.97381,11.928
-238,498,3.31403,-9.40442,0,0,0,0,0,0,0,-1,986,526,3.31405,9.40443
-231,498,0.675598,-6.60547,0,0,0,0,0,0,0,-1,993,526,0.675587,6.60545
-224,498,-2.11243,-4.76312,0,0,0,0,0,0,0,-1,1000,526,-2.11245,4.76314
-217,498,-3.82239,-1.42841,0,0,0,0,0,0,0,-1,1007,526,-3.82241,1.42843
-210,498,-1.80591,-0.358215,0,0,0,0,0,0,0,-1,1014,526,-1.8059,0.3582
-203,498,-3.17316,1.06641,0,0,0,0,0,0,0,-1,1021,526,-3.17313,-1.0664
-196,498,-0.103271,5.40527,0,0,0,0,0,0,0,-1,1028,526,-0.103285,-5.40528
-189,498,3.00256,6.47137,0,0,0,0,0,0,0,-1,1035,526,3.00256,-6.47139
-182,498,0,0,0,0,0,0,0,0,0,-1,1042,526,0,0
-175,498,0,0,0,0,0,0,0,0,0,-1,1049,526,0,0
-168,498,0,0,0,0,0,0,0,0,0,-1,1056,526,0,0
-161,498,0,0,0,0,0,0,0,0,0,-1,1063,526,0,0
-154,498,0,0,0,0,0,0,0,0,0,-1,1070,526,0,0
-147,498,0,0,0,0,0,0,0,0,0,-1,1077,526,0,0
-140,498,0,0,0,0,0,0,0,0,0,-1,1084,526,0,0
-133,498,0,0,0,0,0,0,0,0,0,-1,1091,526,0,0
-126,498,0,0,0,0,0,0,0,0,0,-1,1098,526,0,0
-119,498,0,0,0,0,0,0,0,0,0,-1,1105,526,0,0
-112,498,0,0,0,0,0,0,0,0,0,-1,1112,526,0,0
-105,498,0,0,0,0,0,0,0,0,0,-1,1119,526,0,0
-98,498,0,0,0,0,0,0,0,0,0,-1,1126,526,0,0
-91,498,0,0,0,0,0,0,0,0,0,-1,1133,526,0,0
-84,498,0,0,0,0,0,0,0,0,0,-1,1140,526,0,0
-77,498,0,0,0,0,0,0,0,0,0,-1,1147,526,0,0
-70,498,0,0,0,0,0,0,0,0,0,-1,1154,526,0,0
-63,498,0,0,0,0,0,0,0,0,0,-1,1161,526,0,0
-56,498,0,0,0,0,0,0,0,0,0,-1,1168,526,0,0
-49,498,0,0,0,0,0,0,0,0,0,-1,1175,526,0,0
-42,498,0,0,0,0,0,0,0,0,0,-1,1182,526,0,0
-35,498,0,0,0,0,0,0,0,0,0,-1,1189,526,0,0
-28,498,0,0,0,0,0,0,0,0,0,-1,1196,526,0,0
-21,498,0,0,0,0,0,0,0,0,0,-1,1203,526,0,0
-14,498,0,0,0,0,0,0,0,0,0,-1,1210,526,0,0
-7,498,0,0,0,0,0,0,0,0,0,-1,1217,526,0,0
0,498,0,0,0,0,0,0,0,0,0,-1,1224,526,0,0
7,498,0,0,0,0,0,0,0,0,0,-1,1231,526,0,0
14,498,0,0,0,0,0,0,0,0,0,-1,1238,526,0,0
21,498,0,0,0,0,0,0,0,0,0,-1,1245,526,0,0
28,498,0,0,0,0,0,0,0,0,0,-1,1252,526,0,0
35,498,0,0,0,0,0,0,0,0,0,-1,1259,526,0,0
42,498,0,0,0,0,0,0,0,0,0,-1,1266,526,0,0
49,498,0,0,0,0,0,0,0,0,0,-1,1273,526,0,0
56,498,0,0,0,0,0,0,0,0,0,-1,1280,526,0,0
63,498,0,0,0,0,0,0,0,0,0,-1,1287,526,0,0
70,498,0,0,0,0,0,0,0,0,0,-1,1294,526,0,0
77,498,0,0,0,0,0,0,0,0,0,-1,1301,526,0,0
84,498,0,0,0,0,0,0,0,0,0,-1,1308,526,0,0
91,498,0,0,0,0,0,0,0,0,0,-1,1315,526,0,0
98,498,0,0,0,0,0,0,0,0,0,-1,1322,526,0,0
105,498,0,0,0,0,0,0,0,0,0,-1,1329,526,0,0
112,498,0,0,0,0,0,0,0,0,0,-1,1336,526,0,0
119,498,0,0,0,0,0,0,0,0,0,-1,1343,526,0,0
126,498,0,0,0,0,0,0,0,0,0,-1,1350,526,0,0
133,498,0,0,0,0,0,0,0,0,0,-1,1357,526,0,0
140,498,0,0,0,0,0,0,0,0,0,-1,1364,526,0,0
147,498,0,0,0,0,0,0,0,0,0,-1,1371,526,0,0
154,498,0,0,0,0,0,0,0,0,0,-1,1378,526,0,0
161,498,0,0,0,0,0,0,0,0,0,-1,1385,526,0,0
168,498,0,0,0,0,0,0,0,0,0,-1,1392,526,0,0
175,498,0,0,0,0,0,0,0,0,0,-1,1399,526,0,0
182,498,0,0,0,0,0,0,0,0,0,-1,1406,526,0,0
189,498,0,0,0,0,0,0,0,0,0,-1,1413,526,0,0
196,498,0,0,0,0,0,0,0,0,0,-1,1420,526,0,0
203,498,0,0,0,0,0,0,0,0,0,-1,1427,526,0,0
210,498,0,0,0,0,0,0,0,0,0,-1,1434,526,0,0
217,498,0,0,0,0,0,0,0,0,0,-1,1441,526,0,0
224,498,0,0,0,0,0,0,0,0,0,-1,1448,526,0,0
231,498,0,0,0,0,0,0,0,0,0,-1,1455,526,0,0
238,498,0,0,0,0,0,0,0,0,0,-1,1462,526,0,0
245,498,0,0,0,0,0,0,0,0,0,-1,1469,526,0,0
252,498,0,0,0,0,0,0,0,0,0,-1,1476,526,0,0
259,498,0,0,0,0,0,0,0,0,0,-1,1483,526,0,0
266,498,0,0,0,0,0,0,0,0,0,-1,1490,526,0,0
273,498,0,0,0,0,0,0,0,0,0,-1,1497,526,0,0
280,498,0,0,0,0,0,0,0,0,0,-1,1504,526,0,0
287,498,0,0,0,0,0,0,0,0,0,-1,1511,526,0,0
294,498,0,0,0,0,0,0,0,0,0,-1,1518,526,0,0
301,498,0,0,0,0,0,0,0,0,0,-1,1525,526,0,0
308,498,4.77942,-0.293884,0,0,0,0,0,0,0,-1,1532,526,4.77939,0.293899
315,498,4.56091,-0.564148,0,0,0,0,0,0,0,-1,1539,526,4.56097,0.564142
322,498,4.52344,-0.447266,0,0,0,0,0,0,0,-1,1546,526,4.52341,0.447295
329,498,4.63232,-0.156982,0,0,0,0,0,0,0,-1,1553,526,4.63238,0.156991
336,498,5.22644,0.0925903,0,0,0,0,0,0,0,-1,1560,526,5.22648,-0.0926188
343,498,6.22607,-1.67615,0,0,0,0,0,0,0,-1,1567,526,6.22605,1.67617
350,498,6.19373,-1.59906,0,0,0,0,0,0,0,-1,1574,526,6.19367,1.59906
357,498,6.21472,-1.58929,0,0,0,0,0,0,0,-1,1581,526,6.21476,1.58927
364,498,5.73547,-1.2019,0,0,0,0,0,0,0,-1,1588,526,5.73547,1.20192
371,498,3.27087,-4.55334,0,0,0,0,0,0,0,-1,1595,526,3.27089,4.55332
378,498,8.42944,-4.70624,0,0,0,0,0,0,0,-1,1602,526,8.42942,4.70624
385,498,4.7793,-5.15314,0,0,0,0,0,0,0,-1,1609,526,4.77935,5.15311
392,498,3.44421,-4.27454,0,0,0,0,0,0,0,-1,1616,526,3.44416,4.27456
399,498,6.10608,-5.52478,0,0,0,0,0,0,0,-1,1623,526,6.10608,5.5248
406,498,5.13477,-4.99237,0,0,0,0,0,0,0,-1,1630,526,5.13482,4.99237
413,498,5.11719,-4.88879,0,0,0,0,0,0,0,-1,1637,526,5.11717,4.88877
420,498,4.74561,-4.90912,0,0,0,0,0,0,0,-1,1644,526,4.74557,4.90911
427,498,4.6001,-4.75531,-0.00660929,-0.00184115,-0.00614193,0.00236318,-0.0108136,-0.970528,0.00811237,0.0336658,1651,526,4.60005,4.75532
434,498,4.64172,-4.58508,-0.0049558,-0.000445307,-0.00469854,0.00251121,-0.00791231,-1.00915,0.00628155,0.0173302,1658,526,4.64175,4.58509
441,498,4.57898,-4.40851,-0.00361007,0.00045701,-0.00368148,0.00262925,-0.00578231,-1.03773,0.00496885,0.00962959,1665,526,4.57901,4.40852
448,498,4.5863,-4.23755,-0.00243306,0.00107304,-0.00264692,0.00249479,-0.00385481,-1.07788,0.00369387,0.00992801,1672,526,4.58635,4.23754
455,498,4.57178,-4.06934,-0.00150704,0.0014202,-0.00169963,0.00219956,-0.0022864,-1.14086,0.00259013,0.0136146,1679,526,4.57183,4.06933
462,498,4.547,-3.90106,-0.000646272,0.00135113,-0.000918861,0.00170952,-0.00100467,-1.1989,0.00158455,0.0152137,1686,526,4.54703,3.90109
469,498,4.53723,-3.73517,-2.91865e-05,0.00134146,-0.000495252,0.00150168,-0.000189407,-1.25791,0.00106986,0.0130039,1693,526,4.53726,3.73515
476,498,4.55811,-3.5506,0.000407092,0.00138573,-0.000275602,0.00145801,0.000334816,-1.31432,0.000881848,0.00984819,1700,526,4.55815,3.55062
483,498,4.56738,-3.3587,0.000789216,0.00156569,-0.000223654,0.0016255,0.000729403,-1.30948,0.000940128,0.00792924,1707,526,4.56738,3.35872
490,498,4.58386,-3.20532,0.00115917,0.00173121,-0.000233552,0.00181445,0.00107593,-1.22842,0.00105359,0.00955752,1714,526,4.58389,3.20532
497,498,4.60547,-3.03992,0.00134347,0.0020545,-0.000359259,0.00220441,0.00119355,-1.17548,0.00127417,0.0112243,1721,526,4.60552,3.03989
504,498,4.61011,-2.85565,0.00139638,0.00258283,-0.000463411,0.00274237,0.00123683,-1.23922,0.00158584,0.0140309,1728,526,4.61005,2.85568
511,498,4.6073,-2.6676,0.0015605,0.00311706,-0.000597397,0.0033199,0.00135765,-1.24347,0.00192731,0.0154437,1735,526,4.60734,2.66758
518,498,4.65381,-2.49359,0.00154079,0.00369182,-0.000811716,0.00396375,0.00126886,-1.24754,0.00233732,0.017231,1742,526,4.65385,2.49357
525,498,4.5675,-2.32001,0.00139097,0.00422504,-0.000998503,0.0045415,0.00107451,-1.26388,0.00274063,0.0264846,1749,526,4.56751,2.31998
532,498,4.50281,-2.20984,0.00118077,0.00473797,-0.00101476,0.00500709,0.000911655,-1.31156,0.00307949,0.035563,1756,526,4.50282,2.20982
539,498,4.58655,-2.1535,0.00107191,0.0054047,-0.000737328,0.00552674,0.000949872,-1.40677,0.00341223,0.0425132,1763,526,4.58659,2.15347
546,498,4.58154,-2.08722,0,0,0,0,0,0,0,-1,1770,526,4.58153,2.0872
553,498,4.61194,-1.37476,0,0,0,0,0,0,0,-1,1777,526,4.61189,1.37476
560,498,3.69385,-0.615112,0,0,0,0,0,0,0,-1,1784,526,3.69381,0.615118
567,498,5.12695,-0.581604,0,0,0,0,0,0,0,-1,1791,526,5.12699,0.58159
574,498,3.88,0.0286255,0,0,0,0,0,0,0,-1,1798,526,3.87999,-0.0286535
581,498,10.8722,2.58551,0,0,0,0,0,0,0,-1,1805,526,10.8723,-2.58551
588,498,0,0,0,0,0,0,0,0,0,-1,1812,526,0,0
595,498,0,0,0,0,0,0,0,0,0,-1,1819,526,0,0
602,498,0,0,0,0,0,0,0,0,0,-1,1826,526,0,0
609,498,0,0,0,0,0,0,0,0,0,-1,1833,526,0,0
616,498,0,0,0,0,0,0,0,0,0,-1,1840,526,0,0
623,498,0,0,0,0,0,0,0,0,0,-1,1847,526,0,0
630,498,0,0,0,0,0,0,0,0,0,-1,1854,526,0,0
637,498,0,0,0,0,0,0,0,0,0,-1,1861,526,0,0
644,498,0,0,0,0,0,0,0,0,0,-1,1868,526,0,0
651,498,0,0,0,0,0,0,0,0,0,-1,1875,526,0,0
658,498,0,0,0,0,0,0,0,0,0,-1,1882,526,0,0
665,498,0,0,0,0,0,0,0,0,0,-1,1889,526,0,0
672,498,0,0,0,0,0,0,0,0,0,-1,1896,526,0,0
679,498,0,0,0,0,0,0,0,0,0,-1,1903,526,0,0
686,498,0,0,0,0,0,0,0,0,0,-1,1910,526,0,0
693,498,0,0,0,0,0,0,0,0,0,-1,1917,526,0,0
700,498,0,0,0,0,0,0,0,0,0,-1,1924,526,0,0
707,498,0,0,0,0,0,0,0,0,0,-1,1931,526,0,0
714,498,0,0,0,0,0,0,0,0,0,-1,1938,526,0,0
721,498,0,0,0,0,0,0,0,0,0,-1,1945,526,0,0
728,498,0,0,0,0,0,0,0,0,0,-1,1952,526,0,0
735,498,0,0,0,0,0,0,0,0,0,-1,1959,526,0,0
742,498,0,0,0,0,0,0,0,0,0,-1,1966,526,0,0
749,498,0,0,0,0,0,0,0,0,0,-1,1973,526,0,0
756,498,0,0,0,0,0,0,0,0,0,-1,1980,526,0,0
763,498,0,0,0,0,0,0,0,0,0,-1,1987,526,0,0
770,498,0,0,0,0,0,0,0,0,0,-1,1994,526,0,0
777,498,0,0,0,0,0,0,0,0,0,-1,2001,526,0,0
784,498,0,0,0,0,0,0,0,0,0,-1,2008,526,0,0
791,498,0,0,0,0,0,0,0,0,0,-1,2015,526,0,0
798,498,0,0,0,0,0,0,0,0,0,-1,2022,526,0,0
805,498,0,0,0,0,0,0,0,0,0,-1,2029,526,0,0
812,498,0,0,0,0,0,0,0,0,0,-1,2036,526,0,0
-700,491,0,0,0,0,0,0,0,0,0,-1,524,533,0,0
-693,491,0,0,0,0,0,0,0,0,0,-1,531,533,0,0
-686,491,0,0,0,0,0,0,0,0,0,-1,538,533,0,0
-679,491,0,0,0,0,0,0,0,0,0,-1,545,533,0,0
-672,491,0,0,0,0,0,0,0,0,0,-1,552,533,0,0
-665,491,0,0,0,0,0,0,0,0,0,-1,559,533,0,0
-658,491,0,0,0,0,0,0,0,0,0,-1,566,533,0,0
-651,491,0,0,0,0,0,0,0,0,0,-1,573,533,0,0
-644,491,0,0,0,0,0,0,0,0,0,-1,580,533,0,0
-637,491,0,0,0,0,0,0,0,0,0,-1,587,533,0,0
-630,491,0,0,0,0,0,0,0,0,0,-1,594,533,0,0
-623,491,0,0,0,0,0,0,0,0,0,-1,601,533,0,0
-616,491,0,0,0,0,0,0,0,0,0,-1,608,533,0,0
-609,491,0,0,0,0,0,0,0,0,0,-1,615,533,0,0
-602,491,0,0,0,0,0,0,0,0,0,-1,622,533,0,0
-595,491,0,0,0,0,0,0,0,0,0,-1,629,533,0,0
-588,491,0,0,0,0,0,0,0,0,0,-1,636,533,0,0
-581,491,0,0,0,0,0,0,0,0,0,-1,643,533,0,0
-574,491,0,0,0,0,0,0,0,0,0,-1,650,533,0,0
-567,491,0,0,0,0,0,0,0,0,0,-1,657,533,0,0
-560,491,0,0,0,0,0,0,0,0,0,-1,664,533,0,0
-553,491,0,0,0,0,0,0,0,0,0,-1,671,533,0,0
-546,491,0,0,0,0,0,0,0,0,0,-1,678,533,0,0
-539,491,0,0,0,0,0,0,0,0,0,-1,685,533,0,0
-532,491,0,0,0,0,0,0,0,0,0,-1,692,533,0,0
-525,491,0,0,0,0,0,0,0,0,0,-1,699,533,0,0
-518,491,0,0,0,0,0,0,0,0,0,-1,706,533,0,0
-511,491,0,0,0,0,0,0,0,0,0,-1,713,533,0,0
-504,491,0,0,0,0,0,0,0,0,0,-1,720,533,0,0
-497,491,0,0,0,0,0,0,0,0,0,-1,727,533,0,0
-490,491,0,0,0,0,0,0,0,0,0,-1,734,533,0,0
-483,491,0,0,0,0,0,0,0,0,0,-1,741,533,0,0
-476,491,0,0,0,0,0,0,0,0,0,-1,748,533,0,0
-469,491,-4.83313,2.3125,0.164499,0.0222087,-0.0483723,0.179386,0.00732175,-0.298558,0.117226,0.0470361,755,533,-4.83312,-2.3125
-462,491,-3.90533,0.759277,0.137444,0.0170594,-0.0362209,0.147502,0.00700169,-0.270854,0.0960856,0.0433508,762,533,-3.90533,-0.759296
-455,491,-3.37384,-0.687927,0.111501,0.0130592,-0.0252983,0.117622,0.00693838,-0.237383,0.0762069,0.0465914,769,533,-3.37385,0.687927
-448,491,-2.50867,-1.22217,0,0,0,0,0,0,0,-1,776,533,-2.50865,1.22214
-441,491,-1.93555,-2.01007,0.0664265,0.00766207,-0.00855791,0.0676474,0.00644113,-0.14171,0.0431119,0.0492807,783,533,-1.93557,2.01008
-434,491,-1.56921,-2.50433,0.0482019,0.0059267,-0.00309998,0.048428,0.0057006,-0.0728096,0.0305629,0.0469919,790,533,-1.56924,2.50431
-427,491,-0.942261,-2.92725,0.0328766,0.00411884,0.000777641,0.0328976,0.00409782,0.0270147,0.0207015,0.0498773,797,533,-0.942243,2.92723
-420,491,-0.607239,-3.11865,0.0207352,0.00276321,0.00307746,0.0212475,0.00225084,0.164977,0.0134775,0.045648,804,533,-0.607229,3.11866
-413,491,-0.484863,-3.26154,0.0114485,0.00183227,0.00412778,0.0129773,0.000303469,0.354703,0.0085522,0.0362429,811,533,-0.484886,3.26154
-406,491,-0.372314,-3.45508,0.00481228,0.00108716,0.00455264,0.00786863,-0.00196919,0.591228,0.00601065,0.0203755,818,533,-0.372288,3.45506
-399,491,-0.400452,-3.62457,0.00116457,0.000650323,0.00381337,0.00472947,-0.00291458,0.751736,0.00445457,0.010726,825,533,-0.400464,3.62459
-392,491,-0.421204,-3.78503,-0.000695451,-0.000175059,0.00268984,0.00226714,-0.00313765,0.833615,0.00313392,0.00926709,832,533,-0.421184,3.78502
-385,491,-0.418091,-3.94415,-0.0017869,-0.000243363,0.00168936,0.000842171,-0.00287243,0.999662,0.00224887,0.00861839,839,533,-0.418068,3.94413
-378,491,-0.405823,-4.11401,-0.00206857,-0.000388032,0.000179427,-0.000369088,-0.00208751,1.46561,0.00128642,0.0118719,846,533,-0.405815,4.114
-371,491,-0.40332,-4.28198,-0.00153245,-0.000741551,-0.000736674,-0.000300897,-0.0019731,-1.03173,0.00122746,0.0133423,853,533,-0.403325,4.282
-364,491,-0.399048,-4.42841,-0.000562643,-0.00116311,-0.00103864,0.000218289,-0.00194404,-0.644701,0.00137458,0.01342,860,533,-0.399027,4.42839
-357,491,-0.410828,-4.5882,0.000361543,-0.000815695,-0.00125202,0.0011564,-0.00161056,-0.565661,0.00160466,0.0120576,867,533,-0.410819,4.58821
-350,491,-0.414917,-4.73926,0.000891261,-0.00037555,-0.00149096,0.00187778,-0.00136207,-0.584534,0.00187841,0.0150663,874,533,-0.41491,4.73923
-343,491,-0.406372,-4.8786,0.000985218,-6.25116e-05,-0.00139377,0.00195033,-0.00102762,-0.605635,0.00174661,0.0235416,881,533,-0.406375,4.87859
-336,491,-0.415039,-5.02295,0.000926921,0.000157097,-0.00121124,0.00181294,-0.000728924,-0.631553,0.00151138,0.0234612,888,533,-0.415044,5.02293
-329,491,-0.427368,-5.20325,0.000908083,0.000299544,-0.00105613,0.0017029,-0.000495274,-0.645147,0.00133143,0.0249956,895,533,-0.427382,5.20328
-322,491,-0.413452,-5.38147,0.000971671,9.78944e-05,-0.000836353,0.00147837,-0.000408805,-0.544706,0.00114641,0.0230781,902,533,-0.413476,5.3815
-315,491,-0.430054,-5.51746,0.0032143,-0.00030987,-0.00142358,0.0037175,-0.000813072,-0.339768,0.00278914,0.0175172,909,533,-0.430078,5.51748
-308,491,-0.302612,-5.72375,0.0112684,-0.00208504,-0.00288006,0.0118631,-0.00267972,-0.203622,0.00893691,0.0345688,916,533,-0.302588,5.72376
-301,491,-0.0376587,-5.98322,0,0,0,0,0,0,0,-1,923,533,-0.0376812,5.98324
-294,491,-0.660522,-6.02924,0,0,0,0,0,0,0,-1,930,533,-0.660496,6.02922
-287,491,-0.628296,-6.33087,0,0,0,0,0,0,0,-1,937,533,-0.628313,6.33085
-280,491,0.2948,-5.99219,0,0,0,0,0,0,0,-1,944,533,0.294811,5.99221
-273,491,0.369995,-5.33691,0,0,0,0,0,0,0,-1,951,533,0.369985,5.33693
-266,491,1.1167,-5.0321,0,0,0,0,0,0,0,-1,958,533,1.11668,5.0321
-259,491,12.0862,-16.9615,0,0,0,0,0,0,0,-1,965,533,12.0862,16.9615
-252,491,9.72443,-13.8417,0,0,0,0,0,0,0,-1,972,533,9.72444,13.8418
-245,491,7.36926,-10.7169,0,0,0,0,0,0,0,-1,979,533,7.36924,10.7169
-238,491,4.84167,-7.53986,0,0,0,0,0,0,0,-1,986,533,4.84169,7.53984
-231,491,2.15582,-5.05225,0,0,0,0,0,0,0,-1,993,533,2.1558,5.05223
-224,491,-0.429749,-3.09216,0,0,0,0,0,0,0,-1,1000,533,-0.429743,3.09215
-217,491,-2.92743,-1.0766,0,0,0,0,0,0,0,-1,1007,533,-2.92743,1.07659
-210,491,-0.92395,0.374512,0,0,0,0,0,0,0,-1,1014,533,-0.923959,-0.374531
-203,491,0.417419,4.77161,0,0,0,0,0,0,0,-1,1021,533,0.417446,-4.77162
-196,491,0,0,0,0,0,0,0,0,0,-1,1028,533,0,0
-189,491,0,0,0,0,0,0,0,0,0,-1,1035,533,0,0
-182,491,0,0,0,0,0,0,0,0,0,-1,1042,533,0,0
-175,491,0,0,0,0,0,0,0,0,0,-1,1049,533,0,0
-168,491,0,0,0,0,0,0,0,0,0,-1,1056,533,0,0
-161,491,0,0,0,0,0,0,0,0,0,-1,1063,533,0,0
-154,491,0,0,0,0,0,0,0,0,0,-1,1070,533,0,0
-147,491,0,0,0,0,0,0,0,0,0,-1,1077,533,0,0
-140,491,0,0,0,0,0,0,0,0,0,-1,1084,533,0,0
-133,491,0,0,0,0,0,0,0,0,0,-1,1091,533,0,0
-126,491,0,0,0,0,0,0,0,0,0,-1,1098,533,0,0
-119,491,0,0,0,0,0,0,0,0,0,-1,1105,533,0,0
-112,491,0,0,0,0,0,0,0,0,0,-1,1112,533,0,0
-105,491,0,0,0,0,0,0,0,0,0,-1,1119,533,0,0
-98,491,0,0,0,0,0,0,0,0,0,-1,1126,533,0,0
-91,491,0,0,0,0,0,0,0,0,0,-1,1133,533,0,0
-84,491,0,0,0,0,0,0,0,0,0,-1,1140,533,0,0
-77,491,0,0,0,0,0,0,0,0,0,-1,1147,533,0,0
-70,491,0,0,0,0,0,0,0,0,0,-1,1154,533,0,0
-63,491,0,0,0,0,0,0,0,0,0,-1,1161,533,0,0
-56,491,0,0,0,0,0,0,0,0,0,-1,1168,533,0,0
-49,491,0,0,0,0,0,0,0,0,0,-1,1175,533,0,0
-42,491,0,0,0,0,0,0,0,0,0,-1,1182,533,0,0
-35,491,0,0,0,0,0,0,0,0,0,-1,1189,533,0,0
-28,491,0,0,0,0,0,0,0,0,0,-1,1196,533,0,0
-21,491,0,0,0,0,0,0,0,0,0,-1,1203,533,0,0
-14,491,0,0,0,0,0,0,0,0,0,-1,1210,533,0,0
-7,491,0,0,0,0,0,0,0,0,0,-1,1217,533,0,0
0,491,0,0,0,0,0,0,0,0,0,-1,1224,533,0,0
7,491,0,0,0,0,0,0,0,0,0,-1,1231,533,0,0
14,491,0,0,0,0,0,0,0,0,0,-1,1238,533,0,0
21,491,0,0,0,0,0,0,0,0,0,-1,1245,533,0,0
28,491,0,0,0,0,0,0,0,0,0,-1,1252,533,0,0
35,491,0,0,0,0,0,0,0,0,0,-1,1259,533,0,0
42,491,0,0,0,0,0,0,0,0,0,-1,1266,533,0,0
49,491,0,0,0,0,0,0,0,0,0,-1,1273,533,0,0
56,491,0,0,0,0,0,0,0,0,0,-1,1280,533,0,0
63,491,0,0,0,0,0,0,0,0,0,-1,1287,533,0,0
70,491,0,0,0,0,0,0,0,0,0,-1,1294,533,0,0
77,491,0,0,0,0,0,0,0,0,0,-1,1301,533,0,0
84,491,0,0,0,0,0,0,0,0,0,-1,1308,533,0,0
91,491,0,0,0,0,0,0,0,0,0,-1,1315,533,0,0
98,491,0,0,0,0,0,0,0,0,0,-1,1322,533,0,0
105,491,0,0,0,0,0,0,0,0,0,-1,1329,533,0,0
112,491,0,0,0,0,0,0,0,0,0,-1,1336,533,0,0
119,491,0,0,0,0,0,0,0,0,0,-1,1343,533,0,0
126,491,0,0,0,0,0,0,0,0,0,-1,1350,533,0,0
133,491,0,0,0,0,0,0,0,0,0,-1,1357,533,0,0
140,491,0,0,0,0,0,0,0,0,0,-1,1364,533,0,0
147,491,0,0,0,0,0,0,0,0,0,-1,1371,533,0,0
154,491,0,0,0,0,0,0,0,0,0,-1,1378,533,0,0
161,491,0,0,0,0,0,0,0,0,0,-1,1385,533,0,0
168,491,0,0,0,0,0,0,0,0,0,-1,1392,533,0,0
175,491,0,0,0,0,0,0,0,0,0,-1,1399,533,0,0
182,491,0,0,0,0,0,0,0,0,0,-1,1406,533,0,0
189,491,0,0,0,0,0,0,0,0,0,-1,1413,533,0,0
196,491,0,0,0,0,0,0,0,0,0,-1,1420,533,0,0
203,491,0,0,0,0,0,0,0,0,0,-1,1427,533,0,0
210,491,0,0,0,0,0,0,0,0,0,-1,1434,533,0,0
217,491,0,0,0,0,0,0,0,0,0,-1,1441,533,0,0
224,491,0,0,0,0,0,0,0,0,0,-1,1448,533,0,0
231,491,0,0,0,0,0,0,0,0,0,-1,1455,533,0,0
238,491,0,0,0,0,0,0,0,0,0,-1,1462,533,0,0
245,491,0,0,0,0,0,0,0,0,0,-1,1469,533,0,0
252,491,0,0,0,0,0,0,0,0,0,-1,1476,533,0,0
259,491,0,0,0,0,0,0,0,0,0,-1,1483,533,0,0
266,491,0,0,0,0,0,0,0,0,0,-1,1490,533,0,0
273,491,0,0,0,0,0,0,0,0,0,-1,1497,533,0,0
280,491,0,0,0,0,0,0,0,0,0,-1,1504,533,0,0
287,491,0,0,0,0,0,0,0,0,0,-1,1511,533,0,0
294,491,0,0,0,0,0,0,0,0,0,-1,1518,533,0,0
301,491,0,0,0,0,0,0,0,0,0,-1,1525,533,0,0
308,491,0,0,0,0,0,0,0,0,0,-1,1532,533,0,0
315,491,0,0,0,0,0,0,0,0,0,-1,1539,533,0,0
322,491,4.26331,-0.734314,0,0,0,0,0,0,0,-1,1546,533,4.26326,0.734324
329,491,4.25354,-0.783752,0,0,0,0,0,0,0,-1,1553,533,4.25359,0.783734
336,491,4.81604,-0.722107,0,0,0,0,0,0,0,-1,1560,533,4.81605,0.722115
343,491,6.14478,-1.44281,0,0,0,0,0,0,0,-1,1567,533,6.14474,1.44281
350,491,6.36353,-1.30792,0,0,0,0,0,0,0,-1,1574,533,6.36352,1.3079
357,491,6.69482,-1.06018,0,0,0,0,0,0,0,-1,1581,533,6.69489,1.06018
364,491,8.01086,-1.69604,0,0,0,0,0,0,0,-1,1588,533,8.01087,1.69607
371,491,8.2135,-0.539307,0,0,0,0,0,0,0,-1,1595,533,8.21348,0.53929
378,491,13.3868,1.12128,0,0,0,0,0,0,0,-1,1602,533,13.3869,-1.12126
385,491,8.08228,-4.95471,0,0,0,0,0,0,0,-1,1609,533,8.08227,4.95474
392,491,2.88721,-4.30988,0,0,0,0,0,0,0,-1,1616,533,2.88716,4.30986
399,491,7.08691,-4.86603,0,0,0,0,0,0,0,-1,1623,533,7.08696,4.86606
406,491,5.62842,-4.76996,0,0,0,0,0,0,0,-1,1630,533,5.62843,4.76998
413,491,5.31848,-3.7124,0,0,0,0,0,0,0,-1,1637,533,5.31849,3.7124
420,491,4.86389,-3.95892,0,0,0,0,0,0,0,-1,1644,533,4.86387,3.95893
427,491,5.04504,-4.77869,0,0,0,0,0,0,0,-1,1651,533,5.04507,4.77867
434,491,4.94336,-4.59845,-0.00616287,-6.28829e-05,-0.00568258,0.00333648,-0.00956223,-1.0317,0.00773082,0.0357546,1658,533,4.94337,4.59844
441,491,4.79529,-4.47809,-0.00449623,0.0010877,-0.00443896,0.00353973,-0.00694825,-1.06612,0.00616091,0.0235093,1665,533,4.79528,4.47809
448,491,4.76526,-4.23846,-0.00309069,0.00174189,-0.00324539,0.00337172,-0.00472051,-1.10539,0.00469363,0.0132032,1672,533,4.76521,4.23845
455,491,4.74329,-4.06635,-0.00200747,0.00210056,-0.00216014,0.00302735,-0.00293426,-1.16551,0.00344208,0.0117466,1679,533,4.74332,4.06636
462,491,4.72559,-3.91779,-0.00102455,0.00181152,-0.00120921,0.00225709,-0.00147012,-1.21776,0.00216783,0.0147525,1686,533,4.72561,3.91781
469,491,4.72668,-3.742,-0.000356511,0.00160413,-0.000671774,0.00181221,-0.000564596,-1.27041,0.00143389,0.0136928,1693,533,4.72665,3.74203
476,491,4.76514,-3.54321,0.000100755,0.00144458,-0.000379214,0.0015442,1.1301e-06,-1.31389,0.00102909,0.0100613,1700,533,4.76508,3.5432
483,491,4.74939,-3.34082,0.00046834,0.00139763,-0.000247952,0.00145965,0.00040632,-1.3257,0.000869885,0.0108211,1707,533,4.74945,3.34084
490,491,4.75623,-3.2027,0.000824712,0.00131691,-0.000167513,0.00136851,0.000773111,-1.27198,0.000792327,0.00966483,1714,533,4.75621,3.20269
497,491,4.76294,-3.047,0.000981215,0.0013212,-0.000223338,0.00143188,0.000870534,-1.11069,0.000833094,0.0110111,1721,533,4.7629,3.04697
504,491,4.78772,-2.84967,0.000981376,0.00151885,-0.000276802,0.00163591,0.000864316,-1.1707,0.000944996,0.0123268,1728,533,4.78774,2.84966
511,491,4.77112,-2.65857,0.00106753,0.0016856,-0.000322628,0.00182332,0.000929807,-1.16734,0.00105276,0.0116505,1735,533,4.77114,2.65856
518,491,4.75696,-2.49603,0.000977698,0.00187914,-0.000450043,0.00206535,0.000791482,-1.17847,0.00120322,0.00907654,1742,533,4.75701,2.49606
525,491,4.76147,-2.31458,0.000769319,0.00204555,-0.000578526,0.00226876,0.000546108,-1.20257,0.00136732,0.00892351,1749,533,4.7615,2.31459
532,491,4.77991,-2.146,0.000504831,0.00224029,-0.000572439,0.0024121,0.000333021,-1.27921,0.00150935,0.0142566,1756,533,4.7799,2.14601
539,491,4.75208,-2.02039,0.000312804,0.00254246,-0.000349535,0.00259597,0.000259293,-1.41888,0.00165102,0.0214811,1763,533,4.75203,2.02039
546,491,4.66626,-1.74402,0.000156582,0.00281381,2.46407e-05,0.00281404,0.000156353,1.56152,0.00182614,0.0361947,1770,533,4.66621,1.74401
553,491,4.64575,-1.35956,3.68245e-05,0.00296266,0.000475523,0.003038,-3.85201e-05,1.41366,0.0020383,0.0465504,1777,533,4.64579,1.35956
560,491,4.54419,-1.09155,0,0,0,0,0,0,0,-1,1784,533,4.54416,1.09154
567,491,5.67651,-1.3562,0,0,0,0,0,0,0,-1,1791,533,5.67649,1.3562
574,491,8.0719,1.58325,0,0,0,0,0,0,0,-1,1798,533,8.07195,-1.58326
581,491,9.44812,1.60931,0,0,0,0,0,0,0,-1,1805,533,9.44808,-1.60933
588,491,11.0497,1.54962,0,0,0,0,0,0,0,-1,1812,533,11.0496,-1.54963
595,491,0,0,0,0,0,0,0,0,0,-1,1819,533,0,0
602,491,0,0,0,0,0,0,0,0,0,-1,1826,533,0,0
609,491,0,0,0,0,0,0,0,0,0,-1,1833,533,0,0
616,491,0,0,0,0,0,0,0,0,0,-1,1840,533,0,0
623,491,0,0,0,0,0,0,0,0,0,-1,1847,533,0,0
630,491,0,0,0,0,0,0,0,0,0,-1,1854,533,0,0
637,491,0,0,0,0,0,0,0,0,0,-1,1861,533,0,0
644,491,0,0,0,0,0,0,0,0,0,-1,1868,533,0,0
651,491,0,0,0,0,0,0,0,0,0,-1,1875,533,0,0
658,491,0,0,0,0,0,0,0,0,0,-1,1882,533,0,0
665,491,0,0,0,0,0,0,0,0,0,-1,1889,533,0,0
672,491,0,0,0,0,0,0,0,0,0,-1,1896,533,0,0
679,491,0,0,0,0,0,0,0,0,0,-1,1903,533,0,0
686,491,0,0,0,0,0,0,0,0,0,-1,1910,533,0,0
693,491,0,0,0,0,0,0,0,0,0,-1,1917,533,0,0
700,491,0,0,0,0,0,0,0,0,0,-1,1924,533,0,0
707,491,0,0,0,0,0,0,0,0,0,-1,1931,533,0,0
714,491,0,0,0,0,0,0,0,0,0,-1,1938,533,0,0
721,491,0,0,0,0,0,0,0,0,0,-1,1945,533,0,0
728,491,0,0,0,0,0,0,0,0,0,-1,1952,533,0,0
735,491,0,0,0,0,0,0,0,0,0,-1,1959,533,0,0
742,491,0,0,0,0,0,0,0,0,0,-1,1966,533,0,0
749,491,0,0,0,0,0,0,0,0,0,-1,1973,533,0,0
756,491,0,0,0,0,0,0,0,0,0,-1,1980,533,0,0
763,491,0,0,0,0,0,0,0,0,0,-1,1987,533,0,0
770,491,0,0,0,0,0,0,0,0,0,-1,1994,533,0,0
777,491,0,0,0,0,0,0,0,0,0,-1,2001,533,0,0
784,491,0,0,0,0,0,0,0,0,0,-1,2008,533,0,0
791,491,0,0,0,0,0,0,0,0,0,-1,2015,533,0,0
798,491,0,0,0,0,0,0,0,0,0,-1,2022,533,0,0
805,491,0,0,0,0,0,0,0,0,0,-1,2029,533,0,0
812,491,0,0,0,0,0,0,0,0,0,-1,2036,533,0,0
-700,484,0,0,0,0,0,0,0,0,0,-1,524,540,0,0
-693,484,0,0,0,0,0,0,0,0,0,-1,531,540,0,0
-686,484,0,0,0,0,0,0,0,0,0,-1,538,540,0,0
-679,484,0,0,0,0,0,0,0,0,0,-1,545,540,0,0
-672,484,0,0,0,0,0,0,0,0,0,-1,552,540,0,0
-665,484,0,0,0,0,0,0,0,0,0,-1,559,540,0,0
-658,484,0,0,0,0,0,0,0,0,0,-1,566,540,0,0
-651,484,0,0,0,0,0,0,0,0,0,-1,573,540,0,0
-644,484,0,0,0,0,0,0,0,0,0,-1,580,540,0,0
-637,484,0,0,0,0,0,0,0,0,0,-1,587,540,0,0
-630,484,0,0,0,0,0,0,0,0,0,-1,594,540,0,0
-623,484,0,0,0,0,0,0,0,0,0,-1,601,540,0,0
-616,484,0,0,0,0,0,0,0,0,0,-1,608,540,0,0
-609,484,0,0,0,0,0,0,0,0,0,-1,615,540,0,0
-602,484,0,0,0,0,0,0,0,0,0,-1,622,540,0,0
-595,484,0,0,0,0,0,0,0,0,0,-1,629,540,0,0
-588,484,0,0,0,0,0,0,0,0,0,-1,636,540,0,0
-581,484,0,0,0,0,0,0,0,0,0,-1,643,540,0,0
-574,484,0,0,0,0,0,0,0,0,0,-1,650,540,0,0
-567,484,0,0,0,0,0,0,0,0,0,-1,657,540,0,0
-560,484,0,0,0,0,0,0,0,0,0,-1,664,540,0,0
-553,484,0,0,0,0,0,0,0,0,0,-1,671,540,0,0
-546,484,0,0,0,0,0,0,0,0,0,-1,678,540,0,0
-539,484,0,0,0,0,0,0,0,0,0,-1,685,540,0,0
-532,484,0,0,0,0,0,0,0,0,0,-1,692,540,0,0
-525,484,0,0,0,0,0,0,0,0,0,-1,699,540,0,0
-518,484,0,0,0,0,0,0,0,0,0,-1,706,540,0,0
-511,484,0,0,0,0,0,0,0,0,0,-1,713,540,0,0
-504,484,0,0,0,0,0,0,0,0,0,-1,720,540,0,0
-497,484,0,0,0,0,0,0,0,0,0,-1,727,540,0,0
-490,484,0,0,0,0,0,0,0,0,0,-1,734,540,0,0
-483,484,0,0,0,0,0,0,0,0,0,-1,741,540,0,0
-476,484,-6.51776,4.0459,0,0,0,0,0,0,0,-1,748,540,-6.51775,-4.04591
-469,484,-5.76086,2.32959,0.151694,0.0226229,-0.0473591,0.167206,0.00711016,-0.316541,0.109178,0.0473672,755,540,-5.76085,-2.32958
-462,484,-4.99866,0.658569,0.126595,0.0171341,-0.0364243,0.137607,0.0061214,-0.293606,0.0897673,0.0432958,762,540,-4.99868,-0.658599
-455,484,-3.6897,-0.426514,0,0,0,0,0,0,0,-1,769,540,-3.68968,0.426518
-448,484,-2.64093,-3.15881,0,0,0,0,0,0,0,-1,776,540,-2.64092,3.15882
-441,484,-2.08813,-1.91614,0,0,0,0,0,0,0,-1,783,540,-2.08816,1.91615
-434,484,-1.76489,-1.97119,0.0450931,0.00510679,-0.00574186,0.0459012,0.00429862,-0.139833,0.0292734,0.0483991,790,540,-1.76487,1.97121
-427,484,-0.970276,-2.78906,0.0311316,0.00337394,-0.00191567,0.0312631,0.00324235,-0.0685807,0.0198498,0.0403848,797,540,-0.970295,2.78905
-420,484,-0.594788,-3.11298,0.0201626,0.00220152,0.000488896,0.0201759,0.00218822,0.0271929,0.0127838,0.0289895,804,540,-0.594782,3.11297
-413,484,-0.547791,-3.27502,0.0118263,0.0014724,0.00177406,0.0121218,0.00117686,0.165072,0.00771888,0.017668,811,540,-0.547795,3.27503
-406,484,-0.541626,-3.47021,0.00583848,0.000921837,0.00247097,0.00686571,-0.000105391,0.393983,0.00461267,0.0117549,818,540,-0.541598,3.47023
-399,484,-0.556763,-3.63623,0.00261066,0.000663861,0.00205127,0.00390778,-0.00063325,0.563863,0.0028399,0.0147959,825,540,-0.556775,3.6362
-392,484,-0.563293,-3.79126,0.000876653,6.50624e-06,0.00131184,0.00182368,-0.000940526,0.62528,0.00162284,0.0169492,832,540,-0.563302,3.79126
-385,484,-0.569275,-3.94934,-0.000106491,-5.86458e-05,0.000618937,0.00053683,-0.000701968,0.804714,0.000717335,0.0112783,839,540,-0.56929,3.94936
-378,484,-0.566345,-4.12164,-0.000411975,-0.000251408,-0.000493267,0.000168066,-0.000831449,-0.86607,0.000617987,0.0123913,846,540,-0.566327,4.12165
-371,484,-0.562927,-4.27441,-3.99302e-05,-0.000616754,-0.00117659,0.000883083,-0.00153977,-0.665206,0.00141586,0.0147854,853,540,-0.562933,4.27442
-364,484,-0.563599,-4.40057,0.000671537,-0.000972978,-0.00134693,0.00142736,-0.0017288,-0.511358,0.00182498,0.0117618,860,540,-0.563606,4.40057
-357,484,-0.565918,-4.56525,0.001405,-0.000866924,-0.00152661,0.00217192,-0.00163384,-0.465539,0.00220457,0.0131872,867,540,-0.565929,4.56526
-350,484,-0.565979,-4.72437,0.00175648,-0.000671074,-0.0016971,0.00262918,-0.00154378,-0.474968,0.00243627,0.0153208,874,540,-0.565989,4.72435
-343,484,-0.585022,-4.8797,0.00172202,-0.000478767,-0.0016364,0.0025936,-0.00135034,-0.4894,0.00231444,0.0233882,881,540,-0.585018,4.87967
-336,484,-0.581055,-5.03217,0.00152517,-0.000232913,-0.00154768,0.00242602,-0.00113376,-0.527129,0.0020999,0.0257254,888,540,-0.581035,5.03219
-329,484,-0.609863,-5.16949,0.00141082,-5.11872e-05,-0.00151574,0.00236262,-0.00100299,-0.560714,0.00199529,0.0282769,895,540,-0.609835,5.16947
-322,484,-0.435913,-5.41888,0.00142117,-0.000248244,-0.00136096,0.00218301,-0.00101008,-0.510319,0.00188453,0.0317423,902,540,-0.43589,5.41886
-315,484,-0.570068,-5.52551,0.00504387,-0.000808449,-0.002526,0.00598334,-0.00174792,-0.356068,0.00468159,0.0344107,909,540,-0.570049,5.52549
-308,484,-0.203247,-5.70337,0,0,0,0,0,0,0,-1,916,540,-0.203235,5.70335
-301,484,-0.413025,-4.94653,0,0,0,0,0,0,0,-1,923,540,-0.413034,4.94656
-294,484,-1.28888,-6.28583,0,0,0,0,0,0,0,-1,930,540,-1.28887,6.28584
-287,484,-0.715759,-5.62103,0,0,0,0,0,0,0,-1,937,540,-0.715772,5.62105
-280,484,2.66742,-1.6795,0,0,0,0,0,0,0,-1,944,540,2.6674,1.67949
-273,484,2.53125,-2.22296,0,0,0,0,0,0,0,-1,951,540,2.53128,2.22295
-266,484,2.6778,-2.72058,0,0,0,0,0,0,0,-1,958,540,2.6778,2.72061
-259,484,2.41718,-2.59894,0,0,0,0,0,0,0,-1,965,540,2.41717,2.59892
-252,484,10.6069,-11.696,0,0,0,0,0,0,0,-1,972,540,10.6069,11.696
-245,484,8.0415,-9.22931,0,0,0,0,0,0,0,-1,979,540,8.0415,9.2293
-238,484,5.56836,-6.82672,0,0,0,0,0,0,0,-1,986,540,5.56834,6.82672
-231,484,3.39185,-3.8576,0,0,0,0,0,0,0,-1,993,540,3.39183,3.85763
-224,484,1.14313,-1.21228,0,0,0,0,0,0,0,-1,1000,540,1.14312,1.21226
-217,484,-0.745056,1.17358,0,0,0,0,0,0,0,-1,1007,540,-0.745043,-1.17359
-210,484,0,0,0,0,0,0,0,0,0,-1,1014,540,0,0
-203,484,0,0,0,0,0,0,0,0,0,-1,1021,540,0,0
-196,484,0,0,0,0,0,0,0,0,0,-1,1028,540,0,0
-189,484,0,0,0,0,0,0,0,0,0,-1,1035,540,0,0
-182,484,0,0,0,0,0,0,0,0,0,-1,1042,540,0,0
-175,484,0,0,0,0,0,0,0,0,0,-1,1049,540,0,0
-168,484,0,0,0,0,0,0,0,0,0,-1,1056,540,0,0
-161,484,0,0,0,0,0,0,0,0,0,-1,1063,540,0,0
-154,484,0,0,0,0,0,0,0,0,0,-1,1070,540,0,0
-147,484,0,0,0,0,0,0,0,0,0,-1,1077,540,0,0
-140,484,0,0,0,0,0,0,0,0,0,-1,1084,540,0,0
-133,484,0,0,0,0,0,0,0,0,0,-1,1091,540,0,0
-126,484,0,0,0,0,0,0,0,0,0,-1,1098,540,0,0
-119,484,0,0,0,0,0,0,0,0,0,-1,1105,540,0,0
-112,484,0,0,0,0,0,0,0,0,0,-1,1112,540,0,0
-105,484,0,0,0,0,0,0,0,0,0,-1,1119,540,0,0
-98,484,0,0,0,0,0,0,0,0,0,-1,1126,540,0,0
-91,484,0,0,0,0,0,0,0,0,0,-1,1133,540,0,0
-84,484,0,0,0,0,0,0,0,0,0,-1,1140,540,0,0
-77,484,0,0,0,0,0,0,0,0,0,-1,1147,540,0,0
-70,484,0,0,0,0,0,0,0,0,0,-1,1154,540,0,0
-63,484,0,0,0,0,0,0,0,0,0,-1,1161,540,0,0
-56,484,0,0,0,0,0,0,0,0,0,-1,1168,540,0,0
-49,484,0,0,0,0,0,0,0,0,0,-1,1175,540,0,0
-42,484,0,0,0,0,0,0,0,0,0,-1,1182,540,0,0
-35,484,0,0,0,0,0,0,0,0,0,-1,1189,540,0,0
-28,484,0,0,0,0,0,0,0,0,0,-1,1196,540,0,0
-21,484,0,0,0,0,0,0,0,0,0,-1,1203,540,0,0
-14,484,0,0,0,0,0,0,0,0,0,-1,1210,540,0,0
-7,484,0,0,0,0,0,0,0,0,0,-1,1217,540,0,0
0,484,0,0,0,0,0,0,0,0,0,-1,1224,540,0,0
7,484,0,0,0,0,0,0,0,0,0,-1,1231,540,0,0
14,484,0,0,0,0,0,0,0,0,0,-1,1238,540,0,0
21,484,0,0,0,0,0,0,0,0,0,-1,1245,540,0,0
28,484,0,0,0,0,0,0,0,0,0,-1,1252,540,0,0
35,484,0,0,0,0,0,0,0,0,0,-1,1259,540,0,0
42,484,0,0,0,0,0,0,0,0,0,-1,1266,540,0,0
49,484,0,0,0,0,0,0,0,0,0,-1,1273,540,0,0
56,484,0,0,0,0,0,0,0,0,0,-1,1280,540,0,0
63,484,0,0,0,0,0,0,0,0,0,-1,1287,540,0,0
70,484,0,0,0,0,0,0,0,0,0,-1,1294,540,0,0
77,484,0,0,0,0,0,0,0,0,0,-1,1301,540,0,0
84,484,0,0,0,0,0,0,0,0,0,-1,1308,540,0,0
91,484,0,0,0,0,0,0,0,0,0,-1,1315,540,0,0
98,484,0,0,0,0,0,0,0,0,0,-1,1322,540,0,0
105,484,0,0,0,0,0,0,0,0,0,-1,1329,540,0,0
112,484,0,0,0,0,0,0,0,0,0,-1,1336,540,0,0
119,484,0,0,0,0,0,0,0,0,0,-1,1343,540,0,0
126,484,0,0,0,0,0,0,0,0,0,-1,1350,540,0,0
133,484,0,0,0,0,0,0,0,0,0,-1,1357,540,0,0
140,484,0,0,0,0,0,0,0,0,0,-1,1364,540,0,0
147,484,0,0,0,0,0,0,0,0,0,-1,1371,540,0,0
154,484,0,0,0,0,0,0,0,0,0,-1,1378,540,0,0
161,484,0,0,0,0,0,0,0,0,0,-1,1385,540,0,0
168,484,0,0,0,0,0,0,0,0,0,-1,1392,540,0,0
175,484,0,0,0,0,0,0,0,0,0,-1,1399,540,0,0
182,484,0,0,0,0,0,0,0,0,0,-1,1406,540,0,0
189,484,0,0,0,0,0,0,0,0,0,-1,1413,540,0,0
196,484,0,0,0,0,0,0,0,0,0,-1,1420,540,0,0
203,484,0,0,0,0,0,0,0,0,0,-1,1427,540,0,0
210,484,0,0,0,0,0,0,0,0,0,-1,1434,540,0,0
217,484,0,0,0,0,0,0,0,0,0,-1,1441,540,0,0
224,484,0,0,0,0,0,0,0,0,0,-1,1448,540,0,0
231,484,0,0,0,0,0,0,0,0,0,-1,1455,540,0,0
238,484,0,0,0,0,0,0,0,0,0,-1,1462,540,0,0
245,484,0,0,0,0,0,0,0,0,0,-1,1469,540,0,0
252,484,0,0,0,0,0,0,0,0,0,-1,1476,540,0,0
259,484,0,0,0,0,0,0,0,0,0,-1,1483,540,0,0
266,484,0,0,0,0,0,0,0,0,0,-1,1490,540,0,0
273,484,0,0,0,0,0,0,0,0,0,-1,1497,540,0,0
280,484,0,0,0,0,0,0,0,0,0,-1,1504,540,0,0
287,484,0,0,0,0,0,0,0,0,0,-1,1511,540,0,0
294,484,0,0,0,0,0,0,0,0,0,-1,1518,540,0,0
301,484,0,0,0,0,0,0,0,0,0,-1,1525,540,0,0
308,484,0,0,0,0,0,0,0,0,0,-1,1532,540,0,0
315,484,0,0,0,0,0,0,0,0,0,-1,1539,540,0,0
322,484,0,0,0,0,0,0,0,0,0,-1,1546,540,0,0
329,484,0,0,0,0,0,0,0,0,0,-1,1553,540,0,0
336,484,4.38708,-1.64136,0,0,0,0,0,0,0,-1,1560,540,4.38704,1.64138
343,484,7.57996,-1.05457,0,0,0,0,0,0,0,-1,1567,540,7.57995,1.05454
350,484,8.10425,-1.18878,0,0,0,0,0,0,0,-1,1574,540,8.1043,1.18877
357,484,7.74902,-3.80286,0,0,0,0,0,0,0,-1,1581,540,7.74901,3.80287
364,484,6.31262,-3.87213,0,0,0,0,0,0,0,-1,1588,540,6.31263,3.87215
371,484,8.71362,0.452087,0,0,0,0,0,0,0,-1,1595,540,8.71363,-0.452062
378,484,11.5304,1.16388,0,0,0,0,0,0,0,-1,1602,540,11.5304,-1.16387
385,484,14.3472,1.87567,0,0,0,0,0,0,0,-1,1609,540,14.3471,-1.87567
392,484,7.39453,-4.95026,0,0,0,0,0,0,0,-1,1616,540,7.39448,4.95023
399,484,7.14417,-2.5639,0,0,0,0,0,0,0,-1,1623,540,7.14417,2.56391
406,484,7.88953,-2.47321,0,0,0,0,0,0,0,-1,1630,540,7.88954,2.47323
413,484,4.4895,-1.08673,0,0,0,0,0,0,0,-1,1637,540,4.48952,1.08674
420,484,4.50012,-2.11255,0,0,0,0,0,0,0,-1,1644,540,4.50012,2.11256
427,484,5.28601,-3.54053,0,0,0,0,0,0,0,-1,1651,540,5.28599,3.54051
434,484,5.37732,-4.59497,0,0,0,0,0,0,0,-1,1658,540,5.37732,4.59496
441,484,5.07568,-4.55145,0,0,0,0,0,0,0,-1,1665,540,5.07573,4.55145
448,484,4.87476,-4.22449,-0.00386655,0.00254757,-0.00389178,0.00438344,-0.00570242,-1.13002,0.00583965,0.0420089,1672,540,4.87478,4.22446
455,484,4.90845,-4.07593,-0.0025648,0.00290322,-0.00262588,0.00395999,-0.00362157,-1.18818,0.00437867,0.0207489,1679,540,4.90843,4.07593
462,484,4.92896,-3.91791,-0.00127994,0.00256393,-0.00153485,0.00310158,-0.00181759,-1.23385,0.00287216,0.0153387,1686,540,4.929,3.91788
469,484,4.94348,-3.73218,-0.000443592,0.00224734,-0.000861496,0.00249952,-0.000695766,-1.28604,0.0019403,0.0163811,1693,540,4.94354,3.73219
476,484,4.95459,-3.53558,6.95219e-05,0.00188173,-0.00045825,0.00199101,-3.97645e-05,-1.33668,0.00134079,0.0152796,1700,540,4.95456,3.5356
483,484,4.94763,-3.3573,0.000431978,0.00158747,-0.0002095,0.00162428,0.000395167,-1.39686,0.00097811,0.0118418,1707,540,4.94761,3.35728
490,484,4.95105,-3.21155,0.000756077,0.00123743,-1.33296e-05,0.0012378,0.000755709,-1.54313,0.000720441,0.0114181,1714,540,4.951,3.21156
497,484,4.93201,-3.05396,0.000840976,0.000878089,1.88379e-05,0.000885975,0.00083309,1.17433,0.000573835,0.012442,1721,540,4.93199,3.05394
504,484,4.93701,-2.86426,0.000728899,0.000692948,2.40445e-05,0.000740944,0.000680902,0.464417,0.000475215,0.0144999,1728,540,4.93706,2.86423
511,484,4.94238,-2.68402,0.00065426,0.000460406,6.78517e-05,0.000675649,0.000439017,0.305373,0.000395876,0.0171361,1735,540,4.94243,2.68402
518,484,4.93298,-2.5097,0.000413079,0.000265768,2.68105e-05,0.000417807,0.00026104,0.174545,0.000243712,0.0146246,1742,540,4.93297,2.50973
525,484,4.94543,-2.3197,5.95219e-05,8.85768e-05,-5.0651e-05,0.000126743,2.13561e-05,-0.925057,7.83526e-05,0.0130118,1749,540,4.94546,2.31968
532,484,4.9696,-2.13806,-0.000339765,1.2486e-05,-3.97885e-05,1.69244e-05,-0.000344203,-1.45971,0.000235313,0.0143697,1756,540,4.96964,2.13808
539,484,4.96436,-1.92096,-0.000661115,3.8044e-05,0.000126343,6.01744e-05,-0.000683246,1.39739,0.000476823,0.0184978,1763,540,4.96438,1.92096
546,484,4.88477,-1.74469,-0.000936834,0.000163931,0.000442985,0.000320058,-0.00109296,1.23195,0.000855522,0.0208812,1770,540,4.88474,1.74469
553,484,4.74341,-1.40839,-0.00128127,0.00036503,0.00076358,0.000664658,-0.0015809,1.19686,0.00133196,0.0337621,1777,540,4.74337,1.40841
560,484,4.61267,-1.10187,0,0,0,0,0,0,0,-1,1784,540,4.61269,1.1019
567,484,5.68323,-0.33606,0,0,0,0,0,0,0,-1,1791,540,5.68326,0.336057
574,484,5.74463,1.50922,0,0,0,0,0,0,0,-1,1798,540,5.74463,-1.50924
581,484,10.34,2.9491,0,0,0,0,0,0,0,-1,1805,540,10.34,-2.94912
588,484,10.6669,2.88568,0,0,0,0,0,0,0,-1,1812,540,10.6669,-2.88567
595,484,10.7233,1.04767,0,0,0,0,0,0,0,-1,1819,540,10.7233,-1.04766
602,484,0,0,0,0,0,0,0,0,0,-1,1826,540,0,0
609,484,0,0,0,0,0,0,0,0,0,-1,1833,540,0,0
616,484,0,0,0,0,0,0,0,0,0,-1,1840,540,0,0
623,484,0,0,0,0,0,0,0,0,0,-1,1847,540,0,0
630,484,0,0,0,0,0,0,0,0,0,-1,1854,540,0,0
637,484,0,0,0,0,0,0,0,0,0,-1,1861,540,0,0
644,484,0,0,0,0,0,0,0,0,0,-1,1868,540,0,0
651,484,0,0,0,0,0,0,0,0,0,-1,1875,540,0,0
658,484,0,0,0,0,0,0,0,0,0,-1,1882,540,0,0
665,484,0,0,0,0,0,0,0,0,0,-1,1889,540,0,0
672,484,0,0,0,0,0,0,0,0,0,-1,1896,540,0,0
679,484,0,0,0,0,0,0,0,0,0,-1,1903,540,0,0
686,484,0,0,0,0,0,0,0,0,0,-1,1910,540,0,0
693,484,0,0,0,0,0,0,0,0,0,-1,1917,540,0,0
700,484,0,0,0,0,0,0,0,0,0,-1,1924,540,0,0
707,484,0,0,0,0,0,0,0,0,0,-1,1931,540,0,0
714,484,0,0,0,0,0,0,0,0,0,-1,1938,540,0,0
721,484,0,0,0,0,0,0,0,0,0,-1,1945,540,0,0
728,484,0,0,0,0,0,0,0,0,0,-1,1952,540,0,0
735,484,0,0,0,0,0,0,0,0,0,-1,1959,540,0,0
742,484,0,0,0,0,0,0,0,0,0,-1,1966,540,0,0
749,484,0,0,0,0,0,0,0,0,0,-1,1973,540,0,0
756,484,0,0,0,0,0,0,0,0,0,-1,1980,540,0,0
763,484,0,0,0,0,0,0,0,0,0,-1,1987,540,0,0
770,484,0,0,0,0,0,0,0,0,0,-1,1994,540,0,0
777,484,0,0,0,0,0,0,0,0,0,-1,2001,540,0,0
784,484,0,0,0,0,0,0,0,0,0,-1,2008,540,0,0
791,484,0,0,0,0,0,0,0,0,0,-1,2015,540,0,0
798,484,0,0,0,0,0,0,0,0,0,-1,2022,540,0,0
805,484,0,0,0,0,0,0,0,0,0,-1,2029,540,0,0
812,484,0,0,0,0,0,0,0,0,0,-1,2036,540,0,0
-700,477,0,0,0,0,0,0,0,0,0,-1,524,547,0,0
-693,477,0,0,0,0,0,0,0,0,0,-1,531,547,0,0
-686,477,0,0,0,0,0,0,0,0,0,-1,538,547,0,0
-679,477,0,0,0,0,0,0,0,0,0,-1,545,547,0,0
-672,477,0,0,0,0,0,0,0,0,0,-1,552,547,0,0
-665,477,0,0,0,0,0,0,0,0,0,-1,559,547,0,0
-658,477,0,0,0,0,0,0,0,0,0,-1,566,547,0,0
-651,477,0,0,0,0,0,0,0,0,0,-1,573,547,0,0
-644,477,0,0,0,0,0,0,0,0,0,-1,580,547,0,0
-637,477,0,0,0,0,0,0,0,0,0,-1,587,547,0,0
-630,477,0,0,0,0,0,0,0,0,0,-1,594,547,0,0
-623,477,0,0,0,0,0,0,0,0,0,-1,601,547,0,0
-616,477,0,0,0,0,0,0,0,0,0,-1,608,547,0,0
-609,477,0,0,0,0,0,0,0,0,0,-1,615,547,0,0
-602,477,0,0,0,0,0,0,0,0,0,-1,622,547,0,0
-595,477,0,0,0,0,0,0,0,0,0,-1,629,547,0,0
-588,477,0,0,0,0,0,0,0,0,0,-1,636,547,0,0
-581,477,0,0,0,0,0,0,0,0,0,-1,643,547,0,0
-574,477,0,0,0,0,0,0,0,0,0,-1,650,547,0,0
-567,477,0,0,0,0,0,0,0,0,0,-1,657,547,0,0
-560,477,0,0,0,0,0,0,0,0,0,-1,664,547,0,0
-553,477,0,0,0,0,0,0,0,0,0,-1,671,547,0,0
-546,477,0,0,0,0,0,0,0,0,0,-1,678,547,0,0
-539,477,0,0,0,0,0,0,0,0,0,-1,685,547,0,0
-532,477,0,0,0,0,0,0,0,0,0,-1,692,547,0,0
-525,477,0,0,0,0,0,0,0,0,0,-1,699,547,0,0
-518,477,0,0,0,0,0,0,0,0,0,-1,706,547,0,0
-511,477,0,0,0,0,0,0,0,0,0,-1,713,547,0,0
-504,477,0,0,0,0,0,0,0,0,0,-1,720,547,0,0
-497,477,0,0,0,0,0,0,0,0,0,-1,727,547,0,0
-490,477,0,0,0,0,0,0,0,0,0,-1,734,547,0,0
-483,477,-8.76355,6.08942,0.184873,0.037774,-0.0638985,0.208753,0.0138938,-0.357649,0.134776,0.0454645,741,547,-8.76358,-6.08941
-476,477,-7.86566,4.09344,0.160547,0.0306292,-0.0551672,0.180812,0.0103644,-0.352033,0.117239,0.0484334,748,547,-7.86566,-4.09347
-469,477,-6.896,2.16138,0.136692,0.0233744,-0.0448433,0.15229,0.00777575,-0.334757,0.0990369,0.0479332,755,547,-6.896,-2.1614
-462,477,-5.93616,0.204834,0.113576,0.0170739,-0.0350308,0.124951,0.00569844,-0.313986,0.0814678,0.0473245,762,547,-5.93614,-0.204811
-455,477,-4.5426,-1.98047,0,0,0,0,0,0,0,-1,769,547,-4.54257,1.9805
-448,477,-3.32806,-4.05328,0,0,0,0,0,0,0,-1,776,547,-3.32808,4.05326
-441,477,-2.1972,-6.0816,0,0,0,0,0,0,0,-1,783,547,-2.19719,6.08158
-434,477,-0.872375,-2.65656,0,0,0,0,0,0,0,-1,790,547,-0.872353,2.65654
-427,477,-0.729126,-2.98792,0,0,0,0,0,0,0,-1,797,547,-0.7291,2.98793
-420,477,-0.736206,-3.09015,0.0185897,-7.93469e-05,-0.00149409,0.0187085,-0.000198164,-0.0793575,0.0125389,0.0162158,804,547,-0.736207,3.09012
-413,477,-0.730103,-3.27209,0.0113257,-0.000593915,-6.30103e-05,0.0113261,-0.000594249,-0.00528605,0.0077564,0.0152279,811,547,-0.730077,3.2721
-406,477,-0.739929,-3.45087,0.00613149,-0.000843901,0.000836704,0.00623045,-0.00094286,0.117726,0.00450096,0.011373,818,547,-0.73995,3.45088
-399,477,-0.72113,-3.63971,0.00341718,-0.000751096,0.000711645,0.00353533,-0.000869245,0.164522,0.00269379,0.0177971,825,547,-0.721161,3.63973
-392,477,-0.739624,-3.80298,0.00189355,-0.00100116,0.00033786,0.00193246,-0.00104007,0.114663,0.00174178,0.0176413,832,547,-0.739616,3.80296
-385,477,-0.730652,-3.93274,0.00111016,-0.00082749,-7.39194e-05,0.00111298,-0.000830306,-0.0380752,0.0011259,0.0142659,839,547,-0.730631,3.93273
-378,477,-0.72937,-4.10828,0.000885006,-0.000850983,-0.000825854,0.00121511,-0.00118109,-0.380262,0.0013835,0.0126604,846,547,-0.729353,4.10827
-371,477,-0.743164,-4.26337,0.00117569,-0.00102257,-0.0013002,0.00177909,-0.00162597,-0.434502,0.00196657,0.0127572,853,547,-0.743143,4.26339
-364,477,-0.738159,-4.38593,0.00167424,-0.00111343,-0.00139043,0.00224918,-0.00168837,-0.392087,0.00228102,0.0132473,860,547,-0.738177,4.38593
-357,477,-0.745605,-4.55835,0.00223589,-0.00113784,-0.00160476,0.00287728,-0.00177923,-0.380229,0.00271324,0.0115946,867,547,-0.745588,4.55832
-350,477,-0.757385,-4.73206,0.00245391,-0.00106444,-0.00180078,0.00321218,-0.00182271,-0.398543,0.00294356,0.0103056,874,547,-0.757403,4.73203
-343,477,-0.725769,-4.91138,0.00235489,-0.000905168,-0.00187074,0.00320613,-0.0017564,-0.427025,0.00290559,0.0186229,881,547,-0.725777,4.9114
-336,477,-0.683411,-5.10016,0.00207127,-0.000627925,-0.00193017,0.00307687,-0.00163352,-0.480299,0.00276178,0.0242604,888,547,-0.68343,5.10015
-329,477,-0.607849,-5.33215,0.00189605,-0.000408883,-0.00207761,0.00311943,-0.00163226,-0.532173,0.00278782,0.03934,895,547,-0.607875,5.33215
-322,477,-0.814392,-5.33185,0.00185772,-0.000561073,-0.00206229,0.00303907,-0.00174242,-0.520205,0.00279423,0.0440882,902,547,-0.814364,5.33187
-315,477,-1.07941,-5.56,0.00766791,-0.0013499,-0.00419952,0.00932067,-0.00300267,-0.374943,0.00742003,0.0482386,909,547,-1.07942,5.55997
-308,477,-1.20197,-5.65668,0,0,0,0,0,0,0,-1,916,547,-1.20199,5.65668
-301,477,-1.21185,-6.28351,0,0,0,0,0,0,0,-1,923,547,-1.21184,6.28352
-294,477,-0.352905,3.27142,0,0,0,0,0,0,0,-1,930,547,-0.35292,-3.27144
-287,477,3.54364,2.15399,0,0,0,0,0,0,0,-1,937,547,3.54362,-2.15396
-280,477,1.97308,-0.954163,0,0,0,0,0,0,0,-1,944,547,1.9731,0.954178
-273,477,2.11621,-3.76709,0,0,0,0,0,0,0,-1,951,547,2.11619,3.76706
-266,477,2.04669,-3.42389,0,0,0,0,0,0,0,-1,958,547,2.04671,3.42391
-259,477,-1.33478,-3.41205,0,0,0,0,0,0,0,-1,965,547,-1.3348,3.41206
-252,477,0.597168,-5.32922,0,0,0,0,0,0,0,-1,972,547,0.597144,5.32924
-245,477,2.27161,-7.02875,0,0,0,0,0,0,0,-1,979,547,2.27158,7.02873
-238,477,7.29095,-4.50336,0,0,0,0,0,0,0,-1,986,547,7.29093,4.50335
-231,477,4.9693,-1.70117,0,0,0,0,0,0,0,-1,993,547,4.96929,1.70114
-224,477,0,0,0,0,0,0,0,0,0,-1,1000,547,0,0
-217,477,0,0,0,0,0,0,0,0,0,-1,1007,547,0,0
-210,477,0,0,0,0,0,0,0,0,0,-1,1014,547,0,0
-203,477,0,0,0,0,0,0,0,0,0,-1,1021,547,0,0
-196,477,0,0,0,0,0,0,0,0,0,-1,1028,547,0,0
-189,477,0,0,0,0,0,0,0,0,0,-1,1035,547,0,0
-182,477,0,0,0,0,0,0,0,0,0,-1,1042,547,0,0
-175,477,0,0,0,0,0,0,0,0,0,-1,1049,547,0,0
-168,477,0,0,0,0,0,0,0,0,0,-1,1056,547,0,0
-161,477,0,0,0,0,0,0,0,0,0,-1,1063,547,0,0
-154,477,0,0,0,0,0,0,0,0,0,-1,1070,547,0,0
-147,477,0,0,0,0,0,0,0,0,0,-1,1077,547,0,0
-140,477,0,0,0,0,0,0,0,0,0,-1,1084,547,0,0
-133,477,0,0,0,0,0,0,0,0,0,-1,1091,547,0,0
-126,477,0,0,0,0,0,0,0,0,0,-1,1098,547,0,0
-119,477,0,0,0,0,0,0,0,0,0,-1,1105,547,0,0
-112,477,0,0,0,0,0,0,0,0,0,-1,1112,547,0,0
-105,477,0,0,0,0,0,0,0,0,0,-1,1119,547,0,0
-98,477,0,0,0,0,0,0,0,0,0,-1,1126,547,0,0
-91,477,0,0,0,0,0,0,0,0,0,-1,1133,547,0,0
-84,477,0,0,0,0,0,0,0,0,0,-1,1140,547,0,0
-77,477,0,0,0,0,0,0,0,0,0,-1,1147,547,0,0
-70,477,0,0,0,0,0,0,0,0,0,-1,1154,547,0,0
-63,477,0,0,0,0,0,0,0,0,0,-1,1161,547,0,0
-56,477,0,0,0,0,0,0,0,0,0,-1,1168,547,0,0
-49,477,0,0,0,0,0,0,0,0,0,-1,1175,547,0,0
-42,477,0,0,0,0,0,0,0,0,0,-1,1182,547,0,0
-35,477,0,0,0,0,0,0,0,0,0,-1,1189,547,0,0
-28,477,0,0,0,0,0,0,0,0,0,-1,1196,547,0,0
-21,477,0,0,0,0,0,0,0,0,0,-1,1203,547,0,0
-14,477,0,0,0,0,0,0,0,0,0,-1,1210,547,0,0
-7,477,0,0,0,0,0,0,0,0,0,-1,1217,547,0,0
0,477,0,0,0,0,0,0,0,0,0,-1,1224,547,0,0
7,477,0,0,0,0,0,0,0,0,0,-1,1231,547,0,0
14,477,0,0,0,0,0,0,0,0,0,-1,1238,547,0,0
21,477,0,0,0,0,0,0,0,0,0,-1,1245,547,0,0
28,477,0,0,0,0,0,0,0,0,0,-1,1252,547,0,0
35,477,0,0,0,0,0,0,0,0,0,-1,1259,547,0,0
42,477,0,0,0,0,0,0,0,0,0,-1,1266,547,0,0
49,477,0,0,0,0,0,0,0,0,0,-1,1273,547,0,0
56,477,0,0,0,0,0,0,0,0,0,-1,1280,547,0,0
63,477,0,0,0,0,0,0,0,0,0,-1,1287,547,0,0
70,477,0,0,0,0,0,0,0,0,0,-1,1294,547,0,0
77,477,0,0,0,0,0,0,0,0,0,-1,1301,547,0,0
84,477,0,0,0,0,0,0,0,0,0,-1,1308,547,0,0
91,477,0,0,0,0,0,0,0,0,0,-1,1315,547,0,0
98,477,0,0,0,0,0,0,0,0,0,-1,1322,547,0,0
105,477,0,0,0,0,0,0,0,0,0,-1,1329,547,0,0
112,477,0,0,0,0,0,0,0,0,0,-1,1336,547,0,0
119,477,0,0,0,0,0,0,0,0,0,-1,1343,547,0,0
126,477,0,0,0,0,0,0,0,0,0,-1,1350,547,0,0
133,477,0,0,0,0,0,0,0,0,0,-1,1357,547,0,0
140,477,0,0,0,0,0,0,0,0,0,-1,1364,547,0,0
147,477,0,0,0,0,0,0,0,0,0,-1,1371,547,0,0
154,477,0,0,0,0,0,0,0,0,0,-1,1378,547,0,0
161,477,0,0,0,0,0,0,0,0,0,-1,1385,547,0,0
168,477,0,0,0,0,0,0,0,0,0,-1,1392,547,0,0
175,477,0,0,0,0,0,0,0,0,0,-1,1399,547,0,0
182,477,0,0,0,0,0,0,0,0,0,-1,1406,547,0,0
189,477,0,0,0,0,0,0,0,0,0,-1,1413,547,0,0
196,477,0,0,0,0,0,0,0,0,0,-1,1420,547,0,0
203,477,0,0,0,0,0,0,0,0,0,-1,1427,547,0,0
210,477,0,0,0,0,0,0,0,0,0,-1,1434,547,0,0
217,477,0,0,0,0,0,0,0,0,0,-1,1441,547,0,0
224,477,0,0,0,0,0,0,0,0,0,-1,1448,547,0,0
231,477,0,0,0,0,0,0,0,0,0,-1,1455,547,0,0
238,477,0,0,0,0,0,0,0,0,0,-1,1462,547,0,0
245,477,0,0,0,0,0,0,0,0,0,-1,1469,547,0,0
252,477,0,0,0,0,0,0,0,0,0,-1,1476,547,0,0
259,477,0,0,0,0,0,0,0,0,0,-1,1483,547,0,0
266,477,0,0,0,0,0,0,0,0,0,-1,1490,547,0,0
273,477,0,0,0,0,0,0,0,0,0,-1,1497,547,0,0
280,477,0,0,0,0,0,0,0,0,0,-1,1504,547,0,0
287,477,0,0,0,0,0,0,0,0,0,-1,1511,547,0,0
294,477,0,0,0,0,0,0,0,0,0,-1,1518,547,0,0
301,477,0,0,0,0,0,0,0,0,0,-1,1525,547,0,0
308,477,0,0,0,0,0,0,0,0,0,-1,1532,547,0,0
315,477,0,0,0,0,0,0,0,0,0,-1,1539,547,0,0
322,477,0,0,0,0,0,0,0,0,0,-1,1546,547,0,0
329,477,0,0,0,0,0,0,0,0,0,-1,1553,547,0,0
336,477,0,0,0,0,0,0,0,0,0,-1,1560,547,0,0
343,477,0,0,0,0,0,0,0,0,0,-1,1567,547,0,0
350,477,1.7699,-3.32275,0,0,0,0,0,0,0,-1,1574,547,1.7699,3.32272
357,477,3.073,-4.83313,0,0,0,0,0,0,0,-1,1581,547,3.07303,4.83316
364,477,4.30127,-4.22864,0,0,0,0,0,0,0,-1,1588,547,4.30125,4.22865
371,477,6.76746,0.428284,0,0,0,0,0,0,0,-1,1595,547,6.76748,-0.428313
378,477,9.70935,0.88385,0,0,0,0,0,0,0,-1,1602,547,9.7093,-0.883864
385,477,12.6511,1.33942,0,0,0,0,0,0,0,-1,1609,547,12.6511,-1.33941
392,477,11.9564,1.24927,0,0,0,0,0,0,0,-1,1616,547,11.9564,-1.24924
399,477,8.00037,-2.29523,0,0,0,0,0,0,0,-1,1623,547,8.00031,2.2952
406,477,4.82495,2.7475,0,0,0,0,0,0,0,-1,1630,547,4.825,-2.74752
413,477,4.88171,-0.336426,0,0,0,0,0,0,0,-1,1637,547,4.88169,0.336398
420,477,3.34875,0.102722,0,0,0,0,0,0,0,-1,1644,547,3.34871,-0.1027
427,477,1.66772,-0.373108,0,0,0,0,0,0,0,-1,1651,547,1.66768,0.373104
434,477,3.76978,-2.30798,0,0,0,0,0,0,0,-1,1658,547,3.76974,2.30801
441,477,4.05444,-2.80402,0,0,0,0,0,0,0,-1,1665,547,4.05444,2.804
448,477,4.96423,-4.24756,0,0,0,0,0,0,0,-1,1672,547,4.96425,4.24754
455,477,5.17395,-4.14178,-0.00308471,0.00395012,-0.00291763,0.00500269,-0.00413728,-1.22457,0.00528484,0.0485733,1679,547,5.17389,4.14181
462,477,5.18298,-4.01624,-0.00154658,0.00367134,-0.00167144,0.00416083,-0.00203607,-1.28591,0.00364721,0.0344027,1686,547,5.18299,4.01624
469,477,5.14099,-3.72736,-0.000567969,0.00333991,-0.000842233,0.0035137,-0.000741759,-1.36731,0.00262489,0.020386,1693,547,5.14094,3.72738
476,477,5.12329,-3.55347,5.84606e-05,0.00281124,-0.000344235,0.00285364,1.60671e-05,-1.44826,0.00189709,0.0156266,1700,547,5.12323,3.55346
483,477,5.14026,-3.38434,0.000492661,0.00232102,-2.11522e-05,0.00232126,0.000492416,-1.55923,0.00141228,0.0114569,1707,547,5.14031,3.38436
490,477,5.13635,-3.21161,0.000880454,0.00177567,0.000212498,0.00182355,0.000832574,1.34918,0.00105415,0.0110208,1714,547,5.13635,3.21163
497,477,5.125,-3.0351,0.0010228,0.00114071,0.000237199,0.00132617,0.000837342,0.907202,0.000774429,0.011568,1721,547,5.12494,3.03512
504,477,5.11816,-2.84692,0.000947848,0.00065914,0.000198561,0.00104898,0.000558005,0.471089,0.000606043,0.0167968,1728,547,5.11812,2.84695
511,477,5.15613,-2.70361,0.000866246,0.000150945,0.000225772,0.000931546,8.56455e-05,0.281546,0.000594542,0.021611,1735,547,5.15609,2.70362
518,477,5.1582,-2.51727,0.000649031,-0.000281678,0.000176729,0.00068146,-0.000314106,0.181474,0.000587689,0.0190594,1742,547,5.15825,2.51728
525,477,5.13953,-2.29626,0.000318657,-0.000648557,7.091e-05,0.000323828,-0.000653728,0.0727949,0.000575005,0.0165048,1749,547,5.13949,2.29626
532,477,5.13403,-2.14642,-7.53775e-05,-0.000861977,1.8963e-05,-7.49207e-05,-0.000862434,0.024089,0.000551681,0.0183705,1756,547,5.13403,2.14644
539,477,5.13538,-1.90625,-0.000420988,-0.000964984,8.58349e-05,-0.000407765,-0.000978206,0.152841,0.000567365,0.0164714,1763,547,5.13532,1.90627
546,477,5.12305,-1.73328,-0.000710586,-0.000909968,0.000313383,-0.00048142,-0.00113913,0.631403,0.0006603,0.0188327,1770,547,5.12301,1.73328
553,477,5.10437,-1.53741,-0.00110991,-0.000614756,0.000520607,-0.000285856,-0.00143881,1.00735,0.000879545,0.0181321,1777,547,5.10438,1.53741
560,477,5.1394,-1.31158,-0.00137007,-0.000262872,0.000815362,0.000169068,-0.00180201,1.08363,0.00126148,0.0335695,1784,547,5.13939,1.31157
567,477,5.49988,-0.70343,0,0,0,0,0,0,0,-1,1791,547,5.49991,0.703455
574,477,5.65222,-0.224243,0,0,0,0,0,0,0,-1,1798,547,5.65223,0.224213
581,477,9.29321,-0.557007,0,0,0,0,0,0,0,-1,1805,547,9.29324,0.55703
588,477,9.75195,0.422729,0,0,0,0,0,0,0,-1,1812,547,9.75198,-0.42273
595,477,9.89172,1.21326,0,0,0,0,0,0,0,-1,1819,547,9.89174,-1.21328
602,477,6.5271,-0.964417,0,0,0,0,0,0,0,-1,1826,547,6.52706,0.964427
609,477,0,0,0,0,0,0,0,0,0,-1,1833,547,0,0
616,477,0,0,0,0,0,0,0,0,0,-1,1840,547,0,0
623,477,0,0,0,0,0,0,0,0,0,-1,1847,547,0,0
630,477,0,0,0,0,0,0,0,0,0,-1,1854,547,0,0
637,477,0,0,0,0,0,0,0,0,0,-1,1861,547,0,0
644,477,0,0,0,0,0,0,0,0,0,-1,1868,547,0,0
651,477,0,0,0,0,0,0,0,0,0,-1,1875,547,0,0
658,477,0,0,0,0,0,0,0,0,0,-1,1882,547,0,0
665,477,0,0,0,0,0,0,0,0,0,-1,1889,547,0,0
672,477,0,0,0,0,0,0,0,0,0,-1,1896,547,0,0
679,477,0,0,0,0,0,0,0,0,0,-1,1903,547,0,0
686,477,0,0,0,0,0,0,0,0,0,-1,1910,547,0,0
693,477,0,0,0,0,0,0,0,0,0,-1,1917,547,0,0
700,477,0,0,0,0,0,0,0,0,0,-1,1924,547,0,0
707,477,0,0,0,0,0,0,0,0,0,-1,1931,547,0,0
714,477,0,0,0,0,0,0,0,0,0,-1,1938,547,0,0
721,477,0,0,0,0,0,0,0,0,0,-1,1945,547,0,0
728,477,0,0,0,0,0,0,0,0,0,-1,1952,547,0,0
735,477,0,0,0,0,0,0,0,0,0,-1,1959,547,0,0
742,477,0,0,0,0,0,0,0,0,0,-1,1966,547,0,0
749,477,0,0,0,0,0,0,0,0,0,-1,1973,547,0,0
756,477,0,0,0,0,0,0,0,0,0,-1,1980,547,0,0
763,477,0,0,0,0,0,0,0,0,0,-1,1987,547,0,0
770,477,0,0,0,0,0,0,0,0,0,-1,1994,547,0,0
777,477,0,0,0,0,0,0,0,0,0,-1,2001,547,0,0
784,477,0,0,0,0,0,0,0,0,0,-1,2008,547,0,0
791,477,0,0,0,0,0,0,0,0,0,-1,2015,547,0,0
798,477,0,0,0,0,0,0,0,0,0,-1,2022,547,0,0
805,477,0,0,0,0,0,0,0,0,0,-1,2029,547,0,0
812,477,0,0,0,0,0,0,0,0,0,-1,2036,547,0,0
-700,470,0,0,0,0,0,0,0,0,0,-1,524,554,0,0
-693,470,0,0,0,0,0,0,0,0,0,-1,531,554,0,0
-686,470,0,0,0,0,0,0,0,0,0,-1,538,554,0,0
-679,470,0,0,0,0,0,0,0,0,0,-1,545,554,0,0
-672,470,0,0,0,0,0,0,0,0,0,-1,552,554,0,0
-665,470,0,0,0,0,0,0,0,0,0,-1,559,554,0,0
-658,470,0,0,0,0,0,0,0,0,0,-1,566,554,0,0
-651,470,0,0,0,0,0,0,0,0,0,-1,573,554,0,0
-644,470,0,0,0,0,0,0,0,0,0,-1,580,554,0,0
-637,470,0,0,0,0,0,0,0,0,0,-1,587,554,0,0
-630,470,0,0,0,0,0,0,0,0,0,-1,594,554,0,0
-623,470,0,0,0,0,0,0,0,0,0,-1,601,554,0,0
-616,470,0,0,0,0,0,0,0,0,0,-1,608,554,0,0
-609,470,0,0,0,0,0,0,0,0,0,-1,615,554,0,0
-602,470,0,0,0,0,0,0,0,0,0,-1,622,554,0,0
-595,470,0,0,0,0,0,0,0,0,0,-1,629,554,0,0
-588,470,0,0,0,0,0,0,0,0,0,-1,636,554,0,0
-581,470,0,0,0,0,0,0,0,0,0,-1,643,554,0,0
-574,470,0,0,0,0,0,0,0,0,0,-1,650,554,0,0
-567,470,0,0,0,0,0,0,0,0,0,-1,657,554,0,0
-560,470,0,0,0,0,0,0,0,0,0,-1,664,554,0,0
-553,470,0,0,0,0,0,0,0,0,0,-1,671,554,0,0
-546,470,0,0,0,0,0,0,0,0,0,-1,678,554,0,0
-539,470,0,0,0,0,0,0,0,0,0,-1,685,554,0,0
-532,470,0,0,0,0,0,0,0,0,0,-1,692,554,0,0
-525,470,0,0,0,0,0,0,0,0,0,-1,699,554,0,0
-518,470,0,0,0,0,0,0,0,0,0,-1,706,554,0,0
-511,470,0,0,0,0,0,0,0,0,0,-1,713,554,0,0
-504,470,0,0,0,0,0,0,0,0,0,-1,720,554,0,0
-497,470,0,0,0,0,0,0,0,0,0,-1,727,554,0,0
-490,470,-10.6171,7.71643,0,0,0,0,0,0,0,-1,734,554,-10.6171,-7.71643
-483,470,-9.90387,5.77734,0.160658,0.0334954,-0.0559892,0.181796,0.0123574,-0.360994,0.117296,0.0419033,741,554,-9.9039,-5.77735
-476,470,-8.96185,3.76733,0.139274,0.0284214,-0.0486962,0.157628,0.0100684,-0.360425,0.101895,0.0476543,748,554,-8.96183,-3.76731
-469,470,-7.83228,1.96271,0,0,0,0,0,0,0,-1,755,554,-7.83227,-1.96272
-462,470,-6.81458,-0.110168,0,0,0,0,0,0,0,-1,762,554,-6.8146,0.11019
-455,470,-5.20868,-2.87689,0,0,0,0,0,0,0,-1,769,554,-5.20865,2.87687
-448,470,-0.80835,-2.24176,0,0,0,0,0,0,0,-1,776,554,-0.808325,2.24177
-441,470,-0.678223,-2.50671,0.047943,0.00468719,-0.0120228,0.0510601,0.00157009,-0.253679,0.0335289,0.0431528,783,554,-0.678192,2.50673
-434,470,-0.764465,-2.79956,0.0356269,0.00255547,-0.00781205,0.0373794,0.000802992,-0.220677,0.0246563,0.022305,790,554,-0.764482,2.79957
-427,470,-0.877869,-2.94836,0.0249656,0.000821714,-0.00448252,0.025771,1.63596e-05,-0.177769,0.0171752,0.0113903,797,554,-0.877863,2.94837
-420,470,-0.884277,-3.11835,0.0167386,-0.000213295,-0.00217225,0.0170126,-0.000487224,-0.125442,0.0115076,0.0115322,804,554,-0.884286,3.11835
-413,470,-0.892761,-3.28113,0.0105769,-0.000703215,-0.000727527,0.0106236,-0.000749945,-0.0641421,0.00734518,0.0128062,811,554,-0.892785,3.28112
-406,470,-0.917175,-3.43726,0.00621057,-0.000905168,0.000211661,0.00621686,-0.000911459,0.0297105,0.00447941,0.00973825,818,554,-0.917192,3.43724
-399,470,-0.898926,-3.62274,0.00397734,-0.000807672,0.000215669,0.00398704,-0.000817373,0.0449502,0.00296824,0.011656,825,554,-0.898911,3.62276
-392,470,-0.897461,-3.79419,0.00263726,-0.000993902,3.03364e-05,0.00263752,-0.000994155,0.00835366,0.00216712,0.0131078,832,554,-0.897467,3.79419
-385,470,-0.893005,-3.92151,0.00204545,-0.000878001,-0.000271639,0.00207048,-0.000903027,-0.0918693,0.00176031,0.0109205,839,554,-0.893012,3.92149
-378,470,-0.890686,-4.12,0.00192805,-0.000970601,-0.000831947,0.00214986,-0.00119241,-0.26055,0.00195587,0.0152366,846,554,-0.890666,4.12
-371,470,-0.889526,-4.28168,0.0021941,-0.00121463,-0.00128506,0.00262427,-0.0016448,-0.323022,0.00248628,0.012684,853,554,-0.889515,4.2817
-364,470,-0.889709,-4.4104,0.00255487,-0.00141569,-0.00145952,0.00303364,-0.00189446,-0.316972,0.00287046,0.0129689,860,554,-0.889707,4.41038
-357,470,-0.900146,-4.57025,0.00300991,-0.00159251,-0.00179645,0.00362809,-0.00221068,-0.331417,0.00340396,0.0132221,867,554,-0.90015,4.57024
-350,470,-0.906189,-4.74988,0.00318641,-0.00164492,-0.00212465,0.00398782,-0.00244634,-0.360695,0.00375013,0.00951018,874,554,-0.906185,4.74987
-343,470,-0.82373,-4.93005,0.00312392,-0.00153612,-0.00241726,0.0041513,-0.0025635,-0.401886,0.00391275,0.0189524,881,554,-0.823744,4.93008
-336,470,-0.868896,-5.05695,0.00289982,-0.00129584,-0.00268878,0.00421233,-0.00260835,-0.454118,0.00397405,0.0286583,888,554,-0.868927,5.05692
-329,470,-0.838318,-5.11798,0.00278326,-0.0010949,-0.00297233,0.0043931,-0.00270473,-0.496376,0.0041364,0.0381046,895,554,-0.838293,5.11796
-322,470,-0.635986,-5.24573,0.00255641,-0.00111714,-0.00299619,0.00423402,-0.00279475,-0.510423,0.00408632,0.0458863,902,554,-0.635993,5.24574
-315,470,-1.55286,-5.61047,0,0,0,0,0,0,0,-1,909,554,-1.55284,5.61044
-308,470,-1.39368,-6.68152,0,0,0,0,0,0,0,-1,916,554,-1.39369,6.68149
-301,470,-0.0340576,3.34888,0,0,0,0,0,0,0,-1,923,554,-0.0340496,-3.3489
-294,470,-1.18378,3.22266,0,0,0,0,0,0,0,-1,930,554,-1.18376,-3.22268
-287,470,-2.15454,3.2204,0,0,0,0,0,0,0,-1,937,554,-2.15452,-3.22037
-280,470,-3.00537,3.099,0,0,0,0,0,0,0,-1,944,554,-3.00536,-3.09898
-273,470,1.05981,-2.39728,0,0,0,0,0,0,0,-1,951,554,1.05983,2.39727
-266,470,-3.55084,-1.16742,0,0,0,0,0,0,0,-1,958,554,-3.55086,1.16744
-259,470,-2.06311,-2.73199,0.233301,-0.0492955,-0.0578144,0.244671,-0.0606658,-0.194191,0.186652,0.0476304,965,554,-2.0631,2.732
-252,470,-0.369019,-4.24976,0,0,0,0,0,0,0,-1,972,554,-0.36901,4.24977
-245,470,1.21405,-5.86768,0,0,0,0,0,0,0,-1,979,554,1.21405,5.86766
-238,470,0,0,0,0,0,0,0,0,0,-1,986,554,0,0
-231,470,0,0,0,0,0,0,0,0,0,-1,993,554,0,0
-224,470,0,0,0,0,0,0,0,0,0,-1,1000,554,0,0
-217,470,0,0,0,0,0,0,0,0,0,-1,1007,554,0,0
-210,470,0,0,0,0,0,0,0,0,0,-1,1014,554,0,0
-203,470,0,0,0,0,0,0,0,0,0,-1,1021,554,0,0
-196,470,0,0,0,0,0,0,0,0,0,-1,1028,554,0,0
-189,470,0,0,0,0,0,0,0,0,0,-1,1035,554,0,0
-182,470,0,0,0,0,0,0,0,0,0,-1,1042,554,0,0
-175,470,0,0,0,0,0,0,0,0,0,-1,1049,554,0,0
-168,470,0,0,0,0,0,0,0,0,0,-1,1056,554,0,0
-161,470,0,0,0,0,0,0,0,0,0,-1,1063,554,0,0
-154,470,0,0,0,0,0,0,0,0,0,-1,1070,554,0,0
-147,470,0,0,0,0,0,0,0,0,0,-1,1077,554,0,0
-140,470,0,0,0,0,0,0,0,0,0,-1,1084,554,0,0
-133,470,0,0,0,0,0,0,0,0,0,-1,1091,554,0,0
-126,470,0,0,0,0,0,0,0,0,0,-1,1098,554,0,0
-119,470,0,0,0,0,0,0,0,0,0,-1,1105,554,0,0
-112,470,0,0,0,0,0,0,0,0,0,-1,1112,554,0,0
-105,470,0,0,0,0,0,0,0,0,0,-1,1119,554,0,0
-98,470,0,0,0,0,0,0,0,0,0,-1,1126,554,0,0
-91,470,0,0,0,0,0,0,0,0,0,-1,1133,554,0,0
-84,470,0,0,0,0,0,0,0,0,0,-1,1140,554,0,0
-77,470,0,0,0,0,0,0,0,0,0,-1,1147,554,0,0
-70,470,0,0,0,0,0,0,0,0,0,-1,1154,554,0,0
-63,470,0,0,0,0,0,0,0,0,0,-1,1161,554,0,0
-56,470,0,0,0,0,0,0,0,0,0,-1,1168,554,0,0
-49,470,0,0,0,0,0,0,0,0,0,-1,1175,554,0,0
-42,470,0,0,0,0,0,0,0,0,0,-1,1182,554,0,0
-35,470,0,0,0,0,0,0,0,0,0,-1,1189,554,0,0
-28,470,0,0,0,0,0,0,0,0,0,-1,1196,554,0,0
-21,470,0,0,0,0,0,0,0,0,0,-1,1203,554,0,0
-14,470,0,0,0,0,0,0,0,0,0,-1,1210,554,0,0
-7,470,0,0,0,0,0,0,0,0,0,-1,1217,554,0,0
0,470,0,0,0,0,0,0,0,0,0,-1,1224,554,0,0
7,470,0,0,0,0,0,0,0,0,0,-1,1231,554,0,0
14,470,0,0,0,0,0,0,0,0,0,-1,1238,554,0,0
21,470,0,0,0,0,0,0,0,0,0,-1,1245,554,0,0
28,470,0,0,0,0,0,0,0,0,0,-1,1252,554,0,0
35,470,0,0,0,0,0,0,0,0,0,-1,1259,554,0,0
42,470,0,0,0,0,0,0,0,0,0,-1,1266,554,0,0
49,470,0,0,0,0,0,0,0,0,0,-1,1273,554,0,0
56,470,0,0,0,0,0,0,0,0,0,-1,1280,554,0,0
63,470,0,0,0,0,0,0,0,0,0,-1,1287,554,0,0
70,470,0,0,0,0,0,0,0,0,0,-1,1294,554,0,0
77,470,0,0,0,0,0,0,0,0,0,-1,1301,554,0,0
84,470,0,0,0,0,0,0,0,0,0,-1,1308,554,0,0
91,470,0,0,0,0,0,0,0,0,0,-1,1315,554,0,0
98,470,0,0,0,0,0,0,0,0,0,-1,1322,554,0,0
105,470,0,0,0,0,0,0,0,0,0,-1,1329,554,0,0
112,470,0,0,0,0,0,0,0,0,0,-1,1336,554,0,0
119,470,0,0,0,0,0,0,0,0,0,-1,1343,554,0,0
126,470,0,0,0,0,0,0,0,0,0,-1,1350,554,0,0
133,470,0,0,0,0,0,0,0,0,0,-1,1357,554,0,0
140,470,0,0,0,0,0,0,0,0,0,-1,1364,554,0,0
147,470,0,0,0,0,0,0,0,0,0,-1,1371,554,0,0
154,470,0,0,0,0,0,0,0,0,0,-1,1378,554,0,0
161,470,0,0,0,0,0,0,0,0,0,-1,1385,554,0,0
168,470,0,0,0,0,0,0,0,0,0,-1,1392,554,0,0
175,470,0,0,0,0,0,0,0,0,0,-1,1399,554,0,0
182,470,0,0,0,0,0,0,0,0,0,-1,1406,554,0,0
189,470,0,0,0,0,0,0,0,0,0,-1,1413,554,0,0
196,470,0,0,0,0,0,0,0,0,0,-1,1420,554,0,0
203,470,0,0,0,0,0,0,0,0,0,-1,1427,554,0,0
210,470,0,0,0,0,0,0,0,0,0,-1,1434,554,0,0
217,470,0,0,0,0,0,0,0,0,0,-1,1441,554,0,0
224,470,0,0,0,0,0,0,0,0,0,-1,1448,554,0,0
231,470,0,0,0,0,0,0,0,0,0,-1,1455,554,0,0
238,470,0,0,0,0,0,0,0,0,0,-1,1462,554,0,0
245,470,0,0,0,0,0,0,0,0,0,-1,1469,554,0,0
252,470,0,0,0,0,0,0,0,0,0,-1,1476,554,0,0
259,470,0,0,0,0,0,0,0,0,0,-1,1483,554,0,0
266,470,0,0,0,0,0,0,0,0,0,-1,1490,554,0,0
273,470,0,0,0,0,0,0,0,0,0,-1,1497,554,0,0
280,470,0,0,0,0,0,0,0,0,0,-1,1504,554,0,0
287,470,0,0,0,0,0,0,0,0,0,-1,1511,554,0,0
294,470,0,0,0,0,0,0,0,0,0,-1,1518,554,0,0
301,470,0,0,0,0,0,0,0,0,0,-1,1525,554,0,0
308,470,0,0,0,0,0,0,0,0,0,-1,1532,554,0,0
315,470,0,0,0,0,0,0,0,0,0,-1,1539,554,0,0
322,470,0,0,0,0,0,0,0,0,0,-1,1546,554,0,0
329,470,0,0,0,0,0,0,0,0,0,-1,1553,554,0,0
336,470,0,0,0,0,0,0,0,0,0,-1,1560,554,0,0
343,470,0,0,0,0,0,0,0,0,0,-1,1567,554,0,0
350,470,0,0,0,0,0,0,0,0,0,-1,1574,554,0,0
357,470,0,0,0,0,0,0,0,0,0,-1,1581,554,0,0
364,470,1.33423,0.293335,0,0,0,0,0,0,0,-1,1588,554,1.33422,-0.293348
371,470,4.3595,0.741394,0,0,0,0,0,0,0,-1,1595,554,4.35956,-0.741385
378,470,7.41846,0.960266,0,0,0,0,0,0,0,-1,1602,554,7.4184,-0.960263
385,470,10.7914,1.98749,0,0,0,0,0,0,0,-1,1609,554,10.7914,-1.98748
392,470,12.5139,3.7251,0,0,0,0,0,0,0,-1,1616,554,12.5139,-3.72509
399,470,12.9828,1.44592,0,0,0,0,0,0,0,-1,1623,554,12.9828,-1.44594
406,470,15.1896,1.36676,0,0,0,0,0,0,0,-1,1630,554,15.1896,-1.36679
413,470,6.55383,1.99207,0,0,0,0,0,0,0,-1,1637,554,6.5538,-1.99208
420,470,4.47095,0.845703,0,0,0,0,0,0,0,-1,1644,554,4.47098,-0.845718
427,470,3.51038,1.19684,0,0,0,0,0,0,0,-1,1651,554,3.51039,-1.19684
434,470,3.31775,-1.37427,0,0,0,0,0,0,0,-1,1658,554,3.31781,1.37426
441,470,2.55457,-2.05902,0,0,0,0,0,0,0,-1,1665,554,2.55461,2.05904
448,470,3.27258,-2.64032,0,0,0,0,0,0,0,-1,1672,554,3.27257,2.64029
455,470,5.62659,-4.35608,0,0,0,0,0,0,0,-1,1679,554,5.62664,4.35606
462,470,5.52954,-4.00128,-0.00185701,0.00477184,-0.0017325,0.00519733,-0.0022825,-1.32997,0.00442643,0.0496797,1686,554,5.52952,4.0013
469,470,5.45557,-3.76184,-0.00066697,0.00426153,-0.000758213,0.00437553,-0.000780978,-1.42155,0.00320918,0.0452845,1693,554,5.45557,3.76184
476,470,5.26721,-3.58215,0.000109518,0.00359403,-0.000151751,0.00360063,0.000102922,-1.52736,0.00236686,0.0248726,1700,554,5.26726,3.58214
483,470,5.30579,-3.38989,0.000677124,0.00299862,0.000272321,0.00303014,0.000645608,1.45558,0.00184298,0.0127641,1707,554,5.30578,3.38992
490,470,5.30225,-3.20721,0.00116422,0.00242308,0.000556691,0.00263394,0.000953356,1.20872,0.0015399,0.0115178,1714,554,5.30222,3.20719
497,470,5.31396,-3.02954,0.00138481,0.00171651,0.000588791,0.00216236,0.000938954,0.922682,0.00125204,0.0114173,1721,554,5.31391,3.02956
504,470,5.32861,-2.862,0.00135938,0.00114558,0.000517133,0.00178055,0.000724414,0.683475,0.00103393,0.017366,1728,554,5.32858,2.86202
511,470,5.38892,-2.70166,0.00125425,0.000587692,0.000529153,0.00154633,0.00029561,0.504363,0.000947845,0.0249369,1735,554,5.38888,2.70169
518,470,5.43372,-2.5011,0.00104268,0.000135836,0.000477705,0.00124789,-6.93728e-05,0.405736,0.000855986,0.0246396,1742,554,5.43374,2.50111
525,470,5.37378,-2.25714,0.000708732,-0.000243801,0.000348724,0.000822752,-0.000357821,0.316007,0.000699,0.0155683,1749,554,5.37377,2.25715
532,470,5.3374,-2.07526,0.000287145,-0.000475616,0.000232888,0.000352629,-0.0005411,0.274105,0.000519805,0.0133009,1756,554,5.33741,2.07526
539,470,5.31201,-1.90546,-0.000114051,-0.000642271,0.000201089,-4.62106e-05,-0.000710111,0.325374,0.00045878,0.0150089,1763,554,5.31196,1.90544
546,470,5.31738,-1.72876,-0.000458998,-0.000645782,0.000330351,-0.000209092,-0.000895688,0.64764,0.000541067,0.0138496,1770,554,5.31733,1.72874
553,470,5.33008,-1.55103,-0.000943271,-0.000401618,0.000394559,-0.00019388,-0.00115101,1.08617,0.000711572,0.0110613,1777,554,5.33005,1.55101
560,470,5.33118,-1.34717,-0.00132058,-0.000173024,0.000517266,2.57174e-05,-0.00151932,1.20397,0.00102156,0.0140709,1784,554,5.33115,1.34714
567,470,5.31653,-1.07086,0,0,0,0,0,0,0,-1,1791,554,5.31655,1.07085
574,470,5.30237,-1.08411,0,0,0,0,0,0,0,-1,1798,554,5.3024,1.08412
581,470,8.24646,-4.06317,0,0,0,0,0,0,0,-1,1805,554,8.24648,4.06318
588,470,8.83704,-2.04022,0,0,0,0,0,0,0,-1,1812,554,8.83707,2.04021
595,470,4.72192,3.44116,0,0,0,0,0,0,0,-1,1819,554,4.72191,-3.44116
602,470,14.4307,2.76141,0,0,0,0,0,0,0,-1,1826,554,14.4306,-2.76139
609,470,16.2076,2.45117,0,0,0,0,0,0,0,-1,1833,554,16.2077,-2.45116
616,470,0,0,0,0,0,0,0,0,0,-1,1840,554,0,0
623,470,0,0,0,0,0,0,0,0,0,-1,1847,554,0,0
630,470,0,0,0,0,0,0,0,0,0,-1,1854,554,0,0
637,470,0,0,0,0,0,0,0,0,0,-1,1861,554,0,0
644,470,0,0,0,0,0,0,0,0,0,-1,1868,554,0,0
651,470,0,0,0,0,0,0,0,0,0,-1,1875,554,0,0
658,470,0,0,0,0,0,0,0,0,0,-1,1882,554,0,0
665,470,0,0,0,0,0,0,0,0,0,-1,1889,554,0,0
672,470,0,0,0,0,0,0,0,0,0,-1,1896,554,0,0
679,470,0,0,0,0,0,0,0,0,0,-1,1903,554,0,0
686,470,0,0,0,0,0,0,0,0,0,-1,1910,554,0,0
693,470,0,0,0,0,0,0,0,0,0,-1,1917,554,0,0
700,470,0,0,0,0,0,0,0,0,0,-1,1924,554,0,0
707,470,0,0,0,0,0,0,0,0,0,-1,1931,554,0,0
714,470,0,0,0,0,0,0,0,0,0,-1,1938,554,0,0
721,470,0,0,0,0,0,0,0,0,0,-1,1945,554,0,0
728,470,0,0,0,0,0,0,0,0,0,-1,1952,554,0,0
735,470,0,0,0,0,0,0,0,0,0,-1,1959,554,0,0
742,470,0,0,0,0,0,0,0,0,0,-1,1966,554,0,0
749,470,0,0,0,0,0,0,0,0,0,-1,1973,554,0,0
756,470,0,0,0,0,0,0,0,0,0,-1,1980,554,0,0
763,470,0,0,0,0,0,0,0,0,0,-1,1987,554,0,0
770,470,0,0,0,0,0,0,0,0,0,-1,1994,554,0,0
777,470,0,0,0,0,0,0,0,0,0,-1,2001,554,0,0
784,470,0,0,0,0,0,0,0,0,0,-1,2008,554,0,0
791,470,0,0,0,0,0,0,0,0,0,-1,2015,554,0,0
798,470,0,0,0,0,0,0,0,0,0,-1,2022,554,0,0
805,470,0,0,0,0,0,0,0,0,0,-1,2029,554,0,0
812,470,0,0,0,0,0,0,0,0,0,-1,2036,554,0,0
-700,463,0,0,0,0,0,0,0,0,0,-1,524,561,0,0
-693,463,0,0,0,0,0,0,0,0,0,-1,531,561,0,0
-686,463,0,0,0,0,0,0,0,0,0,-1,538,561,0,0
-679,463,0,0,0,0,0,0,0,0,0,-1,545,561,0,0
-672,463,0,0,0,0,0,0,0,0,0,-1,552,561,0,0
-665,463,0,0,0,0,0,0,0,0,0,-1,559,561,0,0
-658,463,0,0,0,0,0,0,0,0,0,-1,566,561,0,0
-651,463,0,0,0,0,0,0,0,0,0,-1,573,561,0,0
-644,463,0,0,0,0,0,0,0,0,0,-1,580,561,0,0
-637,463,0,0,0,0,0,0,0,0,0,-1,587,561,0,0
-630,463,0,0,0,0,0,0,0,0,0,-1,594,561,0,0
-623,463,0,0,0,0,0,0,0,0,0,-1,601,561,0,0
-616,463,0,0,0,0,0,0,0,0,0,-1,608,561,0,0
-609,463,0,0,0,0,0,0,0,0,0,-1,615,561,0,0
-602,463,0,0,0,0,0,0,0,0,0,-1,622,561,0,0
-595,463,0,0,0,0,0,0,0,0,0,-1,629,561,0,0
-588,463,0,0,0,0,0,0,0,0,0,-1,636,561,0,0
-581,463,0,0,0,0,0,0,0,0,0,-1,643,561,0,0
-574,463,0,0,0,0,0,0,0,0,0,-1,650,561,0,0
-567,463,0,0,0,0,0,0,0,0,0,-1,657,561,0,0
-560,463,0,0,0,0,0,0,0,0,0,-1,664,561,0,0
-553,463,0,0,0,0,0,0,0,0,0,-1,671,561,0,0
-546,463,0,0,0,0,0,0,0,0,0,-1,678,561,0,0
-539,463,0,0,0,0,0,0,0,0,0,-1,685,561,0,0
-532,463,0,0,0,0,0,0,0,0,0,-1,692,561,0,0
-525,463,0,0,0,0,0,0,0,0,0,-1,699,561,0,0
-518,463,0,0,0,0,0,0,0,0,0,-1,706,561,0,0
-511,463,0,0,0,0,0,0,0,0,0,-1,713,561,0,0
-504,463,0,0,0,0,0,0,0,0,0,-1,720,561,0,0
-497,463,-4.27014,3.24841,0,0,0,0,0,0,0,-1,727,561,-4.27015,-3.24842
-490,463,-3.59601,2.38934,0,0,0,0,0,0,0,-1,734,561,-3.59599,-2.38932
-483,463,-10.9605,5.51794,0,0,0,0,0,0,0,-1,741,561,-10.9605,-5.51794
-476,463,-9.86005,3.40265,0,0,0,0,0,0,0,-1,748,561,-9.86004,-3.40263
-469,463,-1.92133,-0.684265,0,0,0,0,0,0,0,-1,755,561,-1.92133,0.684277
-462,463,-0.174622,-1.94922,0,0,0,0,0,0,0,-1,762,561,-0.174633,1.9492
-455,463,-0.938416,-2.07825,0,0,0,0,0,0,0,-1,769,561,-0.938401,2.07822
-448,463,-0.955078,-2.3136,0.052357,0.00811651,-0.0160575,0.0575708,0.00290273,-0.313955,0.0374504,0.0443176,776,561,-0.955074,2.31362
-441,463,-0.894043,-2.57587,0.0399699,0.00521788,-0.0113595,0.0433536,0.00183422,-0.289502,0.0283108,0.0291624,783,561,-0.894033,2.57588
-434,463,-1.03711,-2.77386,0.0297734,0.00317801,-0.00771296,0.0318484,0.00110305,-0.2628,0.0208743,0.0121283,790,561,-1.03711,2.77389
-427,463,-1.05121,-2.9342,0.0208513,0.00149443,-0.00473533,0.0219476,0.000398102,-0.227512,0.0145009,0.00925372,797,561,-1.05118,2.93418
-420,463,-1.03613,-3.09821,0.0140551,0.000385042,-0.00258387,0.0145272,-8.70484e-05,-0.180713,0.00971396,0.00990147,804,561,-1.03615,3.0982
-413,463,-1.05487,-3.27081,0.00906368,-0.000273239,-0.00118851,0.00921259,-0.00042215,-0.124643,0.00628717,0.0087936,811,561,-1.05488,3.27083
-406,463,-1.07703,-3.44684,0.00562166,-0.000629555,-0.000277775,0.00563398,-0.000641874,-0.0443189,0.0039872,0.0080592,818,561,-1.07705,3.44682
-399,463,-1.05731,-3.62262,0.00394603,-0.000769053,-0.00020281,0.00395474,-0.000777761,-0.0429073,0.00293036,0.00896121,825,561,-1.05731,3.62264
-392,463,-1.0553,-3.78363,0.0028934,-0.00109168,-0.00026134,0.00291047,-0.00110874,-0.0652073,0.00239695,0.00877437,832,561,-1.05529,3.78362
-385,463,-1.06818,-3.95581,0.00261286,-0.00117967,-0.000515297,0.00268163,-0.00124844,-0.132668,0.00231877,0.0100087,839,561,-1.0682,3.95581
-378,463,-1.05536,-4.14441,0.00276443,-0.00145098,-0.000991945,0.00298619,-0.00167274,-0.219937,0.00272523,0.0111666,846,561,-1.05534,4.1444
-371,463,-1.03821,-4.29901,0.00316742,-0.0018607,-0.00147083,0.00356606,-0.00225935,-0.264673,0.00339139,0.01015,853,561,-1.03818,4.29899
-364,463,-1.03497,-4.42401,0.0035351,-0.00220145,-0.00178623,0.00404582,-0.00271217,-0.278492,0.00392697,0.0130175,860,561,-1.03496,4.42401
-357,463,-1.05231,-4.57239,0.00395519,-0.0024884,-0.00229136,0.00468691,-0.00322012,-0.309104,0.00459124,0.0151116,867,561,-1.05233,4.57237
-350,463,-1.03113,-4.78619,0.00411271,-0.00264696,-0.0027887,0.00511467,-0.00364892,-0.34493,0.0050832,0.01518,874,561,-1.03112,4.78618
-343,463,-0.932129,-4.90802,0.00407923,-0.00260783,-0.00327323,0.00541472,-0.00394332,-0.387387,0.00542508,0.0273281,881,561,-0.932114,4.90799
-336,463,-0.879883,-5.10406,0.00385733,-0.00242638,-0.00371894,0.00558392,-0.00415298,-0.434657,0.0056418,0.038357,888,561,-0.879897,5.10409
-329,463,-0.504333,-5.16907,0.00363387,-0.0022455,-0.00411303,0.00574975,-0.00436138,-0.475128,0.00585598,0.0466096,895,561,-0.504308,5.16908
-322,463,-0.533752,-5.07098,0,0,0,0,0,0,0,-1,902,561,-0.533777,5.07096
-315,463,-0.944763,-5.96234,0,0,0,0,0,0,0,-1,909,561,-0.94479,5.96237
-308,463,-1.1535,-3.17889,0,0,0,0,0,0,0,-1,916,561,-1.15352,3.17889
-301,463,-1.50366,-3.15338,0,0,0,0,0,0,0,-1,923,561,-1.50364,3.15341
-294,463,-2.35889,-3.93463,0,0,0,0,0,0,0,-1,930,561,-2.35886,3.93465
-287,463,-2.80322,2.73999,0,0,0,0,0,0,0,-1,937,561,-2.80322,-2.74
-280,463,-3.29858,2.24219,0,0,0,0,0,0,0,-1,944,561,-3.29859,-2.24221
-273,463,-5.54578,0.486755,0,0,0,0,0,0,0,-1,951,561,-5.54576,-0.486736
-266,463,-3.96259,-0.93335,0.244961,-0.0471333,-0.0640056,0.258371,-0.060543,-0.206521,0.195577,0.048718,958,561,-3.96258,0.933349
-259,463,-2.54156,-2.28058,0.269832,-0.05437,-0.0692802,0.284016,-0.0685543,-0.201947,0.215855,0.0464226,965,561,-2.54159,2.28059
-252,463,0,0,0,0,0,0,0,0,0,-1,972,561,0,0
-245,463,0,0,0,0,0,0,0,0,0,-1,979,561,0,0
-238,463,0,0,0,0,0,0,0,0,0,-1,986,561,0,0
-231,463,0,0,0,0,0,0,0,0,0,-1,993,561,0,0
-224,463,0,0,0,0,0,0,0,0,0,-1,1000,561,0,0
-217,463,0,0,0,0,0,0,0,0,0,-1,1007,561,0,0
-210,463,0,0,0,0,0,0,0,0,0,-1,1014,561,0,0
-203,463,0,0,0,0,0,0,0,0,0,-1,1021,561,0,0
-196,463,0,0,0,0,0,0,0,0,0,-1,1028,561,0,0
-189,463,0,0,0,0,0,0,0,0,0,-1,1035,561,0,0
-182,463,0,0,0,0,0,0,0,0,0,-1,1042,561,0,0
-175,463,0,0,0,0,0,0,0,0,0,-1,1049,561,0,0
-168,463,0,0,0,0,0,0,0,0,0,-1,1056,561,0,0
-161,463,0,0,0,0,0,0,0,0,0,-1,1063,561,0,0
-154,463,0,0,0,0,0,0,0,0,0,-1,1070,561,0,0
-147,463,0,0,0,0,0,0,0,0,0,-1,1077,561,0,0
-140,463,0,0,0,0,0,0,0,0,0,-1,1084,561,0,0
-133,463,0,0,0,0,0,0,0,0,0,-1,1091,561,0,0
-126,463,0,0,0,0,0,0,0,0,0,-1,1098,561,0,0
-119,463,0,0,0,0,0,0,0,0,0,-1,1105,561,0,0
-112,463,0,0,0,0,0,0,0,0,0,-1,1112,561,0,0
-105,463,0,0,0,0,0,0,0,0,0,-1,1119,561,0,0
-98,463,0,0,0,0,0,0,0,0,0,-1,1126,561,0,0
-91,463,0,0,0,0,0,0,0,0,0,-1,1133,561,0,0
-84,463,0,0,0,0,0,0,0,0,0,-1,1140,561,0,0
-77,463,0,0,0,0,0,0,0,0,0,-1,1147,561,0,0
-70,463,0,0,0,0,0,0,0,0,0,-1,1154,561,0,0
-63,463,0,0,0,0,0,0,0,0,0,-1,1161,561,0,0
-56,463,0,0,0,0,0,0,0,0,0,-1,1168,561,0,0
-49,463,0,0,0,0,0,0,0,0,0,-1,1175,561,0,0
-42,463,0,0,0,0,0,0,0,0,0,-1,1182,561,0,0
-35,463,0,0,0,0,0,0,0,0,0,-1,1189,561,0,0
-28,463,0,0,0,0,0,0,0,0,0,-1,1196,561,0,0
-21,463,0,0,0,0,0,0,0,0,0,-1,1203,561,0,0
-14,463,0,0,0,0,0,0,0,0,0,-1,1210,561,0,0
-7,463,0,0,0,0,0,0,0,0,0,-1,1217,561,0,0
0,463,0,0,0,0,0,0,0,0,0,-1,1224,561,0,0
7,463,0,0,0,0,0,0,0,0,0,-1,1231,561,0,0
14,463,0,0,0,0,0,0,0,0,0,-1,1238,561,0,0
21,463,0,0,0,0,0,0,0,0,0,-1,1245,561,0,0
28,463,0,0,0,0,0,0,0,0,0,-1,1252,561,0,0
35,463,0,0,0,0,0,0,0,0,0,-1,1259,561,0,0
42,463,0,0,0,0,0,0,0,0,0,-1,1266,561,0,0
49,463,0,0,0,0,0,0,0,0,0,-1,1273,561,0,0
56,463,0,0,0,0,0,0,0,0,0,-1,1280,561,0,0
63,463,0,0,0,0,0,0,0,0,0,-1,1287,561,0,0
70,463,0,0,0,0,0,0,0,0,0,-1,1294,561,0,0
77,463,0,0,0,0,0,0,0,0,0,-1,1301,561,0,0
84,463,0,0,0,0,0,0,0,0,0,-1,1308,561,0,0
91,463,0,0,0,0,0,0,0,0,0,-1,1315,561,0,0
98,463,0,0,0,0,0,0,0,0,0,-1,1322,561,0,0
105,463,0,0,0,0,0,0,0,0,0,-1,1329,561,0,0
112,463,0,0,0,0,0,0,0,0,0,-1,1336,561,0,0
119,463,0,0,0,0,0,0,0,0,0,-1,1343,561,0,0
126,463,0,0,0,0,0,0,0,0,0,-1,1350,561,0,0
133,463,0,0,0,0,0,0,0,0,0,-1,1357,561,0,0
140,463,0,0,0,0,0,0,0,0,0,-1,1364,561,0,0
147,463,0,0,0,0,0,0,0,0,0,-1,1371,561,0,0
154,463,0,0,0,0,0,0,0,0,0,-1,1378,561,0,0
161,463,0,0,0,0,0,0,0,0,0,-1,1385,561,0,0
168,463,0,0,0,0,0,0,0,0,0,-1,1392,561,0,0
175,463,0,0,0,0,0,0,0,0,0,-1,1399,561,0,0
182,463,0,0,0,0,0,0,0,0,0,-1,1406,561,0,0
189,463,0,0,0,0,0,0,0,0,0,-1,1413,561,0,0
196,463,0,0,0,0,0,0,0,0,0,-1,1420,561,0,0
203,463,0,0,0,0,0,0,0,0,0,-1,1427,561,0,0
210,463,0,0,0,0,0,0,0,0,0,-1,1434,561,0,0
217,463,0,0,0,0,0,0,0,0,0,-1,1441,561,0,0
224,463,0,0,0,0,0,0,0,0,0,-1,1448,561,0,0
231,463,0,0,0,0,0,0,0,0,0,-1,1455,561,0,0
238,463,0,0,0,0,0,0,0,0,0,-1,1462,561,0,0
245,463,0,0,0,0,0,0,0,0,0,-1,1469,561,0,0
252,463,0,0,0,0,0,0,0,0,0,-1,1476,561,0,0
259,463,0,0,0,0,0,0,0,0,0,-1,1483,561,0,0
266,463,0,0,0,0,0,0,0,0,0,-1,1490,561,0,0
273,463,0,0,0,0,0,0,0,0,0,-1,1497,561,0,0
280,463,0,0,0,0,0,0,0,0,0,-1,1504,561,0,0
287,463,0,0,0,0,0,0,0,0,0,-1,1511,561,0,0
294,463,0,0,0,0,0,0,0,0,0,-1,1518,561,0,0
301,463,0,0,0,0,0,0,0,0,0,-1,1525,561,0,0
308,463,0,0,0,0,0,0,0,0,0,-1,1532,561,0,0
315,463,0,0,0,0,0,0,0,0,0,-1,1539,561,0,0
322,463,0,0,0,0,0,0,0,0,0,-1,1546,561,0,0
329,463,0,0,0,0,0,0,0,0,0,-1,1553,561,0,0
336,463,0,0,0,0,0,0,0,0,0,-1,1560,561,0,0
343,463,0,0,0,0,0,0,0,0,0,-1,1567,561,0,0
350,463,0,0,0,0,0,0,0,0,0,-1,1574,561,0,0
357,463,0,0,0,0,0,0,0,0,0,-1,1581,561,0,0
364,463,0,0,0,0,0,0,0,0,0,-1,1588,561,0,0
371,463,1.75842,0.152588,0,0,0,0,0,0,0,-1,1595,561,1.75844,-0.152558
378,463,4.18835,0.841614,0,0,0,0,0,0,0,-1,1602,561,4.18833,-0.841636
385,463,8.22717,1.32404,0,0,0,0,0,0,0,-1,1609,561,8.22714,-1.32405
392,463,12.266,1.80646,0,0,0,0,0,0,0,-1,1616,561,12.266,-1.80646
399,463,13.1924,2.06775,0,0,0,0,0,0,0,-1,1623,561,13.1924,-2.06776
406,463,7.28088,1.38538,0,0,0,0,0,0,0,-1,1630,561,7.28091,-1.38537
413,463,8.05847,1.82239,0,0,0,0,0,0,0,-1,1637,561,8.05851,-1.82241
420,463,8.849,2.26611,0,0,0,0,0,0,0,-1,1644,561,8.84899,-2.26613
427,463,5.12207,1.69183,0,0,0,0,0,0,0,-1,1651,561,5.12206,-1.69184
434,463,4.59814,1.81995,0,0,0,0,0,0,0,-1,1658,561,4.59812,-1.81994
441,463,1.76392,-5.99225,0,0,0,0,0,0,0,-1,1665,561,1.7639,5.99225
448,463,2.49939,-4.30536,0,0,0,0,0,0,0,-1,1672,561,2.49941,4.30536
455,463,4.40295,-3.02557,0,0,0,0,0,0,0,-1,1679,561,4.40299,3.02558
462,463,5.58289,-4.06305,0,0,0,0,0,0,0,-1,1686,561,5.58293,4.06302
469,463,5.57837,-3.96747,0,0,0,0,0,0,0,-1,1693,561,5.57833,3.96747
476,463,5.36255,-3.77747,0,0,0,0,0,0,0,-1,1700,561,5.3626,3.7775
483,463,5.38037,-3.53516,0.0010113,0.00350136,0.000638304,0.00365545,0.000857214,1.33393,0.00220743,0.0300937,1707,561,5.38032,3.53516
490,463,5.48718,-3.25146,0.0015997,0.00292667,0.000961195,0.00343113,0.00109524,1.08748,0.00202367,0.0169519,1714,561,5.48723,3.25145
497,463,5.48743,-3.02777,0.00188919,0.00217478,0.000988094,0.00303034,0.00103362,0.857159,0.00177878,0.0123388,1721,561,5.48738,3.02776
504,463,5.49792,-2.85376,0.00189414,0.00153314,0.000872914,0.00260502,0.000822256,0.683446,0.00153771,0.0146256,1728,561,5.49787,2.85375
511,463,5.50391,-2.66992,0.00173664,0.000948736,0.000856896,0.00228581,0.000399572,0.569934,0.00140968,0.0213746,1735,561,5.50386,2.6699
518,463,5.57251,-2.48529,0.00151276,0.000501439,0.000803095,0.00195613,5.80719e-05,0.504433,0.00128517,0.0226674,1742,561,5.57255,2.48527
525,463,5.54285,-2.28857,0.00116302,0.000132813,0.000657227,0.00148295,-0.000187116,0.453021,0.00105654,0.0180104,1749,561,5.54283,2.28855
532,463,5.53564,-2.09753,0.000709855,-0.000105706,0.000484417,0.000935276,-0.000331127,0.435542,0.000758385,0.015345,1756,561,5.53562,2.09752
539,463,5.51453,-1.90411,0.00025561,-0.000319933,0.00036412,0.000431946,-0.000496269,0.450992,0.000536334,0.0145901,1763,561,5.51448,1.90411
546,463,5.5155,-1.74261,-0.000133795,-0.000361128,0.000407268,0.00017537,-0.000670294,0.649313,0.000515363,0.0118254,1770,561,5.51552,1.74263
553,463,5.51111,-1.53644,-0.00067061,-0.000176968,0.00035596,9.37132e-06,-0.00085695,1.08854,0.000574449,0.0108199,1777,561,5.51116,1.53642
560,463,5.50781,-1.30865,-0.00111158,-3.53886e-05,0.00033198,5.87797e-05,-0.00120574,1.2944,0.000824122,0.0116891,1784,561,5.50786,1.30868
567,463,5.46692,-1.12347,-0.00143521,9.85555e-06,0.000349006,8.9731e-05,-0.00151509,1.34581,0.00104126,0.0149748,1791,561,5.46688,1.12347
574,463,5.45862,-1.06165,-0.00196614,0.00027158,0.000375145,0.000332797,-0.00202736,1.40904,0.00147507,0.039318,1798,561,5.45864,1.06167
581,463,5.59753,-0.973145,0,0,0,0,0,0,0,-1,1805,561,5.59758,0.973143
588,463,1.97424,2.16016,0,0,0,0,0,0,0,-1,1812,561,1.97422,-2.16013
595,463,8.83997,2.83508,0,0,0,0,0,0,0,-1,1819,561,8.83994,-2.83507
602,463,12.1405,2.82471,0,0,0,0,0,0,0,-1,1826,561,12.1405,-2.82468
609,463,15.4412,2.81427,0,0,0,0,0,0,0,-1,1833,561,15.4411,-2.81429
616,463,16.8923,2.79462,0,0,0,0,0,0,0,-1,1840,561,16.8923,-2.79464
623,463,0,0,0,0,0,0,0,0,0,-1,1847,561,0,0
630,463,0,0,0,0,0,0,0,0,0,-1,1854,561,0,0
637,463,0,0,0,0,0,0,0,0,0,-1,1861,561,0,0
644,463,0,0,0,0,0,0,0,0,0,-1,1868,561,0,0
651,463,0,0,0,0,0,0,0,0,0,-1,1875,561,0,0
658,463,0,0,0,0,0,0,0,0,0,-1,1882,561,0,0
665,463,0,0,0,0,0,0,0,0,0,-1,1889,561,0,0
672,463,0,0,0,0,0,0,0,0,0,-1,1896,561,0,0
679,463,0,0,0,0,0,0,0,0,0,-1,1903,561,0,0
686,463,0,0,0,0,0,0,0,0,0,-1,1910,561,0,0
693,463,0,0,0,0,0,0,0,0,0,-1,1917,561,0,0
700,463,0,0,0,0,0,0,0,0,0,-1,1924,561,0,0
707,463,0,0,0,0,0,0,0,0,0,-1,1931,561,0,0
714,463,0,0,0,0,0,0,0,0,0,-1,1938,561,0,0
721,463,0,0,0,0,0,0,0,0,0,-1,1945,561,0,0
728,463,0,0,0,0,0,0,0,0,0,-1,1952,561,0,0
735,463,0,0,0,0,0,0,0,0,0,-1,1959,561,0,0
742,463,0,0,0,0,0,0,0,0,0,-1,1966,561,0,0
749,463,0,0,0,0,0,0,0,0,0,-1,1973,561,0,0
756,463,0,0,0,0,0,0,0,0,0,-1,1980,561,0,0
763,463,0,0,0,0,0,0,0,0,0,-1,1987,561,0,0
770,463,0,0,0,0,0,0,0,0,0,-1,1994,561,0,0
777,463,0,0,0,0,0,0,0,0,0,-1,2001,561,0,0
784,463,0,0,0,0,0,0,0,0,0,-1,2008,561,0,0
791,463,0,0,0,0,0,0,0,0,0,-1,2015,561,0,0
798,463,0,0,0,0,0,0,0,0,0,-1,2022,561,0,0
805,463,0,0,0,0,0,0,0,0,0,-1,2029,561,0,0
812,463,0,0,0,0,0,0,0,0,0,-1,2036,561,0,0
-700,456,0,0,0,0,0,0,0,0,0,-1,524,568,0,0
-693,456,0,0,0,0,0,0,0,0,0,-1,531,568,0,0
-686,456,0,0,0,0,0,0,0,0,0,-1,538,568,0,0
-679,456,0,0,0,0,0,0,0,0,0,-1,545,568,0,0
-672,456,0,0,0,0,0,0,0,0,0,-1,552,568,0,0
-665,456,0,0,0,0,0,0,0,0,0,-1,559,568,0,0
-658,456,0,0,0,0,0,0,0,0,0,-1,566,568,0,0
-651,456,0,0,0,0,0,0,0,0,0,-1,573,568,0,0
-644,456,0,0,0,0,0,0,0,0,0,-1,580,568,0,0
-637,456,0,0,0,0,0,0,0,0,0,-1,587,568,0,0
-630,456,0,0,0,0,0,0,0,0,0,-1,594,568,0,0
-623,456,0,0,0,0,0,0,0,0,0,-1,601,568,0,0
-616,456,0,0,0,0,0,0,0,0,0,-1,608,568,0,0
-609,456,0,0,0,0,0,0,0,0,0,-1,615,568,0,0
-602,456,0,0,0,0,0,0,0,0,0,-1,622,568,0,0
-595,456,0,0,0,0,0,0,0,0,0,-1,629,568,0,0
-588,456,0,0,0,0,0,0,0,0,0,-1,636,568,0,0
-581,456,0,0,0,0,0,0,0,0,0,-1,643,568,0,0
-574,456,0,0,0,0,0,0,0,0,0,-1,650,568,0,0
-567,456,0,0,0,0,0,0,0,0,0,-1,657,568,0,0
-560,456,0,0,0,0,0,0,0,0,0,-1,664,568,0,0
-553,456,0,0,0,0,0,0,0,0,0,-1,671,568,0,0
-546,456,0,0,0,0,0,0,0,0,0,-1,678,568,0,0
-539,456,0,0,0,0,0,0,0,0,0,-1,685,568,0,0
-532,456,0,0,0,0,0,0,0,0,0,-1,692,568,0,0
-525,456,0,0,0,0,0,0,0,0,0,-1,699,568,0,0
-518,456,0,0,0,0,0,0,0,0,0,-1,706,568,0,0
-511,456,0,0,0,0,0,0,0,0,0,-1,713,568,0,0
-504,456,-1.43451,-1.86499,0,0,0,0,0,0,0,-1,720,568,-1.43452,1.86499
-497,456,-3.59912,3.37024,0,0,0,0,0,0,0,-1,727,568,-3.59911,-3.37021
-490,456,-2.81476,2.5285,0,0,0,0,0,0,0,-1,734,568,-2.81477,-2.52848
-483,456,-2.06812,1.72504,0,0,0,0,0,0,0,-1,741,568,-2.06814,-1.72502
-476,456,-1.96539,-1.17493,0,0,0,0,0,0,0,-1,748,568,-1.9654,1.17492
-469,456,-2.81238,-3.51501,0,0,0,0,0,0,0,-1,755,568,-2.81237,3.51501
-462,456,-1.26404,-1.3056,0,0,0,0,0,0,0,-1,762,568,-1.26404,1.30558
-455,456,-1.08099,-2.01715,0,0,0,0,0,0,0,-1,769,568,-1.08097,2.01717
-448,456,-1.10181,-2.31671,0.0420792,0.00761065,-0.0139974,0.0470474,0.00264248,-0.341064,0.0305222,0.0338229,776,568,-1.1018,2.31674
-441,456,-1.17706,-2.58698,0.0321387,0.00506863,-0.0102096,0.0355575,0.00164982,-0.323126,0.0231746,0.0152846,783,568,-1.17709,2.587
-434,456,-1.23071,-2.75836,0.0240316,0.00313111,-0.00721043,0.0262777,0.000884976,-0.301984,0.017231,0.00888542,790,568,-1.23071,2.75839
-427,456,-1.22656,-2.93018,0.0168951,0.00149888,-0.00469331,0.0182129,0.000180991,-0.273751,0.0120821,0.00853241,797,568,-1.22659,2.93019
-420,456,-1.21332,-3.10156,0.0115479,0.000319986,-0.00281676,0.0122149,-0.000347032,-0.23252,0.00826139,0.00950043,804,568,-1.2133,3.10157
-413,456,-1.22095,-3.26904,0.00771232,-0.000507776,-0.0015861,0.00800775,-0.000803203,-0.18415,0.00562538,0.00843534,811,568,-1.22092,3.26903
-406,456,-1.24927,-3.44287,0.00516464,-0.00098813,-0.000801697,0.00526739,-0.00109087,-0.127464,0.00392606,0.00851525,818,568,-1.24925,3.44288
-399,456,-1.23987,-3.61548,0.00398752,-0.00133336,-0.000731401,0.00408623,-0.00143206,-0.134145,0.00330655,0.00993786,825,568,-1.23984,3.61551
-392,456,-1.21649,-3.77509,0.00317812,-0.00177242,-0.000721127,0.00328103,-0.00187533,-0.141743,0.00301367,0.0092919,832,568,-1.21648,3.77511
-385,456,-1.21698,-3.94983,0.00314996,-0.00203284,-0.000949739,0.00331852,-0.0022014,-0.175647,0.0032086,0.00979065,839,568,-1.21697,3.94982
-378,456,-1.22009,-4.14301,0.0035442,-0.00245653,-0.00138312,0.00384765,-0.00275998,-0.215975,0.00383211,0.0105022,846,568,-1.22009,4.14302
-371,456,-1.20941,-4.29968,0.00409382,-0.00302676,-0.00188246,0.00456085,-0.00349379,-0.243186,0.00466393,0.0103312,853,568,-1.20943,4.2997
-364,456,-1.20093,-4.42218,0.00448799,-0.00349662,-0.00230074,0.00510349,-0.00411213,-0.261403,0.00533089,0.0141363,860,568,-1.20093,4.42218
-357,456,-1.1712,-4.58356,0.00488018,-0.00391005,-0.00292876,0.00576661,-0.00479648,-0.293898,0.00610717,0.0160761,867,568,-1.17119,4.58358
-350,456,-1.05371,-4.73566,0.00503029,-0.00419523,-0.00363401,0.0062898,-0.00545474,-0.333634,0.00678643,0.0272625,874,568,-1.05374,4.73565
-343,456,-1.11981,-4.98627,0.0050139,-0.00428993,-0.00430861,0.00670268,-0.00597871,-0.373552,0.00732558,0.0363545,881,568,-1.11984,4.98625
-336,456,-0.93158,-5.21637,0.00474925,-0.00412138,-0.00487817,0.006907,-0.00627913,-0.416456,0.00761589,0.0465585,888,568,-0.931581,5.21639
-329,456,-0.370544,-5.5014,0,0,0,0,0,0,0,-1,895,568,-0.370555,5.50137
-322,456,-0.344421,-3.39081,0,0,0,0,0,0,0,-1,902,568,-0.344438,3.39081
-315,456,-0.675476,-3.38397,0,0,0,0,0,0,0,-1,909,568,-0.675473,3.38399
-308,456,-1.1618,-3.15314,0,0,0,0,0,0,0,-1,916,568,-1.16178,3.15314
-301,456,-1.83551,-3.26447,0,0,0,0,0,0,0,-1,923,568,-1.8355,3.26449
-294,456,-2.93414,-3.35449,0,0,0,0,0,0,0,-1,930,568,-2.93413,3.35451
-287,456,-3.7569,-3.53101,0,0,0,0,0,0,0,-1,937,568,-3.75692,3.53101
-280,456,-3.58478,1.37744,0,0,0,0,0,0,0,-1,944,568,-3.58476,-1.37746
-273,456,-5.48199,0.679199,0,0,0,0,0,0,0,-1,951,568,-5.482,-0.679176
-266,456,-3.95667,-0.68927,0,0,0,0,0,0,0,-1,958,568,-3.95667,0.689273
-259,456,0,0,0,0,0,0,0,0,0,-1,965,568,0,0
-252,456,0,0,0,0,0,0,0,0,0,-1,972,568,0,0
-245,456,0,0,0,0,0,0,0,0,0,-1,979,568,0,0
-238,456,0,0,0,0,0,0,0,0,0,-1,986,568,0,0
-231,456,0,0,0,0,0,0,0,0,0,-1,993,568,0,0
-224,456,0,0,0,0,0,0,0,0,0,-1,1000,568,0,0
-217,456,0,0,0,0,0,0,0,0,0,-1,1007,568,0,0
-210,456,0,0,0,0,0,0,0,0,0,-1,1014,568,0,0
-203,456,0,0,0,0,0,0,0,0,0,-1,1021,568,0,0
-196,456,0,0,0,0,0,0,0,0,0,-1,1028,568,0,0
-189,456,0,0,0,0,0,0,0,0,0,-1,1035,568,0,0
-182,456,0,0,0,0,0,0,0,0,0,-1,1042,568,0,0
-175,456,0,0,0,0,0,0,0,0,0,-1,1049,568,0,0
-168,456,0,0,0,0,0,0,0,0,0,-1,1056,568,0,0
-161,456,0,0,0,0,0,0,0,0,0,-1,1063,568,0,0
-154,456,0,0,0,0,0,0,0,0,0,-1,1070,568,0,0
-147,456,0,0,0,0,0,0,0,0,0,-1,1077,568,0,0
-140,456,0,0,0,0,0,0,0,0,0,-1,1084,568,0,0
-133,456,0,0,0,0,0,0,0,0,0,-1,1091,568,0,0
-126,456,0,0,0,0,0,0,0,0,0,-1,1098,568,0,0
-119,456,0,0,0,0,0,0,0,0,0,-1,1105,568,0,0
-112,456,0,0,0,0,0,0,0,0,0,-1,1112,568,0,0
-105,456,0,0,0,0,0,0,0,0,0,-1,1119,568,0,0
-98,456,0,0,0,0,0,0,0,0,0,-1,1126,568,0,0
-91,456,0,0,0,0,0,0,0,0,0,-1,1133,568,0,0
-84,456,0,0,0,0,0,0,0,0,0,-1,1140,568,0,0
-77,456,0,0,0,0,0,0,0,0,0,-1,1147,568,0,0
-70,456,0,0,0,0,0,0,0,0,0,-1,1154,568,0,0
-63,456,0,0,0,0,0,0,0,0,0,-1,1161,568,0,0
-56,456,0,0,0,0,0,0,0,0,0,-1,1168,568,0,0
-49,456,0,0,0,0,0,0,0,0,0,-1,1175,568,0,0
-42,456,0,0,0,0,0,0,0,0,0,-1,1182,568,0,0
-35,456,0,0,0,0,0,0,0,0,0,-1,1189,568,0,0
-28,456,0,0,0,0,0,0,0,0,0,-1,1196,568,0,0
-21,456,0,0,0,0,0,0,0,0,0,-1,1203,568,0,0
-14,456,0,0,0,0,0,0,0,0,0,-1,1210,568,0,0
-7,456,0,0,0,0,0,0,0,0,0,-1,1217,568,0,0
0,456,0,0,0,0,0,0,0,0,0,-1,1224,568,0,0
7,456,0,0,0,0,0,0,0,0,0,-1,1231,568,0,0
14,456,0,0,0,0,0,0,0,0,0,-1,1238,568,0,0
21,456,0,0,0,0,0,0,0,0,0,-1,1245,568,0,0
28,456,0,0,0,0,0,0,0,0,0,-1,1252,568,0,0
35,456,0,0,0,0,0,0,0,0,0,-1,1259,568,0,0
42,456,0,0,0,0,0,0,0,0,0,-1,1266,568,0,0
49,456,0,0,0,0,0,0,0,0,0,-1,1273,568,0,0
56,456,0,0,0,0,0,0,0,0,0,-1,1280,568,0,0
63,456,0,0,0,0,0,0,0,0,0,-1,1287,568,0,0
70,456,0,0,0,0,0,0,0,0,0,-1,1294,568,0,0
77,456,0,0,0,0,0,0,0,0,0,-1,1301,568,0,0
84,456,0,0,0,0,0,0,0,0,0,-1,1308,568,0,0
91,456,0,0,0,0,0,0,0,0,0,-1,1315,568,0,0
98,456,0,0,0,0,0,0,0,0,0,-1,1322,568,0,0
105,456,0,0,0,0,0,0,0,0,0,-1,1329,568,0,0
112,456,0,0,0,0,0,0,0,0,0,-1,1336,568,0,0
119,456,0,0,0,0,0,0,0,0,0,-1,1343,568,0,0
126,456,0,0,0,0,0,0,0,0,0,-1,1350,568,0,0
133,456,0,0,0,0,0,0,0,0,0,-1,1357,568,0,0
140,456,0,0,0,0,0,0,0,0,0,-1,1364,568,0,0
147,456,0,0,0,0,0,0,0,0,0,-1,1371,568,0,0
154,456,0,0,0,0,0,0,0,0,0,-1,1378,568,0,0
161,456,0,0,0,0,0,0,0,0,0,-1,1385,568,0,0
168,456,0,0,0,0,0,0,0,0,0,-1,1392,568,0,0
175,456,0,0,0,0,0,0,0,0,0,-1,1399,568,0,0
182,456,0,0,0,0,0,0,0,0,0,-1,1406,568,0,0
189,456,0,0,0,0,0,0,0,0,0,-1,1413,568,0,0
196,456,0,0,0,0,0,0,0,0,0,-1,1420,568,0,0
203,456,0,0,0,0,0,0,0,0,0,-1,1427,568,0,0
210,456,0,0,0,0,0,0,0,0,0,-1,1434,568,0,0
217,456,0,0,0,0,0,0,0,0,0,-1,1441,568,0,0
224,456,0,0,0,0,0,0,0,0,0,-1,1448,568,0,0
231,456,0,0,0,0,0,0,0,0,0,-1,1455,568,0,0
238,456,0,0,0,0,0,0,0,0,0,-1,1462,568,0,0
245,456,0,0,0,0,0,0,0,0,0,-1,1469,568,0,0
252,456,0,0,0,0,0,0,0,0,0,-1,1476,568,0,0
259,456,0,0,0,0,0,0,0,0,0,-1,1483,568,0,0
266,456,0,0,0,0,0,0,0,0,0,-1,1490,568,0,0
273,456,0,0,0,0,0,0,0,0,0,-1,1497,568,0,0
280,456,0,0,0,0,0,0,0,0,0,-1,1504,568,0,0
287,456,0,0,0,0,0,0,0,0,0,-1,1511,568,0,0
294,456,0,0,0,0,0,0,0,0,0,-1,1518,568,0,0
301,456,0,0,0,0,0,0,0,0,0,-1,1525,568,0,0
308,456,0,0,0,0,0,0,0,0,0,-1,1532,568,0,0
315,456,0,0,0,0,0,0,0,0,0,-1,1539,568,0,0
322,456,0,0,0,0,0,0,0,0,0,-1,1546,568,0,0
329,456,0,0,0,0,0,0,0,0,0,-1,1553,568,0,0
336,456,0,0,0,0,0,0,0,0,0,-1,1560,568,0,0
343,456,0,0,0,0,0,0,0,0,0,-1,1567,568,0,0
350,456,0,0,0,0,0,0,0,0,0,-1,1574,568,0,0
357,456,0,0,0,0,0,0,0,0,0,-1,1581,568,0,0
364,456,0,0,0,0,0,0,0,0,0,-1,1588,568,0,0
371,456,0,0,0,0,0,0,0,0,0,-1,1595,568,0,0
378,456,0,0,0,0,0,0,0,0,0,-1,1602,568,0,0
385,456,5.66284,0.660645,0,0,0,0,0,0,0,-1,1609,568,5.66285,-0.660615
392,456,9.61865,2.70856,0,0,0,0,0,0,0,-1,1616,568,9.61862,-2.70856
399,456,11.889,2.58441,0,0,0,0,0,0,0,-1,1623,568,11.889,-2.58444
406,456,14.1594,2.46033,0,0,0,0,0,0,0,-1,1630,568,14.1595,-2.46032
413,456,9.55115,1.49933,0,0,0,0,0,0,0,-1,1637,568,9.55119,-1.49933
420,456,6.33875,1.88824,0,0,0,0,0,0,0,-1,1644,568,6.33876,-1.88827
427,456,6.21375,2.02905,0,0,0,0,0,0,0,-1,1651,568,6.21372,-2.02904
434,456,3.0719,-4.86285,0,0,0,0,0,0,0,-1,1658,568,3.07184,4.86287
441,456,2.90344,-4.70459,0,0,0,0,0,0,0,-1,1665,568,2.90346,4.7046
448,456,3.06995,-4.93689,0,0,0,0,0,0,0,-1,1672,568,3.06991,4.93687
455,456,3.46582,-3.43701,0,0,0,0,0,0,0,-1,1679,568,3.46585,3.43698
462,456,4.68445,-4.45831,0,0,0,0,0,0,0,-1,1686,568,4.68439,4.45833
469,456,4.93201,-2.289,0,0,0,0,0,0,0,-1,1693,568,4.93197,2.28903
476,456,4.8363,-2.79364,0,0,0,0,0,0,0,-1,1700,568,4.83636,2.79363
483,456,5.36646,-3.83905,0,0,0,0,0,0,0,-1,1707,568,5.36643,3.83907
490,456,5.70105,-3.41675,0,0,0,0,0,0,0,-1,1714,568,5.70099,3.41675
497,456,5.68823,-3.08856,0.00262141,0.00255004,0.00139268,0.00397887,0.00119258,0.772591,0.00235782,0.0263274,1721,568,5.68824,3.08856
504,456,5.66809,-2.841,0.00258857,0.00179817,0.00120977,0.00346606,0.000920682,0.627526,0.00207312,0.0100266,1728,568,5.66804,2.841
511,456,5.6748,-2.66217,0.00231086,0.00115344,0.00113901,0.00300974,0.000454552,0.550353,0.00187345,0.0126829,1735,568,5.67484,2.66217
518,456,5.68616,-2.48596,0.00202502,0.000685889,0.0010686,0.0026165,9.44155e-05,0.505529,0.00171373,0.0151805,1742,568,5.68617,2.48593
525,456,5.69641,-2.30664,0.00162348,0.00032134,0.000905287,0.00208751,-0.000142684,0.473654,0.00144159,0.0149773,1749,568,5.6964,2.30662
532,456,5.69604,-2.09039,0.0011189,7.34812e-05,0.000686,0.00145864,-0.00026626,0.45984,0.00107226,0.0142101,1756,568,5.69603,2.09042
539,456,5.69043,-1.90735,0.00060997,-0.0001708,0.000494319,0.000849467,-0.000410297,0.45117,0.000741911,0.0150837,1763,568,5.69039,1.90736
546,456,5.67395,-1.71906,0.000187311,-0.000232084,0.000468556,0.000490953,-0.000535726,0.574995,0.000592941,0.0165818,1770,568,5.67399,1.71904
553,456,5.67041,-1.50171,-0.000372558,-8.01789e-05,0.000347185,0.00015034,-0.000603076,0.984667,0.00046042,0.0124382,1777,568,5.67045,1.50169
560,456,5.677,-1.3183,-0.000849524,2.00572e-05,0.00025155,8.75818e-05,-0.000917048,1.30855,0.000642552,0.0107232,1784,568,5.67704,1.31831
567,456,5.68933,-1.11646,-0.00121304,-1.23901e-05,0.000191716,1.74794e-05,-0.00124291,1.41624,0.000834491,0.012296,1791,568,5.68934,1.11648
574,456,5.64673,-1.02948,-0.00165196,0.000152245,0.000153976,0.000165292,-0.001665,1.48627,0.001169,0.0281437,1798,568,5.64678,1.02946
581,456,5.62842,-0.914856,0,0,0,0,0,0,0,-1,1805,568,5.62842,0.914854
588,456,5.23901,-0.0901489,0,0,0,0,0,0,0,-1,1812,568,5.23906,0.0901656
595,456,6.90063,3.14886,0,0,0,0,0,0,0,-1,1819,568,6.90066,-3.14887
602,456,9.85046,2.88794,0,0,0,0,0,0,0,-1,1826,568,9.85047,-2.88796
609,456,13.1351,2.96027,0,0,0,0,0,0,0,-1,1833,568,13.1351,-2.96027
616,456,16.0509,2.8313,0,0,0,0,0,0,0,-1,1840,568,16.0509,-2.8313
623,456,11.7659,2.72815,0,0,0,0,0,0,0,-1,1847,568,11.7658,-2.72815
630,456,0,0,0,0,0,0,0,0,0,-1,1854,568,0,0
637,456,0,0,0,0,0,0,0,0,0,-1,1861,568,0,0
644,456,0,0,0,0,0,0,0,0,0,-1,1868,568,0,0
651,456,0,0,0,0,0,0,0,0,0,-1,1875,568,0,0
658,456,0,0,0,0,0,0,0,0,0,-1,1882,568,0,0
665,456,0,0,0,0,0,0,0,0,0,-1,1889,568,0,0
672,456,0,0,0,0,0,0,0,0,0,-1,1896,568,0,0
679,456,0,0,0,0,0,0,0,0,0,-1,1903,568,0,0
686,456,0,0,0,0,0,0,0,0,0,-1,1910,568,0,0
693,456,0,0,0,0,0,0,0,0,0,-1,1917,568,0,0
700,456,0,0,0,0,0,0,0,0,0,-1,1924,568,0,0
707,456,0,0,0,0,0,0,0,0,0,-1,1931,568,0,0
714,456,0,0,0,0,0,0,0,0,0,-1,1938,568,0,0
721,456,0,0,0,0,0,0,0,0,0,-1,1945,568,0,0
728,456,0,0,0,0,0,0,0,0,0,-1,1952,568,0,0
735,456,0,0,0,0,0,0,0,0,0,-1,1959,568,0,0
742,456,0,0,0,0,0,0,0,0,0,-1,1966,568,0,0
749,456,0,0,0,0,0,0,0,0,0,-1,1973,568,0,0
756,456,0,0,0,0,0,0,0,0,0,-1,1980,568,0,0
763,456,0,0,0,0,0,0,0,0,0,-1,1987,568,0,0
770,456,0,0,0,0,0,0,0,0,0,-1,1994,568,0,0
777,456,0,0,0,0,0,0,0,0,0,-1,2001,568,0,0
784,456,0,0,0,0,0,0,0,0,0,-1,2008,568,0,0
791,456,0,0,0,0,0,0,0,0,0,-1,2015,568,0,0
798,456,0,0,0,0,0,0,0,0,0,-1,2022,568,0,0
805,456,0,0,0,0,0,0,0,0,0,-1,2029,568,0,0
812,456,0,0,0,0,0,0,0,0,0,-1,2036,568,0,0
-700,449,0,0,0,0,0,0,0,0,0,-1,524,575,0,0
-693,449,0,0,0,0,0,0,0,0,0,-1,531,575,0,0
-686,449,0,0,0,0,0,0,0,0,0,-1,538,575,0,0
-679,449,0,0,0,0,0,0,0,0,0,-1,545,575,0,0
-672,449,0,0,0,0,0,0,0,0,0,-1,552,575,0,0
-665,449,0,0,0,0,0,0,0,0,0,-1,559,575,0,0
-658,449,0,0,0,0,0,0,0,0,0,-1,566,575,0,0
-651,449,0,0,0,0,0,0,0,0,0,-1,573,575,0,0
-644,449,0,0,0,0,0,0,0,0,0,-1,580,575,0,0
-637,449,0,0,0,0,0,0,0,0,0,-1,587,575,0,0
-630,449,0,0,0,0,0,0,0,0,0,-1,594,575,0,0
-623,449,0,0,0,0,0,0,0,0,0,-1,601,575,0,0
-616,449,0,0,0,0,0,0,0,0,0,-1,608,575,0,0
-609,449,0,0,0,0,0,0,0,0,0,-1,615,575,0,0
-602,449,0,0,0,0,0,0,0,0,0,-1,622,575,0,0
-595,449,0,0,0,0,0,0,0,0,0,-1,629,575,0,0
-588,449,0,0,0,0,0,0,0,0,0,-1,636,575,0,0
-581,449,0,0,0,0,0,0,0,0,0,-1,643,575,0,0
-574,449,0,0,0,0,0,0,0,0,0,-1,650,575,0,0
-567,449,0,0,0,0,0,0,0,0,0,-1,657,575,0,0
-560,449,0,0,0,0,0,0,0,0,0,-1,664,575,0,0
-553,449,0,0,0,0,0,0,0,0,0,-1,671,575,0,0
-546,449,0,0,0,0,0,0,0,0,0,-1,678,575,0,0
-539,449,0,0,0,0,0,0,0,0,0,-1,685,575,0,0
-532,449,0,0,0,0,0,0,0,0,0,-1,692,575,0,0
-525,449,0,0,0,0,0,0,0,0,0,-1,699,575,0,0
-518,449,0,0,0,0,0,0,0,0,0,-1,706,575,0,0
-511,449,-0.941345,-4.4519,0,0,0,0,0,0,0,-1,713,575,-0.941356,4.45191
-504,449,-0.813354,-1.30457,0,0,0,0,0,0,0,-1,720,575,-0.813353,1.30454
-497,449,-1.06378,-0.79657,0,0,0,0,0,0,0,-1,727,575,-1.06381,0.796591
-490,449,-2.24689,2.591,0,0,0,0,0,0,0,-1,734,575,-2.24688,-2.59099
-483,449,-3.13385,-1.05109,0,0,0,0,0,0,0,-1,741,575,-3.13382,1.05107
-476,449,-2.12018,-1.27478,0,0,0,0,0,0,0,-1,748,575,-2.12021,1.27481
-469,449,-1.70117,-1.22321,0,0,0,0,0,0,0,-1,755,575,-1.70116,1.22318
-462,449,-1.52893,-1.70569,0.0501266,0.0107836,-0.0191948,0.0579398,0.00297036,-0.386567,0.0376755,0.0478747,762,575,-1.52894,1.70569
-455,449,-1.45673,-2.16486,0.0395194,0.00952038,-0.0156961,0.0462306,0.0028092,-0.404045,0.029928,0.0436413,769,575,-1.45671,2.16485
-448,449,-1.35809,-2.37274,0.0302351,0.00718249,-0.012232,0.0355159,0.00190175,-0.407546,0.0230695,0.0226985,776,575,-1.35808,2.37276
-441,449,-1.38684,-2.6134,0.0225443,0.00501152,-0.00917403,0.026467,0.00108884,-0.404058,0.0172931,0.0137911,783,575,-1.38686,2.61342
-434,449,-1.40887,-2.77594,0.0164763,0.00321486,-0.00668145,0.0192588,0.000432392,-0.394604,0.0126975,0.0118426,790,575,-1.4089,2.77595
-427,449,-1.40735,-2.93829,0.0111946,0.00167056,-0.00452737,0.0130033,-0.000138106,-0.380072,0.00871524,0.012932,797,575,-1.40732,2.93832
-420,449,-1.38422,-3.10614,0.00748284,0.000456452,-0.00285339,0.00849561,-0.00055632,-0.341066,0.00585799,0.013058,804,575,-1.38423,3.10616
-413,449,-1.38202,-3.27545,0.00505044,-0.000521571,-0.00174217,0.00555032,-0.00102144,-0.279418,0.0040835,0.00958754,811,575,-1.38203,3.27545
-406,449,-1.4126,-3.45032,0.00368368,-0.00111305,-0.00104701,0.00390226,-0.00133163,-0.205807,0.00314093,0.00879658,818,575,-1.41258,3.45032
-399,449,-1.42334,-3.61774,0.00332906,-0.00169501,-0.000953209,0.00350383,-0.00186978,-0.181336,0.00314991,0.00868348,825,575,-1.42333,3.61772
-392,449,-1.39429,-3.78131,0.00301234,-0.00230147,-0.000868691,0.00315075,-0.00243987,-0.158,0.00323644,0.00938233,832,575,-1.39431,3.78131
-385,449,-1.38458,-3.94305,0.00339311,-0.00280638,-0.00106057,0.00356953,-0.00298279,-0.164831,0.00378804,0.0101175,839,575,-1.38456,3.94303
-378,449,-1.39233,-4.11707,0.00409473,-0.0034602,-0.00149241,0.00437886,-0.00374433,-0.18813,0.00469469,0.00958146,846,575,-1.39233,4.11704
-371,449,-1.38251,-4.29205,0.00488355,-0.00428928,-0.00207337,0.00533043,-0.00473616,-0.212286,0.00581532,0.0105072,853,575,-1.38253,4.29205
-364,449,-1.33337,-4.45941,0.00541992,-0.00501054,-0.00262237,0.00604211,-0.00563273,-0.232954,0.00674185,0.0192763,860,575,-1.33335,4.45939
-357,449,-1.1626,-4.55585,0.00598434,-0.00566474,-0.00341021,0.00690923,-0.00658963,-0.264841,0.0077943,0.0295697,867,575,-1.16262,4.55582
-350,449,-0.936707,-4.44458,0.00626548,-0.00621656,-0.00436038,0.00763782,-0.00758889,-0.304915,0.00879116,0.0447937,874,575,-0.936696,4.44457
-343,449,-1.92157,-4.82831,0.00614267,-0.00658399,-0.00530303,0.00806271,-0.00850402,-0.347381,0.00956594,0.047755,881,575,-1.92156,4.82828
-336,449,-0.988831,-5.33154,0,0,0,0,0,0,0,-1,888,575,-0.988801,5.33155
-329,449,-0.649353,-3.46033,0,0,0,0,0,0,0,-1,895,575,-0.649351,3.46035
-322,449,-0.628845,-3.16669,0,0,0,0,0,0,0,-1,902,575,-0.628861,3.16667
-315,449,-0.540344,-3.21918,0,0,0,0,0,0,0,-1,909,575,-0.540336,3.21917
-308,449,-1.04413,-2.99341,0,0,0,0,0,0,0,-1,916,575,-1.04415,2.99338
-301,449,-1.58691,-2.80725,0,0,0,0,0,0,0,-1,923,575,-1.58692,2.80728
-294,449,-3.71118,-2.76086,0,0,0,0,0,0,0,-1,930,575,-3.71119,2.76087
-287,449,-4.4082,-2.69525,0,0,0,0,0,0,0,-1,937,575,-4.40822,2.69526
-280,449,-5.09955,-2.96295,0,0,0,0,0,0,0,-1,944,575,-5.09953,2.96297
-273,449,0,0,0,0,0,0,0,0,0,-1,951,575,0,0
-266,449,0,0,0,0,0,0,0,0,0,-1,958,575,0,0
-259,449,0,0,0,0,0,0,0,0,0,-1,965,575,0,0
-252,449,0,0,0,0,0,0,0,0,0,-1,972,575,0,0
-245,449,0,0,0,0,0,0,0,0,0,-1,979,575,0,0
-238,449,0,0,0,0,0,0,0,0,0,-1,986,575,0,0
-231,449,0,0,0,0,0,0,0,0,0,-1,993,575,0,0
-224,449,0,0,0,0,0,0,0,0,0,-1,1000,575,0,0
-217,449,0,0,0,0,0,0,0,0,0,-1,1007,575,0,0
-210,449,0,0,0,0,0,0,0,0,0,-1,1014,575,0,0
-203,449,0,0,0,0,0,0,0,0,0,-1,1021,575,0,0
-196,449,0,0,0,0,0,0,0,0,0,-1,1028,575,0,0
-189,449,0,0,0,0,0,0,0,0,0,-1,1035,575,0,0
-182,449,0,0,0,0,0,0,0,0,0,-1,1042,575,0,0
-175,449,0,0,0,0,0,0,0,0,0,-1,1049,575,0,0
-168,449,0,0,0,0,0,0,0,0,0,-1,1056,575,0,0
-161,449,0,0,0,0,0,0,0,0,0,-1,1063,575,0,0
-154,449,0,0,0,0,0,0,0,0,0,-1,1070,575,0,0
-147,449,0,0,0,0,0,0,0,0,0,-1,1077,575,0,0
-140,449,0,0,0,0,0,0,0,0,0,-1,1084,575,0,0
-133,449,0,0,0,0,0,0,0,0,0,-1,1091,575,0,0
-126,449,0,0,0,0,0,0,0,0,0,-1,1098,575,0,0
-119,449,0,0,0,0,0,0,0,0,0,-1,1105,575,0,0
-112,449,0,0,0,0,0,0,0,0,0,-1,1112,575,0,0
-105,449,0,0,0,0,0,0,0,0,0,-1,1119,575,0,0
-98,449,0,0,0,0,0,0,0,0,0,-1,1126,575,0,0
-91,449,0,0,0,0,0,0,0,0,0,-1,1133,575,0,0
-84,449,0,0,0,0,0,0,0,0,0,-1,1140,575,0,0
-77,449,0,0,0,0,0,0,0,0,0,-1,1147,575,0,0
-70,449,0,0,0,0,0,0,0,0,0,-1,1154,575,0,0
-63,449,0,0,0,0,0,0,0,0,0,-1,1161,575,0,0
-56,449,0,0,0,0,0,0,0,0,0,-1,1168,575,0,0
-49,449,0,0,0,0,0,0,0,0,0,-1,1175,575,0,0
-42,449,0,0,0,0,0,0,0,0,0,-1,1182,575,0,0
-35,449,0,0,0,0,0,0,0,0,0,-1,1189,575,0,0
-28,449,0,0,0,0,0,0,0,0,0,-1,1196,575,0,0
-21,449,0,0,0,0,0,0,0,0,0,-1,1203,575,0,0
-14,449,0,0,0,0,0,0,0,0,0,-1,1210,575,0,0
-7,449,0,0,0,0,0,0,0,0,0,-1,1217,575,0,0
0,449,0,0,0,0,0,0,0,0,0,-1,1224,575,0,0
7,449,0,0,0,0,0,0,0,0,0,-1,1231,575,0,0
14,449,0,0,0,0,0,0,0,0,0,-1,1238,575,0,0
21,449,0,0,0,0,0,0,0,0,0,-1,1245,575,0,0
28,449,0,0,0,0,0,0,0,0,0,-1,1252,575,0,0
35,449,0,0,0,0,0,0,0,0,0,-1,1259,575,0,0
42,449,0,0,0,0,0,0,0,0,0,-1,1266,575,0,0
49,449,0,0,0,0,0,0,0,0,0,-1,1273,575,0,0
56,449,0,0,0,0,0,0,0,0,0,-1,1280,575,0,0
63,449,0,0,0,0,0,0,0,0,0,-1,1287,575,0,0
70,449,0,0,0,0,0,0,0,0,0,-1,1294,575,0,0
77,449,0,0,0,0,0,0,0,0,0,-1,1301,575,0,0
84,449,0,0,0,0,0,0,0,0,0,-1,1308,575,0,0
91,449,0,0,0,0,0,0,0,0,0,-1,1315,575,0,0
98,449,0,0,0,0,0,0,0,0,0,-1,1322,575,0,0
105,449,0,0,0,0,0,0,0,0,0,-1,1329,575,0,0
112,449,0,0,0,0,0,0,0,0,0,-1,1336,575,0,0
119,449,0,0,0,0,0,0,0,0,0,-1,1343,575,0,0
126,449,0,0,0,0,0,0,0,0,0,-1,1350,575,0,0
133,449,0,0,0,0,0,0,0,0,0,-1,1357,575,0,0
140,449,0,0,0,0,0,0,0,0,0,-1,1364,575,0,0
147,449,0,0,0,0,0,0,0,0,0,-1,1371,575,0,0
154,449,0,0,0,0,0,0,0,0,0,-1,1378,575,0,0
161,449,0,0,0,0,0,0,0,0,0,-1,1385,575,0,0
168,449,0,0,0,0,0,0,0,0,0,-1,1392,575,0,0
175,449,0,0,0,0,0,0,0,0,0,-1,1399,575,0,0
182,449,0,0,0,0,0,0,0,0,0,-1,1406,575,0,0
189,449,0,0,0,0,0,0,0,0,0,-1,1413,575,0,0
196,449,0,0,0,0,0,0,0,0,0,-1,1420,575,0,0
203,449,0,0,0,0,0,0,0,0,0,-1,1427,575,0,0
210,449,0,0,0,0,0,0,0,0,0,-1,1434,575,0,0
217,449,0,0,0,0,0,0,0,0,0,-1,1441,575,0,0
224,449,0,0,0,0,0,0,0,0,0,-1,1448,575,0,0
231,449,0,0,0,0,0,0,0,0,0,-1,1455,575,0,0
238,449,0,0,0,0,0,0,0,0,0,-1,1462,575,0,0
245,449,0,0,0,0,0,0,0,0,0,-1,1469,575,0,0
252,449,0,0,0,0,0,0,0,0,0,-1,1476,575,0,0
259,449,0,0,0,0,0,0,0,0,0,-1,1483,575,0,0
266,449,0,0,0,0,0,0,0,0,0,-1,1490,575,0,0
273,449,0,0,0,0,0,0,0,0,0,-1,1497,575,0,0
280,449,0,0,0,0,0,0,0,0,0,-1,1504,575,0,0
287,449,0,0,0,0,0,0,0,0,0,-1,1511,575,0,0
294,449,0,0,0,0,0,0,0,0,0,-1,1518,575,0,0
301,449,0,0,0,0,0,0,0,0,0,-1,1525,575,0,0
308,449,0,0,0,0,0,0,0,0,0,-1,1532,575,0,0
315,449,0,0,0,0,0,0,0,0,0,-1,1539,575,0,0
322,449,0,0,0,0,0,0,0,0,0,-1,1546,575,0,0
329,449,0,0,0,0,0,0,0,0,0,-1,1553,575,0,0
336,449,0,0,0,0,0,0,0,0,0,-1,1560,575,0,0
343,449,0,0,0,0,0,0,0,0,0,-1,1567,575,0,0
350,449,0,0,0,0,0,0,0,0,0,-1,1574,575,0,0
357,449,0,0,0,0,0,0,0,0,0,-1,1581,575,0,0
364,449,0,0,0,0,0,0,0,0,0,-1,1588,575,0,0
371,449,0,0,0,0,0,0,0,0,0,-1,1595,575,0,0
378,449,0,0,0,0,0,0,0,0,0,-1,1602,575,0,0
385,449,0,0,0,0,0,0,0,0,0,-1,1609,575,0,0
392,449,7.95471,3.66217,0,0,0,0,0,0,0,-1,1616,575,7.95471,-3.66218
399,449,10.4088,3.30078,0,0,0,0,0,0,0,-1,1623,575,10.4088,-3.30078
406,449,12.8629,2.93939,0,0,0,0,0,0,0,-1,1630,575,12.8629,-2.93939
413,449,13.7874,2.0094,0,0,0,0,0,0,0,-1,1637,575,13.7874,-2.00941
420,449,4.70264,2.21893,0,0,0,0,0,0,0,-1,1644,575,4.70263,-2.21894
427,449,8.96924,-4.53351,0,0,0,0,0,0,0,-1,1651,575,8.96925,4.53353
434,449,4.12927,-7.06952,0,0,0,0,0,0,0,-1,1658,575,4.12932,7.06952
441,449,3.89856,-6.06458,0,0,0,0,0,0,0,-1,1665,575,3.89855,6.06459
448,449,4.03198,-5.18207,0,0,0,0,0,0,0,-1,1672,575,4.03197,5.18207
455,449,4.21948,-4.09467,0,0,0,0,0,0,0,-1,1679,575,4.21952,4.09465
462,449,4.23181,-2.96924,0,0,0,0,0,0,0,-1,1686,575,4.23185,2.96926
469,449,4.51672,-2.95135,0,0,0,0,0,0,0,-1,1693,575,4.51672,2.95135
476,449,4.71838,-1.86688,0,0,0,0,0,0,0,-1,1700,575,4.71842,1.86689
483,449,4.87878,-1.73126,0,0,0,0,0,0,0,-1,1707,575,4.87875,1.73128
490,449,5.73279,-2.74573,0,0,0,0,0,0,0,-1,1714,575,5.73282,2.74575
497,449,5.84839,-3.2077,0,0,0,0,0,0,0,-1,1721,575,5.84842,3.20768
504,449,5.83313,-2.84375,0.00349299,0.00204141,0.00155503,0.00448327,0.00105113,0.567055,0.00270737,0.0282513,1728,575,5.83319,2.84375
511,449,5.87659,-2.65405,0.00302035,0.0013219,0.00141367,0.00382025,0.000521994,0.514923,0.0023919,0.0107272,1735,575,5.87662,2.65406
518,449,5.89233,-2.46576,0.00262273,0.000818331,0.00131646,0.00331647,0.000124592,0.484994,0.00217064,0.0129236,1742,575,5.89238,2.46578
525,449,5.8717,-2.27411,0.00212652,0.000452587,0.00113219,0.00269751,-0.000118409,0.467106,0.00183908,0.0122541,1749,575,5.87176,2.27408
532,449,5.83777,-2.09369,0.00154356,0.000190047,0.000869232,0.00196842,-0.000234816,0.45463,0.00139715,0.0101021,1756,575,5.83781,2.09366
539,449,5.82739,-1.9021,0.000966673,-7.41581e-05,0.000615311,0.00125214,-0.000359621,0.43438,0.000976949,0.0113361,1763,575,5.82738,1.90209
546,449,5.83752,-1.70447,0.000503396,-0.000155475,0.000525409,0.000794108,-0.000446187,0.505377,0.000725415,0.0182805,1770,575,5.83756,1.70446
553,449,5.83997,-1.5094,-7.13941e-05,-4.31608e-05,0.000357989,0.000300989,-0.000415544,0.805105,0.000415449,0.0142874,1777,575,5.83997,1.50941
560,449,5.86768,-1.33069,-0.000576015,2.32947e-05,0.000216022,9.30426e-05,-0.000645763,1.25849,0.000464638,0.0143971,1784,575,5.86768,1.3307
567,449,5.87073,-1.14929,-0.000963605,-4.13035e-05,0.000106855,-2.90854e-05,-0.000975823,1.45695,0.000641074,0.0101302,1791,575,5.87067,1.14928
574,449,5.87158,-0.940552,-0.00136977,7.00479e-05,5.52218e-05,7.21627e-05,-0.00137188,1.53252,0.000939567,0.0157709,1798,575,5.87154,0.940551
581,449,5.83899,-0.750244,-0.00209607,0.000274153,4.95762e-05,0.00027519,-0.0020971,1.54989,0.00149825,0.0366102,1805,575,5.83901,0.750226
588,449,5.87402,-0.63385,0,0,0,0,0,0,0,-1,1812,575,5.87397,0.633863
595,449,6.20276,-0.2229,0,0,0,0,0,0,0,-1,1819,575,6.20271,0.222929
602,449,5.81018,-0.312195,0,0,0,0,0,0,0,-1,1826,575,5.81012,0.312211
609,449,10.9318,3.04095,0,0,0,0,0,0,0,-1,1833,575,10.9318,-3.04097
616,449,8.89563,1.21643,0,0,0,0,0,0,0,-1,1840,575,8.89568,-1.21645
623,449,9.83789,-0.0820313,0,0,0,0,0,0,0,-1,1847,575,9.83794,0.0820443
630,449,8.90686,4.99329,0,0,0,0,0,0,0,-1,1854,575,8.90685,-4.99327
637,449,0,0,0,0,0,0,0,0,0,-1,1861,575,0,0
644,449,0,0,0,0,0,0,0,0,0,-1,1868,575,0,0
651,449,0,0,0,0,0,0,0,0,0,-1,1875,575,0,0
658,449,0,0,0,0,0,0,0,0,0,-1,1882,575,0,0
665,449,0,0,0,0,0,0,0,0,0,-1,1889,575,0,0
672,449,0,0,0,0,0,0,0,0,0,-1,1896,575,0,0
679,449,0,0,0,0,0,0,0,0,0,-1,1903,575,0,0
686,449,0,0,0,0,0,0,0,0,0,-1,1910,575,0,0
693,449,0,0,0,0,0,0,0,0,0,-1,1917,575,0,0
700,449,0,0,0,0,0,0,0,0,0,-1,1924,575,0,0
707,449,0,0,0,0,0,0,0,0,0,-1,1931,575,0,0
714,449,0,0,0,0,0,0,0,0,0,-1,1938,575,0,0
721,449,0,0,0,0,0,0,0,0,0,-1,1945,575,0,0
728,449,0,0,0,0,0,0,0,0,0,-1,1952,575,0,0
735,449,0,0,0,0,0,0,0,0,0,-1,1959,575,0,0
742,449,0,0,0,0,0,0,0,0,0,-1,1966,575,0,0
749,449,0,0,0,0,0,0,0,0,0,-1,1973,575,0,0
756,449,0,0,0,0,0,0,0,0,0,-1,1980,575,0,0
763,449,0,0,0,0,0,0,0,0,0,-1,1987,575,0,0
770,449,0,0,0,0,0,0,0,0,0,-1,1994,575,0,0
777,449,0,0,0,0,0,0,0,0,0,-1,2001,575,0,0
784,449,0,0,0,0,0,0,0,0,0,-1,2008,575,0,0
791,449,0,0,0,0,0,0,0,0,0,-1,2015,575,0,0
798,449,0,0,0,0,0,0,0,0,0,-1,2022,575,0,0
805,449,0,0,0,0,0,0,0,0,0,-1,2029,575,0,0
812,449,0,0,0,0,0,0,0,0,0,-1,2036,575,0,0
-700,442,0,0,0,0,0,0,0,0,0,-1,524,582,0,0
-693,442,0,0,0,0,0,0,0,0,0,-1,531,582,0,0
-686,442,0,0,0,0,0,0,0,0,0,-1,538,582,0,0
-679,442,0,0,0,0,0,0,0,0,0,-1,545,582,0,0
-672,442,0,0,0,0,0,0,0,0,0,-1,552,582,0,0
-665,442,0,0,0,0,0,0,0,0,0,-1,559,582,0,0
-658,442,0,0,0,0,0,0,0,0,0,-1,566,582,0,0
-651,442,0,0,0,0,0,0,0,0,0,-1,573,582,0,0
-644,442,0,0,0,0,0,0,0,0,0,-1,580,582,0,0
-637,442,0,0,0,0,0,0,0,0,0,-1,587,582,0,0
-630,442,0,0,0,0,0,0,0,0,0,-1,594,582,0,0
-623,442,0,0,0,0,0,0,0,0,0,-1,601,582,0,0
-616,442,0,0,0,0,0,0,0,0,0,-1,608,582,0,0
-609,442,0,0,0,0,0,0,0,0,0,-1,615,582,0,0
-602,442,0,0,0,0,0,0,0,0,0,-1,622,582,0,0
-595,442,0,0,0,0,0,0,0,0,0,-1,629,582,0,0
-588,442,0,0,0,0,0,0,0,0,0,-1,636,582,0,0
-581,442,0,0,0,0,0,0,0,0,0,-1,643,582,0,0
-574,442,0,0,0,0,0,0,0,0,0,-1,650,582,0,0
-567,442,0,0,0,0,0,0,0,0,0,-1,657,582,0,0
-560,442,0,0,0,0,0,0,0,0,0,-1,664,582,0,0
-553,442,0,0,0,0,0,0,0,0,0,-1,671,582,0,0
-546,442,0,0,0,0,0,0,0,0,0,-1,678,582,0,0
-539,442,0,0,0,0,0,0,0,0,0,-1,685,582,0,0
-532,442,0,0,0,0,0,0,0,0,0,-1,692,582,0,0
-525,442,0,0,0,0,0,0,0,0,0,-1,699,582,0,0
-518,442,-3.98541,-5.81055,0,0,0,0,0,0,0,-1,706,582,-3.98541,5.81057
-511,442,-2.64435,-5.87549,0,0,0,0,0,0,0,-1,713,582,-2.64437,5.87549
-504,442,-2.36841,-6.06586,0,0,0,0,0,0,0,-1,720,582,-2.36838,6.06589
-497,442,-4.08337,-4.24878,0,0,0,0,0,0,0,-1,727,582,-4.08336,4.24877
-490,442,-3.17236,-0.807495,0,0,0,0,0,0,0,-1,734,582,-3.17239,0.80752
-483,442,-2.79395,-1.12451,0,0,0,0,0,0,0,-1,741,582,-2.79395,1.1245
-476,442,-2.52527,-1.55273,0,0,0,0,0,0,0,-1,748,582,-2.52525,1.55276
-469,442,-2.15918,-1.67554,0.0462211,0.0105314,-0.0178047,0.0535843,0.00316825,-0.392136,0.034715,0.0464216,755,582,-2.15918,1.67552
-462,442,-1.62585,-2.10529,0.0364974,0.00956032,-0.014932,0.0431377,0.00292001,-0.418441,0.0278362,0.0351265,762,582,-1.62586,2.10531
-455,442,-1.59808,-2.27789,0.0280398,0.00881745,-0.0122874,0.0340285,0.0028288,-0.453502,0.021804,0.0237755,769,582,-1.5981,2.27792
-448,442,-1.54919,-2.42145,0.0208919,0.00689205,-0.00962036,0.0257894,0.00199447,-0.470889,0.0165682,0.0140336,776,582,-1.54918,2.42144
-441,442,-1.56934,-2.61047,0.0150938,0.00494025,-0.00721663,0.0188405,0.00119356,-0.47887,0.012182,0.0131324,783,582,-1.56934,2.61046
-434,442,-1.56647,-2.78101,0.0106398,0.00320125,-0.00523102,0.013339,0.000502075,-0.476361,0.00873013,0.0123474,790,582,-1.5665,2.78098
-427,442,-1.57428,-2.93427,0.00683587,0.00169228,-0.00348007,0.00859132,-6.31665e-05,-0.467185,0.00574872,0.0133057,797,582,-1.57425,2.93429
-420,442,-1.54968,-3.09723,0.00437744,0.000407952,-0.00209301,0.00527712,-0.000491731,-0.405972,0.00369292,0.0136836,804,582,-1.54965,3.09722
-413,442,-1.54315,-3.26721,0.00301789,-0.000760256,-0.0012203,0.00337775,-0.00112012,-0.286771,0.00270369,0.0106924,811,582,-1.54316,3.26719
-406,442,-1.55603,-3.44482,0.00259128,-0.00150116,-0.000750104,0.00272443,-0.00163431,-0.175685,0.00254262,0.00884053,818,582,-1.55601,3.44485
-399,442,-1.56836,-3.63177,0.00280367,-0.00234112,-0.000760304,0.00291367,-0.00245113,-0.14369,0.00310121,0.00824205,825,582,-1.56836,3.63178
-392,442,-1.56061,-3.78625,0.00285368,-0.00317924,-0.000716959,0.00293771,-0.00326327,-0.116676,0.00358178,0.00987777,832,582,-1.56062,3.78625
-385,442,-1.55835,-3.93445,0.00357469,-0.00396215,-0.000982031,0.00370054,-0.00408801,-0.127463,0.00449858,0.0108653,839,582,-1.55835,3.93445
-378,442,-1.55145,-4.10858,0.00464051,-0.00490479,-0.00157433,0.00489346,-0.00515774,-0.159313,0.00580373,0.0116578,846,582,-1.55147,4.10858
-371,442,-1.51367,-4.2995,0.00570554,-0.00606536,-0.00232643,0.00614866,-0.00650848,-0.188218,0.00730859,0.0230055,853,582,-1.5137,4.29948
-364,442,-1.45764,-4.51477,0.0065046,-0.00713905,-0.00307292,0.00716476,-0.00779922,-0.211616,0.00864205,0.0381802,860,582,-1.45766,4.51477
-357,442,-1.2832,-4.85657,0.00725512,-0.00814344,-0.00408938,0.00827375,-0.00916207,-0.244124,0.0100709,0.0465726,867,582,-1.28318,4.85655
-350,442,-1.09204,-4.98083,0,0,0,0,0,0,0,-1,874,582,-1.09203,4.98082
-343,442,-2.63806,-4.60797,0,0,0,0,0,0,0,-1,881,582,-2.63808,4.60795
-336,442,-0.935913,-3.07611,0,0,0,0,0,0,0,-1,888,582,-0.935899,3.07609
-329,442,-0.952576,-2.76923,0,0,0,0,0,0,0,-1,895,582,-0.952571,2.7692
-322,442,-0.972534,-2.63208,0,0,0,0,0,0,0,-1,902,582,-0.972512,2.6321
-315,442,-0.445557,-2.89764,0,0,0,0,0,0,0,-1,909,582,-0.445582,2.89765
-308,442,-0.654175,-3.07831,0,0,0,0,0,0,0,-1,916,582,-0.654145,3.07832
-301,442,-1.37427,-2.41455,0,0,0,0,0,0,0,-1,923,582,-1.37425,2.41453
-294,442,-1.67377,-2.23328,0,0,0,0,0,0,0,-1,930,582,-1.67378,2.23326
-287,442,-5.00836,-2.38507,0,0,0,0,0,0,0,-1,937,582,-5.00839,2.38506
-280,442,0,0,0,0,0,0,0,0,0,-1,944,582,0,0
-273,442,0,0,0,0,0,0,0,0,0,-1,951,582,0,0
-266,442,0,0,0,0,0,0,0,0,0,-1,958,582,0,0
-259,442,0,0,0,0,0,0,0,0,0,-1,965,582,0,0
-252,442,0,0,0,0,0,0,0,0,0,-1,972,582,0,0
-245,442,0,0,0,0,0,0,0,0,0,-1,979,582,0,0
-238,442,0,0,0,0,0,0,0,0,0,-1,986,582,0,0
-231,442,0,0,0,0,0,0,0,0,0,-1,993,582,0,0
-224,442,0,0,0,0,0,0,0,0,0,-1,1000,582,0,0
-217,442,0,0,0,0,0,0,0,0,0,-1,1007,582,0,0
-210,442,0,0,0,0,0,0,0,0,0,-1,1014,582,0,0
-203,442,0,0,0,0,0,0,0,0,0,-1,1021,582,0,0
-196,442,0,0,0,0,0,0,0,0,0,-1,1028,582,0,0
-189,442,0,0,0,0,0,0,0,0,0,-1,1035,582,0,0
-182,442,0,0,0,0,0,0,0,0,0,-1,1042,582,0,0
-175,442,0,0,0,0,0,0,0,0,0,-1,1049,582,0,0
-168,442,0,0,0,0,0,0,0,0,0,-1,1056,582,0,0
-161,442,0,0,0,0,0,0,0,0,0,-1,1063,582,0,0
-154,442,0,0,0,0,0,0,0,0,0,-1,1070,582,0,0
-147,442,0,0,0,0,0,0,0,0,0,-1,1077,582,0,0
-140,442,0,0,0,0,0,0,0,0,0,-1,1084,582,0,0
-133,442,0,0,0,0,0,0,0,0,0,-1,1091,582,0,0
-126,442,0,0,0,0,0,0,0,0,0,-1,1098,582,0,0
-119,442,0,0,0,0,0,0,0,0,0,-1,1105,582,0,0
-112,442,0,0,0,0,0,0,0,0,0,-1,1112,582,0,0
-105,442,0,0,0,0,0,0,0,0,0,-1,1119,582,0,0
-98,442,0,0,0,0,0,0,0,0,0,-1,1126,582,0,0
-91,442,0,0,0,0,0,0,0,0,0,-1,1133,582,0,0
-84,442,0,0,0,0,0,0,0,0,0,-1,1140,582,0,0
-77,442,0,0,0,0,0,0,0,0,0,-1,1147,582,0,0
-70,442,0,0,0,0,0,0,0,0,0,-1,1154,582,0,0
-63,442,0,0,0,0,0,0,0,0,0,-1,1161,582,0,0
-56,442,0,0,0,0,0,0,0,0,0,-1,1168,582,0,0
-49,442,0,0,0,0,0,0,0,0,0,-1,1175,582,0,0
-42,442,0,0,0,0,0,0,0,0,0,-1,1182,582,0,0
-35,442,0,0,0,0,0,0,0,0,0,-1,1189,582,0,0
-28,442,0,0,0,0,0,0,0,0,0,-1,1196,582,0,0
-21,442,0,0,0,0,0,0,0,0,0,-1,1203,582,0,0
-14,442,0,0,0,0,0,0,0,0,0,-1,1210,582,0,0
-7,442,0,0,0,0,0,0,0,0,0,-1,1217,582,0,0
0,442,0,0,0,0,0,0,0,0,0,-1,1224,582,0,0
7,442,0,0,0,0,0,0,0,0,0,-1,1231,582,0,0
14,442,0,0,0,0,0,0,0,0,0,-1,1238,582,0,0
21,442,0,0,0,0,0,0,0,0,0,-1,1245,582,0,0
28,442,0,0,0,0,0,0,0,0,0,-1,1252,582,0,0
35,442,0,0,0,0,0,0,0,0,0,-1,1259,582,0,0
42,442,0,0,0,0,0,0,0,0,0,-1,1266,582,0,0
49,442,0,0,0,0,0,0,0,0,0,-1,1273,582,0,0
56,442,0,0,0,0,0,0,0,0,0,-1,1280,582,0,0
63,442,0,0,0,0,0,0,0,0,0,-1,1287,582,0,0
70,442,0,0,0,0,0,0,0,0,0,-1,1294,582,0,0
77,442,0,0,0,0,0,0,0,0,0,-1,1301,582,0,0
84,442,0,0,0,0,0,0,0,0,0,-1,1308,582,0,0
91,442,0,0,0,0,0,0,0,0,0,-1,1315,582,0,0
98,442,0,0,0,0,0,0,0,0,0,-1,1322,582,0,0
105,442,0,0,0,0,0,0,0,0,0,-1,1329,582,0,0
112,442,0,0,0,0,0,0,0,0,0,-1,1336,582,0,0
119,442,0,0,0,0,0,0,0,0,0,-1,1343,582,0,0
126,442,0,0,0,0,0,0,0,0,0,-1,1350,582,0,0
133,442,0,0,0,0,0,0,0,0,0,-1,1357,582,0,0
140,442,0,0,0,0,0,0,0,0,0,-1,1364,582,0,0
147,442,0,0,0,0,0,0,0,0,0,-1,1371,582,0,0
154,442,0,0,0,0,0,0,0,0,0,-1,1378,582,0,0
161,442,0,0,0,0,0,0,0,0,0,-1,1385,582,0,0
168,442,0,0,0,0,0,0,0,0,0,-1,1392,582,0,0
175,442,0,0,0,0,0,0,0,0,0,-1,1399,582,0,0
182,442,0,0,0,0,0,0,0,0,0,-1,1406,582,0,0
189,442,0,0,0,0,0,0,0,0,0,-1,1413,582,0,0
196,442,0,0,0,0,0,0,0,0,0,-1,1420,582,0,0
203,442,0,0,0,0,0,0,0,0,0,-1,1427,582,0,0
210,442,0,0,0,0,0,0,0,0,0,-1,1434,582,0,0
217,442,0,0,0,0,0,0,0,0,0,-1,1441,582,0,0
224,442,0,0,0,0,0,0,0,0,0,-1,1448,582,0,0
231,442,0,0,0,0,0,0,0,0,0,-1,1455,582,0,0
238,442,0,0,0,0,0,0,0,0,0,-1,1462,582,0,0
245,442,0,0,0,0,0,0,0,0,0,-1,1469,582,0,0
252,442,0,0,0,0,0,0,0,0,0,-1,1476,582,0,0
259,442,0,0,0,0,0,0,0,0,0,-1,1483,582,0,0
266,442,0,0,0,0,0,0,0,0,0,-1,1490,582,0,0
273,442,0,0,0,0,0,0,0,0,0,-1,1497,582,0,0
280,442,0,0,0,0,0,0,0,0,0,-1,1504,582,0,0
287,442,0,0,0,0,0,0,0,0,0,-1,1511,582,0,0
294,442,0,0,0,0,0,0,0,0,0,-1,1518,582,0,0
301,442,0,0,0,0,0,0,0,0,0,-1,1525,582,0,0
308,442,0,0,0,0,0,0,0,0,0,-1,1532,582,0,0
315,442,0,0,0,0,0,0,0,0,0,-1,1539,582,0,0
322,442,0,0,0,0,0,0,0,0,0,-1,1546,582,0,0
329,442,0,0,0,0,0,0,0,0,0,-1,1553,582,0,0
336,442,0,0,0,0,0,0,0,0,0,-1,1560,582,0,0
343,442,0,0,0,0,0,0,0,0,0,-1,1567,582,0,0
350,442,0,0,0,0,0,0,0,0,0,-1,1574,582,0,0
357,442,0,0,0,0,0,0,0,0,0,-1,1581,582,0,0
364,442,0,0,0,0,0,0,0,0,0,-1,1588,582,0,0
371,442,0,0,0,0,0,0,0,0,0,-1,1595,582,0,0
378,442,0,0,0,0,0,0,0,0,0,-1,1602,582,0,0
385,442,0,0,0,0,0,0,0,0,0,-1,1609,582,0,0
392,442,0,0,0,0,0,0,0,0,0,-1,1616,582,0,0
399,442,0,0,0,0,0,0,0,0,0,-1,1623,582,0,0
406,442,10.3704,2.44556,0,0,0,0,0,0,0,-1,1630,582,10.3703,-2.44558
413,442,3.66699,2.87408,0,0,0,0,0,0,0,-1,1637,582,3.66703,-2.87408
420,442,4.69055,3.09448,0,0,0,0,0,0,0,-1,1644,582,4.69054,-3.0945
427,442,2.44519,-1.35358,0,0,0,0,0,0,0,-1,1651,582,2.44514,1.35361
434,442,8.45898,-3.86719,0,0,0,0,0,0,0,-1,1658,582,8.45904,3.86719
441,442,4.89368,-7.42456,0,0,0,0,0,0,0,-1,1665,582,4.89365,7.42457
448,442,4.7749,-5.88562,0,0,0,0,0,0,0,-1,1672,582,4.7749,5.8856
455,442,4.87024,-4.60687,0,0,0,0,0,0,0,-1,1679,582,4.87019,4.60686
462,442,5.02307,-3.72821,0,0,0,0,0,0,0,-1,1686,582,5.02311,3.7282
469,442,5.12976,-2.98834,0,0,0,0,0,0,0,-1,1693,582,5.12971,2.98834
476,442,5.4624,1.76947,0,0,0,0,0,0,0,-1,1700,582,5.46234,-1.76944
483,442,5.98486,1.87042,0,0,0,0,0,0,0,-1,1707,582,5.98492,-1.87045
490,442,5.04407,-2.35834,0,0,0,0,0,0,0,-1,1714,582,5.04411,2.35837
497,442,6.20984,-3.07831,0,0,0,0,0,0,0,-1,1721,582,6.2098,3.07833
504,442,5.92627,-2.83514,0,0,0,0,0,0,0,-1,1728,582,5.92626,2.83516
511,442,6.00842,-2.65894,0.00361058,0.00119185,0.00145222,0.00429106,0.000511374,0.438195,0.0027064,0.0189759,1735,582,6.00838,2.65896
518,442,6.07556,-2.4505,0.00307507,0.00070353,0.00135278,0.0036882,9.03945e-05,0.425547,0.00242923,0.0109896,1742,582,6.0755,2.4505
525,442,6.04858,-2.27612,0.00246603,0.00039434,0.00118101,0.00300109,-0.000140723,0.425393,0.00204924,0.01034,1749,582,6.04854,2.27612
532,442,6.05103,-2.10431,0.00179844,0.000165833,0.000914949,0.0022083,-0.00024403,0.421158,0.00155992,0.0102616,1756,582,6.05102,2.10429
539,442,6.04138,-1.89417,0.00116023,-5.93637e-05,0.000644189,0.00143747,-0.000336603,0.40641,0.00108801,0.0106405,1763,582,6.04134,1.89416
546,442,6.04065,-1.70319,0.00067753,-0.000112982,0.000528813,0.000942479,-0.000377931,0.464468,0.000785222,0.0130135,1770,582,6.04064,1.70317
553,442,6.02942,-1.52069,0.000133728,-4.25319e-06,0.000368966,0.000440098,-0.000310623,0.692973,0.000435573,0.0149432,1777,582,6.02946,1.52067
560,442,6.04712,-1.33704,-0.000347795,7.28696e-05,0.000230776,0.000174783,-0.000449709,1.15494,0.000372015,0.0151288,1784,582,6.04715,1.33705
567,442,6.05481,-1.14136,-0.00071173,1.73878e-05,0.000120451,3.67711e-05,-0.000731114,1.41124,0.000500117,0.0103259,1791,582,6.05475,1.14134
574,442,6.05518,-0.951233,-0.00102374,0.000111369,9.52004e-05,0.000119298,-0.00103166,1.4877,0.000730795,0.0123586,1798,582,6.05521,0.951241
581,442,6.08398,-0.76178,-0.0015865,0.000270096,5.21829e-05,0.000271562,-0.00158797,1.54272,0.00115981,0.0163775,1805,582,6.08404,0.761794
588,442,6.0741,-0.646667,-0.00214951,0.000443855,8.27129e-05,0.00044649,-0.00215215,1.53895,0.00160444,0.0214843,1812,582,6.07408,0.646663
595,442,6.1488,-0.365112,-0.00243794,0.000616583,2.89653e-05,0.000616858,-0.00243822,1.56131,0.00186541,0.0362794,1819,582,6.14885,0.365129
602,442,5.54492,0.122314,0,0,0,0,0,0,0,-1,1826,582,5.54487,-0.122337
609,442,5.86462,-0.185486,0,0,0,0,0,0,0,-1,1833,582,5.86464,0.185507
616,442,7.16003,-1.18372,0,0,0,0,0,0,0,-1,1840,582,7.16,1.18373
623,442,9.23828,0.326721,0,0,0,0,0,0,0,-1,1847,582,9.23829,-0.326727
630,442,7.74304,2.3924,0,0,0,0,0,0,0,-1,1854,582,7.7431,-2.39238
637,442,5.87805,1.84027,0,0,0,0,0,0,0,-1,1861,582,5.87807,-1.84025
644,442,0,0,0,0,0,0,0,0,0,-1,1868,582,0,0
651,442,0,0,0,0,0,0,0,0,0,-1,1875,582,0,0
658,442,0,0,0,0,0,0,0,0,0,-1,1882,582,0,0
665,442,0,0,0,0,0,0,0,0,0,-1,1889,582,0,0
672,442,0,0,0,0,0,0,0,0,0,-1,1896,582,0,0
679,442,0,0,0,0,0,0,0,0,0,-1,1903,582,0,0
686,442,0,0,0,0,0,0,0,0,0,-1,1910,582,0,0
693,442,0,0,0,0,0,0,0,0,0,-1,1917,582,0,0
700,442,0,0,0,0,0,0,0,0,0,-1,1924,582,0,0
707,442,0,0,0,0,0,0,0,0,0,-1,1931,582,0,0
714,442,0,0,0,0,0,0,0,0,0,-1,1938,582,0,0
721,442,0,0,0,0,0,0,0,0,0,-1,1945,582,0,0
728,442,0,0,0,0,0,0,0,0,0,-1,1952,582,0,0
735,442,0,0,0,0,0,0,0,0,0,-1,1959,582,0,0
742,442,0,0,0,0,0,0,0,0,0,-1,1966,582,0,0
749,442,0,0,0,0,0,0,0,0,0,-1,1973,582,0,0
756,442,0,0,0,0,0,0,0,0,0,-1,1980,582,0,0
763,442,0,0,0,0,0,0,0,0,0,-1,1987,582,0,0
770,442,0,0,0,0,0,0,0,0,0,-1,1994,582,0,0
777,442,0,0,0,0,0,0,0,0,0,-1,2001,582,0,0
784,442,0,0,0,0,0,0,0,0,0,-1,2008,582,0,0
791,442,0,0,0,0,0,0,0,0,0,-1,2015,582,0,0
798,442,0,0,0,0,0,0,0,0,0,-1,2022,582,0,0
805,442,0,0,0,0,0,0,0,0,0,-1,2029,582,0,0
812,442,0,0,0,0,0,0,0,0,0,-1,2036,582,0,0
-700,435,0,0,0,0,0,0,0,0,0,-1,524,589,0,0
-693,435,0,0,0,0,0,0,0,0,0,-1,531,589,0,0
-686,435,0,0,0,0,0,0,0,0,0,-1,538,589,0,0
-679,435,0,0,0,0,0,0,0,0,0,-1,545,589,0,0
-672,435,0,0,0,0,0,0,0,0,0,-1,552,589,0,0
-665,435,0,0,0,0,0,0,0,0,0,-1,559,589,0,0
-658,435,0,0,0,0,0,0,0,0,0,-1,566,589,0,0
-651,435,0,0,0,0,0,0,0,0,0,-1,573,589,0,0
-644,435,0,0,0,0,0,0,0,0,0,-1,580,589,0,0
-637,435,0,0,0,0,0,0,0,0,0,-1,587,589,0,0
-630,435,0,0,0,0,0,0,0,0,0,-1,594,589,0,0
-623,435,0,0,0,0,0,0,0,0,0,-1,601,589,0,0
-616,435,0,0,0,0,0,0,0,0,0,-1,608,589,0,0
-609,435,0,0,0,0,0,0,0,0,0,-1,615,589,0,0
-602,435,0,0,0,0,0,0,0,0,0,-1,622,589,0,0
-595,435,0,0,0,0,0,0,0,0,0,-1,629,589,0,0
-588,435,0,0,0,0,0,0,0,0,0,-1,636,589,0,0
-581,435,0,0,0,0,0,0,0,0,0,-1,643,589,0,0
-574,435,0,0,0,0,0,0,0,0,0,-1,650,589,0,0
-567,435,0,0,0,0,0,0,0,0,0,-1,657,589,0,0
-560,435,0,0,0,0,0,0,0,0,0,-1,664,589,0,0
-553,435,0,0,0,0,0,0,0,0,0,-1,671,589,0,0
-546,435,0,0,0,0,0,0,0,0,0,-1,678,589,0,0
-539,435,0,0,0,0,0,0,0,0,0,-1,685,589,0,0
-532,435,0,0,0,0,0,0,0,0,0,-1,692,589,0,0
-525,435,-3.5592,-5.55487,0,0,0,0,0,0,0,-1,699,589,-3.55923,5.55486
-518,435,-3.13428,-5.49969,0,0,0,0,0,0,0,-1,706,589,-3.13427,5.49972
-511,435,-2.49548,-5.25159,0.0923562,-0.0409367,-0.00954343,0.0930361,-0.0416165,-0.071114,0.0796087,0.048608,713,589,-2.49548,5.25157
-504,435,-1.96234,-5.20099,0,0,0,0,0,0,0,-1,720,589,-1.96233,5.20099
-497,435,-1.28979,-5.22174,0,0,0,0,0,0,0,-1,727,589,-1.2898,5.22177
-490,435,-3.24353,-1.6192,0,0,0,0,0,0,0,-1,734,589,-3.2435,1.61918
-483,435,-2.263,-1.22363,0,0,0,0,0,0,0,-1,741,589,-2.26302,1.22361
-476,435,-1.95935,-1.32684,0,0,0,0,0,0,0,-1,748,589,-1.95937,1.32687
-469,435,-1.72339,-1.8429,0.0319288,0.0082064,-0.0122002,0.0370833,0.00305192,-0.399743,0.0237703,0.030683,755,589,-1.72341,1.8429
-462,435,-1.67621,-2.10004,0.0242072,0.00790561,-0.0101454,0.0290704,0.00304238,-0.446994,0.01845,0.0146435,762,589,-1.67621,2.10001
-455,435,-1.72961,-2.25061,0.0179254,0.00756151,-0.00832497,0.0225494,0.00293744,-0.507015,0.0141558,0.0132517,769,589,-1.72962,2.25061
-448,435,-1.73047,-2.4281,0.0130315,0.00604849,-0.00641125,0.0168403,0.00223967,-0.536058,0.0105598,0.0131707,776,589,-1.73048,2.42811
-441,435,-1.73566,-2.59277,0.00911293,0.00431104,-0.0046564,0.0119509,0.00147304,-0.547364,0.00752449,0.0107213,783,589,-1.73563,2.59275
-434,435,-1.73999,-2.75586,0.00615599,0.00264202,-0.0032048,0.00805383,0.00074418,-0.534654,0.00513915,0.0115898,790,589,-1.73996,2.75588
-427,435,-1.72937,-2.93213,0.00368546,0.00116094,-0.00190644,0.00470963,0.000136757,-0.49298,0.00309518,0.00956253,797,589,-1.72936,2.93212
-420,435,-1.72125,-3.10272,0.0022816,-0.000193463,-0.000882883,0.00256425,-0.000476118,-0.309839,0.00188832,0.0100074,804,589,-1.72124,3.10272
-413,435,-1.70978,-3.26599,0.00180952,-0.00154946,-0.000352877,0.00184619,-0.00158613,-0.103549,0.00198355,0.0106002,811,589,-1.7098,3.26602
-406,435,-1.70227,-3.42706,0.00205102,-0.00241444,-0.000172997,0.00205771,-0.00242113,-0.038664,0.00258869,0.0109559,818,589,-1.70229,3.42708
-399,435,-1.72308,-3.61432,0.00263655,-0.00350413,-0.000374727,0.00265933,-0.00352691,-0.0607234,0.00358332,0.00942158,825,589,-1.7231,3.61433
-392,435,-1.72589,-3.78265,0.00296948,-0.00460128,-0.000478273,0.00299957,-0.00463137,-0.0628407,0.00443918,0.00983494,832,589,-1.72587,3.78263
-385,435,-1.72339,-3.94885,0.00397193,-0.00566298,-0.000899937,0.00405527,-0.00574631,-0.0923395,0.00568695,0.0114297,839,589,-1.72342,3.94888
-378,435,-1.68256,-4.10931,0.00532312,-0.00694625,-0.00165919,0.00554354,-0.00716666,-0.132071,0.00735815,0.018193,846,589,-1.68256,4.10933
-371,435,-1.43524,-4.05042,0.00664953,-0.00848372,-0.00257181,0.00707465,-0.00890884,-0.163819,0.00924831,0.0370006,853,589,-1.43522,4.05043
-364,435,-0.901672,-3.8139,0.00768191,-0.00996623,-0.00354437,0.00836714,-0.0106515,-0.190973,0.0110068,0.0451301,860,589,-0.901642,3.81389
-357,435,-0.52179,-3.7868,0,0,0,0,0,0,0,-1,867,589,-0.521817,3.78682
-350,435,-0.86676,-3.69836,0,0,0,0,0,0,0,-1,874,589,-0.866784,3.69834
-343,435,-1.60706,-2.36835,0,0,0,0,0,0,0,-1,881,589,-1.60706,2.36838
-336,435,-2.07263,-1.94012,0,0,0,0,0,0,0,-1,888,589,-2.07265,1.94014
-329,435,-2.55963,-1.5517,0,0,0,0,0,0,0,-1,895,589,-2.5596,1.55168
-322,435,-3.08545,-1.55255,0,0,0,0,0,0,0,-1,902,589,-3.08544,1.55254
-315,435,-0.404297,-2.63763,0,0,0,0,0,0,0,-1,909,589,-0.404276,2.63761
-308,435,-1.70056,-1.90369,0,0,0,0,0,0,0,-1,916,589,-1.70056,1.90367
-301,435,-1.25232,-2.05511,0,0,0,0,0,0,0,-1,923,589,-1.25234,2.05514
-294,435,-1.79974,-1.97321,0,0,0,0,0,0,0,-1,930,589,-1.79973,1.97322
-287,435,0,0,0,0,0,0,0,0,0,-1,937,589,0,0
-280,435,0,0,0,0,0,0,0,0,0,-1,944,589,0,0
-273,435,0,0,0,0,0,0,0,0,0,-1,951,589,0,0
-266,435,0,0,0,0,0,0,0,0,0,-1,958,589,0,0
-259,435,0,0,0,0,0,0,0,0,0,-1,965,589,0,0
-252,435,0,0,0,0,0,0,0,0,0,-1,972,589,0,0
-245,435,0,0,0,0,0,0,0,0,0,-1,979,589,0,0
-238,435,0,0,0,0,0,0,0,0,0,-1,986,589,0,0
-231,435,0,0,0,0,0,0,0,0,0,-1,993,589,0,0
-224,435,0,0,0,0,0,0,0,0,0,-1,1000,589,0,0
-217,435,0,0,0,0,0,0,0,0,0,-1,1007,589,0,0
-210,435,0,0,0,0,0,0,0,0,0,-1,1014,589,0,0
-203,435,0,0,0,0,0,0,0,0,0,-1,1021,589,0,0
-196,435,0,0,0,0,0,0,0,0,0,-1,1028,589,0,0
-189,435,0,0,0,0,0,0,0,0,0,-1,1035,589,0,0
-182,435,0,0,0,0,0,0,0,0,0,-1,1042,589,0,0
-175,435,0,0,0,0,0,0,0,0,0,-1,1049,589,0,0
-168,435,0,0,0,0,0,0,0,0,0,-1,1056,589,0,0
-161,435,0,0,0,0,0,0,0,0,0,-1,1063,589,0,0
-154,435,0,0,0,0,0,0,0,0,0,-1,1070,589,0,0
-147,435,0,0,0,0,0,0,0,0,0,-1,1077,589,0,0
-140,435,0,0,0,0,0,0,0,0,0,-1,1084,589,0,0
-133,435,0,0,0,0,0,0,0,0,0,-1,1091,589,0,0
-126,435,0,0,0,0,0,0,0,0,0,-1,1098,589,0,0
-119,435,0,0,0,0,0,0,0,0,0,-1,1105,589,0,0
-112,435,0,0,0,0,0,0,0,0,0,-1,1112,589,0,0
-105,435,0,0,0,0,0,0,0,0,0,-1,1119,589,0,0
-98,435,0,0,0,0,0,0,0,0,0,-1,1126,589,0,0
-91,435,0,0,0,0,0,0,0,0,0,-1,1133,589,0,0
-84,435,0,0,0,0,0,0,0,0,0,-1,1140,589,0,0
-77,435,0,0,0,0,0,0,0,0,0,-1,1147,589,0,0
-70,435,0,0,0,0,0,0,0,0,0,-1,1154,589,0,0
-63,435,0,0,0,0,0,0,0,0,0,-1,1161,589,0,0
-56,435,0,0,0,0,0,0,0,0,0,-1,1168,589,0,0
-49,435,0,0,0,0,0,0,0,0,0,-1,1175,589,0,0
-42,435,0,0,0,0,0,0,0,0,0,-1,1182,589,0,0
-35,435,0,0,0,0,0,0,0,0,0,-1,1189,589,0,0
-28,435,0,0,0,0,0,0,0,0,0,-1,1196,589,0,0
-21,435,0,0,0,0,0,0,0,0,0,-1,1203,589,0,0
-14,435,0,0,0,0,0,0,0,0,0,-1,1210,589,0,0
-7,435,0,0,0,0,0,0,0,0,0,-1,1217,589,0,0
0,435,0,0,0,0,0,0,0,0,0,-1,1224,589,0,0
7,435,0,0,0,0,0,0,0,0,0,-1,1231,589,0,0
14,435,0,0,0,0,0,0,0,0,0,-1,1238,589,0,0
21,435,0,0,0,0,0,0,0,0,0,-1,1245,589,0,0
28,435,0,0,0,0,0,0,0,0,0,-1,1252,589,0,0
35,435,0,0,0,0,0,0,0,0,0,-1,1259,589,0,0
42,435,0,0,0,0,0,0,0,0,0,-1,1266,589,0,0
49,435,0,0,0,0,0,0,0,0,0,-1,1273,589,0,0
56,435,0,0,0,0,0,0,0,0,0,-1,1280,589,0,0
63,435,0,0,0,0,0,0,0,0,0,-1,1287,589,0,0
70,435,0,0,0,0,0,0,0,0,0,-1,1294,589,0,0
77,435,0,0,0,0,0,0,0,0,0,-1,1301,589,0,0
84,435,0,0,0,0,0,0,0,0,0,-1,1308,589,0,0
91,435,0,0,0,0,0,0,0,0,0,-1,1315,589,0,0
98,435,0,0,0,0,0,0,0,0,0,-1,1322,589,0,0
105,435,0,0,0,0,0,0,0,0,0,-1,1329,589,0,0
112,435,0,0,0,0,0,0,0,0,0,-1,1336,589,0,0
119,435,0,0,0,0,0,0,0,0,0,-1,1343,589,0,0
126,435,0,0,0,0,0,0,0,0,0,-1,1350,589,0,0
133,435,0,0,0,0,0,0,0,0,0,-1,1357,589,0,0
140,435,0,0,0,0,0,0,0,0,0,-1,1364,589,0,0
147,435,0,0,0,0,0,0,0,0,0,-1,1371,589,0,0
154,435,0,0,0,0,0,0,0,0,0,-1,1378,589,0,0
161,435,0,0,0,0,0,0,0,0,0,-1,1385,589,0,0
168,435,0,0,0,0,0,0,0,0,0,-1,1392,589,0,0
175,435,0,0,0,0,0,0,0,0,0,-1,1399,589,0,0
182,435,0,0,0,0,0,0,0,0,0,-1,1406,589,0,0
189,435,0,0,0,0,0,0,0,0,0,-1,1413,589,0,0
196,435,0,0,0,0,0,0,0,0,0,-1,1420,589,0,0
203,435,0,0,0,0,0,0,0,0,0,-1,1427,589,0,0
210,435,0,0,0,0,0,0,0,0,0,-1,1434,589,0,0
217,435,0,0,0,0,0,0,0,0,0,-1,1441,589,0,0
224,435,0,0,0,0,0,0,0,0,0,-1,1448,589,0,0
231,435,0,0,0,0,0,0,0,0,0,-1,1455,589,0,0
238,435,0,0,0,0,0,0,0,0,0,-1,1462,589,0,0
245,435,0,0,0,0,0,0,0,0,0,-1,1469,589,0,0
252,435,0,0,0,0,0,0,0,0,0,-1,1476,589,0,0
259,435,0,0,0,0,0,0,0,0,0,-1,1483,589,0,0
266,435,0,0,0,0,0,0,0,0,0,-1,1490,589,0,0
273,435,0,0,0,0,0,0,0,0,0,-1,1497,589,0,0
280,435,0,0,0,0,0,0,0,0,0,-1,1504,589,0,0
287,435,0,0,0,0,0,0,0,0,0,-1,1511,589,0,0
294,435,0,0,0,0,0,0,0,0,0,-1,1518,589,0,0
301,435,0,0,0,0,0,0,0,0,0,-1,1525,589,0,0
308,435,0,0,0,0,0,0,0,0,0,-1,1532,589,0,0
315,435,0,0,0,0,0,0,0,0,0,-1,1539,589,0,0
322,435,0,0,0,0,0,0,0,0,0,-1,1546,589,0,0
329,435,0,0,0,0,0,0,0,0,0,-1,1553,589,0,0
336,435,0,0,0,0,0,0,0,0,0,-1,1560,589,0,0
343,435,0,0,0,0,0,0,0,0,0,-1,1567,589,0,0
350,435,0,0,0,0,0,0,0,0,0,-1,1574,589,0,0
357,435,0,0,0,0,0,0,0,0,0,-1,1581,589,0,0
364,435,0,0,0,0,0,0,0,0,0,-1,1588,589,0,0
371,435,0,0,0,0,0,0,0,0,0,-1,1595,589,0,0
378,435,0,0,0,0,0,0,0,0,0,-1,1602,589,0,0
385,435,0,0,0,0,0,0,0,0,0,-1,1609,589,0,0
392,435,0,0,0,0,0,0,0,0,0,-1,1616,589,0,0
399,435,0,0,0,0,0,0,0,0,0,-1,1623,589,0,0
406,435,0,0,0,0,0,0,0,0,0,-1,1630,589,0,0
413,435,3.62073,3.42682,0,0,0,0,0,0,0,-1,1637,589,3.62069,-3.4268
420,435,3.6062,3.71564,0,0,0,0,0,0,0,-1,1644,589,3.60616,-3.71562
427,435,3.11963,0.640198,0,0,0,0,0,0,0,-1,1651,589,3.11967,-0.640192
434,435,2.72107,-1.34802,0,0,0,0,0,0,0,-1,1658,589,2.7211,1.34803
441,435,7.33191,-1.57452,0,0,0,0,0,0,0,-1,1665,589,7.33193,1.57452
448,435,7.4585,-0.00292969,0,0,0,0,0,0,0,-1,1672,589,7.45848,0.00294131
455,435,5.49915,-5.047,0,0,0,0,0,0,0,-1,1679,589,5.49914,5.04703
462,435,5.60669,-4.71466,0,0,0,0,0,0,0,-1,1686,589,5.60675,4.71469
469,435,5.87708,1.22351,0,0,0,0,0,0,0,-1,1693,589,5.87703,-1.22351
476,435,6.14136,1.37714,0,0,0,0,0,0,0,-1,1700,589,6.14138,-1.37712
483,435,6.49243,1.36169,0,0,0,0,0,0,0,-1,1707,589,6.49242,-1.36171
490,435,4.38391,-1.36218,0,0,0,0,0,0,0,-1,1714,589,4.38389,1.3622
497,435,7.23499,-3.64551,0,0,0,0,0,0,0,-1,1721,589,7.23495,3.64551
504,435,5.85083,-2.67139,0,0,0,0,0,0,0,-1,1728,589,5.85084,2.67136
511,435,6.09143,-2.58411,0.00421645,0.000915021,0.00168165,0.00492217,0.000209296,0.397341,0.00321395,0.0380273,1735,589,6.09139,2.58414
518,435,6.25647,-2.47253,0.00351752,0.000417043,0.00151662,0.00413601,-0.000201443,0.387218,0.00282688,0.0143736,1742,589,6.25644,2.47256
525,435,6.23914,-2.28564,0.00279338,0.000159412,0.00128611,0.0033172,-0.000364401,0.386769,0.0023424,0.011828,1749,589,6.23912,2.28567
532,435,6.24524,-2.10382,0.00204239,-4.10328e-05,0.000952518,0.00241222,-0.000410864,0.370351,0.00176115,0.0131246,1756,589,6.24521,2.10384
539,435,6.25476,-1.88776,0.00134576,-0.000216599,0.000606933,0.00155383,-0.000424666,0.330262,0.0012027,0.0140338,1763,589,6.25479,1.88778
546,435,6.2384,-1.67566,0.000846204,-0.000240238,0.000410768,0.000984026,-0.00037806,0.323719,0.000811927,0.0135811,1770,589,6.2384,1.67563
553,435,6.2345,-1.53601,0.000341336,-0.000133917,0.000230116,0.000434496,-0.000227077,0.384671,0.000388167,0.0108527,1777,589,6.23451,1.53599
560,435,6.2373,-1.35376,-0.000122329,-2.81711e-05,7.83525e-05,1.61587e-05,-0.000166659,1.05592,0.000116865,0.00921069,1784,589,6.23734,1.35378
567,435,6.24756,-1.13257,-0.000476802,-4.74781e-05,-3.95113e-05,-4.38721e-05,-0.000480408,-1.47978,0.000306696,0.00841305,1791,589,6.24761,1.1326
574,435,6.23645,-0.948608,-0.000723429,5.70673e-05,-4.70372e-05,5.98918e-05,-0.000726254,-1.51082,0.000505318,0.0101683,1798,589,6.23642,0.948615
581,435,6.21777,-0.793945,-0.00118019,0.000200393,-9.53462e-05,0.000206946,-0.00118675,-1.50217,0.000868405,0.0173787,1805,589,6.21771,0.793973
588,435,6.22913,-0.595825,-0.00164332,0.000321626,-9.82096e-05,0.000326523,-0.00164821,-1.52098,0.00122228,0.0173506,1812,589,6.22909,0.5958
595,435,6.20691,-0.383484,-0.00171401,0.000300615,-0.000180817,0.000316715,-0.00173011,-1.48199,0.00127219,0.0199831,1819,589,6.20686,0.383471
602,435,5.89233,0.00860596,-0.00133917,-0.000538191,-0.000110689,-0.000523177,-0.00135419,-1.43597,0.000788547,0.0400068,1826,589,5.89231,-0.00860749
609,435,5.63757,0.343262,0,0,0,0,0,0,0,-1,1833,589,5.63756,-0.343291
616,435,5.05151,-2.75269,0,0,0,0,0,0,0,-1,1840,589,5.05157,2.7527
623,435,8.69324,2.36554,0,0,0,0,0,0,0,-1,1847,589,8.69318,-2.36556
630,435,4.72742,-0.87561,0,0,0,0,0,0,0,-1,1854,589,4.7274,0.875636
637,435,5.05286,1.48792,0,0,0,0,0,0,0,-1,1861,589,5.05291,-1.48792
644,435,0,0,0,0,0,0,0,0,0,-1,1868,589,0,0
651,435,0,0,0,0,0,0,0,0,0,-1,1875,589,0,0
658,435,0,0,0,0,0,0,0,0,0,-1,1882,589,0,0
665,435,0,0,0,0,0,0,0,0,0,-1,1889,589,0,0
672,435,0,0,0,0,0,0,0,0,0,-1,1896,589,0,0
679,435,0,0,0,0,0,0,0,0,0,-1,1903,589,0,0
686,435,0,0,0,0,0,0,0,0,0,-1,1910,589,0,0
693,435,0,0,0,0,0,0,0,0,0,-1,1917,589,0,0
700,435,0,0,0,0,0,0,0,0,0,-1,1924,589,0,0
707,435,0,0,0,0,0,0,0,0,0,-1,1931,589,0,0
714,435,0,0,0,0,0,0,0,0,0,-1,1938,589,0,0
721,435,0,0,0,0,0,0,0,0,0,-1,1945,589,0,0
728,435,0,0,0,0,0,0,0,0,0,-1,1952,589,0,0
735,435,0,0,0,0,0,0,0,0,0,-1,1959,589,0,0
742,435,0,0,0,0,0,0,0,0,0,-1,1966,589,0,0
749,435,0,0,0,0,0,0,0,0,0,-1,1973,589,0,0
756,435,0,0,0,0,0,0,0,0,0,-1,1980,589,0,0
763,435,0,0,0,0,0,0,0,0,0,-1,1987,589,0,0
770,435,0,0,0,0,0,0,0,0,0,-1,1994,589,0,0
777,435,0,0,0,0,0,0,0,0,0,-1,2001,589,0,0
784,435,0,0,0,0,0,0,0,0,0,-1,2008,589,0,0
791,435,0,0,0,0,0,0,0,0,0,-1,2015,589,0,0
798,435,0,0,0,0,0,0,0,0,0,-1,2022,589,0,0
805,435,0,0,0,0,0,0,0,0,0,-1,2029,589,0,0
812,435,0,0,0,0,0,0,0,0,0,-1,2036,589,0,0
-700,428,0,0,0,0,0,0,0,0,0,-1,524,596,0,0
-693,428,0,0,0,0,0,0,0,0,0,-1,531,596,0,0
-686,428,0,0,0,0,0,0,0,0,0,-1,538,596,0,0
-679,428,0,0,0,0,0,0,0,0,0,-1,545,596,0,0
-672,428,0,0,0,0,0,0,0,0,0,-1,552,596,0,0
-665,428,0,0,0,0,0,0,0,0,0,-1,559,596,0,0
-658,428,0,0,0,0,0,0,0,0,0,-1,566,596,0,0
-651,428,0,0,0,0,0,0,0,0,0,-1,573,596,0,0
-644,428,0,0,0,0,0,0,0,0,0,-1,580,596,0,0
-637,428,0,0,0,0,0,0,0,0,0,-1,587,596,0,0
-630,428,0,0,0,0,0,0,0,0,0,-1,594,596,0,0
-623,428,0,0,0,0,0,0,0,0,0,-1,601,596,0,0
-616,428,0,0,0,0,0,0,0,0,0,-1,608,596,0,0
-609,428,0,0,0,0,0,0,0,0,0,-1,615,596,0,0
-602,428,0,0,0,0,0,0,0,0,0,-1,622,596,0,0
-595,428,0,0,0,0,0,0,0,0,0,-1,629,596,0,0
-588,428,0,0,0,0,0,0,0,0,0,-1,636,596,0,0
-581,428,0,0,0,0,0,0,0,0,0,-1,643,596,0,0
-574,428,0,0,0,0,0,0,0,0,0,-1,650,596,0,0
-567,428,0,0,0,0,0,0,0,0,0,-1,657,596,0,0
-560,428,0,0,0,0,0,0,0,0,0,-1,664,596,0,0
-553,428,0,0,0,0,0,0,0,0,0,-1,671,596,0,0
-546,428,0,0,0,0,0,0,0,0,0,-1,678,596,0,0
-539,428,0,0,0,0,0,0,0,0,0,-1,685,596,0,0
-532,428,0,0,0,0,0,0,0,0,0,-1,692,596,0,0
-525,428,-9.94873,5.86664,0,0,0,0,0,0,0,-1,699,596,-9.94875,-5.86666
-518,428,-2.68677,-4.75885,0,0,0,0,0,0,0,-1,706,596,-2.68679,4.75885
-511,428,-2.21271,-4.64166,0,0,0,0,0,0,0,-1,713,596,-2.21272,4.64167
-504,428,-1.73865,-4.52448,0,0,0,0,0,0,0,-1,720,596,-1.73866,4.5245
-497,428,-2.38306,-3.17322,0,0,0,0,0,0,0,-1,727,596,-2.38308,3.17324
-490,428,-2.09467,-1.21613,0,0,0,0,0,0,0,-1,734,596,-2.09464,1.2161
-483,428,-1.92615,-1.55237,0,0,0,0,0,0,0,-1,741,596,-1.92618,1.5524
-476,428,-2.03534,-1.52954,0.0263659,0.00289791,-0.00893107,0.0293781,-0.000114294,-0.325292,0.0196236,0.0357639,748,596,-2.03532,1.52957
-469,428,-1.85895,-1.88373,0.0200908,0.00438252,-0.00774338,0.023266,0.00120727,-0.389149,0.0151243,0.0191887,755,596,-1.85897,1.88374
-462,428,-1.875,-2.047,0.0146294,0.00478783,-0.00636415,0.0177533,0.00166396,-0.456304,0.0113217,0.0156178,762,596,-1.87501,2.04703
-455,428,-1.91656,-2.23309,0.0103449,0.00491858,-0.00522287,0.0135173,0.00174618,-0.545846,0.00848952,0.0113871,769,596,-1.91656,2.2331
-448,428,-1.92999,-2.4126,0.00732868,0.00397733,-0.00390508,0.00990243,0.00140359,-0.582729,0.00618705,0.0107989,776,596,-1.92999,2.41259
-441,428,-1.91217,-2.60529,0.0049071,0.00261692,-0.00264292,0.00664234,0.000881691,-0.580972,0.00416555,0.013402,783,596,-1.91218,2.6053
-434,428,-1.89752,-2.79419,0.00308401,0.00117208,-0.00158095,0.00397556,0.000280541,-0.513472,0.00256198,0.0102883,790,596,-1.89754,2.79422
-427,428,-1.89105,-2.96643,0.00164269,-0.000155141,-0.000610557,0.00183043,-0.000342885,-0.29832,0.00134919,0.0101107,797,596,-1.89105,2.96641
-420,428,-1.88538,-3.10394,0.00102195,-0.00145843,0.000148534,0.00103081,-0.00146729,0.0595997,0.0014496,0.0105958,804,596,-1.88536,3.10397
-413,428,-1.86517,-3.25153,0.00116403,-0.00289547,0.000408067,0.00120464,-0.00293609,0.099199,0.00245933,0.0127369,811,596,-1.86515,3.25154
-406,428,-1.87067,-3.42365,0.00185241,-0.00382461,0.000367079,0.00187605,-0.00384825,0.0643035,0.00336968,0.0153958,818,596,-1.87064,3.42367
-399,428,-1.89624,-3.60132,0.00269813,-0.00512401,2.22199e-06,0.00269813,-0.00512401,0.000284063,0.00458794,0.0139117,825,596,-1.89622,3.60131
-392,428,-1.88885,-3.79034,0.00328627,-0.00649571,-0.000274594,0.00329397,-0.00650341,-0.028042,0.0057568,0.0121986,832,596,-1.88885,3.79033
-385,428,-1.89587,-3.97589,0.00455002,-0.00792361,-0.000878889,0.00461164,-0.00798523,-0.0699989,0.00735923,0.0180067,839,596,-1.89587,3.97588
-378,428,-1.82013,-4.01563,0.00602431,-0.00967696,-0.00173696,0.00621417,-0.00986681,-0.108872,0.00936385,0.0357152,846,596,-1.82016,4.01565
-371,428,-1.65204,-3.92725,0.00747796,-0.0116178,-0.00281795,0.00788512,-0.012025,-0.143495,0.0115776,0.0492987,853,596,-1.65207,3.92723
-364,428,-1.49878,-3.86023,0,0,0,0,0,0,0,-1,860,596,-1.49877,3.86025
-357,428,-0.868958,-3.06989,0,0,0,0,0,0,0,-1,867,596,-0.868956,3.06986
-350,428,-0.83551,-3.08636,0,0,0,0,0,0,0,-1,874,596,-0.835488,3.08638
-343,428,-0.0567017,-4.80994,0,0,0,0,0,0,0,-1,881,596,-0.0567096,4.80996
-336,428,-3.29175,-1.39569,0,0,0,0,0,0,0,-1,888,596,-3.29172,1.39568
-329,428,-3.71564,-0.791321,0,0,0,0,0,0,0,-1,895,596,-3.71564,0.791299
-322,428,-5.52863,-3.59827,0,0,0,0,0,0,0,-1,902,596,-5.52865,3.59829
-315,428,-4.57172,-1.22052,0,0,0,0,0,0,0,-1,909,596,-4.57171,1.22052
-308,428,-5.26538,-1.1521,0,0,0,0,0,0,0,-1,916,596,-5.26539,1.15209
-301,428,0,0,0,0,0,0,0,0,0,-1,923,596,0,0
-294,428,0,0,0,0,0,0,0,0,0,-1,930,596,0,0
-287,428,0,0,0,0,0,0,0,0,0,-1,937,596,0,0
-280,428,0,0,0,0,0,0,0,0,0,-1,944,596,0,0
-273,428,0,0,0,0,0,0,0,0,0,-1,951,596,0,0
-266,428,0,0,0,0,0,0,0,0,0,-1,958,596,0,0
-259,428,0,0,0,0,0,0,0,0,0,-1,965,596,0,0
-252,428,0,0,0,0,0,0,0,0,0,-1,972,596,0,0
-245,428,0,0,0,0,0,0,0,0,0,-1,979,596,0,0
-238,428,0,0,0,0,0,0,0,0,0,-1,986,596,0,0
-231,428,0,0,0,0,0,0,0,0,0,-1,993,596,0,0
-224,428,0,0,0,0,0,0,0,0,0,-1,1000,596,0,0
-217,428,0,0,0,0,0,0,0,0,0,-1,1007,596,0,0
-210,428,0,0,0,0,0,0,0,0,0,-1,1014,596,0,0
-203,428,0,0,0,0,0,0,0,0,0,-1,1021,596,0,0
-196,428,0,0,0,0,0,0,0,0,0,-1,1028,596,0,0
-189,428,0,0,0,0,0,0,0,0,0,-1,1035,596,0,0
-182,428,0,0,0,0,0,0,0,0,0,-1,1042,596,0,0
-175,428,0,0,0,0,0,0,0,0,0,-1,1049,596,0,0
-168,428,0,0,0,0,0,0,0,0,0,-1,1056,596,0,0
-161,428,0,0,0,0,0,0,0,0,0,-1,1063,596,0,0
-154,428,0,0,0,0,0,0,0,0,0,-1,1070,596,0,0
-147,428,0,0,0,0,0,0,0,0,0,-1,1077,596,0,0
-140,428,0,0,0,0,0,0,0,0,0,-1,1084,596,0,0
-133,428,0,0,0,0,0,0,0,0,0,-1,1091,596,0,0
-126,428,0,0,0,0,0,0,0,0,0,-1,1098,596,0,0
-119,428,0,0,0,0,0,0,0,0,0,-1,1105,596,0,0
-112,428,0,0,0,0,0,0,0,0,0,-1,1112,596,0,0
-105,428,0,0,0,0,0,0,0,0,0,-1,1119,596,0,0
-98,428,0,0,0,0,0,0,0,0,0,-1,1126,596,0,0
-91,428,0,0,0,0,0,0,0,0,0,-1,1133,596,0,0
-84,428,0,0,0,0,0,0,0,0,0,-1,1140,596,0,0
-77,428,0,0,0,0,0,0,0,0,0,-1,1147,596,0,0
-70,428,0,0,0,0,0,0,0,0,0,-1,1154,596,0,0
-63,428,0,0,0,0,0,0,0,0,0,-1,1161,596,0,0
-56,428,0,0,0,0,0,0,0,0,0,-1,1168,596,0,0
-49,428,0,0,0,0,0,0,0,0,0,-1,1175,596,0,0
-42,428,0,0,0,0,0,0,0,0,0,-1,1182,596,0,0
-35,428,0,0,0,0,0,0,0,0,0,-1,1189,596,0,0
-28,428,0,0,0,0,0,0,0,0,0,-1,1196,596,0,0
-21,428,0,0,0,0,0,0,0,0,0,-1,1203,596,0,0
-14,428,0,0,0,0,0,0,0,0,0,-1,1210,596,0,0
-7,428,0,0,0,0,0,0,0,0,0,-1,1217,596,0,0
0,428,0,0,0,0,0,0,0,0,0,-1,1224,596,0,0
7,428,0,0,0,0,0,0,0,0,0,-1,1231,596,0,0
14,428,0,0,0,0,0,0,0,0,0,-1,1238,596,0,0
21,428,0,0,0,0,0,0,0,0,0,-1,1245,596,0,0
28,428,0,0,0,0,0,0,0,0,0,-1,1252,596,0,0
35,428,0,0,0,0,0,0,0,0,0,-1,1259,596,0,0
42,428,0,0,0,0,0,0,0,0,0,-1,1266,596,0,0
49,428,0,0,0,0,0,0,0,0,0,-1,1273,596,0,0
56,428,0,0,0,0,0,0,0,0,0,-1,1280,596,0,0
63,428,0,0,0,0,0,0,0,0,0,-1,1287,596,0,0
70,428,0,0,0,0,0,0,0,0,0,-1,1294,596,0,0
77,428,0,0,0,0,0,0,0,0,0,-1,1301,596,0,0
84,428,0,0,0,0,0,0,0,0,0,-1,1308,596,0,0
91,428,0,0,0,0,0,0,0,0,0,-1,1315,596,0,0
98,428,0,0,0,0,0,0,0,0,0,-1,1322,596,0,0
105,428,0,0,0,0,0,0,0,0,0,-1,1329,596,0,0
112,428,0,0,0,0,0,0,0,0,0,-1,1336,596,0,0
119,428,0,0,0,0,0,0,0,0,0,-1,1343,596,0,0
126,428,0,0,0,0,0,0,0,0,0,-1,1350,596,0,0
133,428,0,0,0,0,0,0,0,0,0,-1,1357,596,0,0
140,428,0,0,0,0,0,0,0,0,0,-1,1364,596,0,0
147,428,0,0,0,0,0,0,0,0,0,-1,1371,596,0,0
154,428,0,0,0,0,0,0,0,0,0,-1,1378,596,0,0
161,428,0,0,0,0,0,0,0,0,0,-1,1385,596,0,0
168,428,0,0,0,0,0,0,0,0,0,-1,1392,596,0,0
175,428,0,0,0,0,0,0,0,0,0,-1,1399,596,0,0
182,428,0,0,0,0,0,0,0,0,0,-1,1406,596,0,0
189,428,0,0,0,0,0,0,0,0,0,-1,1413,596,0,0
196,428,0,0,0,0,0,0,0,0,0,-1,1420,596,0,0
203,428,0,0,0,0,0,0,0,0,0,-1,1427,596,0,0
210,428,0,0,0,0,0,0,0,0,0,-1,1434,596,0,0
217,428,0,0,0,0,0,0,0,0,0,-1,1441,596,0,0
224,428,0,0,0,0,0,0,0,0,0,-1,1448,596,0,0
231,428,0,0,0,0,0,0,0,0,0,-1,1455,596,0,0
238,428,0,0,0,0,0,0,0,0,0,-1,1462,596,0,0
245,428,0,0,0,0,0,0,0,0,0,-1,1469,596,0,0
252,428,0,0,0,0,0,0,0,0,0,-1,1476,596,0,0
259,428,0,0,0,0,0,0,0,0,0,-1,1483,596,0,0
266,428,0,0,0,0,0,0,0,0,0,-1,1490,596,0,0
273,428,0,0,0,0,0,0,0,0,0,-1,1497,596,0,0
280,428,0,0,0,0,0,0,0,0,0,-1,1504,596,0,0
287,428,0,0,0,0,0,0,0,0,0,-1,1511,596,0,0
294,428,0,0,0,0,0,0,0,0,0,-1,1518,596,0,0
301,428,0,0,0,0,0,0,0,0,0,-1,1525,596,0,0
308,428,0,0,0,0,0,0,0,0,0,-1,1532,596,0,0
315,428,0,0,0,0,0,0,0,0,0,-1,1539,596,0,0
322,428,0,0,0,0,0,0,0,0,0,-1,1546,596,0,0
329,428,0,0,0,0,0,0,0,0,0,-1,1553,596,0,0
336,428,0,0,0,0,0,0,0,0,0,-1,1560,596,0,0
343,428,0,0,0,0,0,0,0,0,0,-1,1567,596,0,0
350,428,0,0,0,0,0,0,0,0,0,-1,1574,596,0,0
357,428,0,0,0,0,0,0,0,0,0,-1,1581,596,0,0
364,428,0,0,0,0,0,0,0,0,0,-1,1588,596,0,0
371,428,0,0,0,0,0,0,0,0,0,-1,1595,596,0,0
378,428,0,0,0,0,0,0,0,0,0,-1,1602,596,0,0
385,428,0,0,0,0,0,0,0,0,0,-1,1609,596,0,0
392,428,0,0,0,0,0,0,0,0,0,-1,1616,596,0,0
399,428,0,0,0,0,0,0,0,0,0,-1,1623,596,0,0
406,428,0,0,0,0,0,0,0,0,0,-1,1630,596,0,0
413,428,0,0,0,0,0,0,0,0,0,-1,1637,596,0,0
420,428,2.95886,0.551819,0,0,0,0,0,0,0,-1,1644,596,2.9589,-0.551797
427,428,3.19385,0.384705,0,0,0,0,0,0,0,-1,1651,596,3.19383,-0.384692
434,428,8.18152,1.80432,0,0,0,0,0,0,0,-1,1658,596,8.18148,-1.80434
441,428,8.17993,0.607483,0,0,0,0,0,0,0,-1,1665,596,8.17997,-0.607513
448,428,7.84338,-0.385986,0,0,0,0,0,0,0,-1,1672,596,7.84336,0.385978
455,428,6.64038,2.1123,0,0,0,0,0,0,0,-1,1679,596,6.64037,-2.11229
462,428,4.84106,4.12341,0,0,0,0,0,0,0,-1,1686,596,4.84107,-4.12339
469,428,7.83789,3.10083,0,0,0,0,0,0,0,-1,1693,596,7.83785,-3.10086
476,428,7.61255,1.73956,0,0,0,0,0,0,0,-1,1700,596,7.61252,-1.73958
483,428,7.22766,1.05121,0,0,0,0,0,0,0,-1,1707,596,7.2277,-1.05121
490,428,5.4071,-3.2793,0,0,0,0,0,0,0,-1,1714,596,5.40707,3.27929
497,428,7.84106,-3.65491,0,0,0,0,0,0,0,-1,1721,596,7.84107,3.65491
504,428,6.92139,-2.83356,0,0,0,0,0,0,0,-1,1728,596,6.92137,2.83353
511,428,6.25574,-2.67676,0,0,0,0,0,0,0,-1,1735,596,6.25573,2.67677
518,428,6.42334,-2.52246,0,0,0,0,0,0,0,-1,1742,596,6.42334,2.52243
525,428,6.36292,-2.32941,0.00276314,0.000165093,0.00133055,0.00332364,-0.000395406,0.398693,0.00235863,0.0286602,1749,596,6.36293,2.32942
532,428,6.40198,-2.0733,0.00196199,-1.56452e-05,0.000951601,0.00234551,-0.000399162,0.38311,0.00171231,0.0172213,1756,596,6.40194,2.0733
539,428,6.44238,-1.87335,0.00124878,-0.000153211,0.000555753,0.00144235,-0.000346786,0.335169,0.00109561,0.019478,1763,596,6.44237,1.87335
546,428,6.43323,-1.67725,0.000783055,-0.000183911,0.000296255,0.000866602,-0.000267458,0.274872,0.000684531,0.0157642,1770,596,6.4332,1.67723
553,428,6.43127,-1.52295,0.000377267,-0.000135434,0.000121063,0.000404416,-0.000162582,0.220603,0.000337136,0.011153,1777,596,6.43125,1.52295
560,428,6.44556,-1.33612,-1.75571e-05,-5.3273e-05,-2.20389e-05,-7.04923e-06,-6.37809e-05,-0.444906,4.03765e-05,0.0114352,1784,596,6.4456,1.33613
567,428,6.43677,-1.13397,-0.000312031,-8.91009e-05,-0.0001295,-2.9701e-05,-0.000371431,-1.14074,0.000238338,0.0101885,1791,596,6.43671,1.13394
574,428,6.42773,-0.958496,-0.000457777,-3.98669e-05,-0.000114592,-1.0508e-05,-0.000487136,-1.31999,0.000321312,0.0118569,1798,596,6.42773,0.958505
581,428,6.41199,-0.774292,-0.000783829,2.69229e-05,-0.000157628,5.6491e-05,-0.000813397,-1.38537,0.000562042,0.0107817,1805,596,6.412,0.77427
588,428,6.39807,-0.576477,-0.00111141,5.8722e-05,-0.00016236,8.08324e-05,-0.00113352,-1.43545,0.000784016,0.0138866,1812,596,6.3981,0.576491
595,428,6.40747,-0.373413,-0.000957954,-0.000127813,-0.000278247,-4.31783e-05,-0.00104259,-1.27552,0.000681123,0.00936354,1819,596,6.4075,0.373442
602,428,6.35632,-0.157166,-0.000207591,-0.00114003,-0.000155162,-0.000182449,-0.00116517,-0.16064,0.00072367,0.0200355,1826,596,6.35628,0.157188
609,428,6.29065,0.101501,0,0,0,0,0,0,0,-1,1833,596,6.2907,-0.101474
616,428,5.88977,-0.239319,0,0,0,0,0,0,0,-1,1840,596,5.88983,0.239293
623,428,6.41541,0.466675,0,0,0,0,0,0,0,-1,1847,596,6.41543,-0.466696
630,428,4.94434,0.773193,0,0,0,0,0,0,0,-1,1854,596,4.9443,-0.773171
637,428,3.95435,1.90857,0,0,0,0,0,0,0,-1,1861,596,3.95439,-1.90858
644,428,5.75476,0.888977,0,0,0,0,0,0,0,-1,1868,596,5.75472,-0.888955
651,428,0,0,0,0,0,0,0,0,0,-1,1875,596,0,0
658,428,0,0,0,0,0,0,0,0,0,-1,1882,596,0,0
665,428,0,0,0,0,0,0,0,0,0,-1,1889,596,0,0
672,428,0,0,0,0,0,0,0,0,0,-1,1896,596,0,0
679,428,0,0,0,0,0,0,0,0,0,-1,1903,596,0,0
686,428,0,0,0,0,0,0,0,0,0,-1,1910,596,0,0
693,428,0,0,0,0,0,0,0,0,0,-1,1917,596,0,0
700,428,0,0,0,0,0,0,0,0,0,-1,1924,596,0,0
707,428,0,0,0,0,0,0,0,0,0,-1,1931,596,0,0
714,428,0,0,0,0,0,0,0,0,0,-1,1938,596,0,0
721,428,0,0,0,0,0,0,0,0,0,-1,1945,596,0,0
728,428,0,0,0,0,0,0,0,0,0,-1,1952,596,0,0
735,428,0,0,0,0,0,0,0,0,0,-1,1959,596,0,0
742,428,0,0,0,0,0,0,0,0,0,-1,1966,596,0,0
749,428,0,0,0,0,0,0,0,0,0,-1,1973,596,0,0
756,428,0,0,0,0,0,0,0,0,0,-1,1980,596,0,0
763,428,0,0,0,0,0,0,0,0,0,-1,1987,596,0,0
770,428,0,0,0,0,0,0,0,0,0,-1,1994,596,0,0
777,428,0,0,0,0,0,0,0,0,0,-1,2001,596,0,0
784,428,0,0,0,0,0,0,0,0,0,-1,2008,596,0,0
791,428,0,0,0,0,0,0,0,0,0,-1,2015,596,0,0
798,428,0,0,0,0,0,0,0,0,0,-1,2022,596,0,0
805,428,0,0,0,0,0,0,0,0,0,-1,2029,596,0,0
812,428,0,0,0,0,0,0,0,0,0,-1,2036,596,0,0
-700,421,0,0,0,0,0,0,0,0,0,-1,524,603,0,0
-693,421,0,0,0,0,0,0,0,0,0,-1,531,603,0,0
-686,421,0,0,0,0,0,0,0,0,0,-1,538,603,0,0
-679,421,0,0,0,0,0,0,0,0,0,-1,545,603,0,0
-672,421,0,0,0,0,0,0,0,0,0,-1,552,603,0,0
-665,421,0,0,0,0,0,0,0,0,0,-1,559,603,0,0
-658,421,0,0,0,0,0,0,0,0,0,-1,566,603,0,0
-651,421,0,0,0,0,0,0,0,0,0,-1,573,603,0,0
-644,421,0,0,0,0,0,0,0,0,0,-1,580,603,0,0
-637,421,0,0,0,0,0,0,0,0,0,-1,587,603,0,0
-630,421,0,0,0,0,0,0,0,0,0,-1,594,603,0,0
-623,421,0,0,0,0,0,0,0,0,0,-1,601,603,0,0
-616,421,0,0,0,0,0,0,0,0,0,-1,608,603,0,0
-609,421,0,0,0,0,0,0,0,0,0,-1,615,603,0,0
-602,421,0,0,0,0,0,0,0,0,0,-1,622,603,0,0
-595,421,0,0,0,0,0,0,0,0,0,-1,629,603,0,0
-588,421,0,0,0,0,0,0,0,0,0,-1,636,603,0,0
-581,421,0,0,0,0,0,0,0,0,0,-1,643,603,0,0
-574,421,0,0,0,0,0,0,0,0,0,-1,650,603,0,0
-567,421,0,0,0,0,0,0,0,0,0,-1,657,603,0,0
-560,421,0,0,0,0,0,0,0,0,0,-1,664,603,0,0
-553,421,0,0,0,0,0,0,0,0,0,-1,671,603,0,0
-546,421,0,0,0,0,0,0,0,0,0,-1,678,603,0,0
-539,421,0,0,0,0,0,0,0,0,0,-1,685,603,0,0
-532,421,-9.85718,5.32794,0,0,0,0,0,0,0,-1,692,603,-9.85718,-5.32797
-525,421,-10.3297,5.08777,0,0,0,0,0,0,0,-1,699,603,-10.3297,-5.08777
-518,421,-1.92688,-3.7323,0,0,0,0,0,0,0,-1,706,603,-1.92685,3.73228
-511,421,-1.95917,-3.88098,0,0,0,0,0,0,0,-1,713,603,-1.95916,3.88096
-504,421,-1.99146,-4.0296,0,0,0,0,0,0,0,-1,720,603,-1.99146,4.02963
-497,421,-2.01953,-1.02271,0,0,0,0,0,0,0,-1,727,603,-2.01953,1.02272
-490,421,-2.12207,-1.23987,0.0235594,-0.0109534,-0.00370378,0.0239524,-0.0113465,-0.105712,0.0208085,0.0496229,734,603,-2.12207,1.23989
-483,421,-2.08856,-1.53156,0.0177244,-0.005398,-0.00410729,0.0184323,-0.00610591,-0.170679,0.0147509,0.035194,741,603,-2.08855,1.53156
-476,421,-2.06573,-1.74512,0.0131533,-0.00160884,-0.00417759,0.0142535,-0.00270907,-0.257517,0.0105223,0.0195846,748,603,-2.06571,1.74509
-469,421,-2.06952,-1.89832,0.00961418,0.000541714,-0.00375737,0.0109682,-0.000812317,-0.34588,0.0075974,0.0160857,755,603,-2.06951,1.89833
-462,421,-2.07562,-2.06586,0.00654004,0.00165237,-0.00313095,0.008068,0.000124407,-0.454017,0.00533768,0.0177056,762,603,-2.0756,2.06583
-455,421,-2.08868,-2.21906,0.00429471,0.00226041,-0.00267057,0.00613527,0.000419841,-0.603443,0.00395767,0.0173855,769,603,-2.08867,2.21905
-448,421,-2.11664,-2.4126,0.00309396,0.0018714,-0.001917,0.00449479,0.000470582,-0.631058,0.00285263,0.017625,776,603,-2.11662,2.41258
-441,421,-2.09766,-2.61542,0.00206767,0.000866933,-0.00109442,0.00271558,0.000219022,-0.534526,0.00174197,0.0147388,783,603,-2.09768,2.61544
-434,421,-2.07245,-2.80298,0.00123082,-0.000377747,-0.000349063,0.0013033,-0.000450228,-0.204737,0.00105158,0.0105079,790,603,-2.07245,2.80298
-427,421,-2.06195,-2.95459,0.000660455,-0.00157889,0.000378711,0.000722767,-0.0016412,0.163077,0.00139875,0.00921538,797,603,-2.06196,2.95457
-420,421,-2.05475,-3.10193,0.000579966,-0.00286048,0.000982725,0.000840883,-0.00312139,0.259516,0.00241062,0.0109284,804,603,-2.05472,3.10196
-413,421,-2.05548,-3.26257,0.00100741,-0.00440913,0.0011088,0.0012256,-0.00462732,0.194298,0.00356436,0.0127389,811,603,-2.05545,3.2626
-406,421,-2.08112,-3.46204,0.00178918,-0.0054873,0.00100111,0.0019244,-0.00562252,0.134259,0.00452823,0.0171526,818,603,-2.08112,3.46201
-399,421,-2.07007,-3.67114,0.00266159,-0.00704301,0.000585382,0.00269677,-0.00707819,0.06003,0.00582949,0.0160279,825,603,-2.07008,3.67113
-392,421,-2.10022,-3.82654,0.0033034,-0.00876226,0.000223605,0.00330754,-0.00876641,0.0185239,0.00720447,0.0173578,832,603,-2.10021,3.82653
-385,421,-2.14764,-4.02606,0.00465231,-0.0106587,-0.000508357,0.00466917,-0.0106756,-0.0331533,0.00908272,0.0373394,839,603,-2.14762,4.02604
-378,421,-2.18262,-4.23474,0,0,0,0,0,0,0,-1,846,603,-2.18265,4.23474
-371,421,-2.00507,-4.96307,0,0,0,0,0,0,0,-1,853,603,-2.00507,4.96308
-364,421,-2.13892,-5.08636,0,0,0,0,0,0,0,-1,860,603,-2.13893,5.08635
-357,421,-1.39752,-2.55725,0,0,0,0,0,0,0,-1,867,603,-1.39755,2.55724
-350,421,-0.568542,-6.99695,0,0,0,0,0,0,0,-1,874,603,-0.568545,6.99693
-343,421,-2.70099,-2.13391,0,0,0,0,0,0,0,-1,881,603,-2.70101,2.13393
-336,421,-4.78381,-1.46234,0,0,0,0,0,0,0,-1,888,603,-4.78379,1.46232
-329,421,-4.50134,-1.49469,0,0,0,0,0,0,0,-1,895,603,-4.50137,1.49468
-322,421,-4.26563,-1.38239,0,0,0,0,0,0,0,-1,902,603,-4.26559,1.3824
-315,421,-4.47821,-1.26733,0,0,0,0,0,0,0,-1,909,603,-4.47824,1.26732
-308,421,0,0,0,0,0,0,0,0,0,-1,916,603,0,0
-301,421,0,0,0,0,0,0,0,0,0,-1,923,603,0,0
-294,421,0,0,0,0,0,0,0,0,0,-1,930,603,0,0
-287,421,0,0,0,0,0,0,0,0,0,-1,937,603,0,0
-280,421,0,0,0,0,0,0,0,0,0,-1,944,603,0,0
-273,421,0,0,0,0,0,0,0,0,0,-1,951,603,0,0
-266,421,0,0,0,0,0,0,0,0,0,-1,958,603,0,0
-259,421,0,0,0,0,0,0,0,0,0,-1,965,603,0,0
-252,421,0,0,0,0,0,0,0,0,0,-1,972,603,0,0
-245,421,0,0,0,0,0,0,0,0,0,-1,979,603,0,0
-238,421,0,0,0,0,0,0,0,0,0,-1,986,603,0,0
-231,421,0,0,0,0,0,0,0,0,0,-1,993,603,0,0
-224,421,0,0,0,0,0,0,0,0,0,-1,1000,603,0,0
-217,421,0,0,0,0,0,0,0,0,0,-1,1007,603,0,0
-210,421,0,0,0,0,0,0,0,0,0,-1,1014,603,0,0
-203,421,0,0,0,0,0,0,0,0,0,-1,1021,603,0,0
-196,421,0,0,0,0,0,0,0,0,0,-1,1028,603,0,0
-189,421,0,0,0,0,0,0,0,0,0,-1,1035,603,0,0
-182,421,0,0,0,0,0,0,0,0,0,-1,1042,603,0,0
-175,421,0,0,0,0,0,0,0,0,0,-1,1049,603,0,0
-168,421,0,0,0,0,0,0,0,0,0,-1,1056,603,0,0
-161,421,0,0,0,0,0,0,0,0,0,-1,1063,603,0,0
-154,421,0,0,0,0,0,0,0,0,0,-1,1070,603,0,0
-147,421,0,0,0,0,0,0,0,0,0,-1,1077,603,0,0
-140,421,0,0,0,0,0,0,0,0,0,-1,1084,603,0,0
-133,421,0,0,0,0,0,0,0,0,0,-1,1091,603,0,0
-126,421,0,0,0,0,0,0,0,0,0,-1,1098,603,0,0
-119,421,0,0,0,0,0,0,0,0,0,-1,1105,603,0,0
-112,421,0,0,0,0,0,0,0,0,0,-1,1112,603,0,0
-105,421,0,0,0,0,0,0,0,0,0,-1,1119,603,0,0
-98,421,0,0,0,0,0,0,0,0,0,-1,1126,603,0,0
-91,421,0,0,0,0,0,0,0,0,0,-1,1133,603,0,0
-84,421,0,0,0,0,0,0,0,0,0,-1,1140,603,0,0
-77,421,0,0,0,0,0,0,0,0,0,-1,1147,603,0,0
-70,421,0,0,0,0,0,0,0,0,0,-1,1154,603,0,0
-63,421,0,0,0,0,0,0,0,0,0,-1,1161,603,0,0
-56,421,0,0,0,0,0,0,0,0,0,-1,1168,603,0,0
-49,421,0,0,0,0,0,0,0,0,0,-1,1175,603,0,0
-42,421,0,0,0,0,0,0,0,0,0,-1,1182,603,0,0
-35,421,0,0,0,0,0,0,0,0,0,-1,1189,603,0,0
-28,421,0,0,0,0,0,0,0,0,0,-1,1196,603,0,0
-21,421,0,0,0,0,0,0,0,0,0,-1,1203,603,0,0
-14,421,0,0,0,0,0,0,0,0,0,-1,1210,603,0,0
-7,421,0,0,0,0,0,0,0,0,0,-1,1217,603,0,0
0,421,0,0,0,0,0,0,0,0,0,-1,1224,603,0,0
7,421,0,0,0,0,0,0,0,0,0,-1,1231,603,0,0
14,421,0,0,0,0,0,0,0,0,0,-1,1238,603,0,0
21,421,0,0,0,0,0,0,0,0,0,-1,1245,603,0,0
28,421,0,0,0,0,0,0,0,0,0,-1,1252,603,0,0
35,421,0,0,0,0,0,0,0,0,0,-1,1259,603,0,0
42,421,0,0,0,0,0,0,0,0,0,-1,1266,603,0,0
49,421,0,0,0,0,0,0,0,0,0,-1,1273,603,0,0
56,421,0,0,0,0,0,0,0,0,0,-1,1280,603,0,0
63,421,0,0,0,0,0,0,0,0,0,-1,1287,603,0,0
70,421,0,0,0,0,0,0,0,0,0,-1,1294,603,0,0
77,421,0,0,0,0,0,0,0,0,0,-1,1301,603,0,0
84,421,0,0,0,0,0,0,0,0,0,-1,1308,603,0,0
91,421,0,0,0,0,0,0,0,0,0,-1,1315,603,0,0
98,421,0,0,0,0,0,0,0,0,0,-1,1322,603,0,0
105,421,0,0,0,0,0,0,0,0,0,-1,1329,603,0,0
112,421,0,0,0,0,0,0,0,0,0,-1,1336,603,0,0
119,421,0,0,0,0,0,0,0,0,0,-1,1343,603,0,0
126,421,0,0,0,0,0,0,0,0,0,-1,1350,603,0,0
133,421,0,0,0,0,0,0,0,0,0,-1,1357,603,0,0
140,421,0,0,0,0,0,0,0,0,0,-1,1364,603,0,0
147,421,0,0,0,0,0,0,0,0,0,-1,1371,603,0,0
154,421,0,0,0,0,0,0,0,0,0,-1,1378,603,0,0
161,421,0,0,0,0,0,0,0,0,0,-1,1385,603,0,0
168,421,0,0,0,0,0,0,0,0,0,-1,1392,603,0,0
175,421,0,0,0,0,0,0,0,0,0,-1,1399,603,0,0
182,421,0,0,0,0,0,0,0,0,0,-1,1406,603,0,0
189,421,0,0,0,0,0,0,0,0,0,-1,1413,603,0,0
196,421,0,0,0,0,0,0,0,0,0,-1,1420,603,0,0
203,421,0,0,0,0,0,0,0,0,0,-1,1427,603,0,0
210,421,0,0,0,0,0,0,0,0,0,-1,1434,603,0,0
217,421,0,0,0,0,0,0,0,0,0,-1,1441,603,0,0
224,421,0,0,0,0,0,0,0,0,0,-1,1448,603,0,0
231,421,0,0,0,0,0,0,0,0,0,-1,1455,603,0,0
238,421,0,0,0,0,0,0,0,0,0,-1,1462,603,0,0
245,421,0,0,0,0,0,0,0,0,0,-1,1469,603,0,0
252,421,0,0,0,0,0,0,0,0,0,-1,1476,603,0,0
259,421,0,0,0,0,0,0,0,0,0,-1,1483,603,0,0
266,421,0,0,0,0,0,0,0,0,0,-1,1490,603,0,0
273,421,0,0,0,0,0,0,0,0,0,-1,1497,603,0,0
280,421,0,0,0,0,0,0,0,0,0,-1,1504,603,0,0
287,421,0,0,0,0,0,0,0,0,0,-1,1511,603,0,0
294,421,0,0,0,0,0,0,0,0,0,-1,1518,603,0,0
301,421,0,0,0,0,0,0,0,0,0,-1,1525,603,0,0
308,421,0,0,0,0,0,0,0,0,0,-1,1532,603,0,0
315,421,0,0,0,0,0,0,0,0,0,-1,1539,603,0,0
322,421,0,0,0,0,0,0,0,0,0,-1,1546,603,0,0
329,421,0,0,0,0,0,0,0,0,0,-1,1553,603,0,0
336,421,0,0,0,0,0,0,0,0,0,-1,1560,603,0,0
343,421,0,0,0,0,0,0,0,0,0,-1,1567,603,0,0
350,421,0,0,0,0,0,0,0,0,0,-1,1574,603,0,0
357,421,0,0,0,0,0,0,0,0,0,-1,1581,603,0,0
364,421,0,0,0,0,0,0,0,0,0,-1,1588,603,0,0
371,421,0,0,0,0,0,0,0,0,0,-1,1595,603,0,0
378,421,0,0,0,0,0,0,0,0,0,-1,1602,603,0,0
385,421,0,0,0,0,0,0,0,0,0,-1,1609,603,0,0
392,421,0,0,0,0,0,0,0,0,0,-1,1616,603,0,0
399,421,0,0,0,0,0,0,0,0,0,-1,1623,603,0,0
406,421,0,0,0,0,0,0,0,0,0,-1,1630,603,0,0
413,421,0,0,0,0,0,0,0,0,0,-1,1637,603,0,0
420,421,0,0,0,0,0,0,0,0,0,-1,1644,603,0,0
427,421,0,0,0,0,0,0,0,0,0,-1,1651,603,0,0
434,421,3.68176,-0.0327759,0,0,0,0,0,0,0,-1,1658,603,3.6818,0.0328037
441,421,8.06689,0.527832,0,0,0,0,0,0,0,-1,1665,603,8.06693,-0.527851
448,421,6.93921,0.802246,0,0,0,0,0,0,0,-1,1672,603,6.93923,-0.802251
455,421,7.29456,2.14825,0,0,0,0,0,0,0,-1,1679,603,7.29461,-2.14827
462,421,7.86902,3.53174,0,0,0,0,0,0,0,-1,1686,603,7.869,-3.53173
469,421,8.06604,2.81213,0,0,0,0,0,0,0,-1,1693,603,8.06606,-2.81212
476,421,8.26306,2.09253,0,0,0,0,0,0,0,-1,1700,603,8.26312,-2.09251
483,421,8.05322,0.798096,0,0,0,0,0,0,0,-1,1707,603,8.05323,-0.7981
490,421,7.51233,0.213074,0,0,0,0,0,0,0,-1,1714,603,7.51235,-0.213043
497,421,7.49634,-2.86688,0,0,0,0,0,0,0,-1,1721,603,7.4963,2.86688
504,421,6.90491,-2.18671,0,0,0,0,0,0,0,-1,1728,603,6.90491,2.18669
511,421,6.31348,-1.50653,0,0,0,0,0,0,0,-1,1735,603,6.31353,1.5065
518,421,6.27588,-2.49878,0,0,0,0,0,0,0,-1,1742,603,6.2759,2.4988
525,421,6.45837,-2.37823,0,0,0,0,0,0,0,-1,1749,603,6.45837,2.37822
532,421,6.53748,-2.09869,0.00199468,0.000785229,0.00117053,0.00270747,7.24437e-05,0.546968,0.00178132,0.0306378,1756,603,6.53748,2.09868
539,421,6.63208,-1.89001,0.00117197,0.000657235,0.000720812,0.00167998,0.000149221,0.613927,0.00107371,0.0203178,1763,603,6.6321,1.88998
546,421,6.62988,-1.69861,0.00066307,0.000557193,0.00037599,0.000989829,0.000230433,0.715459,0.000598061,0.0124568,1770,603,6.62988,1.69859
553,421,6.62659,-1.50189,0.000300022,0.000460196,0.000178918,0.000576134,0.000184085,0.995833,0.000339778,0.0116732,1777,603,6.62653,1.50188
560,421,6.64392,-1.31195,-7.71348e-05,0.000421156,6.65756e-06,0.000421245,-7.72238e-05,1.55744,0.000309796,0.0142847,1784,603,6.64395,1.31198
567,421,6.63855,-1.12006,-0.000355236,0.000263984,-0.000132049,0.000290968,-0.000382219,-1.36923,0.000389853,0.0164123,1791,603,6.63851,1.12007
574,421,6.62073,-0.947021,-0.000444938,0.000138014,-0.000146041,0.000172554,-0.000479478,-1.33856,0.000390105,0.0166162,1798,603,6.62069,0.947022
581,421,6.61292,-0.753784,-0.000678703,1.69747e-05,-0.000225139,8.34778e-05,-0.000745206,-1.28358,0.000526839,0.0144939,1805,603,6.61292,0.753784
588,421,6.59595,-0.584534,-0.000900722,-0.00013968,-0.000265781,-5.605e-05,-0.000984351,-1.26595,0.000638372,0.0110054,1812,603,6.59599,0.584549
595,421,6.61279,-0.376404,-0.000579171,-0.00050912,-0.00041617,-0.000126504,-0.000961787,-0.82738,0.000603459,0.0139776,1819,603,6.61275,0.376373
602,421,6.61194,-0.196289,0.000403048,-0.00167004,-0.000277507,0.000439553,-0.00170655,-0.130794,0.00130905,0.013882,1826,603,6.61199,0.196298
609,421,6.55847,-0.0480347,0.00160872,-0.00255036,-2.85246e-05,0.00160891,-0.00255055,-0.00685797,0.0024219,0.0311748,1833,603,6.55841,0.0480409
616,421,6.80151,0.147583,0,0,0,0,0,0,0,-1,1840,603,6.80146,-0.147563
623,421,6.19885,0.376648,0,0,0,0,0,0,0,-1,1847,603,6.19881,-0.376624
630,421,6.54993,0.778748,0,0,0,0,0,0,0,-1,1854,603,6.54991,-0.778744
637,421,3.74512,1.65405,0,0,0,0,0,0,0,-1,1861,603,3.74517,-1.65407
644,421,3.58081,0.354675,0,0,0,0,0,0,0,-1,1868,603,3.58082,-0.354704
651,421,3.28687,3.66351,0,0,0,0,0,0,0,-1,1875,603,3.28688,-3.66353
658,421,0,0,0,0,0,0,0,0,0,-1,1882,603,0,0
665,421,0,0,0,0,0,0,0,0,0,-1,1889,603,0,0
672,421,0,0,0,0,0,0,0,0,0,-1,1896,603,0,0
679,421,0,0,0,0,0,0,0,0,0,-1,1903,603,0,0
686,421,0,0,0,0,0,0,0,0,0,-1,1910,603,0,0
693,421,0,0,0,0,0,0,0,0,0,-1,1917,603,0,0
700,421,0,0,0,0,0,0,0,0,0,-1,1924,603,0,0
707,421,0,0,0,0,0,0,0,0,0,-1,1931,603,0,0
714,421,0,0,0,0,0,0,0,0,0,-1,1938,603,0,0
721,421,0,0,0,0,0,0,0,0,0,-1,1945,603,0,0
728,421,0,0,0,0,0,0,0,0,0,-1,1952,603,0,0
735,421,0,0,0,0,0,0,0,0,0,-1,1959,603,0,0
742,421,0,0,0,0,0,0,0,0,0,-1,1966,603,0,0
749,421,0,0,0,0,0,0,0,0,0,-1,1973,603,0,0
756,421,0,0,0,0,0,0,0,0,0,-1,1980,603,0,0
763,421,0,0,0,0,0,0,0,0,0,-1,1987,603,0,0
770,421,0,0,0,0,0,0,0,0,0,-1,1994,603,0,0
777,421,0,0,0,0,0,0,0,0,0,-1,2001,603,0,0
784,421,0,0,0,0,0,0,0,0,0,-1,2008,603,0,0
791,421,0,0,0,0,0,0,0,0,0,-1,2015,603,0,0
798,421,0,0,0,0,0,0,0,0,0,-1,2022,603,0,0
805,421,0,0,0,0,0,0,0,0,0,-1,2029,603,0,0
812,421,0,0,0,0,0,0,0,0,0,-1,2036,603,0,0
-700,414,0,0,0,0,0,0,0,0,0,-1,524,610,0,0
-693,414,0,0,0,0,0,0,0,0,0,-1,531,610,0,0
-686,414,0,0,0,0,0,0,0,0,0,-1,538,610,0,0
-679,414,0,0,0,0,0,0,0,0,0,-1,545,610,0,0
-672,414,0,0,0,0,0,0,0,0,0,-1,552,610,0,0
-665,414,0,0,0,0,0,0,0,0,0,-1,559,610,0,0
-658,414,0,0,0,0,0,0,0,0,0,-1,566,610,0,0
-651,414,0,0,0,0,0,0,0,0,0,-1,573,610,0,0
-644,414,0,0,0,0,0,0,0,0,0,-1,580,610,0,0
-637,414,0,0,0,0,0,0,0,0,0,-1,587,610,0,0
-630,414,0,0,0,0,0,0,0,0,0,-1,594,610,0,0
-623,414,0,0,0,0,0,0,0,0,0,-1,601,610,0,0
-616,414,0,0,0,0,0,0,0,0,0,-1,608,610,0,0
-609,414,0,0,0,0,0,0,0,0,0,-1,615,610,0,0
-602,414,0,0,0,0,0,0,0,0,0,-1,622,610,0,0
-595,414,0,0,0,0,0,0,0,0,0,-1,629,610,0,0
-588,414,0,0,0,0,0,0,0,0,0,-1,636,610,0,0
-581,414,0,0,0,0,0,0,0,0,0,-1,643,610,0,0
-574,414,0,0,0,0,0,0,0,0,0,-1,650,610,0,0
-567,414,0,0,0,0,0,0,0,0,0,-1,657,610,0,0
-560,414,0,0,0,0,0,0,0,0,0,-1,664,610,0,0
-553,414,0,0,0,0,0,0,0,0,0,-1,671,610,0,0
-546,414,0,0,0,0,0,0,0,0,0,-1,678,610,0,0
-539,414,-8.2038,6.32764,0,0,0,0,0,0,0,-1,685,610,-8.20379,-6.32766
-532,414,-8.72266,4.98444,0,0,0,0,0,0,0,-1,692,610,-8.72265,-4.98445
-525,414,-9.23834,3.88635,0,0,0,0,0,0,0,-1,699,610,-9.23831,-3.88637
-518,414,-1.94714,-2.97913,0,0,0,0,0,0,0,-1,706,610,-1.94715,2.97911
-511,414,-2.05591,-3.11963,0,0,0,0,0,0,0,-1,713,610,-2.05588,3.1196
-504,414,-2.26416,-2.87775,0,0,0,0,0,0,0,-1,720,610,-2.26415,2.87776
-497,414,-2.24432,-1.16272,0,0,0,0,0,0,0,-1,727,610,-2.2443,1.16274
-490,414,-2.23914,-1.32843,0.013915,-0.0123478,-0.000287158,0.0139181,-0.0123509,-0.0109323,0.0151755,0.0384109,734,610,-2.23914,1.32843
-483,414,-2.23157,-1.54523,0.0101312,-0.00730515,-0.00106174,0.0101956,-0.00736956,-0.0605941,0.0101849,0.0153154,741,610,-2.23158,1.5452
-476,414,-2.26093,-1.73419,0.00739272,-0.00366756,-0.00160009,0.00761955,-0.00389439,-0.140825,0.00676256,0.0101855,748,610,-2.26092,1.73417
-469,414,-2.2746,-1.89185,0.00535511,-0.00139337,-0.00158975,0.00571086,-0.00174912,-0.220149,0.00450492,0.0113074,755,610,-2.27459,1.89187
-462,414,-2.28253,-2.06396,0.00341736,-4.11592e-05,-0.00136739,0.00389266,-0.000516459,-0.334533,0.00278328,0.0203487,762,610,-2.28256,2.06395
-455,414,-2.2627,-2.2666,0.00212792,0.000675575,-0.00126549,0.00286078,-5.72931e-05,-0.524923,0.00192657,0.0225119,769,610,-2.26269,2.2666
-448,414,-2.27783,-2.43536,0.00166124,0.000522648,-0.000775778,0.00205419,0.000129692,-0.46886,0.00132834,0.0222974,776,610,-2.27785,2.43538
-441,414,-2.2702,-2.61493,0.00114647,-0.000357158,-0.000155086,0.0011623,-0.000372987,-0.101714,0.000924624,0.0168419,783,610,-2.27019,2.61491
-434,414,-2.25122,-2.79858,0.000627668,-0.00157458,0.000457993,0.000719117,-0.00166603,0.197082,0.00141278,0.00901002,790,610,-2.25121,2.79858
-427,414,-2.25305,-2.95294,0.000313925,-0.00282611,0.00112067,0.000672862,-0.00318505,0.309963,0.00237958,0.00927003,797,610,-2.25303,2.95294
-420,414,-2.24152,-3.112,0.000315737,-0.00423256,0.00170913,0.000886388,-0.00480322,0.322245,0.00353485,0.0096621,804,610,-2.24149,3.112
-413,414,-2.24103,-3.2915,0.000751534,-0.00600171,0.00180595,0.00120415,-0.00645432,0.245565,0.00475536,0.0102289,811,610,-2.24105,3.29153
-406,414,-2.2442,-3.5155,0.0014911,-0.00736009,0.00169541,0.00180474,-0.00767372,0.182923,0.00581156,0.0152256,818,610,-2.24418,3.51551
-399,414,-2.2597,-3.66211,0.00232134,-0.00929183,0.00126745,0.00245806,-0.00942855,0.107454,0.0072454,0.0207007,825,610,-2.25968,3.66213
-392,414,-2.34216,-3.84607,0.00297762,-0.0115104,0.000838834,0.00302602,-0.0115588,0.0576416,0.00888797,0.0273519,832,610,-2.34216,3.84607
-385,414,-2.42133,-4.15149,0.00440575,-0.0140366,-3.30406e-05,0.00440581,-0.0140367,-0.00179155,0.0111212,0.0430212,839,610,-2.42135,4.15148
-378,414,-2.37189,-4.48889,0,0,0,0,0,0,0,-1,846,610,-2.37189,4.48891
-371,414,-2.45233,-4.96942,0,0,0,0,0,0,0,-1,853,610,-2.45235,4.96941
-364,414,-2.6181,-5.12628,0,0,0,0,0,0,0,-1,860,610,-2.61809,5.12627
-357,414,-2.75079,-5.31049,0,0,0,0,0,0,0,-1,867,610,-2.75081,5.3105
-350,414,-0.729858,-6.09155,0,0,0,0,0,0,0,-1,874,610,-0.729829,6.09153
-343,414,-0.68158,-7.48419,0,0,0,0,0,0,0,-1,881,610,-0.681581,7.4842
-336,414,-3.09222,-1.78766,0,0,0,0,0,0,0,-1,888,610,-3.09222,1.78763
-329,414,-4.73792,-1.55701,0,0,0,0,0,0,0,-1,895,610,-4.73793,1.557
-322,414,-4.42236,-1.29163,0,0,0,0,0,0,0,-1,902,610,-4.42238,1.2916
-315,414,0,0,0,0,0,0,0,0,0,-1,909,610,0,0
-308,414,0,0,0,0,0,0,0,0,0,-1,916,610,0,0
-301,414,0,0,0,0,0,0,0,0,0,-1,923,610,0,0
-294,414,0,0,0,0,0,0,0,0,0,-1,930,610,0,0
-287,414,0,0,0,0,0,0,0,0,0,-1,937,610,0,0
-280,414,0,0,0,0,0,0,0,0,0,-1,944,610,0,0
-273,414,0,0,0,0,0,0,0,0,0,-1,951,610,0,0
-266,414,0,0,0,0,0,0,0,0,0,-1,958,610,0,0
-259,414,0,0,0,0,0,0,0,0,0,-1,965,610,0,0
-252,414,0,0,0,0,0,0,0,0,0,-1,972,610,0,0
-245,414,0,0,0,0,0,0,0,0,0,-1,979,610,0,0
-238,414,0,0,0,0,0,0,0,0,0,-1,986,610,0,0
-231,414,0,0,0,0,0,0,0,0,0,-1,993,610,0,0
-224,414,0,0,0,0,0,0,0,0,0,-1,1000,610,0,0
-217,414,0,0,0,0,0,0,0,0,0,-1,1007,610,0,0
-210,414,0,0,0,0,0,0,0,0,0,-1,1014,610,0,0
-203,414,0,0,0,0,0,0,0,0,0,-1,1021,610,0,0
-196,414,0,0,0,0,0,0,0,0,0,-1,1028,610,0,0
-189,414,0,0,0,0,0,0,0,0,0,-1,1035,610,0,0
-182,414,0,0,0,0,0,0,0,0,0,-1,1042,610,0,0
-175,414,0,0,0,0,0,0,0,0,0,-1,1049,610,0,0
-168,414,0,0,0,0,0,0,0,0,0,-1,1056,610,0,0
-161,414,0,0,0,0,0,0,0,0,0,-1,1063,610,0,0
-154,414,0,0,0,0,0,0,0,0,0,-1,1070,610,0,0
-147,414,0,0,0,0,0,0,0,0,0,-1,1077,610,0,0
-140,414,0,0,0,0,0,0,0,0,0,-1,1084,610,0,0
-133,414,0,0,0,0,0,0,0,0,0,-1,1091,610,0,0
-126,414,0,0,0,0,0,0,0,0,0,-1,1098,610,0,0
-119,414,0,0,0,0,0,0,0,0,0,-1,1105,610,0,0
-112,414,0,0,0,0,0,0,0,0,0,-1,1112,610,0,0
-105,414,0,0,0,0,0,0,0,0,0,-1,1119,610,0,0
-98,414,0,0,0,0,0,0,0,0,0,-1,1126,610,0,0
-91,414,0,0,0,0,0,0,0,0,0,-1,1133,610,0,0
-84,414,0,0,0,0,0,0,0,0,0,-1,1140,610,0,0
-77,414,0,0,0,0,0,0,0,0,0,-1,1147,610,0,0
-70,414,0,0,0,0,0,0,0,0,0,-1,1154,610,0,0
-63,414,0,0,0,0,0,0,0,0,0,-1,1161,610,0,0
-56,414,0,0,0,0,0,0,0,0,0,-1,1168,610,0,0
-49,414,0,0,0,0,0,0,0,0,0,-1,1175,610,0,0
-42,414,0,0,0,0,0,0,0,0,0,-1,1182,610,0,0
-35,414,0,0,0,0,0,0,0,0,0,-1,1189,610,0,0
-28,414,0,0,0,0,0,0,0,0,0,-1,1196,610,0,0
-21,414,0,0,0,0,0,0,0,0,0,-1,1203,610,0,0
-14,414,0,0,0,0,0,0,0,0,0,-1,1210,610,0,0
-7,414,0,0,0,0,0,0,0,0,0,-1,1217,610,0,0
0,414,0,0,0,0,0,0,0,0,0,-1,1224,610,0,0
7,414,0,0,0,0,0,0,0,0,0,-1,1231,610,0,0
14,414,0,0,0,0,0,0,0,0,0,-1,1238,610,0,0
21,414,0,0,0,0,0,0,0,0,0,-1,1245,610,0,0
28,414,0,0,0,0,0,0,0,0,0,-1,1252,610,0,0
35,414,0,0,0,0,0,0,0,0,0,-1,1259,610,0,0
42,414,0,0,0,0,0,0,0,0,0,-1,1266,610,0,0
49,414,0,0,0,0,0,0,0,0,0,-1,1273,610,0,0
56,414,0,0,0,0,0,0,0,0,0,-1,1280,610,0,0
63,414,0,0,0,0,0,0,0,0,0,-1,1287,610,0,0
70,414,0,0,0,0,0,0,0,0,0,-1,1294,610,0,0
77,414,0,0,0,0,0,0,0,0,0,-1,1301,610,0,0
84,414,0,0,0,0,0,0,0,0,0,-1,1308,610,0,0
91,414,0,0,0,0,0,0,0,0,0,-1,1315,610,0,0
98,414,0,0,0,0,0,0,0,0,0,-1,1322,610,0,0
105,414,0,0,0,0,0,0,0,0,0,-1,1329,610,0,0
112,414,0,0,0,0,0,0,0,0,0,-1,1336,610,0,0
119,414,0,0,0,0,0,0,0,0,0,-1,1343,610,0,0
126,414,0,0,0,0,0,0,0,0,0,-1,1350,610,0,0
133,414,0,0,0,0,0,0,0,0,0,-1,1357,610,0,0
140,414,0,0,0,0,0,0,0,0,0,-1,1364,610,0,0
147,414,0,0,0,0,0,0,0,0,0,-1,1371,610,0,0
154,414,0,0,0,0,0,0,0,0,0,-1,1378,610,0,0
161,414,0,0,0,0,0,0,0,0,0,-1,1385,610,0,0
168,414,0,0,0,0,0,0,0,0,0,-1,1392,610,0,0
175,414,0,0,0,0,0,0,0,0,0,-1,1399,610,0,0
182,414,0,0,0,0,0,0,0,0,0,-1,1406,610,0,0
189,414,0,0,0,0,0,0,0,0,0,-1,1413,610,0,0
196,414,0,0,0,0,0,0,0,0,0,-1,1420,610,0,0
203,414,0,0,0,0,0,0,0,0,0,-1,1427,610,0,0
210,414,0,0,0,0,0,0,0,0,0,-1,1434,610,0,0
217,414,0,0,0,0,0,0,0,0,0,-1,1441,610,0,0
224,414,0,0,0,0,0,0,0,0,0,-1,1448,610,0,0
231,414,0,0,0,0,0,0,0,0,0,-1,1455,610,0,0
238,414,0,0,0,0,0,0,0,0,0,-1,1462,610,0,0
245,414,0,0,0,0,0,0,0,0,0,-1,1469,610,0,0
252,414,0,0,0,0,0,0,0,0,0,-1,1476,610,0,0
259,414,0,0,0,0,0,0,0,0,0,-1,1483,610,0,0
266,414,0,0,0,0,0,0,0,0,0,-1,1490,610,0,0
273,414,0,0,0,0,0,0,0,0,0,-1,1497,610,0,0
280,414,0,0,0,0,0,0,0,0,0,-1,1504,610,0,0
287,414,0,0,0,0,0,0,0,0,0,-1,1511,610,0,0
294,414,0,0,0,0,0,0,0,0,0,-1,1518,610,0,0
301,414,0,0,0,0,0,0,0,0,0,-1,1525,610,0,0
308,414,0,0,0,0,0,0,0,0,0,-1,1532,610,0,0
315,414,0,0,0,0,0,0,0,0,0,-1,1539,610,0,0
322,414,0,0,0,0,0,0,0,0,0,-1,1546,610,0,0
329,414,0,0,0,0,0,0,0,0,0,-1,1553,610,0,0
336,414,0,0,0,0,0,0,0,0,0,-1,1560,610,0,0
343,414,0,0,0,0,0,0,0,0,0,-1,1567,610,0,0
350,414,0,0,0,0,0,0,0,0,0,-1,1574,610,0,0
357,414,0,0,0,0,0,0,0,0,0,-1,1581,610,0,0
364,414,0,0,0,0,0,0,0,0,0,-1,1588,610,0,0
371,414,0,0,0,0,0,0,0,0,0,-1,1595,610,0,0
378,414,0,0,0,0,0,0,0,0,0,-1,1602,610,0,0
385,414,0,0,0,0,0,0,0,0,0,-1,1609,610,0,0
392,414,0,0,0,0,0,0,0,0,0,-1,1616,610,0,0
399,414,0,0,0,0,0,0,0,0,0,-1,1623,610,0,0
406,414,0,0,0,0,0,0,0,0,0,-1,1630,610,0,0
413,414,0,0,0,0,0,0,0,0,0,-1,1637,610,0,0
420,414,0,0,0,0,0,0,0,0,0,-1,1644,610,0,0
427,414,0,0,0,0,0,0,0,0,0,-1,1651,610,0,0
434,414,0,0,0,0,0,0,0,0,0,-1,1658,610,0,0
441,414,7.84375,0.584412,0,0,0,0,0,0,0,-1,1665,610,7.84379,-0.584394
448,414,7.40808,1.25446,0,0,0,0,0,0,0,-1,1672,610,7.40807,-1.25446
455,414,6.3512,1.73846,0,0,0,0,0,0,0,-1,1679,610,6.3512,-1.73847
462,414,8.18103,3.22113,0,0,0,0,0,0,0,-1,1686,610,8.18108,-3.22112
469,414,8.38513,2.49579,0,0,0,0,0,0,0,-1,1693,610,8.38516,-2.49576
476,414,8.64099,1.71161,0,0,0,0,0,0,0,-1,1700,610,8.64097,-1.71164
483,414,8.62744,0.687622,0,0,0,0,0,0,0,-1,1707,610,8.62749,-0.687615
490,414,8.38831,-0.0302734,0,0,0,0,0,0,0,-1,1714,610,8.38835,0.0302913
497,414,4.71094,-0.110046,0,0,0,0,0,0,0,-1,1721,610,4.71089,0.110024
504,414,7.19568,-1.43835,0,0,0,0,0,0,0,-1,1728,610,7.19563,1.43836
511,414,5.94153,-1.28772,0,0,0,0,0,0,0,-1,1735,610,5.94151,1.28769
518,414,4.53381,-0.0996704,0,0,0,0,0,0,0,-1,1742,610,4.53378,0.0996819
525,414,6.18811,-1.64056,0,0,0,0,0,0,0,-1,1749,610,6.18814,1.64055
532,414,6.71863,-2.2771,0,0,0,0,0,0,0,-1,1756,610,6.71858,2.27711
539,414,6.78735,-1.96698,6.05397e-05,0.00171479,0.000580621,0.00189824,-0.000122908,1.26477,0.00130839,0.0303832,1763,610,6.78741,1.96699
546,414,6.81189,-1.69727,-0.000375567,0.00156501,0.000205436,0.00158652,-0.000397077,1.46647,0.00121192,0.0121147,1770,610,6.81183,1.69729
553,414,6.81421,-1.50525,-0.000562184,0.00133413,4.76523e-05,0.00133533,-0.000563381,1.54569,0.00112601,0.0116528,1777,610,6.81426,1.50522
560,414,6.83179,-1.30853,-0.000777365,0.00119174,-9.01729e-05,0.00119586,-0.000781486,-1.52513,0.00114994,0.0138614,1784,610,6.8318,1.30853
567,414,6.83838,-1.11353,-0.000887712,0.000935763,-0.000196222,0.000956639,-0.000908588,-1.4648,0.00107701,0.0234357,1791,610,6.83838,1.11355
574,414,6.81067,-0.926697,-0.000764832,0.000651471,-0.000184537,0.00067512,-0.000788481,-1.44334,0.000845855,0.019423,1798,610,6.81063,0.926671
581,414,6.81689,-0.739624,-0.000740052,0.000371206,-0.000237785,0.000419948,-0.000788795,-1.36861,0.000708616,0.0150684,1805,610,6.81686,0.739613
588,414,6.79517,-0.589539,-0.000695799,5.6705e-05,-0.000261121,0.000138437,-0.000777531,-1.26745,0.00057013,0.0151476,1812,610,6.79519,0.589526
595,414,6.80615,-0.355591,-8.24188e-05,-0.000445059,-0.000396988,0.000172698,-0.000700175,-0.571176,0.000533745,0.0201531,1819,610,6.80611,0.355601
602,414,6.81226,-0.155701,0.00118359,-0.0016558,-0.000218267,0.00120027,-0.00167248,-0.0762739,0.00166604,0.0217526,1826,610,6.81226,0.155695
609,414,6.75208,-0.00701904,0.00253284,-0.00245795,6.4228e-05,0.00253366,-0.00245878,0.0128665,0.00288249,0.021298,1833,610,6.75203,0.00704155
616,414,6.86133,-0.0169678,0.00457834,-0.00345984,0.000471828,0.00460594,-0.00348744,0.0584309,0.00468756,0.0389831,1840,610,6.86134,0.0169764
623,414,7.19141,0.389771,0,0,0,0,0,0,0,-1,1847,610,7.19145,-0.389764
630,414,5.47144,0.499329,0,0,0,0,0,0,0,-1,1854,610,5.47142,-0.499303
637,414,6.57898,2.38019,0,0,0,0,0,0,0,-1,1861,610,6.579,-2.38019
644,414,5.87073,1.51422,0,0,0,0,0,0,0,-1,1868,610,5.87076,-1.51424
651,414,3.6377,0.820557,0,0,0,0,0,0,0,-1,1875,610,3.6377,-0.820543
658,414,2.29761,3.87323,0,0,0,0,0,0,0,-1,1882,610,2.29758,-3.87325
665,414,0,0,0,0,0,0,0,0,0,-1,1889,610,0,0
672,414,0,0,0,0,0,0,0,0,0,-1,1896,610,0,0
679,414,0,0,0,0,0,0,0,0,0,-1,1903,610,0,0
686,414,0,0,0,0,0,0,0,0,0,-1,1910,610,0,0
693,414,0,0,0,0,0,0,0,0,0,-1,1917,610,0,0
700,414,0,0,0,0,0,0,0,0,0,-1,1924,610,0,0
707,414,0,0,0,0,0,0,0,0,0,-1,1931,610,0,0
714,414,0,0,0,0,0,0,0,0,0,-1,1938,610,0,0
721,414,0,0,0,0,0,0,0,0,0,-1,1945,610,0,0
728,414,0,0,0,0,0,0,0,0,0,-1,1952,610,0,0
735,414,0,0,0,0,0,0,0,0,0,-1,1959,610,0,0
742,414,0,0,0,0,0,0,0,0,0,-1,1966,610,0,0
749,414,0,0,0,0,0,0,0,0,0,-1,1973,610,0,0
756,414,0,0,0,0,0,0,0,0,0,-1,1980,610,0,0
763,414,0,0,0,0,0,0,0,0,0,-1,1987,610,0,0
770,414,0,0,0,0,0,0,0,0,0,-1,1994,610,0,0
777,414,0,0,0,0,0,0,0,0,0,-1,2001,610,0,0
784,414,0,0,0,0,0,0,0,0,0,-1,2008,610,0,0
791,414,0,0,0,0,0,0,0,0,0,-1,2015,610,0,0
798,414,0,0,0,0,0,0,0,0,0,-1,2022,610,0,0
805,414,0,0,0,0,0,0,0,0,0,-1,2029,610,0,0
812,414,0,0,0,0,0,0,0,0,0,-1,2036,610,0,0
-700,407,0,0,0,0,0,0,0,0,0,-1,524,617,0,0
-693,407,0,0,0,0,0,0,0,0,0,-1,531,617,0,0
-686,407,0,0,0,0,0,0,0,0,0,-1,538,617,0,0
-679,407,0,0,0,0,0,0,0,0,0,-1,545,617,0,0
-672,407,0,0,0,0,0,0,0,0,0,-1,552,617,0,0
-665,407,0,0,0,0,0,0,0,0,0,-1,559,617,0,0
-658,407,0,0,0,0,0,0,0,0,0,-1,566,617,0,0
-651,407,0,0,0,0,0,0,0,0,0,-1,573,617,0,0
-644,407,0,0,0,0,0,0,0,0,0,-1,580,617,0,0
-637,407,0,0,0,0,0,0,0,0,0,-1,587,617,0,0
-630,407,0,0,0,0,0,0,0,0,0,-1,594,617,0,0
-623,407,0,0,0,0,0,0,0,0,0,-1,601,617,0,0
-616,407,0,0,0,0,0,0,0,0,0,-1,608,617,0,0
-609,407,0,0,0,0,0,0,0,0,0,-1,615,617,0,0
-602,407,0,0,0,0,0,0,0,0,0,-1,622,617,0,0
-595,407,0,0,0,0,0,0,0,0,0,-1,629,617,0,0
-588,407,0,0,0,0,0,0,0,0,0,-1,636,617,0,0
-581,407,0,0,0,0,0,0,0,0,0,-1,643,617,0,0
-574,407,0,0,0,0,0,0,0,0,0,-1,650,617,0,0
-567,407,0,0,0,0,0,0,0,0,0,-1,657,617,0,0
-560,407,0,0,0,0,0,0,0,0,0,-1,664,617,0,0
-553,407,0,0,0,0,0,0,0,0,0,-1,671,617,0,0
-546,407,-6.47162,6.6189,0,0,0,0,0,0,0,-1,678,617,-6.47164,-6.61892
-539,407,-6.94537,5.34058,0,0,0,0,0,0,0,-1,685,617,-6.9454,-5.34059
-532,407,-7.50598,4.08948,0,0,0,0,0,0,0,-1,692,617,-7.50599,-4.0895
-525,407,-8.14691,2.68494,0,0,0,0,0,0,0,-1,699,617,-8.14691,-2.68496
-518,407,-2.35046,-2.44495,0,0,0,0,0,0,0,-1,706,617,-2.35046,2.44492
-511,407,-2.36707,-2.30524,0.0258993,-0.0302646,0.00269531,0.0260283,-0.0303937,0.0478434,0.0326077,0.0487112,713,617,-2.36707,2.30526
-504,407,-2.35718,-2.29303,0.0198389,-0.0217782,0.0020963,0.0199442,-0.0218835,0.0502017,0.0241579,0.0476612,720,617,-2.3572,2.29305
-497,407,-2.54724,-1.68536,0.0153402,-0.0155455,0.00118198,0.0153854,-0.0155907,0.038195,0.0178842,0.0377941,727,617,-2.54723,1.68536
-490,407,-2.40692,-1.41962,0.0114118,-0.0107485,0.000443918,0.0114207,-0.0107574,0.0200214,0.0128064,0.0198731,734,617,-2.40693,1.41964
-483,407,-2.3996,-1.54779,0.00831924,-0.00677584,-0.000181304,0.00832142,-0.00677801,-0.0120085,0.00873283,0.010668,741,617,-2.39959,1.5478
-476,407,-2.41498,-1.71173,0.00606386,-0.0038607,-0.000661304,0.00610773,-0.00390457,-0.0662428,0.00582707,0.00922272,748,617,-2.41498,1.71173
-469,407,-2.43109,-1.87543,0.00435479,-0.00199486,-0.00065048,0.00442074,-0.00206081,-0.101045,0.00382391,0.0116721,755,617,-2.43112,1.8754
-462,407,-2.46191,-2.05835,0.00262366,-0.000848454,-0.000468101,0.00268566,-0.000910455,-0.131685,0.0021589,0.018207,762,617,-2.4619,2.05834
-455,407,-2.44714,-2.25854,0.00158407,-0.000362151,-0.000422398,0.00167179,-0.000449872,-0.204764,0.00129089,0.0196423,769,617,-2.44713,2.25857
-448,407,-2.41486,-2.42944,0.00125802,-0.000588088,5.15182e-05,0.00125945,-0.000589525,0.0278775,0.00109061,0.016756,776,617,-2.41485,2.42944
-441,407,-2.41296,-2.58643,0.000834192,-0.00156164,0.000656825,0.00100245,-0.00172989,0.250771,0.00159605,0.0132037,783,617,-2.41297,2.58643
-434,407,-2.41986,-2.75537,0.000361019,-0.00290388,0.00127184,0.000797981,-0.00334084,0.330933,0.00253543,0.00895838,790,617,-2.41988,2.75538
-427,407,-2.42212,-2.93652,5.20193e-05,-0.00435211,0.00198923,0.000817467,-0.00511756,0.367331,0.0037143,0.00956861,797,617,-2.42212,2.93653
-420,407,-2.40564,-3.10736,2.448e-05,-0.00598903,0.00263647,0.00101667,-0.00698122,0.359938,0.00502742,0.0102713,804,617,-2.40565,3.10737
-413,407,-2.38287,-3.2749,0.000432304,-0.00806367,0.00276417,0.00125245,-0.00888382,0.288434,0.00638113,0.0108938,811,617,-2.3829,3.27488
-406,407,-2.37701,-3.38928,0.00107904,-0.00982944,0.002704,0.00171252,-0.0104629,0.230125,0.00761062,0.0193587,818,617,-2.37699,3.38927
-399,407,-2.2923,-3.48761,0.00179821,-0.0122668,0.00230897,0.00216756,-0.0126362,0.158619,0.00923186,0.0343411,825,617,-2.29231,3.4876
-392,407,-2.19415,-3.60974,0.00235162,-0.0150733,0.00184293,0.00254441,-0.0152661,0.104228,0.0111229,0.0448003,832,617,-2.19418,3.60973
-385,407,-2.31555,-3.87238,0.00372762,-0.0184136,0.000784588,0.00375538,-0.0184414,0.0353765,0.0137185,0.0468299,839,617,-2.31554,3.87238
-378,407,-2.38281,-4.11792,0,0,0,0,0,0,0,-1,846,617,-2.38281,4.11792
-371,407,-2.8996,-4.97571,0,0,0,0,0,0,0,-1,853,617,-2.89963,4.97573
-364,407,-3.09723,-5.1662,0,0,0,0,0,0,0,-1,860,617,-3.09725,5.16619
-357,407,-2.9917,-3.28107,0,0,0,0,0,0,0,-1,867,617,-2.99171,3.28106
-350,407,-1.05005,-4.43396,0,0,0,0,0,0,0,-1,874,617,-1.05007,4.43393
-343,407,-0.408447,-6.80444,0,0,0,0,0,0,0,-1,881,617,-0.408437,6.80447
-336,407,-0.174316,-8.50122,0,0,0,0,0,0,0,-1,888,617,-0.17432,8.50119
-329,407,-0.549561,-0.736267,0,0,0,0,0,0,0,-1,895,617,-0.549544,0.736255
-322,407,0,0,0,0,0,0,0,0,0,-1,902,617,0,0
-315,407,0,0,0,0,0,0,0,0,0,-1,909,617,0,0
-308,407,0,0,0,0,0,0,0,0,0,-1,916,617,0,0
-301,407,0,0,0,0,0,0,0,0,0,-1,923,617,0,0
-294,407,0,0,0,0,0,0,0,0,0,-1,930,617,0,0
-287,407,0,0,0,0,0,0,0,0,0,-1,937,617,0,0
-280,407,0,0,0,0,0,0,0,0,0,-1,944,617,0,0
-273,407,0,0,0,0,0,0,0,0,0,-1,951,617,0,0
-266,407,0,0,0,0,0,0,0,0,0,-1,958,617,0,0
-259,407,0,0,0,0,0,0,0,0,0,-1,965,617,0,0
-252,407,0,0,0,0,0,0,0,0,0,-1,972,617,0,0
-245,407,0,0,0,0,0,0,0,0,0,-1,979,617,0,0
-238,407,0,0,0,0,0,0,0,0,0,-1,986,617,0,0
-231,407,0,0,0,0,0,0,0,0,0,-1,993,617,0,0
-224,407,0,0,0,0,0,0,0,0,0,-1,1000,617,0,0
-217,407,0,0,0,0,0,0,0,0,0,-1,1007,617,0,0
-210,407,0,0,0,0,0,0,0,0,0,-1,1014,617,0,0
-203,407,0,0,0,0,0,0,0,0,0,-1,1021,617,0,0
-196,407,0,0,0,0,0,0,0,0,0,-1,1028,617,0,0
-189,407,0,0,0,0,0,0,0,0,0,-1,1035,617,0,0
-182,407,0,0,0,0,0,0,0,0,0,-1,1042,617,0,0
-175,407,0,0,0,0,0,0,0,0,0,-1,1049,617,0,0
-168,407,0,0,0,0,0,0,0,0,0,-1,1056,617,0,0
-161,407,0,0,0,0,0,0,0,0,0,-1,1063,617,0,0
-154,407,0,0,0,0,0,0,0,0,0,-1,1070,617,0,0
-147,407,0,0,0,0,0,0,0,0,0,-1,1077,617,0,0
-140,407,0,0,0,0,0,0,0,0,0,-1,1084,617,0,0
-133,407,0,0,0,0,0,0,0,0,0,-1,1091,617,0,0
-126,407,0,0,0,0,0,0,0,0,0,-1,1098,617,0,0
-119,407,0,0,0,0,0,0,0,0,0,-1,1105,617,0,0
-112,407,0,0,0,0,0,0,0,0,0,-1,1112,617,0,0
-105,407,0,0,0,0,0,0,0,0,0,-1,1119,617,0,0
-98,407,0,0,0,0,0,0,0,0,0,-1,1126,617,0,0
-91,407,0,0,0,0,0,0,0,0,0,-1,1133,617,0,0
-84,407,0,0,0,0,0,0,0,0,0,-1,1140,617,0,0
-77,407,0,0,0,0,0,0,0,0,0,-1,1147,617,0,0
-70,407,0,0,0,0,0,0,0,0,0,-1,1154,617,0,0
-63,407,0,0,0,0,0,0,0,0,0,-1,1161,617,0,0
-56,407,0,0,0,0,0,0,0,0,0,-1,1168,617,0,0
-49,407,0,0,0,0,0,0,0,0,0,-1,1175,617,0,0
-42,407,0,0,0,0,0,0,0,0,0,-1,1182,617,0,0
-35,407,0,0,0,0,0,0,0,0,0,-1,1189,617,0,0
-28,407,0,0,0,0,0,0,0,0,0,-1,1196,617,0,0
-21,407,0,0,0,0,0,0,0,0,0,-1,1203,617,0,0
-14,407,0,0,0,0,0,0,0,0,0,-1,1210,617,0,0
-7,407,0,0,0,0,0,0,0,0,0,-1,1217,617,0,0
0,407,0,0,0,0,0,0,0,0,0,-1,1224,617,0,0
7,407,0,0,0,0,0,0,0,0,0,-1,1231,617,0,0
14,407,0,0,0,0,0,0,0,0,0,-1,1238,617,0,0
21,407,0,0,0,0,0,0,0,0,0,-1,1245,617,0,0
28,407,0,0,0,0,0,0,0,0,0,-1,1252,617,0,0
35,407,0,0,0,0,0,0,0,0,0,-1,1259,617,0,0
42,407,0,0,0,0,0,0,0,0,0,-1,1266,617,0,0
49,407,0,0,0,0,0,0,0,0,0,-1,1273,617,0,0
56,407,0,0,0,0,0,0,0,0,0,-1,1280,617,0,0
63,407,0,0,0,0,0,0,0,0,0,-1,1287,617,0,0
70,407,0,0,0,0,0,0,0,0,0,-1,1294,617,0,0
77,407,0,0,0,0,0,0,0,0,0,-1,1301,617,0,0
84,407,0,0,0,0,0,0,0,0,0,-1,1308,617,0,0
91,407,0,0,0,0,0,0,0,0,0,-1,1315,617,0,0
98,407,0,0,0,0,0,0,0,0,0,-1,1322,617,0,0
105,407,0,0,0,0,0,0,0,0,0,-1,1329,617,0,0
112,407,0,0,0,0,0,0,0,0,0,-1,1336,617,0,0
119,407,0,0,0,0,0,0,0,0,0,-1,1343,617,0,0
126,407,0,0,0,0,0,0,0,0,0,-1,1350,617,0,0
133,407,0,0,0,0,0,0,0,0,0,-1,1357,617,0,0
140,407,0,0,0,0,0,0,0,0,0,-1,1364,617,0,0
147,407,0,0,0,0,0,0,0,0,0,-1,1371,617,0,0
154,407,0,0,0,0,0,0,0,0,0,-1,1378,617,0,0
161,407,0,0,0,0,0,0,0,0,0,-1,1385,617,0,0
168,407,0,0,0,0,0,0,0,0,0,-1,1392,617,0,0
175,407,0,0,0,0,0,0,0,0,0,-1,1399,617,0,0
182,407,0,0,0,0,0,0,0,0,0,-1,1406,617,0,0
189,407,0,0,0,0,0,0,0,0,0,-1,1413,617,0,0
196,407,0,0,0,0,0,0,0,0,0,-1,1420,617,0,0
203,407,0,0,0,0,0,0,0,0,0,-1,1427,617,0,0
210,407,0,0,0,0,0,0,0,0,0,-1,1434,617,0,0
217,407,0,0,0,0,0,0,0,0,0,-1,1441,617,0,0
224,407,0,0,0,0,0,0,0,0,0,-1,1448,617,0,0
231,407,0,0,0,0,0,0,0,0,0,-1,1455,617,0,0
238,407,0,0,0,0,0,0,0,0,0,-1,1462,617,0,0
245,407,0,0,0,0,0,0,0,0,0,-1,1469,617,0,0
252,407,0,0,0,0,0,0,0,0,0,-1,1476,617,0,0
259,407,0,0,0,0,0,0,0,0,0,-1,1483,617,0,0
266,407,0,0,0,0,0,0,0,0,0,-1,1490,617,0,0
273,407,0,0,0,0,0,0,0,0,0,-1,1497,617,0,0
280,407,0,0,0,0,0,0,0,0,0,-1,1504,617,0,0
287,407,0,0,0,0,0,0,0,0,0,-1,1511,617,0,0
294,407,0,0,0,0,0,0,0,0,0,-1,1518,617,0,0
301,407,0,0,0,0,0,0,0,0,0,-1,1525,617,0,0
308,407,0,0,0,0,0,0,0,0,0,-1,1532,617,0,0
315,407,0,0,0,0,0,0,0,0,0,-1,1539,617,0,0
322,407,0,0,0,0,0,0,0,0,0,-1,1546,617,0,0
329,407,0,0,0,0,0,0,0,0,0,-1,1553,617,0,0
336,407,0,0,0,0,0,0,0,0,0,-1,1560,617,0,0
343,407,0,0,0,0,0,0,0,0,0,-1,1567,617,0,0
350,407,0,0,0,0,0,0,0,0,0,-1,1574,617,0,0
357,407,0,0,0,0,0,0,0,0,0,-1,1581,617,0,0
364,407,0,0,0,0,0,0,0,0,0,-1,1588,617,0,0
371,407,0,0,0,0,0,0,0,0,0,-1,1595,617,0,0
378,407,0,0,0,0,0,0,0,0,0,-1,1602,617,0,0
385,407,0,0,0,0,0,0,0,0,0,-1,1609,617,0,0
392,407,0,0,0,0,0,0,0,0,0,-1,1616,617,0,0
399,407,0,0,0,0,0,0,0,0,0,-1,1623,617,0,0
406,407,0,0,0,0,0,0,0,0,0,-1,1630,617,0,0
413,407,0,0,0,0,0,0,0,0,0,-1,1637,617,0,0
420,407,0,0,0,0,0,0,0,0,0,-1,1644,617,0,0
427,407,0,0,0,0,0,0,0,0,0,-1,1651,617,0,0
434,407,0,0,0,0,0,0,0,0,0,-1,1658,617,0,0
441,407,0,0,0,0,0,0,0,0,0,-1,1665,617,0,0
448,407,7.02893,2.13843,0,0,0,0,0,0,0,-1,1672,617,7.02899,-2.13844
455,407,7.55237,2.29242,0,0,0,0,0,0,0,-1,1679,617,7.55236,-2.29244
462,407,8.2926,2.46173,0,0,0,0,0,0,0,-1,1686,617,8.29261,-2.46174
469,407,8.71509,2.22681,0,0,0,0,0,0,0,-1,1693,617,8.71511,-2.22681
476,407,8.89917,1.47766,0,0,0,0,0,0,0,-1,1700,617,8.89914,-1.47768
483,407,9.02612,0.682983,0,0,0,0,0,0,0,-1,1707,617,9.02608,-0.683004
490,407,9.12659,0.000671387,0,0,0,0,0,0,0,-1,1714,617,9.12653,-0.000675931
497,407,7.76819,0.855835,0,0,0,0,0,0,0,-1,1721,617,7.7682,-0.855865
504,407,4.69336,0.160706,0,0,0,0,0,0,0,-1,1728,617,4.69337,-0.1607
511,407,4.07104,-0.00140381,0,0,0,0,0,0,0,-1,1735,617,4.07109,0.00141425
518,407,6.09534,1.9411,0,0,0,0,0,0,0,-1,1742,617,6.09532,-1.94113
525,407,5.72534,-1.35986,0,0,0,0,0,0,0,-1,1749,617,5.72529,1.35988
532,407,7.04895,-2.15918,0,0,0,0,0,0,0,-1,1756,617,7.04893,2.15921
539,407,7.02112,-1.9046,-0.00170746,0.00265216,0.000108849,0.00265487,-0.00171018,1.54585,0.00253976,0.0480712,1763,617,7.02113,1.90462
546,407,6.98926,-1.69611,-0.00200433,0.00244465,-0.000258115,0.00245958,-0.00201925,-1.51304,0.00259002,0.0127304,1770,617,6.98921,1.69613
553,407,6.98853,-1.49286,-0.00196241,0.00207914,-0.000344299,0.00210826,-0.00199153,-1.48642,0.00236734,0.0133596,1777,617,6.98856,1.49288
560,407,7.01477,-1.27386,-0.00197422,0.0018474,-0.000412623,0.00189144,-0.00201826,-1.46446,0.00225766,0.0138136,1784,617,7.01471,1.27386
567,407,6.98572,-1.13751,-0.00188864,0.00153605,-0.000449123,0.00159397,-0.00194656,-1.44254,0.0020475,0.0260249,1791,617,6.98578,1.13753
574,407,6.98767,-0.965881,-0.0015344,0.00115214,-0.000377071,0.00120406,-0.00158632,-1.43396,0.00161606,0.0226726,1798,617,6.98762,0.965882
581,407,7.01086,-0.719849,-0.00122886,0.000794884,-0.000356107,0.000855718,-0.00128969,-1.4016,0.00124707,0.0160344,1805,617,7.01086,0.719858
588,407,6.99658,-0.566345,-0.000904345,0.00042274,-0.000310339,0.000491726,-0.000973332,-1.35206,0.000860951,0.0109908,1812,617,6.99659,0.566327
595,407,7.02271,-0.389465,-2.76338e-05,-0.00010191,-0.000374444,0.00031151,-0.000441054,-0.735969,0.000436633,0.0206366,1819,617,7.02266,0.389485
602,407,7.0509,-0.180359,0.00145196,-0.00124088,-0.000106549,0.00145617,-0.00124509,-0.0394854,0.00156116,0.0169698,1826,617,7.05086,0.180368
609,407,7.00671,0.0331421,0.00289117,-0.001918,0.000255634,0.00290472,-0.00193155,0.0529566,0.002811,0.0144379,1833,617,7.00676,-0.0331513
616,407,7.02356,0.305969,0.00483102,-0.00281256,0.000657374,0.00488714,-0.00286869,0.08517,0.0045281,0.0220278,1840,617,7.02354,-0.30598
623,407,7.18823,0.530151,0.00751148,-0.0039305,0.00110509,0.00761723,-0.00403625,0.0954068,0.00683321,0.0442655,1847,617,7.18827,-0.530141
630,407,7.41553,0.645447,0,0,0,0,0,0,0,-1,1854,617,7.4155,-0.645453
637,407,6.27808,1.17114,0,0,0,0,0,0,0,-1,1861,617,6.27803,-1.17116
644,407,5.09766,2.27747,0,0,0,0,0,0,0,-1,1868,617,5.09764,-2.27746
651,407,7.7561,0.538757,0,0,0,0,0,0,0,-1,1875,617,7.75608,-0.538749
658,407,3.76685,0.594177,0,0,0,0,0,0,0,-1,1882,617,3.76683,-0.594184
665,407,5.76123,0.375061,0,0,0,0,0,0,0,-1,1889,617,5.76118,-0.37509
672,407,0,0,0,0,0,0,0,0,0,-1,1896,617,0,0
679,407,0,0,0,0,0,0,0,0,0,-1,1903,617,0,0
686,407,0,0,0,0,0,0,0,0,0,-1,1910,617,0,0
693,407,0,0,0,0,0,0,0,0,0,-1,1917,617,0,0
700,407,0,0,0,0,0,0,0,0,0,-1,1924,617,0,0
707,407,0,0,0,0,0,0,0,0,0,-1,1931,617,0,0
714,407,0,0,0,0,0,0,0,0,0,-1,1938,617,0,0
721,407,0,0,0,0,0,0,0,0,0,-1,1945,617,0,0
728,407,0,0,0,0,0,0,0,0,0,-1,1952,617,0,0
735,407,0,0,0,0,0,0,0,0,0,-1,1959,617,0,0
742,407,0,0,0,0,0,0,0,0,0,-1,1966,617,0,0
749,407,0,0,0,0,0,0,0,0,0,-1,1973,617,0,0
756,407,0,0,0,0,0,0,0,0,0,-1,1980,617,0,0
763,407,0,0,0,0,0,0,0,0,0,-1,1987,617,0,0
770,407,0,0,0,0,0,0,0,0,0,-1,1994,617,0,0
777,407,0,0,0,0,0,0,0,0,0,-1,2001,617,0,0
784,407,0,0,0,0,0,0,0,0,0,-1,2008,617,0,0
791,407,0,0,0,0,0,0,0,0,0,-1,2015,617,0,0
798,407,0,0,0,0,0,0,0,0,0,-1,2022,617,0,0
805,407,0,0,0,0,0,0,0,0,0,-1,2029,617,0,0
812,407,0,0,0,0,0,0,0,0,0,-1,2036,617,0,0
-700,400,0,0,0,0,0,0,0,0,0,-1,524,624,0,0
-693,400,0,0,0,0,0,0,0,0,0,-1,531,624,0,0
-686,400,0,0,0,0,0,0,0,0,0,-1,538,624,0,0
-679,400,0,0,0,0,0,0,0,0,0,-1,545,624,0,0
-672,400,0,0,0,0,0,0,0,0,0,-1,552,624,0,0
-665,400,0,0,0,0,0,0,0,0,0,-1,559,624,0,0
-658,400,0,0,0,0,0,0,0,0,0,-1,566,624,0,0
-651,400,0,0,0,0,0,0,0,0,0,-1,573,624,0,0
-644,400,0,0,0,0,0,0,0,0,0,-1,580,624,0,0
-637,400,0,0,0,0,0,0,0,0,0,-1,587,624,0,0
-630,400,0,0,0,0,0,0,0,0,0,-1,594,624,0,0
-623,400,0,0,0,0,0,0,0,0,0,-1,601,624,0,0
-616,400,0,0,0,0,0,0,0,0,0,-1,608,624,0,0
-609,400,0,0,0,0,0,0,0,0,0,-1,615,624,0,0
-602,400,0,0,0,0,0,0,0,0,0,-1,622,624,0,0
-595,400,0,0,0,0,0,0,0,0,0,-1,629,624,0,0
-588,400,0,0,0,0,0,0,0,0,0,-1,636,624,0,0
-581,400,0,0,0,0,0,0,0,0,0,-1,643,624,0,0
-574,400,0,0,0,0,0,0,0,0,0,-1,650,624,0,0
-567,400,0,0,0,0,0,0,0,0,0,-1,657,624,0,0
-560,400,0,0,0,0,0,0,0,0,0,-1,664,624,0,0
-553,400,0,0,0,0,0,0,0,0,0,-1,671,624,0,0
-546,400,-5.37708,0.118958,0,0,0,0,0,0,0,-1,678,624,-5.37707,-0.118948
-539,400,-5.73517,4.28027,0,0,0,0,0,0,0,-1,685,624,-5.73516,-4.28025
-532,400,-6.32507,3.02686,0,0,0,0,0,0,0,-1,692,624,-6.32507,-3.02683
-525,400,-7.08356,1.90802,0,0,0,0,0,0,0,-1,699,624,-7.08354,-1.90801
-518,400,-2.78937,-2.16846,0,0,0,0,0,0,0,-1,706,624,-2.78939,2.16845
-511,400,-2.66302,-1.89954,0.0210109,-0.0237955,0.00173296,0.0210778,-0.0238625,0.0385998,0.0259629,0.0480598,713,624,-2.66302,1.89956
-504,400,-2.56116,-1.63861,0.0157978,-0.0172825,0.00127015,0.0158465,-0.0173312,0.0383207,0.0191616,0.0458888,720,624,-2.56114,1.63859
-497,400,-2.54419,-1.32587,0.0125557,-0.0123446,0.000851274,0.0125848,-0.0123737,0.0341341,0.01441,0.0305465,727,624,-2.54417,1.32587
-490,400,-2.56696,-1.35315,0.00947559,-0.00896587,0.000517999,0.00949013,-0.00898041,0.0280593,0.0106653,0.0147382,734,624,-2.56693,1.35317
-483,400,-2.58264,-1.52826,0.00693275,-0.00597814,0.000188835,0.00693551,-0.0059809,0.0146218,0.00746408,0.0138996,741,624,-2.58262,1.52826
-476,400,-2.57294,-1.71075,0.00505639,-0.00378487,-8.7511e-05,0.00505726,-0.00378574,-0.00989673,0.00512307,0.012813,748,624,-2.57293,1.71077
-469,400,-2.59241,-1.8877,0.00358873,-0.00238195,4.3984e-05,0.00358906,-0.00238228,0.00736613,0.00347094,0.0140075,755,624,-2.59239,1.88771
-462,400,-2.60358,-2.07336,0.00201151,-0.00153255,0.00028732,0.00203465,-0.00155569,0.0803716,0.00207902,0.0180919,762,624,-2.60357,2.07335
-455,400,-2.61017,-2.2373,0.00115293,-0.00134986,0.000382219,0.00121,-0.00140693,0.148218,0.00151231,0.0187347,769,624,-2.61014,2.23732
-448,400,-2.60303,-2.41876,0.000907303,-0.00176583,0.000929677,0.00119884,-0.00205736,0.303874,0.00190162,0.0141309,776,624,-2.60303,2.41874
-441,400,-2.58551,-2.57977,0.000528063,-0.00292044,0.0016018,0.00115728,-0.00354965,0.3743,0.00283214,0.0135115,783,624,-2.58549,2.57979
-434,400,-2.58154,-2.72662,6.67265e-05,-0.00444966,0.00228751,0.0010229,-0.00540582,0.395924,0.00398881,0.010518,790,624,-2.58156,2.72664
-427,400,-2.58081,-2.89484,-0.000271653,-0.00616027,0.00311526,0.00107051,-0.00750243,0.406801,0.00539398,0.00947228,797,624,-2.58079,2.89483
-420,400,-2.54895,-3.11078,-0.000367419,-0.00809787,0.00387215,0.00123851,-0.0097038,0.393146,0.00691908,0.0107154,804,624,-2.54893,3.11079
-413,400,-2.54474,-3.26794,-4.90727e-05,-0.0105663,0.00410257,0.00136195,-0.0119773,0.331263,0.00847542,0.0212894,811,624,-2.54473,3.26794
-406,400,-2.74902,-3.33911,0.000426664,-0.0128755,0.00416726,0.00162433,-0.0140732,0.279858,0.00996776,0.0327047,818,624,-2.74903,3.3391
-399,400,-2.69293,-3.50262,0.000965816,-0.0159199,0.00386203,0.0018072,-0.0167613,0.214508,0.0118227,0.0423392,825,624,-2.69291,3.50265
-392,400,-2.03552,-3.41742,0,0,0,0,0,0,0,-1,832,624,-2.03555,3.41741
-385,400,-2.18475,-3.68951,0,0,0,0,0,0,0,-1,839,624,-2.18474,3.68952
-378,400,-2.26953,-2.26978,0,0,0,0,0,0,0,-1,846,624,-2.26952,2.26975
-371,400,-2.23303,-1.85944,0,0,0,0,0,0,0,-1,853,624,-2.23305,1.85946
-364,400,-3.69025,-3.5376,0,0,0,0,0,0,0,-1,860,624,-3.69024,3.53759
-357,400,-1.43842,-3.62018,0,0,0,0,0,0,0,-1,867,624,-1.43842,3.62018
-350,400,-0.496826,-4.11804,0,0,0,0,0,0,0,-1,874,624,-0.496807,4.11803
-343,400,-0.111755,-5.8924,0,0,0,0,0,0,0,-1,881,624,-0.111774,5.89237
-336,400,0,0,0,0,0,0,0,0,0,-1,888,624,0,0
-329,400,0,0,0,0,0,0,0,0,0,-1,895,624,0,0
-322,400,0,0,0,0,0,0,0,0,0,-1,902,624,0,0
-315,400,0,0,0,0,0,0,0,0,0,-1,909,624,0,0
-308,400,0,0,0,0,0,0,0,0,0,-1,916,624,0,0
-301,400,0,0,0,0,0,0,0,0,0,-1,923,624,0,0
-294,400,0,0,0,0,0,0,0,0,0,-1,930,624,0,0
-287,400,0,0,0,0,0,0,0,0,0,-1,937,624,0,0
-280,400,0,0,0,0,0,0,0,0,0,-1,944,624,0,0
-273,400,0,0,0,0,0,0,0,0,0,-1,951,624,0,0
-266,400,0,0,0,0,0,0,0,0,0,-1,958,624,0,0
-259,400,0,0,0,0,0,0,0,0,0,-1,965,624,0,0
-252,400,0,0,0,0,0,0,0,0,0,-1,972,624,0,0
-245,400,0,0,0,0,0,0,0,0,0,-1,979,624,0,0
-238,400,0,0,0,0,0,0,0,0,0,-1,986,624,0,0
-231,400,0,0,0,0,0,0,0,0,0,-1,993,624,0,0
-224,400,0,0,0,0,0,0,0,0,0,-1,1000,624,0,0
-217,400,0,0,0,0,0,0,0,0,0,-1,1007,624,0,0
-210,400,0,0,0,0,0,0,0,0,0,-1,1014,624,0,0
-203,400,0,0,0,0,0,0,0,0,0,-1,1021,624,0,0
-196,400,0,0,0,0,0,0,0,0,0,-1,1028,624,0,0
-189,400,0,0,0,0,0,0,0,0,0,-1,1035,624,0,0
-182,400,0,0,0,0,0,0,0,0,0,-1,1042,624,0,0
-175,400,0,0,0,0,0,0,0,0,0,-1,1049,624,0,0
-168,400,0,0,0,0,0,0,0,0,0,-1,1056,624,0,0
-161,400,0,0,0,0,0,0,0,0,0,-1,1063,624,0,0
-154,400,0,0,0,0,0,0,0,0,0,-1,1070,624,0,0
-147,400,0,0,0,0,0,0,0,0,0,-1,1077,624,0,0
-140,400,0,0,0,0,0,0,0,0,0,-1,1084,624,0,0
-133,400,0,0,0,0,0,0,0,0,0,-1,1091,624,0,0
-126,400,0,0,0,0,0,0,0,0,0,-1,1098,624,0,0
-119,400,0,0,0,0,0,0,0,0,0,-1,1105,624,0,0
-112,400,0,0,0,0,0,0,0,0,0,-1,1112,624,0,0
-105,400,0,0,0,0,0,0,0,0,0,-1,1119,624,0,0
-98,400,0,0,0,0,0,0,0,0,0,-1,1126,624,0,0
-91,400,0,0,0,0,0,0,0,0,0,-1,1133,624,0,0
-84,400,0,0,0,0,0,0,0,0,0,-1,1140,624,0,0
-77,400,0,0,0,0,0,0,0,0,0,-1,1147,624,0,0
-70,400,0,0,0,0,0,0,0,0,0,-1,1154,624,0,0
-63,400,0,0,0,0,0,0,0,0,0,-1,1161,624,0,0
-56,400,0,0,0,0,0,0,0,0,0,-1,1168,624,0,0
-49,400,0,0,0,0,0,0,0,0,0,-1,1175,624,0,0
-42,400,0,0,0,0,0,0,0,0,0,-1,1182,624,0,0
-35,400,0,0,0,0,0,0,0,0,0,-1,1189,624,0,0
-28,400,0,0,0,0,0,0,0,0,0,-1,1196,624,0,0
-21,400,0,0,0,0,0,0,0,0,0,-1,1203,624,0,0
-14,400,0,0,0,0,0,0,0,0,0,-1,1210,624,0,0
-7,400,0,0,0,0,0,0,0,0,0,-1,1217,624,0,0
0,400,0,0,0,0,0,0,0,0,0,-1,1224,624,0,0
7,400,0,0,0,0,0,0,0,0,0,-1,1231,624,0,0
14,400,0,0,0,0,0,0,0,0,0,-1,1238,624,0,0
21,400,0,0,0,0,0,0,0,0,0,-1,1245,624,0,0
28,400,0,0,0,0,0,0,0,0,0,-1,1252,624,0,0
35,400,0,0,0,0,0,0,0,0,0,-1,1259,624,0,0
42,400,0,0,0,0,0,0,0,0,0,-1,1266,624,0,0
49,400,0,0,0,0,0,0,0,0,0,-1,1273,624,0,0
56,400,0,0,0,0,0,0,0,0,0,-1,1280,624,0,0
63,400,0,0,0,0,0,0,0,0,0,-1,1287,624,0,0
70,400,0,0,0,0,0,0,0,0,0,-1,1294,624,0,0
77,400,0,0,0,0,0,0,0,0,0,-1,1301,624,0,0
84,400,0,0,0,0,0,0,0,0,0,-1,1308,624,0,0
91,400,0,0,0,0,0,0,0,0,0,-1,1315,624,0,0
98,400,0,0,0,0,0,0,0,0,0,-1,1322,624,0,0
105,400,0,0,0,0,0,0,0,0,0,-1,1329,624,0,0
112,400,0,0,0,0,0,0,0,0,0,-1,1336,624,0,0
119,400,0,0,0,0,0,0,0,0,0,-1,1343,624,0,0
126,400,0,0,0,0,0,0,0,0,0,-1,1350,624,0,0
133,400,0,0,0,0,0,0,0,0,0,-1,1357,624,0,0
140,400,0,0,0,0,0,0,0,0,0,-1,1364,624,0,0
147,400,0,0,0,0,0,0,0,0,0,-1,1371,624,0,0
154,400,0,0,0,0,0,0,0,0,0,-1,1378,624,0,0
161,400,0,0,0,0,0,0,0,0,0,-1,1385,624,0,0
168,400,0,0,0,0,0,0,0,0,0,-1,1392,624,0,0
175,400,0,0,0,0,0,0,0,0,0,-1,1399,624,0,0
182,400,0,0,0,0,0,0,0,0,0,-1,1406,624,0,0
189,400,0,0,0,0,0,0,0,0,0,-1,1413,624,0,0
196,400,0,0,0,0,0,0,0,0,0,-1,1420,624,0,0
203,400,0,0,0,0,0,0,0,0,0,-1,1427,624,0,0
210,400,0,0,0,0,0,0,0,0,0,-1,1434,624,0,0
217,400,0,0,0,0,0,0,0,0,0,-1,1441,624,0,0
224,400,0,0,0,0,0,0,0,0,0,-1,1448,624,0,0
231,400,0,0,0,0,0,0,0,0,0,-1,1455,624,0,0
238,400,0,0,0,0,0,0,0,0,0,-1,1462,624,0,0
245,400,0,0,0,0,0,0,0,0,0,-1,1469,624,0,0
252,400,0,0,0,0,0,0,0,0,0,-1,1476,624,0,0
259,400,0,0,0,0,0,0,0,0,0,-1,1483,624,0,0
266,400,0,0,0,0,0,0,0,0,0,-1,1490,624,0,0
273,400,0,0,0,0,0,0,0,0,0,-1,1497,624,0,0
280,400,0,0,0,0,0,0,0,0,0,-1,1504,624,0,0
287,400,0,0,0,0,0,0,0,0,0,-1,1511,624,0,0
294,400,0,0,0,0,0,0,0,0,0,-1,1518,624,0,0
301,400,0,0,0,0,0,0,0,0,0,-1,1525,624,0,0
308,400,0,0,0,0,0,0,0,0,0,-1,1532,624,0,0
315,400,0,0,0,0,0,0,0,0,0,-1,1539,624,0,0
322,400,0,0,0,0,0,0,0,0,0,-1,1546,624,0,0
329,400,0,0,0,0,0,0,0,0,0,-1,1553,624,0,0
336,400,0,0,0,0,0,0,0,0,0,-1,1560,624,0,0
343,400,0,0,0,0,0,0,0,0,0,-1,1567,624,0,0
350,400,0,0,0,0,0,0,0,0,0,-1,1574,624,0,0
357,400,0,0,0,0,0,0,0,0,0,-1,1581,624,0,0
364,400,0,0,0,0,0,0,0,0,0,-1,1588,624,0,0
371,400,0,0,0,0,0,0,0,0,0,-1,1595,624,0,0
378,400,0,0,0,0,0,0,0,0,0,-1,1602,624,0,0
385,400,0,0,0,0,0,0,0,0,0,-1,1609,624,0,0
392,400,0,0,0,0,0,0,0,0,0,-1,1616,624,0,0
399,400,0,0,0,0,0,0,0,0,0,-1,1623,624,0,0
406,400,0,0,0,0,0,0,0,0,0,-1,1630,624,0,0
413,400,0,0,0,0,0,0,0,0,0,-1,1637,624,0,0
420,400,0,0,0,0,0,0,0,0,0,-1,1644,624,0,0
427,400,0,0,0,0,0,0,0,0,0,-1,1651,624,0,0
434,400,0,0,0,0,0,0,0,0,0,-1,1658,624,0,0
441,400,0,0,0,0,0,0,0,0,0,-1,1665,624,0,0
448,400,0,0,0,0,0,0,0,0,0,-1,1672,624,0,0
455,400,8.91309,2.75885,0,0,0,0,0,0,0,-1,1679,624,8.91312,-2.75885
462,400,8.90356,2.37878,0,0,0,0,0,0,0,-1,1686,624,8.90353,-2.37878
469,400,9.14429,1.76849,0,0,0,0,0,0,0,-1,1693,624,9.14432,-1.76847
476,400,9.23254,1.25995,0,0,0,0,0,0,0,-1,1700,624,9.23252,-1.25994
483,400,9.59766,0.562439,0,0,0,0,0,0,0,-1,1707,624,9.59771,-0.56242
490,400,9.92578,-0.213745,0,0,0,0,0,0,0,-1,1714,624,9.92579,0.21376
497,400,9.19141,0.175232,0,0,0,0,0,0,0,-1,1721,624,9.19138,-0.175209
504,400,9.23438,0.00823975,0,0,0,0,0,0,0,-1,1728,624,9.23436,-0.00823766
511,400,6.16687,3.3501,0,0,0,0,0,0,0,-1,1735,624,6.16682,-3.35007
518,400,6.55237,1.74994,0,0,0,0,0,0,0,-1,1742,624,6.55236,-1.74993
525,400,6.99731,1.08783,0,0,0,0,0,0,0,-1,1749,624,6.99736,-1.08785
532,400,6.96582,-1.74982,0,0,0,0,0,0,0,-1,1756,624,6.96585,1.74983
539,400,7.22961,-1.9118,0,0,0,0,0,0,0,-1,1763,624,7.22964,1.91183
546,400,7.21912,-1.7345,-0.00416791,0.0036307,-0.000901371,0.00373353,-0.00427073,-1.45721,0.00462473,0.0183364,1770,624,7.21914,1.73448
553,400,7.17102,-1.49988,-0.00385159,0.00304937,-0.000933826,0.00317351,-0.00397572,-1.43864,0.00413626,0.0122931,1777,624,7.17101,1.49987
560,400,7.1825,-1.27069,-0.00361058,0.00264098,-0.00094565,0.0027809,-0.00375049,-1.42391,0.00378472,0.0124085,1784,624,7.18245,1.27071
567,400,7.21484,-1.11603,-0.00330296,0.00220957,-0.000925549,0.00236082,-0.00345421,-1.40881,0.00337703,0.0162374,1791,624,7.21478,1.11602
574,400,7.20276,-0.951782,-0.00270568,0.00166959,-0.000803093,0.00181234,-0.00284844,-1.39488,0.00271297,0.0188064,1798,624,7.2028,0.951774
581,400,7.16296,-0.725647,-0.00210416,0.00119865,-0.000695252,0.00133903,-0.00224455,-1.37155,0.00209088,0.0178088,1805,624,7.16293,0.725664
588,400,7.18091,-0.536621,-0.00150247,0.000759232,-0.000558851,0.000889785,-0.00163303,-1.3413,0.00147747,0.0135894,1812,624,7.18085,0.536624
595,400,7.20496,-0.353394,-0.000415169,0.000225982,-0.00052002,0.000516299,-0.000705485,-1.06162,0.000708211,0.012976,1819,624,7.20495,0.353373
602,400,7.22888,-0.166382,0.00119835,-0.000801748,-0.000148544,0.00120933,-0.00081272,-0.0737291,0.00117489,0.0122459,1826,624,7.22884,0.166396
609,400,7.17969,0.0402222,0.00267552,-0.00132179,0.000309503,0.00269934,-0.00134561,0.0768178,0.00237855,0.0119408,1833,624,7.17963,-0.0401961
616,400,7.16101,0.2323,0.00450262,-0.0020944,0.00073401,0.00458331,-0.00217508,0.10948,0.00398367,0.0160749,1840,624,7.16095,-0.232289
623,400,7.32703,0.483704,0.0068818,-0.002925,0.00123041,0.00703382,-0.00307702,0.122927,0.00598464,0.0311591,1847,624,7.32706,-0.483692
630,400,7.07764,0.681274,0.00990418,-0.0043848,0.00182597,0.0101338,-0.00461445,0.125111,0.00871141,0.0424169,1854,624,7.07763,-0.681275
637,400,6.52197,0.943604,0,0,0,0,0,0,0,-1,1861,624,6.52198,-0.943582
644,400,7.27661,0.68988,0,0,0,0,0,0,0,-1,1868,624,7.27656,-0.689853
651,400,7.77209,0.4422,0,0,0,0,0,0,0,-1,1875,624,7.77209,-0.442175
658,400,8.90564,0.457886,0,0,0,0,0,0,0,-1,1882,624,8.90561,-0.457888
665,400,5.98438,0.522522,0,0,0,0,0,0,0,-1,1889,624,5.98442,-0.522552
672,400,0,0,0,0,0,0,0,0,0,-1,1896,624,0,0
679,400,0,0,0,0,0,0,0,0,0,-1,1903,624,0,0
686,400,0,0,0,0,0,0,0,0,0,-1,1910,624,0,0
693,400,0,0,0,0,0,0,0,0,0,-1,1917,624,0,0
700,400,0,0,0,0,0,0,0,0,0,-1,1924,624,0,0
707,400,0,0,0,0,0,0,0,0,0,-1,1931,624,0,0
714,400,0,0,0,0,0,0,0,0,0,-1,1938,624,0,0
721,400,0,0,0,0,0,0,0,0,0,-1,1945,624,0,0
728,400,0,0,0,0,0,0,0,0,0,-1,1952,624,0,0
735,400,0,0,0,0,0,0,0,0,0,-1,1959,624,0,0
742,400,0,0,0,0,0,0,0,0,0,-1,1966,624,0,0
749,400,0,0,0,0,0,0,0,0,0,-1,1973,624,0,0
756,400,0,0,0,0,0,0,0,0,0,-1,1980,624,0,0
763,400,0,0,0,0,0,0,0,0,0,-1,1987,624,0,0
770,400,0,0,0,0,0,0,0,0,0,-1,1994,624,0,0
777,400,0,0,0,0,0,0,0,0,0,-1,2001,624,0,0
784,400,0,0,0,0,0,0,0,0,0,-1,2008,624,0,0
791,400,0,0,0,0,0,0,0,0,0,-1,2015,624,0,0
798,400,0,0,0,0,0,0,0,0,0,-1,2022,624,0,0
805,400,0,0,0,0,0,0,0,0,0,-1,2029,624,0,0
812,400,0,0,0,0,0,0,0,0,0,-1,2036,624,0,0
-700,393,0,0,0,0,0,0,0,0,0,-1,524,631,0,0
-693,393,0,0,0,0,0,0,0,0,0,-1,531,631,0,0
-686,393,0,0,0,0,0,0,0,0,0,-1,538,631,0,0
-679,393,0,0,0,0,0,0,0,0,0,-1,545,631,0,0
-672,393,0,0,0,0,0,0,0,0,0,-1,552,631,0,0
-665,393,0,0,0,0,0,0,0,0,0,-1,559,631,0,0
-658,393,0,0,0,0,0,0,0,0,0,-1,566,631,0,0
-651,393,0,0,0,0,0,0,0,0,0,-1,573,631,0,0
-644,393,0,0,0,0,0,0,0,0,0,-1,580,631,0,0
-637,393,0,0,0,0,0,0,0,0,0,-1,587,631,0,0
-630,393,0,0,0,0,0,0,0,0,0,-1,594,631,0,0
-623,393,0,0,0,0,0,0,0,0,0,-1,601,631,0,0
-616,393,0,0,0,0,0,0,0,0,0,-1,608,631,0,0
-609,393,0,0,0,0,0,0,0,0,0,-1,615,631,0,0
-602,393,0,0,0,0,0,0,0,0,0,-1,622,631,0,0
-595,393,0,0,0,0,0,0,0,0,0,-1,629,631,0,0
-588,393,0,0,0,0,0,0,0,0,0,-1,636,631,0,0
-581,393,0,0,0,0,0,0,0,0,0,-1,643,631,0,0
-574,393,0,0,0,0,0,0,0,0,0,-1,650,631,0,0
-567,393,0,0,0,0,0,0,0,0,0,-1,657,631,0,0
-560,393,0,0,0,0,0,0,0,0,0,-1,664,631,0,0
-553,393,-4.95001,1.22772,0,0,0,0,0,0,0,-1,671,631,-4.94999,-1.22774
-546,393,-4.65851,-0.741272,0,0,0,0,0,0,0,-1,678,631,-4.65848,0.74126
-539,393,-4.38177,-2.64526,0,0,0,0,0,0,0,-1,685,631,-4.3818,2.64525
-532,393,-5.24463,2.12268,0,0,0,0,0,0,0,-1,692,631,-5.2446,-2.12269
-525,393,-2.90167,-0.330017,0,0,0,0,0,0,0,-1,699,631,-2.90164,0.330005
-518,393,-3.31232,-1.57123,0,0,0,0,0,0,0,-1,706,631,-3.31233,1.57125
-511,393,-2.86688,-1.47791,0,0,0,0,0,0,0,-1,713,631,-2.86687,1.47794
-504,393,-2.72961,-1.21088,0,0,0,0,0,0,0,-1,720,631,-2.72961,1.21085
-497,393,-2.76978,-1.12317,0.0101029,-0.00948815,0.000326698,0.0101083,-0.00949359,0.0166697,0.011319,0.0228622,727,631,-2.76979,1.12314
-490,393,-2.75262,-1.35651,0.00774135,-0.00741588,0.000335507,0.00774878,-0.0074233,0.0221207,0.00876027,0.0137832,734,631,-2.75263,1.35652
-483,393,-2.75293,-1.52106,0.00570708,-0.00524873,0.000394056,0.00572123,-0.00526289,0.0359059,0.00634352,0.0179767,741,631,-2.75293,1.52109
-476,393,-2.75354,-1.70715,0.00417848,-0.00364244,0.00044393,0.0042036,-0.00366756,0.0565198,0.00454793,0.014896,748,631,-2.75356,1.70718
-469,393,-2.77057,-1.87842,0.00293391,-0.00256693,0.000827639,0.00305574,-0.00268875,0.146147,0.00331884,0.0119944,755,631,-2.77055,1.8784
-462,393,-2.77051,-2.0686,0.00153912,-0.00188674,0.00127457,0.00196129,-0.00230891,0.319854,0.00246813,0.0143155,762,631,-2.77052,2.06863
-455,393,-2.77985,-2.24805,0.000862,-0.00184698,0.0015828,0.00159075,-0.00257573,0.431486,0.00242782,0.0135969,769,631,-2.77986,2.24803
-448,393,-2.79126,-2.44244,0.000706929,-0.00233025,0.00235525,0.00199071,-0.00361404,0.499054,0.00328084,0.0138341,776,631,-2.79129,2.44244
-441,393,-2.776,-2.6026,0.000398821,-0.00353699,0.00324806,0.00222862,-0.00536678,0.513036,0.00450824,0.0129555,783,631,-2.776,2.60258
-434,393,-2.7511,-2.71539,-1.54082e-05,-0.00513601,0.00414571,0.00229687,-0.00744829,0.508776,0.00588257,0.0110735,790,631,-2.75108,2.71542
-427,393,-2.72821,-2.90735,-0.000353115,-0.00702345,0.00520798,0.00249609,-0.00987265,0.500602,0.00755256,0.0137803,797,631,-2.7282,2.90737
-420,393,-2.70618,-3.09137,-0.000500486,-0.009228,0.00619231,0.00271118,-0.0124397,0.47846,0.0093291,0.0237228,804,631,-2.70619,3.09137
-413,393,-2.86407,-3.00946,-0.000291336,-0.0121286,0.0066483,0.00269116,-0.0151111,0.421697,0.0110806,0.0375789,811,631,-2.86408,3.00947
-406,393,-3.133,-3.40875,0,0,0,0,0,0,0,-1,818,631,-3.13301,3.40877
-399,393,-3.15088,-3.41315,0,0,0,0,0,0,0,-1,825,631,-3.15089,3.41312
-392,393,-2.08063,-3.02386,0,0,0,0,0,0,0,-1,832,631,-2.08063,3.02384
-385,393,-3.16931,-0.624756,0,0,0,0,0,0,0,-1,839,631,-3.16928,0.624764
-378,393,-2.34045,-1.48468,0,0,0,0,0,0,0,-1,846,631,-2.34048,1.48471
-371,393,-1.4248,-2.56482,0,0,0,0,0,0,0,-1,853,631,-1.4248,2.56481
-364,393,-1.349,-3.17017,0,0,0,0,0,0,0,-1,860,631,-1.349,3.17014
-357,393,-1.84821,-4.28015,0,0,0,0,0,0,0,-1,867,631,-1.84823,4.28018
-350,393,-7.6015,0.331421,0,0,0,0,0,0,0,-1,874,631,-7.60151,-0.331426
-343,393,0,0,0,0,0,0,0,0,0,-1,881,631,0,0
-336,393,0,0,0,0,0,0,0,0,0,-1,888,631,0,0
-329,393,0,0,0,0,0,0,0,0,0,-1,895,631,0,0
-322,393,0,0,0,0,0,0,0,0,0,-1,902,631,0,0
-315,393,0,0,0,0,0,0,0,0,0,-1,909,631,0,0
-308,393,0,0,0,0,0,0,0,0,0,-1,916,631,0,0
-301,393,0,0,0,0,0,0,0,0,0,-1,923,631,0,0
-294,393,0,0,0,0,0,0,0,0,0,-1,930,631,0,0
-287,393,0,0,0,0,0,0,0,0,0,-1,937,631,0,0
-280,393,0,0,0,0,0,0,0,0,0,-1,944,631,0,0
-273,393,0,0,0,0,0,0,0,0,0,-1,951,631,0,0
-266,393,0,0,0,0,0,0,0,0,0,-1,958,631,0,0
-259,393,0,0,0,0,0,0,0,0,0,-1,965,631,0,0
-252,393,0,0,0,0,0,0,0,0,0,-1,972,631,0,0
-245,393,0,0,0,0,0,0,0,0,0,-1,979,631,0,0
-238,393,0,0,0,0,0,0,0,0,0,-1,986,631,0,0
-231,393,0,0,0,0,0,0,0,0,0,-1,993,631,0,0
-224,393,0,0,0,0,0,0,0,0,0,-1,1000,631,0,0
-217,393,0,0,0,0,0,0,0,0,0,-1,1007,631,0,0
-210,393,0,0,0,0,0,0,0,0,0,-1,1014,631,0,0
-203,393,0,0,0,0,0,0,0,0,0,-1,1021,631,0,0
-196,393,0,0,0,0,0,0,0,0,0,-1,1028,631,0,0
-189,393,0,0,0,0,0,0,0,0,0,-1,1035,631,0,0
-182,393,0,0,0,0,0,0,0,0,0,-1,1042,631,0,0
-175,393,0,0,0,0,0,0,0,0,0,-1,1049,631,0,0
-168,393,0,0,0,0,0,0,0,0,0,-1,1056,631,0,0
-161,393,0,0,0,0,0,0,0,0,0,-1,1063,631,0,0
-154,393,0,0,0,0,0,0,0,0,0,-1,1070,631,0,0
-147,393,0,0,0,0,0,0,0,0,0,-1,1077,631,0,0
-140,393,0,0,0,0,0,0,0,0,0,-1,1084,631,0,0
-133,393,0,0,0,0,0,0,0,0,0,-1,1091,631,0,0
-126,393,0,0,0,0,0,0,0,0,0,-1,1098,631,0,0
-119,393,0,0,0,0,0,0,0,0,0,-1,1105,631,0,0
-112,393,0,0,0,0,0,0,0,0,0,-1,1112,631,0,0
-105,393,0,0,0,0,0,0,0,0,0,-1,1119,631,0,0
-98,393,0,0,0,0,0,0,0,0,0,-1,1126,631,0,0
-91,393,0,0,0,0,0,0,0,0,0,-1,1133,631,0,0
-84,393,0,0,0,0,0,0,0,0,0,-1,1140,631,0,0
-77,393,0,0,0,0,0,0,0,0,0,-1,1147,631,0,0
-70,393,0,0,0,0,0,0,0,0,0,-1,1154,631,0,0
-63,393,0,0,0,0,0,0,0,0,0,-1,1161,631,0,0
-56,393,0,0,0,0,0,0,0,0,0,-1,1168,631,0,0
-49,393,0,0,0,0,0,0,0,0,0,-1,1175,631,0,0
-42,393,0,0,0,0,0,0,0,0,0,-1,1182,631,0,0
-35,393,0,0,0,0,0,0,0,0,0,-1,1189,631,0,0
-28,393,0,0,0,0,0,0,0,0,0,-1,1196,631,0,0
-21,393,0,0,0,0,0,0,0,0,0,-1,1203,631,0,0
-14,393,0,0,0,0,0,0,0,0,0,-1,1210,631,0,0
-7,393,0,0,0,0,0,0,0,0,0,-1,1217,631,0,0
0,393,0,0,0,0,0,0,0,0,0,-1,1224,631,0,0
7,393,0,0,0,0,0,0,0,0,0,-1,1231,631,0,0
14,393,0,0,0,0,0,0,0,0,0,-1,1238,631,0,0
21,393,0,0,0,0,0,0,0,0,0,-1,1245,631,0,0
28,393,0,0,0,0,0,0,0,0,0,-1,1252,631,0,0
35,393,0,0,0,0,0,0,0,0,0,-1,1259,631,0,0
42,393,0,0,0,0,0,0,0,0,0,-1,1266,631,0,0
49,393,0,0,0,0,0,0,0,0,0,-1,1273,631,0,0
56,393,0,0,0,0,0,0,0,0,0,-1,1280,631,0,0
63,393,0,0,0,0,0,0,0,0,0,-1,1287,631,0,0
70,393,0,0,0,0,0,0,0,0,0,-1,1294,631,0,0
77,393,0,0,0,0,0,0,0,0,0,-1,1301,631,0,0
84,393,0,0,0,0,0,0,0,0,0,-1,1308,631,0,0
91,393,0,0,0,0,0,0,0,0,0,-1,1315,631,0,0
98,393,0,0,0,0,0,0,0,0,0,-1,1322,631,0,0
105,393,0,0,0,0,0,0,0,0,0,-1,1329,631,0,0
112,393,0,0,0,0,0,0,0,0,0,-1,1336,631,0,0
119,393,0,0,0,0,0,0,0,0,0,-1,1343,631,0,0
126,393,0,0,0,0,0,0,0,0,0,-1,1350,631,0,0
133,393,0,0,0,0,0,0,0,0,0,-1,1357,631,0,0
140,393,0,0,0,0,0,0,0,0,0,-1,1364,631,0,0
147,393,0,0,0,0,0,0,0,0,0,-1,1371,631,0,0
154,393,0,0,0,0,0,0,0,0,0,-1,1378,631,0,0
161,393,0,0,0,0,0,0,0,0,0,-1,1385,631,0,0
168,393,0,0,0,0,0,0,0,0,0,-1,1392,631,0,0
175,393,0,0,0,0,0,0,0,0,0,-1,1399,631,0,0
182,393,0,0,0,0,0,0,0,0,0,-1,1406,631,0,0
189,393,0,0,0,0,0,0,0,0,0,-1,1413,631,0,0
196,393,0,0,0,0,0,0,0,0,0,-1,1420,631,0,0
203,393,0,0,0,0,0,0,0,0,0,-1,1427,631,0,0
210,393,0,0,0,0,0,0,0,0,0,-1,1434,631,0,0
217,393,0,0,0,0,0,0,0,0,0,-1,1441,631,0,0
224,393,0,0,0,0,0,0,0,0,0,-1,1448,631,0,0
231,393,0,0,0,0,0,0,0,0,0,-1,1455,631,0,0
238,393,0,0,0,0,0,0,0,0,0,-1,1462,631,0,0
245,393,0,0,0,0,0,0,0,0,0,-1,1469,631,0,0
252,393,0,0,0,0,0,0,0,0,0,-1,1476,631,0,0
259,393,0,0,0,0,0,0,0,0,0,-1,1483,631,0,0
266,393,0,0,0,0,0,0,0,0,0,-1,1490,631,0,0
273,393,0,0,0,0,0,0,0,0,0,-1,1497,631,0,0
280,393,0,0,0,0,0,0,0,0,0,-1,1504,631,0,0
287,393,0,0,0,0,0,0,0,0,0,-1,1511,631,0,0
294,393,0,0,0,0,0,0,0,0,0,-1,1518,631,0,0
301,393,0,0,0,0,0,0,0,0,0,-1,1525,631,0,0
308,393,0,0,0,0,0,0,0,0,0,-1,1532,631,0,0
315,393,0,0,0,0,0,0,0,0,0,-1,1539,631,0,0
322,393,0,0,0,0,0,0,0,0,0,-1,1546,631,0,0
329,393,0,0,0,0,0,0,0,0,0,-1,1553,631,0,0
336,393,0,0,0,0,0,0,0,0,0,-1,1560,631,0,0
343,393,0,0,0,0,0,0,0,0,0,-1,1567,631,0,0
350,393,0,0,0,0,0,0,0,0,0,-1,1574,631,0,0
357,393,0,0,0,0,0,0,0,0,0,-1,1581,631,0,0
364,393,0,0,0,0,0,0,0,0,0,-1,1588,631,0,0
371,393,0,0,0,0,0,0,0,0,0,-1,1595,631,0,0
378,393,0,0,0,0,0,0,0,0,0,-1,1602,631,0,0
385,393,0,0,0,0,0,0,0,0,0,-1,1609,631,0,0
392,393,0,0,0,0,0,0,0,0,0,-1,1616,631,0,0
399,393,0,0,0,0,0,0,0,0,0,-1,1623,631,0,0
406,393,0,0,0,0,0,0,0,0,0,-1,1630,631,0,0
413,393,0,0,0,0,0,0,0,0,0,-1,1637,631,0,0
420,393,0,0,0,0,0,0,0,0,0,-1,1644,631,0,0
427,393,0,0,0,0,0,0,0,0,0,-1,1651,631,0,0
434,393,0,0,0,0,0,0,0,0,0,-1,1658,631,0,0
441,393,0,0,0,0,0,0,0,0,0,-1,1665,631,0,0
448,393,0,0,0,0,0,0,0,0,0,-1,1672,631,0,0
455,393,0,0,0,0,0,0,0,0,0,-1,1679,631,0,0
462,393,8.51099,1.89502,0,0,0,0,0,0,0,-1,1686,631,8.51103,-1.89504
469,393,9.39465,1.51703,0,0,0,0,0,0,0,-1,1693,631,9.39465,-1.51703
476,393,9.95569,1.185,0,0,0,0,0,0,0,-1,1700,631,9.95575,-1.18497
483,393,10.5267,0.887329,0,0,0,0,0,0,0,-1,1707,631,10.5267,-0.887321
490,393,10.9303,0.761414,0,0,0,0,0,0,0,-1,1714,631,10.9303,-0.761386
497,393,8.32153,1.88104,0,0,0,0,0,0,0,-1,1721,631,8.32148,-1.88103
504,393,9.46985,1.78711,0,0,0,0,0,0,0,-1,1728,631,9.46986,-1.78713
511,393,9.66565,-0.375977,0,0,0,0,0,0,0,-1,1735,631,9.66571,0.375949
518,393,7.01599,1.62482,0,0,0,0,0,0,0,-1,1742,631,7.01597,-1.62483
525,393,7.88245,-1.13422,0,0,0,0,0,0,0,-1,1749,631,7.88246,1.13423
532,393,7.06335,-1.18103,0,0,0,0,0,0,0,-1,1756,631,7.06332,1.18101
539,393,7.672,-1.73077,0,0,0,0,0,0,0,-1,1763,631,7.67194,1.73077
546,393,7.56287,-1.61963,-0.0070173,0.00563032,-0.00150851,0.00580775,-0.00719474,-1.45371,0.00752121,0.0375538,1770,631,7.56289,1.61961
553,393,7.40356,-1.55139,-0.00628193,0.00463343,-0.00150215,0.00483638,-0.00648488,-1.4365,0.00655939,0.0163825,1777,631,7.40358,1.5514
560,393,7.37622,-1.32367,-0.00567251,0.00389184,-0.00146725,0.00411186,-0.00589254,-1.42195,0.00580646,0.0130636,1784,631,7.37622,1.32368
567,393,7.38013,-1.11469,-0.00506415,0.00320793,-0.00139917,0.00343818,-0.0052944,-1.4077,0.00507959,0.0129977,1791,631,7.38013,1.11467
574,393,7.3761,-0.931458,-0.00417754,0.00239451,-0.00124586,0.00262276,-0.00440579,-1.3896,0.00410123,0.0153168,1798,631,7.37616,0.931442
581,393,7.35742,-0.718628,-0.00325055,0.00171203,-0.00106614,0.00193138,-0.0034699,-1.36789,0.00316032,0.0150331,1805,631,7.35747,0.718644
588,393,7.37048,-0.524048,-0.00236501,0.00113043,-0.000860435,0.00133076,-0.00256533,-1.34205,0.00228674,0.0160291,1812,631,7.3705,0.524072
595,393,7.39197,-0.360229,-0.00110815,0.000532843,-0.00074044,0.000817547,-0.00139285,-1.20372,0.0012905,0.0136403,1819,631,7.39197,0.360256
602,393,7.40198,-0.169128,0.000564348,-0.000418306,-0.000317804,0.000658172,-0.00051213,-0.287071,0.000677426,0.0148601,1826,631,7.40195,0.169133
609,393,7.37866,0.0348511,0.002026,-0.000842077,0.000181835,0.00203748,-0.00085356,0.0630631,0.00171516,0.0139388,1833,631,7.3787,-0.0348321
616,393,7.36072,0.219055,0.00370526,-0.00154801,0.000574597,0.00376737,-0.00161012,0.107683,0.00318688,0.0143666,1840,631,7.36077,-0.219052
623,393,7.38611,0.435669,0.00579592,-0.00218015,0.00106139,0.00593475,-0.00231897,0.130057,0.00491535,0.0185488,1847,631,7.38611,-0.435695
630,393,7.4967,0.637817,0.00835978,-0.00309918,0.00156019,0.00856841,-0.00330781,0.132932,0.00707741,0.0315435,1854,631,7.49675,-0.637837
637,393,7.40405,0.86261,0,0,0,0,0,0,0,-1,1861,631,7.40402,-0.862604
644,393,7.29004,0.636963,0.0162921,-0.00627057,0.00320622,0.0167388,-0.00671734,0.138453,0.0139483,0.0447271,1868,631,7.29,-0.636962
651,393,7.94922,0.517578,0.0227736,-0.0082851,0.00458653,0.0234367,-0.00894825,0.143591,0.0193111,0.0414948,1875,631,7.94917,-0.517582
658,393,8.80481,0.538452,0,0,0,0,0,0,0,-1,1882,631,8.80486,-0.538453
665,393,4.66687,1.0874,0,0,0,0,0,0,0,-1,1889,631,4.66689,-1.08738
672,393,5.56921,1.91486,0,0,0,0,0,0,0,-1,1896,631,5.56927,-1.91486
679,393,0,0,0,0,0,0,0,0,0,-1,1903,631,0,0
686,393,0,0,0,0,0,0,0,0,0,-1,1910,631,0,0
693,393,0,0,0,0,0,0,0,0,0,-1,1917,631,0,0
700,393,0,0,0,0,0,0,0,0,0,-1,1924,631,0,0
707,393,0,0,0,0,0,0,0,0,0,-1,1931,631,0,0
714,393,0,0,0,0,0,0,0,0,0,-1,1938,631,0,0
721,393,0,0,0,0,0,0,0,0,0,-1,1945,631,0,0
728,393,0,0,0,0,0,0,0,0,0,-1,1952,631,0,0
735,393,0,0,0,0,0,0,0,0,0,-1,1959,631,0,0
742,393,0,0,0,0,0,0,0,0,0,-1,1966,631,0,0
749,393,0,0,0,0,0,0,0,0,0,-1,1973,631,0,0
756,393,0,0,0,0,0,0,0,0,0,-1,1980,631,0,0
763,393,0,0,0,0,0,0,0,0,0,-1,1987,631,0,0
770,393,0,0,0,0,0,0,0,0,0,-1,1994,631,0,0
777,393,0,0,0,0,0,0,0,0,0,-1,2001,631,0,0
784,393,0,0,0,0,0,0,0,0,0,-1,2008,631,0,0
791,393,0,0,0,0,0,0,0,0,0,-1,2015,631,0,0
798,393,0,0,0,0,0,0,0,0,0,-1,2022,631,0,0
805,393,0,0,0,0,0,0,0,0,0,-1,2029,631,0,0
812,393,0,0,0,0,0,0,0,0,0,-1,2036,631,0,0
-700,386,0,0,0,0,0,0,0,0,0,-1,524,638,0,0
-693,386,0,0,0,0,0,0,0,0,0,-1,531,638,0,0
-686,386,0,0,0,0,0,0,0,0,0,-1,538,638,0,0
-679,386,0,0,0,0,0,0,0,0,0,-1,545,638,0,0
-672,386,0,0,0,0,0,0,0,0,0,-1,552,638,0,0
-665,386,0,0,0,0,0,0,0,0,0,-1,559,638,0,0
-658,386,0,0,0,0,0,0,0,0,0,-1,566,638,0,0
-651,386,0,0,0,0,0,0,0,0,0,-1,573,638,0,0
-644,386,0,0,0,0,0,0,0,0,0,-1,580,638,0,0
-637,386,0,0,0,0,0,0,0,0,0,-1,587,638,0,0
-630,386,0,0,0,0,0,0,0,0,0,-1,594,638,0,0
-623,386,0,0,0,0,0,0,0,0,0,-1,601,638,0,0
-616,386,0,0,0,0,0,0,0,0,0,-1,608,638,0,0
-609,386,0,0,0,0,0,0,0,0,0,-1,615,638,0,0
-602,386,0,0,0,0,0,0,0,0,0,-1,622,638,0,0
-595,386,0,0,0,0,0,0,0,0,0,-1,629,638,0,0
-588,386,0,0,0,0,0,0,0,0,0,-1,636,638,0,0
-581,386,0,0,0,0,0,0,0,0,0,-1,643,638,0,0
-574,386,0,0,0,0,0,0,0,0,0,-1,650,638,0,0
-567,386,0,0,0,0,0,0,0,0,0,-1,657,638,0,0
-560,386,-4.2887,2.3324,0,0,0,0,0,0,0,-1,664,638,-4.28869,-2.33239
-553,386,-4.60669,0.0904541,0,0,0,0,0,0,0,-1,671,638,-4.60671,-0.0904537
-546,386,-4.95508,-2.09094,0,0,0,0,0,0,0,-1,678,638,-4.95506,2.09096
-539,386,-3.41394,-3.4696,0,0,0,0,0,0,0,-1,685,638,-3.41397,3.46962
-532,386,-3.09497,0.169556,0,0,0,0,0,0,0,-1,692,638,-3.09497,-0.169573
-525,386,-3.53998,-0.534729,0,0,0,0,0,0,0,-1,699,638,-3.53996,0.534708
-518,386,-4.18512,-1.51013,0.0175993,-0.0137673,0.000416997,0.0176049,-0.0137729,0.0132911,0.0181609,0.0467095,706,638,-4.18509,1.51015
-511,386,-2.85486,-0.808228,0.0129487,-0.0120865,-0.00017789,0.01295,-0.0120878,-0.00710512,0.0144584,0.0459009,713,638,-2.85486,0.808251
-504,386,-2.90527,-1.02747,0.00954613,-0.00928236,-0.000252406,0.00954952,-0.00928574,-0.0134024,0.0108749,0.0252984,720,638,-2.90526,1.02746
-497,386,-2.95868,-1.19769,0.00787224,-0.00690105,-3.0129e-05,0.0078723,-0.00690112,-0.00203941,0.00853558,0.0116599,727,638,-2.95867,1.19772
-490,386,-2.93787,-1.38983,0.00605054,-0.005802,0.000283724,0.00605733,-0.00580879,0.0239195,0.00685141,0.0119514,734,638,-2.93786,1.38983
-483,386,-2.92004,-1.56372,0.00438741,-0.00426067,0.000671743,0.00443928,-0.00431254,0.0770595,0.00505304,0.0151255,741,638,-2.92007,1.5637
-476,386,-2.92474,-1.71863,0.00307311,-0.00308991,0.00103214,0.00324138,-0.00325817,0.161601,0.00375252,0.01415,748,638,-2.92473,1.7186
-469,386,-2.93335,-1.8855,0.00192879,-0.00222895,0.00165979,0.0025101,-0.00281027,0.336886,0.00307335,0.0110271,755,638,-2.93334,1.88549
-462,386,-2.92737,-2.06073,0.00063229,-0.00162685,0.00231662,0.00208006,-0.00307462,0.558562,0.00299446,0.0103668,762,638,-2.92736,2.06073
-455,386,-2.9425,-2.25281,2.27464e-05,-0.00160658,0.00288395,0.00220489,-0.00378873,0.647744,0.00350046,0.0110784,769,638,-2.94253,2.25279
-448,386,-2.95081,-2.43408,-0.000151431,-0.00206092,0.00392587,0.00293412,-0.00514647,0.666117,0.00472325,0.0118423,776,638,-2.95081,2.4341
-441,386,-2.9563,-2.57721,-0.00047564,-0.00320927,0.00510799,0.00344524,-0.00713015,0.654669,0.00622803,0.0127035,783,638,-2.9563,2.57722
-434,386,-2.91595,-2.74945,-0.000908514,-0.0047561,0.00631456,0.0037688,-0.00943341,0.637535,0.00785269,0.0179396,790,638,-2.91595,2.74943
-427,386,-2.86261,-2.93201,-0.00130613,-0.00670717,0.00772745,0.00417909,-0.0121924,0.617297,0.00982225,0.0365998,797,638,-2.86262,2.93199
-420,386,-2.99866,-2.83276,-0.00156521,-0.00906536,0.00910032,0.00452742,-0.015158,0.589959,0.011905,0.0379603,804,638,-2.99865,2.83277
-413,386,-2.95282,-2.71655,-0.00171042,-0.0122436,0.0101542,0.00446174,-0.0184158,0.546166,0.0140034,0.0488355,811,638,-2.95281,2.71658
-406,386,-2.91858,-2.56421,0,0,0,0,0,0,0,-1,818,638,-2.91859,2.56424
-399,386,-3.57117,-3.42126,0,0,0,0,0,0,0,-1,825,638,-3.57116,3.42129
-392,386,-4.00977,0.403625,0,0,0,0,0,0,0,-1,832,638,-4.0098,-0.403616
-385,386,-3.2406,-0.118469,0,0,0,0,0,0,0,-1,839,638,-3.24058,0.118485
-378,386,-2.55243,-1.22748,0,0,0,0,0,0,0,-1,846,638,-2.55243,1.22748
-371,386,-1.46411,-2.6026,0,0,0,0,0,0,0,-1,853,638,-1.46413,2.60261
-364,386,-3.06403,0.651733,0,0,0,0,0,0,0,-1,860,638,-3.064,-0.651763
-357,386,-2.5058,-4.91699,0,0,0,0,0,0,0,-1,867,638,-2.50581,4.91698
-350,386,0,0,0,0,0,0,0,0,0,-1,874,638,0,0
-343,386,0,0,0,0,0,0,0,0,0,-1,881,638,0,0
-336,386,0,0,0,0,0,0,0,0,0,-1,888,638,0,0
-329,386,0,0,0,0,0,0,0,0,0,-1,895,638,0,0
-322,386,0,0,0,0,0,0,0,0,0,-1,902,638,0,0
-315,386,0,0,0,0,0,0,0,0,0,-1,909,638,0,0
-308,386,0,0,0,0,0,0,0,0,0,-1,916,638,0,0
-301,386,0,0,0,0,0,0,0,0,0,-1,923,638,0,0
-294,386,0,0,0,0,0,0,0,0,0,-1,930,638,0,0
-287,386,0,0,0,0,0,0,0,0,0,-1,937,638,0,0
-280,386,0,0,0,0,0,0,0,0,0,-1,944,638,0,0
-273,386,0,0,0,0,0,0,0,0,0,-1,951,638,0,0
-266,386,0,0,0,0,0,0,0,0,0,-1,958,638,0,0
-259,386,0,0,0,0,0,0,0,0,0,-1,965,638,0,0
-252,386,0,0,0,0,0,0,0,0,0,-1,972,638,0,0
-245,386,0,0,0,0,0,0,0,0,0,-1,979,638,0,0
-238,386,0,0,0,0,0,0,0,0,0,-1,986,638,0,0
-231,386,0,0,0,0,0,0,0,0,0,-1,993,638,0,0
-224,386,0,0,0,0,0,0,0,0,0,-1,1000,638,0,0
-217,386,0,0,0,0,0,0,0,0,0,-1,1007,638,0,0
-210,386,0,0,0,0,0,0,0,0,0,-1,1014,638,0,0
-203,386,0,0,0,0,0,0,0,0,0,-1,1021,638,0,0
-196,386,0,0,0,0,0,0,0,0,0,-1,1028,638,0,0
-189,386,0,0,0,0,0,0,0,0,0,-1,1035,638,0,0
-182,386,0,0,0,0,0,0,0,0,0,-1,1042,638,0,0
-175,386,0,0,0,0,0,0,0,0,0,-1,1049,638,0,0
-168,386,0,0,0,0,0,0,0,0,0,-1,1056,638,0,0
-161,386,0,0,0,0,0,0,0,0,0,-1,1063,638,0,0
-154,386,0,0,0,0,0,0,0,0,0,-1,1070,638,0,0
-147,386,0,0,0,0,0,0,0,0,0,-1,1077,638,0,0
-140,386,0,0,0,0,0,0,0,0,0,-1,1084,638,0,0
-133,386,0,0,0,0,0,0,0,0,0,-1,1091,638,0,0
-126,386,0,0,0,0,0,0,0,0,0,-1,1098,638,0,0
-119,386,0,0,0,0,0,0,0,0,0,-1,1105,638,0,0
-112,386,0,0,0,0,0,0,0,0,0,-1,1112,638,0,0
-105,386,0,0,0,0,0,0,0,0,0,-1,1119,638,0,0
-98,386,0,0,0,0,0,0,0,0,0,-1,1126,638,0,0
-91,386,0,0,0,0,0,0,0,0,0,-1,1133,638,0,0
-84,386,0,0,0,0,0,0,0,0,0,-1,1140,638,0,0
-77,386,0,0,0,0,0,0,0,0,0,-1,1147,638,0,0
-70,386,0,0,0,0,0,0,0,0,0,-1,1154,638,0,0
-63,386,0,0,0,0,0,0,0,0,0,-1,1161,638,0,0
-56,386,0,0,0,0,0,0,0,0,0,-1,1168,638,0,0
-49,386,0,0,0,0,0,0,0,0,0,-1,1175,638,0,0
-42,386,0,0,0,0,0,0,0,0,0,-1,1182,638,0,0
-35,386,0,0,0,0,0,0,0,0,0,-1,1189,638,0,0
-28,386,0,0,0,0,0,0,0,0,0,-1,1196,638,0,0
-21,386,0,0,0,0,0,0,0,0,0,-1,1203,638,0,0
-14,386,0,0,0,0,0,0,0,0,0,-1,1210,638,0,0
-7,386,0,0,0,0,0,0,0,0,0,-1,1217,638,0,0
0,386,0,0,0,0,0,0,0,0,0,-1,1224,638,0,0
7,386,0,0,0,0,0,0,0,0,0,-1,1231,638,0,0
14,386,0,0,0,0,0,0,0,0,0,-1,1238,638,0,0
21,386,0,0,0,0,0,0,0,0,0,-1,1245,638,0,0
28,386,0,0,0,0,0,0,0,0,0,-1,1252,638,0,0
35,386,0,0,0,0,0,0,0,0,0,-1,1259,638,0,0
42,386,0,0,0,0,0,0,0,0,0,-1,1266,638,0,0
49,386,0,0,0,0,0,0,0,0,0,-1,1273,638,0,0
56,386,0,0,0,0,0,0,0,0,0,-1,1280,638,0,0
63,386,0,0,0,0,0,0,0,0,0,-1,1287,638,0,0
70,386,0,0,0,0,0,0,0,0,0,-1,1294,638,0,0
77,386,0,0,0,0,0,0,0,0,0,-1,1301,638,0,0
84,386,0,0,0,0,0,0,0,0,0,-1,1308,638,0,0
91,386,0,0,0,0,0,0,0,0,0,-1,1315,638,0,0
98,386,0,0,0,0,0,0,0,0,0,-1,1322,638,0,0
105,386,0,0,0,0,0,0,0,0,0,-1,1329,638,0,0
112,386,0,0,0,0,0,0,0,0,0,-1,1336,638,0,0
119,386,0,0,0,0,0,0,0,0,0,-1,1343,638,0,0
126,386,0,0,0,0,0,0,0,0,0,-1,1350,638,0,0
133,386,0,0,0,0,0,0,0,0,0,-1,1357,638,0,0
140,386,0,0,0,0,0,0,0,0,0,-1,1364,638,0,0
147,386,0,0,0,0,0,0,0,0,0,-1,1371,638,0,0
154,386,0,0,0,0,0,0,0,0,0,-1,1378,638,0,0
161,386,0,0,0,0,0,0,0,0,0,-1,1385,638,0,0
168,386,0,0,0,0,0,0,0,0,0,-1,1392,638,0,0
175,386,0,0,0,0,0,0,0,0,0,-1,1399,638,0,0
182,386,0,0,0,0,0,0,0,0,0,-1,1406,638,0,0
189,386,0,0,0,0,0,0,0,0,0,-1,1413,638,0,0
196,386,0,0,0,0,0,0,0,0,0,-1,1420,638,0,0
203,386,0,0,0,0,0,0,0,0,0,-1,1427,638,0,0
210,386,0,0,0,0,0,0,0,0,0,-1,1434,638,0,0
217,386,0,0,0,0,0,0,0,0,0,-1,1441,638,0,0
224,386,0,0,0,0,0,0,0,0,0,-1,1448,638,0,0
231,386,0,0,0,0,0,0,0,0,0,-1,1455,638,0,0
238,386,0,0,0,0,0,0,0,0,0,-1,1462,638,0,0
245,386,0,0,0,0,0,0,0,0,0,-1,1469,638,0,0
252,386,0,0,0,0,0,0,0,0,0,-1,1476,638,0,0
259,386,0,0,0,0,0,0,0,0,0,-1,1483,638,0,0
266,386,0,0,0,0,0,0,0,0,0,-1,1490,638,0,0
273,386,0,0,0,0,0,0,0,0,0,-1,1497,638,0,0
280,386,0,0,0,0,0,0,0,0,0,-1,1504,638,0,0
287,386,0,0,0,0,0,0,0,0,0,-1,1511,638,0,0
294,386,0,0,0,0,0,0,0,0,0,-1,1518,638,0,0
301,386,0,0,0,0,0,0,0,0,0,-1,1525,638,0,0
308,386,0,0,0,0,0,0,0,0,0,-1,1532,638,0,0
315,386,0,0,0,0,0,0,0,0,0,-1,1539,638,0,0
322,386,0,0,0,0,0,0,0,0,0,-1,1546,638,0,0
329,386,0,0,0,0,0,0,0,0,0,-1,1553,638,0,0
336,386,0,0,0,0,0,0,0,0,0,-1,1560,638,0,0
343,386,0,0,0,0,0,0,0,0,0,-1,1567,638,0,0
350,386,0,0,0,0,0,0,0,0,0,-1,1574,638,0,0
357,386,0,0,0,0,0,0,0,0,0,-1,1581,638,0,0
364,386,0,0,0,0,0,0,0,0,0,-1,1588,638,0,0
371,386,0,0,0,0,0,0,0,0,0,-1,1595,638,0,0
378,386,0,0,0,0,0,0,0,0,0,-1,1602,638,0,0
385,386,0,0,0,0,0,0,0,0,0,-1,1609,638,0,0
392,386,0,0,0,0,0,0,0,0,0,-1,1616,638,0,0
399,386,0,0,0,0,0,0,0,0,0,-1,1623,638,0,0
406,386,0,0,0,0,0,0,0,0,0,-1,1630,638,0,0
413,386,0,0,0,0,0,0,0,0,0,-1,1637,638,0,0
420,386,0,0,0,0,0,0,0,0,0,-1,1644,638,0,0
427,386,0,0,0,0,0,0,0,0,0,-1,1651,638,0,0
434,386,0,0,0,0,0,0,0,0,0,-1,1658,638,0,0
441,386,0,0,0,0,0,0,0,0,0,-1,1665,638,0,0
448,386,0,0,0,0,0,0,0,0,0,-1,1672,638,0,0
455,386,0,0,0,0,0,0,0,0,0,-1,1679,638,0,0
462,386,0,0,0,0,0,0,0,0,0,-1,1686,638,0,0
469,386,9.84692,1.55804,0,0,0,0,0,0,0,-1,1693,638,9.84691,-1.55807
476,386,10.6145,0.986511,0,0,0,0,0,0,0,-1,1700,638,10.6145,-0.986529
483,386,11.4113,0.732971,0,0,0,0,0,0,0,-1,1707,638,11.4112,-0.732958
490,386,7.79785,1.79572,0,0,0,0,0,0,0,-1,1714,638,7.79788,-1.7957
497,386,8.96362,1.77081,0,0,0,0,0,0,0,-1,1721,638,8.96357,-1.77081
504,386,10.0555,1.69427,0,0,0,0,0,0,0,-1,1728,638,10.0555,-1.69426
511,386,11.2172,1.534,0,0,0,0,0,0,0,-1,1735,638,11.2172,-1.53398
518,386,7.41553,1.75238,0,0,0,0,0,0,0,-1,1742,638,7.41547,-1.75238
525,386,8.82422,-1.1449,0,0,0,0,0,0,0,-1,1749,638,8.82426,1.14492
532,386,8.21069,0.19751,0,0,0,0,0,0,0,-1,1756,638,8.21067,-0.197522
539,386,7.48425,-0.624512,0,0,0,0,0,0,0,-1,1763,638,7.48425,0.624485
546,386,7.87708,-1.53522,0,0,0,0,0,0,0,-1,1770,638,7.87711,1.53519
553,386,7.63025,-1.41016,-0.00963572,0.00686121,-0.00216246,0.00713996,-0.00991447,-1.4426,0.00988972,0.0371013,1777,638,7.6302,1.41018
560,386,7.62939,-1.26495,-0.00848396,0.00557157,-0.0020778,0.00587229,-0.00878468,-1.42706,0.00851771,0.0278876,1784,638,7.62944,1.26495
567,386,7.55237,-1.10675,-0.00743247,0.0044723,-0.00195696,0.00478574,-0.00774591,-1.41198,0.00730213,0.0180633,1791,638,7.55233,1.10677
574,386,7.57373,-0.930115,-0.00614906,0.00327657,-0.00177362,0.00359926,-0.00647175,-1.39082,0.00589281,0.0135792,1798,638,7.57371,0.930093
581,386,7.56067,-0.746826,-0.00480522,0.00230849,-0.00151803,0.00261888,-0.00511562,-1.3691,0.00454241,0.0136861,1805,638,7.56072,0.746822
588,386,7.57446,-0.560242,-0.0035684,0.0015389,-0.00124245,0.00182511,-0.00385461,-1.34439,0.00334824,0.0125311,1812,638,7.57444,0.560226
595,386,7.57532,-0.395691,-0.00211554,0.000851457,-0.00103806,0.00117858,-0.00244266,-1.26552,0.00213276,0.0129925,1819,638,7.5753,0.395694
602,386,7.57532,-0.175232,-0.000380119,-3.91525e-05,-0.000586349,0.000400995,-0.000820266,-0.926875,0.000718812,0.0139997,1826,638,7.57535,0.175258
609,386,7.57373,0.027771,0.00108401,-0.00041969,-7.29496e-05,0.00108754,-0.00042322,-0.048362,0.00089991,0.0136198,1833,638,7.57368,-0.0277604
616,386,7.55981,0.207153,0.00264114,-0.00110226,0.00027454,0.00266117,-0.00112229,0.0728205,0.0022438,0.0111321,1840,638,7.55979,-0.207181
623,386,7.5553,0.394775,0.00447322,-0.0016267,0.000739868,0.00456168,-0.00171515,0.118993,0.00374609,0.0105835,1847,638,7.55533,-0.394751
630,386,7.61963,0.565613,0.00667342,-0.00217305,0.00114439,0.00681906,-0.00231869,0.126585,0.00548482,0.0180574,1854,638,7.61968,-0.565619
637,386,7.58167,0.727966,0.00964082,-0.00312124,0.00150002,0.00981476,-0.00329518,0.115442,0.00787483,0.0313287,1861,638,7.58162,-0.727989
644,386,7.41626,0.730835,0.0132471,-0.00407179,0.00213447,0.0135063,-0.00433097,0.120836,0.0107429,0.0387493,1868,638,7.4163,-0.730849
651,386,7.58105,1.12494,0.0183039,-0.00507727,0.00288763,0.0186552,-0.00542862,0.121079,0.014587,0.0428897,1875,638,7.58111,-1.12493
658,386,7.70776,1.52612,0,0,0,0,0,0,0,-1,1882,638,7.70781,-1.52612
665,386,7.48633,0.081665,0,0,0,0,0,0,0,-1,1889,638,7.4863,-0.0816793
672,386,7.51563,2.42877,0,0,0,0,0,0,0,-1,1896,638,7.51562,-2.42878
679,386,9.11768,2.104,0,0,0,0,0,0,0,-1,1903,638,9.11765,-2.10402
686,386,0,0,0,0,0,0,0,0,0,-1,1910,638,0,0
693,386,0,0,0,0,0,0,0,0,0,-1,1917,638,0,0
700,386,0,0,0,0,0,0,0,0,0,-1,1924,638,0,0
707,386,0,0,0,0,0,0,0,0,0,-1,1931,638,0,0
714,386,0,0,0,0,0,0,0,0,0,-1,1938,638,0,0
721,386,0,0,0,0,0,0,0,0,0,-1,1945,638,0,0
728,386,0,0,0,0,0,0,0,0,0,-1,1952,638,0,0
735,386,0,0,0,0,0,0,0,0,0,-1,1959,638,0,0
742,386,0,0,0,0,0,0,0,0,0,-1,1966,638,0,0
749,386,0,0,0,0,0,0,0,0,0,-1,1973,638,0,0
756,386,0,0,0,0,0,0,0,0,0,-1,1980,638,0,0
763,386,0,0,0,0,0,0,0,0,0,-1,1987,638,0,0
770,386,0,0,0,0,0,0,0,0,0,-1,1994,638,0,0
777,386,0,0,0,0,0,0,0,0,0,-1,2001,638,0,0
784,386,0,0,0,0,0,0,0,0,0,-1,2008,638,0,0
791,386,0,0,0,0,0,0,0,0,0,-1,2015,638,0,0
798,386,0,0,0,0,0,0,0,0,0,-1,2022,638,0,0
805,386,0,0,0,0,0,0,0,0,0,-1,2029,638,0,0
812,386,0,0,0,0,0,0,0,0,0,-1,2036,638,0,0
-700,379,0,0,0,0,0,0,0,0,0,-1,524,645,0,0
-693,379,0,0,0,0,0,0,0,0,0,-1,531,645,0,0
-686,379,0,0,0,0,0,0,0,0,0,-1,538,645,0,0
-679,379,0,0,0,0,0,0,0,0,0,-1,545,645,0,0
-672,379,0,0,0,0,0,0,0,0,0,-1,552,645,0,0
-665,379,0,0,0,0,0,0,0,0,0,-1,559,645,0,0
-658,379,0,0,0,0,0,0,0,0,0,-1,566,645,0,0
-651,379,0,0,0,0,0,0,0,0,0,-1,573,645,0,0
-644,379,0,0,0,0,0,0,0,0,0,-1,580,645,0,0
-637,379,0,0,0,0,0,0,0,0,0,-1,587,645,0,0
-630,379,0,0,0,0,0,0,0,0,0,-1,594,645,0,0
-623,379,0,0,0,0,0,0,0,0,0,-1,601,645,0,0
-616,379,0,0,0,0,0,0,0,0,0,-1,608,645,0,0
-609,379,0,0,0,0,0,0,0,0,0,-1,615,645,0,0
-602,379,0,0,0,0,0,0,0,0,0,-1,622,645,0,0
-595,379,0,0,0,0,0,0,0,0,0,-1,629,645,0,0
-588,379,0,0,0,0,0,0,0,0,0,-1,636,645,0,0
-581,379,0,0,0,0,0,0,0,0,0,-1,643,645,0,0
-574,379,0,0,0,0,0,0,0,0,0,-1,650,645,0,0
-567,379,6.08093,5.12585,0,0,0,0,0,0,0,-1,657,645,6.0809,-5.12585
-560,379,-3.82104,1.45129,0,0,0,0,0,0,0,-1,664,645,-3.82108,-1.45126
-553,379,-3.97083,-0.535828,0,0,0,0,0,0,0,-1,671,645,-3.97082,0.535825
-546,379,-2.67047,0.248169,0,0,0,0,0,0,0,-1,678,645,-2.67048,-0.248182
-539,379,-4.03125,0.937134,0,0,0,0,0,0,0,-1,685,645,-4.03126,-0.937135
-532,379,-3.92267,0.104187,0,0,0,0,0,0,0,-1,692,645,-3.92268,-0.104199
-525,379,-3.62158,-0.398071,0.0170661,-0.00843874,0.00113556,0.0171165,-0.0084892,0.0444061,0.0150606,0.0442301,699,645,-3.62161,0.398043
-518,379,-3.48724,-0.982605,0.0134141,-0.00789834,-0.00040343,0.0134217,-0.00790597,-0.0189203,0.0124501,0.0407506,706,645,-3.48725,0.982601
-511,379,-3.06042,-0.964111,0.00963256,-0.0073787,-0.000826581,0.00967263,-0.00741877,-0.0484381,0.00989628,0.0286845,713,645,-3.06043,0.964127
-504,379,-3.06128,-1.06256,0.00699014,-0.00575905,-0.000774319,0.007037,-0.0058059,-0.0604387,0.0074262,0.0146989,720,645,-3.06128,1.06255
-497,379,-3.08929,-1.20856,0.00593184,-0.00433404,-0.000374637,0.00594549,-0.00434769,-0.0364288,0.00596659,0.00960545,727,645,-3.08932,1.20859
-490,379,-3.09064,-1.38239,0.00460802,-0.00399452,0.000171211,0.00461143,-0.00399793,0.0198919,0.00497482,0.00988305,734,645,-3.09063,1.38236
-483,379,-3.0777,-1.54706,0.00329952,-0.00306853,0.000793657,0.00339695,-0.00316595,0.122142,0.00378988,0.0117577,741,645,-3.07771,1.54703
-476,379,-3.07629,-1.69922,0.00217772,-0.00237659,0.00141142,0.00257966,-0.00277852,0.277431,0.00309426,0.0125432,748,645,-3.0763,1.6992
-469,379,-3.09094,-1.86462,0.00109801,-0.00181005,0.00225502,0.00232713,-0.00303917,0.499044,0.00310731,0.0115053,755,645,-3.09096,1.86465
-462,379,-3.10278,-2.05005,-0.000129838,-0.00140148,0.00312879,0.00242708,-0.0039584,0.685155,0.00372183,0.00870994,762,645,-3.10278,2.05004
-455,379,-3.11096,-2.22473,-0.000750283,-0.00149097,0.00401589,0.0029123,-0.00515355,0.739419,0.00471637,0.00869031,769,645,-3.11096,2.22473
-448,379,-3.10229,-2.38513,-0.00106752,-0.00199753,0.00540418,0.00389163,-0.00695668,0.742481,0.00634605,0.0105289,776,645,-3.1023,2.38511
-441,379,-3.10199,-2.58405,-0.00153298,-0.00314429,0.00698718,0.00469483,-0.00937211,0.727999,0.00826985,0.0141188,783,645,-3.10198,2.58406
-434,379,-3.00287,-2.79688,-0.00211172,-0.0046635,0.00864988,0.00535586,-0.0121311,0.712174,0.0103456,0.0355787,790,645,-3.0029,2.79686
-427,379,-3.16272,-2.6134,-0.00271449,-0.00666126,0.010582,0.00607661,-0.0154523,0.693215,0.0128166,0.0452928,797,645,-3.16274,2.61343
-420,379,-3.11566,-2.48517,-0.00334187,-0.00911891,0.0125081,0.00660689,-0.0190677,0.671921,0.0153942,0.0428782,804,645,-3.11566,2.48518
-413,379,-3.15472,-2.59076,0,0,0,0,0,0,0,-1,811,645,-3.15474,2.59073
-406,379,-4.64063,-4.38489,0,0,0,0,0,0,0,-1,818,645,-4.64065,4.3849
-399,379,-2.93536,-1.40118,0,0,0,0,0,0,0,-1,825,645,-2.93534,1.40119
-392,379,-4.16711,-0.466003,0,0,0,0,0,0,0,-1,832,645,-4.16714,0.465992
-385,379,-3.51862,0.441101,0,0,0,0,0,0,0,-1,839,645,-3.51859,-0.441072
-378,379,-5.3504,0.212219,0,0,0,0,0,0,0,-1,846,645,-5.35038,-0.212241
-371,379,-4.32092,-0.186707,0,0,0,0,0,0,0,-1,853,645,-4.3209,0.186707
-364,379,-3.40887,-0.549805,0,0,0,0,0,0,0,-1,860,645,-3.4089,0.549802
-357,379,0,0,0,0,0,0,0,0,0,-1,867,645,0,0
-350,379,0,0,0,0,0,0,0,0,0,-1,874,645,0,0
-343,379,0,0,0,0,0,0,0,0,0,-1,881,645,0,0
-336,379,0,0,0,0,0,0,0,0,0,-1,888,645,0,0
-329,379,0,0,0,0,0,0,0,0,0,-1,895,645,0,0
-322,379,0,0,0,0,0,0,0,0,0,-1,902,645,0,0
-315,379,0,0,0,0,0,0,0,0,0,-1,909,645,0,0
-308,379,0,0,0,0,0,0,0,0,0,-1,916,645,0,0
-301,379,0,0,0,0,0,0,0,0,0,-1,923,645,0,0
-294,379,0,0,0,0,0,0,0,0,0,-1,930,645,0,0
-287,379,0,0,0,0,0,0,0,0,0,-1,937,645,0,0
-280,379,0,0,0,0,0,0,0,0,0,-1,944,645,0,0
-273,379,0,0,0,0,0,0,0,0,0,-1,951,645,0,0
-266,379,0,0,0,0,0,0,0,0,0,-1,958,645,0,0
-259,379,0,0,0,0,0,0,0,0,0,-1,965,645,0,0
-252,379,0,0,0,0,0,0,0,0,0,-1,972,645,0,0
-245,379,0,0,0,0,0,0,0,0,0,-1,979,645,0,0
-238,379,0,0,0,0,0,0,0,0,0,-1,986,645,0,0
-231,379,0,0,0,0,0,0,0,0,0,-1,993,645,0,0
-224,379,0,0,0,0,0,0,0,0,0,-1,1000,645,0,0
-217,379,0,0,0,0,0,0,0,0,0,-1,1007,645,0,0
-210,379,0,0,0,0,0,0,0,0,0,-1,1014,645,0,0
-203,379,0,0,0,0,0,0,0,0,0,-1,1021,645,0,0
-196,379,0,0,0,0,0,0,0,0,0,-1,1028,645,0,0
-189,379,0,0,0,0,0,0,0,0,0,-1,1035,645,0,0
-182,379,0,0,0,0,0,0,0,0,0,-1,1042,645,0,0
-175,379,0,0,0,0,0,0,0,0,0,-1,1049,645,0,0
-168,379,0,0,0,0,0,0,0,0,0,-1,1056,645,0,0
-161,379,0,0,0,0,0,0,0,0,0,-1,1063,645,0,0
-154,379,0,0,0,0,0,0,0,0,0,-1,1070,645,0,0
-147,379,0,0,0,0,0,0,0,0,0,-1,1077,645,0,0
-140,379,0,0,0,0,0,0,0,0,0,-1,1084,645,0,0
-133,379,0,0,0,0,0,0,0,0,0,-1,1091,645,0,0
-126,379,0,0,0,0,0,0,0,0,0,-1,1098,645,0,0
-119,379,0,0,0,0,0,0,0,0,0,-1,1105,645,0,0
-112,379,0,0,0,0,0,0,0,0,0,-1,1112,645,0,0
-105,379,0,0,0,0,0,0,0,0,0,-1,1119,645,0,0
-98,379,0,0,0,0,0,0,0,0,0,-1,1126,645,0,0
-91,379,0,0,0,0,0,0,0,0,0,-1,1133,645,0,0
-84,379,0,0,0,0,0,0,0,0,0,-1,1140,645,0,0
-77,379,0,0,0,0,0,0,0,0,0,-1,1147,645,0,0
-70,379,0,0,0,0,0,0,0,0,0,-1,1154,645,0,0
-63,379,0,0,0,0,0,0,0,0,0,-1,1161,645,0,0
-56,379,0,0,0,0,0,0,0,0,0,-1,1168,645,0,0
-49,379,0,0,0,0,0,0,0,0,0,-1,1175,645,0,0
-42,379,0,0,0,0,0,0,0,0,0,-1,1182,645,0,0
-35,379,0,0,0,0,0,0,0,0,0,-1,1189,645,0,0
-28,379,0,0,0,0,0,0,0,0,0,-1,1196,645,0,0
-21,379,0,0,0,0,0,0,0,0,0,-1,1203,645,0,0
-14,379,0,0,0,0,0,0,0,0,0,-1,1210,645,0,0
-7,379,0,0,0,0,0,0,0,0,0,-1,1217,645,0,0
0,379,0,0,0,0,0,0,0,0,0,-1,1224,645,0,0
7,379,0,0,0,0,0,0,0,0,0,-1,1231,645,0,0
14,379,0,0,0,0,0,0,0,0,0,-1,1238,645,0,0
21,379,0,0,0,0,0,0,0,0,0,-1,1245,645,0,0
28,379,0,0,0,0,0,0,0,0,0,-1,1252,645,0,0
35,379,0,0,0,0,0,0,0,0,0,-1,1259,645,0,0
42,379,0,0,0,0,0,0,0,0,0,-1,1266,645,0,0
49,379,0,0,0,0,0,0,0,0,0,-1,1273,645,0,0
56,379,0,0,0,0,0,0,0,0,0,-1,1280,645,0,0
63,379,0,0,0,0,0,0,0,0,0,-1,1287,645,0,0
70,379,0,0,0,0,0,0,0,0,0,-1,1294,645,0,0
77,379,0,0,0,0,0,0,0,0,0,-1,1301,645,0,0
84,379,0,0,0,0,0,0,0,0,0,-1,1308,645,0,0
91,379,0,0,0,0,0,0,0,0,0,-1,1315,645,0,0
98,379,0,0,0,0,0,0,0,0,0,-1,1322,645,0,0
105,379,0,0,0,0,0,0,0,0,0,-1,1329,645,0,0
112,379,0,0,0,0,0,0,0,0,0,-1,1336,645,0,0
119,379,0,0,0,0,0,0,0,0,0,-1,1343,645,0,0
126,379,0,0,0,0,0,0,0,0,0,-1,1350,645,0,0
133,379,0,0,0,0,0,0,0,0,0,-1,1357,645,0,0
140,379,0,0,0,0,0,0,0,0,0,-1,1364,645,0,0
147,379,0,0,0,0,0,0,0,0,0,-1,1371,645,0,0
154,379,0,0,0,0,0,0,0,0,0,-1,1378,645,0,0
161,379,0,0,0,0,0,0,0,0,0,-1,1385,645,0,0
168,379,0,0,0,0,0,0,0,0,0,-1,1392,645,0,0
175,379,0,0,0,0,0,0,0,0,0,-1,1399,645,0,0
182,379,0,0,0,0,0,0,0,0,0,-1,1406,645,0,0
189,379,0,0,0,0,0,0,0,0,0,-1,1413,645,0,0
196,379,0,0,0,0,0,0,0,0,0,-1,1420,645,0,0
203,379,0,0,0,0,0,0,0,0,0,-1,1427,645,0,0
210,379,0,0,0,0,0,0,0,0,0,-1,1434,645,0,0
217,379,0,0,0,0,0,0,0,0,0,-1,1441,645,0,0
224,379,0,0,0,0,0,0,0,0,0,-1,1448,645,0,0
231,379,0,0,0,0,0,0,0,0,0,-1,1455,645,0,0
238,379,0,0,0,0,0,0,0,0,0,-1,1462,645,0,0
245,379,0,0,0,0,0,0,0,0,0,-1,1469,645,0,0
252,379,0,0,0,0,0,0,0,0,0,-1,1476,645,0,0
259,379,0,0,0,0,0,0,0,0,0,-1,1483,645,0,0
266,379,0,0,0,0,0,0,0,0,0,-1,1490,645,0,0
273,379,0,0,0,0,0,0,0,0,0,-1,1497,645,0,0
280,379,0,0,0,0,0,0,0,0,0,-1,1504,645,0,0
287,379,0,0,0,0,0,0,0,0,0,-1,1511,645,0,0
294,379,0,0,0,0,0,0,0,0,0,-1,1518,645,0,0
301,379,0,0,0,0,0,0,0,0,0,-1,1525,645,0,0
308,379,0,0,0,0,0,0,0,0,0,-1,1532,645,0,0
315,379,0,0,0,0,0,0,0,0,0,-1,1539,645,0,0
322,379,0,0,0,0,0,0,0,0,0,-1,1546,645,0,0
329,379,0,0,0,0,0,0,0,0,0,-1,1553,645,0,0
336,379,0,0,0,0,0,0,0,0,0,-1,1560,645,0,0
343,379,0,0,0,0,0,0,0,0,0,-1,1567,645,0,0
350,379,0,0,0,0,0,0,0,0,0,-1,1574,645,0,0
357,379,0,0,0,0,0,0,0,0,0,-1,1581,645,0,0
364,379,0,0,0,0,0,0,0,0,0,-1,1588,645,0,0
371,379,0,0,0,0,0,0,0,0,0,-1,1595,645,0,0
378,379,0,0,0,0,0,0,0,0,0,-1,1602,645,0,0
385,379,0,0,0,0,0,0,0,0,0,-1,1609,645,0,0
392,379,0,0,0,0,0,0,0,0,0,-1,1616,645,0,0
399,379,0,0,0,0,0,0,0,0,0,-1,1623,645,0,0
406,379,0,0,0,0,0,0,0,0,0,-1,1630,645,0,0
413,379,0,0,0,0,0,0,0,0,0,-1,1637,645,0,0
420,379,0,0,0,0,0,0,0,0,0,-1,1644,645,0,0
427,379,0,0,0,0,0,0,0,0,0,-1,1651,645,0,0
434,379,0,0,0,0,0,0,0,0,0,-1,1658,645,0,0
441,379,0,0,0,0,0,0,0,0,0,-1,1665,645,0,0
448,379,0,0,0,0,0,0,0,0,0,-1,1672,645,0,0
455,379,0,0,0,0,0,0,0,0,0,-1,1679,645,0,0
462,379,0,0,0,0,0,0,0,0,0,-1,1686,645,0,0
469,379,0,0,0,0,0,0,0,0,0,-1,1693,645,0,0
476,379,11.1787,0.830383,0,0,0,0,0,0,0,-1,1700,645,11.1787,-0.830365
483,379,7.4231,1.54321,0,0,0,0,0,0,0,-1,1707,645,7.42314,-1.54324
490,379,8.52881,1.56677,0,0,0,0,0,0,0,-1,1714,645,8.52878,-1.56677
497,379,9.63599,1.49573,0,0,0,0,0,0,0,-1,1721,645,9.63604,-1.4957
504,379,10.0833,1.35229,0,0,0,0,0,0,0,-1,1728,645,10.0832,-1.35227
511,379,8.14343,1.59912,0,0,0,0,0,0,0,-1,1735,645,8.14347,-1.59912
518,379,12.7955,-0.324097,0,0,0,0,0,0,0,-1,1742,645,12.7955,0.324101
525,379,6.03711,1.10352,0,0,0,0,0,0,0,-1,1749,645,6.03711,-1.10351
532,379,8.70947,0.887817,0,0,0,0,0,0,0,-1,1756,645,8.70953,-0.887808
539,379,7.45959,-0.272278,0,0,0,0,0,0,0,-1,1763,645,7.45965,0.272251
546,379,6.50842,-0.779175,0,0,0,0,0,0,0,-1,1770,645,6.50843,0.779203
553,379,7.98816,-1.4024,0,0,0,0,0,0,0,-1,1777,645,7.98817,1.40241
560,379,7.86487,-1.20404,-0.00604098,0.00907973,-0.00110596,0.0091602,-0.00612144,-1.49817,0.00888082,0.0379868,1784,645,7.86487,1.20404
567,379,7.70117,-1.06647,-0.00655424,0.00686439,-0.00153363,0.00703744,-0.00672729,-1.45844,0.00794774,0.0214593,1791,645,7.70114,1.06647
574,379,7.79114,-0.937073,-0.00619299,0.00483614,-0.00171062,0.00509537,-0.00645222,-1.4204,0.00668232,0.0124685,1798,645,7.79113,0.937089
581,379,7.79639,-0.764526,-0.00526498,0.00326028,-0.00163597,0.00356344,-0.00556814,-1.38757,0.0053143,0.0146722,1805,645,7.79642,0.76455
588,379,7.76196,-0.580017,-0.00415871,0.00208174,-0.00144616,0.00240058,-0.00447756,-1.35379,0.00403099,0.0173283,1812,645,7.76199,0.580039
595,379,7.76184,-0.401672,-0.0028616,0.00111107,-0.00125683,0.00147529,-0.00322582,-1.28872,0.00277621,0.0140488,1819,645,7.7618,0.401686
602,379,7.77649,-0.200439,-0.00121215,0.000215487,-0.000833907,0.000599365,-0.00159603,-1.13938,0.00131033,0.0130828,1826,645,7.77645,0.20042
609,379,7.75574,-0.00506592,0.000227199,-0.000160581,-0.00034228,0.00042669,-0.000360073,-0.5277,0.000454781,0.0128074,1833,645,7.75579,0.00503792
616,379,7.73657,0.192261,0.00170816,-0.000838271,-2.4825e-05,0.00170841,-0.000838513,-0.0097477,0.00149878,0.0111699,1840,645,7.73659,-0.192251
623,379,7.74878,0.399475,0.00332718,-0.0012884,0.000426061,0.00336618,-0.0013274,0.0912815,0.00279376,0.0122073,1847,645,7.74873,-0.399476
630,379,7.75818,0.572327,0.00524121,-0.00153719,0.000727236,0.00531836,-0.00161433,0.105685,0.0041887,0.0141389,1854,645,7.75812,-0.572322
637,379,7.79895,0.758362,0.00790802,-0.00208962,0.000882728,0.00798536,-0.00216696,0.0873927,0.00617398,0.0158934,1861,645,7.79901,-0.758378
644,379,7.74805,0.981934,0.0108167,-0.0025904,0.00115805,0.010916,-0.00268969,0.0855313,0.0083201,0.0253457,1868,645,7.74801,-0.981903
651,379,7.82397,1.02454,0.0148708,-0.0030249,0.00137086,0.0149752,-0.0031293,0.0760114,0.0111736,0.0496431,1875,645,7.82397,-1.02455
658,379,8.05872,1.6925,0.0204189,-0.00329323,0.00152275,0.0205163,-0.00339062,0.0638685,0.0149366,0.0489595,1882,645,8.05868,-1.69251
665,379,8.3335,2.539,0,0,0,0,0,0,0,-1,1889,645,8.33346,-2.53902
672,379,7.43872,2.6579,0,0,0,0,0,0,0,-1,1896,645,7.43874,-2.65788
679,379,8.79382,2.41998,0,0,0,0,0,0,0,-1,1903,645,8.79376,-2.41999
686,379,0,0,0,0,0,0,0,0,0,-1,1910,645,0,0
693,379,0,0,0,0,0,0,0,0,0,-1,1917,645,0,0
700,379,0,0,0,0,0,0,0,0,0,-1,1924,645,0,0
707,379,0,0,0,0,0,0,0,0,0,-1,1931,645,0,0
714,379,0,0,0,0,0,0,0,0,0,-1,1938,645,0,0
721,379,0,0,0,0,0,0,0,0,0,-1,1945,645,0,0
728,379,0,0,0,0,0,0,0,0,0,-1,1952,645,0,0
735,379,0,0,0,0,0,0,0,0,0,-1,1959,645,0,0
742,379,0,0,0,0,0,0,0,0,0,-1,1966,645,0,0
749,379,0,0,0,0,0,0,0,0,0,-1,1973,645,0,0
756,379,0,0,0,0,0,0,0,0,0,-1,1980,645,0,0
763,379,0,0,0,0,0,0,0,0,0,-1,1987,645,0,0
770,379,0,0,0,0,0,0,0,0,0,-1,1994,645,0,0
777,379,0,0,0,0,0,0,0,0,0,-1,2001,645,0,0
784,379,0,0,0,0,0,0,0,0,0,-1,2008,645,0,0
791,379,0,0,0,0,0,0,0,0,0,-1,2015,645,0,0
798,379,0,0,0,0,0,0,0,0,0,-1,2022,645,0,0
805,379,0,0,0,0,0,0,0,0,0,-1,2029,645,0,0
812,379,0,0,0,0,0,0,0,0,0,-1,2036,645,0,0
-700,372,0,0,0,0,0,0,0,0,0,-1,524,652,0,0
-693,372,0,0,0,0,0,0,0,0,0,-1,531,652,0,0
-686,372,0,0,0,0,0,0,0,0,0,-1,538,652,0,0
-679,372,0,0,0,0,0,0,0,0,0,-1,545,652,0,0
-672,372,0,0,0,0,0,0,0,0,0,-1,552,652,0,0
-665,372,0,0,0,0,0,0,0,0,0,-1,559,652,0,0
-658,372,0,0,0,0,0,0,0,0,0,-1,566,652,0,0
-651,372,0,0,0,0,0,0,0,0,0,-1,573,652,0,0
-644,372,0,0,0,0,0,0,0,0,0,-1,580,652,0,0
-637,372,0,0,0,0,0,0,0,0,0,-1,587,652,0,0
-630,372,0,0,0,0,0,0,0,0,0,-1,594,652,0,0
-623,372,0,0,0,0,0,0,0,0,0,-1,601,652,0,0
-616,372,0,0,0,0,0,0,0,0,0,-1,608,652,0,0
-609,372,0,0,0,0,0,0,0,0,0,-1,615,652,0,0
-602,372,0,0,0,0,0,0,0,0,0,-1,622,652,0,0
-595,372,0,0,0,0,0,0,0,0,0,-1,629,652,0,0
-588,372,0,0,0,0,0,0,0,0,0,-1,636,652,0,0
-581,372,0,0,0,0,0,0,0,0,0,-1,643,652,0,0
-574,372,0,0,0,0,0,0,0,0,0,-1,650,652,0,0
-567,372,-4.05511,1.51129,0,0,0,0,0,0,0,-1,657,652,-4.05511,-1.51132
-560,372,4.38324,6.37592,0,0,0,0,0,0,0,-1,664,652,4.38324,-6.37592
-553,372,-2.56567,0.693726,0,0,0,0,0,0,0,-1,671,652,-2.56566,-0.69372
-546,372,-2.90552,1.40161,0,0,0,0,0,0,0,-1,678,652,-2.90552,-1.4016
-539,372,-2.77069,0.834961,0,0,0,0,0,0,0,-1,685,652,-2.7707,-0.834971
-532,372,-3.66919,0.00164795,0,0,0,0,0,0,0,-1,692,652,-3.66922,-0.00166028
-525,372,-3.4903,-0.342163,0.0132515,-0.00392455,-0.000118145,0.0132523,-0.00392536,-0.00687801,0.0103934,0.0449592,699,652,-3.49027,0.342174
-518,372,-3.27063,-0.697205,0.0102619,-0.00418655,-0.00120764,0.0103621,-0.00428679,-0.0828166,0.00869664,0.0279598,706,652,-3.27065,0.697217
-511,372,-3.26459,-0.894775,0.00710842,-0.00441595,-0.00145252,0.00728868,-0.0045962,-0.123467,0.00692019,0.0151835,713,652,-3.26458,0.894757
-504,372,-3.27094,-1.02893,0.00502256,-0.00358809,-0.0012529,0.00520116,-0.00376669,-0.141596,0.00519963,0.0108337,720,652,-3.27093,1.02892
-497,372,-3.25873,-1.20502,0.0043526,-0.00278833,-0.000683589,0.00441745,-0.00285318,-0.0945837,0.00422996,0.0114098,727,652,-3.2587,1.20503
-490,372,-3.27448,-1.37506,0.00329548,-0.00288641,2.5805e-05,0.00329559,-0.00288651,0.00417419,0.00357184,0.0113833,734,652,-3.27448,1.37505
-483,372,-3.27722,-1.54639,0.00214039,-0.00240124,0.00077548,0.00226916,-0.00253,0.16454,0.00277216,0.0117544,741,652,-3.27721,1.54636
-476,372,-3.26624,-1.68781,0.00101674,-0.00206418,0.00153562,0.0016514,-0.00269884,0.391913,0.00253577,0.013039,748,652,-3.26624,1.68779
-469,372,-3.26361,-1.84839,-0.000187238,-0.00171855,0.00247417,0.00163704,-0.00354283,0.635342,0.00305733,0.0101986,755,652,-3.26364,1.84837
-462,372,-3.25446,-2.04834,-0.00153692,-0.00146402,0.0034528,0.00195252,-0.00495347,0.790676,0.00411074,0.0089835,762,652,-3.25446,2.04837
-455,372,-3.27332,-2.21454,-0.002422,-0.00158855,0.00456137,0.00257509,-0.00658564,0.830951,0.00545529,0.00954665,769,652,-3.27333,2.21456
-448,372,-3.2713,-2.3855,-0.00313816,-0.00209486,0.00619463,0.00360004,-0.00883306,0.827404,0.00738716,0.0103104,776,652,-3.27128,2.38549
-441,372,-3.17957,-2.68176,-0.00402987,-0.00315832,0.0081044,0.00452201,-0.0117102,0.812257,0.00967313,0.0236385,783,652,-3.17958,2.68176
-434,372,-3.3454,-2.677,-0.00508002,-0.00454956,0.0101711,0.00535976,-0.0149893,0.798434,0.0121792,0.0393226,790,652,-3.34541,2.67702
-427,372,-3.31036,-2.35681,-0.00625107,-0.00644195,0.0126068,0.0062607,-0.0189537,0.781613,0.0151599,0.0454227,797,652,-3.31036,2.35682
-420,372,-3.25403,-2.06232,0,0,0,0,0,0,0,-1,804,652,-3.25405,2.06229
-413,372,-4.74762,-3.29541,0,0,0,0,0,0,0,-1,811,652,-4.74763,3.29542
-406,372,-0.885437,-0.583923,0,0,0,0,0,0,0,-1,818,652,-0.885437,0.5839
-399,372,-3.97357,-0.825012,0,0,0,0,0,0,0,-1,825,652,-3.97359,0.825037
-392,372,-7.64337,0.173035,0,0,0,0,0,0,0,-1,832,652,-7.64337,-0.173019
-385,372,-6.48871,-0.0271606,0,0,0,0,0,0,0,-1,839,652,-6.48874,0.0271353
-378,372,-5.33044,-0.242432,0,0,0,0,0,0,0,-1,846,652,-5.33042,0.242457
-371,372,-4.40802,-0.495667,0,0,0,0,0,0,0,-1,853,652,-4.40802,0.495661
-364,372,0,0,0,0,0,0,0,0,0,-1,860,652,0,0
-357,372,0,0,0,0,0,0,0,0,0,-1,867,652,0,0
-350,372,0,0,0,0,0,0,0,0,0,-1,874,652,0,0
-343,372,0,0,0,0,0,0,0,0,0,-1,881,652,0,0
-336,372,0,0,0,0,0,0,0,0,0,-1,888,652,0,0
-329,372,0,0,0,0,0,0,0,0,0,-1,895,652,0,0
-322,372,0,0,0,0,0,0,0,0,0,-1,902,652,0,0
-315,372,0,0,0,0,0,0,0,0,0,-1,909,652,0,0
-308,372,0,0,0,0,0,0,0,0,0,-1,916,652,0,0
-301,372,0,0,0,0,0,0,0,0,0,-1,923,652,0,0
-294,372,0,0,0,0,0,0,0,0,0,-1,930,652,0,0
-287,372,0,0,0,0,0,0,0,0,0,-1,937,652,0,0
-280,372,0,0,0,0,0,0,0,0,0,-1,944,652,0,0
-273,372,0,0,0,0,0,0,0,0,0,-1,951,652,0,0
-266,372,0,0,0,0,0,0,0,0,0,-1,958,652,0,0
-259,372,0,0,0,0,0,0,0,0,0,-1,965,652,0,0
-252,372,0,0,0,0,0,0,0,0,0,-1,972,652,0,0
-245,372,0,0,0,0,0,0,0,0,0,-1,979,652,0,0
-238,372,0,0,0,0,0,0,0,0,0,-1,986,652,0,0
-231,372,0,0,0,0,0,0,0,0,0,-1,993,652,0,0
-224,372,0,0,0,0,0,0,0,0,0,-1,1000,652,0,0
-217,372,0,0,0,0,0,0,0,0,0,-1,1007,652,0,0
-210,372,0,0,0,0,0,0,0,0,0,-1,1014,652,0,0
-203,372,0,0,0,0,0,0,0,0,0,-1,1021,652,0,0
-196,372,0,0,0,0,0,0,0,0,0,-1,1028,652,0,0
-189,372,0,0,0,0,0,0,0,0,0,-1,1035,652,0,0
-182,372,0,0,0,0,0,0,0,0,0,-1,1042,652,0,0
-175,372,0,0,0,0,0,0,0,0,0,-1,1049,652,0,0
-168,372,0,0,0,0,0,0,0,0,0,-1,1056,652,0,0
-161,372,0,0,0,0,0,0,0,0,0,-1,1063,652,0,0
-154,372,0,0,0,0,0,0,0,0,0,-1,1070,652,0,0
-147,372,0,0,0,0,0,0,0,0,0,-1,1077,652,0,0
-140,372,0,0,0,0,0,0,0,0,0,-1,1084,652,0,0
-133,372,0,0,0,0,0,0,0,0,0,-1,1091,652,0,0
-126,372,0,0,0,0,0,0,0,0,0,-1,1098,652,0,0
-119,372,0,0,0,0,0,0,0,0,0,-1,1105,652,0,0
-112,372,0,0,0,0,0,0,0,0,0,-1,1112,652,0,0
-105,372,0,0,0,0,0,0,0,0,0,-1,1119,652,0,0
-98,372,0,0,0,0,0,0,0,0,0,-1,1126,652,0,0
-91,372,0,0,0,0,0,0,0,0,0,-1,1133,652,0,0
-84,372,0,0,0,0,0,0,0,0,0,-1,1140,652,0,0
-77,372,0,0,0,0,0,0,0,0,0,-1,1147,652,0,0
-70,372,0,0,0,0,0,0,0,0,0,-1,1154,652,0,0
-63,372,0,0,0,0,0,0,0,0,0,-1,1161,652,0,0
-56,372,0,0,0,0,0,0,0,0,0,-1,1168,652,0,0
-49,372,0,0,0,0,0,0,0,0,0,-1,1175,652,0,0
-42,372,0,0,0,0,0,0,0,0,0,-1,1182,652,0,0
-35,372,0,0,0,0,0,0,0,0,0,-1,1189,652,0,0
-28,372,0,0,0,0,0,0,0,0,0,-1,1196,652,0,0
-21,372,0,0,0,0,0,0,0,0,0,-1,1203,652,0,0
-14,372,0,0,0,0,0,0,0,0,0,-1,1210,652,0,0
-7,372,0,0,0,0,0,0,0,0,0,-1,1217,652,0,0
0,372,0,0,0,0,0,0,0,0,0,-1,1224,652,0,0
7,372,0,0,0,0,0,0,0,0,0,-1,1231,652,0,0
14,372,0,0,0,0,0,0,0,0,0,-1,1238,652,0,0
21,372,0,0,0,0,0,0,0,0,0,-1,1245,652,0,0
28,372,0,0,0,0,0,0,0,0,0,-1,1252,652,0,0
35,372,0,0,0,0,0,0,0,0,0,-1,1259,652,0,0
42,372,0,0,0,0,0,0,0,0,0,-1,1266,652,0,0
49,372,0,0,0,0,0,0,0,0,0,-1,1273,652,0,0
56,372,0,0,0,0,0,0,0,0,0,-1,1280,652,0,0
63,372,0,0,0,0,0,0,0,0,0,-1,1287,652,0,0
70,372,0,0,0,0,0,0,0,0,0,-1,1294,652,0,0
77,372,0,0,0,0,0,0,0,0,0,-1,1301,652,0,0
84,372,0,0,0,0,0,0,0,0,0,-1,1308,652,0,0
91,372,0,0,0,0,0,0,0,0,0,-1,1315,652,0,0
98,372,0,0,0,0,0,0,0,0,0,-1,1322,652,0,0
105,372,0,0,0,0,0,0,0,0,0,-1,1329,652,0,0
112,372,0,0,0,0,0,0,0,0,0,-1,1336,652,0,0
119,372,0,0,0,0,0,0,0,0,0,-1,1343,652,0,0
126,372,0,0,0,0,0,0,0,0,0,-1,1350,652,0,0
133,372,0,0,0,0,0,0,0,0,0,-1,1357,652,0,0
140,372,0,0,0,0,0,0,0,0,0,-1,1364,652,0,0
147,372,0,0,0,0,0,0,0,0,0,-1,1371,652,0,0
154,372,0,0,0,0,0,0,0,0,0,-1,1378,652,0,0
161,372,0,0,0,0,0,0,0,0,0,-1,1385,652,0,0
168,372,0,0,0,0,0,0,0,0,0,-1,1392,652,0,0
175,372,0,0,0,0,0,0,0,0,0,-1,1399,652,0,0
182,372,0,0,0,0,0,0,0,0,0,-1,1406,652,0,0
189,372,0,0,0,0,0,0,0,0,0,-1,1413,652,0,0
196,372,0,0,0,0,0,0,0,0,0,-1,1420,652,0,0
203,372,0,0,0,0,0,0,0,0,0,-1,1427,652,0,0
210,372,0,0,0,0,0,0,0,0,0,-1,1434,652,0,0
217,372,0,0,0,0,0,0,0,0,0,-1,1441,652,0,0
224,372,0,0,0,0,0,0,0,0,0,-1,1448,652,0,0
231,372,0,0,0,0,0,0,0,0,0,-1,1455,652,0,0
238,372,0,0,0,0,0,0,0,0,0,-1,1462,652,0,0
245,372,0,0,0,0,0,0,0,0,0,-1,1469,652,0,0
252,372,0,0,0,0,0,0,0,0,0,-1,1476,652,0,0
259,372,0,0,0,0,0,0,0,0,0,-1,1483,652,0,0
266,372,0,0,0,0,0,0,0,0,0,-1,1490,652,0,0
273,372,0,0,0,0,0,0,0,0,0,-1,1497,652,0,0
280,372,0,0,0,0,0,0,0,0,0,-1,1504,652,0,0
287,372,0,0,0,0,0,0,0,0,0,-1,1511,652,0,0
294,372,0,0,0,0,0,0,0,0,0,-1,1518,652,0,0
301,372,0,0,0,0,0,0,0,0,0,-1,1525,652,0,0
308,372,0,0,0,0,0,0,0,0,0,-1,1532,652,0,0
315,372,0,0,0,0,0,0,0,0,0,-1,1539,652,0,0
322,372,0,0,0,0,0,0,0,0,0,-1,1546,652,0,0
329,372,0,0,0,0,0,0,0,0,0,-1,1553,652,0,0
336,372,0,0,0,0,0,0,0,0,0,-1,1560,652,0,0
343,372,0,0,0,0,0,0,0,0,0,-1,1567,652,0,0
350,372,0,0,0,0,0,0,0,0,0,-1,1574,652,0,0
357,372,0,0,0,0,0,0,0,0,0,-1,1581,652,0,0
364,372,0,0,0,0,0,0,0,0,0,-1,1588,652,0,0
371,372,0,0,0,0,0,0,0,0,0,-1,1595,652,0,0
378,372,0,0,0,0,0,0,0,0,0,-1,1602,652,0,0
385,372,0,0,0,0,0,0,0,0,0,-1,1609,652,0,0
392,372,0,0,0,0,0,0,0,0,0,-1,1616,652,0,0
399,372,0,0,0,0,0,0,0,0,0,-1,1623,652,0,0
406,372,0,0,0,0,0,0,0,0,0,-1,1630,652,0,0
413,372,0,0,0,0,0,0,0,0,0,-1,1637,652,0,0
420,372,0,0,0,0,0,0,0,0,0,-1,1644,652,0,0
427,372,0,0,0,0,0,0,0,0,0,-1,1651,652,0,0
434,372,0,0,0,0,0,0,0,0,0,-1,1658,652,0,0
441,372,0,0,0,0,0,0,0,0,0,-1,1665,652,0,0
448,372,0,0,0,0,0,0,0,0,0,-1,1672,652,0,0
455,372,0,0,0,0,0,0,0,0,0,-1,1679,652,0,0
462,372,0,0,0,0,0,0,0,0,0,-1,1686,652,0,0
469,372,0,0,0,0,0,0,0,0,0,-1,1693,652,0,0
476,372,0,0,0,0,0,0,0,0,0,-1,1700,652,0,0
483,372,8.74182,1.53125,0,0,0,0,0,0,0,-1,1707,652,8.74186,-1.53126
490,372,9.78455,1.67096,0,0,0,0,0,0,0,-1,1714,652,9.7846,-1.67093
497,372,9.97644,1.46069,0,0,0,0,0,0,0,-1,1721,652,9.97647,-1.46071
504,372,10.1216,1.28375,0,0,0,0,0,0,0,-1,1728,652,10.1216,-1.28376
511,372,11.7367,-0.0272217,0,0,0,0,0,0,0,-1,1735,652,11.7367,0.0272326
518,372,12.0657,-0.0995483,0,0,0,0,0,0,0,-1,1742,652,12.0657,0.0995285
525,372,12.3947,-0.171814,0,0,0,0,0,0,0,-1,1749,652,12.3946,0.171824
532,372,9.36597,1.72034,0,0,0,0,0,0,0,-1,1756,652,9.36597,-1.72036
539,372,7.82886,-0.0865479,0,0,0,0,0,0,0,-1,1763,652,7.82882,0.0865771
546,372,10.953,-0.187195,0,0,0,0,0,0,0,-1,1770,652,10.953,0.187181
553,372,7.82336,-2.43103,0,0,0,0,0,0,0,-1,1777,652,7.8233,2.43101
560,372,7.9325,-1.763,-0.00160176,0.0122199,0.00204783,0.0125169,-0.00189879,1.42676,0.00904423,0.0425741,1784,652,7.93251,1.76298
567,372,7.91528,-1.11859,-0.00409534,0.00914983,0.000466399,0.00916623,-0.00411174,1.53564,0.007849,0.0219317,1791,652,7.91528,1.11861
574,372,7.99377,-0.904846,-0.00513101,0.00637972,-0.000575266,0.0064084,-0.00515969,-1.52099,0.0066918,0.0152115,1798,652,7.99373,0.904823
581,372,7.9762,-0.755127,-0.00504658,0.00419485,-0.00107915,0.0043192,-0.00517093,-1.45608,0.00548648,0.0151058,1805,652,7.97623,0.755099
588,372,7.95056,-0.573669,-0.00438949,0.00258449,-0.00125094,0.00280209,-0.00460709,-1.39857,0.00431979,0.0162431,1812,652,7.95058,0.573691
595,372,7.94592,-0.379883,-0.00356583,0.00128079,-0.00129935,0.00160716,-0.0038922,-1.32471,0.00326514,0.013735,1819,652,7.94596,0.379871
602,372,7.97412,-0.202393,-0.002173,0.00033749,-0.00102338,0.000701799,-0.00253731,-1.2288,0.00196764,0.0120745,1826,652,7.97416,0.202412
609,372,7.9458,-0.0219727,-0.000828453,-2.93439e-05,-0.000633671,0.000320223,-0.00117802,-1.06668,0.000911044,0.0118191,1833,652,7.94577,0.021955
616,372,7.93542,0.182373,0.000592575,-0.000672442,-0.000320417,0.000669104,-0.000748971,-0.23445,0.000819159,0.0122269,1840,652,7.9354,-0.182377
623,372,7.95227,0.402832,0.00203613,-0.00104086,0.000124765,0.00204118,-0.00104591,0.0404593,0.00181294,0.0130068,1847,652,7.95223,-0.402833
630,372,7.96045,0.595154,0.00370072,-0.00103343,0.000350725,0.00372656,-0.00105928,0.0735488,0.00290263,0.018545,1854,652,7.96043,-0.595127
637,372,7.99524,0.758728,0.00604422,-0.00128338,0.000377891,0.00606366,-0.00130281,0.0513891,0.00453946,0.0210493,1861,652,7.99524,-0.758714
644,372,8.026,1.00793,0.00835503,-0.00147583,0.00038071,0.00836975,-0.00149055,0.0386489,0.00613731,0.0193614,1868,652,8.026,-1.00792
651,372,8.05835,1.2193,0.0115926,-0.00157819,0.000200807,0.0115957,-0.00158125,0.0152417,0.00830785,0.0422095,1875,652,8.05829,-1.21932
658,372,8.07324,1.39429,0.0161358,-0.00149499,-0.000213682,0.0161384,-0.00149758,-0.0121174,0.0112913,0.0445721,1882,652,8.07319,-1.39431
665,372,8.1178,1.89673,0,0,0,0,0,0,0,-1,1889,652,8.11778,-1.89675
672,372,7.22559,3.03308,0,0,0,0,0,0,0,-1,1896,652,7.22561,-3.03306
679,372,8.4137,2.41138,0,0,0,0,0,0,0,-1,1903,652,8.41365,-2.41136
686,372,9.61511,1.97632,0,0,0,0,0,0,0,-1,1910,652,9.61512,-1.97632
693,372,0,0,0,0,0,0,0,0,0,-1,1917,652,0,0
700,372,0,0,0,0,0,0,0,0,0,-1,1924,652,0,0
707,372,0,0,0,0,0,0,0,0,0,-1,1931,652,0,0
714,372,0,0,0,0,0,0,0,0,0,-1,1938,652,0,0
721,372,0,0,0,0,0,0,0,0,0,-1,1945,652,0,0
728,372,0,0,0,0,0,0,0,0,0,-1,1952,652,0,0
735,372,0,0,0,0,0,0,0,0,0,-1,1959,652,0,0
742,372,0,0,0,0,0,0,0,0,0,-1,1966,652,0,0
749,372,0,0,0,0,0,0,0,0,0,-1,1973,652,0,0
756,372,0,0,0,0,0,0,0,0,0,-1,1980,652,0,0
763,372,0,0,0,0,0,0,0,0,0,-1,1987,652,0,0
770,372,0,0,0,0,0,0,0,0,0,-1,1994,652,0,0
777,372,0,0,0,0,0,0,0,0,0,-1,2001,652,0,0
784,372,0,0,0,0,0,0,0,0,0,-1,2008,652,0,0
791,372,0,0,0,0,0,0,0,0,0,-1,2015,652,0,0
798,372,0,0,0,0,0,0,0,0,0,-1,2022,652,0,0
805,372,0,0,0,0,0,0,0,0,0,-1,2029,652,0,0
812,372,0,0,0,0,0,0,0,0,0,-1,2036,652,0,0
-700,365,0,0,0,0,0,0,0,0,0,-1,524,659,0,0
-693,365,0,0,0,0,0,0,0,0,0,-1,531,659,0,0
-686,365,0,0,0,0,0,0,0,0,0,-1,538,659,0,0
-679,365,0,0,0,0,0,0,0,0,0,-1,545,659,0,0
-672,365,0,0,0,0,0,0,0,0,0,-1,552,659,0,0
-665,365,0,0,0,0,0,0,0,0,0,-1,559,659,0,0
-658,365,0,0,0,0,0,0,0,0,0,-1,566,659,0,0
-651,365,0,0,0,0,0,0,0,0,0,-1,573,659,0,0
-644,365,0,0,0,0,0,0,0,0,0,-1,580,659,0,0
-637,365,0,0,0,0,0,0,0,0,0,-1,587,659,0,0
-630,365,0,0,0,0,0,0,0,0,0,-1,594,659,0,0
-623,365,0,0,0,0,0,0,0,0,0,-1,601,659,0,0
-616,365,0,0,0,0,0,0,0,0,0,-1,608,659,0,0
-609,365,0,0,0,0,0,0,0,0,0,-1,615,659,0,0
-602,365,0,0,0,0,0,0,0,0,0,-1,622,659,0,0
-595,365,0,0,0,0,0,0,0,0,0,-1,629,659,0,0
-588,365,0,0,0,0,0,0,0,0,0,-1,636,659,0,0
-581,365,0,0,0,0,0,0,0,0,0,-1,643,659,0,0
-574,365,-4.16351,1.08228,0.0568602,0.00880027,0.0320215,0.0728654,-0.00720494,0.463509,0.051148,0.0452606,650,659,-4.16349,-1.08225
-567,365,-4.17596,1.34265,0.0461995,0.00682809,0.02223,0.0562072,-0.00317962,0.423012,0.0385751,0.0483112,657,659,-4.17595,-1.34266
-560,365,-4.15259,1.61536,0,0,0,0,0,0,0,-1,664,659,-4.15259,-1.61536
-553,365,-2.72162,0.529785,0.0301533,0.00333166,0.0106473,0.033866,-0.000381032,0.335515,0.0227054,0.0488318,671,659,-2.72161,-0.529756
-546,365,-3.07147,1.0506,0.0228621,0.0022678,0.00637433,0.0246755,0.000454492,0.27715,0.0163009,0.0476039,678,659,-3.07146,-1.0506
-539,365,-2.97754,0.572815,0.0175103,0.00140024,0.0029991,0.0180505,0.000860038,0.178212,0.0117575,0.0473831,685,659,-2.97754,-0.572835
-532,365,-3.02661,0.154358,0.0135429,0.000610447,0.000644648,0.0135749,0.000578392,0.0496833,0.00886344,0.0485323,692,659,-3.02664,-0.154335
-525,365,-3.26703,-0.43042,0.0100459,-0.000673588,-0.000778797,0.0101022,-0.000729874,-0.0721475,0.0069908,0.0395554,699,659,-3.26706,0.430412
-518,365,-3.35364,-0.733398,0.00760076,-0.0014739,-0.00158137,0.00786843,-0.00174158,-0.16768,0.00591228,0.0235675,706,659,-3.35366,0.73338
-511,365,-3.45013,-0.878418,0.00501545,-0.00228176,-0.00173209,0.00540571,-0.00267202,-0.221612,0.00475186,0.0172528,713,659,-3.45013,0.878398
-504,365,-3.45642,-1.0387,0.00336036,-0.00209821,-0.00151525,0.00375277,-0.00249062,-0.253407,0.0036291,0.0126001,720,659,-3.45642,1.03872
-497,365,-3.45117,-1.20746,0.00292508,-0.00171468,-0.000847308,0.00307498,-0.00186458,-0.175092,0.00288025,0.0131634,727,659,-3.45119,1.20747
-490,365,-3.45526,-1.38123,0.00208256,-0.00203256,4.96007e-06,0.00208256,-0.00203257,0.00120533,0.00237593,0.0132119,734,659,-3.45526,1.38124
-483,365,-3.46851,-1.55048,0.00106993,-0.00182545,0.000876646,0.00131467,-0.00207019,0.272244,0.00197041,0.0119679,741,659,-3.46853,1.55046
-476,365,-3.4436,-1.70441,-4.70303e-05,-0.00168323,0.00180969,0.00112089,-0.00285115,0.573112,0.00236467,0.0122328,748,659,-3.44359,1.70439
-469,365,-3.42175,-1.86682,-0.00135797,-0.0014249,0.00291051,0.00151926,-0.00430214,0.77965,0.00348665,0.0117393,755,659,-3.42176,1.86682
-462,365,-3.4079,-2.04657,-0.00280996,-0.00120427,0.00410898,0.00217956,-0.00619379,0.881877,0.00501612,0.013213,762,659,-3.40787,2.04656
-455,365,-3.42511,-2.21997,-0.00397866,-0.00120853,0.00561064,0.00318547,-0.00837267,0.906411,0.00689347,0.0146139,769,659,-3.42513,2.21998
-448,365,-3.38635,-2.44025,-0.005151,-0.00152781,0.00769067,0.00456174,-0.0112406,0.901068,0.00939116,0.0162079,776,659,-3.38633,2.44025
-441,365,-3.45325,-2.64087,-0.00654733,-0.00228601,0.0101728,0.00597689,-0.0148102,0.888629,0.0123574,0.0378164,783,659,-3.45322,2.64086
-434,365,-3.48553,-2.87396,-0.00814784,-0.00334084,0.0129425,0.00741947,-0.0189082,0.877205,0.0156753,0.0436433,790,659,-3.48556,2.87397
-427,365,-3.3576,-2.19281,0,0,0,0,0,0,0,-1,797,659,-3.35763,2.19282
-420,365,-4.58813,-3.16376,0,0,0,0,0,0,0,-1,804,659,-4.58816,3.16374
-413,365,0.141357,0.672729,0,0,0,0,0,0,0,-1,811,659,0.141365,-0.672714
-406,365,-1.75067,-0.934448,0,0,0,0,0,0,0,-1,818,659,-1.7507,0.934424
-399,365,-4.10242,-1.25439,0,0,0,0,0,0,0,-1,825,659,-4.10244,1.25438
-392,365,-7.46545,-0.779724,0,0,0,0,0,0,0,-1,832,659,-7.46543,0.779744
-385,365,-6.27875,-0.887573,0,0,0,0,0,0,0,-1,839,659,-6.27874,0.887545
-378,365,-5.34503,-0.263306,0,0,0,0,0,0,0,-1,846,659,-5.34504,0.263275
-371,365,0,0,0,0,0,0,0,0,0,-1,853,659,0,0
-364,365,0,0,0,0,0,0,0,0,0,-1,860,659,0,0
-357,365,0,0,0,0,0,0,0,0,0,-1,867,659,0,0
-350,365,0,0,0,0,0,0,0,0,0,-1,874,659,0,0
-343,365,0,0,0,0,0,0,0,0,0,-1,881,659,0,0
-336,365,0,0,0,0,0,0,0,0,0,-1,888,659,0,0
-329,365,0,0,0,0,0,0,0,0,0,-1,895,659,0,0
-322,365,0,0,0,0,0,0,0,0,0,-1,902,659,0,0
-315,365,0,0,0,0,0,0,0,0,0,-1,909,659,0,0
-308,365,0,0,0,0,0,0,0,0,0,-1,916,659,0,0
-301,365,0,0,0,0,0,0,0,0,0,-1,923,659,0,0
-294,365,0,0,0,0,0,0,0,0,0,-1,930,659,0,0
-287,365,0,0,0,0,0,0,0,0,0,-1,937,659,0,0
-280,365,0,0,0,0,0,0,0,0,0,-1,944,659,0,0
-273,365,0,0,0,0,0,0,0,0,0,-1,951,659,0,0
-266,365,0,0,0,0,0,0,0,0,0,-1,958,659,0,0
-259,365,0,0,0,0,0,0,0,0,0,-1,965,659,0,0
-252,365,0,0,0,0,0,0,0,0,0,-1,972,659,0,0
-245,365,0,0,0,0,0,0,0,0,0,-1,979,659,0,0
-238,365,0,0,0,0,0,0,0,0,0,-1,986,659,0,0
-231,365,0,0,0,0,0,0,0,0,0,-1,993,659,0,0
-224,365,0,0,0,0,0,0,0,0,0,-1,1000,659,0,0
-217,365,0,0,0,0,0,0,0,0,0,-1,1007,659,0,0
-210,365,0,0,0,0,0,0,0,0,0,-1,1014,659,0,0
-203,365,0,0,0,0,0,0,0,0,0,-1,1021,659,0,0
-196,365,0,0,0,0,0,0,0,0,0,-1,1028,659,0,0
-189,365,0,0,0,0,0,0,0,0,0,-1,1035,659,0,0
-182,365,0,0,0,0,0,0,0,0,0,-1,1042,659,0,0
-175,365,0,0,0,0,0,0,0,0,0,-1,1049,659,0,0
-168,365,0,0,0,0,0,0,0,0,0,-1,1056,659,0,0
-161,365,0,0,0,0,0,0,0,0,0,-1,1063,659,0,0
-154,365,0,0,0,0,0,0,0,0,0,-1,1070,659,0,0
-147,365,0,0,0,0,0,0,0,0,0,-1,1077,659,0,0
-140,365,0,0,0,0,0,0,0,0,0,-1,1084,659,0,0
-133,365,0,0,0,0,0,0,0,0,0,-1,1091,659,0,0
-126,365,0,0,0,0,0,0,0,0,0,-1,1098,659,0,0
-119,365,0,0,0,0,0,0,0,0,0,-1,1105,659,0,0
-112,365,0,0,0,0,0,0,0,0,0,-1,1112,659,0,0
-105,365,0,0,0,0,0,0,0,0,0,-1,1119,659,0,0
-98,365,0,0,0,0,0,0,0,0,0,-1,1126,659,0,0
-91,365,0,0,0,0,0,0,0,0,0,-1,1133,659,0,0
-84,365,0,0,0,0,0,0,0,0,0,-1,1140,659,0,0
-77,365,0,0,0,0,0,0,0,0,0,-1,1147,659,0,0
-70,365,0,0,0,0,0,0,0,0,0,-1,1154,659,0,0
-63,365,0,0,0,0,0,0,0,0,0,-1,1161,659,0,0
-56,365,0,0,0,0,0,0,0,0,0,-1,1168,659,0,0
-49,365,0,0,0,0,0,0,0,0,0,-1,1175,659,0,0
-42,365,0,0,0,0,0,0,0,0,0,-1,1182,659,0,0
-35,365,0,0,0,0,0,0,0,0,0,-1,1189,659,0,0
-28,365,0,0,0,0,0,0,0,0,0,-1,1196,659,0,0
-21,365,0,0,0,0,0,0,0,0,0,-1,1203,659,0,0
-14,365,0,0,0,0,0,0,0,0,0,-1,1210,659,0,0
-7,365,0,0,0,0,0,0,0,0,0,-1,1217,659,0,0
0,365,0,0,0,0,0,0,0,0,0,-1,1224,659,0,0
7,365,0,0,0,0,0,0,0,0,0,-1,1231,659,0,0
14,365,0,0,0,0,0,0,0,0,0,-1,1238,659,0,0
21,365,0,0,0,0,0,0,0,0,0,-1,1245,659,0,0
28,365,0,0,0,0,0,0,0,0,0,-1,1252,659,0,0
35,365,0,0,0,0,0,0,0,0,0,-1,1259,659,0,0
42,365,0,0,0,0,0,0,0,0,0,-1,1266,659,0,0
49,365,0,0,0,0,0,0,0,0,0,-1,1273,659,0,0
56,365,0,0,0,0,0,0,0,0,0,-1,1280,659,0,0
63,365,0,0,0,0,0,0,0,0,0,-1,1287,659,0,0
70,365,0,0,0,0,0,0,0,0,0,-1,1294,659,0,0
77,365,0,0,0,0,0,0,0,0,0,-1,1301,659,0,0
84,365,0,0,0,0,0,0,0,0,0,-1,1308,659,0,0
91,365,0,0,0,0,0,0,0,0,0,-1,1315,659,0,0
98,365,0,0,0,0,0,0,0,0,0,-1,1322,659,0,0
105,365,0,0,0,0,0,0,0,0,0,-1,1329,659,0,0
112,365,0,0,0,0,0,0,0,0,0,-1,1336,659,0,0
119,365,0,0,0,0,0,0,0,0,0,-1,1343,659,0,0
126,365,0,0,0,0,0,0,0,0,0,-1,1350,659,0,0
133,365,0,0,0,0,0,0,0,0,0,-1,1357,659,0,0
140,365,0,0,0,0,0,0,0,0,0,-1,1364,659,0,0
147,365,0,0,0,0,0,0,0,0,0,-1,1371,659,0,0
154,365,0,0,0,0,0,0,0,0,0,-1,1378,659,0,0
161,365,0,0,0,0,0,0,0,0,0,-1,1385,659,0,0
168,365,0,0,0,0,0,0,0,0,0,-1,1392,659,0,0
175,365,0,0,0,0,0,0,0,0,0,-1,1399,659,0,0
182,365,0,0,0,0,0,0,0,0,0,-1,1406,659,0,0
189,365,0,0,0,0,0,0,0,0,0,-1,1413,659,0,0
196,365,0,0,0,0,0,0,0,0,0,-1,1420,659,0,0
203,365,0,0,0,0,0,0,0,0,0,-1,1427,659,0,0
210,365,0,0,0,0,0,0,0,0,0,-1,1434,659,0,0
217,365,0,0,0,0,0,0,0,0,0,-1,1441,659,0,0
224,365,0,0,0,0,0,0,0,0,0,-1,1448,659,0,0
231,365,0,0,0,0,0,0,0,0,0,-1,1455,659,0,0
238,365,0,0,0,0,0,0,0,0,0,-1,1462,659,0,0
245,365,0,0,0,0,0,0,0,0,0,-1,1469,659,0,0
252,365,0,0,0,0,0,0,0,0,0,-1,1476,659,0,0
259,365,0,0,0,0,0,0,0,0,0,-1,1483,659,0,0
266,365,0,0,0,0,0,0,0,0,0,-1,1490,659,0,0
273,365,0,0,0,0,0,0,0,0,0,-1,1497,659,0,0
280,365,0,0,0,0,0,0,0,0,0,-1,1504,659,0,0
287,365,0,0,0,0,0,0,0,0,0,-1,1511,659,0,0
294,365,0,0,0,0,0,0,0,0,0,-1,1518,659,0,0
301,365,0,0,0,0,0,0,0,0,0,-1,1525,659,0,0
308,365,0,0,0,0,0,0,0,0,0,-1,1532,659,0,0
315,365,0,0,0,0,0,0,0,0,0,-1,1539,659,0,0
322,365,0,0,0,0,0,0,0,0,0,-1,1546,659,0,0
329,365,0,0,0,0,0,0,0,0,0,-1,1553,659,0,0
336,365,0,0,0,0,0,0,0,0,0,-1,1560,659,0,0
343,365,0,0,0,0,0,0,0,0,0,-1,1567,659,0,0
350,365,0,0,0,0,0,0,0,0,0,-1,1574,659,0,0
357,365,0,0,0,0,0,0,0,0,0,-1,1581,659,0,0
364,365,0,0,0,0,0,0,0,0,0,-1,1588,659,0,0
371,365,0,0,0,0,0,0,0,0,0,-1,1595,659,0,0
378,365,0,0,0,0,0,0,0,0,0,-1,1602,659,0,0
385,365,0,0,0,0,0,0,0,0,0,-1,1609,659,0,0
392,365,0,0,0,0,0,0,0,0,0,-1,1616,659,0,0
399,365,0,0,0,0,0,0,0,0,0,-1,1623,659,0,0
406,365,0,0,0,0,0,0,0,0,0,-1,1630,659,0,0
413,365,0,0,0,0,0,0,0,0,0,-1,1637,659,0,0
420,365,0,0,0,0,0,0,0,0,0,-1,1644,659,0,0
427,365,0,0,0,0,0,0,0,0,0,-1,1651,659,0,0
434,365,0,0,0,0,0,0,0,0,0,-1,1658,659,0,0
441,365,0,0,0,0,0,0,0,0,0,-1,1665,659,0,0
448,365,0,0,0,0,0,0,0,0,0,-1,1672,659,0,0
455,365,0,0,0,0,0,0,0,0,0,-1,1679,659,0,0
462,365,0,0,0,0,0,0,0,0,0,-1,1686,659,0,0
469,365,0,0,0,0,0,0,0,0,0,-1,1693,659,0,0
476,365,0,0,0,0,0,0,0,0,0,-1,1700,659,0,0
483,365,0,0,0,0,0,0,0,0,0,-1,1707,659,0,0
490,365,8.39551,0.471252,0,0,0,0,0,0,0,-1,1714,659,8.39551,-0.471241
497,365,9.89233,1.35394,0,0,0,0,0,0,0,-1,1721,659,9.89237,-1.35396
504,365,10.1414,1.18005,0,0,0,0,0,0,0,-1,1728,659,10.1413,-1.18004
511,365,10.5151,0.993896,0,0,0,0,0,0,0,-1,1735,659,10.5152,-0.993894
518,365,11.2029,0.398132,0,0,0,0,0,0,0,-1,1742,659,11.2029,-0.398136
525,365,11.3424,0.597229,0,0,0,0,0,0,0,-1,1749,659,11.3424,-0.597203
532,365,11.2446,1.00629,0,0,0,0,0,0,0,-1,1756,659,11.2446,-1.00631
539,365,12.6301,1.03204,0,0,0,0,0,0,0,-1,1763,659,12.6302,-1.03204
546,365,11.647,0.84198,0,0,0,0,0,0,0,-1,1770,659,11.6469,-0.841955
553,365,12.028,-0.558899,0,0,0,0,0,0,0,-1,1777,659,12.028,0.558873
560,365,9.25208,-2.16705,0,0,0,0,0,0,0,-1,1784,659,9.2521,2.16705
567,365,8.88684,-1.64929,0.00353829,0.00950732,0.00201697,0.010125,0.00292065,1.27364,0.00601751,0.0455783,1791,659,8.88689,1.64928
574,365,8.29944,-0.971985,0.000293842,0.0065704,0.000462434,0.00660429,0.000259955,1.49765,0.00431882,0.0289673,1798,659,8.2994,0.972008
581,365,8.15381,-0.755615,-0.00152185,0.00423853,-0.00047919,0.00427812,-0.00156144,-1.48836,0.00349097,0.0158273,1805,659,8.15378,0.755596
588,365,8.12549,-0.553528,-0.00230525,0.00252496,-0.000966434,0.00271115,-0.00249144,-1.38047,0.00300461,0.0118208,1812,659,8.12553,0.553519
595,365,8.13672,-0.351746,-0.00271447,0.00108543,-0.00124959,0.00145952,-0.00308857,-1.27991,0.0026814,0.0118922,1819,659,8.13666,0.351743
602,365,8.1488,-0.166199,-0.00217938,0.000204661,-0.00115129,0.000669862,-0.00264458,-1.18679,0.00202364,0.012218,1826,659,8.14883,0.166187
609,365,8.12378,0.0161133,-0.00147493,-7.1119e-05,-0.0009246,0.000387818,-0.00193387,-1.11006,0.00143608,0.012963,1833,659,8.12375,-0.0161193
616,365,8.13,0.209473,-0.000314642,-0.000602225,-0.000624526,0.000182432,-0.0010993,-0.67225,0.000800635,0.0145406,1840,659,8.12995,-0.20945
623,365,8.16284,0.404602,0.000956458,-0.000887147,-0.000185608,0.000974958,-0.000905648,-0.0993483,0.00108601,0.0113307,1847,659,8.16278,-0.404603
630,365,8.14978,0.594177,0.00247968,-0.000701945,-1.40415e-05,0.00247975,-0.000702007,-0.00441319,0.0019302,0.016115,1854,659,8.14981,-0.594153
637,365,8.15027,0.764404,0.00463444,-0.000732111,-9.81008e-05,0.00463623,-0.000733904,-0.0182719,0.00336226,0.0208908,1861,659,8.15023,-0.764415
644,365,8.1687,0.957153,0.00656374,-0.000740497,-0.000318343,0.00657759,-0.000754346,-0.0434735,0.00465692,0.0145224,1868,659,8.16873,-0.957141
651,365,8.25769,1.15619,0.00928058,-0.000671057,-0.000800035,0.00934448,-0.000734963,-0.0797101,0.00648853,0.025165,1875,659,8.25767,-1.15617
658,365,8.02673,1.14307,0.0131932,-0.000459151,-0.00161179,0.0133809,-0.000646858,-0.115936,0.00914386,0.0402524,1882,659,8.02668,-1.14307
665,365,7.90356,1.25537,0,0,0,0,0,0,0,-1,1889,659,7.90361,-1.25534
672,365,7.17053,2.24762,0,0,0,0,0,0,0,-1,1896,659,7.1705,-2.24762
679,365,8.21191,1.8667,0,0,0,0,0,0,0,-1,1903,659,8.21189,-1.86668
686,365,8.62463,1.46912,0,0,0,0,0,0,0,-1,1910,659,8.62463,-1.46911
693,365,9.40967,1.14368,0,0,0,0,0,0,0,-1,1917,659,9.40962,-1.14368
700,365,0,0,0,0,0,0,0,0,0,-1,1924,659,0,0
707,365,0,0,0,0,0,0,0,0,0,-1,1931,659,0,0
714,365,0,0,0,0,0,0,0,0,0,-1,1938,659,0,0
721,365,0,0,0,0,0,0,0,0,0,-1,1945,659,0,0
728,365,0,0,0,0,0,0,0,0,0,-1,1952,659,0,0
735,365,0,0,0,0,0,0,0,0,0,-1,1959,659,0,0
742,365,0,0,0,0,0,0,0,0,0,-1,1966,659,0,0
749,365,0,0,0,0,0,0,0,0,0,-1,1973,659,0,0
756,365,0,0,0,0,0,0,0,0,0,-1,1980,659,0,0
763,365,0,0,0,0,0,0,0,0,0,-1,1987,659,0,0
770,365,0,0,0,0,0,0,0,0,0,-1,1994,659,0,0
777,365,0,0,0,0,0,0,0,0,0,-1,2001,659,0,0
784,365,0,0,0,0,0,0,0,0,0,-1,2008,659,0,0
791,365,0,0,0,0,0,0,0,0,0,-1,2015,659,0,0
798,365,0,0,0,0,0,0,0,0,0,-1,2022,659,0,0
805,365,0,0,0,0,0,0,0,0,0,-1,2029,659,0,0
812,365,0,0,0,0,0,0,0,0,0,-1,2036,659,0,0
-700,358,0,0,0,0,0,0,0,0,0,-1,524,666,0,0
-693,358,0,0,0,0,0,0,0,0,0,-1,531,666,0,0
-686,358,0,0,0,0,0,0,0,0,0,-1,538,666,0,0
-679,358,0,0,0,0,0,0,0,0,0,-1,545,666,0,0
-672,358,0,0,0,0,0,0,0,0,0,-1,552,666,0,0
-665,358,0,0,0,0,0,0,0,0,0,-1,559,666,0,0
-658,358,0,0,0,0,0,0,0,0,0,-1,566,666,0,0
-651,358,0,0,0,0,0,0,0,0,0,-1,573,666,0,0
-644,358,0,0,0,0,0,0,0,0,0,-1,580,666,0,0
-637,358,0,0,0,0,0,0,0,0,0,-1,587,666,0,0
-630,358,0,0,0,0,0,0,0,0,0,-1,594,666,0,0
-623,358,0,0,0,0,0,0,0,0,0,-1,601,666,0,0
-616,358,0,0,0,0,0,0,0,0,0,-1,608,666,0,0
-609,358,0,0,0,0,0,0,0,0,0,-1,615,666,0,0
-602,358,0,0,0,0,0,0,0,0,0,-1,622,666,0,0
-595,358,0,0,0,0,0,0,0,0,0,-1,629,666,0,0
-588,358,0,0,0,0,0,0,0,0,0,-1,636,666,0,0
-581,358,-4.84894,0.651489,0.0810405,0.00903165,0.0422365,0.100536,-0.0104638,0.432441,0.0707702,0.0438626,643,666,-4.84895,-0.651473
-574,358,-4.44391,0.928833,0.0603067,0.0104901,0.0312141,0.0753326,-0.00453578,0.448643,0.0517999,0.0413318,650,666,-4.44392,-0.928861
-567,358,-4.32959,1.19421,0.0461931,0.00976319,0.0218034,0.056389,-0.00043264,0.437414,0.0377377,0.0453173,657,666,-4.32958,-1.19418
-560,358,-2.6369,0.463928,0.0356146,0.00865105,0.0150695,0.0423528,0.00191287,0.420474,0.0276197,0.0483352,664,666,-2.6369,-0.463944
-553,358,-2.92615,0.463623,0.0269227,0.00702489,0.00967032,0.0308481,0.00309951,0.3856,0.019614,0.0469339,671,666,-2.92614,-0.463608
-546,358,-3.19812,0.533691,0.0190454,0.00591977,0.0055093,0.0210513,0.00391386,0.349175,0.0129286,0.0448167,678,666,-3.19813,-0.533699
-539,358,-3.20966,0.450562,0.0138376,0.00455047,0.00228413,0.014369,0.0040191,0.228569,0.00856013,0.0457585,685,666,-3.20964,-0.450563
-532,358,-3.51428,-0.292542,0.0103642,0.00335132,9.36365e-05,0.0103654,0.00335007,0.0133489,0.00610793,0.0390459,692,666,-3.51428,0.292513
-525,358,-3.54614,-0.549011,0.00743356,0.00170699,-0.00107914,0.00763017,0.00151038,-0.180214,0.00466553,0.0253501,699,666,-3.54614,0.548981
-518,358,-3.55389,-0.662292,0.00542863,0.000530804,-0.00168828,0.00595419,5.24614e-06,-0.301789,0.00396771,0.0209403,706,666,-3.55391,0.662267
-511,358,-3.60297,-0.866821,0.00333031,-0.000715841,-0.00177529,0.0039988,-0.00138432,-0.360127,0.00322782,0.0154479,713,666,-3.60296,0.866843
-504,358,-3.61639,-1.04315,0.00199635,-0.00110272,-0.00156376,0.00264827,-0.00175464,-0.394984,0.00255942,0.0111832,720,666,-3.61638,1.04314
-497,358,-3.6131,-1.21234,0.00164331,-0.00105124,-0.000835989,0.0018816,-0.00128953,-0.27768,0.00184146,0.0109972,727,666,-3.61307,1.21235
-490,358,-3.60388,-1.3786,0.000911514,-0.00148678,0.000133114,0.00091888,-0.00149414,0.0552773,0.00140629,0.010208,734,666,-3.60391,1.37859
-483,358,-3.60968,-1.53088,-4.86277e-05,-0.00150251,0.0010922,0.000536429,-0.00208757,0.491774,0.00160077,0.00930154,741,666,-3.60966,1.53091
-476,358,-3.59619,-1.68982,-0.00125829,-0.0014931,0.00216878,0.000796262,-0.00354765,0.758357,0.00267039,0.010512,748,666,-3.59616,1.68981
-469,358,-3.59161,-1.86743,-0.0027858,-0.0012755,0.0034156,0.00146743,-0.00552873,0.894192,0.00426006,0.0125982,755,666,-3.59164,1.86741
-462,358,-3.59113,-2.03973,-0.00448027,-0.00103472,0.00484269,0.00238251,-0.0078975,0.956291,0.00621334,0.0166773,762,666,-3.59114,2.03973
-455,358,-3.56409,-2.22571,-0.00612341,-0.000799868,0.00676476,0.00380795,-0.0107312,0.972833,0.00870565,0.0191594,769,666,-3.5641,2.22569
-448,358,-3.46252,-2.48041,-0.00797811,-0.000725749,0.00934381,0.00567084,-0.0143747,0.970494,0.0119314,0.0386635,776,666,-3.46255,2.48042
-441,358,-3.3916,-2.63934,0,0,0,0,0,0,0,-1,783,666,-3.39159,2.63933
-434,358,-3.67261,-3.18225,0,0,0,0,0,0,0,-1,790,666,-3.6726,3.18225
-427,358,-3.56189,-3.15729,0,0,0,0,0,0,0,-1,797,666,-3.56192,3.15729
-420,358,0.200195,1.08234,0,0,0,0,0,0,0,-1,804,666,0.200174,-1.08231
-413,358,0.0325317,0.161072,0,0,0,0,0,0,0,-1,811,666,0.0325501,-0.161098
-406,358,-0.505615,0.0419312,0,0,0,0,0,0,0,-1,818,666,-0.50561,-0.0419371
-399,358,-1.31213,0.190735,0,0,0,0,0,0,0,-1,825,666,-1.31215,-0.190763
-392,358,-3.73914,-0.832214,0,0,0,0,0,0,0,-1,832,666,-3.73915,0.832202
-385,358,-5.95178,-1.69141,0,0,0,0,0,0,0,-1,839,666,-5.9518,1.69143
-378,358,0,0,0,0,0,0,0,0,0,-1,846,666,0,0
-371,358,0,0,0,0,0,0,0,0,0,-1,853,666,0,0
-364,358,0,0,0,0,0,0,0,0,0,-1,860,666,0,0
-357,358,0,0,0,0,0,0,0,0,0,-1,867,666,0,0
-350,358,0,0,0,0,0,0,0,0,0,-1,874,666,0,0
-343,358,0,0,0,0,0,0,0,0,0,-1,881,666,0,0
-336,358,0,0,0,0,0,0,0,0,0,-1,888,666,0,0
-329,358,0,0,0,0,0,0,0,0,0,-1,895,666,0,0
-322,358,0,0,0,0,0,0,0,0,0,-1,902,666,0,0
-315,358,0,0,0,0,0,0,0,0,0,-1,909,666,0,0
-308,358,0,0,0,0,0,0,0,0,0,-1,916,666,0,0
-301,358,0,0,0,0,0,0,0,0,0,-1,923,666,0,0
-294,358,0,0,0,0,0,0,0,0,0,-1,930,666,0,0
-287,358,0,0,0,0,0,0,0,0,0,-1,937,666,0,0
-280,358,0,0,0,0,0,0,0,0,0,-1,944,666,0,0
-273,358,0,0,0,0,0,0,0,0,0,-1,951,666,0,0
-266,358,0,0,0,0,0,0,0,0,0,-1,958,666,0,0
-259,358,0,0,0,0,0,0,0,0,0,-1,965,666,0,0
-252,358,0,0,0,0,0,0,0,0,0,-1,972,666,0,0
-245,358,0,0,0,0,0,0,0,0,0,-1,979,666,0,0
-238,358,0,0,0,0,0,0,0,0,0,-1,986,666,0,0
-231,358,0,0,0,0,0,0,0,0,0,-1,993,666,0,0
-224,358,0,0,0,0,0,0,0,0,0,-1,1000,666,0,0
-217,358,0,0,0,0,0,0,0,0,0,-1,1007,666,0,0
-210,358,0,0,0,0,0,0,0,0,0,-1,1014,666,0,0
-203,358,0,0,0,0,0,0,0,0,0,-1,1021,666,0,0
-196,358,0,0,0,0,0,0,0,0,0,-1,1028,666,0,0
-189,358,0,0,0,0,0,0,0,0,0,-1,1035,666,0,0
-182,358,0,0,0,0,0,0,0,0,0,-1,1042,666,0,0
-175,358,0,0,0,0,0,0,0,0,0,-1,1049,666,0,0
-168,358,0,0,0,0,0,0,0,0,0,-1,1056,666,0,0
-161,358,0,0,0,0,0,0,0,0,0,-1,1063,666,0,0
-154,358,0,0,0,0,0,0,0,0,0,-1,1070,666,0,0
-147,358,0,0,0,0,0,0,0,0,0,-1,1077,666,0,0
-140,358,0,0,0,0,0,0,0,0,0,-1,1084,666,0,0
-133,358,0,0,0,0,0,0,0,0,0,-1,1091,666,0,0
-126,358,0,0,0,0,0,0,0,0,0,-1,1098,666,0,0
-119,358,0,0,0,0,0,0,0,0,0,-1,1105,666,0,0
-112,358,0,0,0,0,0,0,0,0,0,-1,1112,666,0,0
-105,358,0,0,0,0,0,0,0,0,0,-1,1119,666,0,0
-98,358,0,0,0,0,0,0,0,0,0,-1,1126,666,0,0
-91,358,0,0,0,0,0,0,0,0,0,-1,1133,666,0,0
-84,358,0,0,0,0,0,0,0,0,0,-1,1140,666,0,0
-77,358,0,0,0,0,0,0,0,0,0,-1,1147,666,0,0
-70,358,0,0,0,0,0,0,0,0,0,-1,1154,666,0,0
-63,358,0,0,0,0,0,0,0,0,0,-1,1161,666,0,0
-56,358,0,0,0,0,0,0,0,0,0,-1,1168,666,0,0
-49,358,0,0,0,0,0,0,0,0,0,-1,1175,666,0,0
-42,358,0,0,0,0,0,0,0,0,0,-1,1182,666,0,0
-35,358,0,0,0,0,0,0,0,0,0,-1,1189,666,0,0
-28,358,0,0,0,0,0,0,0,0,0,-1,1196,666,0,0
-21,358,0,0,0,0,0,0,0,0,0,-1,1203,666,0,0
-14,358,0,0,0,0,0,0,0,0,0,-1,1210,666,0,0
-7,358,0,0,0,0,0,0,0,0,0,-1,1217,666,0,0
0,358,0,0,0,0,0,0,0,0,0,-1,1224,666,0,0
7,358,0,0,0,0,0,0,0,0,0,-1,1231,666,0,0
14,358,0,0,0,0,0,0,0,0,0,-1,1238,666,0,0
21,358,0,0,0,0,0,0,0,0,0,-1,1245,666,0,0
28,358,0,0,0,0,0,0,0,0,0,-1,1252,666,0,0
35,358,0,0,0,0,0,0,0,0,0,-1,1259,666,0,0
42,358,0,0,0,0,0,0,0,0,0,-1,1266,666,0,0
49,358,0,0,0,0,0,0,0,0,0,-1,1273,666,0,0
56,358,0,0,0,0,0,0,0,0,0,-1,1280,666,0,0
63,358,0,0,0,0,0,0,0,0,0,-1,1287,666,0,0
70,358,0,0,0,0,0,0,0,0,0,-1,1294,666,0,0
77,358,0,0,0,0,0,0,0,0,0,-1,1301,666,0,0
84,358,0,0,0,0,0,0,0,0,0,-1,1308,666,0,0
91,358,0,0,0,0,0,0,0,0,0,-1,1315,666,0,0
98,358,0,0,0,0,0,0,0,0,0,-1,1322,666,0,0
105,358,0,0,0,0,0,0,0,0,0,-1,1329,666,0,0
112,358,0,0,0,0,0,0,0,0,0,-1,1336,666,0,0
119,358,0,0,0,0,0,0,0,0,0,-1,1343,666,0,0
126,358,0,0,0,0,0,0,0,0,0,-1,1350,666,0,0
133,358,0,0,0,0,0,0,0,0,0,-1,1357,666,0,0
140,358,0,0,0,0,0,0,0,0,0,-1,1364,666,0,0
147,358,0,0,0,0,0,0,0,0,0,-1,1371,666,0,0
154,358,0,0,0,0,0,0,0,0,0,-1,1378,666,0,0
161,358,0,0,0,0,0,0,0,0,0,-1,1385,666,0,0
168,358,0,0,0,0,0,0,0,0,0,-1,1392,666,0,0
175,358,0,0,0,0,0,0,0,0,0,-1,1399,666,0,0
182,358,0,0,0,0,0,0,0,0,0,-1,1406,666,0,0
189,358,0,0,0,0,0,0,0,0,0,-1,1413,666,0,0
196,358,0,0,0,0,0,0,0,0,0,-1,1420,666,0,0
203,358,0,0,0,0,0,0,0,0,0,-1,1427,666,0,0
210,358,0,0,0,0,0,0,0,0,0,-1,1434,666,0,0
217,358,0,0,0,0,0,0,0,0,0,-1,1441,666,0,0
224,358,0,0,0,0,0,0,0,0,0,-1,1448,666,0,0
231,358,0,0,0,0,0,0,0,0,0,-1,1455,666,0,0
238,358,0,0,0,0,0,0,0,0,0,-1,1462,666,0,0
245,358,0,0,0,0,0,0,0,0,0,-1,1469,666,0,0
252,358,0,0,0,0,0,0,0,0,0,-1,1476,666,0,0
259,358,0,0,0,0,0,0,0,0,0,-1,1483,666,0,0
266,358,0,0,0,0,0,0,0,0,0,-1,1490,666,0,0
273,358,0,0,0,0,0,0,0,0,0,-1,1497,666,0,0
280,358,0,0,0,0,0,0,0,0,0,-1,1504,666,0,0
287,358,0,0,0,0,0,0,0,0,0,-1,1511,666,0,0
294,358,0,0,0,0,0,0,0,0,0,-1,1518,666,0,0
301,358,0,0,0,0,0,0,0,0,0,-1,1525,666,0,0
308,358,0,0,0,0,0,0,0,0,0,-1,1532,666,0,0
315,358,0,0,0,0,0,0,0,0,0,-1,1539,666,0,0
322,358,0,0,0,0,0,0,0,0,0,-1,1546,666,0,0
329,358,0,0,0,0,0,0,0,0,0,-1,1553,666,0,0
336,358,0,0,0,0,0,0,0,0,0,-1,1560,666,0,0
343,358,0,0,0,0,0,0,0,0,0,-1,1567,666,0,0
350,358,0,0,0,0,0,0,0,0,0,-1,1574,666,0,0
357,358,0,0,0,0,0,0,0,0,0,-1,1581,666,0,0
364,358,0,0,0,0,0,0,0,0,0,-1,1588,666,0,0
371,358,0,0,0,0,0,0,0,0,0,-1,1595,666,0,0
378,358,0,0,0,0,0,0,0,0,0,-1,1602,666,0,0
385,358,0,0,0,0,0,0,0,0,0,-1,1609,666,0,0
392,358,0,0,0,0,0,0,0,0,0,-1,1616,666,0,0
399,358,0,0,0,0,0,0,0,0,0,-1,1623,666,0,0
406,358,0,0,0,0,0,0,0,0,0,-1,1630,666,0,0
413,358,0,0,0,0,0,0,0,0,0,-1,1637,666,0,0
420,358,0,0,0,0,0,0,0,0,0,-1,1644,666,0,0
427,358,0,0,0,0,0,0,0,0,0,-1,1651,666,0,0
434,358,0,0,0,0,0,0,0,0,0,-1,1658,666,0,0
441,358,0,0,0,0,0,0,0,0,0,-1,1665,666,0,0
448,358,0,0,0,0,0,0,0,0,0,-1,1672,666,0,0
455,358,0,0,0,0,0,0,0,0,0,-1,1679,666,0,0
462,358,0,0,0,0,0,0,0,0,0,-1,1686,666,0,0
469,358,0,0,0,0,0,0,0,0,0,-1,1693,666,0,0
476,358,0,0,0,0,0,0,0,0,0,-1,1700,666,0,0
483,358,0,0,0,0,0,0,0,0,0,-1,1707,666,0,0
490,358,0,0,0,0,0,0,0,0,0,-1,1714,666,0,0
497,358,8.57239,1.1322,0,0,0,0,0,0,0,-1,1721,666,8.57234,-1.13219
504,358,10.5972,0.832947,0,0,0,0,0,0,0,-1,1728,666,10.5972,-0.832968
511,358,10.6873,0.868469,0,0,0,0,0,0,0,-1,1735,666,10.6872,-0.868484
518,358,10.7079,0.866211,0,0,0,0,0,0,0,-1,1742,666,10.7079,-0.8662
525,358,10.797,0.692993,0,0,0,0,0,0,0,-1,1749,666,10.797,-0.693009
532,358,13.5295,1.88013,0,0,0,0,0,0,0,-1,1756,666,13.5296,-1.88011
539,358,12.9438,1.70734,0,0,0,0,0,0,0,-1,1763,666,12.9438,-1.70732
546,358,12.3792,1.53558,0,0,0,0,0,0,0,-1,1770,666,12.3792,-1.5356
553,358,11.6584,1.26172,0,0,0,0,0,0,0,-1,1777,666,11.6585,-1.26175
560,358,10.8234,1.43042,0,0,0,0,0,0,0,-1,1784,666,10.8233,-1.43041
567,358,9.46118,-1.03296,0,0,0,0,0,0,0,-1,1791,666,9.46114,1.03299
574,358,8.98364,-0.884399,0.00810765,0.00621151,0.00188032,0.00926539,0.00505376,0.551895,0.00535674,0.0473797,1798,666,8.9836,0.884408
581,358,8.42676,-0.712158,0.00435262,0.00385593,0.000520802,0.00468126,0.00352729,0.56292,0.00281613,0.0236543,1805,666,8.42677,0.712148
588,358,8.2915,-0.558838,0.00174858,0.00214673,-0.000342833,0.0023441,0.00155121,-1.04845,0.00137677,0.0136034,1812,666,8.29151,0.558865
595,358,8.32129,-0.348083,-0.000338429,0.00060885,-0.000958986,0.00120478,-0.000934364,-1.01477,0.00123832,0.0112462,1819,666,8.3213,0.348073
602,358,8.31531,-0.158936,-0.00113053,-0.000190611,-0.00112618,0.000559736,-0.00188087,-0.983065,0.0014763,0.0113419,1826,666,8.31536,0.158943
609,358,8.2948,-0.00695801,-0.00154838,-0.000312448,-0.0011583,0.00038242,-0.00224325,-1.03045,0.00163792,0.0146187,1833,666,8.29484,0.00694066
616,358,8.29468,0.20166,-0.000896484,-0.000651084,-0.000877141,0.000111897,-0.00165947,-0.85489,0.00114543,0.0143392,1840,666,8.29463,-0.201689
623,358,8.32275,0.39325,0.000103676,-0.000812206,-0.000435521,0.000277707,-0.000986237,-0.380155,0.000767006,0.0135648,1847,666,8.32275,-0.393248
630,358,8.31177,0.558289,0.00152025,-0.000487666,-0.000283407,0.00155949,-0.000526901,-0.137565,0.00125279,0.0172171,1854,666,8.31174,-0.558298
637,358,8.2937,0.745117,0.00352065,-0.000361018,-0.000425816,0.00356682,-0.000407181,-0.107988,0.00252457,0.0232043,1861,666,8.29366,-0.745137
644,358,8.3241,0.92511,0.00514406,-0.00026092,-0.000799244,0.00525977,-0.000376629,-0.143774,0.00363856,0.0186621,1868,666,8.32413,-0.925118
651,358,8.396,1.15045,0.00745924,-0.000119783,-0.00146955,0.00773421,-0.000394748,-0.184969,0.00529263,0.0193994,1875,666,8.396,-1.15048
658,358,8.19385,1.32581,0.0108529,0.000103114,-0.0025062,0.0114085,-0.000452464,-0.218154,0.00776088,0.0300732,1882,666,8.19383,-1.32584
665,358,7.93274,1.47015,0.0159393,0.000369752,-0.00403904,0.0169247,-0.000615681,-0.239302,0.0114939,0.0425728,1889,666,7.93273,-1.47017
672,358,7.79456,1.66107,0,0,0,0,0,0,0,-1,1896,666,7.7946,-1.66106
679,358,8.04285,2.14868,0,0,0,0,0,0,0,-1,1903,666,8.04279,-2.14868
686,358,8.7937,1.57867,0,0,0,0,0,0,0,-1,1910,666,8.79374,-1.57869
693,358,9.74927,1.43896,0,0,0,0,0,0,0,-1,1917,666,9.74927,-1.43894
700,358,0,0,0,0,0,0,0,0,0,-1,1924,666,0,0
707,358,0,0,0,0,0,0,0,0,0,-1,1931,666,0,0
714,358,0,0,0,0,0,0,0,0,0,-1,1938,666,0,0
721,358,0,0,0,0,0,0,0,0,0,-1,1945,666,0,0
728,358,0,0,0,0,0,0,0,0,0,-1,1952,666,0,0
735,358,0,0,0,0,0,0,0,0,0,-1,1959,666,0,0
742,358,0,0,0,0,0,0,0,0,0,-1,1966,666,0,0
749,358,0,0,0,0,0,0,0,0,0,-1,1973,666,0,0
756,358,0,0,0,0,0,0,0,0,0,-1,1980,666,0,0
763,358,0,0,0,0,0,0,0,0,0,-1,1987,666,0,0
770,358,0,0,0,0,0,0,0,0,0,-1,1994,666,0,0
777,358,0,0,0,0,0,0,0,0,0,-1,2001,666,0,0
784,358,0,0,0,0,0,0,0,0,0,-1,2008,666,0,0
791,358,0,0,0,0,0,0,0,0,0,-1,2015,666,0,0
798,358,0,0,0,0,0,0,0,0,0,-1,2022,666,0,0
805,358,0,0,0,0,0,0,0,0,0,-1,2029,666,0,0
812,358,0,0,0,0,0,0,0,0,0,-1,2036,666,0,0
-700,351,0,0,0,0,0,0,0,0,0,-1,524,673,0,0
-693,351,0,0,0,0,0,0,0,0,0,-1,531,673,0,0
-686,351,0,0,0,0,0,0,0,0,0,-1,538,673,0,0
-679,351,0,0,0,0,0,0,0,0,0,-1,545,673,0,0
-672,351,0,0,0,0,0,0,0,0,0,-1,552,673,0,0
-665,351,0,0,0,0,0,0,0,0,0,-1,559,673,0,0
-658,351,0,0,0,0,0,0,0,0,0,-1,566,673,0,0
-651,351,0,0,0,0,0,0,0,0,0,-1,573,673,0,0
-644,351,0,0,0,0,0,0,0,0,0,-1,580,673,0,0
-637,351,0,0,0,0,0,0,0,0,0,-1,587,673,0,0
-630,351,0,0,0,0,0,0,0,0,0,-1,594,673,0,0
-623,351,0,0,0,0,0,0,0,0,0,-1,601,673,0,0
-616,351,0,0,0,0,0,0,0,0,0,-1,608,673,0,0
-609,351,0,0,0,0,0,0,0,0,0,-1,615,673,0,0
-602,351,0,0,0,0,0,0,0,0,0,-1,622,673,0,0
-595,351,0,0,0,0,0,0,0,0,0,-1,629,673,0,0
-588,351,0,0,0,0,0,0,0,0,0,-1,636,673,0,0
-581,351,-4.95984,0.410522,0.0849336,0.00791278,0.0414756,0.103021,-0.0101743,0.411226,0.0723109,0.0448673,643,673,-4.95983,-0.410497
-574,351,-4.58386,0.787537,0.062492,0.0102797,0.030826,0.076781,-0.00400933,0.434056,0.0525748,0.0474981,650,673,-4.58385,-0.78754
-567,351,-4.37823,0.903931,0.0461541,0.0105642,0.0217696,0.0564764,0.000241958,0.442762,0.0375705,0.0472316,657,673,-4.37821,-0.903946
-560,351,-2.58081,2.59387,0.0339468,0.0100002,0.0148188,0.0410249,0.00292209,0.445605,0.0264298,0.0460923,664,673,-2.58082,-2.59388
-553,351,-2.97626,1.63257,0.0245687,0.00883316,0.0093597,0.0289282,0.00447367,0.435893,0.0179807,0.0437959,671,673,-2.97626,-1.63256
-546,351,-3.34442,0.822876,0.0161987,0.00790519,0.00523446,0.0187299,0.00537399,0.450414,0.0111362,0.0452764,678,673,-3.3444,-0.822884
-539,351,-3.41681,0.37207,0.011107,0.00643993,0.00204539,0.0118765,0.0056704,0.359845,0.00685924,0.0424802,685,673,-3.41681,-0.372069
-532,351,-3.59167,-0.181335,0.00802809,0.00517598,-0.000120141,0.00803314,0.00517093,-0.0420245,0.00470135,0.0289403,692,673,-3.59167,0.18132
-525,351,-3.74744,-0.544922,0.00552284,0.00348622,-0.00121708,0.00609143,0.00291763,-0.437043,0.00351792,0.0169125,699,673,-3.74746,0.544943
-518,351,-3.76117,-0.666199,0.00385185,0.00215659,-0.00175866,0.00495649,0.00105195,-0.560837,0.00301547,0.011378,706,673,-3.76117,0.666169
-511,351,-3.74884,-0.85199,0.00214563,0.000646088,-0.00184981,0.00339185,-0.000600128,-0.592855,0.00248554,0.0117127,713,673,-3.74881,0.851997
-504,351,-3.77448,-1.04266,0.00102526,-0.000190742,-0.00168385,0.00220751,-0.00137299,-0.612143,0.00208584,0.010578,720,673,-3.77445,1.04264
-497,351,-3.77667,-1.19556,0.000604606,-0.000440606,-0.000920478,0.00114049,-0.000976488,-0.527212,0.00122346,0.0103916,727,673,-3.77668,1.19558
-490,351,-3.76624,-1.35565,-0.000153528,-0.000976563,0.000157693,-0.000124349,-0.00100574,0.18297,0.000633129,0.00973054,734,673,-3.76626,1.35565
-483,351,-3.76257,-1.51862,-0.00119806,-0.00124121,0.00120446,-1.49772e-05,-0.00242429,0.776441,0.00161123,0.0112681,741,673,-3.7626,1.51859
-476,351,-3.78058,-1.69269,-0.00265106,-0.00139569,0.00243193,0.00048825,-0.004535,0.911694,0.00319853,0.0105915,748,673,-3.78057,1.69269
-469,351,-3.77985,-1.84814,-0.00456475,-0.00126138,0.00384975,0.00127605,-0.00710218,0.98804,0.00521246,0.0119015,755,673,-3.77988,1.84817
-462,351,-3.7644,-2.03711,-0.0067192,-0.00102076,0.00555023,0.00236886,-0.0101088,1.02253,0.00765205,0.0159201,762,673,-3.76443,2.03713
-455,351,-3.72327,-2.27747,-0.00910552,-0.000467288,0.00791948,0.00423429,-0.0138071,1.03504,0.010894,0.0241497,769,673,-3.72329,2.27744
-448,351,-3.75464,-2.13934,-0.0119655,0.000247527,0.0109972,0.00671988,-0.0184379,1.03884,0.0150409,0.0457834,776,673,-3.75463,2.13931
-441,351,-3.79095,-2.02673,0,0,0,0,0,0,0,-1,783,673,-3.79093,2.02671
-434,351,-4.18298,-2.60815,0,0,0,0,0,0,0,-1,790,673,-4.18298,2.60818
-427,351,-2.05157,-2.7785,0,0,0,0,0,0,0,-1,797,673,-2.05157,2.77848
-420,351,-1.06989,-2.43665,0,0,0,0,0,0,0,-1,804,673,-1.06991,2.43663
-413,351,-0.392334,-2.06671,0,0,0,0,0,0,0,-1,811,673,-0.392363,2.06672
-406,351,-1.86316,-2.58105,0,0,0,0,0,0,0,-1,818,673,-1.86313,2.58106
-399,351,1.00952,-1.53455,0,0,0,0,0,0,0,-1,825,673,1.00954,1.53457
-392,351,-1.02197,0.877136,0,0,0,0,0,0,0,-1,832,673,-1.02195,-0.877143
-385,351,-1.47205,1.04437,0,0,0,0,0,0,0,-1,839,673,-1.47207,-1.04435
-378,351,0,0,0,0,0,0,0,0,0,-1,846,673,0,0
-371,351,0,0,0,0,0,0,0,0,0,-1,853,673,0,0
-364,351,0,0,0,0,0,0,0,0,0,-1,860,673,0,0
-357,351,0,0,0,0,0,0,0,0,0,-1,867,673,0,0
-350,351,0,0,0,0,0,0,0,0,0,-1,874,673,0,0
-343,351,0,0,0,0,0,0,0,0,0,-1,881,673,0,0
-336,351,0,0,0,0,0,0,0,0,0,-1,888,673,0,0
-329,351,0,0,0,0,0,0,0,0,0,-1,895,673,0,0
-322,351,0,0,0,0,0,0,0,0,0,-1,902,673,0,0
-315,351,0,0,0,0,0,0,0,0,0,-1,909,673,0,0
-308,351,0,0,0,0,0,0,0,0,0,-1,916,673,0,0
-301,351,0,0,0,0,0,0,0,0,0,-1,923,673,0,0
-294,351,0,0,0,0,0,0,0,0,0,-1,930,673,0,0
-287,351,0,0,0,0,0,0,0,0,0,-1,937,673,0,0
-280,351,0,0,0,0,0,0,0,0,0,-1,944,673,0,0
-273,351,0,0,0,0,0,0,0,0,0,-1,951,673,0,0
-266,351,0,0,0,0,0,0,0,0,0,-1,958,673,0,0
-259,351,0,0,0,0,0,0,0,0,0,-1,965,673,0,0
-252,351,0,0,0,0,0,0,0,0,0,-1,972,673,0,0
-245,351,0,0,0,0,0,0,0,0,0,-1,979,673,0,0
-238,351,0,0,0,0,0,0,0,0,0,-1,986,673,0,0
-231,351,0,0,0,0,0,0,0,0,0,-1,993,673,0,0
-224,351,0,0,0,0,0,0,0,0,0,-1,1000,673,0,0
-217,351,0,0,0,0,0,0,0,0,0,-1,1007,673,0,0
-210,351,0,0,0,0,0,0,0,0,0,-1,1014,673,0,0
-203,351,0,0,0,0,0,0,0,0,0,-1,1021,673,0,0
-196,351,0,0,0,0,0,0,0,0,0,-1,1028,673,0,0
-189,351,0,0,0,0,0,0,0,0,0,-1,1035,673,0,0
-182,351,0,0,0,0,0,0,0,0,0,-1,1042,673,0,0
-175,351,0,0,0,0,0,0,0,0,0,-1,1049,673,0,0
-168,351,0,0,0,0,0,0,0,0,0,-1,1056,673,0,0
-161,351,0,0,0,0,0,0,0,0,0,-1,1063,673,0,0
-154,351,0,0,0,0,0,0,0,0,0,-1,1070,673,0,0
-147,351,0,0,0,0,0,0,0,0,0,-1,1077,673,0,0
-140,351,0,0,0,0,0,0,0,0,0,-1,1084,673,0,0
-133,351,0,0,0,0,0,0,0,0,0,-1,1091,673,0,0
-126,351,0,0,0,0,0,0,0,0,0,-1,1098,673,0,0
-119,351,0,0,0,0,0,0,0,0,0,-1,1105,673,0,0
-112,351,0,0,0,0,0,0,0,0,0,-1,1112,673,0,0
-105,351,0,0,0,0,0,0,0,0,0,-1,1119,673,0,0
-98,351,0,0,0,0,0,0,0,0,0,-1,1126,673,0,0
-91,351,0,0,0,0,0,0,0,0,0,-1,1133,673,0,0
-84,351,0,0,0,0,0,0,0,0,0,-1,1140,673,0,0
-77,351,0,0,0,0,0,0,0,0,0,-1,1147,673,0,0
-70,351,0,0,0,0,0,0,0,0,0,-1,1154,673,0,0
-63,351,0,0,0,0,0,0,0,0,0,-1,1161,673,0,0
-56,351,0,0,0,0,0,0,0,0,0,-1,1168,673,0,0
-49,351,0,0,0,0,0,0,0,0,0,-1,1175,673,0,0
-42,351,0,0,0,0,0,0,0,0,0,-1,1182,673,0,0
-35,351,0,0,0,0,0,0,0,0,0,-1,1189,673,0,0
-28,351,0,0,0,0,0,0,0,0,0,-1,1196,673,0,0
-21,351,0,0,0,0,0,0,0,0,0,-1,1203,673,0,0
-14,351,0,0,0,0,0,0,0,0,0,-1,1210,673,0,0
-7,351,0,0,0,0,0,0,0,0,0,-1,1217,673,0,0
0,351,0,0,0,0,0,0,0,0,0,-1,1224,673,0,0
7,351,0,0,0,0,0,0,0,0,0,-1,1231,673,0,0
14,351,0,0,0,0,0,0,0,0,0,-1,1238,673,0,0
21,351,0,0,0,0,0,0,0,0,0,-1,1245,673,0,0
28,351,0,0,0,0,0,0,0,0,0,-1,1252,673,0,0
35,351,0,0,0,0,0,0,0,0,0,-1,1259,673,0,0
42,351,0,0,0,0,0,0,0,0,0,-1,1266,673,0,0
49,351,0,0,0,0,0,0,0,0,0,-1,1273,673,0,0
56,351,0,0,0,0,0,0,0,0,0,-1,1280,673,0,0
63,351,0,0,0,0,0,0,0,0,0,-1,1287,673,0,0
70,351,0,0,0,0,0,0,0,0,0,-1,1294,673,0,0
77,351,0,0,0,0,0,0,0,0,0,-1,1301,673,0,0
84,351,0,0,0,0,0,0,0,0,0,-1,1308,673,0,0
91,351,0,0,0,0,0,0,0,0,0,-1,1315,673,0,0
98,351,0,0,0,0,0,0,0,0,0,-1,1322,673,0,0
105,351,0,0,0,0,0,0,0,0,0,-1,1329,673,0,0
112,351,0,0,0,0,0,0,0,0,0,-1,1336,673,0,0
119,351,0,0,0,0,0,0,0,0,0,-1,1343,673,0,0
126,351,0,0,0,0,0,0,0,0,0,-1,1350,673,0,0
133,351,0,0,0,0,0,0,0,0,0,-1,1357,673,0,0
140,351,0,0,0,0,0,0,0,0,0,-1,1364,673,0,0
147,351,0,0,0,0,0,0,0,0,0,-1,1371,673,0,0
154,351,0,0,0,0,0,0,0,0,0,-1,1378,673,0,0
161,351,0,0,0,0,0,0,0,0,0,-1,1385,673,0,0
168,351,0,0,0,0,0,0,0,0,0,-1,1392,673,0,0
175,351,0,0,0,0,0,0,0,0,0,-1,1399,673,0,0
182,351,0,0,0,0,0,0,0,0,0,-1,1406,673,0,0
189,351,0,0,0,0,0,0,0,0,0,-1,1413,673,0,0
196,351,0,0,0,0,0,0,0,0,0,-1,1420,673,0,0
203,351,0,0,0,0,0,0,0,0,0,-1,1427,673,0,0
210,351,0,0,0,0,0,0,0,0,0,-1,1434,673,0,0
217,351,0,0,0,0,0,0,0,0,0,-1,1441,673,0,0
224,351,0,0,0,0,0,0,0,0,0,-1,1448,673,0,0
231,351,0,0,0,0,0,0,0,0,0,-1,1455,673,0,0
238,351,0,0,0,0,0,0,0,0,0,-1,1462,673,0,0
245,351,0,0,0,0,0,0,0,0,0,-1,1469,673,0,0
252,351,0,0,0,0,0,0,0,0,0,-1,1476,673,0,0
259,351,0,0,0,0,0,0,0,0,0,-1,1483,673,0,0
266,351,0,0,0,0,0,0,0,0,0,-1,1490,673,0,0
273,351,0,0,0,0,0,0,0,0,0,-1,1497,673,0,0
280,351,0,0,0,0,0,0,0,0,0,-1,1504,673,0,0
287,351,0,0,0,0,0,0,0,0,0,-1,1511,673,0,0
294,351,0,0,0,0,0,0,0,0,0,-1,1518,673,0,0
301,351,0,0,0,0,0,0,0,0,0,-1,1525,673,0,0
308,351,0,0,0,0,0,0,0,0,0,-1,1532,673,0,0
315,351,0,0,0,0,0,0,0,0,0,-1,1539,673,0,0
322,351,0,0,0,0,0,0,0,0,0,-1,1546,673,0,0
329,351,0,0,0,0,0,0,0,0,0,-1,1553,673,0,0
336,351,0,0,0,0,0,0,0,0,0,-1,1560,673,0,0
343,351,0,0,0,0,0,0,0,0,0,-1,1567,673,0,0
350,351,0,0,0,0,0,0,0,0,0,-1,1574,673,0,0
357,351,0,0,0,0,0,0,0,0,0,-1,1581,673,0,0
364,351,0,0,0,0,0,0,0,0,0,-1,1588,673,0,0
371,351,0,0,0,0,0,0,0,0,0,-1,1595,673,0,0
378,351,0,0,0,0,0,0,0,0,0,-1,1602,673,0,0
385,351,0,0,0,0,0,0,0,0,0,-1,1609,673,0,0
392,351,0,0,0,0,0,0,0,0,0,-1,1616,673,0,0
399,351,0,0,0,0,0,0,0,0,0,-1,1623,673,0,0
406,351,0,0,0,0,0,0,0,0,0,-1,1630,673,0,0
413,351,0,0,0,0,0,0,0,0,0,-1,1637,673,0,0
420,351,0,0,0,0,0,0,0,0,0,-1,1644,673,0,0
427,351,0,0,0,0,0,0,0,0,0,-1,1651,673,0,0
434,351,0,0,0,0,0,0,0,0,0,-1,1658,673,0,0
441,351,0,0,0,0,0,0,0,0,0,-1,1665,673,0,0
448,351,0,0,0,0,0,0,0,0,0,-1,1672,673,0,0
455,351,0,0,0,0,0,0,0,0,0,-1,1679,673,0,0
462,351,0,0,0,0,0,0,0,0,0,-1,1686,673,0,0
469,351,0,0,0,0,0,0,0,0,0,-1,1693,673,0,0
476,351,0,0,0,0,0,0,0,0,0,-1,1700,673,0,0
483,351,0,0,0,0,0,0,0,0,0,-1,1707,673,0,0
490,351,0,0,0,0,0,0,0,0,0,-1,1714,673,0,0
497,351,0,0,0,0,0,0,0,0,0,-1,1721,673,0,0
504,351,10.8842,1.61615,0,0,0,0,0,0,0,-1,1728,673,10.8842,-1.61618
511,351,15.4548,0.0236816,0,0,0,0,0,0,0,-1,1735,673,15.4549,-0.0236664
518,351,15.4282,0.152954,0,0,0,0,0,0,0,-1,1742,673,15.4282,-0.152972
525,351,15.4595,0.39502,0,0,0,0,0,0,0,-1,1749,673,15.4595,-0.395007
532,351,13.8259,2.63629,0,0,0,0,0,0,0,-1,1756,673,13.8259,-2.63632
539,351,13.2594,2.43634,0,0,0,0,0,0,0,-1,1763,673,13.2594,-2.43634
546,351,12.6396,2.22565,0,0,0,0,0,0,0,-1,1770,673,12.6396,-2.22564
553,351,12.0682,2.02832,0,0,0,0,0,0,0,-1,1777,673,12.0683,-2.02831
560,351,12.0173,0.55304,0,0,0,0,0,0,0,-1,1784,673,12.0174,-0.553028
567,351,10.7827,0.130188,0,0,0,0,0,0,0,-1,1791,673,10.7827,-0.130183
574,351,9.41309,-0.622681,0,0,0,0,0,0,0,-1,1798,673,9.41303,0.6227
581,351,8.88757,-0.38147,0.0113814,0.00237043,0.00170434,0.011693,0.00205884,0.180823,0.00720773,0.0426829,1805,673,8.88763,0.381447
588,351,8.48401,-0.515198,0.00711066,0.00102442,0.000535771,0.00715747,0.000977616,0.0871369,0.00448146,0.0261158,1812,673,8.48396,0.515226
595,351,8.47314,-0.391052,0.0032809,-0.000402433,-0.000445579,0.00333404,-0.000455569,-0.118691,0.00238907,0.016018,1819,673,8.47319,0.39103
602,351,8.4978,-0.189209,0.000757848,-0.000829944,-0.000936284,0.00119151,-0.00126361,-0.433755,0.00141767,0.0171507,1826,673,8.49783,0.18919
609,351,8.52563,-0.0262451,-0.00113735,-0.000749829,-0.0013376,0.000407974,-0.00229515,-0.857326,0.00168266,0.0158293,1833,673,8.52562,0.0262691
616,351,8.52185,0.177673,-0.0012218,-0.00090832,-0.00115174,9.72972e-05,-0.00222741,-0.853027,0.00151842,0.0139733,1840,673,8.52184,-0.177671
623,351,8.52258,0.377502,-0.000482614,-0.000967668,-0.000710559,2.56674e-05,-0.00147595,-0.620938,0.000992632,0.0151572,1847,673,8.52258,-0.377497
630,351,8.51611,0.556885,0.000825523,-0.000559875,-0.000556113,0.00102113,-0.000755486,-0.338229,0.00102955,0.0243339,1854,673,8.51608,-0.556869
637,351,8.51587,0.767639,0.00266553,-0.000329471,-0.000712722,0.00282649,-0.000490428,-0.222108,0.00206728,0.0278788,1861,673,8.51583,-0.767637
644,351,8.4834,0.938721,0.0041009,-0.000171943,-0.00117179,0.00440115,-0.000472196,-0.250838,0.0031035,0.0208968,1868,673,8.48338,-0.938694
651,351,8.5116,1.11792,0.00619996,-9.42757e-07,-0.00190601,0.00673897,-0.000539951,-0.275598,0.00468302,0.0156913,1875,673,8.51164,-1.11793
658,351,8.48242,1.3587,0.00934847,0.000151858,-0.00293991,0.010208,-0.000707629,-0.284425,0.00705302,0.0205739,1882,673,8.4824,-1.35868
665,351,8.32581,1.46655,0.0140952,0.000461097,-0.00449944,0.0154462,-0.000889909,-0.291696,0.0106066,0.0269861,1889,673,8.32574,-1.46658
672,351,8.33887,1.74237,0.021029,0.000845642,-0.00666157,0.0230294,-0.00115477,-0.291723,0.015752,0.0365448,1896,673,8.33883,-1.74236
679,351,8.41992,1.91156,0.0308824,0.00143704,-0.00953992,0.033703,-0.00138358,-0.287475,0.0229438,0.042022,1903,673,8.41987,-1.91154
686,351,8.51294,2.06763,0,0,0,0,0,0,0,-1,1910,673,8.51297,-2.06763
693,351,9.71899,0.806213,0,0,0,0,0,0,0,-1,1917,673,9.71903,-0.806237
700,351,10.7412,0.567078,0,0,0,0,0,0,0,-1,1924,673,10.7412,-0.567079
707,351,0,0,0,0,0,0,0,0,0,-1,1931,673,0,0
714,351,0,0,0,0,0,0,0,0,0,-1,1938,673,0,0
721,351,0,0,0,0,0,0,0,0,0,-1,1945,673,0,0
728,351,0,0,0,0,0,0,0,0,0,-1,1952,673,0,0
735,351,0,0,0,0,0,0,0,0,0,-1,1959,673,0,0
742,351,0,0,0,0,0,0,0,0,0,-1,1966,673,0,0
749,351,0,0,0,0,0,0,0,0,0,-1,1973,673,0,0
756,351,0,0,0,0,0,0,0,0,0,-1,1980,673,0,0
763,351,0,0,0,0,0,0,0,0,0,-1,1987,673,0,0
770,351,0,0,0,0,0,0,0,0,0,-1,1994,673,0,0
777,351,0,0,0,0,0,0,0,0,0,-1,2001,673,0,0
784,351,0,0,0,0,0,0,0,0,0,-1,2008,673,0,0
791,351,0,0,0,0,0,0,0,0,0,-1,2015,673,0,0
798,351,0,0,0,0,0,0,0,0,0,-1,2022,673,0,0
805,351,0,0,0,0,0,0,0,0,0,-1,2029,673,0,0
812,351,0,0,0,0,0,0,0,0,0,-1,2036,673,0,0
-700,344,0,0,0,0,0,0,0,0,0,-1,524,680,0,0
-693,344,0,0,0,0,0,0,0,0,0,-1,531,680,0,0
-686,344,0,0,0,0,0,0,0,0,0,-1,538,680,0,0
-679,344,0,0,0,0,0,0,0,0,0,-1,545,680,0,0
-672,344,0,0,0,0,0,0,0,0,0,-1,552,680,0,0
-665,344,0,0,0,0,0,0,0,0,0,-1,559,680,0,0
-658,344,0,0,0,0,0,0,0,0,0,-1,566,680,0,0
-651,344,0,0,0,0,0,0,0,0,0,-1,573,680,0,0
-644,344,0,0,0,0,0,0,0,0,0,-1,580,680,0,0
-637,344,0,0,0,0,0,0,0,0,0,-1,587,680,0,0
-630,344,0,0,0,0,0,0,0,0,0,-1,594,680,0,0
-623,344,0,0,0,0,0,0,0,0,0,-1,601,680,0,0
-616,344,0,0,0,0,0,0,0,0,0,-1,608,680,0,0
-609,344,0,0,0,0,0,0,0,0,0,-1,615,680,0,0
-602,344,0,0,0,0,0,0,0,0,0,-1,622,680,0,0
-595,344,0,0,0,0,0,0,0,0,0,-1,629,680,0,0
-588,344,-5.16321,-0.464111,0,0,0,0,0,0,0,-1,636,680,-5.16319,0.464111
-581,344,-5.09656,-0.208496,0,0,0,0,0,0,0,-1,643,680,-5.09655,0.208477
-574,344,-4.45673,1.11713,0,0,0,0,0,0,0,-1,650,680,-4.45672,-1.11715
-567,344,-4.38373,0.8302,0.0445204,0.0089056,0.0222122,0.055182,-0.00175603,0.447512,0.0373871,0.0488178,657,680,-4.38374,-0.830198
-560,344,-4.57715,0.564026,0.0318187,0.00913116,0.015192,0.0394348,0.00151507,0.464707,0.0257997,0.0464107,664,680,-4.57713,-0.564006
-553,344,-3.26135,1.29102,0,0,0,0,0,0,0,-1,671,680,-3.26133,-1.29101
-546,344,-3.45349,0.742126,0.0137359,0.00811609,0.00557528,0.0171694,0.00468265,0.551979,0.0102484,0.0441308,678,680,-3.45348,-0.742097
-539,344,-3.64886,0.181152,0.00886499,0.00685451,0.00235121,0.0104168,0.00530267,0.583387,0.00601449,0.0360055,685,680,-3.64888,-0.181166
-532,344,-3.85291,-0.340576,0.00618521,0.00576071,0.000128311,0.00622098,0.00572494,0.271872,0.00399226,0.0199343,692,680,-3.85292,0.340562
-525,344,-3.94305,-0.511169,0.00404391,0.0041861,-0.000950032,0.00506769,0.00316232,-0.822745,0.00295568,0.0164215,699,680,-3.94307,0.511155
-518,344,-3.95068,-0.696777,0.00264071,0.00282057,-0.00145739,0.00419081,0.00127048,-0.816212,0.00248128,0.0188735,706,680,-3.95067,0.69675
-511,344,-3.94586,-0.872986,0.00129539,0.00116668,-0.00155981,0.00279217,-0.000330098,-0.764781,0.00198067,0.0167612,713,680,-3.94583,0.872989
-504,344,-3.94928,-1.05798,0.000359244,-3.30146e-05,-0.00144136,0.00161775,-0.00129153,-0.717777,0.00168319,0.0167484,720,680,-3.9493,1.05797
-497,344,-3.93695,-1.19952,-0.000205312,-0.000545596,-0.000674334,0.000320014,-0.00107092,-0.661822,0.000841161,0.0146402,727,680,-3.93695,1.1995
-490,344,-3.94946,-1.36157,-0.00106103,-0.00111331,0.000469636,-0.000616808,-0.00155753,0.757599,0.000905701,0.0135129,734,680,-3.94947,1.36155
-483,344,-3.9491,-1.52356,-0.00228326,-0.00157723,0.00154627,-0.000344192,-0.0035163,0.897626,0.00223831,0.0129152,741,680,-3.94909,1.52356
-476,344,-3.96667,-1.69476,-0.00410266,-0.00185049,0.00285026,8.80628e-05,-0.00604122,0.973528,0.00405715,0.0127673,748,680,-3.9667,1.69476
-469,344,-3.96234,-1.87231,-0.00656625,-0.00177198,0.00436226,0.000808394,-0.00914662,1.03663,0.00638429,0.0108223,755,680,-3.96232,1.87229
-462,344,-3.95233,-2.07794,-0.00941409,-0.00146653,0.00625381,0.00196921,-0.0128498,1.06843,0.00929277,0.0166032,762,680,-3.95235,2.07793
-455,344,-3.98407,-2.03259,-0.0128388,-0.000458398,0.00894326,0.004228,-0.0175252,1.08812,0.0133184,0.0358473,769,680,-3.98408,2.03258
-448,344,-3.86908,-1.80151,-0.0170803,0.00115539,0.0124114,0.00743811,-0.0233631,1.1022,0.0185584,0.0461223,776,680,-3.86907,1.80153
-441,344,-3.79871,-1.58478,-0.0220057,0.00344098,0.0168916,0.011865,-0.0304297,1.10818,0.0251907,0.0494046,783,680,-3.79869,1.58478
-434,344,-3.80713,-1.53107,0,0,0,0,0,0,0,-1,790,680,-3.80712,1.5311
-427,344,-3.06506,-1.45404,0,0,0,0,0,0,0,-1,797,680,-3.06505,1.45402
-420,344,-1.96582,-1.57574,0,0,0,0,0,0,0,-1,804,680,-1.96579,1.57574
-413,344,-0.817993,-1.4751,0,0,0,0,0,0,0,-1,811,680,-0.818017,1.47511
-406,344,-0.00714111,-1.25189,0,0,0,0,0,0,0,-1,818,680,-0.00714956,1.25191
-399,344,0.240051,-1.75769,0,0,0,0,0,0,0,-1,825,680,0.240079,1.75767
-392,344,1.11353,-2.05615,0,0,0,0,0,0,0,-1,832,680,1.11351,2.05616
-385,344,0,0,0,0,0,0,0,0,0,-1,839,680,0,0
-378,344,0,0,0,0,0,0,0,0,0,-1,846,680,0,0
-371,344,0,0,0,0,0,0,0,0,0,-1,853,680,0,0
-364,344,0,0,0,0,0,0,0,0,0,-1,860,680,0,0
-357,344,0,0,0,0,0,0,0,0,0,-1,867,680,0,0
-350,344,0,0,0,0,0,0,0,0,0,-1,874,680,0,0
-343,344,0,0,0,0,0,0,0,0,0,-1,881,680,0,0
-336,344,0,0,0,0,0,0,0,0,0,-1,888,680,0,0
-329,344,0,0,0,0,0,0,0,0,0,-1,895,680,0,0
-322,344,0,0,0,0,0,0,0,0,0,-1,902,680,0,0
-315,344,0,0,0,0,0,0,0,0,0,-1,909,680,0,0
-308,344,0,0,0,0,0,0,0,0,0,-1,916,680,0,0
-301,344,0,0,0,0,0,0,0,0,0,-1,923,680,0,0
-294,344,0,0,0,0,0,0,0,0,0,-1,930,680,0,0
-287,344,0,0,0,0,0,0,0,0,0,-1,937,680,0,0
-280,344,0,0,0,0,0,0,0,0,0,-1,944,680,0,0
-273,344,0,0,0,0,0,0,0,0,0,-1,951,680,0,0
-266,344,0,0,0,0,0,0,0,0,0,-1,958,680,0,0
-259,344,0,0,0,0,0,0,0,0,0,-1,965,680,0,0
-252,344,0,0,0,0,0,0,0,0,0,-1,972,680,0,0
-245,344,0,0,0,0,0,0,0,0,0,-1,979,680,0,0
-238,344,0,0,0,0,0,0,0,0,0,-1,986,680,0,0
-231,344,0,0,0,0,0,0,0,0,0,-1,993,680,0,0
-224,344,0,0,0,0,0,0,0,0,0,-1,1000,680,0,0
-217,344,0,0,0,0,0,0,0,0,0,-1,1007,680,0,0
-210,344,0,0,0,0,0,0,0,0,0,-1,1014,680,0,0
-203,344,0,0,0,0,0,0,0,0,0,-1,1021,680,0,0
-196,344,0,0,0,0,0,0,0,0,0,-1,1028,680,0,0
-189,344,0,0,0,0,0,0,0,0,0,-1,1035,680,0,0
-182,344,0,0,0,0,0,0,0,0,0,-1,1042,680,0,0
-175,344,0,0,0,0,0,0,0,0,0,-1,1049,680,0,0
-168,344,0,0,0,0,0,0,0,0,0,-1,1056,680,0,0
-161,344,0,0,0,0,0,0,0,0,0,-1,1063,680,0,0
-154,344,0,0,0,0,0,0,0,0,0,-1,1070,680,0,0
-147,344,0,0,0,0,0,0,0,0,0,-1,1077,680,0,0
-140,344,0,0,0,0,0,0,0,0,0,-1,1084,680,0,0
-133,344,0,0,0,0,0,0,0,0,0,-1,1091,680,0,0
-126,344,0,0,0,0,0,0,0,0,0,-1,1098,680,0,0
-119,344,0,0,0,0,0,0,0,0,0,-1,1105,680,0,0
-112,344,0,0,0,0,0,0,0,0,0,-1,1112,680,0,0
-105,344,0,0,0,0,0,0,0,0,0,-1,1119,680,0,0
-98,344,0,0,0,0,0,0,0,0,0,-1,1126,680,0,0
-91,344,0,0,0,0,0,0,0,0,0,-1,1133,680,0,0
-84,344,0,0,0,0,0,0,0,0,0,-1,1140,680,0,0
-77,344,0,0,0,0,0,0,0,0,0,-1,1147,680,0,0
-70,344,0,0,0,0,0,0,0,0,0,-1,1154,680,0,0
-63,344,0,0,0,0,0,0,0,0,0,-1,1161,680,0,0
-56,344,0,0,0,0,0,0,0,0,0,-1,1168,680,0,0
-49,344,0,0,0,0,0,0,0,0,0,-1,1175,680,0,0
-42,344,0,0,0,0,0,0,0,0,0,-1,1182,680,0,0
-35,344,0,0,0,0,0,0,0,0,0,-1,1189,680,0,0
-28,344,0,0,0,0,0,0,0,0,0,-1,1196,680,0,0
-21,344,0,0,0,0,0,0,0,0,0,-1,1203,680,0,0
-14,344,0,0,0,0,0,0,0,0,0,-1,1210,680,0,0
-7,344,0,0,0,0,0,0,0,0,0,-1,1217,680,0,0
0,344,0,0,0,0,0,0,0,0,0,-1,1224,680,0,0
7,344,0,0,0,0,0,0,0,0,0,-1,1231,680,0,0
14,344,0,0,0,0,0,0,0,0,0,-1,1238,680,0,0
21,344,0,0,0,0,0,0,0,0,0,-1,1245,680,0,0
28,344,0,0,0,0,0,0,0,0,0,-1,1252,680,0,0
35,344,0,0,0,0,0,0,0,0,0,-1,1259,680,0,0
42,344,0,0,0,0,0,0,0,0,0,-1,1266,680,0,0
49,344,0,0,0,0,0,0,0,0,0,-1,1273,680,0,0
56,344,0,0,0,0,0,0,0,0,0,-1,1280,680,0,0
63,344,0,0,0,0,0,0,0,0,0,-1,1287,680,0,0
70,344,0,0,0,0,0,0,0,0,0,-1,1294,680,0,0
77,344,0,0,0,0,0,0,0,0,0,-1,1301,680,0,0
84,344,0,0,0,0,0,0,0,0,0,-1,1308,680,0,0
91,344,0,0,0,0,0,0,0,0,0,-1,1315,680,0,0
98,344,0,0,0,0,0,0,0,0,0,-1,1322,680,0,0
105,344,0,0,0,0,0,0,0,0,0,-1,1329,680,0,0
112,344,0,0,0,0,0,0,0,0,0,-1,1336,680,0,0
119,344,0,0,0,0,0,0,0,0,0,-1,1343,680,0,0
126,344,0,0,0,0,0,0,0,0,0,-1,1350,680,0,0
133,344,0,0,0,0,0,0,0,0,0,-1,1357,680,0,0
140,344,0,0,0,0,0,0,0,0,0,-1,1364,680,0,0
147,344,0,0,0,0,0,0,0,0,0,-1,1371,680,0,0
154,344,0,0,0,0,0,0,0,0,0,-1,1378,680,0,0
161,344,0,0,0,0,0,0,0,0,0,-1,1385,680,0,0
168,344,0,0,0,0,0,0,0,0,0,-1,1392,680,0,0
175,344,0,0,0,0,0,0,0,0,0,-1,1399,680,0,0
182,344,0,0,0,0,0,0,0,0,0,-1,1406,680,0,0
189,344,0,0,0,0,0,0,0,0,0,-1,1413,680,0,0
196,344,0,0,0,0,0,0,0,0,0,-1,1420,680,0,0
203,344,0,0,0,0,0,0,0,0,0,-1,1427,680,0,0
210,344,0,0,0,0,0,0,0,0,0,-1,1434,680,0,0
217,344,0,0,0,0,0,0,0,0,0,-1,1441,680,0,0
224,344,0,0,0,0,0,0,0,0,0,-1,1448,680,0,0
231,344,0,0,0,0,0,0,0,0,0,-1,1455,680,0,0
238,344,0,0,0,0,0,0,0,0,0,-1,1462,680,0,0
245,344,0,0,0,0,0,0,0,0,0,-1,1469,680,0,0
252,344,0,0,0,0,0,0,0,0,0,-1,1476,680,0,0
259,344,0,0,0,0,0,0,0,0,0,-1,1483,680,0,0
266,344,0,0,0,0,0,0,0,0,0,-1,1490,680,0,0
273,344,0,0,0,0,0,0,0,0,0,-1,1497,680,0,0
280,344,0,0,0,0,0,0,0,0,0,-1,1504,680,0,0
287,344,0,0,0,0,0,0,0,0,0,-1,1511,680,0,0
294,344,0,0,0,0,0,0,0,0,0,-1,1518,680,0,0
301,344,0,0,0,0,0,0,0,0,0,-1,1525,680,0,0
308,344,0,0,0,0,0,0,0,0,0,-1,1532,680,0,0
315,344,0,0,0,0,0,0,0,0,0,-1,1539,680,0,0
322,344,0,0,0,0,0,0,0,0,0,-1,1546,680,0,0
329,344,0,0,0,0,0,0,0,0,0,-1,1553,680,0,0
336,344,0,0,0,0,0,0,0,0,0,-1,1560,680,0,0
343,344,0,0,0,0,0,0,0,0,0,-1,1567,680,0,0
350,344,0,0,0,0,0,0,0,0,0,-1,1574,680,0,0
357,344,0,0,0,0,0,0,0,0,0,-1,1581,680,0,0
364,344,0,0,0,0,0,0,0,0,0,-1,1588,680,0,0
371,344,0,0,0,0,0,0,0,0,0,-1,1595,680,0,0
378,344,0,0,0,0,0,0,0,0,0,-1,1602,680,0,0
385,344,0,0,0,0,0,0,0,0,0,-1,1609,680,0,0
392,344,0,0,0,0,0,0,0,0,0,-1,1616,680,0,0
399,344,0,0,0,0,0,0,0,0,0,-1,1623,680,0,0
406,344,0,0,0,0,0,0,0,0,0,-1,1630,680,0,0
413,344,0,0,0,0,0,0,0,0,0,-1,1637,680,0,0
420,344,0,0,0,0,0,0,0,0,0,-1,1644,680,0,0
427,344,0,0,0,0,0,0,0,0,0,-1,1651,680,0,0
434,344,0,0,0,0,0,0,0,0,0,-1,1658,680,0,0
441,344,0,0,0,0,0,0,0,0,0,-1,1665,680,0,0
448,344,0,0,0,0,0,0,0,0,0,-1,1672,680,0,0
455,344,0,0,0,0,0,0,0,0,0,-1,1679,680,0,0
462,344,0,0,0,0,0,0,0,0,0,-1,1686,680,0,0
469,344,0,0,0,0,0,0,0,0,0,-1,1693,680,0,0
476,344,0,0,0,0,0,0,0,0,0,-1,1700,680,0,0
483,344,0,0,0,0,0,0,0,0,0,-1,1707,680,0,0
490,344,0,0,0,0,0,0,0,0,0,-1,1714,680,0,0
497,344,0,0,0,0,0,0,0,0,0,-1,1721,680,0,0
504,344,0,0,0,0,0,0,0,0,0,-1,1728,680,0,0
511,344,15.4819,0.452637,0,0,0,0,0,0,0,-1,1735,680,15.4819,-0.452656
518,344,15.4491,0.723633,0,0,0,0,0,0,0,-1,1742,680,15.4491,-0.723644
525,344,15.4259,1.00104,0,0,0,0,0,0,0,-1,1749,680,15.4259,-1.00101
532,344,15.295,1.44165,0,0,0,0,0,0,0,-1,1756,680,15.2951,-1.44162
539,344,14.3729,1.48114,0,0,0,0,0,0,0,-1,1763,680,14.373,-1.48117
546,344,13.3718,1.66003,0,0,0,0,0,0,0,-1,1770,680,13.3718,-1.66001
553,344,12.5339,2.20245,0,0,0,0,0,0,0,-1,1777,680,12.5339,-2.20245
560,344,11.9363,2.14185,0,0,0,0,0,0,0,-1,1784,680,11.9362,-2.14182
567,344,11.397,0.925842,0,0,0,0,0,0,0,-1,1791,680,11.397,-0.92583
574,344,10.0004,0.504639,0,0,0,0,0,0,0,-1,1798,680,10.0004,-0.504645
581,344,9.32715,-0.0977173,0,0,0,0,0,0,0,-1,1805,680,9.32718,0.0977453
588,344,8.66345,-0.592346,0,0,0,0,0,0,0,-1,1812,680,8.66342,0.592326
595,344,8.77673,-0.328125,0.00644425,-0.001454,0.00197967,0.00691267,-0.00192241,0.232341,0.00536531,0.0326859,1819,680,8.77677,0.328115
602,344,8.78491,-0.122009,0.00257804,-0.00139249,0.00112717,0.00287571,-0.00169016,0.258191,0.00266556,0.024456,1826,680,8.78494,0.122008
609,344,8.72888,0.0419312,-0.000713008,-0.00103486,0.000102196,-0.0006833,-0.00106457,0.282898,0.000622819,0.0157345,1833,680,8.72886,-0.0419588
616,344,8.72241,0.225647,-0.00137077,-0.00110269,-0.000236026,-0.000965301,-0.00150816,-1.04364,0.000882051,0.0221792,1840,680,8.72239,-0.225643
623,344,8.72974,0.395996,-0.000805824,-0.00113532,-0.000194033,-0.000716033,-0.00122511,-0.433418,0.000710676,0.0184282,1847,680,8.7297,-0.395989
630,344,8.69519,0.546143,0.000474023,-0.000739127,-0.00031979,0.000553158,-0.000818263,-0.242587,0.000796706,0.023729,1854,680,8.69521,-0.546165
637,344,8.68762,0.735107,0.00220239,-0.000482456,-0.000686565,0.00236777,-0.000647836,-0.236377,0.00183303,0.0240771,1861,680,8.68768,-0.735127
644,344,8.7041,0.934082,0.00350665,-0.000297239,-0.00129044,0.0039031,-0.000693691,-0.29807,0.00286146,0.0162327,1868,680,8.70412,-0.934092
651,344,8.69604,1.13281,0.00541227,-0.000120098,-0.00204012,0.00608322,-0.000791043,-0.317733,0.00434324,0.0112148,1875,680,8.69601,-1.1328
658,344,8.68372,1.37891,0.00844579,-3.94577e-05,-0.00298552,0.00939096,-0.000984623,-0.306601,0.00661332,0.0169915,1882,680,8.68366,-1.3789
665,344,8.6604,1.55377,0.0130902,0.000333829,-0.0045467,0.0145448,-0.00112085,-0.309651,0.010091,0.0229859,1889,680,8.6604,-1.55374
672,344,8.68591,1.63446,0.0196616,0.000765808,-0.00656445,0.0217183,-0.00129085,-0.303615,0.0149278,0.0172031,1896,680,8.68586,-1.63444
679,344,8.80151,1.64307,0.0289675,0.00134092,-0.00919555,0.0317483,-0.00143992,-0.293668,0.0216615,0.0341837,1903,680,8.80148,-1.64305
686,344,9.50134,1.40814,0.0419001,0.00236538,-0.0125448,0.0455447,-0.00127925,-0.282745,0.0307984,0.047826,1910,680,9.50136,-1.40814
693,344,10.2205,1.52527,0,0,0,0,0,0,0,-1,1917,680,10.2205,-1.5253
700,344,11.443,-0.242126,0,0,0,0,0,0,0,-1,1924,680,11.4431,0.242126
707,344,12.6698,-0.227661,0,0,0,0,0,0,0,-1,1931,680,12.6699,0.227646
714,344,0,0,0,0,0,0,0,0,0,-1,1938,680,0,0
721,344,0,0,0,0,0,0,0,0,0,-1,1945,680,0,0
728,344,0,0,0,0,0,0,0,0,0,-1,1952,680,0,0
735,344,0,0,0,0,0,0,0,0,0,-1,1959,680,0,0
742,344,0,0,0,0,0,0,0,0,0,-1,1966,680,0,0
749,344,0,0,0,0,0,0,0,0,0,-1,1973,680,0,0
756,344,0,0,0,0,0,0,0,0,0,-1,1980,680,0,0
763,344,0,0,0,0,0,0,0,0,0,-1,1987,680,0,0
770,344,0,0,0,0,0,0,0,0,0,-1,1994,680,0,0
777,344,0,0,0,0,0,0,0,0,0,-1,2001,680,0,0
784,344,0,0,0,0,0,0,0,0,0,-1,2008,680,0,0
791,344,0,0,0,0,0,0,0,0,0,-1,2015,680,0,0
798,344,0,0,0,0,0,0,0,0,0,-1,2022,680,0,0
805,344,0,0,0,0,0,0,0,0,0,-1,2029,680,0,0
812,344,0,0,0,0,0,0,0,0,0,-1,2036,680,0,0
-700,337,0,0,0,0,0,0,0,0,0,-1,524,687,0,0
-693,337,0,0,0,0,0,0,0,0,0,-1,531,687,0,0
-686,337,0,0,0,0,0,0,0,0,0,-1,538,687,0,0
-679,337,0,0,0,0,0,0,0,0,0,-1,545,687,0,0
-672,337,0,0,0,0,0,0,0,0,0,-1,552,687,0,0
-665,337,0,0,0,0,0,0,0,0,0,-1,559,687,0,0
-658,337,0,0,0,0,0,0,0,0,0,-1,566,687,0,0
-651,337,0,0,0,0,0,0,0,0,0,-1,573,687,0,0
-644,337,0,0,0,0,0,0,0,0,0,-1,580,687,0,0
-637,337,0,0,0,0,0,0,0,0,0,-1,587,687,0,0
-630,337,0,0,0,0,0,0,0,0,0,-1,594,687,0,0
-623,337,0,0,0,0,0,0,0,0,0,-1,601,687,0,0
-616,337,0,0,0,0,0,0,0,0,0,-1,608,687,0,0
-609,337,0,0,0,0,0,0,0,0,0,-1,615,687,0,0
-602,337,0,0,0,0,0,0,0,0,0,-1,622,687,0,0
-595,337,0,0,0,0,0,0,0,0,0,-1,629,687,0,0
-588,337,-5.4635,-1.25427,0,0,0,0,0,0,0,-1,636,687,-5.46351,1.25425
-581,337,-5.32336,-0.792236,0,0,0,0,0,0,0,-1,643,687,-5.32336,0.792207
-574,337,-4.7196,1.25183,0,0,0,0,0,0,0,-1,650,687,-4.71963,-1.2518
-567,337,-4.63513,0.856262,0.042446,0.00632743,0.0227507,0.0534338,-0.00466036,0.449927,0.0372732,0.0479671,657,687,-4.63513,-0.856274
-560,337,-4.76056,0.488708,0.0297115,0.00728625,0.0157394,0.0378238,-0.000825981,0.4759,0.0254956,0.0434631,664,687,-4.76053,-0.48872
-553,337,-4.41498,0.105286,0.0203278,0.00730887,0.0102922,0.0259962,0.00164041,0.503423,0.0168107,0.0475698,671,687,-4.41496,-0.105274
-546,337,-3.75348,0.147095,0.011761,0.0072522,0.00619798,0.0161019,0.00291136,0.61097,0.00990775,0.0406401,678,687,-3.75348,-0.147067
-539,337,-3.95892,-0.128662,0.00716328,0.00621812,0.00298361,0.0097115,0.0036699,0.706855,0.0056624,0.0231046,685,687,-3.95891,0.128684
-532,337,-4.09418,-0.371338,0.00483583,0.00530938,0.000741182,0.00585069,0.00429452,0.940001,0.00349905,0.0131334,692,687,-4.09418,0.371322
-525,337,-4.12701,-0.537476,0.00299649,0.00390688,-0.000254921,0.0039734,0.00292997,-1.31554,0.00237867,0.0151904,699,687,-4.12699,0.537488
-518,337,-4.14313,-0.700989,0.00178539,0.00265528,-0.000645845,0.00299898,0.00144168,-1.08174,0.00173189,0.022165,706,687,-4.14312,0.700971
-511,337,-4.14111,-0.869995,0.000715284,0.00107484,-0.000683866,0.00160216,0.000187959,-0.913931,0.00101129,0.0223657,713,687,-4.14112,0.869968
-504,337,-4.13794,-1.04926,-0.000188641,-0.000147118,-0.00047989,0.00031246,-0.000648219,-0.807016,0.000565827,0.0216965,720,687,-4.13793,1.04924
-497,337,-4.11316,-1.19672,-0.00108434,-0.000531707,0.000430558,-0.000296427,-0.00131962,1.07068,0.000799472,0.0152389,727,687,-4.11314,1.1967
-490,337,-4.12512,-1.36041,-0.00228664,-0.000484381,0.00187279,0.000692795,-0.00346382,1.00963,0.00257144,0.0137454,734,687,-4.12512,1.3604
-483,337,-4.12268,-1.53693,-0.00394881,-0.000434845,0.00325887,0.0015105,-0.00589416,1.03263,0.0045179,0.013493,741,687,-4.1227,1.53691
-476,337,-4.11841,-1.70874,-0.00640145,3.18665e-05,0.00499199,0.0027538,-0.00912338,1.0716,0.00717847,0.0117601,748,687,-4.11839,1.70874
-469,337,-4.11261,-1.9162,-0.00967992,0.00110203,0.00705728,0.00459181,-0.0131697,1.11156,0.0106458,0.0155526,755,687,-4.11262,1.91617
-462,337,-4.11261,-2.04053,-0.0135627,0.00279123,0.00967693,0.00728335,-0.0180548,1.13619,0.0150632,0.031667,762,687,-4.1126,2.04052
-455,337,-4.32428,-2.05927,-0.0182749,0.00562632,0.0132541,0.0115219,-0.0241705,1.15226,0.021034,0.0466098,769,687,-4.32428,2.05927
-448,337,-4.4577,-1.9267,-0.0239367,0.00967446,0.0177935,0.0173441,-0.0316063,1.16383,0.0286586,0.0467105,776,687,-4.4577,1.92669
-441,337,-4.95172,-2.26691,-0.0302068,0.0151772,0.0235331,0.0251767,-0.0402063,1.169,0.0380799,0.0486007,783,687,-4.9517,2.2669
-434,337,-5.17072,-2.59528,0,0,0,0,0,0,0,-1,790,687,-5.17071,2.59529
-427,337,-2.94312,-1.42773,0,0,0,0,0,0,0,-1,797,687,-2.94314,1.42773
-420,337,-2.95996,-1.76697,0,0,0,0,0,0,0,-1,804,687,-2.95998,1.76696
-413,337,-1.29169,-1.99487,0,0,0,0,0,0,0,-1,811,687,-1.29171,1.9949
-406,337,-1.02356,-1.89563,0,0,0,0,0,0,0,-1,818,687,-1.02357,1.89564
-399,337,-0.472839,-2.21338,0,0,0,0,0,0,0,-1,825,687,-0.472837,2.2134
-392,337,0,0,0,0,0,0,0,0,0,-1,832,687,0,0
-385,337,0,0,0,0,0,0,0,0,0,-1,839,687,0,0
-378,337,0,0,0,0,0,0,0,0,0,-1,846,687,0,0
-371,337,0,0,0,0,0,0,0,0,0,-1,853,687,0,0
-364,337,0,0,0,0,0,0,0,0,0,-1,860,687,0,0
-357,337,0,0,0,0,0,0,0,0,0,-1,867,687,0,0
-350,337,0,0,0,0,0,0,0,0,0,-1,874,687,0,0
-343,337,0,0,0,0,0,0,0,0,0,-1,881,687,0,0
-336,337,0,0,0,0,0,0,0,0,0,-1,888,687,0,0
-329,337,0,0,0,0,0,0,0,0,0,-1,895,687,0,0
-322,337,0,0,0,0,0,0,0,0,0,-1,902,687,0,0
-315,337,0,0,0,0,0,0,0,0,0,-1,909,687,0,0
-308,337,0,0,0,0,0,0,0,0,0,-1,916,687,0,0
-301,337,0,0,0,0,0,0,0,0,0,-1,923,687,0,0
-294,337,0,0,0,0,0,0,0,0,0,-1,930,687,0,0
-287,337,0,0,0,0,0,0,0,0,0,-1,937,687,0,0
-280,337,0,0,0,0,0,0,0,0,0,-1,944,687,0,0
-273,337,0,0,0,0,0,0,0,0,0,-1,951,687,0,0
-266,337,0,0,0,0,0,0,0,0,0,-1,958,687,0,0
-259,337,0,0,0,0,0,0,0,0,0,-1,965,687,0,0
-252,337,0,0,0,0,0,0,0,0,0,-1,972,687,0,0
-245,337,0,0,0,0,0,0,0,0,0,-1,979,687,0,0
-238,337,0,0,0,0,0,0,0,0,0,-1,986,687,0,0
-231,337,0,0,0,0,0,0,0,0,0,-1,993,687,0,0
-224,337,0,0,0,0,0,0,0,0,0,-1,1000,687,0,0
-217,337,0,0,0,0,0,0,0,0,0,-1,1007,687,0,0
-210,337,0,0,0,0,0,0,0,0,0,-1,1014,687,0,0
-203,337,0,0,0,0,0,0,0,0,0,-1,1021,687,0,0
-196,337,0,0,0,0,0,0,0,0,0,-1,1028,687,0,0
-189,337,0,0,0,0,0,0,0,0,0,-1,1035,687,0,0
-182,337,0,0,0,0,0,0,0,0,0,-1,1042,687,0,0
-175,337,0,0,0,0,0,0,0,0,0,-1,1049,687,0,0
-168,337,0,0,0,0,0,0,0,0,0,-1,1056,687,0,0
-161,337,0,0,0,0,0,0,0,0,0,-1,1063,687,0,0
-154,337,0,0,0,0,0,0,0,0,0,-1,1070,687,0,0
-147,337,0,0,0,0,0,0,0,0,0,-1,1077,687,0,0
-140,337,0,0,0,0,0,0,0,0,0,-1,1084,687,0,0
-133,337,0,0,0,0,0,0,0,0,0,-1,1091,687,0,0
-126,337,0,0,0,0,0,0,0,0,0,-1,1098,687,0,0
-119,337,0,0,0,0,0,0,0,0,0,-1,1105,687,0,0
-112,337,0,0,0,0,0,0,0,0,0,-1,1112,687,0,0
-105,337,0,0,0,0,0,0,0,0,0,-1,1119,687,0,0
-98,337,0,0,0,0,0,0,0,0,0,-1,1126,687,0,0
-91,337,0,0,0,0,0,0,0,0,0,-1,1133,687,0,0
-84,337,0,0,0,0,0,0,0,0,0,-1,1140,687,0,0
-77,337,0,0,0,0,0,0,0,0,0,-1,1147,687,0,0
-70,337,0,0,0,0,0,0,0,0,0,-1,1154,687,0,0
-63,337,0,0,0,0,0,0,0,0,0,-1,1161,687,0,0
-56,337,0,0,0,0,0,0,0,0,0,-1,1168,687,0,0
-49,337,0,0,0,0,0,0,0,0,0,-1,1175,687,0,0
-42,337,0,0,0,0,0,0,0,0,0,-1,1182,687,0,0
-35,337,0,0,0,0,0,0,0,0,0,-1,1189,687,0,0
-28,337,0,0,0,0,0,0,0,0,0,-1,1196,687,0,0
-21,337,0,0,0,0,0,0,0,0,0,-1,1203,687,0,0
-14,337,0,0,0,0,0,0,0,0,0,-1,1210,687,0,0
-7,337,0,0,0,0,0,0,0,0,0,-1,1217,687,0,0
0,337,0,0,0,0,0,0,0,0,0,-1,1224,687,0,0
7,337,0,0,0,0,0,0,0,0,0,-1,1231,687,0,0
14,337,0,0,0,0,0,0,0,0,0,-1,1238,687,0,0
21,337,0,0,0,0,0,0,0,0,0,-1,1245,687,0,0
28,337,0,0,0,0,0,0,0,0,0,-1,1252,687,0,0
35,337,0,0,0,0,0,0,0,0,0,-1,1259,687,0,0
42,337,0,0,0,0,0,0,0,0,0,-1,1266,687,0,0
49,337,0,0,0,0,0,0,0,0,0,-1,1273,687,0,0
56,337,0,0,0,0,0,0,0,0,0,-1,1280,687,0,0
63,337,0,0,0,0,0,0,0,0,0,-1,1287,687,0,0
70,337,0,0,0,0,0,0,0,0,0,-1,1294,687,0,0
77,337,0,0,0,0,0,0,0,0,0,-1,1301,687,0,0
84,337,0,0,0,0,0,0,0,0,0,-1,1308,687,0,0
91,337,0,0,0,0,0,0,0,0,0,-1,1315,687,0,0
98,337,0,0,0,0,0,0,0,0,0,-1,1322,687,0,0
105,337,0,0,0,0,0,0,0,0,0,-1,1329,687,0,0
112,337,0,0,0,0,0,0,0,0,0,-1,1336,687,0,0
119,337,0,0,0,0,0,0,0,0,0,-1,1343,687,0,0
126,337,0,0,0,0,0,0,0,0,0,-1,1350,687,0,0
133,337,0,0,0,0,0,0,0,0,0,-1,1357,687,0,0
140,337,0,0,0,0,0,0,0,0,0,-1,1364,687,0,0
147,337,0,0,0,0,0,0,0,0,0,-1,1371,687,0,0
154,337,0,0,0,0,0,0,0,0,0,-1,1378,687,0,0
161,337,0,0,0,0,0,0,0,0,0,-1,1385,687,0,0
168,337,0,0,0,0,0,0,0,0,0,-1,1392,687,0,0
175,337,0,0,0,0,0,0,0,0,0,-1,1399,687,0,0
182,337,0,0,0,0,0,0,0,0,0,-1,1406,687,0,0
189,337,0,0,0,0,0,0,0,0,0,-1,1413,687,0,0
196,337,0,0,0,0,0,0,0,0,0,-1,1420,687,0,0
203,337,0,0,0,0,0,0,0,0,0,-1,1427,687,0,0
210,337,0,0,0,0,0,0,0,0,0,-1,1434,687,0,0
217,337,0,0,0,0,0,0,0,0,0,-1,1441,687,0,0
224,337,0,0,0,0,0,0,0,0,0,-1,1448,687,0,0
231,337,0,0,0,0,0,0,0,0,0,-1,1455,687,0,0
238,337,0,0,0,0,0,0,0,0,0,-1,1462,687,0,0
245,337,0,0,0,0,0,0,0,0,0,-1,1469,687,0,0
252,337,0,0,0,0,0,0,0,0,0,-1,1476,687,0,0
259,337,0,0,0,0,0,0,0,0,0,-1,1483,687,0,0
266,337,0,0,0,0,0,0,0,0,0,-1,1490,687,0,0
273,337,0,0,0,0,0,0,0,0,0,-1,1497,687,0,0
280,337,0,0,0,0,0,0,0,0,0,-1,1504,687,0,0
287,337,0,0,0,0,0,0,0,0,0,-1,1511,687,0,0
294,337,0,0,0,0,0,0,0,0,0,-1,1518,687,0,0
301,337,0,0,0,0,0,0,0,0,0,-1,1525,687,0,0
308,337,0,0,0,0,0,0,0,0,0,-1,1532,687,0,0
315,337,0,0,0,0,0,0,0,0,0,-1,1539,687,0,0
322,337,0,0,0,0,0,0,0,0,0,-1,1546,687,0,0
329,337,0,0,0,0,0,0,0,0,0,-1,1553,687,0,0
336,337,0,0,0,0,0,0,0,0,0,-1,1560,687,0,0
343,337,0,0,0,0,0,0,0,0,0,-1,1567,687,0,0
350,337,0,0,0,0,0,0,0,0,0,-1,1574,687,0,0
357,337,0,0,0,0,0,0,0,0,0,-1,1581,687,0,0
364,337,0,0,0,0,0,0,0,0,0,-1,1588,687,0,0
371,337,0,0,0,0,0,0,0,0,0,-1,1595,687,0,0
378,337,0,0,0,0,0,0,0,0,0,-1,1602,687,0,0
385,337,0,0,0,0,0,0,0,0,0,-1,1609,687,0,0
392,337,0,0,0,0,0,0,0,0,0,-1,1616,687,0,0
399,337,0,0,0,0,0,0,0,0,0,-1,1623,687,0,0
406,337,0,0,0,0,0,0,0,0,0,-1,1630,687,0,0
413,337,0,0,0,0,0,0,0,0,0,-1,1637,687,0,0
420,337,0,0,0,0,0,0,0,0,0,-1,1644,687,0,0
427,337,0,0,0,0,0,0,0,0,0,-1,1651,687,0,0
434,337,0,0,0,0,0,0,0,0,0,-1,1658,687,0,0
441,337,0,0,0,0,0,0,0,0,0,-1,1665,687,0,0
448,337,0,0,0,0,0,0,0,0,0,-1,1672,687,0,0
455,337,0,0,0,0,0,0,0,0,0,-1,1679,687,0,0
462,337,0,0,0,0,0,0,0,0,0,-1,1686,687,0,0
469,337,0,0,0,0,0,0,0,0,0,-1,1693,687,0,0
476,337,0,0,0,0,0,0,0,0,0,-1,1700,687,0,0
483,337,0,0,0,0,0,0,0,0,0,-1,1707,687,0,0
490,337,0,0,0,0,0,0,0,0,0,-1,1714,687,0,0
497,337,0,0,0,0,0,0,0,0,0,-1,1721,687,0,0
504,337,0,0,0,0,0,0,0,0,0,-1,1728,687,0,0
511,337,0,0,0,0,0,0,0,0,0,-1,1735,687,0,0
518,337,15.9426,1.1582,0,0,0,0,0,0,0,-1,1742,687,15.9426,-1.15822
525,337,15.8589,-0.270874,0,0,0,0,0,0,0,-1,1749,687,15.8589,0.270882
532,337,16.3881,-0.09021,0,0,0,0,0,0,0,-1,1756,687,16.3881,0.0901834
539,337,16.9097,0.0394287,0,0,0,0,0,0,0,-1,1763,687,16.9096,-0.0394486
546,337,17.3765,0.241821,0,0,0,0,0,0,0,-1,1770,687,17.3764,-0.241813
553,337,17.7928,0.383362,0,0,0,0,0,0,0,-1,1777,687,17.7929,-0.38339
560,337,12.347,2.23297,0,0,0,0,0,0,0,-1,1784,687,12.3471,-2.23299
567,337,11.9288,1.38776,0,0,0,0,0,0,0,-1,1791,687,11.9288,-1.38777
574,337,10.704,1.19476,0,0,0,0,0,0,0,-1,1798,687,10.704,-1.19478
581,337,8.50427,0.561768,0,0,0,0,0,0,0,-1,1805,687,8.5043,-0.561754
588,337,8.5885,-0.0536499,0,0,0,0,0,0,0,-1,1812,687,8.58844,0.0536788
595,337,8.76331,-0.266235,0,0,0,0,0,0,0,-1,1819,687,8.76333,0.266263
602,337,8.90857,-0.116272,0.0049374,-0.00243221,0.00455699,0.00711297,-0.00460778,0.445415,0.00681831,0.031499,1826,687,8.90852,0.116267
609,337,8.8999,0.0924683,0.000535639,-0.00152419,0.00298676,0.00266507,-0.00365362,0.619369,0.00366294,0.0193742,1833,687,8.89995,-0.0924788
616,337,8.89929,0.236023,-0.00098848,-0.00119492,0.00188853,0.000799651,-0.00298305,0.758098,0.00230202,0.0171581,1840,687,8.89925,-0.236016
623,337,8.90735,0.40271,-0.000897331,-0.00106573,0.00118847,0.000209923,-0.00217298,0.750035,0.00152346,0.0140805,1847,687,8.90733,-0.402723
630,337,8.87671,0.572266,2.70726e-05,-0.000711818,0.000474396,0.00025891,-0.000943656,0.454567,0.000730857,0.0179854,1854,687,8.87668,-0.57224
637,337,8.89697,0.756531,0.0013953,-0.000445487,-0.000330295,0.00145277,-0.000502958,-0.172274,0.00117269,0.0171145,1861,687,8.89693,-0.75654
644,337,8.90894,0.966553,0.00239316,-0.000215731,-0.00120152,0.00286219,-0.000684765,-0.372175,0.00217266,0.011039,1868,687,8.90893,-0.966566
651,337,8.88965,1.15009,0.00396754,-1.46902e-05,-0.00201359,0.00480822,-0.000855373,-0.395505,0.00352537,0.0097248,1875,687,8.88962,-1.15006
658,337,8.88818,1.33136,0.00669199,8.49467e-05,-0.00278866,0.00771165,-0.000934709,-0.350543,0.00547931,0.0114433,1882,687,8.88812,-1.33138
665,337,8.90625,1.49963,0.0109204,0.000512228,-0.00416849,0.0123841,-0.000951429,-0.337676,0.00859078,0.0134608,1889,687,8.9062,-1.49964
672,337,8.90247,1.65973,0.0168037,0.00100601,-0.00588506,0.018755,-0.000945305,-0.320163,0.0128301,0.0144315,1896,687,8.90245,-1.65974
679,337,8.76318,1.71295,0.0250856,0.00159212,-0.00816239,0.0276431,-0.000965353,-0.303635,0.0187588,0.0325458,1903,687,8.76316,-1.71293
686,337,9.6322,1.38049,0.0363973,0.0026839,-0.0109998,0.0396688,-0.000587607,-0.289083,0.0266439,0.0459663,1910,687,9.63224,-1.3805
693,337,10.3251,1.30017,0,0,0,0,0,0,0,-1,1917,687,10.325,-1.30019
700,337,11.7327,-0.938293,0,0,0,0,0,0,0,-1,1924,687,11.7326,0.938306
707,337,13.0155,-0.905396,0,0,0,0,0,0,0,-1,1931,687,13.0154,0.905383
714,337,0,0,0,0,0,0,0,0,0,-1,1938,687,0,0
721,337,0,0,0,0,0,0,0,0,0,-1,1945,687,0,0
728,337,0,0,0,0,0,0,0,0,0,-1,1952,687,0,0
735,337,0,0,0,0,0,0,0,0,0,-1,1959,687,0,0
742,337,0,0,0,0,0,0,0,0,0,-1,1966,687,0,0
749,337,0,0,0,0,0,0,0,0,0,-1,1973,687,0,0
756,337,0,0,0,0,0,0,0,0,0,-1,1980,687,0,0
763,337,0,0,0,0,0,0,0,0,0,-1,1987,687,0,0
770,337,0,0,0,0,0,0,0,0,0,-1,1994,687,0,0
777,337,0,0,0,0,0,0,0,0,0,-1,2001,687,0,0
784,337,0,0,0,0,0,0,0,0,0,-1,2008,687,0,0
791,337,0,0,0,0,0,0,0,0,0,-1,2015,687,0,0
798,337,0,0,0,0,0,0,0,0,0,-1,2022,687,0,0
805,337,0,0,0,0,0,0,0,0,0,-1,2029,687,0,0
812,337,0,0,0,0,0,0,0,0,0,-1,2036,687,0,0
-700,330,0,0,0,0,0,0,0,0,0,-1,524,694,0,0
-693,330,0,0,0,0,0,0,0,0,0,-1,531,694,0,0
-686,330,0,0,0,0,0,0,0,0,0,-1,538,694,0,0
-679,330,0,0,0,0,0,0,0,0,0,-1,545,694,0,0
-672,330,0,0,0,0,0,0,0,0,0,-1,552,694,0,0
-665,330,0,0,0,0,0,0,0,0,0,-1,559,694,0,0
-658,330,0,0,0,0,0,0,0,0,0,-1,566,694,0,0
-651,330,0,0,0,0,0,0,0,0,0,-1,573,694,0,0
-644,330,0,0,0,0,0,0,0,0,0,-1,580,694,0,0
-637,330,0,0,0,0,0,0,0,0,0,-1,587,694,0,0
-630,330,0,0,0,0,0,0,0,0,0,-1,594,694,0,0
-623,330,0,0,0,0,0,0,0,0,0,-1,601,694,0,0
-616,330,0,0,0,0,0,0,0,0,0,-1,608,694,0,0
-609,330,0,0,0,0,0,0,0,0,0,-1,615,694,0,0
-602,330,0,0,0,0,0,0,0,0,0,-1,622,694,0,0
-595,330,-0.736877,-3.08948,0,0,0,0,0,0,0,-1,629,694,-0.736879,3.08945
-588,330,-0.277832,-2.99908,0,0,0,0,0,0,0,-1,636,694,-0.277832,2.99906
-581,330,-5.4715,-1.29028,0,0,0,0,0,0,0,-1,643,694,-5.47151,1.29026
-574,330,-5.1947,-0.161255,0,0,0,0,0,0,0,-1,650,694,-5.19467,0.161251
-567,330,-4.97736,-0.00512695,0.0393176,0.00314752,0.0228008,0.0503348,-0.00786975,0.450115,0.036464,0.0460626,657,694,-4.97733,0.00512771
-560,330,-4.79535,0.182739,0.0269263,0.00485063,0.0159105,0.0352527,-0.00347586,0.48214,0.024742,0.0403236,664,694,-4.79537,-0.182761
-553,330,-4.41003,0.0880737,0.0179049,0.00549084,0.0105758,0.0239607,-0.000564878,0.520029,0.0161654,0.0369932,671,694,-4.41001,-0.088099
-546,330,-4.18231,-0.0993652,0.00958708,0.00591817,0.00658093,0.0145845,0.000920799,0.649472,0.00943103,0.0240153,678,694,-4.1823,0.099394
-539,330,-4.24316,-0.218079,0.00529582,0.00523027,0.00345821,0.00872141,0.00180467,0.78066,0.00531583,0.0107883,685,694,-4.24318,0.218076
-532,330,-4.29614,-0.373596,0.00325132,0.00461342,0.00127109,0.00537441,0.00249032,1.03134,0.00310569,0.0092417,692,694,-4.29615,0.373587
-525,330,-4.30389,-0.553162,0.00162814,0.00354139,0.000418858,0.00362907,0.00154046,1.36444,0.0021032,0.011,699,694,-4.30391,0.553145
-518,330,-4.29681,-0.704224,0.000540041,0.00257593,0.000198358,0.00259507,0.000520895,1.47457,0.00158521,0.0144535,706,694,-4.2968,0.704226
-511,330,-4.28174,-0.870667,-0.000363563,0.0013019,0.000321129,0.00136167,-0.000423337,1.38677,0.00107699,0.0189598,713,694,-4.28177,0.870695
-504,330,-4.28333,-1.03357,-0.00132474,0.000324842,0.000739944,0.000608111,-0.00160801,1.20518,0.00132218,0.017354,720,694,-4.2833,1.03355
-497,330,-4.28253,-1.18146,-0.00258807,0.000335492,0.00190604,0.00127575,-0.00352832,1.11252,0.00287347,0.0124089,727,694,-4.28254,1.18145
-490,330,-4.2674,-1.36475,-0.0042727,0.00131775,0.00370142,0.00316082,-0.00611578,1.1088,0.00544567,0.0124876,734,694,-4.26742,1.36476
-483,330,-4.28015,-1.54504,-0.00651991,0.00227315,0.00548735,0.00490801,-0.00915477,1.12314,0.00824164,0.0127048,741,694,-4.28018,1.54503
-476,330,-4.284,-1.70831,-0.0097648,0.0039317,0.00766141,0.00735942,-0.0131925,1.15011,0.0120239,0.0173529,748,694,-4.28401,1.7083
-469,330,-4.18127,-1.80847,-0.0140493,0.00649765,0.0102088,0.0107074,-0.0182591,1.17968,0.0169122,0.028943,755,694,-4.1813,1.80844
-462,330,-4.24597,-1.79553,-0.0193393,0.0101063,0.0133221,0.015239,-0.024472,1.20305,0.0231327,0.0449304,762,694,-4.24599,1.79554
-455,330,-5.05481,-2.26398,-0.0255957,0.0150988,0.0172386,0.0214195,-0.0319165,1.21936,0.0309917,0.0411347,769,694,-5.05482,2.26395
-448,330,-5.12885,-2.13629,-0.0327309,0.0217833,0.0220706,0.0295984,-0.040546,1.23048,0.040662,0.047154,776,694,-5.12885,2.13628
-441,330,-5.9884,-3.00092,0,0,0,0,0,0,0,-1,783,694,-5.98842,3.00092
-434,330,-6.04266,-3.60565,0,0,0,0,0,0,0,-1,790,694,-6.04264,3.60566
-427,330,-2.84381,-2.25128,0,0,0,0,0,0,0,-1,797,694,-2.84381,2.25129
-420,330,-1.97321,-2.073,0,0,0,0,0,0,0,-1,804,694,-1.97319,2.07303
-413,330,-1.32983,-3.20068,0,0,0,0,0,0,0,-1,811,694,-1.32981,3.2007
-406,330,-1.65375,-1.74371,0,0,0,0,0,0,0,-1,818,694,-1.65375,1.74371
-399,330,0,0,0,0,0,0,0,0,0,-1,825,694,0,0
-392,330,0,0,0,0,0,0,0,0,0,-1,832,694,0,0
-385,330,0,0,0,0,0,0,0,0,0,-1,839,694,0,0
-378,330,0,0,0,0,0,0,0,0,0,-1,846,694,0,0
-371,330,0,0,0,0,0,0,0,0,0,-1,853,694,0,0
-364,330,0,0,0,0,0,0,0,0,0,-1,860,694,0,0
-357,330,0,0,0,0,0,0,0,0,0,-1,867,694,0,0
-350,330,0,0,0,0,0,0,0,0,0,-1,874,694,0,0
-343,330,0,0,0,0,0,0,0,0,0,-1,881,694,0,0
-336,330,0,0,0,0,0,0,0,0,0,-1,888,694,0,0
-329,330,0,0,0,0,0,0,0,0,0,-1,895,694,0,0
-322,330,0,0,0,0,0,0,0,0,0,-1,902,694,0,0
-315,330,0,0,0,0,0,0,0,0,0,-1,909,694,0,0
-308,330,0,0,0,0,0,0,0,0,0,-1,916,694,0,0
-301,330,0,0,0,0,0,0,0,0,0,-1,923,694,0,0
-294,330,0,0,0,0,0,0,0,0,0,-1,930,694,0,0
-287,330,0,0,0,0,0,0,0,0,0,-1,937,694,0,0
-280,330,0,0,0,0,0,0,0,0,0,-1,944,694,0,0
-273,330,0,0,0,0,0,0,0,0,0,-1,951,694,0,0
-266,330,0,0,0,0,0,0,0,0,0,-1,958,694,0,0
-259,330,0,0,0,0,0,0,0,0,0,-1,965,694,0,0
-252,330,0,0,0,0,0,0,0,0,0,-1,972,694,0,0
-245,330,0,0,0,0,0,0,0,0,0,-1,979,694,0,0
-238,330,0,0,0,0,0,0,0,0,0,-1,986,694,0,0
-231,330,0,0,0,0,0,0,0,0,0,-1,993,694,0,0
-224,330,0,0,0,0,0,0,0,0,0,-1,1000,694,0,0
-217,330,0,0,0,0,0,0,0,0,0,-1,1007,694,0,0
-210,330,0,0,0,0,0,0,0,0,0,-1,1014,694,0,0
-203,330,0,0,0,0,0,0,0,0,0,-1,1021,694,0,0
-196,330,0,0,0,0,0,0,0,0,0,-1,1028,694,0,0
-189,330,0,0,0,0,0,0,0,0,0,-1,1035,694,0,0
-182,330,0,0,0,0,0,0,0,0,0,-1,1042,694,0,0
-175,330,0,0,0,0,0,0,0,0,0,-1,1049,694,0,0
-168,330,0,0,0,0,0,0,0,0,0,-1,1056,694,0,0
-161,330,0,0,0,0,0,0,0,0,0,-1,1063,694,0,0
-154,330,0,0,0,0,0,0,0,0,0,-1,1070,694,0,0
-147,330,0,0,0,0,0,0,0,0,0,-1,1077,694,0,0
-140,330,0,0,0,0,0,0,0,0,0,-1,1084,694,0,0
-133,330,0,0,0,0,0,0,0,0,0,-1,1091,694,0,0
-126,330,0,0,0,0,0,0,0,0,0,-1,1098,694,0,0
-119,330,0,0,0,0,0,0,0,0,0,-1,1105,694,0,0
-112,330,0,0,0,0,0,0,0,0,0,-1,1112,694,0,0
-105,330,0,0,0,0,0,0,0,0,0,-1,1119,694,0,0
-98,330,0,0,0,0,0,0,0,0,0,-1,1126,694,0,0
-91,330,0,0,0,0,0,0,0,0,0,-1,1133,694,0,0
-84,330,0,0,0,0,0,0,0,0,0,-1,1140,694,0,0
-77,330,0,0,0,0,0,0,0,0,0,-1,1147,694,0,0
-70,330,0,0,0,0,0,0,0,0,0,-1,1154,694,0,0
-63,330,0,0,0,0,0,0,0,0,0,-1,1161,694,0,0
-56,330,0,0,0,0,0,0,0,0,0,-1,1168,694,0,0
-49,330,0,0,0,0,0,0,0,0,0,-1,1175,694,0,0
-42,330,0,0,0,0,0,0,0,0,0,-1,1182,694,0,0
-35,330,0,0,0,0,0,0,0,0,0,-1,1189,694,0,0
-28,330,0,0,0,0,0,0,0,0,0,-1,1196,694,0,0
-21,330,0,0,0,0,0,0,0,0,0,-1,1203,694,0,0
-14,330,0,0,0,0,0,0,0,0,0,-1,1210,694,0,0
-7,330,0,0,0,0,0,0,0,0,0,-1,1217,694,0,0
0,330,0,0,0,0,0,0,0,0,0,-1,1224,694,0,0
7,330,0,0,0,0,0,0,0,0,0,-1,1231,694,0,0
14,330,0,0,0,0,0,0,0,0,0,-1,1238,694,0,0
21,330,0,0,0,0,0,0,0,0,0,-1,1245,694,0,0
28,330,0,0,0,0,0,0,0,0,0,-1,1252,694,0,0
35,330,0,0,0,0,0,0,0,0,0,-1,1259,694,0,0
42,330,0,0,0,0,0,0,0,0,0,-1,1266,694,0,0
49,330,0,0,0,0,0,0,0,0,0,-1,1273,694,0,0
56,330,0,0,0,0,0,0,0,0,0,-1,1280,694,0,0
63,330,0,0,0,0,0,0,0,0,0,-1,1287,694,0,0
70,330,0,0,0,0,0,0,0,0,0,-1,1294,694,0,0
77,330,0,0,0,0,0,0,0,0,0,-1,1301,694,0,0
84,330,0,0,0,0,0,0,0,0,0,-1,1308,694,0,0
91,330,0,0,0,0,0,0,0,0,0,-1,1315,694,0,0
98,330,0,0,0,0,0,0,0,0,0,-1,1322,694,0,0
105,330,0,0,0,0,0,0,0,0,0,-1,1329,694,0,0
112,330,0,0,0,0,0,0,0,0,0,-1,1336,694,0,0
119,330,0,0,0,0,0,0,0,0,0,-1,1343,694,0,0
126,330,0,0,0,0,0,0,0,0,0,-1,1350,694,0,0
133,330,0,0,0,0,0,0,0,0,0,-1,1357,694,0,0
140,330,0,0,0,0,0,0,0,0,0,-1,1364,694,0,0
147,330,0,0,0,0,0,0,0,0,0,-1,1371,694,0,0
154,330,0,0,0,0,0,0,0,0,0,-1,1378,694,0,0
161,330,0,0,0,0,0,0,0,0,0,-1,1385,694,0,0
168,330,0,0,0,0,0,0,0,0,0,-1,1392,694,0,0
175,330,0,0,0,0,0,0,0,0,0,-1,1399,694,0,0
182,330,0,0,0,0,0,0,0,0,0,-1,1406,694,0,0
189,330,0,0,0,0,0,0,0,0,0,-1,1413,694,0,0
196,330,0,0,0,0,0,0,0,0,0,-1,1420,694,0,0
203,330,0,0,0,0,0,0,0,0,0,-1,1427,694,0,0
210,330,0,0,0,0,0,0,0,0,0,-1,1434,694,0,0
217,330,0,0,0,0,0,0,0,0,0,-1,1441,694,0,0
224,330,0,0,0,0,0,0,0,0,0,-1,1448,694,0,0
231,330,0,0,0,0,0,0,0,0,0,-1,1455,694,0,0
238,330,0,0,0,0,0,0,0,0,0,-1,1462,694,0,0
245,330,0,0,0,0,0,0,0,0,0,-1,1469,694,0,0
252,330,0,0,0,0,0,0,0,0,0,-1,1476,694,0,0
259,330,0,0,0,0,0,0,0,0,0,-1,1483,694,0,0
266,330,0,0,0,0,0,0,0,0,0,-1,1490,694,0,0
273,330,0,0,0,0,0,0,0,0,0,-1,1497,694,0,0
280,330,0,0,0,0,0,0,0,0,0,-1,1504,694,0,0
287,330,0,0,0,0,0,0,0,0,0,-1,1511,694,0,0
294,330,0,0,0,0,0,0,0,0,0,-1,1518,694,0,0
301,330,0,0,0,0,0,0,0,0,0,-1,1525,694,0,0
308,330,0,0,0,0,0,0,0,0,0,-1,1532,694,0,0
315,330,0,0,0,0,0,0,0,0,0,-1,1539,694,0,0
322,330,0,0,0,0,0,0,0,0,0,-1,1546,694,0,0
329,330,0,0,0,0,0,0,0,0,0,-1,1553,694,0,0
336,330,0,0,0,0,0,0,0,0,0,-1,1560,694,0,0
343,330,0,0,0,0,0,0,0,0,0,-1,1567,694,0,0
350,330,0,0,0,0,0,0,0,0,0,-1,1574,694,0,0
357,330,0,0,0,0,0,0,0,0,0,-1,1581,694,0,0
364,330,0,0,0,0,0,0,0,0,0,-1,1588,694,0,0
371,330,0,0,0,0,0,0,0,0,0,-1,1595,694,0,0
378,330,0,0,0,0,0,0,0,0,0,-1,1602,694,0,0
385,330,0,0,0,0,0,0,0,0,0,-1,1609,694,0,0
392,330,0,0,0,0,0,0,0,0,0,-1,1616,694,0,0
399,330,0,0,0,0,0,0,0,0,0,-1,1623,694,0,0
406,330,0,0,0,0,0,0,0,0,0,-1,1630,694,0,0
413,330,0,0,0,0,0,0,0,0,0,-1,1637,694,0,0
420,330,0,0,0,0,0,0,0,0,0,-1,1644,694,0,0
427,330,0,0,0,0,0,0,0,0,0,-1,1651,694,0,0
434,330,0,0,0,0,0,0,0,0,0,-1,1658,694,0,0
441,330,0,0,0,0,0,0,0,0,0,-1,1665,694,0,0
448,330,0,0,0,0,0,0,0,0,0,-1,1672,694,0,0
455,330,0,0,0,0,0,0,0,0,0,-1,1679,694,0,0
462,330,0,0,0,0,0,0,0,0,0,-1,1686,694,0,0
469,330,0,0,0,0,0,0,0,0,0,-1,1693,694,0,0
476,330,0,0,0,0,0,0,0,0,0,-1,1700,694,0,0
483,330,0,0,0,0,0,0,0,0,0,-1,1707,694,0,0
490,330,0,0,0,0,0,0,0,0,0,-1,1714,694,0,0
497,330,0,0,0,0,0,0,0,0,0,-1,1721,694,0,0
504,330,0,0,0,0,0,0,0,0,0,-1,1728,694,0,0
511,330,0,0,0,0,0,0,0,0,0,-1,1735,694,0,0
518,330,0,0,0,0,0,0,0,0,0,-1,1742,694,0,0
525,330,15.708,-0.528625,0,0,0,0,0,0,0,-1,1749,694,15.708,0.528656
532,330,15.96,-0.338989,0,0,0,0,0,0,0,-1,1756,694,15.9599,0.339013
539,330,16.4696,-0.0952759,0.0901183,0.0341771,0.0196839,0.0963502,0.0279452,0.306613,0.0572393,0.0480229,1763,694,16.4696,0.0952908
546,330,16.9929,0.15564,0.0733307,0.016149,0.0132721,0.0762611,0.0132186,0.217303,0.0470575,0.047972,1770,694,16.9929,-0.155624
553,330,17.512,0.393494,0.0589279,0.00533845,0.0111449,0.0611533,0.00311307,0.197085,0.0397718,0.0486051,1777,694,17.5119,-0.393486
560,330,17.9788,0.673767,0,0,0,0,0,0,0,-1,1784,694,17.9788,-0.67375
567,330,12.5887,1.99567,0,0,0,0,0,0,0,-1,1791,694,12.5887,-1.99565
574,330,12.0454,2.1662,0,0,0,0,0,0,0,-1,1798,694,12.0455,-2.16618
581,330,12.7212,1.9704,0,0,0,0,0,0,0,-1,1805,694,12.7212,-1.97041
588,330,6.45667,-0.0630493,0,0,0,0,0,0,0,-1,1812,694,6.45661,0.0630695
595,330,8.23193,-0.258484,0,0,0,0,0,0,0,-1,1819,694,8.23188,0.258459
602,330,8.8551,-0.250427,0,0,0,0,0,0,0,-1,1826,694,8.8551,0.250422
609,330,9.00793,0.0261841,0.00317137,-0.0018103,0.00594643,0.00712757,-0.0057665,0.58706,0.00745821,0.0240108,1833,694,9.00798,-0.0261718
616,330,9.08252,0.221802,0.000737842,-0.000955422,0.00435411,0.00432687,-0.00454445,0.689374,0.00512237,0.01098,1840,694,9.08247,-0.221799
623,330,9.10852,0.398865,0.00021777,-0.00065764,0.00297915,0.0027912,-0.00323107,0.712459,0.00348004,0.012621,1847,694,9.10857,-0.398843
630,330,9.11951,0.590454,0.000653302,-0.000497477,0.00158832,0.00176725,-0.00161142,0.61162,0.00195137,0.0131345,1854,694,9.11947,-0.590433
637,330,9.12268,0.791077,0.00158373,-0.000361686,0.000289465,0.00162588,-0.000403843,0.144621,0.00124064,0.0121374,1861,694,9.12268,-0.791076
644,330,9.09094,0.97583,0.00226615,-0.000217924,-0.000895144,0.00255511,-0.00050688,-0.312244,0.0018951,0.00808276,1868,694,9.09098,-0.975827
651,330,9.0769,1.15051,0.00348288,-0.000116106,-0.00185382,0.00426695,-0.000900181,-0.400134,0.00318735,0.0112803,1875,694,9.07696,-1.15049
658,330,9.06458,1.33185,0.00590446,-8.58691e-05,-0.00253001,0.00683001,-0.00101142,-0.350704,0.00492522,0.0118893,1882,694,9.0646,-1.33183
665,330,9.06897,1.51178,0.00977294,0.000357346,-0.0037483,0.0110829,-0.000952589,-0.336207,0.00772571,0.010066,1889,694,9.069,-1.51177
672,330,9.06726,1.69745,0.0150109,0.000839131,-0.00519353,0.0167104,-0.000860342,-0.316246,0.0114378,0.0119267,1896,694,9.06729,-1.69745
679,330,8.96533,1.8692,0.0223088,0.00140581,-0.00709161,0.0244876,-0.000773005,-0.298084,0.0165887,0.026239,1903,694,8.96528,-1.86921
686,330,9.72559,1.40222,0.0322359,0.00246054,-0.00946829,0.0349916,-0.000295237,-0.283229,0.0234268,0.0435309,1910,694,9.72562,-1.40221
693,330,10.3611,1.05554,0,0,0,0,0,0,0,-1,1917,694,10.3611,-1.05555
700,330,12.6141,-1.77289,0,0,0,0,0,0,0,-1,1924,694,12.6141,1.77291
707,330,13.6041,-1.52026,0,0,0,0,0,0,0,-1,1931,694,13.6041,1.52028
714,330,14.5396,-1.26099,0,0,0,0,0,0,0,-1,1938,694,14.5395,1.261
721,330,0,0,0,0,0,0,0,0,0,-1,1945,694,0,0
728,330,0,0,0,0,0,0,0,0,0,-1,1952,694,0,0
735,330,0,0,0,0,0,0,0,0,0,-1,1959,694,0,0
742,330,0,0,0,0,0,0,0,0,0,-1,1966,694,0,0
749,330,0,0,0,0,0,0,0,0,0,-1,1973,694,0,0
756,330,0,0,0,0,0,0,0,0,0,-1,1980,694,0,0
763,330,0,0,0,0,0,0,0,0,0,-1,1987,694,0,0
770,330,0,0,0,0,0,0,0,0,0,-1,1994,694,0,0
777,330,0,0,0,0,0,0,0,0,0,-1,2001,694,0,0
784,330,0,0,0,0,0,0,0,0,0,-1,2008,694,0,0
791,330,0,0,0,0,0,0,0,0,0,-1,2015,694,0,0
798,330,0,0,0,0,0,0,0,0,0,-1,2022,694,0,0
805,330,0,0,0,0,0,0,0,0,0,-1,2029,694,0,0
812,330,0,0,0,0,0,0,0,0,0,-1,2036,694,0,0
-700,323,0,0,0,0,0,0,0,0,0,-1,524,701,0,0
-693,323,0,0,0,0,0,0,0,0,0,-1,531,701,0,0
-686,323,0,0,0,0,0,0,0,0,0,-1,538,701,0,0
-679,323,0,0,0,0,0,0,0,0,0,-1,545,701,0,0
-672,323,0,0,0,0,0,0,0,0,0,-1,552,701,0,0
-665,323,0,0,0,0,0,0,0,0,0,-1,559,701,0,0
-658,323,0,0,0,0,0,0,0,0,0,-1,566,701,0,0
-651,323,0,0,0,0,0,0,0,0,0,-1,573,701,0,0
-644,323,0,0,0,0,0,0,0,0,0,-1,580,701,0,0
-637,323,0,0,0,0,0,0,0,0,0,-1,587,701,0,0
-630,323,0,0,0,0,0,0,0,0,0,-1,594,701,0,0
-623,323,0,0,0,0,0,0,0,0,0,-1,601,701,0,0
-616,323,0,0,0,0,0,0,0,0,0,-1,608,701,0,0
-609,323,0,0,0,0,0,0,0,0,0,-1,615,701,0,0
-602,323,-3.75385,-3.22784,0.184933,-0.0402532,0.0773097,0.20892,-0.0642397,0.300847,0.164918,0.0478006,622,701,-3.75382,3.22783
-595,323,-1.55347,-3.07715,0.136714,-0.0280713,0.0642379,0.158796,-0.0501538,0.331107,0.125956,0.0442651,629,701,-1.55349,3.07714
-588,323,-1.40863,-2.55243,0.100325,-0.0179091,0.0519496,0.119907,-0.0374915,0.360478,0.0949358,0.0493931,636,701,-1.40864,2.5524
-581,323,-5.52252,-0.741272,0,0,0,0,0,0,0,-1,643,701,-5.52252,0.741258
-574,323,-5.13306,-0.566772,0.0511231,-0.00413605,0.0307635,0.0648431,-0.017856,0.419508,0.0502496,0.049344,650,701,-5.13308,0.566766
-567,323,-4.72833,-0.341736,0.0353236,-0.000224843,0.0224937,0.046218,-0.0111192,0.451034,0.0351103,0.045807,657,701,-4.72832,0.341721
-560,323,-4.60297,0.0010376,0.0238075,0.0021506,0.015869,0.0321905,-0.00623239,0.486002,0.0238112,0.0456396,664,701,-4.60294,-0.00103243
-553,323,-4.49634,0.0673218,0.0155641,0.00338189,0.0107597,0.0218371,-0.00289115,0.527836,0.0156113,0.0273426,671,701,-4.49636,-0.0672946
-546,323,-4.45349,-0.0595093,0.007895,0.00427785,0.00696003,0.0132776,-0.00110475,0.658284,0.00924201,0.0107984,678,701,-4.45346,0.0595249
-539,323,-4.46228,-0.193542,0.00412037,0.00397034,0.00401631,0.00806236,2.83485e-05,0.77606,0.00536548,0.0108148,685,701,-4.4623,0.193569
-532,323,-4.45984,-0.363098,0.0024257,0.00369285,0.00196482,0.00512372,0.00099483,0.941365,0.00313723,0.0092644,692,701,-4.45981,0.363101
-525,323,-4.45679,-0.534668,0.00103403,0.00302569,0.0012907,0.00366007,0.00039965,1.11397,0.00231834,0.00730385,699,701,-4.45676,0.534689
-518,323,-4.45166,-0.683655,3.00488e-05,0.00239267,0.00124363,0.00292662,-0.000503901,1.16525,0.00213892,0.00964904,706,701,-4.45163,0.683642
-511,323,-4.45654,-0.85376,-0.000902657,0.00154115,0.0015826,0.00231866,-0.00168018,1.11414,0.00231852,0.013246,713,701,-4.45656,0.853774
-504,323,-4.45581,-1.00958,-0.00219792,0.000904996,0.00229448,0.00212331,-0.00341624,1.08267,0.00322717,0.0140496,720,701,-4.45584,1.00961
-497,323,-4.45282,-1.18463,-0.00403341,0.00132623,0.00374915,0.00325484,-0.00596202,1.09569,0.00539732,0.0113744,727,701,-4.45283,1.18465
-490,323,-4.44989,-1.37274,-0.00643049,0.00312572,0.00594582,0.0059754,-0.00928017,1.12387,0.00887643,0.0127065,734,701,-4.44991,1.37277
-483,323,-4.45892,-1.53748,-0.00953843,0.00490622,0.00819059,0.00860395,-0.0132362,1.14673,0.0127036,0.0156756,741,701,-4.45895,1.53746
-476,323,-4.37628,-1.7276,-0.0138098,0.00759619,0.0108681,0.0121467,-0.0183603,1.17427,0.0177346,0.0268842,748,701,-4.37631,1.72758
-469,323,-4.07587,-1.73834,0,0,0,0,0,0,0,-1,755,701,-4.07589,1.73834
-462,323,-4.33765,-1.47321,-0.0258572,0.0163861,0.0176451,0.0227867,-0.0322578,1.22282,0.0319364,0.0473577,762,701,-4.33766,1.47318
-455,323,-4.27856,-1.32361,-0.0334938,0.0229357,0.0219524,0.0304698,-0.0410279,1.24019,0.041429,0.046659,769,701,-4.27858,1.32359
-448,323,-5.54547,-2.37823,-0.0420324,0.0315028,0.0270246,0.0403662,-0.0508958,1.25388,0.0528069,0.0459642,776,701,-5.54546,2.37826
-441,323,-5.04303,-2.28052,0,0,0,0,0,0,0,-1,783,701,-5.04304,2.2805
-434,323,-6.88507,-3.87061,0,0,0,0,0,0,0,-1,790,701,-6.88505,3.8706
-427,323,-6.90454,-4.23315,0,0,0,0,0,0,0,-1,797,701,-6.90455,4.23318
-420,323,-2.38629,-2.42578,0,0,0,0,0,0,0,-1,804,701,-2.38628,2.4258
-413,323,-1.97827,-2.94897,0,0,0,0,0,0,0,-1,811,701,-1.97826,2.94897
-406,323,0,0,0,0,0,0,0,0,0,-1,818,701,0,0
-399,323,0,0,0,0,0,0,0,0,0,-1,825,701,0,0
-392,323,0,0,0,0,0,0,0,0,0,-1,832,701,0,0
-385,323,0,0,0,0,0,0,0,0,0,-1,839,701,0,0
-378,323,0,0,0,0,0,0,0,0,0,-1,846,701,0,0
-371,323,0,0,0,0,0,0,0,0,0,-1,853,701,0,0
-364,323,0,0,0,0,0,0,0,0,0,-1,860,701,0,0
-357,323,0,0,0,0,0,0,0,0,0,-1,867,701,0,0
-350,323,0,0,0,0,0,0,0,0,0,-1,874,701,0,0
-343,323,0,0,0,0,0,0,0,0,0,-1,881,701,0,0
-336,323,0,0,0,0,0,0,0,0,0,-1,888,701,0,0
-329,323,0,0,0,0,0,0,0,0,0,-1,895,701,0,0
-322,323,0,0,0,0,0,0,0,0,0,-1,902,701,0,0
-315,323,0,0,0,0,0,0,0,0,0,-1,909,701,0,0
-308,323,0,0,0,0,0,0,0,0,0,-1,916,701,0,0
-301,323,0,0,0,0,0,0,0,0,0,-1,923,701,0,0
-294,323,0,0,0,0,0,0,0,0,0,-1,930,701,0,0
-287,323,0,0,0,0,0,0,0,0,0,-1,937,701,0,0
-280,323,0,0,0,0,0,0,0,0,0,-1,944,701,0,0
-273,323,0,0,0,0,0,0,0,0,0,-1,951,701,0,0
-266,323,0,0,0,0,0,0,0,0,0,-1,958,701,0,0
-259,323,0,0,0,0,0,0,0,0,0,-1,965,701,0,0
-252,323,0,0,0,0,0,0,0,0,0,-1,972,701,0,0
-245,323,0,0,0,0,0,0,0,0,0,-1,979,701,0,0
-238,323,0,0,0,0,0,0,0,0,0,-1,986,701,0,0
-231,323,0,0,0,0,0,0,0,0,0,-1,993,701,0,0
-224,323,0,0,0,0,0,0,0,0,0,-1,1000,701,0,0
-217,323,0,0,0,0,0,0,0,0,0,-1,1007,701,0,0
-210,323,0,0,0,0,0,0,0,0,0,-1,1014,701,0,0
-203,323,0,0,0,0,0,0,0,0,0,-1,1021,701,0,0
-196,323,0,0,0,0,0,0,0,0,0,-1,1028,701,0,0
-189,323,0,0,0,0,0,0,0,0,0,-1,1035,701,0,0
-182,323,0,0,0,0,0,0,0,0,0,-1,1042,701,0,0
-175,323,0,0,0,0,0,0,0,0,0,-1,1049,701,0,0
-168,323,0,0,0,0,0,0,0,0,0,-1,1056,701,0,0
-161,323,0,0,0,0,0,0,0,0,0,-1,1063,701,0,0
-154,323,0,0,0,0,0,0,0,0,0,-1,1070,701,0,0
-147,323,0,0,0,0,0,0,0,0,0,-1,1077,701,0,0
-140,323,0,0,0,0,0,0,0,0,0,-1,1084,701,0,0
-133,323,0,0,0,0,0,0,0,0,0,-1,1091,701,0,0
-126,323,0,0,0,0,0,0,0,0,0,-1,1098,701,0,0
-119,323,0,0,0,0,0,0,0,0,0,-1,1105,701,0,0
-112,323,0,0,0,0,0,0,0,0,0,-1,1112,701,0,0
-105,323,0,0,0,0,0,0,0,0,0,-1,1119,701,0,0
-98,323,0,0,0,0,0,0,0,0,0,-1,1126,701,0,0
-91,323,0,0,0,0,0,0,0,0,0,-1,1133,701,0,0
-84,323,0,0,0,0,0,0,0,0,0,-1,1140,701,0,0
-77,323,0,0,0,0,0,0,0,0,0,-1,1147,701,0,0
-70,323,0,0,0,0,0,0,0,0,0,-1,1154,701,0,0
-63,323,0,0,0,0,0,0,0,0,0,-1,1161,701,0,0
-56,323,0,0,0,0,0,0,0,0,0,-1,1168,701,0,0
-49,323,0,0,0,0,0,0,0,0,0,-1,1175,701,0,0
-42,323,0,0,0,0,0,0,0,0,0,-1,1182,701,0,0
-35,323,0,0,0,0,0,0,0,0,0,-1,1189,701,0,0
-28,323,0,0,0,0,0,0,0,0,0,-1,1196,701,0,0
-21,323,0,0,0,0,0,0,0,0,0,-1,1203,701,0,0
-14,323,0,0,0,0,0,0,0,0,0,-1,1210,701,0,0
-7,323,0,0,0,0,0,0,0,0,0,-1,1217,701,0,0
0,323,0,0,0,0,0,0,0,0,0,-1,1224,701,0,0
7,323,0,0,0,0,0,0,0,0,0,-1,1231,701,0,0
14,323,0,0,0,0,0,0,0,0,0,-1,1238,701,0,0
21,323,0,0,0,0,0,0,0,0,0,-1,1245,701,0,0
28,323,0,0,0,0,0,0,0,0,0,-1,1252,701,0,0
35,323,0,0,0,0,0,0,0,0,0,-1,1259,701,0,0
42,323,0,0,0,0,0,0,0,0,0,-1,1266,701,0,0
49,323,0,0,0,0,0,0,0,0,0,-1,1273,701,0,0
56,323,0,0,0,0,0,0,0,0,0,-1,1280,701,0,0
63,323,0,0,0,0,0,0,0,0,0,-1,1287,701,0,0
70,323,0,0,0,0,0,0,0,0,0,-1,1294,701,0,0
77,323,0,0,0,0,0,0,0,0,0,-1,1301,701,0,0
84,323,0,0,0,0,0,0,0,0,0,-1,1308,701,0,0
91,323,0,0,0,0,0,0,0,0,0,-1,1315,701,0,0
98,323,0,0,0,0,0,0,0,0,0,-1,1322,701,0,0
105,323,0,0,0,0,0,0,0,0,0,-1,1329,701,0,0
112,323,0,0,0,0,0,0,0,0,0,-1,1336,701,0,0
119,323,0,0,0,0,0,0,0,0,0,-1,1343,701,0,0
126,323,0,0,0,0,0,0,0,0,0,-1,1350,701,0,0
133,323,0,0,0,0,0,0,0,0,0,-1,1357,701,0,0
140,323,0,0,0,0,0,0,0,0,0,-1,1364,701,0,0
147,323,0,0,0,0,0,0,0,0,0,-1,1371,701,0,0
154,323,0,0,0,0,0,0,0,0,0,-1,1378,701,0,0
161,323,0,0,0,0,0,0,0,0,0,-1,1385,701,0,0
168,323,0,0,0,0,0,0,0,0,0,-1,1392,701,0,0
175,323,0,0,0,0,0,0,0,0,0,-1,1399,701,0,0
182,323,0,0,0,0,0,0,0,0,0,-1,1406,701,0,0
189,323,0,0,0,0,0,0,0,0,0,-1,1413,701,0,0
196,323,0,0,0,0,0,0,0,0,0,-1,1420,701,0,0
203,323,0,0,0,0,0,0,0,0,0,-1,1427,701,0,0
210,323,0,0,0,0,0,0,0,0,0,-1,1434,701,0,0
217,323,0,0,0,0,0,0,0,0,0,-1,1441,701,0,0
224,323,0,0,0,0,0,0,0,0,0,-1,1448,701,0,0
231,323,0,0,0,0,0,0,0,0,0,-1,1455,701,0,0
238,323,0,0,0,0,0,0,0,0,0,-1,1462,701,0,0
245,323,0,0,0,0,0,0,0,0,0,-1,1469,701,0,0
252,323,0,0,0,0,0,0,0,0,0,-1,1476,701,0,0
259,323,0,0,0,0,0,0,0,0,0,-1,1483,701,0,0
266,323,0,0,0,0,0,0,0,0,0,-1,1490,701,0,0
273,323,0,0,0,0,0,0,0,0,0,-1,1497,701,0,0
280,323,0,0,0,0,0,0,0,0,0,-1,1504,701,0,0
287,323,0,0,0,0,0,0,0,0,0,-1,1511,701,0,0
294,323,0,0,0,0,0,0,0,0,0,-1,1518,701,0,0
301,323,0,0,0,0,0,0,0,0,0,-1,1525,701,0,0
308,323,0,0,0,0,0,0,0,0,0,-1,1532,701,0,0
315,323,0,0,0,0,0,0,0,0,0,-1,1539,701,0,0
322,323,0,0,0,0,0,0,0,0,0,-1,1546,701,0,0
329,323,0,0,0,0,0,0,0,0,0,-1,1553,701,0,0
336,323,0,0,0,0,0,0,0,0,0,-1,1560,701,0,0
343,323,0,0,0,0,0,0,0,0,0,-1,1567,701,0,0
350,323,0,0,0,0,0,0,0,0,0,-1,1574,701,0,0
357,323,0,0,0,0,0,0,0,0,0,-1,1581,701,0,0
364,323,0,0,0,0,0,0,0,0,0,-1,1588,701,0,0
371,323,0,0,0,0,0,0,0,0,0,-1,1595,701,0,0
378,323,0,0,0,0,0,0,0,0,0,-1,1602,701,0,0
385,323,0,0,0,0,0,0,0,0,0,-1,1609,701,0,0
392,323,0,0,0,0,0,0,0,0,0,-1,1616,701,0,0
399,323,0,0,0,0,0,0,0,0,0,-1,1623,701,0,0
406,323,0,0,0,0,0,0,0,0,0,-1,1630,701,0,0
413,323,0,0,0,0,0,0,0,0,0,-1,1637,701,0,0
420,323,0,0,0,0,0,0,0,0,0,-1,1644,701,0,0
427,323,0,0,0,0,0,0,0,0,0,-1,1651,701,0,0
434,323,0,0,0,0,0,0,0,0,0,-1,1658,701,0,0
441,323,0,0,0,0,0,0,0,0,0,-1,1665,701,0,0
448,323,0,0,0,0,0,0,0,0,0,-1,1672,701,0,0
455,323,0,0,0,0,0,0,0,0,0,-1,1679,701,0,0
462,323,0,0,0,0,0,0,0,0,0,-1,1686,701,0,0
469,323,0,0,0,0,0,0,0,0,0,-1,1693,701,0,0
476,323,0,0,0,0,0,0,0,0,0,-1,1700,701,0,0
483,323,0,0,0,0,0,0,0,0,0,-1,1707,701,0,0
490,323,0,0,0,0,0,0,0,0,0,-1,1714,701,0,0
497,323,0,0,0,0,0,0,0,0,0,-1,1721,701,0,0
504,323,0,0,0,0,0,0,0,0,0,-1,1728,701,0,0
511,323,0,0,0,0,0,0,0,0,0,-1,1735,701,0,0
518,323,0,0,0,0,0,0,0,0,0,-1,1742,701,0,0
525,323,0,0,0,0,0,0,0,0,0,-1,1749,701,0,0
532,323,16.2736,-0.905212,0,0,0,0,0,0,0,-1,1756,701,16.2736,0.905193
539,323,16.5522,-0.611023,0.0963217,0.0168274,0.0187473,0.100521,0.0126281,0.220361,0.0632265,0.0482557,1763,701,16.5522,0.611012
546,323,17.0182,-0.187866,0.0799957,0.00449868,0.013245,0.0822519,0.00224246,0.168727,0.0541026,0.0476578,1770,701,17.0182,0.18787
553,323,17.2208,0.388916,0.0656134,-0.00275046,0.0116551,0.0675458,-0.00468288,0.164305,0.0466699,0.0490215,1777,701,17.2209,-0.388892
560,323,18.3231,0.271545,0,0,0,0,0,0,0,-1,1784,701,18.3231,-0.271574
567,323,18.9622,0.036499,0,0,0,0,0,0,0,-1,1791,701,18.9622,-0.0365009
574,323,19.6163,-0.393677,0,0,0,0,0,0,0,-1,1798,701,19.6164,0.393661
581,323,12.8182,1.75861,0,0,0,0,0,0,0,-1,1805,701,12.8182,-1.75861
588,323,13.5166,1.58954,0,0,0,0,0,0,0,-1,1812,701,13.5166,-1.58954
595,323,6.67847,0.06604,0,0,0,0,0,0,0,-1,1819,701,6.67841,-0.0660418
602,323,8.85571,0.15033,0,0,0,0,0,0,0,-1,1826,701,8.8557,-0.150311
609,323,9.1106,0.152649,0.00653682,-0.00260476,0.00796836,0.0111523,-0.0072202,0.525001,0.010688,0.0391324,1833,701,9.11065,-0.152669
616,323,9.25171,0.214966,0.00303532,-0.00119647,0.00623681,0.00750539,-0.00566653,0.621861,0.00762947,0.0138402,1840,701,9.25174,-0.214952
623,323,9.28247,0.411011,0.00168443,-0.000622609,0.00446178,0.00513938,-0.00407757,0.658901,0.00533317,0.0130455,1847,701,9.28249,-0.410984
630,323,9.29443,0.617065,0.00126781,-0.000569573,0.00271209,0.00321258,-0.00251434,0.622094,0.00331462,0.0136799,1854,701,9.29445,-0.617041
637,323,9.28125,0.808044,0.00162957,-0.000430399,0.000942507,0.00199572,-0.000796547,0.370539,0.00166093,0.0103986,1861,701,9.28129,-0.808037
644,323,9.2854,0.972595,0.00197795,-0.000368816,-0.000549277,0.00210015,-0.000491015,-0.218907,0.00158926,0.00799742,1868,701,9.28536,-0.972613
651,323,9.27295,1.15729,0.00286458,-0.000383586,-0.00164672,0.00355336,-0.00107236,-0.396159,0.00279578,0.00960963,1875,701,9.273,-1.1573
658,323,9.2478,1.34637,0.00495046,-0.000456553,-0.00224436,0.00576066,-0.00126675,-0.346433,0.00432497,0.0114626,1882,701,9.2478,-1.34635
665,323,9.23828,1.51868,0.00845383,-1.02599e-05,-0.00330182,0.00958949,-0.00114592,-0.331274,0.00680719,0.0101204,1889,701,9.23824,-1.51869
672,323,9.24048,1.70154,0.0130611,0.00046084,-0.00449996,0.0145031,-0.000981205,-0.310118,0.0100119,0.00945164,1896,701,9.24043,-1.70153
679,323,9.21545,1.89838,0.0194209,0.00102865,-0.00606006,0.0212381,-0.000788539,-0.291332,0.0144287,0.0192593,1903,701,9.21546,-1.89837
686,323,9.09937,1.97827,0.0279938,0.00203164,-0.00803512,0.0302794,-0.000253965,-0.277132,0.0202714,0.0428953,1910,701,9.09937,-1.9783
693,323,9.0177,2.06763,0,0,0,0,0,0,0,-1,1917,701,9.01769,-2.06765
700,323,13.0956,-2.76294,0,0,0,0,0,0,0,-1,1924,701,13.0956,2.76296
707,323,14.2428,-2.4964,0,0,0,0,0,0,0,-1,1931,701,14.2428,2.49638
714,323,15.1067,-2.36957,0,0,0,0,0,0,0,-1,1938,701,15.1066,2.3696
721,323,0,0,0,0,0,0,0,0,0,-1,1945,701,0,0
728,323,0,0,0,0,0,0,0,0,0,-1,1952,701,0,0
735,323,0,0,0,0,0,0,0,0,0,-1,1959,701,0,0
742,323,0,0,0,0,0,0,0,0,0,-1,1966,701,0,0
749,323,0,0,0,0,0,0,0,0,0,-1,1973,701,0,0
756,323,0,0,0,0,0,0,0,0,0,-1,1980,701,0,0
763,323,0,0,0,0,0,0,0,0,0,-1,1987,701,0,0
770,323,0,0,0,0,0,0,0,0,0,-1,1994,701,0,0
777,323,0,0,0,0,0,0,0,0,0,-1,2001,701,0,0
784,323,0,0,0,0,0,0,0,0,0,-1,2008,701,0,0
791,323,0,0,0,0,0,0,0,0,0,-1,2015,701,0,0
798,323,0,0,0,0,0,0,0,0,0,-1,2022,701,0,0
805,323,0,0,0,0,0,0,0,0,0,-1,2029,701,0,0
812,323,0,0,0,0,0,0,0,0,0,-1,2036,701,0,0
-700,316,0,0,0,0,0,0,0,0,0,-1,524,708,0,0
-693,316,0,0,0,0,0,0,0,0,0,-1,531,708,0,0
-686,316,0,0,0,0,0,0,0,0,0,-1,538,708,0,0
-679,316,0,0,0,0,0,0,0,0,0,-1,545,708,0,0
-672,316,0,0,0,0,0,0,0,0,0,-1,552,708,0,0
-665,316,0,0,0,0,0,0,0,0,0,-1,559,708,0,0
-658,316,0,0,0,0,0,0,0,0,0,-1,566,708,0,0
-651,316,0,0,0,0,0,0,0,0,0,-1,573,708,0,0
-644,316,0,0,0,0,0,0,0,0,0,-1,580,708,0,0
-637,316,0,0,0,0,0,0,0,0,0,-1,587,708,0,0
-630,316,0,0,0,0,0,0,0,0,0,-1,594,708,0,0
-623,316,0,0,0,0,0,0,0,0,0,-1,601,708,0,0
-616,316,0,0,0,0,0,0,0,0,0,-1,608,708,0,0
-609,316,0,0,0,0,0,0,0,0,0,-1,615,708,0,0
-602,316,-4.16083,-2.66638,0.159162,-0.0415653,0.0685763,0.180353,-0.0627564,0.299707,0.14573,0.0495884,622,708,-4.16082,2.66638
-595,316,-2.39484,-2.95679,0.119135,-0.0308428,0.0584731,0.139238,-0.0509456,0.331137,0.113678,0.0492618,629,708,-2.39484,2.95678
-588,316,-2.55054,-2.10156,0.0877712,-0.0212937,0.0480857,0.105944,-0.0394663,0.361329,0.0868277,0.0485509,636,708,-2.55053,2.10156
-581,316,-5.0517,-1.05072,0,0,0,0,0,0,0,-1,643,708,-5.05169,1.0507
-574,316,-4.64948,-0.843445,0.0443523,-0.00747308,0.0291058,0.057409,-0.0205298,0.421685,0.046647,0.0496113,650,708,-4.64947,0.843437
-567,316,-4.32684,-0.58728,0.0303346,-0.00321251,0.0214911,0.040823,-0.013701,0.454033,0.0327519,0.0473047,657,708,-4.32686,0.587277
-560,316,-4.37183,0.203064,0.0203736,-0.000449617,0.0154611,0.028602,-0.00867795,0.489071,0.0225249,0.0422589,664,708,-4.37184,-0.203077
-553,316,-4.55176,0.0739136,0.0130855,0.00125206,0.010617,0.0193232,-0.00498557,0.531187,0.0148261,0.0277151,671,708,-4.55176,-0.0739262
-546,316,-4.63812,-0.0222168,0.00624255,0.00252844,0.00704324,0.0116694,-0.00289846,0.656499,0.00890444,0.0160826,678,708,-4.63814,0.0222305
-539,316,-4.61731,-0.198792,0.00302006,0.00262013,0.00431742,0.00714214,-0.00150195,0.762257,0.00533305,0.0127391,685,708,-4.61728,0.198811
-532,316,-4.63263,-0.371704,0.00166459,0.0027675,0.00246596,0.00474292,-0.000310823,0.895401,0.00327048,0.0104421,692,708,-4.63262,0.371674
-525,316,-4.63397,-0.524475,0.000519444,0.00272859,0.0020204,0.00392664,-0.00067861,1.03556,0.00287083,0.00815097,699,708,-4.63397,0.524445
-518,316,-4.62506,-0.677979,-0.000395704,0.00267743,0.00220581,0.0038291,-0.00154738,1.08962,0.00319593,0.00890296,706,708,-4.62507,0.677958
-511,316,-4.62018,-0.841309,-0.00132103,0.00251624,0.00282138,0.00400955,-0.00281434,1.084,0.00395987,0.0101686,713,708,-4.62021,0.841326
-504,316,-4.62506,-1.01917,-0.00283065,0.00254576,0.00389665,0.00459151,-0.0048764,1.08735,0.00546713,0.012445,720,708,-4.62507,1.01917
-497,316,-4.6239,-1.19244,-0.0050703,0.00368246,0.00571341,0.00650301,-0.00789085,1.11222,0.00832316,0.0116286,727,708,-4.62392,1.19247
-490,316,-4.61664,-1.37421,-0.00798436,0.00658662,0.00835151,0.0103838,-0.0117816,1.14406,0.0128057,0.0139818,734,708,-4.61662,1.37419
-483,316,-4.53619,-1.58368,-0.0117106,0.00948233,0.0110817,0.0142185,-0.0164467,1.16691,0.0177201,0.0285922,741,708,-4.53618,1.58366
-476,316,-4.43158,-1.79803,0,0,0,0,0,0,0,-1,748,708,-4.43161,1.79802
-469,316,-4.4389,-1.61902,0,0,0,0,0,0,0,-1,755,708,-4.43889,1.619
-462,316,-4.39496,-1.0979,0,0,0,0,0,0,0,-1,762,708,-4.39497,1.09788
-455,316,-4.39001,-0.91095,0,0,0,0,0,0,0,-1,769,708,-4.39004,0.910975
-448,316,-6.03784,-2.28558,0,0,0,0,0,0,0,-1,776,708,-6.03782,2.28561
-441,316,-7.36517,-3.36981,0,0,0,0,0,0,0,-1,783,708,-7.36515,3.36984
-434,316,-7.75232,-4.12476,0,0,0,0,0,0,0,-1,790,708,-7.75232,4.12477
-427,316,-4.7243,-3.97223,0,0,0,0,0,0,0,-1,797,708,-4.72433,3.97221
-420,316,-4.88147,-4.87561,0,0,0,0,0,0,0,-1,804,708,-4.88145,4.8756
-413,316,0,0,0,0,0,0,0,0,0,-1,811,708,0,0
-406,316,0,0,0,0,0,0,0,0,0,-1,818,708,0,0
-399,316,0,0,0,0,0,0,0,0,0,-1,825,708,0,0
-392,316,0,0,0,0,0,0,0,0,0,-1,832,708,0,0
-385,316,0,0,0,0,0,0,0,0,0,-1,839,708,0,0
-378,316,0,0,0,0,0,0,0,0,0,-1,846,708,0,0
-371,316,0,0,0,0,0,0,0,0,0,-1,853,708,0,0
-364,316,0,0,0,0,0,0,0,0,0,-1,860,708,0,0
-357,316,0,0,0,0,0,0,0,0,0,-1,867,708,0,0
-350,316,0,0,0,0,0,0,0,0,0,-1,874,708,0,0
-343,316,0,0,0,0,0,0,0,0,0,-1,881,708,0,0
-336,316,0,0,0,0,0,0,0,0,0,-1,888,708,0,0
-329,316,0,0,0,0,0,0,0,0,0,-1,895,708,0,0
-322,316,0,0,0,0,0,0,0,0,0,-1,902,708,0,0
-315,316,0,0,0,0,0,0,0,0,0,-1,909,708,0,0
-308,316,0,0,0,0,0,0,0,0,0,-1,916,708,0,0
-301,316,0,0,0,0,0,0,0,0,0,-1,923,708,0,0
-294,316,0,0,0,0,0,0,0,0,0,-1,930,708,0,0
-287,316,0,0,0,0,0,0,0,0,0,-1,937,708,0,0
-280,316,0,0,0,0,0,0,0,0,0,-1,944,708,0,0
-273,316,0,0,0,0,0,0,0,0,0,-1,951,708,0,0
-266,316,0,0,0,0,0,0,0,0,0,-1,958,708,0,0
-259,316,0,0,0,0,0,0,0,0,0,-1,965,708,0,0
-252,316,0,0,0,0,0,0,0,0,0,-1,972,708,0,0
-245,316,0,0,0,0,0,0,0,0,0,-1,979,708,0,0
-238,316,0,0,0,0,0,0,0,0,0,-1,986,708,0,0
-231,316,0,0,0,0,0,0,0,0,0,-1,993,708,0,0
-224,316,0,0,0,0,0,0,0,0,0,-1,1000,708,0,0
-217,316,0,0,0,0,0,0,0,0,0,-1,1007,708,0,0
-210,316,0,0,0,0,0,0,0,0,0,-1,1014,708,0,0
-203,316,0,0,0,0,0,0,0,0,0,-1,1021,708,0,0
-196,316,0,0,0,0,0,0,0,0,0,-1,1028,708,0,0
-189,316,0,0,0,0,0,0,0,0,0,-1,1035,708,0,0
-182,316,0,0,0,0,0,0,0,0,0,-1,1042,708,0,0
-175,316,0,0,0,0,0,0,0,0,0,-1,1049,708,0,0
-168,316,0,0,0,0,0,0,0,0,0,-1,1056,708,0,0
-161,316,0,0,0,0,0,0,0,0,0,-1,1063,708,0,0
-154,316,0,0,0,0,0,0,0,0,0,-1,1070,708,0,0
-147,316,0,0,0,0,0,0,0,0,0,-1,1077,708,0,0
-140,316,0,0,0,0,0,0,0,0,0,-1,1084,708,0,0
-133,316,0,0,0,0,0,0,0,0,0,-1,1091,708,0,0
-126,316,0,0,0,0,0,0,0,0,0,-1,1098,708,0,0
-119,316,0,0,0,0,0,0,0,0,0,-1,1105,708,0,0
-112,316,0,0,0,0,0,0,0,0,0,-1,1112,708,0,0
-105,316,0,0,0,0,0,0,0,0,0,-1,1119,708,0,0
-98,316,0,0,0,0,0,0,0,0,0,-1,1126,708,0,0
-91,316,0,0,0,0,0,0,0,0,0,-1,1133,708,0,0
-84,316,0,0,0,0,0,0,0,0,0,-1,1140,708,0,0
-77,316,0,0,0,0,0,0,0,0,0,-1,1147,708,0,0
-70,316,0,0,0,0,0,0,0,0,0,-1,1154,708,0,0
-63,316,0,0,0,0,0,0,0,0,0,-1,1161,708,0,0
-56,316,0,0,0,0,0,0,0,0,0,-1,1168,708,0,0
-49,316,0,0,0,0,0,0,0,0,0,-1,1175,708,0,0
-42,316,0,0,0,0,0,0,0,0,0,-1,1182,708,0,0
-35,316,0,0,0,0,0,0,0,0,0,-1,1189,708,0,0
-28,316,0,0,0,0,0,0,0,0,0,-1,1196,708,0,0
-21,316,0,0,0,0,0,0,0,0,0,-1,1203,708,0,0
-14,316,0,0,0,0,0,0,0,0,0,-1,1210,708,0,0
-7,316,0,0,0,0,0,0,0,0,0,-1,1217,708,0,0
0,316,0,0,0,0,0,0,0,0,0,-1,1224,708,0,0
7,316,0,0,0,0,0,0,0,0,0,-1,1231,708,0,0
14,316,0,0,0,0,0,0,0,0,0,-1,1238,708,0,0
21,316,0,0,0,0,0,0,0,0,0,-1,1245,708,0,0
28,316,0,0,0,0,0,0,0,0,0,-1,1252,708,0,0
35,316,0,0,0,0,0,0,0,0,0,-1,1259,708,0,0
42,316,0,0,0,0,0,0,0,0,0,-1,1266,708,0,0
49,316,0,0,0,0,0,0,0,0,0,-1,1273,708,0,0
56,316,0,0,0,0,0,0,0,0,0,-1,1280,708,0,0
63,316,0,0,0,0,0,0,0,0,0,-1,1287,708,0,0
70,316,0,0,0,0,0,0,0,0,0,-1,1294,708,0,0
77,316,0,0,0,0,0,0,0,0,0,-1,1301,708,0,0
84,316,0,0,0,0,0,0,0,0,0,-1,1308,708,0,0
91,316,0,0,0,0,0,0,0,0,0,-1,1315,708,0,0
98,316,0,0,0,0,0,0,0,0,0,-1,1322,708,0,0
105,316,0,0,0,0,0,0,0,0,0,-1,1329,708,0,0
112,316,0,0,0,0,0,0,0,0,0,-1,1336,708,0,0
119,316,0,0,0,0,0,0,0,0,0,-1,1343,708,0,0
126,316,0,0,0,0,0,0,0,0,0,-1,1350,708,0,0
133,316,0,0,0,0,0,0,0,0,0,-1,1357,708,0,0
140,316,0,0,0,0,0,0,0,0,0,-1,1364,708,0,0
147,316,0,0,0,0,0,0,0,0,0,-1,1371,708,0,0
154,316,0,0,0,0,0,0,0,0,0,-1,1378,708,0,0
161,316,0,0,0,0,0,0,0,0,0,-1,1385,708,0,0
168,316,0,0,0,0,0,0,0,0,0,-1,1392,708,0,0
175,316,0,0,0,0,0,0,0,0,0,-1,1399,708,0,0
182,316,0,0,0,0,0,0,0,0,0,-1,1406,708,0,0
189,316,0,0,0,0,0,0,0,0,0,-1,1413,708,0,0
196,316,0,0,0,0,0,0,0,0,0,-1,1420,708,0,0
203,316,0,0,0,0,0,0,0,0,0,-1,1427,708,0,0
210,316,0,0,0,0,0,0,0,0,0,-1,1434,708,0,0
217,316,0,0,0,0,0,0,0,0,0,-1,1441,708,0,0
224,316,0,0,0,0,0,0,0,0,0,-1,1448,708,0,0
231,316,0,0,0,0,0,0,0,0,0,-1,1455,708,0,0
238,316,0,0,0,0,0,0,0,0,0,-1,1462,708,0,0
245,316,0,0,0,0,0,0,0,0,0,-1,1469,708,0,0
252,316,0,0,0,0,0,0,0,0,0,-1,1476,708,0,0
259,316,0,0,0,0,0,0,0,0,0,-1,1483,708,0,0
266,316,0,0,0,0,0,0,0,0,0,-1,1490,708,0,0
273,316,0,0,0,0,0,0,0,0,0,-1,1497,708,0,0
280,316,0,0,0,0,0,0,0,0,0,-1,1504,708,0,0
287,316,0,0,0,0,0,0,0,0,0,-1,1511,708,0,0
294,316,0,0,0,0,0,0,0,0,0,-1,1518,708,0,0
301,316,0,0,0,0,0,0,0,0,0,-1,1525,708,0,0
308,316,0,0,0,0,0,0,0,0,0,-1,1532,708,0,0
315,316,0,0,0,0,0,0,0,0,0,-1,1539,708,0,0
322,316,0,0,0,0,0,0,0,0,0,-1,1546,708,0,0
329,316,0,0,0,0,0,0,0,0,0,-1,1553,708,0,0
336,316,0,0,0,0,0,0,0,0,0,-1,1560,708,0,0
343,316,0,0,0,0,0,0,0,0,0,-1,1567,708,0,0
350,316,0,0,0,0,0,0,0,0,0,-1,1574,708,0,0
357,316,0,0,0,0,0,0,0,0,0,-1,1581,708,0,0
364,316,0,0,0,0,0,0,0,0,0,-1,1588,708,0,0
371,316,0,0,0,0,0,0,0,0,0,-1,1595,708,0,0
378,316,0,0,0,0,0,0,0,0,0,-1,1602,708,0,0
385,316,0,0,0,0,0,0,0,0,0,-1,1609,708,0,0
392,316,0,0,0,0,0,0,0,0,0,-1,1616,708,0,0
399,316,0,0,0,0,0,0,0,0,0,-1,1623,708,0,0
406,316,0,0,0,0,0,0,0,0,0,-1,1630,708,0,0
413,316,0,0,0,0,0,0,0,0,0,-1,1637,708,0,0
420,316,0,0,0,0,0,0,0,0,0,-1,1644,708,0,0
427,316,0,0,0,0,0,0,0,0,0,-1,1651,708,0,0
434,316,0,0,0,0,0,0,0,0,0,-1,1658,708,0,0
441,316,0,0,0,0,0,0,0,0,0,-1,1665,708,0,0
448,316,0,0,0,0,0,0,0,0,0,-1,1672,708,0,0
455,316,0,0,0,0,0,0,0,0,0,-1,1679,708,0,0
462,316,0,0,0,0,0,0,0,0,0,-1,1686,708,0,0
469,316,0,0,0,0,0,0,0,0,0,-1,1693,708,0,0
476,316,0,0,0,0,0,0,0,0,0,-1,1700,708,0,0
483,316,0,0,0,0,0,0,0,0,0,-1,1707,708,0,0
490,316,0,0,0,0,0,0,0,0,0,-1,1714,708,0,0
497,316,0,0,0,0,0,0,0,0,0,-1,1721,708,0,0
504,316,0,0,0,0,0,0,0,0,0,-1,1728,708,0,0
511,316,0,0,0,0,0,0,0,0,0,-1,1735,708,0,0
518,316,0,0,0,0,0,0,0,0,0,-1,1742,708,0,0
525,316,0,0,0,0,0,0,0,0,0,-1,1749,708,0,0
532,316,15.9724,-0.933899,0,0,0,0,0,0,0,-1,1756,708,15.9725,0.93387
539,316,16.2589,-0.605042,0,0,0,0,0,0,0,-1,1763,708,16.2589,0.605025
546,316,16.5508,0.050354,0,0,0,0,0,0,0,-1,1770,708,16.5508,-0.0503387
553,316,16.9354,0.403564,0.0706401,-0.012429,0.011447,0.0721886,-0.0139775,0.134463,0.0533982,0.0470184,1777,708,16.9355,-0.403553
560,316,17.9144,0.336975,0.0588453,-0.0131032,0.0121573,0.060844,-0.015102,0.162948,0.0464228,0.0473049,1784,708,17.9145,-0.33695
567,316,18.556,0.104065,0.0490453,-0.0129347,0.0126811,0.0515395,-0.0154289,0.194206,0.0404946,0.0469464,1791,708,18.5561,-0.104055
574,316,18.8674,-0.321655,0,0,0,0,0,0,0,-1,1798,708,18.8674,0.321641
581,316,19.3909,-0.446838,0,0,0,0,0,0,0,-1,1805,708,19.3909,0.446856
588,316,14.1801,1.7594,0,0,0,0,0,0,0,-1,1812,708,14.1801,-1.75939
595,316,12.5363,1.50702,0,0,0,0,0,0,0,-1,1819,708,12.5363,-1.50701
602,316,7.79919,0.0422363,0,0,0,0,0,0,0,-1,1826,708,7.79923,-0.0422066
609,316,9.22803,0.302063,0,0,0,0,0,0,0,-1,1833,708,9.22799,-0.302077
616,316,9.42761,0.241028,0.00500928,-0.00180689,0.00761246,0.00994173,-0.00673934,0.574929,0.0096898,0.0161213,1840,708,9.42758,-0.24103
623,316,9.45142,0.431396,0.00310944,-0.000972909,0.00553689,0.00696941,-0.00483288,0.608802,0.00685117,0.0112403,1847,708,9.45142,-0.431377
630,316,9.44604,0.603271,0.00204528,-0.00103072,0.00354222,0.00436898,-0.00335442,0.580583,0.00447191,0.0127575,1854,708,9.44609,-0.603257
637,316,9.43225,0.786316,0.00187444,-0.000833647,0.00141833,0.00248129,-0.0014405,0.404291,0.00229067,0.01183,1861,708,9.4323,-0.786296
644,316,9.45508,0.970947,0.00185096,-0.000737437,-0.000258233,0.00187647,-0.000762948,-0.0984724,0.00156842,0.0119063,1868,708,9.45504,-0.970938
651,316,9.45557,1.15222,0.00240708,-0.000744605,-0.00143016,0.0029593,-0.00129682,-0.368486,0.00251899,0.0123366,1875,708,9.4556,-1.1522
658,316,9.44177,1.32794,0.00414475,-0.000797041,-0.00187632,0.00477642,-0.00142871,-0.324735,0.0037523,0.0182257,1882,708,9.44179,-1.32797
665,316,9.42542,1.51379,0.00729659,-0.000248864,-0.00268533,0.00815468,-0.00110695,-0.309292,0.00584051,0.0149096,1889,708,9.42538,-1.51379
672,316,9.4386,1.6853,0.0113237,0.000307146,-0.00359583,0.0123935,-0.000762653,-0.289172,0.00852795,0.0119396,1896,708,9.43857,-1.68531
679,316,9.44934,1.89807,0.0168647,0.000913866,-0.00483268,0.0182146,-0.000436064,-0.27239,0.012291,0.0173117,1903,708,9.44936,-1.89807
686,316,9.3667,2.01709,0.0242323,0.00188126,-0.00644679,0.0259585,0.000155107,-0.261618,0.0172542,0.0322996,1910,708,9.36671,-2.0171
693,316,9.26465,2.15009,0,0,0,0,0,0,0,-1,1917,708,9.26466,-2.15008
700,316,8.49866,2.02087,0,0,0,0,0,0,0,-1,1924,708,8.4986,-2.0209
707,316,14.4844,-3.55078,0,0,0,0,0,0,0,-1,1931,708,14.4844,3.5508
714,316,10.7938,2.91705,0,0,0,0,0,0,0,-1,1938,708,10.7939,-2.91704
721,316,11.0726,3.18066,0,0,0,0,0,0,0,-1,1945,708,11.0726,-3.18064
728,316,0,0,0,0,0,0,0,0,0,-1,1952,708,0,0
735,316,0,0,0,0,0,0,0,0,0,-1,1959,708,0,0
742,316,0,0,0,0,0,0,0,0,0,-1,1966,708,0,0
749,316,0,0,0,0,0,0,0,0,0,-1,1973,708,0,0
756,316,0,0,0,0,0,0,0,0,0,-1,1980,708,0,0
763,316,0,0,0,0,0,0,0,0,0,-1,1987,708,0,0
770,316,0,0,0,0,0,0,0,0,0,-1,1994,708,0,0
777,316,0,0,0,0,0,0,0,0,0,-1,2001,708,0,0
784,316,0,0,0,0,0,0,0,0,0,-1,2008,708,0,0
791,316,0,0,0,0,0,0,0,0,0,-1,2015,708,0,0
798,316,0,0,0,0,0,0,0,0,0,-1,2022,708,0,0
805,316,0,0,0,0,0,0,0,0,0,-1,2029,708,0,0
812,316,0,0,0,0,0,0,0,0,0,-1,2036,708,0,0
-700,309,0,0,0,0,0,0,0,0,0,-1,524,715,0,0
-693,309,0,0,0,0,0,0,0,0,0,-1,531,715,0,0
-686,309,0,0,0,0,0,0,0,0,0,-1,538,715,0,0
-679,309,0,0,0,0,0,0,0,0,0,-1,545,715,0,0
-672,309,0,0,0,0,0,0,0,0,0,-1,552,715,0,0
-665,309,0,0,0,0,0,0,0,0,0,-1,559,715,0,0
-658,309,0,0,0,0,0,0,0,0,0,-1,566,715,0,0
-651,309,0,0,0,0,0,0,0,0,0,-1,573,715,0,0
-644,309,0,0,0,0,0,0,0,0,0,-1,580,715,0,0
-637,309,0,0,0,0,0,0,0,0,0,-1,587,715,0,0
-630,309,0,0,0,0,0,0,0,0,0,-1,594,715,0,0
-623,309,0,0,0,0,0,0,0,0,0,-1,601,715,0,0
-616,309,0,0,0,0,0,0,0,0,0,-1,608,715,0,0
-609,309,-5.34906,-2.82245,0,0,0,0,0,0,0,-1,615,715,-5.34908,2.82244
-602,309,-4.78949,-2.32288,0,0,0,0,0,0,0,-1,622,715,-4.78946,2.32289
-595,309,-4.29297,-1.85999,0,0,0,0,0,0,0,-1,629,715,-4.29299,1.86001
-588,309,-3.70544,-1.61987,0,0,0,0,0,0,0,-1,636,715,-3.70546,1.61988
-581,309,-3.64825,-0.988647,0,0,0,0,0,0,0,-1,643,715,-3.64824,0.988662
-574,309,-3.82581,-0.628479,0,0,0,0,0,0,0,-1,650,715,-3.8258,0.628482
-567,309,-3.8927,-0.862732,0,0,0,0,0,0,0,-1,657,715,-3.89268,0.862722
-560,309,-4.44977,0.301636,0,0,0,0,0,0,0,-1,664,715,-4.44975,-0.301633
-553,309,-4.75513,0.0621948,0.0112059,-0.000913307,0.010058,0.0168886,-0.00659605,0.514284,0.0139862,0.0275485,671,715,-4.75512,-0.0621714
-546,309,-4.80164,-0.0386963,0.00516809,0.000600843,0.00674575,0.0100063,-0.00423734,0.622189,0.00844539,0.0154014,678,715,-4.80161,0.0387064
-539,309,-4.7901,-0.211304,0.00240482,0.0010351,0.00425434,0.00602906,-0.00258915,0.705593,0.00510614,0.0142887,685,715,-4.79009,0.211296
-532,309,-4.79681,-0.368469,0.00128231,0.00164157,0.002599,0.00406714,-0.00114325,0.819901,0.00316217,0.0117173,692,715,-4.7968,0.368486
-525,309,-4.80621,-0.523865,0.000277098,0.00243997,0.0023224,0.00392038,-0.00120331,1.0033,0.00309371,0.0137613,699,715,-4.8062,0.523871
-518,309,-4.80011,-0.689819,-0.000637898,0.00319731,0.00269683,0.0045888,-0.00202939,1.09445,0.0039151,0.0140514,706,715,-4.8001,0.689795
-511,309,-4.78589,-0.856445,-0.00166053,0.00404899,0.00353898,0.0057411,-0.00335264,1.12479,0.0053103,0.0112379,713,715,-4.78591,0.856422
-504,309,-4.78552,-1.01483,-0.0034569,0.00514031,0.00493021,0.00738273,-0.00569932,1.14393,0.00757374,0.00910935,720,715,-4.78552,1.01484
-497,309,-4.78894,-1.18115,-0.00611449,0.00741284,0.00706641,0.0104309,-0.00913251,1.16715,0.0113032,0.0131778,727,715,-4.78893,1.18118
-490,309,-4.77582,-1.34442,-0.00956699,0.0117978,0.0100766,0.0158005,-0.0135697,1.19268,0.0169732,0.0205436,734,715,-4.77584,1.34443
-483,309,-4.66663,-1.30469,-0.0139276,0.0161906,0.013278,0.0212084,-0.0189454,1.20948,0.0231951,0.0461193,741,715,-4.6666,1.30469
-476,309,-4.61157,-1.21857,0,0,0,0,0,0,0,-1,748,715,-4.61157,1.21856
-469,309,-4.22717,-0.592896,0,0,0,0,0,0,0,-1,755,715,-4.2272,0.592905
-462,309,-8.03296,0.179443,0,0,0,0,0,0,0,-1,762,715,-8.03297,-0.17946
-455,309,-8.75903,0.439575,0,0,0,0,0,0,0,-1,769,715,-8.75902,-0.439584
-448,309,-9.39111,0.590088,0,0,0,0,0,0,0,-1,776,715,-9.39112,-0.590064
-441,309,-8.16046,-3.41797,0,0,0,0,0,0,0,-1,783,715,-8.16047,3.41797
-434,309,-4.49701,-3.48096,0,0,0,0,0,0,0,-1,790,715,-4.497,3.48094
-427,309,-4.70496,-4.36261,0,0,0,0,0,0,0,-1,797,715,-4.70494,4.36261
-420,309,-3.81921,-3.49042,0,0,0,0,0,0,0,-1,804,715,-3.81922,3.4904
-413,309,0,0,0,0,0,0,0,0,0,-1,811,715,0,0
-406,309,0,0,0,0,0,0,0,0,0,-1,818,715,0,0
-399,309,0,0,0,0,0,0,0,0,0,-1,825,715,0,0
-392,309,0,0,0,0,0,0,0,0,0,-1,832,715,0,0
-385,309,0,0,0,0,0,0,0,0,0,-1,839,715,0,0
-378,309,0,0,0,0,0,0,0,0,0,-1,846,715,0,0
-371,309,0,0,0,0,0,0,0,0,0,-1,853,715,0,0
-364,309,0,0,0,0,0,0,0,0,0,-1,860,715,0,0
-357,309,0,0,0,0,0,0,0,0,0,-1,867,715,0,0
-350,309,0,0,0,0,0,0,0,0,0,-1,874,715,0,0
-343,309,0,0,0,0,0,0,0,0,0,-1,881,715,0,0
-336,309,0,0,0,0,0,0,0,0,0,-1,888,715,0,0
-329,309,0,0,0,0,0,0,0,0,0,-1,895,715,0,0
-322,309,0,0,0,0,0,0,0,0,0,-1,902,715,0,0
-315,309,0,0,0,0,0,0,0,0,0,-1,909,715,0,0
-308,309,0,0,0,0,0,0,0,0,0,-1,916,715,0,0
-301,309,0,0,0,0,0,0,0,0,0,-1,923,715,0,0
-294,309,0,0,0,0,0,0,0,0,0,-1,930,715,0,0
-287,309,0,0,0,0,0,0,0,0,0,-1,937,715,0,0
-280,309,0,0,0,0,0,0,0,0,0,-1,944,715,0,0
-273,309,0,0,0,0,0,0,0,0,0,-1,951,715,0,0
-266,309,0,0,0,0,0,0,0,0,0,-1,958,715,0,0
-259,309,0,0,0,0,0,0,0,0,0,-1,965,715,0,0
-252,309,0,0,0,0,0,0,0,0,0,-1,972,715,0,0
-245,309,0,0,0,0,0,0,0,0,0,-1,979,715,0,0
-238,309,0,0,0,0,0,0,0,0,0,-1,986,715,0,0
-231,309,0,0,0,0,0,0,0,0,0,-1,993,715,0,0
-224,309,0,0,0,0,0,0,0,0,0,-1,1000,715,0,0
-217,309,0,0,0,0,0,0,0,0,0,-1,1007,715,0,0
-210,309,0,0,0,0,0,0,0,0,0,-1,1014,715,0,0
-203,309,0,0,0,0,0,0,0,0,0,-1,1021,715,0,0
-196,309,0,0,0,0,0,0,0,0,0,-1,1028,715,0,0
-189,309,0,0,0,0,0,0,0,0,0,-1,1035,715,0,0
-182,309,0,0,0,0,0,0,0,0,0,-1,1042,715,0,0
-175,309,0,0,0,0,0,0,0,0,0,-1,1049,715,0,0
-168,309,0,0,0,0,0,0,0,0,0,-1,1056,715,0,0
-161,309,0,0,0,0,0,0,0,0,0,-1,1063,715,0,0
-154,309,0,0,0,0,0,0,0,0,0,-1,1070,715,0,0
-147,309,0,0,0,0,0,0,0,0,0,-1,1077,715,0,0
-140,309,0,0,0,0,0,0,0,0,0,-1,1084,715,0,0
-133,309,0,0,0,0,0,0,0,0,0,-1,1091,715,0,0
-126,309,0,0,0,0,0,0,0,0,0,-1,1098,715,0,0
-119,309,0,0,0,0,0,0,0,0,0,-1,1105,715,0,0
-112,309,0,0,0,0,0,0,0,0,0,-1,1112,715,0,0
-105,309,0,0,0,0,0,0,0,0,0,-1,1119,715,0,0
-98,309,0,0,0,0,0,0,0,0,0,-1,1126,715,0,0
-91,309,0,0,0,0,0,0,0,0,0,-1,1133,715,0,0
-84,309,0,0,0,0,0,0,0,0,0,-1,1140,715,0,0
-77,309,0,0,0,0,0,0,0,0,0,-1,1147,715,0,0
-70,309,0,0,0,0,0,0,0,0,0,-1,1154,715,0,0
-63,309,0,0,0,0,0,0,0,0,0,-1,1161,715,0,0
-56,309,0,0,0,0,0,0,0,0,0,-1,1168,715,0,0
-49,309,0,0,0,0,0,0,0,0,0,-1,1175,715,0,0
-42,309,0,0,0,0,0,0,0,0,0,-1,1182,715,0,0
-35,309,0,0,0,0,0,0,0,0,0,-1,1189,715,0,0
-28,309,0,0,0,0,0,0,0,0,0,-1,1196,715,0,0
-21,309,0,0,0,0,0,0,0,0,0,-1,1203,715,0,0
-14,309,0,0,0,0,0,0,0,0,0,-1,1210,715,0,0
-7,309,0,0,0,0,0,0,0,0,0,-1,1217,715,0,0
0,309,0,0,0,0,0,0,0,0,0,-1,1224,715,0,0
7,309,0,0,0,0,0,0,0,0,0,-1,1231,715,0,0
14,309,0,0,0,0,0,0,0,0,0,-1,1238,715,0,0
21,309,0,0,0,0,0,0,0,0,0,-1,1245,715,0,0
28,309,0,0,0,0,0,0,0,0,0,-1,1252,715,0,0
35,309,0,0,0,0,0,0,0,0,0,-1,1259,715,0,0
42,309,0,0,0,0,0,0,0,0,0,-1,1266,715,0,0
49,309,0,0,0,0,0,0,0,0,0,-1,1273,715,0,0
56,309,0,0,0,0,0,0,0,0,0,-1,1280,715,0,0
63,309,0,0,0,0,0,0,0,0,0,-1,1287,715,0,0
70,309,0,0,0,0,0,0,0,0,0,-1,1294,715,0,0
77,309,0,0,0,0,0,0,0,0,0,-1,1301,715,0,0
84,309,0,0,0,0,0,0,0,0,0,-1,1308,715,0,0
91,309,0,0,0,0,0,0,0,0,0,-1,1315,715,0,0
98,309,0,0,0,0,0,0,0,0,0,-1,1322,715,0,0
105,309,0,0,0,0,0,0,0,0,0,-1,1329,715,0,0
112,309,0,0,0,0,0,0,0,0,0,-1,1336,715,0,0
119,309,0,0,0,0,0,0,0,0,0,-1,1343,715,0,0
126,309,0,0,0,0,0,0,0,0,0,-1,1350,715,0,0
133,309,0,0,0,0,0,0,0,0,0,-1,1357,715,0,0
140,309,0,0,0,0,0,0,0,0,0,-1,1364,715,0,0
147,309,0,0,0,0,0,0,0,0,0,-1,1371,715,0,0
154,309,0,0,0,0,0,0,0,0,0,-1,1378,715,0,0
161,309,0,0,0,0,0,0,0,0,0,-1,1385,715,0,0
168,309,0,0,0,0,0,0,0,0,0,-1,1392,715,0,0
175,309,0,0,0,0,0,0,0,0,0,-1,1399,715,0,0
182,309,0,0,0,0,0,0,0,0,0,-1,1406,715,0,0
189,309,0,0,0,0,0,0,0,0,0,-1,1413,715,0,0
196,309,0,0,0,0,0,0,0,0,0,-1,1420,715,0,0
203,309,0,0,0,0,0,0,0,0,0,-1,1427,715,0,0
210,309,0,0,0,0,0,0,0,0,0,-1,1434,715,0,0
217,309,0,0,0,0,0,0,0,0,0,-1,1441,715,0,0
224,309,0,0,0,0,0,0,0,0,0,-1,1448,715,0,0
231,309,0,0,0,0,0,0,0,0,0,-1,1455,715,0,0
238,309,0,0,0,0,0,0,0,0,0,-1,1462,715,0,0
245,309,0,0,0,0,0,0,0,0,0,-1,1469,715,0,0
252,309,0,0,0,0,0,0,0,0,0,-1,1476,715,0,0
259,309,0,0,0,0,0,0,0,0,0,-1,1483,715,0,0
266,309,0,0,0,0,0,0,0,0,0,-1,1490,715,0,0
273,309,0,0,0,0,0,0,0,0,0,-1,1497,715,0,0
280,309,0,0,0,0,0,0,0,0,0,-1,1504,715,0,0
287,309,0,0,0,0,0,0,0,0,0,-1,1511,715,0,0
294,309,0,0,0,0,0,0,0,0,0,-1,1518,715,0,0
301,309,0,0,0,0,0,0,0,0,0,-1,1525,715,0,0
308,309,0,0,0,0,0,0,0,0,0,-1,1532,715,0,0
315,309,0,0,0,0,0,0,0,0,0,-1,1539,715,0,0
322,309,0,0,0,0,0,0,0,0,0,-1,1546,715,0,0
329,309,0,0,0,0,0,0,0,0,0,-1,1553,715,0,0
336,309,0,0,0,0,0,0,0,0,0,-1,1560,715,0,0
343,309,0,0,0,0,0,0,0,0,0,-1,1567,715,0,0
350,309,0,0,0,0,0,0,0,0,0,-1,1574,715,0,0
357,309,0,0,0,0,0,0,0,0,0,-1,1581,715,0,0
364,309,0,0,0,0,0,0,0,0,0,-1,1588,715,0,0
371,309,0,0,0,0,0,0,0,0,0,-1,1595,715,0,0
378,309,0,0,0,0,0,0,0,0,0,-1,1602,715,0,0
385,309,0,0,0,0,0,0,0,0,0,-1,1609,715,0,0
392,309,0,0,0,0,0,0,0,0,0,-1,1616,715,0,0
399,309,0,0,0,0,0,0,0,0,0,-1,1623,715,0,0
406,309,0,0,0,0,0,0,0,0,0,-1,1630,715,0,0
413,309,0,0,0,0,0,0,0,0,0,-1,1637,715,0,0
420,309,0,0,0,0,0,0,0,0,0,-1,1644,715,0,0
427,309,0,0,0,0,0,0,0,0,0,-1,1651,715,0,0
434,309,0,0,0,0,0,0,0,0,0,-1,1658,715,0,0
441,309,0,0,0,0,0,0,0,0,0,-1,1665,715,0,0
448,309,0,0,0,0,0,0,0,0,0,-1,1672,715,0,0
455,309,0,0,0,0,0,0,0,0,0,-1,1679,715,0,0
462,309,0,0,0,0,0,0,0,0,0,-1,1686,715,0,0
469,309,0,0,0,0,0,0,0,0,0,-1,1693,715,0,0
476,309,0,0,0,0,0,0,0,0,0,-1,1700,715,0,0
483,309,0,0,0,0,0,0,0,0,0,-1,1707,715,0,0
490,309,0,0,0,0,0,0,0,0,0,-1,1714,715,0,0
497,309,0,0,0,0,0,0,0,0,0,-1,1721,715,0,0
504,309,0,0,0,0,0,0,0,0,0,-1,1728,715,0,0
511,309,0,0,0,0,0,0,0,0,0,-1,1735,715,0,0
518,309,0,0,0,0,0,0,0,0,0,-1,1742,715,0,0
525,309,0,0,0,0,0,0,0,0,0,-1,1749,715,0,0
532,309,0,0,0,0,0,0,0,0,0,-1,1756,715,0,0
539,309,15.9861,-0.584656,0,0,0,0,0,0,0,-1,1763,715,15.9861,0.584626
546,309,16.328,0.243347,0,0,0,0,0,0,0,-1,1770,715,16.3281,-0.243361
553,309,16.8108,0.494141,0.0740595,-0.0219949,0.0104231,0.0751775,-0.0231129,0.106855,0.0593425,0.0415859,1777,715,16.8108,-0.494162
560,309,17.6531,0.521301,0.0628258,-0.0191906,0.0127685,0.0647677,-0.0211324,0.150925,0.0516833,0.0448784,1784,715,17.6531,-0.521328
567,309,18.2356,0.233582,0.0529801,-0.0169652,0.0139129,0.055646,-0.019631,0.189314,0.0450887,0.0459505,1791,715,18.2356,-0.233564
574,309,18.4452,1.98163,0,0,0,0,0,0,0,-1,1798,715,18.4452,-1.98164
581,309,18.3668,1.82019,0,0,0,0,0,0,0,-1,1805,715,18.3668,-1.82016
588,309,14.7417,1.74164,0,0,0,0,0,0,0,-1,1812,715,14.7416,-1.74164
595,309,16.0269,1.74188,0,0,0,0,0,0,0,-1,1819,715,16.0269,-1.74191
602,309,9.59094,1.75812,0,0,0,0,0,0,0,-1,1826,715,9.59096,-1.75812
609,309,9.63245,0.0442505,0,0,0,0,0,0,0,-1,1833,715,9.63241,-0.0442477
616,309,9.63647,0.254333,0.00708995,-0.00272651,0.00832761,0.0118481,-0.00748471,0.519107,0.0112562,0.0220584,1840,715,9.6365,-0.254306
623,309,9.63135,0.434265,0.00455937,-0.00169518,0.00597343,0.00817463,-0.00531044,0.544251,0.00784393,0.0103533,1847,715,9.6313,-0.434284
630,309,9.61316,0.605225,0.00278418,-0.00187007,0.0038277,0.00493665,-0.00402255,0.512269,0.00518156,0.0103203,1854,715,9.61321,-0.605254
637,309,9.57874,0.782227,0.00207848,-0.00159307,0.00144272,0.00257755,-0.00209215,0.333039,0.0027009,0.0130878,1861,715,9.57871,-0.782255
644,309,9.58789,0.963013,0.00167348,-0.00135329,-0.000325052,0.00170799,-0.00138781,-0.105785,0.00179054,0.0144142,1868,715,9.5879,-0.963018
651,309,9.63574,1.15735,0.00189323,-0.00122091,-0.00148984,0.00249118,-0.00181886,-0.381668,0.00249847,0.0131927,1875,715,9.63573,-1.15736
658,309,9.64502,1.33057,0.00332825,-0.00115098,-0.00170975,0.00390628,-0.001729,-0.326015,0.0033335,0.0181822,1882,715,9.64496,-1.33059
665,309,9.65271,1.48901,0.00618731,-0.000434308,-0.00218926,0.00684567,-0.00109267,-0.292121,0.00496822,0.0168702,1889,715,9.65273,-1.489
672,309,9.65649,1.67761,0.00973072,0.000236697,-0.00280758,0.0104988,-0.000531418,-0.267051,0.00718292,0.014471,1896,715,9.65653,-1.67762
679,309,9.65332,1.88989,0.0147061,0.000836762,-0.00366557,0.0156153,-7.24238e-05,-0.243127,0.0104344,0.0144968,1903,715,9.65336,-1.88987
686,309,9.64038,2.04889,0.0215033,0.0017543,-0.00455988,0.0225053,0.0007523,-0.216305,0.0147592,0.0211741,1910,715,9.64037,-2.04889
693,309,9.43005,2.21906,0.0303222,0.00335107,-0.00597194,0.0315853,0.00208792,-0.208442,0.0203966,0.0347589,1917,715,9.43011,-2.21906
700,309,9.26794,2.4472,0,0,0,0,0,0,0,-1,1924,715,9.26793,-2.44718
707,309,10.1073,2.60327,0,0,0,0,0,0,0,-1,1931,715,10.1073,-2.60329
714,309,10.351,3.28528,0,0,0,0,0,0,0,-1,1938,715,10.3509,-3.28526
721,309,11.0383,3.06445,0,0,0,0,0,0,0,-1,1945,715,11.0383,-3.06447
728,309,0,0,0,0,0,0,0,0,0,-1,1952,715,0,0
735,309,0,0,0,0,0,0,0,0,0,-1,1959,715,0,0
742,309,0,0,0,0,0,0,0,0,0,-1,1966,715,0,0
749,309,0,0,0,0,0,0,0,0,0,-1,1973,715,0,0
756,309,0,0,0,0,0,0,0,0,0,-1,1980,715,0,0
763,309,0,0,0,0,0,0,0,0,0,-1,1987,715,0,0
770,309,0,0,0,0,0,0,0,0,0,-1,1994,715,0,0
777,309,0,0,0,0,0,0,0,0,0,-1,2001,715,0,0
784,309,0,0,0,0,0,0,0,0,0,-1,2008,715,0,0
791,309,0,0,0,0,0,0,0,0,0,-1,2015,715,0,0
798,309,0,0,0,0,0,0,0,0,0,-1,2022,715,0,0
805,309,0,0,0,0,0,0,0,0,0,-1,2029,715,0,0
812,309,0,0,0,0,0,0,0,0,0,-1,2036,715,0,0
-700,302,0,0,0,0,0,0,0,0,0,-1,524,722,0,0
-693,302,0,0,0,0,0,0,0,0,0,-1,531,722,0,0
-686,302,0,0,0,0,0,0,0,0,0,-1,538,722,0,0
-679,302,0,0,0,0,0,0,0,0,0,-1,545,722,0,0
-672,302,0,0,0,0,0,0,0,0,0,-1,552,722,0,0
-665,302,0,0,0,0,0,0,0,0,0,-1,559,722,0,0
-658,302,0,0,0,0,0,0,0,0,0,-1,566,722,0,0
-651,302,0,0,0,0,0,0,0,0,0,-1,573,722,0,0
-644,302,0,0,0,0,0,0,0,0,0,-1,580,722,0,0
-637,302,0,0,0,0,0,0,0,0,0,-1,587,722,0,0
-630,302,0,0,0,0,0,0,0,0,0,-1,594,722,0,0
-623,302,0,0,0,0,0,0,0,0,0,-1,601,722,0,0
-616,302,0,0,0,0,0,0,0,0,0,-1,608,722,0,0
-609,302,-5.90167,-2.15637,0,0,0,0,0,0,0,-1,615,722,-5.90169,2.15638
-602,302,-5.47156,-1.69165,0,0,0,0,0,0,0,-1,622,722,-5.47158,1.69165
-595,302,-5.04822,-1.25397,0,0,0,0,0,0,0,-1,629,722,-5.04822,1.25399
-588,302,-4.82001,-0.962952,0.058606,-0.0181213,0.0353065,0.0723798,-0.0318951,0.371962,0.0616971,0.0465423,636,722,-4.82003,0.962973
-581,302,-4.54181,-0.746338,0.0422891,-0.0132123,0.0294415,0.054997,-0.0259202,0.407476,0.0477124,0.0489118,643,722,-4.54178,0.746359
-574,302,-4.48303,-0.415405,0.0293862,-0.0089118,0.0234067,0.0404789,-0.0200045,0.442559,0.0355808,0.0492271,650,722,-4.48301,0.41542
-567,302,-4.58057,-0.165833,0.019893,-0.00552496,0.0180921,0.0292938,-0.0149258,0.479211,0.0259756,0.0462307,657,722,-4.58056,0.165843
-560,302,-4.79437,0.0272827,0.0132564,-0.00306331,0.013557,0.0209198,-0.0107267,0.514493,0.0185843,0.0373253,664,722,-4.79434,-0.0273088
-553,302,-4.96027,0.129395,0.00816264,-0.00134355,0.00949954,0.0140318,-0.00721275,0.553435,0.0124744,0.0161796,671,722,-4.96029,-0.129383
-546,302,-4.98053,-0.0332642,0.0032205,6.52941e-06,0.0064975,0.00830679,-0.00507976,0.664169,0.00780323,0.0138496,678,722,-4.9805,0.0332433
-539,302,-4.98193,-0.179932,0.00112343,0.00046878,0.00425188,0.00506057,-0.00346836,0.746982,0.0049527,0.0137648,685,722,-4.98193,0.179924
-532,302,-4.97699,-0.34552,0.000352853,0.00122232,0.00283581,0.00365652,-0.00208135,0.861457,0.00335411,0.0137331,692,722,-4.97697,0.345543
-525,302,-4.9696,-0.520447,-0.000444827,0.00246122,0.00277072,0.0041368,-0.00212041,1.02689,0.0036746,0.0185105,699,722,-4.96962,0.520446
-518,302,-4.97516,-0.699036,-0.001314,0.00363868,0.00335655,0.00533352,-0.00300883,1.10321,0.00487839,0.0182981,706,722,-4.97518,0.699052
-511,302,-4.96173,-0.849243,-0.00240289,0.00511972,0.00446679,0.0071979,-0.00448108,1.13533,0.0068034,0.00941029,713,722,-4.96173,0.849213
-504,302,-4.94733,-1.01794,-0.00449051,0.00687735,0.00625844,0.00964771,-0.00726088,1.15406,0.00979455,0.00907665,720,722,-4.94731,1.01794
-497,302,-4.95758,-1.15771,-0.00755004,0.00994384,0.00877775,0.0135887,-0.011195,1.17722,0.0143311,0.0134674,727,722,-4.95756,1.15774
-490,302,-4.8924,-1.28204,-0.0114745,0.0153839,0.0121745,0.020081,-0.0161716,1.20258,0.0209709,0.0261993,734,722,-4.89237,1.28206
-483,302,-4.62799,-1.31256,0,0,0,0,0,0,0,-1,741,722,-4.62797,1.31258
-476,302,-4.29749,-0.203491,0,0,0,0,0,0,0,-1,748,722,-4.29751,0.203464
-469,302,-6.328,1.84778,0,0,0,0,0,0,0,-1,755,722,-6.32803,-1.84777
-462,302,-8.64081,-0.368835,0,0,0,0,0,0,0,-1,762,722,-8.64079,0.368829
-455,302,-9.33875,-0.479675,0,0,0,0,0,0,0,-1,769,722,-9.33876,0.479658
-448,302,-9.91321,-0.486145,0,0,0,0,0,0,0,-1,776,722,-9.91322,0.486163
-441,302,-10.6113,-0.475098,0,0,0,0,0,0,0,-1,783,722,-10.6113,0.475116
-434,302,-3.84656,2.89349,0,0,0,0,0,0,0,-1,790,722,-3.84654,-2.8935
-427,302,-9.85724,0.342041,0,0,0,0,0,0,0,-1,797,722,-9.85723,-0.342042
-420,302,0,0,0,0,0,0,0,0,0,-1,804,722,0,0
-413,302,0,0,0,0,0,0,0,0,0,-1,811,722,0,0
-406,302,0,0,0,0,0,0,0,0,0,-1,818,722,0,0
-399,302,0,0,0,0,0,0,0,0,0,-1,825,722,0,0
-392,302,0,0,0,0,0,0,0,0,0,-1,832,722,0,0
-385,302,0,0,0,0,0,0,0,0,0,-1,839,722,0,0
-378,302,0,0,0,0,0,0,0,0,0,-1,846,722,0,0
-371,302,0,0,0,0,0,0,0,0,0,-1,853,722,0,0
-364,302,0,0,0,0,0,0,0,0,0,-1,860,722,0,0
-357,302,0,0,0,0,0,0,0,0,0,-1,867,722,0,0
-350,302,0,0,0,0,0,0,0,0,0,-1,874,722,0,0
-343,302,0,0,0,0,0,0,0,0,0,-1,881,722,0,0
-336,302,0,0,0,0,0,0,0,0,0,-1,888,722,0,0
-329,302,0,0,0,0,0,0,0,0,0,-1,895,722,0,0
-322,302,0,0,0,0,0,0,0,0,0,-1,902,722,0,0
-315,302,0,0,0,0,0,0,0,0,0,-1,909,722,0,0
-308,302,0,0,0,0,0,0,0,0,0,-1,916,722,0,0
-301,302,0,0,0,0,0,0,0,0,0,-1,923,722,0,0
-294,302,0,0,0,0,0,0,0,0,0,-1,930,722,0,0
-287,302,0,0,0,0,0,0,0,0,0,-1,937,722,0,0
-280,302,0,0,0,0,0,0,0,0,0,-1,944,722,0,0
-273,302,0,0,0,0,0,0,0,0,0,-1,951,722,0,0
-266,302,0,0,0,0,0,0,0,0,0,-1,958,722,0,0
-259,302,0,0,0,0,0,0,0,0,0,-1,965,722,0,0
-252,302,0,0,0,0,0,0,0,0,0,-1,972,722,0,0
-245,302,0,0,0,0,0,0,0,0,0,-1,979,722,0,0
-238,302,0,0,0,0,0,0,0,0,0,-1,986,722,0,0
-231,302,0,0,0,0,0,0,0,0,0,-1,993,722,0,0
-224,302,0,0,0,0,0,0,0,0,0,-1,1000,722,0,0
-217,302,0,0,0,0,0,0,0,0,0,-1,1007,722,0,0
-210,302,0,0,0,0,0,0,0,0,0,-1,1014,722,0,0
-203,302,0,0,0,0,0,0,0,0,0,-1,1021,722,0,0
-196,302,0,0,0,0,0,0,0,0,0,-1,1028,722,0,0
-189,302,0,0,0,0,0,0,0,0,0,-1,1035,722,0,0
-182,302,0,0,0,0,0,0,0,0,0,-1,1042,722,0,0
-175,302,0,0,0,0,0,0,0,0,0,-1,1049,722,0,0
-168,302,0,0,0,0,0,0,0,0,0,-1,1056,722,0,0
-161,302,0,0,0,0,0,0,0,0,0,-1,1063,722,0,0
-154,302,0,0,0,0,0,0,0,0,0,-1,1070,722,0,0
-147,302,0,0,0,0,0,0,0,0,0,-1,1077,722,0,0
-140,302,0,0,0,0,0,0,0,0,0,-1,1084,722,0,0
-133,302,0,0,0,0,0,0,0,0,0,-1,1091,722,0,0
-126,302,0,0,0,0,0,0,0,0,0,-1,1098,722,0,0
-119,302,0,0,0,0,0,0,0,0,0,-1,1105,722,0,0
-112,302,0,0,0,0,0,0,0,0,0,-1,1112,722,0,0
-105,302,0,0,0,0,0,0,0,0,0,-1,1119,722,0,0
-98,302,0,0,0,0,0,0,0,0,0,-1,1126,722,0,0
-91,302,0,0,0,0,0,0,0,0,0,-1,1133,722,0,0
-84,302,0,0,0,0,0,0,0,0,0,-1,1140,722,0,0
-77,302,0,0,0,0,0,0,0,0,0,-1,1147,722,0,0
-70,302,0,0,0,0,0,0,0,0,0,-1,1154,722,0,0
-63,302,0,0,0,0,0,0,0,0,0,-1,1161,722,0,0
-56,302,0,0,0,0,0,0,0,0,0,-1,1168,722,0,0
-49,302,0,0,0,0,0,0,0,0,0,-1,1175,722,0,0
-42,302,0,0,0,0,0,0,0,0,0,-1,1182,722,0,0
-35,302,0,0,0,0,0,0,0,0,0,-1,1189,722,0,0
-28,302,0,0,0,0,0,0,0,0,0,-1,1196,722,0,0
-21,302,0,0,0,0,0,0,0,0,0,-1,1203,722,0,0
-14,302,0,0,0,0,0,0,0,0,0,-1,1210,722,0,0
-7,302,0,0,0,0,0,0,0,0,0,-1,1217,722,0,0
0,302,0,0,0,0,0,0,0,0,0,-1,1224,722,0,0
7,302,0,0,0,0,0,0,0,0,0,-1,1231,722,0,0
14,302,0,0,0,0,0,0,0,0,0,-1,1238,722,0,0
21,302,0,0,0,0,0,0,0,0,0,-1,1245,722,0,0
28,302,0,0,0,0,0,0,0,0,0,-1,1252,722,0,0
35,302,0,0,0,0,0,0,0,0,0,-1,1259,722,0,0
42,302,0,0,0,0,0,0,0,0,0,-1,1266,722,0,0
49,302,0,0,0,0,0,0,0,0,0,-1,1273,722,0,0
56,302,0,0,0,0,0,0,0,0,0,-1,1280,722,0,0
63,302,0,0,0,0,0,0,0,0,0,-1,1287,722,0,0
70,302,0,0,0,0,0,0,0,0,0,-1,1294,722,0,0
77,302,0,0,0,0,0,0,0,0,0,-1,1301,722,0,0
84,302,0,0,0,0,0,0,0,0,0,-1,1308,722,0,0
91,302,0,0,0,0,0,0,0,0,0,-1,1315,722,0,0
98,302,0,0,0,0,0,0,0,0,0,-1,1322,722,0,0
105,302,0,0,0,0,0,0,0,0,0,-1,1329,722,0,0
112,302,0,0,0,0,0,0,0,0,0,-1,1336,722,0,0
119,302,0,0,0,0,0,0,0,0,0,-1,1343,722,0,0
126,302,0,0,0,0,0,0,0,0,0,-1,1350,722,0,0
133,302,0,0,0,0,0,0,0,0,0,-1,1357,722,0,0
140,302,0,0,0,0,0,0,0,0,0,-1,1364,722,0,0
147,302,0,0,0,0,0,0,0,0,0,-1,1371,722,0,0
154,302,0,0,0,0,0,0,0,0,0,-1,1378,722,0,0
161,302,0,0,0,0,0,0,0,0,0,-1,1385,722,0,0
168,302,0,0,0,0,0,0,0,0,0,-1,1392,722,0,0
175,302,0,0,0,0,0,0,0,0,0,-1,1399,722,0,0
182,302,0,0,0,0,0,0,0,0,0,-1,1406,722,0,0
189,302,0,0,0,0,0,0,0,0,0,-1,1413,722,0,0
196,302,0,0,0,0,0,0,0,0,0,-1,1420,722,0,0
203,302,0,0,0,0,0,0,0,0,0,-1,1427,722,0,0
210,302,0,0,0,0,0,0,0,0,0,-1,1434,722,0,0
217,302,0,0,0,0,0,0,0,0,0,-1,1441,722,0,0
224,302,0,0,0,0,0,0,0,0,0,-1,1448,722,0,0
231,302,0,0,0,0,0,0,0,0,0,-1,1455,722,0,0
238,302,0,0,0,0,0,0,0,0,0,-1,1462,722,0,0
245,302,0,0,0,0,0,0,0,0,0,-1,1469,722,0,0
252,302,0,0,0,0,0,0,0,0,0,-1,1476,722,0,0
259,302,0,0,0,0,0,0,0,0,0,-1,1483,722,0,0
266,302,0,0,0,0,0,0,0,0,0,-1,1490,722,0,0
273,302,0,0,0,0,0,0,0,0,0,-1,1497,722,0,0
280,302,0,0,0,0,0,0,0,0,0,-1,1504,722,0,0
287,302,0,0,0,0,0,0,0,0,0,-1,1511,722,0,0
294,302,0,0,0,0,0,0,0,0,0,-1,1518,722,0,0
301,302,0,0,0,0,0,0,0,0,0,-1,1525,722,0,0
308,302,0,0,0,0,0,0,0,0,0,-1,1532,722,0,0
315,302,0,0,0,0,0,0,0,0,0,-1,1539,722,0,0
322,302,0,0,0,0,0,0,0,0,0,-1,1546,722,0,0
329,302,0,0,0,0,0,0,0,0,0,-1,1553,722,0,0
336,302,0,0,0,0,0,0,0,0,0,-1,1560,722,0,0
343,302,0,0,0,0,0,0,0,0,0,-1,1567,722,0,0
350,302,0,0,0,0,0,0,0,0,0,-1,1574,722,0,0
357,302,0,0,0,0,0,0,0,0,0,-1,1581,722,0,0
364,302,0,0,0,0,0,0,0,0,0,-1,1588,722,0,0
371,302,0,0,0,0,0,0,0,0,0,-1,1595,722,0,0
378,302,0,0,0,0,0,0,0,0,0,-1,1602,722,0,0
385,302,0,0,0,0,0,0,0,0,0,-1,1609,722,0,0
392,302,0,0,0,0,0,0,0,0,0,-1,1616,722,0,0
399,302,0,0,0,0,0,0,0,0,0,-1,1623,722,0,0
406,302,0,0,0,0,0,0,0,0,0,-1,1630,722,0,0
413,302,0,0,0,0,0,0,0,0,0,-1,1637,722,0,0
420,302,0,0,0,0,0,0,0,0,0,-1,1644,722,0,0
427,302,0,0,0,0,0,0,0,0,0,-1,1651,722,0,0
434,302,0,0,0,0,0,0,0,0,0,-1,1658,722,0,0
441,302,0,0,0,0,0,0,0,0,0,-1,1665,722,0,0
448,302,0,0,0,0,0,0,0,0,0,-1,1672,722,0,0
455,302,0,0,0,0,0,0,0,0,0,-1,1679,722,0,0
462,302,0,0,0,0,0,0,0,0,0,-1,1686,722,0,0
469,302,0,0,0,0,0,0,0,0,0,-1,1693,722,0,0
476,302,0,0,0,0,0,0,0,0,0,-1,1700,722,0,0
483,302,0,0,0,0,0,0,0,0,0,-1,1707,722,0,0
490,302,0,0,0,0,0,0,0,0,0,-1,1714,722,0,0
497,302,0,0,0,0,0,0,0,0,0,-1,1721,722,0,0
504,302,0,0,0,0,0,0,0,0,0,-1,1728,722,0,0
511,302,0,0,0,0,0,0,0,0,0,-1,1735,722,0,0
518,302,0,0,0,0,0,0,0,0,0,-1,1742,722,0,0
525,302,0,0,0,0,0,0,0,0,0,-1,1749,722,0,0
532,302,0,0,0,0,0,0,0,0,0,-1,1756,722,0,0
539,302,0,0,0,0,0,0,0,0,0,-1,1763,722,0,0
546,302,16.1453,0.903809,0.0828894,-0.0421797,-0.00175451,0.082914,-0.0422043,-0.0140246,0.0735006,0.0437133,1770,722,16.1452,-0.903801
553,302,16.6855,0.5,0.0727813,-0.0323184,0.00585119,0.0731061,-0.0326431,0.0554444,0.0625264,0.0433289,1777,722,16.6855,-0.499991
560,302,17.3536,0.563049,0.0636463,-0.0247436,0.0117906,0.065192,-0.0262893,0.130357,0.0543854,0.0470556,1784,722,17.3537,-0.563042
567,302,16.9581,0.635376,0,0,0,0,0,0,0,-1,1791,722,16.9582,-0.635369
574,302,17.4063,1.76105,0,0,0,0,0,0,0,-1,1798,722,17.4063,-1.76103
581,302,17.3466,1.61761,0,0,0,0,0,0,0,-1,1805,722,17.3466,-1.61761
588,302,17.2786,1.49225,0,0,0,0,0,0,0,-1,1812,722,17.2786,-1.49227
595,302,16.7606,2.2605,0,0,0,0,0,0,0,-1,1819,722,16.7606,-2.26048
602,302,13.5729,2.17645,0,0,0,0,0,0,0,-1,1826,722,13.5729,-2.17647
609,302,9.90845,0.112305,0,0,0,0,0,0,0,-1,1833,722,9.90847,-0.112324
616,302,9.86047,0.269775,0.00923473,-0.0032702,0.00919509,0.0141017,-0.00813722,0.486817,0.0129927,0.0424652,1840,722,9.8605,-0.269759
623,302,9.82178,0.426514,0.00634053,-0.002268,0.00658645,0.00990444,-0.0058319,0.495981,0.00918624,0.0132569,1847,722,9.82179,-0.426509
630,302,9.78162,0.619324,0.00385424,-0.00262151,0.00422895,0.00594252,-0.00470979,0.458679,0.00616382,0.0103048,1854,722,9.78157,-0.619294
637,302,9.74768,0.801392,0.002529,-0.00229359,0.00151841,0.00296725,-0.00273183,0.280988,0.0032913,0.013504,1861,722,9.74764,-0.801406
644,302,9.76367,0.963806,0.00165022,-0.00193471,-0.000428187,0.00170066,-0.00198515,-0.117243,0.00213011,0.0145835,1868,722,9.76367,-0.963799
651,302,9.8125,1.16028,0.00148149,-0.00167255,-0.00167381,0.00220418,-0.00239524,-0.407582,0.00265624,0.0134993,1875,722,9.8125,-1.16031
658,302,9.84729,1.34991,0.00258783,-0.0014804,-0.00173024,0.00322418,-0.00211675,-0.352424,0.0031056,0.014272,1882,722,9.84725,-1.34991
665,302,9.83923,1.49786,0.00515815,-0.000609949,-0.0018983,0.00572682,-0.00117862,-0.291062,0.00426539,0.0139624,1889,722,9.83927,-1.49787
672,302,9.83179,1.6723,0.00827687,0.000156353,-0.00225545,0.00886125,-0.000428036,-0.253526,0.00605523,0.0119204,1896,722,9.83184,-1.67233
679,302,9.81189,1.87354,0.0126928,0.000784769,-0.00275962,0.0133012,0.000176328,-0.217008,0.00880929,0.0096988,1903,722,9.81185,-1.87355
686,302,9.83203,2.05328,0.0187887,0.00168856,-0.00303143,0.0193102,0.00116707,-0.170361,0.0125026,0.0128989,1910,722,9.83203,-2.05326
693,302,9.73767,2.16431,0.0265045,0.0030305,-0.00390732,0.0271378,0.00239719,-0.160683,0.0173481,0.025548,1917,722,9.73771,-2.16433
700,302,10.1459,2.28711,0.0368201,0.00512762,-0.00494742,0.0375745,0.00437325,-0.151312,0.0237266,0.0447414,1924,722,10.1459,-2.2871
707,302,10.5135,2.49719,0.0500639,0.00827365,-0.00615989,0.050953,0.00738459,-0.14334,0.0317943,0.0487749,1931,722,10.5135,-2.49722
714,302,11.0531,2.88702,0.0667038,0.0127863,-0.00757889,0.0677489,0.0117413,-0.137028,0.0418054,0.0486779,1938,722,11.0531,-2.88705
721,302,11.4558,3.10785,0,0,0,0,0,0,0,-1,1945,722,11.4558,-3.10786
728,302,10.1989,3.56274,0,0,0,0,0,0,0,-1,1952,722,10.1989,-3.56276
735,302,0,0,0,0,0,0,0,0,0,-1,1959,722,0,0
742,302,0,0,0,0,0,0,0,0,0,-1,1966,722,0,0
749,302,0,0,0,0,0,0,0,0,0,-1,1973,722,0,0
756,302,0,0,0,0,0,0,0,0,0,-1,1980,722,0,0
763,302,0,0,0,0,0,0,0,0,0,-1,1987,722,0,0
770,302,0,0,0,0,0,0,0,0,0,-1,1994,722,0,0
777,302,0,0,0,0,0,0,0,0,0,-1,2001,722,0,0
784,302,0,0,0,0,0,0,0,0,0,-1,2008,722,0,0
791,302,0,0,0,0,0,0,0,0,0,-1,2015,722,0,0
798,302,0,0,0,0,0,0,0,0,0,-1,2022,722,0,0
805,302,0,0,0,0,0,0,0,0,0,-1,2029,722,0,0
812,302,0,0,0,0,0,0,0,0,0,-1,2036,722,0,0
-700,295,0,0,0,0,0,0,0,0,0,-1,524,729,0,0
-693,295,0,0,0,0,0,0,0,0,0,-1,531,729,0,0
-686,295,0,0,0,0,0,0,0,0,0,-1,538,729,0,0
-679,295,0,0,0,0,0,0,0,0,0,-1,545,729,0,0
-672,295,0,0,0,0,0,0,0,0,0,-1,552,729,0,0
-665,295,0,0,0,0,0,0,0,0,0,-1,559,729,0,0
-658,295,0,0,0,0,0,0,0,0,0,-1,566,729,0,0
-651,295,0,0,0,0,0,0,0,0,0,-1,573,729,0,0
-644,295,0,0,0,0,0,0,0,0,0,-1,580,729,0,0
-637,295,0,0,0,0,0,0,0,0,0,-1,587,729,0,0
-630,295,0,0,0,0,0,0,0,0,0,-1,594,729,0,0
-623,295,0,0,0,0,0,0,0,0,0,-1,601,729,0,0
-616,295,-4.55151,2.53369,0,0,0,0,0,0,0,-1,608,729,-4.55153,-2.53366
-609,295,-4.34985,1.65686,0,0,0,0,0,0,0,-1,615,729,-4.34987,-1.65683
-602,295,-6.16821,-1.0271,0,0,0,0,0,0,0,-1,622,729,-6.16819,1.02707
-595,295,-4.95947,-0.804871,0,0,0,0,0,0,0,-1,629,729,-4.9595,0.804882
-588,295,-4.96729,-0.586609,0.0444967,-0.0132235,0.0285538,0.0562349,-0.0249618,0.390031,0.048024,0.04921,636,729,-4.96731,0.586619
-581,295,-5.18121,-0.219604,0.0316207,-0.0106055,0.024239,0.0426524,-0.0216373,0.427107,0.0377729,0.0496267,643,729,-5.18122,0.219608
-574,295,-4.93359,-0.0391846,0.0214983,-0.00790321,0.0195893,0.0312895,-0.0176944,0.463504,0.0286416,0.047607,650,729,-4.93362,0.0391564
-567,295,-4.90546,0.0475464,0.0141981,-0.00548054,0.0154371,0.0226649,-0.0139474,0.501671,0.0213369,0.0411318,657,729,-4.90545,-0.0475572
-560,295,-5.1084,0.218384,0.00925394,-0.00368604,0.0118496,0.0162848,-0.0107169,0.53551,0.0156995,0.0215372,664,729,-5.10839,-0.218384
-553,295,-5.10699,0.108398,0.00535932,-0.0022087,0.00840622,0.0107939,-0.00764332,0.573911,0.0106964,0.0151163,671,729,-5.107,-0.108397
-546,295,-5.1413,0.000244141,0.00152104,-0.000953788,0.00584295,0.00625616,-0.00568891,0.681051,0.00689908,0.0181112,678,729,-5.14131,-0.000265371
-539,295,-5.14514,-0.134399,5.826e-05,-0.000336831,0.0039414,0.00380707,-0.00408564,0.760359,0.0045578,0.0167608,685,729,-5.14516,0.134421
-532,295,-5.15179,-0.332886,-0.00034659,0.000676125,0.00283495,0.00304547,-0.00271593,0.874627,0.00332816,0.0148603,692,729,-5.15177,0.332912
-525,295,-5.13879,-0.504578,-0.000848853,0.00248632,0.00299857,0.00424981,-0.00261234,1.03917,0.00399929,0.0144772,699,729,-5.13879,0.504574
-518,295,-5.11737,-0.66925,-0.0015455,0.00415713,0.00374826,0.00601531,-0.00340369,1.11056,0.0055073,0.0101279,706,729,-5.11737,0.669223
-511,295,-5.10913,-0.837952,-0.00254282,0.00628449,0.00505309,0.00858008,-0.00483842,1.14438,0.00784693,0.00777042,713,729,-5.10914,0.837945
-504,295,-5.11279,-1.01038,-0.00466359,0.00876719,0.007125,0.0118427,-0.00773912,1.1633,0.011388,0.00980101,720,729,-5.11279,1.01039
-497,295,-5.12024,-1.14063,-0.00776927,0.0125137,0.00983661,0.0165005,-0.0117561,1.18573,0.0163904,0.0142434,727,729,-5.12022,1.14066
-490,295,-5.00708,-1.09698,-0.0118166,0.0187431,0.0134186,0.0237987,-0.0168722,1.21048,0.0235946,0.0390786,734,729,-5.00709,1.09699
-483,295,-4.82605,-0.787109,0,0,0,0,0,0,0,-1,741,729,-4.82604,0.787113
-476,295,-6.51385,1.5943,0,0,0,0,0,0,0,-1,748,729,-6.51386,-1.59427
-469,295,-6.47876,1.93091,0,0,0,0,0,0,0,-1,755,729,-6.47876,-1.93092
-462,295,-5.80035,2.43433,0,0,0,0,0,0,0,-1,762,729,-5.80036,-2.43432
-455,295,-5.97644,2.75354,0,0,0,0,0,0,0,-1,769,729,-5.97645,-2.75355
-448,295,-6.4715,3.06488,0,0,0,0,0,0,0,-1,776,729,-6.47149,-3.06488
-441,295,-6.94537,3.29065,0,0,0,0,0,0,0,-1,783,729,-6.9454,-3.29062
-434,295,-0.990417,3.5564,0,0,0,0,0,0,0,-1,790,729,-0.990417,-3.55639
-427,295,0,0,0,0,0,0,0,0,0,-1,797,729,0,0
-420,295,0,0,0,0,0,0,0,0,0,-1,804,729,0,0
-413,295,0,0,0,0,0,0,0,0,0,-1,811,729,0,0
-406,295,0,0,0,0,0,0,0,0,0,-1,818,729,0,0
-399,295,0,0,0,0,0,0,0,0,0,-1,825,729,0,0
-392,295,0,0,0,0,0,0,0,0,0,-1,832,729,0,0
-385,295,0,0,0,0,0,0,0,0,0,-1,839,729,0,0
-378,295,0,0,0,0,0,0,0,0,0,-1,846,729,0,0
-371,295,0,0,0,0,0,0,0,0,0,-1,853,729,0,0
-364,295,0,0,0,0,0,0,0,0,0,-1,860,729,0,0
-357,295,0,0,0,0,0,0,0,0,0,-1,867,729,0,0
-350,295,0,0,0,0,0,0,0,0,0,-1,874,729,0,0
-343,295,0,0,0,0,0,0,0,0,0,-1,881,729,0,0
-336,295,0,0,0,0,0,0,0,0,0,-1,888,729,0,0
-329,295,0,0,0,0,0,0,0,0,0,-1,895,729,0,0
-322,295,0,0,0,0,0,0,0,0,0,-1,902,729,0,0
-315,295,0,0,0,0,0,0,0,0,0,-1,909,729,0,0
-308,295,0,0,0,0,0,0,0,0,0,-1,916,729,0,0
-301,295,0,0,0,0,0,0,0,0,0,-1,923,729,0,0
-294,295,0,0,0,0,0,0,0,0,0,-1,930,729,0,0
-287,295,0,0,0,0,0,0,0,0,0,-1,937,729,0,0
-280,295,0,0,0,0,0,0,0,0,0,-1,944,729,0,0
-273,295,0,0,0,0,0,0,0,0,0,-1,951,729,0,0
-266,295,0,0,0,0,0,0,0,0,0,-1,958,729,0,0
-259,295,0,0,0,0,0,0,0,0,0,-1,965,729,0,0
-252,295,0,0,0,0,0,0,0,0,0,-1,972,729,0,0
-245,295,0,0,0,0,0,0,0,0,0,-1,979,729,0,0
-238,295,0,0,0,0,0,0,0,0,0,-1,986,729,0,0
-231,295,0,0,0,0,0,0,0,0,0,-1,993,729,0,0
-224,295,0,0,0,0,0,0,0,0,0,-1,1000,729,0,0
-217,295,0,0,0,0,0,0,0,0,0,-1,1007,729,0,0
-210,295,0,0,0,0,0,0,0,0,0,-1,1014,729,0,0
-203,295,0,0,0,0,0,0,0,0,0,-1,1021,729,0,0
-196,295,0,0,0,0,0,0,0,0,0,-1,1028,729,0,0
-189,295,0,0,0,0,0,0,0,0,0,-1,1035,729,0,0
-182,295,0,0,0,0,0,0,0,0,0,-1,1042,729,0,0
-175,295,0,0,0,0,0,0,0,0,0,-1,1049,729,0,0
-168,295,0,0,0,0,0,0,0,0,0,-1,1056,729,0,0
-161,295,0,0,0,0,0,0,0,0,0,-1,1063,729,0,0
-154,295,0,0,0,0,0,0,0,0,0,-1,1070,729,0,0
-147,295,0,0,0,0,0,0,0,0,0,-1,1077,729,0,0
-140,295,0,0,0,0,0,0,0,0,0,-1,1084,729,0,0
-133,295,0,0,0,0,0,0,0,0,0,-1,1091,729,0,0
-126,295,0,0,0,0,0,0,0,0,0,-1,1098,729,0,0
-119,295,0,0,0,0,0,0,0,0,0,-1,1105,729,0,0
-112,295,0,0,0,0,0,0,0,0,0,-1,1112,729,0,0
-105,295,0,0,0,0,0,0,0,0,0,-1,1119,729,0,0
-98,295,0,0,0,0,0,0,0,0,0,-1,1126,729,0,0
-91,295,0,0,0,0,0,0,0,0,0,-1,1133,729,0,0
-84,295,0,0,0,0,0,0,0,0,0,-1,1140,729,0,0
-77,295,0,0,0,0,0,0,0,0,0,-1,1147,729,0,0
-70,295,0,0,0,0,0,0,0,0,0,-1,1154,729,0,0
-63,295,0,0,0,0,0,0,0,0,0,-1,1161,729,0,0
-56,295,0,0,0,0,0,0,0,0,0,-1,1168,729,0,0
-49,295,0,0,0,0,0,0,0,0,0,-1,1175,729,0,0
-42,295,0,0,0,0,0,0,0,0,0,-1,1182,729,0,0
-35,295,0,0,0,0,0,0,0,0,0,-1,1189,729,0,0
-28,295,0,0,0,0,0,0,0,0,0,-1,1196,729,0,0
-21,295,0,0,0,0,0,0,0,0,0,-1,1203,729,0,0
-14,295,0,0,0,0,0,0,0,0,0,-1,1210,729,0,0
-7,295,0,0,0,0,0,0,0,0,0,-1,1217,729,0,0
0,295,0,0,0,0,0,0,0,0,0,-1,1224,729,0,0
7,295,0,0,0,0,0,0,0,0,0,-1,1231,729,0,0
14,295,0,0,0,0,0,0,0,0,0,-1,1238,729,0,0
21,295,0,0,0,0,0,0,0,0,0,-1,1245,729,0,0
28,295,0,0,0,0,0,0,0,0,0,-1,1252,729,0,0
35,295,0,0,0,0,0,0,0,0,0,-1,1259,729,0,0
42,295,0,0,0,0,0,0,0,0,0,-1,1266,729,0,0
49,295,0,0,0,0,0,0,0,0,0,-1,1273,729,0,0
56,295,0,0,0,0,0,0,0,0,0,-1,1280,729,0,0
63,295,0,0,0,0,0,0,0,0,0,-1,1287,729,0,0
70,295,0,0,0,0,0,0,0,0,0,-1,1294,729,0,0
77,295,0,0,0,0,0,0,0,0,0,-1,1301,729,0,0
84,295,0,0,0,0,0,0,0,0,0,-1,1308,729,0,0
91,295,0,0,0,0,0,0,0,0,0,-1,1315,729,0,0
98,295,0,0,0,0,0,0,0,0,0,-1,1322,729,0,0
105,295,0,0,0,0,0,0,0,0,0,-1,1329,729,0,0
112,295,0,0,0,0,0,0,0,0,0,-1,1336,729,0,0
119,295,0,0,0,0,0,0,0,0,0,-1,1343,729,0,0
126,295,0,0,0,0,0,0,0,0,0,-1,1350,729,0,0
133,295,0,0,0,0,0,0,0,0,0,-1,1357,729,0,0
140,295,0,0,0,0,0,0,0,0,0,-1,1364,729,0,0
147,295,0,0,0,0,0,0,0,0,0,-1,1371,729,0,0
154,295,0,0,0,0,0,0,0,0,0,-1,1378,729,0,0
161,295,0,0,0,0,0,0,0,0,0,-1,1385,729,0,0
168,295,0,0,0,0,0,0,0,0,0,-1,1392,729,0,0
175,295,0,0,0,0,0,0,0,0,0,-1,1399,729,0,0
182,295,0,0,0,0,0,0,0,0,0,-1,1406,729,0,0
189,295,0,0,0,0,0,0,0,0,0,-1,1413,729,0,0
196,295,0,0,0,0,0,0,0,0,0,-1,1420,729,0,0
203,295,0,0,0,0,0,0,0,0,0,-1,1427,729,0,0
210,295,0,0,0,0,0,0,0,0,0,-1,1434,729,0,0
217,295,0,0,0,0,0,0,0,0,0,-1,1441,729,0,0
224,295,0,0,0,0,0,0,0,0,0,-1,1448,729,0,0
231,295,0,0,0,0,0,0,0,0,0,-1,1455,729,0,0
238,295,0,0,0,0,0,0,0,0,0,-1,1462,729,0,0
245,295,0,0,0,0,0,0,0,0,0,-1,1469,729,0,0
252,295,0,0,0,0,0,0,0,0,0,-1,1476,729,0,0
259,295,0,0,0,0,0,0,0,0,0,-1,1483,729,0,0
266,295,0,0,0,0,0,0,0,0,0,-1,1490,729,0,0
273,295,0,0,0,0,0,0,0,0,0,-1,1497,729,0,0
280,295,0,0,0,0,0,0,0,0,0,-1,1504,729,0,0
287,295,0,0,0,0,0,0,0,0,0,-1,1511,729,0,0
294,295,0,0,0,0,0,0,0,0,0,-1,1518,729,0,0
301,295,0,0,0,0,0,0,0,0,0,-1,1525,729,0,0
308,295,0,0,0,0,0,0,0,0,0,-1,1532,729,0,0
315,295,0,0,0,0,0,0,0,0,0,-1,1539,729,0,0
322,295,0,0,0,0,0,0,0,0,0,-1,1546,729,0,0
329,295,0,0,0,0,0,0,0,0,0,-1,1553,729,0,0
336,295,0,0,0,0,0,0,0,0,0,-1,1560,729,0,0
343,295,0,0,0,0,0,0,0,0,0,-1,1567,729,0,0
350,295,0,0,0,0,0,0,0,0,0,-1,1574,729,0,0
357,295,0,0,0,0,0,0,0,0,0,-1,1581,729,0,0
364,295,0,0,0,0,0,0,0,0,0,-1,1588,729,0,0
371,295,0,0,0,0,0,0,0,0,0,-1,1595,729,0,0
378,295,0,0,0,0,0,0,0,0,0,-1,1602,729,0,0
385,295,0,0,0,0,0,0,0,0,0,-1,1609,729,0,0
392,295,0,0,0,0,0,0,0,0,0,-1,1616,729,0,0
399,295,0,0,0,0,0,0,0,0,0,-1,1623,729,0,0
406,295,0,0,0,0,0,0,0,0,0,-1,1630,729,0,0
413,295,0,0,0,0,0,0,0,0,0,-1,1637,729,0,0
420,295,0,0,0,0,0,0,0,0,0,-1,1644,729,0,0
427,295,0,0,0,0,0,0,0,0,0,-1,1651,729,0,0
434,295,0,0,0,0,0,0,0,0,0,-1,1658,729,0,0
441,295,0,0,0,0,0,0,0,0,0,-1,1665,729,0,0
448,295,0,0,0,0,0,0,0,0,0,-1,1672,729,0,0
455,295,0,0,0,0,0,0,0,0,0,-1,1679,729,0,0
462,295,0,0,0,0,0,0,0,0,0,-1,1686,729,0,0
469,295,0,0,0,0,0,0,0,0,0,-1,1693,729,0,0
476,295,0,0,0,0,0,0,0,0,0,-1,1700,729,0,0
483,295,0,0,0,0,0,0,0,0,0,-1,1707,729,0,0
490,295,0,0,0,0,0,0,0,0,0,-1,1714,729,0,0
497,295,0,0,0,0,0,0,0,0,0,-1,1721,729,0,0
504,295,0,0,0,0,0,0,0,0,0,-1,1728,729,0,0
511,295,0,0,0,0,0,0,0,0,0,-1,1735,729,0,0
518,295,0,0,0,0,0,0,0,0,0,-1,1742,729,0,0
525,295,0,0,0,0,0,0,0,0,0,-1,1749,729,0,0
532,295,0,0,0,0,0,0,0,0,0,-1,1756,729,0,0
539,295,0,0,0,0,0,0,0,0,0,-1,1763,729,0,0
546,295,15.9927,1.69128,0.0741066,-0.0613688,-0.0169158,0.0761868,-0.063449,-0.12236,0.0807305,0.041602,1770,729,15.9927,-1.6913
553,295,16.5526,1.00903,0.0669395,-0.0451206,-0.004377,0.0671102,-0.0452913,-0.0389802,0.0653013,0.0431506,1777,729,16.5527,-1.00901
560,295,16.5178,0.734924,0,0,0,0,0,0,0,-1,1784,729,16.5178,-0.734906
567,295,16.4681,0.749329,0,0,0,0,0,0,0,-1,1791,729,16.4681,-0.749355
574,295,16.6852,0.731873,0,0,0,0,0,0,0,-1,1798,729,16.6852,-0.731863
581,295,16.5249,1.42737,0.0397455,-0.0153578,0.0158932,0.0440009,-0.0196132,0.261612,0.0376165,0.0461181,1805,729,16.5249,-1.42739
588,295,16.256,1.72021,0.0333406,-0.0125072,0.0152355,0.0379416,-0.0171083,0.293289,0.0325329,0.0436912,1812,729,16.256,-1.72021
595,295,16.145,2.17731,0.0275804,-0.0106596,0.0141066,0.0322211,-0.0153003,0.317822,0.0280102,0.0427055,1819,729,16.1451,-2.17733
602,295,16.1548,2.79431,0,0,0,0,0,0,0,-1,1826,729,16.1548,-2.79429
609,295,11.7737,2.19989,0,0,0,0,0,0,0,-1,1833,729,11.7736,-2.19988
616,295,10.0275,0.237915,0,0,0,0,0,0,0,-1,1840,729,10.0275,-0.237937
623,295,9.99951,0.426331,0.00817025,-0.00291234,0.00638946,0.0110866,-0.00582865,0.428185,0.00992203,0.0258089,1847,729,9.99956,-0.426341
630,295,9.95203,0.635742,0.00504354,-0.00347056,0.00393308,0.00658232,-0.00500934,0.372931,0.00671295,0.0111734,1854,729,9.95202,-0.635743
637,295,9.95569,0.814453,0.00300894,-0.0031662,0.00100099,0.00316715,-0.00332441,0.156754,0.00374827,0.012377,1861,729,9.95566,-0.81446
644,295,9.97412,0.981567,0.0014865,-0.00273362,-0.00104573,0.00173141,-0.00297853,-0.230057,0.00275088,0.0115497,1868,729,9.9741,-0.981596
651,295,9.99512,1.16394,0.000814869,-0.00235927,-0.00229514,0.00201822,-0.00356262,-0.482901,0.00326297,0.0117264,1875,729,9.9951,-1.16397
658,295,9.98389,1.35962,0.00155889,-0.0020315,-0.00212196,0.00254316,-0.00301577,-0.434312,0.00321331,0.0118958,1882,729,9.98391,-1.35961
665,295,9.97827,1.53632,0.0038475,-0.0010203,-0.00192191,0.00451482,-0.00168763,-0.334197,0.00370292,0.0113657,1889,729,9.97827,-1.53632
672,295,9.98022,1.68939,0.00660148,-0.000165431,-0.00197242,0.00713443,-0.000698378,-0.263898,0.00500535,0.0129024,1896,729,9.9802,-1.68939
679,295,9.96826,1.87042,0.0105918,0.000517739,-0.00210073,0.0110123,9.72319e-05,-0.197561,0.00730936,0.00984571,1903,729,9.96821,-1.87042
686,295,9.99084,2.04706,0.0161311,0.0014251,-0.00182913,0.0163552,0.00120101,-0.121905,0.010526,0.00904177,1910,729,9.99083,-2.04708
693,295,10.0195,2.18689,0.0228663,0.00255579,-0.00222347,0.0231069,0.00231523,-0.107773,0.0146938,0.0190983,1917,729,10.0196,-2.18687
700,295,10.1969,2.24707,0.0317832,0.00425487,-0.00268371,0.0320423,0.00399567,-0.0962814,0.0201621,0.0311002,1924,729,10.1969,-2.24708
707,295,10.4557,2.67303,0.0433071,0.0067983,-0.00302825,0.0435566,0.00654882,-0.0821972,0.0271197,0.0384251,1931,729,10.4557,-2.67302
714,295,12.0082,2.52087,0.0580006,0.0104036,-0.00319067,0.0582135,0.0101907,-0.0666378,0.0358976,0.0445771,1938,729,12.0082,-2.52084
721,295,12.4111,2.76215,0.0765056,0.0153693,-0.00290921,0.0766437,0.0152311,-0.0474427,0.0468514,0.0494518,1945,729,12.4111,-2.76218
728,295,12.7638,2.98389,0,0,0,0,0,0,0,-1,1952,729,12.7638,-2.98387
735,295,0,0,0,0,0,0,0,0,0,-1,1959,729,0,0
742,295,0,0,0,0,0,0,0,0,0,-1,1966,729,0,0
749,295,0,0,0,0,0,0,0,0,0,-1,1973,729,0,0
756,295,0,0,0,0,0,0,0,0,0,-1,1980,729,0,0
763,295,0,0,0,0,0,0,0,0,0,-1,1987,729,0,0
770,295,0,0,0,0,0,0,0,0,0,-1,1994,729,0,0
777,295,0,0,0,0,0,0,0,0,0,-1,2001,729,0,0
784,295,0,0,0,0,0,0,0,0,0,-1,2008,729,0,0
791,295,0,0,0,0,0,0,0,0,0,-1,2015,729,0,0
798,295,0,0,0,0,0,0,0,0,0,-1,2022,729,0,0
805,295,0,0,0,0,0,0,0,0,0,-1,2029,729,0,0
812,295,0,0,0,0,0,0,0,0,0,-1,2036,729,0,0
-700,288,0,0,0,0,0,0,0,0,0,-1,524,736,0,0
-693,288,0,0,0,0,0,0,0,0,0,-1,531,736,0,0
-686,288,0,0,0,0,0,0,0,0,0,-1,538,736,0,0
-679,288,0,0,0,0,0,0,0,0,0,-1,545,736,0,0
-672,288,0,0,0,0,0,0,0,0,0,-1,552,736,0,0
-665,288,0,0,0,0,0,0,0,0,0,-1,559,736,0,0
-658,288,0,0,0,0,0,0,0,0,0,-1,566,736,0,0
-651,288,0,0,0,0,0,0,0,0,0,-1,573,736,0,0
-644,288,0,0,0,0,0,0,0,0,0,-1,580,736,0,0
-637,288,0,0,0,0,0,0,0,0,0,-1,587,736,0,0
-630,288,0,0,0,0,0,0,0,0,0,-1,594,736,0,0
-623,288,0,0,0,0,0,0,0,0,0,-1,601,736,0,0
-616,288,-4.48444,2.45593,0,0,0,0,0,0,0,-1,608,736,-4.48443,-2.45591
-609,288,-4.4975,1.9845,0,0,0,0,0,0,0,-1,615,736,-4.49752,-1.98448
-602,288,-4.51215,1.65808,0,0,0,0,0,0,0,-1,622,736,-4.51212,-1.6581
-595,288,-4.36658,1.48999,0,0,0,0,0,0,0,-1,629,736,-4.36658,-1.48999
-588,288,-4.63446,-0.648804,0,0,0,0,0,0,0,-1,636,736,-4.63444,0.648783
-581,288,-5.42981,0.13446,0,0,0,0,0,0,0,-1,643,736,-5.42981,-0.134455
-574,288,-5.13593,0.26123,0,0,0,0,0,0,0,-1,650,736,-5.13592,-0.26125
-567,288,-5.2052,0.327393,0.0105595,-0.00536765,0.0130381,0.0178737,-0.0126818,0.511239,0.0177259,0.0225832,657,736,-5.2052,-0.327396
-560,288,-5.28265,0.212585,0.00695971,-0.00438973,0.0102646,0.0130137,-0.0104438,0.532885,0.0135703,0.0124333,664,736,-5.28263,-0.212596
-553,288,-5.2619,0.112915,0.00390284,-0.00331684,0.00736898,0.00849866,-0.00791265,0.557643,0.00947709,0.0161011,671,736,-5.2619,-0.112914
-546,288,-5.2616,-0.00982666,0.000873849,-0.00226109,0.00520733,0.00474451,-0.00613175,0.639206,0.00629642,0.0175037,678,736,-5.26158,0.00983451
-539,288,-5.27551,-0.171753,-0.000244467,-0.00146586,0.00360071,0.00279697,-0.00450729,0.701395,0.00425548,0.0155755,685,736,-5.2755,0.17175
-532,288,-5.28033,-0.366272,-0.000532868,-0.000148131,0.00276309,0.00242928,-0.00311028,0.820152,0.00320631,0.0123703,692,736,-5.28031,0.366286
-525,288,-5.2796,-0.527832,-0.000948611,0.0022938,0.003068,0.00414259,-0.00279741,1.02846,0.00403183,0.0118892,699,736,-5.27959,0.527848
-518,288,-5.26837,-0.683594,-0.00158759,0.00453822,0.00388263,0.00642064,-0.00347001,1.11936,0.00579445,0.0109637,706,736,-5.26835,0.683564
-511,288,-5.25671,-0.841248,-0.00256917,0.00736299,0.00525461,0.00962691,-0.00483309,1.16399,0.00850003,0.00772763,713,736,-5.25673,0.841274
-504,288,-5.27527,-1.01154,-0.00467154,0.0106488,0.00747308,0.0136903,-0.00771302,1.18428,0.0125168,0.00973334,720,736,-5.27525,1.01153
-497,288,-5.27234,-1.1452,-0.00767503,0.0150779,0.01027,0.0190278,-0.0116249,1.20363,0.0178685,0.0188657,727,736,-5.27235,1.14523
-490,288,-5.39966,-0.760681,-0.0117486,0.0219026,0.0138417,0.0268644,-0.0167104,1.22659,0.0253846,0.04312,734,736,-5.39964,0.760655
-483,288,-5.65991,-0.241882,0,0,0,0,0,0,0,-1,741,736,-5.65993,0.241904
-476,288,-6.33551,1.05481,-0.0232622,0.0364191,0.0220504,0.0436822,-0.0305252,1.2526,0.0430675,0.0417018,748,736,-6.33554,-1.05483
-469,288,-6.58978,1.91248,-0.0315405,0.0448121,0.026704,0.0532248,-0.0399532,1.2656,0.0539779,0.0480963,755,736,-6.5898,-1.91249
-462,288,-6.70984,2.5567,0,0,0,0,0,0,0,-1,762,736,-6.70987,-2.55673
-455,288,-6.69781,2.30933,-0.0539674,0.0637715,0.0367237,0.0742868,-0.0644827,1.29192,0.0801852,0.0451305,769,736,-6.69783,-2.30935
-448,288,-7.1665,2.63208,-0.0689589,0.0746694,0.0419443,0.0860213,-0.0803108,1.30649,0.0960507,0.0454945,776,736,-7.1665,-2.63207
-441,288,-7.62317,2.90613,-0.0879052,0.0860617,0.0480916,0.0984711,-0.100314,1.31827,0.114771,0.0466958,783,736,-7.62318,-2.90612
-434,288,-8.06256,3.15631,0,0,0,0,0,0,0,-1,790,736,-8.06255,-3.1563
-427,288,0,0,0,0,0,0,0,0,0,-1,797,736,0,0
-420,288,0,0,0,0,0,0,0,0,0,-1,804,736,0,0
-413,288,0,0,0,0,0,0,0,0,0,-1,811,736,0,0
-406,288,0,0,0,0,0,0,0,0,0,-1,818,736,0,0
-399,288,0,0,0,0,0,0,0,0,0,-1,825,736,0,0
-392,288,0,0,0,0,0,0,0,0,0,-1,832,736,0,0
-385,288,0,0,0,0,0,0,0,0,0,-1,839,736,0,0
-378,288,0,0,0,0,0,0,0,0,0,-1,846,736,0,0
-371,288,0,0,0,0,0,0,0,0,0,-1,853,736,0,0
-364,288,0,0,0,0,0,0,0,0,0,-1,860,736,0,0
-357,288,0,0,0,0,0,0,0,0,0,-1,867,736,0,0
-350,288,0,0,0,0,0,0,0,0,0,-1,874,736,0,0
-343,288,0,0,0,0,0,0,0,0,0,-1,881,736,0,0
-336,288,0,0,0,0,0,0,0,0,0,-1,888,736,0,0
-329,288,0,0,0,0,0,0,0,0,0,-1,895,736,0,0
-322,288,0,0,0,0,0,0,0,0,0,-1,902,736,0,0
-315,288,0,0,0,0,0,0,0,0,0,-1,909,736,0,0
-308,288,0,0,0,0,0,0,0,0,0,-1,916,736,0,0
-301,288,0,0,0,0,0,0,0,0,0,-1,923,736,0,0
-294,288,0,0,0,0,0,0,0,0,0,-1,930,736,0,0
-287,288,0,0,0,0,0,0,0,0,0,-1,937,736,0,0
-280,288,0,0,0,0,0,0,0,0,0,-1,944,736,0,0
-273,288,0,0,0,0,0,0,0,0,0,-1,951,736,0,0
-266,288,0,0,0,0,0,0,0,0,0,-1,958,736,0,0
-259,288,0,0,0,0,0,0,0,0,0,-1,965,736,0,0
-252,288,0,0,0,0,0,0,0,0,0,-1,972,736,0,0
-245,288,0,0,0,0,0,0,0,0,0,-1,979,736,0,0
-238,288,0,0,0,0,0,0,0,0,0,-1,986,736,0,0
-231,288,0,0,0,0,0,0,0,0,0,-1,993,736,0,0
-224,288,0,0,0,0,0,0,0,0,0,-1,1000,736,0,0
-217,288,0,0,0,0,0,0,0,0,0,-1,1007,736,0,0
-210,288,0,0,0,0,0,0,0,0,0,-1,1014,736,0,0
-203,288,0,0,0,0,0,0,0,0,0,-1,1021,736,0,0
-196,288,0,0,0,0,0,0,0,0,0,-1,1028,736,0,0
-189,288,0,0,0,0,0,0,0,0,0,-1,1035,736,0,0
-182,288,0,0,0,0,0,0,0,0,0,-1,1042,736,0,0
-175,288,0,0,0,0,0,0,0,0,0,-1,1049,736,0,0
-168,288,0,0,0,0,0,0,0,0,0,-1,1056,736,0,0
-161,288,0,0,0,0,0,0,0,0,0,-1,1063,736,0,0
-154,288,0,0,0,0,0,0,0,0,0,-1,1070,736,0,0
-147,288,0,0,0,0,0,0,0,0,0,-1,1077,736,0,0
-140,288,0,0,0,0,0,0,0,0,0,-1,1084,736,0,0
-133,288,0,0,0,0,0,0,0,0,0,-1,1091,736,0,0
-126,288,0,0,0,0,0,0,0,0,0,-1,1098,736,0,0
-119,288,0,0,0,0,0,0,0,0,0,-1,1105,736,0,0
-112,288,0,0,0,0,0,0,0,0,0,-1,1112,736,0,0
-105,288,0,0,0,0,0,0,0,0,0,-1,1119,736,0,0
-98,288,0,0,0,0,0,0,0,0,0,-1,1126,736,0,0
-91,288,0,0,0,0,0,0,0,0,0,-1,1133,736,0,0
-84,288,0,0,0,0,0,0,0,0,0,-1,1140,736,0,0
-77,288,0,0,0,0,0,0,0,0,0,-1,1147,736,0,0
-70,288,0,0,0,0,0,0,0,0,0,-1,1154,736,0,0
-63,288,0,0,0,0,0,0,0,0,0,-1,1161,736,0,0
-56,288,0,0,0,0,0,0,0,0,0,-1,1168,736,0,0
-49,288,0,0,0,0,0,0,0,0,0,-1,1175,736,0,0
-42,288,0,0,0,0,0,0,0,0,0,-1,1182,736,0,0
-35,288,0,0,0,0,0,0,0,0,0,-1,1189,736,0,0
-28,288,0,0,0,0,0,0,0,0,0,-1,1196,736,0,0
-21,288,0,0,0,0,0,0,0,0,0,-1,1203,736,0,0
-14,288,0,0,0,0,0,0,0,0,0,-1,1210,736,0,0
-7,288,0,0,0,0,0,0,0,0,0,-1,1217,736,0,0
0,288,0,0,0,0,0,0,0,0,0,-1,1224,736,0,0
7,288,0,0,0,0,0,0,0,0,0,-1,1231,736,0,0
14,288,0,0,0,0,0,0,0,0,0,-1,1238,736,0,0
21,288,0,0,0,0,0,0,0,0,0,-1,1245,736,0,0
28,288,0,0,0,0,0,0,0,0,0,-1,1252,736,0,0
35,288,0,0,0,0,0,0,0,0,0,-1,1259,736,0,0
42,288,0,0,0,0,0,0,0,0,0,-1,1266,736,0,0
49,288,0,0,0,0,0,0,0,0,0,-1,1273,736,0,0
56,288,0,0,0,0,0,0,0,0,0,-1,1280,736,0,0
63,288,0,0,0,0,0,0,0,0,0,-1,1287,736,0,0
70,288,0,0,0,0,0,0,0,0,0,-1,1294,736,0,0
77,288,0,0,0,0,0,0,0,0,0,-1,1301,736,0,0
84,288,0,0,0,0,0,0,0,0,0,-1,1308,736,0,0
91,288,0,0,0,0,0,0,0,0,0,-1,1315,736,0,0
98,288,0,0,0,0,0,0,0,0,0,-1,1322,736,0,0
105,288,0,0,0,0,0,0,0,0,0,-1,1329,736,0,0
112,288,0,0,0,0,0,0,0,0,0,-1,1336,736,0,0
119,288,0,0,0,0,0,0,0,0,0,-1,1343,736,0,0
126,288,0,0,0,0,0,0,0,0,0,-1,1350,736,0,0
133,288,0,0,0,0,0,0,0,0,0,-1,1357,736,0,0
140,288,0,0,0,0,0,0,0,0,0,-1,1364,736,0,0
147,288,0,0,0,0,0,0,0,0,0,-1,1371,736,0,0
154,288,0,0,0,0,0,0,0,0,0,-1,1378,736,0,0
161,288,0,0,0,0,0,0,0,0,0,-1,1385,736,0,0
168,288,0,0,0,0,0,0,0,0,0,-1,1392,736,0,0
175,288,0,0,0,0,0,0,0,0,0,-1,1399,736,0,0
182,288,0,0,0,0,0,0,0,0,0,-1,1406,736,0,0
189,288,0,0,0,0,0,0,0,0,0,-1,1413,736,0,0
196,288,0,0,0,0,0,0,0,0,0,-1,1420,736,0,0
203,288,0,0,0,0,0,0,0,0,0,-1,1427,736,0,0
210,288,0,0,0,0,0,0,0,0,0,-1,1434,736,0,0
217,288,0,0,0,0,0,0,0,0,0,-1,1441,736,0,0
224,288,0,0,0,0,0,0,0,0,0,-1,1448,736,0,0
231,288,0,0,0,0,0,0,0,0,0,-1,1455,736,0,0
238,288,0,0,0,0,0,0,0,0,0,-1,1462,736,0,0
245,288,0,0,0,0,0,0,0,0,0,-1,1469,736,0,0
252,288,0,0,0,0,0,0,0,0,0,-1,1476,736,0,0
259,288,0,0,0,0,0,0,0,0,0,-1,1483,736,0,0
266,288,0,0,0,0,0,0,0,0,0,-1,1490,736,0,0
273,288,0,0,0,0,0,0,0,0,0,-1,1497,736,0,0
280,288,0,0,0,0,0,0,0,0,0,-1,1504,736,0,0
287,288,0,0,0,0,0,0,0,0,0,-1,1511,736,0,0
294,288,0,0,0,0,0,0,0,0,0,-1,1518,736,0,0
301,288,0,0,0,0,0,0,0,0,0,-1,1525,736,0,0
308,288,0,0,0,0,0,0,0,0,0,-1,1532,736,0,0
315,288,0,0,0,0,0,0,0,0,0,-1,1539,736,0,0
322,288,0,0,0,0,0,0,0,0,0,-1,1546,736,0,0
329,288,0,0,0,0,0,0,0,0,0,-1,1553,736,0,0
336,288,0,0,0,0,0,0,0,0,0,-1,1560,736,0,0
343,288,0,0,0,0,0,0,0,0,0,-1,1567,736,0,0
350,288,0,0,0,0,0,0,0,0,0,-1,1574,736,0,0
357,288,0,0,0,0,0,0,0,0,0,-1,1581,736,0,0
364,288,0,0,0,0,0,0,0,0,0,-1,1588,736,0,0
371,288,0,0,0,0,0,0,0,0,0,-1,1595,736,0,0
378,288,0,0,0,0,0,0,0,0,0,-1,1602,736,0,0
385,288,0,0,0,0,0,0,0,0,0,-1,1609,736,0,0
392,288,0,0,0,0,0,0,0,0,0,-1,1616,736,0,0
399,288,0,0,0,0,0,0,0,0,0,-1,1623,736,0,0
406,288,0,0,0,0,0,0,0,0,0,-1,1630,736,0,0
413,288,0,0,0,0,0,0,0,0,0,-1,1637,736,0,0
420,288,0,0,0,0,0,0,0,0,0,-1,1644,736,0,0
427,288,0,0,0,0,0,0,0,0,0,-1,1651,736,0,0
434,288,0,0,0,0,0,0,0,0,0,-1,1658,736,0,0
441,288,0,0,0,0,0,0,0,0,0,-1,1665,736,0,0
448,288,0,0,0,0,0,0,0,0,0,-1,1672,736,0,0
455,288,0,0,0,0,0,0,0,0,0,-1,1679,736,0,0
462,288,0,0,0,0,0,0,0,0,0,-1,1686,736,0,0
469,288,0,0,0,0,0,0,0,0,0,-1,1693,736,0,0
476,288,0,0,0,0,0,0,0,0,0,-1,1700,736,0,0
483,288,0,0,0,0,0,0,0,0,0,-1,1707,736,0,0
490,288,0,0,0,0,0,0,0,0,0,-1,1714,736,0,0
497,288,0,0,0,0,0,0,0,0,0,-1,1721,736,0,0
504,288,0,0,0,0,0,0,0,0,0,-1,1728,736,0,0
511,288,0,0,0,0,0,0,0,0,0,-1,1735,736,0,0
518,288,0,0,0,0,0,0,0,0,0,-1,1742,736,0,0
525,288,0,0,0,0,0,0,0,0,0,-1,1749,736,0,0
532,288,0,0,0,0,0,0,0,0,0,-1,1756,736,0,0
539,288,0,0,0,0,0,0,0,0,0,-1,1763,736,0,0
546,288,0,0,0,0,0,0,0,0,0,-1,1770,736,0,0
553,288,15.8417,1.64807,0.0597538,-0.055583,-0.0163395,0.0620239,-0.0578531,-0.138049,0.069225,0.0402598,1777,736,15.8417,-1.64805
560,288,16.1772,1.24451,0.0560151,-0.0387977,-0.00156534,0.0560409,-0.0388236,-0.0165038,0.0550699,0.040738,1784,736,16.1772,-1.24452
567,288,16.1195,0.95459,0.0511722,-0.0268641,0.00925699,0.0522553,-0.0279472,0.116471,0.0470085,0.0445513,1791,736,16.1195,-0.954617
574,288,15.8588,0.826355,0,0,0,0,0,0,0,-1,1798,736,15.8587,-0.82636
581,288,15.7488,1.29108,0.0391987,-0.0160723,0.0147135,0.0428715,-0.0197451,0.244621,0.0369645,0.0475021,1805,736,15.7488,-1.29107
588,288,15.558,1.76447,0.0333485,-0.0128842,0.0142813,0.0374042,-0.01694,0.276703,0.0321086,0.0419707,1812,736,15.5579,-1.76449
595,288,15.4766,2.07098,0.0280321,-0.0107768,0.013167,0.0320777,-0.0148223,0.298093,0.0276819,0.0419307,1819,736,15.4765,-2.07101
602,288,15.9103,2.78998,0.0228664,-0.00807977,0.012147,0.0270647,-0.0122782,0.332777,0.0232432,0.0438839,1826,736,15.9103,-2.78998
609,288,16.4095,3.87427,0,0,0,0,0,0,0,-1,1833,736,16.4096,-3.87429
616,288,10.5442,0.635864,0,0,0,0,0,0,0,-1,1840,736,10.5442,-0.635887
623,288,10.3301,0.697388,0.0100063,-0.00345031,0.00526444,0.0118211,-0.0052651,0.331969,0.0101039,0.0464769,1847,736,10.3301,-0.697394
630,288,10.1381,0.660645,0.00662886,-0.00415049,0.00300303,0.00740902,-0.00493065,0.25417,0.00717204,0.0183652,1854,736,10.1381,-0.660643
637,288,10.1466,0.814331,0.00416206,-0.00385957,0.000183028,0.00416623,-0.00386375,0.022801,0.00463721,0.00942501,1861,736,10.1467,-0.814328
644,288,10.176,0.988098,0.00201375,-0.00342808,-0.00179738,0.00255381,-0.00396814,-0.291889,0.00379485,0.00900682,1868,736,10.1761,-0.988102
651,288,10.1659,1.1604,0.000677637,-0.00299239,-0.00299438,0.00235454,-0.00466929,-0.510502,0.00412796,0.0100807,1875,736,10.1659,-1.16038
658,288,10.1559,1.35693,0.000803715,-0.00254483,-0.00260225,0.00222378,-0.0039649,-0.49954,0.00361986,0.0155578,1882,736,10.1558,-1.35694
665,288,10.1509,1.51495,0.00255758,-0.00139912,-0.00203644,0.00341842,-0.00225996,-0.399933,0.00330107,0.0165015,1889,736,10.1509,-1.51496
672,288,10.1591,1.68304,0.00472376,-0.000467308,-0.00179615,0.00528464,-0.00102819,-0.302673,0.00391113,0.0142513,1896,736,10.159,-1.68307
679,288,10.1594,1.88257,0.00812867,0.000307145,-0.00159313,0.00844072,-4.90388e-06,-0.193423,0.00562878,0.0114897,1903,736,10.1594,-1.88259
686,288,10.1716,2.03162,0.0130785,0.00126462,-0.000873902,0.0131428,0.00120033,-0.0734396,0.00839044,0.00880942,1910,736,10.1716,-2.03161
693,288,10.189,2.19153,0.0188993,0.00225087,-0.000839792,0.0189416,0.00220862,-0.0502725,0.0119597,0.0112566,1917,736,10.189,-2.19155
700,288,10.184,2.30829,0.026487,0.00347857,-0.000823119,0.0265164,0.00344916,-0.0357139,0.0166474,0.0214566,1924,736,10.1839,-2.3083
707,288,10.1924,2.78815,0.0362682,0.00518693,-0.000600853,0.0362798,0.00517532,-0.019322,0.0226593,0.0335282,1931,736,10.1923,-2.78814
714,288,12.9402,2.21973,0,0,0,0,0,0,0,-1,1938,736,12.9402,-2.21975
721,288,13.0122,2.51392,0.0646227,0.0106708,0.0012417,0.0646513,0.0106422,0.0229988,0.0400279,0.046779,1945,736,13.0122,-2.51389
728,288,13.4325,2.74835,0.0839792,0.0144164,0.00338962,0.084144,0.0142516,0.0485741,0.0520006,0.0476982,1952,736,13.4325,-2.74833
735,288,14.1078,2.97913,0,0,0,0,0,0,0,-1,1959,736,14.1078,-2.97914
742,288,0,0,0,0,0,0,0,0,0,-1,1966,736,0,0
749,288,0,0,0,0,0,0,0,0,0,-1,1973,736,0,0
756,288,0,0,0,0,0,0,0,0,0,-1,1980,736,0,0
763,288,0,0,0,0,0,0,0,0,0,-1,1987,736,0,0
770,288,0,0,0,0,0,0,0,0,0,-1,1994,736,0,0
777,288,0,0,0,0,0,0,0,0,0,-1,2001,736,0,0
784,288,0,0,0,0,0,0,0,0,0,-1,2008,736,0,0
791,288,0,0,0,0,0,0,0,0,0,-1,2015,736,0,0
798,288,0,0,0,0,0,0,0,0,0,-1,2022,736,0,0
805,288,0,0,0,0,0,0,0,0,0,-1,2029,736,0,0
812,288,0,0,0,0,0,0,0,0,0,-1,2036,736,0,0
-700,281,0,0,0,0,0,0,0,0,0,-1,524,743,0,0
-693,281,0,0,0,0,0,0,0,0,0,-1,531,743,0,0
-686,281,0,0,0,0,0,0,0,0,0,-1,538,743,0,0
-679,281,0,0,0,0,0,0,0,0,0,-1,545,743,0,0
-672,281,0,0,0,0,0,0,0,0,0,-1,552,743,0,0
-665,281,0,0,0,0,0,0,0,0,0,-1,559,743,0,0
-658,281,0,0,0,0,0,0,0,0,0,-1,566,743,0,0
-651,281,0,0,0,0,0,0,0,0,0,-1,573,743,0,0
-644,281,0,0,0,0,0,0,0,0,0,-1,580,743,0,0
-637,281,0,0,0,0,0,0,0,0,0,-1,587,743,0,0
-630,281,0,0,0,0,0,0,0,0,0,-1,594,743,0,0
-623,281,-4.61847,3.21552,0,0,0,0,0,0,0,-1,601,743,-4.61847,-3.2155
-616,281,-4.62433,2.7666,0,0,0,0,0,0,0,-1,608,743,-4.62433,-2.76663
-609,281,-4.62323,2.34399,0,0,0,0,0,0,0,-1,615,743,-4.62321,-2.344
-602,281,-8.4754,-1.95685,0,0,0,0,0,0,0,-1,622,743,-8.47538,1.95686
-595,281,-4.56122,1.44666,0,0,0,0,0,0,0,-1,629,743,-4.56123,-1.44667
-588,281,-5.52545,0.663574,0,0,0,0,0,0,0,-1,636,743,-5.52544,-0.663561
-581,281,-5.45636,0.554382,0.0181282,-0.00412404,0.0168986,0.0272345,-0.0132304,0.494267,0.0238242,0.0479904,643,743,-5.45637,-0.554395
-574,281,-5.3562,0.475342,0.0115003,-0.00428772,0.0138589,0.0195557,-0.0123432,0.526516,0.0185731,0.0264453,650,743,-5.35618,-0.475346
-567,281,-5.43195,0.373474,0.00705878,-0.00426717,0.0109213,0.013698,-0.0109064,0.54622,0.0142358,0.0124873,657,743,-5.43195,-0.373493
-560,281,-5.44458,0.237976,0.00448308,-0.00402139,0.00878235,0.00998846,-0.00952678,0.559942,0.0112682,0.00843955,664,743,-5.44457,-0.238006
-553,281,-5.40906,0.111206,0.00206967,-0.00343408,0.0063398,0.00622908,-0.00759349,0.580637,0.00799342,0.0129463,671,743,-5.40905,-0.111214
-546,281,-5.39832,-0.0331421,-0.000314173,-0.0027032,0.00451347,0.00316018,-0.00617755,0.656036,0.00548416,0.0143507,678,743,-5.39832,0.0331121
-539,281,-5.41425,-0.201111,-0.00115834,-0.00188029,0.00315153,0.00165282,-0.00469146,0.728377,0.00380033,0.0134677,685,743,-5.41424,0.201131
-532,281,-5.43494,-0.367188,-0.00134434,-0.000409107,0.0025595,0.00172515,-0.00347859,0.875751,0.00306071,0.0123015,692,743,-5.43495,0.367185
-525,281,-5.43756,-0.520874,-0.00165592,0.00249104,0.00297772,0.00404608,-0.00321096,1.08953,0.00419909,0.0135942,699,743,-5.43756,0.520894
-518,281,-5.41895,-0.688293,-0.00220238,0.00512361,0.00380139,0.00673964,-0.00381841,1.16883,0.00617298,0.0119362,706,743,-5.41896,0.688324
-511,281,-5.41412,-0.859314,-0.00309541,0.0084937,0.00518101,0.0104722,-0.00507387,1.20602,0.0091541,0.0101023,713,743,-5.41414,0.859337
-504,281,-5.4436,-1.03027,-0.00502473,0.0123785,0.00743033,0.0151193,-0.00776549,1.21742,0.013438,0.0122212,720,743,-5.44362,1.0303
-497,281,-5.38782,-1.25116,-0.00769879,0.0173716,0.0102504,0.0210291,-0.0113563,1.22807,0.0189737,0.0328447,727,743,-5.3878,1.25118
-490,281,-5.5376,-0.958191,-0.011462,0.0246877,0.0138513,0.0293848,-0.016159,1.24386,0.0266617,0.0422273,734,743,-5.53758,0.958184
-483,281,-5.89551,-0.356567,-0.0161511,0.0320966,0.0178574,0.0379869,-0.0220413,1.25218,0.0350625,0.0429914,741,743,-5.89548,0.356552
-476,281,-6.15826,0.496521,-0.0224914,0.0402898,0.0223637,0.0474414,-0.029643,1.26129,0.0448984,0.0456883,748,743,-6.15825,-0.496536
-469,281,-6.48926,1.21307,-0.0307456,0.0490905,0.0272853,0.0575247,-0.0391798,1.271,0.0561662,0.0466538,755,743,-6.48927,-1.21308
-462,281,-6.724,1.82758,-0.0411565,0.058378,0.0325388,0.0680713,-0.0508498,1.28127,0.0688987,0.0457663,762,743,-6.72402,-1.8276
-455,281,-7.35553,1.98969,-0.0538078,0.0681882,0.0379119,0.0790099,-0.0646295,1.29275,0.0830686,0.041769,769,743,-7.35551,-1.98971
-448,281,-7.88129,2.31012,-0.0693158,0.0785338,0.0432929,0.0902778,-0.0810598,1.3059,0.0989695,0.0432646,776,743,-7.88128,-2.31011
-441,281,-8.638,1.8432,-0.0890247,0.0883154,0.0496473,0.101268,-0.101978,1.31559,0.117344,0.0421583,783,743,-8.63798,-1.84317
-434,281,0,0,0,0,0,0,0,0,0,-1,790,743,0,0
-427,281,0,0,0,0,0,0,0,0,0,-1,797,743,0,0
-420,281,0,0,0,0,0,0,0,0,0,-1,804,743,0,0
-413,281,0,0,0,0,0,0,0,0,0,-1,811,743,0,0
-406,281,0,0,0,0,0,0,0,0,0,-1,818,743,0,0
-399,281,0,0,0,0,0,0,0,0,0,-1,825,743,0,0
-392,281,0,0,0,0,0,0,0,0,0,-1,832,743,0,0
-385,281,0,0,0,0,0,0,0,0,0,-1,839,743,0,0
-378,281,0,0,0,0,0,0,0,0,0,-1,846,743,0,0
-371,281,0,0,0,0,0,0,0,0,0,-1,853,743,0,0
-364,281,0,0,0,0,0,0,0,0,0,-1,860,743,0,0
-357,281,0,0,0,0,0,0,0,0,0,-1,867,743,0,0
-350,281,0,0,0,0,0,0,0,0,0,-1,874,743,0,0
-343,281,0,0,0,0,0,0,0,0,0,-1,881,743,0,0
-336,281,0,0,0,0,0,0,0,0,0,-1,888,743,0,0
-329,281,0,0,0,0,0,0,0,0,0,-1,895,743,0,0
-322,281,0,0,0,0,0,0,0,0,0,-1,902,743,0,0
-315,281,0,0,0,0,0,0,0,0,0,-1,909,743,0,0
-308,281,0,0,0,0,0,0,0,0,0,-1,916,743,0,0
-301,281,0,0,0,0,0,0,0,0,0,-1,923,743,0,0
-294,281,0,0,0,0,0,0,0,0,0,-1,930,743,0,0
-287,281,0,0,0,0,0,0,0,0,0,-1,937,743,0,0
-280,281,0,0,0,0,0,0,0,0,0,-1,944,743,0,0
-273,281,0,0,0,0,0,0,0,0,0,-1,951,743,0,0
-266,281,0,0,0,0,0,0,0,0,0,-1,958,743,0,0
-259,281,0,0,0,0,0,0,0,0,0,-1,965,743,0,0
-252,281,0,0,0,0,0,0,0,0,0,-1,972,743,0,0
-245,281,0,0,0,0,0,0,0,0,0,-1,979,743,0,0
-238,281,0,0,0,0,0,0,0,0,0,-1,986,743,0,0
-231,281,0,0,0,0,0,0,0,0,0,-1,993,743,0,0
-224,281,0,0,0,0,0,0,0,0,0,-1,1000,743,0,0
-217,281,0,0,0,0,0,0,0,0,0,-1,1007,743,0,0
-210,281,0,0,0,0,0,0,0,0,0,-1,1014,743,0,0
-203,281,0,0,0,0,0,0,0,0,0,-1,1021,743,0,0
-196,281,0,0,0,0,0,0,0,0,0,-1,1028,743,0,0
-189,281,0,0,0,0,0,0,0,0,0,-1,1035,743,0,0
-182,281,0,0,0,0,0,0,0,0,0,-1,1042,743,0,0
-175,281,0,0,0,0,0,0,0,0,0,-1,1049,743,0,0
-168,281,0,0,0,0,0,0,0,0,0,-1,1056,743,0,0
-161,281,0,0,0,0,0,0,0,0,0,-1,1063,743,0,0
-154,281,0,0,0,0,0,0,0,0,0,-1,1070,743,0,0
-147,281,0,0,0,0,0,0,0,0,0,-1,1077,743,0,0
-140,281,0,0,0,0,0,0,0,0,0,-1,1084,743,0,0
-133,281,0,0,0,0,0,0,0,0,0,-1,1091,743,0,0
-126,281,0,0,0,0,0,0,0,0,0,-1,1098,743,0,0
-119,281,0,0,0,0,0,0,0,0,0,-1,1105,743,0,0
-112,281,0,0,0,0,0,0,0,0,0,-1,1112,743,0,0
-105,281,0,0,0,0,0,0,0,0,0,-1,1119,743,0,0
-98,281,0,0,0,0,0,0,0,0,0,-1,1126,743,0,0
-91,281,0,0,0,0,0,0,0,0,0,-1,1133,743,0,0
-84,281,0,0,0,0,0,0,0,0,0,-1,1140,743,0,0
-77,281,0,0,0,0,0,0,0,0,0,-1,1147,743,0,0
-70,281,0,0,0,0,0,0,0,0,0,-1,1154,743,0,0
-63,281,0,0,0,0,0,0,0,0,0,-1,1161,743,0,0
-56,281,0,0,0,0,0,0,0,0,0,-1,1168,743,0,0
-49,281,0,0,0,0,0,0,0,0,0,-1,1175,743,0,0
-42,281,0,0,0,0,0,0,0,0,0,-1,1182,743,0,0
-35,281,0,0,0,0,0,0,0,0,0,-1,1189,743,0,0
-28,281,0,0,0,0,0,0,0,0,0,-1,1196,743,0,0
-21,281,0,0,0,0,0,0,0,0,0,-1,1203,743,0,0
-14,281,0,0,0,0,0,0,0,0,0,-1,1210,743,0,0
-7,281,0,0,0,0,0,0,0,0,0,-1,1217,743,0,0
0,281,0,0,0,0,0,0,0,0,0,-1,1224,743,0,0
7,281,0,0,0,0,0,0,0,0,0,-1,1231,743,0,0
14,281,0,0,0,0,0,0,0,0,0,-1,1238,743,0,0
21,281,0,0,0,0,0,0,0,0,0,-1,1245,743,0,0
28,281,0,0,0,0,0,0,0,0,0,-1,1252,743,0,0
35,281,0,0,0,0,0,0,0,0,0,-1,1259,743,0,0
42,281,0,0,0,0,0,0,0,0,0,-1,1266,743,0,0
49,281,0,0,0,0,0,0,0,0,0,-1,1273,743,0,0
56,281,0,0,0,0,0,0,0,0,0,-1,1280,743,0,0
63,281,0,0,0,0,0,0,0,0,0,-1,1287,743,0,0
70,281,0,0,0,0,0,0,0,0,0,-1,1294,743,0,0
77,281,0,0,0,0,0,0,0,0,0,-1,1301,743,0,0
84,281,0,0,0,0,0,0,0,0,0,-1,1308,743,0,0
91,281,0,0,0,0,0,0,0,0,0,-1,1315,743,0,0
98,281,0,0,0,0,0,0,0,0,0,-1,1322,743,0,0
105,281,0,0,0,0,0,0,0,0,0,-1,1329,743,0,0
112,281,0,0,0,0,0,0,0,0,0,-1,1336,743,0,0
119,281,0,0,0,0,0,0,0,0,0,-1,1343,743,0,0
126,281,0,0,0,0,0,0,0,0,0,-1,1350,743,0,0
133,281,0,0,0,0,0,0,0,0,0,-1,1357,743,0,0
140,281,0,0,0,0,0,0,0,0,0,-1,1364,743,0,0
147,281,0,0,0,0,0,0,0,0,0,-1,1371,743,0,0
154,281,0,0,0,0,0,0,0,0,0,-1,1378,743,0,0
161,281,0,0,0,0,0,0,0,0,0,-1,1385,743,0,0
168,281,0,0,0,0,0,0,0,0,0,-1,1392,743,0,0
175,281,0,0,0,0,0,0,0,0,0,-1,1399,743,0,0
182,281,0,0,0,0,0,0,0,0,0,-1,1406,743,0,0
189,281,0,0,0,0,0,0,0,0,0,-1,1413,743,0,0
196,281,0,0,0,0,0,0,0,0,0,-1,1420,743,0,0
203,281,0,0,0,0,0,0,0,0,0,-1,1427,743,0,0
210,281,0,0,0,0,0,0,0,0,0,-1,1434,743,0,0
217,281,0,0,0,0,0,0,0,0,0,-1,1441,743,0,0
224,281,0,0,0,0,0,0,0,0,0,-1,1448,743,0,0
231,281,0,0,0,0,0,0,0,0,0,-1,1455,743,0,0
238,281,0,0,0,0,0,0,0,0,0,-1,1462,743,0,0
245,281,0,0,0,0,0,0,0,0,0,-1,1469,743,0,0
252,281,0,0,0,0,0,0,0,0,0,-1,1476,743,0,0
259,281,0,0,0,0,0,0,0,0,0,-1,1483,743,0,0
266,281,0,0,0,0,0,0,0,0,0,-1,1490,743,0,0
273,281,0,0,0,0,0,0,0,0,0,-1,1497,743,0,0
280,281,0,0,0,0,0,0,0,0,0,-1,1504,743,0,0
287,281,0,0,0,0,0,0,0,0,0,-1,1511,743,0,0
294,281,0,0,0,0,0,0,0,0,0,-1,1518,743,0,0
301,281,0,0,0,0,0,0,0,0,0,-1,1525,743,0,0
308,281,0,0,0,0,0,0,0,0,0,-1,1532,743,0,0
315,281,0,0,0,0,0,0,0,0,0,-1,1539,743,0,0
322,281,0,0,0,0,0,0,0,0,0,-1,1546,743,0,0
329,281,0,0,0,0,0,0,0,0,0,-1,1553,743,0,0
336,281,0,0,0,0,0,0,0,0,0,-1,1560,743,0,0
343,281,0,0,0,0,0,0,0,0,0,-1,1567,743,0,0
350,281,0,0,0,0,0,0,0,0,0,-1,1574,743,0,0
357,281,0,0,0,0,0,0,0,0,0,-1,1581,743,0,0
364,281,0,0,0,0,0,0,0,0,0,-1,1588,743,0,0
371,281,0,0,0,0,0,0,0,0,0,-1,1595,743,0,0
378,281,0,0,0,0,0,0,0,0,0,-1,1602,743,0,0
385,281,0,0,0,0,0,0,0,0,0,-1,1609,743,0,0
392,281,0,0,0,0,0,0,0,0,0,-1,1616,743,0,0
399,281,0,0,0,0,0,0,0,0,0,-1,1623,743,0,0
406,281,0,0,0,0,0,0,0,0,0,-1,1630,743,0,0
413,281,0,0,0,0,0,0,0,0,0,-1,1637,743,0,0
420,281,0,0,0,0,0,0,0,0,0,-1,1644,743,0,0
427,281,0,0,0,0,0,0,0,0,0,-1,1651,743,0,0
434,281,0,0,0,0,0,0,0,0,0,-1,1658,743,0,0
441,281,0,0,0,0,0,0,0,0,0,-1,1665,743,0,0
448,281,0,0,0,0,0,0,0,0,0,-1,1672,743,0,0
455,281,0,0,0,0,0,0,0,0,0,-1,1679,743,0,0
462,281,0,0,0,0,0,0,0,0,0,-1,1686,743,0,0
469,281,0,0,0,0,0,0,0,0,0,-1,1693,743,0,0
476,281,0,0,0,0,0,0,0,0,0,-1,1700,743,0,0
483,281,0,0,0,0,0,0,0,0,0,-1,1707,743,0,0
490,281,0,0,0,0,0,0,0,0,0,-1,1714,743,0,0
497,281,0,0,0,0,0,0,0,0,0,-1,1721,743,0,0
504,281,0,0,0,0,0,0,0,0,0,-1,1728,743,0,0
511,281,0,0,0,0,0,0,0,0,0,-1,1735,743,0,0
518,281,0,0,0,0,0,0,0,0,0,-1,1742,743,0,0
525,281,0,0,0,0,0,0,0,0,0,-1,1749,743,0,0
532,281,0,0,0,0,0,0,0,0,0,-1,1756,743,0,0
539,281,0,0,0,0,0,0,0,0,0,-1,1763,743,0,0
546,281,0,0,0,0,0,0,0,0,0,-1,1770,743,0,0
553,281,0,0,0,0,0,0,0,0,0,-1,1777,743,0,0
560,281,15.9116,1.94879,0.0497311,-0.0447659,-0.0118905,0.0512043,-0.0462391,-0.12327,0.0562833,0.0442141,1784,743,15.9117,-1.94877
567,281,15.8015,1.4989,0.047016,-0.0302043,0.00270873,0.0471109,-0.0302992,0.0350205,0.0450427,0.0424578,1791,743,15.8015,-1.4989
574,281,15.0963,1.08557,0,0,0,0,0,0,0,-1,1798,743,15.0963,-1.08558
581,281,15.5052,1.43085,0,0,0,0,0,0,0,-1,1805,743,15.5052,-1.43086
588,281,16.1138,1.73993,0,0,0,0,0,0,0,-1,1812,743,16.1137,-1.73992
595,281,14.6584,2.00574,0.027752,-0.0107648,0.0115044,0.0309266,-0.0139393,0.269242,0.026515,0.0455754,1819,743,14.6585,-2.00576
602,281,15.3647,2.43213,0.022867,-0.00826806,0.0104454,0.0260466,-0.0114477,0.29549,0.0221876,0.046022,1826,743,15.3647,-2.4321
609,281,15.8892,2.65674,0,0,0,0,0,0,0,-1,1833,743,15.8892,-2.65676
616,281,10.4141,0.87323,0,0,0,0,0,0,0,-1,1840,743,10.4141,-0.873236
623,281,10.5531,0.903931,0,0,0,0,0,0,0,-1,1847,743,10.5532,-0.903907
630,281,10.3157,0.681335,0.00703591,-0.00489645,0.00183183,0.0073108,-0.00517134,0.148949,0.00724176,0.0330016,1854,743,10.3157,-0.681347
637,281,10.3243,0.80481,0.00428751,-0.00460708,-0.000758487,0.00435172,-0.0046713,-0.0844624,0.00521053,0.0118918,1861,743,10.3244,-0.804818
644,281,10.3429,1.00079,0.00177531,-0.0042057,-0.0026005,0.00274785,-0.00517824,-0.357878,0.00464729,0.00934265,1868,743,10.3429,-1.00078
651,281,10.3285,1.17047,7.23287e-05,-0.00371488,-0.00372974,0.00236163,-0.00600418,-0.550502,0.00498028,0.0104364,1875,743,10.3285,-1.17045
658,281,10.3087,1.31866,-0.000152443,-0.00313952,-0.00319166,0.00187784,-0.00516981,-0.566558,0.00421433,0.0192005,1882,743,10.3087,-1.31866
665,281,10.3121,1.47375,0.00124381,-0.00185981,-0.00235349,0.00251104,-0.00312705,-0.493932,0.00326162,0.0200069,1889,743,10.3121,-1.47374
672,281,10.3049,1.68243,0.00296857,-0.0008559,-0.00186754,0.00372923,-0.00161656,-0.386787,0.00316571,0.0115002,1896,743,10.305,-1.68245
679,281,10.3295,1.86261,0.00589642,2.91797e-05,-0.00137523,0.00620276,-0.000277166,-0.219181,0.00423059,0.0162956,1903,743,10.3294,-1.86263
686,281,10.3378,2.01263,0.0104079,0.00105676,-0.000270714,0.0104157,0.00104893,-0.0289176,0.0066219,0.0121525,1910,743,10.3377,-2.01266
693,281,10.3369,2.18097,0.0154634,0.00189679,0.000130381,0.0154647,0.00189554,0.00960926,0.00973961,0.010136,1917,743,10.337,-2.18099
700,281,10.3284,2.35693,0.0218912,0.00267216,0.000489821,0.0219037,0.00265968,0.0254642,0.0138016,0.0170192,1924,743,10.3284,-2.35696
707,281,10.3467,2.5473,0.0301067,0.00360066,0.00103242,0.0301469,0.00356051,0.0388718,0.0190225,0.0326548,1931,743,10.3467,-2.54729
714,281,10.3811,2.72125,0,0,0,0,0,0,0,-1,1938,743,10.3811,-2.72124
721,281,10.5679,2.56195,0,0,0,0,0,0,0,-1,1945,743,10.5679,-2.56197
728,281,14.0405,2.58948,0,0,0,0,0,0,0,-1,1952,743,14.0405,-2.58949
735,281,14.3514,2.78046,0,0,0,0,0,0,0,-1,1959,743,14.3514,-2.78045
742,281,0,0,0,0,0,0,0,0,0,-1,1966,743,0,0
749,281,0,0,0,0,0,0,0,0,0,-1,1973,743,0,0
756,281,0,0,0,0,0,0,0,0,0,-1,1980,743,0,0
763,281,0,0,0,0,0,0,0,0,0,-1,1987,743,0,0
770,281,0,0,0,0,0,0,0,0,0,-1,1994,743,0,0
777,281,0,0,0,0,0,0,0,0,0,-1,2001,743,0,0
784,281,0,0,0,0,0,0,0,0,0,-1,2008,743,0,0
791,281,0,0,0,0,0,0,0,0,0,-1,2015,743,0,0
798,281,0,0,0,0,0,0,0,0,0,-1,2022,743,0,0
805,281,0,0,0,0,0,0,0,0,0,-1,2029,743,0,0
812,281,0,0,0,0,0,0,0,0,0,-1,2036,743,0,0
-700,274,0,0,0,0,0,0,0,0,0,-1,524,750,0,0
-693,274,0,0,0,0,0,0,0,0,0,-1,531,750,0,0
-686,274,0,0,0,0,0,0,0,0,0,-1,538,750,0,0
-679,274,0,0,0,0,0,0,0,0,0,-1,545,750,0,0
-672,274,0,0,0,0,0,0,0,0,0,-1,552,750,0,0
-665,274,0,0,0,0,0,0,0,0,0,-1,559,750,0,0
-658,274,0,0,0,0,0,0,0,0,0,-1,566,750,0,0
-651,274,0,0,0,0,0,0,0,0,0,-1,573,750,0,0
-644,274,0,0,0,0,0,0,0,0,0,-1,580,750,0,0
-637,274,0,0,0,0,0,0,0,0,0,-1,587,750,0,0
-630,274,0,0,0,0,0,0,0,0,0,-1,594,750,0,0
-623,274,-4.73297,3.43164,0,0,0,0,0,0,0,-1,601,750,-4.73296,-3.43163
-616,274,-5.7926,0.603455,0,0,0,0,0,0,0,-1,608,750,-5.79258,-0.603465
-609,274,-6.94537,-0.677185,0,0,0,0,0,0,0,-1,615,750,-6.94535,0.677161
-602,274,-7.83923,-1.66089,0,0,0,0,0,0,0,-1,622,750,-7.83921,1.6609
-595,274,-8.38306,-2.91534,0,0,0,0,0,0,0,-1,629,750,-8.38308,2.91537
-588,274,-5.25977,0.874878,0,0,0,0,0,0,0,-1,636,750,-5.25978,-0.874866
-581,274,-5.38452,0.693359,0.0148123,-0.00052314,0.0148296,0.0238392,-0.00955007,0.546799,0.019857,0.0390048,643,750,-5.38454,-0.693347
-574,274,-5.50317,0.519897,0.00884871,-0.00163325,0.0119433,0.0166504,-0.00943495,0.578639,0.0152512,0.0185942,650,750,-5.50316,-0.519904
-567,274,-5.59424,0.39624,0.00474921,-0.00280123,0.00895517,0.0106924,-0.00874441,0.585918,0.0112406,0.0159819,657,750,-5.59422,-0.396263
-560,274,-5.58899,0.242432,0.00243573,-0.00323945,0.00711858,0.00726144,-0.00806516,0.595741,0.00885287,0.0138667,664,750,-5.58901,-0.242431
-553,274,-5.55725,0.0932617,0.000555844,-0.00309592,0.00512573,0.00417119,-0.00671126,0.614296,0.00633978,0.00899067,671,750,-5.55723,-0.0932839
-546,274,-5.56158,-0.0578003,-0.00130593,-0.00271871,0.00366729,0.00172239,-0.00574702,0.690254,0.00451632,0.0103908,678,750,-5.56157,0.0578157
-539,274,-5.58594,-0.19812,-0.0019326,-0.00196474,0.00255855,0.000609925,-0.00450727,0.782258,0.00322742,0.0114786,685,750,-5.58596,0.198101
-532,274,-5.59106,-0.347046,-0.00202314,-0.00046964,0.00219318,0.00108027,-0.00357305,0.955589,0.00281216,0.0119848,692,750,-5.59107,0.347073
-525,274,-5.57764,-0.500183,-0.00222473,0.00266308,0.00269083,0.00385417,-0.00341583,1.15407,0.00419988,0.0119201,699,750,-5.57762,0.500194
-518,274,-5.57074,-0.667847,-0.00266978,0.00542458,0.00345975,0.00670182,-0.00394703,1.21714,0.00621632,0.0120763,706,750,-5.57071,0.667825
-511,274,-5.58191,-0.852539,-0.00339051,0.0090406,0.00476359,0.0106561,-0.00500598,1.24384,0.00923654,0.0109445,713,750,-5.5819,0.852564
-504,274,-5.58057,-1.01758,-0.00501102,0.0132833,0.00694685,0.0156222,-0.00734991,1.24603,0.0135466,0.0185417,720,750,-5.58058,1.01756
-497,274,-5.6369,-1.12628,-0.00724895,0.0186088,0.00965979,0.0218189,-0.0104591,1.24996,0.0190165,0.0425921,727,750,-5.6369,1.12625
-490,274,-5.68634,-1.24426,0,0,0,0,0,0,0,-1,734,750,-5.68635,1.24427
-483,274,-5.92462,-0.488342,-0.014763,0.0342026,0.0172364,0.0396614,-0.0202218,1.26409,0.0351756,0.0454567,741,750,-5.92459,0.488341
-476,274,-6.32788,0.0741577,-0.0206739,0.0430429,0.021926,0.0498589,-0.0274899,1.2694,0.0452755,0.0461061,748,750,-6.32787,-0.074185
-469,274,-6.4458,0.515381,0,0,0,0,0,0,0,-1,755,750,-6.44583,-0.515363
-462,274,-6.76428,1.09796,-0.0390401,0.062363,0.0327951,0.072045,-0.0487221,1.28373,0.070157,0.0493118,762,750,-6.76429,-1.09794
-455,274,-7.55884,1.8681,-0.051599,0.0723032,0.0383603,0.0832181,-0.0625139,1.29359,0.084421,0.0457354,769,750,-7.55884,-1.86811
-448,274,-8.54004,2.3739,0,0,0,0,0,0,0,-1,776,750,-8.54003,-2.37388
-441,274,0,0,0,0,0,0,0,0,0,-1,783,750,0,0
-434,274,0,0,0,0,0,0,0,0,0,-1,790,750,0,0
-427,274,0,0,0,0,0,0,0,0,0,-1,797,750,0,0
-420,274,0,0,0,0,0,0,0,0,0,-1,804,750,0,0
-413,274,0,0,0,0,0,0,0,0,0,-1,811,750,0,0
-406,274,0,0,0,0,0,0,0,0,0,-1,818,750,0,0
-399,274,0,0,0,0,0,0,0,0,0,-1,825,750,0,0
-392,274,0,0,0,0,0,0,0,0,0,-1,832,750,0,0
-385,274,0,0,0,0,0,0,0,0,0,-1,839,750,0,0
-378,274,0,0,0,0,0,0,0,0,0,-1,846,750,0,0
-371,274,0,0,0,0,0,0,0,0,0,-1,853,750,0,0
-364,274,0,0,0,0,0,0,0,0,0,-1,860,750,0,0
-357,274,0,0,0,0,0,0,0,0,0,-1,867,750,0,0
-350,274,0,0,0,0,0,0,0,0,0,-1,874,750,0,0
-343,274,0,0,0,0,0,0,0,0,0,-1,881,750,0,0
-336,274,0,0,0,0,0,0,0,0,0,-1,888,750,0,0
-329,274,0,0,0,0,0,0,0,0,0,-1,895,750,0,0
-322,274,0,0,0,0,0,0,0,0,0,-1,902,750,0,0
-315,274,0,0,0,0,0,0,0,0,0,-1,909,750,0,0
-308,274,0,0,0,0,0,0,0,0,0,-1,916,750,0,0
-301,274,0,0,0,0,0,0,0,0,0,-1,923,750,0,0
-294,274,0,0,0,0,0,0,0,0,0,-1,930,750,0,0
-287,274,0,0,0,0,0,0,0,0,0,-1,937,750,0,0
-280,274,0,0,0,0,0,0,0,0,0,-1,944,750,0,0
-273,274,0,0,0,0,0,0,0,0,0,-1,951,750,0,0
-266,274,0,0,0,0,0,0,0,0,0,-1,958,750,0,0
-259,274,0,0,0,0,0,0,0,0,0,-1,965,750,0,0
-252,274,0,0,0,0,0,0,0,0,0,-1,972,750,0,0
-245,274,0,0,0,0,0,0,0,0,0,-1,979,750,0,0
-238,274,0,0,0,0,0,0,0,0,0,-1,986,750,0,0
-231,274,0,0,0,0,0,0,0,0,0,-1,993,750,0,0
-224,274,0,0,0,0,0,0,0,0,0,-1,1000,750,0,0
-217,274,0,0,0,0,0,0,0,0,0,-1,1007,750,0,0
-210,274,0,0,0,0,0,0,0,0,0,-1,1014,750,0,0
-203,274,0,0,0,0,0,0,0,0,0,-1,1021,750,0,0
-196,274,0,0,0,0,0,0,0,0,0,-1,1028,750,0,0
-189,274,0,0,0,0,0,0,0,0,0,-1,1035,750,0,0
-182,274,0,0,0,0,0,0,0,0,0,-1,1042,750,0,0
-175,274,0,0,0,0,0,0,0,0,0,-1,1049,750,0,0
-168,274,0,0,0,0,0,0,0,0,0,-1,1056,750,0,0
-161,274,0,0,0,0,0,0,0,0,0,-1,1063,750,0,0
-154,274,0,0,0,0,0,0,0,0,0,-1,1070,750,0,0
-147,274,0,0,0,0,0,0,0,0,0,-1,1077,750,0,0
-140,274,0,0,0,0,0,0,0,0,0,-1,1084,750,0,0
-133,274,0,0,0,0,0,0,0,0,0,-1,1091,750,0,0
-126,274,0,0,0,0,0,0,0,0,0,-1,1098,750,0,0
-119,274,0,0,0,0,0,0,0,0,0,-1,1105,750,0,0
-112,274,0,0,0,0,0,0,0,0,0,-1,1112,750,0,0
-105,274,0,0,0,0,0,0,0,0,0,-1,1119,750,0,0
-98,274,0,0,0,0,0,0,0,0,0,-1,1126,750,0,0
-91,274,0,0,0,0,0,0,0,0,0,-1,1133,750,0,0
-84,274,0,0,0,0,0,0,0,0,0,-1,1140,750,0,0
-77,274,0,0,0,0,0,0,0,0,0,-1,1147,750,0,0
-70,274,0,0,0,0,0,0,0,0,0,-1,1154,750,0,0
-63,274,0,0,0,0,0,0,0,0,0,-1,1161,750,0,0
-56,274,0,0,0,0,0,0,0,0,0,-1,1168,750,0,0
-49,274,0,0,0,0,0,0,0,0,0,-1,1175,750,0,0
-42,274,0,0,0,0,0,0,0,0,0,-1,1182,750,0,0
-35,274,0,0,0,0,0,0,0,0,0,-1,1189,750,0,0
-28,274,0,0,0,0,0,0,0,0,0,-1,1196,750,0,0
-21,274,0,0,0,0,0,0,0,0,0,-1,1203,750,0,0
-14,274,0,0,0,0,0,0,0,0,0,-1,1210,750,0,0
-7,274,0,0,0,0,0,0,0,0,0,-1,1217,750,0,0
0,274,0,0,0,0,0,0,0,0,0,-1,1224,750,0,0
7,274,0,0,0,0,0,0,0,0,0,-1,1231,750,0,0
14,274,0,0,0,0,0,0,0,0,0,-1,1238,750,0,0
21,274,0,0,0,0,0,0,0,0,0,-1,1245,750,0,0
28,274,0,0,0,0,0,0,0,0,0,-1,1252,750,0,0
35,274,0,0,0,0,0,0,0,0,0,-1,1259,750,0,0
42,274,0,0,0,0,0,0,0,0,0,-1,1266,750,0,0
49,274,0,0,0,0,0,0,0,0,0,-1,1273,750,0,0
56,274,0,0,0,0,0,0,0,0,0,-1,1280,750,0,0
63,274,0,0,0,0,0,0,0,0,0,-1,1287,750,0,0
70,274,0,0,0,0,0,0,0,0,0,-1,1294,750,0,0
77,274,0,0,0,0,0,0,0,0,0,-1,1301,750,0,0
84,274,0,0,0,0,0,0,0,0,0,-1,1308,750,0,0
91,274,0,0,0,0,0,0,0,0,0,-1,1315,750,0,0
98,274,0,0,0,0,0,0,0,0,0,-1,1322,750,0,0
105,274,0,0,0,0,0,0,0,0,0,-1,1329,750,0,0
112,274,0,0,0,0,0,0,0,0,0,-1,1336,750,0,0
119,274,0,0,0,0,0,0,0,0,0,-1,1343,750,0,0
126,274,0,0,0,0,0,0,0,0,0,-1,1350,750,0,0
133,274,0,0,0,0,0,0,0,0,0,-1,1357,750,0,0
140,274,0,0,0,0,0,0,0,0,0,-1,1364,750,0,0
147,274,0,0,0,0,0,0,0,0,0,-1,1371,750,0,0
154,274,0,0,0,0,0,0,0,0,0,-1,1378,750,0,0
161,274,0,0,0,0,0,0,0,0,0,-1,1385,750,0,0
168,274,0,0,0,0,0,0,0,0,0,-1,1392,750,0,0
175,274,0,0,0,0,0,0,0,0,0,-1,1399,750,0,0
182,274,0,0,0,0,0,0,0,0,0,-1,1406,750,0,0
189,274,0,0,0,0,0,0,0,0,0,-1,1413,750,0,0
196,274,0,0,0,0,0,0,0,0,0,-1,1420,750,0,0
203,274,0,0,0,0,0,0,0,0,0,-1,1427,750,0,0
210,274,0,0,0,0,0,0,0,0,0,-1,1434,750,0,0
217,274,0,0,0,0,0,0,0,0,0,-1,1441,750,0,0
224,274,0,0,0,0,0,0,0,0,0,-1,1448,750,0,0
231,274,0,0,0,0,0,0,0,0,0,-1,1455,750,0,0
238,274,0,0,0,0,0,0,0,0,0,-1,1462,750,0,0
245,274,0,0,0,0,0,0,0,0,0,-1,1469,750,0,0
252,274,0,0,0,0,0,0,0,0,0,-1,1476,750,0,0
259,274,0,0,0,0,0,0,0,0,0,-1,1483,750,0,0
266,274,0,0,0,0,0,0,0,0,0,-1,1490,750,0,0
273,274,0,0,0,0,0,0,0,0,0,-1,1497,750,0,0
280,274,0,0,0,0,0,0,0,0,0,-1,1504,750,0,0
287,274,0,0,0,0,0,0,0,0,0,-1,1511,750,0,0
294,274,0,0,0,0,0,0,0,0,0,-1,1518,750,0,0
301,274,0,0,0,0,0,0,0,0,0,-1,1525,750,0,0
308,274,0,0,0,0,0,0,0,0,0,-1,1532,750,0,0
315,274,0,0,0,0,0,0,0,0,0,-1,1539,750,0,0
322,274,0,0,0,0,0,0,0,0,0,-1,1546,750,0,0
329,274,0,0,0,0,0,0,0,0,0,-1,1553,750,0,0
336,274,0,0,0,0,0,0,0,0,0,-1,1560,750,0,0
343,274,0,0,0,0,0,0,0,0,0,-1,1567,750,0,0
350,274,0,0,0,0,0,0,0,0,0,-1,1574,750,0,0
357,274,0,0,0,0,0,0,0,0,0,-1,1581,750,0,0
364,274,0,0,0,0,0,0,0,0,0,-1,1588,750,0,0
371,274,0,0,0,0,0,0,0,0,0,-1,1595,750,0,0
378,274,0,0,0,0,0,0,0,0,0,-1,1602,750,0,0
385,274,0,0,0,0,0,0,0,0,0,-1,1609,750,0,0
392,274,0,0,0,0,0,0,0,0,0,-1,1616,750,0,0
399,274,0,0,0,0,0,0,0,0,0,-1,1623,750,0,0
406,274,0,0,0,0,0,0,0,0,0,-1,1630,750,0,0
413,274,0,0,0,0,0,0,0,0,0,-1,1637,750,0,0
420,274,0,0,0,0,0,0,0,0,0,-1,1644,750,0,0
427,274,0,0,0,0,0,0,0,0,0,-1,1651,750,0,0
434,274,0,0,0,0,0,0,0,0,0,-1,1658,750,0,0
441,274,0,0,0,0,0,0,0,0,0,-1,1665,750,0,0
448,274,0,0,0,0,0,0,0,0,0,-1,1672,750,0,0
455,274,0,0,0,0,0,0,0,0,0,-1,1679,750,0,0
462,274,0,0,0,0,0,0,0,0,0,-1,1686,750,0,0
469,274,0,0,0,0,0,0,0,0,0,-1,1693,750,0,0
476,274,0,0,0,0,0,0,0,0,0,-1,1700,750,0,0
483,274,0,0,0,0,0,0,0,0,0,-1,1707,750,0,0
490,274,0,0,0,0,0,0,0,0,0,-1,1714,750,0,0
497,274,0,0,0,0,0,0,0,0,0,-1,1721,750,0,0
504,274,0,0,0,0,0,0,0,0,0,-1,1728,750,0,0
511,274,0,0,0,0,0,0,0,0,0,-1,1735,750,0,0
518,274,0,0,0,0,0,0,0,0,0,-1,1742,750,0,0
525,274,0,0,0,0,0,0,0,0,0,-1,1749,750,0,0
532,274,0,0,0,0,0,0,0,0,0,-1,1756,750,0,0
539,274,0,0,0,0,0,0,0,0,0,-1,1763,750,0,0
546,274,0,0,0,0,0,0,0,0,0,-1,1770,750,0,0
553,274,0,0,0,0,0,0,0,0,0,-1,1777,750,0,0
560,274,15.3522,2.45874,0,0,0,0,0,0,0,-1,1784,750,15.3522,-2.45876
567,274,15.3369,2.09454,0,0,0,0,0,0,0,-1,1791,750,15.3369,-2.09456
574,274,14.6158,2.71948,0.0395207,-0.0227011,0.00577972,0.040053,-0.0232334,0.091842,0.0369661,0.0447026,1798,750,14.6159,-2.71949
581,274,15.4987,1.93365,0.035871,-0.0167359,0.00966798,0.0375914,-0.0184564,0.176114,0.0329819,0.0447878,1805,750,15.4986,-1.93366
588,274,15.936,2.01605,0.0313959,-0.0130095,0.0102285,0.0336387,-0.0152523,0.215854,0.0288849,0.0450794,1812,750,15.9361,-2.01605
595,274,16.4148,2.08636,0,0,0,0,0,0,0,-1,1819,750,16.4148,-2.08636
602,274,15.2379,1.98395,0,0,0,0,0,0,0,-1,1826,750,15.238,-1.98393
609,274,11.7963,2.66547,0,0,0,0,0,0,0,-1,1833,750,11.7963,-2.66548
616,274,10.1234,2.40491,0,0,0,0,0,0,0,-1,1840,750,10.1234,-2.40489
623,274,10.5042,0.60376,0,0,0,0,0,0,0,-1,1847,750,10.5041,-0.603729
630,274,10.5175,0.694885,0.00721586,-0.00562209,0.00048285,0.007234,-0.00564023,0.0375404,0.0074519,0.0381578,1854,750,10.5174,-0.694863
637,274,10.5076,0.807434,0.00434875,-0.00531816,-0.00176049,0.00465938,-0.00562879,-0.174648,0.00594866,0.0121303,1861,750,10.5075,-0.807436
644,274,10.5062,0.984131,0.00166302,-0.00495259,-0.00338147,0.00308553,-0.0063751,-0.398205,0.00557108,0.0111792,1868,750,10.5063,-0.984102
651,274,10.5063,1.16418,-0.000260427,-0.00442619,-0.0044082,0.0025322,-0.00721883,-0.564694,0.00584249,0.0127028,1875,750,10.5063,-1.16418
658,274,10.4749,1.31964,-0.000752161,-0.00374985,-0.00378718,0.00182199,-0.006324,-0.596972,0.0049367,0.0152692,1882,750,10.4748,-1.31965
665,274,10.467,1.49658,0.00029772,-0.00236865,-0.00276394,0.00203321,-0.00410414,-0.560684,0.00361001,0.0154236,1889,750,10.4671,-1.49658
672,274,10.5054,1.68225,0.0015784,-0.00130991,-0.0020853,0.00267079,-0.0024023,-0.482547,0.00293031,0.0124674,1896,750,10.5054,-1.68224
679,274,10.5192,1.86511,0.00403009,-0.000324754,-0.00136042,0.00442014,-0.0007148,-0.279221,0.00321165,0.0125688,1903,750,10.5192,-1.86513
686,274,10.5249,2.02026,0.00814851,0.000772239,5.38168e-05,0.0081489,0.000771847,0.00729541,0.00519447,0.0132081,1910,750,10.5249,-2.02028
693,274,10.5167,2.19604,0.0125836,0.00152047,0.000771659,0.0126371,0.00146691,0.0693036,0.00798084,0.0110905,1917,750,10.5168,-2.19604
700,274,10.5126,2.39307,0.0181226,0.00200284,0.00143332,0.0182491,0.00187638,0.0879969,0.0115913,0.0127885,1924,750,10.5126,-2.39304
707,274,10.5491,2.51312,0.025143,0.00244139,0.00231602,0.0253768,0.00220752,0.100639,0.0162322,0.0188115,1931,750,10.5491,-2.5131
714,274,10.6194,2.56732,0.0341812,0.0026907,0.00362937,0.0345941,0.00227781,0.113274,0.0223422,0.036572,1938,750,10.6194,-2.56734
721,274,10.7231,2.52051,0.0454047,0.00288841,0.00556268,0.0461204,0.00217266,0.127967,0.0300489,0.0471335,1945,750,10.7231,-2.52049
728,274,10.9055,2.45465,0,0,0,0,0,0,0,-1,1952,750,10.9055,-2.45466
735,274,10.5465,2.94019,0,0,0,0,0,0,0,-1,1959,750,10.5465,-2.94019
742,274,11.7815,-0.740234,0,0,0,0,0,0,0,-1,1966,750,11.7815,0.740253
749,274,0,0,0,0,0,0,0,0,0,-1,1973,750,0,0
756,274,0,0,0,0,0,0,0,0,0,-1,1980,750,0,0
763,274,0,0,0,0,0,0,0,0,0,-1,1987,750,0,0
770,274,0,0,0,0,0,0,0,0,0,-1,1994,750,0,0
777,274,0,0,0,0,0,0,0,0,0,-1,2001,750,0,0
784,274,0,0,0,0,0,0,0,0,0,-1,2008,750,0,0
791,274,0,0,0,0,0,0,0,0,0,-1,2015,750,0,0
798,274,0,0,0,0,0,0,0,0,0,-1,2022,750,0,0
805,274,0,0,0,0,0,0,0,0,0,-1,2029,750,0,0
812,274,0,0,0,0,0,0,0,0,0,-1,2036,750,0,0
-700,267,0,0,0,0,0,0,0,0,0,-1,524,757,0,0
-693,267,0,0,0,0,0,0,0,0,0,-1,531,757,0,0
-686,267,0,0,0,0,0,0,0,0,0,-1,538,757,0,0
-679,267,0,0,0,0,0,0,0,0,0,-1,545,757,0,0
-672,267,0,0,0,0,0,0,0,0,0,-1,552,757,0,0
-665,267,0,0,0,0,0,0,0,0,0,-1,559,757,0,0
-658,267,0,0,0,0,0,0,0,0,0,-1,566,757,0,0
-651,267,0,0,0,0,0,0,0,0,0,-1,573,757,0,0
-644,267,0,0,0,0,0,0,0,0,0,-1,580,757,0,0
-637,267,0,0,0,0,0,0,0,0,0,-1,587,757,0,0
-630,267,-5.67786,2.58307,0,0,0,0,0,0,0,-1,594,757,-5.67783,-2.58304
-623,267,-5.90967,1.59277,0,0,0,0,0,0,0,-1,601,757,-5.90965,-1.59277
-616,267,-6.10858,0.628296,0.0256695,0.0191418,0.0153384,0.0380875,0.0067238,0.680568,0.0234736,0.0471226,608,757,-6.10858,-0.628325
-609,267,-6.76654,-0.245911,0,0,0,0,0,0,0,-1,615,757,-6.76652,0.245919
-602,267,-7.44196,-1.17084,0,0,0,0,0,0,0,-1,622,757,-7.44193,1.17087
-595,267,-5.1106,1.21533,0,0,0,0,0,0,0,-1,629,757,-5.11058,-1.2153
-588,267,-5.28168,0.996155,0,0,0,0,0,0,0,-1,636,757,-5.28165,-0.996171
-581,267,-5.59717,0.741638,0.00876191,0.00310485,0.0116639,0.0179353,-0.00606857,0.666443,0.0144121,0.0270015,643,757,-5.59718,-0.741609
-574,267,-5.71765,0.545593,0.00446925,0.00114643,0.00936469,0.0123188,-0.00670309,0.697605,0.0111407,0.0136892,650,757,-5.71764,-0.545592
-567,267,-5.74396,0.419373,0.00156368,-0.000938783,0.00677182,0.00719889,-0.006574,0.694043,0.00795451,0.018847,657,757,-5.74397,-0.419347
-560,267,-5.72443,0.24292,0.000149808,-0.00201023,0.0054678,0.00464324,-0.00650366,0.687892,0.00646547,0.0194081,664,757,-5.7244,-0.242909
-553,267,-5.70459,0.0905762,-0.000965238,-0.0023659,0.00401638,0.00241141,-0.00574255,0.699082,0.00483687,0.0158619,671,757,-5.7046,-0.0905973
-546,267,-5.71521,-0.0587769,-0.00207404,-0.00242128,0.00301066,0.000768007,-0.00526332,0.756596,0.0037909,0.0101465,678,757,-5.71524,0.0587797
-539,267,-5.74451,-0.201111,-0.00239843,-0.0018176,0.00220196,0.000113011,-0.00432904,0.850964,0.00292442,0.00977472,685,757,-5.74449,0.20113
-532,267,-5.73541,-0.367676,-0.00237459,-0.000426964,0.00204899,0.000867849,-0.00366941,1.00723,0.00278106,0.0106757,692,757,-5.73542,0.36766
-525,267,-5.72626,-0.518066,-0.00245548,0.00272221,0.00255522,0.00377085,-0.00350412,1.18137,0.00420114,0.0103774,699,757,-5.72625,0.518036
-518,267,-5.73645,-0.657227,-0.00277481,0.00540936,0.00317662,0.00649763,-0.00386308,1.24074,0.00604588,0.0103112,706,757,-5.73647,0.657212
-511,267,-5.73505,-0.841309,-0.00335326,0.00898084,0.00424956,0.0103032,-0.00467563,1.26912,0.00884914,0.0133714,713,757,-5.73504,0.841325
-504,267,-5.7644,-0.983948,-0.00464565,0.0133322,0.00620012,0.0152631,-0.00657653,1.26889,0.0129373,0.0256788,720,757,-5.76438,0.983962
-497,267,-6.2934,-1.01044,-0.00627896,0.0187379,0.00868893,0.0214597,-0.0090007,1.26723,0.01807,0.0426869,727,757,-6.29337,1.01043
-490,267,-6.5611,-1.18414,-0.0089246,0.026384,0.0119481,0.0300471,-0.0125877,1.27331,0.0252938,0.0463196,734,757,-6.56113,1.18413
-483,267,-6.26117,-0.833679,-0.0123362,0.0345598,0.0158717,0.0394265,-0.0172029,1.27327,0.0335237,0.0461123,741,757,-6.26117,0.833684
-476,267,-6.03351,-0.0830078,-0.0173363,0.0437717,0.0206297,0.0500841,-0.0236487,1.27386,0.0434721,0.0474646,748,757,-6.03353,0.0829848
-469,267,-7.90894,-0.628906,0,0,0,0,0,0,0,-1,755,757,-7.90894,0.628911
-462,267,-7.05499,0.498291,0,0,0,0,0,0,0,-1,762,757,-7.055,-0.498304
-455,267,-6.20105,1.62549,0,0,0,0,0,0,0,-1,769,757,-6.20105,-1.62552
-448,267,-8.25684,-0.562805,0,0,0,0,0,0,0,-1,776,757,-8.25685,0.562808
-441,267,0,0,0,0,0,0,0,0,0,-1,783,757,0,0
-434,267,0,0,0,0,0,0,0,0,0,-1,790,757,0,0
-427,267,0,0,0,0,0,0,0,0,0,-1,797,757,0,0
-420,267,0,0,0,0,0,0,0,0,0,-1,804,757,0,0
-413,267,0,0,0,0,0,0,0,0,0,-1,811,757,0,0
-406,267,0,0,0,0,0,0,0,0,0,-1,818,757,0,0
-399,267,0,0,0,0,0,0,0,0,0,-1,825,757,0,0
-392,267,0,0,0,0,0,0,0,0,0,-1,832,757,0,0
-385,267,0,0,0,0,0,0,0,0,0,-1,839,757,0,0
-378,267,0,0,0,0,0,0,0,0,0,-1,846,757,0,0
-371,267,0,0,0,0,0,0,0,0,0,-1,853,757,0,0
-364,267,0,0,0,0,0,0,0,0,0,-1,860,757,0,0
-357,267,0,0,0,0,0,0,0,0,0,-1,867,757,0,0
-350,267,0,0,0,0,0,0,0,0,0,-1,874,757,0,0
-343,267,0,0,0,0,0,0,0,0,0,-1,881,757,0,0
-336,267,0,0,0,0,0,0,0,0,0,-1,888,757,0,0
-329,267,0,0,0,0,0,0,0,0,0,-1,895,757,0,0
-322,267,0,0,0,0,0,0,0,0,0,-1,902,757,0,0
-315,267,0,0,0,0,0,0,0,0,0,-1,909,757,0,0
-308,267,0,0,0,0,0,0,0,0,0,-1,916,757,0,0
-301,267,0,0,0,0,0,0,0,0,0,-1,923,757,0,0
-294,267,0,0,0,0,0,0,0,0,0,-1,930,757,0,0
-287,267,0,0,0,0,0,0,0,0,0,-1,937,757,0,0
-280,267,0,0,0,0,0,0,0,0,0,-1,944,757,0,0
-273,267,0,0,0,0,0,0,0,0,0,-1,951,757,0,0
-266,267,0,0,0,0,0,0,0,0,0,-1,958,757,0,0
-259,267,0,0,0,0,0,0,0,0,0,-1,965,757,0,0
-252,267,0,0,0,0,0,0,0,0,0,-1,972,757,0,0
-245,267,0,0,0,0,0,0,0,0,0,-1,979,757,0,0
-238,267,0,0,0,0,0,0,0,0,0,-1,986,757,0,0
-231,267,0,0,0,0,0,0,0,0,0,-1,993,757,0,0
-224,267,0,0,0,0,0,0,0,0,0,-1,1000,757,0,0
-217,267,0,0,0,0,0,0,0,0,0,-1,1007,757,0,0
-210,267,0,0,0,0,0,0,0,0,0,-1,1014,757,0,0
-203,267,0,0,0,0,0,0,0,0,0,-1,1021,757,0,0
-196,267,0,0,0,0,0,0,0,0,0,-1,1028,757,0,0
-189,267,0,0,0,0,0,0,0,0,0,-1,1035,757,0,0
-182,267,0,0,0,0,0,0,0,0,0,-1,1042,757,0,0
-175,267,0,0,0,0,0,0,0,0,0,-1,1049,757,0,0
-168,267,0,0,0,0,0,0,0,0,0,-1,1056,757,0,0
-161,267,0,0,0,0,0,0,0,0,0,-1,1063,757,0,0
-154,267,0,0,0,0,0,0,0,0,0,-1,1070,757,0,0
-147,267,0,0,0,0,0,0,0,0,0,-1,1077,757,0,0
-140,267,0,0,0,0,0,0,0,0,0,-1,1084,757,0,0
-133,267,0,0,0,0,0,0,0,0,0,-1,1091,757,0,0
-126,267,0,0,0,0,0,0,0,0,0,-1,1098,757,0,0
-119,267,0,0,0,0,0,0,0,0,0,-1,1105,757,0,0
-112,267,0,0,0,0,0,0,0,0,0,-1,1112,757,0,0
-105,267,0,0,0,0,0,0,0,0,0,-1,1119,757,0,0
-98,267,0,0,0,0,0,0,0,0,0,-1,1126,757,0,0
-91,267,0,0,0,0,0,0,0,0,0,-1,1133,757,0,0
-84,267,0,0,0,0,0,0,0,0,0,-1,1140,757,0,0
-77,267,0,0,0,0,0,0,0,0,0,-1,1147,757,0,0
-70,267,0,0,0,0,0,0,0,0,0,-1,1154,757,0,0
-63,267,0,0,0,0,0,0,0,0,0,-1,1161,757,0,0
-56,267,0,0,0,0,0,0,0,0,0,-1,1168,757,0,0
-49,267,0,0,0,0,0,0,0,0,0,-1,1175,757,0,0
-42,267,0,0,0,0,0,0,0,0,0,-1,1182,757,0,0
-35,267,0,0,0,0,0,0,0,0,0,-1,1189,757,0,0
-28,267,0,0,0,0,0,0,0,0,0,-1,1196,757,0,0
-21,267,0,0,0,0,0,0,0,0,0,-1,1203,757,0,0
-14,267,0,0,0,0,0,0,0,0,0,-1,1210,757,0,0
-7,267,0,0,0,0,0,0,0,0,0,-1,1217,757,0,0
0,267,0,0,0,0,0,0,0,0,0,-1,1224,757,0,0
7,267,0,0,0,0,0,0,0,0,0,-1,1231,757,0,0
14,267,0,0,0,0,0,0,0,0,0,-1,1238,757,0,0
21,267,0,0,0,0,0,0,0,0,0,-1,1245,757,0,0
28,267,0,0,0,0,0,0,0,0,0,-1,1252,757,0,0
35,267,0,0,0,0,0,0,0,0,0,-1,1259,757,0,0
42,267,0,0,0,0,0,0,0,0,0,-1,1266,757,0,0
49,267,0,0,0,0,0,0,0,0,0,-1,1273,757,0,0
56,267,0,0,0,0,0,0,0,0,0,-1,1280,757,0,0
63,267,0,0,0,0,0,0,0,0,0,-1,1287,757,0,0
70,267,0,0,0,0,0,0,0,0,0,-1,1294,757,0,0
77,267,0,0,0,0,0,0,0,0,0,-1,1301,757,0,0
84,267,0,0,0,0,0,0,0,0,0,-1,1308,757,0,0
91,267,0,0,0,0,0,0,0,0,0,-1,1315,757,0,0
98,267,0,0,0,0,0,0,0,0,0,-1,1322,757,0,0
105,267,0,0,0,0,0,0,0,0,0,-1,1329,757,0,0
112,267,0,0,0,0,0,0,0,0,0,-1,1336,757,0,0
119,267,0,0,0,0,0,0,0,0,0,-1,1343,757,0,0
126,267,0,0,0,0,0,0,0,0,0,-1,1350,757,0,0
133,267,0,0,0,0,0,0,0,0,0,-1,1357,757,0,0
140,267,0,0,0,0,0,0,0,0,0,-1,1364,757,0,0
147,267,0,0,0,0,0,0,0,0,0,-1,1371,757,0,0
154,267,0,0,0,0,0,0,0,0,0,-1,1378,757,0,0
161,267,0,0,0,0,0,0,0,0,0,-1,1385,757,0,0
168,267,0,0,0,0,0,0,0,0,0,-1,1392,757,0,0
175,267,0,0,0,0,0,0,0,0,0,-1,1399,757,0,0
182,267,0,0,0,0,0,0,0,0,0,-1,1406,757,0,0
189,267,0,0,0,0,0,0,0,0,0,-1,1413,757,0,0
196,267,0,0,0,0,0,0,0,0,0,-1,1420,757,0,0
203,267,0,0,0,0,0,0,0,0,0,-1,1427,757,0,0
210,267,0,0,0,0,0,0,0,0,0,-1,1434,757,0,0
217,267,0,0,0,0,0,0,0,0,0,-1,1441,757,0,0
224,267,0,0,0,0,0,0,0,0,0,-1,1448,757,0,0
231,267,0,0,0,0,0,0,0,0,0,-1,1455,757,0,0
238,267,0,0,0,0,0,0,0,0,0,-1,1462,757,0,0
245,267,0,0,0,0,0,0,0,0,0,-1,1469,757,0,0
252,267,0,0,0,0,0,0,0,0,0,-1,1476,757,0,0
259,267,0,0,0,0,0,0,0,0,0,-1,1483,757,0,0
266,267,0,0,0,0,0,0,0,0,0,-1,1490,757,0,0
273,267,0,0,0,0,0,0,0,0,0,-1,1497,757,0,0
280,267,0,0,0,0,0,0,0,0,0,-1,1504,757,0,0
287,267,0,0,0,0,0,0,0,0,0,-1,1511,757,0,0
294,267,0,0,0,0,0,0,0,0,0,-1,1518,757,0,0
301,267,0,0,0,0,0,0,0,0,0,-1,1525,757,0,0
308,267,0,0,0,0,0,0,0,0,0,-1,1532,757,0,0
315,267,0,0,0,0,0,0,0,0,0,-1,1539,757,0,0
322,267,0,0,0,0,0,0,0,0,0,-1,1546,757,0,0
329,267,0,0,0,0,0,0,0,0,0,-1,1553,757,0,0
336,267,0,0,0,0,0,0,0,0,0,-1,1560,757,0,0
343,267,0,0,0,0,0,0,0,0,0,-1,1567,757,0,0
350,267,0,0,0,0,0,0,0,0,0,-1,1574,757,0,0
357,267,0,0,0,0,0,0,0,0,0,-1,1581,757,0,0
364,267,0,0,0,0,0,0,0,0,0,-1,1588,757,0,0
371,267,0,0,0,0,0,0,0,0,0,-1,1595,757,0,0
378,267,0,0,0,0,0,0,0,0,0,-1,1602,757,0,0
385,267,0,0,0,0,0,0,0,0,0,-1,1609,757,0,0
392,267,0,0,0,0,0,0,0,0,0,-1,1616,757,0,0
399,267,0,0,0,0,0,0,0,0,0,-1,1623,757,0,0
406,267,0,0,0,0,0,0,0,0,0,-1,1630,757,0,0
413,267,0,0,0,0,0,0,0,0,0,-1,1637,757,0,0
420,267,0,0,0,0,0,0,0,0,0,-1,1644,757,0,0
427,267,0,0,0,0,0,0,0,0,0,-1,1651,757,0,0
434,267,0,0,0,0,0,0,0,0,0,-1,1658,757,0,0
441,267,0,0,0,0,0,0,0,0,0,-1,1665,757,0,0
448,267,0,0,0,0,0,0,0,0,0,-1,1672,757,0,0
455,267,0,0,0,0,0,0,0,0,0,-1,1679,757,0,0
462,267,0,0,0,0,0,0,0,0,0,-1,1686,757,0,0
469,267,0,0,0,0,0,0,0,0,0,-1,1693,757,0,0
476,267,0,0,0,0,0,0,0,0,0,-1,1700,757,0,0
483,267,0,0,0,0,0,0,0,0,0,-1,1707,757,0,0
490,267,0,0,0,0,0,0,0,0,0,-1,1714,757,0,0
497,267,0,0,0,0,0,0,0,0,0,-1,1721,757,0,0
504,267,0,0,0,0,0,0,0,0,0,-1,1728,757,0,0
511,267,0,0,0,0,0,0,0,0,0,-1,1735,757,0,0
518,267,0,0,0,0,0,0,0,0,0,-1,1742,757,0,0
525,267,0,0,0,0,0,0,0,0,0,-1,1749,757,0,0
532,267,0,0,0,0,0,0,0,0,0,-1,1756,757,0,0
539,267,0,0,0,0,0,0,0,0,0,-1,1763,757,0,0
546,267,0,0,0,0,0,0,0,0,0,-1,1770,757,0,0
553,267,0,0,0,0,0,0,0,0,0,-1,1777,757,0,0
560,267,0,0,0,0,0,0,0,0,0,-1,1784,757,0,0
567,267,15.1537,2.61151,0,0,0,0,0,0,0,-1,1791,757,15.1537,-2.61154
574,267,15.2225,2.59985,0.0350325,-0.0228371,0.000637659,0.0350395,-0.0228441,0.0110171,0.0336655,0.0402472,1798,757,15.2225,-2.59983
581,267,15.2501,2.57349,0.0332998,-0.0160393,0.00637915,0.0341112,-0.0168508,0.126521,0.0299802,0.0425221,1805,757,15.2501,-2.57346
588,267,15.6915,2.15613,0.0298191,-0.0122152,0.00769879,0.0311848,-0.0135809,0.175565,0.0265033,0.0461854,1812,757,15.6915,-2.15611
595,267,16.1356,2.08777,0,0,0,0,0,0,0,-1,1819,757,16.1356,-2.08777
602,267,10.6908,2.92047,0,0,0,0,0,0,0,-1,1826,757,10.6908,-2.92049
609,267,11.1431,2.60785,0,0,0,0,0,0,0,-1,1833,757,11.1431,-2.60784
616,267,10.7146,0.627258,0,0,0,0,0,0,0,-1,1840,757,10.7146,-0.627254
623,267,10.7159,0.612976,0.0104437,-0.00534392,0.000425309,0.0104551,-0.00535537,0.0269134,0.00928514,0.0470005,1847,757,10.7159,-0.612956
630,267,10.7518,0.796021,0.00702178,-0.00601581,-0.000868679,0.0070794,-0.00607343,-0.0662386,0.00760119,0.0366327,1854,757,10.7519,-0.79599
637,267,10.6915,0.819092,0.00415254,-0.00571147,-0.00272993,0.00485766,-0.00641659,-0.252768,0.0065299,0.0227039,1861,757,10.6915,-0.819077
644,267,10.6727,0.960571,0.00142393,-0.00539996,-0.0040766,0.003328,-0.00730404,-0.436961,0.00627986,0.0116201,1868,757,10.6728,-0.960575
651,267,10.6725,1.15863,-0.000543154,-0.0049212,-0.00496018,0.00268956,-0.00815392,-0.577592,0.00652007,0.0139016,1875,757,10.6725,-1.15864
658,267,10.6644,1.32147,-0.00114554,-0.0042491,-0.00431308,0.00188642,-0.00728106,-0.612716,0.00558998,0.0140326,1882,757,10.6644,-1.32146
665,267,10.6741,1.49255,-0.000328321,-0.00287791,-0.00320299,0.00184424,-0.00505047,-0.596007,0.00412163,0.0146589,1889,757,10.6741,-1.49258
672,267,10.7018,1.68231,0.000604563,-0.00183406,-0.00237932,0.0020588,-0.00328829,-0.548614,0.00311423,0.0128079,1896,757,10.7018,-1.68231
679,267,10.692,1.85999,0.00267936,-0.000790642,-0.00148874,0.00323053,-0.00134182,-0.354579,0.00271388,0.0123073,1903,757,10.692,-1.86
686,267,10.7036,2.0282,0.00652736,0.000346668,0.000114077,0.00652947,0.000344564,0.0184487,0.00424279,0.0120172,1910,757,10.7036,-2.02818
693,267,10.6875,2.18878,0.0105277,0.00103805,0.00105585,0.0106437,0.000921994,0.109479,0.00680933,0.0112149,1917,757,10.6875,-2.18877
700,267,10.6719,2.36639,0.0153617,0.00137668,0.00188435,0.0156112,0.00112723,0.131614,0.0100528,0.0130413,1924,757,10.6718,-2.36638
707,267,10.6786,2.50415,0.0213274,0.00152573,0.00293564,0.0217535,0.00109968,0.144123,0.01415,0.0136575,1931,757,10.6786,-2.50418
714,267,10.7104,2.57446,0.0289753,0.00130621,0.00445016,0.0296734,0.00060808,0.155609,0.0195827,0.0273044,1938,757,10.7104,-2.57449
721,267,10.7466,2.56287,0.0384331,0.000910941,0.00656096,0.0395473,-0.000203196,0.168209,0.0264328,0.0448991,1945,757,10.7466,-2.56287
728,267,10.751,2.53149,0,0,0,0,0,0,0,-1,1952,757,10.751,-2.53151
735,267,12.8361,4.4021,0,0,0,0,0,0,0,-1,1959,757,12.836,-4.40207
742,267,11.8174,0.0310059,0,0,0,0,0,0,0,-1,1966,757,11.8173,-0.0309843
749,267,0,0,0,0,0,0,0,0,0,-1,1973,757,0,0
756,267,0,0,0,0,0,0,0,0,0,-1,1980,757,0,0
763,267,0,0,0,0,0,0,0,0,0,-1,1987,757,0,0
770,267,0,0,0,0,0,0,0,0,0,-1,1994,757,0,0
777,267,0,0,0,0,0,0,0,0,0,-1,2001,757,0,0
784,267,0,0,0,0,0,0,0,0,0,-1,2008,757,0,0
791,267,0,0,0,0,0,0,0,0,0,-1,2015,757,0,0
798,267,0,0,0,0,0,0,0,0,0,-1,2022,757,0,0
805,267,0,0,0,0,0,0,0,0,0,-1,2029,757,0,0
812,267,0,0,0,0,0,0,0,0,0,-1,2036,757,0,0
-700,260,0,0,0,0,0,0,0,0,0,-1,524,764,0,0
-693,260,0,0,0,0,0,0,0,0,0,-1,531,764,0,0
-686,260,0,0,0,0,0,0,0,0,0,-1,538,764,0,0
-679,260,0,0,0,0,0,0,0,0,0,-1,545,764,0,0
-672,260,0,0,0,0,0,0,0,0,0,-1,552,764,0,0
-665,260,0,0,0,0,0,0,0,0,0,-1,559,764,0,0
-658,260,0,0,0,0,0,0,0,0,0,-1,566,764,0,0
-651,260,0,0,0,0,0,0,0,0,0,-1,573,764,0,0
-644,260,0,0,0,0,0,0,0,0,0,-1,580,764,0,0
-637,260,0,0,0,0,0,0,0,0,0,-1,587,764,0,0
-630,260,-5.9278,2.60077,0,0,0,0,0,0,0,-1,594,764,-5.92782,-2.60075
-623,260,-6.14716,1.61786,0.00668056,0.0293688,0.00681968,0.0312609,0.00478848,1.30016,0.019442,0.0463435,601,764,-6.14717,-1.61787
-616,260,-6.43286,0.610352,0.0127928,0.0272834,0.0117832,0.0338705,0.00620557,1.06104,0.0208224,0.046971,608,764,-6.43284,-0.610369
-609,260,-5.43762,2.13959,0,0,0,0,0,0,0,-1,615,764,-5.43764,-2.13961
-602,260,-4.96533,1.83936,0,0,0,0,0,0,0,-1,622,764,-4.96532,-1.83939
-595,260,-4.57361,1.26172,0,0,0,0,0,0,0,-1,629,764,-4.57362,-1.26173
-588,260,-5.75189,0.814453,0,0,0,0,0,0,0,-1,636,764,-5.75192,-0.814435
-581,260,-5.89728,0.631897,0.0063736,0.0064459,0.00926157,0.0156714,-0.00285189,0.78735,0.0115165,0.0229243,643,764,-5.89727,-0.631926
-574,260,-5.89771,0.525757,0.00284432,0.00371489,0.007345,0.0106375,-0.00407828,0.814995,0.00877296,0.0150796,650,764,-5.8977,-0.525761
-567,260,-5.89343,0.391785,0.00031242,0.000790609,0.00501481,0.00557202,-0.00446899,0.809219,0.00580883,0.0154321,657,764,-5.89342,-0.391814
-560,260,-5.86487,0.244812,-0.000942405,-0.000876406,0.00409344,0.00318417,-0.00500298,0.789429,0.00476557,0.0175812,664,764,-5.86489,-0.244811
-553,260,-5.85547,0.101929,-0.00189819,-0.00174719,0.003109,0.00128722,-0.0049326,0.797538,0.00379104,0.0148022,671,764,-5.85546,-0.101942
-546,260,-5.86798,-0.046936,-0.00287561,-0.00225879,0.00248569,-6.24473e-05,-0.00507195,0.84712,0.00336068,0.00986595,678,764,-5.86801,0.0469461
-539,260,-5.88824,-0.193604,-0.00326234,-0.00189665,0.0019038,-0.000556937,-0.00460206,0.957589,0.00290027,0.0107228,685,764,-5.88824,0.19363
-532,260,-5.88525,-0.34021,-0.0033084,-0.000712408,0.00187522,0.000270217,-0.00429102,1.08813,0.00295488,0.013566,692,764,-5.88526,0.340222
-525,260,-5.88025,-0.519226,-0.00334296,0.0022583,0.00230816,0.00308687,-0.00417153,1.22615,0.00420621,0.0126611,699,764,-5.88022,0.519233
-518,260,-5.87793,-0.648804,-0.00355911,0.00472109,0.00271744,0.00553325,-0.00437127,1.28038,0.00573148,0.0129069,706,764,-5.87796,0.648788
-511,260,-5.86896,-0.832214,-0.00390177,0.00799977,0.0034769,0.00894106,-0.00484306,1.30641,0.00807465,0.020009,713,764,-5.86893,0.832236
-504,260,-5.93713,-1.0249,-0.0047518,0.0120279,0.00493862,0.0133736,-0.00609742,1.30478,0.0115002,0.0371322,720,764,-5.93715,1.02489
-497,260,-6.25403,-1.271,-0.00572641,0.017046,0.00680521,0.0189247,-0.00760506,1.30144,0.0157749,0.0479315,727,764,-6.25405,1.27099
-490,260,-6.48181,-1.70081,-0.00745624,0.0239919,0.00931729,0.026545,-0.0100094,1.30333,0.0218126,0.0485845,734,764,-6.48182,1.70079
-483,260,-6.34857,-1.82605,-0.00975431,0.0314403,0.012382,0.0348755,-0.0131895,1.30017,0.0286764,0.045814,741,764,-6.3486,1.82602
-476,260,-6.15222,-2.1261,-0.0134346,0.039744,0.0161853,0.0442827,-0.0179733,1.29739,0.0369979,0.0483338,748,764,-6.15222,2.12607
-469,260,-6.04858,-2.11914,0,0,0,0,0,0,0,-1,755,764,-6.0486,2.11915
-462,260,-7.57819,-0.222412,0,0,0,0,0,0,0,-1,762,764,-7.57816,0.222442
-455,260,-9.45502,0.854797,0,0,0,0,0,0,0,-1,769,764,-9.45503,-0.854769
-448,260,0,0,0,0,0,0,0,0,0,-1,776,764,0,0
-441,260,0,0,0,0,0,0,0,0,0,-1,783,764,0,0
-434,260,0,0,0,0,0,0,0,0,0,-1,790,764,0,0
-427,260,0,0,0,0,0,0,0,0,0,-1,797,764,0,0
-420,260,0,0,0,0,0,0,0,0,0,-1,804,764,0,0
-413,260,0,0,0,0,0,0,0,0,0,-1,811,764,0,0
-406,260,0,0,0,0,0,0,0,0,0,-1,818,764,0,0
-399,260,0,0,0,0,0,0,0,0,0,-1,825,764,0,0
-392,260,0,0,0,0,0,0,0,0,0,-1,832,764,0,0
-385,260,0,0,0,0,0,0,0,0,0,-1,839,764,0,0
-378,260,0,0,0,0,0,0,0,0,0,-1,846,764,0,0
-371,260,0,0,0,0,0,0,0,0,0,-1,853,764,0,0
-364,260,0,0,0,0,0,0,0,0,0,-1,860,764,0,0
-357,260,0,0,0,0,0,0,0,0,0,-1,867,764,0,0
-350,260,0,0,0,0,0,0,0,0,0,-1,874,764,0,0
-343,260,0,0,0,0,0,0,0,0,0,-1,881,764,0,0
-336,260,0,0,0,0,0,0,0,0,0,-1,888,764,0,0
-329,260,0,0,0,0,0,0,0,0,0,-1,895,764,0,0
-322,260,0,0,0,0,0,0,0,0,0,-1,902,764,0,0
-315,260,0,0,0,0,0,0,0,0,0,-1,909,764,0,0
-308,260,0,0,0,0,0,0,0,0,0,-1,916,764,0,0
-301,260,0,0,0,0,0,0,0,0,0,-1,923,764,0,0
-294,260,0,0,0,0,0,0,0,0,0,-1,930,764,0,0
-287,260,0,0,0,0,0,0,0,0,0,-1,937,764,0,0
-280,260,0,0,0,0,0,0,0,0,0,-1,944,764,0,0
-273,260,0,0,0,0,0,0,0,0,0,-1,951,764,0,0
-266,260,0,0,0,0,0,0,0,0,0,-1,958,764,0,0
-259,260,0,0,0,0,0,0,0,0,0,-1,965,764,0,0
-252,260,0,0,0,0,0,0,0,0,0,-1,972,764,0,0
-245,260,0,0,0,0,0,0,0,0,0,-1,979,764,0,0
-238,260,0,0,0,0,0,0,0,0,0,-1,986,764,0,0
-231,260,0,0,0,0,0,0,0,0,0,-1,993,764,0,0
-224,260,0,0,0,0,0,0,0,0,0,-1,1000,764,0,0
-217,260,0,0,0,0,0,0,0,0,0,-1,1007,764,0,0
-210,260,0,0,0,0,0,0,0,0,0,-1,1014,764,0,0
-203,260,0,0,0,0,0,0,0,0,0,-1,1021,764,0,0
-196,260,0,0,0,0,0,0,0,0,0,-1,1028,764,0,0
-189,260,0,0,0,0,0,0,0,0,0,-1,1035,764,0,0
-182,260,0,0,0,0,0,0,0,0,0,-1,1042,764,0,0
-175,260,0,0,0,0,0,0,0,0,0,-1,1049,764,0,0
-168,260,0,0,0,0,0,0,0,0,0,-1,1056,764,0,0
-161,260,0,0,0,0,0,0,0,0,0,-1,1063,764,0,0
-154,260,0,0,0,0,0,0,0,0,0,-1,1070,764,0,0
-147,260,0,0,0,0,0,0,0,0,0,-1,1077,764,0,0
-140,260,0,0,0,0,0,0,0,0,0,-1,1084,764,0,0
-133,260,0,0,0,0,0,0,0,0,0,-1,1091,764,0,0
-126,260,0,0,0,0,0,0,0,0,0,-1,1098,764,0,0
-119,260,0,0,0,0,0,0,0,0,0,-1,1105,764,0,0
-112,260,0,0,0,0,0,0,0,0,0,-1,1112,764,0,0
-105,260,0,0,0,0,0,0,0,0,0,-1,1119,764,0,0
-98,260,0,0,0,0,0,0,0,0,0,-1,1126,764,0,0
-91,260,0,0,0,0,0,0,0,0,0,-1,1133,764,0,0
-84,260,0,0,0,0,0,0,0,0,0,-1,1140,764,0,0
-77,260,0,0,0,0,0,0,0,0,0,-1,1147,764,0,0
-70,260,0,0,0,0,0,0,0,0,0,-1,1154,764,0,0
-63,260,0,0,0,0,0,0,0,0,0,-1,1161,764,0,0
-56,260,0,0,0,0,0,0,0,0,0,-1,1168,764,0,0
-49,260,0,0,0,0,0,0,0,0,0,-1,1175,764,0,0
-42,260,0,0,0,0,0,0,0,0,0,-1,1182,764,0,0
-35,260,0,0,0,0,0,0,0,0,0,-1,1189,764,0,0
-28,260,0,0,0,0,0,0,0,0,0,-1,1196,764,0,0
-21,260,0,0,0,0,0,0,0,0,0,-1,1203,764,0,0
-14,260,0,0,0,0,0,0,0,0,0,-1,1210,764,0,0
-7,260,0,0,0,0,0,0,0,0,0,-1,1217,764,0,0
0,260,0,0,0,0,0,0,0,0,0,-1,1224,764,0,0
7,260,0,0,0,0,0,0,0,0,0,-1,1231,764,0,0
14,260,0,0,0,0,0,0,0,0,0,-1,1238,764,0,0
21,260,0,0,0,0,0,0,0,0,0,-1,1245,764,0,0
28,260,0,0,0,0,0,0,0,0,0,-1,1252,764,0,0
35,260,0,0,0,0,0,0,0,0,0,-1,1259,764,0,0
42,260,0,0,0,0,0,0,0,0,0,-1,1266,764,0,0
49,260,0,0,0,0,0,0,0,0,0,-1,1273,764,0,0
56,260,0,0,0,0,0,0,0,0,0,-1,1280,764,0,0
63,260,0,0,0,0,0,0,0,0,0,-1,1287,764,0,0
70,260,0,0,0,0,0,0,0,0,0,-1,1294,764,0,0
77,260,0,0,0,0,0,0,0,0,0,-1,1301,764,0,0
84,260,0,0,0,0,0,0,0,0,0,-1,1308,764,0,0
91,260,0,0,0,0,0,0,0,0,0,-1,1315,764,0,0
98,260,0,0,0,0,0,0,0,0,0,-1,1322,764,0,0
105,260,0,0,0,0,0,0,0,0,0,-1,1329,764,0,0
112,260,0,0,0,0,0,0,0,0,0,-1,1336,764,0,0
119,260,0,0,0,0,0,0,0,0,0,-1,1343,764,0,0
126,260,0,0,0,0,0,0,0,0,0,-1,1350,764,0,0
133,260,0,0,0,0,0,0,0,0,0,-1,1357,764,0,0
140,260,0,0,0,0,0,0,0,0,0,-1,1364,764,0,0
147,260,0,0,0,0,0,0,0,0,0,-1,1371,764,0,0
154,260,0,0,0,0,0,0,0,0,0,-1,1378,764,0,0
161,260,0,0,0,0,0,0,0,0,0,-1,1385,764,0,0
168,260,0,0,0,0,0,0,0,0,0,-1,1392,764,0,0
175,260,0,0,0,0,0,0,0,0,0,-1,1399,764,0,0
182,260,0,0,0,0,0,0,0,0,0,-1,1406,764,0,0
189,260,0,0,0,0,0,0,0,0,0,-1,1413,764,0,0
196,260,0,0,0,0,0,0,0,0,0,-1,1420,764,0,0
203,260,0,0,0,0,0,0,0,0,0,-1,1427,764,0,0
210,260,0,0,0,0,0,0,0,0,0,-1,1434,764,0,0
217,260,0,0,0,0,0,0,0,0,0,-1,1441,764,0,0
224,260,0,0,0,0,0,0,0,0,0,-1,1448,764,0,0
231,260,0,0,0,0,0,0,0,0,0,-1,1455,764,0,0
238,260,0,0,0,0,0,0,0,0,0,-1,1462,764,0,0
245,260,0,0,0,0,0,0,0,0,0,-1,1469,764,0,0
252,260,0,0,0,0,0,0,0,0,0,-1,1476,764,0,0
259,260,0,0,0,0,0,0,0,0,0,-1,1483,764,0,0
266,260,0,0,0,0,0,0,0,0,0,-1,1490,764,0,0
273,260,0,0,0,0,0,0,0,0,0,-1,1497,764,0,0
280,260,0,0,0,0,0,0,0,0,0,-1,1504,764,0,0
287,260,0,0,0,0,0,0,0,0,0,-1,1511,764,0,0
294,260,0,0,0,0,0,0,0,0,0,-1,1518,764,0,0
301,260,0,0,0,0,0,0,0,0,0,-1,1525,764,0,0
308,260,0,0,0,0,0,0,0,0,0,-1,1532,764,0,0
315,260,0,0,0,0,0,0,0,0,0,-1,1539,764,0,0
322,260,0,0,0,0,0,0,0,0,0,-1,1546,764,0,0
329,260,0,0,0,0,0,0,0,0,0,-1,1553,764,0,0
336,260,0,0,0,0,0,0,0,0,0,-1,1560,764,0,0
343,260,0,0,0,0,0,0,0,0,0,-1,1567,764,0,0
350,260,0,0,0,0,0,0,0,0,0,-1,1574,764,0,0
357,260,0,0,0,0,0,0,0,0,0,-1,1581,764,0,0
364,260,0,0,0,0,0,0,0,0,0,-1,1588,764,0,0
371,260,0,0,0,0,0,0,0,0,0,-1,1595,764,0,0
378,260,0,0,0,0,0,0,0,0,0,-1,1602,764,0,0
385,260,0,0,0,0,0,0,0,0,0,-1,1609,764,0,0
392,260,0,0,0,0,0,0,0,0,0,-1,1616,764,0,0
399,260,0,0,0,0,0,0,0,0,0,-1,1623,764,0,0
406,260,0,0,0,0,0,0,0,0,0,-1,1630,764,0,0
413,260,0,0,0,0,0,0,0,0,0,-1,1637,764,0,0
420,260,0,0,0,0,0,0,0,0,0,-1,1644,764,0,0
427,260,0,0,0,0,0,0,0,0,0,-1,1651,764,0,0
434,260,0,0,0,0,0,0,0,0,0,-1,1658,764,0,0
441,260,0,0,0,0,0,0,0,0,0,-1,1665,764,0,0
448,260,0,0,0,0,0,0,0,0,0,-1,1672,764,0,0
455,260,0,0,0,0,0,0,0,0,0,-1,1679,764,0,0
462,260,0,0,0,0,0,0,0,0,0,-1,1686,764,0,0
469,260,0,0,0,0,0,0,0,0,0,-1,1693,764,0,0
476,260,0,0,0,0,0,0,0,0,0,-1,1700,764,0,0
483,260,0,0,0,0,0,0,0,0,0,-1,1707,764,0,0
490,260,0,0,0,0,0,0,0,0,0,-1,1714,764,0,0
497,260,0,0,0,0,0,0,0,0,0,-1,1721,764,0,0
504,260,0,0,0,0,0,0,0,0,0,-1,1728,764,0,0
511,260,0,0,0,0,0,0,0,0,0,-1,1735,764,0,0
518,260,0,0,0,0,0,0,0,0,0,-1,1742,764,0,0
525,260,0,0,0,0,0,0,0,0,0,-1,1749,764,0,0
532,260,0,0,0,0,0,0,0,0,0,-1,1756,764,0,0
539,260,0,0,0,0,0,0,0,0,0,-1,1763,764,0,0
546,260,0,0,0,0,0,0,0,0,0,-1,1770,764,0,0
553,260,0,0,0,0,0,0,0,0,0,-1,1777,764,0,0
560,260,0,0,0,0,0,0,0,0,0,-1,1784,764,0,0
567,260,0,0,0,0,0,0,0,0,0,-1,1791,764,0,0
574,260,15.3309,2.36237,0.0275754,-0.0206969,-0.00325474,0.0277939,-0.0209154,-0.0670203,0.0282156,0.0360617,1798,764,15.331,-2.36239
581,260,15.3835,2.37738,0.0285216,-0.0139774,0.00372473,0.0288456,-0.0143014,0.0867613,0.0253783,0.0397851,1805,764,15.3835,-2.37739
588,260,15.674,2.18579,0.0267172,-0.0105344,0.00561146,0.0275442,-0.0113613,0.146312,0.0231007,0.0435205,1812,764,15.6739,-2.18577
595,260,16.0037,2.09387,0.02359,-0.00863609,0.00521924,0.0244142,-0.0094603,0.156625,0.0201827,0.045205,1819,764,16.0037,-2.09388
602,260,9.87134,3.03394,0,0,0,0,0,0,0,-1,1826,764,9.87136,-3.03396
609,260,10.4692,2.53381,0,0,0,0,0,0,0,-1,1833,764,10.4692,-2.53381
616,260,10.9508,1.81317,0,0,0,0,0,0,0,-1,1840,764,10.9509,-1.81316
623,260,11.4366,1.31787,0.00979077,-0.00553642,-0.000983961,0.00985368,-0.00559933,-0.0638478,0.0090338,0.045109,1847,764,11.4367,-1.31789
630,260,11.4622,1.25342,0.00657344,-0.00612717,-0.00193567,0.00686189,-0.00641563,-0.147934,0.00766723,0.0445177,1854,764,11.4621,-1.25342
637,260,10.627,0.627686,0.00382206,-0.00583102,-0.00334924,0.00487029,-0.00687925,-0.303318,0.00681657,0.041288,1861,764,10.627,-0.627715
644,260,10.8831,0.951721,0.00120869,-0.00555559,-0.00433829,0.00332742,-0.00767432,-0.454309,0.00651503,0.0214154,1868,764,10.8831,-0.951731
651,260,10.8989,1.15002,-0.000630332,-0.00515352,-0.00498627,0.00258326,-0.00836711,-0.572491,0.00660963,0.0128417,1875,764,10.8989,-1.15004
658,260,10.8689,1.34558,-0.0012545,-0.0045531,-0.00433571,0.00173501,-0.00754261,-0.60365,0.00569553,0.015631,1882,764,10.8689,-1.34559
665,260,10.8784,1.52692,-0.00068742,-0.00328896,-0.0032515,0.00151385,-0.00549023,-0.595122,0.00425549,0.01531,1889,764,10.8784,-1.5269
672,260,10.8849,1.69653,-0.000118734,-0.00234078,-0.0023629,0.00138131,-0.00384082,-0.565638,0.00312448,0.0131768,1896,764,10.8849,-1.69652
679,260,10.8513,1.85345,0.00153898,-0.00130221,-0.00140459,0.00211612,-0.00187936,-0.389865,0.00230814,0.0126756,1903,764,10.8513,-1.85347
686,260,10.8599,2.02478,0.00501601,-0.00016732,0.000250494,0.00502809,-0.000179397,0.0481771,0.00341343,0.0129318,1910,764,10.8599,-2.02476
693,260,10.8446,2.17181,0.0085326,0.000477922,0.00131755,0.00874264,0.000267879,0.158089,0.00574122,0.012204,1917,764,10.8446,-2.17181
700,260,10.8142,2.354,0.0126849,0.000687738,0.00220064,0.0130758,0.000296813,0.175808,0.00861996,0.0116481,1924,764,10.8142,-2.354
707,260,10.8104,2.50708,0.0176675,0.000628631,0.00328553,0.018279,1.70497e-05,0.184038,0.0121804,0.0127908,1931,764,10.8104,-2.50708
714,260,10.845,2.62982,0.0240365,4.5673e-05,0.00483215,0.0249732,-0.00089103,0.191473,0.0169536,0.0221648,1938,764,10.845,-2.62981
721,260,10.8416,2.54645,0.0319087,-0.00081241,0.00690959,0.0333079,-0.00221165,0.199805,0.022978,0.03855,1945,764,10.8415,-2.54643
728,260,10.8716,2.25763,0.0413267,-0.00251189,0.00933093,0.0432301,-0.00441531,0.20123,0.0303989,0.045322,1952,764,10.8716,-2.25761
735,260,12.3508,4.09869,0.052037,-0.00561903,0.0118212,0.0543665,-0.00794862,0.194575,0.0391637,0.0438123,1959,764,12.3509,-4.09869
742,260,13.1307,3.60931,0,0,0,0,0,0,0,-1,1966,764,13.1308,-3.6093
749,260,12.9869,0.486084,0,0,0,0,0,0,0,-1,1973,764,12.9869,-0.486076
756,260,0,0,0,0,0,0,0,0,0,-1,1980,764,0,0
763,260,0,0,0,0,0,0,0,0,0,-1,1987,764,0,0
770,260,0,0,0,0,0,0,0,0,0,-1,1994,764,0,0
777,260,0,0,0,0,0,0,0,0,0,-1,2001,764,0,0
784,260,0,0,0,0,0,0,0,0,0,-1,2008,764,0,0
791,260,0,0,0,0,0,0,0,0,0,-1,2015,764,0,0
798,260,0,0,0,0,0,0,0,0,0,-1,2022,764,0,0
805,260,0,0,0,0,0,0,0,0,0,-1,2029,764,0,0
812,260,0,0,0,0,0,0,0,0,0,-1,2036,764,0,0
-700,253,0,0,0,0,0,0,0,0,0,-1,524,771,0,0
-693,253,0,0,0,0,0,0,0,0,0,-1,531,771,0,0
-686,253,0,0,0,0,0,0,0,0,0,-1,538,771,0,0
-679,253,0,0,0,0,0,0,0,0,0,-1,545,771,0,0
-672,253,0,0,0,0,0,0,0,0,0,-1,552,771,0,0
-665,253,0,0,0,0,0,0,0,0,0,-1,559,771,0,0
-658,253,0,0,0,0,0,0,0,0,0,-1,566,771,0,0
-651,253,0,0,0,0,0,0,0,0,0,-1,573,771,0,0
-644,253,0,0,0,0,0,0,0,0,0,-1,580,771,0,0
-637,253,-8.18439,2.23047,0,0,0,0,0,0,0,-1,587,771,-8.18438,-2.23048
-630,253,-6.15472,2.68933,0,0,0,0,0,0,0,-1,594,771,-6.15472,-2.6893
-623,253,-6.37006,1.6792,0,0,0,0,0,0,0,-1,601,771,-6.37006,-1.67919
-616,253,-6.23822,2.14331,0,0,0,0,0,0,0,-1,608,771,-6.23819,-2.14333
-609,253,-5.88446,1.81073,0.0184338,0.0275595,0.0164191,0.040038,0.0059553,0.920927,0.024945,0.0494064,615,771,-5.88447,-1.81071
-602,253,-5.53192,1.53766,0.0161418,0.0223641,0.0150774,0.034648,0.00385789,0.887143,0.0219261,0.0481356,622,771,-5.53191,-1.53767
-595,253,-5.38275,1.16034,0.0131867,0.0170967,0.0129489,0.0282373,0.00204605,0.860322,0.0181812,0.0471745,629,771,-5.38278,-1.16034
-588,253,-5.87891,0.867859,0.0108815,0.0125028,0.0107342,0.022457,0.000927372,0.823085,0.014672,0.0376086,636,771,-5.87888,-0.867877
-581,253,-6.01147,0.632507,0.00759758,0.00849296,0.00873809,0.0167948,-0.000704284,0.810993,0.0114385,0.0216639,643,771,-6.01145,-0.632485
-574,253,-6.04626,0.511108,0.00367292,0.00539112,0.00670889,0.0112957,-0.00223165,0.849079,0.00837406,0.0183606,650,771,-6.0463,-0.511105
-567,253,-6.047,0.367126,0.000663056,0.00192639,0.00428196,0.00562303,-0.00303358,0.858629,0.00507188,0.0154417,657,771,-6.04702,-0.367107
-560,253,-6.01868,0.248352,-0.00103365,-0.000177579,0.00343089,0.00285187,-0.0040631,0.847457,0.00401273,0.0120457,664,771,-6.01866,-0.248371
-553,253,-6.01563,0.121399,-0.00224394,-0.00148693,0.00270355,0.000864479,-0.00459535,0.854948,0.00338869,0.0109619,671,771,-6.01564,-0.121405
-546,253,-6.03101,-0.0219116,-0.00350313,-0.00244526,0.00232377,-0.000590982,-0.00535741,0.897302,0.00339182,0.0100573,678,771,-6.03101,0.0219418
-539,253,-6.04968,-0.179565,-0.00404132,-0.00239878,0.0018496,-0.00119631,-0.00524379,0.994335,0.00317317,0.0113647,685,771,-6.04971,0.179545
-532,253,-6.05054,-0.327087,-0.00411025,-0.00149641,0.00182744,-0.000556651,-0.00505001,1.09581,0.00319731,0.0153268,692,771,-6.05052,0.327067
-525,253,-6.03534,-0.508728,-0.00408497,0.00115518,0.0021597,0.00193056,-0.00486035,1.22611,0.00404053,0.0124313,699,771,-6.03535,0.508741
-518,253,-6.02795,-0.655579,-0.00419418,0.0033076,0.00235049,0.00398322,-0.0048698,1.2909,0.00511983,0.0155376,706,771,-6.02798,0.655556
-511,253,-6.0144,-0.814331,-0.00429029,0.00622324,0.00277321,0.0069099,-0.00497695,1.32807,0.00689305,0.0349059,713,771,-6.01439,0.814312
-504,253,-5.98584,-0.909973,-0.00467503,0.00989573,0.00371041,0.0107862,-0.00556546,1.33527,0.00959967,0.0474292,720,771,-5.98583,0.909987
-497,253,-6.45917,-0.69989,-0.00498849,0.014489,0.00490991,0.0156567,-0.00615618,1.33731,0.0129857,0.0477854,727,771,-6.4592,0.699883
-490,253,-6.74335,-0.772278,0,0,0,0,0,0,0,-1,734,771,-6.74334,0.772254
-483,253,-6.0744,-2.55194,0,0,0,0,0,0,0,-1,741,771,-6.07442,2.55196
-476,253,-6.05432,-2.78125,0,0,0,0,0,0,0,-1,748,771,-6.05432,2.78122
-469,253,-9.68201,0.486389,-0.0134164,0.0420568,0.0149666,0.0458371,-0.0171968,1.32339,0.037624,0.0431943,755,771,-9.68198,-0.486407
-462,253,-9.7019,0.546326,-0.0203893,0.048572,0.0191942,0.0535544,-0.0253717,1.31682,0.0465263,0.0450787,762,771,-9.70188,-0.546341
-455,253,-9.47552,0.751465,0,0,0,0,0,0,0,-1,769,771,-9.47555,-0.751493
-448,253,0,0,0,0,0,0,0,0,0,-1,776,771,0,0
-441,253,0,0,0,0,0,0,0,0,0,-1,783,771,0,0
-434,253,0,0,0,0,0,0,0,0,0,-1,790,771,0,0
-427,253,0,0,0,0,0,0,0,0,0,-1,797,771,0,0
-420,253,0,0,0,0,0,0,0,0,0,-1,804,771,0,0
-413,253,0,0,0,0,0,0,0,0,0,-1,811,771,0,0
-406,253,0,0,0,0,0,0,0,0,0,-1,818,771,0,0
-399,253,0,0,0,0,0,0,0,0,0,-1,825,771,0,0
-392,253,0,0,0,0,0,0,0,0,0,-1,832,771,0,0
-385,253,0,0,0,0,0,0,0,0,0,-1,839,771,0,0
-378,253,0,0,0,0,0,0,0,0,0,-1,846,771,0,0
-371,253,0,0,0,0,0,0,0,0,0,-1,853,771,0,0
-364,253,0,0,0,0,0,0,0,0,0,-1,860,771,0,0
-357,253,0,0,0,0,0,0,0,0,0,-1,867,771,0,0
-350,253,0,0,0,0,0,0,0,0,0,-1,874,771,0,0
-343,253,0,0,0,0,0,0,0,0,0,-1,881,771,0,0
-336,253,0,0,0,0,0,0,0,0,0,-1,888,771,0,0
-329,253,0,0,0,0,0,0,0,0,0,-1,895,771,0,0
-322,253,0,0,0,0,0,0,0,0,0,-1,902,771,0,0
-315,253,0,0,0,0,0,0,0,0,0,-1,909,771,0,0
-308,253,0,0,0,0,0,0,0,0,0,-1,916,771,0,0
-301,253,0,0,0,0,0,0,0,0,0,-1,923,771,0,0
-294,253,0,0,0,0,0,0,0,0,0,-1,930,771,0,0
-287,253,0,0,0,0,0,0,0,0,0,-1,937,771,0,0
-280,253,0,0,0,0,0,0,0,0,0,-1,944,771,0,0
-273,253,0,0,0,0,0,0,0,0,0,-1,951,771,0,0
-266,253,0,0,0,0,0,0,0,0,0,-1,958,771,0,0
-259,253,0,0,0,0,0,0,0,0,0,-1,965,771,0,0
-252,253,0,0,0,0,0,0,0,0,0,-1,972,771,0,0
-245,253,0,0,0,0,0,0,0,0,0,-1,979,771,0,0
-238,253,0,0,0,0,0,0,0,0,0,-1,986,771,0,0
-231,253,0,0,0,0,0,0,0,0,0,-1,993,771,0,0
-224,253,0,0,0,0,0,0,0,0,0,-1,1000,771,0,0
-217,253,0,0,0,0,0,0,0,0,0,-1,1007,771,0,0
-210,253,0,0,0,0,0,0,0,0,0,-1,1014,771,0,0
-203,253,0,0,0,0,0,0,0,0,0,-1,1021,771,0,0
-196,253,0,0,0,0,0,0,0,0,0,-1,1028,771,0,0
-189,253,0,0,0,0,0,0,0,0,0,-1,1035,771,0,0
-182,253,0,0,0,0,0,0,0,0,0,-1,1042,771,0,0
-175,253,0,0,0,0,0,0,0,0,0,-1,1049,771,0,0
-168,253,0,0,0,0,0,0,0,0,0,-1,1056,771,0,0
-161,253,0,0,0,0,0,0,0,0,0,-1,1063,771,0,0
-154,253,0,0,0,0,0,0,0,0,0,-1,1070,771,0,0
-147,253,0,0,0,0,0,0,0,0,0,-1,1077,771,0,0
-140,253,0,0,0,0,0,0,0,0,0,-1,1084,771,0,0
-133,253,0,0,0,0,0,0,0,0,0,-1,1091,771,0,0
-126,253,0,0,0,0,0,0,0,0,0,-1,1098,771,0,0
-119,253,0,0,0,0,0,0,0,0,0,-1,1105,771,0,0
-112,253,0,0,0,0,0,0,0,0,0,-1,1112,771,0,0
-105,253,0,0,0,0,0,0,0,0,0,-1,1119,771,0,0
-98,253,0,0,0,0,0,0,0,0,0,-1,1126,771,0,0
-91,253,0,0,0,0,0,0,0,0,0,-1,1133,771,0,0
-84,253,0,0,0,0,0,0,0,0,0,-1,1140,771,0,0
-77,253,0,0,0,0,0,0,0,0,0,-1,1147,771,0,0
-70,253,0,0,0,0,0,0,0,0,0,-1,1154,771,0,0
-63,253,0,0,0,0,0,0,0,0,0,-1,1161,771,0,0
-56,253,0,0,0,0,0,0,0,0,0,-1,1168,771,0,0
-49,253,0,0,0,0,0,0,0,0,0,-1,1175,771,0,0
-42,253,0,0,0,0,0,0,0,0,0,-1,1182,771,0,0
-35,253,0,0,0,0,0,0,0,0,0,-1,1189,771,0,0
-28,253,0,0,0,0,0,0,0,0,0,-1,1196,771,0,0
-21,253,0,0,0,0,0,0,0,0,0,-1,1203,771,0,0
-14,253,0,0,0,0,0,0,0,0,0,-1,1210,771,0,0
-7,253,0,0,0,0,0,0,0,0,0,-1,1217,771,0,0
0,253,0,0,0,0,0,0,0,0,0,-1,1224,771,0,0
7,253,0,0,0,0,0,0,0,0,0,-1,1231,771,0,0
14,253,0,0,0,0,0,0,0,0,0,-1,1238,771,0,0
21,253,0,0,0,0,0,0,0,0,0,-1,1245,771,0,0
28,253,0,0,0,0,0,0,0,0,0,-1,1252,771,0,0
35,253,0,0,0,0,0,0,0,0,0,-1,1259,771,0,0
42,253,0,0,0,0,0,0,0,0,0,-1,1266,771,0,0
49,253,0,0,0,0,0,0,0,0,0,-1,1273,771,0,0
56,253,0,0,0,0,0,0,0,0,0,-1,1280,771,0,0
63,253,0,0,0,0,0,0,0,0,0,-1,1287,771,0,0
70,253,0,0,0,0,0,0,0,0,0,-1,1294,771,0,0
77,253,0,0,0,0,0,0,0,0,0,-1,1301,771,0,0
84,253,0,0,0,0,0,0,0,0,0,-1,1308,771,0,0
91,253,0,0,0,0,0,0,0,0,0,-1,1315,771,0,0
98,253,0,0,0,0,0,0,0,0,0,-1,1322,771,0,0
105,253,0,0,0,0,0,0,0,0,0,-1,1329,771,0,0
112,253,0,0,0,0,0,0,0,0,0,-1,1336,771,0,0
119,253,0,0,0,0,0,0,0,0,0,-1,1343,771,0,0
126,253,0,0,0,0,0,0,0,0,0,-1,1350,771,0,0
133,253,0,0,0,0,0,0,0,0,0,-1,1357,771,0,0
140,253,0,0,0,0,0,0,0,0,0,-1,1364,771,0,0
147,253,0,0,0,0,0,0,0,0,0,-1,1371,771,0,0
154,253,0,0,0,0,0,0,0,0,0,-1,1378,771,0,0
161,253,0,0,0,0,0,0,0,0,0,-1,1385,771,0,0
168,253,0,0,0,0,0,0,0,0,0,-1,1392,771,0,0
175,253,0,0,0,0,0,0,0,0,0,-1,1399,771,0,0
182,253,0,0,0,0,0,0,0,0,0,-1,1406,771,0,0
189,253,0,0,0,0,0,0,0,0,0,-1,1413,771,0,0
196,253,0,0,0,0,0,0,0,0,0,-1,1420,771,0,0
203,253,0,0,0,0,0,0,0,0,0,-1,1427,771,0,0
210,253,0,0,0,0,0,0,0,0,0,-1,1434,771,0,0
217,253,0,0,0,0,0,0,0,0,0,-1,1441,771,0,0
224,253,0,0,0,0,0,0,0,0,0,-1,1448,771,0,0
231,253,0,0,0,0,0,0,0,0,0,-1,1455,771,0,0
238,253,0,0,0,0,0,0,0,0,0,-1,1462,771,0,0
245,253,0,0,0,0,0,0,0,0,0,-1,1469,771,0,0
252,253,0,0,0,0,0,0,0,0,0,-1,1476,771,0,0
259,253,0,0,0,0,0,0,0,0,0,-1,1483,771,0,0
266,253,0,0,0,0,0,0,0,0,0,-1,1490,771,0,0
273,253,0,0,0,0,0,0,0,0,0,-1,1497,771,0,0
280,253,0,0,0,0,0,0,0,0,0,-1,1504,771,0,0
287,253,0,0,0,0,0,0,0,0,0,-1,1511,771,0,0
294,253,0,0,0,0,0,0,0,0,0,-1,1518,771,0,0
301,253,0,0,0,0,0,0,0,0,0,-1,1525,771,0,0
308,253,0,0,0,0,0,0,0,0,0,-1,1532,771,0,0
315,253,0,0,0,0,0,0,0,0,0,-1,1539,771,0,0
322,253,0,0,0,0,0,0,0,0,0,-1,1546,771,0,0
329,253,0,0,0,0,0,0,0,0,0,-1,1553,771,0,0
336,253,0,0,0,0,0,0,0,0,0,-1,1560,771,0,0
343,253,0,0,0,0,0,0,0,0,0,-1,1567,771,0,0
350,253,0,0,0,0,0,0,0,0,0,-1,1574,771,0,0
357,253,0,0,0,0,0,0,0,0,0,-1,1581,771,0,0
364,253,0,0,0,0,0,0,0,0,0,-1,1588,771,0,0
371,253,0,0,0,0,0,0,0,0,0,-1,1595,771,0,0
378,253,0,0,0,0,0,0,0,0,0,-1,1602,771,0,0
385,253,0,0,0,0,0,0,0,0,0,-1,1609,771,0,0
392,253,0,0,0,0,0,0,0,0,0,-1,1616,771,0,0
399,253,0,0,0,0,0,0,0,0,0,-1,1623,771,0,0
406,253,0,0,0,0,0,0,0,0,0,-1,1630,771,0,0
413,253,0,0,0,0,0,0,0,0,0,-1,1637,771,0,0
420,253,0,0,0,0,0,0,0,0,0,-1,1644,771,0,0
427,253,0,0,0,0,0,0,0,0,0,-1,1651,771,0,0
434,253,0,0,0,0,0,0,0,0,0,-1,1658,771,0,0
441,253,0,0,0,0,0,0,0,0,0,-1,1665,771,0,0
448,253,0,0,0,0,0,0,0,0,0,-1,1672,771,0,0
455,253,0,0,0,0,0,0,0,0,0,-1,1679,771,0,0
462,253,0,0,0,0,0,0,0,0,0,-1,1686,771,0,0
469,253,0,0,0,0,0,0,0,0,0,-1,1693,771,0,0
476,253,0,0,0,0,0,0,0,0,0,-1,1700,771,0,0
483,253,0,0,0,0,0,0,0,0,0,-1,1707,771,0,0
490,253,0,0,0,0,0,0,0,0,0,-1,1714,771,0,0
497,253,0,0,0,0,0,0,0,0,0,-1,1721,771,0,0
504,253,0,0,0,0,0,0,0,0,0,-1,1728,771,0,0
511,253,0,0,0,0,0,0,0,0,0,-1,1735,771,0,0
518,253,0,0,0,0,0,0,0,0,0,-1,1742,771,0,0
525,253,0,0,0,0,0,0,0,0,0,-1,1749,771,0,0
532,253,0,0,0,0,0,0,0,0,0,-1,1756,771,0,0
539,253,0,0,0,0,0,0,0,0,0,-1,1763,771,0,0
546,253,0,0,0,0,0,0,0,0,0,-1,1770,771,0,0
553,253,0,0,0,0,0,0,0,0,0,-1,1777,771,0,0
560,253,0,0,0,0,0,0,0,0,0,-1,1784,771,0,0
567,253,0,0,0,0,0,0,0,0,0,-1,1791,771,0,0
574,253,15.2795,2.30768,0.0189271,-0.0177409,-0.00634473,0.0199939,-0.0188077,-0.166582,0.0224056,0.0368208,1798,771,15.2796,-2.30765
581,253,15.2372,2.38062,0.0229266,-0.0114061,0.00150143,0.0229921,-0.0114717,0.0436208,0.0202649,0.0406823,1805,771,15.2372,-2.38062
588,253,15.5472,2.29156,0.0231794,-0.00852597,0.00390967,0.0236544,-0.00900096,0.1209,0.019476,0.0423091,1812,771,15.5473,-2.29155
595,253,15.7695,2.31317,0.0211283,-0.00710748,0.00365491,0.0215937,-0.00757291,0.126662,0.0174759,0.0433253,1819,771,15.7695,-2.31315
602,253,15.9657,2.20715,0,0,0,0,0,0,0,-1,1826,771,15.9657,-2.20713
609,253,9.75513,2.47241,0,0,0,0,0,0,0,-1,1833,771,9.75511,-2.47242
616,253,10.3715,1.43219,0,0,0,0,0,0,0,-1,1840,771,10.3715,-1.43219
623,253,12.0775,1.86902,0,0,0,0,0,0,0,-1,1847,771,12.0775,-1.869
630,253,10.8373,0.460388,0,0,0,0,0,0,0,-1,1854,771,10.8373,-0.460399
637,253,11.0933,0.757568,0.00312049,-0.00561057,-0.00371618,0.00448801,-0.00697809,-0.352611,0.00667179,0.0497516,1861,771,11.0932,-0.757566
644,253,11.0814,0.922119,0.000667062,-0.00536096,-0.00437609,0.00296666,-0.00766055,-0.483832,0.00633198,0.0364665,1868,771,11.0814,-0.922106
651,253,11.0663,1.14563,-0.0010078,-0.00501806,-0.00479138,0.00218109,-0.00820695,-0.587227,0.00632495,0.0220131,1875,771,11.0663,-1.1456
658,253,11.0444,1.37018,-0.00157567,-0.00452743,-0.00418809,0.00138898,-0.00749208,-0.615993,0.00551631,0.0189635,1882,771,11.0444,-1.37018
665,253,10.984,1.54205,-0.00117054,-0.00345124,-0.00319966,0.00108591,-0.00570769,-0.614217,0.00421399,0.0202857,1889,771,10.984,-1.54208
672,253,10.9955,1.69122,-0.000871718,-0.00266843,-0.00228947,0.000689343,-0.00422949,-0.598435,0.00307531,0.0160698,1896,771,10.9955,-1.69122
679,253,11.024,1.8634,0.000451422,-0.00168809,-0.00131669,0.00107815,-0.00231481,-0.444253,0.00200183,0.0130007,1903,771,11.0241,-1.86342
686,253,11.0228,2.02753,0.003609,-0.000597129,0.000292213,0.0036292,-0.000617333,0.0690311,0.00264933,0.0163874,1910,771,11.0228,-2.02754
693,253,11.0021,2.1922,0.00679056,1.79831e-05,0.00138094,0.00706132,-0.00025277,0.193608,0.00479402,0.0158685,1917,771,11.0021,-2.19218
700,253,10.9956,2.34668,0.0104907,6.64952e-05,0.00220582,0.0109382,-0.000381054,0.200177,0.00742244,0.0137501,1924,771,10.9955,-2.3467
707,253,10.9862,2.51215,0.0147373,-0.000138232,0.00320705,0.0153993,-0.000800189,0.203548,0.010543,0.0129915,1931,771,10.9862,-2.51214
714,253,10.9933,2.68573,0.0200862,-0.00100684,0.00459224,0.0210426,-0.00196327,0.205335,0.0147265,0.0168098,1938,771,10.9933,-2.68571
721,253,11.0125,2.83759,0.0266512,-0.0022138,0.00638901,0.0280022,-0.00356472,0.208376,0.0199627,0.0309444,1945,771,11.0125,-2.8376
728,253,11.0194,2.79956,0.0344898,-0.0043419,0.00839226,0.0362259,-0.00607801,0.203993,0.0264107,0.0433437,1952,771,11.0194,-2.79957
735,253,11.614,3.80267,0.0433661,-0.00792142,0.0103435,0.0453735,-0.00992888,0.191697,0.0340447,0.0460885,1959,771,11.614,-3.80267
742,253,12.1514,3.28735,0,0,0,0,0,0,0,-1,1966,771,12.1514,-3.28732
749,253,11.431,3.12994,0,0,0,0,0,0,0,-1,1973,771,11.4311,-3.12996
756,253,0,0,0,0,0,0,0,0,0,-1,1980,771,0,0
763,253,0,0,0,0,0,0,0,0,0,-1,1987,771,0,0
770,253,0,0,0,0,0,0,0,0,0,-1,1994,771,0,0
777,253,0,0,0,0,0,0,0,0,0,-1,2001,771,0,0
784,253,0,0,0,0,0,0,0,0,0,-1,2008,771,0,0
791,253,0,0,0,0,0,0,0,0,0,-1,2015,771,0,0
798,253,0,0,0,0,0,0,0,0,0,-1,2022,771,0,0
805,253,0,0,0,0,0,0,0,0,0,-1,2029,771,0,0
812,253,0,0,0,0,0,0,0,0,0,-1,2036,771,0,0
-700,246,0,0,0,0,0,0,0,0,0,-1,524,778,0,0
-693,246,0,0,0,0,0,0,0,0,0,-1,531,778,0,0
-686,246,0,0,0,0,0,0,0,0,0,-1,538,778,0,0
-679,246,0,0,0,0,0,0,0,0,0,-1,545,778,0,0
-672,246,0,0,0,0,0,0,0,0,0,-1,552,778,0,0
-665,246,0,0,0,0,0,0,0,0,0,-1,559,778,0,0
-658,246,0,0,0,0,0,0,0,0,0,-1,566,778,0,0
-651,246,0,0,0,0,0,0,0,0,0,-1,573,778,0,0
-644,246,0,0,0,0,0,0,0,0,0,-1,580,778,0,0
-637,246,-7.776,3.44843,0,0,0,0,0,0,0,-1,587,778,-7.77601,-3.44844
-630,246,-7.18054,2.80707,0,0,0,0,0,0,0,-1,594,778,-7.18054,-2.80708
-623,246,-6.71143,2.05151,0,0,0,0,0,0,0,-1,601,778,-6.71142,-2.05153
-616,246,-6.50653,1.75317,0.0226249,0.0351694,0.0197964,0.0496634,0.00813082,0.938814,0.030759,0.0481792,608,778,-6.50653,-1.75319
-609,246,-6.23694,1.32861,0.0210072,0.029904,0.0179554,0.0439539,0.00695741,0.906827,0.0272808,0.0482333,615,778,-6.23693,-1.32861
-602,246,-6.09747,1.06873,0.0179279,0.0244019,0.0155021,0.0370013,0.0053285,0.888326,0.0230972,0.0473625,622,778,-6.09747,-1.0687
-595,246,-6.13635,0.853516,0.0145281,0.0189315,0.0126785,0.029598,0.00386156,0.871369,0.0185791,0.0426552,629,778,-6.13633,-0.853519
-588,246,-6.09241,0.864258,0.0120327,0.0143139,0.0100686,0.0233063,0.0030403,0.841798,0.0146298,0.0284646,636,778,-6.0924,-0.864269
-581,246,-6.16595,0.68219,0.00855822,0.0102232,0.0078783,0.0173129,0.00146857,0.838039,0.0110849,0.0152528,643,778,-6.16595,-0.682203
-574,246,-6.17224,0.48938,0.00434529,0.00690796,0.00582204,0.011588,-0.000334752,0.893713,0.0078393,0.0164047,650,778,-6.17226,-0.489404
-567,246,-6.1825,0.351929,0.000859515,0.00305392,0.0033732,0.00550387,-0.00159044,0.942637,0.00429861,0.0154695,657,778,-6.18249,-0.35195
-560,246,-6.1803,0.240112,-0.00118152,0.00062,0.00263166,0.00250079,-0.00306231,0.950287,0.0032173,0.0125446,664,778,-6.18028,-0.240102
-553,246,-6.14606,0.130249,-0.00256657,-0.00100313,0.0021941,0.000544346,-0.00411405,0.956529,0.00294099,0.0121276,671,778,-6.14605,-0.130267
-546,246,-6.16119,-0.0178223,-0.0040111,-0.00225994,0.00208918,-0.00087028,-0.00540076,0.983831,0.00334833,0.0106381,678,778,-6.16122,0.0178212
-539,246,-6.17896,-0.180359,-0.00461547,-0.00239815,0.00178518,-0.00140538,-0.00560823,1.06327,0.00336951,0.0105938,685,778,-6.17896,0.180383
-532,246,-6.18762,-0.357056,-0.00461173,-0.00174939,0.00180911,-0.0008738,-0.00548732,1.12004,0.00340453,0.0119494,692,778,-6.18759,0.357038
-525,246,-6.1731,-0.509277,-0.00449356,0.000500934,0.00207812,0.00125251,-0.00524513,1.22377,0.00398049,0.0123116,699,778,-6.1731,0.509303
-518,246,-6.17847,-0.634583,-0.00446213,0.00230724,0.00211542,0.00291393,-0.00506882,1.2915,0.00466448,0.018223,706,778,-6.17845,0.63456
-511,246,-6.19092,-0.80011,-0.00428885,0.00477975,0.00226874,0.00531566,-0.00482477,1.33883,0.00585686,0.0418828,713,778,-6.19091,0.800093
-504,246,-6.19153,-0.961914,0,0,0,0,0,0,0,-1,720,778,-6.19155,0.961926
-497,246,-6.32397,-0.577393,0,0,0,0,0,0,0,-1,727,778,-6.32397,0.577423
-490,246,-10.6504,0.79187,-0.00374169,0.0173031,0.00429875,0.0181474,-0.00458591,1.37688,0.0138817,0.0469849,734,778,-10.6504,-0.791882
-483,246,-10.2441,0.692932,-0.00381583,0.0230113,0.00553215,0.0241073,-0.00491186,1.37521,0.0179345,0.047045,741,778,-10.2441,-0.692909
-476,246,-9.38776,0.779907,-0.00478228,0.0291534,0.00726388,0.0306429,-0.00627173,1.36855,0.0228084,0.0463942,748,778,-9.38774,-0.779895
-469,246,-9.5285,0.747314,-0.00749889,0.0350062,0.00970154,0.0371158,-0.00960851,1.35668,0.028492,0.0413954,755,778,-9.52852,-0.747312
-462,246,-9.55383,0.693359,-0.0132894,0.0393955,0.0129941,0.042426,-0.0163199,1.34167,0.0350155,0.045066,762,778,-9.55383,-0.693363
-455,246,0,0,0,0,0,0,0,0,0,-1,769,778,0,0
-448,246,0,0,0,0,0,0,0,0,0,-1,776,778,0,0
-441,246,0,0,0,0,0,0,0,0,0,-1,783,778,0,0
-434,246,0,0,0,0,0,0,0,0,0,-1,790,778,0,0
-427,246,0,0,0,0,0,0,0,0,0,-1,797,778,0,0
-420,246,0,0,0,0,0,0,0,0,0,-1,804,778,0,0
-413,246,0,0,0,0,0,0,0,0,0,-1,811,778,0,0
-406,246,0,0,0,0,0,0,0,0,0,-1,818,778,0,0
-399,246,0,0,0,0,0,0,0,0,0,-1,825,778,0,0
-392,246,0,0,0,0,0,0,0,0,0,-1,832,778,0,0
-385,246,0,0,0,0,0,0,0,0,0,-1,839,778,0,0
-378,246,0,0,0,0,0,0,0,0,0,-1,846,778,0,0
-371,246,0,0,0,0,0,0,0,0,0,-1,853,778,0,0
-364,246,0,0,0,0,0,0,0,0,0,-1,860,778,0,0
-357,246,0,0,0,0,0,0,0,0,0,-1,867,778,0,0
-350,246,0,0,0,0,0,0,0,0,0,-1,874,778,0,0
-343,246,0,0,0,0,0,0,0,0,0,-1,881,778,0,0
-336,246,0,0,0,0,0,0,0,0,0,-1,888,778,0,0
-329,246,0,0,0,0,0,0,0,0,0,-1,895,778,0,0
-322,246,0,0,0,0,0,0,0,0,0,-1,902,778,0,0
-315,246,0,0,0,0,0,0,0,0,0,-1,909,778,0,0
-308,246,0,0,0,0,0,0,0,0,0,-1,916,778,0,0
-301,246,0,0,0,0,0,0,0,0,0,-1,923,778,0,0
-294,246,0,0,0,0,0,0,0,0,0,-1,930,778,0,0
-287,246,0,0,0,0,0,0,0,0,0,-1,937,778,0,0
-280,246,0,0,0,0,0,0,0,0,0,-1,944,778,0,0
-273,246,0,0,0,0,0,0,0,0,0,-1,951,778,0,0
-266,246,0,0,0,0,0,0,0,0,0,-1,958,778,0,0
-259,246,0,0,0,0,0,0,0,0,0,-1,965,778,0,0
-252,246,0,0,0,0,0,0,0,0,0,-1,972,778,0,0
-245,246,0,0,0,0,0,0,0,0,0,-1,979,778,0,0
-238,246,0,0,0,0,0,0,0,0,0,-1,986,778,0,0
-231,246,0,0,0,0,0,0,0,0,0,-1,993,778,0,0
-224,246,0,0,0,0,0,0,0,0,0,-1,1000,778,0,0
-217,246,0,0,0,0,0,0,0,0,0,-1,1007,778,0,0
-210,246,0,0,0,0,0,0,0,0,0,-1,1014,778,0,0
-203,246,0,0,0,0,0,0,0,0,0,-1,1021,778,0,0
-196,246,0,0,0,0,0,0,0,0,0,-1,1028,778,0,0
-189,246,0,0,0,0,0,0,0,0,0,-1,1035,778,0,0
-182,246,0,0,0,0,0,0,0,0,0,-1,1042,778,0,0
-175,246,0,0,0,0,0,0,0,0,0,-1,1049,778,0,0
-168,246,0,0,0,0,0,0,0,0,0,-1,1056,778,0,0
-161,246,0,0,0,0,0,0,0,0,0,-1,1063,778,0,0
-154,246,0,0,0,0,0,0,0,0,0,-1,1070,778,0,0
-147,246,0,0,0,0,0,0,0,0,0,-1,1077,778,0,0
-140,246,0,0,0,0,0,0,0,0,0,-1,1084,778,0,0
-133,246,0,0,0,0,0,0,0,0,0,-1,1091,778,0,0
-126,246,0,0,0,0,0,0,0,0,0,-1,1098,778,0,0
-119,246,0,0,0,0,0,0,0,0,0,-1,1105,778,0,0
-112,246,0,0,0,0,0,0,0,0,0,-1,1112,778,0,0
-105,246,0,0,0,0,0,0,0,0,0,-1,1119,778,0,0
-98,246,0,0,0,0,0,0,0,0,0,-1,1126,778,0,0
-91,246,0,0,0,0,0,0,0,0,0,-1,1133,778,0,0
-84,246,0,0,0,0,0,0,0,0,0,-1,1140,778,0,0
-77,246,0,0,0,0,0,0,0,0,0,-1,1147,778,0,0
-70,246,0,0,0,0,0,0,0,0,0,-1,1154,778,0,0
-63,246,0,0,0,0,0,0,0,0,0,-1,1161,778,0,0
-56,246,0,0,0,0,0,0,0,0,0,-1,1168,778,0,0
-49,246,0,0,0,0,0,0,0,0,0,-1,1175,778,0,0
-42,246,0,0,0,0,0,0,0,0,0,-1,1182,778,0,0
-35,246,0,0,0,0,0,0,0,0,0,-1,1189,778,0,0
-28,246,0,0,0,0,0,0,0,0,0,-1,1196,778,0,0
-21,246,0,0,0,0,0,0,0,0,0,-1,1203,778,0,0
-14,246,0,0,0,0,0,0,0,0,0,-1,1210,778,0,0
-7,246,0,0,0,0,0,0,0,0,0,-1,1217,778,0,0
0,246,0,0,0,0,0,0,0,0,0,-1,1224,778,0,0
7,246,0,0,0,0,0,0,0,0,0,-1,1231,778,0,0
14,246,0,0,0,0,0,0,0,0,0,-1,1238,778,0,0
21,246,0,0,0,0,0,0,0,0,0,-1,1245,778,0,0
28,246,0,0,0,0,0,0,0,0,0,-1,1252,778,0,0
35,246,0,0,0,0,0,0,0,0,0,-1,1259,778,0,0
42,246,0,0,0,0,0,0,0,0,0,-1,1266,778,0,0
49,246,0,0,0,0,0,0,0,0,0,-1,1273,778,0,0
56,246,0,0,0,0,0,0,0,0,0,-1,1280,778,0,0
63,246,0,0,0,0,0,0,0,0,0,-1,1287,778,0,0
70,246,0,0,0,0,0,0,0,0,0,-1,1294,778,0,0
77,246,0,0,0,0,0,0,0,0,0,-1,1301,778,0,0
84,246,0,0,0,0,0,0,0,0,0,-1,1308,778,0,0
91,246,0,0,0,0,0,0,0,0,0,-1,1315,778,0,0
98,246,0,0,0,0,0,0,0,0,0,-1,1322,778,0,0
105,246,0,0,0,0,0,0,0,0,0,-1,1329,778,0,0
112,246,0,0,0,0,0,0,0,0,0,-1,1336,778,0,0
119,246,0,0,0,0,0,0,0,0,0,-1,1343,778,0,0
126,246,0,0,0,0,0,0,0,0,0,-1,1350,778,0,0
133,246,0,0,0,0,0,0,0,0,0,-1,1357,778,0,0
140,246,0,0,0,0,0,0,0,0,0,-1,1364,778,0,0
147,246,0,0,0,0,0,0,0,0,0,-1,1371,778,0,0
154,246,0,0,0,0,0,0,0,0,0,-1,1378,778,0,0
161,246,0,0,0,0,0,0,0,0,0,-1,1385,778,0,0
168,246,0,0,0,0,0,0,0,0,0,-1,1392,778,0,0
175,246,0,0,0,0,0,0,0,0,0,-1,1399,778,0,0
182,246,0,0,0,0,0,0,0,0,0,-1,1406,778,0,0
189,246,0,0,0,0,0,0,0,0,0,-1,1413,778,0,0
196,246,0,0,0,0,0,0,0,0,0,-1,1420,778,0,0
203,246,0,0,0,0,0,0,0,0,0,-1,1427,778,0,0
210,246,0,0,0,0,0,0,0,0,0,-1,1434,778,0,0
217,246,0,0,0,0,0,0,0,0,0,-1,1441,778,0,0
224,246,0,0,0,0,0,0,0,0,0,-1,1448,778,0,0
231,246,0,0,0,0,0,0,0,0,0,-1,1455,778,0,0
238,246,0,0,0,0,0,0,0,0,0,-1,1462,778,0,0
245,246,0,0,0,0,0,0,0,0,0,-1,1469,778,0,0
252,246,0,0,0,0,0,0,0,0,0,-1,1476,778,0,0
259,246,0,0,0,0,0,0,0,0,0,-1,1483,778,0,0
266,246,0,0,0,0,0,0,0,0,0,-1,1490,778,0,0
273,246,0,0,0,0,0,0,0,0,0,-1,1497,778,0,0
280,246,0,0,0,0,0,0,0,0,0,-1,1504,778,0,0
287,246,0,0,0,0,0,0,0,0,0,-1,1511,778,0,0
294,246,0,0,0,0,0,0,0,0,0,-1,1518,778,0,0
301,246,0,0,0,0,0,0,0,0,0,-1,1525,778,0,0
308,246,0,0,0,0,0,0,0,0,0,-1,1532,778,0,0
315,246,0,0,0,0,0,0,0,0,0,-1,1539,778,0,0
322,246,0,0,0,0,0,0,0,0,0,-1,1546,778,0,0
329,246,0,0,0,0,0,0,0,0,0,-1,1553,778,0,0
336,246,0,0,0,0,0,0,0,0,0,-1,1560,778,0,0
343,246,0,0,0,0,0,0,0,0,0,-1,1567,778,0,0
350,246,0,0,0,0,0,0,0,0,0,-1,1574,778,0,0
357,246,0,0,0,0,0,0,0,0,0,-1,1581,778,0,0
364,246,0,0,0,0,0,0,0,0,0,-1,1588,778,0,0
371,246,0,0,0,0,0,0,0,0,0,-1,1595,778,0,0
378,246,0,0,0,0,0,0,0,0,0,-1,1602,778,0,0
385,246,0,0,0,0,0,0,0,0,0,-1,1609,778,0,0
392,246,0,0,0,0,0,0,0,0,0,-1,1616,778,0,0
399,246,0,0,0,0,0,0,0,0,0,-1,1623,778,0,0
406,246,0,0,0,0,0,0,0,0,0,-1,1630,778,0,0
413,246,0,0,0,0,0,0,0,0,0,-1,1637,778,0,0
420,246,0,0,0,0,0,0,0,0,0,-1,1644,778,0,0
427,246,0,0,0,0,0,0,0,0,0,-1,1651,778,0,0
434,246,0,0,0,0,0,0,0,0,0,-1,1658,778,0,0
441,246,0,0,0,0,0,0,0,0,0,-1,1665,778,0,0
448,246,0,0,0,0,0,0,0,0,0,-1,1672,778,0,0
455,246,0,0,0,0,0,0,0,0,0,-1,1679,778,0,0
462,246,0,0,0,0,0,0,0,0,0,-1,1686,778,0,0
469,246,0,0,0,0,0,0,0,0,0,-1,1693,778,0,0
476,246,0,0,0,0,0,0,0,0,0,-1,1700,778,0,0
483,246,0,0,0,0,0,0,0,0,0,-1,1707,778,0,0
490,246,0,0,0,0,0,0,0,0,0,-1,1714,778,0,0
497,246,0,0,0,0,0,0,0,0,0,-1,1721,778,0,0
504,246,0,0,0,0,0,0,0,0,0,-1,1728,778,0,0
511,246,0,0,0,0,0,0,0,0,0,-1,1735,778,0,0
518,246,0,0,0,0,0,0,0,0,0,-1,1742,778,0,0
525,246,0,0,0,0,0,0,0,0,0,-1,1749,778,0,0
532,246,0,0,0,0,0,0,0,0,0,-1,1756,778,0,0
539,246,0,0,0,0,0,0,0,0,0,-1,1763,778,0,0
546,246,0,0,0,0,0,0,0,0,0,-1,1770,778,0,0
553,246,0,0,0,0,0,0,0,0,0,-1,1777,778,0,0
560,246,0,0,0,0,0,0,0,0,0,-1,1784,778,0,0
567,246,0,0,0,0,0,0,0,0,0,-1,1791,778,0,0
574,246,0,0,0,0,0,0,0,0,0,-1,1798,778,0,0
581,246,15.1958,2.42102,0.0163035,-0.00786899,9.00681e-05,0.0163038,-0.00786932,0.00372599,0.0142367,0.0401657,1805,778,15.1958,-2.42103
588,246,15.2717,2.37219,0.0190858,-0.00592875,0.00281691,0.0193991,-0.00624204,0.110763,0.0154399,0.0414367,1812,778,15.2718,-2.37219
595,246,15.4329,2.39227,0.0184043,-0.00516292,0.00255872,0.0186789,-0.00543753,0.106911,0.0146065,0.0379205,1819,778,15.4328,-2.3923
602,246,14.1426,3.49304,0,0,0,0,0,0,0,-1,1826,778,14.1425,-3.49302
609,246,14.5844,3.23029,0,0,0,0,0,0,0,-1,1833,778,14.5843,-3.23028
616,246,15.13,2.86279,0.0103733,-0.00487839,-0.00140856,0.0105023,-0.00500739,-0.0913254,0.00913992,0.0475383,1840,778,15.13,-2.86279
623,246,15.7721,2.31348,0.00760137,-0.00495027,-0.00256421,0.00810501,-0.00545391,-0.193943,0.00787797,0.0416535,1847,778,15.7721,-2.31348
630,246,16.4286,1.76959,0,0,0,0,0,0,0,-1,1854,778,16.4286,-1.76957
637,246,12.3943,1.2226,0.00243873,-0.00520717,-0.00377104,0.00398567,-0.00675411,-0.389281,0.00626891,0.0479221,1861,778,12.3943,-1.22258
644,246,11.844,1.19226,0.000187042,-0.00500824,-0.00414546,0.0024815,-0.00730269,-0.505516,0.00587306,0.0457783,1868,778,11.844,-1.19228
651,246,11.2169,1.19202,-0.00131425,-0.00474363,-0.00434632,0.00164339,-0.00770127,-0.597513,0.00576065,0.0298917,1875,778,11.2169,-1.19202
658,246,11.1785,1.3739,-0.00185498,-0.00437365,-0.00381691,0.000904984,-0.00713361,-0.626054,0.00508432,0.0209128,1882,778,11.1785,-1.37391
665,246,11.1316,1.53632,-0.0016751,-0.0035293,-0.00296836,0.000507576,-0.00571197,-0.634035,0.00398795,0.021147,1889,778,11.1316,-1.53633
672,246,11.1624,1.71735,-0.00167507,-0.00293499,-0.00209766,-0.000114813,-0.00449524,-0.639525,0.0029593,0.020103,1896,778,11.1624,-1.71734
679,246,11.2141,1.84906,-0.00072617,-0.00205746,-0.0011808,-3.6319e-05,-0.00274731,-0.528739,0.00181956,0.020109,1903,778,11.2141,-1.84907
686,246,11.2301,2.02594,0.00201063,-0.00103249,0.000295169,0.002039,-0.00106086,0.0958055,0.00181916,0.0217513,1910,778,11.23,-2.02595
693,246,11.1931,2.18469,0.00477767,-0.000430247,0.00135288,0.00510814,-0.000760717,0.239581,0.00368527,0.0167569,1917,778,11.1931,-2.18469
700,246,11.1874,2.33679,0.00798568,-0.00046738,0.00210727,0.00848188,-0.000963575,0.231256,0.00600162,0.0131629,1924,778,11.1874,-2.33682
707,246,11.171,2.49225,0.0115479,-0.000713726,0.00301697,0.01225,-0.00141584,0.228653,0.00867724,0.0120726,1931,778,11.171,-2.49225
714,246,11.151,2.67249,0.0159978,-0.00172302,0.00424105,0.0169604,-0.00268572,0.223213,0.0123003,0.0113282,1938,778,11.1511,-2.67248
721,246,11.1608,2.82141,0.0214424,-0.00309229,0.00576675,0.0227303,-0.00438014,0.219717,0.0168049,0.0161946,1945,778,11.1608,-2.82141
728,246,11.1814,3.15784,0.0279092,-0.0054405,0.00737137,0.0294658,-0.00699716,0.208118,0.0223445,0.0335374,1952,778,11.1813,-3.15786
735,246,11.2441,3.68164,0.035236,-0.00921267,0.00879843,0.0369143,-0.0108909,0.18848,0.0289314,0.0465222,1959,778,11.2441,-3.68162
742,246,11.3438,4.03668,0,0,0,0,0,0,0,-1,1966,778,11.3437,-4.03668
749,246,11.5505,1.93866,0,0,0,0,0,0,0,-1,1973,778,11.5506,-1.93865
756,246,11.7373,2.52289,0,0,0,0,0,0,0,-1,1980,778,11.7373,-2.52288
763,246,0,0,0,0,0,0,0,0,0,-1,1987,778,0,0
770,246,0,0,0,0,0,0,0,0,0,-1,1994,778,0,0
777,246,0,0,0,0,0,0,0,0,0,-1,2001,778,0,0
784,246,0,0,0,0,0,0,0,0,0,-1,2008,778,0,0
791,246,0,0,0,0,0,0,0,0,0,-1,2015,778,0,0
798,246,0,0,0,0,0,0,0,0,0,-1,2022,778,0,0
805,246,0,0,0,0,0,0,0,0,0,-1,2029,778,0,0
812,246,0,0,0,0,0,0,0,0,0,-1,2036,778,0,0
-700,239,0,0,0,0,0,0,0,0,0,-1,524,785,0,0
-693,239,0,0,0,0,0,0,0,0,0,-1,531,785,0,0
-686,239,0,0,0,0,0,0,0,0,0,-1,538,785,0,0
-679,239,0,0,0,0,0,0,0,0,0,-1,545,785,0,0
-672,239,0,0,0,0,0,0,0,0,0,-1,552,785,0,0
-665,239,0,0,0,0,0,0,0,0,0,-1,559,785,0,0
-658,239,0,0,0,0,0,0,0,0,0,-1,566,785,0,0
-651,239,0,0,0,0,0,0,0,0,0,-1,573,785,0,0
-644,239,0,0,0,0,0,0,0,0,0,-1,580,785,0,0
-637,239,-10.4824,-0.578369,0,0,0,0,0,0,0,-1,587,785,-10.4824,0.578377
-630,239,-7.51294,3.00543,0,0,0,0,0,0,0,-1,594,785,-7.51294,-3.00543
-623,239,-7.08173,1.01752,0,0,0,0,0,0,0,-1,601,785,-7.08172,-1.01752
-616,239,-6.86072,1.05811,0.0253743,0.0349523,0.0226116,0.0532765,0.00705018,0.889753,0.0334164,0.0456797,608,785,-6.86069,-1.05811
-609,239,-6.6192,0.923645,0.0229363,0.0297264,0.0195337,0.0461579,0.0065048,0.87144,0.0288492,0.0457204,615,785,-6.61922,-0.923674
-602,239,-6.34729,0.84967,0.0193133,0.0243648,0.0162281,0.0382625,0.0054155,0.8626,0.0239085,0.0467522,622,785,-6.34729,-0.849679
-595,239,-6.23126,0.842407,0.0155994,0.0189793,0.0128668,0.0302666,0.00431208,0.850694,0.018905,0.0380305,629,785,-6.23128,-0.842397
-588,239,-6.29181,0.777649,0.0129215,0.0145998,0.00991952,0.0237156,0.0038057,0.827597,0.0147069,0.0180388,636,785,-6.2918,-0.777671
-581,239,-6.31488,0.660156,0.00926951,0.0106798,0.00754422,0.0175517,0.00239755,0.831996,0.0109895,0.0108013,643,785,-6.31486,-0.660182
-574,239,-6.3255,0.500671,0.00478326,0.00736916,0.00545506,0.0116824,0.000470013,0.90176,0.00763642,0.0107605,650,785,-6.32551,-0.500661
-567,239,-6.35608,0.35022,0.000854324,0.00332179,0.00302712,0.00535693,-0.00118081,0.978902,0.00402308,0.0116712,657,785,-6.35606,-0.350241
-560,239,-6.33954,0.220459,-0.00159307,0.000749314,0.00238714,0.00223709,-0.00308085,1.01346,0.00308317,0.0121946,664,785,-6.33954,-0.220485
-553,239,-6.30164,0.106934,-0.00323972,-0.00101552,0.00219833,0.000335996,-0.00459124,1.01957,0.00317875,0.0132361,671,785,-6.30165,-0.106932
-546,239,-6.3291,-0.0192871,-0.00491289,-0.00247683,0.00230052,-0.00109179,-0.00629793,1.02887,0.00388615,0.0142715,678,785,-6.3291,0.0192706
-539,239,-6.31647,-0.183289,-0.00563267,-0.00280207,0.00209153,-0.00169199,-0.00674275,1.08285,0.00405072,0.0144582,685,785,-6.31648,0.183277
-532,239,-6.30719,-0.341309,-0.00565647,-0.00244309,0.00209678,-0.00140819,-0.00669136,1.11231,0.00407347,0.0115496,692,785,-6.30718,0.341287
-525,239,-6.29266,-0.471008,-0.00550445,-0.000684634,0.00223993,0.000195587,-0.00638467,1.19637,0.00432312,0.0135772,699,785,-6.29268,0.470993
-518,239,-6.32428,-0.592407,-0.0053591,0.000724275,0.00208977,0.00137298,-0.0060078,1.26981,0.00453271,0.0330494,706,785,-6.32426,0.592428
-511,239,-6.36224,-0.826538,-0.00494662,0.00270636,0.00195205,0.00317551,-0.00541577,1.33493,0.00501607,0.0426236,713,785,-6.36225,0.826537
-504,239,-6.3493,-1.0351,0,0,0,0,0,0,0,-1,720,785,-6.3493,1.03508
-497,239,-10.6223,1.07147,0,0,0,0,0,0,0,-1,727,785,-10.6223,-1.07148
-490,239,-10.3169,0.947693,-0.0024757,0.0131817,0.00218292,0.0134804,-0.00277434,1.43483,0.0100403,0.0445271,734,785,-10.3169,-0.94769
-483,239,-9.97101,0.850647,-0.00144518,0.0179425,0.00254554,0.0182711,-0.00177383,1.4424,0.012813,0.0437099,741,785,-9.97102,-0.850666
-476,239,-9.56116,0.869873,-0.00104678,0.0229483,0.00330787,0.023396,-0.00149444,1.43628,0.0161186,0.0432829,748,785,-9.56116,-0.869899
-469,239,-9.54053,0.722168,-0.00229872,0.0272613,0.0047991,0.028021,-0.00305833,1.41382,0.0197791,0.0448817,755,785,-9.54055,-0.722171
-462,239,-9.50195,0.674866,-0.00682867,0.0293003,0.0072878,0.030715,-0.00824334,1.37907,0.0237071,0.0464076,762,785,-9.50196,-0.674861
-455,239,0,0,0,0,0,0,0,0,0,-1,769,785,0,0
-448,239,0,0,0,0,0,0,0,0,0,-1,776,785,0,0
-441,239,0,0,0,0,0,0,0,0,0,-1,783,785,0,0
-434,239,0,0,0,0,0,0,0,0,0,-1,790,785,0,0
-427,239,0,0,0,0,0,0,0,0,0,-1,797,785,0,0
-420,239,0,0,0,0,0,0,0,0,0,-1,804,785,0,0
-413,239,0,0,0,0,0,0,0,0,0,-1,811,785,0,0
-406,239,0,0,0,0,0,0,0,0,0,-1,818,785,0,0
-399,239,0,0,0,0,0,0,0,0,0,-1,825,785,0,0
-392,239,0,0,0,0,0,0,0,0,0,-1,832,785,0,0
-385,239,0,0,0,0,0,0,0,0,0,-1,839,785,0,0
-378,239,0,0,0,0,0,0,0,0,0,-1,846,785,0,0
-371,239,0,0,0,0,0,0,0,0,0,-1,853,785,0,0
-364,239,0,0,0,0,0,0,0,0,0,-1,860,785,0,0
-357,239,0,0,0,0,0,0,0,0,0,-1,867,785,0,0
-350,239,0,0,0,0,0,0,0,0,0,-1,874,785,0,0
-343,239,0,0,0,0,0,0,0,0,0,-1,881,785,0,0
-336,239,0,0,0,0,0,0,0,0,0,-1,888,785,0,0
-329,239,0,0,0,0,0,0,0,0,0,-1,895,785,0,0
-322,239,0,0,0,0,0,0,0,0,0,-1,902,785,0,0
-315,239,0,0,0,0,0,0,0,0,0,-1,909,785,0,0
-308,239,0,0,0,0,0,0,0,0,0,-1,916,785,0,0
-301,239,0,0,0,0,0,0,0,0,0,-1,923,785,0,0
-294,239,0,0,0,0,0,0,0,0,0,-1,930,785,0,0
-287,239,0,0,0,0,0,0,0,0,0,-1,937,785,0,0
-280,239,0,0,0,0,0,0,0,0,0,-1,944,785,0,0
-273,239,0,0,0,0,0,0,0,0,0,-1,951,785,0,0
-266,239,0,0,0,0,0,0,0,0,0,-1,958,785,0,0
-259,239,0,0,0,0,0,0,0,0,0,-1,965,785,0,0
-252,239,0,0,0,0,0,0,0,0,0,-1,972,785,0,0
-245,239,0,0,0,0,0,0,0,0,0,-1,979,785,0,0
-238,239,0,0,0,0,0,0,0,0,0,-1,986,785,0,0
-231,239,0,0,0,0,0,0,0,0,0,-1,993,785,0,0
-224,239,0,0,0,0,0,0,0,0,0,-1,1000,785,0,0
-217,239,0,0,0,0,0,0,0,0,0,-1,1007,785,0,0
-210,239,0,0,0,0,0,0,0,0,0,-1,1014,785,0,0
-203,239,0,0,0,0,0,0,0,0,0,-1,1021,785,0,0
-196,239,0,0,0,0,0,0,0,0,0,-1,1028,785,0,0
-189,239,0,0,0,0,0,0,0,0,0,-1,1035,785,0,0
-182,239,0,0,0,0,0,0,0,0,0,-1,1042,785,0,0
-175,239,0,0,0,0,0,0,0,0,0,-1,1049,785,0,0
-168,239,0,0,0,0,0,0,0,0,0,-1,1056,785,0,0
-161,239,0,0,0,0,0,0,0,0,0,-1,1063,785,0,0
-154,239,0,0,0,0,0,0,0,0,0,-1,1070,785,0,0
-147,239,0,0,0,0,0,0,0,0,0,-1,1077,785,0,0
-140,239,0,0,0,0,0,0,0,0,0,-1,1084,785,0,0
-133,239,0,0,0,0,0,0,0,0,0,-1,1091,785,0,0
-126,239,0,0,0,0,0,0,0,0,0,-1,1098,785,0,0
-119,239,0,0,0,0,0,0,0,0,0,-1,1105,785,0,0
-112,239,0,0,0,0,0,0,0,0,0,-1,1112,785,0,0
-105,239,0,0,0,0,0,0,0,0,0,-1,1119,785,0,0
-98,239,0,0,0,0,0,0,0,0,0,-1,1126,785,0,0
-91,239,0,0,0,0,0,0,0,0,0,-1,1133,785,0,0
-84,239,0,0,0,0,0,0,0,0,0,-1,1140,785,0,0
-77,239,0,0,0,0,0,0,0,0,0,-1,1147,785,0,0
-70,239,0,0,0,0,0,0,0,0,0,-1,1154,785,0,0
-63,239,0,0,0,0,0,0,0,0,0,-1,1161,785,0,0
-56,239,0,0,0,0,0,0,0,0,0,-1,1168,785,0,0
-49,239,0,0,0,0,0,0,0,0,0,-1,1175,785,0,0
-42,239,0,0,0,0,0,0,0,0,0,-1,1182,785,0,0
-35,239,0,0,0,0,0,0,0,0,0,-1,1189,785,0,0
-28,239,0,0,0,0,0,0,0,0,0,-1,1196,785,0,0
-21,239,0,0,0,0,0,0,0,0,0,-1,1203,785,0,0
-14,239,0,0,0,0,0,0,0,0,0,-1,1210,785,0,0
-7,239,0,0,0,0,0,0,0,0,0,-1,1217,785,0,0
0,239,0,0,0,0,0,0,0,0,0,-1,1224,785,0,0
7,239,0,0,0,0,0,0,0,0,0,-1,1231,785,0,0
14,239,0,0,0,0,0,0,0,0,0,-1,1238,785,0,0
21,239,0,0,0,0,0,0,0,0,0,-1,1245,785,0,0
28,239,0,0,0,0,0,0,0,0,0,-1,1252,785,0,0
35,239,0,0,0,0,0,0,0,0,0,-1,1259,785,0,0
42,239,0,0,0,0,0,0,0,0,0,-1,1266,785,0,0
49,239,0,0,0,0,0,0,0,0,0,-1,1273,785,0,0
56,239,0,0,0,0,0,0,0,0,0,-1,1280,785,0,0
63,239,0,0,0,0,0,0,0,0,0,-1,1287,785,0,0
70,239,0,0,0,0,0,0,0,0,0,-1,1294,785,0,0
77,239,0,0,0,0,0,0,0,0,0,-1,1301,785,0,0
84,239,0,0,0,0,0,0,0,0,0,-1,1308,785,0,0
91,239,0,0,0,0,0,0,0,0,0,-1,1315,785,0,0
98,239,0,0,0,0,0,0,0,0,0,-1,1322,785,0,0
105,239,0,0,0,0,0,0,0,0,0,-1,1329,785,0,0
112,239,0,0,0,0,0,0,0,0,0,-1,1336,785,0,0
119,239,0,0,0,0,0,0,0,0,0,-1,1343,785,0,0
126,239,0,0,0,0,0,0,0,0,0,-1,1350,785,0,0
133,239,0,0,0,0,0,0,0,0,0,-1,1357,785,0,0
140,239,0,0,0,0,0,0,0,0,0,-1,1364,785,0,0
147,239,0,0,0,0,0,0,0,0,0,-1,1371,785,0,0
154,239,0,0,0,0,0,0,0,0,0,-1,1378,785,0,0
161,239,0,0,0,0,0,0,0,0,0,-1,1385,785,0,0
168,239,0,0,0,0,0,0,0,0,0,-1,1392,785,0,0
175,239,0,0,0,0,0,0,0,0,0,-1,1399,785,0,0
182,239,0,0,0,0,0,0,0,0,0,-1,1406,785,0,0
189,239,0,0,0,0,0,0,0,0,0,-1,1413,785,0,0
196,239,0,0,0,0,0,0,0,0,0,-1,1420,785,0,0
203,239,0,0,0,0,0,0,0,0,0,-1,1427,785,0,0
210,239,0,0,0,0,0,0,0,0,0,-1,1434,785,0,0
217,239,0,0,0,0,0,0,0,0,0,-1,1441,785,0,0
224,239,0,0,0,0,0,0,0,0,0,-1,1448,785,0,0
231,239,0,0,0,0,0,0,0,0,0,-1,1455,785,0,0
238,239,0,0,0,0,0,0,0,0,0,-1,1462,785,0,0
245,239,0,0,0,0,0,0,0,0,0,-1,1469,785,0,0
252,239,0,0,0,0,0,0,0,0,0,-1,1476,785,0,0
259,239,0,0,0,0,0,0,0,0,0,-1,1483,785,0,0
266,239,0,0,0,0,0,0,0,0,0,-1,1490,785,0,0
273,239,0,0,0,0,0,0,0,0,0,-1,1497,785,0,0
280,239,0,0,0,0,0,0,0,0,0,-1,1504,785,0,0
287,239,0,0,0,0,0,0,0,0,0,-1,1511,785,0,0
294,239,0,0,0,0,0,0,0,0,0,-1,1518,785,0,0
301,239,0,0,0,0,0,0,0,0,0,-1,1525,785,0,0
308,239,0,0,0,0,0,0,0,0,0,-1,1532,785,0,0
315,239,0,0,0,0,0,0,0,0,0,-1,1539,785,0,0
322,239,0,0,0,0,0,0,0,0,0,-1,1546,785,0,0
329,239,0,0,0,0,0,0,0,0,0,-1,1553,785,0,0
336,239,0,0,0,0,0,0,0,0,0,-1,1560,785,0,0
343,239,0,0,0,0,0,0,0,0,0,-1,1567,785,0,0
350,239,0,0,0,0,0,0,0,0,0,-1,1574,785,0,0
357,239,0,0,0,0,0,0,0,0,0,-1,1581,785,0,0
364,239,0,0,0,0,0,0,0,0,0,-1,1588,785,0,0
371,239,0,0,0,0,0,0,0,0,0,-1,1595,785,0,0
378,239,0,0,0,0,0,0,0,0,0,-1,1602,785,0,0
385,239,0,0,0,0,0,0,0,0,0,-1,1609,785,0,0
392,239,0,0,0,0,0,0,0,0,0,-1,1616,785,0,0
399,239,0,0,0,0,0,0,0,0,0,-1,1623,785,0,0
406,239,0,0,0,0,0,0,0,0,0,-1,1630,785,0,0
413,239,0,0,0,0,0,0,0,0,0,-1,1637,785,0,0
420,239,0,0,0,0,0,0,0,0,0,-1,1644,785,0,0
427,239,0,0,0,0,0,0,0,0,0,-1,1651,785,0,0
434,239,0,0,0,0,0,0,0,0,0,-1,1658,785,0,0
441,239,0,0,0,0,0,0,0,0,0,-1,1665,785,0,0
448,239,0,0,0,0,0,0,0,0,0,-1,1672,785,0,0
455,239,0,0,0,0,0,0,0,0,0,-1,1679,785,0,0
462,239,0,0,0,0,0,0,0,0,0,-1,1686,785,0,0
469,239,0,0,0,0,0,0,0,0,0,-1,1693,785,0,0
476,239,0,0,0,0,0,0,0,0,0,-1,1700,785,0,0
483,239,0,0,0,0,0,0,0,0,0,-1,1707,785,0,0
490,239,0,0,0,0,0,0,0,0,0,-1,1714,785,0,0
497,239,0,0,0,0,0,0,0,0,0,-1,1721,785,0,0
504,239,0,0,0,0,0,0,0,0,0,-1,1728,785,0,0
511,239,0,0,0,0,0,0,0,0,0,-1,1735,785,0,0
518,239,0,0,0,0,0,0,0,0,0,-1,1742,785,0,0
525,239,0,0,0,0,0,0,0,0,0,-1,1749,785,0,0
532,239,0,0,0,0,0,0,0,0,0,-1,1756,785,0,0
539,239,0,0,0,0,0,0,0,0,0,-1,1763,785,0,0
546,239,0,0,0,0,0,0,0,0,0,-1,1770,785,0,0
553,239,0,0,0,0,0,0,0,0,0,-1,1777,785,0,0
560,239,0,0,0,0,0,0,0,0,0,-1,1784,785,0,0
567,239,0,0,0,0,0,0,0,0,0,-1,1791,785,0,0
574,239,0,0,0,0,0,0,0,0,0,-1,1798,785,0,0
581,239,15.199,2.44116,0.00924778,-0.0041089,0.000277986,0.00925357,-0.00411468,0.0208005,0.00790596,0.0380877,1805,785,15.1989,-2.44115
588,239,15.2526,2.3847,0.0150697,-0.00349151,0.00218283,0.015323,-0.00374476,0.115502,0.0116657,0.0362578,1812,785,15.2526,-2.38472
595,239,15.349,2.29462,0.0160012,-0.00341026,0.00145635,0.0161098,-0.00351892,0.0744697,0.0120848,0.0297477,1819,785,15.3491,-2.29459
602,239,15.4053,2.35779,0.0144263,-0.00375429,0.000199454,0.0144285,-0.00375648,0.010969,0.0110854,0.0347836,1826,785,15.4053,-2.3578
609,239,14.5852,3.41577,0,0,0,0,0,0,0,-1,1833,785,14.5852,-3.41576
616,239,14.7927,2.90857,0.00920984,-0.00414414,-0.00216207,0.00955116,-0.00448547,-0.156577,0.0082781,0.0484731,1840,785,14.7927,-2.90856
623,239,15.4012,2.3609,0.0065329,-0.00431171,-0.00297036,0.00729319,-0.005072,-0.250578,0.00717733,0.0450444,1847,785,15.4013,-2.36092
630,239,15.2489,2.35437,0,0,0,0,0,0,0,-1,1854,785,15.2489,-2.3544
637,239,12.6869,1.30688,0,0,0,0,0,0,0,-1,1861,785,12.6868,-1.30686
644,239,11.3763,1.05072,0,0,0,0,0,0,0,-1,1868,785,11.3763,-1.05073
651,239,11.3657,1.21747,-0.00162867,-0.00418737,-0.00358972,0.00090286,-0.0067189,-0.614219,0.00480856,0.0377892,1875,785,11.3658,-1.21749
658,239,11.3561,1.38507,-0.00212082,-0.0039247,-0.00319054,0.000292815,-0.00633834,-0.647646,0.00432647,0.0177732,1882,785,11.3561,-1.3851
665,239,11.3613,1.55634,-0.00211636,-0.00330015,-0.00253939,-0.000100796,-0.00531572,-0.6709,0.0035107,0.0138564,1889,785,11.3614,-1.55635
672,239,11.3796,1.71863,-0.00234601,-0.00291979,-0.00177934,-0.000830585,-0.00443522,-0.70547,0.00272251,0.0193423,1896,785,11.3796,-1.71865
679,239,11.4199,1.85822,-0.00171989,-0.00221423,-0.000990477,-0.000946209,-0.00298791,-0.663122,0.0017633,0.0212419,1903,785,11.42,-1.85822
686,239,11.4194,2.01794,0.000562414,-0.00131597,0.000274977,0.000601841,-0.00135539,0.14241,0.00115759,0.0238731,1910,785,11.4194,-2.01792
693,239,11.3606,2.17487,0.00288827,-0.000753958,0.00124495,0.00327314,-0.00113883,0.299824,0.00264473,0.0152847,1917,785,11.3606,-2.17486
700,239,11.343,2.33771,0.00561407,-0.000836928,0.00189625,0.00613017,-0.00135303,0.265735,0.00460454,0.010847,1924,785,11.343,-2.33769
707,239,11.3389,2.48907,0.00852338,-0.00107731,0.00271168,0.00923634,-0.00179027,0.257103,0.00683294,0.0103234,1931,785,11.3389,-2.48905
714,239,11.3263,2.63867,0.0121649,-0.00213006,0.00377418,0.0131001,-0.00306533,0.242916,0.00991443,0.0101347,1938,785,11.3263,-2.63866
721,239,11.325,2.80505,0.01666,-0.00352267,0.00503283,0.0178454,-0.00470806,0.231315,0.0137379,0.0179046,1945,785,11.3249,-2.80508
728,239,11.3678,3.02478,0.0219965,-0.00587899,0.00623454,0.0233273,-0.00720985,0.210309,0.018431,0.0336093,1952,785,11.3678,-3.02475
735,239,11.4902,3.42059,0.0280938,-0.00958504,0.00712736,0.0293969,-0.0108882,0.18084,0.024063,0.0448331,1959,785,11.4902,-3.42061
742,239,11.9023,3.06104,0,0,0,0,0,0,0,-1,1966,785,11.9023,-3.06105
749,239,11.6627,2.54846,0.0406175,-0.0235157,0.00591917,0.0411592,-0.0240574,0.0912676,0.0380819,0.0479423,1973,785,11.6627,-2.54849
756,239,11.665,2.38666,0.0455114,-0.0354459,0.00220309,0.0455713,-0.0355058,0.0271862,0.04693,0.0464055,1980,785,11.665,-2.38666
763,239,0,0,0,0,0,0,0,0,0,-1,1987,785,0,0
770,239,0,0,0,0,0,0,0,0,0,-1,1994,785,0,0
777,239,0,0,0,0,0,0,0,0,0,-1,2001,785,0,0
784,239,0,0,0,0,0,0,0,0,0,-1,2008,785,0,0
791,239,0,0,0,0,0,0,0,0,0,-1,2015,785,0,0
798,239,0,0,0,0,0,0,0,0,0,-1,2022,785,0,0
805,239,0,0,0,0,0,0,0,0,0,-1,2029,785,0,0
812,239,0,0,0,0,0,0,0,0,0,-1,2036,785,0,0
-700,232,0,0,0,0,0,0,0,0,0,-1,524,792,0,0
-693,232,0,0,0,0,0,0,0,0,0,-1,531,792,0,0
-686,232,0,0,0,0,0,0,0,0,0,-1,538,792,0,0
-679,232,0,0,0,0,0,0,0,0,0,-1,545,792,0,0
-672,232,0,0,0,0,0,0,0,0,0,-1,552,792,0,0
-665,232,0,0,0,0,0,0,0,0,0,-1,559,792,0,0
-658,232,0,0,0,0,0,0,0,0,0,-1,566,792,0,0
-651,232,0,0,0,0,0,0,0,0,0,-1,573,792,0,0
-644,232,-9.08954,-0.645813,0.00433607,0.0438308,0.032713,0.0622947,-0.0141278,1.05695,0.046953,0.0440632,580,792,-9.08954,0.645798
-637,232,-10.0633,-0.548096,0.0182971,0.0431287,0.0327492,0.0657366,-0.00431081,0.966586,0.0453297,0.042424,587,792,-10.0633,0.548098
-630,232,-10.2773,-0.904785,0.0246052,0.0402619,0.0308488,0.0642602,0.000607003,0.909658,0.0426392,0.0431808,594,792,-10.2774,0.904779
-623,232,-7.20825,0.700928,0.0265043,0.0363679,0.0279488,0.0598167,0.0030555,0.872728,0.0388993,0.0447583,601,792,-7.20826,-0.700916
-616,232,-6.99902,0.720459,0.0256075,0.0318492,0.0244561,0.0533828,0.00407393,0.84886,0.0343113,0.0446759,608,792,-6.99904,-0.720455
-609,232,-6.82062,0.646484,0.0229436,0.0269963,0.0206805,0.0457495,0.00419037,0.834234,0.0292033,0.0466469,615,792,-6.82062,-0.646455
-602,232,-6.63367,0.69397,0.0192489,0.0220738,0.0168824,0.0376027,0.00371994,0.827132,0.0239251,0.0456276,622,792,-6.63364,-0.693998
-595,232,-6.43707,0.870728,0.0155718,0.0170698,0.0132102,0.0295522,0.00308935,0.813717,0.0187567,0.032727,629,792,-6.43708,-0.870706
-588,232,-6.44379,0.792847,0.0128762,0.0131409,0.0100792,0.0230886,0.00292854,0.791964,0.0145151,0.0122861,636,792,-6.44379,-0.792877
-581,232,-6.4549,0.670349,0.00917556,0.00963078,0.00763803,0.0170446,0.00176175,0.800294,0.0108237,0.00853541,643,792,-6.45489,-0.670352
-574,232,-6.44928,0.525574,0.00462064,0.00651278,0.00557822,0.0112246,-9.1162e-05,0.869399,0.00751363,0.00819164,650,792,-6.44927,-0.525561
-567,232,-6.48492,0.378113,0.00043173,0.00248304,0.00328104,0.004895,-0.00198023,0.936886,0.0040866,0.0091095,657,792,-6.4849,-0.378106
-560,232,-6.49493,0.226379,-0.00232796,1.70576e-05,0.00272701,0.00181295,-0.00412384,0.98843,0.0035131,0.0112598,664,792,-6.49491,-0.226359
-553,232,-6.4928,0.105469,-0.00418388,-0.00168875,0.00271422,5.08928e-05,-0.00592353,1.00082,0.00396609,0.0126544,671,792,-6.49281,-0.105441
-546,232,-6.5072,-0.0224609,-0.00595932,-0.00321687,0.00294235,-0.00134192,-0.00783428,1.00345,0.00483798,0.020465,678,792,-6.50721,0.022437
-539,232,-6.46661,-0.186096,-0.00666027,-0.00371218,0.00275988,-0.00205737,-0.00831508,1.03067,0.00500072,0.023733,685,792,-6.46661,0.186094
-532,232,-6.43848,-0.333252,-0.00663671,-0.00361768,0.00270383,-0.00203053,-0.00822387,1.03999,0.00494666,0.0143972,692,792,-6.43846,0.333222
-525,232,-6.48047,-0.454041,-0.00638771,-0.00240267,0.00267129,-0.00106264,-0.00772775,1.10583,0.00483669,0.0231404,699,792,-6.48045,0.454029
-518,232,-6.98309,-0.537598,-0.0060431,-0.00143441,0.00229885,-0.000483808,-0.00699371,1.17869,0.00450986,0.0457006,706,792,-6.98308,0.537588
-511,232,-6.51544,-0.837769,0,0,0,0,0,0,0,-1,713,792,-6.51544,0.837757
-504,232,-9.53381,1.40088,0,0,0,0,0,0,0,-1,720,792,-9.53379,-1.40087
-497,232,-9.08307,0.638794,0,0,0,0,0,0,0,-1,727,792,-9.08304,-0.638764
-490,232,-9.51385,0.589539,-0.000506068,0.00847769,8.76027e-05,0.00847854,-0.000506922,1.56105,0.00582869,0.0420558,734,792,-9.51388,-0.589525
-483,232,-9.62616,0.715942,0.00178834,0.012361,-0.000576116,0.0123923,0.00175704,-1.51652,0.00774262,0.0420009,741,792,-9.62613,-0.715931
-476,232,-9.55902,0.638489,0.00368598,0.0162779,-0.00098799,0.016355,0.00360893,-1.49297,0.00992159,0.0361616,748,792,-9.55903,-0.638506
-469,232,-9.54315,0.480286,0.00400883,0.0189172,-0.000724664,0.0189523,0.00397369,-1.52234,0.0115406,0.0354367,755,792,-9.54313,-0.480266
-462,232,0,0,0,0,0,0,0,0,0,-1,762,792,0,0
-455,232,0,0,0,0,0,0,0,0,0,-1,769,792,0,0
-448,232,0,0,0,0,0,0,0,0,0,-1,776,792,0,0
-441,232,0,0,0,0,0,0,0,0,0,-1,783,792,0,0
-434,232,0,0,0,0,0,0,0,0,0,-1,790,792,0,0
-427,232,0,0,0,0,0,0,0,0,0,-1,797,792,0,0
-420,232,0,0,0,0,0,0,0,0,0,-1,804,792,0,0
-413,232,0,0,0,0,0,0,0,0,0,-1,811,792,0,0
-406,232,0,0,0,0,0,0,0,0,0,-1,818,792,0,0
-399,232,0,0,0,0,0,0,0,0,0,-1,825,792,0,0
-392,232,0,0,0,0,0,0,0,0,0,-1,832,792,0,0
-385,232,0,0,0,0,0,0,0,0,0,-1,839,792,0,0
-378,232,0,0,0,0,0,0,0,0,0,-1,846,792,0,0
-371,232,0,0,0,0,0,0,0,0,0,-1,853,792,0,0
-364,232,0,0,0,0,0,0,0,0,0,-1,860,792,0,0
-357,232,0,0,0,0,0,0,0,0,0,-1,867,792,0,0
-350,232,0,0,0,0,0,0,0,0,0,-1,874,792,0,0
-343,232,0,0,0,0,0,0,0,0,0,-1,881,792,0,0
-336,232,0,0,0,0,0,0,0,0,0,-1,888,792,0,0
-329,232,0,0,0,0,0,0,0,0,0,-1,895,792,0,0
-322,232,0,0,0,0,0,0,0,0,0,-1,902,792,0,0
-315,232,0,0,0,0,0,0,0,0,0,-1,909,792,0,0
-308,232,0,0,0,0,0,0,0,0,0,-1,916,792,0,0
-301,232,0,0,0,0,0,0,0,0,0,-1,923,792,0,0
-294,232,0,0,0,0,0,0,0,0,0,-1,930,792,0,0
-287,232,0,0,0,0,0,0,0,0,0,-1,937,792,0,0
-280,232,0,0,0,0,0,0,0,0,0,-1,944,792,0,0
-273,232,0,0,0,0,0,0,0,0,0,-1,951,792,0,0
-266,232,0,0,0,0,0,0,0,0,0,-1,958,792,0,0
-259,232,0,0,0,0,0,0,0,0,0,-1,965,792,0,0
-252,232,0,0,0,0,0,0,0,0,0,-1,972,792,0,0
-245,232,0,0,0,0,0,0,0,0,0,-1,979,792,0,0
-238,232,0,0,0,0,0,0,0,0,0,-1,986,792,0,0
-231,232,0,0,0,0,0,0,0,0,0,-1,993,792,0,0
-224,232,0,0,0,0,0,0,0,0,0,-1,1000,792,0,0
-217,232,0,0,0,0,0,0,0,0,0,-1,1007,792,0,0
-210,232,0,0,0,0,0,0,0,0,0,-1,1014,792,0,0
-203,232,0,0,0,0,0,0,0,0,0,-1,1021,792,0,0
-196,232,0,0,0,0,0,0,0,0,0,-1,1028,792,0,0
-189,232,0,0,0,0,0,0,0,0,0,-1,1035,792,0,0
-182,232,0,0,0,0,0,0,0,0,0,-1,1042,792,0,0
-175,232,0,0,0,0,0,0,0,0,0,-1,1049,792,0,0
-168,232,0,0,0,0,0,0,0,0,0,-1,1056,792,0,0
-161,232,0,0,0,0,0,0,0,0,0,-1,1063,792,0,0
-154,232,0,0,0,0,0,0,0,0,0,-1,1070,792,0,0
-147,232,0,0,0,0,0,0,0,0,0,-1,1077,792,0,0
-140,232,0,0,0,0,0,0,0,0,0,-1,1084,792,0,0
-133,232,0,0,0,0,0,0,0,0,0,-1,1091,792,0,0
-126,232,0,0,0,0,0,0,0,0,0,-1,1098,792,0,0
-119,232,0,0,0,0,0,0,0,0,0,-1,1105,792,0,0
-112,232,0,0,0,0,0,0,0,0,0,-1,1112,792,0,0
-105,232,0,0,0,0,0,0,0,0,0,-1,1119,792,0,0
-98,232,0,0,0,0,0,0,0,0,0,-1,1126,792,0,0
-91,232,0,0,0,0,0,0,0,0,0,-1,1133,792,0,0
-84,232,0,0,0,0,0,0,0,0,0,-1,1140,792,0,0
-77,232,0,0,0,0,0,0,0,0,0,-1,1147,792,0,0
-70,232,0,0,0,0,0,0,0,0,0,-1,1154,792,0,0
-63,232,0,0,0,0,0,0,0,0,0,-1,1161,792,0,0
-56,232,0,0,0,0,0,0,0,0,0,-1,1168,792,0,0
-49,232,0,0,0,0,0,0,0,0,0,-1,1175,792,0,0
-42,232,0,0,0,0,0,0,0,0,0,-1,1182,792,0,0
-35,232,0,0,0,0,0,0,0,0,0,-1,1189,792,0,0
-28,232,0,0,0,0,0,0,0,0,0,-1,1196,792,0,0
-21,232,0,0,0,0,0,0,0,0,0,-1,1203,792,0,0
-14,232,0,0,0,0,0,0,0,0,0,-1,1210,792,0,0
-7,232,0,0,0,0,0,0,0,0,0,-1,1217,792,0,0
0,232,0,0,0,0,0,0,0,0,0,-1,1224,792,0,0
7,232,0,0,0,0,0,0,0,0,0,-1,1231,792,0,0
14,232,0,0,0,0,0,0,0,0,0,-1,1238,792,0,0
21,232,0,0,0,0,0,0,0,0,0,-1,1245,792,0,0
28,232,0,0,0,0,0,0,0,0,0,-1,1252,792,0,0
35,232,0,0,0,0,0,0,0,0,0,-1,1259,792,0,0
42,232,0,0,0,0,0,0,0,0,0,-1,1266,792,0,0
49,232,0,0,0,0,0,0,0,0,0,-1,1273,792,0,0
56,232,0,0,0,0,0,0,0,0,0,-1,1280,792,0,0
63,232,0,0,0,0,0,0,0,0,0,-1,1287,792,0,0
70,232,0,0,0,0,0,0,0,0,0,-1,1294,792,0,0
77,232,0,0,0,0,0,0,0,0,0,-1,1301,792,0,0
84,232,0,0,0,0,0,0,0,0,0,-1,1308,792,0,0
91,232,0,0,0,0,0,0,0,0,0,-1,1315,792,0,0
98,232,0,0,0,0,0,0,0,0,0,-1,1322,792,0,0
105,232,0,0,0,0,0,0,0,0,0,-1,1329,792,0,0
112,232,0,0,0,0,0,0,0,0,0,-1,1336,792,0,0
119,232,0,0,0,0,0,0,0,0,0,-1,1343,792,0,0
126,232,0,0,0,0,0,0,0,0,0,-1,1350,792,0,0
133,232,0,0,0,0,0,0,0,0,0,-1,1357,792,0,0
140,232,0,0,0,0,0,0,0,0,0,-1,1364,792,0,0
147,232,0,0,0,0,0,0,0,0,0,-1,1371,792,0,0
154,232,0,0,0,0,0,0,0,0,0,-1,1378,792,0,0
161,232,0,0,0,0,0,0,0,0,0,-1,1385,792,0,0
168,232,0,0,0,0,0,0,0,0,0,-1,1392,792,0,0
175,232,0,0,0,0,0,0,0,0,0,-1,1399,792,0,0
182,232,0,0,0,0,0,0,0,0,0,-1,1406,792,0,0
189,232,0,0,0,0,0,0,0,0,0,-1,1413,792,0,0
196,232,0,0,0,0,0,0,0,0,0,-1,1420,792,0,0
203,232,0,0,0,0,0,0,0,0,0,-1,1427,792,0,0
210,232,0,0,0,0,0,0,0,0,0,-1,1434,792,0,0
217,232,0,0,0,0,0,0,0,0,0,-1,1441,792,0,0
224,232,0,0,0,0,0,0,0,0,0,-1,1448,792,0,0
231,232,0,0,0,0,0,0,0,0,0,-1,1455,792,0,0
238,232,0,0,0,0,0,0,0,0,0,-1,1462,792,0,0
245,232,0,0,0,0,0,0,0,0,0,-1,1469,792,0,0
252,232,0,0,0,0,0,0,0,0,0,-1,1476,792,0,0
259,232,0,0,0,0,0,0,0,0,0,-1,1483,792,0,0
266,232,0,0,0,0,0,0,0,0,0,-1,1490,792,0,0
273,232,0,0,0,0,0,0,0,0,0,-1,1497,792,0,0
280,232,0,0,0,0,0,0,0,0,0,-1,1504,792,0,0
287,232,0,0,0,0,0,0,0,0,0,-1,1511,792,0,0
294,232,0,0,0,0,0,0,0,0,0,-1,1518,792,0,0
301,232,0,0,0,0,0,0,0,0,0,-1,1525,792,0,0
308,232,0,0,0,0,0,0,0,0,0,-1,1532,792,0,0
315,232,0,0,0,0,0,0,0,0,0,-1,1539,792,0,0
322,232,0,0,0,0,0,0,0,0,0,-1,1546,792,0,0
329,232,0,0,0,0,0,0,0,0,0,-1,1553,792,0,0
336,232,0,0,0,0,0,0,0,0,0,-1,1560,792,0,0
343,232,0,0,0,0,0,0,0,0,0,-1,1567,792,0,0
350,232,0,0,0,0,0,0,0,0,0,-1,1574,792,0,0
357,232,0,0,0,0,0,0,0,0,0,-1,1581,792,0,0
364,232,0,0,0,0,0,0,0,0,0,-1,1588,792,0,0
371,232,0,0,0,0,0,0,0,0,0,-1,1595,792,0,0
378,232,0,0,0,0,0,0,0,0,0,-1,1602,792,0,0
385,232,0,0,0,0,0,0,0,0,0,-1,1609,792,0,0
392,232,0,0,0,0,0,0,0,0,0,-1,1616,792,0,0
399,232,0,0,0,0,0,0,0,0,0,-1,1623,792,0,0
406,232,0,0,0,0,0,0,0,0,0,-1,1630,792,0,0
413,232,0,0,0,0,0,0,0,0,0,-1,1637,792,0,0
420,232,0,0,0,0,0,0,0,0,0,-1,1644,792,0,0
427,232,0,0,0,0,0,0,0,0,0,-1,1651,792,0,0
434,232,0,0,0,0,0,0,0,0,0,-1,1658,792,0,0
441,232,0,0,0,0,0,0,0,0,0,-1,1665,792,0,0
448,232,0,0,0,0,0,0,0,0,0,-1,1672,792,0,0
455,232,0,0,0,0,0,0,0,0,0,-1,1679,792,0,0
462,232,0,0,0,0,0,0,0,0,0,-1,1686,792,0,0
469,232,0,0,0,0,0,0,0,0,0,-1,1693,792,0,0
476,232,0,0,0,0,0,0,0,0,0,-1,1700,792,0,0
483,232,0,0,0,0,0,0,0,0,0,-1,1707,792,0,0
490,232,0,0,0,0,0,0,0,0,0,-1,1714,792,0,0
497,232,0,0,0,0,0,0,0,0,0,-1,1721,792,0,0
504,232,0,0,0,0,0,0,0,0,0,-1,1728,792,0,0
511,232,0,0,0,0,0,0,0,0,0,-1,1735,792,0,0
518,232,0,0,0,0,0,0,0,0,0,-1,1742,792,0,0
525,232,0,0,0,0,0,0,0,0,0,-1,1749,792,0,0
532,232,0,0,0,0,0,0,0,0,0,-1,1756,792,0,0
539,232,0,0,0,0,0,0,0,0,0,-1,1763,792,0,0
546,232,0,0,0,0,0,0,0,0,0,-1,1770,792,0,0
553,232,0,0,0,0,0,0,0,0,0,-1,1777,792,0,0
560,232,0,0,0,0,0,0,0,0,0,-1,1784,792,0,0
567,232,0,0,0,0,0,0,0,0,0,-1,1791,792,0,0
574,232,0,0,0,0,0,0,0,0,0,-1,1798,792,0,0
581,232,0,0,0,0,0,0,0,0,0,-1,1805,792,0,0
588,232,15.2487,2.29028,0.0105405,-0.000380979,0.00198416,0.0108898,-0.000730279,0.174259,0.00751511,0.0355044,1812,792,15.2487,-2.29026
595,232,15.3503,2.20825,0.0130063,-0.00113963,0.000553916,0.013028,-0.00116128,0.0390774,0.00909716,0.0335784,1819,792,15.3503,-2.20824
602,232,15.3313,2.29608,0.0121562,-0.00192,-0.000804697,0.0122021,-0.00196585,-0.05692,0.00886296,0.032662,1826,792,15.3314,-2.2961
609,232,15.3372,2.3808,0.0100886,-0.00260969,-0.00189555,0.0103655,-0.00288661,-0.145064,0.00804704,0.0376371,1833,792,15.3372,-2.38077
616,232,15.2063,2.55579,0.00762336,-0.00300621,-0.0026419,0.00824377,-0.00362662,-0.230657,0.00702406,0.0422639,1840,792,15.2063,-2.55579
623,232,15.2432,2.44958,0.00515362,-0.00330015,-0.00310282,0.00617021,-0.00431674,-0.316613,0.00608608,0.0451524,1847,792,15.2432,-2.44958
630,232,15.2993,2.31744,0,0,0,0,0,0,0,-1,1854,792,15.2993,-2.31742
637,232,12.2197,1.60004,0,0,0,0,0,0,0,-1,1861,792,12.2198,-1.60006
644,232,11.9843,1.65045,-0.000848511,-0.00345999,-0.00298107,0.00110024,-0.00540874,-0.578979,0.00402304,0.044717,1868,792,11.9842,-1.65048
651,232,11.6296,1.55243,-0.00187912,-0.00329219,-0.0028019,0.000303955,-0.00547526,-0.661892,0.0037556,0.0404447,1875,792,11.6296,-1.55245
658,232,11.5466,1.4035,-0.00222135,-0.00308755,-0.00247122,-0.00014557,-0.00516333,-0.698651,0.00339474,0.0220582,1882,792,11.5466,-1.4035
665,232,11.5135,1.56085,-0.00226572,-0.0026613,-0.00205139,-0.000402604,-0.00452441,-0.737337,0.00289143,0.0112574,1889,792,11.5135,-1.56088
672,232,11.5134,1.72229,-0.00258925,-0.00249674,-0.00144199,-0.00110026,-0.00398572,-0.801432,0.00237685,0.0179556,1896,792,11.5134,-1.72231
679,232,11.548,1.88745,-0.00216381,-0.00202952,-0.000842462,-0.00125153,-0.0029418,-0.825164,0.00170473,0.0199362,1903,792,11.5479,-1.88746
686,232,11.5503,2.03351,-0.000210992,-0.00131509,0.000119247,-0.000198259,-0.00132782,0.10637,0.000827086,0.0197074,1910,792,11.5503,-2.0335
693,232,11.5087,2.17889,0.00185436,-0.000836252,0.000898364,0.00212674,-0.00110863,0.294386,0.00189852,0.0105291,1917,792,11.5087,-2.17888
700,232,11.5219,2.33472,0.00429755,-0.00096465,0.00137334,0.00463441,-0.0013015,0.240533,0.00360267,0.0116895,1924,792,11.5218,-2.33474
707,232,11.5245,2.49664,0.00675554,-0.00115129,0.00200999,0.00723716,-0.00163292,0.23518,0.00545122,0.0121623,1931,792,11.5245,-2.49664
714,232,11.5032,2.64215,0.00980171,-0.00215922,0.0028438,0.0104434,-0.00280093,0.221934,0.00805982,0.012837,1938,792,11.5031,-2.64214
721,232,11.5029,2.80347,0.013566,-0.00345627,0.00379883,0.0143753,-0.00426557,0.209902,0.0112776,0.0164862,1945,792,11.5029,-2.80344
728,232,11.5568,2.96472,0.0179748,-0.00562901,0.00460995,0.0188432,-0.0064974,0.186193,0.0151982,0.0302951,1952,792,11.5567,-2.9647
735,232,11.7588,3.13861,0.0230145,-0.00903465,0.00503709,0.0237876,-0.00980768,0.152278,0.0199481,0.0431156,1959,792,11.7588,-3.13862
742,232,11.8644,3.31628,0.0284281,-0.014187,0.00468555,0.0289372,-0.014696,0.108228,0.025635,0.0493452,1966,792,11.8643,-3.31627
749,232,11.8199,3.20392,0.0336396,-0.0217724,0.00293778,0.0337949,-0.0219277,0.0528197,0.0324138,0.0477162,1973,792,11.8199,-3.20392
756,232,11.8086,2.71716,0.0380397,-0.0326479,-0.00105776,0.0380555,-0.0326637,-0.0149593,0.0408693,0.0462124,1980,792,11.8086,-2.71717
763,232,12.0197,2.27405,0.0404325,-0.0479655,-0.00868391,0.0412775,-0.0488105,-0.097001,0.0520729,0.0478605,1987,792,12.0197,-2.27405
770,232,0,0,0,0,0,0,0,0,0,-1,1994,792,0,0
777,232,0,0,0,0,0,0,0,0,0,-1,2001,792,0,0
784,232,0,0,0,0,0,0,0,0,0,-1,2008,792,0,0
791,232,0,0,0,0,0,0,0,0,0,-1,2015,792,0,0
798,232,0,0,0,0,0,0,0,0,0,-1,2022,792,0,0
805,232,0,0,0,0,0,0,0,0,0,-1,2029,792,0,0
812,232,0,0,0,0,0,0,0,0,0,-1,2036,792,0,0
-700,225,0,0,0,0,0,0,0,0,0,-1,524,799,0,0
-693,225,0,0,0,0,0,0,0,0,0,-1,531,799,0,0
-686,225,0,0,0,0,0,0,0,0,0,-1,538,799,0,0
-679,225,0,0,0,0,0,0,0,0,0,-1,545,799,0,0
-672,225,0,0,0,0,0,0,0,0,0,-1,552,799,0,0
-665,225,0,0,0,0,0,0,0,0,0,-1,559,799,0,0
-658,225,0,0,0,0,0,0,0,0,0,-1,566,799,0,0
-651,225,0,0,0,0,0,0,0,0,0,-1,573,799,0,0
-644,225,-9.23444,-0.735046,0.00829902,0.0412934,0.0348947,0.0633941,-0.0138016,1.00621,0.0475359,0.0475282,580,799,-9.23442,0.735043
-637,225,-9.80463,-0.585144,0.0190763,0.0392079,0.0339499,0.0645527,-0.00626854,0.929515,0.0452696,0.0447482,587,799,-9.80462,0.585115
-630,225,-9.86401,-0.523682,0.023963,0.035985,0.0314788,0.0620216,-0.00207361,0.879739,0.042056,0.0451768,594,799,-9.86402,0.523662
-623,225,-9.62085,-0.25592,0.0252162,0.0321416,0.0281812,0.057072,0.000285801,0.846528,0.0379531,0.0464987,601,799,-9.62086,0.25594
-616,225,-7.17963,0.503906,0.0241158,0.0279386,0.024441,0.0505428,0.00151162,0.824421,0.0332028,0.0478246,608,799,-7.17961,-0.503879
-609,225,-6.98785,0.408508,0,0,0,0,0,0,0,-1,615,799,-6.98788,-0.408491
-602,225,-6.75824,0.913757,0,0,0,0,0,0,0,-1,622,799,-6.75826,-0.913734
-595,225,-6.68018,0.875793,0.0145928,0.014731,0.0130375,0.0276995,0.00162427,0.788049,0.0179495,0.0274985,629,799,-6.68018,-0.875818
-588,225,-6.61792,0.79248,0.0119901,0.0113333,0.00997983,0.0216469,0.00167649,0.768952,0.0139062,0.0124511,636,799,-6.6179,-0.792501
-581,225,-6.60083,0.661926,0.00838324,0.00830748,0.00763016,0.0159756,0.000715103,0.782916,0.0104202,0.0107971,643,799,-6.60081,-0.661921
-574,225,-6.59167,0.521118,0.0039303,0.00544952,0.00569909,0.0104394,-0.00105958,0.851651,0.00733834,0.00829186,650,799,-6.5917,-0.521104
-567,225,-6.59967,0.372192,-0.000388284,0.00155593,0.00359084,0.00430392,-0.00313627,0.917589,0.00431319,0.00986255,657,799,-6.59969,-0.372175
-560,225,-6.62695,0.245178,-0.00338762,-0.000805841,0.00314386,0.00130183,-0.00549529,0.980207,0.00416584,0.010091,664,799,-6.62697,-0.245158
-553,225,-6.62537,0.108765,-0.00541978,-0.00245456,0.00328056,-0.000337146,-0.0075372,0.99763,0.00491628,0.0104013,671,799,-6.62538,-0.108778
-546,225,-6.64539,-0.0354004,-0.00723565,-0.00396617,0.00359503,-0.00165165,-0.00955017,0.998785,0.00589388,0.0193224,678,799,-6.6454,0.0354096
-539,225,-6.60718,-0.186707,-0.00788942,-0.0045644,0.00345538,-0.00239239,-0.0100614,1.00962,0.00606942,0.0227925,685,799,-6.6072,0.186724
-532,225,-6.60602,-0.321045,-0.00780681,-0.00467979,0.00332269,-0.00257112,-0.00991547,1.00531,0.00594169,0.0149401,692,799,-6.60604,0.321025
-525,225,-6.70087,-0.403137,-0.00745719,-0.00391109,0.00313508,-0.00208242,-0.00928587,1.04275,0.0056264,0.0337503,699,799,-6.70085,0.403158
-518,225,-6.84674,-0.488708,-0.00689776,-0.00325227,0.00259295,-0.00190551,-0.00824452,1.09175,0.00498411,0.0438487,706,799,-6.84677,0.488682
-511,225,-7.20319,-0.690674,0,0,0,0,0,0,0,-1,713,799,-7.20319,0.690681
-504,225,-7.41132,-0.891846,0,0,0,0,0,0,0,-1,720,799,-7.41134,0.891848
-497,225,-9.39349,0.575317,-0.00160559,0.00188123,-0.000140768,0.0018869,-0.00161126,-1.53051,0.00202175,0.044745,727,799,-9.39348,-0.575306
-490,225,-9.48151,0.702698,0.00159898,0.00467628,-0.0014725,0.00526735,0.00100791,-1.18908,0.00322848,0.0375627,734,799,-9.48149,-0.702697
-483,225,-9.52203,0.671204,0.00534627,0.00778376,-0.00290974,0.00971968,0.00341035,-0.983723,0.00569425,0.033354,741,799,-9.52205,-0.671182
-476,225,-9.53009,0.580933,0.00902042,0.0105955,-0.00410823,0.013991,0.00562494,-0.880101,0.00812923,0.0305981,748,799,-9.5301,-0.580953
-469,225,-9.58386,0.420166,0.0115223,0.0112583,-0.00451816,0.0159104,0.00687024,-0.770793,0.00921432,0.0357195,755,799,-9.58388,-0.420162
-462,225,0,0,0,0,0,0,0,0,0,-1,762,799,0,0
-455,225,0,0,0,0,0,0,0,0,0,-1,769,799,0,0
-448,225,0,0,0,0,0,0,0,0,0,-1,776,799,0,0
-441,225,0,0,0,0,0,0,0,0,0,-1,783,799,0,0
-434,225,0,0,0,0,0,0,0,0,0,-1,790,799,0,0
-427,225,0,0,0,0,0,0,0,0,0,-1,797,799,0,0
-420,225,0,0,0,0,0,0,0,0,0,-1,804,799,0,0
-413,225,0,0,0,0,0,0,0,0,0,-1,811,799,0,0
-406,225,0,0,0,0,0,0,0,0,0,-1,818,799,0,0
-399,225,0,0,0,0,0,0,0,0,0,-1,825,799,0,0
-392,225,0,0,0,0,0,0,0,0,0,-1,832,799,0,0
-385,225,0,0,0,0,0,0,0,0,0,-1,839,799,0,0
-378,225,0,0,0,0,0,0,0,0,0,-1,846,799,0,0
-371,225,0,0,0,0,0,0,0,0,0,-1,853,799,0,0
-364,225,0,0,0,0,0,0,0,0,0,-1,860,799,0,0
-357,225,0,0,0,0,0,0,0,0,0,-1,867,799,0,0
-350,225,0,0,0,0,0,0,0,0,0,-1,874,799,0,0
-343,225,0,0,0,0,0,0,0,0,0,-1,881,799,0,0
-336,225,0,0,0,0,0,0,0,0,0,-1,888,799,0,0
-329,225,0,0,0,0,0,0,0,0,0,-1,895,799,0,0
-322,225,0,0,0,0,0,0,0,0,0,-1,902,799,0,0
-315,225,0,0,0,0,0,0,0,0,0,-1,909,799,0,0
-308,225,0,0,0,0,0,0,0,0,0,-1,916,799,0,0
-301,225,0,0,0,0,0,0,0,0,0,-1,923,799,0,0
-294,225,0,0,0,0,0,0,0,0,0,-1,930,799,0,0
-287,225,0,0,0,0,0,0,0,0,0,-1,937,799,0,0
-280,225,0,0,0,0,0,0,0,0,0,-1,944,799,0,0
-273,225,0,0,0,0,0,0,0,0,0,-1,951,799,0,0
-266,225,0,0,0,0,0,0,0,0,0,-1,958,799,0,0
-259,225,0,0,0,0,0,0,0,0,0,-1,965,799,0,0
-252,225,0,0,0,0,0,0,0,0,0,-1,972,799,0,0
-245,225,0,0,0,0,0,0,0,0,0,-1,979,799,0,0
-238,225,0,0,0,0,0,0,0,0,0,-1,986,799,0,0
-231,225,0,0,0,0,0,0,0,0,0,-1,993,799,0,0
-224,225,0,0,0,0,0,0,0,0,0,-1,1000,799,0,0
-217,225,0,0,0,0,0,0,0,0,0,-1,1007,799,0,0
-210,225,0,0,0,0,0,0,0,0,0,-1,1014,799,0,0
-203,225,0,0,0,0,0,0,0,0,0,-1,1021,799,0,0
-196,225,0,0,0,0,0,0,0,0,0,-1,1028,799,0,0
-189,225,0,0,0,0,0,0,0,0,0,-1,1035,799,0,0
-182,225,0,0,0,0,0,0,0,0,0,-1,1042,799,0,0
-175,225,0,0,0,0,0,0,0,0,0,-1,1049,799,0,0
-168,225,0,0,0,0,0,0,0,0,0,-1,1056,799,0,0
-161,225,0,0,0,0,0,0,0,0,0,-1,1063,799,0,0
-154,225,0,0,0,0,0,0,0,0,0,-1,1070,799,0,0
-147,225,0,0,0,0,0,0,0,0,0,-1,1077,799,0,0
-140,225,0,0,0,0,0,0,0,0,0,-1,1084,799,0,0
-133,225,0,0,0,0,0,0,0,0,0,-1,1091,799,0,0
-126,225,0,0,0,0,0,0,0,0,0,-1,1098,799,0,0
-119,225,0,0,0,0,0,0,0,0,0,-1,1105,799,0,0
-112,225,0,0,0,0,0,0,0,0,0,-1,1112,799,0,0
-105,225,0,0,0,0,0,0,0,0,0,-1,1119,799,0,0
-98,225,0,0,0,0,0,0,0,0,0,-1,1126,799,0,0
-91,225,0,0,0,0,0,0,0,0,0,-1,1133,799,0,0
-84,225,0,0,0,0,0,0,0,0,0,-1,1140,799,0,0
-77,225,0,0,0,0,0,0,0,0,0,-1,1147,799,0,0
-70,225,0,0,0,0,0,0,0,0,0,-1,1154,799,0,0
-63,225,0,0,0,0,0,0,0,0,0,-1,1161,799,0,0
-56,225,0,0,0,0,0,0,0,0,0,-1,1168,799,0,0
-49,225,0,0,0,0,0,0,0,0,0,-1,1175,799,0,0
-42,225,0,0,0,0,0,0,0,0,0,-1,1182,799,0,0
-35,225,0,0,0,0,0,0,0,0,0,-1,1189,799,0,0
-28,225,0,0,0,0,0,0,0,0,0,-1,1196,799,0,0
-21,225,0,0,0,0,0,0,0,0,0,-1,1203,799,0,0
-14,225,0,0,0,0,0,0,0,0,0,-1,1210,799,0,0
-7,225,0,0,0,0,0,0,0,0,0,-1,1217,799,0,0
0,225,0,0,0,0,0,0,0,0,0,-1,1224,799,0,0
7,225,0,0,0,0,0,0,0,0,0,-1,1231,799,0,0
14,225,0,0,0,0,0,0,0,0,0,-1,1238,799,0,0
21,225,0,0,0,0,0,0,0,0,0,-1,1245,799,0,0
28,225,0,0,0,0,0,0,0,0,0,-1,1252,799,0,0
35,225,0,0,0,0,0,0,0,0,0,-1,1259,799,0,0
42,225,0,0,0,0,0,0,0,0,0,-1,1266,799,0,0
49,225,0,0,0,0,0,0,0,0,0,-1,1273,799,0,0
56,225,0,0,0,0,0,0,0,0,0,-1,1280,799,0,0
63,225,0,0,0,0,0,0,0,0,0,-1,1287,799,0,0
70,225,0,0,0,0,0,0,0,0,0,-1,1294,799,0,0
77,225,0,0,0,0,0,0,0,0,0,-1,1301,799,0,0
84,225,0,0,0,0,0,0,0,0,0,-1,1308,799,0,0
91,225,0,0,0,0,0,0,0,0,0,-1,1315,799,0,0
98,225,0,0,0,0,0,0,0,0,0,-1,1322,799,0,0
105,225,0,0,0,0,0,0,0,0,0,-1,1329,799,0,0
112,225,0,0,0,0,0,0,0,0,0,-1,1336,799,0,0
119,225,0,0,0,0,0,0,0,0,0,-1,1343,799,0,0
126,225,0,0,0,0,0,0,0,0,0,-1,1350,799,0,0
133,225,0,0,0,0,0,0,0,0,0,-1,1357,799,0,0
140,225,0,0,0,0,0,0,0,0,0,-1,1364,799,0,0
147,225,0,0,0,0,0,0,0,0,0,-1,1371,799,0,0
154,225,0,0,0,0,0,0,0,0,0,-1,1378,799,0,0
161,225,0,0,0,0,0,0,0,0,0,-1,1385,799,0,0
168,225,0,0,0,0,0,0,0,0,0,-1,1392,799,0,0
175,225,0,0,0,0,0,0,0,0,0,-1,1399,799,0,0
182,225,0,0,0,0,0,0,0,0,0,-1,1406,799,0,0
189,225,0,0,0,0,0,0,0,0,0,-1,1413,799,0,0
196,225,0,0,0,0,0,0,0,0,0,-1,1420,799,0,0
203,225,0,0,0,0,0,0,0,0,0,-1,1427,799,0,0
210,225,0,0,0,0,0,0,0,0,0,-1,1434,799,0,0
217,225,0,0,0,0,0,0,0,0,0,-1,1441,799,0,0
224,225,0,0,0,0,0,0,0,0,0,-1,1448,799,0,0
231,225,0,0,0,0,0,0,0,0,0,-1,1455,799,0,0
238,225,0,0,0,0,0,0,0,0,0,-1,1462,799,0,0
245,225,0,0,0,0,0,0,0,0,0,-1,1469,799,0,0
252,225,0,0,0,0,0,0,0,0,0,-1,1476,799,0,0
259,225,0,0,0,0,0,0,0,0,0,-1,1483,799,0,0
266,225,0,0,0,0,0,0,0,0,0,-1,1490,799,0,0
273,225,0,0,0,0,0,0,0,0,0,-1,1497,799,0,0
280,225,0,0,0,0,0,0,0,0,0,-1,1504,799,0,0
287,225,0,0,0,0,0,0,0,0,0,-1,1511,799,0,0
294,225,0,0,0,0,0,0,0,0,0,-1,1518,799,0,0
301,225,0,0,0,0,0,0,0,0,0,-1,1525,799,0,0
308,225,0,0,0,0,0,0,0,0,0,-1,1532,799,0,0
315,225,0,0,0,0,0,0,0,0,0,-1,1539,799,0,0
322,225,0,0,0,0,0,0,0,0,0,-1,1546,799,0,0
329,225,0,0,0,0,0,0,0,0,0,-1,1553,799,0,0
336,225,0,0,0,0,0,0,0,0,0,-1,1560,799,0,0
343,225,0,0,0,0,0,0,0,0,0,-1,1567,799,0,0
350,225,0,0,0,0,0,0,0,0,0,-1,1574,799,0,0
357,225,0,0,0,0,0,0,0,0,0,-1,1581,799,0,0
364,225,0,0,0,0,0,0,0,0,0,-1,1588,799,0,0
371,225,0,0,0,0,0,0,0,0,0,-1,1595,799,0,0
378,225,0,0,0,0,0,0,0,0,0,-1,1602,799,0,0
385,225,0,0,0,0,0,0,0,0,0,-1,1609,799,0,0
392,225,0,0,0,0,0,0,0,0,0,-1,1616,799,0,0
399,225,0,0,0,0,0,0,0,0,0,-1,1623,799,0,0
406,225,0,0,0,0,0,0,0,0,0,-1,1630,799,0,0
413,225,0,0,0,0,0,0,0,0,0,-1,1637,799,0,0
420,225,0,0,0,0,0,0,0,0,0,-1,1644,799,0,0
427,225,0,0,0,0,0,0,0,0,0,-1,1651,799,0,0
434,225,0,0,0,0,0,0,0,0,0,-1,1658,799,0,0
441,225,0,0,0,0,0,0,0,0,0,-1,1665,799,0,0
448,225,0,0,0,0,0,0,0,0,0,-1,1672,799,0,0
455,225,0,0,0,0,0,0,0,0,0,-1,1679,799,0,0
462,225,0,0,0,0,0,0,0,0,0,-1,1686,799,0,0
469,225,0,0,0,0,0,0,0,0,0,-1,1693,799,0,0
476,225,0,0,0,0,0,0,0,0,0,-1,1700,799,0,0
483,225,0,0,0,0,0,0,0,0,0,-1,1707,799,0,0
490,225,0,0,0,0,0,0,0,0,0,-1,1714,799,0,0
497,225,0,0,0,0,0,0,0,0,0,-1,1721,799,0,0
504,225,0,0,0,0,0,0,0,0,0,-1,1728,799,0,0
511,225,0,0,0,0,0,0,0,0,0,-1,1735,799,0,0
518,225,0,0,0,0,0,0,0,0,0,-1,1742,799,0,0
525,225,0,0,0,0,0,0,0,0,0,-1,1749,799,0,0
532,225,0,0,0,0,0,0,0,0,0,-1,1756,799,0,0
539,225,0,0,0,0,0,0,0,0,0,-1,1763,799,0,0
546,225,0,0,0,0,0,0,0,0,0,-1,1770,799,0,0
553,225,0,0,0,0,0,0,0,0,0,-1,1777,799,0,0
560,225,0,0,0,0,0,0,0,0,0,-1,1784,799,0,0
567,225,0,0,0,0,0,0,0,0,0,-1,1791,799,0,0
574,225,0,0,0,0,0,0,0,0,0,-1,1798,799,0,0
581,225,0,0,0,0,0,0,0,0,0,-1,1805,799,0,0
588,225,15.3177,2.33136,0.00578583,0.00194826,0.00376293,0.00809094,-0.000356859,0.549623,0.00551677,0.0343495,1812,799,15.3177,-2.33137
595,225,15.3527,2.28375,0.00902708,0.000724015,0.00154376,0.00930481,0.00044628,0.178004,0.00605993,0.0346738,1819,799,15.3527,-2.28373
602,225,15.3005,2.32629,0.00873065,-0.000236147,-0.000114697,0.00873212,-0.000237613,-0.0127885,0.00590221,0.0319457,1826,799,15.3006,-2.32632
609,225,15.2411,2.41913,0.00719664,-0.00115495,-0.00126431,0.00738384,-0.00134215,-0.146998,0.00542556,0.030662,1833,799,15.2411,-2.41916
616,225,15.2509,2.4397,0.0052298,-0.00178199,-0.00194374,0.00573258,-0.00228477,-0.253116,0.00476936,0.0370477,1840,799,15.2508,-2.43968
623,225,15.2712,2.41583,0.00323321,-0.00220451,-0.00230972,0.00408184,-0.00305315,-0.352107,0.00413363,0.0401532,1847,799,15.2712,-2.41581
630,225,14.9249,2.93842,0,0,0,0,0,0,0,-1,1854,799,14.9249,-2.93845
637,225,13.2621,2.40912,0,0,0,0,0,0,0,-1,1861,799,13.262,-2.40915
644,225,11.6392,1.74231,-0.00146676,-0.00257909,-0.002096,0.000145605,-0.00419146,-0.655714,0.00284409,0.0449148,1868,799,11.6392,-1.74233
651,225,11.4486,1.81378,-0.00215638,-0.00249401,-0.00186792,-0.000449664,-0.00420072,-0.740333,0.00266328,0.0387605,1875,799,11.4486,-1.81377
658,225,11.8112,1.47504,-0.00231911,-0.00235861,-0.00166069,-0.000678055,-0.00399966,-0.779452,0.00247162,0.0352787,1882,799,11.8111,-1.47503
665,225,11.676,1.54468,-0.0023736,-0.00209354,-0.00144312,-0.000783673,-0.00368347,-0.833763,0.00224058,0.0127349,1889,799,11.6761,-1.54468
672,225,11.6334,1.74268,-0.0027034,-0.00208093,-0.000995701,-0.00134895,-0.00343537,-0.936876,0.00199859,0.0171732,1896,799,11.6334,-1.74269
679,225,11.6372,1.9281,-0.00239176,-0.00180185,-0.000593003,-0.0014345,-0.00275911,-1.01618,0.0015934,0.0183985,1903,799,11.6372,-1.92809
686,225,11.667,2.05579,-0.000745291,-0.00125692,5.70059e-05,-0.000739016,-0.00126319,0.10963,0.000732812,0.0111418,1910,799,11.667,-2.05579
693,225,11.6641,2.19647,0.00108481,-0.000846431,0.000604464,0.0012584,-0.00102002,0.279654,0.00131784,0.00967664,1917,799,11.6641,-2.19644
700,225,11.6622,2.35168,0.00330166,-0.00096865,0.000873023,0.00347325,-0.00114024,0.194069,0.0027748,0.0105877,1924,799,11.6622,-2.35167
707,225,11.6554,2.5097,0.005433,-0.000997604,0.00128764,0.00568125,-0.00124585,0.190457,0.00426389,0.0110514,1931,799,11.6554,-2.50971
714,225,11.6598,2.6593,0.00803963,-0.00182202,0.00184373,0.00837306,-0.00215545,0.178911,0.00642225,0.0123277,1938,799,11.6598,-2.65927
721,225,11.6838,2.80237,0.0112977,-0.00285478,0.00246252,0.0117139,-0.00327102,0.167445,0.00909777,0.0134215,1945,799,11.6838,-2.80235
728,225,11.6876,2.9328,0.015084,-0.00463584,0.00288647,0.0154978,-0.00504966,0.142395,0.0123638,0.0219006,1952,799,11.6877,-2.93279
735,225,11.7573,3.1095,0.019422,-0.00750347,0.00287589,0.0197257,-0.00780722,0.105228,0.0163851,0.0397327,1959,799,11.7573,-3.10951
742,225,11.9172,3.42004,0.0241826,-0.0118994,0.00214859,0.0243101,-0.0120269,0.0592681,0.021375,0.0470331,1966,799,11.9173,-3.42005
749,225,12.395,3.73547,0.0289656,-0.0184496,0.000181312,0.0289663,-0.0184503,0.00382384,0.0275995,0.0489255,1973,799,12.395,-3.73545
756,225,12.972,4.29706,0,0,0,0,0,0,0,-1,1980,799,12.9721,-4.29706
763,225,11.9244,3.03638,0,0,0,0,0,0,0,-1,1987,799,11.9244,-3.03636
770,225,0,0,0,0,0,0,0,0,0,-1,1994,799,0,0
777,225,0,0,0,0,0,0,0,0,0,-1,2001,799,0,0
784,225,0,0,0,0,0,0,0,0,0,-1,2008,799,0,0
791,225,0,0,0,0,0,0,0,0,0,-1,2015,799,0,0
798,225,0,0,0,0,0,0,0,0,0,-1,2022,799,0,0
805,225,0,0,0,0,0,0,0,0,0,-1,2029,799,0,0
812,225,0,0,0,0,0,0,0,0,0,-1,2036,799,0,0
-700,218,0,0,0,0,0,0,0,0,0,-1,524,806,0,0
-693,218,0,0,0,0,0,0,0,0,0,-1,531,806,0,0
-686,218,0,0,0,0,0,0,0,0,0,-1,538,806,0,0
-679,218,0,0,0,0,0,0,0,0,0,-1,545,806,0,0
-672,218,0,0,0,0,0,0,0,0,0,-1,552,806,0,0
-665,218,0,0,0,0,0,0,0,0,0,-1,559,806,0,0
-658,218,0,0,0,0,0,0,0,0,0,-1,566,806,0,0
-651,218,-9.0697,-1.74963,-0.00547667,0.0400714,0.0331663,0.0575299,-0.0229352,1.08626,0.0478664,0.047066,573,806,-9.0697,1.74962
-644,218,-9.20575,-0.83313,0.00960348,0.0373813,0.0340372,0.0602542,-0.0132695,0.979112,0.0452459,0.0470727,580,806,-9.20575,0.833137
-637,218,-9.68878,-1.0932,0,0,0,0,0,0,0,-1,587,806,-9.68877,1.09322
-630,218,-9.76514,0.0923462,0,0,0,0,0,0,0,-1,594,806,-9.76511,-0.0923235
-623,218,-9.87836,0.318481,0,0,0,0,0,0,0,-1,601,806,-9.87833,-0.318488
-616,218,-9.98712,0.391235,0,0,0,0,0,0,0,-1,608,806,-9.98711,-0.391262
-609,218,-6.77728,1.00037,0,0,0,0,0,0,0,-1,615,806,-6.77728,-1.00038
-602,218,-6.79736,0.942932,0.0159369,0.0157804,0.0158655,0.0317243,-7.0557e-06,0.782931,0.0211519,0.0380639,622,806,-6.79738,-0.942957
-595,218,-6.80481,0.901306,0.0128644,0.0118968,0.0124071,0.0247972,-3.59267e-05,0.765911,0.0165435,0.0166698,629,806,-6.80479,-0.901314
-588,218,-6.75629,0.790833,0.0104382,0.00909151,0.0095401,0.0193287,0.000201024,0.750167,0.0128193,0.0111828,636,806,-6.7563,-0.790807
-581,218,-6.74695,0.66394,0.00709411,0.0066673,0.00741582,0.0142996,-0.000538192,0.771014,0.00971743,0.0106132,643,806,-6.74697,-0.663922
-574,218,-6.7533,0.524475,0.00295553,0.00422628,0.00564619,0.00927273,-0.00209093,0.841428,0.00698392,0.00965938,650,806,-6.75327,-0.524462
-567,218,-6.73798,0.389832,-0.00128073,0.000630577,0.00382969,0.00362205,-0.0042722,0.90767,0.0045629,0.0156369,657,806,-6.73795,-0.389841
-560,218,-6.76642,0.275146,-0.00437012,-0.00155018,0.00354632,0.000856187,-0.00677649,0.97461,0.00482842,0.015434,664,806,-6.76639,-0.275138
-553,218,-6.75189,0.119507,-0.00647963,-0.00307019,0.00380822,-0.000602549,-0.00894727,0.995844,0.00577449,0.0156417,671,806,-6.75191,-0.119536
-546,218,-6.75684,-0.0432739,-0.0082337,-0.00447954,0.0041768,-0.00177742,-0.0109358,0.996578,0.00677623,0.0135035,678,806,-6.75681,0.0432451
-539,218,-6.76257,-0.189148,-0.00883753,-0.00513245,0.00411192,-0.00247502,-0.011495,0.997045,0.006986,0.0162138,685,806,-6.76258,0.189155
-532,218,-6.78015,-0.269043,-0.00871489,-0.00541465,0.00395165,-0.00278243,-0.0113471,0.983181,0.0068289,0.0183754,692,806,-6.78015,0.269015
-525,218,-6.98248,-0.254089,-0.00829865,-0.0050092,0.00368455,-0.00261895,-0.0106889,0.99532,0.00643317,0.0470158,699,806,-6.9825,0.254075
-518,218,-6.66614,-0.344116,-0.00759148,-0.00454223,0.00308277,-0.00262768,-0.00950603,1.01504,0.00566825,0.0466567,706,806,-6.66614,0.344123
-511,218,-6.224,-0.389771,0,0,0,0,0,0,0,-1,713,806,-6.22403,0.389784
-504,218,-9.29663,0.846924,-0.00392401,-0.00228805,0.0010205,-0.00179816,-0.00441389,1.12324,0.00256289,0.0454168,720,806,-9.29663,-0.846922
-497,218,-9.51593,0.670959,-0.000826409,-0.000337679,-0.000476444,-4.65879e-05,-0.0011175,-1.02235,0.000729966,0.0454641,727,806,-9.51591,-0.670959
-490,218,-9.50012,0.676331,0.00321909,0.00207138,-0.00228401,0.00500023,0.000290236,-0.662321,0.00324107,0.0350258,734,806,-9.5001,-0.676332
-483,218,-9.47168,0.689087,0.00802525,0.00473213,-0.00428979,0.0109736,0.00178375,-0.602153,0.00679961,0.0317499,741,806,-9.4717,-0.689092
-476,218,-9.50427,0.683655,0.0128473,0.00696209,-0.00603323,0.0166173,0.0031921,-0.558506,0.0101823,0.0345764,748,806,-9.5043,-0.683646
-469,218,0,0,0,0,0,0,0,0,0,-1,755,806,0,0
-462,218,0,0,0,0,0,0,0,0,0,-1,762,806,0,0
-455,218,0,0,0,0,0,0,0,0,0,-1,769,806,0,0
-448,218,0,0,0,0,0,0,0,0,0,-1,776,806,0,0
-441,218,0,0,0,0,0,0,0,0,0,-1,783,806,0,0
-434,218,0,0,0,0,0,0,0,0,0,-1,790,806,0,0
-427,218,0,0,0,0,0,0,0,0,0,-1,797,806,0,0
-420,218,0,0,0,0,0,0,0,0,0,-1,804,806,0,0
-413,218,0,0,0,0,0,0,0,0,0,-1,811,806,0,0
-406,218,0,0,0,0,0,0,0,0,0,-1,818,806,0,0
-399,218,0,0,0,0,0,0,0,0,0,-1,825,806,0,0
-392,218,0,0,0,0,0,0,0,0,0,-1,832,806,0,0
-385,218,0,0,0,0,0,0,0,0,0,-1,839,806,0,0
-378,218,0,0,0,0,0,0,0,0,0,-1,846,806,0,0
-371,218,0,0,0,0,0,0,0,0,0,-1,853,806,0,0
-364,218,0,0,0,0,0,0,0,0,0,-1,860,806,0,0
-357,218,0,0,0,0,0,0,0,0,0,-1,867,806,0,0
-350,218,0,0,0,0,0,0,0,0,0,-1,874,806,0,0
-343,218,0,0,0,0,0,0,0,0,0,-1,881,806,0,0
-336,218,0,0,0,0,0,0,0,0,0,-1,888,806,0,0
-329,218,0,0,0,0,0,0,0,0,0,-1,895,806,0,0
-322,218,0,0,0,0,0,0,0,0,0,-1,902,806,0,0
-315,218,0,0,0,0,0,0,0,0,0,-1,909,806,0,0
-308,218,0,0,0,0,0,0,0,0,0,-1,916,806,0,0
-301,218,0,0,0,0,0,0,0,0,0,-1,923,806,0,0
-294,218,0,0,0,0,0,0,0,0,0,-1,930,806,0,0
-287,218,0,0,0,0,0,0,0,0,0,-1,937,806,0,0
-280,218,0,0,0,0,0,0,0,0,0,-1,944,806,0,0
-273,218,0,0,0,0,0,0,0,0,0,-1,951,806,0,0
-266,218,0,0,0,0,0,0,0,0,0,-1,958,806,0,0
-259,218,0,0,0,0,0,0,0,0,0,-1,965,806,0,0
-252,218,0,0,0,0,0,0,0,0,0,-1,972,806,0,0
-245,218,0,0,0,0,0,0,0,0,0,-1,979,806,0,0
-238,218,0,0,0,0,0,0,0,0,0,-1,986,806,0,0
-231,218,0,0,0,0,0,0,0,0,0,-1,993,806,0,0
-224,218,0,0,0,0,0,0,0,0,0,-1,1000,806,0,0
-217,218,0,0,0,0,0,0,0,0,0,-1,1007,806,0,0
-210,218,0,0,0,0,0,0,0,0,0,-1,1014,806,0,0
-203,218,0,0,0,0,0,0,0,0,0,-1,1021,806,0,0
-196,218,0,0,0,0,0,0,0,0,0,-1,1028,806,0,0
-189,218,0,0,0,0,0,0,0,0,0,-1,1035,806,0,0
-182,218,0,0,0,0,0,0,0,0,0,-1,1042,806,0,0
-175,218,0,0,0,0,0,0,0,0,0,-1,1049,806,0,0
-168,218,0,0,0,0,0,0,0,0,0,-1,1056,806,0,0
-161,218,0,0,0,0,0,0,0,0,0,-1,1063,806,0,0
-154,218,0,0,0,0,0,0,0,0,0,-1,1070,806,0,0
-147,218,0,0,0,0,0,0,0,0,0,-1,1077,806,0,0
-140,218,0,0,0,0,0,0,0,0,0,-1,1084,806,0,0
-133,218,0,0,0,0,0,0,0,0,0,-1,1091,806,0,0
-126,218,0,0,0,0,0,0,0,0,0,-1,1098,806,0,0
-119,218,0,0,0,0,0,0,0,0,0,-1,1105,806,0,0
-112,218,0,0,0,0,0,0,0,0,0,-1,1112,806,0,0
-105,218,0,0,0,0,0,0,0,0,0,-1,1119,806,0,0
-98,218,0,0,0,0,0,0,0,0,0,-1,1126,806,0,0
-91,218,0,0,0,0,0,0,0,0,0,-1,1133,806,0,0
-84,218,0,0,0,0,0,0,0,0,0,-1,1140,806,0,0
-77,218,0,0,0,0,0,0,0,0,0,-1,1147,806,0,0
-70,218,0,0,0,0,0,0,0,0,0,-1,1154,806,0,0
-63,218,0,0,0,0,0,0,0,0,0,-1,1161,806,0,0
-56,218,0,0,0,0,0,0,0,0,0,-1,1168,806,0,0
-49,218,0,0,0,0,0,0,0,0,0,-1,1175,806,0,0
-42,218,0,0,0,0,0,0,0,0,0,-1,1182,806,0,0
-35,218,0,0,0,0,0,0,0,0,0,-1,1189,806,0,0
-28,218,0,0,0,0,0,0,0,0,0,-1,1196,806,0,0
-21,218,0,0,0,0,0,0,0,0,0,-1,1203,806,0,0
-14,218,0,0,0,0,0,0,0,0,0,-1,1210,806,0,0
-7,218,0,0,0,0,0,0,0,0,0,-1,1217,806,0,0
0,218,0,0,0,0,0,0,0,0,0,-1,1224,806,0,0
7,218,0,0,0,0,0,0,0,0,0,-1,1231,806,0,0
14,218,0,0,0,0,0,0,0,0,0,-1,1238,806,0,0
21,218,0,0,0,0,0,0,0,0,0,-1,1245,806,0,0
28,218,0,0,0,0,0,0,0,0,0,-1,1252,806,0,0
35,218,0,0,0,0,0,0,0,0,0,-1,1259,806,0,0
42,218,0,0,0,0,0,0,0,0,0,-1,1266,806,0,0
49,218,0,0,0,0,0,0,0,0,0,-1,1273,806,0,0
56,218,0,0,0,0,0,0,0,0,0,-1,1280,806,0,0
63,218,0,0,0,0,0,0,0,0,0,-1,1287,806,0,0
70,218,0,0,0,0,0,0,0,0,0,-1,1294,806,0,0
77,218,0,0,0,0,0,0,0,0,0,-1,1301,806,0,0
84,218,0,0,0,0,0,0,0,0,0,-1,1308,806,0,0
91,218,0,0,0,0,0,0,0,0,0,-1,1315,806,0,0
98,218,0,0,0,0,0,0,0,0,0,-1,1322,806,0,0
105,218,0,0,0,0,0,0,0,0,0,-1,1329,806,0,0
112,218,0,0,0,0,0,0,0,0,0,-1,1336,806,0,0
119,218,0,0,0,0,0,0,0,0,0,-1,1343,806,0,0
126,218,0,0,0,0,0,0,0,0,0,-1,1350,806,0,0
133,218,0,0,0,0,0,0,0,0,0,-1,1357,806,0,0
140,218,0,0,0,0,0,0,0,0,0,-1,1364,806,0,0
147,218,0,0,0,0,0,0,0,0,0,-1,1371,806,0,0
154,218,0,0,0,0,0,0,0,0,0,-1,1378,806,0,0
161,218,0,0,0,0,0,0,0,0,0,-1,1385,806,0,0
168,218,0,0,0,0,0,0,0,0,0,-1,1392,806,0,0
175,218,0,0,0,0,0,0,0,0,0,-1,1399,806,0,0
182,218,0,0,0,0,0,0,0,0,0,-1,1406,806,0,0
189,218,0,0,0,0,0,0,0,0,0,-1,1413,806,0,0
196,218,0,0,0,0,0,0,0,0,0,-1,1420,806,0,0
203,218,0,0,0,0,0,0,0,0,0,-1,1427,806,0,0
210,218,0,0,0,0,0,0,0,0,0,-1,1434,806,0,0
217,218,0,0,0,0,0,0,0,0,0,-1,1441,806,0,0
224,218,0,0,0,0,0,0,0,0,0,-1,1448,806,0,0
231,218,0,0,0,0,0,0,0,0,0,-1,1455,806,0,0
238,218,0,0,0,0,0,0,0,0,0,-1,1462,806,0,0
245,218,0,0,0,0,0,0,0,0,0,-1,1469,806,0,0
252,218,0,0,0,0,0,0,0,0,0,-1,1476,806,0,0
259,218,0,0,0,0,0,0,0,0,0,-1,1483,806,0,0
266,218,0,0,0,0,0,0,0,0,0,-1,1490,806,0,0
273,218,0,0,0,0,0,0,0,0,0,-1,1497,806,0,0
280,218,0,0,0,0,0,0,0,0,0,-1,1504,806,0,0
287,218,0,0,0,0,0,0,0,0,0,-1,1511,806,0,0
294,218,0,0,0,0,0,0,0,0,0,-1,1518,806,0,0
301,218,0,0,0,0,0,0,0,0,0,-1,1525,806,0,0
308,218,0,0,0,0,0,0,0,0,0,-1,1532,806,0,0
315,218,0,0,0,0,0,0,0,0,0,-1,1539,806,0,0
322,218,0,0,0,0,0,0,0,0,0,-1,1546,806,0,0
329,218,0,0,0,0,0,0,0,0,0,-1,1553,806,0,0
336,218,0,0,0,0,0,0,0,0,0,-1,1560,806,0,0
343,218,0,0,0,0,0,0,0,0,0,-1,1567,806,0,0
350,218,0,0,0,0,0,0,0,0,0,-1,1574,806,0,0
357,218,0,0,0,0,0,0,0,0,0,-1,1581,806,0,0
364,218,0,0,0,0,0,0,0,0,0,-1,1588,806,0,0
371,218,0,0,0,0,0,0,0,0,0,-1,1595,806,0,0
378,218,0,0,0,0,0,0,0,0,0,-1,1602,806,0,0
385,218,0,0,0,0,0,0,0,0,0,-1,1609,806,0,0
392,218,0,0,0,0,0,0,0,0,0,-1,1616,806,0,0
399,218,0,0,0,0,0,0,0,0,0,-1,1623,806,0,0
406,218,0,0,0,0,0,0,0,0,0,-1,1630,806,0,0
413,218,0,0,0,0,0,0,0,0,0,-1,1637,806,0,0
420,218,0,0,0,0,0,0,0,0,0,-1,1644,806,0,0
427,218,0,0,0,0,0,0,0,0,0,-1,1651,806,0,0
434,218,0,0,0,0,0,0,0,0,0,-1,1658,806,0,0
441,218,0,0,0,0,0,0,0,0,0,-1,1665,806,0,0
448,218,0,0,0,0,0,0,0,0,0,-1,1672,806,0,0
455,218,0,0,0,0,0,0,0,0,0,-1,1679,806,0,0
462,218,0,0,0,0,0,0,0,0,0,-1,1686,806,0,0
469,218,0,0,0,0,0,0,0,0,0,-1,1693,806,0,0
476,218,0,0,0,0,0,0,0,0,0,-1,1700,806,0,0
483,218,0,0,0,0,0,0,0,0,0,-1,1707,806,0,0
490,218,0,0,0,0,0,0,0,0,0,-1,1714,806,0,0
497,218,0,0,0,0,0,0,0,0,0,-1,1721,806,0,0
504,218,0,0,0,0,0,0,0,0,0,-1,1728,806,0,0
511,218,0,0,0,0,0,0,0,0,0,-1,1735,806,0,0
518,218,0,0,0,0,0,0,0,0,0,-1,1742,806,0,0
525,218,0,0,0,0,0,0,0,0,0,-1,1749,806,0,0
532,218,0,0,0,0,0,0,0,0,0,-1,1756,806,0,0
539,218,0,0,0,0,0,0,0,0,0,-1,1763,806,0,0
546,218,0,0,0,0,0,0,0,0,0,-1,1770,806,0,0
553,218,0,0,0,0,0,0,0,0,0,-1,1777,806,0,0
560,218,0,0,0,0,0,0,0,0,0,-1,1784,806,0,0
567,218,0,0,0,0,0,0,0,0,0,-1,1791,806,0,0
574,218,0,0,0,0,0,0,0,0,0,-1,1798,806,0,0
581,218,0,0,0,0,0,0,0,0,0,-1,1805,806,0,0
588,218,0,0,0,0,0,0,0,0,0,-1,1812,806,0,0
595,218,15.3463,2.33301,0.00455492,0.000768257,0.00318043,0.00636292,-0.00103974,0.516917,0.00462763,0.0358225,1819,806,15.3463,-2.333
602,218,15.2667,2.27789,0.00530629,0.000524108,0.00143976,0.0057063,0.0001241,0.270995,0.00376351,0.0315481,1826,806,15.2667,-2.27789
609,218,15.1844,2.40033,0.00459929,-0.000195419,0.000214817,0.00460889,-0.000205024,0.0446835,0.00314316,0.0285778,1833,806,15.1845,-2.40035
616,218,15.2222,2.43542,0.00335399,-0.00074875,-0.000512624,0.00341707,-0.000811831,-0.122439,0.0025914,0.0316813,1840,806,15.2222,-2.43545
623,218,15.2573,2.38116,0.00187214,-0.00120108,-0.000935894,0.00213472,-0.00146366,-0.273528,0.00208953,0.0356818,1847,806,15.2573,-2.38119
630,218,15.1858,2.50482,0.000500764,-0.00161728,-0.00114479,0.00100125,-0.00211776,-0.412148,0.00183882,0.0381398,1854,806,15.1858,-2.50482
637,218,13.1044,2.51086,0,0,0,0,0,0,0,-1,1861,806,13.1043,-2.51085
644,218,11.2462,1.7912,0,0,0,0,0,0,0,-1,1868,806,11.2462,-1.79118
651,218,11.2579,2.18744,0,0,0,0,0,0,0,-1,1875,806,11.258,-2.18744
658,218,11.9467,1.50177,-0.00265341,-0.00190756,-0.000939796,-0.0012694,-0.00329157,-0.974277,0.00191688,0.0412046,1882,806,11.9466,-1.50179
665,218,11.8679,1.5777,-0.00277932,-0.00174945,-0.000914749,-0.00121466,-0.00331411,-1.04175,0.001936,0.0272073,1889,806,11.8679,-1.57772
672,218,11.8116,1.70831,-0.00314428,-0.00179498,-0.000636588,-0.00154205,-0.0033972,-1.19261,0.00196415,0.0117641,1896,806,11.8117,-1.70832
679,218,11.8182,1.89502,-0.00294424,-0.00165237,-0.000418844,-0.00152846,-0.00306815,-1.28316,0.0017714,0.0111917,1903,806,11.8182,-1.895
686,218,11.8411,2.05219,-0.00159359,-0.00125166,-4.69465e-05,-0.00124533,-0.00159992,-1.4368,0.000970258,0.0106862,1910,806,11.8411,-2.05217
693,218,11.8284,2.21094,3.74827e-05,-0.000895802,0.000295943,0.000123414,-0.000981733,0.282593,0.000699267,0.0109467,1917,806,11.8284,-2.21094
700,218,11.7961,2.36102,0.0020928,-0.0010061,0.000407625,0.00214552,-0.00105882,0.128624,0.00188516,0.00923258,1924,806,11.7961,-2.36102
707,218,11.7891,2.50702,0.00402015,-0.00088887,0.000643536,0.00410311,-0.000971831,0.128207,0.00311038,0.00745796,1931,806,11.7891,-2.50704
714,218,11.8187,2.65289,0.00634526,-0.00152573,0.000991059,0.00646813,-0.00164859,0.123348,0.00495392,0.00975475,1938,806,11.8187,-2.65289
721,218,11.8412,2.78931,0.00928398,-0.00229317,0.00135994,0.00944158,-0.00245078,0.115375,0.00725072,0.0119161,1945,806,11.8411,-2.78932
728,218,11.8425,2.93054,0.0126772,-0.00367988,0.00150924,0.0128153,-0.00381797,0.0912418,0.0100606,0.0169384,1952,806,11.8426,-2.93057
735,218,11.8599,3.08173,0.016512,-0.00600078,0.00117636,0.0165733,-0.00606208,0.0520642,0.0135301,0.0315475,1959,806,11.8599,-3.08174
742,218,12.176,3.12415,0.0207957,-0.00960599,0.000173559,0.0207967,-0.00960699,0.00570861,0.0179455,0.0451324,1966,806,12.1761,-3.12416
749,218,12.4618,3.21698,0.0253553,-0.0150306,-0.00192593,0.0254469,-0.0151223,-0.0475444,0.0236741,0.0489493,1973,806,12.4618,-3.21698
756,218,13.0262,3.81836,0,0,0,0,0,0,0,-1,1980,806,13.0263,-3.81833
763,218,11.9232,3.92407,0,0,0,0,0,0,0,-1,1987,806,11.9233,-3.92409
770,218,0,0,0,0,0,0,0,0,0,-1,1994,806,0,0
777,218,0,0,0,0,0,0,0,0,0,-1,2001,806,0,0
784,218,0,0,0,0,0,0,0,0,0,-1,2008,806,0,0
791,218,0,0,0,0,0,0,0,0,0,-1,2015,806,0,0
798,218,0,0,0,0,0,0,0,0,0,-1,2022,806,0,0
805,218,0,0,0,0,0,0,0,0,0,-1,2029,806,0,0
812,218,0,0,0,0,0,0,0,0,0,-1,2036,806,0,0
-700,211,0,0,0,0,0,0,0,0,0,-1,524,813,0,0
-693,211,0,0,0,0,0,0,0,0,0,-1,531,813,0,0
-686,211,0,0,0,0,0,0,0,0,0,-1,538,813,0,0
-679,211,0,0,0,0,0,0,0,0,0,-1,545,813,0,0
-672,211,0,0,0,0,0,0,0,0,0,-1,552,813,0,0
-665,211,0,0,0,0,0,0,0,0,0,-1,559,813,0,0
-658,211,0,0,0,0,0,0,0,0,0,-1,566,813,0,0
-651,211,-8.99481,-2.19257,0.00421027,0.0350908,0.0290998,0.0525929,-0.0132918,1.02931,0.0402312,0.0455729,573,813,-8.99482,2.19254
-644,211,-9.08929,-1.56348,0.0129812,0.031938,0.0308716,0.0547535,-0.00983429,0.934343,0.0401836,0.047219,580,813,-9.08932,1.5635
-637,211,-9.15155,-1.01355,0.0177391,0.0286734,0.0302292,0.0539259,-0.00751337,0.87486,0.0386989,0.0456702,587,813,-9.15154,1.01353
-630,211,-9.15222,0.0411377,0.0197668,0.0253472,0.0281307,0.0508258,-0.00571177,0.83483,0.0359394,0.0443991,594,813,-9.15221,-0.0411367
-623,211,-9.61145,0.300537,0.0198498,0.022016,0.0251928,0.046149,-0.00428313,0.806881,0.0322885,0.0469221,601,813,-9.61142,-0.300556
-616,211,-9.72955,0.333252,0,0,0,0,0,0,0,-1,608,813,-9.72953,-0.333273
-609,211,-9.83234,0.372314,0,0,0,0,0,0,0,-1,615,813,-9.83233,-0.372286
-602,211,-6.8349,1.00049,0.0135945,0.0125453,0.0148808,0.02796,-0.00182019,0.767779,0.0192754,0.0191007,622,813,-6.83491,-1.00046
-595,211,-6.88635,0.907104,0.0107675,0.00921094,0.0116705,0.0216857,-0.00170722,0.752103,0.0150585,0.0098078,629,813,-6.88635,-0.907099
-588,211,-6.8775,0.797363,0.008461,0.00680711,0.00901036,0.0166823,-0.00141417,0.739638,0.0116216,0.0102513,636,813,-6.87753,-0.797383
-581,211,-6.88171,0.667358,0.0054443,0.00501234,0.00706687,0.0122985,-0.00184185,0.770122,0.00887687,0.011154,643,813,-6.88173,-0.667353
-574,211,-6.901,0.521423,0.00167933,0.00300305,0.00548391,0.0078649,-0.00318252,0.845453,0.00656642,0.0123175,650,813,-6.90099,-0.521403
-567,211,-6.909,0.398499,-0.00245009,-0.000271581,0.00403254,0.00281623,-0.0055379,0.917308,0.00490784,0.0192221,657,813,-6.909,-0.398525
-560,211,-6.9295,0.276245,-0.00561166,-0.00223408,0.00392669,0.000351579,-0.00819732,0.988481,0.00558576,0.0222353,664,813,-6.92951,-0.276255
-553,211,-6.91449,0.131104,-0.00773279,-0.00358705,0.00430674,-0.000880297,-0.0104395,1.00969,0.00668561,0.017182,671,813,-6.91451,-0.131081
-546,211,-6.91772,0.0152588,-0.00932991,-0.00485884,0.00472743,-0.00186502,-0.0123237,1.00626,0.00767011,0.0189834,678,813,-6.91772,-0.0152757
-539,211,-6.92096,-0.140259,-0.00985005,-0.00558901,0.00474442,-0.0025187,-0.0129204,0.996434,0.00790885,0.0138864,685,813,-6.92098,0.140269
-532,211,-7.03009,-0.201477,-0.00971413,-0.00604186,0.00458814,-0.00293609,-0.0128199,0.975734,0.00775543,0.0402499,692,813,-7.0301,0.201507
-525,211,-7.5188,-0.0818481,-0.00926317,-0.00602816,0.0042665,-0.00308284,-0.0122085,0.966586,0.00733073,0.0484535,699,813,-7.5188,0.08187
-518,211,-8.27539,-0.487427,-0.00839591,-0.00577428,0.00362195,-0.00323324,-0.010937,0.95902,0.0064879,0.0451323,706,813,-8.27541,0.487429
-511,211,-9.07141,-0.606628,0,0,0,0,0,0,0,-1,713,813,-9.07139,0.6066
-504,211,-9.26935,0.948242,-0.00423014,-0.0040436,0.00136343,-0.00277025,-0.00550349,0.819549,0.00317747,0.0432833,720,813,-9.26933,-0.948222
-497,211,-9.55957,0.602722,-0.000758523,-0.00238395,-0.000290631,-0.00070812,-0.00243435,-0.171717,0.00144587,0.0443263,727,813,-9.55959,-0.602715
-490,211,-9.54956,0.621887,0.00374546,-0.000196303,-0.00228276,0.00479043,-0.00124128,-0.429294,0.00367788,0.0346234,734,813,-9.54954,-0.621907
-483,211,-9.42786,0.748291,0.00899158,0.00237499,-0.0043645,0.0111599,0.000206633,-0.461097,0.00737204,0.0323348,741,813,-9.42785,-0.748268
-476,211,-9.40027,0.785156,0.0140776,0.00478303,-0.00584776,0.0168998,0.0019608,-0.449644,0.0106732,0.0372409,748,813,-9.40025,-0.785176
-469,211,0,0,0,0,0,0,0,0,0,-1,755,813,0,0
-462,211,0,0,0,0,0,0,0,0,0,-1,762,813,0,0
-455,211,0,0,0,0,0,0,0,0,0,-1,769,813,0,0
-448,211,0,0,0,0,0,0,0,0,0,-1,776,813,0,0
-441,211,0,0,0,0,0,0,0,0,0,-1,783,813,0,0
-434,211,0,0,0,0,0,0,0,0,0,-1,790,813,0,0
-427,211,0,0,0,0,0,0,0,0,0,-1,797,813,0,0
-420,211,0,0,0,0,0,0,0,0,0,-1,804,813,0,0
-413,211,0,0,0,0,0,0,0,0,0,-1,811,813,0,0
-406,211,0,0,0,0,0,0,0,0,0,-1,818,813,0,0
-399,211,0,0,0,0,0,0,0,0,0,-1,825,813,0,0
-392,211,0,0,0,0,0,0,0,0,0,-1,832,813,0,0
-385,211,0,0,0,0,0,0,0,0,0,-1,839,813,0,0
-378,211,0,0,0,0,0,0,0,0,0,-1,846,813,0,0
-371,211,0,0,0,0,0,0,0,0,0,-1,853,813,0,0
-364,211,0,0,0,0,0,0,0,0,0,-1,860,813,0,0
-357,211,0,0,0,0,0,0,0,0,0,-1,867,813,0,0
-350,211,0,0,0,0,0,0,0,0,0,-1,874,813,0,0
-343,211,0,0,0,0,0,0,0,0,0,-1,881,813,0,0
-336,211,0,0,0,0,0,0,0,0,0,-1,888,813,0,0
-329,211,0,0,0,0,0,0,0,0,0,-1,895,813,0,0
-322,211,0,0,0,0,0,0,0,0,0,-1,902,813,0,0
-315,211,0,0,0,0,0,0,0,0,0,-1,909,813,0,0
-308,211,0,0,0,0,0,0,0,0,0,-1,916,813,0,0
-301,211,0,0,0,0,0,0,0,0,0,-1,923,813,0,0
-294,211,0,0,0,0,0,0,0,0,0,-1,930,813,0,0
-287,211,0,0,0,0,0,0,0,0,0,-1,937,813,0,0
-280,211,0,0,0,0,0,0,0,0,0,-1,944,813,0,0
-273,211,0,0,0,0,0,0,0,0,0,-1,951,813,0,0
-266,211,0,0,0,0,0,0,0,0,0,-1,958,813,0,0
-259,211,0,0,0,0,0,0,0,0,0,-1,965,813,0,0
-252,211,0,0,0,0,0,0,0,0,0,-1,972,813,0,0
-245,211,0,0,0,0,0,0,0,0,0,-1,979,813,0,0
-238,211,0,0,0,0,0,0,0,0,0,-1,986,813,0,0
-231,211,0,0,0,0,0,0,0,0,0,-1,993,813,0,0
-224,211,0,0,0,0,0,0,0,0,0,-1,1000,813,0,0
-217,211,0,0,0,0,0,0,0,0,0,-1,1007,813,0,0
-210,211,0,0,0,0,0,0,0,0,0,-1,1014,813,0,0
-203,211,0,0,0,0,0,0,0,0,0,-1,1021,813,0,0
-196,211,0,0,0,0,0,0,0,0,0,-1,1028,813,0,0
-189,211,0,0,0,0,0,0,0,0,0,-1,1035,813,0,0
-182,211,0,0,0,0,0,0,0,0,0,-1,1042,813,0,0
-175,211,0,0,0,0,0,0,0,0,0,-1,1049,813,0,0
-168,211,0,0,0,0,0,0,0,0,0,-1,1056,813,0,0
-161,211,0,0,0,0,0,0,0,0,0,-1,1063,813,0,0
-154,211,0,0,0,0,0,0,0,0,0,-1,1070,813,0,0
-147,211,0,0,0,0,0,0,0,0,0,-1,1077,813,0,0
-140,211,0,0,0,0,0,0,0,0,0,-1,1084,813,0,0
-133,211,0,0,0,0,0,0,0,0,0,-1,1091,813,0,0
-126,211,0,0,0,0,0,0,0,0,0,-1,1098,813,0,0
-119,211,0,0,0,0,0,0,0,0,0,-1,1105,813,0,0
-112,211,0,0,0,0,0,0,0,0,0,-1,1112,813,0,0
-105,211,0,0,0,0,0,0,0,0,0,-1,1119,813,0,0
-98,211,0,0,0,0,0,0,0,0,0,-1,1126,813,0,0
-91,211,0,0,0,0,0,0,0,0,0,-1,1133,813,0,0
-84,211,0,0,0,0,0,0,0,0,0,-1,1140,813,0,0
-77,211,0,0,0,0,0,0,0,0,0,-1,1147,813,0,0
-70,211,0,0,0,0,0,0,0,0,0,-1,1154,813,0,0
-63,211,0,0,0,0,0,0,0,0,0,-1,1161,813,0,0
-56,211,0,0,0,0,0,0,0,0,0,-1,1168,813,0,0
-49,211,0,0,0,0,0,0,0,0,0,-1,1175,813,0,0
-42,211,0,0,0,0,0,0,0,0,0,-1,1182,813,0,0
-35,211,0,0,0,0,0,0,0,0,0,-1,1189,813,0,0
-28,211,0,0,0,0,0,0,0,0,0,-1,1196,813,0,0
-21,211,0,0,0,0,0,0,0,0,0,-1,1203,813,0,0
-14,211,0,0,0,0,0,0,0,0,0,-1,1210,813,0,0
-7,211,0,0,0,0,0,0,0,0,0,-1,1217,813,0,0
0,211,0,0,0,0,0,0,0,0,0,-1,1224,813,0,0
7,211,0,0,0,0,0,0,0,0,0,-1,1231,813,0,0
14,211,0,0,0,0,0,0,0,0,0,-1,1238,813,0,0
21,211,0,0,0,0,0,0,0,0,0,-1,1245,813,0,0
28,211,0,0,0,0,0,0,0,0,0,-1,1252,813,0,0
35,211,0,0,0,0,0,0,0,0,0,-1,1259,813,0,0
42,211,0,0,0,0,0,0,0,0,0,-1,1266,813,0,0
49,211,0,0,0,0,0,0,0,0,0,-1,1273,813,0,0
56,211,0,0,0,0,0,0,0,0,0,-1,1280,813,0,0
63,211,0,0,0,0,0,0,0,0,0,-1,1287,813,0,0
70,211,0,0,0,0,0,0,0,0,0,-1,1294,813,0,0
77,211,0,0,0,0,0,0,0,0,0,-1,1301,813,0,0
84,211,0,0,0,0,0,0,0,0,0,-1,1308,813,0,0
91,211,0,0,0,0,0,0,0,0,0,-1,1315,813,0,0
98,211,0,0,0,0,0,0,0,0,0,-1,1322,813,0,0
105,211,0,0,0,0,0,0,0,0,0,-1,1329,813,0,0
112,211,0,0,0,0,0,0,0,0,0,-1,1336,813,0,0
119,211,0,0,0,0,0,0,0,0,0,-1,1343,813,0,0
126,211,0,0,0,0,0,0,0,0,0,-1,1350,813,0,0
133,211,0,0,0,0,0,0,0,0,0,-1,1357,813,0,0
140,211,0,0,0,0,0,0,0,0,0,-1,1364,813,0,0
147,211,0,0,0,0,0,0,0,0,0,-1,1371,813,0,0
154,211,0,0,0,0,0,0,0,0,0,-1,1378,813,0,0
161,211,0,0,0,0,0,0,0,0,0,-1,1385,813,0,0
168,211,0,0,0,0,0,0,0,0,0,-1,1392,813,0,0
175,211,0,0,0,0,0,0,0,0,0,-1,1399,813,0,0
182,211,0,0,0,0,0,0,0,0,0,-1,1406,813,0,0
189,211,0,0,0,0,0,0,0,0,0,-1,1413,813,0,0
196,211,0,0,0,0,0,0,0,0,0,-1,1420,813,0,0
203,211,0,0,0,0,0,0,0,0,0,-1,1427,813,0,0
210,211,0,0,0,0,0,0,0,0,0,-1,1434,813,0,0
217,211,0,0,0,0,0,0,0,0,0,-1,1441,813,0,0
224,211,0,0,0,0,0,0,0,0,0,-1,1448,813,0,0
231,211,0,0,0,0,0,0,0,0,0,-1,1455,813,0,0
238,211,0,0,0,0,0,0,0,0,0,-1,1462,813,0,0
245,211,0,0,0,0,0,0,0,0,0,-1,1469,813,0,0
252,211,0,0,0,0,0,0,0,0,0,-1,1476,813,0,0
259,211,0,0,0,0,0,0,0,0,0,-1,1483,813,0,0
266,211,0,0,0,0,0,0,0,0,0,-1,1490,813,0,0
273,211,0,0,0,0,0,0,0,0,0,-1,1497,813,0,0
280,211,0,0,0,0,0,0,0,0,0,-1,1504,813,0,0
287,211,0,0,0,0,0,0,0,0,0,-1,1511,813,0,0
294,211,0,0,0,0,0,0,0,0,0,-1,1518,813,0,0
301,211,0,0,0,0,0,0,0,0,0,-1,1525,813,0,0
308,211,0,0,0,0,0,0,0,0,0,-1,1532,813,0,0
315,211,0,0,0,0,0,0,0,0,0,-1,1539,813,0,0
322,211,0,0,0,0,0,0,0,0,0,-1,1546,813,0,0
329,211,0,0,0,0,0,0,0,0,0,-1,1553,813,0,0
336,211,0,0,0,0,0,0,0,0,0,-1,1560,813,0,0
343,211,0,0,0,0,0,0,0,0,0,-1,1567,813,0,0
350,211,0,0,0,0,0,0,0,0,0,-1,1574,813,0,0
357,211,0,0,0,0,0,0,0,0,0,-1,1581,813,0,0
364,211,0,0,0,0,0,0,0,0,0,-1,1588,813,0,0
371,211,0,0,0,0,0,0,0,0,0,-1,1595,813,0,0
378,211,0,0,0,0,0,0,0,0,0,-1,1602,813,0,0
385,211,0,0,0,0,0,0,0,0,0,-1,1609,813,0,0
392,211,0,0,0,0,0,0,0,0,0,-1,1616,813,0,0
399,211,0,0,0,0,0,0,0,0,0,-1,1623,813,0,0
406,211,0,0,0,0,0,0,0,0,0,-1,1630,813,0,0
413,211,0,0,0,0,0,0,0,0,0,-1,1637,813,0,0
420,211,0,0,0,0,0,0,0,0,0,-1,1644,813,0,0
427,211,0,0,0,0,0,0,0,0,0,-1,1651,813,0,0
434,211,0,0,0,0,0,0,0,0,0,-1,1658,813,0,0
441,211,0,0,0,0,0,0,0,0,0,-1,1665,813,0,0
448,211,0,0,0,0,0,0,0,0,0,-1,1672,813,0,0
455,211,0,0,0,0,0,0,0,0,0,-1,1679,813,0,0
462,211,0,0,0,0,0,0,0,0,0,-1,1686,813,0,0
469,211,0,0,0,0,0,0,0,0,0,-1,1693,813,0,0
476,211,0,0,0,0,0,0,0,0,0,-1,1700,813,0,0
483,211,0,0,0,0,0,0,0,0,0,-1,1707,813,0,0
490,211,0,0,0,0,0,0,0,0,0,-1,1714,813,0,0
497,211,0,0,0,0,0,0,0,0,0,-1,1721,813,0,0
504,211,0,0,0,0,0,0,0,0,0,-1,1728,813,0,0
511,211,0,0,0,0,0,0,0,0,0,-1,1735,813,0,0
518,211,0,0,0,0,0,0,0,0,0,-1,1742,813,0,0
525,211,0,0,0,0,0,0,0,0,0,-1,1749,813,0,0
532,211,0,0,0,0,0,0,0,0,0,-1,1756,813,0,0
539,211,0,0,0,0,0,0,0,0,0,-1,1763,813,0,0
546,211,0,0,0,0,0,0,0,0,0,-1,1770,813,0,0
553,211,0,0,0,0,0,0,0,0,0,-1,1777,813,0,0
560,211,0,0,0,0,0,0,0,0,0,-1,1784,813,0,0
567,211,0,0,0,0,0,0,0,0,0,-1,1791,813,0,0
574,211,0,0,0,0,0,0,0,0,0,-1,1798,813,0,0
581,211,0,0,0,0,0,0,0,0,0,-1,1805,813,0,0
588,211,0,0,0,0,0,0,0,0,0,-1,1812,813,0,0
595,211,15.4443,2.27551,0.00230366,-0.00146904,0.00369996,0.00457038,-0.00373576,0.549657,0.00480362,0.0362112,1819,813,15.4444,-2.27554
602,211,15.2429,2.18396,0.0035163,-0.00024871,0.00231058,0.00461417,-0.00134657,0.443568,0.00360969,0.0358128,1826,813,15.2429,-2.18395
609,211,15.1852,2.29187,0.00318418,-0.000205589,0.00130324,0.00362731,-0.000648712,0.327752,0.00266093,0.0361279,1833,813,15.1851,-2.29188
616,211,15.2615,2.41852,0.00233898,-0.000250594,0.000721028,0.0025262,-0.000437818,0.254052,0.00184745,0.0308327,1840,813,15.2615,-2.41849
623,211,15.2489,2.4126,0.00114646,-0.000450349,0.00035908,0.00122349,-0.00052738,0.211322,0.00103716,0.0306869,1847,813,15.2489,-2.41257
630,211,15.1958,2.48297,-0.00014437,-0.000748902,6.70392e-05,-0.000137025,-0.000756247,0.109128,0.000465265,0.0344415,1854,813,15.1958,-2.48298
637,211,15.17,2.5589,-0.00131437,-0.000974962,-5.50951e-05,-0.000966242,-0.00132309,-1.41384,0.000790431,0.0414991,1861,813,15.17,-2.55893
644,211,15.12,2.65149,-0.00230629,-0.00115221,-0.000106443,-0.00114248,-0.00231603,-1.47959,0.0013372,0.0431646,1868,813,15.1201,-2.65151
651,211,15.0782,2.76892,0,0,0,0,0,0,0,-1,1875,813,15.0783,-2.7689
658,211,11.6814,1.453,-0.0031243,-0.00137116,-0.000380062,-0.00129232,-0.00320315,-1.36624,0.00186079,0.045736,1882,813,11.6814,-1.45301
665,211,11.8601,1.66809,-0.00335904,-0.00132492,-0.000561878,-0.00118003,-0.00350392,-1.31843,0.00205861,0.0453164,1889,813,11.8601,-1.66812
672,211,11.9508,1.73724,-0.00378438,-0.00142827,-0.000471425,-0.00133745,-0.0038752,-1.38047,0.00227284,0.0172908,1896,813,11.9508,-1.73723
679,211,11.9716,1.89307,-0.00370085,-0.00144843,-0.000465753,-0.00135593,-0.00379336,-1.37473,0.00221957,0.0120425,1903,813,11.9716,-1.89304
686,211,11.9915,2.05859,-0.00263543,-0.00120109,-0.000359573,-0.001116,-0.00272052,-1.33842,0.00157911,0.0107023,1910,813,11.9915,-2.05862
693,211,11.9935,2.19244,-0.00118083,-0.000917589,-0.000198326,-0.000811182,-0.00128724,-1.07836,0.000751535,0.0110653,1917,813,11.9935,-2.19246
700,211,11.9456,2.31409,0.000754309,-0.0010423,-0.000193622,0.000774939,-0.00106293,-0.106147,0.00106542,0.0128759,1924,813,11.9455,-2.31406
707,211,11.9611,2.49121,0.00259225,-0.000856638,-7.44924e-05,0.00259386,-0.000858246,-0.0215855,0.00207534,0.0193267,1931,813,11.9611,-2.49119
714,211,11.9894,2.67114,0.00476685,-0.00139639,0.000175616,0.00477185,-0.00140139,0.0284634,0.003737,0.020868,1938,813,11.9894,-2.67113
721,211,11.9796,2.78241,0.00750457,-0.00196556,0.000461001,0.00752696,-0.00198795,0.0485266,0.00579541,0.0149395,1945,813,11.9796,-2.78239
728,211,11.9812,2.9126,0.0106353,-0.00301891,0.000540741,0.0106567,-0.00304029,0.0395199,0.00830551,0.0136017,1952,813,11.9812,-2.91258
735,211,11.9729,3.04034,0.0140818,-0.00486786,0.000178504,0.0140834,-0.00486954,0.00941879,0.0113654,0.0226518,1959,813,11.9729,-3.04036
742,211,11.9738,3.15448,0.0179057,-0.00774476,-0.000713029,0.0179255,-0.00776456,-0.0277693,0.015214,0.0452199,1966,813,11.9738,-3.15446
749,211,11.9561,3.26221,0,0,0,0,0,0,0,-1,1973,813,11.9561,-3.26221
756,211,12.092,1.96857,0,0,0,0,0,0,0,-1,1980,813,12.0921,-1.96855
763,211,12.4448,1.33527,0,0,0,0,0,0,0,-1,1987,813,12.4448,-1.33524
770,211,12.9354,0.535889,0,0,0,0,0,0,0,-1,1994,813,12.9354,-0.535909
777,211,0,0,0,0,0,0,0,0,0,-1,2001,813,0,0
784,211,0,0,0,0,0,0,0,0,0,-1,2008,813,0,0
791,211,0,0,0,0,0,0,0,0,0,-1,2015,813,0,0
798,211,0,0,0,0,0,0,0,0,0,-1,2022,813,0,0
805,211,0,0,0,0,0,0,0,0,0,-1,2029,813,0,0
812,211,0,0,0,0,0,0,0,0,0,-1,2036,813,0,0
-700,204,0,0,0,0,0,0,0,0,0,-1,524,820,0,0
-693,204,0,0,0,0,0,0,0,0,0,-1,531,820,0,0
-686,204,0,0,0,0,0,0,0,0,0,-1,538,820,0,0
-679,204,0,0,0,0,0,0,0,0,0,-1,545,820,0,0
-672,204,0,0,0,0,0,0,0,0,0,-1,552,820,0,0
-665,204,0,0,0,0,0,0,0,0,0,-1,559,820,0,0
-658,204,0,0,0,0,0,0,0,0,0,-1,566,820,0,0
-651,204,-8.88037,-2.63092,0.0129074,0.0288563,0.0242582,0.0464171,-0.00465341,0.9442,0.0326068,0.0428994,573,820,-8.88036,2.6309
-644,204,-8.76056,-1.73425,0.0159012,0.0259985,0.027289,0.0487019,-0.00680222,0.876867,0.0349567,0.0453805,580,820,-8.76056,1.73426
-637,204,-8.76434,-1.05127,0.0174548,0.0230537,0.0274292,0.047826,-0.00731745,0.836252,0.0345822,0.0472057,587,820,-8.76436,1.05129
-630,204,-8.87585,-0.432434,0.0177837,0.0201352,0.0258662,0.0448524,-0.00693345,0.80811,0.0324605,0.0446954,594,820,-8.87588,0.432426
-623,204,-9.18121,0.11322,0.0170739,0.0172878,0.023315,0.0404961,-0.00613438,0.787692,0.0292573,0.0397314,601,820,-9.18121,-0.113208
-616,204,-9.50067,0.395081,0,0,0,0,0,0,0,-1,608,820,-9.50069,-0.39508
-609,204,-7.00635,0.931152,0.0133443,0.012043,0.0170736,0.0297796,-0.00439235,0.766354,0.0214675,0.0350079,615,820,-7.00637,-0.931133
-602,204,-7.00403,1.03204,0.0108867,0.0096191,0.0138881,0.0241555,-0.00364964,0.762595,0.0174479,0.0147284,622,820,-7.004,-1.03205
-595,204,-7.02838,0.897156,0.00826856,0.00677528,0.0109602,0.0185076,-0.00346372,0.751389,0.0136403,0.012487,629,820,-7.0284,-0.897157
-588,204,-7.02393,0.772156,0.00612335,0.0046522,0.00844615,0.0138659,-0.00309035,0.741963,0.0104278,0.0111917,636,820,-7.02393,-0.772158
-581,204,-7.0152,0.654358,0.00346407,0.00347449,0.00662476,0.010094,-0.00315548,0.785791,0.00799161,0.0116897,643,820,-7.01517,-0.654375
-574,204,-7.02826,0.525024,7.64653e-05,0.00180963,0.00531755,0.00633075,-0.00444465,0.866171,0.00625287,0.0130254,650,820,-7.02828,-0.525021
-567,204,-7.03662,0.388428,-0.00386849,-0.00115069,0.00423816,0.00194109,-0.00696028,0.940538,0.00540468,0.0134575,657,820,-7.03661,-0.388438
-560,204,-7.04578,0.258606,-0.00696949,-0.00291091,0.00431796,-0.000169157,-0.00971124,1.00506,0.00641851,0.0136184,664,820,-7.0458,-0.258623
-553,204,-7.02448,0.137573,-0.0090507,-0.00411656,0.00479176,-0.00119407,-0.0119732,1.02313,0.00761537,0.00978719,671,820,-7.02446,-0.137578
-546,204,-7.0238,0.0438843,-0.0104984,-0.00525495,0.00526757,-0.00199274,-0.0137606,1.01631,0.00858693,0.0132962,678,820,-7.0238,-0.0438951
-539,204,-7.05298,-0.124573,-0.0109337,-0.00603736,0.00537612,-0.00257822,-0.0143928,0.999057,0.00886173,0.0226809,685,820,-7.05296,0.124543
-532,204,-7.26331,-0.168762,0,0,0,0,0,0,0,-1,692,820,-7.26331,0.168784
-525,204,-7.79877,0.382324,-0.0102306,-0.00702305,0.00500765,-0.00336863,-0.013885,0.940371,0.00836311,0.0460645,699,820,-7.79879,-0.382332
-518,204,-8.20496,0.808838,-0.00915897,-0.00698631,0.00438326,-0.00355677,-0.0125885,0.906868,0.0074936,0.0451984,706,820,-8.20493,-0.808861
-511,204,-8.71674,1.15601,0,0,0,0,0,0,0,-1,713,820,-8.71676,-1.15603
-504,204,-9.35248,0.795349,-0.00433373,-0.00578139,0.00209072,-0.00284509,-0.00727003,0.61875,0.00423026,0.0450312,720,820,-9.35245,-0.795337
-497,204,-9.49377,0.630493,-0.000328983,-0.00436798,0.000345159,-0.000299699,-0.00439726,0.0846388,0.00283689,0.0376556,727,820,-9.49375,-0.630497
-490,204,-9.40564,0.699158,0.00482246,-0.00229445,-0.00179354,0.0052489,-0.0027209,-0.23343,0.00467789,0.0343668,734,820,-9.40566,-0.69917
-483,204,-9.26465,0.836609,0.0107022,0.000467672,-0.00395757,0.012054,-0.000884122,-0.329147,0.00834635,0.0406585,741,820,-9.26467,-0.836591
-476,204,0,0,0,0,0,0,0,0,0,-1,748,820,0,0
-469,204,0,0,0,0,0,0,0,0,0,-1,755,820,0,0
-462,204,0,0,0,0,0,0,0,0,0,-1,762,820,0,0
-455,204,0,0,0,0,0,0,0,0,0,-1,769,820,0,0
-448,204,0,0,0,0,0,0,0,0,0,-1,776,820,0,0
-441,204,0,0,0,0,0,0,0,0,0,-1,783,820,0,0
-434,204,0,0,0,0,0,0,0,0,0,-1,790,820,0,0
-427,204,0,0,0,0,0,0,0,0,0,-1,797,820,0,0
-420,204,0,0,0,0,0,0,0,0,0,-1,804,820,0,0
-413,204,0,0,0,0,0,0,0,0,0,-1,811,820,0,0
-406,204,0,0,0,0,0,0,0,0,0,-1,818,820,0,0
-399,204,0,0,0,0,0,0,0,0,0,-1,825,820,0,0
-392,204,0,0,0,0,0,0,0,0,0,-1,832,820,0,0
-385,204,0,0,0,0,0,0,0,0,0,-1,839,820,0,0
-378,204,0,0,0,0,0,0,0,0,0,-1,846,820,0,0
-371,204,0,0,0,0,0,0,0,0,0,-1,853,820,0,0
-364,204,0,0,0,0,0,0,0,0,0,-1,860,820,0,0
-357,204,0,0,0,0,0,0,0,0,0,-1,867,820,0,0
-350,204,0,0,0,0,0,0,0,0,0,-1,874,820,0,0
-343,204,0,0,0,0,0,0,0,0,0,-1,881,820,0,0
-336,204,0,0,0,0,0,0,0,0,0,-1,888,820,0,0
-329,204,0,0,0,0,0,0,0,0,0,-1,895,820,0,0
-322,204,0,0,0,0,0,0,0,0,0,-1,902,820,0,0
-315,204,0,0,0,0,0,0,0,0,0,-1,909,820,0,0
-308,204,0,0,0,0,0,0,0,0,0,-1,916,820,0,0
-301,204,0,0,0,0,0,0,0,0,0,-1,923,820,0,0
-294,204,0,0,0,0,0,0,0,0,0,-1,930,820,0,0
-287,204,0,0,0,0,0,0,0,0,0,-1,937,820,0,0
-280,204,0,0,0,0,0,0,0,0,0,-1,944,820,0,0
-273,204,0,0,0,0,0,0,0,0,0,-1,951,820,0,0
-266,204,0,0,0,0,0,0,0,0,0,-1,958,820,0,0
-259,204,0,0,0,0,0,0,0,0,0,-1,965,820,0,0
-252,204,0,0,0,0,0,0,0,0,0,-1,972,820,0,0
-245,204,0,0,0,0,0,0,0,0,0,-1,979,820,0,0
-238,204,0,0,0,0,0,0,0,0,0,-1,986,820,0,0
-231,204,0,0,0,0,0,0,0,0,0,-1,993,820,0,0
-224,204,0,0,0,0,0,0,0,0,0,-1,1000,820,0,0
-217,204,0,0,0,0,0,0,0,0,0,-1,1007,820,0,0
-210,204,0,0,0,0,0,0,0,0,0,-1,1014,820,0,0
-203,204,0,0,0,0,0,0,0,0,0,-1,1021,820,0,0
-196,204,0,0,0,0,0,0,0,0,0,-1,1028,820,0,0
-189,204,0,0,0,0,0,0,0,0,0,-1,1035,820,0,0
-182,204,0,0,0,0,0,0,0,0,0,-1,1042,820,0,0
-175,204,0,0,0,0,0,0,0,0,0,-1,1049,820,0,0
-168,204,0,0,0,0,0,0,0,0,0,-1,1056,820,0,0
-161,204,0,0,0,0,0,0,0,0,0,-1,1063,820,0,0
-154,204,0,0,0,0,0,0,0,0,0,-1,1070,820,0,0
-147,204,0,0,0,0,0,0,0,0,0,-1,1077,820,0,0
-140,204,0,0,0,0,0,0,0,0,0,-1,1084,820,0,0
-133,204,0,0,0,0,0,0,0,0,0,-1,1091,820,0,0
-126,204,0,0,0,0,0,0,0,0,0,-1,1098,820,0,0
-119,204,0,0,0,0,0,0,0,0,0,-1,1105,820,0,0
-112,204,0,0,0,0,0,0,0,0,0,-1,1112,820,0,0
-105,204,0,0,0,0,0,0,0,0,0,-1,1119,820,0,0
-98,204,0,0,0,0,0,0,0,0,0,-1,1126,820,0,0
-91,204,0,0,0,0,0,0,0,0,0,-1,1133,820,0,0
-84,204,0,0,0,0,0,0,0,0,0,-1,1140,820,0,0
-77,204,0,0,0,0,0,0,0,0,0,-1,1147,820,0,0
-70,204,0,0,0,0,0,0,0,0,0,-1,1154,820,0,0
-63,204,0,0,0,0,0,0,0,0,0,-1,1161,820,0,0
-56,204,0,0,0,0,0,0,0,0,0,-1,1168,820,0,0
-49,204,0,0,0,0,0,0,0,0,0,-1,1175,820,0,0
-42,204,0,0,0,0,0,0,0,0,0,-1,1182,820,0,0
-35,204,0,0,0,0,0,0,0,0,0,-1,1189,820,0,0
-28,204,0,0,0,0,0,0,0,0,0,-1,1196,820,0,0
-21,204,0,0,0,0,0,0,0,0,0,-1,1203,820,0,0
-14,204,0,0,0,0,0,0,0,0,0,-1,1210,820,0,0
-7,204,0,0,0,0,0,0,0,0,0,-1,1217,820,0,0
0,204,0,0,0,0,0,0,0,0,0,-1,1224,820,0,0
7,204,0,0,0,0,0,0,0,0,0,-1,1231,820,0,0
14,204,0,0,0,0,0,0,0,0,0,-1,1238,820,0,0
21,204,0,0,0,0,0,0,0,0,0,-1,1245,820,0,0
28,204,0,0,0,0,0,0,0,0,0,-1,1252,820,0,0
35,204,0,0,0,0,0,0,0,0,0,-1,1259,820,0,0
42,204,0,0,0,0,0,0,0,0,0,-1,1266,820,0,0
49,204,0,0,0,0,0,0,0,0,0,-1,1273,820,0,0
56,204,0,0,0,0,0,0,0,0,0,-1,1280,820,0,0
63,204,0,0,0,0,0,0,0,0,0,-1,1287,820,0,0
70,204,0,0,0,0,0,0,0,0,0,-1,1294,820,0,0
77,204,0,0,0,0,0,0,0,0,0,-1,1301,820,0,0
84,204,0,0,0,0,0,0,0,0,0,-1,1308,820,0,0
91,204,0,0,0,0,0,0,0,0,0,-1,1315,820,0,0
98,204,0,0,0,0,0,0,0,0,0,-1,1322,820,0,0
105,204,0,0,0,0,0,0,0,0,0,-1,1329,820,0,0
112,204,0,0,0,0,0,0,0,0,0,-1,1336,820,0,0
119,204,0,0,0,0,0,0,0,0,0,-1,1343,820,0,0
126,204,0,0,0,0,0,0,0,0,0,-1,1350,820,0,0
133,204,0,0,0,0,0,0,0,0,0,-1,1357,820,0,0
140,204,0,0,0,0,0,0,0,0,0,-1,1364,820,0,0
147,204,0,0,0,0,0,0,0,0,0,-1,1371,820,0,0
154,204,0,0,0,0,0,0,0,0,0,-1,1378,820,0,0
161,204,0,0,0,0,0,0,0,0,0,-1,1385,820,0,0
168,204,0,0,0,0,0,0,0,0,0,-1,1392,820,0,0
175,204,0,0,0,0,0,0,0,0,0,-1,1399,820,0,0
182,204,0,0,0,0,0,0,0,0,0,-1,1406,820,0,0
189,204,0,0,0,0,0,0,0,0,0,-1,1413,820,0,0
196,204,0,0,0,0,0,0,0,0,0,-1,1420,820,0,0
203,204,0,0,0,0,0,0,0,0,0,-1,1427,820,0,0
210,204,0,0,0,0,0,0,0,0,0,-1,1434,820,0,0
217,204,0,0,0,0,0,0,0,0,0,-1,1441,820,0,0
224,204,0,0,0,0,0,0,0,0,0,-1,1448,820,0,0
231,204,0,0,0,0,0,0,0,0,0,-1,1455,820,0,0
238,204,0,0,0,0,0,0,0,0,0,-1,1462,820,0,0
245,204,0,0,0,0,0,0,0,0,0,-1,1469,820,0,0
252,204,0,0,0,0,0,0,0,0,0,-1,1476,820,0,0
259,204,0,0,0,0,0,0,0,0,0,-1,1483,820,0,0
266,204,0,0,0,0,0,0,0,0,0,-1,1490,820,0,0
273,204,0,0,0,0,0,0,0,0,0,-1,1497,820,0,0
280,204,0,0,0,0,0,0,0,0,0,-1,1504,820,0,0
287,204,0,0,0,0,0,0,0,0,0,-1,1511,820,0,0
294,204,0,0,0,0,0,0,0,0,0,-1,1518,820,0,0
301,204,0,0,0,0,0,0,0,0,0,-1,1525,820,0,0
308,204,0,0,0,0,0,0,0,0,0,-1,1532,820,0,0
315,204,0,0,0,0,0,0,0,0,0,-1,1539,820,0,0
322,204,0,0,0,0,0,0,0,0,0,-1,1546,820,0,0
329,204,0,0,0,0,0,0,0,0,0,-1,1553,820,0,0
336,204,0,0,0,0,0,0,0,0,0,-1,1560,820,0,0
343,204,0,0,0,0,0,0,0,0,0,-1,1567,820,0,0
350,204,0,0,0,0,0,0,0,0,0,-1,1574,820,0,0
357,204,0,0,0,0,0,0,0,0,0,-1,1581,820,0,0
364,204,0,0,0,0,0,0,0,0,0,-1,1588,820,0,0
371,204,0,0,0,0,0,0,0,0,0,-1,1595,820,0,0
378,204,0,0,0,0,0,0,0,0,0,-1,1602,820,0,0
385,204,0,0,0,0,0,0,0,0,0,-1,1609,820,0,0
392,204,0,0,0,0,0,0,0,0,0,-1,1616,820,0,0
399,204,0,0,0,0,0,0,0,0,0,-1,1623,820,0,0
406,204,0,0,0,0,0,0,0,0,0,-1,1630,820,0,0
413,204,0,0,0,0,0,0,0,0,0,-1,1637,820,0,0
420,204,0,0,0,0,0,0,0,0,0,-1,1644,820,0,0
427,204,0,0,0,0,0,0,0,0,0,-1,1651,820,0,0
434,204,0,0,0,0,0,0,0,0,0,-1,1658,820,0,0
441,204,0,0,0,0,0,0,0,0,0,-1,1665,820,0,0
448,204,0,0,0,0,0,0,0,0,0,-1,1672,820,0,0
455,204,0,0,0,0,0,0,0,0,0,-1,1679,820,0,0
462,204,0,0,0,0,0,0,0,0,0,-1,1686,820,0,0
469,204,0,0,0,0,0,0,0,0,0,-1,1693,820,0,0
476,204,0,0,0,0,0,0,0,0,0,-1,1700,820,0,0
483,204,0,0,0,0,0,0,0,0,0,-1,1707,820,0,0
490,204,0,0,0,0,0,0,0,0,0,-1,1714,820,0,0
497,204,0,0,0,0,0,0,0,0,0,-1,1721,820,0,0
504,204,0,0,0,0,0,0,0,0,0,-1,1728,820,0,0
511,204,0,0,0,0,0,0,0,0,0,-1,1735,820,0,0
518,204,0,0,0,0,0,0,0,0,0,-1,1742,820,0,0
525,204,0,0,0,0,0,0,0,0,0,-1,1749,820,0,0
532,204,0,0,0,0,0,0,0,0,0,-1,1756,820,0,0
539,204,0,0,0,0,0,0,0,0,0,-1,1763,820,0,0
546,204,0,0,0,0,0,0,0,0,0,-1,1770,820,0,0
553,204,0,0,0,0,0,0,0,0,0,-1,1777,820,0,0
560,204,0,0,0,0,0,0,0,0,0,-1,1784,820,0,0
567,204,0,0,0,0,0,0,0,0,0,-1,1791,820,0,0
574,204,0,0,0,0,0,0,0,0,0,-1,1798,820,0,0
581,204,0,0,0,0,0,0,0,0,0,-1,1805,820,0,0
588,204,0,0,0,0,0,0,0,0,0,-1,1812,820,0,0
595,204,0,0,0,0,0,0,0,0,0,-1,1819,820,0,0
602,204,15.3164,2.2583,0.00221026,-0.00215103,0.00207122,0.00303714,-0.0029779,0.379835,0.00347284,0.0369669,1826,820,15.3164,-2.25831
609,204,15.2522,2.4057,0.00218026,-0.00101787,0.00162227,0.00285908,-0.0016967,0.396301,0.00265866,0.0388371,1833,820,15.2521,-2.40572
616,204,15.2788,2.40326,0.00171429,-0.000244065,0.00145145,0.00248597,-0.00101575,0.488654,0.00208027,0.0362841,1840,820,15.2788,-2.40323
623,204,15.2576,2.35901,0.000798775,6.01247e-05,0.00134656,0.00182574,-0.000966841,0.651553,0.00163752,0.0276718,1847,820,15.2575,-2.359
630,204,15.2606,2.37561,-0.000459962,2.48701e-05,0.00107786,0.000887238,-0.00132233,0.89601,0.00128391,0.0258865,1854,820,15.2607,-2.37562
637,204,15.2476,2.4455,-0.00168204,-0.000111159,0.000839001,0.000252678,-0.00204588,1.16162,0.00145548,0.0345495,1861,820,15.2475,-2.44547
644,204,14.941,2.73071,-0.0027192,-0.000305988,0.000629671,-0.000151571,-0.00287362,1.33031,0.00186727,0.040303,1868,820,14.941,-2.73073
651,204,15.2024,2.44604,0,0,0,0,0,0,0,-1,1875,820,15.2023,-2.44607
658,204,11.4302,1.43182,0,0,0,0,0,0,0,-1,1882,820,11.4301,-1.43181
665,204,12.0505,1.53418,0,0,0,0,0,0,0,-1,1889,820,12.0506,-1.53416
672,204,12.0975,1.67218,-0.00475963,-0.00088951,-0.000534505,-0.000817046,-0.0048321,-1.43605,0.00298654,0.0286608,1896,820,12.0976,-1.67218
679,204,12.118,1.85254,-0.00489445,-0.00102477,-0.000751865,-0.00088382,-0.0050354,-1.38548,0.00310455,0.0164542,1903,820,12.118,-1.85253
686,204,12.1305,2.05365,-0.00425316,-0.000952205,-0.000958034,-0.000694305,-0.00451106,-1.30783,0.00280473,0.010864,1910,820,12.1305,-2.05366
693,204,12.1096,2.19867,-0.00304017,-0.000766098,-0.000982411,-0.000400476,-0.00340579,-1.21451,0.00214951,0.0155826,1917,820,12.1096,-2.19865
700,204,12.1217,2.34857,-0.0012789,-0.000930537,-0.00107125,-1.94008e-05,-0.00219003,-0.86599,0.0014536,0.0165403,1924,820,12.1218,-2.34857
707,204,12.1025,2.51007,0.000433546,-0.00072896,-0.00107877,0.00107769,-0.00137311,-0.538292,0.00141839,0.0147563,1931,820,12.1025,-2.51007
714,204,12.1348,2.69171,0.00244063,-0.00120781,-0.000949155,0.00267279,-0.00143996,-0.239881,0.00240979,0.0222917,1938,820,12.1348,-2.69173
721,204,12.1185,2.78125,0.00494583,-0.00160161,-0.000791162,0.00504008,-0.00169585,-0.118562,0.0040456,0.0210703,1945,820,12.1185,-2.78126
728,204,12.1221,2.89337,0.00781111,-0.00235714,-0.0008247,0.00787757,-0.0024236,-0.0804051,0.00621904,0.0124673,1952,820,12.122,-2.89339
735,204,12.0963,3.03009,0.0108797,-0.00378789,-0.00126604,0.0109882,-0.00389637,-0.0854731,0.00891283,0.0139164,1959,820,12.0963,-3.0301
742,204,12.0763,3.13086,0.01423,-0.00601807,-0.00215889,0.0144576,-0.0062457,-0.105049,0.0122625,0.0305514,1966,820,12.0763,-3.13087
749,204,12.5415,2.51978,0.0181111,-0.00926245,-0.00346518,0.0185429,-0.00969429,-0.123983,0.0165674,0.0466522,1973,820,12.5415,-2.51975
756,204,12.8912,2.07935,0,0,0,0,0,0,0,-1,1980,820,12.8913,-2.07933
763,204,12.3407,0.569092,0,0,0,0,0,0,0,-1,1987,820,12.3407,-0.569085
770,204,11.5038,4.19946,0,0,0,0,0,0,0,-1,1994,820,11.5038,-4.19949
777,204,0,0,0,0,0,0,0,0,0,-1,2001,820,0,0
784,204,0,0,0,0,0,0,0,0,0,-1,2008,820,0,0
791,204,0,0,0,0,0,0,0,0,0,-1,2015,820,0,0
798,204,0,0,0,0,0,0,0,0,0,-1,2022,820,0,0
805,204,0,0,0,0,0,0,0,0,0,-1,2029,820,0,0
812,204,0,0,0,0,0,0,0,0,0,-1,2036,820,0,0
-700,197,0,0,0,0,0,0,0,0,0,-1,524,827,0,0
-693,197,0,0,0,0,0,0,0,0,0,-1,531,827,0,0
-686,197,0,0,0,0,0,0,0,0,0,-1,538,827,0,0
-679,197,0,0,0,0,0,0,0,0,0,-1,545,827,0,0
-672,197,0,0,0,0,0,0,0,0,0,-1,552,827,0,0
-665,197,0,0,0,0,0,0,0,0,0,-1,559,827,0,0
-658,197,-6.77045,-2.1214,0,0,0,0,0,0,0,-1,566,827,-6.77044,2.12139
-651,197,-8.513,-2.42786,0,0,0,0,0,0,0,-1,573,827,-8.51302,2.42786
-644,197,-8.39398,-1.66162,0.0166174,0.0180565,0.0219722,0.0393209,-0.00464697,0.801767,0.0278923,0.0442651,580,827,-8.39398,1.66159
-637,197,-8.47504,-0.992004,0.0156277,0.0161027,0.0229151,0.0387815,-0.00705112,0.790581,0.028497,0.0429958,587,827,-8.47503,0.992014
-630,197,-8.6297,-0.361267,0.0146529,0.0140619,0.0220617,0.0364211,-0.00770623,0.778702,0.0272156,0.0441655,594,827,-8.62969,0.361253
-623,197,-8.80768,0.425659,0.0134589,0.0120233,0.0201234,0.0328773,-0.00739513,0.767571,0.0247543,0.0412663,601,827,-8.80765,-0.425654
-616,197,-7.27686,0.839111,0,0,0,0,0,0,0,-1,608,827,-7.27688,-0.839116
-609,197,-7.1369,1.03003,0.0100034,0.00840223,0.0150086,0.0242328,-0.00582712,0.758752,0.0184076,0.0320921,615,827,-7.13689,-1.03006
-602,197,-7.1405,0.997498,0.00796473,0.00660503,0.012272,0.0195757,-0.00500592,0.757727,0.0150002,0.0160586,622,827,-7.14053,-0.997524
-595,197,-7.16394,0.881897,0.00564472,0.00427639,0.00975609,0.0147406,-0.00481949,0.750392,0.0117673,0.0154802,629,827,-7.16394,-0.881923
-588,197,-7.16327,0.751404,0.00370295,0.00251478,0.00757237,0.0107045,-0.00448678,0.746251,0.00901225,0.0173673,636,827,-7.16326,-0.7514
-581,197,-7.15924,0.628235,0.00141893,0.00187526,0.00605787,0.00770926,-0.00441507,0.804221,0.00708559,0.0105002,643,827,-7.15926,-0.628223
-574,197,-7.16028,0.520569,-0.00151189,0.000609955,0.00508583,0.00474434,-0.00564627,0.888225,0.00600655,0.0120734,650,827,-7.16029,-0.520583
-567,197,-7.16644,0.380066,-0.00516079,-0.00195346,0.00440394,0.00112971,-0.00824395,0.960007,0.00590865,0.0134968,657,827,-7.16643,-0.380064
-560,197,-7.16962,0.254883,-0.0081252,-0.00347345,0.0046561,-0.000594617,-0.011004,1.01704,0.00714606,0.0126922,664,827,-7.16963,-0.254879
-553,197,-7.15399,0.158264,-0.010099,-0.00450672,0.00517169,-0.00142368,-0.0131821,1.03322,0.00835401,0.011993,671,827,-7.15402,-0.158245
-546,197,-7.12122,0.0287476,-0.0113697,-0.00545003,0.00564551,-0.0020355,-0.0147842,1.02684,0.00925258,0.0206147,678,827,-7.12122,-0.0287563
-539,197,-7.21454,-0.0559692,-0.011728,-0.00618117,0.00578242,-0.00254146,-0.0153677,1.00901,0.00951185,0.0414879,685,827,-7.21457,0.0559562
-532,197,-7.59534,0.908752,0,0,0,0,0,0,0,-1,692,827,-7.59533,-0.908731
-525,197,-8.06537,0.905823,0,0,0,0,0,0,0,-1,699,827,-8.06539,-0.905795
-518,197,-8.53546,0.902832,0,0,0,0,0,0,0,-1,706,827,-8.53545,-0.902859
-511,197,-9.55359,0.519714,-0.00718743,-0.00647587,0.00365841,-0.00315598,-0.0105073,0.833871,0.00622551,0.0430438,713,827,-9.55357,-0.519715
-504,197,-9.49664,0.518799,-0.00379472,-0.00545143,0.00220683,-0.0022659,-0.00698025,0.605854,0.00411186,0.0407825,720,827,-9.49664,-0.518788
-497,197,-9.57062,0.480347,0.000898748,-0.00377719,0.000296346,0.000917455,-0.0037959,0.0630407,0.00288545,0.0397535,727,827,-9.57061,-0.480349
-490,197,-9.40448,0.601624,0.00680068,-0.00136931,-0.0019889,0.00725913,-0.00182776,-0.226548,0.00554992,0.0384866,734,827,-9.40449,-0.601641
-483,197,-9.10266,0.791443,0.0133482,0.00178083,-0.00405059,0.0146256,0.000503476,-0.30548,0.00958695,0.0411919,741,827,-9.10266,-0.791417
-476,197,0,0,0,0,0,0,0,0,0,-1,748,827,0,0
-469,197,0,0,0,0,0,0,0,0,0,-1,755,827,0,0
-462,197,0,0,0,0,0,0,0,0,0,-1,762,827,0,0
-455,197,0,0,0,0,0,0,0,0,0,-1,769,827,0,0
-448,197,0,0,0,0,0,0,0,0,0,-1,776,827,0,0
-441,197,0,0,0,0,0,0,0,0,0,-1,783,827,0,0
-434,197,0,0,0,0,0,0,0,0,0,-1,790,827,0,0
-427,197,0,0,0,0,0,0,0,0,0,-1,797,827,0,0
-420,197,0,0,0,0,0,0,0,0,0,-1,804,827,0,0
-413,197,0,0,0,0,0,0,0,0,0,-1,811,827,0,0
-406,197,0,0,0,0,0,0,0,0,0,-1,818,827,0,0
-399,197,0,0,0,0,0,0,0,0,0,-1,825,827,0,0
-392,197,0,0,0,0,0,0,0,0,0,-1,832,827,0,0
-385,197,0,0,0,0,0,0,0,0,0,-1,839,827,0,0
-378,197,0,0,0,0,0,0,0,0,0,-1,846,827,0,0
-371,197,0,0,0,0,0,0,0,0,0,-1,853,827,0,0
-364,197,0,0,0,0,0,0,0,0,0,-1,860,827,0,0
-357,197,0,0,0,0,0,0,0,0,0,-1,867,827,0,0
-350,197,0,0,0,0,0,0,0,0,0,-1,874,827,0,0
-343,197,0,0,0,0,0,0,0,0,0,-1,881,827,0,0
-336,197,0,0,0,0,0,0,0,0,0,-1,888,827,0,0
-329,197,0,0,0,0,0,0,0,0,0,-1,895,827,0,0
-322,197,0,0,0,0,0,0,0,0,0,-1,902,827,0,0
-315,197,0,0,0,0,0,0,0,0,0,-1,909,827,0,0
-308,197,0,0,0,0,0,0,0,0,0,-1,916,827,0,0
-301,197,0,0,0,0,0,0,0,0,0,-1,923,827,0,0
-294,197,0,0,0,0,0,0,0,0,0,-1,930,827,0,0
-287,197,0,0,0,0,0,0,0,0,0,-1,937,827,0,0
-280,197,0,0,0,0,0,0,0,0,0,-1,944,827,0,0
-273,197,0,0,0,0,0,0,0,0,0,-1,951,827,0,0
-266,197,0,0,0,0,0,0,0,0,0,-1,958,827,0,0
-259,197,0,0,0,0,0,0,0,0,0,-1,965,827,0,0
-252,197,0,0,0,0,0,0,0,0,0,-1,972,827,0,0
-245,197,0,0,0,0,0,0,0,0,0,-1,979,827,0,0
-238,197,0,0,0,0,0,0,0,0,0,-1,986,827,0,0
-231,197,0,0,0,0,0,0,0,0,0,-1,993,827,0,0
-224,197,0,0,0,0,0,0,0,0,0,-1,1000,827,0,0
-217,197,0,0,0,0,0,0,0,0,0,-1,1007,827,0,0
-210,197,0,0,0,0,0,0,0,0,0,-1,1014,827,0,0
-203,197,0,0,0,0,0,0,0,0,0,-1,1021,827,0,0
-196,197,0,0,0,0,0,0,0,0,0,-1,1028,827,0,0
-189,197,0,0,0,0,0,0,0,0,0,-1,1035,827,0,0
-182,197,0,0,0,0,0,0,0,0,0,-1,1042,827,0,0
-175,197,0,0,0,0,0,0,0,0,0,-1,1049,827,0,0
-168,197,0,0,0,0,0,0,0,0,0,-1,1056,827,0,0
-161,197,0,0,0,0,0,0,0,0,0,-1,1063,827,0,0
-154,197,0,0,0,0,0,0,0,0,0,-1,1070,827,0,0
-147,197,0,0,0,0,0,0,0,0,0,-1,1077,827,0,0
-140,197,0,0,0,0,0,0,0,0,0,-1,1084,827,0,0
-133,197,0,0,0,0,0,0,0,0,0,-1,1091,827,0,0
-126,197,0,0,0,0,0,0,0,0,0,-1,1098,827,0,0
-119,197,0,0,0,0,0,0,0,0,0,-1,1105,827,0,0
-112,197,0,0,0,0,0,0,0,0,0,-1,1112,827,0,0
-105,197,0,0,0,0,0,0,0,0,0,-1,1119,827,0,0
-98,197,0,0,0,0,0,0,0,0,0,-1,1126,827,0,0
-91,197,0,0,0,0,0,0,0,0,0,-1,1133,827,0,0
-84,197,0,0,0,0,0,0,0,0,0,-1,1140,827,0,0
-77,197,0,0,0,0,0,0,0,0,0,-1,1147,827,0,0
-70,197,0,0,0,0,0,0,0,0,0,-1,1154,827,0,0
-63,197,0,0,0,0,0,0,0,0,0,-1,1161,827,0,0
-56,197,0,0,0,0,0,0,0,0,0,-1,1168,827,0,0
-49,197,0,0,0,0,0,0,0,0,0,-1,1175,827,0,0
-42,197,0,0,0,0,0,0,0,0,0,-1,1182,827,0,0
-35,197,0,0,0,0,0,0,0,0,0,-1,1189,827,0,0
-28,197,0,0,0,0,0,0,0,0,0,-1,1196,827,0,0
-21,197,0,0,0,0,0,0,0,0,0,-1,1203,827,0,0
-14,197,0,0,0,0,0,0,0,0,0,-1,1210,827,0,0
-7,197,0,0,0,0,0,0,0,0,0,-1,1217,827,0,0
0,197,0,0,0,0,0,0,0,0,0,-1,1224,827,0,0
7,197,0,0,0,0,0,0,0,0,0,-1,1231,827,0,0
14,197,0,0,0,0,0,0,0,0,0,-1,1238,827,0,0
21,197,0,0,0,0,0,0,0,0,0,-1,1245,827,0,0
28,197,0,0,0,0,0,0,0,0,0,-1,1252,827,0,0
35,197,0,0,0,0,0,0,0,0,0,-1,1259,827,0,0
42,197,0,0,0,0,0,0,0,0,0,-1,1266,827,0,0
49,197,0,0,0,0,0,0,0,0,0,-1,1273,827,0,0
56,197,0,0,0,0,0,0,0,0,0,-1,1280,827,0,0
63,197,0,0,0,0,0,0,0,0,0,-1,1287,827,0,0
70,197,0,0,0,0,0,0,0,0,0,-1,1294,827,0,0
77,197,0,0,0,0,0,0,0,0,0,-1,1301,827,0,0
84,197,0,0,0,0,0,0,0,0,0,-1,1308,827,0,0
91,197,0,0,0,0,0,0,0,0,0,-1,1315,827,0,0
98,197,0,0,0,0,0,0,0,0,0,-1,1322,827,0,0
105,197,0,0,0,0,0,0,0,0,0,-1,1329,827,0,0
112,197,0,0,0,0,0,0,0,0,0,-1,1336,827,0,0
119,197,0,0,0,0,0,0,0,0,0,-1,1343,827,0,0
126,197,0,0,0,0,0,0,0,0,0,-1,1350,827,0,0
133,197,0,0,0,0,0,0,0,0,0,-1,1357,827,0,0
140,197,0,0,0,0,0,0,0,0,0,-1,1364,827,0,0
147,197,0,0,0,0,0,0,0,0,0,-1,1371,827,0,0
154,197,0,0,0,0,0,0,0,0,0,-1,1378,827,0,0
161,197,0,0,0,0,0,0,0,0,0,-1,1385,827,0,0
168,197,0,0,0,0,0,0,0,0,0,-1,1392,827,0,0
175,197,0,0,0,0,0,0,0,0,0,-1,1399,827,0,0
182,197,0,0,0,0,0,0,0,0,0,-1,1406,827,0,0
189,197,0,0,0,0,0,0,0,0,0,-1,1413,827,0,0
196,197,0,0,0,0,0,0,0,0,0,-1,1420,827,0,0
203,197,0,0,0,0,0,0,0,0,0,-1,1427,827,0,0
210,197,0,0,0,0,0,0,0,0,0,-1,1434,827,0,0
217,197,0,0,0,0,0,0,0,0,0,-1,1441,827,0,0
224,197,0,0,0,0,0,0,0,0,0,-1,1448,827,0,0
231,197,0,0,0,0,0,0,0,0,0,-1,1455,827,0,0
238,197,0,0,0,0,0,0,0,0,0,-1,1462,827,0,0
245,197,0,0,0,0,0,0,0,0,0,-1,1469,827,0,0
252,197,0,0,0,0,0,0,0,0,0,-1,1476,827,0,0
259,197,0,0,0,0,0,0,0,0,0,-1,1483,827,0,0
266,197,0,0,0,0,0,0,0,0,0,-1,1490,827,0,0
273,197,0,0,0,0,0,0,0,0,0,-1,1497,827,0,0
280,197,0,0,0,0,0,0,0,0,0,-1,1504,827,0,0
287,197,0,0,0,0,0,0,0,0,0,-1,1511,827,0,0
294,197,0,0,0,0,0,0,0,0,0,-1,1518,827,0,0
301,197,0,0,0,0,0,0,0,0,0,-1,1525,827,0,0
308,197,0,0,0,0,0,0,0,0,0,-1,1532,827,0,0
315,197,0,0,0,0,0,0,0,0,0,-1,1539,827,0,0
322,197,0,0,0,0,0,0,0,0,0,-1,1546,827,0,0
329,197,0,0,0,0,0,0,0,0,0,-1,1553,827,0,0
336,197,0,0,0,0,0,0,0,0,0,-1,1560,827,0,0
343,197,0,0,0,0,0,0,0,0,0,-1,1567,827,0,0
350,197,0,0,0,0,0,0,0,0,0,-1,1574,827,0,0
357,197,0,0,0,0,0,0,0,0,0,-1,1581,827,0,0
364,197,0,0,0,0,0,0,0,0,0,-1,1588,827,0,0
371,197,0,0,0,0,0,0,0,0,0,-1,1595,827,0,0
378,197,0,0,0,0,0,0,0,0,0,-1,1602,827,0,0
385,197,0,0,0,0,0,0,0,0,0,-1,1609,827,0,0
392,197,0,0,0,0,0,0,0,0,0,-1,1616,827,0,0
399,197,0,0,0,0,0,0,0,0,0,-1,1623,827,0,0
406,197,0,0,0,0,0,0,0,0,0,-1,1630,827,0,0
413,197,0,0,0,0,0,0,0,0,0,-1,1637,827,0,0
420,197,0,0,0,0,0,0,0,0,0,-1,1644,827,0,0
427,197,0,0,0,0,0,0,0,0,0,-1,1651,827,0,0
434,197,0,0,0,0,0,0,0,0,0,-1,1658,827,0,0
441,197,0,0,0,0,0,0,0,0,0,-1,1665,827,0,0
448,197,0,0,0,0,0,0,0,0,0,-1,1672,827,0,0
455,197,0,0,0,0,0,0,0,0,0,-1,1679,827,0,0
462,197,0,0,0,0,0,0,0,0,0,-1,1686,827,0,0
469,197,0,0,0,0,0,0,0,0,0,-1,1693,827,0,0
476,197,0,0,0,0,0,0,0,0,0,-1,1700,827,0,0
483,197,0,0,0,0,0,0,0,0,0,-1,1707,827,0,0
490,197,0,0,0,0,0,0,0,0,0,-1,1714,827,0,0
497,197,0,0,0,0,0,0,0,0,0,-1,1721,827,0,0
504,197,0,0,0,0,0,0,0,0,0,-1,1728,827,0,0
511,197,0,0,0,0,0,0,0,0,0,-1,1735,827,0,0
518,197,0,0,0,0,0,0,0,0,0,-1,1742,827,0,0
525,197,0,0,0,0,0,0,0,0,0,-1,1749,827,0,0
532,197,0,0,0,0,0,0,0,0,0,-1,1756,827,0,0
539,197,0,0,0,0,0,0,0,0,0,-1,1763,827,0,0
546,197,0,0,0,0,0,0,0,0,0,-1,1770,827,0,0
553,197,0,0,0,0,0,0,0,0,0,-1,1777,827,0,0
560,197,0,0,0,0,0,0,0,0,0,-1,1784,827,0,0
567,197,0,0,0,0,0,0,0,0,0,-1,1791,827,0,0
574,197,0,0,0,0,0,0,0,0,0,-1,1798,827,0,0
581,197,0,0,0,0,0,0,0,0,0,-1,1805,827,0,0
588,197,0,0,0,0,0,0,0,0,0,-1,1812,827,0,0
595,197,0,0,0,0,0,0,0,0,0,-1,1819,827,0,0
602,197,15.2198,2.36328,0.00200034,-0.00408811,0.00105437,0.00217776,-0.00426553,0.166711,0.00378457,0.0407877,1826,827,15.2199,-2.36331
609,197,15.1486,2.42841,0.00186171,-0.00228126,0.00103644,0.00210653,-0.00252608,0.231958,0.00267829,0.0407718,1833,827,15.1486,-2.42839
616,197,15.2786,2.37164,0.00148811,-0.00081765,0.0012594,0.00204263,-0.00137217,0.414763,0.00198416,0.0397459,1840,827,15.2786,-2.37165
623,197,15.3566,2.26489,0.000715178,4.54788e-05,0.00150834,0.00192539,-0.00116473,0.67617,0.00180201,0.0357089,1847,827,15.3566,-2.26488
630,197,15.3259,2.29309,-0.000580498,0.000351638,0.00137836,0.00134059,-0.00156945,0.94843,0.00168185,0.0285423,1854,827,15.3259,-2.29308
637,197,15.2969,2.3205,-0.00191221,0.000390068,0.00113411,0.000854889,-0.00237703,1.18182,0.0019337,0.0266018,1861,827,15.2969,-2.32052
644,197,15.2308,2.38293,-0.00302618,0.000260865,0.000864986,0.00047459,-0.00323991,1.32856,0.00233427,0.0334079,1868,827,15.2308,-2.38291
651,197,15.2738,2.46692,-0.00377799,3.45547e-05,0.000529568,0.000106746,-0.00385018,1.43531,0.0026031,0.0427739,1875,827,15.2738,-2.46693
658,197,15.2003,2.84326,0,0,0,0,0,0,0,-1,1882,827,15.2004,-2.84325
665,197,12.7335,1.66534,0,0,0,0,0,0,0,-1,1889,827,12.7336,-1.66532
672,197,12.4814,1.75232,-0.00540429,-0.000431183,-0.000702273,-0.000333914,-0.00550155,-1.43317,0.00356162,0.0442082,1896,827,12.4815,-1.75232
679,197,12.3007,1.91547,-0.00564361,-0.000615539,-0.00100757,-0.00042115,-0.005838,-1.38021,0.00375949,0.0191299,1903,827,12.3007,-1.91548
686,197,12.2675,2.05914,-0.00522641,-0.000698878,-0.00135707,-0.000323272,-0.00560202,-1.30078,0.00363172,0.0123106,1910,827,12.2675,-2.05915
693,197,12.2406,2.22815,-0.00417572,-0.000650045,-0.00152005,-8.51923e-05,-0.00474057,-1.21501,0.00313237,0.0153528,1917,827,12.2406,-2.22817
700,197,12.2162,2.37225,-0.00255443,-0.00086633,-0.00165405,0.000146583,-0.00356734,-1.02132,0.00242856,0.0210101,1924,827,12.2161,-2.37223
707,197,12.2794,2.50562,-0.000873118,-0.000669583,-0.00171925,0.000950909,-0.00249361,-0.81496,0.0020541,0.00886631,1931,827,12.2794,-2.50559
714,197,12.262,2.63623,0.00111646,-0.00110861,-0.00162085,0.00196985,-0.00196201,-0.484632,0.00227006,0.0107744,1938,827,12.2619,-2.63622
721,197,12.2621,2.75415,0.00358936,-0.00130145,-0.00150572,0.00401575,-0.00172784,-0.275955,0.00340263,0.0116995,1945,827,12.2621,-2.75417
728,197,12.2672,2.89996,0.00640008,-0.00176762,-0.0015465,0.00668309,-0.00205064,-0.181,0.00527356,0.0100571,1952,827,12.2672,-2.89995
735,197,12.2589,3.05231,0.00935905,-0.00277198,-0.00196361,0.00966898,-0.0030819,-0.156543,0.00768219,0.0106555,1959,827,12.2589,-3.05228
742,197,12.2283,3.17999,0.0125003,-0.00435965,-0.0027994,0.012953,-0.00481231,-0.160309,0.0106097,0.0197361,1966,827,12.2282,-3.18
749,197,12.1597,3.42279,0.0162182,-0.00664156,-0.00390839,0.016868,-0.00729131,-0.16474,0.014309,0.0443244,1973,827,12.1597,-3.42281
756,197,12.0883,3.63885,0,0,0,0,0,0,0,-1,1980,827,12.0883,-3.63883
763,197,11.0721,4.30566,0,0,0,0,0,0,0,-1,1987,827,11.0721,-4.30565
770,197,12.0667,3.58746,0,0,0,0,0,0,0,-1,1994,827,12.0667,-3.58746
777,197,0,0,0,0,0,0,0,0,0,-1,2001,827,0,0
784,197,0,0,0,0,0,0,0,0,0,-1,2008,827,0,0
791,197,0,0,0,0,0,0,0,0,0,-1,2015,827,0,0
798,197,0,0,0,0,0,0,0,0,0,-1,2022,827,0,0
805,197,0,0,0,0,0,0,0,0,0,-1,2029,827,0,0
812,197,0,0,0,0,0,0,0,0,0,-1,2036,827,0,0
-700,190,0,0,0,0,0,0,0,0,0,-1,524,834,0,0
-693,190,0,0,0,0,0,0,0,0,0,-1,531,834,0,0
-686,190,0,0,0,0,0,0,0,0,0,-1,538,834,0,0
-679,190,0,0,0,0,0,0,0,0,0,-1,545,834,0,0
-672,190,0,0,0,0,0,0,0,0,0,-1,552,834,0,0
-665,190,0,0,0,0,0,0,0,0,0,-1,559,834,0,0
-658,190,-8.93414,-1.5072,0,0,0,0,0,0,0,-1,566,834,-8.93414,1.50722
-651,190,-8.61359,-1.2746,0.028128,0.0119592,0.011951,0.0344722,0.00561509,0.48802,0.0213572,0.0464107,573,834,-8.61357,1.2746
-644,190,-8.28943,-1.12189,0.0213028,0.0112277,0.0168075,0.0338114,-0.00128094,0.639797,0.0229798,0.0434612,580,834,-8.28942,1.12191
-637,190,-8.29578,-1.09106,0.0167797,0.0100783,0.0186436,0.0323713,-0.00551328,0.696486,0.023634,0.0466889,587,834,-8.29575,1.09108
-630,190,-8.31665,-0.286255,0.0136544,0.00877905,0.0185455,0.0299218,-0.00748833,0.720052,0.0228566,0.0470554,594,834,-8.31667,0.286266
-623,190,-7.62842,1.16718,0,0,0,0,0,0,0,-1,601,834,-7.62839,-1.16716
-616,190,-7.42554,1.14697,0,0,0,0,0,0,0,-1,608,834,-7.42557,-1.14695
-609,190,-7.27649,1.04877,0.00729937,0.00521582,0.0131563,0.019455,-0.00693984,0.745888,0.0157998,0.022297,615,834,-7.2765,-1.04875
-602,190,-7.25836,0.965576,0.00506119,0.00398711,0.0109177,0.015455,-0.00640672,0.760823,0.0129772,0.0142197,622,834,-7.25837,-0.965567
-595,190,-7.2807,0.871277,0.00295526,0.00213424,0.00877421,0.0113286,-0.00623906,0.762022,0.0102836,0.016457,629,834,-7.28072,-0.871247
-588,190,-7.30176,0.74762,0.00117411,0.000678862,0.00688665,0.00781759,-0.00596462,0.767427,0.0079811,0.0144421,636,834,-7.30175,-0.747624
-581,190,-7.29401,0.627625,-0.000780717,0.00052334,0.00564356,0.00555241,-0.00580979,0.842911,0.00656053,0.0103662,643,834,-7.29403,-0.627608
-574,190,-7.27826,0.50238,-0.00329212,-0.000377428,0.00497862,0.00335276,-0.00702231,0.927781,0.00611367,0.0101894,650,834,-7.27825,-0.502386
-567,190,-7.28546,0.36554,-0.00661431,-0.0025575,0.00464434,0.000482064,-0.00965388,0.991287,0.00660248,0.0113472,657,834,-7.28546,-0.365516
-560,190,-7.3161,0.250366,-0.00936182,-0.00384891,0.00502571,-0.000873368,-0.0123374,1.03623,0.00794979,0.0146678,664,834,-7.31607,-0.250355
-553,190,-7.31171,0.152405,-0.0111617,-0.00476946,0.00554308,-0.00156707,-0.0143641,1.04691,0.00909879,0.0139747,671,834,-7.31172,-0.152401
-546,190,-7.30219,0.00268555,-0.0122647,-0.00560274,0.00601654,-0.00205664,-0.0158108,1.03821,0.00992625,0.0281743,678,834,-7.30216,-0.00268167
-539,190,-7.36218,-0.0579834,-0.0125608,-0.00632145,0.0061961,-0.00250397,-0.0163783,1.01862,0.0101873,0.0417215,685,834,-7.36221,0.0579783
-532,190,-7.93042,0.3396,-0.0123062,-0.00686404,0.00613048,-0.00287788,-0.0162924,0.994266,0.0100407,0.045458,692,834,-7.9304,-0.33959
-525,190,-8.38049,1.40808,0,0,0,0,0,0,0,-1,699,834,-8.38052,-1.40807
-518,190,-9.71643,0.204895,0,0,0,0,0,0,0,-1,706,834,-9.71644,-0.204912
-511,190,-9.62225,0.360474,-0.00726323,-0.00651509,0.00389788,-0.00297337,-0.0108049,0.833235,0.00644501,0.045745,713,834,-9.62228,-0.360503
-504,190,-9.67413,0.361938,-0.00332445,-0.00536262,0.0022843,-0.00184223,-0.00684484,0.575584,0.00408987,0.046703,720,834,-9.67412,-0.361909
-497,190,-9.75238,0.282959,0.00213297,-0.00346788,0.000141067,0.00213652,-0.00347143,0.0251654,0.00326819,0.0463377,727,834,-9.75235,-0.282945
-490,190,-9.75751,0.217346,0.00885447,-0.000754576,-0.00236626,0.00940557,-0.00130567,-0.228817,0.00674784,0.0442657,734,834,-9.75751,-0.217369
-483,190,0,0,0,0,0,0,0,0,0,-1,741,834,0,0
-476,190,0,0,0,0,0,0,0,0,0,-1,748,834,0,0
-469,190,0,0,0,0,0,0,0,0,0,-1,755,834,0,0
-462,190,0,0,0,0,0,0,0,0,0,-1,762,834,0,0
-455,190,0,0,0,0,0,0,0,0,0,-1,769,834,0,0
-448,190,0,0,0,0,0,0,0,0,0,-1,776,834,0,0
-441,190,0,0,0,0,0,0,0,0,0,-1,783,834,0,0
-434,190,0,0,0,0,0,0,0,0,0,-1,790,834,0,0
-427,190,0,0,0,0,0,0,0,0,0,-1,797,834,0,0
-420,190,0,0,0,0,0,0,0,0,0,-1,804,834,0,0
-413,190,0,0,0,0,0,0,0,0,0,-1,811,834,0,0
-406,190,0,0,0,0,0,0,0,0,0,-1,818,834,0,0
-399,190,0,0,0,0,0,0,0,0,0,-1,825,834,0,0
-392,190,0,0,0,0,0,0,0,0,0,-1,832,834,0,0
-385,190,0,0,0,0,0,0,0,0,0,-1,839,834,0,0
-378,190,0,0,0,0,0,0,0,0,0,-1,846,834,0,0
-371,190,0,0,0,0,0,0,0,0,0,-1,853,834,0,0
-364,190,0,0,0,0,0,0,0,0,0,-1,860,834,0,0
-357,190,0,0,0,0,0,0,0,0,0,-1,867,834,0,0
-350,190,0,0,0,0,0,0,0,0,0,-1,874,834,0,0
-343,190,0,0,0,0,0,0,0,0,0,-1,881,834,0,0
-336,190,0,0,0,0,0,0,0,0,0,-1,888,834,0,0
-329,190,0,0,0,0,0,0,0,0,0,-1,895,834,0,0
-322,190,0,0,0,0,0,0,0,0,0,-1,902,834,0,0
-315,190,0,0,0,0,0,0,0,0,0,-1,909,834,0,0
-308,190,0,0,0,0,0,0,0,0,0,-1,916,834,0,0
-301,190,0,0,0,0,0,0,0,0,0,-1,923,834,0,0
-294,190,0,0,0,0,0,0,0,0,0,-1,930,834,0,0
-287,190,0,0,0,0,0,0,0,0,0,-1,937,834,0,0
-280,190,0,0,0,0,0,0,0,0,0,-1,944,834,0,0
-273,190,0,0,0,0,0,0,0,0,0,-1,951,834,0,0
-266,190,0,0,0,0,0,0,0,0,0,-1,958,834,0,0
-259,190,0,0,0,0,0,0,0,0,0,-1,965,834,0,0
-252,190,0,0,0,0,0,0,0,0,0,-1,972,834,0,0
-245,190,0,0,0,0,0,0,0,0,0,-1,979,834,0,0
-238,190,0,0,0,0,0,0,0,0,0,-1,986,834,0,0
-231,190,0,0,0,0,0,0,0,0,0,-1,993,834,0,0
-224,190,0,0,0,0,0,0,0,0,0,-1,1000,834,0,0
-217,190,0,0,0,0,0,0,0,0,0,-1,1007,834,0,0
-210,190,0,0,0,0,0,0,0,0,0,-1,1014,834,0,0
-203,190,0,0,0,0,0,0,0,0,0,-1,1021,834,0,0
-196,190,0,0,0,0,0,0,0,0,0,-1,1028,834,0,0
-189,190,0,0,0,0,0,0,0,0,0,-1,1035,834,0,0
-182,190,0,0,0,0,0,0,0,0,0,-1,1042,834,0,0
-175,190,0,0,0,0,0,0,0,0,0,-1,1049,834,0,0
-168,190,0,0,0,0,0,0,0,0,0,-1,1056,834,0,0
-161,190,0,0,0,0,0,0,0,0,0,-1,1063,834,0,0
-154,190,0,0,0,0,0,0,0,0,0,-1,1070,834,0,0
-147,190,0,0,0,0,0,0,0,0,0,-1,1077,834,0,0
-140,190,0,0,0,0,0,0,0,0,0,-1,1084,834,0,0
-133,190,0,0,0,0,0,0,0,0,0,-1,1091,834,0,0
-126,190,0,0,0,0,0,0,0,0,0,-1,1098,834,0,0
-119,190,0,0,0,0,0,0,0,0,0,-1,1105,834,0,0
-112,190,0,0,0,0,0,0,0,0,0,-1,1112,834,0,0
-105,190,0,0,0,0,0,0,0,0,0,-1,1119,834,0,0
-98,190,0,0,0,0,0,0,0,0,0,-1,1126,834,0,0
-91,190,0,0,0,0,0,0,0,0,0,-1,1133,834,0,0
-84,190,0,0,0,0,0,0,0,0,0,-1,1140,834,0,0
-77,190,0,0,0,0,0,0,0,0,0,-1,1147,834,0,0
-70,190,0,0,0,0,0,0,0,0,0,-1,1154,834,0,0
-63,190,0,0,0,0,0,0,0,0,0,-1,1161,834,0,0
-56,190,0,0,0,0,0,0,0,0,0,-1,1168,834,0,0
-49,190,0,0,0,0,0,0,0,0,0,-1,1175,834,0,0
-42,190,0,0,0,0,0,0,0,0,0,-1,1182,834,0,0
-35,190,0,0,0,0,0,0,0,0,0,-1,1189,834,0,0
-28,190,0,0,0,0,0,0,0,0,0,-1,1196,834,0,0
-21,190,0,0,0,0,0,0,0,0,0,-1,1203,834,0,0
-14,190,0,0,0,0,0,0,0,0,0,-1,1210,834,0,0
-7,190,0,0,0,0,0,0,0,0,0,-1,1217,834,0,0
0,190,0,0,0,0,0,0,0,0,0,-1,1224,834,0,0
7,190,0,0,0,0,0,0,0,0,0,-1,1231,834,0,0
14,190,0,0,0,0,0,0,0,0,0,-1,1238,834,0,0
21,190,0,0,0,0,0,0,0,0,0,-1,1245,834,0,0
28,190,0,0,0,0,0,0,0,0,0,-1,1252,834,0,0
35,190,0,0,0,0,0,0,0,0,0,-1,1259,834,0,0
42,190,0,0,0,0,0,0,0,0,0,-1,1266,834,0,0
49,190,0,0,0,0,0,0,0,0,0,-1,1273,834,0,0
56,190,0,0,0,0,0,0,0,0,0,-1,1280,834,0,0
63,190,0,0,0,0,0,0,0,0,0,-1,1287,834,0,0
70,190,0,0,0,0,0,0,0,0,0,-1,1294,834,0,0
77,190,0,0,0,0,0,0,0,0,0,-1,1301,834,0,0
84,190,0,0,0,0,0,0,0,0,0,-1,1308,834,0,0
91,190,0,0,0,0,0,0,0,0,0,-1,1315,834,0,0
98,190,0,0,0,0,0,0,0,0,0,-1,1322,834,0,0
105,190,0,0,0,0,0,0,0,0,0,-1,1329,834,0,0
112,190,0,0,0,0,0,0,0,0,0,-1,1336,834,0,0
119,190,0,0,0,0,0,0,0,0,0,-1,1343,834,0,0
126,190,0,0,0,0,0,0,0,0,0,-1,1350,834,0,0
133,190,0,0,0,0,0,0,0,0,0,-1,1357,834,0,0
140,190,0,0,0,0,0,0,0,0,0,-1,1364,834,0,0
147,190,0,0,0,0,0,0,0,0,0,-1,1371,834,0,0
154,190,0,0,0,0,0,0,0,0,0,-1,1378,834,0,0
161,190,0,0,0,0,0,0,0,0,0,-1,1385,834,0,0
168,190,0,0,0,0,0,0,0,0,0,-1,1392,834,0,0
175,190,0,0,0,0,0,0,0,0,0,-1,1399,834,0,0
182,190,0,0,0,0,0,0,0,0,0,-1,1406,834,0,0
189,190,0,0,0,0,0,0,0,0,0,-1,1413,834,0,0
196,190,0,0,0,0,0,0,0,0,0,-1,1420,834,0,0
203,190,0,0,0,0,0,0,0,0,0,-1,1427,834,0,0
210,190,0,0,0,0,0,0,0,0,0,-1,1434,834,0,0
217,190,0,0,0,0,0,0,0,0,0,-1,1441,834,0,0
224,190,0,0,0,0,0,0,0,0,0,-1,1448,834,0,0
231,190,0,0,0,0,0,0,0,0,0,-1,1455,834,0,0
238,190,0,0,0,0,0,0,0,0,0,-1,1462,834,0,0
245,190,0,0,0,0,0,0,0,0,0,-1,1469,834,0,0
252,190,0,0,0,0,0,0,0,0,0,-1,1476,834,0,0
259,190,0,0,0,0,0,0,0,0,0,-1,1483,834,0,0
266,190,0,0,0,0,0,0,0,0,0,-1,1490,834,0,0
273,190,0,0,0,0,0,0,0,0,0,-1,1497,834,0,0
280,190,0,0,0,0,0,0,0,0,0,-1,1504,834,0,0
287,190,0,0,0,0,0,0,0,0,0,-1,1511,834,0,0
294,190,0,0,0,0,0,0,0,0,0,-1,1518,834,0,0
301,190,0,0,0,0,0,0,0,0,0,-1,1525,834,0,0
308,190,0,0,0,0,0,0,0,0,0,-1,1532,834,0,0
315,190,0,0,0,0,0,0,0,0,0,-1,1539,834,0,0
322,190,0,0,0,0,0,0,0,0,0,-1,1546,834,0,0
329,190,0,0,0,0,0,0,0,0,0,-1,1553,834,0,0
336,190,0,0,0,0,0,0,0,0,0,-1,1560,834,0,0
343,190,0,0,0,0,0,0,0,0,0,-1,1567,834,0,0
350,190,0,0,0,0,0,0,0,0,0,-1,1574,834,0,0
357,190,0,0,0,0,0,0,0,0,0,-1,1581,834,0,0
364,190,0,0,0,0,0,0,0,0,0,-1,1588,834,0,0
371,190,0,0,0,0,0,0,0,0,0,-1,1595,834,0,0
378,190,0,0,0,0,0,0,0,0,0,-1,1602,834,0,0
385,190,0,0,0,0,0,0,0,0,0,-1,1609,834,0,0
392,190,0,0,0,0,0,0,0,0,0,-1,1616,834,0,0
399,190,0,0,0,0,0,0,0,0,0,-1,1623,834,0,0
406,190,0,0,0,0,0,0,0,0,0,-1,1630,834,0,0
413,190,0,0,0,0,0,0,0,0,0,-1,1637,834,0,0
420,190,0,0,0,0,0,0,0,0,0,-1,1644,834,0,0
427,190,0,0,0,0,0,0,0,0,0,-1,1651,834,0,0
434,190,0,0,0,0,0,0,0,0,0,-1,1658,834,0,0
441,190,0,0,0,0,0,0,0,0,0,-1,1665,834,0,0
448,190,0,0,0,0,0,0,0,0,0,-1,1672,834,0,0
455,190,0,0,0,0,0,0,0,0,0,-1,1679,834,0,0
462,190,0,0,0,0,0,0,0,0,0,-1,1686,834,0,0
469,190,0,0,0,0,0,0,0,0,0,-1,1693,834,0,0
476,190,0,0,0,0,0,0,0,0,0,-1,1700,834,0,0
483,190,0,0,0,0,0,0,0,0,0,-1,1707,834,0,0
490,190,0,0,0,0,0,0,0,0,0,-1,1714,834,0,0
497,190,0,0,0,0,0,0,0,0,0,-1,1721,834,0,0
504,190,0,0,0,0,0,0,0,0,0,-1,1728,834,0,0
511,190,0,0,0,0,0,0,0,0,0,-1,1735,834,0,0
518,190,0,0,0,0,0,0,0,0,0,-1,1742,834,0,0
525,190,0,0,0,0,0,0,0,0,0,-1,1749,834,0,0
532,190,0,0,0,0,0,0,0,0,0,-1,1756,834,0,0
539,190,0,0,0,0,0,0,0,0,0,-1,1763,834,0,0
546,190,0,0,0,0,0,0,0,0,0,-1,1770,834,0,0
553,190,0,0,0,0,0,0,0,0,0,-1,1777,834,0,0
560,190,0,0,0,0,0,0,0,0,0,-1,1784,834,0,0
567,190,0,0,0,0,0,0,0,0,0,-1,1791,834,0,0
574,190,0,0,0,0,0,0,0,0,0,-1,1798,834,0,0
581,190,0,0,0,0,0,0,0,0,0,-1,1805,834,0,0
588,190,0,0,0,0,0,0,0,0,0,-1,1812,834,0,0
595,190,0,0,0,0,0,0,0,0,0,-1,1819,834,0,0
602,190,15.1831,2.39789,0.00255595,-0.006701,-0.000789928,0.00262287,-0.00676792,-0.0845192,0.00559506,0.0445457,1826,834,15.183,-2.39789
609,190,15.1802,2.58044,0.00195148,-0.00421313,-0.000211152,0.0019587,-0.00422035,-0.0341988,0.00364626,0.0436568,1833,834,15.1802,-2.58042
616,190,15.2976,2.51044,0.00148777,-0.00201546,0.000541113,0.00156944,-0.00209713,0.149811,0.00212419,0.0411812,1840,834,15.2976,-2.51043
623,190,15.3434,2.26373,0.000842218,-0.000474664,0.00131976,0.00165867,-0.00129112,0.554011,0.00170746,0.0375463,1847,834,15.3434,-2.26372
630,190,15.3204,2.22333,-0.000409776,0.000287997,0.00148305,0.00146265,-0.00158443,0.900922,0.0017597,0.0376629,1854,834,15.3204,-2.22331
637,190,15.3136,2.29626,-0.00185313,0.00058792,0.00130916,0.00115725,-0.00242246,1.16059,0.00210934,0.0315863,1861,834,15.3136,-2.29627
644,190,15.2194,2.37915,-0.00309987,0.000593268,0.00100839,0.000850664,-0.00335727,1.32088,0.00256911,0.0264442,1868,834,15.2193,-2.37912
651,190,15.2024,2.55811,-0.00400266,0.00042785,0.000601541,0.00050807,-0.00408288,1.43822,0.00290612,0.0384361,1875,834,15.2024,-2.55809
658,190,15.2356,2.70209,-0.00466696,0.000257526,-2.79494e-06,0.000257528,-0.00466697,-1.57023,0.00320061,0.0459986,1882,834,15.2356,-2.70209
665,190,12.9438,2.21344,0,0,0,0,0,0,0,-1,1889,834,12.9439,-2.21346
672,190,12.6412,2.21057,-0.005973,-7.07568e-05,-0.000915422,6.79626e-05,-0.00611172,-1.4204,0.00409732,0.0498722,1896,834,12.6413,-2.21057
679,190,12.4452,2.04175,-0.00632123,-0.000295398,-0.0012911,-3.04186e-05,-0.00658621,-1.36837,0.0043807,0.0248337,1903,834,12.4452,-2.04176
686,190,12.389,2.09772,-0.00611147,-0.000490861,-0.00171819,-7.23195e-06,-0.00659509,-1.29642,0.00439432,0.0112303,1910,834,12.389,-2.09769
693,190,12.3894,2.21936,-0.00523581,-0.000555856,-0.00198017,0.000169551,-0.00596122,-1.21964,0.00403185,0.0119684,1917,834,12.3894,-2.21934
700,190,12.3971,2.35663,-0.00375491,-0.000819788,-0.00212867,0.000298181,-0.00487287,-1.0872,0.0033524,0.0113182,1924,834,12.3971,-2.35664
707,190,12.4177,2.48492,-0.00206392,-0.000660296,-0.00219344,0.000940877,-0.00366509,-0.940231,0.00281002,0.0125366,1931,834,12.4177,-2.48492
714,190,12.4297,2.61761,4.07006e-05,-0.0011092,-0.00207586,0.00161976,-0.00268826,-0.650299,0.00251261,0.0106641,1938,834,12.4297,-2.61763
721,190,12.4082,2.75885,0.00267147,-0.00123018,-0.00193574,0.00346888,-0.00202759,-0.390758,0.00320955,0.0100426,1945,834,12.4082,-2.75882
728,190,12.3916,2.90039,0.00561423,-0.00151914,-0.00191748,0.00609698,-0.00200189,-0.24664,0.00487106,0.0122223,1952,834,12.3917,-2.90038
735,190,12.4036,3.03595,0.00870313,-0.00200169,-0.00223158,0.00914971,-0.00244827,-0.197508,0.00705886,0.0115966,1959,834,12.4036,-3.03597
742,190,12.3881,3.2132,0.011885,-0.00293941,-0.00297208,0.0124586,-0.00351306,-0.190672,0.00969141,0.0150284,1966,834,12.3881,-3.21322
749,190,12.3579,3.4046,0.0156431,-0.0041761,-0.00394696,0.0164002,-0.00493321,-0.189519,0.0128963,0.0359496,1973,834,12.3579,-3.40463
756,190,12.3347,3.5968,0,0,0,0,0,0,0,-1,1980,834,12.3347,-3.59683
763,190,11.6757,3.35895,0,0,0,0,0,0,0,-1,1987,834,11.6756,-3.35892
770,190,12.5709,2.94183,0,0,0,0,0,0,0,-1,1994,834,12.5709,-2.94185
777,190,13.0436,3.05817,0,0,0,0,0,0,0,-1,2001,834,13.0436,-3.05816
784,190,0,0,0,0,0,0,0,0,0,-1,2008,834,0,0
791,190,0,0,0,0,0,0,0,0,0,-1,2015,834,0,0
798,190,0,0,0,0,0,0,0,0,0,-1,2022,834,0,0
805,190,0,0,0,0,0,0,0,0,0,-1,2029,834,0,0
812,190,0,0,0,0,0,0,0,0,0,-1,2036,834,0,0
-700,183,0,0,0,0,0,0,0,0,0,-1,524,841,0,0
-693,183,0,0,0,0,0,0,0,0,0,-1,531,841,0,0
-686,183,0,0,0,0,0,0,0,0,0,-1,538,841,0,0
-679,183,0,0,0,0,0,0,0,0,0,-1,545,841,0,0
-672,183,0,0,0,0,0,0,0,0,0,-1,552,841,0,0
-665,183,0,0,0,0,0,0,0,0,0,-1,559,841,0,0
-658,183,-8.55402,-2.39142,0,0,0,0,0,0,0,-1,566,841,-8.554,2.39141
-651,183,-8.40521,-2.02942,0.0341405,0.00424432,0.00639068,0.0354493,0.00293553,0.202004,0.0227176,0.0480571,573,841,-8.40521,2.02939
-644,183,-8.25159,-1.53009,0.0237213,0.00477083,0.0121634,0.0296645,-0.00117238,0.454497,0.0201785,0.0450144,580,841,-8.25158,1.5301
-637,183,-8.01556,-1.08734,0.0166524,0.00467516,0.0148465,0.0266726,-0.00534501,0.593694,0.0198053,0.0460097,587,841,-8.01559,1.08736
-630,183,-7.69739,1.27057,0,0,0,0,0,0,0,-1,594,841,-7.69737,-1.27058
-623,183,-7.63916,1.18591,0.00878597,0.00368126,0.01468,0.0211339,-0.00866666,0.699326,0.0177001,0.0497308,601,841,-7.63917,-1.18589
-616,183,-7.50476,1.15076,0.00656322,0.00314895,0.013185,0.0181511,-0.00843896,0.721018,0.0156894,0.0379293,608,841,-7.50476,-1.15074
-609,183,-7.39862,1.07147,0.00447767,0.00281996,0.0115409,0.0152194,-0.0079218,0.74955,0.0135802,0.0159716,615,841,-7.39859,-1.07147
-602,183,-7.38275,0.992065,0.00226978,0.00207458,0.00970791,0.0118806,-0.00753622,0.780371,0.0113034,0.0108289,622,841,-7.38277,-0.992091
-595,183,-7.396,0.872986,0.000372919,0.00065062,0.00790567,0.00841866,-0.00739512,0.794179,0.00913646,0.0104865,629,841,-7.39603,-0.872992
-588,183,-7.40509,0.761169,-0.00122075,-0.000572883,0.00628633,0.00539785,-0.00719148,0.81114,0.007293,0.00998019,636,841,-7.40511,-0.761167
-581,183,-7.41748,0.63208,-0.00283779,-0.000350523,0.00527859,0.00382895,-0.00701726,0.901088,0.00635161,0.0113822,643,841,-7.41746,-0.632075
-574,183,-7.4101,0.501038,-0.0049049,-0.000964694,0.00486952,0.00231815,-0.00818775,0.977622,0.00637333,0.0118826,650,841,-7.41008,-0.501016
-567,183,-7.3913,0.378601,-0.00783328,-0.00280258,0.00480133,0.000102377,-0.0107382,1.02668,0.0071932,0.0146086,657,841,-7.39128,-0.378617
-560,183,-7.47394,0.302979,-0.0102983,-0.00389338,0.00527212,-0.000927283,-0.0132644,1.05833,0.00855059,0.0159876,664,841,-7.47393,-0.302964
-553,183,-7.42969,0.138245,-0.011914,-0.00471406,0.00578553,-0.00149991,-0.0151281,1.0637,0.00962448,0.0135274,671,841,-7.42969,-0.13826
-546,183,-7.37262,-0.0150757,-0.0128462,-0.00543136,0.00625207,-0.00187014,-0.0164074,1.05302,0.0103713,0.0339002,678,841,-7.37262,0.0150894
-539,183,-7.56519,-0.0865479,-0.0130515,-0.0061351,0.00645989,-0.00226599,-0.0169206,1.03115,0.0106061,0.0425182,685,841,-7.56516,0.0865264
-532,183,-8.20251,0.402832,-0.0126887,-0.00664467,0.00641014,-0.0025799,-0.0167535,1.00567,0.0104161,0.0460603,692,841,-8.20254,-0.402803
-525,183,-8.97858,0.653259,0,0,0,0,0,0,0,-1,699,841,-8.97856,-0.653242
-518,183,-9.57526,0.406311,-0.00979687,-0.006844,0.00525273,-0.00286415,-0.0137767,0.922403,0.00839425,0.0456151,706,841,-9.57527,-0.406309
-511,183,-9.5722,0.431396,-0.00667319,-0.00627429,0.00404766,-0.00242117,-0.0105263,0.810017,0.00636586,0.0412744,713,841,-9.57218,-0.431386
-504,183,-9.67645,0.494019,-0.00209929,-0.00505746,0.00231074,-0.000834798,-0.00632195,0.500709,0.00396576,0.0426934,720,841,-9.67643,-0.494012
-497,183,-9.47827,1.29596,0.00413283,-0.00304099,1.84393e-05,0.00413287,-0.00304104,0.00257033,0.00415782,0.0437041,727,841,-9.47826,-1.29599
-490,183,-9.237,1.17499,0.0114924,-0.000162033,-0.00256646,0.0120325,-0.00070217,-0.207432,0.00826569,0.0438838,734,841,-9.23701,-1.17497
-483,183,0,0,0,0,0,0,0,0,0,-1,741,841,0,0
-476,183,0,0,0,0,0,0,0,0,0,-1,748,841,0,0
-469,183,0,0,0,0,0,0,0,0,0,-1,755,841,0,0
-462,183,0,0,0,0,0,0,0,0,0,-1,762,841,0,0
-455,183,0,0,0,0,0,0,0,0,0,-1,769,841,0,0
-448,183,0,0,0,0,0,0,0,0,0,-1,776,841,0,0
-441,183,0,0,0,0,0,0,0,0,0,-1,783,841,0,0
-434,183,0,0,0,0,0,0,0,0,0,-1,790,841,0,0
-427,183,0,0,0,0,0,0,0,0,0,-1,797,841,0,0
-420,183,0,0,0,0,0,0,0,0,0,-1,804,841,0,0
-413,183,0,0,0,0,0,0,0,0,0,-1,811,841,0,0
-406,183,0,0,0,0,0,0,0,0,0,-1,818,841,0,0
-399,183,0,0,0,0,0,0,0,0,0,-1,825,841,0,0
-392,183,0,0,0,0,0,0,0,0,0,-1,832,841,0,0
-385,183,0,0,0,0,0,0,0,0,0,-1,839,841,0,0
-378,183,0,0,0,0,0,0,0,0,0,-1,846,841,0,0
-371,183,0,0,0,0,0,0,0,0,0,-1,853,841,0,0
-364,183,0,0,0,0,0,0,0,0,0,-1,860,841,0,0
-357,183,0,0,0,0,0,0,0,0,0,-1,867,841,0,0
-350,183,0,0,0,0,0,0,0,0,0,-1,874,841,0,0
-343,183,0,0,0,0,0,0,0,0,0,-1,881,841,0,0
-336,183,0,0,0,0,0,0,0,0,0,-1,888,841,0,0
-329,183,0,0,0,0,0,0,0,0,0,-1,895,841,0,0
-322,183,0,0,0,0,0,0,0,0,0,-1,902,841,0,0
-315,183,0,0,0,0,0,0,0,0,0,-1,909,841,0,0
-308,183,0,0,0,0,0,0,0,0,0,-1,916,841,0,0
-301,183,0,0,0,0,0,0,0,0,0,-1,923,841,0,0
-294,183,0,0,0,0,0,0,0,0,0,-1,930,841,0,0
-287,183,0,0,0,0,0,0,0,0,0,-1,937,841,0,0
-280,183,0,0,0,0,0,0,0,0,0,-1,944,841,0,0
-273,183,0,0,0,0,0,0,0,0,0,-1,951,841,0,0
-266,183,0,0,0,0,0,0,0,0,0,-1,958,841,0,0
-259,183,0,0,0,0,0,0,0,0,0,-1,965,841,0,0
-252,183,0,0,0,0,0,0,0,0,0,-1,972,841,0,0
-245,183,0,0,0,0,0,0,0,0,0,-1,979,841,0,0
-238,183,0,0,0,0,0,0,0,0,0,-1,986,841,0,0
-231,183,0,0,0,0,0,0,0,0,0,-1,993,841,0,0
-224,183,0,0,0,0,0,0,0,0,0,-1,1000,841,0,0
-217,183,0,0,0,0,0,0,0,0,0,-1,1007,841,0,0
-210,183,0,0,0,0,0,0,0,0,0,-1,1014,841,0,0
-203,183,0,0,0,0,0,0,0,0,0,-1,1021,841,0,0
-196,183,0,0,0,0,0,0,0,0,0,-1,1028,841,0,0
-189,183,0,0,0,0,0,0,0,0,0,-1,1035,841,0,0
-182,183,0,0,0,0,0,0,0,0,0,-1,1042,841,0,0
-175,183,0,0,0,0,0,0,0,0,0,-1,1049,841,0,0
-168,183,0,0,0,0,0,0,0,0,0,-1,1056,841,0,0
-161,183,0,0,0,0,0,0,0,0,0,-1,1063,841,0,0
-154,183,0,0,0,0,0,0,0,0,0,-1,1070,841,0,0
-147,183,0,0,0,0,0,0,0,0,0,-1,1077,841,0,0
-140,183,0,0,0,0,0,0,0,0,0,-1,1084,841,0,0
-133,183,0,0,0,0,0,0,0,0,0,-1,1091,841,0,0
-126,183,0,0,0,0,0,0,0,0,0,-1,1098,841,0,0
-119,183,0,0,0,0,0,0,0,0,0,-1,1105,841,0,0
-112,183,0,0,0,0,0,0,0,0,0,-1,1112,841,0,0
-105,183,0,0,0,0,0,0,0,0,0,-1,1119,841,0,0
-98,183,0,0,0,0,0,0,0,0,0,-1,1126,841,0,0
-91,183,0,0,0,0,0,0,0,0,0,-1,1133,841,0,0
-84,183,0,0,0,0,0,0,0,0,0,-1,1140,841,0,0
-77,183,0,0,0,0,0,0,0,0,0,-1,1147,841,0,0
-70,183,0,0,0,0,0,0,0,0,0,-1,1154,841,0,0
-63,183,0,0,0,0,0,0,0,0,0,-1,1161,841,0,0
-56,183,0,0,0,0,0,0,0,0,0,-1,1168,841,0,0
-49,183,0,0,0,0,0,0,0,0,0,-1,1175,841,0,0
-42,183,0,0,0,0,0,0,0,0,0,-1,1182,841,0,0
-35,183,0,0,0,0,0,0,0,0,0,-1,1189,841,0,0
-28,183,0,0,0,0,0,0,0,0,0,-1,1196,841,0,0
-21,183,0,0,0,0,0,0,0,0,0,-1,1203,841,0,0
-14,183,0,0,0,0,0,0,0,0,0,-1,1210,841,0,0
-7,183,0,0,0,0,0,0,0,0,0,-1,1217,841,0,0
0,183,0,0,0,0,0,0,0,0,0,-1,1224,841,0,0
7,183,0,0,0,0,0,0,0,0,0,-1,1231,841,0,0
14,183,0,0,0,0,0,0,0,0,0,-1,1238,841,0,0
21,183,0,0,0,0,0,0,0,0,0,-1,1245,841,0,0
28,183,0,0,0,0,0,0,0,0,0,-1,1252,841,0,0
35,183,0,0,0,0,0,0,0,0,0,-1,1259,841,0,0
42,183,0,0,0,0,0,0,0,0,0,-1,1266,841,0,0
49,183,0,0,0,0,0,0,0,0,0,-1,1273,841,0,0
56,183,0,0,0,0,0,0,0,0,0,-1,1280,841,0,0
63,183,0,0,0,0,0,0,0,0,0,-1,1287,841,0,0
70,183,0,0,0,0,0,0,0,0,0,-1,1294,841,0,0
77,183,0,0,0,0,0,0,0,0,0,-1,1301,841,0,0
84,183,0,0,0,0,0,0,0,0,0,-1,1308,841,0,0
91,183,0,0,0,0,0,0,0,0,0,-1,1315,841,0,0
98,183,0,0,0,0,0,0,0,0,0,-1,1322,841,0,0
105,183,0,0,0,0,0,0,0,0,0,-1,1329,841,0,0
112,183,0,0,0,0,0,0,0,0,0,-1,1336,841,0,0
119,183,0,0,0,0,0,0,0,0,0,-1,1343,841,0,0
126,183,0,0,0,0,0,0,0,0,0,-1,1350,841,0,0
133,183,0,0,0,0,0,0,0,0,0,-1,1357,841,0,0
140,183,0,0,0,0,0,0,0,0,0,-1,1364,841,0,0
147,183,0,0,0,0,0,0,0,0,0,-1,1371,841,0,0
154,183,0,0,0,0,0,0,0,0,0,-1,1378,841,0,0
161,183,0,0,0,0,0,0,0,0,0,-1,1385,841,0,0
168,183,0,0,0,0,0,0,0,0,0,-1,1392,841,0,0
175,183,0,0,0,0,0,0,0,0,0,-1,1399,841,0,0
182,183,0,0,0,0,0,0,0,0,0,-1,1406,841,0,0
189,183,0,0,0,0,0,0,0,0,0,-1,1413,841,0,0
196,183,0,0,0,0,0,0,0,0,0,-1,1420,841,0,0
203,183,0,0,0,0,0,0,0,0,0,-1,1427,841,0,0
210,183,0,0,0,0,0,0,0,0,0,-1,1434,841,0,0
217,183,0,0,0,0,0,0,0,0,0,-1,1441,841,0,0
224,183,0,0,0,0,0,0,0,0,0,-1,1448,841,0,0
231,183,0,0,0,0,0,0,0,0,0,-1,1455,841,0,0
238,183,0,0,0,0,0,0,0,0,0,-1,1462,841,0,0
245,183,0,0,0,0,0,0,0,0,0,-1,1469,841,0,0
252,183,0,0,0,0,0,0,0,0,0,-1,1476,841,0,0
259,183,0,0,0,0,0,0,0,0,0,-1,1483,841,0,0
266,183,0,0,0,0,0,0,0,0,0,-1,1490,841,0,0
273,183,0,0,0,0,0,0,0,0,0,-1,1497,841,0,0
280,183,0,0,0,0,0,0,0,0,0,-1,1504,841,0,0
287,183,0,0,0,0,0,0,0,0,0,-1,1511,841,0,0
294,183,0,0,0,0,0,0,0,0,0,-1,1518,841,0,0
301,183,0,0,0,0,0,0,0,0,0,-1,1525,841,0,0
308,183,0,0,0,0,0,0,0,0,0,-1,1532,841,0,0
315,183,0,0,0,0,0,0,0,0,0,-1,1539,841,0,0
322,183,0,0,0,0,0,0,0,0,0,-1,1546,841,0,0
329,183,0,0,0,0,0,0,0,0,0,-1,1553,841,0,0
336,183,0,0,0,0,0,0,0,0,0,-1,1560,841,0,0
343,183,0,0,0,0,0,0,0,0,0,-1,1567,841,0,0
350,183,0,0,0,0,0,0,0,0,0,-1,1574,841,0,0
357,183,0,0,0,0,0,0,0,0,0,-1,1581,841,0,0
364,183,0,0,0,0,0,0,0,0,0,-1,1588,841,0,0
371,183,0,0,0,0,0,0,0,0,0,-1,1595,841,0,0
378,183,0,0,0,0,0,0,0,0,0,-1,1602,841,0,0
385,183,0,0,0,0,0,0,0,0,0,-1,1609,841,0,0
392,183,0,0,0,0,0,0,0,0,0,-1,1616,841,0,0
399,183,0,0,0,0,0,0,0,0,0,-1,1623,841,0,0
406,183,0,0,0,0,0,0,0,0,0,-1,1630,841,0,0
413,183,0,0,0,0,0,0,0,0,0,-1,1637,841,0,0
420,183,0,0,0,0,0,0,0,0,0,-1,1644,841,0,0
427,183,0,0,0,0,0,0,0,0,0,-1,1651,841,0,0
434,183,0,0,0,0,0,0,0,0,0,-1,1658,841,0,0
441,183,0,0,0,0,0,0,0,0,0,-1,1665,841,0,0
448,183,0,0,0,0,0,0,0,0,0,-1,1672,841,0,0
455,183,0,0,0,0,0,0,0,0,0,-1,1679,841,0,0
462,183,0,0,0,0,0,0,0,0,0,-1,1686,841,0,0
469,183,0,0,0,0,0,0,0,0,0,-1,1693,841,0,0
476,183,0,0,0,0,0,0,0,0,0,-1,1700,841,0,0
483,183,0,0,0,0,0,0,0,0,0,-1,1707,841,0,0
490,183,0,0,0,0,0,0,0,0,0,-1,1714,841,0,0
497,183,0,0,0,0,0,0,0,0,0,-1,1721,841,0,0
504,183,0,0,0,0,0,0,0,0,0,-1,1728,841,0,0
511,183,0,0,0,0,0,0,0,0,0,-1,1735,841,0,0
518,183,0,0,0,0,0,0,0,0,0,-1,1742,841,0,0
525,183,0,0,0,0,0,0,0,0,0,-1,1749,841,0,0
532,183,0,0,0,0,0,0,0,0,0,-1,1756,841,0,0
539,183,0,0,0,0,0,0,0,0,0,-1,1763,841,0,0
546,183,0,0,0,0,0,0,0,0,0,-1,1770,841,0,0
553,183,0,0,0,0,0,0,0,0,0,-1,1777,841,0,0
560,183,0,0,0,0,0,0,0,0,0,-1,1784,841,0,0
567,183,0,0,0,0,0,0,0,0,0,-1,1791,841,0,0
574,183,0,0,0,0,0,0,0,0,0,-1,1798,841,0,0
581,183,0,0,0,0,0,0,0,0,0,-1,1805,841,0,0
588,183,0,0,0,0,0,0,0,0,0,-1,1812,841,0,0
595,183,0,0,0,0,0,0,0,0,0,-1,1819,841,0,0
602,183,0,0,0,0,0,0,0,0,0,-1,1826,841,0,0
609,183,15.2766,2.84369,0,0,0,0,0,0,0,-1,1833,841,15.2766,-2.84368
616,183,15.1736,2.48468,0.00255362,-0.00392752,-0.000215234,0.00256076,-0.00393466,-0.0331606,0.00377799,0.0410923,1840,841,15.1736,-2.48467
623,183,15.1803,2.08209,0.0015588,-0.00174555,0.0008792,0.00177817,-0.00196492,0.244517,0.00216197,0.0413216,1847,841,15.1803,-2.08211
630,183,15.2441,2.12347,5.55798e-05,-0.000437846,0.00125482,0.00108771,-0.00146998,0.68833,0.00148217,0.0405023,1854,841,15.2442,-2.12345
637,183,15.2795,2.30151,-0.00177022,0.000232625,0.00107733,0.000702078,-0.00223968,1.15985,0.00177407,0.0363454,1861,841,15.2796,-2.30149
644,183,15.1396,2.38855,-0.00341542,0.000493738,0.000691973,0.000612612,-0.00353429,1.40067,0.00258471,0.0291008,1868,841,15.1397,-2.38857
651,183,15.1779,2.45618,-0.00466318,0.000494393,0.000197299,0.00050193,-0.00467072,1.53262,0.00329389,0.0255571,1875,841,15.1778,-2.45617
658,183,15.2592,2.53607,-0.00558341,0.000415938,-0.000458155,0.000450724,-0.0056182,-1.49501,0.00390439,0.0440041,1882,841,15.2592,-2.5361
665,183,13.1571,2.19299,0,0,0,0,0,0,0,-1,1889,841,13.1571,-2.19301
672,183,12.8373,2.06134,-0.00710189,0.000188338,-0.00147048,0.000473768,-0.00738732,-1.37907,0.00509016,0.0471182,1896,841,12.8373,-2.06134
679,183,12.5765,1.98608,-0.00754191,-2.79453e-05,-0.00183979,0.00039834,-0.0079682,-1.34311,0.00544977,0.0325874,1903,841,12.5766,-1.98607
686,183,12.5676,2.09326,-0.0074693,-0.000262107,-0.0022451,0.000380045,-0.00811146,-1.29221,0.00553867,0.0139537,1910,841,12.5676,-2.09328
693,183,12.5645,2.23541,-0.00666884,-0.000388237,-0.00248998,0.000479138,-0.00753622,-1.2356,0.00519123,0.0113433,1917,841,12.5644,-2.23542
700,183,12.5563,2.3609,-0.00523866,-0.000637316,-0.00255999,0.000503911,-0.00637988,-1.15145,0.00443079,0.0140041,1924,841,12.5563,-2.36093
707,183,12.5594,2.49536,-0.00346832,-0.00051358,-0.00256354,0.000967823,-0.00494972,-1.0468,0.00366526,0.0115456,1931,841,12.5594,-2.49538
714,183,12.5824,2.62024,-0.00122393,-0.000955275,-0.00236262,0.00127683,-0.00345604,-0.813796,0.00282743,0.0148423,1938,841,12.5824,-2.62024
721,183,12.5569,2.77124,0.00156811,-0.00101802,-0.00209906,0.00274041,-0.00219033,-0.50934,0.00285266,0.0135555,1945,841,12.5569,-2.77121
728,183,12.5374,2.90985,0.00467465,-0.00111719,-0.00192713,0.00525726,-0.00169981,-0.293585,0.00418805,0.0117629,1952,841,12.5373,-2.90984
735,183,12.541,3.02228,0.00792578,-0.00121864,-0.00201895,0.0083517,-0.00164456,-0.20791,0.00618925,0.0113277,1959,841,12.541,-3.02229
742,183,12.5583,3.17273,0.0111544,-0.00165029,-0.00252829,0.0116355,-0.00213142,-0.188051,0.00855644,0.0103958,1966,841,12.5584,-3.17271
749,183,12.546,3.35712,0.0148174,-0.00213581,-0.00323277,0.0154129,-0.00273134,-0.182174,0.0112964,0.0281652,1973,841,12.546,-3.35715
756,183,12.5645,3.5329,0.019207,-0.00248581,-0.00401379,0.0199259,-0.00320465,-0.177215,0.0144709,0.0427636,1980,841,12.5645,-3.53292
763,183,12.5994,3.7854,0,0,0,0,0,0,0,-1,1987,841,12.5993,-3.7854
770,183,13.1945,2.34015,0,0,0,0,0,0,0,-1,1994,841,13.1944,-2.34013
777,183,13.6775,2.40179,0,0,0,0,0,0,0,-1,2001,841,13.6774,-2.40179
784,183,0,0,0,0,0,0,0,0,0,-1,2008,841,0,0
791,183,0,0,0,0,0,0,0,0,0,-1,2015,841,0,0
798,183,0,0,0,0,0,0,0,0,0,-1,2022,841,0,0
805,183,0,0,0,0,0,0,0,0,0,-1,2029,841,0,0
812,183,0,0,0,0,0,0,0,0,0,-1,2036,841,0,0
-700,176,0,0,0,0,0,0,0,0,0,-1,524,848,0,0
-693,176,0,0,0,0,0,0,0,0,0,-1,531,848,0,0
-686,176,0,0,0,0,0,0,0,0,0,-1,538,848,0,0
-679,176,0,0,0,0,0,0,0,0,0,-1,545,848,0,0
-672,176,0,0,0,0,0,0,0,0,0,-1,552,848,0,0
-665,176,-8.46942,-2.30402,0,0,0,0,0,0,0,-1,559,848,-8.46939,2.30401
-658,176,-7.95898,-2.42297,0,0,0,0,0,0,0,-1,566,848,-7.95901,2.42297
-651,176,-7.82867,-1.95374,0.0386701,-0.00306858,0.00244566,0.0388129,-0.0032114,0.0583286,0.0270094,0.0458543,573,848,-7.82867,1.95374
-644,176,-7.698,-1.46649,0.0255749,-0.00133171,0.00847231,0.0280203,-0.0037772,0.281007,0.0200582,0.0427747,580,848,-7.69798,1.46649
-637,176,-7.53241,-0.911316,0.0164043,-0.000410541,0.0114997,0.0222422,-0.00624837,0.46975,0.0172914,0.0430298,587,848,-7.53243,0.911294
-630,176,-7.57471,-0.34436,0.010222,2.14334e-05,0.0124492,0.0185752,-0.00833174,0.590983,0.0159056,0.041708,594,848,-7.57473,0.344334
-623,176,-7.66626,0.284607,0.00623231,0.000173088,0.0120295,0.0156079,-0.00920248,0.66204,0.0144825,0.0399558,601,848,-7.66629,-0.284627
-616,176,-7.55994,1.19067,0.0036801,0.000305665,0.0108916,0.0130143,-0.00902858,0.708554,0.0127957,0.0273772,608,848,-7.55993,-1.19069
-609,176,-7.51447,1.08972,0.00154003,0.000594389,0.00964701,0.0107258,-0.00859137,0.760912,0.0111754,0.0111863,615,848,-7.51446,-1.0897
-602,176,-7.52551,0.978394,-0.000667937,0.00034514,0.00822596,0.00808014,-0.00840294,0.816148,0.00951712,0.0116795,622,848,-7.52551,-0.97842
-595,176,-7.53503,0.865295,-0.00230405,-0.000651599,0.00677725,0.0053496,-0.00830525,0.846055,0.00794496,0.0109865,629,848,-7.53506,-0.865284
-588,176,-7.51416,0.740356,-0.00366832,-0.00166382,0.00545397,0.00287922,-0.00821136,0.876267,0.00664525,0.0113934,636,848,-7.51413,-0.740365
-581,176,-7.52692,0.633301,-0.00489287,-0.00112449,0.00470962,0.00206386,-0.00808123,0.975682,0.00619119,0.0116635,643,848,-7.52694,-0.633289
-574,176,-7.53558,0.520081,-0.00636031,-0.00149414,0.00458547,0.00126377,-0.00911822,1.02931,0.00654089,0.0133033,650,848,-7.53559,-0.520106
-567,176,-7.49957,0.43573,-0.00871716,-0.00291866,0.00483532,-0.000179999,-0.0114558,1.05546,0.00757793,0.0179823,657,848,-7.49956,-0.435721
-560,176,-7.58167,0.313293,-0.0108266,-0.00380041,0.00532216,-0.000936425,-0.0136906,1.07712,0.00883149,0.0144642,664,848,-7.58167,-0.313321
-553,176,-7.54236,0.149902,-0.0122095,-0.00450816,0.00579477,-0.00140131,-0.0153163,1.07865,0.00977731,0.0246833,671,848,-7.54238,-0.14992
-546,176,-7.55579,-0.00817871,-0.0129468,-0.00507158,0.00622758,-0.00164119,-0.0163772,1.06731,0.0104143,0.0410578,678,848,-7.55579,0.00816564
-539,176,-8.40173,0.148315,-0.0129828,-0.00569264,0.00639955,-0.00197289,-0.0167026,1.04428,0.0105392,0.036555,685,848,-8.40174,-0.148296
-532,176,-9.05145,0.282227,0,0,0,0,0,0,0,-1,692,848,-9.05143,-0.282231
-525,176,-9.40063,0.697632,-0.0111208,-0.0063525,0.00583137,-0.00243673,-0.0150366,0.979454,0.00931895,0.0473976,699,848,-9.40062,-0.697641
-518,176,-9.422,0.656555,-0.00881108,-0.00619752,0.00496283,-0.0023723,-0.0126363,0.914132,0.00775533,0.0405911,706,848,-9.42201,-0.656561
-511,176,-9.43488,0.614197,-0.00516016,-0.00556976,0.00362011,-0.00173906,-0.00899086,0.757142,0.00550653,0.0369132,713,848,-9.43486,-0.614193
-504,176,-9.53381,0.612,5.33403e-05,-0.00428546,0.00171828,0.000651392,-0.00488352,0.334938,0.00349311,0.038354,720,848,-9.53382,-0.612012
-497,176,-9.42151,1.02283,0.00684455,-0.00221412,-0.000683384,0.00689582,-0.00226539,-0.074875,0.00550983,0.040296,727,848,-9.42148,-1.02283
-490,176,-9.39398,1.04279,0.0141606,0.000645677,-0.00314954,0.0148585,-5.22551e-05,-0.218074,0.00992316,0.0405476,734,848,-9.39398,-1.04277
-483,176,0,0,0,0,0,0,0,0,0,-1,741,848,0,0
-476,176,0,0,0,0,0,0,0,0,0,-1,748,848,0,0
-469,176,0,0,0,0,0,0,0,0,0,-1,755,848,0,0
-462,176,0,0,0,0,0,0,0,0,0,-1,762,848,0,0
-455,176,0,0,0,0,0,0,0,0,0,-1,769,848,0,0
-448,176,0,0,0,0,0,0,0,0,0,-1,776,848,0,0
-441,176,0,0,0,0,0,0,0,0,0,-1,783,848,0,0
-434,176,0,0,0,0,0,0,0,0,0,-1,790,848,0,0
-427,176,0,0,0,0,0,0,0,0,0,-1,797,848,0,0
-420,176,0,0,0,0,0,0,0,0,0,-1,804,848,0,0
-413,176,0,0,0,0,0,0,0,0,0,-1,811,848,0,0
-406,176,0,0,0,0,0,0,0,0,0,-1,818,848,0,0
-399,176,0,0,0,0,0,0,0,0,0,-1,825,848,0,0
-392,176,0,0,0,0,0,0,0,0,0,-1,832,848,0,0
-385,176,0,0,0,0,0,0,0,0,0,-1,839,848,0,0
-378,176,0,0,0,0,0,0,0,0,0,-1,846,848,0,0
-371,176,0,0,0,0,0,0,0,0,0,-1,853,848,0,0
-364,176,0,0,0,0,0,0,0,0,0,-1,860,848,0,0
-357,176,0,0,0,0,0,0,0,0,0,-1,867,848,0,0
-350,176,0,0,0,0,0,0,0,0,0,-1,874,848,0,0
-343,176,0,0,0,0,0,0,0,0,0,-1,881,848,0,0
-336,176,0,0,0,0,0,0,0,0,0,-1,888,848,0,0
-329,176,0,0,0,0,0,0,0,0,0,-1,895,848,0,0
-322,176,0,0,0,0,0,0,0,0,0,-1,902,848,0,0
-315,176,0,0,0,0,0,0,0,0,0,-1,909,848,0,0
-308,176,0,0,0,0,0,0,0,0,0,-1,916,848,0,0
-301,176,0,0,0,0,0,0,0,0,0,-1,923,848,0,0
-294,176,0,0,0,0,0,0,0,0,0,-1,930,848,0,0
-287,176,0,0,0,0,0,0,0,0,0,-1,937,848,0,0
-280,176,0,0,0,0,0,0,0,0,0,-1,944,848,0,0
-273,176,0,0,0,0,0,0,0,0,0,-1,951,848,0,0
-266,176,0,0,0,0,0,0,0,0,0,-1,958,848,0,0
-259,176,0,0,0,0,0,0,0,0,0,-1,965,848,0,0
-252,176,0,0,0,0,0,0,0,0,0,-1,972,848,0,0
-245,176,0,0,0,0,0,0,0,0,0,-1,979,848,0,0
-238,176,0,0,0,0,0,0,0,0,0,-1,986,848,0,0
-231,176,0,0,0,0,0,0,0,0,0,-1,993,848,0,0
-224,176,0,0,0,0,0,0,0,0,0,-1,1000,848,0,0
-217,176,0,0,0,0,0,0,0,0,0,-1,1007,848,0,0
-210,176,0,0,0,0,0,0,0,0,0,-1,1014,848,0,0
-203,176,0,0,0,0,0,0,0,0,0,-1,1021,848,0,0
-196,176,0,0,0,0,0,0,0,0,0,-1,1028,848,0,0
-189,176,0,0,0,0,0,0,0,0,0,-1,1035,848,0,0
-182,176,0,0,0,0,0,0,0,0,0,-1,1042,848,0,0
-175,176,0,0,0,0,0,0,0,0,0,-1,1049,848,0,0
-168,176,0,0,0,0,0,0,0,0,0,-1,1056,848,0,0
-161,176,0,0,0,0,0,0,0,0,0,-1,1063,848,0,0
-154,176,0,0,0,0,0,0,0,0,0,-1,1070,848,0,0
-147,176,0,0,0,0,0,0,0,0,0,-1,1077,848,0,0
-140,176,0,0,0,0,0,0,0,0,0,-1,1084,848,0,0
-133,176,0,0,0,0,0,0,0,0,0,-1,1091,848,0,0
-126,176,0,0,0,0,0,0,0,0,0,-1,1098,848,0,0
-119,176,0,0,0,0,0,0,0,0,0,-1,1105,848,0,0
-112,176,0,0,0,0,0,0,0,0,0,-1,1112,848,0,0
-105,176,0,0,0,0,0,0,0,0,0,-1,1119,848,0,0
-98,176,0,0,0,0,0,0,0,0,0,-1,1126,848,0,0
-91,176,0,0,0,0,0,0,0,0,0,-1,1133,848,0,0
-84,176,0,0,0,0,0,0,0,0,0,-1,1140,848,0,0
-77,176,0,0,0,0,0,0,0,0,0,-1,1147,848,0,0
-70,176,0,0,0,0,0,0,0,0,0,-1,1154,848,0,0
-63,176,0,0,0,0,0,0,0,0,0,-1,1161,848,0,0
-56,176,0,0,0,0,0,0,0,0,0,-1,1168,848,0,0
-49,176,0,0,0,0,0,0,0,0,0,-1,1175,848,0,0
-42,176,0,0,0,0,0,0,0,0,0,-1,1182,848,0,0
-35,176,0,0,0,0,0,0,0,0,0,-1,1189,848,0,0
-28,176,0,0,0,0,0,0,0,0,0,-1,1196,848,0,0
-21,176,0,0,0,0,0,0,0,0,0,-1,1203,848,0,0
-14,176,0,0,0,0,0,0,0,0,0,-1,1210,848,0,0
-7,176,0,0,0,0,0,0,0,0,0,-1,1217,848,0,0
0,176,0,0,0,0,0,0,0,0,0,-1,1224,848,0,0
7,176,0,0,0,0,0,0,0,0,0,-1,1231,848,0,0
14,176,0,0,0,0,0,0,0,0,0,-1,1238,848,0,0
21,176,0,0,0,0,0,0,0,0,0,-1,1245,848,0,0
28,176,0,0,0,0,0,0,0,0,0,-1,1252,848,0,0
35,176,0,0,0,0,0,0,0,0,0,-1,1259,848,0,0
42,176,0,0,0,0,0,0,0,0,0,-1,1266,848,0,0
49,176,0,0,0,0,0,0,0,0,0,-1,1273,848,0,0
56,176,0,0,0,0,0,0,0,0,0,-1,1280,848,0,0
63,176,0,0,0,0,0,0,0,0,0,-1,1287,848,0,0
70,176,0,0,0,0,0,0,0,0,0,-1,1294,848,0,0
77,176,0,0,0,0,0,0,0,0,0,-1,1301,848,0,0
84,176,0,0,0,0,0,0,0,0,0,-1,1308,848,0,0
91,176,0,0,0,0,0,0,0,0,0,-1,1315,848,0,0
98,176,0,0,0,0,0,0,0,0,0,-1,1322,848,0,0
105,176,0,0,0,0,0,0,0,0,0,-1,1329,848,0,0
112,176,0,0,0,0,0,0,0,0,0,-1,1336,848,0,0
119,176,0,0,0,0,0,0,0,0,0,-1,1343,848,0,0
126,176,0,0,0,0,0,0,0,0,0,-1,1350,848,0,0
133,176,0,0,0,0,0,0,0,0,0,-1,1357,848,0,0
140,176,0,0,0,0,0,0,0,0,0,-1,1364,848,0,0
147,176,0,0,0,0,0,0,0,0,0,-1,1371,848,0,0
154,176,0,0,0,0,0,0,0,0,0,-1,1378,848,0,0
161,176,0,0,0,0,0,0,0,0,0,-1,1385,848,0,0
168,176,0,0,0,0,0,0,0,0,0,-1,1392,848,0,0
175,176,0,0,0,0,0,0,0,0,0,-1,1399,848,0,0
182,176,0,0,0,0,0,0,0,0,0,-1,1406,848,0,0
189,176,0,0,0,0,0,0,0,0,0,-1,1413,848,0,0
196,176,0,0,0,0,0,0,0,0,0,-1,1420,848,0,0
203,176,0,0,0,0,0,0,0,0,0,-1,1427,848,0,0
210,176,0,0,0,0,0,0,0,0,0,-1,1434,848,0,0
217,176,0,0,0,0,0,0,0,0,0,-1,1441,848,0,0
224,176,0,0,0,0,0,0,0,0,0,-1,1448,848,0,0
231,176,0,0,0,0,0,0,0,0,0,-1,1455,848,0,0
238,176,0,0,0,0,0,0,0,0,0,-1,1462,848,0,0
245,176,0,0,0,0,0,0,0,0,0,-1,1469,848,0,0
252,176,0,0,0,0,0,0,0,0,0,-1,1476,848,0,0
259,176,0,0,0,0,0,0,0,0,0,-1,1483,848,0,0
266,176,0,0,0,0,0,0,0,0,0,-1,1490,848,0,0
273,176,0,0,0,0,0,0,0,0,0,-1,1497,848,0,0
280,176,0,0,0,0,0,0,0,0,0,-1,1504,848,0,0
287,176,0,0,0,0,0,0,0,0,0,-1,1511,848,0,0
294,176,0,0,0,0,0,0,0,0,0,-1,1518,848,0,0
301,176,0,0,0,0,0,0,0,0,0,-1,1525,848,0,0
308,176,0,0,0,0,0,0,0,0,0,-1,1532,848,0,0
315,176,0,0,0,0,0,0,0,0,0,-1,1539,848,0,0
322,176,0,0,0,0,0,0,0,0,0,-1,1546,848,0,0
329,176,0,0,0,0,0,0,0,0,0,-1,1553,848,0,0
336,176,0,0,0,0,0,0,0,0,0,-1,1560,848,0,0
343,176,0,0,0,0,0,0,0,0,0,-1,1567,848,0,0
350,176,0,0,0,0,0,0,0,0,0,-1,1574,848,0,0
357,176,0,0,0,0,0,0,0,0,0,-1,1581,848,0,0
364,176,0,0,0,0,0,0,0,0,0,-1,1588,848,0,0
371,176,0,0,0,0,0,0,0,0,0,-1,1595,848,0,0
378,176,0,0,0,0,0,0,0,0,0,-1,1602,848,0,0
385,176,0,0,0,0,0,0,0,0,0,-1,1609,848,0,0
392,176,0,0,0,0,0,0,0,0,0,-1,1616,848,0,0
399,176,0,0,0,0,0,0,0,0,0,-1,1623,848,0,0
406,176,0,0,0,0,0,0,0,0,0,-1,1630,848,0,0
413,176,0,0,0,0,0,0,0,0,0,-1,1637,848,0,0
420,176,0,0,0,0,0,0,0,0,0,-1,1644,848,0,0
427,176,0,0,0,0,0,0,0,0,0,-1,1651,848,0,0
434,176,0,0,0,0,0,0,0,0,0,-1,1658,848,0,0
441,176,0,0,0,0,0,0,0,0,0,-1,1665,848,0,0
448,176,0,0,0,0,0,0,0,0,0,-1,1672,848,0,0
455,176,0,0,0,0,0,0,0,0,0,-1,1679,848,0,0
462,176,0,0,0,0,0,0,0,0,0,-1,1686,848,0,0
469,176,0,0,0,0,0,0,0,0,0,-1,1693,848,0,0
476,176,0,0,0,0,0,0,0,0,0,-1,1700,848,0,0
483,176,0,0,0,0,0,0,0,0,0,-1,1707,848,0,0
490,176,0,0,0,0,0,0,0,0,0,-1,1714,848,0,0
497,176,0,0,0,0,0,0,0,0,0,-1,1721,848,0,0
504,176,0,0,0,0,0,0,0,0,0,-1,1728,848,0,0
511,176,0,0,0,0,0,0,0,0,0,-1,1735,848,0,0
518,176,0,0,0,0,0,0,0,0,0,-1,1742,848,0,0
525,176,0,0,0,0,0,0,0,0,0,-1,1749,848,0,0
532,176,0,0,0,0,0,0,0,0,0,-1,1756,848,0,0
539,176,0,0,0,0,0,0,0,0,0,-1,1763,848,0,0
546,176,0,0,0,0,0,0,0,0,0,-1,1770,848,0,0
553,176,0,0,0,0,0,0,0,0,0,-1,1777,848,0,0
560,176,0,0,0,0,0,0,0,0,0,-1,1784,848,0,0
567,176,0,0,0,0,0,0,0,0,0,-1,1791,848,0,0
574,176,0,0,0,0,0,0,0,0,0,-1,1798,848,0,0
581,176,0,0,0,0,0,0,0,0,0,-1,1805,848,0,0
588,176,0,0,0,0,0,0,0,0,0,-1,1812,848,0,0
595,176,0,0,0,0,0,0,0,0,0,-1,1819,848,0,0
602,176,0,0,0,0,0,0,0,0,0,-1,1826,848,0,0
609,176,14.6713,2.18579,0,0,0,0,0,0,0,-1,1833,848,14.6713,-2.18579
616,176,15.345,1.70447,0,0,0,0,0,0,0,-1,1840,848,15.3449,-1.70445
623,176,15.2284,1.93103,0.00288925,-0.00307858,6.95408e-05,0.00289006,-0.00307939,0.0116505,0.00344704,0.0438333,1847,848,15.2284,-1.93106
630,176,15.3284,2.14801,0.00131449,-0.00119571,0.000743504,0.00151818,-0.0013994,0.267402,0.00168493,0.0396061,1854,848,15.3283,-2.14804
637,176,15.3373,2.23431,-0.000899415,-0.000128923,0.000636124,0.000229517,-0.00125785,1.05767,0.00092462,0.0337397,1861,848,15.3373,-2.23434
644,176,15.1624,2.26648,-0.0030715,0.000401787,0.000212325,0.000414719,-0.00308443,1.50997,0.00220755,0.032162,1868,848,15.1624,-2.26647
651,176,15.1836,2.3299,-0.00482865,0.000572527,-0.000333067,0.000592988,-0.00484911,-1.50944,0.00344745,0.031026,1875,848,15.1836,-2.32988
658,176,15.2555,2.40613,-0.00615392,0.000582417,-0.00101114,0.000730919,-0.00630243,-1.42497,0.00446524,0.0366966,1882,848,15.2555,-2.40612
665,176,15.2561,2.54883,-0.00730075,0.000502018,-0.00162514,0.000826964,-0.0076257,-1.37345,0.00538068,0.0495937,1889,848,15.256,-2.54883
672,176,12.9174,1.75732,0,0,0,0,0,0,0,-1,1896,848,12.9174,-1.75732
679,176,12.8209,1.92554,-0.00878853,0.00022516,-0.00239677,0.000822841,-0.00938621,-1.32641,0.006549,0.0459024,1903,848,12.8209,-1.92555
686,176,12.7502,2.10358,-0.0088488,-4.9794e-05,-0.00276671,0.000747849,-0.00964644,-1.29011,0.00669419,0.0186726,1910,848,12.7503,-2.10355
693,176,12.7126,2.26837,-0.00813129,-0.000222099,-0.00298003,0.000775011,-0.0091284,-1.24791,0.0063597,0.0106598,1917,848,12.7126,-2.26838
700,176,12.7128,2.37982,-0.00678647,-0.000453898,-0.00295943,0.000713823,-0.00795419,-1.19497,0.00555604,0.0142635,1924,848,12.7128,-2.37981
707,176,12.7113,2.50537,-0.00497162,-0.000371899,-0.00289591,0.0010263,-0.00636982,-1.12099,0.00462674,0.012699,1931,848,12.7113,-2.50534
714,176,12.6984,2.63806,-0.00260108,-0.000758321,-0.00260027,0.00107898,-0.00443839,-0.955666,0.00337655,0.0112142,1938,848,12.6984,-2.63809
721,176,12.6908,2.77167,0.000348219,-0.000708072,-0.00220568,0.0020881,-0.00244795,-0.667886,0.00262164,0.0108768,1945,848,12.6908,-2.77169
728,176,12.6807,2.91058,0.00380256,-0.000550246,-0.00195762,0.00455345,-0.00130113,-0.366263,0.00354974,0.013161,1952,848,12.6806,-2.91056
735,176,12.6714,3.0293,0.00759768,-0.000588389,-0.00181444,0.00798182,-0.000972531,-0.208634,0.00567325,0.0129929,1959,848,12.6714,-3.02932
742,176,12.6876,3.15179,0.0112922,-0.000295445,-0.00228501,0.0117265,-0.000729756,-0.187829,0.00807193,0.0151768,1966,848,12.6876,-3.15177
749,176,12.7021,3.2663,0.0154219,-3.50931e-05,-0.00294147,0.0159627,-0.000575932,-0.181836,0.0108389,0.0241441,1973,848,12.7022,-3.2663
756,176,13.0281,3.39349,0.0204862,0.000688997,-0.00373023,0.0211657,9.46503e-06,-0.180193,0.0141073,0.040974,1980,848,13.028,-3.3935
763,176,13.4561,3.37604,0,0,0,0,0,0,0,-1,1987,848,13.4561,-3.37606
770,176,13.0372,3.91492,0,0,0,0,0,0,0,-1,1994,848,13.0373,-3.9149
777,176,14.3983,1.93964,0,0,0,0,0,0,0,-1,2001,848,14.3984,-1.93964
784,176,0,0,0,0,0,0,0,0,0,-1,2008,848,0,0
791,176,0,0,0,0,0,0,0,0,0,-1,2015,848,0,0
798,176,0,0,0,0,0,0,0,0,0,-1,2022,848,0,0
805,176,0,0,0,0,0,0,0,0,0,-1,2029,848,0,0
812,176,0,0,0,0,0,0,0,0,0,-1,2036,848,0,0
-700,169,0,0,0,0,0,0,0,0,0,-1,524,855,0,0
-693,169,0,0,0,0,0,0,0,0,0,-1,531,855,0,0
-686,169,0,0,0,0,0,0,0,0,0,-1,538,855,0,0
-679,169,0,0,0,0,0,0,0,0,0,-1,545,855,0,0
-672,169,0,0,0,0,0,0,0,0,0,-1,552,855,0,0
-665,169,-8.26544,-1.51379,0,0,0,0,0,0,0,-1,559,855,-8.26545,1.5138
-658,169,-7.50165,-1.59088,0,0,0,0,0,0,0,-1,566,855,-7.50164,1.59089
-651,169,-7.12042,-1.66431,0,0,0,0,0,0,0,-1,573,855,-7.1204,1.66432
-644,169,-7.13,-1.39063,0,0,0,0,0,0,0,-1,580,855,-7.13001,1.39062
-637,169,-6.74976,-0.541443,0.0166993,-0.00516836,0.00836759,0.0195337,-0.00800279,0.326608,0.0163563,0.0419407,587,855,-6.74978,0.541442
-630,169,-6.90143,-0.270447,0.0092866,-0.0038155,0.00959826,0.0143563,-0.00888524,0.485948,0.0135419,0.0431761,594,855,-6.90141,0.270425
-623,169,-7.65167,1.21698,0.00448061,-0.00288379,0.0094793,0.0109678,-0.00937094,0.600145,0.0117546,0.0393459,601,855,-7.65167,-1.21698
-616,169,-7.6651,1.16351,0.00152032,-0.00206226,0.00867772,0.00858971,-0.00913165,0.683616,0.010233,0.0217561,608,855,-7.66508,-1.16354
-609,169,-7.63586,1.09888,-0.000774572,-0.0011807,0.0078119,0.0068369,-0.00879217,0.772404,0.00904696,0.0122409,615,855,-7.63587,-1.09889
-602,169,-7.65424,0.977844,-0.00309228,-0.000944874,0.00682296,0.00488834,-0.0089255,0.863441,0.00808816,0.0122651,622,855,-7.65423,-0.977834
-595,169,-7.66742,0.854675,-0.00449058,-0.0015219,0.00572978,0.00291268,-0.00892516,0.912141,0.00712237,0.0117737,629,855,-7.66742,-0.854653
-588,169,-7.63416,0.738403,-0.00557947,-0.00235301,0.00469703,0.0010001,-0.00893259,0.950815,0.00631488,0.00980799,636,855,-7.63414,-0.738415
-581,169,-7.63892,0.63446,-0.00645889,-0.00159747,0.00419287,0.000818314,-0.00887468,1.04809,0.00620723,0.00994103,643,855,-7.6389,-0.634441
-574,169,-7.67883,0.528198,-0.00751253,-0.00178385,0.00428169,0.000503244,-0.00979963,1.0802,0.00670713,0.0120492,650,855,-7.67886,-0.528211
-567,169,-7.63257,0.454224,-0.00934193,-0.0028363,0.00473874,-0.000341375,-0.0118368,1.08618,0.00777994,0.0161921,657,855,-7.63259,-0.454242
-560,169,-7.67352,0.342285,-0.0109606,-0.00350697,0.00527422,-0.000775717,-0.0136918,1.09297,0.00888061,0.0155794,664,855,-7.6735,-0.342298
-553,169,-7.67004,0.20459,-0.0121486,-0.00411314,0.00568692,-0.00116787,-0.0150938,1.09293,0.00969673,0.0242902,671,855,-7.67003,-0.204613
-546,169,-8.17181,0.2276,-0.0127483,-0.00451723,0.00606754,-0.00130114,-0.0159644,1.0834,0.0102368,0.034357,678,855,-8.17179,-0.227618
-539,169,-8.84839,0.253601,0,0,0,0,0,0,0,-1,685,855,-8.84836,-0.253578
-532,169,-9.4599,0.672729,-0.011889,-0.00527456,0.00600655,-0.00172493,-0.0154386,1.03705,0.00976833,0.0369432,692,855,-9.45987,-0.67272
-525,169,-9.35248,0.726379,-0.0103248,-0.00536007,0.00545064,-0.00185313,-0.0138317,0.999075,0.00866969,0.0432581,699,855,-9.35246,-0.726351
-518,169,-9.29816,0.78894,-0.00762359,-0.00508976,0.00445987,-0.00172035,-0.010993,0.923788,0.00682785,0.0388932,706,855,-9.29813,-0.788958
-511,169,-9.26794,0.809204,-0.00343795,-0.00434266,0.00294521,-0.000910565,-0.00687005,0.709198,0.0043087,0.0379841,713,855,-9.26794,-0.809202
-504,169,-9.33716,0.736206,0.00241255,-0.00294584,0.000848917,0.00254383,-0.00307712,0.153424,0.00325012,0.0397458,720,855,-9.33713,-0.736216
-497,169,-9.36676,0.803467,0.00965595,-0.000832508,-0.001623,0.00990136,-0.00107791,-0.150067,0.00698798,0.0400853,727,855,-9.36679,-0.803484
-490,169,0,0,0,0,0,0,0,0,0,-1,734,855,0,0
-483,169,0,0,0,0,0,0,0,0,0,-1,741,855,0,0
-476,169,0,0,0,0,0,0,0,0,0,-1,748,855,0,0
-469,169,0,0,0,0,0,0,0,0,0,-1,755,855,0,0
-462,169,0,0,0,0,0,0,0,0,0,-1,762,855,0,0
-455,169,0,0,0,0,0,0,0,0,0,-1,769,855,0,0
-448,169,0,0,0,0,0,0,0,0,0,-1,776,855,0,0
-441,169,0,0,0,0,0,0,0,0,0,-1,783,855,0,0
-434,169,0,0,0,0,0,0,0,0,0,-1,790,855,0,0
-427,169,0,0,0,0,0,0,0,0,0,-1,797,855,0,0
-420,169,0,0,0,0,0,0,0,0,0,-1,804,855,0,0
-413,169,0,0,0,0,0,0,0,0,0,-1,811,855,0,0
-406,169,0,0,0,0,0,0,0,0,0,-1,818,855,0,0
-399,169,0,0,0,0,0,0,0,0,0,-1,825,855,0,0
-392,169,0,0,0,0,0,0,0,0,0,-1,832,855,0,0
-385,169,0,0,0,0,0,0,0,0,0,-1,839,855,0,0
-378,169,0,0,0,0,0,0,0,0,0,-1,846,855,0,0
-371,169,0,0,0,0,0,0,0,0,0,-1,853,855,0,0
-364,169,0,0,0,0,0,0,0,0,0,-1,860,855,0,0
-357,169,0,0,0,0,0,0,0,0,0,-1,867,855,0,0
-350,169,0,0,0,0,0,0,0,0,0,-1,874,855,0,0
-343,169,0,0,0,0,0,0,0,0,0,-1,881,855,0,0
-336,169,0,0,0,0,0,0,0,0,0,-1,888,855,0,0
-329,169,0,0,0,0,0,0,0,0,0,-1,895,855,0,0
-322,169,0,0,0,0,0,0,0,0,0,-1,902,855,0,0
-315,169,0,0,0,0,0,0,0,0,0,-1,909,855,0,0
-308,169,0,0,0,0,0,0,0,0,0,-1,916,855,0,0
-301,169,0,0,0,0,0,0,0,0,0,-1,923,855,0,0
-294,169,0,0,0,0,0,0,0,0,0,-1,930,855,0,0
-287,169,0,0,0,0,0,0,0,0,0,-1,937,855,0,0
-280,169,0,0,0,0,0,0,0,0,0,-1,944,855,0,0
-273,169,0,0,0,0,0,0,0,0,0,-1,951,855,0,0
-266,169,0,0,0,0,0,0,0,0,0,-1,958,855,0,0
-259,169,0,0,0,0,0,0,0,0,0,-1,965,855,0,0
-252,169,0,0,0,0,0,0,0,0,0,-1,972,855,0,0
-245,169,0,0,0,0,0,0,0,0,0,-1,979,855,0,0
-238,169,0,0,0,0,0,0,0,0,0,-1,986,855,0,0
-231,169,0,0,0,0,0,0,0,0,0,-1,993,855,0,0
-224,169,0,0,0,0,0,0,0,0,0,-1,1000,855,0,0
-217,169,0,0,0,0,0,0,0,0,0,-1,1007,855,0,0
-210,169,0,0,0,0,0,0,0,0,0,-1,1014,855,0,0
-203,169,0,0,0,0,0,0,0,0,0,-1,1021,855,0,0
-196,169,0,0,0,0,0,0,0,0,0,-1,1028,855,0,0
-189,169,0,0,0,0,0,0,0,0,0,-1,1035,855,0,0
-182,169,0,0,0,0,0,0,0,0,0,-1,1042,855,0,0
-175,169,0,0,0,0,0,0,0,0,0,-1,1049,855,0,0
-168,169,0,0,0,0,0,0,0,0,0,-1,1056,855,0,0
-161,169,0,0,0,0,0,0,0,0,0,-1,1063,855,0,0
-154,169,0,0,0,0,0,0,0,0,0,-1,1070,855,0,0
-147,169,0,0,0,0,0,0,0,0,0,-1,1077,855,0,0
-140,169,0,0,0,0,0,0,0,0,0,-1,1084,855,0,0
-133,169,0,0,0,0,0,0,0,0,0,-1,1091,855,0,0
-126,169,0,0,0,0,0,0,0,0,0,-1,1098,855,0,0
-119,169,0,0,0,0,0,0,0,0,0,-1,1105,855,0,0
-112,169,0,0,0,0,0,0,0,0,0,-1,1112,855,0,0
-105,169,0,0,0,0,0,0,0,0,0,-1,1119,855,0,0
-98,169,0,0,0,0,0,0,0,0,0,-1,1126,855,0,0
-91,169,0,0,0,0,0,0,0,0,0,-1,1133,855,0,0
-84,169,0,0,0,0,0,0,0,0,0,-1,1140,855,0,0
-77,169,0,0,0,0,0,0,0,0,0,-1,1147,855,0,0
-70,169,0,0,0,0,0,0,0,0,0,-1,1154,855,0,0
-63,169,0,0,0,0,0,0,0,0,0,-1,1161,855,0,0
-56,169,0,0,0,0,0,0,0,0,0,-1,1168,855,0,0
-49,169,0,0,0,0,0,0,0,0,0,-1,1175,855,0,0
-42,169,0,0,0,0,0,0,0,0,0,-1,1182,855,0,0
-35,169,0,0,0,0,0,0,0,0,0,-1,1189,855,0,0
-28,169,0,0,0,0,0,0,0,0,0,-1,1196,855,0,0
-21,169,0,0,0,0,0,0,0,0,0,-1,1203,855,0,0
-14,169,0,0,0,0,0,0,0,0,0,-1,1210,855,0,0
-7,169,0,0,0,0,0,0,0,0,0,-1,1217,855,0,0
0,169,0,0,0,0,0,0,0,0,0,-1,1224,855,0,0
7,169,0,0,0,0,0,0,0,0,0,-1,1231,855,0,0
14,169,0,0,0,0,0,0,0,0,0,-1,1238,855,0,0
21,169,0,0,0,0,0,0,0,0,0,-1,1245,855,0,0
28,169,0,0,0,0,0,0,0,0,0,-1,1252,855,0,0
35,169,0,0,0,0,0,0,0,0,0,-1,1259,855,0,0
42,169,0,0,0,0,0,0,0,0,0,-1,1266,855,0,0
49,169,0,0,0,0,0,0,0,0,0,-1,1273,855,0,0
56,169,0,0,0,0,0,0,0,0,0,-1,1280,855,0,0
63,169,0,0,0,0,0,0,0,0,0,-1,1287,855,0,0
70,169,0,0,0,0,0,0,0,0,0,-1,1294,855,0,0
77,169,0,0,0,0,0,0,0,0,0,-1,1301,855,0,0
84,169,0,0,0,0,0,0,0,0,0,-1,1308,855,0,0
91,169,0,0,0,0,0,0,0,0,0,-1,1315,855,0,0
98,169,0,0,0,0,0,0,0,0,0,-1,1322,855,0,0
105,169,0,0,0,0,0,0,0,0,0,-1,1329,855,0,0
112,169,0,0,0,0,0,0,0,0,0,-1,1336,855,0,0
119,169,0,0,0,0,0,0,0,0,0,-1,1343,855,0,0
126,169,0,0,0,0,0,0,0,0,0,-1,1350,855,0,0
133,169,0,0,0,0,0,0,0,0,0,-1,1357,855,0,0
140,169,0,0,0,0,0,0,0,0,0,-1,1364,855,0,0
147,169,0,0,0,0,0,0,0,0,0,-1,1371,855,0,0
154,169,0,0,0,0,0,0,0,0,0,-1,1378,855,0,0
161,169,0,0,0,0,0,0,0,0,0,-1,1385,855,0,0
168,169,0,0,0,0,0,0,0,0,0,-1,1392,855,0,0
175,169,0,0,0,0,0,0,0,0,0,-1,1399,855,0,0
182,169,0,0,0,0,0,0,0,0,0,-1,1406,855,0,0
189,169,0,0,0,0,0,0,0,0,0,-1,1413,855,0,0
196,169,0,0,0,0,0,0,0,0,0,-1,1420,855,0,0
203,169,0,0,0,0,0,0,0,0,0,-1,1427,855,0,0
210,169,0,0,0,0,0,0,0,0,0,-1,1434,855,0,0
217,169,0,0,0,0,0,0,0,0,0,-1,1441,855,0,0
224,169,0,0,0,0,0,0,0,0,0,-1,1448,855,0,0
231,169,0,0,0,0,0,0,0,0,0,-1,1455,855,0,0
238,169,0,0,0,0,0,0,0,0,0,-1,1462,855,0,0
245,169,0,0,0,0,0,0,0,0,0,-1,1469,855,0,0
252,169,0,0,0,0,0,0,0,0,0,-1,1476,855,0,0
259,169,0,0,0,0,0,0,0,0,0,-1,1483,855,0,0
266,169,0,0,0,0,0,0,0,0,0,-1,1490,855,0,0
273,169,0,0,0,0,0,0,0,0,0,-1,1497,855,0,0
280,169,0,0,0,0,0,0,0,0,0,-1,1504,855,0,0
287,169,0,0,0,0,0,0,0,0,0,-1,1511,855,0,0
294,169,0,0,0,0,0,0,0,0,0,-1,1518,855,0,0
301,169,0,0,0,0,0,0,0,0,0,-1,1525,855,0,0
308,169,0,0,0,0,0,0,0,0,0,-1,1532,855,0,0
315,169,0,0,0,0,0,0,0,0,0,-1,1539,855,0,0
322,169,0,0,0,0,0,0,0,0,0,-1,1546,855,0,0
329,169,0,0,0,0,0,0,0,0,0,-1,1553,855,0,0
336,169,0,0,0,0,0,0,0,0,0,-1,1560,855,0,0
343,169,0,0,0,0,0,0,0,0,0,-1,1567,855,0,0
350,169,0,0,0,0,0,0,0,0,0,-1,1574,855,0,0
357,169,0,0,0,0,0,0,0,0,0,-1,1581,855,0,0
364,169,0,0,0,0,0,0,0,0,0,-1,1588,855,0,0
371,169,0,0,0,0,0,0,0,0,0,-1,1595,855,0,0
378,169,0,0,0,0,0,0,0,0,0,-1,1602,855,0,0
385,169,0,0,0,0,0,0,0,0,0,-1,1609,855,0,0
392,169,0,0,0,0,0,0,0,0,0,-1,1616,855,0,0
399,169,0,0,0,0,0,0,0,0,0,-1,1623,855,0,0
406,169,0,0,0,0,0,0,0,0,0,-1,1630,855,0,0
413,169,0,0,0,0,0,0,0,0,0,-1,1637,855,0,0
420,169,0,0,0,0,0,0,0,0,0,-1,1644,855,0,0
427,169,0,0,0,0,0,0,0,0,0,-1,1651,855,0,0
434,169,0,0,0,0,0,0,0,0,0,-1,1658,855,0,0
441,169,0,0,0,0,0,0,0,0,0,-1,1665,855,0,0
448,169,0,0,0,0,0,0,0,0,0,-1,1672,855,0,0
455,169,0,0,0,0,0,0,0,0,0,-1,1679,855,0,0
462,169,0,0,0,0,0,0,0,0,0,-1,1686,855,0,0
469,169,0,0,0,0,0,0,0,0,0,-1,1693,855,0,0
476,169,0,0,0,0,0,0,0,0,0,-1,1700,855,0,0
483,169,0,0,0,0,0,0,0,0,0,-1,1707,855,0,0
490,169,0,0,0,0,0,0,0,0,0,-1,1714,855,0,0
497,169,0,0,0,0,0,0,0,0,0,-1,1721,855,0,0
504,169,0,0,0,0,0,0,0,0,0,-1,1728,855,0,0
511,169,0,0,0,0,0,0,0,0,0,-1,1735,855,0,0
518,169,0,0,0,0,0,0,0,0,0,-1,1742,855,0,0
525,169,0,0,0,0,0,0,0,0,0,-1,1749,855,0,0
532,169,0,0,0,0,0,0,0,0,0,-1,1756,855,0,0
539,169,0,0,0,0,0,0,0,0,0,-1,1763,855,0,0
546,169,0,0,0,0,0,0,0,0,0,-1,1770,855,0,0
553,169,0,0,0,0,0,0,0,0,0,-1,1777,855,0,0
560,169,0,0,0,0,0,0,0,0,0,-1,1784,855,0,0
567,169,0,0,0,0,0,0,0,0,0,-1,1791,855,0,0
574,169,0,0,0,0,0,0,0,0,0,-1,1798,855,0,0
581,169,0,0,0,0,0,0,0,0,0,-1,1805,855,0,0
588,169,0,0,0,0,0,0,0,0,0,-1,1812,855,0,0
595,169,0,0,0,0,0,0,0,0,0,-1,1819,855,0,0
602,169,0,0,0,0,0,0,0,0,0,-1,1826,855,0,0
609,169,0,0,0,0,0,0,0,0,0,-1,1833,855,0,0
616,169,15.2491,2.12671,0.0056677,-0.00720757,-0.00226391,0.00605417,-0.00759404,-0.16908,0.0078965,0.0429006,1840,855,15.2492,-2.12669
623,169,15.2399,2.06042,0.00439969,-0.00408299,-0.000705495,0.00445797,-0.00414127,-0.0824143,0.00496589,0.044858,1847,855,15.2398,-2.06043
630,169,15.3547,2.24658,0.00271681,-0.00178813,0.000268702,0.00273278,-0.0018041,0.0593656,0.0026376,0.0411992,1854,855,15.3547,-2.24661
637,169,15.4049,2.35791,9.24189e-05,-0.000438498,0.000233743,0.000180661,-0.00052674,0.360976,0.000424398,0.0381802,1861,855,15.4049,-2.3579
644,169,15.3143,2.31879,-0.00267012,0.000284096,-0.000235076,0.000302684,-0.00268871,-1.49189,0.00190142,0.0365654,1868,855,15.3143,-2.31879
651,169,15.2495,2.35706,-0.00500624,0.000577567,-0.000839069,0.000700927,-0.0051296,-1.42482,0.00367572,0.033884,1875,855,15.2495,-2.35706
658,169,15.2722,2.36157,-0.00678968,0.000654128,-0.00154173,0.00096081,-0.00709637,-1.37444,0.00508155,0.0335395,1882,855,15.2722,-2.36155
665,169,15.27,2.47882,-0.00825627,0.000596885,-0.00216642,0.00109859,-0.00875797,-1.34323,0.00623718,0.0473949,1889,855,15.27,-2.47882
672,169,14.2339,2.20148,0,0,0,0,0,0,0,-1,1896,855,14.2339,-2.20148
679,169,13.4847,2.17621,-0.0100993,0.000366579,-0.00291272,0.00112259,-0.0108553,-1.31684,0.00763863,0.0471384,1903,855,13.4847,-2.17621
686,169,12.8163,2.13782,-0.0102835,7.24406e-05,-0.00325472,0.00101039,-0.0112215,-1.29022,0.00783953,0.020627,1910,855,12.8163,-2.13784
693,169,12.8407,2.29486,-0.0096755,-0.000130245,-0.00344609,0.000983851,-0.0107896,-1.25811,0.00754243,0.0113512,1917,855,12.8407,-2.29484
700,169,12.8512,2.4184,-0.00845275,-0.000355861,-0.00337366,0.000865563,-0.00967418,-1.22343,0.00675648,0.0121752,1924,855,12.8512,-2.41839
707,169,12.8345,2.51672,-0.006638,-0.000343672,-0.00328413,0.0010578,-0.00803948,-1.16745,0.00574481,0.0135115,1931,855,12.8345,-2.51675
714,169,12.8309,2.63763,-0.00420382,-0.00080128,-0.00297568,0.000925129,-0.00593023,-1.04508,0.0042952,0.0126301,1938,855,12.831,-2.63762
721,169,12.8243,2.771,-0.00117771,-0.000802686,-0.00255567,0.00157235,-0.00355274,-0.822018,0.00303171,0.013768,1945,855,12.8243,-2.77101
728,169,12.8196,2.91272,0.00246537,-0.000645027,-0.00229085,0.00367903,-0.0018587,-0.487195,0.00325428,0.0116554,1952,855,12.8195,-2.91272
735,169,12.8008,3.02515,0.0068835,-0.000939848,-0.00211455,0.00741846,-0.00147481,-0.247789,0.00550351,0.0174509,1959,855,12.8008,-3.02512
742,169,12.823,3.14044,0.0118708,-0.000360298,-0.00334067,0.0127237,-0.00121325,-0.249983,0.00891448,0.013529,1966,855,12.823,-3.14042
749,169,12.8627,3.16376,0.0171156,-1.95745e-05,-0.00472366,0.0183315,-0.00123547,-0.251936,0.0126529,0.0218976,1973,855,12.8627,-3.16373
756,169,13.1133,2.86334,0.0238728,0.000849806,-0.00678414,0.0257231,-0.00100055,-0.266271,0.0174918,0.0430485,1980,855,13.1133,-2.86337
763,169,12.9976,3.54553,0,0,0,0,0,0,0,-1,1987,855,12.9976,-3.54552
770,169,13.1356,3.67084,0,0,0,0,0,0,0,-1,1994,855,13.1356,-3.67081
777,169,13.2737,3.79608,0,0,0,0,0,0,0,-1,2001,855,13.2736,-3.7961
784,169,13.4945,3.2132,0,0,0,0,0,0,0,-1,2008,855,13.4945,-3.21319
791,169,0,0,0,0,0,0,0,0,0,-1,2015,855,0,0
798,169,0,0,0,0,0,0,0,0,0,-1,2022,855,0,0
805,169,0,0,0,0,0,0,0,0,0,-1,2029,855,0,0
812,169,0,0,0,0,0,0,0,0,0,-1,2036,855,0,0
-700,162,0,0,0,0,0,0,0,0,0,-1,524,862,0,0
-693,162,0,0,0,0,0,0,0,0,0,-1,531,862,0,0
-686,162,0,0,0,0,0,0,0,0,0,-1,538,862,0,0
-679,162,0,0,0,0,0,0,0,0,0,-1,545,862,0,0
-672,162,0,0,0,0,0,0,0,0,0,-1,552,862,0,0
-665,162,-7.82349,-1.0202,0.0855793,-0.0304132,-0.0297758,0.0927763,-0.0376102,-0.237158,0.0774921,0.04889,559,862,-7.82352,1.02019
-658,162,-7.18732,-1.27075,0.0618014,-0.0227347,-0.0149512,0.0643678,-0.0253011,-0.169994,0.053383,0.0456424,566,862,-7.1873,1.27073
-651,162,-6.53931,-1.51538,0.0429441,-0.0170178,-0.00483651,0.0433317,-0.0174054,-0.0799709,0.0361158,0.0477686,573,862,-6.53929,1.51539
-644,162,-5.87024,-0.394836,0.0283327,-0.0127147,0.00173408,0.0284059,-0.0127879,0.0421456,0.0243463,0.0454942,580,862,-5.87025,0.394861
-637,162,-5.73596,-0.0656738,0.0174123,-0.00947282,0.00560397,0.0185336,-0.0105942,0.197488,0.0170239,0.04251,587,862,-5.73596,0.0657016
-630,162,-7.80463,1.33252,0.00964534,-0.00702811,0.00745171,0.0124903,-0.00987303,0.364701,0.0129409,0.04411,594,862,-7.80461,-1.33253
-623,162,-7.78442,1.25104,0.00451305,-0.00518653,0.00786656,0.00890465,-0.00957813,0.509164,0.0106734,0.0329878,601,862,-7.78445,-1.25103
-616,162,-7.77777,1.16815,0.00130671,-0.00362143,0.00753121,0.0067667,-0.00908142,0.627297,0.00918239,0.0181127,608,862,-7.77776,-1.16818
-609,162,-7.76208,1.07513,-0.00119196,-0.00218652,0.0070249,0.00535324,-0.00873172,0.750063,0.00820956,0.0121937,615,862,-7.76206,-1.07511
-602,162,-7.77393,0.966248,-0.00381533,-0.00154238,0.00634948,0.00377153,-0.00912923,0.873954,0.00765937,0.011373,622,862,-7.77395,-0.966229
-595,162,-7.76917,0.876892,-0.00518929,-0.00173311,0.0054883,0.00229273,-0.00921514,0.937918,0.00703336,0.0111734,629,862,-7.76919,-0.876906
-588,162,-7.76215,0.760498,-0.00624589,-0.00244504,0.00457996,0.000613126,-0.00930406,0.982059,0.00641685,0.0108846,636,862,-7.76213,-0.760501
-581,162,-7.78662,0.620422,-0.00709113,-0.0016195,0.00414342,0.000609819,-0.00932045,1.07718,0.00642656,0.0113684,643,862,-7.78664,-0.620437
-574,162,-7.84167,0.49762,-0.00804807,-0.00167066,0.0042646,0.000465547,-0.0101843,1.10642,0.0069499,0.014995,650,862,-7.84167,-0.497647
-567,162,-7.80884,0.430725,-0.00968854,-0.00246602,0.00465396,-0.000186563,-0.011968,1.11535,0.00791721,0.0205214,657,862,-7.80884,-0.430719
-560,162,-7.77863,0.274353,-0.0110995,-0.00291986,0.0051007,-0.000471808,-0.0135476,1.12332,0.00887863,0.0174956,664,862,-7.77864,-0.274377
-553,162,-7.74969,0.116272,-0.0121309,-0.00339224,0.00544454,-0.000780595,-0.0147426,1.12354,0.0095788,0.0259377,671,862,-7.74972,-0.116301
-546,162,-8.49487,0.314697,-0.0126219,-0.00361419,0.00575667,-0.000808885,-0.0154273,1.11735,0.0100261,0.0370236,678,862,-8.49485,-0.314705
-539,162,-9.1983,0.476685,0,0,0,0,0,0,0,-1,685,862,-9.19828,-0.4767
-532,162,-9.35724,0.712952,-0.01151,-0.0040106,0.00552548,-0.00108263,-0.014438,1.08351,0.00928549,0.0372311,692,862,-9.35722,-0.712973
-525,162,-9.33167,0.739014,-0.00970088,-0.00392092,0.00487434,-0.00114423,-0.0124776,1.05299,0.00796442,0.0394827,699,862,-9.33167,-0.739044
-518,162,-9.37592,0.655029,-0.00662954,-0.00349823,0.00376884,-0.000982782,-0.00914499,0.982263,0.0057969,0.0384647,706,862,-9.37589,-0.655024
-511,162,-9.43018,0.622375,-0.00193335,-0.00260613,0.00213288,-0.000110501,-0.00442899,0.707184,0.00291652,0.0396108,713,862,-9.43017,-0.622365
-504,162,-9.51544,0.624084,0.00447954,-0.0010761,-3.41207e-05,0.00447975,-0.00107631,-0.00614133,0.00340249,0.0423525,720,862,-9.51544,-0.624085
-497,162,-9.49945,0.603638,0.011974,0.00110579,-0.00231366,0.012446,0.000633755,-0.20126,0.00809436,0.0419473,727,862,-9.49946,-0.603609
-490,162,0,0,0,0,0,0,0,0,0,-1,734,862,0,0
-483,162,0,0,0,0,0,0,0,0,0,-1,741,862,0,0
-476,162,0,0,0,0,0,0,0,0,0,-1,748,862,0,0
-469,162,0,0,0,0,0,0,0,0,0,-1,755,862,0,0
-462,162,0,0,0,0,0,0,0,0,0,-1,762,862,0,0
-455,162,0,0,0,0,0,0,0,0,0,-1,769,862,0,0
-448,162,0,0,0,0,0,0,0,0,0,-1,776,862,0,0
-441,162,0,0,0,0,0,0,0,0,0,-1,783,862,0,0
-434,162,0,0,0,0,0,0,0,0,0,-1,790,862,0,0
-427,162,0,0,0,0,0,0,0,0,0,-1,797,862,0,0
-420,162,0,0,0,0,0,0,0,0,0,-1,804,862,0,0
-413,162,0,0,0,0,0,0,0,0,0,-1,811,862,0,0
-406,162,0,0,0,0,0,0,0,0,0,-1,818,862,0,0
-399,162,0,0,0,0,0,0,0,0,0,-1,825,862,0,0
-392,162,0,0,0,0,0,0,0,0,0,-1,832,862,0,0
-385,162,0,0,0,0,0,0,0,0,0,-1,839,862,0,0
-378,162,0,0,0,0,0,0,0,0,0,-1,846,862,0,0
-371,162,0,0,0,0,0,0,0,0,0,-1,853,862,0,0
-364,162,0,0,0,0,0,0,0,0,0,-1,860,862,0,0
-357,162,0,0,0,0,0,0,0,0,0,-1,867,862,0,0
-350,162,0,0,0,0,0,0,0,0,0,-1,874,862,0,0
-343,162,0,0,0,0,0,0,0,0,0,-1,881,862,0,0
-336,162,0,0,0,0,0,0,0,0,0,-1,888,862,0,0
-329,162,0,0,0,0,0,0,0,0,0,-1,895,862,0,0
-322,162,0,0,0,0,0,0,0,0,0,-1,902,862,0,0
-315,162,0,0,0,0,0,0,0,0,0,-1,909,862,0,0
-308,162,0,0,0,0,0,0,0,0,0,-1,916,862,0,0
-301,162,0,0,0,0,0,0,0,0,0,-1,923,862,0,0
-294,162,0,0,0,0,0,0,0,0,0,-1,930,862,0,0
-287,162,0,0,0,0,0,0,0,0,0,-1,937,862,0,0
-280,162,0,0,0,0,0,0,0,0,0,-1,944,862,0,0
-273,162,0,0,0,0,0,0,0,0,0,-1,951,862,0,0
-266,162,0,0,0,0,0,0,0,0,0,-1,958,862,0,0
-259,162,0,0,0,0,0,0,0,0,0,-1,965,862,0,0
-252,162,0,0,0,0,0,0,0,0,0,-1,972,862,0,0
-245,162,0,0,0,0,0,0,0,0,0,-1,979,862,0,0
-238,162,0,0,0,0,0,0,0,0,0,-1,986,862,0,0
-231,162,0,0,0,0,0,0,0,0,0,-1,993,862,0,0
-224,162,0,0,0,0,0,0,0,0,0,-1,1000,862,0,0
-217,162,0,0,0,0,0,0,0,0,0,-1,1007,862,0,0
-210,162,0,0,0,0,0,0,0,0,0,-1,1014,862,0,0
-203,162,0,0,0,0,0,0,0,0,0,-1,1021,862,0,0
-196,162,0,0,0,0,0,0,0,0,0,-1,1028,862,0,0
-189,162,0,0,0,0,0,0,0,0,0,-1,1035,862,0,0
-182,162,0,0,0,0,0,0,0,0,0,-1,1042,862,0,0
-175,162,0,0,0,0,0,0,0,0,0,-1,1049,862,0,0
-168,162,0,0,0,0,0,0,0,0,0,-1,1056,862,0,0
-161,162,0,0,0,0,0,0,0,0,0,-1,1063,862,0,0
-154,162,0,0,0,0,0,0,0,0,0,-1,1070,862,0,0
-147,162,0,0,0,0,0,0,0,0,0,-1,1077,862,0,0
-140,162,0,0,0,0,0,0,0,0,0,-1,1084,862,0,0
-133,162,0,0,0,0,0,0,0,0,0,-1,1091,862,0,0
-126,162,0,0,0,0,0,0,0,0,0,-1,1098,862,0,0
-119,162,0,0,0,0,0,0,0,0,0,-1,1105,862,0,0
-112,162,0,0,0,0,0,0,0,0,0,-1,1112,862,0,0
-105,162,0,0,0,0,0,0,0,0,0,-1,1119,862,0,0
-98,162,0,0,0,0,0,0,0,0,0,-1,1126,862,0,0
-91,162,0,0,0,0,0,0,0,0,0,-1,1133,862,0,0
-84,162,0,0,0,0,0,0,0,0,0,-1,1140,862,0,0
-77,162,0,0,0,0,0,0,0,0,0,-1,1147,862,0,0
-70,162,0,0,0,0,0,0,0,0,0,-1,1154,862,0,0
-63,162,0,0,0,0,0,0,0,0,0,-1,1161,862,0,0
-56,162,0,0,0,0,0,0,0,0,0,-1,1168,862,0,0
-49,162,0,0,0,0,0,0,0,0,0,-1,1175,862,0,0
-42,162,0,0,0,0,0,0,0,0,0,-1,1182,862,0,0
-35,162,0,0,0,0,0,0,0,0,0,-1,1189,862,0,0
-28,162,0,0,0,0,0,0,0,0,0,-1,1196,862,0,0
-21,162,0,0,0,0,0,0,0,0,0,-1,1203,862,0,0
-14,162,0,0,0,0,0,0,0,0,0,-1,1210,862,0,0
-7,162,0,0,0,0,0,0,0,0,0,-1,1217,862,0,0
0,162,0,0,0,0,0,0,0,0,0,-1,1224,862,0,0
7,162,0,0,0,0,0,0,0,0,0,-1,1231,862,0,0
14,162,0,0,0,0,0,0,0,0,0,-1,1238,862,0,0
21,162,0,0,0,0,0,0,0,0,0,-1,1245,862,0,0
28,162,0,0,0,0,0,0,0,0,0,-1,1252,862,0,0
35,162,0,0,0,0,0,0,0,0,0,-1,1259,862,0,0
42,162,0,0,0,0,0,0,0,0,0,-1,1266,862,0,0
49,162,0,0,0,0,0,0,0,0,0,-1,1273,862,0,0
56,162,0,0,0,0,0,0,0,0,0,-1,1280,862,0,0
63,162,0,0,0,0,0,0,0,0,0,-1,1287,862,0,0
70,162,0,0,0,0,0,0,0,0,0,-1,1294,862,0,0
77,162,0,0,0,0,0,0,0,0,0,-1,1301,862,0,0
84,162,0,0,0,0,0,0,0,0,0,-1,1308,862,0,0
91,162,0,0,0,0,0,0,0,0,0,-1,1315,862,0,0
98,162,0,0,0,0,0,0,0,0,0,-1,1322,862,0,0
105,162,0,0,0,0,0,0,0,0,0,-1,1329,862,0,0
112,162,0,0,0,0,0,0,0,0,0,-1,1336,862,0,0
119,162,0,0,0,0,0,0,0,0,0,-1,1343,862,0,0
126,162,0,0,0,0,0,0,0,0,0,-1,1350,862,0,0
133,162,0,0,0,0,0,0,0,0,0,-1,1357,862,0,0
140,162,0,0,0,0,0,0,0,0,0,-1,1364,862,0,0
147,162,0,0,0,0,0,0,0,0,0,-1,1371,862,0,0
154,162,0,0,0,0,0,0,0,0,0,-1,1378,862,0,0
161,162,0,0,0,0,0,0,0,0,0,-1,1385,862,0,0
168,162,0,0,0,0,0,0,0,0,0,-1,1392,862,0,0
175,162,0,0,0,0,0,0,0,0,0,-1,1399,862,0,0
182,162,0,0,0,0,0,0,0,0,0,-1,1406,862,0,0
189,162,0,0,0,0,0,0,0,0,0,-1,1413,862,0,0
196,162,0,0,0,0,0,0,0,0,0,-1,1420,862,0,0
203,162,0,0,0,0,0,0,0,0,0,-1,1427,862,0,0
210,162,0,0,0,0,0,0,0,0,0,-1,1434,862,0,0
217,162,0,0,0,0,0,0,0,0,0,-1,1441,862,0,0
224,162,0,0,0,0,0,0,0,0,0,-1,1448,862,0,0
231,162,0,0,0,0,0,0,0,0,0,-1,1455,862,0,0
238,162,0,0,0,0,0,0,0,0,0,-1,1462,862,0,0
245,162,0,0,0,0,0,0,0,0,0,-1,1469,862,0,0
252,162,0,0,0,0,0,0,0,0,0,-1,1476,862,0,0
259,162,0,0,0,0,0,0,0,0,0,-1,1483,862,0,0
266,162,0,0,0,0,0,0,0,0,0,-1,1490,862,0,0
273,162,0,0,0,0,0,0,0,0,0,-1,1497,862,0,0
280,162,0,0,0,0,0,0,0,0,0,-1,1504,862,0,0
287,162,0,0,0,0,0,0,0,0,0,-1,1511,862,0,0
294,162,0,0,0,0,0,0,0,0,0,-1,1518,862,0,0
301,162,0,0,0,0,0,0,0,0,0,-1,1525,862,0,0
308,162,0,0,0,0,0,0,0,0,0,-1,1532,862,0,0
315,162,0,0,0,0,0,0,0,0,0,-1,1539,862,0,0
322,162,0,0,0,0,0,0,0,0,0,-1,1546,862,0,0
329,162,0,0,0,0,0,0,0,0,0,-1,1553,862,0,0
336,162,0,0,0,0,0,0,0,0,0,-1,1560,862,0,0
343,162,0,0,0,0,0,0,0,0,0,-1,1567,862,0,0
350,162,0,0,0,0,0,0,0,0,0,-1,1574,862,0,0
357,162,0,0,0,0,0,0,0,0,0,-1,1581,862,0,0
364,162,0,0,0,0,0,0,0,0,0,-1,1588,862,0,0
371,162,0,0,0,0,0,0,0,0,0,-1,1595,862,0,0
378,162,0,0,0,0,0,0,0,0,0,-1,1602,862,0,0
385,162,0,0,0,0,0,0,0,0,0,-1,1609,862,0,0
392,162,0,0,0,0,0,0,0,0,0,-1,1616,862,0,0
399,162,0,0,0,0,0,0,0,0,0,-1,1623,862,0,0
406,162,0,0,0,0,0,0,0,0,0,-1,1630,862,0,0
413,162,0,0,0,0,0,0,0,0,0,-1,1637,862,0,0
420,162,0,0,0,0,0,0,0,0,0,-1,1644,862,0,0
427,162,0,0,0,0,0,0,0,0,0,-1,1651,862,0,0
434,162,0,0,0,0,0,0,0,0,0,-1,1658,862,0,0
441,162,0,0,0,0,0,0,0,0,0,-1,1665,862,0,0
448,162,0,0,0,0,0,0,0,0,0,-1,1672,862,0,0
455,162,0,0,0,0,0,0,0,0,0,-1,1679,862,0,0
462,162,0,0,0,0,0,0,0,0,0,-1,1686,862,0,0
469,162,0,0,0,0,0,0,0,0,0,-1,1693,862,0,0
476,162,0,0,0,0,0,0,0,0,0,-1,1700,862,0,0
483,162,0,0,0,0,0,0,0,0,0,-1,1707,862,0,0
490,162,0,0,0,0,0,0,0,0,0,-1,1714,862,0,0
497,162,0,0,0,0,0,0,0,0,0,-1,1721,862,0,0
504,162,0,0,0,0,0,0,0,0,0,-1,1728,862,0,0
511,162,0,0,0,0,0,0,0,0,0,-1,1735,862,0,0
518,162,0,0,0,0,0,0,0,0,0,-1,1742,862,0,0
525,162,0,0,0,0,0,0,0,0,0,-1,1749,862,0,0
532,162,0,0,0,0,0,0,0,0,0,-1,1756,862,0,0
539,162,0,0,0,0,0,0,0,0,0,-1,1763,862,0,0
546,162,0,0,0,0,0,0,0,0,0,-1,1770,862,0,0
553,162,0,0,0,0,0,0,0,0,0,-1,1777,862,0,0
560,162,0,0,0,0,0,0,0,0,0,-1,1784,862,0,0
567,162,0,0,0,0,0,0,0,0,0,-1,1791,862,0,0
574,162,0,0,0,0,0,0,0,0,0,-1,1798,862,0,0
581,162,0,0,0,0,0,0,0,0,0,-1,1805,862,0,0
588,162,0,0,0,0,0,0,0,0,0,-1,1812,862,0,0
595,162,0,0,0,0,0,0,0,0,0,-1,1819,862,0,0
602,162,0,0,0,0,0,0,0,0,0,-1,1826,862,0,0
609,162,0,0,0,0,0,0,0,0,0,-1,1833,862,0,0
616,162,15.1152,2.43549,0.00732227,-0.00781426,-0.00295027,0.00787698,-0.00836897,-0.185851,0.00938104,0.0430796,1840,862,15.1153,-2.43546
623,162,15.1553,2.3327,0.00580201,-0.00465572,-0.00140515,0.00598752,-0.00484123,-0.131263,0.00626364,0.0445962,1847,862,15.1553,-2.33268
630,162,15.2949,2.34302,0.00411434,-0.00217561,-0.000199458,0.00412066,-0.00218193,-0.0316682,0.00369574,0.0426637,1854,862,15.295,-2.34304
637,162,15.3264,2.47534,0.00123246,-0.000696282,-0.00017377,0.00124799,-0.000711813,-0.0891387,0.00114552,0.042406,1861,862,15.3264,-2.47537
644,162,15.2872,2.44879,-0.00197636,0.000136155,-0.000671899,0.000331747,-0.00217196,-1.28752,0.00157028,0.0380842,1868,862,15.2872,-2.4488
651,162,15.2618,2.3974,-0.00485741,0.000500319,-0.00134226,0.000817781,-0.00517487,-1.33855,0.00375233,0.033097,1875,862,15.2619,-2.39739
658,162,15.2611,2.38818,-0.00709933,0.000618719,-0.00206679,0.00113733,-0.00761795,-1.32495,0.0054971,0.0334314,1882,862,15.2611,-2.38817
665,162,15.2141,2.44019,-0.00887817,0.000579193,-0.0026888,0.00129018,-0.00958916,-1.31229,0.00686338,0.0409203,1889,862,15.2141,-2.44017
672,162,14.6285,2.62067,0,0,0,0,0,0,0,-1,1896,862,14.6285,-2.62064
679,162,13.8274,2.41144,-0.011061,0.000390521,-0.00337605,0.00131172,-0.0119822,-1.30442,0.00845932,0.0436874,1903,862,13.8274,-2.41145
686,162,13.0001,2.20624,-0.0113642,9.92061e-05,-0.00366859,0.00117272,-0.0124377,-1.28612,0.00870907,0.0258474,1910,862,13.0001,-2.20626
693,162,12.9615,2.31146,-0.0108682,-0.000113458,-0.0038159,0.0011029,-0.0120845,-1.26222,0.00844801,0.0147429,1917,862,12.9615,-2.31148
700,162,12.9738,2.43671,-0.00976549,-0.000328214,-0.00368732,0.000941627,-0.0110353,-1.23914,0.00769,0.0154525,1924,862,12.9738,-2.43673
707,162,12.9672,2.51581,-0.00803064,-0.000360925,-0.00354261,0.00102496,-0.00941653,-1.19789,0.00664574,0.0116368,1931,862,12.9671,-2.51578
714,162,12.9779,2.62677,-0.00561203,-0.000876699,-0.00320213,0.000738033,-0.00722677,-1.10374,0.00508175,0.0147705,1938,862,12.9779,-2.62678
721,162,12.9126,2.81348,-0.00256923,-0.000950625,-0.00277271,0.00112848,-0.00464833,-0.927395,0.0035356,0.0250243,1945,862,12.9125,-2.81346
728,162,12.8878,2.92871,0.0012091,-0.000854426,-0.00250758,0.00288888,-0.00253421,-0.590226,0.00313325,0.0202067,1952,862,12.8878,-2.9287
735,162,12.9485,3.02997,0.00600838,-0.00136809,-0.00225991,0.00664568,-0.00200539,-0.274866,0.00522872,0.0104282,1959,862,12.9485,-3.02999
742,162,12.957,3.13049,0.0115969,-0.000743241,-0.00370415,0.0126234,-0.00176973,-0.270334,0.00906331,0.0109568,1966,862,12.957,-3.13049
749,162,12.9548,3.1972,0.0173653,-0.000493604,-0.00528438,0.0188118,-0.00194008,-0.267181,0.0132353,0.0152702,1973,862,12.9548,-3.19723
756,162,13.2754,2.95831,0.0247017,0.000253206,-0.00775263,0.0269528,-0.00199789,-0.282594,0.0186702,0.0372545,1980,862,13.2754,-2.95831
763,162,13.6924,2.49451,0.0346762,0.00199986,-0.0113827,0.0382504,-0.00157434,-0.304253,0.0260409,0.0459007,1987,862,13.6924,-2.4945
770,162,13.265,3.42688,0.0480561,0.0054766,-0.0167249,0.0538399,-0.000307152,-0.332944,0.0359961,0.0464291,1994,862,13.265,-3.42688
777,162,13.4165,3.5235,0.0654797,0.0118349,-0.0246653,0.0750965,0.00221807,-0.371764,0.0493416,0.0447801,2001,862,13.4165,-3.52349
784,162,13.3594,3.51001,0,0,0,0,0,0,0,-1,2008,862,13.3593,-3.51003
791,162,0,0,0,0,0,0,0,0,0,-1,2015,862,0,0
798,162,0,0,0,0,0,0,0,0,0,-1,2022,862,0,0
805,162,0,0,0,0,0,0,0,0,0,-1,2029,862,0,0
812,162,0,0,0,0,0,0,0,0,0,-1,2036,862,0,0
-700,155,0,0,0,0,0,0,0,0,0,-1,524,869,0,0
-693,155,0,0,0,0,0,0,0,0,0,-1,531,869,0,0
-686,155,0,0,0,0,0,0,0,0,0,-1,538,869,0,0
-679,155,0,0,0,0,0,0,0,0,0,-1,545,869,0,0
-672,155,0,0,0,0,0,0,0,0,0,-1,552,869,0,0
-665,155,-7.45605,-0.559082,0.0800347,-0.0374669,-0.0312147,0.0878122,-0.0452443,-0.244189,0.0781196,0.0493154,559,869,-7.45607,0.559056
-658,155,-6.68347,-0.935791,0.0589524,-0.0290638,-0.0173253,0.0622399,-0.0323514,-0.187525,0.0555136,0.045106,566,869,-6.68346,0.93578
-651,155,-6.09216,-1.43585,0.0417563,-0.0224496,-0.00754958,0.0426321,-0.0233253,-0.115486,0.0386205,0.0470585,573,869,-6.09218,1.43583
-644,155,-5.42633,-1.61652,0.0280525,-0.0171819,-0.000900003,0.0280704,-0.0171998,-0.0198859,0.0263868,0.0483141,580,869,-5.4263,1.6165
-637,155,-7.65179,1.54004,0.0175215,-0.0130031,0.00328196,0.0178704,-0.013352,0.105906,0.0180891,0.046569,587,869,-7.65179,-1.54001
-630,155,-7.82965,1.41321,0.00983509,-0.00970806,0.00553433,0.0112935,-0.0111665,0.257662,0.0129673,0.0440892,594,869,-7.82963,-1.41321
-623,155,-7.85217,1.28296,0.00463123,-0.00710434,0.0064193,0.00746047,-0.00993358,0.415127,0.0100762,0.0265286,601,869,-7.85218,-1.28296
-616,155,-7.87115,1.1734,0.00126882,-0.00492991,0.0064638,0.00533791,-0.008999,0.561843,0.00836689,0.0138662,608,869,-7.87114,-1.1734
-609,155,-7.86047,1.06573,-0.00140206,-0.00303639,0.00624949,0.00408346,-0.00852191,0.720388,0.00742657,0.0121923,615,869,-7.86045,-1.06573
-602,155,-7.88019,0.964417,-0.00430472,-0.00201282,0.00583524,0.00278792,-0.00910547,0.882357,0.00718231,0.0109905,622,869,-7.88018,-0.964446
-595,155,-7.89081,0.866394,-0.00565902,-0.00182316,0.00514396,0.00174879,-0.00923097,0.96384,0.00681215,0.0102553,629,869,-7.89082,-0.866417
-588,155,-7.88501,0.762329,-0.0066817,-0.00235166,0.00432958,0.00032404,-0.0093574,1.01724,0.00634904,0.0115966,636,869,-7.88502,-0.762319
-581,155,-7.93915,0.63855,-0.0074918,-0.0014192,0.00395408,0.000529863,-0.00944087,1.11282,0.00647776,0.0156135,643,869,-7.93917,-0.638556
-574,155,-7.97144,0.547485,-0.00829686,-0.00126584,0.004097,0.000617191,-0.0101799,1.13998,0.00700139,0.0205203,650,869,-7.97146,-0.547514
-567,155,-7.92261,0.43866,-0.00960182,-0.00172834,0.00442358,0.000256571,-0.0115867,1.14901,0.00781142,0.020747,657,869,-7.92261,-0.438664
-560,155,-7.86932,0.328979,-0.0107298,-0.00194925,0.00480889,0.000171992,-0.0128511,1.15536,0.00862529,0.021314,664,869,-7.86933,-0.328997
-553,155,-7.91467,0.207458,-0.011504,-0.00225544,0.00510331,7.04825e-06,-0.0137665,1.1535,0.00918004,0.0359645,671,869,-7.91467,-0.207484
-546,155,-8.64191,0.534363,-0.0117609,-0.00226961,0.00536918,0.000150585,-0.0141811,1.14731,0.00950466,0.0399431,678,869,-8.64188,-0.534368
-539,155,-9.29865,0.678162,0,0,0,0,0,0,0,-1,685,869,-9.29866,-0.678147
-532,155,-9.36505,0.740417,-0.0101532,-0.00225967,0.00502919,0.000186508,-0.0125994,1.11809,0.00846244,0.0341468,692,869,-9.36508,-0.740441
-525,155,-9.27582,0.807922,-0.00804098,-0.00201619,0.00431483,0.000233755,-0.0102909,1.09014,0.00693985,0.0374938,699,869,-9.27582,-0.807935
-518,155,-9.38104,0.69458,-0.0046304,-0.00150916,0.00312057,0.000419271,-0.00655883,1.01727,0.0045188,0.0418994,706,869,-9.38103,-0.694603
-511,155,-9.51495,0.586304,0.000331382,-0.000616335,0.00138051,0.0013171,-0.00160205,0.620074,0.00168804,0.0414685,713,869,-9.51493,-0.586295
-504,155,-9.59052,0.53894,0.00668923,0.000781352,-0.000845968,0.00680798,0.000662602,-0.139461,0.0043347,0.0400286,720,869,-9.59052,-0.53896
-497,155,0,0,0,0,0,0,0,0,0,-1,727,869,0,0
-490,155,0,0,0,0,0,0,0,0,0,-1,734,869,0,0
-483,155,0,0,0,0,0,0,0,0,0,-1,741,869,0,0
-476,155,0,0,0,0,0,0,0,0,0,-1,748,869,0,0
-469,155,0,0,0,0,0,0,0,0,0,-1,755,869,0,0
-462,155,0,0,0,0,0,0,0,0,0,-1,762,869,0,0
-455,155,0,0,0,0,0,0,0,0,0,-1,769,869,0,0
-448,155,0,0,0,0,0,0,0,0,0,-1,776,869,0,0
-441,155,0,0,0,0,0,0,0,0,0,-1,783,869,0,0
-434,155,0,0,0,0,0,0,0,0,0,-1,790,869,0,0
-427,155,0,0,0,0,0,0,0,0,0,-1,797,869,0,0
-420,155,0,0,0,0,0,0,0,0,0,-1,804,869,0,0
-413,155,0,0,0,0,0,0,0,0,0,-1,811,869,0,0
-406,155,0,0,0,0,0,0,0,0,0,-1,818,869,0,0
-399,155,0,0,0,0,0,0,0,0,0,-1,825,869,0,0
-392,155,0,0,0,0,0,0,0,0,0,-1,832,869,0,0
-385,155,0,0,0,0,0,0,0,0,0,-1,839,869,0,0
-378,155,0,0,0,0,0,0,0,0,0,-1,846,869,0,0
-371,155,0,0,0,0,0,0,0,0,0,-1,853,869,0,0
-364,155,0,0,0,0,0,0,0,0,0,-1,860,869,0,0
-357,155,0,0,0,0,0,0,0,0,0,-1,867,869,0,0
-350,155,0,0,0,0,0,0,0,0,0,-1,874,869,0,0
-343,155,0,0,0,0,0,0,0,0,0,-1,881,869,0,0
-336,155,0,0,0,0,0,0,0,0,0,-1,888,869,0,0
-329,155,0,0,0,0,0,0,0,0,0,-1,895,869,0,0
-322,155,0,0,0,0,0,0,0,0,0,-1,902,869,0,0
-315,155,0,0,0,0,0,0,0,0,0,-1,909,869,0,0
-308,155,0,0,0,0,0,0,0,0,0,-1,916,869,0,0
-301,155,0,0,0,0,0,0,0,0,0,-1,923,869,0,0
-294,155,0,0,0,0,0,0,0,0,0,-1,930,869,0,0
-287,155,0,0,0,0,0,0,0,0,0,-1,937,869,0,0
-280,155,0,0,0,0,0,0,0,0,0,-1,944,869,0,0
-273,155,0,0,0,0,0,0,0,0,0,-1,951,869,0,0
-266,155,0,0,0,0,0,0,0,0,0,-1,958,869,0,0
-259,155,0,0,0,0,0,0,0,0,0,-1,965,869,0,0
-252,155,0,0,0,0,0,0,0,0,0,-1,972,869,0,0
-245,155,0,0,0,0,0,0,0,0,0,-1,979,869,0,0
-238,155,0,0,0,0,0,0,0,0,0,-1,986,869,0,0
-231,155,0,0,0,0,0,0,0,0,0,-1,993,869,0,0
-224,155,0,0,0,0,0,0,0,0,0,-1,1000,869,0,0
-217,155,0,0,0,0,0,0,0,0,0,-1,1007,869,0,0
-210,155,0,0,0,0,0,0,0,0,0,-1,1014,869,0,0
-203,155,0,0,0,0,0,0,0,0,0,-1,1021,869,0,0
-196,155,0,0,0,0,0,0,0,0,0,-1,1028,869,0,0
-189,155,0,0,0,0,0,0,0,0,0,-1,1035,869,0,0
-182,155,0,0,0,0,0,0,0,0,0,-1,1042,869,0,0
-175,155,0,0,0,0,0,0,0,0,0,-1,1049,869,0,0
-168,155,0,0,0,0,0,0,0,0,0,-1,1056,869,0,0
-161,155,0,0,0,0,0,0,0,0,0,-1,1063,869,0,0
-154,155,0,0,0,0,0,0,0,0,0,-1,1070,869,0,0
-147,155,0,0,0,0,0,0,0,0,0,-1,1077,869,0,0
-140,155,0,0,0,0,0,0,0,0,0,-1,1084,869,0,0
-133,155,0,0,0,0,0,0,0,0,0,-1,1091,869,0,0
-126,155,0,0,0,0,0,0,0,0,0,-1,1098,869,0,0
-119,155,0,0,0,0,0,0,0,0,0,-1,1105,869,0,0
-112,155,0,0,0,0,0,0,0,0,0,-1,1112,869,0,0
-105,155,0,0,0,0,0,0,0,0,0,-1,1119,869,0,0
-98,155,0,0,0,0,0,0,0,0,0,-1,1126,869,0,0
-91,155,0,0,0,0,0,0,0,0,0,-1,1133,869,0,0
-84,155,0,0,0,0,0,0,0,0,0,-1,1140,869,0,0
-77,155,0,0,0,0,0,0,0,0,0,-1,1147,869,0,0
-70,155,0,0,0,0,0,0,0,0,0,-1,1154,869,0,0
-63,155,0,0,0,0,0,0,0,0,0,-1,1161,869,0,0
-56,155,0,0,0,0,0,0,0,0,0,-1,1168,869,0,0
-49,155,0,0,0,0,0,0,0,0,0,-1,1175,869,0,0
-42,155,0,0,0,0,0,0,0,0,0,-1,1182,869,0,0
-35,155,0,0,0,0,0,0,0,0,0,-1,1189,869,0,0
-28,155,0,0,0,0,0,0,0,0,0,-1,1196,869,0,0
-21,155,0,0,0,0,0,0,0,0,0,-1,1203,869,0,0
-14,155,0,0,0,0,0,0,0,0,0,-1,1210,869,0,0
-7,155,0,0,0,0,0,0,0,0,0,-1,1217,869,0,0
0,155,0,0,0,0,0,0,0,0,0,-1,1224,869,0,0
7,155,0,0,0,0,0,0,0,0,0,-1,1231,869,0,0
14,155,0,0,0,0,0,0,0,0,0,-1,1238,869,0,0
21,155,0,0,0,0,0,0,0,0,0,-1,1245,869,0,0
28,155,0,0,0,0,0,0,0,0,0,-1,1252,869,0,0
35,155,0,0,0,0,0,0,0,0,0,-1,1259,869,0,0
42,155,0,0,0,0,0,0,0,0,0,-1,1266,869,0,0
49,155,0,0,0,0,0,0,0,0,0,-1,1273,869,0,0
56,155,0,0,0,0,0,0,0,0,0,-1,1280,869,0,0
63,155,0,0,0,0,0,0,0,0,0,-1,1287,869,0,0
70,155,0,0,0,0,0,0,0,0,0,-1,1294,869,0,0
77,155,0,0,0,0,0,0,0,0,0,-1,1301,869,0,0
84,155,0,0,0,0,0,0,0,0,0,-1,1308,869,0,0
91,155,0,0,0,0,0,0,0,0,0,-1,1315,869,0,0
98,155,0,0,0,0,0,0,0,0,0,-1,1322,869,0,0
105,155,0,0,0,0,0,0,0,0,0,-1,1329,869,0,0
112,155,0,0,0,0,0,0,0,0,0,-1,1336,869,0,0
119,155,0,0,0,0,0,0,0,0,0,-1,1343,869,0,0
126,155,0,0,0,0,0,0,0,0,0,-1,1350,869,0,0
133,155,0,0,0,0,0,0,0,0,0,-1,1357,869,0,0
140,155,0,0,0,0,0,0,0,0,0,-1,1364,869,0,0
147,155,0,0,0,0,0,0,0,0,0,-1,1371,869,0,0
154,155,0,0,0,0,0,0,0,0,0,-1,1378,869,0,0
161,155,0,0,0,0,0,0,0,0,0,-1,1385,869,0,0
168,155,0,0,0,0,0,0,0,0,0,-1,1392,869,0,0
175,155,0,0,0,0,0,0,0,0,0,-1,1399,869,0,0
182,155,0,0,0,0,0,0,0,0,0,-1,1406,869,0,0
189,155,0,0,0,0,0,0,0,0,0,-1,1413,869,0,0
196,155,0,0,0,0,0,0,0,0,0,-1,1420,869,0,0
203,155,0,0,0,0,0,0,0,0,0,-1,1427,869,0,0
210,155,0,0,0,0,0,0,0,0,0,-1,1434,869,0,0
217,155,0,0,0,0,0,0,0,0,0,-1,1441,869,0,0
224,155,0,0,0,0,0,0,0,0,0,-1,1448,869,0,0
231,155,0,0,0,0,0,0,0,0,0,-1,1455,869,0,0
238,155,0,0,0,0,0,0,0,0,0,-1,1462,869,0,0
245,155,0,0,0,0,0,0,0,0,0,-1,1469,869,0,0
252,155,0,0,0,0,0,0,0,0,0,-1,1476,869,0,0
259,155,0,0,0,0,0,0,0,0,0,-1,1483,869,0,0
266,155,0,0,0,0,0,0,0,0,0,-1,1490,869,0,0
273,155,0,0,0,0,0,0,0,0,0,-1,1497,869,0,0
280,155,0,0,0,0,0,0,0,0,0,-1,1504,869,0,0
287,155,0,0,0,0,0,0,0,0,0,-1,1511,869,0,0
294,155,0,0,0,0,0,0,0,0,0,-1,1518,869,0,0
301,155,0,0,0,0,0,0,0,0,0,-1,1525,869,0,0
308,155,0,0,0,0,0,0,0,0,0,-1,1532,869,0,0
315,155,0,0,0,0,0,0,0,0,0,-1,1539,869,0,0
322,155,0,0,0,0,0,0,0,0,0,-1,1546,869,0,0
329,155,0,0,0,0,0,0,0,0,0,-1,1553,869,0,0
336,155,0,0,0,0,0,0,0,0,0,-1,1560,869,0,0
343,155,0,0,0,0,0,0,0,0,0,-1,1567,869,0,0
350,155,0,0,0,0,0,0,0,0,0,-1,1574,869,0,0
357,155,0,0,0,0,0,0,0,0,0,-1,1581,869,0,0
364,155,0,0,0,0,0,0,0,0,0,-1,1588,869,0,0
371,155,0,0,0,0,0,0,0,0,0,-1,1595,869,0,0
378,155,0,0,0,0,0,0,0,0,0,-1,1602,869,0,0
385,155,0,0,0,0,0,0,0,0,0,-1,1609,869,0,0
392,155,0,0,0,0,0,0,0,0,0,-1,1616,869,0,0
399,155,0,0,0,0,0,0,0,0,0,-1,1623,869,0,0
406,155,0,0,0,0,0,0,0,0,0,-1,1630,869,0,0
413,155,0,0,0,0,0,0,0,0,0,-1,1637,869,0,0
420,155,0,0,0,0,0,0,0,0,0,-1,1644,869,0,0
427,155,0,0,0,0,0,0,0,0,0,-1,1651,869,0,0
434,155,0,0,0,0,0,0,0,0,0,-1,1658,869,0,0
441,155,0,0,0,0,0,0,0,0,0,-1,1665,869,0,0
448,155,0,0,0,0,0,0,0,0,0,-1,1672,869,0,0
455,155,0,0,0,0,0,0,0,0,0,-1,1679,869,0,0
462,155,0,0,0,0,0,0,0,0,0,-1,1686,869,0,0
469,155,0,0,0,0,0,0,0,0,0,-1,1693,869,0,0
476,155,0,0,0,0,0,0,0,0,0,-1,1700,869,0,0
483,155,0,0,0,0,0,0,0,0,0,-1,1707,869,0,0
490,155,0,0,0,0,0,0,0,0,0,-1,1714,869,0,0
497,155,0,0,0,0,0,0,0,0,0,-1,1721,869,0,0
504,155,0,0,0,0,0,0,0,0,0,-1,1728,869,0,0
511,155,0,0,0,0,0,0,0,0,0,-1,1735,869,0,0
518,155,0,0,0,0,0,0,0,0,0,-1,1742,869,0,0
525,155,0,0,0,0,0,0,0,0,0,-1,1749,869,0,0
532,155,0,0,0,0,0,0,0,0,0,-1,1756,869,0,0
539,155,0,0,0,0,0,0,0,0,0,-1,1763,869,0,0
546,155,0,0,0,0,0,0,0,0,0,-1,1770,869,0,0
553,155,0,0,0,0,0,0,0,0,0,-1,1777,869,0,0
560,155,0,0,0,0,0,0,0,0,0,-1,1784,869,0,0
567,155,0,0,0,0,0,0,0,0,0,-1,1791,869,0,0
574,155,0,0,0,0,0,0,0,0,0,-1,1798,869,0,0
581,155,0,0,0,0,0,0,0,0,0,-1,1805,869,0,0
588,155,0,0,0,0,0,0,0,0,0,-1,1812,869,0,0
595,155,0,0,0,0,0,0,0,0,0,-1,1819,869,0,0
602,155,0,0,0,0,0,0,0,0,0,-1,1826,869,0,0
609,155,0,0,0,0,0,0,0,0,0,-1,1833,869,0,0
616,155,15.0996,2.44989,0.00953644,-0.00761736,-0.00309097,0.0100764,-0.00815733,-0.172947,0.0105467,0.043003,1840,869,15.0996,-2.44986
623,155,15.1348,2.48065,0.00747304,-0.00458931,-0.00176512,0.00772603,-0.0048423,-0.142357,0.00731972,0.0428634,1847,869,15.1347,-2.48066
630,155,15.1892,2.42047,0.00558458,-0.00214849,-0.000483831,0.00561474,-0.00217865,-0.0622429,0.004643,0.0440303,1854,869,15.1892,-2.42047
637,155,15.1967,2.46564,0.00241881,-0.000721564,-0.000475929,0.00248935,-0.000792108,-0.147151,0.00197722,0.0410436,1861,869,15.1966,-2.46564
644,155,15.2404,2.47333,-0.00120367,9.56592e-05,-0.00102832,0.000662346,-0.00177036,-1.06712,0.00145227,0.0357779,1868,869,15.2404,-2.47333
651,155,15.3097,2.38483,-0.00459872,0.00045748,-0.001771,0.00101608,-0.00515732,-1.26526,0.00382219,0.0326861,1875,869,15.3097,-2.38484
658,155,15.2526,2.37054,-0.00727806,0.000564778,-0.00251846,0.00130385,-0.00801713,-1.28535,0.00582819,0.0284516,1882,869,15.2526,-2.37056
665,155,15.1904,2.43518,-0.00934996,0.000513807,-0.00312738,0.00142178,-0.0102579,-1.28823,0.00735848,0.0336191,1889,869,15.1904,-2.43518
672,155,15.205,2.45343,-0.0107884,0.000475214,-0.00354433,0.0014977,-0.0118109,-1.28994,0.00841767,0.0398368,1896,869,15.205,-2.45342
679,155,14.522,2.41248,-0.0118392,0.000347886,-0.00373398,0.00140094,-0.0128923,-1.29592,0.00909785,0.0472328,1903,869,14.522,-2.4125
686,155,13.7311,2.24866,-0.0122211,6.84193e-05,-0.00397461,0.00124183,-0.0133945,-1.28372,0.00937107,0.0355898,1910,869,13.7311,-2.24868
693,155,13.0726,2.28558,-0.0117932,-0.00013637,-0.00407547,0.00114716,-0.0130768,-1.26569,0.0091243,0.0180083,1917,869,13.0726,-2.28558
700,155,13.097,2.42548,-0.0107687,-0.000284054,-0.00387772,0.000994264,-0.012047,-1.25236,0.00838241,0.0152627,1924,869,13.097,-2.42547
707,155,13.1404,2.55994,-0.00910916,-0.000308733,-0.0036691,0.00102029,-0.0104382,-1.22328,0.00732262,0.0116926,1931,869,13.1404,-2.55996
714,155,13.142,2.64929,-0.00670037,-0.000776469,-0.00330487,0.000699517,-0.00817636,-1.15077,0.00569841,0.0194024,1938,869,13.142,-2.64932
721,155,13.0571,2.77655,-0.00365924,-0.000841929,-0.00288324,0.000958366,-0.00545953,-1.01263,0.00399762,0.0223395,1945,869,13.0571,-2.77656
728,155,13.0385,2.90588,0.000177197,-0.000704843,-0.00263546,0.00240828,-0.00293593,-0.702496,0.00309049,0.0181936,1952,869,13.0385,-2.90588
735,155,13.0507,3.01001,0.00523451,-0.00131894,-0.00236155,0.00599683,-0.00208125,-0.312243,0.00484307,0.0146958,1959,869,13.0506,-3.01002
742,155,13.0848,3.12384,0.0113217,-0.000520122,-0.00405636,0.0125779,-0.00177635,-0.300325,0.00903578,0.0149155,1966,869,13.0848,-3.12385
749,155,13.0759,3.24493,0.0174516,-0.000110996,-0.00585462,0.0192244,-0.00188374,-0.294018,0.0134881,0.0124497,1973,869,13.0759,-3.24496
756,155,13.0825,3.29413,0.0251282,0.000752255,-0.00869485,0.0279117,-0.00203132,-0.30983,0.0193206,0.0237104,1980,869,13.0825,-3.29413
763,155,13.4983,2.91296,0.0354327,0.00259834,-0.0129199,0.0399068,-0.00187579,-0.333374,0.0272513,0.0415027,1987,869,13.4984,-2.91295
770,155,13.401,3.32019,0.0492798,0.00609212,-0.0190962,0.0565123,-0.00114038,-0.362046,0.0380607,0.0460424,1994,869,13.401,-3.3202
777,155,13.5972,3.38342,0.0673911,0.0122882,-0.0281345,0.0792177,0.000461593,-0.397934,0.0526586,0.0456228,2001,869,13.5972,-3.3834
784,155,13.8107,3.45276,0,0,0,0,0,0,0,-1,2008,869,13.8107,-3.45273
791,155,0,0,0,0,0,0,0,0,0,-1,2015,869,0,0
798,155,0,0,0,0,0,0,0,0,0,-1,2022,869,0,0
805,155,0,0,0,0,0,0,0,0,0,-1,2029,869,0,0
812,155,0,0,0,0,0,0,0,0,0,-1,2036,869,0,0
-700,148,0,0,0,0,0,0,0,0,0,-1,524,876,0,0
-693,148,0,0,0,0,0,0,0,0,0,-1,531,876,0,0
-686,148,0,0,0,0,0,0,0,0,0,-1,538,876,0,0
-679,148,0,0,0,0,0,0,0,0,0,-1,545,876,0,0
-672,148,-7.03107,0.300781,0.0918662,-0.0542808,-0.050422,0.107574,-0.0699886,-0.301997,0.103279,0.0473352,552,876,-7.03106,-0.300794
-665,148,-6.87238,0.195496,0.0712581,-0.042897,-0.032988,0.0801051,-0.0517441,-0.262024,0.0767079,0.0481317,559,876,-6.87241,-0.195494
-658,148,-6.11365,-1.6236,0,0,0,0,0,0,0,-1,566,876,-6.11363,1.62362
-651,148,-5.77765,-1.4082,0,0,0,0,0,0,0,-1,573,876,-5.77764,1.40818
-644,148,-4.94086,-1.40381,0,0,0,0,0,0,0,-1,580,876,-4.94084,1.40384
-637,148,-7.19208,1.32471,0,0,0,0,0,0,0,-1,587,876,-7.19207,-1.32472
-630,148,-7.5199,1.30005,0.00922546,-0.0110596,0.00337683,0.00977282,-0.011607,0.160697,0.0123588,0.0431969,594,876,-7.5199,-1.30003
-623,148,-7.8739,1.26416,0.00432409,-0.00792119,0.00473514,0.0059415,-0.00953859,0.329149,0.0090175,0.0223078,601,876,-7.87388,-1.26417
-616,148,-7.94647,1.16003,0.00102647,-0.00536338,0.00517991,0.00391752,-0.00825442,0.509061,0.00717463,0.012101,608,876,-7.9465,-1.16003
-609,148,-7.9563,1.07465,-0.00168273,-0.00323583,0.00526867,0.00286631,-0.00778487,0.71223,0.00636427,0.010821,615,876,-7.95629,-1.07463
-602,148,-7.97241,0.962891,-0.00473622,-0.00201339,0.0051109,0.00191431,-0.00866392,0.915563,0.00650858,0.0101307,622,876,-7.97243,-0.962913
-595,148,-7.98816,0.858032,-0.00602544,-0.00166812,0.00460381,0.00124651,-0.00894007,1.0064,0.00641604,0.00903534,629,876,-7.98819,-0.858043
-588,148,-8.00586,0.746216,-0.00699514,-0.00213683,0.00388969,1.99154e-05,-0.00915189,1.06452,0.00610791,0.0132788,636,876,-8.00584,-0.746226
-581,148,-8.04706,0.638855,-0.00777856,-0.00122669,0.0035759,0.000346989,-0.00935225,1.15622,0.00635365,0.0196505,643,876,-8.04709,-0.638867
-574,148,-7.96008,0.525635,-0.0084478,-0.000983078,0.00370884,0.000546312,-0.00997719,1.17968,0.00684084,0.0236459,650,876,-7.96007,-0.52562
-567,148,-7.98407,0.427124,-0.00946003,-0.00117625,0.00400271,0.000441801,-0.0110781,1.18664,0.00753697,0.027651,657,876,-7.98404,-0.427141
-560,148,-7.9574,0.322632,-0.0103466,-0.00120282,0.00434086,0.000529674,-0.0120791,1.19105,0.00823494,0.0271293,664,876,-7.95742,-0.322631
-553,148,-8.44244,0.525574,-0.0109055,-0.00136558,0.00458626,0.000481576,-0.0127527,1.18791,0.00866679,0.0353313,671,876,-8.44245,-0.525563
-546,148,-8.80762,0.764404,0,0,0,0,0,0,0,-1,678,876,-8.80761,-0.764392
-539,148,-9.34039,0.738831,-0.0103289,-0.00106077,0.00473933,0.000933583,-0.0123232,1.17248,0.00854369,0.0345496,685,876,-9.34042,-0.73884
-532,148,-9.34949,0.74762,-0.00890392,-0.000794319,0.00438503,0.00112331,-0.0108216,1.15854,0.00761647,0.0344048,692,876,-9.34949,-0.747643
-525,148,-9.30115,0.78241,-0.00649943,-0.00041842,0.00362837,0.00127497,-0.00819282,1.13414,0.00593271,0.0366443,699,876,-9.30116,-0.782387
-518,148,-9.38049,0.721313,-0.00274495,0.000102877,0.00238979,0.0014608,-0.00410287,1.05407,0.00333073,0.0424969,706,876,-9.38048,-0.72129
-511,148,-9.49463,0.698914,0.00245938,0.000828528,0.000632364,0.00267585,0.000612062,0.329811,0.00161892,0.041892,713,876,-9.49463,-0.698919
-504,148,-9.48328,0.653503,0.00870436,0.00174427,-0.00148479,0.00900788,0.00144076,-0.201638,0.00558727,0.0423036,720,876,-9.48327,-0.653527
-497,148,0,0,0,0,0,0,0,0,0,-1,727,876,0,0
-490,148,0,0,0,0,0,0,0,0,0,-1,734,876,0,0
-483,148,0,0,0,0,0,0,0,0,0,-1,741,876,0,0
-476,148,0,0,0,0,0,0,0,0,0,-1,748,876,0,0
-469,148,0,0,0,0,0,0,0,0,0,-1,755,876,0,0
-462,148,0,0,0,0,0,0,0,0,0,-1,762,876,0,0
-455,148,0,0,0,0,0,0,0,0,0,-1,769,876,0,0
-448,148,0,0,0,0,0,0,0,0,0,-1,776,876,0,0
-441,148,0,0,0,0,0,0,0,0,0,-1,783,876,0,0
-434,148,0,0,0,0,0,0,0,0,0,-1,790,876,0,0
-427,148,0,0,0,0,0,0,0,0,0,-1,797,876,0,0
-420,148,0,0,0,0,0,0,0,0,0,-1,804,876,0,0
-413,148,0,0,0,0,0,0,0,0,0,-1,811,876,0,0
-406,148,0,0,0,0,0,0,0,0,0,-1,818,876,0,0
-399,148,0,0,0,0,0,0,0,0,0,-1,825,876,0,0
-392,148,0,0,0,0,0,0,0,0,0,-1,832,876,0,0
-385,148,0,0,0,0,0,0,0,0,0,-1,839,876,0,0
-378,148,0,0,0,0,0,0,0,0,0,-1,846,876,0,0
-371,148,0,0,0,0,0,0,0,0,0,-1,853,876,0,0
-364,148,0,0,0,0,0,0,0,0,0,-1,860,876,0,0
-357,148,0,0,0,0,0,0,0,0,0,-1,867,876,0,0
-350,148,0,0,0,0,0,0,0,0,0,-1,874,876,0,0
-343,148,0,0,0,0,0,0,0,0,0,-1,881,876,0,0
-336,148,0,0,0,0,0,0,0,0,0,-1,888,876,0,0
-329,148,0,0,0,0,0,0,0,0,0,-1,895,876,0,0
-322,148,0,0,0,0,0,0,0,0,0,-1,902,876,0,0
-315,148,0,0,0,0,0,0,0,0,0,-1,909,876,0,0
-308,148,0,0,0,0,0,0,0,0,0,-1,916,876,0,0
-301,148,0,0,0,0,0,0,0,0,0,-1,923,876,0,0
-294,148,0,0,0,0,0,0,0,0,0,-1,930,876,0,0
-287,148,0,0,0,0,0,0,0,0,0,-1,937,876,0,0
-280,148,0,0,0,0,0,0,0,0,0,-1,944,876,0,0
-273,148,0,0,0,0,0,0,0,0,0,-1,951,876,0,0
-266,148,0,0,0,0,0,0,0,0,0,-1,958,876,0,0
-259,148,0,0,0,0,0,0,0,0,0,-1,965,876,0,0
-252,148,0,0,0,0,0,0,0,0,0,-1,972,876,0,0
-245,148,0,0,0,0,0,0,0,0,0,-1,979,876,0,0
-238,148,0,0,0,0,0,0,0,0,0,-1,986,876,0,0
-231,148,0,0,0,0,0,0,0,0,0,-1,993,876,0,0
-224,148,0,0,0,0,0,0,0,0,0,-1,1000,876,0,0
-217,148,0,0,0,0,0,0,0,0,0,-1,1007,876,0,0
-210,148,0,0,0,0,0,0,0,0,0,-1,1014,876,0,0
-203,148,0,0,0,0,0,0,0,0,0,-1,1021,876,0,0
-196,148,0,0,0,0,0,0,0,0,0,-1,1028,876,0,0
-189,148,0,0,0,0,0,0,0,0,0,-1,1035,876,0,0
-182,148,0,0,0,0,0,0,0,0,0,-1,1042,876,0,0
-175,148,0,0,0,0,0,0,0,0,0,-1,1049,876,0,0
-168,148,0,0,0,0,0,0,0,0,0,-1,1056,876,0,0
-161,148,0,0,0,0,0,0,0,0,0,-1,1063,876,0,0
-154,148,0,0,0,0,0,0,0,0,0,-1,1070,876,0,0
-147,148,0,0,0,0,0,0,0,0,0,-1,1077,876,0,0
-140,148,0,0,0,0,0,0,0,0,0,-1,1084,876,0,0
-133,148,0,0,0,0,0,0,0,0,0,-1,1091,876,0,0
-126,148,0,0,0,0,0,0,0,0,0,-1,1098,876,0,0
-119,148,0,0,0,0,0,0,0,0,0,-1,1105,876,0,0
-112,148,0,0,0,0,0,0,0,0,0,-1,1112,876,0,0
-105,148,0,0,0,0,0,0,0,0,0,-1,1119,876,0,0
-98,148,0,0,0,0,0,0,0,0,0,-1,1126,876,0,0
-91,148,0,0,0,0,0,0,0,0,0,-1,1133,876,0,0
-84,148,0,0,0,0,0,0,0,0,0,-1,1140,876,0,0
-77,148,0,0,0,0,0,0,0,0,0,-1,1147,876,0,0
-70,148,0,0,0,0,0,0,0,0,0,-1,1154,876,0,0
-63,148,0,0,0,0,0,0,0,0,0,-1,1161,876,0,0
-56,148,0,0,0,0,0,0,0,0,0,-1,1168,876,0,0
-49,148,0,0,0,0,0,0,0,0,0,-1,1175,876,0,0
-42,148,0,0,0,0,0,0,0,0,0,-1,1182,876,0,0
-35,148,0,0,0,0,0,0,0,0,0,-1,1189,876,0,0
-28,148,0,0,0,0,0,0,0,0,0,-1,1196,876,0,0
-21,148,0,0,0,0,0,0,0,0,0,-1,1203,876,0,0
-14,148,0,0,0,0,0,0,0,0,0,-1,1210,876,0,0
-7,148,0,0,0,0,0,0,0,0,0,-1,1217,876,0,0
0,148,0,0,0,0,0,0,0,0,0,-1,1224,876,0,0
7,148,0,0,0,0,0,0,0,0,0,-1,1231,876,0,0
14,148,0,0,0,0,0,0,0,0,0,-1,1238,876,0,0
21,148,0,0,0,0,0,0,0,0,0,-1,1245,876,0,0
28,148,0,0,0,0,0,0,0,0,0,-1,1252,876,0,0
35,148,0,0,0,0,0,0,0,0,0,-1,1259,876,0,0
42,148,0,0,0,0,0,0,0,0,0,-1,1266,876,0,0
49,148,0,0,0,0,0,0,0,0,0,-1,1273,876,0,0
56,148,0,0,0,0,0,0,0,0,0,-1,1280,876,0,0
63,148,0,0,0,0,0,0,0,0,0,-1,1287,876,0,0
70,148,0,0,0,0,0,0,0,0,0,-1,1294,876,0,0
77,148,0,0,0,0,0,0,0,0,0,-1,1301,876,0,0
84,148,0,0,0,0,0,0,0,0,0,-1,1308,876,0,0
91,148,0,0,0,0,0,0,0,0,0,-1,1315,876,0,0
98,148,0,0,0,0,0,0,0,0,0,-1,1322,876,0,0
105,148,0,0,0,0,0,0,0,0,0,-1,1329,876,0,0
112,148,0,0,0,0,0,0,0,0,0,-1,1336,876,0,0
119,148,0,0,0,0,0,0,0,0,0,-1,1343,876,0,0
126,148,0,0,0,0,0,0,0,0,0,-1,1350,876,0,0
133,148,0,0,0,0,0,0,0,0,0,-1,1357,876,0,0
140,148,0,0,0,0,0,0,0,0,0,-1,1364,876,0,0
147,148,0,0,0,0,0,0,0,0,0,-1,1371,876,0,0
154,148,0,0,0,0,0,0,0,0,0,-1,1378,876,0,0
161,148,0,0,0,0,0,0,0,0,0,-1,1385,876,0,0
168,148,0,0,0,0,0,0,0,0,0,-1,1392,876,0,0
175,148,0,0,0,0,0,0,0,0,0,-1,1399,876,0,0
182,148,0,0,0,0,0,0,0,0,0,-1,1406,876,0,0
189,148,0,0,0,0,0,0,0,0,0,-1,1413,876,0,0
196,148,0,0,0,0,0,0,0,0,0,-1,1420,876,0,0
203,148,0,0,0,0,0,0,0,0,0,-1,1427,876,0,0
210,148,0,0,0,0,0,0,0,0,0,-1,1434,876,0,0
217,148,0,0,0,0,0,0,0,0,0,-1,1441,876,0,0
224,148,0,0,0,0,0,0,0,0,0,-1,1448,876,0,0
231,148,0,0,0,0,0,0,0,0,0,-1,1455,876,0,0
238,148,0,0,0,0,0,0,0,0,0,-1,1462,876,0,0
245,148,0,0,0,0,0,0,0,0,0,-1,1469,876,0,0
252,148,0,0,0,0,0,0,0,0,0,-1,1476,876,0,0
259,148,0,0,0,0,0,0,0,0,0,-1,1483,876,0,0
266,148,0,0,0,0,0,0,0,0,0,-1,1490,876,0,0
273,148,0,0,0,0,0,0,0,0,0,-1,1497,876,0,0
280,148,0,0,0,0,0,0,0,0,0,-1,1504,876,0,0
287,148,0,0,0,0,0,0,0,0,0,-1,1511,876,0,0
294,148,0,0,0,0,0,0,0,0,0,-1,1518,876,0,0
301,148,0,0,0,0,0,0,0,0,0,-1,1525,876,0,0
308,148,0,0,0,0,0,0,0,0,0,-1,1532,876,0,0
315,148,0,0,0,0,0,0,0,0,0,-1,1539,876,0,0
322,148,0,0,0,0,0,0,0,0,0,-1,1546,876,0,0
329,148,0,0,0,0,0,0,0,0,0,-1,1553,876,0,0
336,148,0,0,0,0,0,0,0,0,0,-1,1560,876,0,0
343,148,0,0,0,0,0,0,0,0,0,-1,1567,876,0,0
350,148,0,0,0,0,0,0,0,0,0,-1,1574,876,0,0
357,148,0,0,0,0,0,0,0,0,0,-1,1581,876,0,0
364,148,0,0,0,0,0,0,0,0,0,-1,1588,876,0,0
371,148,0,0,0,0,0,0,0,0,0,-1,1595,876,0,0
378,148,0,0,0,0,0,0,0,0,0,-1,1602,876,0,0
385,148,0,0,0,0,0,0,0,0,0,-1,1609,876,0,0
392,148,0,0,0,0,0,0,0,0,0,-1,1616,876,0,0
399,148,0,0,0,0,0,0,0,0,0,-1,1623,876,0,0
406,148,0,0,0,0,0,0,0,0,0,-1,1630,876,0,0
413,148,0,0,0,0,0,0,0,0,0,-1,1637,876,0,0
420,148,0,0,0,0,0,0,0,0,0,-1,1644,876,0,0
427,148,0,0,0,0,0,0,0,0,0,-1,1651,876,0,0
434,148,0,0,0,0,0,0,0,0,0,-1,1658,876,0,0
441,148,0,0,0,0,0,0,0,0,0,-1,1665,876,0,0
448,148,0,0,0,0,0,0,0,0,0,-1,1672,876,0,0
455,148,0,0,0,0,0,0,0,0,0,-1,1679,876,0,0
462,148,0,0,0,0,0,0,0,0,0,-1,1686,876,0,0
469,148,0,0,0,0,0,0,0,0,0,-1,1693,876,0,0
476,148,0,0,0,0,0,0,0,0,0,-1,1700,876,0,0
483,148,0,0,0,0,0,0,0,0,0,-1,1707,876,0,0
490,148,0,0,0,0,0,0,0,0,0,-1,1714,876,0,0
497,148,0,0,0,0,0,0,0,0,0,-1,1721,876,0,0
504,148,0,0,0,0,0,0,0,0,0,-1,1728,876,0,0
511,148,0,0,0,0,0,0,0,0,0,-1,1735,876,0,0
518,148,0,0,0,0,0,0,0,0,0,-1,1742,876,0,0
525,148,0,0,0,0,0,0,0,0,0,-1,1749,876,0,0
532,148,0,0,0,0,0,0,0,0,0,-1,1756,876,0,0
539,148,0,0,0,0,0,0,0,0,0,-1,1763,876,0,0
546,148,0,0,0,0,0,0,0,0,0,-1,1770,876,0,0
553,148,0,0,0,0,0,0,0,0,0,-1,1777,876,0,0
560,148,0,0,0,0,0,0,0,0,0,-1,1784,876,0,0
567,148,0,0,0,0,0,0,0,0,0,-1,1791,876,0,0
574,148,0,0,0,0,0,0,0,0,0,-1,1798,876,0,0
581,148,0,0,0,0,0,0,0,0,0,-1,1805,876,0,0
588,148,0,0,0,0,0,0,0,0,0,-1,1812,876,0,0
595,148,0,0,0,0,0,0,0,0,0,-1,1819,876,0,0
602,148,0,0,0,0,0,0,0,0,0,-1,1826,876,0,0
609,148,0,0,0,0,0,0,0,0,0,-1,1833,876,0,0
616,148,0,0,0,0,0,0,0,0,0,-1,1840,876,0,0
623,148,15.1641,2.52478,0.00878255,-0.00362121,-0.00196925,0.00908769,-0.00392635,-0.153728,0.00770811,0.0417829,1847,876,15.1641,-2.52478
630,148,15.2047,2.2879,0.00692528,-0.001573,-0.000530507,0.00695827,-0.00160599,-0.0621039,0.0052566,0.0424671,1854,876,15.2047,-2.2879
637,148,15.2234,2.40607,0.00376364,-0.00041225,-0.000444811,0.00381049,-0.000459105,-0.10495,0.00270637,0.0355981,1861,876,15.2234,-2.40607
644,148,15.3019,2.3877,-1.63547e-05,0.000249674,-0.000971842,0.00109756,-0.000864242,-0.85341,0.00113532,0.0329043,1868,876,15.3019,-2.38768
651,148,15.3906,2.15802,-0.00376944,0.000520952,-0.00174177,0.00113902,-0.00438751,-1.22981,0.00336948,0.0360435,1875,876,15.3906,-2.15803
658,148,15.309,2.24701,-0.00686747,0.000565661,-0.00251309,0.00133558,-0.00763739,-1.27351,0.00559022,0.0315856,1882,876,15.3089,-2.247
665,148,15.1714,2.43494,-0.00926553,0.000472163,-0.00313644,0.00139494,-0.0101883,-1.28466,0.00730174,0.0239745,1889,876,15.1714,-2.43494
672,148,15.2145,2.41376,-0.0109338,0.00041053,-0.00357351,0.00144236,-0.0119656,-1.2897,0.00849874,0.0295668,1896,876,15.2145,-2.41373
679,148,15.1656,2.47272,-0.0121529,0.00029475,-0.00374861,0.00133646,-0.0131946,-1.29974,0.00927406,0.0443875,1903,876,15.1656,-2.47271
686,148,13.2554,2.09174,0,0,0,0,0,0,0,-1,1910,876,13.2554,-2.09171
693,148,13.204,2.26318,-0.0123901,-0.000181665,-0.00406112,0.00104584,-0.0136176,-1.27727,0.00944633,0.026648,1917,876,13.204,-2.26321
700,148,13.2399,2.44061,-0.0115603,-0.000216994,-0.0038391,0.00096017,-0.0127375,-1.27327,0.00882915,0.0155839,1924,876,13.2399,-2.44059
707,148,13.2863,2.6084,-0.01007,-0.000212461,-0.00359023,0.000956513,-0.011239,-1.25602,0.007831,0.0128532,1931,876,13.2863,-2.60842
714,148,13.2761,2.67657,-0.00779221,-0.000588761,-0.00324446,0.000657083,-0.00903805,-1.20417,0.00625591,0.0121618,1938,876,13.2762,-2.67659
721,148,13.2034,2.76019,-0.0048731,-0.000594086,-0.00283492,0.000818063,-0.00628525,-1.10865,0.00448778,0.0156615,1945,876,13.2033,-2.76021
728,148,13.1874,2.87451,-0.00111294,-0.000357188,-0.00259531,0.00188761,-0.00335774,-0.85769,0.00306779,0.0182044,1952,876,13.1874,-2.87451
735,148,13.205,3.00525,0.00403727,-0.00100078,-0.00230494,0.00493266,-0.00189617,-0.370523,0.00407048,0.0176561,1959,876,13.205,-3.00525
742,148,13.2063,3.14948,0.0104913,8.53679e-05,-0.0042437,0.0120025,-0.00142581,-0.342099,0.00851683,0.0187509,1966,876,13.2063,-3.14949
749,148,13.201,3.26843,0.016921,0.000730833,-0.00625389,0.0190553,-0.00140353,-0.32889,0.0131963,0.0146343,1973,876,13.2011,-3.26846
756,148,13.1681,3.34894,0.0248608,0.00179603,-0.00943624,0.0282294,-0.00157254,-0.342881,0.0193651,0.0193735,1980,876,13.1681,-3.34892
763,148,13.3265,3.1889,0.0353611,0.00380657,-0.0142092,0.0408164,-0.00164877,-0.366577,0.0277768,0.0419258,1987,876,13.3266,-3.18888
770,148,13.6016,3.1449,0.0494788,0.00734971,-0.0211412,0.0582583,-0.00142977,-0.393607,0.0393241,0.045162,1994,876,13.6016,-3.14489
777,148,13.8243,3.22302,0,0,0,0,0,0,0,-1,2001,876,13.8244,-3.22304
784,148,14.0729,3.80847,0,0,0,0,0,0,0,-1,2008,876,14.0729,-3.8085
791,148,14.2441,4.23364,0,0,0,0,0,0,0,-1,2015,876,14.2441,-4.23361
798,148,0,0,0,0,0,0,0,0,0,-1,2022,876,0,0
805,148,0,0,0,0,0,0,0,0,0,-1,2029,876,0,0
812,148,0,0,0,0,0,0,0,0,0,-1,2036,876,0,0
-700,141,0,0,0,0,0,0,0,0,0,-1,524,883,0,0
-693,141,0,0,0,0,0,0,0,0,0,-1,531,883,0,0
-686,141,0,0,0,0,0,0,0,0,0,-1,538,883,0,0
-679,141,0,0,0,0,0,0,0,0,0,-1,545,883,0,0
-672,141,-6.58215,0.881287,0,0,0,0,0,0,0,-1,552,883,-6.58213,-0.881317
-665,141,-8.28479,0.169922,0,0,0,0,0,0,0,-1,559,883,-8.28479,-0.16994
-658,141,-8.44592,0.165771,0.0440882,-0.0380706,-0.0222232,0.0497142,-0.0436966,-0.247946,0.053968,0.0499897,566,883,-8.44589,-0.165792
-651,141,-5.47491,-1.00812,0,0,0,0,0,0,0,-1,573,883,-5.47491,1.0081
-644,141,-7.83679,0.265442,0,0,0,0,0,0,0,-1,580,883,-7.8368,-0.265423
-637,141,-7.34698,1.23096,0,0,0,0,0,0,0,-1,587,883,-7.34699,-1.23094
-630,141,-7.66852,1.21313,0.00759553,-0.0115961,0.0016624,0.00773847,-0.011739,0.0857698,0.0113241,0.0386068,594,883,-7.66852,-1.21311
-623,141,-7.97455,1.1778,0.00332899,-0.00801528,0.00341272,0.00427651,-0.0089628,0.270821,0.0078017,0.0196469,601,883,-7.97452,-1.1778
-616,141,-8.04449,1.13251,0.000317887,-0.00521835,0.00417878,0.00256222,-0.00746268,0.492869,0.00601397,0.01159,608,883,-8.04449,-1.13248
-609,141,-8.06403,1.06543,-0.00224015,-0.00301276,0.00448595,0.0018761,-0.00712901,0.742447,0.00548603,0.0128215,615,883,-8.06402,-1.06544
-602,141,-8.0694,0.961548,-0.00524528,-0.00176611,0.0044707,0.00129152,-0.00830292,0.970939,0.0060122,0.0108877,622,883,-8.0694,-0.961557
-595,141,-8.09808,0.852356,-0.00639291,-0.00145099,0.00404978,0.000822142,-0.00866604,1.05932,0.00606999,0.00950288,629,883,-8.09811,-0.85235
-588,141,-8.18335,0.750427,-0.00726765,-0.00196124,0.00340168,-0.000300407,-0.00892848,1.1166,0.00585476,0.0147093,636,883,-8.18336,-0.750418
-581,141,-8.18536,0.661682,-0.00799045,-0.00118089,0.00313401,4.19123e-05,-0.00921326,1.19879,0.00615619,0.0204837,643,883,-8.18534,-0.661703
-574,141,-8.04181,0.592102,-0.00852983,-0.000991394,0.0032656,0.000226484,-0.00974771,1.21383,0.00657527,0.0227872,650,883,-8.04178,-0.592075
-567,141,-8.04065,0.491028,-0.00925719,-0.00113441,0.003536,0.000189194,-0.0105808,1.21262,0.00711777,0.0269695,657,883,-8.04067,-0.491038
-560,141,-8.13556,0.456665,-0.00995993,-0.00110006,0.00384345,0.00033485,-0.0113948,1.21348,0.0077106,0.0332505,664,883,-8.13557,-0.456651
-553,141,-8.74512,0.664429,-0.0103524,-0.0012275,0.00404583,0.000307978,-0.0118879,1.20807,0.00802987,0.0418407,671,883,-8.74512,-0.664429
-546,141,-9.33173,0.763428,0,0,0,0,0,0,0,-1,678,883,-9.33172,-0.763425
-539,141,-9.32629,0.674377,-0.00947596,-0.000830497,0.00412797,0.000823906,-0.0111304,1.18962,0.00770957,0.0312698,685,883,-9.3263,-0.674357
-532,141,-9.3819,0.651001,-0.00790737,-0.000513334,0.00375547,0.00105952,-0.00948022,1.17418,0.0067013,0.0306153,692,883,-9.38192,-0.65101
-525,141,-9.40515,0.671814,-0.00531865,-9.42422e-05,0.00297111,0.0012497,-0.0066626,1.146,0.00491158,0.0379215,699,883,-9.40517,-0.671835
-518,141,-9.46863,0.793335,-0.00136254,0.000429069,0.00168239,0.00143928,-0.00237276,1.03004,0.00222277,0.0424159,706,883,-9.46862,-0.793325
-511,141,-9.40686,0.99823,0.00382473,0.00110125,-0.000122919,0.00383027,0.00109572,-0.0450111,0.00227788,0.040869,713,883,-9.40689,-0.998233
-504,141,-9.29321,0.924438,0.00961119,0.00186271,-0.00221181,0.0101981,0.0012758,-0.259375,0.00641589,0.0441807,720,883,-9.2932,-0.924464
-497,141,0,0,0,0,0,0,0,0,0,-1,727,883,0,0
-490,141,0,0,0,0,0,0,0,0,0,-1,734,883,0,0
-483,141,0,0,0,0,0,0,0,0,0,-1,741,883,0,0
-476,141,0,0,0,0,0,0,0,0,0,-1,748,883,0,0
-469,141,0,0,0,0,0,0,0,0,0,-1,755,883,0,0
-462,141,0,0,0,0,0,0,0,0,0,-1,762,883,0,0
-455,141,0,0,0,0,0,0,0,0,0,-1,769,883,0,0
-448,141,0,0,0,0,0,0,0,0,0,-1,776,883,0,0
-441,141,0,0,0,0,0,0,0,0,0,-1,783,883,0,0
-434,141,0,0,0,0,0,0,0,0,0,-1,790,883,0,0
-427,141,0,0,0,0,0,0,0,0,0,-1,797,883,0,0
-420,141,0,0,0,0,0,0,0,0,0,-1,804,883,0,0
-413,141,0,0,0,0,0,0,0,0,0,-1,811,883,0,0
-406,141,0,0,0,0,0,0,0,0,0,-1,818,883,0,0
-399,141,0,0,0,0,0,0,0,0,0,-1,825,883,0,0
-392,141,0,0,0,0,0,0,0,0,0,-1,832,883,0,0
-385,141,0,0,0,0,0,0,0,0,0,-1,839,883,0,0
-378,141,0,0,0,0,0,0,0,0,0,-1,846,883,0,0
-371,141,0,0,0,0,0,0,0,0,0,-1,853,883,0,0
-364,141,0,0,0,0,0,0,0,0,0,-1,860,883,0,0
-357,141,0,0,0,0,0,0,0,0,0,-1,867,883,0,0
-350,141,0,0,0,0,0,0,0,0,0,-1,874,883,0,0
-343,141,0,0,0,0,0,0,0,0,0,-1,881,883,0,0
-336,141,0,0,0,0,0,0,0,0,0,-1,888,883,0,0
-329,141,0,0,0,0,0,0,0,0,0,-1,895,883,0,0
-322,141,0,0,0,0,0,0,0,0,0,-1,902,883,0,0
-315,141,0,0,0,0,0,0,0,0,0,-1,909,883,0,0
-308,141,0,0,0,0,0,0,0,0,0,-1,916,883,0,0
-301,141,0,0,0,0,0,0,0,0,0,-1,923,883,0,0
-294,141,0,0,0,0,0,0,0,0,0,-1,930,883,0,0
-287,141,0,0,0,0,0,0,0,0,0,-1,937,883,0,0
-280,141,0,0,0,0,0,0,0,0,0,-1,944,883,0,0
-273,141,0,0,0,0,0,0,0,0,0,-1,951,883,0,0
-266,141,0,0,0,0,0,0,0,0,0,-1,958,883,0,0
-259,141,0,0,0,0,0,0,0,0,0,-1,965,883,0,0
-252,141,0,0,0,0,0,0,0,0,0,-1,972,883,0,0
-245,141,0,0,0,0,0,0,0,0,0,-1,979,883,0,0
-238,141,0,0,0,0,0,0,0,0,0,-1,986,883,0,0
-231,141,0,0,0,0,0,0,0,0,0,-1,993,883,0,0
-224,141,0,0,0,0,0,0,0,0,0,-1,1000,883,0,0
-217,141,0,0,0,0,0,0,0,0,0,-1,1007,883,0,0
-210,141,0,0,0,0,0,0,0,0,0,-1,1014,883,0,0
-203,141,0,0,0,0,0,0,0,0,0,-1,1021,883,0,0
-196,141,0,0,0,0,0,0,0,0,0,-1,1028,883,0,0
-189,141,0,0,0,0,0,0,0,0,0,-1,1035,883,0,0
-182,141,0,0,0,0,0,0,0,0,0,-1,1042,883,0,0
-175,141,0,0,0,0,0,0,0,0,0,-1,1049,883,0,0
-168,141,0,0,0,0,0,0,0,0,0,-1,1056,883,0,0
-161,141,0,0,0,0,0,0,0,0,0,-1,1063,883,0,0
-154,141,0,0,0,0,0,0,0,0,0,-1,1070,883,0,0
-147,141,0,0,0,0,0,0,0,0,0,-1,1077,883,0,0
-140,141,0,0,0,0,0,0,0,0,0,-1,1084,883,0,0
-133,141,0,0,0,0,0,0,0,0,0,-1,1091,883,0,0
-126,141,0,0,0,0,0,0,0,0,0,-1,1098,883,0,0
-119,141,0,0,0,0,0,0,0,0,0,-1,1105,883,0,0
-112,141,0,0,0,0,0,0,0,0,0,-1,1112,883,0,0
-105,141,0,0,0,0,0,0,0,0,0,-1,1119,883,0,0
-98,141,0,0,0,0,0,0,0,0,0,-1,1126,883,0,0
-91,141,0,0,0,0,0,0,0,0,0,-1,1133,883,0,0
-84,141,0,0,0,0,0,0,0,0,0,-1,1140,883,0,0
-77,141,0,0,0,0,0,0,0,0,0,-1,1147,883,0,0
-70,141,0,0,0,0,0,0,0,0,0,-1,1154,883,0,0
-63,141,0,0,0,0,0,0,0,0,0,-1,1161,883,0,0
-56,141,0,0,0,0,0,0,0,0,0,-1,1168,883,0,0
-49,141,0,0,0,0,0,0,0,0,0,-1,1175,883,0,0
-42,141,0,0,0,0,0,0,0,0,0,-1,1182,883,0,0
-35,141,0,0,0,0,0,0,0,0,0,-1,1189,883,0,0
-28,141,0,0,0,0,0,0,0,0,0,-1,1196,883,0,0
-21,141,0,0,0,0,0,0,0,0,0,-1,1203,883,0,0
-14,141,0,0,0,0,0,0,0,0,0,-1,1210,883,0,0
-7,141,0,0,0,0,0,0,0,0,0,-1,1217,883,0,0
0,141,0,0,0,0,0,0,0,0,0,-1,1224,883,0,0
7,141,0,0,0,0,0,0,0,0,0,-1,1231,883,0,0
14,141,0,0,0,0,0,0,0,0,0,-1,1238,883,0,0
21,141,0,0,0,0,0,0,0,0,0,-1,1245,883,0,0
28,141,0,0,0,0,0,0,0,0,0,-1,1252,883,0,0
35,141,0,0,0,0,0,0,0,0,0,-1,1259,883,0,0
42,141,0,0,0,0,0,0,0,0,0,-1,1266,883,0,0
49,141,0,0,0,0,0,0,0,0,0,-1,1273,883,0,0
56,141,0,0,0,0,0,0,0,0,0,-1,1280,883,0,0
63,141,0,0,0,0,0,0,0,0,0,-1,1287,883,0,0
70,141,0,0,0,0,0,0,0,0,0,-1,1294,883,0,0
77,141,0,0,0,0,0,0,0,0,0,-1,1301,883,0,0
84,141,0,0,0,0,0,0,0,0,0,-1,1308,883,0,0
91,141,0,0,0,0,0,0,0,0,0,-1,1315,883,0,0
98,141,0,0,0,0,0,0,0,0,0,-1,1322,883,0,0
105,141,0,0,0,0,0,0,0,0,0,-1,1329,883,0,0
112,141,0,0,0,0,0,0,0,0,0,-1,1336,883,0,0
119,141,0,0,0,0,0,0,0,0,0,-1,1343,883,0,0
126,141,0,0,0,0,0,0,0,0,0,-1,1350,883,0,0
133,141,0,0,0,0,0,0,0,0,0,-1,1357,883,0,0
140,141,0,0,0,0,0,0,0,0,0,-1,1364,883,0,0
147,141,0,0,0,0,0,0,0,0,0,-1,1371,883,0,0
154,141,0,0,0,0,0,0,0,0,0,-1,1378,883,0,0
161,141,0,0,0,0,0,0,0,0,0,-1,1385,883,0,0
168,141,0,0,0,0,0,0,0,0,0,-1,1392,883,0,0
175,141,0,0,0,0,0,0,0,0,0,-1,1399,883,0,0
182,141,0,0,0,0,0,0,0,0,0,-1,1406,883,0,0
189,141,0,0,0,0,0,0,0,0,0,-1,1413,883,0,0
196,141,0,0,0,0,0,0,0,0,0,-1,1420,883,0,0
203,141,0,0,0,0,0,0,0,0,0,-1,1427,883,0,0
210,141,0,0,0,0,0,0,0,0,0,-1,1434,883,0,0
217,141,0,0,0,0,0,0,0,0,0,-1,1441,883,0,0
224,141,0,0,0,0,0,0,0,0,0,-1,1448,883,0,0
231,141,0,0,0,0,0,0,0,0,0,-1,1455,883,0,0
238,141,0,0,0,0,0,0,0,0,0,-1,1462,883,0,0
245,141,0,0,0,0,0,0,0,0,0,-1,1469,883,0,0
252,141,0,0,0,0,0,0,0,0,0,-1,1476,883,0,0
259,141,0,0,0,0,0,0,0,0,0,-1,1483,883,0,0
266,141,0,0,0,0,0,0,0,0,0,-1,1490,883,0,0
273,141,0,0,0,0,0,0,0,0,0,-1,1497,883,0,0
280,141,0,0,0,0,0,0,0,0,0,-1,1504,883,0,0
287,141,0,0,0,0,0,0,0,0,0,-1,1511,883,0,0
294,141,0,0,0,0,0,0,0,0,0,-1,1518,883,0,0
301,141,0,0,0,0,0,0,0,0,0,-1,1525,883,0,0
308,141,0,0,0,0,0,0,0,0,0,-1,1532,883,0,0
315,141,0,0,0,0,0,0,0,0,0,-1,1539,883,0,0
322,141,0,0,0,0,0,0,0,0,0,-1,1546,883,0,0
329,141,0,0,0,0,0,0,0,0,0,-1,1553,883,0,0
336,141,0,0,0,0,0,0,0,0,0,-1,1560,883,0,0
343,141,0,0,0,0,0,0,0,0,0,-1,1567,883,0,0
350,141,0,0,0,0,0,0,0,0,0,-1,1574,883,0,0
357,141,0,0,0,0,0,0,0,0,0,-1,1581,883,0,0
364,141,0,0,0,0,0,0,0,0,0,-1,1588,883,0,0
371,141,0,0,0,0,0,0,0,0,0,-1,1595,883,0,0
378,141,0,0,0,0,0,0,0,0,0,-1,1602,883,0,0
385,141,0,0,0,0,0,0,0,0,0,-1,1609,883,0,0
392,141,0,0,0,0,0,0,0,0,0,-1,1616,883,0,0
399,141,0,0,0,0,0,0,0,0,0,-1,1623,883,0,0
406,141,0,0,0,0,0,0,0,0,0,-1,1630,883,0,0
413,141,0,0,0,0,0,0,0,0,0,-1,1637,883,0,0
420,141,0,0,0,0,0,0,0,0,0,-1,1644,883,0,0
427,141,0,0,0,0,0,0,0,0,0,-1,1651,883,0,0
434,141,0,0,0,0,0,0,0,0,0,-1,1658,883,0,0
441,141,0,0,0,0,0,0,0,0,0,-1,1665,883,0,0
448,141,0,0,0,0,0,0,0,0,0,-1,1672,883,0,0
455,141,0,0,0,0,0,0,0,0,0,-1,1679,883,0,0
462,141,0,0,0,0,0,0,0,0,0,-1,1686,883,0,0
469,141,0,0,0,0,0,0,0,0,0,-1,1693,883,0,0
476,141,0,0,0,0,0,0,0,0,0,-1,1700,883,0,0
483,141,0,0,0,0,0,0,0,0,0,-1,1707,883,0,0
490,141,0,0,0,0,0,0,0,0,0,-1,1714,883,0,0
497,141,0,0,0,0,0,0,0,0,0,-1,1721,883,0,0
504,141,0,0,0,0,0,0,0,0,0,-1,1728,883,0,0
511,141,0,0,0,0,0,0,0,0,0,-1,1735,883,0,0
518,141,0,0,0,0,0,0,0,0,0,-1,1742,883,0,0
525,141,0,0,0,0,0,0,0,0,0,-1,1749,883,0,0
532,141,0,0,0,0,0,0,0,0,0,-1,1756,883,0,0
539,141,0,0,0,0,0,0,0,0,0,-1,1763,883,0,0
546,141,0,0,0,0,0,0,0,0,0,-1,1770,883,0,0
553,141,0,0,0,0,0,0,0,0,0,-1,1777,883,0,0
560,141,0,0,0,0,0,0,0,0,0,-1,1784,883,0,0
567,141,0,0,0,0,0,0,0,0,0,-1,1791,883,0,0
574,141,0,0,0,0,0,0,0,0,0,-1,1798,883,0,0
581,141,0,0,0,0,0,0,0,0,0,-1,1805,883,0,0
588,141,0,0,0,0,0,0,0,0,0,-1,1812,883,0,0
595,141,0,0,0,0,0,0,0,0,0,-1,1819,883,0,0
602,141,0,0,0,0,0,0,0,0,0,-1,1826,883,0,0
609,141,0,0,0,0,0,0,0,0,0,-1,1833,883,0,0
616,141,0,0,0,0,0,0,0,0,0,-1,1840,883,0,0
623,141,15.2209,2.49817,0.00993555,-0.00195097,-0.00152711,0.0101286,-0.00214403,-0.125754,0.00756899,0.0444042,1847,883,15.2209,-2.49819
630,141,15.4524,1.95117,0.00790164,-0.000370869,-4.66183e-05,0.0079019,-0.000371132,-0.00563509,0.0053959,0.0467236,1854,883,15.4524,-1.95115
637,141,15.3218,2.21216,0.00478664,0.000473081,4.78003e-05,0.00478717,0.000472551,0.0110796,0.00304617,0.0398858,1861,883,15.3218,-2.21217
644,141,15.1532,2.39105,0.00104843,0.00091806,-0.000474287,0.00146199,0.000504498,-0.717109,0.000857479,0.0346909,1868,883,15.1532,-2.39102
651,141,15.3063,2.25,-0.00289239,0.00103928,-0.00128519,0.00142211,-0.00327522,-1.28129,0.00278146,0.0377701,1875,883,15.3062,-2.24999
658,141,15.3359,2.28052,-0.00632232,0.000972437,-0.00210186,0.00153471,-0.0068846,-1.3094,0.00517768,0.0344396,1882,883,15.336,-2.28054
665,141,15.2013,2.37921,-0.00899325,0.000784725,-0.00275846,0.00150923,-0.00971775,-1.31395,0.00703574,0.0253728,1889,883,15.2014,-2.37924
672,141,15.2028,2.38965,-0.0108739,0.000644019,-0.00323928,0.00149252,-0.0117224,-1.31461,0.008357,0.0216463,1896,883,15.2028,-2.38963
679,141,15.1389,2.45728,-0.0122745,0.000483832,-0.00343393,0.00134936,-0.01314,-1.32389,0.00924269,0.0245903,1903,883,15.139,-2.45725
686,141,13.7777,2.40051,0,0,0,0,0,0,0,-1,1910,883,13.7777,-2.40049
693,141,13.4597,2.41602,-0.0128343,-8.42752e-05,-0.00380762,0.00096626,-0.0138848,-1.30159,0.00959488,0.0402527,1917,883,13.4597,-2.41603
700,141,13.3496,2.44861,-0.0121759,-0.000111122,-0.00362217,0.000892809,-0.0131798,-1.30042,0.00909878,0.0162467,1924,883,13.3497,-2.4486
707,141,13.354,2.54791,-0.0108628,-0.00013628,-0.00336822,0.000833664,-0.0118328,-1.29041,0.00818056,0.0132104,1931,883,13.354,-2.54791
714,141,13.2997,2.64246,-0.00871996,-0.000473143,-0.00309405,0.000558607,-0.00975171,-1.24893,0.00669512,0.0133999,1938,883,13.2997,-2.64244
721,141,13.3176,2.76587,-0.00592367,-0.000480639,-0.00275629,0.000671319,-0.00707563,-1.17492,0.00495604,0.0119972,1945,883,13.3176,-2.76588
728,141,13.337,2.86078,-0.00226905,-0.000220035,-0.00259857,0.0015487,-0.00403779,-0.973172,0.00333037,0.0137885,1952,883,13.337,-2.86076
735,141,13.3318,3.02863,0.00294683,-0.000962032,-0.0023781,0.00407058,-0.00208578,-0.441438,0.00361542,0.0140262,1959,883,13.3318,-3.02864
742,141,13.3011,3.1496,0.00972497,0.000315807,-0.00458326,0.0115884,-0.00154767,-0.386168,0.00828982,0.0149788,1966,883,13.3011,-3.14962
749,141,13.2947,3.2533,0.0164107,0.00108519,-0.00675383,0.0189622,-0.00146637,-0.361218,0.0131575,0.0120857,1973,883,13.2946,-3.25328
756,141,13.2666,3.38611,0.0245632,0.00224179,-0.0101887,0.0285145,-0.00170945,-0.369951,0.0196043,0.018631,1980,883,13.2666,-3.38608
763,141,13.1476,3.53296,0.0350563,0.00429022,-0.0153182,0.0413824,-0.00203582,-0.391642,0.0282913,0.0431891,1987,883,13.1476,-3.53297
770,141,14.0168,2.63293,0.049049,0.00774671,-0.0226692,0.0590632,-0.00226751,-0.415975,0.0401526,0.046157,1994,883,14.0169,-2.63293
777,141,14.3267,2.81793,0,0,0,0,0,0,0,-1,2001,883,14.3267,-2.81793
784,141,14.5864,3.02979,0.0908937,0.0224179,-0.0477312,0.115397,-0.00208519,-0.474275,0.0776356,0.0489336,2008,883,14.5865,-3.0298
791,141,14.75,3.30322,0,0,0,0,0,0,0,-1,2015,883,14.75,-3.30322
798,141,0,0,0,0,0,0,0,0,0,-1,2022,883,0,0
805,141,0,0,0,0,0,0,0,0,0,-1,2029,883,0,0
812,141,0,0,0,0,0,0,0,0,0,-1,2036,883,0,0
-700,134,0,0,0,0,0,0,0,0,0,-1,524,890,0,0
-693,134,0,0,0,0,0,0,0,0,0,-1,531,890,0,0
-686,134,0,0,0,0,0,0,0,0,0,-1,538,890,0,0
-679,134,0,0,0,0,0,0,0,0,0,-1,545,890,0,0
-672,134,-5.99512,1.46021,0,0,0,0,0,0,0,-1,552,890,-5.99511,-1.4602
-665,134,-8.47705,0.265442,0,0,0,0,0,0,0,-1,559,890,-8.47703,-0.26544
-658,134,-8.57751,0.186523,0,0,0,0,0,0,0,-1,566,890,-8.5775,-0.186513
-651,134,-8.67657,0.132935,0,0,0,0,0,0,0,-1,573,890,-8.67655,-0.132904
-644,134,-8.15936,0.298401,0,0,0,0,0,0,0,-1,580,890,-8.15935,-0.298428
-637,134,-7.27124,0.799561,0,0,0,0,0,0,0,-1,587,890,-7.27121,-0.799579
-630,134,-7.72144,1.01453,0.00566147,-0.0130319,9.4356e-05,0.00566195,-0.0130324,0.00504739,0.0110693,0.0375874,594,890,-7.72144,-1.01451
-623,134,-8.11707,1.20599,0.00222691,-0.00872207,0.00222895,0.00266328,-0.00915843,0.193328,0.00716043,0.0191036,601,890,-8.11705,-1.20602
-616,134,-8.1814,1.1452,-0.000327888,-0.00547544,0.0033044,0.00128682,-0.00709015,0.454529,0.00520896,0.0119015,608,890,-8.18138,-1.14522
-609,134,-8.19464,1.0542,-0.00260644,-0.0030394,0.00380145,0.000984687,-0.00663053,0.756955,0.00478249,0.0117888,615,890,-8.19465,-1.05422
-602,134,-8.18713,0.940186,-0.00546375,-0.00167917,0.00387353,0.000739578,-0.00788249,1.01261,0.00551807,0.0119205,622,890,-8.18713,-0.940185
-595,134,-8.19824,0.861023,-0.00647359,-0.00124248,0.00350719,0.000517063,-0.00823313,1.10579,0.00566897,0.0111059,629,890,-8.19825,-0.861012
-588,134,-8.30151,0.773865,-0.00727559,-0.00172061,0.00290236,-0.000480869,-0.00851533,1.16711,0.00552358,0.018673,636,890,-8.30152,-0.773848
-581,134,-8.24072,0.623413,-0.00794429,-0.00105384,0.00264081,-0.000158156,-0.00883997,1.2438,0.00584131,0.0231651,643,890,-8.2407,-0.623389
-574,134,-8.19342,0.527893,-0.00837261,-0.000895551,0.00274518,4.08757e-06,-0.00927225,1.25411,0.00618286,0.0240585,650,890,-8.19342,-0.527889
-567,134,-8.11884,0.43866,-0.008869,-0.000962645,0.00296075,2.31704e-05,-0.00985481,1.24938,0.00657761,0.0204657,657,890,-8.11883,-0.438671
-560,134,-8.42163,0.565918,-0.00935968,-0.000852273,0.00321413,0.000225497,-0.0104375,1.24726,0.00703467,0.0339754,664,890,-8.42165,-0.565923
-553,134,-8.95013,0.809387,0,0,0,0,0,0,0,-1,671,890,-8.95012,-0.809379
-546,134,-9.31226,0.658264,-0.0092264,-0.000599855,0.00348531,0.000632294,-0.0104586,1.23098,0.0071924,0.0271102,678,890,-9.31223,-0.658263
-539,134,-9.33856,0.61969,-0.00822498,-0.000264013,0.00339341,0.000986133,-0.00947513,1.21782,0.00666981,0.0195647,685,890,-9.33854,-0.619695
-532,134,-9.41522,0.58606,-0.00641299,0.000220319,0.0030491,0.00140891,-0.00760158,1.1991,0.00559678,0.0236017,692,890,-9.41522,-0.586035
-525,134,-9.49329,0.611816,-0.0035813,0.00084873,0.00234274,0.0018578,-0.00459037,1.16409,0.00383266,0.0356292,699,890,-9.4933,-0.611794
-518,134,-9.45154,0.968262,0.000585063,0.00162602,0.00119438,0.0024084,-0.000197321,0.990878,0.00167525,0.0424618,706,890,-9.45153,-0.968264
-511,134,-9.3866,1.22858,0.0056416,0.00260287,-0.000351646,0.00568176,0.0025627,-0.113719,0.0032856,0.0434534,713,890,-9.38659,-1.22855
-504,134,0,0,0,0,0,0,0,0,0,-1,720,890,0,0
-497,134,0,0,0,0,0,0,0,0,0,-1,727,890,0,0
-490,134,0,0,0,0,0,0,0,0,0,-1,734,890,0,0
-483,134,0,0,0,0,0,0,0,0,0,-1,741,890,0,0
-476,134,0,0,0,0,0,0,0,0,0,-1,748,890,0,0
-469,134,0,0,0,0,0,0,0,0,0,-1,755,890,0,0
-462,134,0,0,0,0,0,0,0,0,0,-1,762,890,0,0
-455,134,0,0,0,0,0,0,0,0,0,-1,769,890,0,0
-448,134,0,0,0,0,0,0,0,0,0,-1,776,890,0,0
-441,134,0,0,0,0,0,0,0,0,0,-1,783,890,0,0
-434,134,0,0,0,0,0,0,0,0,0,-1,790,890,0,0
-427,134,0,0,0,0,0,0,0,0,0,-1,797,890,0,0
-420,134,0,0,0,0,0,0,0,0,0,-1,804,890,0,0
-413,134,0,0,0,0,0,0,0,0,0,-1,811,890,0,0
-406,134,0,0,0,0,0,0,0,0,0,-1,818,890,0,0
-399,134,0,0,0,0,0,0,0,0,0,-1,825,890,0,0
-392,134,0,0,0,0,0,0,0,0,0,-1,832,890,0,0
-385,134,0,0,0,0,0,0,0,0,0,-1,839,890,0,0
-378,134,0,0,0,0,0,0,0,0,0,-1,846,890,0,0
-371,134,0,0,0,0,0,0,0,0,0,-1,853,890,0,0
-364,134,0,0,0,0,0,0,0,0,0,-1,860,890,0,0
-357,134,0,0,0,0,0,0,0,0,0,-1,867,890,0,0
-350,134,0,0,0,0,0,0,0,0,0,-1,874,890,0,0
-343,134,0,0,0,0,0,0,0,0,0,-1,881,890,0,0
-336,134,0,0,0,0,0,0,0,0,0,-1,888,890,0,0
-329,134,0,0,0,0,0,0,0,0,0,-1,895,890,0,0
-322,134,0,0,0,0,0,0,0,0,0,-1,902,890,0,0
-315,134,0,0,0,0,0,0,0,0,0,-1,909,890,0,0
-308,134,0,0,0,0,0,0,0,0,0,-1,916,890,0,0
-301,134,0,0,0,0,0,0,0,0,0,-1,923,890,0,0
-294,134,0,0,0,0,0,0,0,0,0,-1,930,890,0,0
-287,134,0,0,0,0,0,0,0,0,0,-1,937,890,0,0
-280,134,0,0,0,0,0,0,0,0,0,-1,944,890,0,0
-273,134,0,0,0,0,0,0,0,0,0,-1,951,890,0,0
-266,134,0,0,0,0,0,0,0,0,0,-1,958,890,0,0
-259,134,0,0,0,0,0,0,0,0,0,-1,965,890,0,0
-252,134,0,0,0,0,0,0,0,0,0,-1,972,890,0,0
-245,134,0,0,0,0,0,0,0,0,0,-1,979,890,0,0
-238,134,0,0,0,0,0,0,0,0,0,-1,986,890,0,0
-231,134,0,0,0,0,0,0,0,0,0,-1,993,890,0,0
-224,134,0,0,0,0,0,0,0,0,0,-1,1000,890,0,0
-217,134,0,0,0,0,0,0,0,0,0,-1,1007,890,0,0
-210,134,0,0,0,0,0,0,0,0,0,-1,1014,890,0,0
-203,134,0,0,0,0,0,0,0,0,0,-1,1021,890,0,0
-196,134,0,0,0,0,0,0,0,0,0,-1,1028,890,0,0
-189,134,0,0,0,0,0,0,0,0,0,-1,1035,890,0,0
-182,134,0,0,0,0,0,0,0,0,0,-1,1042,890,0,0
-175,134,0,0,0,0,0,0,0,0,0,-1,1049,890,0,0
-168,134,0,0,0,0,0,0,0,0,0,-1,1056,890,0,0
-161,134,0,0,0,0,0,0,0,0,0,-1,1063,890,0,0
-154,134,0,0,0,0,0,0,0,0,0,-1,1070,890,0,0
-147,134,0,0,0,0,0,0,0,0,0,-1,1077,890,0,0
-140,134,0,0,0,0,0,0,0,0,0,-1,1084,890,0,0
-133,134,0,0,0,0,0,0,0,0,0,-1,1091,890,0,0
-126,134,0,0,0,0,0,0,0,0,0,-1,1098,890,0,0
-119,134,0,0,0,0,0,0,0,0,0,-1,1105,890,0,0
-112,134,0,0,0,0,0,0,0,0,0,-1,1112,890,0,0
-105,134,0,0,0,0,0,0,0,0,0,-1,1119,890,0,0
-98,134,0,0,0,0,0,0,0,0,0,-1,1126,890,0,0
-91,134,0,0,0,0,0,0,0,0,0,-1,1133,890,0,0
-84,134,0,0,0,0,0,0,0,0,0,-1,1140,890,0,0
-77,134,0,0,0,0,0,0,0,0,0,-1,1147,890,0,0
-70,134,0,0,0,0,0,0,0,0,0,-1,1154,890,0,0
-63,134,0,0,0,0,0,0,0,0,0,-1,1161,890,0,0
-56,134,0,0,0,0,0,0,0,0,0,-1,1168,890,0,0
-49,134,0,0,0,0,0,0,0,0,0,-1,1175,890,0,0
-42,134,0,0,0,0,0,0,0,0,0,-1,1182,890,0,0
-35,134,0,0,0,0,0,0,0,0,0,-1,1189,890,0,0
-28,134,0,0,0,0,0,0,0,0,0,-1,1196,890,0,0
-21,134,0,0,0,0,0,0,0,0,0,-1,1203,890,0,0
-14,134,0,0,0,0,0,0,0,0,0,-1,1210,890,0,0
-7,134,0,0,0,0,0,0,0,0,0,-1,1217,890,0,0
0,134,0,0,0,0,0,0,0,0,0,-1,1224,890,0,0
7,134,0,0,0,0,0,0,0,0,0,-1,1231,890,0,0
14,134,0,0,0,0,0,0,0,0,0,-1,1238,890,0,0
21,134,0,0,0,0,0,0,0,0,0,-1,1245,890,0,0
28,134,0,0,0,0,0,0,0,0,0,-1,1252,890,0,0
35,134,0,0,0,0,0,0,0,0,0,-1,1259,890,0,0
42,134,0,0,0,0,0,0,0,0,0,-1,1266,890,0,0
49,134,0,0,0,0,0,0,0,0,0,-1,1273,890,0,0
56,134,0,0,0,0,0,0,0,0,0,-1,1280,890,0,0
63,134,0,0,0,0,0,0,0,0,0,-1,1287,890,0,0
70,134,0,0,0,0,0,0,0,0,0,-1,1294,890,0,0
77,134,0,0,0,0,0,0,0,0,0,-1,1301,890,0,0
84,134,0,0,0,0,0,0,0,0,0,-1,1308,890,0,0
91,134,0,0,0,0,0,0,0,0,0,-1,1315,890,0,0
98,134,0,0,0,0,0,0,0,0,0,-1,1322,890,0,0
105,134,0,0,0,0,0,0,0,0,0,-1,1329,890,0,0
112,134,0,0,0,0,0,0,0,0,0,-1,1336,890,0,0
119,134,0,0,0,0,0,0,0,0,0,-1,1343,890,0,0
126,134,0,0,0,0,0,0,0,0,0,-1,1350,890,0,0
133,134,0,0,0,0,0,0,0,0,0,-1,1357,890,0,0
140,134,0,0,0,0,0,0,0,0,0,-1,1364,890,0,0
147,134,0,0,0,0,0,0,0,0,0,-1,1371,890,0,0
154,134,0,0,0,0,0,0,0,0,0,-1,1378,890,0,0
161,134,0,0,0,0,0,0,0,0,0,-1,1385,890,0,0
168,134,0,0,0,0,0,0,0,0,0,-1,1392,890,0,0
175,134,0,0,0,0,0,0,0,0,0,-1,1399,890,0,0
182,134,0,0,0,0,0,0,0,0,0,-1,1406,890,0,0
189,134,0,0,0,0,0,0,0,0,0,-1,1413,890,0,0
196,134,0,0,0,0,0,0,0,0,0,-1,1420,890,0,0
203,134,0,0,0,0,0,0,0,0,0,-1,1427,890,0,0
210,134,0,0,0,0,0,0,0,0,0,-1,1434,890,0,0
217,134,0,0,0,0,0,0,0,0,0,-1,1441,890,0,0
224,134,0,0,0,0,0,0,0,0,0,-1,1448,890,0,0
231,134,0,0,0,0,0,0,0,0,0,-1,1455,890,0,0
238,134,0,0,0,0,0,0,0,0,0,-1,1462,890,0,0
245,134,0,0,0,0,0,0,0,0,0,-1,1469,890,0,0
252,134,0,0,0,0,0,0,0,0,0,-1,1476,890,0,0
259,134,0,0,0,0,0,0,0,0,0,-1,1483,890,0,0
266,134,0,0,0,0,0,0,0,0,0,-1,1490,890,0,0
273,134,0,0,0,0,0,0,0,0,0,-1,1497,890,0,0
280,134,0,0,0,0,0,0,0,0,0,-1,1504,890,0,0
287,134,0,0,0,0,0,0,0,0,0,-1,1511,890,0,0
294,134,0,0,0,0,0,0,0,0,0,-1,1518,890,0,0
301,134,0,0,0,0,0,0,0,0,0,-1,1525,890,0,0
308,134,0,0,0,0,0,0,0,0,0,-1,1532,890,0,0
315,134,0,0,0,0,0,0,0,0,0,-1,1539,890,0,0
322,134,0,0,0,0,0,0,0,0,0,-1,1546,890,0,0
329,134,0,0,0,0,0,0,0,0,0,-1,1553,890,0,0
336,134,0,0,0,0,0,0,0,0,0,-1,1560,890,0,0
343,134,0,0,0,0,0,0,0,0,0,-1,1567,890,0,0
350,134,0,0,0,0,0,0,0,0,0,-1,1574,890,0,0
357,134,0,0,0,0,0,0,0,0,0,-1,1581,890,0,0
364,134,0,0,0,0,0,0,0,0,0,-1,1588,890,0,0
371,134,0,0,0,0,0,0,0,0,0,-1,1595,890,0,0
378,134,0,0,0,0,0,0,0,0,0,-1,1602,890,0,0
385,134,0,0,0,0,0,0,0,0,0,-1,1609,890,0,0
392,134,0,0,0,0,0,0,0,0,0,-1,1616,890,0,0
399,134,0,0,0,0,0,0,0,0,0,-1,1623,890,0,0
406,134,0,0,0,0,0,0,0,0,0,-1,1630,890,0,0
413,134,0,0,0,0,0,0,0,0,0,-1,1637,890,0,0
420,134,0,0,0,0,0,0,0,0,0,-1,1644,890,0,0
427,134,0,0,0,0,0,0,0,0,0,-1,1651,890,0,0
434,134,0,0,0,0,0,0,0,0,0,-1,1658,890,0,0
441,134,0,0,0,0,0,0,0,0,0,-1,1665,890,0,0
448,134,0,0,0,0,0,0,0,0,0,-1,1672,890,0,0
455,134,0,0,0,0,0,0,0,0,0,-1,1679,890,0,0
462,134,0,0,0,0,0,0,0,0,0,-1,1686,890,0,0
469,134,0,0,0,0,0,0,0,0,0,-1,1693,890,0,0
476,134,0,0,0,0,0,0,0,0,0,-1,1700,890,0,0
483,134,0,0,0,0,0,0,0,0,0,-1,1707,890,0,0
490,134,0,0,0,0,0,0,0,0,0,-1,1714,890,0,0
497,134,0,0,0,0,0,0,0,0,0,-1,1721,890,0,0
504,134,0,0,0,0,0,0,0,0,0,-1,1728,890,0,0
511,134,0,0,0,0,0,0,0,0,0,-1,1735,890,0,0
518,134,0,0,0,0,0,0,0,0,0,-1,1742,890,0,0
525,134,0,0,0,0,0,0,0,0,0,-1,1749,890,0,0
532,134,0,0,0,0,0,0,0,0,0,-1,1756,890,0,0
539,134,0,0,0,0,0,0,0,0,0,-1,1763,890,0,0
546,134,0,0,0,0,0,0,0,0,0,-1,1770,890,0,0
553,134,0,0,0,0,0,0,0,0,0,-1,1777,890,0,0
560,134,0,0,0,0,0,0,0,0,0,-1,1784,890,0,0
567,134,0,0,0,0,0,0,0,0,0,-1,1791,890,0,0
574,134,0,0,0,0,0,0,0,0,0,-1,1798,890,0,0
581,134,0,0,0,0,0,0,0,0,0,-1,1805,890,0,0
588,134,0,0,0,0,0,0,0,0,0,-1,1812,890,0,0
595,134,0,0,0,0,0,0,0,0,0,-1,1819,890,0,0
602,134,0,0,0,0,0,0,0,0,0,-1,1826,890,0,0
609,134,0,0,0,0,0,0,0,0,0,-1,1833,890,0,0
616,134,0,0,0,0,0,0,0,0,0,-1,1840,890,0,0
623,134,15.0757,2.53387,0.010682,5.71625e-05,-0.00102953,0.0107809,-4.16776e-05,-0.095712,0.00720117,0.0462052,1847,890,15.0757,-2.53385
630,134,15.353,2.11249,0.00843473,0.00104579,0.000363417,0.00845256,0.00102796,0.0490262,0.00532556,0.0484047,1854,890,15.353,-2.11249
637,134,15.4474,2.22809,0.00544937,0.00146837,0.000425877,0.00549442,0.00142332,0.105388,0.0032927,0.0448771,1861,890,15.4474,-2.22806
644,134,15.327,2.49609,0.00194439,0.00158414,-6.57572e-05,0.00195602,0.00157251,-0.175016,0.00119683,0.0360006,1868,890,15.327,-2.49606
651,134,15.3247,2.34589,-0.0020143,0.00147664,-0.000874498,0.00168346,-0.00222112,-1.33857,0.00226142,0.0410869,1875,890,15.3247,-2.34587
658,134,15.288,2.24188,-0.00566406,0.00125222,-0.00169467,0.00164514,-0.00605698,-1.34297,0.00468368,0.0397551,1882,890,15.2879,-2.24185
665,134,15.2476,2.28656,-0.00855313,0.000952155,-0.00235583,0.00150399,-0.00910497,-1.3407,0.00662843,0.031053,1889,890,15.2476,-2.28654
672,134,15.2335,2.33508,-0.0106188,0.000731075,-0.00284845,0.00140583,-0.0112936,-1.3382,0.00803876,0.0221301,1896,890,15.2335,-2.3351
679,134,15.2064,2.35327,-0.0121795,0.000530603,-0.00305093,0.00122501,-0.0128739,-1.347,0.00901869,0.0187098,1903,890,15.2064,-2.35328
686,134,15.1775,2.39758,0,0,0,0,0,0,0,-1,1910,890,15.1775,-2.39758
693,134,14.043,2.37628,-0.0130325,-8.93497e-05,-0.00346321,0.000779042,-0.0139009,-1.32511,0.00953755,0.0313982,1917,890,14.0429,-2.37628
700,134,13.4025,2.41809,-0.0125523,-0.000134426,-0.00329202,0.000684315,-0.0133711,-1.32704,0.00915068,0.0188079,1924,890,13.4025,-2.41807
707,134,13.3215,2.4566,-0.0114359,-0.00016468,-0.00304293,0.000604357,-0.012205,-1.32325,0.00834539,0.018244,1931,890,13.3216,-2.45658
714,134,13.3419,2.60748,-0.00945962,-0.000441392,-0.0028338,0.00037514,-0.0102761,-1.29025,0.00697917,0.016619,1938,890,13.3419,-2.6075
721,134,13.4437,2.75909,-0.0068507,-0.000458617,-0.0025707,0.000446947,-0.00775626,-1.23211,0.00532608,0.0139395,1945,890,13.4437,-2.75911
728,134,13.47,2.86768,-0.00341796,-0.000202861,-0.00250389,0.0011651,-0.00478592,-1.07077,0.00364165,0.0143411,1952,890,13.4699,-2.86768
735,134,13.4469,3.00354,0.0016487,-0.00103379,-0.00238742,0.00304584,-0.00243093,-0.52947,0.00316865,0.0185497,1959,890,13.4469,-3.00353
742,134,13.4045,3.12421,0.00846019,0.000313673,-0.00479094,0.0106754,-0.00190152,-0.433093,0.00782812,0.0128549,1966,890,13.4045,-3.12422
749,134,13.4044,3.22034,0.015194,0.00112547,-0.00707235,0.0181347,-0.00181518,-0.394049,0.012738,0.0114333,1973,890,13.4045,-3.22034
756,134,13.4058,3.35382,0.023319,0.00229166,-0.0106704,0.0277852,-0.00217449,-0.396398,0.0192892,0.0155717,1980,890,13.4058,-3.35385
763,134,13.3815,3.48676,0.0335209,0.00429017,-0.0160224,0.0405925,-0.00278146,-0.415645,0.0280349,0.036788,1987,890,13.3815,-3.48676
770,134,13.4996,3.7066,0.0469657,0.00758733,-0.0236034,0.0580139,-0.00346082,-0.437783,0.0398796,0.0446809,1994,890,13.4997,-3.70662
777,134,14.8658,2.05273,0,0,0,0,0,0,0,-1,2001,890,14.8659,-2.05273
784,134,14.9144,2.12384,0,0,0,0,0,0,0,-1,2008,890,14.9144,-2.12383
791,134,15.2771,2.47546,0,0,0,0,0,0,0,-1,2015,890,15.277,-2.47545
798,134,0,0,0,0,0,0,0,0,0,-1,2022,890,0,0
805,134,0,0,0,0,0,0,0,0,0,-1,2029,890,0,0
812,134,0,0,0,0,0,0,0,0,0,-1,2036,890,0,0
-700,127,0,0,0,0,0,0,0,0,0,-1,524,897,0,0
-693,127,0,0,0,0,0,0,0,0,0,-1,531,897,0,0
-686,127,0,0,0,0,0,0,0,0,0,-1,538,897,0,0
-679,127,-7.7074,-1.11023,0,0,0,0,0,0,0,-1,545,897,-7.70741,1.11021
-672,127,-7.91162,-0.951355,0,0,0,0,0,0,0,-1,552,897,-7.91165,0.951377
-665,127,-8.59149,0.42511,0,0,0,0,0,0,0,-1,559,897,-8.59148,-0.425132
-658,127,-8.67053,0.312622,0.0245079,-0.0462939,-0.0273923,0.0338682,-0.0556542,-0.329272,0.0521934,0.0478181,566,897,-8.67052,-0.312615
-651,127,-8.73657,0.244324,0.0175949,-0.0348471,-0.018089,0.0232291,-0.0404813,-0.301946,0.0372301,0.045208,573,897,-8.73657,-0.244345
-644,127,-8.72137,0.408875,0.0116361,-0.0257145,-0.0109705,0.0146199,-0.0286984,-0.265564,0.0254463,0.041827,580,897,-8.72138,-0.408904
-637,127,-8.85754,0.889343,0,0,0,0,0,0,0,-1,587,897,-8.85752,-0.889365
-630,127,-8.20886,1.22437,0.00333228,-0.0126594,-0.00204961,0.00359079,-0.0129179,-0.125466,0.0100256,0.0316894,594,897,-8.20884,-1.22439
-623,127,-8.24188,1.19696,0.000855875,-0.00817016,0.000605899,0.000896366,-0.00821065,0.066729,0.00579571,0.0129662,601,897,-8.24188,-1.19697
-616,127,-8.27557,1.12946,-0.00113726,-0.00492289,0.0021157,-0.000191243,-0.0058689,0.420472,0.00385044,0.0100771,608,897,-8.27559,-1.12948
-609,127,-8.29395,1.02112,-0.003039,-0.00258315,0.00291277,0.0001106,-0.00573275,0.824444,0.00385923,0.0135942,615,897,-8.29394,-1.0211
-602,127,-8.30536,0.91571,-0.00563443,-0.00168177,0.00321941,0.00011953,-0.00743573,1.06068,0.00499747,0.0146326,622,897,-8.30533,-0.915708
-595,127,-8.26617,0.843628,-0.00652889,-0.00116234,0.00299795,0.000177776,-0.007869,1.15043,0.00530625,0.0129778,629,897,-8.26618,-0.843601
-588,127,-8.30432,0.778564,-0.00725198,-0.00153094,0.00242371,-0.000642203,-0.00814072,1.21933,0.00522625,0.0176041,636,897,-8.30435,-0.778553
-581,127,-8.33447,0.646912,-0.00785201,-0.000943264,0.00215495,-0.000326211,-0.00846906,1.29192,0.00554051,0.0244108,643,897,-8.33445,-0.646932
-574,127,-8.30963,0.563538,-0.00817454,-0.000797695,0.00220308,-0.000189839,-0.00878239,1.30158,0.00579269,0.0241743,650,897,-8.30962,-0.563509
-567,127,-8.07208,0.437317,0,0,0,0,0,0,0,-1,657,897,-8.0721,-0.437292
-560,127,-8.72943,0.566467,0,0,0,0,0,0,0,-1,664,897,-8.72944,-0.566455
-553,127,-9.34833,0.667847,0,0,0,0,0,0,0,-1,671,897,-9.34831,-0.667817
-546,127,-9.32288,0.606934,-0.00820333,-0.000133682,0.00270327,0.000688188,-0.0090252,1.27565,0.00625882,0.022167,678,897,-9.32288,-0.60695
-539,127,-9.30542,0.612,-0.00702223,0.000341687,0.0026072,0.0011713,-0.00785185,1.26273,0.0056655,0.0192464,685,897,-9.30544,-0.611993
-532,127,-9.34625,0.642334,-0.0050361,0.000972479,0.00228772,0.00174435,-0.00580797,1.24539,0.00456589,0.0172209,692,897,-9.34628,-0.642346
-525,127,-9.34467,0.698547,-0.00207808,0.00178201,0.00166344,0.00239992,-0.00269599,1.21513,0.00294378,0.0344891,699,897,-9.34465,-0.698564
-518,127,-9.34314,0.781494,0.00204845,0.00278622,0.000676837,0.00318817,0.0016465,1.0349,0.00184102,0.0422629,706,897,-9.34315,-0.781464
-511,127,-9.34113,0.757263,0.00651112,0.00404968,-0.000570989,0.00663713,0.00392368,-0.217196,0.00385312,0.0432773,713,897,-9.34114,-0.757278
-504,127,0,0,0,0,0,0,0,0,0,-1,720,897,0,0
-497,127,0,0,0,0,0,0,0,0,0,-1,727,897,0,0
-490,127,0,0,0,0,0,0,0,0,0,-1,734,897,0,0
-483,127,0,0,0,0,0,0,0,0,0,-1,741,897,0,0
-476,127,0,0,0,0,0,0,0,0,0,-1,748,897,0,0
-469,127,0,0,0,0,0,0,0,0,0,-1,755,897,0,0
-462,127,0,0,0,0,0,0,0,0,0,-1,762,897,0,0
-455,127,0,0,0,0,0,0,0,0,0,-1,769,897,0,0
-448,127,0,0,0,0,0,0,0,0,0,-1,776,897,0,0
-441,127,0,0,0,0,0,0,0,0,0,-1,783,897,0,0
-434,127,0,0,0,0,0,0,0,0,0,-1,790,897,0,0
-427,127,0,0,0,0,0,0,0,0,0,-1,797,897,0,0
-420,127,0,0,0,0,0,0,0,0,0,-1,804,897,0,0
-413,127,0,0,0,0,0,0,0,0,0,-1,811,897,0,0
-406,127,0,0,0,0,0,0,0,0,0,-1,818,897,0,0
-399,127,0,0,0,0,0,0,0,0,0,-1,825,897,0,0
-392,127,0,0,0,0,0,0,0,0,0,-1,832,897,0,0
-385,127,0,0,0,0,0,0,0,0,0,-1,839,897,0,0
-378,127,0,0,0,0,0,0,0,0,0,-1,846,897,0,0
-371,127,0,0,0,0,0,0,0,0,0,-1,853,897,0,0
-364,127,0,0,0,0,0,0,0,0,0,-1,860,897,0,0
-357,127,0,0,0,0,0,0,0,0,0,-1,867,897,0,0
-350,127,0,0,0,0,0,0,0,0,0,-1,874,897,0,0
-343,127,0,0,0,0,0,0,0,0,0,-1,881,897,0,0
-336,127,0,0,0,0,0,0,0,0,0,-1,888,897,0,0
-329,127,0,0,0,0,0,0,0,0,0,-1,895,897,0,0
-322,127,0,0,0,0,0,0,0,0,0,-1,902,897,0,0
-315,127,0,0,0,0,0,0,0,0,0,-1,909,897,0,0
-308,127,0,0,0,0,0,0,0,0,0,-1,916,897,0,0
-301,127,0,0,0,0,0,0,0,0,0,-1,923,897,0,0
-294,127,0,0,0,0,0,0,0,0,0,-1,930,897,0,0
-287,127,0,0,0,0,0,0,0,0,0,-1,937,897,0,0
-280,127,0,0,0,0,0,0,0,0,0,-1,944,897,0,0
-273,127,0,0,0,0,0,0,0,0,0,-1,951,897,0,0
-266,127,0,0,0,0,0,0,0,0,0,-1,958,897,0,0
-259,127,0,0,0,0,0,0,0,0,0,-1,965,897,0,0
-252,127,0,0,0,0,0,0,0,0,0,-1,972,897,0,0
-245,127,0,0,0,0,0,0,0,0,0,-1,979,897,0,0
-238,127,0,0,0,0,0,0,0,0,0,-1,986,897,0,0
-231,127,0,0,0,0,0,0,0,0,0,-1,993,897,0,0
-224,127,0,0,0,0,0,0,0,0,0,-1,1000,897,0,0
-217,127,0,0,0,0,0,0,0,0,0,-1,1007,897,0,0
-210,127,0,0,0,0,0,0,0,0,0,-1,1014,897,0,0
-203,127,0,0,0,0,0,0,0,0,0,-1,1021,897,0,0
-196,127,0,0,0,0,0,0,0,0,0,-1,1028,897,0,0
-189,127,0,0,0,0,0,0,0,0,0,-1,1035,897,0,0
-182,127,0,0,0,0,0,0,0,0,0,-1,1042,897,0,0
-175,127,0,0,0,0,0,0,0,0,0,-1,1049,897,0,0
-168,127,0,0,0,0,0,0,0,0,0,-1,1056,897,0,0
-161,127,0,0,0,0,0,0,0,0,0,-1,1063,897,0,0
-154,127,0,0,0,0,0,0,0,0,0,-1,1070,897,0,0
-147,127,0,0,0,0,0,0,0,0,0,-1,1077,897,0,0
-140,127,0,0,0,0,0,0,0,0,0,-1,1084,897,0,0
-133,127,0,0,0,0,0,0,0,0,0,-1,1091,897,0,0
-126,127,0,0,0,0,0,0,0,0,0,-1,1098,897,0,0
-119,127,0,0,0,0,0,0,0,0,0,-1,1105,897,0,0
-112,127,0,0,0,0,0,0,0,0,0,-1,1112,897,0,0
-105,127,0,0,0,0,0,0,0,0,0,-1,1119,897,0,0
-98,127,0,0,0,0,0,0,0,0,0,-1,1126,897,0,0
-91,127,0,0,0,0,0,0,0,0,0,-1,1133,897,0,0
-84,127,0,0,0,0,0,0,0,0,0,-1,1140,897,0,0
-77,127,0,0,0,0,0,0,0,0,0,-1,1147,897,0,0
-70,127,0,0,0,0,0,0,0,0,0,-1,1154,897,0,0
-63,127,0,0,0,0,0,0,0,0,0,-1,1161,897,0,0
-56,127,0,0,0,0,0,0,0,0,0,-1,1168,897,0,0
-49,127,0,0,0,0,0,0,0,0,0,-1,1175,897,0,0
-42,127,0,0,0,0,0,0,0,0,0,-1,1182,897,0,0
-35,127,0,0,0,0,0,0,0,0,0,-1,1189,897,0,0
-28,127,0,0,0,0,0,0,0,0,0,-1,1196,897,0,0
-21,127,0,0,0,0,0,0,0,0,0,-1,1203,897,0,0
-14,127,0,0,0,0,0,0,0,0,0,-1,1210,897,0,0
-7,127,0,0,0,0,0,0,0,0,0,-1,1217,897,0,0
0,127,0,0,0,0,0,0,0,0,0,-1,1224,897,0,0
7,127,0,0,0,0,0,0,0,0,0,-1,1231,897,0,0
14,127,0,0,0,0,0,0,0,0,0,-1,1238,897,0,0
21,127,0,0,0,0,0,0,0,0,0,-1,1245,897,0,0
28,127,0,0,0,0,0,0,0,0,0,-1,1252,897,0,0
35,127,0,0,0,0,0,0,0,0,0,-1,1259,897,0,0
42,127,0,0,0,0,0,0,0,0,0,-1,1266,897,0,0
49,127,0,0,0,0,0,0,0,0,0,-1,1273,897,0,0
56,127,0,0,0,0,0,0,0,0,0,-1,1280,897,0,0
63,127,0,0,0,0,0,0,0,0,0,-1,1287,897,0,0
70,127,0,0,0,0,0,0,0,0,0,-1,1294,897,0,0
77,127,0,0,0,0,0,0,0,0,0,-1,1301,897,0,0
84,127,0,0,0,0,0,0,0,0,0,-1,1308,897,0,0
91,127,0,0,0,0,0,0,0,0,0,-1,1315,897,0,0
98,127,0,0,0,0,0,0,0,0,0,-1,1322,897,0,0
105,127,0,0,0,0,0,0,0,0,0,-1,1329,897,0,0
112,127,0,0,0,0,0,0,0,0,0,-1,1336,897,0,0
119,127,0,0,0,0,0,0,0,0,0,-1,1343,897,0,0
126,127,0,0,0,0,0,0,0,0,0,-1,1350,897,0,0
133,127,0,0,0,0,0,0,0,0,0,-1,1357,897,0,0
140,127,0,0,0,0,0,0,0,0,0,-1,1364,897,0,0
147,127,0,0,0,0,0,0,0,0,0,-1,1371,897,0,0
154,127,0,0,0,0,0,0,0,0,0,-1,1378,897,0,0
161,127,0,0,0,0,0,0,0,0,0,-1,1385,897,0,0
168,127,0,0,0,0,0,0,0,0,0,-1,1392,897,0,0
175,127,0,0,0,0,0,0,0,0,0,-1,1399,897,0,0
182,127,0,0,0,0,0,0,0,0,0,-1,1406,897,0,0
189,127,0,0,0,0,0,0,0,0,0,-1,1413,897,0,0
196,127,0,0,0,0,0,0,0,0,0,-1,1420,897,0,0
203,127,0,0,0,0,0,0,0,0,0,-1,1427,897,0,0
210,127,0,0,0,0,0,0,0,0,0,-1,1434,897,0,0
217,127,0,0,0,0,0,0,0,0,0,-1,1441,897,0,0
224,127,0,0,0,0,0,0,0,0,0,-1,1448,897,0,0
231,127,0,0,0,0,0,0,0,0,0,-1,1455,897,0,0
238,127,0,0,0,0,0,0,0,0,0,-1,1462,897,0,0
245,127,0,0,0,0,0,0,0,0,0,-1,1469,897,0,0
252,127,0,0,0,0,0,0,0,0,0,-1,1476,897,0,0
259,127,0,0,0,0,0,0,0,0,0,-1,1483,897,0,0
266,127,0,0,0,0,0,0,0,0,0,-1,1490,897,0,0
273,127,0,0,0,0,0,0,0,0,0,-1,1497,897,0,0
280,127,0,0,0,0,0,0,0,0,0,-1,1504,897,0,0
287,127,0,0,0,0,0,0,0,0,0,-1,1511,897,0,0
294,127,0,0,0,0,0,0,0,0,0,-1,1518,897,0,0
301,127,0,0,0,0,0,0,0,0,0,-1,1525,897,0,0
308,127,0,0,0,0,0,0,0,0,0,-1,1532,897,0,0
315,127,0,0,0,0,0,0,0,0,0,-1,1539,897,0,0
322,127,0,0,0,0,0,0,0,0,0,-1,1546,897,0,0
329,127,0,0,0,0,0,0,0,0,0,-1,1553,897,0,0
336,127,0,0,0,0,0,0,0,0,0,-1,1560,897,0,0
343,127,0,0,0,0,0,0,0,0,0,-1,1567,897,0,0
350,127,0,0,0,0,0,0,0,0,0,-1,1574,897,0,0
357,127,0,0,0,0,0,0,0,0,0,-1,1581,897,0,0
364,127,0,0,0,0,0,0,0,0,0,-1,1588,897,0,0
371,127,0,0,0,0,0,0,0,0,0,-1,1595,897,0,0
378,127,0,0,0,0,0,0,0,0,0,-1,1602,897,0,0
385,127,0,0,0,0,0,0,0,0,0,-1,1609,897,0,0
392,127,0,0,0,0,0,0,0,0,0,-1,1616,897,0,0
399,127,0,0,0,0,0,0,0,0,0,-1,1623,897,0,0
406,127,0,0,0,0,0,0,0,0,0,-1,1630,897,0,0
413,127,0,0,0,0,0,0,0,0,0,-1,1637,897,0,0
420,127,0,0,0,0,0,0,0,0,0,-1,1644,897,0,0
427,127,0,0,0,0,0,0,0,0,0,-1,1651,897,0,0
434,127,0,0,0,0,0,0,0,0,0,-1,1658,897,0,0
441,127,0,0,0,0,0,0,0,0,0,-1,1665,897,0,0
448,127,0,0,0,0,0,0,0,0,0,-1,1672,897,0,0
455,127,0,0,0,0,0,0,0,0,0,-1,1679,897,0,0
462,127,0,0,0,0,0,0,0,0,0,-1,1686,897,0,0
469,127,0,0,0,0,0,0,0,0,0,-1,1693,897,0,0
476,127,0,0,0,0,0,0,0,0,0,-1,1700,897,0,0
483,127,0,0,0,0,0,0,0,0,0,-1,1707,897,0,0
490,127,0,0,0,0,0,0,0,0,0,-1,1714,897,0,0
497,127,0,0,0,0,0,0,0,0,0,-1,1721,897,0,0
504,127,0,0,0,0,0,0,0,0,0,-1,1728,897,0,0
511,127,0,0,0,0,0,0,0,0,0,-1,1735,897,0,0
518,127,0,0,0,0,0,0,0,0,0,-1,1742,897,0,0
525,127,0,0,0,0,0,0,0,0,0,-1,1749,897,0,0
532,127,0,0,0,0,0,0,0,0,0,-1,1756,897,0,0
539,127,0,0,0,0,0,0,0,0,0,-1,1763,897,0,0
546,127,0,0,0,0,0,0,0,0,0,-1,1770,897,0,0
553,127,0,0,0,0,0,0,0,0,0,-1,1777,897,0,0
560,127,0,0,0,0,0,0,0,0,0,-1,1784,897,0,0
567,127,0,0,0,0,0,0,0,0,0,-1,1791,897,0,0
574,127,0,0,0,0,0,0,0,0,0,-1,1798,897,0,0
581,127,0,0,0,0,0,0,0,0,0,-1,1805,897,0,0
588,127,0,0,0,0,0,0,0,0,0,-1,1812,897,0,0
595,127,0,0,0,0,0,0,0,0,0,-1,1819,897,0,0
602,127,0,0,0,0,0,0,0,0,0,-1,1826,897,0,0
609,127,0,0,0,0,0,0,0,0,0,-1,1833,897,0,0
616,127,0,0,0,0,0,0,0,0,0,-1,1840,897,0,0
623,127,0,0,0,0,0,0,0,0,0,-1,1847,897,0,0
630,127,15.1979,2.34949,0,0,0,0,0,0,0,-1,1854,897,15.1978,-2.34952
637,127,15.5043,2.55328,0,0,0,0,0,0,0,-1,1861,897,15.5042,-2.55328
644,127,15.4611,2.51086,0.00253671,0.00213007,0.000382715,0.00276676,0.00190002,0.54123,0.0016341,0.0368036,1868,897,15.461,-2.51086
651,127,15.3419,2.32831,-0.00124017,0.00172351,-0.000442773,0.00178824,-0.0013049,-1.42562,0.00179308,0.0409056,1875,897,15.3419,-2.32833
658,127,15.2535,2.20215,-0.0049387,0.0013101,-0.00127774,0.00156127,-0.00518988,-1.37669,0.00408113,0.0427577,1882,897,15.2536,-2.20213
665,127,15.2714,2.25861,-0.00795846,0.000904404,-0.00194272,0.00131154,-0.0083656,-1.36422,0.00606173,0.0378611,1889,897,15.2714,-2.25859
672,127,15.2174,2.29077,-0.0101505,0.000616293,-0.00244412,0.00114514,-0.0106794,-1.35771,0.00753039,0.031515,1896,897,15.2174,-2.29075
679,127,15.2401,2.2699,-0.0118188,0.000392835,-0.00265578,0.000945411,-0.0123714,-1.36566,0.0085801,0.0256392,1903,897,15.2401,-2.26989
686,127,15.2166,2.27936,0,0,0,0,0,0,0,-1,1910,897,15.2166,-2.27939
693,127,14.3431,2.33032,-0.0129211,-0.000220393,-0.00308478,0.000489198,-0.0136307,-1.3447,0.00925454,0.0326473,1917,897,14.3432,-2.33032
700,127,13.5691,2.38867,-0.0125984,-0.000244031,-0.00292835,0.000414926,-0.0132573,-1.34946,0.00897973,0.0236796,1924,897,13.5691,-2.3887
707,127,13.4397,2.49274,-0.0116616,-0.0002458,-0.00268299,0.000353324,-0.0122607,-1.3511,0.00829411,0.0222881,1931,897,13.4397,-2.49273
714,127,13.4601,2.63208,-0.0098778,-0.000434206,-0.00252638,0.000199179,-0.0105112,-1.32515,0.00707478,0.0186369,1938,897,13.46,-2.63206
721,127,13.5856,2.79498,-0.00749708,-0.000432131,-0.00232123,0.000262271,-0.00819148,-1.28012,0.00555047,0.0134595,1945,897,13.5856,-2.79499
728,127,13.5865,2.87878,-0.00436671,-0.000161169,-0.00233458,0.000878022,-0.0054059,-1.152,0.00392944,0.0134431,1952,897,13.5866,-2.87876
735,127,13.5546,2.98816,0.00038468,-0.00107404,-0.00234678,0.00211283,-0.00280219,-0.634734,0.00284698,0.0184824,1959,897,13.5545,-2.98815
742,127,13.5354,3.11011,0.00693908,0.00019428,-0.00487587,0.00949519,-0.00236183,-0.482848,0.00724685,0.0155762,1966,897,13.5354,-3.11008
749,127,13.5314,3.20709,0.0133974,0.000797162,-0.00722137,0.0166806,-0.00248602,-0.426713,0.0120349,0.0116907,1973,897,13.5313,-3.20709
756,127,13.5288,3.30768,0.0211549,0.00173411,-0.0108803,0.0260278,-0.00313878,-0.421077,0.0184871,0.0136305,1980,897,13.5288,-3.30768
763,127,13.5194,3.38385,0.0306358,0.0033372,-0.0162609,0.0382167,-0.00424365,-0.436245,0.0270037,0.0219501,1987,897,13.5195,-3.38386
770,127,13.6422,3.56171,0.0428868,0.00599192,-0.0237778,0.0545341,-0.00565538,-0.455485,0.0383804,0.0402132,1994,897,13.6422,-3.56168
777,127,13.809,3.86304,0.058949,0.0102889,-0.0341465,0.0765467,-0.00730879,-0.475859,0.0536337,0.0491443,2001,897,13.809,-3.86302
784,127,15.5568,0.904968,0.0793412,0.0170094,-0.0482003,0.105574,-0.00922312,-0.49841,0.0736496,0.0497278,2008,897,15.5568,-0.904939
791,127,15.7612,0.572998,0.104694,0.0273785,-0.0669776,0.143369,-0.011297,-0.523665,0.0995592,0.0422659,2015,897,15.7612,-0.573023
798,127,0,0,0,0,0,0,0,0,0,-1,2022,897,0,0
805,127,0,0,0,0,0,0,0,0,0,-1,2029,897,0,0
812,127,0,0,0,0,0,0,0,0,0,-1,2036,897,0,0
-700,120,0,0,0,0,0,0,0,0,0,-1,524,904,0,0
-693,120,0,0,0,0,0,0,0,0,0,-1,531,904,0,0
-686,120,0,0,0,0,0,0,0,0,0,-1,538,904,0,0
-679,120,-7.97321,-1.0639,0,0,0,0,0,0,0,-1,545,904,-7.97318,1.06389
-672,120,-8.86658,1.96686,0,0,0,0,0,0,0,-1,552,904,-8.86656,-1.96687
-665,120,-8.84961,1.60986,0,0,0,0,0,0,0,-1,559,904,-8.84961,-1.60988
-658,120,-8.7757,0.880798,0.015143,-0.0406657,-0.0308989,0.0288727,-0.0543954,-0.41814,0.0488218,0.044128,566,904,-8.77569,-0.880772
-651,120,-8.72217,0.615784,0.0107349,-0.0294618,-0.0215246,0.0200857,-0.0388126,-0.409826,0.0345732,0.0456755,573,904,-8.7222,-0.615803
-644,120,-8.89209,0.488403,0.00682318,-0.0209436,-0.0141472,0.0127613,-0.0268817,-0.397405,0.0233669,0.0428643,580,904,-8.89212,-0.488376
-637,120,-8.63062,1.01782,0.00359565,-0.0145597,-0.0085746,0.00700509,-0.0179691,-0.378454,0.0148748,0.0387373,587,904,-8.63064,-1.0178
-630,120,-8.33105,1.25452,0.001384,-0.00940009,-0.00441178,0.00295887,-0.010975,-0.342871,0.00847685,0.0226458,594,904,-8.33108,-1.25452
-623,120,-8.3559,1.17688,-0.000190364,-0.00545966,-0.00119182,6.66678e-05,-0.00571669,-0.21241,0.00383354,0.0105824,601,904,-8.35592,-1.1769
-616,120,-8.34875,1.09003,-0.00166961,-0.00322695,0.000761305,-0.00135929,-0.00353728,0.387062,0.0020604,0.00962299,608,904,-8.34874,-1.09002
-609,120,-8.36847,1.00696,-0.0032753,-0.00163182,0.00198993,-0.000300633,-0.00460649,0.981208,0.00297585,0.0128712,615,904,-8.36849,-1.00696
-602,120,-8.39539,0.940857,-0.00564044,-0.00134153,0.00255651,-0.000150943,-0.00683103,1.13496,0.00450455,0.0132148,622,904,-8.39537,-0.940843
-595,120,-8.35284,0.860596,-0.00643618,-0.000955555,0.00239426,-5.69427e-05,-0.00733479,1.21175,0.00487099,0.0153846,629,904,-8.35283,-0.860612
-588,120,-8.36151,0.766174,-0.00707646,-0.00133446,0.00185795,-0.000785722,-0.0076252,1.28361,0.00484285,0.0192626,636,904,-8.36148,-0.766182
-581,120,-8.45203,0.701965,-0.00765125,-0.000908491,0.00163947,-0.000530998,-0.00802874,1.34449,0.00518457,0.0232985,643,904,-8.45201,-0.701969
-574,120,-8.38086,0.630737,-0.00787006,-0.000834583,0.00166581,-0.0004601,-0.00824455,1.34967,0.0053496,0.0213525,650,904,-8.38084,-0.630719
-567,120,-8.21283,0.476501,0,0,0,0,0,0,0,-1,657,904,-8.21286,-0.476488
-560,120,-8.98999,0.844604,0,0,0,0,0,0,0,-1,664,904,-8.99001,-0.84461
-553,120,-9.38409,0.687927,-0.00777986,-0.000460786,0.00206007,7.9215e-05,-0.00831986,1.31444,0.00557317,0.0358108,671,904,-9.38412,-0.6879
-546,120,-9.27881,0.673462,-0.00702796,-9.89708e-05,0.00211593,0.000496074,-0.00762301,1.29665,0.00525517,0.0294682,678,904,-9.27879,-0.673484
-539,120,-9.2851,0.606323,-0.00559487,0.000364194,0.00204376,0.000997775,-0.00622845,1.27018,0.00452173,0.0230449,685,904,-9.2851,-0.606346
-532,120,-9.25378,0.568542,-0.00337497,0.000976996,0.00179911,0.00162443,-0.00402241,1.22536,0.00335676,0.0270919,692,904,-9.2538,-0.568519
-525,120,-9.28693,0.616272,-0.000215324,0.00173096,0.00130015,0.00238182,-0.000866187,1.10666,0.0019421,0.036555,699,904,-9.28694,-0.616272
-518,120,-9.34332,0.708008,0.00391795,0.00261296,0.000495942,0.00408504,0.00244587,0.324956,0.00237378,0.0395981,706,904,-9.34335,-0.708037
-511,120,-9.29816,0.704956,0.00781177,0.00365658,-0.000497965,0.00787061,0.00359773,-0.117623,0.00454967,0.0411578,713,904,-9.29815,-0.704933
-504,120,0,0,0,0,0,0,0,0,0,-1,720,904,0,0
-497,120,0,0,0,0,0,0,0,0,0,-1,727,904,0,0
-490,120,0,0,0,0,0,0,0,0,0,-1,734,904,0,0
-483,120,0,0,0,0,0,0,0,0,0,-1,741,904,0,0
-476,120,0,0,0,0,0,0,0,0,0,-1,748,904,0,0
-469,120,0,0,0,0,0,0,0,0,0,-1,755,904,0,0
-462,120,0,0,0,0,0,0,0,0,0,-1,762,904,0,0
-455,120,0,0,0,0,0,0,0,0,0,-1,769,904,0,0
-448,120,0,0,0,0,0,0,0,0,0,-1,776,904,0,0
-441,120,0,0,0,0,0,0,0,0,0,-1,783,904,0,0
-434,120,0,0,0,0,0,0,0,0,0,-1,790,904,0,0
-427,120,0,0,0,0,0,0,0,0,0,-1,797,904,0,0
-420,120,0,0,0,0,0,0,0,0,0,-1,804,904,0,0
-413,120,0,0,0,0,0,0,0,0,0,-1,811,904,0,0
-406,120,0,0,0,0,0,0,0,0,0,-1,818,904,0,0
-399,120,0,0,0,0,0,0,0,0,0,-1,825,904,0,0
-392,120,0,0,0,0,0,0,0,0,0,-1,832,904,0,0
-385,120,0,0,0,0,0,0,0,0,0,-1,839,904,0,0
-378,120,0,0,0,0,0,0,0,0,0,-1,846,904,0,0
-371,120,0,0,0,0,0,0,0,0,0,-1,853,904,0,0
-364,120,0,0,0,0,0,0,0,0,0,-1,860,904,0,0
-357,120,0,0,0,0,0,0,0,0,0,-1,867,904,0,0
-350,120,0,0,0,0,0,0,0,0,0,-1,874,904,0,0
-343,120,0,0,0,0,0,0,0,0,0,-1,881,904,0,0
-336,120,0,0,0,0,0,0,0,0,0,-1,888,904,0,0
-329,120,0,0,0,0,0,0,0,0,0,-1,895,904,0,0
-322,120,0,0,0,0,0,0,0,0,0,-1,902,904,0,0
-315,120,0,0,0,0,0,0,0,0,0,-1,909,904,0,0
-308,120,0,0,0,0,0,0,0,0,0,-1,916,904,0,0
-301,120,0,0,0,0,0,0,0,0,0,-1,923,904,0,0
-294,120,0,0,0,0,0,0,0,0,0,-1,930,904,0,0
-287,120,0,0,0,0,0,0,0,0,0,-1,937,904,0,0
-280,120,0,0,0,0,0,0,0,0,0,-1,944,904,0,0
-273,120,0,0,0,0,0,0,0,0,0,-1,951,904,0,0
-266,120,0,0,0,0,0,0,0,0,0,-1,958,904,0,0
-259,120,0,0,0,0,0,0,0,0,0,-1,965,904,0,0
-252,120,0,0,0,0,0,0,0,0,0,-1,972,904,0,0
-245,120,0,0,0,0,0,0,0,0,0,-1,979,904,0,0
-238,120,0,0,0,0,0,0,0,0,0,-1,986,904,0,0
-231,120,0,0,0,0,0,0,0,0,0,-1,993,904,0,0
-224,120,0,0,0,0,0,0,0,0,0,-1,1000,904,0,0
-217,120,0,0,0,0,0,0,0,0,0,-1,1007,904,0,0
-210,120,0,0,0,0,0,0,0,0,0,-1,1014,904,0,0
-203,120,0,0,0,0,0,0,0,0,0,-1,1021,904,0,0
-196,120,0,0,0,0,0,0,0,0,0,-1,1028,904,0,0
-189,120,0,0,0,0,0,0,0,0,0,-1,1035,904,0,0
-182,120,0,0,0,0,0,0,0,0,0,-1,1042,904,0,0
-175,120,0,0,0,0,0,0,0,0,0,-1,1049,904,0,0
-168,120,0,0,0,0,0,0,0,0,0,-1,1056,904,0,0
-161,120,0,0,0,0,0,0,0,0,0,-1,1063,904,0,0
-154,120,0,0,0,0,0,0,0,0,0,-1,1070,904,0,0
-147,120,0,0,0,0,0,0,0,0,0,-1,1077,904,0,0
-140,120,0,0,0,0,0,0,0,0,0,-1,1084,904,0,0
-133,120,0,0,0,0,0,0,0,0,0,-1,1091,904,0,0
-126,120,0,0,0,0,0,0,0,0,0,-1,1098,904,0,0
-119,120,0,0,0,0,0,0,0,0,0,-1,1105,904,0,0
-112,120,0,0,0,0,0,0,0,0,0,-1,1112,904,0,0
-105,120,0,0,0,0,0,0,0,0,0,-1,1119,904,0,0
-98,120,0,0,0,0,0,0,0,0,0,-1,1126,904,0,0
-91,120,0,0,0,0,0,0,0,0,0,-1,1133,904,0,0
-84,120,0,0,0,0,0,0,0,0,0,-1,1140,904,0,0
-77,120,0,0,0,0,0,0,0,0,0,-1,1147,904,0,0
-70,120,0,0,0,0,0,0,0,0,0,-1,1154,904,0,0
-63,120,0,0,0,0,0,0,0,0,0,-1,1161,904,0,0
-56,120,0,0,0,0,0,0,0,0,0,-1,1168,904,0,0
-49,120,0,0,0,0,0,0,0,0,0,-1,1175,904,0,0
-42,120,0,0,0,0,0,0,0,0,0,-1,1182,904,0,0
-35,120,0,0,0,0,0,0,0,0,0,-1,1189,904,0,0
-28,120,0,0,0,0,0,0,0,0,0,-1,1196,904,0,0
-21,120,0,0,0,0,0,0,0,0,0,-1,1203,904,0,0
-14,120,0,0,0,0,0,0,0,0,0,-1,1210,904,0,0
-7,120,0,0,0,0,0,0,0,0,0,-1,1217,904,0,0
0,120,0,0,0,0,0,0,0,0,0,-1,1224,904,0,0
7,120,0,0,0,0,0,0,0,0,0,-1,1231,904,0,0
14,120,0,0,0,0,0,0,0,0,0,-1,1238,904,0,0
21,120,0,0,0,0,0,0,0,0,0,-1,1245,904,0,0
28,120,0,0,0,0,0,0,0,0,0,-1,1252,904,0,0
35,120,0,0,0,0,0,0,0,0,0,-1,1259,904,0,0
42,120,0,0,0,0,0,0,0,0,0,-1,1266,904,0,0
49,120,0,0,0,0,0,0,0,0,0,-1,1273,904,0,0
56,120,0,0,0,0,0,0,0,0,0,-1,1280,904,0,0
63,120,0,0,0,0,0,0,0,0,0,-1,1287,904,0,0
70,120,0,0,0,0,0,0,0,0,0,-1,1294,904,0,0
77,120,0,0,0,0,0,0,0,0,0,-1,1301,904,0,0
84,120,0,0,0,0,0,0,0,0,0,-1,1308,904,0,0
91,120,0,0,0,0,0,0,0,0,0,-1,1315,904,0,0
98,120,0,0,0,0,0,0,0,0,0,-1,1322,904,0,0
105,120,0,0,0,0,0,0,0,0,0,-1,1329,904,0,0
112,120,0,0,0,0,0,0,0,0,0,-1,1336,904,0,0
119,120,0,0,0,0,0,0,0,0,0,-1,1343,904,0,0
126,120,0,0,0,0,0,0,0,0,0,-1,1350,904,0,0
133,120,0,0,0,0,0,0,0,0,0,-1,1357,904,0,0
140,120,0,0,0,0,0,0,0,0,0,-1,1364,904,0,0
147,120,0,0,0,0,0,0,0,0,0,-1,1371,904,0,0
154,120,0,0,0,0,0,0,0,0,0,-1,1378,904,0,0
161,120,0,0,0,0,0,0,0,0,0,-1,1385,904,0,0
168,120,0,0,0,0,0,0,0,0,0,-1,1392,904,0,0
175,120,0,0,0,0,0,0,0,0,0,-1,1399,904,0,0
182,120,0,0,0,0,0,0,0,0,0,-1,1406,904,0,0
189,120,0,0,0,0,0,0,0,0,0,-1,1413,904,0,0
196,120,0,0,0,0,0,0,0,0,0,-1,1420,904,0,0
203,120,0,0,0,0,0,0,0,0,0,-1,1427,904,0,0
210,120,0,0,0,0,0,0,0,0,0,-1,1434,904,0,0
217,120,0,0,0,0,0,0,0,0,0,-1,1441,904,0,0
224,120,0,0,0,0,0,0,0,0,0,-1,1448,904,0,0
231,120,0,0,0,0,0,0,0,0,0,-1,1455,904,0,0
238,120,0,0,0,0,0,0,0,0,0,-1,1462,904,0,0
245,120,0,0,0,0,0,0,0,0,0,-1,1469,904,0,0
252,120,0,0,0,0,0,0,0,0,0,-1,1476,904,0,0
259,120,0,0,0,0,0,0,0,0,0,-1,1483,904,0,0
266,120,0,0,0,0,0,0,0,0,0,-1,1490,904,0,0
273,120,0,0,0,0,0,0,0,0,0,-1,1497,904,0,0
280,120,0,0,0,0,0,0,0,0,0,-1,1504,904,0,0
287,120,0,0,0,0,0,0,0,0,0,-1,1511,904,0,0
294,120,0,0,0,0,0,0,0,0,0,-1,1518,904,0,0
301,120,0,0,0,0,0,0,0,0,0,-1,1525,904,0,0
308,120,0,0,0,0,0,0,0,0,0,-1,1532,904,0,0
315,120,0,0,0,0,0,0,0,0,0,-1,1539,904,0,0
322,120,0,0,0,0,0,0,0,0,0,-1,1546,904,0,0
329,120,0,0,0,0,0,0,0,0,0,-1,1553,904,0,0
336,120,0,0,0,0,0,0,0,0,0,-1,1560,904,0,0
343,120,0,0,0,0,0,0,0,0,0,-1,1567,904,0,0
350,120,0,0,0,0,0,0,0,0,0,-1,1574,904,0,0
357,120,0,0,0,0,0,0,0,0,0,-1,1581,904,0,0
364,120,0,0,0,0,0,0,0,0,0,-1,1588,904,0,0
371,120,0,0,0,0,0,0,0,0,0,-1,1595,904,0,0
378,120,0,0,0,0,0,0,0,0,0,-1,1602,904,0,0
385,120,0,0,0,0,0,0,0,0,0,-1,1609,904,0,0
392,120,0,0,0,0,0,0,0,0,0,-1,1616,904,0,0
399,120,0,0,0,0,0,0,0,0,0,-1,1623,904,0,0
406,120,0,0,0,0,0,0,0,0,0,-1,1630,904,0,0
413,120,0,0,0,0,0,0,0,0,0,-1,1637,904,0,0
420,120,0,0,0,0,0,0,0,0,0,-1,1644,904,0,0
427,120,0,0,0,0,0,0,0,0,0,-1,1651,904,0,0
434,120,0,0,0,0,0,0,0,0,0,-1,1658,904,0,0
441,120,0,0,0,0,0,0,0,0,0,-1,1665,904,0,0
448,120,0,0,0,0,0,0,0,0,0,-1,1672,904,0,0
455,120,0,0,0,0,0,0,0,0,0,-1,1679,904,0,0
462,120,0,0,0,0,0,0,0,0,0,-1,1686,904,0,0
469,120,0,0,0,0,0,0,0,0,0,-1,1693,904,0,0
476,120,0,0,0,0,0,0,0,0,0,-1,1700,904,0,0
483,120,0,0,0,0,0,0,0,0,0,-1,1707,904,0,0
490,120,0,0,0,0,0,0,0,0,0,-1,1714,904,0,0
497,120,0,0,0,0,0,0,0,0,0,-1,1721,904,0,0
504,120,0,0,0,0,0,0,0,0,0,-1,1728,904,0,0
511,120,0,0,0,0,0,0,0,0,0,-1,1735,904,0,0
518,120,0,0,0,0,0,0,0,0,0,-1,1742,904,0,0
525,120,0,0,0,0,0,0,0,0,0,-1,1749,904,0,0
532,120,0,0,0,0,0,0,0,0,0,-1,1756,904,0,0
539,120,0,0,0,0,0,0,0,0,0,-1,1763,904,0,0
546,120,0,0,0,0,0,0,0,0,0,-1,1770,904,0,0
553,120,0,0,0,0,0,0,0,0,0,-1,1777,904,0,0
560,120,0,0,0,0,0,0,0,0,0,-1,1784,904,0,0
567,120,0,0,0,0,0,0,0,0,0,-1,1791,904,0,0
574,120,0,0,0,0,0,0,0,0,0,-1,1798,904,0,0
581,120,0,0,0,0,0,0,0,0,0,-1,1805,904,0,0
588,120,0,0,0,0,0,0,0,0,0,-1,1812,904,0,0
595,120,0,0,0,0,0,0,0,0,0,-1,1819,904,0,0
602,120,0,0,0,0,0,0,0,0,0,-1,1826,904,0,0
609,120,0,0,0,0,0,0,0,0,0,-1,1833,904,0,0
616,120,0,0,0,0,0,0,0,0,0,-1,1840,904,0,0
623,120,0,0,0,0,0,0,0,0,0,-1,1847,904,0,0
630,120,15.1753,2.31042,0.00787231,0.0043846,0.0018048,0.00863811,0.00361881,0.401286,0.00500901,0.0390348,1854,904,15.1752,-2.31042
637,120,15.1563,2.53497,0.00533676,0.00369313,0.00153546,0.0062565,0.00277339,0.539685,0.00361993,0.0411418,1861,904,15.1563,-2.535
644,120,15.124,2.53925,0.00278018,0.00288452,0.000959066,0.00379284,0.00187187,0.81257,0.00218986,0.0405331,1868,904,15.124,-2.53924
651,120,15.1788,2.39368,-0.000641681,0.00217087,9.75391e-05,0.00217425,-0.00064506,1.53617,0.00170568,0.0425988,1875,904,15.1788,-2.39365
658,120,15.1559,2.32898,-0.00424418,0.00156867,-0.00076474,0.0016676,-0.0043431,-1.44215,0.00358304,0.0424128,1882,904,15.1559,-2.32896
665,120,15.2284,2.27386,-0.00730835,0.00105666,-0.00144886,0.0013005,-0.00755219,-1.40406,0.00551961,0.0385166,1889,904,15.2284,-2.27388
672,120,15.2104,2.25549,-0.00957981,0.000703757,-0.0019599,0.00106462,-0.00994067,-1.38871,0.00700899,0.0364568,1896,904,15.2104,-2.25552
679,120,15.246,2.24463,-0.0113211,0.000445727,-0.00218673,0.000838963,-0.0117144,-1.39287,0.00810372,0.0322912,1903,904,15.246,-2.2446
686,120,15.418,2.3429,0,0,0,0,0,0,0,-1,1910,904,15.418,-2.34288
693,120,14.7506,2.38934,-0.012629,-0.000178543,-0.00264417,0.000359742,-0.0131673,-1.36997,0.00890051,0.0356717,1917,904,14.7506,-2.38933
700,120,13.9694,2.42633,-0.0124542,-0.000194396,-0.00251004,0.000299599,-0.0129482,-1.37647,0.00873369,0.0251124,1924,904,13.9694,-2.42635
707,120,13.6293,2.58783,-0.0117104,-0.000199551,-0.00227726,0.000234598,-0.0121446,-1.38241,0.00817571,0.0183092,1931,904,13.6293,-2.58781
714,120,13.6682,2.70734,-0.0101439,-0.00032584,-0.00216626,0.000130877,-0.0106006,-1.36301,0.00711111,0.0149403,1938,904,13.6682,-2.70734
721,120,13.6803,2.80524,-0.00801107,-0.000309231,-0.00201311,0.000185216,-0.00850551,-1.32995,0.00573308,0.0134425,1945,904,13.6803,-2.80521
728,120,13.6866,2.91455,-0.00523642,-5.4085e-05,-0.00207868,0.000676651,-0.00596715,-1.23275,0.00422177,0.0101002,1952,904,13.6867,-2.91457
735,120,13.6682,3.00159,-0.00092453,-0.00102872,-0.00218807,0.00121207,-0.00316532,-0.773496,0.0026098,0.0122977,1959,904,13.6682,-3.00156
742,120,13.6652,3.11639,0.00513048,9.2975e-05,-0.00469651,0.00794101,-0.00271756,-0.539265,0.00639531,0.0124526,1966,904,13.6651,-3.1164
749,120,13.6494,3.19849,0.0110945,0.000513561,-0.00697342,0.0145572,-0.00294913,-0.460888,0.0108226,0.00986691,1973,904,13.6494,-3.19851
756,120,13.6444,3.27411,0.0182552,0.00124229,-0.0105038,0.023265,-0.00376752,-0.44504,0.0169064,0.0116546,1980,904,13.6444,-3.27412
763,120,13.611,3.34607,0.0267758,0.00249929,-0.0156278,0.0344256,-0.00515046,-0.455209,0.0248458,0.0207811,1987,904,13.6109,-3.34605
770,120,13.6748,3.47461,0.0375376,0.0045965,-0.0227165,0.0491262,-0.00699214,-0.471728,0.035313,0.0394465,1994,904,13.6748,-3.47461
777,120,13.9015,3.66205,0.0515246,0.00800167,-0.0323609,0.0687604,-0.0092342,-0.489397,0.049208,0.0490769,2001,904,13.9015,-3.66203
784,120,14.386,3.88293,0.0691897,0.0133475,-0.0452605,0.0944485,-0.0119113,-0.509023,0.0672884,0.04826,2008,904,14.386,-3.88296
791,120,16.6941,-0.885925,0.0910012,0.0216219,-0.0622812,0.127602,-0.0149788,-0.531303,0.0904752,0.0468082,2015,904,16.6941,0.885913
798,120,16.7379,-1.19226,0,0,0,0,0,0,0,-1,2022,904,16.7379,1.19227
805,120,0,0,0,0,0,0,0,0,0,-1,2029,904,0,0
812,120,0,0,0,0,0,0,0,0,0,-1,2036,904,0,0
-700,113,0,0,0,0,0,0,0,0,0,-1,524,911,0,0
-693,113,0,0,0,0,0,0,0,0,0,-1,531,911,0,0
-686,113,0,0,0,0,0,0,0,0,0,-1,538,911,0,0
-679,113,-8.86249,2.59436,0,0,0,0,0,0,0,-1,545,911,-8.86247,-2.59434
-672,113,-8.80701,2.26361,0.00899351,-0.0630975,-0.0583447,0.0415292,-0.0956332,-0.508695,0.0812184,0.0473629,552,911,-8.80698,-2.26363
-665,113,-8.77161,1.91168,0.00824696,-0.0433183,-0.0442882,0.0337107,-0.0687821,-0.5218,0.060318,0.0462505,559,911,-8.77162,-1.91171
-658,113,-8.70776,1.54004,0.00660799,-0.0292871,-0.032651,0.025919,-0.0485981,-0.5341,0.0436816,0.0442453,566,911,-8.70775,-1.54002
-651,113,-8.70239,1.20398,0.00465556,-0.0193644,-0.0232011,0.0187709,-0.0334797,-0.546566,0.0305627,0.0467507,573,911,-8.70237,-1.20396
-644,113,-8.45801,1.33234,0,0,0,0,0,0,0,-1,580,911,-8.45801,-1.33231
-637,113,-8.43726,1.289,0.00107251,-0.007738,-0.0100412,0.00763228,-0.0142978,-0.578682,0.0128548,0.0347912,587,911,-8.43726,-1.28898
-630,113,-8.42639,1.25073,-1.07752e-05,-0.00402048,-0.00570042,0.00402708,-0.00805833,-0.616303,0.00710573,0.0158482,594,911,-8.42642,-1.25072
-623,113,-8.44037,1.17328,-0.000862233,-0.00124629,-0.00221734,0.00117137,-0.0032799,-0.742204,0.00266432,0.010409,601,911,-8.44036,-1.1733
-616,113,-8.4314,1.09259,-0.00191889,-0.000631099,-9.14334e-05,-0.00062464,-0.00192535,-1.50027,0.00113421,0.00941577,608,911,-8.43139,-1.09262
-609,113,-8.4455,1.01904,-0.00324732,-0.000447101,0.00129147,5.75741e-05,-0.00375199,1.19827,0.00252074,0.0107955,615,911,-8.4455,-1.01902
-602,113,-8.47144,0.966492,-0.00534868,-0.000777202,0.00198341,-3.66375e-05,-0.00608924,1.21345,0.00404734,0.0140545,622,911,-8.47143,-0.966502
-595,113,-8.46124,0.900513,-0.00612145,-0.000595721,0.00185279,-3.19846e-05,-0.00668518,1.27543,0.00444616,0.0166845,629,911,-8.46126,-0.900517
-588,113,-8.44855,0.793579,-0.0068122,-0.00106094,0.00136899,-0.000751701,-0.00712143,1.34864,0.00451795,0.0165493,636,911,-8.44858,-0.793577
-581,113,-8.43652,0.710693,-0.0074413,-0.000834134,0.00118599,-0.000627697,-0.00764774,1.39846,0.00490267,0.018025,643,911,-8.43651,-0.710678
-574,113,-8.37323,0.601685,-0.0076367,-0.000879819,0.00121397,-0.000668331,-0.00784818,1.39832,0.00502418,0.0181795,650,911,-8.37322,-0.601683
-567,113,-8.71027,0.533569,-0.00763591,-0.000857818,0.00134239,-0.000601644,-0.00789208,1.38223,0.00507275,0.0370491,657,911,-8.71026,-0.533559
-560,113,-9.30634,0.565613,0,0,0,0,0,0,0,-1,664,911,-9.30634,-0.56562
-553,113,-9.34686,0.642517,-0.00711146,-0.000567226,0.00152584,-0.000228948,-0.00744973,1.35263,0.00489196,0.0384702,671,911,-9.34689,-0.642502
-546,113,-9.3241,0.687927,-0.00612642,-0.000259713,0.00157627,0.000136975,-0.00652311,1.32425,0.00439511,0.0350251,678,911,-9.32407,-0.687954
-539,113,-8.99164,0.513733,0,0,0,0,0,0,0,-1,685,911,-8.99161,-0.513755
-532,113,-9.1427,0.517212,-0.00193493,0.000721464,0.00137278,0.00130341,-0.00251687,1.16984,0.00224242,0.0393287,692,911,-9.14271,-0.517185
-525,113,-9.32397,0.549377,0.00152206,0.00140901,0.00100935,0.00247647,0.000454605,0.757424,0.00152224,0.039696,699,911,-9.32396,-0.549372
-518,113,-9.37549,0.520874,0.00579701,0.00221216,0.000413621,0.00584411,0.00216506,0.113396,0.00341163,0.0396565,706,911,-9.37548,-0.520876
-511,113,-9.35443,0.48053,0.00938671,0.00319021,-0.000283911,0.0093997,0.00317723,-0.0456904,0.00552103,0.041834,713,911,-9.35443,-0.480548
-504,113,0,0,0,0,0,0,0,0,0,-1,720,911,0,0
-497,113,0,0,0,0,0,0,0,0,0,-1,727,911,0,0
-490,113,0,0,0,0,0,0,0,0,0,-1,734,911,0,0
-483,113,0,0,0,0,0,0,0,0,0,-1,741,911,0,0
-476,113,0,0,0,0,0,0,0,0,0,-1,748,911,0,0
-469,113,0,0,0,0,0,0,0,0,0,-1,755,911,0,0
-462,113,0,0,0,0,0,0,0,0,0,-1,762,911,0,0
-455,113,0,0,0,0,0,0,0,0,0,-1,769,911,0,0
-448,113,0,0,0,0,0,0,0,0,0,-1,776,911,0,0
-441,113,0,0,0,0,0,0,0,0,0,-1,783,911,0,0
-434,113,0,0,0,0,0,0,0,0,0,-1,790,911,0,0
-427,113,0,0,0,0,0,0,0,0,0,-1,797,911,0,0
-420,113,0,0,0,0,0,0,0,0,0,-1,804,911,0,0
-413,113,0,0,0,0,0,0,0,0,0,-1,811,911,0,0
-406,113,0,0,0,0,0,0,0,0,0,-1,818,911,0,0
-399,113,0,0,0,0,0,0,0,0,0,-1,825,911,0,0
-392,113,0,0,0,0,0,0,0,0,0,-1,832,911,0,0
-385,113,0,0,0,0,0,0,0,0,0,-1,839,911,0,0
-378,113,0,0,0,0,0,0,0,0,0,-1,846,911,0,0
-371,113,0,0,0,0,0,0,0,0,0,-1,853,911,0,0
-364,113,0,0,0,0,0,0,0,0,0,-1,860,911,0,0
-357,113,0,0,0,0,0,0,0,0,0,-1,867,911,0,0
-350,113,0,0,0,0,0,0,0,0,0,-1,874,911,0,0
-343,113,0,0,0,0,0,0,0,0,0,-1,881,911,0,0
-336,113,0,0,0,0,0,0,0,0,0,-1,888,911,0,0
-329,113,0,0,0,0,0,0,0,0,0,-1,895,911,0,0
-322,113,0,0,0,0,0,0,0,0,0,-1,902,911,0,0
-315,113,0,0,0,0,0,0,0,0,0,-1,909,911,0,0
-308,113,0,0,0,0,0,0,0,0,0,-1,916,911,0,0
-301,113,0,0,0,0,0,0,0,0,0,-1,923,911,0,0
-294,113,0,0,0,0,0,0,0,0,0,-1,930,911,0,0
-287,113,0,0,0,0,0,0,0,0,0,-1,937,911,0,0
-280,113,0,0,0,0,0,0,0,0,0,-1,944,911,0,0
-273,113,0,0,0,0,0,0,0,0,0,-1,951,911,0,0
-266,113,0,0,0,0,0,0,0,0,0,-1,958,911,0,0
-259,113,0,0,0,0,0,0,0,0,0,-1,965,911,0,0
-252,113,0,0,0,0,0,0,0,0,0,-1,972,911,0,0
-245,113,0,0,0,0,0,0,0,0,0,-1,979,911,0,0
-238,113,0,0,0,0,0,0,0,0,0,-1,986,911,0,0
-231,113,0,0,0,0,0,0,0,0,0,-1,993,911,0,0
-224,113,0,0,0,0,0,0,0,0,0,-1,1000,911,0,0
-217,113,0,0,0,0,0,0,0,0,0,-1,1007,911,0,0
-210,113,0,0,0,0,0,0,0,0,0,-1,1014,911,0,0
-203,113,0,0,0,0,0,0,0,0,0,-1,1021,911,0,0
-196,113,0,0,0,0,0,0,0,0,0,-1,1028,911,0,0
-189,113,0,0,0,0,0,0,0,0,0,-1,1035,911,0,0
-182,113,0,0,0,0,0,0,0,0,0,-1,1042,911,0,0
-175,113,0,0,0,0,0,0,0,0,0,-1,1049,911,0,0
-168,113,0,0,0,0,0,0,0,0,0,-1,1056,911,0,0
-161,113,0,0,0,0,0,0,0,0,0,-1,1063,911,0,0
-154,113,0,0,0,0,0,0,0,0,0,-1,1070,911,0,0
-147,113,0,0,0,0,0,0,0,0,0,-1,1077,911,0,0
-140,113,0,0,0,0,0,0,0,0,0,-1,1084,911,0,0
-133,113,0,0,0,0,0,0,0,0,0,-1,1091,911,0,0
-126,113,0,0,0,0,0,0,0,0,0,-1,1098,911,0,0
-119,113,0,0,0,0,0,0,0,0,0,-1,1105,911,0,0
-112,113,0,0,0,0,0,0,0,0,0,-1,1112,911,0,0
-105,113,0,0,0,0,0,0,0,0,0,-1,1119,911,0,0
-98,113,0,0,0,0,0,0,0,0,0,-1,1126,911,0,0
-91,113,0,0,0,0,0,0,0,0,0,-1,1133,911,0,0
-84,113,0,0,0,0,0,0,0,0,0,-1,1140,911,0,0
-77,113,0,0,0,0,0,0,0,0,0,-1,1147,911,0,0
-70,113,0,0,0,0,0,0,0,0,0,-1,1154,911,0,0
-63,113,0,0,0,0,0,0,0,0,0,-1,1161,911,0,0
-56,113,0,0,0,0,0,0,0,0,0,-1,1168,911,0,0
-49,113,0,0,0,0,0,0,0,0,0,-1,1175,911,0,0
-42,113,0,0,0,0,0,0,0,0,0,-1,1182,911,0,0
-35,113,0,0,0,0,0,0,0,0,0,-1,1189,911,0,0
-28,113,0,0,0,0,0,0,0,0,0,-1,1196,911,0,0
-21,113,0,0,0,0,0,0,0,0,0,-1,1203,911,0,0
-14,113,0,0,0,0,0,0,0,0,0,-1,1210,911,0,0
-7,113,0,0,0,0,0,0,0,0,0,-1,1217,911,0,0
0,113,0,0,0,0,0,0,0,0,0,-1,1224,911,0,0
7,113,0,0,0,0,0,0,0,0,0,-1,1231,911,0,0
14,113,0,0,0,0,0,0,0,0,0,-1,1238,911,0,0
21,113,0,0,0,0,0,0,0,0,0,-1,1245,911,0,0
28,113,0,0,0,0,0,0,0,0,0,-1,1252,911,0,0
35,113,0,0,0,0,0,0,0,0,0,-1,1259,911,0,0
42,113,0,0,0,0,0,0,0,0,0,-1,1266,911,0,0
49,113,0,0,0,0,0,0,0,0,0,-1,1273,911,0,0
56,113,0,0,0,0,0,0,0,0,0,-1,1280,911,0,0
63,113,0,0,0,0,0,0,0,0,0,-1,1287,911,0,0
70,113,0,0,0,0,0,0,0,0,0,-1,1294,911,0,0
77,113,0,0,0,0,0,0,0,0,0,-1,1301,911,0,0
84,113,0,0,0,0,0,0,0,0,0,-1,1308,911,0,0
91,113,0,0,0,0,0,0,0,0,0,-1,1315,911,0,0
98,113,0,0,0,0,0,0,0,0,0,-1,1322,911,0,0
105,113,0,0,0,0,0,0,0,0,0,-1,1329,911,0,0
112,113,0,0,0,0,0,0,0,0,0,-1,1336,911,0,0
119,113,0,0,0,0,0,0,0,0,0,-1,1343,911,0,0
126,113,0,0,0,0,0,0,0,0,0,-1,1350,911,0,0
133,113,0,0,0,0,0,0,0,0,0,-1,1357,911,0,0
140,113,0,0,0,0,0,0,0,0,0,-1,1364,911,0,0
147,113,0,0,0,0,0,0,0,0,0,-1,1371,911,0,0
154,113,0,0,0,0,0,0,0,0,0,-1,1378,911,0,0
161,113,0,0,0,0,0,0,0,0,0,-1,1385,911,0,0
168,113,0,0,0,0,0,0,0,0,0,-1,1392,911,0,0
175,113,0,0,0,0,0,0,0,0,0,-1,1399,911,0,0
182,113,0,0,0,0,0,0,0,0,0,-1,1406,911,0,0
189,113,0,0,0,0,0,0,0,0,0,-1,1413,911,0,0
196,113,0,0,0,0,0,0,0,0,0,-1,1420,911,0,0
203,113,0,0,0,0,0,0,0,0,0,-1,1427,911,0,0
210,113,0,0,0,0,0,0,0,0,0,-1,1434,911,0,0
217,113,0,0,0,0,0,0,0,0,0,-1,1441,911,0,0
224,113,0,0,0,0,0,0,0,0,0,-1,1448,911,0,0
231,113,0,0,0,0,0,0,0,0,0,-1,1455,911,0,0
238,113,0,0,0,0,0,0,0,0,0,-1,1462,911,0,0
245,113,0,0,0,0,0,0,0,0,0,-1,1469,911,0,0
252,113,0,0,0,0,0,0,0,0,0,-1,1476,911,0,0
259,113,0,0,0,0,0,0,0,0,0,-1,1483,911,0,0
266,113,0,0,0,0,0,0,0,0,0,-1,1490,911,0,0
273,113,0,0,0,0,0,0,0,0,0,-1,1497,911,0,0
280,113,0,0,0,0,0,0,0,0,0,-1,1504,911,0,0
287,113,0,0,0,0,0,0,0,0,0,-1,1511,911,0,0
294,113,0,0,0,0,0,0,0,0,0,-1,1518,911,0,0
301,113,0,0,0,0,0,0,0,0,0,-1,1525,911,0,0
308,113,0,0,0,0,0,0,0,0,0,-1,1532,911,0,0
315,113,0,0,0,0,0,0,0,0,0,-1,1539,911,0,0
322,113,0,0,0,0,0,0,0,0,0,-1,1546,911,0,0
329,113,0,0,0,0,0,0,0,0,0,-1,1553,911,0,0
336,113,0,0,0,0,0,0,0,0,0,-1,1560,911,0,0
343,113,0,0,0,0,0,0,0,0,0,-1,1567,911,0,0
350,113,0,0,0,0,0,0,0,0,0,-1,1574,911,0,0
357,113,0,0,0,0,0,0,0,0,0,-1,1581,911,0,0
364,113,0,0,0,0,0,0,0,0,0,-1,1588,911,0,0
371,113,0,0,0,0,0,0,0,0,0,-1,1595,911,0,0
378,113,0,0,0,0,0,0,0,0,0,-1,1602,911,0,0
385,113,0,0,0,0,0,0,0,0,0,-1,1609,911,0,0
392,113,0,0,0,0,0,0,0,0,0,-1,1616,911,0,0
399,113,0,0,0,0,0,0,0,0,0,-1,1623,911,0,0
406,113,0,0,0,0,0,0,0,0,0,-1,1630,911,0,0
413,113,0,0,0,0,0,0,0,0,0,-1,1637,911,0,0
420,113,0,0,0,0,0,0,0,0,0,-1,1644,911,0,0
427,113,0,0,0,0,0,0,0,0,0,-1,1651,911,0,0
434,113,0,0,0,0,0,0,0,0,0,-1,1658,911,0,0
441,113,0,0,0,0,0,0,0,0,0,-1,1665,911,0,0
448,113,0,0,0,0,0,0,0,0,0,-1,1672,911,0,0
455,113,0,0,0,0,0,0,0,0,0,-1,1679,911,0,0
462,113,0,0,0,0,0,0,0,0,0,-1,1686,911,0,0
469,113,0,0,0,0,0,0,0,0,0,-1,1693,911,0,0
476,113,0,0,0,0,0,0,0,0,0,-1,1700,911,0,0
483,113,0,0,0,0,0,0,0,0,0,-1,1707,911,0,0
490,113,0,0,0,0,0,0,0,0,0,-1,1714,911,0,0
497,113,0,0,0,0,0,0,0,0,0,-1,1721,911,0,0
504,113,0,0,0,0,0,0,0,0,0,-1,1728,911,0,0
511,113,0,0,0,0,0,0,0,0,0,-1,1735,911,0,0
518,113,0,0,0,0,0,0,0,0,0,-1,1742,911,0,0
525,113,0,0,0,0,0,0,0,0,0,-1,1749,911,0,0
532,113,0,0,0,0,0,0,0,0,0,-1,1756,911,0,0
539,113,0,0,0,0,0,0,0,0,0,-1,1763,911,0,0
546,113,0,0,0,0,0,0,0,0,0,-1,1770,911,0,0
553,113,0,0,0,0,0,0,0,0,0,-1,1777,911,0,0
560,113,0,0,0,0,0,0,0,0,0,-1,1784,911,0,0
567,113,0,0,0,0,0,0,0,0,0,-1,1791,911,0,0
574,113,0,0,0,0,0,0,0,0,0,-1,1798,911,0,0
581,113,0,0,0,0,0,0,0,0,0,-1,1805,911,0,0
588,113,0,0,0,0,0,0,0,0,0,-1,1812,911,0,0
595,113,0,0,0,0,0,0,0,0,0,-1,1819,911,0,0
602,113,0,0,0,0,0,0,0,0,0,-1,1826,911,0,0
609,113,0,0,0,0,0,0,0,0,0,-1,1833,911,0,0
616,113,0,0,0,0,0,0,0,0,0,-1,1840,911,0,0
623,113,0,0,0,0,0,0,0,0,0,-1,1847,911,0,0
630,113,15.2656,2.17877,0.00730116,0.0064652,0.00271071,0.00962592,0.00414044,0.708902,0.00557559,0.0382102,1854,911,15.2656,-2.17878
637,113,15.2288,2.53815,0.00495524,0.00506809,0.0022399,0.00725228,0.00277105,0.797992,0.00422573,0.0383885,1861,911,15.2288,-2.53815
644,113,15.1539,2.59882,0.00302527,0.00374536,0.00160203,0.0050273,0.00174333,0.895932,0.00294759,0.038287,1868,911,15.1539,-2.5988
651,113,15.1233,2.40155,0.000114435,0.00272096,0.000713606,0.00290354,-6.81452e-05,1.32031,0.0019588,0.0427208,1875,911,15.1232,-2.40155
658,113,15.233,2.12933,-0.00325377,0.00193425,-0.000156969,0.00193899,-0.00325852,-1.54058,0.00303285,0.0436085,1882,911,15.233,-2.12935
665,113,15.1676,2.31793,-0.00629836,0.00131162,-0.000843457,0.00140398,-0.00639072,-1.46172,0.00479745,0.03782,1889,911,15.1677,-2.31793
672,113,15.1569,2.3598,-0.00864522,0.000882617,-0.00134767,0.00106957,-0.00883217,-1.43295,0.00627509,0.0361707,1896,911,15.1569,-2.3598
679,113,15.2686,2.25085,-0.0104737,0.000587651,-0.00158849,0.00081125,-0.0106973,-1.43095,0.00741678,0.0314606,1903,911,15.2686,-2.25085
686,113,15.2478,2.28235,-0.0115667,0.000276348,-0.00186574,0.000563322,-0.0118537,-1.41818,0.00809676,0.0246876,1910,911,15.2478,-2.28234
693,113,14.9493,2.43671,0,0,0,0,0,0,0,-1,1917,911,14.9494,-2.43672
700,113,14.3378,2.51422,-0.0120824,-7.64554e-05,-0.00194855,0.000231874,-0.0123908,-1.41386,0.00833888,0.0349772,1924,911,14.3377,-2.5142
707,113,13.7576,2.5509,-0.0115645,-8.78082e-05,-0.00172916,0.000167059,-0.0118194,-1.42446,0.00793588,0.0243953,1931,911,13.7576,-2.55088
714,113,13.7568,2.66113,-0.0102471,-0.000167867,-0.00166758,0.000100864,-0.0105159,-1.41102,0.00704443,0.0150019,1938,911,13.7568,-2.66113
721,113,13.7633,2.78876,-0.00839117,-0.000132356,-0.00157056,0.00015623,-0.00867975,-1.38908,0.00583928,0.0149029,1945,911,13.7633,-2.78877
728,113,13.7783,2.91541,-0.00600393,0.000104891,-0.00167549,0.000534256,-0.0064333,-1.31993,0.00447759,0.0152127,1952,911,13.7783,-2.91539
735,113,13.7654,3.00299,-0.00223477,-0.000846192,-0.00187632,0.000460174,-0.00354113,-0.9626,0.00252814,0.0145494,1959,911,13.7654,-3.00299
742,113,13.7699,3.1059,0.00314505,0.000164533,-0.0042625,0.00617029,-0.00286071,-0.61723,0.00532948,0.0114689,1966,911,13.7698,-3.10589
749,113,13.7627,3.20215,0.00843911,0.000502277,-0.00637288,0.0119781,-0.00303676,-0.506925,0.00916692,0.00834337,1973,911,13.7627,-3.20214
756,113,13.76,3.28925,0.0147924,0.00113323,-0.009635,0.0197729,-0.0038472,-0.477083,0.0146339,0.010377,1980,911,13.76,-3.28922
763,113,13.7372,3.37158,0.0221265,0.00218198,-0.0142928,0.0295821,-0.00527364,-0.480805,0.021694,0.0189767,1987,911,13.7372,-3.3716
770,113,13.7261,3.40375,0.0311343,0.00388661,-0.020694,0.0422865,-0.00726559,-0.494288,0.0308989,0.0397174,1994,911,13.726,-3.40372
777,113,13.7214,3.43079,0,0,0,0,0,0,0,-1,2001,911,13.7214,-3.4308
784,113,14.3148,4.34595,0,0,0,0,0,0,0,-1,2008,911,14.3148,-4.34596
791,113,17.6338,-2.39807,0,0,0,0,0,0,0,-1,2015,911,17.6338,2.39809
798,113,12.9689,3.02753,0,0,0,0,0,0,0,-1,2022,911,12.9689,-3.02752
805,113,0,0,0,0,0,0,0,0,0,-1,2029,911,0,0
812,113,0,0,0,0,0,0,0,0,0,-1,2036,911,0,0
-700,106,0,0,0,0,0,0,0,0,0,-1,524,918,0,0
-693,106,0,0,0,0,0,0,0,0,0,-1,531,918,0,0
-686,106,0,0,0,0,0,0,0,0,0,-1,538,918,0,0
-679,106,-8.93347,3.02771,-0.00898172,-0.0829782,-0.0775584,0.0399513,-0.131911,-0.562844,0.103852,0.045443,545,918,-8.93345,-3.02769
-672,106,-8.73651,2.50305,-0.00510107,-0.0545062,-0.0612624,0.0362516,-0.0958589,-0.593756,0.0788195,0.0454075,552,918,-8.73654,-2.50303
-665,106,-8.71234,2.17749,-0.00311839,-0.0350568,-0.0472854,0.0308216,-0.0689967,-0.622552,0.0590183,0.0444078,559,918,-8.71232,-2.17749
-658,106,-8.63318,1.81641,-0.00216545,-0.0217625,-0.0355258,0.0248884,-0.0488163,-0.650837,0.0432944,0.0431419,566,918,-8.63318,-1.81642
-651,106,-8.5791,1.51849,-0.00180201,-0.0128145,-0.0258279,0.0191001,-0.0337166,-0.680376,0.0308805,0.0459074,573,918,-8.57911,-1.51847
-644,106,-8.48132,1.4632,-0.00175289,-0.00697757,-0.0180373,0.0138602,-0.0225907,-0.713483,0.0212452,0.0439936,580,918,-8.48135,-1.46319
-637,106,-8.47803,1.35291,-0.00184624,-0.00336926,-0.0119927,0.00940913,-0.0146246,-0.753692,0.0139844,0.0283931,587,918,-8.47805,-1.35289
-630,106,-8.50177,1.25189,-0.00176889,-0.000537571,-0.007275,0.00614778,-0.00845424,-0.827611,0.00846546,0.0116255,594,918,-8.50178,-1.25189
-623,106,-8.513,1.17731,-0.00183367,0.00156864,-0.00337909,0.00365063,-0.00391566,-1.01859,0.00436929,0.0100437,601,918,-8.51299,-1.17731
-616,106,-8.51636,1.09381,-0.00238452,0.00115541,-0.000971087,0.0014043,-0.00263341,-1.31989,0.0023669,0.0102867,608,918,-8.51634,-1.09382
-609,106,-8.53229,1.01801,-0.0033266,0.000466826,0.00062919,0.000568462,-0.00342824,1.41064,0.00249664,0.0102982,615,918,-8.53227,-1.01804
-602,106,-8.54108,0.946533,-0.00508523,-0.000420719,0.00143666,-1.37405e-05,-0.0054922,1.29475,0.0036569,0.0113773,622,918,-8.54109,-0.946519
-595,106,-8.56982,0.885986,-0.00576441,-0.000318752,0.00134189,-6.04731e-06,-0.00607712,1.34185,0.0040494,0.014686,629,918,-8.5698,-0.885966
-588,106,-8.54956,0.781616,-0.00646357,-0.000689053,0.000902355,-0.000551331,-0.00660129,1.41934,0.00422908,0.0159488,636,918,-8.54955,-0.781627
-581,106,-8.48572,0.690979,-0.00714056,-0.000591896,0.000772133,-0.000502088,-0.00723037,1.455,0.0046619,0.013757,643,918,-8.48574,-0.690978
-574,106,-8.48767,0.620972,-0.00730218,-0.000684767,0.000772401,-0.000595806,-0.00739114,1.45613,0.00474132,0.0173262,650,918,-8.48769,-0.620997
-567,106,-8.90253,0.620911,-0.00717213,-0.000660631,0.000829748,-0.00055656,-0.0072762,1.44602,0.00467633,0.0315499,657,918,-8.90255,-0.620895
-560,106,-9.39789,0.679504,-0.00692624,-0.000445678,0.000899392,-0.000323173,-0.00704874,1.43542,0.00459523,0.0355379,664,918,-9.39789,-0.679488
-553,106,-9.44861,0.461975,-0.00626196,-0.000354501,0.000903763,-0.00021933,-0.00639713,1.42233,0.00419356,0.035314,671,918,-9.4486,-0.46196
-546,106,-9.47241,0.249329,-0.00502807,-8.52159e-05,0.000921642,8.10404e-05,-0.00519433,1.39232,0.00349021,0.0386384,678,918,-9.4724,-0.249348
-539,106,-9.26672,0.125793,-0.00307317,0.000293809,0.000886283,0.000512853,-0.00329221,1.3285,0.00238422,0.0422718,685,918,-9.26669,-0.125819
-532,106,-9.263,0.239319,-0.000316318,0.000789424,0.000769518,0.00118409,-0.000710983,1.0969,0.00110543,0.042733,692,918,-9.26298,-0.239316
-525,106,-9.4903,0.438538,0.00336067,0.00138864,0.000509527,0.00348454,0.00126477,0.23848,0.00203683,0.0385731,699,918,-9.49027,-0.438565
-518,106,-9.30011,0.341431,0.00758538,0.0020979,9.2017e-05,0.00758692,0.00209636,0.0167622,0.00452407,0.038782,706,918,-9.30013,-0.341454
-511,106,0,0,0,0,0,0,0,0,0,-1,713,918,0,0
-504,106,0,0,0,0,0,0,0,0,0,-1,720,918,0,0
-497,106,0,0,0,0,0,0,0,0,0,-1,727,918,0,0
-490,106,0,0,0,0,0,0,0,0,0,-1,734,918,0,0
-483,106,0,0,0,0,0,0,0,0,0,-1,741,918,0,0
-476,106,0,0,0,0,0,0,0,0,0,-1,748,918,0,0
-469,106,0,0,0,0,0,0,0,0,0,-1,755,918,0,0
-462,106,0,0,0,0,0,0,0,0,0,-1,762,918,0,0
-455,106,0,0,0,0,0,0,0,0,0,-1,769,918,0,0
-448,106,0,0,0,0,0,0,0,0,0,-1,776,918,0,0
-441,106,0,0,0,0,0,0,0,0,0,-1,783,918,0,0
-434,106,0,0,0,0,0,0,0,0,0,-1,790,918,0,0
-427,106,0,0,0,0,0,0,0,0,0,-1,797,918,0,0
-420,106,0,0,0,0,0,0,0,0,0,-1,804,918,0,0
-413,106,0,0,0,0,0,0,0,0,0,-1,811,918,0,0
-406,106,0,0,0,0,0,0,0,0,0,-1,818,918,0,0
-399,106,0,0,0,0,0,0,0,0,0,-1,825,918,0,0
-392,106,0,0,0,0,0,0,0,0,0,-1,832,918,0,0
-385,106,0,0,0,0,0,0,0,0,0,-1,839,918,0,0
-378,106,0,0,0,0,0,0,0,0,0,-1,846,918,0,0
-371,106,0,0,0,0,0,0,0,0,0,-1,853,918,0,0
-364,106,0,0,0,0,0,0,0,0,0,-1,860,918,0,0
-357,106,0,0,0,0,0,0,0,0,0,-1,867,918,0,0
-350,106,0,0,0,0,0,0,0,0,0,-1,874,918,0,0
-343,106,0,0,0,0,0,0,0,0,0,-1,881,918,0,0
-336,106,0,0,0,0,0,0,0,0,0,-1,888,918,0,0
-329,106,0,0,0,0,0,0,0,0,0,-1,895,918,0,0
-322,106,0,0,0,0,0,0,0,0,0,-1,902,918,0,0
-315,106,0,0,0,0,0,0,0,0,0,-1,909,918,0,0
-308,106,0,0,0,0,0,0,0,0,0,-1,916,918,0,0
-301,106,0,0,0,0,0,0,0,0,0,-1,923,918,0,0
-294,106,0,0,0,0,0,0,0,0,0,-1,930,918,0,0
-287,106,0,0,0,0,0,0,0,0,0,-1,937,918,0,0
-280,106,0,0,0,0,0,0,0,0,0,-1,944,918,0,0
-273,106,0,0,0,0,0,0,0,0,0,-1,951,918,0,0
-266,106,0,0,0,0,0,0,0,0,0,-1,958,918,0,0
-259,106,0,0,0,0,0,0,0,0,0,-1,965,918,0,0
-252,106,0,0,0,0,0,0,0,0,0,-1,972,918,0,0
-245,106,0,0,0,0,0,0,0,0,0,-1,979,918,0,0
-238,106,0,0,0,0,0,0,0,0,0,-1,986,918,0,0
-231,106,0,0,0,0,0,0,0,0,0,-1,993,918,0,0
-224,106,0,0,0,0,0,0,0,0,0,-1,1000,918,0,0
-217,106,0,0,0,0,0,0,0,0,0,-1,1007,918,0,0
-210,106,0,0,0,0,0,0,0,0,0,-1,1014,918,0,0
-203,106,0,0,0,0,0,0,0,0,0,-1,1021,918,0,0
-196,106,0,0,0,0,0,0,0,0,0,-1,1028,918,0,0
-189,106,0,0,0,0,0,0,0,0,0,-1,1035,918,0,0
-182,106,0,0,0,0,0,0,0,0,0,-1,1042,918,0,0
-175,106,0,0,0,0,0,0,0,0,0,-1,1049,918,0,0
-168,106,0,0,0,0,0,0,0,0,0,-1,1056,918,0,0
-161,106,0,0,0,0,0,0,0,0,0,-1,1063,918,0,0
-154,106,0,0,0,0,0,0,0,0,0,-1,1070,918,0,0
-147,106,0,0,0,0,0,0,0,0,0,-1,1077,918,0,0
-140,106,0,0,0,0,0,0,0,0,0,-1,1084,918,0,0
-133,106,0,0,0,0,0,0,0,0,0,-1,1091,918,0,0
-126,106,0,0,0,0,0,0,0,0,0,-1,1098,918,0,0
-119,106,0,0,0,0,0,0,0,0,0,-1,1105,918,0,0
-112,106,0,0,0,0,0,0,0,0,0,-1,1112,918,0,0
-105,106,0,0,0,0,0,0,0,0,0,-1,1119,918,0,0
-98,106,0,0,0,0,0,0,0,0,0,-1,1126,918,0,0
-91,106,0,0,0,0,0,0,0,0,0,-1,1133,918,0,0
-84,106,0,0,0,0,0,0,0,0,0,-1,1140,918,0,0
-77,106,0,0,0,0,0,0,0,0,0,-1,1147,918,0,0
-70,106,0,0,0,0,0,0,0,0,0,-1,1154,918,0,0
-63,106,0,0,0,0,0,0,0,0,0,-1,1161,918,0,0
-56,106,0,0,0,0,0,0,0,0,0,-1,1168,918,0,0
-49,106,0,0,0,0,0,0,0,0,0,-1,1175,918,0,0
-42,106,0,0,0,0,0,0,0,0,0,-1,1182,918,0,0
-35,106,0,0,0,0,0,0,0,0,0,-1,1189,918,0,0
-28,106,0,0,0,0,0,0,0,0,0,-1,1196,918,0,0
-21,106,0,0,0,0,0,0,0,0,0,-1,1203,918,0,0
-14,106,0,0,0,0,0,0,0,0,0,-1,1210,918,0,0
-7,106,0,0,0,0,0,0,0,0,0,-1,1217,918,0,0
0,106,0,0,0,0,0,0,0,0,0,-1,1224,918,0,0
7,106,0,0,0,0,0,0,0,0,0,-1,1231,918,0,0
14,106,0,0,0,0,0,0,0,0,0,-1,1238,918,0,0
21,106,0,0,0,0,0,0,0,0,0,-1,1245,918,0,0
28,106,0,0,0,0,0,0,0,0,0,-1,1252,918,0,0
35,106,0,0,0,0,0,0,0,0,0,-1,1259,918,0,0
42,106,0,0,0,0,0,0,0,0,0,-1,1266,918,0,0
49,106,0,0,0,0,0,0,0,0,0,-1,1273,918,0,0
56,106,0,0,0,0,0,0,0,0,0,-1,1280,918,0,0
63,106,0,0,0,0,0,0,0,0,0,-1,1287,918,0,0
70,106,0,0,0,0,0,0,0,0,0,-1,1294,918,0,0
77,106,0,0,0,0,0,0,0,0,0,-1,1301,918,0,0
84,106,0,0,0,0,0,0,0,0,0,-1,1308,918,0,0
91,106,0,0,0,0,0,0,0,0,0,-1,1315,918,0,0
98,106,0,0,0,0,0,0,0,0,0,-1,1322,918,0,0
105,106,0,0,0,0,0,0,0,0,0,-1,1329,918,0,0
112,106,0,0,0,0,0,0,0,0,0,-1,1336,918,0,0
119,106,0,0,0,0,0,0,0,0,0,-1,1343,918,0,0
126,106,0,0,0,0,0,0,0,0,0,-1,1350,918,0,0
133,106,0,0,0,0,0,0,0,0,0,-1,1357,918,0,0
140,106,0,0,0,0,0,0,0,0,0,-1,1364,918,0,0
147,106,0,0,0,0,0,0,0,0,0,-1,1371,918,0,0
154,106,0,0,0,0,0,0,0,0,0,-1,1378,918,0,0
161,106,0,0,0,0,0,0,0,0,0,-1,1385,918,0,0
168,106,0,0,0,0,0,0,0,0,0,-1,1392,918,0,0
175,106,0,0,0,0,0,0,0,0,0,-1,1399,918,0,0
182,106,0,0,0,0,0,0,0,0,0,-1,1406,918,0,0
189,106,0,0,0,0,0,0,0,0,0,-1,1413,918,0,0
196,106,0,0,0,0,0,0,0,0,0,-1,1420,918,0,0
203,106,0,0,0,0,0,0,0,0,0,-1,1427,918,0,0
210,106,0,0,0,0,0,0,0,0,0,-1,1434,918,0,0
217,106,0,0,0,0,0,0,0,0,0,-1,1441,918,0,0
224,106,0,0,0,0,0,0,0,0,0,-1,1448,918,0,0
231,106,0,0,0,0,0,0,0,0,0,-1,1455,918,0,0
238,106,0,0,0,0,0,0,0,0,0,-1,1462,918,0,0
245,106,0,0,0,0,0,0,0,0,0,-1,1469,918,0,0
252,106,0,0,0,0,0,0,0,0,0,-1,1476,918,0,0
259,106,0,0,0,0,0,0,0,0,0,-1,1483,918,0,0
266,106,0,0,0,0,0,0,0,0,0,-1,1490,918,0,0
273,106,0,0,0,0,0,0,0,0,0,-1,1497,918,0,0
280,106,0,0,0,0,0,0,0,0,0,-1,1504,918,0,0
287,106,0,0,0,0,0,0,0,0,0,-1,1511,918,0,0
294,106,0,0,0,0,0,0,0,0,0,-1,1518,918,0,0
301,106,0,0,0,0,0,0,0,0,0,-1,1525,918,0,0
308,106,0,0,0,0,0,0,0,0,0,-1,1532,918,0,0
315,106,0,0,0,0,0,0,0,0,0,-1,1539,918,0,0
322,106,0,0,0,0,0,0,0,0,0,-1,1546,918,0,0
329,106,0,0,0,0,0,0,0,0,0,-1,1553,918,0,0
336,106,0,0,0,0,0,0,0,0,0,-1,1560,918,0,0
343,106,0,0,0,0,0,0,0,0,0,-1,1567,918,0,0
350,106,0,0,0,0,0,0,0,0,0,-1,1574,918,0,0
357,106,0,0,0,0,0,0,0,0,0,-1,1581,918,0,0
364,106,0,0,0,0,0,0,0,0,0,-1,1588,918,0,0
371,106,0,0,0,0,0,0,0,0,0,-1,1595,918,0,0
378,106,0,0,0,0,0,0,0,0,0,-1,1602,918,0,0
385,106,0,0,0,0,0,0,0,0,0,-1,1609,918,0,0
392,106,0,0,0,0,0,0,0,0,0,-1,1616,918,0,0
399,106,0,0,0,0,0,0,0,0,0,-1,1623,918,0,0
406,106,0,0,0,0,0,0,0,0,0,-1,1630,918,0,0
413,106,0,0,0,0,0,0,0,0,0,-1,1637,918,0,0
420,106,0,0,0,0,0,0,0,0,0,-1,1644,918,0,0
427,106,0,0,0,0,0,0,0,0,0,-1,1651,918,0,0
434,106,0,0,0,0,0,0,0,0,0,-1,1658,918,0,0
441,106,0,0,0,0,0,0,0,0,0,-1,1665,918,0,0
448,106,0,0,0,0,0,0,0,0,0,-1,1672,918,0,0
455,106,0,0,0,0,0,0,0,0,0,-1,1679,918,0,0
462,106,0,0,0,0,0,0,0,0,0,-1,1686,918,0,0
469,106,0,0,0,0,0,0,0,0,0,-1,1693,918,0,0
476,106,0,0,0,0,0,0,0,0,0,-1,1700,918,0,0
483,106,0,0,0,0,0,0,0,0,0,-1,1707,918,0,0
490,106,0,0,0,0,0,0,0,0,0,-1,1714,918,0,0
497,106,0,0,0,0,0,0,0,0,0,-1,1721,918,0,0
504,106,0,0,0,0,0,0,0,0,0,-1,1728,918,0,0
511,106,0,0,0,0,0,0,0,0,0,-1,1735,918,0,0
518,106,0,0,0,0,0,0,0,0,0,-1,1742,918,0,0
525,106,0,0,0,0,0,0,0,0,0,-1,1749,918,0,0
532,106,0,0,0,0,0,0,0,0,0,-1,1756,918,0,0
539,106,0,0,0,0,0,0,0,0,0,-1,1763,918,0,0
546,106,0,0,0,0,0,0,0,0,0,-1,1770,918,0,0
553,106,0,0,0,0,0,0,0,0,0,-1,1777,918,0,0
560,106,0,0,0,0,0,0,0,0,0,-1,1784,918,0,0
567,106,0,0,0,0,0,0,0,0,0,-1,1791,918,0,0
574,106,0,0,0,0,0,0,0,0,0,-1,1798,918,0,0
581,106,0,0,0,0,0,0,0,0,0,-1,1805,918,0,0
588,106,0,0,0,0,0,0,0,0,0,-1,1812,918,0,0
595,106,0,0,0,0,0,0,0,0,0,-1,1819,918,0,0
602,106,0,0,0,0,0,0,0,0,0,-1,1826,918,0,0
609,106,0,0,0,0,0,0,0,0,0,-1,1833,918,0,0
616,106,0,0,0,0,0,0,0,0,0,-1,1840,918,0,0
623,106,0,0,0,0,0,0,0,0,0,-1,1847,918,0,0
630,106,15.2865,2.11932,0.00649827,0.00821319,0.0034197,0.0108813,0.00383017,0.908237,0.0063734,0.0407997,1854,918,15.2865,-2.11933
637,106,15.278,2.3772,0.00434128,0.00610562,0.00266997,0.00803538,0.00241152,0.944954,0.0047612,0.0381563,1861,918,15.2779,-2.37721
644,106,15.3289,2.4856,0.00302357,0.00431211,0.00198003,0.00575005,0.00158563,0.942688,0.00342928,0.0361309,1868,918,15.3288,-2.48562
651,106,15.3269,2.30017,0.000710021,0.00302677,0.00111447,0.00347584,0.00026095,1.18775,0.00223533,0.0411025,1875,918,15.3269,-2.30015
658,106,15.4507,2.16718,-0.00229883,0.0020946,0.00030961,0.00211632,-0.00232054,1.50079,0.00256252,0.0418546,1882,918,15.4507,-2.16718
665,106,15.2365,2.42969,-0.0052348,0.0013916,-0.00031149,0.00140621,-0.00524941,-1.52393,0.00405054,0.0404478,1889,918,15.2365,-2.42966
672,106,15.1696,2.44855,-0.00760721,0.000915228,-0.000755619,0.000981704,-0.00767368,-1.48305,0.00547245,0.0404323,1896,918,15.1696,-2.44854
679,106,15.2583,2.34052,-0.00949614,0.000594927,-0.000962891,0.000685985,-0.0095872,-1.47651,0.00663196,0.035097,1903,918,15.2584,-2.3405
686,106,15.2548,2.30316,-0.0107002,0.000291839,-0.0012115,0.000423783,-0.0108321,-1.46231,0.00736674,0.0280435,1910,918,15.2548,-2.30317
693,106,15.1224,2.41235,-0.0113572,-4.98548e-05,-0.00139807,0.000120441,-0.0115274,-1.44959,0.00772543,0.021663,1917,918,15.1225,-2.41234
700,106,14.6608,2.50476,0,0,0,0,0,0,0,-1,1924,918,14.6608,-2.50476
707,106,13.9962,2.52643,-0.0112665,-3.80576e-05,-0.00109995,6.86795e-05,-0.0113732,-1.47406,0.00760516,0.0323846,1931,918,13.9962,-2.52641
714,106,13.8563,2.65497,-0.0102035,-2.95197e-05,-0.00111288,9.0789e-05,-0.0103238,-1.46311,0.00691297,0.016527,1938,918,13.8563,-2.65496
721,106,13.8743,2.79089,-0.00860333,4.5051e-05,-0.00110382,0.000183711,-0.00874199,-1.44583,0.00589018,0.0156413,1945,918,13.8743,-2.79091
728,106,13.8986,2.91022,-0.00658256,0.000297406,-0.00127045,0.000524512,-0.00680967,-1.39391,0.00472433,0.01528,1952,918,13.8986,-2.91023
735,106,13.8866,2.99432,-0.00335625,-0.000553963,-0.00160941,0.000178764,-0.00408898,-1.14356,0.00278749,0.0141293,1959,918,13.8865,-2.99429
742,106,13.8679,3.10144,0.00130371,0.000348667,-0.00390116,0.00475647,-0.00310409,-0.724499,0.0045716,0.0105157,1966,918,13.8679,-3.10144
749,106,13.8596,3.19788,0.00587538,0.000600131,-0.00590828,0.00970806,-0.00323255,-0.575458,0.00777682,0.00819352,1973,918,13.8596,-3.1979
756,106,13.8623,3.28723,0.0113264,0.00114469,-0.00890493,0.016493,-0.00402187,-0.525726,0.0125526,0.00929335,1980,918,13.8623,-3.28725
763,106,13.856,3.37567,0.017482,0.00197247,-0.0130986,0.0249492,-0.00549476,-0.518128,0.018735,0.0153043,1987,918,13.856,-3.37569
770,106,13.8307,3.43524,0.0247747,0.00326596,-0.0187778,0.0356597,-0.00761903,-0.525339,0.026678,0.0328174,1994,918,13.8307,-3.43527
777,106,13.8104,3.50421,0.0338962,0.00524968,-0.026214,0.0494448,-0.0102989,-0.535362,0.0368787,0.0447738,2001,918,13.8104,-3.50422
784,106,13.4844,3.49463,0.0452786,0.00829667,-0.0358358,0.0671129,-0.0135376,-0.547219,0.0498707,0.0466228,2008,918,13.4844,-3.49464
791,106,13.3387,3.25568,0.0590987,0.0129279,-0.0481227,0.0893868,-0.0173602,-0.561752,0.0661417,0.0423449,2015,918,13.3387,-3.25568
798,106,13.4142,3.10052,0.0753011,0.0199315,-0.0635172,0.116905,-0.0216721,-0.57988,0.0860748,0.0442691,2022,918,13.4141,-3.10051
805,106,0,0,0,0,0,0,0,0,0,-1,2029,918,0,0
812,106,0,0,0,0,0,0,0,0,0,-1,2036,918,0,0
-700,99,0,0,0,0,0,0,0,0,0,-1,524,925,0,0
-693,99,0,0,0,0,0,0,0,0,0,-1,531,925,0,0
-686,99,0,0,0,0,0,0,0,0,0,-1,538,925,0,0
-679,99,-8.46405,3.55341,-0.0240965,-0.0627047,-0.0808213,0.0396941,-0.126495,-0.66817,0.100217,0.0453024,545,925,-8.46407,-3.55339
-672,99,-8.62775,3.02533,-0.0177365,-0.0374172,-0.064271,0.0374431,-0.0925969,-0.709435,0.0772968,0.0446427,552,925,-8.62772,-3.02531
-665,99,-8.78699,2.46484,-0.0132683,-0.0209064,-0.0499894,0.0330477,-0.0672225,-0.747274,0.0590012,0.046503,559,925,-8.78698,-2.46485
-658,99,-8.61987,2.10553,-0.0100331,-0.0102962,-0.0379014,0.027737,-0.0480663,-0.783662,0.0442866,0.0458481,566,925,-8.61985,-2.10556
-651,99,-8.49042,1.75562,-0.00766703,-0.00375504,-0.0278731,0.0222306,-0.0336527,-0.820428,0.0324881,0.0478975,573,925,-8.49042,-1.75562
-644,99,-8.4317,1.42548,-0.00593218,-2.57633e-05,-0.0197615,0.0170019,-0.0229599,-0.859571,0.0231573,0.0450681,580,925,-8.43172,-1.42548
-637,99,-8.5368,1.29401,-0.00467239,0.0017902,-0.0134157,0.0123583,-0.0152405,-0.903577,0.0159631,0.0288471,587,925,-8.53683,-1.29402
-630,99,-8.57745,1.22955,-0.0036174,0.00327373,-0.00841434,0.00892064,-0.00926431,-0.979727,0.0104997,0.0127913,594,925,-8.57745,-1.22958
-623,99,-8.60748,1.15393,-0.00299522,0.00443539,-0.00422421,0.00634569,-0.00490552,-1.14609,0.0065136,0.00737641,601,925,-8.60746,-1.15391
-616,99,-8.61548,1.08185,-0.00305528,0.0028395,-0.00164448,0.00326723,-0.00348301,-1.31633,0.00389792,0.00859551,608,925,-8.61546,-1.08186
-609,99,-8.61719,1.0108,-0.00358324,0.00122478,9.57521e-05,0.00122669,-0.00358515,1.55089,0.00288721,0.00913373,615,925,-8.6172,-1.01081
-602,99,-8.6106,0.959229,-0.00493772,-0.000143241,0.000965542,4.39011e-05,-0.00512486,1.37935,0.0034313,0.00912874,622,925,-8.6106,-0.959226
-595,99,-8.63837,0.89325,-0.00548487,-8.18993e-05,0.000859047,5.13969e-05,-0.00561817,1.41686,0.00376269,0.0131588,629,925,-8.63837,-0.893259
-588,99,-8.63745,0.809204,-0.00617692,-0.000309551,0.000473576,-0.000271572,-0.0062149,1.49077,0.00405577,0.0131232,636,925,-8.63744,-0.809222
-581,99,-8.59985,0.709473,-0.00684458,-0.000272691,0.000404753,-0.000247857,-0.00686942,1.50952,0.00449927,0.0106514,643,925,-8.59983,-0.709454
-574,99,-8.66498,0.625671,-0.00692075,-0.00032845,0.000339732,-0.000310989,-0.00693821,1.51944,0.00452538,0.0144933,650,925,-8.66501,-0.625648
-567,99,-9.01202,0.527344,-0.00668919,-0.000275794,0.00033427,-0.000258419,-0.00670657,1.51886,0.00438744,0.0318443,657,925,-9.01205,-0.527324
-560,99,-9.30908,0.510803,-0.00628785,-3.04552e-05,0.000355025,-1.03766e-05,-0.00630793,1.5143,0.00420183,0.0339498,664,925,-9.30909,-0.510795
-553,99,-9.38226,0.402466,-0.00541873,0.000120437,0.000350113,0.000142479,-0.00544078,1.50792,0.0036756,0.038527,671,925,-9.38224,-0.402496
-546,99,-9.43243,0.0966187,-0.00395287,0.000419581,0.000381407,0.000452602,-0.00398589,1.48444,0.00282026,0.0412738,678,925,-9.43244,-0.0966241
-539,99,-9.41803,-0.000244141,-0.00175756,0.000823663,0.00041542,0.000888873,-0.00182277,1.41509,0.00159621,0.039958,685,925,-9.41803,0.000257756
-532,99,-9.41174,0.140076,0.00123472,0.00134229,0.000442435,0.0017342,0.000842811,0.845882,0.00100137,0.0404342,692,925,-9.41174,-0.140071
-525,99,-9.42804,0.342041,0.00508234,0.00197772,0.000421277,0.00513848,0.00192157,0.132503,0.00299796,0.0390375,699,925,-9.42801,-0.342065
-518,99,-9.18616,0.457275,0.00918693,0.00277765,0.000385153,0.00920999,0.00275459,0.0598061,0.00545861,0.0387151,706,925,-9.18616,-0.457258
-511,99,0,0,0,0,0,0,0,0,0,-1,713,925,0,0
-504,99,0,0,0,0,0,0,0,0,0,-1,720,925,0,0
-497,99,0,0,0,0,0,0,0,0,0,-1,727,925,0,0
-490,99,0,0,0,0,0,0,0,0,0,-1,734,925,0,0
-483,99,0,0,0,0,0,0,0,0,0,-1,741,925,0,0
-476,99,0,0,0,0,0,0,0,0,0,-1,748,925,0,0
-469,99,0,0,0,0,0,0,0,0,0,-1,755,925,0,0
-462,99,0,0,0,0,0,0,0,0,0,-1,762,925,0,0
-455,99,0,0,0,0,0,0,0,0,0,-1,769,925,0,0
-448,99,0,0,0,0,0,0,0,0,0,-1,776,925,0,0
-441,99,0,0,0,0,0,0,0,0,0,-1,783,925,0,0
-434,99,0,0,0,0,0,0,0,0,0,-1,790,925,0,0
-427,99,0,0,0,0,0,0,0,0,0,-1,797,925,0,0
-420,99,0,0,0,0,0,0,0,0,0,-1,804,925,0,0
-413,99,0,0,0,0,0,0,0,0,0,-1,811,925,0,0
-406,99,0,0,0,0,0,0,0,0,0,-1,818,925,0,0
-399,99,0,0,0,0,0,0,0,0,0,-1,825,925,0,0
-392,99,0,0,0,0,0,0,0,0,0,-1,832,925,0,0
-385,99,0,0,0,0,0,0,0,0,0,-1,839,925,0,0
-378,99,0,0,0,0,0,0,0,0,0,-1,846,925,0,0
-371,99,0,0,0,0,0,0,0,0,0,-1,853,925,0,0
-364,99,0,0,0,0,0,0,0,0,0,-1,860,925,0,0
-357,99,0,0,0,0,0,0,0,0,0,-1,867,925,0,0
-350,99,0,0,0,0,0,0,0,0,0,-1,874,925,0,0
-343,99,0,0,0,0,0,0,0,0,0,-1,881,925,0,0
-336,99,0,0,0,0,0,0,0,0,0,-1,888,925,0,0
-329,99,0,0,0,0,0,0,0,0,0,-1,895,925,0,0
-322,99,0,0,0,0,0,0,0,0,0,-1,902,925,0,0
-315,99,0,0,0,0,0,0,0,0,0,-1,909,925,0,0
-308,99,0,0,0,0,0,0,0,0,0,-1,916,925,0,0
-301,99,0,0,0,0,0,0,0,0,0,-1,923,925,0,0
-294,99,0,0,0,0,0,0,0,0,0,-1,930,925,0,0
-287,99,0,0,0,0,0,0,0,0,0,-1,937,925,0,0
-280,99,0,0,0,0,0,0,0,0,0,-1,944,925,0,0
-273,99,0,0,0,0,0,0,0,0,0,-1,951,925,0,0
-266,99,0,0,0,0,0,0,0,0,0,-1,958,925,0,0
-259,99,0,0,0,0,0,0,0,0,0,-1,965,925,0,0
-252,99,0,0,0,0,0,0,0,0,0,-1,972,925,0,0
-245,99,0,0,0,0,0,0,0,0,0,-1,979,925,0,0
-238,99,0,0,0,0,0,0,0,0,0,-1,986,925,0,0
-231,99,0,0,0,0,0,0,0,0,0,-1,993,925,0,0
-224,99,0,0,0,0,0,0,0,0,0,-1,1000,925,0,0
-217,99,0,0,0,0,0,0,0,0,0,-1,1007,925,0,0
-210,99,0,0,0,0,0,0,0,0,0,-1,1014,925,0,0
-203,99,0,0,0,0,0,0,0,0,0,-1,1021,925,0,0
-196,99,0,0,0,0,0,0,0,0,0,-1,1028,925,0,0
-189,99,0,0,0,0,0,0,0,0,0,-1,1035,925,0,0
-182,99,0,0,0,0,0,0,0,0,0,-1,1042,925,0,0
-175,99,0,0,0,0,0,0,0,0,0,-1,1049,925,0,0
-168,99,0,0,0,0,0,0,0,0,0,-1,1056,925,0,0
-161,99,0,0,0,0,0,0,0,0,0,-1,1063,925,0,0
-154,99,0,0,0,0,0,0,0,0,0,-1,1070,925,0,0
-147,99,0,0,0,0,0,0,0,0,0,-1,1077,925,0,0
-140,99,0,0,0,0,0,0,0,0,0,-1,1084,925,0,0
-133,99,0,0,0,0,0,0,0,0,0,-1,1091,925,0,0
-126,99,0,0,0,0,0,0,0,0,0,-1,1098,925,0,0
-119,99,0,0,0,0,0,0,0,0,0,-1,1105,925,0,0
-112,99,0,0,0,0,0,0,0,0,0,-1,1112,925,0,0
-105,99,0,0,0,0,0,0,0,0,0,-1,1119,925,0,0
-98,99,0,0,0,0,0,0,0,0,0,-1,1126,925,0,0
-91,99,0,0,0,0,0,0,0,0,0,-1,1133,925,0,0
-84,99,0,0,0,0,0,0,0,0,0,-1,1140,925,0,0
-77,99,0,0,0,0,0,0,0,0,0,-1,1147,925,0,0
-70,99,0,0,0,0,0,0,0,0,0,-1,1154,925,0,0
-63,99,0,0,0,0,0,0,0,0,0,-1,1161,925,0,0
-56,99,0,0,0,0,0,0,0,0,0,-1,1168,925,0,0
-49,99,0,0,0,0,0,0,0,0,0,-1,1175,925,0,0
-42,99,0,0,0,0,0,0,0,0,0,-1,1182,925,0,0
-35,99,0,0,0,0,0,0,0,0,0,-1,1189,925,0,0
-28,99,0,0,0,0,0,0,0,0,0,-1,1196,925,0,0
-21,99,0,0,0,0,0,0,0,0,0,-1,1203,925,0,0
-14,99,0,0,0,0,0,0,0,0,0,-1,1210,925,0,0
-7,99,0,0,0,0,0,0,0,0,0,-1,1217,925,0,0
0,99,0,0,0,0,0,0,0,0,0,-1,1224,925,0,0
7,99,0,0,0,0,0,0,0,0,0,-1,1231,925,0,0
14,99,0,0,0,0,0,0,0,0,0,-1,1238,925,0,0
21,99,0,0,0,0,0,0,0,0,0,-1,1245,925,0,0
28,99,0,0,0,0,0,0,0,0,0,-1,1252,925,0,0
35,99,0,0,0,0,0,0,0,0,0,-1,1259,925,0,0
42,99,0,0,0,0,0,0,0,0,0,-1,1266,925,0,0
49,99,0,0,0,0,0,0,0,0,0,-1,1273,925,0,0
56,99,0,0,0,0,0,0,0,0,0,-1,1280,925,0,0
63,99,0,0,0,0,0,0,0,0,0,-1,1287,925,0,0
70,99,0,0,0,0,0,0,0,0,0,-1,1294,925,0,0
77,99,0,0,0,0,0,0,0,0,0,-1,1301,925,0,0
84,99,0,0,0,0,0,0,0,0,0,-1,1308,925,0,0
91,99,0,0,0,0,0,0,0,0,0,-1,1315,925,0,0
98,99,0,0,0,0,0,0,0,0,0,-1,1322,925,0,0
105,99,0,0,0,0,0,0,0,0,0,-1,1329,925,0,0
112,99,0,0,0,0,0,0,0,0,0,-1,1336,925,0,0
119,99,0,0,0,0,0,0,0,0,0,-1,1343,925,0,0
126,99,0,0,0,0,0,0,0,0,0,-1,1350,925,0,0
133,99,0,0,0,0,0,0,0,0,0,-1,1357,925,0,0
140,99,0,0,0,0,0,0,0,0,0,-1,1364,925,0,0
147,99,0,0,0,0,0,0,0,0,0,-1,1371,925,0,0
154,99,0,0,0,0,0,0,0,0,0,-1,1378,925,0,0
161,99,0,0,0,0,0,0,0,0,0,-1,1385,925,0,0
168,99,0,0,0,0,0,0,0,0,0,-1,1392,925,0,0
175,99,0,0,0,0,0,0,0,0,0,-1,1399,925,0,0
182,99,0,0,0,0,0,0,0,0,0,-1,1406,925,0,0
189,99,0,0,0,0,0,0,0,0,0,-1,1413,925,0,0
196,99,0,0,0,0,0,0,0,0,0,-1,1420,925,0,0
203,99,0,0,0,0,0,0,0,0,0,-1,1427,925,0,0
210,99,0,0,0,0,0,0,0,0,0,-1,1434,925,0,0
217,99,0,0,0,0,0,0,0,0,0,-1,1441,925,0,0
224,99,0,0,0,0,0,0,0,0,0,-1,1448,925,0,0
231,99,0,0,0,0,0,0,0,0,0,-1,1455,925,0,0
238,99,0,0,0,0,0,0,0,0,0,-1,1462,925,0,0
245,99,0,0,0,0,0,0,0,0,0,-1,1469,925,0,0
252,99,0,0,0,0,0,0,0,0,0,-1,1476,925,0,0
259,99,0,0,0,0,0,0,0,0,0,-1,1483,925,0,0
266,99,0,0,0,0,0,0,0,0,0,-1,1490,925,0,0
273,99,0,0,0,0,0,0,0,0,0,-1,1497,925,0,0
280,99,0,0,0,0,0,0,0,0,0,-1,1504,925,0,0
287,99,0,0,0,0,0,0,0,0,0,-1,1511,925,0,0
294,99,0,0,0,0,0,0,0,0,0,-1,1518,925,0,0
301,99,0,0,0,0,0,0,0,0,0,-1,1525,925,0,0
308,99,0,0,0,0,0,0,0,0,0,-1,1532,925,0,0
315,99,0,0,0,0,0,0,0,0,0,-1,1539,925,0,0
322,99,0,0,0,0,0,0,0,0,0,-1,1546,925,0,0
329,99,0,0,0,0,0,0,0,0,0,-1,1553,925,0,0
336,99,0,0,0,0,0,0,0,0,0,-1,1560,925,0,0
343,99,0,0,0,0,0,0,0,0,0,-1,1567,925,0,0
350,99,0,0,0,0,0,0,0,0,0,-1,1574,925,0,0
357,99,0,0,0,0,0,0,0,0,0,-1,1581,925,0,0
364,99,0,0,0,0,0,0,0,0,0,-1,1588,925,0,0
371,99,0,0,0,0,0,0,0,0,0,-1,1595,925,0,0
378,99,0,0,0,0,0,0,0,0,0,-1,1602,925,0,0
385,99,0,0,0,0,0,0,0,0,0,-1,1609,925,0,0
392,99,0,0,0,0,0,0,0,0,0,-1,1616,925,0,0
399,99,0,0,0,0,0,0,0,0,0,-1,1623,925,0,0
406,99,0,0,0,0,0,0,0,0,0,-1,1630,925,0,0
413,99,0,0,0,0,0,0,0,0,0,-1,1637,925,0,0
420,99,0,0,0,0,0,0,0,0,0,-1,1644,925,0,0
427,99,0,0,0,0,0,0,0,0,0,-1,1651,925,0,0
434,99,0,0,0,0,0,0,0,0,0,-1,1658,925,0,0
441,99,0,0,0,0,0,0,0,0,0,-1,1665,925,0,0
448,99,0,0,0,0,0,0,0,0,0,-1,1672,925,0,0
455,99,0,0,0,0,0,0,0,0,0,-1,1679,925,0,0
462,99,0,0,0,0,0,0,0,0,0,-1,1686,925,0,0
469,99,0,0,0,0,0,0,0,0,0,-1,1693,925,0,0
476,99,0,0,0,0,0,0,0,0,0,-1,1700,925,0,0
483,99,0,0,0,0,0,0,0,0,0,-1,1707,925,0,0
490,99,0,0,0,0,0,0,0,0,0,-1,1714,925,0,0
497,99,0,0,0,0,0,0,0,0,0,-1,1721,925,0,0
504,99,0,0,0,0,0,0,0,0,0,-1,1728,925,0,0
511,99,0,0,0,0,0,0,0,0,0,-1,1735,925,0,0
518,99,0,0,0,0,0,0,0,0,0,-1,1742,925,0,0
525,99,0,0,0,0,0,0,0,0,0,-1,1749,925,0,0
532,99,0,0,0,0,0,0,0,0,0,-1,1756,925,0,0
539,99,0,0,0,0,0,0,0,0,0,-1,1763,925,0,0
546,99,0,0,0,0,0,0,0,0,0,-1,1770,925,0,0
553,99,0,0,0,0,0,0,0,0,0,-1,1777,925,0,0
560,99,0,0,0,0,0,0,0,0,0,-1,1784,925,0,0
567,99,0,0,0,0,0,0,0,0,0,-1,1791,925,0,0
574,99,0,0,0,0,0,0,0,0,0,-1,1798,925,0,0
581,99,0,0,0,0,0,0,0,0,0,-1,1805,925,0,0
588,99,0,0,0,0,0,0,0,0,0,-1,1812,925,0,0
595,99,0,0,0,0,0,0,0,0,0,-1,1819,925,0,0
602,99,0,0,0,0,0,0,0,0,0,-1,1826,925,0,0
609,99,0,0,0,0,0,0,0,0,0,-1,1833,925,0,0
616,99,0,0,0,0,0,0,0,0,0,-1,1840,925,0,0
623,99,0,0,0,0,0,0,0,0,0,-1,1847,925,0,0
630,99,0,0,0,0,0,0,0,0,0,-1,1854,925,0,0
637,99,15.1991,2.14404,0.00321628,0.00726703,0.00299274,0.00885533,0.00162798,1.08288,0.00544266,0.0424987,1861,925,15.1991,-2.14406
644,99,15.2909,2.45306,0.00248149,0.00503354,0.0022812,0.00637135,0.00114368,1.0404,0.00392232,0.0365743,1868,925,15.2908,-2.45305
651,99,15.443,2.28516,0.00089122,0.00349916,0.00147094,0.00416089,0.000229483,1.14805,0.00270069,0.0388735,1875,925,15.443,-2.28516
658,99,15.5605,2.36462,-0.00156449,0.00242347,0.000772529,0.00256789,-0.00170891,1.38598,0.00248576,0.0408016,1882,925,15.5606,-2.36463
665,99,15.2874,2.59308,-0.00420766,0.00164113,0.00025098,0.00165188,-0.00421841,1.52799,0.00349552,0.0414001,1889,925,15.2873,-2.59311
672,99,15.2288,2.49969,-0.00646296,0.0011168,-0.000112043,0.00111846,-0.00646462,-1.55602,0.00472688,0.0415579,1896,925,15.2288,-2.49969
679,99,15.2776,2.42395,-0.00830847,0.000757527,-0.000276741,0.000765967,-0.00831691,-1.54031,0.00581676,0.0364369,1903,925,15.2776,-2.42393
686,99,15.2389,2.36072,-0.0095502,0.000447828,-0.000492142,0.000471995,-0.00957436,-1.52173,0.00654592,0.0278055,1910,925,15.2389,-2.36074
693,99,15.1794,2.37598,-0.0103127,9.23284e-05,-0.000667353,0.000134956,-0.0103553,-1.50701,0.00694898,0.0226755,1917,925,15.1794,-2.37598
700,99,15.0358,2.34369,0,0,0,0,0,0,0,-1,1924,925,15.0358,-2.34372
707,99,14.2668,2.55402,-0.0105304,9.92204e-05,-0.000454564,0.000118624,-0.0105498,-1.52814,0.00707307,0.0356438,1931,925,14.2668,-2.55399
714,99,13.9784,2.69641,-0.00973191,0.000156999,-0.0005481,0.000187285,-0.00976219,-1.5156,0.00657145,0.0161842,1938,925,13.9784,-2.69642
721,99,13.9305,2.77228,-0.00842681,0.000226745,-0.000627195,0.000271967,-0.00847203,-1.49882,0.00574082,0.0171871,1945,925,13.9305,-2.77228
728,99,13.9756,2.88501,-0.00679969,0.000454889,-0.000855094,0.000554316,-0.00689911,-1.45504,0.00479487,0.0145204,1952,925,13.9756,-2.885
735,99,13.975,2.98358,-0.00411708,-0.000281073,-0.00130071,0.000118375,-0.00451653,-1.27284,0.00305124,0.0127771,1959,925,13.975,-2.98358
742,99,13.9506,3.07764,-0.000263093,0.000462304,-0.00340714,0.00352599,-0.00332678,-0.838425,0.00395701,0.0105256,1966,925,13.9506,-3.07766
749,99,13.9393,3.1673,0.00342382,0.000573754,-0.00523669,0.00742591,-0.00342833,-0.652553,0.0064068,0.00900791,1973,925,13.9394,-3.16729
756,99,13.9475,3.23914,0.00777299,0.000961529,-0.00787519,0.0129473,-0.00421282,-0.581311,0.0103264,0.0101783,1980,925,13.9475,-3.23915
763,99,13.9675,3.31006,0.0125818,0.00150529,-0.0114875,0.0197964,-0.00570931,-0.560782,0.0154563,0.0124524,1987,925,13.9675,-3.31003
770,99,13.9447,3.42426,0.0179486,0.00234665,-0.016303,0.0282208,-0.00792561,-0.562248,0.0219383,0.0249191,1994,925,13.9447,-3.42423
777,99,13.8173,3.37933,0.0243743,0.00359401,-0.0224513,0.0387232,-0.0107548,-0.56868,0.0300489,0.0406837,2001,925,13.8173,-3.37934
784,99,13.6833,3.31812,0.0322132,0.00551682,-0.0302439,0.0519236,-0.0141935,-0.577579,0.0401912,0.0442824,2008,925,13.6833,-3.31809
791,99,13.6031,3.24957,0.0415012,0.0084677,-0.0399787,0.0682407,-0.0182718,-0.589508,0.052652,0.0457197,2015,925,13.6032,-3.24956
798,99,13.8462,2.64301,0.0519619,0.0129964,-0.0518652,0.0878829,-0.0229246,-0.605732,0.0675397,0.0477873,2022,925,13.8461,-2.64303
805,99,0,0,0,0,0,0,0,0,0,-1,2029,925,0,0
812,99,0,0,0,0,0,0,0,0,0,-1,2036,925,0,0
-700,92,0,0,0,0,0,0,0,0,0,-1,524,932,0,0
-693,92,0,0,0,0,0,0,0,0,0,-1,531,932,0,0
-686,92,-7.11359,5.0824,-0.0466866,-0.0670883,-0.103126,0.0467419,-0.160517,-0.7361,0.125527,0.0446187,538,932,-7.11356,-5.08241
-679,92,-7.66772,4.29419,-0.0358173,-0.0327358,-0.0839881,0.0497256,-0.118279,-0.794569,0.0996527,0.0465116,545,932,-7.66775,-4.29417
-672,92,-8.00989,3.65509,-0.0274778,-0.0122672,-0.0666968,0.0472565,-0.0870015,-0.842167,0.0786379,0.0445456,552,932,-8.00988,-3.65509
-665,92,-8.27106,3.06488,-0.0210251,-0.000410568,-0.0517348,0.0420338,-0.0634694,-0.883727,0.0613299,0.0463798,559,932,-8.27105,-3.0649
-658,92,-8.57971,2.3808,0,0,0,0,0,0,0,-1,566,932,-8.57969,-2.38082
-651,92,-8.35132,0.694946,-0.0120247,0.00857535,-0.0286151,0.0286877,-0.0321371,-0.958154,0.035136,0.043976,573,932,-8.35135,-0.694937
-644,92,-8.64252,1.25323,-0.00897207,0.0090234,-0.0202023,0.022141,-0.0220897,-0.994902,0.0255367,0.042297,580,932,-8.6425,-1.25323
-637,92,-8.6488,1.28125,-0.00668047,0.00817251,-0.0136729,0.0163056,-0.0148136,-1.03418,0.0179736,0.0249104,587,932,-8.64883,-1.28123
-630,92,-8.65881,1.23102,-0.00492774,0.0076776,-0.00857668,0.0120184,-0.00926852,-1.10227,0.0123241,0.0122647,594,932,-8.65884,-1.23102
-623,92,-8.67407,1.14197,-0.00380759,0.00747972,-0.00432847,0.00894849,-0.00527635,-1.24366,0.00830343,0.00793989,601,932,-8.67406,-1.14197
-616,92,-8.69336,1.06433,-0.00348407,0.0044658,-0.00180014,0.00485442,-0.00387269,-1.35818,0.00504921,0.00768947,608,932,-8.69336,-1.06432
-609,92,-8.69067,1.00568,-0.00372154,0.00187014,-7.9173e-05,0.00187126,-0.00372266,-1.55664,0.00328808,0.0076609,615,932,-8.6907,-1.00568
-602,92,-8.67377,0.94635,-0.00474534,7.32758e-05,0.000786931,0.000198534,-0.00487059,1.41295,0.00331522,0.00781086,622,932,-8.67378,-0.946334
-595,92,-8.65112,0.870667,-0.00523163,6.31232e-05,0.000623456,0.000135544,-0.00530405,1.45515,0.00358207,0.0139584,629,932,-8.65113,-0.870656
-588,92,-8.67822,0.819275,-0.005878,-0.000157039,0.000162165,-0.000152446,-0.00588259,1.54248,0.00387191,0.0160829,636,932,-8.67822,-0.819248
-581,92,-8.68909,0.739075,-0.00649331,-0.000127584,3.5482e-05,-0.000127387,-0.00649351,1.56522,0.00428718,0.0135307,643,932,-8.68911,-0.739098
-574,92,-8.82733,0.682373,-0.00653225,-0.000197795,-8.38687e-05,-0.000196684,-0.00653336,-1.55756,0.00429151,0.01961,650,932,-8.82735,-0.68235
-567,92,-9.13812,0.563354,-0.00624751,-0.000169682,-0.000154179,-0.000165773,-0.00625142,-1.54545,0.00411347,0.0332616,657,932,-9.13815,-0.563327
-560,92,-9.29407,0.494934,-0.00572206,3.83432e-05,-0.000194262,4.48867e-05,-0.0057286,-1.53712,0.00383412,0.0358191,664,932,-9.29406,-0.494944
-553,92,-9.34241,0.411926,-0.00468225,0.000181354,-0.000231098,0.00019231,-0.00469321,-1.52342,0.00319484,0.0397591,671,932,-9.34238,-0.411945
-546,92,-9.30859,0.366699,-0.00300668,0.00044273,-0.000225924,0.000457464,-0.00302141,-1.50567,0.0021828,0.0376275,678,932,-9.3086,-0.366713
-539,92,-9.35352,0.436707,-0.00057764,0.000821892,-0.000184558,0.000845821,-0.000601569,-1.44186,0.000839608,0.0362192,685,932,-9.35354,-0.436684
-532,92,-9.40698,0.458069,0.00266387,0.0013497,-0.000103628,0.00267199,0.00134158,-0.0782104,0.00154268,0.0405452,692,932,-9.40697,-0.458088
-525,92,-9.27002,0.565247,0.00669678,0.00207633,-5.57769e-06,0.00669678,0.00207632,-0.00120717,0.0039583,0.0386971,699,932,-9.27003,-0.565245
-518,92,-9.33051,0.634033,0.0107324,0.00313479,0.000183469,0.0107368,0.00313036,0.0241295,0.00637595,0.0376038,706,932,-9.33052,-0.634005
-511,92,0,0,0,0,0,0,0,0,0,-1,713,932,0,0
-504,92,0,0,0,0,0,0,0,0,0,-1,720,932,0,0
-497,92,0,0,0,0,0,0,0,0,0,-1,727,932,0,0
-490,92,0,0,0,0,0,0,0,0,0,-1,734,932,0,0
-483,92,0,0,0,0,0,0,0,0,0,-1,741,932,0,0
-476,92,0,0,0,0,0,0,0,0,0,-1,748,932,0,0
-469,92,0,0,0,0,0,0,0,0,0,-1,755,932,0,0
-462,92,0,0,0,0,0,0,0,0,0,-1,762,932,0,0
-455,92,0,0,0,0,0,0,0,0,0,-1,769,932,0,0
-448,92,0,0,0,0,0,0,0,0,0,-1,776,932,0,0
-441,92,0,0,0,0,0,0,0,0,0,-1,783,932,0,0
-434,92,0,0,0,0,0,0,0,0,0,-1,790,932,0,0
-427,92,0,0,0,0,0,0,0,0,0,-1,797,932,0,0
-420,92,0,0,0,0,0,0,0,0,0,-1,804,932,0,0
-413,92,0,0,0,0,0,0,0,0,0,-1,811,932,0,0
-406,92,0,0,0,0,0,0,0,0,0,-1,818,932,0,0
-399,92,0,0,0,0,0,0,0,0,0,-1,825,932,0,0
-392,92,0,0,0,0,0,0,0,0,0,-1,832,932,0,0
-385,92,0,0,0,0,0,0,0,0,0,-1,839,932,0,0
-378,92,0,0,0,0,0,0,0,0,0,-1,846,932,0,0
-371,92,0,0,0,0,0,0,0,0,0,-1,853,932,0,0
-364,92,0,0,0,0,0,0,0,0,0,-1,860,932,0,0
-357,92,0,0,0,0,0,0,0,0,0,-1,867,932,0,0
-350,92,0,0,0,0,0,0,0,0,0,-1,874,932,0,0
-343,92,0,0,0,0,0,0,0,0,0,-1,881,932,0,0
-336,92,0,0,0,0,0,0,0,0,0,-1,888,932,0,0
-329,92,0,0,0,0,0,0,0,0,0,-1,895,932,0,0
-322,92,0,0,0,0,0,0,0,0,0,-1,902,932,0,0
-315,92,0,0,0,0,0,0,0,0,0,-1,909,932,0,0
-308,92,0,0,0,0,0,0,0,0,0,-1,916,932,0,0
-301,92,0,0,0,0,0,0,0,0,0,-1,923,932,0,0
-294,92,0,0,0,0,0,0,0,0,0,-1,930,932,0,0
-287,92,0,0,0,0,0,0,0,0,0,-1,937,932,0,0
-280,92,0,0,0,0,0,0,0,0,0,-1,944,932,0,0
-273,92,0,0,0,0,0,0,0,0,0,-1,951,932,0,0
-266,92,0,0,0,0,0,0,0,0,0,-1,958,932,0,0
-259,92,0,0,0,0,0,0,0,0,0,-1,965,932,0,0
-252,92,0,0,0,0,0,0,0,0,0,-1,972,932,0,0
-245,92,0,0,0,0,0,0,0,0,0,-1,979,932,0,0
-238,92,0,0,0,0,0,0,0,0,0,-1,986,932,0,0
-231,92,0,0,0,0,0,0,0,0,0,-1,993,932,0,0
-224,92,0,0,0,0,0,0,0,0,0,-1,1000,932,0,0
-217,92,0,0,0,0,0,0,0,0,0,-1,1007,932,0,0
-210,92,0,0,0,0,0,0,0,0,0,-1,1014,932,0,0
-203,92,0,0,0,0,0,0,0,0,0,-1,1021,932,0,0
-196,92,0,0,0,0,0,0,0,0,0,-1,1028,932,0,0
-189,92,0,0,0,0,0,0,0,0,0,-1,1035,932,0,0
-182,92,0,0,0,0,0,0,0,0,0,-1,1042,932,0,0
-175,92,0,0,0,0,0,0,0,0,0,-1,1049,932,0,0
-168,92,0,0,0,0,0,0,0,0,0,-1,1056,932,0,0
-161,92,0,0,0,0,0,0,0,0,0,-1,1063,932,0,0
-154,92,0,0,0,0,0,0,0,0,0,-1,1070,932,0,0
-147,92,0,0,0,0,0,0,0,0,0,-1,1077,932,0,0
-140,92,0,0,0,0,0,0,0,0,0,-1,1084,932,0,0
-133,92,0,0,0,0,0,0,0,0,0,-1,1091,932,0,0
-126,92,0,0,0,0,0,0,0,0,0,-1,1098,932,0,0
-119,92,0,0,0,0,0,0,0,0,0,-1,1105,932,0,0
-112,92,0,0,0,0,0,0,0,0,0,-1,1112,932,0,0
-105,92,0,0,0,0,0,0,0,0,0,-1,1119,932,0,0
-98,92,0,0,0,0,0,0,0,0,0,-1,1126,932,0,0
-91,92,0,0,0,0,0,0,0,0,0,-1,1133,932,0,0
-84,92,0,0,0,0,0,0,0,0,0,-1,1140,932,0,0
-77,92,0,0,0,0,0,0,0,0,0,-1,1147,932,0,0
-70,92,0,0,0,0,0,0,0,0,0,-1,1154,932,0,0
-63,92,0,0,0,0,0,0,0,0,0,-1,1161,932,0,0
-56,92,0,0,0,0,0,0,0,0,0,-1,1168,932,0,0
-49,92,0,0,0,0,0,0,0,0,0,-1,1175,932,0,0
-42,92,0,0,0,0,0,0,0,0,0,-1,1182,932,0,0
-35,92,0,0,0,0,0,0,0,0,0,-1,1189,932,0,0
-28,92,0,0,0,0,0,0,0,0,0,-1,1196,932,0,0
-21,92,0,0,0,0,0,0,0,0,0,-1,1203,932,0,0
-14,92,0,0,0,0,0,0,0,0,0,-1,1210,932,0,0
-7,92,0,0,0,0,0,0,0,0,0,-1,1217,932,0,0
0,92,0,0,0,0,0,0,0,0,0,-1,1224,932,0,0
7,92,0,0,0,0,0,0,0,0,0,-1,1231,932,0,0
14,92,0,0,0,0,0,0,0,0,0,-1,1238,932,0,0
21,92,0,0,0,0,0,0,0,0,0,-1,1245,932,0,0
28,92,0,0,0,0,0,0,0,0,0,-1,1252,932,0,0
35,92,0,0,0,0,0,0,0,0,0,-1,1259,932,0,0
42,92,0,0,0,0,0,0,0,0,0,-1,1266,932,0,0
49,92,0,0,0,0,0,0,0,0,0,-1,1273,932,0,0
56,92,0,0,0,0,0,0,0,0,0,-1,1280,932,0,0
63,92,0,0,0,0,0,0,0,0,0,-1,1287,932,0,0
70,92,0,0,0,0,0,0,0,0,0,-1,1294,932,0,0
77,92,0,0,0,0,0,0,0,0,0,-1,1301,932,0,0
84,92,0,0,0,0,0,0,0,0,0,-1,1308,932,0,0
91,92,0,0,0,0,0,0,0,0,0,-1,1315,932,0,0
98,92,0,0,0,0,0,0,0,0,0,-1,1322,932,0,0
105,92,0,0,0,0,0,0,0,0,0,-1,1329,932,0,0
112,92,0,0,0,0,0,0,0,0,0,-1,1336,932,0,0
119,92,0,0,0,0,0,0,0,0,0,-1,1343,932,0,0
126,92,0,0,0,0,0,0,0,0,0,-1,1350,932,0,0
133,92,0,0,0,0,0,0,0,0,0,-1,1357,932,0,0
140,92,0,0,0,0,0,0,0,0,0,-1,1364,932,0,0
147,92,0,0,0,0,0,0,0,0,0,-1,1371,932,0,0
154,92,0,0,0,0,0,0,0,0,0,-1,1378,932,0,0
161,92,0,0,0,0,0,0,0,0,0,-1,1385,932,0,0
168,92,0,0,0,0,0,0,0,0,0,-1,1392,932,0,0
175,92,0,0,0,0,0,0,0,0,0,-1,1399,932,0,0
182,92,0,0,0,0,0,0,0,0,0,-1,1406,932,0,0
189,92,0,0,0,0,0,0,0,0,0,-1,1413,932,0,0
196,92,0,0,0,0,0,0,0,0,0,-1,1420,932,0,0
203,92,0,0,0,0,0,0,0,0,0,-1,1427,932,0,0
210,92,0,0,0,0,0,0,0,0,0,-1,1434,932,0,0
217,92,0,0,0,0,0,0,0,0,0,-1,1441,932,0,0
224,92,0,0,0,0,0,0,0,0,0,-1,1448,932,0,0
231,92,0,0,0,0,0,0,0,0,0,-1,1455,932,0,0
238,92,0,0,0,0,0,0,0,0,0,-1,1462,932,0,0
245,92,0,0,0,0,0,0,0,0,0,-1,1469,932,0,0
252,92,0,0,0,0,0,0,0,0,0,-1,1476,932,0,0
259,92,0,0,0,0,0,0,0,0,0,-1,1483,932,0,0
266,92,0,0,0,0,0,0,0,0,0,-1,1490,932,0,0
273,92,0,0,0,0,0,0,0,0,0,-1,1497,932,0,0
280,92,0,0,0,0,0,0,0,0,0,-1,1504,932,0,0
287,92,0,0,0,0,0,0,0,0,0,-1,1511,932,0,0
294,92,0,0,0,0,0,0,0,0,0,-1,1518,932,0,0
301,92,0,0,0,0,0,0,0,0,0,-1,1525,932,0,0
308,92,0,0,0,0,0,0,0,0,0,-1,1532,932,0,0
315,92,0,0,0,0,0,0,0,0,0,-1,1539,932,0,0
322,92,0,0,0,0,0,0,0,0,0,-1,1546,932,0,0
329,92,0,0,0,0,0,0,0,0,0,-1,1553,932,0,0
336,92,0,0,0,0,0,0,0,0,0,-1,1560,932,0,0
343,92,0,0,0,0,0,0,0,0,0,-1,1567,932,0,0
350,92,0,0,0,0,0,0,0,0,0,-1,1574,932,0,0
357,92,0,0,0,0,0,0,0,0,0,-1,1581,932,0,0
364,92,0,0,0,0,0,0,0,0,0,-1,1588,932,0,0
371,92,0,0,0,0,0,0,0,0,0,-1,1595,932,0,0
378,92,0,0,0,0,0,0,0,0,0,-1,1602,932,0,0
385,92,0,0,0,0,0,0,0,0,0,-1,1609,932,0,0
392,92,0,0,0,0,0,0,0,0,0,-1,1616,932,0,0
399,92,0,0,0,0,0,0,0,0,0,-1,1623,932,0,0
406,92,0,0,0,0,0,0,0,0,0,-1,1630,932,0,0
413,92,0,0,0,0,0,0,0,0,0,-1,1637,932,0,0
420,92,0,0,0,0,0,0,0,0,0,-1,1644,932,0,0
427,92,0,0,0,0,0,0,0,0,0,-1,1651,932,0,0
434,92,0,0,0,0,0,0,0,0,0,-1,1658,932,0,0
441,92,0,0,0,0,0,0,0,0,0,-1,1665,932,0,0
448,92,0,0,0,0,0,0,0,0,0,-1,1672,932,0,0
455,92,0,0,0,0,0,0,0,0,0,-1,1679,932,0,0
462,92,0,0,0,0,0,0,0,0,0,-1,1686,932,0,0
469,92,0,0,0,0,0,0,0,0,0,-1,1693,932,0,0
476,92,0,0,0,0,0,0,0,0,0,-1,1700,932,0,0
483,92,0,0,0,0,0,0,0,0,0,-1,1707,932,0,0
490,92,0,0,0,0,0,0,0,0,0,-1,1714,932,0,0
497,92,0,0,0,0,0,0,0,0,0,-1,1721,932,0,0
504,92,0,0,0,0,0,0,0,0,0,-1,1728,932,0,0
511,92,0,0,0,0,0,0,0,0,0,-1,1735,932,0,0
518,92,0,0,0,0,0,0,0,0,0,-1,1742,932,0,0
525,92,0,0,0,0,0,0,0,0,0,-1,1749,932,0,0
532,92,0,0,0,0,0,0,0,0,0,-1,1756,932,0,0
539,92,0,0,0,0,0,0,0,0,0,-1,1763,932,0,0
546,92,0,0,0,0,0,0,0,0,0,-1,1770,932,0,0
553,92,0,0,0,0,0,0,0,0,0,-1,1777,932,0,0
560,92,0,0,0,0,0,0,0,0,0,-1,1784,932,0,0
567,92,0,0,0,0,0,0,0,0,0,-1,1791,932,0,0
574,92,0,0,0,0,0,0,0,0,0,-1,1798,932,0,0
581,92,0,0,0,0,0,0,0,0,0,-1,1805,932,0,0
588,92,0,0,0,0,0,0,0,0,0,-1,1812,932,0,0
595,92,0,0,0,0,0,0,0,0,0,-1,1819,932,0,0
602,92,0,0,0,0,0,0,0,0,0,-1,1826,932,0,0
609,92,0,0,0,0,0,0,0,0,0,-1,1833,932,0,0
616,92,0,0,0,0,0,0,0,0,0,-1,1840,932,0,0
623,92,0,0,0,0,0,0,0,0,0,-1,1847,932,0,0
630,92,0,0,0,0,0,0,0,0,0,-1,1854,932,0,0
637,92,15.0958,1.95294,0.00247155,0.00769074,0.0040636,0.00991051,0.000251779,1.07083,0.0065247,0.0476878,1861,932,15.0959,-1.95296
644,92,15.1941,2.26184,0.00196194,0.0052835,0.00294951,0.00700765,0.000237787,1.04181,0.00459456,0.0381513,1868,932,15.194,-2.26181
651,92,15.4065,2.22369,0.000781439,0.00369112,0.00190653,0.00463449,-0.000161934,1.11131,0.00314503,0.0374622,1875,932,15.4065,-2.2237
658,92,15.353,2.3302,-0.00128987,0.00260672,0.00110857,0.00290003,-0.00158317,1.31214,0.00262533,0.0421147,1882,932,15.353,-2.33023
665,92,15.121,2.52258,-0.00372893,0.0018381,0.000554477,0.00189278,-0.00378362,1.47248,0.00333733,0.0426587,1889,932,15.1209,-2.52258
672,92,15.1443,2.44958,-0.0059297,0.00133,0.000198601,0.00133543,-0.00593513,1.54347,0.00446891,0.0427373,1896,932,15.1443,-2.44959
679,92,15.2261,2.41656,-0.00776472,0.000972268,4.34067e-05,0.000972484,-0.00776494,1.56583,0.00552937,0.0367053,1903,932,15.2261,-2.41659
686,92,15.2203,2.37579,-0.00903847,0.00067924,-0.000132019,0.000681033,-0.00904027,-1.55721,0.0062662,0.0273918,1910,932,15.2203,-2.37581
693,92,15.2095,2.39722,-0.00986138,0.000320945,-0.000265154,0.000327845,-0.00986828,-1.54478,0.00669081,0.023224,1917,932,15.2094,-2.3972
700,92,15.2047,2.41949,-0.0102533,0.000257382,-0.000181363,0.00026051,-0.0102564,-1.55355,0.00692606,0.0374491,1924,932,15.2047,-2.4195
707,92,14.4873,2.56714,-0.0102258,0.000287245,-7.36096e-05,0.000287761,-0.0102263,-1.5638,0.00691547,0.0383535,1931,932,14.4873,-2.56714
714,92,13.9884,2.74518,-0.00959728,0.000356026,-0.000173548,0.000359051,-0.00960031,-1.55337,0.00652318,0.0296343,1938,932,13.9884,-2.74519
721,92,14.0675,2.80768,-0.00849201,0.000392261,-0.000256186,0.000399642,-0.00849939,-1.54199,0.00580406,0.0211768,1945,932,14.0675,-2.80765
728,92,14.0393,2.91864,-0.00711083,0.000565267,-0.000474948,0.000594542,-0.00714011,-1.50924,0.00497012,0.0158505,1952,932,14.0393,-2.91865
735,92,14.0381,2.99622,-0.00486831,-6.81163e-05,-0.000930036,0.000105778,-0.00504221,-1.38595,0.00339728,0.0142143,1959,932,14.0381,-2.99623
742,92,14.062,3.06055,-0.00177598,0.000512915,-0.00271847,0.00231802,-0.00358108,-0.984632,0.00343177,0.0147991,1966,932,14.062,-3.06053
749,92,14.0327,3.14185,0.00103738,0.000477904,-0.00427342,0.00504021,-0.00352492,-0.752715,0.00497081,0.0129897,1973,932,14.0327,-3.14187
756,92,14.0164,3.22736,0.00423717,0.000711651,-0.0064388,0.00915015,-0.00420133,-0.651787,0.00788301,0.0126013,1980,932,14.0164,-3.22734
763,92,14.0594,3.31665,0.0076791,0.00100409,-0.00932919,0.0142498,-0.00556662,-0.613618,0.0118015,0.01497,1987,932,14.0595,-3.31662
770,92,14.0397,3.3855,0.0111425,0.00146809,-0.0131123,0.0202814,-0.00767082,-0.60869,0.0166767,0.0244188,1994,932,14.0397,-3.38548
777,92,13.9639,3.203,0.0149635,0.00211496,-0.0178114,0.0274738,-0.0103953,-0.612318,0.0225927,0.0411173,2001,932,13.9639,-3.20298
784,92,13.8193,3.19629,0,0,0,0,0,0,0,-1,2008,932,13.8193,-3.19631
791,92,13.9514,2.59119,0.024454,0.00473006,-0.0308401,0.0469706,-0.0177865,-0.630648,0.0386324,0.047019,2015,932,13.9514,-2.5912
798,92,13.8911,2.57538,0.0297509,0.00729681,-0.0394379,0.0595286,-0.022481,-0.646728,0.0489322,0.0480194,2022,932,13.8911,-2.57538
805,92,0,0,0,0,0,0,0,0,0,-1,2029,932,0,0
812,92,0,0,0,0,0,0,0,0,0,-1,2036,932,0,0
-700,85,0,0,0,0,0,0,0,0,0,-1,524,939,0,0
-693,85,0,0,0,0,0,0,0,0,0,-1,531,939,0,0
-686,85,-6.41376,6.4801,-0.0564598,-0.0269985,-0.103999,0.0633076,-0.146766,-0.855752,0.124436,0.0458427,538,939,-6.41376,-6.48008
-679,85,-6.67847,5.70996,-0.0452378,-9.72936e-05,-0.0844329,0.06473,-0.110065,-0.916002,0.102043,0.0454036,545,939,-6.67846,-5.70994
-672,85,-7.10516,4.85278,-0.0358898,0.0137972,-0.0668337,0.0602554,-0.082348,-0.963345,0.0826609,0.043012,552,939,-7.10517,-4.85281
-665,85,-7.63123,4.08234,-0.0281828,0.019963,-0.0516587,0.0528824,-0.0611023,-1.00344,0.0658661,0.0434112,559,939,-7.63121,-4.08235
-658,85,-8.12537,0.757813,0,0,0,0,0,0,0,-1,566,939,-8.12538,-0.757839
-651,85,-8.41058,0.863281,-0.0166113,0.0200855,-0.0283676,0.0355214,-0.0320473,-1.07246,0.039028,0.0403746,573,939,-8.41055,-0.863266
-644,85,-8.69226,1.2334,-0.0124087,0.0172824,-0.0199703,0.0273206,-0.0224469,-1.10502,0.0287792,0.0316455,580,939,-8.69226,-1.23342
-637,85,-8.72369,1.26587,-0.00914323,0.0139024,-0.0135013,0.0201295,-0.0153703,-1.13865,0.0205571,0.0165889,587,939,-8.72372,-1.26589
-630,85,-8.73651,1.20551,-0.00668276,0.0115466,-0.00849678,0.0148928,-0.0100289,-1.19563,0.0144796,0.0106202,594,939,-8.73649,-1.20549
-623,85,-8.74866,1.12787,-0.00500522,0.0100724,-0.00435059,0.0112377,-0.00617051,-1.30909,0.0101916,0.00857355,601,939,-8.74863,-1.12788
-616,85,-8.76678,1.06866,-0.00421906,0.00584436,-0.00195698,0.00621153,-0.00458623,-1.38533,0.00625758,0.00859167,608,939,-8.76681,-1.06864
-609,85,-8.77618,1.01367,-0.00408518,0.00243966,-0.00029391,0.00245287,-0.00409839,-1.52587,0.00382194,0.0108386,615,939,-8.77619,-1.01365
-602,85,-8.76312,0.938293,-0.00454433,0.000282513,0.000530439,0.000340117,-0.00460194,1.46262,0.00318739,0.0138614,622,939,-8.7631,-0.93831
-595,85,-8.72235,0.879517,-0.00495039,0.000216689,0.000336688,0.000238536,-0.00497224,1.506,0.00339713,0.0152504,629,939,-8.72238,-0.879494
-588,85,-8.74957,0.826477,-0.00550624,1.74671e-05,-0.000175055,2.3009e-05,-0.00551178,-1.53915,0.00368222,0.0147724,636,939,-8.74957,-0.826472
-581,85,-8.76086,0.756958,-0.00600629,1.77593e-05,-0.00034435,3.73796e-05,-0.00602591,-1.51388,0.00402979,0.0148411,643,939,-8.76086,-0.756948
-574,85,-8.92017,0.714844,-0.00597473,-3.88127e-05,-0.000465727,-2.49455e-06,-0.00601105,-1.49297,0.00400654,0.0244416,650,939,-8.92017,-0.714816
-567,85,-9.2077,0.69751,-0.00562593,-1.83796e-05,-0.000573886,3.97502e-05,-0.00568406,-1.46985,0.00380269,0.0321191,657,939,-9.2077,-0.697524
-560,85,-9.24957,0.594604,-0.00498131,0.000161036,-0.000645287,0.000240773,-0.00506104,-1.44785,0.00345708,0.0357693,664,939,-9.24956,-0.594596
-553,85,-9.31824,0.574829,-0.00379593,0.000311006,-0.000681087,0.00042101,-0.00390594,-1.41067,0.00275504,0.0431779,671,939,-9.31822,-0.574851
-546,85,-9.35089,0.699341,-0.00195982,0.00055921,-0.000661535,0.000722371,-0.00212298,-1.32898,0.00170782,0.0396286,678,939,-9.35087,-0.699311
-539,85,-9.31537,0.73822,0.000615265,0.000943626,-0.000564414,0.00136725,0.000191637,-0.926936,0.000854814,0.038546,685,939,-9.31538,-0.73821
-532,85,-9.35522,0.658752,0.00395636,0.00152335,-0.000368,0.0040108,0.00146891,-0.146877,0.0023431,0.0425014,692,939,-9.35523,-0.658772
-525,85,-9.33093,0.564819,0.0079114,0.00240894,-6.9462e-05,0.00791228,0.00240806,-0.0126211,0.00468329,0.0367533,699,939,-9.33092,-0.564805
-518,85,-9.29846,0.589111,0.0115326,0.00382444,0.00042695,0.0115562,0.00380087,0.0551646,0.00680092,0.0334526,706,939,-9.29847,-0.589131
-511,85,0,0,0,0,0,0,0,0,0,-1,713,939,0,0
-504,85,0,0,0,0,0,0,0,0,0,-1,720,939,0,0
-497,85,0,0,0,0,0,0,0,0,0,-1,727,939,0,0
-490,85,0,0,0,0,0,0,0,0,0,-1,734,939,0,0
-483,85,0,0,0,0,0,0,0,0,0,-1,741,939,0,0
-476,85,0,0,0,0,0,0,0,0,0,-1,748,939,0,0
-469,85,0,0,0,0,0,0,0,0,0,-1,755,939,0,0
-462,85,0,0,0,0,0,0,0,0,0,-1,762,939,0,0
-455,85,0,0,0,0,0,0,0,0,0,-1,769,939,0,0
-448,85,0,0,0,0,0,0,0,0,0,-1,776,939,0,0
-441,85,0,0,0,0,0,0,0,0,0,-1,783,939,0,0
-434,85,0,0,0,0,0,0,0,0,0,-1,790,939,0,0
-427,85,0,0,0,0,0,0,0,0,0,-1,797,939,0,0
-420,85,0,0,0,0,0,0,0,0,0,-1,804,939,0,0
-413,85,0,0,0,0,0,0,0,0,0,-1,811,939,0,0
-406,85,0,0,0,0,0,0,0,0,0,-1,818,939,0,0
-399,85,0,0,0,0,0,0,0,0,0,-1,825,939,0,0
-392,85,0,0,0,0,0,0,0,0,0,-1,832,939,0,0
-385,85,0,0,0,0,0,0,0,0,0,-1,839,939,0,0
-378,85,0,0,0,0,0,0,0,0,0,-1,846,939,0,0
-371,85,0,0,0,0,0,0,0,0,0,-1,853,939,0,0
-364,85,0,0,0,0,0,0,0,0,0,-1,860,939,0,0
-357,85,0,0,0,0,0,0,0,0,0,-1,867,939,0,0
-350,85,0,0,0,0,0,0,0,0,0,-1,874,939,0,0
-343,85,0,0,0,0,0,0,0,0,0,-1,881,939,0,0
-336,85,0,0,0,0,0,0,0,0,0,-1,888,939,0,0
-329,85,0,0,0,0,0,0,0,0,0,-1,895,939,0,0
-322,85,0,0,0,0,0,0,0,0,0,-1,902,939,0,0
-315,85,0,0,0,0,0,0,0,0,0,-1,909,939,0,0
-308,85,0,0,0,0,0,0,0,0,0,-1,916,939,0,0
-301,85,0,0,0,0,0,0,0,0,0,-1,923,939,0,0
-294,85,0,0,0,0,0,0,0,0,0,-1,930,939,0,0
-287,85,0,0,0,0,0,0,0,0,0,-1,937,939,0,0
-280,85,0,0,0,0,0,0,0,0,0,-1,944,939,0,0
-273,85,0,0,0,0,0,0,0,0,0,-1,951,939,0,0
-266,85,0,0,0,0,0,0,0,0,0,-1,958,939,0,0
-259,85,0,0,0,0,0,0,0,0,0,-1,965,939,0,0
-252,85,0,0,0,0,0,0,0,0,0,-1,972,939,0,0
-245,85,0,0,0,0,0,0,0,0,0,-1,979,939,0,0
-238,85,0,0,0,0,0,0,0,0,0,-1,986,939,0,0
-231,85,0,0,0,0,0,0,0,0,0,-1,993,939,0,0
-224,85,0,0,0,0,0,0,0,0,0,-1,1000,939,0,0
-217,85,0,0,0,0,0,0,0,0,0,-1,1007,939,0,0
-210,85,0,0,0,0,0,0,0,0,0,-1,1014,939,0,0
-203,85,0,0,0,0,0,0,0,0,0,-1,1021,939,0,0
-196,85,0,0,0,0,0,0,0,0,0,-1,1028,939,0,0
-189,85,0,0,0,0,0,0,0,0,0,-1,1035,939,0,0
-182,85,0,0,0,0,0,0,0,0,0,-1,1042,939,0,0
-175,85,0,0,0,0,0,0,0,0,0,-1,1049,939,0,0
-168,85,0,0,0,0,0,0,0,0,0,-1,1056,939,0,0
-161,85,0,0,0,0,0,0,0,0,0,-1,1063,939,0,0
-154,85,0,0,0,0,0,0,0,0,0,-1,1070,939,0,0
-147,85,0,0,0,0,0,0,0,0,0,-1,1077,939,0,0
-140,85,0,0,0,0,0,0,0,0,0,-1,1084,939,0,0
-133,85,0,0,0,0,0,0,0,0,0,-1,1091,939,0,0
-126,85,0,0,0,0,0,0,0,0,0,-1,1098,939,0,0
-119,85,0,0,0,0,0,0,0,0,0,-1,1105,939,0,0
-112,85,0,0,0,0,0,0,0,0,0,-1,1112,939,0,0
-105,85,0,0,0,0,0,0,0,0,0,-1,1119,939,0,0
-98,85,0,0,0,0,0,0,0,0,0,-1,1126,939,0,0
-91,85,0,0,0,0,0,0,0,0,0,-1,1133,939,0,0
-84,85,0,0,0,0,0,0,0,0,0,-1,1140,939,0,0
-77,85,0,0,0,0,0,0,0,0,0,-1,1147,939,0,0
-70,85,0,0,0,0,0,0,0,0,0,-1,1154,939,0,0
-63,85,0,0,0,0,0,0,0,0,0,-1,1161,939,0,0
-56,85,0,0,0,0,0,0,0,0,0,-1,1168,939,0,0
-49,85,0,0,0,0,0,0,0,0,0,-1,1175,939,0,0
-42,85,0,0,0,0,0,0,0,0,0,-1,1182,939,0,0
-35,85,0,0,0,0,0,0,0,0,0,-1,1189,939,0,0
-28,85,0,0,0,0,0,0,0,0,0,-1,1196,939,0,0
-21,85,0,0,0,0,0,0,0,0,0,-1,1203,939,0,0
-14,85,0,0,0,0,0,0,0,0,0,-1,1210,939,0,0
-7,85,0,0,0,0,0,0,0,0,0,-1,1217,939,0,0
0,85,0,0,0,0,0,0,0,0,0,-1,1224,939,0,0
7,85,0,0,0,0,0,0,0,0,0,-1,1231,939,0,0
14,85,0,0,0,0,0,0,0,0,0,-1,1238,939,0,0
21,85,0,0,0,0,0,0,0,0,0,-1,1245,939,0,0
28,85,0,0,0,0,0,0,0,0,0,-1,1252,939,0,0
35,85,0,0,0,0,0,0,0,0,0,-1,1259,939,0,0
42,85,0,0,0,0,0,0,0,0,0,-1,1266,939,0,0
49,85,0,0,0,0,0,0,0,0,0,-1,1273,939,0,0
56,85,0,0,0,0,0,0,0,0,0,-1,1280,939,0,0
63,85,0,0,0,0,0,0,0,0,0,-1,1287,939,0,0
70,85,0,0,0,0,0,0,0,0,0,-1,1294,939,0,0
77,85,0,0,0,0,0,0,0,0,0,-1,1301,939,0,0
84,85,0,0,0,0,0,0,0,0,0,-1,1308,939,0,0
91,85,0,0,0,0,0,0,0,0,0,-1,1315,939,0,0
98,85,0,0,0,0,0,0,0,0,0,-1,1322,939,0,0
105,85,0,0,0,0,0,0,0,0,0,-1,1329,939,0,0
112,85,0,0,0,0,0,0,0,0,0,-1,1336,939,0,0
119,85,0,0,0,0,0,0,0,0,0,-1,1343,939,0,0
126,85,0,0,0,0,0,0,0,0,0,-1,1350,939,0,0
133,85,0,0,0,0,0,0,0,0,0,-1,1357,939,0,0
140,85,0,0,0,0,0,0,0,0,0,-1,1364,939,0,0
147,85,0,0,0,0,0,0,0,0,0,-1,1371,939,0,0
154,85,0,0,0,0,0,0,0,0,0,-1,1378,939,0,0
161,85,0,0,0,0,0,0,0,0,0,-1,1385,939,0,0
168,85,0,0,0,0,0,0,0,0,0,-1,1392,939,0,0
175,85,0,0,0,0,0,0,0,0,0,-1,1399,939,0,0
182,85,0,0,0,0,0,0,0,0,0,-1,1406,939,0,0
189,85,0,0,0,0,0,0,0,0,0,-1,1413,939,0,0
196,85,0,0,0,0,0,0,0,0,0,-1,1420,939,0,0
203,85,0,0,0,0,0,0,0,0,0,-1,1427,939,0,0
210,85,0,0,0,0,0,0,0,0,0,-1,1434,939,0,0
217,85,0,0,0,0,0,0,0,0,0,-1,1441,939,0,0
224,85,0,0,0,0,0,0,0,0,0,-1,1448,939,0,0
231,85,0,0,0,0,0,0,0,0,0,-1,1455,939,0,0
238,85,0,0,0,0,0,0,0,0,0,-1,1462,939,0,0
245,85,0,0,0,0,0,0,0,0,0,-1,1469,939,0,0
252,85,0,0,0,0,0,0,0,0,0,-1,1476,939,0,0
259,85,0,0,0,0,0,0,0,0,0,-1,1483,939,0,0
266,85,0,0,0,0,0,0,0,0,0,-1,1490,939,0,0
273,85,0,0,0,0,0,0,0,0,0,-1,1497,939,0,0
280,85,0,0,0,0,0,0,0,0,0,-1,1504,939,0,0
287,85,0,0,0,0,0,0,0,0,0,-1,1511,939,0,0
294,85,0,0,0,0,0,0,0,0,0,-1,1518,939,0,0
301,85,0,0,0,0,0,0,0,0,0,-1,1525,939,0,0
308,85,0,0,0,0,0,0,0,0,0,-1,1532,939,0,0
315,85,0,0,0,0,0,0,0,0,0,-1,1539,939,0,0
322,85,0,0,0,0,0,0,0,0,0,-1,1546,939,0,0
329,85,0,0,0,0,0,0,0,0,0,-1,1553,939,0,0
336,85,0,0,0,0,0,0,0,0,0,-1,1560,939,0,0
343,85,0,0,0,0,0,0,0,0,0,-1,1567,939,0,0
350,85,0,0,0,0,0,0,0,0,0,-1,1574,939,0,0
357,85,0,0,0,0,0,0,0,0,0,-1,1581,939,0,0
364,85,0,0,0,0,0,0,0,0,0,-1,1588,939,0,0
371,85,0,0,0,0,0,0,0,0,0,-1,1595,939,0,0
378,85,0,0,0,0,0,0,0,0,0,-1,1602,939,0,0
385,85,0,0,0,0,0,0,0,0,0,-1,1609,939,0,0
392,85,0,0,0,0,0,0,0,0,0,-1,1616,939,0,0
399,85,0,0,0,0,0,0,0,0,0,-1,1623,939,0,0
406,85,0,0,0,0,0,0,0,0,0,-1,1630,939,0,0
413,85,0,0,0,0,0,0,0,0,0,-1,1637,939,0,0
420,85,0,0,0,0,0,0,0,0,0,-1,1644,939,0,0
427,85,0,0,0,0,0,0,0,0,0,-1,1651,939,0,0
434,85,0,0,0,0,0,0,0,0,0,-1,1658,939,0,0
441,85,0,0,0,0,0,0,0,0,0,-1,1665,939,0,0
448,85,0,0,0,0,0,0,0,0,0,-1,1672,939,0,0
455,85,0,0,0,0,0,0,0,0,0,-1,1679,939,0,0
462,85,0,0,0,0,0,0,0,0,0,-1,1686,939,0,0
469,85,0,0,0,0,0,0,0,0,0,-1,1693,939,0,0
476,85,0,0,0,0,0,0,0,0,0,-1,1700,939,0,0
483,85,0,0,0,0,0,0,0,0,0,-1,1707,939,0,0
490,85,0,0,0,0,0,0,0,0,0,-1,1714,939,0,0
497,85,0,0,0,0,0,0,0,0,0,-1,1721,939,0,0
504,85,0,0,0,0,0,0,0,0,0,-1,1728,939,0,0
511,85,0,0,0,0,0,0,0,0,0,-1,1735,939,0,0
518,85,0,0,0,0,0,0,0,0,0,-1,1742,939,0,0
525,85,0,0,0,0,0,0,0,0,0,-1,1749,939,0,0
532,85,0,0,0,0,0,0,0,0,0,-1,1756,939,0,0
539,85,0,0,0,0,0,0,0,0,0,-1,1763,939,0,0
546,85,0,0,0,0,0,0,0,0,0,-1,1770,939,0,0
553,85,0,0,0,0,0,0,0,0,0,-1,1777,939,0,0
560,85,0,0,0,0,0,0,0,0,0,-1,1784,939,0,0
567,85,0,0,0,0,0,0,0,0,0,-1,1791,939,0,0
574,85,0,0,0,0,0,0,0,0,0,-1,1798,939,0,0
581,85,0,0,0,0,0,0,0,0,0,-1,1805,939,0,0
588,85,0,0,0,0,0,0,0,0,0,-1,1812,939,0,0
595,85,0,0,0,0,0,0,0,0,0,-1,1819,939,0,0
602,85,0,0,0,0,0,0,0,0,0,-1,1826,939,0,0
609,85,0,0,0,0,0,0,0,0,0,-1,1833,939,0,0
616,85,0,0,0,0,0,0,0,0,0,-1,1840,939,0,0
623,85,0,0,0,0,0,0,0,0,0,-1,1847,939,0,0
630,85,0,0,0,0,0,0,0,0,0,-1,1854,939,0,0
637,85,14.9697,1.89398,0,0,0,0,0,0,0,-1,1861,939,14.9697,-1.89398
644,85,15.2821,2.16223,0.00155282,0.00468413,0.00338027,0.00684373,-0.000606782,1.00228,0.00477761,0.0416318,1868,939,15.2821,-2.16224
651,85,15.306,2.18121,0.000735973,0.00318077,0.00212092,0.00440634,-0.000489602,1.04682,0.00311362,0.0408051,1875,939,15.306,-2.18123
658,85,15.2095,2.27203,-0.000928368,0.00221908,0.00126415,0.00266394,-0.00137323,1.23243,0.00237024,0.0432503,1882,939,15.2095,-2.27204
665,85,15.0638,2.36737,-0.00310389,0.00156696,0.000728003,0.0016778,-0.00321473,1.41971,0.00287079,0.0438482,1889,939,15.0639,-2.36735
672,85,15.0486,2.36139,-0.00520951,0.00115278,0.000429527,0.00118164,-0.00523837,1.50369,0.00394556,0.0427254,1896,939,15.0485,-2.36141
679,85,15.1572,2.32843,-0.00700888,0.000866945,0.000325985,0.000880414,-0.00702235,1.5295,0.00500094,0.0373363,1903,939,15.1572,-2.32846
686,85,15.1748,2.37457,-0.00831363,0.000631487,0.000229054,0.000637348,-0.00831949,1.54521,0.00577052,0.0313486,1910,939,15.1748,-2.37455
693,85,15.1711,2.42017,-0.00920901,0.000310862,0.000168776,0.000313854,-0.009212,1.55307,0.00624858,0.0261737,1917,939,15.1711,-2.42015
700,85,15.1917,2.42065,-0.00967925,0.000267064,0.000268891,0.000274328,-0.00968652,1.54379,0.00655104,0.027399,1924,939,15.1917,-2.42064
707,85,14.7227,2.53644,-0.00974576,0.00029817,0.000360773,0.000311112,-0.00975871,1.53494,0.00661195,0.0385764,1931,939,14.7227,-2.53645
714,85,14.1475,2.73682,0,0,0,0,0,0,0,-1,1938,939,14.1475,-2.7368
721,85,14.1471,2.82556,-0.00845343,0.000444718,0.000180186,0.000448365,-0.00845707,1.55056,0.00579329,0.0223931,1945,939,14.1471,-2.82555
728,85,14.1282,2.93066,-0.00732316,0.000589857,-1.87629e-05,0.000589902,-0.00732321,-1.56843,0.00509018,0.0177692,1952,939,14.1282,-2.93067
735,85,14.1251,3.00848,-0.00552368,1.48683e-05,-0.000476454,5.55564e-05,-0.00556437,-1.48561,0.00372823,0.0167804,1959,939,14.1252,-3.0085
742,85,14.1665,3.06854,-0.00316854,0.000416168,-0.00197455,0.00129053,-0.0040429,-1.15393,0.00321303,0.0145224,1966,939,14.1665,-3.06857
749,85,14.1483,3.1449,-0.00120497,0.000253755,-0.00327818,0.00288273,-0.00383395,-0.89486,0.00389082,0.0128014,1973,939,14.1483,-3.14488
756,85,14.1187,3.23358,0.000907794,0.000345047,-0.00501917,0.00565347,-0.00440063,-0.757398,0.00581974,0.012359,1980,939,14.1186,-3.23359
763,85,14.1296,3.32837,0.00311498,0.000402491,-0.00727007,0.00915423,-0.00563676,-0.693182,0.0086197,0.0126269,1987,939,14.1296,-3.3284
770,85,14.1257,3.35364,0.0049256,0.000522421,-0.0101322,0.0130926,-0.00764461,-0.678418,0.0121096,0.017987,1994,939,14.1258,-3.35366
777,85,14.0997,3.11621,0.00658134,0.000652131,-0.013581,0.0175175,-0.0102841,-0.677938,0.0162313,0.0380241,2001,939,14.0998,-3.1162
784,85,14.0935,2.84174,0.00823621,0.000927944,-0.0177917,0.0227452,-0.013581,-0.684115,0.0211942,0.0486447,2008,939,14.0935,-2.84172
791,85,14.0582,2.58905,0.00989405,0.00148428,-0.0228645,0.0289371,-0.0175588,-0.694462,0.027111,0.0495123,2015,939,14.0583,-2.58904
798,85,13.9976,2.39081,0,0,0,0,0,0,0,-1,2022,939,13.9976,-2.39081
805,85,13.7502,3.68683,0,0,0,0,0,0,0,-1,2029,939,13.7503,-3.68685
812,85,0,0,0,0,0,0,0,0,0,-1,2036,939,0,0
-700,78,0,0,0,0,0,0,0,0,0,-1,524,946,0,0
-693,78,0,0,0,0,0,0,0,0,0,-1,531,946,0,0
-686,78,-5.72394,7.8703,0,0,0,0,0,0,0,-1,538,946,-5.72392,-7.87028
-679,78,-5.94781,7.06671,-0.0499199,0.0286065,-0.0824842,0.0806956,-0.102009,-1.00753,0.105724,0.0487731,545,946,-5.94779,-7.0667
-672,78,-6.55328,5.99677,-0.0396241,0.036905,-0.0650895,0.0741442,-0.0768633,-1.05113,0.0871889,0.0457986,552,946,-6.55328,-5.99679
-665,78,-7.15277,5.17578,-0.0310333,0.0380458,-0.0501537,0.0644027,-0.0573902,-1.08694,0.070356,0.0470207,559,946,-7.1528,-5.1758
-658,78,-7.77594,4.51105,-0.0239188,0.0351474,-0.0376255,0.0534461,-0.0422175,-1.11814,0.055358,0.0476774,566,946,-7.77592,-4.51105
-651,78,-8.75854,1.28998,-0.0180947,0.0301795,-0.0273817,0.0425438,-0.0304591,-1.14665,0.0423403,0.0435016,573,946,-8.75856,-1.29
-644,78,-8.76862,1.24585,-0.0134032,0.0244506,-0.0192478,0.0325182,-0.0214708,-1.17389,0.0313873,0.0248731,580,946,-8.76862,-1.24584
-637,78,-8.78436,1.20862,-0.00977859,0.0188243,-0.0130268,0.0238679,-0.0148221,-1.2014,0.0225403,0.0128197,587,946,-8.78436,-1.20862
-630,78,-8.80334,1.15747,-0.00710616,0.0148016,-0.00825456,0.0175636,-0.00986816,-1.2479,0.0160441,0.0122341,594,946,-8.80334,-1.15748
-623,78,-8.81622,1.10925,-0.00524653,0.0121701,-0.00432797,0.0131862,-0.00626273,-1.34018,0.0114636,0.0110165,601,946,-8.81619,-1.10925
-616,78,-8.82782,1.06396,-0.00428795,0.00693849,-0.002134,0.00733045,-0.00467991,-1.38915,0.00699025,0.0097187,608,946,-8.82784,-1.06399
-609,78,-8.81946,1.0011,-0.00400178,0.00288237,-0.000567926,0.00292891,-0.00404831,-1.48904,0.00404555,0.011146,615,946,-8.81943,-1.00112
-602,78,-8.81445,0.932922,-0.0043406,0.000501003,0.000254072,0.000514299,-0.00435389,1.51851,0.00308834,0.0147065,622,946,-8.81447,-0.932899
-595,78,-8.78839,0.858948,-0.0046758,0.000383616,3.02649e-05,0.000383797,-0.00467598,1.56481,0.00325281,0.0137209,629,946,-8.78838,-0.858961
-588,78,-8.79321,0.830994,-0.00514172,0.000232023,-0.000527174,0.000283251,-0.00519295,-1.47392,0.00356014,0.0115581,636,946,-8.7932,-0.830994
-581,78,-8.84381,0.791748,-0.00553145,0.000204652,-0.000730803,0.000296295,-0.00562309,-1.44605,0.00385129,0.0151839,643,946,-8.84378,-0.791761
-574,78,-9.04706,0.682434,-0.0054336,0.000187961,-0.000854484,0.000314974,-0.00556061,-1.42323,0.0038164,0.0210728,650,946,-9.04708,-0.682427
-567,78,-9.27667,0.601318,-0.00503503,0.000221091,-0.00100674,0.000407321,-0.00522126,-1.38788,0.00362425,0.0289326,657,946,-9.27668,-0.601321
-560,78,-9.23303,0.545166,-0.00427859,0.000369518,-0.00113802,0.000633189,-0.00454226,-1.34312,0.0032598,0.0333685,664,946,-9.23304,-0.545182
-553,78,-9.20221,0.408325,-0.0029422,0.000510189,-0.00122796,0.0009024,-0.00333441,-1.26164,0.00257696,0.0441763,671,946,-9.20223,-0.408322
-546,78,-9.32123,0.740356,-0.000933192,0.000735389,-0.00125979,0.0014121,-0.0016099,-1.07787,0.00174599,0.0417084,678,946,-9.32126,-0.74036
-539,78,-9.22461,0.743958,0.0018287,0.00108094,-0.00120627,0.0027177,0.000191939,-0.635118,0.00175133,0.0397428,685,946,-9.22459,-0.743961
-532,78,-9.32123,0.700439,0.00534524,0.00161104,-0.00104057,0.00561562,0.00134065,-0.254223,0.00338651,0.041607,692,946,-9.3212,-0.700452
-525,78,-9.30658,0.602905,0.00936493,0.00246133,-0.000757461,0.00944706,0.0023792,-0.108008,0.00567376,0.0372134,699,946,-9.30656,-0.602885
-518,78,-9.22266,0.551331,0.0129156,0.00385606,-0.000288585,0.0129248,0.00384687,-0.0318111,0.00766316,0.0373834,706,946,-9.22264,-0.551328
-511,78,0,0,0,0,0,0,0,0,0,-1,713,946,0,0
-504,78,0,0,0,0,0,0,0,0,0,-1,720,946,0,0
-497,78,0,0,0,0,0,0,0,0,0,-1,727,946,0,0
-490,78,0,0,0,0,0,0,0,0,0,-1,734,946,0,0
-483,78,0,0,0,0,0,0,0,0,0,-1,741,946,0,0
-476,78,0,0,0,0,0,0,0,0,0,-1,748,946,0,0
-469,78,0,0,0,0,0,0,0,0,0,-1,755,946,0,0
-462,78,0,0,0,0,0,0,0,0,0,-1,762,946,0,0
-455,78,0,0,0,0,0,0,0,0,0,-1,769,946,0,0
-448,78,0,0,0,0,0,0,0,0,0,-1,776,946,0,0
-441,78,0,0,0,0,0,0,0,0,0,-1,783,946,0,0
-434,78,0,0,0,0,0,0,0,0,0,-1,790,946,0,0
-427,78,0,0,0,0,0,0,0,0,0,-1,797,946,0,0
-420,78,0,0,0,0,0,0,0,0,0,-1,804,946,0,0
-413,78,0,0,0,0,0,0,0,0,0,-1,811,946,0,0
-406,78,0,0,0,0,0,0,0,0,0,-1,818,946,0,0
-399,78,0,0,0,0,0,0,0,0,0,-1,825,946,0,0
-392,78,0,0,0,0,0,0,0,0,0,-1,832,946,0,0
-385,78,0,0,0,0,0,0,0,0,0,-1,839,946,0,0
-378,78,0,0,0,0,0,0,0,0,0,-1,846,946,0,0
-371,78,0,0,0,0,0,0,0,0,0,-1,853,946,0,0
-364,78,0,0,0,0,0,0,0,0,0,-1,860,946,0,0
-357,78,0,0,0,0,0,0,0,0,0,-1,867,946,0,0
-350,78,0,0,0,0,0,0,0,0,0,-1,874,946,0,0
-343,78,0,0,0,0,0,0,0,0,0,-1,881,946,0,0
-336,78,0,0,0,0,0,0,0,0,0,-1,888,946,0,0
-329,78,0,0,0,0,0,0,0,0,0,-1,895,946,0,0
-322,78,0,0,0,0,0,0,0,0,0,-1,902,946,0,0
-315,78,0,0,0,0,0,0,0,0,0,-1,909,946,0,0
-308,78,0,0,0,0,0,0,0,0,0,-1,916,946,0,0
-301,78,0,0,0,0,0,0,0,0,0,-1,923,946,0,0
-294,78,0,0,0,0,0,0,0,0,0,-1,930,946,0,0
-287,78,0,0,0,0,0,0,0,0,0,-1,937,946,0,0
-280,78,0,0,0,0,0,0,0,0,0,-1,944,946,0,0
-273,78,0,0,0,0,0,0,0,0,0,-1,951,946,0,0
-266,78,0,0,0,0,0,0,0,0,0,-1,958,946,0,0
-259,78,0,0,0,0,0,0,0,0,0,-1,965,946,0,0
-252,78,0,0,0,0,0,0,0,0,0,-1,972,946,0,0
-245,78,0,0,0,0,0,0,0,0,0,-1,979,946,0,0
-238,78,0,0,0,0,0,0,0,0,0,-1,986,946,0,0
-231,78,0,0,0,0,0,0,0,0,0,-1,993,946,0,0
-224,78,0,0,0,0,0,0,0,0,0,-1,1000,946,0,0
-217,78,0,0,0,0,0,0,0,0,0,-1,1007,946,0,0
-210,78,0,0,0,0,0,0,0,0,0,-1,1014,946,0,0
-203,78,0,0,0,0,0,0,0,0,0,-1,1021,946,0,0
-196,78,0,0,0,0,0,0,0,0,0,-1,1028,946,0,0
-189,78,0,0,0,0,0,0,0,0,0,-1,1035,946,0,0
-182,78,0,0,0,0,0,0,0,0,0,-1,1042,946,0,0
-175,78,0,0,0,0,0,0,0,0,0,-1,1049,946,0,0
-168,78,0,0,0,0,0,0,0,0,0,-1,1056,946,0,0
-161,78,0,0,0,0,0,0,0,0,0,-1,1063,946,0,0
-154,78,0,0,0,0,0,0,0,0,0,-1,1070,946,0,0
-147,78,0,0,0,0,0,0,0,0,0,-1,1077,946,0,0
-140,78,0,0,0,0,0,0,0,0,0,-1,1084,946,0,0
-133,78,0,0,0,0,0,0,0,0,0,-1,1091,946,0,0
-126,78,0,0,0,0,0,0,0,0,0,-1,1098,946,0,0
-119,78,0,0,0,0,0,0,0,0,0,-1,1105,946,0,0
-112,78,0,0,0,0,0,0,0,0,0,-1,1112,946,0,0
-105,78,0,0,0,0,0,0,0,0,0,-1,1119,946,0,0
-98,78,0,0,0,0,0,0,0,0,0,-1,1126,946,0,0
-91,78,0,0,0,0,0,0,0,0,0,-1,1133,946,0,0
-84,78,0,0,0,0,0,0,0,0,0,-1,1140,946,0,0
-77,78,0,0,0,0,0,0,0,0,0,-1,1147,946,0,0
-70,78,0,0,0,0,0,0,0,0,0,-1,1154,946,0,0
-63,78,0,0,0,0,0,0,0,0,0,-1,1161,946,0,0
-56,78,0,0,0,0,0,0,0,0,0,-1,1168,946,0,0
-49,78,0,0,0,0,0,0,0,0,0,-1,1175,946,0,0
-42,78,0,0,0,0,0,0,0,0,0,-1,1182,946,0,0
-35,78,0,0,0,0,0,0,0,0,0,-1,1189,946,0,0
-28,78,0,0,0,0,0,0,0,0,0,-1,1196,946,0,0
-21,78,0,0,0,0,0,0,0,0,0,-1,1203,946,0,0
-14,78,0,0,0,0,0,0,0,0,0,-1,1210,946,0,0
-7,78,0,0,0,0,0,0,0,0,0,-1,1217,946,0,0
0,78,0,0,0,0,0,0,0,0,0,-1,1224,946,0,0
7,78,0,0,0,0,0,0,0,0,0,-1,1231,946,0,0
14,78,0,0,0,0,0,0,0,0,0,-1,1238,946,0,0
21,78,0,0,0,0,0,0,0,0,0,-1,1245,946,0,0
28,78,0,0,0,0,0,0,0,0,0,-1,1252,946,0,0
35,78,0,0,0,0,0,0,0,0,0,-1,1259,946,0,0
42,78,0,0,0,0,0,0,0,0,0,-1,1266,946,0,0
49,78,0,0,0,0,0,0,0,0,0,-1,1273,946,0,0
56,78,0,0,0,0,0,0,0,0,0,-1,1280,946,0,0
63,78,0,0,0,0,0,0,0,0,0,-1,1287,946,0,0
70,78,0,0,0,0,0,0,0,0,0,-1,1294,946,0,0
77,78,0,0,0,0,0,0,0,0,0,-1,1301,946,0,0
84,78,0,0,0,0,0,0,0,0,0,-1,1308,946,0,0
91,78,0,0,0,0,0,0,0,0,0,-1,1315,946,0,0
98,78,0,0,0,0,0,0,0,0,0,-1,1322,946,0,0
105,78,0,0,0,0,0,0,0,0,0,-1,1329,946,0,0
112,78,0,0,0,0,0,0,0,0,0,-1,1336,946,0,0
119,78,0,0,0,0,0,0,0,0,0,-1,1343,946,0,0
126,78,0,0,0,0,0,0,0,0,0,-1,1350,946,0,0
133,78,0,0,0,0,0,0,0,0,0,-1,1357,946,0,0
140,78,0,0,0,0,0,0,0,0,0,-1,1364,946,0,0
147,78,0,0,0,0,0,0,0,0,0,-1,1371,946,0,0
154,78,0,0,0,0,0,0,0,0,0,-1,1378,946,0,0
161,78,0,0,0,0,0,0,0,0,0,-1,1385,946,0,0
168,78,0,0,0,0,0,0,0,0,0,-1,1392,946,0,0
175,78,0,0,0,0,0,0,0,0,0,-1,1399,946,0,0
182,78,0,0,0,0,0,0,0,0,0,-1,1406,946,0,0
189,78,0,0,0,0,0,0,0,0,0,-1,1413,946,0,0
196,78,0,0,0,0,0,0,0,0,0,-1,1420,946,0,0
203,78,0,0,0,0,0,0,0,0,0,-1,1427,946,0,0
210,78,0,0,0,0,0,0,0,0,0,-1,1434,946,0,0
217,78,0,0,0,0,0,0,0,0,0,-1,1441,946,0,0
224,78,0,0,0,0,0,0,0,0,0,-1,1448,946,0,0
231,78,0,0,0,0,0,0,0,0,0,-1,1455,946,0,0
238,78,0,0,0,0,0,0,0,0,0,-1,1462,946,0,0
245,78,0,0,0,0,0,0,0,0,0,-1,1469,946,0,0
252,78,0,0,0,0,0,0,0,0,0,-1,1476,946,0,0
259,78,0,0,0,0,0,0,0,0,0,-1,1483,946,0,0
266,78,0,0,0,0,0,0,0,0,0,-1,1490,946,0,0
273,78,0,0,0,0,0,0,0,0,0,-1,1497,946,0,0
280,78,0,0,0,0,0,0,0,0,0,-1,1504,946,0,0
287,78,0,0,0,0,0,0,0,0,0,-1,1511,946,0,0
294,78,0,0,0,0,0,0,0,0,0,-1,1518,946,0,0
301,78,0,0,0,0,0,0,0,0,0,-1,1525,946,0,0
308,78,0,0,0,0,0,0,0,0,0,-1,1532,946,0,0
315,78,0,0,0,0,0,0,0,0,0,-1,1539,946,0,0
322,78,0,0,0,0,0,0,0,0,0,-1,1546,946,0,0
329,78,0,0,0,0,0,0,0,0,0,-1,1553,946,0,0
336,78,0,0,0,0,0,0,0,0,0,-1,1560,946,0,0
343,78,0,0,0,0,0,0,0,0,0,-1,1567,946,0,0
350,78,0,0,0,0,0,0,0,0,0,-1,1574,946,0,0
357,78,0,0,0,0,0,0,0,0,0,-1,1581,946,0,0
364,78,0,0,0,0,0,0,0,0,0,-1,1588,946,0,0
371,78,0,0,0,0,0,0,0,0,0,-1,1595,946,0,0
378,78,0,0,0,0,0,0,0,0,0,-1,1602,946,0,0
385,78,0,0,0,0,0,0,0,0,0,-1,1609,946,0,0
392,78,0,0,0,0,0,0,0,0,0,-1,1616,946,0,0
399,78,0,0,0,0,0,0,0,0,0,-1,1623,946,0,0
406,78,0,0,0,0,0,0,0,0,0,-1,1630,946,0,0
413,78,0,0,0,0,0,0,0,0,0,-1,1637,946,0,0
420,78,0,0,0,0,0,0,0,0,0,-1,1644,946,0,0
427,78,0,0,0,0,0,0,0,0,0,-1,1651,946,0,0
434,78,0,0,0,0,0,0,0,0,0,-1,1658,946,0,0
441,78,0,0,0,0,0,0,0,0,0,-1,1665,946,0,0
448,78,0,0,0,0,0,0,0,0,0,-1,1672,946,0,0
455,78,0,0,0,0,0,0,0,0,0,-1,1679,946,0,0
462,78,0,0,0,0,0,0,0,0,0,-1,1686,946,0,0
469,78,0,0,0,0,0,0,0,0,0,-1,1693,946,0,0
476,78,0,0,0,0,0,0,0,0,0,-1,1700,946,0,0
483,78,0,0,0,0,0,0,0,0,0,-1,1707,946,0,0
490,78,0,0,0,0,0,0,0,0,0,-1,1714,946,0,0
497,78,0,0,0,0,0,0,0,0,0,-1,1721,946,0,0
504,78,0,0,0,0,0,0,0,0,0,-1,1728,946,0,0
511,78,0,0,0,0,0,0,0,0,0,-1,1735,946,0,0
518,78,0,0,0,0,0,0,0,0,0,-1,1742,946,0,0
525,78,0,0,0,0,0,0,0,0,0,-1,1749,946,0,0
532,78,0,0,0,0,0,0,0,0,0,-1,1756,946,0,0
539,78,0,0,0,0,0,0,0,0,0,-1,1763,946,0,0
546,78,0,0,0,0,0,0,0,0,0,-1,1770,946,0,0
553,78,0,0,0,0,0,0,0,0,0,-1,1777,946,0,0
560,78,0,0,0,0,0,0,0,0,0,-1,1784,946,0,0
567,78,0,0,0,0,0,0,0,0,0,-1,1791,946,0,0
574,78,0,0,0,0,0,0,0,0,0,-1,1798,946,0,0
581,78,0,0,0,0,0,0,0,0,0,-1,1805,946,0,0
588,78,0,0,0,0,0,0,0,0,0,-1,1812,946,0,0
595,78,0,0,0,0,0,0,0,0,0,-1,1819,946,0,0
602,78,0,0,0,0,0,0,0,0,0,-1,1826,946,0,0
609,78,0,0,0,0,0,0,0,0,0,-1,1833,946,0,0
616,78,0,0,0,0,0,0,0,0,0,-1,1840,946,0,0
623,78,0,0,0,0,0,0,0,0,0,-1,1847,946,0,0
630,78,0,0,0,0,0,0,0,0,0,-1,1854,946,0,0
637,78,15.3823,2.4505,0.000871827,0.00692868,0.00528604,0.00999235,-0.00219184,1.04553,0.00749971,0.044395,1861,946,15.3824,-2.45049
644,78,15.4341,2.25854,0.000662005,0.00439184,0.0034948,0.00648818,-0.00143433,1.03049,0.00487442,0.0416903,1868,946,15.434,-2.25856
651,78,15.269,2.28223,0.000297749,0.00288485,0.00211572,0.00407113,-0.00088853,1.05978,0.00305366,0.0420689,1875,946,15.269,-2.28224
658,78,15.172,2.28735,-0.000815504,0.00198517,0.00126694,0.00247324,-0.00130357,1.20308,0.00221513,0.0404661,1882,946,15.172,-2.28735
665,78,15.2588,2.32251,-0.0025623,0.00141919,0.000806319,0.00157629,-0.00271939,1.37838,0.00250921,0.0412997,1889,946,15.2588,-2.32249
672,78,15.2083,2.31622,-0.00443889,0.00108187,0.000606738,0.00114776,-0.00450478,1.46262,0.00345002,0.0416874,1896,946,15.2082,-2.31624
679,78,15.209,2.42987,-0.00611581,0.000859593,0.000598817,0.000910626,-0.00616684,1.48578,0.00444596,0.0396118,1903,946,15.209,-2.42987
686,78,15.2271,2.34113,-0.00738834,0.000662325,0.000607245,0.00070787,-0.00743389,1.49593,0.00520794,0.0369786,1910,946,15.2271,-2.34113
693,78,15.1735,2.34204,-0.008317,0.000379787,0.000631965,0.00042547,-0.00836268,1.49864,0.00572222,0.0295003,1917,946,15.1734,-2.34204
700,78,15.1538,2.38379,-0.00885657,0.000346695,0.000756278,0.000408428,-0.0089183,1.48935,0.00608625,0.0222087,1924,946,15.1537,-2.3838
707,78,15.0109,2.58478,-0.00904484,0.000379156,0.000842709,0.000453919,-0.0091196,1.48231,0.00623655,0.0324949,1931,946,15.0109,-2.58479
714,78,14.1387,2.8017,0,0,0,0,0,0,0,-1,1938,946,14.1386,-2.80171
721,78,14.2029,2.84784,-0.00815176,0.000529026,0.000632335,0.000574846,-0.00819758,1.49846,0.0056664,0.0200169,1945,946,14.2029,-2.84783
728,78,14.2396,2.95557,-0.00723615,0.000633251,0.000437965,0.00065755,-0.00726045,1.51537,0.00507371,0.0216693,1952,946,14.2397,-2.95558
735,78,14.2404,2.99493,-0.00579945,0.00017173,-3.02871e-05,0.000171883,-0.0057996,-1.56572,0.00392495,0.014653,1959,946,14.2403,-2.99495
742,78,14.2535,3.07379,-0.00409896,0.000450705,-0.0012765,0.000784382,-0.00443264,-1.31512,0.00324828,0.0126006,1966,946,14.2536,-3.07377
749,78,14.2488,3.14203,-0.00293874,0.000264846,-0.00239014,0.00154029,-0.00421419,-1.08061,0.00343983,0.0125453,1973,946,14.2488,-3.14203
756,78,14.2585,3.21722,-0.00175623,0.000337005,-0.00379656,0.00322857,-0.00464779,-0.919895,0.00457196,0.0139413,1980,946,14.2586,-3.21725
763,78,14.2443,3.30005,-0.000610351,0.000339345,-0.00552298,0.00540785,-0.00567886,-0.828281,0.00640155,0.0124716,1987,946,14.2442,-3.30002
770,78,14.2249,3.36328,-0.000234592,0.000371537,-0.00758834,0.00766286,-0.00752592,-0.805357,0.00876937,0.0155269,1994,946,14.2248,-3.36326
777,78,14.2301,3.39343,-0.000480022,0.00032548,-0.00995495,0.00988583,-0.0100404,-0.805616,0.0115045,0.0345133,2001,946,14.2301,-3.39346
784,78,14.1663,2.83203,-0.00135992,0.000312662,-0.0127369,0.0122407,-0.013288,-0.818181,0.0147432,0.045408,2008,946,14.1663,-2.83204
791,78,14.1146,2.53406,-0.00287753,0.000392362,-0.0159757,0.0148166,-0.0173018,-0.83639,0.018562,0.0461485,2015,946,14.1146,-2.53404
798,78,13.8953,2.75616,-0.00537558,0.000738866,-0.0196348,0.017553,-0.0221897,-0.86263,0.0229975,0.0439101,2022,946,13.8952,-2.75613
805,78,13.7966,3.32086,0,0,0,0,0,0,0,-1,2029,946,13.7966,-3.32087
812,78,0,0,0,0,0,0,0,0,0,-1,2036,946,0,0
-700,71,0,0,0,0,0,0,0,0,0,-1,524,953,0,0
-693,71,0,0,0,0,0,0,0,0,0,-1,531,953,0,0
-686,71,-4.82544,9.10632,0,0,0,0,0,0,0,-1,538,953,-4.82541,-9.10634
-679,71,-5.20032,8.25366,-0.0533083,0.0549241,-0.0784445,0.0961079,-0.0944922,-1.08734,0.110044,0.0487381,545,953,-5.20029,-8.25366
-672,71,-6.32977,6.73877,-0.0422908,0.0575677,-0.0618045,0.0870911,-0.0718143,-1.12516,0.0918853,0.0460337,552,953,-6.32976,-6.73877
-665,71,-6.98907,6.08185,-0.0331081,0.0538449,-0.0475348,0.0747871,-0.0540503,-1.15582,0.0747048,0.0476244,559,953,-6.98905,-6.08188
-658,71,-8.7146,0.942078,-0.0255098,0.0469114,-0.0355812,0.0614672,-0.0400657,-1.18248,0.0590525,0.0460866,566,953,-8.71462,-0.942074
-651,71,-8.72864,1.01306,-0.0192963,0.0386934,-0.0258276,0.0485286,-0.0291314,-1.20695,0.0453008,0.0455667,573,953,-8.72864,-1.01303
-644,71,-8.82086,1.32861,-0.0142931,0.0304297,-0.0181122,0.0368447,-0.0207081,-1.2304,0.0336607,0.0311891,580,953,-8.82084,-1.32862
-637,71,-8.84973,1.23566,-0.0104296,0.022898,-0.0122476,0.0269147,-0.0144464,-1.25389,0.0242388,0.0137001,587,953,-8.84974,-1.23563
-630,71,-8.86792,1.16113,-0.00760078,0.0174663,-0.00778567,0.0196876,-0.00982212,-1.29287,0.0173519,0.0134345,594,953,-8.86794,-1.1611
-623,71,-8.88104,1.10498,-0.00557424,0.0138544,-0.00413587,0.0146982,-0.00641802,-1.36954,0.0125,0.0125893,601,953,-8.88106,-1.10495
-616,71,-8.8847,1.04651,-0.0044463,0.00783096,-0.00217889,0.00820619,-0.00482153,-1.40026,0.0076057,0.0123006,608,953,-8.8847,-1.04652
-609,71,-8.86963,0.996399,-0.00401698,0.00326445,-0.000744007,0.0033397,-0.00409222,-1.47001,0.00429814,0.0137622,615,953,-8.86964,-0.996373
-602,71,-8.85632,0.913269,-0.00419469,0.00077447,3.33444e-05,0.000774694,-0.00419491,1.56409,0.00308741,0.0146576,622,953,-8.85631,-0.913297
-595,71,-8.85889,0.846558,-0.00441938,0.000632213,-0.000227258,0.000642416,-0.00442958,-1.52593,0.00318884,0.0145577,629,953,-8.85889,-0.846585
-588,71,-8.84808,0.844543,-0.00476406,0.000536823,-0.000812553,0.000658579,-0.00488582,-1.42206,0.00349747,0.014963,636,953,-8.84809,-0.844527
-581,71,-8.92914,0.799988,-0.00502254,0.000493378,-0.0010414,0.000683444,-0.00521261,-1.39027,0.00372385,0.0202967,643,953,-8.92913,-0.799966
-574,71,-9.16931,0.675659,-0.00483765,0.00051955,-0.00115607,0.000758378,-0.00507648,-1.36708,0.00366337,0.0262847,650,953,-9.16932,-0.675636
-567,71,-9.31085,0.533142,-0.00438085,0.000562163,-0.00132328,0.000894122,-0.00471281,-1.32501,0.00347843,0.0203772,657,953,-9.31088,-0.533147
-560,71,-9.30316,0.64325,-0.00353426,0.000661973,-0.00146453,0.00112255,-0.00399484,-1.2661,0.00310579,0.0294637,664,953,-9.30315,-0.643224
-553,71,-9.2832,0.81134,-0.00208943,0.000754228,-0.00155988,0.00144304,-0.00277825,-1.15496,0.00247747,0.0424825,671,953,-9.2832,-0.81133
-546,71,-9.30499,0.858154,4.02195e-05,0.000885136,-0.00158535,0.00210335,-0.001178,-0.91561,0.00191943,0.0403595,678,953,-9.30498,-0.858149
-539,71,-9.26648,0.687195,0.00292806,0.00107845,-0.00150639,0.00377087,0.000235636,-0.510101,0.00243916,0.040774,685,953,-9.26649,-0.687173
-532,71,-9.36078,0.774963,0.0065568,0.00139466,-0.00129438,0.00686318,0.00108828,-0.232419,0.00425929,0.045113,692,953,-9.36078,-0.774976
-525,71,-9.14948,0.75592,0.0106086,0.00198741,-0.000941613,0.0107103,0.00188577,-0.107531,0.00660199,0.0437084,699,953,-9.1495,-0.755929
-518,71,0,0,0,0,0,0,0,0,0,-1,706,953,0,0
-511,71,0,0,0,0,0,0,0,0,0,-1,713,953,0,0
-504,71,0,0,0,0,0,0,0,0,0,-1,720,953,0,0
-497,71,0,0,0,0,0,0,0,0,0,-1,727,953,0,0
-490,71,0,0,0,0,0,0,0,0,0,-1,734,953,0,0
-483,71,0,0,0,0,0,0,0,0,0,-1,741,953,0,0
-476,71,0,0,0,0,0,0,0,0,0,-1,748,953,0,0
-469,71,0,0,0,0,0,0,0,0,0,-1,755,953,0,0
-462,71,0,0,0,0,0,0,0,0,0,-1,762,953,0,0
-455,71,0,0,0,0,0,0,0,0,0,-1,769,953,0,0
-448,71,0,0,0,0,0,0,0,0,0,-1,776,953,0,0
-441,71,0,0,0,0,0,0,0,0,0,-1,783,953,0,0
-434,71,0,0,0,0,0,0,0,0,0,-1,790,953,0,0
-427,71,0,0,0,0,0,0,0,0,0,-1,797,953,0,0
-420,71,0,0,0,0,0,0,0,0,0,-1,804,953,0,0
-413,71,0,0,0,0,0,0,0,0,0,-1,811,953,0,0
-406,71,0,0,0,0,0,0,0,0,0,-1,818,953,0,0
-399,71,0,0,0,0,0,0,0,0,0,-1,825,953,0,0
-392,71,0,0,0,0,0,0,0,0,0,-1,832,953,0,0
-385,71,0,0,0,0,0,0,0,0,0,-1,839,953,0,0
-378,71,0,0,0,0,0,0,0,0,0,-1,846,953,0,0
-371,71,0,0,0,0,0,0,0,0,0,-1,853,953,0,0
-364,71,0,0,0,0,0,0,0,0,0,-1,860,953,0,0
-357,71,0,0,0,0,0,0,0,0,0,-1,867,953,0,0
-350,71,0,0,0,0,0,0,0,0,0,-1,874,953,0,0
-343,71,0,0,0,0,0,0,0,0,0,-1,881,953,0,0
-336,71,0,0,0,0,0,0,0,0,0,-1,888,953,0,0
-329,71,0,0,0,0,0,0,0,0,0,-1,895,953,0,0
-322,71,0,0,0,0,0,0,0,0,0,-1,902,953,0,0
-315,71,0,0,0,0,0,0,0,0,0,-1,909,953,0,0
-308,71,0,0,0,0,0,0,0,0,0,-1,916,953,0,0
-301,71,0,0,0,0,0,0,0,0,0,-1,923,953,0,0
-294,71,0,0,0,0,0,0,0,0,0,-1,930,953,0,0
-287,71,0,0,0,0,0,0,0,0,0,-1,937,953,0,0
-280,71,0,0,0,0,0,0,0,0,0,-1,944,953,0,0
-273,71,0,0,0,0,0,0,0,0,0,-1,951,953,0,0
-266,71,0,0,0,0,0,0,0,0,0,-1,958,953,0,0
-259,71,0,0,0,0,0,0,0,0,0,-1,965,953,0,0
-252,71,0,0,0,0,0,0,0,0,0,-1,972,953,0,0
-245,71,0,0,0,0,0,0,0,0,0,-1,979,953,0,0
-238,71,0,0,0,0,0,0,0,0,0,-1,986,953,0,0
-231,71,0,0,0,0,0,0,0,0,0,-1,993,953,0,0
-224,71,0,0,0,0,0,0,0,0,0,-1,1000,953,0,0
-217,71,0,0,0,0,0,0,0,0,0,-1,1007,953,0,0
-210,71,0,0,0,0,0,0,0,0,0,-1,1014,953,0,0
-203,71,0,0,0,0,0,0,0,0,0,-1,1021,953,0,0
-196,71,0,0,0,0,0,0,0,0,0,-1,1028,953,0,0
-189,71,0,0,0,0,0,0,0,0,0,-1,1035,953,0,0
-182,71,0,0,0,0,0,0,0,0,0,-1,1042,953,0,0
-175,71,0,0,0,0,0,0,0,0,0,-1,1049,953,0,0
-168,71,0,0,0,0,0,0,0,0,0,-1,1056,953,0,0
-161,71,0,0,0,0,0,0,0,0,0,-1,1063,953,0,0
-154,71,0,0,0,0,0,0,0,0,0,-1,1070,953,0,0
-147,71,0,0,0,0,0,0,0,0,0,-1,1077,953,0,0
-140,71,0,0,0,0,0,0,0,0,0,-1,1084,953,0,0
-133,71,0,0,0,0,0,0,0,0,0,-1,1091,953,0,0
-126,71,0,0,0,0,0,0,0,0,0,-1,1098,953,0,0
-119,71,0,0,0,0,0,0,0,0,0,-1,1105,953,0,0
-112,71,0,0,0,0,0,0,0,0,0,-1,1112,953,0,0
-105,71,0,0,0,0,0,0,0,0,0,-1,1119,953,0,0
-98,71,0,0,0,0,0,0,0,0,0,-1,1126,953,0,0
-91,71,0,0,0,0,0,0,0,0,0,-1,1133,953,0,0
-84,71,0,0,0,0,0,0,0,0,0,-1,1140,953,0,0
-77,71,0,0,0,0,0,0,0,0,0,-1,1147,953,0,0
-70,71,0,0,0,0,0,0,0,0,0,-1,1154,953,0,0
-63,71,0,0,0,0,0,0,0,0,0,-1,1161,953,0,0
-56,71,0,0,0,0,0,0,0,0,0,-1,1168,953,0,0
-49,71,0,0,0,0,0,0,0,0,0,-1,1175,953,0,0
-42,71,0,0,0,0,0,0,0,0,0,-1,1182,953,0,0
-35,71,0,0,0,0,0,0,0,0,0,-1,1189,953,0,0
-28,71,0,0,0,0,0,0,0,0,0,-1,1196,953,0,0
-21,71,0,0,0,0,0,0,0,0,0,-1,1203,953,0,0
-14,71,0,0,0,0,0,0,0,0,0,-1,1210,953,0,0
-7,71,0,0,0,0,0,0,0,0,0,-1,1217,953,0,0
0,71,0,0,0,0,0,0,0,0,0,-1,1224,953,0,0
7,71,0,0,0,0,0,0,0,0,0,-1,1231,953,0,0
14,71,0,0,0,0,0,0,0,0,0,-1,1238,953,0,0
21,71,0,0,0,0,0,0,0,0,0,-1,1245,953,0,0
28,71,0,0,0,0,0,0,0,0,0,-1,1252,953,0,0
35,71,0,0,0,0,0,0,0,0,0,-1,1259,953,0,0
42,71,0,0,0,0,0,0,0,0,0,-1,1266,953,0,0
49,71,0,0,0,0,0,0,0,0,0,-1,1273,953,0,0
56,71,0,0,0,0,0,0,0,0,0,-1,1280,953,0,0
63,71,0,0,0,0,0,0,0,0,0,-1,1287,953,0,0
70,71,0,0,0,0,0,0,0,0,0,-1,1294,953,0,0
77,71,0,0,0,0,0,0,0,0,0,-1,1301,953,0,0
84,71,0,0,0,0,0,0,0,0,0,-1,1308,953,0,0
91,71,0,0,0,0,0,0,0,0,0,-1,1315,953,0,0
98,71,0,0,0,0,0,0,0,0,0,-1,1322,953,0,0
105,71,0,0,0,0,0,0,0,0,0,-1,1329,953,0,0
112,71,0,0,0,0,0,0,0,0,0,-1,1336,953,0,0
119,71,0,0,0,0,0,0,0,0,0,-1,1343,953,0,0
126,71,0,0,0,0,0,0,0,0,0,-1,1350,953,0,0
133,71,0,0,0,0,0,0,0,0,0,-1,1357,953,0,0
140,71,0,0,0,0,0,0,0,0,0,-1,1364,953,0,0
147,71,0,0,0,0,0,0,0,0,0,-1,1371,953,0,0
154,71,0,0,0,0,0,0,0,0,0,-1,1378,953,0,0
161,71,0,0,0,0,0,0,0,0,0,-1,1385,953,0,0
168,71,0,0,0,0,0,0,0,0,0,-1,1392,953,0,0
175,71,0,0,0,0,0,0,0,0,0,-1,1399,953,0,0
182,71,0,0,0,0,0,0,0,0,0,-1,1406,953,0,0
189,71,0,0,0,0,0,0,0,0,0,-1,1413,953,0,0
196,71,0,0,0,0,0,0,0,0,0,-1,1420,953,0,0
203,71,0,0,0,0,0,0,0,0,0,-1,1427,953,0,0
210,71,0,0,0,0,0,0,0,0,0,-1,1434,953,0,0
217,71,0,0,0,0,0,0,0,0,0,-1,1441,953,0,0
224,71,0,0,0,0,0,0,0,0,0,-1,1448,953,0,0
231,71,0,0,0,0,0,0,0,0,0,-1,1455,953,0,0
238,71,0,0,0,0,0,0,0,0,0,-1,1462,953,0,0
245,71,0,0,0,0,0,0,0,0,0,-1,1469,953,0,0
252,71,0,0,0,0,0,0,0,0,0,-1,1476,953,0,0
259,71,0,0,0,0,0,0,0,0,0,-1,1483,953,0,0
266,71,0,0,0,0,0,0,0,0,0,-1,1490,953,0,0
273,71,0,0,0,0,0,0,0,0,0,-1,1497,953,0,0
280,71,0,0,0,0,0,0,0,0,0,-1,1504,953,0,0
287,71,0,0,0,0,0,0,0,0,0,-1,1511,953,0,0
294,71,0,0,0,0,0,0,0,0,0,-1,1518,953,0,0
301,71,0,0,0,0,0,0,0,0,0,-1,1525,953,0,0
308,71,0,0,0,0,0,0,0,0,0,-1,1532,953,0,0
315,71,0,0,0,0,0,0,0,0,0,-1,1539,953,0,0
322,71,0,0,0,0,0,0,0,0,0,-1,1546,953,0,0
329,71,0,0,0,0,0,0,0,0,0,-1,1553,953,0,0
336,71,0,0,0,0,0,0,0,0,0,-1,1560,953,0,0
343,71,0,0,0,0,0,0,0,0,0,-1,1567,953,0,0
350,71,0,0,0,0,0,0,0,0,0,-1,1574,953,0,0
357,71,0,0,0,0,0,0,0,0,0,-1,1581,953,0,0
364,71,0,0,0,0,0,0,0,0,0,-1,1588,953,0,0
371,71,0,0,0,0,0,0,0,0,0,-1,1595,953,0,0
378,71,0,0,0,0,0,0,0,0,0,-1,1602,953,0,0
385,71,0,0,0,0,0,0,0,0,0,-1,1609,953,0,0
392,71,0,0,0,0,0,0,0,0,0,-1,1616,953,0,0
399,71,0,0,0,0,0,0,0,0,0,-1,1623,953,0,0
406,71,0,0,0,0,0,0,0,0,0,-1,1630,953,0,0
413,71,0,0,0,0,0,0,0,0,0,-1,1637,953,0,0
420,71,0,0,0,0,0,0,0,0,0,-1,1644,953,0,0
427,71,0,0,0,0,0,0,0,0,0,-1,1651,953,0,0
434,71,0,0,0,0,0,0,0,0,0,-1,1658,953,0,0
441,71,0,0,0,0,0,0,0,0,0,-1,1665,953,0,0
448,71,0,0,0,0,0,0,0,0,0,-1,1672,953,0,0
455,71,0,0,0,0,0,0,0,0,0,-1,1679,953,0,0
462,71,0,0,0,0,0,0,0,0,0,-1,1686,953,0,0
469,71,0,0,0,0,0,0,0,0,0,-1,1693,953,0,0
476,71,0,0,0,0,0,0,0,0,0,-1,1700,953,0,0
483,71,0,0,0,0,0,0,0,0,0,-1,1707,953,0,0
490,71,0,0,0,0,0,0,0,0,0,-1,1714,953,0,0
497,71,0,0,0,0,0,0,0,0,0,-1,1721,953,0,0
504,71,0,0,0,0,0,0,0,0,0,-1,1728,953,0,0
511,71,0,0,0,0,0,0,0,0,0,-1,1735,953,0,0
518,71,0,0,0,0,0,0,0,0,0,-1,1742,953,0,0
525,71,0,0,0,0,0,0,0,0,0,-1,1749,953,0,0
532,71,0,0,0,0,0,0,0,0,0,-1,1756,953,0,0
539,71,0,0,0,0,0,0,0,0,0,-1,1763,953,0,0
546,71,0,0,0,0,0,0,0,0,0,-1,1770,953,0,0
553,71,0,0,0,0,0,0,0,0,0,-1,1777,953,0,0
560,71,0,0,0,0,0,0,0,0,0,-1,1784,953,0,0
567,71,0,0,0,0,0,0,0,0,0,-1,1791,953,0,0
574,71,0,0,0,0,0,0,0,0,0,-1,1798,953,0,0
581,71,0,0,0,0,0,0,0,0,0,-1,1805,953,0,0
588,71,0,0,0,0,0,0,0,0,0,-1,1812,953,0,0
595,71,0,0,0,0,0,0,0,0,0,-1,1819,953,0,0
602,71,0,0,0,0,0,0,0,0,0,-1,1826,953,0,0
609,71,0,0,0,0,0,0,0,0,0,-1,1833,953,0,0
616,71,0,0,0,0,0,0,0,0,0,-1,1840,953,0,0
623,71,0,0,0,0,0,0,0,0,0,-1,1847,953,0,0
630,71,0,0,0,0,0,0,0,0,0,-1,1854,953,0,0
637,71,15.4276,2.33844,0.00132583,0.00662727,0.00550536,0.0100868,-0.00213371,1.00976,0.00753713,0.0405793,1861,953,15.4276,-2.33846
644,71,15.3724,2.27899,0.000771129,0.00427303,0.00357175,0.00649992,-0.00145576,1.0133,0.00489129,0.0408869,1868,953,15.3724,-2.27899
651,71,15.2052,2.2984,0.000465022,0.00289719,0.00209056,0.00409964,-0.000737423,1.04883,0.00300917,0.0396414,1875,953,15.2051,-2.29841
658,71,15.2039,2.37048,-0.000372371,0.00208902,0.00124156,0.00260649,-0.000889845,1.1759,0.00209815,0.037758,1882,953,15.2039,-2.37049
665,71,15.2936,2.45801,-0.00183546,0.00159772,0.000849209,0.00179629,-0.00203403,1.34109,0.00221285,0.0392579,1889,953,15.2936,-2.45803
672,71,15.2611,2.54236,-0.00355593,0.00130786,0.000746569,0.00141988,-0.00366794,1.42187,0.00303153,0.0401922,1896,953,15.2612,-2.54238
679,71,15.266,2.35498,-0.00517444,0.00111586,0.000850957,0.00122894,-0.00528752,1.43868,0.00399812,0.0395486,1903,953,15.266,-2.35501
686,71,15.2875,2.19098,-0.00644066,0.000935136,0.000973303,0.00106141,-0.00656693,1.44178,0.00477127,0.0385574,1910,953,15.2875,-2.19095
693,71,15.2317,2.25232,-0.007406,0.000665073,0.00109326,0.000810539,-0.00755147,1.43852,0.00532509,0.0330929,1917,953,15.2317,-2.25231
700,71,15.1417,2.31683,-0.00802772,0.00060605,0.0012466,0.000782439,-0.00820411,1.43023,0.005748,0.0281096,1924,953,15.1418,-2.31686
707,71,15.1096,2.55188,-0.00835159,0.00061124,0.00135009,0.000810191,-0.00855054,1.42449,0.00598872,0.0253144,1931,953,15.1096,-2.55188
714,71,14.4442,2.7923,0,0,0,0,0,0,0,-1,1938,953,14.4442,-2.79233
721,71,14.3616,2.85352,-0.00783292,0.000674535,0.00115187,0.000827733,-0.00798612,1.43857,0.00562034,0.024639,1945,953,14.3615,-2.85351
728,71,14.2892,2.974,-0.00719933,0.000708257,0.00102348,0.000838578,-0.00732965,1.44415,0.0051886,0.0183909,1952,953,14.2892,-2.97401
735,71,14.3153,2.99445,-0.00622107,0.000462724,0.000559865,0.000509296,-0.00626764,1.4878,0.00435813,0.011591,1959,953,14.3153,-2.99446
742,71,14.3323,3.04486,-0.00519325,0.000601921,-0.000428056,0.000633368,-0.0052247,-1.49746,0.00371231,0.0119379,1966,953,14.3322,-3.04487
749,71,14.3434,3.1261,-0.00484119,0.00044071,-0.00134989,0.000765704,-0.00516618,-1.33454,0.00372568,0.0142653,1973,953,14.3434,-3.12608
756,71,14.3455,3.22382,-0.00460785,0.000542,-0.0024521,0.00152278,-0.00558863,-1.19031,0.00432368,0.0147161,1980,953,14.3454,-3.2238
763,71,14.3232,3.31024,-0.00453588,0.000559638,-0.00371636,0.0025177,-0.00649394,-1.08588,0.00536904,0.0136066,1987,953,14.3233,-3.31023
770,71,14.3048,3.38568,-0.00552279,0.00060811,-0.00509499,0.00348874,-0.00840342,-1.05622,0.00705868,0.0153123,1994,953,14.3048,-3.38566
777,71,14.3538,3.49255,-0.0074652,0.000536181,-0.00657374,0.00423092,-0.0111599,-1.05875,0.00918118,0.0323964,2001,953,14.3538,-3.49253
784,71,14.5271,3.6319,-0.0105191,0.000431479,-0.00821898,0.00483195,-0.0149195,-1.07923,0.0118889,0.0444222,2008,953,14.5271,-3.63187
791,71,14.6439,3.8302,-0.0146458,0.00028296,-0.0100404,0.00532968,-0.0196925,-1.10504,0.0152192,0.0456098,2015,953,14.6439,-3.83019
798,71,14.5837,4.00659,-0.0201531,0.000170121,-0.0119752,0.00571401,-0.025697,-1.13723,0.0193198,0.045951,2022,953,14.5837,-4.00657
805,71,14.4877,4.15668,0,0,0,0,0,0,0,-1,2029,953,14.4876,-4.15666
812,71,0,0,0,0,0,0,0,0,0,-1,2036,953,0,0
-700,64,0,0,0,0,0,0,0,0,0,-1,524,960,0,0
-693,64,0,0,0,0,0,0,0,0,0,-1,531,960,0,0
-686,64,-4.07373,10.3135,0,0,0,0,0,0,0,-1,538,960,-4.07372,-10.3136
-679,64,-8.26514,0.969177,0,0,0,0,0,0,0,-1,545,960,-8.26513,-0.969198
-672,64,-8.41882,0.859131,-0.0428494,0.0715071,-0.0565931,0.0947784,-0.0661207,-1.18067,0.093385,0.0465295,552,960,-8.41883,-0.859113
-665,64,-8.56891,0.813538,-0.0336298,0.0643135,-0.043313,0.0807195,-0.0500358,-1.20872,0.0761813,0.0442738,559,960,-8.56888,-0.813538
-658,64,-8.73706,0.611877,-0.0260023,0.0545144,-0.032258,0.065844,-0.0373319,-1.23304,0.060322,0.0409447,566,960,-8.73705,-0.611851
-651,64,-8.86725,0.75946,-0.0197568,0.0440367,-0.0232998,0.0516404,-0.0273605,-1.25535,0.0463237,0.0406047,573,960,-8.86725,-0.759458
-644,64,-8.87567,1.19202,-0.0147116,0.0340654,-0.0162732,0.0389961,-0.0196423,-1.27659,0.0344641,0.0310136,580,960,-8.8757,-1.19204
-637,64,-8.91644,1.20905,-0.0107991,0.025302,-0.0109896,0.0283842,-0.0138813,-1.29736,0.0248762,0.0148946,587,960,-8.91642,-1.20904
-630,64,-8.94427,1.16681,-0.00793495,0.0189356,-0.00701844,0.0206583,-0.00965768,-1.3301,0.0178829,0.0130585,594,960,-8.9443,-1.16679
-623,64,-8.94678,1.10797,-0.0058363,0.0146566,-0.00379666,0.0153374,-0.00651708,-1.39337,0.0129557,0.013229,601,960,-8.94677,-1.10796
-616,64,-8.94452,1.05951,-0.00459381,0.00823148,-0.00215829,0.00858494,-0.00494727,-1.40847,0.00790636,0.0163018,608,960,-8.94453,-1.05948
-609,64,-8.92963,1.00299,-0.00403458,0.00344779,-0.000929723,0.00356158,-0.00414838,-1.44901,0.00445564,0.0156938,615,960,-8.92965,-1.00299
-602,64,-8.91974,0.937988,-0.00403641,0.00102452,-0.000263281,0.00103818,-0.00405007,-1.51896,0.00310452,0.0155146,622,960,-8.91973,-0.938003
-595,64,-8.92438,0.872009,-0.00414249,0.000877215,-0.000561542,0.000939267,-0.00420454,-1.46074,0.00316295,0.0157166,629,960,-8.92435,-0.87203
-588,64,-8.92737,0.874329,-0.00435797,0.000829178,-0.00115732,0.00107568,-0.00460447,-1.36094,0.00348401,0.0198861,636,960,-8.92736,-0.874303
-581,64,-9.02759,0.855591,-0.00447983,0.000751403,-0.00138187,0.001094,-0.00482243,-1.32777,0.00363492,0.0257204,643,960,-9.02761,-0.855608
-574,64,-9.20172,0.791443,-0.00421412,0.000823406,-0.00147294,0.00122247,-0.00461318,-1.30622,0.00355374,0.0311094,650,960,-9.20174,-0.791458
-567,64,-9.28705,0.566467,-0.00371756,0.000871418,-0.00162639,0.00138937,-0.00423551,-1.26248,0.00338327,0.0261078,657,960,-9.28702,-0.56648
-560,64,-9.23547,0.7323,-0.0028268,0.000939881,-0.00174004,0.00162066,-0.00350759,-1.19786,0.00302687,0.0358463,664,960,-9.23548,-0.732276
-553,64,-9.23041,0.963257,-0.0013428,0.000989069,-0.00179719,0.0019654,-0.00231913,-1.07315,0.00247648,0.0408672,671,960,-9.2304,-0.963264
-546,64,-9.33917,0.94043,0.000815919,0.00103595,-0.00177136,0.00270071,-0.000848842,-0.816412,0.00214028,0.0397753,678,960,-9.33918,-0.940413
-539,64,-9.46307,0.751587,0.00372011,0.0010946,-0.00162763,0.00449842,0.000316299,-0.446039,0.00289927,0.0402334,685,960,-9.46309,-0.751569
-532,64,-9.43707,0.800781,0.00733831,0.00123213,-0.00134678,0.00762217,0.000948276,-0.207723,0.0047967,0.0436662,692,960,-9.43709,-0.800808
-525,64,-9.20276,0.855652,0.0113042,0.00161303,-0.000910733,0.011389,0.00152819,-0.0928921,0.00713803,0.0441222,699,960,-9.20275,-0.855659
-518,64,0,0,0,0,0,0,0,0,0,-1,706,960,0,0
-511,64,0,0,0,0,0,0,0,0,0,-1,713,960,0,0
-504,64,0,0,0,0,0,0,0,0,0,-1,720,960,0,0
-497,64,0,0,0,0,0,0,0,0,0,-1,727,960,0,0
-490,64,0,0,0,0,0,0,0,0,0,-1,734,960,0,0
-483,64,0,0,0,0,0,0,0,0,0,-1,741,960,0,0
-476,64,0,0,0,0,0,0,0,0,0,-1,748,960,0,0
-469,64,0,0,0,0,0,0,0,0,0,-1,755,960,0,0
-462,64,0,0,0,0,0,0,0,0,0,-1,762,960,0,0
-455,64,0,0,0,0,0,0,0,0,0,-1,769,960,0,0
-448,64,0,0,0,0,0,0,0,0,0,-1,776,960,0,0
-441,64,0,0,0,0,0,0,0,0,0,-1,783,960,0,0
-434,64,0,0,0,0,0,0,0,0,0,-1,790,960,0,0
-427,64,0,0,0,0,0,0,0,0,0,-1,797,960,0,0
-420,64,0,0,0,0,0,0,0,0,0,-1,804,960,0,0
-413,64,0,0,0,0,0,0,0,0,0,-1,811,960,0,0
-406,64,0,0,0,0,0,0,0,0,0,-1,818,960,0,0
-399,64,0,0,0,0,0,0,0,0,0,-1,825,960,0,0
-392,64,0,0,0,0,0,0,0,0,0,-1,832,960,0,0
-385,64,0,0,0,0,0,0,0,0,0,-1,839,960,0,0
-378,64,0,0,0,0,0,0,0,0,0,-1,846,960,0,0
-371,64,0,0,0,0,0,0,0,0,0,-1,853,960,0,0
-364,64,0,0,0,0,0,0,0,0,0,-1,860,960,0,0
-357,64,0,0,0,0,0,0,0,0,0,-1,867,960,0,0
-350,64,0,0,0,0,0,0,0,0,0,-1,874,960,0,0
-343,64,0,0,0,0,0,0,0,0,0,-1,881,960,0,0
-336,64,0,0,0,0,0,0,0,0,0,-1,888,960,0,0
-329,64,0,0,0,0,0,0,0,0,0,-1,895,960,0,0
-322,64,0,0,0,0,0,0,0,0,0,-1,902,960,0,0
-315,64,0,0,0,0,0,0,0,0,0,-1,909,960,0,0
-308,64,0,0,0,0,0,0,0,0,0,-1,916,960,0,0
-301,64,0,0,0,0,0,0,0,0,0,-1,923,960,0,0
-294,64,0,0,0,0,0,0,0,0,0,-1,930,960,0,0
-287,64,0,0,0,0,0,0,0,0,0,-1,937,960,0,0
-280,64,0,0,0,0,0,0,0,0,0,-1,944,960,0,0
-273,64,0,0,0,0,0,0,0,0,0,-1,951,960,0,0
-266,64,0,0,0,0,0,0,0,0,0,-1,958,960,0,0
-259,64,0,0,0,0,0,0,0,0,0,-1,965,960,0,0
-252,64,0,0,0,0,0,0,0,0,0,-1,972,960,0,0
-245,64,0,0,0,0,0,0,0,0,0,-1,979,960,0,0
-238,64,0,0,0,0,0,0,0,0,0,-1,986,960,0,0
-231,64,0,0,0,0,0,0,0,0,0,-1,993,960,0,0
-224,64,0,0,0,0,0,0,0,0,0,-1,1000,960,0,0
-217,64,0,0,0,0,0,0,0,0,0,-1,1007,960,0,0
-210,64,0,0,0,0,0,0,0,0,0,-1,1014,960,0,0
-203,64,0,0,0,0,0,0,0,0,0,-1,1021,960,0,0
-196,64,0,0,0,0,0,0,0,0,0,-1,1028,960,0,0
-189,64,0,0,0,0,0,0,0,0,0,-1,1035,960,0,0
-182,64,0,0,0,0,0,0,0,0,0,-1,1042,960,0,0
-175,64,0,0,0,0,0,0,0,0,0,-1,1049,960,0,0
-168,64,0,0,0,0,0,0,0,0,0,-1,1056,960,0,0
-161,64,0,0,0,0,0,0,0,0,0,-1,1063,960,0,0
-154,64,0,0,0,0,0,0,0,0,0,-1,1070,960,0,0
-147,64,0,0,0,0,0,0,0,0,0,-1,1077,960,0,0
-140,64,0,0,0,0,0,0,0,0,0,-1,1084,960,0,0
-133,64,0,0,0,0,0,0,0,0,0,-1,1091,960,0,0
-126,64,0,0,0,0,0,0,0,0,0,-1,1098,960,0,0
-119,64,0,0,0,0,0,0,0,0,0,-1,1105,960,0,0
-112,64,0,0,0,0,0,0,0,0,0,-1,1112,960,0,0
-105,64,0,0,0,0,0,0,0,0,0,-1,1119,960,0,0
-98,64,0,0,0,0,0,0,0,0,0,-1,1126,960,0,0
-91,64,0,0,0,0,0,0,0,0,0,-1,1133,960,0,0
-84,64,0,0,0,0,0,0,0,0,0,-1,1140,960,0,0
-77,64,0,0,0,0,0,0,0,0,0,-1,1147,960,0,0
-70,64,0,0,0,0,0,0,0,0,0,-1,1154,960,0,0
-63,64,0,0,0,0,0,0,0,0,0,-1,1161,960,0,0
-56,64,0,0,0,0,0,0,0,0,0,-1,1168,960,0,0
-49,64,0,0,0,0,0,0,0,0,0,-1,1175,960,0,0
-42,64,0,0,0,0,0,0,0,0,0,-1,1182,960,0,0
-35,64,0,0,0,0,0,0,0,0,0,-1,1189,960,0,0
-28,64,0,0,0,0,0,0,0,0,0,-1,1196,960,0,0
-21,64,0,0,0,0,0,0,0,0,0,-1,1203,960,0,0
-14,64,0,0,0,0,0,0,0,0,0,-1,1210,960,0,0
-7,64,0,0,0,0,0,0,0,0,0,-1,1217,960,0,0
0,64,0,0,0,0,0,0,0,0,0,-1,1224,960,0,0
7,64,0,0,0,0,0,0,0,0,0,-1,1231,960,0,0
14,64,0,0,0,0,0,0,0,0,0,-1,1238,960,0,0
21,64,0,0,0,0,0,0,0,0,0,-1,1245,960,0,0
28,64,0,0,0,0,0,0,0,0,0,-1,1252,960,0,0
35,64,0,0,0,0,0,0,0,0,0,-1,1259,960,0,0
42,64,0,0,0,0,0,0,0,0,0,-1,1266,960,0,0
49,64,0,0,0,0,0,0,0,0,0,-1,1273,960,0,0
56,64,0,0,0,0,0,0,0,0,0,-1,1280,960,0,0
63,64,0,0,0,0,0,0,0,0,0,-1,1287,960,0,0
70,64,0,0,0,0,0,0,0,0,0,-1,1294,960,0,0
77,64,0,0,0,0,0,0,0,0,0,-1,1301,960,0,0
84,64,0,0,0,0,0,0,0,0,0,-1,1308,960,0,0
91,64,0,0,0,0,0,0,0,0,0,-1,1315,960,0,0
98,64,0,0,0,0,0,0,0,0,0,-1,1322,960,0,0
105,64,0,0,0,0,0,0,0,0,0,-1,1329,960,0,0
112,64,0,0,0,0,0,0,0,0,0,-1,1336,960,0,0
119,64,0,0,0,0,0,0,0,0,0,-1,1343,960,0,0
126,64,0,0,0,0,0,0,0,0,0,-1,1350,960,0,0
133,64,0,0,0,0,0,0,0,0,0,-1,1357,960,0,0
140,64,0,0,0,0,0,0,0,0,0,-1,1364,960,0,0
147,64,0,0,0,0,0,0,0,0,0,-1,1371,960,0,0
154,64,0,0,0,0,0,0,0,0,0,-1,1378,960,0,0
161,64,0,0,0,0,0,0,0,0,0,-1,1385,960,0,0
168,64,0,0,0,0,0,0,0,0,0,-1,1392,960,0,0
175,64,0,0,0,0,0,0,0,0,0,-1,1399,960,0,0
182,64,0,0,0,0,0,0,0,0,0,-1,1406,960,0,0
189,64,0,0,0,0,0,0,0,0,0,-1,1413,960,0,0
196,64,0,0,0,0,0,0,0,0,0,-1,1420,960,0,0
203,64,0,0,0,0,0,0,0,0,0,-1,1427,960,0,0
210,64,0,0,0,0,0,0,0,0,0,-1,1434,960,0,0
217,64,0,0,0,0,0,0,0,0,0,-1,1441,960,0,0
224,64,0,0,0,0,0,0,0,0,0,-1,1448,960,0,0
231,64,0,0,0,0,0,0,0,0,0,-1,1455,960,0,0
238,64,0,0,0,0,0,0,0,0,0,-1,1462,960,0,0
245,64,0,0,0,0,0,0,0,0,0,-1,1469,960,0,0
252,64,0,0,0,0,0,0,0,0,0,-1,1476,960,0,0
259,64,0,0,0,0,0,0,0,0,0,-1,1483,960,0,0
266,64,0,0,0,0,0,0,0,0,0,-1,1490,960,0,0
273,64,0,0,0,0,0,0,0,0,0,-1,1497,960,0,0
280,64,0,0,0,0,0,0,0,0,0,-1,1504,960,0,0
287,64,0,0,0,0,0,0,0,0,0,-1,1511,960,0,0
294,64,0,0,0,0,0,0,0,0,0,-1,1518,960,0,0
301,64,0,0,0,0,0,0,0,0,0,-1,1525,960,0,0
308,64,0,0,0,0,0,0,0,0,0,-1,1532,960,0,0
315,64,0,0,0,0,0,0,0,0,0,-1,1539,960,0,0
322,64,0,0,0,0,0,0,0,0,0,-1,1546,960,0,0
329,64,0,0,0,0,0,0,0,0,0,-1,1553,960,0,0
336,64,0,0,0,0,0,0,0,0,0,-1,1560,960,0,0
343,64,0,0,0,0,0,0,0,0,0,-1,1567,960,0,0
350,64,0,0,0,0,0,0,0,0,0,-1,1574,960,0,0
357,64,0,0,0,0,0,0,0,0,0,-1,1581,960,0,0
364,64,0,0,0,0,0,0,0,0,0,-1,1588,960,0,0
371,64,0,0,0,0,0,0,0,0,0,-1,1595,960,0,0
378,64,0,0,0,0,0,0,0,0,0,-1,1602,960,0,0
385,64,0,0,0,0,0,0,0,0,0,-1,1609,960,0,0
392,64,0,0,0,0,0,0,0,0,0,-1,1616,960,0,0
399,64,0,0,0,0,0,0,0,0,0,-1,1623,960,0,0
406,64,0,0,0,0,0,0,0,0,0,-1,1630,960,0,0
413,64,0,0,0,0,0,0,0,0,0,-1,1637,960,0,0
420,64,0,0,0,0,0,0,0,0,0,-1,1644,960,0,0
427,64,0,0,0,0,0,0,0,0,0,-1,1651,960,0,0
434,64,0,0,0,0,0,0,0,0,0,-1,1658,960,0,0
441,64,0,0,0,0,0,0,0,0,0,-1,1665,960,0,0
448,64,0,0,0,0,0,0,0,0,0,-1,1672,960,0,0
455,64,0,0,0,0,0,0,0,0,0,-1,1679,960,0,0
462,64,0,0,0,0,0,0,0,0,0,-1,1686,960,0,0
469,64,0,0,0,0,0,0,0,0,0,-1,1693,960,0,0
476,64,0,0,0,0,0,0,0,0,0,-1,1700,960,0,0
483,64,0,0,0,0,0,0,0,0,0,-1,1707,960,0,0
490,64,0,0,0,0,0,0,0,0,0,-1,1714,960,0,0
497,64,0,0,0,0,0,0,0,0,0,-1,1721,960,0,0
504,64,0,0,0,0,0,0,0,0,0,-1,1728,960,0,0
511,64,0,0,0,0,0,0,0,0,0,-1,1735,960,0,0
518,64,0,0,0,0,0,0,0,0,0,-1,1742,960,0,0
525,64,0,0,0,0,0,0,0,0,0,-1,1749,960,0,0
532,64,0,0,0,0,0,0,0,0,0,-1,1756,960,0,0
539,64,0,0,0,0,0,0,0,0,0,-1,1763,960,0,0
546,64,0,0,0,0,0,0,0,0,0,-1,1770,960,0,0
553,64,0,0,0,0,0,0,0,0,0,-1,1777,960,0,0
560,64,0,0,0,0,0,0,0,0,0,-1,1784,960,0,0
567,64,0,0,0,0,0,0,0,0,0,-1,1791,960,0,0
574,64,0,0,0,0,0,0,0,0,0,-1,1798,960,0,0
581,64,0,0,0,0,0,0,0,0,0,-1,1805,960,0,0
588,64,0,0,0,0,0,0,0,0,0,-1,1812,960,0,0
595,64,0,0,0,0,0,0,0,0,0,-1,1819,960,0,0
602,64,0,0,0,0,0,0,0,0,0,-1,1826,960,0,0
609,64,0,0,0,0,0,0,0,0,0,-1,1833,960,0,0
616,64,0,0,0,0,0,0,0,0,0,-1,1840,960,0,0
623,64,0,0,0,0,0,0,0,0,0,-1,1847,960,0,0
630,64,0,0,0,0,0,0,0,0,0,-1,1854,960,0,0
637,64,0,0,0,0,0,0,0,0,0,-1,1861,960,0,0
644,64,15.1882,2.4129,0.00143577,0.00402972,0.00378003,0.00672909,-0.0012636,0.950661,0.00496119,0.0418314,1868,960,15.1883,-2.41291
651,64,15.1885,2.32397,0.000931383,0.00281216,0.00217104,0.00423772,-0.000494185,0.989775,0.00300346,0.0392333,1875,960,15.1885,-2.32398
658,64,15.2491,2.37677,0.000177868,0.0021033,0.00129037,0.00275051,-0.000469347,1.10589,0.00200849,0.0375739,1882,960,15.2492,-2.37677
665,64,15.2665,2.6344,-0.00109182,0.00169161,0.000941007,0.00197989,-0.00138009,1.27353,0.00195016,0.0385185,1889,960,15.2664,-2.63438
672,64,15.2744,2.60736,-0.00266549,0.00144601,0.000918526,0.00164188,-0.00286136,1.3607,0.00263153,0.0389734,1896,960,15.2744,-2.60736
679,64,15.2841,2.13855,-0.00421548,0.00128107,0.00111476,0.00149855,-0.00443296,1.37812,0.00356151,0.0382766,1903,960,15.2841,-2.13857
686,64,15.2056,2.14703,-0.00545382,0.00112527,0.00134173,0.00138838,-0.00571693,1.37716,0.0043486,0.0358775,1910,960,15.2056,-2.14702
693,64,15.2261,2.1861,-0.00642392,0.000877679,0.00154986,0.00119304,-0.00673928,1.37006,0.0049388,0.0338728,1917,960,15.226,-2.18608
700,64,15.2007,2.22552,-0.00710355,0.000802608,0.00172975,0.00116449,-0.00746543,1.36456,0.00540708,0.0281868,1924,960,15.2007,-2.22553
707,64,15.1359,2.50281,-0.00752779,0.000791352,0.00184554,0.00118239,-0.00791883,1.362,0.00571427,0.028057,1931,960,15.1359,-2.5028
714,64,14.9058,2.77795,-0.00761014,0.000805888,0.00177049,0.00116318,-0.00796744,1.37167,0.00573878,0.0349085,1938,960,14.9058,-2.77797
721,64,14.4354,2.84546,-0.00731849,0.00080625,0.00165332,0.0011298,-0.00764204,1.37754,0.00551004,0.0248081,1945,960,14.4354,-2.84544
728,64,14.356,2.96771,-0.0068482,0.000801337,0.00152073,0.00109257,-0.00713944,1.38158,0.0051625,0.0136219,1952,960,14.3559,-2.96774
735,64,14.3623,3.0174,-0.00628599,0.000685868,0.00108771,0.000851625,-0.00645175,1.41957,0.00461133,0.0146287,1959,960,14.3624,-3.01737
742,64,14.4092,3.05829,-0.00609565,0.000752886,0.000478483,0.000786154,-0.00612891,1.50138,0.00437162,0.0136298,1966,960,14.4092,-3.05826
749,64,14.3986,3.13464,-0.00653075,0.000635435,-0.000207429,0.000641434,-0.00653675,-1.54188,0.00458662,0.0120851,1973,960,14.3985,-3.13464
756,64,14.4048,3.22937,-0.00727326,0.000759343,-0.00094694,0.000869465,-0.00738338,-1.45502,0.0052362,0.0137201,1980,960,14.4047,-3.22937
763,64,14.3896,3.32062,-0.00837101,0.000788919,-0.00165843,0.00107994,-0.00866203,-1.39709,0.00616627,0.0138044,1987,960,14.3897,-3.32062
770,64,14.3577,3.38129,-0.0108419,0.000867302,-0.00222718,0.00127662,-0.0112512,-1.38904,0.00796057,0.0142756,1994,960,14.3577,-3.38127
777,64,14.2963,3.43872,-0.01465,0.000813392,-0.00265177,0.0012555,-0.0150921,-1.4056,0.0105049,0.0305404,2001,960,14.2963,-3.43871
784,64,14.2201,3.45654,-0.02011,0.000717875,-0.00294918,0.00112742,-0.0205196,-1.43281,0.0140706,0.0440467,2008,960,14.22,-3.45655
791,64,14.0884,3.54694,-0.0271905,0.000541061,-0.00310125,0.000883645,-0.0275331,-1.46078,0.0186569,0.0493935,2015,960,14.0884,-3.54691
798,64,13.9124,3.70776,-0.0361769,0.000327164,-0.00303403,0.000577619,-0.0364274,-1.48843,0.0244797,0.0484776,2022,960,13.9124,-3.70774
805,64,13.7858,3.81769,0,0,0,0,0,0,0,-1,2029,960,13.7857,-3.81766
812,64,0,0,0,0,0,0,0,0,0,-1,2036,960,0,0
-700,57,0,0,0,0,0,0,0,0,0,-1,524,967,0,0
-693,57,0,0,0,0,0,0,0,0,0,-1,531,967,0,0
-686,57,-9.56134,5.73816,0,0,0,0,0,0,0,-1,538,967,-9.56135,-5.73814
-679,57,-8.1488,0.306396,0,0,0,0,0,0,0,-1,545,967,-8.14882,-0.306374
-672,57,-8.24548,0.176758,0,0,0,0,0,0,0,-1,552,967,-8.24547,-0.176781
-665,57,-8.48999,0.336975,0,0,0,0,0,0,0,-1,559,967,-8.48999,-0.336949
-658,57,-8.10516,0.637634,0,0,0,0,0,0,0,-1,566,967,-8.10518,-0.63763
-651,57,-8.59412,0.919739,0,0,0,0,0,0,0,-1,573,967,-8.59414,-0.919756
-644,57,-8.98218,1.00525,-0.0132838,0.0351553,-0.0133745,0.0386028,-0.0167312,-1.31852,0.0327684,0.0284609,580,967,-8.98217,-1.00525
-637,57,-8.96515,1.151,-0.00993085,0.0258588,-0.00897749,0.0279844,-0.0120565,-1.3383,0.0237195,0.0153643,587,967,-8.96516,-1.151
-630,57,-9.00232,1.1449,-0.00741798,0.0190333,-0.00572856,0.0202206,-0.00860532,-1.36642,0.0170871,0.0127133,594,967,-9.00232,-1.14488
-623,57,-9.00012,1.11121,-0.00559841,0.0144322,-0.0031586,0.0149184,-0.00608468,-1.41804,0.0124786,0.0115129,601,967,-9.00014,-1.11119
-616,57,-8.99548,1.06708,-0.00443416,0.00795619,-0.00198577,0.00826666,-0.00474464,-1.4157,0.00760326,0.0136008,608,967,-8.99549,-1.0671
-609,57,-9.00232,1.00665,-0.00379618,0.00326628,-0.00105611,0.00342083,-0.00395073,-1.42549,0.00425964,0.0145332,615,967,-9.0023,-1.00663
-602,57,-9.00458,0.956543,-0.00365431,0.00109423,-0.000578302,0.00116365,-0.00372372,-1.45134,0.00294794,0.0111366,622,967,-9.00456,-0.956531
-595,57,-8.99902,0.921509,-0.0036549,0.000938723,-0.00093421,0.00112145,-0.00383762,-1.37764,0.00300286,0.0119291,629,967,-8.99903,-0.9215
-588,57,-9.02643,0.903076,-0.00375208,0.000915242,-0.00155467,0.00138568,-0.00422252,-1.27696,0.00337315,0.0157763,636,967,-9.02642,-0.903049
-581,57,-9.13043,0.824219,-0.00375733,0.000781402,-0.00179539,0.00140573,-0.00438165,-1.23614,0.00348548,0.0243047,643,967,-9.13045,-0.824219
-574,57,-9.24719,0.7146,-0.00342835,0.000868639,-0.0018751,0.00157181,-0.00413152,-1.21202,0.00340157,0.0298278,650,967,-9.2472,-0.714608
-567,57,-9.28986,0.556274,-0.00290455,0.000884432,-0.00200752,0.00175024,-0.00377036,-1.16362,0.00325767,0.0327318,657,967,-9.28984,-0.556278
-560,57,-9.1474,0.630554,-0.0020011,0.000883029,-0.00208426,0.00197547,-0.00309354,-1.08803,0.00295023,0.0398386,664,967,-9.1474,-0.630549
-553,57,-9.03308,0.822388,-0.000539539,0.000848271,-0.00208579,0.00235255,-0.00204382,-0.94598,0.00254033,0.0391534,671,967,-9.0331,-0.822366
-546,57,-9.17303,0.818542,0.00155407,0.000769083,-0.00198054,0.00318063,-0.000857478,-0.687578,0.00245665,0.041841,678,967,-9.17305,-0.818572
-539,57,-9.32648,0.689026,0.00434907,0.00064924,-0.00173398,0.00503467,-3.63661e-05,-0.37653,0.00336864,0.0432215,685,967,-9.32649,-0.689031
-532,57,-9.31293,0.635193,0.00778784,0.000562067,-0.00133472,0.0080265,0.000323404,-0.176941,0.00524653,0.0416248,692,967,-9.31291,-0.63521
-525,57,-9.14447,0.661865,0.0114778,0.000680714,-0.000727552,0.0115266,0.000631909,-0.0669804,0.00748268,0.0438768,699,967,-9.1445,-0.661883
-518,57,0,0,0,0,0,0,0,0,0,-1,706,967,0,0
-511,57,0,0,0,0,0,0,0,0,0,-1,713,967,0,0
-504,57,0,0,0,0,0,0,0,0,0,-1,720,967,0,0
-497,57,0,0,0,0,0,0,0,0,0,-1,727,967,0,0
-490,57,0,0,0,0,0,0,0,0,0,-1,734,967,0,0
-483,57,0,0,0,0,0,0,0,0,0,-1,741,967,0,0
-476,57,0,0,0,0,0,0,0,0,0,-1,748,967,0,0
-469,57,0,0,0,0,0,0,0,0,0,-1,755,967,0,0
-462,57,0,0,0,0,0,0,0,0,0,-1,762,967,0,0
-455,57,0,0,0,0,0,0,0,0,0,-1,769,967,0,0
-448,57,0,0,0,0,0,0,0,0,0,-1,776,967,0,0
-441,57,0,0,0,0,0,0,0,0,0,-1,783,967,0,0
-434,57,0,0,0,0,0,0,0,0,0,-1,790,967,0,0
-427,57,0,0,0,0,0,0,0,0,0,-1,797,967,0,0
-420,57,0,0,0,0,0,0,0,0,0,-1,804,967,0,0
-413,57,0,0,0,0,0,0,0,0,0,-1,811,967,0,0
-406,57,0,0,0,0,0,0,0,0,0,-1,818,967,0,0
-399,57,0,0,0,0,0,0,0,0,0,-1,825,967,0,0
-392,57,0,0,0,0,0,0,0,0,0,-1,832,967,0,0
-385,57,0,0,0,0,0,0,0,0,0,-1,839,967,0,0
-378,57,0,0,0,0,0,0,0,0,0,-1,846,967,0,0
-371,57,0,0,0,0,0,0,0,0,0,-1,853,967,0,0
-364,57,0,0,0,0,0,0,0,0,0,-1,860,967,0,0
-357,57,0,0,0,0,0,0,0,0,0,-1,867,967,0,0
-350,57,0,0,0,0,0,0,0,0,0,-1,874,967,0,0
-343,57,0,0,0,0,0,0,0,0,0,-1,881,967,0,0
-336,57,0,0,0,0,0,0,0,0,0,-1,888,967,0,0
-329,57,0,0,0,0,0,0,0,0,0,-1,895,967,0,0
-322,57,0,0,0,0,0,0,0,0,0,-1,902,967,0,0
-315,57,0,0,0,0,0,0,0,0,0,-1,909,967,0,0
-308,57,0,0,0,0,0,0,0,0,0,-1,916,967,0,0
-301,57,0,0,0,0,0,0,0,0,0,-1,923,967,0,0
-294,57,0,0,0,0,0,0,0,0,0,-1,930,967,0,0
-287,57,0,0,0,0,0,0,0,0,0,-1,937,967,0,0
-280,57,0,0,0,0,0,0,0,0,0,-1,944,967,0,0
-273,57,0,0,0,0,0,0,0,0,0,-1,951,967,0,0
-266,57,0,0,0,0,0,0,0,0,0,-1,958,967,0,0
-259,57,0,0,0,0,0,0,0,0,0,-1,965,967,0,0
-252,57,0,0,0,0,0,0,0,0,0,-1,972,967,0,0
-245,57,0,0,0,0,0,0,0,0,0,-1,979,967,0,0
-238,57,0,0,0,0,0,0,0,0,0,-1,986,967,0,0
-231,57,0,0,0,0,0,0,0,0,0,-1,993,967,0,0
-224,57,0,0,0,0,0,0,0,0,0,-1,1000,967,0,0
-217,57,0,0,0,0,0,0,0,0,0,-1,1007,967,0,0
-210,57,0,0,0,0,0,0,0,0,0,-1,1014,967,0,0
-203,57,0,0,0,0,0,0,0,0,0,-1,1021,967,0,0
-196,57,0,0,0,0,0,0,0,0,0,-1,1028,967,0,0
-189,57,0,0,0,0,0,0,0,0,0,-1,1035,967,0,0
-182,57,0,0,0,0,0,0,0,0,0,-1,1042,967,0,0
-175,57,0,0,0,0,0,0,0,0,0,-1,1049,967,0,0
-168,57,0,0,0,0,0,0,0,0,0,-1,1056,967,0,0
-161,57,0,0,0,0,0,0,0,0,0,-1,1063,967,0,0
-154,57,0,0,0,0,0,0,0,0,0,-1,1070,967,0,0
-147,57,0,0,0,0,0,0,0,0,0,-1,1077,967,0,0
-140,57,0,0,0,0,0,0,0,0,0,-1,1084,967,0,0
-133,57,0,0,0,0,0,0,0,0,0,-1,1091,967,0,0
-126,57,0,0,0,0,0,0,0,0,0,-1,1098,967,0,0
-119,57,0,0,0,0,0,0,0,0,0,-1,1105,967,0,0
-112,57,0,0,0,0,0,0,0,0,0,-1,1112,967,0,0
-105,57,0,0,0,0,0,0,0,0,0,-1,1119,967,0,0
-98,57,0,0,0,0,0,0,0,0,0,-1,1126,967,0,0
-91,57,0,0,0,0,0,0,0,0,0,-1,1133,967,0,0
-84,57,0,0,0,0,0,0,0,0,0,-1,1140,967,0,0
-77,57,0,0,0,0,0,0,0,0,0,-1,1147,967,0,0
-70,57,0,0,0,0,0,0,0,0,0,-1,1154,967,0,0
-63,57,0,0,0,0,0,0,0,0,0,-1,1161,967,0,0
-56,57,0,0,0,0,0,0,0,0,0,-1,1168,967,0,0
-49,57,0,0,0,0,0,0,0,0,0,-1,1175,967,0,0
-42,57,0,0,0,0,0,0,0,0,0,-1,1182,967,0,0
-35,57,0,0,0,0,0,0,0,0,0,-1,1189,967,0,0
-28,57,0,0,0,0,0,0,0,0,0,-1,1196,967,0,0
-21,57,0,0,0,0,0,0,0,0,0,-1,1203,967,0,0
-14,57,0,0,0,0,0,0,0,0,0,-1,1210,967,0,0
-7,57,0,0,0,0,0,0,0,0,0,-1,1217,967,0,0
0,57,0,0,0,0,0,0,0,0,0,-1,1224,967,0,0
7,57,0,0,0,0,0,0,0,0,0,-1,1231,967,0,0
14,57,0,0,0,0,0,0,0,0,0,-1,1238,967,0,0
21,57,0,0,0,0,0,0,0,0,0,-1,1245,967,0,0
28,57,0,0,0,0,0,0,0,0,0,-1,1252,967,0,0
35,57,0,0,0,0,0,0,0,0,0,-1,1259,967,0,0
42,57,0,0,0,0,0,0,0,0,0,-1,1266,967,0,0
49,57,0,0,0,0,0,0,0,0,0,-1,1273,967,0,0
56,57,0,0,0,0,0,0,0,0,0,-1,1280,967,0,0
63,57,0,0,0,0,0,0,0,0,0,-1,1287,967,0,0
70,57,0,0,0,0,0,0,0,0,0,-1,1294,967,0,0
77,57,0,0,0,0,0,0,0,0,0,-1,1301,967,0,0
84,57,0,0,0,0,0,0,0,0,0,-1,1308,967,0,0
91,57,0,0,0,0,0,0,0,0,0,-1,1315,967,0,0
98,57,0,0,0,0,0,0,0,0,0,-1,1322,967,0,0
105,57,0,0,0,0,0,0,0,0,0,-1,1329,967,0,0
112,57,0,0,0,0,0,0,0,0,0,-1,1336,967,0,0
119,57,0,0,0,0,0,0,0,0,0,-1,1343,967,0,0
126,57,0,0,0,0,0,0,0,0,0,-1,1350,967,0,0
133,57,0,0,0,0,0,0,0,0,0,-1,1357,967,0,0
140,57,0,0,0,0,0,0,0,0,0,-1,1364,967,0,0
147,57,0,0,0,0,0,0,0,0,0,-1,1371,967,0,0
154,57,0,0,0,0,0,0,0,0,0,-1,1378,967,0,0
161,57,0,0,0,0,0,0,0,0,0,-1,1385,967,0,0
168,57,0,0,0,0,0,0,0,0,0,-1,1392,967,0,0
175,57,0,0,0,0,0,0,0,0,0,-1,1399,967,0,0
182,57,0,0,0,0,0,0,0,0,0,-1,1406,967,0,0
189,57,0,0,0,0,0,0,0,0,0,-1,1413,967,0,0
196,57,0,0,0,0,0,0,0,0,0,-1,1420,967,0,0
203,57,0,0,0,0,0,0,0,0,0,-1,1427,967,0,0
210,57,0,0,0,0,0,0,0,0,0,-1,1434,967,0,0
217,57,0,0,0,0,0,0,0,0,0,-1,1441,967,0,0
224,57,0,0,0,0,0,0,0,0,0,-1,1448,967,0,0
231,57,0,0,0,0,0,0,0,0,0,-1,1455,967,0,0
238,57,0,0,0,0,0,0,0,0,0,-1,1462,967,0,0
245,57,0,0,0,0,0,0,0,0,0,-1,1469,967,0,0
252,57,0,0,0,0,0,0,0,0,0,-1,1476,967,0,0
259,57,0,0,0,0,0,0,0,0,0,-1,1483,967,0,0
266,57,0,0,0,0,0,0,0,0,0,-1,1490,967,0,0
273,57,0,0,0,0,0,0,0,0,0,-1,1497,967,0,0
280,57,0,0,0,0,0,0,0,0,0,-1,1504,967,0,0
287,57,0,0,0,0,0,0,0,0,0,-1,1511,967,0,0
294,57,0,0,0,0,0,0,0,0,0,-1,1518,967,0,0
301,57,0,0,0,0,0,0,0,0,0,-1,1525,967,0,0
308,57,0,0,0,0,0,0,0,0,0,-1,1532,967,0,0
315,57,0,0,0,0,0,0,0,0,0,-1,1539,967,0,0
322,57,0,0,0,0,0,0,0,0,0,-1,1546,967,0,0
329,57,0,0,0,0,0,0,0,0,0,-1,1553,967,0,0
336,57,0,0,0,0,0,0,0,0,0,-1,1560,967,0,0
343,57,0,0,0,0,0,0,0,0,0,-1,1567,967,0,0
350,57,0,0,0,0,0,0,0,0,0,-1,1574,967,0,0
357,57,0,0,0,0,0,0,0,0,0,-1,1581,967,0,0
364,57,0,0,0,0,0,0,0,0,0,-1,1588,967,0,0
371,57,0,0,0,0,0,0,0,0,0,-1,1595,967,0,0
378,57,0,0,0,0,0,0,0,0,0,-1,1602,967,0,0
385,57,0,0,0,0,0,0,0,0,0,-1,1609,967,0,0
392,57,0,0,0,0,0,0,0,0,0,-1,1616,967,0,0
399,57,0,0,0,0,0,0,0,0,0,-1,1623,967,0,0
406,57,0,0,0,0,0,0,0,0,0,-1,1630,967,0,0
413,57,0,0,0,0,0,0,0,0,0,-1,1637,967,0,0
420,57,0,0,0,0,0,0,0,0,0,-1,1644,967,0,0
427,57,0,0,0,0,0,0,0,0,0,-1,1651,967,0,0
434,57,0,0,0,0,0,0,0,0,0,-1,1658,967,0,0
441,57,0,0,0,0,0,0,0,0,0,-1,1665,967,0,0
448,57,0,0,0,0,0,0,0,0,0,-1,1672,967,0,0
455,57,0,0,0,0,0,0,0,0,0,-1,1679,967,0,0
462,57,0,0,0,0,0,0,0,0,0,-1,1686,967,0,0
469,57,0,0,0,0,0,0,0,0,0,-1,1693,967,0,0
476,57,0,0,0,0,0,0,0,0,0,-1,1700,967,0,0
483,57,0,0,0,0,0,0,0,0,0,-1,1707,967,0,0
490,57,0,0,0,0,0,0,0,0,0,-1,1714,967,0,0
497,57,0,0,0,0,0,0,0,0,0,-1,1721,967,0,0
504,57,0,0,0,0,0,0,0,0,0,-1,1728,967,0,0
511,57,0,0,0,0,0,0,0,0,0,-1,1735,967,0,0
518,57,0,0,0,0,0,0,0,0,0,-1,1742,967,0,0
525,57,0,0,0,0,0,0,0,0,0,-1,1749,967,0,0
532,57,0,0,0,0,0,0,0,0,0,-1,1756,967,0,0
539,57,0,0,0,0,0,0,0,0,0,-1,1763,967,0,0
546,57,0,0,0,0,0,0,0,0,0,-1,1770,967,0,0
553,57,0,0,0,0,0,0,0,0,0,-1,1777,967,0,0
560,57,0,0,0,0,0,0,0,0,0,-1,1784,967,0,0
567,57,0,0,0,0,0,0,0,0,0,-1,1791,967,0,0
574,57,0,0,0,0,0,0,0,0,0,-1,1798,967,0,0
581,57,0,0,0,0,0,0,0,0,0,-1,1805,967,0,0
588,57,0,0,0,0,0,0,0,0,0,-1,1812,967,0,0
595,57,0,0,0,0,0,0,0,0,0,-1,1819,967,0,0
602,57,0,0,0,0,0,0,0,0,0,-1,1826,967,0,0
609,57,0,0,0,0,0,0,0,0,0,-1,1833,967,0,0
616,57,0,0,0,0,0,0,0,0,0,-1,1840,967,0,0
623,57,0,0,0,0,0,0,0,0,0,-1,1847,967,0,0
630,57,0,0,0,0,0,0,0,0,0,-1,1854,967,0,0
637,57,0,0,0,0,0,0,0,0,0,-1,1861,967,0,0
644,57,15.1331,2.56671,0.00251178,0.00341574,0.00400106,0.00699027,-0.00106275,0.841642,0.00505183,0.0404292,1868,967,15.1331,-2.56672
651,57,15.194,2.40601,0.00163575,0.00245226,0.00228841,0.00436855,-0.000280538,0.87367,0.00301024,0.035752,1875,967,15.194,-2.40599
658,57,15.2469,2.46631,0.000783383,0.00189785,0.00135725,0.00280781,-0.000126575,0.980186,0.00191546,0.0354573,1882,967,15.2469,-2.46631
665,57,15.2667,3.02527,0,0,0,0,0,0,0,-1,1889,967,15.2667,-3.0253
672,57,15.2587,2.63477,-0.00191549,0.00141865,0.0010311,0.00171175,-0.0022086,1.29384,0.00226947,0.0418346,1896,967,15.2587,-2.63479
679,57,15.1807,2.19031,-0.0034449,0.00129533,0.00128654,0.001622,-0.00377157,1.32214,0.00319535,0.043214,1903,967,15.1806,-2.19032
686,57,15.1738,1.92468,-0.00468556,0.00117077,0.00159546,0.00157722,-0.00509201,1.32135,0.00402478,0.0403953,1910,967,15.1738,-1.9247
693,57,15.2139,2.02423,-0.00566993,0.00096243,0.00187628,0.00145643,-0.00616393,1.31335,0.00467107,0.0343398,1917,967,15.2139,-2.02421
700,57,15.1945,2.16357,-0.00640683,0.000888233,0.0020712,0.00143526,-0.00695386,1.31258,0.00518103,0.0254107,1924,967,15.1945,-2.16357
707,57,15.1351,2.54718,-0.0069118,0.000873875,0.00219818,0.00145163,-0.00748955,1.31378,0.00554066,0.0292498,1931,967,15.1352,-2.5472
714,57,15.0104,2.89746,-0.00709859,0.000879859,0.002146,0.00142045,-0.00763918,1.32402,0.00562636,0.0431963,1938,967,15.0104,-2.89747
721,57,14.521,2.83057,-0.00692714,0.000867112,0.00205591,0.00137616,-0.00743619,1.32808,0.00547414,0.0304413,1945,967,14.521,-2.83057
728,57,14.42,2.96973,-0.00654635,0.000862809,0.00194816,0.00134383,-0.00702737,1.32873,0.00519116,0.0186473,1952,967,14.42,-2.96975
735,57,14.4415,3.05206,-0.00611791,0.000777586,0.00151827,0.00109708,-0.00643741,1.36339,0.00470017,0.0179626,1959,967,14.4416,-3.05206
742,57,14.4741,3.08813,-0.00616132,0.000932014,0.000904604,0.00104556,-0.00627487,1.44593,0.00457179,0.0140741,1966,967,14.4742,-3.08812
749,57,14.4595,3.14984,-0.00690309,0.000945818,0.000259237,0.000954371,-0.00691164,1.53782,0.0049566,0.0121186,1973,967,14.4595,-3.14982
756,57,14.4462,3.2019,-0.00791739,0.00127671,-0.000570292,0.00131195,-0.00795263,-1.50908,0.00578884,0.0104329,1980,967,14.4462,-3.20189
763,57,14.4478,3.24445,-0.00929578,0.00152694,-0.00131539,0.00168452,-0.00945335,-1.45157,0.0069323,0.011391,1987,967,14.4478,-3.24444
770,57,14.4381,3.30798,-0.0120382,0.00194772,-0.00191147,0.00220426,-0.0122947,-1.43738,0.00902145,0.0111533,1994,967,14.4381,-3.30801
777,57,14.3569,3.40533,-0.0161969,0.00235376,-0.00237195,0.00265224,-0.0164954,-1.44562,0.0119793,0.0262839,2001,967,14.3569,-3.40532
784,57,14.2362,3.46069,-0.022186,0.00289453,-0.00274189,0.00319079,-0.0224823,-1.46317,0.0161572,0.0443028,2008,967,14.2363,-3.46071
791,57,14.1305,3.52686,-0.0299739,0.00355999,-0.00303428,0.00383233,-0.0302463,-1.48128,0.0215555,0.0499774,2015,967,14.1305,-3.52683
798,57,13.8915,3.7135,-0.0397856,0.00443059,-0.00323756,0.00466639,-0.0400214,-1.49809,0.0283647,0.0498351,2022,967,13.8915,-3.71347
805,57,13.4989,3.74347,-0.0522481,0.00565846,-0.00320926,0.00583577,-0.0524254,-1.5156,0.037049,0.047531,2029,967,13.4989,-3.74348
812,57,0,0,0,0,0,0,0,0,0,-1,2036,967,0,0
-700,50,0,0,0,0,0,0,0,0,0,-1,524,974,0,0
-693,50,-8.5047,4.54718,0,0,0,0,0,0,0,-1,531,974,-8.50473,-4.54715
-686,50,-9.271,5.00299,0,0,0,0,0,0,0,-1,538,974,-9.271,-5.00301
-679,50,-10.2103,5.71838,0,0,0,0,0,0,0,-1,545,974,-10.2103,-5.71836
-672,50,-8.1283,-0.201782,0,0,0,0,0,0,0,-1,552,974,-8.12831,0.2018
-665,50,-8.19885,0.869446,0,0,0,0,0,0,0,-1,559,974,-8.19886,-0.869454
-658,50,-8.31226,0.921692,-0.0185107,0.0557017,-0.0203489,0.0609151,-0.0237241,-1.31999,0.0504144,0.0489729,566,974,-8.31226,-0.92172
-651,50,-8.68036,1.06244,-0.0150211,0.0442913,-0.0144832,0.047639,-0.0183687,-1.34365,0.0393387,0.0414292,573,974,-8.68037,-1.06244
-644,50,-9.04211,1.05542,-0.0117514,0.0336087,-0.00993479,0.0356892,-0.0138319,-1.36436,0.0295047,0.0252749,580,974,-9.04213,-1.05542
-637,50,-9.03601,1.13483,-0.00896212,0.0244394,-0.00663321,0.0257085,-0.0102312,-1.38176,0.0213815,0.0138914,587,974,-9.036,-1.13485
-630,50,-9.03101,1.13751,-0.00681196,0.0176945,-0.00425666,0.0184128,-0.00753027,-1.40362,0.0154113,0.0101311,594,974,-9.03103,-1.13752
-623,50,-9.02448,1.1001,-0.00529922,0.0131174,-0.00245455,0.0134389,-0.00562075,-1.44055,0.0113085,0.0101307,601,974,-9.0245,-1.10007
-616,50,-9.03033,1.04895,-0.00419064,0.00703613,-0.00181447,0.0073221,-0.00447661,-1.41448,0.0068777,0.0108133,608,974,-9.03034,-1.04892
-609,50,-9.05219,0.99646,-0.00346053,0.0028001,-0.00121179,0.00302647,-0.0036869,-1.38612,0.00388221,0.0108434,615,974,-9.05217,-0.996485
-602,50,-9.06604,0.959778,-0.0031861,0.0010114,-0.000916118,0.00120263,-0.00337734,-1.36501,0.00274181,0.0106376,622,974,-9.06606,-0.959758
-595,50,-9.04932,0.941345,-0.00308822,0.000874369,-0.0012967,0.00126098,-0.00347483,-1.28104,0.00283205,0.0109661,629,974,-9.04933,-0.94137
-588,50,-9.06995,0.897217,-0.00308397,0.000864317,-0.00192935,0.00165054,-0.0038702,-1.18383,0.00327215,0.0122955,636,974,-9.06994,-0.89721
-581,50,-9.19128,0.723572,-0.00300047,0.000678306,-0.0021766,0.00168864,-0.00401081,-1.13621,0.00338039,0.0213648,643,974,-9.19129,-0.723557
-574,50,-9.25336,0.541382,-0.00264891,0.000765732,-0.00223749,0.00187289,-0.00375607,-1.1113,0.00330995,0.0284764,650,974,-9.25334,-0.541412
-567,50,-9.20081,0.509155,-0.00215739,0.000752431,-0.00233459,0.00204835,-0.00345331,-1.06405,0.00321072,0.0382506,657,974,-9.20078,-0.509126
-560,50,-9.0733,0.590698,-0.00132261,0.000711981,-0.00236543,0.00226959,-0.00288022,-0.988475,0.00298021,0.0441701,664,974,-9.07333,-0.590726
-553,50,-8.99158,0.521118,-4.76968e-06,0.000626208,-0.00231023,0.00264239,-0.00202095,-0.853259,0.00270034,0.0411853,671,974,-8.99156,-0.521146
-546,50,-9.07501,0.387085,0.0018548,0.000483933,-0.00213758,0.00341415,-0.00107542,-0.630248,0.00270675,0.0434236,678,974,-9.07501,-0.387087
-539,50,-9.13116,0.280457,0.0043159,0.000290858,-0.00182129,0.00501767,-0.000410906,-0.36778,0.00349015,0.0477831,685,974,-9.13116,-0.280481
-532,50,-9.20099,0.267212,0.00728597,0.000146603,-0.00137175,0.00754046,-0.000107892,-0.18344,0.00506332,0.0450533,692,974,-9.20101,-0.267242
-525,50,-9.10211,0.567505,0.0103745,0.000266219,-0.000700436,0.0104228,0.000217914,-0.0688548,0.00687704,0.0428915,699,974,-9.10213,-0.567522
-518,50,0,0,0,0,0,0,0,0,0,-1,706,974,0,0
-511,50,0,0,0,0,0,0,0,0,0,-1,713,974,0,0
-504,50,0,0,0,0,0,0,0,0,0,-1,720,974,0,0
-497,50,0,0,0,0,0,0,0,0,0,-1,727,974,0,0
-490,50,0,0,0,0,0,0,0,0,0,-1,734,974,0,0
-483,50,0,0,0,0,0,0,0,0,0,-1,741,974,0,0
-476,50,0,0,0,0,0,0,0,0,0,-1,748,974,0,0
-469,50,0,0,0,0,0,0,0,0,0,-1,755,974,0,0
-462,50,0,0,0,0,0,0,0,0,0,-1,762,974,0,0
-455,50,0,0,0,0,0,0,0,0,0,-1,769,974,0,0
-448,50,0,0,0,0,0,0,0,0,0,-1,776,974,0,0
-441,50,0,0,0,0,0,0,0,0,0,-1,783,974,0,0
-434,50,0,0,0,0,0,0,0,0,0,-1,790,974,0,0
-427,50,0,0,0,0,0,0,0,0,0,-1,797,974,0,0
-420,50,0,0,0,0,0,0,0,0,0,-1,804,974,0,0
-413,50,0,0,0,0,0,0,0,0,0,-1,811,974,0,0
-406,50,0,0,0,0,0,0,0,0,0,-1,818,974,0,0
-399,50,0,0,0,0,0,0,0,0,0,-1,825,974,0,0
-392,50,0,0,0,0,0,0,0,0,0,-1,832,974,0,0
-385,50,0,0,0,0,0,0,0,0,0,-1,839,974,0,0
-378,50,0,0,0,0,0,0,0,0,0,-1,846,974,0,0
-371,50,0,0,0,0,0,0,0,0,0,-1,853,974,0,0
-364,50,0,0,0,0,0,0,0,0,0,-1,860,974,0,0
-357,50,0,0,0,0,0,0,0,0,0,-1,867,974,0,0
-350,50,0,0,0,0,0,0,0,0,0,-1,874,974,0,0
-343,50,0,0,0,0,0,0,0,0,0,-1,881,974,0,0
-336,50,0,0,0,0,0,0,0,0,0,-1,888,974,0,0
-329,50,0,0,0,0,0,0,0,0,0,-1,895,974,0,0
-322,50,0,0,0,0,0,0,0,0,0,-1,902,974,0,0
-315,50,0,0,0,0,0,0,0,0,0,-1,909,974,0,0
-308,50,0,0,0,0,0,0,0,0,0,-1,916,974,0,0
-301,50,0,0,0,0,0,0,0,0,0,-1,923,974,0,0
-294,50,0,0,0,0,0,0,0,0,0,-1,930,974,0,0
-287,50,0,0,0,0,0,0,0,0,0,-1,937,974,0,0
-280,50,0,0,0,0,0,0,0,0,0,-1,944,974,0,0
-273,50,0,0,0,0,0,0,0,0,0,-1,951,974,0,0
-266,50,0,0,0,0,0,0,0,0,0,-1,958,974,0,0
-259,50,0,0,0,0,0,0,0,0,0,-1,965,974,0,0
-252,50,0,0,0,0,0,0,0,0,0,-1,972,974,0,0
-245,50,0,0,0,0,0,0,0,0,0,-1,979,974,0,0
-238,50,0,0,0,0,0,0,0,0,0,-1,986,974,0,0
-231,50,0,0,0,0,0,0,0,0,0,-1,993,974,0,0
-224,50,0,0,0,0,0,0,0,0,0,-1,1000,974,0,0
-217,50,0,0,0,0,0,0,0,0,0,-1,1007,974,0,0
-210,50,0,0,0,0,0,0,0,0,0,-1,1014,974,0,0
-203,50,0,0,0,0,0,0,0,0,0,-1,1021,974,0,0
-196,50,0,0,0,0,0,0,0,0,0,-1,1028,974,0,0
-189,50,0,0,0,0,0,0,0,0,0,-1,1035,974,0,0
-182,50,0,0,0,0,0,0,0,0,0,-1,1042,974,0,0
-175,50,0,0,0,0,0,0,0,0,0,-1,1049,974,0,0
-168,50,0,0,0,0,0,0,0,0,0,-1,1056,974,0,0
-161,50,0,0,0,0,0,0,0,0,0,-1,1063,974,0,0
-154,50,0,0,0,0,0,0,0,0,0,-1,1070,974,0,0
-147,50,0,0,0,0,0,0,0,0,0,-1,1077,974,0,0
-140,50,0,0,0,0,0,0,0,0,0,-1,1084,974,0,0
-133,50,0,0,0,0,0,0,0,0,0,-1,1091,974,0,0
-126,50,0,0,0,0,0,0,0,0,0,-1,1098,974,0,0
-119,50,0,0,0,0,0,0,0,0,0,-1,1105,974,0,0
-112,50,0,0,0,0,0,0,0,0,0,-1,1112,974,0,0
-105,50,0,0,0,0,0,0,0,0,0,-1,1119,974,0,0
-98,50,0,0,0,0,0,0,0,0,0,-1,1126,974,0,0
-91,50,0,0,0,0,0,0,0,0,0,-1,1133,974,0,0
-84,50,0,0,0,0,0,0,0,0,0,-1,1140,974,0,0
-77,50,0,0,0,0,0,0,0,0,0,-1,1147,974,0,0
-70,50,0,0,0,0,0,0,0,0,0,-1,1154,974,0,0
-63,50,0,0,0,0,0,0,0,0,0,-1,1161,974,0,0
-56,50,0,0,0,0,0,0,0,0,0,-1,1168,974,0,0
-49,50,0,0,0,0,0,0,0,0,0,-1,1175,974,0,0
-42,50,0,0,0,0,0,0,0,0,0,-1,1182,974,0,0
-35,50,0,0,0,0,0,0,0,0,0,-1,1189,974,0,0
-28,50,0,0,0,0,0,0,0,0,0,-1,1196,974,0,0
-21,50,0,0,0,0,0,0,0,0,0,-1,1203,974,0,0
-14,50,0,0,0,0,0,0,0,0,0,-1,1210,974,0,0
-7,50,0,0,0,0,0,0,0,0,0,-1,1217,974,0,0
0,50,0,0,0,0,0,0,0,0,0,-1,1224,974,0,0
7,50,0,0,0,0,0,0,0,0,0,-1,1231,974,0,0
14,50,0,0,0,0,0,0,0,0,0,-1,1238,974,0,0
21,50,0,0,0,0,0,0,0,0,0,-1,1245,974,0,0
28,50,0,0,0,0,0,0,0,0,0,-1,1252,974,0,0
35,50,0,0,0,0,0,0,0,0,0,-1,1259,974,0,0
42,50,0,0,0,0,0,0,0,0,0,-1,1266,974,0,0
49,50,0,0,0,0,0,0,0,0,0,-1,1273,974,0,0
56,50,0,0,0,0,0,0,0,0,0,-1,1280,974,0,0
63,50,0,0,0,0,0,0,0,0,0,-1,1287,974,0,0
70,50,0,0,0,0,0,0,0,0,0,-1,1294,974,0,0
77,50,0,0,0,0,0,0,0,0,0,-1,1301,974,0,0
84,50,0,0,0,0,0,0,0,0,0,-1,1308,974,0,0
91,50,0,0,0,0,0,0,0,0,0,-1,1315,974,0,0
98,50,0,0,0,0,0,0,0,0,0,-1,1322,974,0,0
105,50,0,0,0,0,0,0,0,0,0,-1,1329,974,0,0
112,50,0,0,0,0,0,0,0,0,0,-1,1336,974,0,0
119,50,0,0,0,0,0,0,0,0,0,-1,1343,974,0,0
126,50,0,0,0,0,0,0,0,0,0,-1,1350,974,0,0
133,50,0,0,0,0,0,0,0,0,0,-1,1357,974,0,0
140,50,0,0,0,0,0,0,0,0,0,-1,1364,974,0,0
147,50,0,0,0,0,0,0,0,0,0,-1,1371,974,0,0
154,50,0,0,0,0,0,0,0,0,0,-1,1378,974,0,0
161,50,0,0,0,0,0,0,0,0,0,-1,1385,974,0,0
168,50,0,0,0,0,0,0,0,0,0,-1,1392,974,0,0
175,50,0,0,0,0,0,0,0,0,0,-1,1399,974,0,0
182,50,0,0,0,0,0,0,0,0,0,-1,1406,974,0,0
189,50,0,0,0,0,0,0,0,0,0,-1,1413,974,0,0
196,50,0,0,0,0,0,0,0,0,0,-1,1420,974,0,0
203,50,0,0,0,0,0,0,0,0,0,-1,1427,974,0,0
210,50,0,0,0,0,0,0,0,0,0,-1,1434,974,0,0
217,50,0,0,0,0,0,0,0,0,0,-1,1441,974,0,0
224,50,0,0,0,0,0,0,0,0,0,-1,1448,974,0,0
231,50,0,0,0,0,0,0,0,0,0,-1,1455,974,0,0
238,50,0,0,0,0,0,0,0,0,0,-1,1462,974,0,0
245,50,0,0,0,0,0,0,0,0,0,-1,1469,974,0,0
252,50,0,0,0,0,0,0,0,0,0,-1,1476,974,0,0
259,50,0,0,0,0,0,0,0,0,0,-1,1483,974,0,0
266,50,0,0,0,0,0,0,0,0,0,-1,1490,974,0,0
273,50,0,0,0,0,0,0,0,0,0,-1,1497,974,0,0
280,50,0,0,0,0,0,0,0,0,0,-1,1504,974,0,0
287,50,0,0,0,0,0,0,0,0,0,-1,1511,974,0,0
294,50,0,0,0,0,0,0,0,0,0,-1,1518,974,0,0
301,50,0,0,0,0,0,0,0,0,0,-1,1525,974,0,0
308,50,0,0,0,0,0,0,0,0,0,-1,1532,974,0,0
315,50,0,0,0,0,0,0,0,0,0,-1,1539,974,0,0
322,50,0,0,0,0,0,0,0,0,0,-1,1546,974,0,0
329,50,0,0,0,0,0,0,0,0,0,-1,1553,974,0,0
336,50,0,0,0,0,0,0,0,0,0,-1,1560,974,0,0
343,50,0,0,0,0,0,0,0,0,0,-1,1567,974,0,0
350,50,0,0,0,0,0,0,0,0,0,-1,1574,974,0,0
357,50,0,0,0,0,0,0,0,0,0,-1,1581,974,0,0
364,50,0,0,0,0,0,0,0,0,0,-1,1588,974,0,0
371,50,0,0,0,0,0,0,0,0,0,-1,1595,974,0,0
378,50,0,0,0,0,0,0,0,0,0,-1,1602,974,0,0
385,50,0,0,0,0,0,0,0,0,0,-1,1609,974,0,0
392,50,0,0,0,0,0,0,0,0,0,-1,1616,974,0,0
399,50,0,0,0,0,0,0,0,0,0,-1,1623,974,0,0
406,50,0,0,0,0,0,0,0,0,0,-1,1630,974,0,0
413,50,0,0,0,0,0,0,0,0,0,-1,1637,974,0,0
420,50,0,0,0,0,0,0,0,0,0,-1,1644,974,0,0
427,50,0,0,0,0,0,0,0,0,0,-1,1651,974,0,0
434,50,0,0,0,0,0,0,0,0,0,-1,1658,974,0,0
441,50,0,0,0,0,0,0,0,0,0,-1,1665,974,0,0
448,50,0,0,0,0,0,0,0,0,0,-1,1672,974,0,0
455,50,0,0,0,0,0,0,0,0,0,-1,1679,974,0,0
462,50,0,0,0,0,0,0,0,0,0,-1,1686,974,0,0
469,50,0,0,0,0,0,0,0,0,0,-1,1693,974,0,0
476,50,0,0,0,0,0,0,0,0,0,-1,1700,974,0,0
483,50,0,0,0,0,0,0,0,0,0,-1,1707,974,0,0
490,50,0,0,0,0,0,0,0,0,0,-1,1714,974,0,0
497,50,0,0,0,0,0,0,0,0,0,-1,1721,974,0,0
504,50,0,0,0,0,0,0,0,0,0,-1,1728,974,0,0
511,50,0,0,0,0,0,0,0,0,0,-1,1735,974,0,0
518,50,0,0,0,0,0,0,0,0,0,-1,1742,974,0,0
525,50,0,0,0,0,0,0,0,0,0,-1,1749,974,0,0
532,50,0,0,0,0,0,0,0,0,0,-1,1756,974,0,0
539,50,0,0,0,0,0,0,0,0,0,-1,1763,974,0,0
546,50,0,0,0,0,0,0,0,0,0,-1,1770,974,0,0
553,50,0,0,0,0,0,0,0,0,0,-1,1777,974,0,0
560,50,0,0,0,0,0,0,0,0,0,-1,1784,974,0,0
567,50,0,0,0,0,0,0,0,0,0,-1,1791,974,0,0
574,50,0,0,0,0,0,0,0,0,0,-1,1798,974,0,0
581,50,0,0,0,0,0,0,0,0,0,-1,1805,974,0,0
588,50,0,0,0,0,0,0,0,0,0,-1,1812,974,0,0
595,50,0,0,0,0,0,0,0,0,0,-1,1819,974,0,0
602,50,0,0,0,0,0,0,0,0,0,-1,1826,974,0,0
609,50,0,0,0,0,0,0,0,0,0,-1,1833,974,0,0
616,50,0,0,0,0,0,0,0,0,0,-1,1840,974,0,0
623,50,0,0,0,0,0,0,0,0,0,-1,1847,974,0,0
630,50,0,0,0,0,0,0,0,0,0,-1,1854,974,0,0
637,50,0,0,0,0,0,0,0,0,0,-1,1861,974,0,0
644,50,15.3,2.49121,0.00345356,0.00308103,0.00430677,0.00757809,-0.00104349,0.763787,0.0054334,0.0382969,1868,974,15.3,-2.49118
651,50,15.1941,2.42621,0.00230546,0.0023774,0.00245872,0.00480042,-0.000117557,0.792713,0.00324017,0.0332473,1875,974,15.1941,-2.42621
658,50,15.2208,2.48761,0.00133297,0.00192731,0.00143003,0.00309071,0.000169559,0.887844,0.00200635,0.0372043,1882,974,15.2208,-2.4876
665,50,15.2057,2.61786,0.00016619,0.00167568,0.00105172,0.00221545,-0.000373578,1.09663,0.00161595,0.0411308,1889,974,15.2057,-2.61788
672,50,15.1511,2.56488,-0.00128131,0.00149307,0.00108988,0.00187001,-0.00165824,1.23782,0.00203826,0.0414257,1896,974,15.1511,-2.56488
679,50,14.947,2.38165,0,0,0,0,0,0,0,-1,1903,974,14.9471,-2.38167
686,50,15.0278,2.13867,-0.00407169,0.00119613,0.00178686,0.00174504,-0.0046206,1.27275,0.00379814,0.0436814,1910,974,15.0278,-2.13866
693,50,15.1578,2.06604,-0.0050789,0.000988121,0.00214642,0.0016707,-0.00576147,1.2629,0.00450242,0.039397,1917,974,15.1579,-2.06604
700,50,15.1714,2.26025,-0.00587204,0.00088168,0.00237328,0.00163225,-0.0066226,1.26449,0.0050479,0.021685,1924,974,15.1714,-2.26025
707,50,15.1473,2.52161,-0.00645915,0.000834619,0.00253713,0.00163034,-0.00725488,1.26688,0.00546176,0.025932,1931,974,15.1473,-2.52162
714,50,15.0653,2.69373,0,0,0,0,0,0,0,-1,1938,974,15.0653,-2.6937
721,50,14.6405,2.88715,-0.0066603,0.000772273,0.00247324,0.00152003,-0.00740806,1.27719,0.00551565,0.030316,1945,974,14.6405,-2.88712
728,50,14.4886,2.93939,-0.00633886,0.000771919,0.00239434,0.00150298,-0.00706992,1.27446,0.00528598,0.0201252,1952,974,14.4886,-2.93937
735,50,14.5238,3.02002,-0.00599264,0.000711295,0.00196532,0.00124497,-0.00652631,1.30565,0.00481976,0.0179444,1959,974,14.5239,-3.02001
742,50,14.5396,3.0708,-0.00621863,0.000912485,0.00132088,0.00114929,-0.00645543,1.39341,0.00473346,0.0140927,1966,974,14.5396,-3.0708
749,50,14.5245,3.13428,-0.00721553,0.00102712,0.000689194,0.00108435,-0.00727276,1.48795,0.00524744,0.0139311,1973,974,14.5246,-3.13429
756,50,14.5033,3.19049,-0.00843791,0.00148443,-0.000190485,0.00148808,-0.00844157,-1.55161,0.00618371,0.0113674,1980,974,14.5033,-3.19047
763,50,14.5148,3.23584,-0.0100767,0.00186815,-0.000982113,0.00194836,-0.0101569,-1.4893,0.00750548,0.0115503,1987,974,14.5148,-3.23583
770,50,14.5105,3.27802,-0.0130894,0.00249068,-0.00162857,0.00265909,-0.0132578,-1.46775,0.00984534,0.0110341,1994,974,14.5105,-3.27799
777,50,14.4868,3.34406,-0.017614,0.00318613,-0.00212978,0.00340197,-0.0178299,-1.4698,0.0131679,0.0216769,2001,974,14.4869,-3.34408
784,50,14.6372,3.59448,-0.0241556,0.00413239,-0.00254131,0.00435888,-0.0243821,-1.48191,0.0178856,0.0389817,2008,974,14.6372,-3.59451
791,50,14.3566,3.55475,0,0,0,0,0,0,0,-1,2015,974,14.3566,-3.55477
798,50,14.0452,3.64746,-0.0434427,0.00699032,-0.00326093,0.0072003,-0.0436527,-1.50649,0.031775,0.045805,2022,974,14.0451,-3.64749
805,50,13.2035,3.58594,-0.0570316,0.00925304,-0.00349243,0.00943654,-0.0572151,-1.5183,0.0416468,0.0449651,2029,974,13.2035,-3.58594
812,50,0,0,0,0,0,0,0,0,0,-1,2036,974,0,0
-700,43,0,0,0,0,0,0,0,0,0,-1,524,981,0,0
-693,43,-8.35944,3.90479,0,0,0,0,0,0,0,-1,531,981,-8.35943,-3.9048
-686,43,-8.36591,4.48077,0,0,0,0,0,0,0,-1,538,981,-8.36591,-4.48075
-679,43,-7.34528,-0.767578,0,0,0,0,0,0,0,-1,545,981,-7.3453,0.767567
-672,43,-7.63794,0.0883179,0,0,0,0,0,0,0,-1,552,981,-7.63792,-0.0882917
-665,43,-8.54944,1.31439,0,0,0,0,0,0,0,-1,559,981,-8.54941,-1.31441
-658,43,-8.55969,1.34338,-0.014415,0.0523651,-0.0145123,0.0553825,-0.0174323,-1.3658,0.0439017,0.0479872,566,981,-8.55971,-1.34337
-651,43,-8.76898,1.24957,-0.0121657,0.0407416,-0.010156,0.0426241,-0.0140482,-1.38751,0.0340781,0.0393795,573,981,-8.76896,-1.24958
-644,43,-9.09302,1.14752,-0.00978831,0.0302946,-0.00685472,0.0314345,-0.0109281,-1.40602,0.0253953,0.0179432,580,981,-9.093,-1.14752
-637,43,-9.08362,1.14655,-0.00762724,0.0216228,-0.00456632,0.022319,-0.00832353,-1.41948,0.0182963,0.0108218,587,981,-9.08365,-1.14655
-630,43,-9.07611,1.12225,-0.00590978,0.0153368,-0.00300727,0.0157542,-0.00632723,-1.43286,0.0131303,0.0107034,594,981,-9.0761,-1.12226
-623,43,-9.07953,1.07855,-0.00476651,0.0110918,-0.00192483,0.0113221,-0.00499679,-1.45172,0.00965473,0.0110953,601,981,-9.07952,-1.07854
-616,43,-9.07172,1.03534,-0.00381402,0.00574826,-0.00174155,0.00605557,-0.00412133,-1.39614,0.0059109,0.0102388,608,981,-9.07169,-1.03536
-609,43,-9.07941,1.00513,-0.00306161,0.00221372,-0.00143286,0.00257778,-0.00342567,-1.32198,0.0034776,0.0119037,615,981,-9.07939,-1.0051
-602,43,-9.08423,0.974976,-0.00270481,0.000901276,-0.00129165,0.00131619,-0.00311972,-1.25998,0.00263068,0.0148189,622,981,-9.08422,-0.975001
-595,43,-9.0639,0.92688,-0.00254434,0.000890434,-0.00165864,0.00156062,-0.00321452,-1.1868,0.00281151,0.0136952,629,981,-9.06393,-0.926861
-588,43,-9.07263,0.832581,-0.0024615,0.000937759,-0.0022573,0.00206375,-0.00358749,-1.10809,0.00330205,0.012395,636,981,-9.07264,-0.832551
-581,43,-9.1825,0.67749,-0.00232528,0.000761581,-0.00246894,0.00212982,-0.00369353,-1.06475,0.00340228,0.0195997,643,981,-9.18247,-0.677476
-574,43,-9.2348,0.505859,-0.00198512,0.000906818,-0.00247491,0.0023272,-0.0034055,-1.04978,0.00332924,0.0293047,650,981,-9.23483,-0.505838
-567,43,-9.16058,0.386292,-0.00154785,0.00095032,-0.00250318,0.00249875,-0.00309628,-1.01682,0.00323643,0.03895,657,981,-9.16061,-0.386307
-560,43,-9.08588,0.476807,-0.000813623,0.000964149,-0.00244374,0.00267565,-0.00252512,-0.959829,0.00300309,0.0431272,664,981,-9.08589,-0.476785
-553,43,-9.23804,0.407959,0.000319941,0.00092941,-0.00228822,0.0029331,-0.00168375,-0.851596,0.00269788,0.0419227,671,981,-9.23805,-0.407967
-546,43,-9.2301,0.690369,0.0018893,0.00082789,-0.002013,0.00344038,-0.00072319,-0.656511,0.00256881,0.0446522,678,981,-9.23013,-0.690393
-539,43,-9.20715,-0.166992,0.00393953,0.000653343,-0.00161545,0.00460066,-7.7826e-06,-0.388457,0.0030697,0.0486905,685,981,-9.20717,0.167015
-532,43,-9.30652,-0.469116,0,0,0,0,0,0,0,-1,692,981,-9.30652,0.469135
-525,43,-9.09137,0.522095,0,0,0,0,0,0,0,-1,699,981,-9.09139,-0.522108
-518,43,0,0,0,0,0,0,0,0,0,-1,706,981,0,0
-511,43,0,0,0,0,0,0,0,0,0,-1,713,981,0,0
-504,43,0,0,0,0,0,0,0,0,0,-1,720,981,0,0
-497,43,0,0,0,0,0,0,0,0,0,-1,727,981,0,0
-490,43,0,0,0,0,0,0,0,0,0,-1,734,981,0,0
-483,43,0,0,0,0,0,0,0,0,0,-1,741,981,0,0
-476,43,0,0,0,0,0,0,0,0,0,-1,748,981,0,0
-469,43,0,0,0,0,0,0,0,0,0,-1,755,981,0,0
-462,43,0,0,0,0,0,0,0,0,0,-1,762,981,0,0
-455,43,0,0,0,0,0,0,0,0,0,-1,769,981,0,0
-448,43,0,0,0,0,0,0,0,0,0,-1,776,981,0,0
-441,43,0,0,0,0,0,0,0,0,0,-1,783,981,0,0
-434,43,0,0,0,0,0,0,0,0,0,-1,790,981,0,0
-427,43,0,0,0,0,0,0,0,0,0,-1,797,981,0,0
-420,43,0,0,0,0,0,0,0,0,0,-1,804,981,0,0
-413,43,0,0,0,0,0,0,0,0,0,-1,811,981,0,0
-406,43,0,0,0,0,0,0,0,0,0,-1,818,981,0,0
-399,43,0,0,0,0,0,0,0,0,0,-1,825,981,0,0
-392,43,0,0,0,0,0,0,0,0,0,-1,832,981,0,0
-385,43,0,0,0,0,0,0,0,0,0,-1,839,981,0,0
-378,43,0,0,0,0,0,0,0,0,0,-1,846,981,0,0
-371,43,0,0,0,0,0,0,0,0,0,-1,853,981,0,0
-364,43,0,0,0,0,0,0,0,0,0,-1,860,981,0,0
-357,43,0,0,0,0,0,0,0,0,0,-1,867,981,0,0
-350,43,0,0,0,0,0,0,0,0,0,-1,874,981,0,0
-343,43,0,0,0,0,0,0,0,0,0,-1,881,981,0,0
-336,43,0,0,0,0,0,0,0,0,0,-1,888,981,0,0
-329,43,0,0,0,0,0,0,0,0,0,-1,895,981,0,0
-322,43,0,0,0,0,0,0,0,0,0,-1,902,981,0,0
-315,43,0,0,0,0,0,0,0,0,0,-1,909,981,0,0
-308,43,0,0,0,0,0,0,0,0,0,-1,916,981,0,0
-301,43,0,0,0,0,0,0,0,0,0,-1,923,981,0,0
-294,43,0,0,0,0,0,0,0,0,0,-1,930,981,0,0
-287,43,0,0,0,0,0,0,0,0,0,-1,937,981,0,0
-280,43,0,0,0,0,0,0,0,0,0,-1,944,981,0,0
-273,43,0,0,0,0,0,0,0,0,0,-1,951,981,0,0
-266,43,0,0,0,0,0,0,0,0,0,-1,958,981,0,0
-259,43,0,0,0,0,0,0,0,0,0,-1,965,981,0,0
-252,43,0,0,0,0,0,0,0,0,0,-1,972,981,0,0
-245,43,0,0,0,0,0,0,0,0,0,-1,979,981,0,0
-238,43,0,0,0,0,0,0,0,0,0,-1,986,981,0,0
-231,43,0,0,0,0,0,0,0,0,0,-1,993,981,0,0
-224,43,0,0,0,0,0,0,0,0,0,-1,1000,981,0,0
-217,43,0,0,0,0,0,0,0,0,0,-1,1007,981,0,0
-210,43,0,0,0,0,0,0,0,0,0,-1,1014,981,0,0
-203,43,0,0,0,0,0,0,0,0,0,-1,1021,981,0,0
-196,43,0,0,0,0,0,0,0,0,0,-1,1028,981,0,0
-189,43,0,0,0,0,0,0,0,0,0,-1,1035,981,0,0
-182,43,0,0,0,0,0,0,0,0,0,-1,1042,981,0,0
-175,43,0,0,0,0,0,0,0,0,0,-1,1049,981,0,0
-168,43,0,0,0,0,0,0,0,0,0,-1,1056,981,0,0
-161,43,0,0,0,0,0,0,0,0,0,-1,1063,981,0,0
-154,43,0,0,0,0,0,0,0,0,0,-1,1070,981,0,0
-147,43,0,0,0,0,0,0,0,0,0,-1,1077,981,0,0
-140,43,0,0,0,0,0,0,0,0,0,-1,1084,981,0,0
-133,43,0,0,0,0,0,0,0,0,0,-1,1091,981,0,0
-126,43,0,0,0,0,0,0,0,0,0,-1,1098,981,0,0
-119,43,0,0,0,0,0,0,0,0,0,-1,1105,981,0,0
-112,43,0,0,0,0,0,0,0,0,0,-1,1112,981,0,0
-105,43,0,0,0,0,0,0,0,0,0,-1,1119,981,0,0
-98,43,0,0,0,0,0,0,0,0,0,-1,1126,981,0,0
-91,43,0,0,0,0,0,0,0,0,0,-1,1133,981,0,0
-84,43,0,0,0,0,0,0,0,0,0,-1,1140,981,0,0
-77,43,0,0,0,0,0,0,0,0,0,-1,1147,981,0,0
-70,43,0,0,0,0,0,0,0,0,0,-1,1154,981,0,0
-63,43,0,0,0,0,0,0,0,0,0,-1,1161,981,0,0
-56,43,0,0,0,0,0,0,0,0,0,-1,1168,981,0,0
-49,43,0,0,0,0,0,0,0,0,0,-1,1175,981,0,0
-42,43,0,0,0,0,0,0,0,0,0,-1,1182,981,0,0
-35,43,0,0,0,0,0,0,0,0,0,-1,1189,981,0,0
-28,43,0,0,0,0,0,0,0,0,0,-1,1196,981,0,0
-21,43,0,0,0,0,0,0,0,0,0,-1,1203,981,0,0
-14,43,0,0,0,0,0,0,0,0,0,-1,1210,981,0,0
-7,43,0,0,0,0,0,0,0,0,0,-1,1217,981,0,0
0,43,0,0,0,0,0,0,0,0,0,-1,1224,981,0,0
7,43,0,0,0,0,0,0,0,0,0,-1,1231,981,0,0
14,43,0,0,0,0,0,0,0,0,0,-1,1238,981,0,0
21,43,0,0,0,0,0,0,0,0,0,-1,1245,981,0,0
28,43,0,0,0,0,0,0,0,0,0,-1,1252,981,0,0
35,43,0,0,0,0,0,0,0,0,0,-1,1259,981,0,0
42,43,0,0,0,0,0,0,0,0,0,-1,1266,981,0,0
49,43,0,0,0,0,0,0,0,0,0,-1,1273,981,0,0
56,43,0,0,0,0,0,0,0,0,0,-1,1280,981,0,0
63,43,0,0,0,0,0,0,0,0,0,-1,1287,981,0,0
70,43,0,0,0,0,0,0,0,0,0,-1,1294,981,0,0
77,43,0,0,0,0,0,0,0,0,0,-1,1301,981,0,0
84,43,0,0,0,0,0,0,0,0,0,-1,1308,981,0,0
91,43,0,0,0,0,0,0,0,0,0,-1,1315,981,0,0
98,43,0,0,0,0,0,0,0,0,0,-1,1322,981,0,0
105,43,0,0,0,0,0,0,0,0,0,-1,1329,981,0,0
112,43,0,0,0,0,0,0,0,0,0,-1,1336,981,0,0
119,43,0,0,0,0,0,0,0,0,0,-1,1343,981,0,0
126,43,0,0,0,0,0,0,0,0,0,-1,1350,981,0,0
133,43,0,0,0,0,0,0,0,0,0,-1,1357,981,0,0
140,43,0,0,0,0,0,0,0,0,0,-1,1364,981,0,0
147,43,0,0,0,0,0,0,0,0,0,-1,1371,981,0,0
154,43,0,0,0,0,0,0,0,0,0,-1,1378,981,0,0
161,43,0,0,0,0,0,0,0,0,0,-1,1385,981,0,0
168,43,0,0,0,0,0,0,0,0,0,-1,1392,981,0,0
175,43,0,0,0,0,0,0,0,0,0,-1,1399,981,0,0
182,43,0,0,0,0,0,0,0,0,0,-1,1406,981,0,0
189,43,0,0,0,0,0,0,0,0,0,-1,1413,981,0,0
196,43,0,0,0,0,0,0,0,0,0,-1,1420,981,0,0
203,43,0,0,0,0,0,0,0,0,0,-1,1427,981,0,0
210,43,0,0,0,0,0,0,0,0,0,-1,1434,981,0,0
217,43,0,0,0,0,0,0,0,0,0,-1,1441,981,0,0
224,43,0,0,0,0,0,0,0,0,0,-1,1448,981,0,0
231,43,0,0,0,0,0,0,0,0,0,-1,1455,981,0,0
238,43,0,0,0,0,0,0,0,0,0,-1,1462,981,0,0
245,43,0,0,0,0,0,0,0,0,0,-1,1469,981,0,0
252,43,0,0,0,0,0,0,0,0,0,-1,1476,981,0,0
259,43,0,0,0,0,0,0,0,0,0,-1,1483,981,0,0
266,43,0,0,0,0,0,0,0,0,0,-1,1490,981,0,0
273,43,0,0,0,0,0,0,0,0,0,-1,1497,981,0,0
280,43,0,0,0,0,0,0,0,0,0,-1,1504,981,0,0
287,43,0,0,0,0,0,0,0,0,0,-1,1511,981,0,0
294,43,0,0,0,0,0,0,0,0,0,-1,1518,981,0,0
301,43,0,0,0,0,0,0,0,0,0,-1,1525,981,0,0
308,43,0,0,0,0,0,0,0,0,0,-1,1532,981,0,0
315,43,0,0,0,0,0,0,0,0,0,-1,1539,981,0,0
322,43,0,0,0,0,0,0,0,0,0,-1,1546,981,0,0
329,43,0,0,0,0,0,0,0,0,0,-1,1553,981,0,0
336,43,0,0,0,0,0,0,0,0,0,-1,1560,981,0,0
343,43,0,0,0,0,0,0,0,0,0,-1,1567,981,0,0
350,43,0,0,0,0,0,0,0,0,0,-1,1574,981,0,0
357,43,0,0,0,0,0,0,0,0,0,-1,1581,981,0,0
364,43,0,0,0,0,0,0,0,0,0,-1,1588,981,0,0
371,43,0,0,0,0,0,0,0,0,0,-1,1595,981,0,0
378,43,0,0,0,0,0,0,0,0,0,-1,1602,981,0,0
385,43,0,0,0,0,0,0,0,0,0,-1,1609,981,0,0
392,43,0,0,0,0,0,0,0,0,0,-1,1616,981,0,0
399,43,0,0,0,0,0,0,0,0,0,-1,1623,981,0,0
406,43,0,0,0,0,0,0,0,0,0,-1,1630,981,0,0
413,43,0,0,0,0,0,0,0,0,0,-1,1637,981,0,0
420,43,0,0,0,0,0,0,0,0,0,-1,1644,981,0,0
427,43,0,0,0,0,0,0,0,0,0,-1,1651,981,0,0
434,43,0,0,0,0,0,0,0,0,0,-1,1658,981,0,0
441,43,0,0,0,0,0,0,0,0,0,-1,1665,981,0,0
448,43,0,0,0,0,0,0,0,0,0,-1,1672,981,0,0
455,43,0,0,0,0,0,0,0,0,0,-1,1679,981,0,0
462,43,0,0,0,0,0,0,0,0,0,-1,1686,981,0,0
469,43,0,0,0,0,0,0,0,0,0,-1,1693,981,0,0
476,43,0,0,0,0,0,0,0,0,0,-1,1700,981,0,0
483,43,0,0,0,0,0,0,0,0,0,-1,1707,981,0,0
490,43,0,0,0,0,0,0,0,0,0,-1,1714,981,0,0
497,43,0,0,0,0,0,0,0,0,0,-1,1721,981,0,0
504,43,0,0,0,0,0,0,0,0,0,-1,1728,981,0,0
511,43,0,0,0,0,0,0,0,0,0,-1,1735,981,0,0
518,43,0,0,0,0,0,0,0,0,0,-1,1742,981,0,0
525,43,0,0,0,0,0,0,0,0,0,-1,1749,981,0,0
532,43,0,0,0,0,0,0,0,0,0,-1,1756,981,0,0
539,43,0,0,0,0,0,0,0,0,0,-1,1763,981,0,0
546,43,0,0,0,0,0,0,0,0,0,-1,1770,981,0,0
553,43,0,0,0,0,0,0,0,0,0,-1,1777,981,0,0
560,43,0,0,0,0,0,0,0,0,0,-1,1784,981,0,0
567,43,0,0,0,0,0,0,0,0,0,-1,1791,981,0,0
574,43,0,0,0,0,0,0,0,0,0,-1,1798,981,0,0
581,43,0,0,0,0,0,0,0,0,0,-1,1805,981,0,0
588,43,0,0,0,0,0,0,0,0,0,-1,1812,981,0,0
595,43,0,0,0,0,0,0,0,0,0,-1,1819,981,0,0
602,43,0,0,0,0,0,0,0,0,0,-1,1826,981,0,0
609,43,0,0,0,0,0,0,0,0,0,-1,1833,981,0,0
616,43,0,0,0,0,0,0,0,0,0,-1,1840,981,0,0
623,43,0,0,0,0,0,0,0,0,0,-1,1847,981,0,0
630,43,0,0,0,0,0,0,0,0,0,-1,1854,981,0,0
637,43,0,0,0,0,0,0,0,0,0,-1,1861,981,0,0
644,43,15.2979,1.9519,0.00448297,0.00303394,0.00451112,0.00832739,-0.000810476,0.705775,0.00584053,0.0391792,1868,981,15.2978,-1.9519
651,43,15.2251,2.30084,0.00298219,0.00252232,0.00256377,0.00532632,0.000178192,0.740675,0.003493,0.0368121,1875,981,15.2251,-2.30085
658,43,15.3182,2.34583,0.00183386,0.00211243,0.0014646,0.00344436,0.000501934,0.832805,0.00214856,0.0358166,1882,981,15.3183,-2.34583
665,43,15.2672,2.31677,0.000670866,0.00185129,0.00105539,0.0024703,5.18617e-05,1.04035,0.00162985,0.0363336,1889,981,15.2672,-2.3168
672,43,15.0361,2.0451,-0.000712717,0.00162032,0.00111709,0.00206893,-0.00116133,1.18892,0.00188937,0.0364374,1896,981,15.0361,-2.04512
679,43,14.9722,2.29175,-0.00221804,0.00141784,0.0014829,0.00194594,-0.00274614,1.22867,0.00272207,0.0390715,1903,981,14.9721,-2.29176
686,43,15.0704,2.32428,-0.00346064,0.00121369,0.00193461,0.00191051,-0.00415745,1.22508,0.00358251,0.0410457,1910,981,15.0704,-2.32429
693,43,15.1532,2.22705,-0.00445875,0.000985004,0.00237699,0.00187681,-0.00535056,1.21187,0.0043304,0.0380836,1917,981,15.1532,-2.22703
700,43,15.1923,2.27802,-0.00528621,0.000840715,0.00264549,0.0018249,-0.00627039,1.21464,0.0049031,0.0314436,1924,981,15.1923,-2.27804
707,43,15.1658,2.34119,-0.00592574,0.000755726,0.00285797,0.00181141,-0.00698142,1.21696,0.00536108,0.0247126,1931,981,15.1658,-2.3412
714,43,15.1886,2.42694,-0.00627104,0.000680337,0.00288476,0.00172153,-0.00731224,1.22442,0.00553858,0.0291992,1938,981,15.1885,-2.42692
721,43,14.9366,2.75067,-0.00627821,0.000633188,0.00285611,0.00166071,-0.00730572,1.22545,0.00550814,0.029342,1945,981,14.9366,-2.75066
728,43,14.6377,2.92584,-0.00602766,0.000646246,0.00280901,0.00167115,-0.00705256,1.22094,0.00534653,0.0189544,1952,981,14.6377,-2.92585
735,43,14.5741,3.00354,-0.00578246,0.000624612,0.00238776,0.00141658,-0.00657443,1.25054,0.00492355,0.0131595,1959,981,14.574,-3.00357
742,43,14.587,3.05811,-0.00619092,0.000845615,0.00171304,0.0012405,-0.0065858,1.34424,0.00485712,0.0151289,1966,981,14.587,-3.05808
749,43,14.5974,3.10718,-0.00742628,0.00108049,0.00107681,0.00121468,-0.00756047,1.44682,0.00549018,0.0163229,1973,981,14.5974,-3.10718
756,43,14.5735,3.17017,-0.00875681,0.00171178,8.18697e-05,0.00171242,-0.00875745,1.56298,0.00648491,0.0154464,1980,981,14.5734,-3.17014
763,43,14.5626,3.22034,-0.0104795,0.00227745,-0.000847501,0.0023335,-0.0105356,-1.50475,0.00791703,0.01774,1987,981,14.5627,-3.22034
770,43,14.5908,3.24591,-0.0135161,0.00316077,-0.00168469,0.00332925,-0.0136846,-1.47112,0.0104118,0.0151512,1994,981,14.5908,-3.24592
777,43,14.5392,3.26862,-0.0179934,0.00423816,-0.00243647,0.00450205,-0.0182573,-1.46291,0.0139171,0.0193872,2001,981,14.5391,-3.26863
784,43,14.6512,3.54736,-0.0243879,0.0057139,-0.00320019,0.00605036,-0.0247244,-1.46604,0.0188266,0.0383958,2008,981,14.6513,-3.54738
791,43,14.5089,3.48969,-0.0325664,0.00766667,-0.00410278,0.00808079,-0.0329805,-1.4702,0.0251177,0.0431678,2015,981,14.5089,-3.48969
798,43,13.8296,3.63348,-0.0425079,0.0102652,-0.00526609,0.0107856,-0.0430283,-1.4723,0.0328758,0.0438635,2022,981,13.8296,-3.63348
805,43,13.1809,3.62091,-0.0544862,0.0137874,-0.00671617,0.0144418,-0.0551406,-1.47367,0.0424022,0.0448924,2029,981,13.1809,-3.62089
812,43,12.7241,3.61603,0,0,0,0,0,0,0,-1,2036,981,12.7241,-3.61605
-700,36,0,0,0,0,0,0,0,0,0,-1,524,988,0,0
-693,36,-8.4306,3.10278,0,0,0,0,0,0,0,-1,531,988,-8.43063,-3.10279
-686,36,-6.77539,-0.650146,0,0,0,0,0,0,0,-1,538,988,-6.77539,0.650118
-679,36,-6.97784,-0.432617,0,0,0,0,0,0,0,-1,545,988,-6.97787,0.432607
-672,36,-8.75909,1.93475,0,0,0,0,0,0,0,-1,552,988,-8.75906,-1.93477
-665,36,-8.80359,1.60541,-0.00601163,0.0641771,-0.0107429,0.0657846,-0.0076191,-1.42227,0.0466041,0.0458342,559,988,-8.80358,-1.60539
-658,36,-8.72845,1.59692,-0.0069062,0.0499475,-0.00796043,0.051041,-0.00799976,-1.43428,0.0369835,0.0467373,566,988,-8.72844,-1.59693
-651,36,-9.09442,1.41534,-0.00675549,0.0373609,-0.00567542,0.0380793,-0.00747391,-1.44488,0.0282095,0.0355093,573,988,-9.09441,-1.41533
-644,36,-9.11017,1.13867,-0.00601314,0.0269057,-0.00393658,0.0273699,-0.00647735,-1.45342,0.0207456,0.0175504,580,988,-9.11015,-1.1387
-637,36,-9.11768,1.11859,-0.00502348,0.0187133,-0.00282761,0.0190455,-0.00535566,-1.45385,0.0148086,0.0112954,587,988,-9.11767,-1.11859
-630,36,-9.12598,1.11176,-0.00423338,0.0128013,-0.00214677,0.0130677,-0.00449976,-1.44734,0.010537,0.0102836,594,988,-9.12596,-1.11174
-623,36,-9.13367,1.06512,-0.00383606,0.00901611,-0.00176068,0.00925295,-0.00407291,-1.43708,0.00788506,0.0121114,601,988,-9.13365,-1.06513
-616,36,-9.11383,1.0307,-0.00319593,0.00451194,-0.00192672,0.00496672,-0.00365072,-1.339,0.00499458,0.0106391,608,988,-9.11384,-1.03072
-609,36,-9.08704,1.03394,-0.00255821,0.00162999,-0.00181612,0.00230781,-0.00323604,-1.21358,0.00321566,0.0146757,615,988,-9.08703,-1.03391
-602,36,-9.09351,1.00513,-0.00223084,0.000732801,-0.00177098,0.00156013,-0.00305817,-1.13377,0.00271273,0.0190802,622,988,-9.0935,-1.00511
-595,36,-9.08557,0.954712,-0.00208682,0.000792158,-0.00207628,0.00187914,-0.0031738,-1.08851,0.00294907,0.020266,629,988,-9.08559,-0.954697
-588,36,-9.11737,0.811646,-0.0019658,0.000866921,-0.00259674,0.00240845,-0.00350733,-1.03507,0.00343506,0.018162,636,988,-9.11735,-0.81164
-581,36,-9.18109,0.617065,-0.00180606,0.000682636,-0.00275565,0.00246186,-0.00358529,-0.997475,0.00351135,0.023072,643,988,-9.1811,-0.617066
-574,36,-9.20081,0.498718,-0.00150091,0.000856165,-0.00270443,0.00262769,-0.00327244,-0.990881,0.00341321,0.0283295,650,988,-9.20079,-0.498716
-567,36,-9.21454,0.360413,-0.00111272,0.000934443,-0.00264669,0.00274859,-0.00292687,-0.96991,0.00327726,0.0347153,657,988,-9.21456,-0.360398
-560,36,-9.24591,0.399902,-0.000479475,0.000995423,-0.00246975,0.00283547,-0.00231952,-0.930481,0.0029812,0.0397208,664,988,-9.24592,-0.39989
-553,36,-9.40558,0.557495,0.000494401,0.00101623,-0.0021707,0.00294165,-0.00143101,-0.845211,0.00257428,0.0439675,671,988,-9.40556,-0.557508
-546,36,-9.43964,0.618958,0.00183034,0.000970656,-0.00172921,0.00318234,-0.000381339,-0.663579,0.00225942,0.0456054,678,988,-9.43966,-0.618928
-539,36,-9.39276,0.679016,0.00357175,0.000838488,-0.00117006,0.00400422,0.000406028,-0.354031,0.00254495,0.0434231,685,988,-9.39276,-0.679017
-532,36,-8.89545,-0.473267,0.0055724,0.000734381,-0.00059669,0.00564491,0.000661876,-0.12092,0.0035632,0.0449038,692,988,-8.89546,0.473248
-525,36,-9.1084,0.25946,0.00752492,0.000836784,0.000158456,0.00752867,0.000833032,0.0236743,0.00476577,0.0448938,699,988,-9.10838,-0.259443
-518,36,0,0,0,0,0,0,0,0,0,-1,706,988,0,0
-511,36,0,0,0,0,0,0,0,0,0,-1,713,988,0,0
-504,36,0,0,0,0,0,0,0,0,0,-1,720,988,0,0
-497,36,0,0,0,0,0,0,0,0,0,-1,727,988,0,0
-490,36,0,0,0,0,0,0,0,0,0,-1,734,988,0,0
-483,36,0,0,0,0,0,0,0,0,0,-1,741,988,0,0
-476,36,0,0,0,0,0,0,0,0,0,-1,748,988,0,0
-469,36,0,0,0,0,0,0,0,0,0,-1,755,988,0,0
-462,36,0,0,0,0,0,0,0,0,0,-1,762,988,0,0
-455,36,0,0,0,0,0,0,0,0,0,-1,769,988,0,0
-448,36,0,0,0,0,0,0,0,0,0,-1,776,988,0,0
-441,36,0,0,0,0,0,0,0,0,0,-1,783,988,0,0
-434,36,0,0,0,0,0,0,0,0,0,-1,790,988,0,0
-427,36,0,0,0,0,0,0,0,0,0,-1,797,988,0,0
-420,36,0,0,0,0,0,0,0,0,0,-1,804,988,0,0
-413,36,0,0,0,0,0,0,0,0,0,-1,811,988,0,0
-406,36,0,0,0,0,0,0,0,0,0,-1,818,988,0,0
-399,36,0,0,0,0,0,0,0,0,0,-1,825,988,0,0
-392,36,0,0,0,0,0,0,0,0,0,-1,832,988,0,0
-385,36,0,0,0,0,0,0,0,0,0,-1,839,988,0,0
-378,36,0,0,0,0,0,0,0,0,0,-1,846,988,0,0
-371,36,0,0,0,0,0,0,0,0,0,-1,853,988,0,0
-364,36,0,0,0,0,0,0,0,0,0,-1,860,988,0,0
-357,36,0,0,0,0,0,0,0,0,0,-1,867,988,0,0
-350,36,0,0,0,0,0,0,0,0,0,-1,874,988,0,0
-343,36,0,0,0,0,0,0,0,0,0,-1,881,988,0,0
-336,36,0,0,0,0,0,0,0,0,0,-1,888,988,0,0
-329,36,0,0,0,0,0,0,0,0,0,-1,895,988,0,0
-322,36,0,0,0,0,0,0,0,0,0,-1,902,988,0,0
-315,36,0,0,0,0,0,0,0,0,0,-1,909,988,0,0
-308,36,0,0,0,0,0,0,0,0,0,-1,916,988,0,0
-301,36,0,0,0,0,0,0,0,0,0,-1,923,988,0,0
-294,36,0,0,0,0,0,0,0,0,0,-1,930,988,0,0
-287,36,0,0,0,0,0,0,0,0,0,-1,937,988,0,0
-280,36,0,0,0,0,0,0,0,0,0,-1,944,988,0,0
-273,36,0,0,0,0,0,0,0,0,0,-1,951,988,0,0
-266,36,0,0,0,0,0,0,0,0,0,-1,958,988,0,0
-259,36,0,0,0,0,0,0,0,0,0,-1,965,988,0,0
-252,36,0,0,0,0,0,0,0,0,0,-1,972,988,0,0
-245,36,0,0,0,0,0,0,0,0,0,-1,979,988,0,0
-238,36,0,0,0,0,0,0,0,0,0,-1,986,988,0,0
-231,36,0,0,0,0,0,0,0,0,0,-1,993,988,0,0
-224,36,0,0,0,0,0,0,0,0,0,-1,1000,988,0,0
-217,36,0,0,0,0,0,0,0,0,0,-1,1007,988,0,0
-210,36,0,0,0,0,0,0,0,0,0,-1,1014,988,0,0
-203,36,0,0,0,0,0,0,0,0,0,-1,1021,988,0,0
-196,36,0,0,0,0,0,0,0,0,0,-1,1028,988,0,0
-189,36,0,0,0,0,0,0,0,0,0,-1,1035,988,0,0
-182,36,0,0,0,0,0,0,0,0,0,-1,1042,988,0,0
-175,36,0,0,0,0,0,0,0,0,0,-1,1049,988,0,0
-168,36,0,0,0,0,0,0,0,0,0,-1,1056,988,0,0
-161,36,0,0,0,0,0,0,0,0,0,-1,1063,988,0,0
-154,36,0,0,0,0,0,0,0,0,0,-1,1070,988,0,0
-147,36,0,0,0,0,0,0,0,0,0,-1,1077,988,0,0
-140,36,0,0,0,0,0,0,0,0,0,-1,1084,988,0,0
-133,36,0,0,0,0,0,0,0,0,0,-1,1091,988,0,0
-126,36,0,0,0,0,0,0,0,0,0,-1,1098,988,0,0
-119,36,0,0,0,0,0,0,0,0,0,-1,1105,988,0,0
-112,36,0,0,0,0,0,0,0,0,0,-1,1112,988,0,0
-105,36,0,0,0,0,0,0,0,0,0,-1,1119,988,0,0
-98,36,0,0,0,0,0,0,0,0,0,-1,1126,988,0,0
-91,36,0,0,0,0,0,0,0,0,0,-1,1133,988,0,0
-84,36,0,0,0,0,0,0,0,0,0,-1,1140,988,0,0
-77,36,0,0,0,0,0,0,0,0,0,-1,1147,988,0,0
-70,36,0,0,0,0,0,0,0,0,0,-1,1154,988,0,0
-63,36,0,0,0,0,0,0,0,0,0,-1,1161,988,0,0
-56,36,0,0,0,0,0,0,0,0,0,-1,1168,988,0,0
-49,36,0,0,0,0,0,0,0,0,0,-1,1175,988,0,0
-42,36,0,0,0,0,0,0,0,0,0,-1,1182,988,0,0
-35,36,0,0,0,0,0,0,0,0,0,-1,1189,988,0,0
-28,36,0,0,0,0,0,0,0,0,0,-1,1196,988,0,0
-21,36,0,0,0,0,0,0,0,0,0,-1,1203,988,0,0
-14,36,0,0,0,0,0,0,0,0,0,-1,1210,988,0,0
-7,36,0,0,0,0,0,0,0,0,0,-1,1217,988,0,0
0,36,0,0,0,0,0,0,0,0,0,-1,1224,988,0,0
7,36,0,0,0,0,0,0,0,0,0,-1,1231,988,0,0
14,36,0,0,0,0,0,0,0,0,0,-1,1238,988,0,0
21,36,0,0,0,0,0,0,0,0,0,-1,1245,988,0,0
28,36,0,0,0,0,0,0,0,0,0,-1,1252,988,0,0
35,36,0,0,0,0,0,0,0,0,0,-1,1259,988,0,0
42,36,0,0,0,0,0,0,0,0,0,-1,1266,988,0,0
49,36,0,0,0,0,0,0,0,0,0,-1,1273,988,0,0
56,36,0,0,0,0,0,0,0,0,0,-1,1280,988,0,0
63,36,0,0,0,0,0,0,0,0,0,-1,1287,988,0,0
70,36,0,0,0,0,0,0,0,0,0,-1,1294,988,0,0
77,36,0,0,0,0,0,0,0,0,0,-1,1301,988,0,0
84,36,0,0,0,0,0,0,0,0,0,-1,1308,988,0,0
91,36,0,0,0,0,0,0,0,0,0,-1,1315,988,0,0
98,36,0,0,0,0,0,0,0,0,0,-1,1322,988,0,0
105,36,0,0,0,0,0,0,0,0,0,-1,1329,988,0,0
112,36,0,0,0,0,0,0,0,0,0,-1,1336,988,0,0
119,36,0,0,0,0,0,0,0,0,0,-1,1343,988,0,0
126,36,0,0,0,0,0,0,0,0,0,-1,1350,988,0,0
133,36,0,0,0,0,0,0,0,0,0,-1,1357,988,0,0
140,36,0,0,0,0,0,0,0,0,0,-1,1364,988,0,0
147,36,0,0,0,0,0,0,0,0,0,-1,1371,988,0,0
154,36,0,0,0,0,0,0,0,0,0,-1,1378,988,0,0
161,36,0,0,0,0,0,0,0,0,0,-1,1385,988,0,0
168,36,0,0,0,0,0,0,0,0,0,-1,1392,988,0,0
175,36,0,0,0,0,0,0,0,0,0,-1,1399,988,0,0
182,36,0,0,0,0,0,0,0,0,0,-1,1406,988,0,0
189,36,0,0,0,0,0,0,0,0,0,-1,1413,988,0,0
196,36,0,0,0,0,0,0,0,0,0,-1,1420,988,0,0
203,36,0,0,0,0,0,0,0,0,0,-1,1427,988,0,0
210,36,0,0,0,0,0,0,0,0,0,-1,1434,988,0,0
217,36,0,0,0,0,0,0,0,0,0,-1,1441,988,0,0
224,36,0,0,0,0,0,0,0,0,0,-1,1448,988,0,0
231,36,0,0,0,0,0,0,0,0,0,-1,1455,988,0,0
238,36,0,0,0,0,0,0,0,0,0,-1,1462,988,0,0
245,36,0,0,0,0,0,0,0,0,0,-1,1469,988,0,0
252,36,0,0,0,0,0,0,0,0,0,-1,1476,988,0,0
259,36,0,0,0,0,0,0,0,0,0,-1,1483,988,0,0
266,36,0,0,0,0,0,0,0,0,0,-1,1490,988,0,0
273,36,0,0,0,0,0,0,0,0,0,-1,1497,988,0,0
280,36,0,0,0,0,0,0,0,0,0,-1,1504,988,0,0
287,36,0,0,0,0,0,0,0,0,0,-1,1511,988,0,0
294,36,0,0,0,0,0,0,0,0,0,-1,1518,988,0,0
301,36,0,0,0,0,0,0,0,0,0,-1,1525,988,0,0
308,36,0,0,0,0,0,0,0,0,0,-1,1532,988,0,0
315,36,0,0,0,0,0,0,0,0,0,-1,1539,988,0,0
322,36,0,0,0,0,0,0,0,0,0,-1,1546,988,0,0
329,36,0,0,0,0,0,0,0,0,0,-1,1553,988,0,0
336,36,0,0,0,0,0,0,0,0,0,-1,1560,988,0,0
343,36,0,0,0,0,0,0,0,0,0,-1,1567,988,0,0
350,36,0,0,0,0,0,0,0,0,0,-1,1574,988,0,0
357,36,0,0,0,0,0,0,0,0,0,-1,1581,988,0,0
364,36,0,0,0,0,0,0,0,0,0,-1,1588,988,0,0
371,36,0,0,0,0,0,0,0,0,0,-1,1595,988,0,0
378,36,0,0,0,0,0,0,0,0,0,-1,1602,988,0,0
385,36,0,0,0,0,0,0,0,0,0,-1,1609,988,0,0
392,36,0,0,0,0,0,0,0,0,0,-1,1616,988,0,0
399,36,0,0,0,0,0,0,0,0,0,-1,1623,988,0,0
406,36,0,0,0,0,0,0,0,0,0,-1,1630,988,0,0
413,36,0,0,0,0,0,0,0,0,0,-1,1637,988,0,0
420,36,0,0,0,0,0,0,0,0,0,-1,1644,988,0,0
427,36,0,0,0,0,0,0,0,0,0,-1,1651,988,0,0
434,36,0,0,0,0,0,0,0,0,0,-1,1658,988,0,0
441,36,0,0,0,0,0,0,0,0,0,-1,1665,988,0,0
448,36,0,0,0,0,0,0,0,0,0,-1,1672,988,0,0
455,36,0,0,0,0,0,0,0,0,0,-1,1679,988,0,0
462,36,0,0,0,0,0,0,0,0,0,-1,1686,988,0,0
469,36,0,0,0,0,0,0,0,0,0,-1,1693,988,0,0
476,36,0,0,0,0,0,0,0,0,0,-1,1700,988,0,0
483,36,0,0,0,0,0,0,0,0,0,-1,1707,988,0,0
490,36,0,0,0,0,0,0,0,0,0,-1,1714,988,0,0
497,36,0,0,0,0,0,0,0,0,0,-1,1721,988,0,0
504,36,0,0,0,0,0,0,0,0,0,-1,1728,988,0,0
511,36,0,0,0,0,0,0,0,0,0,-1,1735,988,0,0
518,36,0,0,0,0,0,0,0,0,0,-1,1742,988,0,0
525,36,0,0,0,0,0,0,0,0,0,-1,1749,988,0,0
532,36,0,0,0,0,0,0,0,0,0,-1,1756,988,0,0
539,36,0,0,0,0,0,0,0,0,0,-1,1763,988,0,0
546,36,0,0,0,0,0,0,0,0,0,-1,1770,988,0,0
553,36,0,0,0,0,0,0,0,0,0,-1,1777,988,0,0
560,36,0,0,0,0,0,0,0,0,0,-1,1784,988,0,0
567,36,0,0,0,0,0,0,0,0,0,-1,1791,988,0,0
574,36,0,0,0,0,0,0,0,0,0,-1,1798,988,0,0
581,36,0,0,0,0,0,0,0,0,0,-1,1805,988,0,0
588,36,0,0,0,0,0,0,0,0,0,-1,1812,988,0,0
595,36,0,0,0,0,0,0,0,0,0,-1,1819,988,0,0
602,36,0,0,0,0,0,0,0,0,0,-1,1826,988,0,0
609,36,0,0,0,0,0,0,0,0,0,-1,1833,988,0,0
616,36,0,0,0,0,0,0,0,0,0,-1,1840,988,0,0
623,36,0,0,0,0,0,0,0,0,0,-1,1847,988,0,0
630,36,0,0,0,0,0,0,0,0,0,-1,1854,988,0,0
637,36,0,0,0,0,0,0,0,0,0,-1,1861,988,0,0
644,36,15.1498,2.18976,0.00547857,0.00285018,0.00460726,0.0089554,-0.000626647,0.646466,0.00618973,0.0403047,1868,988,15.1498,-2.18973
651,36,15.1804,2.27979,0.00355949,0.00244015,0.00259396,0.00565347,0.000346174,0.679148,0.00365905,0.0396868,1875,988,15.1804,-2.27977
658,36,15.2847,2.3299,0.00222739,0.00203063,0.00143026,0.00356264,0.000695371,0.75106,0.00218058,0.0373165,1882,988,15.2846,-2.32991
665,36,15.3977,2.35913,0.00108543,0.00175528,0.000981122,0.00245707,0.000383637,0.949882,0.00152632,0.0366527,1889,988,15.3977,-2.35912
672,36,15.4229,2.20264,-0.000196068,0.00151054,0.00105511,0.00201422,-0.000699743,1.12542,0.00162701,0.0389463,1896,988,15.4229,-2.20263
679,36,15.2468,2.30017,-0.00162768,0.00130757,0.00146654,0.00191471,-0.00223482,1.17828,0.00239811,0.0405959,1903,988,15.2468,-2.30018
686,36,15.1066,2.47595,-0.00281577,0.00111211,0.00197886,0.00193617,-0.00363983,1.17621,0.00326901,0.0385831,1910,988,15.1065,-2.47597
693,36,15.1727,2.28546,-0.00377405,0.000916865,0.00249696,0.00199719,-0.00485437,1.16246,0.00406878,0.0401912,1917,988,15.1727,-2.28546
700,36,15.2332,2.22351,-0.00461214,0.000788785,0.0028095,0.00198522,-0.00580858,1.1682,0.00467675,0.0369962,1924,988,15.2332,-2.22348
707,36,15.152,2.30383,-0.00526821,0.000722159,0.00308432,0.0020263,-0.00657235,1.17077,0.00519056,0.0245144,1931,988,15.152,-2.30386
714,36,15.1821,2.38666,-0.00566342,0.000657836,0.00315669,0.00196423,-0.00696982,1.17841,0.00542123,0.0248358,1938,988,15.1821,-2.38663
721,36,15.0663,2.74188,-0.00576233,0.000631548,0.00315948,0.00192935,-0.00706014,1.18104,0.00546461,0.0313315,1945,988,15.0663,-2.74185
728,36,14.7725,2.97052,-0.00560816,0.000672516,0.0031503,0.00198033,-0.00691598,1.17731,0.00539335,0.0201271,1952,988,14.7725,-2.97052
735,36,14.6022,3.05261,-0.00547813,0.000714579,0.00273752,0.00175119,-0.00651474,1.20881,0.00502956,0.0165479,1959,988,14.6022,-3.05259
742,36,14.625,3.0766,-0.00602661,0.000967553,0.0020058,0.00150195,-0.00656101,1.31042,0.00495118,0.0137905,1966,988,14.625,-3.0766
749,36,14.6626,3.10535,-0.00740409,0.00132627,0.00129924,0.00151552,-0.00759334,1.42615,0.00563574,0.0150317,1973,988,14.6626,-3.10532
756,36,14.639,3.15137,-0.00875227,0.00214732,0.000116784,0.00214858,-0.00875352,1.56008,0.00666827,0.012766,1980,988,14.6391,-3.15138
763,36,14.6215,3.20337,-0.010416,0.00293379,-0.00103911,0.00301418,-0.0104964,-1.49358,0.00818939,0.0140228,1987,988,14.6215,-3.20336
770,36,14.6235,3.23047,-0.0132551,0.00411321,-0.00221141,0.00439036,-0.0135323,-1.44612,0.010787,0.0121843,1994,988,14.6236,-3.23047
777,36,14.579,3.28094,-0.0173692,0.0056395,-0.00340364,0.00613244,-0.0178621,-1.42697,0.0143944,0.0201957,2001,988,14.579,-3.28094
784,36,14.4652,3.39368,-0.0231693,0.00773635,-0.00473837,0.00844651,-0.0238795,-1.42203,0.0193594,0.0411586,2008,988,14.4652,-3.39366
791,36,14.0369,3.2041,-0.0304048,0.0105155,-0.00640596,0.0114949,-0.0313841,-1.41908,0.0256286,0.044128,2015,988,14.0369,-3.2041
798,36,13.5801,3.46533,-0.0388251,0.0141745,-0.00858672,0.015531,-0.0401816,-1.41412,0.0331986,0.0420233,2022,988,13.5801,-3.46532
805,36,13.1836,3.46844,-0.0483681,0.0190154,-0.0113647,0.0208805,-0.0502332,-1.40813,0.0422072,0.0463781,2029,988,13.1836,-3.46845
812,36,12.7295,3.50659,0,0,0,0,0,0,0,-1,2036,988,12.7294,-3.50662
-700,29,0,0,0,0,0,0,0,0,0,-1,524,995,0,0
-693,29,-8.35199,2.20117,0,0,0,0,0,0,0,-1,531,995,-8.35202,-2.20117
-686,29,-8.96332,1.99469,0,0,0,0,0,0,0,-1,538,995,-8.96329,-1.99467
-679,29,-8.68561,2.00061,0,0,0,0,0,0,0,-1,545,995,-8.68564,-2.00064
-672,29,-8.72272,1.89185,0,0,0,0,0,0,0,-1,552,995,-8.72271,-1.89187
-665,29,-8.81409,1.69678,0.00288556,0.0621688,-0.00103293,0.0621868,0.00286757,-1.55338,0.0405359,0.0450199,559,995,-8.81409,-1.69679
-658,29,-8.95673,1.5484,0.000129458,0.046332,-0.000996777,0.0463535,0.000107963,-1.54924,0.0308664,0.0448678,566,995,-8.95675,-1.54838
-651,29,-8.99585,1.32477,-0.00148034,0.0334882,-0.00090435,0.0335116,-0.00150371,-1.54496,0.0228588,0.0336862,573,995,-8.99585,-1.32478
-644,29,-9.06952,1.1355,-0.00222842,0.0235718,-0.000827539,0.0235983,-0.00225494,-1.53877,0.0165352,0.0162948,580,995,-9.0695,-1.13552
-637,29,-9.12762,1.09515,-0.00238213,0.016053,-0.000948178,0.0161017,-0.00243077,-1.51954,0.0116297,0.0113227,587,995,-9.1276,-1.09514
-630,29,-9.14581,1.09808,-0.00246953,0.0106391,-0.00118073,0.0107446,-0.00257503,-1.48168,0.00815802,0.00980346,594,995,-9.1458,-1.09807
-623,29,-9.15497,1.07855,-0.00282165,0.00726366,-0.00147764,0.0074757,-0.00303369,-1.42827,0.00624565,0.0108158,601,995,-9.15494,-1.07858
-616,29,-9.13159,1.02753,-0.00258004,0.00351826,-0.00201902,0.00412613,-0.0031879,-1.27836,0.00423432,0.0138027,608,995,-9.13158,-1.0275
-609,29,-9.10028,1.02692,-0.00205878,0.00112996,-0.00213781,0.00220247,-0.00313129,-1.1058,0.00309497,0.0201457,615,995,-9.10026,-1.02692
-602,29,-9.11621,1.01819,-0.0017633,0.000443971,-0.00220938,0.00181002,-0.00312935,-1.01703,0.00288546,0.0207339,622,995,-9.1162,-1.01819
-595,29,-9.13824,0.958313,-0.00165162,0.00041625,-0.00247619,0.0020657,-0.00330106,-0.98317,0.00312574,0.0191679,629,995,-9.13826,-0.958315
-588,29,-9.16516,0.763367,-0.00151497,0.0004085,-0.002939,0.00253912,-0.00364559,-0.943523,0.00358974,0.0222783,636,995,-9.16516,-0.763392
-581,29,-9.20703,0.530151,-0.00134223,0.000126322,-0.0030627,0.00254154,-0.00375745,-0.903051,0.00365924,0.0341554,643,995,-9.207,-0.530132
-574,29,-9.18109,0.520447,-0.0010722,0.000214264,-0.002978,0.00261771,-0.00347564,-0.891761,0.0035296,0.0314134,650,995,-9.18108,-0.520453
-567,29,-9.19086,0.469788,-0.000740779,0.000202193,-0.00285143,0.00262085,-0.00315944,-0.867332,0.00334208,0.0327458,657,995,-9.19087,-0.469772
-560,29,-9.25836,0.411072,-0.000213094,0.000185052,-0.00257813,0.00257178,-0.00259983,-0.82393,0.00298585,0.0384005,664,995,-9.25839,-0.411061
-553,29,-9.3288,0.488159,0.000590045,0.00014156,-0.00215169,0.00252915,-0.00179754,-0.733477,0.00250989,0.0439376,671,995,-9.32879,-0.488174
-546,29,-9.44818,0.524292,0.0016697,4.67783e-05,-0.00154898,0.00260689,-0.000890418,-0.544119,0.00209867,0.0460736,678,995,-9.4482,-0.524318
-539,29,-9.29468,0.180115,0.0030592,-0.000118625,-0.00082246,0.00325945,-0.00031887,-0.238824,0.00228668,0.042844,685,995,-9.29469,-0.180098
-532,29,-8.98718,-0.0905762,0.00459051,-0.000222177,-0.000115756,0.0045933,-0.00022496,-0.0240338,0.00313987,0.0447914,692,995,-8.98717,0.0905629
-525,29,-8.91327,0.0545654,0.00601577,-7.60078e-05,0.000827564,0.00612619,-0.00018643,0.132647,0.00414767,0.0448655,699,995,-8.91325,-0.0545705
-518,29,0,0,0,0,0,0,0,0,0,-1,706,995,0,0
-511,29,0,0,0,0,0,0,0,0,0,-1,713,995,0,0
-504,29,0,0,0,0,0,0,0,0,0,-1,720,995,0,0
-497,29,0,0,0,0,0,0,0,0,0,-1,727,995,0,0
-490,29,0,0,0,0,0,0,0,0,0,-1,734,995,0,0
-483,29,0,0,0,0,0,0,0,0,0,-1,741,995,0,0
-476,29,0,0,0,0,0,0,0,0,0,-1,748,995,0,0
-469,29,0,0,0,0,0,0,0,0,0,-1,755,995,0,0
-462,29,0,0,0,0,0,0,0,0,0,-1,762,995,0,0
-455,29,0,0,0,0,0,0,0,0,0,-1,769,995,0,0
-448,29,0,0,0,0,0,0,0,0,0,-1,776,995,0,0
-441,29,0,0,0,0,0,0,0,0,0,-1,783,995,0,0
-434,29,0,0,0,0,0,0,0,0,0,-1,790,995,0,0
-427,29,0,0,0,0,0,0,0,0,0,-1,797,995,0,0
-420,29,0,0,0,0,0,0,0,0,0,-1,804,995,0,0
-413,29,0,0,0,0,0,0,0,0,0,-1,811,995,0,0
-406,29,0,0,0,0,0,0,0,0,0,-1,818,995,0,0
-399,29,0,0,0,0,0,0,0,0,0,-1,825,995,0,0
-392,29,0,0,0,0,0,0,0,0,0,-1,832,995,0,0
-385,29,0,0,0,0,0,0,0,0,0,-1,839,995,0,0
-378,29,0,0,0,0,0,0,0,0,0,-1,846,995,0,0
-371,29,0,0,0,0,0,0,0,0,0,-1,853,995,0,0
-364,29,0,0,0,0,0,0,0,0,0,-1,860,995,0,0
-357,29,0,0,0,0,0,0,0,0,0,-1,867,995,0,0
-350,29,0,0,0,0,0,0,0,0,0,-1,874,995,0,0
-343,29,0,0,0,0,0,0,0,0,0,-1,881,995,0,0
-336,29,0,0,0,0,0,0,0,0,0,-1,888,995,0,0
-329,29,0,0,0,0,0,0,0,0,0,-1,895,995,0,0
-322,29,0,0,0,0,0,0,0,0,0,-1,902,995,0,0
-315,29,0,0,0,0,0,0,0,0,0,-1,909,995,0,0
-308,29,0,0,0,0,0,0,0,0,0,-1,916,995,0,0
-301,29,0,0,0,0,0,0,0,0,0,-1,923,995,0,0
-294,29,0,0,0,0,0,0,0,0,0,-1,930,995,0,0
-287,29,0,0,0,0,0,0,0,0,0,-1,937,995,0,0
-280,29,0,0,0,0,0,0,0,0,0,-1,944,995,0,0
-273,29,0,0,0,0,0,0,0,0,0,-1,951,995,0,0
-266,29,0,0,0,0,0,0,0,0,0,-1,958,995,0,0
-259,29,0,0,0,0,0,0,0,0,0,-1,965,995,0,0
-252,29,0,0,0,0,0,0,0,0,0,-1,972,995,0,0
-245,29,0,0,0,0,0,0,0,0,0,-1,979,995,0,0
-238,29,0,0,0,0,0,0,0,0,0,-1,986,995,0,0
-231,29,0,0,0,0,0,0,0,0,0,-1,993,995,0,0
-224,29,0,0,0,0,0,0,0,0,0,-1,1000,995,0,0
-217,29,0,0,0,0,0,0,0,0,0,-1,1007,995,0,0
-210,29,0,0,0,0,0,0,0,0,0,-1,1014,995,0,0
-203,29,0,0,0,0,0,0,0,0,0,-1,1021,995,0,0
-196,29,0,0,0,0,0,0,0,0,0,-1,1028,995,0,0
-189,29,0,0,0,0,0,0,0,0,0,-1,1035,995,0,0
-182,29,0,0,0,0,0,0,0,0,0,-1,1042,995,0,0
-175,29,0,0,0,0,0,0,0,0,0,-1,1049,995,0,0
-168,29,0,0,0,0,0,0,0,0,0,-1,1056,995,0,0
-161,29,0,0,0,0,0,0,0,0,0,-1,1063,995,0,0
-154,29,0,0,0,0,0,0,0,0,0,-1,1070,995,0,0
-147,29,0,0,0,0,0,0,0,0,0,-1,1077,995,0,0
-140,29,0,0,0,0,0,0,0,0,0,-1,1084,995,0,0
-133,29,0,0,0,0,0,0,0,0,0,-1,1091,995,0,0
-126,29,0,0,0,0,0,0,0,0,0,-1,1098,995,0,0
-119,29,0,0,0,0,0,0,0,0,0,-1,1105,995,0,0
-112,29,0,0,0,0,0,0,0,0,0,-1,1112,995,0,0
-105,29,0,0,0,0,0,0,0,0,0,-1,1119,995,0,0
-98,29,0,0,0,0,0,0,0,0,0,-1,1126,995,0,0
-91,29,0,0,0,0,0,0,0,0,0,-1,1133,995,0,0
-84,29,0,0,0,0,0,0,0,0,0,-1,1140,995,0,0
-77,29,0,0,0,0,0,0,0,0,0,-1,1147,995,0,0
-70,29,0,0,0,0,0,0,0,0,0,-1,1154,995,0,0
-63,29,0,0,0,0,0,0,0,0,0,-1,1161,995,0,0
-56,29,0,0,0,0,0,0,0,0,0,-1,1168,995,0,0
-49,29,0,0,0,0,0,0,0,0,0,-1,1175,995,0,0
-42,29,0,0,0,0,0,0,0,0,0,-1,1182,995,0,0
-35,29,0,0,0,0,0,0,0,0,0,-1,1189,995,0,0
-28,29,0,0,0,0,0,0,0,0,0,-1,1196,995,0,0
-21,29,0,0,0,0,0,0,0,0,0,-1,1203,995,0,0
-14,29,0,0,0,0,0,0,0,0,0,-1,1210,995,0,0
-7,29,0,0,0,0,0,0,0,0,0,-1,1217,995,0,0
0,29,0,0,0,0,0,0,0,0,0,-1,1224,995,0,0
7,29,0,0,0,0,0,0,0,0,0,-1,1231,995,0,0
14,29,0,0,0,0,0,0,0,0,0,-1,1238,995,0,0
21,29,0,0,0,0,0,0,0,0,0,-1,1245,995,0,0
28,29,0,0,0,0,0,0,0,0,0,-1,1252,995,0,0
35,29,0,0,0,0,0,0,0,0,0,-1,1259,995,0,0
42,29,0,0,0,0,0,0,0,0,0,-1,1266,995,0,0
49,29,0,0,0,0,0,0,0,0,0,-1,1273,995,0,0
56,29,0,0,0,0,0,0,0,0,0,-1,1280,995,0,0
63,29,0,0,0,0,0,0,0,0,0,-1,1287,995,0,0
70,29,0,0,0,0,0,0,0,0,0,-1,1294,995,0,0
77,29,0,0,0,0,0,0,0,0,0,-1,1301,995,0,0
84,29,0,0,0,0,0,0,0,0,0,-1,1308,995,0,0
91,29,0,0,0,0,0,0,0,0,0,-1,1315,995,0,0
98,29,0,0,0,0,0,0,0,0,0,-1,1322,995,0,0
105,29,0,0,0,0,0,0,0,0,0,-1,1329,995,0,0
112,29,0,0,0,0,0,0,0,0,0,-1,1336,995,0,0
119,29,0,0,0,0,0,0,0,0,0,-1,1343,995,0,0
126,29,0,0,0,0,0,0,0,0,0,-1,1350,995,0,0
133,29,0,0,0,0,0,0,0,0,0,-1,1357,995,0,0
140,29,0,0,0,0,0,0,0,0,0,-1,1364,995,0,0
147,29,0,0,0,0,0,0,0,0,0,-1,1371,995,0,0
154,29,0,0,0,0,0,0,0,0,0,-1,1378,995,0,0
161,29,0,0,0,0,0,0,0,0,0,-1,1385,995,0,0
168,29,0,0,0,0,0,0,0,0,0,-1,1392,995,0,0
175,29,0,0,0,0,0,0,0,0,0,-1,1399,995,0,0
182,29,0,0,0,0,0,0,0,0,0,-1,1406,995,0,0
189,29,0,0,0,0,0,0,0,0,0,-1,1413,995,0,0
196,29,0,0,0,0,0,0,0,0,0,-1,1420,995,0,0
203,29,0,0,0,0,0,0,0,0,0,-1,1427,995,0,0
210,29,0,0,0,0,0,0,0,0,0,-1,1434,995,0,0
217,29,0,0,0,0,0,0,0,0,0,-1,1441,995,0,0
224,29,0,0,0,0,0,0,0,0,0,-1,1448,995,0,0
231,29,0,0,0,0,0,0,0,0,0,-1,1455,995,0,0
238,29,0,0,0,0,0,0,0,0,0,-1,1462,995,0,0
245,29,0,0,0,0,0,0,0,0,0,-1,1469,995,0,0
252,29,0,0,0,0,0,0,0,0,0,-1,1476,995,0,0
259,29,0,0,0,0,0,0,0,0,0,-1,1483,995,0,0
266,29,0,0,0,0,0,0,0,0,0,-1,1490,995,0,0
273,29,0,0,0,0,0,0,0,0,0,-1,1497,995,0,0
280,29,0,0,0,0,0,0,0,0,0,-1,1504,995,0,0
287,29,0,0,0,0,0,0,0,0,0,-1,1511,995,0,0
294,29,0,0,0,0,0,0,0,0,0,-1,1518,995,0,0
301,29,0,0,0,0,0,0,0,0,0,-1,1525,995,0,0
308,29,0,0,0,0,0,0,0,0,0,-1,1532,995,0,0
315,29,0,0,0,0,0,0,0,0,0,-1,1539,995,0,0
322,29,0,0,0,0,0,0,0,0,0,-1,1546,995,0,0
329,29,0,0,0,0,0,0,0,0,0,-1,1553,995,0,0
336,29,0,0,0,0,0,0,0,0,0,-1,1560,995,0,0
343,29,0,0,0,0,0,0,0,0,0,-1,1567,995,0,0
350,29,0,0,0,0,0,0,0,0,0,-1,1574,995,0,0
357,29,0,0,0,0,0,0,0,0,0,-1,1581,995,0,0
364,29,0,0,0,0,0,0,0,0,0,-1,1588,995,0,0
371,29,0,0,0,0,0,0,0,0,0,-1,1595,995,0,0
378,29,0,0,0,0,0,0,0,0,0,-1,1602,995,0,0
385,29,0,0,0,0,0,0,0,0,0,-1,1609,995,0,0
392,29,0,0,0,0,0,0,0,0,0,-1,1616,995,0,0
399,29,0,0,0,0,0,0,0,0,0,-1,1623,995,0,0
406,29,0,0,0,0,0,0,0,0,0,-1,1630,995,0,0
413,29,0,0,0,0,0,0,0,0,0,-1,1637,995,0,0
420,29,0,0,0,0,0,0,0,0,0,-1,1644,995,0,0
427,29,0,0,0,0,0,0,0,0,0,-1,1651,995,0,0
434,29,0,0,0,0,0,0,0,0,0,-1,1658,995,0,0
441,29,0,0,0,0,0,0,0,0,0,-1,1665,995,0,0
448,29,0,0,0,0,0,0,0,0,0,-1,1672,995,0,0
455,29,0,0,0,0,0,0,0,0,0,-1,1679,995,0,0
462,29,0,0,0,0,0,0,0,0,0,-1,1686,995,0,0
469,29,0,0,0,0,0,0,0,0,0,-1,1693,995,0,0
476,29,0,0,0,0,0,0,0,0,0,-1,1700,995,0,0
483,29,0,0,0,0,0,0,0,0,0,-1,1707,995,0,0
490,29,0,0,0,0,0,0,0,0,0,-1,1714,995,0,0
497,29,0,0,0,0,0,0,0,0,0,-1,1721,995,0,0
504,29,0,0,0,0,0,0,0,0,0,-1,1728,995,0,0
511,29,0,0,0,0,0,0,0,0,0,-1,1735,995,0,0
518,29,0,0,0,0,0,0,0,0,0,-1,1742,995,0,0
525,29,0,0,0,0,0,0,0,0,0,-1,1749,995,0,0
532,29,0,0,0,0,0,0,0,0,0,-1,1756,995,0,0
539,29,0,0,0,0,0,0,0,0,0,-1,1763,995,0,0
546,29,0,0,0,0,0,0,0,0,0,-1,1770,995,0,0
553,29,0,0,0,0,0,0,0,0,0,-1,1777,995,0,0
560,29,0,0,0,0,0,0,0,0,0,-1,1784,995,0,0
567,29,0,0,0,0,0,0,0,0,0,-1,1791,995,0,0
574,29,0,0,0,0,0,0,0,0,0,-1,1798,995,0,0
581,29,0,0,0,0,0,0,0,0,0,-1,1805,995,0,0
588,29,0,0,0,0,0,0,0,0,0,-1,1812,995,0,0
595,29,0,0,0,0,0,0,0,0,0,-1,1819,995,0,0
602,29,0,0,0,0,0,0,0,0,0,-1,1826,995,0,0
609,29,0,0,0,0,0,0,0,0,0,-1,1833,995,0,0
616,29,0,0,0,0,0,0,0,0,0,-1,1840,995,0,0
623,29,0,0,0,0,0,0,0,0,0,-1,1847,995,0,0
630,29,0,0,0,0,0,0,0,0,0,-1,1854,995,0,0
637,29,0,0,0,0,0,0,0,0,0,-1,1861,995,0,0
644,29,15.2152,2.52319,0.00702018,0.00283816,0.00484447,0.0102056,-0.000347308,0.581662,0.00692244,0.0412453,1868,995,15.2152,-2.52318
651,29,15.1223,2.51172,0.00453082,0.00242995,0.0027856,0.00645745,0.000503311,0.605095,0.00414739,0.0430903,1875,995,15.1224,-2.51169
658,29,15.203,2.5238,0.00286782,0.001961,0.00155868,0.0040377,0.00079113,0.643857,0.00247068,0.0430155,1882,995,15.203,-2.52381
665,29,15.2938,2.63116,0.00160389,0.00164008,0.0010501,0.00267225,0.000571728,0.794013,0.0016248,0.040504,1889,995,15.2938,-2.63117
672,29,15.3732,2.33929,0.000316382,0.00137551,0.00111066,0.0020764,-0.000384505,1.00786,0.00152864,0.0403669,1896,995,15.3732,-2.33929
679,29,15.1237,2.40149,-0.00111929,0.00117566,0.00154491,0.00195262,-0.00189625,1.10482,0.00222223,0.0405684,1903,995,15.1237,-2.40151
686,29,15.0929,2.42004,-0.00230936,0.000996922,0.00209874,0.0020154,-0.00332784,1.11899,0.00311579,0.0375495,1910,995,15.0929,-2.42003
693,29,15.1691,2.26373,-0.00326585,0.000835692,0.00266007,0.00214373,-0.00457389,1.11378,0.00396212,0.0396705,1917,995,15.169,-2.26372
700,29,15.223,2.19177,-0.00413542,0.000729884,0.00301057,0.00216781,-0.00557334,1.12521,0.00461126,0.036798,1924,995,15.223,-2.19178
707,29,15.1477,2.29944,-0.00480194,0.00069449,0.00335302,0.00228164,-0.0063891,1.12869,0.00518991,0.0233336,1931,995,15.1477,-2.29943
714,29,15.1722,2.47571,-0.00522731,0.000657615,0.00346617,0.00226185,-0.00683154,1.13733,0.00546658,0.0215407,1938,995,15.1722,-2.47568
721,29,15.0614,2.76691,-0.00538962,0.00066243,0.00348997,0.00225558,-0.00698277,1.14256,0.00556165,0.0268793,1945,995,15.0614,-2.76689
728,29,14.7733,2.9444,-0.00530236,0.000747449,0.00350605,0.00235314,-0.00690805,1.14133,0.00555834,0.0203594,1952,995,14.7733,-2.94442
735,29,14.6459,3.05328,-0.00525108,0.000848788,0.00310203,0.0021491,-0.0065514,1.17386,0.00523319,0.0147127,1959,995,14.6459,-3.05331
742,29,14.6685,3.07935,-0.00585835,0.00113991,0.00231158,0.0018345,-0.00655295,1.2789,0.00509151,0.0120028,1966,995,14.6685,-3.07933
749,29,14.7056,3.1134,-0.00726297,0.00160429,0.00153025,0.00186094,-0.00751962,1.40462,0.00573493,0.0121766,1973,995,14.7056,-3.11339
756,29,14.7052,3.1723,-0.00851152,0.00261915,0.000137444,0.00262085,-0.00851322,1.55845,0.00672163,0.0110717,1980,995,14.7052,-3.17229
763,29,14.693,3.21216,-0.0099992,0.00364208,-0.0012582,0.00375716,-0.0101143,-1.47959,0.00828428,0.00999221,1987,995,14.693,-3.21215
770,29,14.6572,3.23218,-0.0124947,0.00510916,-0.00278671,0.00553976,-0.0129253,-1.41749,0.0109414,0.01052,1994,995,14.6572,-3.23217
777,29,14.6235,3.29346,-0.0160552,0.00708157,-0.00446089,0.00791186,-0.0168855,-1.38678,0.0146259,0.0190233,2001,995,14.6235,-3.29344
784,29,14.5564,3.40649,-0.0210094,0.00978941,-0.00640422,0.011068,-0.022288,-1.37374,0.0196179,0.0400123,2008,995,14.5564,-3.4065
791,29,14.4237,3.50299,-0.0270204,0.0133693,-0.00885718,0.0152263,-0.0288773,-1.36414,0.0258666,0.0434315,2015,995,14.4237,-3.50297
798,29,13.4966,3.11993,-0.0336527,0.0180474,-0.0120517,0.0207187,-0.036324,-1.35267,0.0333419,0.041253,2022,995,13.4965,-3.11995
805,29,13.1409,3.20544,0,0,0,0,0,0,0,-1,2029,995,13.1409,-3.20543
812,29,13.5315,5.98877,0,0,0,0,0,0,0,-1,2036,995,13.5314,-5.9888
-700,22,0,0,0,0,0,0,0,0,0,-1,524,1002,0,0
-693,22,-8.53198,1.03961,0,0,0,0,0,0,0,-1,531,1002,-8.53195,-1.03963
-686,22,-9.17096,1.02948,0,0,0,0,0,0,0,-1,538,1002,-9.17093,-1.0295
-679,22,-9.52502,1.30701,0,0,0,0,0,0,0,-1,545,1002,-9.52503,-1.30703
-672,22,-8.68634,1.849,0,0,0,0,0,0,0,-1,552,1002,-8.68637,-1.84898
-665,22,-8.75989,1.69012,0,0,0,0,0,0,0,-1,559,1002,-8.75989,-1.69013
-658,22,-9.00409,1.17883,0,0,0,0,0,0,0,-1,566,1002,-9.00409,-1.17885
-651,22,-9.0307,1.16913,0.00323452,0.0243046,0.00380516,0.0249707,0.00256838,1.39749,0.0158605,0.0362929,573,1002,-9.03069,-1.16914
-644,22,-9.08673,1.13416,0.00126625,0.0168537,0.00244426,0.017228,0.000891956,1.41884,0.0111998,0.0164826,580,1002,-9.08674,-1.13416
-637,22,-9.14069,1.10181,0.000120165,0.0112819,0.00118391,0.0114061,-4.0303e-06,1.46628,0.00760538,0.0116356,587,1002,-9.14068,-1.10183
-630,22,-9.1618,1.08917,-0.000751708,0.00735605,0.000116783,0.00735773,-0.00075339,1.5564,0.0051746,0.0098815,594,1002,-9.16182,-1.08914
-623,22,-9.18042,1.0683,-0.00179341,0.00485088,-0.000872122,0.00496345,-0.00190598,-1.44243,0.00409492,0.0103976,601,1002,-9.18041,-1.06833
-616,22,-9.17578,1.0332,-0.00193302,0.00211178,-0.00182935,0.0028164,-0.00263764,-1.20314,0.00314945,0.0171475,608,1002,-9.17575,-1.0332
-609,22,-9.1488,1.01868,-0.00156975,0.000370703,-0.00221224,0.00181612,-0.00301517,-0.992054,0.00281783,0.0261125,615,1002,-9.14878,-1.01869
-602,22,-9.18854,1.01257,-0.00135469,0.000133824,-0.0024664,0.00196581,-0.00318668,-0.931933,0.0030025,0.0243095,622,1002,-9.18855,-1.0126
-595,22,-9.22375,0.946838,-0.00128315,2.09276e-05,-0.00273603,0.00218154,-0.00344376,-0.902374,0.00327491,0.0207387,629,1002,-9.22374,-0.946863
-588,22,-9.21039,0.741089,-0.00116502,-9.9764e-05,-0.00311243,0.00252529,-0.00379007,-0.870142,0.00367046,0.0274772,636,1002,-9.21039,-0.741116
-581,22,-9.24707,0.470703,-0.00103701,-0.000495757,-0.00318072,0.00242583,-0.0039586,-0.827838,0.00372129,0.0363746,643,1002,-9.2471,-0.470693
-574,22,-9.21765,0.489624,-0.000856905,-0.000519597,-0.00303064,0.00234707,-0.00372358,-0.813194,0.0035348,0.0334977,650,1002,-9.21765,-0.489603
-567,22,-9.17987,0.605957,-0.000659816,-0.000646484,-0.00279976,0.00214662,-0.00345292,-0.786589,0.00326208,0.0331912,657,1002,-9.17989,-0.605979
-560,22,-9.16089,0.516113,-0.000328649,-0.000770661,-0.00240264,0.00186313,-0.00296244,-0.739535,0.00281003,0.0372042,664,1002,-9.1609,-0.516131
-553,22,-9.15796,0.490967,0.000193596,-0.000909675,-0.00183135,0.00155459,-0.00227067,-0.639111,0.00222137,0.0400765,671,1002,-9.15796,-0.490982
-546,22,-9.17334,0.418823,0.000885179,-0.0010819,-0.00106656,0.00135247,-0.00154918,-0.412936,0.00167655,0.0433282,678,1002,-9.17332,-0.418795
-539,22,-9.25812,0.455566,0.0017697,-0.00130199,-0.000201887,0.00178291,-0.00131521,-0.0653503,0.00179548,0.0423962,685,1002,-9.25812,-0.455555
-532,22,-9.1405,0.438416,0.00266694,-0.00140947,0.000559583,0.00274236,-0.00148489,0.133973,0.00247633,0.043878,692,1002,-9.14051,-0.438405
-525,22,0,0,0,0,0,0,0,0,0,-1,699,1002,0,0
-518,22,0,0,0,0,0,0,0,0,0,-1,706,1002,0,0
-511,22,0,0,0,0,0,0,0,0,0,-1,713,1002,0,0
-504,22,0,0,0,0,0,0,0,0,0,-1,720,1002,0,0
-497,22,0,0,0,0,0,0,0,0,0,-1,727,1002,0,0
-490,22,0,0,0,0,0,0,0,0,0,-1,734,1002,0,0
-483,22,0,0,0,0,0,0,0,0,0,-1,741,1002,0,0
-476,22,0,0,0,0,0,0,0,0,0,-1,748,1002,0,0
-469,22,0,0,0,0,0,0,0,0,0,-1,755,1002,0,0
-462,22,0,0,0,0,0,0,0,0,0,-1,762,1002,0,0
-455,22,0,0,0,0,0,0,0,0,0,-1,769,1002,0,0
-448,22,0,0,0,0,0,0,0,0,0,-1,776,1002,0,0
-441,22,0,0,0,0,0,0,0,0,0,-1,783,1002,0,0
-434,22,0,0,0,0,0,0,0,0,0,-1,790,1002,0,0
-427,22,0,0,0,0,0,0,0,0,0,-1,797,1002,0,0
-420,22,0,0,0,0,0,0,0,0,0,-1,804,1002,0,0
-413,22,0,0,0,0,0,0,0,0,0,-1,811,1002,0,0
-406,22,0,0,0,0,0,0,0,0,0,-1,818,1002,0,0
-399,22,0,0,0,0,0,0,0,0,0,-1,825,1002,0,0
-392,22,0,0,0,0,0,0,0,0,0,-1,832,1002,0,0
-385,22,0,0,0,0,0,0,0,0,0,-1,839,1002,0,0
-378,22,0,0,0,0,0,0,0,0,0,-1,846,1002,0,0
-371,22,0,0,0,0,0,0,0,0,0,-1,853,1002,0,0
-364,22,0,0,0,0,0,0,0,0,0,-1,860,1002,0,0
-357,22,0,0,0,0,0,0,0,0,0,-1,867,1002,0,0
-350,22,0,0,0,0,0,0,0,0,0,-1,874,1002,0,0
-343,22,0,0,0,0,0,0,0,0,0,-1,881,1002,0,0
-336,22,0,0,0,0,0,0,0,0,0,-1,888,1002,0,0
-329,22,0,0,0,0,0,0,0,0,0,-1,895,1002,0,0
-322,22,0,0,0,0,0,0,0,0,0,-1,902,1002,0,0
-315,22,0,0,0,0,0,0,0,0,0,-1,909,1002,0,0
-308,22,0,0,0,0,0,0,0,0,0,-1,916,1002,0,0
-301,22,0,0,0,0,0,0,0,0,0,-1,923,1002,0,0
-294,22,0,0,0,0,0,0,0,0,0,-1,930,1002,0,0
-287,22,0,0,0,0,0,0,0,0,0,-1,937,1002,0,0
-280,22,0,0,0,0,0,0,0,0,0,-1,944,1002,0,0
-273,22,0,0,0,0,0,0,0,0,0,-1,951,1002,0,0
-266,22,0,0,0,0,0,0,0,0,0,-1,958,1002,0,0
-259,22,0,0,0,0,0,0,0,0,0,-1,965,1002,0,0
-252,22,0,0,0,0,0,0,0,0,0,-1,972,1002,0,0
-245,22,0,0,0,0,0,0,0,0,0,-1,979,1002,0,0
-238,22,0,0,0,0,0,0,0,0,0,-1,986,1002,0,0
-231,22,0,0,0,0,0,0,0,0,0,-1,993,1002,0,0
-224,22,0,0,0,0,0,0,0,0,0,-1,1000,1002,0,0
-217,22,0,0,0,0,0,0,0,0,0,-1,1007,1002,0,0
-210,22,0,0,0,0,0,0,0,0,0,-1,1014,1002,0,0
-203,22,0,0,0,0,0,0,0,0,0,-1,1021,1002,0,0
-196,22,0,0,0,0,0,0,0,0,0,-1,1028,1002,0,0
-189,22,0,0,0,0,0,0,0,0,0,-1,1035,1002,0,0
-182,22,0,0,0,0,0,0,0,0,0,-1,1042,1002,0,0
-175,22,0,0,0,0,0,0,0,0,0,-1,1049,1002,0,0
-168,22,0,0,0,0,0,0,0,0,0,-1,1056,1002,0,0
-161,22,0,0,0,0,0,0,0,0,0,-1,1063,1002,0,0
-154,22,0,0,0,0,0,0,0,0,0,-1,1070,1002,0,0
-147,22,0,0,0,0,0,0,0,0,0,-1,1077,1002,0,0
-140,22,0,0,0,0,0,0,0,0,0,-1,1084,1002,0,0
-133,22,0,0,0,0,0,0,0,0,0,-1,1091,1002,0,0
-126,22,0,0,0,0,0,0,0,0,0,-1,1098,1002,0,0
-119,22,0,0,0,0,0,0,0,0,0,-1,1105,1002,0,0
-112,22,0,0,0,0,0,0,0,0,0,-1,1112,1002,0,0
-105,22,0,0,0,0,0,0,0,0,0,-1,1119,1002,0,0
-98,22,0,0,0,0,0,0,0,0,0,-1,1126,1002,0,0
-91,22,0,0,0,0,0,0,0,0,0,-1,1133,1002,0,0
-84,22,0,0,0,0,0,0,0,0,0,-1,1140,1002,0,0
-77,22,0,0,0,0,0,0,0,0,0,-1,1147,1002,0,0
-70,22,0,0,0,0,0,0,0,0,0,-1,1154,1002,0,0
-63,22,0,0,0,0,0,0,0,0,0,-1,1161,1002,0,0
-56,22,0,0,0,0,0,0,0,0,0,-1,1168,1002,0,0
-49,22,0,0,0,0,0,0,0,0,0,-1,1175,1002,0,0
-42,22,0,0,0,0,0,0,0,0,0,-1,1182,1002,0,0
-35,22,0,0,0,0,0,0,0,0,0,-1,1189,1002,0,0
-28,22,0,0,0,0,0,0,0,0,0,-1,1196,1002,0,0
-21,22,0,0,0,0,0,0,0,0,0,-1,1203,1002,0,0
-14,22,0,0,0,0,0,0,0,0,0,-1,1210,1002,0,0
-7,22,0,0,0,0,0,0,0,0,0,-1,1217,1002,0,0
0,22,0,0,0,0,0,0,0,0,0,-1,1224,1002,0,0
7,22,0,0,0,0,0,0,0,0,0,-1,1231,1002,0,0
14,22,0,0,0,0,0,0,0,0,0,-1,1238,1002,0,0
21,22,0,0,0,0,0,0,0,0,0,-1,1245,1002,0,0
28,22,0,0,0,0,0,0,0,0,0,-1,1252,1002,0,0
35,22,0,0,0,0,0,0,0,0,0,-1,1259,1002,0,0
42,22,0,0,0,0,0,0,0,0,0,-1,1266,1002,0,0
49,22,0,0,0,0,0,0,0,0,0,-1,1273,1002,0,0
56,22,0,0,0,0,0,0,0,0,0,-1,1280,1002,0,0
63,22,0,0,0,0,0,0,0,0,0,-1,1287,1002,0,0
70,22,0,0,0,0,0,0,0,0,0,-1,1294,1002,0,0
77,22,0,0,0,0,0,0,0,0,0,-1,1301,1002,0,0
84,22,0,0,0,0,0,0,0,0,0,-1,1308,1002,0,0
91,22,0,0,0,0,0,0,0,0,0,-1,1315,1002,0,0
98,22,0,0,0,0,0,0,0,0,0,-1,1322,1002,0,0
105,22,0,0,0,0,0,0,0,0,0,-1,1329,1002,0,0
112,22,0,0,0,0,0,0,0,0,0,-1,1336,1002,0,0
119,22,0,0,0,0,0,0,0,0,0,-1,1343,1002,0,0
126,22,0,0,0,0,0,0,0,0,0,-1,1350,1002,0,0
133,22,0,0,0,0,0,0,0,0,0,-1,1357,1002,0,0
140,22,0,0,0,0,0,0,0,0,0,-1,1364,1002,0,0
147,22,0,0,0,0,0,0,0,0,0,-1,1371,1002,0,0
154,22,0,0,0,0,0,0,0,0,0,-1,1378,1002,0,0
161,22,0,0,0,0,0,0,0,0,0,-1,1385,1002,0,0
168,22,0,0,0,0,0,0,0,0,0,-1,1392,1002,0,0
175,22,0,0,0,0,0,0,0,0,0,-1,1399,1002,0,0
182,22,0,0,0,0,0,0,0,0,0,-1,1406,1002,0,0
189,22,0,0,0,0,0,0,0,0,0,-1,1413,1002,0,0
196,22,0,0,0,0,0,0,0,0,0,-1,1420,1002,0,0
203,22,0,0,0,0,0,0,0,0,0,-1,1427,1002,0,0
210,22,0,0,0,0,0,0,0,0,0,-1,1434,1002,0,0
217,22,0,0,0,0,0,0,0,0,0,-1,1441,1002,0,0
224,22,0,0,0,0,0,0,0,0,0,-1,1448,1002,0,0
231,22,0,0,0,0,0,0,0,0,0,-1,1455,1002,0,0
238,22,0,0,0,0,0,0,0,0,0,-1,1462,1002,0,0
245,22,0,0,0,0,0,0,0,0,0,-1,1469,1002,0,0
252,22,0,0,0,0,0,0,0,0,0,-1,1476,1002,0,0
259,22,0,0,0,0,0,0,0,0,0,-1,1483,1002,0,0
266,22,0,0,0,0,0,0,0,0,0,-1,1490,1002,0,0
273,22,0,0,0,0,0,0,0,0,0,-1,1497,1002,0,0
280,22,0,0,0,0,0,0,0,0,0,-1,1504,1002,0,0
287,22,0,0,0,0,0,0,0,0,0,-1,1511,1002,0,0
294,22,0,0,0,0,0,0,0,0,0,-1,1518,1002,0,0
301,22,0,0,0,0,0,0,0,0,0,-1,1525,1002,0,0
308,22,0,0,0,0,0,0,0,0,0,-1,1532,1002,0,0
315,22,0,0,0,0,0,0,0,0,0,-1,1539,1002,0,0
322,22,0,0,0,0,0,0,0,0,0,-1,1546,1002,0,0
329,22,0,0,0,0,0,0,0,0,0,-1,1553,1002,0,0
336,22,0,0,0,0,0,0,0,0,0,-1,1560,1002,0,0
343,22,0,0,0,0,0,0,0,0,0,-1,1567,1002,0,0
350,22,0,0,0,0,0,0,0,0,0,-1,1574,1002,0,0
357,22,0,0,0,0,0,0,0,0,0,-1,1581,1002,0,0
364,22,0,0,0,0,0,0,0,0,0,-1,1588,1002,0,0
371,22,0,0,0,0,0,0,0,0,0,-1,1595,1002,0,0
378,22,0,0,0,0,0,0,0,0,0,-1,1602,1002,0,0
385,22,0,0,0,0,0,0,0,0,0,-1,1609,1002,0,0
392,22,0,0,0,0,0,0,0,0,0,-1,1616,1002,0,0
399,22,0,0,0,0,0,0,0,0,0,-1,1623,1002,0,0
406,22,0,0,0,0,0,0,0,0,0,-1,1630,1002,0,0
413,22,0,0,0,0,0,0,0,0,0,-1,1637,1002,0,0
420,22,0,0,0,0,0,0,0,0,0,-1,1644,1002,0,0
427,22,0,0,0,0,0,0,0,0,0,-1,1651,1002,0,0
434,22,0,0,0,0,0,0,0,0,0,-1,1658,1002,0,0
441,22,0,0,0,0,0,0,0,0,0,-1,1665,1002,0,0
448,22,0,0,0,0,0,0,0,0,0,-1,1672,1002,0,0
455,22,0,0,0,0,0,0,0,0,0,-1,1679,1002,0,0
462,22,0,0,0,0,0,0,0,0,0,-1,1686,1002,0,0
469,22,0,0,0,0,0,0,0,0,0,-1,1693,1002,0,0
476,22,0,0,0,0,0,0,0,0,0,-1,1700,1002,0,0
483,22,0,0,0,0,0,0,0,0,0,-1,1707,1002,0,0
490,22,0,0,0,0,0,0,0,0,0,-1,1714,1002,0,0
497,22,0,0,0,0,0,0,0,0,0,-1,1721,1002,0,0
504,22,0,0,0,0,0,0,0,0,0,-1,1728,1002,0,0
511,22,0,0,0,0,0,0,0,0,0,-1,1735,1002,0,0
518,22,0,0,0,0,0,0,0,0,0,-1,1742,1002,0,0
525,22,0,0,0,0,0,0,0,0,0,-1,1749,1002,0,0
532,22,0,0,0,0,0,0,0,0,0,-1,1756,1002,0,0
539,22,0,0,0,0,0,0,0,0,0,-1,1763,1002,0,0
546,22,0,0,0,0,0,0,0,0,0,-1,1770,1002,0,0
553,22,0,0,0,0,0,0,0,0,0,-1,1777,1002,0,0
560,22,0,0,0,0,0,0,0,0,0,-1,1784,1002,0,0
567,22,0,0,0,0,0,0,0,0,0,-1,1791,1002,0,0
574,22,0,0,0,0,0,0,0,0,0,-1,1798,1002,0,0
581,22,0,0,0,0,0,0,0,0,0,-1,1805,1002,0,0
588,22,0,0,0,0,0,0,0,0,0,-1,1812,1002,0,0
595,22,0,0,0,0,0,0,0,0,0,-1,1819,1002,0,0
602,22,0,0,0,0,0,0,0,0,0,-1,1826,1002,0,0
609,22,0,0,0,0,0,0,0,0,0,-1,1833,1002,0,0
616,22,0,0,0,0,0,0,0,0,0,-1,1840,1002,0,0
623,22,0,0,0,0,0,0,0,0,0,-1,1847,1002,0,0
630,22,0,0,0,0,0,0,0,0,0,-1,1854,1002,0,0
637,22,0,0,0,0,0,0,0,0,0,-1,1861,1002,0,0
644,22,15.0349,2.29199,0.00808208,0.00300153,0.00515169,0.0112857,-0.000202146,0.556344,0.00759211,0.0405732,1868,1002,15.0349,-2.29201
651,22,15.1716,2.40295,0.00515326,0.00270198,0.00309852,0.00725974,0.000595507,0.597063,0.00465404,0.04408,1875,1002,15.1716,-2.40294
658,22,15.3386,2.44507,0.0032693,0.00220004,0.00182506,0.00463643,0.000832911,0.642916,0.00285412,0.0419892,1882,1002,15.3386,-2.44509
665,22,15.215,2.68237,0.00192796,0.00181043,0.00123814,0.00310872,0.000629663,0.761685,0.00189774,0.0378516,1889,1002,15.2149,-2.68238
672,22,15.2284,2.42902,0.000674419,0.00147057,0.00126077,0.00239462,-0.000249627,0.938315,0.00168579,0.0374044,1896,1002,15.2285,-2.42904
679,22,15.1781,2.17065,-0.000734357,0.0012013,0.00169639,0.00218653,-0.00171959,1.04463,0.00226056,0.0384923,1903,1002,15.1781,-2.17063
686,22,15.1289,2.20099,-0.00191072,0.000965691,0.00226867,0.00221361,-0.00315864,1.0679,0.00311763,0.0376318,1910,1002,15.1289,-2.201
693,22,15.1575,2.12744,-0.00285302,0.000774181,0.00284975,0.00233848,-0.00441733,1.06878,0.00396154,0.0380591,1917,1002,15.1575,-2.12742
700,22,15.2241,2.24072,-0.00375067,0.000637073,0.00323316,0.00235042,-0.00546402,1.08349,0.00462951,0.0346275,1924,1002,15.2241,-2.2407
707,22,15.1544,2.38837,-0.00441641,0.000583415,0.00362792,0.00248934,-0.00632233,1.08708,0.0052454,0.0290366,1931,1002,15.1544,-2.38836
714,22,15.1547,2.47839,-0.00484785,0.00053591,0.00376916,0.00247574,-0.00678768,1.09549,0.00553801,0.0246817,1938,1002,15.1547,-2.47841
721,22,15.1199,2.67645,-0.00505891,0.000537175,0.00379908,0.0024574,-0.00697913,1.1028,0.00565283,0.0291298,1945,1002,15.1199,-2.67644
728,22,14.7484,2.90576,-0.00503856,0.000649956,0.00383055,0.00257675,-0.00696535,1.10475,0.00570005,0.0228554,1952,1002,14.7484,-2.90579
735,22,14.7358,3.0625,-0.00504395,0.000827852,0.00344131,0.00241546,-0.00663156,1.13855,0.00540906,0.0145378,1959,1002,14.7359,-3.06248
742,22,14.7345,3.09991,-0.00563639,0.00119796,0.0025847,0.00206538,-0.00650381,1.24701,0.0051639,0.0152625,1966,1002,14.7345,-3.09992
749,22,14.7311,3.12384,-0.00695757,0.00184564,0.00172646,0.00217212,-0.00728405,1.3839,0.00571926,0.0116582,1973,1002,14.7311,-3.12384
756,22,14.7399,3.14795,-0.00801475,0.00313463,0.000174987,0.00313738,-0.0080175,1.55511,0.00664254,0.0160044,1980,1002,14.7398,-3.14793
763,22,14.7048,3.21216,-0.00924425,0.00450932,-0.00141457,0.0046533,-0.00938823,-1.46936,0.00825909,0.0154199,1987,1002,14.7048,-3.21216
770,22,14.6898,3.2157,-0.0113254,0.00639146,-0.00322686,0.00696088,-0.0118948,-1.39613,0.0110099,0.00974751,1994,1002,14.6898,-3.21573
777,22,14.6652,3.23895,-0.0142605,0.00896015,-0.00527055,0.0101005,-0.0154008,-1.35773,0.0148288,0.0183231,2001,1002,14.6651,-3.23898
784,22,14.6035,3.34705,-0.0183436,0.0124394,-0.00763087,0.0142272,-0.0201314,-1.34066,0.0199343,0.039215,2008,1002,14.6036,-3.34706
791,22,14.0883,2.95599,-0.0232166,0.0169975,-0.0105705,0.0196067,-0.0258258,-1.32879,0.0263122,0.0466202,2015,1002,14.0882,-2.95596
798,22,13.6569,2.89044,-0.0283591,0.0228843,-0.0143308,0.0266197,-0.0320946,-1.31581,0.0339478,0.0473026,2022,1002,13.6569,-2.89042
805,22,13.2211,2.88928,0,0,0,0,0,0,0,-1,2029,1002,13.221,-2.88927
812,22,13.5403,5.24115,0,0,0,0,0,0,0,-1,2036,1002,13.5403,-5.24117
-700,15,0,0,0,0,0,0,0,0,0,-1,524,1009,0,0
-693,15,-9.02258,-0.240601,0,0,0,0,0,0,0,-1,531,1009,-9.02257,0.240613
-686,15,-9.56451,0.996765,0,0,0,0,0,0,0,-1,538,1009,-9.56452,-0.996745
-679,15,-8.43115,-0.314026,0,0,0,0,0,0,0,-1,545,1009,-8.43113,0.314003
-672,15,-7.12592,0.109619,0,0,0,0,0,0,0,-1,552,1009,-7.12593,-0.109643
-665,15,-8.96991,1.50891,0,0,0,0,0,0,0,-1,559,1009,-8.96992,-1.50891
-658,15,-9.12085,1.15961,0.0105775,0.0162543,0.0106424,0.0244303,0.00240151,0.915719,0.0155483,0.0438756,566,1009,-9.12084,-1.15958
-651,15,-9.1394,1.10645,0.00660834,0.0115,0.00732161,0.0167735,0.00133483,0.946598,0.010765,0.0367133,573,1009,-9.13942,-1.10646
-644,15,-9.16852,1.09875,0.00387584,0.00824255,0.00479728,0.01133,0.00078844,0.998951,0.00730469,0.017172,580,1009,-9.16849,-1.09875
-637,15,-9.17065,1.10632,0.00206178,0.00560396,0.00263715,0.00700955,0.000656186,1.0811,0.00447039,0.0127183,587,1009,-9.17067,-1.10634
-630,15,-9.17871,1.07495,0.000618168,0.00370261,0.000933405,0.00396308,0.000357699,1.29867,0.00253126,0.0100291,594,1009,-9.17872,-1.07497
-623,15,-9.18518,1.05707,-0.000965798,0.00242466,-0.000574611,0.0025194,-0.00106053,-1.40739,0.00212331,0.00943651,601,1009,-9.18517,-1.05707
-616,15,-9.20612,1.03668,-0.00137395,0.00100781,-0.00179417,0.00197036,-0.0023365,-1.07839,0.00248956,0.0142454,608,1009,-9.20611,-1.03667
-609,15,-9.18585,1.03436,-0.00108751,-1.22632e-05,-0.00239732,0.00190698,-0.00300675,-0.895703,0.00286053,0.0191598,615,1009,-9.18586,-1.03434
-602,15,-9.19928,1.02771,-0.000926433,-0.000105059,-0.00274181,0.00225665,-0.00328814,-0.859739,0.0032197,0.0183878,622,1009,-9.19927,-1.02771
-595,15,-9.21661,0.844055,-0.00089785,-0.0002922,-0.00291702,0.00233767,-0.00352772,-0.837119,0.00340954,0.0191236,629,1009,-9.2166,-0.844031
-588,15,-9.16089,0.695984,-0.000797555,-0.000513302,-0.00319075,0.00253849,-0.00384935,-0.807655,0.00371381,0.0274238,636,1009,-9.16088,-0.695995
-581,15,-9.22327,0.508057,-0.000715764,-0.00101996,-0.00320246,0.00233821,-0.00407394,-0.761669,0.00374699,0.0350344,643,1009,-9.22327,-0.508061
-574,15,-9.22919,0.510864,-0.000624864,-0.00117326,-0.00298766,0.00210115,-0.00389927,-0.739638,0.00351581,0.0326071,650,1009,-9.22918,-0.510838
-567,15,-9.315,0.547974,-0.000550241,-0.00143261,-0.00266301,0.00170789,-0.00369074,-0.703308,0.00318621,0.034803,657,1009,-9.31499,-0.547976
-560,15,-9.23114,0.618286,-0.000410688,-0.00169358,-0.00216092,0.00120198,-0.00330625,-0.641121,0.00269568,0.0383718,664,1009,-9.23113,-0.618314
-553,15,-9.11981,0.447754,-0.000169907,-0.00197301,-0.00148075,0.000662153,-0.00280507,-0.511948,0.00212543,0.0383363,671,1009,-9.11984,-0.447747
-546,15,-9.13824,0.379639,0.000125783,-0.00228588,-0.00061597,0.000274,-0.0024341,-0.236135,0.00172135,0.0386525,678,1009,-9.13826,-0.379652
-539,15,-9.22797,0.431458,0.000488204,-0.00264488,0.000287947,0.000514448,-0.00267112,0.0908908,0.00197469,0.0382811,685,1009,-9.22795,-0.431473
-532,15,-9.2948,0.586731,0.000721255,-0.00287985,0.000951172,0.000957051,-0.00311565,0.243002,0.002459,0.0414876,692,1009,-9.29479,-0.58675
-525,15,0,0,0,0,0,0,0,0,0,-1,699,1009,0,0
-518,15,0,0,0,0,0,0,0,0,0,-1,706,1009,0,0
-511,15,0,0,0,0,0,0,0,0,0,-1,713,1009,0,0
-504,15,0,0,0,0,0,0,0,0,0,-1,720,1009,0,0
-497,15,0,0,0,0,0,0,0,0,0,-1,727,1009,0,0
-490,15,0,0,0,0,0,0,0,0,0,-1,734,1009,0,0
-483,15,0,0,0,0,0,0,0,0,0,-1,741,1009,0,0
-476,15,0,0,0,0,0,0,0,0,0,-1,748,1009,0,0
-469,15,0,0,0,0,0,0,0,0,0,-1,755,1009,0,0
-462,15,0,0,0,0,0,0,0,0,0,-1,762,1009,0,0
-455,15,0,0,0,0,0,0,0,0,0,-1,769,1009,0,0
-448,15,0,0,0,0,0,0,0,0,0,-1,776,1009,0,0
-441,15,0,0,0,0,0,0,0,0,0,-1,783,1009,0,0
-434,15,0,0,0,0,0,0,0,0,0,-1,790,1009,0,0
-427,15,0,0,0,0,0,0,0,0,0,-1,797,1009,0,0
-420,15,0,0,0,0,0,0,0,0,0,-1,804,1009,0,0
-413,15,0,0,0,0,0,0,0,0,0,-1,811,1009,0,0
-406,15,0,0,0,0,0,0,0,0,0,-1,818,1009,0,0
-399,15,0,0,0,0,0,0,0,0,0,-1,825,1009,0,0
-392,15,0,0,0,0,0,0,0,0,0,-1,832,1009,0,0
-385,15,0,0,0,0,0,0,0,0,0,-1,839,1009,0,0
-378,15,0,0,0,0,0,0,0,0,0,-1,846,1009,0,0
-371,15,0,0,0,0,0,0,0,0,0,-1,853,1009,0,0
-364,15,0,0,0,0,0,0,0,0,0,-1,860,1009,0,0
-357,15,0,0,0,0,0,0,0,0,0,-1,867,1009,0,0
-350,15,0,0,0,0,0,0,0,0,0,-1,874,1009,0,0
-343,15,0,0,0,0,0,0,0,0,0,-1,881,1009,0,0
-336,15,0,0,0,0,0,0,0,0,0,-1,888,1009,0,0
-329,15,0,0,0,0,0,0,0,0,0,-1,895,1009,0,0
-322,15,0,0,0,0,0,0,0,0,0,-1,902,1009,0,0
-315,15,0,0,0,0,0,0,0,0,0,-1,909,1009,0,0
-308,15,0,0,0,0,0,0,0,0,0,-1,916,1009,0,0
-301,15,0,0,0,0,0,0,0,0,0,-1,923,1009,0,0
-294,15,0,0,0,0,0,0,0,0,0,-1,930,1009,0,0
-287,15,0,0,0,0,0,0,0,0,0,-1,937,1009,0,0
-280,15,0,0,0,0,0,0,0,0,0,-1,944,1009,0,0
-273,15,0,0,0,0,0,0,0,0,0,-1,951,1009,0,0
-266,15,0,0,0,0,0,0,0,0,0,-1,958,1009,0,0
-259,15,0,0,0,0,0,0,0,0,0,-1,965,1009,0,0
-252,15,0,0,0,0,0,0,0,0,0,-1,972,1009,0,0
-245,15,0,0,0,0,0,0,0,0,0,-1,979,1009,0,0
-238,15,0,0,0,0,0,0,0,0,0,-1,986,1009,0,0
-231,15,0,0,0,0,0,0,0,0,0,-1,993,1009,0,0
-224,15,0,0,0,0,0,0,0,0,0,-1,1000,1009,0,0
-217,15,0,0,0,0,0,0,0,0,0,-1,1007,1009,0,0
-210,15,0,0,0,0,0,0,0,0,0,-1,1014,1009,0,0
-203,15,0,0,0,0,0,0,0,0,0,-1,1021,1009,0,0
-196,15,0,0,0,0,0,0,0,0,0,-1,1028,1009,0,0
-189,15,0,0,0,0,0,0,0,0,0,-1,1035,1009,0,0
-182,15,0,0,0,0,0,0,0,0,0,-1,1042,1009,0,0
-175,15,0,0,0,0,0,0,0,0,0,-1,1049,1009,0,0
-168,15,0,0,0,0,0,0,0,0,0,-1,1056,1009,0,0
-161,15,0,0,0,0,0,0,0,0,0,-1,1063,1009,0,0
-154,15,0,0,0,0,0,0,0,0,0,-1,1070,1009,0,0
-147,15,0,0,0,0,0,0,0,0,0,-1,1077,1009,0,0
-140,15,0,0,0,0,0,0,0,0,0,-1,1084,1009,0,0
-133,15,0,0,0,0,0,0,0,0,0,-1,1091,1009,0,0
-126,15,0,0,0,0,0,0,0,0,0,-1,1098,1009,0,0
-119,15,0,0,0,0,0,0,0,0,0,-1,1105,1009,0,0
-112,15,0,0,0,0,0,0,0,0,0,-1,1112,1009,0,0
-105,15,0,0,0,0,0,0,0,0,0,-1,1119,1009,0,0
-98,15,0,0,0,0,0,0,0,0,0,-1,1126,1009,0,0
-91,15,0,0,0,0,0,0,0,0,0,-1,1133,1009,0,0
-84,15,0,0,0,0,0,0,0,0,0,-1,1140,1009,0,0
-77,15,0,0,0,0,0,0,0,0,0,-1,1147,1009,0,0
-70,15,0,0,0,0,0,0,0,0,0,-1,1154,1009,0,0
-63,15,0,0,0,0,0,0,0,0,0,-1,1161,1009,0,0
-56,15,0,0,0,0,0,0,0,0,0,-1,1168,1009,0,0
-49,15,0,0,0,0,0,0,0,0,0,-1,1175,1009,0,0
-42,15,0,0,0,0,0,0,0,0,0,-1,1182,1009,0,0
-35,15,0,0,0,0,0,0,0,0,0,-1,1189,1009,0,0
-28,15,0,0,0,0,0,0,0,0,0,-1,1196,1009,0,0
-21,15,0,0,0,0,0,0,0,0,0,-1,1203,1009,0,0
-14,15,0,0,0,0,0,0,0,0,0,-1,1210,1009,0,0
-7,15,0,0,0,0,0,0,0,0,0,-1,1217,1009,0,0
0,15,0,0,0,0,0,0,0,0,0,-1,1224,1009,0,0
7,15,0,0,0,0,0,0,0,0,0,-1,1231,1009,0,0
14,15,0,0,0,0,0,0,0,0,0,-1,1238,1009,0,0
21,15,0,0,0,0,0,0,0,0,0,-1,1245,1009,0,0
28,15,0,0,0,0,0,0,0,0,0,-1,1252,1009,0,0
35,15,0,0,0,0,0,0,0,0,0,-1,1259,1009,0,0
42,15,0,0,0,0,0,0,0,0,0,-1,1266,1009,0,0
49,15,0,0,0,0,0,0,0,0,0,-1,1273,1009,0,0
56,15,0,0,0,0,0,0,0,0,0,-1,1280,1009,0,0
63,15,0,0,0,0,0,0,0,0,0,-1,1287,1009,0,0
70,15,0,0,0,0,0,0,0,0,0,-1,1294,1009,0,0
77,15,0,0,0,0,0,0,0,0,0,-1,1301,1009,0,0
84,15,0,0,0,0,0,0,0,0,0,-1,1308,1009,0,0
91,15,0,0,0,0,0,0,0,0,0,-1,1315,1009,0,0
98,15,0,0,0,0,0,0,0,0,0,-1,1322,1009,0,0
105,15,0,0,0,0,0,0,0,0,0,-1,1329,1009,0,0
112,15,0,0,0,0,0,0,0,0,0,-1,1336,1009,0,0
119,15,0,0,0,0,0,0,0,0,0,-1,1343,1009,0,0
126,15,0,0,0,0,0,0,0,0,0,-1,1350,1009,0,0
133,15,0,0,0,0,0,0,0,0,0,-1,1357,1009,0,0
140,15,0,0,0,0,0,0,0,0,0,-1,1364,1009,0,0
147,15,0,0,0,0,0,0,0,0,0,-1,1371,1009,0,0
154,15,0,0,0,0,0,0,0,0,0,-1,1378,1009,0,0
161,15,0,0,0,0,0,0,0,0,0,-1,1385,1009,0,0
168,15,0,0,0,0,0,0,0,0,0,-1,1392,1009,0,0
175,15,0,0,0,0,0,0,0,0,0,-1,1399,1009,0,0
182,15,0,0,0,0,0,0,0,0,0,-1,1406,1009,0,0
189,15,0,0,0,0,0,0,0,0,0,-1,1413,1009,0,0
196,15,0,0,0,0,0,0,0,0,0,-1,1420,1009,0,0
203,15,0,0,0,0,0,0,0,0,0,-1,1427,1009,0,0
210,15,0,0,0,0,0,0,0,0,0,-1,1434,1009,0,0
217,15,0,0,0,0,0,0,0,0,0,-1,1441,1009,0,0
224,15,0,0,0,0,0,0,0,0,0,-1,1448,1009,0,0
231,15,0,0,0,0,0,0,0,0,0,-1,1455,1009,0,0
238,15,0,0,0,0,0,0,0,0,0,-1,1462,1009,0,0
245,15,0,0,0,0,0,0,0,0,0,-1,1469,1009,0,0
252,15,0,0,0,0,0,0,0,0,0,-1,1476,1009,0,0
259,15,0,0,0,0,0,0,0,0,0,-1,1483,1009,0,0
266,15,0,0,0,0,0,0,0,0,0,-1,1490,1009,0,0
273,15,0,0,0,0,0,0,0,0,0,-1,1497,1009,0,0
280,15,0,0,0,0,0,0,0,0,0,-1,1504,1009,0,0
287,15,0,0,0,0,0,0,0,0,0,-1,1511,1009,0,0
294,15,0,0,0,0,0,0,0,0,0,-1,1518,1009,0,0
301,15,0,0,0,0,0,0,0,0,0,-1,1525,1009,0,0
308,15,0,0,0,0,0,0,0,0,0,-1,1532,1009,0,0
315,15,0,0,0,0,0,0,0,0,0,-1,1539,1009,0,0
322,15,0,0,0,0,0,0,0,0,0,-1,1546,1009,0,0
329,15,0,0,0,0,0,0,0,0,0,-1,1553,1009,0,0
336,15,0,0,0,0,0,0,0,0,0,-1,1560,1009,0,0
343,15,0,0,0,0,0,0,0,0,0,-1,1567,1009,0,0
350,15,0,0,0,0,0,0,0,0,0,-1,1574,1009,0,0
357,15,0,0,0,0,0,0,0,0,0,-1,1581,1009,0,0
364,15,0,0,0,0,0,0,0,0,0,-1,1588,1009,0,0
371,15,0,0,0,0,0,0,0,0,0,-1,1595,1009,0,0
378,15,0,0,0,0,0,0,0,0,0,-1,1602,1009,0,0
385,15,0,0,0,0,0,0,0,0,0,-1,1609,1009,0,0
392,15,0,0,0,0,0,0,0,0,0,-1,1616,1009,0,0
399,15,0,0,0,0,0,0,0,0,0,-1,1623,1009,0,0
406,15,0,0,0,0,0,0,0,0,0,-1,1630,1009,0,0
413,15,0,0,0,0,0,0,0,0,0,-1,1637,1009,0,0
420,15,0,0,0,0,0,0,0,0,0,-1,1644,1009,0,0
427,15,0,0,0,0,0,0,0,0,0,-1,1651,1009,0,0
434,15,0,0,0,0,0,0,0,0,0,-1,1658,1009,0,0
441,15,0,0,0,0,0,0,0,0,0,-1,1665,1009,0,0
448,15,0,0,0,0,0,0,0,0,0,-1,1672,1009,0,0
455,15,0,0,0,0,0,0,0,0,0,-1,1679,1009,0,0
462,15,0,0,0,0,0,0,0,0,0,-1,1686,1009,0,0
469,15,0,0,0,0,0,0,0,0,0,-1,1693,1009,0,0
476,15,0,0,0,0,0,0,0,0,0,-1,1700,1009,0,0
483,15,0,0,0,0,0,0,0,0,0,-1,1707,1009,0,0
490,15,0,0,0,0,0,0,0,0,0,-1,1714,1009,0,0
497,15,0,0,0,0,0,0,0,0,0,-1,1721,1009,0,0
504,15,0,0,0,0,0,0,0,0,0,-1,1728,1009,0,0
511,15,0,0,0,0,0,0,0,0,0,-1,1735,1009,0,0
518,15,0,0,0,0,0,0,0,0,0,-1,1742,1009,0,0
525,15,0,0,0,0,0,0,0,0,0,-1,1749,1009,0,0
532,15,0,0,0,0,0,0,0,0,0,-1,1756,1009,0,0
539,15,0,0,0,0,0,0,0,0,0,-1,1763,1009,0,0
546,15,0,0,0,0,0,0,0,0,0,-1,1770,1009,0,0
553,15,0,0,0,0,0,0,0,0,0,-1,1777,1009,0,0
560,15,0,0,0,0,0,0,0,0,0,-1,1784,1009,0,0
567,15,0,0,0,0,0,0,0,0,0,-1,1791,1009,0,0
574,15,0,0,0,0,0,0,0,0,0,-1,1798,1009,0,0
581,15,0,0,0,0,0,0,0,0,0,-1,1805,1009,0,0
588,15,0,0,0,0,0,0,0,0,0,-1,1812,1009,0,0
595,15,0,0,0,0,0,0,0,0,0,-1,1819,1009,0,0
602,15,0,0,0,0,0,0,0,0,0,-1,1826,1009,0,0
609,15,0,0,0,0,0,0,0,0,0,-1,1833,1009,0,0
616,15,0,0,0,0,0,0,0,0,0,-1,1840,1009,0,0
623,15,0,0,0,0,0,0,0,0,0,-1,1847,1009,0,0
630,15,0,0,0,0,0,0,0,0,0,-1,1854,1009,0,0
637,15,0,0,0,0,0,0,0,0,0,-1,1861,1009,0,0
644,15,14.809,2.12903,0.00880578,0.0033747,0.00487559,0.0116711,0.000509418,0.53131,0.00761658,0.040884,1868,1009,14.8089,-2.12902
651,15,15.2,2.20868,0.00552318,0.00316773,0.00302225,0.00758907,0.00110184,0.599607,0.00473503,0.039272,1875,1009,15.1999,-2.20867
658,15,15.224,2.35876,0.00348217,0.00261147,0.00184426,0.00494177,0.00115187,0.669491,0.00298556,0.0377435,1882,1009,15.224,-2.35878
665,15,15.1199,2.45691,0.00208704,0.00211669,0.00125293,0.00335488,0.00084885,0.791314,0.00201417,0.0369697,1889,1009,15.1199,-2.4569
672,15,15.0935,2.35547,0.000888903,0.00166308,0.00127613,0.00260953,-5.75525e-05,0.932652,0.00175919,0.0355507,1896,1009,15.0935,-2.3555
679,15,15.1614,2.28424,-0.000464284,0.00128167,0.00173782,0.00235346,-0.00153607,1.01816,0.00226209,0.036894,1903,1009,15.1614,-2.28426
686,15,15.153,2.24921,-0.00160896,0.000952401,0.00234175,0.00234079,-0.00299734,1.03562,0.00308973,0.0416947,1910,1009,15.153,-2.24923
693,15,15.0912,2.24451,-0.00252591,0.0006953,0.00295434,0.00244954,-0.00428015,1.03496,0.00393302,0.0414679,1917,1009,15.0911,-2.24453
700,15,15.1689,2.26715,-0.00342482,0.00050657,0.00338296,0.00245346,-0.00537171,1.04859,0.0046214,0.0329976,1924,1009,15.1689,-2.26714
707,15,15.1447,2.39844,-0.00405414,0.000420164,0.00382401,0.00261335,-0.00624732,1.05007,0.00525717,0.0259897,1931,1009,15.1447,-2.39844
714,15,15.1466,2.41266,-0.00448079,0.000347062,0.00399152,0.00259782,-0.00673155,1.05736,0.00555977,0.0267716,1938,1009,15.1466,-2.41264
721,15,15.1744,2.6275,-0.00474035,0.000333222,0.00402959,0.00255804,-0.00696517,1.06633,0.0056911,0.0301886,1945,1009,15.1744,-2.62751
728,15,14.7528,3.00818,0,0,0,0,0,0,0,-1,1952,1009,14.7528,-3.00817
735,15,14.7593,3.05786,-0.00483728,0.000682382,0.00365041,0.00249881,-0.00665371,1.10907,0.00546269,0.0153563,1959,1009,14.7593,-3.05786
742,15,14.7711,3.10175,-0.00539767,0.00107968,0.00271712,0.00206851,-0.00638649,1.22177,0.00508927,0.0161331,1966,1009,14.7712,-3.10177
749,15,14.7456,3.12506,-0.00660943,0.00178024,0.00175302,0.0021318,-0.00696099,1.37288,0.00549098,0.0105252,1973,1009,14.7456,-3.12503
756,15,14.7792,3.146,-0.0074401,0.00321828,8.7331e-06,0.00321828,-0.00744011,1.56998,0.00631249,0.0127476,1980,1009,14.7792,-3.14601
763,15,14.7445,3.17212,-0.00836936,0.0047713,-0.00181574,0.00501758,-0.00861563,-1.43598,0.00796199,0.0116988,1987,1009,14.7445,-3.17215
770,15,14.7268,3.17877,-0.0100035,0.00683756,-0.00396942,0.00772625,-0.0108922,-1.35054,0.010801,0.00998639,1994,1009,14.7268,-3.17874
777,15,14.7123,3.19867,-0.0122522,0.00970012,-0.00646229,0.0114612,-0.0140133,-1.30474,0.0147323,0.0189651,2001,1009,14.7122,-3.1987
784,15,14.67,3.2077,-0.0153697,0.0135799,-0.00934043,0.0163319,-0.0181218,-1.28427,0.0199008,0.0373712,2008,1009,14.67,-3.20769
791,15,14.4269,3.00897,-0.0189682,0.0186842,-0.0129033,0.0226817,-0.0229657,-1.27037,0.0263547,0.0453459,2015,1009,14.4269,-3.00898
798,15,13.689,2.89282,0,0,0,0,0,0,0,-1,2022,1009,13.689,-2.8928
805,15,12.655,5.94556,0,0,0,0,0,0,0,-1,2029,1009,12.655,-5.94558
812,15,13.5962,4.47644,0,0,0,0,0,0,0,-1,2036,1009,13.5963,-4.47642
-700,8,0,0,0,0,0,0,0,0,0,-1,524,1016,0,0
-693,8,-8.08221,3.05188,0,0,0,0,0,0,0,-1,531,1016,-8.08224,-3.05186
-686,8,-9.59601,0.0565186,0,0,0,0,0,0,0,-1,538,1016,-9.59603,-0.0565182
-679,8,-8.85773,-0.0452271,0.0307519,-0.00532203,0.0192422,0.0390891,-0.0136592,0.408858,0.0316119,0.0437894,545,1016,-8.85773,0.0451999
-672,8,-7.87207,0.0316772,0.0238905,-0.00329444,0.0154422,0.0308702,-0.0102742,0.424509,0.0247269,0.0439352,552,1016,-7.87206,-0.0316888
-665,8,-6.9646,0.212402,0,0,0,0,0,0,0,-1,559,1016,-6.96462,-0.212406
-658,8,-9.1535,1.03137,0.0126391,-0.000627611,0.00861093,0.0168754,-0.00486391,0.457202,0.0131743,0.0364056,566,1016,-9.15352,-1.03136
-651,8,-9.13751,1.02588,0.008543,7.23414e-05,0.0059431,0.0116055,-0.00299017,0.475816,0.00890271,0.0199917,573,1016,-9.13751,-1.02588
-644,8,-9.1344,1.03333,0.00561838,0.000767767,0.00390862,0.00779301,-0.00140686,0.507719,0.00572223,0.0150795,580,1016,-9.13439,-1.03332
-637,8,-9.15607,1.06543,0.00352814,0.000809387,0.00199864,0.00458588,-0.000248357,0.486758,0.00314331,0.0129387,587,1016,-9.15609,-1.06545
-630,8,-9.18567,1.05127,0.00176251,0.000696616,0.000415739,0.00190549,0.000553641,0.331236,0.00113185,0.011327,594,1016,-9.18566,-1.0513
-623,8,-9.18652,1.04407,-0.000155452,0.000560016,-0.00102951,0.00129218,-0.000887612,-0.952612,0.00126571,0.0125019,601,1016,-9.18654,-1.04407
-616,8,-9.19019,1.04358,-0.000791097,0.000170975,-0.00215596,0.00189891,-0.00251903,-0.89516,0.00255906,0.0120884,608,1016,-9.19019,-1.04355
-609,8,-9.16339,1.05322,-0.000622346,-0.000211179,-0.00268465,0.00227574,-0.00310927,-0.823612,0.00312143,0.0149488,615,1016,-9.16338,-1.05322
-602,8,-9.17542,1.04285,-0.000549787,-0.000445722,-0.00296155,0.00246426,-0.00345976,-0.794182,0.00343629,0.021647,622,1016,-9.17542,-1.04286
-595,8,-9.15521,0.854187,-0.000556253,-0.000741965,-0.0030291,0.00238142,-0.00367963,-0.770076,0.003526,0.022114,629,1016,-9.15524,-0.854206
-588,8,-9.17529,0.620544,-0.00047138,-0.00107293,-0.00318012,0.00242216,-0.00396647,-0.738249,0.00372423,0.0248983,636,1016,-9.1753,-0.620539
-581,8,-9.18402,0.594727,-0.000431898,-0.00169089,-0.00311218,0.00211381,-0.0042366,-0.68561,0.00373407,0.0300952,643,1016,-9.18401,-0.594726
-574,8,-9.17041,0.569885,-0.000405565,-0.00200259,-0.00281004,0.00171721,-0.00412537,-0.646965,0.00346741,0.0347626,650,1016,-9.17039,-0.569875
-567,8,-9.20154,0.502869,-0.000423608,-0.0024042,-0.00236376,0.00114892,-0.00397673,-0.587031,0.00310579,0.0386977,657,1016,-9.20151,-0.502842
-560,8,-9.27374,0.598145,-0.00043656,-0.00279885,-0.0017288,0.000476058,-0.00371147,-0.485711,0.00264731,0.0390896,664,1016,-9.27376,-0.598147
-553,8,-9.17572,0.534546,-0.000435622,-0.00319498,-0.000914442,-0.000160092,-0.00347051,-0.292658,0.0022622,0.0380604,671,1016,-9.17569,-0.534545
-546,8,-9.13849,0.493591,-0.000496314,-0.00359635,6.35041e-05,-0.000495014,-0.00359765,0.0204735,0.00225164,0.0375248,678,1016,-9.13846,-0.493586
-539,8,-9.26697,0.68689,-0.000628682,-0.00400934,0.000996756,-0.000356682,-0.00428134,0.266399,0.00274307,0.0375717,685,1016,-9.26697,-0.686918
-532,8,-9.39594,0.731323,-0.00106461,-0.00425597,0.00150981,-0.000463537,-0.00485704,0.378876,0.00309511,0.0407438,692,1016,-9.39591,-0.731328
-525,8,0,0,0,0,0,0,0,0,0,-1,699,1016,0,0
-518,8,0,0,0,0,0,0,0,0,0,-1,706,1016,0,0
-511,8,0,0,0,0,0,0,0,0,0,-1,713,1016,0,0
-504,8,0,0,0,0,0,0,0,0,0,-1,720,1016,0,0
-497,8,0,0,0,0,0,0,0,0,0,-1,727,1016,0,0
-490,8,0,0,0,0,0,0,0,0,0,-1,734,1016,0,0
-483,8,0,0,0,0,0,0,0,0,0,-1,741,1016,0,0
-476,8,0,0,0,0,0,0,0,0,0,-1,748,1016,0,0
-469,8,0,0,0,0,0,0,0,0,0,-1,755,1016,0,0
-462,8,0,0,0,0,0,0,0,0,0,-1,762,1016,0,0
-455,8,0,0,0,0,0,0,0,0,0,-1,769,1016,0,0
-448,8,0,0,0,0,0,0,0,0,0,-1,776,1016,0,0
-441,8,0,0,0,0,0,0,0,0,0,-1,783,1016,0,0
-434,8,0,0,0,0,0,0,0,0,0,-1,790,1016,0,0
-427,8,0,0,0,0,0,0,0,0,0,-1,797,1016,0,0
-420,8,0,0,0,0,0,0,0,0,0,-1,804,1016,0,0
-413,8,0,0,0,0,0,0,0,0,0,-1,811,1016,0,0
-406,8,0,0,0,0,0,0,0,0,0,-1,818,1016,0,0
-399,8,0,0,0,0,0,0,0,0,0,-1,825,1016,0,0
-392,8,0,0,0,0,0,0,0,0,0,-1,832,1016,0,0
-385,8,0,0,0,0,0,0,0,0,0,-1,839,1016,0,0
-378,8,0,0,0,0,0,0,0,0,0,-1,846,1016,0,0
-371,8,0,0,0,0,0,0,0,0,0,-1,853,1016,0,0
-364,8,0,0,0,0,0,0,0,0,0,-1,860,1016,0,0
-357,8,0,0,0,0,0,0,0,0,0,-1,867,1016,0,0
-350,8,0,0,0,0,0,0,0,0,0,-1,874,1016,0,0
-343,8,0,0,0,0,0,0,0,0,0,-1,881,1016,0,0
-336,8,0,0,0,0,0,0,0,0,0,-1,888,1016,0,0
-329,8,0,0,0,0,0,0,0,0,0,-1,895,1016,0,0
-322,8,0,0,0,0,0,0,0,0,0,-1,902,1016,0,0
-315,8,0,0,0,0,0,0,0,0,0,-1,909,1016,0,0
-308,8,0,0,0,0,0,0,0,0,0,-1,916,1016,0,0
-301,8,0,0,0,0,0,0,0,0,0,-1,923,1016,0,0
-294,8,0,0,0,0,0,0,0,0,0,-1,930,1016,0,0
-287,8,0,0,0,0,0,0,0,0,0,-1,937,1016,0,0
-280,8,0,0,0,0,0,0,0,0,0,-1,944,1016,0,0
-273,8,0,0,0,0,0,0,0,0,0,-1,951,1016,0,0
-266,8,0,0,0,0,0,0,0,0,0,-1,958,1016,0,0
-259,8,0,0,0,0,0,0,0,0,0,-1,965,1016,0,0
-252,8,0,0,0,0,0,0,0,0,0,-1,972,1016,0,0
-245,8,0,0,0,0,0,0,0,0,0,-1,979,1016,0,0
-238,8,0,0,0,0,0,0,0,0,0,-1,986,1016,0,0
-231,8,0,0,0,0,0,0,0,0,0,-1,993,1016,0,0
-224,8,0,0,0,0,0,0,0,0,0,-1,1000,1016,0,0
-217,8,0,0,0,0,0,0,0,0,0,-1,1007,1016,0,0
-210,8,0,0,0,0,0,0,0,0,0,-1,1014,1016,0,0
-203,8,0,0,0,0,0,0,0,0,0,-1,1021,1016,0,0
-196,8,0,0,0,0,0,0,0,0,0,-1,1028,1016,0,0
-189,8,0,0,0,0,0,0,0,0,0,-1,1035,1016,0,0
-182,8,0,0,0,0,0,0,0,0,0,-1,1042,1016,0,0
-175,8,0,0,0,0,0,0,0,0,0,-1,1049,1016,0,0
-168,8,0,0,0,0,0,0,0,0,0,-1,1056,1016,0,0
-161,8,0,0,0,0,0,0,0,0,0,-1,1063,1016,0,0
-154,8,0,0,0,0,0,0,0,0,0,-1,1070,1016,0,0
-147,8,0,0,0,0,0,0,0,0,0,-1,1077,1016,0,0
-140,8,0,0,0,0,0,0,0,0,0,-1,1084,1016,0,0
-133,8,0,0,0,0,0,0,0,0,0,-1,1091,1016,0,0
-126,8,0,0,0,0,0,0,0,0,0,-1,1098,1016,0,0
-119,8,0,0,0,0,0,0,0,0,0,-1,1105,1016,0,0
-112,8,0,0,0,0,0,0,0,0,0,-1,1112,1016,0,0
-105,8,0,0,0,0,0,0,0,0,0,-1,1119,1016,0,0
-98,8,0,0,0,0,0,0,0,0,0,-1,1126,1016,0,0
-91,8,0,0,0,0,0,0,0,0,0,-1,1133,1016,0,0
-84,8,0,0,0,0,0,0,0,0,0,-1,1140,1016,0,0
-77,8,0,0,0,0,0,0,0,0,0,-1,1147,1016,0,0
-70,8,0,0,0,0,0,0,0,0,0,-1,1154,1016,0,0
-63,8,0,0,0,0,0,0,0,0,0,-1,1161,1016,0,0
-56,8,0,0,0,0,0,0,0,0,0,-1,1168,1016,0,0
-49,8,0,0,0,0,0,0,0,0,0,-1,1175,1016,0,0
-42,8,0,0,0,0,0,0,0,0,0,-1,1182,1016,0,0
-35,8,0,0,0,0,0,0,0,0,0,-1,1189,1016,0,0
-28,8,0,0,0,0,0,0,0,0,0,-1,1196,1016,0,0
-21,8,0,0,0,0,0,0,0,0,0,-1,1203,1016,0,0
-14,8,0,0,0,0,0,0,0,0,0,-1,1210,1016,0,0
-7,8,0,0,0,0,0,0,0,0,0,-1,1217,1016,0,0
0,8,0,0,0,0,0,0,0,0,0,-1,1224,1016,0,0
7,8,0,0,0,0,0,0,0,0,0,-1,1231,1016,0,0
14,8,0,0,0,0,0,0,0,0,0,-1,1238,1016,0,0
21,8,0,0,0,0,0,0,0,0,0,-1,1245,1016,0,0
28,8,0,0,0,0,0,0,0,0,0,-1,1252,1016,0,0
35,8,0,0,0,0,0,0,0,0,0,-1,1259,1016,0,0
42,8,0,0,0,0,0,0,0,0,0,-1,1266,1016,0,0
49,8,0,0,0,0,0,0,0,0,0,-1,1273,1016,0,0
56,8,0,0,0,0,0,0,0,0,0,-1,1280,1016,0,0
63,8,0,0,0,0,0,0,0,0,0,-1,1287,1016,0,0
70,8,0,0,0,0,0,0,0,0,0,-1,1294,1016,0,0
77,8,0,0,0,0,0,0,0,0,0,-1,1301,1016,0,0
84,8,0,0,0,0,0,0,0,0,0,-1,1308,1016,0,0
91,8,0,0,0,0,0,0,0,0,0,-1,1315,1016,0,0
98,8,0,0,0,0,0,0,0,0,0,-1,1322,1016,0,0
105,8,0,0,0,0,0,0,0,0,0,-1,1329,1016,0,0
112,8,0,0,0,0,0,0,0,0,0,-1,1336,1016,0,0
119,8,0,0,0,0,0,0,0,0,0,-1,1343,1016,0,0
126,8,0,0,0,0,0,0,0,0,0,-1,1350,1016,0,0
133,8,0,0,0,0,0,0,0,0,0,-1,1357,1016,0,0
140,8,0,0,0,0,0,0,0,0,0,-1,1364,1016,0,0
147,8,0,0,0,0,0,0,0,0,0,-1,1371,1016,0,0
154,8,0,0,0,0,0,0,0,0,0,-1,1378,1016,0,0
161,8,0,0,0,0,0,0,0,0,0,-1,1385,1016,0,0
168,8,0,0,0,0,0,0,0,0,0,-1,1392,1016,0,0
175,8,0,0,0,0,0,0,0,0,0,-1,1399,1016,0,0
182,8,0,0,0,0,0,0,0,0,0,-1,1406,1016,0,0
189,8,0,0,0,0,0,0,0,0,0,-1,1413,1016,0,0
196,8,0,0,0,0,0,0,0,0,0,-1,1420,1016,0,0
203,8,0,0,0,0,0,0,0,0,0,-1,1427,1016,0,0
210,8,0,0,0,0,0,0,0,0,0,-1,1434,1016,0,0
217,8,0,0,0,0,0,0,0,0,0,-1,1441,1016,0,0
224,8,0,0,0,0,0,0,0,0,0,-1,1448,1016,0,0
231,8,0,0,0,0,0,0,0,0,0,-1,1455,1016,0,0
238,8,0,0,0,0,0,0,0,0,0,-1,1462,1016,0,0
245,8,0,0,0,0,0,0,0,0,0,-1,1469,1016,0,0
252,8,0,0,0,0,0,0,0,0,0,-1,1476,1016,0,0
259,8,0,0,0,0,0,0,0,0,0,-1,1483,1016,0,0
266,8,0,0,0,0,0,0,0,0,0,-1,1490,1016,0,0
273,8,0,0,0,0,0,0,0,0,0,-1,1497,1016,0,0
280,8,0,0,0,0,0,0,0,0,0,-1,1504,1016,0,0
287,8,0,0,0,0,0,0,0,0,0,-1,1511,1016,0,0
294,8,0,0,0,0,0,0,0,0,0,-1,1518,1016,0,0
301,8,0,0,0,0,0,0,0,0,0,-1,1525,1016,0,0
308,8,0,0,0,0,0,0,0,0,0,-1,1532,1016,0,0
315,8,0,0,0,0,0,0,0,0,0,-1,1539,1016,0,0
322,8,0,0,0,0,0,0,0,0,0,-1,1546,1016,0,0
329,8,0,0,0,0,0,0,0,0,0,-1,1553,1016,0,0
336,8,0,0,0,0,0,0,0,0,0,-1,1560,1016,0,0
343,8,0,0,0,0,0,0,0,0,0,-1,1567,1016,0,0
350,8,0,0,0,0,0,0,0,0,0,-1,1574,1016,0,0
357,8,0,0,0,0,0,0,0,0,0,-1,1581,1016,0,0
364,8,0,0,0,0,0,0,0,0,0,-1,1588,1016,0,0
371,8,0,0,0,0,0,0,0,0,0,-1,1595,1016,0,0
378,8,0,0,0,0,0,0,0,0,0,-1,1602,1016,0,0
385,8,0,0,0,0,0,0,0,0,0,-1,1609,1016,0,0
392,8,0,0,0,0,0,0,0,0,0,-1,1616,1016,0,0
399,8,0,0,0,0,0,0,0,0,0,-1,1623,1016,0,0
406,8,0,0,0,0,0,0,0,0,0,-1,1630,1016,0,0
413,8,0,0,0,0,0,0,0,0,0,-1,1637,1016,0,0
420,8,0,0,0,0,0,0,0,0,0,-1,1644,1016,0,0
427,8,0,0,0,0,0,0,0,0,0,-1,1651,1016,0,0
434,8,0,0,0,0,0,0,0,0,0,-1,1658,1016,0,0
441,8,0,0,0,0,0,0,0,0,0,-1,1665,1016,0,0
448,8,0,0,0,0,0,0,0,0,0,-1,1672,1016,0,0
455,8,0,0,0,0,0,0,0,0,0,-1,1679,1016,0,0
462,8,0,0,0,0,0,0,0,0,0,-1,1686,1016,0,0
469,8,0,0,0,0,0,0,0,0,0,-1,1693,1016,0,0
476,8,0,0,0,0,0,0,0,0,0,-1,1700,1016,0,0
483,8,0,0,0,0,0,0,0,0,0,-1,1707,1016,0,0
490,8,0,0,0,0,0,0,0,0,0,-1,1714,1016,0,0
497,8,0,0,0,0,0,0,0,0,0,-1,1721,1016,0,0
504,8,0,0,0,0,0,0,0,0,0,-1,1728,1016,0,0
511,8,0,0,0,0,0,0,0,0,0,-1,1735,1016,0,0
518,8,0,0,0,0,0,0,0,0,0,-1,1742,1016,0,0
525,8,0,0,0,0,0,0,0,0,0,-1,1749,1016,0,0
532,8,0,0,0,0,0,0,0,0,0,-1,1756,1016,0,0
539,8,0,0,0,0,0,0,0,0,0,-1,1763,1016,0,0
546,8,0,0,0,0,0,0,0,0,0,-1,1770,1016,0,0
553,8,0,0,0,0,0,0,0,0,0,-1,1777,1016,0,0
560,8,0,0,0,0,0,0,0,0,0,-1,1784,1016,0,0
567,8,0,0,0,0,0,0,0,0,0,-1,1791,1016,0,0
574,8,0,0,0,0,0,0,0,0,0,-1,1798,1016,0,0
581,8,0,0,0,0,0,0,0,0,0,-1,1805,1016,0,0
588,8,0,0,0,0,0,0,0,0,0,-1,1812,1016,0,0
595,8,0,0,0,0,0,0,0,0,0,-1,1819,1016,0,0
602,8,0,0,0,0,0,0,0,0,0,-1,1826,1016,0,0
609,8,0,0,0,0,0,0,0,0,0,-1,1833,1016,0,0
616,8,0,0,0,0,0,0,0,0,0,-1,1840,1016,0,0
623,8,0,0,0,0,0,0,0,0,0,-1,1847,1016,0,0
630,8,0,0,0,0,0,0,0,0,0,-1,1854,1016,0,0
637,8,0,0,0,0,0,0,0,0,0,-1,1861,1016,0,0
644,8,14.8853,2.20074,0.00870165,0.00376616,0.00378597,0.0107531,0.00171469,0.496574,0.00667105,0.0444363,1868,1016,14.8853,-2.20077
651,8,15.1576,2.26971,0.00536913,0.00355537,0.00240062,0.00702845,0.00189605,0.6048,0.00419883,0.0376693,1875,1016,15.1575,-2.26969
658,8,15.1425,2.30054,0.00335028,0.00293348,0.00150469,0.00466093,0.00162283,0.716586,0.00273203,0.0372709,1882,1016,15.1425,-2.30051
665,8,15.0154,2.33478,0.00201908,0.00235985,0.00102882,0.00323229,0.00114664,0.867458,0.00189223,0.0399196,1889,1016,15.0154,-2.33479
672,8,15.0581,2.44379,0.000969284,0.0018358,0.00113168,0.00261432,0.000190759,0.968213,0.0016829,0.0388575,1896,1016,15.0581,-2.44379
679,8,15.0887,2.22906,-0.000252699,0.00137897,0.00167772,0.0024287,-0.00130243,1.0117,0.00218663,0.0378188,1903,1016,15.0887,-2.22905
686,8,15.0938,2.29572,-0.00131179,0.00098674,0.00235013,0.00245357,-0.00277862,1.01281,0.00302275,0.0402675,1910,1016,15.0938,-2.29574
693,8,15.0693,2.34052,-0.00215955,0.00067794,0.00302002,0.00259587,-0.00407747,1.00499,0.00388438,0.0393424,1917,1016,15.0694,-2.34051
700,8,15.1139,2.33545,-0.00301741,0.000448728,0.00350797,0.00262838,-0.00519707,1.01483,0.00459844,0.0303509,1924,1016,15.1139,-2.33547
707,8,15.1479,2.2851,-0.00359547,0.000331459,0.00400659,0.00282983,-0.00609383,1.01323,0.0052657,0.0218129,1931,1016,15.148,-2.28513
714,8,15.1571,2.29346,-0.00401926,0.000228099,0.00421692,0.0028259,-0.00661706,1.01866,0.00559644,0.0236893,1938,1016,15.1571,-2.29349
721,8,15.1832,2.64172,0,0,0,0,0,0,0,-1,1945,1016,15.1832,-2.64172
728,8,14.8604,2.93237,-0.00441027,0.000297791,0.004281,0.0028293,-0.00694177,1.03677,0.00580549,0.0234645,1952,1016,14.8604,-2.93239
735,8,14.7516,3.04468,-0.00447856,0.000516422,0.00386944,0.00262437,-0.00658651,1.07198,0.00547945,0.0148721,1959,1016,14.7516,-3.04467
742,8,14.7754,3.06769,-0.00494625,0.000851996,0.00288547,0.00204321,-0.00613747,1.17928,0.00491634,0.0131081,1966,1016,14.7754,-3.06767
749,8,14.7748,3.11383,-0.00596755,0.00147685,0.00182431,0.00189987,-0.00639057,1.34294,0.0050151,0.00974407,1973,1016,14.7747,-3.11383
756,8,14.7998,3.14001,-0.00651508,0.00294086,-6.55289e-05,0.00294131,-0.00651554,-1.56387,0.00558839,0.012864,1980,1016,14.7999,-3.14
763,8,14.7849,3.13074,-0.007072,0.00453265,-0.00207539,0.00489265,-0.007432,-1.39905,0.00716581,0.013478,1987,1016,14.7849,-3.13073
770,8,14.7632,3.14465,-0.00816653,0.00661128,-0.0045083,0.00787805,-0.0094333,-1.29687,0.0100081,0.0135412,1994,1016,14.7631,-3.14467
777,8,14.7572,3.18359,-0.00962055,0.00954964,-0.00736369,0.0120516,-0.0121226,-1.24326,0.013957,0.0169712,2001,1016,14.7572,-3.18362
784,8,14.6738,3.07892,-0.0116785,0.013562,-0.0106501,0.0174552,-0.0155718,-1.22033,0.0190785,0.0330425,2008,1016,14.6739,-3.0789
791,8,14.4282,2.49799,-0.0139503,0.0188969,-0.0147022,0.0245162,-0.0195696,-1.20572,0.0255063,0.0413381,2015,1016,14.4282,-2.49801
798,8,14.4246,1.5448,0,0,0,0,0,0,0,-1,2022,1016,14.4245,-1.54478
805,8,13.2343,5.12708,-0.0166796,0.0348474,-0.0260948,0.045754,-0.0275862,-1.1749,0.0427738,0.0496187,2029,1016,13.2342,-5.1271
812,8,13.5813,3.81836,0,0,0,0,0,0,0,-1,2036,1016,13.5814,-3.81838
-700,1,0,0,0,0,0,0,0,0,0,-1,524,1023,0,0
-693,1,-10.0556,0.669373,0,0,0,0,0,0,0,-1,531,1023,-10.0556,-0.669388
-686,1,-10.0299,-0.0878296,0,0,0,0,0,0,0,-1,538,1023,-10.0299,0.0878445
-679,1,-9.33807,-0.0374146,0.0292988,-0.005182,0.0160907,0.0356411,-0.0115243,0.37546,0.0283928,0.0479155,545,1023,-9.3381,0.0374227
-672,1,-8.48584,-0.240173,0.0235826,-0.00299196,0.0132401,0.029053,-0.00846241,0.39181,0.022721,0.0474311,552,1023,-8.48585,0.240165
-665,1,-9.23407,1.10681,0.0182719,-0.00132841,0.0103881,0.022753,-0.00580953,0.407256,0.0174309,0.0458771,559,1023,-9.2341,-1.10682
-658,1,-9.21246,1.06622,0.0136095,-0.000171068,0.00774137,0.0170828,-0.00364442,0.421751,0.0127778,0.0323485,566,1023,-9.21248,-1.06624
-651,1,-9.17004,1.04431,0.00967663,0.000535625,0.00543011,0.0122037,-0.00199145,0.435571,0.00887441,0.0148053,573,1023,-9.17005,-1.04434
-644,1,-9.12769,1.07202,0.00679995,0.00125787,0.00368858,0.00864239,-0.000584582,0.463248,0.00596601,0.01376,580,1023,-9.12769,-1.07203
-637,1,-9.159,1.0401,0.0046068,0.00124559,0.00187416,0.00544352,0.000408877,0.419897,0.00350069,0.0119367,587,1023,-9.15902,-1.04008
-630,1,-9.20129,1.00763,0.00263235,0.00100093,0.00027599,0.00267777,0.000955506,0.163127,0.001567,0.0134994,594,1023,-9.20132,-1.00763
-623,1,-9.20264,1.02899,0.000511204,0.000743791,-0.00117816,0.00181138,-0.000556384,-0.834593,0.0014296,0.0127609,601,1023,-9.20261,-1.02898
-616,1,-9.18732,1.03967,-0.000289562,0.000254119,-0.00228708,0.00228545,-0.0023209,-0.84455,0.0026595,0.0152708,608,1023,-9.18733,-1.03966
-609,1,-9.15222,1.03979,-0.000233704,-0.000337367,-0.00281485,0.00252979,-0.00310086,-0.776192,0.00325643,0.016282,615,1023,-9.15223,-1.03979
-602,1,-9.1814,1.02582,-0.00022001,-0.000747626,-0.00302627,0.00255392,-0.00352156,-0.741922,0.00352248,0.0132684,622,1023,-9.18137,-1.0258
-595,1,-9.18622,1.01459,-0.000238772,-0.00115675,-0.00300297,0.00234008,-0.0037356,-0.709563,0.00353851,0.0137512,629,1023,-9.18623,-1.01461
-588,1,-9.19116,0.817749,-0.00015647,-0.00156441,-0.00300494,0.00222586,-0.00394674,-0.670338,0.00360962,0.0214899,636,1023,-9.19116,-0.817776
-581,1,-9.20551,0.622314,-0.000141938,-0.00224289,-0.00282104,0.00181787,-0.0042027,-0.607166,0.00356572,0.0284961,643,1023,-9.2055,-0.622342
-574,1,-9.17957,0.625061,-0.000137652,-0.00265673,-0.00239637,0.00131002,-0.0041044,-0.543438,0.00326184,0.0346713,650,1023,-9.17958,-0.625049
-567,1,-9.10773,0.491516,-0.00019843,-0.00312427,-0.00179445,0.000653855,-0.00397656,-0.443413,0.00289372,0.0386826,657,1023,-9.10774,-0.491515
-560,1,-9.18762,0.529846,-0.000295939,-0.00356063,-0.000991878,-1.82126e-05,-0.00383836,-0.273009,0.00255286,0.0382686,664,1023,-9.18761,-0.529818
-553,1,-9.1283,0.661743,-0.000444246,-0.0039614,-1.00035e-05,-0.000444218,-0.00396143,-0.00284416,0.00250604,0.0368222,671,1023,-9.12831,-0.66172
-546,1,-9.09442,0.731445,-0.000743442,-0.00431468,0.0011168,-0.000422956,-0.00463517,0.279458,0.00295922,0.0391311,678,1023,-9.09442,-0.731471
-539,1,-9.22736,0.747681,-0.00122276,-0.00462387,0.00212202,-0.000203967,-0.00564266,0.447606,0.00369566,0.039665,685,1023,-9.22735,-0.747705
-532,1,-9.35858,0.653564,-0.00214397,-0.00471149,0.00253362,-0.000587431,-0.00626802,0.550906,0.00399728,0.0398825,692,1023,-9.35857,-0.65354
-525,1,0,0,0,0,0,0,0,0,0,-1,699,1023,0,0
-518,1,0,0,0,0,0,0,0,0,0,-1,706,1023,0,0
-511,1,0,0,0,0,0,0,0,0,0,-1,713,1023,0,0
-504,1,0,0,0,0,0,0,0,0,0,-1,720,1023,0,0
-497,1,0,0,0,0,0,0,0,0,0,-1,727,1023,0,0
-490,1,0,0,0,0,0,0,0,0,0,-1,734,1023,0,0
-483,1,0,0,0,0,0,0,0,0,0,-1,741,1023,0,0
-476,1,0,0,0,0,0,0,0,0,0,-1,748,1023,0,0
-469,1,0,0,0,0,0,0,0,0,0,-1,755,1023,0,0
-462,1,0,0,0,0,0,0,0,0,0,-1,762,1023,0,0
-455,1,0,0,0,0,0,0,0,0,0,-1,769,1023,0,0
-448,1,0,0,0,0,0,0,0,0,0,-1,776,1023,0,0
-441,1,0,0,0,0,0,0,0,0,0,-1,783,1023,0,0
-434,1,0,0,0,0,0,0,0,0,0,-1,790,1023,0,0
-427,1,0,0,0,0,0,0,0,0,0,-1,797,1023,0,0
-420,1,0,0,0,0,0,0,0,0,0,-1,804,1023,0,0
-413,1,0,0,0,0,0,0,0,0,0,-1,811,1023,0,0
-406,1,0,0,0,0,0,0,0,0,0,-1,818,1023,0,0
-399,1,0,0,0,0,0,0,0,0,0,-1,825,1023,0,0
-392,1,0,0,0,0,0,0,0,0,0,-1,832,1023,0,0
-385,1,0,0,0,0,0,0,0,0,0,-1,839,1023,0,0
-378,1,0,0,0,0,0,0,0,0,0,-1,846,1023,0,0
-371,1,0,0,0,0,0,0,0,0,0,-1,853,1023,0,0
-364,1,0,0,0,0,0,0,0,0,0,-1,860,1023,0,0
-357,1,0,0,0,0,0,0,0,0,0,-1,867,1023,0,0
-350,1,0,0,0,0,0,0,0,0,0,-1,874,1023,0,0
-343,1,0,0,0,0,0,0,0,0,0,-1,881,1023,0,0
-336,1,0,0,0,0,0,0,0,0,0,-1,888,1023,0,0
-329,1,0,0,0,0,0,0,0,0,0,-1,895,1023,0,0
-322,1,0,0,0,0,0,0,0,0,0,-1,902,1023,0,0
-315,1,0,0,0,0,0,0,0,0,0,-1,909,1023,0,0
-308,1,0,0,0,0,0,0,0,0,0,-1,916,1023,0,0
-301,1,0,0,0,0,0,0,0,0,0,-1,923,1023,0,0
-294,1,0,0,0,0,0,0,0,0,0,-1,930,1023,0,0
-287,1,0,0,0,0,0,0,0,0,0,-1,937,1023,0,0
-280,1,0,0,0,0,0,0,0,0,0,-1,944,1023,0,0
-273,1,0,0,0,0,0,0,0,0,0,-1,951,1023,0,0
-266,1,0,0,0,0,0,0,0,0,0,-1,958,1023,0,0
-259,1,0,0,0,0,0,0,0,0,0,-1,965,1023,0,0
-252,1,0,0,0,0,0,0,0,0,0,-1,972,1023,0,0
-245,1,0,0,0,0,0,0,0,0,0,-1,979,1023,0,0
-238,1,0,0,0,0,0,0,0,0,0,-1,986,1023,0,0
-231,1,0,0,0,0,0,0,0,0,0,-1,993,1023,0,0
-224,1,0,0,0,0,0,0,0,0,0,-1,1000,1023,0,0
-217,1,0,0,0,0,0,0,0,0,0,-1,1007,1023,0,0
-210,1,0,0,0,0,0,0,0,0,0,-1,1014,1023,0,0
-203,1,0,0,0,0,0,0,0,0,0,-1,1021,1023,0,0
-196,1,0,0,0,0,0,0,0,0,0,-1,1028,1023,0,0
-189,1,0,0,0,0,0,0,0,0,0,-1,1035,1023,0,0
-182,1,0,0,0,0,0,0,0,0,0,-1,1042,1023,0,0
-175,1,0,0,0,0,0,0,0,0,0,-1,1049,1023,0,0
-168,1,0,0,0,0,0,0,0,0,0,-1,1056,1023,0,0
-161,1,0,0,0,0,0,0,0,0,0,-1,1063,1023,0,0
-154,1,0,0,0,0,0,0,0,0,0,-1,1070,1023,0,0
-147,1,0,0,0,0,0,0,0,0,0,-1,1077,1023,0,0
-140,1,0,0,0,0,0,0,0,0,0,-1,1084,1023,0,0
-133,1,0,0,0,0,0,0,0,0,0,-1,1091,1023,0,0
-126,1,0,0,0,0,0,0,0,0,0,-1,1098,1023,0,0
-119,1,0,0,0,0,0,0,0,0,0,-1,1105,1023,0,0
-112,1,0,0,0,0,0,0,0,0,0,-1,1112,1023,0,0
-105,1,0,0,0,0,0,0,0,0,0,-1,1119,1023,0,0
-98,1,0,0,0,0,0,0,0,0,0,-1,1126,1023,0,0
-91,1,0,0,0,0,0,0,0,0,0,-1,1133,1023,0,0
-84,1,0,0,0,0,0,0,0,0,0,-1,1140,1023,0,0
-77,1,0,0,0,0,0,0,0,0,0,-1,1147,1023,0,0
-70,1,0,0,0,0,0,0,0,0,0,-1,1154,1023,0,0
-63,1,0,0,0,0,0,0,0,0,0,-1,1161,1023,0,0
-56,1,0,0,0,0,0,0,0,0,0,-1,1168,1023,0,0
-49,1,0,0,0,0,0,0,0,0,0,-1,1175,1023,0,0
-42,1,0,0,0,0,0,0,0,0,0,-1,1182,1023,0,0
-35,1,0,0,0,0,0,0,0,0,0,-1,1189,1023,0,0
-28,1,0,0,0,0,0,0,0,0,0,-1,1196,1023,0,0
-21,1,0,0,0,0,0,0,0,0,0,-1,1203,1023,0,0
-14,1,0,0,0,0,0,0,0,0,0,-1,1210,1023,0,0
-7,1,0,0,0,0,0,0,0,0,0,-1,1217,1023,0,0
0,1,0,0,0,0,0,0,0,0,0,-1,1224,1023,0,0
7,1,0,0,0,0,0,0,0,0,0,-1,1231,1023,0,0
14,1,0,0,0,0,0,0,0,0,0,-1,1238,1023,0,0
21,1,0,0,0,0,0,0,0,0,0,-1,1245,1023,0,0
28,1,0,0,0,0,0,0,0,0,0,-1,1252,1023,0,0
35,1,0,0,0,0,0,0,0,0,0,-1,1259,1023,0,0
42,1,0,0,0,0,0,0,0,0,0,-1,1266,1023,0,0
49,1,0,0,0,0,0,0,0,0,0,-1,1273,1023,0,0
56,1,0,0,0,0,0,0,0,0,0,-1,1280,1023,0,0
63,1,0,0,0,0,0,0,0,0,0,-1,1287,1023,0,0
70,1,0,0,0,0,0,0,0,0,0,-1,1294,1023,0,0
77,1,0,0,0,0,0,0,0,0,0,-1,1301,1023,0,0
84,1,0,0,0,0,0,0,0,0,0,-1,1308,1023,0,0
91,1,0,0,0,0,0,0,0,0,0,-1,1315,1023,0,0
98,1,0,0,0,0,0,0,0,0,0,-1,1322,1023,0,0
105,1,0,0,0,0,0,0,0,0,0,-1,1329,1023,0,0
112,1,0,0,0,0,0,0,0,0,0,-1,1336,1023,0,0
119,1,0,0,0,0,0,0,0,0,0,-1,1343,1023,0,0
126,1,0,0,0,0,0,0,0,0,0,-1,1350,1023,0,0
133,1,0,0,0,0,0,0,0,0,0,-1,1357,1023,0,0
140,1,0,0,0,0,0,0,0,0,0,-1,1364,1023,0,0
147,1,0,0,0,0,0,0,0,0,0,-1,1371,1023,0,0
154,1,0,0,0,0,0,0,0,0,0,-1,1378,1023,0,0
161,1,0,0,0,0,0,0,0,0,0,-1,1385,1023,0,0
168,1,0,0,0,0,0,0,0,0,0,-1,1392,1023,0,0
175,1,0,0,0,0,0,0,0,0,0,-1,1399,1023,0,0
182,1,0,0,0,0,0,0,0,0,0,-1,1406,1023,0,0
189,1,0,0,0,0,0,0,0,0,0,-1,1413,1023,0,0
196,1,0,0,0,0,0,0,0,0,0,-1,1420,1023,0,0
203,1,0,0,0,0,0,0,0,0,0,-1,1427,1023,0,0
210,1,0,0,0,0,0,0,0,0,0,-1,1434,1023,0,0
217,1,0,0,0,0,0,0,0,0,0,-1,1441,1023,0,0
224,1,0,0,0,0,0,0,0,0,0,-1,1448,1023,0,0
231,1,0,0,0,0,0,0,0,0,0,-1,1455,1023,0,0
238,1,0,0,0,0,0,0,0,0,0,-1,1462,1023,0,0
245,1,0,0,0,0,0,0,0,0,0,-1,1469,1023,0,0
252,1,0,0,0,0,0,0,0,0,0,-1,1476,1023,0,0
259,1,0,0,0,0,0,0,0,0,0,-1,1483,1023,0,0
266,1,0,0,0,0,0,0,0,0,0,-1,1490,1023,0,0
273,1,0,0,0,0,0,0,0,0,0,-1,1497,1023,0,0
280,1,0,0,0,0,0,0,0,0,0,-1,1504,1023,0,0
287,1,0,0,0,0,0,0,0,0,0,-1,1511,1023,0,0
294,1,0,0,0,0,0,0,0,0,0,-1,1518,1023,0,0
301,1,0,0,0,0,0,0,0,0,0,-1,1525,1023,0,0
308,1,0,0,0,0,0,0,0,0,0,-1,1532,1023,0,0
315,1,0,0,0,0,0,0,0,0,0,-1,1539,1023,0,0
322,1,0,0,0,0,0,0,0,0,0,-1,1546,1023,0,0
329,1,0,0,0,0,0,0,0,0,0,-1,1553,1023,0,0
336,1,0,0,0,0,0,0,0,0,0,-1,1560,1023,0,0
343,1,0,0,0,0,0,0,0,0,0,-1,1567,1023,0,0
350,1,0,0,0,0,0,0,0,0,0,-1,1574,1023,0,0
357,1,0,0,0,0,0,0,0,0,0,-1,1581,1023,0,0
364,1,0,0,0,0,0,0,0,0,0,-1,1588,1023,0,0
371,1,0,0,0,0,0,0,0,0,0,-1,1595,1023,0,0
378,1,0,0,0,0,0,0,0,0,0,-1,1602,1023,0,0
385,1,0,0,0,0,0,0,0,0,0,-1,1609,1023,0,0
392,1,0,0,0,0,0,0,0,0,0,-1,1616,1023,0,0
399,1,0,0,0,0,0,0,0,0,0,-1,1623,1023,0,0
406,1,0,0,0,0,0,0,0,0,0,-1,1630,1023,0,0
413,1,0,0,0,0,0,0,0,0,0,-1,1637,1023,0,0
420,1,0,0,0,0,0,0,0,0,0,-1,1644,1023,0,0
427,1,0,0,0,0,0,0,0,0,0,-1,1651,1023,0,0
434,1,0,0,0,0,0,0,0,0,0,-1,1658,1023,0,0
441,1,0,0,0,0,0,0,0,0,0,-1,1665,1023,0,0
448,1,0,0,0,0,0,0,0,0,0,-1,1672,1023,0,0
455,1,0,0,0,0,0,0,0,0,0,-1,1679,1023,0,0
462,1,0,0,0,0,0,0,0,0,0,-1,1686,1023,0,0
469,1,0,0,0,0,0,0,0,0,0,-1,1693,1023,0,0
476,1,0,0,0,0,0,0,0,0,0,-1,1700,1023,0,0
483,1,0,0,0,0,0,0,0,0,0,-1,1707,1023,0,0
490,1,0,0,0,0,0,0,0,0,0,-1,1714,1023,0,0
497,1,0,0,0,0,0,0,0,0,0,-1,1721,1023,0,0
504,1,0,0,0,0,0,0,0,0,0,-1,1728,1023,0,0
511,1,0,0,0,0,0,0,0,0,0,-1,1735,1023,0,0
518,1,0,0,0,0,0,0,0,0,0,-1,1742,1023,0,0
525,1,0,0,0,0,0,0,0,0,0,-1,1749,1023,0,0
532,1,0,0,0,0,0,0,0,0,0,-1,1756,1023,0,0
539,1,0,0,0,0,0,0,0,0,0,-1,1763,1023,0,0
546,1,0,0,0,0,0,0,0,0,0,-1,1770,1023,0,0
553,1,0,0,0,0,0,0,0,0,0,-1,1777,1023,0,0
560,1,0,0,0,0,0,0,0,0,0,-1,1784,1023,0,0
567,1,0,0,0,0,0,0,0,0,0,-1,1791,1023,0,0
574,1,0,0,0,0,0,0,0,0,0,-1,1798,1023,0,0
581,1,0,0,0,0,0,0,0,0,0,-1,1805,1023,0,0
588,1,0,0,0,0,0,0,0,0,0,-1,1812,1023,0,0
595,1,0,0,0,0,0,0,0,0,0,-1,1819,1023,0,0
602,1,0,0,0,0,0,0,0,0,0,-1,1826,1023,0,0
609,1,0,0,0,0,0,0,0,0,0,-1,1833,1023,0,0
616,1,0,0,0,0,0,0,0,0,0,-1,1840,1023,0,0
623,1,0,0,0,0,0,0,0,0,0,-1,1847,1023,0,0
630,1,0,0,0,0,0,0,0,0,0,-1,1854,1023,0,0
637,1,0,0,0,0,0,0,0,0,0,-1,1861,1023,0,0
644,1,0,0,0,0,0,0,0,0,0,-1,1868,1023,0,0
651,1,15.1721,2.22052,0.00484538,0.0034326,0.00155402,0.00584603,0.00243196,0.572079,0.00339104,0.0347115,1875,1023,15.1722,-2.2205
658,1,15.2854,2.21399,0.00300084,0.00286328,0.00100414,0.00393855,0.00192556,0.751203,0.00227411,0.0369849,1882,1023,15.2854,-2.21401
665,1,15.1865,2.43945,0.00181568,0.00232362,0.000687433,0.0028025,0.0013368,0.962345,0.00161859,0.0397517,1889,1023,15.1866,-2.43945
672,1,15.1848,2.48566,0.000939287,0.00182759,0.000906138,0.00239257,0.000374301,1.01327,0.00148608,0.0395418,1896,1023,15.1849,-2.48565
679,1,15.1068,2.32104,-0.000144061,0.00137132,0.00157127,0.00235804,-0.00113078,1.01006,0.00205539,0.0383158,1903,1023,15.1068,-2.32105
686,1,14.9664,2.23853,-0.00112078,0.000969566,0.00233833,0.00248568,-0.0026369,0.995566,0.00295795,0.0380493,1910,1023,14.9664,-2.23853
693,1,15.019,2.34314,-0.00190967,0.000641398,0.00308469,0.00270387,-0.00397215,0.981445,0.00387752,0.0344039,1917,1023,15.0191,-2.34314
700,1,15.0791,2.36444,-0.00272216,0.000393562,0.00364548,0.0028001,-0.0051287,0.987324,0.00464303,0.0285593,1924,1023,15.0791,-2.36443
707,1,15.1104,2.29675,-0.00325028,0.000245297,0.00421649,0.00306189,-0.00606687,0.981876,0.00536483,0.0229575,1931,1023,15.1103,-2.29677
714,1,15.1473,2.28796,-0.0036757,0.00011728,0.00447733,0.00308321,-0.00664163,0.985731,0.00573856,0.0220847,1938,1023,15.1473,-2.28796
721,1,15.1948,2.56665,-0.00401248,5.53521e-05,0.00452931,0.00298645,-0.00694359,0.996433,0.00588289,0.0266118,1945,1023,15.1948,-2.56664
728,1,14.875,2.95013,-0.00414123,0.000147662,0.00454594,0.00302957,-0.00702314,1.00579,0.00595464,0.0199878,1952,1023,14.875,-2.95016
735,1,14.7891,3.05139,-0.00419664,0.000344651,0.0041482,0.002803,-0.00665499,1.03581,0.0056095,0.0129818,1959,1023,14.7891,-3.05138
742,1,14.7982,3.07825,-0.0045247,0.000622436,0.00315186,0.00211796,-0.00602022,1.12777,0.0048753,0.0127861,1966,1023,14.7983,-3.07825
749,1,14.7861,3.10455,-0.00529386,0.00118749,0.00205215,0.0017826,-0.00588898,1.28854,0.00463587,0.0112537,1973,1023,14.7861,-3.10457
756,1,14.795,3.12756,-0.00553176,0.00264794,6.27604e-05,0.00264842,-0.00553224,1.56312,0.00481993,0.0119313,1980,1023,14.795,-3.12754
763,1,14.8053,3.14972,-0.00571615,0.0042961,-0.00209333,0.00471615,-0.00613619,-1.37277,0.00628345,0.0140497,1987,1023,14.8052,-3.1497
770,1,14.807,3.16803,-0.00627335,0.0063849,-0.00472662,0.00795506,-0.00784351,-1.25007,0.00912139,0.0130136,1994,1023,14.807,-3.16801
777,1,14.7731,3.17914,-0.00698306,0.00935796,-0.00784484,0.0125144,-0.0101395,-1.18826,0.0131031,0.0137822,2001,1023,14.7731,-3.17913
784,1,14.7235,3.14972,-0.0081075,0.0134118,-0.0114313,0.0183507,-0.0130464,-1.16297,0.0182132,0.0326525,2008,1023,14.7235,-3.14969
791,1,14.6243,2.48889,-0.0092949,0.0188073,-0.0158604,0.0259455,-0.0164331,-1.14789,0.0246719,0.0432594,2015,1023,14.6243,-2.48892
798,1,14.4065,1.71033,0,0,0,0,0,0,0,-1,2022,1023,14.4065,-1.71034
805,1,13.9727,4.3241,0,0,0,0,0,0,0,-1,2029,1023,13.9727,-4.3241
812,1,14.6292,3.40063,0,0,0,0,0,0,0,-1,2036,1023,14.6292,-3.40063
-700,-6,0,0,0,0,0,0,0,0,0,-1,524,1030,0,0
-693,-6,-10.2876,-0.226074,0,0,0,0,0,0,0,-1,531,1030,-10.2876,0.2261
-686,-6,-11.1103,-0.541626,0,0,0,0,0,0,0,-1,538,1030,-11.1103,0.541681
-679,-6,-9.58398,-0.0432129,0,0,0,0,0,0,0,-1,545,1030,-9.58397,0.0431891
-672,-6,-9.15283,2.01782,0,0,0,0,0,0,0,-1,552,1030,-9.15281,-2.01781
-665,-6,-9.23981,1.76477,0.0185787,-0.00125892,0.00939854,0.0223243,-0.00500449,0.379236,0.0168013,0.0459459,559,1030,-9.23979,-1.76478
-658,-6,-9.32672,1.5011,0.0142489,-5.95636e-05,0.0070131,0.017113,-0.00292364,0.387718,0.0124977,0.0352245,566,1030,-9.32674,-1.50116
-651,-6,-9.19403,1.07568,0.0104755,0.000695268,0.00489369,0.0125036,-0.00133282,0.392883,0.00881363,0.0327647,573,1030,-9.19406,-1.07572
-644,-6,-9.14392,1.03857,0.00765801,0.00148051,0.00332454,0.00910721,3.1312e-05,0.411074,0.00606106,0.026236,580,1030,-9.14392,-1.03852
-637,-6,-9.17639,1.07996,0.00543716,0.00149224,0.00161343,0.00601298,0.000916416,0.342803,0.00374079,0.014966,587,1030,-9.17637,-1.07992
-630,-6,-9.19958,1.04041,0.00334699,0.00122626,-3.22727e-05,0.00334748,0.00122577,-0.015213,0.00195561,0.0126737,594,1030,-9.19956,-1.04037
-623,-6,-9.19946,1.02686,0.00109782,0.000900964,-0.00142008,0.00242288,-0.000424092,-0.750798,0.0017736,0.0135808,601,1030,-9.19947,-1.0268
-616,-6,-9.18304,1.03845,0.00015354,0.000361102,-0.00245214,0.00271166,-0.00219701,-0.806547,0.00283921,0.0143986,608,1030,-9.18304,-1.0384
-609,-6,-9.16217,1.02637,9.40931e-05,-0.000374817,-0.00291114,0.0027802,-0.00306092,-0.745216,0.00337367,0.0163648,615,1030,-9.16215,-1.02641
-602,-6,-9.1748,1.02759,2.53931e-05,-0.000925535,-0.00304663,0.00263343,-0.00353358,-0.707991,0.00357314,0.0125568,622,1030,-9.17481,-1.02763
-595,-6,-9.1463,1.03467,-3.57231e-05,-0.00140625,-0.00295768,0.00231504,-0.00375702,-0.671562,0.0035385,0.0126008,629,1030,-9.14632,-1.03466
-588,-6,-9.17627,0.791016,2.51941e-05,-0.00185824,-0.00284596,0.00208119,-0.00391424,-0.625621,0.00351498,0.0148547,636,1030,-9.17626,-0.79097
-581,-6,-9.23907,0.633789,2.60822e-05,-0.00253441,-0.0025652,0.00161277,-0.00412109,-0.553942,0.0034144,0.0224653,643,1030,-9.23908,-0.633805
-574,-6,-9.23218,0.628052,2.71746e-05,-0.00298017,-0.0020521,0.00106754,-0.00402054,-0.469214,0.00309813,0.0294202,650,1030,-9.23215,-0.628105
-567,-6,-9.19482,0.494873,-4.30135e-05,-0.00344514,-0.00132474,0.000411974,-0.00390013,-0.330831,0.00274773,0.0368409,657,1030,-9.19485,-0.494886
-560,-6,-9.17639,0.488159,-0.00016389,-0.00386232,-0.000385778,-0.000124079,-0.00390213,-0.102834,0.00256106,0.0388663,664,1030,-9.17641,-0.488179
-553,-6,-9.07904,0.542114,-0.00036848,-0.00422164,0.000733542,-0.000233557,-0.00435656,0.1819,0.00282974,0.038721,671,1030,-9.07906,-0.542171
-546,-6,-9.11859,0.62793,-0.000773642,-0.00450753,0.00198672,8.5681e-05,-0.00536685,0.408235,0.0036068,0.0408989,678,1030,-9.11859,-0.627954
-539,-6,-9.13934,0.691406,-0.00142197,-0.00473541,0.00305379,0.000395555,-0.00655293,0.53686,0.00450626,0.041086,685,1030,-9.13932,-0.691408
-532,-6,-9.24438,0.65686,-0.002602,-0.00475459,0.00336359,-0.0001467,-0.00720989,0.630554,0.00475845,0.0383763,692,1030,-9.24438,-0.656815
-525,-6,0,0,0,0,0,0,0,0,0,-1,699,1030,0,0
-518,-6,0,0,0,0,0,0,0,0,0,-1,706,1030,0,0
-511,-6,0,0,0,0,0,0,0,0,0,-1,713,1030,0,0
-504,-6,0,0,0,0,0,0,0,0,0,-1,720,1030,0,0
-497,-6,0,0,0,0,0,0,0,0,0,-1,727,1030,0,0
-490,-6,0,0,0,0,0,0,0,0,0,-1,734,1030,0,0
-483,-6,0,0,0,0,0,0,0,0,0,-1,741,1030,0,0
-476,-6,0,0,0,0,0,0,0,0,0,-1,748,1030,0,0
-469,-6,0,0,0,0,0,0,0,0,0,-1,755,1030,0,0
-462,-6,0,0,0,0,0,0,0,0,0,-1,762,1030,0,0
-455,-6,0,0,0,0,0,0,0,0,0,-1,769,1030,0,0
-448,-6,0,0,0,0,0,0,0,0,0,-1,776,1030,0,0
-441,-6,0,0,0,0,0,0,0,0,0,-1,783,1030,0,0
-434,-6,0,0,0,0,0,0,0,0,0,-1,790,1030,0,0
-427,-6,0,0,0,0,0,0,0,0,0,-1,797,1030,0,0
-420,-6,0,0,0,0,0,0,0,0,0,-1,804,1030,0,0
-413,-6,0,0,0,0,0,0,0,0,0,-1,811,1030,0,0
-406,-6,0,0,0,0,0,0,0,0,0,-1,818,1030,0,0
-399,-6,0,0,0,0,0,0,0,0,0,-1,825,1030,0,0
-392,-6,0,0,0,0,0,0,0,0,0,-1,832,1030,0,0
-385,-6,0,0,0,0,0,0,0,0,0,-1,839,1030,0,0
-378,-6,0,0,0,0,0,0,0,0,0,-1,846,1030,0,0
-371,-6,0,0,0,0,0,0,0,0,0,-1,853,1030,0,0
-364,-6,0,0,0,0,0,0,0,0,0,-1,860,1030,0,0
-357,-6,0,0,0,0,0,0,0,0,0,-1,867,1030,0,0
-350,-6,0,0,0,0,0,0,0,0,0,-1,874,1030,0,0
-343,-6,0,0,0,0,0,0,0,0,0,-1,881,1030,0,0
-336,-6,0,0,0,0,0,0,0,0,0,-1,888,1030,0,0
-329,-6,0,0,0,0,0,0,0,0,0,-1,895,1030,0,0
-322,-6,0,0,0,0,0,0,0,0,0,-1,902,1030,0,0
-315,-6,0,0,0,0,0,0,0,0,0,-1,909,1030,0,0
-308,-6,0,0,0,0,0,0,0,0,0,-1,916,1030,0,0
-301,-6,0,0,0,0,0,0,0,0,0,-1,923,1030,0,0
-294,-6,0,0,0,0,0,0,0,0,0,-1,930,1030,0,0
-287,-6,0,0,0,0,0,0,0,0,0,-1,937,1030,0,0
-280,-6,0,0,0,0,0,0,0,0,0,-1,944,1030,0,0
-273,-6,0,0,0,0,0,0,0,0,0,-1,951,1030,0,0
-266,-6,0,0,0,0,0,0,0,0,0,-1,958,1030,0,0
-259,-6,0,0,0,0,0,0,0,0,0,-1,965,1030,0,0
-252,-6,0,0,0,0,0,0,0,0,0,-1,972,1030,0,0
-245,-6,0,0,0,0,0,0,0,0,0,-1,979,1030,0,0
-238,-6,0,0,0,0,0,0,0,0,0,-1,986,1030,0,0
-231,-6,0,0,0,0,0,0,0,0,0,-1,993,1030,0,0
-224,-6,0,0,0,0,0,0,0,0,0,-1,1000,1030,0,0
-217,-6,0,0,0,0,0,0,0,0,0,-1,1007,1030,0,0
-210,-6,0,0,0,0,0,0,0,0,0,-1,1014,1030,0,0
-203,-6,0,0,0,0,0,0,0,0,0,-1,1021,1030,0,0
-196,-6,0,0,0,0,0,0,0,0,0,-1,1028,1030,0,0
-189,-6,0,0,0,0,0,0,0,0,0,-1,1035,1030,0,0
-182,-6,0,0,0,0,0,0,0,0,0,-1,1042,1030,0,0
-175,-6,0,0,0,0,0,0,0,0,0,-1,1049,1030,0,0
-168,-6,0,0,0,0,0,0,0,0,0,-1,1056,1030,0,0
-161,-6,0,0,0,0,0,0,0,0,0,-1,1063,1030,0,0
-154,-6,0,0,0,0,0,0,0,0,0,-1,1070,1030,0,0
-147,-6,0,0,0,0,0,0,0,0,0,-1,1077,1030,0,0
-140,-6,0,0,0,0,0,0,0,0,0,-1,1084,1030,0,0
-133,-6,0,0,0,0,0,0,0,0,0,-1,1091,1030,0,0
-126,-6,0,0,0,0,0,0,0,0,0,-1,1098,1030,0,0
-119,-6,0,0,0,0,0,0,0,0,0,-1,1105,1030,0,0
-112,-6,0,0,0,0,0,0,0,0,0,-1,1112,1030,0,0
-105,-6,0,0,0,0,0,0,0,0,0,-1,1119,1030,0,0
-98,-6,0,0,0,0,0,0,0,0,0,-1,1126,1030,0,0
-91,-6,0,0,0,0,0,0,0,0,0,-1,1133,1030,0,0
-84,-6,0,0,0,0,0,0,0,0,0,-1,1140,1030,0,0
-77,-6,0,0,0,0,0,0,0,0,0,-1,1147,1030,0,0
-70,-6,0,0,0,0,0,0,0,0,0,-1,1154,1030,0,0
-63,-6,0,0,0,0,0,0,0,0,0,-1,1161,1030,0,0
-56,-6,0,0,0,0,0,0,0,0,0,-1,1168,1030,0,0
-49,-6,0,0,0,0,0,0,0,0,0,-1,1175,1030,0,0
-42,-6,0,0,0,0,0,0,0,0,0,-1,1182,1030,0,0
-35,-6,0,0,0,0,0,0,0,0,0,-1,1189,1030,0,0
-28,-6,0,0,0,0,0,0,0,0,0,-1,1196,1030,0,0
-21,-6,0,0,0,0,0,0,0,0,0,-1,1203,1030,0,0
-14,-6,0,0,0,0,0,0,0,0,0,-1,1210,1030,0,0
-7,-6,0,0,0,0,0,0,0,0,0,-1,1217,1030,0,0
0,-6,0,0,0,0,0,0,0,0,0,-1,1224,1030,0,0
7,-6,0,0,0,0,0,0,0,0,0,-1,1231,1030,0,0
14,-6,0,0,0,0,0,0,0,0,0,-1,1238,1030,0,0
21,-6,0,0,0,0,0,0,0,0,0,-1,1245,1030,0,0
28,-6,0,0,0,0,0,0,0,0,0,-1,1252,1030,0,0
35,-6,0,0,0,0,0,0,0,0,0,-1,1259,1030,0,0
42,-6,0,0,0,0,0,0,0,0,0,-1,1266,1030,0,0
49,-6,0,0,0,0,0,0,0,0,0,-1,1273,1030,0,0
56,-6,0,0,0,0,0,0,0,0,0,-1,1280,1030,0,0
63,-6,0,0,0,0,0,0,0,0,0,-1,1287,1030,0,0
70,-6,0,0,0,0,0,0,0,0,0,-1,1294,1030,0,0
77,-6,0,0,0,0,0,0,0,0,0,-1,1301,1030,0,0
84,-6,0,0,0,0,0,0,0,0,0,-1,1308,1030,0,0
91,-6,0,0,0,0,0,0,0,0,0,-1,1315,1030,0,0
98,-6,0,0,0,0,0,0,0,0,0,-1,1322,1030,0,0
105,-6,0,0,0,0,0,0,0,0,0,-1,1329,1030,0,0
112,-6,0,0,0,0,0,0,0,0,0,-1,1336,1030,0,0
119,-6,0,0,0,0,0,0,0,0,0,-1,1343,1030,0,0
126,-6,0,0,0,0,0,0,0,0,0,-1,1350,1030,0,0
133,-6,0,0,0,0,0,0,0,0,0,-1,1357,1030,0,0
140,-6,0,0,0,0,0,0,0,0,0,-1,1364,1030,0,0
147,-6,0,0,0,0,0,0,0,0,0,-1,1371,1030,0,0
154,-6,0,0,0,0,0,0,0,0,0,-1,1378,1030,0,0
161,-6,0,0,0,0,0,0,0,0,0,-1,1385,1030,0,0
168,-6,0,0,0,0,0,0,0,0,0,-1,1392,1030,0,0
175,-6,0,0,0,0,0,0,0,0,0,-1,1399,1030,0,0
182,-6,0,0,0,0,0,0,0,0,0,-1,1406,1030,0,0
189,-6,0,0,0,0,0,0,0,0,0,-1,1413,1030,0,0
196,-6,0,0,0,0,0,0,0,0,0,-1,1420,1030,0,0
203,-6,0,0,0,0,0,0,0,0,0,-1,1427,1030,0,0
210,-6,0,0,0,0,0,0,0,0,0,-1,1434,1030,0,0
217,-6,0,0,0,0,0,0,0,0,0,-1,1441,1030,0,0
224,-6,0,0,0,0,0,0,0,0,0,-1,1448,1030,0,0
231,-6,0,0,0,0,0,0,0,0,0,-1,1455,1030,0,0
238,-6,0,0,0,0,0,0,0,0,0,-1,1462,1030,0,0
245,-6,0,0,0,0,0,0,0,0,0,-1,1469,1030,0,0
252,-6,0,0,0,0,0,0,0,0,0,-1,1476,1030,0,0
259,-6,0,0,0,0,0,0,0,0,0,-1,1483,1030,0,0
266,-6,0,0,0,0,0,0,0,0,0,-1,1490,1030,0,0
273,-6,0,0,0,0,0,0,0,0,0,-1,1497,1030,0,0
280,-6,0,0,0,0,0,0,0,0,0,-1,1504,1030,0,0
287,-6,0,0,0,0,0,0,0,0,0,-1,1511,1030,0,0
294,-6,0,0,0,0,0,0,0,0,0,-1,1518,1030,0,0
301,-6,0,0,0,0,0,0,0,0,0,-1,1525,1030,0,0
308,-6,0,0,0,0,0,0,0,0,0,-1,1532,1030,0,0
315,-6,0,0,0,0,0,0,0,0,0,-1,1539,1030,0,0
322,-6,0,0,0,0,0,0,0,0,0,-1,1546,1030,0,0
329,-6,0,0,0,0,0,0,0,0,0,-1,1553,1030,0,0
336,-6,0,0,0,0,0,0,0,0,0,-1,1560,1030,0,0
343,-6,0,0,0,0,0,0,0,0,0,-1,1567,1030,0,0
350,-6,0,0,0,0,0,0,0,0,0,-1,1574,1030,0,0
357,-6,0,0,0,0,0,0,0,0,0,-1,1581,1030,0,0
364,-6,0,0,0,0,0,0,0,0,0,-1,1588,1030,0,0
371,-6,0,0,0,0,0,0,0,0,0,-1,1595,1030,0,0
378,-6,0,0,0,0,0,0,0,0,0,-1,1602,1030,0,0
385,-6,0,0,0,0,0,0,0,0,0,-1,1609,1030,0,0
392,-6,0,0,0,0,0,0,0,0,0,-1,1616,1030,0,0
399,-6,0,0,0,0,0,0,0,0,0,-1,1623,1030,0,0
406,-6,0,0,0,0,0,0,0,0,0,-1,1630,1030,0,0
413,-6,0,0,0,0,0,0,0,0,0,-1,1637,1030,0,0
420,-6,0,0,0,0,0,0,0,0,0,-1,1644,1030,0,0
427,-6,0,0,0,0,0,0,0,0,0,-1,1651,1030,0,0
434,-6,0,0,0,0,0,0,0,0,0,-1,1658,1030,0,0
441,-6,0,0,0,0,0,0,0,0,0,-1,1665,1030,0,0
448,-6,0,0,0,0,0,0,0,0,0,-1,1672,1030,0,0
455,-6,0,0,0,0,0,0,0,0,0,-1,1679,1030,0,0
462,-6,0,0,0,0,0,0,0,0,0,-1,1686,1030,0,0
469,-6,0,0,0,0,0,0,0,0,0,-1,1693,1030,0,0
476,-6,0,0,0,0,0,0,0,0,0,-1,1700,1030,0,0
483,-6,0,0,0,0,0,0,0,0,0,-1,1707,1030,0,0
490,-6,0,0,0,0,0,0,0,0,0,-1,1714,1030,0,0
497,-6,0,0,0,0,0,0,0,0,0,-1,1721,1030,0,0
504,-6,0,0,0,0,0,0,0,0,0,-1,1728,1030,0,0
511,-6,0,0,0,0,0,0,0,0,0,-1,1735,1030,0,0
518,-6,0,0,0,0,0,0,0,0,0,-1,1742,1030,0,0
525,-6,0,0,0,0,0,0,0,0,0,-1,1749,1030,0,0
532,-6,0,0,0,0,0,0,0,0,0,-1,1756,1030,0,0
539,-6,0,0,0,0,0,0,0,0,0,-1,1763,1030,0,0
546,-6,0,0,0,0,0,0,0,0,0,-1,1770,1030,0,0
553,-6,0,0,0,0,0,0,0,0,0,-1,1777,1030,0,0
560,-6,0,0,0,0,0,0,0,0,0,-1,1784,1030,0,0
567,-6,0,0,0,0,0,0,0,0,0,-1,1791,1030,0,0
574,-6,0,0,0,0,0,0,0,0,0,-1,1798,1030,0,0
581,-6,0,0,0,0,0,0,0,0,0,-1,1805,1030,0,0
588,-6,0,0,0,0,0,0,0,0,0,-1,1812,1030,0,0
595,-6,0,0,0,0,0,0,0,0,0,-1,1819,1030,0,0
602,-6,0,0,0,0,0,0,0,0,0,-1,1826,1030,0,0
609,-6,0,0,0,0,0,0,0,0,0,-1,1833,1030,0,0
616,-6,0,0,0,0,0,0,0,0,0,-1,1840,1030,0,0
623,-6,0,0,0,0,0,0,0,0,0,-1,1847,1030,0,0
630,-6,0,0,0,0,0,0,0,0,0,-1,1854,1030,0,0
637,-6,0,0,0,0,0,0,0,0,0,-1,1861,1030,0,0
644,-6,0,0,0,0,0,0,0,0,0,-1,1868,1030,0,0
651,-6,15.2175,2.18799,0.00413735,0.00231142,0.000825239,0.00445505,0.00199372,0.367485,0.00257684,0.0368544,1875,1030,15.2175,-2.18797
658,-6,15.2456,2.12109,0.00251287,0.00197105,0.000550697,0.00285568,0.00162823,0.556809,0.00165413,0.0393004,1882,1030,15.2456,-2.12105
665,-6,15.2631,2.35828,0.00149228,0.00161375,0.000357773,0.00191591,0.00119012,0.86948,0.00111693,0.0412996,1889,1030,15.263,-2.35828
672,-6,15.313,2.4967,0.000764306,0.00127478,0.000665421,0.00173223,0.00030685,0.96853,0.00106734,0.0390574,1896,1030,15.313,-2.49676
679,-6,15.1583,2.19666,-0.000198981,0.000933288,0.0014337,0.00190858,-0.00117428,0.973439,0.00179664,0.0407814,1903,1030,15.1583,-2.19666
686,-6,14.8811,2.14661,-0.0011102,0.000615372,0.00229336,0.00220287,-0.0026977,0.965314,0.00283415,0.0384739,1910,1030,14.8811,-2.14658
693,-6,14.9718,2.32007,-0.00185116,0.000342463,0.00311866,0.00255157,-0.00406026,0.954489,0.00385032,0.034819,1917,1030,14.9717,-2.32009
700,-6,15.1033,2.41296,-0.00262215,0.000141888,0.00376208,0.00276776,-0.00524803,0.961424,0.00470119,0.0304898,1924,1030,15.1033,-2.41297
707,-6,15.1035,2.35962,-0.00309326,2.64432e-06,0.00440052,0.00311953,-0.00621015,0.954522,0.00548413,0.0256858,1931,1030,15.1035,-2.35965
714,-6,15.1078,2.37122,-0.00350853,-0.000100998,0.00470816,0.00320219,-0.00681172,0.959005,0.00590541,0.0267132,1938,1030,15.1078,-2.37118
721,-6,15.0975,2.7229,-0.00386093,-0.000144741,0.00476877,0.00311514,-0.00712082,0.971169,0.0060587,0.0298208,1945,1030,15.0975,-2.72288
728,-6,14.8682,3.00293,-0.00401015,-4.53687e-05,0.00479389,0.00315984,-0.00721536,0.981454,0.00614077,0.024203,1952,1030,14.8682,-3.00296
735,-6,14.8163,3.05615,-0.00404501,0.00014406,0.00441291,0.00293428,-0.00683523,1.00697,0.00578837,0.0145725,1959,1030,14.8162,-3.05609
742,-6,14.8129,3.08984,-0.00421589,0.00037036,0.00343612,0.00220825,-0.00605378,1.07964,0.00493932,0.0120823,1966,1030,14.8128,-3.0899
749,-6,14.782,3.11572,-0.00468241,0.00089838,0.00233809,0.00174845,-0.00553248,1.22208,0.0043888,0.0115119,1973,1030,14.7819,-3.11574
756,-6,14.8032,3.12964,-0.00459623,0.00232886,0.000340716,0.00234558,-0.00461295,1.52175,0.00408798,0.0128701,1980,1030,14.8032,-3.12959
763,-6,14.8232,3.14758,-0.00440019,0.00396486,-0.00189427,0.00437382,-0.00480916,-1.35816,0.00530378,0.012434,1987,1030,14.8233,-3.14756
770,-6,14.8184,3.16162,-0.0044101,0.00597953,-0.00460505,0.0077268,-0.00615737,-1.20815,0.00803308,0.0107216,1994,1030,14.8184,-3.16163
777,-6,14.7931,3.17468,-0.00436979,0.00884245,-0.00784066,0.012489,-0.00801632,-1.13547,0.0119322,0.0128761,2001,1030,14.7931,-3.17468
784,-6,14.7477,3.20349,-0.00453053,0.0127243,-0.0115581,0.0185199,-0.0103261,-1.10601,0.0168767,0.0324632,2008,1030,14.7476,-3.20353
791,-6,14.6946,3.21021,-0.00458039,0.0178742,-0.0161701,0.0263325,-0.0130388,-1.08885,0.0231589,0.0463703,2015,1030,14.6946,-3.21023
798,-6,14.6599,3.21545,0,0,0,0,0,0,0,-1,2022,1030,14.6599,-3.21546
805,-6,14.5128,3.81787,-0.00205579,0.0332497,-0.0293375,0.049836,-0.018642,-1.05624,0.0408803,0.043584,2029,1030,14.5128,-3.81785
812,-6,14.9685,3.32068,0.00123347,0.0441888,-0.0381829,0.0665201,-0.0210978,-1.04159,0.0528035,0.0446209,2036,1030,14.9685,-3.32062
-700,-13,0,0,0,0,0,0,0,0,0,-1,524,1037,0,0
-693,-13,-10.5358,-1.19373,0.0316009,-0.0110572,0.0154006,0.0365798,-0.0160361,0.312685,0.0311401,0.0440562,531,1037,-10.5358,1.19377
-686,-13,-10.8467,-0.681763,0.028113,-0.00797174,0.0149498,0.0335019,-0.0133607,0.345968,0.0278767,0.043052,538,1037,-10.8467,0.681799
-679,-13,-9.91235,-0.000976563,0.0240543,-0.00538865,0.0133442,0.0292021,-0.0105365,0.368181,0.0237717,0.0466972,545,1037,-9.91236,0.000942522
-672,-13,-8.73798,-0.0390625,0,0,0,0,0,0,0,-1,552,1037,-8.73799,0.0391087
-665,-13,-9.6532,2.03455,0.0160857,-0.00160864,0.00880735,0.0197222,-0.00524513,0.391571,0.0152012,0.0484728,559,1037,-9.65318,-2.03451
-658,-13,-9.44299,1.6012,0.0125607,-0.000381155,0.00652451,0.015279,-0.00309947,0.394761,0.011361,0.0452804,566,1037,-9.443,-1.60124
-651,-13,-9.25299,1.18713,0.0094394,0.00042884,0.00448553,0.0112916,-0.00142336,0.391601,0.00804427,0.0394622,573,1037,-9.25296,-1.18709
-644,-13,-9.15125,1.00293,0.00708034,0.0012907,0.00301806,0.00836746,3.57907e-06,0.403119,0.00557711,0.0275677,580,1037,-9.15126,-1.00289
-637,-13,-9.1731,1.06641,0.00525701,0.00133998,0.00128304,0.00563986,0.000957138,0.289978,0.00348495,0.0188409,587,1037,-9.1731,-1.06636
-630,-13,-9.19574,1.04785,0.003478,0.00112701,-0.000405814,0.00354607,0.00105893,-0.166209,0.00210195,0.0126605,594,1037,-9.19572,-1.04789
-623,-13,-9.18762,1.05225,0.00129252,0.000839649,-0.00168533,0.00276656,-0.000634393,-0.71862,0.00208821,0.0115569,601,1037,-9.18765,-1.05226
-616,-13,-9.16534,1.03357,0.0003264,0.000336815,-0.00261016,0.00294178,-0.00227856,-0.786396,0.00302206,0.0114538,608,1037,-9.16534,-1.03357
-609,-13,-9.12335,0.998657,0.000248098,-0.000460239,-0.00298832,0.00290316,-0.0031153,-0.726415,0.00347548,0.0168941,615,1037,-9.12335,-0.998648
-602,-13,-9.15118,1.01807,0.000183225,-0.00105329,-0.0030599,0.0026867,-0.00355677,-0.685714,0.00361631,0.0116918,622,1037,-9.1512,-1.01802
-595,-13,-9.14752,1.0188,0.000122433,-0.00157154,-0.0029209,0.00231667,-0.00376578,-0.644281,0.00354477,0.0133766,629,1037,-9.14754,-1.01884
-588,-13,-9.11945,0.740479,0.000173854,-0.00200772,-0.00270998,0.00200433,-0.0038382,-0.594065,0.00342813,0.0196295,636,1037,-9.11947,-0.740488
-581,-13,-9.19861,0.586914,0.000179238,-0.00262359,-0.0023502,0.00151414,-0.00395849,-0.516552,0.00326299,0.0199242,643,1037,-9.19861,-0.586962
-574,-13,-9.19836,0.630005,0.00020647,-0.00304064,-0.00174885,0.000969214,-0.00380338,-0.411268,0.00291291,0.0325655,650,1037,-9.19839,-0.630036
-567,-13,-9.27478,0.686035,0.000159218,-0.00343605,-0.000902246,0.000372936,-0.00364977,-0.232586,0.00256654,0.0397606,657,1037,-9.2748,-0.686022
-560,-13,-9.22864,0.54126,5.68364e-05,-0.00375608,0.000176169,6.49586e-05,-0.0037642,0.0460724,0.0025314,0.0410668,664,1037,-9.22863,-0.54123
-553,-13,-9.25073,0.250122,-0.000153038,-0.00398634,0.00145275,0.000335313,-0.00447469,0.324289,0.00310095,0.043022,671,1037,-9.25074,-0.250114
-546,-13,-9.36017,0.312378,-0.000598778,-0.00410654,0.00288141,0.00102057,-0.00572588,0.512007,0.00419899,0.0423237,678,1037,-9.36016,-0.312403
-539,-13,-9.30377,0.535522,-0.00133997,-0.00413827,0.00411571,0.00160791,-0.00708615,0.62155,0.00534136,0.0412726,685,1037,-9.30379,-0.535565
-532,-13,-9.302,0.573364,-0.00269422,-0.00397167,0.00450535,0.00121745,-0.00788334,0.714982,0.00570485,0.0398217,692,1037,-9.30199,-0.573345
-525,-13,0,0,0,0,0,0,0,0,0,-1,699,1037,0,0
-518,-13,0,0,0,0,0,0,0,0,0,-1,706,1037,0,0
-511,-13,0,0,0,0,0,0,0,0,0,-1,713,1037,0,0
-504,-13,0,0,0,0,0,0,0,0,0,-1,720,1037,0,0
-497,-13,0,0,0,0,0,0,0,0,0,-1,727,1037,0,0
-490,-13,0,0,0,0,0,0,0,0,0,-1,734,1037,0,0
-483,-13,0,0,0,0,0,0,0,0,0,-1,741,1037,0,0
-476,-13,0,0,0,0,0,0,0,0,0,-1,748,1037,0,0
-469,-13,0,0,0,0,0,0,0,0,0,-1,755,1037,0,0
-462,-13,0,0,0,0,0,0,0,0,0,-1,762,1037,0,0
-455,-13,0,0,0,0,0,0,0,0,0,-1,769,1037,0,0
-448,-13,0,0,0,0,0,0,0,0,0,-1,776,1037,0,0
-441,-13,0,0,0,0,0,0,0,0,0,-1,783,1037,0,0
-434,-13,0,0,0,0,0,0,0,0,0,-1,790,1037,0,0
-427,-13,0,0,0,0,0,0,0,0,0,-1,797,1037,0,0
-420,-13,0,0,0,0,0,0,0,0,0,-1,804,1037,0,0
-413,-13,0,0,0,0,0,0,0,0,0,-1,811,1037,0,0
-406,-13,0,0,0,0,0,0,0,0,0,-1,818,1037,0,0
-399,-13,0,0,0,0,0,0,0,0,0,-1,825,1037,0,0
-392,-13,0,0,0,0,0,0,0,0,0,-1,832,1037,0,0
-385,-13,0,0,0,0,0,0,0,0,0,-1,839,1037,0,0
-378,-13,0,0,0,0,0,0,0,0,0,-1,846,1037,0,0
-371,-13,0,0,0,0,0,0,0,0,0,-1,853,1037,0,0
-364,-13,0,0,0,0,0,0,0,0,0,-1,860,1037,0,0
-357,-13,0,0,0,0,0,0,0,0,0,-1,867,1037,0,0
-350,-13,0,0,0,0,0,0,0,0,0,-1,874,1037,0,0
-343,-13,0,0,0,0,0,0,0,0,0,-1,881,1037,0,0
-336,-13,0,0,0,0,0,0,0,0,0,-1,888,1037,0,0
-329,-13,0,0,0,0,0,0,0,0,0,-1,895,1037,0,0
-322,-13,0,0,0,0,0,0,0,0,0,-1,902,1037,0,0
-315,-13,0,0,0,0,0,0,0,0,0,-1,909,1037,0,0
-308,-13,0,0,0,0,0,0,0,0,0,-1,916,1037,0,0
-301,-13,0,0,0,0,0,0,0,0,0,-1,923,1037,0,0
-294,-13,0,0,0,0,0,0,0,0,0,-1,930,1037,0,0
-287,-13,0,0,0,0,0,0,0,0,0,-1,937,1037,0,0
-280,-13,0,0,0,0,0,0,0,0,0,-1,944,1037,0,0
-273,-13,0,0,0,0,0,0,0,0,0,-1,951,1037,0,0
-266,-13,0,0,0,0,0,0,0,0,0,-1,958,1037,0,0
-259,-13,0,0,0,0,0,0,0,0,0,-1,965,1037,0,0
-252,-13,0,0,0,0,0,0,0,0,0,-1,972,1037,0,0
-245,-13,0,0,0,0,0,0,0,0,0,-1,979,1037,0,0
-238,-13,0,0,0,0,0,0,0,0,0,-1,986,1037,0,0
-231,-13,0,0,0,0,0,0,0,0,0,-1,993,1037,0,0
-224,-13,0,0,0,0,0,0,0,0,0,-1,1000,1037,0,0
-217,-13,0,0,0,0,0,0,0,0,0,-1,1007,1037,0,0
-210,-13,0,0,0,0,0,0,0,0,0,-1,1014,1037,0,0
-203,-13,0,0,0,0,0,0,0,0,0,-1,1021,1037,0,0
-196,-13,0,0,0,0,0,0,0,0,0,-1,1028,1037,0,0
-189,-13,0,0,0,0,0,0,0,0,0,-1,1035,1037,0,0
-182,-13,0,0,0,0,0,0,0,0,0,-1,1042,1037,0,0
-175,-13,0,0,0,0,0,0,0,0,0,-1,1049,1037,0,0
-168,-13,0,0,0,0,0,0,0,0,0,-1,1056,1037,0,0
-161,-13,0,0,0,0,0,0,0,0,0,-1,1063,1037,0,0
-154,-13,0,0,0,0,0,0,0,0,0,-1,1070,1037,0,0
-147,-13,0,0,0,0,0,0,0,0,0,-1,1077,1037,0,0
-140,-13,0,0,0,0,0,0,0,0,0,-1,1084,1037,0,0
-133,-13,0,0,0,0,0,0,0,0,0,-1,1091,1037,0,0
-126,-13,0,0,0,0,0,0,0,0,0,-1,1098,1037,0,0
-119,-13,0,0,0,0,0,0,0,0,0,-1,1105,1037,0,0
-112,-13,0,0,0,0,0,0,0,0,0,-1,1112,1037,0,0
-105,-13,0,0,0,0,0,0,0,0,0,-1,1119,1037,0,0
-98,-13,0,0,0,0,0,0,0,0,0,-1,1126,1037,0,0
-91,-13,0,0,0,0,0,0,0,0,0,-1,1133,1037,0,0
-84,-13,0,0,0,0,0,0,0,0,0,-1,1140,1037,0,0
-77,-13,0,0,0,0,0,0,0,0,0,-1,1147,1037,0,0
-70,-13,0,0,0,0,0,0,0,0,0,-1,1154,1037,0,0
-63,-13,0,0,0,0,0,0,0,0,0,-1,1161,1037,0,0
-56,-13,0,0,0,0,0,0,0,0,0,-1,1168,1037,0,0
-49,-13,0,0,0,0,0,0,0,0,0,-1,1175,1037,0,0
-42,-13,0,0,0,0,0,0,0,0,0,-1,1182,1037,0,0
-35,-13,0,0,0,0,0,0,0,0,0,-1,1189,1037,0,0
-28,-13,0,0,0,0,0,0,0,0,0,-1,1196,1037,0,0
-21,-13,0,0,0,0,0,0,0,0,0,-1,1203,1037,0,0
-14,-13,0,0,0,0,0,0,0,0,0,-1,1210,1037,0,0
-7,-13,0,0,0,0,0,0,0,0,0,-1,1217,1037,0,0
0,-13,0,0,0,0,0,0,0,0,0,-1,1224,1037,0,0
7,-13,0,0,0,0,0,0,0,0,0,-1,1231,1037,0,0
14,-13,0,0,0,0,0,0,0,0,0,-1,1238,1037,0,0
21,-13,0,0,0,0,0,0,0,0,0,-1,1245,1037,0,0
28,-13,0,0,0,0,0,0,0,0,0,-1,1252,1037,0,0
35,-13,0,0,0,0,0,0,0,0,0,-1,1259,1037,0,0
42,-13,0,0,0,0,0,0,0,0,0,-1,1266,1037,0,0
49,-13,0,0,0,0,0,0,0,0,0,-1,1273,1037,0,0
56,-13,0,0,0,0,0,0,0,0,0,-1,1280,1037,0,0
63,-13,0,0,0,0,0,0,0,0,0,-1,1287,1037,0,0
70,-13,0,0,0,0,0,0,0,0,0,-1,1294,1037,0,0
77,-13,0,0,0,0,0,0,0,0,0,-1,1301,1037,0,0
84,-13,0,0,0,0,0,0,0,0,0,-1,1308,1037,0,0
91,-13,0,0,0,0,0,0,0,0,0,-1,1315,1037,0,0
98,-13,0,0,0,0,0,0,0,0,0,-1,1322,1037,0,0
105,-13,0,0,0,0,0,0,0,0,0,-1,1329,1037,0,0
112,-13,0,0,0,0,0,0,0,0,0,-1,1336,1037,0,0
119,-13,0,0,0,0,0,0,0,0,0,-1,1343,1037,0,0
126,-13,0,0,0,0,0,0,0,0,0,-1,1350,1037,0,0
133,-13,0,0,0,0,0,0,0,0,0,-1,1357,1037,0,0
140,-13,0,0,0,0,0,0,0,0,0,-1,1364,1037,0,0
147,-13,0,0,0,0,0,0,0,0,0,-1,1371,1037,0,0
154,-13,0,0,0,0,0,0,0,0,0,-1,1378,1037,0,0
161,-13,0,0,0,0,0,0,0,0,0,-1,1385,1037,0,0
168,-13,0,0,0,0,0,0,0,0,0,-1,1392,1037,0,0
175,-13,0,0,0,0,0,0,0,0,0,-1,1399,1037,0,0
182,-13,0,0,0,0,0,0,0,0,0,-1,1406,1037,0,0
189,-13,0,0,0,0,0,0,0,0,0,-1,1413,1037,0,0
196,-13,0,0,0,0,0,0,0,0,0,-1,1420,1037,0,0
203,-13,0,0,0,0,0,0,0,0,0,-1,1427,1037,0,0
210,-13,0,0,0,0,0,0,0,0,0,-1,1434,1037,0,0
217,-13,0,0,0,0,0,0,0,0,0,-1,1441,1037,0,0
224,-13,0,0,0,0,0,0,0,0,0,-1,1448,1037,0,0
231,-13,0,0,0,0,0,0,0,0,0,-1,1455,1037,0,0
238,-13,0,0,0,0,0,0,0,0,0,-1,1462,1037,0,0
245,-13,0,0,0,0,0,0,0,0,0,-1,1469,1037,0,0
252,-13,0,0,0,0,0,0,0,0,0,-1,1476,1037,0,0
259,-13,0,0,0,0,0,0,0,0,0,-1,1483,1037,0,0
266,-13,0,0,0,0,0,0,0,0,0,-1,1490,1037,0,0
273,-13,0,0,0,0,0,0,0,0,0,-1,1497,1037,0,0
280,-13,0,0,0,0,0,0,0,0,0,-1,1504,1037,0,0
287,-13,0,0,0,0,0,0,0,0,0,-1,1511,1037,0,0
294,-13,0,0,0,0,0,0,0,0,0,-1,1518,1037,0,0
301,-13,0,0,0,0,0,0,0,0,0,-1,1525,1037,0,0
308,-13,0,0,0,0,0,0,0,0,0,-1,1532,1037,0,0
315,-13,0,0,0,0,0,0,0,0,0,-1,1539,1037,0,0
322,-13,0,0,0,0,0,0,0,0,0,-1,1546,1037,0,0
329,-13,0,0,0,0,0,0,0,0,0,-1,1553,1037,0,0
336,-13,0,0,0,0,0,0,0,0,0,-1,1560,1037,0,0
343,-13,0,0,0,0,0,0,0,0,0,-1,1567,1037,0,0
350,-13,0,0,0,0,0,0,0,0,0,-1,1574,1037,0,0
357,-13,0,0,0,0,0,0,0,0,0,-1,1581,1037,0,0
364,-13,0,0,0,0,0,0,0,0,0,-1,1588,1037,0,0
371,-13,0,0,0,0,0,0,0,0,0,-1,1595,1037,0,0
378,-13,0,0,0,0,0,0,0,0,0,-1,1602,1037,0,0
385,-13,0,0,0,0,0,0,0,0,0,-1,1609,1037,0,0
392,-13,0,0,0,0,0,0,0,0,0,-1,1616,1037,0,0
399,-13,0,0,0,0,0,0,0,0,0,-1,1623,1037,0,0
406,-13,0,0,0,0,0,0,0,0,0,-1,1630,1037,0,0
413,-13,0,0,0,0,0,0,0,0,0,-1,1637,1037,0,0
420,-13,0,0,0,0,0,0,0,0,0,-1,1644,1037,0,0
427,-13,0,0,0,0,0,0,0,0,0,-1,1651,1037,0,0
434,-13,0,0,0,0,0,0,0,0,0,-1,1658,1037,0,0
441,-13,0,0,0,0,0,0,0,0,0,-1,1665,1037,0,0
448,-13,0,0,0,0,0,0,0,0,0,-1,1672,1037,0,0
455,-13,0,0,0,0,0,0,0,0,0,-1,1679,1037,0,0
462,-13,0,0,0,0,0,0,0,0,0,-1,1686,1037,0,0
469,-13,0,0,0,0,0,0,0,0,0,-1,1693,1037,0,0
476,-13,0,0,0,0,0,0,0,0,0,-1,1700,1037,0,0
483,-13,0,0,0,0,0,0,0,0,0,-1,1707,1037,0,0
490,-13,0,0,0,0,0,0,0,0,0,-1,1714,1037,0,0
497,-13,0,0,0,0,0,0,0,0,0,-1,1721,1037,0,0
504,-13,0,0,0,0,0,0,0,0,0,-1,1728,1037,0,0
511,-13,0,0,0,0,0,0,0,0,0,-1,1735,1037,0,0
518,-13,0,0,0,0,0,0,0,0,0,-1,1742,1037,0,0
525,-13,0,0,0,0,0,0,0,0,0,-1,1749,1037,0,0
532,-13,0,0,0,0,0,0,0,0,0,-1,1756,1037,0,0
539,-13,0,0,0,0,0,0,0,0,0,-1,1763,1037,0,0
546,-13,0,0,0,0,0,0,0,0,0,-1,1770,1037,0,0
553,-13,0,0,0,0,0,0,0,0,0,-1,1777,1037,0,0
560,-13,0,0,0,0,0,0,0,0,0,-1,1784,1037,0,0
567,-13,0,0,0,0,0,0,0,0,0,-1,1791,1037,0,0
574,-13,0,0,0,0,0,0,0,0,0,-1,1798,1037,0,0
581,-13,0,0,0,0,0,0,0,0,0,-1,1805,1037,0,0
588,-13,0,0,0,0,0,0,0,0,0,-1,1812,1037,0,0
595,-13,0,0,0,0,0,0,0,0,0,-1,1819,1037,0,0
602,-13,0,0,0,0,0,0,0,0,0,-1,1826,1037,0,0
609,-13,0,0,0,0,0,0,0,0,0,-1,1833,1037,0,0
616,-13,0,0,0,0,0,0,0,0,0,-1,1840,1037,0,0
623,-13,0,0,0,0,0,0,0,0,0,-1,1847,1037,0,0
630,-13,0,0,0,0,0,0,0,0,0,-1,1854,1037,0,0
637,-13,0,0,0,0,0,0,0,0,0,-1,1861,1037,0,0
644,-13,0,0,0,0,0,0,0,0,0,-1,1868,1037,0,0
651,-13,15.2312,2.23169,0.00296937,0.00181778,0.000207949,0.00300577,0.00178138,0.173288,0.00174529,0.0416444,1875,1037,15.2312,-2.23165
658,-13,14.9783,2.01563,0.00175157,0.00160682,0.000273384,0.001962,0.00139639,0.655997,0.00116612,0.0468943,1882,1037,14.9783,-2.01564
665,-13,15.0742,2.09009,0.00101581,0.0013479,0.00024893,0.00148109,0.000882626,1.07953,0.000860335,0.0450999,1889,1037,15.0743,-2.09003
672,-13,15.2953,2.37439,0.000515164,0.00109201,0.000651749,0.00151631,9.08721e-05,0.993715,0.000981983,0.0375767,1896,1037,15.2953,-2.37439
679,-13,15.2548,2.1908,-0.000280117,0.000802393,0.0015052,0.00186069,-0.00133842,0.957995,0.00185519,0.038108,1903,1037,15.2547,-2.19085
686,-13,15.0474,2.2063,-0.00109126,0.000515333,0.00242584,0.00226742,-0.00284335,0.945287,0.00295694,0.0393364,1910,1037,15.0473,-2.20635
693,-13,15.0051,2.37524,-0.00177041,0.000255676,0.00329085,0.00268588,-0.00420062,0.934714,0.00400785,0.0377474,1917,1037,15.0051,-2.3753
700,-13,15.1079,2.37659,-0.00248788,5.81184e-05,0.00399031,0.00297357,-0.00540333,0.939806,0.00490375,0.0348372,1924,1037,15.1079,-2.37663
707,-13,15.1367,2.33228,-0.00290966,-9.23823e-05,0.00464753,0.0033553,-0.00635734,0.932544,0.00569618,0.0292863,1931,1037,15.1368,-2.33232
714,-13,15.1244,2.45313,-0.00332103,-0.000197763,0.00496139,0.00344196,-0.00696076,0.937868,0.00611947,0.0231867,1938,1037,15.1244,-2.45312
721,-13,15.1265,2.81018,-0.00369351,-0.000251106,0.00500694,0.00332222,-0.00726684,0.950952,0.00625339,0.0270027,1945,1037,15.1265,-2.81017
728,-13,14.8961,3.03149,-0.00386546,-0.000157882,0.00502049,0.00334014,-0.00736348,0.962256,0.00632359,0.023578,1952,1037,14.8961,-3.03145
735,-13,14.84,3.0658,-0.00386491,1.34923e-05,0.00463887,0.00310217,-0.00695359,0.983376,0.00594595,0.0183902,1959,1037,14.84,-3.06583
742,-13,14.8152,3.11401,-0.00386515,0.000198624,0.00367745,0.00236819,-0.00603471,1.03779,0.005003,0.0100274,1966,1037,14.8152,-3.11401
749,-13,14.8184,3.11462,-0.0040211,0.000695087,0.00259428,0.00184283,-0.00516884,1.15427,0.00419726,0.0143388,1973,1037,14.8183,-3.11465
756,-13,14.8206,3.12988,-0.00361154,0.00206098,0.000662423,0.00213731,-0.00368787,1.45608,0.00340265,0.0126775,1980,1037,14.8206,-3.1299
763,-13,14.8348,3.13953,-0.00302217,0.00362175,-0.00155617,0.00396819,-0.0033686,-1.35175,0.00424061,0.0106137,1987,1037,14.8348,-3.1395
770,-13,14.8199,3.14661,-0.00249067,0.00551554,-0.00422557,0.00733311,-0.00430824,-1.16458,0.00679635,0.00963437,1994,1037,14.8199,-3.14666
777,-13,14.8021,3.16223,-0.00173313,0.00818723,-0.00741016,0.0121441,-0.00569,-1.08034,0.0105189,0.0112319,2001,1037,14.8021,-3.16225
784,-13,14.8076,3.20581,-0.00100584,0.0117746,-0.011044,0.0181439,-0.0073751,-1.04767,0.0151644,0.0263278,2008,1037,14.8077,-3.20587
791,-13,14.7897,3.25537,-5.22083e-05,0.0165018,-0.0155525,0.0258426,-0.00939302,-1.02994,0.0210693,0.044364,2015,1037,14.7897,-3.25535
798,-13,14.7965,3.32349,0,0,0,0,0,0,0,-1,2022,1037,14.7965,-3.32351
805,-13,14.8042,3.3833,0.00463081,0.0305046,-0.0285335,0.048897,-0.0137616,-0.998234,0.0380246,0.040902,2029,1037,14.8042,-3.38328
812,-13,15.0857,3.13733,0.00887928,0.0403929,-0.0373438,0.065168,-0.0158958,-0.985036,0.0496003,0.0393734,2036,1037,15.0858,-3.13734
-700,-20,-10.4585,-2.021,0.0179397,-0.0189471,0.00938613,0.0201907,-0.0211981,0.235377,0.0238982,0.0497162,524,1044,-10.4585,2.02102
-693,-20,-10.3904,-1.44861,0.0198687,-0.0131042,0.0133811,0.0246156,-0.0178512,0.3409,0.0246217,0.0448573,531,1044,-10.3904,1.44856
-686,-20,-10.4006,-1.02185,0.0195703,-0.00882056,0.0140875,0.025374,-0.0146243,0.390792,0.0233694,0.0424368,538,1044,-10.4006,1.0218
-679,-20,-10.1688,-0.00158691,0.0180252,-0.0055958,0.013123,0.0238698,-0.0114404,0.418995,0.0208031,0.0464716,545,1044,-10.1688,0.00161505
-672,-20,-9.29437,0.0308838,0.0158827,-0.00317157,0.0112775,0.0211187,-0.00840753,0.434668,0.0175656,0.0495183,552,1044,-9.29435,-0.0308867
-665,-20,-9.00452,0.401855,0.0135057,-0.00139589,0.00904966,0.0177771,-0.00566732,0.440997,0.0141247,0.0486393,559,1044,-9.00452,-0.401864
-658,-20,-9.60406,1.47559,0.0110404,-0.000158871,0.00679001,0.0142419,-0.00336038,0.440591,0.0107906,0.04823,566,1044,-9.60408,-1.4756
-651,-20,-9.23743,1.15332,0.00864655,0.000614795,0.00471806,0.0108264,-0.00156508,0.432811,0.00779188,0.0381789,573,1044,-9.23744,-1.15334
-644,-20,-9.13989,0.994629,0.00701921,0.00145988,0.00324669,0.0085136,-3.45111e-05,0.43137,0.00568727,0.0244174,580,1044,-9.13988,-0.994677
-637,-20,-9.16388,1.00525,0.00545626,0.00143359,0.00135473,0.00586995,0.0010199,0.296375,0.00362152,0.016244,587,1044,-9.16385,-1.00523
-630,-20,-9.19012,1.03491,0.003665,0.00117589,-0.000504008,0.00376318,0.00107771,-0.192392,0.00223779,0.0134967,594,1044,-9.19012,-1.03496
-623,-20,-9.17969,1.03894,0.00144714,0.000841307,-0.00180466,0.00297413,-0.000685681,-0.702247,0.00224647,0.0129029,601,1044,-9.17969,-1.03891
-616,-20,-9.16803,1.02795,0.000391294,0.000352543,-0.00268441,0.0030564,-0.00231256,-0.781789,0.00310967,0.0131522,608,1044,-9.16802,-1.02798
-609,-20,-9.17145,1.00854,0.000298955,-0.000458405,-0.00301832,0.00296226,-0.00312171,-0.722994,0.00351298,0.0153902,615,1044,-9.17146,-1.00859
-602,-20,-9.17413,1.0116,0.000252819,-0.0010509,-0.00305035,0.00272018,-0.00351826,-0.680132,0.00361158,0.0112146,622,1044,-9.17412,-1.01158
-595,-20,-9.17664,1.00305,0.000225805,-0.00157892,-0.0028939,0.00235477,-0.00370788,-0.634268,0.00352921,0.0117034,629,1044,-9.17662,-1.003
-588,-20,-9.17194,0.779297,0.000288712,-0.00198459,-0.00260735,0.00199639,-0.00369227,-0.579847,0.00333265,0.0169938,636,1044,-9.17193,-0.779284
-581,-20,-9.17645,0.610474,0.000308166,-0.00253597,-0.00216704,0.00147808,-0.00370588,-0.495029,0.00308371,0.026257,643,1044,-9.17645,-0.610498
-574,-20,-9.13934,0.806519,0.00038943,-0.00295245,-0.00150115,0.000964706,-0.00352773,-0.365961,0.00273079,0.0395383,650,1044,-9.13934,-0.806495
-567,-20,-9.25342,0.888794,0.000394735,-0.00333056,-0.00055172,0.000474728,-0.00341055,-0.143984,0.00244734,0.044508,657,1044,-9.25342,-0.888786
-560,-20,-9.20551,0.92688,0.000344431,-0.00364654,0.000646666,0.000446597,-0.0037487,0.156693,0.00266052,0.0427927,664,1044,-9.2055,-0.926887
-553,-20,-9.22931,0.564453,0.000163977,-0.00389228,0.00205339,0.00102198,-0.00475028,0.395794,0.00355679,0.0438695,671,1044,-9.2293,-0.564487
-546,-20,-9.1051,0.481445,-0.000282636,-0.00405456,0.00361879,0.00191214,-0.00624934,0.545182,0.00492884,0.0422175,678,1044,-9.10512,-0.481391
-539,-20,-9.25708,0.842529,0,0,0,0,0,0,0,-1,685,1044,-9.25706,-0.842531
-532,-20,-9.29028,0.559692,0,0,0,0,0,0,0,-1,692,1044,-9.29029,-0.559681
-525,-20,0,0,0,0,0,0,0,0,0,-1,699,1044,0,0
-518,-20,0,0,0,0,0,0,0,0,0,-1,706,1044,0,0
-511,-20,0,0,0,0,0,0,0,0,0,-1,713,1044,0,0
-504,-20,0,0,0,0,0,0,0,0,0,-1,720,1044,0,0
-497,-20,0,0,0,0,0,0,0,0,0,-1,727,1044,0,0
-490,-20,0,0,0,0,0,0,0,0,0,-1,734,1044,0,0
-483,-20,0,0,0,0,0,0,0,0,0,-1,741,1044,0,0
-476,-20,0,0,0,0,0,0,0,0,0,-1,748,1044,0,0
-469,-20,0,0,0,0,0,0,0,0,0,-1,755,1044,0,0
-462,-20,0,0,0,0,0,0,0,0,0,-1,762,1044,0,0
-455,-20,0,0,0,0,0,0,0,0,0,-1,769,1044,0,0
-448,-20,0,0,0,0,0,0,0,0,0,-1,776,1044,0,0
-441,-20,0,0,0,0,0,0,0,0,0,-1,783,1044,0,0
-434,-20,0,0,0,0,0,0,0,0,0,-1,790,1044,0,0
-427,-20,0,0,0,0,0,0,0,0,0,-1,797,1044,0,0
-420,-20,0,0,0,0,0,0,0,0,0,-1,804,1044,0,0
-413,-20,0,0,0,0,0,0,0,0,0,-1,811,1044,0,0
-406,-20,0,0,0,0,0,0,0,0,0,-1,818,1044,0,0
-399,-20,0,0,0,0,0,0,0,0,0,-1,825,1044,0,0
-392,-20,0,0,0,0,0,0,0,0,0,-1,832,1044,0,0
-385,-20,0,0,0,0,0,0,0,0,0,-1,839,1044,0,0
-378,-20,0,0,0,0,0,0,0,0,0,-1,846,1044,0,0
-371,-20,0,0,0,0,0,0,0,0,0,-1,853,1044,0,0
-364,-20,0,0,0,0,0,0,0,0,0,-1,860,1044,0,0
-357,-20,0,0,0,0,0,0,0,0,0,-1,867,1044,0,0
-350,-20,0,0,0,0,0,0,0,0,0,-1,874,1044,0,0
-343,-20,0,0,0,0,0,0,0,0,0,-1,881,1044,0,0
-336,-20,0,0,0,0,0,0,0,0,0,-1,888,1044,0,0
-329,-20,0,0,0,0,0,0,0,0,0,-1,895,1044,0,0
-322,-20,0,0,0,0,0,0,0,0,0,-1,902,1044,0,0
-315,-20,0,0,0,0,0,0,0,0,0,-1,909,1044,0,0
-308,-20,0,0,0,0,0,0,0,0,0,-1,916,1044,0,0
-301,-20,0,0,0,0,0,0,0,0,0,-1,923,1044,0,0
-294,-20,0,0,0,0,0,0,0,0,0,-1,930,1044,0,0
-287,-20,0,0,0,0,0,0,0,0,0,-1,937,1044,0,0
-280,-20,0,0,0,0,0,0,0,0,0,-1,944,1044,0,0
-273,-20,0,0,0,0,0,0,0,0,0,-1,951,1044,0,0
-266,-20,0,0,0,0,0,0,0,0,0,-1,958,1044,0,0
-259,-20,0,0,0,0,0,0,0,0,0,-1,965,1044,0,0
-252,-20,0,0,0,0,0,0,0,0,0,-1,972,1044,0,0
-245,-20,0,0,0,0,0,0,0,0,0,-1,979,1044,0,0
-238,-20,0,0,0,0,0,0,0,0,0,-1,986,1044,0,0
-231,-20,0,0,0,0,0,0,0,0,0,-1,993,1044,0,0
-224,-20,0,0,0,0,0,0,0,0,0,-1,1000,1044,0,0
-217,-20,0,0,0,0,0,0,0,0,0,-1,1007,1044,0,0
-210,-20,0,0,0,0,0,0,0,0,0,-1,1014,1044,0,0
-203,-20,0,0,0,0,0,0,0,0,0,-1,1021,1044,0,0
-196,-20,0,0,0,0,0,0,0,0,0,-1,1028,1044,0,0
-189,-20,0,0,0,0,0,0,0,0,0,-1,1035,1044,0,0
-182,-20,0,0,0,0,0,0,0,0,0,-1,1042,1044,0,0
-175,-20,0,0,0,0,0,0,0,0,0,-1,1049,1044,0,0
-168,-20,0,0,0,0,0,0,0,0,0,-1,1056,1044,0,0
-161,-20,0,0,0,0,0,0,0,0,0,-1,1063,1044,0,0
-154,-20,0,0,0,0,0,0,0,0,0,-1,1070,1044,0,0
-147,-20,0,0,0,0,0,0,0,0,0,-1,1077,1044,0,0
-140,-20,0,0,0,0,0,0,0,0,0,-1,1084,1044,0,0
-133,-20,0,0,0,0,0,0,0,0,0,-1,1091,1044,0,0
-126,-20,0,0,0,0,0,0,0,0,0,-1,1098,1044,0,0
-119,-20,0,0,0,0,0,0,0,0,0,-1,1105,1044,0,0
-112,-20,0,0,0,0,0,0,0,0,0,-1,1112,1044,0,0
-105,-20,0,0,0,0,0,0,0,0,0,-1,1119,1044,0,0
-98,-20,0,0,0,0,0,0,0,0,0,-1,1126,1044,0,0
-91,-20,0,0,0,0,0,0,0,0,0,-1,1133,1044,0,0
-84,-20,0,0,0,0,0,0,0,0,0,-1,1140,1044,0,0
-77,-20,0,0,0,0,0,0,0,0,0,-1,1147,1044,0,0
-70,-20,0,0,0,0,0,0,0,0,0,-1,1154,1044,0,0
-63,-20,0,0,0,0,0,0,0,0,0,-1,1161,1044,0,0
-56,-20,0,0,0,0,0,0,0,0,0,-1,1168,1044,0,0
-49,-20,0,0,0,0,0,0,0,0,0,-1,1175,1044,0,0
-42,-20,0,0,0,0,0,0,0,0,0,-1,1182,1044,0,0
-35,-20,0,0,0,0,0,0,0,0,0,-1,1189,1044,0,0
-28,-20,0,0,0,0,0,0,0,0,0,-1,1196,1044,0,0
-21,-20,0,0,0,0,0,0,0,0,0,-1,1203,1044,0,0
-14,-20,0,0,0,0,0,0,0,0,0,-1,1210,1044,0,0
-7,-20,0,0,0,0,0,0,0,0,0,-1,1217,1044,0,0
0,-20,0,0,0,0,0,0,0,0,0,-1,1224,1044,0,0
7,-20,0,0,0,0,0,0,0,0,0,-1,1231,1044,0,0
14,-20,0,0,0,0,0,0,0,0,0,-1,1238,1044,0,0
21,-20,0,0,0,0,0,0,0,0,0,-1,1245,1044,0,0
28,-20,0,0,0,0,0,0,0,0,0,-1,1252,1044,0,0
35,-20,0,0,0,0,0,0,0,0,0,-1,1259,1044,0,0
42,-20,0,0,0,0,0,0,0,0,0,-1,1266,1044,0,0
49,-20,0,0,0,0,0,0,0,0,0,-1,1273,1044,0,0
56,-20,0,0,0,0,0,0,0,0,0,-1,1280,1044,0,0
63,-20,0,0,0,0,0,0,0,0,0,-1,1287,1044,0,0
70,-20,0,0,0,0,0,0,0,0,0,-1,1294,1044,0,0
77,-20,0,0,0,0,0,0,0,0,0,-1,1301,1044,0,0
84,-20,0,0,0,0,0,0,0,0,0,-1,1308,1044,0,0
91,-20,0,0,0,0,0,0,0,0,0,-1,1315,1044,0,0
98,-20,0,0,0,0,0,0,0,0,0,-1,1322,1044,0,0
105,-20,0,0,0,0,0,0,0,0,0,-1,1329,1044,0,0
112,-20,0,0,0,0,0,0,0,0,0,-1,1336,1044,0,0
119,-20,0,0,0,0,0,0,0,0,0,-1,1343,1044,0,0
126,-20,0,0,0,0,0,0,0,0,0,-1,1350,1044,0,0
133,-20,0,0,0,0,0,0,0,0,0,-1,1357,1044,0,0
140,-20,0,0,0,0,0,0,0,0,0,-1,1364,1044,0,0
147,-20,0,0,0,0,0,0,0,0,0,-1,1371,1044,0,0
154,-20,0,0,0,0,0,0,0,0,0,-1,1378,1044,0,0
161,-20,0,0,0,0,0,0,0,0,0,-1,1385,1044,0,0
168,-20,0,0,0,0,0,0,0,0,0,-1,1392,1044,0,0
175,-20,0,0,0,0,0,0,0,0,0,-1,1399,1044,0,0
182,-20,0,0,0,0,0,0,0,0,0,-1,1406,1044,0,0
189,-20,0,0,0,0,0,0,0,0,0,-1,1413,1044,0,0
196,-20,0,0,0,0,0,0,0,0,0,-1,1420,1044,0,0
203,-20,0,0,0,0,0,0,0,0,0,-1,1427,1044,0,0
210,-20,0,0,0,0,0,0,0,0,0,-1,1434,1044,0,0
217,-20,0,0,0,0,0,0,0,0,0,-1,1441,1044,0,0
224,-20,0,0,0,0,0,0,0,0,0,-1,1448,1044,0,0
231,-20,0,0,0,0,0,0,0,0,0,-1,1455,1044,0,0
238,-20,0,0,0,0,0,0,0,0,0,-1,1462,1044,0,0
245,-20,0,0,0,0,0,0,0,0,0,-1,1469,1044,0,0
252,-20,0,0,0,0,0,0,0,0,0,-1,1476,1044,0,0
259,-20,0,0,0,0,0,0,0,0,0,-1,1483,1044,0,0
266,-20,0,0,0,0,0,0,0,0,0,-1,1490,1044,0,0
273,-20,0,0,0,0,0,0,0,0,0,-1,1497,1044,0,0
280,-20,0,0,0,0,0,0,0,0,0,-1,1504,1044,0,0
287,-20,0,0,0,0,0,0,0,0,0,-1,1511,1044,0,0
294,-20,0,0,0,0,0,0,0,0,0,-1,1518,1044,0,0
301,-20,0,0,0,0,0,0,0,0,0,-1,1525,1044,0,0
308,-20,0,0,0,0,0,0,0,0,0,-1,1532,1044,0,0
315,-20,0,0,0,0,0,0,0,0,0,-1,1539,1044,0,0
322,-20,0,0,0,0,0,0,0,0,0,-1,1546,1044,0,0
329,-20,0,0,0,0,0,0,0,0,0,-1,1553,1044,0,0
336,-20,0,0,0,0,0,0,0,0,0,-1,1560,1044,0,0
343,-20,0,0,0,0,0,0,0,0,0,-1,1567,1044,0,0
350,-20,0,0,0,0,0,0,0,0,0,-1,1574,1044,0,0
357,-20,0,0,0,0,0,0,0,0,0,-1,1581,1044,0,0
364,-20,0,0,0,0,0,0,0,0,0,-1,1588,1044,0,0
371,-20,0,0,0,0,0,0,0,0,0,-1,1595,1044,0,0
378,-20,0,0,0,0,0,0,0,0,0,-1,1602,1044,0,0
385,-20,0,0,0,0,0,0,0,0,0,-1,1609,1044,0,0
392,-20,0,0,0,0,0,0,0,0,0,-1,1616,1044,0,0
399,-20,0,0,0,0,0,0,0,0,0,-1,1623,1044,0,0
406,-20,0,0,0,0,0,0,0,0,0,-1,1630,1044,0,0
413,-20,0,0,0,0,0,0,0,0,0,-1,1637,1044,0,0
420,-20,0,0,0,0,0,0,0,0,0,-1,1644,1044,0,0
427,-20,0,0,0,0,0,0,0,0,0,-1,1651,1044,0,0
434,-20,0,0,0,0,0,0,0,0,0,-1,1658,1044,0,0
441,-20,0,0,0,0,0,0,0,0,0,-1,1665,1044,0,0
448,-20,0,0,0,0,0,0,0,0,0,-1,1672,1044,0,0
455,-20,0,0,0,0,0,0,0,0,0,-1,1679,1044,0,0
462,-20,0,0,0,0,0,0,0,0,0,-1,1686,1044,0,0
469,-20,0,0,0,0,0,0,0,0,0,-1,1693,1044,0,0
476,-20,0,0,0,0,0,0,0,0,0,-1,1700,1044,0,0
483,-20,0,0,0,0,0,0,0,0,0,-1,1707,1044,0,0
490,-20,0,0,0,0,0,0,0,0,0,-1,1714,1044,0,0
497,-20,0,0,0,0,0,0,0,0,0,-1,1721,1044,0,0
504,-20,0,0,0,0,0,0,0,0,0,-1,1728,1044,0,0
511,-20,0,0,0,0,0,0,0,0,0,-1,1735,1044,0,0
518,-20,0,0,0,0,0,0,0,0,0,-1,1742,1044,0,0
525,-20,0,0,0,0,0,0,0,0,0,-1,1749,1044,0,0
532,-20,0,0,0,0,0,0,0,0,0,-1,1756,1044,0,0
539,-20,0,0,0,0,0,0,0,0,0,-1,1763,1044,0,0
546,-20,0,0,0,0,0,0,0,0,0,-1,1770,1044,0,0
553,-20,0,0,0,0,0,0,0,0,0,-1,1777,1044,0,0
560,-20,0,0,0,0,0,0,0,0,0,-1,1784,1044,0,0
567,-20,0,0,0,0,0,0,0,0,0,-1,1791,1044,0,0
574,-20,0,0,0,0,0,0,0,0,0,-1,1798,1044,0,0
581,-20,0,0,0,0,0,0,0,0,0,-1,1805,1044,0,0
588,-20,0,0,0,0,0,0,0,0,0,-1,1812,1044,0,0
595,-20,0,0,0,0,0,0,0,0,0,-1,1819,1044,0,0
602,-20,0,0,0,0,0,0,0,0,0,-1,1826,1044,0,0
609,-20,0,0,0,0,0,0,0,0,0,-1,1833,1044,0,0
616,-20,0,0,0,0,0,0,0,0,0,-1,1840,1044,0,0
623,-20,0,0,0,0,0,0,0,0,0,-1,1847,1044,0,0
630,-20,0,0,0,0,0,0,0,0,0,-1,1854,1044,0,0
637,-20,0,0,0,0,0,0,0,0,0,-1,1861,1044,0,0
644,-20,0,0,0,0,0,0,0,0,0,-1,1868,1044,0,0
651,-20,15.1763,2.39404,0.00130302,0.00292502,0.000156962,0.00294007,0.00128797,1.47521,0.00170179,0.0414596,1875,1044,15.1763,-2.39403
658,-20,15.0231,2.08606,0.000684933,0.00253753,0.000329254,0.00259431,0.000628156,1.40003,0.00156282,0.0454432,1882,1044,15.0231,-2.08603
665,-20,15.3409,2.38269,0.000376287,0.00212371,0.000315112,0.0021788,0.0003212,1.39773,0.00135819,0.0411008,1889,1044,15.3409,-2.38274
672,-20,15.2263,2.31079,0.000193316,0.00174274,0.000693776,0.00200798,-7.19262e-05,1.20563,0.00136326,0.026251,1896,1044,15.2264,-2.31085
679,-20,15.196,2.26477,-0.000376673,0.00133012,0.00153945,0.00223689,-0.00128344,1.03849,0.00205716,0.0274037,1903,1044,15.196,-2.26475
686,-20,15.2991,2.22314,-0.001054,0.000930467,0.00245999,0.0025908,-0.00271433,0.977093,0.00306319,0.0367129,1910,1044,15.2991,-2.22318
693,-20,15.1052,2.36499,-0.0016559,0.000570412,0.00332406,0.00296275,-0.00404824,0.946969,0.00406393,0.041861,1917,1044,15.1052,-2.36494
700,-20,15.1029,2.38599,-0.00230969,0.000270131,0.0040442,0.00322514,-0.00526471,0.939775,0.00494854,0.0376366,1924,1044,15.1029,-2.38594
707,-20,15.1776,2.27869,-0.0026838,4.92854e-05,0.00470137,0.0035787,-0.00621321,0.926835,0.00572116,0.0292311,1931,1044,15.1776,-2.27863
714,-20,15.1652,2.32031,-0.00309779,-0.000116097,0.00501628,0.00362619,-0.00684008,0.929842,0.00613694,0.0219411,1938,1044,15.1651,-2.32027
721,-20,15.1965,2.43762,-0.00348839,-0.000231854,0.00505715,0.0034527,-0.00717294,0.941144,0.0062588,0.018851,1945,1044,15.1965,-2.43765
728,-20,14.9614,2.85693,-0.00368111,-0.000176847,0.0050781,0.0034429,-0.00730086,0.951521,0.00633481,0.0180909,1952,1044,14.9615,-2.85699
735,-20,14.7806,3.073,-0.00365267,-3.02637e-05,0.00472843,0.00322198,-0.00690492,0.968301,0.00597426,0.0166076,1959,1044,14.7806,-3.07298
742,-20,14.8304,3.11133,-0.00350348,0.000168716,0.00383833,0.0025875,-0.00592226,1.00849,0.00503729,0.0137676,1966,1044,14.8305,-3.11135
749,-20,14.8636,3.09534,-0.00336431,0.000679719,0.0028392,0.00214333,-0.00482792,1.09482,0.00412313,0.01525,1973,1044,14.8637,-3.09532
756,-20,14.8596,3.11304,-0.00269149,0.00197035,0.00109192,0.00221343,-0.00293457,1.35175,0.0029819,0.0119278,1980,1044,14.8596,-3.11298
763,-20,14.844,3.11572,-0.00179671,0.00347067,-0.00096718,0.00364264,-0.00196868,-1.39482,0.0032874,0.0117729,1987,1044,14.844,-3.11574
770,-20,14.8273,3.13757,-0.000837134,0.00527631,-0.00341947,0.00680613,-0.00236695,-1.15012,0.00549891,0.0114684,1994,1044,14.8273,-3.13755
777,-20,14.8029,3.14844,0.000457019,0.00779241,-0.00633478,0.0114447,-0.00319522,-1.04781,0.00888839,0.0123457,2001,1044,14.8028,-3.1484
784,-20,14.8344,3.1543,0.00181762,0.0111029,-0.00961487,0.0171373,-0.00421681,-1.01032,0.0130594,0.0179906,2008,1044,14.8343,-3.15425
791,-20,14.9609,3.29871,0.003424,0.0153948,-0.0136797,0.0243412,-0.00552246,-0.991619,0.0183475,0.0372844,2015,1044,14.9609,-3.2987
798,-20,15.0707,3.47253,0,0,0,0,0,0,0,-1,2022,1044,15.0706,-3.47255
805,-20,15.0044,3.08252,0.00918055,0.0278475,-0.0255619,0.0457266,-0.0086985,-0.960445,0.0337595,0.0420358,2029,1044,15.0044,-3.08254
812,-20,14.9854,2.72803,0.0136176,0.0364561,-0.0337571,0.0606731,-0.0105993,-0.948495,0.0444055,0.0406232,2036,1044,14.9853,-2.72799
-700,-27,-10.0724,-1.72021,0.00449827,-0.0199462,0.00889028,0.00738961,-0.0228376,0.314435,0.0181955,0.0473668,524,1051,-10.0724,1.72022
-693,-27,-10.0151,-1.17139,0.010969,-0.0129463,0.0135365,0.0170729,-0.0190502,0.423625,0.0208661,0.0449025,531,1051,-10.0151,1.17133
-686,-27,-9.95605,-0.780518,0.013768,-0.00805904,0.0145974,0.0210806,-0.0153716,0.464406,0.0211315,0.0404578,538,1051,-9.95608,0.780491
-679,-27,-9.8468,-0.348145,0.014377,-0.00459471,0.013778,0.0216188,-0.0118365,0.483922,0.0195888,0.0442896,545,1051,-9.8468,0.348106
-672,-27,-9.71588,0.151245,0.0137111,-0.00216059,0.0119473,0.0201181,-0.00856757,0.492239,0.0170033,0.0436901,552,1051,-9.71586,-0.151209
-665,-27,-9.45337,0.594238,0.0122977,-0.000504904,0.00965369,0.0174796,-0.0056868,0.492636,0.0139408,0.0424495,559,1051,-9.45337,-0.594195
-658,-27,-9.23822,1.06885,0.0104274,0.000550554,0.00728489,0.01429,-0.00331203,0.487529,0.0108013,0.0421359,566,1051,-9.2382,-1.06879
-651,-27,-9.13867,1.04663,0.00839041,0.00112915,0.0050941,0.0110153,-0.00149572,0.475794,0.0078895,0.0340576,573,1051,-9.13866,-1.04666
-644,-27,-9.14478,0.965454,0.00709333,0.00183997,0.00357369,0.00890182,3.14862e-05,0.468481,0.00592408,0.0147399,580,1051,-9.14477,-0.965404
-637,-27,-9.15808,0.958618,0.00559763,0.00161384,0.00149435,0.00609587,0.00111561,0.321819,0.0037478,0.011322,587,1051,-9.15806,-0.958631
-630,-27,-9.20166,1.02466,0.00376945,0.00122845,-0.000600081,0.00390404,0.00109386,-0.220629,0.00232547,0.0158855,594,1051,-9.20164,-1.02461
-623,-27,-9.1712,1.02881,0.00147571,0.00081451,-0.00195042,0.00312335,-0.000833128,-0.701445,0.00240846,0.0152415,601,1051,-9.17122,-1.02876
-616,-27,-9.12622,1.04041,0.000274779,0.000343409,-0.00280297,0.00311228,-0.00249409,-0.791519,0.00324339,0.013682,608,1051,-9.12623,-1.04035
-609,-27,-9.14594,1.05945,0.000195217,-0.00040439,-0.00308083,0.0029908,-0.00319997,-0.736895,0.00357493,0.013811,615,1051,-9.14593,-1.05948
-602,-27,-9.15936,1.07324,0.00021353,-0.000959338,-0.0030734,0.00275595,-0.00350175,-0.691127,0.00362143,0.0113693,622,1051,-9.15934,-1.07327
-595,-27,-9.14587,1.08984,0.000233639,-0.0014719,-0.00289237,0.00239633,-0.0036346,-0.642043,0.00350634,0.0094879,629,1051,-9.14585,-1.08979
-588,-27,-9.15649,0.820923,0.000324978,-0.00185044,-0.00252756,0.00198893,-0.00351439,-0.582206,0.00321778,0.0153952,636,1051,-9.15647,-0.820974
-581,-27,-9.13477,0.561035,0.000409433,-0.00229845,-0.00197841,0.00145284,-0.00334186,-0.485323,0.00283893,0.0213729,643,1051,-9.13479,-0.561083
-574,-27,-9.04968,0.807983,0.000564188,-0.00268416,-0.00118175,0.000948616,-0.00306859,-0.314506,0.0024246,0.0379854,650,1051,-9.04966,-0.807937
-567,-27,-9.09546,1.04382,0.000675409,-0.0030274,-6.27348e-05,0.000676471,-0.00302846,-0.016936,0.00227819,0.0465421,657,1051,-9.09548,-1.04379
-560,-27,-9.14465,1.26074,0.000752471,-0.00332642,0.00134873,0.0011581,-0.00373205,0.292146,0.00295082,0.0463059,664,1051,-9.14464,-1.26073
-553,-27,-9.16455,1.45422,0,0,0,0,0,0,0,-1,671,1051,-9.16457,-1.45424
-546,-27,-9.02545,0.30957,0.000385942,-0.00376368,0.00488698,0.00362031,-0.00699805,0.584649,0.00623305,0.0451041,678,1051,-9.02545,-0.309614
-539,-27,-9.09027,0.448853,-0.000311593,-0.00393067,0.00656969,0.00469321,-0.00893547,0.651012,0.00799458,0.046135,685,1051,-9.09028,-0.448837
-532,-27,-9.25476,0.452881,-0.00185155,-0.00405667,0.00720309,0.00433288,-0.0102411,0.709454,0.00864169,0.0430168,692,1051,-9.25477,-0.452845
-525,-27,0,0,0,0,0,0,0,0,0,-1,699,1051,0,0
-518,-27,0,0,0,0,0,0,0,0,0,-1,706,1051,0,0
-511,-27,0,0,0,0,0,0,0,0,0,-1,713,1051,0,0
-504,-27,0,0,0,0,0,0,0,0,0,-1,720,1051,0,0
-497,-27,0,0,0,0,0,0,0,0,0,-1,727,1051,0,0
-490,-27,0,0,0,0,0,0,0,0,0,-1,734,1051,0,0
-483,-27,0,0,0,0,0,0,0,0,0,-1,741,1051,0,0
-476,-27,0,0,0,0,0,0,0,0,0,-1,748,1051,0,0
-469,-27,0,0,0,0,0,0,0,0,0,-1,755,1051,0,0
-462,-27,0,0,0,0,0,0,0,0,0,-1,762,1051,0,0
-455,-27,0,0,0,0,0,0,0,0,0,-1,769,1051,0,0
-448,-27,0,0,0,0,0,0,0,0,0,-1,776,1051,0,0
-441,-27,0,0,0,0,0,0,0,0,0,-1,783,1051,0,0
-434,-27,0,0,0,0,0,0,0,0,0,-1,790,1051,0,0
-427,-27,0,0,0,0,0,0,0,0,0,-1,797,1051,0,0
-420,-27,0,0,0,0,0,0,0,0,0,-1,804,1051,0,0
-413,-27,0,0,0,0,0,0,0,0,0,-1,811,1051,0,0
-406,-27,0,0,0,0,0,0,0,0,0,-1,818,1051,0,0
-399,-27,0,0,0,0,0,0,0,0,0,-1,825,1051,0,0
-392,-27,0,0,0,0,0,0,0,0,0,-1,832,1051,0,0
-385,-27,0,0,0,0,0,0,0,0,0,-1,839,1051,0,0
-378,-27,0,0,0,0,0,0,0,0,0,-1,846,1051,0,0
-371,-27,0,0,0,0,0,0,0,0,0,-1,853,1051,0,0
-364,-27,0,0,0,0,0,0,0,0,0,-1,860,1051,0,0
-357,-27,0,0,0,0,0,0,0,0,0,-1,867,1051,0,0
-350,-27,0,0,0,0,0,0,0,0,0,-1,874,1051,0,0
-343,-27,0,0,0,0,0,0,0,0,0,-1,881,1051,0,0
-336,-27,0,0,0,0,0,0,0,0,0,-1,888,1051,0,0
-329,-27,0,0,0,0,0,0,0,0,0,-1,895,1051,0,0
-322,-27,0,0,0,0,0,0,0,0,0,-1,902,1051,0,0
-315,-27,0,0,0,0,0,0,0,0,0,-1,909,1051,0,0
-308,-27,0,0,0,0,0,0,0,0,0,-1,916,1051,0,0
-301,-27,0,0,0,0,0,0,0,0,0,-1,923,1051,0,0
-294,-27,0,0,0,0,0,0,0,0,0,-1,930,1051,0,0
-287,-27,0,0,0,0,0,0,0,0,0,-1,937,1051,0,0
-280,-27,0,0,0,0,0,0,0,0,0,-1,944,1051,0,0
-273,-27,0,0,0,0,0,0,0,0,0,-1,951,1051,0,0
-266,-27,0,0,0,0,0,0,0,0,0,-1,958,1051,0,0
-259,-27,0,0,0,0,0,0,0,0,0,-1,965,1051,0,0
-252,-27,0,0,0,0,0,0,0,0,0,-1,972,1051,0,0
-245,-27,0,0,0,0,0,0,0,0,0,-1,979,1051,0,0
-238,-27,0,0,0,0,0,0,0,0,0,-1,986,1051,0,0
-231,-27,0,0,0,0,0,0,0,0,0,-1,993,1051,0,0
-224,-27,0,0,0,0,0,0,0,0,0,-1,1000,1051,0,0
-217,-27,0,0,0,0,0,0,0,0,0,-1,1007,1051,0,0
-210,-27,0,0,0,0,0,0,0,0,0,-1,1014,1051,0,0
-203,-27,0,0,0,0,0,0,0,0,0,-1,1021,1051,0,0
-196,-27,0,0,0,0,0,0,0,0,0,-1,1028,1051,0,0
-189,-27,0,0,0,0,0,0,0,0,0,-1,1035,1051,0,0
-182,-27,0,0,0,0,0,0,0,0,0,-1,1042,1051,0,0
-175,-27,0,0,0,0,0,0,0,0,0,-1,1049,1051,0,0
-168,-27,0,0,0,0,0,0,0,0,0,-1,1056,1051,0,0
-161,-27,0,0,0,0,0,0,0,0,0,-1,1063,1051,0,0
-154,-27,0,0,0,0,0,0,0,0,0,-1,1070,1051,0,0
-147,-27,0,0,0,0,0,0,0,0,0,-1,1077,1051,0,0
-140,-27,0,0,0,0,0,0,0,0,0,-1,1084,1051,0,0
-133,-27,0,0,0,0,0,0,0,0,0,-1,1091,1051,0,0
-126,-27,0,0,0,0,0,0,0,0,0,-1,1098,1051,0,0
-119,-27,0,0,0,0,0,0,0,0,0,-1,1105,1051,0,0
-112,-27,0,0,0,0,0,0,0,0,0,-1,1112,1051,0,0
-105,-27,0,0,0,0,0,0,0,0,0,-1,1119,1051,0,0
-98,-27,0,0,0,0,0,0,0,0,0,-1,1126,1051,0,0
-91,-27,0,0,0,0,0,0,0,0,0,-1,1133,1051,0,0
-84,-27,0,0,0,0,0,0,0,0,0,-1,1140,1051,0,0
-77,-27,0,0,0,0,0,0,0,0,0,-1,1147,1051,0,0
-70,-27,0,0,0,0,0,0,0,0,0,-1,1154,1051,0,0
-63,-27,0,0,0,0,0,0,0,0,0,-1,1161,1051,0,0
-56,-27,0,0,0,0,0,0,0,0,0,-1,1168,1051,0,0
-49,-27,0,0,0,0,0,0,0,0,0,-1,1175,1051,0,0
-42,-27,0,0,0,0,0,0,0,0,0,-1,1182,1051,0,0
-35,-27,0,0,0,0,0,0,0,0,0,-1,1189,1051,0,0
-28,-27,0,0,0,0,0,0,0,0,0,-1,1196,1051,0,0
-21,-27,0,0,0,0,0,0,0,0,0,-1,1203,1051,0,0
-14,-27,0,0,0,0,0,0,0,0,0,-1,1210,1051,0,0
-7,-27,0,0,0,0,0,0,0,0,0,-1,1217,1051,0,0
0,-27,0,0,0,0,0,0,0,0,0,-1,1224,1051,0,0
7,-27,0,0,0,0,0,0,0,0,0,-1,1231,1051,0,0
14,-27,0,0,0,0,0,0,0,0,0,-1,1238,1051,0,0
21,-27,0,0,0,0,0,0,0,0,0,-1,1245,1051,0,0
28,-27,0,0,0,0,0,0,0,0,0,-1,1252,1051,0,0
35,-27,0,0,0,0,0,0,0,0,0,-1,1259,1051,0,0
42,-27,0,0,0,0,0,0,0,0,0,-1,1266,1051,0,0
49,-27,0,0,0,0,0,0,0,0,0,-1,1273,1051,0,0
56,-27,0,0,0,0,0,0,0,0,0,-1,1280,1051,0,0
63,-27,0,0,0,0,0,0,0,0,0,-1,1287,1051,0,0
70,-27,0,0,0,0,0,0,0,0,0,-1,1294,1051,0,0
77,-27,0,0,0,0,0,0,0,0,0,-1,1301,1051,0,0
84,-27,0,0,0,0,0,0,0,0,0,-1,1308,1051,0,0
91,-27,0,0,0,0,0,0,0,0,0,-1,1315,1051,0,0
98,-27,0,0,0,0,0,0,0,0,0,-1,1322,1051,0,0
105,-27,0,0,0,0,0,0,0,0,0,-1,1329,1051,0,0
112,-27,0,0,0,0,0,0,0,0,0,-1,1336,1051,0,0
119,-27,0,0,0,0,0,0,0,0,0,-1,1343,1051,0,0
126,-27,0,0,0,0,0,0,0,0,0,-1,1350,1051,0,0
133,-27,0,0,0,0,0,0,0,0,0,-1,1357,1051,0,0
140,-27,0,0,0,0,0,0,0,0,0,-1,1364,1051,0,0
147,-27,0,0,0,0,0,0,0,0,0,-1,1371,1051,0,0
154,-27,0,0,0,0,0,0,0,0,0,-1,1378,1051,0,0
161,-27,0,0,0,0,0,0,0,0,0,-1,1385,1051,0,0
168,-27,0,0,0,0,0,0,0,0,0,-1,1392,1051,0,0
175,-27,0,0,0,0,0,0,0,0,0,-1,1399,1051,0,0
182,-27,0,0,0,0,0,0,0,0,0,-1,1406,1051,0,0
189,-27,0,0,0,0,0,0,0,0,0,-1,1413,1051,0,0
196,-27,0,0,0,0,0,0,0,0,0,-1,1420,1051,0,0
203,-27,0,0,0,0,0,0,0,0,0,-1,1427,1051,0,0
210,-27,0,0,0,0,0,0,0,0,0,-1,1434,1051,0,0
217,-27,0,0,0,0,0,0,0,0,0,-1,1441,1051,0,0
224,-27,0,0,0,0,0,0,0,0,0,-1,1448,1051,0,0
231,-27,0,0,0,0,0,0,0,0,0,-1,1455,1051,0,0
238,-27,0,0,0,0,0,0,0,0,0,-1,1462,1051,0,0
245,-27,0,0,0,0,0,0,0,0,0,-1,1469,1051,0,0
252,-27,0,0,0,0,0,0,0,0,0,-1,1476,1051,0,0
259,-27,0,0,0,0,0,0,0,0,0,-1,1483,1051,0,0
266,-27,0,0,0,0,0,0,0,0,0,-1,1490,1051,0,0
273,-27,0,0,0,0,0,0,0,0,0,-1,1497,1051,0,0
280,-27,0,0,0,0,0,0,0,0,0,-1,1504,1051,0,0
287,-27,0,0,0,0,0,0,0,0,0,-1,1511,1051,0,0
294,-27,0,0,0,0,0,0,0,0,0,-1,1518,1051,0,0
301,-27,0,0,0,0,0,0,0,0,0,-1,1525,1051,0,0
308,-27,0,0,0,0,0,0,0,0,0,-1,1532,1051,0,0
315,-27,0,0,0,0,0,0,0,0,0,-1,1539,1051,0,0
322,-27,0,0,0,0,0,0,0,0,0,-1,1546,1051,0,0
329,-27,0,0,0,0,0,0,0,0,0,-1,1553,1051,0,0
336,-27,0,0,0,0,0,0,0,0,0,-1,1560,1051,0,0
343,-27,0,0,0,0,0,0,0,0,0,-1,1567,1051,0,0
350,-27,0,0,0,0,0,0,0,0,0,-1,1574,1051,0,0
357,-27,0,0,0,0,0,0,0,0,0,-1,1581,1051,0,0
364,-27,0,0,0,0,0,0,0,0,0,-1,1588,1051,0,0
371,-27,0,0,0,0,0,0,0,0,0,-1,1595,1051,0,0
378,-27,0,0,0,0,0,0,0,0,0,-1,1602,1051,0,0
385,-27,0,0,0,0,0,0,0,0,0,-1,1609,1051,0,0
392,-27,0,0,0,0,0,0,0,0,0,-1,1616,1051,0,0
399,-27,0,0,0,0,0,0,0,0,0,-1,1623,1051,0,0
406,-27,0,0,0,0,0,0,0,0,0,-1,1630,1051,0,0
413,-27,0,0,0,0,0,0,0,0,0,-1,1637,1051,0,0
420,-27,0,0,0,0,0,0,0,0,0,-1,1644,1051,0,0
427,-27,0,0,0,0,0,0,0,0,0,-1,1651,1051,0,0
434,-27,0,0,0,0,0,0,0,0,0,-1,1658,1051,0,0
441,-27,0,0,0,0,0,0,0,0,0,-1,1665,1051,0,0
448,-27,0,0,0,0,0,0,0,0,0,-1,1672,1051,0,0
455,-27,0,0,0,0,0,0,0,0,0,-1,1679,1051,0,0
462,-27,0,0,0,0,0,0,0,0,0,-1,1686,1051,0,0
469,-27,0,0,0,0,0,0,0,0,0,-1,1693,1051,0,0
476,-27,0,0,0,0,0,0,0,0,0,-1,1700,1051,0,0
483,-27,0,0,0,0,0,0,0,0,0,-1,1707,1051,0,0
490,-27,0,0,0,0,0,0,0,0,0,-1,1714,1051,0,0
497,-27,0,0,0,0,0,0,0,0,0,-1,1721,1051,0,0
504,-27,0,0,0,0,0,0,0,0,0,-1,1728,1051,0,0
511,-27,0,0,0,0,0,0,0,0,0,-1,1735,1051,0,0
518,-27,0,0,0,0,0,0,0,0,0,-1,1742,1051,0,0
525,-27,0,0,0,0,0,0,0,0,0,-1,1749,1051,0,0
532,-27,0,0,0,0,0,0,0,0,0,-1,1756,1051,0,0
539,-27,0,0,0,0,0,0,0,0,0,-1,1763,1051,0,0
546,-27,0,0,0,0,0,0,0,0,0,-1,1770,1051,0,0
553,-27,0,0,0,0,0,0,0,0,0,-1,1777,1051,0,0
560,-27,0,0,0,0,0,0,0,0,0,-1,1784,1051,0,0
567,-27,0,0,0,0,0,0,0,0,0,-1,1791,1051,0,0
574,-27,0,0,0,0,0,0,0,0,0,-1,1798,1051,0,0
581,-27,0,0,0,0,0,0,0,0,0,-1,1805,1051,0,0
588,-27,0,0,0,0,0,0,0,0,0,-1,1812,1051,0,0
595,-27,0,0,0,0,0,0,0,0,0,-1,1819,1051,0,0
602,-27,0,0,0,0,0,0,0,0,0,-1,1826,1051,0,0
609,-27,0,0,0,0,0,0,0,0,0,-1,1833,1051,0,0
616,-27,0,0,0,0,0,0,0,0,0,-1,1840,1051,0,0
623,-27,0,0,0,0,0,0,0,0,0,-1,1847,1051,0,0
630,-27,0,0,0,0,0,0,0,0,0,-1,1854,1051,0,0
637,-27,0,0,0,0,0,0,0,0,0,-1,1861,1051,0,0
644,-27,0,0,0,0,0,0,0,0,0,-1,1868,1051,0,0
651,-27,15.2784,2.49927,7.83975e-05,0.00344617,0.000171793,0.00345491,6.96569e-05,1.51996,0.00228041,0.0412302,1875,1051,15.2785,-2.49927
658,-27,15.2094,2.36011,-1.7491e-05,0.00298084,0.000410326,0.00303598,-7.26305e-05,1.43722,0.00204863,0.0412466,1882,1051,15.2094,-2.36012
665,-27,15.2084,2.35608,1.5189e-05,0.00249796,0.000389715,0.00255769,-4.45466e-05,1.4187,0.00172017,0.0368411,1889,1051,15.2083,-2.35613
672,-27,15.1085,2.33191,5.60771e-05,0.00205722,0.000744292,0.00230369,-0.000190393,1.25101,0.00160303,0.028109,1896,1051,15.1085,-2.33187
679,-27,15.0588,2.31287,-0.000385264,0.00156619,0.00159559,0.00246074,-0.00127981,1.05982,0.00219519,0.0278268,1903,1051,15.0588,-2.31287
686,-27,15.2205,2.25391,-0.00100724,0.00108928,0.00252957,0.00277919,-0.00269715,0.981828,0.00316188,0.0397498,1910,1051,15.2204,-2.25393
693,-27,15.0465,2.4679,0,0,0,0,0,0,0,-1,1917,1051,15.0465,-2.46795
700,-27,15.0928,2.3656,-0.00223391,0.000294136,0.00415238,0.00337062,-0.00531039,0.933147,0.00505352,0.040477,1924,1051,15.0928,-2.36558
707,-27,15.1313,2.25464,-0.00259165,2.12455e-05,0.00481336,0.0037023,-0.00627271,0.917916,0.00582246,0.0241145,1931,1051,15.1313,-2.25463
714,-27,15.1283,2.27368,-0.00302245,-0.000181037,0.00513269,0.00372394,-0.00692743,0.920416,0.00624159,0.0172548,1938,1051,15.1283,-2.27373
721,-27,15.168,2.40198,-0.00343491,-0.000347943,0.00517061,0.00350464,-0.00728749,0.930443,0.00635715,0.0188624,1945,1051,15.168,-2.40202
728,-27,14.9989,2.88477,-0.00364594,-0.000312572,0.00520021,0.00348152,-0.00744003,0.940477,0.00644214,0.0223642,1952,1051,14.9989,-2.88474
735,-27,14.7893,3.0885,-0.0035929,-0.000162267,0.00488142,0.00329644,-0.00705161,0.954358,0.00610417,0.0174089,1959,1051,14.7893,-3.08854
742,-27,14.8247,3.11206,-0.00330446,6.56837e-05,0.00406987,0.00278553,-0.00602431,0.981672,0.00519968,0.0164965,1966,1051,14.8247,-3.11208
749,-27,14.865,3.11511,-0.00287405,0.000597939,0.0031743,0.00247994,-0.00475604,1.03562,0.00424603,0.0117492,1973,1051,14.865,-3.11514
756,-27,14.8593,3.12476,-0.00197972,0.00178397,0.00164349,0.0024006,-0.00259635,1.21185,0.00288573,0.0108516,1980,1051,14.8593,-3.12478
763,-27,14.85,3.10474,-0.000808417,0.00318097,-0.000223288,0.00319342,-0.000820875,-1.51506,0.00244887,0.012443,1987,1051,14.85,-3.1047
770,-27,14.8171,3.10229,0.000521305,0.00485197,-0.00239749,0.00591721,-0.000543939,-1.15268,0.00413806,0.0140838,1994,1051,14.8172,-3.10223
777,-27,14.7919,3.11194,0.00226979,0.0071294,-0.00494371,0.0102082,-0.000808964,-1.01381,0.00709049,0.0146417,2001,1051,14.7918,-3.11195
784,-27,14.8062,3.10352,0.00415311,0.0100367,-0.00773082,0.0153666,-0.00117671,-0.967204,0.0106583,0.0226849,2008,1051,14.8061,-3.10355
791,-27,14.9408,3.28003,0.00629027,0.013718,-0.0111657,0.0217713,-0.00176307,-0.945948,0.0151362,0.0419138,2015,1051,14.9408,-3.28006
798,-27,15.2981,2.97021,0,0,0,0,0,0,0,-1,2022,1051,15.2981,-2.9702
805,-27,15.1802,2.68262,0.0128367,0.024118,-0.0214005,0.0406087,-0.00365403,-0.914255,0.028369,0.0436266,2029,1051,15.1802,-2.68265
812,-27,14.8352,2.36194,0.0173237,0.0311377,-0.0286153,0.0536678,-0.00520641,-0.90382,0.0376342,0.0435372,2036,1051,14.8352,-2.36199
-700,-34,-9.54083,-1.33618,-0.0041641,-0.014612,0.012913,0.00454158,-0.0233177,0.593187,0.0172593,0.0455438,524,1058,-9.54085,1.33621
-693,-34,-9.64209,-0.939331,0.00426616,-0.00796268,0.0169472,0.0161682,-0.0198647,0.612269,0.0208401,0.0460577,531,1058,-9.6421,0.939326
-686,-34,-9.58319,-0.565918,0.00857756,-0.00370051,0.0173713,0.0208627,-0.0159857,0.615548,0.0213364,0.0439028,538,1058,-9.58321,0.565967
-679,-34,-9.44324,-0.283936,0.0103827,-0.000971526,0.0159492,0.0216351,-0.0122238,0.614415,0.0197986,0.0426247,545,1058,-9.44325,0.283938
-672,-34,-9.60138,0.326172,0.0106679,0.000714004,0.0135789,0.0201532,-0.00877131,0.609741,0.0171251,0.0411573,552,1058,-9.60136,-0.326158
-665,-34,-9.40826,1.15967,0,0,0,0,0,0,0,-1,559,1058,-9.40829,-1.15963
-658,-34,-9.26587,1.15906,0.00871237,0.00211521,0.00807869,0.01414,-0.00331237,0.591575,0.010703,0.0407563,566,1058,-9.26585,-1.15902
-651,-34,-9.11737,1.00378,0.00714763,0.00218842,0.00560134,0.0107937,-0.00145761,0.577023,0.00772761,0.0273522,573,1058,-9.11736,-1.00383
-644,-34,-9.13824,0.923828,0.00632773,0.00254513,0.00392609,0.00879432,7.85375e-05,0.560938,0.00583688,0.0103527,580,1058,-9.13822,-0.923825
-637,-34,-9.15906,0.943481,0.00502297,0.00188436,0.00155134,0.00566033,0.001247,0.389821,0.0034342,0.0107986,587,1058,-9.15906,-0.943517
-630,-34,-9.17444,0.987061,0.00331858,0.00123613,-0.000814975,0.0035996,0.000955108,-0.332053,0.00215318,0.0139453,594,1058,-9.17446,-0.987098
-623,-34,-9.14191,0.997803,0.00116655,0.000754427,-0.00216119,0.00313148,-0.0012105,-0.737868,0.00258733,0.011826,601,1058,-9.1419,-0.997861
-616,-34,-9.11023,1.04749,1.08563e-05,0.000270293,-0.00299088,0.00313427,-0.00285312,-0.80707,0.00345809,0.0185043,608,1058,-9.11023,-1.04744
-609,-34,-9.13275,1.0885,-1.82434e-05,-0.00038029,-0.00319624,0.0030021,-0.00340063,-0.75711,0.003699,0.0186665,615,1058,-9.13273,-1.08852
-602,-34,-9.16199,1.09546,6.55101e-05,-0.000893341,-0.00315718,0.00277946,-0.00360729,-0.710048,0.0036977,0.015098,622,1058,-9.16199,-1.09542
-595,-34,-9.13202,1.10718,0.000122584,-0.00138323,-0.00296388,0.00242769,-0.00368834,-0.661016,0.00355601,0.0119046,629,1058,-9.13201,-1.10712
-588,-34,-9.13788,0.811157,0.00023687,-0.00169583,-0.00257261,0.00201864,-0.0034776,-0.605737,0.00321031,0.0191168,636,1058,-9.13786,-0.811112
-581,-34,-9.14941,0.537476,0.00037197,-0.00202015,-0.00196807,0.00147893,-0.0031271,-0.512356,0.00271545,0.0228656,643,1058,-9.14939,-0.537468
-574,-34,-9.08087,0.612549,0.000598419,-0.00230102,-0.00109993,0.000968464,-0.00267106,-0.32453,0.00217657,0.0377531,650,1058,-9.08085,-0.612534
-567,-34,-9.01062,0.9552,0.000815722,-0.00253091,0.000115676,0.000819716,-0.0025349,0.03451,0.00201941,0.0449987,657,1058,-9.01062,-0.95515
-560,-34,-9.09546,1.33118,0,0,0,0,0,0,0,-1,664,1058,-9.09544,-1.33112
-553,-34,-9.14319,0.519897,0.00114406,-0.00282594,0.00344699,0.00313674,-0.00481863,0.524156,0.00462712,0.0435896,671,1058,-9.14318,-0.51994
-546,-34,-9.14996,0.551147,0.0010222,-0.0028705,0.00547422,0.00488578,-0.00673409,0.614593,0.00673696,0.045324,678,1058,-9.14997,-0.551139
-539,-34,-9.08966,0.543701,0.000530482,-0.00287195,0.00731701,0.00634144,-0.00868291,0.671177,0.00870936,0.0437615,685,1058,-9.08965,-0.543688
-532,-34,-9.11975,0.605835,-0.000854827,-0.0028305,0.00802645,0.00624435,-0.00992968,0.72417,0.00941853,0.0400634,692,1058,-9.11973,-0.605885
-525,-34,0,0,0,0,0,0,0,0,0,-1,699,1058,0,0
-518,-34,0,0,0,0,0,0,0,0,0,-1,706,1058,0,0
-511,-34,0,0,0,0,0,0,0,0,0,-1,713,1058,0,0
-504,-34,0,0,0,0,0,0,0,0,0,-1,720,1058,0,0
-497,-34,0,0,0,0,0,0,0,0,0,-1,727,1058,0,0
-490,-34,0,0,0,0,0,0,0,0,0,-1,734,1058,0,0
-483,-34,0,0,0,0,0,0,0,0,0,-1,741,1058,0,0
-476,-34,0,0,0,0,0,0,0,0,0,-1,748,1058,0,0
-469,-34,0,0,0,0,0,0,0,0,0,-1,755,1058,0,0
-462,-34,0,0,0,0,0,0,0,0,0,-1,762,1058,0,0
-455,-34,0,0,0,0,0,0,0,0,0,-1,769,1058,0,0
-448,-34,0,0,0,0,0,0,0,0,0,-1,776,1058,0,0
-441,-34,0,0,0,0,0,0,0,0,0,-1,783,1058,0,0
-434,-34,0,0,0,0,0,0,0,0,0,-1,790,1058,0,0
-427,-34,0,0,0,0,0,0,0,0,0,-1,797,1058,0,0
-420,-34,0,0,0,0,0,0,0,0,0,-1,804,1058,0,0
-413,-34,0,0,0,0,0,0,0,0,0,-1,811,1058,0,0
-406,-34,0,0,0,0,0,0,0,0,0,-1,818,1058,0,0
-399,-34,0,0,0,0,0,0,0,0,0,-1,825,1058,0,0
-392,-34,0,0,0,0,0,0,0,0,0,-1,832,1058,0,0
-385,-34,0,0,0,0,0,0,0,0,0,-1,839,1058,0,0
-378,-34,0,0,0,0,0,0,0,0,0,-1,846,1058,0,0
-371,-34,0,0,0,0,0,0,0,0,0,-1,853,1058,0,0
-364,-34,0,0,0,0,0,0,0,0,0,-1,860,1058,0,0
-357,-34,0,0,0,0,0,0,0,0,0,-1,867,1058,0,0
-350,-34,0,0,0,0,0,0,0,0,0,-1,874,1058,0,0
-343,-34,0,0,0,0,0,0,0,0,0,-1,881,1058,0,0
-336,-34,0,0,0,0,0,0,0,0,0,-1,888,1058,0,0
-329,-34,0,0,0,0,0,0,0,0,0,-1,895,1058,0,0
-322,-34,0,0,0,0,0,0,0,0,0,-1,902,1058,0,0
-315,-34,0,0,0,0,0,0,0,0,0,-1,909,1058,0,0
-308,-34,0,0,0,0,0,0,0,0,0,-1,916,1058,0,0
-301,-34,0,0,0,0,0,0,0,0,0,-1,923,1058,0,0
-294,-34,0,0,0,0,0,0,0,0,0,-1,930,1058,0,0
-287,-34,0,0,0,0,0,0,0,0,0,-1,937,1058,0,0
-280,-34,0,0,0,0,0,0,0,0,0,-1,944,1058,0,0
-273,-34,0,0,0,0,0,0,0,0,0,-1,951,1058,0,0
-266,-34,0,0,0,0,0,0,0,0,0,-1,958,1058,0,0
-259,-34,0,0,0,0,0,0,0,0,0,-1,965,1058,0,0
-252,-34,0,0,0,0,0,0,0,0,0,-1,972,1058,0,0
-245,-34,0,0,0,0,0,0,0,0,0,-1,979,1058,0,0
-238,-34,0,0,0,0,0,0,0,0,0,-1,986,1058,0,0
-231,-34,0,0,0,0,0,0,0,0,0,-1,993,1058,0,0
-224,-34,0,0,0,0,0,0,0,0,0,-1,1000,1058,0,0
-217,-34,0,0,0,0,0,0,0,0,0,-1,1007,1058,0,0
-210,-34,0,0,0,0,0,0,0,0,0,-1,1014,1058,0,0
-203,-34,0,0,0,0,0,0,0,0,0,-1,1021,1058,0,0
-196,-34,0,0,0,0,0,0,0,0,0,-1,1028,1058,0,0
-189,-34,0,0,0,0,0,0,0,0,0,-1,1035,1058,0,0
-182,-34,0,0,0,0,0,0,0,0,0,-1,1042,1058,0,0
-175,-34,0,0,0,0,0,0,0,0,0,-1,1049,1058,0,0
-168,-34,0,0,0,0,0,0,0,0,0,-1,1056,1058,0,0
-161,-34,0,0,0,0,0,0,0,0,0,-1,1063,1058,0,0
-154,-34,0,0,0,0,0,0,0,0,0,-1,1070,1058,0,0
-147,-34,0,0,0,0,0,0,0,0,0,-1,1077,1058,0,0
-140,-34,0,0,0,0,0,0,0,0,0,-1,1084,1058,0,0
-133,-34,0,0,0,0,0,0,0,0,0,-1,1091,1058,0,0
-126,-34,0,0,0,0,0,0,0,0,0,-1,1098,1058,0,0
-119,-34,0,0,0,0,0,0,0,0,0,-1,1105,1058,0,0
-112,-34,0,0,0,0,0,0,0,0,0,-1,1112,1058,0,0
-105,-34,0,0,0,0,0,0,0,0,0,-1,1119,1058,0,0
-98,-34,0,0,0,0,0,0,0,0,0,-1,1126,1058,0,0
-91,-34,0,0,0,0,0,0,0,0,0,-1,1133,1058,0,0
-84,-34,0,0,0,0,0,0,0,0,0,-1,1140,1058,0,0
-77,-34,0,0,0,0,0,0,0,0,0,-1,1147,1058,0,0
-70,-34,0,0,0,0,0,0,0,0,0,-1,1154,1058,0,0
-63,-34,0,0,0,0,0,0,0,0,0,-1,1161,1058,0,0
-56,-34,0,0,0,0,0,0,0,0,0,-1,1168,1058,0,0
-49,-34,0,0,0,0,0,0,0,0,0,-1,1175,1058,0,0
-42,-34,0,0,0,0,0,0,0,0,0,-1,1182,1058,0,0
-35,-34,0,0,0,0,0,0,0,0,0,-1,1189,1058,0,0
-28,-34,0,0,0,0,0,0,0,0,0,-1,1196,1058,0,0
-21,-34,0,0,0,0,0,0,0,0,0,-1,1203,1058,0,0
-14,-34,0,0,0,0,0,0,0,0,0,-1,1210,1058,0,0
-7,-34,0,0,0,0,0,0,0,0,0,-1,1217,1058,0,0
0,-34,0,0,0,0,0,0,0,0,0,-1,1224,1058,0,0
7,-34,0,0,0,0,0,0,0,0,0,-1,1231,1058,0,0
14,-34,0,0,0,0,0,0,0,0,0,-1,1238,1058,0,0
21,-34,0,0,0,0,0,0,0,0,0,-1,1245,1058,0,0
28,-34,0,0,0,0,0,0,0,0,0,-1,1252,1058,0,0
35,-34,0,0,0,0,0,0,0,0,0,-1,1259,1058,0,0
42,-34,0,0,0,0,0,0,0,0,0,-1,1266,1058,0,0
49,-34,0,0,0,0,0,0,0,0,0,-1,1273,1058,0,0
56,-34,0,0,0,0,0,0,0,0,0,-1,1280,1058,0,0
63,-34,0,0,0,0,0,0,0,0,0,-1,1287,1058,0,0
70,-34,0,0,0,0,0,0,0,0,0,-1,1294,1058,0,0
77,-34,0,0,0,0,0,0,0,0,0,-1,1301,1058,0,0
84,-34,0,0,0,0,0,0,0,0,0,-1,1308,1058,0,0
91,-34,0,0,0,0,0,0,0,0,0,-1,1315,1058,0,0
98,-34,0,0,0,0,0,0,0,0,0,-1,1322,1058,0,0
105,-34,0,0,0,0,0,0,0,0,0,-1,1329,1058,0,0
112,-34,0,0,0,0,0,0,0,0,0,-1,1336,1058,0,0
119,-34,0,0,0,0,0,0,0,0,0,-1,1343,1058,0,0
126,-34,0,0,0,0,0,0,0,0,0,-1,1350,1058,0,0
133,-34,0,0,0,0,0,0,0,0,0,-1,1357,1058,0,0
140,-34,0,0,0,0,0,0,0,0,0,-1,1364,1058,0,0
147,-34,0,0,0,0,0,0,0,0,0,-1,1371,1058,0,0
154,-34,0,0,0,0,0,0,0,0,0,-1,1378,1058,0,0
161,-34,0,0,0,0,0,0,0,0,0,-1,1385,1058,0,0
168,-34,0,0,0,0,0,0,0,0,0,-1,1392,1058,0,0
175,-34,0,0,0,0,0,0,0,0,0,-1,1399,1058,0,0
182,-34,0,0,0,0,0,0,0,0,0,-1,1406,1058,0,0
189,-34,0,0,0,0,0,0,0,0,0,-1,1413,1058,0,0
196,-34,0,0,0,0,0,0,0,0,0,-1,1420,1058,0,0
203,-34,0,0,0,0,0,0,0,0,0,-1,1427,1058,0,0
210,-34,0,0,0,0,0,0,0,0,0,-1,1434,1058,0,0
217,-34,0,0,0,0,0,0,0,0,0,-1,1441,1058,0,0
224,-34,0,0,0,0,0,0,0,0,0,-1,1448,1058,0,0
231,-34,0,0,0,0,0,0,0,0,0,-1,1455,1058,0,0
238,-34,0,0,0,0,0,0,0,0,0,-1,1462,1058,0,0
245,-34,0,0,0,0,0,0,0,0,0,-1,1469,1058,0,0
252,-34,0,0,0,0,0,0,0,0,0,-1,1476,1058,0,0
259,-34,0,0,0,0,0,0,0,0,0,-1,1483,1058,0,0
266,-34,0,0,0,0,0,0,0,0,0,-1,1490,1058,0,0
273,-34,0,0,0,0,0,0,0,0,0,-1,1497,1058,0,0
280,-34,0,0,0,0,0,0,0,0,0,-1,1504,1058,0,0
287,-34,0,0,0,0,0,0,0,0,0,-1,1511,1058,0,0
294,-34,0,0,0,0,0,0,0,0,0,-1,1518,1058,0,0
301,-34,0,0,0,0,0,0,0,0,0,-1,1525,1058,0,0
308,-34,0,0,0,0,0,0,0,0,0,-1,1532,1058,0,0
315,-34,0,0,0,0,0,0,0,0,0,-1,1539,1058,0,0
322,-34,0,0,0,0,0,0,0,0,0,-1,1546,1058,0,0
329,-34,0,0,0,0,0,0,0,0,0,-1,1553,1058,0,0
336,-34,0,0,0,0,0,0,0,0,0,-1,1560,1058,0,0
343,-34,0,0,0,0,0,0,0,0,0,-1,1567,1058,0,0
350,-34,0,0,0,0,0,0,0,0,0,-1,1574,1058,0,0
357,-34,0,0,0,0,0,0,0,0,0,-1,1581,1058,0,0
364,-34,0,0,0,0,0,0,0,0,0,-1,1588,1058,0,0
371,-34,0,0,0,0,0,0,0,0,0,-1,1595,1058,0,0
378,-34,0,0,0,0,0,0,0,0,0,-1,1602,1058,0,0
385,-34,0,0,0,0,0,0,0,0,0,-1,1609,1058,0,0
392,-34,0,0,0,0,0,0,0,0,0,-1,1616,1058,0,0
399,-34,0,0,0,0,0,0,0,0,0,-1,1623,1058,0,0
406,-34,0,0,0,0,0,0,0,0,0,-1,1630,1058,0,0
413,-34,0,0,0,0,0,0,0,0,0,-1,1637,1058,0,0
420,-34,0,0,0,0,0,0,0,0,0,-1,1644,1058,0,0
427,-34,0,0,0,0,0,0,0,0,0,-1,1651,1058,0,0
434,-34,0,0,0,0,0,0,0,0,0,-1,1658,1058,0,0
441,-34,0,0,0,0,0,0,0,0,0,-1,1665,1058,0,0
448,-34,0,0,0,0,0,0,0,0,0,-1,1672,1058,0,0
455,-34,0,0,0,0,0,0,0,0,0,-1,1679,1058,0,0
462,-34,0,0,0,0,0,0,0,0,0,-1,1686,1058,0,0
469,-34,0,0,0,0,0,0,0,0,0,-1,1693,1058,0,0
476,-34,0,0,0,0,0,0,0,0,0,-1,1700,1058,0,0
483,-34,0,0,0,0,0,0,0,0,0,-1,1707,1058,0,0
490,-34,0,0,0,0,0,0,0,0,0,-1,1714,1058,0,0
497,-34,0,0,0,0,0,0,0,0,0,-1,1721,1058,0,0
504,-34,0,0,0,0,0,0,0,0,0,-1,1728,1058,0,0
511,-34,0,0,0,0,0,0,0,0,0,-1,1735,1058,0,0
518,-34,0,0,0,0,0,0,0,0,0,-1,1742,1058,0,0
525,-34,0,0,0,0,0,0,0,0,0,-1,1749,1058,0,0
532,-34,0,0,0,0,0,0,0,0,0,-1,1756,1058,0,0
539,-34,0,0,0,0,0,0,0,0,0,-1,1763,1058,0,0
546,-34,0,0,0,0,0,0,0,0,0,-1,1770,1058,0,0
553,-34,0,0,0,0,0,0,0,0,0,-1,1777,1058,0,0
560,-34,0,0,0,0,0,0,0,0,0,-1,1784,1058,0,0
567,-34,0,0,0,0,0,0,0,0,0,-1,1791,1058,0,0
574,-34,0,0,0,0,0,0,0,0,0,-1,1798,1058,0,0
581,-34,0,0,0,0,0,0,0,0,0,-1,1805,1058,0,0
588,-34,0,0,0,0,0,0,0,0,0,-1,1812,1058,0,0
595,-34,0,0,0,0,0,0,0,0,0,-1,1819,1058,0,0
602,-34,0,0,0,0,0,0,0,0,0,-1,1826,1058,0,0
609,-34,0,0,0,0,0,0,0,0,0,-1,1833,1058,0,0
616,-34,0,0,0,0,0,0,0,0,0,-1,1840,1058,0,0
623,-34,0,0,0,0,0,0,0,0,0,-1,1847,1058,0,0
630,-34,0,0,0,0,0,0,0,0,0,-1,1854,1058,0,0
637,-34,0,0,0,0,0,0,0,0,0,-1,1861,1058,0,0
644,-34,0,0,0,0,0,0,0,0,0,-1,1868,1058,0,0
651,-34,15.0972,2.34863,-0.00178107,0.00240846,-0.000234002,0.00242149,-0.0017941,-1.51517,0.00244284,0.0413063,1875,1058,15.0972,-2.34864
658,-34,14.9705,2.23157,-0.00109273,0.00218336,0.00019267,0.00219465,-0.00110402,1.51225,0.00193888,0.0435348,1882,1058,14.9705,-2.23152
665,-34,15.0625,2.25928,-0.000559876,0.00190552,0.000267709,0.00193425,-0.000588611,1.46387,0.00152408,0.0403519,1889,1058,15.0625,-2.25928
672,-34,15.114,2.11328,-0.000205087,0.0016305,0.000671634,0.00185,-0.000424588,1.25492,0.00139655,0.0361127,1896,1058,15.1141,-2.11327
679,-34,15.1517,2.23914,-0.000469718,0.0012426,0.00156615,0.00217133,-0.00139845,1.03554,0.00207705,0.0360548,1903,1058,15.1517,-2.23916
686,-34,15.1372,2.3363,-0.00100471,0.000833114,0.00252524,0.00260144,-0.00277304,0.959896,0.00310348,0.0413087,1910,1058,15.1372,-2.33634
693,-34,15.1116,2.4054,-0.00155262,0.000443789,0.00341677,0.00300518,-0.00411401,0.927518,0.00412685,0.0425777,1917,1058,15.1116,-2.40541
700,-34,15.1465,2.45862,-0.00214742,0.000112497,0.00418737,0.00331969,-0.00535461,0.917184,0.00505383,0.0399827,1924,1058,15.1465,-2.45865
707,-34,15.0991,2.33813,-0.00248815,-0.000156406,0.00483915,0.00365533,-0.00629989,0.903608,0.00581486,0.0244511,1931,1058,15.0992,-2.33818
714,-34,15.1178,2.3446,-0.00293955,-0.000344448,0.00515946,0.00367812,-0.00696212,0.908588,0.00623992,0.016371,1938,1058,15.1178,-2.34455
721,-34,15.1652,2.47925,-0.00337617,-0.000519767,0.00519297,0.00343782,-0.00733376,0.919594,0.00635312,0.0231861,1945,1058,15.1652,-2.47929
728,-34,14.9849,2.9054,-0.00360215,-0.000486383,0.00522193,0.00340509,-0.00749362,0.930362,0.00643827,0.0230143,1952,1058,14.9849,-2.90537
735,-34,14.7983,3.11792,-0.00352736,-0.000327545,0.00494363,0.00326862,-0.00712352,0.941894,0.00613596,0.0135389,1959,1058,14.7983,-3.11797
742,-34,14.8025,3.0979,-0.00314769,-5.72398e-05,0.00424721,0.0029171,-0.00612203,0.959865,0.00532697,0.0145137,1966,1058,14.8025,-3.09792
749,-34,14.8438,3.1189,-0.00251964,0.000521949,0.00348461,0.00280317,-0.00480086,0.991155,0.0044404,0.0127502,1973,1058,14.8438,-3.11893
756,-34,14.8605,3.12573,-0.00148275,0.00160729,0.00219897,0.00274976,-0.00262522,1.09164,0.00310352,0.00981394,1980,1058,14.8605,-3.12567
763,-34,14.8417,3.09717,-0.000145545,0.00289901,0.000549145,0.00299503,-0.000241565,1.39769,0.00208189,0.0104036,1987,1058,14.8417,-3.09718
770,-34,14.7971,3.0824,0.0014088,0.00445812,-0.0013176,0.00494857,0.000918358,-1.21446,0.00303953,0.0146372,1994,1058,14.7972,-3.08241
777,-34,14.7727,3.08105,0.00341891,0.00652206,-0.00346814,0.00876988,0.00117109,-0.995735,0.00549795,0.0154618,2001,1058,14.7728,-3.08108
784,-34,14.8062,3.1687,0.00559243,0.00905122,-0.00575813,0.0133341,0.0013096,-0.931283,0.00848659,0.0313919,2008,1058,14.8061,-3.16873
791,-34,14.7648,3.24915,0.00802056,0.0121509,-0.00859967,0.0189299,0.00124158,-0.903241,0.0122271,0.047068,2015,1058,14.7648,-3.24914
798,-34,14.7513,3.2251,0,0,0,0,0,0,0,-1,2022,1058,14.7514,-3.22511
805,-34,13.5975,2.47485,0,0,0,0,0,0,0,-1,2029,1058,13.5975,-2.47491
812,-34,13.0281,2.98157,0,0,0,0,0,0,0,-1,2036,1058,13.0282,-2.9816
-700,-41,-8.9389,-0.567383,-0.0107491,-0.00622777,0.0199348,0.0115742,-0.0285511,0.841859,0.0238475,0.0464034,524,1065,-8.93891,0.567383
-693,-41,-8.98157,-0.595093,0.00110504,-0.00115302,0.0227548,0.0227588,-0.0228068,0.76061,0.0263073,0.0426314,531,1065,-8.98154,0.595034
-686,-41,-9.17609,-0.375366,0.00746223,0.00168853,0.0220539,0.0268174,-0.0176666,0.720318,0.0258634,0.0457556,538,1065,-9.1761,0.375351
-679,-41,-9.38416,0.314697,0.0104633,0.00318973,0.0196369,0.0267973,-0.0131443,0.693835,0.0235051,0.0459355,545,1065,-9.38417,-0.314642
-672,-41,-9.31799,0.568604,0.0113704,0.00383744,0.0164087,0.0244393,-0.00923145,0.672581,0.0200899,0.0430038,552,1065,-9.31797,-0.56858
-665,-41,-9.29077,0.672119,0,0,0,0,0,0,0,-1,559,1065,-9.29077,-0.672178
-658,-41,-9.22607,0.839722,0.00962602,0.00369016,0.00959204,0.0166988,-0.00338262,0.635362,0.0124146,0.0379509,566,1065,-9.22606,-0.839753
-651,-41,-9.09564,0.863159,0.00791817,0.00322639,0.00664947,0.0126234,-0.00147887,0.615817,0.0089494,0.0263079,573,1065,-9.09566,-0.86313
-644,-41,-9.11395,0.904297,0.00710503,0.00319702,0.00467482,0.0102178,8.42609e-05,0.587441,0.00678395,0.0105684,580,1065,-9.11393,-0.904301
-637,-41,-9.12128,0.929565,0.0055807,0.00215344,0.00193059,0.00644848,0.00128566,0.422431,0.00394097,0.0112297,587,1065,-9.12125,-0.929549
-630,-41,-9.13226,0.96582,0.00361132,0.00127288,-0.000765026,0.00383936,0.00104484,-0.289698,0.0022921,0.0114257,594,1065,-9.13225,-0.965792
-623,-41,-9.10358,0.987549,0.00108818,0.00066107,-0.00225283,0.00313756,-0.00138831,-0.738142,0.00267727,0.0105984,601,1065,-9.10356,-0.987561
-616,-41,-9.10077,1.05042,-0.000347048,0.000112653,-0.00315432,0.00304548,-0.00327988,-0.821768,0.00365278,0.0146923,608,1065,-9.10075,-1.05046
-609,-41,-9.10773,1.125,-0.000319058,-0.000435552,-0.00329965,0.00292286,-0.00367747,-0.776573,0.003819,0.0204887,615,1065,-9.1077,-1.12505
-602,-41,-9.12067,1.08838,-0.000182184,-0.000901277,-0.00324984,0.00272793,-0.00381139,-0.730305,0.00379272,0.012565,622,1065,-9.1207,-1.08843
-595,-41,-9.11469,1.07959,-9.55412e-05,-0.00135109,-0.00307779,0.00241785,-0.00386448,-0.684794,0.00365902,0.0127654,629,1065,-9.11469,-1.07955
-588,-41,-9.14374,0.792236,4.69245e-05,-0.00158673,-0.00269164,0.00204295,-0.00358275,-0.638081,0.00328831,0.0202448,636,1065,-9.14374,-0.792197
-581,-41,-9.14984,0.591309,0.000252056,-0.00181866,-0.00205551,0.00151824,-0.00308485,-0.552097,0.00270841,0.0339526,643,1065,-9.14987,-0.59131
-574,-41,-9.11853,0.655273,0.000562792,-0.00199897,-0.00114429,0.000999483,-0.00243566,-0.364567,0.00204024,0.0400756,650,1065,-9.11856,-0.655308
-567,-41,-8.98749,0.978882,0.000909982,-0.00211419,0.000140251,0.000916472,-0.00212068,0.0462445,0.00179886,0.0442407,657,1065,-8.98746,-0.978901
-560,-41,-9.17249,0.888916,0,0,0,0,0,0,0,-1,664,1065,-9.17246,-0.888866
-553,-41,-9.22638,0.576904,0.00164091,-0.00215816,0.0036833,0.00388564,-0.00440289,0.547328,0.00478849,0.0422033,671,1065,-9.2264,-0.576847
-546,-41,-9.12646,0.778931,0.00180556,-0.00207576,0.0058527,0.00603096,-0.00630116,0.625311,0.00712052,0.0424354,678,1065,-9.12644,-0.778935
-539,-41,-9.02356,1.03882,0,0,0,0,0,0,0,-1,685,1065,-9.02357,-1.03885
-532,-41,-9.03247,0.985474,0,0,0,0,0,0,0,-1,692,1065,-9.03247,-0.985494
-525,-41,0,0,0,0,0,0,0,0,0,-1,699,1065,0,0
-518,-41,0,0,0,0,0,0,0,0,0,-1,706,1065,0,0
-511,-41,0,0,0,0,0,0,0,0,0,-1,713,1065,0,0
-504,-41,0,0,0,0,0,0,0,0,0,-1,720,1065,0,0
-497,-41,0,0,0,0,0,0,0,0,0,-1,727,1065,0,0
-490,-41,0,0,0,0,0,0,0,0,0,-1,734,1065,0,0
-483,-41,0,0,0,0,0,0,0,0,0,-1,741,1065,0,0
-476,-41,0,0,0,0,0,0,0,0,0,-1,748,1065,0,0
-469,-41,0,0,0,0,0,0,0,0,0,-1,755,1065,0,0
-462,-41,0,0,0,0,0,0,0,0,0,-1,762,1065,0,0
-455,-41,0,0,0,0,0,0,0,0,0,-1,769,1065,0,0
-448,-41,0,0,0,0,0,0,0,0,0,-1,776,1065,0,0
-441,-41,0,0,0,0,0,0,0,0,0,-1,783,1065,0,0
-434,-41,0,0,0,0,0,0,0,0,0,-1,790,1065,0,0
-427,-41,0,0,0,0,0,0,0,0,0,-1,797,1065,0,0
-420,-41,0,0,0,0,0,0,0,0,0,-1,804,1065,0,0
-413,-41,0,0,0,0,0,0,0,0,0,-1,811,1065,0,0
-406,-41,0,0,0,0,0,0,0,0,0,-1,818,1065,0,0
-399,-41,0,0,0,0,0,0,0,0,0,-1,825,1065,0,0
-392,-41,0,0,0,0,0,0,0,0,0,-1,832,1065,0,0
-385,-41,0,0,0,0,0,0,0,0,0,-1,839,1065,0,0
-378,-41,0,0,0,0,0,0,0,0,0,-1,846,1065,0,0
-371,-41,0,0,0,0,0,0,0,0,0,-1,853,1065,0,0
-364,-41,0,0,0,0,0,0,0,0,0,-1,860,1065,0,0
-357,-41,0,0,0,0,0,0,0,0,0,-1,867,1065,0,0
-350,-41,0,0,0,0,0,0,0,0,0,-1,874,1065,0,0
-343,-41,0,0,0,0,0,0,0,0,0,-1,881,1065,0,0
-336,-41,0,0,0,0,0,0,0,0,0,-1,888,1065,0,0
-329,-41,0,0,0,0,0,0,0,0,0,-1,895,1065,0,0
-322,-41,0,0,0,0,0,0,0,0,0,-1,902,1065,0,0
-315,-41,0,0,0,0,0,0,0,0,0,-1,909,1065,0,0
-308,-41,0,0,0,0,0,0,0,0,0,-1,916,1065,0,0
-301,-41,0,0,0,0,0,0,0,0,0,-1,923,1065,0,0
-294,-41,0,0,0,0,0,0,0,0,0,-1,930,1065,0,0
-287,-41,0,0,0,0,0,0,0,0,0,-1,937,1065,0,0
-280,-41,0,0,0,0,0,0,0,0,0,-1,944,1065,0,0
-273,-41,0,0,0,0,0,0,0,0,0,-1,951,1065,0,0
-266,-41,0,0,0,0,0,0,0,0,0,-1,958,1065,0,0
-259,-41,0,0,0,0,0,0,0,0,0,-1,965,1065,0,0
-252,-41,0,0,0,0,0,0,0,0,0,-1,972,1065,0,0
-245,-41,0,0,0,0,0,0,0,0,0,-1,979,1065,0,0
-238,-41,0,0,0,0,0,0,0,0,0,-1,986,1065,0,0
-231,-41,0,0,0,0,0,0,0,0,0,-1,993,1065,0,0
-224,-41,0,0,0,0,0,0,0,0,0,-1,1000,1065,0,0
-217,-41,0,0,0,0,0,0,0,0,0,-1,1007,1065,0,0
-210,-41,0,0,0,0,0,0,0,0,0,-1,1014,1065,0,0
-203,-41,0,0,0,0,0,0,0,0,0,-1,1021,1065,0,0
-196,-41,0,0,0,0,0,0,0,0,0,-1,1028,1065,0,0
-189,-41,0,0,0,0,0,0,0,0,0,-1,1035,1065,0,0
-182,-41,0,0,0,0,0,0,0,0,0,-1,1042,1065,0,0
-175,-41,0,0,0,0,0,0,0,0,0,-1,1049,1065,0,0
-168,-41,0,0,0,0,0,0,0,0,0,-1,1056,1065,0,0
-161,-41,0,0,0,0,0,0,0,0,0,-1,1063,1065,0,0
-154,-41,0,0,0,0,0,0,0,0,0,-1,1070,1065,0,0
-147,-41,0,0,0,0,0,0,0,0,0,-1,1077,1065,0,0
-140,-41,0,0,0,0,0,0,0,0,0,-1,1084,1065,0,0
-133,-41,0,0,0,0,0,0,0,0,0,-1,1091,1065,0,0
-126,-41,0,0,0,0,0,0,0,0,0,-1,1098,1065,0,0
-119,-41,0,0,0,0,0,0,0,0,0,-1,1105,1065,0,0
-112,-41,0,0,0,0,0,0,0,0,0,-1,1112,1065,0,0
-105,-41,0,0,0,0,0,0,0,0,0,-1,1119,1065,0,0
-98,-41,0,0,0,0,0,0,0,0,0,-1,1126,1065,0,0
-91,-41,0,0,0,0,0,0,0,0,0,-1,1133,1065,0,0
-84,-41,0,0,0,0,0,0,0,0,0,-1,1140,1065,0,0
-77,-41,0,0,0,0,0,0,0,0,0,-1,1147,1065,0,0
-70,-41,0,0,0,0,0,0,0,0,0,-1,1154,1065,0,0
-63,-41,0,0,0,0,0,0,0,0,0,-1,1161,1065,0,0
-56,-41,0,0,0,0,0,0,0,0,0,-1,1168,1065,0,0
-49,-41,0,0,0,0,0,0,0,0,0,-1,1175,1065,0,0
-42,-41,0,0,0,0,0,0,0,0,0,-1,1182,1065,0,0
-35,-41,0,0,0,0,0,0,0,0,0,-1,1189,1065,0,0
-28,-41,0,0,0,0,0,0,0,0,0,-1,1196,1065,0,0
-21,-41,0,0,0,0,0,0,0,0,0,-1,1203,1065,0,0
-14,-41,0,0,0,0,0,0,0,0,0,-1,1210,1065,0,0
-7,-41,0,0,0,0,0,0,0,0,0,-1,1217,1065,0,0
0,-41,0,0,0,0,0,0,0,0,0,-1,1224,1065,0,0
7,-41,0,0,0,0,0,0,0,0,0,-1,1231,1065,0,0
14,-41,0,0,0,0,0,0,0,0,0,-1,1238,1065,0,0
21,-41,0,0,0,0,0,0,0,0,0,-1,1245,1065,0,0
28,-41,0,0,0,0,0,0,0,0,0,-1,1252,1065,0,0
35,-41,0,0,0,0,0,0,0,0,0,-1,1259,1065,0,0
42,-41,0,0,0,0,0,0,0,0,0,-1,1266,1065,0,0
49,-41,0,0,0,0,0,0,0,0,0,-1,1273,1065,0,0
56,-41,0,0,0,0,0,0,0,0,0,-1,1280,1065,0,0
63,-41,0,0,0,0,0,0,0,0,0,-1,1287,1065,0,0
70,-41,0,0,0,0,0,0,0,0,0,-1,1294,1065,0,0
77,-41,0,0,0,0,0,0,0,0,0,-1,1301,1065,0,0
84,-41,0,0,0,0,0,0,0,0,0,-1,1308,1065,0,0
91,-41,0,0,0,0,0,0,0,0,0,-1,1315,1065,0,0
98,-41,0,0,0,0,0,0,0,0,0,-1,1322,1065,0,0
105,-41,0,0,0,0,0,0,0,0,0,-1,1329,1065,0,0
112,-41,0,0,0,0,0,0,0,0,0,-1,1336,1065,0,0
119,-41,0,0,0,0,0,0,0,0,0,-1,1343,1065,0,0
126,-41,0,0,0,0,0,0,0,0,0,-1,1350,1065,0,0
133,-41,0,0,0,0,0,0,0,0,0,-1,1357,1065,0,0
140,-41,0,0,0,0,0,0,0,0,0,-1,1364,1065,0,0
147,-41,0,0,0,0,0,0,0,0,0,-1,1371,1065,0,0
154,-41,0,0,0,0,0,0,0,0,0,-1,1378,1065,0,0
161,-41,0,0,0,0,0,0,0,0,0,-1,1385,1065,0,0
168,-41,0,0,0,0,0,0,0,0,0,-1,1392,1065,0,0
175,-41,0,0,0,0,0,0,0,0,0,-1,1399,1065,0,0
182,-41,0,0,0,0,0,0,0,0,0,-1,1406,1065,0,0
189,-41,0,0,0,0,0,0,0,0,0,-1,1413,1065,0,0
196,-41,0,0,0,0,0,0,0,0,0,-1,1420,1065,0,0
203,-41,0,0,0,0,0,0,0,0,0,-1,1427,1065,0,0
210,-41,0,0,0,0,0,0,0,0,0,-1,1434,1065,0,0
217,-41,0,0,0,0,0,0,0,0,0,-1,1441,1065,0,0
224,-41,0,0,0,0,0,0,0,0,0,-1,1448,1065,0,0
231,-41,0,0,0,0,0,0,0,0,0,-1,1455,1065,0,0
238,-41,0,0,0,0,0,0,0,0,0,-1,1462,1065,0,0
245,-41,0,0,0,0,0,0,0,0,0,-1,1469,1065,0,0
252,-41,0,0,0,0,0,0,0,0,0,-1,1476,1065,0,0
259,-41,0,0,0,0,0,0,0,0,0,-1,1483,1065,0,0
266,-41,0,0,0,0,0,0,0,0,0,-1,1490,1065,0,0
273,-41,0,0,0,0,0,0,0,0,0,-1,1497,1065,0,0
280,-41,0,0,0,0,0,0,0,0,0,-1,1504,1065,0,0
287,-41,0,0,0,0,0,0,0,0,0,-1,1511,1065,0,0
294,-41,0,0,0,0,0,0,0,0,0,-1,1518,1065,0,0
301,-41,0,0,0,0,0,0,0,0,0,-1,1525,1065,0,0
308,-41,0,0,0,0,0,0,0,0,0,-1,1532,1065,0,0
315,-41,0,0,0,0,0,0,0,0,0,-1,1539,1065,0,0
322,-41,0,0,0,0,0,0,0,0,0,-1,1546,1065,0,0
329,-41,0,0,0,0,0,0,0,0,0,-1,1553,1065,0,0
336,-41,0,0,0,0,0,0,0,0,0,-1,1560,1065,0,0
343,-41,0,0,0,0,0,0,0,0,0,-1,1567,1065,0,0
350,-41,0,0,0,0,0,0,0,0,0,-1,1574,1065,0,0
357,-41,0,0,0,0,0,0,0,0,0,-1,1581,1065,0,0
364,-41,0,0,0,0,0,0,0,0,0,-1,1588,1065,0,0
371,-41,0,0,0,0,0,0,0,0,0,-1,1595,1065,0,0
378,-41,0,0,0,0,0,0,0,0,0,-1,1602,1065,0,0
385,-41,0,0,0,0,0,0,0,0,0,-1,1609,1065,0,0
392,-41,0,0,0,0,0,0,0,0,0,-1,1616,1065,0,0
399,-41,0,0,0,0,0,0,0,0,0,-1,1623,1065,0,0
406,-41,0,0,0,0,0,0,0,0,0,-1,1630,1065,0,0
413,-41,0,0,0,0,0,0,0,0,0,-1,1637,1065,0,0
420,-41,0,0,0,0,0,0,0,0,0,-1,1644,1065,0,0
427,-41,0,0,0,0,0,0,0,0,0,-1,1651,1065,0,0
434,-41,0,0,0,0,0,0,0,0,0,-1,1658,1065,0,0
441,-41,0,0,0,0,0,0,0,0,0,-1,1665,1065,0,0
448,-41,0,0,0,0,0,0,0,0,0,-1,1672,1065,0,0
455,-41,0,0,0,0,0,0,0,0,0,-1,1679,1065,0,0
462,-41,0,0,0,0,0,0,0,0,0,-1,1686,1065,0,0
469,-41,0,0,0,0,0,0,0,0,0,-1,1693,1065,0,0
476,-41,0,0,0,0,0,0,0,0,0,-1,1700,1065,0,0
483,-41,0,0,0,0,0,0,0,0,0,-1,1707,1065,0,0
490,-41,0,0,0,0,0,0,0,0,0,-1,1714,1065,0,0
497,-41,0,0,0,0,0,0,0,0,0,-1,1721,1065,0,0
504,-41,0,0,0,0,0,0,0,0,0,-1,1728,1065,0,0
511,-41,0,0,0,0,0,0,0,0,0,-1,1735,1065,0,0
518,-41,0,0,0,0,0,0,0,0,0,-1,1742,1065,0,0
525,-41,0,0,0,0,0,0,0,0,0,-1,1749,1065,0,0
532,-41,0,0,0,0,0,0,0,0,0,-1,1756,1065,0,0
539,-41,0,0,0,0,0,0,0,0,0,-1,1763,1065,0,0
546,-41,0,0,0,0,0,0,0,0,0,-1,1770,1065,0,0
553,-41,0,0,0,0,0,0,0,0,0,-1,1777,1065,0,0
560,-41,0,0,0,0,0,0,0,0,0,-1,1784,1065,0,0
567,-41,0,0,0,0,0,0,0,0,0,-1,1791,1065,0,0
574,-41,0,0,0,0,0,0,0,0,0,-1,1798,1065,0,0
581,-41,0,0,0,0,0,0,0,0,0,-1,1805,1065,0,0
588,-41,0,0,0,0,0,0,0,0,0,-1,1812,1065,0,0
595,-41,0,0,0,0,0,0,0,0,0,-1,1819,1065,0,0
602,-41,0,0,0,0,0,0,0,0,0,-1,1826,1065,0,0
609,-41,0,0,0,0,0,0,0,0,0,-1,1833,1065,0,0
616,-41,0,0,0,0,0,0,0,0,0,-1,1840,1065,0,0
623,-41,0,0,0,0,0,0,0,0,0,-1,1847,1065,0,0
630,-41,0,0,0,0,0,0,0,0,0,-1,1854,1065,0,0
637,-41,0,0,0,0,0,0,0,0,0,-1,1861,1065,0,0
644,-41,0,0,0,0,0,0,0,0,0,-1,1868,1065,0,0
651,-41,15.0043,2.33704,-0.00356234,0.0015673,-0.000404379,0.00159898,-0.00359402,-1.49261,0.00307105,0.0368181,1875,1065,15.0043,-2.33698
658,-41,15.0369,2.16431,-0.00215646,0.00149556,6.08675e-05,0.00149657,-0.00215747,1.55414,0.00212113,0.0415761,1882,1065,15.0369,-2.16433
665,-41,15.1062,2.25171,0,0,0,0,0,0,0,-1,1889,1065,15.1062,-2.25165
672,-41,15.1575,2.08679,-0.000526591,0.00117958,0.000608267,0.00137423,-0.000721238,1.26109,0.00122924,0.0410459,1896,1065,15.1575,-2.08676
679,-41,15.2208,2.14197,-0.000669188,0.000840616,0.00156446,0.00182278,-0.00165136,1.01019,0.00200661,0.0399224,1903,1065,15.2209,-2.14194
686,-41,15.1696,2.30127,-0.00115632,0.000460555,0.00257064,0.00234688,-0.00304265,0.937746,0.00312027,0.0408056,1910,1065,15.1696,-2.30121
693,-41,15.1862,2.48083,-0.00170005,8.57241e-05,0.00349852,0.0028035,-0.00441782,0.91034,0.00420381,0.0434582,1917,1065,15.1861,-2.48081
700,-41,15.1829,2.47583,-0.00227366,-0.00023259,0.0043034,0.00316963,-0.00567588,0.901821,0.00517483,0.0384971,1924,1065,15.1828,-2.47583
707,-41,15.1528,2.35168,-0.00262042,-0.000500314,0.00495794,0.00350963,-0.00663036,0.890717,0.00594603,0.0258706,1931,1065,15.1528,-2.35167
714,-41,15.1412,2.33533,-0.0030896,-0.000666972,0.00528659,0.0035453,-0.00730187,0.898019,0.00638658,0.0140809,1938,1065,15.1413,-2.33533
721,-41,15.1704,2.56689,-0.00353572,-0.00083928,0.00532463,0.00330517,-0.00768017,0.909395,0.00650789,0.0271688,1945,1065,15.1704,-2.56689
728,-41,14.9467,3.03564,-0.00376732,-0.000787263,0.00535108,0.00327737,-0.00783196,0.921185,0.0065912,0.0259349,1952,1065,14.9466,-3.03567
735,-41,14.8134,3.12219,-0.00367467,-0.000592193,0.0050946,0.00318919,-0.00745606,0.932284,0.00630846,0.0137722,1959,1065,14.8134,-3.12215
742,-41,14.7986,3.10608,-0.00323938,-0.00023056,0.00451203,0.00302126,-0.00649119,0.946313,0.00561249,0.0128817,1966,1065,14.7986,-3.10609
749,-41,14.8413,3.11914,-0.00248097,0.00045483,0.0038587,0.0031154,-0.00514154,0.967152,0.00481475,0.012838,1973,1065,14.8412,-3.11914
756,-41,14.8381,3.11328,-0.00136384,0.00148462,0.00278978,0.00319268,-0.00307191,1.02141,0.00361709,0.0125152,1980,1065,14.8382,-3.11334
763,-41,14.8138,3.08008,7.62817e-05,0.00271351,0.00135313,0.00328426,-0.000494471,1.17164,0.00237158,0.0105937,1987,1065,14.8139,-3.08007
770,-41,14.8053,3.08435,0.00174154,0.00421668,-0.000208109,0.00423406,0.00172416,-1.4875,0.00245852,0.01131,1994,1065,14.8053,-3.08441
777,-41,14.7845,3.07715,0.00385034,0.00611465,-0.00194412,0.00723225,0.00273275,-1.04907,0.00421687,0.0127378,2001,1065,14.7845,-3.07719
784,-41,14.7906,3.09534,0.00611234,0.00831196,-0.00371426,0.0110858,0.00333848,-0.929338,0.00656695,0.0246473,2008,1065,14.7906,-3.09539
791,-41,14.7979,3.14771,0.008625,0.010877,-0.00593862,0.0157954,0.00370656,-0.879088,0.00953793,0.045999,2015,1065,14.7979,-3.14773
798,-41,14.8073,3.17566,0,0,0,0,0,0,0,-1,2022,1065,14.8072,-3.17571
805,-41,13.8246,2.84692,0,0,0,0,0,0,0,-1,2029,1065,13.8246,-2.84696
812,-41,13.365,3.61755,0,0,0,0,0,0,0,-1,2036,1065,13.3649,-3.61756
-700,-48,-7.58771,-0.436646,-0.0121325,0.0053328,0.0299772,0.0278234,-0.0346231,0.927131,0.0361247,0.0498994,524,1072,-7.58773,0.436617
-693,-48,-7.71295,-0.349976,0.0020037,0.00795497,0.0306351,0.0357586,-0.0257999,0.833812,0.0356955,0.0428716,531,1072,-7.71292,0.349932
-686,-48,-8.72498,-0.148315,0,0,0,0,0,0,0,-1,538,1072,-8.72495,0.148321
-679,-48,-9.27527,0.655396,0,0,0,0,0,0,0,-1,545,1072,-9.27524,-0.655357
-672,-48,-9.24469,0.798218,0,0,0,0,0,0,0,-1,552,1072,-9.24469,-0.798187
-665,-48,-9.29822,0.928833,0,0,0,0,0,0,0,-1,559,1072,-9.2982,-0.928859
-658,-48,-9.13214,0.644043,0.0112597,0.00586553,0.0114727,0.020348,-0.00322282,0.669951,0.0147574,0.0420986,566,1072,-9.13213,-0.644027
-651,-48,-9.01251,0.771606,0.00913918,0.00471506,0.00795474,0.0151837,-0.00132946,0.649784,0.0105935,0.0291627,573,1072,-9.01253,-0.771646
-644,-48,-9.06573,0.904175,0.00813254,0.00417584,0.00558187,0.0120763,0.000232103,0.615093,0.00797461,0.0133884,580,1072,-9.06575,-0.90423
-637,-48,-9.06073,0.915405,0.00625961,0.00265464,0.00241629,0.00747166,0.00144259,0.46494,0.00457667,0.013366,587,1072,-9.06072,-0.915352
-630,-48,-9.05151,0.971558,0.00393261,0.00146603,-0.00062443,0.00408168,0.00131696,-0.234343,0.00240546,0.0150242,594,1072,-9.05152,-0.971559
-623,-48,-9.07257,1.0127,0.000966183,0.000665103,-0.0022818,0.00310241,-0.00147112,-0.752459,0.00269593,0.00990116,601,1072,-9.07256,-1.01271
-616,-48,-9.07654,1.05579,-0.000728489,-4.14715e-06,-0.00328528,0.00293887,-0.00367151,-0.840297,0.00382431,0.00891777,608,1072,-9.07651,-1.05578
-609,-48,-9.07776,1.0675,-0.000694493,-0.00045314,-0.00340843,0.00283674,-0.00398438,-0.803093,0.00395671,0.0106903,615,1072,-9.07777,-1.06755
-602,-48,-9.1087,1.09314,-0.000520059,-0.000858867,-0.0033774,0.00269219,-0.00407111,-0.76034,0.00393175,0.0117154,622,1072,-9.10868,-1.0932
-595,-48,-9.08923,1.12292,-0.000426602,-0.00124704,-0.00326206,0.00245093,-0.00412457,-0.722849,0.00383714,0.0139771,629,1072,-9.08926,-1.12298
-588,-48,-9.12799,0.873169,-0.000271301,-0.00141403,-0.00290795,0.00212088,-0.00380622,-0.688392,0.00346782,0.0254162,636,1072,-9.12797,-0.873227
-581,-48,-9.14313,0.631592,-8.94427e-07,-0.00154663,-0.00224754,0.00160295,-0.00315047,-0.619795,0.00279245,0.0397695,643,1072,-9.1431,-0.631626
-574,-48,-8.92999,0.820557,0.000389789,-0.00161416,-0.00130753,0.00103511,-0.00225949,-0.458469,0.00194543,0.0431863,650,1072,-8.92997,-0.82051
-567,-48,-9.03809,0.993042,0.000874145,-0.00159907,4.24768e-05,0.000874874,-0.0015998,0.017168,0.00144904,0.0425123,657,1072,-9.03811,-0.993089
-560,-48,-9.22766,1.31177,0,0,0,0,0,0,0,-1,664,1072,-9.22764,-1.31181
-553,-48,-9.25531,0.510376,0.00206586,-0.001348,0.00384728,0.00456787,-0.00385001,0.576609,0.00486595,0.0407852,671,1072,-9.25532,-0.510382
-546,-48,-8.9314,0.628418,0.00257761,-0.00111417,0.0062274,0.00722694,-0.00576349,0.641316,0.00751588,0.0389405,678,1072,-8.93143,-0.628423
-539,-48,-8.94012,0.789307,0.00286847,-0.000840627,0.0085283,0.00974153,-0.00771369,0.678336,0.0101004,0.0390294,685,1072,-8.94015,-0.789296
-532,-48,-8.97986,1.01733,0.00227294,-0.000681615,0.00963263,0.0105409,-0.00894959,0.70931,0.0112653,0.0401707,692,1072,-8.97987,-1.01728
-525,-48,0,0,0,0,0,0,0,0,0,-1,699,1072,0,0
-518,-48,0,0,0,0,0,0,0,0,0,-1,706,1072,0,0
-511,-48,0,0,0,0,0,0,0,0,0,-1,713,1072,0,0
-504,-48,0,0,0,0,0,0,0,0,0,-1,720,1072,0,0
-497,-48,0,0,0,0,0,0,0,0,0,-1,727,1072,0,0
-490,-48,0,0,0,0,0,0,0,0,0,-1,734,1072,0,0
-483,-48,0,0,0,0,0,0,0,0,0,-1,741,1072,0,0
-476,-48,0,0,0,0,0,0,0,0,0,-1,748,1072,0,0
-469,-48,0,0,0,0,0,0,0,0,0,-1,755,1072,0,0
-462,-48,0,0,0,0,0,0,0,0,0,-1,762,1072,0,0
-455,-48,0,0,0,0,0,0,0,0,0,-1,769,1072,0,0
-448,-48,0,0,0,0,0,0,0,0,0,-1,776,1072,0,0
-441,-48,0,0,0,0,0,0,0,0,0,-1,783,1072,0,0
-434,-48,0,0,0,0,0,0,0,0,0,-1,790,1072,0,0
-427,-48,0,0,0,0,0,0,0,0,0,-1,797,1072,0,0
-420,-48,0,0,0,0,0,0,0,0,0,-1,804,1072,0,0
-413,-48,0,0,0,0,0,0,0,0,0,-1,811,1072,0,0
-406,-48,0,0,0,0,0,0,0,0,0,-1,818,1072,0,0
-399,-48,0,0,0,0,0,0,0,0,0,-1,825,1072,0,0
-392,-48,0,0,0,0,0,0,0,0,0,-1,832,1072,0,0
-385,-48,0,0,0,0,0,0,0,0,0,-1,839,1072,0,0
-378,-48,0,0,0,0,0,0,0,0,0,-1,846,1072,0,0
-371,-48,0,0,0,0,0,0,0,0,0,-1,853,1072,0,0
-364,-48,0,0,0,0,0,0,0,0,0,-1,860,1072,0,0
-357,-48,0,0,0,0,0,0,0,0,0,-1,867,1072,0,0
-350,-48,0,0,0,0,0,0,0,0,0,-1,874,1072,0,0
-343,-48,0,0,0,0,0,0,0,0,0,-1,881,1072,0,0
-336,-48,0,0,0,0,0,0,0,0,0,-1,888,1072,0,0
-329,-48,0,0,0,0,0,0,0,0,0,-1,895,1072,0,0
-322,-48,0,0,0,0,0,0,0,0,0,-1,902,1072,0,0
-315,-48,0,0,0,0,0,0,0,0,0,-1,909,1072,0,0
-308,-48,0,0,0,0,0,0,0,0,0,-1,916,1072,0,0
-301,-48,0,0,0,0,0,0,0,0,0,-1,923,1072,0,0
-294,-48,0,0,0,0,0,0,0,0,0,-1,930,1072,0,0
-287,-48,0,0,0,0,0,0,0,0,0,-1,937,1072,0,0
-280,-48,0,0,0,0,0,0,0,0,0,-1,944,1072,0,0
-273,-48,0,0,0,0,0,0,0,0,0,-1,951,1072,0,0
-266,-48,0,0,0,0,0,0,0,0,0,-1,958,1072,0,0
-259,-48,0,0,0,0,0,0,0,0,0,-1,965,1072,0,0
-252,-48,0,0,0,0,0,0,0,0,0,-1,972,1072,0,0
-245,-48,0,0,0,0,0,0,0,0,0,-1,979,1072,0,0
-238,-48,0,0,0,0,0,0,0,0,0,-1,986,1072,0,0
-231,-48,0,0,0,0,0,0,0,0,0,-1,993,1072,0,0
-224,-48,0,0,0,0,0,0,0,0,0,-1,1000,1072,0,0
-217,-48,0,0,0,0,0,0,0,0,0,-1,1007,1072,0,0
-210,-48,0,0,0,0,0,0,0,0,0,-1,1014,1072,0,0
-203,-48,0,0,0,0,0,0,0,0,0,-1,1021,1072,0,0
-196,-48,0,0,0,0,0,0,0,0,0,-1,1028,1072,0,0
-189,-48,0,0,0,0,0,0,0,0,0,-1,1035,1072,0,0
-182,-48,0,0,0,0,0,0,0,0,0,-1,1042,1072,0,0
-175,-48,0,0,0,0,0,0,0,0,0,-1,1049,1072,0,0
-168,-48,0,0,0,0,0,0,0,0,0,-1,1056,1072,0,0
-161,-48,0,0,0,0,0,0,0,0,0,-1,1063,1072,0,0
-154,-48,0,0,0,0,0,0,0,0,0,-1,1070,1072,0,0
-147,-48,0,0,0,0,0,0,0,0,0,-1,1077,1072,0,0
-140,-48,0,0,0,0,0,0,0,0,0,-1,1084,1072,0,0
-133,-48,0,0,0,0,0,0,0,0,0,-1,1091,1072,0,0
-126,-48,0,0,0,0,0,0,0,0,0,-1,1098,1072,0,0
-119,-48,0,0,0,0,0,0,0,0,0,-1,1105,1072,0,0
-112,-48,0,0,0,0,0,0,0,0,0,-1,1112,1072,0,0
-105,-48,0,0,0,0,0,0,0,0,0,-1,1119,1072,0,0
-98,-48,0,0,0,0,0,0,0,0,0,-1,1126,1072,0,0
-91,-48,0,0,0,0,0,0,0,0,0,-1,1133,1072,0,0
-84,-48,0,0,0,0,0,0,0,0,0,-1,1140,1072,0,0
-77,-48,0,0,0,0,0,0,0,0,0,-1,1147,1072,0,0
-70,-48,0,0,0,0,0,0,0,0,0,-1,1154,1072,0,0
-63,-48,0,0,0,0,0,0,0,0,0,-1,1161,1072,0,0
-56,-48,0,0,0,0,0,0,0,0,0,-1,1168,1072,0,0
-49,-48,0,0,0,0,0,0,0,0,0,-1,1175,1072,0,0
-42,-48,0,0,0,0,0,0,0,0,0,-1,1182,1072,0,0
-35,-48,0,0,0,0,0,0,0,0,0,-1,1189,1072,0,0
-28,-48,0,0,0,0,0,0,0,0,0,-1,1196,1072,0,0
-21,-48,0,0,0,0,0,0,0,0,0,-1,1203,1072,0,0
-14,-48,0,0,0,0,0,0,0,0,0,-1,1210,1072,0,0
-7,-48,0,0,0,0,0,0,0,0,0,-1,1217,1072,0,0
0,-48,0,0,0,0,0,0,0,0,0,-1,1224,1072,0,0
7,-48,0,0,0,0,0,0,0,0,0,-1,1231,1072,0,0
14,-48,0,0,0,0,0,0,0,0,0,-1,1238,1072,0,0
21,-48,0,0,0,0,0,0,0,0,0,-1,1245,1072,0,0
28,-48,0,0,0,0,0,0,0,0,0,-1,1252,1072,0,0
35,-48,0,0,0,0,0,0,0,0,0,-1,1259,1072,0,0
42,-48,0,0,0,0,0,0,0,0,0,-1,1266,1072,0,0
49,-48,0,0,0,0,0,0,0,0,0,-1,1273,1072,0,0
56,-48,0,0,0,0,0,0,0,0,0,-1,1280,1072,0,0
63,-48,0,0,0,0,0,0,0,0,0,-1,1287,1072,0,0
70,-48,0,0,0,0,0,0,0,0,0,-1,1294,1072,0,0
77,-48,0,0,0,0,0,0,0,0,0,-1,1301,1072,0,0
84,-48,0,0,0,0,0,0,0,0,0,-1,1308,1072,0,0
91,-48,0,0,0,0,0,0,0,0,0,-1,1315,1072,0,0
98,-48,0,0,0,0,0,0,0,0,0,-1,1322,1072,0,0
105,-48,0,0,0,0,0,0,0,0,0,-1,1329,1072,0,0
112,-48,0,0,0,0,0,0,0,0,0,-1,1336,1072,0,0
119,-48,0,0,0,0,0,0,0,0,0,-1,1343,1072,0,0
126,-48,0,0,0,0,0,0,0,0,0,-1,1350,1072,0,0
133,-48,0,0,0,0,0,0,0,0,0,-1,1357,1072,0,0
140,-48,0,0,0,0,0,0,0,0,0,-1,1364,1072,0,0
147,-48,0,0,0,0,0,0,0,0,0,-1,1371,1072,0,0
154,-48,0,0,0,0,0,0,0,0,0,-1,1378,1072,0,0
161,-48,0,0,0,0,0,0,0,0,0,-1,1385,1072,0,0
168,-48,0,0,0,0,0,0,0,0,0,-1,1392,1072,0,0
175,-48,0,0,0,0,0,0,0,0,0,-1,1399,1072,0,0
182,-48,0,0,0,0,0,0,0,0,0,-1,1406,1072,0,0
189,-48,0,0,0,0,0,0,0,0,0,-1,1413,1072,0,0
196,-48,0,0,0,0,0,0,0,0,0,-1,1420,1072,0,0
203,-48,0,0,0,0,0,0,0,0,0,-1,1427,1072,0,0
210,-48,0,0,0,0,0,0,0,0,0,-1,1434,1072,0,0
217,-48,0,0,0,0,0,0,0,0,0,-1,1441,1072,0,0
224,-48,0,0,0,0,0,0,0,0,0,-1,1448,1072,0,0
231,-48,0,0,0,0,0,0,0,0,0,-1,1455,1072,0,0
238,-48,0,0,0,0,0,0,0,0,0,-1,1462,1072,0,0
245,-48,0,0,0,0,0,0,0,0,0,-1,1469,1072,0,0
252,-48,0,0,0,0,0,0,0,0,0,-1,1476,1072,0,0
259,-48,0,0,0,0,0,0,0,0,0,-1,1483,1072,0,0
266,-48,0,0,0,0,0,0,0,0,0,-1,1490,1072,0,0
273,-48,0,0,0,0,0,0,0,0,0,-1,1497,1072,0,0
280,-48,0,0,0,0,0,0,0,0,0,-1,1504,1072,0,0
287,-48,0,0,0,0,0,0,0,0,0,-1,1511,1072,0,0
294,-48,0,0,0,0,0,0,0,0,0,-1,1518,1072,0,0
301,-48,0,0,0,0,0,0,0,0,0,-1,1525,1072,0,0
308,-48,0,0,0,0,0,0,0,0,0,-1,1532,1072,0,0
315,-48,0,0,0,0,0,0,0,0,0,-1,1539,1072,0,0
322,-48,0,0,0,0,0,0,0,0,0,-1,1546,1072,0,0
329,-48,0,0,0,0,0,0,0,0,0,-1,1553,1072,0,0
336,-48,0,0,0,0,0,0,0,0,0,-1,1560,1072,0,0
343,-48,0,0,0,0,0,0,0,0,0,-1,1567,1072,0,0
350,-48,0,0,0,0,0,0,0,0,0,-1,1574,1072,0,0
357,-48,0,0,0,0,0,0,0,0,0,-1,1581,1072,0,0
364,-48,0,0,0,0,0,0,0,0,0,-1,1588,1072,0,0
371,-48,0,0,0,0,0,0,0,0,0,-1,1595,1072,0,0
378,-48,0,0,0,0,0,0,0,0,0,-1,1602,1072,0,0
385,-48,0,0,0,0,0,0,0,0,0,-1,1609,1072,0,0
392,-48,0,0,0,0,0,0,0,0,0,-1,1616,1072,0,0
399,-48,0,0,0,0,0,0,0,0,0,-1,1623,1072,0,0
406,-48,0,0,0,0,0,0,0,0,0,-1,1630,1072,0,0
413,-48,0,0,0,0,0,0,0,0,0,-1,1637,1072,0,0
420,-48,0,0,0,0,0,0,0,0,0,-1,1644,1072,0,0
427,-48,0,0,0,0,0,0,0,0,0,-1,1651,1072,0,0
434,-48,0,0,0,0,0,0,0,0,0,-1,1658,1072,0,0
441,-48,0,0,0,0,0,0,0,0,0,-1,1665,1072,0,0
448,-48,0,0,0,0,0,0,0,0,0,-1,1672,1072,0,0
455,-48,0,0,0,0,0,0,0,0,0,-1,1679,1072,0,0
462,-48,0,0,0,0,0,0,0,0,0,-1,1686,1072,0,0
469,-48,0,0,0,0,0,0,0,0,0,-1,1693,1072,0,0
476,-48,0,0,0,0,0,0,0,0,0,-1,1700,1072,0,0
483,-48,0,0,0,0,0,0,0,0,0,-1,1707,1072,0,0
490,-48,0,0,0,0,0,0,0,0,0,-1,1714,1072,0,0
497,-48,0,0,0,0,0,0,0,0,0,-1,1721,1072,0,0
504,-48,0,0,0,0,0,0,0,0,0,-1,1728,1072,0,0
511,-48,0,0,0,0,0,0,0,0,0,-1,1735,1072,0,0
518,-48,0,0,0,0,0,0,0,0,0,-1,1742,1072,0,0
525,-48,0,0,0,0,0,0,0,0,0,-1,1749,1072,0,0
532,-48,0,0,0,0,0,0,0,0,0,-1,1756,1072,0,0
539,-48,0,0,0,0,0,0,0,0,0,-1,1763,1072,0,0
546,-48,0,0,0,0,0,0,0,0,0,-1,1770,1072,0,0
553,-48,0,0,0,0,0,0,0,0,0,-1,1777,1072,0,0
560,-48,0,0,0,0,0,0,0,0,0,-1,1784,1072,0,0
567,-48,0,0,0,0,0,0,0,0,0,-1,1791,1072,0,0
574,-48,0,0,0,0,0,0,0,0,0,-1,1798,1072,0,0
581,-48,0,0,0,0,0,0,0,0,0,-1,1805,1072,0,0
588,-48,0,0,0,0,0,0,0,0,0,-1,1812,1072,0,0
595,-48,0,0,0,0,0,0,0,0,0,-1,1819,1072,0,0
602,-48,0,0,0,0,0,0,0,0,0,-1,1826,1072,0,0
609,-48,0,0,0,0,0,0,0,0,0,-1,1833,1072,0,0
616,-48,0,0,0,0,0,0,0,0,0,-1,1840,1072,0,0
623,-48,0,0,0,0,0,0,0,0,0,-1,1847,1072,0,0
630,-48,0,0,0,0,0,0,0,0,0,-1,1854,1072,0,0
637,-48,0,0,0,0,0,0,0,0,0,-1,1861,1072,0,0
644,-48,0,0,0,0,0,0,0,0,0,-1,1868,1072,0,0
651,-48,15.1027,2.19214,-0.00444298,0.00104077,3.08676e-05,0.00104095,-0.00444316,1.56517,0.00336322,0.0323317,1875,1072,15.1026,-2.19214
658,-48,15.1179,2.09949,-0.00263514,0.00104323,0.000265598,0.0010623,-0.00265422,1.49909,0.00221038,0.0387034,1882,1072,15.1179,-2.09945
665,-48,15.0768,2.57727,0,0,0,0,0,0,0,-1,1889,1072,15.0768,-2.57726
672,-48,15.1161,2.29883,-0.000597702,0.000855414,0.00061523,0.0010809,-0.000823192,1.21949,0.00110268,0.0410888,1896,1072,15.1161,-2.29881
679,-48,15.2346,2.08179,-0.000680693,0.000544176,0.00153936,0.00158846,-0.00172498,0.974724,0.00191356,0.0386716,1903,1072,15.2346,-2.0818
686,-48,15.1914,2.21606,-0.00114178,0.000187836,0.00251957,0.00212883,-0.00308277,0.914387,0.00302568,0.0393992,1910,1072,15.1915,-2.21603
693,-48,15.1084,2.3573,-0.0016854,-0.000168681,0.00343042,0.00258621,-0.00444029,0.894183,0.00410356,0.0407595,1917,1072,15.1083,-2.3573
700,-48,15.1001,2.33374,-0.00224914,-0.000465916,0.00421652,0.00295223,-0.00566729,0.889592,0.0050581,0.0356627,1924,1072,15.1001,-2.33378
707,-48,15.1138,2.25696,-0.00259545,-0.000718236,0.00484141,0.00327471,-0.00658839,0.881145,0.0058006,0.0246587,1931,1072,15.1137,-2.25693
714,-48,15.1477,2.34314,-0.00306215,-0.000855049,0.00516592,0.00332388,-0.00724107,0.890627,0.00623787,0.0215192,1938,1072,15.1477,-2.34314
721,-48,15.0728,2.77966,-0.00350748,-0.00102481,0.0052314,0.00311051,-0.0076428,0.901887,0.0063896,0.0333247,1945,1072,15.0727,-2.77968
728,-48,14.7643,3.17798,-0.00374627,-0.000956216,0.00526252,0.00309304,-0.00779553,0.914962,0.00647899,0.0279395,1952,1072,14.7643,-3.17801
735,-48,14.807,3.15942,-0.00368391,-0.000725343,0.00505841,0.00306565,-0.0074749,0.927652,0.00626055,0.0151011,1959,1072,14.807,-3.15939
742,-48,14.7968,3.13281,-0.00328964,-0.000253702,0.00462519,0.00309625,-0.00663959,0.943958,0.00574374,0.0127236,1966,1072,14.7967,-3.13284
749,-48,14.8314,3.099,-0.00248997,0.000531128,0.00410428,0.00339401,-0.00535285,0.961726,0.00509204,0.0123393,1973,1072,14.8314,-3.09901
756,-48,14.8201,3.09619,-0.00137833,0.00145422,0.00334658,0.00367188,-0.00359598,0.985571,0.00419618,0.0124045,1980,1072,14.8201,-3.09622
763,-48,14.8046,3.08325,8.82197e-05,0.00259774,0.00219781,0.00387375,-0.00118779,1.04478,0.00305636,0.0128291,1987,1072,14.8045,-3.08331
770,-48,14.8152,3.06799,0.00176015,0.00401497,0.00105074,0.00442869,0.00134642,1.19569,0.00262156,0.0126856,1994,1072,14.8152,-3.06805
777,-48,14.8047,3.04968,0.00386233,0.00571671,-0.000135795,0.0057266,0.00385244,-1.49808,0.00337138,0.0112664,2001,1072,14.8047,-3.04964
784,-48,14.7936,3.01489,0.00612713,0.00754857,-0.00121866,0.00824861,0.00542708,-1.04938,0.00484089,0.0234582,2008,1072,14.7936,-3.01494
791,-48,14.8124,2.98987,0.0086887,0.00953555,-0.00263882,0.0117847,0.00643954,-0.86495,0.00681367,0.0418206,2015,1072,14.8124,-2.98987
798,-48,14.8093,2.96436,0,0,0,0,0,0,0,-1,2022,1072,14.8093,-2.96441
805,-48,14.203,3.29224,0.0160175,0.0138859,-0.00802414,0.0230463,0.0068571,-0.719374,0.0136646,0.0437357,2029,1072,14.203,-3.29222
812,-48,14.136,3.35962,0.0207904,0.0160142,-0.0126146,0.0312409,0.00556367,-0.691849,0.0192427,0.0445202,2036,1072,14.1361,-3.35967
-700,-55,-6.39789,-0.2677,0,0,0,0,0,0,0,-1,524,1079,-6.3979,0.267651
-693,-55,-6.85083,-0.0286865,0.00599305,0.019518,0.0405955,0.0539104,-0.0283994,0.867931,0.0482764,0.0446694,531,1079,-6.85085,0.0287325
-686,-55,-6.79346,0.533813,0.0135113,0.0177849,0.0356349,0.051347,-0.0200508,0.815344,0.0425211,0.0486915,538,1079,-6.79346,-0.533853
-679,-55,-6.68213,0.807617,0,0,0,0,0,0,0,-1,545,1079,-6.68212,-0.807577
-672,-55,-9.14618,1.00964,0,0,0,0,0,0,0,-1,552,1079,-9.14621,-1.00961
-665,-55,-8.69965,1.40125,0.0154875,0.010865,0.0183267,0.0316482,-0.0052956,0.722673,0.0230675,0.0482955,559,1079,-8.69965,-1.40121
-658,-55,-8.97076,0.686035,0.0131804,0.00867946,0.0133608,0.0244789,-0.0026191,0.701963,0.0172587,0.0483246,566,1079,-8.97074,-0.685978
-651,-55,-8.99591,0.742554,0.0105154,0.00669568,0.0091971,0.0179988,-0.000787774,0.683024,0.0122703,0.0353343,573,1079,-8.9959,-0.742532
-644,-55,-9.03302,0.88623,0.00922143,0.00553135,0.0063745,0.0140125,0.000740245,0.644527,0.00910498,0.0152272,580,1079,-9.03301,-0.886173
-637,-55,-9.04388,0.890137,0.00693582,0.00343374,0.00278381,0.0084735,0.00189605,0.504659,0.00513502,0.0123957,587,1079,-9.04391,-0.89019
-630,-55,-9.02722,0.96106,0.00421542,0.00185972,-0.000562005,0.00434262,0.00173251,-0.222599,0.00252422,0.0141567,594,1079,-9.02723,-0.961116
-623,-55,-9.0376,1.02368,0.000848403,0.000819039,-0.00236883,0.0032026,-0.00153516,-0.782299,0.00279125,0.0135448,601,1079,-9.03762,-1.02372
-616,-55,-9.01721,1.03687,-0.00112924,6.89791e-06,-0.00346973,0.00295476,-0.0040771,-0.866539,0.00407705,0.0116017,608,1079,-9.01722,-1.03682
-609,-55,-9.04187,1.05994,-0.00110158,-0.000390366,-0.00360494,0.00287647,-0.00436841,-0.834561,0.00421229,0.011521,615,1079,-9.04185,-1.05992
-602,-55,-9.06964,1.10986,-0.000901189,-0.00073836,-0.00365323,0.00283436,-0.00447391,-0.796539,0.00425468,0.0127617,622,1079,-9.06964,-1.10984
-595,-55,-9.03687,1.19275,-0.000812175,-0.00106011,-0.00364079,0.00270676,-0.00457905,-0.76838,0.00425251,0.0145569,629,1079,-9.03686,-1.19277
-588,-55,-9.0437,0.947144,-0.000653388,-0.00115295,-0.0033581,0.0024642,-0.00427055,-0.748275,0.00393465,0.0258572,636,1079,-9.04368,-0.947137
-581,-55,-9.10132,0.592041,-0.00032512,-0.00116794,-0.0027094,0.00199544,-0.0034885,-0.708248,0.00320504,0.0376454,643,1079,-9.10131,-0.591997
-574,-55,-9.13019,0.509033,0.000137005,-0.00112163,-0.00177703,0.00139286,-0.00237748,-0.615219,0.00220141,0.040474,650,1079,-9.1302,-0.509074
-567,-55,-9.21637,0.529663,0.000749982,-0.000979879,-0.000390576,0.000834079,-0.00106398,-0.212079,0.00109852,0.0405844,657,1079,-9.2164,-0.529696
-560,-55,-9.34052,0.619995,0.00152787,-0.000765183,0.00143753,0.0022201,-0.00145741,0.448771,0.00213838,0.0426364,664,1079,-9.34054,-0.620041
-553,-55,-9.21167,0.494995,0.00238102,-0.000487396,0.00367858,0.00489509,-0.00300146,0.599522,0.00460257,0.0432183,671,1079,-9.21166,-0.494937
-546,-55,-9.01569,0.453857,0.00322697,-0.00016541,0.00631302,0.00806769,-0.00500613,0.654157,0.00761685,0.0397044,678,1079,-9.01569,-0.4538
-539,-55,-9.0321,0.548462,0.00393295,0.000160449,0.00899637,0.0112387,-0.00714529,0.682061,0.0107013,0.0385633,685,1079,-9.0321,-0.548429
-532,-55,-9.00555,0.946777,0.00374985,0.000261998,0.0105859,0.0127345,-0.00872267,0.703761,0.0124603,0.0409203,692,1079,-9.00554,-0.946793
-525,-55,0,0,0,0,0,0,0,0,0,-1,699,1079,0,0
-518,-55,0,0,0,0,0,0,0,0,0,-1,706,1079,0,0
-511,-55,0,0,0,0,0,0,0,0,0,-1,713,1079,0,0
-504,-55,0,0,0,0,0,0,0,0,0,-1,720,1079,0,0
-497,-55,0,0,0,0,0,0,0,0,0,-1,727,1079,0,0
-490,-55,0,0,0,0,0,0,0,0,0,-1,734,1079,0,0
-483,-55,0,0,0,0,0,0,0,0,0,-1,741,1079,0,0
-476,-55,0,0,0,0,0,0,0,0,0,-1,748,1079,0,0
-469,-55,0,0,0,0,0,0,0,0,0,-1,755,1079,0,0
-462,-55,0,0,0,0,0,0,0,0,0,-1,762,1079,0,0
-455,-55,0,0,0,0,0,0,0,0,0,-1,769,1079,0,0
-448,-55,0,0,0,0,0,0,0,0,0,-1,776,1079,0,0
-441,-55,0,0,0,0,0,0,0,0,0,-1,783,1079,0,0
-434,-55,0,0,0,0,0,0,0,0,0,-1,790,1079,0,0
-427,-55,0,0,0,0,0,0,0,0,0,-1,797,1079,0,0
-420,-55,0,0,0,0,0,0,0,0,0,-1,804,1079,0,0
-413,-55,0,0,0,0,0,0,0,0,0,-1,811,1079,0,0
-406,-55,0,0,0,0,0,0,0,0,0,-1,818,1079,0,0
-399,-55,0,0,0,0,0,0,0,0,0,-1,825,1079,0,0
-392,-55,0,0,0,0,0,0,0,0,0,-1,832,1079,0,0
-385,-55,0,0,0,0,0,0,0,0,0,-1,839,1079,0,0
-378,-55,0,0,0,0,0,0,0,0,0,-1,846,1079,0,0
-371,-55,0,0,0,0,0,0,0,0,0,-1,853,1079,0,0
-364,-55,0,0,0,0,0,0,0,0,0,-1,860,1079,0,0
-357,-55,0,0,0,0,0,0,0,0,0,-1,867,1079,0,0
-350,-55,0,0,0,0,0,0,0,0,0,-1,874,1079,0,0
-343,-55,0,0,0,0,0,0,0,0,0,-1,881,1079,0,0
-336,-55,0,0,0,0,0,0,0,0,0,-1,888,1079,0,0
-329,-55,0,0,0,0,0,0,0,0,0,-1,895,1079,0,0
-322,-55,0,0,0,0,0,0,0,0,0,-1,902,1079,0,0
-315,-55,0,0,0,0,0,0,0,0,0,-1,909,1079,0,0
-308,-55,0,0,0,0,0,0,0,0,0,-1,916,1079,0,0
-301,-55,0,0,0,0,0,0,0,0,0,-1,923,1079,0,0
-294,-55,0,0,0,0,0,0,0,0,0,-1,930,1079,0,0
-287,-55,0,0,0,0,0,0,0,0,0,-1,937,1079,0,0
-280,-55,0,0,0,0,0,0,0,0,0,-1,944,1079,0,0
-273,-55,0,0,0,0,0,0,0,0,0,-1,951,1079,0,0
-266,-55,0,0,0,0,0,0,0,0,0,-1,958,1079,0,0
-259,-55,0,0,0,0,0,0,0,0,0,-1,965,1079,0,0
-252,-55,0,0,0,0,0,0,0,0,0,-1,972,1079,0,0
-245,-55,0,0,0,0,0,0,0,0,0,-1,979,1079,0,0
-238,-55,0,0,0,0,0,0,0,0,0,-1,986,1079,0,0
-231,-55,0,0,0,0,0,0,0,0,0,-1,993,1079,0,0
-224,-55,0,0,0,0,0,0,0,0,0,-1,1000,1079,0,0
-217,-55,0,0,0,0,0,0,0,0,0,-1,1007,1079,0,0
-210,-55,0,0,0,0,0,0,0,0,0,-1,1014,1079,0,0
-203,-55,0,0,0,0,0,0,0,0,0,-1,1021,1079,0,0
-196,-55,0,0,0,0,0,0,0,0,0,-1,1028,1079,0,0
-189,-55,0,0,0,0,0,0,0,0,0,-1,1035,1079,0,0
-182,-55,0,0,0,0,0,0,0,0,0,-1,1042,1079,0,0
-175,-55,0,0,0,0,0,0,0,0,0,-1,1049,1079,0,0
-168,-55,0,0,0,0,0,0,0,0,0,-1,1056,1079,0,0
-161,-55,0,0,0,0,0,0,0,0,0,-1,1063,1079,0,0
-154,-55,0,0,0,0,0,0,0,0,0,-1,1070,1079,0,0
-147,-55,0,0,0,0,0,0,0,0,0,-1,1077,1079,0,0
-140,-55,0,0,0,0,0,0,0,0,0,-1,1084,1079,0,0
-133,-55,0,0,0,0,0,0,0,0,0,-1,1091,1079,0,0
-126,-55,0,0,0,0,0,0,0,0,0,-1,1098,1079,0,0
-119,-55,0,0,0,0,0,0,0,0,0,-1,1105,1079,0,0
-112,-55,0,0,0,0,0,0,0,0,0,-1,1112,1079,0,0
-105,-55,0,0,0,0,0,0,0,0,0,-1,1119,1079,0,0
-98,-55,0,0,0,0,0,0,0,0,0,-1,1126,1079,0,0
-91,-55,0,0,0,0,0,0,0,0,0,-1,1133,1079,0,0
-84,-55,0,0,0,0,0,0,0,0,0,-1,1140,1079,0,0
-77,-55,0,0,0,0,0,0,0,0,0,-1,1147,1079,0,0
-70,-55,0,0,0,0,0,0,0,0,0,-1,1154,1079,0,0
-63,-55,0,0,0,0,0,0,0,0,0,-1,1161,1079,0,0
-56,-55,0,0,0,0,0,0,0,0,0,-1,1168,1079,0,0
-49,-55,0,0,0,0,0,0,0,0,0,-1,1175,1079,0,0
-42,-55,0,0,0,0,0,0,0,0,0,-1,1182,1079,0,0
-35,-55,0,0,0,0,0,0,0,0,0,-1,1189,1079,0,0
-28,-55,0,0,0,0,0,0,0,0,0,-1,1196,1079,0,0
-21,-55,0,0,0,0,0,0,0,0,0,-1,1203,1079,0,0
-14,-55,0,0,0,0,0,0,0,0,0,-1,1210,1079,0,0
-7,-55,0,0,0,0,0,0,0,0,0,-1,1217,1079,0,0
0,-55,0,0,0,0,0,0,0,0,0,-1,1224,1079,0,0
7,-55,0,0,0,0,0,0,0,0,0,-1,1231,1079,0,0
14,-55,0,0,0,0,0,0,0,0,0,-1,1238,1079,0,0
21,-55,0,0,0,0,0,0,0,0,0,-1,1245,1079,0,0
28,-55,0,0,0,0,0,0,0,0,0,-1,1252,1079,0,0
35,-55,0,0,0,0,0,0,0,0,0,-1,1259,1079,0,0
42,-55,0,0,0,0,0,0,0,0,0,-1,1266,1079,0,0
49,-55,0,0,0,0,0,0,0,0,0,-1,1273,1079,0,0
56,-55,0,0,0,0,0,0,0,0,0,-1,1280,1079,0,0
63,-55,0,0,0,0,0,0,0,0,0,-1,1287,1079,0,0
70,-55,0,0,0,0,0,0,0,0,0,-1,1294,1079,0,0
77,-55,0,0,0,0,0,0,0,0,0,-1,1301,1079,0,0
84,-55,0,0,0,0,0,0,0,0,0,-1,1308,1079,0,0
91,-55,0,0,0,0,0,0,0,0,0,-1,1315,1079,0,0
98,-55,0,0,0,0,0,0,0,0,0,-1,1322,1079,0,0
105,-55,0,0,0,0,0,0,0,0,0,-1,1329,1079,0,0
112,-55,0,0,0,0,0,0,0,0,0,-1,1336,1079,0,0
119,-55,0,0,0,0,0,0,0,0,0,-1,1343,1079,0,0
126,-55,0,0,0,0,0,0,0,0,0,-1,1350,1079,0,0
133,-55,0,0,0,0,0,0,0,0,0,-1,1357,1079,0,0
140,-55,0,0,0,0,0,0,0,0,0,-1,1364,1079,0,0
147,-55,0,0,0,0,0,0,0,0,0,-1,1371,1079,0,0
154,-55,0,0,0,0,0,0,0,0,0,-1,1378,1079,0,0
161,-55,0,0,0,0,0,0,0,0,0,-1,1385,1079,0,0
168,-55,0,0,0,0,0,0,0,0,0,-1,1392,1079,0,0
175,-55,0,0,0,0,0,0,0,0,0,-1,1399,1079,0,0
182,-55,0,0,0,0,0,0,0,0,0,-1,1406,1079,0,0
189,-55,0,0,0,0,0,0,0,0,0,-1,1413,1079,0,0
196,-55,0,0,0,0,0,0,0,0,0,-1,1420,1079,0,0
203,-55,0,0,0,0,0,0,0,0,0,-1,1427,1079,0,0
210,-55,0,0,0,0,0,0,0,0,0,-1,1434,1079,0,0
217,-55,0,0,0,0,0,0,0,0,0,-1,1441,1079,0,0
224,-55,0,0,0,0,0,0,0,0,0,-1,1448,1079,0,0
231,-55,0,0,0,0,0,0,0,0,0,-1,1455,1079,0,0
238,-55,0,0,0,0,0,0,0,0,0,-1,1462,1079,0,0
245,-55,0,0,0,0,0,0,0,0,0,-1,1469,1079,0,0
252,-55,0,0,0,0,0,0,0,0,0,-1,1476,1079,0,0
259,-55,0,0,0,0,0,0,0,0,0,-1,1483,1079,0,0
266,-55,0,0,0,0,0,0,0,0,0,-1,1490,1079,0,0
273,-55,0,0,0,0,0,0,0,0,0,-1,1497,1079,0,0
280,-55,0,0,0,0,0,0,0,0,0,-1,1504,1079,0,0
287,-55,0,0,0,0,0,0,0,0,0,-1,1511,1079,0,0
294,-55,0,0,0,0,0,0,0,0,0,-1,1518,1079,0,0
301,-55,0,0,0,0,0,0,0,0,0,-1,1525,1079,0,0
308,-55,0,0,0,0,0,0,0,0,0,-1,1532,1079,0,0
315,-55,0,0,0,0,0,0,0,0,0,-1,1539,1079,0,0
322,-55,0,0,0,0,0,0,0,0,0,-1,1546,1079,0,0
329,-55,0,0,0,0,0,0,0,0,0,-1,1553,1079,0,0
336,-55,0,0,0,0,0,0,0,0,0,-1,1560,1079,0,0
343,-55,0,0,0,0,0,0,0,0,0,-1,1567,1079,0,0
350,-55,0,0,0,0,0,0,0,0,0,-1,1574,1079,0,0
357,-55,0,0,0,0,0,0,0,0,0,-1,1581,1079,0,0
364,-55,0,0,0,0,0,0,0,0,0,-1,1588,1079,0,0
371,-55,0,0,0,0,0,0,0,0,0,-1,1595,1079,0,0
378,-55,0,0,0,0,0,0,0,0,0,-1,1602,1079,0,0
385,-55,0,0,0,0,0,0,0,0,0,-1,1609,1079,0,0
392,-55,0,0,0,0,0,0,0,0,0,-1,1616,1079,0,0
399,-55,0,0,0,0,0,0,0,0,0,-1,1623,1079,0,0
406,-55,0,0,0,0,0,0,0,0,0,-1,1630,1079,0,0
413,-55,0,0,0,0,0,0,0,0,0,-1,1637,1079,0,0
420,-55,0,0,0,0,0,0,0,0,0,-1,1644,1079,0,0
427,-55,0,0,0,0,0,0,0,0,0,-1,1651,1079,0,0
434,-55,0,0,0,0,0,0,0,0,0,-1,1658,1079,0,0
441,-55,0,0,0,0,0,0,0,0,0,-1,1665,1079,0,0
448,-55,0,0,0,0,0,0,0,0,0,-1,1672,1079,0,0
455,-55,0,0,0,0,0,0,0,0,0,-1,1679,1079,0,0
462,-55,0,0,0,0,0,0,0,0,0,-1,1686,1079,0,0
469,-55,0,0,0,0,0,0,0,0,0,-1,1693,1079,0,0
476,-55,0,0,0,0,0,0,0,0,0,-1,1700,1079,0,0
483,-55,0,0,0,0,0,0,0,0,0,-1,1707,1079,0,0
490,-55,0,0,0,0,0,0,0,0,0,-1,1714,1079,0,0
497,-55,0,0,0,0,0,0,0,0,0,-1,1721,1079,0,0
504,-55,0,0,0,0,0,0,0,0,0,-1,1728,1079,0,0
511,-55,0,0,0,0,0,0,0,0,0,-1,1735,1079,0,0
518,-55,0,0,0,0,0,0,0,0,0,-1,1742,1079,0,0
525,-55,0,0,0,0,0,0,0,0,0,-1,1749,1079,0,0
532,-55,0,0,0,0,0,0,0,0,0,-1,1756,1079,0,0
539,-55,0,0,0,0,0,0,0,0,0,-1,1763,1079,0,0
546,-55,0,0,0,0,0,0,0,0,0,-1,1770,1079,0,0
553,-55,0,0,0,0,0,0,0,0,0,-1,1777,1079,0,0
560,-55,0,0,0,0,0,0,0,0,0,-1,1784,1079,0,0
567,-55,0,0,0,0,0,0,0,0,0,-1,1791,1079,0,0
574,-55,0,0,0,0,0,0,0,0,0,-1,1798,1079,0,0
581,-55,0,0,0,0,0,0,0,0,0,-1,1805,1079,0,0
588,-55,0,0,0,0,0,0,0,0,0,-1,1812,1079,0,0
595,-55,0,0,0,0,0,0,0,0,0,-1,1819,1079,0,0
602,-55,0,0,0,0,0,0,0,0,0,-1,1826,1079,0,0
609,-55,0,0,0,0,0,0,0,0,0,-1,1833,1079,0,0
616,-55,0,0,0,0,0,0,0,0,0,-1,1840,1079,0,0
623,-55,0,0,0,0,0,0,0,0,0,-1,1847,1079,0,0
630,-55,0,0,0,0,0,0,0,0,0,-1,1854,1079,0,0
637,-55,0,0,0,0,0,0,0,0,0,-1,1861,1079,0,0
644,-55,0,0,0,0,0,0,0,0,0,-1,1868,1079,0,0
651,-55,15.2689,2.14551,-0.00408943,0.000107136,0.000613742,0.000195053,-0.00417734,1.42852,0.00285214,0.033773,1875,1079,15.269,-2.14554
658,-55,15.2,2.29248,-0.0023402,0.000345909,0.000629358,0.000486056,-0.00248035,1.35169,0.00183714,0.0351543,1882,1079,15.2,-2.29242
665,-55,15.1388,2.60132,-0.00108476,0.000481793,0.000447869,0.000600796,-0.00120376,1.31109,0.00106107,0.0422885,1889,1079,15.1388,-2.60136
672,-55,15.1554,2.43286,-0.000415601,0.000490664,0.000791878,0.000949891,-0.000874828,1.04527,0.0010538,0.0414248,1896,1079,15.1553,-2.43286
679,-55,15.2161,2.17151,-0.000596935,0.000273557,0.00167336,0.00156735,-0.00189073,0.91263,0.00199943,0.0380561,1903,1079,15.2161,-2.17146
686,-55,15.1956,2.11646,-0.00113065,-1.07995e-05,0.00260865,0.00209734,-0.00323879,0.891115,0.00310422,0.0403226,1910,1079,15.1955,-2.11649
693,-55,15.1262,2.40002,-0.00173497,-0.000315303,0.00348245,0.00252892,-0.00457919,0.885937,0.00416038,0.0393574,1917,1079,15.1263,-2.40002
700,-55,15.0845,2.4364,-0.00234532,-0.000563953,0.00422873,0.00286688,-0.00577615,0.889194,0.00508341,0.034913,1924,1079,15.0844,-2.43645
707,-55,15.1079,2.29517,-0.0027083,-0.000781613,0.0048059,0.00315655,-0.00664646,0.884312,0.00577808,0.0241682,1931,1079,15.1079,-2.29522
714,-55,15.1412,2.36243,-0.00316697,-0.000885886,0.00510678,0.00320617,-0.00725902,0.895264,0.00619127,0.0253548,1938,1079,15.1412,-2.36237
721,-55,15.0853,2.80371,-0.00360069,-0.00104725,0.00517784,0.00300895,-0.00765689,0.906274,0.00634984,0.0324834,1945,1079,15.0853,-2.80371
728,-55,14.787,3.15417,0,0,0,0,0,0,0,-1,1952,1079,14.787,-3.15417
735,-55,14.7925,3.1499,-0.00375297,-0.000750749,0.00500439,0.00297282,-0.00747654,0.931108,0.00621692,0.0152368,1959,1079,14.7924,-3.14993
742,-55,14.7971,3.13611,-0.00336781,-0.000179124,0.00466579,0.0031572,-0.00670414,0.950033,0.00581491,0.0151517,1966,1079,14.7971,-3.13613
749,-55,14.8124,3.10205,-0.00251463,0.000688509,0.00423022,0.00361019,-0.00543631,0.966361,0.00525835,0.011542,1973,1079,14.8123,-3.10207
756,-55,14.8083,3.08313,-0.00134253,0.00160919,0.0036195,0.00404215,-0.0037755,0.978984,0.0045144,0.0114478,1980,1079,14.8083,-3.08314
763,-55,14.7941,3.08203,0.000203517,0.00272793,0.00267027,0.00441928,-0.00148783,1.00618,0.00354769,0.0156129,1987,1079,14.794,-3.08198
770,-55,14.8057,3.05396,0.0019599,0.0041612,0.00179266,0.00516413,0.000956968,1.06071,0.00317225,0.0153657,1994,1079,14.8057,-3.05394
777,-55,14.7974,3.02612,0.00412731,0.00581373,0.000992293,0.00627269,0.00366835,1.13757,0.00363886,0.0129853,2001,1079,14.7974,-3.02613
784,-55,14.7963,2.979,0.00647979,0.00748642,0.000382762,0.00761543,0.00635078,1.24571,0.00471231,0.0302911,2008,1079,14.7963,-2.97896
791,-55,14.819,2.93774,0.00921344,0.00916944,-0.000495082,0.00968701,0.00869587,-0.763193,0.00615429,0.0442447,2015,1079,14.819,-2.9378
798,-55,14.8822,3.33704,0.0127536,0.0107892,-0.002042,0.0140374,0.00950549,-0.561231,0.00827232,0.0463001,2022,1079,14.8822,-3.3371
805,-55,14.8163,3.47144,0.0171788,0.0121671,-0.00451528,0.0198369,0.00950891,-0.532072,0.0114561,0.0448282,2029,1079,14.8162,-3.47142
812,-55,15.0361,3.21631,0.0224806,0.01303,-0.00830539,0.0273108,0.00819979,-0.526764,0.0161819,0.0456716,2036,1079,15.036,-3.21635
-700,-62,-6.34991,-0.529297,0.00220162,0.0348051,0.0568107,0.0776066,-0.0405999,0.925118,0.0693525,0.0472368,524,1086,-6.34992,0.529347
-693,-62,-6.24432,0.14502,0.0186852,0.0308752,0.0512494,0.0763908,-0.0268304,0.844584,0.0618422,0.0473806,531,1086,-6.24434,-0.14505
-686,-62,-8.28601,1.15125,0.0256955,0.0264813,0.0438655,0.0699557,-0.0177788,0.789876,0.0535563,0.0487534,538,1086,-8.286,-1.15127
-679,-62,-7.20874,1.83752,0,0,0,0,0,0,0,-1,545,1086,-7.20877,-1.83758
-672,-62,-6.6601,2.20117,0,0,0,0,0,0,0,-1,552,1086,-6.6601,-2.20112
-665,-62,-8.21674,1.75989,0.0229444,0.0145253,0.0218462,0.0409829,-0.00351321,0.69022,0.0285651,0.046913,559,1086,-8.21673,-1.75983
-658,-62,-8.65472,1.32495,0.0189721,0.0113251,0.0159295,0.0315306,-0.00123341,0.667613,0.0214434,0.046588,566,1086,-8.65473,-1.3249
-651,-62,-8.97198,0.824463,0.01482,0.00855755,0.0110371,0.0231614,0.000216077,0.647181,0.0153694,0.0374014,573,1086,-8.97196,-0.824407
-644,-62,-9.00354,0.848633,0.0124395,0.00677118,0.00765292,0.0177662,0.00144447,0.60806,0.0113932,0.011689,580,1086,-9.00353,-0.848592
-637,-62,-9.01013,0.891724,0.0091488,0.0041352,0.00358259,0.0110145,0.00226947,0.48013,0.0067156,0.00952954,587,1086,-9.01013,-0.891719
-630,-62,-9.02081,0.943115,0.00555207,0.00219916,-0.000108132,0.00555556,0.00219567,-0.0322055,0.00323089,0.0111939,594,1086,-9.02083,-0.943145
-623,-62,-9.00012,1.00977,0.0012319,0.000967049,-0.0021878,0.00329128,-0.00109233,-0.75517,0.00263489,0.0127367,601,1086,-9.00012,-1.00982
-616,-62,-8.97284,1.02698,-0.00136185,-1.3798e-05,-0.0035469,0.00292255,-0.00429819,-0.879295,0.00419404,0.0116902,608,1086,-8.97282,-1.02698
-609,-62,-8.98273,1.06348,-0.00148612,-0.000362606,-0.0037885,0.00290556,-0.00475428,-0.859002,0.00446514,0.0114881,615,1086,-8.98273,-1.06346
-602,-62,-8.98004,1.12939,-0.00127997,-0.000679742,-0.00395636,0.00298787,-0.00494758,-0.823253,0.00462787,0.0128464,622,1086,-8.98003,-1.12944
-595,-62,-8.95953,1.198,-0.0012147,-0.000972535,-0.00406978,0.00297796,-0.00516519,-0.80027,0.00475765,0.0153436,629,1086,-8.95951,-1.19806
-588,-62,-9.00916,1.00586,-0.00107812,-0.00103005,-0.00388658,0.00283257,-0.00494074,-0.78849,0.0045426,0.0233954,636,1086,-9.00915,-1.00586
-581,-62,-9.09009,0.669067,-0.000733132,-0.000967901,-0.00328274,0.00243432,-0.00413535,-0.767527,0.00383515,0.0321173,643,1086,-9.09009,-0.669106
-574,-62,-9.12671,0.5625,-0.000264827,-0.000871462,-0.00238077,0.00183187,-0.00296816,-0.722038,0.00279707,0.0361289,650,1086,-9.12673,-0.562489
-567,-62,-9.25476,0.51062,0.000398831,-0.00067078,-0.000994957,0.000993608,-0.00126556,-0.538794,0.00130748,0.0397816,657,1086,-9.25475,-0.510627
-560,-62,-9.27747,0.522461,0.00126117,-0.000410974,0.000890872,0.00164684,-0.000796651,0.40856,0.00143894,0.0413984,664,1086,-9.27744,-0.522486
-553,-62,-9.08258,0.576904,0.00223682,-0.000119046,0.0032624,0.00452743,-0.00240966,0.61215,0.00406687,0.0385915,671,1086,-9.08258,-0.576892
-546,-62,-9.03345,0.500122,0.00325354,0.000166583,0.0061186,0.00802034,-0.00460022,0.661846,0.00737513,0.0333685,678,1086,-9.03343,-0.500085
-539,-62,-9.07855,0.563599,0.00417861,0.000384382,0.00917652,0.0116521,-0.00708907,0.683466,0.0109266,0.0377605,685,1086,-9.07858,-0.563594
-532,-62,-9.06104,0.759888,0.00417985,0.000214619,0.0112736,0.0136438,-0.00924936,0.698356,0.0132983,0.0415237,692,1086,-9.06105,-0.759931
-525,-62,0,0,0,0,0,0,0,0,0,-1,699,1086,0,0
-518,-62,0,0,0,0,0,0,0,0,0,-1,706,1086,0,0
-511,-62,0,0,0,0,0,0,0,0,0,-1,713,1086,0,0
-504,-62,0,0,0,0,0,0,0,0,0,-1,720,1086,0,0
-497,-62,0,0,0,0,0,0,0,0,0,-1,727,1086,0,0
-490,-62,0,0,0,0,0,0,0,0,0,-1,734,1086,0,0
-483,-62,0,0,0,0,0,0,0,0,0,-1,741,1086,0,0
-476,-62,0,0,0,0,0,0,0,0,0,-1,748,1086,0,0
-469,-62,0,0,0,0,0,0,0,0,0,-1,755,1086,0,0
-462,-62,0,0,0,0,0,0,0,0,0,-1,762,1086,0,0
-455,-62,0,0,0,0,0,0,0,0,0,-1,769,1086,0,0
-448,-62,0,0,0,0,0,0,0,0,0,-1,776,1086,0,0
-441,-62,0,0,0,0,0,0,0,0,0,-1,783,1086,0,0
-434,-62,0,0,0,0,0,0,0,0,0,-1,790,1086,0,0
-427,-62,0,0,0,0,0,0,0,0,0,-1,797,1086,0,0
-420,-62,0,0,0,0,0,0,0,0,0,-1,804,1086,0,0
-413,-62,0,0,0,0,0,0,0,0,0,-1,811,1086,0,0
-406,-62,0,0,0,0,0,0,0,0,0,-1,818,1086,0,0
-399,-62,0,0,0,0,0,0,0,0,0,-1,825,1086,0,0
-392,-62,0,0,0,0,0,0,0,0,0,-1,832,1086,0,0
-385,-62,0,0,0,0,0,0,0,0,0,-1,839,1086,0,0
-378,-62,0,0,0,0,0,0,0,0,0,-1,846,1086,0,0
-371,-62,0,0,0,0,0,0,0,0,0,-1,853,1086,0,0
-364,-62,0,0,0,0,0,0,0,0,0,-1,860,1086,0,0
-357,-62,0,0,0,0,0,0,0,0,0,-1,867,1086,0,0
-350,-62,0,0,0,0,0,0,0,0,0,-1,874,1086,0,0
-343,-62,0,0,0,0,0,0,0,0,0,-1,881,1086,0,0
-336,-62,0,0,0,0,0,0,0,0,0,-1,888,1086,0,0
-329,-62,0,0,0,0,0,0,0,0,0,-1,895,1086,0,0
-322,-62,0,0,0,0,0,0,0,0,0,-1,902,1086,0,0
-315,-62,0,0,0,0,0,0,0,0,0,-1,909,1086,0,0
-308,-62,0,0,0,0,0,0,0,0,0,-1,916,1086,0,0
-301,-62,0,0,0,0,0,0,0,0,0,-1,923,1086,0,0
-294,-62,0,0,0,0,0,0,0,0,0,-1,930,1086,0,0
-287,-62,0,0,0,0,0,0,0,0,0,-1,937,1086,0,0
-280,-62,0,0,0,0,0,0,0,0,0,-1,944,1086,0,0
-273,-62,0,0,0,0,0,0,0,0,0,-1,951,1086,0,0
-266,-62,0,0,0,0,0,0,0,0,0,-1,958,1086,0,0
-259,-62,0,0,0,0,0,0,0,0,0,-1,965,1086,0,0
-252,-62,0,0,0,0,0,0,0,0,0,-1,972,1086,0,0
-245,-62,0,0,0,0,0,0,0,0,0,-1,979,1086,0,0
-238,-62,0,0,0,0,0,0,0,0,0,-1,986,1086,0,0
-231,-62,0,0,0,0,0,0,0,0,0,-1,993,1086,0,0
-224,-62,0,0,0,0,0,0,0,0,0,-1,1000,1086,0,0
-217,-62,0,0,0,0,0,0,0,0,0,-1,1007,1086,0,0
-210,-62,0,0,0,0,0,0,0,0,0,-1,1014,1086,0,0
-203,-62,0,0,0,0,0,0,0,0,0,-1,1021,1086,0,0
-196,-62,0,0,0,0,0,0,0,0,0,-1,1028,1086,0,0
-189,-62,0,0,0,0,0,0,0,0,0,-1,1035,1086,0,0
-182,-62,0,0,0,0,0,0,0,0,0,-1,1042,1086,0,0
-175,-62,0,0,0,0,0,0,0,0,0,-1,1049,1086,0,0
-168,-62,0,0,0,0,0,0,0,0,0,-1,1056,1086,0,0
-161,-62,0,0,0,0,0,0,0,0,0,-1,1063,1086,0,0
-154,-62,0,0,0,0,0,0,0,0,0,-1,1070,1086,0,0
-147,-62,0,0,0,0,0,0,0,0,0,-1,1077,1086,0,0
-140,-62,0,0,0,0,0,0,0,0,0,-1,1084,1086,0,0
-133,-62,0,0,0,0,0,0,0,0,0,-1,1091,1086,0,0
-126,-62,0,0,0,0,0,0,0,0,0,-1,1098,1086,0,0
-119,-62,0,0,0,0,0,0,0,0,0,-1,1105,1086,0,0
-112,-62,0,0,0,0,0,0,0,0,0,-1,1112,1086,0,0
-105,-62,0,0,0,0,0,0,0,0,0,-1,1119,1086,0,0
-98,-62,0,0,0,0,0,0,0,0,0,-1,1126,1086,0,0
-91,-62,0,0,0,0,0,0,0,0,0,-1,1133,1086,0,0
-84,-62,0,0,0,0,0,0,0,0,0,-1,1140,1086,0,0
-77,-62,0,0,0,0,0,0,0,0,0,-1,1147,1086,0,0
-70,-62,0,0,0,0,0,0,0,0,0,-1,1154,1086,0,0
-63,-62,0,0,0,0,0,0,0,0,0,-1,1161,1086,0,0
-56,-62,0,0,0,0,0,0,0,0,0,-1,1168,1086,0,0
-49,-62,0,0,0,0,0,0,0,0,0,-1,1175,1086,0,0
-42,-62,0,0,0,0,0,0,0,0,0,-1,1182,1086,0,0
-35,-62,0,0,0,0,0,0,0,0,0,-1,1189,1086,0,0
-28,-62,0,0,0,0,0,0,0,0,0,-1,1196,1086,0,0
-21,-62,0,0,0,0,0,0,0,0,0,-1,1203,1086,0,0
-14,-62,0,0,0,0,0,0,0,0,0,-1,1210,1086,0,0
-7,-62,0,0,0,0,0,0,0,0,0,-1,1217,1086,0,0
0,-62,0,0,0,0,0,0,0,0,0,-1,1224,1086,0,0
7,-62,0,0,0,0,0,0,0,0,0,-1,1231,1086,0,0
14,-62,0,0,0,0,0,0,0,0,0,-1,1238,1086,0,0
21,-62,0,0,0,0,0,0,0,0,0,-1,1245,1086,0,0
28,-62,0,0,0,0,0,0,0,0,0,-1,1252,1086,0,0
35,-62,0,0,0,0,0,0,0,0,0,-1,1259,1086,0,0
42,-62,0,0,0,0,0,0,0,0,0,-1,1266,1086,0,0
49,-62,0,0,0,0,0,0,0,0,0,-1,1273,1086,0,0
56,-62,0,0,0,0,0,0,0,0,0,-1,1280,1086,0,0
63,-62,0,0,0,0,0,0,0,0,0,-1,1287,1086,0,0
70,-62,0,0,0,0,0,0,0,0,0,-1,1294,1086,0,0
77,-62,0,0,0,0,0,0,0,0,0,-1,1301,1086,0,0
84,-62,0,0,0,0,0,0,0,0,0,-1,1308,1086,0,0
91,-62,0,0,0,0,0,0,0,0,0,-1,1315,1086,0,0
98,-62,0,0,0,0,0,0,0,0,0,-1,1322,1086,0,0
105,-62,0,0,0,0,0,0,0,0,0,-1,1329,1086,0,0
112,-62,0,0,0,0,0,0,0,0,0,-1,1336,1086,0,0
119,-62,0,0,0,0,0,0,0,0,0,-1,1343,1086,0,0
126,-62,0,0,0,0,0,0,0,0,0,-1,1350,1086,0,0
133,-62,0,0,0,0,0,0,0,0,0,-1,1357,1086,0,0
140,-62,0,0,0,0,0,0,0,0,0,-1,1364,1086,0,0
147,-62,0,0,0,0,0,0,0,0,0,-1,1371,1086,0,0
154,-62,0,0,0,0,0,0,0,0,0,-1,1378,1086,0,0
161,-62,0,0,0,0,0,0,0,0,0,-1,1385,1086,0,0
168,-62,0,0,0,0,0,0,0,0,0,-1,1392,1086,0,0
175,-62,0,0,0,0,0,0,0,0,0,-1,1399,1086,0,0
182,-62,0,0,0,0,0,0,0,0,0,-1,1406,1086,0,0
189,-62,0,0,0,0,0,0,0,0,0,-1,1413,1086,0,0
196,-62,0,0,0,0,0,0,0,0,0,-1,1420,1086,0,0
203,-62,0,0,0,0,0,0,0,0,0,-1,1427,1086,0,0
210,-62,0,0,0,0,0,0,0,0,0,-1,1434,1086,0,0
217,-62,0,0,0,0,0,0,0,0,0,-1,1441,1086,0,0
224,-62,0,0,0,0,0,0,0,0,0,-1,1448,1086,0,0
231,-62,0,0,0,0,0,0,0,0,0,-1,1455,1086,0,0
238,-62,0,0,0,0,0,0,0,0,0,-1,1462,1086,0,0
245,-62,0,0,0,0,0,0,0,0,0,-1,1469,1086,0,0
252,-62,0,0,0,0,0,0,0,0,0,-1,1476,1086,0,0
259,-62,0,0,0,0,0,0,0,0,0,-1,1483,1086,0,0
266,-62,0,0,0,0,0,0,0,0,0,-1,1490,1086,0,0
273,-62,0,0,0,0,0,0,0,0,0,-1,1497,1086,0,0
280,-62,0,0,0,0,0,0,0,0,0,-1,1504,1086,0,0
287,-62,0,0,0,0,0,0,0,0,0,-1,1511,1086,0,0
294,-62,0,0,0,0,0,0,0,0,0,-1,1518,1086,0,0
301,-62,0,0,0,0,0,0,0,0,0,-1,1525,1086,0,0
308,-62,0,0,0,0,0,0,0,0,0,-1,1532,1086,0,0
315,-62,0,0,0,0,0,0,0,0,0,-1,1539,1086,0,0
322,-62,0,0,0,0,0,0,0,0,0,-1,1546,1086,0,0
329,-62,0,0,0,0,0,0,0,0,0,-1,1553,1086,0,0
336,-62,0,0,0,0,0,0,0,0,0,-1,1560,1086,0,0
343,-62,0,0,0,0,0,0,0,0,0,-1,1567,1086,0,0
350,-62,0,0,0,0,0,0,0,0,0,-1,1574,1086,0,0
357,-62,0,0,0,0,0,0,0,0,0,-1,1581,1086,0,0
364,-62,0,0,0,0,0,0,0,0,0,-1,1588,1086,0,0
371,-62,0,0,0,0,0,0,0,0,0,-1,1595,1086,0,0
378,-62,0,0,0,0,0,0,0,0,0,-1,1602,1086,0,0
385,-62,0,0,0,0,0,0,0,0,0,-1,1609,1086,0,0
392,-62,0,0,0,0,0,0,0,0,0,-1,1616,1086,0,0
399,-62,0,0,0,0,0,0,0,0,0,-1,1623,1086,0,0
406,-62,0,0,0,0,0,0,0,0,0,-1,1630,1086,0,0
413,-62,0,0,0,0,0,0,0,0,0,-1,1637,1086,0,0
420,-62,0,0,0,0,0,0,0,0,0,-1,1644,1086,0,0
427,-62,0,0,0,0,0,0,0,0,0,-1,1651,1086,0,0
434,-62,0,0,0,0,0,0,0,0,0,-1,1658,1086,0,0
441,-62,0,0,0,0,0,0,0,0,0,-1,1665,1086,0,0
448,-62,0,0,0,0,0,0,0,0,0,-1,1672,1086,0,0
455,-62,0,0,0,0,0,0,0,0,0,-1,1679,1086,0,0
462,-62,0,0,0,0,0,0,0,0,0,-1,1686,1086,0,0
469,-62,0,0,0,0,0,0,0,0,0,-1,1693,1086,0,0
476,-62,0,0,0,0,0,0,0,0,0,-1,1700,1086,0,0
483,-62,0,0,0,0,0,0,0,0,0,-1,1707,1086,0,0
490,-62,0,0,0,0,0,0,0,0,0,-1,1714,1086,0,0
497,-62,0,0,0,0,0,0,0,0,0,-1,1721,1086,0,0
504,-62,0,0,0,0,0,0,0,0,0,-1,1728,1086,0,0
511,-62,0,0,0,0,0,0,0,0,0,-1,1735,1086,0,0
518,-62,0,0,0,0,0,0,0,0,0,-1,1742,1086,0,0
525,-62,0,0,0,0,0,0,0,0,0,-1,1749,1086,0,0
532,-62,0,0,0,0,0,0,0,0,0,-1,1756,1086,0,0
539,-62,0,0,0,0,0,0,0,0,0,-1,1763,1086,0,0
546,-62,0,0,0,0,0,0,0,0,0,-1,1770,1086,0,0
553,-62,0,0,0,0,0,0,0,0,0,-1,1777,1086,0,0
560,-62,0,0,0,0,0,0,0,0,0,-1,1784,1086,0,0
567,-62,0,0,0,0,0,0,0,0,0,-1,1791,1086,0,0
574,-62,0,0,0,0,0,0,0,0,0,-1,1798,1086,0,0
581,-62,0,0,0,0,0,0,0,0,0,-1,1805,1086,0,0
588,-62,0,0,0,0,0,0,0,0,0,-1,1812,1086,0,0
595,-62,0,0,0,0,0,0,0,0,0,-1,1819,1086,0,0
602,-62,0,0,0,0,0,0,0,0,0,-1,1826,1086,0,0
609,-62,0,0,0,0,0,0,0,0,0,-1,1833,1086,0,0
616,-62,0,0,0,0,0,0,0,0,0,-1,1840,1086,0,0
623,-62,0,0,0,0,0,0,0,0,0,-1,1847,1086,0,0
630,-62,0,0,0,0,0,0,0,0,0,-1,1854,1086,0,0
637,-62,0,0,0,0,0,0,0,0,0,-1,1861,1086,0,0
644,-62,0,0,0,0,0,0,0,0,0,-1,1868,1086,0,0
651,-62,15.2916,2.1405,-0.00345362,-0.000958521,0.000972778,-0.000624086,-0.00378805,1.23966,0.00234519,0.038607,1875,1086,15.2916,-2.14054
658,-62,15.2557,2.42725,-0.00189075,-0.000480345,0.000802518,-0.000117209,-0.00225388,1.14587,0.00146508,0.0395591,1882,1086,15.2557,-2.42729
665,-62,15.1204,2.66467,-0.000725737,-0.00013737,0.000514368,0.000160998,-0.00102411,1.04516,0.000742246,0.0408757,1889,1086,15.1203,-2.66462
672,-62,15.0713,2.45361,-0.00020341,7.26744e-06,0.000852208,0.000760622,-0.000956765,0.84689,0.000993687,0.039705,1896,1086,15.0713,-2.45366
679,-62,15.0265,2.20862,-0.000508667,-0.000108018,0.00172298,0.00142625,-0.00204293,0.843271,0.00201345,0.0388358,1903,1086,15.0265,-2.20862
686,-62,15.075,2.1842,-0.00112164,-0.000312283,0.00263947,0.00195336,-0.00338727,0.861464,0.00312024,0.0403363,1910,1086,15.0749,-2.18426
693,-62,15.1266,2.45081,-0.00178497,-0.000555463,0.00349666,0.00238008,-0.00472051,0.872414,0.0041731,0.0383627,1917,1086,15.1265,-2.45083
700,-62,15.1489,2.427,-0.00244373,-0.000739105,0.00421384,0.00270776,-0.0058906,0.885185,0.00507637,0.0327793,1924,1086,15.1489,-2.42703
707,-62,15.103,2.32935,-0.00282464,-0.000906603,0.0047528,0.00298297,-0.00671421,0.884951,0.00573516,0.021264,1931,1086,15.1031,-2.32936
714,-62,15.1511,2.31592,-0.0032686,-0.000976521,0.00504121,0.00304728,-0.00729239,0.897166,0.00613503,0.0205921,1938,1086,15.1512,-2.31586
721,-62,15.1793,2.76636,-0.00368372,-0.00111766,0.00513173,0.002889,-0.00769038,0.907897,0.00631421,0.0297719,1945,1086,15.1794,-2.76633
728,-62,14.7926,3.15771,-0.00387806,-0.001064,0.00511546,0.00283441,-0.00777646,0.919607,0.00634381,0.0245041,1952,1086,14.7926,-3.1577
735,-62,14.7896,3.1543,-0.00381966,-0.000802491,0.00492821,0.00284287,-0.00746502,0.933925,0.00614746,0.0157757,1959,1086,14.7896,-3.15429
742,-62,14.7795,3.15137,-0.00345991,-0.000158377,0.00463418,0.00311027,-0.00672856,0.956499,0.00580708,0.0131122,1966,1086,14.7796,-3.15135
749,-62,14.7726,3.1084,-0.00258548,0.000734968,0.00423729,0.00362567,-0.00547618,0.972112,0.00529104,0.0115355,1973,1086,14.7725,-3.10844
756,-62,14.7603,3.09058,-0.00142301,0.0015951,0.0037512,0.0041294,-0.00395731,0.976636,0.00466922,0.0128133,1980,1086,14.7602,-3.09063
763,-62,14.7626,3.06787,0.000113373,0.00262375,0.00299629,0.00461714,-0.00188002,0.98375,0.0038605,0.0141107,1987,1086,14.7626,-3.06792
770,-62,14.777,3.0343,0.00184429,0.00396087,0.00236189,0.00549072,0.000314438,0.996021,0.0035603,0.0108713,1994,1086,14.777,-3.03431
777,-62,14.7577,2.98254,0.00391872,0.00541923,0.0019272,0.00673706,0.00260089,0.971022,0.00392317,0.0128163,2001,1086,14.7577,-2.98254
784,-62,14.7494,2.94275,0.0061533,0.00677539,0.00177026,0.00826172,0.00466697,0.872364,0.00478328,0.0281622,2008,1086,14.7494,-2.94273
791,-62,14.8401,2.92542,0.00878977,0.00800433,0.00142388,0.0098741,0.00692001,0.650838,0.00585208,0.0435113,2015,1086,14.8401,-2.92542
798,-62,14.996,3.16699,0.012237,0.00898635,0.000517915,0.0123175,0.00890582,0.154241,0.00734355,0.0438998,2022,1086,14.996,-3.16698
805,-62,15.3911,3.69067,0.0165736,0.00949841,-0.00120266,0.0167725,0.00929957,-0.163853,0.00970271,0.0429699,2029,1086,15.3911,-3.69063
812,-62,15.7952,3.84399,0.0218336,0.00921338,-0.00414967,0.0230758,0.00797118,-0.290858,0.0135333,0.0451801,2036,1086,15.7953,-3.84397
-700,-69,-6.05591,-0.595703,0.0205712,0.0490663,0.0690706,0.105343,-0.035706,0.887109,0.0846786,0.0477849,524,1093,-6.05593,0.595745
-693,-69,-9.91541,0.109497,0.0359517,0.0411476,0.0604682,0.0990737,-0.0219744,0.806867,0.0744627,0.0483734,531,1093,-9.91543,-0.109462
-686,-69,-8.77869,0.584717,0.0407803,0.0339289,0.050858,0.0883279,-0.0136187,0.75177,0.0639103,0.0479356,538,1093,-8.77866,-0.584677
-679,-69,-7.91736,1.28198,0.0400266,0.0275332,0.0414107,0.0756591,-0.00809928,0.710539,0.0533445,0.0496726,545,1093,-7.91736,-1.28195
-672,-69,-6.97083,1.62561,0.0362387,0.0219638,0.0326453,0.0625177,-0.00431524,0.677774,0.0431888,0.0470224,552,1093,-6.97083,-1.62556
-665,-69,-5.26093,2.1958,0,0,0,0,0,0,0,-1,559,1093,-5.26095,-2.19574
-658,-69,-8.41986,1.73914,0,0,0,0,0,0,0,-1,566,1093,-8.41983,-1.73909
-651,-69,-8.92798,0.890869,0.0191235,0.00969275,0.0126111,0.0278719,0.000944275,0.606493,0.0182747,0.030661,573,1093,-8.928,-0.890865
-644,-69,-8.9668,0.84375,0.015495,0.0073984,0.00873845,0.0210773,0.00181605,0.568479,0.013487,0.00952949,580,1093,-8.96677,-0.843786
-637,-69,-8.96661,0.900391,0.0111078,0.00436529,0.00427818,0.0131834,0.00228969,0.451705,0.00813384,0.0118363,587,1093,-8.96659,-0.900383
-630,-69,-8.96796,0.926147,0.00667094,0.00220162,0.000331891,0.00669545,0.00217711,0.0737209,0.00394361,0.0132351,594,1093,-8.96795,-0.926194
-623,-69,-8.94794,1.00342,0.00149324,0.000901809,-0.00195879,0.00317851,-0.000783457,-0.710479,0.00242276,0.0120528,601,1093,-8.94795,-1.00344
-616,-69,-8.92694,1.052,-0.00166049,-0.000188856,-0.00356212,0.00271265,-0.004562,-0.887249,0.00424502,0.0114875,608,1093,-8.92695,-1.05202
-609,-69,-8.93793,1.06531,-0.00183621,-0.000415849,-0.00394337,0.00288077,-0.00513284,-0.874491,0.00468716,0.0114843,615,1093,-8.93791,-1.06537
-602,-69,-8.93176,1.14441,-0.00162743,-0.000693748,-0.0042261,0.00309122,-0.0054124,-0.840408,0.00497016,0.0150633,622,1093,-8.93179,-1.1444
-595,-69,-8.91119,1.19336,-0.00160148,-0.000937108,-0.00443885,0.00318197,-0.00572055,-0.822747,0.00520906,0.01731,629,1093,-8.91119,-1.19341
-588,-69,-8.97937,1.05774,-0.00149937,-0.000958576,-0.00434389,0.00312333,-0.00558127,-0.816482,0.00509195,0.0211525,636,1093,-8.97934,-1.05769
-581,-69,-9.10541,0.745117,-0.00116767,-0.000814172,-0.00378204,0.00279524,-0.00477709,-0.808748,0.00442151,0.0279607,643,1093,-9.10541,-0.745078
-574,-69,-9.17981,0.510864,-0.00072993,-0.000642398,-0.00289295,0.00220711,-0.00357944,-0.792962,0.00337204,0.0320773,650,1093,-9.17981,-0.510803
-567,-69,-9.24237,0.465698,-7.07105e-05,-0.00034491,-0.00150214,0.00130057,-0.00171619,-0.739889,0.00174723,0.0391699,657,1093,-9.24239,-0.465684
-560,-69,-9.17084,0.518555,0.000798624,1.73307e-05,0.000434361,0.000992164,-0.000176209,0.419168,0.000727329,0.0408249,664,1093,-9.17085,-0.518499
-553,-69,-9.07227,0.647461,0.00179288,0.000401637,0.00290963,0.00408889,-0.00189437,0.668063,0.00353104,0.0373725,671,1093,-9.07227,-0.647475
-546,-69,-9.05322,0.666138,0.00284417,0.000750616,0.00592954,0.00781863,-0.00422384,0.69803,0.00705522,0.034426,678,1093,-9.05325,-0.666179
-539,-69,-9.06946,0.721191,0.00382846,0.000976333,0.00926128,0.0117728,-0.00696804,0.709008,0.0109379,0.0376774,685,1093,-9.06944,-0.721227
-532,-69,-9.00439,1.02771,0.00384053,0.000691749,0.0117153,0.0140867,-0.00955445,0.718604,0.0137326,0.0412887,692,1093,-9.00439,-1.02767
-525,-69,0,0,0,0,0,0,0,0,0,-1,699,1093,0,0
-518,-69,0,0,0,0,0,0,0,0,0,-1,706,1093,0,0
-511,-69,0,0,0,0,0,0,0,0,0,-1,713,1093,0,0
-504,-69,0,0,0,0,0,0,0,0,0,-1,720,1093,0,0
-497,-69,0,0,0,0,0,0,0,0,0,-1,727,1093,0,0
-490,-69,0,0,0,0,0,0,0,0,0,-1,734,1093,0,0
-483,-69,0,0,0,0,0,0,0,0,0,-1,741,1093,0,0
-476,-69,0,0,0,0,0,0,0,0,0,-1,748,1093,0,0
-469,-69,0,0,0,0,0,0,0,0,0,-1,755,1093,0,0
-462,-69,0,0,0,0,0,0,0,0,0,-1,762,1093,0,0
-455,-69,0,0,0,0,0,0,0,0,0,-1,769,1093,0,0
-448,-69,0,0,0,0,0,0,0,0,0,-1,776,1093,0,0
-441,-69,0,0,0,0,0,0,0,0,0,-1,783,1093,0,0
-434,-69,0,0,0,0,0,0,0,0,0,-1,790,1093,0,0
-427,-69,0,0,0,0,0,0,0,0,0,-1,797,1093,0,0
-420,-69,0,0,0,0,0,0,0,0,0,-1,804,1093,0,0
-413,-69,0,0,0,0,0,0,0,0,0,-1,811,1093,0,0
-406,-69,0,0,0,0,0,0,0,0,0,-1,818,1093,0,0
-399,-69,0,0,0,0,0,0,0,0,0,-1,825,1093,0,0
-392,-69,0,0,0,0,0,0,0,0,0,-1,832,1093,0,0
-385,-69,0,0,0,0,0,0,0,0,0,-1,839,1093,0,0
-378,-69,0,0,0,0,0,0,0,0,0,-1,846,1093,0,0
-371,-69,0,0,0,0,0,0,0,0,0,-1,853,1093,0,0
-364,-69,0,0,0,0,0,0,0,0,0,-1,860,1093,0,0
-357,-69,0,0,0,0,0,0,0,0,0,-1,867,1093,0,0
-350,-69,0,0,0,0,0,0,0,0,0,-1,874,1093,0,0
-343,-69,0,0,0,0,0,0,0,0,0,-1,881,1093,0,0
-336,-69,0,0,0,0,0,0,0,0,0,-1,888,1093,0,0
-329,-69,0,0,0,0,0,0,0,0,0,-1,895,1093,0,0
-322,-69,0,0,0,0,0,0,0,0,0,-1,902,1093,0,0
-315,-69,0,0,0,0,0,0,0,0,0,-1,909,1093,0,0
-308,-69,0,0,0,0,0,0,0,0,0,-1,916,1093,0,0
-301,-69,0,0,0,0,0,0,0,0,0,-1,923,1093,0,0
-294,-69,0,0,0,0,0,0,0,0,0,-1,930,1093,0,0
-287,-69,0,0,0,0,0,0,0,0,0,-1,937,1093,0,0
-280,-69,0,0,0,0,0,0,0,0,0,-1,944,1093,0,0
-273,-69,0,0,0,0,0,0,0,0,0,-1,951,1093,0,0
-266,-69,0,0,0,0,0,0,0,0,0,-1,958,1093,0,0
-259,-69,0,0,0,0,0,0,0,0,0,-1,965,1093,0,0
-252,-69,0,0,0,0,0,0,0,0,0,-1,972,1093,0,0
-245,-69,0,0,0,0,0,0,0,0,0,-1,979,1093,0,0
-238,-69,0,0,0,0,0,0,0,0,0,-1,986,1093,0,0
-231,-69,0,0,0,0,0,0,0,0,0,-1,993,1093,0,0
-224,-69,0,0,0,0,0,0,0,0,0,-1,1000,1093,0,0
-217,-69,0,0,0,0,0,0,0,0,0,-1,1007,1093,0,0
-210,-69,0,0,0,0,0,0,0,0,0,-1,1014,1093,0,0
-203,-69,0,0,0,0,0,0,0,0,0,-1,1021,1093,0,0
-196,-69,0,0,0,0,0,0,0,0,0,-1,1028,1093,0,0
-189,-69,0,0,0,0,0,0,0,0,0,-1,1035,1093,0,0
-182,-69,0,0,0,0,0,0,0,0,0,-1,1042,1093,0,0
-175,-69,0,0,0,0,0,0,0,0,0,-1,1049,1093,0,0
-168,-69,0,0,0,0,0,0,0,0,0,-1,1056,1093,0,0
-161,-69,0,0,0,0,0,0,0,0,0,-1,1063,1093,0,0
-154,-69,0,0,0,0,0,0,0,0,0,-1,1070,1093,0,0
-147,-69,0,0,0,0,0,0,0,0,0,-1,1077,1093,0,0
-140,-69,0,0,0,0,0,0,0,0,0,-1,1084,1093,0,0
-133,-69,0,0,0,0,0,0,0,0,0,-1,1091,1093,0,0
-126,-69,0,0,0,0,0,0,0,0,0,-1,1098,1093,0,0
-119,-69,0,0,0,0,0,0,0,0,0,-1,1105,1093,0,0
-112,-69,0,0,0,0,0,0,0,0,0,-1,1112,1093,0,0
-105,-69,0,0,0,0,0,0,0,0,0,-1,1119,1093,0,0
-98,-69,0,0,0,0,0,0,0,0,0,-1,1126,1093,0,0
-91,-69,0,0,0,0,0,0,0,0,0,-1,1133,1093,0,0
-84,-69,0,0,0,0,0,0,0,0,0,-1,1140,1093,0,0
-77,-69,0,0,0,0,0,0,0,0,0,-1,1147,1093,0,0
-70,-69,0,0,0,0,0,0,0,0,0,-1,1154,1093,0,0
-63,-69,0,0,0,0,0,0,0,0,0,-1,1161,1093,0,0
-56,-69,0,0,0,0,0,0,0,0,0,-1,1168,1093,0,0
-49,-69,0,0,0,0,0,0,0,0,0,-1,1175,1093,0,0
-42,-69,0,0,0,0,0,0,0,0,0,-1,1182,1093,0,0
-35,-69,0,0,0,0,0,0,0,0,0,-1,1189,1093,0,0
-28,-69,0,0,0,0,0,0,0,0,0,-1,1196,1093,0,0
-21,-69,0,0,0,0,0,0,0,0,0,-1,1203,1093,0,0
-14,-69,0,0,0,0,0,0,0,0,0,-1,1210,1093,0,0
-7,-69,0,0,0,0,0,0,0,0,0,-1,1217,1093,0,0
0,-69,0,0,0,0,0,0,0,0,0,-1,1224,1093,0,0
7,-69,0,0,0,0,0,0,0,0,0,-1,1231,1093,0,0
14,-69,0,0,0,0,0,0,0,0,0,-1,1238,1093,0,0
21,-69,0,0,0,0,0,0,0,0,0,-1,1245,1093,0,0
28,-69,0,0,0,0,0,0,0,0,0,-1,1252,1093,0,0
35,-69,0,0,0,0,0,0,0,0,0,-1,1259,1093,0,0
42,-69,0,0,0,0,0,0,0,0,0,-1,1266,1093,0,0
49,-69,0,0,0,0,0,0,0,0,0,-1,1273,1093,0,0
56,-69,0,0,0,0,0,0,0,0,0,-1,1280,1093,0,0
63,-69,0,0,0,0,0,0,0,0,0,-1,1287,1093,0,0
70,-69,0,0,0,0,0,0,0,0,0,-1,1294,1093,0,0
77,-69,0,0,0,0,0,0,0,0,0,-1,1301,1093,0,0
84,-69,0,0,0,0,0,0,0,0,0,-1,1308,1093,0,0
91,-69,0,0,0,0,0,0,0,0,0,-1,1315,1093,0,0
98,-69,0,0,0,0,0,0,0,0,0,-1,1322,1093,0,0
105,-69,0,0,0,0,0,0,0,0,0,-1,1329,1093,0,0
112,-69,0,0,0,0,0,0,0,0,0,-1,1336,1093,0,0
119,-69,0,0,0,0,0,0,0,0,0,-1,1343,1093,0,0
126,-69,0,0,0,0,0,0,0,0,0,-1,1350,1093,0,0
133,-69,0,0,0,0,0,0,0,0,0,-1,1357,1093,0,0
140,-69,0,0,0,0,0,0,0,0,0,-1,1364,1093,0,0
147,-69,0,0,0,0,0,0,0,0,0,-1,1371,1093,0,0
154,-69,0,0,0,0,0,0,0,0,0,-1,1378,1093,0,0
161,-69,0,0,0,0,0,0,0,0,0,-1,1385,1093,0,0
168,-69,0,0,0,0,0,0,0,0,0,-1,1392,1093,0,0
175,-69,0,0,0,0,0,0,0,0,0,-1,1399,1093,0,0
182,-69,0,0,0,0,0,0,0,0,0,-1,1406,1093,0,0
189,-69,0,0,0,0,0,0,0,0,0,-1,1413,1093,0,0
196,-69,0,0,0,0,0,0,0,0,0,-1,1420,1093,0,0
203,-69,0,0,0,0,0,0,0,0,0,-1,1427,1093,0,0
210,-69,0,0,0,0,0,0,0,0,0,-1,1434,1093,0,0
217,-69,0,0,0,0,0,0,0,0,0,-1,1441,1093,0,0
224,-69,0,0,0,0,0,0,0,0,0,-1,1448,1093,0,0
231,-69,0,0,0,0,0,0,0,0,0,-1,1455,1093,0,0
238,-69,0,0,0,0,0,0,0,0,0,-1,1462,1093,0,0
245,-69,0,0,0,0,0,0,0,0,0,-1,1469,1093,0,0
252,-69,0,0,0,0,0,0,0,0,0,-1,1476,1093,0,0
259,-69,0,0,0,0,0,0,0,0,0,-1,1483,1093,0,0
266,-69,0,0,0,0,0,0,0,0,0,-1,1490,1093,0,0
273,-69,0,0,0,0,0,0,0,0,0,-1,1497,1093,0,0
280,-69,0,0,0,0,0,0,0,0,0,-1,1504,1093,0,0
287,-69,0,0,0,0,0,0,0,0,0,-1,1511,1093,0,0
294,-69,0,0,0,0,0,0,0,0,0,-1,1518,1093,0,0
301,-69,0,0,0,0,0,0,0,0,0,-1,1525,1093,0,0
308,-69,0,0,0,0,0,0,0,0,0,-1,1532,1093,0,0
315,-69,0,0,0,0,0,0,0,0,0,-1,1539,1093,0,0
322,-69,0,0,0,0,0,0,0,0,0,-1,1546,1093,0,0
329,-69,0,0,0,0,0,0,0,0,0,-1,1553,1093,0,0
336,-69,0,0,0,0,0,0,0,0,0,-1,1560,1093,0,0
343,-69,0,0,0,0,0,0,0,0,0,-1,1567,1093,0,0
350,-69,0,0,0,0,0,0,0,0,0,-1,1574,1093,0,0
357,-69,0,0,0,0,0,0,0,0,0,-1,1581,1093,0,0
364,-69,0,0,0,0,0,0,0,0,0,-1,1588,1093,0,0
371,-69,0,0,0,0,0,0,0,0,0,-1,1595,1093,0,0
378,-69,0,0,0,0,0,0,0,0,0,-1,1602,1093,0,0
385,-69,0,0,0,0,0,0,0,0,0,-1,1609,1093,0,0
392,-69,0,0,0,0,0,0,0,0,0,-1,1616,1093,0,0
399,-69,0,0,0,0,0,0,0,0,0,-1,1623,1093,0,0
406,-69,0,0,0,0,0,0,0,0,0,-1,1630,1093,0,0
413,-69,0,0,0,0,0,0,0,0,0,-1,1637,1093,0,0
420,-69,0,0,0,0,0,0,0,0,0,-1,1644,1093,0,0
427,-69,0,0,0,0,0,0,0,0,0,-1,1651,1093,0,0
434,-69,0,0,0,0,0,0,0,0,0,-1,1658,1093,0,0
441,-69,0,0,0,0,0,0,0,0,0,-1,1665,1093,0,0
448,-69,0,0,0,0,0,0,0,0,0,-1,1672,1093,0,0
455,-69,0,0,0,0,0,0,0,0,0,-1,1679,1093,0,0
462,-69,0,0,0,0,0,0,0,0,0,-1,1686,1093,0,0
469,-69,0,0,0,0,0,0,0,0,0,-1,1693,1093,0,0
476,-69,0,0,0,0,0,0,0,0,0,-1,1700,1093,0,0
483,-69,0,0,0,0,0,0,0,0,0,-1,1707,1093,0,0
490,-69,0,0,0,0,0,0,0,0,0,-1,1714,1093,0,0
497,-69,0,0,0,0,0,0,0,0,0,-1,1721,1093,0,0
504,-69,0,0,0,0,0,0,0,0,0,-1,1728,1093,0,0
511,-69,0,0,0,0,0,0,0,0,0,-1,1735,1093,0,0
518,-69,0,0,0,0,0,0,0,0,0,-1,1742,1093,0,0
525,-69,0,0,0,0,0,0,0,0,0,-1,1749,1093,0,0
532,-69,0,0,0,0,0,0,0,0,0,-1,1756,1093,0,0
539,-69,0,0,0,0,0,0,0,0,0,-1,1763,1093,0,0
546,-69,0,0,0,0,0,0,0,0,0,-1,1770,1093,0,0
553,-69,0,0,0,0,0,0,0,0,0,-1,1777,1093,0,0
560,-69,0,0,0,0,0,0,0,0,0,-1,1784,1093,0,0
567,-69,0,0,0,0,0,0,0,0,0,-1,1791,1093,0,0
574,-69,0,0,0,0,0,0,0,0,0,-1,1798,1093,0,0
581,-69,0,0,0,0,0,0,0,0,0,-1,1805,1093,0,0
588,-69,0,0,0,0,0,0,0,0,0,-1,1812,1093,0,0
595,-69,0,0,0,0,0,0,0,0,0,-1,1819,1093,0,0
602,-69,0,0,0,0,0,0,0,0,0,-1,1826,1093,0,0
609,-69,0,0,0,0,0,0,0,0,0,-1,1833,1093,0,0
616,-69,0,0,0,0,0,0,0,0,0,-1,1840,1093,0,0
623,-69,0,0,0,0,0,0,0,0,0,-1,1847,1093,0,0
630,-69,0,0,0,0,0,0,0,0,0,-1,1854,1093,0,0
637,-69,0,0,0,0,0,0,0,0,0,-1,1861,1093,0,0
644,-69,0,0,0,0,0,0,0,0,0,-1,1868,1093,0,0
651,-69,15.0762,2.11218,-0.00258405,-0.00167295,0.00125934,-0.000789292,-0.0034677,0.958944,0.00209877,0.041492,1875,1093,15.0761,-2.11221
658,-69,14.9634,2.16309,-0.00133841,-0.000975366,0.000948364,-0.000191307,-0.00212247,0.879956,0.00135571,0.0426424,1882,1093,14.9634,-2.16307
665,-69,14.9929,2.57422,-0.000351464,-0.000463687,0.000575542,0.000170696,-0.000985846,0.736805,0.000720897,0.0417613,1889,1093,14.993,-2.57418
672,-69,14.9558,2.46948,-5.17759e-05,-0.000270222,0.000924229,0.000769661,-0.00109166,0.726582,0.00107998,0.0385774,1896,1093,14.9558,-2.46943
679,-69,14.9497,2.28662,-0.000517489,-0.000373898,0.00178754,0.00134329,-0.00223467,0.80547,0.002087,0.037498,1903,1093,14.9497,-2.28657
686,-69,15.0703,2.21497,-0.00122303,-0.000581717,0.0026854,0.0018021,-0.00360685,0.84482,0.00318028,0.0375838,1910,1093,15.0703,-2.21499
693,-69,15.1252,2.20129,-0.00194584,-0.000834189,0.00352485,0.00217839,-0.00495842,0.863598,0.00422336,0.0368288,1917,1093,15.1252,-2.20131
700,-69,15.1166,2.27844,-0.0026508,-0.000995688,0.00421425,0.0024715,-0.00611798,0.88235,0.00510592,0.0301787,1924,1093,15.1165,-2.27839
707,-69,15.1045,2.30786,-0.00304672,-0.00114891,0.00472053,0.00271714,-0.00691278,0.884584,0.00573304,0.0195708,1931,1093,15.1044,-2.30791
714,-69,15.1464,2.24561,-0.00346157,-0.00122747,0.00499458,0.00277346,-0.00746249,0.895414,0.00611293,0.0186997,1938,1093,15.1463,-2.24555
721,-69,15.1705,3.10986,0,0,0,0,0,0,0,-1,1945,1093,15.1705,-3.10986
728,-69,14.8694,3.14185,-0.00398657,-0.00130219,0.00505066,0.00258158,-0.00787034,0.91527,0.00628666,0.0230309,1952,1093,14.8694,-3.14191
735,-69,14.7415,3.17944,-0.0039004,-0.00102658,0.00485095,0.0025958,-0.00752278,0.929387,0.00606842,0.0152527,1959,1093,14.7414,-3.17945
742,-69,14.7533,3.14136,-0.00355066,-0.000348014,0.00458591,0.00290811,-0.00680679,0.953372,0.00575749,0.0119693,1966,1093,14.7533,-3.14141
749,-69,14.729,3.1012,-0.00265297,0.000547675,0.00419462,0.00343688,-0.00554218,0.967635,0.00523134,0.0137554,1973,1093,14.729,-3.10125
756,-69,14.7291,3.09399,-0.0014743,0.00136326,0.00375068,0.00395453,-0.00406557,0.966217,0.00463056,0.0140689,1980,1093,14.7291,-3.09396
763,-69,14.7202,3.05859,8.71899e-05,0.00230217,0.00311143,0.00449733,-0.00210797,0.956378,0.00389585,0.0135875,1987,1093,14.7202,-3.05863
770,-69,14.7296,3.01721,0.0018241,0.00352312,0.00261035,0.00541872,-7.14946e-05,0.942713,0.00363655,0.0125431,1994,1093,14.7296,-3.01721
777,-69,14.728,2.9729,0.00383022,0.00475592,0.0023919,0.00672934,0.0018568,0.88097,0.00401312,0.0177494,2001,1093,14.728,-2.97286
784,-69,14.7244,2.93445,0.0059831,0.00578451,0.00249057,0.00837635,0.00339126,0.765474,0.00486519,0.0321621,2008,1093,14.7244,-2.93448
791,-69,14.7999,2.66821,0.00856779,0.0065904,0.00243682,0.0102089,0.00494934,0.59268,0.00589499,0.0443111,2015,1093,14.7999,-2.66818
798,-69,14.9302,2.68994,0.0119706,0.00703233,0.00189278,0.0126126,0.00639032,0.327013,0.00728212,0.046556,2022,1093,14.9301,-2.68995
805,-69,15.3494,3.57959,0.0162737,0.00687432,0.000612406,0.0163134,0.00683459,0.064789,0.00945971,0.0465237,2029,1093,15.3493,-3.57959
812,-69,15.5332,3.97693,0.0215644,0.00577106,-0.00181639,0.0217706,0.00556484,-0.113044,0.0130601,0.0477042,2036,1093,15.5331,-3.97687
-700,-76,0,0,0,0,0,0,0,0,0,-1,524,1100,0,0
-693,-76,-10.0948,-0.0285645,0.057287,0.0516772,0.069254,0.123793,-0.0148287,0.765159,0.0878895,0.0463084,531,1100,-10.0948,0.0285234
-686,-76,-9.56171,0.368774,0.0589306,0.0415204,0.0571704,0.108055,-0.00760376,0.709846,0.0747003,0.0458993,538,1100,-9.5617,-0.368742
-679,-76,-8.76642,0.62146,0.0549964,0.0329734,0.0459214,0.0912081,-0.00323829,0.667725,0.0619131,0.0462978,545,1100,-8.76642,-0.621494
-672,-76,-7.29236,0.999146,0.0482579,0.0257911,0.03582,0.0745646,-0.000515699,0.633452,0.0498825,0.0475122,552,1100,-7.29237,-0.999102
-665,-76,-5.27313,1.48926,0,0,0,0,0,0,0,-1,559,1100,-5.27314,-1.48926
-658,-76,-8.64661,0.932983,0.0320318,0.0147879,0.0195686,0.0447937,0.00202606,0.577893,0.0292105,0.0416097,566,1100,-8.64658,-0.932946
-651,-76,-8.8786,0.842529,0.0242629,0.0107273,0.013554,0.0326448,0.00234536,0.553845,0.0210251,0.0260945,573,1100,-8.87857,-0.842562
-644,-76,-8.87903,0.856934,0.0191043,0.00789374,0.00927186,0.0243335,0.0026645,0.513521,0.0154111,0.0107053,580,1100,-8.87905,-0.856987
-637,-76,-8.9024,0.895874,0.0134802,0.00449922,0.00456805,0.0153953,0.00258411,0.396981,0.00951978,0.0143203,587,1100,-8.90241,-0.89583
-630,-76,-8.91876,0.939941,0.00806052,0.00213654,0.000532873,0.00810807,0.00208899,0.0889998,0.00486105,0.0139232,594,1100,-8.91876,-0.939976
-623,-76,-8.9035,0.99353,0.00199899,0.000802486,-0.00189201,0.00338508,-0.000583602,-0.632272,0.0024743,0.0126912,601,1100,-8.90351,-0.993473
-616,-76,-8.88934,1.04321,-0.00173462,-0.000377282,-0.00362756,0.00263455,-0.00474645,-0.877873,0.00431918,0.01132,608,1100,-8.88934,-1.0432
-609,-76,-8.90955,1.07544,-0.00216599,-0.000528693,-0.00408982,0.00282361,-0.00551829,-0.884176,0.00489924,0.0118345,615,1100,-8.90952,-1.07543
-602,-76,-8.88965,1.16187,-0.00203392,-0.000769587,-0.00446166,0.00310447,-0.00590798,-0.855774,0.00528659,0.0169854,622,1100,-8.88963,-1.1619
-595,-76,-8.86218,1.20935,-0.00208953,-0.00096271,-0.00475105,0.00325822,-0.00631045,-0.844416,0.00561738,0.0213001,629,1100,-8.86216,-1.20934
-588,-76,-8.93048,1.04944,-0.00204036,-0.000943897,-0.00472272,0.00326231,-0.00624656,-0.843181,0.00557934,0.0238858,636,1100,-8.93048,-1.04948
-581,-76,-9.07367,0.653931,-0.00175415,-0.000718882,-0.00420724,0.00300245,-0.00547548,-0.846607,0.00496366,0.0270765,643,1100,-9.0737,-0.653919
-574,-76,-9.20215,0.373169,-0.00139605,-0.000443239,-0.00333403,0.00244825,-0.00428754,-0.856364,0.00393694,0.0340369,650,1100,-9.20214,-0.373164
-567,-76,-9.20282,0.418823,-0.000790671,-8.60389e-06,-0.00195382,0.00159293,-0.0023922,-0.884162,0.00231619,0.041011,657,1100,-9.2028,-0.418818
-560,-76,-9.14978,0.545166,3.53396e-05,0.000533443,5.53226e-06,0.000533504,3.52782e-05,1.55969,0.000344513,0.0418494,664,1100,-9.14975,-0.545194
-553,-76,-9.02667,0.734863,0.00100249,0.00114146,0.00254135,0.00361427,-0.00147032,0.799065,0.00302133,0.0405853,671,1100,-9.02666,-0.734882
-546,-76,-9.06689,0.812256,0.00204975,0.00175953,0.00566156,0.00756806,-0.00375878,0.772586,0.00666168,0.0403727,678,1100,-9.0669,-0.812199
-539,-76,-9.17029,0.854614,0.00308025,0.00229668,0.00917933,0.0118762,-0.00649923,0.764071,0.0107594,0.0415154,685,1100,-9.17029,-0.854566
-532,-76,-8.89258,1.18567,0.00315286,0.00235095,0.011918,0.0146767,-0.00917286,0.768583,0.0138912,0.0437006,692,1100,-8.8926,-1.18573
-525,-76,0,0,0,0,0,0,0,0,0,-1,699,1100,0,0
-518,-76,0,0,0,0,0,0,0,0,0,-1,706,1100,0,0
-511,-76,0,0,0,0,0,0,0,0,0,-1,713,1100,0,0
-504,-76,0,0,0,0,0,0,0,0,0,-1,720,1100,0,0
-497,-76,0,0,0,0,0,0,0,0,0,-1,727,1100,0,0
-490,-76,0,0,0,0,0,0,0,0,0,-1,734,1100,0,0
-483,-76,0,0,0,0,0,0,0,0,0,-1,741,1100,0,0
-476,-76,0,0,0,0,0,0,0,0,0,-1,748,1100,0,0
-469,-76,0,0,0,0,0,0,0,0,0,-1,755,1100,0,0
-462,-76,0,0,0,0,0,0,0,0,0,-1,762,1100,0,0
-455,-76,0,0,0,0,0,0,0,0,0,-1,769,1100,0,0
-448,-76,0,0,0,0,0,0,0,0,0,-1,776,1100,0,0
-441,-76,0,0,0,0,0,0,0,0,0,-1,783,1100,0,0
-434,-76,0,0,0,0,0,0,0,0,0,-1,790,1100,0,0
-427,-76,0,0,0,0,0,0,0,0,0,-1,797,1100,0,0
-420,-76,0,0,0,0,0,0,0,0,0,-1,804,1100,0,0
-413,-76,0,0,0,0,0,0,0,0,0,-1,811,1100,0,0
-406,-76,0,0,0,0,0,0,0,0,0,-1,818,1100,0,0
-399,-76,0,0,0,0,0,0,0,0,0,-1,825,1100,0,0
-392,-76,0,0,0,0,0,0,0,0,0,-1,832,1100,0,0
-385,-76,0,0,0,0,0,0,0,0,0,-1,839,1100,0,0
-378,-76,0,0,0,0,0,0,0,0,0,-1,846,1100,0,0
-371,-76,0,0,0,0,0,0,0,0,0,-1,853,1100,0,0
-364,-76,0,0,0,0,0,0,0,0,0,-1,860,1100,0,0
-357,-76,0,0,0,0,0,0,0,0,0,-1,867,1100,0,0
-350,-76,0,0,0,0,0,0,0,0,0,-1,874,1100,0,0
-343,-76,0,0,0,0,0,0,0,0,0,-1,881,1100,0,0
-336,-76,0,0,0,0,0,0,0,0,0,-1,888,1100,0,0
-329,-76,0,0,0,0,0,0,0,0,0,-1,895,1100,0,0
-322,-76,0,0,0,0,0,0,0,0,0,-1,902,1100,0,0
-315,-76,0,0,0,0,0,0,0,0,0,-1,909,1100,0,0
-308,-76,0,0,0,0,0,0,0,0,0,-1,916,1100,0,0
-301,-76,0,0,0,0,0,0,0,0,0,-1,923,1100,0,0
-294,-76,0,0,0,0,0,0,0,0,0,-1,930,1100,0,0
-287,-76,0,0,0,0,0,0,0,0,0,-1,937,1100,0,0
-280,-76,0,0,0,0,0,0,0,0,0,-1,944,1100,0,0
-273,-76,0,0,0,0,0,0,0,0,0,-1,951,1100,0,0
-266,-76,0,0,0,0,0,0,0,0,0,-1,958,1100,0,0
-259,-76,0,0,0,0,0,0,0,0,0,-1,965,1100,0,0
-252,-76,0,0,0,0,0,0,0,0,0,-1,972,1100,0,0
-245,-76,0,0,0,0,0,0,0,0,0,-1,979,1100,0,0
-238,-76,0,0,0,0,0,0,0,0,0,-1,986,1100,0,0
-231,-76,0,0,0,0,0,0,0,0,0,-1,993,1100,0,0
-224,-76,0,0,0,0,0,0,0,0,0,-1,1000,1100,0,0
-217,-76,0,0,0,0,0,0,0,0,0,-1,1007,1100,0,0
-210,-76,0,0,0,0,0,0,0,0,0,-1,1014,1100,0,0
-203,-76,0,0,0,0,0,0,0,0,0,-1,1021,1100,0,0
-196,-76,0,0,0,0,0,0,0,0,0,-1,1028,1100,0,0
-189,-76,0,0,0,0,0,0,0,0,0,-1,1035,1100,0,0
-182,-76,0,0,0,0,0,0,0,0,0,-1,1042,1100,0,0
-175,-76,0,0,0,0,0,0,0,0,0,-1,1049,1100,0,0
-168,-76,0,0,0,0,0,0,0,0,0,-1,1056,1100,0,0
-161,-76,0,0,0,0,0,0,0,0,0,-1,1063,1100,0,0
-154,-76,0,0,0,0,0,0,0,0,0,-1,1070,1100,0,0
-147,-76,0,0,0,0,0,0,0,0,0,-1,1077,1100,0,0
-140,-76,0,0,0,0,0,0,0,0,0,-1,1084,1100,0,0
-133,-76,0,0,0,0,0,0,0,0,0,-1,1091,1100,0,0
-126,-76,0,0,0,0,0,0,0,0,0,-1,1098,1100,0,0
-119,-76,0,0,0,0,0,0,0,0,0,-1,1105,1100,0,0
-112,-76,0,0,0,0,0,0,0,0,0,-1,1112,1100,0,0
-105,-76,0,0,0,0,0,0,0,0,0,-1,1119,1100,0,0
-98,-76,0,0,0,0,0,0,0,0,0,-1,1126,1100,0,0
-91,-76,0,0,0,0,0,0,0,0,0,-1,1133,1100,0,0
-84,-76,0,0,0,0,0,0,0,0,0,-1,1140,1100,0,0
-77,-76,0,0,0,0,0,0,0,0,0,-1,1147,1100,0,0
-70,-76,0,0,0,0,0,0,0,0,0,-1,1154,1100,0,0
-63,-76,0,0,0,0,0,0,0,0,0,-1,1161,1100,0,0
-56,-76,0,0,0,0,0,0,0,0,0,-1,1168,1100,0,0
-49,-76,0,0,0,0,0,0,0,0,0,-1,1175,1100,0,0
-42,-76,0,0,0,0,0,0,0,0,0,-1,1182,1100,0,0
-35,-76,0,0,0,0,0,0,0,0,0,-1,1189,1100,0,0
-28,-76,0,0,0,0,0,0,0,0,0,-1,1196,1100,0,0
-21,-76,0,0,0,0,0,0,0,0,0,-1,1203,1100,0,0
-14,-76,0,0,0,0,0,0,0,0,0,-1,1210,1100,0,0
-7,-76,0,0,0,0,0,0,0,0,0,-1,1217,1100,0,0
0,-76,0,0,0,0,0,0,0,0,0,-1,1224,1100,0,0
7,-76,0,0,0,0,0,0,0,0,0,-1,1231,1100,0,0
14,-76,0,0,0,0,0,0,0,0,0,-1,1238,1100,0,0
21,-76,0,0,0,0,0,0,0,0,0,-1,1245,1100,0,0
28,-76,0,0,0,0,0,0,0,0,0,-1,1252,1100,0,0
35,-76,0,0,0,0,0,0,0,0,0,-1,1259,1100,0,0
42,-76,0,0,0,0,0,0,0,0,0,-1,1266,1100,0,0
49,-76,0,0,0,0,0,0,0,0,0,-1,1273,1100,0,0
56,-76,0,0,0,0,0,0,0,0,0,-1,1280,1100,0,0
63,-76,0,0,0,0,0,0,0,0,0,-1,1287,1100,0,0
70,-76,0,0,0,0,0,0,0,0,0,-1,1294,1100,0,0
77,-76,0,0,0,0,0,0,0,0,0,-1,1301,1100,0,0
84,-76,0,0,0,0,0,0,0,0,0,-1,1308,1100,0,0
91,-76,0,0,0,0,0,0,0,0,0,-1,1315,1100,0,0
98,-76,0,0,0,0,0,0,0,0,0,-1,1322,1100,0,0
105,-76,0,0,0,0,0,0,0,0,0,-1,1329,1100,0,0
112,-76,0,0,0,0,0,0,0,0,0,-1,1336,1100,0,0
119,-76,0,0,0,0,0,0,0,0,0,-1,1343,1100,0,0
126,-76,0,0,0,0,0,0,0,0,0,-1,1350,1100,0,0
133,-76,0,0,0,0,0,0,0,0,0,-1,1357,1100,0,0
140,-76,0,0,0,0,0,0,0,0,0,-1,1364,1100,0,0
147,-76,0,0,0,0,0,0,0,0,0,-1,1371,1100,0,0
154,-76,0,0,0,0,0,0,0,0,0,-1,1378,1100,0,0
161,-76,0,0,0,0,0,0,0,0,0,-1,1385,1100,0,0
168,-76,0,0,0,0,0,0,0,0,0,-1,1392,1100,0,0
175,-76,0,0,0,0,0,0,0,0,0,-1,1399,1100,0,0
182,-76,0,0,0,0,0,0,0,0,0,-1,1406,1100,0,0
189,-76,0,0,0,0,0,0,0,0,0,-1,1413,1100,0,0
196,-76,0,0,0,0,0,0,0,0,0,-1,1420,1100,0,0
203,-76,0,0,0,0,0,0,0,0,0,-1,1427,1100,0,0
210,-76,0,0,0,0,0,0,0,0,0,-1,1434,1100,0,0
217,-76,0,0,0,0,0,0,0,0,0,-1,1441,1100,0,0
224,-76,0,0,0,0,0,0,0,0,0,-1,1448,1100,0,0
231,-76,0,0,0,0,0,0,0,0,0,-1,1455,1100,0,0
238,-76,0,0,0,0,0,0,0,0,0,-1,1462,1100,0,0
245,-76,0,0,0,0,0,0,0,0,0,-1,1469,1100,0,0
252,-76,0,0,0,0,0,0,0,0,0,-1,1476,1100,0,0
259,-76,0,0,0,0,0,0,0,0,0,-1,1483,1100,0,0
266,-76,0,0,0,0,0,0,0,0,0,-1,1490,1100,0,0
273,-76,0,0,0,0,0,0,0,0,0,-1,1497,1100,0,0
280,-76,0,0,0,0,0,0,0,0,0,-1,1504,1100,0,0
287,-76,0,0,0,0,0,0,0,0,0,-1,1511,1100,0,0
294,-76,0,0,0,0,0,0,0,0,0,-1,1518,1100,0,0
301,-76,0,0,0,0,0,0,0,0,0,-1,1525,1100,0,0
308,-76,0,0,0,0,0,0,0,0,0,-1,1532,1100,0,0
315,-76,0,0,0,0,0,0,0,0,0,-1,1539,1100,0,0
322,-76,0,0,0,0,0,0,0,0,0,-1,1546,1100,0,0
329,-76,0,0,0,0,0,0,0,0,0,-1,1553,1100,0,0
336,-76,0,0,0,0,0,0,0,0,0,-1,1560,1100,0,0
343,-76,0,0,0,0,0,0,0,0,0,-1,1567,1100,0,0
350,-76,0,0,0,0,0,0,0,0,0,-1,1574,1100,0,0
357,-76,0,0,0,0,0,0,0,0,0,-1,1581,1100,0,0
364,-76,0,0,0,0,0,0,0,0,0,-1,1588,1100,0,0
371,-76,0,0,0,0,0,0,0,0,0,-1,1595,1100,0,0
378,-76,0,0,0,0,0,0,0,0,0,-1,1602,1100,0,0
385,-76,0,0,0,0,0,0,0,0,0,-1,1609,1100,0,0
392,-76,0,0,0,0,0,0,0,0,0,-1,1616,1100,0,0
399,-76,0,0,0,0,0,0,0,0,0,-1,1623,1100,0,0
406,-76,0,0,0,0,0,0,0,0,0,-1,1630,1100,0,0
413,-76,0,0,0,0,0,0,0,0,0,-1,1637,1100,0,0
420,-76,0,0,0,0,0,0,0,0,0,-1,1644,1100,0,0
427,-76,0,0,0,0,0,0,0,0,0,-1,1651,1100,0,0
434,-76,0,0,0,0,0,0,0,0,0,-1,1658,1100,0,0
441,-76,0,0,0,0,0,0,0,0,0,-1,1665,1100,0,0
448,-76,0,0,0,0,0,0,0,0,0,-1,1672,1100,0,0
455,-76,0,0,0,0,0,0,0,0,0,-1,1679,1100,0,0
462,-76,0,0,0,0,0,0,0,0,0,-1,1686,1100,0,0
469,-76,0,0,0,0,0,0,0,0,0,-1,1693,1100,0,0
476,-76,0,0,0,0,0,0,0,0,0,-1,1700,1100,0,0
483,-76,0,0,0,0,0,0,0,0,0,-1,1707,1100,0,0
490,-76,0,0,0,0,0,0,0,0,0,-1,1714,1100,0,0
497,-76,0,0,0,0,0,0,0,0,0,-1,1721,1100,0,0
504,-76,0,0,0,0,0,0,0,0,0,-1,1728,1100,0,0
511,-76,0,0,0,0,0,0,0,0,0,-1,1735,1100,0,0
518,-76,0,0,0,0,0,0,0,0,0,-1,1742,1100,0,0
525,-76,0,0,0,0,0,0,0,0,0,-1,1749,1100,0,0
532,-76,0,0,0,0,0,0,0,0,0,-1,1756,1100,0,0
539,-76,0,0,0,0,0,0,0,0,0,-1,1763,1100,0,0
546,-76,0,0,0,0,0,0,0,0,0,-1,1770,1100,0,0
553,-76,0,0,0,0,0,0,0,0,0,-1,1777,1100,0,0
560,-76,0,0,0,0,0,0,0,0,0,-1,1784,1100,0,0
567,-76,0,0,0,0,0,0,0,0,0,-1,1791,1100,0,0
574,-76,0,0,0,0,0,0,0,0,0,-1,1798,1100,0,0
581,-76,0,0,0,0,0,0,0,0,0,-1,1805,1100,0,0
588,-76,0,0,0,0,0,0,0,0,0,-1,1812,1100,0,0
595,-76,0,0,0,0,0,0,0,0,0,-1,1819,1100,0,0
602,-76,0,0,0,0,0,0,0,0,0,-1,1826,1100,0,0
609,-76,0,0,0,0,0,0,0,0,0,-1,1833,1100,0,0
616,-76,0,0,0,0,0,0,0,0,0,-1,1840,1100,0,0
623,-76,0,0,0,0,0,0,0,0,0,-1,1847,1100,0,0
630,-76,0,0,0,0,0,0,0,0,0,-1,1854,1100,0,0
637,-76,0,0,0,0,0,0,0,0,0,-1,1861,1100,0,0
644,-76,0,0,0,0,0,0,0,0,0,-1,1868,1100,0,0
651,-76,14.9215,2.10193,-0.00232506,-0.00216147,0.00135808,-0.000882725,-0.00360381,0.815476,0.00216902,0.0407011,1875,1100,14.9215,-2.1019
658,-76,14.7615,1.92786,-0.00121281,-0.00130795,0.00096569,-0.000293522,-0.00222724,0.760788,0.0013973,0.0428481,1882,1100,14.7615,-1.92785
665,-76,14.8877,2.17419,-0.000279672,-0.000683722,0.000556326,0.000110175,-0.00107357,0.611231,0.000755121,0.0398693,1889,1100,14.8877,-2.17423
672,-76,15.0374,2.28137,-0.00012446,-0.000493613,0.000945353,0.000654167,-0.00127224,0.688988,0.00113113,0.0376275,1896,1100,15.0373,-2.28141
679,-76,15.1414,2.33386,-0.000680841,-0.000615452,0.00180312,0.00115527,-0.00245156,0.794463,0.00212676,0.0363977,1903,1100,15.1413,-2.33392
686,-76,15.2415,2.1543,-0.00142968,-0.000845517,0.00267923,0.0015575,-0.0038327,0.839692,0.00320311,0.0365823,1910,1100,15.2414,-2.15427
693,-76,15.1813,2.15491,-0.00218403,-0.00111521,0.00349612,0.00188712,-0.00518635,0.86124,0.00422935,0.0376125,1917,1100,15.1813,-2.15489
700,-76,15.0864,2.23901,-0.00290924,-0.00125886,0.00415396,0.00215108,-0.00631917,0.883448,0.00508384,0.0322213,1924,1100,15.0864,-2.23896
707,-76,15.0978,2.31641,-0.00329552,-0.00139136,0.00462975,0.00238319,-0.00707007,0.886807,0.00567704,0.0210915,1931,1100,15.0978,-2.31637
714,-76,15.1012,2.48096,0,0,0,0,0,0,0,-1,1938,1100,15.1012,-2.481
721,-76,14.9713,2.8562,-0.00403214,-0.00160995,0.00500483,0.00232824,-0.00797032,0.904108,0.00623622,0.0283819,1945,1100,14.9713,-2.85618
728,-76,14.7556,3.18689,-0.00412771,-0.00153319,0.00491637,0.00225419,-0.00791509,0.914391,0.00616701,0.0205087,1952,1100,14.7556,-3.18694
735,-76,14.6287,3.17639,-0.00400143,-0.00124738,0.00471203,0.0022847,-0.00753352,0.927558,0.00593242,0.017686,1959,1100,14.6286,-3.17638
742,-76,14.7117,3.12671,-0.00363759,-0.000550025,0.0044744,0.00263943,-0.00682705,0.951516,0.00564091,0.0123935,1966,1100,14.7117,-3.12675
749,-76,14.6907,3.09705,-0.00267457,0.000341471,0.00407306,0.00317672,-0.00550982,0.962695,0.00507512,0.0133493,1973,1100,14.6907,-3.09699
756,-76,14.6892,3.08398,-0.00136848,0.00117555,0.00365874,0.00377709,-0.00397001,0.952695,0.00447325,0.014413,1980,1100,14.6892,-3.08402
763,-76,14.7037,3.02063,0.000327594,0.00207621,0.00312055,0.00444261,-0.00203881,0.921985,0.00382688,0.0139405,1987,1100,14.7037,-3.02058
770,-76,14.7065,2.97937,0.00222869,0.00324839,0.00272835,0.00551412,-3.70361e-05,0.877768,0.00368849,0.0133628,1994,1100,14.7065,-2.97938
777,-76,14.7134,3.00537,0.00437183,0.00436155,0.00269588,0.00706257,0.00167081,0.784445,0.00426205,0.016928,2001,1100,14.7134,-3.00533
784,-76,14.7598,3.09912,0.00672349,0.0052397,0.00300396,0.00907581,0.00288737,0.664335,0.00535421,0.0308605,2008,1100,14.7597,-3.09918
791,-76,14.7909,2.43628,0,0,0,0,0,0,0,-1,2015,1100,14.7909,-2.43634
798,-76,14.9487,2.4165,0,0,0,0,0,0,0,-1,2022,1100,14.9487,-2.41654
805,-76,15.3667,3.59998,0.0182615,0.00576486,0.00211692,0.0186104,0.00541599,0.16333,0.0110531,0.0456912,2029,1100,15.3666,-3.59993
812,-76,15.6802,3.94409,0.0242506,0.00442311,0.00023474,0.0242534,0.00442033,0.0118369,0.0149155,0.0474214,2036,1100,15.6802,-3.94412
-700,-83,0,0,0,0,0,0,0,0,0,-1,524,1107,0,0
-693,-83,-11.1124,-1.28503,0.0834667,0.058968,0.0754173,0.147623,-0.0051882,0.70489,0.100189,0.0474186,531,1107,-11.1124,1.28501
-686,-83,-10.5355,-0.842651,0.0807217,0.0471853,0.0615934,0.127789,0.00011839,0.652499,0.0851529,0.0467605,538,1107,-10.5355,0.842625
-679,-83,-10.2457,-0.150513,0,0,0,0,0,0,0,-1,545,1107,-10.2457,0.150459
-672,-83,-7.98151,0.415283,0.0622941,0.0291222,0.0379802,0.0871519,0.00426438,0.579529,0.0567333,0.0456705,552,1107,-7.9815,-0.415283
-665,-83,-8.4776,0.586426,0,0,0,0,0,0,0,-1,559,1107,-8.47758,-0.586478
-658,-83,-8.7182,0.755615,0.0401035,0.0165326,0.0204755,0.0519431,0.00469301,0.524259,0.0331752,0.0395575,566,1107,-8.7182,-0.75565
-651,-83,-8.84064,0.700684,0.0300524,0.0119224,0.0141085,0.0377572,0.00421768,0.499849,0.02389,0.0296574,573,1107,-8.84064,-0.700705
-644,-83,-8.80975,0.79834,0.023039,0.00860728,0.00953161,0.0277781,0.00386822,0.461401,0.0173735,0.0147065,580,1107,-8.80974,-0.79837
-637,-83,-8.81677,0.905396,0.0160229,0.00490177,0.00472868,0.0177617,0.003163,0.352363,0.0109403,0.0119348,587,1107,-8.8168,-0.905338
-630,-83,-8.8576,0.963379,0.00955595,0.00233305,0.000701978,0.00962354,0.00226546,0.0959909,0.00580969,0.0158572,594,1107,-8.85758,-0.963342
-623,-83,-8.84656,0.990967,0.00258417,0.000897255,-0.00183364,0.00375905,-0.00027762,-0.569833,0.00260351,0.0154685,601,1107,-8.84657,-0.990942
-616,-83,-8.86438,1.03149,-0.00176887,-0.000430109,-0.00367592,0.00263688,-0.00483586,-0.87546,0.00437621,0.0120899,608,1107,-8.86435,-1.0315
-609,-83,-8.86261,1.09851,-0.00252442,-0.000699991,-0.00425775,0.00274216,-0.00596658,-0.890927,0.00514159,0.0108289,615,1107,-8.8626,-1.09856
-602,-83,-8.84497,1.18408,-0.00251878,-0.00103102,-0.00476314,0.00304598,-0.00659578,-0.862859,0.00569104,0.013753,622,1107,-8.845,-1.18413
-595,-83,-8.81195,1.25427,-0.00269423,-0.00126873,-0.00517669,0.00324404,-0.00720701,-0.85381,0.00617683,0.0176864,629,1107,-8.81198,-1.25423
-588,-83,-8.87714,1.04065,-0.00270578,-0.00129472,-0.0052682,0.00331498,-0.00731548,-0.851963,0.00628069,0.0268514,636,1107,-8.87715,-1.0406
-581,-83,-9.05444,0.625977,-0.00245975,-0.00107152,-0.00485254,0.0031363,-0.00666757,-0.856437,0.00578136,0.0312444,643,1107,-9.05446,-0.626029
-574,-83,-9.1297,0.365723,-0.00215922,-0.00077486,-0.0040676,0.00265903,-0.00559311,-0.869676,0.00486373,0.0367881,650,1107,-9.12967,-0.365761
-567,-83,-9.23151,0.372681,-0.00156108,-0.000278221,-0.00277105,0.00192467,-0.00376397,-0.899132,0.00334108,0.0415643,657,1107,-9.23152,-0.372695
-560,-83,-9.02112,0.552246,-0.000698054,0.000399141,-0.000856836,0.000867955,-0.00116687,-1.07015,0.00117902,0.0431071,664,1107,-9.02111,-0.552223
-553,-83,-8.98138,0.706909,0.000366507,0.00123413,0.00168522,0.00254047,-0.000939839,0.911373,0.00207899,0.0419686,671,1107,-8.98139,-0.706896
-546,-83,-9.03955,0.973389,0.00158436,0.00218856,0.00487618,0.00677199,-0.00299908,0.816336,0.00577981,0.0414882,678,1107,-9.03957,-0.973436
-539,-83,-9.17889,0.942383,0.00288468,0.00319471,0.00858695,0.011628,-0.00554866,0.794423,0.0101219,0.0439676,685,1107,-9.17892,-0.942324
-532,-83,-9.24213,0.603027,0.00330244,0.00386601,0.0116476,0.0152352,-0.00806677,0.797492,0.013664,0.0455125,692,1107,-9.24214,-0.603061
-525,-83,0,0,0,0,0,0,0,0,0,-1,699,1107,0,0
-518,-83,0,0,0,0,0,0,0,0,0,-1,706,1107,0,0
-511,-83,0,0,0,0,0,0,0,0,0,-1,713,1107,0,0
-504,-83,0,0,0,0,0,0,0,0,0,-1,720,1107,0,0
-497,-83,0,0,0,0,0,0,0,0,0,-1,727,1107,0,0
-490,-83,0,0,0,0,0,0,0,0,0,-1,734,1107,0,0
-483,-83,0,0,0,0,0,0,0,0,0,-1,741,1107,0,0
-476,-83,0,0,0,0,0,0,0,0,0,-1,748,1107,0,0
-469,-83,0,0,0,0,0,0,0,0,0,-1,755,1107,0,0
-462,-83,0,0,0,0,0,0,0,0,0,-1,762,1107,0,0
-455,-83,0,0,0,0,0,0,0,0,0,-1,769,1107,0,0
-448,-83,0,0,0,0,0,0,0,0,0,-1,776,1107,0,0
-441,-83,0,0,0,0,0,0,0,0,0,-1,783,1107,0,0
-434,-83,0,0,0,0,0,0,0,0,0,-1,790,1107,0,0
-427,-83,0,0,0,0,0,0,0,0,0,-1,797,1107,0,0
-420,-83,0,0,0,0,0,0,0,0,0,-1,804,1107,0,0
-413,-83,0,0,0,0,0,0,0,0,0,-1,811,1107,0,0
-406,-83,0,0,0,0,0,0,0,0,0,-1,818,1107,0,0
-399,-83,0,0,0,0,0,0,0,0,0,-1,825,1107,0,0
-392,-83,0,0,0,0,0,0,0,0,0,-1,832,1107,0,0
-385,-83,0,0,0,0,0,0,0,0,0,-1,839,1107,0,0
-378,-83,0,0,0,0,0,0,0,0,0,-1,846,1107,0,0
-371,-83,0,0,0,0,0,0,0,0,0,-1,853,1107,0,0
-364,-83,0,0,0,0,0,0,0,0,0,-1,860,1107,0,0
-357,-83,0,0,0,0,0,0,0,0,0,-1,867,1107,0,0
-350,-83,0,0,0,0,0,0,0,0,0,-1,874,1107,0,0
-343,-83,0,0,0,0,0,0,0,0,0,-1,881,1107,0,0
-336,-83,0,0,0,0,0,0,0,0,0,-1,888,1107,0,0
-329,-83,0,0,0,0,0,0,0,0,0,-1,895,1107,0,0
-322,-83,0,0,0,0,0,0,0,0,0,-1,902,1107,0,0
-315,-83,0,0,0,0,0,0,0,0,0,-1,909,1107,0,0
-308,-83,0,0,0,0,0,0,0,0,0,-1,916,1107,0,0
-301,-83,0,0,0,0,0,0,0,0,0,-1,923,1107,0,0
-294,-83,0,0,0,0,0,0,0,0,0,-1,930,1107,0,0
-287,-83,0,0,0,0,0,0,0,0,0,-1,937,1107,0,0
-280,-83,0,0,0,0,0,0,0,0,0,-1,944,1107,0,0
-273,-83,0,0,0,0,0,0,0,0,0,-1,951,1107,0,0
-266,-83,0,0,0,0,0,0,0,0,0,-1,958,1107,0,0
-259,-83,0,0,0,0,0,0,0,0,0,-1,965,1107,0,0
-252,-83,0,0,0,0,0,0,0,0,0,-1,972,1107,0,0
-245,-83,0,0,0,0,0,0,0,0,0,-1,979,1107,0,0
-238,-83,0,0,0,0,0,0,0,0,0,-1,986,1107,0,0
-231,-83,0,0,0,0,0,0,0,0,0,-1,993,1107,0,0
-224,-83,0,0,0,0,0,0,0,0,0,-1,1000,1107,0,0
-217,-83,0,0,0,0,0,0,0,0,0,-1,1007,1107,0,0
-210,-83,0,0,0,0,0,0,0,0,0,-1,1014,1107,0,0
-203,-83,0,0,0,0,0,0,0,0,0,-1,1021,1107,0,0
-196,-83,0,0,0,0,0,0,0,0,0,-1,1028,1107,0,0
-189,-83,0,0,0,0,0,0,0,0,0,-1,1035,1107,0,0
-182,-83,0,0,0,0,0,0,0,0,0,-1,1042,1107,0,0
-175,-83,0,0,0,0,0,0,0,0,0,-1,1049,1107,0,0
-168,-83,0,0,0,0,0,0,0,0,0,-1,1056,1107,0,0
-161,-83,0,0,0,0,0,0,0,0,0,-1,1063,1107,0,0
-154,-83,0,0,0,0,0,0,0,0,0,-1,1070,1107,0,0
-147,-83,0,0,0,0,0,0,0,0,0,-1,1077,1107,0,0
-140,-83,0,0,0,0,0,0,0,0,0,-1,1084,1107,0,0
-133,-83,0,0,0,0,0,0,0,0,0,-1,1091,1107,0,0
-126,-83,0,0,0,0,0,0,0,0,0,-1,1098,1107,0,0
-119,-83,0,0,0,0,0,0,0,0,0,-1,1105,1107,0,0
-112,-83,0,0,0,0,0,0,0,0,0,-1,1112,1107,0,0
-105,-83,0,0,0,0,0,0,0,0,0,-1,1119,1107,0,0
-98,-83,0,0,0,0,0,0,0,0,0,-1,1126,1107,0,0
-91,-83,0,0,0,0,0,0,0,0,0,-1,1133,1107,0,0
-84,-83,0,0,0,0,0,0,0,0,0,-1,1140,1107,0,0
-77,-83,0,0,0,0,0,0,0,0,0,-1,1147,1107,0,0
-70,-83,0,0,0,0,0,0,0,0,0,-1,1154,1107,0,0
-63,-83,0,0,0,0,0,0,0,0,0,-1,1161,1107,0,0
-56,-83,0,0,0,0,0,0,0,0,0,-1,1168,1107,0,0
-49,-83,0,0,0,0,0,0,0,0,0,-1,1175,1107,0,0
-42,-83,0,0,0,0,0,0,0,0,0,-1,1182,1107,0,0
-35,-83,0,0,0,0,0,0,0,0,0,-1,1189,1107,0,0
-28,-83,0,0,0,0,0,0,0,0,0,-1,1196,1107,0,0
-21,-83,0,0,0,0,0,0,0,0,0,-1,1203,1107,0,0
-14,-83,0,0,0,0,0,0,0,0,0,-1,1210,1107,0,0
-7,-83,0,0,0,0,0,0,0,0,0,-1,1217,1107,0,0
0,-83,0,0,0,0,0,0,0,0,0,-1,1224,1107,0,0
7,-83,0,0,0,0,0,0,0,0,0,-1,1231,1107,0,0
14,-83,0,0,0,0,0,0,0,0,0,-1,1238,1107,0,0
21,-83,0,0,0,0,0,0,0,0,0,-1,1245,1107,0,0
28,-83,0,0,0,0,0,0,0,0,0,-1,1252,1107,0,0
35,-83,0,0,0,0,0,0,0,0,0,-1,1259,1107,0,0
42,-83,0,0,0,0,0,0,0,0,0,-1,1266,1107,0,0
49,-83,0,0,0,0,0,0,0,0,0,-1,1273,1107,0,0
56,-83,0,0,0,0,0,0,0,0,0,-1,1280,1107,0,0
63,-83,0,0,0,0,0,0,0,0,0,-1,1287,1107,0,0
70,-83,0,0,0,0,0,0,0,0,0,-1,1294,1107,0,0
77,-83,0,0,0,0,0,0,0,0,0,-1,1301,1107,0,0
84,-83,0,0,0,0,0,0,0,0,0,-1,1308,1107,0,0
91,-83,0,0,0,0,0,0,0,0,0,-1,1315,1107,0,0
98,-83,0,0,0,0,0,0,0,0,0,-1,1322,1107,0,0
105,-83,0,0,0,0,0,0,0,0,0,-1,1329,1107,0,0
112,-83,0,0,0,0,0,0,0,0,0,-1,1336,1107,0,0
119,-83,0,0,0,0,0,0,0,0,0,-1,1343,1107,0,0
126,-83,0,0,0,0,0,0,0,0,0,-1,1350,1107,0,0
133,-83,0,0,0,0,0,0,0,0,0,-1,1357,1107,0,0
140,-83,0,0,0,0,0,0,0,0,0,-1,1364,1107,0,0
147,-83,0,0,0,0,0,0,0,0,0,-1,1371,1107,0,0
154,-83,0,0,0,0,0,0,0,0,0,-1,1378,1107,0,0
161,-83,0,0,0,0,0,0,0,0,0,-1,1385,1107,0,0
168,-83,0,0,0,0,0,0,0,0,0,-1,1392,1107,0,0
175,-83,0,0,0,0,0,0,0,0,0,-1,1399,1107,0,0
182,-83,0,0,0,0,0,0,0,0,0,-1,1406,1107,0,0
189,-83,0,0,0,0,0,0,0,0,0,-1,1413,1107,0,0
196,-83,0,0,0,0,0,0,0,0,0,-1,1420,1107,0,0
203,-83,0,0,0,0,0,0,0,0,0,-1,1427,1107,0,0
210,-83,0,0,0,0,0,0,0,0,0,-1,1434,1107,0,0
217,-83,0,0,0,0,0,0,0,0,0,-1,1441,1107,0,0
224,-83,0,0,0,0,0,0,0,0,0,-1,1448,1107,0,0
231,-83,0,0,0,0,0,0,0,0,0,-1,1455,1107,0,0
238,-83,0,0,0,0,0,0,0,0,0,-1,1462,1107,0,0
245,-83,0,0,0,0,0,0,0,0,0,-1,1469,1107,0,0
252,-83,0,0,0,0,0,0,0,0,0,-1,1476,1107,0,0
259,-83,0,0,0,0,0,0,0,0,0,-1,1483,1107,0,0
266,-83,0,0,0,0,0,0,0,0,0,-1,1490,1107,0,0
273,-83,0,0,0,0,0,0,0,0,0,-1,1497,1107,0,0
280,-83,0,0,0,0,0,0,0,0,0,-1,1504,1107,0,0
287,-83,0,0,0,0,0,0,0,0,0,-1,1511,1107,0,0
294,-83,0,0,0,0,0,0,0,0,0,-1,1518,1107,0,0
301,-83,0,0,0,0,0,0,0,0,0,-1,1525,1107,0,0
308,-83,0,0,0,0,0,0,0,0,0,-1,1532,1107,0,0
315,-83,0,0,0,0,0,0,0,0,0,-1,1539,1107,0,0
322,-83,0,0,0,0,0,0,0,0,0,-1,1546,1107,0,0
329,-83,0,0,0,0,0,0,0,0,0,-1,1553,1107,0,0
336,-83,0,0,0,0,0,0,0,0,0,-1,1560,1107,0,0
343,-83,0,0,0,0,0,0,0,0,0,-1,1567,1107,0,0
350,-83,0,0,0,0,0,0,0,0,0,-1,1574,1107,0,0
357,-83,0,0,0,0,0,0,0,0,0,-1,1581,1107,0,0
364,-83,0,0,0,0,0,0,0,0,0,-1,1588,1107,0,0
371,-83,0,0,0,0,0,0,0,0,0,-1,1595,1107,0,0
378,-83,0,0,0,0,0,0,0,0,0,-1,1602,1107,0,0
385,-83,0,0,0,0,0,0,0,0,0,-1,1609,1107,0,0
392,-83,0,0,0,0,0,0,0,0,0,-1,1616,1107,0,0
399,-83,0,0,0,0,0,0,0,0,0,-1,1623,1107,0,0
406,-83,0,0,0,0,0,0,0,0,0,-1,1630,1107,0,0
413,-83,0,0,0,0,0,0,0,0,0,-1,1637,1107,0,0
420,-83,0,0,0,0,0,0,0,0,0,-1,1644,1107,0,0
427,-83,0,0,0,0,0,0,0,0,0,-1,1651,1107,0,0
434,-83,0,0,0,0,0,0,0,0,0,-1,1658,1107,0,0
441,-83,0,0,0,0,0,0,0,0,0,-1,1665,1107,0,0
448,-83,0,0,0,0,0,0,0,0,0,-1,1672,1107,0,0
455,-83,0,0,0,0,0,0,0,0,0,-1,1679,1107,0,0
462,-83,0,0,0,0,0,0,0,0,0,-1,1686,1107,0,0
469,-83,0,0,0,0,0,0,0,0,0,-1,1693,1107,0,0
476,-83,0,0,0,0,0,0,0,0,0,-1,1700,1107,0,0
483,-83,0,0,0,0,0,0,0,0,0,-1,1707,1107,0,0
490,-83,0,0,0,0,0,0,0,0,0,-1,1714,1107,0,0
497,-83,0,0,0,0,0,0,0,0,0,-1,1721,1107,0,0
504,-83,0,0,0,0,0,0,0,0,0,-1,1728,1107,0,0
511,-83,0,0,0,0,0,0,0,0,0,-1,1735,1107,0,0
518,-83,0,0,0,0,0,0,0,0,0,-1,1742,1107,0,0
525,-83,0,0,0,0,0,0,0,0,0,-1,1749,1107,0,0
532,-83,0,0,0,0,0,0,0,0,0,-1,1756,1107,0,0
539,-83,0,0,0,0,0,0,0,0,0,-1,1763,1107,0,0
546,-83,0,0,0,0,0,0,0,0,0,-1,1770,1107,0,0
553,-83,0,0,0,0,0,0,0,0,0,-1,1777,1107,0,0
560,-83,0,0,0,0,0,0,0,0,0,-1,1784,1107,0,0
567,-83,0,0,0,0,0,0,0,0,0,-1,1791,1107,0,0
574,-83,0,0,0,0,0,0,0,0,0,-1,1798,1107,0,0
581,-83,0,0,0,0,0,0,0,0,0,-1,1805,1107,0,0
588,-83,0,0,0,0,0,0,0,0,0,-1,1812,1107,0,0
595,-83,0,0,0,0,0,0,0,0,0,-1,1819,1107,0,0
602,-83,0,0,0,0,0,0,0,0,0,-1,1826,1107,0,0
609,-83,0,0,0,0,0,0,0,0,0,-1,1833,1107,0,0
616,-83,0,0,0,0,0,0,0,0,0,-1,1840,1107,0,0
623,-83,0,0,0,0,0,0,0,0,0,-1,1847,1107,0,0
630,-83,0,0,0,0,0,0,0,0,0,-1,1854,1107,0,0
637,-83,0,0,0,0,0,0,0,0,0,-1,1861,1107,0,0
644,-83,15.0751,2.13757,-0.00358954,-0.00432921,0.00139049,-0.00252054,-0.00539821,0.655418,0.00311893,0.0338524,1868,1107,15.0751,-2.13762
651,-83,14.89,2.19238,-0.00212128,-0.00302178,0.000875022,-0.00158746,-0.0035556,0.547785,0.00205674,0.0406647,1875,1107,14.89,-2.19241
658,-83,14.8143,2.05811,-0.00113288,-0.00201495,0.000508628,-0.000900704,-0.00224713,0.428227,0.00130586,0.0434186,1882,1107,14.8143,-2.05814
665,-83,14.8929,2.09802,-0.000280705,-0.00123367,0.000160054,-0.000254542,-0.00125983,0.162033,0.00076921,0.041547,1889,1107,14.8929,-2.09807
672,-83,14.9873,2.22241,-0.000271751,-0.000957689,0.000655065,0.000124697,-0.00135414,0.544237,0.000947064,0.036374,1896,1107,14.9873,-2.22238
679,-83,15.1034,2.33191,-0.000899081,-0.000993213,0.0015487,0.000603266,-0.00249556,0.770207,0.00189704,0.0355214,1903,1107,15.1034,-2.33186
686,-83,15.217,2.17639,-0.00167407,-0.00115275,0.00244189,0.00104235,-0.00386918,0.83857,0.00298813,0.0348454,1910,1107,15.217,-2.17645
693,-83,15.1974,2.15527,-0.00244405,-0.00136213,0.00326643,0.00140784,-0.00521401,0.867459,0.00402815,0.0347482,1917,1107,15.1973,-2.15522
700,-83,15.1184,2.24072,-0.00316171,-0.0014442,0.00391113,0.00170134,-0.00630726,0.893467,0.004872,0.0313131,1924,1107,15.1184,-2.24067
707,-83,15.1135,2.2843,-0.00352688,-0.00151904,0.00439464,0.00198489,-0.00703081,0.897693,0.00547022,0.0224861,1931,1107,15.1135,-2.28435
714,-83,15.0729,2.63928,0,0,0,0,0,0,0,-1,1938,1107,15.0729,-2.63928
721,-83,14.8074,3.01245,-0.00420331,-0.00165429,0.00480847,0.00204572,-0.00790331,0.914947,0.00606686,0.021185,1945,1107,14.8074,-3.0124
728,-83,14.6351,3.20544,-0.00424691,-0.00156666,0.00469653,0.0019772,-0.00779077,0.924377,0.0059632,0.0191765,1952,1107,14.6351,-3.20539
735,-83,14.5894,3.16809,-0.00407568,-0.00128173,0.00449521,0.00202857,-0.00738598,0.936052,0.00572134,0.0199161,1959,1107,14.5893,-3.16811
742,-83,14.6649,3.11792,-0.00365693,-0.000605234,0.00428091,0.00241363,-0.0066758,0.956594,0.0054367,0.0126473,1966,1107,14.665,-3.11793
749,-83,14.6743,3.10278,-0.00261098,0.000243951,0.00384633,0.00291916,-0.00528619,0.963082,0.00480261,0.0114072,1973,1107,14.6744,-3.10284
756,-83,14.684,3.08362,-0.00118509,0.00108381,0.00338385,0.00351831,-0.00361959,0.947138,0.00412121,0.0136922,1980,1107,14.684,-3.08364
763,-83,14.6967,3.01782,0.00066613,0.00194619,0.00286106,0.00423793,-0.00162562,0.895438,0.00349552,0.011231,1987,1107,14.6967,-3.01787
770,-83,14.6838,2.97388,0.00274524,0.00307235,0.00244494,0.0053592,0.00045839,0.818796,0.00343023,0.0131797,1994,1107,14.6838,-2.97387
777,-83,14.6705,2.95471,0.0050416,0.00410811,0.00241689,0.00703639,0.00211331,0.690013,0.00416903,0.0142966,2001,1107,14.6705,-2.95471
784,-83,14.6627,3.00598,0.00760922,0.00493727,0.00269607,0.00928218,0.00326432,0.555367,0.0054371,0.0242858,2008,1107,14.6628,-3.00602
791,-83,14.571,3.44629,0.0108273,0.00556447,0.00284669,0.0120725,0.0043193,0.412337,0.00706343,0.0417478,2015,1107,14.5711,-3.44635
798,-83,14.4451,3.85449,0,0,0,0,0,0,0,-1,2022,1107,14.4451,-3.85443
805,-83,15.4899,3.36096,0,0,0,0,0,0,0,-1,2029,1107,15.4899,-3.36098
812,-83,15.7175,3.78027,0,0,0,0,0,0,0,-1,2036,1107,15.7175,-3.78023
-700,-90,0,0,0,0,0,0,0,0,0,-1,524,1114,0,0
-693,-90,-12.3114,-2.54797,0,0,0,0,0,0,0,-1,531,1114,-12.3114,2.54796
-686,-90,-12.8871,-0.901123,0,0,0,0,0,0,0,-1,538,1114,-12.8871,0.901121
-679,-90,-10.8801,-0.311401,0.0925345,0.0393513,0.0508161,0.123296,0.00858975,0.544345,0.079489,0.0451594,545,1114,-10.8801,0.311411
-672,-90,-8.80878,0.279907,0.0778788,0.0305192,0.0391831,0.0999816,0.00841641,0.513597,0.0640336,0.04416,552,1114,-8.80877,-0.279892
-665,-90,-8.82513,0.558228,0,0,0,0,0,0,0,-1,559,1114,-8.82511,-0.558167
-658,-90,-8.78149,0.602173,0.0487857,0.0170143,0.0209496,0.0591915,0.00660849,0.461008,0.037453,0.0441141,566,1114,-8.78148,-0.60216
-651,-90,-8.75623,0.611938,0.0361741,0.0121386,0.0144071,0.0429178,0.00539494,0.437785,0.0269938,0.0310847,573,1114,-8.75623,-0.61194
-644,-90,-8.77563,0.76416,0.0270473,0.00856981,0.00966056,0.0311757,0.0044414,0.403857,0.0194729,0.0132626,580,1114,-8.77561,-0.764102
-637,-90,-8.76971,0.882446,0.018574,0.00482451,0.00491027,0.0201475,0.003251,0.310113,0.0124898,0.0114122,587,1114,-8.76973,-0.882415
-630,-90,-8.77142,0.947266,0.0111021,0.00224773,0.000985467,0.0112105,0.00213938,0.109512,0.00687243,0.0107617,594,1114,-8.77141,-0.947242
-623,-90,-8.7829,0.986938,0.00331534,0.000804598,-0.00162274,0.00411161,8.32905e-06,-0.456176,0.0027383,0.00850408,601,1114,-8.78289,-0.986917
-616,-90,-8.78967,1.05322,-0.00158646,-0.000571221,-0.00356898,0.00252605,-0.00468374,-0.85604,0.00422425,0.00728868,608,1114,-8.7897,-1.05318
-609,-90,-8.78326,1.13245,-0.00275417,-0.000921107,-0.00428182,0.00254118,-0.00621646,-0.890833,0.00520252,0.0101887,615,1114,-8.78326,-1.13246
-602,-90,-8.79382,1.18872,-0.00296046,-0.00130215,-0.00493879,0.0028766,-0.00713921,-0.868566,0.00595464,0.0103462,622,1114,-8.79379,-1.18872
-595,-90,-8.7442,1.25659,-0.00328466,-0.00158566,-0.00548451,0.00311475,-0.00798507,-0.862233,0.00661091,0.0124094,629,1114,-8.74418,-1.25662
-588,-90,-8.77325,1.16113,-0.00338747,-0.0016692,-0.00569031,0.00322646,-0.00828314,-0.860323,0.00685552,0.0219861,636,1114,-8.77323,-1.16116
-581,-90,-9.05426,0.784058,-0.00322507,-0.00147372,-0.00539017,0.00311144,-0.00781023,-0.865924,0.00649724,0.0297657,643,1114,-9.05425,-0.784099
-574,-90,-9.13708,0.543701,-0.00302534,-0.00120519,-0.00471083,0.00268267,-0.0069132,-0.880816,0.00571683,0.0341512,650,1114,-9.13709,-0.543663
-567,-90,-9.12689,0.413452,-0.00250112,-0.000695903,-0.00353672,0.00205157,-0.0052486,-0.910336,0.00434739,0.0364391,657,1114,-9.12688,-0.413413
-560,-90,-9.04034,0.480469,-0.00168845,5.07981e-05,-0.00173146,0.00111875,-0.0027564,-1.01812,0.00230296,0.040799,664,1114,-9.04036,-0.480486
-553,-90,-8.98395,0.722778,-0.000637102,0.00102616,0.00072808,0.00129984,-0.00091078,1.21124,0.00128287,0.0405787,671,1114,-8.98397,-0.722806
-546,-90,-9.09424,0.842896,0.000612519,0.00220258,0.00387587,0.00536411,-0.00254902,0.886556,0.00466402,0.0414682,678,1114,-9.09421,-0.842921
-539,-90,-9.12549,0.740845,0.00201539,0.00352848,0.00764051,0.0104498,-0.00490594,0.834746,0.00905619,0.0424096,685,1114,-9.12551,-0.74081
-532,-90,-9.17297,0.711182,0.0026379,0.00463353,0.0109244,0.0146056,-0.00733414,0.830941,0.0128967,0.0411036,692,1114,-9.17298,-0.71122
-525,-90,0,0,0,0,0,0,0,0,0,-1,699,1114,0,0
-518,-90,0,0,0,0,0,0,0,0,0,-1,706,1114,0,0
-511,-90,0,0,0,0,0,0,0,0,0,-1,713,1114,0,0
-504,-90,0,0,0,0,0,0,0,0,0,-1,720,1114,0,0
-497,-90,0,0,0,0,0,0,0,0,0,-1,727,1114,0,0
-490,-90,0,0,0,0,0,0,0,0,0,-1,734,1114,0,0
-483,-90,0,0,0,0,0,0,0,0,0,-1,741,1114,0,0
-476,-90,0,0,0,0,0,0,0,0,0,-1,748,1114,0,0
-469,-90,0,0,0,0,0,0,0,0,0,-1,755,1114,0,0
-462,-90,0,0,0,0,0,0,0,0,0,-1,762,1114,0,0
-455,-90,0,0,0,0,0,0,0,0,0,-1,769,1114,0,0
-448,-90,0,0,0,0,0,0,0,0,0,-1,776,1114,0,0
-441,-90,0,0,0,0,0,0,0,0,0,-1,783,1114,0,0
-434,-90,0,0,0,0,0,0,0,0,0,-1,790,1114,0,0
-427,-90,0,0,0,0,0,0,0,0,0,-1,797,1114,0,0
-420,-90,0,0,0,0,0,0,0,0,0,-1,804,1114,0,0
-413,-90,0,0,0,0,0,0,0,0,0,-1,811,1114,0,0
-406,-90,0,0,0,0,0,0,0,0,0,-1,818,1114,0,0
-399,-90,0,0,0,0,0,0,0,0,0,-1,825,1114,0,0
-392,-90,0,0,0,0,0,0,0,0,0,-1,832,1114,0,0
-385,-90,0,0,0,0,0,0,0,0,0,-1,839,1114,0,0
-378,-90,0,0,0,0,0,0,0,0,0,-1,846,1114,0,0
-371,-90,0,0,0,0,0,0,0,0,0,-1,853,1114,0,0
-364,-90,0,0,0,0,0,0,0,0,0,-1,860,1114,0,0
-357,-90,0,0,0,0,0,0,0,0,0,-1,867,1114,0,0
-350,-90,0,0,0,0,0,0,0,0,0,-1,874,1114,0,0
-343,-90,0,0,0,0,0,0,0,0,0,-1,881,1114,0,0
-336,-90,0,0,0,0,0,0,0,0,0,-1,888,1114,0,0
-329,-90,0,0,0,0,0,0,0,0,0,-1,895,1114,0,0
-322,-90,0,0,0,0,0,0,0,0,0,-1,902,1114,0,0
-315,-90,0,0,0,0,0,0,0,0,0,-1,909,1114,0,0
-308,-90,0,0,0,0,0,0,0,0,0,-1,916,1114,0,0
-301,-90,0,0,0,0,0,0,0,0,0,-1,923,1114,0,0
-294,-90,0,0,0,0,0,0,0,0,0,-1,930,1114,0,0
-287,-90,0,0,0,0,0,0,0,0,0,-1,937,1114,0,0
-280,-90,0,0,0,0,0,0,0,0,0,-1,944,1114,0,0
-273,-90,0,0,0,0,0,0,0,0,0,-1,951,1114,0,0
-266,-90,0,0,0,0,0,0,0,0,0,-1,958,1114,0,0
-259,-90,0,0,0,0,0,0,0,0,0,-1,965,1114,0,0
-252,-90,0,0,0,0,0,0,0,0,0,-1,972,1114,0,0
-245,-90,0,0,0,0,0,0,0,0,0,-1,979,1114,0,0
-238,-90,0,0,0,0,0,0,0,0,0,-1,986,1114,0,0
-231,-90,0,0,0,0,0,0,0,0,0,-1,993,1114,0,0
-224,-90,0,0,0,0,0,0,0,0,0,-1,1000,1114,0,0
-217,-90,0,0,0,0,0,0,0,0,0,-1,1007,1114,0,0
-210,-90,0,0,0,0,0,0,0,0,0,-1,1014,1114,0,0
-203,-90,0,0,0,0,0,0,0,0,0,-1,1021,1114,0,0
-196,-90,0,0,0,0,0,0,0,0,0,-1,1028,1114,0,0
-189,-90,0,0,0,0,0,0,0,0,0,-1,1035,1114,0,0
-182,-90,0,0,0,0,0,0,0,0,0,-1,1042,1114,0,0
-175,-90,0,0,0,0,0,0,0,0,0,-1,1049,1114,0,0
-168,-90,0,0,0,0,0,0,0,0,0,-1,1056,1114,0,0
-161,-90,0,0,0,0,0,0,0,0,0,-1,1063,1114,0,0
-154,-90,0,0,0,0,0,0,0,0,0,-1,1070,1114,0,0
-147,-90,0,0,0,0,0,0,0,0,0,-1,1077,1114,0,0
-140,-90,0,0,0,0,0,0,0,0,0,-1,1084,1114,0,0
-133,-90,0,0,0,0,0,0,0,0,0,-1,1091,1114,0,0
-126,-90,0,0,0,0,0,0,0,0,0,-1,1098,1114,0,0
-119,-90,0,0,0,0,0,0,0,0,0,-1,1105,1114,0,0
-112,-90,0,0,0,0,0,0,0,0,0,-1,1112,1114,0,0
-105,-90,0,0,0,0,0,0,0,0,0,-1,1119,1114,0,0
-98,-90,0,0,0,0,0,0,0,0,0,-1,1126,1114,0,0
-91,-90,0,0,0,0,0,0,0,0,0,-1,1133,1114,0,0
-84,-90,0,0,0,0,0,0,0,0,0,-1,1140,1114,0,0
-77,-90,0,0,0,0,0,0,0,0,0,-1,1147,1114,0,0
-70,-90,0,0,0,0,0,0,0,0,0,-1,1154,1114,0,0
-63,-90,0,0,0,0,0,0,0,0,0,-1,1161,1114,0,0
-56,-90,0,0,0,0,0,0,0,0,0,-1,1168,1114,0,0
-49,-90,0,0,0,0,0,0,0,0,0,-1,1175,1114,0,0
-42,-90,0,0,0,0,0,0,0,0,0,-1,1182,1114,0,0
-35,-90,0,0,0,0,0,0,0,0,0,-1,1189,1114,0,0
-28,-90,0,0,0,0,0,0,0,0,0,-1,1196,1114,0,0
-21,-90,0,0,0,0,0,0,0,0,0,-1,1203,1114,0,0
-14,-90,0,0,0,0,0,0,0,0,0,-1,1210,1114,0,0
-7,-90,0,0,0,0,0,0,0,0,0,-1,1217,1114,0,0
0,-90,0,0,0,0,0,0,0,0,0,-1,1224,1114,0,0
7,-90,0,0,0,0,0,0,0,0,0,-1,1231,1114,0,0
14,-90,0,0,0,0,0,0,0,0,0,-1,1238,1114,0,0
21,-90,0,0,0,0,0,0,0,0,0,-1,1245,1114,0,0
28,-90,0,0,0,0,0,0,0,0,0,-1,1252,1114,0,0
35,-90,0,0,0,0,0,0,0,0,0,-1,1259,1114,0,0
42,-90,0,0,0,0,0,0,0,0,0,-1,1266,1114,0,0
49,-90,0,0,0,0,0,0,0,0,0,-1,1273,1114,0,0
56,-90,0,0,0,0,0,0,0,0,0,-1,1280,1114,0,0
63,-90,0,0,0,0,0,0,0,0,0,-1,1287,1114,0,0
70,-90,0,0,0,0,0,0,0,0,0,-1,1294,1114,0,0
77,-90,0,0,0,0,0,0,0,0,0,-1,1301,1114,0,0
84,-90,0,0,0,0,0,0,0,0,0,-1,1308,1114,0,0
91,-90,0,0,0,0,0,0,0,0,0,-1,1315,1114,0,0
98,-90,0,0,0,0,0,0,0,0,0,-1,1322,1114,0,0
105,-90,0,0,0,0,0,0,0,0,0,-1,1329,1114,0,0
112,-90,0,0,0,0,0,0,0,0,0,-1,1336,1114,0,0
119,-90,0,0,0,0,0,0,0,0,0,-1,1343,1114,0,0
126,-90,0,0,0,0,0,0,0,0,0,-1,1350,1114,0,0
133,-90,0,0,0,0,0,0,0,0,0,-1,1357,1114,0,0
140,-90,0,0,0,0,0,0,0,0,0,-1,1364,1114,0,0
147,-90,0,0,0,0,0,0,0,0,0,-1,1371,1114,0,0
154,-90,0,0,0,0,0,0,0,0,0,-1,1378,1114,0,0
161,-90,0,0,0,0,0,0,0,0,0,-1,1385,1114,0,0
168,-90,0,0,0,0,0,0,0,0,0,-1,1392,1114,0,0
175,-90,0,0,0,0,0,0,0,0,0,-1,1399,1114,0,0
182,-90,0,0,0,0,0,0,0,0,0,-1,1406,1114,0,0
189,-90,0,0,0,0,0,0,0,0,0,-1,1413,1114,0,0
196,-90,0,0,0,0,0,0,0,0,0,-1,1420,1114,0,0
203,-90,0,0,0,0,0,0,0,0,0,-1,1427,1114,0,0
210,-90,0,0,0,0,0,0,0,0,0,-1,1434,1114,0,0
217,-90,0,0,0,0,0,0,0,0,0,-1,1441,1114,0,0
224,-90,0,0,0,0,0,0,0,0,0,-1,1448,1114,0,0
231,-90,0,0,0,0,0,0,0,0,0,-1,1455,1114,0,0
238,-90,0,0,0,0,0,0,0,0,0,-1,1462,1114,0,0
245,-90,0,0,0,0,0,0,0,0,0,-1,1469,1114,0,0
252,-90,0,0,0,0,0,0,0,0,0,-1,1476,1114,0,0
259,-90,0,0,0,0,0,0,0,0,0,-1,1483,1114,0,0
266,-90,0,0,0,0,0,0,0,0,0,-1,1490,1114,0,0
273,-90,0,0,0,0,0,0,0,0,0,-1,1497,1114,0,0
280,-90,0,0,0,0,0,0,0,0,0,-1,1504,1114,0,0
287,-90,0,0,0,0,0,0,0,0,0,-1,1511,1114,0,0
294,-90,0,0,0,0,0,0,0,0,0,-1,1518,1114,0,0
301,-90,0,0,0,0,0,0,0,0,0,-1,1525,1114,0,0
308,-90,0,0,0,0,0,0,0,0,0,-1,1532,1114,0,0
315,-90,0,0,0,0,0,0,0,0,0,-1,1539,1114,0,0
322,-90,0,0,0,0,0,0,0,0,0,-1,1546,1114,0,0
329,-90,0,0,0,0,0,0,0,0,0,-1,1553,1114,0,0
336,-90,0,0,0,0,0,0,0,0,0,-1,1560,1114,0,0
343,-90,0,0,0,0,0,0,0,0,0,-1,1567,1114,0,0
350,-90,0,0,0,0,0,0,0,0,0,-1,1574,1114,0,0
357,-90,0,0,0,0,0,0,0,0,0,-1,1581,1114,0,0
364,-90,0,0,0,0,0,0,0,0,0,-1,1588,1114,0,0
371,-90,0,0,0,0,0,0,0,0,0,-1,1595,1114,0,0
378,-90,0,0,0,0,0,0,0,0,0,-1,1602,1114,0,0
385,-90,0,0,0,0,0,0,0,0,0,-1,1609,1114,0,0
392,-90,0,0,0,0,0,0,0,0,0,-1,1616,1114,0,0
399,-90,0,0,0,0,0,0,0,0,0,-1,1623,1114,0,0
406,-90,0,0,0,0,0,0,0,0,0,-1,1630,1114,0,0
413,-90,0,0,0,0,0,0,0,0,0,-1,1637,1114,0,0
420,-90,0,0,0,0,0,0,0,0,0,-1,1644,1114,0,0
427,-90,0,0,0,0,0,0,0,0,0,-1,1651,1114,0,0
434,-90,0,0,0,0,0,0,0,0,0,-1,1658,1114,0,0
441,-90,0,0,0,0,0,0,0,0,0,-1,1665,1114,0,0
448,-90,0,0,0,0,0,0,0,0,0,-1,1672,1114,0,0
455,-90,0,0,0,0,0,0,0,0,0,-1,1679,1114,0,0
462,-90,0,0,0,0,0,0,0,0,0,-1,1686,1114,0,0
469,-90,0,0,0,0,0,0,0,0,0,-1,1693,1114,0,0
476,-90,0,0,0,0,0,0,0,0,0,-1,1700,1114,0,0
483,-90,0,0,0,0,0,0,0,0,0,-1,1707,1114,0,0
490,-90,0,0,0,0,0,0,0,0,0,-1,1714,1114,0,0
497,-90,0,0,0,0,0,0,0,0,0,-1,1721,1114,0,0
504,-90,0,0,0,0,0,0,0,0,0,-1,1728,1114,0,0
511,-90,0,0,0,0,0,0,0,0,0,-1,1735,1114,0,0
518,-90,0,0,0,0,0,0,0,0,0,-1,1742,1114,0,0
525,-90,0,0,0,0,0,0,0,0,0,-1,1749,1114,0,0
532,-90,0,0,0,0,0,0,0,0,0,-1,1756,1114,0,0
539,-90,0,0,0,0,0,0,0,0,0,-1,1763,1114,0,0
546,-90,0,0,0,0,0,0,0,0,0,-1,1770,1114,0,0
553,-90,0,0,0,0,0,0,0,0,0,-1,1777,1114,0,0
560,-90,0,0,0,0,0,0,0,0,0,-1,1784,1114,0,0
567,-90,0,0,0,0,0,0,0,0,0,-1,1791,1114,0,0
574,-90,0,0,0,0,0,0,0,0,0,-1,1798,1114,0,0
581,-90,0,0,0,0,0,0,0,0,0,-1,1805,1114,0,0
588,-90,0,0,0,0,0,0,0,0,0,-1,1812,1114,0,0
595,-90,0,0,0,0,0,0,0,0,0,-1,1819,1114,0,0
602,-90,0,0,0,0,0,0,0,0,0,-1,1826,1114,0,0
609,-90,0,0,0,0,0,0,0,0,0,-1,1833,1114,0,0
616,-90,0,0,0,0,0,0,0,0,0,-1,1840,1114,0,0
623,-90,0,0,0,0,0,0,0,0,0,-1,1847,1114,0,0
630,-90,0,0,0,0,0,0,0,0,0,-1,1854,1114,0,0
637,-90,0,0,0,0,0,0,0,0,0,-1,1861,1114,0,0
644,-90,15.1919,2.16943,-0.0030693,-0.00500152,0.000580476,-0.00290833,-0.0051625,0.270518,0.00298853,0.0337625,1868,1114,15.1919,-2.16938
651,-90,15.214,2.20532,-0.00194458,-0.00355507,0.000148748,-0.00193096,-0.0035687,0.091332,0.0020627,0.0384879,1875,1114,15.214,-2.20531
658,-90,15.1289,2.33813,-0.00106517,-0.00243484,-0.000170723,-0.00104421,-0.0024558,-0.122156,0.00142313,0.0418915,1882,1114,15.129,-2.33818
665,-90,15.0358,2.27234,-0.000363898,-0.00155886,-0.00035367,-0.000267069,-0.00165569,-0.267234,0.00102642,0.0424066,1889,1114,15.0358,-2.27228
672,-90,15.0571,2.24988,-0.000534932,-0.00124258,0.000328951,-0.000405641,-0.00137187,0.374492,0.000813794,0.0409629,1896,1114,15.0571,-2.24982
679,-90,15.1548,2.40186,-0.00123991,-0.00122931,0.0013195,8.49065e-05,-0.00255412,0.787405,0.00173174,0.0368006,1903,1114,15.1548,-2.40183
686,-90,15.1711,2.33008,-0.00204494,-0.0013532,0.00227878,0.000605815,-0.00400395,0.860713,0.00289247,0.032973,1910,1114,15.1712,-2.33012
693,-90,15.1908,2.22107,-0.00282674,-0.00153145,0.00314334,0.00103027,-0.00538847,0.886995,0.00398043,0.0322835,1917,1114,15.1907,-2.22104
700,-90,15.1881,2.26428,-0.00354066,-0.00158942,0.00379704,0.00135534,-0.00648542,0.911149,0.00483908,0.028358,1924,1114,15.1881,-2.2643
707,-90,15.1533,1.98193,0,0,0,0,0,0,0,-1,1931,1114,15.1534,-1.98193
714,-90,15.0387,2.47876,-0.00416952,-0.00167139,0.00460567,0.00185159,-0.00769249,0.917814,0.00584413,0.0315854,1938,1114,15.0387,-2.47875
721,-90,14.7288,3.18469,-0.00446334,-0.00170074,0.00474902,0.00186379,-0.00802786,0.926923,0.00606932,0.0205993,1945,1114,14.7287,-3.18466
728,-90,14.6002,3.24829,-0.00444067,-0.00160509,0.00460263,0.00179317,-0.00783892,0.934806,0.00591498,0.0162203,1952,1114,14.6003,-3.24831
735,-90,14.6006,3.18628,-0.00420717,-0.00131865,0.00436484,0.00183466,-0.00736049,0.945171,0.00561928,0.0178424,1959,1114,14.6006,-3.18623
742,-90,14.6205,3.13672,-0.00371663,-0.000669281,0.00412152,0.00220119,-0.0065871,0.962451,0.00528035,0.0167211,1966,1114,14.6204,-3.13675
749,-90,14.6332,3.0968,-0.00258206,0.000122667,0.00361967,0.00263436,-0.00509375,0.964176,0.00453651,0.0132981,1973,1114,14.6332,-3.09675
756,-90,14.6655,3.06287,-0.00106849,0.000980204,0.00309201,0.00321313,-0.00330142,0.945353,0.00376129,0.0135034,1980,1114,14.6656,-3.06293
763,-90,14.6709,3.01099,0.00087118,0.00184001,0.00252974,0.00393129,-0.0012201,0.879997,0.00310843,0.0113113,1987,1114,14.6708,-3.011
770,-90,14.6497,2.96558,0.00302341,0.00293105,0.00207109,0.00504884,0.000905624,0.774251,0.00310831,0.0132053,1994,1114,14.6496,-2.9656
777,-90,14.6227,2.94434,0.00531101,0.00391226,0.00203782,0.00676613,0.00245714,0.620098,0.00395489,0.0126979,2001,1114,14.6227,-2.94435
784,-90,14.6079,2.93726,0.00786874,0.00474238,0.00227997,0.00906994,0.00354118,0.484896,0.00527828,0.026547,2008,1114,14.6079,-2.93726
791,-90,14.4871,3.38013,0.0110848,0.00544078,0.00239033,0.0119611,0.00456449,0.351382,0.00696999,0.0425332,2015,1114,14.4871,-3.38015
798,-90,14.2859,4.10962,0,0,0,0,0,0,0,-1,2022,1114,14.2859,-4.10964
805,-90,14.0195,4.89209,0.0203945,0.00590572,0.00143829,0.0205359,0.00576432,0.0979945,0.0122307,0.0442707,2029,1114,14.0196,-4.89213
812,-90,13.7529,5.65527,0,0,0,0,0,0,0,-1,2036,1114,13.7529,-5.65527
-700,-97,0,0,0,0,0,0,0,0,0,-1,524,1121,0,0
-693,-97,-15.4291,-2.08679,0,0,0,0,0,0,0,-1,531,1121,-15.429,2.08685
-686,-97,-13.3663,-1.24915,0,0,0,0,0,0,0,-1,538,1121,-13.3663,1.24919
-679,-97,-11.4655,-0.471069,0.105965,0.0352673,0.0486431,0.130746,0.0104854,0.47119,0.0838879,0.0434732,545,1121,-11.4655,0.471012
-672,-97,-9.53821,-0.161865,0.0889507,0.0273139,0.0374149,0.106605,0.00965912,0.440887,0.0680794,0.041966,552,1121,-9.53823,0.161873
-665,-97,-8.77338,0.530151,0.0715297,0.0205267,0.0277549,0.0837198,0.00833656,0.413843,0.0532523,0.0437478,559,1121,-8.77337,-0.530107
-658,-97,-8.71906,0.477051,0.05509,0.014939,0.0197915,0.0632054,0.00682356,0.389138,0.0400566,0.0415932,566,1121,-8.71907,-0.477012
-651,-97,-8.70129,0.612305,0.0405931,0.0105149,0.0135455,0.045794,0.00531409,0.366598,0.0289211,0.0300575,573,1121,-8.7013,-0.61227
-644,-97,-8.71002,0.779663,0.0297973,0.00726314,0.0089648,0.0329287,0.00413179,0.336045,0.020713,0.0105881,580,1121,-8.71001,-0.779625
-637,-97,-8.70978,0.852661,0.0202565,0.00393756,0.00456294,0.0214457,0.00274837,0.254947,0.0134748,0.0110925,587,1121,-8.70975,-0.852703
-630,-97,-8.7049,0.922119,0.0121686,0.00172632,0.000989509,0.0122615,0.00163338,0.0936495,0.00768794,0.00913635,594,1121,-8.70492,-0.922069
-623,-97,-8.71643,1.01013,0.00384098,0.000461898,-0.00155574,0.00444815,-0.000145273,-0.372097,0.00301503,0.0102223,601,1121,-8.71645,-1.01015
-616,-97,-8.7041,1.05957,-0.00142448,-0.000770601,-0.0034858,0.00240355,-0.00459864,-0.832158,0.0041084,0.0111986,608,1121,-8.70412,-1.05954
-609,-97,-8.71527,1.1344,-0.00296401,-0.00109987,-0.00427538,0.00234386,-0.00640774,-0.892723,0.00523118,0.0133186,615,1121,-8.71524,-1.13446
-602,-97,-8.72827,1.18738,-0.00340261,-0.00145668,-0.00504314,0.00270649,-0.00756578,-0.880692,0.00614791,0.0121913,622,1121,-8.72827,-1.18741
-595,-97,-8.68304,1.25415,-0.00388234,-0.00177888,-0.00568083,0.00294676,-0.00860798,-0.87693,0.00693289,0.0161664,629,1121,-8.68302,-1.25412
-588,-97,-8.67041,1.28088,-0.00405185,-0.00195159,-0.0059546,0.00304477,-0.00904821,-0.872679,0.00726301,0.0217165,636,1121,-8.6704,-1.28091
-581,-97,-8.97516,0.901611,-0.00397827,-0.00186574,-0.00573087,0.00290539,-0.0087494,-0.876531,0.00700519,0.0316652,643,1121,-8.97518,-0.901594
-574,-97,-9.13409,0.662476,-0.00390618,-0.00173123,-0.00511443,0.00241007,-0.00804747,-0.890152,0.00632333,0.0363431,650,1121,-9.13412,-0.662471
-567,-97,-9.09503,0.668701,-0.00347922,-0.00136387,-0.00403824,0.00175291,-0.006596,-0.913478,0.0050834,0.0349009,657,1121,-9.09502,-0.668737
-560,-97,-9.04993,0.68396,-0.00275418,-0.000772375,-0.0023332,0.000771619,-0.00429817,-0.986205,0.00315427,0.0396146,664,1121,-9.04995,-0.683973
-553,-97,-9.07983,0.644531,-0.00177106,3.71654e-05,3.17625e-05,3.77231e-05,-0.00177162,1.55324,0.00119385,0.0441843,671,1121,-9.07982,-0.644477
-546,-97,-9.15912,0.562012,-0.000574539,0.00103973,0.00309814,0.00343415,-0.00296896,0.912827,0.00370009,0.0432665,678,1121,-9.15909,-0.561981
-539,-97,-9.151,0.598877,0,0,0,0,0,0,0,-1,685,1121,-9.151,-0.598883
-532,-97,-9.0874,0.731201,0,0,0,0,0,0,0,-1,692,1121,-9.08742,-0.731196
-525,-97,0,0,0,0,0,0,0,0,0,-1,699,1121,0,0
-518,-97,0,0,0,0,0,0,0,0,0,-1,706,1121,0,0
-511,-97,0,0,0,0,0,0,0,0,0,-1,713,1121,0,0
-504,-97,0,0,0,0,0,0,0,0,0,-1,720,1121,0,0
-497,-97,0,0,0,0,0,0,0,0,0,-1,727,1121,0,0
-490,-97,0,0,0,0,0,0,0,0,0,-1,734,1121,0,0
-483,-97,0,0,0,0,0,0,0,0,0,-1,741,1121,0,0
-476,-97,0,0,0,0,0,0,0,0,0,-1,748,1121,0,0
-469,-97,0,0,0,0,0,0,0,0,0,-1,755,1121,0,0
-462,-97,0,0,0,0,0,0,0,0,0,-1,762,1121,0,0
-455,-97,0,0,0,0,0,0,0,0,0,-1,769,1121,0,0
-448,-97,0,0,0,0,0,0,0,0,0,-1,776,1121,0,0
-441,-97,0,0,0,0,0,0,0,0,0,-1,783,1121,0,0
-434,-97,0,0,0,0,0,0,0,0,0,-1,790,1121,0,0
-427,-97,0,0,0,0,0,0,0,0,0,-1,797,1121,0,0
-420,-97,0,0,0,0,0,0,0,0,0,-1,804,1121,0,0
-413,-97,0,0,0,0,0,0,0,0,0,-1,811,1121,0,0
-406,-97,0,0,0,0,0,0,0,0,0,-1,818,1121,0,0
-399,-97,0,0,0,0,0,0,0,0,0,-1,825,1121,0,0
-392,-97,0,0,0,0,0,0,0,0,0,-1,832,1121,0,0
-385,-97,0,0,0,0,0,0,0,0,0,-1,839,1121,0,0
-378,-97,0,0,0,0,0,0,0,0,0,-1,846,1121,0,0
-371,-97,0,0,0,0,0,0,0,0,0,-1,853,1121,0,0
-364,-97,0,0,0,0,0,0,0,0,0,-1,860,1121,0,0
-357,-97,0,0,0,0,0,0,0,0,0,-1,867,1121,0,0
-350,-97,0,0,0,0,0,0,0,0,0,-1,874,1121,0,0
-343,-97,0,0,0,0,0,0,0,0,0,-1,881,1121,0,0
-336,-97,0,0,0,0,0,0,0,0,0,-1,888,1121,0,0
-329,-97,0,0,0,0,0,0,0,0,0,-1,895,1121,0,0
-322,-97,0,0,0,0,0,0,0,0,0,-1,902,1121,0,0
-315,-97,0,0,0,0,0,0,0,0,0,-1,909,1121,0,0
-308,-97,0,0,0,0,0,0,0,0,0,-1,916,1121,0,0
-301,-97,0,0,0,0,0,0,0,0,0,-1,923,1121,0,0
-294,-97,0,0,0,0,0,0,0,0,0,-1,930,1121,0,0
-287,-97,0,0,0,0,0,0,0,0,0,-1,937,1121,0,0
-280,-97,0,0,0,0,0,0,0,0,0,-1,944,1121,0,0
-273,-97,0,0,0,0,0,0,0,0,0,-1,951,1121,0,0
-266,-97,0,0,0,0,0,0,0,0,0,-1,958,1121,0,0
-259,-97,0,0,0,0,0,0,0,0,0,-1,965,1121,0,0
-252,-97,0,0,0,0,0,0,0,0,0,-1,972,1121,0,0
-245,-97,0,0,0,0,0,0,0,0,0,-1,979,1121,0,0
-238,-97,0,0,0,0,0,0,0,0,0,-1,986,1121,0,0
-231,-97,0,0,0,0,0,0,0,0,0,-1,993,1121,0,0
-224,-97,0,0,0,0,0,0,0,0,0,-1,1000,1121,0,0
-217,-97,0,0,0,0,0,0,0,0,0,-1,1007,1121,0,0
-210,-97,0,0,0,0,0,0,0,0,0,-1,1014,1121,0,0
-203,-97,0,0,0,0,0,0,0,0,0,-1,1021,1121,0,0
-196,-97,0,0,0,0,0,0,0,0,0,-1,1028,1121,0,0
-189,-97,0,0,0,0,0,0,0,0,0,-1,1035,1121,0,0
-182,-97,0,0,0,0,0,0,0,0,0,-1,1042,1121,0,0
-175,-97,0,0,0,0,0,0,0,0,0,-1,1049,1121,0,0
-168,-97,0,0,0,0,0,0,0,0,0,-1,1056,1121,0,0
-161,-97,0,0,0,0,0,0,0,0,0,-1,1063,1121,0,0
-154,-97,0,0,0,0,0,0,0,0,0,-1,1070,1121,0,0
-147,-97,0,0,0,0,0,0,0,0,0,-1,1077,1121,0,0
-140,-97,0,0,0,0,0,0,0,0,0,-1,1084,1121,0,0
-133,-97,0,0,0,0,0,0,0,0,0,-1,1091,1121,0,0
-126,-97,0,0,0,0,0,0,0,0,0,-1,1098,1121,0,0
-119,-97,0,0,0,0,0,0,0,0,0,-1,1105,1121,0,0
-112,-97,0,0,0,0,0,0,0,0,0,-1,1112,1121,0,0
-105,-97,0,0,0,0,0,0,0,0,0,-1,1119,1121,0,0
-98,-97,0,0,0,0,0,0,0,0,0,-1,1126,1121,0,0
-91,-97,0,0,0,0,0,0,0,0,0,-1,1133,1121,0,0
-84,-97,0,0,0,0,0,0,0,0,0,-1,1140,1121,0,0
-77,-97,0,0,0,0,0,0,0,0,0,-1,1147,1121,0,0
-70,-97,0,0,0,0,0,0,0,0,0,-1,1154,1121,0,0
-63,-97,0,0,0,0,0,0,0,0,0,-1,1161,1121,0,0
-56,-97,0,0,0,0,0,0,0,0,0,-1,1168,1121,0,0
-49,-97,0,0,0,0,0,0,0,0,0,-1,1175,1121,0,0
-42,-97,0,0,0,0,0,0,0,0,0,-1,1182,1121,0,0
-35,-97,0,0,0,0,0,0,0,0,0,-1,1189,1121,0,0
-28,-97,0,0,0,0,0,0,0,0,0,-1,1196,1121,0,0
-21,-97,0,0,0,0,0,0,0,0,0,-1,1203,1121,0,0
-14,-97,0,0,0,0,0,0,0,0,0,-1,1210,1121,0,0
-7,-97,0,0,0,0,0,0,0,0,0,-1,1217,1121,0,0
0,-97,0,0,0,0,0,0,0,0,0,-1,1224,1121,0,0
7,-97,0,0,0,0,0,0,0,0,0,-1,1231,1121,0,0
14,-97,0,0,0,0,0,0,0,0,0,-1,1238,1121,0,0
21,-97,0,0,0,0,0,0,0,0,0,-1,1245,1121,0,0
28,-97,0,0,0,0,0,0,0,0,0,-1,1252,1121,0,0
35,-97,0,0,0,0,0,0,0,0,0,-1,1259,1121,0,0
42,-97,0,0,0,0,0,0,0,0,0,-1,1266,1121,0,0
49,-97,0,0,0,0,0,0,0,0,0,-1,1273,1121,0,0
56,-97,0,0,0,0,0,0,0,0,0,-1,1280,1121,0,0
63,-97,0,0,0,0,0,0,0,0,0,-1,1287,1121,0,0
70,-97,0,0,0,0,0,0,0,0,0,-1,1294,1121,0,0
77,-97,0,0,0,0,0,0,0,0,0,-1,1301,1121,0,0
84,-97,0,0,0,0,0,0,0,0,0,-1,1308,1121,0,0
91,-97,0,0,0,0,0,0,0,0,0,-1,1315,1121,0,0
98,-97,0,0,0,0,0,0,0,0,0,-1,1322,1121,0,0
105,-97,0,0,0,0,0,0,0,0,0,-1,1329,1121,0,0
112,-97,0,0,0,0,0,0,0,0,0,-1,1336,1121,0,0
119,-97,0,0,0,0,0,0,0,0,0,-1,1343,1121,0,0
126,-97,0,0,0,0,0,0,0,0,0,-1,1350,1121,0,0
133,-97,0,0,0,0,0,0,0,0,0,-1,1357,1121,0,0
140,-97,0,0,0,0,0,0,0,0,0,-1,1364,1121,0,0
147,-97,0,0,0,0,0,0,0,0,0,-1,1371,1121,0,0
154,-97,0,0,0,0,0,0,0,0,0,-1,1378,1121,0,0
161,-97,0,0,0,0,0,0,0,0,0,-1,1385,1121,0,0
168,-97,0,0,0,0,0,0,0,0,0,-1,1392,1121,0,0
175,-97,0,0,0,0,0,0,0,0,0,-1,1399,1121,0,0
182,-97,0,0,0,0,0,0,0,0,0,-1,1406,1121,0,0
189,-97,0,0,0,0,0,0,0,0,0,-1,1413,1121,0,0
196,-97,0,0,0,0,0,0,0,0,0,-1,1420,1121,0,0
203,-97,0,0,0,0,0,0,0,0,0,-1,1427,1121,0,0
210,-97,0,0,0,0,0,0,0,0,0,-1,1434,1121,0,0
217,-97,0,0,0,0,0,0,0,0,0,-1,1441,1121,0,0
224,-97,0,0,0,0,0,0,0,0,0,-1,1448,1121,0,0
231,-97,0,0,0,0,0,0,0,0,0,-1,1455,1121,0,0
238,-97,0,0,0,0,0,0,0,0,0,-1,1462,1121,0,0
245,-97,0,0,0,0,0,0,0,0,0,-1,1469,1121,0,0
252,-97,0,0,0,0,0,0,0,0,0,-1,1476,1121,0,0
259,-97,0,0,0,0,0,0,0,0,0,-1,1483,1121,0,0
266,-97,0,0,0,0,0,0,0,0,0,-1,1490,1121,0,0
273,-97,0,0,0,0,0,0,0,0,0,-1,1497,1121,0,0
280,-97,0,0,0,0,0,0,0,0,0,-1,1504,1121,0,0
287,-97,0,0,0,0,0,0,0,0,0,-1,1511,1121,0,0
294,-97,0,0,0,0,0,0,0,0,0,-1,1518,1121,0,0
301,-97,0,0,0,0,0,0,0,0,0,-1,1525,1121,0,0
308,-97,0,0,0,0,0,0,0,0,0,-1,1532,1121,0,0
315,-97,0,0,0,0,0,0,0,0,0,-1,1539,1121,0,0
322,-97,0,0,0,0,0,0,0,0,0,-1,1546,1121,0,0
329,-97,0,0,0,0,0,0,0,0,0,-1,1553,1121,0,0
336,-97,0,0,0,0,0,0,0,0,0,-1,1560,1121,0,0
343,-97,0,0,0,0,0,0,0,0,0,-1,1567,1121,0,0
350,-97,0,0,0,0,0,0,0,0,0,-1,1574,1121,0,0
357,-97,0,0,0,0,0,0,0,0,0,-1,1581,1121,0,0
364,-97,0,0,0,0,0,0,0,0,0,-1,1588,1121,0,0
371,-97,0,0,0,0,0,0,0,0,0,-1,1595,1121,0,0
378,-97,0,0,0,0,0,0,0,0,0,-1,1602,1121,0,0
385,-97,0,0,0,0,0,0,0,0,0,-1,1609,1121,0,0
392,-97,0,0,0,0,0,0,0,0,0,-1,1616,1121,0,0
399,-97,0,0,0,0,0,0,0,0,0,-1,1623,1121,0,0
406,-97,0,0,0,0,0,0,0,0,0,-1,1630,1121,0,0
413,-97,0,0,0,0,0,0,0,0,0,-1,1637,1121,0,0
420,-97,0,0,0,0,0,0,0,0,0,-1,1644,1121,0,0
427,-97,0,0,0,0,0,0,0,0,0,-1,1651,1121,0,0
434,-97,0,0,0,0,0,0,0,0,0,-1,1658,1121,0,0
441,-97,0,0,0,0,0,0,0,0,0,-1,1665,1121,0,0
448,-97,0,0,0,0,0,0,0,0,0,-1,1672,1121,0,0
455,-97,0,0,0,0,0,0,0,0,0,-1,1679,1121,0,0
462,-97,0,0,0,0,0,0,0,0,0,-1,1686,1121,0,0
469,-97,0,0,0,0,0,0,0,0,0,-1,1693,1121,0,0
476,-97,0,0,0,0,0,0,0,0,0,-1,1700,1121,0,0
483,-97,0,0,0,0,0,0,0,0,0,-1,1707,1121,0,0
490,-97,0,0,0,0,0,0,0,0,0,-1,1714,1121,0,0
497,-97,0,0,0,0,0,0,0,0,0,-1,1721,1121,0,0
504,-97,0,0,0,0,0,0,0,0,0,-1,1728,1121,0,0
511,-97,0,0,0,0,0,0,0,0,0,-1,1735,1121,0,0
518,-97,0,0,0,0,0,0,0,0,0,-1,1742,1121,0,0
525,-97,0,0,0,0,0,0,0,0,0,-1,1749,1121,0,0
532,-97,0,0,0,0,0,0,0,0,0,-1,1756,1121,0,0
539,-97,0,0,0,0,0,0,0,0,0,-1,1763,1121,0,0
546,-97,0,0,0,0,0,0,0,0,0,-1,1770,1121,0,0
553,-97,0,0,0,0,0,0,0,0,0,-1,1777,1121,0,0
560,-97,0,0,0,0,0,0,0,0,0,-1,1784,1121,0,0
567,-97,0,0,0,0,0,0,0,0,0,-1,1791,1121,0,0
574,-97,0,0,0,0,0,0,0,0,0,-1,1798,1121,0,0
581,-97,0,0,0,0,0,0,0,0,0,-1,1805,1121,0,0
588,-97,0,0,0,0,0,0,0,0,0,-1,1812,1121,0,0
595,-97,0,0,0,0,0,0,0,0,0,-1,1819,1121,0,0
602,-97,0,0,0,0,0,0,0,0,0,-1,1826,1121,0,0
609,-97,0,0,0,0,0,0,0,0,0,-1,1833,1121,0,0
616,-97,0,0,0,0,0,0,0,0,0,-1,1840,1121,0,0
623,-97,0,0,0,0,0,0,0,0,0,-1,1847,1121,0,0
630,-97,0,0,0,0,0,0,0,0,0,-1,1854,1121,0,0
637,-97,0,0,0,0,0,0,0,0,0,-1,1861,1121,0,0
644,-97,15.1713,2.28149,-0.00293288,-0.00471993,0.000173598,-0.00291617,-0.00473663,0.0959467,0.00275898,0.036313,1868,1121,15.1712,-2.28154
651,-97,15.2518,2.35352,-0.00203253,-0.00330921,-0.000207224,-0.00199974,-0.00334201,-0.156948,0.00194191,0.0361042,1875,1121,15.2518,-2.35357
658,-97,15.1489,2.49084,-0.00119502,-0.00220998,-0.000530175,-0.000968591,-0.00243641,-0.403632,0.00141647,0.0387144,1882,1121,15.149,-2.49079
665,-97,15.1511,2.13696,-0.000623243,-0.00142145,-0.000593753,-0.000306927,-0.00173777,-0.489496,0.00107097,0.0414374,1889,1121,15.1511,-2.13702
672,-97,15.1057,2.12463,0,0,0,0,0,0,0,-1,1896,1121,15.1057,-2.12468
679,-97,15.0858,2.66785,-0.0016721,-0.00124951,0.00120374,-0.000238663,-0.00268295,0.872278,0.00171462,0.038608,1903,1121,15.0858,-2.66789
686,-97,15.1312,2.51782,-0.00248426,-0.00141891,0.00217232,0.000285092,-0.00418827,0.905631,0.0028919,0.033333,1910,1121,15.1312,-2.51788
693,-97,15.177,2.32483,-0.00325726,-0.00162087,0.00303098,0.00070041,-0.00557854,0.917228,0.00397313,0.0311551,1917,1121,15.177,-2.32482
700,-97,15.1554,2.27405,-0.00394889,-0.00169599,0.00366232,0.0010092,-0.00665408,0.934595,0.00480789,0.0249421,1924,1121,15.1553,-2.27401
707,-97,15.1425,2.13818,0,0,0,0,0,0,0,-1,1931,1121,15.1425,-2.13818
714,-97,14.9807,2.69177,0,0,0,0,0,0,0,-1,1938,1121,14.9807,-2.69174
721,-97,14.819,3.24524,0,0,0,0,0,0,0,-1,1945,1121,14.8189,-3.24529
728,-97,14.6096,3.26831,-0.004628,-0.00166218,0.00443816,0.00153426,-0.00782444,0.946631,0.0057958,0.0174337,1952,1121,14.6096,-3.26829
735,-97,14.5796,3.2052,-0.00429527,-0.00134846,0.00416115,0.00159244,-0.00723618,0.955553,0.00543329,0.0176179,1959,1121,14.5796,-3.20522
742,-97,14.5751,3.1615,-0.00370809,-0.000667945,0.00387363,0.00197319,-0.00634923,0.972374,0.00502148,0.014771,1966,1121,14.575,-3.16149
749,-97,14.5736,3.11414,-0.00246305,0.000167814,0.00326206,0.00236969,-0.00466492,0.977051,0.00413287,0.0165229,1973,1121,14.5736,-3.11409
756,-97,14.5793,3.04456,-0.00081201,0.00116387,0.00259526,0.00295287,-0.00260101,0.967265,0.00320868,0.0136883,1980,1121,14.5794,-3.04452
763,-97,14.5927,3,0.00125567,0.00216301,0.00188632,0.00364945,-0.000230768,0.903409,0.00251342,0.0113597,1987,1121,14.5926,-3.00002
770,-97,14.5951,2.96362,0.00352106,0.00340517,0.00123524,0.00469972,0.00222652,0.761961,0.00271463,0.00946288,1994,1121,14.595,-2.9636
777,-97,14.6095,2.92639,0.00585453,0.00458627,0.000984406,0.00639137,0.00404942,0.499263,0.0037337,0.0125026,2001,1121,14.6095,-2.92641
784,-97,14.5587,2.86963,0.00846297,0.00573495,0.00092715,0.00874824,0.00544968,0.298494,0.00510144,0.0325554,2008,1121,14.5587,-2.86961
791,-97,14.1475,2.98462,0.011713,0.00688046,0.000694786,0.0118109,0.00678255,0.139996,0.00684404,0.0416436,2015,1121,14.1474,-2.98458
798,-97,14.8082,1.36816,0,0,0,0,0,0,0,-1,2022,1121,14.8082,-1.36813
805,-97,15.0626,4.90076,0,0,0,0,0,0,0,-1,2029,1121,15.0626,-4.90075
812,-97,14.3904,2.52649,0,0,0,0,0,0,0,-1,2036,1121,14.3905,-2.52655
-700,-104,0,0,0,0,0,0,0,0,0,-1,524,1128,0,0
-693,-104,-7.203,-1.69666,0,0,0,0,0,0,0,-1,531,1128,-7.20299,1.69668
-686,-104,-14.0851,-1.31152,0,0,0,0,0,0,0,-1,538,1128,-14.0851,1.3115
-679,-104,-12.0468,-0.697266,0,0,0,0,0,0,0,-1,545,1128,-12.0467,0.697276
-672,-104,-10.9582,-0.26355,0,0,0,0,0,0,0,-1,552,1128,-10.9582,0.263558
-665,-104,-8.69049,0.492554,0.0800524,0.0161998,0.0251275,0.0887547,0.00749757,0.333396,0.0568357,0.0414857,559,1128,-8.69048,-0.492581
-658,-104,-8.66644,0.422974,0.0608894,0.0116315,0.0177815,0.0666376,0.00588333,0.312661,0.0425996,0.0399887,566,1128,-8.66642,-0.422967
-651,-104,-8.66278,0.518555,0.0444045,0.00809577,0.0121117,0.0480739,0.00442646,0.294168,0.0306804,0.0336685,573,1128,-8.66279,-0.518545
-644,-104,-8.64972,0.747559,0.031954,0.00551716,0.00791723,0.0341437,0.0033275,0.269825,0.0217384,0.0137122,580,1128,-8.64973,-0.747509
-637,-104,-8.62817,0.823486,0.0214911,0.00285291,0.00403834,0.0223285,0.00201554,0.204457,0.0142614,0.0100008,587,1128,-8.62817,-0.823465
-630,-104,-8.63977,0.910889,0.0129524,0.00112486,0.000886247,0.0130184,0.00105882,0.0743775,0.00834841,0.0113225,594,1128,-8.6398,-0.910835
-623,-104,-8.66107,1.00085,0.00426754,0.000121125,-0.00154675,0.00478095,-0.000392292,-0.32049,0.00332579,0.0143195,601,1128,-8.6611,-1.00088
-616,-104,-8.67474,1.0675,-0.00128983,-0.000982698,-0.00342582,0.00229299,-0.00456552,-0.807796,0.00403157,0.0152694,608,1128,-8.67477,-1.06755
-609,-104,-8.69061,1.10059,-0.00319093,-0.00132574,-0.00426636,0.00210877,-0.00662544,-0.893002,0.00526265,0.0176123,615,1128,-8.69058,-1.10064
-602,-104,-8.6333,1.19836,-0.00387809,-0.00171151,-0.00510538,0.00242424,-0.00801384,-0.889941,0.00630788,0.0141377,622,1128,-8.63329,-1.19831
-595,-104,-8.61102,1.29199,-0.00452769,-0.00210012,-0.00579604,0.00260787,-0.00923568,-0.888614,0.00718592,0.0143504,629,1128,-8.611,-1.29203
-588,-104,-8.64252,1.31201,-0.00479643,-0.00239646,-0.00610262,0.00262303,-0.00981592,-0.882477,0.0075713,0.0232117,636,1128,-8.64249,-1.31206
-581,-104,-8.85913,0.884766,-0.00482923,-0.00244926,-0.00591201,0.00239134,-0.00966983,-0.884713,0.00737407,0.0339803,643,1128,-8.85915,-0.884747
-574,-104,-9.11841,0.474976,0,0,0,0,0,0,0,-1,650,1128,-9.11841,-0.475013
-567,-104,-9.10681,0.939331,-0.00455633,-0.0022614,-0.00429664,0.00103836,-0.00785608,-0.915883,0.0056156,0.035539,657,1128,-9.10679,-0.939362
-560,-104,-9.09076,0.570679,-0.00391206,-0.00183822,-0.00265263,-2.70489e-05,-0.00572323,-0.971717,0.0038065,0.0418272,664,1128,-9.09075,-0.570687
-553,-104,-9.07764,0.389771,-0.00297537,-0.00119099,-0.000352414,-0.00112391,-0.00304245,-1.3827,0.00177642,0.0476815,671,1128,-9.07765,-0.389786
-546,-104,-9.05804,0.324707,-0.00178826,-0.000334007,0.00264401,0.00168104,-0.0038033,0.919585,0.00324445,0.044607,678,1128,-9.05803,-0.324683
-539,-104,-9.03381,0.492432,-0.000372171,0.000714364,0.0063368,0.00653114,-0.00618895,0.82816,0.00734484,0.038821,685,1128,-9.0338,-0.492409
-532,-104,-8.91449,0.651978,0.000514622,0.0016826,0.0098674,0.0109833,-0.00878606,0.814956,0.0114373,0.0388891,692,1128,-8.91451,-0.651966
-525,-104,-8.92316,0.638794,-0.0013065,0.0020131,0.0114642,0.0119371,-0.0112305,0.857289,0.0133779,0.0379618,699,1128,-8.92314,-0.638813
-518,-104,0,0,0,0,0,0,0,0,0,-1,706,1128,0,0
-511,-104,0,0,0,0,0,0,0,0,0,-1,713,1128,0,0
-504,-104,0,0,0,0,0,0,0,0,0,-1,720,1128,0,0
-497,-104,0,0,0,0,0,0,0,0,0,-1,727,1128,0,0
-490,-104,0,0,0,0,0,0,0,0,0,-1,734,1128,0,0
-483,-104,0,0,0,0,0,0,0,0,0,-1,741,1128,0,0
-476,-104,0,0,0,0,0,0,0,0,0,-1,748,1128,0,0
-469,-104,0,0,0,0,0,0,0,0,0,-1,755,1128,0,0
-462,-104,0,0,0,0,0,0,0,0,0,-1,762,1128,0,0
-455,-104,0,0,0,0,0,0,0,0,0,-1,769,1128,0,0
-448,-104,0,0,0,0,0,0,0,0,0,-1,776,1128,0,0
-441,-104,0,0,0,0,0,0,0,0,0,-1,783,1128,0,0
-434,-104,0,0,0,0,0,0,0,0,0,-1,790,1128,0,0
-427,-104,0,0,0,0,0,0,0,0,0,-1,797,1128,0,0
-420,-104,0,0,0,0,0,0,0,0,0,-1,804,1128,0,0
-413,-104,0,0,0,0,0,0,0,0,0,-1,811,1128,0,0
-406,-104,0,0,0,0,0,0,0,0,0,-1,818,1128,0,0
-399,-104,0,0,0,0,0,0,0,0,0,-1,825,1128,0,0
-392,-104,0,0,0,0,0,0,0,0,0,-1,832,1128,0,0
-385,-104,0,0,0,0,0,0,0,0,0,-1,839,1128,0,0
-378,-104,0,0,0,0,0,0,0,0,0,-1,846,1128,0,0
-371,-104,0,0,0,0,0,0,0,0,0,-1,853,1128,0,0
-364,-104,0,0,0,0,0,0,0,0,0,-1,860,1128,0,0
-357,-104,0,0,0,0,0,0,0,0,0,-1,867,1128,0,0
-350,-104,0,0,0,0,0,0,0,0,0,-1,874,1128,0,0
-343,-104,0,0,0,0,0,0,0,0,0,-1,881,1128,0,0
-336,-104,0,0,0,0,0,0,0,0,0,-1,888,1128,0,0
-329,-104,0,0,0,0,0,0,0,0,0,-1,895,1128,0,0
-322,-104,0,0,0,0,0,0,0,0,0,-1,902,1128,0,0
-315,-104,0,0,0,0,0,0,0,0,0,-1,909,1128,0,0
-308,-104,0,0,0,0,0,0,0,0,0,-1,916,1128,0,0
-301,-104,0,0,0,0,0,0,0,0,0,-1,923,1128,0,0
-294,-104,0,0,0,0,0,0,0,0,0,-1,930,1128,0,0
-287,-104,0,0,0,0,0,0,0,0,0,-1,937,1128,0,0
-280,-104,0,0,0,0,0,0,0,0,0,-1,944,1128,0,0
-273,-104,0,0,0,0,0,0,0,0,0,-1,951,1128,0,0
-266,-104,0,0,0,0,0,0,0,0,0,-1,958,1128,0,0
-259,-104,0,0,0,0,0,0,0,0,0,-1,965,1128,0,0
-252,-104,0,0,0,0,0,0,0,0,0,-1,972,1128,0,0
-245,-104,0,0,0,0,0,0,0,0,0,-1,979,1128,0,0
-238,-104,0,0,0,0,0,0,0,0,0,-1,986,1128,0,0
-231,-104,0,0,0,0,0,0,0,0,0,-1,993,1128,0,0
-224,-104,0,0,0,0,0,0,0,0,0,-1,1000,1128,0,0
-217,-104,0,0,0,0,0,0,0,0,0,-1,1007,1128,0,0
-210,-104,0,0,0,0,0,0,0,0,0,-1,1014,1128,0,0
-203,-104,0,0,0,0,0,0,0,0,0,-1,1021,1128,0,0
-196,-104,0,0,0,0,0,0,0,0,0,-1,1028,1128,0,0
-189,-104,0,0,0,0,0,0,0,0,0,-1,1035,1128,0,0
-182,-104,0,0,0,0,0,0,0,0,0,-1,1042,1128,0,0
-175,-104,0,0,0,0,0,0,0,0,0,-1,1049,1128,0,0
-168,-104,0,0,0,0,0,0,0,0,0,-1,1056,1128,0,0
-161,-104,0,0,0,0,0,0,0,0,0,-1,1063,1128,0,0
-154,-104,0,0,0,0,0,0,0,0,0,-1,1070,1128,0,0
-147,-104,0,0,0,0,0,0,0,0,0,-1,1077,1128,0,0
-140,-104,0,0,0,0,0,0,0,0,0,-1,1084,1128,0,0
-133,-104,0,0,0,0,0,0,0,0,0,-1,1091,1128,0,0
-126,-104,0,0,0,0,0,0,0,0,0,-1,1098,1128,0,0
-119,-104,0,0,0,0,0,0,0,0,0,-1,1105,1128,0,0
-112,-104,0,0,0,0,0,0,0,0,0,-1,1112,1128,0,0
-105,-104,0,0,0,0,0,0,0,0,0,-1,1119,1128,0,0
-98,-104,0,0,0,0,0,0,0,0,0,-1,1126,1128,0,0
-91,-104,0,0,0,0,0,0,0,0,0,-1,1133,1128,0,0
-84,-104,0,0,0,0,0,0,0,0,0,-1,1140,1128,0,0
-77,-104,0,0,0,0,0,0,0,0,0,-1,1147,1128,0,0
-70,-104,0,0,0,0,0,0,0,0,0,-1,1154,1128,0,0
-63,-104,0,0,0,0,0,0,0,0,0,-1,1161,1128,0,0
-56,-104,0,0,0,0,0,0,0,0,0,-1,1168,1128,0,0
-49,-104,0,0,0,0,0,0,0,0,0,-1,1175,1128,0,0
-42,-104,0,0,0,0,0,0,0,0,0,-1,1182,1128,0,0
-35,-104,0,0,0,0,0,0,0,0,0,-1,1189,1128,0,0
-28,-104,0,0,0,0,0,0,0,0,0,-1,1196,1128,0,0
-21,-104,0,0,0,0,0,0,0,0,0,-1,1203,1128,0,0
-14,-104,0,0,0,0,0,0,0,0,0,-1,1210,1128,0,0
-7,-104,0,0,0,0,0,0,0,0,0,-1,1217,1128,0,0
0,-104,0,0,0,0,0,0,0,0,0,-1,1224,1128,0,0
7,-104,0,0,0,0,0,0,0,0,0,-1,1231,1128,0,0
14,-104,0,0,0,0,0,0,0,0,0,-1,1238,1128,0,0
21,-104,0,0,0,0,0,0,0,0,0,-1,1245,1128,0,0
28,-104,0,0,0,0,0,0,0,0,0,-1,1252,1128,0,0
35,-104,0,0,0,0,0,0,0,0,0,-1,1259,1128,0,0
42,-104,0,0,0,0,0,0,0,0,0,-1,1266,1128,0,0
49,-104,0,0,0,0,0,0,0,0,0,-1,1273,1128,0,0
56,-104,0,0,0,0,0,0,0,0,0,-1,1280,1128,0,0
63,-104,0,0,0,0,0,0,0,0,0,-1,1287,1128,0,0
70,-104,0,0,0,0,0,0,0,0,0,-1,1294,1128,0,0
77,-104,0,0,0,0,0,0,0,0,0,-1,1301,1128,0,0
84,-104,0,0,0,0,0,0,0,0,0,-1,1308,1128,0,0
91,-104,0,0,0,0,0,0,0,0,0,-1,1315,1128,0,0
98,-104,0,0,0,0,0,0,0,0,0,-1,1322,1128,0,0
105,-104,0,0,0,0,0,0,0,0,0,-1,1329,1128,0,0
112,-104,0,0,0,0,0,0,0,0,0,-1,1336,1128,0,0
119,-104,0,0,0,0,0,0,0,0,0,-1,1343,1128,0,0
126,-104,0,0,0,0,0,0,0,0,0,-1,1350,1128,0,0
133,-104,0,0,0,0,0,0,0,0,0,-1,1357,1128,0,0
140,-104,0,0,0,0,0,0,0,0,0,-1,1364,1128,0,0
147,-104,0,0,0,0,0,0,0,0,0,-1,1371,1128,0,0
154,-104,0,0,0,0,0,0,0,0,0,-1,1378,1128,0,0
161,-104,0,0,0,0,0,0,0,0,0,-1,1385,1128,0,0
168,-104,0,0,0,0,0,0,0,0,0,-1,1392,1128,0,0
175,-104,0,0,0,0,0,0,0,0,0,-1,1399,1128,0,0
182,-104,0,0,0,0,0,0,0,0,0,-1,1406,1128,0,0
189,-104,0,0,0,0,0,0,0,0,0,-1,1413,1128,0,0
196,-104,0,0,0,0,0,0,0,0,0,-1,1420,1128,0,0
203,-104,0,0,0,0,0,0,0,0,0,-1,1427,1128,0,0
210,-104,0,0,0,0,0,0,0,0,0,-1,1434,1128,0,0
217,-104,0,0,0,0,0,0,0,0,0,-1,1441,1128,0,0
224,-104,0,0,0,0,0,0,0,0,0,-1,1448,1128,0,0
231,-104,0,0,0,0,0,0,0,0,0,-1,1455,1128,0,0
238,-104,0,0,0,0,0,0,0,0,0,-1,1462,1128,0,0
245,-104,0,0,0,0,0,0,0,0,0,-1,1469,1128,0,0
252,-104,0,0,0,0,0,0,0,0,0,-1,1476,1128,0,0
259,-104,0,0,0,0,0,0,0,0,0,-1,1483,1128,0,0
266,-104,0,0,0,0,0,0,0,0,0,-1,1490,1128,0,0
273,-104,0,0,0,0,0,0,0,0,0,-1,1497,1128,0,0
280,-104,0,0,0,0,0,0,0,0,0,-1,1504,1128,0,0
287,-104,0,0,0,0,0,0,0,0,0,-1,1511,1128,0,0
294,-104,0,0,0,0,0,0,0,0,0,-1,1518,1128,0,0
301,-104,0,0,0,0,0,0,0,0,0,-1,1525,1128,0,0
308,-104,0,0,0,0,0,0,0,0,0,-1,1532,1128,0,0
315,-104,0,0,0,0,0,0,0,0,0,-1,1539,1128,0,0
322,-104,0,0,0,0,0,0,0,0,0,-1,1546,1128,0,0
329,-104,0,0,0,0,0,0,0,0,0,-1,1553,1128,0,0
336,-104,0,0,0,0,0,0,0,0,0,-1,1560,1128,0,0
343,-104,0,0,0,0,0,0,0,0,0,-1,1567,1128,0,0
350,-104,0,0,0,0,0,0,0,0,0,-1,1574,1128,0,0
357,-104,0,0,0,0,0,0,0,0,0,-1,1581,1128,0,0
364,-104,0,0,0,0,0,0,0,0,0,-1,1588,1128,0,0
371,-104,0,0,0,0,0,0,0,0,0,-1,1595,1128,0,0
378,-104,0,0,0,0,0,0,0,0,0,-1,1602,1128,0,0
385,-104,0,0,0,0,0,0,0,0,0,-1,1609,1128,0,0
392,-104,0,0,0,0,0,0,0,0,0,-1,1616,1128,0,0
399,-104,0,0,0,0,0,0,0,0,0,-1,1623,1128,0,0
406,-104,0,0,0,0,0,0,0,0,0,-1,1630,1128,0,0
413,-104,0,0,0,0,0,0,0,0,0,-1,1637,1128,0,0
420,-104,0,0,0,0,0,0,0,0,0,-1,1644,1128,0,0
427,-104,0,0,0,0,0,0,0,0,0,-1,1651,1128,0,0
434,-104,0,0,0,0,0,0,0,0,0,-1,1658,1128,0,0
441,-104,0,0,0,0,0,0,0,0,0,-1,1665,1128,0,0
448,-104,0,0,0,0,0,0,0,0,0,-1,1672,1128,0,0
455,-104,0,0,0,0,0,0,0,0,0,-1,1679,1128,0,0
462,-104,0,0,0,0,0,0,0,0,0,-1,1686,1128,0,0
469,-104,0,0,0,0,0,0,0,0,0,-1,1693,1128,0,0
476,-104,0,0,0,0,0,0,0,0,0,-1,1700,1128,0,0
483,-104,0,0,0,0,0,0,0,0,0,-1,1707,1128,0,0
490,-104,0,0,0,0,0,0,0,0,0,-1,1714,1128,0,0
497,-104,0,0,0,0,0,0,0,0,0,-1,1721,1128,0,0
504,-104,0,0,0,0,0,0,0,0,0,-1,1728,1128,0,0
511,-104,0,0,0,0,0,0,0,0,0,-1,1735,1128,0,0
518,-104,0,0,0,0,0,0,0,0,0,-1,1742,1128,0,0
525,-104,0,0,0,0,0,0,0,0,0,-1,1749,1128,0,0
532,-104,0,0,0,0,0,0,0,0,0,-1,1756,1128,0,0
539,-104,0,0,0,0,0,0,0,0,0,-1,1763,1128,0,0
546,-104,0,0,0,0,0,0,0,0,0,-1,1770,1128,0,0
553,-104,0,0,0,0,0,0,0,0,0,-1,1777,1128,0,0
560,-104,0,0,0,0,0,0,0,0,0,-1,1784,1128,0,0
567,-104,0,0,0,0,0,0,0,0,0,-1,1791,1128,0,0
574,-104,0,0,0,0,0,0,0,0,0,-1,1798,1128,0,0
581,-104,0,0,0,0,0,0,0,0,0,-1,1805,1128,0,0
588,-104,0,0,0,0,0,0,0,0,0,-1,1812,1128,0,0
595,-104,0,0,0,0,0,0,0,0,0,-1,1819,1128,0,0
602,-104,0,0,0,0,0,0,0,0,0,-1,1826,1128,0,0
609,-104,0,0,0,0,0,0,0,0,0,-1,1833,1128,0,0
616,-104,0,0,0,0,0,0,0,0,0,-1,1840,1128,0,0
623,-104,0,0,0,0,0,0,0,0,0,-1,1847,1128,0,0
630,-104,0,0,0,0,0,0,0,0,0,-1,1854,1128,0,0
637,-104,0,0,0,0,0,0,0,0,0,-1,1861,1128,0,0
644,-104,15.0573,2.40234,-0.0029461,-0.00372388,-0.000116578,-0.002929,-0.00374098,-0.145623,0.00227221,0.0380638,1868,1128,15.0573,-2.40232
651,-104,15.2101,2.39001,-0.00220576,-0.00252246,-0.000405118,-0.00192914,-0.00279908,-0.599088,0.00165417,0.0376473,1875,1128,15.21,-2.39003
658,-104,15.2115,2.55151,-0.00137755,-0.00154521,-0.000711263,-0.000745196,-0.00217757,-0.726737,0.00127792,0.0399289,1882,1128,15.2116,-2.5515
665,-104,15.3253,2.46753,-0.000936548,-0.000958616,-0.00065238,-0.000295109,-0.00160006,-0.776942,0.000983209,0.0423403,1889,1128,15.3253,-2.46751
672,-104,15.3694,2.41309,-0.00135807,-0.000915197,0.000195892,-0.000840986,-0.00143228,1.20867,0.000831108,0.0415492,1896,1128,15.3694,-2.41306
679,-104,15.1553,2.48242,-0.00212762,-0.00108334,0.00119282,-0.000303384,-0.00290757,0.991702,0.00184558,0.0386844,1903,1128,15.1553,-2.48248
686,-104,15.0233,2.45349,-0.00295306,-0.00134205,0.00213732,0.000136515,-0.00443162,0.965605,0.00300095,0.0364931,1910,1128,15.0233,-2.45355
693,-104,15.109,2.32825,-0.00371914,-0.00159813,0.00295973,0.000485353,-0.00580263,0.957428,0.00403993,0.0340116,1917,1128,15.109,-2.32819
700,-104,15.1195,2.28076,-0.00438878,-0.00171465,0.00354516,0.000737202,-0.00684064,0.965726,0.00482497,0.0253737,1924,1128,15.1195,-2.28079
707,-104,15.1124,2.28809,0,0,0,0,0,0,0,-1,1931,1128,15.1124,-2.28815
714,-104,14.8967,2.7948,-0.00485582,-0.00181307,0.00430954,0.00123576,-0.00790465,0.955082,0.0057263,0.0297911,1938,1128,14.8967,-2.7948
721,-104,14.6278,3.302,-0.00506286,-0.00179311,0.00444523,0.00130835,-0.00816433,0.961612,0.00592733,0.0188054,1945,1128,14.6279,-3.30206
728,-104,14.59,3.26904,-0.00485861,-0.00168034,0.00422385,0.00124342,-0.00778237,0.965322,0.00564853,0.0217514,1952,1128,14.5899,-3.269
735,-104,14.5687,3.19617,-0.00440721,-0.00131541,0.00388977,0.00132439,-0.00704701,0.974541,0.00519604,0.0212148,1959,1128,14.5687,-3.19613
742,-104,14.5238,3.17419,-0.00367823,-0.000567922,0.00353574,0.00173956,-0.00598571,0.992584,0.00467938,0.0140542,1966,1128,14.5238,-3.1742
749,-104,14.5128,3.11865,-0.00228681,0.000374692,0.00278906,0.00213421,-0.00404633,1.00799,0.00362481,0.0165165,1973,1128,14.5128,-3.11866
756,-104,14.5088,3.047,-0.000459647,0.00160554,0.00196111,0.0027893,-0.00164341,1.02772,0.00258757,0.0156316,1980,1128,14.5087,-3.04697
763,-104,14.5205,2.99939,0.00181105,0.00285451,0.00108736,0.00353883,0.00112673,1.00908,0.00208758,0.0144663,1987,1128,14.5206,-2.99933
770,-104,14.533,2.96033,0.00424228,0.00438299,0.000228467,0.00455169,0.00407358,0.934761,0.00288831,0.0117536,1994,1128,14.533,-2.96027
777,-104,14.5676,2.9198,0.00668663,0.00592628,-0.000254679,0.00676405,0.00584886,-0.295117,0.00423738,0.017887,2001,1128,14.5676,-2.9198
784,-104,14.5924,2.90283,0.00941669,0.00757029,-0.00059597,0.00959234,0.00739464,-0.28662,0.00580275,0.0383349,2008,1128,14.5925,-2.90289
791,-104,14.5914,2.14441,0,0,0,0,0,0,0,-1,2015,1128,14.5914,-2.14436
798,-104,14.7908,1.73938,0,0,0,0,0,0,0,-1,2022,1128,14.7908,-1.73937
805,-104,15.0887,1.94189,0,0,0,0,0,0,0,-1,2029,1128,15.0888,-1.94186
812,-104,14.5842,2.51221,0,0,0,0,0,0,0,-1,2036,1128,14.5841,-2.51223
-700,-111,0,0,0,0,0,0,0,0,0,-1,524,1135,0,0
-693,-111,-6.90631,-2.34741,0,0,0,0,0,0,0,-1,531,1135,-6.90628,2.34738
-686,-111,-14.6105,-1.48816,0,0,0,0,0,0,0,-1,538,1135,-14.6105,1.48811
-679,-111,-12.6412,-0.902832,0.132791,0.0187871,0.0372814,0.1439,0.00767787,0.289605,0.093479,0.0454367,545,1135,-12.6411,0.902793
-672,-111,-10.9393,-0.340332,0.108817,0.0140308,0.0284068,0.116678,0.00616949,0.269984,0.0758128,0.0475909,552,1135,-10.9393,0.340375
-665,-111,-8.6073,0.414063,0.0855084,0.0101272,0.0209201,0.090925,0.00471056,0.253355,0.0591091,0.0452041,559,1135,-8.60733,-0.414106
-658,-111,-8.54718,0.436523,0.0645194,0.00706205,0.0148644,0.0681371,0.00344439,0.238737,0.0443212,0.0436701,566,1135,-8.54719,-0.436463
-651,-111,-8.54047,0.571655,0.0467398,0.00475905,0.010183,0.0490795,0.00241941,0.225839,0.0319437,0.0381539,573,1135,-8.54045,-0.571602
-644,-111,-8.56213,0.747559,0.0332342,0.00313998,0.00671171,0.0346632,0.00171096,0.209781,0.0225601,0.0230708,580,1135,-8.56214,-0.747515
-637,-111,-8.57257,0.835571,0.0221891,0.0013292,0.00348215,0.022755,0.000763275,0.161113,0.0149221,0.00871587,587,1135,-8.57254,-0.83561
-630,-111,-8.57043,0.895386,0.0134111,0.000193486,0.000836891,0.0134639,0.000140708,0.0629811,0.00892939,0.0132141,594,1135,-8.57043,-0.895439
-623,-111,-8.58508,0.974487,0.00460159,-0.000448464,-0.00145693,0.00499177,-0.000838639,-0.261666,0.00363974,0.0126406,601,1135,-8.58506,-0.97449
-616,-111,-8.61237,1.04407,-0.00117242,-0.00130072,-0.0032792,0.00204326,-0.00451639,-0.775618,0.0038759,0.0132865,608,1135,-8.61234,-1.04408
-609,-111,-8.63074,1.12634,-0.00344784,-0.00160961,-0.00421464,0.00178497,-0.00684242,-0.892755,0.00525858,0.0155452,615,1135,-8.63076,-1.12629
-602,-111,-8.59552,1.18848,-0.00440435,-0.00188851,-0.00513951,0.00214477,-0.00843764,-0.905416,0.00645981,0.0143954,622,1135,-8.59551,-1.18849
-595,-111,-8.57068,1.2771,-0.00524721,-0.00228113,-0.00587907,0.00229907,-0.00982741,-0.908949,0.00743737,0.0116469,629,1135,-8.57068,-1.27705
-588,-111,-8.53217,1.35266,-0.00565746,-0.00260899,-0.00621561,0.00226655,-0.010533,-0.905639,0.00788683,0.0236159,636,1135,-8.53216,-1.35265
-581,-111,-8.71417,0.788696,-0.00581835,-0.00271195,-0.00607864,0.00200879,-0.0105391,-0.91048,0.00778256,0.0354467,643,1135,-8.71418,-0.788728
-574,-111,-8.96906,0.275513,0,0,0,0,0,0,0,-1,650,1135,-8.96903,-0.275501
-567,-111,-9.00116,0.504883,-0.00568218,-0.00254215,-0.0046463,0.000792223,-0.00901656,-0.948328,0.00629176,0.0376596,657,1135,-9.00113,-0.504844
-560,-111,-8.93176,0.502808,-0.00505799,-0.00212142,-0.00313874,-0.000124515,-0.00705489,-1.00418,0.00466231,0.0398793,664,1135,-8.93176,-0.502815
-553,-111,-8.90161,0.249146,-0.00405711,-0.00144966,-0.00100652,-0.00110633,-0.00440044,-1.24207,0.00264319,0.0429852,671,1135,-8.90164,-0.249186
-546,-111,-8.94061,0.289795,-0.00269836,-0.000528944,0.00177615,0.000467523,-0.00369483,1.05953,0.00263293,0.0389862,678,1135,-8.94059,-0.289794
-539,-111,-8.98438,0.387573,-0.000969645,0.000643356,0.0052122,0.00511108,-0.00543737,0.862156,0.00609112,0.040658,685,1135,-8.98437,-0.387584
-532,-111,-8.9118,0.510864,0.000536309,0.00187196,0.00856594,0.00979607,-0.0073878,0.824301,0.00995354,0.0407232,692,1135,-8.91179,-0.510857
-525,-111,-9.05365,0.69165,-0.000359085,0.00257751,0.00999093,0.0112075,-0.00898903,0.858357,0.0116839,0.038114,699,1135,-9.05365,-0.691692
-518,-111,0,0,0,0,0,0,0,0,0,-1,706,1135,0,0
-511,-111,0,0,0,0,0,0,0,0,0,-1,713,1135,0,0
-504,-111,0,0,0,0,0,0,0,0,0,-1,720,1135,0,0
-497,-111,0,0,0,0,0,0,0,0,0,-1,727,1135,0,0
-490,-111,0,0,0,0,0,0,0,0,0,-1,734,1135,0,0
-483,-111,0,0,0,0,0,0,0,0,0,-1,741,1135,0,0
-476,-111,0,0,0,0,0,0,0,0,0,-1,748,1135,0,0
-469,-111,0,0,0,0,0,0,0,0,0,-1,755,1135,0,0
-462,-111,0,0,0,0,0,0,0,0,0,-1,762,1135,0,0
-455,-111,0,0,0,0,0,0,0,0,0,-1,769,1135,0,0
-448,-111,0,0,0,0,0,0,0,0,0,-1,776,1135,0,0
-441,-111,0,0,0,0,0,0,0,0,0,-1,783,1135,0,0
-434,-111,0,0,0,0,0,0,0,0,0,-1,790,1135,0,0
-427,-111,0,0,0,0,0,0,0,0,0,-1,797,1135,0,0
-420,-111,0,0,0,0,0,0,0,0,0,-1,804,1135,0,0
-413,-111,0,0,0,0,0,0,0,0,0,-1,811,1135,0,0
-406,-111,0,0,0,0,0,0,0,0,0,-1,818,1135,0,0
-399,-111,0,0,0,0,0,0,0,0,0,-1,825,1135,0,0
-392,-111,0,0,0,0,0,0,0,0,0,-1,832,1135,0,0
-385,-111,0,0,0,0,0,0,0,0,0,-1,839,1135,0,0
-378,-111,0,0,0,0,0,0,0,0,0,-1,846,1135,0,0
-371,-111,0,0,0,0,0,0,0,0,0,-1,853,1135,0,0
-364,-111,0,0,0,0,0,0,0,0,0,-1,860,1135,0,0
-357,-111,0,0,0,0,0,0,0,0,0,-1,867,1135,0,0
-350,-111,0,0,0,0,0,0,0,0,0,-1,874,1135,0,0
-343,-111,0,0,0,0,0,0,0,0,0,-1,881,1135,0,0
-336,-111,0,0,0,0,0,0,0,0,0,-1,888,1135,0,0
-329,-111,0,0,0,0,0,0,0,0,0,-1,895,1135,0,0
-322,-111,0,0,0,0,0,0,0,0,0,-1,902,1135,0,0
-315,-111,0,0,0,0,0,0,0,0,0,-1,909,1135,0,0
-308,-111,0,0,0,0,0,0,0,0,0,-1,916,1135,0,0
-301,-111,0,0,0,0,0,0,0,0,0,-1,923,1135,0,0
-294,-111,0,0,0,0,0,0,0,0,0,-1,930,1135,0,0
-287,-111,0,0,0,0,0,0,0,0,0,-1,937,1135,0,0
-280,-111,0,0,0,0,0,0,0,0,0,-1,944,1135,0,0
-273,-111,0,0,0,0,0,0,0,0,0,-1,951,1135,0,0
-266,-111,0,0,0,0,0,0,0,0,0,-1,958,1135,0,0
-259,-111,0,0,0,0,0,0,0,0,0,-1,965,1135,0,0
-252,-111,0,0,0,0,0,0,0,0,0,-1,972,1135,0,0
-245,-111,0,0,0,0,0,0,0,0,0,-1,979,1135,0,0
-238,-111,0,0,0,0,0,0,0,0,0,-1,986,1135,0,0
-231,-111,0,0,0,0,0,0,0,0,0,-1,993,1135,0,0
-224,-111,0,0,0,0,0,0,0,0,0,-1,1000,1135,0,0
-217,-111,0,0,0,0,0,0,0,0,0,-1,1007,1135,0,0
-210,-111,0,0,0,0,0,0,0,0,0,-1,1014,1135,0,0
-203,-111,0,0,0,0,0,0,0,0,0,-1,1021,1135,0,0
-196,-111,0,0,0,0,0,0,0,0,0,-1,1028,1135,0,0
-189,-111,0,0,0,0,0,0,0,0,0,-1,1035,1135,0,0
-182,-111,0,0,0,0,0,0,0,0,0,-1,1042,1135,0,0
-175,-111,0,0,0,0,0,0,0,0,0,-1,1049,1135,0,0
-168,-111,0,0,0,0,0,0,0,0,0,-1,1056,1135,0,0
-161,-111,0,0,0,0,0,0,0,0,0,-1,1063,1135,0,0
-154,-111,0,0,0,0,0,0,0,0,0,-1,1070,1135,0,0
-147,-111,0,0,0,0,0,0,0,0,0,-1,1077,1135,0,0
-140,-111,0,0,0,0,0,0,0,0,0,-1,1084,1135,0,0
-133,-111,0,0,0,0,0,0,0,0,0,-1,1091,1135,0,0
-126,-111,0,0,0,0,0,0,0,0,0,-1,1098,1135,0,0
-119,-111,0,0,0,0,0,0,0,0,0,-1,1105,1135,0,0
-112,-111,0,0,0,0,0,0,0,0,0,-1,1112,1135,0,0
-105,-111,0,0,0,0,0,0,0,0,0,-1,1119,1135,0,0
-98,-111,0,0,0,0,0,0,0,0,0,-1,1126,1135,0,0
-91,-111,0,0,0,0,0,0,0,0,0,-1,1133,1135,0,0
-84,-111,0,0,0,0,0,0,0,0,0,-1,1140,1135,0,0
-77,-111,0,0,0,0,0,0,0,0,0,-1,1147,1135,0,0
-70,-111,0,0,0,0,0,0,0,0,0,-1,1154,1135,0,0
-63,-111,0,0,0,0,0,0,0,0,0,-1,1161,1135,0,0
-56,-111,0,0,0,0,0,0,0,0,0,-1,1168,1135,0,0
-49,-111,0,0,0,0,0,0,0,0,0,-1,1175,1135,0,0
-42,-111,0,0,0,0,0,0,0,0,0,-1,1182,1135,0,0
-35,-111,0,0,0,0,0,0,0,0,0,-1,1189,1135,0,0
-28,-111,0,0,0,0,0,0,0,0,0,-1,1196,1135,0,0
-21,-111,0,0,0,0,0,0,0,0,0,-1,1203,1135,0,0
-14,-111,0,0,0,0,0,0,0,0,0,-1,1210,1135,0,0
-7,-111,0,0,0,0,0,0,0,0,0,-1,1217,1135,0,0
0,-111,0,0,0,0,0,0,0,0,0,-1,1224,1135,0,0
7,-111,0,0,0,0,0,0,0,0,0,-1,1231,1135,0,0
14,-111,0,0,0,0,0,0,0,0,0,-1,1238,1135,0,0
21,-111,0,0,0,0,0,0,0,0,0,-1,1245,1135,0,0
28,-111,0,0,0,0,0,0,0,0,0,-1,1252,1135,0,0
35,-111,0,0,0,0,0,0,0,0,0,-1,1259,1135,0,0
42,-111,0,0,0,0,0,0,0,0,0,-1,1266,1135,0,0
49,-111,0,0,0,0,0,0,0,0,0,-1,1273,1135,0,0
56,-111,0,0,0,0,0,0,0,0,0,-1,1280,1135,0,0
63,-111,0,0,0,0,0,0,0,0,0,-1,1287,1135,0,0
70,-111,0,0,0,0,0,0,0,0,0,-1,1294,1135,0,0
77,-111,0,0,0,0,0,0,0,0,0,-1,1301,1135,0,0
84,-111,0,0,0,0,0,0,0,0,0,-1,1308,1135,0,0
91,-111,0,0,0,0,0,0,0,0,0,-1,1315,1135,0,0
98,-111,0,0,0,0,0,0,0,0,0,-1,1322,1135,0,0
105,-111,0,0,0,0,0,0,0,0,0,-1,1329,1135,0,0
112,-111,0,0,0,0,0,0,0,0,0,-1,1336,1135,0,0
119,-111,0,0,0,0,0,0,0,0,0,-1,1343,1135,0,0
126,-111,0,0,0,0,0,0,0,0,0,-1,1350,1135,0,0
133,-111,0,0,0,0,0,0,0,0,0,-1,1357,1135,0,0
140,-111,0,0,0,0,0,0,0,0,0,-1,1364,1135,0,0
147,-111,0,0,0,0,0,0,0,0,0,-1,1371,1135,0,0
154,-111,0,0,0,0,0,0,0,0,0,-1,1378,1135,0,0
161,-111,0,0,0,0,0,0,0,0,0,-1,1385,1135,0,0
168,-111,0,0,0,0,0,0,0,0,0,-1,1392,1135,0,0
175,-111,0,0,0,0,0,0,0,0,0,-1,1399,1135,0,0
182,-111,0,0,0,0,0,0,0,0,0,-1,1406,1135,0,0
189,-111,0,0,0,0,0,0,0,0,0,-1,1413,1135,0,0
196,-111,0,0,0,0,0,0,0,0,0,-1,1420,1135,0,0
203,-111,0,0,0,0,0,0,0,0,0,-1,1427,1135,0,0
210,-111,0,0,0,0,0,0,0,0,0,-1,1434,1135,0,0
217,-111,0,0,0,0,0,0,0,0,0,-1,1441,1135,0,0
224,-111,0,0,0,0,0,0,0,0,0,-1,1448,1135,0,0
231,-111,0,0,0,0,0,0,0,0,0,-1,1455,1135,0,0
238,-111,0,0,0,0,0,0,0,0,0,-1,1462,1135,0,0
245,-111,0,0,0,0,0,0,0,0,0,-1,1469,1135,0,0
252,-111,0,0,0,0,0,0,0,0,0,-1,1476,1135,0,0
259,-111,0,0,0,0,0,0,0,0,0,-1,1483,1135,0,0
266,-111,0,0,0,0,0,0,0,0,0,-1,1490,1135,0,0
273,-111,0,0,0,0,0,0,0,0,0,-1,1497,1135,0,0
280,-111,0,0,0,0,0,0,0,0,0,-1,1504,1135,0,0
287,-111,0,0,0,0,0,0,0,0,0,-1,1511,1135,0,0
294,-111,0,0,0,0,0,0,0,0,0,-1,1518,1135,0,0
301,-111,0,0,0,0,0,0,0,0,0,-1,1525,1135,0,0
308,-111,0,0,0,0,0,0,0,0,0,-1,1532,1135,0,0
315,-111,0,0,0,0,0,0,0,0,0,-1,1539,1135,0,0
322,-111,0,0,0,0,0,0,0,0,0,-1,1546,1135,0,0
329,-111,0,0,0,0,0,0,0,0,0,-1,1553,1135,0,0
336,-111,0,0,0,0,0,0,0,0,0,-1,1560,1135,0,0
343,-111,0,0,0,0,0,0,0,0,0,-1,1567,1135,0,0
350,-111,0,0,0,0,0,0,0,0,0,-1,1574,1135,0,0
357,-111,0,0,0,0,0,0,0,0,0,-1,1581,1135,0,0
364,-111,0,0,0,0,0,0,0,0,0,-1,1588,1135,0,0
371,-111,0,0,0,0,0,0,0,0,0,-1,1595,1135,0,0
378,-111,0,0,0,0,0,0,0,0,0,-1,1602,1135,0,0
385,-111,0,0,0,0,0,0,0,0,0,-1,1609,1135,0,0
392,-111,0,0,0,0,0,0,0,0,0,-1,1616,1135,0,0
399,-111,0,0,0,0,0,0,0,0,0,-1,1623,1135,0,0
406,-111,0,0,0,0,0,0,0,0,0,-1,1630,1135,0,0
413,-111,0,0,0,0,0,0,0,0,0,-1,1637,1135,0,0
420,-111,0,0,0,0,0,0,0,0,0,-1,1644,1135,0,0
427,-111,0,0,0,0,0,0,0,0,0,-1,1651,1135,0,0
434,-111,0,0,0,0,0,0,0,0,0,-1,1658,1135,0,0
441,-111,0,0,0,0,0,0,0,0,0,-1,1665,1135,0,0
448,-111,0,0,0,0,0,0,0,0,0,-1,1672,1135,0,0
455,-111,0,0,0,0,0,0,0,0,0,-1,1679,1135,0,0
462,-111,0,0,0,0,0,0,0,0,0,-1,1686,1135,0,0
469,-111,0,0,0,0,0,0,0,0,0,-1,1693,1135,0,0
476,-111,0,0,0,0,0,0,0,0,0,-1,1700,1135,0,0
483,-111,0,0,0,0,0,0,0,0,0,-1,1707,1135,0,0
490,-111,0,0,0,0,0,0,0,0,0,-1,1714,1135,0,0
497,-111,0,0,0,0,0,0,0,0,0,-1,1721,1135,0,0
504,-111,0,0,0,0,0,0,0,0,0,-1,1728,1135,0,0
511,-111,0,0,0,0,0,0,0,0,0,-1,1735,1135,0,0
518,-111,0,0,0,0,0,0,0,0,0,-1,1742,1135,0,0
525,-111,0,0,0,0,0,0,0,0,0,-1,1749,1135,0,0
532,-111,0,0,0,0,0,0,0,0,0,-1,1756,1135,0,0
539,-111,0,0,0,0,0,0,0,0,0,-1,1763,1135,0,0
546,-111,0,0,0,0,0,0,0,0,0,-1,1770,1135,0,0
553,-111,0,0,0,0,0,0,0,0,0,-1,1777,1135,0,0
560,-111,0,0,0,0,0,0,0,0,0,-1,1784,1135,0,0
567,-111,0,0,0,0,0,0,0,0,0,-1,1791,1135,0,0
574,-111,0,0,0,0,0,0,0,0,0,-1,1798,1135,0,0
581,-111,0,0,0,0,0,0,0,0,0,-1,1805,1135,0,0
588,-111,0,0,0,0,0,0,0,0,0,-1,1812,1135,0,0
595,-111,0,0,0,0,0,0,0,0,0,-1,1819,1135,0,0
602,-111,0,0,0,0,0,0,0,0,0,-1,1826,1135,0,0
609,-111,0,0,0,0,0,0,0,0,0,-1,1833,1135,0,0
616,-111,0,0,0,0,0,0,0,0,0,-1,1840,1135,0,0
623,-111,0,0,0,0,0,0,0,0,0,-1,1847,1135,0,0
630,-111,0,0,0,0,0,0,0,0,0,-1,1854,1135,0,0
637,-111,0,0,0,0,0,0,0,0,0,-1,1861,1135,0,0
644,-111,15.0831,2.42773,-0.0029119,-0.00213439,-0.000499084,-0.00189052,-0.00315577,-1.11628,0.00183386,0.0393281,1868,1135,15.0831,-2.42771
651,-111,15.2478,2.55664,-0.00221285,-0.00127686,-0.000739631,-0.000869602,-0.00262011,-1.06747,0.00154096,0.0397942,1875,1135,15.2478,-2.55668
658,-111,15.2002,2.65918,-0.00148453,-0.000541668,-0.000965468,6.13191e-05,-0.00208752,-1.01252,0.00141256,0.0419159,1882,1135,15.2002,-2.65923
665,-111,15.3285,2.50952,-0.00126067,-0.000254267,-0.000672462,8.24233e-05,-0.00159736,-1.1066,0.00109342,0.0438757,1889,1135,15.3284,-2.50955
672,-111,15.2288,2.20178,-0.00184607,-0.000447584,0.00031502,-0.000379899,-0.00191376,1.35916,0.00116995,0.0430724,1896,1135,15.2288,-2.20179
679,-111,15.1077,2.30237,-0.00269048,-0.000788668,0.00137622,-6.67926e-05,-0.00341235,1.08771,0.00225297,0.0391976,1903,1135,15.1076,-2.30232
686,-111,14.9922,2.38611,-0.00355741,-0.00117705,0.00235054,0.000267453,-0.00500191,1.01975,0.00342724,0.0376602,1910,1135,14.9922,-2.38614
693,-111,15.0322,2.34314,-0.00433095,-0.00152295,0.00316996,0.000540018,-0.00639392,0.993868,0.00445355,0.0358566,1917,1135,15.0322,-2.3431
700,-111,15.12,2.2981,-0.00498003,-0.00171742,0.00372964,0.00072207,-0.00741952,0.991557,0.00520376,0.0262828,1924,1135,15.1199,-2.29811
707,-111,15.0598,2.36279,0,0,0,0,0,0,0,-1,1931,1135,15.0598,-2.3628
714,-111,14.7648,2.85327,-0.00537499,-0.00190978,0.0044611,0.00114336,-0.00842813,0.970623,0.00603608,0.020209,1938,1135,14.7648,-2.85323
721,-111,14.5496,3.29285,-0.00551261,-0.00188508,0.00454618,0.00119579,-0.00859348,0.975205,0.00616635,0.0129165,1945,1135,14.5496,-3.29284
728,-111,14.54,3.24121,-0.00519581,-0.00175854,0.00422406,0.00108313,-0.00803748,0.978604,0.00575345,0.0158472,1952,1135,14.54,-3.24117
735,-111,14.5237,3.17334,-0.00458014,-0.00137749,0.00373691,0.00108674,-0.00704437,0.987821,0.00509726,0.0149387,1959,1135,14.5237,-3.17329
742,-111,14.5093,3.15613,-0.00361576,-0.000556885,0.00321208,0.00147129,-0.00564393,1.00759,0.00433705,0.0106873,1966,1135,14.5093,-3.1561
749,-111,14.4736,3.11987,-0.00195546,0.000510916,0.00220125,0.00180088,-0.00324542,1.04073,0.002953,0.0147369,1973,1135,14.4736,-3.1199
756,-111,14.4603,3.05078,0.000135295,0.00204869,0.00105284,0.00251458,-0.000330593,1.15419,0.00179675,0.0153308,1980,1135,14.4603,-3.05081
763,-111,14.4866,2.98865,0.00265063,0.00366031,-0.000151129,0.00368245,0.0026285,-1.42536,0.00218989,0.0125839,1987,1135,14.4866,-2.98868
770,-111,14.4818,2.96204,0.0053153,0.00558661,-0.00135355,0.00681128,0.00409062,-0.835343,0.00395892,0.0101264,1994,1135,14.4818,-2.96201
777,-111,14.5016,2.90186,0.00796789,0.00764802,-0.00222664,0.0100403,0.00557558,-0.749545,0.0058086,0.0214956,2001,1135,14.5016,-2.90181
784,-111,14.6864,2.13098,0,0,0,0,0,0,0,-1,2008,1135,14.6864,-2.13095
791,-111,14.7146,2.19055,0.0143587,0.0126621,-0.00392475,0.0175258,0.00949502,-0.678968,0.0101303,0.0447887,2015,1135,14.7146,-2.19056
798,-111,14.7384,2.11133,0.0184587,0.015622,-0.00504279,0.0222788,0.0118019,-0.648309,0.0128702,0.0462219,2022,1135,14.7384,-2.1113
805,-111,14.7612,2.35547,0.0231567,0.0187538,-0.00637727,0.0277018,0.0142087,-0.6192,0.0159954,0.0441551,2029,1135,14.7613,-2.35551
812,-111,14.7915,2.48328,0.0285498,0.021852,-0.00791731,0.0337974,0.0166045,-0.585318,0.0195139,0.0423803,2036,1135,14.7915,-2.48322
-700,-118,0,0,0,0,0,0,0,0,0,-1,524,1142,0,0
-693,-118,-6.60614,-3.01843,0,0,0,0,0,0,0,-1,531,1142,-6.60617,3.01845
-686,-118,-13.9913,-0.388794,0,0,0,0,0,0,0,-1,538,1142,-13.9913,0.388852
-679,-118,-12.522,-0.461182,0.139416,0.00973335,0.0262664,0.144534,0.00461526,0.192442,0.094855,0.0443644,545,1142,-12.522,0.461225
-672,-118,-11.0243,-0.420776,0.11365,0.00637301,0.0199441,0.117238,0.00278518,0.177991,0.0772471,0.0440717,552,1142,-11.0243,0.420719
-665,-118,-10.0324,-0.524048,0,0,0,0,0,0,0,-1,559,1142,-10.0324,0.524082
-658,-118,-8.47021,0.381104,0.0666236,0.00243997,0.0104089,0.0682695,0.000794135,0.15682,0.0452506,0.0440888,566,1142,-8.47025,-0.381162
-651,-118,-8.41852,0.508423,0.0480486,0.00140954,0.00711816,0.0491108,0.000347344,0.148131,0.0326254,0.0381511,573,1142,-8.41849,-0.508411
-644,-118,-8.44977,0.695801,0.0337927,0.000785294,0.00466999,0.0344407,0.000137292,0.137879,0.0229148,0.0246658,580,1142,-8.44978,-0.695749
-637,-118,-8.4837,0.825317,0.0224182,-7.90077e-05,0.00240264,0.022672,-0.000332741,0.105216,0.0152268,0.0135761,587,1142,-8.4837,-0.825326
-630,-118,-8.49268,0.893066,0.0135976,-0.000629115,0.000391167,0.0136083,-0.000639862,0.0274676,0.00929286,0.0174137,594,1142,-8.49267,-0.893056
-623,-118,-8.48029,0.958618,0.0048772,-0.000895066,-0.00162469,0.00530308,-0.00132094,-0.256358,0.00404818,0.0152794,601,1142,-8.48029,-0.95862
-616,-118,-8.49756,1.03845,-0.00101307,-0.00143826,-0.00330743,0.0020886,-0.00453992,-0.753303,0.00391324,0.0131679,608,1142,-8.49754,-1.03844
-609,-118,-8.50531,1.10303,-0.0036436,-0.00166819,-0.00425984,0.00171695,-0.00702874,-0.899317,0.00535077,0.0135881,615,1142,-8.5053,-1.103
-602,-118,-8.51672,1.19202,-0.00490032,-0.00182401,-0.00520744,0.00206769,-0.00879202,-0.929003,0.00665846,0.0130241,622,1142,-8.51672,-1.19199
-595,-118,-8.54565,1.2533,-0.00593538,-0.00218037,-0.00597462,0.0022048,-0.0103205,-0.937636,0.00772095,0.0112667,629,1142,-8.54566,-1.25327
-588,-118,-8.42926,1.36487,-0.00647588,-0.00248051,-0.00633477,0.0021641,-0.0111205,-0.938139,0.00823042,0.017571,636,1142,-8.42925,-1.36485
-581,-118,-8.62207,0.898804,-0.00674739,-0.00256524,-0.00625253,0.00193662,-0.0112492,-0.946769,0.00822142,0.0388205,643,1142,-8.6221,-0.898809
-574,-118,-8.90961,0.384277,0,0,0,0,0,0,0,-1,650,1142,-8.90962,-0.38424
-567,-118,-9.01355,0.427734,-0.00670472,-0.00228724,-0.00501787,0.000986501,-0.00997846,-0.992725,0.00700434,0.0419587,657,1142,-9.01358,-0.427789
-560,-118,-8.98004,0.441406,-0.00608403,-0.00182479,-0.00364756,0.000269328,-0.00817815,-1.04963,0.00554405,0.0370385,664,1142,-8.98002,-0.441423
-553,-118,-8.79132,0.247314,-0.00499933,-0.00110195,-0.00167526,-0.000480841,-0.00562044,-1.21575,0.00359741,0.037926,671,1142,-8.79131,-0.247302
-546,-118,-8.9613,0.458862,-0.00344663,-0.000113064,0.000917396,0.000122725,-0.00368242,1.31922,0.00249686,0.0375186,678,1142,-8.96133,-0.458895
-539,-118,-9.06866,0.565552,-0.0013842,0.00116034,0.00414144,0.00422053,-0.00444439,0.934425,0.00500325,0.0411544,685,1142,-9.06867,-0.565538
-532,-118,-9.06116,0.723999,0.000767783,0.00258871,0.00739953,0.00913358,-0.00577709,0.846612,0.00868108,0.0398044,692,1142,-9.06118,-0.72395
-525,-118,-9.16553,0.888916,0.000927175,0.00360011,0.00888547,0.0112491,-0.00672178,0.860044,0.0104846,0.0416523,699,1142,-9.16551,-0.888855
-518,-118,0,0,0,0,0,0,0,0,0,-1,706,1142,0,0
-511,-118,0,0,0,0,0,0,0,0,0,-1,713,1142,0,0
-504,-118,0,0,0,0,0,0,0,0,0,-1,720,1142,0,0
-497,-118,0,0,0,0,0,0,0,0,0,-1,727,1142,0,0
-490,-118,0,0,0,0,0,0,0,0,0,-1,734,1142,0,0
-483,-118,0,0,0,0,0,0,0,0,0,-1,741,1142,0,0
-476,-118,0,0,0,0,0,0,0,0,0,-1,748,1142,0,0
-469,-118,0,0,0,0,0,0,0,0,0,-1,755,1142,0,0
-462,-118,0,0,0,0,0,0,0,0,0,-1,762,1142,0,0
-455,-118,0,0,0,0,0,0,0,0,0,-1,769,1142,0,0
-448,-118,0,0,0,0,0,0,0,0,0,-1,776,1142,0,0
-441,-118,0,0,0,0,0,0,0,0,0,-1,783,1142,0,0
-434,-118,0,0,0,0,0,0,0,0,0,-1,790,1142,0,0
-427,-118,0,0,0,0,0,0,0,0,0,-1,797,1142,0,0
-420,-118,0,0,0,0,0,0,0,0,0,-1,804,1142,0,0
-413,-118,0,0,0,0,0,0,0,0,0,-1,811,1142,0,0
-406,-118,0,0,0,0,0,0,0,0,0,-1,818,1142,0,0
-399,-118,0,0,0,0,0,0,0,0,0,-1,825,1142,0,0
-392,-118,0,0,0,0,0,0,0,0,0,-1,832,1142,0,0
-385,-118,0,0,0,0,0,0,0,0,0,-1,839,1142,0,0
-378,-118,0,0,0,0,0,0,0,0,0,-1,846,1142,0,0
-371,-118,0,0,0,0,0,0,0,0,0,-1,853,1142,0,0
-364,-118,0,0,0,0,0,0,0,0,0,-1,860,1142,0,0
-357,-118,0,0,0,0,0,0,0,0,0,-1,867,1142,0,0
-350,-118,0,0,0,0,0,0,0,0,0,-1,874,1142,0,0
-343,-118,0,0,0,0,0,0,0,0,0,-1,881,1142,0,0
-336,-118,0,0,0,0,0,0,0,0,0,-1,888,1142,0,0
-329,-118,0,0,0,0,0,0,0,0,0,-1,895,1142,0,0
-322,-118,0,0,0,0,0,0,0,0,0,-1,902,1142,0,0
-315,-118,0,0,0,0,0,0,0,0,0,-1,909,1142,0,0
-308,-118,0,0,0,0,0,0,0,0,0,-1,916,1142,0,0
-301,-118,0,0,0,0,0,0,0,0,0,-1,923,1142,0,0
-294,-118,0,0,0,0,0,0,0,0,0,-1,930,1142,0,0
-287,-118,0,0,0,0,0,0,0,0,0,-1,937,1142,0,0
-280,-118,0,0,0,0,0,0,0,0,0,-1,944,1142,0,0
-273,-118,0,0,0,0,0,0,0,0,0,-1,951,1142,0,0
-266,-118,0,0,0,0,0,0,0,0,0,-1,958,1142,0,0
-259,-118,0,0,0,0,0,0,0,0,0,-1,965,1142,0,0
-252,-118,0,0,0,0,0,0,0,0,0,-1,972,1142,0,0
-245,-118,0,0,0,0,0,0,0,0,0,-1,979,1142,0,0
-238,-118,0,0,0,0,0,0,0,0,0,-1,986,1142,0,0
-231,-118,0,0,0,0,0,0,0,0,0,-1,993,1142,0,0
-224,-118,0,0,0,0,0,0,0,0,0,-1,1000,1142,0,0
-217,-118,0,0,0,0,0,0,0,0,0,-1,1007,1142,0,0
-210,-118,0,0,0,0,0,0,0,0,0,-1,1014,1142,0,0
-203,-118,0,0,0,0,0,0,0,0,0,-1,1021,1142,0,0
-196,-118,0,0,0,0,0,0,0,0,0,-1,1028,1142,0,0
-189,-118,0,0,0,0,0,0,0,0,0,-1,1035,1142,0,0
-182,-118,0,0,0,0,0,0,0,0,0,-1,1042,1142,0,0
-175,-118,0,0,0,0,0,0,0,0,0,-1,1049,1142,0,0
-168,-118,0,0,0,0,0,0,0,0,0,-1,1056,1142,0,0
-161,-118,0,0,0,0,0,0,0,0,0,-1,1063,1142,0,0
-154,-118,0,0,0,0,0,0,0,0,0,-1,1070,1142,0,0
-147,-118,0,0,0,0,0,0,0,0,0,-1,1077,1142,0,0
-140,-118,0,0,0,0,0,0,0,0,0,-1,1084,1142,0,0
-133,-118,0,0,0,0,0,0,0,0,0,-1,1091,1142,0,0
-126,-118,0,0,0,0,0,0,0,0,0,-1,1098,1142,0,0
-119,-118,0,0,0,0,0,0,0,0,0,-1,1105,1142,0,0
-112,-118,0,0,0,0,0,0,0,0,0,-1,1112,1142,0,0
-105,-118,0,0,0,0,0,0,0,0,0,-1,1119,1142,0,0
-98,-118,0,0,0,0,0,0,0,0,0,-1,1126,1142,0,0
-91,-118,0,0,0,0,0,0,0,0,0,-1,1133,1142,0,0
-84,-118,0,0,0,0,0,0,0,0,0,-1,1140,1142,0,0
-77,-118,0,0,0,0,0,0,0,0,0,-1,1147,1142,0,0
-70,-118,0,0,0,0,0,0,0,0,0,-1,1154,1142,0,0
-63,-118,0,0,0,0,0,0,0,0,0,-1,1161,1142,0,0
-56,-118,0,0,0,0,0,0,0,0,0,-1,1168,1142,0,0
-49,-118,0,0,0,0,0,0,0,0,0,-1,1175,1142,0,0
-42,-118,0,0,0,0,0,0,0,0,0,-1,1182,1142,0,0
-35,-118,0,0,0,0,0,0,0,0,0,-1,1189,1142,0,0
-28,-118,0,0,0,0,0,0,0,0,0,-1,1196,1142,0,0
-21,-118,0,0,0,0,0,0,0,0,0,-1,1203,1142,0,0
-14,-118,0,0,0,0,0,0,0,0,0,-1,1210,1142,0,0
-7,-118,0,0,0,0,0,0,0,0,0,-1,1217,1142,0,0
0,-118,0,0,0,0,0,0,0,0,0,-1,1224,1142,0,0
7,-118,0,0,0,0,0,0,0,0,0,-1,1231,1142,0,0
14,-118,0,0,0,0,0,0,0,0,0,-1,1238,1142,0,0
21,-118,0,0,0,0,0,0,0,0,0,-1,1245,1142,0,0
28,-118,0,0,0,0,0,0,0,0,0,-1,1252,1142,0,0
35,-118,0,0,0,0,0,0,0,0,0,-1,1259,1142,0,0
42,-118,0,0,0,0,0,0,0,0,0,-1,1266,1142,0,0
49,-118,0,0,0,0,0,0,0,0,0,-1,1273,1142,0,0
56,-118,0,0,0,0,0,0,0,0,0,-1,1280,1142,0,0
63,-118,0,0,0,0,0,0,0,0,0,-1,1287,1142,0,0
70,-118,0,0,0,0,0,0,0,0,0,-1,1294,1142,0,0
77,-118,0,0,0,0,0,0,0,0,0,-1,1301,1142,0,0
84,-118,0,0,0,0,0,0,0,0,0,-1,1308,1142,0,0
91,-118,0,0,0,0,0,0,0,0,0,-1,1315,1142,0,0
98,-118,0,0,0,0,0,0,0,0,0,-1,1322,1142,0,0
105,-118,0,0,0,0,0,0,0,0,0,-1,1329,1142,0,0
112,-118,0,0,0,0,0,0,0,0,0,-1,1336,1142,0,0
119,-118,0,0,0,0,0,0,0,0,0,-1,1343,1142,0,0
126,-118,0,0,0,0,0,0,0,0,0,-1,1350,1142,0,0
133,-118,0,0,0,0,0,0,0,0,0,-1,1357,1142,0,0
140,-118,0,0,0,0,0,0,0,0,0,-1,1364,1142,0,0
147,-118,0,0,0,0,0,0,0,0,0,-1,1371,1142,0,0
154,-118,0,0,0,0,0,0,0,0,0,-1,1378,1142,0,0
161,-118,0,0,0,0,0,0,0,0,0,-1,1385,1142,0,0
168,-118,0,0,0,0,0,0,0,0,0,-1,1392,1142,0,0
175,-118,0,0,0,0,0,0,0,0,0,-1,1399,1142,0,0
182,-118,0,0,0,0,0,0,0,0,0,-1,1406,1142,0,0
189,-118,0,0,0,0,0,0,0,0,0,-1,1413,1142,0,0
196,-118,0,0,0,0,0,0,0,0,0,-1,1420,1142,0,0
203,-118,0,0,0,0,0,0,0,0,0,-1,1427,1142,0,0
210,-118,0,0,0,0,0,0,0,0,0,-1,1434,1142,0,0
217,-118,0,0,0,0,0,0,0,0,0,-1,1441,1142,0,0
224,-118,0,0,0,0,0,0,0,0,0,-1,1448,1142,0,0
231,-118,0,0,0,0,0,0,0,0,0,-1,1455,1142,0,0
238,-118,0,0,0,0,0,0,0,0,0,-1,1462,1142,0,0
245,-118,0,0,0,0,0,0,0,0,0,-1,1469,1142,0,0
252,-118,0,0,0,0,0,0,0,0,0,-1,1476,1142,0,0
259,-118,0,0,0,0,0,0,0,0,0,-1,1483,1142,0,0
266,-118,0,0,0,0,0,0,0,0,0,-1,1490,1142,0,0
273,-118,0,0,0,0,0,0,0,0,0,-1,1497,1142,0,0
280,-118,0,0,0,0,0,0,0,0,0,-1,1504,1142,0,0
287,-118,0,0,0,0,0,0,0,0,0,-1,1511,1142,0,0
294,-118,0,0,0,0,0,0,0,0,0,-1,1518,1142,0,0
301,-118,0,0,0,0,0,0,0,0,0,-1,1525,1142,0,0
308,-118,0,0,0,0,0,0,0,0,0,-1,1532,1142,0,0
315,-118,0,0,0,0,0,0,0,0,0,-1,1539,1142,0,0
322,-118,0,0,0,0,0,0,0,0,0,-1,1546,1142,0,0
329,-118,0,0,0,0,0,0,0,0,0,-1,1553,1142,0,0
336,-118,0,0,0,0,0,0,0,0,0,-1,1560,1142,0,0
343,-118,0,0,0,0,0,0,0,0,0,-1,1567,1142,0,0
350,-118,0,0,0,0,0,0,0,0,0,-1,1574,1142,0,0
357,-118,0,0,0,0,0,0,0,0,0,-1,1581,1142,0,0
364,-118,0,0,0,0,0,0,0,0,0,-1,1588,1142,0,0
371,-118,0,0,0,0,0,0,0,0,0,-1,1595,1142,0,0
378,-118,0,0,0,0,0,0,0,0,0,-1,1602,1142,0,0
385,-118,0,0,0,0,0,0,0,0,0,-1,1609,1142,0,0
392,-118,0,0,0,0,0,0,0,0,0,-1,1616,1142,0,0
399,-118,0,0,0,0,0,0,0,0,0,-1,1623,1142,0,0
406,-118,0,0,0,0,0,0,0,0,0,-1,1630,1142,0,0
413,-118,0,0,0,0,0,0,0,0,0,-1,1637,1142,0,0
420,-118,0,0,0,0,0,0,0,0,0,-1,1644,1142,0,0
427,-118,0,0,0,0,0,0,0,0,0,-1,1651,1142,0,0
434,-118,0,0,0,0,0,0,0,0,0,-1,1658,1142,0,0
441,-118,0,0,0,0,0,0,0,0,0,-1,1665,1142,0,0
448,-118,0,0,0,0,0,0,0,0,0,-1,1672,1142,0,0
455,-118,0,0,0,0,0,0,0,0,0,-1,1679,1142,0,0
462,-118,0,0,0,0,0,0,0,0,0,-1,1686,1142,0,0
469,-118,0,0,0,0,0,0,0,0,0,-1,1693,1142,0,0
476,-118,0,0,0,0,0,0,0,0,0,-1,1700,1142,0,0
483,-118,0,0,0,0,0,0,0,0,0,-1,1707,1142,0,0
490,-118,0,0,0,0,0,0,0,0,0,-1,1714,1142,0,0
497,-118,0,0,0,0,0,0,0,0,0,-1,1721,1142,0,0
504,-118,0,0,0,0,0,0,0,0,0,-1,1728,1142,0,0
511,-118,0,0,0,0,0,0,0,0,0,-1,1735,1142,0,0
518,-118,0,0,0,0,0,0,0,0,0,-1,1742,1142,0,0
525,-118,0,0,0,0,0,0,0,0,0,-1,1749,1142,0,0
532,-118,0,0,0,0,0,0,0,0,0,-1,1756,1142,0,0
539,-118,0,0,0,0,0,0,0,0,0,-1,1763,1142,0,0
546,-118,0,0,0,0,0,0,0,0,0,-1,1770,1142,0,0
553,-118,0,0,0,0,0,0,0,0,0,-1,1777,1142,0,0
560,-118,0,0,0,0,0,0,0,0,0,-1,1784,1142,0,0
567,-118,0,0,0,0,0,0,0,0,0,-1,1791,1142,0,0
574,-118,0,0,0,0,0,0,0,0,0,-1,1798,1142,0,0
581,-118,0,0,0,0,0,0,0,0,0,-1,1805,1142,0,0
588,-118,0,0,0,0,0,0,0,0,0,-1,1812,1142,0,0
595,-118,0,0,0,0,0,0,0,0,0,-1,1819,1142,0,0
602,-118,0,0,0,0,0,0,0,0,0,-1,1826,1142,0,0
609,-118,0,0,0,0,0,0,0,0,0,-1,1833,1142,0,0
616,-118,0,0,0,0,0,0,0,0,0,-1,1840,1142,0,0
623,-118,0,0,0,0,0,0,0,0,0,-1,1847,1142,0,0
630,-118,0,0,0,0,0,0,0,0,0,-1,1854,1142,0,0
637,-118,0,0,0,0,0,0,0,0,0,-1,1861,1142,0,0
644,-118,15.1886,2.57593,-0.00304004,-0.000951697,-0.000689279,-0.000744709,-0.00324702,-1.27907,0.00196408,0.040002,1868,1142,15.1886,-2.57588
651,-118,15.3226,2.61597,-0.00228843,-0.00035525,-0.000968964,4.6804e-05,-0.00269049,-1.17748,0.00180946,0.0405799,1875,1142,15.3226,-2.61591
658,-118,15.0568,2.46851,-0.00166499,0.000168431,-0.0010923,0.000677725,-0.00217428,-1.13451,0.00172051,0.0399472,1882,1142,15.0568,-2.46855
665,-118,15.1393,2.39758,-0.00166267,0.000216666,-0.000602439,0.000393201,-0.00183921,-1.28574,0.00137606,0.0411137,1889,1142,15.1393,-2.39764
672,-118,15.1227,2.28442,-0.0024075,-0.000152107,0.000482878,-5.30722e-05,-0.00250654,1.36851,0.00165362,0.0450643,1896,1142,15.1227,-2.28448
679,-118,15.0305,2.3324,-0.00332117,-0.000621717,0.0015849,0.000110301,-0.00405319,1.13811,0.00273963,0.0421835,1903,1142,15.0305,-2.33239
686,-118,15.0679,2.34436,-0.00422207,-0.0011027,0.00256869,0.000342739,-0.00566751,1.05824,0.00389761,0.034503,1910,1142,15.0678,-2.3444
693,-118,15.0643,2.35168,-0.00498588,-0.00151453,0.00336754,0.000538315,-0.00703873,1.02335,0.00488183,0.0324998,1917,1142,15.0644,-2.35167
700,-118,15.0892,2.30591,-0.00559074,-0.00176836,0.0038861,0.000651087,-0.00801018,1.01393,0.00556985,0.0198574,1924,1142,15.0892,-2.30596
707,-118,15.0886,2.52551,0,0,0,0,0,0,0,-1,1931,1142,15.0886,-2.52557
714,-118,14.7599,2.94519,-0.00587373,-0.002026,0.00456853,0.00100722,-0.00890696,0.984685,0.00630061,0.0311415,1938,1142,14.7599,-2.94514
721,-118,14.4728,3.29443,-0.00591388,-0.00199013,0.00459308,0.00104253,-0.00894654,0.987238,0.0063405,0.0105847,1945,1142,14.4728,-3.29446
728,-118,14.4797,3.24377,-0.005434,-0.00184523,0.00419097,0.000919338,-0.00819857,0.987668,0.00579651,0.0127117,1952,1142,14.4797,-3.24382
735,-118,14.4705,3.2002,-0.00457628,-0.0014922,0.00354018,0.000827212,-0.00689569,0.990798,0.00489621,0.0120464,1959,1142,14.4705,-3.20021
742,-118,14.4694,3.16956,-0.0033401,-0.000658304,0.00284378,0.00114485,-0.00514326,1.0057,0.00386736,0.0191765,1966,1142,14.4694,-3.1696
749,-118,14.475,3.06531,-0.00136604,0.000506243,0.00152673,0.00136099,-0.00222079,1.06042,0.0020877,0.0206319,1973,1142,14.475,-3.06528
756,-118,14.4457,3.04333,0.00104672,0.00231339,-3.84939e-05,0.00231456,0.00104555,-1.54044,0.00133839,0.0176558,1980,1142,14.4457,-3.0433
763,-118,14.4573,2.98657,0.00384046,0.00423653,-0.00171197,0.00576188,0.00231511,-0.84298,0.00334794,0.00924388,1987,1142,14.4572,-2.98656
770,-118,14.4451,2.95264,0.0067687,0.00650001,-0.00343287,0.0100698,0.00319885,-0.765841,0.00594129,0.0105675,1994,1142,14.4451,-2.95268
777,-118,14.443,2.89233,0.0096451,0.00903608,-0.00496562,0.0143155,0.00436564,-0.754775,0.0084721,0.0240637,2001,1142,14.443,-2.89235
784,-118,14.6184,2.59448,0.0127535,0.0120445,-0.00654854,0.0189571,0.00584089,-0.758356,0.0112104,0.0410658,2008,1142,14.6184,-2.59443
791,-118,14.808,2.26514,0.0162731,0.015623,-0.00837831,0.0243327,0.00756347,-0.766011,0.0143797,0.0470822,2015,1142,14.808,-2.26511
798,-118,14.8013,2.33179,0.0202141,0.0197748,-0.0104646,0.0304614,0.00952752,-0.774905,0.0179932,0.0497196,2022,1142,14.8013,-2.33181
805,-118,14.8571,2.42847,0.0244473,0.024446,-0.0127666,0.0372133,0.01168,-0.785371,0.0219757,0.0478882,2029,1142,14.857,-2.42847
812,-118,14.9153,2.50732,0.0289192,0.0295304,-0.0151679,0.0443958,0.0140538,-0.79547,0.0262007,0.0489171,2036,1142,14.9153,-2.50732
-700,-125,0,0,0,0,0,0,0,0,0,-1,524,1149,0,0
-693,-125,-11.9795,-3.93762,0,0,0,0,0,0,0,-1,531,1149,-11.9795,3.93759
-686,-125,-7.42126,-0.154053,0,0,0,0,0,0,0,-1,538,1149,-7.42126,0.154108
-679,-125,-11.2229,-0.366455,0,0,0,0,0,0,0,-1,545,1149,-11.2229,0.366462
-672,-125,-10.7741,-0.362549,0.113592,0.000729199,0.0105425,0.114568,-0.000247128,0.0923452,0.0764614,0.0406044,552,1149,-10.7741,0.362589
-665,-125,-9.84247,-0.366211,0.0869777,-0.000547038,0.0073919,0.0875976,-0.00116693,0.0836653,0.0587912,0.0417191,559,1149,-9.84247,0.366175
-658,-125,-8.93256,-0.336792,0,0,0,0,0,0,0,-1,566,1149,-8.93253,0.336848
-651,-125,-8.34528,0.666138,0.0458871,-0.00111927,0.00321862,0.0461065,-0.00133863,0.0680486,0.0311934,0.0387371,573,1149,-8.34527,-0.666167
-644,-125,-8.37994,0.73291,0.0315924,-0.000972861,0.001964,0.0317104,-0.00109088,0.0600196,0.0215131,0.0243318,580,1149,-8.37995,-0.732963
-637,-125,-8.37933,0.797852,0.0208168,-0.00108468,0.000768128,0.0208437,-0.00111159,0.0350147,0.0142807,0.0124931,587,1149,-8.37932,-0.797834
-630,-125,-8.3924,0.887817,0.0127482,-0.00114479,-0.000501549,0.0127663,-0.00116287,-0.0360382,0.0089238,0.0142224,594,1149,-8.39241,-0.887822
-623,-125,-8.39258,0.963135,0.00461482,-0.00114507,-0.00205185,0.005271,-0.00180125,-0.30952,0.00424381,0.0130387,601,1149,-8.39256,-0.963176
-616,-125,-8.39453,1.03772,-0.00103815,-0.00144891,-0.00351289,0.00227535,-0.00476241,-0.756199,0.00414697,0.0119892,608,1149,-8.39453,-1.03778
-609,-125,-8.42108,1.09668,-0.00385365,-0.00167041,-0.00440138,0.0017727,-0.00729676,-0.906954,0.00555058,0.0125342,615,1149,-8.4211,-1.09662
-602,-125,-8.44867,1.18164,-0.00531887,-0.0017281,-0.00533507,0.00210558,-0.00915255,-0.947709,0.00691131,0.0120773,622,1149,-8.44866,-1.18169
-595,-125,-8.45117,1.28137,-0.00649888,-0.0020824,-0.00612699,0.00222214,-0.0108034,-0.958358,0.00804594,0.0110923,629,1149,-8.45116,-1.28133
-588,-125,-8.35107,1.396,-0.00714718,-0.00237936,-0.00653209,0.00219024,-0.0117168,-0.960365,0.00863436,0.0162188,636,1149,-8.35106,-1.39596
-581,-125,-8.59521,1.14722,-0.00750347,-0.00244864,-0.00652048,0.00201711,-0.0119692,-0.970289,0.00872988,0.0369676,643,1149,-8.59522,-1.14724
-574,-125,-8.93799,0.788452,0,0,0,0,0,0,0,-1,650,1149,-8.93798,-0.788437
-567,-125,-9.05255,0.56189,-0.0075021,-0.00209875,-0.00549069,0.00131895,-0.0109198,-1.01403,0.00775698,0.0377388,657,1149,-9.05257,-0.561929
-560,-125,-9.08606,0.476929,-0.00688147,-0.00162284,-0.00425369,0.000748565,-0.00925287,-1.06222,0.00643264,0.037046,664,1149,-9.08608,-0.476944
-553,-125,-9.09106,0.418457,-0.00572658,-0.000886298,-0.00242789,0.000121638,-0.00673452,-1.1773,0.00453077,0.0380468,671,1149,-9.09104,-0.418433
-546,-125,-9.26624,0.433105,-0.00401435,0.000124571,-2.72862e-06,0.000124573,-0.00401435,-1.57014,0.00271871,0.0375766,678,1149,-9.26626,-0.433062
-539,-125,-9.2439,0.488281,-0.00168247,0.00144622,0.00303313,0.00329465,-0.0035309,1.02348,0.00394152,0.0394871,685,1149,-9.24387,-0.488319
-532,-125,-9.00714,0.616211,0.00101476,0.0030178,0.00622185,0.00831822,-0.00428566,0.865197,0.00739997,0.0380369,692,1149,-9.00712,-0.616157
-525,-125,-9.1449,0.755127,0.00213113,0.00430867,0.00787134,0.0111662,-0.00472639,0.854123,0.00942333,0.039861,699,1149,-9.14487,-0.755129
-518,-125,0,0,0,0,0,0,0,0,0,-1,706,1149,0,0
-511,-125,0,0,0,0,0,0,0,0,0,-1,713,1149,0,0
-504,-125,0,0,0,0,0,0,0,0,0,-1,720,1149,0,0
-497,-125,0,0,0,0,0,0,0,0,0,-1,727,1149,0,0
-490,-125,0,0,0,0,0,0,0,0,0,-1,734,1149,0,0
-483,-125,0,0,0,0,0,0,0,0,0,-1,741,1149,0,0
-476,-125,0,0,0,0,0,0,0,0,0,-1,748,1149,0,0
-469,-125,0,0,0,0,0,0,0,0,0,-1,755,1149,0,0
-462,-125,0,0,0,0,0,0,0,0,0,-1,762,1149,0,0
-455,-125,0,0,0,0,0,0,0,0,0,-1,769,1149,0,0
-448,-125,0,0,0,0,0,0,0,0,0,-1,776,1149,0,0
-441,-125,0,0,0,0,0,0,0,0,0,-1,783,1149,0,0
-434,-125,0,0,0,0,0,0,0,0,0,-1,790,1149,0,0
-427,-125,0,0,0,0,0,0,0,0,0,-1,797,1149,0,0
-420,-125,0,0,0,0,0,0,0,0,0,-1,804,1149,0,0
-413,-125,0,0,0,0,0,0,0,0,0,-1,811,1149,0,0
-406,-125,0,0,0,0,0,0,0,0,0,-1,818,1149,0,0
-399,-125,0,0,0,0,0,0,0,0,0,-1,825,1149,0,0
-392,-125,0,0,0,0,0,0,0,0,0,-1,832,1149,0,0
-385,-125,0,0,0,0,0,0,0,0,0,-1,839,1149,0,0
-378,-125,0,0,0,0,0,0,0,0,0,-1,846,1149,0,0
-371,-125,0,0,0,0,0,0,0,0,0,-1,853,1149,0,0
-364,-125,0,0,0,0,0,0,0,0,0,-1,860,1149,0,0
-357,-125,0,0,0,0,0,0,0,0,0,-1,867,1149,0,0
-350,-125,0,0,0,0,0,0,0,0,0,-1,874,1149,0,0
-343,-125,0,0,0,0,0,0,0,0,0,-1,881,1149,0,0
-336,-125,0,0,0,0,0,0,0,0,0,-1,888,1149,0,0
-329,-125,0,0,0,0,0,0,0,0,0,-1,895,1149,0,0
-322,-125,0,0,0,0,0,0,0,0,0,-1,902,1149,0,0
-315,-125,0,0,0,0,0,0,0,0,0,-1,909,1149,0,0
-308,-125,0,0,0,0,0,0,0,0,0,-1,916,1149,0,0
-301,-125,0,0,0,0,0,0,0,0,0,-1,923,1149,0,0
-294,-125,0,0,0,0,0,0,0,0,0,-1,930,1149,0,0
-287,-125,0,0,0,0,0,0,0,0,0,-1,937,1149,0,0
-280,-125,0,0,0,0,0,0,0,0,0,-1,944,1149,0,0
-273,-125,0,0,0,0,0,0,0,0,0,-1,951,1149,0,0
-266,-125,0,0,0,0,0,0,0,0,0,-1,958,1149,0,0
-259,-125,0,0,0,0,0,0,0,0,0,-1,965,1149,0,0
-252,-125,0,0,0,0,0,0,0,0,0,-1,972,1149,0,0
-245,-125,0,0,0,0,0,0,0,0,0,-1,979,1149,0,0
-238,-125,0,0,0,0,0,0,0,0,0,-1,986,1149,0,0
-231,-125,0,0,0,0,0,0,0,0,0,-1,993,1149,0,0
-224,-125,0,0,0,0,0,0,0,0,0,-1,1000,1149,0,0
-217,-125,0,0,0,0,0,0,0,0,0,-1,1007,1149,0,0
-210,-125,0,0,0,0,0,0,0,0,0,-1,1014,1149,0,0
-203,-125,0,0,0,0,0,0,0,0,0,-1,1021,1149,0,0
-196,-125,0,0,0,0,0,0,0,0,0,-1,1028,1149,0,0
-189,-125,0,0,0,0,0,0,0,0,0,-1,1035,1149,0,0
-182,-125,0,0,0,0,0,0,0,0,0,-1,1042,1149,0,0
-175,-125,0,0,0,0,0,0,0,0,0,-1,1049,1149,0,0
-168,-125,0,0,0,0,0,0,0,0,0,-1,1056,1149,0,0
-161,-125,0,0,0,0,0,0,0,0,0,-1,1063,1149,0,0
-154,-125,0,0,0,0,0,0,0,0,0,-1,1070,1149,0,0
-147,-125,0,0,0,0,0,0,0,0,0,-1,1077,1149,0,0
-140,-125,0,0,0,0,0,0,0,0,0,-1,1084,1149,0,0
-133,-125,0,0,0,0,0,0,0,0,0,-1,1091,1149,0,0
-126,-125,0,0,0,0,0,0,0,0,0,-1,1098,1149,0,0
-119,-125,0,0,0,0,0,0,0,0,0,-1,1105,1149,0,0
-112,-125,0,0,0,0,0,0,0,0,0,-1,1112,1149,0,0
-105,-125,0,0,0,0,0,0,0,0,0,-1,1119,1149,0,0
-98,-125,0,0,0,0,0,0,0,0,0,-1,1126,1149,0,0
-91,-125,0,0,0,0,0,0,0,0,0,-1,1133,1149,0,0
-84,-125,0,0,0,0,0,0,0,0,0,-1,1140,1149,0,0
-77,-125,0,0,0,0,0,0,0,0,0,-1,1147,1149,0,0
-70,-125,0,0,0,0,0,0,0,0,0,-1,1154,1149,0,0
-63,-125,0,0,0,0,0,0,0,0,0,-1,1161,1149,0,0
-56,-125,0,0,0,0,0,0,0,0,0,-1,1168,1149,0,0
-49,-125,0,0,0,0,0,0,0,0,0,-1,1175,1149,0,0
-42,-125,0,0,0,0,0,0,0,0,0,-1,1182,1149,0,0
-35,-125,0,0,0,0,0,0,0,0,0,-1,1189,1149,0,0
-28,-125,0,0,0,0,0,0,0,0,0,-1,1196,1149,0,0
-21,-125,0,0,0,0,0,0,0,0,0,-1,1203,1149,0,0
-14,-125,0,0,0,0,0,0,0,0,0,-1,1210,1149,0,0
-7,-125,0,0,0,0,0,0,0,0,0,-1,1217,1149,0,0
0,-125,0,0,0,0,0,0,0,0,0,-1,1224,1149,0,0
7,-125,0,0,0,0,0,0,0,0,0,-1,1231,1149,0,0
14,-125,0,0,0,0,0,0,0,0,0,-1,1238,1149,0,0
21,-125,0,0,0,0,0,0,0,0,0,-1,1245,1149,0,0
28,-125,0,0,0,0,0,0,0,0,0,-1,1252,1149,0,0
35,-125,0,0,0,0,0,0,0,0,0,-1,1259,1149,0,0
42,-125,0,0,0,0,0,0,0,0,0,-1,1266,1149,0,0
49,-125,0,0,0,0,0,0,0,0,0,-1,1273,1149,0,0
56,-125,0,0,0,0,0,0,0,0,0,-1,1280,1149,0,0
63,-125,0,0,0,0,0,0,0,0,0,-1,1287,1149,0,0
70,-125,0,0,0,0,0,0,0,0,0,-1,1294,1149,0,0
77,-125,0,0,0,0,0,0,0,0,0,-1,1301,1149,0,0
84,-125,0,0,0,0,0,0,0,0,0,-1,1308,1149,0,0
91,-125,0,0,0,0,0,0,0,0,0,-1,1315,1149,0,0
98,-125,0,0,0,0,0,0,0,0,0,-1,1322,1149,0,0
105,-125,0,0,0,0,0,0,0,0,0,-1,1329,1149,0,0
112,-125,0,0,0,0,0,0,0,0,0,-1,1336,1149,0,0
119,-125,0,0,0,0,0,0,0,0,0,-1,1343,1149,0,0
126,-125,0,0,0,0,0,0,0,0,0,-1,1350,1149,0,0
133,-125,0,0,0,0,0,0,0,0,0,-1,1357,1149,0,0
140,-125,0,0,0,0,0,0,0,0,0,-1,1364,1149,0,0
147,-125,0,0,0,0,0,0,0,0,0,-1,1371,1149,0,0
154,-125,0,0,0,0,0,0,0,0,0,-1,1378,1149,0,0
161,-125,0,0,0,0,0,0,0,0,0,-1,1385,1149,0,0
168,-125,0,0,0,0,0,0,0,0,0,-1,1392,1149,0,0
175,-125,0,0,0,0,0,0,0,0,0,-1,1399,1149,0,0
182,-125,0,0,0,0,0,0,0,0,0,-1,1406,1149,0,0
189,-125,0,0,0,0,0,0,0,0,0,-1,1413,1149,0,0
196,-125,0,0,0,0,0,0,0,0,0,-1,1420,1149,0,0
203,-125,0,0,0,0,0,0,0,0,0,-1,1427,1149,0,0
210,-125,0,0,0,0,0,0,0,0,0,-1,1434,1149,0,0
217,-125,0,0,0,0,0,0,0,0,0,-1,1441,1149,0,0
224,-125,0,0,0,0,0,0,0,0,0,-1,1448,1149,0,0
231,-125,0,0,0,0,0,0,0,0,0,-1,1455,1149,0,0
238,-125,0,0,0,0,0,0,0,0,0,-1,1462,1149,0,0
245,-125,0,0,0,0,0,0,0,0,0,-1,1469,1149,0,0
252,-125,0,0,0,0,0,0,0,0,0,-1,1476,1149,0,0
259,-125,0,0,0,0,0,0,0,0,0,-1,1483,1149,0,0
266,-125,0,0,0,0,0,0,0,0,0,-1,1490,1149,0,0
273,-125,0,0,0,0,0,0,0,0,0,-1,1497,1149,0,0
280,-125,0,0,0,0,0,0,0,0,0,-1,1504,1149,0,0
287,-125,0,0,0,0,0,0,0,0,0,-1,1511,1149,0,0
294,-125,0,0,0,0,0,0,0,0,0,-1,1518,1149,0,0
301,-125,0,0,0,0,0,0,0,0,0,-1,1525,1149,0,0
308,-125,0,0,0,0,0,0,0,0,0,-1,1532,1149,0,0
315,-125,0,0,0,0,0,0,0,0,0,-1,1539,1149,0,0
322,-125,0,0,0,0,0,0,0,0,0,-1,1546,1149,0,0
329,-125,0,0,0,0,0,0,0,0,0,-1,1553,1149,0,0
336,-125,0,0,0,0,0,0,0,0,0,-1,1560,1149,0,0
343,-125,0,0,0,0,0,0,0,0,0,-1,1567,1149,0,0
350,-125,0,0,0,0,0,0,0,0,0,-1,1574,1149,0,0
357,-125,0,0,0,0,0,0,0,0,0,-1,1581,1149,0,0
364,-125,0,0,0,0,0,0,0,0,0,-1,1588,1149,0,0
371,-125,0,0,0,0,0,0,0,0,0,-1,1595,1149,0,0
378,-125,0,0,0,0,0,0,0,0,0,-1,1602,1149,0,0
385,-125,0,0,0,0,0,0,0,0,0,-1,1609,1149,0,0
392,-125,0,0,0,0,0,0,0,0,0,-1,1616,1149,0,0
399,-125,0,0,0,0,0,0,0,0,0,-1,1623,1149,0,0
406,-125,0,0,0,0,0,0,0,0,0,-1,1630,1149,0,0
413,-125,0,0,0,0,0,0,0,0,0,-1,1637,1149,0,0
420,-125,0,0,0,0,0,0,0,0,0,-1,1644,1149,0,0
427,-125,0,0,0,0,0,0,0,0,0,-1,1651,1149,0,0
434,-125,0,0,0,0,0,0,0,0,0,-1,1658,1149,0,0
441,-125,0,0,0,0,0,0,0,0,0,-1,1665,1149,0,0
448,-125,0,0,0,0,0,0,0,0,0,-1,1672,1149,0,0
455,-125,0,0,0,0,0,0,0,0,0,-1,1679,1149,0,0
462,-125,0,0,0,0,0,0,0,0,0,-1,1686,1149,0,0
469,-125,0,0,0,0,0,0,0,0,0,-1,1693,1149,0,0
476,-125,0,0,0,0,0,0,0,0,0,-1,1700,1149,0,0
483,-125,0,0,0,0,0,0,0,0,0,-1,1707,1149,0,0
490,-125,0,0,0,0,0,0,0,0,0,-1,1714,1149,0,0
497,-125,0,0,0,0,0,0,0,0,0,-1,1721,1149,0,0
504,-125,0,0,0,0,0,0,0,0,0,-1,1728,1149,0,0
511,-125,0,0,0,0,0,0,0,0,0,-1,1735,1149,0,0
518,-125,0,0,0,0,0,0,0,0,0,-1,1742,1149,0,0
525,-125,0,0,0,0,0,0,0,0,0,-1,1749,1149,0,0
532,-125,0,0,0,0,0,0,0,0,0,-1,1756,1149,0,0
539,-125,0,0,0,0,0,0,0,0,0,-1,1763,1149,0,0
546,-125,0,0,0,0,0,0,0,0,0,-1,1770,1149,0,0
553,-125,0,0,0,0,0,0,0,0,0,-1,1777,1149,0,0
560,-125,0,0,0,0,0,0,0,0,0,-1,1784,1149,0,0
567,-125,0,0,0,0,0,0,0,0,0,-1,1791,1149,0,0
574,-125,0,0,0,0,0,0,0,0,0,-1,1798,1149,0,0
581,-125,0,0,0,0,0,0,0,0,0,-1,1805,1149,0,0
588,-125,0,0,0,0,0,0,0,0,0,-1,1812,1149,0,0
595,-125,0,0,0,0,0,0,0,0,0,-1,1819,1149,0,0
602,-125,0,0,0,0,0,0,0,0,0,-1,1826,1149,0,0
609,-125,0,0,0,0,0,0,0,0,0,-1,1833,1149,0,0
616,-125,0,0,0,0,0,0,0,0,0,-1,1840,1149,0,0
623,-125,0,0,0,0,0,0,0,0,0,-1,1847,1149,0,0
630,-125,0,0,0,0,0,0,0,0,0,-1,1854,1149,0,0
637,-125,0,0,0,0,0,0,0,0,0,-1,1861,1149,0,0
644,-125,15.2749,2.7262,-0.00370635,-0.000244034,-0.000313004,-0.000215965,-0.00373442,-1.48136,0.00242084,0.0411936,1868,1149,15.2749,-2.72624
651,-125,15.2025,2.65771,-0.00280107,0.000144867,-0.000775295,0.000336446,-0.00299265,-1.32854,0.00211618,0.0407848,1875,1149,15.2025,-2.65775
658,-125,14.9054,2.24512,-0.00217554,0.000524475,-0.000955777,0.000828563,-0.00247962,-1.26277,0.00198769,0.0406383,1882,1149,14.9054,-2.2451
665,-125,14.9398,2.27734,-0.00229189,0.000399375,-0.000421168,0.000463746,-0.00235626,-1.41913,0.00174607,0.0415188,1889,1149,14.9399,-2.27733
672,-125,14.9172,2.30762,-0.00310071,-6.39415e-05,0.000649737,6.92341e-05,-0.00323388,1.36863,0.00217937,0.04392,1896,1149,14.9173,-2.30764
679,-125,14.9893,2.31775,-0.00402218,-0.000588389,0.00172405,0.000127838,-0.00473841,1.17706,0.0032024,0.040622,1903,1149,14.9892,-2.31769
686,-125,15.0848,2.22009,-0.00490597,-0.00109897,0.00267855,0.000283555,-0.0062885,1.09432,0.00428997,0.0359237,1910,1149,15.0849,-2.22014
693,-125,15.0553,2.30469,-0.00561884,-0.00152114,0.00343507,0.000429698,-0.00756968,1.0543,0.00519561,0.0305551,1917,1149,15.0553,-2.30474
700,-125,15.0748,2.2981,-0.00615686,-0.00181103,0.00391851,0.000496707,-0.0084646,1.03855,0.00581571,0.0143008,1924,1149,15.0748,-2.29809
707,-125,15.0828,3.05359,0,0,0,0,0,0,0,-1,1931,1149,15.0828,-3.05362
714,-125,14.6814,3.22021,-0.00632642,-0.00207811,0.00456901,0.000836379,-0.0092409,1.00299,0.00645748,0.0361142,1938,1149,14.6814,-3.22017
721,-125,14.3591,3.30872,-0.006264,-0.00201053,0.00455159,0.000886676,-0.0091612,1.00395,0.00642346,0.0173102,1945,1149,14.3591,-3.30875
728,-125,14.3777,3.26245,-0.00564062,-0.0018252,0.00409984,0.000789045,-0.00825486,1.00316,0.00578422,0.0116582,1952,1149,14.3777,-3.26249
735,-125,14.3943,3.21533,-0.00457846,-0.00145345,0.00332523,0.000658088,-0.00668999,1.00504,0.00469476,0.014577,1959,1149,14.3943,-3.21533
742,-125,14.406,3.13672,-0.00307833,-0.000555174,0.00248894,0.000973657,-0.00460716,1.01996,0.00344221,0.0229394,1966,1149,14.406,-3.13673
749,-125,14.3845,3.02893,-0.000831172,0.000721241,0.000932666,0.00115844,-0.00126837,1.13245,0.0014016,0.0269785,1973,1149,14.3845,-3.02888
756,-125,14.3579,2.99756,0.00185696,0.00282675,-0.00100071,0.00345386,0.00122985,-1.011,0.00202143,0.0220082,1980,1149,14.3579,-2.99753
763,-125,14.4053,2.98145,0.00491434,0.0050692,-0.00311988,0.00811261,0.00187093,-0.797805,0.00490518,0.011165,1987,1149,14.4052,-2.98147
770,-125,14.3867,2.91895,0.00809934,0.00769749,-0.00533643,0.0132386,0.0025582,-0.766581,0.00810867,0.0120385,1994,1149,14.3868,-2.919
777,-125,14.3778,2.85547,0.0112638,0.010736,-0.00755609,0.0185606,0.00343917,-0.767943,0.0114015,0.0244503,2001,1149,14.3778,-2.85549
784,-125,14.4994,2.68567,0.0146887,0.0144347,-0.0100522,0.0246147,0.00450875,-0.779082,0.0151324,0.0425526,2008,1149,14.4994,-2.68572
791,-125,14.6619,2.43347,0.0184844,0.0189012,-0.0129936,0.0316881,0.00569747,-0.793418,0.0195056,0.0461167,2015,1149,14.6619,-2.43348
798,-125,14.9817,2.33752,0.0225845,0.0241632,-0.0163789,0.0397717,0.00697591,-0.809476,0.0245222,0.0467986,2022,1149,14.9816,-2.33755
805,-125,15.6481,2.49182,0.0267741,0.030192,-0.0201473,0.0487027,0.00826339,-0.827708,0.0300946,0.0469379,2029,1149,15.648,-2.49185
812,-125,15.0308,2.56116,0,0,0,0,0,0,0,-1,2036,1149,15.0307,-2.5611
-700,-132,0,0,0,0,0,0,0,0,0,-1,524,1156,0,0
-693,-132,-9.41022,-1.50244,0,0,0,0,0,0,0,-1,531,1156,-9.4102,1.50245
-686,-132,-11.5636,-0.459106,0,0,0,0,0,0,0,-1,538,1156,-11.5636,0.459095
-679,-132,-10.9208,-0.360107,0,0,0,0,0,0,0,-1,545,1156,-10.9208,0.360061
-672,-132,-10.343,-0.309937,0.101994,-0.00251181,0.00191879,0.10203,-0.00254703,0.0183523,0.0688845,0.0391856,552,1156,-10.343,0.309897
-665,-132,-9.59296,-0.276245,0.0780006,-0.00281914,0.000837781,0.0780093,-0.00282783,0.0103646,0.052974,0.0410874,559,1156,-9.59296,0.276223
-658,-132,-8.34595,0.533447,0,0,0,0,0,0,0,-1,566,1156,-8.34596,-0.533401
-651,-132,-8.33759,0.634521,0.0412106,-0.00214679,-0.000253407,0.0412121,-0.00214827,-0.00584434,0.0282181,0.0399832,573,1156,-8.33757,-0.634485
-644,-132,-8.32434,0.733521,0.0284223,-0.00163029,-0.00046304,0.0284295,-0.00163742,-0.0154028,0.0195217,0.0207704,580,1156,-8.32436,-0.733547
-637,-132,-8.30334,0.807373,0.0187753,-0.00134773,-0.000762073,0.0188042,-0.00137655,-0.0377984,0.0130192,0.0109768,587,1156,-8.30335,-0.807322
-630,-132,-8.31049,0.905396,0.0115974,-0.00117579,-0.00134231,0.0117369,-0.00131533,-0.103581,0.00829789,0.00964913,594,1156,-8.31051,-0.905443
-623,-132,-8.33417,0.993408,0.00423097,-0.00115716,-0.00242849,0.00516396,-0.00209015,-0.3668,0.00431168,0.0147878,601,1156,-8.33414,-0.99346
-616,-132,-8.32751,1.05457,-0.00108481,-0.00135654,-0.0036173,0.00239918,-0.00484053,-0.766627,0.00425833,0.0185314,608,1156,-8.32749,-1.05462
-609,-132,-8.31299,1.10718,-0.00401894,-0.00163509,-0.00441066,0.00174185,-0.00739589,-0.917365,0.00560221,0.0116673,615,1156,-8.31299,-1.10717
-602,-132,-8.34247,1.16797,-0.0056719,-0.001634,-0.00528013,0.002,-0.00930591,-0.968005,0.00696697,0.0106902,622,1156,-8.34246,-1.16798
-595,-132,-8.34906,1.27808,-0.00697667,-0.00200381,-0.00604209,0.00204345,-0.0110239,-0.980596,0.00811664,0.0112068,629,1156,-8.34906,-1.27807
-588,-132,-8.2016,1.4718,0,0,0,0,0,0,0,-1,636,1156,-8.2016,-1.47179
-581,-132,-8.48486,1.24841,-0.00817007,-0.00236853,-0.00649661,0.0018455,-0.0123841,-0.99537,0.008935,0.0375782,643,1156,-8.48485,-1.24846
-574,-132,-8.78485,0.875244,-0.00845243,-0.00233026,-0.00618497,0.00150968,-0.0122924,-1.01519,0.0087417,0.0439091,650,1156,-8.78484,-0.875193
-567,-132,-9.06366,0.661987,-0.00817603,-0.00203058,-0.00567076,0.00134643,-0.0115531,-1.03368,0.00818783,0.0359705,657,1156,-9.06366,-0.661942
-560,-132,-9.17633,0.61499,-0.00756158,-0.00160253,-0.00460233,0.00090056,-0.0100647,-1.07267,0.00702922,0.0343329,664,1156,-9.17632,-0.614954
-553,-132,-9.26599,0.647461,-0.006347,-0.000946321,-0.00299051,0.000382608,-0.00767593,-1.15262,0.00524947,0.0373941,671,1156,-9.26599,-0.647514
-546,-132,-9.34442,0.585205,-0.00448639,-5.26049e-05,-0.000831165,9.80853e-05,-0.00463708,-1.39144,0.00312459,0.0408831,678,1156,-9.34443,-0.585191
-539,-132,-9.23499,0.495972,-0.00190214,0.00111001,0.00188319,0.00201529,-0.00280743,1.12269,0.00279689,0.0419275,685,1156,-9.23498,-0.495967
-532,-132,-9.03546,0.568481,0.00130571,0.00251345,0.0048289,0.0067761,-0.00295693,0.847602,0.00576177,0.0381408,692,1156,-9.03546,-0.568438
-525,-132,-9.11493,0.533936,0.00340972,0.00365027,0.0064633,0.00999442,-0.00293442,0.794702,0.00782665,0.0372595,699,1156,-9.11496,-0.533992
-518,-132,0,0,0,0,0,0,0,0,0,-1,706,1156,0,0
-511,-132,0,0,0,0,0,0,0,0,0,-1,713,1156,0,0
-504,-132,0,0,0,0,0,0,0,0,0,-1,720,1156,0,0
-497,-132,0,0,0,0,0,0,0,0,0,-1,727,1156,0,0
-490,-132,0,0,0,0,0,0,0,0,0,-1,734,1156,0,0
-483,-132,0,0,0,0,0,0,0,0,0,-1,741,1156,0,0
-476,-132,0,0,0,0,0,0,0,0,0,-1,748,1156,0,0
-469,-132,0,0,0,0,0,0,0,0,0,-1,755,1156,0,0
-462,-132,0,0,0,0,0,0,0,0,0,-1,762,1156,0,0
-455,-132,0,0,0,0,0,0,0,0,0,-1,769,1156,0,0
-448,-132,0,0,0,0,0,0,0,0,0,-1,776,1156,0,0
-441,-132,0,0,0,0,0,0,0,0,0,-1,783,1156,0,0
-434,-132,0,0,0,0,0,0,0,0,0,-1,790,1156,0,0
-427,-132,0,0,0,0,0,0,0,0,0,-1,797,1156,0,0
-420,-132,0,0,0,0,0,0,0,0,0,-1,804,1156,0,0
-413,-132,0,0,0,0,0,0,0,0,0,-1,811,1156,0,0
-406,-132,0,0,0,0,0,0,0,0,0,-1,818,1156,0,0
-399,-132,0,0,0,0,0,0,0,0,0,-1,825,1156,0,0
-392,-132,0,0,0,0,0,0,0,0,0,-1,832,1156,0,0
-385,-132,0,0,0,0,0,0,0,0,0,-1,839,1156,0,0
-378,-132,0,0,0,0,0,0,0,0,0,-1,846,1156,0,0
-371,-132,0,0,0,0,0,0,0,0,0,-1,853,1156,0,0
-364,-132,0,0,0,0,0,0,0,0,0,-1,860,1156,0,0
-357,-132,0,0,0,0,0,0,0,0,0,-1,867,1156,0,0
-350,-132,0,0,0,0,0,0,0,0,0,-1,874,1156,0,0
-343,-132,0,0,0,0,0,0,0,0,0,-1,881,1156,0,0
-336,-132,0,0,0,0,0,0,0,0,0,-1,888,1156,0,0
-329,-132,0,0,0,0,0,0,0,0,0,-1,895,1156,0,0
-322,-132,0,0,0,0,0,0,0,0,0,-1,902,1156,0,0
-315,-132,0,0,0,0,0,0,0,0,0,-1,909,1156,0,0
-308,-132,0,0,0,0,0,0,0,0,0,-1,916,1156,0,0
-301,-132,0,0,0,0,0,0,0,0,0,-1,923,1156,0,0
-294,-132,0,0,0,0,0,0,0,0,0,-1,930,1156,0,0
-287,-132,0,0,0,0,0,0,0,0,0,-1,937,1156,0,0
-280,-132,0,0,0,0,0,0,0,0,0,-1,944,1156,0,0
-273,-132,0,0,0,0,0,0,0,0,0,-1,951,1156,0,0
-266,-132,0,0,0,0,0,0,0,0,0,-1,958,1156,0,0
-259,-132,0,0,0,0,0,0,0,0,0,-1,965,1156,0,0
-252,-132,0,0,0,0,0,0,0,0,0,-1,972,1156,0,0
-245,-132,0,0,0,0,0,0,0,0,0,-1,979,1156,0,0
-238,-132,0,0,0,0,0,0,0,0,0,-1,986,1156,0,0
-231,-132,0,0,0,0,0,0,0,0,0,-1,993,1156,0,0
-224,-132,0,0,0,0,0,0,0,0,0,-1,1000,1156,0,0
-217,-132,0,0,0,0,0,0,0,0,0,-1,1007,1156,0,0
-210,-132,0,0,0,0,0,0,0,0,0,-1,1014,1156,0,0
-203,-132,0,0,0,0,0,0,0,0,0,-1,1021,1156,0,0
-196,-132,0,0,0,0,0,0,0,0,0,-1,1028,1156,0,0
-189,-132,0,0,0,0,0,0,0,0,0,-1,1035,1156,0,0
-182,-132,0,0,0,0,0,0,0,0,0,-1,1042,1156,0,0
-175,-132,0,0,0,0,0,0,0,0,0,-1,1049,1156,0,0
-168,-132,0,0,0,0,0,0,0,0,0,-1,1056,1156,0,0
-161,-132,0,0,0,0,0,0,0,0,0,-1,1063,1156,0,0
-154,-132,0,0,0,0,0,0,0,0,0,-1,1070,1156,0,0
-147,-132,0,0,0,0,0,0,0,0,0,-1,1077,1156,0,0
-140,-132,0,0,0,0,0,0,0,0,0,-1,1084,1156,0,0
-133,-132,0,0,0,0,0,0,0,0,0,-1,1091,1156,0,0
-126,-132,0,0,0,0,0,0,0,0,0,-1,1098,1156,0,0
-119,-132,0,0,0,0,0,0,0,0,0,-1,1105,1156,0,0
-112,-132,0,0,0,0,0,0,0,0,0,-1,1112,1156,0,0
-105,-132,0,0,0,0,0,0,0,0,0,-1,1119,1156,0,0
-98,-132,0,0,0,0,0,0,0,0,0,-1,1126,1156,0,0
-91,-132,0,0,0,0,0,0,0,0,0,-1,1133,1156,0,0
-84,-132,0,0,0,0,0,0,0,0,0,-1,1140,1156,0,0
-77,-132,0,0,0,0,0,0,0,0,0,-1,1147,1156,0,0
-70,-132,0,0,0,0,0,0,0,0,0,-1,1154,1156,0,0
-63,-132,0,0,0,0,0,0,0,0,0,-1,1161,1156,0,0
-56,-132,0,0,0,0,0,0,0,0,0,-1,1168,1156,0,0
-49,-132,0,0,0,0,0,0,0,0,0,-1,1175,1156,0,0
-42,-132,0,0,0,0,0,0,0,0,0,-1,1182,1156,0,0
-35,-132,0,0,0,0,0,0,0,0,0,-1,1189,1156,0,0
-28,-132,0,0,0,0,0,0,0,0,0,-1,1196,1156,0,0
-21,-132,0,0,0,0,0,0,0,0,0,-1,1203,1156,0,0
-14,-132,0,0,0,0,0,0,0,0,0,-1,1210,1156,0,0
-7,-132,0,0,0,0,0,0,0,0,0,-1,1217,1156,0,0
0,-132,0,0,0,0,0,0,0,0,0,-1,1224,1156,0,0
7,-132,0,0,0,0,0,0,0,0,0,-1,1231,1156,0,0
14,-132,0,0,0,0,0,0,0,0,0,-1,1238,1156,0,0
21,-132,0,0,0,0,0,0,0,0,0,-1,1245,1156,0,0
28,-132,0,0,0,0,0,0,0,0,0,-1,1252,1156,0,0
35,-132,0,0,0,0,0,0,0,0,0,-1,1259,1156,0,0
42,-132,0,0,0,0,0,0,0,0,0,-1,1266,1156,0,0
49,-132,0,0,0,0,0,0,0,0,0,-1,1273,1156,0,0
56,-132,0,0,0,0,0,0,0,0,0,-1,1280,1156,0,0
63,-132,0,0,0,0,0,0,0,0,0,-1,1287,1156,0,0
70,-132,0,0,0,0,0,0,0,0,0,-1,1294,1156,0,0
77,-132,0,0,0,0,0,0,0,0,0,-1,1301,1156,0,0
84,-132,0,0,0,0,0,0,0,0,0,-1,1308,1156,0,0
91,-132,0,0,0,0,0,0,0,0,0,-1,1315,1156,0,0
98,-132,0,0,0,0,0,0,0,0,0,-1,1322,1156,0,0
105,-132,0,0,0,0,0,0,0,0,0,-1,1329,1156,0,0
112,-132,0,0,0,0,0,0,0,0,0,-1,1336,1156,0,0
119,-132,0,0,0,0,0,0,0,0,0,-1,1343,1156,0,0
126,-132,0,0,0,0,0,0,0,0,0,-1,1350,1156,0,0
133,-132,0,0,0,0,0,0,0,0,0,-1,1357,1156,0,0
140,-132,0,0,0,0,0,0,0,0,0,-1,1364,1156,0,0
147,-132,0,0,0,0,0,0,0,0,0,-1,1371,1156,0,0
154,-132,0,0,0,0,0,0,0,0,0,-1,1378,1156,0,0
161,-132,0,0,0,0,0,0,0,0,0,-1,1385,1156,0,0
168,-132,0,0,0,0,0,0,0,0,0,-1,1392,1156,0,0
175,-132,0,0,0,0,0,0,0,0,0,-1,1399,1156,0,0
182,-132,0,0,0,0,0,0,0,0,0,-1,1406,1156,0,0
189,-132,0,0,0,0,0,0,0,0,0,-1,1413,1156,0,0
196,-132,0,0,0,0,0,0,0,0,0,-1,1420,1156,0,0
203,-132,0,0,0,0,0,0,0,0,0,-1,1427,1156,0,0
210,-132,0,0,0,0,0,0,0,0,0,-1,1434,1156,0,0
217,-132,0,0,0,0,0,0,0,0,0,-1,1441,1156,0,0
224,-132,0,0,0,0,0,0,0,0,0,-1,1448,1156,0,0
231,-132,0,0,0,0,0,0,0,0,0,-1,1455,1156,0,0
238,-132,0,0,0,0,0,0,0,0,0,-1,1462,1156,0,0
245,-132,0,0,0,0,0,0,0,0,0,-1,1469,1156,0,0
252,-132,0,0,0,0,0,0,0,0,0,-1,1476,1156,0,0
259,-132,0,0,0,0,0,0,0,0,0,-1,1483,1156,0,0
266,-132,0,0,0,0,0,0,0,0,0,-1,1490,1156,0,0
273,-132,0,0,0,0,0,0,0,0,0,-1,1497,1156,0,0
280,-132,0,0,0,0,0,0,0,0,0,-1,1504,1156,0,0
287,-132,0,0,0,0,0,0,0,0,0,-1,1511,1156,0,0
294,-132,0,0,0,0,0,0,0,0,0,-1,1518,1156,0,0
301,-132,0,0,0,0,0,0,0,0,0,-1,1525,1156,0,0
308,-132,0,0,0,0,0,0,0,0,0,-1,1532,1156,0,0
315,-132,0,0,0,0,0,0,0,0,0,-1,1539,1156,0,0
322,-132,0,0,0,0,0,0,0,0,0,-1,1546,1156,0,0
329,-132,0,0,0,0,0,0,0,0,0,-1,1553,1156,0,0
336,-132,0,0,0,0,0,0,0,0,0,-1,1560,1156,0,0
343,-132,0,0,0,0,0,0,0,0,0,-1,1567,1156,0,0
350,-132,0,0,0,0,0,0,0,0,0,-1,1574,1156,0,0
357,-132,0,0,0,0,0,0,0,0,0,-1,1581,1156,0,0
364,-132,0,0,0,0,0,0,0,0,0,-1,1588,1156,0,0
371,-132,0,0,0,0,0,0,0,0,0,-1,1595,1156,0,0
378,-132,0,0,0,0,0,0,0,0,0,-1,1602,1156,0,0
385,-132,0,0,0,0,0,0,0,0,0,-1,1609,1156,0,0
392,-132,0,0,0,0,0,0,0,0,0,-1,1616,1156,0,0
399,-132,0,0,0,0,0,0,0,0,0,-1,1623,1156,0,0
406,-132,0,0,0,0,0,0,0,0,0,-1,1630,1156,0,0
413,-132,0,0,0,0,0,0,0,0,0,-1,1637,1156,0,0
420,-132,0,0,0,0,0,0,0,0,0,-1,1644,1156,0,0
427,-132,0,0,0,0,0,0,0,0,0,-1,1651,1156,0,0
434,-132,0,0,0,0,0,0,0,0,0,-1,1658,1156,0,0
441,-132,0,0,0,0,0,0,0,0,0,-1,1665,1156,0,0
448,-132,0,0,0,0,0,0,0,0,0,-1,1672,1156,0,0
455,-132,0,0,0,0,0,0,0,0,0,-1,1679,1156,0,0
462,-132,0,0,0,0,0,0,0,0,0,-1,1686,1156,0,0
469,-132,0,0,0,0,0,0,0,0,0,-1,1693,1156,0,0
476,-132,0,0,0,0,0,0,0,0,0,-1,1700,1156,0,0
483,-132,0,0,0,0,0,0,0,0,0,-1,1707,1156,0,0
490,-132,0,0,0,0,0,0,0,0,0,-1,1714,1156,0,0
497,-132,0,0,0,0,0,0,0,0,0,-1,1721,1156,0,0
504,-132,0,0,0,0,0,0,0,0,0,-1,1728,1156,0,0
511,-132,0,0,0,0,0,0,0,0,0,-1,1735,1156,0,0
518,-132,0,0,0,0,0,0,0,0,0,-1,1742,1156,0,0
525,-132,0,0,0,0,0,0,0,0,0,-1,1749,1156,0,0
532,-132,0,0,0,0,0,0,0,0,0,-1,1756,1156,0,0
539,-132,0,0,0,0,0,0,0,0,0,-1,1763,1156,0,0
546,-132,0,0,0,0,0,0,0,0,0,-1,1770,1156,0,0
553,-132,0,0,0,0,0,0,0,0,0,-1,1777,1156,0,0
560,-132,0,0,0,0,0,0,0,0,0,-1,1784,1156,0,0
567,-132,0,0,0,0,0,0,0,0,0,-1,1791,1156,0,0
574,-132,0,0,0,0,0,0,0,0,0,-1,1798,1156,0,0
581,-132,0,0,0,0,0,0,0,0,0,-1,1805,1156,0,0
588,-132,0,0,0,0,0,0,0,0,0,-1,1812,1156,0,0
595,-132,0,0,0,0,0,0,0,0,0,-1,1819,1156,0,0
602,-132,0,0,0,0,0,0,0,0,0,-1,1826,1156,0,0
609,-132,0,0,0,0,0,0,0,0,0,-1,1833,1156,0,0
616,-132,0,0,0,0,0,0,0,0,0,-1,1840,1156,0,0
623,-132,0,0,0,0,0,0,0,0,0,-1,1847,1156,0,0
630,-132,0,0,0,0,0,0,0,0,0,-1,1854,1156,0,0
637,-132,0,0,0,0,0,0,0,0,0,-1,1861,1156,0,0
644,-132,15.2614,2.70581,-0.00394182,0.000604377,3.52294e-05,0.00060465,-0.0039421,1.56305,0.00285107,0.0433894,1868,1156,15.2614,-2.70585
651,-132,15.0519,2.69592,-0.00303672,0.00080449,-0.000453833,0.000857382,-0.00308962,-1.45478,0.0023972,0.0428059,1875,1156,15.0519,-2.69591
658,-132,14.9546,2.12817,-0.00251371,0.000993911,-0.000595996,0.00109241,-0.00261221,-1.407,0.00219804,0.042095,1882,1156,14.9546,-2.12816
665,-132,14.89,2.42444,-0.00279414,0.000667906,1.19477e-05,0.000667948,-0.00279418,1.56735,0.0021208,0.0403901,1889,1156,14.89,-2.42447
672,-132,14.8108,2.45813,-0.00365086,0.000106276,0.00103736,0.000373664,-0.00391824,1.31853,0.00274521,0.0388566,1896,1156,14.8108,-2.45811
679,-132,14.9596,2.30127,-0.00456223,-0.000473372,0.00203616,0.000367618,-0.00540322,1.17911,0.00373073,0.0376215,1903,1156,14.9596,-2.30129
686,-132,15.1305,2.33289,-0.00541964,-0.00100679,0.00292278,0.000448877,-0.00687531,1.10872,0.00474025,0.0356814,1910,1156,15.1305,-2.33292
693,-132,15.0831,2.37378,-0.00606958,-0.00142967,0.00359276,0.000527071,-0.00802632,1.07208,0.00553494,0.0262078,1917,1156,15.0832,-2.3738
700,-132,15.0979,2.24304,-0.00652696,-0.00175924,0.00399852,0.000512114,-0.00879831,1.0542,0.00604348,0.0257547,1924,1156,15.0978,-2.24304
707,-132,14.6937,2.77649,0,0,0,0,0,0,0,-1,1931,1156,14.6937,-2.77643
714,-132,14.4714,3.28455,-0.00659886,-0.00203674,0.00451781,0.000743211,-0.00937882,1.01918,0.00651443,0.0303069,1938,1156,14.4714,-3.28451
721,-132,14.2954,3.3335,-0.00643121,-0.00194073,0.00443329,0.000783457,-0.00915539,1.0198,0.0063808,0.0218039,1945,1156,14.2954,-3.33346
728,-132,14.3093,3.26367,-0.00567898,-0.00171508,0.00391988,0.000695419,-0.00808947,1.01946,0.0056391,0.0118739,1952,1156,14.3094,-3.2637
735,-132,14.3326,3.20654,-0.00444213,-0.00133479,0.00299712,0.000487424,-0.00626434,1.02452,0.00434782,0.0139153,1959,1156,14.3326,-3.20658
742,-132,14.3073,3.11572,-0.00272492,-0.000334757,0.00200206,0.000801782,-0.00386146,1.05448,0.00287903,0.0190063,1966,1156,14.3073,-3.11578
749,-132,14.2958,3.03882,-0.000218589,0.00110237,0.000213327,0.00113596,-0.000252185,1.41459,0.000853875,0.0236971,1973,1156,14.2957,-3.03887
756,-132,14.2947,2.98303,0.00274448,0.00353251,-0.00207467,0.00525025,0.00102674,-0.879239,0.00321308,0.0223997,1980,1156,14.2947,-2.98308
763,-132,14.3447,2.97046,0.00606306,0.00615342,-0.00458751,0.010696,0.00152051,-0.790322,0.00668173,0.0129057,1987,1156,14.3448,-2.97045
770,-132,14.3281,2.93555,0.00953307,0.00925691,-0.00725642,0.0166527,0.00213726,-0.775885,0.0104624,0.0117383,1994,1156,14.3281,-2.93554
777,-132,14.2999,2.8385,0.0130862,0.0130044,-0.0101435,0.0231889,0.00290172,-0.783381,0.0145885,0.0202663,2001,1156,14.2999,-2.83856
784,-132,14.3516,2.70093,0.0169834,0.0176861,-0.0135416,0.0308809,0.00378859,-0.798368,0.0194478,0.0421128,2008,1156,14.3516,-2.70098
791,-132,14.506,2.59155,0.0212625,0.0234348,-0.0175839,0.039966,0.00473118,-0.816244,0.0252153,0.048991,2015,1156,14.5059,-2.59153
798,-132,15.1304,2.11926,0.0257868,0.0303183,-0.0222569,0.0504244,0.00568064,-0.836123,0.0318918,0.0472705,2022,1156,15.1303,-2.11931
805,-132,15.3209,1.51746,0.0302448,0.038336,-0.0274764,0.062063,0.0065178,-0.858493,0.0393829,0.0455419,2029,1156,15.3209,-1.51747
812,-132,15.5239,1.19775,0,0,0,0,0,0,0,-1,2036,1156,15.524,-1.19774
-700,-139,0,0,0,0,0,0,0,0,0,-1,524,1163,0,0
-693,-139,-8.46832,-2.05823,0,0,0,0,0,0,0,-1,531,1163,-8.46829,2.05824
-686,-139,-8.88489,-1.64026,0,0,0,0,0,0,0,-1,538,1163,-8.88486,1.64023
-679,-139,-9.13397,-1.21667,0,0,0,0,0,0,0,-1,545,1163,-9.13396,1.21673
-672,-139,-9.3949,-0.820313,0,0,0,0,0,0,0,-1,552,1163,-9.39489,0.820326
-665,-139,-9.21924,-0.312134,0.0695852,-0.00426699,-0.00444247,0.0698515,-0.00453326,-0.0598658,0.0481499,0.0426228,559,1163,-9.21922,0.312133
-658,-139,-8.66455,-0.156006,0.0514981,-0.00322766,-0.00361721,0.0517361,-0.00346571,-0.065716,0.0357021,0.0447968,566,1163,-8.66458,0.156
-651,-139,-8.2085,0.488037,0.03684,-0.00235235,-0.0029184,0.0370561,-0.00256848,-0.0739202,0.0256032,0.0396538,573,1163,-8.20849,-0.488052
-644,-139,-8.22052,0.667847,0.0254394,-0.0016443,-0.00232274,0.0256371,-0.00184205,-0.0849349,0.0177374,0.0204395,580,1163,-8.22049,-0.667795
-637,-139,-8.22125,0.784668,0.0168456,-0.00112543,-0.00190981,0.0170463,-0.00132614,-0.104713,0.0118311,0.0116213,587,1163,-8.22126,-0.784668
-630,-139,-8.23572,0.877563,0.0104883,-0.000867655,-0.00194995,0.0108138,-0.00119315,-0.165402,0.00763802,0.0105393,594,1163,-8.23575,-0.877523
-623,-139,-8.25067,0.939819,0.00382031,-0.000963024,-0.00271007,0.00504314,-0.00218585,-0.423864,0.00428095,0.016436,601,1163,-8.25065,-0.939853
-616,-139,-8.25714,1.00024,-0.00121533,-0.00110391,-0.00368614,0.00252694,-0.00484618,-0.792954,0.0043265,0.0171874,608,1163,-8.25714,-1.00028
-609,-139,-8.24255,1.10278,-0.00416553,-0.00146467,-0.00441245,0.00179937,-0.00742957,-0.933897,0.00564918,0.0205089,615,1163,-8.24257,-1.10275
-602,-139,-8.27789,1.18823,-0.00591883,-0.00140372,-0.00522621,0.00203169,-0.00935423,-0.989278,0.00701219,0.0129198,622,1163,-8.27792,-1.18824
-595,-139,-8.27966,1.28564,-0.00729561,-0.00173962,-0.00596503,0.00206256,-0.0110978,-1.00332,0.00817327,0.0112827,629,1163,-8.27967,-1.2856
-588,-139,-8.224,1.41162,-0.0080982,-0.00197987,-0.00637407,0.00203114,-0.0121092,-1.00913,0.00882808,0.0143474,636,1163,-8.22402,-1.41158
-581,-139,-8.24628,1.45142,-0.0085562,-0.0020497,-0.00644238,0.00191425,-0.0125201,-1.01921,0.00905256,0.0335676,643,1163,-8.24627,-1.45141
-574,-139,-8.65405,1.13513,-0.00880568,-0.001999,-0.00618968,0.00166129,-0.012466,-1.03676,0.00891615,0.0426026,650,1163,-8.65405,-1.13509
-567,-139,-9.20935,0.816895,0,0,0,0,0,0,0,-1,657,1163,-9.20935,-0.816949
-560,-139,-9.15912,0.769409,-0.00779676,-0.00142209,-0.00487415,0.00121436,-0.0104332,-1.07496,0.00739357,0.0356664,664,1163,-9.15914,-0.76935
-553,-139,-9.23419,0.95752,-0.00648662,-0.000913762,-0.00344499,0.000730628,-0.00813101,-1.12545,0.0056799,0.037969,671,1163,-9.23421,-0.95749
-546,-139,-9.18176,0.67041,-0.00445858,-0.000239885,-0.00150124,0.000239794,-0.00493826,-1.26153,0.00337494,0.0432256,678,1163,-9.18176,-0.670392
-539,-139,-9.12927,0.449829,0,0,0,0,0,0,0,-1,685,1163,-9.12926,-0.449864
-532,-139,-8.98804,0.543457,0.00203772,0.00164058,0.00372494,0.00556938,-0.00189108,0.758769,0.00447841,0.0375559,692,1163,-8.98803,-0.543451
-525,-139,-9.01196,0.47998,0.00509507,0.00239879,0.00544905,0.00936027,-0.00186641,0.664129,0.00694641,0.0393336,699,1163,-9.01198,-0.479977
-518,-139,0,0,0,0,0,0,0,0,0,-1,706,1163,0,0
-511,-139,0,0,0,0,0,0,0,0,0,-1,713,1163,0,0
-504,-139,0,0,0,0,0,0,0,0,0,-1,720,1163,0,0
-497,-139,0,0,0,0,0,0,0,0,0,-1,727,1163,0,0
-490,-139,0,0,0,0,0,0,0,0,0,-1,734,1163,0,0
-483,-139,0,0,0,0,0,0,0,0,0,-1,741,1163,0,0
-476,-139,0,0,0,0,0,0,0,0,0,-1,748,1163,0,0
-469,-139,0,0,0,0,0,0,0,0,0,-1,755,1163,0,0
-462,-139,0,0,0,0,0,0,0,0,0,-1,762,1163,0,0
-455,-139,0,0,0,0,0,0,0,0,0,-1,769,1163,0,0
-448,-139,0,0,0,0,0,0,0,0,0,-1,776,1163,0,0
-441,-139,0,0,0,0,0,0,0,0,0,-1,783,1163,0,0
-434,-139,0,0,0,0,0,0,0,0,0,-1,790,1163,0,0
-427,-139,0,0,0,0,0,0,0,0,0,-1,797,1163,0,0
-420,-139,0,0,0,0,0,0,0,0,0,-1,804,1163,0,0
-413,-139,0,0,0,0,0,0,0,0,0,-1,811,1163,0,0
-406,-139,0,0,0,0,0,0,0,0,0,-1,818,1163,0,0
-399,-139,0,0,0,0,0,0,0,0,0,-1,825,1163,0,0
-392,-139,0,0,0,0,0,0,0,0,0,-1,832,1163,0,0
-385,-139,0,0,0,0,0,0,0,0,0,-1,839,1163,0,0
-378,-139,0,0,0,0,0,0,0,0,0,-1,846,1163,0,0
-371,-139,0,0,0,0,0,0,0,0,0,-1,853,1163,0,0
-364,-139,0,0,0,0,0,0,0,0,0,-1,860,1163,0,0
-357,-139,0,0,0,0,0,0,0,0,0,-1,867,1163,0,0
-350,-139,0,0,0,0,0,0,0,0,0,-1,874,1163,0,0
-343,-139,0,0,0,0,0,0,0,0,0,-1,881,1163,0,0
-336,-139,0,0,0,0,0,0,0,0,0,-1,888,1163,0,0
-329,-139,0,0,0,0,0,0,0,0,0,-1,895,1163,0,0
-322,-139,0,0,0,0,0,0,0,0,0,-1,902,1163,0,0
-315,-139,0,0,0,0,0,0,0,0,0,-1,909,1163,0,0
-308,-139,0,0,0,0,0,0,0,0,0,-1,916,1163,0,0
-301,-139,0,0,0,0,0,0,0,0,0,-1,923,1163,0,0
-294,-139,0,0,0,0,0,0,0,0,0,-1,930,1163,0,0
-287,-139,0,0,0,0,0,0,0,0,0,-1,937,1163,0,0
-280,-139,0,0,0,0,0,0,0,0,0,-1,944,1163,0,0
-273,-139,0,0,0,0,0,0,0,0,0,-1,951,1163,0,0
-266,-139,0,0,0,0,0,0,0,0,0,-1,958,1163,0,0
-259,-139,0,0,0,0,0,0,0,0,0,-1,965,1163,0,0
-252,-139,0,0,0,0,0,0,0,0,0,-1,972,1163,0,0
-245,-139,0,0,0,0,0,0,0,0,0,-1,979,1163,0,0
-238,-139,0,0,0,0,0,0,0,0,0,-1,986,1163,0,0
-231,-139,0,0,0,0,0,0,0,0,0,-1,993,1163,0,0
-224,-139,0,0,0,0,0,0,0,0,0,-1,1000,1163,0,0
-217,-139,0,0,0,0,0,0,0,0,0,-1,1007,1163,0,0
-210,-139,0,0,0,0,0,0,0,0,0,-1,1014,1163,0,0
-203,-139,0,0,0,0,0,0,0,0,0,-1,1021,1163,0,0
-196,-139,0,0,0,0,0,0,0,0,0,-1,1028,1163,0,0
-189,-139,0,0,0,0,0,0,0,0,0,-1,1035,1163,0,0
-182,-139,0,0,0,0,0,0,0,0,0,-1,1042,1163,0,0
-175,-139,0,0,0,0,0,0,0,0,0,-1,1049,1163,0,0
-168,-139,0,0,0,0,0,0,0,0,0,-1,1056,1163,0,0
-161,-139,0,0,0,0,0,0,0,0,0,-1,1063,1163,0,0
-154,-139,0,0,0,0,0,0,0,0,0,-1,1070,1163,0,0
-147,-139,0,0,0,0,0,0,0,0,0,-1,1077,1163,0,0
-140,-139,0,0,0,0,0,0,0,0,0,-1,1084,1163,0,0
-133,-139,0,0,0,0,0,0,0,0,0,-1,1091,1163,0,0
-126,-139,0,0,0,0,0,0,0,0,0,-1,1098,1163,0,0
-119,-139,0,0,0,0,0,0,0,0,0,-1,1105,1163,0,0
-112,-139,0,0,0,0,0,0,0,0,0,-1,1112,1163,0,0
-105,-139,0,0,0,0,0,0,0,0,0,-1,1119,1163,0,0
-98,-139,0,0,0,0,0,0,0,0,0,-1,1126,1163,0,0
-91,-139,0,0,0,0,0,0,0,0,0,-1,1133,1163,0,0
-84,-139,0,0,0,0,0,0,0,0,0,-1,1140,1163,0,0
-77,-139,0,0,0,0,0,0,0,0,0,-1,1147,1163,0,0
-70,-139,0,0,0,0,0,0,0,0,0,-1,1154,1163,0,0
-63,-139,0,0,0,0,0,0,0,0,0,-1,1161,1163,0,0
-56,-139,0,0,0,0,0,0,0,0,0,-1,1168,1163,0,0
-49,-139,0,0,0,0,0,0,0,0,0,-1,1175,1163,0,0
-42,-139,0,0,0,0,0,0,0,0,0,-1,1182,1163,0,0
-35,-139,0,0,0,0,0,0,0,0,0,-1,1189,1163,0,0
-28,-139,0,0,0,0,0,0,0,0,0,-1,1196,1163,0,0
-21,-139,0,0,0,0,0,0,0,0,0,-1,1203,1163,0,0
-14,-139,0,0,0,0,0,0,0,0,0,-1,1210,1163,0,0
-7,-139,0,0,0,0,0,0,0,0,0,-1,1217,1163,0,0
0,-139,0,0,0,0,0,0,0,0,0,-1,1224,1163,0,0
7,-139,0,0,0,0,0,0,0,0,0,-1,1231,1163,0,0
14,-139,0,0,0,0,0,0,0,0,0,-1,1238,1163,0,0
21,-139,0,0,0,0,0,0,0,0,0,-1,1245,1163,0,0
28,-139,0,0,0,0,0,0,0,0,0,-1,1252,1163,0,0
35,-139,0,0,0,0,0,0,0,0,0,-1,1259,1163,0,0
42,-139,0,0,0,0,0,0,0,0,0,-1,1266,1163,0,0
49,-139,0,0,0,0,0,0,0,0,0,-1,1273,1163,0,0
56,-139,0,0,0,0,0,0,0,0,0,-1,1280,1163,0,0
63,-139,0,0,0,0,0,0,0,0,0,-1,1287,1163,0,0
70,-139,0,0,0,0,0,0,0,0,0,-1,1294,1163,0,0
77,-139,0,0,0,0,0,0,0,0,0,-1,1301,1163,0,0
84,-139,0,0,0,0,0,0,0,0,0,-1,1308,1163,0,0
91,-139,0,0,0,0,0,0,0,0,0,-1,1315,1163,0,0
98,-139,0,0,0,0,0,0,0,0,0,-1,1322,1163,0,0
105,-139,0,0,0,0,0,0,0,0,0,-1,1329,1163,0,0
112,-139,0,0,0,0,0,0,0,0,0,-1,1336,1163,0,0
119,-139,0,0,0,0,0,0,0,0,0,-1,1343,1163,0,0
126,-139,0,0,0,0,0,0,0,0,0,-1,1350,1163,0,0
133,-139,0,0,0,0,0,0,0,0,0,-1,1357,1163,0,0
140,-139,0,0,0,0,0,0,0,0,0,-1,1364,1163,0,0
147,-139,0,0,0,0,0,0,0,0,0,-1,1371,1163,0,0
154,-139,0,0,0,0,0,0,0,0,0,-1,1378,1163,0,0
161,-139,0,0,0,0,0,0,0,0,0,-1,1385,1163,0,0
168,-139,0,0,0,0,0,0,0,0,0,-1,1392,1163,0,0
175,-139,0,0,0,0,0,0,0,0,0,-1,1399,1163,0,0
182,-139,0,0,0,0,0,0,0,0,0,-1,1406,1163,0,0
189,-139,0,0,0,0,0,0,0,0,0,-1,1413,1163,0,0
196,-139,0,0,0,0,0,0,0,0,0,-1,1420,1163,0,0
203,-139,0,0,0,0,0,0,0,0,0,-1,1427,1163,0,0
210,-139,0,0,0,0,0,0,0,0,0,-1,1434,1163,0,0
217,-139,0,0,0,0,0,0,0,0,0,-1,1441,1163,0,0
224,-139,0,0,0,0,0,0,0,0,0,-1,1448,1163,0,0
231,-139,0,0,0,0,0,0,0,0,0,-1,1455,1163,0,0
238,-139,0,0,0,0,0,0,0,0,0,-1,1462,1163,0,0
245,-139,0,0,0,0,0,0,0,0,0,-1,1469,1163,0,0
252,-139,0,0,0,0,0,0,0,0,0,-1,1476,1163,0,0
259,-139,0,0,0,0,0,0,0,0,0,-1,1483,1163,0,0
266,-139,0,0,0,0,0,0,0,0,0,-1,1490,1163,0,0
273,-139,0,0,0,0,0,0,0,0,0,-1,1497,1163,0,0
280,-139,0,0,0,0,0,0,0,0,0,-1,1504,1163,0,0
287,-139,0,0,0,0,0,0,0,0,0,-1,1511,1163,0,0
294,-139,0,0,0,0,0,0,0,0,0,-1,1518,1163,0,0
301,-139,0,0,0,0,0,0,0,0,0,-1,1525,1163,0,0
308,-139,0,0,0,0,0,0,0,0,0,-1,1532,1163,0,0
315,-139,0,0,0,0,0,0,0,0,0,-1,1539,1163,0,0
322,-139,0,0,0,0,0,0,0,0,0,-1,1546,1163,0,0
329,-139,0,0,0,0,0,0,0,0,0,-1,1553,1163,0,0
336,-139,0,0,0,0,0,0,0,0,0,-1,1560,1163,0,0
343,-139,0,0,0,0,0,0,0,0,0,-1,1567,1163,0,0
350,-139,0,0,0,0,0,0,0,0,0,-1,1574,1163,0,0
357,-139,0,0,0,0,0,0,0,0,0,-1,1581,1163,0,0
364,-139,0,0,0,0,0,0,0,0,0,-1,1588,1163,0,0
371,-139,0,0,0,0,0,0,0,0,0,-1,1595,1163,0,0
378,-139,0,0,0,0,0,0,0,0,0,-1,1602,1163,0,0
385,-139,0,0,0,0,0,0,0,0,0,-1,1609,1163,0,0
392,-139,0,0,0,0,0,0,0,0,0,-1,1616,1163,0,0
399,-139,0,0,0,0,0,0,0,0,0,-1,1623,1163,0,0
406,-139,0,0,0,0,0,0,0,0,0,-1,1630,1163,0,0
413,-139,0,0,0,0,0,0,0,0,0,-1,1637,1163,0,0
420,-139,0,0,0,0,0,0,0,0,0,-1,1644,1163,0,0
427,-139,0,0,0,0,0,0,0,0,0,-1,1651,1163,0,0
434,-139,0,0,0,0,0,0,0,0,0,-1,1658,1163,0,0
441,-139,0,0,0,0,0,0,0,0,0,-1,1665,1163,0,0
448,-139,0,0,0,0,0,0,0,0,0,-1,1672,1163,0,0
455,-139,0,0,0,0,0,0,0,0,0,-1,1679,1163,0,0
462,-139,0,0,0,0,0,0,0,0,0,-1,1686,1163,0,0
469,-139,0,0,0,0,0,0,0,0,0,-1,1693,1163,0,0
476,-139,0,0,0,0,0,0,0,0,0,-1,1700,1163,0,0
483,-139,0,0,0,0,0,0,0,0,0,-1,1707,1163,0,0
490,-139,0,0,0,0,0,0,0,0,0,-1,1714,1163,0,0
497,-139,0,0,0,0,0,0,0,0,0,-1,1721,1163,0,0
504,-139,0,0,0,0,0,0,0,0,0,-1,1728,1163,0,0
511,-139,0,0,0,0,0,0,0,0,0,-1,1735,1163,0,0
518,-139,0,0,0,0,0,0,0,0,0,-1,1742,1163,0,0
525,-139,0,0,0,0,0,0,0,0,0,-1,1749,1163,0,0
532,-139,0,0,0,0,0,0,0,0,0,-1,1756,1163,0,0
539,-139,0,0,0,0,0,0,0,0,0,-1,1763,1163,0,0
546,-139,0,0,0,0,0,0,0,0,0,-1,1770,1163,0,0
553,-139,0,0,0,0,0,0,0,0,0,-1,1777,1163,0,0
560,-139,0,0,0,0,0,0,0,0,0,-1,1784,1163,0,0
567,-139,0,0,0,0,0,0,0,0,0,-1,1791,1163,0,0
574,-139,0,0,0,0,0,0,0,0,0,-1,1798,1163,0,0
581,-139,0,0,0,0,0,0,0,0,0,-1,1805,1163,0,0
588,-139,0,0,0,0,0,0,0,0,0,-1,1812,1163,0,0
595,-139,0,0,0,0,0,0,0,0,0,-1,1819,1163,0,0
602,-139,0,0,0,0,0,0,0,0,0,-1,1826,1163,0,0
609,-139,0,0,0,0,0,0,0,0,0,-1,1833,1163,0,0
616,-139,0,0,0,0,0,0,0,0,0,-1,1840,1163,0,0
623,-139,0,0,0,0,0,0,0,0,0,-1,1847,1163,0,0
630,-139,0,0,0,0,0,0,0,0,0,-1,1854,1163,0,0
637,-139,0,0,0,0,0,0,0,0,0,-1,1861,1163,0,0
644,-139,15.2876,2.53796,-0.00434142,0.000925763,0.000378485,0.000952821,-0.00436848,1.49943,0.00327644,0.040061,1868,1163,15.2875,-2.53795
651,-139,15.2507,2.4574,-0.00323038,0.00133296,-3.63322e-05,0.00133325,-0.00323067,-1.56284,0.00270982,0.0390638,1875,1163,15.2507,-2.45745
658,-139,15.1512,2.3158,-0.00271214,0.00160561,-3.50285e-05,0.0016059,-0.00271243,-1.56268,0.00252032,0.040842,1882,1163,15.1513,-2.31581
665,-139,15.0281,2.52478,-0.00307214,0.00129913,0.000704059,0.00140973,-0.00318274,1.41498,0.00271653,0.0387904,1889,1163,15.0281,-2.52478
672,-139,15.0101,2.36084,-0.00393058,0.000759446,0.00171739,0.00132107,-0.0044922,1.25474,0.00351881,0.0363644,1896,1163,15.0101,-2.36078
679,-139,15.1207,2.24841,-0.0048311,0.000165245,0.00265956,0.00131593,-0.00598178,1.16246,0.00449122,0.0333929,1903,1163,15.1208,-2.24844
686,-139,15.1179,2.35352,-0.00566853,-0.000399225,0.00347804,0.00132939,-0.00739715,1.10954,0.00542909,0.028923,1910,1163,15.118,-2.35353
693,-139,15.1152,2.36011,-0.00627768,-0.00085942,0.00404934,0.00130347,-0.00844056,1.08022,0.00610807,0.0178807,1917,1163,15.1153,-2.36007
700,-139,15.0533,2.45251,0,0,0,0,0,0,0,-1,1924,1163,15.0533,-2.45247
707,-139,14.658,2.90186,-0.00680415,-0.00156124,0.00460936,0.00111997,-0.00948536,1.04395,0.00672804,0.02351,1931,1163,14.658,-2.9018
714,-139,14.285,3.41089,-0.00673556,-0.00169963,0.00468624,0.00110227,-0.00953746,1.03192,0.00675577,0.0239343,1938,1163,14.285,-3.41094
721,-139,14.2644,3.32544,-0.0064919,-0.00166169,0.00450158,0.00103172,-0.00918532,1.03161,0.00649482,0.0175242,1945,1163,14.2644,-3.3254
728,-139,14.2767,3.26135,-0.00563297,-0.0014754,0.00390183,0.000866855,-0.00797522,1.03016,0.00562806,0.018602,1952,1163,14.2767,-3.2614
735,-139,14.2659,3.20874,-0.0042416,-0.00115664,0.00279299,0.000491495,-0.00588973,1.03769,0.00410015,0.0159406,1959,1163,14.2659,-3.20879
742,-139,14.2456,3.11768,-0.0023311,-0.000194383,0.001568,0.000634628,-0.00316011,1.08445,0.00234706,0.0211273,1966,1163,14.2456,-3.11763
749,-139,14.2333,3.05957,0.000432447,0.00135152,-0.00047191,0.00155067,0.000233292,-1.17146,0.000965459,0.0188756,1973,1163,14.2333,-3.05959
756,-139,14.235,3.00696,0.00366588,0.00401296,-0.00311227,0.00695653,0.000722312,-0.813249,0.00441665,0.0110017,1980,1163,14.235,-3.00699
763,-139,14.2548,2.9613,0.00724213,0.00687381,-0.00597895,0.0130398,0.00107618,-0.770002,0.00835757,0.01035,1987,1163,14.2548,-2.9613
770,-139,14.2557,2.89844,0.0110056,0.0103071,-0.00906685,0.0197299,0.00158276,-0.766148,0.0126587,0.0108167,1994,1163,14.2558,-2.89849
777,-139,14.2242,2.80676,0.0149806,0.0145978,-0.0125718,0.0273625,0.00221592,-0.777785,0.0175497,0.0205244,2001,1163,14.2242,-2.80673
784,-139,14.2289,2.67493,0.0194029,0.0200783,-0.016789,0.036533,0.00294812,-0.795454,0.0234345,0.0406256,2008,1163,14.2289,-2.67493
791,-139,14.4841,2.5509,0,0,0,0,0,0,0,-1,2015,1163,14.4841,-2.55093
798,-139,13.9072,2.75305,0,0,0,0,0,0,0,-1,2022,1163,13.9072,-2.75303
805,-139,14.9563,1.52271,0,0,0,0,0,0,0,-1,2029,1163,14.9563,-1.52268
812,-139,0,0,0,0,0,0,0,0,0,-1,2036,1163,0,0
-700,-146,0,0,0,0,0,0,0,0,0,-1,524,1170,0,0
-693,-146,-7.8067,-1.31873,0,0,0,0,0,0,0,-1,531,1170,-7.80671,1.31867
-686,-146,-8.04779,-0.999512,0.10557,-0.00257127,-0.016356,0.107989,-0.00499094,-0.146872,0.0737128,0.0465618,538,1170,-8.0478,0.999572
-679,-146,-8.29144,-0.591553,0,0,0,0,0,0,0,-1,545,1170,-8.29145,0.591521
-672,-146,-8.59686,-0.228516,0.0725332,-0.0017897,-0.0110501,0.0741413,-0.00339781,-0.144514,0.0505982,0.0433447,552,1170,-8.59684,0.2285
-665,-146,-8.60864,0.0554199,0.0566775,-0.00149853,-0.00883059,0.0579883,-0.0028094,-0.14737,0.0396286,0.0437241,559,1170,-8.60867,-0.0554599
-658,-146,-8.43042,0.377563,0.0427758,-0.00120326,-0.00694935,0.0438478,-0.00227523,-0.153049,0.030019,0.0440876,566,1170,-8.43042,-0.377555
-651,-146,-8.06824,0.511475,0.0311567,-0.00091357,-0.00539814,0.0320409,-0.00179782,-0.162364,0.0219844,0.038365,573,1170,-8.06824,-0.511485
-644,-146,-8.09985,0.642578,0.0218755,-0.000650355,-0.00413222,0.0226096,-0.00138446,-0.17582,0.0155551,0.0192747,580,1170,-8.09988,-0.642605
-637,-146,-8.11902,0.771851,0.0147464,-0.00045291,-0.0031665,0.0153797,-0.00108621,-0.197395,0.0106337,0.0104958,587,1170,-8.11902,-0.771823
-630,-146,-8.14325,0.857666,0.00940505,-0.000395171,-0.00272101,0.0101098,-0.00109997,-0.25345,0.00713487,0.0108054,594,1170,-8.14323,-0.857605
-623,-146,-8.15936,0.933228,0.0036831,-0.000628342,-0.003082,0.00528847,-0.00223372,-0.480218,0.00446071,0.0134651,601,1170,-8.15936,-0.933247
-616,-146,-8.21234,1.01538,-0.000820655,-0.000842967,-0.00383631,0.00300452,-0.00466814,-0.783944,0.00446439,0.0188223,608,1170,-8.21235,-1.01534
-609,-146,-8.1554,1.12659,-0.00377231,-0.00130528,-0.00449852,0.00212577,-0.00720337,-0.919211,0.00564585,0.0185377,615,1170,-8.1554,-1.12662
-602,-146,-8.1875,1.24048,-0.00560037,-0.00120341,-0.00527526,0.00231315,-0.00911693,-0.982831,0.00697799,0.0194292,622,1170,-8.18752,-1.24048
-595,-146,-8.21295,1.28516,-0.00710438,-0.00155848,-0.00599968,0.00227806,-0.0109409,-1.00187,0.00816,0.0114341,629,1170,-8.21294,-1.28511
-588,-146,-8.15802,1.40283,-0.00797026,-0.00179879,-0.00644661,0.00226254,-0.0120316,-1.00861,0.00887194,0.0136975,636,1170,-8.158,-1.40289
-581,-146,-8.09082,1.57825,-0.00840291,-0.00185013,-0.00658142,0.00222534,-0.0124784,-1.01635,0.00915134,0.0261269,643,1170,-8.09082,-1.57819
-574,-146,-8.60858,1.09802,-0.00861132,-0.00177841,-0.00639412,0.00205475,-0.0124445,-1.03076,0.00905925,0.0399145,650,1170,-8.6086,-1.09797
-567,-146,-9.18701,0.708496,0,0,0,0,0,0,0,-1,657,1170,-9.18701,-0.708539
-560,-146,-9.05597,0.592773,-0.00744342,-0.00121252,-0.00540897,0.00191406,-0.01057,-1.04668,0.00776374,0.0381954,664,1170,-9.05596,-0.592741
-553,-146,-9.08405,0.816895,-0.00608677,-0.000728988,-0.00418429,0.0015605,-0.00837625,-1.07013,0.00617046,0.0359182,671,1170,-9.08405,-0.816912
-546,-146,-9.12683,0.772095,-0.00396323,-8.96008e-05,-0.00248711,0.00112588,-0.00517871,-1.11622,0.00388257,0.0417765,678,1170,-9.12682,-0.772049
-539,-146,-8.99243,0.67627,-0.000955102,0.000723927,-0.000338115,0.000789457,-0.00102063,-1.37936,0.00104789,0.0429002,685,1170,-8.99245,-0.6763
-532,-146,-8.80835,0.72644,0.00312448,0.0017181,0.002107,0.00464253,0.000200045,0.624339,0.00303054,0.0393133,692,1170,-8.80838,-0.726481
-525,-146,-9.07776,0.866943,0.00727134,0.00258782,0.0036884,0.00929858,0.000560583,0.502555,0.0060209,0.0416521,699,1170,-9.07773,-0.866887
-518,-146,0,0,0,0,0,0,0,0,0,-1,706,1170,0,0
-511,-146,0,0,0,0,0,0,0,0,0,-1,713,1170,0,0
-504,-146,0,0,0,0,0,0,0,0,0,-1,720,1170,0,0
-497,-146,0,0,0,0,0,0,0,0,0,-1,727,1170,0,0
-490,-146,0,0,0,0,0,0,0,0,0,-1,734,1170,0,0
-483,-146,0,0,0,0,0,0,0,0,0,-1,741,1170,0,0
-476,-146,0,0,0,0,0,0,0,0,0,-1,748,1170,0,0
-469,-146,0,0,0,0,0,0,0,0,0,-1,755,1170,0,0
-462,-146,0,0,0,0,0,0,0,0,0,-1,762,1170,0,0
-455,-146,0,0,0,0,0,0,0,0,0,-1,769,1170,0,0
-448,-146,0,0,0,0,0,0,0,0,0,-1,776,1170,0,0
-441,-146,0,0,0,0,0,0,0,0,0,-1,783,1170,0,0
-434,-146,0,0,0,0,0,0,0,0,0,-1,790,1170,0,0
-427,-146,0,0,0,0,0,0,0,0,0,-1,797,1170,0,0
-420,-146,0,0,0,0,0,0,0,0,0,-1,804,1170,0,0
-413,-146,0,0,0,0,0,0,0,0,0,-1,811,1170,0,0
-406,-146,0,0,0,0,0,0,0,0,0,-1,818,1170,0,0
-399,-146,0,0,0,0,0,0,0,0,0,-1,825,1170,0,0
-392,-146,0,0,0,0,0,0,0,0,0,-1,832,1170,0,0
-385,-146,0,0,0,0,0,0,0,0,0,-1,839,1170,0,0
-378,-146,0,0,0,0,0,0,0,0,0,-1,846,1170,0,0
-371,-146,0,0,0,0,0,0,0,0,0,-1,853,1170,0,0
-364,-146,0,0,0,0,0,0,0,0,0,-1,860,1170,0,0
-357,-146,0,0,0,0,0,0,0,0,0,-1,867,1170,0,0
-350,-146,0,0,0,0,0,0,0,0,0,-1,874,1170,0,0
-343,-146,0,0,0,0,0,0,0,0,0,-1,881,1170,0,0
-336,-146,0,0,0,0,0,0,0,0,0,-1,888,1170,0,0
-329,-146,0,0,0,0,0,0,0,0,0,-1,895,1170,0,0
-322,-146,0,0,0,0,0,0,0,0,0,-1,902,1170,0,0
-315,-146,0,0,0,0,0,0,0,0,0,-1,909,1170,0,0
-308,-146,0,0,0,0,0,0,0,0,0,-1,916,1170,0,0
-301,-146,0,0,0,0,0,0,0,0,0,-1,923,1170,0,0
-294,-146,0,0,0,0,0,0,0,0,0,-1,930,1170,0,0
-287,-146,0,0,0,0,0,0,0,0,0,-1,937,1170,0,0
-280,-146,0,0,0,0,0,0,0,0,0,-1,944,1170,0,0
-273,-146,0,0,0,0,0,0,0,0,0,-1,951,1170,0,0
-266,-146,0,0,0,0,0,0,0,0,0,-1,958,1170,0,0
-259,-146,0,0,0,0,0,0,0,0,0,-1,965,1170,0,0
-252,-146,0,0,0,0,0,0,0,0,0,-1,972,1170,0,0
-245,-146,0,0,0,0,0,0,0,0,0,-1,979,1170,0,0
-238,-146,0,0,0,0,0,0,0,0,0,-1,986,1170,0,0
-231,-146,0,0,0,0,0,0,0,0,0,-1,993,1170,0,0
-224,-146,0,0,0,0,0,0,0,0,0,-1,1000,1170,0,0
-217,-146,0,0,0,0,0,0,0,0,0,-1,1007,1170,0,0
-210,-146,0,0,0,0,0,0,0,0,0,-1,1014,1170,0,0
-203,-146,0,0,0,0,0,0,0,0,0,-1,1021,1170,0,0
-196,-146,0,0,0,0,0,0,0,0,0,-1,1028,1170,0,0
-189,-146,0,0,0,0,0,0,0,0,0,-1,1035,1170,0,0
-182,-146,0,0,0,0,0,0,0,0,0,-1,1042,1170,0,0
-175,-146,0,0,0,0,0,0,0,0,0,-1,1049,1170,0,0
-168,-146,0,0,0,0,0,0,0,0,0,-1,1056,1170,0,0
-161,-146,0,0,0,0,0,0,0,0,0,-1,1063,1170,0,0
-154,-146,0,0,0,0,0,0,0,0,0,-1,1070,1170,0,0
-147,-146,0,0,0,0,0,0,0,0,0,-1,1077,1170,0,0
-140,-146,0,0,0,0,0,0,0,0,0,-1,1084,1170,0,0
-133,-146,0,0,0,0,0,0,0,0,0,-1,1091,1170,0,0
-126,-146,0,0,0,0,0,0,0,0,0,-1,1098,1170,0,0
-119,-146,0,0,0,0,0,0,0,0,0,-1,1105,1170,0,0
-112,-146,0,0,0,0,0,0,0,0,0,-1,1112,1170,0,0
-105,-146,0,0,0,0,0,0,0,0,0,-1,1119,1170,0,0
-98,-146,0,0,0,0,0,0,0,0,0,-1,1126,1170,0,0
-91,-146,0,0,0,0,0,0,0,0,0,-1,1133,1170,0,0
-84,-146,0,0,0,0,0,0,0,0,0,-1,1140,1170,0,0
-77,-146,0,0,0,0,0,0,0,0,0,-1,1147,1170,0,0
-70,-146,0,0,0,0,0,0,0,0,0,-1,1154,1170,0,0
-63,-146,0,0,0,0,0,0,0,0,0,-1,1161,1170,0,0
-56,-146,0,0,0,0,0,0,0,0,0,-1,1168,1170,0,0
-49,-146,0,0,0,0,0,0,0,0,0,-1,1175,1170,0,0
-42,-146,0,0,0,0,0,0,0,0,0,-1,1182,1170,0,0
-35,-146,0,0,0,0,0,0,0,0,0,-1,1189,1170,0,0
-28,-146,0,0,0,0,0,0,0,0,0,-1,1196,1170,0,0
-21,-146,0,0,0,0,0,0,0,0,0,-1,1203,1170,0,0
-14,-146,0,0,0,0,0,0,0,0,0,-1,1210,1170,0,0
-7,-146,0,0,0,0,0,0,0,0,0,-1,1217,1170,0,0
0,-146,0,0,0,0,0,0,0,0,0,-1,1224,1170,0,0
7,-146,0,0,0,0,0,0,0,0,0,-1,1231,1170,0,0
14,-146,0,0,0,0,0,0,0,0,0,-1,1238,1170,0,0
21,-146,0,0,0,0,0,0,0,0,0,-1,1245,1170,0,0
28,-146,0,0,0,0,0,0,0,0,0,-1,1252,1170,0,0
35,-146,0,0,0,0,0,0,0,0,0,-1,1259,1170,0,0
42,-146,0,0,0,0,0,0,0,0,0,-1,1266,1170,0,0
49,-146,0,0,0,0,0,0,0,0,0,-1,1273,1170,0,0
56,-146,0,0,0,0,0,0,0,0,0,-1,1280,1170,0,0
63,-146,0,0,0,0,0,0,0,0,0,-1,1287,1170,0,0
70,-146,0,0,0,0,0,0,0,0,0,-1,1294,1170,0,0
77,-146,0,0,0,0,0,0,0,0,0,-1,1301,1170,0,0
84,-146,0,0,0,0,0,0,0,0,0,-1,1308,1170,0,0
91,-146,0,0,0,0,0,0,0,0,0,-1,1315,1170,0,0
98,-146,0,0,0,0,0,0,0,0,0,-1,1322,1170,0,0
105,-146,0,0,0,0,0,0,0,0,0,-1,1329,1170,0,0
112,-146,0,0,0,0,0,0,0,0,0,-1,1336,1170,0,0
119,-146,0,0,0,0,0,0,0,0,0,-1,1343,1170,0,0
126,-146,0,0,0,0,0,0,0,0,0,-1,1350,1170,0,0
133,-146,0,0,0,0,0,0,0,0,0,-1,1357,1170,0,0
140,-146,0,0,0,0,0,0,0,0,0,-1,1364,1170,0,0
147,-146,0,0,0,0,0,0,0,0,0,-1,1371,1170,0,0
154,-146,0,0,0,0,0,0,0,0,0,-1,1378,1170,0,0
161,-146,0,0,0,0,0,0,0,0,0,-1,1385,1170,0,0
168,-146,0,0,0,0,0,0,0,0,0,-1,1392,1170,0,0
175,-146,0,0,0,0,0,0,0,0,0,-1,1399,1170,0,0
182,-146,0,0,0,0,0,0,0,0,0,-1,1406,1170,0,0
189,-146,0,0,0,0,0,0,0,0,0,-1,1413,1170,0,0
196,-146,0,0,0,0,0,0,0,0,0,-1,1420,1170,0,0
203,-146,0,0,0,0,0,0,0,0,0,-1,1427,1170,0,0
210,-146,0,0,0,0,0,0,0,0,0,-1,1434,1170,0,0
217,-146,0,0,0,0,0,0,0,0,0,-1,1441,1170,0,0
224,-146,0,0,0,0,0,0,0,0,0,-1,1448,1170,0,0
231,-146,0,0,0,0,0,0,0,0,0,-1,1455,1170,0,0
238,-146,0,0,0,0,0,0,0,0,0,-1,1462,1170,0,0
245,-146,0,0,0,0,0,0,0,0,0,-1,1469,1170,0,0
252,-146,0,0,0,0,0,0,0,0,0,-1,1476,1170,0,0
259,-146,0,0,0,0,0,0,0,0,0,-1,1483,1170,0,0
266,-146,0,0,0,0,0,0,0,0,0,-1,1490,1170,0,0
273,-146,0,0,0,0,0,0,0,0,0,-1,1497,1170,0,0
280,-146,0,0,0,0,0,0,0,0,0,-1,1504,1170,0,0
287,-146,0,0,0,0,0,0,0,0,0,-1,1511,1170,0,0
294,-146,0,0,0,0,0,0,0,0,0,-1,1518,1170,0,0
301,-146,0,0,0,0,0,0,0,0,0,-1,1525,1170,0,0
308,-146,0,0,0,0,0,0,0,0,0,-1,1532,1170,0,0
315,-146,0,0,0,0,0,0,0,0,0,-1,1539,1170,0,0
322,-146,0,0,0,0,0,0,0,0,0,-1,1546,1170,0,0
329,-146,0,0,0,0,0,0,0,0,0,-1,1553,1170,0,0
336,-146,0,0,0,0,0,0,0,0,0,-1,1560,1170,0,0
343,-146,0,0,0,0,0,0,0,0,0,-1,1567,1170,0,0
350,-146,0,0,0,0,0,0,0,0,0,-1,1574,1170,0,0
357,-146,0,0,0,0,0,0,0,0,0,-1,1581,1170,0,0
364,-146,0,0,0,0,0,0,0,0,0,-1,1588,1170,0,0
371,-146,0,0,0,0,0,0,0,0,0,-1,1595,1170,0,0
378,-146,0,0,0,0,0,0,0,0,0,-1,1602,1170,0,0
385,-146,0,0,0,0,0,0,0,0,0,-1,1609,1170,0,0
392,-146,0,0,0,0,0,0,0,0,0,-1,1616,1170,0,0
399,-146,0,0,0,0,0,0,0,0,0,-1,1623,1170,0,0
406,-146,0,0,0,0,0,0,0,0,0,-1,1630,1170,0,0
413,-146,0,0,0,0,0,0,0,0,0,-1,1637,1170,0,0
420,-146,0,0,0,0,0,0,0,0,0,-1,1644,1170,0,0
427,-146,0,0,0,0,0,0,0,0,0,-1,1651,1170,0,0
434,-146,0,0,0,0,0,0,0,0,0,-1,1658,1170,0,0
441,-146,0,0,0,0,0,0,0,0,0,-1,1665,1170,0,0
448,-146,0,0,0,0,0,0,0,0,0,-1,1672,1170,0,0
455,-146,0,0,0,0,0,0,0,0,0,-1,1679,1170,0,0
462,-146,0,0,0,0,0,0,0,0,0,-1,1686,1170,0,0
469,-146,0,0,0,0,0,0,0,0,0,-1,1693,1170,0,0
476,-146,0,0,0,0,0,0,0,0,0,-1,1700,1170,0,0
483,-146,0,0,0,0,0,0,0,0,0,-1,1707,1170,0,0
490,-146,0,0,0,0,0,0,0,0,0,-1,1714,1170,0,0
497,-146,0,0,0,0,0,0,0,0,0,-1,1721,1170,0,0
504,-146,0,0,0,0,0,0,0,0,0,-1,1728,1170,0,0
511,-146,0,0,0,0,0,0,0,0,0,-1,1735,1170,0,0
518,-146,0,0,0,0,0,0,0,0,0,-1,1742,1170,0,0
525,-146,0,0,0,0,0,0,0,0,0,-1,1749,1170,0,0
532,-146,0,0,0,0,0,0,0,0,0,-1,1756,1170,0,0
539,-146,0,0,0,0,0,0,0,0,0,-1,1763,1170,0,0
546,-146,0,0,0,0,0,0,0,0,0,-1,1770,1170,0,0
553,-146,0,0,0,0,0,0,0,0,0,-1,1777,1170,0,0
560,-146,0,0,0,0,0,0,0,0,0,-1,1784,1170,0,0
567,-146,0,0,0,0,0,0,0,0,0,-1,1791,1170,0,0
574,-146,0,0,0,0,0,0,0,0,0,-1,1798,1170,0,0
581,-146,0,0,0,0,0,0,0,0,0,-1,1805,1170,0,0
588,-146,0,0,0,0,0,0,0,0,0,-1,1812,1170,0,0
595,-146,0,0,0,0,0,0,0,0,0,-1,1819,1170,0,0
602,-146,0,0,0,0,0,0,0,0,0,-1,1826,1170,0,0
609,-146,0,0,0,0,0,0,0,0,0,-1,1833,1170,0,0
616,-146,0,0,0,0,0,0,0,0,0,-1,1840,1170,0,0
623,-146,0,0,0,0,0,0,0,0,0,-1,1847,1170,0,0
630,-146,0,0,0,0,0,0,0,0,0,-1,1854,1170,0,0
637,-146,15.2321,2.17163,0,0,0,0,0,0,0,-1,1861,1170,15.232,-2.17167
644,-146,15.2197,2.28381,-0.00457435,0.000703174,0.000281989,0.000718198,-0.00458937,1.51757,0.00332494,0.0369234,1868,1170,15.2197,-2.2838
651,-146,15.1891,2.28149,-0.0033986,0.00153639,5.43505e-05,0.00153699,-0.00339919,1.55978,0.00291672,0.0343664,1875,1170,15.1891,-2.28154
658,-146,15.1427,2.30518,-0.00305064,0.00210882,0.000352096,0.00213274,-0.00307456,1.50297,0.00302278,0.0368523,1882,1170,15.1427,-2.30513
665,-146,15.1108,2.37952,-0.00357197,0.00205087,0.00130763,0.00234009,-0.00386119,1.35312,0.00361604,0.038172,1889,1170,15.1108,-2.37957
672,-146,15.1023,2.36951,-0.00447216,0.00170161,0.00237541,0.00250977,-0.00528032,1.24286,0.00459145,0.036083,1896,1170,15.1023,-2.36947
679,-146,15.1501,2.28979,-0.00537995,0.00119891,0.00331605,0.0025803,-0.00676134,1.17608,0.00557056,0.0281879,1903,1170,15.1502,-2.28974
686,-146,15.0797,2.31067,-0.00618326,0.000660441,0.00409431,0.00257455,-0.00809737,1.13348,0.00643058,0.0203854,1910,1170,15.0797,-2.31064
693,-146,15.0894,2.28345,-0.00671771,0.000173855,0.00458377,0.00246256,-0.00900641,1.1077,0.00697164,0.0133711,1917,1170,15.0893,-2.28348
700,-146,15.0259,2.62585,0,0,0,0,0,0,0,-1,1924,1170,15.0258,-2.6259
707,-146,14.5714,3.06287,-0.00710297,-0.000721625,0.00494664,0.00197409,-0.00979869,1.07183,0.00728026,0.0304746,1931,1170,14.5714,-3.06284
714,-146,14.2424,3.42847,-0.00697111,-0.000968795,0.00489846,0.00177478,-0.00971468,1.06024,0.00714193,0.019092,1938,1170,14.2425,-3.42849
721,-146,14.2351,3.35352,-0.00660784,-0.00104591,0.00458878,0.00153882,-0.00919257,1.05782,0.00670048,0.0238425,1945,1170,14.2351,-3.3535
728,-146,14.2504,3.26306,-0.00559982,-0.000969971,0.00388294,0.00123573,-0.00780553,1.0542,0.00566074,0.0203254,1952,1170,14.2504,-3.26307
735,-146,14.191,3.23206,-0.00401298,-0.000788147,0.0026165,0.00067286,-0.00547399,1.06154,0.00389305,0.0174326,1959,1170,14.191,-3.23209
742,-146,14.1816,3.14319,-0.00185051,-3.94546e-05,0.00116167,0.000527926,-0.00241789,1.11646,0.00181369,0.0162139,1966,1170,14.1817,-3.1432
749,-146,14.1813,3.09143,0.00117597,0.0015619,-0.00111706,0.00250254,0.000235336,-0.870927,0.00159571,0.0156248,1973,1170,14.1813,-3.09146
756,-146,14.1896,3.00342,0.00465191,0.00437134,-0.0040235,0.00853757,0.000485685,-0.767972,0.00553692,0.0125038,1980,1170,14.1896,-3.00342
763,-146,14.1707,2.93188,0.00843284,0.00735142,-0.00711885,0.0150315,0.00075277,-0.747494,0.00977973,0.01062,1987,1170,14.1707,-2.93194
770,-146,14.1617,2.87134,0.0124747,0.0110035,-0.010521,0.0222857,0.00119244,-0.750497,0.0144761,0.0107592,1994,1170,14.1617,-2.87129
777,-146,14.1493,2.78552,0.0168713,0.0157004,-0.0145321,0.0308297,0.00174194,-0.765267,0.0199978,0.0196604,2001,1170,14.1492,-2.78553
784,-146,14.5206,2.63171,0.0218111,0.0218042,-0.0194287,0.0412363,0.00237893,-0.785309,0.0267332,0.0392574,2008,1170,14.5207,-2.63177
791,-146,14.5662,2.4187,0.0272182,0.0295757,-0.0253095,0.0537339,0.00306008,-0.808668,0.0348474,0.0431029,2015,1170,14.5662,-2.41871
798,-146,14.3545,2.20618,0.0329124,0.0392871,-0.032212,0.0684691,0.00373046,-0.834712,0.0444548,0.0438054,2022,1170,14.3545,-2.20614
805,-146,14.6326,1.75061,0.0384744,0.0511844,-0.040089,0.085419,0.00423986,-0.864005,0.0555866,0.0439216,2029,1170,14.6325,-1.75066
812,-146,0,0,0,0,0,0,0,0,0,-1,2036,1170,0,0
-700,-153,0,0,0,0,0,0,0,0,0,-1,524,1177,0,0
-693,-153,0,0,0,0,0,0,0,0,0,-1,531,1177,0,0
-686,-153,-7.20599,-0.355225,0,0,0,0,0,0,0,-1,538,1177,-7.20598,0.355253
-679,-153,-7.5899,0.225952,0,0,0,0,0,0,0,-1,545,1177,-7.58989,-0.225923
-672,-153,-7.76605,0.392334,0,0,0,0,0,0,0,-1,552,1177,-7.76608,-0.392368
-665,-153,-8.1355,0.46167,0,0,0,0,0,0,0,-1,559,1177,-8.13552,-0.461684
-658,-153,-8.06665,0.560547,0,0,0,0,0,0,0,-1,566,1177,-8.06666,-0.56055
-651,-153,-8.08057,0.650513,0.0295024,0.00324369,-0.00684731,0.0311807,0.00156543,-0.24036,0.0202855,0.04641,573,1177,-8.08058,-0.650488
-644,-153,-8.00427,0.685181,0.0212348,0.00237529,-0.00530434,0.0226243,0.000985792,-0.256199,0.0147653,0.0271414,580,1177,-8.00426,-0.685123
-637,-153,-8.01367,0.777954,0.0147071,0.0016656,-0.00406488,0.0158703,0.000502377,-0.278715,0.0104168,0.0112264,587,1177,-8.01368,-0.777968
-630,-153,-8.02106,0.873535,0.00973903,0.00106202,-0.00332341,0.0108657,-6.46035e-05,-0.326839,0.0072654,0.0100716,594,1177,-8.02104,-0.873575
-623,-153,-8.02734,0.959717,0.00439725,0.000293052,-0.00340592,0.00632151,-0.0016312,-0.514266,0.00485038,0.00971262,601,1177,-8.02734,-0.959756
-616,-153,-8.04993,1.03503,2.98207e-05,-0.000286989,-0.00397984,0.00385441,-0.00411158,-0.765508,0.00459997,0.0120891,608,1177,-8.04994,-1.03499
-609,-153,-8.04578,1.11609,-0.00305912,-0.0010481,-0.00454986,0.00260604,-0.00671326,-0.894149,0.00555195,0.0178104,615,1177,-8.04578,-1.11603
-602,-153,-8.08453,1.2019,-0.00510537,-0.00104549,-0.0051986,0.00250544,-0.0086563,-0.971534,0.00676253,0.0211728,622,1177,-8.08451,-1.20184
-595,-153,-8.10846,1.28931,-0.00681378,-0.00143158,-0.00582567,0.00229452,-0.0105399,-1.00177,0.00790325,0.0162563,629,1177,-8.10844,-1.28928
-588,-153,-8.08679,1.39648,-0.00779444,-0.00163426,-0.00627219,0.00227331,-0.011702,-1.01364,0.00865915,0.0117678,636,1177,-8.0868,-1.39654
-581,-153,-8.06171,1.51038,-0.00822979,-0.00164534,-0.00644288,0.00229773,-0.0121729,-1.0216,0.00897968,0.0219657,643,1177,-8.06172,-1.51042
-574,-153,-8.51935,1.13574,-0.00838414,-0.00153316,-0.00630285,0.0022149,-0.0121322,-1.03431,0.00891859,0.0441434,650,1177,-8.51934,-1.1358
-567,-153,-9.0423,0.804077,0,0,0,0,0,0,0,-1,657,1177,-9.0423,-0.804043
-560,-153,-9.03223,0.543945,-0.00716683,-0.000884718,-0.00557607,0.00237413,-0.0104257,-1.0419,0.00786224,0.0396411,664,1177,-9.03222,-0.54395
-553,-153,-9.05878,0.838745,-0.00582575,-0.000370135,-0.00455776,0.00221376,-0.00840964,-1.05505,0.00647181,0.0358514,671,1177,-9.05881,-0.838707
-546,-153,-9.10669,0.973511,-0.00369294,0.000296113,-0.00313505,0.00201732,-0.00541414,-1.06871,0.00443745,0.0409887,678,1177,-9.10671,-0.973552
-539,-153,-9.1272,1.00256,-0.000628681,0.00113238,-0.00134449,0.00185901,-0.00135532,-1.07531,0.00186337,0.0434492,685,1177,-9.12718,-1.00262
-532,-153,-9.25732,1.08228,0.00364461,0.00214817,0.000688597,0.00391325,0.00187954,0.371963,0.0022599,0.042854,692,1177,-9.25735,-1.08231
-525,-153,-9.33704,1.14331,0.00849166,0.00312463,0.00201841,0.00916601,0.00245028,0.322438,0.00547967,0.0423966,699,1177,-9.33706,-1.14337
-518,-153,0,0,0,0,0,0,0,0,0,-1,706,1177,0,0
-511,-153,0,0,0,0,0,0,0,0,0,-1,713,1177,0,0
-504,-153,0,0,0,0,0,0,0,0,0,-1,720,1177,0,0
-497,-153,0,0,0,0,0,0,0,0,0,-1,727,1177,0,0
-490,-153,0,0,0,0,0,0,0,0,0,-1,734,1177,0,0
-483,-153,0,0,0,0,0,0,0,0,0,-1,741,1177,0,0
-476,-153,0,0,0,0,0,0,0,0,0,-1,748,1177,0,0
-469,-153,0,0,0,0,0,0,0,0,0,-1,755,1177,0,0
-462,-153,0,0,0,0,0,0,0,0,0,-1,762,1177,0,0
-455,-153,0,0,0,0,0,0,0,0,0,-1,769,1177,0,0
-448,-153,0,0,0,0,0,0,0,0,0,-1,776,1177,0,0
-441,-153,0,0,0,0,0,0,0,0,0,-1,783,1177,0,0
-434,-153,0,0,0,0,0,0,0,0,0,-1,790,1177,0,0
-427,-153,0,0,0,0,0,0,0,0,0,-1,797,1177,0,0
-420,-153,0,0,0,0,0,0,0,0,0,-1,804,1177,0,0
-413,-153,0,0,0,0,0,0,0,0,0,-1,811,1177,0,0
-406,-153,0,0,0,0,0,0,0,0,0,-1,818,1177,0,0
-399,-153,0,0,0,0,0,0,0,0,0,-1,825,1177,0,0
-392,-153,0,0,0,0,0,0,0,0,0,-1,832,1177,0,0
-385,-153,0,0,0,0,0,0,0,0,0,-1,839,1177,0,0
-378,-153,0,0,0,0,0,0,0,0,0,-1,846,1177,0,0
-371,-153,0,0,0,0,0,0,0,0,0,-1,853,1177,0,0
-364,-153,0,0,0,0,0,0,0,0,0,-1,860,1177,0,0
-357,-153,0,0,0,0,0,0,0,0,0,-1,867,1177,0,0
-350,-153,0,0,0,0,0,0,0,0,0,-1,874,1177,0,0
-343,-153,0,0,0,0,0,0,0,0,0,-1,881,1177,0,0
-336,-153,0,0,0,0,0,0,0,0,0,-1,888,1177,0,0
-329,-153,0,0,0,0,0,0,0,0,0,-1,895,1177,0,0
-322,-153,0,0,0,0,0,0,0,0,0,-1,902,1177,0,0
-315,-153,0,0,0,0,0,0,0,0,0,-1,909,1177,0,0
-308,-153,0,0,0,0,0,0,0,0,0,-1,916,1177,0,0
-301,-153,0,0,0,0,0,0,0,0,0,-1,923,1177,0,0
-294,-153,0,0,0,0,0,0,0,0,0,-1,930,1177,0,0
-287,-153,0,0,0,0,0,0,0,0,0,-1,937,1177,0,0
-280,-153,0,0,0,0,0,0,0,0,0,-1,944,1177,0,0
-273,-153,0,0,0,0,0,0,0,0,0,-1,951,1177,0,0
-266,-153,0,0,0,0,0,0,0,0,0,-1,958,1177,0,0
-259,-153,0,0,0,0,0,0,0,0,0,-1,965,1177,0,0
-252,-153,0,0,0,0,0,0,0,0,0,-1,972,1177,0,0
-245,-153,0,0,0,0,0,0,0,0,0,-1,979,1177,0,0
-238,-153,0,0,0,0,0,0,0,0,0,-1,986,1177,0,0
-231,-153,0,0,0,0,0,0,0,0,0,-1,993,1177,0,0
-224,-153,0,0,0,0,0,0,0,0,0,-1,1000,1177,0,0
-217,-153,0,0,0,0,0,0,0,0,0,-1,1007,1177,0,0
-210,-153,0,0,0,0,0,0,0,0,0,-1,1014,1177,0,0
-203,-153,0,0,0,0,0,0,0,0,0,-1,1021,1177,0,0
-196,-153,0,0,0,0,0,0,0,0,0,-1,1028,1177,0,0
-189,-153,0,0,0,0,0,0,0,0,0,-1,1035,1177,0,0
-182,-153,0,0,0,0,0,0,0,0,0,-1,1042,1177,0,0
-175,-153,0,0,0,0,0,0,0,0,0,-1,1049,1177,0,0
-168,-153,0,0,0,0,0,0,0,0,0,-1,1056,1177,0,0
-161,-153,0,0,0,0,0,0,0,0,0,-1,1063,1177,0,0
-154,-153,0,0,0,0,0,0,0,0,0,-1,1070,1177,0,0
-147,-153,0,0,0,0,0,0,0,0,0,-1,1077,1177,0,0
-140,-153,0,0,0,0,0,0,0,0,0,-1,1084,1177,0,0
-133,-153,0,0,0,0,0,0,0,0,0,-1,1091,1177,0,0
-126,-153,0,0,0,0,0,0,0,0,0,-1,1098,1177,0,0
-119,-153,0,0,0,0,0,0,0,0,0,-1,1105,1177,0,0
-112,-153,0,0,0,0,0,0,0,0,0,-1,1112,1177,0,0
-105,-153,0,0,0,0,0,0,0,0,0,-1,1119,1177,0,0
-98,-153,0,0,0,0,0,0,0,0,0,-1,1126,1177,0,0
-91,-153,0,0,0,0,0,0,0,0,0,-1,1133,1177,0,0
-84,-153,0,0,0,0,0,0,0,0,0,-1,1140,1177,0,0
-77,-153,0,0,0,0,0,0,0,0,0,-1,1147,1177,0,0
-70,-153,0,0,0,0,0,0,0,0,0,-1,1154,1177,0,0
-63,-153,0,0,0,0,0,0,0,0,0,-1,1161,1177,0,0
-56,-153,0,0,0,0,0,0,0,0,0,-1,1168,1177,0,0
-49,-153,0,0,0,0,0,0,0,0,0,-1,1175,1177,0,0
-42,-153,0,0,0,0,0,0,0,0,0,-1,1182,1177,0,0
-35,-153,0,0,0,0,0,0,0,0,0,-1,1189,1177,0,0
-28,-153,0,0,0,0,0,0,0,0,0,-1,1196,1177,0,0
-21,-153,0,0,0,0,0,0,0,0,0,-1,1203,1177,0,0
-14,-153,0,0,0,0,0,0,0,0,0,-1,1210,1177,0,0
-7,-153,0,0,0,0,0,0,0,0,0,-1,1217,1177,0,0
0,-153,0,0,0,0,0,0,0,0,0,-1,1224,1177,0,0
7,-153,0,0,0,0,0,0,0,0,0,-1,1231,1177,0,0
14,-153,0,0,0,0,0,0,0,0,0,-1,1238,1177,0,0
21,-153,0,0,0,0,0,0,0,0,0,-1,1245,1177,0,0
28,-153,0,0,0,0,0,0,0,0,0,-1,1252,1177,0,0
35,-153,0,0,0,0,0,0,0,0,0,-1,1259,1177,0,0
42,-153,0,0,0,0,0,0,0,0,0,-1,1266,1177,0,0
49,-153,0,0,0,0,0,0,0,0,0,-1,1273,1177,0,0
56,-153,0,0,0,0,0,0,0,0,0,-1,1280,1177,0,0
63,-153,0,0,0,0,0,0,0,0,0,-1,1287,1177,0,0
70,-153,0,0,0,0,0,0,0,0,0,-1,1294,1177,0,0
77,-153,0,0,0,0,0,0,0,0,0,-1,1301,1177,0,0
84,-153,0,0,0,0,0,0,0,0,0,-1,1308,1177,0,0
91,-153,0,0,0,0,0,0,0,0,0,-1,1315,1177,0,0
98,-153,0,0,0,0,0,0,0,0,0,-1,1322,1177,0,0
105,-153,0,0,0,0,0,0,0,0,0,-1,1329,1177,0,0
112,-153,0,0,0,0,0,0,0,0,0,-1,1336,1177,0,0
119,-153,0,0,0,0,0,0,0,0,0,-1,1343,1177,0,0
126,-153,0,0,0,0,0,0,0,0,0,-1,1350,1177,0,0
133,-153,0,0,0,0,0,0,0,0,0,-1,1357,1177,0,0
140,-153,0,0,0,0,0,0,0,0,0,-1,1364,1177,0,0
147,-153,0,0,0,0,0,0,0,0,0,-1,1371,1177,0,0
154,-153,0,0,0,0,0,0,0,0,0,-1,1378,1177,0,0
161,-153,0,0,0,0,0,0,0,0,0,-1,1385,1177,0,0
168,-153,0,0,0,0,0,0,0,0,0,-1,1392,1177,0,0
175,-153,0,0,0,0,0,0,0,0,0,-1,1399,1177,0,0
182,-153,0,0,0,0,0,0,0,0,0,-1,1406,1177,0,0
189,-153,0,0,0,0,0,0,0,0,0,-1,1413,1177,0,0
196,-153,0,0,0,0,0,0,0,0,0,-1,1420,1177,0,0
203,-153,0,0,0,0,0,0,0,0,0,-1,1427,1177,0,0
210,-153,0,0,0,0,0,0,0,0,0,-1,1434,1177,0,0
217,-153,0,0,0,0,0,0,0,0,0,-1,1441,1177,0,0
224,-153,0,0,0,0,0,0,0,0,0,-1,1448,1177,0,0
231,-153,0,0,0,0,0,0,0,0,0,-1,1455,1177,0,0
238,-153,0,0,0,0,0,0,0,0,0,-1,1462,1177,0,0
245,-153,0,0,0,0,0,0,0,0,0,-1,1469,1177,0,0
252,-153,0,0,0,0,0,0,0,0,0,-1,1476,1177,0,0
259,-153,0,0,0,0,0,0,0,0,0,-1,1483,1177,0,0
266,-153,0,0,0,0,0,0,0,0,0,-1,1490,1177,0,0
273,-153,0,0,0,0,0,0,0,0,0,-1,1497,1177,0,0
280,-153,0,0,0,0,0,0,0,0,0,-1,1504,1177,0,0
287,-153,0,0,0,0,0,0,0,0,0,-1,1511,1177,0,0
294,-153,0,0,0,0,0,0,0,0,0,-1,1518,1177,0,0
301,-153,0,0,0,0,0,0,0,0,0,-1,1525,1177,0,0
308,-153,0,0,0,0,0,0,0,0,0,-1,1532,1177,0,0
315,-153,0,0,0,0,0,0,0,0,0,-1,1539,1177,0,0
322,-153,0,0,0,0,0,0,0,0,0,-1,1546,1177,0,0
329,-153,0,0,0,0,0,0,0,0,0,-1,1553,1177,0,0
336,-153,0,0,0,0,0,0,0,0,0,-1,1560,1177,0,0
343,-153,0,0,0,0,0,0,0,0,0,-1,1567,1177,0,0
350,-153,0,0,0,0,0,0,0,0,0,-1,1574,1177,0,0
357,-153,0,0,0,0,0,0,0,0,0,-1,1581,1177,0,0
364,-153,0,0,0,0,0,0,0,0,0,-1,1588,1177,0,0
371,-153,0,0,0,0,0,0,0,0,0,-1,1595,1177,0,0
378,-153,0,0,0,0,0,0,0,0,0,-1,1602,1177,0,0
385,-153,0,0,0,0,0,0,0,0,0,-1,1609,1177,0,0
392,-153,0,0,0,0,0,0,0,0,0,-1,1616,1177,0,0
399,-153,0,0,0,0,0,0,0,0,0,-1,1623,1177,0,0
406,-153,0,0,0,0,0,0,0,0,0,-1,1630,1177,0,0
413,-153,0,0,0,0,0,0,0,0,0,-1,1637,1177,0,0
420,-153,0,0,0,0,0,0,0,0,0,-1,1644,1177,0,0
427,-153,0,0,0,0,0,0,0,0,0,-1,1651,1177,0,0
434,-153,0,0,0,0,0,0,0,0,0,-1,1658,1177,0,0
441,-153,0,0,0,0,0,0,0,0,0,-1,1665,1177,0,0
448,-153,0,0,0,0,0,0,0,0,0,-1,1672,1177,0,0
455,-153,0,0,0,0,0,0,0,0,0,-1,1679,1177,0,0
462,-153,0,0,0,0,0,0,0,0,0,-1,1686,1177,0,0
469,-153,0,0,0,0,0,0,0,0,0,-1,1693,1177,0,0
476,-153,0,0,0,0,0,0,0,0,0,-1,1700,1177,0,0
483,-153,0,0,0,0,0,0,0,0,0,-1,1707,1177,0,0
490,-153,0,0,0,0,0,0,0,0,0,-1,1714,1177,0,0
497,-153,0,0,0,0,0,0,0,0,0,-1,1721,1177,0,0
504,-153,0,0,0,0,0,0,0,0,0,-1,1728,1177,0,0
511,-153,0,0,0,0,0,0,0,0,0,-1,1735,1177,0,0
518,-153,0,0,0,0,0,0,0,0,0,-1,1742,1177,0,0
525,-153,0,0,0,0,0,0,0,0,0,-1,1749,1177,0,0
532,-153,0,0,0,0,0,0,0,0,0,-1,1756,1177,0,0
539,-153,0,0,0,0,0,0,0,0,0,-1,1763,1177,0,0
546,-153,0,0,0,0,0,0,0,0,0,-1,1770,1177,0,0
553,-153,0,0,0,0,0,0,0,0,0,-1,1777,1177,0,0
560,-153,0,0,0,0,0,0,0,0,0,-1,1784,1177,0,0
567,-153,0,0,0,0,0,0,0,0,0,-1,1791,1177,0,0
574,-153,0,0,0,0,0,0,0,0,0,-1,1798,1177,0,0
581,-153,0,0,0,0,0,0,0,0,0,-1,1805,1177,0,0
588,-153,0,0,0,0,0,0,0,0,0,-1,1812,1177,0,0
595,-153,0,0,0,0,0,0,0,0,0,-1,1819,1177,0,0
602,-153,0,0,0,0,0,0,0,0,0,-1,1826,1177,0,0
609,-153,0,0,0,0,0,0,0,0,0,-1,1833,1177,0,0
616,-153,0,0,0,0,0,0,0,0,0,-1,1840,1177,0,0
623,-153,0,0,0,0,0,0,0,0,0,-1,1847,1177,0,0
630,-153,0,0,0,0,0,0,0,0,0,-1,1854,1177,0,0
637,-153,15.0197,2.26428,0,0,0,0,0,0,0,-1,1861,1177,15.0197,-2.26424
644,-153,15.1567,2.13928,-0.00480698,0.000834111,0.000253093,0.000845443,-0.00481831,1.52605,0.00352795,0.0377111,1868,1177,15.1567,-2.13932
651,-153,15.1567,2.24402,-0.00355861,0.00173468,0.000172794,0.00174032,-0.00356425,1.5382,0.00312236,0.0313637,1875,1177,15.1567,-2.24402
658,-153,15.131,2.30969,-0.00332636,0.00233177,0.000727014,0.00242369,-0.00341828,1.44503,0.00338912,0.0342454,1882,1177,15.131,-2.30966
665,-153,15.1316,2.31848,-0.00391246,0.00234348,0.00182939,0.00283917,-0.00440814,1.30619,0.00421679,0.0362098,1889,1177,15.1315,-2.31853
672,-153,15.0875,2.29883,-0.00479977,0.00207174,0.0029394,0.00315754,-0.00588557,1.21695,0.00529964,0.0350514,1896,1177,15.0875,-2.2988
679,-153,15.075,2.30347,-0.00568939,0.00161832,0.00388957,0.00330107,-0.00737215,1.16248,0.00630984,0.0263448,1903,1177,15.0749,-2.3035
686,-153,15.0792,2.31128,-0.0064488,0.00110593,0.00465079,0.00332008,-0.00866296,1.12647,0.00714397,0.0160488,1910,1177,15.0792,-2.31133
693,-153,15.1169,2.28381,-0.0069156,0.000622887,0.0050905,0.00318771,-0.00948043,1.10408,0.00760879,0.025211,1917,1177,15.1169,-2.28385
700,-153,15.0217,3.17139,0,0,0,0,0,0,0,-1,1924,1177,15.0218,-3.17144
707,-153,14.5619,3.28125,-0.00720735,-0.00035954,0.00532203,0.00254483,-0.0101117,1.07124,0.00773033,0.0369487,1931,1177,14.5618,-3.28128
714,-153,14.2162,3.37402,-0.0070376,-0.000651182,0.00516926,0.00223161,-0.00992039,1.06208,0.00746943,0.0200263,1938,1177,14.2162,-3.37399
721,-153,14.1975,3.3291,-0.00658294,-0.000792895,0.00474569,0.00187111,-0.00924694,1.05928,0.00687375,0.0176364,1945,1177,14.1975,-3.32908
728,-153,14.1941,3.26733,-0.00547403,-0.000766264,0.00395414,0.00148159,-0.00772189,1.05387,0.00570627,0.0234923,1952,1177,14.1941,-3.26735
735,-153,14.0947,3.21899,-0.00373132,-0.000648364,0.00254504,0.000785619,-0.0051653,1.05769,0.00373306,0.0159678,1959,1177,14.0947,-3.21902
742,-153,14.1094,3.15234,-0.0013619,8.73241e-06,0.000901354,0.000455713,-0.00180888,1.11043,0.00138308,0.0139298,1966,1177,14.1093,-3.15239
749,-153,14.1165,3.08923,0.00187745,0.0016749,-0.0015811,0.00336052,0.000191831,-0.753416,0.00217922,0.015663,1973,1177,14.1165,-3.08926
756,-153,14.1281,2.99438,0.00549765,0.00459169,-0.0047109,0.0097773,0.000312037,-0.737468,0.00641672,0.0115183,1980,1177,14.1281,-2.99444
763,-153,14.106,2.92297,0.00939842,0.00764697,-0.0079765,0.0165471,0.000498271,-0.730723,0.0108691,0.0112706,1987,1177,14.106,-2.92298
770,-153,14.11,2.86572,0.0136379,0.0114699,-0.01165,0.0242542,0.000853556,-0.739009,0.0158926,0.0101608,1994,1177,14.11,-2.86576
777,-153,14.103,2.74207,0.0183573,0.0165019,-0.0161118,0.033568,0.00129108,-0.75664,0.021961,0.0207995,2001,1177,14.1031,-2.74212
784,-153,14.3368,2.19165,0.023684,0.0231306,-0.0216307,0.0450398,0.00177486,-0.779003,0.0294527,0.0404643,2008,1177,14.3368,-2.19171
791,-153,14.6505,1.8363,0.0294834,0.0316894,-0.0283185,0.0589264,0.00224642,-0.804864,0.0385573,0.0435713,2015,1177,14.6505,-1.83629
798,-153,14.8431,1.63562,0.0355462,0.0425521,-0.0362576,0.0754756,0.00262275,-0.833555,0.049466,0.0443164,2022,1177,14.8432,-1.63561
805,-153,14.7657,1.36328,0.0413671,0.0560926,-0.0454432,0.0947656,0.00269412,-0.86571,0.0622985,0.0434138,2029,1177,14.7658,-1.36324
812,-153,0,0,0,0,0,0,0,0,0,-1,2036,1177,0,0
-700,-160,0,0,0,0,0,0,0,0,0,-1,524,1184,0,0
-693,-160,0,0,0,0,0,0,0,0,0,-1,531,1184,0,0
-686,-160,-6.42017,0.327881,0,0,0,0,0,0,0,-1,538,1184,-6.42018,-0.327941
-679,-160,-6.86865,1.00085,0,0,0,0,0,0,0,-1,545,1184,-6.86867,-1.00091
-672,-160,-6.97516,1.1322,0,0,0,0,0,0,0,-1,552,1184,-6.97513,-1.13222
-665,-160,-7.86475,-0.0743408,0,0,0,0,0,0,0,-1,559,1184,-7.86478,0.074332
-658,-160,-7.97742,0.475464,0.0400478,0.0119954,-0.00868087,0.0425168,0.00952636,-0.277101,0.025763,0.0489661,566,1184,-7.97744,-0.475434
-651,-160,-8.08398,0.997192,0.0305763,0.00911419,-0.00704447,0.032682,0.00700858,-0.29045,0.0198682,0.048716,573,1184,-8.08396,-0.997135
-644,-160,-7.88702,0.767456,0.022531,0.00669812,-0.00559998,0.0243115,0.00491766,-0.307833,0.0148425,0.0375308,580,1184,-7.887,-0.767433
-637,-160,-7.89148,0.774658,0.015999,0.00472743,-0.00437453,0.0174975,0.00322889,-0.330032,0.0107516,0.0135677,587,1184,-7.89151,-0.774707
-630,-160,-7.93512,0.83667,0.010949,0.00317385,-0.0035439,0.0123219,0.00180096,-0.369593,0.00768494,0.00834581,594,1184,-7.93509,-0.836663
-623,-160,-7.95801,0.924561,0.00555852,0.00162335,-0.00351553,0.00761963,-0.000437755,-0.530275,0.00523178,0.00966116,601,1184,-7.95802,-0.924562
-616,-160,-7.96387,1.02576,0.00111363,0.000434494,-0.00400238,0.00479082,-0.00324269,-0.743079,0.00466677,0.00848125,608,1184,-7.96388,-1.0257
-609,-160,-7.94928,1.13989,-0.00217074,-0.000782001,-0.00447303,0.00305023,-0.00600297,-0.862401,0.00531873,0.0115195,615,1184,-7.94927,-1.13988
-602,-160,-7.9502,1.24512,-0.00440937,-0.00100459,-0.00499698,0.00257203,-0.00798599,-0.949574,0.0063572,0.0176419,622,1184,-7.95019,-1.2451
-595,-160,-7.93579,1.35486,-0.00628997,-0.001489,-0.00553513,0.00214376,-0.00992272,-0.989999,0.0074335,0.0191211,629,1184,-7.93581,-1.35487
-588,-160,-7.97302,1.44006,-0.00733243,-0.00170401,-0.00599464,0.00210413,-0.0111406,-1.00486,0.0082187,0.0183474,636,1184,-7.973,-1.44006
-581,-160,-7.96497,1.50415,-0.0077618,-0.00172447,-0.00622058,0.0021712,-0.0116575,-1.0113,0.00858736,0.0166582,643,1184,-7.96494,-1.50419
-574,-160,-8.23376,1.41077,-0.00786162,-0.0016077,-0.00612858,0.00214555,-0.0116149,-1.0213,0.00854866,0.043917,650,1184,-8.23375,-1.41076
-567,-160,-8.81653,1.07874,-0.0073881,-0.00129852,-0.00597877,0.00236612,-0.0110527,-1.02092,0.00827079,0.0495746,657,1184,-8.81654,-1.07876
-560,-160,-9.16779,0.81897,0,0,0,0,0,0,0,-1,664,1184,-9.16777,-0.818998
-553,-160,-9.0813,0.770264,-0.00533567,-0.000470489,-0.00478655,0.00246615,-0.0082723,-1.0205,0.00649491,0.0389096,671,1184,-9.08132,-0.770229
-546,-160,-9.15863,0.931519,-0.00329501,0.000195929,-0.00360022,0.00245149,-0.00555057,-1.01111,0.00473407,0.0395282,678,1184,-9.15861,-0.931531
-539,-160,-9.31195,0.894775,-0.000346475,0.00104024,-0.00210146,0.00255977,-0.00186601,-0.944745,0.00256567,0.0408886,685,1184,-9.31194,-0.89478
-532,-160,-9.44293,0.916626,0.00383291,0.00207907,-0.00038102,0.00391211,0.00199987,-0.204943,0.00225885,0.0439919,692,1184,-9.44292,-0.916645
-525,-160,-9.39099,0.996582,0.00889604,0.0031684,0.000839867,0.00901666,0.00304779,0.142635,0.00529605,0.0446533,699,1184,-9.39098,-0.99661
-518,-160,-9.07336,0.845337,0.0128961,0.00381773,-0.00064341,0.0129415,0.00377236,-0.070404,0.00768526,0.0423608,706,1184,-9.07339,-0.845294
-511,-160,0,0,0,0,0,0,0,0,0,-1,713,1184,0,0
-504,-160,0,0,0,0,0,0,0,0,0,-1,720,1184,0,0
-497,-160,0,0,0,0,0,0,0,0,0,-1,727,1184,0,0
-490,-160,0,0,0,0,0,0,0,0,0,-1,734,1184,0,0
-483,-160,0,0,0,0,0,0,0,0,0,-1,741,1184,0,0
-476,-160,0,0,0,0,0,0,0,0,0,-1,748,1184,0,0
-469,-160,0,0,0,0,0,0,0,0,0,-1,755,1184,0,0
-462,-160,0,0,0,0,0,0,0,0,0,-1,762,1184,0,0
-455,-160,0,0,0,0,0,0,0,0,0,-1,769,1184,0,0
-448,-160,0,0,0,0,0,0,0,0,0,-1,776,1184,0,0
-441,-160,0,0,0,0,0,0,0,0,0,-1,783,1184,0,0
-434,-160,0,0,0,0,0,0,0,0,0,-1,790,1184,0,0
-427,-160,0,0,0,0,0,0,0,0,0,-1,797,1184,0,0
-420,-160,0,0,0,0,0,0,0,0,0,-1,804,1184,0,0
-413,-160,0,0,0,0,0,0,0,0,0,-1,811,1184,0,0
-406,-160,0,0,0,0,0,0,0,0,0,-1,818,1184,0,0
-399,-160,0,0,0,0,0,0,0,0,0,-1,825,1184,0,0
-392,-160,0,0,0,0,0,0,0,0,0,-1,832,1184,0,0
-385,-160,0,0,0,0,0,0,0,0,0,-1,839,1184,0,0
-378,-160,0,0,0,0,0,0,0,0,0,-1,846,1184,0,0
-371,-160,0,0,0,0,0,0,0,0,0,-1,853,1184,0,0
-364,-160,0,0,0,0,0,0,0,0,0,-1,860,1184,0,0
-357,-160,0,0,0,0,0,0,0,0,0,-1,867,1184,0,0
-350,-160,0,0,0,0,0,0,0,0,0,-1,874,1184,0,0
-343,-160,0,0,0,0,0,0,0,0,0,-1,881,1184,0,0
-336,-160,0,0,0,0,0,0,0,0,0,-1,888,1184,0,0
-329,-160,0,0,0,0,0,0,0,0,0,-1,895,1184,0,0
-322,-160,0,0,0,0,0,0,0,0,0,-1,902,1184,0,0
-315,-160,0,0,0,0,0,0,0,0,0,-1,909,1184,0,0
-308,-160,0,0,0,0,0,0,0,0,0,-1,916,1184,0,0
-301,-160,0,0,0,0,0,0,0,0,0,-1,923,1184,0,0
-294,-160,0,0,0,0,0,0,0,0,0,-1,930,1184,0,0
-287,-160,0,0,0,0,0,0,0,0,0,-1,937,1184,0,0
-280,-160,0,0,0,0,0,0,0,0,0,-1,944,1184,0,0
-273,-160,0,0,0,0,0,0,0,0,0,-1,951,1184,0,0
-266,-160,0,0,0,0,0,0,0,0,0,-1,958,1184,0,0
-259,-160,0,0,0,0,0,0,0,0,0,-1,965,1184,0,0
-252,-160,0,0,0,0,0,0,0,0,0,-1,972,1184,0,0
-245,-160,0,0,0,0,0,0,0,0,0,-1,979,1184,0,0
-238,-160,0,0,0,0,0,0,0,0,0,-1,986,1184,0,0
-231,-160,0,0,0,0,0,0,0,0,0,-1,993,1184,0,0
-224,-160,0,0,0,0,0,0,0,0,0,-1,1000,1184,0,0
-217,-160,0,0,0,0,0,0,0,0,0,-1,1007,1184,0,0
-210,-160,0,0,0,0,0,0,0,0,0,-1,1014,1184,0,0
-203,-160,0,0,0,0,0,0,0,0,0,-1,1021,1184,0,0
-196,-160,0,0,0,0,0,0,0,0,0,-1,1028,1184,0,0
-189,-160,0,0,0,0,0,0,0,0,0,-1,1035,1184,0,0
-182,-160,0,0,0,0,0,0,0,0,0,-1,1042,1184,0,0
-175,-160,0,0,0,0,0,0,0,0,0,-1,1049,1184,0,0
-168,-160,0,0,0,0,0,0,0,0,0,-1,1056,1184,0,0
-161,-160,0,0,0,0,0,0,0,0,0,-1,1063,1184,0,0
-154,-160,0,0,0,0,0,0,0,0,0,-1,1070,1184,0,0
-147,-160,0,0,0,0,0,0,0,0,0,-1,1077,1184,0,0
-140,-160,0,0,0,0,0,0,0,0,0,-1,1084,1184,0,0
-133,-160,0,0,0,0,0,0,0,0,0,-1,1091,1184,0,0
-126,-160,0,0,0,0,0,0,0,0,0,-1,1098,1184,0,0
-119,-160,0,0,0,0,0,0,0,0,0,-1,1105,1184,0,0
-112,-160,0,0,0,0,0,0,0,0,0,-1,1112,1184,0,0
-105,-160,0,0,0,0,0,0,0,0,0,-1,1119,1184,0,0
-98,-160,0,0,0,0,0,0,0,0,0,-1,1126,1184,0,0
-91,-160,0,0,0,0,0,0,0,0,0,-1,1133,1184,0,0
-84,-160,0,0,0,0,0,0,0,0,0,-1,1140,1184,0,0
-77,-160,0,0,0,0,0,0,0,0,0,-1,1147,1184,0,0
-70,-160,0,0,0,0,0,0,0,0,0,-1,1154,1184,0,0
-63,-160,0,0,0,0,0,0,0,0,0,-1,1161,1184,0,0
-56,-160,0,0,0,0,0,0,0,0,0,-1,1168,1184,0,0
-49,-160,0,0,0,0,0,0,0,0,0,-1,1175,1184,0,0
-42,-160,0,0,0,0,0,0,0,0,0,-1,1182,1184,0,0
-35,-160,0,0,0,0,0,0,0,0,0,-1,1189,1184,0,0
-28,-160,0,0,0,0,0,0,0,0,0,-1,1196,1184,0,0
-21,-160,0,0,0,0,0,0,0,0,0,-1,1203,1184,0,0
-14,-160,0,0,0,0,0,0,0,0,0,-1,1210,1184,0,0
-7,-160,0,0,0,0,0,0,0,0,0,-1,1217,1184,0,0
0,-160,0,0,0,0,0,0,0,0,0,-1,1224,1184,0,0
7,-160,0,0,0,0,0,0,0,0,0,-1,1231,1184,0,0
14,-160,0,0,0,0,0,0,0,0,0,-1,1238,1184,0,0
21,-160,0,0,0,0,0,0,0,0,0,-1,1245,1184,0,0
28,-160,0,0,0,0,0,0,0,0,0,-1,1252,1184,0,0
35,-160,0,0,0,0,0,0,0,0,0,-1,1259,1184,0,0
42,-160,0,0,0,0,0,0,0,0,0,-1,1266,1184,0,0
49,-160,0,0,0,0,0,0,0,0,0,-1,1273,1184,0,0
56,-160,0,0,0,0,0,0,0,0,0,-1,1280,1184,0,0
63,-160,0,0,0,0,0,0,0,0,0,-1,1287,1184,0,0
70,-160,0,0,0,0,0,0,0,0,0,-1,1294,1184,0,0
77,-160,0,0,0,0,0,0,0,0,0,-1,1301,1184,0,0
84,-160,0,0,0,0,0,0,0,0,0,-1,1308,1184,0,0
91,-160,0,0,0,0,0,0,0,0,0,-1,1315,1184,0,0
98,-160,0,0,0,0,0,0,0,0,0,-1,1322,1184,0,0
105,-160,0,0,0,0,0,0,0,0,0,-1,1329,1184,0,0
112,-160,0,0,0,0,0,0,0,0,0,-1,1336,1184,0,0
119,-160,0,0,0,0,0,0,0,0,0,-1,1343,1184,0,0
126,-160,0,0,0,0,0,0,0,0,0,-1,1350,1184,0,0
133,-160,0,0,0,0,0,0,0,0,0,-1,1357,1184,0,0
140,-160,0,0,0,0,0,0,0,0,0,-1,1364,1184,0,0
147,-160,0,0,0,0,0,0,0,0,0,-1,1371,1184,0,0
154,-160,0,0,0,0,0,0,0,0,0,-1,1378,1184,0,0
161,-160,0,0,0,0,0,0,0,0,0,-1,1385,1184,0,0
168,-160,0,0,0,0,0,0,0,0,0,-1,1392,1184,0,0
175,-160,0,0,0,0,0,0,0,0,0,-1,1399,1184,0,0
182,-160,0,0,0,0,0,0,0,0,0,-1,1406,1184,0,0
189,-160,0,0,0,0,0,0,0,0,0,-1,1413,1184,0,0
196,-160,0,0,0,0,0,0,0,0,0,-1,1420,1184,0,0
203,-160,0,0,0,0,0,0,0,0,0,-1,1427,1184,0,0
210,-160,0,0,0,0,0,0,0,0,0,-1,1434,1184,0,0
217,-160,0,0,0,0,0,0,0,0,0,-1,1441,1184,0,0
224,-160,0,0,0,0,0,0,0,0,0,-1,1448,1184,0,0
231,-160,0,0,0,0,0,0,0,0,0,-1,1455,1184,0,0
238,-160,0,0,0,0,0,0,0,0,0,-1,1462,1184,0,0
245,-160,0,0,0,0,0,0,0,0,0,-1,1469,1184,0,0
252,-160,0,0,0,0,0,0,0,0,0,-1,1476,1184,0,0
259,-160,0,0,0,0,0,0,0,0,0,-1,1483,1184,0,0
266,-160,0,0,0,0,0,0,0,0,0,-1,1490,1184,0,0
273,-160,0,0,0,0,0,0,0,0,0,-1,1497,1184,0,0
280,-160,0,0,0,0,0,0,0,0,0,-1,1504,1184,0,0
287,-160,0,0,0,0,0,0,0,0,0,-1,1511,1184,0,0
294,-160,0,0,0,0,0,0,0,0,0,-1,1518,1184,0,0
301,-160,0,0,0,0,0,0,0,0,0,-1,1525,1184,0,0
308,-160,0,0,0,0,0,0,0,0,0,-1,1532,1184,0,0
315,-160,0,0,0,0,0,0,0,0,0,-1,1539,1184,0,0
322,-160,0,0,0,0,0,0,0,0,0,-1,1546,1184,0,0
329,-160,0,0,0,0,0,0,0,0,0,-1,1553,1184,0,0
336,-160,0,0,0,0,0,0,0,0,0,-1,1560,1184,0,0
343,-160,0,0,0,0,0,0,0,0,0,-1,1567,1184,0,0
350,-160,0,0,0,0,0,0,0,0,0,-1,1574,1184,0,0
357,-160,0,0,0,0,0,0,0,0,0,-1,1581,1184,0,0
364,-160,0,0,0,0,0,0,0,0,0,-1,1588,1184,0,0
371,-160,0,0,0,0,0,0,0,0,0,-1,1595,1184,0,0
378,-160,0,0,0,0,0,0,0,0,0,-1,1602,1184,0,0
385,-160,0,0,0,0,0,0,0,0,0,-1,1609,1184,0,0
392,-160,0,0,0,0,0,0,0,0,0,-1,1616,1184,0,0
399,-160,0,0,0,0,0,0,0,0,0,-1,1623,1184,0,0
406,-160,0,0,0,0,0,0,0,0,0,-1,1630,1184,0,0
413,-160,0,0,0,0,0,0,0,0,0,-1,1637,1184,0,0
420,-160,0,0,0,0,0,0,0,0,0,-1,1644,1184,0,0
427,-160,0,0,0,0,0,0,0,0,0,-1,1651,1184,0,0
434,-160,0,0,0,0,0,0,0,0,0,-1,1658,1184,0,0
441,-160,0,0,0,0,0,0,0,0,0,-1,1665,1184,0,0
448,-160,0,0,0,0,0,0,0,0,0,-1,1672,1184,0,0
455,-160,0,0,0,0,0,0,0,0,0,-1,1679,1184,0,0
462,-160,0,0,0,0,0,0,0,0,0,-1,1686,1184,0,0
469,-160,0,0,0,0,0,0,0,0,0,-1,1693,1184,0,0
476,-160,0,0,0,0,0,0,0,0,0,-1,1700,1184,0,0
483,-160,0,0,0,0,0,0,0,0,0,-1,1707,1184,0,0
490,-160,0,0,0,0,0,0,0,0,0,-1,1714,1184,0,0
497,-160,0,0,0,0,0,0,0,0,0,-1,1721,1184,0,0
504,-160,0,0,0,0,0,0,0,0,0,-1,1728,1184,0,0
511,-160,0,0,0,0,0,0,0,0,0,-1,1735,1184,0,0
518,-160,0,0,0,0,0,0,0,0,0,-1,1742,1184,0,0
525,-160,0,0,0,0,0,0,0,0,0,-1,1749,1184,0,0
532,-160,0,0,0,0,0,0,0,0,0,-1,1756,1184,0,0
539,-160,0,0,0,0,0,0,0,0,0,-1,1763,1184,0,0
546,-160,0,0,0,0,0,0,0,0,0,-1,1770,1184,0,0
553,-160,0,0,0,0,0,0,0,0,0,-1,1777,1184,0,0
560,-160,0,0,0,0,0,0,0,0,0,-1,1784,1184,0,0
567,-160,0,0,0,0,0,0,0,0,0,-1,1791,1184,0,0
574,-160,0,0,0,0,0,0,0,0,0,-1,1798,1184,0,0
581,-160,0,0,0,0,0,0,0,0,0,-1,1805,1184,0,0
588,-160,0,0,0,0,0,0,0,0,0,-1,1812,1184,0,0
595,-160,0,0,0,0,0,0,0,0,0,-1,1819,1184,0,0
602,-160,0,0,0,0,0,0,0,0,0,-1,1826,1184,0,0
609,-160,0,0,0,0,0,0,0,0,0,-1,1833,1184,0,0
616,-160,0,0,0,0,0,0,0,0,0,-1,1840,1184,0,0
623,-160,0,0,0,0,0,0,0,0,0,-1,1847,1184,0,0
630,-160,0,0,0,0,0,0,0,0,0,-1,1854,1184,0,0
637,-160,15.0496,1.94482,0,0,0,0,0,0,0,-1,1861,1184,15.0495,-1.9448
644,-160,15.085,2.03503,-0.00500279,0.000435544,0.000183417,0.000441723,-0.00500897,1.53712,0.00349587,0.0428302,1868,1184,15.0849,-2.03508
651,-160,15.082,2.15942,-0.00372207,0.00155799,0.000266018,0.00157136,-0.00373544,1.52058,0.00314765,0.0383713,1875,1184,15.0821,-2.15942
658,-160,15.0588,2.27844,-0.00357182,0.00228707,0.00106298,0.00247396,-0.00375871,1.39675,0.00362383,0.0382398,1882,1184,15.0589,-2.27842
665,-160,15.0803,2.28381,-0.00414139,0.00245334,0.00224949,0.00314757,-0.00483562,1.27145,0.00464331,0.0378984,1889,1184,15.0803,-2.28379
672,-160,15.0669,2.26892,-0.004949,0.00231159,0.0033571,0.0036259,-0.00626331,1.19764,0.00577683,0.0333933,1896,1184,15.0669,-2.26887
679,-160,15.0432,2.33838,-0.00576293,0.00195853,0.00428105,0.00386258,-0.00766698,1.15231,0.00677631,0.0237034,1903,1184,15.0432,-2.3384
686,-160,15.082,2.32129,-0.00643364,0.00149636,0.0050011,0.00391354,-0.00885082,1.12057,0.00755104,0.0137028,1910,1184,15.0821,-2.32131
693,-160,15.0858,2.25745,-0.00680814,0.00103657,0.00537487,0.00376809,-0.00953966,1.10061,0.00792044,0.0363536,1917,1184,15.0858,-2.25747
700,-160,14.4491,2.77454,-0.00699845,0.000487429,0.00548872,0.00338795,-0.00989898,1.08465,0.00797232,0.0435393,1924,1184,14.4491,-2.77452
707,-160,14.0055,3.49841,-0.00699498,2.78989e-07,0.00545526,0.00298287,-0.00997757,1.07046,0.00783755,0.0366215,1931,1184,14.0055,-3.49836
714,-160,14.1522,3.42834,-0.00679902,-0.000334347,0.00521738,0.00257083,-0.00970419,1.06273,0.00747524,0.0276955,1938,1184,14.1522,-3.42832
721,-160,14.1267,3.29907,-0.00628346,-0.00055412,0.00471296,0.00209649,-0.00893407,1.05848,0.00676405,0.0144515,1945,1184,14.1268,-3.29904
728,-160,14.1101,3.27759,-0.00511963,-0.000569228,0.00385895,0.00163531,-0.00732417,1.05176,0.00550938,0.0129094,1952,1184,14.1101,-3.27762
735,-160,14.0579,3.19897,-0.00331423,-0.000461126,0.00237547,0.000883228,-0.00465859,1.0558,0.00343816,0.0127813,1959,1184,14.0579,-3.199
742,-160,14.0632,3.11047,-0.00087902,0.000114501,0.000638706,0.000426886,-0.0011914,1.11591,0.000968451,0.0157643,1966,1184,14.0632,-3.11044
749,-160,14.0636,3.04639,0.00243435,0.0018251,-0.00191463,0.00406844,0.000191014,-0.706508,0.00265092,0.0176176,1973,1184,14.0636,-3.04639
756,-160,14.0588,2.99707,0.00604916,0.00477396,-0.00509041,0.0105417,0.000281379,-0.723095,0.00693594,0.0115298,1980,1184,14.0588,-2.99709
763,-160,14.0547,2.93506,0.0099272,0.00786261,-0.00834853,0.017307,0.000482793,-0.723885,0.0113805,0.0118367,1987,1184,14.0547,-2.935
770,-160,14.0511,2.87817,0.0142246,0.0117925,-0.0121041,0.0251736,0.000843444,-0.735332,0.0165084,0.0170594,1994,1184,14.0511,-2.87823
777,-160,14.0464,2.63623,0.0191184,0.0170353,-0.0167864,0.0348955,0.00125813,-0.754414,0.0228559,0.0300313,2001,1184,14.0464,-2.63619
784,-160,14.1619,1.66492,0.024681,0.023988,-0.0226452,0.0469823,0.00168668,-0.777748,0.0307747,0.0415599,2008,1184,14.1618,-1.66494
791,-160,14.589,1.16248,0.030761,0.0330448,-0.0298294,0.0617541,0.00205166,-0.804529,0.0405029,0.0450058,2015,1184,14.589,-1.16246
798,-160,15.4554,1.0061,0.0371568,0.044655,-0.0384768,0.0795649,0.00224689,-0.833964,0.0523104,0.0415443,2022,1184,15.4555,-1.0061
805,-160,15.4315,0.817261,0.0433005,0.0592958,-0.0486544,0.100605,0.0019908,-0.866858,0.0664167,0.0458646,2029,1184,15.4315,-0.817214
812,-160,0,0,0,0,0,0,0,0,0,-1,2036,1184,0,0
-700,-167,0,0,0,0,0,0,0,0,0,-1,524,1191,0,0
-693,-167,0,0,0,0,0,0,0,0,0,-1,531,1191,0,0
-686,-167,-8.27576,1.56177,0.0610513,0.0401097,-0.0163566,0.0700015,0.0311595,-0.500685,0.0404964,0.0481841,538,1191,-8.27577,-1.56172
-679,-167,-8.44342,1.34363,0,0,0,0,0,0,0,-1,545,1191,-8.44344,-1.34358
-672,-167,-8.09863,1.53638,0,0,0,0,0,0,0,-1,552,1191,-8.09865,-1.53639
-665,-167,-8.01251,1.6283,0,0,0,0,0,0,0,-1,559,1191,-8.01254,-1.62824
-658,-167,-8.07874,1.6311,0.0380929,0.02047,-0.00872083,0.0416788,0.016884,-0.390114,0.0242073,0.0485592,566,1191,-8.07871,-1.63107
-651,-167,-7.85913,1.22937,0.0302394,0.0157677,-0.00711177,0.0331492,0.0128579,-0.388374,0.0192985,0.0478193,573,1191,-7.85911,-1.22934
-644,-167,-7.73004,0.800903,0.0231434,0.0117216,-0.00568279,0.0254891,0.00937587,-0.391465,0.0148865,0.0384936,580,1191,-7.73002,-0.800915
-637,-167,-7.77454,0.750122,0.0170583,0.0083666,-0.00444887,0.0189317,0.00649321,-0.398557,0.0111084,0.0155166,587,1191,-7.77456,-0.750108
-630,-167,-7.83276,0.813232,0.0121485,0.00573234,-0.0035478,0.0137236,0.00415725,-0.41782,0.00812588,0.00851115,594,1191,-7.83275,-0.813249
-623,-167,-7.84613,0.893921,0.00698451,0.00326057,-0.00340389,0.00900242,0.00124267,-0.535125,0.00563326,0.00999928,601,1191,-7.84611,-0.893874
-616,-167,-7.8429,1.0127,0.00257886,0.00134031,-0.00382826,0.00583761,-0.00191844,-0.705211,0.00466463,0.0131033,608,1191,-7.84288,-1.01267
-609,-167,-7.84967,1.12781,-0.000867624,-0.000425933,-0.00422454,0.00358353,-0.00487709,-0.811513,0.00490374,0.0128278,615,1191,-7.84966,-1.12776
-602,-167,-7.86761,1.19275,-0.00331478,-0.000926432,-0.00466055,0.0026905,-0.00693172,-0.910815,0.00573245,0.0137644,622,1191,-7.86759,-1.19277
-595,-167,-7.85895,1.33411,-0.00534201,-0.00151123,-0.00520657,0.00212109,-0.00897433,-0.961655,0.00680108,0.019118,629,1191,-7.85898,-1.33408
-588,-167,-7.85657,1.47522,-0.00639896,-0.00170563,-0.00576507,0.00217208,-0.0102767,-0.978682,0.00767825,0.0171394,636,1191,-7.85657,-1.47523
-581,-167,-7.85291,1.51001,-0.00681158,-0.00171078,-0.00611517,0.00236451,-0.0108869,-0.982962,0.00816108,0.0154467,643,1191,-7.85288,-1.50995
-574,-167,-7.95178,1.4668,-0.0068349,-0.00155546,-0.00613253,0.00248135,-0.0108717,-0.988635,0.00820102,0.0371345,650,1191,-7.95179,-1.46678
-567,-167,-8.42487,0.849609,-0.00629563,-0.00121327,-0.00609872,0.00285251,-0.0103614,-0.982797,0.00802917,0.0401836,657,1191,-8.42489,-0.849561
-560,-167,-8.94086,0.247314,0,0,0,0,0,0,0,-1,664,1191,-8.94088,-0.247333
-553,-167,-8.91608,0.448975,-0.00423897,-0.000298705,-0.00536018,0.00344194,-0.00797961,-0.961509,0.00676548,0.0356156,671,1191,-8.91609,-0.448925
-546,-167,-9.00549,0.614502,-0.00228943,0.000432901,-0.00444985,0.00372511,-0.00558164,-0.933824,0.00540878,0.0331921,678,1191,-9.0055,-0.614559
-539,-167,-9.02667,0.483276,0.000514025,0.00135435,-0.00325472,0.00421592,-0.00234754,-0.84959,0.00384025,0.0366063,685,1191,-9.02664,-0.483295
-532,-167,-9.12097,0.602417,0.00449933,0.0024713,-0.00183217,0.00557937,0.00139126,-0.532654,0.00335345,0.0431628,692,1191,-9.12095,-0.602392
-525,-167,-8.99878,0.521606,0.00955355,0.00368718,-0.000684999,0.00963247,0.00360826,-0.114711,0.00561931,0.0466825,699,1191,-8.99878,-0.521621
-518,-167,-8.8078,0.518555,0.0141831,0.00452786,-0.00184912,0.0145251,0.00418584,-0.182895,0.00863329,0.0434791,706,1191,-8.80781,-0.518511
-511,-167,0,0,0,0,0,0,0,0,0,-1,713,1191,0,0
-504,-167,0,0,0,0,0,0,0,0,0,-1,720,1191,0,0
-497,-167,0,0,0,0,0,0,0,0,0,-1,727,1191,0,0
-490,-167,0,0,0,0,0,0,0,0,0,-1,734,1191,0,0
-483,-167,0,0,0,0,0,0,0,0,0,-1,741,1191,0,0
-476,-167,0,0,0,0,0,0,0,0,0,-1,748,1191,0,0
-469,-167,0,0,0,0,0,0,0,0,0,-1,755,1191,0,0
-462,-167,0,0,0,0,0,0,0,0,0,-1,762,1191,0,0
-455,-167,0,0,0,0,0,0,0,0,0,-1,769,1191,0,0
-448,-167,0,0,0,0,0,0,0,0,0,-1,776,1191,0,0
-441,-167,0,0,0,0,0,0,0,0,0,-1,783,1191,0,0
-434,-167,0,0,0,0,0,0,0,0,0,-1,790,1191,0,0
-427,-167,0,0,0,0,0,0,0,0,0,-1,797,1191,0,0
-420,-167,0,0,0,0,0,0,0,0,0,-1,804,1191,0,0
-413,-167,0,0,0,0,0,0,0,0,0,-1,811,1191,0,0
-406,-167,0,0,0,0,0,0,0,0,0,-1,818,1191,0,0
-399,-167,0,0,0,0,0,0,0,0,0,-1,825,1191,0,0
-392,-167,0,0,0,0,0,0,0,0,0,-1,832,1191,0,0
-385,-167,0,0,0,0,0,0,0,0,0,-1,839,1191,0,0
-378,-167,0,0,0,0,0,0,0,0,0,-1,846,1191,0,0
-371,-167,0,0,0,0,0,0,0,0,0,-1,853,1191,0,0
-364,-167,0,0,0,0,0,0,0,0,0,-1,860,1191,0,0
-357,-167,0,0,0,0,0,0,0,0,0,-1,867,1191,0,0
-350,-167,0,0,0,0,0,0,0,0,0,-1,874,1191,0,0
-343,-167,0,0,0,0,0,0,0,0,0,-1,881,1191,0,0
-336,-167,0,0,0,0,0,0,0,0,0,-1,888,1191,0,0
-329,-167,0,0,0,0,0,0,0,0,0,-1,895,1191,0,0
-322,-167,0,0,0,0,0,0,0,0,0,-1,902,1191,0,0
-315,-167,0,0,0,0,0,0,0,0,0,-1,909,1191,0,0
-308,-167,0,0,0,0,0,0,0,0,0,-1,916,1191,0,0
-301,-167,0,0,0,0,0,0,0,0,0,-1,923,1191,0,0
-294,-167,0,0,0,0,0,0,0,0,0,-1,930,1191,0,0
-287,-167,0,0,0,0,0,0,0,0,0,-1,937,1191,0,0
-280,-167,0,0,0,0,0,0,0,0,0,-1,944,1191,0,0
-273,-167,0,0,0,0,0,0,0,0,0,-1,951,1191,0,0
-266,-167,0,0,0,0,0,0,0,0,0,-1,958,1191,0,0
-259,-167,0,0,0,0,0,0,0,0,0,-1,965,1191,0,0
-252,-167,0,0,0,0,0,0,0,0,0,-1,972,1191,0,0
-245,-167,0,0,0,0,0,0,0,0,0,-1,979,1191,0,0
-238,-167,0,0,0,0,0,0,0,0,0,-1,986,1191,0,0
-231,-167,0,0,0,0,0,0,0,0,0,-1,993,1191,0,0
-224,-167,0,0,0,0,0,0,0,0,0,-1,1000,1191,0,0
-217,-167,0,0,0,0,0,0,0,0,0,-1,1007,1191,0,0
-210,-167,0,0,0,0,0,0,0,0,0,-1,1014,1191,0,0
-203,-167,0,0,0,0,0,0,0,0,0,-1,1021,1191,0,0
-196,-167,0,0,0,0,0,0,0,0,0,-1,1028,1191,0,0
-189,-167,0,0,0,0,0,0,0,0,0,-1,1035,1191,0,0
-182,-167,0,0,0,0,0,0,0,0,0,-1,1042,1191,0,0
-175,-167,0,0,0,0,0,0,0,0,0,-1,1049,1191,0,0
-168,-167,0,0,0,0,0,0,0,0,0,-1,1056,1191,0,0
-161,-167,0,0,0,0,0,0,0,0,0,-1,1063,1191,0,0
-154,-167,0,0,0,0,0,0,0,0,0,-1,1070,1191,0,0
-147,-167,0,0,0,0,0,0,0,0,0,-1,1077,1191,0,0
-140,-167,0,0,0,0,0,0,0,0,0,-1,1084,1191,0,0
-133,-167,0,0,0,0,0,0,0,0,0,-1,1091,1191,0,0
-126,-167,0,0,0,0,0,0,0,0,0,-1,1098,1191,0,0
-119,-167,0,0,0,0,0,0,0,0,0,-1,1105,1191,0,0
-112,-167,0,0,0,0,0,0,0,0,0,-1,1112,1191,0,0
-105,-167,0,0,0,0,0,0,0,0,0,-1,1119,1191,0,0
-98,-167,0,0,0,0,0,0,0,0,0,-1,1126,1191,0,0
-91,-167,0,0,0,0,0,0,0,0,0,-1,1133,1191,0,0
-84,-167,0,0,0,0,0,0,0,0,0,-1,1140,1191,0,0
-77,-167,0,0,0,0,0,0,0,0,0,-1,1147,1191,0,0
-70,-167,0,0,0,0,0,0,0,0,0,-1,1154,1191,0,0
-63,-167,0,0,0,0,0,0,0,0,0,-1,1161,1191,0,0
-56,-167,0,0,0,0,0,0,0,0,0,-1,1168,1191,0,0
-49,-167,0,0,0,0,0,0,0,0,0,-1,1175,1191,0,0
-42,-167,0,0,0,0,0,0,0,0,0,-1,1182,1191,0,0
-35,-167,0,0,0,0,0,0,0,0,0,-1,1189,1191,0,0
-28,-167,0,0,0,0,0,0,0,0,0,-1,1196,1191,0,0
-21,-167,0,0,0,0,0,0,0,0,0,-1,1203,1191,0,0
-14,-167,0,0,0,0,0,0,0,0,0,-1,1210,1191,0,0
-7,-167,0,0,0,0,0,0,0,0,0,-1,1217,1191,0,0
0,-167,0,0,0,0,0,0,0,0,0,-1,1224,1191,0,0
7,-167,0,0,0,0,0,0,0,0,0,-1,1231,1191,0,0
14,-167,0,0,0,0,0,0,0,0,0,-1,1238,1191,0,0
21,-167,0,0,0,0,0,0,0,0,0,-1,1245,1191,0,0
28,-167,0,0,0,0,0,0,0,0,0,-1,1252,1191,0,0
35,-167,0,0,0,0,0,0,0,0,0,-1,1259,1191,0,0
42,-167,0,0,0,0,0,0,0,0,0,-1,1266,1191,0,0
49,-167,0,0,0,0,0,0,0,0,0,-1,1273,1191,0,0
56,-167,0,0,0,0,0,0,0,0,0,-1,1280,1191,0,0
63,-167,0,0,0,0,0,0,0,0,0,-1,1287,1191,0,0
70,-167,0,0,0,0,0,0,0,0,0,-1,1294,1191,0,0
77,-167,0,0,0,0,0,0,0,0,0,-1,1301,1191,0,0
84,-167,0,0,0,0,0,0,0,0,0,-1,1308,1191,0,0
91,-167,0,0,0,0,0,0,0,0,0,-1,1315,1191,0,0
98,-167,0,0,0,0,0,0,0,0,0,-1,1322,1191,0,0
105,-167,0,0,0,0,0,0,0,0,0,-1,1329,1191,0,0
112,-167,0,0,0,0,0,0,0,0,0,-1,1336,1191,0,0
119,-167,0,0,0,0,0,0,0,0,0,-1,1343,1191,0,0
126,-167,0,0,0,0,0,0,0,0,0,-1,1350,1191,0,0
133,-167,0,0,0,0,0,0,0,0,0,-1,1357,1191,0,0
140,-167,0,0,0,0,0,0,0,0,0,-1,1364,1191,0,0
147,-167,0,0,0,0,0,0,0,0,0,-1,1371,1191,0,0
154,-167,0,0,0,0,0,0,0,0,0,-1,1378,1191,0,0
161,-167,0,0,0,0,0,0,0,0,0,-1,1385,1191,0,0
168,-167,0,0,0,0,0,0,0,0,0,-1,1392,1191,0,0
175,-167,0,0,0,0,0,0,0,0,0,-1,1399,1191,0,0
182,-167,0,0,0,0,0,0,0,0,0,-1,1406,1191,0,0
189,-167,0,0,0,0,0,0,0,0,0,-1,1413,1191,0,0
196,-167,0,0,0,0,0,0,0,0,0,-1,1420,1191,0,0
203,-167,0,0,0,0,0,0,0,0,0,-1,1427,1191,0,0
210,-167,0,0,0,0,0,0,0,0,0,-1,1434,1191,0,0
217,-167,0,0,0,0,0,0,0,0,0,-1,1441,1191,0,0
224,-167,0,0,0,0,0,0,0,0,0,-1,1448,1191,0,0
231,-167,0,0,0,0,0,0,0,0,0,-1,1455,1191,0,0
238,-167,0,0,0,0,0,0,0,0,0,-1,1462,1191,0,0
245,-167,0,0,0,0,0,0,0,0,0,-1,1469,1191,0,0
252,-167,0,0,0,0,0,0,0,0,0,-1,1476,1191,0,0
259,-167,0,0,0,0,0,0,0,0,0,-1,1483,1191,0,0
266,-167,0,0,0,0,0,0,0,0,0,-1,1490,1191,0,0
273,-167,0,0,0,0,0,0,0,0,0,-1,1497,1191,0,0
280,-167,0,0,0,0,0,0,0,0,0,-1,1504,1191,0,0
287,-167,0,0,0,0,0,0,0,0,0,-1,1511,1191,0,0
294,-167,0,0,0,0,0,0,0,0,0,-1,1518,1191,0,0
301,-167,0,0,0,0,0,0,0,0,0,-1,1525,1191,0,0
308,-167,0,0,0,0,0,0,0,0,0,-1,1532,1191,0,0
315,-167,0,0,0,0,0,0,0,0,0,-1,1539,1191,0,0
322,-167,0,0,0,0,0,0,0,0,0,-1,1546,1191,0,0
329,-167,0,0,0,0,0,0,0,0,0,-1,1553,1191,0,0
336,-167,0,0,0,0,0,0,0,0,0,-1,1560,1191,0,0
343,-167,0,0,0,0,0,0,0,0,0,-1,1567,1191,0,0
350,-167,0,0,0,0,0,0,0,0,0,-1,1574,1191,0,0
357,-167,0,0,0,0,0,0,0,0,0,-1,1581,1191,0,0
364,-167,0,0,0,0,0,0,0,0,0,-1,1588,1191,0,0
371,-167,0,0,0,0,0,0,0,0,0,-1,1595,1191,0,0
378,-167,0,0,0,0,0,0,0,0,0,-1,1602,1191,0,0
385,-167,0,0,0,0,0,0,0,0,0,-1,1609,1191,0,0
392,-167,0,0,0,0,0,0,0,0,0,-1,1616,1191,0,0
399,-167,0,0,0,0,0,0,0,0,0,-1,1623,1191,0,0
406,-167,0,0,0,0,0,0,0,0,0,-1,1630,1191,0,0
413,-167,0,0,0,0,0,0,0,0,0,-1,1637,1191,0,0
420,-167,0,0,0,0,0,0,0,0,0,-1,1644,1191,0,0
427,-167,0,0,0,0,0,0,0,0,0,-1,1651,1191,0,0
434,-167,0,0,0,0,0,0,0,0,0,-1,1658,1191,0,0
441,-167,0,0,0,0,0,0,0,0,0,-1,1665,1191,0,0
448,-167,0,0,0,0,0,0,0,0,0,-1,1672,1191,0,0
455,-167,0,0,0,0,0,0,0,0,0,-1,1679,1191,0,0
462,-167,0,0,0,0,0,0,0,0,0,-1,1686,1191,0,0
469,-167,0,0,0,0,0,0,0,0,0,-1,1693,1191,0,0
476,-167,0,0,0,0,0,0,0,0,0,-1,1700,1191,0,0
483,-167,0,0,0,0,0,0,0,0,0,-1,1707,1191,0,0
490,-167,0,0,0,0,0,0,0,0,0,-1,1714,1191,0,0
497,-167,0,0,0,0,0,0,0,0,0,-1,1721,1191,0,0
504,-167,0,0,0,0,0,0,0,0,0,-1,1728,1191,0,0
511,-167,0,0,0,0,0,0,0,0,0,-1,1735,1191,0,0
518,-167,0,0,0,0,0,0,0,0,0,-1,1742,1191,0,0
525,-167,0,0,0,0,0,0,0,0,0,-1,1749,1191,0,0
532,-167,0,0,0,0,0,0,0,0,0,-1,1756,1191,0,0
539,-167,0,0,0,0,0,0,0,0,0,-1,1763,1191,0,0
546,-167,0,0,0,0,0,0,0,0,0,-1,1770,1191,0,0
553,-167,0,0,0,0,0,0,0,0,0,-1,1777,1191,0,0
560,-167,0,0,0,0,0,0,0,0,0,-1,1784,1191,0,0
567,-167,0,0,0,0,0,0,0,0,0,-1,1791,1191,0,0
574,-167,0,0,0,0,0,0,0,0,0,-1,1798,1191,0,0
581,-167,0,0,0,0,0,0,0,0,0,-1,1805,1191,0,0
588,-167,0,0,0,0,0,0,0,0,0,-1,1812,1191,0,0
595,-167,0,0,0,0,0,0,0,0,0,-1,1819,1191,0,0
602,-167,0,0,0,0,0,0,0,0,0,-1,1826,1191,0,0
609,-167,0,0,0,0,0,0,0,0,0,-1,1833,1191,0,0
616,-167,0,0,0,0,0,0,0,0,0,-1,1840,1191,0,0
623,-167,0,0,0,0,0,0,0,0,0,-1,1847,1191,0,0
630,-167,0,0,0,0,0,0,0,0,0,-1,1854,1191,0,0
637,-167,14.9785,1.86475,0,0,0,0,0,0,0,-1,1861,1191,14.9785,-1.86471
644,-167,15.0387,1.94531,-0.00500998,-0.000328615,-0.000166272,-0.000322717,-0.00501588,-1.53534,0.0032417,0.045993,1868,1191,15.0386,-1.94526
651,-167,15.0356,2.16724,-0.00372861,0.00126412,0.000263767,0.00127801,-0.0037425,1.51816,0.00301276,0.0414407,1875,1191,15.0356,-2.16724
658,-167,14.9702,2.25317,-0.00358167,0.00230953,0.00137543,0.00261483,-0.00388698,1.35237,0.0037777,0.0407635,1882,1191,14.9703,-2.25314
665,-167,15.0514,2.32495,-0.00405255,0.00275071,0.00267879,0.00367886,-0.0049807,1.23726,0.0050184,0.0370528,1889,1191,15.0514,-2.32499
672,-167,15.0801,2.34253,-0.00474319,0.00279684,0.00381701,0.00439177,-0.00633811,1.175,0.00622878,0.0271069,1896,1191,15.0801,-2.34249
679,-167,15.0547,2.35205,-0.00546627,0.00256816,0.00473397,0.00475969,-0.0076578,1.13724,0.00723403,0.0193689,1903,1191,15.0547,-2.35209
686,-167,15.0356,2.23816,-0.00604907,0.00216245,0.0054196,0.00485591,-0.00874252,1.10956,0.00795723,0.0246237,1910,1191,15.0356,-2.23813
693,-167,14.9961,2.12451,-0.00635334,0.00171483,0.00573227,0.00469021,-0.00932873,1.09202,0.0082402,0.0466775,1917,1191,14.9961,-2.12455
700,-167,14.4419,2.88708,-0.00650657,0.00113473,0.00578051,0.00424313,-0.00961496,1.07742,0.00819889,0.038366,1924,1191,14.4419,-2.88707
707,-167,13.8638,3.58313,0,0,0,0,0,0,0,-1,1931,1191,13.8638,-3.58308
714,-167,14.0696,3.47375,-0.00632645,0.000171127,0.00532995,0.00316437,-0.0093197,1.0591,0.00749403,0.0216779,1938,1191,14.0696,-3.47375
721,-167,14.0756,3.31812,-0.00577808,-0.000151431,0.0047299,0.00253858,-0.00846809,1.05369,0.00665499,0.0187358,1945,1191,14.0756,-3.31807
728,-167,14.0303,3.29102,-0.00461835,-0.000257388,0.00378161,0.00192734,-0.00680308,1.04692,0.00529605,0.013755,1952,1191,14.0303,-3.29096
735,-167,13.9896,3.22632,-0.00284646,-0.000173141,0.00220975,0.00107277,-0.00409236,1.0574,0.00314737,0.0131876,1959,1191,13.9896,-3.22637
742,-167,13.9838,3.13977,-0.000389761,0.000297034,0.000382776,0.000467873,-0.0005606,1.15101,0.000594593,0.0151455,1966,1191,13.9837,-3.13977
749,-167,13.9763,3.07349,0.00292718,0.00204596,-0.00221144,0.00474147,0.000231667,-0.687065,0.00308666,0.0144388,1973,1191,13.9763,-3.07344
756,-167,13.9795,3.00964,0.00647996,0.00498919,-0.0053946,0.0111804,0.00028872,-0.716747,0.00735926,0.0110065,1980,1191,13.9795,-3.00966
763,-167,13.9595,2.90967,0.010315,0.0081175,-0.00865576,0.0179415,0.000491049,-0.722265,0.0118007,0.0116204,1987,1191,13.9595,-2.90971
770,-167,13.9503,2.8916,0.0146612,0.0121667,-0.0125188,0.0259947,0.000833221,-0.735747,0.0170588,0.0214435,1994,1191,13.9503,-2.89161
777,-167,14.24,2.76331,0.0197153,0.0176391,-0.0174423,0.0361503,0.00120408,-0.755675,0.0237091,0.0385147,2001,1191,14.24,-2.76335
784,-167,14.9249,2.38232,0.0255017,0.0249513,-0.0236631,0.0488912,0.00156186,-0.779584,0.0320862,0.0466201,2008,1191,14.9249,-2.38232
791,-167,15.2615,2.0708,0,0,0,0,0,0,0,-1,2015,1191,15.2615,-2.07078
798,-167,15.8975,0.498169,0.0386344,0.0469691,-0.040748,0.0837623,0.00184116,-0.836357,0.0552381,0.0455037,2022,1191,15.8975,-0.498193
805,-167,16.3304,0.0112305,0.0451517,0.0627311,-0.0519081,0.106588,0.00129437,-0.869269,0.0706315,0.0478316,2029,1191,16.3305,-0.0112644
812,-167,0,0,0,0,0,0,0,0,0,-1,2036,1191,0,0
-700,-174,0,0,0,0,0,0,0,0,0,-1,524,1198,0,0
-693,-174,0,0,0,0,0,0,0,0,0,-1,531,1198,0,0
-686,-174,-8.216,1.10999,0,0,0,0,0,0,0,-1,538,1198,-8.216,-1.11
-679,-174,-8.02747,1.14795,0,0,0,0,0,0,0,-1,545,1198,-8.02746,-1.14795
-672,-174,-7.93121,1.13208,0.0542095,0.0443517,-0.0102581,0.0606614,0.0378998,-0.561438,0.0353845,0.0494411,552,1198,-7.93122,-1.13203
-665,-174,-7.84399,1.17444,0.0483488,0.0368976,-0.00883588,0.053152,0.0320944,-0.497918,0.030907,0.0491471,559,1198,-7.84397,-1.17447
-658,-174,-7.73267,1.23682,0.0411945,0.0296335,-0.00745649,0.0448487,0.0259793,-0.455671,0.0260017,0.0453942,566,1198,-7.73269,-1.23676
-651,-174,-7.67212,0.956543,0.0337226,0.0229867,-0.00618165,0.0365417,0.0201676,-0.427868,0.0211352,0.0439977,573,1198,-7.67212,-0.956577
-644,-174,-7.63623,0.754517,0.0265784,0.0172049,-0.00501742,0.0287575,0.0150258,-0.409729,0.0166088,0.0414316,580,1198,-7.63621,-0.754515
-637,-174,-7.67853,0.711182,0.0201615,0.0123734,-0.00397925,0.021835,0.0106999,-0.398112,0.0126073,0.0210666,587,1198,-7.67851,-0.711156
-630,-174,-7.71771,0.811035,0.0148001,0.00857402,-0.00317848,0.016136,0.00723803,-0.397901,0.00933256,0.0120502,594,1198,-7.71774,-0.810976
-623,-174,-7.73071,0.916382,0.00938976,0.00515602,-0.00305618,0.0109906,0.00355518,-0.482509,0.00647591,0.0140099,601,1198,-7.73069,-0.916386
-616,-174,-7.72314,1.03589,0.00463626,0.00241812,-0.00351084,0.00720905,-0.000154661,-0.632409,0.00485841,0.0202572,608,1198,-7.72314,-1.03589
-609,-174,-7.73877,1.13257,0.000808263,5.56844e-05,-0.00387883,0.00432901,-0.00346507,-0.737044,0.00450912,0.0221354,615,1198,-7.73875,-1.13254
-602,-174,-7.76532,1.19409,-0.00187296,-0.000760329,-0.00425731,0.00297686,-0.00561014,-0.850366,0.00503481,0.0141299,622,1198,-7.76535,-1.19404
-595,-174,-7.75006,1.31653,-0.00404862,-0.00147107,-0.00480935,0.00221919,-0.00773888,-0.916309,0.00603652,0.0119712,629,1198,-7.75005,-1.31656
-588,-174,-7.75916,1.44604,-0.00512226,-0.00164197,-0.00545232,0.00234116,-0.00910539,-0.939867,0.00698272,0.0131134,636,1198,-7.75915,-1.44609
-581,-174,-7.76367,1.52563,-0.00557034,-0.00160356,-0.00588469,0.002623,-0.0097969,-0.947941,0.00755885,0.0145294,643,1198,-7.76367,-1.52566
-574,-174,-8.04437,1.42651,-0.00560232,-0.00138873,-0.00595972,0.00282562,-0.00981667,-0.955296,0.00766201,0.0342404,650,1198,-8.04435,-1.42651
-567,-174,-8.04681,0.519043,-0.00506834,-0.000996696,-0.00599107,0.003295,-0.00936003,-0.949182,0.00758093,0.0416953,657,1198,-8.0468,-0.519035
-560,-174,-8.33533,-0.304321,0,0,0,0,0,0,0,-1,664,1198,-8.33534,0.304276
-553,-174,-8.90802,0.432007,-0.00320799,-7.12909e-06,-0.00560056,0.00421719,-0.0074323,-0.92457,0.00681068,0.0345607,671,1198,-8.90801,-0.432007
-546,-174,-8.98047,0.63623,-0.00152118,0.000766608,-0.00492431,0.00467814,-0.00543271,-0.899522,0.00584292,0.0286643,678,1198,-8.98044,-0.636274
-539,-174,-9.02728,0.581177,0.000905689,0.00171932,-0.00400323,0.00533635,-0.00271134,-0.836035,0.00472801,0.0352571,685,1198,-9.02731,-0.581144
-532,-174,-8.99762,0.395386,0.00437475,0.00283397,-0.0028737,0.00657953,0.000629189,-0.654436,0.00419239,0.045255,692,1198,-8.99765,-0.395411
-525,-174,-8.88763,0.374634,0.00896566,0.00403136,-0.00186785,0.00959297,0.00340404,-0.324011,0.00561576,0.0453106,699,1198,-8.88763,-0.374616
-518,-174,-8.73767,0.377319,0.0137226,0.00485884,-0.00269767,0.0144791,0.00410237,-0.273395,0.00861715,0.0424209,706,1198,-8.73766,-0.377293
-511,-174,0,0,0,0,0,0,0,0,0,-1,713,1198,0,0
-504,-174,0,0,0,0,0,0,0,0,0,-1,720,1198,0,0
-497,-174,0,0,0,0,0,0,0,0,0,-1,727,1198,0,0
-490,-174,0,0,0,0,0,0,0,0,0,-1,734,1198,0,0
-483,-174,0,0,0,0,0,0,0,0,0,-1,741,1198,0,0
-476,-174,0,0,0,0,0,0,0,0,0,-1,748,1198,0,0
-469,-174,0,0,0,0,0,0,0,0,0,-1,755,1198,0,0
-462,-174,0,0,0,0,0,0,0,0,0,-1,762,1198,0,0
-455,-174,0,0,0,0,0,0,0,0,0,-1,769,1198,0,0
-448,-174,0,0,0,0,0,0,0,0,0,-1,776,1198,0,0
-441,-174,0,0,0,0,0,0,0,0,0,-1,783,1198,0,0
-434,-174,0,0,0,0,0,0,0,0,0,-1,790,1198,0,0
-427,-174,0,0,0,0,0,0,0,0,0,-1,797,1198,0,0
-420,-174,0,0,0,0,0,0,0,0,0,-1,804,1198,0,0
-413,-174,0,0,0,0,0,0,0,0,0,-1,811,1198,0,0
-406,-174,0,0,0,0,0,0,0,0,0,-1,818,1198,0,0
-399,-174,0,0,0,0,0,0,0,0,0,-1,825,1198,0,0
-392,-174,0,0,0,0,0,0,0,0,0,-1,832,1198,0,0
-385,-174,0,0,0,0,0,0,0,0,0,-1,839,1198,0,0
-378,-174,0,0,0,0,0,0,0,0,0,-1,846,1198,0,0
-371,-174,0,0,0,0,0,0,0,0,0,-1,853,1198,0,0
-364,-174,0,0,0,0,0,0,0,0,0,-1,860,1198,0,0
-357,-174,0,0,0,0,0,0,0,0,0,-1,867,1198,0,0
-350,-174,0,0,0,0,0,0,0,0,0,-1,874,1198,0,0
-343,-174,0,0,0,0,0,0,0,0,0,-1,881,1198,0,0
-336,-174,0,0,0,0,0,0,0,0,0,-1,888,1198,0,0
-329,-174,0,0,0,0,0,0,0,0,0,-1,895,1198,0,0
-322,-174,0,0,0,0,0,0,0,0,0,-1,902,1198,0,0
-315,-174,0,0,0,0,0,0,0,0,0,-1,909,1198,0,0
-308,-174,0,0,0,0,0,0,0,0,0,-1,916,1198,0,0
-301,-174,0,0,0,0,0,0,0,0,0,-1,923,1198,0,0
-294,-174,0,0,0,0,0,0,0,0,0,-1,930,1198,0,0
-287,-174,0,0,0,0,0,0,0,0,0,-1,937,1198,0,0
-280,-174,0,0,0,0,0,0,0,0,0,-1,944,1198,0,0
-273,-174,0,0,0,0,0,0,0,0,0,-1,951,1198,0,0
-266,-174,0,0,0,0,0,0,0,0,0,-1,958,1198,0,0
-259,-174,0,0,0,0,0,0,0,0,0,-1,965,1198,0,0
-252,-174,0,0,0,0,0,0,0,0,0,-1,972,1198,0,0
-245,-174,0,0,0,0,0,0,0,0,0,-1,979,1198,0,0
-238,-174,0,0,0,0,0,0,0,0,0,-1,986,1198,0,0
-231,-174,0,0,0,0,0,0,0,0,0,-1,993,1198,0,0
-224,-174,0,0,0,0,0,0,0,0,0,-1,1000,1198,0,0
-217,-174,0,0,0,0,0,0,0,0,0,-1,1007,1198,0,0
-210,-174,0,0,0,0,0,0,0,0,0,-1,1014,1198,0,0
-203,-174,0,0,0,0,0,0,0,0,0,-1,1021,1198,0,0
-196,-174,0,0,0,0,0,0,0,0,0,-1,1028,1198,0,0
-189,-174,0,0,0,0,0,0,0,0,0,-1,1035,1198,0,0
-182,-174,0,0,0,0,0,0,0,0,0,-1,1042,1198,0,0
-175,-174,0,0,0,0,0,0,0,0,0,-1,1049,1198,0,0
-168,-174,0,0,0,0,0,0,0,0,0,-1,1056,1198,0,0
-161,-174,0,0,0,0,0,0,0,0,0,-1,1063,1198,0,0
-154,-174,0,0,0,0,0,0,0,0,0,-1,1070,1198,0,0
-147,-174,0,0,0,0,0,0,0,0,0,-1,1077,1198,0,0
-140,-174,0,0,0,0,0,0,0,0,0,-1,1084,1198,0,0
-133,-174,0,0,0,0,0,0,0,0,0,-1,1091,1198,0,0
-126,-174,0,0,0,0,0,0,0,0,0,-1,1098,1198,0,0
-119,-174,0,0,0,0,0,0,0,0,0,-1,1105,1198,0,0
-112,-174,0,0,0,0,0,0,0,0,0,-1,1112,1198,0,0
-105,-174,0,0,0,0,0,0,0,0,0,-1,1119,1198,0,0
-98,-174,0,0,0,0,0,0,0,0,0,-1,1126,1198,0,0
-91,-174,0,0,0,0,0,0,0,0,0,-1,1133,1198,0,0
-84,-174,0,0,0,0,0,0,0,0,0,-1,1140,1198,0,0
-77,-174,0,0,0,0,0,0,0,0,0,-1,1147,1198,0,0
-70,-174,0,0,0,0,0,0,0,0,0,-1,1154,1198,0,0
-63,-174,0,0,0,0,0,0,0,0,0,-1,1161,1198,0,0
-56,-174,0,0,0,0,0,0,0,0,0,-1,1168,1198,0,0
-49,-174,0,0,0,0,0,0,0,0,0,-1,1175,1198,0,0
-42,-174,0,0,0,0,0,0,0,0,0,-1,1182,1198,0,0
-35,-174,0,0,0,0,0,0,0,0,0,-1,1189,1198,0,0
-28,-174,0,0,0,0,0,0,0,0,0,-1,1196,1198,0,0
-21,-174,0,0,0,0,0,0,0,0,0,-1,1203,1198,0,0
-14,-174,0,0,0,0,0,0,0,0,0,-1,1210,1198,0,0
-7,-174,0,0,0,0,0,0,0,0,0,-1,1217,1198,0,0
0,-174,0,0,0,0,0,0,0,0,0,-1,1224,1198,0,0
7,-174,0,0,0,0,0,0,0,0,0,-1,1231,1198,0,0
14,-174,0,0,0,0,0,0,0,0,0,-1,1238,1198,0,0
21,-174,0,0,0,0,0,0,0,0,0,-1,1245,1198,0,0
28,-174,0,0,0,0,0,0,0,0,0,-1,1252,1198,0,0
35,-174,0,0,0,0,0,0,0,0,0,-1,1259,1198,0,0
42,-174,0,0,0,0,0,0,0,0,0,-1,1266,1198,0,0
49,-174,0,0,0,0,0,0,0,0,0,-1,1273,1198,0,0
56,-174,0,0,0,0,0,0,0,0,0,-1,1280,1198,0,0
63,-174,0,0,0,0,0,0,0,0,0,-1,1287,1198,0,0
70,-174,0,0,0,0,0,0,0,0,0,-1,1294,1198,0,0
77,-174,0,0,0,0,0,0,0,0,0,-1,1301,1198,0,0
84,-174,0,0,0,0,0,0,0,0,0,-1,1308,1198,0,0
91,-174,0,0,0,0,0,0,0,0,0,-1,1315,1198,0,0
98,-174,0,0,0,0,0,0,0,0,0,-1,1322,1198,0,0
105,-174,0,0,0,0,0,0,0,0,0,-1,1329,1198,0,0
112,-174,0,0,0,0,0,0,0,0,0,-1,1336,1198,0,0
119,-174,0,0,0,0,0,0,0,0,0,-1,1343,1198,0,0
126,-174,0,0,0,0,0,0,0,0,0,-1,1350,1198,0,0
133,-174,0,0,0,0,0,0,0,0,0,-1,1357,1198,0,0
140,-174,0,0,0,0,0,0,0,0,0,-1,1364,1198,0,0
147,-174,0,0,0,0,0,0,0,0,0,-1,1371,1198,0,0
154,-174,0,0,0,0,0,0,0,0,0,-1,1378,1198,0,0
161,-174,0,0,0,0,0,0,0,0,0,-1,1385,1198,0,0
168,-174,0,0,0,0,0,0,0,0,0,-1,1392,1198,0,0
175,-174,0,0,0,0,0,0,0,0,0,-1,1399,1198,0,0
182,-174,0,0,0,0,0,0,0,0,0,-1,1406,1198,0,0
189,-174,0,0,0,0,0,0,0,0,0,-1,1413,1198,0,0
196,-174,0,0,0,0,0,0,0,0,0,-1,1420,1198,0,0
203,-174,0,0,0,0,0,0,0,0,0,-1,1427,1198,0,0
210,-174,0,0,0,0,0,0,0,0,0,-1,1434,1198,0,0
217,-174,0,0,0,0,0,0,0,0,0,-1,1441,1198,0,0
224,-174,0,0,0,0,0,0,0,0,0,-1,1448,1198,0,0
231,-174,0,0,0,0,0,0,0,0,0,-1,1455,1198,0,0
238,-174,0,0,0,0,0,0,0,0,0,-1,1462,1198,0,0
245,-174,0,0,0,0,0,0,0,0,0,-1,1469,1198,0,0
252,-174,0,0,0,0,0,0,0,0,0,-1,1476,1198,0,0
259,-174,0,0,0,0,0,0,0,0,0,-1,1483,1198,0,0
266,-174,0,0,0,0,0,0,0,0,0,-1,1490,1198,0,0
273,-174,0,0,0,0,0,0,0,0,0,-1,1497,1198,0,0
280,-174,0,0,0,0,0,0,0,0,0,-1,1504,1198,0,0
287,-174,0,0,0,0,0,0,0,0,0,-1,1511,1198,0,0
294,-174,0,0,0,0,0,0,0,0,0,-1,1518,1198,0,0
301,-174,0,0,0,0,0,0,0,0,0,-1,1525,1198,0,0
308,-174,0,0,0,0,0,0,0,0,0,-1,1532,1198,0,0
315,-174,0,0,0,0,0,0,0,0,0,-1,1539,1198,0,0
322,-174,0,0,0,0,0,0,0,0,0,-1,1546,1198,0,0
329,-174,0,0,0,0,0,0,0,0,0,-1,1553,1198,0,0
336,-174,0,0,0,0,0,0,0,0,0,-1,1560,1198,0,0
343,-174,0,0,0,0,0,0,0,0,0,-1,1567,1198,0,0
350,-174,0,0,0,0,0,0,0,0,0,-1,1574,1198,0,0
357,-174,0,0,0,0,0,0,0,0,0,-1,1581,1198,0,0
364,-174,0,0,0,0,0,0,0,0,0,-1,1588,1198,0,0
371,-174,0,0,0,0,0,0,0,0,0,-1,1595,1198,0,0
378,-174,0,0,0,0,0,0,0,0,0,-1,1602,1198,0,0
385,-174,0,0,0,0,0,0,0,0,0,-1,1609,1198,0,0
392,-174,0,0,0,0,0,0,0,0,0,-1,1616,1198,0,0
399,-174,0,0,0,0,0,0,0,0,0,-1,1623,1198,0,0
406,-174,0,0,0,0,0,0,0,0,0,-1,1630,1198,0,0
413,-174,0,0,0,0,0,0,0,0,0,-1,1637,1198,0,0
420,-174,0,0,0,0,0,0,0,0,0,-1,1644,1198,0,0
427,-174,0,0,0,0,0,0,0,0,0,-1,1651,1198,0,0
434,-174,0,0,0,0,0,0,0,0,0,-1,1658,1198,0,0
441,-174,0,0,0,0,0,0,0,0,0,-1,1665,1198,0,0
448,-174,0,0,0,0,0,0,0,0,0,-1,1672,1198,0,0
455,-174,0,0,0,0,0,0,0,0,0,-1,1679,1198,0,0
462,-174,0,0,0,0,0,0,0,0,0,-1,1686,1198,0,0
469,-174,0,0,0,0,0,0,0,0,0,-1,1693,1198,0,0
476,-174,0,0,0,0,0,0,0,0,0,-1,1700,1198,0,0
483,-174,0,0,0,0,0,0,0,0,0,-1,1707,1198,0,0
490,-174,0,0,0,0,0,0,0,0,0,-1,1714,1198,0,0
497,-174,0,0,0,0,0,0,0,0,0,-1,1721,1198,0,0
504,-174,0,0,0,0,0,0,0,0,0,-1,1728,1198,0,0
511,-174,0,0,0,0,0,0,0,0,0,-1,1735,1198,0,0
518,-174,0,0,0,0,0,0,0,0,0,-1,1742,1198,0,0
525,-174,0,0,0,0,0,0,0,0,0,-1,1749,1198,0,0
532,-174,0,0,0,0,0,0,0,0,0,-1,1756,1198,0,0
539,-174,0,0,0,0,0,0,0,0,0,-1,1763,1198,0,0
546,-174,0,0,0,0,0,0,0,0,0,-1,1770,1198,0,0
553,-174,0,0,0,0,0,0,0,0,0,-1,1777,1198,0,0
560,-174,0,0,0,0,0,0,0,0,0,-1,1784,1198,0,0
567,-174,0,0,0,0,0,0,0,0,0,-1,1791,1198,0,0
574,-174,0,0,0,0,0,0,0,0,0,-1,1798,1198,0,0
581,-174,0,0,0,0,0,0,0,0,0,-1,1805,1198,0,0
588,-174,0,0,0,0,0,0,0,0,0,-1,1812,1198,0,0
595,-174,0,0,0,0,0,0,0,0,0,-1,1819,1198,0,0
602,-174,0,0,0,0,0,0,0,0,0,-1,1826,1198,0,0
609,-174,0,0,0,0,0,0,0,0,0,-1,1833,1198,0,0
616,-174,0,0,0,0,0,0,0,0,0,-1,1840,1198,0,0
623,-174,0,0,0,0,0,0,0,0,0,-1,1847,1198,0,0
630,-174,0,0,0,0,0,0,0,0,0,-1,1854,1198,0,0
637,-174,15.2836,2.10364,-0.00690173,-0.00314481,-0.000712796,-0.00301412,-0.00703242,-1.38946,0.00407394,0.0395514,1861,1198,15.2835,-2.10364
644,-174,15.1061,2.36121,-0.00454887,-0.000865813,-0.000638107,-0.000758391,-0.0046563,-1.40402,0.00288482,0.0404912,1868,1198,15.1061,-2.36117
651,-174,15.0336,2.23218,-0.00360616,0.00126425,0.000205514,0.0012729,-0.00361482,1.5287,0.00292791,0.0401076,1875,1198,15.0336,-2.23212
658,-174,14.9509,2.24939,-0.00361564,0.00265795,0.00161894,0.00305109,-0.00400878,1.33257,0.0040885,0.0384088,1882,1198,14.9509,-2.2494
665,-174,15.0396,2.31506,-0.00405767,0.0033761,0.0030374,0.00445932,-0.00514089,1.22823,0.00554734,0.0332139,1889,1198,15.0396,-2.31502
672,-174,15.0756,2.31165,-0.00465513,0.00358733,0.00421796,0.0053632,-0.00643099,1.1723,0.00681867,0.0251534,1896,1198,15.0756,-2.31163
679,-174,15.0482,2.31042,-0.00527157,0.00345244,0.00513989,0.00583177,-0.0076509,1.13725,0.0078078,0.0215093,1903,1198,15.0482,-2.31037
686,-174,15.0734,2.24939,-0.00573584,0.00307624,0.00579681,0.00595143,-0.00861103,1.11036,0.00845425,0.045154,1910,1198,15.0733,-2.24944
693,-174,14.8154,1.85168,-0.00593647,0.00261073,0.00605936,0.00575194,-0.00907768,1.09253,0.00863336,0.0437732,1917,1198,14.8154,-1.85172
700,-174,14.6045,1.47644,0,0,0,0,0,0,0,-1,1924,1198,14.6045,-1.47639
707,-174,13.9752,3.57788,-0.00601431,0.00134692,0.00584171,0.00457083,-0.00923822,1.06651,0.00812304,0.033369,1931,1198,13.9752,-3.57787
714,-174,14.0123,3.48108,-0.00578659,0.000814452,0.00542215,0.00386162,-0.00883376,1.0588,0.00751473,0.0197123,1938,1198,14.0123,-3.48104
721,-174,13.9801,3.3916,-0.0051775,0.000350611,0.00473465,0.00306898,-0.00789586,1.04961,0.00653182,0.0155732,1945,1198,13.9801,-3.39161
728,-174,13.9185,3.31079,-0.0040207,0.000107472,0.00370207,0.00228199,-0.00619522,1.03971,0.00506516,0.0120707,1952,1198,13.9185,-3.31077
735,-174,13.908,3.21716,-0.00231542,0.000186279,0.00205142,0.00133813,-0.00346727,1.05918,0.00286373,0.0114145,1959,1198,13.908,-3.21719
742,-174,13.9055,3.1449,8.79348e-05,0.000543117,0.000166257,0.000597375,3.36766e-05,1.25534,0.000387513,0.0197149,1966,1198,13.9056,-3.14485
749,-174,13.8958,3.09583,0.00329013,0.00229162,-0.00239156,0.00523399,0.000347764,-0.682498,0.00337937,0.0181252,1973,1198,13.8958,-3.09581
756,-174,13.8782,2.99695,0.00667115,0.00516287,-0.00546319,0.011432,0.000402011,-0.716812,0.00749093,0.0105875,1980,1198,13.8782,-2.99689
763,-174,13.8514,2.88855,0.010367,0.00827129,-0.00862651,0.018009,0.000629213,-0.724961,0.0118019,0.0123235,1987,1198,13.8515,-2.88851
770,-174,13.8501,2.81042,0.0146576,0.0123676,-0.0124752,0.0260403,0.00098493,-0.739634,0.0170414,0.0234741,1994,1198,13.8501,-2.81038
777,-174,13.9866,2.73547,0.0197371,0.0179618,-0.017463,0.0363351,0.00136388,-0.760005,0.0237818,0.0435274,2001,1198,13.9865,-2.73546
784,-174,14.1047,2.6543,0,0,0,0,0,0,0,-1,2008,1198,14.1048,-2.65427
791,-174,13.7985,2.3573,0,0,0,0,0,0,0,-1,2015,1198,13.7984,-2.35725
798,-174,16.3026,0.0229492,0,0,0,0,0,0,0,-1,2022,1198,16.3027,-0.0229105
805,-174,16.8207,-0.181519,0,0,0,0,0,0,0,-1,2029,1198,16.8207,0.181527
812,-174,0,0,0,0,0,0,0,0,0,-1,2036,1198,0,0
-700,-181,0,0,0,0,0,0,0,0,0,-1,524,1205,0,0
-693,-181,0,0,0,0,0,0,0,0,0,-1,531,1205,0,0
-686,-181,-8.01337,0.872559,0,0,0,0,0,0,0,-1,538,1205,-8.01336,-0.872589
-679,-181,-7.89886,0.760742,0.061464,0.0659706,-0.00804073,0.0720678,0.0553668,-0.922011,0.0435588,0.0449678,545,1205,-7.89887,-0.760718
-672,-181,-7.76428,0.69519,0.0598587,0.0571025,-0.00766317,0.0662667,0.0506945,-0.696434,0.0400103,0.0471315,552,1205,-7.7643,-0.695149
-665,-181,-7.38202,0.322754,0.0547397,0.0476064,-0.00706712,0.0590892,0.0432569,-0.551704,0.0353187,0.0444403,559,1205,-7.38203,-0.322736
-658,-181,-7.53015,0.668335,0.0477863,0.0383676,-0.00630702,0.0509482,0.0352057,-0.464711,0.0301219,0.0417588,566,1205,-7.53015,-0.668389
-651,-181,-7.4137,0.449097,0.0400941,0.0299054,-0.00548129,0.0424828,0.0275166,-0.410985,0.0248817,0.0440748,573,1205,-7.41368,-0.449108
-644,-181,-7.53558,0.70752,0.0324069,0.0225168,-0.00462633,0.0342336,0.0206901,-0.376055,0.0199078,0.043561,580,1205,-7.53557,-0.707558
-637,-181,-7.60101,0.687622,0.0252319,0.0163229,-0.00378745,0.0266244,0.0149304,-0.35232,0.0154094,0.0240125,587,1205,-7.60102,-0.687626
-630,-181,-7.61401,0.796875,0.0190307,0.011425,-0.00307763,0.0201201,0.0103357,-0.34019,0.0116178,0.0128377,594,1205,-7.61401,-0.796835
-623,-181,-7.65985,0.910767,0.0129513,0.00714568,-0.00294701,0.0141851,0.00591193,-0.396477,0.00822748,0.0150046,601,1205,-7.65983,-0.910768
-616,-181,-7.65759,1.0199,0.0075889,0.00361552,-0.00336273,0.00950795,0.00169646,-0.518586,0.00585564,0.0148993,608,1205,-7.65758,-1.01996
-609,-181,-7.63959,1.13818,0.00322651,0.000670636,-0.00364084,0.00580718,-0.00191003,-0.616615,0.00464104,0.0145503,615,1205,-7.63957,-1.13823
-602,-181,-7.62878,1.23853,0.000164124,-0.000526152,-0.00390267,0.00373689,-0.00409892,-0.741295,0.00452562,0.0120572,622,1205,-7.62879,-1.23852
-595,-181,-7.6377,1.3446,-0.00233554,-0.00139341,-0.00437961,0.0025404,-0.00626935,-0.838972,0.00523599,0.0108081,629,1205,-7.63772,-1.34459
-588,-181,-7.65363,1.45801,-0.00371086,-0.00156119,-0.00505522,0.00253219,-0.00780424,-0.890148,0.00622111,0.0107802,636,1205,-7.65362,-1.45801
-581,-181,-7.65057,1.60632,-0.00427535,-0.00149222,-0.00551871,0.00280766,-0.00857523,-0.9089,0.00684735,0.0124543,643,1205,-7.6506,-1.60635
-574,-181,-7.58038,1.57532,0,0,0,0,0,0,0,-1,650,1205,-7.58039,-1.57533
-567,-181,-7.55457,0.401123,0,0,0,0,0,0,0,-1,657,1205,-7.55457,-0.401096
-560,-181,-7.52875,-0.773193,0,0,0,0,0,0,0,-1,664,1205,-7.52876,0.773133
-553,-181,-8.97559,0.435547,-0.00263506,0.000233656,-0.00546379,0.00444823,-0.00684963,-0.913762,0.00657176,0.041869,671,1205,-8.9756,-0.435598
-546,-181,-8.99408,0.644653,-0.00137036,0.00102518,-0.0049523,0.0049225,-0.00526768,-0.90405,0.00588443,0.0351515,678,1205,-8.9941,-0.644696
-539,-181,-9.04401,0.716797,0.000510978,0.00196749,-0.00422932,0.0055308,-0.00305233,-0.870658,0.00502387,0.0404981,685,1205,-9.04402,-0.716839
-532,-181,-9.01147,0.435669,0.00329532,0.00301556,-0.00331234,0.00647074,-0.00015985,-0.764296,0.00436808,0.045779,692,1205,-9.01148,-0.435688
-525,-181,-8.86322,0.28125,0.0072277,0.00406657,-0.00241685,0.00853493,0.00275935,-0.495815,0.00502917,0.0434125,699,1205,-8.8632,-0.281264
-518,-181,-8.71558,0.310059,0.0118808,0.00467578,-0.00288406,0.012893,0.00366354,-0.337545,0.00767151,0.0419866,706,1205,-8.71557,-0.310044
-511,-181,0,0,0,0,0,0,0,0,0,-1,713,1205,0,0
-504,-181,0,0,0,0,0,0,0,0,0,-1,720,1205,0,0
-497,-181,0,0,0,0,0,0,0,0,0,-1,727,1205,0,0
-490,-181,0,0,0,0,0,0,0,0,0,-1,734,1205,0,0
-483,-181,0,0,0,0,0,0,0,0,0,-1,741,1205,0,0
-476,-181,0,0,0,0,0,0,0,0,0,-1,748,1205,0,0
-469,-181,0,0,0,0,0,0,0,0,0,-1,755,1205,0,0
-462,-181,0,0,0,0,0,0,0,0,0,-1,762,1205,0,0
-455,-181,0,0,0,0,0,0,0,0,0,-1,769,1205,0,0
-448,-181,0,0,0,0,0,0,0,0,0,-1,776,1205,0,0
-441,-181,0,0,0,0,0,0,0,0,0,-1,783,1205,0,0
-434,-181,0,0,0,0,0,0,0,0,0,-1,790,1205,0,0
-427,-181,0,0,0,0,0,0,0,0,0,-1,797,1205,0,0
-420,-181,0,0,0,0,0,0,0,0,0,-1,804,1205,0,0
-413,-181,0,0,0,0,0,0,0,0,0,-1,811,1205,0,0
-406,-181,0,0,0,0,0,0,0,0,0,-1,818,1205,0,0
-399,-181,0,0,0,0,0,0,0,0,0,-1,825,1205,0,0
-392,-181,0,0,0,0,0,0,0,0,0,-1,832,1205,0,0
-385,-181,0,0,0,0,0,0,0,0,0,-1,839,1205,0,0
-378,-181,0,0,0,0,0,0,0,0,0,-1,846,1205,0,0
-371,-181,0,0,0,0,0,0,0,0,0,-1,853,1205,0,0
-364,-181,0,0,0,0,0,0,0,0,0,-1,860,1205,0,0
-357,-181,0,0,0,0,0,0,0,0,0,-1,867,1205,0,0
-350,-181,0,0,0,0,0,0,0,0,0,-1,874,1205,0,0
-343,-181,0,0,0,0,0,0,0,0,0,-1,881,1205,0,0
-336,-181,0,0,0,0,0,0,0,0,0,-1,888,1205,0,0
-329,-181,0,0,0,0,0,0,0,0,0,-1,895,1205,0,0
-322,-181,0,0,0,0,0,0,0,0,0,-1,902,1205,0,0
-315,-181,0,0,0,0,0,0,0,0,0,-1,909,1205,0,0
-308,-181,0,0,0,0,0,0,0,0,0,-1,916,1205,0,0
-301,-181,0,0,0,0,0,0,0,0,0,-1,923,1205,0,0
-294,-181,0,0,0,0,0,0,0,0,0,-1,930,1205,0,0
-287,-181,0,0,0,0,0,0,0,0,0,-1,937,1205,0,0
-280,-181,0,0,0,0,0,0,0,0,0,-1,944,1205,0,0
-273,-181,0,0,0,0,0,0,0,0,0,-1,951,1205,0,0
-266,-181,0,0,0,0,0,0,0,0,0,-1,958,1205,0,0
-259,-181,0,0,0,0,0,0,0,0,0,-1,965,1205,0,0
-252,-181,0,0,0,0,0,0,0,0,0,-1,972,1205,0,0
-245,-181,0,0,0,0,0,0,0,0,0,-1,979,1205,0,0
-238,-181,0,0,0,0,0,0,0,0,0,-1,986,1205,0,0
-231,-181,0,0,0,0,0,0,0,0,0,-1,993,1205,0,0
-224,-181,0,0,0,0,0,0,0,0,0,-1,1000,1205,0,0
-217,-181,0,0,0,0,0,0,0,0,0,-1,1007,1205,0,0
-210,-181,0,0,0,0,0,0,0,0,0,-1,1014,1205,0,0
-203,-181,0,0,0,0,0,0,0,0,0,-1,1021,1205,0,0
-196,-181,0,0,0,0,0,0,0,0,0,-1,1028,1205,0,0
-189,-181,0,0,0,0,0,0,0,0,0,-1,1035,1205,0,0
-182,-181,0,0,0,0,0,0,0,0,0,-1,1042,1205,0,0
-175,-181,0,0,0,0,0,0,0,0,0,-1,1049,1205,0,0
-168,-181,0,0,0,0,0,0,0,0,0,-1,1056,1205,0,0
-161,-181,0,0,0,0,0,0,0,0,0,-1,1063,1205,0,0
-154,-181,0,0,0,0,0,0,0,0,0,-1,1070,1205,0,0
-147,-181,0,0,0,0,0,0,0,0,0,-1,1077,1205,0,0
-140,-181,0,0,0,0,0,0,0,0,0,-1,1084,1205,0,0
-133,-181,0,0,0,0,0,0,0,0,0,-1,1091,1205,0,0
-126,-181,0,0,0,0,0,0,0,0,0,-1,1098,1205,0,0
-119,-181,0,0,0,0,0,0,0,0,0,-1,1105,1205,0,0
-112,-181,0,0,0,0,0,0,0,0,0,-1,1112,1205,0,0
-105,-181,0,0,0,0,0,0,0,0,0,-1,1119,1205,0,0
-98,-181,0,0,0,0,0,0,0,0,0,-1,1126,1205,0,0
-91,-181,0,0,0,0,0,0,0,0,0,-1,1133,1205,0,0
-84,-181,0,0,0,0,0,0,0,0,0,-1,1140,1205,0,0
-77,-181,0,0,0,0,0,0,0,0,0,-1,1147,1205,0,0
-70,-181,0,0,0,0,0,0,0,0,0,-1,1154,1205,0,0
-63,-181,0,0,0,0,0,0,0,0,0,-1,1161,1205,0,0
-56,-181,0,0,0,0,0,0,0,0,0,-1,1168,1205,0,0
-49,-181,0,0,0,0,0,0,0,0,0,-1,1175,1205,0,0
-42,-181,0,0,0,0,0,0,0,0,0,-1,1182,1205,0,0
-35,-181,0,0,0,0,0,0,0,0,0,-1,1189,1205,0,0
-28,-181,0,0,0,0,0,0,0,0,0,-1,1196,1205,0,0
-21,-181,0,0,0,0,0,0,0,0,0,-1,1203,1205,0,0
-14,-181,0,0,0,0,0,0,0,0,0,-1,1210,1205,0,0
-7,-181,0,0,0,0,0,0,0,0,0,-1,1217,1205,0,0
0,-181,0,0,0,0,0,0,0,0,0,-1,1224,1205,0,0
7,-181,0,0,0,0,0,0,0,0,0,-1,1231,1205,0,0
14,-181,0,0,0,0,0,0,0,0,0,-1,1238,1205,0,0
21,-181,0,0,0,0,0,0,0,0,0,-1,1245,1205,0,0
28,-181,0,0,0,0,0,0,0,0,0,-1,1252,1205,0,0
35,-181,0,0,0,0,0,0,0,0,0,-1,1259,1205,0,0
42,-181,0,0,0,0,0,0,0,0,0,-1,1266,1205,0,0
49,-181,0,0,0,0,0,0,0,0,0,-1,1273,1205,0,0
56,-181,0,0,0,0,0,0,0,0,0,-1,1280,1205,0,0
63,-181,0,0,0,0,0,0,0,0,0,-1,1287,1205,0,0
70,-181,0,0,0,0,0,0,0,0,0,-1,1294,1205,0,0
77,-181,0,0,0,0,0,0,0,0,0,-1,1301,1205,0,0
84,-181,0,0,0,0,0,0,0,0,0,-1,1308,1205,0,0
91,-181,0,0,0,0,0,0,0,0,0,-1,1315,1205,0,0
98,-181,0,0,0,0,0,0,0,0,0,-1,1322,1205,0,0
105,-181,0,0,0,0,0,0,0,0,0,-1,1329,1205,0,0
112,-181,0,0,0,0,0,0,0,0,0,-1,1336,1205,0,0
119,-181,0,0,0,0,0,0,0,0,0,-1,1343,1205,0,0
126,-181,0,0,0,0,0,0,0,0,0,-1,1350,1205,0,0
133,-181,0,0,0,0,0,0,0,0,0,-1,1357,1205,0,0
140,-181,0,0,0,0,0,0,0,0,0,-1,1364,1205,0,0
147,-181,0,0,0,0,0,0,0,0,0,-1,1371,1205,0,0
154,-181,0,0,0,0,0,0,0,0,0,-1,1378,1205,0,0
161,-181,0,0,0,0,0,0,0,0,0,-1,1385,1205,0,0
168,-181,0,0,0,0,0,0,0,0,0,-1,1392,1205,0,0
175,-181,0,0,0,0,0,0,0,0,0,-1,1399,1205,0,0
182,-181,0,0,0,0,0,0,0,0,0,-1,1406,1205,0,0
189,-181,0,0,0,0,0,0,0,0,0,-1,1413,1205,0,0
196,-181,0,0,0,0,0,0,0,0,0,-1,1420,1205,0,0
203,-181,0,0,0,0,0,0,0,0,0,-1,1427,1205,0,0
210,-181,0,0,0,0,0,0,0,0,0,-1,1434,1205,0,0
217,-181,0,0,0,0,0,0,0,0,0,-1,1441,1205,0,0
224,-181,0,0,0,0,0,0,0,0,0,-1,1448,1205,0,0
231,-181,0,0,0,0,0,0,0,0,0,-1,1455,1205,0,0
238,-181,0,0,0,0,0,0,0,0,0,-1,1462,1205,0,0
245,-181,0,0,0,0,0,0,0,0,0,-1,1469,1205,0,0
252,-181,0,0,0,0,0,0,0,0,0,-1,1476,1205,0,0
259,-181,0,0,0,0,0,0,0,0,0,-1,1483,1205,0,0
266,-181,0,0,0,0,0,0,0,0,0,-1,1490,1205,0,0
273,-181,0,0,0,0,0,0,0,0,0,-1,1497,1205,0,0
280,-181,0,0,0,0,0,0,0,0,0,-1,1504,1205,0,0
287,-181,0,0,0,0,0,0,0,0,0,-1,1511,1205,0,0
294,-181,0,0,0,0,0,0,0,0,0,-1,1518,1205,0,0
301,-181,0,0,0,0,0,0,0,0,0,-1,1525,1205,0,0
308,-181,0,0,0,0,0,0,0,0,0,-1,1532,1205,0,0
315,-181,0,0,0,0,0,0,0,0,0,-1,1539,1205,0,0
322,-181,0,0,0,0,0,0,0,0,0,-1,1546,1205,0,0
329,-181,0,0,0,0,0,0,0,0,0,-1,1553,1205,0,0
336,-181,0,0,0,0,0,0,0,0,0,-1,1560,1205,0,0
343,-181,0,0,0,0,0,0,0,0,0,-1,1567,1205,0,0
350,-181,0,0,0,0,0,0,0,0,0,-1,1574,1205,0,0
357,-181,0,0,0,0,0,0,0,0,0,-1,1581,1205,0,0
364,-181,0,0,0,0,0,0,0,0,0,-1,1588,1205,0,0
371,-181,0,0,0,0,0,0,0,0,0,-1,1595,1205,0,0
378,-181,0,0,0,0,0,0,0,0,0,-1,1602,1205,0,0
385,-181,0,0,0,0,0,0,0,0,0,-1,1609,1205,0,0
392,-181,0,0,0,0,0,0,0,0,0,-1,1616,1205,0,0
399,-181,0,0,0,0,0,0,0,0,0,-1,1623,1205,0,0
406,-181,0,0,0,0,0,0,0,0,0,-1,1630,1205,0,0
413,-181,0,0,0,0,0,0,0,0,0,-1,1637,1205,0,0
420,-181,0,0,0,0,0,0,0,0,0,-1,1644,1205,0,0
427,-181,0,0,0,0,0,0,0,0,0,-1,1651,1205,0,0
434,-181,0,0,0,0,0,0,0,0,0,-1,1658,1205,0,0
441,-181,0,0,0,0,0,0,0,0,0,-1,1665,1205,0,0
448,-181,0,0,0,0,0,0,0,0,0,-1,1672,1205,0,0
455,-181,0,0,0,0,0,0,0,0,0,-1,1679,1205,0,0
462,-181,0,0,0,0,0,0,0,0,0,-1,1686,1205,0,0
469,-181,0,0,0,0,0,0,0,0,0,-1,1693,1205,0,0
476,-181,0,0,0,0,0,0,0,0,0,-1,1700,1205,0,0
483,-181,0,0,0,0,0,0,0,0,0,-1,1707,1205,0,0
490,-181,0,0,0,0,0,0,0,0,0,-1,1714,1205,0,0
497,-181,0,0,0,0,0,0,0,0,0,-1,1721,1205,0,0
504,-181,0,0,0,0,0,0,0,0,0,-1,1728,1205,0,0
511,-181,0,0,0,0,0,0,0,0,0,-1,1735,1205,0,0
518,-181,0,0,0,0,0,0,0,0,0,-1,1742,1205,0,0
525,-181,0,0,0,0,0,0,0,0,0,-1,1749,1205,0,0
532,-181,0,0,0,0,0,0,0,0,0,-1,1756,1205,0,0
539,-181,0,0,0,0,0,0,0,0,0,-1,1763,1205,0,0
546,-181,0,0,0,0,0,0,0,0,0,-1,1770,1205,0,0
553,-181,0,0,0,0,0,0,0,0,0,-1,1777,1205,0,0
560,-181,0,0,0,0,0,0,0,0,0,-1,1784,1205,0,0
567,-181,0,0,0,0,0,0,0,0,0,-1,1791,1205,0,0
574,-181,0,0,0,0,0,0,0,0,0,-1,1798,1205,0,0
581,-181,0,0,0,0,0,0,0,0,0,-1,1805,1205,0,0
588,-181,0,0,0,0,0,0,0,0,0,-1,1812,1205,0,0
595,-181,0,0,0,0,0,0,0,0,0,-1,1819,1205,0,0
602,-181,0,0,0,0,0,0,0,0,0,-1,1826,1205,0,0
609,-181,0,0,0,0,0,0,0,0,0,-1,1833,1205,0,0
616,-181,0,0,0,0,0,0,0,0,0,-1,1840,1205,0,0
623,-181,0,0,0,0,0,0,0,0,0,-1,1847,1205,0,0
630,-181,15.1366,2.41895,-0.00708022,-0.00462576,-0.000564312,-0.00450224,-0.00720375,-1.3553,0.00420218,0.0375465,1854,1205,15.1366,-2.41892
637,-181,15.2059,2.18384,-0.00553984,-0.00367764,-0.001012,-0.00323357,-0.00598391,-1.15729,0.00345856,0.034589,1861,1205,15.2059,-2.18386
644,-181,15.0747,2.18628,-0.003884,-0.000611613,-0.000844763,-0.000406407,-0.0040892,-1.3325,0.00260127,0.0373781,1868,1205,15.0747,-2.1863
651,-181,15.0146,2.31482,-0.00344239,0.0019335,0.000196778,0.0019407,-0.00344959,1.53426,0.00315246,0.0378112,1875,1205,15.0146,-2.31481
658,-181,15.0775,2.35547,-0.00365943,0.00355203,0.001714,0.00393868,-0.00404608,1.34893,0.00461014,0.0344938,1882,1205,15.0775,-2.35542
665,-181,15.1199,2.35925,-0.00410041,0.0044144,0.00314048,0.00544738,-0.00513338,1.25302,0.0061097,0.0299008,1889,1205,15.1199,-2.35919
672,-181,15.0804,2.34521,-0.00462136,0.0046705,0.00431567,0.00636568,-0.00631654,1.19652,0.0073221,0.0219485,1896,1205,15.0805,-2.34517
679,-181,15.0774,2.29431,-0.00512527,0.00453408,0.00523012,0.00682338,-0.00741458,1.1582,0.00822265,0.0287137,1903,1205,15.0774,-2.29433
686,-181,15.1311,2.47546,-0.00546338,0.00411389,0.00587518,0.00690475,-0.00825424,1.12733,0.0087636,0.049233,1910,1205,15.1311,-2.47542
693,-181,15.1926,2.63928,0,0,0,0,0,0,0,-1,1917,1205,15.1927,-2.63933
700,-181,13.9913,3.552,-0.00557461,0.00285245,0.00609734,0.00605049,-0.00877266,1.08774,0.00860612,0.0477672,1924,1205,13.9914,-3.55199
707,-181,13.9399,3.56824,-0.00551786,0.00210838,0.00585995,0.0052866,-0.00869609,1.07383,0.00815251,0.0231212,1931,1205,13.94,-3.56825
714,-181,13.933,3.48621,-0.00523047,0.00139769,0.00539311,0.0044136,-0.00824638,1.06091,0.00742006,0.0164588,1938,1205,13.933,-3.48624
721,-181,13.8568,3.40991,-0.0045638,0.000763131,0.0046683,0.00347434,-0.00727501,1.04464,0.00633413,0.0123663,1945,1205,13.8568,-3.40995
728,-181,13.7983,3.32373,-0.00340559,0.000446181,0.00358364,0.00258865,-0.00554806,1.03196,0.00480019,0.0109378,1952,1205,13.7984,-3.32374
735,-181,13.7891,3.21497,-0.00176404,0.000544473,0.00190703,0.00161936,-0.00283892,1.05754,0.00260589,0.0110368,1959,1205,13.7891,-3.21494
742,-181,13.7955,3.15552,0.000566424,0.000806788,1.50292e-05,0.000807725,0.000565488,1.50859,0.000478626,0.0168622,1966,1205,13.7955,-3.15553
749,-181,13.8521,3.07727,0.00356719,0.00251327,-0.00242347,0.00552033,0.000560136,-0.678345,0.00350844,0.0159887,1973,1205,13.8521,-3.07725
756,-181,13.8154,2.974,0.00666232,0.00520022,-0.00529868,0.0112801,0.000582395,-0.716847,0.00733368,0.0111697,1980,1205,13.8155,-2.97397
763,-181,13.7644,2.88354,0.0101038,0.00815419,-0.00825831,0.0174447,0.000813362,-0.72665,0.0113684,0.0111381,1987,1205,13.7644,-2.88356
770,-181,13.7533,2.77673,0.014182,0.0121022,-0.0119563,0.0251436,0.00114063,-0.742021,0.0163954,0.0226258,1994,1205,13.7533,-2.77668
777,-181,13.8143,2.52417,0.0190471,0.0175109,-0.0168031,0.0350996,0.00145835,-0.762559,0.0229291,0.0415255,2001,1205,13.8143,-2.52413
784,-181,13.8557,2.27734,0,0,0,0,0,0,0,-1,2008,1205,13.8557,-2.27732
791,-181,13.8407,1.77393,0,0,0,0,0,0,0,-1,2015,1205,13.8407,-1.77387
798,-181,14.0804,2.37817,0,0,0,0,0,0,0,-1,2022,1205,14.0805,-2.37812
805,-181,0,0,0,0,0,0,0,0,0,-1,2029,1205,0,0
812,-181,0,0,0,0,0,0,0,0,0,-1,2036,1205,0,0
-700,-188,0,0,0,0,0,0,0,0,0,-1,524,1212,0,0
-693,-188,0,0,0,0,0,0,0,0,0,-1,531,1212,0,0
-686,-188,0,0,0,0,0,0,0,0,0,-1,538,1212,0,0
-679,-188,-7.7254,0.430176,0,0,0,0,0,0,0,-1,545,1212,-7.72538,-0.430154
-672,-188,-7.01208,-0.751709,0,0,0,0,0,0,0,-1,552,1212,-7.01206,0.751686
-665,-188,-7.12006,-0.461304,0.0666194,0.0567369,-0.00579685,0.0692952,0.0540611,-0.432455,0.0420489,0.0460889,559,1212,-7.12008,0.461364
-658,-188,-7.20343,0.0948486,0.058558,0.0454978,-0.00565803,0.0606682,0.0433876,-0.356986,0.0360917,0.0443271,566,1212,-7.2034,-0.0948558
-651,-188,-7.33691,0.731445,0,0,0,0,0,0,0,-1,573,1212,-7.33691,-0.731475
-644,-188,-7.41211,0.710449,0.0403034,0.0265796,-0.00459572,0.0417002,0.0251828,-0.295064,0.0242483,0.0444426,580,1212,-7.4121,-0.71046
-637,-188,-7.49585,0.662964,0.031657,0.0192944,-0.00386899,0.032768,0.0181835,-0.279631,0.0189566,0.0219839,587,1212,-7.49583,-0.662959
-630,-188,-7.52802,0.793823,0.0240916,0.0135389,-0.00317228,0.0249718,0.0126587,-0.270662,0.0144179,0.0104822,594,1212,-7.52804,-0.793847
-623,-188,-7.53302,0.916504,0.0169827,0.00861125,-0.00295766,0.0179222,0.00767174,-0.307573,0.010383,0.01097,601,1212,-7.53304,-0.916457
-616,-188,-7.53101,1.03455,0.0107637,0.00448416,-0.00325119,0.0121437,0.00310414,-0.401417,0.00728496,0.0105604,608,1212,-7.53098,-1.0346
-609,-188,-7.51221,1.14917,0.00571715,0.00113472,-0.00336497,0.00749689,-0.000645022,-0.486501,0.00522622,0.0126205,615,1212,-7.51224,-1.14916
-602,-188,-7.49261,1.2793,0.00204746,-0.000368383,-0.00341246,0.00445947,-0.0027804,-0.615293,0.00421725,0.0146371,622,1212,-7.49264,-1.27935
-595,-188,-7.52234,1.37354,-0.000715668,-0.00133291,-0.00375384,0.00274222,-0.00479079,-0.744383,0.00440247,0.0118318,629,1212,-7.52234,-1.37348
-588,-188,-7.54712,1.46692,-0.00221714,-0.00146549,-0.00440665,0.00258134,-0.00626397,-0.827939,0.0052523,0.00979509,636,1212,-7.5471,-1.46696
-581,-188,-7.53912,1.59961,-0.00292162,-0.00134823,-0.00488363,0.00281166,-0.00708152,-0.865256,0.00588649,0.00935209,643,1212,-7.53913,-1.59959
-574,-188,-7.39203,1.73865,0,0,0,0,0,0,0,-1,650,1212,-7.39206,-1.73861
-567,-188,-7.19543,0.516968,0,0,0,0,0,0,0,-1,657,1212,-7.19545,-0.516907
-560,-188,-6.99884,-0.704834,0,0,0,0,0,0,0,-1,664,1212,-6.99884,0.704791
-553,-188,-9.17731,0.622803,-0.00230387,0.000583942,-0.00490018,0.00424853,-0.00596846,-0.928675,0.00592657,0.047717,671,1212,-9.17732,-0.622817
-546,-188,-9.01617,0.658447,-0.00157662,0.00136975,-0.00449026,0.00462232,-0.00482918,-0.943907,0.00545726,0.0441618,678,1212,-9.01616,-0.658432
-539,-188,-9.0177,0.546875,-0.000371968,0.0022901,-0.00390122,0.0050811,-0.00316297,-0.949798,0.00480247,0.0387668,685,1212,-9.01768,-0.546814
-532,-188,-9.02246,0.393066,0.00157219,0.00323453,-0.00312338,0.00563545,-0.000828721,-0.91544,0.00406149,0.0419698,692,1212,-9.02245,-0.393093
-525,-188,-8.9693,0.597778,0.00460536,0.00403961,-0.00227013,0.00661017,0.0020348,-0.723414,0.00390921,0.0403771,699,1212,-8.96932,-0.597729
-518,-188,-8.99103,0.936157,0.00877344,0.00424698,-0.00227613,0.00972003,0.00330039,-0.39412,0.00570737,0.0440684,706,1212,-8.99106,-0.936123
-511,-188,-8.91278,0.599487,0.0156519,0.00192314,-0.0044806,0.0169848,0.000590231,-0.289147,0.0111317,0.0391124,713,1212,-8.91278,-0.59943
-504,-188,0,0,0,0,0,0,0,0,0,-1,720,1212,0,0
-497,-188,0,0,0,0,0,0,0,0,0,-1,727,1212,0,0
-490,-188,0,0,0,0,0,0,0,0,0,-1,734,1212,0,0
-483,-188,0,0,0,0,0,0,0,0,0,-1,741,1212,0,0
-476,-188,0,0,0,0,0,0,0,0,0,-1,748,1212,0,0
-469,-188,0,0,0,0,0,0,0,0,0,-1,755,1212,0,0
-462,-188,0,0,0,0,0,0,0,0,0,-1,762,1212,0,0
-455,-188,0,0,0,0,0,0,0,0,0,-1,769,1212,0,0
-448,-188,0,0,0,0,0,0,0,0,0,-1,776,1212,0,0
-441,-188,0,0,0,0,0,0,0,0,0,-1,783,1212,0,0
-434,-188,0,0,0,0,0,0,0,0,0,-1,790,1212,0,0
-427,-188,0,0,0,0,0,0,0,0,0,-1,797,1212,0,0
-420,-188,0,0,0,0,0,0,0,0,0,-1,804,1212,0,0
-413,-188,0,0,0,0,0,0,0,0,0,-1,811,1212,0,0
-406,-188,0,0,0,0,0,0,0,0,0,-1,818,1212,0,0
-399,-188,0,0,0,0,0,0,0,0,0,-1,825,1212,0,0
-392,-188,0,0,0,0,0,0,0,0,0,-1,832,1212,0,0
-385,-188,0,0,0,0,0,0,0,0,0,-1,839,1212,0,0
-378,-188,0,0,0,0,0,0,0,0,0,-1,846,1212,0,0
-371,-188,0,0,0,0,0,0,0,0,0,-1,853,1212,0,0
-364,-188,0,0,0,0,0,0,0,0,0,-1,860,1212,0,0
-357,-188,0,0,0,0,0,0,0,0,0,-1,867,1212,0,0
-350,-188,0,0,0,0,0,0,0,0,0,-1,874,1212,0,0
-343,-188,0,0,0,0,0,0,0,0,0,-1,881,1212,0,0
-336,-188,0,0,0,0,0,0,0,0,0,-1,888,1212,0,0
-329,-188,0,0,0,0,0,0,0,0,0,-1,895,1212,0,0
-322,-188,0,0,0,0,0,0,0,0,0,-1,902,1212,0,0
-315,-188,0,0,0,0,0,0,0,0,0,-1,909,1212,0,0
-308,-188,0,0,0,0,0,0,0,0,0,-1,916,1212,0,0
-301,-188,0,0,0,0,0,0,0,0,0,-1,923,1212,0,0
-294,-188,0,0,0,0,0,0,0,0,0,-1,930,1212,0,0
-287,-188,0,0,0,0,0,0,0,0,0,-1,937,1212,0,0
-280,-188,0,0,0,0,0,0,0,0,0,-1,944,1212,0,0
-273,-188,0,0,0,0,0,0,0,0,0,-1,951,1212,0,0
-266,-188,0,0,0,0,0,0,0,0,0,-1,958,1212,0,0
-259,-188,0,0,0,0,0,0,0,0,0,-1,965,1212,0,0
-252,-188,0,0,0,0,0,0,0,0,0,-1,972,1212,0,0
-245,-188,0,0,0,0,0,0,0,0,0,-1,979,1212,0,0
-238,-188,0,0,0,0,0,0,0,0,0,-1,986,1212,0,0
-231,-188,0,0,0,0,0,0,0,0,0,-1,993,1212,0,0
-224,-188,0,0,0,0,0,0,0,0,0,-1,1000,1212,0,0
-217,-188,0,0,0,0,0,0,0,0,0,-1,1007,1212,0,0
-210,-188,0,0,0,0,0,0,0,0,0,-1,1014,1212,0,0
-203,-188,0,0,0,0,0,0,0,0,0,-1,1021,1212,0,0
-196,-188,0,0,0,0,0,0,0,0,0,-1,1028,1212,0,0
-189,-188,0,0,0,0,0,0,0,0,0,-1,1035,1212,0,0
-182,-188,0,0,0,0,0,0,0,0,0,-1,1042,1212,0,0
-175,-188,0,0,0,0,0,0,0,0,0,-1,1049,1212,0,0
-168,-188,0,0,0,0,0,0,0,0,0,-1,1056,1212,0,0
-161,-188,0,0,0,0,0,0,0,0,0,-1,1063,1212,0,0
-154,-188,0,0,0,0,0,0,0,0,0,-1,1070,1212,0,0
-147,-188,0,0,0,0,0,0,0,0,0,-1,1077,1212,0,0
-140,-188,0,0,0,0,0,0,0,0,0,-1,1084,1212,0,0
-133,-188,0,0,0,0,0,0,0,0,0,-1,1091,1212,0,0
-126,-188,0,0,0,0,0,0,0,0,0,-1,1098,1212,0,0
-119,-188,0,0,0,0,0,0,0,0,0,-1,1105,1212,0,0
-112,-188,0,0,0,0,0,0,0,0,0,-1,1112,1212,0,0
-105,-188,0,0,0,0,0,0,0,0,0,-1,1119,1212,0,0
-98,-188,0,0,0,0,0,0,0,0,0,-1,1126,1212,0,0
-91,-188,0,0,0,0,0,0,0,0,0,-1,1133,1212,0,0
-84,-188,0,0,0,0,0,0,0,0,0,-1,1140,1212,0,0
-77,-188,0,0,0,0,0,0,0,0,0,-1,1147,1212,0,0
-70,-188,0,0,0,0,0,0,0,0,0,-1,1154,1212,0,0
-63,-188,0,0,0,0,0,0,0,0,0,-1,1161,1212,0,0
-56,-188,0,0,0,0,0,0,0,0,0,-1,1168,1212,0,0
-49,-188,0,0,0,0,0,0,0,0,0,-1,1175,1212,0,0
-42,-188,0,0,0,0,0,0,0,0,0,-1,1182,1212,0,0
-35,-188,0,0,0,0,0,0,0,0,0,-1,1189,1212,0,0
-28,-188,0,0,0,0,0,0,0,0,0,-1,1196,1212,0,0
-21,-188,0,0,0,0,0,0,0,0,0,-1,1203,1212,0,0
-14,-188,0,0,0,0,0,0,0,0,0,-1,1210,1212,0,0
-7,-188,0,0,0,0,0,0,0,0,0,-1,1217,1212,0,0
0,-188,0,0,0,0,0,0,0,0,0,-1,1224,1212,0,0
7,-188,0,0,0,0,0,0,0,0,0,-1,1231,1212,0,0
14,-188,0,0,0,0,0,0,0,0,0,-1,1238,1212,0,0
21,-188,0,0,0,0,0,0,0,0,0,-1,1245,1212,0,0
28,-188,0,0,0,0,0,0,0,0,0,-1,1252,1212,0,0
35,-188,0,0,0,0,0,0,0,0,0,-1,1259,1212,0,0
42,-188,0,0,0,0,0,0,0,0,0,-1,1266,1212,0,0
49,-188,0,0,0,0,0,0,0,0,0,-1,1273,1212,0,0
56,-188,0,0,0,0,0,0,0,0,0,-1,1280,1212,0,0
63,-188,0,0,0,0,0,0,0,0,0,-1,1287,1212,0,0
70,-188,0,0,0,0,0,0,0,0,0,-1,1294,1212,0,0
77,-188,0,0,0,0,0,0,0,0,0,-1,1301,1212,0,0
84,-188,0,0,0,0,0,0,0,0,0,-1,1308,1212,0,0
91,-188,0,0,0,0,0,0,0,0,0,-1,1315,1212,0,0
98,-188,0,0,0,0,0,0,0,0,0,-1,1322,1212,0,0
105,-188,0,0,0,0,0,0,0,0,0,-1,1329,1212,0,0
112,-188,0,0,0,0,0,0,0,0,0,-1,1336,1212,0,0
119,-188,0,0,0,0,0,0,0,0,0,-1,1343,1212,0,0
126,-188,0,0,0,0,0,0,0,0,0,-1,1350,1212,0,0
133,-188,0,0,0,0,0,0,0,0,0,-1,1357,1212,0,0
140,-188,0,0,0,0,0,0,0,0,0,-1,1364,1212,0,0
147,-188,0,0,0,0,0,0,0,0,0,-1,1371,1212,0,0
154,-188,0,0,0,0,0,0,0,0,0,-1,1378,1212,0,0
161,-188,0,0,0,0,0,0,0,0,0,-1,1385,1212,0,0
168,-188,0,0,0,0,0,0,0,0,0,-1,1392,1212,0,0
175,-188,0,0,0,0,0,0,0,0,0,-1,1399,1212,0,0
182,-188,0,0,0,0,0,0,0,0,0,-1,1406,1212,0,0
189,-188,0,0,0,0,0,0,0,0,0,-1,1413,1212,0,0
196,-188,0,0,0,0,0,0,0,0,0,-1,1420,1212,0,0
203,-188,0,0,0,0,0,0,0,0,0,-1,1427,1212,0,0
210,-188,0,0,0,0,0,0,0,0,0,-1,1434,1212,0,0
217,-188,0,0,0,0,0,0,0,0,0,-1,1441,1212,0,0
224,-188,0,0,0,0,0,0,0,0,0,-1,1448,1212,0,0
231,-188,0,0,0,0,0,0,0,0,0,-1,1455,1212,0,0
238,-188,0,0,0,0,0,0,0,0,0,-1,1462,1212,0,0
245,-188,0,0,0,0,0,0,0,0,0,-1,1469,1212,0,0
252,-188,0,0,0,0,0,0,0,0,0,-1,1476,1212,0,0
259,-188,0,0,0,0,0,0,0,0,0,-1,1483,1212,0,0
266,-188,0,0,0,0,0,0,0,0,0,-1,1490,1212,0,0
273,-188,0,0,0,0,0,0,0,0,0,-1,1497,1212,0,0
280,-188,0,0,0,0,0,0,0,0,0,-1,1504,1212,0,0
287,-188,0,0,0,0,0,0,0,0,0,-1,1511,1212,0,0
294,-188,0,0,0,0,0,0,0,0,0,-1,1518,1212,0,0
301,-188,0,0,0,0,0,0,0,0,0,-1,1525,1212,0,0
308,-188,0,0,0,0,0,0,0,0,0,-1,1532,1212,0,0
315,-188,0,0,0,0,0,0,0,0,0,-1,1539,1212,0,0
322,-188,0,0,0,0,0,0,0,0,0,-1,1546,1212,0,0
329,-188,0,0,0,0,0,0,0,0,0,-1,1553,1212,0,0
336,-188,0,0,0,0,0,0,0,0,0,-1,1560,1212,0,0
343,-188,0,0,0,0,0,0,0,0,0,-1,1567,1212,0,0
350,-188,0,0,0,0,0,0,0,0,0,-1,1574,1212,0,0
357,-188,0,0,0,0,0,0,0,0,0,-1,1581,1212,0,0
364,-188,0,0,0,0,0,0,0,0,0,-1,1588,1212,0,0
371,-188,0,0,0,0,0,0,0,0,0,-1,1595,1212,0,0
378,-188,0,0,0,0,0,0,0,0,0,-1,1602,1212,0,0
385,-188,0,0,0,0,0,0,0,0,0,-1,1609,1212,0,0
392,-188,0,0,0,0,0,0,0,0,0,-1,1616,1212,0,0
399,-188,0,0,0,0,0,0,0,0,0,-1,1623,1212,0,0
406,-188,0,0,0,0,0,0,0,0,0,-1,1630,1212,0,0
413,-188,0,0,0,0,0,0,0,0,0,-1,1637,1212,0,0
420,-188,0,0,0,0,0,0,0,0,0,-1,1644,1212,0,0
427,-188,0,0,0,0,0,0,0,0,0,-1,1651,1212,0,0
434,-188,0,0,0,0,0,0,0,0,0,-1,1658,1212,0,0
441,-188,0,0,0,0,0,0,0,0,0,-1,1665,1212,0,0
448,-188,0,0,0,0,0,0,0,0,0,-1,1672,1212,0,0
455,-188,0,0,0,0,0,0,0,0,0,-1,1679,1212,0,0
462,-188,0,0,0,0,0,0,0,0,0,-1,1686,1212,0,0
469,-188,0,0,0,0,0,0,0,0,0,-1,1693,1212,0,0
476,-188,0,0,0,0,0,0,0,0,0,-1,1700,1212,0,0
483,-188,0,0,0,0,0,0,0,0,0,-1,1707,1212,0,0
490,-188,0,0,0,0,0,0,0,0,0,-1,1714,1212,0,0
497,-188,0,0,0,0,0,0,0,0,0,-1,1721,1212,0,0
504,-188,0,0,0,0,0,0,0,0,0,-1,1728,1212,0,0
511,-188,0,0,0,0,0,0,0,0,0,-1,1735,1212,0,0
518,-188,0,0,0,0,0,0,0,0,0,-1,1742,1212,0,0
525,-188,0,0,0,0,0,0,0,0,0,-1,1749,1212,0,0
532,-188,0,0,0,0,0,0,0,0,0,-1,1756,1212,0,0
539,-188,0,0,0,0,0,0,0,0,0,-1,1763,1212,0,0
546,-188,0,0,0,0,0,0,0,0,0,-1,1770,1212,0,0
553,-188,0,0,0,0,0,0,0,0,0,-1,1777,1212,0,0
560,-188,0,0,0,0,0,0,0,0,0,-1,1784,1212,0,0
567,-188,0,0,0,0,0,0,0,0,0,-1,1791,1212,0,0
574,-188,0,0,0,0,0,0,0,0,0,-1,1798,1212,0,0
581,-188,0,0,0,0,0,0,0,0,0,-1,1805,1212,0,0
588,-188,0,0,0,0,0,0,0,0,0,-1,1812,1212,0,0
595,-188,0,0,0,0,0,0,0,0,0,-1,1819,1212,0,0
602,-188,0,0,0,0,0,0,0,0,0,-1,1826,1212,0,0
609,-188,0,0,0,0,0,0,0,0,0,-1,1833,1212,0,0
616,-188,0,0,0,0,0,0,0,0,0,-1,1840,1212,0,0
623,-188,0,0,0,0,0,0,0,0,0,-1,1847,1212,0,0
630,-188,15.1943,2.4364,-0.00539954,-0.00513972,-0.00104468,-0.0042169,-0.00632236,-0.847259,0.00371745,0.0405491,1854,1212,15.1943,-2.43642
637,-188,15.0831,2.33069,-0.00432615,-0.00343485,-0.00132394,-0.00248357,-0.00527743,-0.947746,0.00304868,0.0411127,1861,1212,15.0831,-2.33069
644,-188,14.9615,2.22949,-0.00336453,0.000156955,-0.00089354,0.000370706,-0.00357828,-1.33599,0.0025182,0.0347913,1868,1212,14.9615,-2.22943
651,-188,14.9907,2.28735,-0.00336429,0.00288494,0.000393803,0.00290965,-0.00338901,1.50811,0.00364004,0.0298122,1875,1212,14.9908,-2.28732
658,-188,15.1006,2.3302,-0.0037292,0.00457747,0.00198966,0.00502946,-0.00418119,1.34742,0.00532528,0.0308508,1882,1212,15.1006,-2.33024
665,-188,15.0767,2.34155,-0.00415804,0.00546432,0.00340639,0.00654814,-0.00524186,1.26275,0.00682087,0.0264192,1889,1212,15.0766,-2.34158
672,-188,15.0621,2.3291,-0.00460762,0.00569246,0.00455014,0.00741459,-0.00632975,1.20898,0.00794353,0.0210135,1896,1212,15.0621,-2.32906
679,-188,15.0471,2.17334,-0.00500509,0.00551687,0.00542923,0.00781595,-0.00730417,1.17023,0.00873127,0.0438624,1903,1212,15.0472,-2.17331
686,-188,15.3037,2.90417,-0.00522603,0.00503344,0.0060456,0.00783236,-0.00802495,1.13721,0.00915544,0.0426471,1910,1212,15.3037,-2.90414
693,-188,13.9998,3.33472,0,0,0,0,0,0,0,-1,1917,1212,13.9998,-3.33467
700,-188,13.8212,3.49878,-0.00518018,0.00360453,0.00621639,0.00682377,-0.00839941,1.09296,0.00880479,0.0379512,1924,1212,13.8212,-3.49876
707,-188,13.7814,3.5741,-0.00507773,0.00275189,0.0059203,0.00593467,-0.00826051,1.07752,0.00823218,0.0122596,1931,1212,13.7813,-3.57414
714,-188,13.7687,3.49402,-0.00472216,0.00187384,0.00538063,0.00488679,-0.0077351,1.06034,0.00734884,0.00942413,1938,1212,13.7687,-3.49401
721,-188,13.7227,3.42615,-0.00399688,0.00110049,0.00458465,0.00379726,-0.00669365,1.03909,0.00613339,0.0101316,1945,1212,13.7226,-3.4261
728,-188,13.6941,3.33228,-0.0028587,0.000745858,0.00342389,0.00281285,-0.00492569,1.02766,0.00452302,0.00892612,1952,1212,13.6941,-3.33228
735,-188,13.6803,3.23389,-0.00132995,0.00092134,0.00172324,0.001854,-0.00226262,1.07471,0.00238063,0.0122437,1959,1212,13.6802,-3.23394
742,-188,13.6836,3.14819,0.000850678,0.0011592,-0.000142218,0.00121476,0.000795124,-1.1984,0.000712421,0.0142924,1966,1212,13.6836,-3.14816
749,-188,13.725,3.06372,0.00354745,0.00285337,-0.00240553,0.00563085,0.000769972,-0.713758,0.00352538,0.0139862,1973,1212,13.725,-3.06376
756,-188,13.7123,2.97205,0.00630021,0.00538899,-0.00501981,0.010885,0.000804159,-0.740141,0.00700405,0.0119654,1980,1212,13.7123,-2.97202
763,-188,13.675,2.88123,0.00938362,0.00824065,-0.00771937,0.0165526,0.00107164,-0.748449,0.0106958,0.0129829,1987,1212,13.675,-2.88123
770,-188,13.6752,2.76587,0.0130976,0.0120763,-0.0111587,0.0237573,0.00141659,-0.762534,0.0153878,0.0202763,1994,1212,13.6751,-2.76586
777,-188,13.7479,2.547,0.0175448,0.0173229,-0.0156939,0.0331281,0.00173959,-0.781864,0.021529,0.0409123,2001,1212,13.748,-2.54698
784,-188,13.8379,2.19604,0.0226523,0.0244155,-0.0215514,0.0451033,0.00196446,-0.80584,0.0294359,0.0454292,2008,1212,13.8379,-2.19607
791,-188,13.9904,2.03296,0.0283305,0.0338873,-0.0290058,0.0602475,0.00197031,-0.833146,0.0395246,0.0468741,2015,1212,13.9903,-2.03293
798,-188,14.1012,2.07776,0,0,0,0,0,0,0,-1,2022,1212,14.1012,-2.07777
805,-188,0,0,0,0,0,0,0,0,0,-1,2029,1212,0,0
812,-188,0,0,0,0,0,0,0,0,0,-1,2036,1212,0,0
-700,-195,0,0,0,0,0,0,0,0,0,-1,524,1219,0,0
-693,-195,0,0,0,0,0,0,0,0,0,-1,531,1219,0,0
-686,-195,0,0,0,0,0,0,0,0,0,-1,538,1219,0,0
-679,-195,-7.51263,0.0911865,0,0,0,0,0,0,0,-1,545,1219,-7.51266,-0.0912222
-672,-195,-11.7899,1.44043,0,0,0,0,0,0,0,-1,552,1219,-11.7899,-1.44046
-665,-195,-7.03186,-1.21777,0,0,0,0,0,0,0,-1,559,1219,-7.03183,1.21783
-658,-195,-6.90662,-0.481934,0,0,0,0,0,0,0,-1,566,1219,-6.90662,0.481905
-651,-195,-8.52429,1.08875,0.0566551,0.0383356,-0.00566034,0.0582629,0.0367278,-0.27676,0.0340172,0.0445757,573,1219,-8.52428,-1.0887
-644,-195,-7.33398,0.701782,0.0461368,0.0287576,-0.00507495,0.0475102,0.0273842,-0.264296,0.0275365,0.0433878,580,1219,-7.334,-0.701772
-637,-195,-7.33643,0.704224,0.0363269,0.020868,-0.00431407,0.0374494,0.0197456,-0.254533,0.0216321,0.0223425,587,1219,-7.33643,-0.704283
-630,-195,-7.40179,0.794434,0.0277495,0.014658,-0.00353233,0.0286418,0.0137657,-0.247426,0.0165405,0.00809023,594,1219,-7.40181,-0.794491
-623,-195,-7.40875,0.904907,0.0199362,0.00939064,-0.00316852,0.020815,0.00851186,-0.270547,0.0120838,0.00795864,601,1219,-7.40872,-0.904914
-616,-195,-7.41113,1.02307,0.0131344,0.00495191,-0.00327897,0.0142862,0.00380007,-0.337815,0.00854396,0.00979939,608,1219,-7.41114,-1.0231
-609,-195,-7.41241,1.15344,0.00765398,0.00143901,-0.003202,0.00900847,8.45212e-05,-0.400188,0.00597767,0.0168888,615,1219,-7.41241,-1.15343
-602,-195,-7.40564,1.25,0.00365427,-0.000338187,-0.00293639,0.00520871,-0.00189263,-0.48687,0.00424635,0.0194124,622,1219,-7.40566,-1.24999
-595,-195,-7.41254,1.3938,0.000737026,-0.00140038,-0.00315588,0.00300025,-0.0036636,-0.622139,0.00385373,0.0145693,629,1219,-7.41255,-1.39381
-588,-195,-7.43079,1.48328,-0.000819665,-0.00153749,-0.00376365,0.00260214,-0.0049593,-0.73786,0.00443575,0.00788776,636,1219,-7.43077,-1.48322
-581,-195,-7.42242,1.56921,-0.00173188,-0.00139692,-0.00427061,0.00270949,-0.00583829,-0.804997,0.00504406,0.00853142,643,1219,-7.42242,-1.56917
-574,-195,-7.37915,1.60254,-0.00235103,-0.000943294,-0.00432028,0.00273008,-0.0060244,-0.866149,0.00517231,0.0204059,650,1219,-7.37918,-1.60256
-567,-195,-7.0094,0.691772,-0.00246396,-0.000385522,-0.00431552,0.00301415,-0.00586363,-0.903553,0.00521285,0.0428486,657,1219,-7.00939,-0.691797
-560,-195,-8.8974,0.660522,0,0,0,0,0,0,0,-1,664,1219,-8.89742,-0.660528
-553,-195,-8.8988,0.622314,-0.00249347,0.000830343,-0.00427822,0.00375811,-0.00542124,-0.970656,0.00532862,0.0481944,671,1219,-8.89881,-0.622318
-546,-195,-8.90564,0.617554,-0.00239387,0.00167738,-0.00392725,0.00406522,-0.00478171,-1.0245,0.00511336,0.043649,678,1219,-8.90563,-0.617519
-539,-195,-8.96924,0.626343,-0.00197466,0.00267392,-0.00341676,0.00448201,-0.00378275,-1.08408,0.00477735,0.0361589,685,1219,-8.96926,-0.626293
-532,-195,-8.9953,0.519531,-0.000965541,0.00366187,-0.00269564,0.00490059,-0.00220426,-1.14005,0.0041993,0.0347819,692,1219,-8.99531,-0.519485
-525,-195,-8.94604,0.672363,0.00105744,0.00443569,-0.00180118,0.00521585,0.000277275,-1.16205,0.00338859,0.0388576,699,1219,-8.94605,-0.672401
-518,-195,-9.3667,1.39038,0.00455412,0.00451972,-0.00130947,0.0058465,0.00322733,-0.778831,0.00338156,0.0440307,706,1219,-9.3667,-1.39043
-511,-195,-8.63074,0.537109,0.0112704,0.00181477,-0.00216972,0.0117445,0.00134067,-0.215125,0.00742327,0.0403075,713,1219,-8.63075,-0.537053
-504,-195,0,0,0,0,0,0,0,0,0,-1,720,1219,0,0
-497,-195,0,0,0,0,0,0,0,0,0,-1,727,1219,0,0
-490,-195,0,0,0,0,0,0,0,0,0,-1,734,1219,0,0
-483,-195,0,0,0,0,0,0,0,0,0,-1,741,1219,0,0
-476,-195,0,0,0,0,0,0,0,0,0,-1,748,1219,0,0
-469,-195,0,0,0,0,0,0,0,0,0,-1,755,1219,0,0
-462,-195,0,0,0,0,0,0,0,0,0,-1,762,1219,0,0
-455,-195,0,0,0,0,0,0,0,0,0,-1,769,1219,0,0
-448,-195,0,0,0,0,0,0,0,0,0,-1,776,1219,0,0
-441,-195,0,0,0,0,0,0,0,0,0,-1,783,1219,0,0
-434,-195,0,0,0,0,0,0,0,0,0,-1,790,1219,0,0
-427,-195,0,0,0,0,0,0,0,0,0,-1,797,1219,0,0
-420,-195,0,0,0,0,0,0,0,0,0,-1,804,1219,0,0
-413,-195,0,0,0,0,0,0,0,0,0,-1,811,1219,0,0
-406,-195,0,0,0,0,0,0,0,0,0,-1,818,1219,0,0
-399,-195,0,0,0,0,0,0,0,0,0,-1,825,1219,0,0
-392,-195,0,0,0,0,0,0,0,0,0,-1,832,1219,0,0
-385,-195,0,0,0,0,0,0,0,0,0,-1,839,1219,0,0
-378,-195,0,0,0,0,0,0,0,0,0,-1,846,1219,0,0
-371,-195,0,0,0,0,0,0,0,0,0,-1,853,1219,0,0
-364,-195,0,0,0,0,0,0,0,0,0,-1,860,1219,0,0
-357,-195,0,0,0,0,0,0,0,0,0,-1,867,1219,0,0
-350,-195,0,0,0,0,0,0,0,0,0,-1,874,1219,0,0
-343,-195,0,0,0,0,0,0,0,0,0,-1,881,1219,0,0
-336,-195,0,0,0,0,0,0,0,0,0,-1,888,1219,0,0
-329,-195,0,0,0,0,0,0,0,0,0,-1,895,1219,0,0
-322,-195,0,0,0,0,0,0,0,0,0,-1,902,1219,0,0
-315,-195,0,0,0,0,0,0,0,0,0,-1,909,1219,0,0
-308,-195,0,0,0,0,0,0,0,0,0,-1,916,1219,0,0
-301,-195,0,0,0,0,0,0,0,0,0,-1,923,1219,0,0
-294,-195,0,0,0,0,0,0,0,0,0,-1,930,1219,0,0
-287,-195,0,0,0,0,0,0,0,0,0,-1,937,1219,0,0
-280,-195,0,0,0,0,0,0,0,0,0,-1,944,1219,0,0
-273,-195,0,0,0,0,0,0,0,0,0,-1,951,1219,0,0
-266,-195,0,0,0,0,0,0,0,0,0,-1,958,1219,0,0
-259,-195,0,0,0,0,0,0,0,0,0,-1,965,1219,0,0
-252,-195,0,0,0,0,0,0,0,0,0,-1,972,1219,0,0
-245,-195,0,0,0,0,0,0,0,0,0,-1,979,1219,0,0
-238,-195,0,0,0,0,0,0,0,0,0,-1,986,1219,0,0
-231,-195,0,0,0,0,0,0,0,0,0,-1,993,1219,0,0
-224,-195,0,0,0,0,0,0,0,0,0,-1,1000,1219,0,0
-217,-195,0,0,0,0,0,0,0,0,0,-1,1007,1219,0,0
-210,-195,0,0,0,0,0,0,0,0,0,-1,1014,1219,0,0
-203,-195,0,0,0,0,0,0,0,0,0,-1,1021,1219,0,0
-196,-195,0,0,0,0,0,0,0,0,0,-1,1028,1219,0,0
-189,-195,0,0,0,0,0,0,0,0,0,-1,1035,1219,0,0
-182,-195,0,0,0,0,0,0,0,0,0,-1,1042,1219,0,0
-175,-195,0,0,0,0,0,0,0,0,0,-1,1049,1219,0,0
-168,-195,0,0,0,0,0,0,0,0,0,-1,1056,1219,0,0
-161,-195,0,0,0,0,0,0,0,0,0,-1,1063,1219,0,0
-154,-195,0,0,0,0,0,0,0,0,0,-1,1070,1219,0,0
-147,-195,0,0,0,0,0,0,0,0,0,-1,1077,1219,0,0
-140,-195,0,0,0,0,0,0,0,0,0,-1,1084,1219,0,0
-133,-195,0,0,0,0,0,0,0,0,0,-1,1091,1219,0,0
-126,-195,0,0,0,0,0,0,0,0,0,-1,1098,1219,0,0
-119,-195,0,0,0,0,0,0,0,0,0,-1,1105,1219,0,0
-112,-195,0,0,0,0,0,0,0,0,0,-1,1112,1219,0,0
-105,-195,0,0,0,0,0,0,0,0,0,-1,1119,1219,0,0
-98,-195,0,0,0,0,0,0,0,0,0,-1,1126,1219,0,0
-91,-195,0,0,0,0,0,0,0,0,0,-1,1133,1219,0,0
-84,-195,0,0,0,0,0,0,0,0,0,-1,1140,1219,0,0
-77,-195,0,0,0,0,0,0,0,0,0,-1,1147,1219,0,0
-70,-195,0,0,0,0,0,0,0,0,0,-1,1154,1219,0,0
-63,-195,0,0,0,0,0,0,0,0,0,-1,1161,1219,0,0
-56,-195,0,0,0,0,0,0,0,0,0,-1,1168,1219,0,0
-49,-195,0,0,0,0,0,0,0,0,0,-1,1175,1219,0,0
-42,-195,0,0,0,0,0,0,0,0,0,-1,1182,1219,0,0
-35,-195,0,0,0,0,0,0,0,0,0,-1,1189,1219,0,0
-28,-195,0,0,0,0,0,0,0,0,0,-1,1196,1219,0,0
-21,-195,0,0,0,0,0,0,0,0,0,-1,1203,1219,0,0
-14,-195,0,0,0,0,0,0,0,0,0,-1,1210,1219,0,0
-7,-195,0,0,0,0,0,0,0,0,0,-1,1217,1219,0,0
0,-195,0,0,0,0,0,0,0,0,0,-1,1224,1219,0,0
7,-195,0,0,0,0,0,0,0,0,0,-1,1231,1219,0,0
14,-195,0,0,0,0,0,0,0,0,0,-1,1238,1219,0,0
21,-195,0,0,0,0,0,0,0,0,0,-1,1245,1219,0,0
28,-195,0,0,0,0,0,0,0,0,0,-1,1252,1219,0,0
35,-195,0,0,0,0,0,0,0,0,0,-1,1259,1219,0,0
42,-195,0,0,0,0,0,0,0,0,0,-1,1266,1219,0,0
49,-195,0,0,0,0,0,0,0,0,0,-1,1273,1219,0,0
56,-195,0,0,0,0,0,0,0,0,0,-1,1280,1219,0,0
63,-195,0,0,0,0,0,0,0,0,0,-1,1287,1219,0,0
70,-195,0,0,0,0,0,0,0,0,0,-1,1294,1219,0,0
77,-195,0,0,0,0,0,0,0,0,0,-1,1301,1219,0,0
84,-195,0,0,0,0,0,0,0,0,0,-1,1308,1219,0,0
91,-195,0,0,0,0,0,0,0,0,0,-1,1315,1219,0,0
98,-195,0,0,0,0,0,0,0,0,0,-1,1322,1219,0,0
105,-195,0,0,0,0,0,0,0,0,0,-1,1329,1219,0,0
112,-195,0,0,0,0,0,0,0,0,0,-1,1336,1219,0,0
119,-195,0,0,0,0,0,0,0,0,0,-1,1343,1219,0,0
126,-195,0,0,0,0,0,0,0,0,0,-1,1350,1219,0,0
133,-195,0,0,0,0,0,0,0,0,0,-1,1357,1219,0,0
140,-195,0,0,0,0,0,0,0,0,0,-1,1364,1219,0,0
147,-195,0,0,0,0,0,0,0,0,0,-1,1371,1219,0,0
154,-195,0,0,0,0,0,0,0,0,0,-1,1378,1219,0,0
161,-195,0,0,0,0,0,0,0,0,0,-1,1385,1219,0,0
168,-195,0,0,0,0,0,0,0,0,0,-1,1392,1219,0,0
175,-195,0,0,0,0,0,0,0,0,0,-1,1399,1219,0,0
182,-195,0,0,0,0,0,0,0,0,0,-1,1406,1219,0,0
189,-195,0,0,0,0,0,0,0,0,0,-1,1413,1219,0,0
196,-195,0,0,0,0,0,0,0,0,0,-1,1420,1219,0,0
203,-195,0,0,0,0,0,0,0,0,0,-1,1427,1219,0,0
210,-195,0,0,0,0,0,0,0,0,0,-1,1434,1219,0,0
217,-195,0,0,0,0,0,0,0,0,0,-1,1441,1219,0,0
224,-195,0,0,0,0,0,0,0,0,0,-1,1448,1219,0,0
231,-195,0,0,0,0,0,0,0,0,0,-1,1455,1219,0,0
238,-195,0,0,0,0,0,0,0,0,0,-1,1462,1219,0,0
245,-195,0,0,0,0,0,0,0,0,0,-1,1469,1219,0,0
252,-195,0,0,0,0,0,0,0,0,0,-1,1476,1219,0,0
259,-195,0,0,0,0,0,0,0,0,0,-1,1483,1219,0,0
266,-195,0,0,0,0,0,0,0,0,0,-1,1490,1219,0,0
273,-195,0,0,0,0,0,0,0,0,0,-1,1497,1219,0,0
280,-195,0,0,0,0,0,0,0,0,0,-1,1504,1219,0,0
287,-195,0,0,0,0,0,0,0,0,0,-1,1511,1219,0,0
294,-195,0,0,0,0,0,0,0,0,0,-1,1518,1219,0,0
301,-195,0,0,0,0,0,0,0,0,0,-1,1525,1219,0,0
308,-195,0,0,0,0,0,0,0,0,0,-1,1532,1219,0,0
315,-195,0,0,0,0,0,0,0,0,0,-1,1539,1219,0,0
322,-195,0,0,0,0,0,0,0,0,0,-1,1546,1219,0,0
329,-195,0,0,0,0,0,0,0,0,0,-1,1553,1219,0,0
336,-195,0,0,0,0,0,0,0,0,0,-1,1560,1219,0,0
343,-195,0,0,0,0,0,0,0,0,0,-1,1567,1219,0,0
350,-195,0,0,0,0,0,0,0,0,0,-1,1574,1219,0,0
357,-195,0,0,0,0,0,0,0,0,0,-1,1581,1219,0,0
364,-195,0,0,0,0,0,0,0,0,0,-1,1588,1219,0,0
371,-195,0,0,0,0,0,0,0,0,0,-1,1595,1219,0,0
378,-195,0,0,0,0,0,0,0,0,0,-1,1602,1219,0,0
385,-195,0,0,0,0,0,0,0,0,0,-1,1609,1219,0,0
392,-195,0,0,0,0,0,0,0,0,0,-1,1616,1219,0,0
399,-195,0,0,0,0,0,0,0,0,0,-1,1623,1219,0,0
406,-195,0,0,0,0,0,0,0,0,0,-1,1630,1219,0,0
413,-195,0,0,0,0,0,0,0,0,0,-1,1637,1219,0,0
420,-195,0,0,0,0,0,0,0,0,0,-1,1644,1219,0,0
427,-195,0,0,0,0,0,0,0,0,0,-1,1651,1219,0,0
434,-195,0,0,0,0,0,0,0,0,0,-1,1658,1219,0,0
441,-195,0,0,0,0,0,0,0,0,0,-1,1665,1219,0,0
448,-195,0,0,0,0,0,0,0,0,0,-1,1672,1219,0,0
455,-195,0,0,0,0,0,0,0,0,0,-1,1679,1219,0,0
462,-195,0,0,0,0,0,0,0,0,0,-1,1686,1219,0,0
469,-195,0,0,0,0,0,0,0,0,0,-1,1693,1219,0,0
476,-195,0,0,0,0,0,0,0,0,0,-1,1700,1219,0,0
483,-195,0,0,0,0,0,0,0,0,0,-1,1707,1219,0,0
490,-195,0,0,0,0,0,0,0,0,0,-1,1714,1219,0,0
497,-195,0,0,0,0,0,0,0,0,0,-1,1721,1219,0,0
504,-195,0,0,0,0,0,0,0,0,0,-1,1728,1219,0,0
511,-195,0,0,0,0,0,0,0,0,0,-1,1735,1219,0,0
518,-195,0,0,0,0,0,0,0,0,0,-1,1742,1219,0,0
525,-195,0,0,0,0,0,0,0,0,0,-1,1749,1219,0,0
532,-195,0,0,0,0,0,0,0,0,0,-1,1756,1219,0,0
539,-195,0,0,0,0,0,0,0,0,0,-1,1763,1219,0,0
546,-195,0,0,0,0,0,0,0,0,0,-1,1770,1219,0,0
553,-195,0,0,0,0,0,0,0,0,0,-1,1777,1219,0,0
560,-195,0,0,0,0,0,0,0,0,0,-1,1784,1219,0,0
567,-195,0,0,0,0,0,0,0,0,0,-1,1791,1219,0,0
574,-195,0,0,0,0,0,0,0,0,0,-1,1798,1219,0,0
581,-195,0,0,0,0,0,0,0,0,0,-1,1805,1219,0,0
588,-195,0,0,0,0,0,0,0,0,0,-1,1812,1219,0,0
595,-195,0,0,0,0,0,0,0,0,0,-1,1819,1219,0,0
602,-195,0,0,0,0,0,0,0,0,0,-1,1826,1219,0,0
609,-195,0,0,0,0,0,0,0,0,0,-1,1833,1219,0,0
616,-195,0,0,0,0,0,0,0,0,0,-1,1840,1219,0,0
623,-195,0,0,0,0,0,0,0,0,0,-1,1847,1219,0,0
630,-195,15.2212,2.47815,-0.00444321,-0.00519444,-0.00169375,-0.00308392,-0.00655373,-0.676282,0.00378598,0.0414474,1854,1219,15.2212,-2.47814
637,-195,15.1316,2.49182,-0.00385609,-0.00258895,-0.00172774,-0.00138228,-0.00506277,-0.961137,0.00302171,0.0402483,1861,1219,15.1316,-2.49188
644,-195,15.0746,2.35388,-0.00343038,0.00138108,-0.000989202,0.00157651,-0.00362582,-1.37574,0.00308027,0.0330607,1868,1219,15.0746,-2.35387
651,-195,15.0734,2.23877,-0.00363649,0.00415863,0.000486492,0.00418887,-0.00366673,1.50871,0.00453877,0.0252429,1875,1219,15.0734,-2.23881
658,-195,15.0886,2.31079,-0.00393917,0.00581862,0.00208898,0.00624703,-0.00436758,1.36852,0.00616029,0.0236897,1882,1219,15.0887,-2.31083
665,-195,15.0662,2.34058,-0.00420763,0.00661949,0.00345803,0.00762968,-0.00521782,1.28658,0.00746095,0.0205894,1889,1219,15.0662,-2.34053
672,-195,15.0669,2.1991,-0.00448107,0.00674173,0.00454029,0.00834851,-0.00608785,1.23066,0.00836883,0.0314089,1896,1219,15.0669,-2.19909
679,-195,15.0146,2.04321,-0.0046984,0.00647696,0.00536879,0.00863822,-0.00685966,1.18809,0.00896732,0.0486105,1903,1219,15.0146,-2.04326
686,-195,14.9784,1.53442,-0.00475786,0.005901,0.00595281,0.00856148,-0.00741835,1.1505,0.00923382,0.0466944,1910,1219,14.9783,-1.53444
693,-195,13.7704,3.38916,-0.00462836,0.0051708,0.00616319,0.00814464,-0.00760221,1.12123,0.00909324,0.0473157,1917,1219,13.7704,-3.38921
700,-195,13.6614,3.60693,-0.0044993,0.00427513,0.00608114,0.00738644,-0.00761061,1.09789,0.00865887,0.0274732,1924,1219,13.6613,-3.60694
707,-195,13.6196,3.62085,-0.00433859,0.00328036,0.00574492,0.00636408,-0.00742231,1.07816,0.00796739,0.0133071,1931,1219,13.6196,-3.6209
714,-195,13.621,3.51965,-0.00394588,0.00224106,0.00515286,0.00515771,-0.00686253,1.05573,0.00696311,0.0149977,1938,1219,13.621,-3.51971
721,-195,13.6147,3.43823,-0.00321139,0.00134738,0.00429952,0.00393435,-0.00579837,1.02914,0.00565344,0.0123695,1945,1219,13.6147,-3.43826
728,-195,13.6088,3.34839,-0.00219579,0.000977016,0.00308375,0.00285849,-0.00407726,1.02296,0.00402491,0.00988582,1952,1219,13.6088,-3.3484
735,-195,13.6033,3.2301,-0.000922964,0.00125722,0.00141823,0.00195589,-0.00162164,1.11306,0.00206849,0.0120026,1959,1219,13.6033,-3.23007
742,-195,13.6036,3.13171,0.000999993,0.00150946,-0.00035267,0.00168977,0.00081968,-1.09816,0.000975733,0.0131939,1966,1219,13.6037,-3.13167
749,-195,13.6016,3.05884,0.00328504,0.00319783,-0.002402,0.00564383,0.00083903,-0.776322,0.0035164,0.0128886,1973,1219,13.6016,-3.05887
756,-195,13.6027,2.96948,0.00556179,0.00561491,-0.00469946,0.0102879,0.000888813,-0.788224,0.00658235,0.012203,1980,1219,13.6027,-2.96945
763,-195,13.5986,2.86279,0.00811814,0.00839904,-0.0070907,0.0153507,0.0011665,-0.795301,0.00986797,0.013421,1987,1219,13.5986,-2.86277
770,-195,13.6089,2.75549,0.0112231,0.0121497,-0.0101797,0.0218767,0.00149615,-0.808136,0.0141122,0.025512,1994,1219,13.6089,-2.75546
777,-195,13.756,2.60986,0.0149,0.0172477,-0.0142419,0.030364,0.00178372,-0.826517,0.0196751,0.043677,2001,1219,13.756,-2.60988
784,-195,13.7637,2.22668,0.0190574,0.0241259,-0.0194943,0.04125,0.00193327,-0.850035,0.0268788,0.0421649,2008,1219,13.7637,-2.22668
791,-195,14.1801,2.35181,0.0235917,0.0333383,-0.0262138,0.0551279,0.00180203,-0.877302,0.0361662,0.0462042,2015,1219,14.1801,-2.35187
798,-195,14.3248,2.76709,0,0,0,0,0,0,0,-1,2022,1219,14.3248,-2.76711
805,-195,0,0,0,0,0,0,0,0,0,-1,2029,1219,0,0
812,-195,0,0,0,0,0,0,0,0,0,-1,2036,1219,0,0
-700,-202,0,0,0,0,0,0,0,0,0,-1,524,1226,0,0
-693,-202,0,0,0,0,0,0,0,0,0,-1,531,1226,0,0
-686,-202,0,0,0,0,0,0,0,0,0,-1,538,1226,0,0
-679,-202,-12.5705,0.315918,0.10621,0.101873,0.000253995,0.106224,0.101859,0.0583101,0.0694067,0.0465356,545,1226,-12.5705,-0.315867
-672,-202,-11.735,0.887939,0.0998015,0.0848604,-0.00310276,0.10042,0.0842417,-0.196827,0.0622586,0.0460287,552,1226,-11.735,-0.887955
-665,-202,-10.8253,1.43652,0.0895614,0.0687923,-0.00486273,0.0906435,0.0677101,-0.21897,0.0544199,0.0450168,559,1226,-10.8253,-1.43655
-658,-202,-9.896,1.89758,0.0774518,0.0543378,-0.00553847,0.0787103,0.0530793,-0.223448,0.0463553,0.0430146,566,1226,-9.89598,-1.89762
-651,-202,-8.77167,1.01587,0.0648543,0.0417983,-0.00552034,0.0661079,0.0405447,-0.223298,0.0384927,0.0461988,573,1226,-8.77168,-1.01582
-644,-202,-7.57013,0.741211,0.0526375,0.0312524,-0.00504855,0.0537694,0.0301205,-0.220563,0.0311186,0.0452655,580,1226,-7.57014,-0.741237
-637,-202,-7.22113,0.77063,0.0413872,0.0226539,-0.00433271,0.0423407,0.0217004,-0.216628,0.024448,0.033743,587,1226,-7.2211,-0.770636
-630,-202,-7.25421,0.794312,0.0315582,0.015855,-0.00355613,0.032326,0.0150873,-0.212639,0.0186772,0.0130322,594,1226,-7.25424,-0.794367
-623,-202,-7.28589,0.891357,0.0229475,0.0102459,-0.0031032,0.0236651,0.00952828,-0.227256,0.0137491,0.00767523,601,1226,-7.28592,-0.891341
-616,-202,-7.29523,1.01392,0.0154685,0.00547076,-0.00309842,0.0163509,0.0045884,-0.277434,0.00973835,0.00775752,608,1226,-7.29526,-1.01396
-609,-202,-7.30444,1.1311,0.00950577,0.00179641,-0.00288547,0.0104661,0.000836062,-0.321291,0.00671609,0.0198211,615,1226,-7.30445,-1.13116
-602,-202,-7.3266,1.20276,0.0051432,-0.000273063,-0.00242179,0.00606812,-0.00119798,-0.364819,0.00449823,0.0205346,622,1226,-7.32661,-1.20279
-595,-202,-7.31244,1.38782,0.00219919,-0.0014836,-0.00255542,0.00350754,-0.00279195,-0.473194,0.00364483,0.0150347,629,1226,-7.31246,-1.38782
-588,-202,-7.28162,1.50415,0.000625916,-0.0016354,-0.00316552,0.00285664,-0.00386613,-0.61387,0.00389595,0.00767985,636,1226,-7.28161,-1.50417
-581,-202,-7.27277,1.58362,-0.000385646,-0.00148553,-0.00372483,0.00282962,-0.00470079,-0.712106,0.0043922,0.00960919,643,1226,-7.27277,-1.58367
-574,-202,-7.30603,1.61438,-0.00114884,-0.000927074,-0.0038169,0.00278055,-0.00485646,-0.799919,0.0044632,0.0147124,650,1226,-7.30604,-1.61438
-567,-202,-7.33435,1.60901,-0.00150077,-0.000194546,-0.00383223,0.00303982,-0.00473514,-0.8698,0.00452431,0.0370849,657,1226,-7.33436,-1.60896
-560,-202,-8.54907,0.287598,0,0,0,0,0,0,0,-1,664,1226,-8.54905,-0.28757
-553,-202,-8.5993,0.31311,-0.00217178,0.00128364,-0.0039117,0.00383219,-0.00472033,-0.993354,0.00494667,0.0461606,671,1226,-8.59929,-0.313146
-546,-202,-8.93182,0.746826,-0.00264026,0.00233311,-0.00364495,0.00425882,-0.00456597,-1.08475,0.00509603,0.042204,678,1226,-8.93182,-0.746781
-539,-202,-8.94537,0.666748,-0.00298324,0.00357445,-0.00324974,0.00491206,-0.00432085,-1.18033,0.00533427,0.0365656,685,1226,-8.94538,-0.66676
-532,-202,-8.96387,0.605835,-0.00297501,0.00484099,-0.00263746,0.00564772,-0.00378174,-1.27396,0.00547951,0.0287015,692,1226,-8.96385,-0.605806
-525,-202,-8.9054,0.596313,-0.00222264,0.00591693,-0.00180227,0.00629814,-0.00260384,-1.36235,0.00528503,0.0337558,699,1226,-8.9054,-0.596343
-518,-202,-8.7627,0.63208,-0.000107225,0.00632732,-0.00104687,0.00649336,-0.000273263,-1.4135,0.00442281,0.0388619,706,1226,-8.76267,-0.63214
-511,-202,-8.76746,0.736572,0.00508527,0.00407022,-0.000960108,0.00566374,0.00349175,-0.542262,0.00329942,0.0417923,713,1226,-8.76748,-0.736548
-504,-202,0,0,0,0,0,0,0,0,0,-1,720,1226,0,0
-497,-202,0,0,0,0,0,0,0,0,0,-1,727,1226,0,0
-490,-202,0,0,0,0,0,0,0,0,0,-1,734,1226,0,0
-483,-202,0,0,0,0,0,0,0,0,0,-1,741,1226,0,0
-476,-202,0,0,0,0,0,0,0,0,0,-1,748,1226,0,0
-469,-202,0,0,0,0,0,0,0,0,0,-1,755,1226,0,0
-462,-202,0,0,0,0,0,0,0,0,0,-1,762,1226,0,0
-455,-202,0,0,0,0,0,0,0,0,0,-1,769,1226,0,0
-448,-202,0,0,0,0,0,0,0,0,0,-1,776,1226,0,0
-441,-202,0,0,0,0,0,0,0,0,0,-1,783,1226,0,0
-434,-202,0,0,0,0,0,0,0,0,0,-1,790,1226,0,0
-427,-202,0,0,0,0,0,0,0,0,0,-1,797,1226,0,0
-420,-202,0,0,0,0,0,0,0,0,0,-1,804,1226,0,0
-413,-202,0,0,0,0,0,0,0,0,0,-1,811,1226,0,0
-406,-202,0,0,0,0,0,0,0,0,0,-1,818,1226,0,0
-399,-202,0,0,0,0,0,0,0,0,0,-1,825,1226,0,0
-392,-202,0,0,0,0,0,0,0,0,0,-1,832,1226,0,0
-385,-202,0,0,0,0,0,0,0,0,0,-1,839,1226,0,0
-378,-202,0,0,0,0,0,0,0,0,0,-1,846,1226,0,0
-371,-202,0,0,0,0,0,0,0,0,0,-1,853,1226,0,0
-364,-202,0,0,0,0,0,0,0,0,0,-1,860,1226,0,0
-357,-202,0,0,0,0,0,0,0,0,0,-1,867,1226,0,0
-350,-202,0,0,0,0,0,0,0,0,0,-1,874,1226,0,0
-343,-202,0,0,0,0,0,0,0,0,0,-1,881,1226,0,0
-336,-202,0,0,0,0,0,0,0,0,0,-1,888,1226,0,0
-329,-202,0,0,0,0,0,0,0,0,0,-1,895,1226,0,0
-322,-202,0,0,0,0,0,0,0,0,0,-1,902,1226,0,0
-315,-202,0,0,0,0,0,0,0,0,0,-1,909,1226,0,0
-308,-202,0,0,0,0,0,0,0,0,0,-1,916,1226,0,0
-301,-202,0,0,0,0,0,0,0,0,0,-1,923,1226,0,0
-294,-202,0,0,0,0,0,0,0,0,0,-1,930,1226,0,0
-287,-202,0,0,0,0,0,0,0,0,0,-1,937,1226,0,0
-280,-202,0,0,0,0,0,0,0,0,0,-1,944,1226,0,0
-273,-202,0,0,0,0,0,0,0,0,0,-1,951,1226,0,0
-266,-202,0,0,0,0,0,0,0,0,0,-1,958,1226,0,0
-259,-202,0,0,0,0,0,0,0,0,0,-1,965,1226,0,0
-252,-202,0,0,0,0,0,0,0,0,0,-1,972,1226,0,0
-245,-202,0,0,0,0,0,0,0,0,0,-1,979,1226,0,0
-238,-202,0,0,0,0,0,0,0,0,0,-1,986,1226,0,0
-231,-202,0,0,0,0,0,0,0,0,0,-1,993,1226,0,0
-224,-202,0,0,0,0,0,0,0,0,0,-1,1000,1226,0,0
-217,-202,0,0,0,0,0,0,0,0,0,-1,1007,1226,0,0
-210,-202,0,0,0,0,0,0,0,0,0,-1,1014,1226,0,0
-203,-202,0,0,0,0,0,0,0,0,0,-1,1021,1226,0,0
-196,-202,0,0,0,0,0,0,0,0,0,-1,1028,1226,0,0
-189,-202,0,0,0,0,0,0,0,0,0,-1,1035,1226,0,0
-182,-202,0,0,0,0,0,0,0,0,0,-1,1042,1226,0,0
-175,-202,0,0,0,0,0,0,0,0,0,-1,1049,1226,0,0
-168,-202,0,0,0,0,0,0,0,0,0,-1,1056,1226,0,0
-161,-202,0,0,0,0,0,0,0,0,0,-1,1063,1226,0,0
-154,-202,0,0,0,0,0,0,0,0,0,-1,1070,1226,0,0
-147,-202,0,0,0,0,0,0,0,0,0,-1,1077,1226,0,0
-140,-202,0,0,0,0,0,0,0,0,0,-1,1084,1226,0,0
-133,-202,0,0,0,0,0,0,0,0,0,-1,1091,1226,0,0
-126,-202,0,0,0,0,0,0,0,0,0,-1,1098,1226,0,0
-119,-202,0,0,0,0,0,0,0,0,0,-1,1105,1226,0,0
-112,-202,0,0,0,0,0,0,0,0,0,-1,1112,1226,0,0
-105,-202,0,0,0,0,0,0,0,0,0,-1,1119,1226,0,0
-98,-202,0,0,0,0,0,0,0,0,0,-1,1126,1226,0,0
-91,-202,0,0,0,0,0,0,0,0,0,-1,1133,1226,0,0
-84,-202,0,0,0,0,0,0,0,0,0,-1,1140,1226,0,0
-77,-202,0,0,0,0,0,0,0,0,0,-1,1147,1226,0,0
-70,-202,0,0,0,0,0,0,0,0,0,-1,1154,1226,0,0
-63,-202,0,0,0,0,0,0,0,0,0,-1,1161,1226,0,0
-56,-202,0,0,0,0,0,0,0,0,0,-1,1168,1226,0,0
-49,-202,0,0,0,0,0,0,0,0,0,-1,1175,1226,0,0
-42,-202,0,0,0,0,0,0,0,0,0,-1,1182,1226,0,0
-35,-202,0,0,0,0,0,0,0,0,0,-1,1189,1226,0,0
-28,-202,0,0,0,0,0,0,0,0,0,-1,1196,1226,0,0
-21,-202,0,0,0,0,0,0,0,0,0,-1,1203,1226,0,0
-14,-202,0,0,0,0,0,0,0,0,0,-1,1210,1226,0,0
-7,-202,0,0,0,0,0,0,0,0,0,-1,1217,1226,0,0
0,-202,0,0,0,0,0,0,0,0,0,-1,1224,1226,0,0
7,-202,0,0,0,0,0,0,0,0,0,-1,1231,1226,0,0
14,-202,0,0,0,0,0,0,0,0,0,-1,1238,1226,0,0
21,-202,0,0,0,0,0,0,0,0,0,-1,1245,1226,0,0
28,-202,0,0,0,0,0,0,0,0,0,-1,1252,1226,0,0
35,-202,0,0,0,0,0,0,0,0,0,-1,1259,1226,0,0
42,-202,0,0,0,0,0,0,0,0,0,-1,1266,1226,0,0
49,-202,0,0,0,0,0,0,0,0,0,-1,1273,1226,0,0
56,-202,0,0,0,0,0,0,0,0,0,-1,1280,1226,0,0
63,-202,0,0,0,0,0,0,0,0,0,-1,1287,1226,0,0
70,-202,0,0,0,0,0,0,0,0,0,-1,1294,1226,0,0
77,-202,0,0,0,0,0,0,0,0,0,-1,1301,1226,0,0
84,-202,0,0,0,0,0,0,0,0,0,-1,1308,1226,0,0
91,-202,0,0,0,0,0,0,0,0,0,-1,1315,1226,0,0
98,-202,0,0,0,0,0,0,0,0,0,-1,1322,1226,0,0
105,-202,0,0,0,0,0,0,0,0,0,-1,1329,1226,0,0
112,-202,0,0,0,0,0,0,0,0,0,-1,1336,1226,0,0
119,-202,0,0,0,0,0,0,0,0,0,-1,1343,1226,0,0
126,-202,0,0,0,0,0,0,0,0,0,-1,1350,1226,0,0
133,-202,0,0,0,0,0,0,0,0,0,-1,1357,1226,0,0
140,-202,0,0,0,0,0,0,0,0,0,-1,1364,1226,0,0
147,-202,0,0,0,0,0,0,0,0,0,-1,1371,1226,0,0
154,-202,0,0,0,0,0,0,0,0,0,-1,1378,1226,0,0
161,-202,0,0,0,0,0,0,0,0,0,-1,1385,1226,0,0
168,-202,0,0,0,0,0,0,0,0,0,-1,1392,1226,0,0
175,-202,0,0,0,0,0,0,0,0,0,-1,1399,1226,0,0
182,-202,0,0,0,0,0,0,0,0,0,-1,1406,1226,0,0
189,-202,0,0,0,0,0,0,0,0,0,-1,1413,1226,0,0
196,-202,0,0,0,0,0,0,0,0,0,-1,1420,1226,0,0
203,-202,0,0,0,0,0,0,0,0,0,-1,1427,1226,0,0
210,-202,0,0,0,0,0,0,0,0,0,-1,1434,1226,0,0
217,-202,0,0,0,0,0,0,0,0,0,-1,1441,1226,0,0
224,-202,0,0,0,0,0,0,0,0,0,-1,1448,1226,0,0
231,-202,0,0,0,0,0,0,0,0,0,-1,1455,1226,0,0
238,-202,0,0,0,0,0,0,0,0,0,-1,1462,1226,0,0
245,-202,0,0,0,0,0,0,0,0,0,-1,1469,1226,0,0
252,-202,0,0,0,0,0,0,0,0,0,-1,1476,1226,0,0
259,-202,0,0,0,0,0,0,0,0,0,-1,1483,1226,0,0
266,-202,0,0,0,0,0,0,0,0,0,-1,1490,1226,0,0
273,-202,0,0,0,0,0,0,0,0,0,-1,1497,1226,0,0
280,-202,0,0,0,0,0,0,0,0,0,-1,1504,1226,0,0
287,-202,0,0,0,0,0,0,0,0,0,-1,1511,1226,0,0
294,-202,0,0,0,0,0,0,0,0,0,-1,1518,1226,0,0
301,-202,0,0,0,0,0,0,0,0,0,-1,1525,1226,0,0
308,-202,0,0,0,0,0,0,0,0,0,-1,1532,1226,0,0
315,-202,0,0,0,0,0,0,0,0,0,-1,1539,1226,0,0
322,-202,0,0,0,0,0,0,0,0,0,-1,1546,1226,0,0
329,-202,0,0,0,0,0,0,0,0,0,-1,1553,1226,0,0
336,-202,0,0,0,0,0,0,0,0,0,-1,1560,1226,0,0
343,-202,0,0,0,0,0,0,0,0,0,-1,1567,1226,0,0
350,-202,0,0,0,0,0,0,0,0,0,-1,1574,1226,0,0
357,-202,0,0,0,0,0,0,0,0,0,-1,1581,1226,0,0
364,-202,0,0,0,0,0,0,0,0,0,-1,1588,1226,0,0
371,-202,0,0,0,0,0,0,0,0,0,-1,1595,1226,0,0
378,-202,0,0,0,0,0,0,0,0,0,-1,1602,1226,0,0
385,-202,0,0,0,0,0,0,0,0,0,-1,1609,1226,0,0
392,-202,0,0,0,0,0,0,0,0,0,-1,1616,1226,0,0
399,-202,0,0,0,0,0,0,0,0,0,-1,1623,1226,0,0
406,-202,0,0,0,0,0,0,0,0,0,-1,1630,1226,0,0
413,-202,0,0,0,0,0,0,0,0,0,-1,1637,1226,0,0
420,-202,0,0,0,0,0,0,0,0,0,-1,1644,1226,0,0
427,-202,0,0,0,0,0,0,0,0,0,-1,1651,1226,0,0
434,-202,0,0,0,0,0,0,0,0,0,-1,1658,1226,0,0
441,-202,0,0,0,0,0,0,0,0,0,-1,1665,1226,0,0
448,-202,0,0,0,0,0,0,0,0,0,-1,1672,1226,0,0
455,-202,0,0,0,0,0,0,0,0,0,-1,1679,1226,0,0
462,-202,0,0,0,0,0,0,0,0,0,-1,1686,1226,0,0
469,-202,0,0,0,0,0,0,0,0,0,-1,1693,1226,0,0
476,-202,0,0,0,0,0,0,0,0,0,-1,1700,1226,0,0
483,-202,0,0,0,0,0,0,0,0,0,-1,1707,1226,0,0
490,-202,0,0,0,0,0,0,0,0,0,-1,1714,1226,0,0
497,-202,0,0,0,0,0,0,0,0,0,-1,1721,1226,0,0
504,-202,0,0,0,0,0,0,0,0,0,-1,1728,1226,0,0
511,-202,0,0,0,0,0,0,0,0,0,-1,1735,1226,0,0
518,-202,0,0,0,0,0,0,0,0,0,-1,1742,1226,0,0
525,-202,0,0,0,0,0,0,0,0,0,-1,1749,1226,0,0
532,-202,0,0,0,0,0,0,0,0,0,-1,1756,1226,0,0
539,-202,0,0,0,0,0,0,0,0,0,-1,1763,1226,0,0
546,-202,0,0,0,0,0,0,0,0,0,-1,1770,1226,0,0
553,-202,0,0,0,0,0,0,0,0,0,-1,1777,1226,0,0
560,-202,0,0,0,0,0,0,0,0,0,-1,1784,1226,0,0
567,-202,0,0,0,0,0,0,0,0,0,-1,1791,1226,0,0
574,-202,0,0,0,0,0,0,0,0,0,-1,1798,1226,0,0
581,-202,0,0,0,0,0,0,0,0,0,-1,1805,1226,0,0
588,-202,0,0,0,0,0,0,0,0,0,-1,1812,1226,0,0
595,-202,0,0,0,0,0,0,0,0,0,-1,1819,1226,0,0
602,-202,0,0,0,0,0,0,0,0,0,-1,1826,1226,0,0
609,-202,0,0,0,0,0,0,0,0,0,-1,1833,1226,0,0
616,-202,0,0,0,0,0,0,0,0,0,-1,1840,1226,0,0
623,-202,0,0,0,0,0,0,0,0,0,-1,1847,1226,0,0
630,-202,15.2078,2.47046,-0.00374076,-0.0038553,-0.00321694,-0.000580582,-0.00701548,-0.776498,0.00449597,0.0374384,1854,1226,15.2077,-2.47041
637,-202,15.1898,2.41638,-0.00365961,-0.000664543,-0.0024119,0.000676917,-0.00500107,-1.06322,0.00358107,0.0349503,1861,1226,15.1898,-2.41641
644,-202,15.1262,2.35376,-0.0037098,0.00317658,-0.000916576,0.00329649,-0.00382971,-1.44071,0.00411815,0.0317031,1868,1226,15.1263,-2.3538
651,-202,15.16,2.29858,-0.00403874,0.00566552,0.000976659,0.00576284,-0.00413606,1.47148,0.0057408,0.0256386,1875,1226,15.16,-2.29853
658,-202,15.1311,2.31885,-0.00425033,0.00706167,0.00271133,0.00767796,-0.00486662,1.34729,0.00730299,0.0221411,1882,1226,15.1311,-2.31881
665,-202,15.094,2.31274,-0.00436183,0.007627,0.00407987,0.00888368,-0.00561851,1.272,0.00844328,0.0198947,1889,1226,15.094,-2.31271
672,-202,15.12,2.18176,-0.00446557,0.00755724,0.00508569,0.00941992,-0.00632825,1.21971,0.00915043,0.0408638,1896,1226,15.12,-2.18171
679,-202,15.1279,2.03174,-0.00450898,0.0071576,0.00581465,0.00956066,-0.00691203,1.1789,0.00955141,0.0489022,1903,1226,15.1279,-2.03168
686,-202,15.1099,1.99683,0,0,0,0,0,0,0,-1,1910,1226,15.1098,-1.99678
693,-202,13.6403,3.44202,-0.00414287,0.00563418,0.006406,0.00880385,-0.00731254,1.11132,0.00931808,0.0490715,1917,1226,13.6403,-3.44203
700,-202,13.4728,3.74646,-0.00390202,0.00464963,0.0062271,0.00792758,-0.00717997,1.08625,0.0087259,0.0206091,1924,1226,13.4728,-3.74646
707,-202,13.4796,3.61438,-0.0036491,0.00352269,0.00580257,0.00675797,-0.00688438,1.06217,0.00787653,0.018838,1931,1226,13.4796,-3.61443
714,-202,13.5043,3.5238,-0.00318727,0.002365,0.00509935,0.00539492,-0.00621719,1.03467,0.00670986,0.01668,1938,1226,13.5043,-3.52375
721,-202,13.5204,3.42395,-0.00251541,0.00146857,0.0040054,0.00394997,-0.00499681,1.01615,0.0051772,0.0130339,1945,1226,13.5203,-3.42401
728,-202,13.5144,3.33752,-0.00173677,0.00113451,0.00275096,0.00280191,-0.00340417,1.02589,0.0035887,0.0104043,1952,1226,13.5143,-3.3375
735,-202,13.5087,3.23425,-0.000902,0.00158178,0.0011349,0.00202224,-0.00134246,1.20059,0.00195578,0.0104611,1959,1226,13.5087,-3.23428
742,-202,13.5073,3.14514,0.000545756,0.00192009,-0.000530684,0.00210116,0.000364693,-1.24199,0.00129642,0.00930649,1966,1226,13.5073,-3.14513
749,-202,13.4944,3.05115,0.0021227,0.00360906,-0.00235799,0.00533821,0.000393548,-0.938059,0.00343515,0.00851325,1973,1226,13.4944,-3.05117
756,-202,13.5105,2.94043,0.00354206,0.00592705,-0.0043595,0.00925421,0.000214896,-0.918902,0.0060991,0.00959327,1980,1226,13.5105,-2.94045
763,-202,13.5248,2.83984,0.00509152,0.00867033,-0.00649178,0.0136148,0.000147038,-0.919879,0.00902793,0.0142556,1987,1226,13.5248,-2.83988
770,-202,13.5331,2.71472,0.0069781,0.0123315,-0.00927258,0.019306,3.61633e-06,-0.925913,0.0128695,0.0363346,1994,1226,13.5331,-2.71469
777,-202,13.6011,2.54773,0.00916601,0.0172497,-0.0129214,0.0267466,-0.000330912,-0.936978,0.0179424,0.0473866,2001,1226,13.6011,-2.54775
784,-202,13.7646,2.45288,0,0,0,0,0,0,0,-1,2008,1226,13.7646,-2.45289
791,-202,14.2844,2.75537,0,0,0,0,0,0,0,-1,2015,1226,14.2844,-2.75532
798,-202,14.7841,3.28723,0,0,0,0,0,0,0,-1,2022,1226,14.784,-3.28718
805,-202,0,0,0,0,0,0,0,0,0,-1,2029,1226,0,0
812,-202,0,0,0,0,0,0,0,0,0,-1,2036,1226,0,0
-700,-209,0,0,0,0,0,0,0,0,0,-1,524,1233,0,0
-693,-209,0,0,0,0,0,0,0,0,0,-1,531,1233,0,0
-686,-209,0,0,0,0,0,0,0,0,0,-1,538,1233,0,0
-679,-209,-12.3569,-0.189087,0.121808,0.097495,-0.000338757,0.121813,0.0974903,-0.0139294,0.0744377,0.0452663,545,1233,-12.3569,0.189029
-672,-209,-11.6238,0.299805,0.112204,0.0806935,-0.00403018,0.112711,0.0801862,-0.125216,0.0669849,0.0450616,552,1233,-11.6238,-0.299787
-665,-209,-10.6172,0.795044,0.0992982,0.0651148,-0.00584669,0.100271,0.0641424,-0.1648,0.0586395,0.0405755,559,1233,-10.6172,-0.795002
-658,-209,-9.61267,0.856079,0.085031,0.0512972,-0.00645057,0.0862224,0.0501058,-0.182639,0.0499984,0.0461708,566,1233,-9.61266,-0.856118
-651,-209,-8.78674,0.862549,0.070735,0.0394254,-0.00630996,0.0719588,0.0382016,-0.191575,0.0415718,0.0478423,573,1233,-8.78673,-0.862528
-644,-209,-7.56812,1.00818,0,0,0,0,0,0,0,-1,580,1233,-7.56812,-1.00816
-637,-209,-7.34595,0.861938,0.0449289,0.0214454,-0.00484514,0.0458893,0.020485,-0.195678,0.0265449,0.0411294,587,1233,-7.34593,-0.861886
-630,-209,-7.12213,0.756592,0.0342953,0.0150799,-0.00393392,0.0350695,0.0143057,-0.194315,0.0203615,0.0213664,594,1233,-7.12212,-0.756543
-623,-209,-7.1604,0.880371,0.0251874,0.0097989,-0.00331143,0.0258698,0.00911657,-0.203208,0.0151513,0.010789,601,1233,-7.16042,-0.880419
-616,-209,-7.17218,1.01819,0.0173182,0.00526555,-0.00310997,0.0180733,0.0045104,-0.238209,0.0108622,0.0109045,608,1233,-7.17215,-1.01818
-609,-209,-7.17731,1.14111,0.0109988,0.00191172,-0.00267794,0.0117293,0.00118126,-0.266292,0.00745702,0.0132231,615,1233,-7.17733,-1.14115
-602,-209,-7.17456,1.26074,0.00635536,-0.000133702,-0.00202262,0.00693418,-0.000712518,-0.278722,0.00487767,0.0157077,622,1233,-7.17455,-1.26072
-595,-209,-7.14746,1.37366,0.00346037,-0.00147585,-0.00203633,0.00419198,-0.00220746,-0.344917,0.00375347,0.0107631,629,1233,-7.14743,-1.37368
-588,-209,-7.13464,1.49219,0.00192429,-0.00167167,-0.00262116,0.00330487,-0.00305225,-0.484781,0.00367125,0.0115113,636,1233,-7.13467,-1.49224
-581,-209,-7.12946,1.61694,0.000766548,-0.00156979,-0.00318736,0.00299306,-0.0037963,-0.609749,0.00392897,0.0112106,643,1233,-7.12945,-1.61691
-574,-209,-7.20422,1.70068,-0.000170934,-0.0010484,-0.00349712,0.00291487,-0.0041342,-0.722996,0.00409003,0.0124646,650,1233,-7.20425,-1.70073
-567,-209,-7.27704,1.80786,-0.000789904,-0.000132804,-0.00366526,0.0032186,-0.00414131,-0.830098,0.00426036,0.0278158,657,1233,-7.27704,-1.80787
-560,-209,-7.34015,1.95801,0,0,0,0,0,0,0,-1,664,1233,-7.34015,-1.95801
-553,-209,-8.46509,0.0648193,0,0,0,0,0,0,0,-1,671,1233,-8.46506,-0.0647993
-546,-209,-9.01514,0.887695,-0.00311026,0.00291987,-0.00400635,0.00491893,-0.00510932,-1.10797,0.00579016,0.0433546,678,1233,-9.01513,-0.887712
-539,-209,-9.00854,0.73291,-0.0041145,0.00443944,-0.00386859,0.00592948,-0.00560454,-1.20314,0.00666005,0.0366959,685,1233,-9.00855,-0.732941
-532,-209,-8.89514,0.606201,-0.00495748,0.00606819,-0.00348783,0.00707888,-0.00596817,-1.28875,0.00754181,0.0292177,692,1233,-8.89517,-0.606191
-525,-209,-8.86896,0.576538,-0.00529752,0.00760442,-0.00277811,0.00817718,-0.00587029,-1.36747,0.00814669,0.030745,699,1233,-8.86897,-0.576528
-518,-209,-8.86987,0.64563,-0.00452755,0.00859961,-0.00175738,0.00883081,-0.00475874,-1.43999,0.00796248,0.0406804,706,1233,-8.86988,-0.645617
-511,-209,-8.9837,0.786987,-0.001102,0.00728064,-0.000553377,0.00731701,-0.00113838,-1.50516,0.00529839,0.0430551,713,1233,-8.98372,-0.787031
-504,-209,0,0,0,0,0,0,0,0,0,-1,720,1233,0,0
-497,-209,0,0,0,0,0,0,0,0,0,-1,727,1233,0,0
-490,-209,0,0,0,0,0,0,0,0,0,-1,734,1233,0,0
-483,-209,0,0,0,0,0,0,0,0,0,-1,741,1233,0,0
-476,-209,0,0,0,0,0,0,0,0,0,-1,748,1233,0,0
-469,-209,0,0,0,0,0,0,0,0,0,-1,755,1233,0,0
-462,-209,0,0,0,0,0,0,0,0,0,-1,762,1233,0,0
-455,-209,0,0,0,0,0,0,0,0,0,-1,769,1233,0,0
-448,-209,0,0,0,0,0,0,0,0,0,-1,776,1233,0,0
-441,-209,0,0,0,0,0,0,0,0,0,-1,783,1233,0,0
-434,-209,0,0,0,0,0,0,0,0,0,-1,790,1233,0,0
-427,-209,0,0,0,0,0,0,0,0,0,-1,797,1233,0,0
-420,-209,0,0,0,0,0,0,0,0,0,-1,804,1233,0,0
-413,-209,0,0,0,0,0,0,0,0,0,-1,811,1233,0,0
-406,-209,0,0,0,0,0,0,0,0,0,-1,818,1233,0,0
-399,-209,0,0,0,0,0,0,0,0,0,-1,825,1233,0,0
-392,-209,0,0,0,0,0,0,0,0,0,-1,832,1233,0,0
-385,-209,0,0,0,0,0,0,0,0,0,-1,839,1233,0,0
-378,-209,0,0,0,0,0,0,0,0,0,-1,846,1233,0,0
-371,-209,0,0,0,0,0,0,0,0,0,-1,853,1233,0,0
-364,-209,0,0,0,0,0,0,0,0,0,-1,860,1233,0,0
-357,-209,0,0,0,0,0,0,0,0,0,-1,867,1233,0,0
-350,-209,0,0,0,0,0,0,0,0,0,-1,874,1233,0,0
-343,-209,0,0,0,0,0,0,0,0,0,-1,881,1233,0,0
-336,-209,0,0,0,0,0,0,0,0,0,-1,888,1233,0,0
-329,-209,0,0,0,0,0,0,0,0,0,-1,895,1233,0,0
-322,-209,0,0,0,0,0,0,0,0,0,-1,902,1233,0,0
-315,-209,0,0,0,0,0,0,0,0,0,-1,909,1233,0,0
-308,-209,0,0,0,0,0,0,0,0,0,-1,916,1233,0,0
-301,-209,0,0,0,0,0,0,0,0,0,-1,923,1233,0,0
-294,-209,0,0,0,0,0,0,0,0,0,-1,930,1233,0,0
-287,-209,0,0,0,0,0,0,0,0,0,-1,937,1233,0,0
-280,-209,0,0,0,0,0,0,0,0,0,-1,944,1233,0,0
-273,-209,0,0,0,0,0,0,0,0,0,-1,951,1233,0,0
-266,-209,0,0,0,0,0,0,0,0,0,-1,958,1233,0,0
-259,-209,0,0,0,0,0,0,0,0,0,-1,965,1233,0,0
-252,-209,0,0,0,0,0,0,0,0,0,-1,972,1233,0,0
-245,-209,0,0,0,0,0,0,0,0,0,-1,979,1233,0,0
-238,-209,0,0,0,0,0,0,0,0,0,-1,986,1233,0,0
-231,-209,0,0,0,0,0,0,0,0,0,-1,993,1233,0,0
-224,-209,0,0,0,0,0,0,0,0,0,-1,1000,1233,0,0
-217,-209,0,0,0,0,0,0,0,0,0,-1,1007,1233,0,0
-210,-209,0,0,0,0,0,0,0,0,0,-1,1014,1233,0,0
-203,-209,0,0,0,0,0,0,0,0,0,-1,1021,1233,0,0
-196,-209,0,0,0,0,0,0,0,0,0,-1,1028,1233,0,0
-189,-209,0,0,0,0,0,0,0,0,0,-1,1035,1233,0,0
-182,-209,0,0,0,0,0,0,0,0,0,-1,1042,1233,0,0
-175,-209,0,0,0,0,0,0,0,0,0,-1,1049,1233,0,0
-168,-209,0,0,0,0,0,0,0,0,0,-1,1056,1233,0,0
-161,-209,0,0,0,0,0,0,0,0,0,-1,1063,1233,0,0
-154,-209,0,0,0,0,0,0,0,0,0,-1,1070,1233,0,0
-147,-209,0,0,0,0,0,0,0,0,0,-1,1077,1233,0,0
-140,-209,0,0,0,0,0,0,0,0,0,-1,1084,1233,0,0
-133,-209,0,0,0,0,0,0,0,0,0,-1,1091,1233,0,0
-126,-209,0,0,0,0,0,0,0,0,0,-1,1098,1233,0,0
-119,-209,0,0,0,0,0,0,0,0,0,-1,1105,1233,0,0
-112,-209,0,0,0,0,0,0,0,0,0,-1,1112,1233,0,0
-105,-209,0,0,0,0,0,0,0,0,0,-1,1119,1233,0,0
-98,-209,0,0,0,0,0,0,0,0,0,-1,1126,1233,0,0
-91,-209,0,0,0,0,0,0,0,0,0,-1,1133,1233,0,0
-84,-209,0,0,0,0,0,0,0,0,0,-1,1140,1233,0,0
-77,-209,0,0,0,0,0,0,0,0,0,-1,1147,1233,0,0
-70,-209,0,0,0,0,0,0,0,0,0,-1,1154,1233,0,0
-63,-209,0,0,0,0,0,0,0,0,0,-1,1161,1233,0,0
-56,-209,0,0,0,0,0,0,0,0,0,-1,1168,1233,0,0
-49,-209,0,0,0,0,0,0,0,0,0,-1,1175,1233,0,0
-42,-209,0,0,0,0,0,0,0,0,0,-1,1182,1233,0,0
-35,-209,0,0,0,0,0,0,0,0,0,-1,1189,1233,0,0
-28,-209,0,0,0,0,0,0,0,0,0,-1,1196,1233,0,0
-21,-209,0,0,0,0,0,0,0,0,0,-1,1203,1233,0,0
-14,-209,0,0,0,0,0,0,0,0,0,-1,1210,1233,0,0
-7,-209,0,0,0,0,0,0,0,0,0,-1,1217,1233,0,0
0,-209,0,0,0,0,0,0,0,0,0,-1,1224,1233,0,0
7,-209,0,0,0,0,0,0,0,0,0,-1,1231,1233,0,0
14,-209,0,0,0,0,0,0,0,0,0,-1,1238,1233,0,0
21,-209,0,0,0,0,0,0,0,0,0,-1,1245,1233,0,0
28,-209,0,0,0,0,0,0,0,0,0,-1,1252,1233,0,0
35,-209,0,0,0,0,0,0,0,0,0,-1,1259,1233,0,0
42,-209,0,0,0,0,0,0,0,0,0,-1,1266,1233,0,0
49,-209,0,0,0,0,0,0,0,0,0,-1,1273,1233,0,0
56,-209,0,0,0,0,0,0,0,0,0,-1,1280,1233,0,0
63,-209,0,0,0,0,0,0,0,0,0,-1,1287,1233,0,0
70,-209,0,0,0,0,0,0,0,0,0,-1,1294,1233,0,0
77,-209,0,0,0,0,0,0,0,0,0,-1,1301,1233,0,0
84,-209,0,0,0,0,0,0,0,0,0,-1,1308,1233,0,0
91,-209,0,0,0,0,0,0,0,0,0,-1,1315,1233,0,0
98,-209,0,0,0,0,0,0,0,0,0,-1,1322,1233,0,0
105,-209,0,0,0,0,0,0,0,0,0,-1,1329,1233,0,0
112,-209,0,0,0,0,0,0,0,0,0,-1,1336,1233,0,0
119,-209,0,0,0,0,0,0,0,0,0,-1,1343,1233,0,0
126,-209,0,0,0,0,0,0,0,0,0,-1,1350,1233,0,0
133,-209,0,0,0,0,0,0,0,0,0,-1,1357,1233,0,0
140,-209,0,0,0,0,0,0,0,0,0,-1,1364,1233,0,0
147,-209,0,0,0,0,0,0,0,0,0,-1,1371,1233,0,0
154,-209,0,0,0,0,0,0,0,0,0,-1,1378,1233,0,0
161,-209,0,0,0,0,0,0,0,0,0,-1,1385,1233,0,0
168,-209,0,0,0,0,0,0,0,0,0,-1,1392,1233,0,0
175,-209,0,0,0,0,0,0,0,0,0,-1,1399,1233,0,0
182,-209,0,0,0,0,0,0,0,0,0,-1,1406,1233,0,0
189,-209,0,0,0,0,0,0,0,0,0,-1,1413,1233,0,0
196,-209,0,0,0,0,0,0,0,0,0,-1,1420,1233,0,0
203,-209,0,0,0,0,0,0,0,0,0,-1,1427,1233,0,0
210,-209,0,0,0,0,0,0,0,0,0,-1,1434,1233,0,0
217,-209,0,0,0,0,0,0,0,0,0,-1,1441,1233,0,0
224,-209,0,0,0,0,0,0,0,0,0,-1,1448,1233,0,0
231,-209,0,0,0,0,0,0,0,0,0,-1,1455,1233,0,0
238,-209,0,0,0,0,0,0,0,0,0,-1,1462,1233,0,0
245,-209,0,0,0,0,0,0,0,0,0,-1,1469,1233,0,0
252,-209,0,0,0,0,0,0,0,0,0,-1,1476,1233,0,0
259,-209,0,0,0,0,0,0,0,0,0,-1,1483,1233,0,0
266,-209,0,0,0,0,0,0,0,0,0,-1,1490,1233,0,0
273,-209,0,0,0,0,0,0,0,0,0,-1,1497,1233,0,0
280,-209,0,0,0,0,0,0,0,0,0,-1,1504,1233,0,0
287,-209,0,0,0,0,0,0,0,0,0,-1,1511,1233,0,0
294,-209,0,0,0,0,0,0,0,0,0,-1,1518,1233,0,0
301,-209,0,0,0,0,0,0,0,0,0,-1,1525,1233,0,0
308,-209,0,0,0,0,0,0,0,0,0,-1,1532,1233,0,0
315,-209,0,0,0,0,0,0,0,0,0,-1,1539,1233,0,0
322,-209,0,0,0,0,0,0,0,0,0,-1,1546,1233,0,0
329,-209,0,0,0,0,0,0,0,0,0,-1,1553,1233,0,0
336,-209,0,0,0,0,0,0,0,0,0,-1,1560,1233,0,0
343,-209,0,0,0,0,0,0,0,0,0,-1,1567,1233,0,0
350,-209,0,0,0,0,0,0,0,0,0,-1,1574,1233,0,0
357,-209,0,0,0,0,0,0,0,0,0,-1,1581,1233,0,0
364,-209,0,0,0,0,0,0,0,0,0,-1,1588,1233,0,0
371,-209,0,0,0,0,0,0,0,0,0,-1,1595,1233,0,0
378,-209,0,0,0,0,0,0,0,0,0,-1,1602,1233,0,0
385,-209,0,0,0,0,0,0,0,0,0,-1,1609,1233,0,0
392,-209,0,0,0,0,0,0,0,0,0,-1,1616,1233,0,0
399,-209,0,0,0,0,0,0,0,0,0,-1,1623,1233,0,0
406,-209,0,0,0,0,0,0,0,0,0,-1,1630,1233,0,0
413,-209,0,0,0,0,0,0,0,0,0,-1,1637,1233,0,0
420,-209,0,0,0,0,0,0,0,0,0,-1,1644,1233,0,0
427,-209,0,0,0,0,0,0,0,0,0,-1,1651,1233,0,0
434,-209,0,0,0,0,0,0,0,0,0,-1,1658,1233,0,0
441,-209,0,0,0,0,0,0,0,0,0,-1,1665,1233,0,0
448,-209,0,0,0,0,0,0,0,0,0,-1,1672,1233,0,0
455,-209,0,0,0,0,0,0,0,0,0,-1,1679,1233,0,0
462,-209,0,0,0,0,0,0,0,0,0,-1,1686,1233,0,0
469,-209,0,0,0,0,0,0,0,0,0,-1,1693,1233,0,0
476,-209,0,0,0,0,0,0,0,0,0,-1,1700,1233,0,0
483,-209,0,0,0,0,0,0,0,0,0,-1,1707,1233,0,0
490,-209,0,0,0,0,0,0,0,0,0,-1,1714,1233,0,0
497,-209,0,0,0,0,0,0,0,0,0,-1,1721,1233,0,0
504,-209,0,0,0,0,0,0,0,0,0,-1,1728,1233,0,0
511,-209,0,0,0,0,0,0,0,0,0,-1,1735,1233,0,0
518,-209,0,0,0,0,0,0,0,0,0,-1,1742,1233,0,0
525,-209,0,0,0,0,0,0,0,0,0,-1,1749,1233,0,0
532,-209,0,0,0,0,0,0,0,0,0,-1,1756,1233,0,0
539,-209,0,0,0,0,0,0,0,0,0,-1,1763,1233,0,0
546,-209,0,0,0,0,0,0,0,0,0,-1,1770,1233,0,0
553,-209,0,0,0,0,0,0,0,0,0,-1,1777,1233,0,0
560,-209,0,0,0,0,0,0,0,0,0,-1,1784,1233,0,0
567,-209,0,0,0,0,0,0,0,0,0,-1,1791,1233,0,0
574,-209,0,0,0,0,0,0,0,0,0,-1,1798,1233,0,0
581,-209,0,0,0,0,0,0,0,0,0,-1,1805,1233,0,0
588,-209,0,0,0,0,0,0,0,0,0,-1,1812,1233,0,0
595,-209,0,0,0,0,0,0,0,0,0,-1,1819,1233,0,0
602,-209,0,0,0,0,0,0,0,0,0,-1,1826,1233,0,0
609,-209,0,0,0,0,0,0,0,0,0,-1,1833,1233,0,0
616,-209,0,0,0,0,0,0,0,0,0,-1,1840,1233,0,0
623,-209,15.1532,2.40723,-0.00154564,-0.00487074,-0.00414846,0.00126101,-0.00767739,-0.594816,0.00558624,0.0339281,1847,1233,15.1532,-2.40719
630,-209,15.1401,2.31836,-0.00335387,-0.00104736,-0.00371623,0.00169044,-0.00609168,-0.935852,0.00472646,0.0362698,1854,1233,15.1402,-2.31837
637,-209,15.0959,2.2334,-0.00394145,0.00218879,-0.00237908,0.00300374,-0.0047564,-1.24077,0.00451825,0.0346015,1861,1233,15.0959,-2.23342
644,-209,15.1179,2.31616,-0.00451721,0.00537661,-0.000516802,0.00540353,-0.00454413,-1.51875,0.00575042,0.0287996,1868,1233,15.1179,-2.31611
651,-209,15.089,2.33838,-0.00498994,0.00724144,0.00146797,0.00741515,-0.00516365,1.45301,0.00730105,0.0230795,1875,1233,15.089,-2.33835
658,-209,15.0966,2.33594,-0.00513476,0.00814865,0.00313104,0.00884967,-0.00583578,1.35053,0.00853796,0.0197027,1882,1233,15.0966,-2.33595
665,-209,15.1334,2.28503,-0.00509343,0.00834632,0.00438773,0.00965196,-0.00639908,1.28157,0.00933029,0.0333569,1889,1233,15.1334,-2.28506
672,-209,15.1558,2.12976,-0.00500992,0.00801957,0.00526616,0.00988184,-0.00687219,1.23089,0.00972482,0.0483213,1896,1233,15.1558,-2.1298
679,-209,15.2261,2.07983,0,0,0,0,0,0,0,-1,1903,1233,15.2261,-2.07987
686,-209,13.4878,3.00232,0,0,0,0,0,0,0,-1,1910,1233,13.4878,-3.0023
693,-209,13.4631,3.56287,-0.0040604,0.00570479,0.00632745,0.00881446,-0.00717008,1.11401,0.00924494,0.0468106,1917,1233,13.4632,-3.56292
700,-209,13.3657,3.78821,-0.00363281,0.00466209,0.00609309,0.00788533,-0.00685605,1.08422,0.00851785,0.0184409,1924,1233,13.3657,-3.78818
707,-209,13.3956,3.61719,-0.00320585,0.00347626,0.00562168,0.00667477,-0.00640436,1.05351,0.00755178,0.0160324,1931,1233,13.3956,-3.61715
714,-209,13.4098,3.51501,-0.00258889,0.00232449,0.00485731,0.00531103,-0.00557543,1.01953,0.00628592,0.0127077,1938,1233,13.4098,-3.51501
721,-209,13.4164,3.41943,-0.00195094,0.00150818,0.00367093,0.00383659,-0.00427935,1.00555,0.00468806,0.0124809,1945,1233,13.4163,-3.41945
728,-209,13.4294,3.33398,-0.00149524,0.00127568,0.00240703,0.0026675,-0.00288706,1.04654,0.00320776,0.0119911,1952,1233,13.4294,-3.33393
735,-209,13.4344,3.24414,-0.00126674,0.00194651,0.00085735,0.00216096,-0.00148118,1.3257,0.00211496,0.0122575,1959,1233,13.4345,-3.2441
742,-209,13.4304,3.15759,-0.000533991,0.00247927,-0.000678567,0.00262503,-0.000679749,-1.35921,0.00201519,0.0101701,1966,1233,13.4305,-3.15763
749,-209,13.4221,3.06287,3.18584e-05,0.00425424,-0.002299,0.00526435,-0.000978251,-1.15682,0.00387701,0.00850598,1973,1233,13.4221,-3.06291
756,-209,13.4215,2.94727,0.000234623,0.00657878,-0.00404214,0.00854489,-0.00173149,-1.11809,0.0063529,0.00963853,1980,1233,13.4216,-2.94732
763,-209,13.4159,2.84155,0.000253069,0.00939765,-0.00596086,0.0123379,-0.00268715,-1.11256,0.00925196,0.0160456,1987,1233,13.4159,-2.84155
770,-209,13.4396,2.71643,0.00023167,0.0130703,-0.00846636,0.0172758,-0.00397383,-1.10977,0.0130452,0.0400909,1994,1233,13.4395,-2.71641
777,-209,13.5022,2.5802,8.7493e-05,0.0178556,-0.0117301,0.0236863,-0.00574315,-1.1095,0.0180131,0.0474286,2001,1233,13.5022,-2.58019
784,-209,13.6597,2.78271,-0.000230733,0.0241145,-0.0159744,0.0320256,-0.00814179,-1.11097,0.0245191,0.0463997,2008,1233,13.6597,-2.78266
791,-209,13.4271,2.6178,0,0,0,0,0,0,0,-1,2015,1233,13.4271,-2.61785
798,-209,13.7534,1.65552,0,0,0,0,0,0,0,-1,2022,1233,13.7534,-1.65549
805,-209,0,0,0,0,0,0,0,0,0,-1,2029,1233,0,0
812,-209,0,0,0,0,0,0,0,0,0,-1,2036,1233,0,0
-700,-216,0,0,0,0,0,0,0,0,0,-1,524,1240,0,0
-693,-216,0,0,0,0,0,0,0,0,0,-1,531,1240,0,0
-686,-216,0,0,0,0,0,0,0,0,0,-1,538,1240,0,0
-679,-216,-11.6165,-0.866943,0.131841,0.0870027,-0.00186045,0.131918,0.0869256,-0.0413974,0.077435,0.0445084,545,1240,-11.6165,0.866884
-672,-216,-11.3942,-0.330078,0.120437,0.0721373,-0.00563849,0.121087,0.0714878,-0.114685,0.0702891,0.0450806,552,1240,-11.3942,0.330117
-665,-216,-10.3,0.12793,0.105957,0.0582825,-0.00732677,0.107058,0.0571819,-0.1491,0.0618578,0.0430989,559,1240,-10.3,-0.127935
-658,-216,-9.5365,0.504028,0.0903579,0.0459712,-0.0077231,0.0916633,0.0446659,-0.167442,0.0529275,0.0441673,566,1240,-9.53648,-0.504062
-651,-216,-8.85846,0.604004,0.0749772,0.0353818,-0.00736179,0.0763016,0.0340574,-0.178004,0.0441372,0.0443228,573,1240,-8.85844,-0.604008
-644,-216,-8.27435,0.683838,0,0,0,0,0,0,0,-1,580,1240,-8.27433,-0.68381
-637,-216,-7.552,0.737305,0.0475974,0.0193046,-0.00550251,0.0486299,0.0182721,-0.18548,0.028364,0.0425674,587,1240,-7.55201,-0.737263
-630,-216,-7.07947,0.685425,0.0363813,0.0135987,-0.00442572,0.0372108,0.0127691,-0.185284,0.0218332,0.0281894,594,1240,-7.07944,-0.685468
-623,-216,-7.0249,0.876099,0.0269244,0.00882995,-0.00361628,0.0276203,0.00813399,-0.190129,0.0163894,0.0122902,601,1240,-7.02489,-0.876131
-616,-216,-7.0498,1.03296,0.0187864,0.00468963,-0.00318822,0.0194739,0.0040021,-0.212397,0.0118755,0.0129574,608,1240,-7.04981,-1.03291
-609,-216,-7.04236,1.14563,0.0122786,0.00182054,-0.00253901,0.0128624,0.00123671,-0.226015,0.00819387,0.0129378,615,1240,-7.04236,-1.14564
-602,-216,-7.03809,1.24036,0.0073923,-0.000128139,-0.00163219,0.00773127,-0.0004671,-0.204763,0.00531672,0.0127137,622,1240,-7.0381,-1.24042
-595,-216,-7.02551,1.35205,0.00457596,-0.00155249,-0.0014726,0.00491144,-0.00188798,-0.223994,0.00405295,0.0155148,629,1240,-7.02549,-1.35208
-588,-216,-7.02295,1.49756,0.00308254,-0.00181262,-0.00194896,0.00376372,-0.00249379,-0.336235,0.00363749,0.0172486,636,1240,-7.02296,-1.49752
-581,-216,-7.01984,1.62024,0.00177173,-0.00186558,-0.0024644,0.00301588,-0.00310972,-0.467519,0.00353676,0.0161072,643,1240,-7.01981,-1.62029
-574,-216,-7.0354,1.76685,0.00065794,-0.00152682,-0.00296477,0.00272518,-0.00359405,-0.608889,0.00365989,0.0134319,650,1240,-7.03542,-1.76683
-567,-216,-7.04205,1.89465,-0.000259693,-0.000582221,-0.00334062,0.00292355,-0.00376546,-0.76128,0.00387209,0.0231354,657,1240,-7.04205,-1.89461
-560,-216,-6.89392,2.1864,-0.00114151,0.000276448,-0.00372063,0.00335504,-0.00422011,-0.879546,0.00438301,0.0460194,664,1240,-6.89394,-2.18646
-553,-216,-9.20813,1.56055,0,0,0,0,0,0,0,-1,671,1240,-9.20812,-1.56049
-546,-216,-9.09369,1.26746,-0.00390999,0.00270452,-0.00415781,0.00471002,-0.00591549,-1.12137,0.00614778,0.0451852,678,1240,-9.09368,-1.26746
-539,-216,-8.97974,0.656372,-0.00558309,0.00436646,-0.00427614,0.0059517,-0.00716833,-1.21579,0.0075857,0.0427982,685,1240,-8.97973,-0.656421
-532,-216,-8.62738,0.367188,0,0,0,0,0,0,0,-1,692,1240,-8.62738,-0.367202
-525,-216,-8.90118,0.614624,-0.00867082,0.00814583,-0.00349221,0.0088422,-0.00936719,-1.37397,0.0105147,0.0371107,699,1240,-8.9012,-0.614669
-518,-216,-8.89069,0.653564,-0.00930929,0.00973035,-0.00218963,0.00997892,-0.00955786,-1.45776,0.0112804,0.0405142,706,1240,-8.89067,-0.653541
-511,-216,-8.87872,0.696411,0,0,0,0,0,0,0,-1,713,1240,-8.87872,-0.696405
-504,-216,-8.89838,0.56897,0,0,0,0,0,0,0,-1,720,1240,-8.89839,-0.568957
-497,-216,0,0,0,0,0,0,0,0,0,-1,727,1240,0,0
-490,-216,0,0,0,0,0,0,0,0,0,-1,734,1240,0,0
-483,-216,0,0,0,0,0,0,0,0,0,-1,741,1240,0,0
-476,-216,0,0,0,0,0,0,0,0,0,-1,748,1240,0,0
-469,-216,0,0,0,0,0,0,0,0,0,-1,755,1240,0,0
-462,-216,0,0,0,0,0,0,0,0,0,-1,762,1240,0,0
-455,-216,0,0,0,0,0,0,0,0,0,-1,769,1240,0,0
-448,-216,0,0,0,0,0,0,0,0,0,-1,776,1240,0,0
-441,-216,0,0,0,0,0,0,0,0,0,-1,783,1240,0,0
-434,-216,0,0,0,0,0,0,0,0,0,-1,790,1240,0,0
-427,-216,0,0,0,0,0,0,0,0,0,-1,797,1240,0,0
-420,-216,0,0,0,0,0,0,0,0,0,-1,804,1240,0,0
-413,-216,0,0,0,0,0,0,0,0,0,-1,811,1240,0,0
-406,-216,0,0,0,0,0,0,0,0,0,-1,818,1240,0,0
-399,-216,0,0,0,0,0,0,0,0,0,-1,825,1240,0,0
-392,-216,0,0,0,0,0,0,0,0,0,-1,832,1240,0,0
-385,-216,0,0,0,0,0,0,0,0,0,-1,839,1240,0,0
-378,-216,0,0,0,0,0,0,0,0,0,-1,846,1240,0,0
-371,-216,0,0,0,0,0,0,0,0,0,-1,853,1240,0,0
-364,-216,0,0,0,0,0,0,0,0,0,-1,860,1240,0,0
-357,-216,0,0,0,0,0,0,0,0,0,-1,867,1240,0,0
-350,-216,0,0,0,0,0,0,0,0,0,-1,874,1240,0,0
-343,-216,0,0,0,0,0,0,0,0,0,-1,881,1240,0,0
-336,-216,0,0,0,0,0,0,0,0,0,-1,888,1240,0,0
-329,-216,0,0,0,0,0,0,0,0,0,-1,895,1240,0,0
-322,-216,0,0,0,0,0,0,0,0,0,-1,902,1240,0,0
-315,-216,0,0,0,0,0,0,0,0,0,-1,909,1240,0,0
-308,-216,0,0,0,0,0,0,0,0,0,-1,916,1240,0,0
-301,-216,0,0,0,0,0,0,0,0,0,-1,923,1240,0,0
-294,-216,0,0,0,0,0,0,0,0,0,-1,930,1240,0,0
-287,-216,0,0,0,0,0,0,0,0,0,-1,937,1240,0,0
-280,-216,0,0,0,0,0,0,0,0,0,-1,944,1240,0,0
-273,-216,0,0,0,0,0,0,0,0,0,-1,951,1240,0,0
-266,-216,0,0,0,0,0,0,0,0,0,-1,958,1240,0,0
-259,-216,0,0,0,0,0,0,0,0,0,-1,965,1240,0,0
-252,-216,0,0,0,0,0,0,0,0,0,-1,972,1240,0,0
-245,-216,0,0,0,0,0,0,0,0,0,-1,979,1240,0,0
-238,-216,0,0,0,0,0,0,0,0,0,-1,986,1240,0,0
-231,-216,0,0,0,0,0,0,0,0,0,-1,993,1240,0,0
-224,-216,0,0,0,0,0,0,0,0,0,-1,1000,1240,0,0
-217,-216,0,0,0,0,0,0,0,0,0,-1,1007,1240,0,0
-210,-216,0,0,0,0,0,0,0,0,0,-1,1014,1240,0,0
-203,-216,0,0,0,0,0,0,0,0,0,-1,1021,1240,0,0
-196,-216,0,0,0,0,0,0,0,0,0,-1,1028,1240,0,0
-189,-216,0,0,0,0,0,0,0,0,0,-1,1035,1240,0,0
-182,-216,0,0,0,0,0,0,0,0,0,-1,1042,1240,0,0
-175,-216,0,0,0,0,0,0,0,0,0,-1,1049,1240,0,0
-168,-216,0,0,0,0,0,0,0,0,0,-1,1056,1240,0,0
-161,-216,0,0,0,0,0,0,0,0,0,-1,1063,1240,0,0
-154,-216,0,0,0,0,0,0,0,0,0,-1,1070,1240,0,0
-147,-216,0,0,0,0,0,0,0,0,0,-1,1077,1240,0,0
-140,-216,0,0,0,0,0,0,0,0,0,-1,1084,1240,0,0
-133,-216,0,0,0,0,0,0,0,0,0,-1,1091,1240,0,0
-126,-216,0,0,0,0,0,0,0,0,0,-1,1098,1240,0,0
-119,-216,0,0,0,0,0,0,0,0,0,-1,1105,1240,0,0
-112,-216,0,0,0,0,0,0,0,0,0,-1,1112,1240,0,0
-105,-216,0,0,0,0,0,0,0,0,0,-1,1119,1240,0,0
-98,-216,0,0,0,0,0,0,0,0,0,-1,1126,1240,0,0
-91,-216,0,0,0,0,0,0,0,0,0,-1,1133,1240,0,0
-84,-216,0,0,0,0,0,0,0,0,0,-1,1140,1240,0,0
-77,-216,0,0,0,0,0,0,0,0,0,-1,1147,1240,0,0
-70,-216,0,0,0,0,0,0,0,0,0,-1,1154,1240,0,0
-63,-216,0,0,0,0,0,0,0,0,0,-1,1161,1240,0,0
-56,-216,0,0,0,0,0,0,0,0,0,-1,1168,1240,0,0
-49,-216,0,0,0,0,0,0,0,0,0,-1,1175,1240,0,0
-42,-216,0,0,0,0,0,0,0,0,0,-1,1182,1240,0,0
-35,-216,0,0,0,0,0,0,0,0,0,-1,1189,1240,0,0
-28,-216,0,0,0,0,0,0,0,0,0,-1,1196,1240,0,0
-21,-216,0,0,0,0,0,0,0,0,0,-1,1203,1240,0,0
-14,-216,0,0,0,0,0,0,0,0,0,-1,1210,1240,0,0
-7,-216,0,0,0,0,0,0,0,0,0,-1,1217,1240,0,0
0,-216,0,0,0,0,0,0,0,0,0,-1,1224,1240,0,0
7,-216,0,0,0,0,0,0,0,0,0,-1,1231,1240,0,0
14,-216,0,0,0,0,0,0,0,0,0,-1,1238,1240,0,0
21,-216,0,0,0,0,0,0,0,0,0,-1,1245,1240,0,0
28,-216,0,0,0,0,0,0,0,0,0,-1,1252,1240,0,0
35,-216,0,0,0,0,0,0,0,0,0,-1,1259,1240,0,0
42,-216,0,0,0,0,0,0,0,0,0,-1,1266,1240,0,0
49,-216,0,0,0,0,0,0,0,0,0,-1,1273,1240,0,0
56,-216,0,0,0,0,0,0,0,0,0,-1,1280,1240,0,0
63,-216,0,0,0,0,0,0,0,0,0,-1,1287,1240,0,0
70,-216,0,0,0,0,0,0,0,0,0,-1,1294,1240,0,0
77,-216,0,0,0,0,0,0,0,0,0,-1,1301,1240,0,0
84,-216,0,0,0,0,0,0,0,0,0,-1,1308,1240,0,0
91,-216,0,0,0,0,0,0,0,0,0,-1,1315,1240,0,0
98,-216,0,0,0,0,0,0,0,0,0,-1,1322,1240,0,0
105,-216,0,0,0,0,0,0,0,0,0,-1,1329,1240,0,0
112,-216,0,0,0,0,0,0,0,0,0,-1,1336,1240,0,0
119,-216,0,0,0,0,0,0,0,0,0,-1,1343,1240,0,0
126,-216,0,0,0,0,0,0,0,0,0,-1,1350,1240,0,0
133,-216,0,0,0,0,0,0,0,0,0,-1,1357,1240,0,0
140,-216,0,0,0,0,0,0,0,0,0,-1,1364,1240,0,0
147,-216,0,0,0,0,0,0,0,0,0,-1,1371,1240,0,0
154,-216,0,0,0,0,0,0,0,0,0,-1,1378,1240,0,0
161,-216,0,0,0,0,0,0,0,0,0,-1,1385,1240,0,0
168,-216,0,0,0,0,0,0,0,0,0,-1,1392,1240,0,0
175,-216,0,0,0,0,0,0,0,0,0,-1,1399,1240,0,0
182,-216,0,0,0,0,0,0,0,0,0,-1,1406,1240,0,0
189,-216,0,0,0,0,0,0,0,0,0,-1,1413,1240,0,0
196,-216,0,0,0,0,0,0,0,0,0,-1,1420,1240,0,0
203,-216,0,0,0,0,0,0,0,0,0,-1,1427,1240,0,0
210,-216,0,0,0,0,0,0,0,0,0,-1,1434,1240,0,0
217,-216,0,0,0,0,0,0,0,0,0,-1,1441,1240,0,0
224,-216,0,0,0,0,0,0,0,0,0,-1,1448,1240,0,0
231,-216,0,0,0,0,0,0,0,0,0,-1,1455,1240,0,0
238,-216,0,0,0,0,0,0,0,0,0,-1,1462,1240,0,0
245,-216,0,0,0,0,0,0,0,0,0,-1,1469,1240,0,0
252,-216,0,0,0,0,0,0,0,0,0,-1,1476,1240,0,0
259,-216,0,0,0,0,0,0,0,0,0,-1,1483,1240,0,0
266,-216,0,0,0,0,0,0,0,0,0,-1,1490,1240,0,0
273,-216,0,0,0,0,0,0,0,0,0,-1,1497,1240,0,0
280,-216,0,0,0,0,0,0,0,0,0,-1,1504,1240,0,0
287,-216,0,0,0,0,0,0,0,0,0,-1,1511,1240,0,0
294,-216,0,0,0,0,0,0,0,0,0,-1,1518,1240,0,0
301,-216,0,0,0,0,0,0,0,0,0,-1,1525,1240,0,0
308,-216,0,0,0,0,0,0,0,0,0,-1,1532,1240,0,0
315,-216,0,0,0,0,0,0,0,0,0,-1,1539,1240,0,0
322,-216,0,0,0,0,0,0,0,0,0,-1,1546,1240,0,0
329,-216,0,0,0,0,0,0,0,0,0,-1,1553,1240,0,0
336,-216,0,0,0,0,0,0,0,0,0,-1,1560,1240,0,0
343,-216,0,0,0,0,0,0,0,0,0,-1,1567,1240,0,0
350,-216,0,0,0,0,0,0,0,0,0,-1,1574,1240,0,0
357,-216,0,0,0,0,0,0,0,0,0,-1,1581,1240,0,0
364,-216,0,0,0,0,0,0,0,0,0,-1,1588,1240,0,0
371,-216,0,0,0,0,0,0,0,0,0,-1,1595,1240,0,0
378,-216,0,0,0,0,0,0,0,0,0,-1,1602,1240,0,0
385,-216,0,0,0,0,0,0,0,0,0,-1,1609,1240,0,0
392,-216,0,0,0,0,0,0,0,0,0,-1,1616,1240,0,0
399,-216,0,0,0,0,0,0,0,0,0,-1,1623,1240,0,0
406,-216,0,0,0,0,0,0,0,0,0,-1,1630,1240,0,0
413,-216,0,0,0,0,0,0,0,0,0,-1,1637,1240,0,0
420,-216,0,0,0,0,0,0,0,0,0,-1,1644,1240,0,0
427,-216,0,0,0,0,0,0,0,0,0,-1,1651,1240,0,0
434,-216,0,0,0,0,0,0,0,0,0,-1,1658,1240,0,0
441,-216,0,0,0,0,0,0,0,0,0,-1,1665,1240,0,0
448,-216,0,0,0,0,0,0,0,0,0,-1,1672,1240,0,0
455,-216,0,0,0,0,0,0,0,0,0,-1,1679,1240,0,0
462,-216,0,0,0,0,0,0,0,0,0,-1,1686,1240,0,0
469,-216,0,0,0,0,0,0,0,0,0,-1,1693,1240,0,0
476,-216,0,0,0,0,0,0,0,0,0,-1,1700,1240,0,0
483,-216,0,0,0,0,0,0,0,0,0,-1,1707,1240,0,0
490,-216,0,0,0,0,0,0,0,0,0,-1,1714,1240,0,0
497,-216,0,0,0,0,0,0,0,0,0,-1,1721,1240,0,0
504,-216,0,0,0,0,0,0,0,0,0,-1,1728,1240,0,0
511,-216,0,0,0,0,0,0,0,0,0,-1,1735,1240,0,0
518,-216,0,0,0,0,0,0,0,0,0,-1,1742,1240,0,0
525,-216,0,0,0,0,0,0,0,0,0,-1,1749,1240,0,0
532,-216,0,0,0,0,0,0,0,0,0,-1,1756,1240,0,0
539,-216,0,0,0,0,0,0,0,0,0,-1,1763,1240,0,0
546,-216,0,0,0,0,0,0,0,0,0,-1,1770,1240,0,0
553,-216,0,0,0,0,0,0,0,0,0,-1,1777,1240,0,0
560,-216,0,0,0,0,0,0,0,0,0,-1,1784,1240,0,0
567,-216,0,0,0,0,0,0,0,0,0,-1,1791,1240,0,0
574,-216,0,0,0,0,0,0,0,0,0,-1,1798,1240,0,0
581,-216,0,0,0,0,0,0,0,0,0,-1,1805,1240,0,0
588,-216,0,0,0,0,0,0,0,0,0,-1,1812,1240,0,0
595,-216,0,0,0,0,0,0,0,0,0,-1,1819,1240,0,0
602,-216,0,0,0,0,0,0,0,0,0,-1,1826,1240,0,0
609,-216,0,0,0,0,0,0,0,0,0,-1,1833,1240,0,0
616,-216,0,0,0,0,0,0,0,0,0,-1,1840,1240,0,0
623,-216,15.0758,2.54041,-0.00130264,-0.00156296,-0.00515151,0.00372036,-0.00658595,-0.772768,0.00602653,0.0404944,1847,1240,15.0758,-2.54041
630,-216,15.1107,2.35999,-0.00374381,0.00218211,-0.00390435,0.00412049,-0.00568219,-1.10998,0.00568347,0.0361116,1854,1240,15.1107,-2.36004
637,-216,15.0627,2.27917,-0.00492497,0.00521007,-0.00189442,0.0055526,-0.00526749,-1.39192,0.00624771,0.0293785,1861,1240,15.0628,-2.2792
644,-216,15.0496,2.28271,-0.00581014,0.00756963,0.00033504,0.00757801,-0.00581852,1.54578,0.0077567,0.0236042,1868,1240,15.0496,-2.28268
651,-216,15.0447,2.29297,-0.00622961,0.00871828,0.0023591,0.00908175,-0.00659309,1.41792,0.00908781,0.0204334,1875,1240,15.0447,-2.29296
658,-216,15.0717,2.3147,-0.00619813,0.00906989,0.00387981,0.00999923,-0.00712747,1.33569,0.00993433,0.0283112,1882,1240,15.0717,-2.31475
665,-216,14.9424,1.95227,-0.00594201,0.00885588,0.00495787,0.0103634,-0.00744951,1.27562,0.01033,0.0411059,1889,1240,14.9424,-1.95226
672,-216,14.9812,1.92505,-0.00562205,0.00825458,0.00563825,0.0102566,-0.0076241,1.2296,0.0103607,0.0451958,1896,1240,14.9812,-1.92504
679,-216,15.3308,1.7655,-0.00521356,0.00755705,0.00609869,0.0100016,-0.00765809,1.18957,0.0102257,0.0463903,1903,1240,15.3308,-1.7655
686,-216,15.6313,1.72742,0,0,0,0,0,0,0,-1,1910,1240,15.6313,-1.72738
693,-216,13.2653,3.71277,-0.00397329,0.0055081,0.00622561,0.00859252,-0.00705771,1.1108,0.00905013,0.0354556,1917,1240,13.2653,-3.7128
700,-216,13.2734,3.7655,-0.00331108,0.00444772,0.00584936,0.00758721,-0.00645057,1.0782,0.00811357,0.0148315,1924,1240,13.2734,-3.76552
707,-216,13.312,3.63501,-0.00272524,0.00324219,0.00523516,0.00628421,-0.00576726,1.04441,0.00696005,0.0146016,1931,1240,13.312,-3.63504
714,-216,13.3289,3.52612,-0.00209475,0.0021923,0.00438733,0.00493174,-0.00483419,1.01263,0.00563846,0.0131417,1938,1240,13.3288,-3.52607
721,-216,13.3291,3.42639,-0.00160801,0.00152701,0.00312397,0.00345468,-0.00353569,1.01793,0.00403598,0.0121019,1945,1240,13.3291,-3.42642
728,-216,13.3445,3.32007,-0.00160354,0.00143931,0.00191685,0.00236514,-0.00252937,1.12084,0.00282637,0.0105356,1952,1240,13.3445,-3.32003
735,-216,13.355,3.22095,-0.00203616,0.00236699,0.000507339,0.00242469,-0.00209386,1.45755,0.00261111,0.00974066,1959,1240,13.355,-3.2209
742,-216,13.3396,3.15747,-0.00219083,0.00316723,-0.000826793,0.00329191,-0.00231551,-1.42112,0.00325377,0.0104395,1966,1240,13.3396,-3.15741
749,-216,13.3478,3.05969,-0.00281503,0.00509937,-0.00218745,0.00566371,-0.00337938,-1.31831,0.00527626,0.00878235,1973,1240,13.3478,-3.05973
756,-216,13.3177,2.95386,-0.00401523,0.00751387,-0.00360841,0.00855011,-0.00505146,-1.29115,0.00793899,0.00895181,1980,1240,13.3177,-2.95389
763,-216,13.3066,2.84851,-0.00571465,0.0105166,-0.00523018,0.0120559,-0.00725398,-1.28456,0.0112629,0.0144775,1987,1240,13.3066,-2.84845
770,-216,13.4618,2.66309,-0.00788214,0.0143186,-0.00731783,0.0165137,-0.0100772,-1.27937,0.0155015,0.0368314,1994,1240,13.4618,-2.6631
777,-216,13.7158,2.42883,-0.0106129,0.0190676,-0.00996454,0.0221026,-0.013648,-1.27514,0.0208321,0.04546,2001,1240,13.7158,-2.42889
784,-216,13.6432,2.26465,-0.0139291,0.0249646,-0.0133318,0.0290957,-0.0180601,-1.27031,0.0274728,0.0458076,2008,1240,13.6432,-2.26467
791,-216,13.4705,2.10828,0,0,0,0,0,0,0,-1,2015,1240,13.4704,-2.10833
798,-216,0,0,0,0,0,0,0,0,0,-1,2022,1240,0,0
805,-216,0,0,0,0,0,0,0,0,0,-1,2029,1240,0,0
812,-216,0,0,0,0,0,0,0,0,0,-1,2036,1240,0,0
-700,-223,0,0,0,0,0,0,0,0,0,-1,524,1247,0,0
-693,-223,0,0,0,0,0,0,0,0,0,-1,531,1247,0,0
-686,-223,0,0,0,0,0,0,0,0,0,-1,538,1247,0,0
-679,-223,0,0,0,0,0,0,0,0,0,-1,545,1247,0,0
-672,-223,-11.3669,-0.937622,0.126143,0.0597191,-0.00760193,0.127002,0.0588602,-0.112508,0.0733897,0.0440595,552,1247,-11.367,0.937577
-665,-223,-10.1146,-0.498657,0.109949,0.0478942,-0.00897257,0.11122,0.0466229,-0.140752,0.0644919,0.0470491,559,1247,-10.1146,0.498614
-658,-223,-9.36847,-0.0397949,0.0931119,0.0375345,-0.00902992,0.0945423,0.0361041,-0.157093,0.0550893,0.0452807,566,1247,-9.36848,0.0397904
-651,-223,-9.03424,-0.0654297,0.0768891,0.0287239,-0.00837193,0.0783028,0.0273102,-0.167283,0.0458922,0.0458223,573,1247,-9.03423,0.065424
-644,-223,-8.01385,0.741943,0,0,0,0,0,0,0,-1,580,1247,-8.01385,-0.741934
-637,-223,-7.71497,0.724243,0.0486053,0.0154878,-0.00608291,0.0496872,0.0144059,-0.176025,0.0295188,0.0480102,587,1247,-7.71496,-0.724283
-630,-223,-7.29169,0.805664,0.0370813,0.0108335,-0.00486093,0.0379526,0.0099622,-0.17736,0.022721,0.0369249,594,1247,-7.29166,-0.805701
-623,-223,-6.91626,0.852173,0.0275777,0.00690447,-0.00388658,0.0282843,0.00619793,-0.179824,0.0171673,0.0197569,601,1247,-6.91624,-0.852183
-616,-223,-6.94067,1.02869,0.0194253,0.00345633,-0.00326094,0.0200655,0.0028161,-0.193868,0.0125441,0.0142808,608,1247,-6.94068,-1.02867
-609,-223,-6.91919,1.13074,0.0129134,0.00126597,-0.00244428,0.0134055,0.000773819,-0.198692,0.00869058,0.0113469,615,1247,-6.91917,-1.13078
-602,-223,-6.90686,1.23047,0.00796331,-0.000287682,-0.00136084,0.00818196,-0.000506331,-0.159311,0.00563101,0.0143139,622,1247,-6.90685,-1.23052
-595,-223,-6.8927,1.37256,0.00530764,-0.00160784,-0.00104613,0.00546243,-0.00176262,-0.146896,0.00434988,0.019181,629,1247,-6.89273,-1.3726
-588,-223,-6.90515,1.52002,0.00385068,-0.00185704,-0.00139599,0.00417381,-0.00218018,-0.227469,0.00372819,0.0212043,636,1247,-6.90517,-1.51997
-581,-223,-6.92578,1.64575,0.00237251,-0.00200321,-0.00183787,0.00304201,-0.00267271,-0.34934,0.00330169,0.01972,643,1247,-6.92579,-1.64572
-574,-223,-6.90784,1.74438,0.00108561,-0.00176605,-0.00246273,0.00250549,-0.00318592,-0.522994,0.00329376,0.0170352,650,1247,-6.90784,-1.7444
-567,-223,-6.78827,1.92419,-0.000161372,-0.000703639,-0.00296625,0.00254611,-0.00341112,-0.739822,0.00345148,0.0230371,657,1247,-6.78824,-1.92419
-560,-223,-6.61823,2.1825,-0.00145801,0.000330461,-0.00337986,0.00293239,-0.00405993,-0.914723,0.00405448,0.0358741,664,1247,-6.61823,-2.18254
-553,-223,-8.61438,1.45605,0,0,0,0,0,0,0,-1,671,1247,-8.61439,-1.45608
-546,-223,-8.19336,0.975952,0,0,0,0,0,0,0,-1,678,1247,-8.19333,-0.975946
-539,-223,-8.84467,0.547241,0,0,0,0,0,0,0,-1,685,1247,-8.84467,-0.547301
-532,-223,-8.40485,0.0992432,-0.00982421,0.0068555,-0.00412163,0.00781839,-0.0107871,-1.34129,0.0107874,0.0431096,692,1247,-8.40485,-0.0992302
-525,-223,-8.78271,0.445313,-0.0121181,0.0090482,-0.00357601,0.00963604,-0.0127059,-1.40787,0.0129396,0.0450851,699,1247,-8.78269,-0.445319
-518,-223,-8.89948,0.594238,-0.013914,0.0110444,-0.0022493,0.0112455,-0.0141151,-1.48163,0.0146731,0.0415591,706,1247,-8.8995,-0.594199
-511,-223,-8.9552,0.615479,-0.0140743,0.0117696,0.000288913,0.0117728,-0.0140775,1.55962,0.0149445,0.037654,713,1247,-8.9552,-0.615538
-504,-223,-8.96051,0.60791,-0.0106449,0.0107375,0.0049546,0.0118297,-0.0117372,1.35381,0.0136064,0.0410838,720,1247,-8.9605,-0.607855
-497,-223,0,0,0,0,0,0,0,0,0,-1,727,1247,0,0
-490,-223,0,0,0,0,0,0,0,0,0,-1,734,1247,0,0
-483,-223,0,0,0,0,0,0,0,0,0,-1,741,1247,0,0
-476,-223,0,0,0,0,0,0,0,0,0,-1,748,1247,0,0
-469,-223,0,0,0,0,0,0,0,0,0,-1,755,1247,0,0
-462,-223,0,0,0,0,0,0,0,0,0,-1,762,1247,0,0
-455,-223,0,0,0,0,0,0,0,0,0,-1,769,1247,0,0
-448,-223,0,0,0,0,0,0,0,0,0,-1,776,1247,0,0
-441,-223,0,0,0,0,0,0,0,0,0,-1,783,1247,0,0
-434,-223,0,0,0,0,0,0,0,0,0,-1,790,1247,0,0
-427,-223,0,0,0,0,0,0,0,0,0,-1,797,1247,0,0
-420,-223,0,0,0,0,0,0,0,0,0,-1,804,1247,0,0
-413,-223,0,0,0,0,0,0,0,0,0,-1,811,1247,0,0
-406,-223,0,0,0,0,0,0,0,0,0,-1,818,1247,0,0
-399,-223,0,0,0,0,0,0,0,0,0,-1,825,1247,0,0
-392,-223,0,0,0,0,0,0,0,0,0,-1,832,1247,0,0
-385,-223,0,0,0,0,0,0,0,0,0,-1,839,1247,0,0
-378,-223,0,0,0,0,0,0,0,0,0,-1,846,1247,0,0
-371,-223,0,0,0,0,0,0,0,0,0,-1,853,1247,0,0
-364,-223,0,0,0,0,0,0,0,0,0,-1,860,1247,0,0
-357,-223,0,0,0,0,0,0,0,0,0,-1,867,1247,0,0
-350,-223,0,0,0,0,0,0,0,0,0,-1,874,1247,0,0
-343,-223,0,0,0,0,0,0,0,0,0,-1,881,1247,0,0
-336,-223,0,0,0,0,0,0,0,0,0,-1,888,1247,0,0
-329,-223,0,0,0,0,0,0,0,0,0,-1,895,1247,0,0
-322,-223,0,0,0,0,0,0,0,0,0,-1,902,1247,0,0
-315,-223,0,0,0,0,0,0,0,0,0,-1,909,1247,0,0
-308,-223,0,0,0,0,0,0,0,0,0,-1,916,1247,0,0
-301,-223,0,0,0,0,0,0,0,0,0,-1,923,1247,0,0
-294,-223,0,0,0,0,0,0,0,0,0,-1,930,1247,0,0
-287,-223,0,0,0,0,0,0,0,0,0,-1,937,1247,0,0
-280,-223,0,0,0,0,0,0,0,0,0,-1,944,1247,0,0
-273,-223,0,0,0,0,0,0,0,0,0,-1,951,1247,0,0
-266,-223,0,0,0,0,0,0,0,0,0,-1,958,1247,0,0
-259,-223,0,0,0,0,0,0,0,0,0,-1,965,1247,0,0
-252,-223,0,0,0,0,0,0,0,0,0,-1,972,1247,0,0
-245,-223,0,0,0,0,0,0,0,0,0,-1,979,1247,0,0
-238,-223,0,0,0,0,0,0,0,0,0,-1,986,1247,0,0
-231,-223,0,0,0,0,0,0,0,0,0,-1,993,1247,0,0
-224,-223,0,0,0,0,0,0,0,0,0,-1,1000,1247,0,0
-217,-223,0,0,0,0,0,0,0,0,0,-1,1007,1247,0,0
-210,-223,0,0,0,0,0,0,0,0,0,-1,1014,1247,0,0
-203,-223,0,0,0,0,0,0,0,0,0,-1,1021,1247,0,0
-196,-223,0,0,0,0,0,0,0,0,0,-1,1028,1247,0,0
-189,-223,0,0,0,0,0,0,0,0,0,-1,1035,1247,0,0
-182,-223,0,0,0,0,0,0,0,0,0,-1,1042,1247,0,0
-175,-223,0,0,0,0,0,0,0,0,0,-1,1049,1247,0,0
-168,-223,0,0,0,0,0,0,0,0,0,-1,1056,1247,0,0
-161,-223,0,0,0,0,0,0,0,0,0,-1,1063,1247,0,0
-154,-223,0,0,0,0,0,0,0,0,0,-1,1070,1247,0,0
-147,-223,0,0,0,0,0,0,0,0,0,-1,1077,1247,0,0
-140,-223,0,0,0,0,0,0,0,0,0,-1,1084,1247,0,0
-133,-223,0,0,0,0,0,0,0,0,0,-1,1091,1247,0,0
-126,-223,0,0,0,0,0,0,0,0,0,-1,1098,1247,0,0
-119,-223,0,0,0,0,0,0,0,0,0,-1,1105,1247,0,0
-112,-223,0,0,0,0,0,0,0,0,0,-1,1112,1247,0,0
-105,-223,0,0,0,0,0,0,0,0,0,-1,1119,1247,0,0
-98,-223,0,0,0,0,0,0,0,0,0,-1,1126,1247,0,0
-91,-223,0,0,0,0,0,0,0,0,0,-1,1133,1247,0,0
-84,-223,0,0,0,0,0,0,0,0,0,-1,1140,1247,0,0
-77,-223,0,0,0,0,0,0,0,0,0,-1,1147,1247,0,0
-70,-223,0,0,0,0,0,0,0,0,0,-1,1154,1247,0,0
-63,-223,0,0,0,0,0,0,0,0,0,-1,1161,1247,0,0
-56,-223,0,0,0,0,0,0,0,0,0,-1,1168,1247,0,0
-49,-223,0,0,0,0,0,0,0,0,0,-1,1175,1247,0,0
-42,-223,0,0,0,0,0,0,0,0,0,-1,1182,1247,0,0
-35,-223,0,0,0,0,0,0,0,0,0,-1,1189,1247,0,0
-28,-223,0,0,0,0,0,0,0,0,0,-1,1196,1247,0,0
-21,-223,0,0,0,0,0,0,0,0,0,-1,1203,1247,0,0
-14,-223,0,0,0,0,0,0,0,0,0,-1,1210,1247,0,0
-7,-223,0,0,0,0,0,0,0,0,0,-1,1217,1247,0,0
0,-223,0,0,0,0,0,0,0,0,0,-1,1224,1247,0,0
7,-223,0,0,0,0,0,0,0,0,0,-1,1231,1247,0,0
14,-223,0,0,0,0,0,0,0,0,0,-1,1238,1247,0,0
21,-223,0,0,0,0,0,0,0,0,0,-1,1245,1247,0,0
28,-223,0,0,0,0,0,0,0,0,0,-1,1252,1247,0,0
35,-223,0,0,0,0,0,0,0,0,0,-1,1259,1247,0,0
42,-223,0,0,0,0,0,0,0,0,0,-1,1266,1247,0,0
49,-223,0,0,0,0,0,0,0,0,0,-1,1273,1247,0,0
56,-223,0,0,0,0,0,0,0,0,0,-1,1280,1247,0,0
63,-223,0,0,0,0,0,0,0,0,0,-1,1287,1247,0,0
70,-223,0,0,0,0,0,0,0,0,0,-1,1294,1247,0,0
77,-223,0,0,0,0,0,0,0,0,0,-1,1301,1247,0,0
84,-223,0,0,0,0,0,0,0,0,0,-1,1308,1247,0,0
91,-223,0,0,0,0,0,0,0,0,0,-1,1315,1247,0,0
98,-223,0,0,0,0,0,0,0,0,0,-1,1322,1247,0,0
105,-223,0,0,0,0,0,0,0,0,0,-1,1329,1247,0,0
112,-223,0,0,0,0,0,0,0,0,0,-1,1336,1247,0,0
119,-223,0,0,0,0,0,0,0,0,0,-1,1343,1247,0,0
126,-223,0,0,0,0,0,0,0,0,0,-1,1350,1247,0,0
133,-223,0,0,0,0,0,0,0,0,0,-1,1357,1247,0,0
140,-223,0,0,0,0,0,0,0,0,0,-1,1364,1247,0,0
147,-223,0,0,0,0,0,0,0,0,0,-1,1371,1247,0,0
154,-223,0,0,0,0,0,0,0,0,0,-1,1378,1247,0,0
161,-223,0,0,0,0,0,0,0,0,0,-1,1385,1247,0,0
168,-223,0,0,0,0,0,0,0,0,0,-1,1392,1247,0,0
175,-223,0,0,0,0,0,0,0,0,0,-1,1399,1247,0,0
182,-223,0,0,0,0,0,0,0,0,0,-1,1406,1247,0,0
189,-223,0,0,0,0,0,0,0,0,0,-1,1413,1247,0,0
196,-223,0,0,0,0,0,0,0,0,0,-1,1420,1247,0,0
203,-223,0,0,0,0,0,0,0,0,0,-1,1427,1247,0,0
210,-223,0,0,0,0,0,0,0,0,0,-1,1434,1247,0,0
217,-223,0,0,0,0,0,0,0,0,0,-1,1441,1247,0,0
224,-223,0,0,0,0,0,0,0,0,0,-1,1448,1247,0,0
231,-223,0,0,0,0,0,0,0,0,0,-1,1455,1247,0,0
238,-223,0,0,0,0,0,0,0,0,0,-1,1462,1247,0,0
245,-223,0,0,0,0,0,0,0,0,0,-1,1469,1247,0,0
252,-223,0,0,0,0,0,0,0,0,0,-1,1476,1247,0,0
259,-223,0,0,0,0,0,0,0,0,0,-1,1483,1247,0,0
266,-223,0,0,0,0,0,0,0,0,0,-1,1490,1247,0,0
273,-223,0,0,0,0,0,0,0,0,0,-1,1497,1247,0,0
280,-223,0,0,0,0,0,0,0,0,0,-1,1504,1247,0,0
287,-223,0,0,0,0,0,0,0,0,0,-1,1511,1247,0,0
294,-223,0,0,0,0,0,0,0,0,0,-1,1518,1247,0,0
301,-223,0,0,0,0,0,0,0,0,0,-1,1525,1247,0,0
308,-223,0,0,0,0,0,0,0,0,0,-1,1532,1247,0,0
315,-223,0,0,0,0,0,0,0,0,0,-1,1539,1247,0,0
322,-223,0,0,0,0,0,0,0,0,0,-1,1546,1247,0,0
329,-223,0,0,0,0,0,0,0,0,0,-1,1553,1247,0,0
336,-223,0,0,0,0,0,0,0,0,0,-1,1560,1247,0,0
343,-223,0,0,0,0,0,0,0,0,0,-1,1567,1247,0,0
350,-223,0,0,0,0,0,0,0,0,0,-1,1574,1247,0,0
357,-223,0,0,0,0,0,0,0,0,0,-1,1581,1247,0,0
364,-223,0,0,0,0,0,0,0,0,0,-1,1588,1247,0,0
371,-223,0,0,0,0,0,0,0,0,0,-1,1595,1247,0,0
378,-223,0,0,0,0,0,0,0,0,0,-1,1602,1247,0,0
385,-223,0,0,0,0,0,0,0,0,0,-1,1609,1247,0,0
392,-223,0,0,0,0,0,0,0,0,0,-1,1616,1247,0,0
399,-223,0,0,0,0,0,0,0,0,0,-1,1623,1247,0,0
406,-223,0,0,0,0,0,0,0,0,0,-1,1630,1247,0,0
413,-223,0,0,0,0,0,0,0,0,0,-1,1637,1247,0,0
420,-223,0,0,0,0,0,0,0,0,0,-1,1644,1247,0,0
427,-223,0,0,0,0,0,0,0,0,0,-1,1651,1247,0,0
434,-223,0,0,0,0,0,0,0,0,0,-1,1658,1247,0,0
441,-223,0,0,0,0,0,0,0,0,0,-1,1665,1247,0,0
448,-223,0,0,0,0,0,0,0,0,0,-1,1672,1247,0,0
455,-223,0,0,0,0,0,0,0,0,0,-1,1679,1247,0,0
462,-223,0,0,0,0,0,0,0,0,0,-1,1686,1247,0,0
469,-223,0,0,0,0,0,0,0,0,0,-1,1693,1247,0,0
476,-223,0,0,0,0,0,0,0,0,0,-1,1700,1247,0,0
483,-223,0,0,0,0,0,0,0,0,0,-1,1707,1247,0,0
490,-223,0,0,0,0,0,0,0,0,0,-1,1714,1247,0,0
497,-223,0,0,0,0,0,0,0,0,0,-1,1721,1247,0,0
504,-223,0,0,0,0,0,0,0,0,0,-1,1728,1247,0,0
511,-223,0,0,0,0,0,0,0,0,0,-1,1735,1247,0,0
518,-223,0,0,0,0,0,0,0,0,0,-1,1742,1247,0,0
525,-223,0,0,0,0,0,0,0,0,0,-1,1749,1247,0,0
532,-223,0,0,0,0,0,0,0,0,0,-1,1756,1247,0,0
539,-223,0,0,0,0,0,0,0,0,0,-1,1763,1247,0,0
546,-223,0,0,0,0,0,0,0,0,0,-1,1770,1247,0,0
553,-223,0,0,0,0,0,0,0,0,0,-1,1777,1247,0,0
560,-223,0,0,0,0,0,0,0,0,0,-1,1784,1247,0,0
567,-223,0,0,0,0,0,0,0,0,0,-1,1791,1247,0,0
574,-223,0,0,0,0,0,0,0,0,0,-1,1798,1247,0,0
581,-223,0,0,0,0,0,0,0,0,0,-1,1805,1247,0,0
588,-223,0,0,0,0,0,0,0,0,0,-1,1812,1247,0,0
595,-223,0,0,0,0,0,0,0,0,0,-1,1819,1247,0,0
602,-223,0,0,0,0,0,0,0,0,0,-1,1826,1247,0,0
609,-223,0,0,0,0,0,0,0,0,0,-1,1833,1247,0,0
616,-223,0,0,0,0,0,0,0,0,0,-1,1840,1247,0,0
623,-223,15.0463,2.57092,-0.00184512,0.00154685,-0.00560823,0.00570993,-0.00600819,-0.932231,0.00676619,0.0404772,1847,1247,15.0463,-2.57092
630,-223,15.0782,2.3844,-0.00464855,0.00529687,-0.00406925,0.00674963,-0.0061013,-1.22789,0.00742264,0.0360051,1854,1247,15.0783,-2.38443
637,-223,15.0499,2.30249,-0.00620446,0.00801496,-0.00171881,0.00821977,-0.00640927,-1.45219,0.00846761,0.0273242,1861,1247,15.0499,-2.30253
644,-223,15.0433,2.28931,-0.00719403,0.00956241,0.000689795,0.00959076,-0.00722237,1.52972,0.00973912,0.0209338,1868,1247,15.0433,-2.2893
651,-223,15.0496,2.25671,-0.00747949,0.0100233,0.00271436,0.0104346,-0.00789077,1.42042,0.0106141,0.0249519,1875,1247,15.0495,-2.25669
658,-223,14.9725,2.08374,-0.00728436,0.00982102,0.00418372,0.0107895,-0.0082528,1.34332,0.0110265,0.0436662,1882,1247,14.9726,-2.08373
665,-223,14.642,1.71973,-0.00683897,0.00920005,0.00518932,0.0107326,-0.0083715,1.28363,0.0110578,0.0427542,1889,1247,14.642,-1.71971
672,-223,14.6587,1.59595,-0.00631573,0.0083395,0.00576918,0.0103381,-0.00831428,1.23732,0.01079,0.0427157,1896,1247,14.6586,-1.59598
679,-223,14.5186,1.64124,-0.00569193,0.00755364,0.0062058,0.0100068,-0.00814511,1.19434,0.0104984,0.0457117,1903,1247,14.5185,-1.64123
686,-223,14.381,1.55652,0,0,0,0,0,0,0,-1,1910,1247,14.3809,-1.55648
693,-223,13.1537,3.8302,-0.00402002,0.00511756,0.00623332,0.00827717,-0.00717963,1.10165,0.00893148,0.0228214,1917,1247,13.1537,-3.83017
700,-223,13.2078,3.75305,-0.00313834,0.00401422,0.00572873,0.00719132,-0.00631543,1.06444,0.00780359,0.0105029,1924,1247,13.2077,-3.75301
707,-223,13.2261,3.64819,-0.00238046,0.00279309,0.00498895,0.00582602,-0.00541339,1.02457,0.00649053,0.0124187,1931,1247,13.2261,-3.64814
714,-223,13.2361,3.52856,-0.00175332,0.00187491,0.00405304,0.0045013,-0.00437971,0.995824,0.00512762,0.0108659,1938,1247,13.2361,-3.52857
721,-223,13.2301,3.41956,-0.00151013,0.00139685,0.00269185,0.00300256,-0.00311584,1.03295,0.00353266,0.0129634,1945,1247,13.2301,-3.41959
728,-223,13.2109,3.32227,-0.00201996,0.00151074,0.00149989,0.00206188,-0.0025711,1.21866,0.00268023,0.0142661,1952,1247,13.2109,-3.32227
735,-223,13.2062,3.21631,-0.00325062,0.00273161,0.000192121,0.00273777,-0.00325678,1.53873,0.00346528,0.012635,1959,1247,13.2062,-3.21637
742,-223,13.2051,3.12842,-0.00440269,0.00388622,-0.00100598,0.00400657,-0.00452304,-1.45173,0.00492758,0.0110391,1966,1247,13.2051,-3.12839
749,-223,13.2213,3.02563,-0.00636121,0.00605165,-0.00219144,0.00642718,-0.00673674,-1.40108,0.00760089,0.0102453,1973,1247,13.2214,-3.02565
756,-223,13.214,2.92651,-0.00924324,0.00873394,-0.00340613,0.00935766,-0.00986696,-1.38969,0.0111006,0.0106231,1980,1247,13.214,-2.92652
763,-223,13.2091,2.83594,-0.0130057,0.0121553,-0.00484398,0.0130556,-0.0139061,-1.38703,0.0155689,0.014242,1987,1247,13.2092,-2.83596
770,-223,13.3875,2.53894,-0.0177836,0.0164693,-0.00660872,0.0177001,-0.0190144,-1.38666,0.0212017,0.0363151,1994,1247,13.3875,-2.53899
777,-223,13.5773,2.24304,0,0,0,0,0,0,0,-1,2001,1247,13.5773,-2.24309
784,-223,13.8165,1.67017,-0.0309375,0.0282912,-0.0110915,0.0303001,-0.0329464,-1.39162,0.0365261,0.046716,2008,1247,13.8165,-1.67019
791,-223,13.6057,1.60876,0,0,0,0,0,0,0,-1,2015,1247,13.6058,-1.60875
798,-223,0,0,0,0,0,0,0,0,0,-1,2022,1247,0,0
805,-223,0,0,0,0,0,0,0,0,0,-1,2029,1247,0,0
812,-223,0,0,0,0,0,0,0,0,0,-1,2036,1247,0,0
-700,-230,0,0,0,0,0,0,0,0,0,-1,524,1254,0,0
-693,-230,0,0,0,0,0,0,0,0,0,-1,531,1254,0,0
-686,-230,0,0,0,0,0,0,0,0,0,-1,538,1254,0,0
-679,-230,0,0,0,0,0,0,0,0,0,-1,545,1254,0,0
-672,-230,-11.1625,-1.78906,0,0,0,0,0,0,0,-1,552,1254,-11.1625,1.78907
-665,-230,-9.76819,-0.808472,0,0,0,0,0,0,0,-1,559,1254,-9.76821,0.808436
-658,-230,-9.22949,-0.529785,0.0922377,0.0243247,-0.0121611,0.0943497,0.0222127,-0.171953,0.0569581,0.047247,566,1254,-9.22948,0.529823
-651,-230,-9.34558,-0.763428,0.0758804,0.0181909,-0.0109629,0.0778934,0.0161778,-0.181602,0.0474644,0.0460238,573,1254,-9.34556,0.763404
-644,-230,-7.25464,0.28833,0.0609426,0.013262,-0.00940821,0.0627319,0.0114727,-0.187936,0.03857,0.0497547,580,1254,-7.25464,-0.288329
-637,-230,-7.82007,0.735352,0,0,0,0,0,0,0,-1,587,1254,-7.82004,-0.735412
-630,-230,-7.22156,0.949463,0.0364277,0.006487,-0.00612154,0.0376309,0.00528377,-0.194082,0.0235246,0.0410914,594,1254,-7.22156,-0.94943
-623,-230,-6.78662,0.937866,0.0271616,0.00394274,-0.00478414,0.0281087,0.00299562,-0.195443,0.0178247,0.0249985,601,1254,-6.7866,-0.937912
-616,-230,-6.79572,1.0022,0.0192092,0.00166022,-0.00379088,0.0199931,0.000876343,-0.203906,0.0130464,0.0145944,608,1254,-6.79571,-1.00218
-609,-230,-6.76868,1.11658,0.0128659,0.000500183,-0.00268909,0.0134254,-5.9281e-05,-0.205124,0.00897009,0.0113118,615,1254,-6.76868,-1.11662
-602,-230,-6.76758,1.23938,0.00802365,-0.000324657,-0.00134813,0.00823596,-0.000536961,-0.156197,0.00567809,0.0118136,622,1254,-6.76755,-1.23941
-595,-230,-6.76727,1.3877,0.00565559,-0.00137089,-0.000774537,0.00573995,-0.00145525,-0.108496,0.00439282,0.0189287,629,1254,-6.76725,-1.3877
-588,-230,-6.76489,1.51843,0.00428502,-0.00145506,-0.000915614,0.00442753,-0.00159758,-0.154409,0.00360423,0.0249624,636,1254,-6.76489,-1.51844
-581,-230,-6.81323,1.65955,0.00266547,-0.00169014,-0.00128479,0.0030162,-0.00204088,-0.266497,0.00293775,0.0224699,643,1254,-6.81325,-1.6595
-574,-230,-6.78986,1.75562,0.00127191,-0.00157104,-0.00208679,0.00237537,-0.0026745,-0.486407,0.00291724,0.0164496,650,1254,-6.78983,-1.75565
-567,-230,-6.6897,1.91296,-0.000201557,-0.000433285,-0.00280049,0.00248547,-0.00312031,-0.764724,0.00324341,0.018606,657,1254,-6.68971,-1.91299
-560,-230,-6.57513,2.14282,-0.0018779,0.000801582,-0.0032331,0.00296153,-0.00403785,-0.98182,0.00405699,0.0321857,664,1254,-6.57511,-2.14283
-553,-230,-6.33588,2.33679,0,0,0,0,0,0,0,-1,671,1254,-6.33586,-2.33679
-546,-230,-7.58514,0.644775,0,0,0,0,0,0,0,-1,678,1254,-7.58517,-0.644797
-539,-230,-7.53113,-0.515869,-0.00908181,0.00574936,-0.00421317,0.00686265,-0.0101951,-1.31246,0.00991074,0.0451708,685,1254,-7.53111,0.515883
-532,-230,-8.25983,-0.117065,-0.0120837,0.00804881,-0.00427604,0.00891937,-0.0129543,-1.36995,0.0127002,0.0419673,692,1254,-8.25985,0.117044
-525,-230,-8.48523,0.140259,-0.01512,0.0105548,-0.00381214,0.0111089,-0.015674,-1.42647,0.0155378,0.0448402,699,1254,-8.48525,-0.140231
-518,-230,-8.71912,0.357178,-0.0179068,0.012998,-0.00254852,0.0132067,-0.0181156,-1.48907,0.0181578,0.0429856,706,1254,-8.7191,-0.357138
-511,-230,-8.88318,0.52002,-0.0195779,0.014602,-6.39117e-05,0.0146022,-0.019578,-1.56893,0.0198035,0.0373212,713,1254,-8.88315,-0.520013
-504,-230,-9.0108,0.692749,-0.0184463,0.0146202,0.00442315,0.0152016,-0.0190277,1.44009,0.0198034,0.0374889,720,1254,-9.01079,-0.6927
-497,-230,0,0,0,0,0,0,0,0,0,-1,727,1254,0,0
-490,-230,0,0,0,0,0,0,0,0,0,-1,734,1254,0,0
-483,-230,0,0,0,0,0,0,0,0,0,-1,741,1254,0,0
-476,-230,0,0,0,0,0,0,0,0,0,-1,748,1254,0,0
-469,-230,0,0,0,0,0,0,0,0,0,-1,755,1254,0,0
-462,-230,0,0,0,0,0,0,0,0,0,-1,762,1254,0,0
-455,-230,0,0,0,0,0,0,0,0,0,-1,769,1254,0,0
-448,-230,0,0,0,0,0,0,0,0,0,-1,776,1254,0,0
-441,-230,0,0,0,0,0,0,0,0,0,-1,783,1254,0,0
-434,-230,0,0,0,0,0,0,0,0,0,-1,790,1254,0,0
-427,-230,0,0,0,0,0,0,0,0,0,-1,797,1254,0,0
-420,-230,0,0,0,0,0,0,0,0,0,-1,804,1254,0,0
-413,-230,0,0,0,0,0,0,0,0,0,-1,811,1254,0,0
-406,-230,0,0,0,0,0,0,0,0,0,-1,818,1254,0,0
-399,-230,0,0,0,0,0,0,0,0,0,-1,825,1254,0,0
-392,-230,0,0,0,0,0,0,0,0,0,-1,832,1254,0,0
-385,-230,0,0,0,0,0,0,0,0,0,-1,839,1254,0,0
-378,-230,0,0,0,0,0,0,0,0,0,-1,846,1254,0,0
-371,-230,0,0,0,0,0,0,0,0,0,-1,853,1254,0,0
-364,-230,0,0,0,0,0,0,0,0,0,-1,860,1254,0,0
-357,-230,0,0,0,0,0,0,0,0,0,-1,867,1254,0,0
-350,-230,0,0,0,0,0,0,0,0,0,-1,874,1254,0,0
-343,-230,0,0,0,0,0,0,0,0,0,-1,881,1254,0,0
-336,-230,0,0,0,0,0,0,0,0,0,-1,888,1254,0,0
-329,-230,0,0,0,0,0,0,0,0,0,-1,895,1254,0,0
-322,-230,0,0,0,0,0,0,0,0,0,-1,902,1254,0,0
-315,-230,0,0,0,0,0,0,0,0,0,-1,909,1254,0,0
-308,-230,0,0,0,0,0,0,0,0,0,-1,916,1254,0,0
-301,-230,0,0,0,0,0,0,0,0,0,-1,923,1254,0,0
-294,-230,0,0,0,0,0,0,0,0,0,-1,930,1254,0,0
-287,-230,0,0,0,0,0,0,0,0,0,-1,937,1254,0,0
-280,-230,0,0,0,0,0,0,0,0,0,-1,944,1254,0,0
-273,-230,0,0,0,0,0,0,0,0,0,-1,951,1254,0,0
-266,-230,0,0,0,0,0,0,0,0,0,-1,958,1254,0,0
-259,-230,0,0,0,0,0,0,0,0,0,-1,965,1254,0,0
-252,-230,0,0,0,0,0,0,0,0,0,-1,972,1254,0,0
-245,-230,0,0,0,0,0,0,0,0,0,-1,979,1254,0,0
-238,-230,0,0,0,0,0,0,0,0,0,-1,986,1254,0,0
-231,-230,0,0,0,0,0,0,0,0,0,-1,993,1254,0,0
-224,-230,0,0,0,0,0,0,0,0,0,-1,1000,1254,0,0
-217,-230,0,0,0,0,0,0,0,0,0,-1,1007,1254,0,0
-210,-230,0,0,0,0,0,0,0,0,0,-1,1014,1254,0,0
-203,-230,0,0,0,0,0,0,0,0,0,-1,1021,1254,0,0
-196,-230,0,0,0,0,0,0,0,0,0,-1,1028,1254,0,0
-189,-230,0,0,0,0,0,0,0,0,0,-1,1035,1254,0,0
-182,-230,0,0,0,0,0,0,0,0,0,-1,1042,1254,0,0
-175,-230,0,0,0,0,0,0,0,0,0,-1,1049,1254,0,0
-168,-230,0,0,0,0,0,0,0,0,0,-1,1056,1254,0,0
-161,-230,0,0,0,0,0,0,0,0,0,-1,1063,1254,0,0
-154,-230,0,0,0,0,0,0,0,0,0,-1,1070,1254,0,0
-147,-230,0,0,0,0,0,0,0,0,0,-1,1077,1254,0,0
-140,-230,0,0,0,0,0,0,0,0,0,-1,1084,1254,0,0
-133,-230,0,0,0,0,0,0,0,0,0,-1,1091,1254,0,0
-126,-230,0,0,0,0,0,0,0,0,0,-1,1098,1254,0,0
-119,-230,0,0,0,0,0,0,0,0,0,-1,1105,1254,0,0
-112,-230,0,0,0,0,0,0,0,0,0,-1,1112,1254,0,0
-105,-230,0,0,0,0,0,0,0,0,0,-1,1119,1254,0,0
-98,-230,0,0,0,0,0,0,0,0,0,-1,1126,1254,0,0
-91,-230,0,0,0,0,0,0,0,0,0,-1,1133,1254,0,0
-84,-230,0,0,0,0,0,0,0,0,0,-1,1140,1254,0,0
-77,-230,0,0,0,0,0,0,0,0,0,-1,1147,1254,0,0
-70,-230,0,0,0,0,0,0,0,0,0,-1,1154,1254,0,0
-63,-230,0,0,0,0,0,0,0,0,0,-1,1161,1254,0,0
-56,-230,0,0,0,0,0,0,0,0,0,-1,1168,1254,0,0
-49,-230,0,0,0,0,0,0,0,0,0,-1,1175,1254,0,0
-42,-230,0,0,0,0,0,0,0,0,0,-1,1182,1254,0,0
-35,-230,0,0,0,0,0,0,0,0,0,-1,1189,1254,0,0
-28,-230,0,0,0,0,0,0,0,0,0,-1,1196,1254,0,0
-21,-230,0,0,0,0,0,0,0,0,0,-1,1203,1254,0,0
-14,-230,0,0,0,0,0,0,0,0,0,-1,1210,1254,0,0
-7,-230,0,0,0,0,0,0,0,0,0,-1,1217,1254,0,0
0,-230,0,0,0,0,0,0,0,0,0,-1,1224,1254,0,0
7,-230,0,0,0,0,0,0,0,0,0,-1,1231,1254,0,0
14,-230,0,0,0,0,0,0,0,0,0,-1,1238,1254,0,0
21,-230,0,0,0,0,0,0,0,0,0,-1,1245,1254,0,0
28,-230,0,0,0,0,0,0,0,0,0,-1,1252,1254,0,0
35,-230,0,0,0,0,0,0,0,0,0,-1,1259,1254,0,0
42,-230,0,0,0,0,0,0,0,0,0,-1,1266,1254,0,0
49,-230,0,0,0,0,0,0,0,0,0,-1,1273,1254,0,0
56,-230,0,0,0,0,0,0,0,0,0,-1,1280,1254,0,0
63,-230,0,0,0,0,0,0,0,0,0,-1,1287,1254,0,0
70,-230,0,0,0,0,0,0,0,0,0,-1,1294,1254,0,0
77,-230,0,0,0,0,0,0,0,0,0,-1,1301,1254,0,0
84,-230,0,0,0,0,0,0,0,0,0,-1,1308,1254,0,0
91,-230,0,0,0,0,0,0,0,0,0,-1,1315,1254,0,0
98,-230,0,0,0,0,0,0,0,0,0,-1,1322,1254,0,0
105,-230,0,0,0,0,0,0,0,0,0,-1,1329,1254,0,0
112,-230,0,0,0,0,0,0,0,0,0,-1,1336,1254,0,0
119,-230,0,0,0,0,0,0,0,0,0,-1,1343,1254,0,0
126,-230,0,0,0,0,0,0,0,0,0,-1,1350,1254,0,0
133,-230,0,0,0,0,0,0,0,0,0,-1,1357,1254,0,0
140,-230,0,0,0,0,0,0,0,0,0,-1,1364,1254,0,0
147,-230,0,0,0,0,0,0,0,0,0,-1,1371,1254,0,0
154,-230,0,0,0,0,0,0,0,0,0,-1,1378,1254,0,0
161,-230,0,0,0,0,0,0,0,0,0,-1,1385,1254,0,0
168,-230,0,0,0,0,0,0,0,0,0,-1,1392,1254,0,0
175,-230,0,0,0,0,0,0,0,0,0,-1,1399,1254,0,0
182,-230,0,0,0,0,0,0,0,0,0,-1,1406,1254,0,0
189,-230,0,0,0,0,0,0,0,0,0,-1,1413,1254,0,0
196,-230,0,0,0,0,0,0,0,0,0,-1,1420,1254,0,0
203,-230,0,0,0,0,0,0,0,0,0,-1,1427,1254,0,0
210,-230,0,0,0,0,0,0,0,0,0,-1,1434,1254,0,0
217,-230,0,0,0,0,0,0,0,0,0,-1,1441,1254,0,0
224,-230,0,0,0,0,0,0,0,0,0,-1,1448,1254,0,0
231,-230,0,0,0,0,0,0,0,0,0,-1,1455,1254,0,0
238,-230,0,0,0,0,0,0,0,0,0,-1,1462,1254,0,0
245,-230,0,0,0,0,0,0,0,0,0,-1,1469,1254,0,0
252,-230,0,0,0,0,0,0,0,0,0,-1,1476,1254,0,0
259,-230,0,0,0,0,0,0,0,0,0,-1,1483,1254,0,0
266,-230,0,0,0,0,0,0,0,0,0,-1,1490,1254,0,0
273,-230,0,0,0,0,0,0,0,0,0,-1,1497,1254,0,0
280,-230,0,0,0,0,0,0,0,0,0,-1,1504,1254,0,0
287,-230,0,0,0,0,0,0,0,0,0,-1,1511,1254,0,0
294,-230,0,0,0,0,0,0,0,0,0,-1,1518,1254,0,0
301,-230,0,0,0,0,0,0,0,0,0,-1,1525,1254,0,0
308,-230,0,0,0,0,0,0,0,0,0,-1,1532,1254,0,0
315,-230,0,0,0,0,0,0,0,0,0,-1,1539,1254,0,0
322,-230,0,0,0,0,0,0,0,0,0,-1,1546,1254,0,0
329,-230,0,0,0,0,0,0,0,0,0,-1,1553,1254,0,0
336,-230,0,0,0,0,0,0,0,0,0,-1,1560,1254,0,0
343,-230,0,0,0,0,0,0,0,0,0,-1,1567,1254,0,0
350,-230,0,0,0,0,0,0,0,0,0,-1,1574,1254,0,0
357,-230,0,0,0,0,0,0,0,0,0,-1,1581,1254,0,0
364,-230,0,0,0,0,0,0,0,0,0,-1,1588,1254,0,0
371,-230,0,0,0,0,0,0,0,0,0,-1,1595,1254,0,0
378,-230,0,0,0,0,0,0,0,0,0,-1,1602,1254,0,0
385,-230,0,0,0,0,0,0,0,0,0,-1,1609,1254,0,0
392,-230,0,0,0,0,0,0,0,0,0,-1,1616,1254,0,0
399,-230,0,0,0,0,0,0,0,0,0,-1,1623,1254,0,0
406,-230,0,0,0,0,0,0,0,0,0,-1,1630,1254,0,0
413,-230,0,0,0,0,0,0,0,0,0,-1,1637,1254,0,0
420,-230,0,0,0,0,0,0,0,0,0,-1,1644,1254,0,0
427,-230,0,0,0,0,0,0,0,0,0,-1,1651,1254,0,0
434,-230,0,0,0,0,0,0,0,0,0,-1,1658,1254,0,0
441,-230,0,0,0,0,0,0,0,0,0,-1,1665,1254,0,0
448,-230,0,0,0,0,0,0,0,0,0,-1,1672,1254,0,0
455,-230,0,0,0,0,0,0,0,0,0,-1,1679,1254,0,0
462,-230,0,0,0,0,0,0,0,0,0,-1,1686,1254,0,0
469,-230,0,0,0,0,0,0,0,0,0,-1,1693,1254,0,0
476,-230,0,0,0,0,0,0,0,0,0,-1,1700,1254,0,0
483,-230,0,0,0,0,0,0,0,0,0,-1,1707,1254,0,0
490,-230,0,0,0,0,0,0,0,0,0,-1,1714,1254,0,0
497,-230,0,0,0,0,0,0,0,0,0,-1,1721,1254,0,0
504,-230,0,0,0,0,0,0,0,0,0,-1,1728,1254,0,0
511,-230,0,0,0,0,0,0,0,0,0,-1,1735,1254,0,0
518,-230,0,0,0,0,0,0,0,0,0,-1,1742,1254,0,0
525,-230,0,0,0,0,0,0,0,0,0,-1,1749,1254,0,0
532,-230,0,0,0,0,0,0,0,0,0,-1,1756,1254,0,0
539,-230,0,0,0,0,0,0,0,0,0,-1,1763,1254,0,0
546,-230,0,0,0,0,0,0,0,0,0,-1,1770,1254,0,0
553,-230,0,0,0,0,0,0,0,0,0,-1,1777,1254,0,0
560,-230,0,0,0,0,0,0,0,0,0,-1,1784,1254,0,0
567,-230,0,0,0,0,0,0,0,0,0,-1,1791,1254,0,0
574,-230,0,0,0,0,0,0,0,0,0,-1,1798,1254,0,0
581,-230,0,0,0,0,0,0,0,0,0,-1,1805,1254,0,0
588,-230,0,0,0,0,0,0,0,0,0,-1,1812,1254,0,0
595,-230,0,0,0,0,0,0,0,0,0,-1,1819,1254,0,0
602,-230,0,0,0,0,0,0,0,0,0,-1,1826,1254,0,0
609,-230,0,0,0,0,0,0,0,0,0,-1,1833,1254,0,0
616,-230,15.1346,2.45959,0.00119596,0.00170335,-0.00769759,0.00915143,-0.00625211,-0.801871,0.0089456,0.0364396,1840,1254,15.1347,-2.45958
623,-230,15.2072,2.46729,-0.00227272,0.00517807,-0.00562539,0.0081998,-0.00529444,-1.07787,0.00785086,0.0378097,1847,1254,15.2071,-2.46723
630,-230,15.1111,2.39136,-0.00520367,0.00813429,-0.00322103,0.00887141,-0.00594079,-1.34582,0.00860744,0.0334435,1854,1254,15.1111,-2.39136
637,-230,15.088,2.31189,-0.00704433,0.00997736,-0.00040529,0.00998701,-0.00705397,-1.547,0.00988707,0.0269236,1861,1254,15.088,-2.31188
644,-230,15.035,2.25146,-0.00814802,0.0105649,0.0021299,0.0108042,-0.00838738,1.45888,0.0111095,0.0208582,1868,1254,15.035,-2.25149
651,-230,15.0282,2.19373,-0.00844436,0.0103373,0.00407056,0.0111816,-0.00928862,1.36629,0.0118353,0.0384509,1875,1254,15.0282,-2.19376
658,-230,14.5962,1.72681,-0.0082342,0.00967226,0.00539968,0.0111745,-0.00973644,1.29945,0.0120825,0.0441707,1882,1254,14.5962,-1.72676
665,-230,14.5033,1.28931,-0.00773496,0.00875427,0.006223,0.0108392,-0.00981989,1.24751,0.0119324,0.0451462,1889,1254,14.5032,-1.2893
672,-230,14.4684,1.44678,0,0,0,0,0,0,0,-1,1896,1254,14.4684,-1.44672
679,-230,13.9033,1.66504,0,0,0,0,0,0,0,-1,1903,1254,13.9034,-1.66503
686,-230,13.3225,3.94458,-0.00548828,0.00535355,0.00700669,0.00879153,-0.00892626,1.11464,0.0102295,0.0404072,1910,1254,13.3225,-3.94458
693,-230,13.0701,3.84448,-0.00444672,0.00430548,0.00664344,0.0078846,-0.00802585,1.07664,0.00918602,0.0169909,1917,1254,13.07,-3.8445
700,-230,13.1238,3.75928,-0.0033219,0.00325707,0.00589545,0.00671866,-0.00678349,1.03987,0.0077955,0.0103396,1924,1254,13.1237,-3.75933
707,-230,13.13,3.65674,-0.00229467,0.00213571,0.00496019,0.00535288,-0.00551185,0.995407,0.00627298,0.00939997,1931,1254,13.13,-3.6567
714,-230,13.1158,3.52515,-0.00170066,0.00144248,0.00390619,0.00408139,-0.00433957,0.976655,0.00486261,0.0121351,1938,1254,13.1159,-3.52515
721,-230,13.1227,3.41077,-0.00176813,0.00122097,0.00243384,0.00258251,-0.00312967,1.06075,0.00330297,0.0124434,1945,1254,13.1227,-3.4108
728,-230,13.1168,3.32434,-0.00283863,0.00156709,0.00122629,0.00188542,-0.00315696,1.31682,0.00294191,0.0136259,1952,1254,13.1168,-3.32434
735,-230,13.1023,3.21704,-0.00487861,0.00299495,-4.54331e-05,0.00299522,-0.00487887,-1.56503,0.00458926,0.0136295,1959,1254,13.1023,-3.21709
742,-230,13.0928,3.11902,-0.0071081,0.00442509,-0.00117227,0.00454303,-0.00722605,-1.47052,0.00685349,0.010629,1966,1254,13.0927,-3.11903
749,-230,13.1012,2.99048,-0.0104248,0.00677981,-0.00232903,0.00708952,-0.0107345,-1.43859,0.0103622,0.0104371,1973,1254,13.1012,-2.99048
756,-230,13.1068,2.8927,-0.0149794,0.00971786,-0.00358359,0.0102273,-0.0154889,-1.42957,0.0149505,0.0123912,1980,1254,13.1068,-2.89269
763,-230,13.1356,2.78625,-0.0208268,0.0134913,-0.00511544,0.0142376,-0.0215731,-1.42593,0.0208194,0.0249947,1987,1254,13.1356,-2.7862
770,-230,13.1945,2.67126,-0.0281348,0.0182668,-0.00701122,0.019303,-0.029171,-1.42406,0.0281791,0.0414154,1994,1254,13.1945,-2.67131
777,-230,13.3801,2.5636,-0.0370715,0.0242193,-0.00927086,0.0255909,-0.0384432,-1.42391,0.0372175,0.0493632,2001,1254,13.3801,-2.56359
784,-230,13.3475,2.61804,0,0,0,0,0,0,0,-1,2008,1254,13.3475,-2.61806
791,-230,13.9675,1.15991,0,0,0,0,0,0,0,-1,2015,1254,13.9675,-1.15997
798,-230,0,0,0,0,0,0,0,0,0,-1,2022,1254,0,0
805,-230,0,0,0,0,0,0,0,0,0,-1,2029,1254,0,0
812,-230,0,0,0,0,0,0,0,0,0,-1,2036,1254,0,0
-700,-237,0,0,0,0,0,0,0,0,0,-1,524,1261,0,0
-693,-237,0,0,0,0,0,0,0,0,0,-1,531,1261,0,0
-686,-237,0,0,0,0,0,0,0,0,0,-1,538,1261,0,0
-679,-237,0,0,0,0,0,0,0,0,0,-1,545,1261,0,0
-672,-237,-11.0616,-2.80334,0,0,0,0,0,0,0,-1,552,1261,-11.0616,2.80338
-665,-237,-6.32483,-0.899536,0,0,0,0,0,0,0,-1,559,1261,-6.32484,0.899558
-658,-237,-9.11298,-1.17737,0.0893502,0.00947831,-0.016138,0.0924876,0.0063409,-0.192016,0.0596572,0.0480854,566,1261,-9.113,1.17741
-651,-237,-6.14026,-0.143799,0.0731046,0.00645383,-0.0144294,0.0760944,0.0034641,-0.204307,0.0496152,0.0427788,573,1261,-6.14026,0.143851
-644,-237,-6.50714,0.072876,0.0585318,0.00429687,-0.0123278,0.0612025,0.00162622,-0.21334,0.0402705,0.0448592,580,1261,-6.50714,-0.0728256
-637,-237,-6.992,0.519409,0.0458574,0.00282957,-0.0101115,0.0481151,0.000571851,-0.219679,0.0318879,0.0462457,587,1261,-6.99199,-0.519435
-630,-237,-6.84338,0.777222,0.0350947,0.00188245,-0.00798541,0.0369149,6.22291e-05,-0.224114,0.0245892,0.0428244,594,1261,-6.84335,-0.777267
-623,-237,-6.62585,0.9375,0.026304,0.000911032,-0.00618113,0.0277286,-0.000513642,-0.226532,0.0186593,0.028056,601,1261,-6.62583,-0.937511
-616,-237,-6.63367,0.987305,0.0188334,-7.27074e-05,-0.00477355,0.0199703,-0.0012096,-0.23381,0.0137345,0.0133853,608,1261,-6.63368,-0.987313
-609,-237,-6.63098,1.10669,0.0127877,-0.000181252,-0.00334048,0.0135976,-0.000991106,-0.237847,0.00941282,0.0153687,615,1261,-6.63096,-1.10664
-602,-237,-6.64398,1.23938,0.00814713,-0.000172447,-0.00174763,0.00849934,-0.00052465,-0.198867,0.00584896,0.012366,622,1261,-6.64399,-1.23942
-595,-237,-6.66974,1.35889,0.00606438,-0.000878783,-0.000915708,0.00618312,-0.000997522,-0.128949,0.00449166,0.0154776,629,1261,-6.66972,-1.35892
-588,-237,-6.64795,1.49304,0.00477316,-0.000826062,-0.000833677,0.00489466,-0.000947554,-0.144711,0.00362053,0.0256881,636,1261,-6.64794,-1.49309
-581,-237,-6.66583,1.6377,0.00305371,-0.0011801,-0.00109794,0.0033215,-0.00144789,-0.239228,0.00282354,0.0243801,643,1261,-6.66584,-1.6377
-574,-237,-6.65344,1.76257,0.00156607,-0.00123393,-0.00212202,0.0027083,-0.00237616,-0.493799,0.0029376,0.0152398,650,1261,-6.65342,-1.76255
-567,-237,-6.61969,1.91187,-0.000148524,-6.86707e-05,-0.00310239,0.00299405,-0.00321125,-0.791833,0.00358336,0.0135734,657,1261,-6.61969,-1.9119
-560,-237,-6.49542,2.08887,-0.00216812,0.00135143,-0.00361313,0.00361055,-0.00442725,-1.01202,0.0046486,0.0229778,664,1261,-6.49541,-2.08884
-553,-237,-6.37964,2.20361,-0.00447497,0.00289018,-0.00412569,0.00473777,-0.00632255,-1.14975,0.00640749,0.0470688,671,1261,-6.37965,-2.20364
-546,-237,-6.26752,2.33643,0,0,0,0,0,0,0,-1,678,1261,-6.26753,-2.33642
-539,-237,-7.25519,-0.709229,-0.0103068,0.0068387,-0.00493701,0.00815868,-0.0116268,-1.30954,0.0114815,0.0468101,685,1261,-7.25518,0.709236
-532,-237,-8.00311,-0.346558,-0.0137214,0.0093944,-0.00515075,0.0104902,-0.0148172,-1.36118,0.0146822,0.0418373,692,1261,-8.00309,0.346549
-525,-237,-8.2439,-0.0727539,-0.0172527,0.0122085,-0.00483814,0.0129827,-0.0180268,-1.41213,0.0179821,0.0443661,699,1261,-8.24393,0.072699
-518,-237,-8.53888,0.247437,-0.0207184,0.0150822,-0.00377152,0.0154752,-0.0211114,-1.46697,0.0212067,0.0443157,706,1261,-8.53887,-0.247408
-511,-237,-8.84283,0.539185,-0.0234899,0.0174778,-0.00158961,0.0175393,-0.0235514,-1.53207,0.0238083,0.0382535,713,1261,-8.84286,-0.539168
-504,-237,-8.90179,0.60437,-0.0242378,0.0185873,0.00237786,0.018719,-0.0243694,1.5155,0.0249483,0.0381405,720,1261,-8.90179,-0.604386
-497,-237,-8.94073,0.750244,-0.0210944,0.0172902,0.00801806,0.0188978,-0.0227019,1.37293,0.0240511,0.0454708,727,1261,-8.94075,-0.750193
-490,-237,0,0,0,0,0,0,0,0,0,-1,734,1261,0,0
-483,-237,0,0,0,0,0,0,0,0,0,-1,741,1261,0,0
-476,-237,0,0,0,0,0,0,0,0,0,-1,748,1261,0,0
-469,-237,0,0,0,0,0,0,0,0,0,-1,755,1261,0,0
-462,-237,0,0,0,0,0,0,0,0,0,-1,762,1261,0,0
-455,-237,0,0,0,0,0,0,0,0,0,-1,769,1261,0,0
-448,-237,0,0,0,0,0,0,0,0,0,-1,776,1261,0,0
-441,-237,0,0,0,0,0,0,0,0,0,-1,783,1261,0,0
-434,-237,0,0,0,0,0,0,0,0,0,-1,790,1261,0,0
-427,-237,0,0,0,0,0,0,0,0,0,-1,797,1261,0,0
-420,-237,0,0,0,0,0,0,0,0,0,-1,804,1261,0,0
-413,-237,0,0,0,0,0,0,0,0,0,-1,811,1261,0,0
-406,-237,0,0,0,0,0,0,0,0,0,-1,818,1261,0,0
-399,-237,0,0,0,0,0,0,0,0,0,-1,825,1261,0,0
-392,-237,0,0,0,0,0,0,0,0,0,-1,832,1261,0,0
-385,-237,0,0,0,0,0,0,0,0,0,-1,839,1261,0,0
-378,-237,0,0,0,0,0,0,0,0,0,-1,846,1261,0,0
-371,-237,0,0,0,0,0,0,0,0,0,-1,853,1261,0,0
-364,-237,0,0,0,0,0,0,0,0,0,-1,860,1261,0,0
-357,-237,0,0,0,0,0,0,0,0,0,-1,867,1261,0,0
-350,-237,0,0,0,0,0,0,0,0,0,-1,874,1261,0,0
-343,-237,0,0,0,0,0,0,0,0,0,-1,881,1261,0,0
-336,-237,0,0,0,0,0,0,0,0,0,-1,888,1261,0,0
-329,-237,0,0,0,0,0,0,0,0,0,-1,895,1261,0,0
-322,-237,0,0,0,0,0,0,0,0,0,-1,902,1261,0,0
-315,-237,0,0,0,0,0,0,0,0,0,-1,909,1261,0,0
-308,-237,0,0,0,0,0,0,0,0,0,-1,916,1261,0,0
-301,-237,0,0,0,0,0,0,0,0,0,-1,923,1261,0,0
-294,-237,0,0,0,0,0,0,0,0,0,-1,930,1261,0,0
-287,-237,0,0,0,0,0,0,0,0,0,-1,937,1261,0,0
-280,-237,0,0,0,0,0,0,0,0,0,-1,944,1261,0,0
-273,-237,0,0,0,0,0,0,0,0,0,-1,951,1261,0,0
-266,-237,0,0,0,0,0,0,0,0,0,-1,958,1261,0,0
-259,-237,0,0,0,0,0,0,0,0,0,-1,965,1261,0,0
-252,-237,0,0,0,0,0,0,0,0,0,-1,972,1261,0,0
-245,-237,0,0,0,0,0,0,0,0,0,-1,979,1261,0,0
-238,-237,0,0,0,0,0,0,0,0,0,-1,986,1261,0,0
-231,-237,0,0,0,0,0,0,0,0,0,-1,993,1261,0,0
-224,-237,0,0,0,0,0,0,0,0,0,-1,1000,1261,0,0
-217,-237,0,0,0,0,0,0,0,0,0,-1,1007,1261,0,0
-210,-237,0,0,0,0,0,0,0,0,0,-1,1014,1261,0,0
-203,-237,0,0,0,0,0,0,0,0,0,-1,1021,1261,0,0
-196,-237,0,0,0,0,0,0,0,0,0,-1,1028,1261,0,0
-189,-237,0,0,0,0,0,0,0,0,0,-1,1035,1261,0,0
-182,-237,0,0,0,0,0,0,0,0,0,-1,1042,1261,0,0
-175,-237,0,0,0,0,0,0,0,0,0,-1,1049,1261,0,0
-168,-237,0,0,0,0,0,0,0,0,0,-1,1056,1261,0,0
-161,-237,0,0,0,0,0,0,0,0,0,-1,1063,1261,0,0
-154,-237,0,0,0,0,0,0,0,0,0,-1,1070,1261,0,0
-147,-237,0,0,0,0,0,0,0,0,0,-1,1077,1261,0,0
-140,-237,0,0,0,0,0,0,0,0,0,-1,1084,1261,0,0
-133,-237,0,0,0,0,0,0,0,0,0,-1,1091,1261,0,0
-126,-237,0,0,0,0,0,0,0,0,0,-1,1098,1261,0,0
-119,-237,0,0,0,0,0,0,0,0,0,-1,1105,1261,0,0
-112,-237,0,0,0,0,0,0,0,0,0,-1,1112,1261,0,0
-105,-237,0,0,0,0,0,0,0,0,0,-1,1119,1261,0,0
-98,-237,0,0,0,0,0,0,0,0,0,-1,1126,1261,0,0
-91,-237,0,0,0,0,0,0,0,0,0,-1,1133,1261,0,0
-84,-237,0,0,0,0,0,0,0,0,0,-1,1140,1261,0,0
-77,-237,0,0,0,0,0,0,0,0,0,-1,1147,1261,0,0
-70,-237,0,0,0,0,0,0,0,0,0,-1,1154,1261,0,0
-63,-237,0,0,0,0,0,0,0,0,0,-1,1161,1261,0,0
-56,-237,0,0,0,0,0,0,0,0,0,-1,1168,1261,0,0
-49,-237,0,0,0,0,0,0,0,0,0,-1,1175,1261,0,0
-42,-237,0,0,0,0,0,0,0,0,0,-1,1182,1261,0,0
-35,-237,0,0,0,0,0,0,0,0,0,-1,1189,1261,0,0
-28,-237,0,0,0,0,0,0,0,0,0,-1,1196,1261,0,0
-21,-237,0,0,0,0,0,0,0,0,0,-1,1203,1261,0,0
-14,-237,0,0,0,0,0,0,0,0,0,-1,1210,1261,0,0
-7,-237,0,0,0,0,0,0,0,0,0,-1,1217,1261,0,0
0,-237,0,0,0,0,0,0,0,0,0,-1,1224,1261,0,0
7,-237,0,0,0,0,0,0,0,0,0,-1,1231,1261,0,0
14,-237,0,0,0,0,0,0,0,0,0,-1,1238,1261,0,0
21,-237,0,0,0,0,0,0,0,0,0,-1,1245,1261,0,0
28,-237,0,0,0,0,0,0,0,0,0,-1,1252,1261,0,0
35,-237,0,0,0,0,0,0,0,0,0,-1,1259,1261,0,0
42,-237,0,0,0,0,0,0,0,0,0,-1,1266,1261,0,0
49,-237,0,0,0,0,0,0,0,0,0,-1,1273,1261,0,0
56,-237,0,0,0,0,0,0,0,0,0,-1,1280,1261,0,0
63,-237,0,0,0,0,0,0,0,0,0,-1,1287,1261,0,0
70,-237,0,0,0,0,0,0,0,0,0,-1,1294,1261,0,0
77,-237,0,0,0,0,0,0,0,0,0,-1,1301,1261,0,0
84,-237,0,0,0,0,0,0,0,0,0,-1,1308,1261,0,0
91,-237,0,0,0,0,0,0,0,0,0,-1,1315,1261,0,0
98,-237,0,0,0,0,0,0,0,0,0,-1,1322,1261,0,0
105,-237,0,0,0,0,0,0,0,0,0,-1,1329,1261,0,0
112,-237,0,0,0,0,0,0,0,0,0,-1,1336,1261,0,0
119,-237,0,0,0,0,0,0,0,0,0,-1,1343,1261,0,0
126,-237,0,0,0,0,0,0,0,0,0,-1,1350,1261,0,0
133,-237,0,0,0,0,0,0,0,0,0,-1,1357,1261,0,0
140,-237,0,0,0,0,0,0,0,0,0,-1,1364,1261,0,0
147,-237,0,0,0,0,0,0,0,0,0,-1,1371,1261,0,0
154,-237,0,0,0,0,0,0,0,0,0,-1,1378,1261,0,0
161,-237,0,0,0,0,0,0,0,0,0,-1,1385,1261,0,0
168,-237,0,0,0,0,0,0,0,0,0,-1,1392,1261,0,0
175,-237,0,0,0,0,0,0,0,0,0,-1,1399,1261,0,0
182,-237,0,0,0,0,0,0,0,0,0,-1,1406,1261,0,0
189,-237,0,0,0,0,0,0,0,0,0,-1,1413,1261,0,0
196,-237,0,0,0,0,0,0,0,0,0,-1,1420,1261,0,0
203,-237,0,0,0,0,0,0,0,0,0,-1,1427,1261,0,0
210,-237,0,0,0,0,0,0,0,0,0,-1,1434,1261,0,0
217,-237,0,0,0,0,0,0,0,0,0,-1,1441,1261,0,0
224,-237,0,0,0,0,0,0,0,0,0,-1,1448,1261,0,0
231,-237,0,0,0,0,0,0,0,0,0,-1,1455,1261,0,0
238,-237,0,0,0,0,0,0,0,0,0,-1,1462,1261,0,0
245,-237,0,0,0,0,0,0,0,0,0,-1,1469,1261,0,0
252,-237,0,0,0,0,0,0,0,0,0,-1,1476,1261,0,0
259,-237,0,0,0,0,0,0,0,0,0,-1,1483,1261,0,0
266,-237,0,0,0,0,0,0,0,0,0,-1,1490,1261,0,0
273,-237,0,0,0,0,0,0,0,0,0,-1,1497,1261,0,0
280,-237,0,0,0,0,0,0,0,0,0,-1,1504,1261,0,0
287,-237,0,0,0,0,0,0,0,0,0,-1,1511,1261,0,0
294,-237,0,0,0,0,0,0,0,0,0,-1,1518,1261,0,0
301,-237,0,0,0,0,0,0,0,0,0,-1,1525,1261,0,0
308,-237,0,0,0,0,0,0,0,0,0,-1,1532,1261,0,0
315,-237,0,0,0,0,0,0,0,0,0,-1,1539,1261,0,0
322,-237,0,0,0,0,0,0,0,0,0,-1,1546,1261,0,0
329,-237,0,0,0,0,0,0,0,0,0,-1,1553,1261,0,0
336,-237,0,0,0,0,0,0,0,0,0,-1,1560,1261,0,0
343,-237,0,0,0,0,0,0,0,0,0,-1,1567,1261,0,0
350,-237,0,0,0,0,0,0,0,0,0,-1,1574,1261,0,0
357,-237,0,0,0,0,0,0,0,0,0,-1,1581,1261,0,0
364,-237,0,0,0,0,0,0,0,0,0,-1,1588,1261,0,0
371,-237,0,0,0,0,0,0,0,0,0,-1,1595,1261,0,0
378,-237,0,0,0,0,0,0,0,0,0,-1,1602,1261,0,0
385,-237,0,0,0,0,0,0,0,0,0,-1,1609,1261,0,0
392,-237,0,0,0,0,0,0,0,0,0,-1,1616,1261,0,0
399,-237,0,0,0,0,0,0,0,0,0,-1,1623,1261,0,0
406,-237,0,0,0,0,0,0,0,0,0,-1,1630,1261,0,0
413,-237,0,0,0,0,0,0,0,0,0,-1,1637,1261,0,0
420,-237,0,0,0,0,0,0,0,0,0,-1,1644,1261,0,0
427,-237,0,0,0,0,0,0,0,0,0,-1,1651,1261,0,0
434,-237,0,0,0,0,0,0,0,0,0,-1,1658,1261,0,0
441,-237,0,0,0,0,0,0,0,0,0,-1,1665,1261,0,0
448,-237,0,0,0,0,0,0,0,0,0,-1,1672,1261,0,0
455,-237,0,0,0,0,0,0,0,0,0,-1,1679,1261,0,0
462,-237,0,0,0,0,0,0,0,0,0,-1,1686,1261,0,0
469,-237,0,0,0,0,0,0,0,0,0,-1,1693,1261,0,0
476,-237,0,0,0,0,0,0,0,0,0,-1,1700,1261,0,0
483,-237,0,0,0,0,0,0,0,0,0,-1,1707,1261,0,0
490,-237,0,0,0,0,0,0,0,0,0,-1,1714,1261,0,0
497,-237,0,0,0,0,0,0,0,0,0,-1,1721,1261,0,0
504,-237,0,0,0,0,0,0,0,0,0,-1,1728,1261,0,0
511,-237,0,0,0,0,0,0,0,0,0,-1,1735,1261,0,0
518,-237,0,0,0,0,0,0,0,0,0,-1,1742,1261,0,0
525,-237,0,0,0,0,0,0,0,0,0,-1,1749,1261,0,0
532,-237,0,0,0,0,0,0,0,0,0,-1,1756,1261,0,0
539,-237,0,0,0,0,0,0,0,0,0,-1,1763,1261,0,0
546,-237,0,0,0,0,0,0,0,0,0,-1,1770,1261,0,0
553,-237,0,0,0,0,0,0,0,0,0,-1,1777,1261,0,0
560,-237,0,0,0,0,0,0,0,0,0,-1,1784,1261,0,0
567,-237,0,0,0,0,0,0,0,0,0,-1,1791,1261,0,0
574,-237,0,0,0,0,0,0,0,0,0,-1,1798,1261,0,0
581,-237,0,0,0,0,0,0,0,0,0,-1,1805,1261,0,0
588,-237,0,0,0,0,0,0,0,0,0,-1,1812,1261,0,0
595,-237,0,0,0,0,0,0,0,0,0,-1,1819,1261,0,0
602,-237,0,0,0,0,0,0,0,0,0,-1,1826,1261,0,0
609,-237,0,0,0,0,0,0,0,0,0,-1,1833,1261,0,0
616,-237,15.0802,2.37219,-0.000167057,0.00491704,-0.00795983,0.0107309,-0.0059809,-0.939959,0.0097776,0.0370404,1840,1261,15.0802,-2.37214
623,-237,15.1201,2.3717,-0.00222763,0.0080512,-0.00471376,0.00988553,-0.00406195,-1.19968,0.00828326,0.0322217,1847,1261,15.1201,-2.37169
630,-237,15.1,2.34119,-0.00450317,0.0100899,-0.00133633,0.0102112,-0.00462453,-1.48023,0.00876552,0.0255125,1854,1261,15.1,-2.34115
637,-237,15.0442,2.27075,-0.006391,0.0110228,0.00180634,0.0112082,-0.0065764,1.46852,0.0103834,0.0210132,1861,1261,15.0442,-2.27073
644,-237,14.926,2.14807,-0.00771453,0.0108169,0.00426489,0.0117513,-0.00864895,1.35511,0.0118234,0.0415209,1868,1261,14.926,-2.14808
651,-237,15.0018,2.12866,0,0,0,0,0,0,0,-1,1875,1261,15.0018,-2.12866
658,-237,14.4528,1.00562,0,0,0,0,0,0,0,-1,1882,1261,14.4527,-1.00556
665,-237,14.2765,0.729004,0,0,0,0,0,0,0,-1,1889,1261,14.2765,-0.728961
672,-237,13.4785,4.46265,0,0,0,0,0,0,0,-1,1896,1261,13.4785,-4.46264
679,-237,13.4021,4.21082,-0.00680318,0.00611375,0.00769431,0.00970089,-0.0103903,1.13455,0.0116019,0.0453037,1903,1261,13.4021,-4.21085
686,-237,13.1682,4.00061,-0.00630901,0.00425731,0.0073952,0.00806265,-0.0101143,1.09556,0.0105168,0.0286398,1910,1261,13.1683,-4.00067
693,-237,12.9802,3.87817,-0.00521333,0.00338413,0.00683906,0.00716326,-0.00899246,1.06597,0.00934742,0.0143179,1917,1261,12.9802,-3.87817
700,-237,13.0037,3.77026,-0.00369037,0.00250672,0.00580841,0.00599138,-0.00717504,1.03043,0.00761187,0.010158,1924,1261,13.0037,-3.7703
707,-237,13.0111,3.66528,-0.00231198,0.00157185,0.00466149,0.00467975,-0.00541987,0.98276,0.00583623,0.00976708,1931,1261,13.0111,-3.66533
714,-237,13.0048,3.52979,-0.00178991,0.00119407,0.0035461,0.00354927,-0.0041451,0.984528,0.00444678,0.013202,1938,1261,13.0047,-3.52984
721,-237,13.0011,3.42737,-0.00223585,0.00127544,0.00206976,0.00223387,-0.00319428,1.13713,0.00315025,0.0141365,1945,1261,13.0011,-3.42738
728,-237,13.0216,3.32385,-0.00393032,0.00187292,0.000948011,0.00202386,-0.00408126,1.4129,0.00359089,0.0135766,1952,1261,13.0216,-3.32383
735,-237,13.0006,3.22083,-0.00683493,0.00348626,-0.000190341,0.00348977,-0.00683844,-1.55236,0.00606657,0.0180744,1959,1261,13.0006,-3.2208
742,-237,12.9972,3.12866,-0.0102225,0.00516344,-0.0011511,0.00524908,-0.0103081,-1.49653,0.00913888,0.014022,1966,1261,12.9972,-3.1287
749,-237,12.9896,3.01074,-0.0150062,0.00768242,-0.00217711,0.00788944,-0.0152132,-1.47599,0.0135599,0.00958517,1973,1261,12.9896,-3.01077
756,-237,12.9703,2.88672,-0.0214135,0.0108471,-0.00335775,0.0111929,-0.0217592,-1.46818,0.0193482,0.013543,1980,1261,12.9703,-2.88668
763,-237,13.0071,2.74146,-0.0295497,0.0148887,-0.00484988,0.0154118,-0.0300728,-1.46334,0.0267114,0.0294345,1987,1261,13.0071,-2.74146
770,-237,13.0967,2.57031,-0.0396351,0.0199773,-0.006733,0.0207283,-0.0403861,-1.45971,0.0358877,0.0409697,1994,1261,13.0967,-2.57027
777,-237,13.2036,2.18103,-0.0518688,0.0263097,-0.0090287,0.0273389,-0.052898,-1.4573,0.0471017,0.0422559,2001,1261,13.2036,-2.18101
784,-237,12.8422,1.62878,-0.0663951,0.0341285,-0.0117703,0.0354883,-0.0677549,-1.45578,0.0605701,0.04784,2008,1261,12.8422,-1.6288
791,-237,12.5776,1.27124,0,0,0,0,0,0,0,-1,2015,1261,12.5777,-1.27119
798,-237,0,0,0,0,0,0,0,0,0,-1,2022,1261,0,0
805,-237,0,0,0,0,0,0,0,0,0,-1,2029,1261,0,0
812,-237,0,0,0,0,0,0,0,0,0,-1,2036,1261,0,0
-700,-244,0,0,0,0,0,0,0,0,0,-1,524,1268,0,0
-693,-244,0,0,0,0,0,0,0,0,0,-1,531,1268,0,0
-686,-244,0,0,0,0,0,0,0,0,0,-1,538,1268,0,0
-679,-244,0,0,0,0,0,0,0,0,0,-1,545,1268,0,0
-672,-244,-6.61682,-0.0882568,0,0,0,0,0,0,0,-1,552,1268,-6.61681,0.0882656
-665,-244,-6.31012,-0.126099,0.0998501,-0.00811391,-0.0222233,0.104246,-0.0125094,-0.195268,0.0740201,0.0471297,559,1268,-6.3101,0.126116
-658,-244,-5.86078,0.00170898,0.0832624,-0.00751291,-0.0204418,0.0876533,-0.0119038,-0.211586,0.0627808,0.0463067,566,1268,-5.86079,-0.00168693
-651,-244,-6.09412,0.227173,0.0681417,-0.00642345,-0.0178924,0.0722129,-0.0104946,-0.223725,0.0519943,0.0432891,573,1268,-6.09409,-0.227231
-644,-244,-6.34845,0.425415,0.0547698,-0.00512035,-0.0150183,0.0583248,-0.00867537,-0.232434,0.0420742,0.0426639,580,1268,-6.34848,-0.425399
-637,-244,-6.66095,0.649902,0.0432484,-0.00377382,-0.0121238,0.0461903,-0.00671566,-0.238049,0.0332589,0.0441196,587,1268,-6.66097,-0.649921
-630,-244,-6.67413,0.726807,0.0334855,-0.00251892,-0.00942346,0.0358028,-0.00483618,-0.24112,0.0256331,0.0421042,594,1268,-6.67414,-0.726785
-623,-244,-6.57574,0.868042,0.0254523,-0.00181804,-0.0071422,0.0272096,-0.00357537,-0.241256,0.0194414,0.0314014,601,1268,-6.57575,-0.868019
-616,-244,-6.52832,1.0033,0.0185797,-0.0015207,-0.00534384,0.0199121,-0.00285308,-0.244348,0.0143208,0.0165154,608,1268,-6.52834,-1.00327
-609,-244,-6.50836,1.10339,0.012819,-0.000668776,-0.00363178,0.0137347,-0.00158451,-0.246997,0.00972777,0.0148876,615,1268,-6.50836,-1.10343
-602,-244,-6.54138,1.24316,0.00838261,9.16816e-05,-0.00188728,0.008792,-0.000317707,-0.213611,0.00597005,0.0161646,622,1268,-6.54139,-1.24317
-595,-244,-6.54895,1.37451,0.0065349,-0.000367621,-0.000864879,0.00664162,-0.000474339,-0.122771,0.00459403,0.0164974,629,1268,-6.54892,-1.37456
-588,-244,-6.48883,1.51978,0.00526287,-0.000237457,-0.000625963,0.00533321,-0.000307796,-0.111898,0.00366239,0.019931,636,1268,-6.48883,-1.5198
-581,-244,-6.49725,1.65601,0.00342543,-0.000763619,-0.000826661,0.00358266,-0.00092085,-0.187955,0.00274732,0.0177201,643,1268,-6.49722,-1.65597
-574,-244,-6.51031,1.78711,0.00190265,-0.00109535,-0.002061,0.00295213,-0.00214483,-0.470986,0.00295501,0.012832,650,1268,-6.51031,-1.78705
-567,-244,-6.51471,1.9137,1.06042e-05,-4.75063e-06,-0.00331316,0.00331609,-0.00331024,-0.78424,0.00382572,0.00973969,657,1268,-6.51468,-1.91371
-560,-244,-6.47607,2.04443,-0.002263,0.00152393,-0.00391548,0.00397974,-0.00471881,-1.01061,0.00502815,0.0135986,664,1268,-6.47607,-2.04446
-553,-244,-6.34296,2.22241,-0.00472403,0.00316848,-0.00451608,0.00521955,-0.00677511,-1.14448,0.0069445,0.0377407,671,1268,-6.34296,-2.22245
-546,-244,-5.37793,1.39575,0,0,0,0,0,0,0,-1,678,1268,-5.37791,-1.3958
-539,-244,-7.14038,-0.97168,0,0,0,0,0,0,0,-1,685,1268,-7.1404,0.971713
-532,-244,-7.06085,-0.379761,-0.0146417,0.010121,-0.00595441,0.0114784,-0.0159991,-1.34666,0.0159355,0.0473528,692,1268,-7.06086,0.379734
-525,-244,-8.0437,-0.541504,-0.0185174,0.0131733,-0.00577968,0.0141945,-0.0195386,-1.39592,0.0195571,0.046409,699,1268,-8.04369,0.541549
-518,-244,-8.40771,0.148438,-0.0224782,0.0163979,-0.00492086,0.0170111,-0.0230914,-1.44682,0.0232417,0.0438722,706,1268,-8.40774,-0.148433
-511,-244,-8.83856,0.616577,-0.0261001,0.0194217,-0.00305956,0.0196264,-0.0263048,-1.50399,0.0266117,0.0437543,713,1268,-8.83858,-0.616549
-504,-244,-8.94922,0.75,-0.0284285,0.0215238,0.000341947,0.0215261,-0.0284309,1.56395,0.0289344,0.0429775,720,1268,-8.94923,-0.749947
-497,-244,-9.02228,0.980957,-0.0277953,0.0217596,0.00538865,0.0223388,-0.0283745,1.46372,0.0293484,0.0449031,727,1268,-9.02229,-0.980999
-490,-244,0,0,0,0,0,0,0,0,0,-1,734,1268,0,0
-483,-244,0,0,0,0,0,0,0,0,0,-1,741,1268,0,0
-476,-244,0,0,0,0,0,0,0,0,0,-1,748,1268,0,0
-469,-244,0,0,0,0,0,0,0,0,0,-1,755,1268,0,0
-462,-244,0,0,0,0,0,0,0,0,0,-1,762,1268,0,0
-455,-244,0,0,0,0,0,0,0,0,0,-1,769,1268,0,0
-448,-244,0,0,0,0,0,0,0,0,0,-1,776,1268,0,0
-441,-244,0,0,0,0,0,0,0,0,0,-1,783,1268,0,0
-434,-244,0,0,0,0,0,0,0,0,0,-1,790,1268,0,0
-427,-244,0,0,0,0,0,0,0,0,0,-1,797,1268,0,0
-420,-244,0,0,0,0,0,0,0,0,0,-1,804,1268,0,0
-413,-244,0,0,0,0,0,0,0,0,0,-1,811,1268,0,0
-406,-244,0,0,0,0,0,0,0,0,0,-1,818,1268,0,0
-399,-244,0,0,0,0,0,0,0,0,0,-1,825,1268,0,0
-392,-244,0,0,0,0,0,0,0,0,0,-1,832,1268,0,0
-385,-244,0,0,0,0,0,0,0,0,0,-1,839,1268,0,0
-378,-244,0,0,0,0,0,0,0,0,0,-1,846,1268,0,0
-371,-244,0,0,0,0,0,0,0,0,0,-1,853,1268,0,0
-364,-244,0,0,0,0,0,0,0,0,0,-1,860,1268,0,0
-357,-244,0,0,0,0,0,0,0,0,0,-1,867,1268,0,0
-350,-244,0,0,0,0,0,0,0,0,0,-1,874,1268,0,0
-343,-244,0,0,0,0,0,0,0,0,0,-1,881,1268,0,0
-336,-244,0,0,0,0,0,0,0,0,0,-1,888,1268,0,0
-329,-244,0,0,0,0,0,0,0,0,0,-1,895,1268,0,0
-322,-244,0,0,0,0,0,0,0,0,0,-1,902,1268,0,0
-315,-244,0,0,0,0,0,0,0,0,0,-1,909,1268,0,0
-308,-244,0,0,0,0,0,0,0,0,0,-1,916,1268,0,0
-301,-244,0,0,0,0,0,0,0,0,0,-1,923,1268,0,0
-294,-244,0,0,0,0,0,0,0,0,0,-1,930,1268,0,0
-287,-244,0,0,0,0,0,0,0,0,0,-1,937,1268,0,0
-280,-244,0,0,0,0,0,0,0,0,0,-1,944,1268,0,0
-273,-244,0,0,0,0,0,0,0,0,0,-1,951,1268,0,0
-266,-244,0,0,0,0,0,0,0,0,0,-1,958,1268,0,0
-259,-244,0,0,0,0,0,0,0,0,0,-1,965,1268,0,0
-252,-244,0,0,0,0,0,0,0,0,0,-1,972,1268,0,0
-245,-244,0,0,0,0,0,0,0,0,0,-1,979,1268,0,0
-238,-244,0,0,0,0,0,0,0,0,0,-1,986,1268,0,0
-231,-244,0,0,0,0,0,0,0,0,0,-1,993,1268,0,0
-224,-244,0,0,0,0,0,0,0,0,0,-1,1000,1268,0,0
-217,-244,0,0,0,0,0,0,0,0,0,-1,1007,1268,0,0
-210,-244,0,0,0,0,0,0,0,0,0,-1,1014,1268,0,0
-203,-244,0,0,0,0,0,0,0,0,0,-1,1021,1268,0,0
-196,-244,0,0,0,0,0,0,0,0,0,-1,1028,1268,0,0
-189,-244,0,0,0,0,0,0,0,0,0,-1,1035,1268,0,0
-182,-244,0,0,0,0,0,0,0,0,0,-1,1042,1268,0,0
-175,-244,0,0,0,0,0,0,0,0,0,-1,1049,1268,0,0
-168,-244,0,0,0,0,0,0,0,0,0,-1,1056,1268,0,0
-161,-244,0,0,0,0,0,0,0,0,0,-1,1063,1268,0,0
-154,-244,0,0,0,0,0,0,0,0,0,-1,1070,1268,0,0
-147,-244,0,0,0,0,0,0,0,0,0,-1,1077,1268,0,0
-140,-244,0,0,0,0,0,0,0,0,0,-1,1084,1268,0,0
-133,-244,0,0,0,0,0,0,0,0,0,-1,1091,1268,0,0
-126,-244,0,0,0,0,0,0,0,0,0,-1,1098,1268,0,0
-119,-244,0,0,0,0,0,0,0,0,0,-1,1105,1268,0,0
-112,-244,0,0,0,0,0,0,0,0,0,-1,1112,1268,0,0
-105,-244,0,0,0,0,0,0,0,0,0,-1,1119,1268,0,0
-98,-244,0,0,0,0,0,0,0,0,0,-1,1126,1268,0,0
-91,-244,0,0,0,0,0,0,0,0,0,-1,1133,1268,0,0
-84,-244,0,0,0,0,0,0,0,0,0,-1,1140,1268,0,0
-77,-244,0,0,0,0,0,0,0,0,0,-1,1147,1268,0,0
-70,-244,0,0,0,0,0,0,0,0,0,-1,1154,1268,0,0
-63,-244,0,0,0,0,0,0,0,0,0,-1,1161,1268,0,0
-56,-244,0,0,0,0,0,0,0,0,0,-1,1168,1268,0,0
-49,-244,0,0,0,0,0,0,0,0,0,-1,1175,1268,0,0
-42,-244,0,0,0,0,0,0,0,0,0,-1,1182,1268,0,0
-35,-244,0,0,0,0,0,0,0,0,0,-1,1189,1268,0,0
-28,-244,0,0,0,0,0,0,0,0,0,-1,1196,1268,0,0
-21,-244,0,0,0,0,0,0,0,0,0,-1,1203,1268,0,0
-14,-244,0,0,0,0,0,0,0,0,0,-1,1210,1268,0,0
-7,-244,0,0,0,0,0,0,0,0,0,-1,1217,1268,0,0
0,-244,0,0,0,0,0,0,0,0,0,-1,1224,1268,0,0
7,-244,0,0,0,0,0,0,0,0,0,-1,1231,1268,0,0
14,-244,0,0,0,0,0,0,0,0,0,-1,1238,1268,0,0
21,-244,0,0,0,0,0,0,0,0,0,-1,1245,1268,0,0
28,-244,0,0,0,0,0,0,0,0,0,-1,1252,1268,0,0
35,-244,0,0,0,0,0,0,0,0,0,-1,1259,1268,0,0
42,-244,0,0,0,0,0,0,0,0,0,-1,1266,1268,0,0
49,-244,0,0,0,0,0,0,0,0,0,-1,1273,1268,0,0
56,-244,0,0,0,0,0,0,0,0,0,-1,1280,1268,0,0
63,-244,0,0,0,0,0,0,0,0,0,-1,1287,1268,0,0
70,-244,0,0,0,0,0,0,0,0,0,-1,1294,1268,0,0
77,-244,0,0,0,0,0,0,0,0,0,-1,1301,1268,0,0
84,-244,0,0,0,0,0,0,0,0,0,-1,1308,1268,0,0
91,-244,0,0,0,0,0,0,0,0,0,-1,1315,1268,0,0
98,-244,0,0,0,0,0,0,0,0,0,-1,1322,1268,0,0
105,-244,0,0,0,0,0,0,0,0,0,-1,1329,1268,0,0
112,-244,0,0,0,0,0,0,0,0,0,-1,1336,1268,0,0
119,-244,0,0,0,0,0,0,0,0,0,-1,1343,1268,0,0
126,-244,0,0,0,0,0,0,0,0,0,-1,1350,1268,0,0
133,-244,0,0,0,0,0,0,0,0,0,-1,1357,1268,0,0
140,-244,0,0,0,0,0,0,0,0,0,-1,1364,1268,0,0
147,-244,0,0,0,0,0,0,0,0,0,-1,1371,1268,0,0
154,-244,0,0,0,0,0,0,0,0,0,-1,1378,1268,0,0
161,-244,0,0,0,0,0,0,0,0,0,-1,1385,1268,0,0
168,-244,0,0,0,0,0,0,0,0,0,-1,1392,1268,0,0
175,-244,0,0,0,0,0,0,0,0,0,-1,1399,1268,0,0
182,-244,0,0,0,0,0,0,0,0,0,-1,1406,1268,0,0
189,-244,0,0,0,0,0,0,0,0,0,-1,1413,1268,0,0
196,-244,0,0,0,0,0,0,0,0,0,-1,1420,1268,0,0
203,-244,0,0,0,0,0,0,0,0,0,-1,1427,1268,0,0
210,-244,0,0,0,0,0,0,0,0,0,-1,1434,1268,0,0
217,-244,0,0,0,0,0,0,0,0,0,-1,1441,1268,0,0
224,-244,0,0,0,0,0,0,0,0,0,-1,1448,1268,0,0
231,-244,0,0,0,0,0,0,0,0,0,-1,1455,1268,0,0
238,-244,0,0,0,0,0,0,0,0,0,-1,1462,1268,0,0
245,-244,0,0,0,0,0,0,0,0,0,-1,1469,1268,0,0
252,-244,0,0,0,0,0,0,0,0,0,-1,1476,1268,0,0
259,-244,0,0,0,0,0,0,0,0,0,-1,1483,1268,0,0
266,-244,0,0,0,0,0,0,0,0,0,-1,1490,1268,0,0
273,-244,0,0,0,0,0,0,0,0,0,-1,1497,1268,0,0
280,-244,0,0,0,0,0,0,0,0,0,-1,1504,1268,0,0
287,-244,0,0,0,0,0,0,0,0,0,-1,1511,1268,0,0
294,-244,0,0,0,0,0,0,0,0,0,-1,1518,1268,0,0
301,-244,0,0,0,0,0,0,0,0,0,-1,1525,1268,0,0
308,-244,0,0,0,0,0,0,0,0,0,-1,1532,1268,0,0
315,-244,0,0,0,0,0,0,0,0,0,-1,1539,1268,0,0
322,-244,0,0,0,0,0,0,0,0,0,-1,1546,1268,0,0
329,-244,0,0,0,0,0,0,0,0,0,-1,1553,1268,0,0
336,-244,0,0,0,0,0,0,0,0,0,-1,1560,1268,0,0
343,-244,0,0,0,0,0,0,0,0,0,-1,1567,1268,0,0
350,-244,0,0,0,0,0,0,0,0,0,-1,1574,1268,0,0
357,-244,0,0,0,0,0,0,0,0,0,-1,1581,1268,0,0
364,-244,0,0,0,0,0,0,0,0,0,-1,1588,1268,0,0
371,-244,0,0,0,0,0,0,0,0,0,-1,1595,1268,0,0
378,-244,0,0,0,0,0,0,0,0,0,-1,1602,1268,0,0
385,-244,0,0,0,0,0,0,0,0,0,-1,1609,1268,0,0
392,-244,0,0,0,0,0,0,0,0,0,-1,1616,1268,0,0
399,-244,0,0,0,0,0,0,0,0,0,-1,1623,1268,0,0
406,-244,0,0,0,0,0,0,0,0,0,-1,1630,1268,0,0
413,-244,0,0,0,0,0,0,0,0,0,-1,1637,1268,0,0
420,-244,0,0,0,0,0,0,0,0,0,-1,1644,1268,0,0
427,-244,0,0,0,0,0,0,0,0,0,-1,1651,1268,0,0
434,-244,0,0,0,0,0,0,0,0,0,-1,1658,1268,0,0
441,-244,0,0,0,0,0,0,0,0,0,-1,1665,1268,0,0
448,-244,0,0,0,0,0,0,0,0,0,-1,1672,1268,0,0
455,-244,0,0,0,0,0,0,0,0,0,-1,1679,1268,0,0
462,-244,0,0,0,0,0,0,0,0,0,-1,1686,1268,0,0
469,-244,0,0,0,0,0,0,0,0,0,-1,1693,1268,0,0
476,-244,0,0,0,0,0,0,0,0,0,-1,1700,1268,0,0
483,-244,0,0,0,0,0,0,0,0,0,-1,1707,1268,0,0
490,-244,0,0,0,0,0,0,0,0,0,-1,1714,1268,0,0
497,-244,0,0,0,0,0,0,0,0,0,-1,1721,1268,0,0
504,-244,0,0,0,0,0,0,0,0,0,-1,1728,1268,0,0
511,-244,0,0,0,0,0,0,0,0,0,-1,1735,1268,0,0
518,-244,0,0,0,0,0,0,0,0,0,-1,1742,1268,0,0
525,-244,0,0,0,0,0,0,0,0,0,-1,1749,1268,0,0
532,-244,0,0,0,0,0,0,0,0,0,-1,1756,1268,0,0
539,-244,0,0,0,0,0,0,0,0,0,-1,1763,1268,0,0
546,-244,0,0,0,0,0,0,0,0,0,-1,1770,1268,0,0
553,-244,0,0,0,0,0,0,0,0,0,-1,1777,1268,0,0
560,-244,0,0,0,0,0,0,0,0,0,-1,1784,1268,0,0
567,-244,0,0,0,0,0,0,0,0,0,-1,1791,1268,0,0
574,-244,0,0,0,0,0,0,0,0,0,-1,1798,1268,0,0
581,-244,0,0,0,0,0,0,0,0,0,-1,1805,1268,0,0
588,-244,0,0,0,0,0,0,0,0,0,-1,1812,1268,0,0
595,-244,0,0,0,0,0,0,0,0,0,-1,1819,1268,0,0
602,-244,0,0,0,0,0,0,0,0,0,-1,1826,1268,0,0
609,-244,0,0,0,0,0,0,0,0,0,-1,1833,1268,0,0
616,-244,15.0388,2.31738,-0.000162198,0.00733042,-0.00700782,0.0115305,-0.00436223,-1.03087,0.00948165,0.034035,1840,1268,15.0388,-2.31734
623,-244,15.0452,2.32776,-0.0020703,0.010123,-0.00315737,0.010892,-0.00283937,-1.33187,0.00836992,0.0255521,1847,1268,15.0452,-2.3277
630,-244,15.0507,2.30298,-0.00442721,0.0113906,0.00059529,0.011413,-0.00444958,1.53323,0.00944781,0.0226762,1854,1268,15.0507,-2.30298
637,-244,15.0024,2.18884,-0.00655012,0.0114722,0.00367469,0.0121926,-0.00727057,1.37719,0.0113562,0.0376401,1861,1268,15.0024,-2.1889
644,-244,14.818,2.04919,-0.00803142,0.0105969,0.0058793,0.0122973,-0.00973179,1.28927,0.0127472,0.0453824,1868,1268,14.8179,-2.04923
651,-244,14.6328,2.07288,-0.00879384,0.00939392,0.00726918,0.0119422,-0.0113421,1.23362,0.0134447,0.0445773,1875,1268,14.6328,-2.07292
658,-244,14.1375,0.469604,0,0,0,0,0,0,0,-1,1882,1268,14.1374,-0.469599
665,-244,14.038,0.0102539,0,0,0,0,0,0,0,-1,1889,1268,14.038,-0.0102482
672,-244,12.7698,4.0697,0,0,0,0,0,0,0,-1,1896,1268,12.7697,-4.06968
679,-244,12.7875,4.07043,-0.00748444,0.00495867,0.00810974,0.00895845,-0.0114842,1.1126,0.0118326,0.0418877,1903,1268,12.7875,-4.07047
686,-244,12.87,4.01196,-0.00711974,0.00281002,0.00754771,0.00687941,-0.0111891,1.07632,0.0105303,0.0224908,1910,1268,12.87,-4.01191
693,-244,12.866,3.9126,-0.0058986,0.002085,0.00677797,0.00595929,-0.00977289,1.05152,0.0091715,0.0100151,1917,1268,12.8659,-3.9126
700,-244,12.879,3.78235,-0.00403038,0.00141293,0.00546392,0.00479552,-0.00741297,1.01647,0.00710237,0.00842482,1924,1268,12.879,-3.78233
707,-244,12.8895,3.67773,-0.00234357,0.0007616,0.00413229,0.00362335,-0.00520531,0.965099,0.00512443,0.0101659,1931,1268,12.8895,-3.6778
714,-244,12.8982,3.55688,-0.00186294,0.000788319,0.0029741,0.00271884,-0.00379347,0.995045,0.00377691,0.0112629,1938,1268,12.8982,-3.55693
721,-244,12.8862,3.4325,-0.00265024,0.00122952,0.00151496,0.00175099,-0.00317171,1.23929,0.00288131,0.0129394,1945,1268,12.8862,-3.43245
728,-244,12.8898,3.32373,-0.0049244,0.00211733,0.000471928,0.00214882,-0.00495589,1.50417,0.00420727,0.0165619,1952,1268,12.8897,-3.32376
735,-244,12.8762,3.20264,-0.00866534,0.00392683,-0.000546194,0.00395047,-0.00868898,-1.52753,0.00746638,0.0213581,1959,1268,12.8762,-3.20264
742,-244,12.8958,3.10767,-0.013212,0.00589471,-0.00138353,0.00599438,-0.0133117,-1.49889,0.0114101,0.0145298,1966,1268,12.8957,-3.10767
749,-244,12.8943,3.01794,-0.0195502,0.00859261,-0.00233375,0.00878482,-0.0197424,-1.48862,0.0168704,0.0180891,1973,1268,12.8943,-3.01789
756,-244,12.8234,2.89941,-0.027981,0.012015,-0.00347787,0.0123152,-0.0282812,-1.4847,0.0240349,0.0243608,1980,1268,12.8233,-2.8994
763,-244,12.8595,2.69299,-0.0386877,0.0163785,-0.00494325,0.0168188,-0.0391279,-1.48197,0.0331458,0.0416765,1987,1268,12.8595,-2.69294
770,-244,13.452,2.51331,0,0,0,0,0,0,0,-1,1994,1268,13.452,-2.51336
777,-244,12.8752,1.92212,-0.0680135,0.0287067,-0.00904252,0.0295448,-0.0688516,-1.47837,0.0583006,0.0442314,2001,1268,12.8753,-1.92216
784,-244,12.3097,1.38184,-0.0870264,0.0372301,-0.0117432,0.0383302,-0.0881265,-1.47739,0.0748729,0.0432277,2008,1268,12.3097,-1.38186
791,-244,0,0,0,0,0,0,0,0,0,-1,2015,1268,0,0
798,-244,0,0,0,0,0,0,0,0,0,-1,2022,1268,0,0
805,-244,0,0,0,0,0,0,0,0,0,-1,2029,1268,0,0
812,-244,0,0,0,0,0,0,0,0,0,-1,2036,1268,0,0
-700,-251,0,0,0,0,0,0,0,0,0,-1,524,1275,0,0
-693,-251,0,0,0,0,0,0,0,0,0,-1,531,1275,0,0
-686,-251,0,0,0,0,0,0,0,0,0,-1,538,1275,0,0
-679,-251,0,0,0,0,0,0,0,0,0,-1,545,1275,0,0
-672,-251,0,0,0,0,0,0,0,0,0,-1,552,1275,0,0
-665,-251,-6.3584,0.63269,0,0,0,0,0,0,0,-1,559,1275,-6.35839,-0.632736
-658,-251,-5.79175,0.403198,0,0,0,0,0,0,0,-1,566,1275,-5.79176,-0.403199
-651,-251,-5.74768,0.505371,0.0617285,-0.0123673,-0.0227895,0.0681767,-0.0188155,-0.275737,0.0528514,0.0443935,573,1275,-5.74767,-0.505358
-644,-251,-6.25897,0.716553,0.0498746,-0.0086154,-0.0188162,0.0554049,-0.0141457,-0.285861,0.042445,0.0434579,580,1275,-6.25898,-0.716598
-637,-251,-6.59094,0.91626,0,0,0,0,0,0,0,-1,587,1275,-6.59094,-0.916215
-630,-251,-6.60101,0.697632,0,0,0,0,0,0,0,-1,594,1275,-6.60101,-0.697596
-623,-251,-6.31195,0.706787,0.02418,-0.00147758,-0.00840918,0.0266904,-0.00398803,-0.290114,0.0192611,0.0361885,601,1275,-6.31194,-0.706829
-616,-251,-6.38623,0.975464,0.0180263,-0.000592807,-0.00601545,0.0198007,-0.00236718,-0.286836,0.0140561,0.0203352,608,1275,-6.38625,-0.975419
-609,-251,-6.39496,1.09241,0.0126819,0.000558774,-0.0039083,0.0138326,-0.000591976,-0.286345,0.00942526,0.0188831,615,1275,-6.39494,-1.09244
-602,-251,-6.39685,1.22888,0.00854869,0.00157281,-0.00195034,0.00905694,0.00106456,-0.254927,0.00571625,0.0141827,622,1275,-6.39686,-1.22893
-595,-251,-6.38818,1.35999,0.00692447,0.000902973,-0.000606787,0.00698501,0.000842435,-0.099438,0.00440281,0.0131328,629,1275,-6.38816,-1.36004
-588,-251,-6.35248,1.48657,0.0056363,0.000802942,-0.000120994,0.00563933,0.000799916,-0.0250122,0.00352331,0.0147445,636,1275,-6.35247,-1.48661
-581,-251,-6.34229,1.64783,0.00367721,2.10612e-05,-0.000273546,0.00369756,7.08271e-07,-0.0742671,0.0024648,0.0133669,643,1275,-6.34227,-1.64779
-574,-251,-6.35101,1.80847,0.00212333,-0.000705269,-0.00168196,0.00290659,-0.00148852,-0.435816,0.00258117,0.0120912,650,1275,-6.351,-1.80848
-567,-251,-6.3761,1.92224,0.000142144,9.11506e-05,-0.00316441,0.00328116,-0.00304787,-0.78137,0.00365489,0.010506,657,1275,-6.3761,-1.92227
-560,-251,-6.36047,2.04895,-0.00235151,0.00158035,-0.00388084,0.0039648,-0.00473596,-1.01984,0.00502996,0.0120603,664,1275,-6.3605,-2.04896
-553,-251,-6.24023,2.10559,-0.00491534,0.00317427,-0.00457681,0.00523746,-0.00697853,-1.14728,0.00707674,0.029248,671,1275,-6.24024,-2.10561
-546,-251,-5.52716,1.61719,-0.0079111,0.005011,-0.00509871,0.00678051,-0.00968061,-1.23675,0.00955287,0.0474241,678,1275,-5.52715,-1.61723
-539,-251,-4.8783,1.22668,0,0,0,0,0,0,0,-1,685,1275,-4.87831,-1.2267
-532,-251,-6.2771,-0.49707,0,0,0,0,0,0,0,-1,692,1275,-6.27712,0.497065
-525,-251,-7.54401,-0.841064,0,0,0,0,0,0,0,-1,699,1275,-7.54403,0.841011
-518,-251,-8.28595,0.341431,-0.0237498,0.0165164,-0.00569738,0.017307,-0.0245405,-1.43291,0.0242807,0.0449387,706,1275,-8.28598,-0.341432
-511,-251,-8.61444,0.734619,-0.0280002,0.0197919,-0.00420716,0.0201594,-0.0283678,-1.48366,0.0281505,0.0449553,713,1275,-8.61447,-0.734672
-504,-251,-8.69617,0.437866,-0.0315212,0.022488,-0.00148321,0.0225287,-0.0315619,-1.54336,0.031374,0.0455508,720,1275,-8.69617,-0.437823
-497,-251,-8.98346,0.827637,-0.0329929,0.0238403,0.0026449,0.0239631,-0.0331157,1.52439,0.0330954,0.047113,727,1275,-8.98346,-0.827683
-490,-251,0,0,0,0,0,0,0,0,0,-1,734,1275,0,0
-483,-251,0,0,0,0,0,0,0,0,0,-1,741,1275,0,0
-476,-251,0,0,0,0,0,0,0,0,0,-1,748,1275,0,0
-469,-251,0,0,0,0,0,0,0,0,0,-1,755,1275,0,0
-462,-251,0,0,0,0,0,0,0,0,0,-1,762,1275,0,0
-455,-251,0,0,0,0,0,0,0,0,0,-1,769,1275,0,0
-448,-251,0,0,0,0,0,0,0,0,0,-1,776,1275,0,0
-441,-251,0,0,0,0,0,0,0,0,0,-1,783,1275,0,0
-434,-251,0,0,0,0,0,0,0,0,0,-1,790,1275,0,0
-427,-251,0,0,0,0,0,0,0,0,0,-1,797,1275,0,0
-420,-251,0,0,0,0,0,0,0,0,0,-1,804,1275,0,0
-413,-251,0,0,0,0,0,0,0,0,0,-1,811,1275,0,0
-406,-251,0,0,0,0,0,0,0,0,0,-1,818,1275,0,0
-399,-251,0,0,0,0,0,0,0,0,0,-1,825,1275,0,0
-392,-251,0,0,0,0,0,0,0,0,0,-1,832,1275,0,0
-385,-251,0,0,0,0,0,0,0,0,0,-1,839,1275,0,0
-378,-251,0,0,0,0,0,0,0,0,0,-1,846,1275,0,0
-371,-251,0,0,0,0,0,0,0,0,0,-1,853,1275,0,0
-364,-251,0,0,0,0,0,0,0,0,0,-1,860,1275,0,0
-357,-251,0,0,0,0,0,0,0,0,0,-1,867,1275,0,0
-350,-251,0,0,0,0,0,0,0,0,0,-1,874,1275,0,0
-343,-251,0,0,0,0,0,0,0,0,0,-1,881,1275,0,0
-336,-251,0,0,0,0,0,0,0,0,0,-1,888,1275,0,0
-329,-251,0,0,0,0,0,0,0,0,0,-1,895,1275,0,0
-322,-251,0,0,0,0,0,0,0,0,0,-1,902,1275,0,0
-315,-251,0,0,0,0,0,0,0,0,0,-1,909,1275,0,0
-308,-251,0,0,0,0,0,0,0,0,0,-1,916,1275,0,0
-301,-251,0,0,0,0,0,0,0,0,0,-1,923,1275,0,0
-294,-251,0,0,0,0,0,0,0,0,0,-1,930,1275,0,0
-287,-251,0,0,0,0,0,0,0,0,0,-1,937,1275,0,0
-280,-251,0,0,0,0,0,0,0,0,0,-1,944,1275,0,0
-273,-251,0,0,0,0,0,0,0,0,0,-1,951,1275,0,0
-266,-251,0,0,0,0,0,0,0,0,0,-1,958,1275,0,0
-259,-251,0,0,0,0,0,0,0,0,0,-1,965,1275,0,0
-252,-251,0,0,0,0,0,0,0,0,0,-1,972,1275,0,0
-245,-251,0,0,0,0,0,0,0,0,0,-1,979,1275,0,0
-238,-251,0,0,0,0,0,0,0,0,0,-1,986,1275,0,0
-231,-251,0,0,0,0,0,0,0,0,0,-1,993,1275,0,0
-224,-251,0,0,0,0,0,0,0,0,0,-1,1000,1275,0,0
-217,-251,0,0,0,0,0,0,0,0,0,-1,1007,1275,0,0
-210,-251,0,0,0,0,0,0,0,0,0,-1,1014,1275,0,0
-203,-251,0,0,0,0,0,0,0,0,0,-1,1021,1275,0,0
-196,-251,0,0,0,0,0,0,0,0,0,-1,1028,1275,0,0
-189,-251,0,0,0,0,0,0,0,0,0,-1,1035,1275,0,0
-182,-251,0,0,0,0,0,0,0,0,0,-1,1042,1275,0,0
-175,-251,0,0,0,0,0,0,0,0,0,-1,1049,1275,0,0
-168,-251,0,0,0,0,0,0,0,0,0,-1,1056,1275,0,0
-161,-251,0,0,0,0,0,0,0,0,0,-1,1063,1275,0,0
-154,-251,0,0,0,0,0,0,0,0,0,-1,1070,1275,0,0
-147,-251,0,0,0,0,0,0,0,0,0,-1,1077,1275,0,0
-140,-251,0,0,0,0,0,0,0,0,0,-1,1084,1275,0,0
-133,-251,0,0,0,0,0,0,0,0,0,-1,1091,1275,0,0
-126,-251,0,0,0,0,0,0,0,0,0,-1,1098,1275,0,0
-119,-251,0,0,0,0,0,0,0,0,0,-1,1105,1275,0,0
-112,-251,0,0,0,0,0,0,0,0,0,-1,1112,1275,0,0
-105,-251,0,0,0,0,0,0,0,0,0,-1,1119,1275,0,0
-98,-251,0,0,0,0,0,0,0,0,0,-1,1126,1275,0,0
-91,-251,0,0,0,0,0,0,0,0,0,-1,1133,1275,0,0
-84,-251,0,0,0,0,0,0,0,0,0,-1,1140,1275,0,0
-77,-251,0,0,0,0,0,0,0,0,0,-1,1147,1275,0,0
-70,-251,0,0,0,0,0,0,0,0,0,-1,1154,1275,0,0
-63,-251,0,0,0,0,0,0,0,0,0,-1,1161,1275,0,0
-56,-251,0,0,0,0,0,0,0,0,0,-1,1168,1275,0,0
-49,-251,0,0,0,0,0,0,0,0,0,-1,1175,1275,0,0
-42,-251,0,0,0,0,0,0,0,0,0,-1,1182,1275,0,0
-35,-251,0,0,0,0,0,0,0,0,0,-1,1189,1275,0,0
-28,-251,0,0,0,0,0,0,0,0,0,-1,1196,1275,0,0
-21,-251,0,0,0,0,0,0,0,0,0,-1,1203,1275,0,0
-14,-251,0,0,0,0,0,0,0,0,0,-1,1210,1275,0,0
-7,-251,0,0,0,0,0,0,0,0,0,-1,1217,1275,0,0
0,-251,0,0,0,0,0,0,0,0,0,-1,1224,1275,0,0
7,-251,0,0,0,0,0,0,0,0,0,-1,1231,1275,0,0
14,-251,0,0,0,0,0,0,0,0,0,-1,1238,1275,0,0
21,-251,0,0,0,0,0,0,0,0,0,-1,1245,1275,0,0
28,-251,0,0,0,0,0,0,0,0,0,-1,1252,1275,0,0
35,-251,0,0,0,0,0,0,0,0,0,-1,1259,1275,0,0
42,-251,0,0,0,0,0,0,0,0,0,-1,1266,1275,0,0
49,-251,0,0,0,0,0,0,0,0,0,-1,1273,1275,0,0
56,-251,0,0,0,0,0,0,0,0,0,-1,1280,1275,0,0
63,-251,0,0,0,0,0,0,0,0,0,-1,1287,1275,0,0
70,-251,0,0,0,0,0,0,0,0,0,-1,1294,1275,0,0
77,-251,0,0,0,0,0,0,0,0,0,-1,1301,1275,0,0
84,-251,0,0,0,0,0,0,0,0,0,-1,1308,1275,0,0
91,-251,0,0,0,0,0,0,0,0,0,-1,1315,1275,0,0
98,-251,0,0,0,0,0,0,0,0,0,-1,1322,1275,0,0
105,-251,0,0,0,0,0,0,0,0,0,-1,1329,1275,0,0
112,-251,0,0,0,0,0,0,0,0,0,-1,1336,1275,0,0
119,-251,0,0,0,0,0,0,0,0,0,-1,1343,1275,0,0
126,-251,0,0,0,0,0,0,0,0,0,-1,1350,1275,0,0
133,-251,0,0,0,0,0,0,0,0,0,-1,1357,1275,0,0
140,-251,0,0,0,0,0,0,0,0,0,-1,1364,1275,0,0
147,-251,0,0,0,0,0,0,0,0,0,-1,1371,1275,0,0
154,-251,0,0,0,0,0,0,0,0,0,-1,1378,1275,0,0
161,-251,0,0,0,0,0,0,0,0,0,-1,1385,1275,0,0
168,-251,0,0,0,0,0,0,0,0,0,-1,1392,1275,0,0
175,-251,0,0,0,0,0,0,0,0,0,-1,1399,1275,0,0
182,-251,0,0,0,0,0,0,0,0,0,-1,1406,1275,0,0
189,-251,0,0,0,0,0,0,0,0,0,-1,1413,1275,0,0
196,-251,0,0,0,0,0,0,0,0,0,-1,1420,1275,0,0
203,-251,0,0,0,0,0,0,0,0,0,-1,1427,1275,0,0
210,-251,0,0,0,0,0,0,0,0,0,-1,1434,1275,0,0
217,-251,0,0,0,0,0,0,0,0,0,-1,1441,1275,0,0
224,-251,0,0,0,0,0,0,0,0,0,-1,1448,1275,0,0
231,-251,0,0,0,0,0,0,0,0,0,-1,1455,1275,0,0
238,-251,0,0,0,0,0,0,0,0,0,-1,1462,1275,0,0
245,-251,0,0,0,0,0,0,0,0,0,-1,1469,1275,0,0
252,-251,0,0,0,0,0,0,0,0,0,-1,1476,1275,0,0
259,-251,0,0,0,0,0,0,0,0,0,-1,1483,1275,0,0
266,-251,0,0,0,0,0,0,0,0,0,-1,1490,1275,0,0
273,-251,0,0,0,0,0,0,0,0,0,-1,1497,1275,0,0
280,-251,0,0,0,0,0,0,0,0,0,-1,1504,1275,0,0
287,-251,0,0,0,0,0,0,0,0,0,-1,1511,1275,0,0
294,-251,0,0,0,0,0,0,0,0,0,-1,1518,1275,0,0
301,-251,0,0,0,0,0,0,0,0,0,-1,1525,1275,0,0
308,-251,0,0,0,0,0,0,0,0,0,-1,1532,1275,0,0
315,-251,0,0,0,0,0,0,0,0,0,-1,1539,1275,0,0
322,-251,0,0,0,0,0,0,0,0,0,-1,1546,1275,0,0
329,-251,0,0,0,0,0,0,0,0,0,-1,1553,1275,0,0
336,-251,0,0,0,0,0,0,0,0,0,-1,1560,1275,0,0
343,-251,0,0,0,0,0,0,0,0,0,-1,1567,1275,0,0
350,-251,0,0,0,0,0,0,0,0,0,-1,1574,1275,0,0
357,-251,0,0,0,0,0,0,0,0,0,-1,1581,1275,0,0
364,-251,0,0,0,0,0,0,0,0,0,-1,1588,1275,0,0
371,-251,0,0,0,0,0,0,0,0,0,-1,1595,1275,0,0
378,-251,0,0,0,0,0,0,0,0,0,-1,1602,1275,0,0
385,-251,0,0,0,0,0,0,0,0,0,-1,1609,1275,0,0
392,-251,0,0,0,0,0,0,0,0,0,-1,1616,1275,0,0
399,-251,0,0,0,0,0,0,0,0,0,-1,1623,1275,0,0
406,-251,0,0,0,0,0,0,0,0,0,-1,1630,1275,0,0
413,-251,0,0,0,0,0,0,0,0,0,-1,1637,1275,0,0
420,-251,0,0,0,0,0,0,0,0,0,-1,1644,1275,0,0
427,-251,0,0,0,0,0,0,0,0,0,-1,1651,1275,0,0
434,-251,0,0,0,0,0,0,0,0,0,-1,1658,1275,0,0
441,-251,0,0,0,0,0,0,0,0,0,-1,1665,1275,0,0
448,-251,0,0,0,0,0,0,0,0,0,-1,1672,1275,0,0
455,-251,0,0,0,0,0,0,0,0,0,-1,1679,1275,0,0
462,-251,0,0,0,0,0,0,0,0,0,-1,1686,1275,0,0
469,-251,0,0,0,0,0,0,0,0,0,-1,1693,1275,0,0
476,-251,0,0,0,0,0,0,0,0,0,-1,1700,1275,0,0
483,-251,0,0,0,0,0,0,0,0,0,-1,1707,1275,0,0
490,-251,0,0,0,0,0,0,0,0,0,-1,1714,1275,0,0
497,-251,0,0,0,0,0,0,0,0,0,-1,1721,1275,0,0
504,-251,0,0,0,0,0,0,0,0,0,-1,1728,1275,0,0
511,-251,0,0,0,0,0,0,0,0,0,-1,1735,1275,0,0
518,-251,0,0,0,0,0,0,0,0,0,-1,1742,1275,0,0
525,-251,0,0,0,0,0,0,0,0,0,-1,1749,1275,0,0
532,-251,0,0,0,0,0,0,0,0,0,-1,1756,1275,0,0
539,-251,0,0,0,0,0,0,0,0,0,-1,1763,1275,0,0
546,-251,0,0,0,0,0,0,0,0,0,-1,1770,1275,0,0
553,-251,0,0,0,0,0,0,0,0,0,-1,1777,1275,0,0
560,-251,0,0,0,0,0,0,0,0,0,-1,1784,1275,0,0
567,-251,0,0,0,0,0,0,0,0,0,-1,1791,1275,0,0
574,-251,0,0,0,0,0,0,0,0,0,-1,1798,1275,0,0
581,-251,0,0,0,0,0,0,0,0,0,-1,1805,1275,0,0
588,-251,0,0,0,0,0,0,0,0,0,-1,1812,1275,0,0
595,-251,0,0,0,0,0,0,0,0,0,-1,1819,1275,0,0
602,-251,0,0,0,0,0,0,0,0,0,-1,1826,1275,0,0
609,-251,15.0436,2.29895,-0.000551653,0.00364768,-0.00846832,0.0102727,-0.00717672,-0.906919,0.0101272,0.0333932,1833,1275,15.0435,-2.299
616,-251,15.0404,2.28259,-2.40927e-05,0.0100217,-0.00580225,0.0126731,-0.00267554,-1.14216,0.00946747,0.026752,1840,1275,15.0405,-2.28264
623,-251,15.0328,2.32727,-0.00164021,0.0124389,-0.00151063,0.0125992,-0.00180046,-1.4651,0.00905945,0.0211263,1847,1275,15.0328,-2.32731
630,-251,15.0461,2.27686,-0.00394356,0.0129167,0.00239578,0.0132505,-0.00427738,1.43235,0.0105525,0.033008,1854,1275,15.0461,-2.27683
637,-251,14.9573,2.11816,-0.00612897,0.0120776,0.00533604,0.0135263,-0.00757761,1.3057,0.0123446,0.0410282,1861,1275,14.9573,-2.11815
644,-251,14.7262,1.93335,-0.00768335,0.0105095,0.0072669,0.0130558,-0.0102296,1.23377,0.0134768,0.04378,1868,1275,14.7262,-1.93333
651,-251,14.6566,1.73364,-0.00858279,0.00881016,0.00839283,0.0121995,-0.0119722,1.18698,0.0139558,0.0453931,1875,1275,14.6566,-1.7337
658,-251,14.5992,1.48438,0,0,0,0,0,0,0,-1,1882,1275,14.5993,-1.48443
665,-251,13.9196,0.474243,-0.00872687,0.00578112,0.00909869,0.0101636,-0.0131093,1.12193,0.0134724,0.0488698,1889,1275,13.9196,-0.474198
672,-251,12.974,3.91467,0,0,0,0,0,0,0,-1,1896,1275,12.974,-3.91467
679,-251,12.724,3.93701,-0.00751802,0.00351308,0.00851606,0.00814369,-0.0121486,1.07276,0.0117916,0.0388718,1903,1275,12.724,-3.93702
686,-251,12.7131,4.00586,-0.00733531,0.00106769,0.00764603,0.00559055,-0.0118582,1.03663,0.0102884,0.018587,1910,1275,12.7131,-4.00588
693,-251,12.7631,3.91687,-0.00599977,0.000567683,0.00664511,0.00469613,-0.0101282,1.01488,0.00874828,0.00874265,1917,1275,12.763,-3.91681
700,-251,12.7689,3.79761,-0.00379709,0.000154133,0.00502904,0.00358169,-0.00722465,0.972558,0.00635612,0.00824337,1924,1275,12.7689,-3.79759
707,-251,12.7821,3.68652,-0.00187208,-0.000141826,0.00352185,0.0026196,-0.0046335,0.905836,0.00424105,0.0105432,1931,1275,12.7821,-3.68656
714,-251,12.7766,3.57104,-0.00161235,0.000277994,0.00238786,0.00190094,-0.0032353,0.973849,0.00299858,0.0112625,1938,1275,12.7767,-3.57107
721,-251,12.7561,3.43457,-0.00285218,0.00103463,0.00100975,0.00128129,-0.00309885,1.3312,0.00260044,0.0126705,1945,1275,12.7561,-3.43455
728,-251,12.7661,3.31348,-0.00575142,0.00213386,8.44816e-05,0.00213477,-0.00575232,1.56008,0.00471057,0.0137423,1952,1275,12.7661,-3.31347
735,-251,12.7794,3.21033,-0.0103472,0.00402457,-0.000792392,0.00406813,-0.0103908,-1.51588,0.00860978,0.0135002,1959,1275,12.7794,-3.21029
742,-251,12.793,3.09363,-0.0161035,0.00611886,-0.00148972,0.00621828,-0.0162029,-1.50416,0.0133659,0.0142082,1966,1275,12.7929,-3.09367
749,-251,12.7903,3.01111,-0.0240288,0.00881692,-0.00232284,0.00898037,-0.0241923,-1.50054,0.0198121,0.0227495,1973,1275,12.7903,-3.01111
756,-251,12.9142,3.23743,-0.0345173,0.0122706,-0.00338067,0.0125136,-0.0347603,-1.49904,0.028283,0.0385052,1980,1275,12.9142,-3.23744
763,-251,14.8368,2.83264,0,0,0,0,0,0,0,-1,1987,1275,14.8368,-2.83261
770,-251,13.7849,2.30554,-0.0645052,0.0222467,-0.00650298,0.0227315,-0.0649899,-1.49639,0.0525684,0.0445726,1994,1275,13.7849,-2.30554
777,-251,12.6903,1.83862,-0.0847237,0.0292385,-0.00868101,0.029896,-0.0853812,-1.4952,0.0690773,0.0455941,2001,1275,12.6904,-1.83858
784,-251,11.5773,1.18152,-0.108835,0.0380837,-0.0113824,0.0389603,-0.109711,-1.49393,0.0890165,0.045002,2008,1275,11.5773,-1.18157
791,-251,0,0,0,0,0,0,0,0,0,-1,2015,1275,0,0
798,-251,0,0,0,0,0,0,0,0,0,-1,2022,1275,0,0
805,-251,0,0,0,0,0,0,0,0,0,-1,2029,1275,0,0
812,-251,0,0,0,0,0,0,0,0,0,-1,2036,1275,0,0
-700,-258,0,0,0,0,0,0,0,0,0,-1,524,1282,0,0
-693,-258,0,0,0,0,0,0,0,0,0,-1,531,1282,0,0
-686,-258,0,0,0,0,0,0,0,0,0,-1,538,1282,0,0
-679,-258,0,0,0,0,0,0,0,0,0,-1,545,1282,0,0
-672,-258,0,0,0,0,0,0,0,0,0,-1,552,1282,0,0
-665,-258,-6.32971,1.32922,0.0827282,-0.0304998,-0.0388058,0.0947511,-0.0425228,-0.300445,0.0811447,0.0446833,559,1282,-6.3297,-1.32919
-658,-258,-4.72052,0.168579,0.0675915,-0.0223261,-0.0343178,0.0791925,-0.0339271,-0.325984,0.0670299,0.0477791,566,1282,-4.72049,-0.168536
-651,-258,-5.06201,0.522583,0.0551696,-0.0153105,-0.0289635,0.0655447,-0.0256856,-0.343974,0.0543217,0.0489621,573,1282,-5.06198,-0.522607
-644,-258,-6.45862,0.780029,0.0448007,-0.0096048,-0.0234986,0.0535448,-0.0183489,-0.356235,0.0431339,0.0450839,580,1282,-6.45862,-0.780089
-637,-258,-7.4458,1.15613,0.0361746,-0.00514721,-0.0183226,0.0431288,-0.0121014,-0.362744,0.0335225,0.0414389,587,1282,-7.44583,-1.15617
-630,-258,-6.26581,0.635864,0.028936,-0.00183822,-0.0136815,0.0341389,-0.00704107,-0.363395,0.0254332,0.0482491,594,1282,-6.2658,-0.635804
-623,-258,-6.35034,0.797485,0.0228426,0.000222103,-0.00975986,0.0264714,-0.00340675,-0.355975,0.0188859,0.044999,601,1282,-6.35036,-0.797439
-616,-258,-6.26721,0.957764,0.0175114,0.00137344,-0.00665517,0.0199019,-0.00101701,-0.344835,0.0136196,0.0300904,608,1282,-6.26722,-0.957754
-609,-258,-6.21985,1.07178,0.0126722,0.00255215,-0.00410413,0.0141274,0.00109698,-0.340733,0.0090747,0.0150996,615,1282,-6.21986,-1.07181
-602,-258,-6.22137,1.2063,0.00896111,0.00360777,-0.0019887,0.00961903,0.00294985,-0.319496,0.00569025,0.0123437,622,1282,-6.22137,-1.20631
-595,-258,-6.22601,1.33728,0.00752977,0.00245335,-0.000363409,0.00755565,0.00242747,-0.0711044,0.00445418,0.0109119,629,1282,-6.22599,-1.33725
-588,-258,-6.22192,1.47595,0.00626666,0.00190514,0.000326487,0.00629096,0.00188083,0.0743043,0.00372866,0.0120279,636,1282,-6.2219,-1.47598
-581,-258,-6.2121,1.63403,0.00429516,0.000776485,0.000127373,0.00429976,0.00077188,0.036136,0.002647,0.0134052,643,1282,-6.21207,-1.63398
-574,-258,-6.19965,1.79407,0.00273925,-0.000419283,-0.00146135,0.00331164,-0.000991677,-0.373319,0.00260209,0.0133078,650,1282,-6.19967,-1.79408
-567,-258,-6.23389,1.92834,0.000734661,-5.2868e-05,-0.0031582,0.00352355,-0.00284176,-0.723378,0.00368203,0.0126289,657,1282,-6.2339,-1.92832
-560,-258,-6.23364,2.06177,-0.00177397,0.00128766,-0.004049,0.00408556,-0.00457187,-0.966129,0.005001,0.0183005,664,1282,-6.23361,-2.06179
-553,-258,-6.18628,2.18701,-0.00435245,0.00276135,-0.00483507,0.00520691,-0.006798,-1.10252,0.0069513,0.0255073,671,1282,-6.18626,-2.18707
-546,-258,-5.89172,1.91589,-0.00733096,0.00443517,-0.00549767,0.00660412,-0.0094999,-1.19502,0.00934763,0.0410396,678,1282,-5.89171,-1.91585
-539,-258,-5.76581,1.67188,0,0,0,0,0,0,0,-1,685,1282,-5.76583,-1.67184
-532,-258,-5.67474,1.66785,0,0,0,0,0,0,0,-1,692,1282,-5.67476,-1.66779
-525,-258,-7.24213,1.35986,-0.0186536,0.0122574,-0.00714174,0.0138276,-0.0202239,-1.35437,0.0197749,0.0459096,699,1282,-7.24213,-1.35987
-518,-258,-7.20587,-1.18079,-0.0229623,0.0154974,-0.00681106,0.016668,-0.0241329,-1.40059,0.0236875,0.0465998,706,1282,-7.20589,1.18084
-511,-258,-8.40521,0.729858,-0.0272861,0.0187801,-0.00581059,0.0195017,-0.0280077,-1.44724,0.0275757,0.0466169,713,1282,-8.40521,-0.7298
-504,-258,-8.26184,0.041626,-0.0311995,0.0217763,-0.00392704,0.0220658,-0.0314891,-1.4972,0.0310791,0.046125,720,1282,-8.26184,-0.0416242
-497,-258,-8.67596,0.426147,-0.0338102,0.0240012,-0.000997342,0.0240184,-0.0338274,-1.55355,0.033557,0.0468162,727,1282,-8.67593,-0.426185
-490,-258,-8.90692,0.705933,0,0,0,0,0,0,0,-1,734,1282,-8.90695,-0.705968
-483,-258,0,0,0,0,0,0,0,0,0,-1,741,1282,0,0
-476,-258,0,0,0,0,0,0,0,0,0,-1,748,1282,0,0
-469,-258,0,0,0,0,0,0,0,0,0,-1,755,1282,0,0
-462,-258,0,0,0,0,0,0,0,0,0,-1,762,1282,0,0
-455,-258,0,0,0,0,0,0,0,0,0,-1,769,1282,0,0
-448,-258,0,0,0,0,0,0,0,0,0,-1,776,1282,0,0
-441,-258,0,0,0,0,0,0,0,0,0,-1,783,1282,0,0
-434,-258,0,0,0,0,0,0,0,0,0,-1,790,1282,0,0
-427,-258,0,0,0,0,0,0,0,0,0,-1,797,1282,0,0
-420,-258,0,0,0,0,0,0,0,0,0,-1,804,1282,0,0
-413,-258,0,0,0,0,0,0,0,0,0,-1,811,1282,0,0
-406,-258,0,0,0,0,0,0,0,0,0,-1,818,1282,0,0
-399,-258,0,0,0,0,0,0,0,0,0,-1,825,1282,0,0
-392,-258,0,0,0,0,0,0,0,0,0,-1,832,1282,0,0
-385,-258,0,0,0,0,0,0,0,0,0,-1,839,1282,0,0
-378,-258,0,0,0,0,0,0,0,0,0,-1,846,1282,0,0
-371,-258,0,0,0,0,0,0,0,0,0,-1,853,1282,0,0
-364,-258,0,0,0,0,0,0,0,0,0,-1,860,1282,0,0
-357,-258,0,0,0,0,0,0,0,0,0,-1,867,1282,0,0
-350,-258,0,0,0,0,0,0,0,0,0,-1,874,1282,0,0
-343,-258,0,0,0,0,0,0,0,0,0,-1,881,1282,0,0
-336,-258,0,0,0,0,0,0,0,0,0,-1,888,1282,0,0
-329,-258,0,0,0,0,0,0,0,0,0,-1,895,1282,0,0
-322,-258,0,0,0,0,0,0,0,0,0,-1,902,1282,0,0
-315,-258,0,0,0,0,0,0,0,0,0,-1,909,1282,0,0
-308,-258,0,0,0,0,0,0,0,0,0,-1,916,1282,0,0
-301,-258,0,0,0,0,0,0,0,0,0,-1,923,1282,0,0
-294,-258,0,0,0,0,0,0,0,0,0,-1,930,1282,0,0
-287,-258,0,0,0,0,0,0,0,0,0,-1,937,1282,0,0
-280,-258,0,0,0,0,0,0,0,0,0,-1,944,1282,0,0
-273,-258,0,0,0,0,0,0,0,0,0,-1,951,1282,0,0
-266,-258,0,0,0,0,0,0,0,0,0,-1,958,1282,0,0
-259,-258,0,0,0,0,0,0,0,0,0,-1,965,1282,0,0
-252,-258,0,0,0,0,0,0,0,0,0,-1,972,1282,0,0
-245,-258,0,0,0,0,0,0,0,0,0,-1,979,1282,0,0
-238,-258,0,0,0,0,0,0,0,0,0,-1,986,1282,0,0
-231,-258,0,0,0,0,0,0,0,0,0,-1,993,1282,0,0
-224,-258,0,0,0,0,0,0,0,0,0,-1,1000,1282,0,0
-217,-258,0,0,0,0,0,0,0,0,0,-1,1007,1282,0,0
-210,-258,0,0,0,0,0,0,0,0,0,-1,1014,1282,0,0
-203,-258,0,0,0,0,0,0,0,0,0,-1,1021,1282,0,0
-196,-258,0,0,0,0,0,0,0,0,0,-1,1028,1282,0,0
-189,-258,0,0,0,0,0,0,0,0,0,-1,1035,1282,0,0
-182,-258,0,0,0,0,0,0,0,0,0,-1,1042,1282,0,0
-175,-258,0,0,0,0,0,0,0,0,0,-1,1049,1282,0,0
-168,-258,0,0,0,0,0,0,0,0,0,-1,1056,1282,0,0
-161,-258,0,0,0,0,0,0,0,0,0,-1,1063,1282,0,0
-154,-258,0,0,0,0,0,0,0,0,0,-1,1070,1282,0,0
-147,-258,0,0,0,0,0,0,0,0,0,-1,1077,1282,0,0
-140,-258,0,0,0,0,0,0,0,0,0,-1,1084,1282,0,0
-133,-258,0,0,0,0,0,0,0,0,0,-1,1091,1282,0,0
-126,-258,0,0,0,0,0,0,0,0,0,-1,1098,1282,0,0
-119,-258,0,0,0,0,0,0,0,0,0,-1,1105,1282,0,0
-112,-258,0,0,0,0,0,0,0,0,0,-1,1112,1282,0,0
-105,-258,0,0,0,0,0,0,0,0,0,-1,1119,1282,0,0
-98,-258,0,0,0,0,0,0,0,0,0,-1,1126,1282,0,0
-91,-258,0,0,0,0,0,0,0,0,0,-1,1133,1282,0,0
-84,-258,0,0,0,0,0,0,0,0,0,-1,1140,1282,0,0
-77,-258,0,0,0,0,0,0,0,0,0,-1,1147,1282,0,0
-70,-258,0,0,0,0,0,0,0,0,0,-1,1154,1282,0,0
-63,-258,0,0,0,0,0,0,0,0,0,-1,1161,1282,0,0
-56,-258,0,0,0,0,0,0,0,0,0,-1,1168,1282,0,0
-49,-258,0,0,0,0,0,0,0,0,0,-1,1175,1282,0,0
-42,-258,0,0,0,0,0,0,0,0,0,-1,1182,1282,0,0
-35,-258,0,0,0,0,0,0,0,0,0,-1,1189,1282,0,0
-28,-258,0,0,0,0,0,0,0,0,0,-1,1196,1282,0,0
-21,-258,0,0,0,0,0,0,0,0,0,-1,1203,1282,0,0
-14,-258,0,0,0,0,0,0,0,0,0,-1,1210,1282,0,0
-7,-258,0,0,0,0,0,0,0,0,0,-1,1217,1282,0,0
0,-258,0,0,0,0,0,0,0,0,0,-1,1224,1282,0,0
7,-258,0,0,0,0,0,0,0,0,0,-1,1231,1282,0,0
14,-258,0,0,0,0,0,0,0,0,0,-1,1238,1282,0,0
21,-258,0,0,0,0,0,0,0,0,0,-1,1245,1282,0,0
28,-258,0,0,0,0,0,0,0,0,0,-1,1252,1282,0,0
35,-258,0,0,0,0,0,0,0,0,0,-1,1259,1282,0,0
42,-258,0,0,0,0,0,0,0,0,0,-1,1266,1282,0,0
49,-258,0,0,0,0,0,0,0,0,0,-1,1273,1282,0,0
56,-258,0,0,0,0,0,0,0,0,0,-1,1280,1282,0,0
63,-258,0,0,0,0,0,0,0,0,0,-1,1287,1282,0,0
70,-258,0,0,0,0,0,0,0,0,0,-1,1294,1282,0,0
77,-258,0,0,0,0,0,0,0,0,0,-1,1301,1282,0,0
84,-258,0,0,0,0,0,0,0,0,0,-1,1308,1282,0,0
91,-258,0,0,0,0,0,0,0,0,0,-1,1315,1282,0,0
98,-258,0,0,0,0,0,0,0,0,0,-1,1322,1282,0,0
105,-258,0,0,0,0,0,0,0,0,0,-1,1329,1282,0,0
112,-258,0,0,0,0,0,0,0,0,0,-1,1336,1282,0,0
119,-258,0,0,0,0,0,0,0,0,0,-1,1343,1282,0,0
126,-258,0,0,0,0,0,0,0,0,0,-1,1350,1282,0,0
133,-258,0,0,0,0,0,0,0,0,0,-1,1357,1282,0,0
140,-258,0,0,0,0,0,0,0,0,0,-1,1364,1282,0,0
147,-258,0,0,0,0,0,0,0,0,0,-1,1371,1282,0,0
154,-258,0,0,0,0,0,0,0,0,0,-1,1378,1282,0,0
161,-258,0,0,0,0,0,0,0,0,0,-1,1385,1282,0,0
168,-258,0,0,0,0,0,0,0,0,0,-1,1392,1282,0,0
175,-258,0,0,0,0,0,0,0,0,0,-1,1399,1282,0,0
182,-258,0,0,0,0,0,0,0,0,0,-1,1406,1282,0,0
189,-258,0,0,0,0,0,0,0,0,0,-1,1413,1282,0,0
196,-258,0,0,0,0,0,0,0,0,0,-1,1420,1282,0,0
203,-258,0,0,0,0,0,0,0,0,0,-1,1427,1282,0,0
210,-258,0,0,0,0,0,0,0,0,0,-1,1434,1282,0,0
217,-258,0,0,0,0,0,0,0,0,0,-1,1441,1282,0,0
224,-258,0,0,0,0,0,0,0,0,0,-1,1448,1282,0,0
231,-258,0,0,0,0,0,0,0,0,0,-1,1455,1282,0,0
238,-258,0,0,0,0,0,0,0,0,0,-1,1462,1282,0,0
245,-258,0,0,0,0,0,0,0,0,0,-1,1469,1282,0,0
252,-258,0,0,0,0,0,0,0,0,0,-1,1476,1282,0,0
259,-258,0,0,0,0,0,0,0,0,0,-1,1483,1282,0,0
266,-258,0,0,0,0,0,0,0,0,0,-1,1490,1282,0,0
273,-258,0,0,0,0,0,0,0,0,0,-1,1497,1282,0,0
280,-258,0,0,0,0,0,0,0,0,0,-1,1504,1282,0,0
287,-258,0,0,0,0,0,0,0,0,0,-1,1511,1282,0,0
294,-258,0,0,0,0,0,0,0,0,0,-1,1518,1282,0,0
301,-258,0,0,0,0,0,0,0,0,0,-1,1525,1282,0,0
308,-258,0,0,0,0,0,0,0,0,0,-1,1532,1282,0,0
315,-258,0,0,0,0,0,0,0,0,0,-1,1539,1282,0,0
322,-258,0,0,0,0,0,0,0,0,0,-1,1546,1282,0,0
329,-258,0,0,0,0,0,0,0,0,0,-1,1553,1282,0,0
336,-258,0,0,0,0,0,0,0,0,0,-1,1560,1282,0,0
343,-258,0,0,0,0,0,0,0,0,0,-1,1567,1282,0,0
350,-258,0,0,0,0,0,0,0,0,0,-1,1574,1282,0,0
357,-258,0,0,0,0,0,0,0,0,0,-1,1581,1282,0,0
364,-258,0,0,0,0,0,0,0,0,0,-1,1588,1282,0,0
371,-258,0,0,0,0,0,0,0,0,0,-1,1595,1282,0,0
378,-258,0,0,0,0,0,0,0,0,0,-1,1602,1282,0,0
385,-258,0,0,0,0,0,0,0,0,0,-1,1609,1282,0,0
392,-258,0,0,0,0,0,0,0,0,0,-1,1616,1282,0,0
399,-258,0,0,0,0,0,0,0,0,0,-1,1623,1282,0,0
406,-258,0,0,0,0,0,0,0,0,0,-1,1630,1282,0,0
413,-258,0,0,0,0,0,0,0,0,0,-1,1637,1282,0,0
420,-258,0,0,0,0,0,0,0,0,0,-1,1644,1282,0,0
427,-258,0,0,0,0,0,0,0,0,0,-1,1651,1282,0,0
434,-258,0,0,0,0,0,0,0,0,0,-1,1658,1282,0,0
441,-258,0,0,0,0,0,0,0,0,0,-1,1665,1282,0,0
448,-258,0,0,0,0,0,0,0,0,0,-1,1672,1282,0,0
455,-258,0,0,0,0,0,0,0,0,0,-1,1679,1282,0,0
462,-258,0,0,0,0,0,0,0,0,0,-1,1686,1282,0,0
469,-258,0,0,0,0,0,0,0,0,0,-1,1693,1282,0,0
476,-258,0,0,0,0,0,0,0,0,0,-1,1700,1282,0,0
483,-258,0,0,0,0,0,0,0,0,0,-1,1707,1282,0,0
490,-258,0,0,0,0,0,0,0,0,0,-1,1714,1282,0,0
497,-258,0,0,0,0,0,0,0,0,0,-1,1721,1282,0,0
504,-258,0,0,0,0,0,0,0,0,0,-1,1728,1282,0,0
511,-258,0,0,0,0,0,0,0,0,0,-1,1735,1282,0,0
518,-258,0,0,0,0,0,0,0,0,0,-1,1742,1282,0,0
525,-258,0,0,0,0,0,0,0,0,0,-1,1749,1282,0,0
532,-258,0,0,0,0,0,0,0,0,0,-1,1756,1282,0,0
539,-258,0,0,0,0,0,0,0,0,0,-1,1763,1282,0,0
546,-258,0,0,0,0,0,0,0,0,0,-1,1770,1282,0,0
553,-258,0,0,0,0,0,0,0,0,0,-1,1777,1282,0,0
560,-258,0,0,0,0,0,0,0,0,0,-1,1784,1282,0,0
567,-258,0,0,0,0,0,0,0,0,0,-1,1791,1282,0,0
574,-258,0,0,0,0,0,0,0,0,0,-1,1798,1282,0,0
581,-258,0,0,0,0,0,0,0,0,0,-1,1805,1282,0,0
588,-258,0,0,0,0,0,0,0,0,0,-1,1812,1282,0,0
595,-258,0,0,0,0,0,0,0,0,0,-1,1819,1282,0,0
602,-258,0,0,0,0,0,0,0,0,0,-1,1826,1282,0,0
609,-258,15.0851,2.2998,1.86839e-05,0.00651241,-0.00786657,0.0117758,-0.00524474,-0.981119,0.0100651,0.0269677,1833,1282,15.0851,-2.29979
616,-258,15.0139,2.31226,0.0004673,0.0128624,-0.00413941,0.0141177,-0.000787956,-1.27636,0.00968511,0.0234955,1840,1282,15.0139,-2.3122
623,-258,14.9202,2.2677,-0.00117828,0.0149317,0.000490375,0.0149466,-0.0011932,1.54039,0.010385,0.030885,1847,1282,14.9202,-2.26768
630,-258,14.8113,1.99268,-0.0035222,0.0147413,0.00436542,0.0157311,-0.004512,1.34783,0.0122711,0.0410372,1854,1282,14.8112,-1.99265
637,-258,14.6085,1.92993,-0.00575645,0.0132222,0.00708481,0.0155752,-0.0081095,1.25013,0.013899,0.0430865,1861,1282,14.6085,-1.92998
644,-258,14.4819,1.78735,-0.00739923,0.0111093,0.00874316,0.0145863,-0.0108762,1.19229,0.0147527,0.0449759,1868,1282,14.482,-1.7874
651,-258,14.3905,1.48254,-0.00844089,0.00900392,0.00961857,0.013266,-0.012703,1.15369,0.0149944,0.045633,1875,1282,14.3906,-1.48253
658,-258,14.2881,1.08704,-0.00889117,0.00719017,0.0100665,0.0120331,-0.0137341,1.12239,0.0148875,0.0476488,1882,1282,14.288,-1.08698
665,-258,13.7356,0.83606,-0.00882973,0.00546499,0.00999475,0.010605,-0.0139698,1.0958,0.0142325,0.0446053,1889,1282,13.7357,-0.836111
672,-258,12.9385,0.678955,0,0,0,0,0,0,0,-1,1896,1282,12.9385,-0.678923
679,-258,12.723,4.01746,-0.00772585,0.0027607,0.0091442,0.00805822,-0.0130234,1.04571,0.0122835,0.0307895,1903,1282,12.7231,-4.01749
686,-258,12.6079,4.04504,-0.00777404,5.70461e-05,0.00794091,0.00499529,-0.0127123,1.01445,0.0105421,0.0177235,1910,1282,12.6079,-4.04503
693,-258,12.6544,3.90906,-0.00637961,-0.000260414,0.00669848,0.00404415,-0.0106842,0.999629,0.00878673,0.0093804,1917,1282,12.6544,-3.90906
700,-258,12.6595,3.77832,-0.00389061,-0.000417635,0.00482829,0.00297694,-0.00728519,0.95802,0.0060964,0.00858707,1924,1282,12.6595,-3.77831
707,-258,12.6682,3.66455,-0.0017473,-0.000438455,0.00316925,0.00214323,-0.00432898,0.887213,0.0038071,0.0103367,1931,1282,12.6682,-3.66458
714,-258,12.6554,3.55371,-0.00169049,0.000224644,0.00203693,0.00151786,-0.00298371,1.00512,0.00264451,0.0101946,1938,1282,12.6554,-3.55367
721,-258,12.6438,3.45386,-0.00336756,0.00113711,0.000736064,0.00125433,-0.00348479,1.41287,0.00283535,0.0112412,1945,1282,12.6438,-3.45391
728,-258,12.6497,3.34509,-0.0067996,0.00231658,-0.000132898,0.00231852,-0.00680154,-1.55622,0.00547341,0.0106946,1952,1282,12.6497,-3.34505
735,-258,12.6609,3.23389,-0.012141,0.00419395,-0.000911196,0.00424462,-0.0121916,-1.51524,0.00985229,0.0132164,1959,1282,12.6609,-3.23389
742,-258,12.6777,3.12512,-0.0189489,0.00624954,-0.00153182,0.00634232,-0.0190417,-1.5103,0.0152546,0.015722,1966,1282,12.6778,-3.1251
749,-258,12.663,3.04846,-0.0283534,0.00889675,-0.00227271,0.0090349,-0.0284915,-1.51008,0.0226158,0.0270965,1973,1282,12.6629,-3.04848
756,-258,12.7446,3.11853,-0.0407714,0.0122747,-0.00322283,0.0124698,-0.0409665,-1.51034,0.0322807,0.039749,1980,1282,12.7446,-3.11856
763,-258,14.8292,2.37097,0,0,0,0,0,0,0,-1,1987,1282,14.8292,-2.37098
770,-258,13.8539,1.87012,-0.0763475,0.0218118,-0.00598489,0.0221753,-0.076711,-1.51012,0.0599163,0.0437359,1994,1282,13.8539,-1.87014
777,-258,12.7872,1.67578,-0.100377,0.0283493,-0.00790236,0.0288326,-0.10086,-1.50971,0.0786332,0.0441155,2001,1282,12.7872,-1.67573
784,-258,10.8702,0.87439,-0.129113,0.0365067,-0.0103093,0.0371459,-0.129752,-1.50887,0.101182,0.0444088,2008,1282,10.8703,-0.87433
791,-258,0,0,0,0,0,0,0,0,0,-1,2015,1282,0,0
798,-258,0,0,0,0,0,0,0,0,0,-1,2022,1282,0,0
805,-258,0,0,0,0,0,0,0,0,0,-1,2029,1282,0,0
812,-258,0,0,0,0,0,0,0,0,0,-1,2036,1282,0,0
-700,-265,0,0,0,0,0,0,0,0,0,-1,524,1289,0,0
-693,-265,0,0,0,0,0,0,0,0,0,-1,531,1289,0,0
-686,-265,0,0,0,0,0,0,0,0,0,-1,538,1289,0,0
-679,-265,0,0,0,0,0,0,0,0,0,-1,545,1289,0,0
-672,-265,0,0,0,0,0,0,0,0,0,-1,552,1289,0,0
-665,-265,-6.29279,1.96997,0.0728991,-0.042361,-0.0478138,0.0901515,-0.0596134,-0.346286,0.087064,0.0442232,559,1289,-6.29282,-1.96995
-658,-265,-5.76776,1.77209,0.0594222,-0.0293228,-0.0418276,0.0760289,-0.0459295,-0.377942,0.0711239,0.0479635,566,1289,-5.76775,-1.77204
-651,-265,-4.4455,0.645874,0,0,0,0,0,0,0,-1,573,1289,-4.4455,-0.645909
-644,-265,-6.66785,0.83667,0.0405721,-0.0108474,-0.0276727,0.0526349,-0.0229103,-0.411077,0.0447273,0.0470172,580,1289,-6.66782,-0.836646
-637,-265,-6.43304,0.889404,0.0335625,-0.00487165,-0.0210969,0.0428827,-0.0141918,-0.415997,0.0343118,0.0458378,587,1289,-6.43301,-0.889349
-630,-265,-6.33246,0.829102,0.0275957,-0.000658947,-0.0153093,0.0343,-0.00736324,-0.412765,0.0256755,0.0469355,594,1289,-6.33248,-0.829066
-623,-265,-6.25977,0.849121,0.0224198,0.00196366,-0.0104831,0.0268379,-0.00245441,-0.398856,0.0187637,0.0438533,601,1289,-6.25974,-0.849145
-616,-265,-6.18353,0.891968,0.0177474,0.00332629,-0.00671661,0.0203911,0.000682665,-0.374973,0.0133723,0.0323462,608,1289,-6.18352,-0.891915
-609,-265,-6.07678,1.07031,0.0132462,0.00445601,-0.00380156,0.0146622,0.00304002,-0.356556,0.00893552,0.0145858,615,1289,-6.07681,-1.07032
-602,-265,-6.08472,1.19519,0.00976215,0.00550109,-0.00159305,0.0102919,0.00497136,-0.321022,0.00594316,0.0131526,622,1289,-6.0847,-1.1952
-595,-265,-6.08502,1.35291,0.00828174,0.00397344,0.000221639,0.00829311,0.00396207,0.0512643,0.00478961,0.011288,629,1289,-6.08502,-1.35285
-588,-265,-6.08325,1.49976,0.00686278,0.00303754,0.00103072,0.00712283,0.00277749,0.247142,0.00414544,0.0102798,636,1289,-6.08323,-1.49973
-581,-265,-6.0788,1.64685,0.00481692,0.00158343,0.000766155,0.00498927,0.00141108,0.22127,0.00296975,0.0121519,643,1289,-6.07879,-1.64691
-574,-265,-6.10028,1.81958,0.00318551,-4.25751e-05,-0.000956249,0.00344751,-0.000304578,-0.267427,0.0024063,0.0132984,650,1289,-6.10028,-1.81956
-567,-265,-6.14514,1.98303,0.00110937,-0.000133683,-0.00284023,0.00339528,-0.00241959,-0.677681,0.00337294,0.0186245,657,1289,-6.14516,-1.983
-560,-265,-6.12177,2.10522,-0.0013551,0.000964951,-0.00390663,0.00388014,-0.0042703,-0.929721,0.00470746,0.0207392,664,1289,-6.12174,-2.10522
-553,-265,-6.0769,2.27087,-0.00387849,0.0022997,-0.00476969,0.00489325,-0.00647204,-1.07276,0.00658282,0.0219037,671,1289,-6.07688,-2.27087
-546,-265,-6.03473,2.41174,-0.00679611,0.00383736,-0.00554377,0.00620184,-0.0091606,-1.16765,0.00892417,0.0298032,678,1289,-6.03472,-2.4118
-539,-265,-5.93951,2.34558,0,0,0,0,0,0,0,-1,685,1289,-5.93949,-2.34552
-532,-265,-6.6687,2.10022,-0.0139597,0.00855453,-0.00721585,0.0106687,-0.0160738,-1.28578,0.0155446,0.0442735,692,1289,-6.66869,-2.1002
-525,-265,-6.91907,2.13623,-0.0180058,0.0113228,-0.00740919,0.0130883,-0.0197713,-1.33688,0.0191018,0.0449292,699,1289,-6.91908,-2.13628
-518,-265,-6.99622,-1.39819,-0.0223227,0.0144337,-0.00727452,0.015821,-0.02371,-1.38235,0.0229743,0.0454524,706,1289,-6.99622,1.39823
-511,-265,-7.49646,-0.858643,-0.0267436,0.0176433,-0.00662401,0.0186108,-0.027711,-1.42577,0.0269154,0.0442047,713,1289,-7.49647,0.858592
-504,-265,-7.96417,-0.301392,-0.0309901,0.0207294,-0.00535251,0.0212775,-0.0315382,-1.46875,0.0306844,0.0486279,720,1289,-7.96416,0.30135
-497,-265,-8.40857,0.246216,-0.0344759,0.0233915,-0.00334681,0.0235845,-0.0346688,-1.51322,0.0338349,0.0480007,727,1289,-8.40854,-0.246202
-490,-265,-8.83081,0.659546,0,0,0,0,0,0,0,-1,734,1289,-8.83079,-0.659517
-483,-265,0,0,0,0,0,0,0,0,0,-1,741,1289,0,0
-476,-265,0,0,0,0,0,0,0,0,0,-1,748,1289,0,0
-469,-265,0,0,0,0,0,0,0,0,0,-1,755,1289,0,0
-462,-265,0,0,0,0,0,0,0,0,0,-1,762,1289,0,0
-455,-265,0,0,0,0,0,0,0,0,0,-1,769,1289,0,0
-448,-265,0,0,0,0,0,0,0,0,0,-1,776,1289,0,0
-441,-265,0,0,0,0,0,0,0,0,0,-1,783,1289,0,0
-434,-265,0,0,0,0,0,0,0,0,0,-1,790,1289,0,0
-427,-265,0,0,0,0,0,0,0,0,0,-1,797,1289,0,0
-420,-265,0,0,0,0,0,0,0,0,0,-1,804,1289,0,0
-413,-265,0,0,0,0,0,0,0,0,0,-1,811,1289,0,0
-406,-265,0,0,0,0,0,0,0,0,0,-1,818,1289,0,0
-399,-265,0,0,0,0,0,0,0,0,0,-1,825,1289,0,0
-392,-265,0,0,0,0,0,0,0,0,0,-1,832,1289,0,0
-385,-265,0,0,0,0,0,0,0,0,0,-1,839,1289,0,0
-378,-265,0,0,0,0,0,0,0,0,0,-1,846,1289,0,0
-371,-265,0,0,0,0,0,0,0,0,0,-1,853,1289,0,0
-364,-265,0,0,0,0,0,0,0,0,0,-1,860,1289,0,0
-357,-265,0,0,0,0,0,0,0,0,0,-1,867,1289,0,0
-350,-265,0,0,0,0,0,0,0,0,0,-1,874,1289,0,0
-343,-265,0,0,0,0,0,0,0,0,0,-1,881,1289,0,0
-336,-265,0,0,0,0,0,0,0,0,0,-1,888,1289,0,0
-329,-265,0,0,0,0,0,0,0,0,0,-1,895,1289,0,0
-322,-265,0,0,0,0,0,0,0,0,0,-1,902,1289,0,0
-315,-265,0,0,0,0,0,0,0,0,0,-1,909,1289,0,0
-308,-265,0,0,0,0,0,0,0,0,0,-1,916,1289,0,0
-301,-265,0,0,0,0,0,0,0,0,0,-1,923,1289,0,0
-294,-265,0,0,0,0,0,0,0,0,0,-1,930,1289,0,0
-287,-265,0,0,0,0,0,0,0,0,0,-1,937,1289,0,0
-280,-265,0,0,0,0,0,0,0,0,0,-1,944,1289,0,0
-273,-265,0,0,0,0,0,0,0,0,0,-1,951,1289,0,0
-266,-265,0,0,0,0,0,0,0,0,0,-1,958,1289,0,0
-259,-265,0,0,0,0,0,0,0,0,0,-1,965,1289,0,0
-252,-265,0,0,0,0,0,0,0,0,0,-1,972,1289,0,0
-245,-265,0,0,0,0,0,0,0,0,0,-1,979,1289,0,0
-238,-265,0,0,0,0,0,0,0,0,0,-1,986,1289,0,0
-231,-265,0,0,0,0,0,0,0,0,0,-1,993,1289,0,0
-224,-265,0,0,0,0,0,0,0,0,0,-1,1000,1289,0,0
-217,-265,0,0,0,0,0,0,0,0,0,-1,1007,1289,0,0
-210,-265,0,0,0,0,0,0,0,0,0,-1,1014,1289,0,0
-203,-265,0,0,0,0,0,0,0,0,0,-1,1021,1289,0,0
-196,-265,0,0,0,0,0,0,0,0,0,-1,1028,1289,0,0
-189,-265,0,0,0,0,0,0,0,0,0,-1,1035,1289,0,0
-182,-265,0,0,0,0,0,0,0,0,0,-1,1042,1289,0,0
-175,-265,0,0,0,0,0,0,0,0,0,-1,1049,1289,0,0
-168,-265,0,0,0,0,0,0,0,0,0,-1,1056,1289,0,0
-161,-265,0,0,0,0,0,0,0,0,0,-1,1063,1289,0,0
-154,-265,0,0,0,0,0,0,0,0,0,-1,1070,1289,0,0
-147,-265,0,0,0,0,0,0,0,0,0,-1,1077,1289,0,0
-140,-265,0,0,0,0,0,0,0,0,0,-1,1084,1289,0,0
-133,-265,0,0,0,0,0,0,0,0,0,-1,1091,1289,0,0
-126,-265,0,0,0,0,0,0,0,0,0,-1,1098,1289,0,0
-119,-265,0,0,0,0,0,0,0,0,0,-1,1105,1289,0,0
-112,-265,0,0,0,0,0,0,0,0,0,-1,1112,1289,0,0
-105,-265,0,0,0,0,0,0,0,0,0,-1,1119,1289,0,0
-98,-265,0,0,0,0,0,0,0,0,0,-1,1126,1289,0,0
-91,-265,0,0,0,0,0,0,0,0,0,-1,1133,1289,0,0
-84,-265,0,0,0,0,0,0,0,0,0,-1,1140,1289,0,0
-77,-265,0,0,0,0,0,0,0,0,0,-1,1147,1289,0,0
-70,-265,0,0,0,0,0,0,0,0,0,-1,1154,1289,0,0
-63,-265,0,0,0,0,0,0,0,0,0,-1,1161,1289,0,0
-56,-265,0,0,0,0,0,0,0,0,0,-1,1168,1289,0,0
-49,-265,0,0,0,0,0,0,0,0,0,-1,1175,1289,0,0
-42,-265,0,0,0,0,0,0,0,0,0,-1,1182,1289,0,0
-35,-265,0,0,0,0,0,0,0,0,0,-1,1189,1289,0,0
-28,-265,0,0,0,0,0,0,0,0,0,-1,1196,1289,0,0
-21,-265,0,0,0,0,0,0,0,0,0,-1,1203,1289,0,0
-14,-265,0,0,0,0,0,0,0,0,0,-1,1210,1289,0,0
-7,-265,0,0,0,0,0,0,0,0,0,-1,1217,1289,0,0
0,-265,0,0,0,0,0,0,0,0,0,-1,1224,1289,0,0
7,-265,0,0,0,0,0,0,0,0,0,-1,1231,1289,0,0
14,-265,0,0,0,0,0,0,0,0,0,-1,1238,1289,0,0
21,-265,0,0,0,0,0,0,0,0,0,-1,1245,1289,0,0
28,-265,0,0,0,0,0,0,0,0,0,-1,1252,1289,0,0
35,-265,0,0,0,0,0,0,0,0,0,-1,1259,1289,0,0
42,-265,0,0,0,0,0,0,0,0,0,-1,1266,1289,0,0
49,-265,0,0,0,0,0,0,0,0,0,-1,1273,1289,0,0
56,-265,0,0,0,0,0,0,0,0,0,-1,1280,1289,0,0
63,-265,0,0,0,0,0,0,0,0,0,-1,1287,1289,0,0
70,-265,0,0,0,0,0,0,0,0,0,-1,1294,1289,0,0
77,-265,0,0,0,0,0,0,0,0,0,-1,1301,1289,0,0
84,-265,0,0,0,0,0,0,0,0,0,-1,1308,1289,0,0
91,-265,0,0,0,0,0,0,0,0,0,-1,1315,1289,0,0
98,-265,0,0,0,0,0,0,0,0,0,-1,1322,1289,0,0
105,-265,0,0,0,0,0,0,0,0,0,-1,1329,1289,0,0
112,-265,0,0,0,0,0,0,0,0,0,-1,1336,1289,0,0
119,-265,0,0,0,0,0,0,0,0,0,-1,1343,1289,0,0
126,-265,0,0,0,0,0,0,0,0,0,-1,1350,1289,0,0
133,-265,0,0,0,0,0,0,0,0,0,-1,1357,1289,0,0
140,-265,0,0,0,0,0,0,0,0,0,-1,1364,1289,0,0
147,-265,0,0,0,0,0,0,0,0,0,-1,1371,1289,0,0
154,-265,0,0,0,0,0,0,0,0,0,-1,1378,1289,0,0
161,-265,0,0,0,0,0,0,0,0,0,-1,1385,1289,0,0
168,-265,0,0,0,0,0,0,0,0,0,-1,1392,1289,0,0
175,-265,0,0,0,0,0,0,0,0,0,-1,1399,1289,0,0
182,-265,0,0,0,0,0,0,0,0,0,-1,1406,1289,0,0
189,-265,0,0,0,0,0,0,0,0,0,-1,1413,1289,0,0
196,-265,0,0,0,0,0,0,0,0,0,-1,1420,1289,0,0
203,-265,0,0,0,0,0,0,0,0,0,-1,1427,1289,0,0
210,-265,0,0,0,0,0,0,0,0,0,-1,1434,1289,0,0
217,-265,0,0,0,0,0,0,0,0,0,-1,1441,1289,0,0
224,-265,0,0,0,0,0,0,0,0,0,-1,1448,1289,0,0
231,-265,0,0,0,0,0,0,0,0,0,-1,1455,1289,0,0
238,-265,0,0,0,0,0,0,0,0,0,-1,1462,1289,0,0
245,-265,0,0,0,0,0,0,0,0,0,-1,1469,1289,0,0
252,-265,0,0,0,0,0,0,0,0,0,-1,1476,1289,0,0
259,-265,0,0,0,0,0,0,0,0,0,-1,1483,1289,0,0
266,-265,0,0,0,0,0,0,0,0,0,-1,1490,1289,0,0
273,-265,0,0,0,0,0,0,0,0,0,-1,1497,1289,0,0
280,-265,0,0,0,0,0,0,0,0,0,-1,1504,1289,0,0
287,-265,0,0,0,0,0,0,0,0,0,-1,1511,1289,0,0
294,-265,0,0,0,0,0,0,0,0,0,-1,1518,1289,0,0
301,-265,0,0,0,0,0,0,0,0,0,-1,1525,1289,0,0
308,-265,0,0,0,0,0,0,0,0,0,-1,1532,1289,0,0
315,-265,0,0,0,0,0,0,0,0,0,-1,1539,1289,0,0
322,-265,0,0,0,0,0,0,0,0,0,-1,1546,1289,0,0
329,-265,0,0,0,0,0,0,0,0,0,-1,1553,1289,0,0
336,-265,0,0,0,0,0,0,0,0,0,-1,1560,1289,0,0
343,-265,0,0,0,0,0,0,0,0,0,-1,1567,1289,0,0
350,-265,0,0,0,0,0,0,0,0,0,-1,1574,1289,0,0
357,-265,0,0,0,0,0,0,0,0,0,-1,1581,1289,0,0
364,-265,0,0,0,0,0,0,0,0,0,-1,1588,1289,0,0
371,-265,0,0,0,0,0,0,0,0,0,-1,1595,1289,0,0
378,-265,0,0,0,0,0,0,0,0,0,-1,1602,1289,0,0
385,-265,0,0,0,0,0,0,0,0,0,-1,1609,1289,0,0
392,-265,0,0,0,0,0,0,0,0,0,-1,1616,1289,0,0
399,-265,0,0,0,0,0,0,0,0,0,-1,1623,1289,0,0
406,-265,0,0,0,0,0,0,0,0,0,-1,1630,1289,0,0
413,-265,0,0,0,0,0,0,0,0,0,-1,1637,1289,0,0
420,-265,0,0,0,0,0,0,0,0,0,-1,1644,1289,0,0
427,-265,0,0,0,0,0,0,0,0,0,-1,1651,1289,0,0
434,-265,0,0,0,0,0,0,0,0,0,-1,1658,1289,0,0
441,-265,0,0,0,0,0,0,0,0,0,-1,1665,1289,0,0
448,-265,0,0,0,0,0,0,0,0,0,-1,1672,1289,0,0
455,-265,0,0,0,0,0,0,0,0,0,-1,1679,1289,0,0
462,-265,0,0,0,0,0,0,0,0,0,-1,1686,1289,0,0
469,-265,0,0,0,0,0,0,0,0,0,-1,1693,1289,0,0
476,-265,0,0,0,0,0,0,0,0,0,-1,1700,1289,0,0
483,-265,0,0,0,0,0,0,0,0,0,-1,1707,1289,0,0
490,-265,0,0,0,0,0,0,0,0,0,-1,1714,1289,0,0
497,-265,0,0,0,0,0,0,0,0,0,-1,1721,1289,0,0
504,-265,0,0,0,0,0,0,0,0,0,-1,1728,1289,0,0
511,-265,0,0,0,0,0,0,0,0,0,-1,1735,1289,0,0
518,-265,0,0,0,0,0,0,0,0,0,-1,1742,1289,0,0
525,-265,0,0,0,0,0,0,0,0,0,-1,1749,1289,0,0
532,-265,0,0,0,0,0,0,0,0,0,-1,1756,1289,0,0
539,-265,0,0,0,0,0,0,0,0,0,-1,1763,1289,0,0
546,-265,0,0,0,0,0,0,0,0,0,-1,1770,1289,0,0
553,-265,0,0,0,0,0,0,0,0,0,-1,1777,1289,0,0
560,-265,0,0,0,0,0,0,0,0,0,-1,1784,1289,0,0
567,-265,0,0,0,0,0,0,0,0,0,-1,1791,1289,0,0
574,-265,0,0,0,0,0,0,0,0,0,-1,1798,1289,0,0
581,-265,0,0,0,0,0,0,0,0,0,-1,1805,1289,0,0
588,-265,0,0,0,0,0,0,0,0,0,-1,1812,1289,0,0
595,-265,0,0,0,0,0,0,0,0,0,-1,1819,1289,0,0
602,-265,15.0718,2.34619,0.00152921,0.00127902,-0.0107352,0.0121401,-0.00933184,-0.779572,0.0124321,0.0263167,1826,1289,15.0718,-2.34622
609,-265,15.0248,2.25439,0.00267527,0.0105039,-0.00637756,0.0140726,-0.000893407,-1.06064,0.00969324,0.0282675,1833,1289,15.0248,-2.25444
616,-265,14.9597,2.28345,0.00236506,0.0161333,-0.00203499,0.0164278,0.00207058,-1.42709,0.0103311,0.0320098,1840,1289,14.9597,-2.28344
623,-265,14.8112,2.19214,0.000141164,0.017463,0.00256235,0.0178341,-0.000229925,1.42697,0.0119668,0.0453858,1847,1289,14.8112,-2.19217
630,-265,14.5261,1.38013,-0.00261411,0.0164969,0.00613631,0.0182975,-0.00441475,1.28537,0.0139055,0.0455678,1854,1289,14.5261,-1.38017
637,-265,14.5032,1.26904,-0.00512537,0.0143292,0.00850484,0.0175229,-0.0083191,1.21157,0.015232,0.0445068,1861,1289,14.5031,-1.269
644,-265,14.0189,1.47205,-0.00700633,0.0117123,0.00985093,0.0159411,-0.0112352,1.1653,0.0157685,0.0444291,1868,1289,14.0189,-1.47203
651,-265,13.2986,1.40295,-0.00827562,0.00922738,0.0104813,0.0141304,-0.0131787,1.13325,0.0157701,0.0426202,1875,1289,13.2986,-1.4029
658,-265,13.6171,1.64063,-0.00896761,0.00713867,0.0107795,0.0125411,-0.01437,1.10621,0.0155491,0.045638,1882,1289,13.6171,-1.64068
665,-265,13.3297,1.32629,-0.00905658,0.0051362,0.0105683,0.0107696,-0.01469,1.08106,0.0147571,0.0488864,1889,1289,13.3298,-1.32629
672,-265,12.9714,0.873779,0,0,0,0,0,0,0,-1,1896,1289,12.9715,-0.873726
679,-265,12.5541,4.11462,-0.00801153,0.00194198,0.00943144,0.00762919,-0.0136987,1.02817,0.0124788,0.0256903,1903,1289,12.5541,-4.11461
686,-265,12.5084,4.03906,-0.00820371,-0.00095006,0.00790628,0.00412157,-0.0132753,1.00044,0.0104974,0.0122097,1910,1289,12.5084,-4.039
693,-265,12.5244,3.90564,-0.00669136,-0.00110143,0.00648379,0.00316415,-0.0109569,0.988898,0.00855663,0.00984445,1917,1289,12.5244,-3.90558
700,-265,12.5326,3.78296,-0.0039473,-0.000961266,0.00444167,0.0022316,-0.00714017,0.947535,0.00565277,0.0102132,1924,1289,12.5326,-3.78302
707,-265,12.5608,3.65369,-0.00160262,-0.000686215,0.0027198,0.00161371,-0.00390255,0.868849,0.00327493,0.0101863,1931,1289,12.5608,-3.65364
714,-265,12.5461,3.55518,-0.00175063,0.000171886,0.00164987,0.0011201,-0.00269884,1.04917,0.0022668,0.0094474,1938,1289,12.5462,-3.55516
721,-265,12.5343,3.46301,-0.00381644,0.00116973,0.000484297,0.00121633,-0.00386305,1.47486,0.00306241,0.00880475,1945,1289,12.5343,-3.46298
728,-265,12.5375,3.34631,-0.00765321,0.00236063,-0.000310653,0.00237025,-0.00766284,-1.53981,0.0060553,0.0119042,1952,1289,12.5374,-3.34628
735,-265,12.5302,3.22693,-0.0136356,0.00411846,-0.000994758,0.00417403,-0.0136912,-1.515,0.0107913,0.0156612,1959,1289,12.5302,-3.22688
742,-265,12.5449,3.10852,-0.0213991,0.00604973,-0.00154505,0.00613643,-0.0214857,-1.51474,0.0167483,0.0198314,1966,1289,12.5449,-3.10847
749,-265,12.558,3.02039,-0.0321647,0.00853491,-0.00219775,0.00865324,-0.0322831,-1.51701,0.0249125,0.0380206,1973,1289,12.5579,-3.02039
756,-265,15.702,2.26831,0,0,0,0,0,0,0,-1,1980,1289,15.702,-2.26826
763,-265,14.6727,1.85645,-0.0646285,0.015609,-0.00402905,0.0158108,-0.0648303,-1.52075,0.0493422,0.0454505,1987,1289,14.6727,-1.85646
770,-265,13.6293,1.45752,-0.0874038,0.0204068,-0.00527224,0.020664,-0.087661,-1.52205,0.0664091,0.0430622,1994,1289,13.6293,-1.45755
777,-265,12.7291,1.50549,-0.11524,0.0262503,-0.00680093,0.0265764,-0.115566,-1.52288,0.0872627,0.0448912,2001,1289,12.7291,-1.50545
784,-265,0,0,0,0,0,0,0,0,0,-1,2008,1289,0,0
791,-265,0,0,0,0,0,0,0,0,0,-1,2015,1289,0,0
798,-265,0,0,0,0,0,0,0,0,0,-1,2022,1289,0,0
805,-265,0,0,0,0,0,0,0,0,0,-1,2029,1289,0,0
812,-265,0,0,0,0,0,0,0,0,0,-1,2036,1289,0,0
-700,-272,0,0,0,0,0,0,0,0,0,-1,524,1296,0,0
-693,-272,0,0,0,0,0,0,0,0,0,-1,531,1296,0,0
-686,-272,0,0,0,0,0,0,0,0,0,-1,538,1296,0,0
-679,-272,0,0,0,0,0,0,0,0,0,-1,545,1296,0,0
-672,-272,0,0,0,0,0,0,0,0,0,-1,552,1296,0,0
-665,-272,0,0,0,0,0,0,0,0,0,-1,559,1296,0,0
-658,-272,-5.77814,2.57556,0.053419,-0.0317671,-0.0517195,0.0778266,-0.0561747,-0.440933,0.0777016,0.0475314,566,1296,-5.77814,-2.57554
-651,-272,-5.60559,2.70935,0.0450532,-0.0188326,-0.0426749,0.066416,-0.0401954,-0.464123,0.0621696,0.0451149,573,1296,-5.6056,-2.70937
-644,-272,-6.54437,1.10547,0,0,0,0,0,0,0,-1,580,1296,-6.54434,-1.10543
-637,-272,-6.36932,1.02271,0.0326334,-0.00272402,-0.0253815,0.0458862,-0.0159768,-0.481205,0.037082,0.0482748,587,1296,-6.36935,-1.02271
-630,-272,-6.21484,0.925171,0.0276348,0.00175996,-0.0181499,0.0369863,-0.00759156,-0.475763,0.0275391,0.0457209,594,1296,-6.21483,-0.925163
-623,-272,-6.03107,0.970947,0.0230618,0.00448959,-0.0121504,0.0290683,-0.00151695,-0.459115,0.0199038,0.0425521,601,1296,-6.03108,-0.970924
-616,-272,-5.97028,1.07373,0.0187785,0.00573603,-0.00748373,0.0221836,0.00233089,-0.427009,0.0140766,0.032846,608,1296,-5.97029,-1.07376
-609,-272,-5.91833,1.13672,0.0144081,0.00657284,-0.0040045,0.0160926,0.00488834,-0.398182,0.0095266,0.0171113,615,1296,-5.91831,-1.13674
-602,-272,-5.9325,1.20776,0.0109579,0.00740965,-0.00154056,0.0115334,0.00683413,-0.357526,0.00669674,0.0127611,622,1296,-5.93249,-1.20775
-595,-272,-5.93896,1.37427,0.00920074,0.00543285,0.0006127,0.00929787,0.00533573,0.157216,0.00538762,0.0108424,629,1296,-5.93896,-1.37428
-588,-272,-5.93854,1.52502,0.00747063,0.00406174,0.00167509,0.00815597,0.0033764,0.388357,0.00473202,0.00981408,636,1296,-5.93854,-1.52506
-581,-272,-5.94501,1.64941,0.0052874,0.00233741,0.00143781,0.00587224,0.00175257,0.386317,0.00348094,0.00926168,643,1296,-5.945,-1.64937
-574,-272,-5.97021,1.81909,0.00348924,0.000405291,-0.000182648,0.00350002,0.000394511,-0.0589507,0.00221359,0.0144078,650,1296,-5.97019,-1.81905
-567,-272,-5.99237,1.9751,0.00127395,-0.000249636,-0.00216895,0.002811,-0.00178669,-0.616515,0.00267635,0.0211386,657,1296,-5.9924,-1.97514
-560,-272,-5.97327,2.12354,-0.00113378,0.000451969,-0.00334217,0.00309403,-0.00377584,-0.901862,0.00397283,0.0204539,664,1296,-5.97326,-2.12349
-553,-272,-5.91748,2.25549,-0.00350848,0.00153608,-0.0042379,0.0039455,-0.0059179,-1.05383,0.00573247,0.013962,671,1296,-5.9175,-2.25545
-546,-272,-5.89789,2.39001,-0.00626952,0.00283169,-0.00512585,0.00513545,-0.00857328,-1.14841,0.00799727,0.0186446,678,1296,-5.89789,-2.39001
-539,-272,-5.86127,2.55408,-0.00943842,0.00474176,-0.00610678,0.00700913,-0.0117058,-1.21528,0.0109179,0.044055,685,1296,-5.86126,-2.5541
-532,-272,-6.11566,2.59656,-0.0130713,0.0071682,-0.00693293,0.00931526,-0.0152184,-1.27047,0.0143005,0.0477616,692,1296,-6.11565,-2.59651
-525,-272,-6.46826,2.59595,0,0,0,0,0,0,0,-1,699,1296,-6.46825,-2.59592
-518,-272,-6.7489,-1.67468,-0.0212893,0.0124659,-0.00737542,0.0140071,-0.0228304,-1.3648,0.0214705,0.0447516,706,1296,-6.74888,1.67473
-511,-272,-7.18262,-1.23511,-0.025672,0.0154073,-0.00712053,0.0166066,-0.0268712,-1.40394,0.025334,0.0442364,713,1296,-7.1826,1.23512
-504,-272,-7.66644,-0.485596,-0.0300338,0.0183035,-0.00644905,0.0191491,-0.0308794,-1.44042,0.0291475,0.0475256,720,1296,-7.66641,0.485609
-497,-272,-8.0968,0.294922,-0.0340099,0.0209742,-0.00530019,0.0214805,-0.0345161,-1.47557,0.0326203,0.0472909,727,1296,-8.09681,-0.294983
-490,-272,-8.34888,0.573486,-0.0369121,0.022757,-0.0034637,0.0229574,-0.0371125,-1.51301,0.0350009,0.0424951,734,1296,-8.34887,-0.573431
-483,-272,-8.69073,0.547607,-0.039401,0.0239235,-0.000957829,0.023938,-0.0394155,-1.55568,0.0369392,0.0383407,741,1296,-8.69072,-0.547663
-476,-272,0,0,0,0,0,0,0,0,0,-1,748,1296,0,0
-469,-272,0,0,0,0,0,0,0,0,0,-1,755,1296,0,0
-462,-272,0,0,0,0,0,0,0,0,0,-1,762,1296,0,0
-455,-272,0,0,0,0,0,0,0,0,0,-1,769,1296,0,0
-448,-272,0,0,0,0,0,0,0,0,0,-1,776,1296,0,0
-441,-272,0,0,0,0,0,0,0,0,0,-1,783,1296,0,0
-434,-272,0,0,0,0,0,0,0,0,0,-1,790,1296,0,0
-427,-272,0,0,0,0,0,0,0,0,0,-1,797,1296,0,0
-420,-272,0,0,0,0,0,0,0,0,0,-1,804,1296,0,0
-413,-272,0,0,0,0,0,0,0,0,0,-1,811,1296,0,0
-406,-272,0,0,0,0,0,0,0,0,0,-1,818,1296,0,0
-399,-272,0,0,0,0,0,0,0,0,0,-1,825,1296,0,0
-392,-272,0,0,0,0,0,0,0,0,0,-1,832,1296,0,0
-385,-272,0,0,0,0,0,0,0,0,0,-1,839,1296,0,0
-378,-272,0,0,0,0,0,0,0,0,0,-1,846,1296,0,0
-371,-272,0,0,0,0,0,0,0,0,0,-1,853,1296,0,0
-364,-272,0,0,0,0,0,0,0,0,0,-1,860,1296,0,0
-357,-272,0,0,0,0,0,0,0,0,0,-1,867,1296,0,0
-350,-272,0,0,0,0,0,0,0,0,0,-1,874,1296,0,0
-343,-272,0,0,0,0,0,0,0,0,0,-1,881,1296,0,0
-336,-272,0,0,0,0,0,0,0,0,0,-1,888,1296,0,0
-329,-272,0,0,0,0,0,0,0,0,0,-1,895,1296,0,0
-322,-272,0,0,0,0,0,0,0,0,0,-1,902,1296,0,0
-315,-272,0,0,0,0,0,0,0,0,0,-1,909,1296,0,0
-308,-272,0,0,0,0,0,0,0,0,0,-1,916,1296,0,0
-301,-272,0,0,0,0,0,0,0,0,0,-1,923,1296,0,0
-294,-272,0,0,0,0,0,0,0,0,0,-1,930,1296,0,0
-287,-272,0,0,0,0,0,0,0,0,0,-1,937,1296,0,0
-280,-272,0,0,0,0,0,0,0,0,0,-1,944,1296,0,0
-273,-272,0,0,0,0,0,0,0,0,0,-1,951,1296,0,0
-266,-272,0,0,0,0,0,0,0,0,0,-1,958,1296,0,0
-259,-272,0,0,0,0,0,0,0,0,0,-1,965,1296,0,0
-252,-272,0,0,0,0,0,0,0,0,0,-1,972,1296,0,0
-245,-272,0,0,0,0,0,0,0,0,0,-1,979,1296,0,0
-238,-272,0,0,0,0,0,0,0,0,0,-1,986,1296,0,0
-231,-272,0,0,0,0,0,0,0,0,0,-1,993,1296,0,0
-224,-272,0,0,0,0,0,0,0,0,0,-1,1000,1296,0,0
-217,-272,0,0,0,0,0,0,0,0,0,-1,1007,1296,0,0
-210,-272,0,0,0,0,0,0,0,0,0,-1,1014,1296,0,0
-203,-272,0,0,0,0,0,0,0,0,0,-1,1021,1296,0,0
-196,-272,0,0,0,0,0,0,0,0,0,-1,1028,1296,0,0
-189,-272,0,0,0,0,0,0,0,0,0,-1,1035,1296,0,0
-182,-272,0,0,0,0,0,0,0,0,0,-1,1042,1296,0,0
-175,-272,0,0,0,0,0,0,0,0,0,-1,1049,1296,0,0
-168,-272,0,0,0,0,0,0,0,0,0,-1,1056,1296,0,0
-161,-272,0,0,0,0,0,0,0,0,0,-1,1063,1296,0,0
-154,-272,0,0,0,0,0,0,0,0,0,-1,1070,1296,0,0
-147,-272,0,0,0,0,0,0,0,0,0,-1,1077,1296,0,0
-140,-272,0,0,0,0,0,0,0,0,0,-1,1084,1296,0,0
-133,-272,0,0,0,0,0,0,0,0,0,-1,1091,1296,0,0
-126,-272,0,0,0,0,0,0,0,0,0,-1,1098,1296,0,0
-119,-272,0,0,0,0,0,0,0,0,0,-1,1105,1296,0,0
-112,-272,0,0,0,0,0,0,0,0,0,-1,1112,1296,0,0
-105,-272,0,0,0,0,0,0,0,0,0,-1,1119,1296,0,0
-98,-272,0,0,0,0,0,0,0,0,0,-1,1126,1296,0,0
-91,-272,0,0,0,0,0,0,0,0,0,-1,1133,1296,0,0
-84,-272,0,0,0,0,0,0,0,0,0,-1,1140,1296,0,0
-77,-272,0,0,0,0,0,0,0,0,0,-1,1147,1296,0,0
-70,-272,0,0,0,0,0,0,0,0,0,-1,1154,1296,0,0
-63,-272,0,0,0,0,0,0,0,0,0,-1,1161,1296,0,0
-56,-272,0,0,0,0,0,0,0,0,0,-1,1168,1296,0,0
-49,-272,0,0,0,0,0,0,0,0,0,-1,1175,1296,0,0
-42,-272,0,0,0,0,0,0,0,0,0,-1,1182,1296,0,0
-35,-272,0,0,0,0,0,0,0,0,0,-1,1189,1296,0,0
-28,-272,0,0,0,0,0,0,0,0,0,-1,1196,1296,0,0
-21,-272,0,0,0,0,0,0,0,0,0,-1,1203,1296,0,0
-14,-272,0,0,0,0,0,0,0,0,0,-1,1210,1296,0,0
-7,-272,0,0,0,0,0,0,0,0,0,-1,1217,1296,0,0
0,-272,0,0,0,0,0,0,0,0,0,-1,1224,1296,0,0
7,-272,0,0,0,0,0,0,0,0,0,-1,1231,1296,0,0
14,-272,0,0,0,0,0,0,0,0,0,-1,1238,1296,0,0
21,-272,0,0,0,0,0,0,0,0,0,-1,1245,1296,0,0
28,-272,0,0,0,0,0,0,0,0,0,-1,1252,1296,0,0
35,-272,0,0,0,0,0,0,0,0,0,-1,1259,1296,0,0
42,-272,0,0,0,0,0,0,0,0,0,-1,1266,1296,0,0
49,-272,0,0,0,0,0,0,0,0,0,-1,1273,1296,0,0
56,-272,0,0,0,0,0,0,0,0,0,-1,1280,1296,0,0
63,-272,0,0,0,0,0,0,0,0,0,-1,1287,1296,0,0
70,-272,0,0,0,0,0,0,0,0,0,-1,1294,1296,0,0
77,-272,0,0,0,0,0,0,0,0,0,-1,1301,1296,0,0
84,-272,0,0,0,0,0,0,0,0,0,-1,1308,1296,0,0
91,-272,0,0,0,0,0,0,0,0,0,-1,1315,1296,0,0
98,-272,0,0,0,0,0,0,0,0,0,-1,1322,1296,0,0
105,-272,0,0,0,0,0,0,0,0,0,-1,1329,1296,0,0
112,-272,0,0,0,0,0,0,0,0,0,-1,1336,1296,0,0
119,-272,0,0,0,0,0,0,0,0,0,-1,1343,1296,0,0
126,-272,0,0,0,0,0,0,0,0,0,-1,1350,1296,0,0
133,-272,0,0,0,0,0,0,0,0,0,-1,1357,1296,0,0
140,-272,0,0,0,0,0,0,0,0,0,-1,1364,1296,0,0
147,-272,0,0,0,0,0,0,0,0,0,-1,1371,1296,0,0
154,-272,0,0,0,0,0,0,0,0,0,-1,1378,1296,0,0
161,-272,0,0,0,0,0,0,0,0,0,-1,1385,1296,0,0
168,-272,0,0,0,0,0,0,0,0,0,-1,1392,1296,0,0
175,-272,0,0,0,0,0,0,0,0,0,-1,1399,1296,0,0
182,-272,0,0,0,0,0,0,0,0,0,-1,1406,1296,0,0
189,-272,0,0,0,0,0,0,0,0,0,-1,1413,1296,0,0
196,-272,0,0,0,0,0,0,0,0,0,-1,1420,1296,0,0
203,-272,0,0,0,0,0,0,0,0,0,-1,1427,1296,0,0
210,-272,0,0,0,0,0,0,0,0,0,-1,1434,1296,0,0
217,-272,0,0,0,0,0,0,0,0,0,-1,1441,1296,0,0
224,-272,0,0,0,0,0,0,0,0,0,-1,1448,1296,0,0
231,-272,0,0,0,0,0,0,0,0,0,-1,1455,1296,0,0
238,-272,0,0,0,0,0,0,0,0,0,-1,1462,1296,0,0
245,-272,0,0,0,0,0,0,0,0,0,-1,1469,1296,0,0
252,-272,0,0,0,0,0,0,0,0,0,-1,1476,1296,0,0
259,-272,0,0,0,0,0,0,0,0,0,-1,1483,1296,0,0
266,-272,0,0,0,0,0,0,0,0,0,-1,1490,1296,0,0
273,-272,0,0,0,0,0,0,0,0,0,-1,1497,1296,0,0
280,-272,0,0,0,0,0,0,0,0,0,-1,1504,1296,0,0
287,-272,0,0,0,0,0,0,0,0,0,-1,1511,1296,0,0
294,-272,0,0,0,0,0,0,0,0,0,-1,1518,1296,0,0
301,-272,0,0,0,0,0,0,0,0,0,-1,1525,1296,0,0
308,-272,0,0,0,0,0,0,0,0,0,-1,1532,1296,0,0
315,-272,0,0,0,0,0,0,0,0,0,-1,1539,1296,0,0
322,-272,0,0,0,0,0,0,0,0,0,-1,1546,1296,0,0
329,-272,0,0,0,0,0,0,0,0,0,-1,1553,1296,0,0
336,-272,0,0,0,0,0,0,0,0,0,-1,1560,1296,0,0
343,-272,0,0,0,0,0,0,0,0,0,-1,1567,1296,0,0
350,-272,0,0,0,0,0,0,0,0,0,-1,1574,1296,0,0
357,-272,0,0,0,0,0,0,0,0,0,-1,1581,1296,0,0
364,-272,0,0,0,0,0,0,0,0,0,-1,1588,1296,0,0
371,-272,0,0,0,0,0,0,0,0,0,-1,1595,1296,0,0
378,-272,0,0,0,0,0,0,0,0,0,-1,1602,1296,0,0
385,-272,0,0,0,0,0,0,0,0,0,-1,1609,1296,0,0
392,-272,0,0,0,0,0,0,0,0,0,-1,1616,1296,0,0
399,-272,0,0,0,0,0,0,0,0,0,-1,1623,1296,0,0
406,-272,0,0,0,0,0,0,0,0,0,-1,1630,1296,0,0
413,-272,0,0,0,0,0,0,0,0,0,-1,1637,1296,0,0
420,-272,0,0,0,0,0,0,0,0,0,-1,1644,1296,0,0
427,-272,0,0,0,0,0,0,0,0,0,-1,1651,1296,0,0
434,-272,0,0,0,0,0,0,0,0,0,-1,1658,1296,0,0
441,-272,0,0,0,0,0,0,0,0,0,-1,1665,1296,0,0
448,-272,0,0,0,0,0,0,0,0,0,-1,1672,1296,0,0
455,-272,0,0,0,0,0,0,0,0,0,-1,1679,1296,0,0
462,-272,0,0,0,0,0,0,0,0,0,-1,1686,1296,0,0
469,-272,0,0,0,0,0,0,0,0,0,-1,1693,1296,0,0
476,-272,0,0,0,0,0,0,0,0,0,-1,1700,1296,0,0
483,-272,0,0,0,0,0,0,0,0,0,-1,1707,1296,0,0
490,-272,0,0,0,0,0,0,0,0,0,-1,1714,1296,0,0
497,-272,0,0,0,0,0,0,0,0,0,-1,1721,1296,0,0
504,-272,0,0,0,0,0,0,0,0,0,-1,1728,1296,0,0
511,-272,0,0,0,0,0,0,0,0,0,-1,1735,1296,0,0
518,-272,0,0,0,0,0,0,0,0,0,-1,1742,1296,0,0
525,-272,0,0,0,0,0,0,0,0,0,-1,1749,1296,0,0
532,-272,0,0,0,0,0,0,0,0,0,-1,1756,1296,0,0
539,-272,0,0,0,0,0,0,0,0,0,-1,1763,1296,0,0
546,-272,0,0,0,0,0,0,0,0,0,-1,1770,1296,0,0
553,-272,0,0,0,0,0,0,0,0,0,-1,1777,1296,0,0
560,-272,0,0,0,0,0,0,0,0,0,-1,1784,1296,0,0
567,-272,0,0,0,0,0,0,0,0,0,-1,1791,1296,0,0
574,-272,0,0,0,0,0,0,0,0,0,-1,1798,1296,0,0
581,-272,0,0,0,0,0,0,0,0,0,-1,1805,1296,0,0
588,-272,0,0,0,0,0,0,0,0,0,-1,1812,1296,0,0
595,-272,0,0,0,0,0,0,0,0,0,-1,1819,1296,0,0
602,-272,15.0203,2.33411,0.00426768,0.00616014,-0.00946333,0.0147244,-0.00429661,-0.835227,0.0115188,0.0298968,1826,1296,15.0203,-2.33406
609,-272,14.9958,2.22559,0.00515774,0.0149169,-0.0045591,0.0167153,0.00335931,-1.19507,0.0102097,0.0392735,1833,1296,14.9958,-2.22561
616,-272,14.9216,2.26697,0.00431088,0.0194913,0.000132595,0.0194924,0.00430972,1.56206,0.0118232,0.0440893,1840,1296,14.9217,-2.26698
623,-272,14.6846,2.83765,0.00171861,0.0198401,0.00452089,0.0209054,0.000653371,1.33939,0.0137243,0.0437728,1847,1296,14.6846,-2.83766
630,-272,14.0616,0.342529,-0.00133066,0.018029,0.00769916,0.0207175,-0.00401918,1.23484,0.0153281,0.0443395,1854,1296,14.0617,-0.342502
637,-272,14.4871,0.735718,0,0,0,0,0,0,0,-1,1861,1296,14.487,-0.735685
644,-272,13.8135,1.37769,0,0,0,0,0,0,0,-1,1868,1296,13.8135,-1.3777
651,-272,12.8374,1.72241,0,0,0,0,0,0,0,-1,1875,1296,12.8374,-1.72247
658,-272,13.1814,2.08887,0,0,0,0,0,0,0,-1,1882,1296,13.1814,-2.08892
665,-272,13.0482,1.65112,0,0,0,0,0,0,0,-1,1889,1296,13.0482,-1.65116
672,-272,12.6027,3.97229,-0.00901694,0.00238921,0.0102647,0.0084288,-0.0150565,1.03896,0.0137381,0.0475441,1896,1296,12.6026,-3.97231
679,-272,12.4229,4.08533,-0.00824387,0.000956423,0.00948695,0.00689969,-0.0141871,1.01114,0.0124145,0.0209063,1903,1296,12.4228,-4.08532
686,-272,12.3928,4.02014,-0.00861,-0.00198311,0.00763121,0.00302295,-0.0136161,0.990216,0.0102349,0.0131628,1910,1296,12.3928,-4.02018
693,-272,12.3893,3.90771,-0.00700842,-0.00186371,0.00608012,0.00216582,-0.0110379,0.985518,0.00817675,0.0112777,1917,1296,12.3893,-3.90771
700,-272,12.4006,3.80127,-0.00403489,-0.00138993,0.00394991,0.00145301,-0.00687783,0.946939,0.0051385,0.0107582,1924,1296,12.4006,-3.80126
707,-272,12.4305,3.67212,-0.00147739,-0.000769548,0.00224812,0.00115234,-0.00339928,0.863472,0.00273253,0.0107055,1931,1296,12.4306,-3.67218
714,-272,12.4344,3.55762,-0.00175226,0.00029541,0.00131325,0.000936767,-0.00239361,1.11649,0.00198317,0.0103213,1938,1296,12.4345,-3.55757
721,-272,12.4238,3.4447,-0.00406759,0.00137551,0.000355044,0.00139857,-0.00409065,1.50593,0.0032938,0.0107334,1945,1296,12.4239,-3.44475
728,-272,12.4246,3.32227,-0.00810404,0.00259686,-0.0002884,0.00260462,-0.00811181,-1.54387,0.00645372,0.0130039,1952,1296,12.4245,-3.32233
735,-272,12.4398,3.19836,-0.0145051,0.0042618,-0.000797909,0.00429566,-0.014539,-1.52838,0.0113976,0.0136751,1959,1296,12.4398,-3.19831
742,-272,12.4441,3.08264,-0.0230066,0.00608246,-0.0011949,0.00613146,-0.0230556,-1.52981,0.0177704,0.0237698,1966,1296,12.4441,-3.08263
749,-272,12.4965,3.02307,-0.0348609,0.00838875,-0.00165173,0.00845174,-0.0349239,-1.53268,0.0265521,0.0412893,1973,1296,12.4965,-3.02312
756,-272,15.4519,2.15369,0,0,0,0,0,0,0,-1,1980,1296,15.4519,-2.15364
763,-272,14.4148,1.7428,-0.0708556,0.0147282,-0.00281812,0.0148209,-0.0709483,-1.53792,0.0529354,0.0462555,1987,1296,14.4148,-1.74282
770,-272,13.347,1.53455,-0.0962675,0.0188644,-0.00354607,0.0189735,-0.0963766,-1.54004,0.0714207,0.0483944,1994,1296,13.3471,-1.53459
777,-272,12.4412,1.44812,0,0,0,0,0,0,0,-1,2001,1296,12.4412,-1.44807
784,-272,0,0,0,0,0,0,0,0,0,-1,2008,1296,0,0
791,-272,0,0,0,0,0,0,0,0,0,-1,2015,1296,0,0
798,-272,0,0,0,0,0,0,0,0,0,-1,2022,1296,0,0
805,-272,0,0,0,0,0,0,0,0,0,-1,2029,1296,0,0
812,-272,0,0,0,0,0,0,0,0,0,-1,2036,1296,0,0
-700,-279,0,0,0,0,0,0,0,0,0,-1,524,1303,0,0
-693,-279,0,0,0,0,0,0,0,0,0,-1,531,1303,0,0
-686,-279,0,0,0,0,0,0,0,0,0,-1,538,1303,0,0
-679,-279,0,0,0,0,0,0,0,0,0,-1,545,1303,0,0
-672,-279,0,0,0,0,0,0,0,0,0,-1,552,1303,0,0
-665,-279,0,0,0,0,0,0,0,0,0,-1,559,1303,0,0
-658,-279,-5.6109,3.33179,0.0473846,-0.0232731,-0.0627371,0.0840563,-0.0599448,-0.528966,0.0835266,0.046846,566,1303,-5.6109,-3.33178
-651,-279,-5.50446,3.25635,0.0418137,-0.0101448,-0.0511258,0.0731822,-0.0415133,-0.550328,0.0670556,0.046529,573,1303,-5.50446,-3.25637
-644,-279,-6.61829,1.09143,0.0370191,-0.00120483,-0.0396994,0.0619674,-0.0261532,-0.561063,0.0522583,0.0492029,580,1303,-6.61828,-1.09146
-637,-279,-6.30475,1.02869,0.0326395,0.00465901,-0.0293373,0.0511517,-0.0138531,-0.562909,0.0395363,0.0482252,587,1303,-6.30476,-1.02875
-630,-279,-5.94324,0.983765,0,0,0,0,0,0,0,-1,594,1303,-5.94324,-0.983741
-623,-279,-5.93152,1.06421,0.024323,0.0100059,-0.0131208,0.0321111,0.00221786,-0.535672,0.0207077,0.0436093,601,1303,-5.9315,-1.06419
-616,-279,-5.92902,1.15198,0.0202777,0.0104172,-0.00750111,0.0243238,0.00637113,-0.494662,0.0145643,0.0398244,608,1303,-5.92899,-1.15202
-609,-279,-5.84283,1.08411,0.0158842,0.0103691,-0.0034711,0.0175597,0.00869348,-0.44973,0.0101383,0.0270088,615,1303,-5.84282,-1.08405
-602,-279,-5.75739,1.21851,0.0123161,0.0105239,-0.000802263,0.0126227,0.0102173,-0.365112,0.00773896,0.012278,622,1303,-5.7574,-1.21845
-595,-279,-5.78308,1.37744,0.0101647,0.0077362,0.00155334,0.0109221,0.00697883,0.453657,0.00638653,0.0104748,629,1303,-5.78305,-1.37746
-588,-279,-5.77588,1.52979,0.0081068,0.00565104,0.00268894,0.00983495,0.00392289,0.571217,0.00571679,0.00995698,636,1303,-5.7759,-1.52973
-581,-279,-5.79065,1.64526,0.00581506,0.00348548,0.00228016,0.00721071,0.00208983,0.549258,0.00428395,0.0110865,643,1303,-5.79067,-1.64524
-574,-279,-5.80811,1.78162,0.00390012,0.00112146,0.000610531,0.00402835,0.000993228,0.20702,0.00242331,0.0111411,650,1303,-5.80808,-1.78166
-567,-279,-5.80054,1.94324,0.00160825,-0.000192578,-0.00153845,0.00249041,-0.00107473,-0.520637,0.00211174,0.014775,657,1303,-5.80053,-1.94325
-560,-279,-5.79376,2.10742,-0.000656766,-4.12925e-05,-0.00291839,0.00258554,-0.0032836,-0.837928,0.00339653,0.0155142,664,1303,-5.79376,-2.1074
-553,-279,-5.78021,2.27722,-0.00281018,0.000633556,-0.00392587,0.00319856,-0.00537519,-0.992063,0.00500295,0.0120458,671,1303,-5.78023,-2.27724
-546,-279,-5.78833,2.42737,-0.00536026,0.00160284,-0.00496188,0.00418276,-0.00794018,-1.09132,0.00711037,0.0139414,678,1303,-5.78831,-2.42737
-539,-279,-5.73248,2.57996,-0.00832433,0.00328657,-0.00598275,0.00581758,-0.0108553,-1.17058,0.00977149,0.041567,685,1303,-5.73246,-2.57995
-532,-279,-5.78662,2.61499,-0.0117963,0.0055396,-0.0068568,0.00792376,-0.0141805,-1.23617,0.0129312,0.0491212,692,1303,-5.7866,-2.61502
-525,-279,-5.99115,2.68323,0,0,0,0,0,0,0,-1,699,1303,-5.99114,-2.68317
-518,-279,-6.6792,-2.38904,0,0,0,0,0,0,0,-1,706,1303,-6.67923,2.38903
-511,-279,-6.92084,-1.64063,-0.0241451,0.012951,-0.00749243,0.0144072,-0.0256012,-1.37884,0.0233983,0.0455286,713,1303,-6.92081,1.64066
-504,-279,-7.51062,-0.405762,-0.0285218,0.0156233,-0.007198,0.0167673,-0.0296658,-1.41318,0.0271507,0.046729,720,1303,-7.51063,0.405798
-497,-279,-7.78815,0.419067,0,0,0,0,0,0,0,-1,727,1303,-7.78813,-0.419062
-490,-279,-8.01733,0.466553,-0.0362671,0.0202465,-0.00557675,0.0207915,-0.0368122,-1.47337,0.0336835,0.0428034,734,1303,-8.01733,-0.466544
-483,-279,-8.35712,0.41687,-0.0394817,0.0220409,-0.00406411,0.0223082,-0.0397491,-1.50512,0.0362974,0.0406238,741,1303,-8.35712,-0.416872
-476,-279,0,0,0,0,0,0,0,0,0,-1,748,1303,0,0
-469,-279,0,0,0,0,0,0,0,0,0,-1,755,1303,0,0
-462,-279,0,0,0,0,0,0,0,0,0,-1,762,1303,0,0
-455,-279,0,0,0,0,0,0,0,0,0,-1,769,1303,0,0
-448,-279,0,0,0,0,0,0,0,0,0,-1,776,1303,0,0
-441,-279,0,0,0,0,0,0,0,0,0,-1,783,1303,0,0
-434,-279,0,0,0,0,0,0,0,0,0,-1,790,1303,0,0
-427,-279,0,0,0,0,0,0,0,0,0,-1,797,1303,0,0
-420,-279,0,0,0,0,0,0,0,0,0,-1,804,1303,0,0
-413,-279,0,0,0,0,0,0,0,0,0,-1,811,1303,0,0
-406,-279,0,0,0,0,0,0,0,0,0,-1,818,1303,0,0
-399,-279,0,0,0,0,0,0,0,0,0,-1,825,1303,0,0
-392,-279,0,0,0,0,0,0,0,0,0,-1,832,1303,0,0
-385,-279,0,0,0,0,0,0,0,0,0,-1,839,1303,0,0
-378,-279,0,0,0,0,0,0,0,0,0,-1,846,1303,0,0
-371,-279,0,0,0,0,0,0,0,0,0,-1,853,1303,0,0
-364,-279,0,0,0,0,0,0,0,0,0,-1,860,1303,0,0
-357,-279,0,0,0,0,0,0,0,0,0,-1,867,1303,0,0
-350,-279,0,0,0,0,0,0,0,0,0,-1,874,1303,0,0
-343,-279,0,0,0,0,0,0,0,0,0,-1,881,1303,0,0
-336,-279,0,0,0,0,0,0,0,0,0,-1,888,1303,0,0
-329,-279,0,0,0,0,0,0,0,0,0,-1,895,1303,0,0
-322,-279,0,0,0,0,0,0,0,0,0,-1,902,1303,0,0
-315,-279,0,0,0,0,0,0,0,0,0,-1,909,1303,0,0
-308,-279,0,0,0,0,0,0,0,0,0,-1,916,1303,0,0
-301,-279,0,0,0,0,0,0,0,0,0,-1,923,1303,0,0
-294,-279,0,0,0,0,0,0,0,0,0,-1,930,1303,0,0
-287,-279,0,0,0,0,0,0,0,0,0,-1,937,1303,0,0
-280,-279,0,0,0,0,0,0,0,0,0,-1,944,1303,0,0
-273,-279,0,0,0,0,0,0,0,0,0,-1,951,1303,0,0
-266,-279,0,0,0,0,0,0,0,0,0,-1,958,1303,0,0
-259,-279,0,0,0,0,0,0,0,0,0,-1,965,1303,0,0
-252,-279,0,0,0,0,0,0,0,0,0,-1,972,1303,0,0
-245,-279,0,0,0,0,0,0,0,0,0,-1,979,1303,0,0
-238,-279,0,0,0,0,0,0,0,0,0,-1,986,1303,0,0
-231,-279,0,0,0,0,0,0,0,0,0,-1,993,1303,0,0
-224,-279,0,0,0,0,0,0,0,0,0,-1,1000,1303,0,0
-217,-279,0,0,0,0,0,0,0,0,0,-1,1007,1303,0,0
-210,-279,0,0,0,0,0,0,0,0,0,-1,1014,1303,0,0
-203,-279,0,0,0,0,0,0,0,0,0,-1,1021,1303,0,0
-196,-279,0,0,0,0,0,0,0,0,0,-1,1028,1303,0,0
-189,-279,0,0,0,0,0,0,0,0,0,-1,1035,1303,0,0
-182,-279,0,0,0,0,0,0,0,0,0,-1,1042,1303,0,0
-175,-279,0,0,0,0,0,0,0,0,0,-1,1049,1303,0,0
-168,-279,0,0,0,0,0,0,0,0,0,-1,1056,1303,0,0
-161,-279,0,0,0,0,0,0,0,0,0,-1,1063,1303,0,0
-154,-279,0,0,0,0,0,0,0,0,0,-1,1070,1303,0,0
-147,-279,0,0,0,0,0,0,0,0,0,-1,1077,1303,0,0
-140,-279,0,0,0,0,0,0,0,0,0,-1,1084,1303,0,0
-133,-279,0,0,0,0,0,0,0,0,0,-1,1091,1303,0,0
-126,-279,0,0,0,0,0,0,0,0,0,-1,1098,1303,0,0
-119,-279,0,0,0,0,0,0,0,0,0,-1,1105,1303,0,0
-112,-279,0,0,0,0,0,0,0,0,0,-1,1112,1303,0,0
-105,-279,0,0,0,0,0,0,0,0,0,-1,1119,1303,0,0
-98,-279,0,0,0,0,0,0,0,0,0,-1,1126,1303,0,0
-91,-279,0,0,0,0,0,0,0,0,0,-1,1133,1303,0,0
-84,-279,0,0,0,0,0,0,0,0,0,-1,1140,1303,0,0
-77,-279,0,0,0,0,0,0,0,0,0,-1,1147,1303,0,0
-70,-279,0,0,0,0,0,0,0,0,0,-1,1154,1303,0,0
-63,-279,0,0,0,0,0,0,0,0,0,-1,1161,1303,0,0
-56,-279,0,0,0,0,0,0,0,0,0,-1,1168,1303,0,0
-49,-279,0,0,0,0,0,0,0,0,0,-1,1175,1303,0,0
-42,-279,0,0,0,0,0,0,0,0,0,-1,1182,1303,0,0
-35,-279,0,0,0,0,0,0,0,0,0,-1,1189,1303,0,0
-28,-279,0,0,0,0,0,0,0,0,0,-1,1196,1303,0,0
-21,-279,0,0,0,0,0,0,0,0,0,-1,1203,1303,0,0
-14,-279,0,0,0,0,0,0,0,0,0,-1,1210,1303,0,0
-7,-279,0,0,0,0,0,0,0,0,0,-1,1217,1303,0,0
0,-279,0,0,0,0,0,0,0,0,0,-1,1224,1303,0,0
7,-279,0,0,0,0,0,0,0,0,0,-1,1231,1303,0,0
14,-279,0,0,0,0,0,0,0,0,0,-1,1238,1303,0,0
21,-279,0,0,0,0,0,0,0,0,0,-1,1245,1303,0,0
28,-279,0,0,0,0,0,0,0,0,0,-1,1252,1303,0,0
35,-279,0,0,0,0,0,0,0,0,0,-1,1259,1303,0,0
42,-279,0,0,0,0,0,0,0,0,0,-1,1266,1303,0,0
49,-279,0,0,0,0,0,0,0,0,0,-1,1273,1303,0,0
56,-279,0,0,0,0,0,0,0,0,0,-1,1280,1303,0,0
63,-279,0,0,0,0,0,0,0,0,0,-1,1287,1303,0,0
70,-279,0,0,0,0,0,0,0,0,0,-1,1294,1303,0,0
77,-279,0,0,0,0,0,0,0,0,0,-1,1301,1303,0,0
84,-279,0,0,0,0,0,0,0,0,0,-1,1308,1303,0,0
91,-279,0,0,0,0,0,0,0,0,0,-1,1315,1303,0,0
98,-279,0,0,0,0,0,0,0,0,0,-1,1322,1303,0,0
105,-279,0,0,0,0,0,0,0,0,0,-1,1329,1303,0,0
112,-279,0,0,0,0,0,0,0,0,0,-1,1336,1303,0,0
119,-279,0,0,0,0,0,0,0,0,0,-1,1343,1303,0,0
126,-279,0,0,0,0,0,0,0,0,0,-1,1350,1303,0,0
133,-279,0,0,0,0,0,0,0,0,0,-1,1357,1303,0,0
140,-279,0,0,0,0,0,0,0,0,0,-1,1364,1303,0,0
147,-279,0,0,0,0,0,0,0,0,0,-1,1371,1303,0,0
154,-279,0,0,0,0,0,0,0,0,0,-1,1378,1303,0,0
161,-279,0,0,0,0,0,0,0,0,0,-1,1385,1303,0,0
168,-279,0,0,0,0,0,0,0,0,0,-1,1392,1303,0,0
175,-279,0,0,0,0,0,0,0,0,0,-1,1399,1303,0,0
182,-279,0,0,0,0,0,0,0,0,0,-1,1406,1303,0,0
189,-279,0,0,0,0,0,0,0,0,0,-1,1413,1303,0,0
196,-279,0,0,0,0,0,0,0,0,0,-1,1420,1303,0,0
203,-279,0,0,0,0,0,0,0,0,0,-1,1427,1303,0,0
210,-279,0,0,0,0,0,0,0,0,0,-1,1434,1303,0,0
217,-279,0,0,0,0,0,0,0,0,0,-1,1441,1303,0,0
224,-279,0,0,0,0,0,0,0,0,0,-1,1448,1303,0,0
231,-279,0,0,0,0,0,0,0,0,0,-1,1455,1303,0,0
238,-279,0,0,0,0,0,0,0,0,0,-1,1462,1303,0,0
245,-279,0,0,0,0,0,0,0,0,0,-1,1469,1303,0,0
252,-279,0,0,0,0,0,0,0,0,0,-1,1476,1303,0,0
259,-279,0,0,0,0,0,0,0,0,0,-1,1483,1303,0,0
266,-279,0,0,0,0,0,0,0,0,0,-1,1490,1303,0,0
273,-279,0,0,0,0,0,0,0,0,0,-1,1497,1303,0,0
280,-279,0,0,0,0,0,0,0,0,0,-1,1504,1303,0,0
287,-279,0,0,0,0,0,0,0,0,0,-1,1511,1303,0,0
294,-279,0,0,0,0,0,0,0,0,0,-1,1518,1303,0,0
301,-279,0,0,0,0,0,0,0,0,0,-1,1525,1303,0,0
308,-279,0,0,0,0,0,0,0,0,0,-1,1532,1303,0,0
315,-279,0,0,0,0,0,0,0,0,0,-1,1539,1303,0,0
322,-279,0,0,0,0,0,0,0,0,0,-1,1546,1303,0,0
329,-279,0,0,0,0,0,0,0,0,0,-1,1553,1303,0,0
336,-279,0,0,0,0,0,0,0,0,0,-1,1560,1303,0,0
343,-279,0,0,0,0,0,0,0,0,0,-1,1567,1303,0,0
350,-279,0,0,0,0,0,0,0,0,0,-1,1574,1303,0,0
357,-279,0,0,0,0,0,0,0,0,0,-1,1581,1303,0,0
364,-279,0,0,0,0,0,0,0,0,0,-1,1588,1303,0,0
371,-279,0,0,0,0,0,0,0,0,0,-1,1595,1303,0,0
378,-279,0,0,0,0,0,0,0,0,0,-1,1602,1303,0,0
385,-279,0,0,0,0,0,0,0,0,0,-1,1609,1303,0,0
392,-279,0,0,0,0,0,0,0,0,0,-1,1616,1303,0,0
399,-279,0,0,0,0,0,0,0,0,0,-1,1623,1303,0,0
406,-279,0,0,0,0,0,0,0,0,0,-1,1630,1303,0,0
413,-279,0,0,0,0,0,0,0,0,0,-1,1637,1303,0,0
420,-279,0,0,0,0,0,0,0,0,0,-1,1644,1303,0,0
427,-279,0,0,0,0,0,0,0,0,0,-1,1651,1303,0,0
434,-279,0,0,0,0,0,0,0,0,0,-1,1658,1303,0,0
441,-279,0,0,0,0,0,0,0,0,0,-1,1665,1303,0,0
448,-279,0,0,0,0,0,0,0,0,0,-1,1672,1303,0,0
455,-279,0,0,0,0,0,0,0,0,0,-1,1679,1303,0,0
462,-279,0,0,0,0,0,0,0,0,0,-1,1686,1303,0,0
469,-279,0,0,0,0,0,0,0,0,0,-1,1693,1303,0,0
476,-279,0,0,0,0,0,0,0,0,0,-1,1700,1303,0,0
483,-279,0,0,0,0,0,0,0,0,0,-1,1707,1303,0,0
490,-279,0,0,0,0,0,0,0,0,0,-1,1714,1303,0,0
497,-279,0,0,0,0,0,0,0,0,0,-1,1721,1303,0,0
504,-279,0,0,0,0,0,0,0,0,0,-1,1728,1303,0,0
511,-279,0,0,0,0,0,0,0,0,0,-1,1735,1303,0,0
518,-279,0,0,0,0,0,0,0,0,0,-1,1742,1303,0,0
525,-279,0,0,0,0,0,0,0,0,0,-1,1749,1303,0,0
532,-279,0,0,0,0,0,0,0,0,0,-1,1756,1303,0,0
539,-279,0,0,0,0,0,0,0,0,0,-1,1763,1303,0,0
546,-279,0,0,0,0,0,0,0,0,0,-1,1770,1303,0,0
553,-279,0,0,0,0,0,0,0,0,0,-1,1777,1303,0,0
560,-279,0,0,0,0,0,0,0,0,0,-1,1784,1303,0,0
567,-279,0,0,0,0,0,0,0,0,0,-1,1791,1303,0,0
574,-279,0,0,0,0,0,0,0,0,0,-1,1798,1303,0,0
581,-279,0,0,0,0,0,0,0,0,0,-1,1805,1303,0,0
588,-279,0,0,0,0,0,0,0,0,0,-1,1812,1303,0,0
595,-279,0,0,0,0,0,0,0,0,0,-1,1819,1303,0,0
602,-279,15.0068,2.26379,0.00763126,0.0120152,-0.00774068,0.0178683,0.00177819,-0.923375,0.0113659,0.0412401,1826,1303,15.0069,-2.26381
609,-279,14.9751,2.0874,0.00771156,0.0197442,-0.00255602,0.0202647,0.00719111,-1.36993,0.011863,0.0484311,1833,1303,14.9751,-2.08744
616,-279,14.9131,2.22888,0.00610991,0.0229837,0.00207182,0.0232343,0.00585925,1.4504,0.0139528,0.0481906,1840,1303,14.9131,-2.22889
623,-279,14.5936,3.22424,0,0,0,0,0,0,0,-1,1847,1303,14.5937,-3.22423
630,-279,13.1038,-0.77124,-0.00014086,0.0196278,0.00887932,0.0230304,-0.00354345,1.20485,0.0166608,0.042585,1854,1303,13.1038,0.771216
637,-279,13.5382,-0.577515,-0.00305646,0.0161939,0.010565,0.0208608,-0.00772335,1.15484,0.0170742,0.0435666,1861,1303,13.5382,0.577497
644,-279,13.8474,1.55225,-0.00539098,0.0125833,0.0113808,0.0180976,-0.0109053,1.11961,0.0169156,0.0492557,1868,1303,13.8474,-1.5523
651,-279,13.071,1.88477,-0.00715421,0.00938291,0.0116145,0.0153715,-0.0131428,1.09474,0.0164795,0.0483988,1875,1303,13.0711,-1.88479
658,-279,13.0135,2.39624,0,0,0,0,0,0,0,-1,1882,1303,13.0136,-2.39619
665,-279,12.7876,4.46851,0,0,0,0,0,0,0,-1,1889,1303,12.7876,-4.46856
672,-279,12.5006,4.07678,-0.00871641,0.00160145,0.0103566,0.00801291,-0.0151279,1.01647,0.0135692,0.038332,1896,1303,12.5006,-4.07677
679,-279,12.3116,4.16333,-0.00791848,1.39166e-05,0.00933634,0.00619158,-0.0140961,0.986254,0.0120058,0.0229213,1903,1303,12.3117,-4.16331
686,-279,12.269,4.02026,-0.00837047,-0.00281168,0.00717129,0.00209998,-0.0132821,0.970272,0.00963137,0.0203176,1910,1303,12.269,-4.02029
693,-279,12.2527,3.901,-0.00672047,-0.00242578,0.00551491,0.00134509,-0.0104913,0.971053,0.007483,0.0161871,1917,1303,12.2527,-3.90104
700,-279,12.2732,3.80078,-0.00366148,-0.00162833,0.00336082,0.000866294,-0.0061561,0.932263,0.00442121,0.0108921,1924,1303,12.2731,-3.80076
707,-279,12.2954,3.68079,-0.00105245,-0.000703155,0.00170794,0.000839049,-0.00259465,0.836349,0.00206702,0.00851519,1931,1303,12.2954,-3.68081
714,-279,12.2939,3.5575,-0.00146967,0.000498254,0.000898312,0.000846637,-0.00181806,1.20083,0.00157217,0.0097373,1938,1303,12.2939,-3.55747
721,-279,12.2957,3.42957,-0.00390021,0.00161871,0.000105941,0.00162074,-0.00390225,1.55161,0.00327813,0.0116266,1945,1303,12.2956,-3.4296
728,-279,12.3169,3.29297,-0.00790833,0.00285475,-0.000448941,0.00287344,-0.00792703,-1.52918,0.00645918,0.012646,1952,1303,12.3169,-3.29297
735,-279,12.3313,3.18005,-0.0143942,0.00440959,-0.000850552,0.00444798,-0.0144326,-1.52569,0.0113975,0.0124807,1959,1303,12.3313,-3.18004
742,-279,12.301,3.0365,-0.0231984,0.00611456,-0.0011409,0.0061589,-0.0232427,-1.53195,0.0179048,0.0231138,1966,1303,12.301,-3.03652
749,-279,16.1604,2.31738,0,0,0,0,0,0,0,-1,1973,1303,16.1604,-2.31739
756,-279,15.2795,1.89746,0,0,0,0,0,0,0,-1,1980,1303,15.2795,-1.89744
763,-279,14.2578,1.63916,-0.0736435,0.0137349,-0.00188015,0.0137753,-0.073684,-1.54929,0.0543,0.0473176,1987,1303,14.2578,-1.63913
770,-279,13.3667,1.69446,-0.10083,0.0171181,-0.00199038,0.0171516,-0.100863,-1.55393,0.0736283,0.0491681,1994,1303,13.3667,-1.69444
777,-279,12.3512,1.57092,0,0,0,0,0,0,0,-1,2001,1303,12.3512,-1.57089
784,-279,0,0,0,0,0,0,0,0,0,-1,2008,1303,0,0
791,-279,0,0,0,0,0,0,0,0,0,-1,2015,1303,0,0
798,-279,0,0,0,0,0,0,0,0,0,-1,2022,1303,0,0
805,-279,0,0,0,0,0,0,0,0,0,-1,2029,1303,0,0
812,-279,0,0,0,0,0,0,0,0,0,-1,2036,1303,0,0
-700,-286,0,0,0,0,0,0,0,0,0,-1,524,1310,0,0
-693,-286,0,0,0,0,0,0,0,0,0,-1,531,1310,0,0
-686,-286,0,0,0,0,0,0,0,0,0,-1,538,1310,0,0
-679,-286,0,0,0,0,0,0,0,0,0,-1,545,1310,0,0
-672,-286,0,0,0,0,0,0,0,0,0,-1,552,1310,0,0
-665,-286,0,0,0,0,0,0,0,0,0,-1,559,1310,0,0
-658,-286,-5.30463,4.09521,0.0450028,6.84014e-05,-0.0732923,0.0991942,-0.054123,-0.636674,0.0897836,0.0481588,566,1310,-5.30463,-4.09526
-651,-286,-5.20563,3.92627,0.0404907,0.00949924,-0.0584978,0.0855104,-0.0355204,-0.655925,0.0718365,0.0497152,573,1310,-5.2056,-3.92628
-644,-286,-5.11237,3.58496,0.0366364,0.0151543,-0.0442756,0.0714552,-0.0196645,-0.666399,0.0553682,0.0490685,580,1310,-5.11236,-3.58492
-637,-286,-6.08612,1.07214,0.0329409,0.0181682,-0.0316919,0.0580959,-0.00698676,-0.670909,0.0412572,0.0472178,587,1310,-6.08612,-1.07218
-630,-286,-7.15125,-0.516724,0,0,0,0,0,0,0,-1,594,1310,-7.15124,0.516701
-623,-286,-6.90991,-0.0187988,0.0255289,0.0189801,-0.012549,0.0352237,0.00928537,-0.657779,0.0210804,0.0416711,601,1310,-6.90994,0.0187812
-616,-286,-5.77948,0.443848,0.0216882,0.0175984,-0.00615825,0.0261322,0.0131544,-0.625098,0.0150875,0.0422811,608,1310,-5.77948,-0.443868
-609,-286,-5.66705,0.846924,0.0173833,0.0159811,-0.00175617,0.0185731,0.0147913,-0.595488,0.0113338,0.0321491,615,1310,-5.66708,-0.846892
-602,-286,-5.64355,1.22192,0.013786,0.0149453,0.00096606,0.0154922,0.013239,1.05561,0.00966504,0.0142524,622,1310,-5.64354,-1.22191
-595,-286,-5.65576,1.3866,0.0113836,0.0109947,0.00330274,0.0144976,0.00788072,0.755997,0.00838081,0.011265,629,1310,-5.65576,-1.38664
-588,-286,-5.6347,1.52563,0.00917916,0.00792397,0.00431364,0.0129106,0.00419251,0.71316,0.00760506,0.0116209,636,1310,-5.63469,-1.52569
-581,-286,-5.62555,1.64001,0.0067398,0.00517048,0.00354814,0.00958901,0.00232128,0.676576,0.00577653,0.0129862,643,1310,-5.62554,-1.63996
-574,-286,-5.64984,1.77344,0.00471354,0.0022471,0.0017345,0.00560854,0.00135211,0.476364,0.00337971,0.0127463,650,1310,-5.64987,-1.77346
-567,-286,-5.63849,1.94678,0.0022885,0.000239284,-0.000624997,0.00246408,6.37075e-05,-0.273865,0.0016219,0.012167,657,1310,-5.63847,-1.94672
-560,-286,-5.63318,2.11462,0.000128165,-0.000251386,-0.00227974,0.00222602,-0.00234924,-0.743872,0.00264184,0.0127536,664,1310,-5.6332,-2.11465
-553,-286,-5.64197,2.28308,-0.0017914,-0.000108943,-0.00347378,0.00262402,-0.00452436,-0.904194,0.00417545,0.0107122,671,1310,-5.642,-2.28305
-546,-286,-5.62915,2.43982,-0.0041525,0.000439037,-0.00471189,0.00338469,-0.00709815,-1.01209,0.00617755,0.0127411,678,1310,-5.62918,-2.43987
-539,-286,-5.61206,2.58459,-0.00692757,0.00182258,-0.00578037,0.00469692,-0.00980191,-1.10934,0.00854211,0.0285405,685,1310,-5.61206,-2.58465
-532,-286,-5.55035,2.6001,-0.0102199,0.00385917,-0.00669437,0.00653404,-0.0128947,-1.19066,0.0114158,0.0493531,692,1310,-5.55035,-2.60009
-525,-286,-5.58514,2.54565,0,0,0,0,0,0,0,-1,699,1310,-5.58515,-2.54565
-518,-286,-6.14209,-2.49402,0,0,0,0,0,0,0,-1,706,1310,-6.1421,2.49399
-511,-286,-6.60522,-1.88721,0,0,0,0,0,0,0,-1,713,1310,-6.60525,1.88717
-504,-286,-7.06842,-1.2804,0,0,0,0,0,0,0,-1,720,1310,-7.0684,1.28035
-497,-286,-7.75568,0.469116,-0.0309573,0.0148879,-0.00762392,0.0161225,-0.0321919,-1.41025,0.028404,0.0437452,727,1310,-7.75568,-0.469138
-490,-286,-7.93677,0.291748,-0.0348302,0.0168072,-0.00717506,0.0177857,-0.0358087,-1.43527,0.0315205,0.0428811,734,1310,-7.93675,-0.291745
-483,-286,-8.09961,0.323853,-0.0384542,0.0186102,-0.0063856,0.0193161,-0.0391601,-1.46071,0.0344031,0.0438044,741,1310,-8.09959,-0.323863
-476,-286,-8.37573,0.521851,-0.0419573,0.0187159,-0.00608722,0.0193206,-0.042562,-1.47178,0.0365582,0.0408294,748,1310,-8.37572,-0.52186
-469,-286,0,0,0,0,0,0,0,0,0,-1,755,1310,0,0
-462,-286,0,0,0,0,0,0,0,0,0,-1,762,1310,0,0
-455,-286,0,0,0,0,0,0,0,0,0,-1,769,1310,0,0
-448,-286,0,0,0,0,0,0,0,0,0,-1,776,1310,0,0
-441,-286,0,0,0,0,0,0,0,0,0,-1,783,1310,0,0
-434,-286,0,0,0,0,0,0,0,0,0,-1,790,1310,0,0
-427,-286,0,0,0,0,0,0,0,0,0,-1,797,1310,0,0
-420,-286,0,0,0,0,0,0,0,0,0,-1,804,1310,0,0
-413,-286,0,0,0,0,0,0,0,0,0,-1,811,1310,0,0
-406,-286,0,0,0,0,0,0,0,0,0,-1,818,1310,0,0
-399,-286,0,0,0,0,0,0,0,0,0,-1,825,1310,0,0
-392,-286,0,0,0,0,0,0,0,0,0,-1,832,1310,0,0
-385,-286,0,0,0,0,0,0,0,0,0,-1,839,1310,0,0
-378,-286,0,0,0,0,0,0,0,0,0,-1,846,1310,0,0
-371,-286,0,0,0,0,0,0,0,0,0,-1,853,1310,0,0
-364,-286,0,0,0,0,0,0,0,0,0,-1,860,1310,0,0
-357,-286,0,0,0,0,0,0,0,0,0,-1,867,1310,0,0
-350,-286,0,0,0,0,0,0,0,0,0,-1,874,1310,0,0
-343,-286,0,0,0,0,0,0,0,0,0,-1,881,1310,0,0
-336,-286,0,0,0,0,0,0,0,0,0,-1,888,1310,0,0
-329,-286,0,0,0,0,0,0,0,0,0,-1,895,1310,0,0
-322,-286,0,0,0,0,0,0,0,0,0,-1,902,1310,0,0
-315,-286,0,0,0,0,0,0,0,0,0,-1,909,1310,0,0
-308,-286,0,0,0,0,0,0,0,0,0,-1,916,1310,0,0
-301,-286,0,0,0,0,0,0,0,0,0,-1,923,1310,0,0
-294,-286,0,0,0,0,0,0,0,0,0,-1,930,1310,0,0
-287,-286,0,0,0,0,0,0,0,0,0,-1,937,1310,0,0
-280,-286,0,0,0,0,0,0,0,0,0,-1,944,1310,0,0
-273,-286,0,0,0,0,0,0,0,0,0,-1,951,1310,0,0
-266,-286,0,0,0,0,0,0,0,0,0,-1,958,1310,0,0
-259,-286,0,0,0,0,0,0,0,0,0,-1,965,1310,0,0
-252,-286,0,0,0,0,0,0,0,0,0,-1,972,1310,0,0
-245,-286,0,0,0,0,0,0,0,0,0,-1,979,1310,0,0
-238,-286,0,0,0,0,0,0,0,0,0,-1,986,1310,0,0
-231,-286,0,0,0,0,0,0,0,0,0,-1,993,1310,0,0
-224,-286,0,0,0,0,0,0,0,0,0,-1,1000,1310,0,0
-217,-286,0,0,0,0,0,0,0,0,0,-1,1007,1310,0,0
-210,-286,0,0,0,0,0,0,0,0,0,-1,1014,1310,0,0
-203,-286,0,0,0,0,0,0,0,0,0,-1,1021,1310,0,0
-196,-286,0,0,0,0,0,0,0,0,0,-1,1028,1310,0,0
-189,-286,0,0,0,0,0,0,0,0,0,-1,1035,1310,0,0
-182,-286,0,0,0,0,0,0,0,0,0,-1,1042,1310,0,0
-175,-286,0,0,0,0,0,0,0,0,0,-1,1049,1310,0,0
-168,-286,0,0,0,0,0,0,0,0,0,-1,1056,1310,0,0
-161,-286,0,0,0,0,0,0,0,0,0,-1,1063,1310,0,0
-154,-286,0,0,0,0,0,0,0,0,0,-1,1070,1310,0,0
-147,-286,0,0,0,0,0,0,0,0,0,-1,1077,1310,0,0
-140,-286,0,0,0,0,0,0,0,0,0,-1,1084,1310,0,0
-133,-286,0,0,0,0,0,0,0,0,0,-1,1091,1310,0,0
-126,-286,0,0,0,0,0,0,0,0,0,-1,1098,1310,0,0
-119,-286,0,0,0,0,0,0,0,0,0,-1,1105,1310,0,0
-112,-286,0,0,0,0,0,0,0,0,0,-1,1112,1310,0,0
-105,-286,0,0,0,0,0,0,0,0,0,-1,1119,1310,0,0
-98,-286,0,0,0,0,0,0,0,0,0,-1,1126,1310,0,0
-91,-286,0,0,0,0,0,0,0,0,0,-1,1133,1310,0,0
-84,-286,0,0,0,0,0,0,0,0,0,-1,1140,1310,0,0
-77,-286,0,0,0,0,0,0,0,0,0,-1,1147,1310,0,0
-70,-286,0,0,0,0,0,0,0,0,0,-1,1154,1310,0,0
-63,-286,0,0,0,0,0,0,0,0,0,-1,1161,1310,0,0
-56,-286,0,0,0,0,0,0,0,0,0,-1,1168,1310,0,0
-49,-286,0,0,0,0,0,0,0,0,0,-1,1175,1310,0,0
-42,-286,0,0,0,0,0,0,0,0,0,-1,1182,1310,0,0
-35,-286,0,0,0,0,0,0,0,0,0,-1,1189,1310,0,0
-28,-286,0,0,0,0,0,0,0,0,0,-1,1196,1310,0,0
-21,-286,0,0,0,0,0,0,0,0,0,-1,1203,1310,0,0
-14,-286,0,0,0,0,0,0,0,0,0,-1,1210,1310,0,0
-7,-286,0,0,0,0,0,0,0,0,0,-1,1217,1310,0,0
0,-286,0,0,0,0,0,0,0,0,0,-1,1224,1310,0,0
7,-286,0,0,0,0,0,0,0,0,0,-1,1231,1310,0,0
14,-286,0,0,0,0,0,0,0,0,0,-1,1238,1310,0,0
21,-286,0,0,0,0,0,0,0,0,0,-1,1245,1310,0,0
28,-286,0,0,0,0,0,0,0,0,0,-1,1252,1310,0,0
35,-286,0,0,0,0,0,0,0,0,0,-1,1259,1310,0,0
42,-286,0,0,0,0,0,0,0,0,0,-1,1266,1310,0,0
49,-286,0,0,0,0,0,0,0,0,0,-1,1273,1310,0,0
56,-286,0,0,0,0,0,0,0,0,0,-1,1280,1310,0,0
63,-286,0,0,0,0,0,0,0,0,0,-1,1287,1310,0,0
70,-286,0,0,0,0,0,0,0,0,0,-1,1294,1310,0,0
77,-286,0,0,0,0,0,0,0,0,0,-1,1301,1310,0,0
84,-286,0,0,0,0,0,0,0,0,0,-1,1308,1310,0,0
91,-286,0,0,0,0,0,0,0,0,0,-1,1315,1310,0,0
98,-286,0,0,0,0,0,0,0,0,0,-1,1322,1310,0,0
105,-286,0,0,0,0,0,0,0,0,0,-1,1329,1310,0,0
112,-286,0,0,0,0,0,0,0,0,0,-1,1336,1310,0,0
119,-286,0,0,0,0,0,0,0,0,0,-1,1343,1310,0,0
126,-286,0,0,0,0,0,0,0,0,0,-1,1350,1310,0,0
133,-286,0,0,0,0,0,0,0,0,0,-1,1357,1310,0,0
140,-286,0,0,0,0,0,0,0,0,0,-1,1364,1310,0,0
147,-286,0,0,0,0,0,0,0,0,0,-1,1371,1310,0,0
154,-286,0,0,0,0,0,0,0,0,0,-1,1378,1310,0,0
161,-286,0,0,0,0,0,0,0,0,0,-1,1385,1310,0,0
168,-286,0,0,0,0,0,0,0,0,0,-1,1392,1310,0,0
175,-286,0,0,0,0,0,0,0,0,0,-1,1399,1310,0,0
182,-286,0,0,0,0,0,0,0,0,0,-1,1406,1310,0,0
189,-286,0,0,0,0,0,0,0,0,0,-1,1413,1310,0,0
196,-286,0,0,0,0,0,0,0,0,0,-1,1420,1310,0,0
203,-286,0,0,0,0,0,0,0,0,0,-1,1427,1310,0,0
210,-286,0,0,0,0,0,0,0,0,0,-1,1434,1310,0,0
217,-286,0,0,0,0,0,0,0,0,0,-1,1441,1310,0,0
224,-286,0,0,0,0,0,0,0,0,0,-1,1448,1310,0,0
231,-286,0,0,0,0,0,0,0,0,0,-1,1455,1310,0,0
238,-286,0,0,0,0,0,0,0,0,0,-1,1462,1310,0,0
245,-286,0,0,0,0,0,0,0,0,0,-1,1469,1310,0,0
252,-286,0,0,0,0,0,0,0,0,0,-1,1476,1310,0,0
259,-286,0,0,0,0,0,0,0,0,0,-1,1483,1310,0,0
266,-286,0,0,0,0,0,0,0,0,0,-1,1490,1310,0,0
273,-286,0,0,0,0,0,0,0,0,0,-1,1497,1310,0,0
280,-286,0,0,0,0,0,0,0,0,0,-1,1504,1310,0,0
287,-286,0,0,0,0,0,0,0,0,0,-1,1511,1310,0,0
294,-286,0,0,0,0,0,0,0,0,0,-1,1518,1310,0,0
301,-286,0,0,0,0,0,0,0,0,0,-1,1525,1310,0,0
308,-286,0,0,0,0,0,0,0,0,0,-1,1532,1310,0,0
315,-286,0,0,0,0,0,0,0,0,0,-1,1539,1310,0,0
322,-286,0,0,0,0,0,0,0,0,0,-1,1546,1310,0,0
329,-286,0,0,0,0,0,0,0,0,0,-1,1553,1310,0,0
336,-286,0,0,0,0,0,0,0,0,0,-1,1560,1310,0,0
343,-286,0,0,0,0,0,0,0,0,0,-1,1567,1310,0,0
350,-286,0,0,0,0,0,0,0,0,0,-1,1574,1310,0,0
357,-286,0,0,0,0,0,0,0,0,0,-1,1581,1310,0,0
364,-286,0,0,0,0,0,0,0,0,0,-1,1588,1310,0,0
371,-286,0,0,0,0,0,0,0,0,0,-1,1595,1310,0,0
378,-286,0,0,0,0,0,0,0,0,0,-1,1602,1310,0,0
385,-286,0,0,0,0,0,0,0,0,0,-1,1609,1310,0,0
392,-286,0,0,0,0,0,0,0,0,0,-1,1616,1310,0,0
399,-286,0,0,0,0,0,0,0,0,0,-1,1623,1310,0,0
406,-286,0,0,0,0,0,0,0,0,0,-1,1630,1310,0,0
413,-286,0,0,0,0,0,0,0,0,0,-1,1637,1310,0,0
420,-286,0,0,0,0,0,0,0,0,0,-1,1644,1310,0,0
427,-286,0,0,0,0,0,0,0,0,0,-1,1651,1310,0,0
434,-286,0,0,0,0,0,0,0,0,0,-1,1658,1310,0,0
441,-286,0,0,0,0,0,0,0,0,0,-1,1665,1310,0,0
448,-286,0,0,0,0,0,0,0,0,0,-1,1672,1310,0,0
455,-286,0,0,0,0,0,0,0,0,0,-1,1679,1310,0,0
462,-286,0,0,0,0,0,0,0,0,0,-1,1686,1310,0,0
469,-286,0,0,0,0,0,0,0,0,0,-1,1693,1310,0,0
476,-286,0,0,0,0,0,0,0,0,0,-1,1700,1310,0,0
483,-286,0,0,0,0,0,0,0,0,0,-1,1707,1310,0,0
490,-286,0,0,0,0,0,0,0,0,0,-1,1714,1310,0,0
497,-286,0,0,0,0,0,0,0,0,0,-1,1721,1310,0,0
504,-286,0,0,0,0,0,0,0,0,0,-1,1728,1310,0,0
511,-286,0,0,0,0,0,0,0,0,0,-1,1735,1310,0,0
518,-286,0,0,0,0,0,0,0,0,0,-1,1742,1310,0,0
525,-286,0,0,0,0,0,0,0,0,0,-1,1749,1310,0,0
532,-286,0,0,0,0,0,0,0,0,0,-1,1756,1310,0,0
539,-286,0,0,0,0,0,0,0,0,0,-1,1763,1310,0,0
546,-286,0,0,0,0,0,0,0,0,0,-1,1770,1310,0,0
553,-286,0,0,0,0,0,0,0,0,0,-1,1777,1310,0,0
560,-286,0,0,0,0,0,0,0,0,0,-1,1784,1310,0,0
567,-286,0,0,0,0,0,0,0,0,0,-1,1791,1310,0,0
574,-286,0,0,0,0,0,0,0,0,0,-1,1798,1310,0,0
581,-286,0,0,0,0,0,0,0,0,0,-1,1805,1310,0,0
588,-286,0,0,0,0,0,0,0,0,0,-1,1812,1310,0,0
595,-286,15.1409,2.39917,0.00469063,0.00469613,-0.0104511,0.0151445,-0.0057577,-0.78553,0.0124669,0.0398442,1819,1310,15.1409,-2.39921
602,-286,15.2209,2.41028,0.0106068,0.0183221,-0.00607146,0.0216578,0.0072711,-1.06841,0.0127271,0.044249,1826,1310,15.2209,-2.41028
609,-286,15.0226,2.18213,0.0096237,0.0247974,-0.000908985,0.0248516,0.00956944,-1.51118,0.0144739,0.0461914,1833,1310,15.0226,-2.18216
616,-286,14.983,2.15771,0,0,0,0,0,0,0,-1,1840,1310,14.9831,-2.15771
623,-286,11.8755,-1.62061,0,0,0,0,0,0,0,-1,1847,1310,11.8755,1.62062
630,-286,12.0804,-1.54736,0.00068373,0.0214746,0.00956832,0.0252078,-0.00304945,1.1988,0.0179084,0.0434843,1854,1310,12.0805,1.54735
637,-286,14.9139,0.390137,-0.00228624,0.0174237,0.0110796,0.0223971,-0.00725957,1.14888,0.0178503,0.0444977,1861,1310,14.9139,-0.390165
644,-286,13.9481,1.6897,-0.00467402,0.0133134,0.0117898,0.0191482,-0.0105088,1.11123,0.017363,0.0421472,1868,1310,13.9481,-1.68965
651,-286,12.9449,2.28223,-0.00653186,0.00974972,0.0119596,0.0160763,-0.0128585,1.08422,0.0167399,0.0425687,1875,1310,12.945,-2.28218
658,-286,12.5142,2.36682,0,0,0,0,0,0,0,-1,1882,1310,12.5142,-2.36679
665,-286,12.4757,4.39563,-0.00830168,0.00392935,0.0114022,0.0107525,-0.0151249,1.03155,0.0150112,0.0463171,1889,1310,12.4757,-4.39559
672,-286,12.2748,4.31848,-0.00826179,0.00105187,0.010428,0.00781564,-0.0150256,0.995396,0.0134046,0.0260298,1896,1310,12.2748,-4.31849
679,-286,12.1483,4.19385,-0.00740392,-0.000628484,0.00916853,0.00575819,-0.0137906,0.962365,0.0115997,0.0211684,1903,1310,12.1483,-4.19381
686,-286,12.1379,4.03308,-0.00781036,-0.0031627,0.00674789,0.00165028,-0.0126234,0.951227,0.00901615,0.020628,1910,1310,12.138,-4.03311
693,-286,12.1398,3.90601,-0.0061078,-0.00258704,0.005002,0.000955308,-0.00965015,0.954597,0.00677436,0.0159923,1917,1310,12.1398,-3.90598
700,-286,12.1561,3.78149,-0.00306422,-0.00155229,0.0028484,0.000638749,-0.00525526,0.915108,0.00373468,0.0111564,1924,1310,12.1562,-3.78154
707,-286,12.1652,3.68738,-0.000490849,-0.000460099,0.00122502,0.000749644,-0.00170059,0.791673,0.00144972,0.00850062,1931,1310,12.1652,-3.68736
714,-286,12.1589,3.55847,-0.000963345,0.000743928,0.000466017,0.000862849,-0.00108227,1.32094,0.00112539,0.0082914,1938,1310,12.1589,-3.55848
721,-286,12.1583,3.42126,-0.00331683,0.00180448,-0.000253742,0.00181702,-0.00332937,-1.52141,0.00301373,0.0105249,1945,1310,12.1584,-3.42126
728,-286,12.1683,3.29272,-0.00713413,0.00292319,-0.000803848,0.00298704,-0.00719798,-1.49154,0.00604553,0.0132996,1952,1310,12.1683,-3.2927
735,-286,12.1714,3.17053,-0.0134458,0.00434412,-0.00119886,0.00442454,-0.0135262,-1.50381,0.0107988,0.0147079,1959,1310,12.1714,-3.17054
742,-286,12.1573,3.047,-0.0222289,0.00587483,-0.00146961,0.00595147,-0.0223055,-1.51869,0.0172009,0.025732,1966,1310,12.1573,-3.047
749,-286,12.1545,2.87793,-0.0347234,0.0077171,-0.00167199,0.00778287,-0.0347892,-1.53148,0.0261757,0.0434617,1973,1310,12.1546,-2.87797
756,-286,15.1295,1.48242,0,0,0,0,0,0,0,-1,1980,1310,15.1295,-1.48237
763,-286,14.1923,1.31152,-0.073717,0.0122876,-0.00156229,0.012316,-0.0737453,-1.55264,0.0537414,0.045698,1987,1310,14.1923,-1.31156
770,-286,13.3352,1.79785,-0.101839,0.0148727,-0.00106591,0.0148824,-0.101849,-1.56166,0.073365,0.0481137,1994,1310,13.3352,-1.79789
777,-286,0,0,0,0,0,0,0,0,0,-1,2001,1310,0,0
784,-286,0,0,0,0,0,0,0,0,0,-1,2008,1310,0,0
791,-286,0,0,0,0,0,0,0,0,0,-1,2015,1310,0,0
798,-286,0,0,0,0,0,0,0,0,0,-1,2022,1310,0,0
805,-286,0,0,0,0,0,0,0,0,0,-1,2029,1310,0,0
812,-286,0,0,0,0,0,0,0,0,0,-1,2036,1310,0,0
-700,-293,0,0,0,0,0,0,0,0,0,-1,524,1317,0,0
-693,-293,0,0,0,0,0,0,0,0,0,-1,531,1317,0,0
-686,-293,0,0,0,0,0,0,0,0,0,-1,538,1317,0,0
-679,-293,0,0,0,0,0,0,0,0,0,-1,545,1317,0,0
-672,-293,0,0,0,0,0,0,0,0,0,-1,552,1317,0,0
-665,-293,0,0,0,0,0,0,0,0,0,-1,559,1317,0,0
-658,-293,0,0,0,0,0,0,0,0,0,-1,566,1317,0,0
-651,-293,-5.06586,4.56909,0,0,0,0,0,0,0,-1,573,1317,-5.06583,-4.56906
-644,-293,-5.18512,3.45471,0,0,0,0,0,0,0,-1,580,1317,-5.18511,-3.45473
-637,-293,-7.85242,-0.453735,0,0,0,0,0,0,0,-1,587,1317,-7.8524,0.453722
-630,-293,-7.08807,-0.580566,0,0,0,0,0,0,0,-1,594,1317,-7.0881,0.580581
-623,-293,-6.41803,-0.348145,0.0274263,0.0293722,-0.0126708,0.0411074,0.0156912,-0.823717,0.0239537,0.041264,601,1317,-6.418,0.348113
-616,-293,-4.96661,0.578613,0.0236171,0.0256471,-0.00540182,0.0301285,0.0191358,-0.878264,0.0176052,0.0408334,608,1317,-4.96658,-0.578634
-609,-293,-5.25879,0.922974,0.0192215,0.022092,-0.000541705,0.0221908,0.0191227,-1.39034,0.0138846,0.035628,615,1317,-5.25877,-0.923008
-602,-293,-5.46716,1.18945,0.0156021,0.0195492,0.00228156,0.0205923,0.014559,1.14196,0.0122239,0.0250848,622,1317,-5.46717,-1.18947
-595,-293,-5.51801,1.37085,0.012683,0.0142612,0.00467461,0.0182129,0.00873137,0.869013,0.0105182,0.0144422,629,1317,-5.51798,-1.37081
-588,-293,-5.51642,1.4873,0.0099466,0.0101687,0.0056069,0.0156657,0.00444965,0.7953,0.00932155,0.015051,636,1317,-5.51641,-1.48733
-581,-293,-5.49792,1.63562,0.00730606,0.00689657,0.00456292,0.0116688,0.0025338,0.762977,0.00708723,0.0163487,643,1317,-5.49793,-1.63564
-574,-293,-5.48828,1.80078,0.00513088,0.00358729,0.00274341,0.00720898,0.00150918,0.648279,0.00439026,0.0148349,650,1317,-5.48831,-1.80077
-567,-293,-5.48425,1.97095,0.00260677,0.000969198,0.000267331,0.0026493,0.000926662,0.157793,0.00155242,0.0155157,657,1317,-5.48426,-1.97095
-560,-293,-5.4812,2.13306,0.000585545,-0.000152233,-0.00160786,0.00186629,-0.00143297,-0.672635,0.0019103,0.01596,664,1317,-5.48121,-2.133
-553,-293,-5.48169,2.27136,-0.00106088,-0.00053662,-0.00296158,0.00217441,-0.0037719,-0.829538,0.00347415,0.0108081,671,1317,-5.48169,-2.27131
-546,-293,-5.47656,2.43591,-0.00314632,-0.000404099,-0.00438152,0.00281583,-0.00636625,-0.937037,0.00543178,0.00993437,678,1317,-5.47658,-2.43589
-539,-293,-5.44513,2.56348,-0.00564451,0.00062386,-0.00550759,0.0038266,-0.00884726,-1.04408,0.0075062,0.0201688,685,1317,-5.44513,-2.56352
-532,-293,-5.42749,2.48767,-0.0087318,0.00243527,-0.00650766,0.00542644,-0.011723,-1.13996,0.0101212,0.0399172,692,1317,-5.42746,-2.48771
-525,-293,-5.30084,2.36877,-0.0125118,0.00397256,-0.00705629,0.00658048,-0.0151197,-1.21678,0.0128479,0.0490041,699,1317,-5.30084,-2.36872
-518,-293,-5.20276,2.30896,0,0,0,0,0,0,0,-1,706,1317,-5.20276,-2.309
-511,-293,-6.34454,-2.41418,0,0,0,0,0,0,0,-1,713,1317,-6.34454,2.41415
-504,-293,-7.34222,0.401855,0,0,0,0,0,0,0,-1,720,1317,-7.34223,-0.4019
-497,-293,-7.45862,0.310059,-0.0293638,0.0118073,-0.00860371,0.0135329,-0.0310894,-1.37285,0.026419,0.0463378,727,1317,-7.45863,-0.309998
-490,-293,-7.61017,0.196533,-0.0334948,0.0133708,-0.00854556,0.0148804,-0.0350044,-1.39595,0.0295719,0.0430545,734,1317,-7.61017,-0.196522
-483,-293,-7.7403,-0.0718994,-0.0374941,0.0148626,-0.00820132,0.0161172,-0.0387487,-1.419,0.0325627,0.0441307,741,1317,-7.74029,0.0719396
-476,-293,-8.08569,0.357056,-0.0415388,0.0150184,-0.00813098,0.0161641,-0.0426846,-1.43081,0.0351075,0.0436258,748,1317,-8.08572,-0.356999
-469,-293,0,0,0,0,0,0,0,0,0,-1,755,1317,0,0
-462,-293,0,0,0,0,0,0,0,0,0,-1,762,1317,0,0
-455,-293,0,0,0,0,0,0,0,0,0,-1,769,1317,0,0
-448,-293,0,0,0,0,0,0,0,0,0,-1,776,1317,0,0
-441,-293,0,0,0,0,0,0,0,0,0,-1,783,1317,0,0
-434,-293,0,0,0,0,0,0,0,0,0,-1,790,1317,0,0
-427,-293,0,0,0,0,0,0,0,0,0,-1,797,1317,0,0
-420,-293,0,0,0,0,0,0,0,0,0,-1,804,1317,0,0
-413,-293,0,0,0,0,0,0,0,0,0,-1,811,1317,0,0
-406,-293,0,0,0,0,0,0,0,0,0,-1,818,1317,0,0
-399,-293,0,0,0,0,0,0,0,0,0,-1,825,1317,0,0
-392,-293,0,0,0,0,0,0,0,0,0,-1,832,1317,0,0
-385,-293,0,0,0,0,0,0,0,0,0,-1,839,1317,0,0
-378,-293,0,0,0,0,0,0,0,0,0,-1,846,1317,0,0
-371,-293,0,0,0,0,0,0,0,0,0,-1,853,1317,0,0
-364,-293,0,0,0,0,0,0,0,0,0,-1,860,1317,0,0
-357,-293,0,0,0,0,0,0,0,0,0,-1,867,1317,0,0
-350,-293,0,0,0,0,0,0,0,0,0,-1,874,1317,0,0
-343,-293,0,0,0,0,0,0,0,0,0,-1,881,1317,0,0
-336,-293,0,0,0,0,0,0,0,0,0,-1,888,1317,0,0
-329,-293,0,0,0,0,0,0,0,0,0,-1,895,1317,0,0
-322,-293,0,0,0,0,0,0,0,0,0,-1,902,1317,0,0
-315,-293,0,0,0,0,0,0,0,0,0,-1,909,1317,0,0
-308,-293,0,0,0,0,0,0,0,0,0,-1,916,1317,0,0
-301,-293,0,0,0,0,0,0,0,0,0,-1,923,1317,0,0
-294,-293,0,0,0,0,0,0,0,0,0,-1,930,1317,0,0
-287,-293,0,0,0,0,0,0,0,0,0,-1,937,1317,0,0
-280,-293,0,0,0,0,0,0,0,0,0,-1,944,1317,0,0
-273,-293,0,0,0,0,0,0,0,0,0,-1,951,1317,0,0
-266,-293,0,0,0,0,0,0,0,0,0,-1,958,1317,0,0
-259,-293,0,0,0,0,0,0,0,0,0,-1,965,1317,0,0
-252,-293,0,0,0,0,0,0,0,0,0,-1,972,1317,0,0
-245,-293,0,0,0,0,0,0,0,0,0,-1,979,1317,0,0
-238,-293,0,0,0,0,0,0,0,0,0,-1,986,1317,0,0
-231,-293,0,0,0,0,0,0,0,0,0,-1,993,1317,0,0
-224,-293,0,0,0,0,0,0,0,0,0,-1,1000,1317,0,0
-217,-293,0,0,0,0,0,0,0,0,0,-1,1007,1317,0,0
-210,-293,0,0,0,0,0,0,0,0,0,-1,1014,1317,0,0
-203,-293,0,0,0,0,0,0,0,0,0,-1,1021,1317,0,0
-196,-293,0,0,0,0,0,0,0,0,0,-1,1028,1317,0,0
-189,-293,0,0,0,0,0,0,0,0,0,-1,1035,1317,0,0
-182,-293,0,0,0,0,0,0,0,0,0,-1,1042,1317,0,0
-175,-293,0,0,0,0,0,0,0,0,0,-1,1049,1317,0,0
-168,-293,0,0,0,0,0,0,0,0,0,-1,1056,1317,0,0
-161,-293,0,0,0,0,0,0,0,0,0,-1,1063,1317,0,0
-154,-293,0,0,0,0,0,0,0,0,0,-1,1070,1317,0,0
-147,-293,0,0,0,0,0,0,0,0,0,-1,1077,1317,0,0
-140,-293,0,0,0,0,0,0,0,0,0,-1,1084,1317,0,0
-133,-293,0,0,0,0,0,0,0,0,0,-1,1091,1317,0,0
-126,-293,0,0,0,0,0,0,0,0,0,-1,1098,1317,0,0
-119,-293,0,0,0,0,0,0,0,0,0,-1,1105,1317,0,0
-112,-293,0,0,0,0,0,0,0,0,0,-1,1112,1317,0,0
-105,-293,0,0,0,0,0,0,0,0,0,-1,1119,1317,0,0
-98,-293,0,0,0,0,0,0,0,0,0,-1,1126,1317,0,0
-91,-293,0,0,0,0,0,0,0,0,0,-1,1133,1317,0,0
-84,-293,0,0,0,0,0,0,0,0,0,-1,1140,1317,0,0
-77,-293,0,0,0,0,0,0,0,0,0,-1,1147,1317,0,0
-70,-293,0,0,0,0,0,0,0,0,0,-1,1154,1317,0,0
-63,-293,0,0,0,0,0,0,0,0,0,-1,1161,1317,0,0
-56,-293,0,0,0,0,0,0,0,0,0,-1,1168,1317,0,0
-49,-293,0,0,0,0,0,0,0,0,0,-1,1175,1317,0,0
-42,-293,0,0,0,0,0,0,0,0,0,-1,1182,1317,0,0
-35,-293,0,0,0,0,0,0,0,0,0,-1,1189,1317,0,0
-28,-293,0,0,0,0,0,0,0,0,0,-1,1196,1317,0,0
-21,-293,0,0,0,0,0,0,0,0,0,-1,1203,1317,0,0
-14,-293,0,0,0,0,0,0,0,0,0,-1,1210,1317,0,0
-7,-293,0,0,0,0,0,0,0,0,0,-1,1217,1317,0,0
0,-293,0,0,0,0,0,0,0,0,0,-1,1224,1317,0,0
7,-293,0,0,0,0,0,0,0,0,0,-1,1231,1317,0,0
14,-293,0,0,0,0,0,0,0,0,0,-1,1238,1317,0,0
21,-293,0,0,0,0,0,0,0,0,0,-1,1245,1317,0,0
28,-293,0,0,0,0,0,0,0,0,0,-1,1252,1317,0,0
35,-293,0,0,0,0,0,0,0,0,0,-1,1259,1317,0,0
42,-293,0,0,0,0,0,0,0,0,0,-1,1266,1317,0,0
49,-293,0,0,0,0,0,0,0,0,0,-1,1273,1317,0,0
56,-293,0,0,0,0,0,0,0,0,0,-1,1280,1317,0,0
63,-293,0,0,0,0,0,0,0,0,0,-1,1287,1317,0,0
70,-293,0,0,0,0,0,0,0,0,0,-1,1294,1317,0,0
77,-293,0,0,0,0,0,0,0,0,0,-1,1301,1317,0,0
84,-293,0,0,0,0,0,0,0,0,0,-1,1308,1317,0,0
91,-293,0,0,0,0,0,0,0,0,0,-1,1315,1317,0,0
98,-293,0,0,0,0,0,0,0,0,0,-1,1322,1317,0,0
105,-293,0,0,0,0,0,0,0,0,0,-1,1329,1317,0,0
112,-293,0,0,0,0,0,0,0,0,0,-1,1336,1317,0,0
119,-293,0,0,0,0,0,0,0,0,0,-1,1343,1317,0,0
126,-293,0,0,0,0,0,0,0,0,0,-1,1350,1317,0,0
133,-293,0,0,0,0,0,0,0,0,0,-1,1357,1317,0,0
140,-293,0,0,0,0,0,0,0,0,0,-1,1364,1317,0,0
147,-293,0,0,0,0,0,0,0,0,0,-1,1371,1317,0,0
154,-293,0,0,0,0,0,0,0,0,0,-1,1378,1317,0,0
161,-293,0,0,0,0,0,0,0,0,0,-1,1385,1317,0,0
168,-293,0,0,0,0,0,0,0,0,0,-1,1392,1317,0,0
175,-293,0,0,0,0,0,0,0,0,0,-1,1399,1317,0,0
182,-293,0,0,0,0,0,0,0,0,0,-1,1406,1317,0,0
189,-293,0,0,0,0,0,0,0,0,0,-1,1413,1317,0,0
196,-293,0,0,0,0,0,0,0,0,0,-1,1420,1317,0,0
203,-293,0,0,0,0,0,0,0,0,0,-1,1427,1317,0,0
210,-293,0,0,0,0,0,0,0,0,0,-1,1434,1317,0,0
217,-293,0,0,0,0,0,0,0,0,0,-1,1441,1317,0,0
224,-293,0,0,0,0,0,0,0,0,0,-1,1448,1317,0,0
231,-293,0,0,0,0,0,0,0,0,0,-1,1455,1317,0,0
238,-293,0,0,0,0,0,0,0,0,0,-1,1462,1317,0,0
245,-293,0,0,0,0,0,0,0,0,0,-1,1469,1317,0,0
252,-293,0,0,0,0,0,0,0,0,0,-1,1476,1317,0,0
259,-293,0,0,0,0,0,0,0,0,0,-1,1483,1317,0,0
266,-293,0,0,0,0,0,0,0,0,0,-1,1490,1317,0,0
273,-293,0,0,0,0,0,0,0,0,0,-1,1497,1317,0,0
280,-293,0,0,0,0,0,0,0,0,0,-1,1504,1317,0,0
287,-293,0,0,0,0,0,0,0,0,0,-1,1511,1317,0,0
294,-293,0,0,0,0,0,0,0,0,0,-1,1518,1317,0,0
301,-293,0,0,0,0,0,0,0,0,0,-1,1525,1317,0,0
308,-293,0,0,0,0,0,0,0,0,0,-1,1532,1317,0,0
315,-293,0,0,0,0,0,0,0,0,0,-1,1539,1317,0,0
322,-293,0,0,0,0,0,0,0,0,0,-1,1546,1317,0,0
329,-293,0,0,0,0,0,0,0,0,0,-1,1553,1317,0,0
336,-293,0,0,0,0,0,0,0,0,0,-1,1560,1317,0,0
343,-293,0,0,0,0,0,0,0,0,0,-1,1567,1317,0,0
350,-293,0,0,0,0,0,0,0,0,0,-1,1574,1317,0,0
357,-293,0,0,0,0,0,0,0,0,0,-1,1581,1317,0,0
364,-293,0,0,0,0,0,0,0,0,0,-1,1588,1317,0,0
371,-293,0,0,0,0,0,0,0,0,0,-1,1595,1317,0,0
378,-293,0,0,0,0,0,0,0,0,0,-1,1602,1317,0,0
385,-293,0,0,0,0,0,0,0,0,0,-1,1609,1317,0,0
392,-293,0,0,0,0,0,0,0,0,0,-1,1616,1317,0,0
399,-293,0,0,0,0,0,0,0,0,0,-1,1623,1317,0,0
406,-293,0,0,0,0,0,0,0,0,0,-1,1630,1317,0,0
413,-293,0,0,0,0,0,0,0,0,0,-1,1637,1317,0,0
420,-293,0,0,0,0,0,0,0,0,0,-1,1644,1317,0,0
427,-293,0,0,0,0,0,0,0,0,0,-1,1651,1317,0,0
434,-293,0,0,0,0,0,0,0,0,0,-1,1658,1317,0,0
441,-293,0,0,0,0,0,0,0,0,0,-1,1665,1317,0,0
448,-293,0,0,0,0,0,0,0,0,0,-1,1672,1317,0,0
455,-293,0,0,0,0,0,0,0,0,0,-1,1679,1317,0,0
462,-293,0,0,0,0,0,0,0,0,0,-1,1686,1317,0,0
469,-293,0,0,0,0,0,0,0,0,0,-1,1693,1317,0,0
476,-293,0,0,0,0,0,0,0,0,0,-1,1700,1317,0,0
483,-293,0,0,0,0,0,0,0,0,0,-1,1707,1317,0,0
490,-293,0,0,0,0,0,0,0,0,0,-1,1714,1317,0,0
497,-293,0,0,0,0,0,0,0,0,0,-1,1721,1317,0,0
504,-293,0,0,0,0,0,0,0,0,0,-1,1728,1317,0,0
511,-293,0,0,0,0,0,0,0,0,0,-1,1735,1317,0,0
518,-293,0,0,0,0,0,0,0,0,0,-1,1742,1317,0,0
525,-293,0,0,0,0,0,0,0,0,0,-1,1749,1317,0,0
532,-293,0,0,0,0,0,0,0,0,0,-1,1756,1317,0,0
539,-293,0,0,0,0,0,0,0,0,0,-1,1763,1317,0,0
546,-293,0,0,0,0,0,0,0,0,0,-1,1770,1317,0,0
553,-293,0,0,0,0,0,0,0,0,0,-1,1777,1317,0,0
560,-293,0,0,0,0,0,0,0,0,0,-1,1784,1317,0,0
567,-293,0,0,0,0,0,0,0,0,0,-1,1791,1317,0,0
574,-293,0,0,0,0,0,0,0,0,0,-1,1798,1317,0,0
581,-293,0,0,0,0,0,0,0,0,0,-1,1805,1317,0,0
588,-293,0,0,0,0,0,0,0,0,0,-1,1812,1317,0,0
595,-293,15.1907,2.37598,0.00855285,0.0128095,-0.00872287,0.0196599,0.0017024,-0.905057,0.0125776,0.043923,1819,1317,15.1907,-2.37598
602,-293,15.4269,2.48474,0.0128662,0.0250251,-0.00437206,0.0264339,0.0114573,-1.25906,0.0153067,0.0445604,1826,1317,15.4269,-2.48474
609,-293,15.2399,2.42554,0,0,0,0,0,0,0,-1,1833,1317,15.2398,-2.4255
616,-293,13.3479,4.06274,0,0,0,0,0,0,0,-1,1840,1317,13.3479,-4.06269
623,-293,10.9552,-2.7207,0,0,0,0,0,0,0,-1,1847,1317,10.9552,2.72072
630,-293,11.4011,-2.56323,0,0,0,0,0,0,0,-1,1854,1317,11.4011,2.56328
637,-293,15.2731,0.592041,0,0,0,0,0,0,0,-1,1861,1317,15.2731,-0.592092
644,-293,14.2064,2.03064,0,0,0,0,0,0,0,-1,1868,1317,14.2064,-2.03067
651,-293,12.7893,2.49805,0,0,0,0,0,0,0,-1,1875,1317,12.7893,-2.498
658,-293,12.4625,2.51575,0,0,0,0,0,0,0,-1,1882,1317,12.4625,-2.5157
665,-293,12.2363,4.37891,-0.00798733,0.00414521,0.0109415,0.0105895,-0.0144317,1.03852,0.0145027,0.0319247,1889,1317,12.2363,-4.37889
672,-293,12.0533,4.33484,-0.00785301,0.00102619,0.00980823,0.00735281,-0.0141796,0.997922,0.0126383,0.01487,1896,1317,12.0533,-4.3348
679,-293,12.0331,4.17249,-0.00686515,-0.000739587,0.00835519,0.0050965,-0.0127012,0.961079,0.0105836,0.0118622,1903,1317,12.0331,-4.17253
686,-293,12.0251,4.03528,-0.0070568,-0.00291074,0.00583978,0.00121304,-0.0111806,0.955952,0.00788922,0.0139376,1910,1317,12.0251,-4.0353
693,-293,12.043,3.90271,-0.00529514,-0.00231114,0.00412199,0.000580566,-0.00818685,0.959043,0.00566135,0.011433,1917,1317,12.043,-3.90266
700,-293,12.0325,3.76526,-0.00234338,-0.00120596,0.00209183,0.000393093,-0.00394243,0.918126,0.00276864,0.0105266,1924,1317,12.0325,-3.76523
707,-293,12.0328,3.68176,0.0001792,-0.000103604,0.000581075,0.000635831,-0.000560235,0.666045,0.000691008,0.0111831,1931,1317,12.0328,-3.68176
714,-293,12.0286,3.56372,-0.000208978,0.000992558,-0.000121128,0.00100465,-0.000221067,-1.47132,0.00075433,0.00762894,1938,1317,12.0286,-3.56371
721,-293,12.0355,3.42871,-0.00228592,0.00195608,-0.000786195,0.0020971,-0.00242694,-1.39331,0.00261427,0.00858168,1945,1317,12.0356,-3.42876
728,-293,12.0267,3.29517,-0.00567296,0.00297429,-0.00133529,0.00317579,-0.00587445,-1.42102,0.00530203,0.0112192,1952,1317,12.0267,-3.29513
735,-293,12.0228,3.14587,-0.0115232,0.00422597,-0.00174257,0.00441648,-0.0117137,-1.46191,0.00962515,0.0150909,1959,1317,12.0228,-3.14593
742,-293,12.0704,3.00867,-0.0199523,0.00555389,-0.00200443,0.00571045,-0.0201088,-1.49285,0.0156604,0.0259067,1966,1317,12.0704,-3.00867
749,-293,12.3058,2.45935,-0.0322273,0.00709028,-0.00211884,0.00720413,-0.0323412,-1.51711,0.0243205,0.0384341,1973,1317,12.3058,-2.45932
756,-293,12.5492,1.80103,0,0,0,0,0,0,0,-1,1980,1317,12.5492,-1.80108
763,-293,14.0955,1.06921,0,0,0,0,0,0,0,-1,1987,1317,14.0955,-1.06919
770,-293,13.2593,1.85364,0,0,0,0,0,0,0,-1,1994,1317,13.2592,-1.85361
777,-293,0,0,0,0,0,0,0,0,0,-1,2001,1317,0,0
784,-293,0,0,0,0,0,0,0,0,0,-1,2008,1317,0,0
791,-293,0,0,0,0,0,0,0,0,0,-1,2015,1317,0,0
798,-293,0,0,0,0,0,0,0,0,0,-1,2022,1317,0,0
805,-293,0,0,0,0,0,0,0,0,0,-1,2029,1317,0,0
812,-293,0,0,0,0,0,0,0,0,0,-1,2036,1317,0,0
-700,-300,0,0,0,0,0,0,0,0,0,-1,524,1324,0,0
-693,-300,0,0,0,0,0,0,0,0,0,-1,531,1324,0,0
-686,-300,0,0,0,0,0,0,0,0,0,-1,538,1324,0,0
-679,-300,0,0,0,0,0,0,0,0,0,-1,545,1324,0,0
-672,-300,0,0,0,0,0,0,0,0,0,-1,552,1324,0,0
-665,-300,0,0,0,0,0,0,0,0,0,-1,559,1324,0,0
-658,-300,0,0,0,0,0,0,0,0,0,-1,566,1324,0,0
-651,-300,-7.92371,-0.338257,0.0410495,0.0690283,-0.0786717,0.134945,-0.0248669,-0.873389,0.0992955,0.0481733,573,1324,-7.92372,0.338223
-644,-300,-7.42725,-0.694702,0.0397373,0.06267,-0.0570372,0.109382,-0.00697472,-0.884593,0.0753539,0.0451011,580,1324,-7.42727,0.694694
-637,-300,-7.05084,-1.21826,0,0,0,0,0,0,0,-1,587,1324,-7.05086,1.21825
-630,-300,-6.4516,-1.25623,0.0342072,0.0484979,-0.0240217,0.0664144,0.0162907,-0.929958,0.0399684,0.0447303,594,1324,-6.45158,1.25627
-623,-300,-5.94153,-0.883423,0.0305206,0.0415784,-0.0125898,0.0497999,0.0222992,-0.992298,0.0288042,0.0449417,601,1324,-5.9415,0.88345
-616,-300,-5.54419,-0.161499,0.0263407,0.0348669,-0.00435921,0.036701,0.0245065,-1.17252,0.0215831,0.0438663,608,1324,-5.54422,0.161451
-609,-300,-4.97748,0.964844,0.021591,0.0288256,0.000997881,0.0289607,0.0214559,1.43621,0.0173551,0.040617,615,1324,-4.97747,-0.964898
-602,-300,-5.24677,1.1698,0.0174471,0.024367,0.00384569,0.0260801,0.015734,1.15172,0.0151641,0.0299043,622,1324,-5.24679,-1.16976
-595,-300,-5.35535,1.33899,0.0138486,0.0175339,0.00628474,0.0222405,0.00914195,0.927998,0.0129081,0.0167015,629,1324,-5.35537,-1.33896
-588,-300,-5.34424,1.48267,0.0106051,0.0123334,0.00705395,0.0185759,0.00436257,0.846348,0.0112162,0.0191156,636,1324,-5.34423,-1.48266
-581,-300,-5.33826,1.63757,0.00776152,0.00855472,0.00568704,0.013859,0.00245728,0.820211,0.0085389,0.0184062,643,1324,-5.33823,-1.63756
-574,-300,-5.33984,1.82019,0.0054473,0.00493957,0.00388452,0.00908624,0.00130063,0.752769,0.00567386,0.0143881,650,1324,-5.33987,-1.82013
-567,-300,-5.35382,1.98914,0.00282593,0.00182988,0.00131197,0.00373122,0.000924588,0.603999,0.00224371,0.0156954,657,1324,-5.35381,-1.98914
-560,-300,-5.3476,2.14661,0.000933828,0.000140384,-0.000761558,0.0013958,-0.00032159,-0.545271,0.00105421,0.0148221,664,1324,-5.3476,-2.14657
-553,-300,-5.3255,2.27991,-0.000419797,-0.000774572,-0.00226853,0.00167827,-0.00287264,-0.74638,0.00265746,0.00996051,671,1324,-5.32547,-2.27992
-546,-300,-5.32782,2.4248,-0.00215555,-0.00113632,-0.00384043,0.00222816,-0.00552003,-0.851361,0.00460603,0.00856433,678,1324,-5.3278,-2.42475
-539,-300,-5.32111,2.58032,-0.00428505,-0.000502905,-0.00501409,0.00296487,-0.00775283,-0.965726,0.00639037,0.0126287,685,1324,-5.32112,-2.58038
-532,-300,-5.38623,2.64331,-0.00707181,0.000993856,-0.00610402,0.00427695,-0.0103549,-1.07732,0.00868725,0.028032,692,1324,-5.38625,-2.64334
-525,-300,-5.3501,2.72974,-0.0107375,0.00216227,-0.00677672,0.00506787,-0.0136431,-1.16574,0.0111745,0.0428364,699,1324,-5.35012,-2.72977
-518,-300,-5.45081,2.72693,0,0,0,0,0,0,0,-1,706,1324,-5.45078,-2.7269
-511,-300,-6.02527,-1.40466,0,0,0,0,0,0,0,-1,713,1324,-6.02525,1.40469
-504,-300,-5.62256,-1.52417,0,0,0,0,0,0,0,-1,720,1324,-5.62253,1.52413
-497,-300,-7.12848,0.237305,0,0,0,0,0,0,0,-1,727,1324,-7.12847,-0.237276
-490,-300,-7.44873,0.205688,-0.032052,0.00949689,-0.00957716,0.0115982,-0.0341533,-1.35481,0.0274638,0.0445939,734,1324,-7.44874,-0.205676
-483,-300,-7.70935,0.0582275,-0.0366294,0.0104818,-0.00950573,0.0123274,-0.0384751,-1.37902,0.0305985,0.0431721,741,1324,-7.70936,-0.0582406
-476,-300,-7.76941,0.227173,-0.0413431,0.0101516,-0.00946273,0.0118354,-0.0430269,-1.3947,0.0333376,0.043834,748,1324,-7.76943,-0.227148
-469,-300,0,0,0,0,0,0,0,0,0,-1,755,1324,0,0
-462,-300,0,0,0,0,0,0,0,0,0,-1,762,1324,0,0
-455,-300,0,0,0,0,0,0,0,0,0,-1,769,1324,0,0
-448,-300,0,0,0,0,0,0,0,0,0,-1,776,1324,0,0
-441,-300,0,0,0,0,0,0,0,0,0,-1,783,1324,0,0
-434,-300,0,0,0,0,0,0,0,0,0,-1,790,1324,0,0
-427,-300,0,0,0,0,0,0,0,0,0,-1,797,1324,0,0
-420,-300,0,0,0,0,0,0,0,0,0,-1,804,1324,0,0
-413,-300,0,0,0,0,0,0,0,0,0,-1,811,1324,0,0
-406,-300,0,0,0,0,0,0,0,0,0,-1,818,1324,0,0
-399,-300,0,0,0,0,0,0,0,0,0,-1,825,1324,0,0
-392,-300,0,0,0,0,0,0,0,0,0,-1,832,1324,0,0
-385,-300,0,0,0,0,0,0,0,0,0,-1,839,1324,0,0
-378,-300,0,0,0,0,0,0,0,0,0,-1,846,1324,0,0
-371,-300,0,0,0,0,0,0,0,0,0,-1,853,1324,0,0
-364,-300,0,0,0,0,0,0,0,0,0,-1,860,1324,0,0
-357,-300,0,0,0,0,0,0,0,0,0,-1,867,1324,0,0
-350,-300,0,0,0,0,0,0,0,0,0,-1,874,1324,0,0
-343,-300,0,0,0,0,0,0,0,0,0,-1,881,1324,0,0
-336,-300,0,0,0,0,0,0,0,0,0,-1,888,1324,0,0
-329,-300,0,0,0,0,0,0,0,0,0,-1,895,1324,0,0
-322,-300,0,0,0,0,0,0,0,0,0,-1,902,1324,0,0
-315,-300,0,0,0,0,0,0,0,0,0,-1,909,1324,0,0
-308,-300,0,0,0,0,0,0,0,0,0,-1,916,1324,0,0
-301,-300,0,0,0,0,0,0,0,0,0,-1,923,1324,0,0
-294,-300,0,0,0,0,0,0,0,0,0,-1,930,1324,0,0
-287,-300,0,0,0,0,0,0,0,0,0,-1,937,1324,0,0
-280,-300,0,0,0,0,0,0,0,0,0,-1,944,1324,0,0
-273,-300,0,0,0,0,0,0,0,0,0,-1,951,1324,0,0
-266,-300,0,0,0,0,0,0,0,0,0,-1,958,1324,0,0
-259,-300,0,0,0,0,0,0,0,0,0,-1,965,1324,0,0
-252,-300,0,0,0,0,0,0,0,0,0,-1,972,1324,0,0
-245,-300,0,0,0,0,0,0,0,0,0,-1,979,1324,0,0
-238,-300,0,0,0,0,0,0,0,0,0,-1,986,1324,0,0
-231,-300,0,0,0,0,0,0,0,0,0,-1,993,1324,0,0
-224,-300,0,0,0,0,0,0,0,0,0,-1,1000,1324,0,0
-217,-300,0,0,0,0,0,0,0,0,0,-1,1007,1324,0,0
-210,-300,0,0,0,0,0,0,0,0,0,-1,1014,1324,0,0
-203,-300,0,0,0,0,0,0,0,0,0,-1,1021,1324,0,0
-196,-300,0,0,0,0,0,0,0,0,0,-1,1028,1324,0,0
-189,-300,0,0,0,0,0,0,0,0,0,-1,1035,1324,0,0
-182,-300,0,0,0,0,0,0,0,0,0,-1,1042,1324,0,0
-175,-300,0,0,0,0,0,0,0,0,0,-1,1049,1324,0,0
-168,-300,0,0,0,0,0,0,0,0,0,-1,1056,1324,0,0
-161,-300,0,0,0,0,0,0,0,0,0,-1,1063,1324,0,0
-154,-300,0,0,0,0,0,0,0,0,0,-1,1070,1324,0,0
-147,-300,0,0,0,0,0,0,0,0,0,-1,1077,1324,0,0
-140,-300,0,0,0,0,0,0,0,0,0,-1,1084,1324,0,0
-133,-300,0,0,0,0,0,0,0,0,0,-1,1091,1324,0,0
-126,-300,0,0,0,0,0,0,0,0,0,-1,1098,1324,0,0
-119,-300,0,0,0,0,0,0,0,0,0,-1,1105,1324,0,0
-112,-300,0,0,0,0,0,0,0,0,0,-1,1112,1324,0,0
-105,-300,0,0,0,0,0,0,0,0,0,-1,1119,1324,0,0
-98,-300,0,0,0,0,0,0,0,0,0,-1,1126,1324,0,0
-91,-300,0,0,0,0,0,0,0,0,0,-1,1133,1324,0,0
-84,-300,0,0,0,0,0,0,0,0,0,-1,1140,1324,0,0
-77,-300,0,0,0,0,0,0,0,0,0,-1,1147,1324,0,0
-70,-300,0,0,0,0,0,0,0,0,0,-1,1154,1324,0,0
-63,-300,0,0,0,0,0,0,0,0,0,-1,1161,1324,0,0
-56,-300,0,0,0,0,0,0,0,0,0,-1,1168,1324,0,0
-49,-300,0,0,0,0,0,0,0,0,0,-1,1175,1324,0,0
-42,-300,0,0,0,0,0,0,0,0,0,-1,1182,1324,0,0
-35,-300,0,0,0,0,0,0,0,0,0,-1,1189,1324,0,0
-28,-300,0,0,0,0,0,0,0,0,0,-1,1196,1324,0,0
-21,-300,0,0,0,0,0,0,0,0,0,-1,1203,1324,0,0
-14,-300,0,0,0,0,0,0,0,0,0,-1,1210,1324,0,0
-7,-300,0,0,0,0,0,0,0,0,0,-1,1217,1324,0,0
0,-300,0,0,0,0,0,0,0,0,0,-1,1224,1324,0,0
7,-300,0,0,0,0,0,0,0,0,0,-1,1231,1324,0,0
14,-300,0,0,0,0,0,0,0,0,0,-1,1238,1324,0,0
21,-300,0,0,0,0,0,0,0,0,0,-1,1245,1324,0,0
28,-300,0,0,0,0,0,0,0,0,0,-1,1252,1324,0,0
35,-300,0,0,0,0,0,0,0,0,0,-1,1259,1324,0,0
42,-300,0,0,0,0,0,0,0,0,0,-1,1266,1324,0,0
49,-300,0,0,0,0,0,0,0,0,0,-1,1273,1324,0,0
56,-300,0,0,0,0,0,0,0,0,0,-1,1280,1324,0,0
63,-300,0,0,0,0,0,0,0,0,0,-1,1287,1324,0,0
70,-300,0,0,0,0,0,0,0,0,0,-1,1294,1324,0,0
77,-300,0,0,0,0,0,0,0,0,0,-1,1301,1324,0,0
84,-300,0,0,0,0,0,0,0,0,0,-1,1308,1324,0,0
91,-300,0,0,0,0,0,0,0,0,0,-1,1315,1324,0,0
98,-300,0,0,0,0,0,0,0,0,0,-1,1322,1324,0,0
105,-300,0,0,0,0,0,0,0,0,0,-1,1329,1324,0,0
112,-300,0,0,0,0,0,0,0,0,0,-1,1336,1324,0,0
119,-300,0,0,0,0,0,0,0,0,0,-1,1343,1324,0,0
126,-300,0,0,0,0,0,0,0,0,0,-1,1350,1324,0,0
133,-300,0,0,0,0,0,0,0,0,0,-1,1357,1324,0,0
140,-300,0,0,0,0,0,0,0,0,0,-1,1364,1324,0,0
147,-300,0,0,0,0,0,0,0,0,0,-1,1371,1324,0,0
154,-300,0,0,0,0,0,0,0,0,0,-1,1378,1324,0,0
161,-300,0,0,0,0,0,0,0,0,0,-1,1385,1324,0,0
168,-300,0,0,0,0,0,0,0,0,0,-1,1392,1324,0,0
175,-300,0,0,0,0,0,0,0,0,0,-1,1399,1324,0,0
182,-300,0,0,0,0,0,0,0,0,0,-1,1406,1324,0,0
189,-300,0,0,0,0,0,0,0,0,0,-1,1413,1324,0,0
196,-300,0,0,0,0,0,0,0,0,0,-1,1420,1324,0,0
203,-300,0,0,0,0,0,0,0,0,0,-1,1427,1324,0,0
210,-300,0,0,0,0,0,0,0,0,0,-1,1434,1324,0,0
217,-300,0,0,0,0,0,0,0,0,0,-1,1441,1324,0,0
224,-300,0,0,0,0,0,0,0,0,0,-1,1448,1324,0,0
231,-300,0,0,0,0,0,0,0,0,0,-1,1455,1324,0,0
238,-300,0,0,0,0,0,0,0,0,0,-1,1462,1324,0,0
245,-300,0,0,0,0,0,0,0,0,0,-1,1469,1324,0,0
252,-300,0,0,0,0,0,0,0,0,0,-1,1476,1324,0,0
259,-300,0,0,0,0,0,0,0,0,0,-1,1483,1324,0,0
266,-300,0,0,0,0,0,0,0,0,0,-1,1490,1324,0,0
273,-300,0,0,0,0,0,0,0,0,0,-1,1497,1324,0,0
280,-300,0,0,0,0,0,0,0,0,0,-1,1504,1324,0,0
287,-300,0,0,0,0,0,0,0,0,0,-1,1511,1324,0,0
294,-300,0,0,0,0,0,0,0,0,0,-1,1518,1324,0,0
301,-300,0,0,0,0,0,0,0,0,0,-1,1525,1324,0,0
308,-300,0,0,0,0,0,0,0,0,0,-1,1532,1324,0,0
315,-300,0,0,0,0,0,0,0,0,0,-1,1539,1324,0,0
322,-300,0,0,0,0,0,0,0,0,0,-1,1546,1324,0,0
329,-300,0,0,0,0,0,0,0,0,0,-1,1553,1324,0,0
336,-300,0,0,0,0,0,0,0,0,0,-1,1560,1324,0,0
343,-300,0,0,0,0,0,0,0,0,0,-1,1567,1324,0,0
350,-300,0,0,0,0,0,0,0,0,0,-1,1574,1324,0,0
357,-300,0,0,0,0,0,0,0,0,0,-1,1581,1324,0,0
364,-300,0,0,0,0,0,0,0,0,0,-1,1588,1324,0,0
371,-300,0,0,0,0,0,0,0,0,0,-1,1595,1324,0,0
378,-300,0,0,0,0,0,0,0,0,0,-1,1602,1324,0,0
385,-300,0,0,0,0,0,0,0,0,0,-1,1609,1324,0,0
392,-300,0,0,0,0,0,0,0,0,0,-1,1616,1324,0,0
399,-300,0,0,0,0,0,0,0,0,0,-1,1623,1324,0,0
406,-300,0,0,0,0,0,0,0,0,0,-1,1630,1324,0,0
413,-300,0,0,0,0,0,0,0,0,0,-1,1637,1324,0,0
420,-300,0,0,0,0,0,0,0,0,0,-1,1644,1324,0,0
427,-300,0,0,0,0,0,0,0,0,0,-1,1651,1324,0,0
434,-300,0,0,0,0,0,0,0,0,0,-1,1658,1324,0,0
441,-300,0,0,0,0,0,0,0,0,0,-1,1665,1324,0,0
448,-300,0,0,0,0,0,0,0,0,0,-1,1672,1324,0,0
455,-300,0,0,0,0,0,0,0,0,0,-1,1679,1324,0,0
462,-300,0,0,0,0,0,0,0,0,0,-1,1686,1324,0,0
469,-300,0,0,0,0,0,0,0,0,0,-1,1693,1324,0,0
476,-300,0,0,0,0,0,0,0,0,0,-1,1700,1324,0,0
483,-300,0,0,0,0,0,0,0,0,0,-1,1707,1324,0,0
490,-300,0,0,0,0,0,0,0,0,0,-1,1714,1324,0,0
497,-300,0,0,0,0,0,0,0,0,0,-1,1721,1324,0,0
504,-300,0,0,0,0,0,0,0,0,0,-1,1728,1324,0,0
511,-300,0,0,0,0,0,0,0,0,0,-1,1735,1324,0,0
518,-300,0,0,0,0,0,0,0,0,0,-1,1742,1324,0,0
525,-300,0,0,0,0,0,0,0,0,0,-1,1749,1324,0,0
532,-300,0,0,0,0,0,0,0,0,0,-1,1756,1324,0,0
539,-300,0,0,0,0,0,0,0,0,0,-1,1763,1324,0,0
546,-300,0,0,0,0,0,0,0,0,0,-1,1770,1324,0,0
553,-300,0,0,0,0,0,0,0,0,0,-1,1777,1324,0,0
560,-300,0,0,0,0,0,0,0,0,0,-1,1784,1324,0,0
567,-300,0,0,0,0,0,0,0,0,0,-1,1791,1324,0,0
574,-300,0,0,0,0,0,0,0,0,0,-1,1798,1324,0,0
581,-300,0,0,0,0,0,0,0,0,0,-1,1805,1324,0,0
588,-300,14.4235,2.36609,0,0,0,0,0,0,0,-1,1812,1324,14.4235,-2.36606
595,-300,15.2042,2.36975,0,0,0,0,0,0,0,-1,1819,1324,15.2042,-2.36979
602,-300,15.5531,2.31433,0,0,0,0,0,0,0,-1,1826,1324,15.5531,-2.31433
609,-300,14.2401,3.08765,0,0,0,0,0,0,0,-1,1833,1324,14.2402,-3.0876
616,-300,13.4105,3.28735,0.0111844,0.0280829,0.00636476,0.030212,0.00905535,1.24799,0.0179032,0.0497604,1840,1324,13.4105,-3.28729
623,-300,13.38,3.01819,0.00695975,0.0260229,0.00918137,0.0297257,0.00325696,1.18745,0.0188256,0.049029,1847,1324,13.38,-3.0182
630,-300,10.5454,-3.23315,0,0,0,0,0,0,0,-1,1854,1324,10.5454,3.23312
637,-300,12.72,2.88879,0,0,0,0,0,0,0,-1,1861,1324,12.7199,-2.88876
644,-300,13.0061,2.4519,0,0,0,0,0,0,0,-1,1868,1324,13.0061,-2.45189
651,-300,12.8004,2.48889,0,0,0,0,0,0,0,-1,1875,1324,12.8004,-2.48891
658,-300,12.5947,2.52588,0,0,0,0,0,0,0,-1,1882,1324,12.5948,-2.52592
665,-300,11.9646,4.4519,-0.00748917,0.00407492,0.0106271,0.0103911,-0.0138054,1.03454,0.0140161,0.0254932,1889,1324,11.9646,-4.45196
672,-300,11.8883,4.35461,-0.00741597,0.000957474,0.00921916,0.00689605,-0.0133545,0.998541,0.0118882,0.0102802,1896,1324,11.8883,-4.35456
679,-300,11.8964,4.19482,-0.0063868,-0.000786695,0.00750431,0.00442293,-0.0115964,0.963961,0.00955289,0.0116746,1903,1324,11.8964,-4.19481
686,-300,11.9088,4.06628,-0.00633028,-0.00259358,0.00491712,0.000798186,-0.00972205,0.966958,0.00676315,0.012174,1910,1324,11.9088,-4.06624
693,-300,11.903,3.92908,-0.00449008,-0.00201728,0.0032418,0.000215896,-0.00672325,0.96758,0.00455584,0.010437,1917,1324,11.9029,-3.92908
700,-300,11.8999,3.78845,-0.00163966,-0.000905053,0.001351,0.000127681,-0.00267239,0.918128,0.00182565,0.0119965,1924,1324,11.8999,-3.78851
707,-300,11.9064,3.66113,0.000864024,0.000176996,-6.62679e-05,0.000870358,0.000170662,-0.0952852,0.000532546,0.00863628,1931,1324,11.9064,-3.66113
714,-300,11.9126,3.5553,0.000713797,0.00111975,-0.00074146,0.00168551,0.000148033,-0.919002,0.00107773,0.00974155,1938,1324,11.9126,-3.55528
721,-300,11.9141,3.44031,-0.000891043,0.00195947,-0.00139119,0.00252589,-0.00145746,-1.18414,0.0023272,0.0106968,1945,1324,11.914,-3.44033
728,-300,11.9075,3.29529,-0.00358887,0.00285999,-0.00195585,0.0034068,-0.00413568,-1.29818,0.00436143,0.00962124,1952,1324,11.9075,-3.29525
735,-300,11.8441,3.1897,-0.00861606,0.0039153,-0.00240113,0.00435962,-0.00906039,-1.38782,0.0079049,0.0149241,1959,1324,11.8441,-3.18967
742,-300,11.9404,2.95508,-0.0162686,0.00501407,-0.00267299,0.00534465,-0.0165992,-1.44775,0.013213,0.0282351,1966,1324,11.9404,-2.95512
749,-300,12.4567,2.47974,-0.0278312,0.0062088,-0.00270801,0.00642289,-0.0280453,-1.4919,0.0211652,0.041784,1973,1324,12.4566,-2.47973
756,-300,14.6652,1.19531,0,0,0,0,0,0,0,-1,1980,1324,14.6651,-1.19527
763,-300,13.7111,1.74182,-0.0667033,0.00849948,-0.00135007,0.0085237,-0.0667275,-1.55285,0.0475814,0.0475904,1987,1324,13.711,-1.74185
770,-300,12.7637,2.22253,0,0,0,0,0,0,0,-1,1994,1324,12.7637,-2.22254
777,-300,0,0,0,0,0,0,0,0,0,-1,2001,1324,0,0
784,-300,0,0,0,0,0,0,0,0,0,-1,2008,1324,0,0
791,-300,0,0,0,0,0,0,0,0,0,-1,2015,1324,0,0
798,-300,0,0,0,0,0,0,0,0,0,-1,2022,1324,0,0
805,-300,0,0,0,0,0,0,0,0,0,-1,2029,1324,0,0
812,-300,0,0,0,0,0,0,0,0,0,-1,2036,1324,0,0
-700,-307,0,0,0,0,0,0,0,0,0,-1,524,1331,0,0
-693,-307,0,0,0,0,0,0,0,0,0,-1,531,1331,0,0
-686,-307,0,0,0,0,0,0,0,0,0,-1,538,1331,0,0
-679,-307,0,0,0,0,0,0,0,0,0,-1,545,1331,0,0
-672,-307,0,0,0,0,0,0,0,0,0,-1,552,1331,0,0
-665,-307,0,0,0,0,0,0,0,0,0,-1,559,1331,0,0
-658,-307,0,0,0,0,0,0,0,0,0,-1,566,1331,0,0
-651,-307,-6.39801,-2.16638,0.040736,0.105552,-0.089991,0.168793,-0.0225045,-0.958232,0.120731,0.0470791,573,1331,-6.39799,2.16637
-644,-307,-5.98486,-2.54907,0.0409814,0.0917192,-0.0639201,0.135121,-0.00242008,-0.974307,0.0908979,0.0456206,580,1331,-5.98485,2.54909
-637,-307,-6.0481,-2.2146,0,0,0,0,0,0,0,-1,587,1331,-6.04812,2.21455
-630,-307,-5.73322,-1.83325,0.0364119,0.0659451,-0.0252358,0.0804171,0.0219399,-1.05011,0.0479997,0.0458534,594,1331,-5.73319,1.8333
-623,-307,-5.58075,-1.27979,0.0327219,0.054833,-0.0122344,0.060267,0.0272879,-1.15281,0.0348469,0.0460118,601,1331,-5.58075,1.27974
-616,-307,-5.36182,-0.547485,0.0283586,0.0448053,-0.00307688,0.0453621,0.0278018,-1.39178,0.0264114,0.0436438,608,1331,-5.36182,0.547477
-609,-307,-5.35321,0.343262,0.0234055,0.0361063,0.00268043,0.0366488,0.022863,1.3711,0.0213745,0.0427793,615,1331,-5.35322,-0.343246
-602,-307,-5.15326,1.06226,0.018899,0.0295178,0.00562268,0.0319417,0.0164751,1.16377,0.0184446,0.031068,622,1331,-5.15326,-1.06222
-595,-307,-5.20514,1.32971,0.0147139,0.0210292,0.00796503,0.0264396,0.00930343,0.974115,0.0154866,0.014925,629,1331,-5.20512,-1.32976
-588,-307,-5.19385,1.4989,0.0110043,0.0146505,0.00846716,0.0214886,0.00416619,0.891437,0.0131587,0.0169946,636,1331,-5.19383,-1.49888
-581,-307,-5.17017,1.65198,0.00791413,0.0103353,0.00673224,0.0159649,0.00228448,0.874356,0.00996942,0.0153168,643,1331,-5.17018,-1.65198
-574,-307,-5.19946,1.79932,0.00538655,0.00646873,0.00494578,0.0109029,0.000952349,0.839884,0.00697288,0.0125838,650,1331,-5.19945,-1.79934
-567,-307,-5.21393,1.97607,0.00255116,0.00290018,0.00229957,0.00503185,0.000419491,0.823269,0.00322385,0.0118233,657,1331,-5.21395,-1.97607
-560,-307,-5.20062,2.14563,0.000594234,0.000697875,6.80366e-05,0.000731578,0.000560531,1.11086,0.000441879,0.0130215,664,1331,-5.2006,-2.14559
-553,-307,-5.18225,2.27161,-0.000662275,-0.000762054,-0.00156346,0.000852093,-0.00227642,-0.769449,0.0018676,0.0102126,671,1331,-5.18228,-2.27159
-546,-307,-5.17596,2.41504,-0.00216653,-0.00165896,-0.0032435,0.00134067,-0.00516616,-0.824441,0.00396724,0.0103386,678,1331,-5.17598,-2.41505
-539,-307,-5.16968,2.58813,-0.00391755,-0.00146203,-0.00443911,0.00191598,-0.00729556,-0.920314,0.00561246,0.0121122,685,1331,-5.1697,-2.58813
-532,-307,-5.12439,2.70557,-0.00628385,-0.000383215,-0.00558665,0.0029843,-0.00965137,-1.02834,0.0076262,0.0224737,692,1331,-5.12439,-2.70551
-525,-307,-5.19922,2.77625,-0.0096648,0.00037128,-0.00638837,0.00347679,-0.0127703,-1.11832,0.00987856,0.0408439,699,1331,-5.19919,-2.77627
-518,-307,-5.20343,2.90405,-0.013053,0.00147816,-0.00742974,0.00460438,-0.0161793,-1.17251,0.0126045,0.0471094,706,1331,-5.20345,-2.90403
-511,-307,-5.21497,2.97986,0,0,0,0,0,0,0,-1,713,1331,-5.21498,-2.97987
-504,-307,-8.08545,0.946899,0,0,0,0,0,0,0,-1,720,1331,-8.08544,-0.946908
-497,-307,-7.87036,0.723877,-0.0254166,0.00550271,-0.0100728,0.0084947,-0.0284086,-1.28206,0.0223162,0.0476833,727,1331,-7.87035,-0.723923
-490,-307,-7.76721,0.154541,-0.030031,0.00664421,-0.0106195,0.00949722,-0.032884,-1.30834,0.0256806,0.0462188,734,1331,-7.76722,-0.154596
-483,-307,-7.38391,0.0494385,-0.0349206,0.00768401,-0.0108483,0.0102872,-0.0375238,-1.33528,0.0290584,0.0427546,741,1331,-7.38389,-0.0494562
-476,-307,-7.43933,0.178101,-0.0403535,0.00743824,-0.0110378,0.00986431,-0.0427796,-1.35444,0.0323136,0.0439643,748,1331,-7.43935,-0.178073
-469,-307,-7.56348,0.297974,0,0,0,0,0,0,0,-1,755,1331,-7.56346,-0.298004
-462,-307,0,0,0,0,0,0,0,0,0,-1,762,1331,0,0
-455,-307,0,0,0,0,0,0,0,0,0,-1,769,1331,0,0
-448,-307,0,0,0,0,0,0,0,0,0,-1,776,1331,0,0
-441,-307,0,0,0,0,0,0,0,0,0,-1,783,1331,0,0
-434,-307,0,0,0,0,0,0,0,0,0,-1,790,1331,0,0
-427,-307,0,0,0,0,0,0,0,0,0,-1,797,1331,0,0
-420,-307,0,0,0,0,0,0,0,0,0,-1,804,1331,0,0
-413,-307,0,0,0,0,0,0,0,0,0,-1,811,1331,0,0
-406,-307,0,0,0,0,0,0,0,0,0,-1,818,1331,0,0
-399,-307,0,0,0,0,0,0,0,0,0,-1,825,1331,0,0
-392,-307,0,0,0,0,0,0,0,0,0,-1,832,1331,0,0
-385,-307,0,0,0,0,0,0,0,0,0,-1,839,1331,0,0
-378,-307,0,0,0,0,0,0,0,0,0,-1,846,1331,0,0
-371,-307,0,0,0,0,0,0,0,0,0,-1,853,1331,0,0
-364,-307,0,0,0,0,0,0,0,0,0,-1,860,1331,0,0
-357,-307,0,0,0,0,0,0,0,0,0,-1,867,1331,0,0
-350,-307,0,0,0,0,0,0,0,0,0,-1,874,1331,0,0
-343,-307,0,0,0,0,0,0,0,0,0,-1,881,1331,0,0
-336,-307,0,0,0,0,0,0,0,0,0,-1,888,1331,0,0
-329,-307,0,0,0,0,0,0,0,0,0,-1,895,1331,0,0
-322,-307,0,0,0,0,0,0,0,0,0,-1,902,1331,0,0
-315,-307,0,0,0,0,0,0,0,0,0,-1,909,1331,0,0
-308,-307,0,0,0,0,0,0,0,0,0,-1,916,1331,0,0
-301,-307,0,0,0,0,0,0,0,0,0,-1,923,1331,0,0
-294,-307,0,0,0,0,0,0,0,0,0,-1,930,1331,0,0
-287,-307,0,0,0,0,0,0,0,0,0,-1,937,1331,0,0
-280,-307,0,0,0,0,0,0,0,0,0,-1,944,1331,0,0
-273,-307,0,0,0,0,0,0,0,0,0,-1,951,1331,0,0
-266,-307,0,0,0,0,0,0,0,0,0,-1,958,1331,0,0
-259,-307,0,0,0,0,0,0,0,0,0,-1,965,1331,0,0
-252,-307,0,0,0,0,0,0,0,0,0,-1,972,1331,0,0
-245,-307,0,0,0,0,0,0,0,0,0,-1,979,1331,0,0
-238,-307,0,0,0,0,0,0,0,0,0,-1,986,1331,0,0
-231,-307,0,0,0,0,0,0,0,0,0,-1,993,1331,0,0
-224,-307,0,0,0,0,0,0,0,0,0,-1,1000,1331,0,0
-217,-307,0,0,0,0,0,0,0,0,0,-1,1007,1331,0,0
-210,-307,0,0,0,0,0,0,0,0,0,-1,1014,1331,0,0
-203,-307,0,0,0,0,0,0,0,0,0,-1,1021,1331,0,0
-196,-307,0,0,0,0,0,0,0,0,0,-1,1028,1331,0,0
-189,-307,0,0,0,0,0,0,0,0,0,-1,1035,1331,0,0
-182,-307,0,0,0,0,0,0,0,0,0,-1,1042,1331,0,0
-175,-307,0,0,0,0,0,0,0,0,0,-1,1049,1331,0,0
-168,-307,0,0,0,0,0,0,0,0,0,-1,1056,1331,0,0
-161,-307,0,0,0,0,0,0,0,0,0,-1,1063,1331,0,0
-154,-307,0,0,0,0,0,0,0,0,0,-1,1070,1331,0,0
-147,-307,0,0,0,0,0,0,0,0,0,-1,1077,1331,0,0
-140,-307,0,0,0,0,0,0,0,0,0,-1,1084,1331,0,0
-133,-307,0,0,0,0,0,0,0,0,0,-1,1091,1331,0,0
-126,-307,0,0,0,0,0,0,0,0,0,-1,1098,1331,0,0
-119,-307,0,0,0,0,0,0,0,0,0,-1,1105,1331,0,0
-112,-307,0,0,0,0,0,0,0,0,0,-1,1112,1331,0,0
-105,-307,0,0,0,0,0,0,0,0,0,-1,1119,1331,0,0
-98,-307,0,0,0,0,0,0,0,0,0,-1,1126,1331,0,0
-91,-307,0,0,0,0,0,0,0,0,0,-1,1133,1331,0,0
-84,-307,0,0,0,0,0,0,0,0,0,-1,1140,1331,0,0
-77,-307,0,0,0,0,0,0,0,0,0,-1,1147,1331,0,0
-70,-307,0,0,0,0,0,0,0,0,0,-1,1154,1331,0,0
-63,-307,0,0,0,0,0,0,0,0,0,-1,1161,1331,0,0
-56,-307,0,0,0,0,0,0,0,0,0,-1,1168,1331,0,0
-49,-307,0,0,0,0,0,0,0,0,0,-1,1175,1331,0,0
-42,-307,0,0,0,0,0,0,0,0,0,-1,1182,1331,0,0
-35,-307,0,0,0,0,0,0,0,0,0,-1,1189,1331,0,0
-28,-307,0,0,0,0,0,0,0,0,0,-1,1196,1331,0,0
-21,-307,0,0,0,0,0,0,0,0,0,-1,1203,1331,0,0
-14,-307,0,0,0,0,0,0,0,0,0,-1,1210,1331,0,0
-7,-307,0,0,0,0,0,0,0,0,0,-1,1217,1331,0,0
0,-307,0,0,0,0,0,0,0,0,0,-1,1224,1331,0,0
7,-307,0,0,0,0,0,0,0,0,0,-1,1231,1331,0,0
14,-307,0,0,0,0,0,0,0,0,0,-1,1238,1331,0,0
21,-307,0,0,0,0,0,0,0,0,0,-1,1245,1331,0,0
28,-307,0,0,0,0,0,0,0,0,0,-1,1252,1331,0,0
35,-307,0,0,0,0,0,0,0,0,0,-1,1259,1331,0,0
42,-307,0,0,0,0,0,0,0,0,0,-1,1266,1331,0,0
49,-307,0,0,0,0,0,0,0,0,0,-1,1273,1331,0,0
56,-307,0,0,0,0,0,0,0,0,0,-1,1280,1331,0,0
63,-307,0,0,0,0,0,0,0,0,0,-1,1287,1331,0,0
70,-307,0,0,0,0,0,0,0,0,0,-1,1294,1331,0,0
77,-307,0,0,0,0,0,0,0,0,0,-1,1301,1331,0,0
84,-307,0,0,0,0,0,0,0,0,0,-1,1308,1331,0,0
91,-307,0,0,0,0,0,0,0,0,0,-1,1315,1331,0,0
98,-307,0,0,0,0,0,0,0,0,0,-1,1322,1331,0,0
105,-307,0,0,0,0,0,0,0,0,0,-1,1329,1331,0,0
112,-307,0,0,0,0,0,0,0,0,0,-1,1336,1331,0,0
119,-307,0,0,0,0,0,0,0,0,0,-1,1343,1331,0,0
126,-307,0,0,0,0,0,0,0,0,0,-1,1350,1331,0,0
133,-307,0,0,0,0,0,0,0,0,0,-1,1357,1331,0,0
140,-307,0,0,0,0,0,0,0,0,0,-1,1364,1331,0,0
147,-307,0,0,0,0,0,0,0,0,0,-1,1371,1331,0,0
154,-307,0,0,0,0,0,0,0,0,0,-1,1378,1331,0,0
161,-307,0,0,0,0,0,0,0,0,0,-1,1385,1331,0,0
168,-307,0,0,0,0,0,0,0,0,0,-1,1392,1331,0,0
175,-307,0,0,0,0,0,0,0,0,0,-1,1399,1331,0,0
182,-307,0,0,0,0,0,0,0,0,0,-1,1406,1331,0,0
189,-307,0,0,0,0,0,0,0,0,0,-1,1413,1331,0,0
196,-307,0,0,0,0,0,0,0,0,0,-1,1420,1331,0,0
203,-307,0,0,0,0,0,0,0,0,0,-1,1427,1331,0,0
210,-307,0,0,0,0,0,0,0,0,0,-1,1434,1331,0,0
217,-307,0,0,0,0,0,0,0,0,0,-1,1441,1331,0,0
224,-307,0,0,0,0,0,0,0,0,0,-1,1448,1331,0,0
231,-307,0,0,0,0,0,0,0,0,0,-1,1455,1331,0,0
238,-307,0,0,0,0,0,0,0,0,0,-1,1462,1331,0,0
245,-307,0,0,0,0,0,0,0,0,0,-1,1469,1331,0,0
252,-307,0,0,0,0,0,0,0,0,0,-1,1476,1331,0,0
259,-307,0,0,0,0,0,0,0,0,0,-1,1483,1331,0,0
266,-307,0,0,0,0,0,0,0,0,0,-1,1490,1331,0,0
273,-307,0,0,0,0,0,0,0,0,0,-1,1497,1331,0,0
280,-307,0,0,0,0,0,0,0,0,0,-1,1504,1331,0,0
287,-307,0,0,0,0,0,0,0,0,0,-1,1511,1331,0,0
294,-307,0,0,0,0,0,0,0,0,0,-1,1518,1331,0,0
301,-307,0,0,0,0,0,0,0,0,0,-1,1525,1331,0,0
308,-307,0,0,0,0,0,0,0,0,0,-1,1532,1331,0,0
315,-307,0,0,0,0,0,0,0,0,0,-1,1539,1331,0,0
322,-307,0,0,0,0,0,0,0,0,0,-1,1546,1331,0,0
329,-307,0,0,0,0,0,0,0,0,0,-1,1553,1331,0,0
336,-307,0,0,0,0,0,0,0,0,0,-1,1560,1331,0,0
343,-307,0,0,0,0,0,0,0,0,0,-1,1567,1331,0,0
350,-307,0,0,0,0,0,0,0,0,0,-1,1574,1331,0,0
357,-307,0,0,0,0,0,0,0,0,0,-1,1581,1331,0,0
364,-307,0,0,0,0,0,0,0,0,0,-1,1588,1331,0,0
371,-307,0,0,0,0,0,0,0,0,0,-1,1595,1331,0,0
378,-307,0,0,0,0,0,0,0,0,0,-1,1602,1331,0,0
385,-307,0,0,0,0,0,0,0,0,0,-1,1609,1331,0,0
392,-307,0,0,0,0,0,0,0,0,0,-1,1616,1331,0,0
399,-307,0,0,0,0,0,0,0,0,0,-1,1623,1331,0,0
406,-307,0,0,0,0,0,0,0,0,0,-1,1630,1331,0,0
413,-307,0,0,0,0,0,0,0,0,0,-1,1637,1331,0,0
420,-307,0,0,0,0,0,0,0,0,0,-1,1644,1331,0,0
427,-307,0,0,0,0,0,0,0,0,0,-1,1651,1331,0,0
434,-307,0,0,0,0,0,0,0,0,0,-1,1658,1331,0,0
441,-307,0,0,0,0,0,0,0,0,0,-1,1665,1331,0,0
448,-307,0,0,0,0,0,0,0,0,0,-1,1672,1331,0,0
455,-307,0,0,0,0,0,0,0,0,0,-1,1679,1331,0,0
462,-307,0,0,0,0,0,0,0,0,0,-1,1686,1331,0,0
469,-307,0,0,0,0,0,0,0,0,0,-1,1693,1331,0,0
476,-307,0,0,0,0,0,0,0,0,0,-1,1700,1331,0,0
483,-307,0,0,0,0,0,0,0,0,0,-1,1707,1331,0,0
490,-307,0,0,0,0,0,0,0,0,0,-1,1714,1331,0,0
497,-307,0,0,0,0,0,0,0,0,0,-1,1721,1331,0,0
504,-307,0,0,0,0,0,0,0,0,0,-1,1728,1331,0,0
511,-307,0,0,0,0,0,0,0,0,0,-1,1735,1331,0,0
518,-307,0,0,0,0,0,0,0,0,0,-1,1742,1331,0,0
525,-307,0,0,0,0,0,0,0,0,0,-1,1749,1331,0,0
532,-307,0,0,0,0,0,0,0,0,0,-1,1756,1331,0,0
539,-307,0,0,0,0,0,0,0,0,0,-1,1763,1331,0,0
546,-307,0,0,0,0,0,0,0,0,0,-1,1770,1331,0,0
553,-307,0,0,0,0,0,0,0,0,0,-1,1777,1331,0,0
560,-307,0,0,0,0,0,0,0,0,0,-1,1784,1331,0,0
567,-307,0,0,0,0,0,0,0,0,0,-1,1791,1331,0,0
574,-307,0,0,0,0,0,0,0,0,0,-1,1798,1331,0,0
581,-307,0,0,0,0,0,0,0,0,0,-1,1805,1331,0,0
588,-307,12.3381,3.01355,0,0,0,0,0,0,0,-1,1812,1331,12.3381,-3.0136
595,-307,12.8627,2.79761,0,0,0,0,0,0,0,-1,1819,1331,12.8626,-2.79757
602,-307,13.1876,2.89075,0,0,0,0,0,0,0,-1,1826,1331,13.1876,-2.89073
609,-307,13.7395,2.71252,0.0139739,0.0261555,0.00509632,0.0280064,0.012123,1.22243,0.016218,0.0482451,1833,1331,13.7395,-2.71257
616,-307,13.5797,2.50769,0.0114941,0.0256853,0.00820411,0.0294366,0.00774282,1.14193,0.01762,0.0446215,1840,1331,13.5797,-2.5077
623,-307,13.5143,2.21362,0.00783797,0.0234622,0.0104942,0.0287328,0.00256738,1.10536,0.0183593,0.0454745,1847,1331,13.5142,-2.21368
630,-307,13.0768,2.50403,0.00404928,0.0201965,0.0118805,0.0264871,-0.00224132,1.08384,0.0184506,0.043809,1854,1331,13.0768,-2.504
637,-307,12.832,3.13599,0.000493456,0.0167535,0.0124016,0.0234524,-0.00620547,1.07554,0.0180623,0.0435968,1861,1331,12.832,-3.13602
644,-307,12.5269,3.59875,0,0,0,0,0,0,0,-1,1868,1331,12.5269,-3.59881
651,-307,12.8873,2.61084,0,0,0,0,0,0,0,-1,1875,1331,12.8873,-2.6108
658,-307,11.8788,4.49097,-0.00640376,0.00686178,0.0110272,0.0130973,-0.0126393,1.05616,0.0148598,0.0432386,1882,1331,11.8788,-4.49093
665,-307,11.7865,4.45081,-0.00708271,0.00380627,0.00958705,0.00938693,-0.0126634,1.04364,0.0127775,0.015679,1889,1331,11.7865,-4.45082
672,-307,11.7753,4.33459,-0.0069679,0.000906631,0.00793311,0.0058258,-0.0118871,1.01574,0.0104242,0.00876523,1896,1331,11.7752,-4.33454
679,-307,11.7694,4.20081,-0.00583186,-0.000678746,0.00608195,0.0033499,-0.00986051,0.985757,0.00792978,0.010508,1903,1331,11.7694,-4.20077
686,-307,11.7727,4.07434,-0.00540502,-0.00208704,0.00360205,0.000219699,-0.00771176,1.0012,0.00521595,0.0105204,1910,1331,11.7727,-4.07435
693,-307,11.7643,3.94678,-0.00341271,-0.00160131,0.00206797,-0.000249404,-0.00476461,0.991799,0.00309662,0.0120639,1917,1331,11.7643,-3.94673
700,-307,11.7665,3.79858,-0.000615432,-0.000590641,0.000400873,-0.000201972,-0.0010041,0.800854,0.000613265,0.0122646,1924,1331,11.7664,-3.79864
707,-307,11.7703,3.6499,0.00192078,0.00034251,-0.000880454,0.00231399,-5.06979e-05,-0.42002,0.00155983,0.0122334,1931,1331,11.7703,-3.64993
714,-307,11.7834,3.56628,0.00216636,0.00104489,-0.00152734,0.00323265,-2.1389e-05,-0.60947,0.00216226,0.0113173,1938,1331,11.7834,-3.56634
721,-307,11.7968,3.44531,0.00133933,0.00161953,-0.0021455,0.0036295,-0.000670641,-0.818001,0.00267142,0.0135404,1945,1331,11.7967,-3.44534
728,-307,11.7802,3.32849,-0.000305063,0.00225921,-0.00277452,0.00403352,-0.00207937,-1.00184,0.00358888,0.0167454,1952,1331,11.7802,-3.32851
735,-307,11.7188,3.17981,-0.00390388,0.00293002,-0.00329634,0.00426085,-0.00523471,-1.18708,0.00549187,0.0276395,1959,1331,11.7187,-3.17982
742,-307,11.7037,2.96179,-0.0100055,0.00356554,-0.00359999,0.00446138,-0.0109013,-1.32691,0.00912571,0.0388018,1966,1331,11.7038,-2.96175
749,-307,11.7521,2.64429,0,0,0,0,0,0,0,-1,1973,1331,11.7521,-2.64435
756,-307,14.3385,1.70117,0,0,0,0,0,0,0,-1,1980,1331,14.3385,-1.70121
763,-307,13.3927,2.26563,0,0,0,0,0,0,0,-1,1987,1331,13.3927,-2.26565
770,-307,0,0,0,0,0,0,0,0,0,-1,1994,1331,0,0
777,-307,0,0,0,0,0,0,0,0,0,-1,2001,1331,0,0
784,-307,0,0,0,0,0,0,0,0,0,-1,2008,1331,0,0
791,-307,0,0,0,0,0,0,0,0,0,-1,2015,1331,0,0
798,-307,0,0,0,0,0,0,0,0,0,-1,2022,1331,0,0
805,-307,0,0,0,0,0,0,0,0,0,-1,2029,1331,0,0
812,-307,0,0,0,0,0,0,0,0,0,-1,2036,1331,0,0
-700,-314,0,0,0,0,0,0,0,0,0,-1,524,1338,0,0
-693,-314,0,0,0,0,0,0,0,0,0,-1,531,1338,0,0
-686,-314,0,0,0,0,0,0,0,0,0,-1,538,1338,0,0
-679,-314,0,0,0,0,0,0,0,0,0,-1,545,1338,0,0
-672,-314,0,0,0,0,0,0,0,0,0,-1,552,1338,0,0
-665,-314,0,0,0,0,0,0,0,0,0,-1,559,1338,0,0
-658,-314,0,0,0,0,0,0,0,0,0,-1,566,1338,0,0
-651,-314,0,0,0,0,0,0,0,0,0,-1,573,1338,0,0
-644,-314,-4.80365,-4.2616,0,0,0,0,0,0,0,-1,580,1338,-4.80365,4.26156
-637,-314,-4.65918,-1.80396,0,0,0,0,0,0,0,-1,587,1338,-4.6592,1.80396
-630,-314,-5.57306,-2.35693,0,0,0,0,0,0,0,-1,594,1338,-5.57305,2.35695
-623,-314,-5.36365,-1.74707,0.0327412,0.0686017,-0.0110083,0.0717113,0.0296316,-1.29549,0.04161,0.0487089,601,1338,-5.36362,1.74713
-616,-314,-5.06293,-1.11304,0.0286508,0.0550544,-0.0009198,0.0550864,0.0286188,-1.53602,0.0318122,0.0458479,608,1338,-5.06293,1.11305
-609,-314,-5.18915,0.601074,0.023961,0.043492,0.00517112,0.0447766,0.0226764,1.3273,0.0258525,0.0473219,615,1338,-5.18913,-0.601095
-602,-314,-5.04236,0.924194,0.0193568,0.0345948,0.00815322,0.0381348,0.0158168,1.16117,0.0221235,0.0378368,622,1338,-5.04237,-0.924241
-595,-314,-4.94843,1.32996,0.0148227,0.0244913,0.0102467,0.0309868,0.00832723,1.00581,0.0185172,0.0255644,629,1338,-4.94842,-1.32991
-588,-314,-5.04272,1.50134,0.0108331,0.0169585,0.0103043,0.0246456,0.00314594,0.929852,0.0154886,0.0137862,636,1338,-5.04271,-1.50138
-581,-314,-5.0271,1.64868,0.00769299,0.0120623,0.00803547,0.0182048,0.00155048,0.918127,0.0116541,0.0126838,643,1338,-5.02711,-1.64863
-574,-314,-5.05219,1.77075,0.0051805,0.00791436,0.00616842,0.0128655,0.000229372,0.894437,0.00850157,0.0126992,650,1338,-5.0522,-1.77078
-567,-314,-5.03918,1.95581,0.00233375,0.00401339,0.00342687,0.00670184,-0.000354711,0.905564,0.0045907,0.0130746,657,1338,-5.03916,-1.95576
-560,-314,-5.0152,2.12378,0.000443566,0.00137619,0.00106965,0.00207675,-0.000256995,0.990952,0.00147763,0.0143159,664,1338,-5.01519,-2.12373
-553,-314,-5.03345,2.25024,-0.000673216,-0.000548301,-0.000636567,2.88651e-05,-0.00125038,-0.8343,0.000843374,0.0171448,671,1338,-5.03346,-2.25027
-546,-314,-5.04852,2.41797,-0.00197776,-0.00191433,-0.00233392,0.000388091,-0.00428018,-0.792191,0.00299122,0.0171427,678,1338,-5.04852,-2.418
-539,-314,-5.02081,2.599,-0.00346212,-0.00216566,-0.00348168,0.000727623,-0.0063554,-0.877436,0.00449913,0.015495,685,1338,-5.02082,-2.59899
-532,-314,-4.92517,2.7616,-0.00553907,-0.00159553,-0.00463427,0.001469,-0.00860361,-0.986535,0.00628291,0.0203669,692,1338,-4.92515,-2.76163
-525,-314,-5.06403,2.84973,-0.00870488,-0.00130578,-0.00557249,0.00168341,-0.0116941,-1.07844,0.00841351,0.0349403,699,1338,-5.064,-2.84979
-518,-314,-5.22546,2.96216,-0.0118719,-0.000693884,-0.00684676,0.00255539,-0.0151211,-1.1277,0.0110317,0.0433875,706,1338,-5.22544,-2.96213
-511,-314,-5.42126,2.99402,0,0,0,0,0,0,0,-1,713,1338,-5.42125,-2.99401
-504,-314,-7.69379,1.85608,0,0,0,0,0,0,0,-1,720,1338,-7.69382,-1.85605
-497,-314,-7.47803,1.39368,0,0,0,0,0,0,0,-1,727,1338,-7.47801,-1.39364
-490,-314,-7.34888,0.142578,0,0,0,0,0,0,0,-1,734,1338,-7.34886,-0.142519
-483,-314,-6.63385,-0.366943,-0.0346759,0.00520659,-0.0131523,0.00915336,-0.0386227,-1.27926,0.0292804,0.0459131,741,1338,-6.63388,0.366941
-476,-314,-7.33563,0.339233,-0.0412545,0.00570519,-0.0141897,0.00965984,-0.0452092,-1.299,0.0338224,0.0427229,748,1338,-7.33562,-0.339252
-469,-314,-8.005,0.434082,0,0,0,0,0,0,0,-1,755,1338,-8.00501,-0.434049
-462,-314,0,0,0,0,0,0,0,0,0,-1,762,1338,0,0
-455,-314,0,0,0,0,0,0,0,0,0,-1,769,1338,0,0
-448,-314,0,0,0,0,0,0,0,0,0,-1,776,1338,0,0
-441,-314,0,0,0,0,0,0,0,0,0,-1,783,1338,0,0
-434,-314,0,0,0,0,0,0,0,0,0,-1,790,1338,0,0
-427,-314,0,0,0,0,0,0,0,0,0,-1,797,1338,0,0
-420,-314,0,0,0,0,0,0,0,0,0,-1,804,1338,0,0
-413,-314,0,0,0,0,0,0,0,0,0,-1,811,1338,0,0
-406,-314,0,0,0,0,0,0,0,0,0,-1,818,1338,0,0
-399,-314,0,0,0,0,0,0,0,0,0,-1,825,1338,0,0
-392,-314,0,0,0,0,0,0,0,0,0,-1,832,1338,0,0
-385,-314,0,0,0,0,0,0,0,0,0,-1,839,1338,0,0
-378,-314,0,0,0,0,0,0,0,0,0,-1,846,1338,0,0
-371,-314,0,0,0,0,0,0,0,0,0,-1,853,1338,0,0
-364,-314,0,0,0,0,0,0,0,0,0,-1,860,1338,0,0
-357,-314,0,0,0,0,0,0,0,0,0,-1,867,1338,0,0
-350,-314,0,0,0,0,0,0,0,0,0,-1,874,1338,0,0
-343,-314,0,0,0,0,0,0,0,0,0,-1,881,1338,0,0
-336,-314,0,0,0,0,0,0,0,0,0,-1,888,1338,0,0
-329,-314,0,0,0,0,0,0,0,0,0,-1,895,1338,0,0
-322,-314,0,0,0,0,0,0,0,0,0,-1,902,1338,0,0
-315,-314,0,0,0,0,0,0,0,0,0,-1,909,1338,0,0
-308,-314,0,0,0,0,0,0,0,0,0,-1,916,1338,0,0
-301,-314,0,0,0,0,0,0,0,0,0,-1,923,1338,0,0
-294,-314,0,0,0,0,0,0,0,0,0,-1,930,1338,0,0
-287,-314,0,0,0,0,0,0,0,0,0,-1,937,1338,0,0
-280,-314,0,0,0,0,0,0,0,0,0,-1,944,1338,0,0
-273,-314,0,0,0,0,0,0,0,0,0,-1,951,1338,0,0
-266,-314,0,0,0,0,0,0,0,0,0,-1,958,1338,0,0
-259,-314,0,0,0,0,0,0,0,0,0,-1,965,1338,0,0
-252,-314,0,0,0,0,0,0,0,0,0,-1,972,1338,0,0
-245,-314,0,0,0,0,0,0,0,0,0,-1,979,1338,0,0
-238,-314,0,0,0,0,0,0,0,0,0,-1,986,1338,0,0
-231,-314,0,0,0,0,0,0,0,0,0,-1,993,1338,0,0
-224,-314,0,0,0,0,0,0,0,0,0,-1,1000,1338,0,0
-217,-314,0,0,0,0,0,0,0,0,0,-1,1007,1338,0,0
-210,-314,0,0,0,0,0,0,0,0,0,-1,1014,1338,0,0
-203,-314,0,0,0,0,0,0,0,0,0,-1,1021,1338,0,0
-196,-314,0,0,0,0,0,0,0,0,0,-1,1028,1338,0,0
-189,-314,0,0,0,0,0,0,0,0,0,-1,1035,1338,0,0
-182,-314,0,0,0,0,0,0,0,0,0,-1,1042,1338,0,0
-175,-314,0,0,0,0,0,0,0,0,0,-1,1049,1338,0,0
-168,-314,0,0,0,0,0,0,0,0,0,-1,1056,1338,0,0
-161,-314,0,0,0,0,0,0,0,0,0,-1,1063,1338,0,0
-154,-314,0,0,0,0,0,0,0,0,0,-1,1070,1338,0,0
-147,-314,0,0,0,0,0,0,0,0,0,-1,1077,1338,0,0
-140,-314,0,0,0,0,0,0,0,0,0,-1,1084,1338,0,0
-133,-314,0,0,0,0,0,0,0,0,0,-1,1091,1338,0,0
-126,-314,0,0,0,0,0,0,0,0,0,-1,1098,1338,0,0
-119,-314,0,0,0,0,0,0,0,0,0,-1,1105,1338,0,0
-112,-314,0,0,0,0,0,0,0,0,0,-1,1112,1338,0,0
-105,-314,0,0,0,0,0,0,0,0,0,-1,1119,1338,0,0
-98,-314,0,0,0,0,0,0,0,0,0,-1,1126,1338,0,0
-91,-314,0,0,0,0,0,0,0,0,0,-1,1133,1338,0,0
-84,-314,0,0,0,0,0,0,0,0,0,-1,1140,1338,0,0
-77,-314,0,0,0,0,0,0,0,0,0,-1,1147,1338,0,0
-70,-314,0,0,0,0,0,0,0,0,0,-1,1154,1338,0,0
-63,-314,0,0,0,0,0,0,0,0,0,-1,1161,1338,0,0
-56,-314,0,0,0,0,0,0,0,0,0,-1,1168,1338,0,0
-49,-314,0,0,0,0,0,0,0,0,0,-1,1175,1338,0,0
-42,-314,0,0,0,0,0,0,0,0,0,-1,1182,1338,0,0
-35,-314,0,0,0,0,0,0,0,0,0,-1,1189,1338,0,0
-28,-314,0,0,0,0,0,0,0,0,0,-1,1196,1338,0,0
-21,-314,0,0,0,0,0,0,0,0,0,-1,1203,1338,0,0
-14,-314,0,0,0,0,0,0,0,0,0,-1,1210,1338,0,0
-7,-314,0,0,0,0,0,0,0,0,0,-1,1217,1338,0,0
0,-314,0,0,0,0,0,0,0,0,0,-1,1224,1338,0,0
7,-314,0,0,0,0,0,0,0,0,0,-1,1231,1338,0,0
14,-314,0,0,0,0,0,0,0,0,0,-1,1238,1338,0,0
21,-314,0,0,0,0,0,0,0,0,0,-1,1245,1338,0,0
28,-314,0,0,0,0,0,0,0,0,0,-1,1252,1338,0,0
35,-314,0,0,0,0,0,0,0,0,0,-1,1259,1338,0,0
42,-314,0,0,0,0,0,0,0,0,0,-1,1266,1338,0,0
49,-314,0,0,0,0,0,0,0,0,0,-1,1273,1338,0,0
56,-314,0,0,0,0,0,0,0,0,0,-1,1280,1338,0,0
63,-314,0,0,0,0,0,0,0,0,0,-1,1287,1338,0,0
70,-314,0,0,0,0,0,0,0,0,0,-1,1294,1338,0,0
77,-314,0,0,0,0,0,0,0,0,0,-1,1301,1338,0,0
84,-314,0,0,0,0,0,0,0,0,0,-1,1308,1338,0,0
91,-314,0,0,0,0,0,0,0,0,0,-1,1315,1338,0,0
98,-314,0,0,0,0,0,0,0,0,0,-1,1322,1338,0,0
105,-314,0,0,0,0,0,0,0,0,0,-1,1329,1338,0,0
112,-314,0,0,0,0,0,0,0,0,0,-1,1336,1338,0,0
119,-314,0,0,0,0,0,0,0,0,0,-1,1343,1338,0,0
126,-314,0,0,0,0,0,0,0,0,0,-1,1350,1338,0,0
133,-314,0,0,0,0,0,0,0,0,0,-1,1357,1338,0,0
140,-314,0,0,0,0,0,0,0,0,0,-1,1364,1338,0,0
147,-314,0,0,0,0,0,0,0,0,0,-1,1371,1338,0,0
154,-314,0,0,0,0,0,0,0,0,0,-1,1378,1338,0,0
161,-314,0,0,0,0,0,0,0,0,0,-1,1385,1338,0,0
168,-314,0,0,0,0,0,0,0,0,0,-1,1392,1338,0,0
175,-314,0,0,0,0,0,0,0,0,0,-1,1399,1338,0,0
182,-314,0,0,0,0,0,0,0,0,0,-1,1406,1338,0,0
189,-314,0,0,0,0,0,0,0,0,0,-1,1413,1338,0,0
196,-314,0,0,0,0,0,0,0,0,0,-1,1420,1338,0,0
203,-314,0,0,0,0,0,0,0,0,0,-1,1427,1338,0,0
210,-314,0,0,0,0,0,0,0,0,0,-1,1434,1338,0,0
217,-314,0,0,0,0,0,0,0,0,0,-1,1441,1338,0,0
224,-314,0,0,0,0,0,0,0,0,0,-1,1448,1338,0,0
231,-314,0,0,0,0,0,0,0,0,0,-1,1455,1338,0,0
238,-314,0,0,0,0,0,0,0,0,0,-1,1462,1338,0,0
245,-314,0,0,0,0,0,0,0,0,0,-1,1469,1338,0,0
252,-314,0,0,0,0,0,0,0,0,0,-1,1476,1338,0,0
259,-314,0,0,0,0,0,0,0,0,0,-1,1483,1338,0,0
266,-314,0,0,0,0,0,0,0,0,0,-1,1490,1338,0,0
273,-314,0,0,0,0,0,0,0,0,0,-1,1497,1338,0,0
280,-314,0,0,0,0,0,0,0,0,0,-1,1504,1338,0,0
287,-314,0,0,0,0,0,0,0,0,0,-1,1511,1338,0,0
294,-314,0,0,0,0,0,0,0,0,0,-1,1518,1338,0,0
301,-314,0,0,0,0,0,0,0,0,0,-1,1525,1338,0,0
308,-314,0,0,0,0,0,0,0,0,0,-1,1532,1338,0,0
315,-314,0,0,0,0,0,0,0,0,0,-1,1539,1338,0,0
322,-314,0,0,0,0,0,0,0,0,0,-1,1546,1338,0,0
329,-314,0,0,0,0,0,0,0,0,0,-1,1553,1338,0,0
336,-314,0,0,0,0,0,0,0,0,0,-1,1560,1338,0,0
343,-314,0,0,0,0,0,0,0,0,0,-1,1567,1338,0,0
350,-314,0,0,0,0,0,0,0,0,0,-1,1574,1338,0,0
357,-314,0,0,0,0,0,0,0,0,0,-1,1581,1338,0,0
364,-314,0,0,0,0,0,0,0,0,0,-1,1588,1338,0,0
371,-314,0,0,0,0,0,0,0,0,0,-1,1595,1338,0,0
378,-314,0,0,0,0,0,0,0,0,0,-1,1602,1338,0,0
385,-314,0,0,0,0,0,0,0,0,0,-1,1609,1338,0,0
392,-314,0,0,0,0,0,0,0,0,0,-1,1616,1338,0,0
399,-314,0,0,0,0,0,0,0,0,0,-1,1623,1338,0,0
406,-314,0,0,0,0,0,0,0,0,0,-1,1630,1338,0,0
413,-314,0,0,0,0,0,0,0,0,0,-1,1637,1338,0,0
420,-314,0,0,0,0,0,0,0,0,0,-1,1644,1338,0,0
427,-314,0,0,0,0,0,0,0,0,0,-1,1651,1338,0,0
434,-314,0,0,0,0,0,0,0,0,0,-1,1658,1338,0,0
441,-314,0,0,0,0,0,0,0,0,0,-1,1665,1338,0,0
448,-314,0,0,0,0,0,0,0,0,0,-1,1672,1338,0,0
455,-314,0,0,0,0,0,0,0,0,0,-1,1679,1338,0,0
462,-314,0,0,0,0,0,0,0,0,0,-1,1686,1338,0,0
469,-314,0,0,0,0,0,0,0,0,0,-1,1693,1338,0,0
476,-314,0,0,0,0,0,0,0,0,0,-1,1700,1338,0,0
483,-314,0,0,0,0,0,0,0,0,0,-1,1707,1338,0,0
490,-314,0,0,0,0,0,0,0,0,0,-1,1714,1338,0,0
497,-314,0,0,0,0,0,0,0,0,0,-1,1721,1338,0,0
504,-314,0,0,0,0,0,0,0,0,0,-1,1728,1338,0,0
511,-314,0,0,0,0,0,0,0,0,0,-1,1735,1338,0,0
518,-314,0,0,0,0,0,0,0,0,0,-1,1742,1338,0,0
525,-314,0,0,0,0,0,0,0,0,0,-1,1749,1338,0,0
532,-314,0,0,0,0,0,0,0,0,0,-1,1756,1338,0,0
539,-314,0,0,0,0,0,0,0,0,0,-1,1763,1338,0,0
546,-314,0,0,0,0,0,0,0,0,0,-1,1770,1338,0,0
553,-314,0,0,0,0,0,0,0,0,0,-1,1777,1338,0,0
560,-314,0,0,0,0,0,0,0,0,0,-1,1784,1338,0,0
567,-314,0,0,0,0,0,0,0,0,0,-1,1791,1338,0,0
574,-314,0,0,0,0,0,0,0,0,0,-1,1798,1338,0,0
581,-314,11.4332,4.30481,0,0,0,0,0,0,0,-1,1805,1338,11.4332,-4.30477
588,-314,11.6656,2.60608,0,0,0,0,0,0,0,-1,1812,1338,11.6657,-2.60611
595,-314,12.2056,2.51123,0,0,0,0,0,0,0,-1,1819,1338,12.2056,-2.51122
602,-314,12.7611,2.52612,0.0123799,0.0313873,0.00350899,0.0320144,0.0117528,1.39395,0.0186999,0.0466088,1826,1338,12.7611,-2.5261
609,-314,13.2303,2.37891,0.0128915,0.027965,0.007058,0.0307539,0.0101027,1.19449,0.0181006,0.0435692,1833,1338,13.2304,-2.37888
616,-314,13.427,2.11096,0.0117462,0.024718,0.00959245,0.0298115,0.00665273,1.08267,0.0180697,0.0428848,1840,1338,13.427,-2.11099
623,-314,13.7111,1.87048,0,0,0,0,0,0,0,-1,1847,1338,13.711,-1.87046
630,-314,13.1016,2.36304,0.0053404,0.0177634,0.0127591,0.0257427,-0.00263887,1.01193,0.0181056,0.0463511,1854,1338,13.1015,-2.36301
637,-314,12.5115,2.4845,0.00172962,0.0146851,0.012987,0.0227202,-0.00630549,1.01674,0.0176286,0.0472989,1861,1338,12.5114,-2.48455
644,-314,12.411,4.31958,0,0,0,0,0,0,0,-1,1868,1338,12.411,-4.31957
651,-314,12.0739,4.40649,-0.00358549,0.00844669,0.0116574,0.0155489,-0.0106877,1.02361,0.0152341,0.0447678,1875,1338,12.0739,-4.40652
658,-314,11.7738,4.43274,-0.00543723,0.00603896,0.0107916,0.0125231,-0.0119214,1.02975,0.0141145,0.0321602,1882,1338,11.7739,-4.43278
665,-314,11.6399,4.46582,-0.00616,0.003307,0.00909471,0.00882629,-0.0116793,1.02534,0.011877,0.0134632,1889,1338,11.6399,-4.46586
672,-314,11.6699,4.35132,-0.00603498,0.000783227,0.00724711,0.00538303,-0.0106348,1.00525,0.00941212,0.011116,1896,1338,11.6699,-4.35133
679,-314,11.6553,4.21057,-0.00488136,-0.000520709,0.00525771,0.00299083,-0.0083929,0.981952,0.00681461,0.00985141,1903,1338,11.6553,-4.21054
686,-314,11.634,4.06091,-0.00413631,-0.00153534,0.00284045,0.000288179,-0.00595983,1.00008,0.00407268,0.0120785,1910,1338,11.6341,-4.06088
693,-314,11.6315,3.93066,-0.00206085,-0.00118608,0.00132442,-0.000228692,-0.00301824,0.944885,0.00194043,0.0121134,1917,1338,11.6314,-3.93064
700,-314,11.6343,3.78943,0.000614634,-0.00037097,-0.000262911,0.00068038,-0.000436716,-0.245045,0.00065005,0.0117597,1924,1338,11.6343,-3.78945
707,-314,11.6512,3.65356,0.00313673,0.000300593,-0.00154599,0.00381652,-0.000379196,-0.414265,0.0026797,0.011082,1931,1338,11.6513,-3.6536
714,-314,11.6539,3.54846,0.00380375,0.000688101,-0.00230701,0.00502965,-0.000537799,-0.488435,0.00354599,0.0104076,1938,1338,11.6539,-3.54849
721,-314,11.6637,3.41919,0.00379092,0.000950311,-0.00308126,0.00576346,-0.00102223,-0.569437,0.00422448,0.0152158,1945,1338,11.6637,-3.41922
728,-314,11.6284,3.31921,0.00334612,0.00123741,-0.00384935,0.0062829,-0.00169937,-0.651725,0.00485522,0.0240235,1952,1338,11.6284,-3.31917
735,-314,11.5802,3.35852,0.00158591,0.00141624,-0.00451002,0.0060119,-0.00300975,-0.775994,0.00530391,0.0355458,1959,1338,11.5802,-3.3585
742,-314,11.5824,3.19507,-0.00235846,0.00144845,-0.00492346,0.00482359,-0.0057336,-0.969853,0.00610274,0.0451132,1966,1338,11.5824,-3.19508
749,-314,11.7826,2.8075,0,0,0,0,0,0,0,-1,1973,1338,11.7827,-2.80753
756,-314,13.3716,1.48828,0,0,0,0,0,0,0,-1,1980,1338,13.3715,-1.48831
763,-314,13.0852,2.67249,0,0,0,0,0,0,0,-1,1987,1338,13.0852,-2.67252
770,-314,0,0,0,0,0,0,0,0,0,-1,1994,1338,0,0
777,-314,0,0,0,0,0,0,0,0,0,-1,2001,1338,0,0
784,-314,0,0,0,0,0,0,0,0,0,-1,2008,1338,0,0
791,-314,0,0,0,0,0,0,0,0,0,-1,2015,1338,0,0
798,-314,0,0,0,0,0,0,0,0,0,-1,2022,1338,0,0
805,-314,0,0,0,0,0,0,0,0,0,-1,2029,1338,0,0
812,-314,0,0,0,0,0,0,0,0,0,-1,2036,1338,0,0
-700,-321,0,0,0,0,0,0,0,0,0,-1,524,1345,0,0
-693,-321,0,0,0,0,0,0,0,0,0,-1,531,1345,0,0
-686,-321,0,0,0,0,0,0,0,0,0,-1,538,1345,0,0
-679,-321,0,0,0,0,0,0,0,0,0,-1,545,1345,0,0
-672,-321,0,0,0,0,0,0,0,0,0,-1,552,1345,0,0
-665,-321,0,0,0,0,0,0,0,0,0,-1,559,1345,0,0
-658,-321,0,0,0,0,0,0,0,0,0,-1,566,1345,0,0
-651,-321,0,0,0,0,0,0,0,0,0,-1,573,1345,0,0
-644,-321,-3.96613,-1.54102,0,0,0,0,0,0,0,-1,580,1345,-3.96613,1.54097
-637,-321,-5.64087,-3.21802,0,0,0,0,0,0,0,-1,587,1345,-5.64085,3.21796
-630,-321,-5.40814,-2.68652,0.0363413,0.100146,-0.0242411,0.108311,0.0281763,-1.24591,0.0648874,0.0487705,594,1345,-5.40813,2.68656
-623,-321,-5.14337,-2.19958,0.0338032,0.0804681,-0.00849706,0.0819672,0.0323041,-1.39617,0.0476762,0.0499607,601,1345,-5.14337,2.19962
-616,-321,-4.7326,-1.45715,0.0299714,0.0639712,0.00205279,0.0640947,0.0298479,1.51071,0.0370341,0.0498709,608,1345,-4.73258,1.45709
-609,-321,-4.99664,0.634766,0,0,0,0,0,0,0,-1,615,1345,-4.99664,-0.634811
-602,-321,-4.90875,0.811401,0.0205439,0.0389989,0.0108637,0.0440251,0.0155178,1.13747,0.0257841,0.0417179,622,1345,-4.90875,-0.811344
-595,-321,-4.68329,1.32629,0.0157333,0.0275287,0.0124885,0.0354421,0.00781997,1.006,0.0215008,0.0402474,629,1345,-4.68327,-1.32635
-588,-321,-4.88177,1.4679,0.0114452,0.018933,0.0119218,0.027685,0.00269327,0.93754,0.0176276,0.0143794,636,1345,-4.88176,-1.46789
-581,-321,-4.86438,1.6416,0.00806969,0.0134297,0.00909406,0.0202304,0.00126897,0.928692,0.0130845,0.0112424,643,1345,-4.86436,-1.64158
-574,-321,-4.88593,1.77954,0.00547631,0.00898702,0.00703502,0.0144824,-1.90455e-05,0.90766,0.00966127,0.0150379,650,1345,-4.88591,-1.7796
-567,-321,-4.86859,1.96277,0.00257908,0.00490279,0.00416348,0.00806348,-0.000581623,0.921466,0.00557964,0.0205832,657,1345,-4.8686,-1.96276
-560,-321,-4.8692,2.10217,0.000706596,0.00201472,0.0017184,0.00319933,-0.000478011,0.967243,0.00230878,0.0246427,664,1345,-4.86919,-2.10215
-553,-321,-4.88452,2.20068,-0.000354273,-0.000180292,-9.01986e-05,-0.00014197,-0.000392594,-1.16905,0.00022954,0.0269391,671,1345,-4.88449,-2.20071
-546,-321,-4.92798,2.36267,-0.0014765,-0.00177594,-0.00178086,0.000160916,-0.00341336,-0.74346,0.00233106,0.0254168,678,1345,-4.928,-2.36271
-539,-321,-4.88947,2.56848,-0.00272226,-0.00229527,-0.00286621,0.000365381,-0.00538291,-0.822574,0.00371639,0.0227537,685,1345,-4.88946,-2.56846
-532,-321,-4.83154,2.75024,-0.004512,-0.00212977,-0.00400348,0.00085603,-0.0074978,-0.929988,0.00530694,0.0157319,692,1345,-4.83153,-2.7502
-525,-321,-4.83667,2.98755,-0.00743625,-0.00223041,-0.00506819,0.00086419,-0.0105309,-1.02262,0.00732564,0.0240297,699,1345,-4.83668,-2.98758
-518,-321,-5.00037,3.01526,-0.0104008,-0.00208521,-0.00654142,0.00150796,-0.013994,-1.06849,0.00987043,0.0410653,706,1345,-5.00038,-3.0152
-511,-321,-5.17487,2.93506,-0.0139751,-0.00170249,-0.00819202,0.0023966,-0.0180742,-1.10685,0.0129226,0.0454574,713,1345,-5.17484,-2.93506
-504,-321,-5.40582,3.17041,0,0,0,0,0,0,0,-1,720,1345,-5.40585,-3.17037
-497,-321,-7.401,2.25964,0,0,0,0,0,0,0,-1,727,1345,-7.40099,-2.2597
-490,-321,-7.23016,1.74951,0,0,0,0,0,0,0,-1,734,1345,-7.23016,-1.7495
-483,-321,-6.10547,0.879883,0,0,0,0,0,0,0,-1,741,1345,-6.10549,-0.879841
-476,-321,-7.10638,0.586792,-0.0427678,0.00285146,-0.0169994,0.00848927,-0.0484056,-1.25056,0.0354407,0.0438075,748,1345,-7.10635,-0.586751
-469,-321,-8.08673,0.241943,0,0,0,0,0,0,0,-1,755,1345,-8.08676,-0.241898
-462,-321,-9.01111,0.00646973,0,0,0,0,0,0,0,-1,762,1345,-9.0111,-0.00641196
-455,-321,0,0,0,0,0,0,0,0,0,-1,769,1345,0,0
-448,-321,0,0,0,0,0,0,0,0,0,-1,776,1345,0,0
-441,-321,0,0,0,0,0,0,0,0,0,-1,783,1345,0,0
-434,-321,0,0,0,0,0,0,0,0,0,-1,790,1345,0,0
-427,-321,0,0,0,0,0,0,0,0,0,-1,797,1345,0,0
-420,-321,0,0,0,0,0,0,0,0,0,-1,804,1345,0,0
-413,-321,0,0,0,0,0,0,0,0,0,-1,811,1345,0,0
-406,-321,0,0,0,0,0,0,0,0,0,-1,818,1345,0,0
-399,-321,0,0,0,0,0,0,0,0,0,-1,825,1345,0,0
-392,-321,0,0,0,0,0,0,0,0,0,-1,832,1345,0,0
-385,-321,0,0,0,0,0,0,0,0,0,-1,839,1345,0,0
-378,-321,0,0,0,0,0,0,0,0,0,-1,846,1345,0,0
-371,-321,0,0,0,0,0,0,0,0,0,-1,853,1345,0,0
-364,-321,0,0,0,0,0,0,0,0,0,-1,860,1345,0,0
-357,-321,0,0,0,0,0,0,0,0,0,-1,867,1345,0,0
-350,-321,0,0,0,0,0,0,0,0,0,-1,874,1345,0,0
-343,-321,0,0,0,0,0,0,0,0,0,-1,881,1345,0,0
-336,-321,0,0,0,0,0,0,0,0,0,-1,888,1345,0,0
-329,-321,0,0,0,0,0,0,0,0,0,-1,895,1345,0,0
-322,-321,0,0,0,0,0,0,0,0,0,-1,902,1345,0,0
-315,-321,0,0,0,0,0,0,0,0,0,-1,909,1345,0,0
-308,-321,0,0,0,0,0,0,0,0,0,-1,916,1345,0,0
-301,-321,0,0,0,0,0,0,0,0,0,-1,923,1345,0,0
-294,-321,0,0,0,0,0,0,0,0,0,-1,930,1345,0,0
-287,-321,0,0,0,0,0,0,0,0,0,-1,937,1345,0,0
-280,-321,0,0,0,0,0,0,0,0,0,-1,944,1345,0,0
-273,-321,0,0,0,0,0,0,0,0,0,-1,951,1345,0,0
-266,-321,0,0,0,0,0,0,0,0,0,-1,958,1345,0,0
-259,-321,0,0,0,0,0,0,0,0,0,-1,965,1345,0,0
-252,-321,0,0,0,0,0,0,0,0,0,-1,972,1345,0,0
-245,-321,0,0,0,0,0,0,0,0,0,-1,979,1345,0,0
-238,-321,0,0,0,0,0,0,0,0,0,-1,986,1345,0,0
-231,-321,0,0,0,0,0,0,0,0,0,-1,993,1345,0,0
-224,-321,0,0,0,0,0,0,0,0,0,-1,1000,1345,0,0
-217,-321,0,0,0,0,0,0,0,0,0,-1,1007,1345,0,0
-210,-321,0,0,0,0,0,0,0,0,0,-1,1014,1345,0,0
-203,-321,0,0,0,0,0,0,0,0,0,-1,1021,1345,0,0
-196,-321,0,0,0,0,0,0,0,0,0,-1,1028,1345,0,0
-189,-321,0,0,0,0,0,0,0,0,0,-1,1035,1345,0,0
-182,-321,0,0,0,0,0,0,0,0,0,-1,1042,1345,0,0
-175,-321,0,0,0,0,0,0,0,0,0,-1,1049,1345,0,0
-168,-321,0,0,0,0,0,0,0,0,0,-1,1056,1345,0,0
-161,-321,0,0,0,0,0,0,0,0,0,-1,1063,1345,0,0
-154,-321,0,0,0,0,0,0,0,0,0,-1,1070,1345,0,0
-147,-321,0,0,0,0,0,0,0,0,0,-1,1077,1345,0,0
-140,-321,0,0,0,0,0,0,0,0,0,-1,1084,1345,0,0
-133,-321,0,0,0,0,0,0,0,0,0,-1,1091,1345,0,0
-126,-321,0,0,0,0,0,0,0,0,0,-1,1098,1345,0,0
-119,-321,0,0,0,0,0,0,0,0,0,-1,1105,1345,0,0
-112,-321,0,0,0,0,0,0,0,0,0,-1,1112,1345,0,0
-105,-321,0,0,0,0,0,0,0,0,0,-1,1119,1345,0,0
-98,-321,0,0,0,0,0,0,0,0,0,-1,1126,1345,0,0
-91,-321,0,0,0,0,0,0,0,0,0,-1,1133,1345,0,0
-84,-321,0,0,0,0,0,0,0,0,0,-1,1140,1345,0,0
-77,-321,0,0,0,0,0,0,0,0,0,-1,1147,1345,0,0
-70,-321,0,0,0,0,0,0,0,0,0,-1,1154,1345,0,0
-63,-321,0,0,0,0,0,0,0,0,0,-1,1161,1345,0,0
-56,-321,0,0,0,0,0,0,0,0,0,-1,1168,1345,0,0
-49,-321,0,0,0,0,0,0,0,0,0,-1,1175,1345,0,0
-42,-321,0,0,0,0,0,0,0,0,0,-1,1182,1345,0,0
-35,-321,0,0,0,0,0,0,0,0,0,-1,1189,1345,0,0
-28,-321,0,0,0,0,0,0,0,0,0,-1,1196,1345,0,0
-21,-321,0,0,0,0,0,0,0,0,0,-1,1203,1345,0,0
-14,-321,0,0,0,0,0,0,0,0,0,-1,1210,1345,0,0
-7,-321,0,0,0,0,0,0,0,0,0,-1,1217,1345,0,0
0,-321,0,0,0,0,0,0,0,0,0,-1,1224,1345,0,0
7,-321,0,0,0,0,0,0,0,0,0,-1,1231,1345,0,0
14,-321,0,0,0,0,0,0,0,0,0,-1,1238,1345,0,0
21,-321,0,0,0,0,0,0,0,0,0,-1,1245,1345,0,0
28,-321,0,0,0,0,0,0,0,0,0,-1,1252,1345,0,0
35,-321,0,0,0,0,0,0,0,0,0,-1,1259,1345,0,0
42,-321,0,0,0,0,0,0,0,0,0,-1,1266,1345,0,0
49,-321,0,0,0,0,0,0,0,0,0,-1,1273,1345,0,0
56,-321,0,0,0,0,0,0,0,0,0,-1,1280,1345,0,0
63,-321,0,0,0,0,0,0,0,0,0,-1,1287,1345,0,0
70,-321,0,0,0,0,0,0,0,0,0,-1,1294,1345,0,0
77,-321,0,0,0,0,0,0,0,0,0,-1,1301,1345,0,0
84,-321,0,0,0,0,0,0,0,0,0,-1,1308,1345,0,0
91,-321,0,0,0,0,0,0,0,0,0,-1,1315,1345,0,0
98,-321,0,0,0,0,0,0,0,0,0,-1,1322,1345,0,0
105,-321,0,0,0,0,0,0,0,0,0,-1,1329,1345,0,0
112,-321,0,0,0,0,0,0,0,0,0,-1,1336,1345,0,0
119,-321,0,0,0,0,0,0,0,0,0,-1,1343,1345,0,0
126,-321,0,0,0,0,0,0,0,0,0,-1,1350,1345,0,0
133,-321,0,0,0,0,0,0,0,0,0,-1,1357,1345,0,0
140,-321,0,0,0,0,0,0,0,0,0,-1,1364,1345,0,0
147,-321,0,0,0,0,0,0,0,0,0,-1,1371,1345,0,0
154,-321,0,0,0,0,0,0,0,0,0,-1,1378,1345,0,0
161,-321,0,0,0,0,0,0,0,0,0,-1,1385,1345,0,0
168,-321,0,0,0,0,0,0,0,0,0,-1,1392,1345,0,0
175,-321,0,0,0,0,0,0,0,0,0,-1,1399,1345,0,0
182,-321,0,0,0,0,0,0,0,0,0,-1,1406,1345,0,0
189,-321,0,0,0,0,0,0,0,0,0,-1,1413,1345,0,0
196,-321,0,0,0,0,0,0,0,0,0,-1,1420,1345,0,0
203,-321,0,0,0,0,0,0,0,0,0,-1,1427,1345,0,0
210,-321,0,0,0,0,0,0,0,0,0,-1,1434,1345,0,0
217,-321,0,0,0,0,0,0,0,0,0,-1,1441,1345,0,0
224,-321,0,0,0,0,0,0,0,0,0,-1,1448,1345,0,0
231,-321,0,0,0,0,0,0,0,0,0,-1,1455,1345,0,0
238,-321,0,0,0,0,0,0,0,0,0,-1,1462,1345,0,0
245,-321,0,0,0,0,0,0,0,0,0,-1,1469,1345,0,0
252,-321,0,0,0,0,0,0,0,0,0,-1,1476,1345,0,0
259,-321,0,0,0,0,0,0,0,0,0,-1,1483,1345,0,0
266,-321,0,0,0,0,0,0,0,0,0,-1,1490,1345,0,0
273,-321,0,0,0,0,0,0,0,0,0,-1,1497,1345,0,0
280,-321,0,0,0,0,0,0,0,0,0,-1,1504,1345,0,0
287,-321,0,0,0,0,0,0,0,0,0,-1,1511,1345,0,0
294,-321,0,0,0,0,0,0,0,0,0,-1,1518,1345,0,0
301,-321,0,0,0,0,0,0,0,0,0,-1,1525,1345,0,0
308,-321,0,0,0,0,0,0,0,0,0,-1,1532,1345,0,0
315,-321,0,0,0,0,0,0,0,0,0,-1,1539,1345,0,0
322,-321,0,0,0,0,0,0,0,0,0,-1,1546,1345,0,0
329,-321,0,0,0,0,0,0,0,0,0,-1,1553,1345,0,0
336,-321,0,0,0,0,0,0,0,0,0,-1,1560,1345,0,0
343,-321,0,0,0,0,0,0,0,0,0,-1,1567,1345,0,0
350,-321,0,0,0,0,0,0,0,0,0,-1,1574,1345,0,0
357,-321,0,0,0,0,0,0,0,0,0,-1,1581,1345,0,0
364,-321,0,0,0,0,0,0,0,0,0,-1,1588,1345,0,0
371,-321,0,0,0,0,0,0,0,0,0,-1,1595,1345,0,0
378,-321,0,0,0,0,0,0,0,0,0,-1,1602,1345,0,0
385,-321,0,0,0,0,0,0,0,0,0,-1,1609,1345,0,0
392,-321,0,0,0,0,0,0,0,0,0,-1,1616,1345,0,0
399,-321,0,0,0,0,0,0,0,0,0,-1,1623,1345,0,0
406,-321,0,0,0,0,0,0,0,0,0,-1,1630,1345,0,0
413,-321,0,0,0,0,0,0,0,0,0,-1,1637,1345,0,0
420,-321,0,0,0,0,0,0,0,0,0,-1,1644,1345,0,0
427,-321,0,0,0,0,0,0,0,0,0,-1,1651,1345,0,0
434,-321,0,0,0,0,0,0,0,0,0,-1,1658,1345,0,0
441,-321,0,0,0,0,0,0,0,0,0,-1,1665,1345,0,0
448,-321,0,0,0,0,0,0,0,0,0,-1,1672,1345,0,0
455,-321,0,0,0,0,0,0,0,0,0,-1,1679,1345,0,0
462,-321,0,0,0,0,0,0,0,0,0,-1,1686,1345,0,0
469,-321,0,0,0,0,0,0,0,0,0,-1,1693,1345,0,0
476,-321,0,0,0,0,0,0,0,0,0,-1,1700,1345,0,0
483,-321,0,0,0,0,0,0,0,0,0,-1,1707,1345,0,0
490,-321,0,0,0,0,0,0,0,0,0,-1,1714,1345,0,0
497,-321,0,0,0,0,0,0,0,0,0,-1,1721,1345,0,0
504,-321,0,0,0,0,0,0,0,0,0,-1,1728,1345,0,0
511,-321,0,0,0,0,0,0,0,0,0,-1,1735,1345,0,0
518,-321,0,0,0,0,0,0,0,0,0,-1,1742,1345,0,0
525,-321,0,0,0,0,0,0,0,0,0,-1,1749,1345,0,0
532,-321,0,0,0,0,0,0,0,0,0,-1,1756,1345,0,0
539,-321,0,0,0,0,0,0,0,0,0,-1,1763,1345,0,0
546,-321,0,0,0,0,0,0,0,0,0,-1,1770,1345,0,0
553,-321,0,0,0,0,0,0,0,0,0,-1,1777,1345,0,0
560,-321,0,0,0,0,0,0,0,0,0,-1,1784,1345,0,0
567,-321,0,0,0,0,0,0,0,0,0,-1,1791,1345,0,0
574,-321,0,0,0,0,0,0,0,0,0,-1,1798,1345,0,0
581,-321,11.368,2.94775,0,0,0,0,0,0,0,-1,1805,1345,11.368,-2.94781
588,-321,11.2688,2.83887,0,0,0,0,0,0,0,-1,1812,1345,11.2689,-2.83885
595,-321,12.2988,2.42688,0,0,0,0,0,0,0,-1,1819,1345,12.2988,-2.42691
602,-321,12.3154,2.20422,0,0,0,0,0,0,0,-1,1826,1345,12.3154,-2.20426
609,-321,12.332,1.98157,0,0,0,0,0,0,0,-1,1833,1345,12.332,-1.98161
616,-321,12.8026,1.93762,0,0,0,0,0,0,0,-1,1840,1345,12.8026,-1.9376
623,-321,13.2407,1.66272,0,0,0,0,0,0,0,-1,1847,1345,13.2408,-1.66267
630,-321,12.9152,2.15674,0,0,0,0,0,0,0,-1,1854,1345,12.9152,-2.15673
637,-321,12.2188,4.50305,0,0,0,0,0,0,0,-1,1861,1345,12.2187,-4.50299
644,-321,12.4342,4.11377,0,0,0,0,0,0,0,-1,1868,1345,12.4342,-4.11379
651,-321,11.9381,4.41394,-0.00290003,0.00657566,0.0113158,0.0141055,-0.0104298,0.983656,0.0142183,0.0458264,1875,1345,11.9382,-4.41399
658,-321,11.576,4.57837,-0.00463708,0.00469261,0.0101438,0.0111927,-0.0111372,1.00091,0.0128922,0.0245127,1882,1345,11.5761,-4.57836
665,-321,11.4897,4.479,-0.00535827,0.00242184,0.0082151,0.00762136,-0.0105578,1.00652,0.0105413,0.0147285,1889,1345,11.4897,-4.47903
672,-321,11.5303,4.34497,-0.00518253,0.000430923,0.00624976,0.00447527,-0.00922688,0.996448,0.00806794,0.0119848,1896,1345,11.5303,-4.34493
679,-321,11.5195,4.20337,-0.00397473,-0.000505953,0.00422295,0.0023249,-0.00680558,0.980249,0.00547898,0.0109022,1903,1345,11.5196,-4.20333
686,-321,11.4816,4.07141,-0.00288432,-0.0011652,0.00195809,0.000113694,-0.00416321,0.992224,0.00281414,0.0115036,1910,1345,11.4816,-4.07147
693,-321,11.4877,3.94861,-0.000707462,-0.000985932,0.000520344,-0.000308047,-0.00138535,0.654669,0.000839928,0.0118775,1917,1345,11.4877,-3.94865
700,-321,11.5101,3.79761,0.00187426,-0.000443717,-0.000956205,0.0022178,-0.000787254,-0.34491,0.0017993,0.0116026,1924,1345,11.5101,-3.79765
707,-321,11.5249,3.65967,0.00444396,-0.000106561,-0.00221482,0.00534395,-0.00100656,-0.38597,0.00394123,0.0126274,1931,1345,11.5249,-3.65963
714,-321,11.5251,3.53687,0.00570966,-0.000106875,-0.00310577,0.00705625,-0.00145347,-0.409113,0.00525608,0.0116454,1938,1345,11.5251,-3.53688
721,-321,11.5148,3.38062,0.00659585,-0.000228189,-0.00406813,0.0084934,-0.00212574,-0.436444,0.00648799,0.0170167,1945,1345,11.5148,-3.38065
728,-321,11.4569,3.27771,0.0073743,-0.000409779,-0.0050758,0.00987849,-0.00291396,-0.45832,0.00774199,0.0259306,1952,1345,11.4569,-3.27774
735,-321,11.545,3.16846,0.00720143,-0.000757205,-0.0060185,0.0104372,-0.00399297,-0.493301,0.00860372,0.0405953,1959,1345,11.545,-3.16844
742,-321,11.631,3.5686,0.00535301,-0.00135676,-0.00673607,0.00952341,-0.00552716,-0.554356,0.00879096,0.0461632,1966,1345,11.631,-3.56862
749,-321,11.9675,3.14624,0,0,0,0,0,0,0,-1,1973,1345,11.9675,-3.14628
756,-321,13.1563,2.92444,0,0,0,0,0,0,0,-1,1980,1345,13.1563,-2.92446
763,-321,13.6693,3.36511,0,0,0,0,0,0,0,-1,1987,1345,13.6693,-3.36513
770,-321,0,0,0,0,0,0,0,0,0,-1,1994,1345,0,0
777,-321,0,0,0,0,0,0,0,0,0,-1,2001,1345,0,0
784,-321,0,0,0,0,0,0,0,0,0,-1,2008,1345,0,0
791,-321,0,0,0,0,0,0,0,0,0,-1,2015,1345,0,0
798,-321,0,0,0,0,0,0,0,0,0,-1,2022,1345,0,0
805,-321,0,0,0,0,0,0,0,0,0,-1,2029,1345,0,0
812,-321,0,0,0,0,0,0,0,0,0,-1,2036,1345,0,0
-700,-328,0,0,0,0,0,0,0,0,0,-1,524,1352,0,0
-693,-328,0,0,0,0,0,0,0,0,0,-1,531,1352,0,0
-686,-328,0,0,0,0,0,0,0,0,0,-1,538,1352,0,0
-679,-328,0,0,0,0,0,0,0,0,0,-1,545,1352,0,0
-672,-328,0,0,0,0,0,0,0,0,0,-1,552,1352,0,0
-665,-328,0,0,0,0,0,0,0,0,0,-1,559,1352,0,0
-658,-328,0,0,0,0,0,0,0,0,0,-1,566,1352,0,0
-651,-328,0,0,0,0,0,0,0,0,0,-1,573,1352,0,0
-644,-328,0,0,0,0,0,0,0,0,0,-1,580,1352,0,0
-637,-328,-1.41138,1.58411,0,0,0,0,0,0,0,-1,587,1352,-1.4114,-1.58414
-630,-328,-2.13367,0.652222,0,0,0,0,0,0,0,-1,594,1352,-2.13369,-0.652255
-623,-328,-4.87793,-2.75012,0,0,0,0,0,0,0,-1,601,1352,-4.87791,2.75014
-616,-328,-4.45599,-1.7926,0,0,0,0,0,0,0,-1,608,1352,-4.45602,1.79258
-609,-328,-5.1026,0.301514,0.0266337,0.0551766,0.0121794,0.0596671,0.0221431,1.21756,0.0348282,0.0470574,615,1352,-5.10258,-0.301455
-602,-328,-5.17896,0.305908,0.0217824,0.042477,0.0143951,0.0498578,0.0144016,1.09702,0.0296286,0.0461,622,1352,-5.17896,-0.305902
-595,-328,-4.76025,1.42615,0.0167677,0.029798,0.0153379,0.0399472,0.00661856,0.986237,0.0247224,0.0471125,629,1352,-4.76024,-1.42615
-588,-328,-4.68506,1.48779,0.012236,0.020396,0.0139626,0.0308625,0.00176944,0.927545,0.0200113,0.027948,636,1352,-4.68507,-1.48782
-581,-328,-4.71143,1.64697,0.00862979,0.0143208,0.0104611,0.0223165,0.000634109,0.91819,0.0146709,0.0126552,643,1352,-4.71144,-1.64702
-574,-328,-4.70715,1.79834,0.00598262,0.00957666,0.00801225,0.0159909,-0.000431661,0.895715,0.0108074,0.0146979,650,1352,-4.70714,-1.7983
-567,-328,-4.74524,1.97192,0.00308531,0.00536107,0.00482916,0.0091846,-0.00073822,0.901101,0.00638339,0.0188561,657,1352,-4.74523,-1.97195
-560,-328,-4.73035,2.14758,0.00123603,0.00234362,0.00215056,0.00401054,-0.000430892,0.911417,0.00282829,0.0260619,664,1352,-4.73036,-2.1476
-553,-328,-4.74615,2.27625,0.000234866,-4.29249e-05,6.66743e-05,0.00025004,-5.80989e-05,0.223773,0.000189059,0.0293009,671,1352,-4.74618,-2.27624
-546,-328,-4.76062,2.41064,-0.000733575,-0.00176524,-0.00182965,0.000651571,-0.00315038,-0.648,0.00234778,0.0284136,678,1352,-4.76063,-2.41062
-539,-328,-4.74078,2.56958,-0.00173769,-0.00248482,-0.00308383,0.000995125,-0.00521763,-0.725123,0.0038532,0.0242219,685,1352,-4.7408,-2.56958
-532,-328,-4.71405,2.74146,-0.00318069,-0.00268249,-0.00435117,0.00142671,-0.00728989,-0.813991,0.0053987,0.0155623,692,1352,-4.71404,-2.74145
-525,-328,-4.68817,2.93835,-0.00579836,-0.00316097,-0.00559458,0.00126824,-0.0102276,-0.90114,0.00727805,0.0103486,699,1352,-4.68819,-2.93835
-518,-328,-4.62085,3.04468,-0.00853228,-0.00344673,-0.00727536,0.00171741,-0.0136964,-0.953515,0.00975395,0.0285244,706,1352,-4.62086,-3.04469
-511,-328,-4.74042,2.95984,-0.0120264,-0.00356853,-0.00915857,0.0022903,-0.0178853,-1.00169,0.0127557,0.0401402,713,1352,-4.74045,-2.95983
-504,-328,-4.96228,3.03882,-0.016287,-0.00348788,-0.0111526,0.00297082,-0.0227457,-1.04587,0.0162449,0.0473111,720,1352,-4.96227,-3.03885
-497,-328,-5.12183,3.16528,0,0,0,0,0,0,0,-1,727,1352,-5.12186,-3.1653
-490,-328,-7.32324,2.64929,0,0,0,0,0,0,0,-1,734,1352,-7.32322,-2.64934
-483,-328,-5.75195,0.998779,0,0,0,0,0,0,0,-1,741,1352,-5.75194,-0.998824
-476,-328,-6.7511,0.656494,0,0,0,0,0,0,0,-1,748,1352,-6.75108,-0.656508
-469,-328,-7.75024,0.314209,0,0,0,0,0,0,0,-1,755,1352,-7.75023,-0.314192
-462,-328,-9.59009,1.03406,0,0,0,0,0,0,0,-1,762,1352,-9.59011,-1.03406
-455,-328,0,0,0,0,0,0,0,0,0,-1,769,1352,0,0
-448,-328,0,0,0,0,0,0,0,0,0,-1,776,1352,0,0
-441,-328,0,0,0,0,0,0,0,0,0,-1,783,1352,0,0
-434,-328,0,0,0,0,0,0,0,0,0,-1,790,1352,0,0
-427,-328,0,0,0,0,0,0,0,0,0,-1,797,1352,0,0
-420,-328,0,0,0,0,0,0,0,0,0,-1,804,1352,0,0
-413,-328,0,0,0,0,0,0,0,0,0,-1,811,1352,0,0
-406,-328,0,0,0,0,0,0,0,0,0,-1,818,1352,0,0
-399,-328,0,0,0,0,0,0,0,0,0,-1,825,1352,0,0
-392,-328,0,0,0,0,0,0,0,0,0,-1,832,1352,0,0
-385,-328,0,0,0,0,0,0,0,0,0,-1,839,1352,0,0
-378,-328,0,0,0,0,0,0,0,0,0,-1,846,1352,0,0
-371,-328,0,0,0,0,0,0,0,0,0,-1,853,1352,0,0
-364,-328,0,0,0,0,0,0,0,0,0,-1,860,1352,0,0
-357,-328,0,0,0,0,0,0,0,0,0,-1,867,1352,0,0
-350,-328,0,0,0,0,0,0,0,0,0,-1,874,1352,0,0
-343,-328,0,0,0,0,0,0,0,0,0,-1,881,1352,0,0
-336,-328,0,0,0,0,0,0,0,0,0,-1,888,1352,0,0
-329,-328,0,0,0,0,0,0,0,0,0,-1,895,1352,0,0
-322,-328,0,0,0,0,0,0,0,0,0,-1,902,1352,0,0
-315,-328,0,0,0,0,0,0,0,0,0,-1,909,1352,0,0
-308,-328,0,0,0,0,0,0,0,0,0,-1,916,1352,0,0
-301,-328,0,0,0,0,0,0,0,0,0,-1,923,1352,0,0
-294,-328,0,0,0,0,0,0,0,0,0,-1,930,1352,0,0
-287,-328,0,0,0,0,0,0,0,0,0,-1,937,1352,0,0
-280,-328,0,0,0,0,0,0,0,0,0,-1,944,1352,0,0
-273,-328,0,0,0,0,0,0,0,0,0,-1,951,1352,0,0
-266,-328,0,0,0,0,0,0,0,0,0,-1,958,1352,0,0
-259,-328,0,0,0,0,0,0,0,0,0,-1,965,1352,0,0
-252,-328,0,0,0,0,0,0,0,0,0,-1,972,1352,0,0
-245,-328,0,0,0,0,0,0,0,0,0,-1,979,1352,0,0
-238,-328,0,0,0,0,0,0,0,0,0,-1,986,1352,0,0
-231,-328,0,0,0,0,0,0,0,0,0,-1,993,1352,0,0
-224,-328,0,0,0,0,0,0,0,0,0,-1,1000,1352,0,0
-217,-328,0,0,0,0,0,0,0,0,0,-1,1007,1352,0,0
-210,-328,0,0,0,0,0,0,0,0,0,-1,1014,1352,0,0
-203,-328,0,0,0,0,0,0,0,0,0,-1,1021,1352,0,0
-196,-328,0,0,0,0,0,0,0,0,0,-1,1028,1352,0,0
-189,-328,0,0,0,0,0,0,0,0,0,-1,1035,1352,0,0
-182,-328,0,0,0,0,0,0,0,0,0,-1,1042,1352,0,0
-175,-328,0,0,0,0,0,0,0,0,0,-1,1049,1352,0,0
-168,-328,0,0,0,0,0,0,0,0,0,-1,1056,1352,0,0
-161,-328,0,0,0,0,0,0,0,0,0,-1,1063,1352,0,0
-154,-328,0,0,0,0,0,0,0,0,0,-1,1070,1352,0,0
-147,-328,0,0,0,0,0,0,0,0,0,-1,1077,1352,0,0
-140,-328,0,0,0,0,0,0,0,0,0,-1,1084,1352,0,0
-133,-328,0,0,0,0,0,0,0,0,0,-1,1091,1352,0,0
-126,-328,0,0,0,0,0,0,0,0,0,-1,1098,1352,0,0
-119,-328,0,0,0,0,0,0,0,0,0,-1,1105,1352,0,0
-112,-328,0,0,0,0,0,0,0,0,0,-1,1112,1352,0,0
-105,-328,0,0,0,0,0,0,0,0,0,-1,1119,1352,0,0
-98,-328,0,0,0,0,0,0,0,0,0,-1,1126,1352,0,0
-91,-328,0,0,0,0,0,0,0,0,0,-1,1133,1352,0,0
-84,-328,0,0,0,0,0,0,0,0,0,-1,1140,1352,0,0
-77,-328,0,0,0,0,0,0,0,0,0,-1,1147,1352,0,0
-70,-328,0,0,0,0,0,0,0,0,0,-1,1154,1352,0,0
-63,-328,0,0,0,0,0,0,0,0,0,-1,1161,1352,0,0
-56,-328,0,0,0,0,0,0,0,0,0,-1,1168,1352,0,0
-49,-328,0,0,0,0,0,0,0,0,0,-1,1175,1352,0,0
-42,-328,0,0,0,0,0,0,0,0,0,-1,1182,1352,0,0
-35,-328,0,0,0,0,0,0,0,0,0,-1,1189,1352,0,0
-28,-328,0,0,0,0,0,0,0,0,0,-1,1196,1352,0,0
-21,-328,0,0,0,0,0,0,0,0,0,-1,1203,1352,0,0
-14,-328,0,0,0,0,0,0,0,0,0,-1,1210,1352,0,0
-7,-328,0,0,0,0,0,0,0,0,0,-1,1217,1352,0,0
0,-328,0,0,0,0,0,0,0,0,0,-1,1224,1352,0,0
7,-328,0,0,0,0,0,0,0,0,0,-1,1231,1352,0,0
14,-328,0,0,0,0,0,0,0,0,0,-1,1238,1352,0,0
21,-328,0,0,0,0,0,0,0,0,0,-1,1245,1352,0,0
28,-328,0,0,0,0,0,0,0,0,0,-1,1252,1352,0,0
35,-328,0,0,0,0,0,0,0,0,0,-1,1259,1352,0,0
42,-328,0,0,0,0,0,0,0,0,0,-1,1266,1352,0,0
49,-328,0,0,0,0,0,0,0,0,0,-1,1273,1352,0,0
56,-328,0,0,0,0,0,0,0,0,0,-1,1280,1352,0,0
63,-328,0,0,0,0,0,0,0,0,0,-1,1287,1352,0,0
70,-328,0,0,0,0,0,0,0,0,0,-1,1294,1352,0,0
77,-328,0,0,0,0,0,0,0,0,0,-1,1301,1352,0,0
84,-328,0,0,0,0,0,0,0,0,0,-1,1308,1352,0,0
91,-328,0,0,0,0,0,0,0,0,0,-1,1315,1352,0,0
98,-328,0,0,0,0,0,0,0,0,0,-1,1322,1352,0,0
105,-328,0,0,0,0,0,0,0,0,0,-1,1329,1352,0,0
112,-328,0,0,0,0,0,0,0,0,0,-1,1336,1352,0,0
119,-328,0,0,0,0,0,0,0,0,0,-1,1343,1352,0,0
126,-328,0,0,0,0,0,0,0,0,0,-1,1350,1352,0,0
133,-328,0,0,0,0,0,0,0,0,0,-1,1357,1352,0,0
140,-328,0,0,0,0,0,0,0,0,0,-1,1364,1352,0,0
147,-328,0,0,0,0,0,0,0,0,0,-1,1371,1352,0,0
154,-328,0,0,0,0,0,0,0,0,0,-1,1378,1352,0,0
161,-328,0,0,0,0,0,0,0,0,0,-1,1385,1352,0,0
168,-328,0,0,0,0,0,0,0,0,0,-1,1392,1352,0,0
175,-328,0,0,0,0,0,0,0,0,0,-1,1399,1352,0,0
182,-328,0,0,0,0,0,0,0,0,0,-1,1406,1352,0,0
189,-328,0,0,0,0,0,0,0,0,0,-1,1413,1352,0,0
196,-328,0,0,0,0,0,0,0,0,0,-1,1420,1352,0,0
203,-328,0,0,0,0,0,0,0,0,0,-1,1427,1352,0,0
210,-328,0,0,0,0,0,0,0,0,0,-1,1434,1352,0,0
217,-328,0,0,0,0,0,0,0,0,0,-1,1441,1352,0,0
224,-328,0,0,0,0,0,0,0,0,0,-1,1448,1352,0,0
231,-328,0,0,0,0,0,0,0,0,0,-1,1455,1352,0,0
238,-328,0,0,0,0,0,0,0,0,0,-1,1462,1352,0,0
245,-328,0,0,0,0,0,0,0,0,0,-1,1469,1352,0,0
252,-328,0,0,0,0,0,0,0,0,0,-1,1476,1352,0,0
259,-328,0,0,0,0,0,0,0,0,0,-1,1483,1352,0,0
266,-328,0,0,0,0,0,0,0,0,0,-1,1490,1352,0,0
273,-328,0,0,0,0,0,0,0,0,0,-1,1497,1352,0,0
280,-328,0,0,0,0,0,0,0,0,0,-1,1504,1352,0,0
287,-328,0,0,0,0,0,0,0,0,0,-1,1511,1352,0,0
294,-328,0,0,0,0,0,0,0,0,0,-1,1518,1352,0,0
301,-328,0,0,0,0,0,0,0,0,0,-1,1525,1352,0,0
308,-328,0,0,0,0,0,0,0,0,0,-1,1532,1352,0,0
315,-328,0,0,0,0,0,0,0,0,0,-1,1539,1352,0,0
322,-328,0,0,0,0,0,0,0,0,0,-1,1546,1352,0,0
329,-328,0,0,0,0,0,0,0,0,0,-1,1553,1352,0,0
336,-328,0,0,0,0,0,0,0,0,0,-1,1560,1352,0,0
343,-328,0,0,0,0,0,0,0,0,0,-1,1567,1352,0,0
350,-328,0,0,0,0,0,0,0,0,0,-1,1574,1352,0,0
357,-328,0,0,0,0,0,0,0,0,0,-1,1581,1352,0,0
364,-328,0,0,0,0,0,0,0,0,0,-1,1588,1352,0,0
371,-328,0,0,0,0,0,0,0,0,0,-1,1595,1352,0,0
378,-328,0,0,0,0,0,0,0,0,0,-1,1602,1352,0,0
385,-328,0,0,0,0,0,0,0,0,0,-1,1609,1352,0,0
392,-328,0,0,0,0,0,0,0,0,0,-1,1616,1352,0,0
399,-328,0,0,0,0,0,0,0,0,0,-1,1623,1352,0,0
406,-328,0,0,0,0,0,0,0,0,0,-1,1630,1352,0,0
413,-328,0,0,0,0,0,0,0,0,0,-1,1637,1352,0,0
420,-328,0,0,0,0,0,0,0,0,0,-1,1644,1352,0,0
427,-328,0,0,0,0,0,0,0,0,0,-1,1651,1352,0,0
434,-328,0,0,0,0,0,0,0,0,0,-1,1658,1352,0,0
441,-328,0,0,0,0,0,0,0,0,0,-1,1665,1352,0,0
448,-328,0,0,0,0,0,0,0,0,0,-1,1672,1352,0,0
455,-328,0,0,0,0,0,0,0,0,0,-1,1679,1352,0,0
462,-328,0,0,0,0,0,0,0,0,0,-1,1686,1352,0,0
469,-328,0,0,0,0,0,0,0,0,0,-1,1693,1352,0,0
476,-328,0,0,0,0,0,0,0,0,0,-1,1700,1352,0,0
483,-328,0,0,0,0,0,0,0,0,0,-1,1707,1352,0,0
490,-328,0,0,0,0,0,0,0,0,0,-1,1714,1352,0,0
497,-328,0,0,0,0,0,0,0,0,0,-1,1721,1352,0,0
504,-328,0,0,0,0,0,0,0,0,0,-1,1728,1352,0,0
511,-328,0,0,0,0,0,0,0,0,0,-1,1735,1352,0,0
518,-328,0,0,0,0,0,0,0,0,0,-1,1742,1352,0,0
525,-328,0,0,0,0,0,0,0,0,0,-1,1749,1352,0,0
532,-328,0,0,0,0,0,0,0,0,0,-1,1756,1352,0,0
539,-328,0,0,0,0,0,0,0,0,0,-1,1763,1352,0,0
546,-328,0,0,0,0,0,0,0,0,0,-1,1770,1352,0,0
553,-328,0,0,0,0,0,0,0,0,0,-1,1777,1352,0,0
560,-328,0,0,0,0,0,0,0,0,0,-1,1784,1352,0,0
567,-328,0,0,0,0,0,0,0,0,0,-1,1791,1352,0,0
574,-328,12.7095,1.57666,0,0,0,0,0,0,0,-1,1798,1352,12.7094,-1.57671
581,-328,12.1787,2.25061,0,0,0,0,0,0,0,-1,1805,1352,12.1787,-2.25057
588,-328,11.9041,1.81702,0,0,0,0,0,0,0,-1,1812,1352,11.904,-1.81707
595,-328,11.6091,1.32581,0,0,0,0,0,0,0,-1,1819,1352,11.6091,-1.32581
602,-328,11.722,1.26135,0,0,0,0,0,0,0,-1,1826,1352,11.722,-1.26129
609,-328,11.5258,1.9585,0,0,0,0,0,0,0,-1,1833,1352,11.5258,-1.95845
616,-328,11.9156,1.6532,0,0,0,0,0,0,0,-1,1840,1352,11.9156,-1.65324
623,-328,12.3055,1.34802,0,0,0,0,0,0,0,-1,1847,1352,12.3055,-1.34802
630,-328,12.5457,4.77185,0,0,0,0,0,0,0,-1,1854,1352,12.5457,-4.77184
637,-328,12.2805,4.70862,0,0,0,0,0,0,0,-1,1861,1352,12.2805,-4.70856
644,-328,11.7803,4.69189,-0.000973712,0.00571452,0.0134817,0.0162606,-0.0115198,0.906969,0.0161167,0.0433401,1868,1352,11.7803,-4.69187
651,-328,11.5609,4.61792,-0.00273212,0.00402935,0.0117209,0.0128474,-0.0115502,0.925805,0.0140926,0.0373692,1875,1352,11.5609,-4.61792
658,-328,11.3738,4.62549,-0.00415792,0.00290214,0.0100561,0.0100298,-0.0112856,0.954196,0.0123136,0.0180291,1882,1352,11.3738,-4.62553
665,-328,11.3593,4.48291,-0.00470816,0.00134594,0.00778241,0.00666928,-0.0100315,0.970875,0.00970711,0.0129917,1889,1352,11.3592,-4.48295
672,-328,11.3712,4.34924,-0.00437557,-1.16498e-05,0.00562777,0.00384235,-0.00822956,0.970333,0.00712149,0.011218,1896,1352,11.3712,-4.34924
679,-328,11.3728,4.20789,-0.00305631,-0.000587702,0.00347502,0.00186571,-0.00550973,0.956045,0.00442807,0.0137868,1903,1352,11.3729,-4.20791
686,-328,11.3461,4.06787,-0.00161914,-0.000979339,0.00126082,1.53668e-06,-0.00260001,0.909637,0.00173385,0.0124911,1910,1352,11.3461,-4.06788
693,-328,11.3602,3.94263,0.000678587,-0.000993963,-0.000126884,0.000688158,-0.00100353,-0.0752885,0.00098234,0.00898538,1917,1352,11.3603,-3.94263
700,-328,11.3746,3.80493,0.00322275,-0.000696214,-0.00154093,0.00375606,-0.00122953,-0.333196,0.00299911,0.0133431,1924,1352,11.3746,-3.80487
707,-328,11.3853,3.66772,0.00586281,-0.000647337,-0.00282594,0.00691835,-0.00170288,-0.357473,0.00527234,0.014923,1931,1352,11.3853,-3.66778
714,-328,11.4066,3.54419,0.00770895,-0.000958055,-0.00387373,0.00918794,-0.00243704,-0.364718,0.00707888,0.0122914,1938,1352,11.4066,-3.54418
721,-328,11.3521,3.39734,0.00950557,-0.00139955,-0.00504149,0.0114791,-0.00337309,-0.373123,0.00899056,0.0227458,1945,1352,11.352,-3.3973
728,-328,11.3486,3.21814,0.0113832,-0.00198241,-0.0063184,0.0138973,-0.00449645,-0.378688,0.0110723,0.034755,1952,1352,11.3486,-3.21816
735,-328,11.4181,2.93811,0.0127704,-0.0027564,-0.0075985,0.0158701,-0.00585613,-0.387333,0.0129802,0.0433454,1959,1352,11.4181,-2.93814
742,-328,11.4972,2.66711,0.0130554,-0.00379474,-0.00869613,0.0167383,-0.00747771,-0.400615,0.0143178,0.0475527,1966,1352,11.4972,-2.66708
749,-328,11.644,2.67822,0.0111866,-0.00521159,-0.00930688,0.0153909,-0.00941584,-0.424297,0.01446,0.0435287,1973,1352,11.644,-2.67818
756,-328,11.5181,2.23804,0,0,0,0,0,0,0,-1,1980,1352,11.5181,-2.23801
763,-328,0,0,0,0,0,0,0,0,0,-1,1987,1352,0,0
770,-328,0,0,0,0,0,0,0,0,0,-1,1994,1352,0,0
777,-328,0,0,0,0,0,0,0,0,0,-1,2001,1352,0,0
784,-328,0,0,0,0,0,0,0,0,0,-1,2008,1352,0,0
791,-328,0,0,0,0,0,0,0,0,0,-1,2015,1352,0,0
798,-328,0,0,0,0,0,0,0,0,0,-1,2022,1352,0,0
805,-328,0,0,0,0,0,0,0,0,0,-1,2029,1352,0,0
812,-328,0,0,0,0,0,0,0,0,0,-1,2036,1352,0,0
-700,-335,0,0,0,0,0,0,0,0,0,-1,524,1359,0,0
-693,-335,0,0,0,0,0,0,0,0,0,-1,531,1359,0,0
-686,-335,0,0,0,0,0,0,0,0,0,-1,538,1359,0,0
-679,-335,0,0,0,0,0,0,0,0,0,-1,545,1359,0,0
-672,-335,0,0,0,0,0,0,0,0,0,-1,552,1359,0,0
-665,-335,0,0,0,0,0,0,0,0,0,-1,559,1359,0,0
-658,-335,0,0,0,0,0,0,0,0,0,-1,566,1359,0,0
-651,-335,0,0,0,0,0,0,0,0,0,-1,573,1359,0,0
-644,-335,0,0,0,0,0,0,0,0,0,-1,580,1359,0,0
-637,-335,-2.55847,0.431274,0,0,0,0,0,0,0,-1,587,1359,-2.55847,-0.431232
-630,-335,-3.19763,-0.250854,0.0367551,0.124711,-0.0156949,0.127428,0.0340384,-1.3994,0.0761839,0.0469947,594,1359,-3.1976,0.250913
-623,-335,-3.93933,-0.494385,0,0,0,0,0,0,0,-1,601,1359,-3.93935,0.494411
-616,-335,-4.7522,-0.590576,0,0,0,0,0,0,0,-1,608,1359,-4.75217,0.590527
-609,-335,-5.63379,-0.849243,0.0284783,0.0597501,0.0174401,0.0675372,0.0206912,1.15085,0.0399554,0.0489883,615,1359,-5.63381,0.849298
-602,-335,-6.00665,-0.474976,0.0232302,0.0452055,0.0186743,0.0558849,0.0125509,1.05131,0.0338575,0.04888,622,1359,-6.00662,0.474988
-595,-335,-4.49664,2.04321,0.0177666,0.0314863,0.018473,0.044332,0.00492085,0.963179,0.0280586,0.0436551,629,1359,-4.49665,-2.04316
-588,-335,-4.43439,1.68433,0.012854,0.0212779,0.0159571,0.0335696,0.000562323,0.914433,0.0221947,0.0327488,636,1359,-4.43436,-1.68432
-581,-335,-4.54504,1.66821,0.0089868,0.0148733,0.0117526,0.0240456,-0.000185465,0.908092,0.0160926,0.016781,643,1359,-4.54507,-1.66815
-574,-335,-4.54755,1.80396,0.00624771,0.00997257,0.00888278,0.0171861,-0.000965789,0.888735,0.0117925,0.0112688,650,1359,-4.54752,-1.80399
-567,-335,-4.56659,1.98169,0.00331674,0.00579128,0.00542634,0.0101196,-0.00101161,0.897488,0.00710765,0.0151888,657,1359,-4.5666,-1.98164
-560,-335,-4.56293,2.1405,0.00146796,0.00277312,0.00255739,0.00475987,-0.000518796,0.91032,0.00335956,0.0232582,664,1359,-4.56291,-2.1405
-553,-335,-4.57111,2.32678,0.000464468,0.000277478,0.000245485,0.000633659,0.000108287,0.60345,0.00039137,0.0270175,671,1359,-4.57111,-2.32679
-546,-335,-4.56445,2.46497,-0.000424733,-0.00150365,-0.00179004,0.000905365,-0.00283375,-0.639042,0.00225245,0.02536,678,1359,-4.56443,-2.46501
-539,-335,-4.5567,2.59106,-0.00128447,-0.00237007,-0.00319612,0.00141462,-0.00506916,-0.701286,0.00393663,0.0207417,685,1359,-4.5567,-2.5911
-532,-335,-4.55798,2.77783,-0.00244745,-0.00289353,-0.0045684,0.00190335,-0.00724434,-0.761006,0.00557342,0.0151331,692,1359,-4.55799,-2.77779
-525,-335,-4.51917,2.95471,-0.00470319,-0.00373888,-0.00597175,0.00177015,-0.0102122,-0.82568,0.00746845,0.0100159,699,1359,-4.51917,-2.95476
-518,-335,-4.49481,3.09412,-0.0071611,-0.00445094,-0.00784285,0.00215303,-0.0137651,-0.870943,0.00997217,0.0155392,706,1359,-4.49484,-3.09409
-511,-335,-4.5683,3.10071,-0.0104918,-0.00512873,-0.00998056,0.00252426,-0.0181448,-0.916636,0.0130198,0.0363837,713,1359,-4.56832,-3.10065
-504,-335,-4.78137,3.07568,-0.0147672,-0.00570499,-0.0122473,0.00282247,-0.0232947,-0.962575,0.016551,0.0476194,720,1359,-4.7814,-3.0757
-497,-335,-5.00983,3.01257,0,0,0,0,0,0,0,-1,727,1359,-5.00982,-3.01261
-490,-335,-7.43451,3.47778,0,0,0,0,0,0,0,-1,734,1359,-7.43451,-3.47781
-483,-335,-6.95557,2.52917,0,0,0,0,0,0,0,-1,741,1359,-6.95556,-2.52916
-476,-335,-6.43317,0.717896,0,0,0,0,0,0,0,-1,748,1359,-6.43315,-0.71789
-469,-335,-8.2002,1.20618,0,0,0,0,0,0,0,-1,755,1359,-8.20019,-1.20623
-462,-335,-8.87335,0.621826,0,0,0,0,0,0,0,-1,762,1359,-8.87335,-0.6218
-455,-335,-9.83044,0.584961,0,0,0,0,0,0,0,-1,769,1359,-9.83042,-0.584914
-448,-335,0,0,0,0,0,0,0,0,0,-1,776,1359,0,0
-441,-335,0,0,0,0,0,0,0,0,0,-1,783,1359,0,0
-434,-335,0,0,0,0,0,0,0,0,0,-1,790,1359,0,0
-427,-335,0,0,0,0,0,0,0,0,0,-1,797,1359,0,0
-420,-335,0,0,0,0,0,0,0,0,0,-1,804,1359,0,0
-413,-335,0,0,0,0,0,0,0,0,0,-1,811,1359,0,0
-406,-335,0,0,0,0,0,0,0,0,0,-1,818,1359,0,0
-399,-335,0,0,0,0,0,0,0,0,0,-1,825,1359,0,0
-392,-335,0,0,0,0,0,0,0,0,0,-1,832,1359,0,0
-385,-335,0,0,0,0,0,0,0,0,0,-1,839,1359,0,0
-378,-335,0,0,0,0,0,0,0,0,0,-1,846,1359,0,0
-371,-335,0,0,0,0,0,0,0,0,0,-1,853,1359,0,0
-364,-335,0,0,0,0,0,0,0,0,0,-1,860,1359,0,0
-357,-335,0,0,0,0,0,0,0,0,0,-1,867,1359,0,0
-350,-335,0,0,0,0,0,0,0,0,0,-1,874,1359,0,0
-343,-335,0,0,0,0,0,0,0,0,0,-1,881,1359,0,0
-336,-335,0,0,0,0,0,0,0,0,0,-1,888,1359,0,0
-329,-335,0,0,0,0,0,0,0,0,0,-1,895,1359,0,0
-322,-335,0,0,0,0,0,0,0,0,0,-1,902,1359,0,0
-315,-335,0,0,0,0,0,0,0,0,0,-1,909,1359,0,0
-308,-335,0,0,0,0,0,0,0,0,0,-1,916,1359,0,0
-301,-335,0,0,0,0,0,0,0,0,0,-1,923,1359,0,0
-294,-335,0,0,0,0,0,0,0,0,0,-1,930,1359,0,0
-287,-335,0,0,0,0,0,0,0,0,0,-1,937,1359,0,0
-280,-335,0,0,0,0,0,0,0,0,0,-1,944,1359,0,0
-273,-335,0,0,0,0,0,0,0,0,0,-1,951,1359,0,0
-266,-335,0,0,0,0,0,0,0,0,0,-1,958,1359,0,0
-259,-335,0,0,0,0,0,0,0,0,0,-1,965,1359,0,0
-252,-335,0,0,0,0,0,0,0,0,0,-1,972,1359,0,0
-245,-335,0,0,0,0,0,0,0,0,0,-1,979,1359,0,0
-238,-335,0,0,0,0,0,0,0,0,0,-1,986,1359,0,0
-231,-335,0,0,0,0,0,0,0,0,0,-1,993,1359,0,0
-224,-335,0,0,0,0,0,0,0,0,0,-1,1000,1359,0,0
-217,-335,0,0,0,0,0,0,0,0,0,-1,1007,1359,0,0
-210,-335,0,0,0,0,0,0,0,0,0,-1,1014,1359,0,0
-203,-335,0,0,0,0,0,0,0,0,0,-1,1021,1359,0,0
-196,-335,0,0,0,0,0,0,0,0,0,-1,1028,1359,0,0
-189,-335,0,0,0,0,0,0,0,0,0,-1,1035,1359,0,0
-182,-335,0,0,0,0,0,0,0,0,0,-1,1042,1359,0,0
-175,-335,0,0,0,0,0,0,0,0,0,-1,1049,1359,0,0
-168,-335,0,0,0,0,0,0,0,0,0,-1,1056,1359,0,0
-161,-335,0,0,0,0,0,0,0,0,0,-1,1063,1359,0,0
-154,-335,0,0,0,0,0,0,0,0,0,-1,1070,1359,0,0
-147,-335,0,0,0,0,0,0,0,0,0,-1,1077,1359,0,0
-140,-335,0,0,0,0,0,0,0,0,0,-1,1084,1359,0,0
-133,-335,0,0,0,0,0,0,0,0,0,-1,1091,1359,0,0
-126,-335,0,0,0,0,0,0,0,0,0,-1,1098,1359,0,0
-119,-335,0,0,0,0,0,0,0,0,0,-1,1105,1359,0,0
-112,-335,0,0,0,0,0,0,0,0,0,-1,1112,1359,0,0
-105,-335,0,0,0,0,0,0,0,0,0,-1,1119,1359,0,0
-98,-335,0,0,0,0,0,0,0,0,0,-1,1126,1359,0,0
-91,-335,0,0,0,0,0,0,0,0,0,-1,1133,1359,0,0
-84,-335,0,0,0,0,0,0,0,0,0,-1,1140,1359,0,0
-77,-335,0,0,0,0,0,0,0,0,0,-1,1147,1359,0,0
-70,-335,0,0,0,0,0,0,0,0,0,-1,1154,1359,0,0
-63,-335,0,0,0,0,0,0,0,0,0,-1,1161,1359,0,0
-56,-335,0,0,0,0,0,0,0,0,0,-1,1168,1359,0,0
-49,-335,0,0,0,0,0,0,0,0,0,-1,1175,1359,0,0
-42,-335,0,0,0,0,0,0,0,0,0,-1,1182,1359,0,0
-35,-335,0,0,0,0,0,0,0,0,0,-1,1189,1359,0,0
-28,-335,0,0,0,0,0,0,0,0,0,-1,1196,1359,0,0
-21,-335,0,0,0,0,0,0,0,0,0,-1,1203,1359,0,0
-14,-335,0,0,0,0,0,0,0,0,0,-1,1210,1359,0,0
-7,-335,0,0,0,0,0,0,0,0,0,-1,1217,1359,0,0
0,-335,0,0,0,0,0,0,0,0,0,-1,1224,1359,0,0
7,-335,0,0,0,0,0,0,0,0,0,-1,1231,1359,0,0
14,-335,0,0,0,0,0,0,0,0,0,-1,1238,1359,0,0
21,-335,0,0,0,0,0,0,0,0,0,-1,1245,1359,0,0
28,-335,0,0,0,0,0,0,0,0,0,-1,1252,1359,0,0
35,-335,0,0,0,0,0,0,0,0,0,-1,1259,1359,0,0
42,-335,0,0,0,0,0,0,0,0,0,-1,1266,1359,0,0
49,-335,0,0,0,0,0,0,0,0,0,-1,1273,1359,0,0
56,-335,0,0,0,0,0,0,0,0,0,-1,1280,1359,0,0
63,-335,0,0,0,0,0,0,0,0,0,-1,1287,1359,0,0
70,-335,0,0,0,0,0,0,0,0,0,-1,1294,1359,0,0
77,-335,0,0,0,0,0,0,0,0,0,-1,1301,1359,0,0
84,-335,0,0,0,0,0,0,0,0,0,-1,1308,1359,0,0
91,-335,0,0,0,0,0,0,0,0,0,-1,1315,1359,0,0
98,-335,0,0,0,0,0,0,0,0,0,-1,1322,1359,0,0
105,-335,0,0,0,0,0,0,0,0,0,-1,1329,1359,0,0
112,-335,0,0,0,0,0,0,0,0,0,-1,1336,1359,0,0
119,-335,0,0,0,0,0,0,0,0,0,-1,1343,1359,0,0
126,-335,0,0,0,0,0,0,0,0,0,-1,1350,1359,0,0
133,-335,0,0,0,0,0,0,0,0,0,-1,1357,1359,0,0
140,-335,0,0,0,0,0,0,0,0,0,-1,1364,1359,0,0
147,-335,0,0,0,0,0,0,0,0,0,-1,1371,1359,0,0
154,-335,0,0,0,0,0,0,0,0,0,-1,1378,1359,0,0
161,-335,0,0,0,0,0,0,0,0,0,-1,1385,1359,0,0
168,-335,0,0,0,0,0,0,0,0,0,-1,1392,1359,0,0
175,-335,0,0,0,0,0,0,0,0,0,-1,1399,1359,0,0
182,-335,0,0,0,0,0,0,0,0,0,-1,1406,1359,0,0
189,-335,0,0,0,0,0,0,0,0,0,-1,1413,1359,0,0
196,-335,0,0,0,0,0,0,0,0,0,-1,1420,1359,0,0
203,-335,0,0,0,0,0,0,0,0,0,-1,1427,1359,0,0
210,-335,0,0,0,0,0,0,0,0,0,-1,1434,1359,0,0
217,-335,0,0,0,0,0,0,0,0,0,-1,1441,1359,0,0
224,-335,0,0,0,0,0,0,0,0,0,-1,1448,1359,0,0
231,-335,0,0,0,0,0,0,0,0,0,-1,1455,1359,0,0
238,-335,0,0,0,0,0,0,0,0,0,-1,1462,1359,0,0
245,-335,0,0,0,0,0,0,0,0,0,-1,1469,1359,0,0
252,-335,0,0,0,0,0,0,0,0,0,-1,1476,1359,0,0
259,-335,0,0,0,0,0,0,0,0,0,-1,1483,1359,0,0
266,-335,0,0,0,0,0,0,0,0,0,-1,1490,1359,0,0
273,-335,0,0,0,0,0,0,0,0,0,-1,1497,1359,0,0
280,-335,0,0,0,0,0,0,0,0,0,-1,1504,1359,0,0
287,-335,0,0,0,0,0,0,0,0,0,-1,1511,1359,0,0
294,-335,0,0,0,0,0,0,0,0,0,-1,1518,1359,0,0
301,-335,0,0,0,0,0,0,0,0,0,-1,1525,1359,0,0
308,-335,0,0,0,0,0,0,0,0,0,-1,1532,1359,0,0
315,-335,0,0,0,0,0,0,0,0,0,-1,1539,1359,0,0
322,-335,0,0,0,0,0,0,0,0,0,-1,1546,1359,0,0
329,-335,0,0,0,0,0,0,0,0,0,-1,1553,1359,0,0
336,-335,0,0,0,0,0,0,0,0,0,-1,1560,1359,0,0
343,-335,0,0,0,0,0,0,0,0,0,-1,1567,1359,0,0
350,-335,0,0,0,0,0,0,0,0,0,-1,1574,1359,0,0
357,-335,0,0,0,0,0,0,0,0,0,-1,1581,1359,0,0
364,-335,0,0,0,0,0,0,0,0,0,-1,1588,1359,0,0
371,-335,0,0,0,0,0,0,0,0,0,-1,1595,1359,0,0
378,-335,0,0,0,0,0,0,0,0,0,-1,1602,1359,0,0
385,-335,0,0,0,0,0,0,0,0,0,-1,1609,1359,0,0
392,-335,0,0,0,0,0,0,0,0,0,-1,1616,1359,0,0
399,-335,0,0,0,0,0,0,0,0,0,-1,1623,1359,0,0
406,-335,0,0,0,0,0,0,0,0,0,-1,1630,1359,0,0
413,-335,0,0,0,0,0,0,0,0,0,-1,1637,1359,0,0
420,-335,0,0,0,0,0,0,0,0,0,-1,1644,1359,0,0
427,-335,0,0,0,0,0,0,0,0,0,-1,1651,1359,0,0
434,-335,0,0,0,0,0,0,0,0,0,-1,1658,1359,0,0
441,-335,0,0,0,0,0,0,0,0,0,-1,1665,1359,0,0
448,-335,0,0,0,0,0,0,0,0,0,-1,1672,1359,0,0
455,-335,0,0,0,0,0,0,0,0,0,-1,1679,1359,0,0
462,-335,0,0,0,0,0,0,0,0,0,-1,1686,1359,0,0
469,-335,0,0,0,0,0,0,0,0,0,-1,1693,1359,0,0
476,-335,0,0,0,0,0,0,0,0,0,-1,1700,1359,0,0
483,-335,0,0,0,0,0,0,0,0,0,-1,1707,1359,0,0
490,-335,0,0,0,0,0,0,0,0,0,-1,1714,1359,0,0
497,-335,0,0,0,0,0,0,0,0,0,-1,1721,1359,0,0
504,-335,0,0,0,0,0,0,0,0,0,-1,1728,1359,0,0
511,-335,0,0,0,0,0,0,0,0,0,-1,1735,1359,0,0
518,-335,0,0,0,0,0,0,0,0,0,-1,1742,1359,0,0
525,-335,0,0,0,0,0,0,0,0,0,-1,1749,1359,0,0
532,-335,0,0,0,0,0,0,0,0,0,-1,1756,1359,0,0
539,-335,0,0,0,0,0,0,0,0,0,-1,1763,1359,0,0
546,-335,0,0,0,0,0,0,0,0,0,-1,1770,1359,0,0
553,-335,0,0,0,0,0,0,0,0,0,-1,1777,1359,0,0
560,-335,0,0,0,0,0,0,0,0,0,-1,1784,1359,0,0
567,-335,0,0,0,0,0,0,0,0,0,-1,1791,1359,0,0
574,-335,12.0823,2.16968,0,0,0,0,0,0,0,-1,1798,1359,12.0822,-2.16964
581,-335,11.6281,1.51111,0,0,0,0,0,0,0,-1,1805,1359,11.628,-1.5111
588,-335,12.0299,1.13281,0,0,0,0,0,0,0,-1,1812,1359,12.0299,-1.13275
595,-335,11.4193,0.535645,0,0,0,0,0,0,0,-1,1819,1359,11.4193,-0.535678
602,-335,10.3766,0.347656,0,0,0,0,0,0,0,-1,1826,1359,10.3765,-0.34769
609,-335,11.3099,1.57788,0,0,0,0,0,0,0,-1,1833,1359,11.3099,-1.57786
616,-335,11.3289,1.15186,0,0,0,0,0,0,0,-1,1840,1359,11.3288,-1.15187
623,-335,11.3477,0.72583,0,0,0,0,0,0,0,-1,1847,1359,11.3477,-0.725879
630,-335,10.6688,4.40955,0,0,0,0,0,0,0,-1,1854,1359,10.6689,-4.40958
637,-335,11.7012,4.89417,0,0,0,0,0,0,0,-1,1861,1359,11.7012,-4.89415
644,-335,11.4712,4.83142,-0.00155049,0.00282295,0.0126485,0.0134724,-0.0121999,0.870994,0.014828,0.0388591,1868,1359,11.4712,-4.83141
651,-335,11.26,4.7666,-0.00269956,0.00201464,0.0106149,0.0105309,-0.0112159,0.894654,0.0125576,0.0168402,1875,1359,11.26,-4.76655
658,-335,11.2112,4.65527,-0.00364372,0.00168631,0.00880181,0.00821772,-0.0101751,0.932401,0.0106391,0.0128925,1882,1359,11.2112,-4.65526
665,-335,11.2198,4.50195,-0.00394263,0.000756963,0.00655735,0.00537282,-0.00855849,0.957443,0.00811304,0.0137354,1889,1359,11.2199,-4.50196
672,-335,11.224,4.35486,-0.00344963,-0.000127773,0.00451766,0.0030246,-0.00660201,0.961555,0.00568441,0.0165719,1896,1359,11.224,-4.35491
679,-335,11.2321,4.21753,-0.0020538,-0.000485355,0.0025105,0.00136056,-0.00389971,0.936784,0.00315276,0.0142457,1903,1359,11.232,-4.21757
686,-335,11.2388,4.07776,-0.000328244,-0.000891072,0.000539865,-8.4925e-07,-0.00121847,0.54514,0.000812028,0.0106106,1910,1359,11.2387,-4.07772
693,-335,11.2406,3.9281,0.00211303,-0.00122272,-0.000834316,0.00231007,-0.00141976,-0.231914,0.00217377,0.00949918,1917,1359,11.2406,-3.92805
700,-335,11.2325,3.80359,0.00464273,-0.00128251,-0.00221277,0.00537788,-0.00201766,-0.320756,0.00441428,0.0109052,1924,1359,11.2326,-3.80357
707,-335,11.2411,3.66296,0.00737219,-0.00165313,-0.0035894,0.00862562,-0.00290657,-0.335967,0.00692565,0.013849,1931,1359,11.2411,-3.66299
714,-335,11.2621,3.49438,0.00978528,-0.00241385,-0.00489279,0.0115052,-0.00413375,-0.338026,0.00935751,0.0173445,1938,1359,11.2621,-3.49439
721,-335,11.1744,3.35974,0.0124577,-0.0033572,-0.00638631,0.0147145,-0.00561405,-0.33969,0.0121224,0.0337373,1945,1359,11.1744,-3.35977
728,-335,11.1736,3.24048,0.0154081,-0.0045339,-0.00806539,0.0182617,-0.00738754,-0.340068,0.0152458,0.0442215,1952,1359,11.1736,-3.24054
735,-335,11.2725,3.04785,0.0182969,-0.00594812,-0.00982598,0.021779,-0.00943026,-0.340573,0.0184829,0.04563,1959,1359,11.2724,-3.04787
742,-335,11.5681,2.79639,0.0206685,-0.00763581,-0.0114667,0.0247309,-0.0116982,-0.340478,0.0214763,0.048016,1966,1359,11.5681,-2.79644
749,-335,11.7041,2.65283,0.0216536,-0.0096238,-0.012668,0.0261407,-0.0141109,-0.340417,0.0235827,0.0472126,1973,1359,11.7041,-2.65282
756,-335,11.7819,2.36829,0,0,0,0,0,0,0,-1,1980,1359,11.7819,-2.36832
763,-335,0,0,0,0,0,0,0,0,0,-1,1987,1359,0,0
770,-335,0,0,0,0,0,0,0,0,0,-1,1994,1359,0,0
777,-335,0,0,0,0,0,0,0,0,0,-1,2001,1359,0,0
784,-335,0,0,0,0,0,0,0,0,0,-1,2008,1359,0,0
791,-335,0,0,0,0,0,0,0,0,0,-1,2015,1359,0,0
798,-335,0,0,0,0,0,0,0,0,0,-1,2022,1359,0,0
805,-335,0,0,0,0,0,0,0,0,0,-1,2029,1359,0,0
812,-335,0,0,0,0,0,0,0,0,0,-1,2036,1359,0,0
-700,-342,0,0,0,0,0,0,0,0,0,-1,524,1366,0,0
-693,-342,0,0,0,0,0,0,0,0,0,-1,531,1366,0,0
-686,-342,0,0,0,0,0,0,0,0,0,-1,538,1366,0,0
-679,-342,0,0,0,0,0,0,0,0,0,-1,545,1366,0,0
-672,-342,0,0,0,0,0,0,0,0,0,-1,552,1366,0,0
-665,-342,0,0,0,0,0,0,0,0,0,-1,559,1366,0,0
-658,-342,0,0,0,0,0,0,0,0,0,-1,566,1366,0,0
-651,-342,0,0,0,0,0,0,0,0,0,-1,573,1366,0,0
-644,-342,0,0,0,0,0,0,0,0,0,-1,580,1366,0,0
-637,-342,-3.75891,-0.756104,0,0,0,0,0,0,0,-1,587,1366,-3.7589,0.756129
-630,-342,-4.21991,-1.54736,0,0,0,0,0,0,0,-1,594,1366,-4.21989,1.54735
-623,-342,-4.5575,-1.60461,0,0,0,0,0,0,0,-1,601,1366,-4.5575,1.60457
-616,-342,-5.0556,-1.66772,0,0,0,0,0,0,0,-1,608,1366,-5.05563,1.66771
-609,-342,-5.91187,-1.87915,0,0,0,0,0,0,0,-1,615,1366,-5.91187,1.87916
-602,-342,-4.18842,1.26782,0,0,0,0,0,0,0,-1,622,1366,-4.1884,-1.26785
-595,-342,-4.1449,1.31763,0.0181797,0.0328223,0.0220955,0.0487779,0.00222412,0.945379,0.0318031,0.0423196,629,1366,-4.14492,-1.31764
-588,-342,-4.125,1.45203,0.0127674,0.0221103,0.0181562,0.0361863,-0.00130866,0.911313,0.0245721,0.038091,636,1366,-4.125,-1.45203
-581,-342,-4.35938,1.59595,0.00854042,0.0154144,0.0130023,0.0254263,-0.00147145,0.914612,0.017462,0.0261006,643,1366,-4.35936,-1.59591
-574,-342,-4.40039,1.80261,0.00575782,0.010347,0.00963275,0.0179547,-0.00184987,0.902323,0.0126316,0.00985577,650,1366,-4.40036,-1.80257
-567,-342,-4.40167,1.9751,0.00295594,0.00622289,0.00590136,0.0107127,-0.00153385,0.920416,0.00770413,0.0155652,657,1366,-4.40166,-1.97508
-560,-342,-4.42194,2.11511,0.00119376,0.0032481,0.00292518,0.00532121,-0.000879347,0.954247,0.003874,0.0248385,664,1366,-4.42192,-2.11512
-553,-342,-4.45569,2.28589,0.000174976,0.000700847,0.000540705,0.00103916,-0.000163335,1.01171,0.000753144,0.0278344,671,1366,-4.45567,-2.28587
-546,-342,-4.41663,2.45325,-0.000591632,-0.00109214,-0.00146322,0.000642578,-0.00232635,-0.700702,0.00180366,0.0261866,678,1366,-4.41663,-2.45328
-539,-342,-4.35571,2.62317,-0.00133658,-0.00206046,-0.00286771,0.00119194,-0.00458898,-0.722624,0.00352447,0.0215335,685,1366,-4.3557,-2.62318
-532,-342,-4.36646,2.79639,-0.00228889,-0.00285911,-0.00418415,0.00161985,-0.00676786,-0.751381,0.00513769,0.016495,692,1366,-4.36648,-2.79642
-525,-342,-4.35236,2.96851,-0.00415451,-0.00405772,-0.0055649,0.001459,-0.00967123,-0.789746,0.00698479,0.0110008,699,1366,-4.35238,-2.96847
-518,-342,-4.33179,3.13574,-0.00634298,-0.00517436,-0.00741312,0.00167744,-0.0131948,-0.824727,0.00940566,0.0117986,706,1366,-4.33177,-3.13572
-511,-342,-4.32672,3.17188,-0.0094936,-0.00643712,-0.00965118,0.00180607,-0.0177368,-0.86392,0.0124702,0.0305953,713,1366,-4.32672,-3.17193
-504,-342,-4.43231,3.0332,-0.0137491,-0.00775769,-0.0121488,0.00175931,-0.0232661,-0.906278,0.0161292,0.0466923,720,1366,-4.4323,-3.03322
-497,-342,-4.56934,2.77942,0,0,0,0,0,0,0,-1,727,1366,-4.56933,-2.77942
-490,-342,-3.42413,2.94495,0,0,0,0,0,0,0,-1,734,1366,-3.42413,-2.94489
-483,-342,-6.38617,2.56531,0,0,0,0,0,0,0,-1,741,1366,-6.38616,-2.56535
-476,-342,-6.6441,1.36523,0,0,0,0,0,0,0,-1,748,1366,-6.64413,-1.36526
-469,-342,-7.43567,0.94458,0,0,0,0,0,0,0,-1,755,1366,-7.43567,-0.944596
-462,-342,-8.15204,0.258057,0,0,0,0,0,0,0,-1,762,1366,-8.15207,-0.258112
-455,-342,-9.60529,0.157837,0,0,0,0,0,0,0,-1,769,1366,-9.60531,-0.157848
-448,-342,-10.4358,-0.313721,0,0,0,0,0,0,0,-1,776,1366,-10.4358,0.313683
-441,-342,0,0,0,0,0,0,0,0,0,-1,783,1366,0,0
-434,-342,0,0,0,0,0,0,0,0,0,-1,790,1366,0,0
-427,-342,0,0,0,0,0,0,0,0,0,-1,797,1366,0,0
-420,-342,0,0,0,0,0,0,0,0,0,-1,804,1366,0,0
-413,-342,0,0,0,0,0,0,0,0,0,-1,811,1366,0,0
-406,-342,0,0,0,0,0,0,0,0,0,-1,818,1366,0,0
-399,-342,0,0,0,0,0,0,0,0,0,-1,825,1366,0,0
-392,-342,0,0,0,0,0,0,0,0,0,-1,832,1366,0,0
-385,-342,0,0,0,0,0,0,0,0,0,-1,839,1366,0,0
-378,-342,0,0,0,0,0,0,0,0,0,-1,846,1366,0,0
-371,-342,0,0,0,0,0,0,0,0,0,-1,853,1366,0,0
-364,-342,0,0,0,0,0,0,0,0,0,-1,860,1366,0,0
-357,-342,0,0,0,0,0,0,0,0,0,-1,867,1366,0,0
-350,-342,0,0,0,0,0,0,0,0,0,-1,874,1366,0,0
-343,-342,0,0,0,0,0,0,0,0,0,-1,881,1366,0,0
-336,-342,0,0,0,0,0,0,0,0,0,-1,888,1366,0,0
-329,-342,0,0,0,0,0,0,0,0,0,-1,895,1366,0,0
-322,-342,0,0,0,0,0,0,0,0,0,-1,902,1366,0,0
-315,-342,0,0,0,0,0,0,0,0,0,-1,909,1366,0,0
-308,-342,0,0,0,0,0,0,0,0,0,-1,916,1366,0,0
-301,-342,0,0,0,0,0,0,0,0,0,-1,923,1366,0,0
-294,-342,0,0,0,0,0,0,0,0,0,-1,930,1366,0,0
-287,-342,0,0,0,0,0,0,0,0,0,-1,937,1366,0,0
-280,-342,0,0,0,0,0,0,0,0,0,-1,944,1366,0,0
-273,-342,0,0,0,0,0,0,0,0,0,-1,951,1366,0,0
-266,-342,0,0,0,0,0,0,0,0,0,-1,958,1366,0,0
-259,-342,0,0,0,0,0,0,0,0,0,-1,965,1366,0,0
-252,-342,0,0,0,0,0,0,0,0,0,-1,972,1366,0,0
-245,-342,0,0,0,0,0,0,0,0,0,-1,979,1366,0,0
-238,-342,0,0,0,0,0,0,0,0,0,-1,986,1366,0,0
-231,-342,0,0,0,0,0,0,0,0,0,-1,993,1366,0,0
-224,-342,0,0,0,0,0,0,0,0,0,-1,1000,1366,0,0
-217,-342,0,0,0,0,0,0,0,0,0,-1,1007,1366,0,0
-210,-342,0,0,0,0,0,0,0,0,0,-1,1014,1366,0,0
-203,-342,0,0,0,0,0,0,0,0,0,-1,1021,1366,0,0
-196,-342,0,0,0,0,0,0,0,0,0,-1,1028,1366,0,0
-189,-342,0,0,0,0,0,0,0,0,0,-1,1035,1366,0,0
-182,-342,0,0,0,0,0,0,0,0,0,-1,1042,1366,0,0
-175,-342,0,0,0,0,0,0,0,0,0,-1,1049,1366,0,0
-168,-342,0,0,0,0,0,0,0,0,0,-1,1056,1366,0,0
-161,-342,0,0,0,0,0,0,0,0,0,-1,1063,1366,0,0
-154,-342,0,0,0,0,0,0,0,0,0,-1,1070,1366,0,0
-147,-342,0,0,0,0,0,0,0,0,0,-1,1077,1366,0,0
-140,-342,0,0,0,0,0,0,0,0,0,-1,1084,1366,0,0
-133,-342,0,0,0,0,0,0,0,0,0,-1,1091,1366,0,0
-126,-342,0,0,0,0,0,0,0,0,0,-1,1098,1366,0,0
-119,-342,0,0,0,0,0,0,0,0,0,-1,1105,1366,0,0
-112,-342,0,0,0,0,0,0,0,0,0,-1,1112,1366,0,0
-105,-342,0,0,0,0,0,0,0,0,0,-1,1119,1366,0,0
-98,-342,0,0,0,0,0,0,0,0,0,-1,1126,1366,0,0
-91,-342,0,0,0,0,0,0,0,0,0,-1,1133,1366,0,0
-84,-342,0,0,0,0,0,0,0,0,0,-1,1140,1366,0,0
-77,-342,0,0,0,0,0,0,0,0,0,-1,1147,1366,0,0
-70,-342,0,0,0,0,0,0,0,0,0,-1,1154,1366,0,0
-63,-342,0,0,0,0,0,0,0,0,0,-1,1161,1366,0,0
-56,-342,0,0,0,0,0,0,0,0,0,-1,1168,1366,0,0
-49,-342,0,0,0,0,0,0,0,0,0,-1,1175,1366,0,0
-42,-342,0,0,0,0,0,0,0,0,0,-1,1182,1366,0,0
-35,-342,0,0,0,0,0,0,0,0,0,-1,1189,1366,0,0
-28,-342,0,0,0,0,0,0,0,0,0,-1,1196,1366,0,0
-21,-342,0,0,0,0,0,0,0,0,0,-1,1203,1366,0,0
-14,-342,0,0,0,0,0,0,0,0,0,-1,1210,1366,0,0
-7,-342,0,0,0,0,0,0,0,0,0,-1,1217,1366,0,0
0,-342,0,0,0,0,0,0,0,0,0,-1,1224,1366,0,0
7,-342,0,0,0,0,0,0,0,0,0,-1,1231,1366,0,0
14,-342,0,0,0,0,0,0,0,0,0,-1,1238,1366,0,0
21,-342,0,0,0,0,0,0,0,0,0,-1,1245,1366,0,0
28,-342,0,0,0,0,0,0,0,0,0,-1,1252,1366,0,0
35,-342,0,0,0,0,0,0,0,0,0,-1,1259,1366,0,0
42,-342,0,0,0,0,0,0,0,0,0,-1,1266,1366,0,0
49,-342,0,0,0,0,0,0,0,0,0,-1,1273,1366,0,0
56,-342,0,0,0,0,0,0,0,0,0,-1,1280,1366,0,0
63,-342,0,0,0,0,0,0,0,0,0,-1,1287,1366,0,0
70,-342,0,0,0,0,0,0,0,0,0,-1,1294,1366,0,0
77,-342,0,0,0,0,0,0,0,0,0,-1,1301,1366,0,0
84,-342,0,0,0,0,0,0,0,0,0,-1,1308,1366,0,0
91,-342,0,0,0,0,0,0,0,0,0,-1,1315,1366,0,0
98,-342,0,0,0,0,0,0,0,0,0,-1,1322,1366,0,0
105,-342,0,0,0,0,0,0,0,0,0,-1,1329,1366,0,0
112,-342,0,0,0,0,0,0,0,0,0,-1,1336,1366,0,0
119,-342,0,0,0,0,0,0,0,0,0,-1,1343,1366,0,0
126,-342,0,0,0,0,0,0,0,0,0,-1,1350,1366,0,0
133,-342,0,0,0,0,0,0,0,0,0,-1,1357,1366,0,0
140,-342,0,0,0,0,0,0,0,0,0,-1,1364,1366,0,0
147,-342,0,0,0,0,0,0,0,0,0,-1,1371,1366,0,0
154,-342,0,0,0,0,0,0,0,0,0,-1,1378,1366,0,0
161,-342,0,0,0,0,0,0,0,0,0,-1,1385,1366,0,0
168,-342,0,0,0,0,0,0,0,0,0,-1,1392,1366,0,0
175,-342,0,0,0,0,0,0,0,0,0,-1,1399,1366,0,0
182,-342,0,0,0,0,0,0,0,0,0,-1,1406,1366,0,0
189,-342,0,0,0,0,0,0,0,0,0,-1,1413,1366,0,0
196,-342,0,0,0,0,0,0,0,0,0,-1,1420,1366,0,0
203,-342,0,0,0,0,0,0,0,0,0,-1,1427,1366,0,0
210,-342,0,0,0,0,0,0,0,0,0,-1,1434,1366,0,0
217,-342,0,0,0,0,0,0,0,0,0,-1,1441,1366,0,0
224,-342,0,0,0,0,0,0,0,0,0,-1,1448,1366,0,0
231,-342,0,0,0,0,0,0,0,0,0,-1,1455,1366,0,0
238,-342,0,0,0,0,0,0,0,0,0,-1,1462,1366,0,0
245,-342,0,0,0,0,0,0,0,0,0,-1,1469,1366,0,0
252,-342,0,0,0,0,0,0,0,0,0,-1,1476,1366,0,0
259,-342,0,0,0,0,0,0,0,0,0,-1,1483,1366,0,0
266,-342,0,0,0,0,0,0,0,0,0,-1,1490,1366,0,0
273,-342,0,0,0,0,0,0,0,0,0,-1,1497,1366,0,0
280,-342,0,0,0,0,0,0,0,0,0,-1,1504,1366,0,0
287,-342,0,0,0,0,0,0,0,0,0,-1,1511,1366,0,0
294,-342,0,0,0,0,0,0,0,0,0,-1,1518,1366,0,0
301,-342,0,0,0,0,0,0,0,0,0,-1,1525,1366,0,0
308,-342,0,0,0,0,0,0,0,0,0,-1,1532,1366,0,0
315,-342,0,0,0,0,0,0,0,0,0,-1,1539,1366,0,0
322,-342,0,0,0,0,0,0,0,0,0,-1,1546,1366,0,0
329,-342,0,0,0,0,0,0,0,0,0,-1,1553,1366,0,0
336,-342,0,0,0,0,0,0,0,0,0,-1,1560,1366,0,0
343,-342,0,0,0,0,0,0,0,0,0,-1,1567,1366,0,0
350,-342,0,0,0,0,0,0,0,0,0,-1,1574,1366,0,0
357,-342,0,0,0,0,0,0,0,0,0,-1,1581,1366,0,0
364,-342,0,0,0,0,0,0,0,0,0,-1,1588,1366,0,0
371,-342,0,0,0,0,0,0,0,0,0,-1,1595,1366,0,0
378,-342,0,0,0,0,0,0,0,0,0,-1,1602,1366,0,0
385,-342,0,0,0,0,0,0,0,0,0,-1,1609,1366,0,0
392,-342,0,0,0,0,0,0,0,0,0,-1,1616,1366,0,0
399,-342,0,0,0,0,0,0,0,0,0,-1,1623,1366,0,0
406,-342,0,0,0,0,0,0,0,0,0,-1,1630,1366,0,0
413,-342,0,0,0,0,0,0,0,0,0,-1,1637,1366,0,0
420,-342,0,0,0,0,0,0,0,0,0,-1,1644,1366,0,0
427,-342,0,0,0,0,0,0,0,0,0,-1,1651,1366,0,0
434,-342,0,0,0,0,0,0,0,0,0,-1,1658,1366,0,0
441,-342,0,0,0,0,0,0,0,0,0,-1,1665,1366,0,0
448,-342,0,0,0,0,0,0,0,0,0,-1,1672,1366,0,0
455,-342,0,0,0,0,0,0,0,0,0,-1,1679,1366,0,0
462,-342,0,0,0,0,0,0,0,0,0,-1,1686,1366,0,0
469,-342,0,0,0,0,0,0,0,0,0,-1,1693,1366,0,0
476,-342,0,0,0,0,0,0,0,0,0,-1,1700,1366,0,0
483,-342,0,0,0,0,0,0,0,0,0,-1,1707,1366,0,0
490,-342,0,0,0,0,0,0,0,0,0,-1,1714,1366,0,0
497,-342,0,0,0,0,0,0,0,0,0,-1,1721,1366,0,0
504,-342,0,0,0,0,0,0,0,0,0,-1,1728,1366,0,0
511,-342,0,0,0,0,0,0,0,0,0,-1,1735,1366,0,0
518,-342,0,0,0,0,0,0,0,0,0,-1,1742,1366,0,0
525,-342,0,0,0,0,0,0,0,0,0,-1,1749,1366,0,0
532,-342,0,0,0,0,0,0,0,0,0,-1,1756,1366,0,0
539,-342,0,0,0,0,0,0,0,0,0,-1,1763,1366,0,0
546,-342,0,0,0,0,0,0,0,0,0,-1,1770,1366,0,0
553,-342,0,0,0,0,0,0,0,0,0,-1,1777,1366,0,0
560,-342,0,0,0,0,0,0,0,0,0,-1,1784,1366,0,0
567,-342,11.5969,4.33215,0,0,0,0,0,0,0,-1,1791,1366,11.5969,-4.33214
574,-342,11.3219,3.13257,0,0,0,0,0,0,0,-1,1798,1366,11.3219,-3.13263
581,-342,11.345,2.12378,0,0,0,0,0,0,0,-1,1805,1366,11.345,-2.12377
588,-342,11.4603,1.49683,0,0,0,0,0,0,0,-1,1812,1366,11.4604,-1.49688
595,-342,10.9797,0.796753,0,0,0,0,0,0,0,-1,1819,1366,10.9797,-0.796812
602,-342,9.62451,4.2821,0,0,0,0,0,0,0,-1,1826,1366,9.62449,-4.28215
609,-342,10.0757,4.06775,0,0,0,0,0,0,0,-1,1833,1366,10.0757,-4.06771
616,-342,10.819,3.88928,0,0,0,0,0,0,0,-1,1840,1366,10.819,-3.88934
623,-342,11.3138,4.44214,0,0,0,0,0,0,0,-1,1847,1366,11.3139,-4.44213
630,-342,11.6147,5.10889,0,0,0,0,0,0,0,-1,1854,1366,11.6148,-5.10894
637,-342,11.4463,4.92651,0,0,0,0,0,0,0,-1,1861,1366,11.4463,-4.92645
644,-342,11.1616,4.98596,-0.00352453,-0.000103372,0.0110889,0.00940608,-0.013034,0.861925,0.0130121,0.0325597,1868,1366,11.1617,-4.98591
651,-342,11.0933,4.823,-0.00365826,-7.64672e-05,0.00898752,0.00729685,-0.0110316,0.883743,0.0106549,0.0179827,1875,1366,11.0933,-4.82302
658,-342,11.0592,4.63538,-0.00382085,0.000337901,0.00727435,0.00582423,-0.00930718,0.924611,0.00881293,0.0185897,1882,1366,11.0592,-4.63535
665,-342,11.0947,4.49231,-0.00365198,-3.84205e-05,0.00526283,0.00371913,-0.00740954,0.950749,0.00654184,0.0155074,1889,1366,11.0947,-4.49229
672,-342,11.1005,4.36304,-0.00282193,-0.000493513,0.00349663,0.00202763,-0.00534307,0.946102,0.00439664,0.012907,1896,1366,11.1005,-4.363
679,-342,11.089,4.22998,-0.00124127,-0.000675663,0.00173142,0.000795899,-0.00271284,0.866352,0.00212415,0.0125307,1903,1366,11.0889,-4.22993
686,-342,11.1008,4.09888,0.00089594,-0.00117646,6.63286e-05,0.000898061,-0.00117859,0.031962,0.00120259,0.010163,1910,1366,11.1008,-4.09882
693,-342,11.1035,3.94556,0.00345389,-0.00179187,-0.00125291,0.00373778,-0.00207575,-0.222818,0.00340186,0.0113096,1917,1366,11.1036,-3.94558
700,-342,11.0818,3.79541,0.00597153,-0.00225409,-0.00260038,0.00672464,-0.0030072,-0.281903,0.0057537,0.0133532,1924,1366,11.0818,-3.79544
707,-342,11.1012,3.65063,0.00886108,-0.00308852,-0.00405741,0.0101085,-0.00433596,-0.298276,0.00855864,0.0122601,1931,1366,11.1012,-3.6506
714,-342,11.1128,3.52283,0.0118504,-0.00439772,-0.0056326,0.013612,-0.00615934,-0.303115,0.0116822,0.0227785,1938,1366,11.1128,-3.52286
721,-342,11.1089,3.35535,0.0153899,-0.00600246,-0.0075292,0.0177741,-0.00838669,-0.306674,0.0154247,0.0383527,1945,1366,11.1089,-3.35539
728,-342,11.3712,3.08801,0.0194055,-0.00796586,-0.00971101,0.0225008,-0.0110612,-0.308561,0.0197487,0.0483513,1952,1366,11.3712,-3.08806
735,-342,11.5211,2.896,0.0237331,-0.0102842,-0.0121158,0.0276071,-0.0141583,-0.309477,0.0245264,0.045317,1959,1366,11.5211,-2.89601
742,-342,11.6681,2.74048,0.0280984,-0.012948,-0.014591,0.0327565,-0.0176061,-0.309019,0.0295122,0.0495677,1966,1366,11.6681,-2.74049
749,-342,11.814,2.62036,0.0319068,-0.0159071,-0.0168781,0.0372644,-0.0212646,-0.307368,0.03421,0.0486573,1973,1366,11.814,-2.62034
756,-342,0,0,0,0,0,0,0,0,0,-1,1980,1366,0,0
763,-342,0,0,0,0,0,0,0,0,0,-1,1987,1366,0,0
770,-342,0,0,0,0,0,0,0,0,0,-1,1994,1366,0,0
777,-342,0,0,0,0,0,0,0,0,0,-1,2001,1366,0,0
784,-342,0,0,0,0,0,0,0,0,0,-1,2008,1366,0,0
791,-342,0,0,0,0,0,0,0,0,0,-1,2015,1366,0,0
798,-342,0,0,0,0,0,0,0,0,0,-1,2022,1366,0,0
805,-342,0,0,0,0,0,0,0,0,0,-1,2029,1366,0,0
812,-342,0,0,0,0,0,0,0,0,0,-1,2036,1366,0,0
-700,-349,0,0,0,0,0,0,0,0,0,-1,524,1373,0,0
-693,-349,0,0,0,0,0,0,0,0,0,-1,531,1373,0,0
-686,-349,0,0,0,0,0,0,0,0,0,-1,538,1373,0,0
-679,-349,0,0,0,0,0,0,0,0,0,-1,545,1373,0,0
-672,-349,0,0,0,0,0,0,0,0,0,-1,552,1373,0,0
-665,-349,0,0,0,0,0,0,0,0,0,-1,559,1373,0,0
-658,-349,0,0,0,0,0,0,0,0,0,-1,566,1373,0,0
-651,-349,0,0,0,0,0,0,0,0,0,-1,573,1373,0,0
-644,-349,0,0,0,0,0,0,0,0,0,-1,580,1373,0,0
-637,-349,0,0,0,0,0,0,0,0,0,-1,587,1373,0,0
-630,-349,-5.16406,-3.00012,0,0,0,0,0,0,0,-1,594,1373,-5.16406,3.00016
-623,-349,-4.38342,-3.62842,0,0,0,0,0,0,0,-1,601,1373,-4.3834,3.62839
-616,-349,-3.80627,-2.41235,0,0,0,0,0,0,0,-1,608,1373,-3.8063,2.41229
-609,-349,-4.29724,1.39429,0,0,0,0,0,0,0,-1,615,1373,-4.29724,-1.39429
-602,-349,-4.48535,0.19165,0,0,0,0,0,0,0,-1,622,1373,-4.48538,-0.191615
-595,-349,-3.94482,1.2959,0,0,0,0,0,0,0,-1,629,1373,-3.94483,-1.29584
-588,-349,-4.01392,1.48547,0.013129,0.0222647,0.0204848,0.0386848,-0.0032911,0.895097,0.0269539,0.0422674,636,1373,-4.01393,-1.48545
-581,-349,-4.07928,1.63696,0.0085678,0.0155153,0.0145088,0.0269604,-0.00287729,0.902899,0.0190055,0.0348829,643,1373,-4.07929,-1.637
-574,-349,-4.19647,1.74792,0.00560526,0.0103627,0.0104946,0.0187447,-0.0027768,0.896846,0.0135175,0.0181136,650,1373,-4.19646,-1.7479
-567,-349,-4.23273,1.96057,0.00283516,0.00637734,0.00640567,0.0112523,-0.00203976,0.920273,0.00826574,0.0166839,657,1373,-4.23274,-1.96053
-560,-349,-4.23438,2.11658,0.00106458,0.00355625,0.00332014,0.0058566,-0.00123578,0.964887,0.0043749,0.0209341,664,1373,-4.23439,-2.11661
-553,-349,-4.26031,2.21716,-6.3338e-05,0.00108151,0.000857449,0.00154005,-0.000521879,1.07972,0.00123789,0.0263616,671,1373,-4.26031,-2.21713
-546,-349,-4.25659,2.43835,-0.000731875,-0.000605527,-0.00110316,0.000436268,-0.00177367,-0.814,0.00135155,0.0272484,678,1373,-4.25657,-2.4383
-539,-349,-4.22144,2.6272,-0.00139619,-0.00158381,-0.00251644,0.00102819,-0.00400819,-0.766767,0.00307275,0.0209693,685,1373,-4.22144,-2.62722
-532,-349,-4.21198,2.79016,-0.00219419,-0.00252136,-0.00379433,0.00144008,-0.00615563,-0.763855,0.00465858,0.0154141,692,1373,-4.21197,-2.79021
-525,-349,-4.19238,2.97791,-0.00366987,-0.00393242,-0.00511757,0.00131811,-0.0089204,-0.772575,0.00643149,0.0121351,699,1373,-4.19236,-2.97785
-518,-349,-4.2019,3.1637,-0.00552299,-0.00525217,-0.00687111,0.00148486,-0.01226,-0.795251,0.00871059,0.0113815,706,1373,-4.2019,-3.16372
-511,-349,-4.10547,3.29956,-0.00825893,-0.00687213,-0.00905884,0.00151981,-0.0166509,-0.823596,0.0116403,0.0235412,713,1373,-4.10546,-3.29954
-504,-349,-4.15515,3.20923,-0.0121675,-0.00871508,-0.0116441,0.00133011,-0.0222127,-0.858985,0.0152711,0.0448664,720,1373,-4.15513,-3.20927
-497,-349,-4.15265,3.25134,-0.0172885,-0.0107575,-0.0144716,0.000812406,-0.0288584,-0.896365,0.0195154,0.0485736,727,1373,-4.15268,-3.25136
-490,-349,-4.03949,3.505,0,0,0,0,0,0,0,-1,734,1373,-4.03948,-3.50495
-483,-349,-3.14178,1.62,0,0,0,0,0,0,0,-1,741,1373,-3.14179,-1.61998
-476,-349,-6.00275,0.943237,0,0,0,0,0,0,0,-1,748,1373,-6.00275,-0.943188
-469,-349,-6.43036,0.574707,0,0,0,0,0,0,0,-1,755,1373,-6.43036,-0.574743
-462,-349,-8.49884,0.358276,0,0,0,0,0,0,0,-1,762,1373,-8.49881,-0.358227
-455,-349,-9.43335,-0.465576,0,0,0,0,0,0,0,-1,769,1373,-9.43337,0.465541
-448,-349,-10.1943,-0.954468,0,0,0,0,0,0,0,-1,776,1373,-10.1943,0.954509
-441,-349,0,0,0,0,0,0,0,0,0,-1,783,1373,0,0
-434,-349,0,0,0,0,0,0,0,0,0,-1,790,1373,0,0
-427,-349,0,0,0,0,0,0,0,0,0,-1,797,1373,0,0
-420,-349,0,0,0,0,0,0,0,0,0,-1,804,1373,0,0
-413,-349,0,0,0,0,0,0,0,0,0,-1,811,1373,0,0
-406,-349,0,0,0,0,0,0,0,0,0,-1,818,1373,0,0
-399,-349,0,0,0,0,0,0,0,0,0,-1,825,1373,0,0
-392,-349,0,0,0,0,0,0,0,0,0,-1,832,1373,0,0
-385,-349,0,0,0,0,0,0,0,0,0,-1,839,1373,0,0
-378,-349,0,0,0,0,0,0,0,0,0,-1,846,1373,0,0
-371,-349,0,0,0,0,0,0,0,0,0,-1,853,1373,0,0
-364,-349,0,0,0,0,0,0,0,0,0,-1,860,1373,0,0
-357,-349,0,0,0,0,0,0,0,0,0,-1,867,1373,0,0
-350,-349,0,0,0,0,0,0,0,0,0,-1,874,1373,0,0
-343,-349,0,0,0,0,0,0,0,0,0,-1,881,1373,0,0
-336,-349,0,0,0,0,0,0,0,0,0,-1,888,1373,0,0
-329,-349,0,0,0,0,0,0,0,0,0,-1,895,1373,0,0
-322,-349,0,0,0,0,0,0,0,0,0,-1,902,1373,0,0
-315,-349,0,0,0,0,0,0,0,0,0,-1,909,1373,0,0
-308,-349,0,0,0,0,0,0,0,0,0,-1,916,1373,0,0
-301,-349,0,0,0,0,0,0,0,0,0,-1,923,1373,0,0
-294,-349,0,0,0,0,0,0,0,0,0,-1,930,1373,0,0
-287,-349,0,0,0,0,0,0,0,0,0,-1,937,1373,0,0
-280,-349,0,0,0,0,0,0,0,0,0,-1,944,1373,0,0
-273,-349,0,0,0,0,0,0,0,0,0,-1,951,1373,0,0
-266,-349,0,0,0,0,0,0,0,0,0,-1,958,1373,0,0
-259,-349,0,0,0,0,0,0,0,0,0,-1,965,1373,0,0
-252,-349,0,0,0,0,0,0,0,0,0,-1,972,1373,0,0
-245,-349,0,0,0,0,0,0,0,0,0,-1,979,1373,0,0
-238,-349,0,0,0,0,0,0,0,0,0,-1,986,1373,0,0
-231,-349,0,0,0,0,0,0,0,0,0,-1,993,1373,0,0
-224,-349,0,0,0,0,0,0,0,0,0,-1,1000,1373,0,0
-217,-349,0,0,0,0,0,0,0,0,0,-1,1007,1373,0,0
-210,-349,0,0,0,0,0,0,0,0,0,-1,1014,1373,0,0
-203,-349,0,0,0,0,0,0,0,0,0,-1,1021,1373,0,0
-196,-349,0,0,0,0,0,0,0,0,0,-1,1028,1373,0,0
-189,-349,0,0,0,0,0,0,0,0,0,-1,1035,1373,0,0
-182,-349,0,0,0,0,0,0,0,0,0,-1,1042,1373,0,0
-175,-349,0,0,0,0,0,0,0,0,0,-1,1049,1373,0,0
-168,-349,0,0,0,0,0,0,0,0,0,-1,1056,1373,0,0
-161,-349,0,0,0,0,0,0,0,0,0,-1,1063,1373,0,0
-154,-349,0,0,0,0,0,0,0,0,0,-1,1070,1373,0,0
-147,-349,0,0,0,0,0,0,0,0,0,-1,1077,1373,0,0
-140,-349,0,0,0,0,0,0,0,0,0,-1,1084,1373,0,0
-133,-349,0,0,0,0,0,0,0,0,0,-1,1091,1373,0,0
-126,-349,0,0,0,0,0,0,0,0,0,-1,1098,1373,0,0
-119,-349,0,0,0,0,0,0,0,0,0,-1,1105,1373,0,0
-112,-349,0,0,0,0,0,0,0,0,0,-1,1112,1373,0,0
-105,-349,0,0,0,0,0,0,0,0,0,-1,1119,1373,0,0
-98,-349,0,0,0,0,0,0,0,0,0,-1,1126,1373,0,0
-91,-349,0,0,0,0,0,0,0,0,0,-1,1133,1373,0,0
-84,-349,0,0,0,0,0,0,0,0,0,-1,1140,1373,0,0
-77,-349,0,0,0,0,0,0,0,0,0,-1,1147,1373,0,0
-70,-349,0,0,0,0,0,0,0,0,0,-1,1154,1373,0,0
-63,-349,0,0,0,0,0,0,0,0,0,-1,1161,1373,0,0
-56,-349,0,0,0,0,0,0,0,0,0,-1,1168,1373,0,0
-49,-349,0,0,0,0,0,0,0,0,0,-1,1175,1373,0,0
-42,-349,0,0,0,0,0,0,0,0,0,-1,1182,1373,0,0
-35,-349,0,0,0,0,0,0,0,0,0,-1,1189,1373,0,0
-28,-349,0,0,0,0,0,0,0,0,0,-1,1196,1373,0,0
-21,-349,0,0,0,0,0,0,0,0,0,-1,1203,1373,0,0
-14,-349,0,0,0,0,0,0,0,0,0,-1,1210,1373,0,0
-7,-349,0,0,0,0,0,0,0,0,0,-1,1217,1373,0,0
0,-349,0,0,0,0,0,0,0,0,0,-1,1224,1373,0,0
7,-349,0,0,0,0,0,0,0,0,0,-1,1231,1373,0,0
14,-349,0,0,0,0,0,0,0,0,0,-1,1238,1373,0,0
21,-349,0,0,0,0,0,0,0,0,0,-1,1245,1373,0,0
28,-349,0,0,0,0,0,0,0,0,0,-1,1252,1373,0,0
35,-349,0,0,0,0,0,0,0,0,0,-1,1259,1373,0,0
42,-349,0,0,0,0,0,0,0,0,0,-1,1266,1373,0,0
49,-349,0,0,0,0,0,0,0,0,0,-1,1273,1373,0,0
56,-349,0,0,0,0,0,0,0,0,0,-1,1280,1373,0,0
63,-349,0,0,0,0,0,0,0,0,0,-1,1287,1373,0,0
70,-349,0,0,0,0,0,0,0,0,0,-1,1294,1373,0,0
77,-349,0,0,0,0,0,0,0,0,0,-1,1301,1373,0,0
84,-349,0,0,0,0,0,0,0,0,0,-1,1308,1373,0,0
91,-349,0,0,0,0,0,0,0,0,0,-1,1315,1373,0,0
98,-349,0,0,0,0,0,0,0,0,0,-1,1322,1373,0,0
105,-349,0,0,0,0,0,0,0,0,0,-1,1329,1373,0,0
112,-349,0,0,0,0,0,0,0,0,0,-1,1336,1373,0,0
119,-349,0,0,0,0,0,0,0,0,0,-1,1343,1373,0,0
126,-349,0,0,0,0,0,0,0,0,0,-1,1350,1373,0,0
133,-349,0,0,0,0,0,0,0,0,0,-1,1357,1373,0,0
140,-349,0,0,0,0,0,0,0,0,0,-1,1364,1373,0,0
147,-349,0,0,0,0,0,0,0,0,0,-1,1371,1373,0,0
154,-349,0,0,0,0,0,0,0,0,0,-1,1378,1373,0,0
161,-349,0,0,0,0,0,0,0,0,0,-1,1385,1373,0,0
168,-349,0,0,0,0,0,0,0,0,0,-1,1392,1373,0,0
175,-349,0,0,0,0,0,0,0,0,0,-1,1399,1373,0,0
182,-349,0,0,0,0,0,0,0,0,0,-1,1406,1373,0,0
189,-349,0,0,0,0,0,0,0,0,0,-1,1413,1373,0,0
196,-349,0,0,0,0,0,0,0,0,0,-1,1420,1373,0,0
203,-349,0,0,0,0,0,0,0,0,0,-1,1427,1373,0,0
210,-349,0,0,0,0,0,0,0,0,0,-1,1434,1373,0,0
217,-349,0,0,0,0,0,0,0,0,0,-1,1441,1373,0,0
224,-349,0,0,0,0,0,0,0,0,0,-1,1448,1373,0,0
231,-349,0,0,0,0,0,0,0,0,0,-1,1455,1373,0,0
238,-349,0,0,0,0,0,0,0,0,0,-1,1462,1373,0,0
245,-349,0,0,0,0,0,0,0,0,0,-1,1469,1373,0,0
252,-349,0,0,0,0,0,0,0,0,0,-1,1476,1373,0,0
259,-349,0,0,0,0,0,0,0,0,0,-1,1483,1373,0,0
266,-349,0,0,0,0,0,0,0,0,0,-1,1490,1373,0,0
273,-349,0,0,0,0,0,0,0,0,0,-1,1497,1373,0,0
280,-349,0,0,0,0,0,0,0,0,0,-1,1504,1373,0,0
287,-349,0,0,0,0,0,0,0,0,0,-1,1511,1373,0,0
294,-349,0,0,0,0,0,0,0,0,0,-1,1518,1373,0,0
301,-349,0,0,0,0,0,0,0,0,0,-1,1525,1373,0,0
308,-349,0,0,0,0,0,0,0,0,0,-1,1532,1373,0,0
315,-349,0,0,0,0,0,0,0,0,0,-1,1539,1373,0,0
322,-349,0,0,0,0,0,0,0,0,0,-1,1546,1373,0,0
329,-349,0,0,0,0,0,0,0,0,0,-1,1553,1373,0,0
336,-349,0,0,0,0,0,0,0,0,0,-1,1560,1373,0,0
343,-349,0,0,0,0,0,0,0,0,0,-1,1567,1373,0,0
350,-349,0,0,0,0,0,0,0,0,0,-1,1574,1373,0,0
357,-349,0,0,0,0,0,0,0,0,0,-1,1581,1373,0,0
364,-349,0,0,0,0,0,0,0,0,0,-1,1588,1373,0,0
371,-349,0,0,0,0,0,0,0,0,0,-1,1595,1373,0,0
378,-349,0,0,0,0,0,0,0,0,0,-1,1602,1373,0,0
385,-349,0,0,0,0,0,0,0,0,0,-1,1609,1373,0,0
392,-349,0,0,0,0,0,0,0,0,0,-1,1616,1373,0,0
399,-349,0,0,0,0,0,0,0,0,0,-1,1623,1373,0,0
406,-349,0,0,0,0,0,0,0,0,0,-1,1630,1373,0,0
413,-349,0,0,0,0,0,0,0,0,0,-1,1637,1373,0,0
420,-349,0,0,0,0,0,0,0,0,0,-1,1644,1373,0,0
427,-349,0,0,0,0,0,0,0,0,0,-1,1651,1373,0,0
434,-349,0,0,0,0,0,0,0,0,0,-1,1658,1373,0,0
441,-349,0,0,0,0,0,0,0,0,0,-1,1665,1373,0,0
448,-349,0,0,0,0,0,0,0,0,0,-1,1672,1373,0,0
455,-349,0,0,0,0,0,0,0,0,0,-1,1679,1373,0,0
462,-349,0,0,0,0,0,0,0,0,0,-1,1686,1373,0,0
469,-349,0,0,0,0,0,0,0,0,0,-1,1693,1373,0,0
476,-349,0,0,0,0,0,0,0,0,0,-1,1700,1373,0,0
483,-349,0,0,0,0,0,0,0,0,0,-1,1707,1373,0,0
490,-349,0,0,0,0,0,0,0,0,0,-1,1714,1373,0,0
497,-349,0,0,0,0,0,0,0,0,0,-1,1721,1373,0,0
504,-349,0,0,0,0,0,0,0,0,0,-1,1728,1373,0,0
511,-349,0,0,0,0,0,0,0,0,0,-1,1735,1373,0,0
518,-349,0,0,0,0,0,0,0,0,0,-1,1742,1373,0,0
525,-349,0,0,0,0,0,0,0,0,0,-1,1749,1373,0,0
532,-349,0,0,0,0,0,0,0,0,0,-1,1756,1373,0,0
539,-349,0,0,0,0,0,0,0,0,0,-1,1763,1373,0,0
546,-349,0,0,0,0,0,0,0,0,0,-1,1770,1373,0,0
553,-349,0,0,0,0,0,0,0,0,0,-1,1777,1373,0,0
560,-349,15.5812,6.08875,0,0,0,0,0,0,0,-1,1784,1373,15.5811,-6.08876
567,-349,14.7653,6.31482,0,0,0,0,0,0,0,-1,1791,1373,14.7653,-6.31477
574,-349,14.01,5.92566,0,0,0,0,0,0,0,-1,1798,1373,14.01,-5.92563
581,-349,11.0215,2.60681,0,0,0,0,0,0,0,-1,1805,1373,11.0215,-2.60683
588,-349,10.9402,2.04004,0,0,0,0,0,0,0,-1,1812,1373,10.9401,-2.04003
595,-349,9.24951,3.64551,0,0,0,0,0,0,0,-1,1819,1373,9.24954,-3.64555
602,-349,9.86426,3.729,-0.00905556,0.0253429,0.0162727,0.031821,-0.0155337,1.19193,0.027874,0.0481787,1826,1373,9.86423,-3.72896
609,-349,10.251,3.82483,-0.00823467,0.0144716,0.0172584,0.0237763,-0.0175394,1.07633,0.023944,0.0449176,1833,1373,10.2509,-3.82484
616,-349,10.8743,3.86633,-0.00640555,0.00571777,0.0172647,0.017954,-0.0186418,0.954226,0.0211298,0.0464815,1840,1373,10.8742,-3.86635
623,-349,11.1949,4.18958,-0.00502749,-0.000558843,0.0166555,0.0140116,-0.0195979,0.852075,0.0194936,0.0483428,1847,1373,11.1949,-4.18957
630,-349,11.3965,4.78943,-0.00398382,-0.00432124,0.015369,0.0112174,-0.0195224,0.77991,0.0179622,0.0477985,1854,1373,11.3965,-4.7894
637,-349,11.6696,5.38586,0,0,0,0,0,0,0,-1,1861,1373,11.6696,-5.38587
644,-349,10.9015,4.9729,-0.00290691,-0.00363604,0.0109292,0.00766382,-0.0142068,0.768726,0.012814,0.0332773,1868,1373,10.9015,-4.97286
651,-349,10.981,4.75098,-0.00257481,-0.00250068,0.00854041,0.00600274,-0.0110782,0.787568,0.0100058,0.0219554,1875,1373,10.981,-4.75094
658,-349,10.9015,4.6134,-0.00245105,-0.00123821,0.0066952,0.00487797,-0.00856723,0.830563,0.0078594,0.0249953,1882,1373,10.9015,-4.61341
665,-349,10.952,4.47668,-0.00231398,-0.00100795,0.0047337,0.00311757,-0.0064395,0.853941,0.00562778,0.018809,1889,1373,10.952,-4.47664
672,-349,10.9626,4.34998,-0.0015997,-0.00103859,0.00304612,0.00173987,-0.00437816,0.831319,0.00364008,0.0141881,1896,1373,10.9627,-4.35
679,-349,10.9484,4.22644,-0.000160844,-0.00106622,0.00135122,0.000811497,-0.00203856,0.623763,0.00169556,0.0134453,1903,1373,10.9484,-4.22644
686,-349,10.968,4.10608,0.00191198,-0.00173809,-0.000246202,0.00192851,-0.00175462,-0.0670466,0.00212725,0.0108731,1910,1373,10.968,-4.10603
693,-349,10.9652,3.95276,0.00452881,-0.00258438,-0.0015296,0.00484378,-0.00289935,-0.20308,0.00451724,0.0130252,1917,1373,10.9651,-3.95275
700,-349,10.9569,3.79431,0.00715008,-0.00345272,-0.00288667,0.00788504,-0.00418769,-0.249309,0.00707832,0.0162087,1924,1373,10.9569,-3.79429
707,-349,10.9854,3.64478,0.0102666,-0.00481198,-0.00444521,0.0114795,-0.00602488,-0.266371,0.0102684,0.0180538,1931,1373,10.9854,-3.64483
714,-349,10.9865,3.54468,0.0137113,-0.00674236,-0.0062459,0.0154677,-0.00849883,-0.274139,0.0140307,0.0219418,1938,1373,10.9865,-3.54466
721,-349,11.0966,3.39673,0.0178477,-0.00913661,-0.00845311,0.020277,-0.0115659,-0.279846,0.0186124,0.0374478,1945,1373,11.0965,-3.39673
728,-349,11.454,3.14368,0.0225793,-0.0120263,-0.011026,0.0257938,-0.0152408,-0.283676,0.0239511,0.049408,1952,1373,11.454,-3.14367
735,-349,11.678,3.04114,0.0277057,-0.0153873,-0.0138663,0.0317819,-0.0194636,-0.285914,0.0298702,0.046992,1959,1373,11.6779,-3.04113
742,-349,11.7262,2.67896,0,0,0,0,0,0,0,-1,1966,1373,11.7262,-2.679
749,-349,11.9012,2.57483,0,0,0,0,0,0,0,-1,1973,1373,11.9013,-2.57481
756,-349,0,0,0,0,0,0,0,0,0,-1,1980,1373,0,0
763,-349,0,0,0,0,0,0,0,0,0,-1,1987,1373,0,0
770,-349,0,0,0,0,0,0,0,0,0,-1,1994,1373,0,0
777,-349,0,0,0,0,0,0,0,0,0,-1,2001,1373,0,0
784,-349,0,0,0,0,0,0,0,0,0,-1,2008,1373,0,0
791,-349,0,0,0,0,0,0,0,0,0,-1,2015,1373,0,0
798,-349,0,0,0,0,0,0,0,0,0,-1,2022,1373,0,0
805,-349,0,0,0,0,0,0,0,0,0,-1,2029,1373,0,0
812,-349,0,0,0,0,0,0,0,0,0,-1,2036,1373,0,0
-700,-356,0,0,0,0,0,0,0,0,0,-1,524,1380,0,0
-693,-356,0,0,0,0,0,0,0,0,0,-1,531,1380,0,0
-686,-356,0,0,0,0,0,0,0,0,0,-1,538,1380,0,0
-679,-356,0,0,0,0,0,0,0,0,0,-1,545,1380,0,0
-672,-356,0,0,0,0,0,0,0,0,0,-1,552,1380,0,0
-665,-356,0,0,0,0,0,0,0,0,0,-1,559,1380,0,0
-658,-356,0,0,0,0,0,0,0,0,0,-1,566,1380,0,0
-651,-356,0,0,0,0,0,0,0,0,0,-1,573,1380,0,0
-644,-356,0,0,0,0,0,0,0,0,0,-1,580,1380,0,0
-637,-356,0,0,0,0,0,0,0,0,0,-1,587,1380,0,0
-630,-356,-5.27063,-5.19885,0,0,0,0,0,0,0,-1,594,1380,-5.2706,5.19882
-623,-356,-5.27997,-4.25562,0,0,0,0,0,0,0,-1,601,1380,-5.27998,4.25563
-616,-356,-4.31866,-2.54053,0,0,0,0,0,0,0,-1,608,1380,-4.31864,2.54052
-609,-356,-4.43567,-0.216431,0,0,0,0,0,0,0,-1,615,1380,-4.43566,0.216488
-602,-356,-2.31262,-0.0177002,0,0,0,0,0,0,0,-1,622,1380,-2.31261,0.0176993
-595,-356,-2.28363,0.302368,0,0,0,0,0,0,0,-1,629,1380,-2.28366,-0.302354
-588,-356,-3.84143,1.56787,0,0,0,0,0,0,0,-1,636,1380,-3.84146,-1.56791
-581,-356,-3.8103,1.68555,0.0089777,0.0149431,0.0162231,0.0284555,-0.00453464,0.876311,0.0206485,0.0387685,643,1380,-3.81031,-1.68558
-574,-356,-3.94928,1.75879,0.00565304,0.00996089,0.0113721,0.0193813,-0.00376735,0.878991,0.0143425,0.0254628,650,1380,-3.94925,-1.75873
-567,-356,-4.07166,1.9375,0.00266979,0.006271,0.00687779,0.01158,-0.00263919,0.913425,0.00873367,0.0161708,657,1380,-4.07167,-1.93749
-560,-356,-4.05688,2.13489,0.000861422,0.00370949,0.00368517,0.00623619,-0.00166528,0.969772,0.00480963,0.017397,664,1380,-4.0569,-2.13486
-553,-356,-4.03735,2.25049,-0.000348514,0.00141012,0.00116332,0.00198906,-0.000927456,1.10902,0.00172063,0.0194267,671,1380,-4.03732,-2.25054
-546,-356,-4.0564,2.4021,-0.000888937,-0.000125383,-0.00075085,0.000335176,-0.0013495,-1.02059,0.00102974,0.019963,678,1380,-4.05637,-2.40208
-539,-356,-4.0636,2.60669,-0.00144251,-0.00109482,-0.00220813,0.000946299,-0.00348363,-0.824681,0.00269384,0.0137156,685,1380,-4.06362,-2.60671
-532,-356,-4.06714,2.79004,-0.00208444,-0.00209037,-0.00348207,0.00139467,-0.00556949,-0.784972,0.00425477,0.0136852,692,1380,-4.06712,-2.79006
-525,-356,-4.04504,2.97522,-0.00320079,-0.00360302,-0.00470968,0.00131206,-0.00811588,-0.76406,0.0058968,0.0117061,699,1380,-4.04505,-2.97517
-518,-356,-4.04193,3.15637,-0.00473409,-0.00496107,-0.00633013,0.00148357,-0.0111787,-0.776435,0.00799303,0.0107987,706,1380,-4.04192,-3.15633
-511,-356,-3.96198,3.3374,-0.00707719,-0.00673371,-0.0083968,0.00149311,-0.015304,-0.795623,0.010735,0.0175568,713,1380,-3.96198,-3.33745
-504,-356,-4.02344,3.39844,-0.0106088,-0.00878554,-0.010912,0.00125291,-0.0206472,-0.827072,0.0142009,0.0396385,720,1380,-4.02343,-3.39849
-497,-356,-4.03265,3.46753,-0.0154059,-0.0111544,-0.0137949,0.000677588,-0.0272379,-0.861846,0.0183886,0.0468193,727,1380,-4.03263,-3.46751
-490,-356,-3.88062,3.29724,-0.0215294,-0.0137581,-0.0168025,-0.000397811,-0.0348896,-0.899028,0.0231283,0.0466715,734,1380,-3.88061,-3.29728
-483,-356,-3.66589,2.96204,0,0,0,0,0,0,0,-1,741,1380,-3.66591,-2.96208
-476,-356,-4.53961,2.73584,0,0,0,0,0,0,0,-1,748,1380,-4.53958,-2.73584
-469,-356,-7.52393,1.63672,0,0,0,0,0,0,0,-1,755,1380,-7.52395,-1.63668
-462,-356,-8.11835,0.0981445,0,0,0,0,0,0,0,-1,762,1380,-8.11838,-0.098133
-455,-356,-9.09387,-1.05994,0,0,0,0,0,0,0,-1,769,1380,-9.09389,1.05992
-448,-356,-9.80743,-1.75134,0,0,0,0,0,0,0,-1,776,1380,-9.80743,1.7514
-441,-356,-10.6353,-2.24585,0,0,0,0,0,0,0,-1,783,1380,-10.6353,2.24582
-434,-356,0,0,0,0,0,0,0,0,0,-1,790,1380,0,0
-427,-356,0,0,0,0,0,0,0,0,0,-1,797,1380,0,0
-420,-356,0,0,0,0,0,0,0,0,0,-1,804,1380,0,0
-413,-356,0,0,0,0,0,0,0,0,0,-1,811,1380,0,0
-406,-356,0,0,0,0,0,0,0,0,0,-1,818,1380,0,0
-399,-356,0,0,0,0,0,0,0,0,0,-1,825,1380,0,0
-392,-356,0,0,0,0,0,0,0,0,0,-1,832,1380,0,0
-385,-356,0,0,0,0,0,0,0,0,0,-1,839,1380,0,0
-378,-356,0,0,0,0,0,0,0,0,0,-1,846,1380,0,0
-371,-356,0,0,0,0,0,0,0,0,0,-1,853,1380,0,0
-364,-356,0,0,0,0,0,0,0,0,0,-1,860,1380,0,0
-357,-356,0,0,0,0,0,0,0,0,0,-1,867,1380,0,0
-350,-356,0,0,0,0,0,0,0,0,0,-1,874,1380,0,0
-343,-356,0,0,0,0,0,0,0,0,0,-1,881,1380,0,0
-336,-356,0,0,0,0,0,0,0,0,0,-1,888,1380,0,0
-329,-356,0,0,0,0,0,0,0,0,0,-1,895,1380,0,0
-322,-356,0,0,0,0,0,0,0,0,0,-1,902,1380,0,0
-315,-356,0,0,0,0,0,0,0,0,0,-1,909,1380,0,0
-308,-356,0,0,0,0,0,0,0,0,0,-1,916,1380,0,0
-301,-356,0,0,0,0,0,0,0,0,0,-1,923,1380,0,0
-294,-356,0,0,0,0,0,0,0,0,0,-1,930,1380,0,0
-287,-356,0,0,0,0,0,0,0,0,0,-1,937,1380,0,0
-280,-356,0,0,0,0,0,0,0,0,0,-1,944,1380,0,0
-273,-356,0,0,0,0,0,0,0,0,0,-1,951,1380,0,0
-266,-356,0,0,0,0,0,0,0,0,0,-1,958,1380,0,0
-259,-356,0,0,0,0,0,0,0,0,0,-1,965,1380,0,0
-252,-356,0,0,0,0,0,0,0,0,0,-1,972,1380,0,0
-245,-356,0,0,0,0,0,0,0,0,0,-1,979,1380,0,0
-238,-356,0,0,0,0,0,0,0,0,0,-1,986,1380,0,0
-231,-356,0,0,0,0,0,0,0,0,0,-1,993,1380,0,0
-224,-356,0,0,0,0,0,0,0,0,0,-1,1000,1380,0,0
-217,-356,0,0,0,0,0,0,0,0,0,-1,1007,1380,0,0
-210,-356,0,0,0,0,0,0,0,0,0,-1,1014,1380,0,0
-203,-356,0,0,0,0,0,0,0,0,0,-1,1021,1380,0,0
-196,-356,0,0,0,0,0,0,0,0,0,-1,1028,1380,0,0
-189,-356,0,0,0,0,0,0,0,0,0,-1,1035,1380,0,0
-182,-356,0,0,0,0,0,0,0,0,0,-1,1042,1380,0,0
-175,-356,0,0,0,0,0,0,0,0,0,-1,1049,1380,0,0
-168,-356,0,0,0,0,0,0,0,0,0,-1,1056,1380,0,0
-161,-356,0,0,0,0,0,0,0,0,0,-1,1063,1380,0,0
-154,-356,0,0,0,0,0,0,0,0,0,-1,1070,1380,0,0
-147,-356,0,0,0,0,0,0,0,0,0,-1,1077,1380,0,0
-140,-356,0,0,0,0,0,0,0,0,0,-1,1084,1380,0,0
-133,-356,0,0,0,0,0,0,0,0,0,-1,1091,1380,0,0
-126,-356,0,0,0,0,0,0,0,0,0,-1,1098,1380,0,0
-119,-356,0,0,0,0,0,0,0,0,0,-1,1105,1380,0,0
-112,-356,0,0,0,0,0,0,0,0,0,-1,1112,1380,0,0
-105,-356,0,0,0,0,0,0,0,0,0,-1,1119,1380,0,0
-98,-356,0,0,0,0,0,0,0,0,0,-1,1126,1380,0,0
-91,-356,0,0,0,0,0,0,0,0,0,-1,1133,1380,0,0
-84,-356,0,0,0,0,0,0,0,0,0,-1,1140,1380,0,0
-77,-356,0,0,0,0,0,0,0,0,0,-1,1147,1380,0,0
-70,-356,0,0,0,0,0,0,0,0,0,-1,1154,1380,0,0
-63,-356,0,0,0,0,0,0,0,0,0,-1,1161,1380,0,0
-56,-356,0,0,0,0,0,0,0,0,0,-1,1168,1380,0,0
-49,-356,0,0,0,0,0,0,0,0,0,-1,1175,1380,0,0
-42,-356,0,0,0,0,0,0,0,0,0,-1,1182,1380,0,0
-35,-356,0,0,0,0,0,0,0,0,0,-1,1189,1380,0,0
-28,-356,0,0,0,0,0,0,0,0,0,-1,1196,1380,0,0
-21,-356,0,0,0,0,0,0,0,0,0,-1,1203,1380,0,0
-14,-356,0,0,0,0,0,0,0,0,0,-1,1210,1380,0,0
-7,-356,0,0,0,0,0,0,0,0,0,-1,1217,1380,0,0
0,-356,0,0,0,0,0,0,0,0,0,-1,1224,1380,0,0
7,-356,0,0,0,0,0,0,0,0,0,-1,1231,1380,0,0
14,-356,0,0,0,0,0,0,0,0,0,-1,1238,1380,0,0
21,-356,0,0,0,0,0,0,0,0,0,-1,1245,1380,0,0
28,-356,0,0,0,0,0,0,0,0,0,-1,1252,1380,0,0
35,-356,0,0,0,0,0,0,0,0,0,-1,1259,1380,0,0
42,-356,0,0,0,0,0,0,0,0,0,-1,1266,1380,0,0
49,-356,0,0,0,0,0,0,0,0,0,-1,1273,1380,0,0
56,-356,0,0,0,0,0,0,0,0,0,-1,1280,1380,0,0
63,-356,0,0,0,0,0,0,0,0,0,-1,1287,1380,0,0
70,-356,0,0,0,0,0,0,0,0,0,-1,1294,1380,0,0
77,-356,0,0,0,0,0,0,0,0,0,-1,1301,1380,0,0
84,-356,0,0,0,0,0,0,0,0,0,-1,1308,1380,0,0
91,-356,0,0,0,0,0,0,0,0,0,-1,1315,1380,0,0
98,-356,0,0,0,0,0,0,0,0,0,-1,1322,1380,0,0
105,-356,0,0,0,0,0,0,0,0,0,-1,1329,1380,0,0
112,-356,0,0,0,0,0,0,0,0,0,-1,1336,1380,0,0
119,-356,0,0,0,0,0,0,0,0,0,-1,1343,1380,0,0
126,-356,0,0,0,0,0,0,0,0,0,-1,1350,1380,0,0
133,-356,0,0,0,0,0,0,0,0,0,-1,1357,1380,0,0
140,-356,0,0,0,0,0,0,0,0,0,-1,1364,1380,0,0
147,-356,0,0,0,0,0,0,0,0,0,-1,1371,1380,0,0
154,-356,0,0,0,0,0,0,0,0,0,-1,1378,1380,0,0
161,-356,0,0,0,0,0,0,0,0,0,-1,1385,1380,0,0
168,-356,0,0,0,0,0,0,0,0,0,-1,1392,1380,0,0
175,-356,0,0,0,0,0,0,0,0,0,-1,1399,1380,0,0
182,-356,0,0,0,0,0,0,0,0,0,-1,1406,1380,0,0
189,-356,0,0,0,0,0,0,0,0,0,-1,1413,1380,0,0
196,-356,0,0,0,0,0,0,0,0,0,-1,1420,1380,0,0
203,-356,0,0,0,0,0,0,0,0,0,-1,1427,1380,0,0
210,-356,0,0,0,0,0,0,0,0,0,-1,1434,1380,0,0
217,-356,0,0,0,0,0,0,0,0,0,-1,1441,1380,0,0
224,-356,0,0,0,0,0,0,0,0,0,-1,1448,1380,0,0
231,-356,0,0,0,0,0,0,0,0,0,-1,1455,1380,0,0
238,-356,0,0,0,0,0,0,0,0,0,-1,1462,1380,0,0
245,-356,0,0,0,0,0,0,0,0,0,-1,1469,1380,0,0
252,-356,0,0,0,0,0,0,0,0,0,-1,1476,1380,0,0
259,-356,0,0,0,0,0,0,0,0,0,-1,1483,1380,0,0
266,-356,0,0,0,0,0,0,0,0,0,-1,1490,1380,0,0
273,-356,0,0,0,0,0,0,0,0,0,-1,1497,1380,0,0
280,-356,0,0,0,0,0,0,0,0,0,-1,1504,1380,0,0
287,-356,0,0,0,0,0,0,0,0,0,-1,1511,1380,0,0
294,-356,0,0,0,0,0,0,0,0,0,-1,1518,1380,0,0
301,-356,0,0,0,0,0,0,0,0,0,-1,1525,1380,0,0
308,-356,0,0,0,0,0,0,0,0,0,-1,1532,1380,0,0
315,-356,0,0,0,0,0,0,0,0,0,-1,1539,1380,0,0
322,-356,0,0,0,0,0,0,0,0,0,-1,1546,1380,0,0
329,-356,0,0,0,0,0,0,0,0,0,-1,1553,1380,0,0
336,-356,0,0,0,0,0,0,0,0,0,-1,1560,1380,0,0
343,-356,0,0,0,0,0,0,0,0,0,-1,1567,1380,0,0
350,-356,0,0,0,0,0,0,0,0,0,-1,1574,1380,0,0
357,-356,0,0,0,0,0,0,0,0,0,-1,1581,1380,0,0
364,-356,0,0,0,0,0,0,0,0,0,-1,1588,1380,0,0
371,-356,0,0,0,0,0,0,0,0,0,-1,1595,1380,0,0
378,-356,0,0,0,0,0,0,0,0,0,-1,1602,1380,0,0
385,-356,0,0,0,0,0,0,0,0,0,-1,1609,1380,0,0
392,-356,0,0,0,0,0,0,0,0,0,-1,1616,1380,0,0
399,-356,0,0,0,0,0,0,0,0,0,-1,1623,1380,0,0
406,-356,0,0,0,0,0,0,0,0,0,-1,1630,1380,0,0
413,-356,0,0,0,0,0,0,0,0,0,-1,1637,1380,0,0
420,-356,0,0,0,0,0,0,0,0,0,-1,1644,1380,0,0
427,-356,0,0,0,0,0,0,0,0,0,-1,1651,1380,0,0
434,-356,0,0,0,0,0,0,0,0,0,-1,1658,1380,0,0
441,-356,0,0,0,0,0,0,0,0,0,-1,1665,1380,0,0
448,-356,0,0,0,0,0,0,0,0,0,-1,1672,1380,0,0
455,-356,0,0,0,0,0,0,0,0,0,-1,1679,1380,0,0
462,-356,0,0,0,0,0,0,0,0,0,-1,1686,1380,0,0
469,-356,0,0,0,0,0,0,0,0,0,-1,1693,1380,0,0
476,-356,0,0,0,0,0,0,0,0,0,-1,1700,1380,0,0
483,-356,0,0,0,0,0,0,0,0,0,-1,1707,1380,0,0
490,-356,0,0,0,0,0,0,0,0,0,-1,1714,1380,0,0
497,-356,0,0,0,0,0,0,0,0,0,-1,1721,1380,0,0
504,-356,0,0,0,0,0,0,0,0,0,-1,1728,1380,0,0
511,-356,0,0,0,0,0,0,0,0,0,-1,1735,1380,0,0
518,-356,0,0,0,0,0,0,0,0,0,-1,1742,1380,0,0
525,-356,0,0,0,0,0,0,0,0,0,-1,1749,1380,0,0
532,-356,0,0,0,0,0,0,0,0,0,-1,1756,1380,0,0
539,-356,0,0,0,0,0,0,0,0,0,-1,1763,1380,0,0
546,-356,0,0,0,0,0,0,0,0,0,-1,1770,1380,0,0
553,-356,0,0,0,0,0,0,0,0,0,-1,1777,1380,0,0
560,-356,14.833,5.50867,-0.00155246,0.142541,0.00108341,0.142549,-0.00156061,1.56328,0.0955571,0.0472765,1784,1380,14.833,-5.50864
567,-356,14.3867,5.58252,-0.00573079,0.116255,0.00461809,0.116429,-0.00590537,1.53301,0.0796609,0.0487625,1791,1380,14.3867,-5.58246
574,-356,13.97,5.35205,-0.00913015,0.0890782,0.00868024,0.0898395,-0.00989146,1.48331,0.0634477,0.0478647,1798,1380,13.97,-5.35206
581,-356,13.8413,4.58472,0,0,0,0,0,0,0,-1,1805,1380,13.8414,-4.58476
588,-356,12.9647,1.87158,0,0,0,0,0,0,0,-1,1812,1380,12.9647,-1.87161
595,-356,10.0985,4.64539,0,0,0,0,0,0,0,-1,1819,1380,10.0986,-4.64543
602,-356,10.1703,4.23401,-0.0115107,0.0136975,0.0194332,0.0242561,-0.0220693,1.07309,0.0267559,0.0437838,1826,1380,10.1703,-4.23395
609,-356,10.0836,4.10181,-0.0106133,0.00411335,0.0199901,0.0180532,-0.0245531,0.961861,0.024694,0.0408318,1833,1380,10.0836,-4.10175
616,-356,10.4615,4.19897,-0.00848047,-0.00331141,0.0194969,0.0137716,-0.0255634,0.851294,0.0230477,0.0399426,1840,1380,10.4616,-4.19901
623,-356,10.7113,4.40039,-0.00674198,-0.00814257,0.0181523,0.0107235,-0.0256081,0.766118,0.0215549,0.0409617,1847,1380,10.7114,-4.40035
630,-356,10.9854,4.59143,-0.00510661,-0.0104092,0.016139,0.00859741,-0.0241132,0.703986,0.0195809,0.0408078,1854,1380,10.9853,-4.59146
637,-356,10.8575,4.80933,-0.00380139,-0.00902118,0.0134203,0.00726044,-0.020083,0.68936,0.0163551,0.0326882,1861,1380,10.8576,-4.80936
644,-356,10.8123,4.96375,-0.00256949,-0.00687945,0.0106963,0.00618672,-0.0156357,0.685994,0.0129869,0.0210622,1868,1380,10.8123,-4.96378
651,-356,10.8296,4.7417,-0.00186387,-0.00464782,0.0081006,0.00496348,-0.0114752,0.700311,0.0097359,0.0152551,1875,1380,10.8296,-4.74171
658,-356,10.8047,4.58789,-0.00148686,-0.00258342,0.00616535,0.00415454,-0.00822483,0.74105,0.00727487,0.0138789,1882,1380,10.8046,-4.58794
665,-356,10.8177,4.47302,-0.00130023,-0.00180939,0.00425377,0.00270657,-0.0058162,0.75551,0.00502861,0.0134049,1889,1380,10.8177,-4.47297
672,-356,10.8008,4.349,-0.000629235,-0.00144215,0.00265502,0.00165026,-0.00372165,0.709442,0.0031774,0.0142946,1896,1380,10.8008,-4.34906
679,-356,10.7915,4.20667,0.000737655,-0.00137156,0.00105003,0.00117126,-0.00180517,0.391612,0.00173138,0.0158554,1903,1380,10.7915,-4.20668
686,-356,10.8138,4.09375,0.00279067,-0.00227223,-0.000445789,0.00282962,-0.00231118,-0.0871566,0.00297307,0.0137089,1910,1380,10.8138,-4.09374
693,-356,10.8472,3.96387,0.00547591,-0.00343668,-0.00169014,0.00578566,-0.00374642,-0.181254,0.00554517,0.0121543,1917,1380,10.8471,-3.96384
700,-356,10.8352,3.7887,0.00820605,-0.00477762,-0.00306323,0.00889246,-0.00546404,-0.220441,0.00836714,0.0177294,1924,1380,10.8352,-3.78864
707,-356,10.8607,3.51514,0.0115549,-0.00677703,-0.0047317,0.0127042,-0.00792629,-0.238271,0.012017,0.0297684,1931,1380,10.8607,-3.5151
714,-356,10.7877,3.07764,0,0,0,0,0,0,0,-1,1938,1380,10.7877,-3.07766
721,-356,11.2976,3.22034,0.0203899,-0.0127688,-0.00942996,0.0228841,-0.0152629,-0.258572,0.0221702,0.0460179,1945,1380,11.2976,-3.22037
728,-356,11.9027,3.47852,0.0259683,-0.0167483,-0.0125191,0.0293669,-0.0201469,-0.265085,0.0287515,0.0457432,1952,1380,11.9028,-3.47853
735,-356,11.754,3.39221,0.0321381,-0.0212937,-0.0160074,0.0365666,-0.0257223,-0.269905,0.0361437,0.0466847,1959,1380,11.754,-3.39224
742,-356,12.2675,3.42578,0.0387374,-0.0261673,-0.01977,0.0442851,-0.031715,-0.273578,0.0440783,0.0485445,1966,1380,12.2674,-3.42582
749,-356,12.8143,3.45264,0,0,0,0,0,0,0,-1,1973,1380,12.8144,-3.45269
756,-356,0,0,0,0,0,0,0,0,0,-1,1980,1380,0,0
763,-356,0,0,0,0,0,0,0,0,0,-1,1987,1380,0,0
770,-356,0,0,0,0,0,0,0,0,0,-1,1994,1380,0,0
777,-356,0,0,0,0,0,0,0,0,0,-1,2001,1380,0,0
784,-356,0,0,0,0,0,0,0,0,0,-1,2008,1380,0,0
791,-356,0,0,0,0,0,0,0,0,0,-1,2015,1380,0,0
798,-356,0,0,0,0,0,0,0,0,0,-1,2022,1380,0,0
805,-356,0,0,0,0,0,0,0,0,0,-1,2029,1380,0,0
812,-356,0,0,0,0,0,0,0,0,0,-1,2036,1380,0,0
-700,-363,0,0,0,0,0,0,0,0,0,-1,524,1387,0,0
-693,-363,0,0,0,0,0,0,0,0,0,-1,531,1387,0,0
-686,-363,0,0,0,0,0,0,0,0,0,-1,538,1387,0,0
-679,-363,0,0,0,0,0,0,0,0,0,-1,545,1387,0,0
-672,-363,0,0,0,0,0,0,0,0,0,-1,552,1387,0,0
-665,-363,0,0,0,0,0,0,0,0,0,-1,559,1387,0,0
-658,-363,0,0,0,0,0,0,0,0,0,-1,566,1387,0,0
-651,-363,0,0,0,0,0,0,0,0,0,-1,573,1387,0,0
-644,-363,0,0,0,0,0,0,0,0,0,-1,580,1387,0,0
-637,-363,0,0,0,0,0,0,0,0,0,-1,587,1387,0,0
-630,-363,0,0,0,0,0,0,0,0,0,-1,594,1387,0,0
-623,-363,-6.14862,-4.95691,0,0,0,0,0,0,0,-1,601,1387,-6.14861,4.95691
-616,-363,-5.12665,-3.2052,0,0,0,0,0,0,0,-1,608,1387,-5.12663,3.20514
-609,-363,-5.17102,-0.249756,0,0,0,0,0,0,0,-1,615,1387,-5.17099,0.249801
-602,-363,-3.06714,0.0462646,0,0,0,0,0,0,0,-1,622,1387,-3.06717,-0.0462526
-595,-363,-3.04065,0.442505,0.0241422,0.0276807,0.035895,0.06185,-0.0100272,0.810023,0.0449501,0.047933,629,1387,-3.04064,-0.442448
-588,-363,-3.24658,1.08276,0,0,0,0,0,0,0,-1,636,1387,-3.24658,-1.08282
-581,-363,-3.51379,1.43323,0.00977109,0.0138773,0.0182055,0.0301451,-0.00649673,0.841548,0.0225761,0.0393734,643,1387,-3.51377,-1.43327
-574,-363,-3.76031,1.76233,0.00572592,0.00919244,0.0124053,0.019985,-0.00506664,0.854808,0.0152946,0.0306923,650,1387,-3.76032,-1.76238
-567,-363,-3.89386,1.97656,0.00236629,0.00584739,0.00745946,0.0117667,-0.003553,0.900015,0.00925888,0.0179458,657,1387,-3.89389,-1.97661
-560,-363,-3.89667,2.13245,0.000423362,0.0035538,0.00406549,0.00634496,-0.0023678,0.969153,0.00520208,0.0127949,664,1387,-3.89665,-2.13247
-553,-363,-3.9007,2.2926,-0.000892036,0.00146929,0.00147348,0.00217678,-0.00159952,1.12316,0.00218872,0.0129475,671,1387,-3.90072,-2.29261
-546,-363,-3.88702,2.44666,-0.00125455,0.000132809,-0.000357976,0.000219731,-0.00134147,-1.33259,0.000975839,0.0120015,678,1387,-3.88702,-2.44669
-539,-363,-3.86487,2.60034,-0.00169968,-0.000776906,-0.0018351,0.000653921,-0.0031305,-0.908556,0.00233569,0.0133604,685,1387,-3.86488,-2.60031
-532,-363,-3.88867,2.80005,-0.00223117,-0.00176449,-0.00307382,0.00108484,-0.0050805,-0.823281,0.00380058,0.0124394,692,1387,-3.88866,-2.80009
-525,-363,-3.88287,2.97412,-0.0030777,-0.0032603,-0.00414819,0.000980195,-0.0073182,-0.774396,0.0052362,0.0101021,699,1387,-3.88286,-2.97408
-518,-363,-3.86792,3.13672,-0.00439838,-0.00453078,-0.00554962,0.00108544,-0.0100146,-0.779434,0.00706605,0.00879292,706,1387,-3.86795,-3.13671
-511,-363,-3.85358,3.31921,-0.00649931,-0.00629567,-0.00736019,0.000963405,-0.0137584,-0.792315,0.00950967,0.0139235,713,1387,-3.85358,-3.3192
-504,-363,-3.78802,3.49561,-0.00987966,-0.00833006,-0.0096372,0.000563431,-0.0187732,-0.82551,0.0127074,0.0293039,720,1387,-3.78804,-3.49562
-497,-363,-3.6438,3.26978,-0.0146081,-0.010822,-0.0123492,-0.000221648,-0.0252085,-0.861453,0.0167323,0.0416796,727,1387,-3.64377,-3.26981
-490,-363,-3.6427,3.10559,-0.0208563,-0.0137011,-0.0153188,-0.00154761,-0.0330097,-0.900114,0.0215092,0.0430142,734,1387,-3.64273,-3.10557
-483,-363,-4.42163,2.88477,-0.0287635,-0.016701,-0.0182873,-0.00347609,-0.0419884,-0.944683,0.0269085,0.0422857,741,1387,-4.42162,-2.88475
-476,-363,-4.62677,2.68091,0,0,0,0,0,0,0,-1,748,1387,-4.62675,-2.68094
-469,-363,-4.48944,2.59448,0,0,0,0,0,0,0,-1,755,1387,-4.48945,-2.59453
-462,-363,-7.466,-0.0045166,0,0,0,0,0,0,0,-1,762,1387,-7.46602,0.00457337
-455,-363,-8.79797,-1.67444,0,0,0,0,0,0,0,-1,769,1387,-8.79797,1.67438
-448,-363,-9.2793,-2.43274,0,0,0,0,0,0,0,-1,776,1387,-9.27928,2.43271
-441,-363,-10.1223,-2.94299,0,0,0,0,0,0,0,-1,783,1387,-10.1223,2.94298
-434,-363,-4.94177,-0.313965,0,0,0,0,0,0,0,-1,790,1387,-4.94176,0.313987
-427,-363,0,0,0,0,0,0,0,0,0,-1,797,1387,0,0
-420,-363,0,0,0,0,0,0,0,0,0,-1,804,1387,0,0
-413,-363,0,0,0,0,0,0,0,0,0,-1,811,1387,0,0
-406,-363,0,0,0,0,0,0,0,0,0,-1,818,1387,0,0
-399,-363,0,0,0,0,0,0,0,0,0,-1,825,1387,0,0
-392,-363,0,0,0,0,0,0,0,0,0,-1,832,1387,0,0
-385,-363,0,0,0,0,0,0,0,0,0,-1,839,1387,0,0
-378,-363,0,0,0,0,0,0,0,0,0,-1,846,1387,0,0
-371,-363,0,0,0,0,0,0,0,0,0,-1,853,1387,0,0
-364,-363,0,0,0,0,0,0,0,0,0,-1,860,1387,0,0
-357,-363,0,0,0,0,0,0,0,0,0,-1,867,1387,0,0
-350,-363,0,0,0,0,0,0,0,0,0,-1,874,1387,0,0
-343,-363,0,0,0,0,0,0,0,0,0,-1,881,1387,0,0
-336,-363,0,0,0,0,0,0,0,0,0,-1,888,1387,0,0
-329,-363,0,0,0,0,0,0,0,0,0,-1,895,1387,0,0
-322,-363,0,0,0,0,0,0,0,0,0,-1,902,1387,0,0
-315,-363,0,0,0,0,0,0,0,0,0,-1,909,1387,0,0
-308,-363,0,0,0,0,0,0,0,0,0,-1,916,1387,0,0
-301,-363,0,0,0,0,0,0,0,0,0,-1,923,1387,0,0
-294,-363,0,0,0,0,0,0,0,0,0,-1,930,1387,0,0
-287,-363,0,0,0,0,0,0,0,0,0,-1,937,1387,0,0
-280,-363,0,0,0,0,0,0,0,0,0,-1,944,1387,0,0
-273,-363,0,0,0,0,0,0,0,0,0,-1,951,1387,0,0
-266,-363,0,0,0,0,0,0,0,0,0,-1,958,1387,0,0
-259,-363,0,0,0,0,0,0,0,0,0,-1,965,1387,0,0
-252,-363,0,0,0,0,0,0,0,0,0,-1,972,1387,0,0
-245,-363,0,0,0,0,0,0,0,0,0,-1,979,1387,0,0
-238,-363,0,0,0,0,0,0,0,0,0,-1,986,1387,0,0
-231,-363,0,0,0,0,0,0,0,0,0,-1,993,1387,0,0
-224,-363,0,0,0,0,0,0,0,0,0,-1,1000,1387,0,0
-217,-363,0,0,0,0,0,0,0,0,0,-1,1007,1387,0,0
-210,-363,0,0,0,0,0,0,0,0,0,-1,1014,1387,0,0
-203,-363,0,0,0,0,0,0,0,0,0,-1,1021,1387,0,0
-196,-363,0,0,0,0,0,0,0,0,0,-1,1028,1387,0,0
-189,-363,0,0,0,0,0,0,0,0,0,-1,1035,1387,0,0
-182,-363,0,0,0,0,0,0,0,0,0,-1,1042,1387,0,0
-175,-363,0,0,0,0,0,0,0,0,0,-1,1049,1387,0,0
-168,-363,0,0,0,0,0,0,0,0,0,-1,1056,1387,0,0
-161,-363,0,0,0,0,0,0,0,0,0,-1,1063,1387,0,0
-154,-363,0,0,0,0,0,0,0,0,0,-1,1070,1387,0,0
-147,-363,0,0,0,0,0,0,0,0,0,-1,1077,1387,0,0
-140,-363,0,0,0,0,0,0,0,0,0,-1,1084,1387,0,0
-133,-363,0,0,0,0,0,0,0,0,0,-1,1091,1387,0,0
-126,-363,0,0,0,0,0,0,0,0,0,-1,1098,1387,0,0
-119,-363,0,0,0,0,0,0,0,0,0,-1,1105,1387,0,0
-112,-363,0,0,0,0,0,0,0,0,0,-1,1112,1387,0,0
-105,-363,0,0,0,0,0,0,0,0,0,-1,1119,1387,0,0
-98,-363,0,0,0,0,0,0,0,0,0,-1,1126,1387,0,0
-91,-363,0,0,0,0,0,0,0,0,0,-1,1133,1387,0,0
-84,-363,0,0,0,0,0,0,0,0,0,-1,1140,1387,0,0
-77,-363,0,0,0,0,0,0,0,0,0,-1,1147,1387,0,0
-70,-363,0,0,0,0,0,0,0,0,0,-1,1154,1387,0,0
-63,-363,0,0,0,0,0,0,0,0,0,-1,1161,1387,0,0
-56,-363,0,0,0,0,0,0,0,0,0,-1,1168,1387,0,0
-49,-363,0,0,0,0,0,0,0,0,0,-1,1175,1387,0,0
-42,-363,0,0,0,0,0,0,0,0,0,-1,1182,1387,0,0
-35,-363,0,0,0,0,0,0,0,0,0,-1,1189,1387,0,0
-28,-363,0,0,0,0,0,0,0,0,0,-1,1196,1387,0,0
-21,-363,0,0,0,0,0,0,0,0,0,-1,1203,1387,0,0
-14,-363,0,0,0,0,0,0,0,0,0,-1,1210,1387,0,0
-7,-363,0,0,0,0,0,0,0,0,0,-1,1217,1387,0,0
0,-363,0,0,0,0,0,0,0,0,0,-1,1224,1387,0,0
7,-363,0,0,0,0,0,0,0,0,0,-1,1231,1387,0,0
14,-363,0,0,0,0,0,0,0,0,0,-1,1238,1387,0,0
21,-363,0,0,0,0,0,0,0,0,0,-1,1245,1387,0,0
28,-363,0,0,0,0,0,0,0,0,0,-1,1252,1387,0,0
35,-363,0,0,0,0,0,0,0,0,0,-1,1259,1387,0,0
42,-363,0,0,0,0,0,0,0,0,0,-1,1266,1387,0,0
49,-363,0,0,0,0,0,0,0,0,0,-1,1273,1387,0,0
56,-363,0,0,0,0,0,0,0,0,0,-1,1280,1387,0,0
63,-363,0,0,0,0,0,0,0,0,0,-1,1287,1387,0,0
70,-363,0,0,0,0,0,0,0,0,0,-1,1294,1387,0,0
77,-363,0,0,0,0,0,0,0,0,0,-1,1301,1387,0,0
84,-363,0,0,0,0,0,0,0,0,0,-1,1308,1387,0,0
91,-363,0,0,0,0,0,0,0,0,0,-1,1315,1387,0,0
98,-363,0,0,0,0,0,0,0,0,0,-1,1322,1387,0,0
105,-363,0,0,0,0,0,0,0,0,0,-1,1329,1387,0,0
112,-363,0,0,0,0,0,0,0,0,0,-1,1336,1387,0,0
119,-363,0,0,0,0,0,0,0,0,0,-1,1343,1387,0,0
126,-363,0,0,0,0,0,0,0,0,0,-1,1350,1387,0,0
133,-363,0,0,0,0,0,0,0,0,0,-1,1357,1387,0,0
140,-363,0,0,0,0,0,0,0,0,0,-1,1364,1387,0,0
147,-363,0,0,0,0,0,0,0,0,0,-1,1371,1387,0,0
154,-363,0,0,0,0,0,0,0,0,0,-1,1378,1387,0,0
161,-363,0,0,0,0,0,0,0,0,0,-1,1385,1387,0,0
168,-363,0,0,0,0,0,0,0,0,0,-1,1392,1387,0,0
175,-363,0,0,0,0,0,0,0,0,0,-1,1399,1387,0,0
182,-363,0,0,0,0,0,0,0,0,0,-1,1406,1387,0,0
189,-363,0,0,0,0,0,0,0,0,0,-1,1413,1387,0,0
196,-363,0,0,0,0,0,0,0,0,0,-1,1420,1387,0,0
203,-363,0,0,0,0,0,0,0,0,0,-1,1427,1387,0,0
210,-363,0,0,0,0,0,0,0,0,0,-1,1434,1387,0,0
217,-363,0,0,0,0,0,0,0,0,0,-1,1441,1387,0,0
224,-363,0,0,0,0,0,0,0,0,0,-1,1448,1387,0,0
231,-363,0,0,0,0,0,0,0,0,0,-1,1455,1387,0,0
238,-363,0,0,0,0,0,0,0,0,0,-1,1462,1387,0,0
245,-363,0,0,0,0,0,0,0,0,0,-1,1469,1387,0,0
252,-363,0,0,0,0,0,0,0,0,0,-1,1476,1387,0,0
259,-363,0,0,0,0,0,0,0,0,0,-1,1483,1387,0,0
266,-363,0,0,0,0,0,0,0,0,0,-1,1490,1387,0,0
273,-363,0,0,0,0,0,0,0,0,0,-1,1497,1387,0,0
280,-363,0,0,0,0,0,0,0,0,0,-1,1504,1387,0,0
287,-363,0,0,0,0,0,0,0,0,0,-1,1511,1387,0,0
294,-363,0,0,0,0,0,0,0,0,0,-1,1518,1387,0,0
301,-363,0,0,0,0,0,0,0,0,0,-1,1525,1387,0,0
308,-363,0,0,0,0,0,0,0,0,0,-1,1532,1387,0,0
315,-363,0,0,0,0,0,0,0,0,0,-1,1539,1387,0,0
322,-363,0,0,0,0,0,0,0,0,0,-1,1546,1387,0,0
329,-363,0,0,0,0,0,0,0,0,0,-1,1553,1387,0,0
336,-363,0,0,0,0,0,0,0,0,0,-1,1560,1387,0,0
343,-363,0,0,0,0,0,0,0,0,0,-1,1567,1387,0,0
350,-363,0,0,0,0,0,0,0,0,0,-1,1574,1387,0,0
357,-363,0,0,0,0,0,0,0,0,0,-1,1581,1387,0,0
364,-363,0,0,0,0,0,0,0,0,0,-1,1588,1387,0,0
371,-363,0,0,0,0,0,0,0,0,0,-1,1595,1387,0,0
378,-363,0,0,0,0,0,0,0,0,0,-1,1602,1387,0,0
385,-363,0,0,0,0,0,0,0,0,0,-1,1609,1387,0,0
392,-363,0,0,0,0,0,0,0,0,0,-1,1616,1387,0,0
399,-363,0,0,0,0,0,0,0,0,0,-1,1623,1387,0,0
406,-363,0,0,0,0,0,0,0,0,0,-1,1630,1387,0,0
413,-363,0,0,0,0,0,0,0,0,0,-1,1637,1387,0,0
420,-363,0,0,0,0,0,0,0,0,0,-1,1644,1387,0,0
427,-363,0,0,0,0,0,0,0,0,0,-1,1651,1387,0,0
434,-363,0,0,0,0,0,0,0,0,0,-1,1658,1387,0,0
441,-363,0,0,0,0,0,0,0,0,0,-1,1665,1387,0,0
448,-363,0,0,0,0,0,0,0,0,0,-1,1672,1387,0,0
455,-363,0,0,0,0,0,0,0,0,0,-1,1679,1387,0,0
462,-363,0,0,0,0,0,0,0,0,0,-1,1686,1387,0,0
469,-363,0,0,0,0,0,0,0,0,0,-1,1693,1387,0,0
476,-363,0,0,0,0,0,0,0,0,0,-1,1700,1387,0,0
483,-363,0,0,0,0,0,0,0,0,0,-1,1707,1387,0,0
490,-363,0,0,0,0,0,0,0,0,0,-1,1714,1387,0,0
497,-363,0,0,0,0,0,0,0,0,0,-1,1721,1387,0,0
504,-363,0,0,0,0,0,0,0,0,0,-1,1728,1387,0,0
511,-363,0,0,0,0,0,0,0,0,0,-1,1735,1387,0,0
518,-363,0,0,0,0,0,0,0,0,0,-1,1742,1387,0,0
525,-363,0,0,0,0,0,0,0,0,0,-1,1749,1387,0,0
532,-363,0,0,0,0,0,0,0,0,0,-1,1756,1387,0,0
539,-363,0,0,0,0,0,0,0,0,0,-1,1763,1387,0,0
546,-363,0,0,0,0,0,0,0,0,0,-1,1770,1387,0,0
553,-363,14.1563,5.63489,0,0,0,0,0,0,0,-1,1777,1387,14.1563,-5.63484
560,-363,14.1563,5.22534,0.00810087,0.119415,0.00772815,0.119949,0.0075669,1.50181,0.0775668,0.0463462,1784,1387,14.1563,-5.22529
567,-363,13.9464,4.88647,-0.00182964,0.0947084,0.011205,0.0959919,-0.00311312,1.45675,0.0650571,0.0445959,1791,1387,13.9464,-4.88646
574,-363,13.5938,4.20923,-0.00859537,0.0701229,0.0145661,0.0727317,-0.0112042,1.39357,0.0526217,0.0425905,1798,1387,13.5937,-4.20921
581,-363,13.4922,3.96155,-0.0117104,0.0485433,0.0177129,0.0533646,-0.0165317,1.30504,0.042181,0.0405757,1805,1387,13.4922,-3.9616
588,-363,13.2028,3.65002,0,0,0,0,0,0,0,-1,1812,1387,13.2027,-3.64999
595,-363,12.8423,3.32068,0,0,0,0,0,0,0,-1,1819,1387,12.8423,-3.32067
602,-363,10.0878,3.97339,0,0,0,0,0,0,0,-1,1826,1387,10.0878,-3.97345
609,-363,10.2068,4.04187,-0.0129881,-0.00455542,0.0215225,0.0131599,-0.0307034,0.882125,0.0259909,0.0489136,1833,1387,10.2068,-4.04188
616,-363,10.3621,4.15723,-0.0103837,-0.0105838,0.0204632,0.00997974,-0.0309472,0.782953,0.0246412,0.0448075,1840,1387,10.3621,-4.15728
623,-363,10.5529,4.4967,-0.00823712,-0.0140343,0.0185094,0.00759923,-0.0298706,0.707728,0.0228716,0.040476,1847,1387,10.5528,-4.49666
630,-363,10.7386,4.78821,-0.00592322,-0.0149693,0.0158807,0.006066,-0.0269585,0.646665,0.0202987,0.0317865,1854,1387,10.7387,-4.78824
637,-363,10.574,4.99536,-0.00386178,-0.0124194,0.0126935,0.00525471,-0.0215359,0.622837,0.016392,0.0238715,1861,1387,10.574,-4.9954
644,-363,10.6652,4.94739,-0.00219269,-0.00928106,0.00984091,0.00472279,-0.0161965,0.612555,0.0126689,0.0112856,1868,1387,10.6651,-4.94744
651,-363,10.687,4.7738,-0.0012432,-0.00624701,0.00722755,0.00390323,-0.0113934,0.618772,0.00917767,0.0103021,1875,1387,10.687,-4.77382
658,-363,10.6899,4.60706,-0.000730849,-0.00361322,0.00535566,0.00337415,-0.00771822,0.653964,0.00656584,0.0110008,1882,1387,10.69,-4.60707
665,-363,10.6692,4.4845,-0.00057539,-0.00242725,0.00364107,0.00225564,-0.00525828,0.660887,0.00445212,0.011038,1889,1387,10.6692,-4.48453
672,-363,10.6614,4.34937,-3.28937e-05,-0.00182784,0.0022955,0.00153434,-0.00339507,0.599049,0.0029128,0.0128539,1896,1387,10.6614,-4.34942
679,-363,10.6531,4.20117,0.00119117,-0.00176417,0.000902768,0.00144512,-0.00201812,0.274213,0.0020086,0.0142783,1903,1387,10.6531,-4.20112
686,-363,10.6731,4.08521,0.00317977,-0.00289885,-0.000408565,0.00320711,-0.00292618,-0.0668129,0.0035423,0.0139565,1910,1387,10.6731,-4.08518
693,-363,10.691,3.94519,0.00591896,-0.00442451,-0.0015795,0.00615478,-0.00466034,-0.148207,0.00626395,0.0130204,1917,1387,10.6911,-3.94525
700,-363,10.7244,3.75867,0.008795,-0.00629838,-0.00296748,0.00935747,-0.00686084,-0.187322,0.00940056,0.0172466,1924,1387,10.7244,-3.7587
707,-363,10.7108,3.52527,0.012406,-0.00903111,-0.00474669,0.01341,-0.0100351,-0.208445,0.0135827,0.0301995,1931,1387,10.7109,-3.52523
714,-363,10.7714,3.27856,0.0168613,-0.0126278,-0.00707778,0.0184721,-0.0142386,-0.223771,0.0189382,0.045294,1938,1387,10.7714,-3.27853
721,-363,10.9458,3.00549,0,0,0,0,0,0,0,-1,1945,1387,10.9458,-3.0055
728,-363,11.6582,3.69055,0,0,0,0,0,0,0,-1,1952,1387,11.6582,-3.69055
735,-363,12.0818,3.7196,0.0355223,-0.0288514,-0.0176528,0.0400454,-0.0333744,-0.250826,0.0424472,0.0433924,1959,1387,12.0818,-3.71964
742,-363,12.5081,3.75195,0.0430909,-0.0357876,-0.0221815,0.0489007,-0.0415973,-0.256165,0.0523057,0.0457894,1966,1387,12.508,-3.7519
749,-363,0,0,0,0,0,0,0,0,0,-1,1973,1387,0,0
756,-363,0,0,0,0,0,0,0,0,0,-1,1980,1387,0,0
763,-363,0,0,0,0,0,0,0,0,0,-1,1987,1387,0,0
770,-363,0,0,0,0,0,0,0,0,0,-1,1994,1387,0,0
777,-363,0,0,0,0,0,0,0,0,0,-1,2001,1387,0,0
784,-363,0,0,0,0,0,0,0,0,0,-1,2008,1387,0,0
791,-363,0,0,0,0,0,0,0,0,0,-1,2015,1387,0,0
798,-363,0,0,0,0,0,0,0,0,0,-1,2022,1387,0,0
805,-363,0,0,0,0,0,0,0,0,0,-1,2029,1387,0,0
812,-363,0,0,0,0,0,0,0,0,0,-1,2036,1387,0,0
-700,-370,0,0,0,0,0,0,0,0,0,-1,524,1394,0,0
-693,-370,0,0,0,0,0,0,0,0,0,-1,531,1394,0,0
-686,-370,0,0,0,0,0,0,0,0,0,-1,538,1394,0,0
-679,-370,0,0,0,0,0,0,0,0,0,-1,545,1394,0,0
-672,-370,0,0,0,0,0,0,0,0,0,-1,552,1394,0,0
-665,-370,0,0,0,0,0,0,0,0,0,-1,559,1394,0,0
-658,-370,0,0,0,0,0,0,0,0,0,-1,566,1394,0,0
-651,-370,0,0,0,0,0,0,0,0,0,-1,573,1394,0,0
-644,-370,0,0,0,0,0,0,0,0,0,-1,580,1394,0,0
-637,-370,0,0,0,0,0,0,0,0,0,-1,587,1394,0,0
-630,-370,0,0,0,0,0,0,0,0,0,-1,594,1394,0,0
-623,-370,-7.05371,-5.65344,0,0,0,0,0,0,0,-1,601,1394,-7.0537,5.65347
-616,-370,-6.74524,-0.641968,0,0,0,0,0,0,0,-1,608,1394,-6.74526,0.642007
-609,-370,-5.63794,-0.293945,0.0521569,0.0437099,0.0638521,0.111925,-0.0160582,0.752374,0.0805051,0.0421329,615,1394,-5.63794,0.293989
-602,-370,-4.60345,0.112183,0,0,0,0,0,0,0,-1,622,1394,-4.60347,-0.11213
-595,-370,-3.85913,0.375,0,0,0,0,0,0,0,-1,629,1394,-3.85913,-0.375011
-588,-370,-3.12292,1.35022,0,0,0,0,0,0,0,-1,636,1394,-3.12292,-1.35018
-581,-370,-3.89917,2.16626,0,0,0,0,0,0,0,-1,643,1394,-3.89914,-2.16623
-574,-370,-3.77582,2.14136,0.00574381,0.00836308,0.0135772,0.0206937,-0.0065868,0.833478,0.0164374,0.0370606,650,1394,-3.7758,-2.14138
-567,-370,-3.68042,2.02209,0.00194093,0.00539447,0.00809981,0.0119495,-0.00461413,0.890419,0.00987068,0.0210402,657,1394,-3.6804,-2.02205
-560,-370,-3.73462,2.12305,-0.000167986,0.0033643,0.00444143,0.00637786,-0.00318154,0.974638,0.00562102,0.0141408,664,1394,-3.73462,-2.1231
-553,-370,-3.73889,2.28296,-0.00160302,0.00148193,0.00172999,0.00225723,-0.00237833,1.14948,0.00267665,0.0109176,671,1394,-3.73888,-2.28298
-546,-370,-3.70966,2.44165,-0.00176235,0.00032472,-5.28328e-05,0.000326057,-0.00176368,-1.5455,0.0012982,0.0133477,678,1394,-3.70965,-2.44169
-539,-370,-3.67487,2.61841,-0.00202455,-0.000529417,-0.001546,0.000440273,-0.00299424,-1.0106,0.00215794,0.0160527,685,1394,-3.67487,-2.61845
-532,-370,-3.69836,2.83459,-0.00230429,-0.00151015,-0.00278182,0.000902791,-0.00471724,-0.856288,0.00348495,0.0196532,692,1394,-3.69833,-2.83461
-525,-370,-3.70612,2.97498,-0.00270288,-0.00298691,-0.00374482,0.00090262,-0.00659241,-0.766446,0.00472464,0.0129908,699,1394,-3.70609,-2.97492
-518,-370,-3.70551,3.10474,-0.003547,-0.00418664,-0.00496948,0.00111294,-0.00884659,-0.753264,0.00630155,0.00965983,706,1394,-3.70549,-3.10472
-511,-370,-3.7016,3.28259,-0.00497312,-0.00595939,-0.00656631,0.00111855,-0.0120511,-0.747918,0.00843166,0.0132646,713,1394,-3.70157,-3.28259
-504,-370,-3.67041,3.49255,-0.00752263,-0.00794495,-0.00869432,0.000963095,-0.0164307,-0.773257,0.0112885,0.0207092,720,1394,-3.67041,-3.49253
-497,-370,-3.48419,3.63538,-0.0111754,-0.0104718,-0.0113716,0.000553391,-0.0222007,-0.800862,0.0149883,0.0397055,727,1394,-3.4842,-3.63541
-490,-370,-3.71698,3.36658,-0.0160507,-0.0136169,-0.0146214,-0.000161889,-0.0295058,-0.826916,0.0196168,0.0420346,734,1394,-3.71699,-3.36661
-483,-370,-4.1275,3.09509,-0.0222401,-0.0170405,-0.0182867,-0.00116976,-0.0381108,-0.856009,0.0250264,0.0440301,741,1394,-4.1275,-3.09514
-476,-370,-4.46796,2.95215,0,0,0,0,0,0,0,-1,748,1394,-4.46797,-2.95218
-469,-370,-4.64008,2.43958,0,0,0,0,0,0,0,-1,755,1394,-4.64011,-2.43959
-462,-370,-3.99823,2.43494,0,0,0,0,0,0,0,-1,762,1394,-3.9982,-2.43498
-455,-370,-3.50055,1.57727,0,0,0,0,0,0,0,-1,769,1394,-3.50052,-1.57726
-448,-370,-8.86993,-2.77124,0,0,0,0,0,0,0,-1,776,1394,-8.86995,2.77127
-441,-370,-3.77136,-0.700073,0,0,0,0,0,0,0,-1,783,1394,-3.77136,0.700131
-434,-370,-7.71454,1.03479,0,0,0,0,0,0,0,-1,790,1394,-7.71456,-1.03475
-427,-370,0,0,0,0,0,0,0,0,0,-1,797,1394,0,0
-420,-370,0,0,0,0,0,0,0,0,0,-1,804,1394,0,0
-413,-370,0,0,0,0,0,0,0,0,0,-1,811,1394,0,0
-406,-370,0,0,0,0,0,0,0,0,0,-1,818,1394,0,0
-399,-370,0,0,0,0,0,0,0,0,0,-1,825,1394,0,0
-392,-370,0,0,0,0,0,0,0,0,0,-1,832,1394,0,0
-385,-370,0,0,0,0,0,0,0,0,0,-1,839,1394,0,0
-378,-370,0,0,0,0,0,0,0,0,0,-1,846,1394,0,0
-371,-370,0,0,0,0,0,0,0,0,0,-1,853,1394,0,0
-364,-370,0,0,0,0,0,0,0,0,0,-1,860,1394,0,0
-357,-370,0,0,0,0,0,0,0,0,0,-1,867,1394,0,0
-350,-370,0,0,0,0,0,0,0,0,0,-1,874,1394,0,0
-343,-370,0,0,0,0,0,0,0,0,0,-1,881,1394,0,0
-336,-370,0,0,0,0,0,0,0,0,0,-1,888,1394,0,0
-329,-370,0,0,0,0,0,0,0,0,0,-1,895,1394,0,0
-322,-370,0,0,0,0,0,0,0,0,0,-1,902,1394,0,0
-315,-370,0,0,0,0,0,0,0,0,0,-1,909,1394,0,0
-308,-370,0,0,0,0,0,0,0,0,0,-1,916,1394,0,0
-301,-370,0,0,0,0,0,0,0,0,0,-1,923,1394,0,0
-294,-370,0,0,0,0,0,0,0,0,0,-1,930,1394,0,0
-287,-370,0,0,0,0,0,0,0,0,0,-1,937,1394,0,0
-280,-370,0,0,0,0,0,0,0,0,0,-1,944,1394,0,0
-273,-370,0,0,0,0,0,0,0,0,0,-1,951,1394,0,0
-266,-370,0,0,0,0,0,0,0,0,0,-1,958,1394,0,0
-259,-370,0,0,0,0,0,0,0,0,0,-1,965,1394,0,0
-252,-370,0,0,0,0,0,0,0,0,0,-1,972,1394,0,0
-245,-370,0,0,0,0,0,0,0,0,0,-1,979,1394,0,0
-238,-370,0,0,0,0,0,0,0,0,0,-1,986,1394,0,0
-231,-370,0,0,0,0,0,0,0,0,0,-1,993,1394,0,0
-224,-370,0,0,0,0,0,0,0,0,0,-1,1000,1394,0,0
-217,-370,0,0,0,0,0,0,0,0,0,-1,1007,1394,0,0
-210,-370,0,0,0,0,0,0,0,0,0,-1,1014,1394,0,0
-203,-370,0,0,0,0,0,0,0,0,0,-1,1021,1394,0,0
-196,-370,0,0,0,0,0,0,0,0,0,-1,1028,1394,0,0
-189,-370,0,0,0,0,0,0,0,0,0,-1,1035,1394,0,0
-182,-370,0,0,0,0,0,0,0,0,0,-1,1042,1394,0,0
-175,-370,0,0,0,0,0,0,0,0,0,-1,1049,1394,0,0
-168,-370,0,0,0,0,0,0,0,0,0,-1,1056,1394,0,0
-161,-370,0,0,0,0,0,0,0,0,0,-1,1063,1394,0,0
-154,-370,0,0,0,0,0,0,0,0,0,-1,1070,1394,0,0
-147,-370,0,0,0,0,0,0,0,0,0,-1,1077,1394,0,0
-140,-370,0,0,0,0,0,0,0,0,0,-1,1084,1394,0,0
-133,-370,0,0,0,0,0,0,0,0,0,-1,1091,1394,0,0
-126,-370,0,0,0,0,0,0,0,0,0,-1,1098,1394,0,0
-119,-370,0,0,0,0,0,0,0,0,0,-1,1105,1394,0,0
-112,-370,0,0,0,0,0,0,0,0,0,-1,1112,1394,0,0
-105,-370,0,0,0,0,0,0,0,0,0,-1,1119,1394,0,0
-98,-370,0,0,0,0,0,0,0,0,0,-1,1126,1394,0,0
-91,-370,0,0,0,0,0,0,0,0,0,-1,1133,1394,0,0
-84,-370,0,0,0,0,0,0,0,0,0,-1,1140,1394,0,0
-77,-370,0,0,0,0,0,0,0,0,0,-1,1147,1394,0,0
-70,-370,0,0,0,0,0,0,0,0,0,-1,1154,1394,0,0
-63,-370,0,0,0,0,0,0,0,0,0,-1,1161,1394,0,0
-56,-370,0,0,0,0,0,0,0,0,0,-1,1168,1394,0,0
-49,-370,0,0,0,0,0,0,0,0,0,-1,1175,1394,0,0
-42,-370,0,0,0,0,0,0,0,0,0,-1,1182,1394,0,0
-35,-370,0,0,0,0,0,0,0,0,0,-1,1189,1394,0,0
-28,-370,0,0,0,0,0,0,0,0,0,-1,1196,1394,0,0
-21,-370,0,0,0,0,0,0,0,0,0,-1,1203,1394,0,0
-14,-370,0,0,0,0,0,0,0,0,0,-1,1210,1394,0,0
-7,-370,0,0,0,0,0,0,0,0,0,-1,1217,1394,0,0
0,-370,0,0,0,0,0,0,0,0,0,-1,1224,1394,0,0
7,-370,0,0,0,0,0,0,0,0,0,-1,1231,1394,0,0
14,-370,0,0,0,0,0,0,0,0,0,-1,1238,1394,0,0
21,-370,0,0,0,0,0,0,0,0,0,-1,1245,1394,0,0
28,-370,0,0,0,0,0,0,0,0,0,-1,1252,1394,0,0
35,-370,0,0,0,0,0,0,0,0,0,-1,1259,1394,0,0
42,-370,0,0,0,0,0,0,0,0,0,-1,1266,1394,0,0
49,-370,0,0,0,0,0,0,0,0,0,-1,1273,1394,0,0
56,-370,0,0,0,0,0,0,0,0,0,-1,1280,1394,0,0
63,-370,0,0,0,0,0,0,0,0,0,-1,1287,1394,0,0
70,-370,0,0,0,0,0,0,0,0,0,-1,1294,1394,0,0
77,-370,0,0,0,0,0,0,0,0,0,-1,1301,1394,0,0
84,-370,0,0,0,0,0,0,0,0,0,-1,1308,1394,0,0
91,-370,0,0,0,0,0,0,0,0,0,-1,1315,1394,0,0
98,-370,0,0,0,0,0,0,0,0,0,-1,1322,1394,0,0
105,-370,0,0,0,0,0,0,0,0,0,-1,1329,1394,0,0
112,-370,0,0,0,0,0,0,0,0,0,-1,1336,1394,0,0
119,-370,0,0,0,0,0,0,0,0,0,-1,1343,1394,0,0
126,-370,0,0,0,0,0,0,0,0,0,-1,1350,1394,0,0
133,-370,0,0,0,0,0,0,0,0,0,-1,1357,1394,0,0
140,-370,0,0,0,0,0,0,0,0,0,-1,1364,1394,0,0
147,-370,0,0,0,0,0,0,0,0,0,-1,1371,1394,0,0
154,-370,0,0,0,0,0,0,0,0,0,-1,1378,1394,0,0
161,-370,0,0,0,0,0,0,0,0,0,-1,1385,1394,0,0
168,-370,0,0,0,0,0,0,0,0,0,-1,1392,1394,0,0
175,-370,0,0,0,0,0,0,0,0,0,-1,1399,1394,0,0
182,-370,0,0,0,0,0,0,0,0,0,-1,1406,1394,0,0
189,-370,0,0,0,0,0,0,0,0,0,-1,1413,1394,0,0
196,-370,0,0,0,0,0,0,0,0,0,-1,1420,1394,0,0
203,-370,0,0,0,0,0,0,0,0,0,-1,1427,1394,0,0
210,-370,0,0,0,0,0,0,0,0,0,-1,1434,1394,0,0
217,-370,0,0,0,0,0,0,0,0,0,-1,1441,1394,0,0
224,-370,0,0,0,0,0,0,0,0,0,-1,1448,1394,0,0
231,-370,0,0,0,0,0,0,0,0,0,-1,1455,1394,0,0
238,-370,0,0,0,0,0,0,0,0,0,-1,1462,1394,0,0
245,-370,0,0,0,0,0,0,0,0,0,-1,1469,1394,0,0
252,-370,0,0,0,0,0,0,0,0,0,-1,1476,1394,0,0
259,-370,0,0,0,0,0,0,0,0,0,-1,1483,1394,0,0
266,-370,0,0,0,0,0,0,0,0,0,-1,1490,1394,0,0
273,-370,0,0,0,0,0,0,0,0,0,-1,1497,1394,0,0
280,-370,0,0,0,0,0,0,0,0,0,-1,1504,1394,0,0
287,-370,0,0,0,0,0,0,0,0,0,-1,1511,1394,0,0
294,-370,0,0,0,0,0,0,0,0,0,-1,1518,1394,0,0
301,-370,0,0,0,0,0,0,0,0,0,-1,1525,1394,0,0
308,-370,0,0,0,0,0,0,0,0,0,-1,1532,1394,0,0
315,-370,0,0,0,0,0,0,0,0,0,-1,1539,1394,0,0
322,-370,0,0,0,0,0,0,0,0,0,-1,1546,1394,0,0
329,-370,0,0,0,0,0,0,0,0,0,-1,1553,1394,0,0
336,-370,0,0,0,0,0,0,0,0,0,-1,1560,1394,0,0
343,-370,0,0,0,0,0,0,0,0,0,-1,1567,1394,0,0
350,-370,0,0,0,0,0,0,0,0,0,-1,1574,1394,0,0
357,-370,0,0,0,0,0,0,0,0,0,-1,1581,1394,0,0
364,-370,0,0,0,0,0,0,0,0,0,-1,1588,1394,0,0
371,-370,0,0,0,0,0,0,0,0,0,-1,1595,1394,0,0
378,-370,0,0,0,0,0,0,0,0,0,-1,1602,1394,0,0
385,-370,0,0,0,0,0,0,0,0,0,-1,1609,1394,0,0
392,-370,0,0,0,0,0,0,0,0,0,-1,1616,1394,0,0
399,-370,0,0,0,0,0,0,0,0,0,-1,1623,1394,0,0
406,-370,0,0,0,0,0,0,0,0,0,-1,1630,1394,0,0
413,-370,0,0,0,0,0,0,0,0,0,-1,1637,1394,0,0
420,-370,0,0,0,0,0,0,0,0,0,-1,1644,1394,0,0
427,-370,0,0,0,0,0,0,0,0,0,-1,1651,1394,0,0
434,-370,0,0,0,0,0,0,0,0,0,-1,1658,1394,0,0
441,-370,0,0,0,0,0,0,0,0,0,-1,1665,1394,0,0
448,-370,0,0,0,0,0,0,0,0,0,-1,1672,1394,0,0
455,-370,0,0,0,0,0,0,0,0,0,-1,1679,1394,0,0
462,-370,0,0,0,0,0,0,0,0,0,-1,1686,1394,0,0
469,-370,0,0,0,0,0,0,0,0,0,-1,1693,1394,0,0
476,-370,0,0,0,0,0,0,0,0,0,-1,1700,1394,0,0
483,-370,0,0,0,0,0,0,0,0,0,-1,1707,1394,0,0
490,-370,0,0,0,0,0,0,0,0,0,-1,1714,1394,0,0
497,-370,0,0,0,0,0,0,0,0,0,-1,1721,1394,0,0
504,-370,0,0,0,0,0,0,0,0,0,-1,1728,1394,0,0
511,-370,0,0,0,0,0,0,0,0,0,-1,1735,1394,0,0
518,-370,0,0,0,0,0,0,0,0,0,-1,1742,1394,0,0
525,-370,0,0,0,0,0,0,0,0,0,-1,1749,1394,0,0
532,-370,0,0,0,0,0,0,0,0,0,-1,1756,1394,0,0
539,-370,0,0,0,0,0,0,0,0,0,-1,1763,1394,0,0
546,-370,13.6754,3.76978,0,0,0,0,0,0,0,-1,1770,1394,13.6755,-3.76978
553,-370,14.1333,4.48132,0,0,0,0,0,0,0,-1,1777,1394,14.1333,-4.48128
560,-370,13.8772,4.22253,0.0111285,0.0960759,0.0175667,0.0995653,0.00763916,1.37471,0.0639827,0.0442869,1784,1394,13.8772,-4.22247
567,-370,13.5708,3.98547,-0.00258695,0.0734527,0.0203367,0.07855,-0.00768428,1.32521,0.055107,0.0435564,1791,1394,13.5708,-3.98542
574,-370,13.3127,3.59351,-0.0116416,0.051915,0.0225818,0.0591213,-0.0188479,1.26189,0.0469746,0.0431232,1798,1394,13.3127,-3.59351
581,-370,13.1409,3.39417,-0.016314,0.0334656,0.0241788,0.0432762,-0.0261246,1.18534,0.0404744,0.0415901,1805,1394,13.1409,-3.39414
588,-370,12.8224,3.37878,-0.0194418,0.0184145,0.0246852,0.0305931,-0.0316205,1.11248,0.0359206,0.0422041,1812,1394,12.8224,-3.3788
595,-370,12.4137,3.16833,-0.0201631,0.00545018,0.0246834,0.0204515,-0.0351644,1.0247,0.0324822,0.0434227,1819,1394,12.4137,-3.16834
602,-370,11.7972,3.05994,-0.0196175,-0.00458727,0.0239959,0.0130428,-0.0372476,0.937152,0.0301353,0.0474114,1826,1394,11.7972,-3.05988
609,-370,10.4391,4.0282,0,0,0,0,0,0,0,-1,1833,1394,10.439,-4.02815
616,-370,11.0907,4.65588,0,0,0,0,0,0,0,-1,1840,1394,11.0908,-4.65587
623,-370,10.7919,4.81763,-0.0106867,-0.0173051,0.0184438,0.00474242,-0.0327343,0.696632,0.0235633,0.0479914,1847,1394,10.7918,-4.81764
630,-370,10.5934,5.0719,-0.00747028,-0.0170363,0.0152705,0.00374871,-0.0282553,0.633628,0.0202027,0.0262723,1854,1394,10.5934,-5.07196
637,-370,10.4368,5.08496,-0.00452991,-0.013719,0.0117935,0.00353239,-0.0217813,0.59965,0.0158303,0.0190348,1861,1394,10.4368,-5.08499
644,-370,10.519,4.92896,-0.00224123,-0.0100438,0.00890419,0.00357883,-0.0158639,0.578925,0.0119489,0.0119168,1868,1394,10.5191,-4.92893
651,-370,10.5576,4.7804,-0.000925018,-0.00667197,0.00635439,0.0031754,-0.0107724,0.573056,0.00844154,0.0112859,1875,1394,10.5576,-4.78035
658,-370,10.5547,4.6488,-0.000163749,-0.0038294,0.00458826,0.00294421,-0.00693736,0.595378,0.00585834,0.0110955,1882,1394,10.5547,-4.64876
665,-370,10.526,4.50549,5.52787e-05,-0.00254974,0.00311172,0.00212609,-0.00462055,0.587187,0.00398294,0.0120997,1889,1394,10.526,-4.50543
672,-370,10.5286,4.34937,0.000492766,-0.00196988,0.00207141,0.0016712,-0.00314831,0.517239,0.00282577,0.0142103,1896,1394,10.5285,-4.3494
679,-370,10.5284,4.20605,0.00156394,-0.00211159,0.000919473,0.00178113,-0.00232878,0.231952,0.00237986,0.0139225,1903,1394,10.5285,-4.20601
686,-370,10.5206,4.08911,0.00345412,-0.00356149,-0.000179192,0.0034587,-0.00356606,-0.0255197,0.0040559,0.0132023,1910,1394,10.5206,-4.08908
693,-370,10.5209,3.91382,0.00620949,-0.00554654,-0.00126042,0.00634311,-0.00568015,-0.105615,0.00694515,0.0118152,1917,1394,10.5209,-3.91387
700,-370,10.583,3.73218,0.00919101,-0.00803499,-0.00262721,0.00958278,-0.00842676,-0.148032,0.010405,0.0158041,1924,1394,10.583,-3.7322
707,-370,10.5798,3.59277,0.0130145,-0.011597,-0.00449139,0.0138085,-0.012391,-0.17498,0.0151337,0.0249345,1931,1394,10.5799,-3.59283
714,-370,10.7747,3.40784,0.0178163,-0.0162449,-0.00702477,0.0192083,-0.0176368,-0.195609,0.0212789,0.0410782,1938,1394,10.7747,-3.40786
721,-370,11.0409,3.22742,0,0,0,0,0,0,0,-1,1945,1394,11.0409,-3.22744
728,-370,12.1058,4.15918,0,0,0,0,0,0,0,-1,1952,1394,12.1058,-4.15922
735,-370,12.486,4.15796,0.0379528,-0.0375812,-0.0188809,0.0424094,-0.0420378,-0.231796,0.0487557,0.04707,1959,1394,12.486,-4.15796
742,-370,12.6914,4.10376,0.04629,-0.0469668,-0.0241779,0.0521856,-0.0528624,-0.239178,0.0606499,0.0465093,1966,1394,12.6914,-4.10374
749,-370,0,0,0,0,0,0,0,0,0,-1,1973,1394,0,0
756,-370,0,0,0,0,0,0,0,0,0,-1,1980,1394,0,0
763,-370,0,0,0,0,0,0,0,0,0,-1,1987,1394,0,0
770,-370,0,0,0,0,0,0,0,0,0,-1,1994,1394,0,0
777,-370,0,0,0,0,0,0,0,0,0,-1,2001,1394,0,0
784,-370,0,0,0,0,0,0,0,0,0,-1,2008,1394,0,0
791,-370,0,0,0,0,0,0,0,0,0,-1,2015,1394,0,0
798,-370,0,0,0,0,0,0,0,0,0,-1,2022,1394,0,0
805,-370,0,0,0,0,0,0,0,0,0,-1,2029,1394,0,0
812,-370,0,0,0,0,0,0,0,0,0,-1,2036,1394,0,0
-700,-377,0,0,0,0,0,0,0,0,0,-1,524,1401,0,0
-693,-377,0,0,0,0,0,0,0,0,0,-1,531,1401,0,0
-686,-377,0,0,0,0,0,0,0,0,0,-1,538,1401,0,0
-679,-377,0,0,0,0,0,0,0,0,0,-1,545,1401,0,0
-672,-377,0,0,0,0,0,0,0,0,0,-1,552,1401,0,0
-665,-377,0,0,0,0,0,0,0,0,0,-1,559,1401,0,0
-658,-377,0,0,0,0,0,0,0,0,0,-1,566,1401,0,0
-651,-377,0,0,0,0,0,0,0,0,0,-1,573,1401,0,0
-644,-377,0,0,0,0,0,0,0,0,0,-1,580,1401,0,0
-637,-377,0,0,0,0,0,0,0,0,0,-1,587,1401,0,0
-630,-377,0,0,0,0,0,0,0,0,0,-1,594,1401,0,0
-623,-377,0,0,0,0,0,0,0,0,0,-1,601,1401,0,0
-616,-377,-7.22272,-0.672729,0,0,0,0,0,0,0,-1,608,1401,-7.22273,0.672721
-609,-377,-6.1059,-0.339233,0,0,0,0,0,0,0,-1,615,1401,-6.10591,0.339233
-602,-377,-4.95514,0.163208,0,0,0,0,0,0,0,-1,622,1401,-4.95512,-0.16325
-595,-377,-4.36511,0.312622,0.0321469,0.0247902,0.0489513,0.0775579,-0.0206208,0.747897,0.0597764,0.0456775,629,1401,-4.36509,-0.312661
-588,-377,-3.9895,0.41333,0.0205243,0.0178151,0.0350864,0.0542822,-0.0159429,0.766104,0.0425109,0.0478416,636,1401,-3.98952,-0.413269
-581,-377,-4.14288,3.21729,0,0,0,0,0,0,0,-1,643,1401,-4.1429,-3.21728
-574,-377,-3.71326,2.52039,0.00577575,0.00800382,0.0152169,0.0221474,-0.00836782,0.821938,0.0182069,0.0415363,650,1401,-3.71325,-2.52038
-567,-377,-3.45221,2.00562,0.00152458,0.0055574,0.00909391,0.0128558,-0.00577379,0.894499,0.0110118,0.0263702,657,1401,-3.45221,-2.00557
-560,-377,-3.56873,2.13257,-0.000752253,0.00381091,0.00505507,0.00707544,-0.00401678,0.997384,0.00648475,0.0174545,664,1401,-3.56875,-2.13261
-553,-377,-3.5553,2.27942,-0.00233298,0.00214229,0.0021677,0.00302009,-0.00321078,1.18603,0.00359795,0.0116399,671,1401,-3.55527,-2.27942
-546,-377,-3.55231,2.45044,-0.00230282,0.0010906,0.000445437,0.0011481,-0.00236032,1.44243,0.00206549,0.0145747,678,1401,-3.55233,-2.45049
-539,-377,-3.54608,2.59302,-0.00238098,0.000206253,-0.00104255,0.000574067,-0.0027488,-1.23163,0.00205085,0.0187261,685,1401,-3.54605,-2.59298
-532,-377,-3.5462,2.78845,-0.00246788,-0.000801346,-0.00224882,0.000763618,-0.00403284,-0.962824,0.00297594,0.0203546,692,1401,-3.54619,-2.78846
-525,-377,-3.51611,2.95667,-0.00253602,-0.00230074,-0.00303189,0.000615788,-0.00545255,-0.804789,0.00385672,0.0173087,699,1401,-3.51613,-2.95669
-518,-377,-3.54773,3.11267,-0.0030431,-0.00345665,-0.00401545,0.000770897,-0.00727064,-0.759673,0.00512343,0.0110191,706,1401,-3.54772,-3.11271
-511,-377,-3.5426,3.30139,-0.00398344,-0.00518517,-0.00527638,0.000726177,-0.00989479,-0.728703,0.00685142,0.011369,713,1401,-3.54263,-3.30141
-504,-377,-3.54156,3.48315,-0.00593614,-0.00699994,-0.00703096,0.00058301,-0.0135191,-0.747644,0.00921321,0.0116748,720,1401,-3.54156,-3.48318
-497,-377,-3.40662,3.63782,-0.00875343,-0.00926399,-0.00924689,0.000241702,-0.0182591,-0.771598,0.0122541,0.0183854,727,1401,-3.40665,-3.63777
-490,-377,-3.44623,3.57031,-0.0125103,-0.0120835,-0.0119419,-0.000353078,-0.0242408,-0.794333,0.0160441,0.0383849,734,1401,-3.44625,-3.57036
-483,-377,-3.83881,3.3241,-0.0171739,-0.0149591,-0.0149357,-0.00108974,-0.0310432,-0.822403,0.020342,0.0452501,741,1401,-3.83883,-3.32404
-476,-377,-4.16321,3.09631,-0.0226268,-0.0172214,-0.0184233,-0.00130367,-0.0385446,-0.858228,0.025273,0.0450749,748,1401,-4.16319,-3.09628
-469,-377,-4.37543,2.85559,0,0,0,0,0,0,0,-1,755,1401,-4.37542,-2.85564
-462,-377,-4.42114,2.90137,0,0,0,0,0,0,0,-1,762,1401,-4.42116,-2.90139
-455,-377,-1.83484,1.34021,0,0,0,0,0,0,0,-1,769,1401,-1.83483,-1.34018
-448,-377,-2.71375,-1.16174,0,0,0,0,0,0,0,-1,776,1401,-2.71377,1.16169
-441,-377,-7.06641,0.654663,0,0,0,0,0,0,0,-1,783,1401,-7.06641,-0.654675
-434,-377,-6.90076,0.886108,0,0,0,0,0,0,0,-1,790,1401,-6.90078,-0.886068
-427,-377,-6.73157,1.24084,0,0,0,0,0,0,0,-1,797,1401,-6.73154,-1.2408
-420,-377,0,0,0,0,0,0,0,0,0,-1,804,1401,0,0
-413,-377,0,0,0,0,0,0,0,0,0,-1,811,1401,0,0
-406,-377,0,0,0,0,0,0,0,0,0,-1,818,1401,0,0
-399,-377,0,0,0,0,0,0,0,0,0,-1,825,1401,0,0
-392,-377,0,0,0,0,0,0,0,0,0,-1,832,1401,0,0
-385,-377,0,0,0,0,0,0,0,0,0,-1,839,1401,0,0
-378,-377,0,0,0,0,0,0,0,0,0,-1,846,1401,0,0
-371,-377,0,0,0,0,0,0,0,0,0,-1,853,1401,0,0
-364,-377,0,0,0,0,0,0,0,0,0,-1,860,1401,0,0
-357,-377,0,0,0,0,0,0,0,0,0,-1,867,1401,0,0
-350,-377,0,0,0,0,0,0,0,0,0,-1,874,1401,0,0
-343,-377,0,0,0,0,0,0,0,0,0,-1,881,1401,0,0
-336,-377,0,0,0,0,0,0,0,0,0,-1,888,1401,0,0
-329,-377,0,0,0,0,0,0,0,0,0,-1,895,1401,0,0
-322,-377,0,0,0,0,0,0,0,0,0,-1,902,1401,0,0
-315,-377,0,0,0,0,0,0,0,0,0,-1,909,1401,0,0
-308,-377,0,0,0,0,0,0,0,0,0,-1,916,1401,0,0
-301,-377,0,0,0,0,0,0,0,0,0,-1,923,1401,0,0
-294,-377,0,0,0,0,0,0,0,0,0,-1,930,1401,0,0
-287,-377,0,0,0,0,0,0,0,0,0,-1,937,1401,0,0
-280,-377,0,0,0,0,0,0,0,0,0,-1,944,1401,0,0
-273,-377,0,0,0,0,0,0,0,0,0,-1,951,1401,0,0
-266,-377,0,0,0,0,0,0,0,0,0,-1,958,1401,0,0
-259,-377,0,0,0,0,0,0,0,0,0,-1,965,1401,0,0
-252,-377,0,0,0,0,0,0,0,0,0,-1,972,1401,0,0
-245,-377,0,0,0,0,0,0,0,0,0,-1,979,1401,0,0
-238,-377,0,0,0,0,0,0,0,0,0,-1,986,1401,0,0
-231,-377,0,0,0,0,0,0,0,0,0,-1,993,1401,0,0
-224,-377,0,0,0,0,0,0,0,0,0,-1,1000,1401,0,0
-217,-377,0,0,0,0,0,0,0,0,0,-1,1007,1401,0,0
-210,-377,0,0,0,0,0,0,0,0,0,-1,1014,1401,0,0
-203,-377,0,0,0,0,0,0,0,0,0,-1,1021,1401,0,0
-196,-377,0,0,0,0,0,0,0,0,0,-1,1028,1401,0,0
-189,-377,0,0,0,0,0,0,0,0,0,-1,1035,1401,0,0
-182,-377,0,0,0,0,0,0,0,0,0,-1,1042,1401,0,0
-175,-377,0,0,0,0,0,0,0,0,0,-1,1049,1401,0,0
-168,-377,0,0,0,0,0,0,0,0,0,-1,1056,1401,0,0
-161,-377,0,0,0,0,0,0,0,0,0,-1,1063,1401,0,0
-154,-377,0,0,0,0,0,0,0,0,0,-1,1070,1401,0,0
-147,-377,0,0,0,0,0,0,0,0,0,-1,1077,1401,0,0
-140,-377,0,0,0,0,0,0,0,0,0,-1,1084,1401,0,0
-133,-377,0,0,0,0,0,0,0,0,0,-1,1091,1401,0,0
-126,-377,0,0,0,0,0,0,0,0,0,-1,1098,1401,0,0
-119,-377,0,0,0,0,0,0,0,0,0,-1,1105,1401,0,0
-112,-377,0,0,0,0,0,0,0,0,0,-1,1112,1401,0,0
-105,-377,0,0,0,0,0,0,0,0,0,-1,1119,1401,0,0
-98,-377,0,0,0,0,0,0,0,0,0,-1,1126,1401,0,0
-91,-377,0,0,0,0,0,0,0,0,0,-1,1133,1401,0,0
-84,-377,0,0,0,0,0,0,0,0,0,-1,1140,1401,0,0
-77,-377,0,0,0,0,0,0,0,0,0,-1,1147,1401,0,0
-70,-377,0,0,0,0,0,0,0,0,0,-1,1154,1401,0,0
-63,-377,0,0,0,0,0,0,0,0,0,-1,1161,1401,0,0
-56,-377,0,0,0,0,0,0,0,0,0,-1,1168,1401,0,0
-49,-377,0,0,0,0,0,0,0,0,0,-1,1175,1401,0,0
-42,-377,0,0,0,0,0,0,0,0,0,-1,1182,1401,0,0
-35,-377,0,0,0,0,0,0,0,0,0,-1,1189,1401,0,0
-28,-377,0,0,0,0,0,0,0,0,0,-1,1196,1401,0,0
-21,-377,0,0,0,0,0,0,0,0,0,-1,1203,1401,0,0
-14,-377,0,0,0,0,0,0,0,0,0,-1,1210,1401,0,0
-7,-377,0,0,0,0,0,0,0,0,0,-1,1217,1401,0,0
0,-377,0,0,0,0,0,0,0,0,0,-1,1224,1401,0,0
7,-377,0,0,0,0,0,0,0,0,0,-1,1231,1401,0,0
14,-377,0,0,0,0,0,0,0,0,0,-1,1238,1401,0,0
21,-377,0,0,0,0,0,0,0,0,0,-1,1245,1401,0,0
28,-377,0,0,0,0,0,0,0,0,0,-1,1252,1401,0,0
35,-377,0,0,0,0,0,0,0,0,0,-1,1259,1401,0,0
42,-377,0,0,0,0,0,0,0,0,0,-1,1266,1401,0,0
49,-377,0,0,0,0,0,0,0,0,0,-1,1273,1401,0,0
56,-377,0,0,0,0,0,0,0,0,0,-1,1280,1401,0,0
63,-377,0,0,0,0,0,0,0,0,0,-1,1287,1401,0,0
70,-377,0,0,0,0,0,0,0,0,0,-1,1294,1401,0,0
77,-377,0,0,0,0,0,0,0,0,0,-1,1301,1401,0,0
84,-377,0,0,0,0,0,0,0,0,0,-1,1308,1401,0,0
91,-377,0,0,0,0,0,0,0,0,0,-1,1315,1401,0,0
98,-377,0,0,0,0,0,0,0,0,0,-1,1322,1401,0,0
105,-377,0,0,0,0,0,0,0,0,0,-1,1329,1401,0,0
112,-377,0,0,0,0,0,0,0,0,0,-1,1336,1401,0,0
119,-377,0,0,0,0,0,0,0,0,0,-1,1343,1401,0,0
126,-377,0,0,0,0,0,0,0,0,0,-1,1350,1401,0,0
133,-377,0,0,0,0,0,0,0,0,0,-1,1357,1401,0,0
140,-377,0,0,0,0,0,0,0,0,0,-1,1364,1401,0,0
147,-377,0,0,0,0,0,0,0,0,0,-1,1371,1401,0,0
154,-377,0,0,0,0,0,0,0,0,0,-1,1378,1401,0,0
161,-377,0,0,0,0,0,0,0,0,0,-1,1385,1401,0,0
168,-377,0,0,0,0,0,0,0,0,0,-1,1392,1401,0,0
175,-377,0,0,0,0,0,0,0,0,0,-1,1399,1401,0,0
182,-377,0,0,0,0,0,0,0,0,0,-1,1406,1401,0,0
189,-377,0,0,0,0,0,0,0,0,0,-1,1413,1401,0,0
196,-377,0,0,0,0,0,0,0,0,0,-1,1420,1401,0,0
203,-377,0,0,0,0,0,0,0,0,0,-1,1427,1401,0,0
210,-377,0,0,0,0,0,0,0,0,0,-1,1434,1401,0,0
217,-377,0,0,0,0,0,0,0,0,0,-1,1441,1401,0,0
224,-377,0,0,0,0,0,0,0,0,0,-1,1448,1401,0,0
231,-377,0,0,0,0,0,0,0,0,0,-1,1455,1401,0,0
238,-377,0,0,0,0,0,0,0,0,0,-1,1462,1401,0,0
245,-377,0,0,0,0,0,0,0,0,0,-1,1469,1401,0,0
252,-377,0,0,0,0,0,0,0,0,0,-1,1476,1401,0,0
259,-377,0,0,0,0,0,0,0,0,0,-1,1483,1401,0,0
266,-377,0,0,0,0,0,0,0,0,0,-1,1490,1401,0,0
273,-377,0,0,0,0,0,0,0,0,0,-1,1497,1401,0,0
280,-377,0,0,0,0,0,0,0,0,0,-1,1504,1401,0,0
287,-377,0,0,0,0,0,0,0,0,0,-1,1511,1401,0,0
294,-377,0,0,0,0,0,0,0,0,0,-1,1518,1401,0,0
301,-377,0,0,0,0,0,0,0,0,0,-1,1525,1401,0,0
308,-377,0,0,0,0,0,0,0,0,0,-1,1532,1401,0,0
315,-377,0,0,0,0,0,0,0,0,0,-1,1539,1401,0,0
322,-377,0,0,0,0,0,0,0,0,0,-1,1546,1401,0,0
329,-377,0,0,0,0,0,0,0,0,0,-1,1553,1401,0,0
336,-377,0,0,0,0,0,0,0,0,0,-1,1560,1401,0,0
343,-377,0,0,0,0,0,0,0,0,0,-1,1567,1401,0,0
350,-377,0,0,0,0,0,0,0,0,0,-1,1574,1401,0,0
357,-377,0,0,0,0,0,0,0,0,0,-1,1581,1401,0,0
364,-377,0,0,0,0,0,0,0,0,0,-1,1588,1401,0,0
371,-377,0,0,0,0,0,0,0,0,0,-1,1595,1401,0,0
378,-377,0,0,0,0,0,0,0,0,0,-1,1602,1401,0,0
385,-377,0,0,0,0,0,0,0,0,0,-1,1609,1401,0,0
392,-377,0,0,0,0,0,0,0,0,0,-1,1616,1401,0,0
399,-377,0,0,0,0,0,0,0,0,0,-1,1623,1401,0,0
406,-377,0,0,0,0,0,0,0,0,0,-1,1630,1401,0,0
413,-377,0,0,0,0,0,0,0,0,0,-1,1637,1401,0,0
420,-377,0,0,0,0,0,0,0,0,0,-1,1644,1401,0,0
427,-377,0,0,0,0,0,0,0,0,0,-1,1651,1401,0,0
434,-377,0,0,0,0,0,0,0,0,0,-1,1658,1401,0,0
441,-377,0,0,0,0,0,0,0,0,0,-1,1665,1401,0,0
448,-377,0,0,0,0,0,0,0,0,0,-1,1672,1401,0,0
455,-377,0,0,0,0,0,0,0,0,0,-1,1679,1401,0,0
462,-377,0,0,0,0,0,0,0,0,0,-1,1686,1401,0,0
469,-377,0,0,0,0,0,0,0,0,0,-1,1693,1401,0,0
476,-377,0,0,0,0,0,0,0,0,0,-1,1700,1401,0,0
483,-377,0,0,0,0,0,0,0,0,0,-1,1707,1401,0,0
490,-377,0,0,0,0,0,0,0,0,0,-1,1714,1401,0,0
497,-377,0,0,0,0,0,0,0,0,0,-1,1721,1401,0,0
504,-377,0,0,0,0,0,0,0,0,0,-1,1728,1401,0,0
511,-377,0,0,0,0,0,0,0,0,0,-1,1735,1401,0,0
518,-377,0,0,0,0,0,0,0,0,0,-1,1742,1401,0,0
525,-377,0,0,0,0,0,0,0,0,0,-1,1749,1401,0,0
532,-377,0,0,0,0,0,0,0,0,0,-1,1756,1401,0,0
539,-377,0,0,0,0,0,0,0,0,0,-1,1763,1401,0,0
546,-377,13.151,1.45496,0,0,0,0,0,0,0,-1,1770,1401,13.151,-1.45498
553,-377,15.6658,3.59143,0,0,0,0,0,0,0,-1,1777,1401,15.6657,-3.59141
560,-377,13.6022,3.2334,0,0,0,0,0,0,0,-1,1784,1401,13.6021,-3.2334
567,-377,13.295,3.1001,0,0,0,0,0,0,0,-1,1791,1401,13.295,-3.10012
574,-377,12.9719,2.94312,0,0,0,0,0,0,0,-1,1798,1401,12.9719,-2.94306
581,-377,12.921,3.24158,0,0,0,0,0,0,0,-1,1805,1401,12.921,-3.24153
588,-377,12.6375,3.05701,-0.0233739,0.007179,0.0313161,0.026746,-0.042941,1.01232,0.0405943,0.0418035,1812,1401,12.6374,-3.05706
595,-377,12.0065,3.35522,-0.0251286,-0.00307133,0.0295604,0.0174507,-0.0456507,0.963945,0.0376248,0.0401362,1819,1401,12.0065,-3.35517
602,-377,11.6373,3.5011,-0.0245313,-0.0107461,0.0271392,0.010362,-0.0456395,0.909756,0.0344045,0.0424916,1826,1401,11.6373,-3.50105
609,-377,11.4359,3.83984,-0.0214762,-0.0149525,0.0247358,0.00673562,-0.0431643,0.850954,0.0312642,0.04767,1833,1401,11.4359,-3.8398
616,-377,10.7708,5.11072,0,0,0,0,0,0,0,-1,1840,1401,10.7707,-5.1107
623,-377,10.6315,5.26025,-0.013026,-0.0176462,0.0180851,0.00289592,-0.0335681,0.721875,0.0234038,0.0467024,1847,1401,10.6315,-5.2602
630,-377,10.4069,5.28796,-0.00906578,-0.0163291,0.0143457,0.0021008,-0.0274957,0.661426,0.0190693,0.0258192,1854,1401,10.4068,-5.28801
637,-377,10.3464,5.10364,-0.00547835,-0.0127396,0.0106681,0.00215999,-0.0203779,0.621383,0.0143595,0.0130901,1861,1401,10.3465,-5.10362
644,-377,10.3728,4.94043,-0.00275774,-0.00910537,0.00784305,0.00252932,-0.0143924,0.593137,0.0105397,0.0115204,1868,1401,10.3728,-4.9404
651,-377,10.3982,4.78699,-0.00115831,-0.0059374,0.00545735,0.00240971,-0.00950543,0.579043,0.00727447,0.0125259,1875,1401,10.3982,-4.78693
658,-377,10.3912,4.64941,-0.000218287,-0.00336344,0.00385871,0.00237599,-0.00595772,0.591904,0.00495738,0.0133032,1882,1401,10.3912,-4.64939
665,-377,10.3905,4.49927,0.000102831,-0.0022956,0.00267171,0.00183212,-0.0040249,0.574447,0.00345965,0.0155058,1889,1401,10.3904,-4.49931
672,-377,10.3982,4.33789,0.000498896,-0.0019301,0.00198047,0.0016076,-0.0030388,0.510351,0.00272469,0.0161483,1896,1401,10.3981,-4.33791
679,-377,10.3723,4.22217,0.0014486,-0.00240119,0.00112135,0.00175141,-0.002704,0.263746,0.00259185,0.0171925,1903,1401,10.3723,-4.2222
686,-377,10.3672,4.07861,0.00321791,-0.00424822,0.000285825,0.00322884,-0.00425915,0.0382083,0.00433681,0.0145384,1910,1401,10.3672,-4.07863
693,-377,10.3936,3.89844,0.00592213,-0.00680648,-0.000692282,0.00595968,-0.00684402,-0.0541749,0.00739809,0.01212,1917,1401,10.3936,-3.89843
700,-377,10.4022,3.7356,0.00894428,-0.00999098,-0.00200521,0.0091543,-0.010201,-0.104356,0.0111802,0.0202267,1924,1401,10.4022,-3.73561
707,-377,10.3423,3.60986,0.0129241,-0.0144564,-0.00395623,0.0134843,-0.0150166,-0.140659,0.0164629,0.0353456,1931,1401,10.3423,-3.60987
714,-377,10.535,3.51306,0.0179612,-0.0202393,-0.00666993,0.0190923,-0.0213704,-0.167984,0.0233735,0.0431254,1938,1401,10.535,-3.51309
721,-377,10.8118,3.43787,0,0,0,0,0,0,0,-1,1945,1401,10.8118,-3.43786
728,-377,12.5571,5.13257,0,0,0,0,0,0,0,-1,1952,1401,12.5571,-5.13256
735,-377,12.7489,5.08521,0,0,0,0,0,0,0,-1,1959,1401,12.7489,-5.08523
742,-377,0,0,0,0,0,0,0,0,0,-1,1966,1401,0,0
749,-377,0,0,0,0,0,0,0,0,0,-1,1973,1401,0,0
756,-377,0,0,0,0,0,0,0,0,0,-1,1980,1401,0,0
763,-377,0,0,0,0,0,0,0,0,0,-1,1987,1401,0,0
770,-377,0,0,0,0,0,0,0,0,0,-1,1994,1401,0,0
777,-377,0,0,0,0,0,0,0,0,0,-1,2001,1401,0,0
784,-377,0,0,0,0,0,0,0,0,0,-1,2008,1401,0,0
791,-377,0,0,0,0,0,0,0,0,0,-1,2015,1401,0,0
798,-377,0,0,0,0,0,0,0,0,0,-1,2022,1401,0,0
805,-377,0,0,0,0,0,0,0,0,0,-1,2029,1401,0,0
812,-377,0,0,0,0,0,0,0,0,0,-1,2036,1401,0,0
-700,-384,0,0,0,0,0,0,0,0,0,-1,524,1408,0,0
-693,-384,0,0,0,0,0,0,0,0,0,-1,531,1408,0,0
-686,-384,0,0,0,0,0,0,0,0,0,-1,538,1408,0,0
-679,-384,0,0,0,0,0,0,0,0,0,-1,545,1408,0,0
-672,-384,0,0,0,0,0,0,0,0,0,-1,552,1408,0,0
-665,-384,0,0,0,0,0,0,0,0,0,-1,559,1408,0,0
-658,-384,0,0,0,0,0,0,0,0,0,-1,566,1408,0,0
-651,-384,0,0,0,0,0,0,0,0,0,-1,573,1408,0,0
-644,-384,0,0,0,0,0,0,0,0,0,-1,580,1408,0,0
-637,-384,0,0,0,0,0,0,0,0,0,-1,587,1408,0,0
-630,-384,0,0,0,0,0,0,0,0,0,-1,594,1408,0,0
-623,-384,0,0,0,0,0,0,0,0,0,-1,601,1408,0,0
-616,-384,-7.79321,-0.791626,0,0,0,0,0,0,0,-1,608,1408,-7.7932,0.791616
-609,-384,-6.60797,-0.393311,0,0,0,0,0,0,0,-1,615,1408,-6.60796,0.393293
-602,-384,-5.44775,0.123535,0,0,0,0,0,0,0,-1,622,1408,-5.44778,-0.123524
-595,-384,-4.7868,0.271606,0.037396,0.0191314,0.0534824,0.0825201,-0.0259928,0.700837,0.0654222,0.0470946,629,1408,-4.78681,-0.271648
-588,-384,-4.54114,0.381714,0.0237651,0.0150102,0.0389871,0.0586197,-0.0198444,0.729493,0.0471091,0.0466379,636,1408,-4.54111,-0.38175
-581,-384,-4.49036,0.587646,0,0,0,0,0,0,0,-1,643,1408,-4.49037,-0.587665
-574,-384,-3.14209,1.60522,0,0,0,0,0,0,0,-1,650,1408,-3.14211,-1.60523
-567,-384,-3.22229,1.87268,0.00152776,0.00628572,0.0108609,0.0150251,-0.00721165,0.893216,0.0130999,0.0407718,657,1408,-3.22227,-1.87269
-560,-384,-3.32111,2.07849,-0.0010581,0.00484168,0.00641365,0.0089513,-0.00516772,1.00094,0.00824861,0.0239048,664,1408,-3.3211,-2.07855
-553,-384,-3.36481,2.28015,-0.0028371,0.00349985,0.00331945,0.00492027,-0.00425752,1.16646,0.00530341,0.0158276,671,1408,-3.36482,-2.28017
-546,-384,-3.3808,2.46008,-0.00266244,0.00247191,0.00158405,0.00292129,-0.00311182,1.29437,0.00348379,0.0131697,678,1408,-3.38082,-2.46008
-539,-384,-3.3927,2.60022,-0.00256269,0.00145439,2.50285e-05,0.00145454,-0.00256284,1.56457,0.00234867,0.0151192,685,1408,-3.3927,-2.60022
-532,-384,-3.38525,2.74731,-0.00247292,0.000344258,-0.00124989,0.000818847,-0.00294751,-1.20791,0.00228734,0.0225757,692,1408,-3.38523,-2.74736
-525,-384,-3.3739,2.96387,-0.00238162,-0.00122898,-0.00201848,0.000293848,-0.00390445,-0.92446,0.00270624,0.0222317,699,1408,-3.37392,-2.96384
-518,-384,-3.39331,3.13477,-0.00271255,-0.00242134,-0.00293255,0.000369216,-0.0055031,-0.810203,0.00379779,0.0122535,706,1408,-3.39329,-3.13478
-511,-384,-3.38916,3.31567,-0.00337931,-0.00414393,-0.0040354,0.000291845,-0.00781509,-0.73817,0.00531002,0.00959669,713,1408,-3.38917,-3.31571
-504,-384,-3.37982,3.49695,-0.00499304,-0.00582376,-0.00558377,0.000190807,-0.0110076,-0.748273,0.00740282,0.0113894,720,1408,-3.37984,-3.49691
-497,-384,-3.36011,3.67773,-0.00732243,-0.0078403,-0.00751287,-6.40312e-05,-0.0150987,-0.768172,0.0100445,0.0131751,727,1408,-3.36012,-3.67771
-490,-384,-3.27228,3.79395,-0.0104326,-0.0102806,-0.00979817,-0.000558177,-0.0201551,-0.789277,0.0132546,0.0246474,734,1408,-3.27225,-3.794
-483,-384,-3.5343,3.76135,-0.0142503,-0.0124937,-0.0122916,-0.00104903,-0.025695,-0.821063,0.0167912,0.0421086,741,1408,-3.53431,-3.76134
-476,-384,-3.95068,3.63123,-0.0186247,-0.0134172,-0.0153877,-0.000414489,-0.0316274,-0.869209,0.0209481,0.0454718,748,1408,-3.95069,-3.63127
-469,-384,-4.11072,3.27173,0,0,0,0,0,0,0,-1,755,1408,-4.11073,-3.27169
-462,-384,-2.23645,1.61475,0,0,0,0,0,0,0,-1,762,1408,-2.23647,-1.61471
-455,-384,-2.04144,1.76526,0,0,0,0,0,0,0,-1,769,1408,-2.04145,-1.76524
-448,-384,-1.89233,1.6134,0,0,0,0,0,0,0,-1,776,1408,-1.89231,-1.61337
-441,-384,-2.54742,0.868164,0,0,0,0,0,0,0,-1,783,1408,-2.54745,-0.868223
-434,-384,-5.99164,0.274902,0,0,0,0,0,0,0,-1,790,1408,-5.99164,-0.274901
-427,-384,-5.77826,1.16138,0,0,0,0,0,0,0,-1,797,1408,-5.77824,-1.16133
-420,-384,-5.56482,2.04773,0,0,0,0,0,0,0,-1,804,1408,-5.56483,-2.04776
-413,-384,0,0,0,0,0,0,0,0,0,-1,811,1408,0,0
-406,-384,0,0,0,0,0,0,0,0,0,-1,818,1408,0,0
-399,-384,0,0,0,0,0,0,0,0,0,-1,825,1408,0,0
-392,-384,0,0,0,0,0,0,0,0,0,-1,832,1408,0,0
-385,-384,0,0,0,0,0,0,0,0,0,-1,839,1408,0,0
-378,-384,0,0,0,0,0,0,0,0,0,-1,846,1408,0,0
-371,-384,0,0,0,0,0,0,0,0,0,-1,853,1408,0,0
-364,-384,0,0,0,0,0,0,0,0,0,-1,860,1408,0,0
-357,-384,0,0,0,0,0,0,0,0,0,-1,867,1408,0,0
-350,-384,0,0,0,0,0,0,0,0,0,-1,874,1408,0,0
-343,-384,0,0,0,0,0,0,0,0,0,-1,881,1408,0,0
-336,-384,0,0,0,0,0,0,0,0,0,-1,888,1408,0,0
-329,-384,0,0,0,0,0,0,0,0,0,-1,895,1408,0,0
-322,-384,0,0,0,0,0,0,0,0,0,-1,902,1408,0,0
-315,-384,0,0,0,0,0,0,0,0,0,-1,909,1408,0,0
-308,-384,0,0,0,0,0,0,0,0,0,-1,916,1408,0,0
-301,-384,0,0,0,0,0,0,0,0,0,-1,923,1408,0,0
-294,-384,0,0,0,0,0,0,0,0,0,-1,930,1408,0,0
-287,-384,0,0,0,0,0,0,0,0,0,-1,937,1408,0,0
-280,-384,0,0,0,0,0,0,0,0,0,-1,944,1408,0,0
-273,-384,0,0,0,0,0,0,0,0,0,-1,951,1408,0,0
-266,-384,0,0,0,0,0,0,0,0,0,-1,958,1408,0,0
-259,-384,0,0,0,0,0,0,0,0,0,-1,965,1408,0,0
-252,-384,0,0,0,0,0,0,0,0,0,-1,972,1408,0,0
-245,-384,0,0,0,0,0,0,0,0,0,-1,979,1408,0,0
-238,-384,0,0,0,0,0,0,0,0,0,-1,986,1408,0,0
-231,-384,0,0,0,0,0,0,0,0,0,-1,993,1408,0,0
-224,-384,0,0,0,0,0,0,0,0,0,-1,1000,1408,0,0
-217,-384,0,0,0,0,0,0,0,0,0,-1,1007,1408,0,0
-210,-384,0,0,0,0,0,0,0,0,0,-1,1014,1408,0,0
-203,-384,0,0,0,0,0,0,0,0,0,-1,1021,1408,0,0
-196,-384,0,0,0,0,0,0,0,0,0,-1,1028,1408,0,0
-189,-384,0,0,0,0,0,0,0,0,0,-1,1035,1408,0,0
-182,-384,0,0,0,0,0,0,0,0,0,-1,1042,1408,0,0
-175,-384,0,0,0,0,0,0,0,0,0,-1,1049,1408,0,0
-168,-384,0,0,0,0,0,0,0,0,0,-1,1056,1408,0,0
-161,-384,0,0,0,0,0,0,0,0,0,-1,1063,1408,0,0
-154,-384,0,0,0,0,0,0,0,0,0,-1,1070,1408,0,0
-147,-384,0,0,0,0,0,0,0,0,0,-1,1077,1408,0,0
-140,-384,0,0,0,0,0,0,0,0,0,-1,1084,1408,0,0
-133,-384,0,0,0,0,0,0,0,0,0,-1,1091,1408,0,0
-126,-384,0,0,0,0,0,0,0,0,0,-1,1098,1408,0,0
-119,-384,0,0,0,0,0,0,0,0,0,-1,1105,1408,0,0
-112,-384,0,0,0,0,0,0,0,0,0,-1,1112,1408,0,0
-105,-384,0,0,0,0,0,0,0,0,0,-1,1119,1408,0,0
-98,-384,0,0,0,0,0,0,0,0,0,-1,1126,1408,0,0
-91,-384,0,0,0,0,0,0,0,0,0,-1,1133,1408,0,0
-84,-384,0,0,0,0,0,0,0,0,0,-1,1140,1408,0,0
-77,-384,0,0,0,0,0,0,0,0,0,-1,1147,1408,0,0
-70,-384,0,0,0,0,0,0,0,0,0,-1,1154,1408,0,0
-63,-384,0,0,0,0,0,0,0,0,0,-1,1161,1408,0,0
-56,-384,0,0,0,0,0,0,0,0,0,-1,1168,1408,0,0
-49,-384,0,0,0,0,0,0,0,0,0,-1,1175,1408,0,0
-42,-384,0,0,0,0,0,0,0,0,0,-1,1182,1408,0,0
-35,-384,0,0,0,0,0,0,0,0,0,-1,1189,1408,0,0
-28,-384,0,0,0,0,0,0,0,0,0,-1,1196,1408,0,0
-21,-384,0,0,0,0,0,0,0,0,0,-1,1203,1408,0,0
-14,-384,0,0,0,0,0,0,0,0,0,-1,1210,1408,0,0
-7,-384,0,0,0,0,0,0,0,0,0,-1,1217,1408,0,0
0,-384,0,0,0,0,0,0,0,0,0,-1,1224,1408,0,0
7,-384,0,0,0,0,0,0,0,0,0,-1,1231,1408,0,0
14,-384,0,0,0,0,0,0,0,0,0,-1,1238,1408,0,0
21,-384,0,0,0,0,0,0,0,0,0,-1,1245,1408,0,0
28,-384,0,0,0,0,0,0,0,0,0,-1,1252,1408,0,0
35,-384,0,0,0,0,0,0,0,0,0,-1,1259,1408,0,0
42,-384,0,0,0,0,0,0,0,0,0,-1,1266,1408,0,0
49,-384,0,0,0,0,0,0,0,0,0,-1,1273,1408,0,0
56,-384,0,0,0,0,0,0,0,0,0,-1,1280,1408,0,0
63,-384,0,0,0,0,0,0,0,0,0,-1,1287,1408,0,0
70,-384,0,0,0,0,0,0,0,0,0,-1,1294,1408,0,0
77,-384,0,0,0,0,0,0,0,0,0,-1,1301,1408,0,0
84,-384,0,0,0,0,0,0,0,0,0,-1,1308,1408,0,0
91,-384,0,0,0,0,0,0,0,0,0,-1,1315,1408,0,0
98,-384,0,0,0,0,0,0,0,0,0,-1,1322,1408,0,0
105,-384,0,0,0,0,0,0,0,0,0,-1,1329,1408,0,0
112,-384,0,0,0,0,0,0,0,0,0,-1,1336,1408,0,0
119,-384,0,0,0,0,0,0,0,0,0,-1,1343,1408,0,0
126,-384,0,0,0,0,0,0,0,0,0,-1,1350,1408,0,0
133,-384,0,0,0,0,0,0,0,0,0,-1,1357,1408,0,0
140,-384,0,0,0,0,0,0,0,0,0,-1,1364,1408,0,0
147,-384,0,0,0,0,0,0,0,0,0,-1,1371,1408,0,0
154,-384,0,0,0,0,0,0,0,0,0,-1,1378,1408,0,0
161,-384,0,0,0,0,0,0,0,0,0,-1,1385,1408,0,0
168,-384,0,0,0,0,0,0,0,0,0,-1,1392,1408,0,0
175,-384,0,0,0,0,0,0,0,0,0,-1,1399,1408,0,0
182,-384,0,0,0,0,0,0,0,0,0,-1,1406,1408,0,0
189,-384,0,0,0,0,0,0,0,0,0,-1,1413,1408,0,0
196,-384,0,0,0,0,0,0,0,0,0,-1,1420,1408,0,0
203,-384,0,0,0,0,0,0,0,0,0,-1,1427,1408,0,0
210,-384,0,0,0,0,0,0,0,0,0,-1,1434,1408,0,0
217,-384,0,0,0,0,0,0,0,0,0,-1,1441,1408,0,0
224,-384,0,0,0,0,0,0,0,0,0,-1,1448,1408,0,0
231,-384,0,0,0,0,0,0,0,0,0,-1,1455,1408,0,0
238,-384,0,0,0,0,0,0,0,0,0,-1,1462,1408,0,0
245,-384,0,0,0,0,0,0,0,0,0,-1,1469,1408,0,0
252,-384,0,0,0,0,0,0,0,0,0,-1,1476,1408,0,0
259,-384,0,0,0,0,0,0,0,0,0,-1,1483,1408,0,0
266,-384,0,0,0,0,0,0,0,0,0,-1,1490,1408,0,0
273,-384,0,0,0,0,0,0,0,0,0,-1,1497,1408,0,0
280,-384,0,0,0,0,0,0,0,0,0,-1,1504,1408,0,0
287,-384,0,0,0,0,0,0,0,0,0,-1,1511,1408,0,0
294,-384,0,0,0,0,0,0,0,0,0,-1,1518,1408,0,0
301,-384,0,0,0,0,0,0,0,0,0,-1,1525,1408,0,0
308,-384,0,0,0,0,0,0,0,0,0,-1,1532,1408,0,0
315,-384,0,0,0,0,0,0,0,0,0,-1,1539,1408,0,0
322,-384,0,0,0,0,0,0,0,0,0,-1,1546,1408,0,0
329,-384,0,0,0,0,0,0,0,0,0,-1,1553,1408,0,0
336,-384,0,0,0,0,0,0,0,0,0,-1,1560,1408,0,0
343,-384,0,0,0,0,0,0,0,0,0,-1,1567,1408,0,0
350,-384,0,0,0,0,0,0,0,0,0,-1,1574,1408,0,0
357,-384,0,0,0,0,0,0,0,0,0,-1,1581,1408,0,0
364,-384,0,0,0,0,0,0,0,0,0,-1,1588,1408,0,0
371,-384,0,0,0,0,0,0,0,0,0,-1,1595,1408,0,0
378,-384,0,0,0,0,0,0,0,0,0,-1,1602,1408,0,0
385,-384,0,0,0,0,0,0,0,0,0,-1,1609,1408,0,0
392,-384,0,0,0,0,0,0,0,0,0,-1,1616,1408,0,0
399,-384,0,0,0,0,0,0,0,0,0,-1,1623,1408,0,0
406,-384,0,0,0,0,0,0,0,0,0,-1,1630,1408,0,0
413,-384,0,0,0,0,0,0,0,0,0,-1,1637,1408,0,0
420,-384,0,0,0,0,0,0,0,0,0,-1,1644,1408,0,0
427,-384,0,0,0,0,0,0,0,0,0,-1,1651,1408,0,0
434,-384,0,0,0,0,0,0,0,0,0,-1,1658,1408,0,0
441,-384,0,0,0,0,0,0,0,0,0,-1,1665,1408,0,0
448,-384,0,0,0,0,0,0,0,0,0,-1,1672,1408,0,0
455,-384,0,0,0,0,0,0,0,0,0,-1,1679,1408,0,0
462,-384,0,0,0,0,0,0,0,0,0,-1,1686,1408,0,0
469,-384,0,0,0,0,0,0,0,0,0,-1,1693,1408,0,0
476,-384,0,0,0,0,0,0,0,0,0,-1,1700,1408,0,0
483,-384,0,0,0,0,0,0,0,0,0,-1,1707,1408,0,0
490,-384,0,0,0,0,0,0,0,0,0,-1,1714,1408,0,0
497,-384,0,0,0,0,0,0,0,0,0,-1,1721,1408,0,0
504,-384,0,0,0,0,0,0,0,0,0,-1,1728,1408,0,0
511,-384,0,0,0,0,0,0,0,0,0,-1,1735,1408,0,0
518,-384,0,0,0,0,0,0,0,0,0,-1,1742,1408,0,0
525,-384,0,0,0,0,0,0,0,0,0,-1,1749,1408,0,0
532,-384,0,0,0,0,0,0,0,0,0,-1,1756,1408,0,0
539,-384,14.9841,1.98596,0,0,0,0,0,0,0,-1,1763,1408,14.9842,-1.98599
546,-384,15.7902,2.60474,0,0,0,0,0,0,0,-1,1770,1408,15.7901,-2.6048
553,-384,15.6904,2.53455,0,0,0,0,0,0,0,-1,1777,1408,15.6904,-2.53459
560,-384,16.0007,3.48987,0,0,0,0,0,0,0,-1,1784,1408,16.0007,-3.48987
567,-384,13.9479,1.05762,0,0,0,0,0,0,0,-1,1791,1408,13.9479,-1.05763
574,-384,14.1636,1.90466,-0.0110137,0.0200744,0.0404035,0.0478208,-0.0387601,0.969031,0.0500787,0.042225,1798,1408,14.1636,-1.90464
581,-384,13.8042,2.34631,-0.0192424,0.00785142,0.0387576,0.0353614,-0.0467524,0.953526,0.0475602,0.0399064,1805,1408,13.8042,-2.34633
588,-384,12.08,3.74463,0,0,0,0,0,0,0,-1,1812,1408,12.08,-3.74462
595,-384,11.7129,3.9165,-0.0281927,-0.00939964,0.0331723,0.0156813,-0.0532737,0.923415,0.0417367,0.0470014,1819,1408,11.7128,-3.91654
602,-384,11.4159,4.22766,-0.0277554,-0.0151834,0.0294067,0.00860168,-0.0515405,0.890694,0.0375573,0.0430522,1826,1408,11.4159,-4.22771
609,-384,11.1288,4.5166,-0.0242492,-0.0177409,0.0258519,0.00506082,-0.0470509,0.848007,0.0331831,0.043339,1833,1408,11.1288,-4.51656
616,-384,10.7096,4.97339,0,0,0,0,0,0,0,-1,1840,1408,10.7095,-4.97344
623,-384,10.3091,5.36401,-0.0146554,-0.0174848,0.0175154,0.00150229,-0.0336426,0.745101,0.0229455,0.0367294,1847,1408,10.3091,-5.36396
630,-384,10.2657,5.22937,-0.0102119,-0.0153538,0.0133638,0.000825962,-0.0263917,0.690369,0.0178761,0.0184047,1854,1408,10.2658,-5.22938
637,-384,10.2283,5.09778,-0.00621868,-0.0115945,0.00956112,0.00102517,-0.0188384,0.64837,0.0129142,0.0147653,1861,1408,10.2283,-5.09772
644,-384,10.2076,4.95911,-0.00326959,-0.0080637,0.00682657,0.00156854,-0.0129018,0.616555,0.0091689,0.0150784,1868,1408,10.2077,-4.95911
651,-384,10.2208,4.78601,-0.00152909,-0.00515108,0.00461228,0.001615,-0.00829517,0.598323,0.00613966,0.0145107,1875,1408,10.2208,-4.78599
658,-384,10.2323,4.63525,-0.000533732,-0.00289876,0.0031892,0.00168512,-0.00511762,0.607862,0.00409083,0.0145148,1882,1408,10.2323,-4.63522
665,-384,10.2466,4.5033,-0.000216156,-0.00208009,0.00228712,0.00132159,-0.00361784,0.591927,0.00295271,0.0156719,1889,1408,10.2465,-4.50334
672,-384,10.2557,4.34229,4.87541e-05,-0.00194893,0.00192675,0.00122018,-0.00312035,0.546266,0.00258481,0.0141151,1896,1408,10.2557,-4.34232
679,-384,10.24,4.19812,0.000782828,-0.00276478,0.00137129,0.00125108,-0.00323303,0.329055,0.00267187,0.014936,1903,1408,10.24,-4.19818
686,-384,10.2205,4.04175,0.00232163,-0.00498433,0.000843879,0.00241784,-0.00508053,0.113514,0.00441923,0.0118431,1910,1408,10.2205,-4.04179
693,-384,10.2517,3.86975,0.00487143,-0.00811981,3.57458e-05,0.00487152,-0.00811991,0.00275151,0.00757836,0.0161269,1917,1408,10.2517,-3.86981
700,-384,10.2445,3.9281,0.00787839,-0.0119995,-0.00121038,0.00795182,-0.0120729,-0.0605927,0.0116426,0.0336643,1924,1408,10.2445,-3.92809
707,-384,10.2043,3.60242,0,0,0,0,0,0,0,-1,1931,1408,10.2044,-3.60247
714,-384,10.3452,3.54797,0,0,0,0,0,0,0,-1,1938,1408,10.3453,-3.54793
721,-384,12.5815,6.69556,0,0,0,0,0,0,0,-1,1945,1408,12.5816,-6.69556
728,-384,12.9172,6.28796,0.029985,-0.0435114,-0.014218,0.0326396,-0.0461661,-0.184583,0.0457214,0.041996,1952,1408,12.9173,-6.28802
735,-384,13.028,6.02173,0,0,0,0,0,0,0,-1,1959,1408,13.028,-6.02172
742,-384,0,0,0,0,0,0,0,0,0,-1,1966,1408,0,0
749,-384,0,0,0,0,0,0,0,0,0,-1,1973,1408,0,0
756,-384,0,0,0,0,0,0,0,0,0,-1,1980,1408,0,0
763,-384,0,0,0,0,0,0,0,0,0,-1,1987,1408,0,0
770,-384,0,0,0,0,0,0,0,0,0,-1,1994,1408,0,0
777,-384,0,0,0,0,0,0,0,0,0,-1,2001,1408,0,0
784,-384,0,0,0,0,0,0,0,0,0,-1,2008,1408,0,0
791,-384,0,0,0,0,0,0,0,0,0,-1,2015,1408,0,0
798,-384,0,0,0,0,0,0,0,0,0,-1,2022,1408,0,0
805,-384,0,0,0,0,0,0,0,0,0,-1,2029,1408,0,0
812,-384,0,0,0,0,0,0,0,0,0,-1,2036,1408,0,0
-700,-391,0,0,0,0,0,0,0,0,0,-1,524,1415,0,0
-693,-391,0,0,0,0,0,0,0,0,0,-1,531,1415,0,0
-686,-391,0,0,0,0,0,0,0,0,0,-1,538,1415,0,0
-679,-391,0,0,0,0,0,0,0,0,0,-1,545,1415,0,0
-672,-391,0,0,0,0,0,0,0,0,0,-1,552,1415,0,0
-665,-391,0,0,0,0,0,0,0,0,0,-1,559,1415,0,0
-658,-391,0,0,0,0,0,0,0,0,0,-1,566,1415,0,0
-651,-391,0,0,0,0,0,0,0,0,0,-1,573,1415,0,0
-644,-391,0,0,0,0,0,0,0,0,0,-1,580,1415,0,0
-637,-391,0,0,0,0,0,0,0,0,0,-1,587,1415,0,0
-630,-391,0,0,0,0,0,0,0,0,0,-1,594,1415,0,0
-623,-391,0,0,0,0,0,0,0,0,0,-1,601,1415,0,0
-616,-391,0,0,0,0,0,0,0,0,0,-1,608,1415,0,0
-609,-391,-7.1886,-0.487305,0,0,0,0,0,0,0,-1,615,1415,-7.18858,0.487269
-602,-391,-6.41614,-0.0501709,0,0,0,0,0,0,0,-1,622,1415,-6.41612,0.0502083
-595,-391,-5.35052,0.37793,0,0,0,0,0,0,0,-1,629,1415,-5.35053,-0.377942
-588,-391,-4.28491,0.806152,0,0,0,0,0,0,0,-1,636,1415,-4.28493,-0.806093
-581,-391,-1.93158,1.32214,0,0,0,0,0,0,0,-1,643,1415,-1.93157,-1.3222
-574,-391,-2.11249,1.22168,0,0,0,0,0,0,0,-1,650,1415,-2.11251,-1.22168
-567,-391,-2.46954,1.48535,0.00200365,0.00666926,0.0128995,0.0174452,-0.00877224,0.874854,0.0154102,0.0484267,657,1415,-2.46951,-1.4853
-560,-391,-3.00323,2.03979,-0.000723012,0.0055659,0.00812269,0.0111315,-0.00628864,0.970075,0.0101863,0.0355942,664,1415,-3.00326,-2.03977
-553,-391,-3.15161,2.25647,-0.00263066,0.00458187,0.00485677,0.00702485,-0.00507364,1.10475,0.00701528,0.0206069,671,1415,-3.15163,-2.25647
-546,-391,-3.19312,2.4552,-0.00222099,0.00362204,0.00312066,0.00497531,-0.00357426,1.16162,0.00495814,0.0109948,678,1415,-3.19312,-2.45525
-539,-391,-3.18665,2.62207,-0.00193651,0.00255027,0.00144064,0.00297301,-0.00235925,1.28537,0.00308537,0.0132069,685,1415,-3.18665,-2.6221
-532,-391,-3.1864,2.78955,-0.00176538,0.00139636,4.19753e-05,0.00139692,-0.00176594,1.55752,0.00183022,0.0238247,692,1415,-3.18641,-2.78958
-525,-391,-3.19873,2.97803,-0.00164637,-0.00016825,-0.000776173,0.000164443,-0.00197906,-1.16585,0.00137747,0.0229253,699,1415,-3.19872,-2.97805
-518,-391,-3.22662,3.14868,-0.00195026,-0.00135557,-0.0016909,6.39238e-05,-0.00336976,-0.872433,0.00226812,0.012932,706,1415,-3.2266,-3.14863
-511,-391,-3.2135,3.31055,-0.00250999,-0.00300579,-0.00271228,-3.42997e-05,-0.00548148,-0.739825,0.00364294,0.0107189,713,1415,-3.21351,-3.31054
-504,-391,-3.20392,3.49817,-0.00394397,-0.00449893,-0.00411514,-9.69651e-05,-0.00834593,-0.751734,0.00553191,0.0103415,720,1415,-3.2039,-3.49812
-497,-391,-3.18921,3.66858,-0.00594354,-0.00621754,-0.00582463,-0.000254305,-0.0119068,-0.77364,0.00785446,0.0090929,727,1415,-3.18922,-3.66857
-490,-391,-3.15826,3.83728,-0.00861133,-0.00836009,-0.00783278,-0.000651925,-0.0163195,-0.793416,0.010669,0.0132891,734,1415,-3.15827,-3.83732
-483,-391,-3.13324,3.91248,-0.0117363,-0.0100906,-0.0098788,-0.0010004,-0.0208264,-0.82695,0.0135631,0.0312548,741,1415,-3.13327,-3.91242
-476,-391,-3.42126,4.08142,-0.0152248,-0.0103922,-0.01251,-6.72685e-05,-0.0255497,-0.880799,0.0170108,0.0426607,748,1415,-3.42129,-4.08144
-469,-391,-3.20514,4.38049,0,0,0,0,0,0,0,-1,755,1415,-3.20516,-4.38049
-462,-391,-2.66479,3.86865,0,0,0,0,0,0,0,-1,762,1415,-2.66478,-3.86863
-455,-391,-2.00342,2.48022,0,0,0,0,0,0,0,-1,769,1415,-2.00344,-2.48017
-448,-391,-2.74487,3.34155,0,0,0,0,0,0,0,-1,776,1415,-2.74489,-3.3415
-441,-391,-2.80511,1.66772,0,0,0,0,0,0,0,-1,783,1415,-2.80509,-1.66773
-434,-391,-4.99182,0.0065918,0,0,0,0,0,0,0,-1,790,1415,-4.99185,-0.00653608
-427,-391,-4.73364,0.990479,0,0,0,0,0,0,0,-1,797,1415,-4.73362,-0.990476
-420,-391,-4.47412,1.97998,0,0,0,0,0,0,0,-1,804,1415,-4.47412,-1.97998
-413,-391,0,0,0,0,0,0,0,0,0,-1,811,1415,0,0
-406,-391,0,0,0,0,0,0,0,0,0,-1,818,1415,0,0
-399,-391,0,0,0,0,0,0,0,0,0,-1,825,1415,0,0
-392,-391,0,0,0,0,0,0,0,0,0,-1,832,1415,0,0
-385,-391,0,0,0,0,0,0,0,0,0,-1,839,1415,0,0
-378,-391,0,0,0,0,0,0,0,0,0,-1,846,1415,0,0
-371,-391,0,0,0,0,0,0,0,0,0,-1,853,1415,0,0
-364,-391,0,0,0,0,0,0,0,0,0,-1,860,1415,0,0
-357,-391,0,0,0,0,0,0,0,0,0,-1,867,1415,0,0
-350,-391,0,0,0,0,0,0,0,0,0,-1,874,1415,0,0
-343,-391,0,0,0,0,0,0,0,0,0,-1,881,1415,0,0
-336,-391,0,0,0,0,0,0,0,0,0,-1,888,1415,0,0
-329,-391,0,0,0,0,0,0,0,0,0,-1,895,1415,0,0
-322,-391,0,0,0,0,0,0,0,0,0,-1,902,1415,0,0
-315,-391,0,0,0,0,0,0,0,0,0,-1,909,1415,0,0
-308,-391,0,0,0,0,0,0,0,0,0,-1,916,1415,0,0
-301,-391,0,0,0,0,0,0,0,0,0,-1,923,1415,0,0
-294,-391,0,0,0,0,0,0,0,0,0,-1,930,1415,0,0
-287,-391,0,0,0,0,0,0,0,0,0,-1,937,1415,0,0
-280,-391,0,0,0,0,0,0,0,0,0,-1,944,1415,0,0
-273,-391,0,0,0,0,0,0,0,0,0,-1,951,1415,0,0
-266,-391,0,0,0,0,0,0,0,0,0,-1,958,1415,0,0
-259,-391,0,0,0,0,0,0,0,0,0,-1,965,1415,0,0
-252,-391,0,0,0,0,0,0,0,0,0,-1,972,1415,0,0
-245,-391,0,0,0,0,0,0,0,0,0,-1,979,1415,0,0
-238,-391,0,0,0,0,0,0,0,0,0,-1,986,1415,0,0
-231,-391,0,0,0,0,0,0,0,0,0,-1,993,1415,0,0
-224,-391,0,0,0,0,0,0,0,0,0,-1,1000,1415,0,0
-217,-391,0,0,0,0,0,0,0,0,0,-1,1007,1415,0,0
-210,-391,0,0,0,0,0,0,0,0,0,-1,1014,1415,0,0
-203,-391,0,0,0,0,0,0,0,0,0,-1,1021,1415,0,0
-196,-391,0,0,0,0,0,0,0,0,0,-1,1028,1415,0,0
-189,-391,0,0,0,0,0,0,0,0,0,-1,1035,1415,0,0
-182,-391,0,0,0,0,0,0,0,0,0,-1,1042,1415,0,0
-175,-391,0,0,0,0,0,0,0,0,0,-1,1049,1415,0,0
-168,-391,0,0,0,0,0,0,0,0,0,-1,1056,1415,0,0
-161,-391,0,0,0,0,0,0,0,0,0,-1,1063,1415,0,0
-154,-391,0,0,0,0,0,0,0,0,0,-1,1070,1415,0,0
-147,-391,0,0,0,0,0,0,0,0,0,-1,1077,1415,0,0
-140,-391,0,0,0,0,0,0,0,0,0,-1,1084,1415,0,0
-133,-391,0,0,0,0,0,0,0,0,0,-1,1091,1415,0,0
-126,-391,0,0,0,0,0,0,0,0,0,-1,1098,1415,0,0
-119,-391,0,0,0,0,0,0,0,0,0,-1,1105,1415,0,0
-112,-391,0,0,0,0,0,0,0,0,0,-1,1112,1415,0,0
-105,-391,0,0,0,0,0,0,0,0,0,-1,1119,1415,0,0
-98,-391,0,0,0,0,0,0,0,0,0,-1,1126,1415,0,0
-91,-391,0,0,0,0,0,0,0,0,0,-1,1133,1415,0,0
-84,-391,0,0,0,0,0,0,0,0,0,-1,1140,1415,0,0
-77,-391,0,0,0,0,0,0,0,0,0,-1,1147,1415,0,0
-70,-391,0,0,0,0,0,0,0,0,0,-1,1154,1415,0,0
-63,-391,0,0,0,0,0,0,0,0,0,-1,1161,1415,0,0
-56,-391,0,0,0,0,0,0,0,0,0,-1,1168,1415,0,0
-49,-391,0,0,0,0,0,0,0,0,0,-1,1175,1415,0,0
-42,-391,0,0,0,0,0,0,0,0,0,-1,1182,1415,0,0
-35,-391,0,0,0,0,0,0,0,0,0,-1,1189,1415,0,0
-28,-391,0,0,0,0,0,0,0,0,0,-1,1196,1415,0,0
-21,-391,0,0,0,0,0,0,0,0,0,-1,1203,1415,0,0
-14,-391,0,0,0,0,0,0,0,0,0,-1,1210,1415,0,0
-7,-391,0,0,0,0,0,0,0,0,0,-1,1217,1415,0,0
0,-391,0,0,0,0,0,0,0,0,0,-1,1224,1415,0,0
7,-391,0,0,0,0,0,0,0,0,0,-1,1231,1415,0,0
14,-391,0,0,0,0,0,0,0,0,0,-1,1238,1415,0,0
21,-391,0,0,0,0,0,0,0,0,0,-1,1245,1415,0,0
28,-391,0,0,0,0,0,0,0,0,0,-1,1252,1415,0,0
35,-391,0,0,0,0,0,0,0,0,0,-1,1259,1415,0,0
42,-391,0,0,0,0,0,0,0,0,0,-1,1266,1415,0,0
49,-391,0,0,0,0,0,0,0,0,0,-1,1273,1415,0,0
56,-391,0,0,0,0,0,0,0,0,0,-1,1280,1415,0,0
63,-391,0,0,0,0,0,0,0,0,0,-1,1287,1415,0,0
70,-391,0,0,0,0,0,0,0,0,0,-1,1294,1415,0,0
77,-391,0,0,0,0,0,0,0,0,0,-1,1301,1415,0,0
84,-391,0,0,0,0,0,0,0,0,0,-1,1308,1415,0,0
91,-391,0,0,0,0,0,0,0,0,0,-1,1315,1415,0,0
98,-391,0,0,0,0,0,0,0,0,0,-1,1322,1415,0,0
105,-391,0,0,0,0,0,0,0,0,0,-1,1329,1415,0,0
112,-391,0,0,0,0,0,0,0,0,0,-1,1336,1415,0,0
119,-391,0,0,0,0,0,0,0,0,0,-1,1343,1415,0,0
126,-391,0,0,0,0,0,0,0,0,0,-1,1350,1415,0,0
133,-391,0,0,0,0,0,0,0,0,0,-1,1357,1415,0,0
140,-391,0,0,0,0,0,0,0,0,0,-1,1364,1415,0,0
147,-391,0,0,0,0,0,0,0,0,0,-1,1371,1415,0,0
154,-391,0,0,0,0,0,0,0,0,0,-1,1378,1415,0,0
161,-391,0,0,0,0,0,0,0,0,0,-1,1385,1415,0,0
168,-391,0,0,0,0,0,0,0,0,0,-1,1392,1415,0,0
175,-391,0,0,0,0,0,0,0,0,0,-1,1399,1415,0,0
182,-391,0,0,0,0,0,0,0,0,0,-1,1406,1415,0,0
189,-391,0,0,0,0,0,0,0,0,0,-1,1413,1415,0,0
196,-391,0,0,0,0,0,0,0,0,0,-1,1420,1415,0,0
203,-391,0,0,0,0,0,0,0,0,0,-1,1427,1415,0,0
210,-391,0,0,0,0,0,0,0,0,0,-1,1434,1415,0,0
217,-391,0,0,0,0,0,0,0,0,0,-1,1441,1415,0,0
224,-391,0,0,0,0,0,0,0,0,0,-1,1448,1415,0,0
231,-391,0,0,0,0,0,0,0,0,0,-1,1455,1415,0,0
238,-391,0,0,0,0,0,0,0,0,0,-1,1462,1415,0,0
245,-391,0,0,0,0,0,0,0,0,0,-1,1469,1415,0,0
252,-391,0,0,0,0,0,0,0,0,0,-1,1476,1415,0,0
259,-391,0,0,0,0,0,0,0,0,0,-1,1483,1415,0,0
266,-391,0,0,0,0,0,0,0,0,0,-1,1490,1415,0,0
273,-391,0,0,0,0,0,0,0,0,0,-1,1497,1415,0,0
280,-391,0,0,0,0,0,0,0,0,0,-1,1504,1415,0,0
287,-391,0,0,0,0,0,0,0,0,0,-1,1511,1415,0,0
294,-391,0,0,0,0,0,0,0,0,0,-1,1518,1415,0,0
301,-391,0,0,0,0,0,0,0,0,0,-1,1525,1415,0,0
308,-391,0,0,0,0,0,0,0,0,0,-1,1532,1415,0,0
315,-391,0,0,0,0,0,0,0,0,0,-1,1539,1415,0,0
322,-391,0,0,0,0,0,0,0,0,0,-1,1546,1415,0,0
329,-391,0,0,0,0,0,0,0,0,0,-1,1553,1415,0,0
336,-391,0,0,0,0,0,0,0,0,0,-1,1560,1415,0,0
343,-391,0,0,0,0,0,0,0,0,0,-1,1567,1415,0,0
350,-391,0,0,0,0,0,0,0,0,0,-1,1574,1415,0,0
357,-391,0,0,0,0,0,0,0,0,0,-1,1581,1415,0,0
364,-391,0,0,0,0,0,0,0,0,0,-1,1588,1415,0,0
371,-391,0,0,0,0,0,0,0,0,0,-1,1595,1415,0,0
378,-391,0,0,0,0,0,0,0,0,0,-1,1602,1415,0,0
385,-391,0,0,0,0,0,0,0,0,0,-1,1609,1415,0,0
392,-391,0,0,0,0,0,0,0,0,0,-1,1616,1415,0,0
399,-391,0,0,0,0,0,0,0,0,0,-1,1623,1415,0,0
406,-391,0,0,0,0,0,0,0,0,0,-1,1630,1415,0,0
413,-391,0,0,0,0,0,0,0,0,0,-1,1637,1415,0,0
420,-391,0,0,0,0,0,0,0,0,0,-1,1644,1415,0,0
427,-391,0,0,0,0,0,0,0,0,0,-1,1651,1415,0,0
434,-391,0,0,0,0,0,0,0,0,0,-1,1658,1415,0,0
441,-391,0,0,0,0,0,0,0,0,0,-1,1665,1415,0,0
448,-391,0,0,0,0,0,0,0,0,0,-1,1672,1415,0,0
455,-391,0,0,0,0,0,0,0,0,0,-1,1679,1415,0,0
462,-391,0,0,0,0,0,0,0,0,0,-1,1686,1415,0,0
469,-391,0,0,0,0,0,0,0,0,0,-1,1693,1415,0,0
476,-391,0,0,0,0,0,0,0,0,0,-1,1700,1415,0,0
483,-391,0,0,0,0,0,0,0,0,0,-1,1707,1415,0,0
490,-391,0,0,0,0,0,0,0,0,0,-1,1714,1415,0,0
497,-391,0,0,0,0,0,0,0,0,0,-1,1721,1415,0,0
504,-391,0,0,0,0,0,0,0,0,0,-1,1728,1415,0,0
511,-391,0,0,0,0,0,0,0,0,0,-1,1735,1415,0,0
518,-391,0,0,0,0,0,0,0,0,0,-1,1742,1415,0,0
525,-391,0,0,0,0,0,0,0,0,0,-1,1749,1415,0,0
532,-391,14.6744,1.80005,0.130574,0.0787946,0.0417932,0.153847,0.0555218,0.508091,0.089962,0.0450154,1756,1415,14.6744,-1.8001
539,-391,15.3835,2.65051,0.101061,0.0739972,0.0447584,0.134288,0.0407697,0.638603,0.0795,0.0431552,1763,1415,15.3835,-2.65053
546,-391,16.0935,3.24585,0.0710074,0.0630784,0.0471458,0.114355,0.0197307,0.743452,0.0705851,0.0442442,1770,1415,16.0935,-3.24582
553,-391,16.4302,3.354,0.0446171,0.049371,0.0484994,0.0955517,-0.00156353,0.809884,0.0642287,0.0468431,1777,1415,16.4301,-3.35403
560,-391,13.4785,0.24939,0,0,0,0,0,0,0,-1,1784,1415,13.4785,-0.249376
567,-391,13.7308,1.1333,0.00360428,0.0216451,0.0479703,0.0614358,-0.0361864,0.878334,0.0569871,0.0464158,1791,1415,13.7309,-1.13324
574,-391,13.8302,2.02283,-0.0099139,0.00959737,0.0459956,0.0468605,-0.047177,0.889899,0.0542927,0.0427155,1798,1415,13.8302,-2.02277
581,-391,13.9064,3.07642,-0.01895,-0.000358653,0.0431098,0.0344463,-0.0537549,0.891586,0.0513281,0.0376041,1805,1415,13.9064,-3.07643
588,-391,12.8007,2.99231,-0.0261469,-0.00761853,0.0396846,0.0238689,-0.0576343,0.900067,0.0483832,0.0467192,1812,1415,12.8007,-2.99235
595,-391,11.3872,4.50488,0,0,0,0,0,0,0,-1,1819,1415,11.3873,-4.50483
602,-391,11.0223,4.99316,0,0,0,0,0,0,0,-1,1826,1415,11.0223,-4.9932
609,-391,10.8665,5.03247,0,0,0,0,0,0,0,-1,1833,1415,10.8665,-5.0325
616,-391,10.1953,5.06445,0,0,0,0,0,0,0,-1,1840,1415,10.1953,-5.0644
623,-391,10.0928,5.33948,-0.0154191,-0.0168363,0.0167115,0.000598889,-0.0328542,0.76421,0.0221051,0.0178773,1847,1415,10.0928,-5.33949
630,-391,10.1018,5.20544,-0.0108002,-0.0140763,0.0123033,-2.63406e-05,-0.0248501,0.719218,0.0165579,0.0159095,1854,1415,10.1019,-5.20544
637,-391,10.0902,5.09375,-0.00665266,-0.0102502,0.00846636,0.000203925,-0.0171067,0.680726,0.0114731,0.0141005,1861,1415,10.0902,-5.09378
644,-391,10.0642,4.95276,-0.00368421,-0.00687122,0.00587476,0.000809331,-0.0113648,0.652962,0.00786018,0.0146727,1868,1415,10.0642,-4.95277
651,-391,10.0685,4.8103,-0.00195246,-0.00422511,0.00386166,0.000936593,-0.00711416,0.642308,0.00508381,0.0153381,1875,1415,10.0685,-4.81032
658,-391,10.084,4.65662,-0.00104071,-0.00229152,0.0026421,0.00104899,-0.00438123,0.669184,0.00332609,0.0151131,1882,1415,10.084,-4.65658
665,-391,10.093,4.49939,-0.000857795,-0.00168415,0.00202278,0.000793576,-0.00333552,0.684653,0.00253004,0.0126261,1889,1415,10.0931,-4.49936
672,-391,10.097,4.34302,-0.000842339,-0.0017169,0.00195834,0.000726948,-0.00328619,0.675555,0.00246904,0.0120765,1896,1415,10.0971,-4.34297
679,-391,10.094,4.21155,-0.00046288,-0.00280383,0.00168873,0.000421347,-0.00368806,0.482354,0.00261052,0.0116443,1903,1415,10.094,-4.21154
686,-391,10.1023,4.0387,0.000653119,-0.00530256,0.0014578,0.000990807,-0.00564025,0.227627,0.00413024,0.0122444,1910,1415,10.1023,-4.03872
693,-391,10.0927,3.94373,0.00284117,-0.00886396,0.000821364,0.00289852,-0.00892132,0.0697159,0.00711337,0.0241735,1917,1415,10.0926,-3.94367
700,-391,10.0133,4.25183,0.005664,-0.0133394,-0.000362642,0.00567092,-0.0133463,-0.0190737,0.0112738,0.0488707,1924,1415,10.0133,-4.25184
707,-391,10.0829,4.47766,0,0,0,0,0,0,0,-1,1931,1415,10.0828,-4.47769
714,-391,10.2535,5.97449,0,0,0,0,0,0,0,-1,1938,1415,10.2535,-5.97455
721,-391,13.0741,7.28149,0,0,0,0,0,0,0,-1,1945,1415,13.0741,-7.2815
728,-391,13.4933,6.71106,0,0,0,0,0,0,0,-1,1952,1415,13.4933,-6.71106
735,-391,0,0,0,0,0,0,0,0,0,-1,1959,1415,0,0
742,-391,0,0,0,0,0,0,0,0,0,-1,1966,1415,0,0
749,-391,0,0,0,0,0,0,0,0,0,-1,1973,1415,0,0
756,-391,0,0,0,0,0,0,0,0,0,-1,1980,1415,0,0
763,-391,0,0,0,0,0,0,0,0,0,-1,1987,1415,0,0
770,-391,0,0,0,0,0,0,0,0,0,-1,1994,1415,0,0
777,-391,0,0,0,0,0,0,0,0,0,-1,2001,1415,0,0
784,-391,0,0,0,0,0,0,0,0,0,-1,2008,1415,0,0
791,-391,0,0,0,0,0,0,0,0,0,-1,2015,1415,0,0
798,-391,0,0,0,0,0,0,0,0,0,-1,2022,1415,0,0
805,-391,0,0,0,0,0,0,0,0,0,-1,2029,1415,0,0
812,-391,0,0,0,0,0,0,0,0,0,-1,2036,1415,0,0
-700,-398,0,0,0,0,0,0,0,0,0,-1,524,1422,0,0
-693,-398,0,0,0,0,0,0,0,0,0,-1,531,1422,0,0
-686,-398,0,0,0,0,0,0,0,0,0,-1,538,1422,0,0
-679,-398,0,0,0,0,0,0,0,0,0,-1,545,1422,0,0
-672,-398,0,0,0,0,0,0,0,0,0,-1,552,1422,0,0
-665,-398,0,0,0,0,0,0,0,0,0,-1,559,1422,0,0
-658,-398,0,0,0,0,0,0,0,0,0,-1,566,1422,0,0
-651,-398,0,0,0,0,0,0,0,0,0,-1,573,1422,0,0
-644,-398,0,0,0,0,0,0,0,0,0,-1,580,1422,0,0
-637,-398,0,0,0,0,0,0,0,0,0,-1,587,1422,0,0
-630,-398,0,0,0,0,0,0,0,0,0,-1,594,1422,0,0
-623,-398,0,0,0,0,0,0,0,0,0,-1,601,1422,0,0
-616,-398,0,0,0,0,0,0,0,0,0,-1,608,1422,0,0
-609,-398,-3.33698,-1.53345,0,0,0,0,0,0,0,-1,615,1422,-3.33696,1.5334
-602,-398,-2.7345,-0.670044,0,0,0,0,0,0,0,-1,622,1422,-2.73449,0.670013
-595,-398,-5.55707,0.428101,0,0,0,0,0,0,0,-1,629,1422,-5.55708,-0.428075
-588,-398,-2.3526,0.922974,0,0,0,0,0,0,0,-1,636,1422,-2.35259,-0.922998
-581,-398,-2.15857,1.22583,0,0,0,0,0,0,0,-1,643,1422,-2.15855,-1.22588
-574,-398,-2.22162,1.38342,0,0,0,0,0,0,0,-1,650,1422,-2.22161,-1.38348
-567,-398,-2.0473,1.22119,0,0,0,0,0,0,0,-1,657,1422,-2.04729,-1.22114
-560,-398,-2.77179,2.00647,0.00500871,0.00543914,0.0105919,0.015818,-0.00537012,0.795556,0.012719,0.041887,664,1422,-2.77177,-2.00648
-553,-398,-2.94208,2.26697,0.00169646,0.00473031,0.00680222,0.0101827,-0.00375592,0.895106,0.00832772,0.0260375,671,1422,-2.94209,-2.26703
-546,-398,-3.02527,2.45715,0.000956793,0.00396765,0.0046883,0.00738629,-0.00246186,0.94075,0.00591803,0.0124224,678,1422,-3.0253,-2.45713
-539,-398,-3.01373,2.6543,0.000465311,0.0031098,0.00278671,0.00487205,-0.00129694,1.00691,0.00375574,0.0118947,685,1422,-3.01372,-2.65436
-532,-398,-3.01947,2.8302,9.22409e-05,0.00205056,0.00127052,0.00267545,-0.000532653,1.1137,0.00198515,0.0194056,692,1422,-3.01947,-2.83021
-525,-398,-3.00635,3.00403,-0.000216741,0.000622274,0.000377473,0.0007671,-0.000361567,1.20444,0.000665509,0.0185675,699,1422,-3.00632,-3.00402
-518,-398,-3.00671,3.16736,-0.000799947,-0.000477499,-0.000547031,-6.84281e-05,-0.00120902,-0.928704,0.000784199,0.0153626,706,1422,-3.0067,-3.16736
-511,-398,-3.0235,3.30493,-0.00151427,-0.00195335,-0.00150304,-0.000214824,-0.0032528,-0.712879,0.00210059,0.0116851,713,1422,-3.02349,-3.30498
-504,-398,-3.00623,3.4834,-0.00290717,-0.00321448,-0.00275597,-0.00030058,-0.00582108,-0.75755,0.0037845,0.01219,720,1422,-3.00622,-3.48335
-497,-398,-3.00616,3.65845,-0.00463444,-0.00462445,-0.00424416,-0.00038528,-0.00887361,-0.785986,0.00579158,0.00937171,727,1422,-3.00617,-3.6585
-490,-398,-3.00781,3.82886,-0.00689375,-0.00651972,-0.00600032,-0.000703499,-0.01271,-0.800977,0.00824882,0.00919322,734,1422,-3.00781,-3.82889
-483,-398,-2.95679,4.04773,-0.00944871,-0.00787569,-0.00776305,-0.000859407,-0.016465,-0.835883,0.0107017,0.0174296,741,1422,-2.95681,-4.04771
-476,-398,-3.04651,4.15027,-0.012219,-0.00773401,-0.0100998,0.000369253,-0.0203222,-0.894642,0.0136729,0.0387167,748,1422,-3.04651,-4.1503
-469,-398,-3.03729,4.43945,-0.0149459,-0.00776549,-0.0135737,0.00268476,-0.0253962,-0.914687,0.017893,0.0498424,755,1422,-3.03729,-4.4394
-462,-398,-2.83075,4.70093,-0.0182115,-0.00689844,-0.017653,0.00598215,-0.0310921,-0.940444,0.0229831,0.0467168,762,1422,-2.83073,-4.70096
-455,-398,-2.46423,4.7998,0,0,0,0,0,0,0,-1,769,1422,-2.46426,-4.79983
-448,-398,-4.05127,3.44458,0,0,0,0,0,0,0,-1,776,1422,-4.05126,-3.44461
-441,-398,-2.95306,2.51233,0,0,0,0,0,0,0,-1,783,1422,-2.95305,-2.51227
-434,-398,-3.71259,0.368286,0,0,0,0,0,0,0,-1,790,1422,-3.7126,-0.368295
-427,-398,-3.55646,1.08508,0,0,0,0,0,0,0,-1,797,1422,-3.55649,-1.0851
-420,-398,-2.02679,3.55188,0,0,0,0,0,0,0,-1,804,1422,-2.02678,-3.5519
-413,-398,-1.77942,2.48938,0,0,0,0,0,0,0,-1,811,1422,-1.77943,-2.48934
-406,-398,0,0,0,0,0,0,0,0,0,-1,818,1422,0,0
-399,-398,0,0,0,0,0,0,0,0,0,-1,825,1422,0,0
-392,-398,0,0,0,0,0,0,0,0,0,-1,832,1422,0,0
-385,-398,0,0,0,0,0,0,0,0,0,-1,839,1422,0,0
-378,-398,0,0,0,0,0,0,0,0,0,-1,846,1422,0,0
-371,-398,0,0,0,0,0,0,0,0,0,-1,853,1422,0,0
-364,-398,0,0,0,0,0,0,0,0,0,-1,860,1422,0,0
-357,-398,0,0,0,0,0,0,0,0,0,-1,867,1422,0,0
-350,-398,0,0,0,0,0,0,0,0,0,-1,874,1422,0,0
-343,-398,0,0,0,0,0,0,0,0,0,-1,881,1422,0,0
-336,-398,0,0,0,0,0,0,0,0,0,-1,888,1422,0,0
-329,-398,0,0,0,0,0,0,0,0,0,-1,895,1422,0,0
-322,-398,0,0,0,0,0,0,0,0,0,-1,902,1422,0,0
-315,-398,0,0,0,0,0,0,0,0,0,-1,909,1422,0,0
-308,-398,0,0,0,0,0,0,0,0,0,-1,916,1422,0,0
-301,-398,0,0,0,0,0,0,0,0,0,-1,923,1422,0,0
-294,-398,0,0,0,0,0,0,0,0,0,-1,930,1422,0,0
-287,-398,0,0,0,0,0,0,0,0,0,-1,937,1422,0,0
-280,-398,0,0,0,0,0,0,0,0,0,-1,944,1422,0,0
-273,-398,0,0,0,0,0,0,0,0,0,-1,951,1422,0,0
-266,-398,0,0,0,0,0,0,0,0,0,-1,958,1422,0,0
-259,-398,0,0,0,0,0,0,0,0,0,-1,965,1422,0,0
-252,-398,0,0,0,0,0,0,0,0,0,-1,972,1422,0,0
-245,-398,0,0,0,0,0,0,0,0,0,-1,979,1422,0,0
-238,-398,0,0,0,0,0,0,0,0,0,-1,986,1422,0,0
-231,-398,0,0,0,0,0,0,0,0,0,-1,993,1422,0,0
-224,-398,0,0,0,0,0,0,0,0,0,-1,1000,1422,0,0
-217,-398,0,0,0,0,0,0,0,0,0,-1,1007,1422,0,0
-210,-398,0,0,0,0,0,0,0,0,0,-1,1014,1422,0,0
-203,-398,0,0,0,0,0,0,0,0,0,-1,1021,1422,0,0
-196,-398,0,0,0,0,0,0,0,0,0,-1,1028,1422,0,0
-189,-398,0,0,0,0,0,0,0,0,0,-1,1035,1422,0,0
-182,-398,0,0,0,0,0,0,0,0,0,-1,1042,1422,0,0
-175,-398,0,0,0,0,0,0,0,0,0,-1,1049,1422,0,0
-168,-398,0,0,0,0,0,0,0,0,0,-1,1056,1422,0,0
-161,-398,0,0,0,0,0,0,0,0,0,-1,1063,1422,0,0
-154,-398,0,0,0,0,0,0,0,0,0,-1,1070,1422,0,0
-147,-398,0,0,0,0,0,0,0,0,0,-1,1077,1422,0,0
-140,-398,0,0,0,0,0,0,0,0,0,-1,1084,1422,0,0
-133,-398,0,0,0,0,0,0,0,0,0,-1,1091,1422,0,0
-126,-398,0,0,0,0,0,0,0,0,0,-1,1098,1422,0,0
-119,-398,0,0,0,0,0,0,0,0,0,-1,1105,1422,0,0
-112,-398,0,0,0,0,0,0,0,0,0,-1,1112,1422,0,0
-105,-398,0,0,0,0,0,0,0,0,0,-1,1119,1422,0,0
-98,-398,0,0,0,0,0,0,0,0,0,-1,1126,1422,0,0
-91,-398,0,0,0,0,0,0,0,0,0,-1,1133,1422,0,0
-84,-398,0,0,0,0,0,0,0,0,0,-1,1140,1422,0,0
-77,-398,0,0,0,0,0,0,0,0,0,-1,1147,1422,0,0
-70,-398,0,0,0,0,0,0,0,0,0,-1,1154,1422,0,0
-63,-398,0,0,0,0,0,0,0,0,0,-1,1161,1422,0,0
-56,-398,0,0,0,0,0,0,0,0,0,-1,1168,1422,0,0
-49,-398,0,0,0,0,0,0,0,0,0,-1,1175,1422,0,0
-42,-398,0,0,0,0,0,0,0,0,0,-1,1182,1422,0,0
-35,-398,0,0,0,0,0,0,0,0,0,-1,1189,1422,0,0
-28,-398,0,0,0,0,0,0,0,0,0,-1,1196,1422,0,0
-21,-398,0,0,0,0,0,0,0,0,0,-1,1203,1422,0,0
-14,-398,0,0,0,0,0,0,0,0,0,-1,1210,1422,0,0
-7,-398,0,0,0,0,0,0,0,0,0,-1,1217,1422,0,0
0,-398,0,0,0,0,0,0,0,0,0,-1,1224,1422,0,0
7,-398,0,0,0,0,0,0,0,0,0,-1,1231,1422,0,0
14,-398,0,0,0,0,0,0,0,0,0,-1,1238,1422,0,0
21,-398,0,0,0,0,0,0,0,0,0,-1,1245,1422,0,0
28,-398,0,0,0,0,0,0,0,0,0,-1,1252,1422,0,0
35,-398,0,0,0,0,0,0,0,0,0,-1,1259,1422,0,0
42,-398,0,0,0,0,0,0,0,0,0,-1,1266,1422,0,0
49,-398,0,0,0,0,0,0,0,0,0,-1,1273,1422,0,0
56,-398,0,0,0,0,0,0,0,0,0,-1,1280,1422,0,0
63,-398,0,0,0,0,0,0,0,0,0,-1,1287,1422,0,0
70,-398,0,0,0,0,0,0,0,0,0,-1,1294,1422,0,0
77,-398,0,0,0,0,0,0,0,0,0,-1,1301,1422,0,0
84,-398,0,0,0,0,0,0,0,0,0,-1,1308,1422,0,0
91,-398,0,0,0,0,0,0,0,0,0,-1,1315,1422,0,0
98,-398,0,0,0,0,0,0,0,0,0,-1,1322,1422,0,0
105,-398,0,0,0,0,0,0,0,0,0,-1,1329,1422,0,0
112,-398,0,0,0,0,0,0,0,0,0,-1,1336,1422,0,0
119,-398,0,0,0,0,0,0,0,0,0,-1,1343,1422,0,0
126,-398,0,0,0,0,0,0,0,0,0,-1,1350,1422,0,0
133,-398,0,0,0,0,0,0,0,0,0,-1,1357,1422,0,0
140,-398,0,0,0,0,0,0,0,0,0,-1,1364,1422,0,0
147,-398,0,0,0,0,0,0,0,0,0,-1,1371,1422,0,0
154,-398,0,0,0,0,0,0,0,0,0,-1,1378,1422,0,0
161,-398,0,0,0,0,0,0,0,0,0,-1,1385,1422,0,0
168,-398,0,0,0,0,0,0,0,0,0,-1,1392,1422,0,0
175,-398,0,0,0,0,0,0,0,0,0,-1,1399,1422,0,0
182,-398,0,0,0,0,0,0,0,0,0,-1,1406,1422,0,0
189,-398,0,0,0,0,0,0,0,0,0,-1,1413,1422,0,0
196,-398,0,0,0,0,0,0,0,0,0,-1,1420,1422,0,0
203,-398,0,0,0,0,0,0,0,0,0,-1,1427,1422,0,0
210,-398,0,0,0,0,0,0,0,0,0,-1,1434,1422,0,0
217,-398,0,0,0,0,0,0,0,0,0,-1,1441,1422,0,0
224,-398,0,0,0,0,0,0,0,0,0,-1,1448,1422,0,0
231,-398,0,0,0,0,0,0,0,0,0,-1,1455,1422,0,0
238,-398,0,0,0,0,0,0,0,0,0,-1,1462,1422,0,0
245,-398,0,0,0,0,0,0,0,0,0,-1,1469,1422,0,0
252,-398,0,0,0,0,0,0,0,0,0,-1,1476,1422,0,0
259,-398,0,0,0,0,0,0,0,0,0,-1,1483,1422,0,0
266,-398,0,0,0,0,0,0,0,0,0,-1,1490,1422,0,0
273,-398,0,0,0,0,0,0,0,0,0,-1,1497,1422,0,0
280,-398,0,0,0,0,0,0,0,0,0,-1,1504,1422,0,0
287,-398,0,0,0,0,0,0,0,0,0,-1,1511,1422,0,0
294,-398,0,0,0,0,0,0,0,0,0,-1,1518,1422,0,0
301,-398,0,0,0,0,0,0,0,0,0,-1,1525,1422,0,0
308,-398,0,0,0,0,0,0,0,0,0,-1,1532,1422,0,0
315,-398,0,0,0,0,0,0,0,0,0,-1,1539,1422,0,0
322,-398,0,0,0,0,0,0,0,0,0,-1,1546,1422,0,0
329,-398,0,0,0,0,0,0,0,0,0,-1,1553,1422,0,0
336,-398,0,0,0,0,0,0,0,0,0,-1,1560,1422,0,0
343,-398,0,0,0,0,0,0,0,0,0,-1,1567,1422,0,0
350,-398,0,0,0,0,0,0,0,0,0,-1,1574,1422,0,0
357,-398,0,0,0,0,0,0,0,0,0,-1,1581,1422,0,0
364,-398,0,0,0,0,0,0,0,0,0,-1,1588,1422,0,0
371,-398,0,0,0,0,0,0,0,0,0,-1,1595,1422,0,0
378,-398,0,0,0,0,0,0,0,0,0,-1,1602,1422,0,0
385,-398,0,0,0,0,0,0,0,0,0,-1,1609,1422,0,0
392,-398,0,0,0,0,0,0,0,0,0,-1,1616,1422,0,0
399,-398,0,0,0,0,0,0,0,0,0,-1,1623,1422,0,0
406,-398,0,0,0,0,0,0,0,0,0,-1,1630,1422,0,0
413,-398,0,0,0,0,0,0,0,0,0,-1,1637,1422,0,0
420,-398,0,0,0,0,0,0,0,0,0,-1,1644,1422,0,0
427,-398,0,0,0,0,0,0,0,0,0,-1,1651,1422,0,0
434,-398,0,0,0,0,0,0,0,0,0,-1,1658,1422,0,0
441,-398,0,0,0,0,0,0,0,0,0,-1,1665,1422,0,0
448,-398,0,0,0,0,0,0,0,0,0,-1,1672,1422,0,0
455,-398,0,0,0,0,0,0,0,0,0,-1,1679,1422,0,0
462,-398,0,0,0,0,0,0,0,0,0,-1,1686,1422,0,0
469,-398,0,0,0,0,0,0,0,0,0,-1,1693,1422,0,0
476,-398,0,0,0,0,0,0,0,0,0,-1,1700,1422,0,0
483,-398,0,0,0,0,0,0,0,0,0,-1,1707,1422,0,0
490,-398,0,0,0,0,0,0,0,0,0,-1,1714,1422,0,0
497,-398,0,0,0,0,0,0,0,0,0,-1,1721,1422,0,0
504,-398,0,0,0,0,0,0,0,0,0,-1,1728,1422,0,0
511,-398,0,0,0,0,0,0,0,0,0,-1,1735,1422,0,0
518,-398,0,0,0,0,0,0,0,0,0,-1,1742,1422,0,0
525,-398,0,0,0,0,0,0,0,0,0,-1,1749,1422,0,0
532,-398,14.356,1.87769,0.122542,0.060948,0.0528467,0.15291,0.0305794,0.521575,0.0934304,0.0424998,1756,1422,14.356,-1.87765
539,-398,14.9528,1.67578,0.097018,0.0561693,0.0539022,0.134236,0.0189516,0.604299,0.0838898,0.0463904,1763,1422,14.9527,-1.67576
546,-398,15.764,1.99182,0.0699288,0.0468907,0.0544318,0.114047,0.00277245,0.681125,0.0751243,0.0453151,1770,1422,15.7641,-1.99178
553,-398,17.1288,2.63232,0.0459815,0.035557,0.0543446,0.0953633,-0.0138247,0.737589,0.0686493,0.0435592,1777,1422,17.1288,-2.63234
560,-398,13.6803,-0.0582275,0,0,0,0,0,0,0,-1,1784,1422,13.6802,0.058263
567,-398,13.4803,1.20886,0.00543443,0.0121728,0.0514961,0.0604098,-0.0428025,0.818065,0.059878,0.0446301,1791,1422,13.4803,-1.20885
574,-398,13.5057,2.3584,-0.00825423,0.00210702,0.0486151,0.0458167,-0.0519639,0.83848,0.0564909,0.0442994,1798,1422,13.5058,-2.35843
581,-398,12.7301,3.17175,-0.0176231,-0.00607801,0.0449094,0.0334283,-0.0571294,0.849317,0.052877,0.0459537,1805,1422,12.7302,-3.17172
588,-398,12.201,3.6925,-0.0252008,-0.0118862,0.0408137,0.0228097,-0.0598966,0.866243,0.0493248,0.0470678,1812,1422,12.2011,-3.69254
595,-398,11.6898,4.37903,-0.0287713,-0.0167855,0.0359662,0.0136837,-0.0592405,0.867953,0.0447576,0.0463752,1819,1422,11.6898,-4.37906
602,-398,11.0624,4.94971,-0.0288229,-0.0197748,0.0306403,0.00667357,-0.0552713,0.858694,0.0392616,0.0497926,1826,1422,11.0624,-4.94975
609,-398,10.2168,5.42065,-0.0253347,-0.0199571,0.0256972,0.00319156,-0.0484833,0.837525,0.0334369,0.0394782,1833,1422,10.2167,-5.42069
616,-398,9.97205,5.50305,-0.0199218,-0.0182576,0.0205332,0.00146034,-0.0396397,0.80565,0.0269264,0.014978,1840,1422,9.97203,-5.50305
623,-398,9.93359,5.3927,-0.0153658,-0.0156634,0.0155752,6.12848e-05,-0.0310905,0.780622,0.0207475,0.00987484,1847,1422,9.93354,-5.39275
630,-398,9.9375,5.23242,-0.0108165,-0.0125115,0.0111241,-0.000507675,-0.0228203,0.747379,0.0150472,0.0107605,1854,1422,9.93756,-5.23248
637,-398,9.94006,5.09814,-0.00674455,-0.00873446,0.00739048,-0.000282349,-0.0151967,0.718487,0.0100383,0.0120251,1861,1422,9.94012,-5.09811
644,-398,9.89209,4.97681,-0.00392978,-0.00555603,0.00500841,0.000331079,-0.0098169,0.704924,0.0066577,0.0176785,1868,1422,9.89213,-4.97685
651,-398,9.92712,4.85681,-0.00231741,-0.00317131,0.00324539,0.000528991,-0.00601772,0.719996,0.00419926,0.0247596,1875,1422,9.92715,-4.85676
658,-398,9.94824,4.69849,-0.00157466,-0.00151828,0.00227801,0.000731712,-0.00382466,0.791585,0.00282544,0.0191922,1882,1422,9.94825,-4.69851
665,-398,9.95398,4.5083,-0.00158484,-0.00104465,0.00196575,0.000669471,-0.00329896,0.853671,0.00245311,0.0135416,1889,1422,9.954,-4.50824
672,-398,9.94958,4.3573,-0.00185239,-0.00112482,0.0022118,0.000752909,-0.00373013,0.866906,0.00277202,0.0128538,1896,1422,9.9496,-4.35733
679,-398,9.94897,4.21643,-0.00188998,-0.00234394,0.00227812,0.000172435,-0.00440636,0.735744,0.00299671,0.0120202,1903,1422,9.94897,-4.21643
686,-398,9.98022,4.06799,-0.0012759,-0.00497143,0.00241545,-8.25084e-05,-0.00616482,0.45889,0.00408266,0.0176514,1910,1422,9.98027,-4.06802
693,-398,9.92188,4.17529,0.000460414,-0.00886986,0.00203353,0.000884357,-0.0092938,0.205533,0.00651071,0.0404131,1917,1422,9.92192,-4.17533
700,-398,9.89282,4.30823,0,0,0,0,0,0,0,-1,1924,1422,9.89284,-4.30819
707,-398,9.78259,5.85315,0,0,0,0,0,0,0,-1,1931,1422,9.78261,-5.85314
714,-398,7.05786,4.02783,0,0,0,0,0,0,0,-1,1938,1422,7.05788,-4.02779
721,-398,13.778,7.50818,0,0,0,0,0,0,0,-1,1945,1422,13.7779,-7.50821
728,-398,14.2487,6.92688,0,0,0,0,0,0,0,-1,1952,1422,14.2487,-6.92687
735,-398,0,0,0,0,0,0,0,0,0,-1,1959,1422,0,0
742,-398,0,0,0,0,0,0,0,0,0,-1,1966,1422,0,0
749,-398,0,0,0,0,0,0,0,0,0,-1,1973,1422,0,0
756,-398,0,0,0,0,0,0,0,0,0,-1,1980,1422,0,0
763,-398,0,0,0,0,0,0,0,0,0,-1,1987,1422,0,0
770,-398,0,0,0,0,0,0,0,0,0,-1,1994,1422,0,0
777,-398,0,0,0,0,0,0,0,0,0,-1,2001,1422,0,0
784,-398,0,0,0,0,0,0,0,0,0,-1,2008,1422,0,0
791,-398,0,0,0,0,0,0,0,0,0,-1,2015,1422,0,0
798,-398,0,0,0,0,0,0,0,0,0,-1,2022,1422,0,0
805,-398,0,0,0,0,0,0,0,0,0,-1,2029,1422,0,0
812,-398,0,0,0,0,0,0,0,0,0,-1,2036,1422,0,0
-700,-405,0,0,0,0,0,0,0,0,0,-1,524,1429,0,0
-693,-405,0,0,0,0,0,0,0,0,0,-1,531,1429,0,0
-686,-405,0,0,0,0,0,0,0,0,0,-1,538,1429,0,0
-679,-405,0,0,0,0,0,0,0,0,0,-1,545,1429,0,0
-672,-405,0,0,0,0,0,0,0,0,0,-1,552,1429,0,0
-665,-405,0,0,0,0,0,0,0,0,0,-1,559,1429,0,0
-658,-405,0,0,0,0,0,0,0,0,0,-1,566,1429,0,0
-651,-405,0,0,0,0,0,0,0,0,0,-1,573,1429,0,0
-644,-405,0,0,0,0,0,0,0,0,0,-1,580,1429,0,0
-637,-405,0,0,0,0,0,0,0,0,0,-1,587,1429,0,0
-630,-405,0,0,0,0,0,0,0,0,0,-1,594,1429,0,0
-623,-405,0,0,0,0,0,0,0,0,0,-1,601,1429,0,0
-616,-405,0,0,0,0,0,0,0,0,0,-1,608,1429,0,0
-609,-405,0,0,0,0,0,0,0,0,0,-1,615,1429,0,0
-602,-405,-3.38171,-0.652466,0,0,0,0,0,0,0,-1,622,1429,-3.3817,0.65242
-595,-405,-3.05682,0.126221,0,0,0,0,0,0,0,-1,629,1429,-3.05683,-0.126181
-588,-405,-2.70862,0.816772,0,0,0,0,0,0,0,-1,636,1429,-2.70864,-0.816738
-581,-405,-2.37775,1.15454,0,0,0,0,0,0,0,-1,643,1429,-2.37776,-1.15458
-574,-405,-2.16785,1.27283,0,0,0,0,0,0,0,-1,650,1429,-2.16785,-1.27284
-567,-405,-2.44788,1.59705,0,0,0,0,0,0,0,-1,657,1429,-2.44785,-1.59706
-560,-405,-2.57727,1.97559,0,0,0,0,0,0,0,-1,664,1429,-2.57725,-1.97557
-553,-405,-2.67651,2.19019,0.00888762,0.00422299,0.0100225,0.0168456,-0.00373502,0.671079,0.0126604,0.0371947,671,1429,-2.67651,-2.19017
-546,-405,-2.83942,2.42737,0.00647533,0.0037143,0.00740529,0.0126277,-0.00243806,0.693245,0.00933785,0.017791,678,1429,-2.83942,-2.42738
-539,-405,-2.8584,2.61353,0.00472124,0.00307153,0.00512418,0.00908653,-0.00129376,0.705596,0.00653179,0.0112918,685,1429,-2.85841,-2.61356
-532,-405,-2.8551,2.82593,0.00339021,0.0022113,0.00328982,0.00614297,-0.000541457,0.696751,0.00428721,0.0153278,692,1429,-2.85507,-2.8259
-525,-405,-2.82843,3.00854,0.00231023,0.00102764,0.00208877,0.00385394,-0.000516066,0.636456,0.00275746,0.0143435,699,1429,-2.82844,-3.00859
-518,-405,-2.82196,3.1687,0.00115635,0.000104885,0.000937112,0.00170513,-0.000443893,0.529768,0.00131003,0.0140514,706,1429,-2.82194,-3.16874
-511,-405,-2.84229,3.31116,-3.83862e-06,-0.00110186,-0.000162432,1.96861e-05,-0.00112539,-0.143828,0.000756905,0.0145392,713,1429,-2.84226,-3.31116
-504,-405,-2.83301,3.47351,-0.00159608,-0.00208768,-0.00144946,-0.000371729,-0.00331203,-0.701406,0.00209513,0.0165369,720,1429,-2.83299,-3.47351
-497,-405,-2.82678,3.66138,-0.00323831,-0.00319508,-0.00288246,-0.000334154,-0.00609923,-0.789148,0.00395947,0.01336,727,1429,-2.82676,-3.66142
-490,-405,-2.83868,3.84668,-0.00529146,-0.00486083,-0.00453212,-0.00053892,-0.00961338,-0.809135,0.00623704,0.0104314,734,1429,-2.83869,-3.84664
-483,-405,-2.82678,4.01514,-0.00750893,-0.00590147,-0.00614564,-0.000507224,-0.0129032,-0.85042,0.00843813,0.0093101,741,1429,-2.8268,-4.01509
-476,-405,-2.79602,4.18787,-0.00976921,-0.00545807,-0.0082278,0.000891835,-0.0161191,-0.913512,0.0110554,0.0243096,748,1429,-2.79603,-4.18785
-469,-405,-2.84143,4.30542,-0.0120126,-0.00531662,-0.0113309,0.00315056,-0.0204798,-0.929048,0.0148155,0.0422056,755,1429,-2.84143,-4.30543
-462,-405,-2.83331,4.56824,-0.0147178,-0.00435893,-0.0149886,0.00631992,-0.0253966,-0.951754,0.0193842,0.046044,762,1429,-2.83333,-4.56825
-455,-405,-3.03088,4.68555,-0.0174395,-0.00202921,-0.0198313,0.0115413,-0.0310099,-0.970689,0.0254096,0.0461771,769,1429,-3.03087,-4.68558
-448,-405,-3.54712,4.7373,0,0,0,0,0,0,0,-1,776,1429,-3.5471,-4.73729
-441,-405,-3.953,3.60315,0,0,0,0,0,0,0,-1,783,1429,-3.95302,-3.6031
-434,-405,-1.48053,1.55676,0,0,0,0,0,0,0,-1,790,1429,-1.48053,-1.55682
-427,-405,-2.31445,4.56921,0,0,0,0,0,0,0,-1,797,1429,-2.31443,-4.56921
-420,-405,-2.51123,1.51331,0,0,0,0,0,0,0,-1,804,1429,-2.51123,-1.51333
-413,-405,-2.64545,2.01294,0,0,0,0,0,0,0,-1,811,1429,-2.64547,-2.01294
-406,-405,-4.23456,1.06335,0,0,0,0,0,0,0,-1,818,1429,-4.23453,-1.06332
-399,-405,0,0,0,0,0,0,0,0,0,-1,825,1429,0,0
-392,-405,0,0,0,0,0,0,0,0,0,-1,832,1429,0,0
-385,-405,0,0,0,0,0,0,0,0,0,-1,839,1429,0,0
-378,-405,0,0,0,0,0,0,0,0,0,-1,846,1429,0,0
-371,-405,0,0,0,0,0,0,0,0,0,-1,853,1429,0,0
-364,-405,0,0,0,0,0,0,0,0,0,-1,860,1429,0,0
-357,-405,0,0,0,0,0,0,0,0,0,-1,867,1429,0,0
-350,-405,0,0,0,0,0,0,0,0,0,-1,874,1429,0,0
-343,-405,0,0,0,0,0,0,0,0,0,-1,881,1429,0,0
-336,-405,0,0,0,0,0,0,0,0,0,-1,888,1429,0,0
-329,-405,0,0,0,0,0,0,0,0,0,-1,895,1429,0,0
-322,-405,0,0,0,0,0,0,0,0,0,-1,902,1429,0,0
-315,-405,0,0,0,0,0,0,0,0,0,-1,909,1429,0,0
-308,-405,0,0,0,0,0,0,0,0,0,-1,916,1429,0,0
-301,-405,0,0,0,0,0,0,0,0,0,-1,923,1429,0,0
-294,-405,0,0,0,0,0,0,0,0,0,-1,930,1429,0,0
-287,-405,0,0,0,0,0,0,0,0,0,-1,937,1429,0,0
-280,-405,0,0,0,0,0,0,0,0,0,-1,944,1429,0,0
-273,-405,0,0,0,0,0,0,0,0,0,-1,951,1429,0,0
-266,-405,0,0,0,0,0,0,0,0,0,-1,958,1429,0,0
-259,-405,0,0,0,0,0,0,0,0,0,-1,965,1429,0,0
-252,-405,0,0,0,0,0,0,0,0,0,-1,972,1429,0,0
-245,-405,0,0,0,0,0,0,0,0,0,-1,979,1429,0,0
-238,-405,0,0,0,0,0,0,0,0,0,-1,986,1429,0,0
-231,-405,0,0,0,0,0,0,0,0,0,-1,993,1429,0,0
-224,-405,0,0,0,0,0,0,0,0,0,-1,1000,1429,0,0
-217,-405,0,0,0,0,0,0,0,0,0,-1,1007,1429,0,0
-210,-405,0,0,0,0,0,0,0,0,0,-1,1014,1429,0,0
-203,-405,0,0,0,0,0,0,0,0,0,-1,1021,1429,0,0
-196,-405,0,0,0,0,0,0,0,0,0,-1,1028,1429,0,0
-189,-405,0,0,0,0,0,0,0,0,0,-1,1035,1429,0,0
-182,-405,0,0,0,0,0,0,0,0,0,-1,1042,1429,0,0
-175,-405,0,0,0,0,0,0,0,0,0,-1,1049,1429,0,0
-168,-405,0,0,0,0,0,0,0,0,0,-1,1056,1429,0,0
-161,-405,0,0,0,0,0,0,0,0,0,-1,1063,1429,0,0
-154,-405,0,0,0,0,0,0,0,0,0,-1,1070,1429,0,0
-147,-405,0,0,0,0,0,0,0,0,0,-1,1077,1429,0,0
-140,-405,0,0,0,0,0,0,0,0,0,-1,1084,1429,0,0
-133,-405,0,0,0,0,0,0,0,0,0,-1,1091,1429,0,0
-126,-405,0,0,0,0,0,0,0,0,0,-1,1098,1429,0,0
-119,-405,0,0,0,0,0,0,0,0,0,-1,1105,1429,0,0
-112,-405,0,0,0,0,0,0,0,0,0,-1,1112,1429,0,0
-105,-405,0,0,0,0,0,0,0,0,0,-1,1119,1429,0,0
-98,-405,0,0,0,0,0,0,0,0,0,-1,1126,1429,0,0
-91,-405,0,0,0,0,0,0,0,0,0,-1,1133,1429,0,0
-84,-405,0,0,0,0,0,0,0,0,0,-1,1140,1429,0,0
-77,-405,0,0,0,0,0,0,0,0,0,-1,1147,1429,0,0
-70,-405,0,0,0,0,0,0,0,0,0,-1,1154,1429,0,0
-63,-405,0,0,0,0,0,0,0,0,0,-1,1161,1429,0,0
-56,-405,0,0,0,0,0,0,0,0,0,-1,1168,1429,0,0
-49,-405,0,0,0,0,0,0,0,0,0,-1,1175,1429,0,0
-42,-405,0,0,0,0,0,0,0,0,0,-1,1182,1429,0,0
-35,-405,0,0,0,0,0,0,0,0,0,-1,1189,1429,0,0
-28,-405,0,0,0,0,0,0,0,0,0,-1,1196,1429,0,0
-21,-405,0,0,0,0,0,0,0,0,0,-1,1203,1429,0,0
-14,-405,0,0,0,0,0,0,0,0,0,-1,1210,1429,0,0
-7,-405,0,0,0,0,0,0,0,0,0,-1,1217,1429,0,0
0,-405,0,0,0,0,0,0,0,0,0,-1,1224,1429,0,0
7,-405,0,0,0,0,0,0,0,0,0,-1,1231,1429,0,0
14,-405,0,0,0,0,0,0,0,0,0,-1,1238,1429,0,0
21,-405,0,0,0,0,0,0,0,0,0,-1,1245,1429,0,0
28,-405,0,0,0,0,0,0,0,0,0,-1,1252,1429,0,0
35,-405,0,0,0,0,0,0,0,0,0,-1,1259,1429,0,0
42,-405,0,0,0,0,0,0,0,0,0,-1,1266,1429,0,0
49,-405,0,0,0,0,0,0,0,0,0,-1,1273,1429,0,0
56,-405,0,0,0,0,0,0,0,0,0,-1,1280,1429,0,0
63,-405,0,0,0,0,0,0,0,0,0,-1,1287,1429,0,0
70,-405,0,0,0,0,0,0,0,0,0,-1,1294,1429,0,0
77,-405,0,0,0,0,0,0,0,0,0,-1,1301,1429,0,0
84,-405,0,0,0,0,0,0,0,0,0,-1,1308,1429,0,0
91,-405,0,0,0,0,0,0,0,0,0,-1,1315,1429,0,0
98,-405,0,0,0,0,0,0,0,0,0,-1,1322,1429,0,0
105,-405,0,0,0,0,0,0,0,0,0,-1,1329,1429,0,0
112,-405,0,0,0,0,0,0,0,0,0,-1,1336,1429,0,0
119,-405,0,0,0,0,0,0,0,0,0,-1,1343,1429,0,0
126,-405,0,0,0,0,0,0,0,0,0,-1,1350,1429,0,0
133,-405,0,0,0,0,0,0,0,0,0,-1,1357,1429,0,0
140,-405,0,0,0,0,0,0,0,0,0,-1,1364,1429,0,0
147,-405,0,0,0,0,0,0,0,0,0,-1,1371,1429,0,0
154,-405,0,0,0,0,0,0,0,0,0,-1,1378,1429,0,0
161,-405,0,0,0,0,0,0,0,0,0,-1,1385,1429,0,0
168,-405,0,0,0,0,0,0,0,0,0,-1,1392,1429,0,0
175,-405,0,0,0,0,0,0,0,0,0,-1,1399,1429,0,0
182,-405,0,0,0,0,0,0,0,0,0,-1,1406,1429,0,0
189,-405,0,0,0,0,0,0,0,0,0,-1,1413,1429,0,0
196,-405,0,0,0,0,0,0,0,0,0,-1,1420,1429,0,0
203,-405,0,0,0,0,0,0,0,0,0,-1,1427,1429,0,0
210,-405,0,0,0,0,0,0,0,0,0,-1,1434,1429,0,0
217,-405,0,0,0,0,0,0,0,0,0,-1,1441,1429,0,0
224,-405,0,0,0,0,0,0,0,0,0,-1,1448,1429,0,0
231,-405,0,0,0,0,0,0,0,0,0,-1,1455,1429,0,0
238,-405,0,0,0,0,0,0,0,0,0,-1,1462,1429,0,0
245,-405,0,0,0,0,0,0,0,0,0,-1,1469,1429,0,0
252,-405,0,0,0,0,0,0,0,0,0,-1,1476,1429,0,0
259,-405,0,0,0,0,0,0,0,0,0,-1,1483,1429,0,0
266,-405,0,0,0,0,0,0,0,0,0,-1,1490,1429,0,0
273,-405,0,0,0,0,0,0,0,0,0,-1,1497,1429,0,0
280,-405,0,0,0,0,0,0,0,0,0,-1,1504,1429,0,0
287,-405,0,0,0,0,0,0,0,0,0,-1,1511,1429,0,0
294,-405,0,0,0,0,0,0,0,0,0,-1,1518,1429,0,0
301,-405,0,0,0,0,0,0,0,0,0,-1,1525,1429,0,0
308,-405,0,0,0,0,0,0,0,0,0,-1,1532,1429,0,0
315,-405,0,0,0,0,0,0,0,0,0,-1,1539,1429,0,0
322,-405,0,0,0,0,0,0,0,0,0,-1,1546,1429,0,0
329,-405,0,0,0,0,0,0,0,0,0,-1,1553,1429,0,0
336,-405,0,0,0,0,0,0,0,0,0,-1,1560,1429,0,0
343,-405,0,0,0,0,0,0,0,0,0,-1,1567,1429,0,0
350,-405,0,0,0,0,0,0,0,0,0,-1,1574,1429,0,0
357,-405,0,0,0,0,0,0,0,0,0,-1,1581,1429,0,0
364,-405,0,0,0,0,0,0,0,0,0,-1,1588,1429,0,0
371,-405,0,0,0,0,0,0,0,0,0,-1,1595,1429,0,0
378,-405,0,0,0,0,0,0,0,0,0,-1,1602,1429,0,0
385,-405,0,0,0,0,0,0,0,0,0,-1,1609,1429,0,0
392,-405,0,0,0,0,0,0,0,0,0,-1,1616,1429,0,0
399,-405,0,0,0,0,0,0,0,0,0,-1,1623,1429,0,0
406,-405,0,0,0,0,0,0,0,0,0,-1,1630,1429,0,0
413,-405,0,0,0,0,0,0,0,0,0,-1,1637,1429,0,0
420,-405,0,0,0,0,0,0,0,0,0,-1,1644,1429,0,0
427,-405,0,0,0,0,0,0,0,0,0,-1,1651,1429,0,0
434,-405,0,0,0,0,0,0,0,0,0,-1,1658,1429,0,0
441,-405,0,0,0,0,0,0,0,0,0,-1,1665,1429,0,0
448,-405,0,0,0,0,0,0,0,0,0,-1,1672,1429,0,0
455,-405,0,0,0,0,0,0,0,0,0,-1,1679,1429,0,0
462,-405,0,0,0,0,0,0,0,0,0,-1,1686,1429,0,0
469,-405,0,0,0,0,0,0,0,0,0,-1,1693,1429,0,0
476,-405,0,0,0,0,0,0,0,0,0,-1,1700,1429,0,0
483,-405,0,0,0,0,0,0,0,0,0,-1,1707,1429,0,0
490,-405,0,0,0,0,0,0,0,0,0,-1,1714,1429,0,0
497,-405,0,0,0,0,0,0,0,0,0,-1,1721,1429,0,0
504,-405,0,0,0,0,0,0,0,0,0,-1,1728,1429,0,0
511,-405,0,0,0,0,0,0,0,0,0,-1,1735,1429,0,0
518,-405,0,0,0,0,0,0,0,0,0,-1,1742,1429,0,0
525,-405,13.3921,1.96826,0,0,0,0,0,0,0,-1,1749,1429,13.3921,-1.96831
532,-405,13.9307,1.98718,0.0940131,0.0436105,0.0579424,0.131997,0.00562611,0.580269,0.0861842,0.0467357,1756,1429,13.9307,-1.98716
539,-405,14.6302,2.08862,0.0810012,0.040806,0.0578942,0.122187,-0.000379797,0.618334,0.0815849,0.0473859,1763,1429,14.6303,-2.08864
546,-405,15.2299,2.20837,0.0620588,0.0341176,0.057457,0.107219,-0.0110429,0.666138,0.0754304,0.0428133,1770,1429,15.2299,-2.20838
553,-405,13.3535,-0.864014,0,0,0,0,0,0,0,-1,1777,1429,13.3535,0.86405
560,-405,13.168,0.3396,0,0,0,0,0,0,0,-1,1784,1429,13.168,-0.339564
567,-405,13.1034,1.51868,0.00607059,0.00584934,0.052243,0.0582031,-0.0462832,0.784339,0.0604559,0.0444023,1791,1429,13.1034,-1.51874
574,-405,12.8879,2.79175,-0.00704235,-0.00251915,0.0488663,0.0441379,-0.0536994,0.808522,0.0565762,0.0421131,1798,1429,12.8879,-2.7918
581,-405,12.3079,3.83093,-0.0165213,-0.00932977,0.0446695,0.0318884,-0.0577395,0.82556,0.0524593,0.0424189,1805,1429,12.3079,-3.83099
588,-405,11.5938,4.63123,-0.0241998,-0.0140424,0.0401822,0.0213807,-0.0596229,0.848261,0.0484737,0.0435313,1812,1429,11.5937,-4.63126
595,-405,11.0502,5.14722,-0.0279521,-0.0177953,0.0350089,0.0125016,-0.058249,0.857426,0.0436014,0.044283,1819,1429,11.0502,-5.14724
602,-405,10.3484,5.55225,-0.0282019,-0.019787,0.0294051,0.00571014,-0.0536991,0.856459,0.0378466,0.0373606,1826,1429,10.3484,-5.55224
609,-405,9.80469,5.64819,-0.0249671,-0.019277,0.0242273,0.00227174,-0.0465158,0.843846,0.0317949,0.0173375,1833,1429,9.80467,-5.64815
616,-405,9.79272,5.56458,-0.0198405,-0.0170338,0.0189492,0.000563979,-0.0374382,0.82236,0.0251489,0.00956036,1840,1429,9.79276,-5.56461
623,-405,9.77527,5.41211,-0.0154422,-0.0140843,0.013998,-0.000748828,-0.0287777,0.80963,0.0189405,0.00920116,1847,1429,9.77529,-5.41207
630,-405,9.77625,5.25427,-0.0110375,-0.0108041,0.00963488,-0.00128517,-0.0205563,0.791454,0.0132966,0.00944929,1854,1429,9.77627,-5.25422
637,-405,9.76904,5.1084,-0.00705517,-0.00718911,0.00607309,-0.00104868,-0.0131956,0.779885,0.00846918,0.00986862,1861,1429,9.76898,-5.10835
644,-405,9.73096,5.03967,-0.00436267,-0.00426948,0.00393386,-0.000381934,-0.00825021,0.79132,0.00537735,0.0252844,1868,1429,9.73091,-5.03966
651,-405,9.7655,4.8877,-0.00284487,-0.00216877,0.0024595,-2.41981e-05,-0.00498944,0.853693,0.00331826,0.0286704,1875,1429,9.7655,-4.88768
658,-405,9.78247,4.67468,-0.00226521,-0.000819292,0.00179874,0.000396336,-0.00348084,0.976481,0.00246332,0.0218037,1882,1429,9.78244,-4.67468
665,-405,9.80493,4.48877,-0.00251269,-0.000483744,0.00183624,0.000599622,-0.00359605,1.03777,0.00262021,0.0168323,1889,1429,9.80487,-4.48879
672,-405,9.80371,4.33704,-0.0031457,-0.000605503,0.00241012,0.000848699,-0.00459991,1.0279,0.00338515,0.020305,1896,1429,9.80372,-4.33698
679,-405,9.83179,4.17773,-0.00374778,-0.00185873,0.00281445,0.000165458,-0.00577197,0.947292,0.0039043,0.0200895,1903,1429,9.8318,-4.17778
686,-405,9.82898,4.05029,-0.00387985,-0.00450285,0.00325914,-0.000917358,-0.00746535,0.737755,0.00470104,0.0313338,1910,1429,9.82897,-4.05025
693,-405,9.76831,4.37317,0,0,0,0,0,0,0,-1,1917,1429,9.76832,-4.3732
700,-405,7.92126,3.46375,0,0,0,0,0,0,0,-1,1924,1429,7.92128,-3.4637
707,-405,7.40308,3.83191,0,0,0,0,0,0,0,-1,1931,1429,7.40311,-3.83194
714,-405,7.33252,3.47388,0,0,0,0,0,0,0,-1,1938,1429,7.33255,-3.47383
721,-405,9.23523,0.993896,0,0,0,0,0,0,0,-1,1945,1429,9.23523,-0.993884
728,-405,0,0,0,0,0,0,0,0,0,-1,1952,1429,0,0
735,-405,0,0,0,0,0,0,0,0,0,-1,1959,1429,0,0
742,-405,0,0,0,0,0,0,0,0,0,-1,1966,1429,0,0
749,-405,0,0,0,0,0,0,0,0,0,-1,1973,1429,0,0
756,-405,0,0,0,0,0,0,0,0,0,-1,1980,1429,0,0
763,-405,0,0,0,0,0,0,0,0,0,-1,1987,1429,0,0
770,-405,0,0,0,0,0,0,0,0,0,-1,1994,1429,0,0
777,-405,0,0,0,0,0,0,0,0,0,-1,2001,1429,0,0
784,-405,0,0,0,0,0,0,0,0,0,-1,2008,1429,0,0
791,-405,0,0,0,0,0,0,0,0,0,-1,2015,1429,0,0
798,-405,0,0,0,0,0,0,0,0,0,-1,2022,1429,0,0
805,-405,0,0,0,0,0,0,0,0,0,-1,2029,1429,0,0
812,-405,0,0,0,0,0,0,0,0,0,-1,2036,1429,0,0
-700,-412,0,0,0,0,0,0,0,0,0,-1,524,1436,0,0
-693,-412,0,0,0,0,0,0,0,0,0,-1,531,1436,0,0
-686,-412,0,0,0,0,0,0,0,0,0,-1,538,1436,0,0
-679,-412,0,0,0,0,0,0,0,0,0,-1,545,1436,0,0
-672,-412,0,0,0,0,0,0,0,0,0,-1,552,1436,0,0
-665,-412,0,0,0,0,0,0,0,0,0,-1,559,1436,0,0
-658,-412,0,0,0,0,0,0,0,0,0,-1,566,1436,0,0
-651,-412,0,0,0,0,0,0,0,0,0,-1,573,1436,0,0
-644,-412,0,0,0,0,0,0,0,0,0,-1,580,1436,0,0
-637,-412,0,0,0,0,0,0,0,0,0,-1,587,1436,0,0
-630,-412,0,0,0,0,0,0,0,0,0,-1,594,1436,0,0
-623,-412,0,0,0,0,0,0,0,0,0,-1,601,1436,0,0
-616,-412,0,0,0,0,0,0,0,0,0,-1,608,1436,0,0
-609,-412,0,0,0,0,0,0,0,0,0,-1,615,1436,0,0
-602,-412,-4.03265,-0.604004,0,0,0,0,0,0,0,-1,622,1436,-4.03268,0.604001
-595,-412,-3.60278,0.165527,0,0,0,0,0,0,0,-1,629,1436,-3.60278,-0.165555
-588,-412,-3.1416,0.667847,0,0,0,0,0,0,0,-1,636,1436,-3.14159,-0.667885
-581,-412,-2.61426,1.07581,0,0,0,0,0,0,0,-1,643,1436,-2.61428,-1.07579
-574,-412,-3.23303,1.08374,0,0,0,0,0,0,0,-1,650,1436,-3.23301,-1.08377
-567,-412,-2.39874,1.67432,0,0,0,0,0,0,0,-1,657,1436,-2.39871,-1.67427
-560,-412,-2.25049,1.76819,0,0,0,0,0,0,0,-1,664,1436,-2.25052,-1.76819
-553,-412,-2.41077,2.19946,0.0158579,0.003566,0.0138393,0.0248546,-0.00543072,0.576434,0.0186455,0.0422667,671,1436,-2.41076,-2.19948
-546,-412,-2.58887,2.51831,0.0119892,0.00334801,0.0106956,0.0192039,-0.00386674,0.593441,0.0142673,0.0279236,678,1436,-2.58889,-2.51829
-539,-412,-2.67444,2.59094,0.00906454,0.00292915,0.00796949,0.0145364,-0.00254268,0.601674,0.0106402,0.0136264,685,1436,-2.67442,-2.59093
-532,-412,-2.67413,2.80957,0.00678203,0.00224767,0.00572607,0.0106734,-0.00164373,0.596897,0.00772206,0.0135986,692,1436,-2.67412,-2.80958
-525,-412,-2.68585,2.99744,0.00492282,0.00127718,0.00411441,0.00760012,-0.00140012,0.576876,0.00559218,0.0149278,699,1436,-2.68583,-2.99743
-518,-412,-2.65253,3.16235,0.00318784,0.000474323,0.00264223,0.0048013,-0.00113913,0.548207,0.00364047,0.014767,706,1436,-2.65253,-3.1624
-511,-412,-2.66632,3.30786,0.00156517,-0.000528496,0.00131215,0.00219691,-0.00116023,0.4487,0.00196881,0.0175218,713,1436,-2.66632,-3.3078
-504,-412,-2.68427,3.48206,-0.000257572,-0.00132246,-8.58843e-05,-0.00025069,-0.00132934,-0.0799624,0.000815608,0.0174765,720,1436,-2.68425,-3.48206
-497,-412,-2.67041,3.67554,-0.00188109,-0.00222745,-0.00153706,-0.000507487,-0.00360105,-0.729299,0.00225069,0.0136328,727,1436,-2.67043,-3.67551
-490,-412,-2.67212,3.8634,-0.00381809,-0.0037548,-0.00315253,-0.000633762,-0.00693913,-0.790417,0.00442997,0.011635,734,1436,-2.6721,-3.86346
-483,-412,-2.68024,3.99573,-0.00581936,-0.00459411,-0.00469795,-0.000469017,-0.00994446,-0.850234,0.00647896,0.00860712,741,1436,-2.68022,-3.99574
-476,-412,-2.62811,4.1991,-0.00770425,-0.0039802,-0.00658907,0.00100489,-0.0126893,-0.923104,0.00881364,0.0159649,748,1436,-2.62809,-4.19905
-469,-412,-2.62762,4.31946,-0.00954009,-0.0037504,-0.00935895,0.00315119,-0.0164417,-0.935387,0.0121485,0.0262098,755,1436,-2.62759,-4.31952
-462,-412,-2.61786,4.47192,-0.0117341,-0.00276995,-0.0126114,0.00613217,-0.0206362,-0.956136,0.0161933,0.0369207,762,1436,-2.61787,-4.47194
-455,-412,-3.10406,4.62524,-0.0139886,-0.000616705,-0.0169675,0.0109347,-0.0255399,-0.973078,0.021614,0.0453022,769,1436,-3.10408,-4.62527
-448,-412,-3.46082,4.65088,0,0,0,0,0,0,0,-1,776,1436,-3.46081,-4.65087
-441,-412,-3.5285,4.08679,0,0,0,0,0,0,0,-1,783,1436,-3.5285,-4.0868
-434,-412,-2.98804,3.43762,0,0,0,0,0,0,0,-1,790,1436,-2.98802,-3.43764
-427,-412,-2.35968,5.25598,0,0,0,0,0,0,0,-1,797,1436,-2.35965,-5.25596
-420,-412,-1.73126,7.07434,0,0,0,0,0,0,0,-1,804,1436,-1.73129,-7.07429
-413,-412,-4.17712,2.08008,0,0,0,0,0,0,0,-1,811,1436,-4.1771,-2.08005
-406,-412,-4.98059,1.6521,0,0,0,0,0,0,0,-1,818,1436,-4.98061,-1.65214
-399,-412,-5.20538,0.748047,0,0,0,0,0,0,0,-1,825,1436,-5.20536,-0.748058
-392,-412,0,0,0,0,0,0,0,0,0,-1,832,1436,0,0
-385,-412,0,0,0,0,0,0,0,0,0,-1,839,1436,0,0
-378,-412,0,0,0,0,0,0,0,0,0,-1,846,1436,0,0
-371,-412,0,0,0,0,0,0,0,0,0,-1,853,1436,0,0
-364,-412,0,0,0,0,0,0,0,0,0,-1,860,1436,0,0
-357,-412,0,0,0,0,0,0,0,0,0,-1,867,1436,0,0
-350,-412,0,0,0,0,0,0,0,0,0,-1,874,1436,0,0
-343,-412,0,0,0,0,0,0,0,0,0,-1,881,1436,0,0
-336,-412,0,0,0,0,0,0,0,0,0,-1,888,1436,0,0
-329,-412,0,0,0,0,0,0,0,0,0,-1,895,1436,0,0
-322,-412,0,0,0,0,0,0,0,0,0,-1,902,1436,0,0
-315,-412,0,0,0,0,0,0,0,0,0,-1,909,1436,0,0
-308,-412,0,0,0,0,0,0,0,0,0,-1,916,1436,0,0
-301,-412,0,0,0,0,0,0,0,0,0,-1,923,1436,0,0
-294,-412,0,0,0,0,0,0,0,0,0,-1,930,1436,0,0
-287,-412,0,0,0,0,0,0,0,0,0,-1,937,1436,0,0
-280,-412,0,0,0,0,0,0,0,0,0,-1,944,1436,0,0
-273,-412,0,0,0,0,0,0,0,0,0,-1,951,1436,0,0
-266,-412,0,0,0,0,0,0,0,0,0,-1,958,1436,0,0
-259,-412,0,0,0,0,0,0,0,0,0,-1,965,1436,0,0
-252,-412,0,0,0,0,0,0,0,0,0,-1,972,1436,0,0
-245,-412,0,0,0,0,0,0,0,0,0,-1,979,1436,0,0
-238,-412,0,0,0,0,0,0,0,0,0,-1,986,1436,0,0
-231,-412,0,0,0,0,0,0,0,0,0,-1,993,1436,0,0
-224,-412,0,0,0,0,0,0,0,0,0,-1,1000,1436,0,0
-217,-412,0,0,0,0,0,0,0,0,0,-1,1007,1436,0,0
-210,-412,0,0,0,0,0,0,0,0,0,-1,1014,1436,0,0
-203,-412,0,0,0,0,0,0,0,0,0,-1,1021,1436,0,0
-196,-412,0,0,0,0,0,0,0,0,0,-1,1028,1436,0,0
-189,-412,0,0,0,0,0,0,0,0,0,-1,1035,1436,0,0
-182,-412,0,0,0,0,0,0,0,0,0,-1,1042,1436,0,0
-175,-412,0,0,0,0,0,0,0,0,0,-1,1049,1436,0,0
-168,-412,0,0,0,0,0,0,0,0,0,-1,1056,1436,0,0
-161,-412,0,0,0,0,0,0,0,0,0,-1,1063,1436,0,0
-154,-412,0,0,0,0,0,0,0,0,0,-1,1070,1436,0,0
-147,-412,0,0,0,0,0,0,0,0,0,-1,1077,1436,0,0
-140,-412,0,0,0,0,0,0,0,0,0,-1,1084,1436,0,0
-133,-412,0,0,0,0,0,0,0,0,0,-1,1091,1436,0,0
-126,-412,0,0,0,0,0,0,0,0,0,-1,1098,1436,0,0
-119,-412,0,0,0,0,0,0,0,0,0,-1,1105,1436,0,0
-112,-412,0,0,0,0,0,0,0,0,0,-1,1112,1436,0,0
-105,-412,0,0,0,0,0,0,0,0,0,-1,1119,1436,0,0
-98,-412,0,0,0,0,0,0,0,0,0,-1,1126,1436,0,0
-91,-412,0,0,0,0,0,0,0,0,0,-1,1133,1436,0,0
-84,-412,0,0,0,0,0,0,0,0,0,-1,1140,1436,0,0
-77,-412,0,0,0,0,0,0,0,0,0,-1,1147,1436,0,0
-70,-412,0,0,0,0,0,0,0,0,0,-1,1154,1436,0,0
-63,-412,0,0,0,0,0,0,0,0,0,-1,1161,1436,0,0
-56,-412,0,0,0,0,0,0,0,0,0,-1,1168,1436,0,0
-49,-412,0,0,0,0,0,0,0,0,0,-1,1175,1436,0,0
-42,-412,0,0,0,0,0,0,0,0,0,-1,1182,1436,0,0
-35,-412,0,0,0,0,0,0,0,0,0,-1,1189,1436,0,0
-28,-412,0,0,0,0,0,0,0,0,0,-1,1196,1436,0,0
-21,-412,0,0,0,0,0,0,0,0,0,-1,1203,1436,0,0
-14,-412,0,0,0,0,0,0,0,0,0,-1,1210,1436,0,0
-7,-412,0,0,0,0,0,0,0,0,0,-1,1217,1436,0,0
0,-412,0,0,0,0,0,0,0,0,0,-1,1224,1436,0,0
7,-412,0,0,0,0,0,0,0,0,0,-1,1231,1436,0,0
14,-412,0,0,0,0,0,0,0,0,0,-1,1238,1436,0,0
21,-412,0,0,0,0,0,0,0,0,0,-1,1245,1436,0,0
28,-412,0,0,0,0,0,0,0,0,0,-1,1252,1436,0,0
35,-412,0,0,0,0,0,0,0,0,0,-1,1259,1436,0,0
42,-412,0,0,0,0,0,0,0,0,0,-1,1266,1436,0,0
49,-412,0,0,0,0,0,0,0,0,0,-1,1273,1436,0,0
56,-412,0,0,0,0,0,0,0,0,0,-1,1280,1436,0,0
63,-412,0,0,0,0,0,0,0,0,0,-1,1287,1436,0,0
70,-412,0,0,0,0,0,0,0,0,0,-1,1294,1436,0,0
77,-412,0,0,0,0,0,0,0,0,0,-1,1301,1436,0,0
84,-412,0,0,0,0,0,0,0,0,0,-1,1308,1436,0,0
91,-412,0,0,0,0,0,0,0,0,0,-1,1315,1436,0,0
98,-412,0,0,0,0,0,0,0,0,0,-1,1322,1436,0,0
105,-412,0,0,0,0,0,0,0,0,0,-1,1329,1436,0,0
112,-412,0,0,0,0,0,0,0,0,0,-1,1336,1436,0,0
119,-412,0,0,0,0,0,0,0,0,0,-1,1343,1436,0,0
126,-412,0,0,0,0,0,0,0,0,0,-1,1350,1436,0,0
133,-412,0,0,0,0,0,0,0,0,0,-1,1357,1436,0,0
140,-412,0,0,0,0,0,0,0,0,0,-1,1364,1436,0,0
147,-412,0,0,0,0,0,0,0,0,0,-1,1371,1436,0,0
154,-412,0,0,0,0,0,0,0,0,0,-1,1378,1436,0,0
161,-412,0,0,0,0,0,0,0,0,0,-1,1385,1436,0,0
168,-412,0,0,0,0,0,0,0,0,0,-1,1392,1436,0,0
175,-412,0,0,0,0,0,0,0,0,0,-1,1399,1436,0,0
182,-412,0,0,0,0,0,0,0,0,0,-1,1406,1436,0,0
189,-412,0,0,0,0,0,0,0,0,0,-1,1413,1436,0,0
196,-412,0,0,0,0,0,0,0,0,0,-1,1420,1436,0,0
203,-412,0,0,0,0,0,0,0,0,0,-1,1427,1436,0,0
210,-412,0,0,0,0,0,0,0,0,0,-1,1434,1436,0,0
217,-412,0,0,0,0,0,0,0,0,0,-1,1441,1436,0,0
224,-412,0,0,0,0,0,0,0,0,0,-1,1448,1436,0,0
231,-412,0,0,0,0,0,0,0,0,0,-1,1455,1436,0,0
238,-412,0,0,0,0,0,0,0,0,0,-1,1462,1436,0,0
245,-412,0,0,0,0,0,0,0,0,0,-1,1469,1436,0,0
252,-412,0,0,0,0,0,0,0,0,0,-1,1476,1436,0,0
259,-412,0,0,0,0,0,0,0,0,0,-1,1483,1436,0,0
266,-412,0,0,0,0,0,0,0,0,0,-1,1490,1436,0,0
273,-412,0,0,0,0,0,0,0,0,0,-1,1497,1436,0,0
280,-412,0,0,0,0,0,0,0,0,0,-1,1504,1436,0,0
287,-412,0,0,0,0,0,0,0,0,0,-1,1511,1436,0,0
294,-412,0,0,0,0,0,0,0,0,0,-1,1518,1436,0,0
301,-412,0,0,0,0,0,0,0,0,0,-1,1525,1436,0,0
308,-412,0,0,0,0,0,0,0,0,0,-1,1532,1436,0,0
315,-412,0,0,0,0,0,0,0,0,0,-1,1539,1436,0,0
322,-412,0,0,0,0,0,0,0,0,0,-1,1546,1436,0,0
329,-412,0,0,0,0,0,0,0,0,0,-1,1553,1436,0,0
336,-412,0,0,0,0,0,0,0,0,0,-1,1560,1436,0,0
343,-412,0,0,0,0,0,0,0,0,0,-1,1567,1436,0,0
350,-412,0,0,0,0,0,0,0,0,0,-1,1574,1436,0,0
357,-412,0,0,0,0,0,0,0,0,0,-1,1581,1436,0,0
364,-412,0,0,0,0,0,0,0,0,0,-1,1588,1436,0,0
371,-412,0,0,0,0,0,0,0,0,0,-1,1595,1436,0,0
378,-412,0,0,0,0,0,0,0,0,0,-1,1602,1436,0,0
385,-412,0,0,0,0,0,0,0,0,0,-1,1609,1436,0,0
392,-412,0,0,0,0,0,0,0,0,0,-1,1616,1436,0,0
399,-412,0,0,0,0,0,0,0,0,0,-1,1623,1436,0,0
406,-412,0,0,0,0,0,0,0,0,0,-1,1630,1436,0,0
413,-412,0,0,0,0,0,0,0,0,0,-1,1637,1436,0,0
420,-412,0,0,0,0,0,0,0,0,0,-1,1644,1436,0,0
427,-412,0,0,0,0,0,0,0,0,0,-1,1651,1436,0,0
434,-412,0,0,0,0,0,0,0,0,0,-1,1658,1436,0,0
441,-412,0,0,0,0,0,0,0,0,0,-1,1665,1436,0,0
448,-412,0,0,0,0,0,0,0,0,0,-1,1672,1436,0,0
455,-412,0,0,0,0,0,0,0,0,0,-1,1679,1436,0,0
462,-412,0,0,0,0,0,0,0,0,0,-1,1686,1436,0,0
469,-412,0,0,0,0,0,0,0,0,0,-1,1693,1436,0,0
476,-412,0,0,0,0,0,0,0,0,0,-1,1700,1436,0,0
483,-412,0,0,0,0,0,0,0,0,0,-1,1707,1436,0,0
490,-412,0,0,0,0,0,0,0,0,0,-1,1714,1436,0,0
497,-412,0,0,0,0,0,0,0,0,0,-1,1721,1436,0,0
504,-412,0,0,0,0,0,0,0,0,0,-1,1728,1436,0,0
511,-412,0,0,0,0,0,0,0,0,0,-1,1735,1436,0,0
518,-412,11.8005,1.35388,0,0,0,0,0,0,0,-1,1742,1436,11.8006,-1.35388
525,-412,12.4524,1.62012,0,0,0,0,0,0,0,-1,1749,1436,12.4524,-1.62006
532,-412,13.0734,1.85352,0.0672539,0.0271134,0.0596311,0.110102,-0.0157344,0.623066,0.0791689,0.0486945,1756,1436,13.0733,-1.8535
539,-412,13.8322,2.08716,0.0619248,0.0265152,0.0588199,0.105647,-0.0172067,0.639211,0.0768119,0.0473984,1763,1436,13.8321,-2.08721
546,-412,14.4661,2.21899,0.050762,0.0225121,0.0577702,0.096109,-0.0228349,0.6655,0.0728865,0.0444481,1770,1436,14.4661,-2.21899
553,-412,14.967,2.15967,0,0,0,0,0,0,0,-1,1777,1436,14.967,-2.15965
560,-412,12.6558,0.737427,0,0,0,0,0,0,0,-1,1784,1436,12.6558,-0.737392
567,-412,12.5935,1.8656,0,0,0,0,0,0,0,-1,1791,1436,12.5936,-1.86561
574,-412,12.4598,3.24976,-0.0053618,-0.0066241,0.0477356,0.0417468,-0.0537327,0.778788,0.0552697,0.0395431,1798,1436,12.4598,-3.24978
581,-412,10.4729,4.75439,-0.0143744,-0.0121704,0.0433969,0.0301385,-0.0566833,0.798092,0.0509015,0.0409523,1805,1436,10.473,-4.75433
588,-412,10.736,5.37622,0,0,0,0,0,0,0,-1,1812,1436,10.7359,-5.37628
595,-412,10.3176,5.59753,-0.0256628,-0.0187315,0.0334314,0.0114134,-0.0558077,0.837046,0.0415357,0.0393442,1819,1436,10.3176,-5.59748
602,-412,9.82898,5.83875,-0.0259745,-0.0197209,0.0277218,0.00504986,-0.0507452,0.841557,0.0356329,0.0224062,1826,1436,9.82901,-5.83874
609,-412,9.64624,5.71692,-0.0229873,-0.0184658,0.0224533,0.00184026,-0.0432934,0.835572,0.0294948,0.00904494,1833,1436,9.64623,-5.71692
616,-412,9.62988,5.56482,-0.0182811,-0.0156826,0.0172115,0.00027856,-0.0342423,0.823069,0.0229216,0.0078815,1840,1436,9.62991,-5.56479
623,-412,9.62781,5.40991,-0.0142157,-0.0123601,0.0124007,-0.000852545,-0.0257232,0.822738,0.0168718,0.00900393,1847,1436,9.62786,-5.40991
630,-412,9.625,5.25061,-0.0102009,-0.0089316,0.00822437,-0.00131742,-0.0178151,0.823905,0.0114628,0.0102255,1854,1436,9.62495,-5.25066
637,-412,9.6239,5.09753,-0.00658994,-0.00556004,0.00490152,-0.0011465,-0.0110035,0.837735,0.00698492,0.01209,1861,1436,9.62395,-5.09748
644,-412,9.62268,4.96704,-0.00428221,-0.00295328,0.00299571,-0.000549235,-0.00668626,0.894534,0.00428617,0.0132899,1868,1436,9.62272,-4.96704
651,-412,9.67065,4.83618,-0.00310062,-0.00116183,0.00178442,-0.000100496,-0.00416196,1.03422,0.00274175,0.0226129,1875,1436,9.67065,-4.83623
658,-412,9.66296,4.63037,-0.00292646,-0.000106198,0.0014012,0.000471593,-0.00350425,1.17969,0.00250819,0.0162465,1882,1436,9.66301,-4.63041
665,-412,9.65002,4.47095,-0.00361375,9.30858e-05,0.00172906,0.000774389,-0.00429505,1.19545,0.00315335,0.0197551,1889,1436,9.65002,-4.47098
672,-412,9.64758,4.3053,-0.00487316,-0.000104711,0.00254877,0.00100116,-0.00597903,1.16143,0.00435824,0.0236314,1896,1436,9.64761,-4.30534
679,-412,9.69543,4.14697,-0.00632068,-0.00135394,0.0032837,0.000279704,-0.00795433,1.10915,0.00539853,0.0321866,1903,1436,9.69549,-4.14692
686,-412,9.35461,4.04712,-0.00757384,-0.00391169,0.00411126,-0.00124217,-0.0102434,0.994901,0.00645481,0.0496024,1910,1436,9.35459,-4.04716
693,-412,8.97375,3.99719,0,0,0,0,0,0,0,-1,1917,1436,8.97373,-3.99725
700,-412,7.40198,3.64758,0,0,0,0,0,0,0,-1,1924,1436,7.402,-3.64753
707,-412,6.59998,1.68994,0,0,0,0,0,0,0,-1,1931,1436,6.60002,-1.68995
714,-412,4.77283,-2.39832,0,0,0,0,0,0,0,-1,1938,1436,4.77288,2.39835
721,-412,0,0,0,0,0,0,0,0,0,-1,1945,1436,0,0
728,-412,0,0,0,0,0,0,0,0,0,-1,1952,1436,0,0
735,-412,0,0,0,0,0,0,0,0,0,-1,1959,1436,0,0
742,-412,0,0,0,0,0,0,0,0,0,-1,1966,1436,0,0
749,-412,0,0,0,0,0,0,0,0,0,-1,1973,1436,0,0
756,-412,0,0,0,0,0,0,0,0,0,-1,1980,1436,0,0
763,-412,0,0,0,0,0,0,0,0,0,-1,1987,1436,0,0
770,-412,0,0,0,0,0,0,0,0,0,-1,1994,1436,0,0
777,-412,0,0,0,0,0,0,0,0,0,-1,2001,1436,0,0
784,-412,0,0,0,0,0,0,0,0,0,-1,2008,1436,0,0
791,-412,0,0,0,0,0,0,0,0,0,-1,2015,1436,0,0
798,-412,0,0,0,0,0,0,0,0,0,-1,2022,1436,0,0
805,-412,0,0,0,0,0,0,0,0,0,-1,2029,1436,0,0
812,-412,0,0,0,0,0,0,0,0,0,-1,2036,1436,0,0
-700,-419,0,0,0,0,0,0,0,0,0,-1,524,1443,0,0
-693,-419,0,0,0,0,0,0,0,0,0,-1,531,1443,0,0
-686,-419,0,0,0,0,0,0,0,0,0,-1,538,1443,0,0
-679,-419,0,0,0,0,0,0,0,0,0,-1,545,1443,0,0
-672,-419,0,0,0,0,0,0,0,0,0,-1,552,1443,0,0
-665,-419,0,0,0,0,0,0,0,0,0,-1,559,1443,0,0
-658,-419,0,0,0,0,0,0,0,0,0,-1,566,1443,0,0
-651,-419,0,0,0,0,0,0,0,0,0,-1,573,1443,0,0
-644,-419,0,0,0,0,0,0,0,0,0,-1,580,1443,0,0
-637,-419,0,0,0,0,0,0,0,0,0,-1,587,1443,0,0
-630,-419,0,0,0,0,0,0,0,0,0,-1,594,1443,0,0
-623,-419,0,0,0,0,0,0,0,0,0,-1,601,1443,0,0
-616,-419,0,0,0,0,0,0,0,0,0,-1,608,1443,0,0
-609,-419,0,0,0,0,0,0,0,0,0,-1,615,1443,0,0
-602,-419,0,0,0,0,0,0,0,0,0,-1,622,1443,0,0
-595,-419,-4.27423,-0.479492,0,0,0,0,0,0,0,-1,629,1443,-4.27421,0.479525
-588,-419,-3.75415,0.426147,0,0,0,0,0,0,0,-1,636,1443,-3.75414,-0.426145
-581,-419,-3.37775,1.73169,0,0,0,0,0,0,0,-1,643,1443,-3.37775,-1.73163
-574,-419,-2.86279,2.7804,0,0,0,0,0,0,0,-1,650,1443,-2.86279,-2.7804
-567,-419,-3.76215,1.37549,0,0,0,0,0,0,0,-1,657,1443,-3.76215,-1.37547
-560,-419,-2.05914,2.11072,0,0,0,0,0,0,0,-1,664,1443,-2.05917,-2.11068
-553,-419,-2.25269,2.51685,0.0254344,0.00260773,0.0176639,0.0350515,-0.00700933,0.49857,0.0260207,0.0472752,671,1443,-2.25267,-2.5169
-546,-419,-2.37878,2.81384,0.0199362,0.00278493,0.0141646,0.0279188,-0.00519773,0.513198,0.0205652,0.0396297,678,1443,-2.3788,-2.81385
-539,-419,-2.39807,2.60681,0.0155308,0.0026585,0.0111259,0.0219481,-0.00375875,0.523174,0.0160325,0.026785,685,1443,-2.39806,-2.60687
-532,-419,-2.49182,2.78662,0.012005,0.00220277,0.00838872,0.0168194,-0.00261165,0.521019,0.0121772,0.0138001,692,1443,-2.4918,-2.78662
-525,-419,-2.49725,3.00208,0.00907615,0.00148824,0.0062876,0.0126258,-0.00206138,0.513939,0.00918176,0.012979,699,1443,-2.49723,-3.00204
-518,-419,-2.47498,3.1604,0.00650232,0.000824884,0.00443464,0.00892899,-0.00160179,0.500698,0.00655218,0.0162005,706,1443,-2.47495,-3.16037
-511,-419,-2.48566,3.32214,0.00417591,4.47874e-05,0.0028126,0.00559994,-0.00137925,0.468679,0.00426799,0.0177302,713,1443,-2.48564,-3.32213
-504,-419,-2.5119,3.50256,0.00190501,-0.000563193,0.00125532,0.00243126,-0.00108944,0.39696,0.00208131,0.0171535,720,1443,-2.51187,-3.50253
-497,-419,-2.50586,3.677,0.000101903,-0.00129021,-0.000250935,0.000145755,-0.00133406,-0.173004,0.000941723,0.012832,727,1443,-2.50588,-3.67701
-490,-419,-2.49506,3.85657,-0.00189287,-0.00268745,-0.00188764,-0.000361163,-0.00421916,-0.681677,0.00270045,0.0111829,734,1443,-2.49508,-3.85656
-483,-419,-2.49445,4.00403,-0.00385562,-0.00335383,-0.00342597,-0.00016958,-0.00703988,-0.821949,0.00463776,0.010001,741,1443,-2.49443,-4.00399
-476,-419,-2.50238,4.17334,-0.00550365,-0.00265418,-0.00519746,0.00131029,-0.00946811,-0.919173,0.0067911,0.0105181,748,1443,-2.50235,-4.17334
-469,-419,-2.47144,4.3728,-0.00695007,-0.00239994,-0.00769267,0.00334704,-0.012697,-0.929172,0.00977332,0.0140997,755,1443,-2.47144,-4.3728
-462,-419,-2.4248,4.53235,-0.00864988,-0.00150508,-0.0105731,0.00608282,-0.0162378,-0.948315,0.013324,0.0232495,762,1443,-2.42478,-4.53231
-455,-419,-2.59753,4.51147,-0.0104483,0.000344944,-0.0144252,0.01035,-0.0204533,-0.964393,0.0181003,0.0378973,769,1443,-2.59751,-4.51147
-448,-419,-3.05518,4.40845,-0.0121998,0.00355032,-0.019466,0.0166739,-0.0253234,-0.977612,0.024418,0.0459507,776,1443,-3.05515,-4.4085
-441,-419,-3.32544,4.12048,-0.0135584,0.0086485,-0.025943,0.0257643,-0.0306742,-0.9876,0.0326259,0.0474981,783,1443,-3.32544,-4.12042
-434,-419,-3.58185,3.75586,0,0,0,0,0,0,0,-1,790,1443,-3.58186,-3.75592
-427,-419,-2.61243,5.75134,0,0,0,0,0,0,0,-1,797,1443,-2.61241,-5.75136
-420,-419,-2.97034,5.21265,0,0,0,0,0,0,0,-1,804,1443,-2.97035,-5.21262
-413,-419,-4.76471,2.70032,0,0,0,0,0,0,0,-1,811,1443,-4.76468,-2.70036
-406,-419,-5.43158,1.91687,0,0,0,0,0,0,0,-1,818,1443,-5.43159,-1.91684
-399,-419,-6.09851,1.1333,0,0,0,0,0,0,0,-1,825,1443,-6.09851,-1.13332
-392,-419,0,0,0,0,0,0,0,0,0,-1,832,1443,0,0
-385,-419,0,0,0,0,0,0,0,0,0,-1,839,1443,0,0
-378,-419,0,0,0,0,0,0,0,0,0,-1,846,1443,0,0
-371,-419,0,0,0,0,0,0,0,0,0,-1,853,1443,0,0
-364,-419,0,0,0,0,0,0,0,0,0,-1,860,1443,0,0
-357,-419,0,0,0,0,0,0,0,0,0,-1,867,1443,0,0
-350,-419,0,0,0,0,0,0,0,0,0,-1,874,1443,0,0
-343,-419,0,0,0,0,0,0,0,0,0,-1,881,1443,0,0
-336,-419,0,0,0,0,0,0,0,0,0,-1,888,1443,0,0
-329,-419,0,0,0,0,0,0,0,0,0,-1,895,1443,0,0
-322,-419,0,0,0,0,0,0,0,0,0,-1,902,1443,0,0
-315,-419,0,0,0,0,0,0,0,0,0,-1,909,1443,0,0
-308,-419,0,0,0,0,0,0,0,0,0,-1,916,1443,0,0
-301,-419,0,0,0,0,0,0,0,0,0,-1,923,1443,0,0
-294,-419,0,0,0,0,0,0,0,0,0,-1,930,1443,0,0
-287,-419,0,0,0,0,0,0,0,0,0,-1,937,1443,0,0
-280,-419,0,0,0,0,0,0,0,0,0,-1,944,1443,0,0
-273,-419,0,0,0,0,0,0,0,0,0,-1,951,1443,0,0
-266,-419,0,0,0,0,0,0,0,0,0,-1,958,1443,0,0
-259,-419,0,0,0,0,0,0,0,0,0,-1,965,1443,0,0
-252,-419,0,0,0,0,0,0,0,0,0,-1,972,1443,0,0
-245,-419,0,0,0,0,0,0,0,0,0,-1,979,1443,0,0
-238,-419,0,0,0,0,0,0,0,0,0,-1,986,1443,0,0
-231,-419,0,0,0,0,0,0,0,0,0,-1,993,1443,0,0
-224,-419,0,0,0,0,0,0,0,0,0,-1,1000,1443,0,0
-217,-419,0,0,0,0,0,0,0,0,0,-1,1007,1443,0,0
-210,-419,0,0,0,0,0,0,0,0,0,-1,1014,1443,0,0
-203,-419,0,0,0,0,0,0,0,0,0,-1,1021,1443,0,0
-196,-419,0,0,0,0,0,0,0,0,0,-1,1028,1443,0,0
-189,-419,0,0,0,0,0,0,0,0,0,-1,1035,1443,0,0
-182,-419,0,0,0,0,0,0,0,0,0,-1,1042,1443,0,0
-175,-419,0,0,0,0,0,0,0,0,0,-1,1049,1443,0,0
-168,-419,0,0,0,0,0,0,0,0,0,-1,1056,1443,0,0
-161,-419,0,0,0,0,0,0,0,0,0,-1,1063,1443,0,0
-154,-419,0,0,0,0,0,0,0,0,0,-1,1070,1443,0,0
-147,-419,0,0,0,0,0,0,0,0,0,-1,1077,1443,0,0
-140,-419,0,0,0,0,0,0,0,0,0,-1,1084,1443,0,0
-133,-419,0,0,0,0,0,0,0,0,0,-1,1091,1443,0,0
-126,-419,0,0,0,0,0,0,0,0,0,-1,1098,1443,0,0
-119,-419,0,0,0,0,0,0,0,0,0,-1,1105,1443,0,0
-112,-419,0,0,0,0,0,0,0,0,0,-1,1112,1443,0,0
-105,-419,0,0,0,0,0,0,0,0,0,-1,1119,1443,0,0
-98,-419,0,0,0,0,0,0,0,0,0,-1,1126,1443,0,0
-91,-419,0,0,0,0,0,0,0,0,0,-1,1133,1443,0,0
-84,-419,0,0,0,0,0,0,0,0,0,-1,1140,1443,0,0
-77,-419,0,0,0,0,0,0,0,0,0,-1,1147,1443,0,0
-70,-419,0,0,0,0,0,0,0,0,0,-1,1154,1443,0,0
-63,-419,0,0,0,0,0,0,0,0,0,-1,1161,1443,0,0
-56,-419,0,0,0,0,0,0,0,0,0,-1,1168,1443,0,0
-49,-419,0,0,0,0,0,0,0,0,0,-1,1175,1443,0,0
-42,-419,0,0,0,0,0,0,0,0,0,-1,1182,1443,0,0
-35,-419,0,0,0,0,0,0,0,0,0,-1,1189,1443,0,0
-28,-419,0,0,0,0,0,0,0,0,0,-1,1196,1443,0,0
-21,-419,0,0,0,0,0,0,0,0,0,-1,1203,1443,0,0
-14,-419,0,0,0,0,0,0,0,0,0,-1,1210,1443,0,0
-7,-419,0,0,0,0,0,0,0,0,0,-1,1217,1443,0,0
0,-419,0,0,0,0,0,0,0,0,0,-1,1224,1443,0,0
7,-419,0,0,0,0,0,0,0,0,0,-1,1231,1443,0,0
14,-419,0,0,0,0,0,0,0,0,0,-1,1238,1443,0,0
21,-419,0,0,0,0,0,0,0,0,0,-1,1245,1443,0,0
28,-419,0,0,0,0,0,0,0,0,0,-1,1252,1443,0,0
35,-419,0,0,0,0,0,0,0,0,0,-1,1259,1443,0,0
42,-419,0,0,0,0,0,0,0,0,0,-1,1266,1443,0,0
49,-419,0,0,0,0,0,0,0,0,0,-1,1273,1443,0,0
56,-419,0,0,0,0,0,0,0,0,0,-1,1280,1443,0,0
63,-419,0,0,0,0,0,0,0,0,0,-1,1287,1443,0,0
70,-419,0,0,0,0,0,0,0,0,0,-1,1294,1443,0,0
77,-419,0,0,0,0,0,0,0,0,0,-1,1301,1443,0,0
84,-419,0,0,0,0,0,0,0,0,0,-1,1308,1443,0,0
91,-419,0,0,0,0,0,0,0,0,0,-1,1315,1443,0,0
98,-419,0,0,0,0,0,0,0,0,0,-1,1322,1443,0,0
105,-419,0,0,0,0,0,0,0,0,0,-1,1329,1443,0,0
112,-419,0,0,0,0,0,0,0,0,0,-1,1336,1443,0,0
119,-419,0,0,0,0,0,0,0,0,0,-1,1343,1443,0,0
126,-419,0,0,0,0,0,0,0,0,0,-1,1350,1443,0,0
133,-419,0,0,0,0,0,0,0,0,0,-1,1357,1443,0,0
140,-419,0,0,0,0,0,0,0,0,0,-1,1364,1443,0,0
147,-419,0,0,0,0,0,0,0,0,0,-1,1371,1443,0,0
154,-419,0,0,0,0,0,0,0,0,0,-1,1378,1443,0,0
161,-419,0,0,0,0,0,0,0,0,0,-1,1385,1443,0,0
168,-419,0,0,0,0,0,0,0,0,0,-1,1392,1443,0,0
175,-419,0,0,0,0,0,0,0,0,0,-1,1399,1443,0,0
182,-419,0,0,0,0,0,0,0,0,0,-1,1406,1443,0,0
189,-419,0,0,0,0,0,0,0,0,0,-1,1413,1443,0,0
196,-419,0,0,0,0,0,0,0,0,0,-1,1420,1443,0,0
203,-419,0,0,0,0,0,0,0,0,0,-1,1427,1443,0,0
210,-419,0,0,0,0,0,0,0,0,0,-1,1434,1443,0,0
217,-419,0,0,0,0,0,0,0,0,0,-1,1441,1443,0,0
224,-419,0,0,0,0,0,0,0,0,0,-1,1448,1443,0,0
231,-419,0,0,0,0,0,0,0,0,0,-1,1455,1443,0,0
238,-419,0,0,0,0,0,0,0,0,0,-1,1462,1443,0,0
245,-419,0,0,0,0,0,0,0,0,0,-1,1469,1443,0,0
252,-419,0,0,0,0,0,0,0,0,0,-1,1476,1443,0,0
259,-419,0,0,0,0,0,0,0,0,0,-1,1483,1443,0,0
266,-419,0,0,0,0,0,0,0,0,0,-1,1490,1443,0,0
273,-419,0,0,0,0,0,0,0,0,0,-1,1497,1443,0,0
280,-419,0,0,0,0,0,0,0,0,0,-1,1504,1443,0,0
287,-419,0,0,0,0,0,0,0,0,0,-1,1511,1443,0,0
294,-419,0,0,0,0,0,0,0,0,0,-1,1518,1443,0,0
301,-419,0,0,0,0,0,0,0,0,0,-1,1525,1443,0,0
308,-419,0,0,0,0,0,0,0,0,0,-1,1532,1443,0,0
315,-419,0,0,0,0,0,0,0,0,0,-1,1539,1443,0,0
322,-419,0,0,0,0,0,0,0,0,0,-1,1546,1443,0,0
329,-419,0,0,0,0,0,0,0,0,0,-1,1553,1443,0,0
336,-419,0,0,0,0,0,0,0,0,0,-1,1560,1443,0,0
343,-419,0,0,0,0,0,0,0,0,0,-1,1567,1443,0,0
350,-419,0,0,0,0,0,0,0,0,0,-1,1574,1443,0,0
357,-419,0,0,0,0,0,0,0,0,0,-1,1581,1443,0,0
364,-419,0,0,0,0,0,0,0,0,0,-1,1588,1443,0,0
371,-419,0,0,0,0,0,0,0,0,0,-1,1595,1443,0,0
378,-419,0,0,0,0,0,0,0,0,0,-1,1602,1443,0,0
385,-419,0,0,0,0,0,0,0,0,0,-1,1609,1443,0,0
392,-419,0,0,0,0,0,0,0,0,0,-1,1616,1443,0,0
399,-419,0,0,0,0,0,0,0,0,0,-1,1623,1443,0,0
406,-419,0,0,0,0,0,0,0,0,0,-1,1630,1443,0,0
413,-419,0,0,0,0,0,0,0,0,0,-1,1637,1443,0,0
420,-419,0,0,0,0,0,0,0,0,0,-1,1644,1443,0,0
427,-419,0,0,0,0,0,0,0,0,0,-1,1651,1443,0,0
434,-419,0,0,0,0,0,0,0,0,0,-1,1658,1443,0,0
441,-419,0,0,0,0,0,0,0,0,0,-1,1665,1443,0,0
448,-419,0,0,0,0,0,0,0,0,0,-1,1672,1443,0,0
455,-419,0,0,0,0,0,0,0,0,0,-1,1679,1443,0,0
462,-419,0,0,0,0,0,0,0,0,0,-1,1686,1443,0,0
469,-419,0,0,0,0,0,0,0,0,0,-1,1693,1443,0,0
476,-419,0,0,0,0,0,0,0,0,0,-1,1700,1443,0,0
483,-419,0,0,0,0,0,0,0,0,0,-1,1707,1443,0,0
490,-419,0,0,0,0,0,0,0,0,0,-1,1714,1443,0,0
497,-419,0,0,0,0,0,0,0,0,0,-1,1721,1443,0,0
504,-419,0,0,0,0,0,0,0,0,0,-1,1728,1443,0,0
511,-419,12.6509,-0.385132,0,0,0,0,0,0,0,-1,1735,1443,12.6508,0.385172
518,-419,10.6952,0.75354,0,0,0,0,0,0,0,-1,1742,1443,10.6952,-0.753596
525,-419,11.5127,1.27185,0,0,0,0,0,0,0,-1,1749,1443,11.5127,-1.27182
532,-419,12.2115,1.76074,0.0437249,0.0119253,0.0596882,0.0895947,-0.0339445,0.655231,0.0736982,0.0488529,1756,1443,12.2115,-1.76074
539,-419,12.9755,2.04663,0.0424655,0.0128354,0.0584354,0.0879346,-0.0326337,0.66125,0.0720095,0.0477976,1763,1443,12.9754,-2.04668
546,-419,13.4172,1.9812,0.036953,0.0110707,0.0568959,0.0823609,-0.0343372,0.673574,0.0692513,0.0426486,1770,1443,13.4173,-1.98115
553,-419,14.0927,2.08069,0,0,0,0,0,0,0,-1,1777,1443,14.0927,-2.08075
560,-419,10.9192,7.83362,0,0,0,0,0,0,0,-1,1784,1443,10.9192,-7.83357
567,-419,9.31934,4.49487,0,0,0,0,0,0,0,-1,1791,1443,9.31938,-4.49483
574,-419,10.5995,4.82581,0,0,0,0,0,0,0,-1,1798,1443,10.5995,-4.82578
581,-419,9.92102,5.1178,0,0,0,0,0,0,0,-1,1805,1443,9.92104,-5.11775
588,-419,9.96802,5.86267,0,0,0,0,0,0,0,-1,1812,1443,9.96796,-5.86265
595,-419,9.74915,5.87329,-0.0228598,-0.0190053,0.0308981,0.0100257,-0.0518907,0.816545,0.0383748,0.0347864,1819,1443,9.74919,-5.87331
602,-419,9.52612,5.87036,-0.0230103,-0.019031,0.0252443,0.00430192,-0.0463432,0.824725,0.0324247,0.0144427,1826,1443,9.52617,-5.8704
609,-419,9.48962,5.71887,-0.0202147,-0.0171476,0.0200293,0.00140673,-0.038769,0.823606,0.0263274,0.0106713,1833,1443,9.48968,-5.71884
616,-419,9.46692,5.5874,-0.0159484,-0.0139891,0.0149949,5.80521e-05,-0.0299956,0.818017,0.0200164,0.0119095,1840,1443,9.46697,-5.58744
623,-419,9.48328,5.42065,-0.0122784,-0.010457,0.0105142,-0.00081413,-0.0219213,0.828597,0.0143505,0.00958058,1847,1443,9.48334,-5.42064
630,-419,9.48828,5.26062,-0.00877327,-0.00703743,0.00669199,-0.00115731,-0.0146534,0.849886,0.00940691,0.0113214,1854,1443,9.48831,-5.26059
637,-419,9.48962,5.10718,-0.00567392,-0.00389562,0.00372863,-0.000951587,-0.00861795,0.902445,0.00545584,0.0120892,1861,1443,9.48957,-5.1072
644,-419,9.49585,4.96704,-0.00386319,-0.00161837,0.00211226,-0.000348818,-0.00513274,1.02961,0.00331168,0.0109185,1868,1443,9.49586,-4.96701
651,-419,9.50879,4.81995,-0.00311749,-0.000114259,0.00118872,0.000299305,-0.00353105,1.23599,0.00245988,0.0107026,1875,1443,9.50877,-4.81997
658,-419,9.49573,4.64075,-0.00343159,0.000723728,0.00106873,0.000982488,-0.00369035,1.33325,0.00284485,0.0120653,1882,1443,9.49575,-4.64081
665,-419,9.47046,4.4895,-0.00466251,0.000867816,0.0016488,0.00132207,-0.00511677,1.30196,0.00392677,0.0174832,1889,1443,9.47042,-4.48954
672,-419,9.4801,4.28235,-0.00650858,0.000723648,0.00266142,0.00159746,-0.00738239,1.25356,0.00553151,0.0230131,1896,1443,9.48015,-4.28237
679,-419,9.4856,4.22705,-0.00876674,-0.000401254,0.00366002,0.000973979,-0.010142,1.21137,0.00710825,0.0401317,1903,1443,9.48557,-4.22705
686,-419,8.98389,4.026,0,0,0,0,0,0,0,-1,1910,1443,8.98386,-4.026
693,-419,7.70715,3.61829,0,0,0,0,0,0,0,-1,1917,1443,7.70713,-3.6183
700,-419,7.0708,0.878418,0,0,0,0,0,0,0,-1,1924,1443,7.07081,-0.878367
707,-419,6.43237,-0.0690918,0,0,0,0,0,0,0,-1,1931,1443,6.4324,0.0691481
714,-419,5.77576,-1.25061,0,0,0,0,0,0,0,-1,1938,1443,5.7757,1.25056
721,-419,0,0,0,0,0,0,0,0,0,-1,1945,1443,0,0
728,-419,0,0,0,0,0,0,0,0,0,-1,1952,1443,0,0
735,-419,0,0,0,0,0,0,0,0,0,-1,1959,1443,0,0
742,-419,0,0,0,0,0,0,0,0,0,-1,1966,1443,0,0
749,-419,0,0,0,0,0,0,0,0,0,-1,1973,1443,0,0
756,-419,0,0,0,0,0,0,0,0,0,-1,1980,1443,0,0
763,-419,0,0,0,0,0,0,0,0,0,-1,1987,1443,0,0
770,-419,0,0,0,0,0,0,0,0,0,-1,1994,1443,0,0
777,-419,0,0,0,0,0,0,0,0,0,-1,2001,1443,0,0
784,-419,0,0,0,0,0,0,0,0,0,-1,2008,1443,0,0
791,-419,0,0,0,0,0,0,0,0,0,-1,2015,1443,0,0
798,-419,0,0,0,0,0,0,0,0,0,-1,2022,1443,0,0
805,-419,0,0,0,0,0,0,0,0,0,-1,2029,1443,0,0
812,-419,0,0,0,0,0,0,0,0,0,-1,2036,1443,0,0
-700,-426,0,0,0,0,0,0,0,0,0,-1,524,1450,0,0
-693,-426,0,0,0,0,0,0,0,0,0,-1,531,1450,0,0
-686,-426,0,0,0,0,0,0,0,0,0,-1,538,1450,0,0
-679,-426,0,0,0,0,0,0,0,0,0,-1,545,1450,0,0
-672,-426,0,0,0,0,0,0,0,0,0,-1,552,1450,0,0
-665,-426,0,0,0,0,0,0,0,0,0,-1,559,1450,0,0
-658,-426,0,0,0,0,0,0,0,0,0,-1,566,1450,0,0
-651,-426,0,0,0,0,0,0,0,0,0,-1,573,1450,0,0
-644,-426,0,0,0,0,0,0,0,0,0,-1,580,1450,0,0
-637,-426,0,0,0,0,0,0,0,0,0,-1,587,1450,0,0
-630,-426,0,0,0,0,0,0,0,0,0,-1,594,1450,0,0
-623,-426,0,0,0,0,0,0,0,0,0,-1,601,1450,0,0
-616,-426,0,0,0,0,0,0,0,0,0,-1,608,1450,0,0
-609,-426,0,0,0,0,0,0,0,0,0,-1,615,1450,0,0
-602,-426,0,0,0,0,0,0,0,0,0,-1,622,1450,0,0
-595,-426,0,0,0,0,0,0,0,0,0,-1,629,1450,0,0
-588,-426,-4.39026,0.156494,0,0,0,0,0,0,0,-1,636,1450,-4.39027,-0.156543
-581,-426,-3.61182,1.14502,0,0,0,0,0,0,0,-1,643,1450,-3.61184,-1.14503
-574,-426,-3.04663,2.09326,0,0,0,0,0,0,0,-1,650,1450,-3.04663,-2.0933
-567,-426,-4.19232,1.27112,0,0,0,0,0,0,0,-1,657,1450,-4.1923,-1.27108
-560,-426,-1.84064,0.874756,0,0,0,0,0,0,0,-1,664,1450,-1.84062,-0.874725
-553,-426,-2.14392,2.80603,0,0,0,0,0,0,0,-1,671,1450,-2.14392,-2.80602
-546,-426,-2.28546,2.28735,0.0302455,0.00189794,0.0197335,0.0403679,-0.00822453,0.47396,0.0300312,0.0482131,678,1450,-2.28547,-2.28739
-539,-426,-2.18146,2.58508,0.0240495,0.00196307,0.0158424,0.0323178,-0.0063052,0.48102,0.0239255,0.0374069,685,1450,-2.18146,-2.58509
-532,-426,-2.25409,2.7854,0.0188468,0.00173617,0.0122822,0.0252597,-0.00467669,0.481191,0.0185957,0.0216058,692,1450,-2.2541,-2.78541
-525,-426,-2.32776,2.96814,0.014449,0.00129242,0.0093732,0.019322,-0.00358052,0.479425,0.0142258,0.0129043,699,1450,-2.32777,-2.96808
-518,-426,-2.31152,3.15369,0.010689,0.000827447,0.00684891,0.0141974,-0.00268098,0.473408,0.0104736,0.0154528,706,1450,-2.3115,-3.15369
-511,-426,-2.30908,3.33716,0.00735662,0.000330295,0.00470045,0.00971172,-0.00202481,0.464478,0.00724437,0.0142082,713,1450,-2.3091,-3.33712
-504,-426,-2.31628,3.51721,0.00440002,-5.35554e-05,0.00278887,0.00574203,-0.00139557,0.448499,0.00436817,0.013605,720,1450,-2.3163,-3.5172
-497,-426,-2.31464,3.67957,0.00222951,-0.000582058,0.00106989,0.00259033,-0.000942882,0.325273,0.00211252,0.0116545,727,1450,-2.31464,-3.67959
-490,-426,-2.31531,3.86255,-2.33604e-05,-0.00181825,-0.00074792,0.000247437,-0.00208905,-0.347385,0.00148208,0.0119093,734,1450,-2.31528,-3.86259
-483,-426,-2.31567,4.02087,-0.00210352,-0.00230304,-0.00238705,0.000185857,-0.00459241,-0.764514,0.0031254,0.0119854,741,1450,-2.31569,-4.02089
-476,-426,-2.32617,4.19495,-0.00366821,-0.00159344,-0.00410672,0.00160489,-0.00686654,-0.909113,0.00519595,0.00959613,748,1450,-2.32616,-4.19498
-469,-426,-2.31628,4.36438,-0.00494078,-0.00143238,-0.00632731,0.0033794,-0.00975255,-0.920623,0.00787374,0.00698441,755,1450,-2.31631,-4.36434
-462,-426,-2.2522,4.55737,-0.00626461,-0.000764403,-0.00885335,0.00575614,-0.0127852,-0.935988,0.0109582,0.0136768,762,1450,-2.2522,-4.55739
-455,-426,-2.25262,4.58813,-0.00761552,0.000591957,-0.0121689,0.00933041,-0.016354,-0.948026,0.0150126,0.0287827,769,1450,-2.25265,-4.58818
-448,-426,-2.50513,4.53247,-0.00889432,0.00272459,-0.0163675,0.0142831,-0.0204528,-0.955932,0.02016,0.0431425,776,1450,-2.50511,-4.53241
-441,-426,-2.60803,4.82935,-0.00996959,0.00628918,-0.0218012,0.0214273,-0.0251078,-0.963857,0.0268951,0.0434132,783,1450,-2.60801,-4.82936
-434,-426,-2.82971,5.30188,-0.0104548,0.011524,-0.0285053,0.0310849,-0.0300157,-0.96938,0.0352782,0.046356,790,1450,-2.82974,-5.30182
-427,-426,-2.88715,6.22192,-0.00995907,0.0186941,-0.0365047,0.0435829,-0.0348479,-0.972392,0.0453756,0.0468531,797,1450,-2.88713,-6.22187
-420,-426,-2.64288,5.10315,-0.00790196,0.0280675,-0.045727,0.0592194,-0.0390539,-0.972759,0.0571349,0.0466714,804,1450,-2.64288,-5.10313
-413,-426,-2.52618,5.23474,0,0,0,0,0,0,0,-1,811,1450,-2.52618,-5.23472
-406,-426,-5.75635,2.24744,0,0,0,0,0,0,0,-1,818,1450,-5.75637,-2.24741
-399,-426,-6.49414,1.33081,0,0,0,0,0,0,0,-1,825,1450,-6.49412,-1.3308
-392,-426,-7.24072,0.395386,0,0,0,0,0,0,0,-1,832,1450,-7.24074,-0.395387
-385,-426,0,0,0,0,0,0,0,0,0,-1,839,1450,0,0
-378,-426,0,0,0,0,0,0,0,0,0,-1,846,1450,0,0
-371,-426,0,0,0,0,0,0,0,0,0,-1,853,1450,0,0
-364,-426,0,0,0,0,0,0,0,0,0,-1,860,1450,0,0
-357,-426,0,0,0,0,0,0,0,0,0,-1,867,1450,0,0
-350,-426,0,0,0,0,0,0,0,0,0,-1,874,1450,0,0
-343,-426,0,0,0,0,0,0,0,0,0,-1,881,1450,0,0
-336,-426,0,0,0,0,0,0,0,0,0,-1,888,1450,0,0
-329,-426,0,0,0,0,0,0,0,0,0,-1,895,1450,0,0
-322,-426,0,0,0,0,0,0,0,0,0,-1,902,1450,0,0
-315,-426,0,0,0,0,0,0,0,0,0,-1,909,1450,0,0
-308,-426,0,0,0,0,0,0,0,0,0,-1,916,1450,0,0
-301,-426,0,0,0,0,0,0,0,0,0,-1,923,1450,0,0
-294,-426,0,0,0,0,0,0,0,0,0,-1,930,1450,0,0
-287,-426,0,0,0,0,0,0,0,0,0,-1,937,1450,0,0
-280,-426,0,0,0,0,0,0,0,0,0,-1,944,1450,0,0
-273,-426,0,0,0,0,0,0,0,0,0,-1,951,1450,0,0
-266,-426,0,0,0,0,0,0,0,0,0,-1,958,1450,0,0
-259,-426,0,0,0,0,0,0,0,0,0,-1,965,1450,0,0
-252,-426,0,0,0,0,0,0,0,0,0,-1,972,1450,0,0
-245,-426,0,0,0,0,0,0,0,0,0,-1,979,1450,0,0
-238,-426,0,0,0,0,0,0,0,0,0,-1,986,1450,0,0
-231,-426,0,0,0,0,0,0,0,0,0,-1,993,1450,0,0
-224,-426,0,0,0,0,0,0,0,0,0,-1,1000,1450,0,0
-217,-426,0,0,0,0,0,0,0,0,0,-1,1007,1450,0,0
-210,-426,0,0,0,0,0,0,0,0,0,-1,1014,1450,0,0
-203,-426,0,0,0,0,0,0,0,0,0,-1,1021,1450,0,0
-196,-426,0,0,0,0,0,0,0,0,0,-1,1028,1450,0,0
-189,-426,0,0,0,0,0,0,0,0,0,-1,1035,1450,0,0
-182,-426,0,0,0,0,0,0,0,0,0,-1,1042,1450,0,0
-175,-426,0,0,0,0,0,0,0,0,0,-1,1049,1450,0,0
-168,-426,0,0,0,0,0,0,0,0,0,-1,1056,1450,0,0
-161,-426,0,0,0,0,0,0,0,0,0,-1,1063,1450,0,0
-154,-426,0,0,0,0,0,0,0,0,0,-1,1070,1450,0,0
-147,-426,0,0,0,0,0,0,0,0,0,-1,1077,1450,0,0
-140,-426,0,0,0,0,0,0,0,0,0,-1,1084,1450,0,0
-133,-426,0,0,0,0,0,0,0,0,0,-1,1091,1450,0,0
-126,-426,0,0,0,0,0,0,0,0,0,-1,1098,1450,0,0
-119,-426,0,0,0,0,0,0,0,0,0,-1,1105,1450,0,0
-112,-426,0,0,0,0,0,0,0,0,0,-1,1112,1450,0,0
-105,-426,0,0,0,0,0,0,0,0,0,-1,1119,1450,0,0
-98,-426,0,0,0,0,0,0,0,0,0,-1,1126,1450,0,0
-91,-426,0,0,0,0,0,0,0,0,0,-1,1133,1450,0,0
-84,-426,0,0,0,0,0,0,0,0,0,-1,1140,1450,0,0
-77,-426,0,0,0,0,0,0,0,0,0,-1,1147,1450,0,0
-70,-426,0,0,0,0,0,0,0,0,0,-1,1154,1450,0,0
-63,-426,0,0,0,0,0,0,0,0,0,-1,1161,1450,0,0
-56,-426,0,0,0,0,0,0,0,0,0,-1,1168,1450,0,0
-49,-426,0,0,0,0,0,0,0,0,0,-1,1175,1450,0,0
-42,-426,0,0,0,0,0,0,0,0,0,-1,1182,1450,0,0
-35,-426,0,0,0,0,0,0,0,0,0,-1,1189,1450,0,0
-28,-426,0,0,0,0,0,0,0,0,0,-1,1196,1450,0,0
-21,-426,0,0,0,0,0,0,0,0,0,-1,1203,1450,0,0
-14,-426,0,0,0,0,0,0,0,0,0,-1,1210,1450,0,0
-7,-426,0,0,0,0,0,0,0,0,0,-1,1217,1450,0,0
0,-426,0,0,0,0,0,0,0,0,0,-1,1224,1450,0,0
7,-426,0,0,0,0,0,0,0,0,0,-1,1231,1450,0,0
14,-426,0,0,0,0,0,0,0,0,0,-1,1238,1450,0,0
21,-426,0,0,0,0,0,0,0,0,0,-1,1245,1450,0,0
28,-426,0,0,0,0,0,0,0,0,0,-1,1252,1450,0,0
35,-426,0,0,0,0,0,0,0,0,0,-1,1259,1450,0,0
42,-426,0,0,0,0,0,0,0,0,0,-1,1266,1450,0,0
49,-426,0,0,0,0,0,0,0,0,0,-1,1273,1450,0,0
56,-426,0,0,0,0,0,0,0,0,0,-1,1280,1450,0,0
63,-426,0,0,0,0,0,0,0,0,0,-1,1287,1450,0,0
70,-426,0,0,0,0,0,0,0,0,0,-1,1294,1450,0,0
77,-426,0,0,0,0,0,0,0,0,0,-1,1301,1450,0,0
84,-426,0,0,0,0,0,0,0,0,0,-1,1308,1450,0,0
91,-426,0,0,0,0,0,0,0,0,0,-1,1315,1450,0,0
98,-426,0,0,0,0,0,0,0,0,0,-1,1322,1450,0,0
105,-426,0,0,0,0,0,0,0,0,0,-1,1329,1450,0,0
112,-426,0,0,0,0,0,0,0,0,0,-1,1336,1450,0,0
119,-426,0,0,0,0,0,0,0,0,0,-1,1343,1450,0,0
126,-426,0,0,0,0,0,0,0,0,0,-1,1350,1450,0,0
133,-426,0,0,0,0,0,0,0,0,0,-1,1357,1450,0,0
140,-426,0,0,0,0,0,0,0,0,0,-1,1364,1450,0,0
147,-426,0,0,0,0,0,0,0,0,0,-1,1371,1450,0,0
154,-426,0,0,0,0,0,0,0,0,0,-1,1378,1450,0,0
161,-426,0,0,0,0,0,0,0,0,0,-1,1385,1450,0,0
168,-426,0,0,0,0,0,0,0,0,0,-1,1392,1450,0,0
175,-426,0,0,0,0,0,0,0,0,0,-1,1399,1450,0,0
182,-426,0,0,0,0,0,0,0,0,0,-1,1406,1450,0,0
189,-426,0,0,0,0,0,0,0,0,0,-1,1413,1450,0,0
196,-426,0,0,0,0,0,0,0,0,0,-1,1420,1450,0,0
203,-426,0,0,0,0,0,0,0,0,0,-1,1427,1450,0,0
210,-426,0,0,0,0,0,0,0,0,0,-1,1434,1450,0,0
217,-426,0,0,0,0,0,0,0,0,0,-1,1441,1450,0,0
224,-426,0,0,0,0,0,0,0,0,0,-1,1448,1450,0,0
231,-426,0,0,0,0,0,0,0,0,0,-1,1455,1450,0,0
238,-426,0,0,0,0,0,0,0,0,0,-1,1462,1450,0,0
245,-426,0,0,0,0,0,0,0,0,0,-1,1469,1450,0,0
252,-426,0,0,0,0,0,0,0,0,0,-1,1476,1450,0,0
259,-426,0,0,0,0,0,0,0,0,0,-1,1483,1450,0,0
266,-426,0,0,0,0,0,0,0,0,0,-1,1490,1450,0,0
273,-426,0,0,0,0,0,0,0,0,0,-1,1497,1450,0,0
280,-426,0,0,0,0,0,0,0,0,0,-1,1504,1450,0,0
287,-426,0,0,0,0,0,0,0,0,0,-1,1511,1450,0,0
294,-426,0,0,0,0,0,0,0,0,0,-1,1518,1450,0,0
301,-426,0,0,0,0,0,0,0,0,0,-1,1525,1450,0,0
308,-426,0,0,0,0,0,0,0,0,0,-1,1532,1450,0,0
315,-426,0,0,0,0,0,0,0,0,0,-1,1539,1450,0,0
322,-426,0,0,0,0,0,0,0,0,0,-1,1546,1450,0,0
329,-426,0,0,0,0,0,0,0,0,0,-1,1553,1450,0,0
336,-426,0,0,0,0,0,0,0,0,0,-1,1560,1450,0,0
343,-426,0,0,0,0,0,0,0,0,0,-1,1567,1450,0,0
350,-426,0,0,0,0,0,0,0,0,0,-1,1574,1450,0,0
357,-426,0,0,0,0,0,0,0,0,0,-1,1581,1450,0,0
364,-426,0,0,0,0,0,0,0,0,0,-1,1588,1450,0,0
371,-426,0,0,0,0,0,0,0,0,0,-1,1595,1450,0,0
378,-426,0,0,0,0,0,0,0,0,0,-1,1602,1450,0,0
385,-426,0,0,0,0,0,0,0,0,0,-1,1609,1450,0,0
392,-426,0,0,0,0,0,0,0,0,0,-1,1616,1450,0,0
399,-426,0,0,0,0,0,0,0,0,0,-1,1623,1450,0,0
406,-426,0,0,0,0,0,0,0,0,0,-1,1630,1450,0,0
413,-426,0,0,0,0,0,0,0,0,0,-1,1637,1450,0,0
420,-426,0,0,0,0,0,0,0,0,0,-1,1644,1450,0,0
427,-426,0,0,0,0,0,0,0,0,0,-1,1651,1450,0,0
434,-426,0,0,0,0,0,0,0,0,0,-1,1658,1450,0,0
441,-426,0,0,0,0,0,0,0,0,0,-1,1665,1450,0,0
448,-426,0,0,0,0,0,0,0,0,0,-1,1672,1450,0,0
455,-426,0,0,0,0,0,0,0,0,0,-1,1679,1450,0,0
462,-426,0,0,0,0,0,0,0,0,0,-1,1686,1450,0,0
469,-426,0,0,0,0,0,0,0,0,0,-1,1693,1450,0,0
476,-426,0,0,0,0,0,0,0,0,0,-1,1700,1450,0,0
483,-426,0,0,0,0,0,0,0,0,0,-1,1707,1450,0,0
490,-426,0,0,0,0,0,0,0,0,0,-1,1714,1450,0,0
497,-426,0,0,0,0,0,0,0,0,0,-1,1721,1450,0,0
504,-426,11.3325,-0.0932617,0,0,0,0,0,0,0,-1,1728,1450,11.3325,0.0932552
511,-426,11.0135,0.0611572,0,0,0,0,0,0,0,-1,1735,1450,11.0136,-0.0611674
518,-426,10.746,0.292603,0,0,0,0,0,0,0,-1,1742,1450,10.746,-0.29259
525,-426,10.6035,0.81311,0,0,0,0,0,0,0,-1,1749,1450,10.6036,-0.813083
532,-426,11.2903,1.70325,0,0,0,0,0,0,0,-1,1756,1450,11.2903,-1.70327
539,-426,12.0864,1.98389,0,0,0,0,0,0,0,-1,1763,1450,12.0864,-1.98392
546,-426,12.5597,1.90796,0,0,0,0,0,0,0,-1,1770,1450,12.5597,-1.90802
553,-426,10.9528,6.98804,0,0,0,0,0,0,0,-1,1777,1450,10.9528,-6.98809
560,-426,10.4442,7.30884,0,0,0,0,0,0,0,-1,1784,1450,10.4442,-7.30889
567,-426,10.3024,7.68835,0,0,0,0,0,0,0,-1,1791,1450,10.3024,-7.68839
574,-426,9.95264,5.21057,0,0,0,0,0,0,0,-1,1798,1450,9.95266,-5.21053
581,-426,9.58948,5.48315,-0.0106173,-0.0156939,0.0376963,0.024626,-0.0509372,0.751781,0.0444993,0.0452484,1805,1450,9.58948,-5.48311
588,-426,9.4502,5.89478,-0.0164171,-0.0176556,0.0329131,0.0158826,-0.0499552,0.775992,0.039672,0.0410018,1812,1450,9.45026,-5.89478
595,-426,9.32825,5.99585,-0.0189419,-0.0181727,0.0276616,0.009107,-0.0462216,0.792349,0.034256,0.0257313,1819,1450,9.32819,-5.99582
602,-426,9.33875,5.83118,-0.0188042,-0.0173232,0.0221973,0.00414595,-0.0402734,0.802072,0.0283322,0.0148095,1826,1450,9.33879,-5.83116
609,-426,9.32312,5.69617,-0.01625,-0.0149991,0.0171818,0.00156862,-0.0328178,0.803592,0.0224197,0.0118684,1833,1450,9.32311,-5.69619
616,-426,9.31592,5.57996,-0.0125895,-0.0117104,0.0125197,0.000377487,-0.0246774,0.802945,0.0165788,0.0143521,1840,1450,9.31587,-5.57996
623,-426,9.33289,5.41992,-0.00948086,-0.0081911,0.00852006,-0.00029155,-0.0173804,0.823171,0.011491,0.0114295,1847,1450,9.33292,-5.41989
630,-426,9.34497,5.26672,-0.00669094,-0.00498699,0.00516802,-0.000601186,-0.0110767,0.867091,0.00719248,0.0117948,1854,1450,9.34492,-5.26678
637,-426,9.34253,5.1178,-0.0043436,-0.00221859,0.00265239,-0.000423811,-0.00613838,0.975903,0.00395856,0.0117198,1861,1450,9.34252,-5.11779
644,-426,9.33398,4.98621,-0.00324149,-0.000324717,0.00134233,0.000199002,-0.00376521,1.1988,0.00257904,0.0114399,1868,1450,9.33402,-4.98617
651,-426,9.32959,4.82874,-0.00314302,0.000857108,0.000706387,0.000978184,-0.0032641,1.40104,0.00256507,0.0120252,1875,1450,9.32958,-4.82871
658,-426,9.34033,4.62134,-0.00411555,0.00150259,0.000801245,0.00161463,-0.00422759,1.43187,0.00348364,0.0118116,1882,1450,9.34034,-4.62132
665,-426,9.34778,4.4292,-0.00607415,0.00165913,0.00152983,0.00195077,-0.00636579,1.38242,0.00502204,0.0172633,1889,1450,9.34782,-4.42919
672,-426,9.33118,4.23657,-0.00871565,0.00166352,0.00264849,0.00230027,-0.00935241,1.33485,0.00712654,0.0281264,1896,1450,9.33114,-4.23656
679,-426,9.16272,4.23083,-0.0120064,0.000862417,0.00382503,0.00191349,-0.0130575,1.30263,0.00940793,0.0398005,1903,1450,9.16275,-4.23079
686,-426,9.15247,4.23767,0,0,0,0,0,0,0,-1,1910,1450,9.15244,-4.23766
693,-426,9.31238,4.44482,0,0,0,0,0,0,0,-1,1917,1450,9.31234,-4.44481
700,-426,7.23096,-0.289307,0,0,0,0,0,0,0,-1,1924,1450,7.23101,0.289246
707,-426,8.44519,-1.21448,0,0,0,0,0,0,0,-1,1931,1450,8.44514,1.21454
714,-426,0,0,0,0,0,0,0,0,0,-1,1938,1450,0,0
721,-426,0,0,0,0,0,0,0,0,0,-1,1945,1450,0,0
728,-426,0,0,0,0,0,0,0,0,0,-1,1952,1450,0,0
735,-426,0,0,0,0,0,0,0,0,0,-1,1959,1450,0,0
742,-426,0,0,0,0,0,0,0,0,0,-1,1966,1450,0,0
749,-426,0,0,0,0,0,0,0,0,0,-1,1973,1450,0,0
756,-426,0,0,0,0,0,0,0,0,0,-1,1980,1450,0,0
763,-426,0,0,0,0,0,0,0,0,0,-1,1987,1450,0,0
770,-426,0,0,0,0,0,0,0,0,0,-1,1994,1450,0,0
777,-426,0,0,0,0,0,0,0,0,0,-1,2001,1450,0,0
784,-426,0,0,0,0,0,0,0,0,0,-1,2008,1450,0,0
791,-426,0,0,0,0,0,0,0,0,0,-1,2015,1450,0,0
798,-426,0,0,0,0,0,0,0,0,0,-1,2022,1450,0,0
805,-426,0,0,0,0,0,0,0,0,0,-1,2029,1450,0,0
812,-426,0,0,0,0,0,0,0,0,0,-1,2036,1450,0,0
-700,-433,0,0,0,0,0,0,0,0,0,-1,524,1457,0,0
-693,-433,0,0,0,0,0,0,0,0,0,-1,531,1457,0,0
-686,-433,0,0,0,0,0,0,0,0,0,-1,538,1457,0,0
-679,-433,0,0,0,0,0,0,0,0,0,-1,545,1457,0,0
-672,-433,0,0,0,0,0,0,0,0,0,-1,552,1457,0,0
-665,-433,0,0,0,0,0,0,0,0,0,-1,559,1457,0,0
-658,-433,0,0,0,0,0,0,0,0,0,-1,566,1457,0,0
-651,-433,0,0,0,0,0,0,0,0,0,-1,573,1457,0,0
-644,-433,0,0,0,0,0,0,0,0,0,-1,580,1457,0,0
-637,-433,0,0,0,0,0,0,0,0,0,-1,587,1457,0,0
-630,-433,0,0,0,0,0,0,0,0,0,-1,594,1457,0,0
-623,-433,0,0,0,0,0,0,0,0,0,-1,601,1457,0,0
-616,-433,0,0,0,0,0,0,0,0,0,-1,608,1457,0,0
-609,-433,0,0,0,0,0,0,0,0,0,-1,615,1457,0,0
-602,-433,0,0,0,0,0,0,0,0,0,-1,622,1457,0,0
-595,-433,0,0,0,0,0,0,0,0,0,-1,629,1457,0,0
-588,-433,-4.99121,-0.205688,0,0,0,0,0,0,0,-1,636,1457,-4.99119,0.205667
-581,-433,-3.65509,0.73938,0,0,0,0,0,0,0,-1,643,1457,-3.65509,-0.739438
-574,-433,-3.40479,1.60901,0,0,0,0,0,0,0,-1,650,1457,-3.40478,-1.60896
-567,-433,-3.03705,2.14294,0,0,0,0,0,0,0,-1,657,1457,-3.03707,-2.14296
-560,-433,-2.49774,-0.406372,0,0,0,0,0,0,0,-1,664,1457,-2.49775,0.406391
-553,-433,-2.50452,0.574097,0,0,0,0,0,0,0,-1,671,1457,-2.50455,-0.574046
-546,-433,-2.45148,1.56677,0.0405978,0.00050666,0.0248042,0.0524439,-0.0113394,0.445552,0.0392916,0.0487564,678,1457,-2.4515,-1.56672
-539,-433,-2.22778,2.31384,0.0328729,0.000853622,0.0202595,0.0426849,-0.00895838,0.451021,0.0318653,0.0416338,685,1457,-2.22779,-2.3138
-532,-433,-2.06073,2.75317,0.0260557,0.000946612,0.0160232,0.033857,-0.00685466,0.453091,0.0251693,0.0264305,692,1457,-2.06073,-2.75313
-525,-433,-2.11737,2.97498,0.0201322,0.000857676,0.0122556,0.0260859,-0.00509599,0.452215,0.0193147,0.015048,699,1457,-2.11739,-2.97503
-518,-433,-2.14398,3.14697,0.0151187,0.000669839,0.00901307,0.0194454,-0.00365683,0.447556,0.0143388,0.0164347,706,1457,-2.14396,-3.14696
-511,-433,-2.14856,3.32288,0.0106991,0.000492884,0.00631881,0.0137182,-0.00252614,0.445717,0.0100934,0.0159425,713,1457,-2.14855,-3.32284
-504,-433,-2.13837,3.50195,0.00699151,0.000343484,0.00405683,0.0089122,-0.00157721,0.44218,0.00653099,0.0123411,720,1457,-2.13835,-3.50195
-497,-433,-2.14209,3.68408,0.00439009,7.31845e-06,0.00215351,0.00527113,-0.000873721,0.388341,0.00383861,0.0128388,727,1457,-2.14207,-3.68404
-490,-433,-2.15216,3.87341,0.00182311,-0.00104492,0.000192089,0.00183592,-0.00105772,0.0665798,0.00169066,0.0147943,734,1457,-2.15214,-3.87345
-483,-433,-2.15723,4.05359,-0.000457809,-0.00136421,-0.00152265,0.000677652,-0.00249967,-0.640753,0.00193235,0.0155065,741,1457,-2.15722,-4.05362
-476,-433,-2.15326,4.21008,-0.00205952,-0.000705676,-0.00315942,0.00184853,-0.00461372,-0.89093,0.00384315,0.0107457,748,1457,-2.15325,-4.21008
-469,-433,-2.13452,4.37842,-0.00327251,-0.000677165,-0.00506587,0.0032546,-0.00720427,-0.910782,0.00618029,0.0101694,755,1457,-2.13452,-4.37842
-462,-433,-2.12988,4.54944,-0.00433286,-0.000264351,-0.0072206,0.00520307,-0.00980029,-0.922704,0.0087967,0.00915635,762,1457,-2.12989,-4.54942
-455,-433,-2.01385,4.698,-0.00542375,0.000601419,-0.00998596,0.00801932,-0.0128417,-0.931898,0.0121509,0.0201182,769,1457,-2.01386,-4.69803
-448,-433,-2.0376,4.77393,-0.00647963,0.00184706,-0.0133598,0.0116772,-0.0163097,-0.936446,0.0162319,0.033612,776,1457,-2.03762,-4.77395
-441,-433,-2.10999,4.94702,-0.00743136,0.00411838,-0.0177418,0.0170015,-0.0203145,-0.942738,0.0215727,0.0409379,783,1457,-2.11001,-4.94702
-434,-433,-2.13861,5.08997,-0.00810844,0.00738411,-0.023039,0.0239442,-0.0246685,-0.947573,0.0280676,0.0464017,790,1457,-2.13859,-5.08994
-427,-433,-2.3515,5.08447,-0.00824011,0.0117484,-0.0292024,0.0326194,-0.0291111,-0.950271,0.0356593,0.0477499,797,1457,-2.3515,-5.08443
-420,-433,-2.28357,5.02686,-0.00742497,0.0171804,-0.0360274,0.0429478,-0.0331924,-0.949931,0.0440796,0.0464858,804,1457,-2.2836,-5.02691
-413,-433,-2.17084,5.11694,0,0,0,0,0,0,0,-1,811,1457,-2.17087,-5.11698
-406,-433,-6.19287,2.67285,0,0,0,0,0,0,0,-1,818,1457,-6.1929,-2.67286
-399,-433,-6.95508,1.86853,0,0,0,0,0,0,0,-1,825,1457,-6.95506,-1.86848
-392,-433,-7.32813,1.44543,0,0,0,0,0,0,0,-1,832,1457,-7.3281,-1.44546
-385,-433,-1.65833,1.2821,0,0,0,0,0,0,0,-1,839,1457,-1.65834,-1.28209
-378,-433,0,0,0,0,0,0,0,0,0,-1,846,1457,0,0
-371,-433,0,0,0,0,0,0,0,0,0,-1,853,1457,0,0
-364,-433,0,0,0,0,0,0,0,0,0,-1,860,1457,0,0
-357,-433,0,0,0,0,0,0,0,0,0,-1,867,1457,0,0
-350,-433,0,0,0,0,0,0,0,0,0,-1,874,1457,0,0
-343,-433,0,0,0,0,0,0,0,0,0,-1,881,1457,0,0
-336,-433,0,0,0,0,0,0,0,0,0,-1,888,1457,0,0
-329,-433,0,0,0,0,0,0,0,0,0,-1,895,1457,0,0
-322,-433,0,0,0,0,0,0,0,0,0,-1,902,1457,0,0
-315,-433,0,0,0,0,0,0,0,0,0,-1,909,1457,0,0
-308,-433,0,0,0,0,0,0,0,0,0,-1,916,1457,0,0
-301,-433,0,0,0,0,0,0,0,0,0,-1,923,1457,0,0
-294,-433,0,0,0,0,0,0,0,0,0,-1,930,1457,0,0
-287,-433,0,0,0,0,0,0,0,0,0,-1,937,1457,0,0
-280,-433,0,0,0,0,0,0,0,0,0,-1,944,1457,0,0
-273,-433,0,0,0,0,0,0,0,0,0,-1,951,1457,0,0
-266,-433,0,0,0,0,0,0,0,0,0,-1,958,1457,0,0
-259,-433,0,0,0,0,0,0,0,0,0,-1,965,1457,0,0
-252,-433,0,0,0,0,0,0,0,0,0,-1,972,1457,0,0
-245,-433,0,0,0,0,0,0,0,0,0,-1,979,1457,0,0
-238,-433,0,0,0,0,0,0,0,0,0,-1,986,1457,0,0
-231,-433,0,0,0,0,0,0,0,0,0,-1,993,1457,0,0
-224,-433,0,0,0,0,0,0,0,0,0,-1,1000,1457,0,0
-217,-433,0,0,0,0,0,0,0,0,0,-1,1007,1457,0,0
-210,-433,0,0,0,0,0,0,0,0,0,-1,1014,1457,0,0
-203,-433,0,0,0,0,0,0,0,0,0,-1,1021,1457,0,0
-196,-433,0,0,0,0,0,0,0,0,0,-1,1028,1457,0,0
-189,-433,0,0,0,0,0,0,0,0,0,-1,1035,1457,0,0
-182,-433,0,0,0,0,0,0,0,0,0,-1,1042,1457,0,0
-175,-433,0,0,0,0,0,0,0,0,0,-1,1049,1457,0,0
-168,-433,0,0,0,0,0,0,0,0,0,-1,1056,1457,0,0
-161,-433,0,0,0,0,0,0,0,0,0,-1,1063,1457,0,0
-154,-433,0,0,0,0,0,0,0,0,0,-1,1070,1457,0,0
-147,-433,0,0,0,0,0,0,0,0,0,-1,1077,1457,0,0
-140,-433,0,0,0,0,0,0,0,0,0,-1,1084,1457,0,0
-133,-433,0,0,0,0,0,0,0,0,0,-1,1091,1457,0,0
-126,-433,0,0,0,0,0,0,0,0,0,-1,1098,1457,0,0
-119,-433,0,0,0,0,0,0,0,0,0,-1,1105,1457,0,0
-112,-433,0,0,0,0,0,0,0,0,0,-1,1112,1457,0,0
-105,-433,0,0,0,0,0,0,0,0,0,-1,1119,1457,0,0
-98,-433,0,0,0,0,0,0,0,0,0,-1,1126,1457,0,0
-91,-433,0,0,0,0,0,0,0,0,0,-1,1133,1457,0,0
-84,-433,0,0,0,0,0,0,0,0,0,-1,1140,1457,0,0
-77,-433,0,0,0,0,0,0,0,0,0,-1,1147,1457,0,0
-70,-433,0,0,0,0,0,0,0,0,0,-1,1154,1457,0,0
-63,-433,0,0,0,0,0,0,0,0,0,-1,1161,1457,0,0
-56,-433,0,0,0,0,0,0,0,0,0,-1,1168,1457,0,0
-49,-433,0,0,0,0,0,0,0,0,0,-1,1175,1457,0,0
-42,-433,0,0,0,0,0,0,0,0,0,-1,1182,1457,0,0
-35,-433,0,0,0,0,0,0,0,0,0,-1,1189,1457,0,0
-28,-433,0,0,0,0,0,0,0,0,0,-1,1196,1457,0,0
-21,-433,0,0,0,0,0,0,0,0,0,-1,1203,1457,0,0
-14,-433,0,0,0,0,0,0,0,0,0,-1,1210,1457,0,0
-7,-433,0,0,0,0,0,0,0,0,0,-1,1217,1457,0,0
0,-433,0,0,0,0,0,0,0,0,0,-1,1224,1457,0,0
7,-433,0,0,0,0,0,0,0,0,0,-1,1231,1457,0,0
14,-433,0,0,0,0,0,0,0,0,0,-1,1238,1457,0,0
21,-433,0,0,0,0,0,0,0,0,0,-1,1245,1457,0,0
28,-433,0,0,0,0,0,0,0,0,0,-1,1252,1457,0,0
35,-433,0,0,0,0,0,0,0,0,0,-1,1259,1457,0,0
42,-433,0,0,0,0,0,0,0,0,0,-1,1266,1457,0,0
49,-433,0,0,0,0,0,0,0,0,0,-1,1273,1457,0,0
56,-433,0,0,0,0,0,0,0,0,0,-1,1280,1457,0,0
63,-433,0,0,0,0,0,0,0,0,0,-1,1287,1457,0,0
70,-433,0,0,0,0,0,0,0,0,0,-1,1294,1457,0,0
77,-433,0,0,0,0,0,0,0,0,0,-1,1301,1457,0,0
84,-433,0,0,0,0,0,0,0,0,0,-1,1308,1457,0,0
91,-433,0,0,0,0,0,0,0,0,0,-1,1315,1457,0,0
98,-433,0,0,0,0,0,0,0,0,0,-1,1322,1457,0,0
105,-433,0,0,0,0,0,0,0,0,0,-1,1329,1457,0,0
112,-433,0,0,0,0,0,0,0,0,0,-1,1336,1457,0,0
119,-433,0,0,0,0,0,0,0,0,0,-1,1343,1457,0,0
126,-433,0,0,0,0,0,0,0,0,0,-1,1350,1457,0,0
133,-433,0,0,0,0,0,0,0,0,0,-1,1357,1457,0,0
140,-433,0,0,0,0,0,0,0,0,0,-1,1364,1457,0,0
147,-433,0,0,0,0,0,0,0,0,0,-1,1371,1457,0,0
154,-433,0,0,0,0,0,0,0,0,0,-1,1378,1457,0,0
161,-433,0,0,0,0,0,0,0,0,0,-1,1385,1457,0,0
168,-433,0,0,0,0,0,0,0,0,0,-1,1392,1457,0,0
175,-433,0,0,0,0,0,0,0,0,0,-1,1399,1457,0,0
182,-433,0,0,0,0,0,0,0,0,0,-1,1406,1457,0,0
189,-433,0,0,0,0,0,0,0,0,0,-1,1413,1457,0,0
196,-433,0,0,0,0,0,0,0,0,0,-1,1420,1457,0,0
203,-433,0,0,0,0,0,0,0,0,0,-1,1427,1457,0,0
210,-433,0,0,0,0,0,0,0,0,0,-1,1434,1457,0,0
217,-433,0,0,0,0,0,0,0,0,0,-1,1441,1457,0,0
224,-433,0,0,0,0,0,0,0,0,0,-1,1448,1457,0,0
231,-433,0,0,0,0,0,0,0,0,0,-1,1455,1457,0,0
238,-433,0,0,0,0,0,0,0,0,0,-1,1462,1457,0,0
245,-433,0,0,0,0,0,0,0,0,0,-1,1469,1457,0,0
252,-433,0,0,0,0,0,0,0,0,0,-1,1476,1457,0,0
259,-433,0,0,0,0,0,0,0,0,0,-1,1483,1457,0,0
266,-433,0,0,0,0,0,0,0,0,0,-1,1490,1457,0,0
273,-433,0,0,0,0,0,0,0,0,0,-1,1497,1457,0,0
280,-433,0,0,0,0,0,0,0,0,0,-1,1504,1457,0,0
287,-433,0,0,0,0,0,0,0,0,0,-1,1511,1457,0,0
294,-433,0,0,0,0,0,0,0,0,0,-1,1518,1457,0,0
301,-433,0,0,0,0,0,0,0,0,0,-1,1525,1457,0,0
308,-433,0,0,0,0,0,0,0,0,0,-1,1532,1457,0,0
315,-433,0,0,0,0,0,0,0,0,0,-1,1539,1457,0,0
322,-433,0,0,0,0,0,0,0,0,0,-1,1546,1457,0,0
329,-433,0,0,0,0,0,0,0,0,0,-1,1553,1457,0,0
336,-433,0,0,0,0,0,0,0,0,0,-1,1560,1457,0,0
343,-433,0,0,0,0,0,0,0,0,0,-1,1567,1457,0,0
350,-433,0,0,0,0,0,0,0,0,0,-1,1574,1457,0,0
357,-433,0,0,0,0,0,0,0,0,0,-1,1581,1457,0,0
364,-433,0,0,0,0,0,0,0,0,0,-1,1588,1457,0,0
371,-433,0,0,0,0,0,0,0,0,0,-1,1595,1457,0,0
378,-433,0,0,0,0,0,0,0,0,0,-1,1602,1457,0,0
385,-433,0,0,0,0,0,0,0,0,0,-1,1609,1457,0,0
392,-433,0,0,0,0,0,0,0,0,0,-1,1616,1457,0,0
399,-433,0,0,0,0,0,0,0,0,0,-1,1623,1457,0,0
406,-433,0,0,0,0,0,0,0,0,0,-1,1630,1457,0,0
413,-433,0,0,0,0,0,0,0,0,0,-1,1637,1457,0,0
420,-433,0,0,0,0,0,0,0,0,0,-1,1644,1457,0,0
427,-433,0,0,0,0,0,0,0,0,0,-1,1651,1457,0,0
434,-433,0,0,0,0,0,0,0,0,0,-1,1658,1457,0,0
441,-433,0,0,0,0,0,0,0,0,0,-1,1665,1457,0,0
448,-433,0,0,0,0,0,0,0,0,0,-1,1672,1457,0,0
455,-433,0,0,0,0,0,0,0,0,0,-1,1679,1457,0,0
462,-433,0,0,0,0,0,0,0,0,0,-1,1686,1457,0,0
469,-433,0,0,0,0,0,0,0,0,0,-1,1693,1457,0,0
476,-433,0,0,0,0,0,0,0,0,0,-1,1700,1457,0,0
483,-433,0,0,0,0,0,0,0,0,0,-1,1707,1457,0,0
490,-433,0,0,0,0,0,0,0,0,0,-1,1714,1457,0,0
497,-433,0,0,0,0,0,0,0,0,0,-1,1721,1457,0,0
504,-433,10.751,-0.256714,0,0,0,0,0,0,0,-1,1728,1457,10.7509,0.256771
511,-433,10.6105,0.11145,0,0,0,0,0,0,0,-1,1735,1457,10.6105,-0.111511
518,-433,10.3679,0.297241,0,0,0,0,0,0,0,-1,1742,1457,10.3679,-0.297302
525,-433,10.014,0.498901,0,0,0,0,0,0,0,-1,1749,1457,10.014,-0.498962
532,-433,12.3329,5.5874,0,0,0,0,0,0,0,-1,1756,1457,12.3329,-5.58737
539,-433,9.73157,5.15393,0,0,0,0,0,0,0,-1,1763,1457,9.73151,-5.15399
546,-433,10.0593,5.83533,0,0,0,0,0,0,0,-1,1770,1457,10.0594,-5.83533
553,-433,10.2554,6.45764,0.0121347,-0.00582007,0.0483128,0.0522971,-0.0459825,0.693537,0.0567808,0.0414876,1777,1457,10.2553,-6.45767
560,-433,9.88489,6.67798,0.00639621,-0.00800321,0.0449466,0.0447161,-0.0463231,0.705981,0.0525642,0.0444338,1784,1457,9.88483,-6.67797
567,-433,9.95044,6.78418,0,0,0,0,0,0,0,-1,1791,1457,9.95047,-6.78417
574,-433,9.67798,5.73865,0,0,0,0,0,0,0,-1,1798,1457,9.67796,-5.7386
581,-433,9.50098,5.90002,-0.0088954,-0.0138974,0.0322263,0.0209268,-0.0437196,0.746672,0.038089,0.041884,1805,1457,9.50095,-5.90008
588,-433,9.24072,6.08118,-0.0132299,-0.0149605,0.027632,0.0135503,-0.0417408,0.769745,0.0332766,0.0302985,1812,1457,9.24078,-6.08113
595,-433,9.16248,6.02234,-0.0148717,-0.0147924,0.0228269,0.00799493,-0.037659,0.786267,0.028152,0.0223098,1819,1457,9.16251,-6.02231
602,-433,9.17981,5.87317,-0.0144701,-0.0136331,0.0179974,0.0039507,-0.0320539,0.797023,0.0228005,0.0210255,1826,1457,9.17982,-5.87313
609,-433,9.19116,5.72119,-0.0123202,-0.0114826,0.0136127,0.00171771,-0.0255206,0.800776,0.0176142,0.0157401,1833,1457,9.19117,-5.72122
616,-433,9.19324,5.56445,-0.00942389,-0.00875759,0.00971782,0.000632795,-0.0188143,0.802532,0.012759,0.0130865,1840,1457,9.19318,-5.56446
623,-433,9.19006,5.41931,-0.00696337,-0.0057056,0.00645028,0.000146376,-0.0128154,0.833993,0.00859278,0.0100295,1847,1457,9.19002,-5.4193
630,-433,9.18335,5.27454,-0.00493297,-0.00297854,0.0037287,-0.000101133,-0.00781038,0.913556,0.00517354,0.0126631,1854,1457,9.18337,-5.27448
637,-433,9.17822,5.12427,-0.00334328,-0.000726941,0.00176433,0.000161292,-0.00423151,1.1044,0.00287628,0.0128637,1861,1457,9.17818,-5.12422
644,-433,9.18372,4.99255,-0.00290574,0.00075922,0.000809048,0.000929873,-0.00307639,1.36291,0.00242116,0.0131862,1868,1457,9.18371,-4.99254
651,-433,9.18628,4.85071,-0.00341637,0.00167154,0.000464193,0.00171354,-0.00345837,1.48055,0.00304212,0.0115048,1875,1457,9.1863,-4.85071
658,-433,9.17957,4.63269,-0.00502188,0.0022245,0.00072436,0.0022962,-0.00509358,1.47214,0.0043672,0.0135187,1882,1457,9.17958,-4.63271
665,-433,9.14917,4.40466,-0.00769634,0.00255976,0.00146745,0.00276559,-0.00790217,1.43144,0.0063926,0.0200131,1889,1457,9.14914,-4.40462
672,-433,9.3219,4.40491,-0.011206,0.00284983,0.00257012,0.00330503,-0.0116612,1.3955,0.00907862,0.0362381,1896,1457,9.32185,-4.40491
679,-433,8.93103,4.22595,-0.0156779,0.00256409,0.00376837,0.00331189,-0.0164257,1.3749,0.0122051,0.0414442,1903,1457,8.93106,-4.2259
686,-433,8.82068,4.22913,0,0,0,0,0,0,0,-1,1910,1457,8.82066,-4.22915
693,-433,9.3092,3.70325,0,0,0,0,0,0,0,-1,1917,1457,9.30916,-3.70329
700,-433,7.16809,-1.5166,0,0,0,0,0,0,0,-1,1924,1457,7.16806,1.51656
707,-433,8.68359,-2.82202,0,0,0,0,0,0,0,-1,1931,1457,8.68359,2.82197
714,-433,0,0,0,0,0,0,0,0,0,-1,1938,1457,0,0
721,-433,0,0,0,0,0,0,0,0,0,-1,1945,1457,0,0
728,-433,0,0,0,0,0,0,0,0,0,-1,1952,1457,0,0
735,-433,0,0,0,0,0,0,0,0,0,-1,1959,1457,0,0
742,-433,0,0,0,0,0,0,0,0,0,-1,1966,1457,0,0
749,-433,0,0,0,0,0,0,0,0,0,-1,1973,1457,0,0
756,-433,0,0,0,0,0,0,0,0,0,-1,1980,1457,0,0
763,-433,0,0,0,0,0,0,0,0,0,-1,1987,1457,0,0
770,-433,0,0,0,0,0,0,0,0,0,-1,1994,1457,0,0
777,-433,0,0,0,0,0,0,0,0,0,-1,2001,1457,0,0
784,-433,0,0,0,0,0,0,0,0,0,-1,2008,1457,0,0
791,-433,0,0,0,0,0,0,0,0,0,-1,2015,1457,0,0
798,-433,0,0,0,0,0,0,0,0,0,-1,2022,1457,0,0
805,-433,0,0,0,0,0,0,0,0,0,-1,2029,1457,0,0
812,-433,0,0,0,0,0,0,0,0,0,-1,2036,1457,0,0
-700,-440,0,0,0,0,0,0,0,0,0,-1,524,1464,0,0
-693,-440,0,0,0,0,0,0,0,0,0,-1,531,1464,0,0
-686,-440,0,0,0,0,0,0,0,0,0,-1,538,1464,0,0
-679,-440,0,0,0,0,0,0,0,0,0,-1,545,1464,0,0
-672,-440,0,0,0,0,0,0,0,0,0,-1,552,1464,0,0
-665,-440,0,0,0,0,0,0,0,0,0,-1,559,1464,0,0
-658,-440,0,0,0,0,0,0,0,0,0,-1,566,1464,0,0
-651,-440,0,0,0,0,0,0,0,0,0,-1,573,1464,0,0
-644,-440,0,0,0,0,0,0,0,0,0,-1,580,1464,0,0
-637,-440,0,0,0,0,0,0,0,0,0,-1,587,1464,0,0
-630,-440,0,0,0,0,0,0,0,0,0,-1,594,1464,0,0
-623,-440,0,0,0,0,0,0,0,0,0,-1,601,1464,0,0
-616,-440,0,0,0,0,0,0,0,0,0,-1,608,1464,0,0
-609,-440,0,0,0,0,0,0,0,0,0,-1,615,1464,0,0
-602,-440,0,0,0,0,0,0,0,0,0,-1,622,1464,0,0
-595,-440,0,0,0,0,0,0,0,0,0,-1,629,1464,0,0
-588,-440,0,0,0,0,0,0,0,0,0,-1,636,1464,0,0
-581,-440,-3.66791,0.397095,0,0,0,0,0,0,0,-1,643,1464,-3.66793,-0.397063
-574,-440,-3.20636,1.37659,0,0,0,0,0,0,0,-1,650,1464,-3.20635,-1.3766
-567,-440,-5.17102,1.26331,0,0,0,0,0,0,0,-1,657,1464,-5.171,-1.26336
-560,-440,-4.45129,1.47229,0,0,0,0,0,0,0,-1,664,1464,-4.45129,-1.47233
-553,-440,-2.83752,-1.30981,0,0,0,0,0,0,0,-1,671,1464,-2.83752,1.30983
-546,-440,-2.52954,0.65979,0,0,0,0,0,0,0,-1,678,1464,-2.52957,-0.659802
-539,-440,-2.86603,1.823,0.0430357,-0.00108434,0.0251576,0.0544354,-0.012484,0.425453,0.0410887,0.0427743,685,1464,-2.86603,-1.82296
-532,-440,-2.03302,2.7771,0.0341662,-0.000469372,0.0199983,0.0433028,-0.00960599,0.428553,0.0325466,0.0363839,692,1464,-2.033,-2.77714
-525,-440,-1.98297,2.98315,0.0264049,-8.93369e-05,0.0153451,0.0334299,-0.00711433,0.429322,0.0249978,0.0162163,699,1464,-1.98294,-2.98321
-518,-440,-1.97968,3.12402,0.0198516,0.000108713,0.0113622,0.0250316,-0.00507126,0.427745,0.0186099,0.012849,706,1464,-1.9797,-3.12404
-511,-440,-1.96405,3.30188,0.0141374,0.000266887,0.00805739,0.0178332,-0.00342892,0.430053,0.0131813,0.0148996,713,1464,-1.96405,-3.30189
-504,-440,-1.96448,3.50391,0.009532,0.000338718,0.00537177,0.0120054,-0.00213465,0.4315,0.00880184,0.017304,720,1464,-1.96446,-3.50393
-497,-440,-1.96747,3.71631,0.00638895,0.000172733,0.00322331,0.00775857,-0.00119689,0.401795,0.00561403,0.020746,727,1464,-1.96746,-3.71631
-490,-440,-1.96564,3.82532,0.00342661,-0.000681362,0.00106087,0.0036844,-0.00093915,0.238377,0.0028219,0.0213962,734,1464,-1.96562,-3.82526
-483,-440,-1.97644,3.98657,0.000904955,-0.000848267,-0.000759182,0.001188,-0.00113131,-0.356867,0.00133919,0.0184235,741,1464,-1.97642,-3.98662
-476,-440,-1.99078,4.15356,-0.000765048,-0.000294254,-0.00233615,0.00181833,-0.00287763,-0.83561,0.00273411,0.0127307,748,1464,-1.99076,-4.15355
-469,-440,-1.98291,4.35315,-0.00193548,-0.00040265,-0.00394938,0.00285399,-0.00519213,-0.881237,0.00471036,0.012532,755,1464,-1.9829,-4.35313
-462,-440,-1.96814,4.55322,-0.00274663,-0.000210767,-0.00576484,0.00442393,-0.00738133,-0.893646,0.00688669,0.0130988,762,1464,-1.96814,-4.55327
-455,-440,-1.91522,4.75146,-0.00358748,0.00024424,-0.00803654,0.00659013,-0.00993337,-0.902411,0.00960472,0.0147348,769,1464,-1.91523,-4.75149
-448,-440,-1.80591,4.89429,-0.00440452,0.000790529,-0.010701,0.00920473,-0.0128187,-0.904464,0.0127722,0.0240357,776,1464,-1.80588,-4.89432
-441,-440,-1.88757,4.82581,-0.00512305,0.00196352,-0.0141159,0.0129741,-0.0161336,-0.908364,0.0168383,0.0342876,783,1464,-1.88759,-4.82583
-434,-440,-1.42438,5.04578,0,0,0,0,0,0,0,-1,790,1464,-1.42437,-5.04572
-427,-440,-1.71564,5.1051,0,0,0,0,0,0,0,-1,797,1464,-1.71564,-5.10516
-420,-440,-1.9046,4.92322,0,0,0,0,0,0,0,-1,804,1464,-1.90463,-4.92325
-413,-440,-3.93939,5.00146,0,0,0,0,0,0,0,-1,811,1464,-3.93938,-5.0015
-406,-440,-5.2887,5.20264,0,0,0,0,0,0,0,-1,818,1464,-5.2887,-5.20261
-399,-440,-0.269287,0.251465,0,0,0,0,0,0,0,-1,825,1464,-0.26931,-0.251435
-392,-440,0.510254,0.437744,0,0,0,0,0,0,0,-1,832,1464,0.510244,-0.43771
-385,-440,6.70496,1.25854,0,0,0,0,0,0,0,-1,839,1464,6.70498,-1.25858
-378,-440,7.93719,1.35864,0,0,0,0,0,0,0,-1,846,1464,7.93722,-1.35859
-371,-440,0,0,0,0,0,0,0,0,0,-1,853,1464,0,0
-364,-440,0,0,0,0,0,0,0,0,0,-1,860,1464,0,0
-357,-440,0,0,0,0,0,0,0,0,0,-1,867,1464,0,0
-350,-440,0,0,0,0,0,0,0,0,0,-1,874,1464,0,0
-343,-440,0,0,0,0,0,0,0,0,0,-1,881,1464,0,0
-336,-440,0,0,0,0,0,0,0,0,0,-1,888,1464,0,0
-329,-440,0,0,0,0,0,0,0,0,0,-1,895,1464,0,0
-322,-440,0,0,0,0,0,0,0,0,0,-1,902,1464,0,0
-315,-440,0,0,0,0,0,0,0,0,0,-1,909,1464,0,0
-308,-440,0,0,0,0,0,0,0,0,0,-1,916,1464,0,0
-301,-440,0,0,0,0,0,0,0,0,0,-1,923,1464,0,0
-294,-440,0,0,0,0,0,0,0,0,0,-1,930,1464,0,0
-287,-440,0,0,0,0,0,0,0,0,0,-1,937,1464,0,0
-280,-440,0,0,0,0,0,0,0,0,0,-1,944,1464,0,0
-273,-440,0,0,0,0,0,0,0,0,0,-1,951,1464,0,0
-266,-440,0,0,0,0,0,0,0,0,0,-1,958,1464,0,0
-259,-440,0,0,0,0,0,0,0,0,0,-1,965,1464,0,0
-252,-440,0,0,0,0,0,0,0,0,0,-1,972,1464,0,0
-245,-440,0,0,0,0,0,0,0,0,0,-1,979,1464,0,0
-238,-440,0,0,0,0,0,0,0,0,0,-1,986,1464,0,0
-231,-440,0,0,0,0,0,0,0,0,0,-1,993,1464,0,0
-224,-440,0,0,0,0,0,0,0,0,0,-1,1000,1464,0,0
-217,-440,0,0,0,0,0,0,0,0,0,-1,1007,1464,0,0
-210,-440,0,0,0,0,0,0,0,0,0,-1,1014,1464,0,0
-203,-440,0,0,0,0,0,0,0,0,0,-1,1021,1464,0,0
-196,-440,0,0,0,0,0,0,0,0,0,-1,1028,1464,0,0
-189,-440,0,0,0,0,0,0,0,0,0,-1,1035,1464,0,0
-182,-440,0,0,0,0,0,0,0,0,0,-1,1042,1464,0,0
-175,-440,0,0,0,0,0,0,0,0,0,-1,1049,1464,0,0
-168,-440,0,0,0,0,0,0,0,0,0,-1,1056,1464,0,0
-161,-440,0,0,0,0,0,0,0,0,0,-1,1063,1464,0,0
-154,-440,0,0,0,0,0,0,0,0,0,-1,1070,1464,0,0
-147,-440,0,0,0,0,0,0,0,0,0,-1,1077,1464,0,0
-140,-440,0,0,0,0,0,0,0,0,0,-1,1084,1464,0,0
-133,-440,0,0,0,0,0,0,0,0,0,-1,1091,1464,0,0
-126,-440,0,0,0,0,0,0,0,0,0,-1,1098,1464,0,0
-119,-440,0,0,0,0,0,0,0,0,0,-1,1105,1464,0,0
-112,-440,0,0,0,0,0,0,0,0,0,-1,1112,1464,0,0
-105,-440,0,0,0,0,0,0,0,0,0,-1,1119,1464,0,0
-98,-440,0,0,0,0,0,0,0,0,0,-1,1126,1464,0,0
-91,-440,0,0,0,0,0,0,0,0,0,-1,1133,1464,0,0
-84,-440,0,0,0,0,0,0,0,0,0,-1,1140,1464,0,0
-77,-440,0,0,0,0,0,0,0,0,0,-1,1147,1464,0,0
-70,-440,0,0,0,0,0,0,0,0,0,-1,1154,1464,0,0
-63,-440,0,0,0,0,0,0,0,0,0,-1,1161,1464,0,0
-56,-440,0,0,0,0,0,0,0,0,0,-1,1168,1464,0,0
-49,-440,0,0,0,0,0,0,0,0,0,-1,1175,1464,0,0
-42,-440,0,0,0,0,0,0,0,0,0,-1,1182,1464,0,0
-35,-440,0,0,0,0,0,0,0,0,0,-1,1189,1464,0,0
-28,-440,0,0,0,0,0,0,0,0,0,-1,1196,1464,0,0
-21,-440,0,0,0,0,0,0,0,0,0,-1,1203,1464,0,0
-14,-440,0,0,0,0,0,0,0,0,0,-1,1210,1464,0,0
-7,-440,0,0,0,0,0,0,0,0,0,-1,1217,1464,0,0
0,-440,0,0,0,0,0,0,0,0,0,-1,1224,1464,0,0
7,-440,0,0,0,0,0,0,0,0,0,-1,1231,1464,0,0
14,-440,0,0,0,0,0,0,0,0,0,-1,1238,1464,0,0
21,-440,0,0,0,0,0,0,0,0,0,-1,1245,1464,0,0
28,-440,0,0,0,0,0,0,0,0,0,-1,1252,1464,0,0
35,-440,0,0,0,0,0,0,0,0,0,-1,1259,1464,0,0
42,-440,0,0,0,0,0,0,0,0,0,-1,1266,1464,0,0
49,-440,0,0,0,0,0,0,0,0,0,-1,1273,1464,0,0
56,-440,0,0,0,0,0,0,0,0,0,-1,1280,1464,0,0
63,-440,0,0,0,0,0,0,0,0,0,-1,1287,1464,0,0
70,-440,0,0,0,0,0,0,0,0,0,-1,1294,1464,0,0
77,-440,0,0,0,0,0,0,0,0,0,-1,1301,1464,0,0
84,-440,0,0,0,0,0,0,0,0,0,-1,1308,1464,0,0
91,-440,0,0,0,0,0,0,0,0,0,-1,1315,1464,0,0
98,-440,0,0,0,0,0,0,0,0,0,-1,1322,1464,0,0
105,-440,0,0,0,0,0,0,0,0,0,-1,1329,1464,0,0
112,-440,0,0,0,0,0,0,0,0,0,-1,1336,1464,0,0
119,-440,0,0,0,0,0,0,0,0,0,-1,1343,1464,0,0
126,-440,0,0,0,0,0,0,0,0,0,-1,1350,1464,0,0
133,-440,0,0,0,0,0,0,0,0,0,-1,1357,1464,0,0
140,-440,0,0,0,0,0,0,0,0,0,-1,1364,1464,0,0
147,-440,0,0,0,0,0,0,0,0,0,-1,1371,1464,0,0
154,-440,0,0,0,0,0,0,0,0,0,-1,1378,1464,0,0
161,-440,0,0,0,0,0,0,0,0,0,-1,1385,1464,0,0
168,-440,0,0,0,0,0,0,0,0,0,-1,1392,1464,0,0
175,-440,0,0,0,0,0,0,0,0,0,-1,1399,1464,0,0
182,-440,0,0,0,0,0,0,0,0,0,-1,1406,1464,0,0
189,-440,0,0,0,0,0,0,0,0,0,-1,1413,1464,0,0
196,-440,0,0,0,0,0,0,0,0,0,-1,1420,1464,0,0
203,-440,0,0,0,0,0,0,0,0,0,-1,1427,1464,0,0
210,-440,0,0,0,0,0,0,0,0,0,-1,1434,1464,0,0
217,-440,0,0,0,0,0,0,0,0,0,-1,1441,1464,0,0
224,-440,0,0,0,0,0,0,0,0,0,-1,1448,1464,0,0
231,-440,0,0,0,0,0,0,0,0,0,-1,1455,1464,0,0
238,-440,0,0,0,0,0,0,0,0,0,-1,1462,1464,0,0
245,-440,0,0,0,0,0,0,0,0,0,-1,1469,1464,0,0
252,-440,0,0,0,0,0,0,0,0,0,-1,1476,1464,0,0
259,-440,0,0,0,0,0,0,0,0,0,-1,1483,1464,0,0
266,-440,0,0,0,0,0,0,0,0,0,-1,1490,1464,0,0
273,-440,0,0,0,0,0,0,0,0,0,-1,1497,1464,0,0
280,-440,0,0,0,0,0,0,0,0,0,-1,1504,1464,0,0
287,-440,0,0,0,0,0,0,0,0,0,-1,1511,1464,0,0
294,-440,0,0,0,0,0,0,0,0,0,-1,1518,1464,0,0
301,-440,0,0,0,0,0,0,0,0,0,-1,1525,1464,0,0
308,-440,0,0,0,0,0,0,0,0,0,-1,1532,1464,0,0
315,-440,0,0,0,0,0,0,0,0,0,-1,1539,1464,0,0
322,-440,0,0,0,0,0,0,0,0,0,-1,1546,1464,0,0
329,-440,0,0,0,0,0,0,0,0,0,-1,1553,1464,0,0
336,-440,0,0,0,0,0,0,0,0,0,-1,1560,1464,0,0
343,-440,0,0,0,0,0,0,0,0,0,-1,1567,1464,0,0
350,-440,0,0,0,0,0,0,0,0,0,-1,1574,1464,0,0
357,-440,0,0,0,0,0,0,0,0,0,-1,1581,1464,0,0
364,-440,0,0,0,0,0,0,0,0,0,-1,1588,1464,0,0
371,-440,0,0,0,0,0,0,0,0,0,-1,1595,1464,0,0
378,-440,0,0,0,0,0,0,0,0,0,-1,1602,1464,0,0
385,-440,0,0,0,0,0,0,0,0,0,-1,1609,1464,0,0
392,-440,0,0,0,0,0,0,0,0,0,-1,1616,1464,0,0
399,-440,0,0,0,0,0,0,0,0,0,-1,1623,1464,0,0
406,-440,0,0,0,0,0,0,0,0,0,-1,1630,1464,0,0
413,-440,0,0,0,0,0,0,0,0,0,-1,1637,1464,0,0
420,-440,0,0,0,0,0,0,0,0,0,-1,1644,1464,0,0
427,-440,0,0,0,0,0,0,0,0,0,-1,1651,1464,0,0
434,-440,0,0,0,0,0,0,0,0,0,-1,1658,1464,0,0
441,-440,0,0,0,0,0,0,0,0,0,-1,1665,1464,0,0
448,-440,0,0,0,0,0,0,0,0,0,-1,1672,1464,0,0
455,-440,0,0,0,0,0,0,0,0,0,-1,1679,1464,0,0
462,-440,0,0,0,0,0,0,0,0,0,-1,1686,1464,0,0
469,-440,0,0,0,0,0,0,0,0,0,-1,1693,1464,0,0
476,-440,0,0,0,0,0,0,0,0,0,-1,1700,1464,0,0
483,-440,0,0,0,0,0,0,0,0,0,-1,1707,1464,0,0
490,-440,0,0,0,0,0,0,0,0,0,-1,1714,1464,0,0
497,-440,13.2272,1.90625,0,0,0,0,0,0,0,-1,1721,1464,13.2272,-1.90629
504,-440,12.5355,2.36218,0,0,0,0,0,0,0,-1,1728,1464,12.5356,-2.36223
511,-440,11.6957,2.9231,0,0,0,0,0,0,0,-1,1735,1464,11.6957,-2.92306
518,-440,10.1204,0.547607,0,0,0,0,0,0,0,-1,1742,1464,10.1204,-0.547577
525,-440,10.0325,0.758545,0,0,0,0,0,0,0,-1,1749,1464,10.0324,-0.758504
532,-440,11.1841,5.70776,0,0,0,0,0,0,0,-1,1756,1464,11.184,-5.70774
539,-440,9.24414,5.26172,0,0,0,0,0,0,0,-1,1763,1464,9.24413,-5.26169
546,-440,9.10217,5.82947,0,0,0,0,0,0,0,-1,1770,1464,9.10212,-5.82943
553,-440,9.21509,6.07434,0.00522427,-0.00926526,0.0435356,0.0421138,-0.0461548,0.702949,0.0509797,0.0444197,1777,1464,9.21503,-6.07432
560,-440,9.28784,6.29309,0.00222187,-0.00971706,0.0397475,0.0364456,-0.0439408,0.710863,0.0464783,0.0443529,1784,1464,9.28788,-6.29304
567,-440,9.41931,5.57935,0,0,0,0,0,0,0,-1,1791,1464,9.41937,-5.57938
574,-440,9.28076,5.7373,-0.0040393,-0.0112355,0.0312352,0.0238043,-0.0390791,0.728054,0.0366611,0.0498124,1798,1464,9.28078,-5.73731
581,-440,9.14368,6.20569,-0.00727595,-0.0116626,0.0267775,0.0173979,-0.0363365,0.744535,0.0316594,0.0348503,1805,1464,9.14367,-6.20567
588,-440,9.01086,6.21558,-0.0103689,-0.0119296,0.0224681,0.0113324,-0.0336309,0.76804,0.0270028,0.0230507,1812,1464,9.0109,-6.21557
595,-440,9.01074,6.06677,-0.0113453,-0.0112745,0.0181859,0.00687598,-0.0294958,0.786371,0.0223119,0.0201996,1819,1464,9.01069,-6.06677
602,-440,9.02759,5.89124,-0.0108527,-0.00998804,0.0140428,0.0036291,-0.0244698,0.800786,0.0176477,0.0207475,1826,1464,9.02761,-5.89127
609,-440,9.0387,5.73926,-0.00919639,-0.00808776,0.0103232,0.001696,-0.0189801,0.812221,0.013255,0.0166241,1833,1464,9.03867,-5.73923
616,-440,9.03503,5.59106,-0.00708721,-0.00593215,0.00717707,0.00069059,-0.0137099,0.825546,0.00937864,0.016093,1840,1464,9.03504,-5.59108
623,-440,9.03894,5.42188,-0.00532087,-0.00337957,0.00462689,0.000377384,-0.00907782,0.888792,0.00618152,0.0122737,1847,1464,9.03895,-5.42188
630,-440,9.02722,5.25073,-0.00408373,-0.00113834,0.00253353,0.00031943,-0.0055415,1.04867,0.00380528,0.0102848,1854,1464,9.02726,-5.25079
637,-440,9.02295,5.11096,-0.0032768,0.000621772,0.00111415,0.000917713,-0.00357274,1.31117,0.00273946,0.0140535,1861,1464,9.02292,-5.11094
644,-440,9.04419,4.9762,-0.00346247,0.00178215,0.000475178,0.00182485,-0.00350517,1.48117,0.00312785,0.0130315,1868,1464,9.04414,-4.97621
651,-440,9.06323,4.82446,-0.00455672,0.0025752,0.000361779,0.0025935,-0.00457503,1.52024,0.00419112,0.0112262,1875,1464,9.06319,-4.82445
658,-440,9.04468,4.65942,-0.00670501,0.00320561,0.000716031,0.00325708,-0.00675647,1.49904,0.00589783,0.014961,1882,1464,9.04464,-4.65943
665,-440,9.08081,4.47424,-0.00987776,0.00384971,0.00137966,0.00398699,-0.0100151,1.47161,0.00833006,0.0289764,1889,1464,9.08082,-4.47424
672,-440,9.42859,4.58948,-0.0140686,0.00454964,0.00235882,0.00484384,-0.0143628,1.44671,0.011534,0.0427462,1896,1464,9.42857,-4.58947
679,-440,8.75256,4.12366,-0.019782,0.00520541,0.00383473,0.00578067,-0.0203572,1.42189,0.0158536,0.0465522,1903,1464,8.75257,-4.12367
686,-440,8.6084,4.1073,0,0,0,0,0,0,0,-1,1910,1464,8.60844,-4.10729
693,-440,9.88635,2.89795,0,0,0,0,0,0,0,-1,1917,1464,9.88638,-2.89798
700,-440,7.07825,-2.62061,0,0,0,0,0,0,0,-1,1924,1464,7.07829,2.62057
707,-440,0,0,0,0,0,0,0,0,0,-1,1931,1464,0,0
714,-440,0,0,0,0,0,0,0,0,0,-1,1938,1464,0,0
721,-440,0,0,0,0,0,0,0,0,0,-1,1945,1464,0,0
728,-440,0,0,0,0,0,0,0,0,0,-1,1952,1464,0,0
735,-440,0,0,0,0,0,0,0,0,0,-1,1959,1464,0,0
742,-440,0,0,0,0,0,0,0,0,0,-1,1966,1464,0,0
749,-440,0,0,0,0,0,0,0,0,0,-1,1973,1464,0,0
756,-440,0,0,0,0,0,0,0,0,0,-1,1980,1464,0,0
763,-440,0,0,0,0,0,0,0,0,0,-1,1987,1464,0,0
770,-440,0,0,0,0,0,0,0,0,0,-1,1994,1464,0,0
777,-440,0,0,0,0,0,0,0,0,0,-1,2001,1464,0,0
784,-440,0,0,0,0,0,0,0,0,0,-1,2008,1464,0,0
791,-440,0,0,0,0,0,0,0,0,0,-1,2015,1464,0,0
798,-440,0,0,0,0,0,0,0,0,0,-1,2022,1464,0,0
805,-440,0,0,0,0,0,0,0,0,0,-1,2029,1464,0,0
812,-440,0,0,0,0,0,0,0,0,0,-1,2036,1464,0,0
-700,-447,0,0,0,0,0,0,0,0,0,-1,524,1471,0,0
-693,-447,0,0,0,0,0,0,0,0,0,-1,531,1471,0,0
-686,-447,0,0,0,0,0,0,0,0,0,-1,538,1471,0,0
-679,-447,0,0,0,0,0,0,0,0,0,-1,545,1471,0,0
-672,-447,0,0,0,0,0,0,0,0,0,-1,552,1471,0,0
-665,-447,0,0,0,0,0,0,0,0,0,-1,559,1471,0,0
-658,-447,0,0,0,0,0,0,0,0,0,-1,566,1471,0,0
-651,-447,0,0,0,0,0,0,0,0,0,-1,573,1471,0,0
-644,-447,0,0,0,0,0,0,0,0,0,-1,580,1471,0,0
-637,-447,0,0,0,0,0,0,0,0,0,-1,587,1471,0,0
-630,-447,0,0,0,0,0,0,0,0,0,-1,594,1471,0,0
-623,-447,0,0,0,0,0,0,0,0,0,-1,601,1471,0,0
-616,-447,0,0,0,0,0,0,0,0,0,-1,608,1471,0,0
-609,-447,0,0,0,0,0,0,0,0,0,-1,615,1471,0,0
-602,-447,0,0,0,0,0,0,0,0,0,-1,622,1471,0,0
-595,-447,0,0,0,0,0,0,0,0,0,-1,629,1471,0,0
-588,-447,0,0,0,0,0,0,0,0,0,-1,636,1471,0,0
-581,-447,-3.72821,0.0332031,0,0,0,0,0,0,0,-1,643,1471,-3.72821,-0.0331669
-574,-447,-6.3858,1.14648,0,0,0,0,0,0,0,-1,650,1471,-6.38581,-1.14651
-567,-447,-5.55408,1.38354,0.104869,-0.0129699,0.0500265,0.123242,-0.031343,0.351975,0.0943607,0.04387,657,1471,-5.55406,-1.38352
-560,-447,-4.74176,1.61194,0.092289,-0.00972754,0.0474486,0.110946,-0.0283843,0.37463,0.0850195,0.0440345,664,1471,-4.74178,-1.61196
-553,-447,-3.99969,1.72168,0,0,0,0,0,0,0,-1,671,1471,-3.99971,-1.7217
-546,-447,-3.52374,1.65234,0.066323,-0.00514172,0.0367297,0.0818339,-0.0206526,0.399581,0.0625865,0.0430918,678,1471,-3.52377,-1.6524
-539,-447,-2.91333,1.76135,0.0539867,-0.00360337,0.0304308,0.0670867,-0.0167033,0.406505,0.0512085,0.0443117,685,1471,-2.91332,-1.76138
-532,-447,-2.06097,2.35767,0,0,0,0,0,0,0,-1,692,1471,-2.06099,-2.35768
-525,-447,-1.76202,3.01965,0.0329464,-0.00159328,0.0187608,0.0411759,-0.0098228,0.413378,0.0312439,0.0268553,699,1471,-1.76202,-3.01971
-518,-447,-1.79468,3.12634,0.0246502,-0.00101367,0.0139905,0.0308023,-0.00716572,0.414282,0.0232938,0.0175012,706,1471,-1.79468,-3.12637
-511,-447,-1.77905,3.30591,0.017481,-0.000533269,0.0100315,0.0219557,-0.00500794,0.419575,0.0165608,0.0142642,713,1471,-1.77905,-3.30597
-504,-447,-1.79419,3.52966,0.0118639,-0.00025295,0.00685874,0.0149568,-0.00334586,0.423639,0.0112535,0.0180021,720,1471,-1.79421,-3.52968
-497,-447,-1.79346,3.72156,0.00809787,-0.0002536,0.00438611,0.0099781,-0.00213383,0.404982,0.00746569,0.0228694,727,1471,-1.79347,-3.72157
-490,-447,-1.776,3.81641,0.00468375,-0.00088136,0.00195269,0.00530056,-0.00149816,0.305954,0.0041248,0.0229671,734,1471,-1.77598,-3.81646
-483,-447,-1.7948,3.95557,0.00190019,-0.000877057,-8.56099e-06,0.00190022,-0.000877083,-0.00308251,0.00163934,0.0201412,741,1471,-1.79481,-3.95556
-476,-447,-1.81604,4.11304,0.000141371,-0.000415174,-0.00156331,0.00145098,-0.00172479,-0.69732,0.0018358,0.0139171,748,1471,-1.81604,-4.11305
-469,-447,-1.80963,4.33899,-0.00100821,-0.000606608,-0.00293555,0.002135,-0.00374982,-0.819546,0.00343997,0.0125343,755,1471,-1.8096,-4.33896
-462,-447,-1.79352,4.56238,-0.00160548,-0.000549301,-0.00446484,0.00341857,-0.00557335,-0.844263,0.00524094,0.0129294,762,1471,-1.79353,-4.56236
-455,-447,-1.80829,4.74866,-0.00222188,-0.00036568,-0.00630008,0.00507429,-0.00766186,-0.85853,0.00740363,0.012927,769,1471,-1.80829,-4.74865
-448,-447,-1.75128,4.91345,-0.00283273,-0.000347721,-0.00830519,0.0068074,-0.00998785,-0.85965,0.00975452,0.0169316,776,1471,-1.75127,-4.91344
-441,-447,-1.71265,4.99536,-0.00336728,-1.19362e-05,-0.0108523,0.00929163,-0.0126708,-0.862087,0.01273,0.0255163,783,1471,-1.71262,-4.99533
-434,-447,-1.59003,5.10083,-0.00367625,0.000281962,-0.0137049,0.0121499,-0.0155442,-0.857107,0.0160292,0.0363909,790,1471,-1.59005,-5.10084
-427,-447,-1.69556,4.86279,-0.00384018,0.000667169,-0.0170069,0.0155691,-0.0187421,-0.851272,0.0198378,0.041659,797,1471,-1.69554,-4.8628
-420,-447,-1.88129,4.77734,0,0,0,0,0,0,0,-1,804,1471,-1.88131,-4.77734
-413,-447,-3.3053,5.32922,0,0,0,0,0,0,0,-1,811,1471,-3.30532,-5.32919
-406,-447,-4.48694,5.62988,0,0,0,0,0,0,0,-1,818,1471,-4.48696,-5.62994
-399,-447,0.0134888,0.687622,0,0,0,0,0,0,0,-1,825,1471,0.0134841,-0.68767
-392,-447,0.271057,0.278809,0,0,0,0,0,0,0,-1,832,1471,0.27108,-0.278763
-385,-447,0.327515,-0.0834961,0,0,0,0,0,0,0,-1,839,1471,0.327498,0.0834516
-378,-447,6.5293,1.50708,0,0,0,0,0,0,0,-1,846,1471,6.52927,-1.50709
-371,-447,7.32819,1.62622,0,0,0,0,0,0,0,-1,853,1471,7.3282,-1.62617
-364,-447,0,0,0,0,0,0,0,0,0,-1,860,1471,0,0
-357,-447,0,0,0,0,0,0,0,0,0,-1,867,1471,0,0
-350,-447,0,0,0,0,0,0,0,0,0,-1,874,1471,0,0
-343,-447,0,0,0,0,0,0,0,0,0,-1,881,1471,0,0
-336,-447,0,0,0,0,0,0,0,0,0,-1,888,1471,0,0
-329,-447,0,0,0,0,0,0,0,0,0,-1,895,1471,0,0
-322,-447,0,0,0,0,0,0,0,0,0,-1,902,1471,0,0
-315,-447,0,0,0,0,0,0,0,0,0,-1,909,1471,0,0
-308,-447,0,0,0,0,0,0,0,0,0,-1,916,1471,0,0
-301,-447,0,0,0,0,0,0,0,0,0,-1,923,1471,0,0
-294,-447,0,0,0,0,0,0,0,0,0,-1,930,1471,0,0
-287,-447,0,0,0,0,0,0,0,0,0,-1,937,1471,0,0
-280,-447,0,0,0,0,0,0,0,0,0,-1,944,1471,0,0
-273,-447,0,0,0,0,0,0,0,0,0,-1,951,1471,0,0
-266,-447,0,0,0,0,0,0,0,0,0,-1,958,1471,0,0
-259,-447,0,0,0,0,0,0,0,0,0,-1,965,1471,0,0
-252,-447,0,0,0,0,0,0,0,0,0,-1,972,1471,0,0
-245,-447,0,0,0,0,0,0,0,0,0,-1,979,1471,0,0
-238,-447,0,0,0,0,0,0,0,0,0,-1,986,1471,0,0
-231,-447,0,0,0,0,0,0,0,0,0,-1,993,1471,0,0
-224,-447,0,0,0,0,0,0,0,0,0,-1,1000,1471,0,0
-217,-447,0,0,0,0,0,0,0,0,0,-1,1007,1471,0,0
-210,-447,0,0,0,0,0,0,0,0,0,-1,1014,1471,0,0
-203,-447,0,0,0,0,0,0,0,0,0,-1,1021,1471,0,0
-196,-447,0,0,0,0,0,0,0,0,0,-1,1028,1471,0,0
-189,-447,0,0,0,0,0,0,0,0,0,-1,1035,1471,0,0
-182,-447,0,0,0,0,0,0,0,0,0,-1,1042,1471,0,0
-175,-447,0,0,0,0,0,0,0,0,0,-1,1049,1471,0,0
-168,-447,0,0,0,0,0,0,0,0,0,-1,1056,1471,0,0
-161,-447,0,0,0,0,0,0,0,0,0,-1,1063,1471,0,0
-154,-447,0,0,0,0,0,0,0,0,0,-1,1070,1471,0,0
-147,-447,0,0,0,0,0,0,0,0,0,-1,1077,1471,0,0
-140,-447,0,0,0,0,0,0,0,0,0,-1,1084,1471,0,0
-133,-447,0,0,0,0,0,0,0,0,0,-1,1091,1471,0,0
-126,-447,0,0,0,0,0,0,0,0,0,-1,1098,1471,0,0
-119,-447,0,0,0,0,0,0,0,0,0,-1,1105,1471,0,0
-112,-447,0,0,0,0,0,0,0,0,0,-1,1112,1471,0,0
-105,-447,0,0,0,0,0,0,0,0,0,-1,1119,1471,0,0
-98,-447,0,0,0,0,0,0,0,0,0,-1,1126,1471,0,0
-91,-447,0,0,0,0,0,0,0,0,0,-1,1133,1471,0,0
-84,-447,0,0,0,0,0,0,0,0,0,-1,1140,1471,0,0
-77,-447,0,0,0,0,0,0,0,0,0,-1,1147,1471,0,0
-70,-447,0,0,0,0,0,0,0,0,0,-1,1154,1471,0,0
-63,-447,0,0,0,0,0,0,0,0,0,-1,1161,1471,0,0
-56,-447,0,0,0,0,0,0,0,0,0,-1,1168,1471,0,0
-49,-447,0,0,0,0,0,0,0,0,0,-1,1175,1471,0,0
-42,-447,0,0,0,0,0,0,0,0,0,-1,1182,1471,0,0
-35,-447,0,0,0,0,0,0,0,0,0,-1,1189,1471,0,0
-28,-447,0,0,0,0,0,0,0,0,0,-1,1196,1471,0,0
-21,-447,0,0,0,0,0,0,0,0,0,-1,1203,1471,0,0
-14,-447,0,0,0,0,0,0,0,0,0,-1,1210,1471,0,0
-7,-447,0,0,0,0,0,0,0,0,0,-1,1217,1471,0,0
0,-447,0,0,0,0,0,0,0,0,0,-1,1224,1471,0,0
7,-447,0,0,0,0,0,0,0,0,0,-1,1231,1471,0,0
14,-447,0,0,0,0,0,0,0,0,0,-1,1238,1471,0,0
21,-447,0,0,0,0,0,0,0,0,0,-1,1245,1471,0,0
28,-447,0,0,0,0,0,0,0,0,0,-1,1252,1471,0,0
35,-447,0,0,0,0,0,0,0,0,0,-1,1259,1471,0,0
42,-447,0,0,0,0,0,0,0,0,0,-1,1266,1471,0,0
49,-447,0,0,0,0,0,0,0,0,0,-1,1273,1471,0,0
56,-447,0,0,0,0,0,0,0,0,0,-1,1280,1471,0,0
63,-447,0,0,0,0,0,0,0,0,0,-1,1287,1471,0,0
70,-447,0,0,0,0,0,0,0,0,0,-1,1294,1471,0,0
77,-447,0,0,0,0,0,0,0,0,0,-1,1301,1471,0,0
84,-447,0,0,0,0,0,0,0,0,0,-1,1308,1471,0,0
91,-447,0,0,0,0,0,0,0,0,0,-1,1315,1471,0,0
98,-447,0,0,0,0,0,0,0,0,0,-1,1322,1471,0,0
105,-447,0,0,0,0,0,0,0,0,0,-1,1329,1471,0,0
112,-447,0,0,0,0,0,0,0,0,0,-1,1336,1471,0,0
119,-447,0,0,0,0,0,0,0,0,0,-1,1343,1471,0,0
126,-447,0,0,0,0,0,0,0,0,0,-1,1350,1471,0,0
133,-447,0,0,0,0,0,0,0,0,0,-1,1357,1471,0,0
140,-447,0,0,0,0,0,0,0,0,0,-1,1364,1471,0,0
147,-447,0,0,0,0,0,0,0,0,0,-1,1371,1471,0,0
154,-447,0,0,0,0,0,0,0,0,0,-1,1378,1471,0,0
161,-447,0,0,0,0,0,0,0,0,0,-1,1385,1471,0,0
168,-447,0,0,0,0,0,0,0,0,0,-1,1392,1471,0,0
175,-447,0,0,0,0,0,0,0,0,0,-1,1399,1471,0,0
182,-447,0,0,0,0,0,0,0,0,0,-1,1406,1471,0,0
189,-447,0,0,0,0,0,0,0,0,0,-1,1413,1471,0,0
196,-447,0,0,0,0,0,0,0,0,0,-1,1420,1471,0,0
203,-447,0,0,0,0,0,0,0,0,0,-1,1427,1471,0,0
210,-447,0,0,0,0,0,0,0,0,0,-1,1434,1471,0,0
217,-447,0,0,0,0,0,0,0,0,0,-1,1441,1471,0,0
224,-447,0,0,0,0,0,0,0,0,0,-1,1448,1471,0,0
231,-447,0,0,0,0,0,0,0,0,0,-1,1455,1471,0,0
238,-447,0,0,0,0,0,0,0,0,0,-1,1462,1471,0,0
245,-447,0,0,0,0,0,0,0,0,0,-1,1469,1471,0,0
252,-447,0,0,0,0,0,0,0,0,0,-1,1476,1471,0,0
259,-447,0,0,0,0,0,0,0,0,0,-1,1483,1471,0,0
266,-447,0,0,0,0,0,0,0,0,0,-1,1490,1471,0,0
273,-447,0,0,0,0,0,0,0,0,0,-1,1497,1471,0,0
280,-447,0,0,0,0,0,0,0,0,0,-1,1504,1471,0,0
287,-447,0,0,0,0,0,0,0,0,0,-1,1511,1471,0,0
294,-447,0,0,0,0,0,0,0,0,0,-1,1518,1471,0,0
301,-447,0,0,0,0,0,0,0,0,0,-1,1525,1471,0,0
308,-447,0,0,0,0,0,0,0,0,0,-1,1532,1471,0,0
315,-447,0,0,0,0,0,0,0,0,0,-1,1539,1471,0,0
322,-447,0,0,0,0,0,0,0,0,0,-1,1546,1471,0,0
329,-447,0,0,0,0,0,0,0,0,0,-1,1553,1471,0,0
336,-447,0,0,0,0,0,0,0,0,0,-1,1560,1471,0,0
343,-447,0,0,0,0,0,0,0,0,0,-1,1567,1471,0,0
350,-447,0,0,0,0,0,0,0,0,0,-1,1574,1471,0,0
357,-447,0,0,0,0,0,0,0,0,0,-1,1581,1471,0,0
364,-447,0,0,0,0,0,0,0,0,0,-1,1588,1471,0,0
371,-447,0,0,0,0,0,0,0,0,0,-1,1595,1471,0,0
378,-447,0,0,0,0,0,0,0,0,0,-1,1602,1471,0,0
385,-447,0,0,0,0,0,0,0,0,0,-1,1609,1471,0,0
392,-447,0,0,0,0,0,0,0,0,0,-1,1616,1471,0,0
399,-447,0,0,0,0,0,0,0,0,0,-1,1623,1471,0,0
406,-447,0,0,0,0,0,0,0,0,0,-1,1630,1471,0,0
413,-447,0,0,0,0,0,0,0,0,0,-1,1637,1471,0,0
420,-447,0,0,0,0,0,0,0,0,0,-1,1644,1471,0,0
427,-447,0,0,0,0,0,0,0,0,0,-1,1651,1471,0,0
434,-447,0,0,0,0,0,0,0,0,0,-1,1658,1471,0,0
441,-447,0,0,0,0,0,0,0,0,0,-1,1665,1471,0,0
448,-447,0,0,0,0,0,0,0,0,0,-1,1672,1471,0,0
455,-447,0,0,0,0,0,0,0,0,0,-1,1679,1471,0,0
462,-447,0,0,0,0,0,0,0,0,0,-1,1686,1471,0,0
469,-447,0,0,0,0,0,0,0,0,0,-1,1693,1471,0,0
476,-447,0,0,0,0,0,0,0,0,0,-1,1700,1471,0,0
483,-447,0,0,0,0,0,0,0,0,0,-1,1707,1471,0,0
490,-447,13.7513,1.54663,0,0,0,0,0,0,0,-1,1714,1471,13.7513,-1.54661
497,-447,13.0237,2.03613,-0.0561931,-0.0602269,0.0511058,-0.00706439,-0.109356,0.765676,0.0706667,0.0494018,1721,1471,13.0237,-2.03609
504,-447,12.2365,2.57971,0,0,0,0,0,0,0,-1,1728,1471,12.2365,-2.57971
511,-447,11.3782,3.17554,0,0,0,0,0,0,0,-1,1735,1471,11.3782,-3.17556
518,-447,10.5674,3.8064,0,0,0,0,0,0,0,-1,1742,1471,10.5674,-3.80645
525,-447,10.0773,0.879639,0,0,0,0,0,0,0,-1,1749,1471,10.0772,-0.879601
532,-447,9.80176,6.0155,0,0,0,0,0,0,0,-1,1756,1471,9.80182,-6.01547
539,-447,8.95435,6.58203,0,0,0,0,0,0,0,-1,1763,1471,8.9544,-6.58205
546,-447,8.87292,6.35156,0,0,0,0,0,0,0,-1,1770,1471,8.87297,-6.3516
553,-447,8.62891,6.25159,-0.00215858,-0.0147149,0.0390559,0.0311206,-0.047994,0.705706,0.0460218,0.0403388,1777,1471,8.62885,-6.25154
560,-447,8.76746,6.31897,-0.00258895,-0.013507,0.034787,0.0271648,-0.0432607,0.707569,0.0410126,0.043061,1784,1471,8.76745,-6.31892
567,-447,9.00623,6.26392,-0.00332895,-0.0126065,0.0303705,0.022755,-0.0386904,0.709614,0.035871,0.0414028,1791,1471,9.00622,-6.26388
574,-447,8.93066,6.37561,-0.0046915,-0.0118142,0.0258025,0.0177942,-0.0343,0.71682,0.0305757,0.0264506,1798,1471,8.93063,-6.37564
581,-447,8.88733,6.3501,-0.00642674,-0.010972,0.0214671,0.0128877,-0.0302864,0.732662,0.0255924,0.0120472,1805,1471,8.88733,-6.35011
588,-447,8.88525,6.20935,-0.00819163,-0.0102712,0.01748,0.00827944,-0.0267423,0.755691,0.0211356,0.0114804,1812,1471,8.88524,-6.2093
595,-447,8.85071,6.04736,-0.00850699,-0.00888847,0.0137738,0.00507735,-0.0224728,0.778475,0.01693,0.0121264,1819,1471,8.85071,-6.04732
602,-447,8.86182,5.87854,-0.00797167,-0.00725508,0.0103248,0.00271764,-0.0179444,0.802742,0.0129641,0.0116728,1826,1471,8.86176,-5.87853
609,-447,8.88977,5.72815,-0.00684237,-0.00538436,0.00722059,0.00114393,-0.0133707,0.835709,0.00931852,0.0124377,1833,1471,8.88982,-5.72815
616,-447,8.89832,5.57202,-0.00555554,-0.00358208,0.00474831,0.000280938,-0.00941856,0.887844,0.00637475,0.0128798,1840,1471,8.89828,-5.57197
623,-447,8.89111,5.42529,-0.00454459,-0.00132815,0.00280259,0.000294865,-0.00616761,1.04588,0.00421347,0.0139426,1847,1471,8.89115,-5.4253
630,-447,8.8739,5.25769,-0.00413323,0.000625683,0.00117877,0.000901655,-0.0044092,1.34082,0.00328157,0.00849129,1854,1471,8.87384,-5.25772
637,-447,8.88574,5.10181,-0.00412804,0.0021634,0.000101525,0.00216504,-0.00412968,1.55466,0.00369279,0.00910012,1861,1471,8.88572,-5.10182
644,-447,8.8949,4.95227,-0.00490176,0.00328389,-0.000443483,0.00330785,-0.00492571,-1.51683,0.00478414,0.0100088,1868,1471,8.89493,-4.95227
651,-447,8.91101,4.78687,-0.00654162,0.00419035,-0.000554023,0.00421888,-0.00657014,-1.51936,0.00627816,0.0161701,1875,1471,8.91103,-4.7869
658,-447,8.87207,4.66211,-0.00920923,0.00503353,-0.000290994,0.00503947,-0.00921517,-1.55038,0.0083468,0.0241427,1882,1471,8.87207,-4.66215
665,-447,8.79358,4.43298,-0.012923,0.00601166,0.000184111,0.00601344,-0.0129248,1.56107,0.011174,0.0399091,1889,1471,8.79352,-4.43303
672,-447,8.7356,4.14148,-0.017809,0.00718775,0.000911558,0.00722095,-0.0178422,1.53439,0.014897,0.0482571,1896,1471,8.73558,-4.1415
679,-447,8.64746,4.02222,0,0,0,0,0,0,0,-1,1903,1471,8.64745,-4.02227
686,-447,9.70203,2.79272,0,0,0,0,0,0,0,-1,1910,1471,9.70203,-2.79278
693,-447,10.48,2.08643,0,0,0,0,0,0,0,-1,1917,1471,10.48,-2.08642
700,-447,0,0,0,0,0,0,0,0,0,-1,1924,1471,0,0
707,-447,0,0,0,0,0,0,0,0,0,-1,1931,1471,0,0
714,-447,0,0,0,0,0,0,0,0,0,-1,1938,1471,0,0
721,-447,0,0,0,0,0,0,0,0,0,-1,1945,1471,0,0
728,-447,0,0,0,0,0,0,0,0,0,-1,1952,1471,0,0
735,-447,0,0,0,0,0,0,0,0,0,-1,1959,1471,0,0
742,-447,0,0,0,0,0,0,0,0,0,-1,1966,1471,0,0
749,-447,0,0,0,0,0,0,0,0,0,-1,1973,1471,0,0
756,-447,0,0,0,0,0,0,0,0,0,-1,1980,1471,0,0
763,-447,0,0,0,0,0,0,0,0,0,-1,1987,1471,0,0
770,-447,0,0,0,0,0,0,0,0,0,-1,1994,1471,0,0
777,-447,0,0,0,0,0,0,0,0,0,-1,2001,1471,0,0
784,-447,0,0,0,0,0,0,0,0,0,-1,2008,1471,0,0
791,-447,0,0,0,0,0,0,0,0,0,-1,2015,1471,0,0
798,-447,0,0,0,0,0,0,0,0,0,-1,2022,1471,0,0
805,-447,0,0,0,0,0,0,0,0,0,-1,2029,1471,0,0
812,-447,0,0,0,0,0,0,0,0,0,-1,2036,1471,0,0
-700,-454,0,0,0,0,0,0,0,0,0,-1,524,1478,0,0
-693,-454,0,0,0,0,0,0,0,0,0,-1,531,1478,0,0
-686,-454,0,0,0,0,0,0,0,0,0,-1,538,1478,0,0
-679,-454,0,0,0,0,0,0,0,0,0,-1,545,1478,0,0
-672,-454,0,0,0,0,0,0,0,0,0,-1,552,1478,0,0
-665,-454,0,0,0,0,0,0,0,0,0,-1,559,1478,0,0
-658,-454,0,0,0,0,0,0,0,0,0,-1,566,1478,0,0
-651,-454,0,0,0,0,0,0,0,0,0,-1,573,1478,0,0
-644,-454,0,0,0,0,0,0,0,0,0,-1,580,1478,0,0
-637,-454,0,0,0,0,0,0,0,0,0,-1,587,1478,0,0
-630,-454,0,0,0,0,0,0,0,0,0,-1,594,1478,0,0
-623,-454,0,0,0,0,0,0,0,0,0,-1,601,1478,0,0
-616,-454,0,0,0,0,0,0,0,0,0,-1,608,1478,0,0
-609,-454,0,0,0,0,0,0,0,0,0,-1,615,1478,0,0
-602,-454,0,0,0,0,0,0,0,0,0,-1,622,1478,0,0
-595,-454,0,0,0,0,0,0,0,0,0,-1,629,1478,0,0
-588,-454,0,0,0,0,0,0,0,0,0,-1,636,1478,0,0
-581,-454,0,0,0,0,0,0,0,0,0,-1,643,1478,0,0
-574,-454,-6.78278,1.21448,0,0,0,0,0,0,0,-1,650,1478,-6.78279,-1.21446
-567,-454,-5.87793,1.51501,0.122236,-0.0172122,0.0581438,0.143298,-0.0382744,0.347541,0.110522,0.0463369,657,1478,-5.87792,-1.51503
-560,-454,-5.03674,1.78003,0.108627,-0.013966,0.0553723,0.129934,-0.0352731,0.367332,0.100466,0.0439017,664,1478,-5.03677,-1.78001
-553,-454,-3.71375,1.28308,0,0,0,0,0,0,0,-1,671,1478,-3.71372,-1.28313
-546,-454,-3.26129,1.70398,0.0792725,-0.00856757,0.0431661,0.096934,-0.0262291,0.388371,0.0749122,0.0489426,678,1478,-3.26132,-1.70403
-539,-454,-2.83466,2.09766,0.0651357,-0.00655254,0.0358333,0.0799751,-0.021392,0.392624,0.0616963,0.0462921,685,1478,-2.83467,-2.09767
-532,-454,-2.30603,2.56604,0.0520893,-0.00492563,0.0286662,0.0640098,-0.0168462,0.394087,0.0492584,0.043155,692,1478,-2.30601,-2.56601
-525,-454,-1.8056,3.03027,0.0404967,-0.00364132,0.022122,0.0496755,-0.0128201,0.393298,0.0381159,0.0387799,699,1478,-1.80558,-3.0303
-518,-454,-1.62152,3.23755,0.030603,-0.00268351,0.0164759,0.0373788,-0.00945932,0.390172,0.0285986,0.0233076,706,1478,-1.6215,-3.23753
-511,-454,-1.63177,3.31543,0.0220617,-0.00190771,0.0118034,0.0268982,-0.00674425,0.388889,0.0205525,0.0148855,713,1478,-1.63176,-3.31541
-504,-454,-1.60388,3.5072,0.0153163,-0.00138963,0.00806124,0.0185717,-0.0046451,0.383814,0.0141853,0.014894,720,1478,-1.6039,-3.50722
-497,-454,-1.60767,3.69373,0.0107053,-0.00119165,0.00521377,0.0126668,-0.00315316,0.359836,0.00966852,0.0183428,727,1478,-1.60769,-3.69369
-490,-454,-1.60681,3.84424,0.00663796,-0.00155835,0.00247848,0.00732914,-0.00224953,0.271963,0.00578365,0.0168612,734,1478,-1.60681,-3.84419
-483,-454,-1.60754,4.00464,0.00338853,-0.00135387,0.000402361,0.00342243,-0.00138777,0.0840427,0.00285878,0.0152658,741,1478,-1.60754,-4.0047
-476,-454,-1.62573,4.1438,0.00131792,-0.000938175,-0.00109887,0.00176468,-0.00138493,-0.386149,0.00182283,0.0130283,748,1478,-1.62574,-4.14377
-469,-454,-1.61841,4.35962,-2.26717e-05,-0.00114326,-0.00222961,0.00171597,-0.0028819,-0.662299,0.00268288,0.00942613,755,1478,-1.6184,-4.35962
-462,-454,-1.62323,4.55298,-0.000637524,-0.00113211,-0.00348681,0.00261076,-0.00438039,-0.749996,0.00407921,0.0105532,762,1478,-1.62325,-4.55303
-455,-454,-1.63501,4.73462,-0.00122908,-0.00108851,-0.00492422,0.00376593,-0.00608352,-0.792534,0.00573882,0.0115746,769,1478,-1.63501,-4.73458
-448,-454,-1.62335,4.9043,-0.00174496,-0.00138625,-0.00634847,0.0047854,-0.00791661,-0.79952,0.00740741,0.0116246,776,1478,-1.62336,-4.9043
-441,-454,-1.50006,5.05713,-0.00212274,-0.00156828,-0.00817486,0.00633405,-0.0100251,-0.802348,0.00952474,0.0193004,783,1478,-1.50003,-5.05718
-434,-454,-1.34894,5.17834,-0.00221164,-0.00209498,-0.0101257,0.0079726,-0.0122792,-0.788278,0.0117802,0.0279632,790,1478,-1.34894,-5.17838
-427,-454,-1.37854,5.21545,-0.00225653,-0.00275068,-0.0122932,0.00979208,-0.0147993,-0.77535,0.0142956,0.0388015,797,1478,-1.37852,-5.21545
-420,-454,-1.90131,5.28735,-0.00217619,-0.00357064,-0.0143255,0.0114691,-0.0172159,-0.761082,0.0166717,0.0429408,804,1478,-1.9013,-5.28736
-413,-454,-2.84882,5.56604,0,0,0,0,0,0,0,-1,811,1478,-2.84881,-5.56608
-406,-454,-3.89423,5.78943,0,0,0,0,0,0,0,-1,818,1478,-3.8942,-5.78945
-399,-454,-1.20758,6.51941,0,0,0,0,0,0,0,-1,825,1478,-1.20757,-6.51941
-392,-454,0.0967407,0.985474,0,0,0,0,0,0,0,-1,832,1478,0.0967364,-0.985529
-385,-454,2.38629,3.297,0,0,0,0,0,0,0,-1,839,1478,2.38629,-3.29702
-378,-454,3.80048,3.42151,0,0,0,0,0,0,0,-1,846,1478,3.80046,-3.4215
-371,-454,1.25891,1.51331,0,0,0,0,0,0,0,-1,853,1478,1.25891,-1.51328
-364,-454,1.08124,0.819458,0,0,0,0,0,0,0,-1,860,1478,1.08124,-0.819513
-357,-454,0,0,0,0,0,0,0,0,0,-1,867,1478,0,0
-350,-454,0,0,0,0,0,0,0,0,0,-1,874,1478,0,0
-343,-454,0,0,0,0,0,0,0,0,0,-1,881,1478,0,0
-336,-454,0,0,0,0,0,0,0,0,0,-1,888,1478,0,0
-329,-454,0,0,0,0,0,0,0,0,0,-1,895,1478,0,0
-322,-454,0,0,0,0,0,0,0,0,0,-1,902,1478,0,0
-315,-454,0,0,0,0,0,0,0,0,0,-1,909,1478,0,0
-308,-454,0,0,0,0,0,0,0,0,0,-1,916,1478,0,0
-301,-454,0,0,0,0,0,0,0,0,0,-1,923,1478,0,0
-294,-454,0,0,0,0,0,0,0,0,0,-1,930,1478,0,0
-287,-454,0,0,0,0,0,0,0,0,0,-1,937,1478,0,0
-280,-454,0,0,0,0,0,0,0,0,0,-1,944,1478,0,0
-273,-454,0,0,0,0,0,0,0,0,0,-1,951,1478,0,0
-266,-454,0,0,0,0,0,0,0,0,0,-1,958,1478,0,0
-259,-454,0,0,0,0,0,0,0,0,0,-1,965,1478,0,0
-252,-454,0,0,0,0,0,0,0,0,0,-1,972,1478,0,0
-245,-454,0,0,0,0,0,0,0,0,0,-1,979,1478,0,0
-238,-454,0,0,0,0,0,0,0,0,0,-1,986,1478,0,0
-231,-454,0,0,0,0,0,0,0,0,0,-1,993,1478,0,0
-224,-454,0,0,0,0,0,0,0,0,0,-1,1000,1478,0,0
-217,-454,0,0,0,0,0,0,0,0,0,-1,1007,1478,0,0
-210,-454,0,0,0,0,0,0,0,0,0,-1,1014,1478,0,0
-203,-454,0,0,0,0,0,0,0,0,0,-1,1021,1478,0,0
-196,-454,0,0,0,0,0,0,0,0,0,-1,1028,1478,0,0
-189,-454,0,0,0,0,0,0,0,0,0,-1,1035,1478,0,0
-182,-454,0,0,0,0,0,0,0,0,0,-1,1042,1478,0,0
-175,-454,0,0,0,0,0,0,0,0,0,-1,1049,1478,0,0
-168,-454,0,0,0,0,0,0,0,0,0,-1,1056,1478,0,0
-161,-454,0,0,0,0,0,0,0,0,0,-1,1063,1478,0,0
-154,-454,0,0,0,0,0,0,0,0,0,-1,1070,1478,0,0
-147,-454,0,0,0,0,0,0,0,0,0,-1,1077,1478,0,0
-140,-454,0,0,0,0,0,0,0,0,0,-1,1084,1478,0,0
-133,-454,0,0,0,0,0,0,0,0,0,-1,1091,1478,0,0
-126,-454,0,0,0,0,0,0,0,0,0,-1,1098,1478,0,0
-119,-454,0,0,0,0,0,0,0,0,0,-1,1105,1478,0,0
-112,-454,0,0,0,0,0,0,0,0,0,-1,1112,1478,0,0
-105,-454,0,0,0,0,0,0,0,0,0,-1,1119,1478,0,0
-98,-454,0,0,0,0,0,0,0,0,0,-1,1126,1478,0,0
-91,-454,0,0,0,0,0,0,0,0,0,-1,1133,1478,0,0
-84,-454,0,0,0,0,0,0,0,0,0,-1,1140,1478,0,0
-77,-454,0,0,0,0,0,0,0,0,0,-1,1147,1478,0,0
-70,-454,0,0,0,0,0,0,0,0,0,-1,1154,1478,0,0
-63,-454,0,0,0,0,0,0,0,0,0,-1,1161,1478,0,0
-56,-454,0,0,0,0,0,0,0,0,0,-1,1168,1478,0,0
-49,-454,0,0,0,0,0,0,0,0,0,-1,1175,1478,0,0
-42,-454,0,0,0,0,0,0,0,0,0,-1,1182,1478,0,0
-35,-454,0,0,0,0,0,0,0,0,0,-1,1189,1478,0,0
-28,-454,0,0,0,0,0,0,0,0,0,-1,1196,1478,0,0
-21,-454,0,0,0,0,0,0,0,0,0,-1,1203,1478,0,0
-14,-454,0,0,0,0,0,0,0,0,0,-1,1210,1478,0,0
-7,-454,0,0,0,0,0,0,0,0,0,-1,1217,1478,0,0
0,-454,0,0,0,0,0,0,0,0,0,-1,1224,1478,0,0
7,-454,0,0,0,0,0,0,0,0,0,-1,1231,1478,0,0
14,-454,0,0,0,0,0,0,0,0,0,-1,1238,1478,0,0
21,-454,0,0,0,0,0,0,0,0,0,-1,1245,1478,0,0
28,-454,0,0,0,0,0,0,0,0,0,-1,1252,1478,0,0
35,-454,0,0,0,0,0,0,0,0,0,-1,1259,1478,0,0
42,-454,0,0,0,0,0,0,0,0,0,-1,1266,1478,0,0
49,-454,0,0,0,0,0,0,0,0,0,-1,1273,1478,0,0
56,-454,0,0,0,0,0,0,0,0,0,-1,1280,1478,0,0
63,-454,0,0,0,0,0,0,0,0,0,-1,1287,1478,0,0
70,-454,0,0,0,0,0,0,0,0,0,-1,1294,1478,0,0
77,-454,0,0,0,0,0,0,0,0,0,-1,1301,1478,0,0
84,-454,0,0,0,0,0,0,0,0,0,-1,1308,1478,0,0
91,-454,0,0,0,0,0,0,0,0,0,-1,1315,1478,0,0
98,-454,0,0,0,0,0,0,0,0,0,-1,1322,1478,0,0
105,-454,0,0,0,0,0,0,0,0,0,-1,1329,1478,0,0
112,-454,0,0,0,0,0,0,0,0,0,-1,1336,1478,0,0
119,-454,0,0,0,0,0,0,0,0,0,-1,1343,1478,0,0
126,-454,0,0,0,0,0,0,0,0,0,-1,1350,1478,0,0
133,-454,0,0,0,0,0,0,0,0,0,-1,1357,1478,0,0
140,-454,0,0,0,0,0,0,0,0,0,-1,1364,1478,0,0
147,-454,0,0,0,0,0,0,0,0,0,-1,1371,1478,0,0
154,-454,0,0,0,0,0,0,0,0,0,-1,1378,1478,0,0
161,-454,0,0,0,0,0,0,0,0,0,-1,1385,1478,0,0
168,-454,0,0,0,0,0,0,0,0,0,-1,1392,1478,0,0
175,-454,0,0,0,0,0,0,0,0,0,-1,1399,1478,0,0
182,-454,0,0,0,0,0,0,0,0,0,-1,1406,1478,0,0
189,-454,0,0,0,0,0,0,0,0,0,-1,1413,1478,0,0
196,-454,0,0,0,0,0,0,0,0,0,-1,1420,1478,0,0
203,-454,0,0,0,0,0,0,0,0,0,-1,1427,1478,0,0
210,-454,0,0,0,0,0,0,0,0,0,-1,1434,1478,0,0
217,-454,0,0,0,0,0,0,0,0,0,-1,1441,1478,0,0
224,-454,0,0,0,0,0,0,0,0,0,-1,1448,1478,0,0
231,-454,0,0,0,0,0,0,0,0,0,-1,1455,1478,0,0
238,-454,0,0,0,0,0,0,0,0,0,-1,1462,1478,0,0
245,-454,0,0,0,0,0,0,0,0,0,-1,1469,1478,0,0
252,-454,0,0,0,0,0,0,0,0,0,-1,1476,1478,0,0
259,-454,0,0,0,0,0,0,0,0,0,-1,1483,1478,0,0
266,-454,0,0,0,0,0,0,0,0,0,-1,1490,1478,0,0
273,-454,0,0,0,0,0,0,0,0,0,-1,1497,1478,0,0
280,-454,0,0,0,0,0,0,0,0,0,-1,1504,1478,0,0
287,-454,0,0,0,0,0,0,0,0,0,-1,1511,1478,0,0
294,-454,0,0,0,0,0,0,0,0,0,-1,1518,1478,0,0
301,-454,0,0,0,0,0,0,0,0,0,-1,1525,1478,0,0
308,-454,0,0,0,0,0,0,0,0,0,-1,1532,1478,0,0
315,-454,0,0,0,0,0,0,0,0,0,-1,1539,1478,0,0
322,-454,0,0,0,0,0,0,0,0,0,-1,1546,1478,0,0
329,-454,0,0,0,0,0,0,0,0,0,-1,1553,1478,0,0
336,-454,0,0,0,0,0,0,0,0,0,-1,1560,1478,0,0
343,-454,0,0,0,0,0,0,0,0,0,-1,1567,1478,0,0
350,-454,0,0,0,0,0,0,0,0,0,-1,1574,1478,0,0
357,-454,0,0,0,0,0,0,0,0,0,-1,1581,1478,0,0
364,-454,0,0,0,0,0,0,0,0,0,-1,1588,1478,0,0
371,-454,0,0,0,0,0,0,0,0,0,-1,1595,1478,0,0
378,-454,0,0,0,0,0,0,0,0,0,-1,1602,1478,0,0
385,-454,0,0,0,0,0,0,0,0,0,-1,1609,1478,0,0
392,-454,0,0,0,0,0,0,0,0,0,-1,1616,1478,0,0
399,-454,0,0,0,0,0,0,0,0,0,-1,1623,1478,0,0
406,-454,0,0,0,0,0,0,0,0,0,-1,1630,1478,0,0
413,-454,0,0,0,0,0,0,0,0,0,-1,1637,1478,0,0
420,-454,0,0,0,0,0,0,0,0,0,-1,1644,1478,0,0
427,-454,0,0,0,0,0,0,0,0,0,-1,1651,1478,0,0
434,-454,0,0,0,0,0,0,0,0,0,-1,1658,1478,0,0
441,-454,0,0,0,0,0,0,0,0,0,-1,1665,1478,0,0
448,-454,0,0,0,0,0,0,0,0,0,-1,1672,1478,0,0
455,-454,0,0,0,0,0,0,0,0,0,-1,1679,1478,0,0
462,-454,0,0,0,0,0,0,0,0,0,-1,1686,1478,0,0
469,-454,0,0,0,0,0,0,0,0,0,-1,1693,1478,0,0
476,-454,0,0,0,0,0,0,0,0,0,-1,1700,1478,0,0
483,-454,13.4559,0.33667,-0.0874891,-0.0943539,0.0415156,-0.0492643,-0.132579,0.744154,0.0773813,0.0490595,1707,1478,13.4559,-0.336715
490,-454,12.6382,1.28284,-0.0799622,-0.0816471,0.045945,-0.034852,-0.126757,0.776231,0.075614,0.0418378,1714,1478,12.6382,-1.28286
497,-454,12.3833,1.86182,-0.0698042,-0.0702838,0.0484135,-0.0216299,-0.118458,0.782922,0.0728405,0.0488712,1721,1478,12.3833,-1.86177
504,-454,11.8937,2.95679,0,0,0,0,0,0,0,-1,1728,1478,11.8936,-2.95682
511,-454,11.0791,3.51208,-0.0494732,-0.0502868,0.048988,-0.000890315,-0.0988697,0.781246,0.0656184,0.0471723,1735,1478,11.0791,-3.51214
518,-454,10.2549,4.07007,-0.0392701,-0.0421531,0.0476699,0.00698011,-0.0884033,0.770283,0.0613947,0.0449931,1742,1478,10.2549,-4.0701
525,-454,9.43726,4.62024,0,0,0,0,0,0,0,-1,1749,1478,9.43721,-4.62022
532,-454,9.18518,5.00281,0,0,0,0,0,0,0,-1,1756,1478,9.18517,-5.00282
539,-454,8.9198,6.22314,0,0,0,0,0,0,0,-1,1763,1478,8.91983,-6.22314
546,-454,8.74316,6.20605,0,0,0,0,0,0,0,-1,1770,1478,8.74318,-6.20608
553,-454,8.66345,6.3125,-0.00920499,-0.0170221,0.0337858,0.0208975,-0.0471246,0.727811,0.0402339,0.038985,1777,1478,8.66347,-6.31254
560,-454,8.68848,6.60742,-0.00712513,-0.0146012,0.0290718,0.018448,-0.0401744,0.721459,0.0346118,0.0420222,1784,1478,8.6885,-6.60744
567,-454,8.74475,6.60828,-0.00567755,-0.012535,0.0244442,0.0155772,-0.0337897,0.715719,0.0291414,0.0230194,1791,1478,8.74481,-6.60831
574,-454,8.71423,6.47217,-0.00516678,-0.0106945,0.0199346,0.0121946,-0.0280559,0.716514,0.0238325,0.0121277,1798,1478,8.71428,-6.47221
581,-454,8.73438,6.31604,-0.00548777,-0.00906387,0.0159372,0.00876135,-0.023313,0.729535,0.0191428,0.0102281,1805,1478,8.73432,-6.31608
588,-454,8.73035,6.17249,-0.00613835,-0.00776408,0.0124273,0.0055026,-0.019405,0.75274,0.0151087,0.0114323,1812,1478,8.73041,-6.17243
595,-454,8.70471,6.03674,-0.00602373,-0.00605766,0.00936423,0.00332355,-0.0154049,0.784492,0.0115385,0.01163,1819,1478,8.7047,-6.03675
602,-454,8.71741,5.87939,-0.00556677,-0.00433537,0.00664078,0.00171819,-0.0116203,0.831623,0.00837855,0.00895682,1826,1478,8.71739,-5.87939
609,-454,8.74121,5.73413,-0.00495626,-0.00250476,0.00414626,0.000593135,-0.00805416,0.929119,0.00557767,0.0103071,1833,1478,8.74126,-5.7341
616,-454,8.75037,5.5719,-0.00449002,-0.000920167,0.00223547,0.00015555,-0.00556574,1.1223,0.00376341,0.0129179,1840,1478,8.7504,-5.57185
623,-454,8.73804,5.4165,-0.00431267,0.00115515,0.000771465,0.00126191,-0.00441944,1.43328,0.00344485,0.0101794,1847,1478,8.73798,-5.41652
630,-454,8.73816,5.26721,-0.00477875,0.00297995,-0.000509295,0.00301324,-0.00481204,-1.50553,0.00455754,0.00846558,1854,1478,8.73812,-5.26719
637,-454,8.74683,5.11719,-0.00562937,0.00449129,-0.00137744,0.00467541,-0.00581349,-1.43791,0.00606764,0.00856996,1861,1478,8.74684,-5.11722
644,-454,8.76208,4.9574,-0.00711564,0.005798,-0.00193653,0.00608215,-0.00739979,-1.4251,0.00779618,0.0139768,1868,1478,8.76206,-4.95734
651,-454,8.70825,4.82666,-0.00942973,0.00701784,-0.00216655,0.00729844,-0.00971033,-1.442,0.00985287,0.0228001,1875,1478,8.70829,-4.82663
658,-454,8.66895,4.60901,-0.0126478,0.0083151,-0.00219068,0.00854158,-0.0128743,-1.46778,0.0124485,0.0334273,1882,1478,8.6689,-4.60896
665,-454,8.57874,4.42053,-0.0168597,0.00978127,-0.0020814,0.0099429,-0.0170213,-1.4933,0.0157456,0.0434054,1889,1478,8.5787,-4.42057
672,-454,8.50598,4.20752,0,0,0,0,0,0,0,-1,1896,1478,8.50598,-4.20754
679,-454,9.60571,2.71924,0,0,0,0,0,0,0,-1,1903,1478,9.60568,-2.71927
686,-454,10.3767,2.12842,0,0,0,0,0,0,0,-1,1910,1478,10.3767,-2.12839
693,-454,11.1857,1.48486,0,0,0,0,0,0,0,-1,1917,1478,11.1857,-1.48487
700,-454,0,0,0,0,0,0,0,0,0,-1,1924,1478,0,0
707,-454,0,0,0,0,0,0,0,0,0,-1,1931,1478,0,0
714,-454,0,0,0,0,0,0,0,0,0,-1,1938,1478,0,0
721,-454,0,0,0,0,0,0,0,0,0,-1,1945,1478,0,0
728,-454,0,0,0,0,0,0,0,0,0,-1,1952,1478,0,0
735,-454,0,0,0,0,0,0,0,0,0,-1,1959,1478,0,0
742,-454,0,0,0,0,0,0,0,0,0,-1,1966,1478,0,0
749,-454,0,0,0,0,0,0,0,0,0,-1,1973,1478,0,0
756,-454,0,0,0,0,0,0,0,0,0,-1,1980,1478,0,0
763,-454,0,0,0,0,0,0,0,0,0,-1,1987,1478,0,0
770,-454,0,0,0,0,0,0,0,0,0,-1,1994,1478,0,0
777,-454,0,0,0,0,0,0,0,0,0,-1,2001,1478,0,0
784,-454,0,0,0,0,0,0,0,0,0,-1,2008,1478,0,0
791,-454,0,0,0,0,0,0,0,0,0,-1,2015,1478,0,0
798,-454,0,0,0,0,0,0,0,0,0,-1,2022,1478,0,0
805,-454,0,0,0,0,0,0,0,0,0,-1,2029,1478,0,0
812,-454,0,0,0,0,0,0,0,0,0,-1,2036,1478,0,0
-700,-461,0,0,0,0,0,0,0,0,0,-1,524,1485,0,0
-693,-461,0,0,0,0,0,0,0,0,0,-1,531,1485,0,0
-686,-461,0,0,0,0,0,0,0,0,0,-1,538,1485,0,0
-679,-461,0,0,0,0,0,0,0,0,0,-1,545,1485,0,0
-672,-461,0,0,0,0,0,0,0,0,0,-1,552,1485,0,0
-665,-461,0,0,0,0,0,0,0,0,0,-1,559,1485,0,0
-658,-461,0,0,0,0,0,0,0,0,0,-1,566,1485,0,0
-651,-461,0,0,0,0,0,0,0,0,0,-1,573,1485,0,0
-644,-461,0,0,0,0,0,0,0,0,0,-1,580,1485,0,0
-637,-461,0,0,0,0,0,0,0,0,0,-1,587,1485,0,0
-630,-461,0,0,0,0,0,0,0,0,0,-1,594,1485,0,0
-623,-461,0,0,0,0,0,0,0,0,0,-1,601,1485,0,0
-616,-461,0,0,0,0,0,0,0,0,0,-1,608,1485,0,0
-609,-461,0,0,0,0,0,0,0,0,0,-1,615,1485,0,0
-602,-461,0,0,0,0,0,0,0,0,0,-1,622,1485,0,0
-595,-461,0,0,0,0,0,0,0,0,0,-1,629,1485,0,0
-588,-461,0,0,0,0,0,0,0,0,0,-1,636,1485,0,0
-581,-461,0,0,0,0,0,0,0,0,0,-1,643,1485,0,0
-574,-461,0,0,0,0,0,0,0,0,0,-1,650,1485,0,0
-567,-461,-6.37714,1.85889,0,0,0,0,0,0,0,-1,657,1485,-6.37716,-1.85889
-560,-461,-5.28589,1.92346,0,0,0,0,0,0,0,-1,664,1485,-5.28587,-1.92347
-553,-461,-3.87299,1.47876,0,0,0,0,0,0,0,-1,671,1485,-3.873,-1.4788
-546,-461,-3.3645,1.92615,0.091909,-0.0125882,0.0500319,0.112001,-0.0326799,0.381864,0.0876161,0.0487685,678,1485,-3.3645,-1.92616
-539,-461,-3.06403,2.37134,0.0760253,-0.0100302,0.0414736,0.0927591,-0.026764,0.383504,0.0724282,0.0448472,685,1485,-3.06404,-2.37131
-532,-461,-2.83649,2.87769,0.0611524,-0.00787237,0.0331674,0.0745063,-0.0212262,0.382764,0.0580545,0.0413491,692,1485,-2.83648,-2.87763
-525,-461,-1.71234,3.02759,0,0,0,0,0,0,0,-1,699,1485,-1.71232,-3.02756
-518,-461,-1.47284,3.12964,0.0362446,-0.00465939,0.0189862,0.0436989,-0.0121137,0.374124,0.0338998,0.034094,706,1485,-1.47281,-3.12958
-511,-461,-1.40631,3.3396,0.0263043,-0.00352137,0.0135711,0.031555,-0.00877204,0.369164,0.0244901,0.0165927,713,1485,-1.40632,-3.33964
-504,-461,-1.42664,3.48511,0.0184244,-0.0027069,0.00923693,0.0218928,-0.00617528,0.359201,0.017031,0.0100722,720,1485,-1.42665,-3.4851
-497,-461,-1.41614,3.68115,0.0129431,-0.0022602,0.00597487,0.0150102,-0.00432727,0.333071,0.0117186,0.0103606,727,1485,-1.41612,-3.6812
-490,-461,-1.42676,3.85803,0.00822216,-0.00233139,0.00290677,0.00896981,-0.00307903,0.251752,0.00722822,0.0115324,734,1485,-1.42678,-3.85809
-483,-461,-1.44312,4.02075,0.00458037,-0.00189647,0.000733465,0.0046624,-0.00197849,0.111365,0.00393711,0.0119033,741,1485,-1.4431,-4.02079
-476,-461,-1.46106,4.19226,0.00231047,-0.00148909,-0.00069902,0.002435,-0.00161361,-0.176287,0.00235344,0.010226,748,1485,-1.46103,-4.1922
-469,-461,-1.44,4.40173,0.000892718,-0.00166114,-0.00160657,0.00166801,-0.00243643,-0.449612,0.0023835,0.0119066,755,1485,-1.44,-4.40179
-462,-461,-1.43213,4.57532,0.000334199,-0.00164701,-0.00262437,0.0021487,-0.00346151,-0.604933,0.00326848,0.0180664,762,1485,-1.43215,-4.57526
-455,-461,-1.46094,4.74219,-0.000180034,-0.00167475,-0.00372959,0.00287634,-0.00473112,-0.686515,0.00443547,0.0216458,769,1485,-1.46091,-4.74223
-448,-461,-1.4444,4.92859,-0.000565592,-0.00216691,-0.00469285,0.00339441,-0.00612692,-0.700905,0.00557209,0.0167928,776,1485,-1.44439,-4.92855
-441,-461,-1.40863,5.08801,-0.000834338,-0.00262366,-0.00594974,0.00428763,-0.00774562,-0.710773,0.00704237,0.0127568,783,1485,-1.40864,-5.08802
-434,-461,-1.30487,5.23096,-0.000790505,-0.00365015,-0.00719505,0.00511542,-0.00955607,-0.687314,0.00859895,0.0175732,790,1485,-1.3049,-5.23101
-427,-461,-1.22168,5.35461,-0.000734467,-0.00495931,-0.00854405,0.00595443,-0.0116482,-0.664209,0.0103386,0.0235409,797,1485,-1.2217,-5.35458
-420,-461,-1.49573,5.61169,-0.000753625,-0.00636108,-0.00969216,0.00653219,-0.0136469,-0.644603,0.0118893,0.0405257,804,1485,-1.49573,-5.6117
-413,-461,-1.24561,5.88818,0,0,0,0,0,0,0,-1,811,1485,-1.2456,-5.88824
-406,-461,-1.37781,5.47742,0,0,0,0,0,0,0,-1,818,1485,-1.37779,-5.47741
-399,-461,-1.13544,5.42786,0,0,0,0,0,0,0,-1,825,1485,-1.13542,-5.42783
-392,-461,-0.357544,5.55225,0,0,0,0,0,0,0,-1,832,1485,-0.357536,-5.55228
-385,-461,1.71509,3.35254,0,0,0,0,0,0,0,-1,839,1485,1.71511,-3.35255
-378,-461,1.95996,3.01111,0,0,0,0,0,0,0,-1,846,1485,1.95993,-3.01111
-371,-461,0.702881,2.33459,0,0,0,0,0,0,0,-1,853,1485,0.702859,-2.33459
-364,-461,-1.93097,2.56458,0,0,0,0,0,0,0,-1,860,1485,-1.93095,-2.56456
-357,-461,-2.41516,3.49487,0,0,0,0,0,0,0,-1,867,1485,-2.41517,-3.49487
-350,-461,0,0,0,0,0,0,0,0,0,-1,874,1485,0,0
-343,-461,0,0,0,0,0,0,0,0,0,-1,881,1485,0,0
-336,-461,0,0,0,0,0,0,0,0,0,-1,888,1485,0,0
-329,-461,0,0,0,0,0,0,0,0,0,-1,895,1485,0,0
-322,-461,0,0,0,0,0,0,0,0,0,-1,902,1485,0,0
-315,-461,0,0,0,0,0,0,0,0,0,-1,909,1485,0,0
-308,-461,0,0,0,0,0,0,0,0,0,-1,916,1485,0,0
-301,-461,0,0,0,0,0,0,0,0,0,-1,923,1485,0,0
-294,-461,0,0,0,0,0,0,0,0,0,-1,930,1485,0,0
-287,-461,0,0,0,0,0,0,0,0,0,-1,937,1485,0,0
-280,-461,0,0,0,0,0,0,0,0,0,-1,944,1485,0,0
-273,-461,0,0,0,0,0,0,0,0,0,-1,951,1485,0,0
-266,-461,0,0,0,0,0,0,0,0,0,-1,958,1485,0,0
-259,-461,0,0,0,0,0,0,0,0,0,-1,965,1485,0,0
-252,-461,0,0,0,0,0,0,0,0,0,-1,972,1485,0,0
-245,-461,0,0,0,0,0,0,0,0,0,-1,979,1485,0,0
-238,-461,0,0,0,0,0,0,0,0,0,-1,986,1485,0,0
-231,-461,0,0,0,0,0,0,0,0,0,-1,993,1485,0,0
-224,-461,0,0,0,0,0,0,0,0,0,-1,1000,1485,0,0
-217,-461,0,0,0,0,0,0,0,0,0,-1,1007,1485,0,0
-210,-461,0,0,0,0,0,0,0,0,0,-1,1014,1485,0,0
-203,-461,0,0,0,0,0,0,0,0,0,-1,1021,1485,0,0
-196,-461,0,0,0,0,0,0,0,0,0,-1,1028,1485,0,0
-189,-461,0,0,0,0,0,0,0,0,0,-1,1035,1485,0,0
-182,-461,0,0,0,0,0,0,0,0,0,-1,1042,1485,0,0
-175,-461,0,0,0,0,0,0,0,0,0,-1,1049,1485,0,0
-168,-461,0,0,0,0,0,0,0,0,0,-1,1056,1485,0,0
-161,-461,0,0,0,0,0,0,0,0,0,-1,1063,1485,0,0
-154,-461,0,0,0,0,0,0,0,0,0,-1,1070,1485,0,0
-147,-461,0,0,0,0,0,0,0,0,0,-1,1077,1485,0,0
-140,-461,0,0,0,0,0,0,0,0,0,-1,1084,1485,0,0
-133,-461,0,0,0,0,0,0,0,0,0,-1,1091,1485,0,0
-126,-461,0,0,0,0,0,0,0,0,0,-1,1098,1485,0,0
-119,-461,0,0,0,0,0,0,0,0,0,-1,1105,1485,0,0
-112,-461,0,0,0,0,0,0,0,0,0,-1,1112,1485,0,0
-105,-461,0,0,0,0,0,0,0,0,0,-1,1119,1485,0,0
-98,-461,0,0,0,0,0,0,0,0,0,-1,1126,1485,0,0
-91,-461,0,0,0,0,0,0,0,0,0,-1,1133,1485,0,0
-84,-461,0,0,0,0,0,0,0,0,0,-1,1140,1485,0,0
-77,-461,0,0,0,0,0,0,0,0,0,-1,1147,1485,0,0
-70,-461,0,0,0,0,0,0,0,0,0,-1,1154,1485,0,0
-63,-461,0,0,0,0,0,0,0,0,0,-1,1161,1485,0,0
-56,-461,0,0,0,0,0,0,0,0,0,-1,1168,1485,0,0
-49,-461,0,0,0,0,0,0,0,0,0,-1,1175,1485,0,0
-42,-461,0,0,0,0,0,0,0,0,0,-1,1182,1485,0,0
-35,-461,0,0,0,0,0,0,0,0,0,-1,1189,1485,0,0
-28,-461,0,0,0,0,0,0,0,0,0,-1,1196,1485,0,0
-21,-461,0,0,0,0,0,0,0,0,0,-1,1203,1485,0,0
-14,-461,0,0,0,0,0,0,0,0,0,-1,1210,1485,0,0
-7,-461,0,0,0,0,0,0,0,0,0,-1,1217,1485,0,0
0,-461,0,0,0,0,0,0,0,0,0,-1,1224,1485,0,0
7,-461,0,0,0,0,0,0,0,0,0,-1,1231,1485,0,0
14,-461,0,0,0,0,0,0,0,0,0,-1,1238,1485,0,0
21,-461,0,0,0,0,0,0,0,0,0,-1,1245,1485,0,0
28,-461,0,0,0,0,0,0,0,0,0,-1,1252,1485,0,0
35,-461,0,0,0,0,0,0,0,0,0,-1,1259,1485,0,0
42,-461,0,0,0,0,0,0,0,0,0,-1,1266,1485,0,0
49,-461,0,0,0,0,0,0,0,0,0,-1,1273,1485,0,0
56,-461,0,0,0,0,0,0,0,0,0,-1,1280,1485,0,0
63,-461,0,0,0,0,0,0,0,0,0,-1,1287,1485,0,0
70,-461,0,0,0,0,0,0,0,0,0,-1,1294,1485,0,0
77,-461,0,0,0,0,0,0,0,0,0,-1,1301,1485,0,0
84,-461,0,0,0,0,0,0,0,0,0,-1,1308,1485,0,0
91,-461,0,0,0,0,0,0,0,0,0,-1,1315,1485,0,0
98,-461,0,0,0,0,0,0,0,0,0,-1,1322,1485,0,0
105,-461,0,0,0,0,0,0,0,0,0,-1,1329,1485,0,0
112,-461,0,0,0,0,0,0,0,0,0,-1,1336,1485,0,0
119,-461,0,0,0,0,0,0,0,0,0,-1,1343,1485,0,0
126,-461,0,0,0,0,0,0,0,0,0,-1,1350,1485,0,0
133,-461,0,0,0,0,0,0,0,0,0,-1,1357,1485,0,0
140,-461,0,0,0,0,0,0,0,0,0,-1,1364,1485,0,0
147,-461,0,0,0,0,0,0,0,0,0,-1,1371,1485,0,0
154,-461,0,0,0,0,0,0,0,0,0,-1,1378,1485,0,0
161,-461,0,0,0,0,0,0,0,0,0,-1,1385,1485,0,0
168,-461,0,0,0,0,0,0,0,0,0,-1,1392,1485,0,0
175,-461,0,0,0,0,0,0,0,0,0,-1,1399,1485,0,0
182,-461,0,0,0,0,0,0,0,0,0,-1,1406,1485,0,0
189,-461,0,0,0,0,0,0,0,0,0,-1,1413,1485,0,0
196,-461,0,0,0,0,0,0,0,0,0,-1,1420,1485,0,0
203,-461,0,0,0,0,0,0,0,0,0,-1,1427,1485,0,0
210,-461,0,0,0,0,0,0,0,0,0,-1,1434,1485,0,0
217,-461,0,0,0,0,0,0,0,0,0,-1,1441,1485,0,0
224,-461,0,0,0,0,0,0,0,0,0,-1,1448,1485,0,0
231,-461,0,0,0,0,0,0,0,0,0,-1,1455,1485,0,0
238,-461,0,0,0,0,0,0,0,0,0,-1,1462,1485,0,0
245,-461,0,0,0,0,0,0,0,0,0,-1,1469,1485,0,0
252,-461,0,0,0,0,0,0,0,0,0,-1,1476,1485,0,0
259,-461,0,0,0,0,0,0,0,0,0,-1,1483,1485,0,0
266,-461,0,0,0,0,0,0,0,0,0,-1,1490,1485,0,0
273,-461,0,0,0,0,0,0,0,0,0,-1,1497,1485,0,0
280,-461,0,0,0,0,0,0,0,0,0,-1,1504,1485,0,0
287,-461,0,0,0,0,0,0,0,0,0,-1,1511,1485,0,0
294,-461,0,0,0,0,0,0,0,0,0,-1,1518,1485,0,0
301,-461,0,0,0,0,0,0,0,0,0,-1,1525,1485,0,0
308,-461,0,0,0,0,0,0,0,0,0,-1,1532,1485,0,0
315,-461,0,0,0,0,0,0,0,0,0,-1,1539,1485,0,0
322,-461,0,0,0,0,0,0,0,0,0,-1,1546,1485,0,0
329,-461,0,0,0,0,0,0,0,0,0,-1,1553,1485,0,0
336,-461,0,0,0,0,0,0,0,0,0,-1,1560,1485,0,0
343,-461,0,0,0,0,0,0,0,0,0,-1,1567,1485,0,0
350,-461,0,0,0,0,0,0,0,0,0,-1,1574,1485,0,0
357,-461,0,0,0,0,0,0,0,0,0,-1,1581,1485,0,0
364,-461,0,0,0,0,0,0,0,0,0,-1,1588,1485,0,0
371,-461,0,0,0,0,0,0,0,0,0,-1,1595,1485,0,0
378,-461,0,0,0,0,0,0,0,0,0,-1,1602,1485,0,0
385,-461,0,0,0,0,0,0,0,0,0,-1,1609,1485,0,0
392,-461,0,0,0,0,0,0,0,0,0,-1,1616,1485,0,0
399,-461,0,0,0,0,0,0,0,0,0,-1,1623,1485,0,0
406,-461,0,0,0,0,0,0,0,0,0,-1,1630,1485,0,0
413,-461,0,0,0,0,0,0,0,0,0,-1,1637,1485,0,0
420,-461,0,0,0,0,0,0,0,0,0,-1,1644,1485,0,0
427,-461,0,0,0,0,0,0,0,0,0,-1,1651,1485,0,0
434,-461,0,0,0,0,0,0,0,0,0,-1,1658,1485,0,0
441,-461,0,0,0,0,0,0,0,0,0,-1,1665,1485,0,0
448,-461,0,0,0,0,0,0,0,0,0,-1,1672,1485,0,0
455,-461,0,0,0,0,0,0,0,0,0,-1,1679,1485,0,0
462,-461,0,0,0,0,0,0,0,0,0,-1,1686,1485,0,0
469,-461,0,0,0,0,0,0,0,0,0,-1,1693,1485,0,0
476,-461,14.4249,0.452515,0,0,0,0,0,0,0,-1,1700,1485,14.425,-0.452557
483,-461,13.2445,0.646606,-0.0784897,-0.104223,0.0376588,-0.0515602,-0.131153,0.620784,0.0762953,0.0482463,1707,1485,13.2445,-0.6466
490,-461,12.6997,1.63184,-0.0785607,-0.0888196,0.0415847,-0.0417902,-0.12559,0.724033,0.0738492,0.0431313,1714,1485,12.6997,-1.63181
497,-461,11.884,2.36316,-0.0737017,-0.0757553,0.0438357,-0.0308808,-0.118576,0.773688,0.0710312,0.0442909,1721,1485,11.8841,-2.36315
504,-461,11.6324,3.33008,0,0,0,0,0,0,0,-1,1728,1485,11.6325,-3.33011
511,-461,10.7784,3.86682,-0.0564053,-0.0544499,0.0438561,-0.0115606,-0.0992946,0.796543,0.0626991,0.0470753,1735,1485,10.7784,-3.86677
518,-461,9.94092,4.37708,-0.046871,-0.0456901,0.0422534,-0.00402298,-0.0885381,0.792385,0.0577312,0.0424006,1742,1485,9.94092,-4.37704
525,-461,9.47327,4.99023,-0.0393419,-0.0382628,0.0401708,0.00137211,-0.0789768,0.792113,0.0531144,0.0445043,1749,1485,9.47321,-4.99021
532,-461,9.22437,5.31995,0,0,0,0,0,0,0,-1,1756,1485,9.22436,-5.31996
539,-461,8.69177,5.99219,0,0,0,0,0,0,0,-1,1763,1485,8.69183,-5.99224
546,-461,8.42029,6.51318,0,0,0,0,0,0,0,-1,1770,1485,8.42034,-6.51316
553,-461,8.64087,6.39697,-0.011813,-0.0163326,0.0270039,0.0130255,-0.041171,0.743654,0.0326666,0.0405704,1777,1485,8.64089,-6.39697
560,-461,8.52979,6.62866,-0.00811077,-0.0132441,0.0224295,0.0118985,-0.0332533,0.72843,0.0270228,0.0263889,1784,1485,8.52984,-6.62868
567,-461,8.56128,6.60437,-0.0054435,-0.0106067,0.0181022,0.0102603,-0.0263104,0.71457,0.0217814,0.0127027,1791,1485,8.56124,-6.60435
574,-461,8.55872,6.44312,-0.00397544,-0.00835037,0.0141036,0.0081093,-0.0204351,0.708461,0.0169846,0.0134152,1798,1485,8.55874,-6.44315
581,-461,8.57361,6.29663,-0.00367171,-0.00650913,0.010791,0.00579341,-0.0159743,0.720037,0.0130177,0.0124384,1805,1485,8.57358,-6.29659
588,-461,8.56311,6.17114,-0.00390725,-0.00501108,0.00802484,0.00358464,-0.012503,0.751064,0.00975232,0.0102259,1812,1485,8.56312,-6.17112
595,-461,8.5625,6.03064,-0.0039015,-0.00326512,0.00562176,0.00204744,-0.00921407,0.813668,0.0069268,0.00849505,1819,1485,8.56251,-6.03063
602,-461,8.57751,5.88977,-0.00388834,-0.00159831,0.00351656,0.000954955,-0.00644161,0.942788,0.00464556,0.00916637,1826,1485,8.57749,-5.8898
609,-461,8.59167,5.72131,-0.00401386,0.000206327,0.00150871,0.000690209,-0.00449774,1.26044,0.00325306,0.010394,1833,1485,8.59173,-5.72134
616,-461,8.60583,5.5603,-0.00437481,0.00180053,-5.75156e-05,0.00180107,-0.00437535,-1.56148,0.00366775,0.0128656,1840,1485,8.60583,-5.56028
623,-461,8.58545,5.42139,-0.00509238,0.00396896,-0.00131979,0.00415727,-0.00528069,-1.42907,0.00546186,0.0117446,1847,1485,8.58541,-5.42144
630,-461,8.57874,5.26868,-0.00649002,0.00601434,-0.00256149,0.00651871,-0.00699439,-1.37638,0.00780341,0.00991013,1854,1485,8.5787,-5.2687
637,-461,8.59814,5.1134,-0.00829781,0.00794943,-0.00358741,0.00870628,-0.00905466,-1.36287,0.0102549,0.011472,1861,1485,8.5982,-5.11342
644,-461,8.61926,4.98999,-0.0106589,0.00993912,-0.00451916,0.010887,-0.0116068,-1.36405,0.012989,0.0186021,1868,1485,8.61921,-4.99005
651,-461,8.61145,4.72864,-0.0138173,0.0120352,-0.0052971,0.0130784,-0.0148606,-1.37634,0.0161415,0.0242094,1875,1485,8.61148,-4.72867
658,-461,8.70593,4.37561,-0.0177878,0.0143623,-0.00603669,0.0154585,-0.0188839,-1.39118,0.0198604,0.0396283,1882,1485,8.70591,-4.37563
665,-461,8.4342,4.52222,-0.0228176,0.0168822,-0.00667571,0.0179747,-0.0239101,-1.40858,0.024263,0.0450198,1889,1485,8.43416,-4.52222
672,-461,8.40515,4.31445,0,0,0,0,0,0,0,-1,1896,1485,8.40518,-4.31444
679,-461,10.0535,2.16321,0,0,0,0,0,0,0,-1,1903,1485,10.0535,-2.16317
686,-461,10.8195,1.84192,0,0,0,0,0,0,0,-1,1910,1485,10.8194,-1.84195
693,-461,0,0,0,0,0,0,0,0,0,-1,1917,1485,0,0
700,-461,0,0,0,0,0,0,0,0,0,-1,1924,1485,0,0
707,-461,0,0,0,0,0,0,0,0,0,-1,1931,1485,0,0
714,-461,0,0,0,0,0,0,0,0,0,-1,1938,1485,0,0
721,-461,0,0,0,0,0,0,0,0,0,-1,1945,1485,0,0
728,-461,0,0,0,0,0,0,0,0,0,-1,1952,1485,0,0
735,-461,0,0,0,0,0,0,0,0,0,-1,1959,1485,0,0
742,-461,0,0,0,0,0,0,0,0,0,-1,1966,1485,0,0
749,-461,0,0,0,0,0,0,0,0,0,-1,1973,1485,0,0
756,-461,0,0,0,0,0,0,0,0,0,-1,1980,1485,0,0
763,-461,0,0,0,0,0,0,0,0,0,-1,1987,1485,0,0
770,-461,0,0,0,0,0,0,0,0,0,-1,1994,1485,0,0
777,-461,0,0,0,0,0,0,0,0,0,-1,2001,1485,0,0
784,-461,0,0,0,0,0,0,0,0,0,-1,2008,1485,0,0
791,-461,0,0,0,0,0,0,0,0,0,-1,2015,1485,0,0
798,-461,0,0,0,0,0,0,0,0,0,-1,2022,1485,0,0
805,-461,0,0,0,0,0,0,0,0,0,-1,2029,1485,0,0
812,-461,0,0,0,0,0,0,0,0,0,-1,2036,1485,0,0
-700,-468,0,0,0,0,0,0,0,0,0,-1,524,1492,0,0
-693,-468,0,0,0,0,0,0,0,0,0,-1,531,1492,0,0
-686,-468,0,0,0,0,0,0,0,0,0,-1,538,1492,0,0
-679,-468,0,0,0,0,0,0,0,0,0,-1,545,1492,0,0
-672,-468,0,0,0,0,0,0,0,0,0,-1,552,1492,0,0
-665,-468,0,0,0,0,0,0,0,0,0,-1,559,1492,0,0
-658,-468,0,0,0,0,0,0,0,0,0,-1,566,1492,0,0
-651,-468,0,0,0,0,0,0,0,0,0,-1,573,1492,0,0
-644,-468,0,0,0,0,0,0,0,0,0,-1,580,1492,0,0
-637,-468,0,0,0,0,0,0,0,0,0,-1,587,1492,0,0
-630,-468,0,0,0,0,0,0,0,0,0,-1,594,1492,0,0
-623,-468,0,0,0,0,0,0,0,0,0,-1,601,1492,0,0
-616,-468,0,0,0,0,0,0,0,0,0,-1,608,1492,0,0
-609,-468,0,0,0,0,0,0,0,0,0,-1,615,1492,0,0
-602,-468,0,0,0,0,0,0,0,0,0,-1,622,1492,0,0
-595,-468,0,0,0,0,0,0,0,0,0,-1,629,1492,0,0
-588,-468,0,0,0,0,0,0,0,0,0,-1,636,1492,0,0
-581,-468,0,0,0,0,0,0,0,0,0,-1,643,1492,0,0
-574,-468,0,0,0,0,0,0,0,0,0,-1,650,1492,0,0
-567,-468,-0.0491333,0.895996,0,0,0,0,0,0,0,-1,657,1492,-0.0491181,-0.896051
-560,-468,-5.6272,2.02637,0,0,0,0,0,0,0,-1,664,1492,-5.62718,-2.02635
-553,-468,-3.87878,1.40747,0,0,0,0,0,0,0,-1,671,1492,-3.87878,-1.40751
-546,-468,-3.57996,2.07739,0.104187,-0.0172333,0.0575138,0.127104,-0.0401507,0.379185,0.100821,0.0460376,678,1492,-3.57996,-2.07736
-539,-468,-3.3443,2.65186,0.0868517,-0.0140544,0.0474927,0.105688,-0.0328911,0.377592,0.0836077,0.0441427,685,1492,-3.34428,-2.65185
-532,-468,-3.23743,3.07788,0.0704072,-0.0112454,0.037805,0.0852227,-0.0260609,0.373497,0.067208,0.0428495,692,1492,-3.23741,-3.07791
-525,-468,-1.27118,2.65344,0.0554258,-0.00880688,0.0290042,0.0665842,-0.0199653,0.367262,0.0523299,0.044504,699,1492,-1.27118,-2.65344
-518,-468,-1.26697,2.9873,0.0423132,-0.00687677,0.0214286,0.0503387,-0.0149023,0.358354,0.0394756,0.0442802,706,1492,-1.26696,-2.98732
-511,-468,-1.16327,3.23596,0.0309909,-0.00531412,0.0152151,0.0365242,-0.0108473,0.348797,0.0286579,0.0330621,713,1492,-1.16325,-3.23601
-504,-468,-1.23364,3.49731,0.0219365,-0.00414082,0.0102491,0.0254824,-0.00768679,0.33309,0.0200479,0.012554,720,1492,-1.23366,-3.49731
-497,-468,-1.25952,3.69531,0.0155201,-0.00340023,0.00654454,0.0175632,-0.00544336,0.302601,0.0138837,0.00818976,727,1492,-1.2595,-3.69533
-490,-468,-1.2547,3.87878,0.0100832,-0.00314396,0.00312038,0.0107823,-0.00384313,0.220423,0.00875509,0.00765131,734,1492,-1.25468,-3.87884
-483,-468,-1.27441,4.0481,0.00601356,-0.00243716,0.000875322,0.00610328,-0.00252688,0.102135,0.00512325,0.00809605,741,1492,-1.27444,-4.04809
-476,-468,-1.27148,4.2207,0.00351466,-0.00197968,-0.000455481,0.00355216,-0.00201719,-0.0821527,0.00325592,0.00850022,748,1492,-1.2715,-4.22068
-469,-468,-1.25354,4.41223,0.00198131,-0.00206572,-0.00113731,0.00227902,-0.00236343,-0.256023,0.00268047,0.0121264,755,1492,-1.25355,-4.41227
-462,-468,-1.23773,4.62378,0.00139687,-0.00200271,-0.00191893,0.00226058,-0.00286643,-0.42294,0.00296696,0.0222984,762,1492,-1.23771,-4.62383
-455,-468,-1.26294,4.78027,0.000878393,-0.00204393,-0.00272321,0.00250767,-0.00367321,-0.539165,0.00358962,0.0221894,769,1492,-1.26295,-4.78022
-448,-468,-1.2594,4.91211,0.000546197,-0.00263107,-0.00331252,0.00263133,-0.00471621,-0.561807,0.00429865,0.0132946,776,1492,-1.25941,-4.91214
-441,-468,-1.25085,5.08508,0.000293511,-0.00320574,-0.00412833,0.00302767,-0.00593989,-0.584967,0.00526764,0.0118771,783,1492,-1.25086,-5.08507
-434,-468,-1.23346,5.27051,0.000392501,-0.00446833,-0.00481087,0.00335202,-0.00742785,-0.551502,0.00637032,0.0115199,790,1492,-1.23344,-5.27049
-427,-468,-1.18951,5.40967,0.000552993,-0.0060984,-0.0055622,0.00370791,-0.00925331,-0.515958,0.00770809,0.0132447,797,1492,-1.18951,-5.40961
-420,-468,-1.09821,5.55505,0.000558565,-0.00781818,-0.00612003,0.00378621,-0.0110458,-0.485318,0.00889862,0.0248044,804,1492,-1.09818,-5.555
-413,-468,-0.999695,5.58508,0.000586703,-0.0101,-0.00658606,0.00372437,-0.0132376,-0.444598,0.0102936,0.0457946,811,1492,-0.999688,-5.58503
-406,-468,-0.758179,5.44543,0,0,0,0,0,0,0,-1,818,1492,-0.758184,-5.44546
-399,-468,-0.149414,5.91248,0,0,0,0,0,0,0,-1,825,1492,-0.149434,-5.9125
-392,-468,-0.57605,4.4917,0,0,0,0,0,0,0,-1,832,1492,-0.576029,-4.49169
-385,-468,0.465759,5.35864,0,0,0,0,0,0,0,-1,839,1492,0.465732,-5.35864
-378,-468,1.99835,3.25391,0,0,0,0,0,0,0,-1,846,1492,1.99837,-3.2539
-371,-468,-0.31842,3.1532,0,0,0,0,0,0,0,-1,853,1492,-0.318441,-3.15324
-364,-468,-0.966736,2.14563,0,0,0,0,0,0,0,-1,860,1492,-0.966735,-2.14557
-357,-468,-3.06787,3.22742,0,0,0,0,0,0,0,-1,867,1492,-3.06784,-3.2274
-350,-468,-3.18658,4.12659,0,0,0,0,0,0,0,-1,874,1492,-3.18659,-4.12658
-343,-468,0,0,0,0,0,0,0,0,0,-1,881,1492,0,0
-336,-468,0,0,0,0,0,0,0,0,0,-1,888,1492,0,0
-329,-468,0,0,0,0,0,0,0,0,0,-1,895,1492,0,0
-322,-468,0,0,0,0,0,0,0,0,0,-1,902,1492,0,0
-315,-468,0,0,0,0,0,0,0,0,0,-1,909,1492,0,0
-308,-468,0,0,0,0,0,0,0,0,0,-1,916,1492,0,0
-301,-468,0,0,0,0,0,0,0,0,0,-1,923,1492,0,0
-294,-468,0,0,0,0,0,0,0,0,0,-1,930,1492,0,0
-287,-468,0,0,0,0,0,0,0,0,0,-1,937,1492,0,0
-280,-468,0,0,0,0,0,0,0,0,0,-1,944,1492,0,0
-273,-468,0,0,0,0,0,0,0,0,0,-1,951,1492,0,0
-266,-468,0,0,0,0,0,0,0,0,0,-1,958,1492,0,0
-259,-468,0,0,0,0,0,0,0,0,0,-1,965,1492,0,0
-252,-468,0,0,0,0,0,0,0,0,0,-1,972,1492,0,0
-245,-468,0,0,0,0,0,0,0,0,0,-1,979,1492,0,0
-238,-468,0,0,0,0,0,0,0,0,0,-1,986,1492,0,0
-231,-468,0,0,0,0,0,0,0,0,0,-1,993,1492,0,0
-224,-468,0,0,0,0,0,0,0,0,0,-1,1000,1492,0,0
-217,-468,0,0,0,0,0,0,0,0,0,-1,1007,1492,0,0
-210,-468,0,0,0,0,0,0,0,0,0,-1,1014,1492,0,0
-203,-468,0,0,0,0,0,0,0,0,0,-1,1021,1492,0,0
-196,-468,0,0,0,0,0,0,0,0,0,-1,1028,1492,0,0
-189,-468,0,0,0,0,0,0,0,0,0,-1,1035,1492,0,0
-182,-468,0,0,0,0,0,0,0,0,0,-1,1042,1492,0,0
-175,-468,0,0,0,0,0,0,0,0,0,-1,1049,1492,0,0
-168,-468,0,0,0,0,0,0,0,0,0,-1,1056,1492,0,0
-161,-468,0,0,0,0,0,0,0,0,0,-1,1063,1492,0,0
-154,-468,0,0,0,0,0,0,0,0,0,-1,1070,1492,0,0
-147,-468,0,0,0,0,0,0,0,0,0,-1,1077,1492,0,0
-140,-468,0,0,0,0,0,0,0,0,0,-1,1084,1492,0,0
-133,-468,0,0,0,0,0,0,0,0,0,-1,1091,1492,0,0
-126,-468,0,0,0,0,0,0,0,0,0,-1,1098,1492,0,0
-119,-468,0,0,0,0,0,0,0,0,0,-1,1105,1492,0,0
-112,-468,0,0,0,0,0,0,0,0,0,-1,1112,1492,0,0
-105,-468,0,0,0,0,0,0,0,0,0,-1,1119,1492,0,0
-98,-468,0,0,0,0,0,0,0,0,0,-1,1126,1492,0,0
-91,-468,0,0,0,0,0,0,0,0,0,-1,1133,1492,0,0
-84,-468,0,0,0,0,0,0,0,0,0,-1,1140,1492,0,0
-77,-468,0,0,0,0,0,0,0,0,0,-1,1147,1492,0,0
-70,-468,0,0,0,0,0,0,0,0,0,-1,1154,1492,0,0
-63,-468,0,0,0,0,0,0,0,0,0,-1,1161,1492,0,0
-56,-468,0,0,0,0,0,0,0,0,0,-1,1168,1492,0,0
-49,-468,0,0,0,0,0,0,0,0,0,-1,1175,1492,0,0
-42,-468,0,0,0,0,0,0,0,0,0,-1,1182,1492,0,0
-35,-468,0,0,0,0,0,0,0,0,0,-1,1189,1492,0,0
-28,-468,0,0,0,0,0,0,0,0,0,-1,1196,1492,0,0
-21,-468,0,0,0,0,0,0,0,0,0,-1,1203,1492,0,0
-14,-468,0,0,0,0,0,0,0,0,0,-1,1210,1492,0,0
-7,-468,0,0,0,0,0,0,0,0,0,-1,1217,1492,0,0
0,-468,0,0,0,0,0,0,0,0,0,-1,1224,1492,0,0
7,-468,0,0,0,0,0,0,0,0,0,-1,1231,1492,0,0
14,-468,0,0,0,0,0,0,0,0,0,-1,1238,1492,0,0
21,-468,0,0,0,0,0,0,0,0,0,-1,1245,1492,0,0
28,-468,0,0,0,0,0,0,0,0,0,-1,1252,1492,0,0
35,-468,0,0,0,0,0,0,0,0,0,-1,1259,1492,0,0
42,-468,0,0,0,0,0,0,0,0,0,-1,1266,1492,0,0
49,-468,0,0,0,0,0,0,0,0,0,-1,1273,1492,0,0
56,-468,0,0,0,0,0,0,0,0,0,-1,1280,1492,0,0
63,-468,0,0,0,0,0,0,0,0,0,-1,1287,1492,0,0
70,-468,0,0,0,0,0,0,0,0,0,-1,1294,1492,0,0
77,-468,0,0,0,0,0,0,0,0,0,-1,1301,1492,0,0
84,-468,0,0,0,0,0,0,0,0,0,-1,1308,1492,0,0
91,-468,0,0,0,0,0,0,0,0,0,-1,1315,1492,0,0
98,-468,0,0,0,0,0,0,0,0,0,-1,1322,1492,0,0
105,-468,0,0,0,0,0,0,0,0,0,-1,1329,1492,0,0
112,-468,0,0,0,0,0,0,0,0,0,-1,1336,1492,0,0
119,-468,0,0,0,0,0,0,0,0,0,-1,1343,1492,0,0
126,-468,0,0,0,0,0,0,0,0,0,-1,1350,1492,0,0
133,-468,0,0,0,0,0,0,0,0,0,-1,1357,1492,0,0
140,-468,0,0,0,0,0,0,0,0,0,-1,1364,1492,0,0
147,-468,0,0,0,0,0,0,0,0,0,-1,1371,1492,0,0
154,-468,0,0,0,0,0,0,0,0,0,-1,1378,1492,0,0
161,-468,0,0,0,0,0,0,0,0,0,-1,1385,1492,0,0
168,-468,0,0,0,0,0,0,0,0,0,-1,1392,1492,0,0
175,-468,0,0,0,0,0,0,0,0,0,-1,1399,1492,0,0
182,-468,0,0,0,0,0,0,0,0,0,-1,1406,1492,0,0
189,-468,0,0,0,0,0,0,0,0,0,-1,1413,1492,0,0
196,-468,0,0,0,0,0,0,0,0,0,-1,1420,1492,0,0
203,-468,0,0,0,0,0,0,0,0,0,-1,1427,1492,0,0
210,-468,0,0,0,0,0,0,0,0,0,-1,1434,1492,0,0
217,-468,0,0,0,0,0,0,0,0,0,-1,1441,1492,0,0
224,-468,0,0,0,0,0,0,0,0,0,-1,1448,1492,0,0
231,-468,0,0,0,0,0,0,0,0,0,-1,1455,1492,0,0
238,-468,0,0,0,0,0,0,0,0,0,-1,1462,1492,0,0
245,-468,0,0,0,0,0,0,0,0,0,-1,1469,1492,0,0
252,-468,0,0,0,0,0,0,0,0,0,-1,1476,1492,0,0
259,-468,0,0,0,0,0,0,0,0,0,-1,1483,1492,0,0
266,-468,0,0,0,0,0,0,0,0,0,-1,1490,1492,0,0
273,-468,0,0,0,0,0,0,0,0,0,-1,1497,1492,0,0
280,-468,0,0,0,0,0,0,0,0,0,-1,1504,1492,0,0
287,-468,0,0,0,0,0,0,0,0,0,-1,1511,1492,0,0
294,-468,0,0,0,0,0,0,0,0,0,-1,1518,1492,0,0
301,-468,0,0,0,0,0,0,0,0,0,-1,1525,1492,0,0
308,-468,0,0,0,0,0,0,0,0,0,-1,1532,1492,0,0
315,-468,0,0,0,0,0,0,0,0,0,-1,1539,1492,0,0
322,-468,0,0,0,0,0,0,0,0,0,-1,1546,1492,0,0
329,-468,0,0,0,0,0,0,0,0,0,-1,1553,1492,0,0
336,-468,0,0,0,0,0,0,0,0,0,-1,1560,1492,0,0
343,-468,0,0,0,0,0,0,0,0,0,-1,1567,1492,0,0
350,-468,0,0,0,0,0,0,0,0,0,-1,1574,1492,0,0
357,-468,0,0,0,0,0,0,0,0,0,-1,1581,1492,0,0
364,-468,0,0,0,0,0,0,0,0,0,-1,1588,1492,0,0
371,-468,0,0,0,0,0,0,0,0,0,-1,1595,1492,0,0
378,-468,0,0,0,0,0,0,0,0,0,-1,1602,1492,0,0
385,-468,0,0,0,0,0,0,0,0,0,-1,1609,1492,0,0
392,-468,0,0,0,0,0,0,0,0,0,-1,1616,1492,0,0
399,-468,0,0,0,0,0,0,0,0,0,-1,1623,1492,0,0
406,-468,0,0,0,0,0,0,0,0,0,-1,1630,1492,0,0
413,-468,0,0,0,0,0,0,0,0,0,-1,1637,1492,0,0
420,-468,0,0,0,0,0,0,0,0,0,-1,1644,1492,0,0
427,-468,0,0,0,0,0,0,0,0,0,-1,1651,1492,0,0
434,-468,0,0,0,0,0,0,0,0,0,-1,1658,1492,0,0
441,-468,0,0,0,0,0,0,0,0,0,-1,1665,1492,0,0
448,-468,0,0,0,0,0,0,0,0,0,-1,1672,1492,0,0
455,-468,0,0,0,0,0,0,0,0,0,-1,1679,1492,0,0
462,-468,0,0,0,0,0,0,0,0,0,-1,1686,1492,0,0
469,-468,15.6879,1.2677,0,0,0,0,0,0,0,-1,1693,1492,15.6879,-1.26772
476,-468,14.9318,1.61865,-0.0525663,-0.127139,0.0303287,-0.041789,-0.137916,0.341431,0.0816597,0.0499291,1700,1492,14.9318,-1.61869
483,-468,14.1731,1.9281,-0.0639776,-0.107371,0.0341844,-0.0451858,-0.126163,0.502628,0.0738106,0.0461563,1707,1492,14.173,-1.92815
490,-468,13.1254,2.44275,-0.0690741,-0.0910229,0.0371412,-0.0413199,-0.118777,0.641746,0.069626,0.0437682,1714,1492,13.1254,-2.44272
497,-468,12.1724,3.12256,-0.0690463,-0.0776366,0.0387564,-0.0343478,-0.112335,0.730211,0.066468,0.0441582,1721,1492,12.1723,-3.12255
504,-468,11.4351,3.83447,-0.063993,-0.0663504,0.0390324,-0.0261216,-0.104222,0.770304,0.0626174,0.0442288,1728,1492,11.4351,-3.83446
511,-468,10.5009,4.36938,-0.0568643,-0.05627,0.0381701,-0.0183959,-0.0947383,0.789291,0.0580075,0.0444494,1735,1492,10.5008,-4.36935
518,-468,9.69836,4.71045,-0.0489061,-0.0475789,0.0364229,-0.0118136,-0.0846715,0.794507,0.0529509,0.0419091,1742,1492,9.69835,-4.71049
525,-468,9.44836,5.51025,-0.0416893,-0.0397538,0.0340851,-0.00662272,-0.0748203,0.79959,0.0478257,0.0448522,1749,1492,9.44831,-5.51021
532,-468,8.92566,6.34497,0,0,0,0,0,0,0,-1,1756,1492,8.92565,-6.34493
539,-468,8.505,6.41125,-0.0269365,-0.0249611,0.0289152,0.00298321,-0.0548808,0.80247,0.0376211,0.0477158,1763,1492,8.50499,-6.4112
546,-468,8.34607,6.69348,-0.0188037,-0.019734,0.0252372,0.00597259,-0.0445103,0.776183,0.0318516,0.0470621,1770,1492,8.34601,-6.69346
553,-468,8.59143,6.74756,-0.0119536,-0.0161196,0.0207449,0.0068126,-0.0348859,0.735361,0.0258293,0.0334844,1777,1492,8.59143,-6.74752
560,-468,8.46472,6.724,-0.00734916,-0.0126226,0.0166802,0.00690141,-0.0268732,0.707009,0.0206049,0.0177179,1784,1492,8.46467,-6.72403
567,-468,8.40588,6.61865,-0.0041067,-0.00962285,0.0129441,0.00636992,-0.0200995,0.68043,0.0159527,0.0136371,1791,1492,8.40587,-6.61861
574,-468,8.40723,6.45374,-0.00223631,-0.00708798,0.00961717,0.00525626,-0.0145806,0.661855,0.011867,0.0134064,1798,1492,8.40728,-6.45371
581,-468,8.41467,6.30505,-0.00173944,-0.00506924,0.00699056,0.00378174,-0.0105904,0.668494,0.00860255,0.012921,1805,1492,8.41465,-6.30509
588,-468,8.41357,6.16016,-0.00197119,-0.00328905,0.00483757,0.00225211,-0.00751236,0.717709,0.0059039,0.0109171,1812,1492,8.41352,-6.16018
595,-468,8.41833,6.00928,-0.00230751,-0.00126019,0.00280503,0.00106964,-0.00463735,0.877679,0.00350298,0.00939589,1819,1492,8.41839,-6.00923
602,-468,8.42944,5.86743,-0.00283857,0.00060594,0.000996805,0.000873605,-0.00310624,1.30846,0.00241528,0.00838331,1826,1492,8.42946,-5.86738
609,-468,8.42297,5.70667,-0.00368726,0.00268377,-0.000861103,0.0027981,-0.0038016,-1.43879,0.00382499,0.00918554,1833,1492,8.42294,-5.70666
616,-468,8.4198,5.55798,-0.00486177,0.00465949,-0.00246881,0.00526157,-0.00546384,-1.33159,0.00619269,0.00972999,1840,1492,8.41976,-5.55795
623,-468,8.42224,5.41406,-0.00644676,0.00734356,-0.0040041,0.00842185,-0.00752506,-1.30774,0.0092118,0.010577,1847,1492,8.42222,-5.41411
630,-468,8.43921,5.24866,-0.00869263,0.0101029,-0.00570965,0.0117014,-0.0102911,-1.29782,0.0127061,0.0110624,1854,1492,8.43916,-5.24863
637,-468,8.44629,5.09546,-0.0112745,0.0130357,-0.00750879,0.015168,-0.0134067,-1.29411,0.016508,0.0145461,1861,1492,8.44624,-5.09548
644,-468,8.42212,4.97498,-0.0144675,0.0162829,-0.00943182,0.0189453,-0.0171299,-1.29567,0.0208368,0.0263768,1868,1492,8.42217,-4.97493
651,-468,8.58252,4.68958,-0.0183453,0.0199176,-0.0115139,0.0231151,-0.0215428,-1.29991,0.0257886,0.0431727,1875,1492,8.58254,-4.68963
658,-468,8.82397,4.26233,0,0,0,0,0,0,0,-1,1882,1492,8.82393,-4.26237
665,-468,8.7428,5.10925,0,0,0,0,0,0,0,-1,1889,1492,8.7428,-5.10931
672,-468,8.50745,4.37378,0,0,0,0,0,0,0,-1,1896,1492,8.50749,-4.3738
679,-468,11.2191,1.91968,0,0,0,0,0,0,0,-1,1903,1492,11.2191,-1.91965
686,-468,11.9252,1.42285,0,0,0,0,0,0,0,-1,1910,1492,11.9252,-1.42291
693,-468,0,0,0,0,0,0,0,0,0,-1,1917,1492,0,0
700,-468,0,0,0,0,0,0,0,0,0,-1,1924,1492,0,0
707,-468,0,0,0,0,0,0,0,0,0,-1,1931,1492,0,0
714,-468,0,0,0,0,0,0,0,0,0,-1,1938,1492,0,0
721,-468,0,0,0,0,0,0,0,0,0,-1,1945,1492,0,0
728,-468,0,0,0,0,0,0,0,0,0,-1,1952,1492,0,0
735,-468,0,0,0,0,0,0,0,0,0,-1,1959,1492,0,0
742,-468,0,0,0,0,0,0,0,0,0,-1,1966,1492,0,0
749,-468,0,0,0,0,0,0,0,0,0,-1,1973,1492,0,0
756,-468,0,0,0,0,0,0,0,0,0,-1,1980,1492,0,0
763,-468,0,0,0,0,0,0,0,0,0,-1,1987,1492,0,0
770,-468,0,0,0,0,0,0,0,0,0,-1,1994,1492,0,0
777,-468,0,0,0,0,0,0,0,0,0,-1,2001,1492,0,0
784,-468,0,0,0,0,0,0,0,0,0,-1,2008,1492,0,0
791,-468,0,0,0,0,0,0,0,0,0,-1,2015,1492,0,0
798,-468,0,0,0,0,0,0,0,0,0,-1,2022,1492,0,0
805,-468,0,0,0,0,0,0,0,0,0,-1,2029,1492,0,0
812,-468,0,0,0,0,0,0,0,0,0,-1,2036,1492,0,0
-700,-475,0,0,0,0,0,0,0,0,0,-1,524,1499,0,0
-693,-475,0,0,0,0,0,0,0,0,0,-1,531,1499,0,0
-686,-475,0,0,0,0,0,0,0,0,0,-1,538,1499,0,0
-679,-475,0,0,0,0,0,0,0,0,0,-1,545,1499,0,0
-672,-475,0,0,0,0,0,0,0,0,0,-1,552,1499,0,0
-665,-475,0,0,0,0,0,0,0,0,0,-1,559,1499,0,0
-658,-475,0,0,0,0,0,0,0,0,0,-1,566,1499,0,0
-651,-475,0,0,0,0,0,0,0,0,0,-1,573,1499,0,0
-644,-475,0,0,0,0,0,0,0,0,0,-1,580,1499,0,0
-637,-475,0,0,0,0,0,0,0,0,0,-1,587,1499,0,0
-630,-475,0,0,0,0,0,0,0,0,0,-1,594,1499,0,0
-623,-475,0,0,0,0,0,0,0,0,0,-1,601,1499,0,0
-616,-475,0,0,0,0,0,0,0,0,0,-1,608,1499,0,0
-609,-475,0,0,0,0,0,0,0,0,0,-1,615,1499,0,0
-602,-475,0,0,0,0,0,0,0,0,0,-1,622,1499,0,0
-595,-475,0,0,0,0,0,0,0,0,0,-1,629,1499,0,0
-588,-475,0,0,0,0,0,0,0,0,0,-1,636,1499,0,0
-581,-475,0,0,0,0,0,0,0,0,0,-1,643,1499,0,0
-574,-475,0,0,0,0,0,0,0,0,0,-1,650,1499,0,0
-567,-475,0,0,0,0,0,0,0,0,0,-1,657,1499,0,0
-560,-475,-2.45673,0.628418,0,0,0,0,0,0,0,-1,664,1499,-2.45673,-0.628446
-553,-475,-4.94659,1.31543,0,0,0,0,0,0,0,-1,671,1499,-4.94657,-1.31543
-546,-475,-4.56165,2.04224,0.11544,-0.0226303,0.0655466,0.141601,-0.0487908,0.379741,0.114193,0.0445795,678,1499,-4.56164,-2.04222
-539,-475,-3.47778,3.05933,0.0972115,-0.0188373,0.0537434,0.118277,-0.0399026,0.373557,0.0949881,0.0404624,685,1499,-3.4778,-3.05927
-532,-475,-3.40503,3.46619,0,0,0,0,0,0,0,-1,692,1499,-3.40504,-3.46618
-525,-475,-0.797668,2.27808,0,0,0,0,0,0,0,-1,699,1499,-0.797687,-2.27804
-518,-475,-1.08179,2.86951,0,0,0,0,0,0,0,-1,706,1499,-1.08182,-2.86952
-511,-475,-1.34137,3.2594,0.0359064,-0.00710206,0.0164867,0.0414991,-0.0126948,0.327043,0.0327289,0.0481488,713,1499,-1.34139,-3.25942
-504,-475,-1.0871,3.52063,0.0256475,-0.00550512,0.0108477,0.0290526,-0.00891023,0.304161,0.0229232,0.0262548,720,1499,-1.08711,-3.52065
-497,-475,-1.09448,3.70813,0.0182151,-0.00441827,0.00667946,0.0200393,-0.00624245,0.266602,0.0158554,0.0122226,727,1499,-1.09449,-3.70812
-490,-475,-1.08887,3.87805,0.0119991,-0.00378963,0.00291026,0.0125184,-0.00430898,0.176597,0.0100933,0.00852599,734,1499,-1.08889,-3.87811
-483,-475,-1.08441,4.07837,0.00746441,-0.00275936,0.000674334,0.0075087,-0.00280365,0.0655788,0.00615694,0.00882443,741,1499,-1.08438,-4.0784
-476,-475,-1.08643,4.22754,0.00470948,-0.00215929,-0.000462067,0.00474043,-0.00219024,-0.0668691,0.00409072,0.010034,748,1499,-1.08643,-4.22752
-469,-475,-1.07928,4.39587,0.00303331,-0.00207836,-0.000862246,0.00317484,-0.00221989,-0.162687,0.00313087,0.0114791,755,1499,-1.07931,-4.39583
-462,-475,-1.05829,4.59143,0.00236427,-0.00190141,-0.00135136,0.00275634,-0.00229348,-0.282378,0.0029196,0.0152286,762,1499,-1.05826,-4.59142
-455,-475,-1.06909,4.75903,0.00180207,-0.00188832,-0.00182738,0.00255381,-0.00264006,-0.390274,0.00299882,0.0135032,769,1499,-1.06908,-4.759
-448,-475,-1.09235,4.92383,0.00149497,-0.00247221,-0.00207636,0.00238294,-0.00336019,-0.404121,0.00333176,0.0120479,776,1499,-1.09236,-4.92382
-441,-475,-1.09631,5.10779,0.00121883,-0.00303843,-0.00252474,0.00239252,-0.00421213,-0.435158,0.00386113,0.0152478,783,1499,-1.09631,-5.10778
-434,-475,-1.08234,5.24585,0.00133398,-0.00435411,-0.00276255,0.00245482,-0.00547494,-0.385432,0.00468763,0.0102976,790,1499,-1.08232,-5.24584
-427,-475,-1.04883,5.43591,0.00156756,-0.00603631,-0.00305058,0.00264013,-0.00710888,-0.338094,0.00582236,0.012143,797,1499,-1.04881,-5.43597
-420,-475,-0.996033,5.61011,0.00163943,-0.00779102,-0.00318716,0.00261554,-0.00876713,-0.297194,0.00688426,0.0173417,804,1499,-0.996044,-5.6101
-413,-475,-0.824646,5.56055,0.00163799,-0.0100463,-0.00334057,0.00252563,-0.0109339,-0.259715,0.00826088,0.0336205,811,1499,-0.824676,-5.56052
-406,-475,-0.511169,5.47534,0.00165885,-0.012694,-0.00306527,0.00228608,-0.0133213,-0.201837,0.00973277,0.0492119,818,1499,-0.511166,-5.47535
-399,-475,-0.243652,5.1322,0.00151101,-0.0156633,-0.00234833,0.00182632,-0.0159786,-0.133472,0.0113104,0.049135,825,1499,-0.243647,-5.13219
-392,-475,-0.156494,4.77075,0,0,0,0,0,0,0,-1,832,1499,-0.156467,-4.77075
-385,-475,1.18372,2.73999,0,0,0,0,0,0,0,-1,839,1499,1.18372,-2.73995
-378,-475,1.31409,2.90149,0,0,0,0,0,0,0,-1,846,1499,1.31411,-2.90151
-371,-475,2.3476,3.31116,0,0,0,0,0,0,0,-1,853,1499,2.34761,-3.31121
-364,-475,1.04462,9.05823,0,0,0,0,0,0,0,-1,860,1499,1.04461,-9.05825
-357,-475,-0.262756,7.97205,0,0,0,0,0,0,0,-1,867,1499,-0.262784,-7.97205
-350,-475,-2.77173,4.35486,0,0,0,0,0,0,0,-1,874,1499,-2.77175,-4.35491
-343,-475,-6.81641,-1.95203,0,0,0,0,0,0,0,-1,881,1499,-6.81643,1.95198
-336,-475,0,0,0,0,0,0,0,0,0,-1,888,1499,0,0
-329,-475,0,0,0,0,0,0,0,0,0,-1,895,1499,0,0
-322,-475,0,0,0,0,0,0,0,0,0,-1,902,1499,0,0
-315,-475,0,0,0,0,0,0,0,0,0,-1,909,1499,0,0
-308,-475,0,0,0,0,0,0,0,0,0,-1,916,1499,0,0
-301,-475,0,0,0,0,0,0,0,0,0,-1,923,1499,0,0
-294,-475,0,0,0,0,0,0,0,0,0,-1,930,1499,0,0
-287,-475,0,0,0,0,0,0,0,0,0,-1,937,1499,0,0
-280,-475,0,0,0,0,0,0,0,0,0,-1,944,1499,0,0
-273,-475,0,0,0,0,0,0,0,0,0,-1,951,1499,0,0
-266,-475,0,0,0,0,0,0,0,0,0,-1,958,1499,0,0
-259,-475,0,0,0,0,0,0,0,0,0,-1,965,1499,0,0
-252,-475,0,0,0,0,0,0,0,0,0,-1,972,1499,0,0
-245,-475,0,0,0,0,0,0,0,0,0,-1,979,1499,0,0
-238,-475,0,0,0,0,0,0,0,0,0,-1,986,1499,0,0
-231,-475,0,0,0,0,0,0,0,0,0,-1,993,1499,0,0
-224,-475,0,0,0,0,0,0,0,0,0,-1,1000,1499,0,0
-217,-475,0,0,0,0,0,0,0,0,0,-1,1007,1499,0,0
-210,-475,0,0,0,0,0,0,0,0,0,-1,1014,1499,0,0
-203,-475,0,0,0,0,0,0,0,0,0,-1,1021,1499,0,0
-196,-475,0,0,0,0,0,0,0,0,0,-1,1028,1499,0,0
-189,-475,0,0,0,0,0,0,0,0,0,-1,1035,1499,0,0
-182,-475,0,0,0,0,0,0,0,0,0,-1,1042,1499,0,0
-175,-475,0,0,0,0,0,0,0,0,0,-1,1049,1499,0,0
-168,-475,0,0,0,0,0,0,0,0,0,-1,1056,1499,0,0
-161,-475,0,0,0,0,0,0,0,0,0,-1,1063,1499,0,0
-154,-475,0,0,0,0,0,0,0,0,0,-1,1070,1499,0,0
-147,-475,0,0,0,0,0,0,0,0,0,-1,1077,1499,0,0
-140,-475,0,0,0,0,0,0,0,0,0,-1,1084,1499,0,0
-133,-475,0,0,0,0,0,0,0,0,0,-1,1091,1499,0,0
-126,-475,0,0,0,0,0,0,0,0,0,-1,1098,1499,0,0
-119,-475,0,0,0,0,0,0,0,0,0,-1,1105,1499,0,0
-112,-475,0,0,0,0,0,0,0,0,0,-1,1112,1499,0,0
-105,-475,0,0,0,0,0,0,0,0,0,-1,1119,1499,0,0
-98,-475,0,0,0,0,0,0,0,0,0,-1,1126,1499,0,0
-91,-475,0,0,0,0,0,0,0,0,0,-1,1133,1499,0,0
-84,-475,0,0,0,0,0,0,0,0,0,-1,1140,1499,0,0
-77,-475,0,0,0,0,0,0,0,0,0,-1,1147,1499,0,0
-70,-475,0,0,0,0,0,0,0,0,0,-1,1154,1499,0,0
-63,-475,0,0,0,0,0,0,0,0,0,-1,1161,1499,0,0
-56,-475,0,0,0,0,0,0,0,0,0,-1,1168,1499,0,0
-49,-475,0,0,0,0,0,0,0,0,0,-1,1175,1499,0,0
-42,-475,0,0,0,0,0,0,0,0,0,-1,1182,1499,0,0
-35,-475,0,0,0,0,0,0,0,0,0,-1,1189,1499,0,0
-28,-475,0,0,0,0,0,0,0,0,0,-1,1196,1499,0,0
-21,-475,0,0,0,0,0,0,0,0,0,-1,1203,1499,0,0
-14,-475,0,0,0,0,0,0,0,0,0,-1,1210,1499,0,0
-7,-475,0,0,0,0,0,0,0,0,0,-1,1217,1499,0,0
0,-475,0,0,0,0,0,0,0,0,0,-1,1224,1499,0,0
7,-475,0,0,0,0,0,0,0,0,0,-1,1231,1499,0,0
14,-475,0,0,0,0,0,0,0,0,0,-1,1238,1499,0,0
21,-475,0,0,0,0,0,0,0,0,0,-1,1245,1499,0,0
28,-475,0,0,0,0,0,0,0,0,0,-1,1252,1499,0,0
35,-475,0,0,0,0,0,0,0,0,0,-1,1259,1499,0,0
42,-475,0,0,0,0,0,0,0,0,0,-1,1266,1499,0,0
49,-475,0,0,0,0,0,0,0,0,0,-1,1273,1499,0,0
56,-475,0,0,0,0,0,0,0,0,0,-1,1280,1499,0,0
63,-475,0,0,0,0,0,0,0,0,0,-1,1287,1499,0,0
70,-475,0,0,0,0,0,0,0,0,0,-1,1294,1499,0,0
77,-475,0,0,0,0,0,0,0,0,0,-1,1301,1499,0,0
84,-475,0,0,0,0,0,0,0,0,0,-1,1308,1499,0,0
91,-475,0,0,0,0,0,0,0,0,0,-1,1315,1499,0,0
98,-475,0,0,0,0,0,0,0,0,0,-1,1322,1499,0,0
105,-475,0,0,0,0,0,0,0,0,0,-1,1329,1499,0,0
112,-475,0,0,0,0,0,0,0,0,0,-1,1336,1499,0,0
119,-475,0,0,0,0,0,0,0,0,0,-1,1343,1499,0,0
126,-475,0,0,0,0,0,0,0,0,0,-1,1350,1499,0,0
133,-475,0,0,0,0,0,0,0,0,0,-1,1357,1499,0,0
140,-475,0,0,0,0,0,0,0,0,0,-1,1364,1499,0,0
147,-475,0,0,0,0,0,0,0,0,0,-1,1371,1499,0,0
154,-475,0,0,0,0,0,0,0,0,0,-1,1378,1499,0,0
161,-475,0,0,0,0,0,0,0,0,0,-1,1385,1499,0,0
168,-475,0,0,0,0,0,0,0,0,0,-1,1392,1499,0,0
175,-475,0,0,0,0,0,0,0,0,0,-1,1399,1499,0,0
182,-475,0,0,0,0,0,0,0,0,0,-1,1406,1499,0,0
189,-475,0,0,0,0,0,0,0,0,0,-1,1413,1499,0,0
196,-475,0,0,0,0,0,0,0,0,0,-1,1420,1499,0,0
203,-475,0,0,0,0,0,0,0,0,0,-1,1427,1499,0,0
210,-475,0,0,0,0,0,0,0,0,0,-1,1434,1499,0,0
217,-475,0,0,0,0,0,0,0,0,0,-1,1441,1499,0,0
224,-475,0,0,0,0,0,0,0,0,0,-1,1448,1499,0,0
231,-475,0,0,0,0,0,0,0,0,0,-1,1455,1499,0,0
238,-475,0,0,0,0,0,0,0,0,0,-1,1462,1499,0,0
245,-475,0,0,0,0,0,0,0,0,0,-1,1469,1499,0,0
252,-475,0,0,0,0,0,0,0,0,0,-1,1476,1499,0,0
259,-475,0,0,0,0,0,0,0,0,0,-1,1483,1499,0,0
266,-475,0,0,0,0,0,0,0,0,0,-1,1490,1499,0,0
273,-475,0,0,0,0,0,0,0,0,0,-1,1497,1499,0,0
280,-475,0,0,0,0,0,0,0,0,0,-1,1504,1499,0,0
287,-475,0,0,0,0,0,0,0,0,0,-1,1511,1499,0,0
294,-475,0,0,0,0,0,0,0,0,0,-1,1518,1499,0,0
301,-475,0,0,0,0,0,0,0,0,0,-1,1525,1499,0,0
308,-475,0,0,0,0,0,0,0,0,0,-1,1532,1499,0,0
315,-475,0,0,0,0,0,0,0,0,0,-1,1539,1499,0,0
322,-475,0,0,0,0,0,0,0,0,0,-1,1546,1499,0,0
329,-475,0,0,0,0,0,0,0,0,0,-1,1553,1499,0,0
336,-475,0,0,0,0,0,0,0,0,0,-1,1560,1499,0,0
343,-475,0,0,0,0,0,0,0,0,0,-1,1567,1499,0,0
350,-475,0,0,0,0,0,0,0,0,0,-1,1574,1499,0,0
357,-475,0,0,0,0,0,0,0,0,0,-1,1581,1499,0,0
364,-475,0,0,0,0,0,0,0,0,0,-1,1588,1499,0,0
371,-475,0,0,0,0,0,0,0,0,0,-1,1595,1499,0,0
378,-475,0,0,0,0,0,0,0,0,0,-1,1602,1499,0,0
385,-475,0,0,0,0,0,0,0,0,0,-1,1609,1499,0,0
392,-475,0,0,0,0,0,0,0,0,0,-1,1616,1499,0,0
399,-475,0,0,0,0,0,0,0,0,0,-1,1623,1499,0,0
406,-475,0,0,0,0,0,0,0,0,0,-1,1630,1499,0,0
413,-475,0,0,0,0,0,0,0,0,0,-1,1637,1499,0,0
420,-475,0,0,0,0,0,0,0,0,0,-1,1644,1499,0,0
427,-475,0,0,0,0,0,0,0,0,0,-1,1651,1499,0,0
434,-475,0,0,0,0,0,0,0,0,0,-1,1658,1499,0,0
441,-475,0,0,0,0,0,0,0,0,0,-1,1665,1499,0,0
448,-475,0,0,0,0,0,0,0,0,0,-1,1672,1499,0,0
455,-475,0,0,0,0,0,0,0,0,0,-1,1679,1499,0,0
462,-475,12.6372,0.275391,0,0,0,0,0,0,0,-1,1686,1499,12.6372,-0.27536
469,-475,15.6437,2.28296,0,0,0,0,0,0,0,-1,1693,1499,15.6437,-2.28293
476,-475,15.3302,2.71436,-0.034872,-0.127459,0.0291941,-0.0264354,-0.135895,0.281319,0.0831971,0.047283,1700,1499,15.3303,-2.7143
483,-475,14.7006,2.77881,-0.0487401,-0.106383,0.031817,-0.0346314,-0.120492,0.41738,0.071631,0.0437038,1707,1499,14.7005,-2.77885
490,-475,13.5007,3.28528,-0.0566014,-0.0893133,0.0337489,-0.035454,-0.110461,0.559758,0.0651231,0.0432357,1714,1499,13.5008,-3.28531
497,-475,12.4313,3.86108,-0.0595192,-0.075751,0.03458,-0.0321155,-0.103155,0.670135,0.0609533,0.0469403,1721,1499,12.4313,-3.86106
504,-475,11.4489,4.43018,-0.0573313,-0.0645091,0.0343787,-0.0263547,-0.0954857,0.733389,0.0569428,0.0442657,1728,1499,11.4489,-4.43017
511,-475,9.87744,4.6604,0,0,0,0,0,0,0,-1,1735,1499,9.87747,-4.66038
518,-475,9.35559,5.23865,-0.046041,-0.0462347,0.0313381,-0.0147996,-0.0774761,0.783853,0.0474925,0.0443661,1742,1499,9.35561,-5.23863
525,-475,9.11353,5.89807,-0.0400312,-0.0384552,0.0289135,-0.010319,-0.0681674,0.799021,0.0424257,0.0461321,1749,1499,9.11349,-5.89812
532,-475,8.78735,6.58948,-0.0337728,-0.030426,0.026718,-0.00532906,-0.0588698,0.816673,0.0375963,0.0467312,1756,1499,8.78734,-6.58943
539,-475,8.52454,6.69177,-0.0264862,-0.0237501,0.0237382,-0.00134055,-0.0488957,0.814182,0.0321596,0.045696,1763,1499,8.52453,-6.69174
546,-475,8.3844,6.85107,-0.0185964,-0.0186915,0.0202436,0.00159978,-0.0388876,0.784224,0.0264745,0.039572,1770,1499,8.38443,-6.85107
553,-475,8.37244,6.85669,-0.0119798,-0.01516,0.0162074,0.00271537,-0.0298551,0.736499,0.0208675,0.0201084,1777,1499,8.37246,-6.85666
560,-475,8.23657,6.77271,-0.00734115,-0.0116754,0.0127531,0.00342766,-0.0224442,0.701237,0.0162265,0.0141125,1784,1499,8.23657,-6.77267
567,-475,8.2666,6.62366,-0.00413571,-0.00861506,0.00963358,0.00351511,-0.0162659,0.671184,0.0121858,0.0142701,1791,1499,8.26659,-6.62367
574,-475,8.27234,6.48279,-0.00220907,-0.00599295,0.00688679,0.00304092,-0.0112429,0.651345,0.00868818,0.0144519,1798,1499,8.27236,-6.48278
581,-475,8.26208,6.33264,-0.0016076,-0.00386439,0.00473876,0.00213526,-0.00760725,0.668515,0.00591319,0.0108818,1805,1499,8.26208,-6.33268
588,-475,8.25793,6.17126,-0.00183355,-0.00177509,0.0028942,0.00109003,-0.00469867,0.790447,0.00355198,0.00889435,1812,1499,8.25793,-6.17121
595,-475,8.28845,6.02026,-0.00235625,0.000630709,0.000934082,0.00089876,-0.0026243,1.29134,0.0021138,0.0100591,1819,1499,8.2885,-6.02024
602,-475,8.29797,5.85388,-0.00315857,0.00281702,-0.000848571,0.00293519,-0.00327674,-1.43243,0.00358826,0.0113541,1826,1499,8.29792,-5.85383
609,-475,8.27454,5.70398,-0.00444916,0.00531399,-0.0027769,0.00604855,-0.00518371,-1.3122,0.00649135,0.0110329,1833,1499,8.27449,-5.70395
616,-475,8.25427,5.57776,-0.00619473,0.00784342,-0.00463628,0.00923639,-0.0075877,-1.27893,0.00972893,0.0111085,1840,1499,8.25428,-5.57775
623,-475,8.26489,5.41431,-0.00845522,0.0111981,-0.00663773,0.0132299,-0.010487,-1.27376,0.0137234,0.0105708,1847,1499,8.26486,-5.41434
630,-475,8.29114,5.24316,-0.011487,0.0148447,-0.00898342,0.0176175,-0.0142599,-1.27141,0.0184384,0.0119357,1854,1499,8.29112,-5.24319
637,-475,8.28503,5.09802,-0.0150378,0.0189554,-0.0116367,0.0225572,-0.0186396,-1.27062,0.0238209,0.024455,1861,1499,8.28501,-5.09804
644,-475,8.2865,4.91809,0,0,0,0,0,0,0,-1,1868,1499,8.28651,-4.91813
651,-475,8.53638,4.7865,0,0,0,0,0,0,0,-1,1875,1499,8.53642,-4.78651
658,-475,9.47241,4.27393,0,0,0,0,0,0,0,-1,1882,1499,9.47244,-4.27392
665,-475,9.05029,5.83496,0,0,0,0,0,0,0,-1,1889,1499,9.05029,-5.8349
672,-475,9.38635,1.10474,0,0,0,0,0,0,0,-1,1896,1499,9.38629,-1.10475
679,-475,12.2594,1.31079,0,0,0,0,0,0,0,-1,1903,1499,12.2594,-1.31077
686,-475,0,0,0,0,0,0,0,0,0,-1,1910,1499,0,0
693,-475,0,0,0,0,0,0,0,0,0,-1,1917,1499,0,0
700,-475,0,0,0,0,0,0,0,0,0,-1,1924,1499,0,0
707,-475,0,0,0,0,0,0,0,0,0,-1,1931,1499,0,0
714,-475,0,0,0,0,0,0,0,0,0,-1,1938,1499,0,0
721,-475,0,0,0,0,0,0,0,0,0,-1,1945,1499,0,0
728,-475,0,0,0,0,0,0,0,0,0,-1,1952,1499,0,0
735,-475,0,0,0,0,0,0,0,0,0,-1,1959,1499,0,0
742,-475,0,0,0,0,0,0,0,0,0,-1,1966,1499,0,0
749,-475,0,0,0,0,0,0,0,0,0,-1,1973,1499,0,0
756,-475,0,0,0,0,0,0,0,0,0,-1,1980,1499,0,0
763,-475,0,0,0,0,0,0,0,0,0,-1,1987,1499,0,0
770,-475,0,0,0,0,0,0,0,0,0,-1,1994,1499,0,0
777,-475,0,0,0,0,0,0,0,0,0,-1,2001,1499,0,0
784,-475,0,0,0,0,0,0,0,0,0,-1,2008,1499,0,0
791,-475,0,0,0,0,0,0,0,0,0,-1,2015,1499,0,0
798,-475,0,0,0,0,0,0,0,0,0,-1,2022,1499,0,0
805,-475,0,0,0,0,0,0,0,0,0,-1,2029,1499,0,0
812,-475,0,0,0,0,0,0,0,0,0,-1,2036,1499,0,0
-700,-482,0,0,0,0,0,0,0,0,0,-1,524,1506,0,0
-693,-482,0,0,0,0,0,0,0,0,0,-1,531,1506,0,0
-686,-482,0,0,0,0,0,0,0,0,0,-1,538,1506,0,0
-679,-482,0,0,0,0,0,0,0,0,0,-1,545,1506,0,0
-672,-482,0,0,0,0,0,0,0,0,0,-1,552,1506,0,0
-665,-482,0,0,0,0,0,0,0,0,0,-1,559,1506,0,0
-658,-482,0,0,0,0,0,0,0,0,0,-1,566,1506,0,0
-651,-482,0,0,0,0,0,0,0,0,0,-1,573,1506,0,0
-644,-482,0,0,0,0,0,0,0,0,0,-1,580,1506,0,0
-637,-482,0,0,0,0,0,0,0,0,0,-1,587,1506,0,0
-630,-482,0,0,0,0,0,0,0,0,0,-1,594,1506,0,0
-623,-482,0,0,0,0,0,0,0,0,0,-1,601,1506,0,0
-616,-482,0,0,0,0,0,0,0,0,0,-1,608,1506,0,0
-609,-482,0,0,0,0,0,0,0,0,0,-1,615,1506,0,0
-602,-482,0,0,0,0,0,0,0,0,0,-1,622,1506,0,0
-595,-482,0,0,0,0,0,0,0,0,0,-1,629,1506,0,0
-588,-482,0,0,0,0,0,0,0,0,0,-1,636,1506,0,0
-581,-482,0,0,0,0,0,0,0,0,0,-1,643,1506,0,0
-574,-482,0,0,0,0,0,0,0,0,0,-1,650,1506,0,0
-567,-482,0,0,0,0,0,0,0,0,0,-1,657,1506,0,0
-560,-482,0,0,0,0,0,0,0,0,0,-1,664,1506,0,0
-553,-482,-0.766541,-2.18811,0,0,0,0,0,0,0,-1,671,1506,-0.76653,2.18805
-546,-482,-5.58191,2.00403,0,0,0,0,0,0,0,-1,678,1506,-5.58192,-2.00408
-539,-482,-3.53082,3.32556,0,0,0,0,0,0,0,-1,685,1506,-3.5308,-3.32554
-532,-482,-2.6084,4.31372,0,0,0,0,0,0,0,-1,692,1506,-2.60837,-4.31371
-525,-482,-0.228027,1.82605,0,0,0,0,0,0,0,-1,699,1506,-0.228042,-1.82602
-518,-482,-2.65759,3.80518,0,0,0,0,0,0,0,-1,706,1506,-2.6576,-3.80514
-511,-482,-1.64478,3.59692,0,0,0,0,0,0,0,-1,713,1506,-1.64479,-3.5969
-504,-482,-1.22998,3.65625,0.0294472,-0.00643097,0.0108585,0.0324776,-0.00946135,0.272154,0.0253999,0.0403081,720,1506,-1.22999,-3.65627
-497,-482,-0.873291,3.66602,0.0210062,-0.00493241,0.00628,0.0224467,-0.00637287,0.225472,0.0174804,0.0221039,727,1506,-0.873303,-3.66597
-490,-482,-0.906921,3.84216,0.0139659,-0.00392332,0.00222125,0.0142376,-0.004195,0.121705,0.0111561,0.0133291,734,1506,-0.906944,-3.84214
-483,-482,-0.90448,4.04785,0.00890455,-0.00259263,4.08096e-05,0.0089047,-0.00259278,0.00354947,0.00696352,0.00883463,741,1506,-0.904492,-4.04787
-476,-482,-0.912231,4.20996,0.00580887,-0.00189158,-0.000904009,0.00591357,-0.00199629,-0.115308,0.00474977,0.0102283,748,1506,-0.912215,-4.20999
-469,-482,-0.914917,4.39636,0.0038789,-0.00175085,-0.00103265,0.00406234,-0.00193429,-0.175805,0.00353407,0.0113254,755,1506,-0.914887,-4.39638
-462,-482,-0.909851,4.55017,0.00299509,-0.0016129,-0.0012338,0.00330465,-0.00192246,-0.245823,0.00305284,0.0117094,762,1506,-0.909849,-4.55022
-455,-482,-0.912537,4.71338,0.00228345,-0.00171879,-0.00139325,0.00272069,-0.00215604,-0.304097,0.00282186,0.0115591,769,1506,-0.912554,-4.71338
-448,-482,-0.913147,4.92737,0.00191093,-0.00245615,-0.00133535,0.00228688,-0.0028321,-0.274436,0.00296103,0.0119474,776,1506,-0.913125,-4.92734
-441,-482,-0.935608,5.10632,0.0015177,-0.00318494,-0.0014498,0.00192874,-0.00359598,-0.276264,0.00323775,0.012279,783,1506,-0.935592,-5.10627
-434,-482,-0.923462,5.26782,0.00155454,-0.00469468,-0.00129611,0.00181269,-0.00495284,-0.196603,0.00404389,0.0155353,790,1506,-0.923435,-5.26787
-427,-482,-0.914124,5.46167,0.00174836,-0.00655027,-0.00115606,0.00190639,-0.00670831,-0.135862,0.00522492,0.0177134,797,1506,-0.914099,-5.46165
-420,-482,-0.884705,5.72949,0.00180763,-0.00840845,-0.000897824,0.00188593,-0.00848676,-0.0869948,0.00638008,0.0218337,804,1506,-0.884734,-5.72952
-413,-482,-0.768005,5.76208,0.00175746,-0.0106786,-0.000742767,0.00180166,-0.0107228,-0.0594454,0.00781857,0.0274139,811,1506,-0.768007,-5.76209
-406,-482,-0.679871,5.67603,0.00169213,-0.0132314,-0.000224412,0.0016955,-0.0132348,-0.0150329,0.00943927,0.0406144,818,1506,-0.679841,-5.67604
-399,-482,-1.0459,6.05115,0.00145689,-0.0160273,0.000636587,0.00148004,-0.0160504,0.0363452,0.0112262,0.0482302,825,1506,-1.04592,-6.05114
-392,-482,-0.79834,5.672,0,0,0,0,0,0,0,-1,832,1506,-0.79831,-5.67196
-385,-482,-0.492798,5.60864,0,0,0,0,0,0,0,-1,839,1506,-0.492798,-5.6087
-378,-482,0.215698,5.96948,0,0,0,0,0,0,0,-1,846,1506,0.215681,-5.9695
-371,-482,-0.10907,8.10437,0,0,0,0,0,0,0,-1,853,1506,-0.109063,-8.10433
-364,-482,-0.154968,10.5032,0,0,0,0,0,0,0,-1,860,1506,-0.154976,-10.5032
-357,-482,2.14807,4.60144,0,0,0,0,0,0,0,-1,867,1506,2.14807,-4.60144
-350,-482,-7.5813,-1.45935,0,0,0,0,0,0,0,-1,874,1506,-7.58133,1.45937
-343,-482,-7.19983,-1.26416,0,0,0,0,0,0,0,-1,881,1506,-7.19981,1.26414
-336,-482,-6.78491,-1.18127,0,0,0,0,0,0,0,-1,888,1506,-6.78488,1.18125
-329,-482,0,0,0,0,0,0,0,0,0,-1,895,1506,0,0
-322,-482,0,0,0,0,0,0,0,0,0,-1,902,1506,0,0
-315,-482,0,0,0,0,0,0,0,0,0,-1,909,1506,0,0
-308,-482,0,0,0,0,0,0,0,0,0,-1,916,1506,0,0
-301,-482,0,0,0,0,0,0,0,0,0,-1,923,1506,0,0
-294,-482,0,0,0,0,0,0,0,0,0,-1,930,1506,0,0
-287,-482,0,0,0,0,0,0,0,0,0,-1,937,1506,0,0
-280,-482,0,0,0,0,0,0,0,0,0,-1,944,1506,0,0
-273,-482,0,0,0,0,0,0,0,0,0,-1,951,1506,0,0
-266,-482,0,0,0,0,0,0,0,0,0,-1,958,1506,0,0
-259,-482,0,0,0,0,0,0,0,0,0,-1,965,1506,0,0
-252,-482,0,0,0,0,0,0,0,0,0,-1,972,1506,0,0
-245,-482,0,0,0,0,0,0,0,0,0,-1,979,1506,0,0
-238,-482,0,0,0,0,0,0,0,0,0,-1,986,1506,0,0
-231,-482,0,0,0,0,0,0,0,0,0,-1,993,1506,0,0
-224,-482,0,0,0,0,0,0,0,0,0,-1,1000,1506,0,0
-217,-482,0,0,0,0,0,0,0,0,0,-1,1007,1506,0,0
-210,-482,0,0,0,0,0,0,0,0,0,-1,1014,1506,0,0
-203,-482,0,0,0,0,0,0,0,0,0,-1,1021,1506,0,0
-196,-482,0,0,0,0,0,0,0,0,0,-1,1028,1506,0,0
-189,-482,0,0,0,0,0,0,0,0,0,-1,1035,1506,0,0
-182,-482,0,0,0,0,0,0,0,0,0,-1,1042,1506,0,0
-175,-482,0,0,0,0,0,0,0,0,0,-1,1049,1506,0,0
-168,-482,0,0,0,0,0,0,0,0,0,-1,1056,1506,0,0
-161,-482,0,0,0,0,0,0,0,0,0,-1,1063,1506,0,0
-154,-482,0,0,0,0,0,0,0,0,0,-1,1070,1506,0,0
-147,-482,0,0,0,0,0,0,0,0,0,-1,1077,1506,0,0
-140,-482,0,0,0,0,0,0,0,0,0,-1,1084,1506,0,0
-133,-482,0,0,0,0,0,0,0,0,0,-1,1091,1506,0,0
-126,-482,0,0,0,0,0,0,0,0,0,-1,1098,1506,0,0
-119,-482,0,0,0,0,0,0,0,0,0,-1,1105,1506,0,0
-112,-482,0,0,0,0,0,0,0,0,0,-1,1112,1506,0,0
-105,-482,0,0,0,0,0,0,0,0,0,-1,1119,1506,0,0
-98,-482,0,0,0,0,0,0,0,0,0,-1,1126,1506,0,0
-91,-482,0,0,0,0,0,0,0,0,0,-1,1133,1506,0,0
-84,-482,0,0,0,0,0,0,0,0,0,-1,1140,1506,0,0
-77,-482,0,0,0,0,0,0,0,0,0,-1,1147,1506,0,0
-70,-482,0,0,0,0,0,0,0,0,0,-1,1154,1506,0,0
-63,-482,0,0,0,0,0,0,0,0,0,-1,1161,1506,0,0
-56,-482,0,0,0,0,0,0,0,0,0,-1,1168,1506,0,0
-49,-482,0,0,0,0,0,0,0,0,0,-1,1175,1506,0,0
-42,-482,0,0,0,0,0,0,0,0,0,-1,1182,1506,0,0
-35,-482,0,0,0,0,0,0,0,0,0,-1,1189,1506,0,0
-28,-482,0,0,0,0,0,0,0,0,0,-1,1196,1506,0,0
-21,-482,0,0,0,0,0,0,0,0,0,-1,1203,1506,0,0
-14,-482,0,0,0,0,0,0,0,0,0,-1,1210,1506,0,0
-7,-482,0,0,0,0,0,0,0,0,0,-1,1217,1506,0,0
0,-482,0,0,0,0,0,0,0,0,0,-1,1224,1506,0,0
7,-482,0,0,0,0,0,0,0,0,0,-1,1231,1506,0,0
14,-482,0,0,0,0,0,0,0,0,0,-1,1238,1506,0,0
21,-482,0,0,0,0,0,0,0,0,0,-1,1245,1506,0,0
28,-482,0,0,0,0,0,0,0,0,0,-1,1252,1506,0,0
35,-482,0,0,0,0,0,0,0,0,0,-1,1259,1506,0,0
42,-482,0,0,0,0,0,0,0,0,0,-1,1266,1506,0,0
49,-482,0,0,0,0,0,0,0,0,0,-1,1273,1506,0,0
56,-482,0,0,0,0,0,0,0,0,0,-1,1280,1506,0,0
63,-482,0,0,0,0,0,0,0,0,0,-1,1287,1506,0,0
70,-482,0,0,0,0,0,0,0,0,0,-1,1294,1506,0,0
77,-482,0,0,0,0,0,0,0,0,0,-1,1301,1506,0,0
84,-482,0,0,0,0,0,0,0,0,0,-1,1308,1506,0,0
91,-482,0,0,0,0,0,0,0,0,0,-1,1315,1506,0,0
98,-482,0,0,0,0,0,0,0,0,0,-1,1322,1506,0,0
105,-482,0,0,0,0,0,0,0,0,0,-1,1329,1506,0,0
112,-482,0,0,0,0,0,0,0,0,0,-1,1336,1506,0,0
119,-482,0,0,0,0,0,0,0,0,0,-1,1343,1506,0,0
126,-482,0,0,0,0,0,0,0,0,0,-1,1350,1506,0,0
133,-482,0,0,0,0,0,0,0,0,0,-1,1357,1506,0,0
140,-482,0,0,0,0,0,0,0,0,0,-1,1364,1506,0,0
147,-482,0,0,0,0,0,0,0,0,0,-1,1371,1506,0,0
154,-482,0,0,0,0,0,0,0,0,0,-1,1378,1506,0,0
161,-482,0,0,0,0,0,0,0,0,0,-1,1385,1506,0,0
168,-482,0,0,0,0,0,0,0,0,0,-1,1392,1506,0,0
175,-482,0,0,0,0,0,0,0,0,0,-1,1399,1506,0,0
182,-482,0,0,0,0,0,0,0,0,0,-1,1406,1506,0,0
189,-482,0,0,0,0,0,0,0,0,0,-1,1413,1506,0,0
196,-482,0,0,0,0,0,0,0,0,0,-1,1420,1506,0,0
203,-482,0,0,0,0,0,0,0,0,0,-1,1427,1506,0,0
210,-482,0,0,0,0,0,0,0,0,0,-1,1434,1506,0,0
217,-482,0,0,0,0,0,0,0,0,0,-1,1441,1506,0,0
224,-482,0,0,0,0,0,0,0,0,0,-1,1448,1506,0,0
231,-482,0,0,0,0,0,0,0,0,0,-1,1455,1506,0,0
238,-482,0,0,0,0,0,0,0,0,0,-1,1462,1506,0,0
245,-482,0,0,0,0,0,0,0,0,0,-1,1469,1506,0,0
252,-482,0,0,0,0,0,0,0,0,0,-1,1476,1506,0,0
259,-482,0,0,0,0,0,0,0,0,0,-1,1483,1506,0,0
266,-482,0,0,0,0,0,0,0,0,0,-1,1490,1506,0,0
273,-482,0,0,0,0,0,0,0,0,0,-1,1497,1506,0,0
280,-482,0,0,0,0,0,0,0,0,0,-1,1504,1506,0,0
287,-482,0,0,0,0,0,0,0,0,0,-1,1511,1506,0,0
294,-482,0,0,0,0,0,0,0,0,0,-1,1518,1506,0,0
301,-482,0,0,0,0,0,0,0,0,0,-1,1525,1506,0,0
308,-482,0,0,0,0,0,0,0,0,0,-1,1532,1506,0,0
315,-482,0,0,0,0,0,0,0,0,0,-1,1539,1506,0,0
322,-482,0,0,0,0,0,0,0,0,0,-1,1546,1506,0,0
329,-482,0,0,0,0,0,0,0,0,0,-1,1553,1506,0,0
336,-482,0,0,0,0,0,0,0,0,0,-1,1560,1506,0,0
343,-482,0,0,0,0,0,0,0,0,0,-1,1567,1506,0,0
350,-482,0,0,0,0,0,0,0,0,0,-1,1574,1506,0,0
357,-482,0,0,0,0,0,0,0,0,0,-1,1581,1506,0,0
364,-482,0,0,0,0,0,0,0,0,0,-1,1588,1506,0,0
371,-482,0,0,0,0,0,0,0,0,0,-1,1595,1506,0,0
378,-482,0,0,0,0,0,0,0,0,0,-1,1602,1506,0,0
385,-482,0,0,0,0,0,0,0,0,0,-1,1609,1506,0,0
392,-482,0,0,0,0,0,0,0,0,0,-1,1616,1506,0,0
399,-482,0,0,0,0,0,0,0,0,0,-1,1623,1506,0,0
406,-482,0,0,0,0,0,0,0,0,0,-1,1630,1506,0,0
413,-482,0,0,0,0,0,0,0,0,0,-1,1637,1506,0,0
420,-482,0,0,0,0,0,0,0,0,0,-1,1644,1506,0,0
427,-482,0,0,0,0,0,0,0,0,0,-1,1651,1506,0,0
434,-482,0,0,0,0,0,0,0,0,0,-1,1658,1506,0,0
441,-482,0,0,0,0,0,0,0,0,0,-1,1665,1506,0,0
448,-482,4.24146,1.55383,0,0,0,0,0,0,0,-1,1672,1506,4.24149,-1.55381
455,-482,12.4122,1.09729,0,0,0,0,0,0,0,-1,1679,1506,12.4122,-1.09734
462,-482,15.0673,3.13135,0,0,0,0,0,0,0,-1,1686,1506,15.0672,-3.13134
469,-482,15.3793,3.46301,0.00482124,-0.152258,0.0275922,0.00952706,-0.156964,0.168924,0.107958,0.0482176,1693,1506,15.3793,-3.46307
476,-482,15.7294,3.81396,-0.0216458,-0.124147,0.0294636,-0.0137802,-0.132013,0.260877,0.0837936,0.0431867,1700,1506,15.7293,-3.81396
483,-482,14.9957,3.45825,0,0,0,0,0,0,0,-1,1707,1506,14.9957,-3.45829
490,-482,13.7178,3.88928,0,0,0,0,0,0,0,-1,1714,1506,13.7177,-3.88928
497,-482,12.6653,4.60938,0,0,0,0,0,0,0,-1,1721,1506,12.6653,-4.60942
504,-482,10.9128,7.94153,0,0,0,0,0,0,0,-1,1728,1506,10.9129,-7.9415
511,-482,9.52039,5.19458,0,0,0,0,0,0,0,-1,1735,1506,9.52033,-5.19462
518,-482,8.95276,5.76758,0,0,0,0,0,0,0,-1,1742,1506,8.95274,-5.76761
525,-482,7.91943,7.34839,0,0,0,0,0,0,0,-1,1749,1506,7.91946,-7.34844
532,-482,8.55884,6.8186,-0.0285552,-0.0263574,0.0225409,-0.00488861,-0.050024,0.809755,0.0318451,0.0446295,1756,1506,8.55888,-6.81854
539,-482,8.37512,6.96802,-0.0221449,-0.0201664,0.0195615,-0.00156911,-0.0407422,0.810663,0.0266538,0.0332809,1763,1506,8.37513,-6.96797
546,-482,8.14478,7.03088,-0.0152538,-0.015719,0.0162942,0.000809531,-0.0317823,0.778261,0.0214631,0.0183277,1770,1506,8.14476,-7.03086
553,-482,8.10168,6.90747,-0.00961741,-0.012644,0.0127321,0.00169098,-0.0239524,0.726246,0.0165608,0.0148705,1777,1506,8.10167,-6.90752
560,-482,8.10168,6.74878,-0.00569653,-0.00953425,0.0097478,0.00231948,-0.0175503,0.688215,0.012545,0.0121806,1784,1506,8.1017,-6.74883
567,-482,8.12537,6.62305,-0.00305267,-0.0067011,0.00705789,0.00241295,-0.0121667,0.658934,0.00902364,0.0148923,1791,1506,8.12541,-6.62309
574,-482,8.11633,6.51367,-0.00144272,-0.004134,0.00456974,0.00197538,-0.00755211,0.642212,0.00580631,0.0140339,1798,1506,8.11636,-6.51371
581,-482,8.10229,6.35559,-0.000988351,-0.00195958,0.00258242,0.00115371,-0.00410164,0.69246,0.00318933,0.00948049,1805,1506,8.10232,-6.3556
588,-482,8.10522,6.1969,-0.00143892,0.000430565,0.000654715,0.000637047,-0.0016454,1.26529,0.00135997,0.0099491,1812,1506,8.10517,-6.19695
595,-482,8.13074,6.02698,-0.00224193,0.00331386,-0.00158402,0.00373375,-0.00266182,-1.31168,0.00370973,0.0150376,1819,1506,8.13075,-6.02703
602,-482,8.15417,5.84009,-0.00333267,0.00598535,-0.00368538,0.00726674,-0.00461406,-1.23618,0.00691614,0.0191929,1826,1506,8.15415,-5.84006
609,-482,8.13098,5.70557,-0.00505471,0.00913537,-0.00603353,0.0113539,-0.00727326,-1.21844,0.0108401,0.0156573,1833,1506,8.13093,-5.70551
616,-482,8.11182,5.5708,-0.00738903,0.0125297,-0.00852885,0.0156825,-0.0105419,-1.21671,0.0152373,0.0114045,1840,1506,8.11176,-5.57079
623,-482,8.11719,5.41138,-0.0103882,0.0169294,-0.0114055,0.0210652,-0.014524,-1.22293,0.0206628,0.0111086,1847,1506,8.11723,-5.4114
630,-482,8.13416,5.22949,-0.0143154,0.0218981,-0.0148464,0.0272065,-0.0196238,-1.22741,0.0271554,0.0205791,1854,1506,8.13416,-5.22948
637,-482,7.96545,5.25305,-0.0189418,0.0276848,-0.0188453,0.0343491,-0.025606,-1.23089,0.0347376,0.0430785,1861,1506,7.96543,-5.25302
644,-482,7.77869,5.15149,0,0,0,0,0,0,0,-1,1868,1506,7.7787,-5.1515
651,-482,4.03845,7.05273,0,0,0,0,0,0,0,-1,1875,1506,4.03843,-7.05279
658,-482,2.6803,3.83582,0,0,0,0,0,0,0,-1,1882,1506,2.68028,-3.83587
665,-482,8.15198,3.22229,0,0,0,0,0,0,0,-1,1889,1506,8.15199,-3.22232
672,-482,9.87415,1.3147,0,0,0,0,0,0,0,-1,1896,1506,9.87416,-1.31473
679,-482,0,0,0,0,0,0,0,0,0,-1,1903,1506,0,0
686,-482,0,0,0,0,0,0,0,0,0,-1,1910,1506,0,0
693,-482,0,0,0,0,0,0,0,0,0,-1,1917,1506,0,0
700,-482,0,0,0,0,0,0,0,0,0,-1,1924,1506,0,0
707,-482,0,0,0,0,0,0,0,0,0,-1,1931,1506,0,0
714,-482,0,0,0,0,0,0,0,0,0,-1,1938,1506,0,0
721,-482,0,0,0,0,0,0,0,0,0,-1,1945,1506,0,0
728,-482,0,0,0,0,0,0,0,0,0,-1,1952,1506,0,0
735,-482,0,0,0,0,0,0,0,0,0,-1,1959,1506,0,0
742,-482,0,0,0,0,0,0,0,0,0,-1,1966,1506,0,0
749,-482,0,0,0,0,0,0,0,0,0,-1,1973,1506,0,0
756,-482,0,0,0,0,0,0,0,0,0,-1,1980,1506,0,0
763,-482,0,0,0,0,0,0,0,0,0,-1,1987,1506,0,0
770,-482,0,0,0,0,0,0,0,0,0,-1,1994,1506,0,0
777,-482,0,0,0,0,0,0,0,0,0,-1,2001,1506,0,0
784,-482,0,0,0,0,0,0,0,0,0,-1,2008,1506,0,0
791,-482,0,0,0,0,0,0,0,0,0,-1,2015,1506,0,0
798,-482,0,0,0,0,0,0,0,0,0,-1,2022,1506,0,0
805,-482,0,0,0,0,0,0,0,0,0,-1,2029,1506,0,0
812,-482,0,0,0,0,0,0,0,0,0,-1,2036,1506,0,0
-700,-489,0,0,0,0,0,0,0,0,0,-1,524,1513,0,0
-693,-489,0,0,0,0,0,0,0,0,0,-1,531,1513,0,0
-686,-489,0,0,0,0,0,0,0,0,0,-1,538,1513,0,0
-679,-489,0,0,0,0,0,0,0,0,0,-1,545,1513,0,0
-672,-489,0,0,0,0,0,0,0,0,0,-1,552,1513,0,0
-665,-489,0,0,0,0,0,0,0,0,0,-1,559,1513,0,0
-658,-489,0,0,0,0,0,0,0,0,0,-1,566,1513,0,0
-651,-489,0,0,0,0,0,0,0,0,0,-1,573,1513,0,0
-644,-489,0,0,0,0,0,0,0,0,0,-1,580,1513,0,0
-637,-489,0,0,0,0,0,0,0,0,0,-1,587,1513,0,0
-630,-489,0,0,0,0,0,0,0,0,0,-1,594,1513,0,0
-623,-489,0,0,0,0,0,0,0,0,0,-1,601,1513,0,0
-616,-489,0,0,0,0,0,0,0,0,0,-1,608,1513,0,0
-609,-489,0,0,0,0,0,0,0,0,0,-1,615,1513,0,0
-602,-489,0,0,0,0,0,0,0,0,0,-1,622,1513,0,0
-595,-489,0,0,0,0,0,0,0,0,0,-1,629,1513,0,0
-588,-489,0,0,0,0,0,0,0,0,0,-1,636,1513,0,0
-581,-489,0,0,0,0,0,0,0,0,0,-1,643,1513,0,0
-574,-489,0,0,0,0,0,0,0,0,0,-1,650,1513,0,0
-567,-489,0,0,0,0,0,0,0,0,0,-1,657,1513,0,0
-560,-489,0,0,0,0,0,0,0,0,0,-1,664,1513,0,0
-553,-489,-0.162048,-1.1333,0,0,0,0,0,0,0,-1,671,1513,-0.162038,1.13325
-546,-489,-0.112671,-1.05566,0,0,0,0,0,0,0,-1,678,1513,-0.112645,1.05571
-539,-489,-3.78625,3.36646,0,0,0,0,0,0,0,-1,685,1513,-3.78625,-3.3665
-532,-489,-2.80835,3.76941,0,0,0,0,0,0,0,-1,692,1513,-2.80836,-3.76938
-525,-489,-3.2854,4.77551,0,0,0,0,0,0,0,-1,699,1513,-3.28539,-4.77548
-518,-489,-3.99097,5.56824,0,0,0,0,0,0,0,-1,706,1513,-3.99097,-5.56827
-511,-489,-0.604736,3.14307,0,0,0,0,0,0,0,-1,713,1513,-0.604717,-3.14312
-504,-489,-0.645142,3.39429,0.0333227,-0.00772058,0.0104426,0.0358268,-0.0102247,0.235354,0.0279239,0.046577,720,1513,-0.645152,-3.39429
-497,-489,-0.689331,3.646,0.0237934,-0.00577537,0.00554864,0.0248003,-0.00678229,0.179519,0.0191979,0.0360749,727,1513,-0.689316,-3.64598
-490,-489,-0.732544,3.88354,0.0158745,-0.00432546,0.00130725,0.0159587,-0.00440971,0.0643579,0.0123738,0.0200419,734,1513,-0.732515,-3.88353
-483,-489,-0.749268,4.02625,0.0102211,-0.00262687,-0.000726275,0.0102621,-0.0026678,-0.0562892,0.00788259,0.0103465,741,1513,-0.749245,-4.02628
-476,-489,-0.741333,4.20667,0.00670952,-0.00171542,-0.00143936,0.00694864,-0.00195454,-0.164626,0.0054031,0.0098754,748,1513,-0.741329,-4.20671
-469,-489,-0.751526,4.38989,0.00447005,-0.00145042,-0.00133085,0.00475545,-0.00173582,-0.21125,0.00388055,0.0107862,755,1513,-0.751537,-4.38993
-462,-489,-0.753235,4.5498,0.00332322,-0.00128822,-0.00128531,0.00365726,-0.00162227,-0.25427,0.0031227,0.015187,762,1513,-0.753246,-4.54979
-455,-489,-0.755859,4.71594,0.00246687,-0.00142972,-0.00120931,0.00281167,-0.00177452,-0.277752,0.00267031,0.0176099,769,1513,-0.755888,-4.71594
-448,-489,-0.762207,4.89795,0.00206777,-0.00219844,-0.000967714,0.00227702,-0.00240768,-0.212949,0.00270506,0.0155175,776,1513,-0.762225,-4.8979
-441,-489,-0.758789,5.09668,0.00161173,-0.00294472,-0.000903118,0.0017842,-0.00311719,-0.188705,0.00286449,0.014327,783,1513,-0.758787,-5.0967
-434,-489,-0.780884,5.27722,0.00164216,-0.00445662,-0.000556129,0.00169246,-0.00450691,-0.0901957,0.00370012,0.0178302,790,1513,-0.78088,-5.27721
-427,-489,-0.784302,5.47131,0.00186582,-0.00628371,-0.000215889,0.00187154,-0.00628942,-0.0264662,0.0049365,0.0202325,797,1513,-0.784299,-5.47128
-420,-489,-0.777954,5.6814,0.0020091,-0.00801612,0.000182152,0.00201241,-0.00801943,0.0181614,0.00612824,0.0185036,804,1513,-0.777959,-5.68141
-413,-489,-0.582214,5.77747,0.00205958,-0.0100494,0.000375757,0.00207123,-0.0100611,0.0309915,0.00749382,0.0210972,811,1513,-0.582211,-5.77752
-406,-489,-0.669128,5.84009,0.00203192,-0.0122177,0.000850856,0.00208255,-0.0122683,0.0594293,0.00895417,0.0266056,818,1513,-0.669148,-5.84014
-399,-489,-0.670044,5.84058,0.00178286,-0.0144759,0.00159862,0.00193855,-0.0146316,0.0970846,0.0104606,0.0363744,825,1513,-0.670048,-5.84062
-392,-489,-0.55658,5.84143,0.00132759,-0.016501,0.00262668,0.00170653,-0.0168799,0.143275,0.0118631,0.0406462,832,1513,-0.556589,-5.84137
-385,-489,-0.238708,5.80103,0.000560064,-0.0177063,0.00401068,0.00140188,-0.0185481,0.206889,0.0128582,0.0462723,839,1513,-0.238712,-5.80105
-378,-489,0.173462,5.88196,0,0,0,0,0,0,0,-1,846,1513,0.173436,-5.88198
-371,-489,-0.21167,8.22852,0,0,0,0,0,0,0,-1,853,1513,-0.211662,-8.22847
-364,-489,-0.503113,8.98486,0,0,0,0,0,0,0,-1,860,1513,-0.503097,-8.98482
-357,-489,-0.609924,10.9606,0,0,0,0,0,0,0,-1,867,1513,-0.609947,-10.9605
-350,-489,-7.94659,-0.358887,0,0,0,0,0,0,0,-1,874,1513,-7.94657,0.358912
-343,-489,-7.49323,-0.437866,0,0,0,0,0,0,0,-1,881,1513,-7.49322,0.437823
-336,-489,-7.02332,-0.53125,0,0,0,0,0,0,0,-1,888,1513,-7.0233,0.531295
-329,-489,-6.70221,-0.242432,0,0,0,0,0,0,0,-1,895,1513,-6.70221,0.2424
-322,-489,0,0,0,0,0,0,0,0,0,-1,902,1513,0,0
-315,-489,0,0,0,0,0,0,0,0,0,-1,909,1513,0,0
-308,-489,0,0,0,0,0,0,0,0,0,-1,916,1513,0,0
-301,-489,0,0,0,0,0,0,0,0,0,-1,923,1513,0,0
-294,-489,0,0,0,0,0,0,0,0,0,-1,930,1513,0,0
-287,-489,0,0,0,0,0,0,0,0,0,-1,937,1513,0,0
-280,-489,0,0,0,0,0,0,0,0,0,-1,944,1513,0,0
-273,-489,0,0,0,0,0,0,0,0,0,-1,951,1513,0,0
-266,-489,0,0,0,0,0,0,0,0,0,-1,958,1513,0,0
-259,-489,0,0,0,0,0,0,0,0,0,-1,965,1513,0,0
-252,-489,0,0,0,0,0,0,0,0,0,-1,972,1513,0,0
-245,-489,0,0,0,0,0,0,0,0,0,-1,979,1513,0,0
-238,-489,0,0,0,0,0,0,0,0,0,-1,986,1513,0,0
-231,-489,0,0,0,0,0,0,0,0,0,-1,993,1513,0,0
-224,-489,0,0,0,0,0,0,0,0,0,-1,1000,1513,0,0
-217,-489,0,0,0,0,0,0,0,0,0,-1,1007,1513,0,0
-210,-489,0,0,0,0,0,0,0,0,0,-1,1014,1513,0,0
-203,-489,0,0,0,0,0,0,0,0,0,-1,1021,1513,0,0
-196,-489,0,0,0,0,0,0,0,0,0,-1,1028,1513,0,0
-189,-489,0,0,0,0,0,0,0,0,0,-1,1035,1513,0,0
-182,-489,0,0,0,0,0,0,0,0,0,-1,1042,1513,0,0
-175,-489,0,0,0,0,0,0,0,0,0,-1,1049,1513,0,0
-168,-489,0,0,0,0,0,0,0,0,0,-1,1056,1513,0,0
-161,-489,0,0,0,0,0,0,0,0,0,-1,1063,1513,0,0
-154,-489,0,0,0,0,0,0,0,0,0,-1,1070,1513,0,0
-147,-489,0,0,0,0,0,0,0,0,0,-1,1077,1513,0,0
-140,-489,0,0,0,0,0,0,0,0,0,-1,1084,1513,0,0
-133,-489,0,0,0,0,0,0,0,0,0,-1,1091,1513,0,0
-126,-489,0,0,0,0,0,0,0,0,0,-1,1098,1513,0,0
-119,-489,0,0,0,0,0,0,0,0,0,-1,1105,1513,0,0
-112,-489,0,0,0,0,0,0,0,0,0,-1,1112,1513,0,0
-105,-489,0,0,0,0,0,0,0,0,0,-1,1119,1513,0,0
-98,-489,0,0,0,0,0,0,0,0,0,-1,1126,1513,0,0
-91,-489,0,0,0,0,0,0,0,0,0,-1,1133,1513,0,0
-84,-489,0,0,0,0,0,0,0,0,0,-1,1140,1513,0,0
-77,-489,0,0,0,0,0,0,0,0,0,-1,1147,1513,0,0
-70,-489,0,0,0,0,0,0,0,0,0,-1,1154,1513,0,0
-63,-489,0,0,0,0,0,0,0,0,0,-1,1161,1513,0,0
-56,-489,0,0,0,0,0,0,0,0,0,-1,1168,1513,0,0
-49,-489,0,0,0,0,0,0,0,0,0,-1,1175,1513,0,0
-42,-489,0,0,0,0,0,0,0,0,0,-1,1182,1513,0,0
-35,-489,0,0,0,0,0,0,0,0,0,-1,1189,1513,0,0
-28,-489,0,0,0,0,0,0,0,0,0,-1,1196,1513,0,0
-21,-489,0,0,0,0,0,0,0,0,0,-1,1203,1513,0,0
-14,-489,0,0,0,0,0,0,0,0,0,-1,1210,1513,0,0
-7,-489,0,0,0,0,0,0,0,0,0,-1,1217,1513,0,0
0,-489,0,0,0,0,0,0,0,0,0,-1,1224,1513,0,0
7,-489,0,0,0,0,0,0,0,0,0,-1,1231,1513,0,0
14,-489,0,0,0,0,0,0,0,0,0,-1,1238,1513,0,0
21,-489,0,0,0,0,0,0,0,0,0,-1,1245,1513,0,0
28,-489,0,0,0,0,0,0,0,0,0,-1,1252,1513,0,0
35,-489,0,0,0,0,0,0,0,0,0,-1,1259,1513,0,0
42,-489,0,0,0,0,0,0,0,0,0,-1,1266,1513,0,0
49,-489,0,0,0,0,0,0,0,0,0,-1,1273,1513,0,0
56,-489,0,0,0,0,0,0,0,0,0,-1,1280,1513,0,0
63,-489,0,0,0,0,0,0,0,0,0,-1,1287,1513,0,0
70,-489,0,0,0,0,0,0,0,0,0,-1,1294,1513,0,0
77,-489,0,0,0,0,0,0,0,0,0,-1,1301,1513,0,0
84,-489,0,0,0,0,0,0,0,0,0,-1,1308,1513,0,0
91,-489,0,0,0,0,0,0,0,0,0,-1,1315,1513,0,0
98,-489,0,0,0,0,0,0,0,0,0,-1,1322,1513,0,0
105,-489,0,0,0,0,0,0,0,0,0,-1,1329,1513,0,0
112,-489,0,0,0,0,0,0,0,0,0,-1,1336,1513,0,0
119,-489,0,0,0,0,0,0,0,0,0,-1,1343,1513,0,0
126,-489,0,0,0,0,0,0,0,0,0,-1,1350,1513,0,0
133,-489,0,0,0,0,0,0,0,0,0,-1,1357,1513,0,0
140,-489,0,0,0,0,0,0,0,0,0,-1,1364,1513,0,0
147,-489,0,0,0,0,0,0,0,0,0,-1,1371,1513,0,0
154,-489,0,0,0,0,0,0,0,0,0,-1,1378,1513,0,0
161,-489,0,0,0,0,0,0,0,0,0,-1,1385,1513,0,0
168,-489,0,0,0,0,0,0,0,0,0,-1,1392,1513,0,0
175,-489,0,0,0,0,0,0,0,0,0,-1,1399,1513,0,0
182,-489,0,0,0,0,0,0,0,0,0,-1,1406,1513,0,0
189,-489,0,0,0,0,0,0,0,0,0,-1,1413,1513,0,0
196,-489,0,0,0,0,0,0,0,0,0,-1,1420,1513,0,0
203,-489,0,0,0,0,0,0,0,0,0,-1,1427,1513,0,0
210,-489,0,0,0,0,0,0,0,0,0,-1,1434,1513,0,0
217,-489,0,0,0,0,0,0,0,0,0,-1,1441,1513,0,0
224,-489,0,0,0,0,0,0,0,0,0,-1,1448,1513,0,0
231,-489,0,0,0,0,0,0,0,0,0,-1,1455,1513,0,0
238,-489,0,0,0,0,0,0,0,0,0,-1,1462,1513,0,0
245,-489,0,0,0,0,0,0,0,0,0,-1,1469,1513,0,0
252,-489,0,0,0,0,0,0,0,0,0,-1,1476,1513,0,0
259,-489,0,0,0,0,0,0,0,0,0,-1,1483,1513,0,0
266,-489,0,0,0,0,0,0,0,0,0,-1,1490,1513,0,0
273,-489,0,0,0,0,0,0,0,0,0,-1,1497,1513,0,0
280,-489,0,0,0,0,0,0,0,0,0,-1,1504,1513,0,0
287,-489,0,0,0,0,0,0,0,0,0,-1,1511,1513,0,0
294,-489,0,0,0,0,0,0,0,0,0,-1,1518,1513,0,0
301,-489,0,0,0,0,0,0,0,0,0,-1,1525,1513,0,0
308,-489,0,0,0,0,0,0,0,0,0,-1,1532,1513,0,0
315,-489,0,0,0,0,0,0,0,0,0,-1,1539,1513,0,0
322,-489,0,0,0,0,0,0,0,0,0,-1,1546,1513,0,0
329,-489,0,0,0,0,0,0,0,0,0,-1,1553,1513,0,0
336,-489,0,0,0,0,0,0,0,0,0,-1,1560,1513,0,0
343,-489,0,0,0,0,0,0,0,0,0,-1,1567,1513,0,0
350,-489,0,0,0,0,0,0,0,0,0,-1,1574,1513,0,0
357,-489,0,0,0,0,0,0,0,0,0,-1,1581,1513,0,0
364,-489,0,0,0,0,0,0,0,0,0,-1,1588,1513,0,0
371,-489,0,0,0,0,0,0,0,0,0,-1,1595,1513,0,0
378,-489,0,0,0,0,0,0,0,0,0,-1,1602,1513,0,0
385,-489,0,0,0,0,0,0,0,0,0,-1,1609,1513,0,0
392,-489,0,0,0,0,0,0,0,0,0,-1,1616,1513,0,0
399,-489,0,0,0,0,0,0,0,0,0,-1,1623,1513,0,0
406,-489,0,0,0,0,0,0,0,0,0,-1,1630,1513,0,0
413,-489,0,0,0,0,0,0,0,0,0,-1,1637,1513,0,0
420,-489,0,0,0,0,0,0,0,0,0,-1,1644,1513,0,0
427,-489,0,0,0,0,0,0,0,0,0,-1,1651,1513,0,0
434,-489,0,0,0,0,0,0,0,0,0,-1,1658,1513,0,0
441,-489,11.4602,2.56787,0,0,0,0,0,0,0,-1,1665,1513,11.4602,-2.56786
448,-489,12.4425,1.72351,0,0,0,0,0,0,0,-1,1672,1513,12.4425,-1.72349
455,-489,12.5575,1.37463,0,0,0,0,0,0,0,-1,1679,1513,12.5575,-1.37469
462,-489,14.9784,3.84888,0,0,0,0,0,0,0,-1,1686,1513,14.9784,-3.84892
469,-489,15.1367,4.53101,0.00136258,-0.14195,0.034419,0.00920025,-0.149788,0.223896,0.103062,0.042006,1693,1513,15.1368,-4.531
476,-489,15.5536,5.09338,-0.0203484,-0.115481,0.0333016,-0.00984963,-0.12598,0.3054,0.0809034,0.043373,1700,1513,15.5536,-5.09339
483,-489,16.0366,5.55762,-0.0324674,-0.094597,0.0323161,-0.0187065,-0.108358,0.402569,0.066881,0.0483563,1707,1513,16.0366,-5.55761
490,-489,16.3795,5.9082,0,0,0,0,0,0,0,-1,1714,1513,16.3795,-5.90823
497,-489,11.2643,8.33142,0,0,0,0,0,0,0,-1,1721,1513,11.2642,-8.33142
504,-489,10.2596,7.77979,0,0,0,0,0,0,0,-1,1728,1513,10.2596,-7.77979
511,-489,9.255,7.22815,0,0,0,0,0,0,0,-1,1735,1513,9.25501,-7.22815
518,-489,7.88184,7.16296,0,0,0,0,0,0,0,-1,1742,1513,7.88181,-7.16296
525,-489,7.87439,7.29114,-0.0281897,-0.0294901,0.0210457,-0.0077841,-0.0498956,0.769956,0.0309966,0.0484199,1749,1513,7.87442,-7.29114
532,-489,8.03516,7.19604,-0.0234801,-0.0225006,0.0186125,-0.00437148,-0.0416093,0.798551,0.0264033,0.0365169,1756,1513,8.03516,-7.19599
539,-489,8.00598,7.17017,-0.0179296,-0.0170161,0.0156767,-0.00178945,-0.0331562,0.799962,0.0215324,0.0176462,1763,1513,8.00602,-7.17013
546,-489,7.94934,7.08606,-0.0120358,-0.0132609,0.012681,4.74323e-05,-0.0253442,0.761265,0.0169119,0.0117247,1770,1513,7.94939,-7.08602
553,-489,7.94617,6.9458,-0.007285,-0.0106588,0.00956184,0.000737605,-0.0186814,0.698087,0.0127073,0.0140425,1777,1513,7.94611,-6.94574
560,-489,7.97888,6.76233,-0.00399487,-0.0078687,0.0069939,0.00132537,-0.0131889,0.650312,0.00926607,0.0126301,1784,1513,7.9789,-6.7623
567,-489,8.00159,6.63477,-0.00183009,-0.00522744,0.00469238,0.00146162,-0.00851915,0.611733,0.00622411,0.0145104,1791,1513,8.00161,-6.63482
574,-489,7.94287,6.5343,-0.000511687,-0.00269861,0.0024494,0.00107724,-0.00428754,0.575462,0.003277,0.0145126,1798,1513,7.94283,-6.53427
581,-489,7.95691,6.3717,-0.000217037,-0.000464583,0.000646588,0.000317518,-0.000999138,0.69083,0.0007934,0.0100839,1805,1513,7.95685,-6.37173
588,-489,7.95093,6.20313,-0.000924075,0.00224719,-0.00135719,0.00274871,-0.0014256,-1.21683,0.00245006,0.0115991,1812,1513,7.95092,-6.20315
595,-489,7.95898,6.03015,-0.00207168,0.00568936,-0.00389012,0.00730351,-0.00368584,-1.17748,0.00645829,0.0177834,1819,1513,7.95894,-6.03019
602,-489,7.99036,5.86047,-0.00352403,0.00895556,-0.00633913,0.0116107,-0.00617916,-1.17415,0.0104293,0.0249104,1826,1513,7.99037,-5.86043
609,-489,7.98083,5.71387,-0.00577258,0.012934,-0.00920801,0.0167059,-0.00954452,-1.18201,0.0153425,0.017764,1833,1513,7.9808,-5.71384
616,-489,7.95532,5.54993,-0.00881675,0.0174339,-0.0125203,0.0224478,-0.0138307,-1.18989,0.0211414,0.0101473,1840,1513,7.95536,-5.54987
623,-489,7.96851,5.41321,-0.0127302,0.0232041,-0.0165037,0.0296335,-0.0191595,-1.19931,0.0283862,0.0146745,1847,1513,7.96849,-5.41325
630,-489,7.83215,5.22461,-0.0177466,0.0299361,-0.0213356,0.0380888,-0.0258993,-1.2058,0.0371663,0.034959,1854,1513,7.83215,-5.22459
637,-489,7.04712,5.16333,-0.0236499,0.037926,-0.0270332,0.0481098,-0.0338338,-1.21052,0.0475489,0.0462402,1861,1513,7.04714,-5.16331
644,-489,6.43518,5.12561,0,0,0,0,0,0,0,-1,1868,1513,6.43515,-5.12562
651,-489,5.2113,5.91199,0,0,0,0,0,0,0,-1,1875,1513,5.21129,-5.91204
658,-489,3.45959,6.10022,0,0,0,0,0,0,0,-1,1882,1513,3.45959,-6.10021
665,-489,3.25195,7.02124,0,0,0,0,0,0,0,-1,1889,1513,3.25199,-7.02128
672,-489,0,0,0,0,0,0,0,0,0,-1,1896,1513,0,0
679,-489,0,0,0,0,0,0,0,0,0,-1,1903,1513,0,0
686,-489,0,0,0,0,0,0,0,0,0,-1,1910,1513,0,0
693,-489,0,0,0,0,0,0,0,0,0,-1,1917,1513,0,0
700,-489,0,0,0,0,0,0,0,0,0,-1,1924,1513,0,0
707,-489,0,0,0,0,0,0,0,0,0,-1,1931,1513,0,0
714,-489,0,0,0,0,0,0,0,0,0,-1,1938,1513,0,0
721,-489,0,0,0,0,0,0,0,0,0,-1,1945,1513,0,0
728,-489,0,0,0,0,0,0,0,0,0,-1,1952,1513,0,0
735,-489,0,0,0,0,0,0,0,0,0,-1,1959,1513,0,0
742,-489,0,0,0,0,0,0,0,0,0,-1,1966,1513,0,0
749,-489,0,0,0,0,0,0,0,0,0,-1,1973,1513,0,0
756,-489,0,0,0,0,0,0,0,0,0,-1,1980,1513,0,0
763,-489,0,0,0,0,0,0,0,0,0,-1,1987,1513,0,0
770,-489,0,0,0,0,0,0,0,0,0,-1,1994,1513,0,0
777,-489,0,0,0,0,0,0,0,0,0,-1,2001,1513,0,0
784,-489,0,0,0,0,0,0,0,0,0,-1,2008,1513,0,0
791,-489,0,0,0,0,0,0,0,0,0,-1,2015,1513,0,0
798,-489,0,0,0,0,0,0,0,0,0,-1,2022,1513,0,0
805,-489,0,0,0,0,0,0,0,0,0,-1,2029,1513,0,0
812,-489,0,0,0,0,0,0,0,0,0,-1,2036,1513,0,0
-700,-496,0,0,0,0,0,0,0,0,0,-1,524,1520,0,0
-693,-496,0,0,0,0,0,0,0,0,0,-1,531,1520,0,0
-686,-496,0,0,0,0,0,0,0,0,0,-1,538,1520,0,0
-679,-496,0,0,0,0,0,0,0,0,0,-1,545,1520,0,0
-672,-496,0,0,0,0,0,0,0,0,0,-1,552,1520,0,0
-665,-496,0,0,0,0,0,0,0,0,0,-1,559,1520,0,0
-658,-496,0,0,0,0,0,0,0,0,0,-1,566,1520,0,0
-651,-496,0,0,0,0,0,0,0,0,0,-1,573,1520,0,0
-644,-496,0,0,0,0,0,0,0,0,0,-1,580,1520,0,0
-637,-496,0,0,0,0,0,0,0,0,0,-1,587,1520,0,0
-630,-496,0,0,0,0,0,0,0,0,0,-1,594,1520,0,0
-623,-496,0,0,0,0,0,0,0,0,0,-1,601,1520,0,0
-616,-496,0,0,0,0,0,0,0,0,0,-1,608,1520,0,0
-609,-496,0,0,0,0,0,0,0,0,0,-1,615,1520,0,0
-602,-496,0,0,0,0,0,0,0,0,0,-1,622,1520,0,0
-595,-496,0,0,0,0,0,0,0,0,0,-1,629,1520,0,0
-588,-496,0,0,0,0,0,0,0,0,0,-1,636,1520,0,0
-581,-496,0,0,0,0,0,0,0,0,0,-1,643,1520,0,0
-574,-496,0,0,0,0,0,0,0,0,0,-1,650,1520,0,0
-567,-496,0,0,0,0,0,0,0,0,0,-1,657,1520,0,0
-560,-496,0,0,0,0,0,0,0,0,0,-1,664,1520,0,0
-553,-496,0,0,0,0,0,0,0,0,0,-1,671,1520,0,0
-546,-496,1.9436,0.875732,0,0,0,0,0,0,0,-1,678,1520,1.94363,-0.875678
-539,-496,1.47705,1.22522,0,0,0,0,0,0,0,-1,685,1520,1.47702,-1.22518
-532,-496,-3.14539,3.979,0,0,0,0,0,0,0,-1,692,1520,-3.14536,-3.979
-525,-496,-3.54907,4.83337,0,0,0,0,0,0,0,-1,699,1520,-3.5491,-4.83333
-518,-496,-4.24615,5.65601,0,0,0,0,0,0,0,-1,706,1520,-4.24613,-5.65599
-511,-496,-0.314697,3.09656,0,0,0,0,0,0,0,-1,713,1520,-0.314716,-3.09652
-504,-496,-0.494263,3.37463,0.0353064,-0.00949085,0.010027,0.0374483,-0.0116328,0.210454,0.0296148,0.0491444,720,1520,-0.494239,-3.37465
-497,-496,-1.15906,4.01245,0.0248847,-0.00715962,0.00492233,0.0256238,-0.0078987,0.149034,0.020236,0.0433429,727,1520,-1.15904,-4.01243
-490,-496,-0.626648,4.05896,0.0162979,-0.00540456,0.000545201,0.0163116,-0.00541825,0.0251005,0.0130606,0.0345867,734,1520,-0.626641,-4.0589
-483,-496,-0.561157,4.08276,0.0103173,-0.00330863,-0.00123733,0.0104287,-0.00342007,-0.089828,0.00832991,0.017239,741,1520,-0.561186,-4.08273
-476,-496,-0.573486,4.2041,0.00654399,-0.00206628,-0.00171266,0.00687215,-0.00239444,-0.189312,0.00555436,0.0101162,748,1520,-0.573469,-4.20414
-469,-496,-0.582153,4.39795,0.00409142,-0.00148143,-0.00144751,0.00444497,-0.00183499,-0.239558,0.00372865,0.0100223,755,1520,-0.582147,-4.39796
-462,-496,-0.585571,4.58374,0.00277467,-0.00106596,-0.00125671,0.00314934,-0.00144063,-0.289741,0.00271054,0.01557,762,1520,-0.58555,-4.58372
-455,-496,-0.605957,4.76514,0.00187798,-0.000982604,-0.001073,0.00223572,-0.00134035,-0.321814,0.00208611,0.0199079,769,1520,-0.605984,-4.76508
-448,-496,-0.609558,4.9248,0.00153941,-0.0014993,-0.000791096,0.00173302,-0.00169291,-0.240027,0.00197801,0.0177398,776,1520,-0.609574,-4.92477
-441,-496,-0.570801,5.09106,0.00110959,-0.00196884,-0.000697467,0.00126024,-0.00211949,-0.212728,0.0019722,0.013879,783,1520,-0.570774,-5.09103
-434,-496,-0.593628,5.27454,0.00119325,-0.00316932,-0.000326519,0.00121755,-0.00319363,-0.074294,0.0026306,0.0132355,790,1520,-0.593619,-5.27451
-427,-496,-0.601685,5.46228,0.00146128,-0.00466763,5.19251e-05,0.00146172,-0.00466807,0.00847134,0.0036969,0.0171747,797,1520,-0.601686,-5.4623
-420,-496,-0.575134,5.6283,0.00170822,-0.00599741,0.0004272,0.00173183,-0.00602102,0.0552144,0.00469891,0.0174706,804,1520,-0.575151,-5.62828
-413,-496,-0.525696,5.79297,0.00186063,-0.00758877,0.000521292,0.0018893,-0.00761744,0.0549445,0.00581135,0.0148711,811,1520,-0.525674,-5.79292
-406,-496,-0.523865,6.00256,0.00186437,-0.00924037,0.000836821,0.00192708,-0.00930308,0.0747942,0.00693425,0.0223075,818,1520,-0.523884,-6.00252
-399,-496,-0.411438,6.18286,0.00159323,-0.0108519,0.00136412,0.001741,-0.0109996,0.107904,0.00797699,0.0347817,825,1520,-0.411424,-6.18283
-392,-496,-0.458191,6.06128,0.00112899,-0.0121119,0.00207828,0.00144753,-0.0124305,0.152088,0.00880923,0.0390349,832,1520,-0.458164,-6.06127
-385,-496,-0.53009,6.17896,0.000419795,-0.0124431,0.00302183,0.00109433,-0.0131176,0.21962,0.00913173,0.0452445,839,1520,-0.530071,-6.1789
-378,-496,-0.325317,6.50549,0,0,0,0,0,0,0,-1,846,1520,-0.325345,-6.5055
-371,-496,-0.210754,7.6709,0,0,0,0,0,0,0,-1,853,1520,-0.210776,-7.67085
-364,-496,0.348938,8.59265,0,0,0,0,0,0,0,-1,860,1520,0.348918,-8.59261
-357,-496,0.323792,7.56812,0,0,0,0,0,0,0,-1,867,1520,0.323782,-7.56806
-350,-496,2.1535,7.18945,0,0,0,0,0,0,0,-1,874,1520,2.15348,-7.1894
-343,-496,-7.56244,0.335327,0,0,0,0,0,0,0,-1,881,1520,-7.56242,-0.335322
-336,-496,-7.664,-0.446289,0,0,0,0,0,0,0,-1,888,1520,-7.66398,0.446252
-329,-496,-6.93689,-0.100342,0,0,0,0,0,0,0,-1,895,1520,-6.93686,0.1003
-322,-496,-6.17505,0.494385,0,0,0,0,0,0,0,-1,902,1520,-6.17507,-0.49437
-315,-496,-5.46338,1.0459,0,0,0,0,0,0,0,-1,909,1520,-5.46338,-1.04587
-308,-496,0,0,0,0,0,0,0,0,0,-1,916,1520,0,0
-301,-496,0,0,0,0,0,0,0,0,0,-1,923,1520,0,0
-294,-496,0,0,0,0,0,0,0,0,0,-1,930,1520,0,0
-287,-496,0,0,0,0,0,0,0,0,0,-1,937,1520,0,0
-280,-496,0,0,0,0,0,0,0,0,0,-1,944,1520,0,0
-273,-496,0,0,0,0,0,0,0,0,0,-1,951,1520,0,0
-266,-496,0,0,0,0,0,0,0,0,0,-1,958,1520,0,0
-259,-496,0,0,0,0,0,0,0,0,0,-1,965,1520,0,0
-252,-496,0,0,0,0,0,0,0,0,0,-1,972,1520,0,0
-245,-496,0,0,0,0,0,0,0,0,0,-1,979,1520,0,0
-238,-496,0,0,0,0,0,0,0,0,0,-1,986,1520,0,0
-231,-496,0,0,0,0,0,0,0,0,0,-1,993,1520,0,0
-224,-496,0,0,0,0,0,0,0,0,0,-1,1000,1520,0,0
-217,-496,0,0,0,0,0,0,0,0,0,-1,1007,1520,0,0
-210,-496,0,0,0,0,0,0,0,0,0,-1,1014,1520,0,0
-203,-496,0,0,0,0,0,0,0,0,0,-1,1021,1520,0,0
-196,-496,0,0,0,0,0,0,0,0,0,-1,1028,1520,0,0
-189,-496,0,0,0,0,0,0,0,0,0,-1,1035,1520,0,0
-182,-496,0,0,0,0,0,0,0,0,0,-1,1042,1520,0,0
-175,-496,0,0,0,0,0,0,0,0,0,-1,1049,1520,0,0
-168,-496,0,0,0,0,0,0,0,0,0,-1,1056,1520,0,0
-161,-496,0,0,0,0,0,0,0,0,0,-1,1063,1520,0,0
-154,-496,0,0,0,0,0,0,0,0,0,-1,1070,1520,0,0
-147,-496,0,0,0,0,0,0,0,0,0,-1,1077,1520,0,0
-140,-496,0,0,0,0,0,0,0,0,0,-1,1084,1520,0,0
-133,-496,0,0,0,0,0,0,0,0,0,-1,1091,1520,0,0
-126,-496,0,0,0,0,0,0,0,0,0,-1,1098,1520,0,0
-119,-496,0,0,0,0,0,0,0,0,0,-1,1105,1520,0,0
-112,-496,0,0,0,0,0,0,0,0,0,-1,1112,1520,0,0
-105,-496,0,0,0,0,0,0,0,0,0,-1,1119,1520,0,0
-98,-496,0,0,0,0,0,0,0,0,0,-1,1126,1520,0,0
-91,-496,0,0,0,0,0,0,0,0,0,-1,1133,1520,0,0
-84,-496,0,0,0,0,0,0,0,0,0,-1,1140,1520,0,0
-77,-496,0,0,0,0,0,0,0,0,0,-1,1147,1520,0,0
-70,-496,0,0,0,0,0,0,0,0,0,-1,1154,1520,0,0
-63,-496,0,0,0,0,0,0,0,0,0,-1,1161,1520,0,0
-56,-496,0,0,0,0,0,0,0,0,0,-1,1168,1520,0,0
-49,-496,0,0,0,0,0,0,0,0,0,-1,1175,1520,0,0
-42,-496,0,0,0,0,0,0,0,0,0,-1,1182,1520,0,0
-35,-496,0,0,0,0,0,0,0,0,0,-1,1189,1520,0,0
-28,-496,0,0,0,0,0,0,0,0,0,-1,1196,1520,0,0
-21,-496,0,0,0,0,0,0,0,0,0,-1,1203,1520,0,0
-14,-496,0,0,0,0,0,0,0,0,0,-1,1210,1520,0,0
-7,-496,0,0,0,0,0,0,0,0,0,-1,1217,1520,0,0
0,-496,0,0,0,0,0,0,0,0,0,-1,1224,1520,0,0
7,-496,0,0,0,0,0,0,0,0,0,-1,1231,1520,0,0
14,-496,0,0,0,0,0,0,0,0,0,-1,1238,1520,0,0
21,-496,0,0,0,0,0,0,0,0,0,-1,1245,1520,0,0
28,-496,0,0,0,0,0,0,0,0,0,-1,1252,1520,0,0
35,-496,0,0,0,0,0,0,0,0,0,-1,1259,1520,0,0
42,-496,0,0,0,0,0,0,0,0,0,-1,1266,1520,0,0
49,-496,0,0,0,0,0,0,0,0,0,-1,1273,1520,0,0
56,-496,0,0,0,0,0,0,0,0,0,-1,1280,1520,0,0
63,-496,0,0,0,0,0,0,0,0,0,-1,1287,1520,0,0
70,-496,0,0,0,0,0,0,0,0,0,-1,1294,1520,0,0
77,-496,0,0,0,0,0,0,0,0,0,-1,1301,1520,0,0
84,-496,0,0,0,0,0,0,0,0,0,-1,1308,1520,0,0
91,-496,0,0,0,0,0,0,0,0,0,-1,1315,1520,0,0
98,-496,0,0,0,0,0,0,0,0,0,-1,1322,1520,0,0
105,-496,0,0,0,0,0,0,0,0,0,-1,1329,1520,0,0
112,-496,0,0,0,0,0,0,0,0,0,-1,1336,1520,0,0
119,-496,0,0,0,0,0,0,0,0,0,-1,1343,1520,0,0
126,-496,0,0,0,0,0,0,0,0,0,-1,1350,1520,0,0
133,-496,0,0,0,0,0,0,0,0,0,-1,1357,1520,0,0
140,-496,0,0,0,0,0,0,0,0,0,-1,1364,1520,0,0
147,-496,0,0,0,0,0,0,0,0,0,-1,1371,1520,0,0
154,-496,0,0,0,0,0,0,0,0,0,-1,1378,1520,0,0
161,-496,0,0,0,0,0,0,0,0,0,-1,1385,1520,0,0
168,-496,0,0,0,0,0,0,0,0,0,-1,1392,1520,0,0
175,-496,0,0,0,0,0,0,0,0,0,-1,1399,1520,0,0
182,-496,0,0,0,0,0,0,0,0,0,-1,1406,1520,0,0
189,-496,0,0,0,0,0,0,0,0,0,-1,1413,1520,0,0
196,-496,0,0,0,0,0,0,0,0,0,-1,1420,1520,0,0
203,-496,0,0,0,0,0,0,0,0,0,-1,1427,1520,0,0
210,-496,0,0,0,0,0,0,0,0,0,-1,1434,1520,0,0
217,-496,0,0,0,0,0,0,0,0,0,-1,1441,1520,0,0
224,-496,0,0,0,0,0,0,0,0,0,-1,1448,1520,0,0
231,-496,0,0,0,0,0,0,0,0,0,-1,1455,1520,0,0
238,-496,0,0,0,0,0,0,0,0,0,-1,1462,1520,0,0
245,-496,0,0,0,0,0,0,0,0,0,-1,1469,1520,0,0
252,-496,0,0,0,0,0,0,0,0,0,-1,1476,1520,0,0
259,-496,0,0,0,0,0,0,0,0,0,-1,1483,1520,0,0
266,-496,0,0,0,0,0,0,0,0,0,-1,1490,1520,0,0
273,-496,0,0,0,0,0,0,0,0,0,-1,1497,1520,0,0
280,-496,0,0,0,0,0,0,0,0,0,-1,1504,1520,0,0
287,-496,0,0,0,0,0,0,0,0,0,-1,1511,1520,0,0
294,-496,0,0,0,0,0,0,0,0,0,-1,1518,1520,0,0
301,-496,0,0,0,0,0,0,0,0,0,-1,1525,1520,0,0
308,-496,0,0,0,0,0,0,0,0,0,-1,1532,1520,0,0
315,-496,0,0,0,0,0,0,0,0,0,-1,1539,1520,0,0
322,-496,0,0,0,0,0,0,0,0,0,-1,1546,1520,0,0
329,-496,0,0,0,0,0,0,0,0,0,-1,1553,1520,0,0
336,-496,0,0,0,0,0,0,0,0,0,-1,1560,1520,0,0
343,-496,0,0,0,0,0,0,0,0,0,-1,1567,1520,0,0
350,-496,0,0,0,0,0,0,0,0,0,-1,1574,1520,0,0
357,-496,0,0,0,0,0,0,0,0,0,-1,1581,1520,0,0
364,-496,0,0,0,0,0,0,0,0,0,-1,1588,1520,0,0
371,-496,0,0,0,0,0,0,0,0,0,-1,1595,1520,0,0
378,-496,0,0,0,0,0,0,0,0,0,-1,1602,1520,0,0
385,-496,0,0,0,0,0,0,0,0,0,-1,1609,1520,0,0
392,-496,0,0,0,0,0,0,0,0,0,-1,1616,1520,0,0
399,-496,0,0,0,0,0,0,0,0,0,-1,1623,1520,0,0
406,-496,0,0,0,0,0,0,0,0,0,-1,1630,1520,0,0
413,-496,0,0,0,0,0,0,0,0,0,-1,1637,1520,0,0
420,-496,0,0,0,0,0,0,0,0,0,-1,1644,1520,0,0
427,-496,0,0,0,0,0,0,0,0,0,-1,1651,1520,0,0
434,-496,11.0457,3.37732,0,0,0,0,0,0,0,-1,1658,1520,11.0456,-3.37736
441,-496,11.788,2.75488,0,0,0,0,0,0,0,-1,1665,1520,11.7879,-2.75485
448,-496,12.2146,2.18494,0,0,0,0,0,0,0,-1,1672,1520,12.2146,-2.18489
455,-496,12.3489,1.65173,0,0,0,0,0,0,0,-1,1679,1520,12.3489,-1.65178
462,-496,12.1912,1.32361,0,0,0,0,0,0,0,-1,1686,1520,12.1911,-1.32357
469,-496,14.8138,5.77954,0,0,0,0,0,0,0,-1,1693,1520,14.8138,-5.77958
476,-496,15.2449,6.27942,-0.0230616,-0.101828,0.0382425,-0.00754924,-0.117341,0.385351,0.0758362,0.0484178,1700,1520,15.2449,-6.27936
483,-496,15.6478,6.77539,-0.0306382,-0.0838974,0.0346966,-0.01353,-0.101005,0.458095,0.0633107,0.0488777,1707,1520,15.6478,-6.77538
490,-496,10.6152,8.77356,0,0,0,0,0,0,0,-1,1714,1520,10.6153,-8.77361
497,-496,10.0806,8.22351,-0.0353555,-0.0566697,0.0289867,-0.015129,-0.0768962,0.609241,0.0470393,0.043461,1721,1520,10.0806,-8.22351
504,-496,9.28027,7.77454,-0.0339878,-0.0464818,0.0262874,-0.0132154,-0.0672543,0.668741,0.0411447,0.041744,1728,1520,9.2803,-7.77459
511,-496,7.89612,7.01074,0,0,0,0,0,0,0,-1,1735,1520,7.89612,-7.01073
518,-496,7.70703,7.20203,-0.0268551,-0.0308865,0.0206646,-0.00810818,-0.0496334,0.736781,0.0307447,0.0476106,1742,1520,7.70701,-7.20198
525,-496,7.74597,7.25549,-0.0230376,-0.0244504,0.0176724,-0.00605748,-0.0414305,0.765424,0.0258389,0.0438705,1749,1520,7.74595,-7.25555
532,-496,7.81116,7.33887,-0.0190285,-0.0182652,0.0151301,-0.00351199,-0.0337817,0.798009,0.0214465,0.0233569,1756,1520,7.8112,-7.3389
539,-496,7.81348,7.22864,-0.0144016,-0.0135313,0.0123152,-0.00164354,-0.0262894,0.803057,0.0170049,0.0115937,1763,1520,7.81344,-7.22862
546,-496,7.79126,7.09009,-0.0094655,-0.010445,0.0095987,-0.000344065,-0.0195664,0.759909,0.0129311,0.00946544,1770,1520,7.79126,-7.0901
553,-496,7.80066,6.95667,-0.00549408,-0.00829841,0.00686958,0.000114975,-0.0139075,0.684725,0.00931021,0.0147531,1777,1520,7.80068,-6.95671
560,-496,7.82678,6.79956,-0.00267612,-0.00583688,0.00461208,0.000618838,-0.00913183,0.620337,0.0063043,0.0141242,1784,1520,7.8268,-6.79958
567,-496,7.82361,6.64844,-0.000782954,-0.00344457,0.00258544,0.000794078,-0.0050216,0.547716,0.0036414,0.011752,1791,1520,7.82365,-6.64849
574,-496,7.8053,6.48962,0.000437551,-0.00100387,0.00044114,0.000561842,-0.00112817,0.27463,0.000993819,0.0117079,1798,1520,7.80535,-6.48968
581,-496,7.80493,6.35864,0.000779749,0.00124213,-0.00130973,0.00234092,-0.000319038,-0.872757,0.0016771,0.0119854,1805,1520,7.80487,-6.35866
588,-496,7.81299,6.21692,7.4596e-06,0.00424685,-0.00354207,0.00625503,-0.00200072,-1.05503,0.00497294,0.0130235,1812,1520,7.81298,-6.21697
595,-496,7.81311,6.04431,-0.00134136,0.00829931,-0.00654415,0.0116068,-0.00464884,-1.10283,0.00966753,0.0150794,1819,1520,7.81306,-6.04431
602,-496,7.83411,5.87781,-0.00302518,0.0122696,-0.00955207,0.0168584,-0.00761399,-1.12295,0.0144613,0.0184207,1826,1520,7.83411,-5.87783
609,-496,7.82446,5.71741,-0.00571598,0.0172491,-0.0132274,0.0232827,-0.0117495,-1.14285,0.0205879,0.0148421,1833,1520,7.82443,-5.71744
616,-496,7.8125,5.53955,-0.00948462,0.023147,-0.0176889,0.0308957,-0.0172334,-1.15792,0.028158,0.0117444,1840,1520,7.81244,-5.53952
623,-496,7.7959,5.42322,-0.0144447,0.0306446,-0.0231744,0.0404313,-0.0242313,-1.17121,0.0377215,0.025249,1847,1520,7.79585,-5.42319
630,-496,7.47949,5.18481,-0.0207327,0.039623,-0.029825,0.0518743,-0.032984,-1.18104,0.049396,0.0420044,1854,1520,7.47951,-5.18485
637,-496,7.0166,4.6571,-0.0282357,0.050258,-0.0376787,0.065417,-0.0433947,-1.18829,0.0632499,0.0450218,1861,1520,7.01657,-4.65713
644,-496,6.50842,3.97302,-0.0367517,0.0624511,-0.0467449,0.0810068,-0.0553074,-1.19292,0.0791659,0.0487507,1868,1520,6.50845,-3.97307
651,-496,5.79077,3.40405,0,0,0,0,0,0,0,-1,1875,1520,5.79072,-3.40411
658,-496,4.53979,4.94995,0,0,0,0,0,0,0,-1,1882,1520,4.53981,-4.95
665,-496,4.25964,5.37122,0,0,0,0,0,0,0,-1,1889,1520,4.25962,-5.37126
672,-496,0,0,0,0,0,0,0,0,0,-1,1896,1520,0,0
679,-496,0,0,0,0,0,0,0,0,0,-1,1903,1520,0,0
686,-496,0,0,0,0,0,0,0,0,0,-1,1910,1520,0,0
693,-496,0,0,0,0,0,0,0,0,0,-1,1917,1520,0,0
700,-496,0,0,0,0,0,0,0,0,0,-1,1924,1520,0,0
707,-496,0,0,0,0,0,0,0,0,0,-1,1931,1520,0,0
714,-496,0,0,0,0,0,0,0,0,0,-1,1938,1520,0,0
721,-496,0,0,0,0,0,0,0,0,0,-1,1945,1520,0,0
728,-496,0,0,0,0,0,0,0,0,0,-1,1952,1520,0,0
735,-496,0,0,0,0,0,0,0,0,0,-1,1959,1520,0,0
742,-496,0,0,0,0,0,0,0,0,0,-1,1966,1520,0,0
749,-496,0,0,0,0,0,0,0,0,0,-1,1973,1520,0,0
756,-496,0,0,0,0,0,0,0,0,0,-1,1980,1520,0,0
763,-496,0,0,0,0,0,0,0,0,0,-1,1987,1520,0,0
770,-496,0,0,0,0,0,0,0,0,0,-1,1994,1520,0,0
777,-496,0,0,0,0,0,0,0,0,0,-1,2001,1520,0,0
784,-496,0,0,0,0,0,0,0,0,0,-1,2008,1520,0,0
791,-496,0,0,0,0,0,0,0,0,0,-1,2015,1520,0,0
798,-496,0,0,0,0,0,0,0,0,0,-1,2022,1520,0,0
805,-496,0,0,0,0,0,0,0,0,0,-1,2029,1520,0,0
812,-496,0,0,0,0,0,0,0,0,0,-1,2036,1520,0,0
-700,-503,0,0,0,0,0,0,0,0,0,-1,524,1527,0,0
-693,-503,0,0,0,0,0,0,0,0,0,-1,531,1527,0,0
-686,-503,0,0,0,0,0,0,0,0,0,-1,538,1527,0,0
-679,-503,0,0,0,0,0,0,0,0,0,-1,545,1527,0,0
-672,-503,0,0,0,0,0,0,0,0,0,-1,552,1527,0,0
-665,-503,0,0,0,0,0,0,0,0,0,-1,559,1527,0,0
-658,-503,0,0,0,0,0,0,0,0,0,-1,566,1527,0,0
-651,-503,0,0,0,0,0,0,0,0,0,-1,573,1527,0,0
-644,-503,0,0,0,0,0,0,0,0,0,-1,580,1527,0,0
-637,-503,0,0,0,0,0,0,0,0,0,-1,587,1527,0,0
-630,-503,0,0,0,0,0,0,0,0,0,-1,594,1527,0,0
-623,-503,0,0,0,0,0,0,0,0,0,-1,601,1527,0,0
-616,-503,0,0,0,0,0,0,0,0,0,-1,608,1527,0,0
-609,-503,0,0,0,0,0,0,0,0,0,-1,615,1527,0,0
-602,-503,0,0,0,0,0,0,0,0,0,-1,622,1527,0,0
-595,-503,0,0,0,0,0,0,0,0,0,-1,629,1527,0,0
-588,-503,0,0,0,0,0,0,0,0,0,-1,636,1527,0,0
-581,-503,0,0,0,0,0,0,0,0,0,-1,643,1527,0,0
-574,-503,0,0,0,0,0,0,0,0,0,-1,650,1527,0,0
-567,-503,0,0,0,0,0,0,0,0,0,-1,657,1527,0,0
-560,-503,0,0,0,0,0,0,0,0,0,-1,664,1527,0,0
-553,-503,0,0,0,0,0,0,0,0,0,-1,671,1527,0,0
-546,-503,0,0,0,0,0,0,0,0,0,-1,678,1527,0,0
-539,-503,1.79205,1.19653,0,0,0,0,0,0,0,-1,685,1527,1.79206,-1.19653
-532,-503,1.22003,1.62378,0,0,0,0,0,0,0,-1,692,1527,1.22004,-1.6238
-525,-503,-0.801819,2.73218,0,0,0,0,0,0,0,-1,699,1527,-0.801824,-2.73221
-518,-503,-0.993164,3.16772,0,0,0,0,0,0,0,-1,706,1527,-0.993188,-3.16777
-511,-503,-1.25562,3.82214,0,0,0,0,0,0,0,-1,713,1527,-1.25562,-3.82219
-504,-503,-0.429504,3.34534,0,0,0,0,0,0,0,-1,720,1527,-0.429506,-3.34534
-497,-503,-1.5155,4.59204,0.022486,-0.00579916,0.00560923,0.0235577,-0.00687091,0.188795,0.0184275,0.047928,727,1527,-1.51553,-4.59202
-490,-503,-0.467346,4.23865,0.0139786,-0.00409381,0.000924676,0.0140258,-0.00414099,0.0509876,0.010994,0.0449611,734,1527,-0.467363,-4.2387
-483,-503,-0.31311,4.14282,0.00813876,-0.00201307,-0.000854801,0.00821023,-0.00208455,-0.0834189,0.00628465,0.0336542,741,1527,-0.313094,-4.14285
-476,-503,-0.371765,4.24585,0.00445628,-0.000753054,-0.00124426,0.00473821,-0.00103499,-0.222825,0.00355439,0.0152764,748,1527,-0.371748,-4.24587
-469,-503,-0.409851,4.40796,0.00212443,-0.000100406,-0.000903683,0.00244523,-0.000421207,-0.341116,0.00178718,0.00890341,755,1527,-0.409845,-4.40791
-462,-503,-0.40802,4.6073,0.000942207,0.000321231,-0.000640723,0.00134371,-8.02706e-05,-0.559776,0.000923726,0.0117702,762,1527,-0.407994,-4.6073
-455,-503,-0.414917,4.79956,0.000273087,0.000392277,-0.000419744,0.000756636,-9.12724e-05,-0.855916,0.000537438,0.0176018,769,1527,-0.414908,-4.79952
-448,-503,-0.392517,4.95166,0.000200564,-8.72973e-05,-0.000165651,0.000276079,-0.000162812,-0.427722,0.000256191,0.0159353,776,1527,-0.392509,-4.95166
-441,-503,-0.370667,5.099,-2.75934e-06,-0.000506886,-0.000107459,1.91908e-05,-0.000528836,-0.201493,0.000359125,0.0126403,783,1527,-0.370644,-5.09897
-434,-503,-0.395874,5.26868,0.000278562,-0.00159504,0.000204582,0.000300641,-0.00161712,0.107504,0.00119101,0.0104199,790,1527,-0.395884,-5.26867
-427,-503,-0.422607,5.43542,0.000694266,-0.0029769,0.000529457,0.000769099,-0.00305173,0.140409,0.00233349,0.015837,797,1527,-0.422597,-5.43541
-420,-503,-0.399536,5.61255,0.00110822,-0.00405184,0.000808862,0.00123205,-0.00417566,0.151902,0.00327269,0.0174072,804,1527,-0.399545,-5.61252
-413,-503,-0.397217,5.79529,0.001411,-0.00535253,0.000747024,0.00149253,-0.00543406,0.108703,0.00420936,0.0143098,811,1527,-0.39723,-5.79534
-406,-503,-0.372559,5.96423,0.00149827,-0.00666343,0.000860814,0.00158807,-0.00675323,0.103946,0.00511437,0.0126407,818,1527,-0.372574,-5.96427
-399,-503,-0.296265,6.16125,0.00125243,-0.00782403,0.0011513,0.00139619,-0.00796778,0.124224,0.00583322,0.0157643,825,1527,-0.296274,-6.1613
-392,-503,-0.209473,6.35303,0.000812543,-0.00857871,0.00159984,0.0010776,-0.00884377,0.164187,0.00628591,0.0275432,832,1527,-0.209489,-6.35301
-385,-503,-0.380127,6.31519,0.000243921,-0.00844686,0.00225504,0.000794206,-0.00899715,0.239346,0.0062796,0.0372116,839,1527,-0.380135,-6.31518
-378,-503,-0.225098,6.47913,-0.000759773,-0.00802747,0.00266115,0.000110439,-0.00889769,0.316045,0.00596894,0.0434588,846,1527,-0.225117,-6.47917
-371,-503,-0.465637,7.15161,-0.0017233,-0.00655053,0.00327054,-7.21952e-05,-0.00820163,0.467514,0.00544385,0.0452047,853,1527,-0.46561,-7.15167
-364,-503,-0.867188,6.98047,0,0,0,0,0,0,0,-1,860,1527,-0.867177,-6.98052
-357,-503,-0.0958862,6.4856,0,0,0,0,0,0,0,-1,867,1527,-0.0958678,-6.48555
-350,-503,0.219971,6.84827,0,0,0,0,0,0,0,-1,874,1527,0.21996,-6.84831
-343,-503,0.895691,7.56384,0,0,0,0,0,0,0,-1,881,1527,0.8957,-7.56384
-336,-503,1.26941,8.81177,0,0,0,0,0,0,0,-1,888,1527,1.26943,-8.81178
-329,-503,-6.71832,-0.386597,0,0,0,0,0,0,0,-1,895,1527,-6.71832,0.386628
-322,-503,-6.18427,0.137573,0,0,0,0,0,0,0,-1,902,1527,-6.18427,-0.137575
-315,-503,-5.76038,0.790649,0,0,0,0,0,0,0,-1,909,1527,-5.76037,-0.790667
-308,-503,-5.62927,1.49963,0,0,0,0,0,0,0,-1,916,1527,-5.62925,-1.49969
-301,-503,0,0,0,0,0,0,0,0,0,-1,923,1527,0,0
-294,-503,0,0,0,0,0,0,0,0,0,-1,930,1527,0,0
-287,-503,0,0,0,0,0,0,0,0,0,-1,937,1527,0,0
-280,-503,0,0,0,0,0,0,0,0,0,-1,944,1527,0,0
-273,-503,0,0,0,0,0,0,0,0,0,-1,951,1527,0,0
-266,-503,0,0,0,0,0,0,0,0,0,-1,958,1527,0,0
-259,-503,0,0,0,0,0,0,0,0,0,-1,965,1527,0,0
-252,-503,0,0,0,0,0,0,0,0,0,-1,972,1527,0,0
-245,-503,0,0,0,0,0,0,0,0,0,-1,979,1527,0,0
-238,-503,0,0,0,0,0,0,0,0,0,-1,986,1527,0,0
-231,-503,0,0,0,0,0,0,0,0,0,-1,993,1527,0,0
-224,-503,0,0,0,0,0,0,0,0,0,-1,1000,1527,0,0
-217,-503,0,0,0,0,0,0,0,0,0,-1,1007,1527,0,0
-210,-503,0,0,0,0,0,0,0,0,0,-1,1014,1527,0,0
-203,-503,0,0,0,0,0,0,0,0,0,-1,1021,1527,0,0
-196,-503,0,0,0,0,0,0,0,0,0,-1,1028,1527,0,0
-189,-503,0,0,0,0,0,0,0,0,0,-1,1035,1527,0,0
-182,-503,0,0,0,0,0,0,0,0,0,-1,1042,1527,0,0
-175,-503,0,0,0,0,0,0,0,0,0,-1,1049,1527,0,0
-168,-503,0,0,0,0,0,0,0,0,0,-1,1056,1527,0,0
-161,-503,0,0,0,0,0,0,0,0,0,-1,1063,1527,0,0
-154,-503,0,0,0,0,0,0,0,0,0,-1,1070,1527,0,0
-147,-503,0,0,0,0,0,0,0,0,0,-1,1077,1527,0,0
-140,-503,0,0,0,0,0,0,0,0,0,-1,1084,1527,0,0
-133,-503,0,0,0,0,0,0,0,0,0,-1,1091,1527,0,0
-126,-503,0,0,0,0,0,0,0,0,0,-1,1098,1527,0,0
-119,-503,0,0,0,0,0,0,0,0,0,-1,1105,1527,0,0
-112,-503,0,0,0,0,0,0,0,0,0,-1,1112,1527,0,0
-105,-503,0,0,0,0,0,0,0,0,0,-1,1119,1527,0,0
-98,-503,0,0,0,0,0,0,0,0,0,-1,1126,1527,0,0
-91,-503,0,0,0,0,0,0,0,0,0,-1,1133,1527,0,0
-84,-503,0,0,0,0,0,0,0,0,0,-1,1140,1527,0,0
-77,-503,0,0,0,0,0,0,0,0,0,-1,1147,1527,0,0
-70,-503,0,0,0,0,0,0,0,0,0,-1,1154,1527,0,0
-63,-503,0,0,0,0,0,0,0,0,0,-1,1161,1527,0,0
-56,-503,0,0,0,0,0,0,0,0,0,-1,1168,1527,0,0
-49,-503,0,0,0,0,0,0,0,0,0,-1,1175,1527,0,0
-42,-503,0,0,0,0,0,0,0,0,0,-1,1182,1527,0,0
-35,-503,0,0,0,0,0,0,0,0,0,-1,1189,1527,0,0
-28,-503,0,0,0,0,0,0,0,0,0,-1,1196,1527,0,0
-21,-503,0,0,0,0,0,0,0,0,0,-1,1203,1527,0,0
-14,-503,0,0,0,0,0,0,0,0,0,-1,1210,1527,0,0
-7,-503,0,0,0,0,0,0,0,0,0,-1,1217,1527,0,0
0,-503,0,0,0,0,0,0,0,0,0,-1,1224,1527,0,0
7,-503,0,0,0,0,0,0,0,0,0,-1,1231,1527,0,0
14,-503,0,0,0,0,0,0,0,0,0,-1,1238,1527,0,0
21,-503,0,0,0,0,0,0,0,0,0,-1,1245,1527,0,0
28,-503,0,0,0,0,0,0,0,0,0,-1,1252,1527,0,0
35,-503,0,0,0,0,0,0,0,0,0,-1,1259,1527,0,0
42,-503,0,0,0,0,0,0,0,0,0,-1,1266,1527,0,0
49,-503,0,0,0,0,0,0,0,0,0,-1,1273,1527,0,0
56,-503,0,0,0,0,0,0,0,0,0,-1,1280,1527,0,0
63,-503,0,0,0,0,0,0,0,0,0,-1,1287,1527,0,0
70,-503,0,0,0,0,0,0,0,0,0,-1,1294,1527,0,0
77,-503,0,0,0,0,0,0,0,0,0,-1,1301,1527,0,0
84,-503,0,0,0,0,0,0,0,0,0,-1,1308,1527,0,0
91,-503,0,0,0,0,0,0,0,0,0,-1,1315,1527,0,0
98,-503,0,0,0,0,0,0,0,0,0,-1,1322,1527,0,0
105,-503,0,0,0,0,0,0,0,0,0,-1,1329,1527,0,0
112,-503,0,0,0,0,0,0,0,0,0,-1,1336,1527,0,0
119,-503,0,0,0,0,0,0,0,0,0,-1,1343,1527,0,0
126,-503,0,0,0,0,0,0,0,0,0,-1,1350,1527,0,0
133,-503,0,0,0,0,0,0,0,0,0,-1,1357,1527,0,0
140,-503,0,0,0,0,0,0,0,0,0,-1,1364,1527,0,0
147,-503,0,0,0,0,0,0,0,0,0,-1,1371,1527,0,0
154,-503,0,0,0,0,0,0,0,0,0,-1,1378,1527,0,0
161,-503,0,0,0,0,0,0,0,0,0,-1,1385,1527,0,0
168,-503,0,0,0,0,0,0,0,0,0,-1,1392,1527,0,0
175,-503,0,0,0,0,0,0,0,0,0,-1,1399,1527,0,0
182,-503,0,0,0,0,0,0,0,0,0,-1,1406,1527,0,0
189,-503,0,0,0,0,0,0,0,0,0,-1,1413,1527,0,0
196,-503,0,0,0,0,0,0,0,0,0,-1,1420,1527,0,0
203,-503,0,0,0,0,0,0,0,0,0,-1,1427,1527,0,0
210,-503,0,0,0,0,0,0,0,0,0,-1,1434,1527,0,0
217,-503,0,0,0,0,0,0,0,0,0,-1,1441,1527,0,0
224,-503,0,0,0,0,0,0,0,0,0,-1,1448,1527,0,0
231,-503,0,0,0,0,0,0,0,0,0,-1,1455,1527,0,0
238,-503,0,0,0,0,0,0,0,0,0,-1,1462,1527,0,0
245,-503,0,0,0,0,0,0,0,0,0,-1,1469,1527,0,0
252,-503,0,0,0,0,0,0,0,0,0,-1,1476,1527,0,0
259,-503,0,0,0,0,0,0,0,0,0,-1,1483,1527,0,0
266,-503,0,0,0,0,0,0,0,0,0,-1,1490,1527,0,0
273,-503,0,0,0,0,0,0,0,0,0,-1,1497,1527,0,0
280,-503,0,0,0,0,0,0,0,0,0,-1,1504,1527,0,0
287,-503,0,0,0,0,0,0,0,0,0,-1,1511,1527,0,0
294,-503,0,0,0,0,0,0,0,0,0,-1,1518,1527,0,0
301,-503,0,0,0,0,0,0,0,0,0,-1,1525,1527,0,0
308,-503,0,0,0,0,0,0,0,0,0,-1,1532,1527,0,0
315,-503,0,0,0,0,0,0,0,0,0,-1,1539,1527,0,0
322,-503,0,0,0,0,0,0,0,0,0,-1,1546,1527,0,0
329,-503,0,0,0,0,0,0,0,0,0,-1,1553,1527,0,0
336,-503,0,0,0,0,0,0,0,0,0,-1,1560,1527,0,0
343,-503,0,0,0,0,0,0,0,0,0,-1,1567,1527,0,0
350,-503,0,0,0,0,0,0,0,0,0,-1,1574,1527,0,0
357,-503,0,0,0,0,0,0,0,0,0,-1,1581,1527,0,0
364,-503,0,0,0,0,0,0,0,0,0,-1,1588,1527,0,0
371,-503,0,0,0,0,0,0,0,0,0,-1,1595,1527,0,0
378,-503,0,0,0,0,0,0,0,0,0,-1,1602,1527,0,0
385,-503,0,0,0,0,0,0,0,0,0,-1,1609,1527,0,0
392,-503,0,0,0,0,0,0,0,0,0,-1,1616,1527,0,0
399,-503,0,0,0,0,0,0,0,0,0,-1,1623,1527,0,0
406,-503,0,0,0,0,0,0,0,0,0,-1,1630,1527,0,0
413,-503,0,0,0,0,0,0,0,0,0,-1,1637,1527,0,0
420,-503,0,0,0,0,0,0,0,0,0,-1,1644,1527,0,0
427,-503,10.5968,4.9856,0,0,0,0,0,0,0,-1,1651,1527,10.5969,-4.98563
434,-503,11.4329,3.97217,0,0,0,0,0,0,0,-1,1658,1527,11.4328,-3.97222
441,-503,12.0957,2.96509,0,0,0,0,0,0,0,-1,1665,1527,12.0957,-2.96512
448,-503,12.3259,2.53894,0,0,0,0,0,0,0,-1,1672,1527,12.326,-2.53895
455,-503,12.1669,2.18762,0,0,0,0,0,0,0,-1,1679,1527,12.1668,-2.18767
462,-503,11.59,2.60791,0,0,0,0,0,0,0,-1,1686,1527,11.5899,-2.60794
469,-503,11.1625,1.61853,0,0,0,0,0,0,0,-1,1693,1527,11.1625,-1.61856
476,-503,15.047,7.33289,0,0,0,0,0,0,0,-1,1700,1527,15.047,-7.33291
483,-503,15.4098,7.77637,0,0,0,0,0,0,0,-1,1707,1527,15.4098,-7.77638
490,-503,8.30957,8.0293,0,0,0,0,0,0,0,-1,1714,1527,8.30952,-8.02926
497,-503,8.34204,7.95898,-0.0293533,-0.0498036,0.0273577,-0.0103723,-0.0687846,0.606557,0.0428198,0.044331,1721,1527,8.34199,-7.95898
504,-503,8.19897,7.64514,-0.0279929,-0.0399969,0.0240897,-0.00916875,-0.058821,0.663308,0.0365432,0.0421395,1728,1527,8.19901,-7.64515
511,-503,8.08057,7.32214,-0.0252268,-0.0321484,0.0207519,-0.00764909,-0.0497261,0.702773,0.0309181,0.0428667,1735,1527,8.08051,-7.3222
518,-503,7.90295,7.48645,-0.021687,-0.0255269,0.0177339,-0.00576944,-0.0414444,0.731476,0.0259214,0.0401508,1742,1527,7.90294,-7.48642
525,-503,7.68982,7.41748,-0.0183455,-0.0196924,0.0146772,-0.00432633,-0.0337116,0.762473,0.0211801,0.0292549,1749,1527,7.68978,-7.41747
532,-503,7.64978,7.36877,-0.01497,-0.0142995,0.012181,-0.00244911,-0.0268204,0.799157,0.0171223,0.0115985,1756,1527,7.64983,-7.36875
539,-503,7.65442,7.25513,-0.0112148,-0.0102594,0.00960747,-0.00111777,-0.0203564,0.810237,0.0132141,0.0108217,1763,1527,7.65442,-7.25507
546,-503,7.63867,7.11047,-0.00717217,-0.00772903,0.00721353,-0.000231694,-0.0146695,0.766109,0.00970336,0.0108075,1770,1527,7.63872,-7.11052
553,-503,7.64233,6.9657,-0.00395038,-0.00591323,0.00487736,4.33177e-05,-0.00990693,0.686114,0.00661911,0.0128942,1777,1527,7.64228,-6.96569
560,-503,7.63147,6.81299,-0.00157669,-0.00370791,0.00286161,0.000411272,-0.00569588,0.607162,0.0039415,0.0125979,1784,1527,7.63152,-6.81298
567,-503,7.64343,6.64563,8.18829e-05,-0.00154577,0.00102585,0.000577514,-0.0020414,0.450071,0.00158882,0.0112712,1791,1527,7.64347,-6.64562
574,-503,7.65735,6.47681,0.00122476,0.000847147,-0.00116783,0.00221894,-0.000147037,-0.705255,0.00153066,0.0115778,1798,1527,7.65737,-6.47679
581,-503,7.64075,6.34424,0.00164657,0.00315656,-0.00301708,0.00551168,-0.000708546,-0.908001,0.00393197,0.0134019,1805,1527,7.6408,-6.34423
588,-503,7.64502,6.21863,0.000859137,0.00653145,-0.00567823,0.0100424,-0.00265184,-1.01701,0.007732,0.0163917,1812,1527,7.64507,-6.21864
595,-503,7.65259,6.0437,-0.000636985,0.0113562,-0.00939684,0.0165068,-0.00578758,-1.0694,0.0133584,0.0117059,1819,1527,7.65262,-6.04374
602,-503,7.66736,5.88623,-0.00247379,0.0162487,-0.0132756,0.0231317,-0.00935678,-1.09248,0.0193111,0.0121717,1826,1527,7.66738,-5.88618
609,-503,7.68799,5.7157,-0.00550201,0.0225012,-0.0181429,0.031417,-0.0144178,-1.11403,0.0270626,0.0154733,1833,1527,7.68801,-5.71566
616,-503,7.64319,5.5614,-0.00986986,0.0301697,-0.024173,0.0415366,-0.0212368,-1.13124,0.0368685,0.0188234,1840,1527,7.64315,-5.56139
623,-503,7.52502,5.2561,-0.0158291,0.0397509,-0.0316051,0.0540461,-0.0301243,-1.14602,0.0492457,0.0361584,1847,1527,7.52498,-5.25614
630,-503,7.328,4.79395,-0.023476,0.0512934,-0.040531,0.0690483,-0.0412309,-1.15792,0.0643414,0.0438648,1854,1527,7.32803,-4.794
637,-503,7.11658,4.23999,-0.0327602,0.0648298,-0.0509834,0.0866058,-0.0545361,-1.16713,0.0821865,0.0426287,1861,1527,7.11657,-4.23995
644,-503,6.70947,3.70093,-0.0434876,0.0801446,-0.0629246,0.106537,-0.06988,-1.17365,0.102585,0.0468283,1868,1527,6.70942,-3.70098
651,-503,6.16589,3.17236,0,0,0,0,0,0,0,-1,1875,1527,6.16587,-3.17241
658,-503,5.60913,3.79626,0,0,0,0,0,0,0,-1,1882,1527,5.60907,-3.79628
665,-503,0,0,0,0,0,0,0,0,0,-1,1889,1527,0,0
672,-503,0,0,0,0,0,0,0,0,0,-1,1896,1527,0,0
679,-503,0,0,0,0,0,0,0,0,0,-1,1903,1527,0,0
686,-503,0,0,0,0,0,0,0,0,0,-1,1910,1527,0,0
693,-503,0,0,0,0,0,0,0,0,0,-1,1917,1527,0,0
700,-503,0,0,0,0,0,0,0,0,0,-1,1924,1527,0,0
707,-503,0,0,0,0,0,0,0,0,0,-1,1931,1527,0,0
714,-503,0,0,0,0,0,0,0,0,0,-1,1938,1527,0,0
721,-503,0,0,0,0,0,0,0,0,0,-1,1945,1527,0,0
728,-503,0,0,0,0,0,0,0,0,0,-1,1952,1527,0,0
735,-503,0,0,0,0,0,0,0,0,0,-1,1959,1527,0,0
742,-503,0,0,0,0,0,0,0,0,0,-1,1966,1527,0,0
749,-503,0,0,0,0,0,0,0,0,0,-1,1973,1527,0,0
756,-503,0,0,0,0,0,0,0,0,0,-1,1980,1527,0,0
763,-503,0,0,0,0,0,0,0,0,0,-1,1987,1527,0,0
770,-503,0,0,0,0,0,0,0,0,0,-1,1994,1527,0,0
777,-503,0,0,0,0,0,0,0,0,0,-1,2001,1527,0,0
784,-503,0,0,0,0,0,0,0,0,0,-1,2008,1527,0,0
791,-503,0,0,0,0,0,0,0,0,0,-1,2015,1527,0,0
798,-503,0,0,0,0,0,0,0,0,0,-1,2022,1527,0,0
805,-503,0,0,0,0,0,0,0,0,0,-1,2029,1527,0,0
812,-503,0,0,0,0,0,0,0,0,0,-1,2036,1527,0,0
-700,-510,0,0,0,0,0,0,0,0,0,-1,524,1534,0,0
-693,-510,0,0,0,0,0,0,0,0,0,-1,531,1534,0,0
-686,-510,0,0,0,0,0,0,0,0,0,-1,538,1534,0,0
-679,-510,0,0,0,0,0,0,0,0,0,-1,545,1534,0,0
-672,-510,0,0,0,0,0,0,0,0,0,-1,552,1534,0,0
-665,-510,0,0,0,0,0,0,0,0,0,-1,559,1534,0,0
-658,-510,0,0,0,0,0,0,0,0,0,-1,566,1534,0,0
-651,-510,0,0,0,0,0,0,0,0,0,-1,573,1534,0,0
-644,-510,0,0,0,0,0,0,0,0,0,-1,580,1534,0,0
-637,-510,0,0,0,0,0,0,0,0,0,-1,587,1534,0,0
-630,-510,0,0,0,0,0,0,0,0,0,-1,594,1534,0,0
-623,-510,0,0,0,0,0,0,0,0,0,-1,601,1534,0,0
-616,-510,0,0,0,0,0,0,0,0,0,-1,608,1534,0,0
-609,-510,0,0,0,0,0,0,0,0,0,-1,615,1534,0,0
-602,-510,0,0,0,0,0,0,0,0,0,-1,622,1534,0,0
-595,-510,0,0,0,0,0,0,0,0,0,-1,629,1534,0,0
-588,-510,0,0,0,0,0,0,0,0,0,-1,636,1534,0,0
-581,-510,0,0,0,0,0,0,0,0,0,-1,643,1534,0,0
-574,-510,0,0,0,0,0,0,0,0,0,-1,650,1534,0,0
-567,-510,0,0,0,0,0,0,0,0,0,-1,657,1534,0,0
-560,-510,0,0,0,0,0,0,0,0,0,-1,664,1534,0,0
-553,-510,0,0,0,0,0,0,0,0,0,-1,671,1534,0,0
-546,-510,0,0,0,0,0,0,0,0,0,-1,678,1534,0,0
-539,-510,0,0,0,0,0,0,0,0,0,-1,685,1534,0,0
-532,-510,-0.870117,3.41309,0,0,0,0,0,0,0,-1,692,1534,-0.870118,-3.41313
-525,-510,-1.00848,5.14966,0,0,0,0,0,0,0,-1,699,1534,-1.00849,-5.14961
-518,-510,-1.12897,6.83179,0,0,0,0,0,0,0,-1,706,1534,-1.12894,-6.83174
-511,-510,1.06183,2.54553,0,0,0,0,0,0,0,-1,713,1534,1.06181,-2.54552
-504,-510,0.460083,2.64954,0,0,0,0,0,0,0,-1,720,1534,0.460081,-2.64956
-497,-510,-0.423096,4.46216,0,0,0,0,0,0,0,-1,727,1534,-0.423104,-4.46218
-490,-510,-0.297668,4.50024,0.00813705,0.000805458,0.002938,0.00916911,-0.000226608,0.337816,0.00618966,0.0445086,734,1534,-0.297695,-4.50026
-483,-510,-0.219116,4.45886,0.00320543,0.00233028,0.00116309,0.00401053,0.00152518,0.605479,0.00233749,0.0383374,741,1534,-0.219107,-4.45885
-476,-510,-0.143677,4.22888,0.000307404,0.00310608,0.000802866,0.00332005,9.34412e-05,1.31035,0.00218288,0.024084,748,1534,-0.143685,-4.22891
-469,-510,-0.228577,4.40442,-0.0013374,0.00336545,0.00102673,0.00357983,-0.00155178,1.36495,0.00303889,0.00950162,755,1534,-0.228564,-4.40444
-462,-510,-0.225342,4.59558,-0.0018956,0.00337722,0.00115542,0.00361929,-0.00213768,1.36427,0.00336028,0.0102507,762,1534,-0.225333,-4.59554
-455,-510,-0.224487,4.79358,-0.00193608,0.00304834,0.00120782,0.00332559,-0.00221334,1.34516,0.00321932,0.0131255,769,1534,-0.224501,-4.79352
-448,-510,-0.19635,4.95642,-0.00143874,0.00227036,0.00124226,0.00264798,-0.00181636,1.2757,0.00259235,0.0126315,776,1534,-0.196359,-4.95644
-441,-510,-0.206177,5.10986,-0.00116116,0.00158661,0.00108574,0.00196384,-0.00153838,1.23641,0.00202698,0.0129305,783,1534,-0.206195,-5.10987
-434,-510,-0.255676,5.2793,-0.000513487,0.000355047,0.00115995,0.00115936,-0.0013178,0.964513,0.00143116,0.0139941,790,1534,-0.255686,-5.27927
-427,-510,-0.250671,5.41199,0.000168594,-0.0011558,0.00125423,0.000924709,-0.00191192,0.542512,0.00167046,0.0213362,797,1534,-0.250645,-5.41196
-420,-510,-0.238708,5.5874,0.000797977,-0.00217868,0.0012986,0.00128487,-0.00266557,0.358712,0.00232676,0.0206863,804,1534,-0.238717,-5.58739
-413,-510,-0.224304,5.81897,0.00125812,-0.00336917,0.000986577,0.00145968,-0.00357074,0.201535,0.00298835,0.0110395,811,1534,-0.224293,-5.81893
-406,-510,-0.226196,5.97534,0.00141904,-0.00452061,0.000824701,0.00153142,-0.00463299,0.135434,0.00370615,0.00993654,818,1534,-0.226185,-5.97531
-399,-510,-0.208679,6.12891,0.00116578,-0.00540376,0.00086372,0.00127744,-0.00551542,0.128563,0.00416852,0.0106003,825,1534,-0.208652,-6.12893
-392,-510,-0.139526,6.36279,0.000715056,-0.00584578,0.00106534,0.000883709,-0.00601443,0.157007,0.00433432,0.0174767,832,1534,-0.139497,-6.3628
-385,-510,-0.169128,6.52344,0.000304536,-0.00543558,0.00151816,0.000681331,-0.00581238,0.243276,0.00412085,0.0272974,839,1534,-0.169126,-6.52348
-378,-510,-0.195129,6.41052,-0.000465367,-0.00490832,0.00168151,9.92699e-05,-0.00547296,0.323962,0.00368217,0.0343183,846,1534,-0.195116,-6.41054
-371,-510,-0.439392,6.69849,-0.00128951,-0.00357183,0.00198229,-0.000143372,-0.00471796,0.524226,0.00309862,0.0422732,853,1534,-0.439366,-6.69853
-364,-510,-0.646545,6.99011,-0.00215875,-0.00124285,0.00252505,0.000865444,-0.00426705,0.875105,0.00317277,0.0477049,860,1534,-0.646572,-6.99013
-357,-510,-0.610229,7.22021,0,0,0,0,0,0,0,-1,867,1534,-0.610214,-7.22017
-350,-510,-0.385437,4.60083,0,0,0,0,0,0,0,-1,874,1534,-0.385463,-4.60078
-343,-510,-0.248047,5.14624,0,0,0,0,0,0,0,-1,881,1534,-0.248023,-5.1462
-336,-510,-2.29181,7.53674,0,0,0,0,0,0,0,-1,888,1534,-2.29181,-7.5367
-329,-510,2.02997,7.40417,0,0,0,0,0,0,0,-1,895,1534,2.02997,-7.40421
-322,-510,-2.1048,8.71082,0,0,0,0,0,0,0,-1,902,1534,-2.10477,-8.71083
-315,-510,-1.81354,9.05713,0,0,0,0,0,0,0,-1,909,1534,-1.81353,-9.05714
-308,-510,-1.70624,9.36243,0,0,0,0,0,0,0,-1,916,1534,-1.70626,-9.36241
-301,-510,-1.69275,9.63086,0,0,0,0,0,0,0,-1,923,1534,-1.69277,-9.63084
-294,-510,0,0,0,0,0,0,0,0,0,-1,930,1534,0,0
-287,-510,0,0,0,0,0,0,0,0,0,-1,937,1534,0,0
-280,-510,0,0,0,0,0,0,0,0,0,-1,944,1534,0,0
-273,-510,0,0,0,0,0,0,0,0,0,-1,951,1534,0,0
-266,-510,0,0,0,0,0,0,0,0,0,-1,958,1534,0,0
-259,-510,0,0,0,0,0,0,0,0,0,-1,965,1534,0,0
-252,-510,0,0,0,0,0,0,0,0,0,-1,972,1534,0,0
-245,-510,0,0,0,0,0,0,0,0,0,-1,979,1534,0,0
-238,-510,0,0,0,0,0,0,0,0,0,-1,986,1534,0,0
-231,-510,0,0,0,0,0,0,0,0,0,-1,993,1534,0,0
-224,-510,0,0,0,0,0,0,0,0,0,-1,1000,1534,0,0
-217,-510,0,0,0,0,0,0,0,0,0,-1,1007,1534,0,0
-210,-510,0,0,0,0,0,0,0,0,0,-1,1014,1534,0,0
-203,-510,0,0,0,0,0,0,0,0,0,-1,1021,1534,0,0
-196,-510,0,0,0,0,0,0,0,0,0,-1,1028,1534,0,0
-189,-510,0,0,0,0,0,0,0,0,0,-1,1035,1534,0,0
-182,-510,0,0,0,0,0,0,0,0,0,-1,1042,1534,0,0
-175,-510,0,0,0,0,0,0,0,0,0,-1,1049,1534,0,0
-168,-510,0,0,0,0,0,0,0,0,0,-1,1056,1534,0,0
-161,-510,0,0,0,0,0,0,0,0,0,-1,1063,1534,0,0
-154,-510,0,0,0,0,0,0,0,0,0,-1,1070,1534,0,0
-147,-510,0,0,0,0,0,0,0,0,0,-1,1077,1534,0,0
-140,-510,0,0,0,0,0,0,0,0,0,-1,1084,1534,0,0
-133,-510,0,0,0,0,0,0,0,0,0,-1,1091,1534,0,0
-126,-510,0,0,0,0,0,0,0,0,0,-1,1098,1534,0,0
-119,-510,0,0,0,0,0,0,0,0,0,-1,1105,1534,0,0
-112,-510,0,0,0,0,0,0,0,0,0,-1,1112,1534,0,0
-105,-510,0,0,0,0,0,0,0,0,0,-1,1119,1534,0,0
-98,-510,0,0,0,0,0,0,0,0,0,-1,1126,1534,0,0
-91,-510,0,0,0,0,0,0,0,0,0,-1,1133,1534,0,0
-84,-510,0,0,0,0,0,0,0,0,0,-1,1140,1534,0,0
-77,-510,0,0,0,0,0,0,0,0,0,-1,1147,1534,0,0
-70,-510,0,0,0,0,0,0,0,0,0,-1,1154,1534,0,0
-63,-510,0,0,0,0,0,0,0,0,0,-1,1161,1534,0,0
-56,-510,0,0,0,0,0,0,0,0,0,-1,1168,1534,0,0
-49,-510,0,0,0,0,0,0,0,0,0,-1,1175,1534,0,0
-42,-510,0,0,0,0,0,0,0,0,0,-1,1182,1534,0,0
-35,-510,0,0,0,0,0,0,0,0,0,-1,1189,1534,0,0
-28,-510,0,0,0,0,0,0,0,0,0,-1,1196,1534,0,0
-21,-510,0,0,0,0,0,0,0,0,0,-1,1203,1534,0,0
-14,-510,0,0,0,0,0,0,0,0,0,-1,1210,1534,0,0
-7,-510,0,0,0,0,0,0,0,0,0,-1,1217,1534,0,0
0,-510,0,0,0,0,0,0,0,0,0,-1,1224,1534,0,0
7,-510,0,0,0,0,0,0,0,0,0,-1,1231,1534,0,0
14,-510,0,0,0,0,0,0,0,0,0,-1,1238,1534,0,0
21,-510,0,0,0,0,0,0,0,0,0,-1,1245,1534,0,0
28,-510,0,0,0,0,0,0,0,0,0,-1,1252,1534,0,0
35,-510,0,0,0,0,0,0,0,0,0,-1,1259,1534,0,0
42,-510,0,0,0,0,0,0,0,0,0,-1,1266,1534,0,0
49,-510,0,0,0,0,0,0,0,0,0,-1,1273,1534,0,0
56,-510,0,0,0,0,0,0,0,0,0,-1,1280,1534,0,0
63,-510,0,0,0,0,0,0,0,0,0,-1,1287,1534,0,0
70,-510,0,0,0,0,0,0,0,0,0,-1,1294,1534,0,0
77,-510,0,0,0,0,0,0,0,0,0,-1,1301,1534,0,0
84,-510,0,0,0,0,0,0,0,0,0,-1,1308,1534,0,0
91,-510,0,0,0,0,0,0,0,0,0,-1,1315,1534,0,0
98,-510,0,0,0,0,0,0,0,0,0,-1,1322,1534,0,0
105,-510,0,0,0,0,0,0,0,0,0,-1,1329,1534,0,0
112,-510,0,0,0,0,0,0,0,0,0,-1,1336,1534,0,0
119,-510,0,0,0,0,0,0,0,0,0,-1,1343,1534,0,0
126,-510,0,0,0,0,0,0,0,0,0,-1,1350,1534,0,0
133,-510,0,0,0,0,0,0,0,0,0,-1,1357,1534,0,0
140,-510,0,0,0,0,0,0,0,0,0,-1,1364,1534,0,0
147,-510,0,0,0,0,0,0,0,0,0,-1,1371,1534,0,0
154,-510,0,0,0,0,0,0,0,0,0,-1,1378,1534,0,0
161,-510,0,0,0,0,0,0,0,0,0,-1,1385,1534,0,0
168,-510,0,0,0,0,0,0,0,0,0,-1,1392,1534,0,0
175,-510,0,0,0,0,0,0,0,0,0,-1,1399,1534,0,0
182,-510,0,0,0,0,0,0,0,0,0,-1,1406,1534,0,0
189,-510,0,0,0,0,0,0,0,0,0,-1,1413,1534,0,0
196,-510,0,0,0,0,0,0,0,0,0,-1,1420,1534,0,0
203,-510,0,0,0,0,0,0,0,0,0,-1,1427,1534,0,0
210,-510,0,0,0,0,0,0,0,0,0,-1,1434,1534,0,0
217,-510,0,0,0,0,0,0,0,0,0,-1,1441,1534,0,0
224,-510,0,0,0,0,0,0,0,0,0,-1,1448,1534,0,0
231,-510,0,0,0,0,0,0,0,0,0,-1,1455,1534,0,0
238,-510,0,0,0,0,0,0,0,0,0,-1,1462,1534,0,0
245,-510,0,0,0,0,0,0,0,0,0,-1,1469,1534,0,0
252,-510,0,0,0,0,0,0,0,0,0,-1,1476,1534,0,0
259,-510,0,0,0,0,0,0,0,0,0,-1,1483,1534,0,0
266,-510,0,0,0,0,0,0,0,0,0,-1,1490,1534,0,0
273,-510,0,0,0,0,0,0,0,0,0,-1,1497,1534,0,0
280,-510,0,0,0,0,0,0,0,0,0,-1,1504,1534,0,0
287,-510,0,0,0,0,0,0,0,0,0,-1,1511,1534,0,0
294,-510,0,0,0,0,0,0,0,0,0,-1,1518,1534,0,0
301,-510,0,0,0,0,0,0,0,0,0,-1,1525,1534,0,0
308,-510,0,0,0,0,0,0,0,0,0,-1,1532,1534,0,0
315,-510,0,0,0,0,0,0,0,0,0,-1,1539,1534,0,0
322,-510,0,0,0,0,0,0,0,0,0,-1,1546,1534,0,0
329,-510,0,0,0,0,0,0,0,0,0,-1,1553,1534,0,0
336,-510,0,0,0,0,0,0,0,0,0,-1,1560,1534,0,0
343,-510,0,0,0,0,0,0,0,0,0,-1,1567,1534,0,0
350,-510,0,0,0,0,0,0,0,0,0,-1,1574,1534,0,0
357,-510,0,0,0,0,0,0,0,0,0,-1,1581,1534,0,0
364,-510,0,0,0,0,0,0,0,0,0,-1,1588,1534,0,0
371,-510,0,0,0,0,0,0,0,0,0,-1,1595,1534,0,0
378,-510,0,0,0,0,0,0,0,0,0,-1,1602,1534,0,0
385,-510,0,0,0,0,0,0,0,0,0,-1,1609,1534,0,0
392,-510,0,0,0,0,0,0,0,0,0,-1,1616,1534,0,0
399,-510,0,0,0,0,0,0,0,0,0,-1,1623,1534,0,0
406,-510,0,0,0,0,0,0,0,0,0,-1,1630,1534,0,0
413,-510,0,0,0,0,0,0,0,0,0,-1,1637,1534,0,0
420,-510,13.1918,5.99402,0,0,0,0,0,0,0,-1,1644,1534,13.1917,-5.994
427,-510,10.9799,5.12341,0,0,0,0,0,0,0,-1,1651,1534,10.9798,-5.12337
434,-510,11.8219,4.07898,0,0,0,0,0,0,0,-1,1658,1534,11.8219,-4.07895
441,-510,12.6812,3.02991,0,0,0,0,0,0,0,-1,1665,1534,12.6811,-3.0299
448,-510,13.2379,2.2804,0,0,0,0,0,0,0,-1,1672,1534,13.2379,-2.28037
455,-510,9.76892,2.20642,0,0,0,0,0,0,0,-1,1679,1534,9.76894,-2.20647
462,-510,9.84692,2.49182,0,0,0,0,0,0,0,-1,1686,1534,9.84695,-2.49185
469,-510,9.99475,2.57556,0,0,0,0,0,0,0,-1,1693,1534,9.99477,-2.57556
476,-510,9.94727,3.302,0,0,0,0,0,0,0,-1,1700,1534,9.94725,-3.30196
483,-510,8.25049,4.48633,0,0,0,0,0,0,0,-1,1707,1534,8.25049,-4.48635
490,-510,8.22925,7.91626,0,0,0,0,0,0,0,-1,1714,1534,8.22928,-7.91626
497,-510,8.02393,7.76294,-0.0242646,-0.0432744,0.0249357,-0.00708374,-0.0604553,0.60331,0.0381621,0.0469095,1721,1534,8.02393,-7.76293
504,-510,7.75989,7.42749,-0.0227278,-0.0338535,0.0214723,-0.00610949,-0.0504719,0.65865,0.0318076,0.0419151,1728,1534,7.7599,-7.4275
511,-510,7.7218,7.31921,-0.0200837,-0.0265621,0.0178953,-0.00513678,-0.041509,0.695864,0.0261293,0.0385827,1735,1534,7.7218,-7.31927
518,-510,7.70422,7.55908,-0.0169093,-0.0205146,0.0148166,-0.00378611,-0.0336378,0.724863,0.0212758,0.0321601,1742,1534,7.70426,-7.55907
525,-510,7.55054,7.52588,-0.0139179,-0.0153485,0.0118023,-0.00280927,-0.0264572,0.75513,0.0167803,0.0167347,1749,1534,7.55054,-7.52591
532,-510,7.51343,7.38611,-0.011057,-0.0107708,0.00944589,-0.00146693,-0.0203609,0.79297,0.0131123,0.0113255,1756,1534,7.51344,-7.38608
539,-510,7.50732,7.24402,-0.00806492,-0.00742358,0.00718847,-0.000548633,-0.0149399,0.807688,0.00978216,0.0117274,1763,1534,7.50727,-7.24398
546,-510,7.48254,7.12329,-0.00476554,-0.00541423,0.00511254,3.29316e-05,-0.0102127,0.75372,0.00681947,0.0114348,1770,1534,7.48248,-7.12335
553,-510,7.47461,6.97192,-0.00212968,-0.00390885,0.00311646,0.000221676,-0.00626021,0.646372,0.00424929,0.0115002,1777,1534,7.47466,-6.97192
560,-510,7.48694,6.79443,-0.000139646,-0.00186999,0.00129041,0.000548781,-0.00255842,0.490084,0.00191494,0.0117903,1784,1534,7.487,-6.79438
567,-510,7.5011,6.63684,0.00132738,0.000127707,-0.000409344,0.00145374,1.34378e-06,-0.299417,0.000968715,0.0116934,1791,1534,7.50115,-6.63684
574,-510,7.50452,6.47681,0.00244052,0.00257568,-0.00277424,0.00528316,-0.00026696,-0.797576,0.00361438,0.0129586,1798,1534,7.50458,-6.47676
581,-510,7.47705,6.35193,0.00302448,0.00507339,-0.0048581,0.00901388,-0.000916013,-0.889313,0.0063367,0.0122736,1805,1534,7.47711,-6.35196
588,-510,7.47571,6.21631,0.00231704,0.00894958,-0.00811142,0.0143965,-0.00312984,-0.97945,0.0107933,0.0138072,1812,1534,7.47565,-6.21627
595,-510,7.53247,6.02527,0.000762458,0.0147497,-0.0127576,0.0223049,-0.00679272,-1.03613,0.0175772,0.0123203,1819,1534,7.53243,-6.02524
602,-510,7.52527,5.85364,-0.00112419,0.0208277,-0.0177944,0.030759,-0.0110555,-1.06175,0.0250191,0.017069,1826,1534,7.52523,-5.85366
609,-510,7.51501,5.75781,-0.00435706,0.0286559,-0.0242112,0.0414521,-0.0171532,-1.08459,0.0347917,0.025108,1833,1534,7.51505,-5.7578
616,-510,7.63232,5.52002,-0.00919675,0.0384444,-0.0322246,0.0546968,-0.0254492,-1.10368,0.0472882,0.0371662,1840,1534,7.63235,-5.52003
623,-510,7.63123,5.16626,-0.0159874,0.0505354,-0.0419471,0.0708079,-0.0362599,-1.12061,0.0628792,0.0426069,1847,1534,7.63124,-5.16631
630,-510,7.76184,4.80176,0,0,0,0,0,0,0,-1,1854,1534,7.76184,-4.80179
637,-510,7.70105,3.4657,-0.0358896,0.0819381,-0.0668471,0.112127,-0.0660789,-1.1466,0.104026,0.0439823,1861,1534,7.70108,-3.46574
644,-510,7.10291,2.7948,-0.0488959,0.10097,-0.0818083,0.136976,-0.0849023,-1.15618,0.129272,0.0471836,1868,1534,7.10291,-2.7948
651,-510,6.34143,2.13672,0,0,0,0,0,0,0,-1,1875,1534,6.34148,-2.1367
658,-510,0,0,0,0,0,0,0,0,0,-1,1882,1534,0,0
665,-510,0,0,0,0,0,0,0,0,0,-1,1889,1534,0,0
672,-510,0,0,0,0,0,0,0,0,0,-1,1896,1534,0,0
679,-510,0,0,0,0,0,0,0,0,0,-1,1903,1534,0,0
686,-510,0,0,0,0,0,0,0,0,0,-1,1910,1534,0,0
693,-510,0,0,0,0,0,0,0,0,0,-1,1917,1534,0,0
700,-510,0,0,0,0,0,0,0,0,0,-1,1924,1534,0,0
707,-510,0,0,0,0,0,0,0,0,0,-1,1931,1534,0,0
714,-510,0,0,0,0,0,0,0,0,0,-1,1938,1534,0,0
721,-510,0,0,0,0,0,0,0,0,0,-1,1945,1534,0,0
728,-510,0,0,0,0,0,0,0,0,0,-1,1952,1534,0,0
735,-510,0,0,0,0,0,0,0,0,0,-1,1959,1534,0,0
742,-510,0,0,0,0,0,0,0,0,0,-1,1966,1534,0,0
749,-510,0,0,0,0,0,0,0,0,0,-1,1973,1534,0,0
756,-510,0,0,0,0,0,0,0,0,0,-1,1980,1534,0,0
763,-510,0,0,0,0,0,0,0,0,0,-1,1987,1534,0,0
770,-510,0,0,0,0,0,0,0,0,0,-1,1994,1534,0,0
777,-510,0,0,0,0,0,0,0,0,0,-1,2001,1534,0,0
784,-510,0,0,0,0,0,0,0,0,0,-1,2008,1534,0,0
791,-510,0,0,0,0,0,0,0,0,0,-1,2015,1534,0,0
798,-510,0,0,0,0,0,0,0,0,0,-1,2022,1534,0,0
805,-510,0,0,0,0,0,0,0,0,0,-1,2029,1534,0,0
812,-510,0,0,0,0,0,0,0,0,0,-1,2036,1534,0,0
-700,-517,0,0,0,0,0,0,0,0,0,-1,524,1541,0,0
-693,-517,0,0,0,0,0,0,0,0,0,-1,531,1541,0,0
-686,-517,0,0,0,0,0,0,0,0,0,-1,538,1541,0,0
-679,-517,0,0,0,0,0,0,0,0,0,-1,545,1541,0,0
-672,-517,0,0,0,0,0,0,0,0,0,-1,552,1541,0,0
-665,-517,0,0,0,0,0,0,0,0,0,-1,559,1541,0,0
-658,-517,0,0,0,0,0,0,0,0,0,-1,566,1541,0,0
-651,-517,0,0,0,0,0,0,0,0,0,-1,573,1541,0,0
-644,-517,0,0,0,0,0,0,0,0,0,-1,580,1541,0,0
-637,-517,0,0,0,0,0,0,0,0,0,-1,587,1541,0,0
-630,-517,0,0,0,0,0,0,0,0,0,-1,594,1541,0,0
-623,-517,0,0,0,0,0,0,0,0,0,-1,601,1541,0,0
-616,-517,0,0,0,0,0,0,0,0,0,-1,608,1541,0,0
-609,-517,0,0,0,0,0,0,0,0,0,-1,615,1541,0,0
-602,-517,0,0,0,0,0,0,0,0,0,-1,622,1541,0,0
-595,-517,0,0,0,0,0,0,0,0,0,-1,629,1541,0,0
-588,-517,0,0,0,0,0,0,0,0,0,-1,636,1541,0,0
-581,-517,0,0,0,0,0,0,0,0,0,-1,643,1541,0,0
-574,-517,0,0,0,0,0,0,0,0,0,-1,650,1541,0,0
-567,-517,0,0,0,0,0,0,0,0,0,-1,657,1541,0,0
-560,-517,0,0,0,0,0,0,0,0,0,-1,664,1541,0,0
-553,-517,0,0,0,0,0,0,0,0,0,-1,671,1541,0,0
-546,-517,0,0,0,0,0,0,0,0,0,-1,678,1541,0,0
-539,-517,0,0,0,0,0,0,0,0,0,-1,685,1541,0,0
-532,-517,0,0,0,0,0,0,0,0,0,-1,692,1541,0,0
-525,-517,-1.10199,5.8042,0,0,0,0,0,0,0,-1,699,1541,-1.10197,-5.80418
-518,-517,-0.386108,1.21472,0,0,0,0,0,0,0,-1,706,1541,-0.386078,-1.21472
-511,-517,-0.265015,1.6781,0,0,0,0,0,0,0,-1,713,1541,-0.264985,-1.6781
-504,-517,0.239441,2.9043,0,0,0,0,0,0,0,-1,720,1541,0.239415,-2.90435
-497,-517,-0.899475,3.46912,0,0,0,0,0,0,0,-1,727,1541,-0.899466,-3.46906
-490,-517,-0.201477,4.83911,0,0,0,0,0,0,0,-1,734,1541,-0.201489,-4.83907
-483,-517,-0.324768,4.65137,-0.00222316,0.0085437,0.0057789,0.0110582,-0.00473764,1.16039,0.00935992,0.0399201,741,1541,-0.324768,-4.6514
-476,-517,0.0526123,4.20227,-0.00440768,0.00864931,0.00529073,0.010524,-0.00628234,1.23027,0.0098056,0.0323785,748,1541,0.0526419,-4.20224
-469,-517,-0.0177612,4.38977,-0.00537817,0.00827495,0.00514489,0.00999659,-0.00709981,1.24788,0.00991773,0.01334,755,1541,-0.0177551,-4.38975
-462,-517,-0.0481567,4.57507,-0.00532167,0.00765694,0.0049117,0.00930618,-0.00697091,1.24685,0.00942977,0.0135236,762,1541,-0.0481725,-4.57501
-455,-517,-0.0389404,4.78186,-0.00476196,0.00671194,0.00454744,0.00829563,-0.00634566,1.23567,0.00847811,0.0129963,769,1541,-0.0389237,-4.78188
-448,-517,-0.0332642,4.97766,-0.00373559,0.00542119,0.00410614,0.00699276,-0.00530716,1.20526,0.00712356,0.0132091,776,1541,-0.0332644,-4.9776
-441,-517,-0.0633545,5.14514,-0.00298503,0.00426157,0.00348098,0.00566277,-0.00438623,1.18811,0.00581737,0.0110015,783,1541,-0.0633432,-5.14515
-434,-517,-0.0789185,5.29382,-0.00196946,0.0027011,0.0030606,0.00421561,-0.00348396,1.11129,0.00445203,0.0135608,790,1541,-0.078919,-5.29386
-427,-517,-0.0628052,5.43213,-0.000995332,0.00086326,0.00267254,0.00276346,-0.00289553,0.95272,0.00326752,0.0136499,797,1541,-0.0627974,-5.43212
-420,-517,-0.0579834,5.61865,-8.57816e-05,-0.000296106,0.00227133,0.00208282,-0.00246471,0.762265,0.0026286,0.0198333,804,1541,-0.0579728,-5.61865
-413,-517,-0.0661621,5.82544,0.000610637,-0.00155499,0.00156504,0.00143094,-0.00237529,0.482772,0.00221996,0.0108852,811,1541,-0.0661709,-5.8254
-406,-517,-0.0626831,5.97437,0.00097162,-0.00277978,0.000974704,0.00120976,-0.00301791,0.239621,0.00251416,0.0107352,818,1541,-0.0627107,-5.97441
-399,-517,-0.048584,6.14319,0.000873157,-0.0036276,0.000665144,0.000969398,-0.00372384,0.143694,0.00286097,0.0103951,825,1541,-0.0485787,-6.14322
-392,-517,-0.041626,6.33203,0.000531338,-0.00392929,0.000640427,0.000621465,-0.00401941,0.139812,0.00290898,0.0111633,832,1541,-0.0416017,-6.33206
-385,-517,0.00128174,6.57031,0.000184877,-0.00339462,0.000894952,0.000396163,-0.00360591,0.231841,0.00254629,0.0153761,839,1541,0.00129377,-6.57036
-378,-517,-0.00714111,6.64404,-0.00042919,-0.00284454,0.000898057,-0.000131879,-0.00314185,0.319704,0.00205202,0.0285271,846,1541,-0.00711465,-6.64409
-371,-517,-0.09198,6.64795,-0.00103215,-0.00165355,0.00104136,-0.000256132,-0.00242957,0.640422,0.00154145,0.0381338,853,1541,-0.0919892,-6.648
-364,-517,-0.246521,6.83533,-0.00167144,0.000370533,0.00132793,0.0010246,-0.0023255,1.11313,0.0019822,0.0449005,860,1541,-0.246529,-6.8353
-357,-517,0.0250854,6.9115,-0.00224693,0.00329743,0.0016114,0.00373174,-0.00268124,1.30753,0.00371906,0.0494761,867,1541,0.0250791,-6.91155
-350,-517,0.279053,6.7229,0,0,0,0,0,0,0,-1,874,1541,0.279071,-6.72287
-343,-517,1.80835,4.51233,0,0,0,0,0,0,0,-1,881,1541,1.80834,-4.51231
-336,-517,2.93292,5.28625,0,0,0,0,0,0,0,-1,888,1541,2.93293,-5.28621
-329,-517,3.68591,5.86316,0,0,0,0,0,0,0,-1,895,1541,3.68592,-5.86314
-322,-517,-1.88239,7.94958,0,0,0,0,0,0,0,-1,902,1541,-1.8824,-7.94958
-315,-517,-1.64355,8.2677,0,0,0,0,0,0,0,-1,909,1541,-1.64357,-8.26775
-308,-517,-1.57727,8.5603,0,0,0,0,0,0,0,-1,916,1541,-1.57724,-8.56028
-301,-517,-1.54602,8.92847,0,0,0,0,0,0,0,-1,923,1541,-1.54601,-8.92842
-294,-517,-1.45313,9.36975,0,0,0,0,0,0,0,-1,930,1541,-1.45311,-9.3697
-287,-517,-5.28577,3.87378,0,0,0,0,0,0,0,-1,937,1541,-5.28576,-3.87378
-280,-517,0,0,0,0,0,0,0,0,0,-1,944,1541,0,0
-273,-517,0,0,0,0,0,0,0,0,0,-1,951,1541,0,0
-266,-517,0,0,0,0,0,0,0,0,0,-1,958,1541,0,0
-259,-517,0,0,0,0,0,0,0,0,0,-1,965,1541,0,0
-252,-517,0,0,0,0,0,0,0,0,0,-1,972,1541,0,0
-245,-517,0,0,0,0,0,0,0,0,0,-1,979,1541,0,0
-238,-517,0,0,0,0,0,0,0,0,0,-1,986,1541,0,0
-231,-517,0,0,0,0,0,0,0,0,0,-1,993,1541,0,0
-224,-517,0,0,0,0,0,0,0,0,0,-1,1000,1541,0,0
-217,-517,0,0,0,0,0,0,0,0,0,-1,1007,1541,0,0
-210,-517,0,0,0,0,0,0,0,0,0,-1,1014,1541,0,0
-203,-517,0,0,0,0,0,0,0,0,0,-1,1021,1541,0,0
-196,-517,0,0,0,0,0,0,0,0,0,-1,1028,1541,0,0
-189,-517,0,0,0,0,0,0,0,0,0,-1,1035,1541,0,0
-182,-517,0,0,0,0,0,0,0,0,0,-1,1042,1541,0,0
-175,-517,0,0,0,0,0,0,0,0,0,-1,1049,1541,0,0
-168,-517,0,0,0,0,0,0,0,0,0,-1,1056,1541,0,0
-161,-517,0,0,0,0,0,0,0,0,0,-1,1063,1541,0,0
-154,-517,0,0,0,0,0,0,0,0,0,-1,1070,1541,0,0
-147,-517,0,0,0,0,0,0,0,0,0,-1,1077,1541,0,0
-140,-517,0,0,0,0,0,0,0,0,0,-1,1084,1541,0,0
-133,-517,0,0,0,0,0,0,0,0,0,-1,1091,1541,0,0
-126,-517,0,0,0,0,0,0,0,0,0,-1,1098,1541,0,0
-119,-517,0,0,0,0,0,0,0,0,0,-1,1105,1541,0,0
-112,-517,0,0,0,0,0,0,0,0,0,-1,1112,1541,0,0
-105,-517,0,0,0,0,0,0,0,0,0,-1,1119,1541,0,0
-98,-517,0,0,0,0,0,0,0,0,0,-1,1126,1541,0,0
-91,-517,0,0,0,0,0,0,0,0,0,-1,1133,1541,0,0
-84,-517,0,0,0,0,0,0,0,0,0,-1,1140,1541,0,0
-77,-517,0,0,0,0,0,0,0,0,0,-1,1147,1541,0,0
-70,-517,0,0,0,0,0,0,0,0,0,-1,1154,1541,0,0
-63,-517,0,0,0,0,0,0,0,0,0,-1,1161,1541,0,0
-56,-517,0,0,0,0,0,0,0,0,0,-1,1168,1541,0,0
-49,-517,0,0,0,0,0,0,0,0,0,-1,1175,1541,0,0
-42,-517,0,0,0,0,0,0,0,0,0,-1,1182,1541,0,0
-35,-517,0,0,0,0,0,0,0,0,0,-1,1189,1541,0,0
-28,-517,0,0,0,0,0,0,0,0,0,-1,1196,1541,0,0
-21,-517,0,0,0,0,0,0,0,0,0,-1,1203,1541,0,0
-14,-517,0,0,0,0,0,0,0,0,0,-1,1210,1541,0,0
-7,-517,0,0,0,0,0,0,0,0,0,-1,1217,1541,0,0
0,-517,0,0,0,0,0,0,0,0,0,-1,1224,1541,0,0
7,-517,0,0,0,0,0,0,0,0,0,-1,1231,1541,0,0
14,-517,0,0,0,0,0,0,0,0,0,-1,1238,1541,0,0
21,-517,0,0,0,0,0,0,0,0,0,-1,1245,1541,0,0
28,-517,0,0,0,0,0,0,0,0,0,-1,1252,1541,0,0
35,-517,0,0,0,0,0,0,0,0,0,-1,1259,1541,0,0
42,-517,0,0,0,0,0,0,0,0,0,-1,1266,1541,0,0
49,-517,0,0,0,0,0,0,0,0,0,-1,1273,1541,0,0
56,-517,0,0,0,0,0,0,0,0,0,-1,1280,1541,0,0
63,-517,0,0,0,0,0,0,0,0,0,-1,1287,1541,0,0
70,-517,0,0,0,0,0,0,0,0,0,-1,1294,1541,0,0
77,-517,0,0,0,0,0,0,0,0,0,-1,1301,1541,0,0
84,-517,0,0,0,0,0,0,0,0,0,-1,1308,1541,0,0
91,-517,0,0,0,0,0,0,0,0,0,-1,1315,1541,0,0
98,-517,0,0,0,0,0,0,0,0,0,-1,1322,1541,0,0
105,-517,0,0,0,0,0,0,0,0,0,-1,1329,1541,0,0
112,-517,0,0,0,0,0,0,0,0,0,-1,1336,1541,0,0
119,-517,0,0,0,0,0,0,0,0,0,-1,1343,1541,0,0
126,-517,0,0,0,0,0,0,0,0,0,-1,1350,1541,0,0
133,-517,0,0,0,0,0,0,0,0,0,-1,1357,1541,0,0
140,-517,0,0,0,0,0,0,0,0,0,-1,1364,1541,0,0
147,-517,0,0,0,0,0,0,0,0,0,-1,1371,1541,0,0
154,-517,0,0,0,0,0,0,0,0,0,-1,1378,1541,0,0
161,-517,0,0,0,0,0,0,0,0,0,-1,1385,1541,0,0
168,-517,0,0,0,0,0,0,0,0,0,-1,1392,1541,0,0
175,-517,0,0,0,0,0,0,0,0,0,-1,1399,1541,0,0
182,-517,0,0,0,0,0,0,0,0,0,-1,1406,1541,0,0
189,-517,0,0,0,0,0,0,0,0,0,-1,1413,1541,0,0
196,-517,0,0,0,0,0,0,0,0,0,-1,1420,1541,0,0
203,-517,0,0,0,0,0,0,0,0,0,-1,1427,1541,0,0
210,-517,0,0,0,0,0,0,0,0,0,-1,1434,1541,0,0
217,-517,0,0,0,0,0,0,0,0,0,-1,1441,1541,0,0
224,-517,0,0,0,0,0,0,0,0,0,-1,1448,1541,0,0
231,-517,0,0,0,0,0,0,0,0,0,-1,1455,1541,0,0
238,-517,0,0,0,0,0,0,0,0,0,-1,1462,1541,0,0
245,-517,0,0,0,0,0,0,0,0,0,-1,1469,1541,0,0
252,-517,0,0,0,0,0,0,0,0,0,-1,1476,1541,0,0
259,-517,0,0,0,0,0,0,0,0,0,-1,1483,1541,0,0
266,-517,0,0,0,0,0,0,0,0,0,-1,1490,1541,0,0
273,-517,0,0,0,0,0,0,0,0,0,-1,1497,1541,0,0
280,-517,0,0,0,0,0,0,0,0,0,-1,1504,1541,0,0
287,-517,0,0,0,0,0,0,0,0,0,-1,1511,1541,0,0
294,-517,0,0,0,0,0,0,0,0,0,-1,1518,1541,0,0
301,-517,0,0,0,0,0,0,0,0,0,-1,1525,1541,0,0
308,-517,0,0,0,0,0,0,0,0,0,-1,1532,1541,0,0
315,-517,0,0,0,0,0,0,0,0,0,-1,1539,1541,0,0
322,-517,0,0,0,0,0,0,0,0,0,-1,1546,1541,0,0
329,-517,0,0,0,0,0,0,0,0,0,-1,1553,1541,0,0
336,-517,0,0,0,0,0,0,0,0,0,-1,1560,1541,0,0
343,-517,0,0,0,0,0,0,0,0,0,-1,1567,1541,0,0
350,-517,0,0,0,0,0,0,0,0,0,-1,1574,1541,0,0
357,-517,0,0,0,0,0,0,0,0,0,-1,1581,1541,0,0
364,-517,0,0,0,0,0,0,0,0,0,-1,1588,1541,0,0
371,-517,0,0,0,0,0,0,0,0,0,-1,1595,1541,0,0
378,-517,0,0,0,0,0,0,0,0,0,-1,1602,1541,0,0
385,-517,0,0,0,0,0,0,0,0,0,-1,1609,1541,0,0
392,-517,0,0,0,0,0,0,0,0,0,-1,1616,1541,0,0
399,-517,0,0,0,0,0,0,0,0,0,-1,1623,1541,0,0
406,-517,12.1469,6.22412,0,0,0,0,0,0,0,-1,1630,1541,12.1468,-6.22408
413,-517,12.2695,6.3324,0,0,0,0,0,0,0,-1,1637,1541,12.2696,-6.33243
420,-517,12.4789,6.20337,0,0,0,0,0,0,0,-1,1644,1541,12.4789,-6.20333
427,-517,11.647,4.66516,0,0,0,0,0,0,0,-1,1651,1541,11.647,-4.66519
434,-517,12.3719,3.92773,0,0,0,0,0,0,0,-1,1658,1541,12.3719,-3.92776
441,-517,13.146,3.14124,0,0,0,0,0,0,0,-1,1665,1541,13.146,-3.14121
448,-517,13.8861,2.36682,0,0,0,0,0,0,0,-1,1672,1541,13.8861,-2.36684
455,-517,8.60706,4.01855,0,0,0,0,0,0,0,-1,1679,1541,8.60705,-4.01861
462,-517,8.50793,1.59912,0,0,0,0,0,0,0,-1,1686,1541,8.50799,-1.59913
469,-517,8.79614,2.86072,0,0,0,0,0,0,0,-1,1693,1541,8.79608,-2.86067
476,-517,7.68506,4.43604,0,0,0,0,0,0,0,-1,1700,1541,7.68506,-4.43602
483,-517,8.21948,7.25317,0,0,0,0,0,0,0,-1,1707,1541,8.21943,-7.25314
490,-517,7.63098,7.35181,0,0,0,0,0,0,0,-1,1714,1541,7.63096,-7.35185
497,-517,7.9397,7.85193,0,0,0,0,0,0,0,-1,1721,1541,7.93973,-7.85198
504,-517,7.69299,7.76538,-0.0178,-0.0267712,0.0191161,-0.00265025,-0.0419209,0.670159,0.0271071,0.0334512,1728,1541,7.69294,-7.76543
511,-517,7.47253,7.80261,-0.0153822,-0.0204638,0.0153505,-0.00236361,-0.0334824,0.703384,0.0215769,0.0299783,1735,1541,7.47251,-7.80264
518,-517,7.37158,7.69153,-0.0126425,-0.015326,0.0122576,-0.00165346,-0.0263151,0.730884,0.0170191,0.0205113,1742,1541,7.37156,-7.6915
525,-517,7.35388,7.53259,-0.0100332,-0.0110572,0.00932023,-0.00121091,-0.0198795,0.75796,0.0128684,0.0106567,1749,1541,7.35383,-7.53264
532,-517,7.37268,7.38684,-0.00767709,-0.00742556,0.00712966,-0.000420551,-0.0146821,0.794217,0.00965094,0.0101053,1756,1541,7.37265,-7.3868
539,-517,7.37024,7.23828,-0.00536397,-0.00484748,0.00516108,6.18175e-05,-0.0102733,0.810396,0.00686954,0.0111048,1763,1541,7.37026,-7.23825
546,-517,7.34656,7.09729,-0.00268995,-0.00332048,0.003347,0.000356603,-0.00636704,0.73844,0.00436841,0.0112856,1770,1541,7.34653,-7.09724
553,-517,7.34131,6.9375,-0.000549732,-0.0020684,0.00160663,0.000467968,-0.0030861,0.564644,0.00222982,0.014412,1777,1541,7.34132,-6.93754
560,-517,7.35022,6.78467,0.00116923,-0.000118532,-9.88341e-05,0.00117677,-0.000126073,-0.0761541,0.00082974,0.0153914,1784,1541,7.35027,-6.78468
567,-517,7.36462,6.65271,0.00258543,0.00177495,-0.00174563,0.00397224,0.000388137,-0.671345,0.00252873,0.0126489,1791,1541,7.36464,-6.65272
574,-517,7.3678,6.48779,0.00380442,0.0043718,-0.00441804,0.00851525,-0.000339034,-0.81746,0.00579315,0.0138672,1798,1541,7.36775,-6.48785
581,-517,7.33789,6.34045,0.00467612,0.00716415,-0.00687497,0.0129067,-0.00106648,-0.874904,0.00898112,0.0156506,1805,1541,7.33794,-6.34042
588,-517,7.34387,6.19019,0.00421842,0.0116459,-0.0108833,0.0194317,-0.00356734,-0.949819,0.0142927,0.015115,1812,1541,7.3439,-6.1902
595,-517,7.37048,6.03003,0.00279158,0.018588,-0.0166746,0.0291404,-0.00776082,-1.00658,0.0224653,0.0147062,1819,1541,7.37054,-6.03006
602,-517,7.36426,5.87415,0.00107661,0.0260949,-0.0231841,0.0399292,-0.0127577,-1.03279,0.0317386,0.0191898,1826,1541,7.36421,-5.87414
609,-517,7.39514,5.71106,-0.00206126,0.0357842,-0.0315585,0.0536583,-0.0199354,-1.05546,0.0439511,0.0373924,1833,1541,7.39514,-5.71109
616,-517,7.55981,5.32507,-0.00699626,0.0480022,-0.0420369,0.0707355,-0.0297295,-1.07505,0.0595923,0.0447142,1840,1541,7.55983,-5.32512
623,-517,7.88306,4.72546,0,0,0,0,0,0,0,-1,1847,1541,7.88301,-4.72545
630,-517,8.66968,4.14246,0,0,0,0,0,0,0,-1,1854,1541,8.66967,-4.14249
637,-517,8.16736,2.7616,-0.0367624,0.101566,-0.0860116,0.142773,-0.0779688,-1.12402,0.129263,0.0483447,1861,1541,8.1674,-2.7616
644,-517,7.78589,1.55579,-0.0520099,0.124902,-0.104487,0.173348,-0.100455,-1.13665,0.159937,0.048608,1868,1541,7.7859,-1.55583
651,-517,0,0,0,0,0,0,0,0,0,-1,1875,1541,0,0
658,-517,0,0,0,0,0,0,0,0,0,-1,1882,1541,0,0
665,-517,0,0,0,0,0,0,0,0,0,-1,1889,1541,0,0
672,-517,0,0,0,0,0,0,0,0,0,-1,1896,1541,0,0
679,-517,0,0,0,0,0,0,0,0,0,-1,1903,1541,0,0
686,-517,0,0,0,0,0,0,0,0,0,-1,1910,1541,0,0
693,-517,0,0,0,0,0,0,0,0,0,-1,1917,1541,0,0
700,-517,0,0,0,0,0,0,0,0,0,-1,1924,1541,0,0
707,-517,0,0,0,0,0,0,0,0,0,-1,1931,1541,0,0
714,-517,0,0,0,0,0,0,0,0,0,-1,1938,1541,0,0
721,-517,0,0,0,0,0,0,0,0,0,-1,1945,1541,0,0
728,-517,0,0,0,0,0,0,0,0,0,-1,1952,1541,0,0
735,-517,0,0,0,0,0,0,0,0,0,-1,1959,1541,0,0
742,-517,0,0,0,0,0,0,0,0,0,-1,1966,1541,0,0
749,-517,0,0,0,0,0,0,0,0,0,-1,1973,1541,0,0
756,-517,0,0,0,0,0,0,0,0,0,-1,1980,1541,0,0
763,-517,0,0,0,0,0,0,0,0,0,-1,1987,1541,0,0
770,-517,0,0,0,0,0,0,0,0,0,-1,1994,1541,0,0
777,-517,0,0,0,0,0,0,0,0,0,-1,2001,1541,0,0
784,-517,0,0,0,0,0,0,0,0,0,-1,2008,1541,0,0
791,-517,0,0,0,0,0,0,0,0,0,-1,2015,1541,0,0
798,-517,0,0,0,0,0,0,0,0,0,-1,2022,1541,0,0
805,-517,0,0,0,0,0,0,0,0,0,-1,2029,1541,0,0
812,-517,0,0,0,0,0,0,0,0,0,-1,2036,1541,0,0
-700,-524,0,0,0,0,0,0,0,0,0,-1,524,1548,0,0
-693,-524,0,0,0,0,0,0,0,0,0,-1,531,1548,0,0
-686,-524,0,0,0,0,0,0,0,0,0,-1,538,1548,0,0
-679,-524,0,0,0,0,0,0,0,0,0,-1,545,1548,0,0
-672,-524,0,0,0,0,0,0,0,0,0,-1,552,1548,0,0
-665,-524,0,0,0,0,0,0,0,0,0,-1,559,1548,0,0
-658,-524,0,0,0,0,0,0,0,0,0,-1,566,1548,0,0
-651,-524,0,0,0,0,0,0,0,0,0,-1,573,1548,0,0
-644,-524,0,0,0,0,0,0,0,0,0,-1,580,1548,0,0
-637,-524,0,0,0,0,0,0,0,0,0,-1,587,1548,0,0
-630,-524,0,0,0,0,0,0,0,0,0,-1,594,1548,0,0
-623,-524,0,0,0,0,0,0,0,0,0,-1,601,1548,0,0
-616,-524,0,0,0,0,0,0,0,0,0,-1,608,1548,0,0
-609,-524,0,0,0,0,0,0,0,0,0,-1,615,1548,0,0
-602,-524,0,0,0,0,0,0,0,0,0,-1,622,1548,0,0
-595,-524,0,0,0,0,0,0,0,0,0,-1,629,1548,0,0
-588,-524,0,0,0,0,0,0,0,0,0,-1,636,1548,0,0
-581,-524,0,0,0,0,0,0,0,0,0,-1,643,1548,0,0
-574,-524,0,0,0,0,0,0,0,0,0,-1,650,1548,0,0
-567,-524,0,0,0,0,0,0,0,0,0,-1,657,1548,0,0
-560,-524,0,0,0,0,0,0,0,0,0,-1,664,1548,0,0
-553,-524,0,0,0,0,0,0,0,0,0,-1,671,1548,0,0
-546,-524,0,0,0,0,0,0,0,0,0,-1,678,1548,0,0
-539,-524,0,0,0,0,0,0,0,0,0,-1,685,1548,0,0
-532,-524,0,0,0,0,0,0,0,0,0,-1,692,1548,0,0
-525,-524,-1.07629,0.363037,0,0,0,0,0,0,0,-1,699,1548,-1.07628,-0.362988
-518,-524,-0.567444,0.495605,0,0,0,0,0,0,0,-1,706,1548,-0.567473,-0.495585
-511,-524,-0.109192,0.705444,0,0,0,0,0,0,0,-1,713,1548,-0.109186,-0.705397
-504,-524,0.498596,0.950562,0,0,0,0,0,0,0,-1,720,1548,0.498573,-0.950584
-497,-524,-1.45313,3.44788,0,0,0,0,0,0,0,-1,727,1548,-1.4531,-3.44788
-490,-524,-0.517578,5.30188,0,0,0,0,0,0,0,-1,734,1548,-0.517563,-5.30188
-483,-524,-0.100464,4.53516,-0.00982384,0.0146283,0.0102702,0.0183695,-0.013565,1.22146,0.0185068,0.0439029,741,1548,-0.100476,-4.53511
-476,-524,0.224915,4.2428,-0.0104599,0.0144019,0.0101883,0.0180436,-0.0141016,1.22751,0.0186055,0.0444632,748,1548,0.224889,-4.24278
-469,-524,0.171143,4.34863,-0.0102046,0.0135644,0.010064,0.0172531,-0.0138933,1.21947,0.0180172,0.0309567,755,1548,0.171121,-4.34869
-462,-524,0.158936,4.56726,-0.00923091,0.0122891,0.00975103,0.0160502,-0.0129919,1.20267,0.0167984,0.0218704,762,1548,0.158921,-4.56731
-455,-524,0.125061,4.78711,-0.00781606,0.0106693,0.00912923,0.0144177,-0.0115645,1.18118,0.015031,0.0148774,769,1548,0.12508,-4.78713
-448,-524,0.140137,4.98315,-0.00608115,0.00879343,0.00825983,0.0124709,-0.00975862,1.15192,0.012866,0.0122256,776,1548,0.14014,-4.98319
-441,-524,0.119873,5.14404,-0.00472567,0.00708699,0.00714767,0.0104529,-0.00809155,1.13069,0.0107355,0.00968616,783,1548,0.119877,-5.1441
-434,-524,0.136597,5.2771,-0.00327452,0.00513481,0.00615317,0.00838271,-0.00652241,1.08512,0.00862779,0.0117296,790,1548,0.136581,-5.27705
-427,-524,0.153442,5.42517,-0.00198083,0.00292391,0.00519431,0.00621566,-0.00527258,1.00595,0.00664018,0.0125858,797,1548,0.153451,-5.42518
-420,-524,0.119141,5.63171,-0.000804044,0.00156492,0.0042242,0.00476756,-0.00400668,0.92209,0.00507216,0.0108735,804,1548,0.119156,-5.63173
-413,-524,0.114014,5.82263,8.98304e-05,0.000145078,0.0029783,0.00309589,-0.00286098,0.790036,0.00344009,0.0102361,811,1548,0.11403,-5.82269
-406,-524,0.117432,5.98572,0.000605862,-0.00125411,0.00181431,0.00171465,-0.0023629,0.548566,0.00236407,0.0105147,818,1548,0.117407,-5.98568
-399,-524,0.116516,6.15393,0.000611805,-0.00220131,0.000987,0.000923553,-0.00251305,0.305938,0.00205365,0.00892035,825,1548,0.116526,-6.15396
-392,-524,0.125183,6.31714,0.000344241,-0.00254839,0.000534419,0.000439818,-0.00264397,0.176972,0.00192606,0.00974662,832,1548,0.125157,-6.31719
-385,-524,0.123169,6.49158,6.62848e-05,-0.00199463,0.000484058,0.000174316,-0.00210266,0.219579,0.00146334,0.0114721,839,1548,0.123166,-6.49158
-378,-524,0.149414,6.7251,-0.000401924,-0.001503,0.000393129,-0.000275969,-0.00162896,0.310056,0.00100667,0.0171629,846,1548,0.149435,-6.72508
-371,-524,0.212769,6.88123,-0.00075635,-0.00050283,0.000425762,-0.000185358,-0.00107382,0.930082,0.000662792,0.0306151,853,1548,0.21279,-6.88119
-364,-524,0.165222,6.93518,-0.00108557,0.00121747,0.000563212,0.00134783,-0.00121593,1.34335,0.00148084,0.039074,860,1548,0.165236,-6.93522
-357,-524,-0.153931,6.89233,-0.00131806,0.00362296,0.000680632,0.00371501,-0.0014101,1.43638,0.0030571,0.0494246,867,1548,-0.153902,-6.89232
-350,-524,-0.115784,6.80835,0,0,0,0,0,0,0,-1,874,1548,-0.11579,-6.80838
-343,-524,1.85645,5.45215,0,0,0,0,0,0,0,-1,881,1548,1.85646,-5.45217
-336,-524,2.77802,5.96558,0,0,0,0,0,0,0,-1,888,1548,2.77804,-5.96554
-329,-524,3.6958,6.35767,0,0,0,0,0,0,0,-1,895,1548,3.69581,-6.35771
-322,-524,1.3689,8.15833,0,0,0,0,0,0,0,-1,902,1548,1.3689,-8.15827
-315,-524,-1.63654,7.5675,0,0,0,0,0,0,0,-1,909,1548,-1.63651,-7.5675
-308,-524,-1.57935,7.84094,0,0,0,0,0,0,0,-1,916,1548,-1.57933,-7.84088
-301,-524,-1.47919,8.16931,0,0,0,0,0,0,0,-1,923,1548,-1.47916,-8.16926
-294,-524,-1.34796,8.5741,0,0,0,0,0,0,0,-1,930,1548,-1.34799,-8.57411
-287,-524,-1.21497,8.94409,0,0,0,0,0,0,0,-1,937,1548,-1.21494,-8.9441
-280,-524,-1.99243,9.78064,0,0,0,0,0,0,0,-1,944,1548,-1.99241,-9.78061
-273,-524,0,0,0,0,0,0,0,0,0,-1,951,1548,0,0
-266,-524,0,0,0,0,0,0,0,0,0,-1,958,1548,0,0
-259,-524,0,0,0,0,0,0,0,0,0,-1,965,1548,0,0
-252,-524,0,0,0,0,0,0,0,0,0,-1,972,1548,0,0
-245,-524,0,0,0,0,0,0,0,0,0,-1,979,1548,0,0
-238,-524,0,0,0,0,0,0,0,0,0,-1,986,1548,0,0
-231,-524,0,0,0,0,0,0,0,0,0,-1,993,1548,0,0
-224,-524,0,0,0,0,0,0,0,0,0,-1,1000,1548,0,0
-217,-524,0,0,0,0,0,0,0,0,0,-1,1007,1548,0,0
-210,-524,0,0,0,0,0,0,0,0,0,-1,1014,1548,0,0
-203,-524,0,0,0,0,0,0,0,0,0,-1,1021,1548,0,0
-196,-524,0,0,0,0,0,0,0,0,0,-1,1028,1548,0,0
-189,-524,0,0,0,0,0,0,0,0,0,-1,1035,1548,0,0
-182,-524,0,0,0,0,0,0,0,0,0,-1,1042,1548,0,0
-175,-524,0,0,0,0,0,0,0,0,0,-1,1049,1548,0,0
-168,-524,0,0,0,0,0,0,0,0,0,-1,1056,1548,0,0
-161,-524,0,0,0,0,0,0,0,0,0,-1,1063,1548,0,0
-154,-524,0,0,0,0,0,0,0,0,0,-1,1070,1548,0,0
-147,-524,0,0,0,0,0,0,0,0,0,-1,1077,1548,0,0
-140,-524,0,0,0,0,0,0,0,0,0,-1,1084,1548,0,0
-133,-524,0,0,0,0,0,0,0,0,0,-1,1091,1548,0,0
-126,-524,0,0,0,0,0,0,0,0,0,-1,1098,1548,0,0
-119,-524,0,0,0,0,0,0,0,0,0,-1,1105,1548,0,0
-112,-524,0,0,0,0,0,0,0,0,0,-1,1112,1548,0,0
-105,-524,0,0,0,0,0,0,0,0,0,-1,1119,1548,0,0
-98,-524,0,0,0,0,0,0,0,0,0,-1,1126,1548,0,0
-91,-524,0,0,0,0,0,0,0,0,0,-1,1133,1548,0,0
-84,-524,0,0,0,0,0,0,0,0,0,-1,1140,1548,0,0
-77,-524,0,0,0,0,0,0,0,0,0,-1,1147,1548,0,0
-70,-524,0,0,0,0,0,0,0,0,0,-1,1154,1548,0,0
-63,-524,0,0,0,0,0,0,0,0,0,-1,1161,1548,0,0
-56,-524,0,0,0,0,0,0,0,0,0,-1,1168,1548,0,0
-49,-524,0,0,0,0,0,0,0,0,0,-1,1175,1548,0,0
-42,-524,0,0,0,0,0,0,0,0,0,-1,1182,1548,0,0
-35,-524,0,0,0,0,0,0,0,0,0,-1,1189,1548,0,0
-28,-524,0,0,0,0,0,0,0,0,0,-1,1196,1548,0,0
-21,-524,0,0,0,0,0,0,0,0,0,-1,1203,1548,0,0
-14,-524,0,0,0,0,0,0,0,0,0,-1,1210,1548,0,0
-7,-524,0,0,0,0,0,0,0,0,0,-1,1217,1548,0,0
0,-524,0,0,0,0,0,0,0,0,0,-1,1224,1548,0,0
7,-524,0,0,0,0,0,0,0,0,0,-1,1231,1548,0,0
14,-524,0,0,0,0,0,0,0,0,0,-1,1238,1548,0,0
21,-524,0,0,0,0,0,0,0,0,0,-1,1245,1548,0,0
28,-524,0,0,0,0,0,0,0,0,0,-1,1252,1548,0,0
35,-524,0,0,0,0,0,0,0,0,0,-1,1259,1548,0,0
42,-524,0,0,0,0,0,0,0,0,0,-1,1266,1548,0,0
49,-524,0,0,0,0,0,0,0,0,0,-1,1273,1548,0,0
56,-524,0,0,0,0,0,0,0,0,0,-1,1280,1548,0,0
63,-524,0,0,0,0,0,0,0,0,0,-1,1287,1548,0,0
70,-524,0,0,0,0,0,0,0,0,0,-1,1294,1548,0,0
77,-524,0,0,0,0,0,0,0,0,0,-1,1301,1548,0,0
84,-524,0,0,0,0,0,0,0,0,0,-1,1308,1548,0,0
91,-524,0,0,0,0,0,0,0,0,0,-1,1315,1548,0,0
98,-524,0,0,0,0,0,0,0,0,0,-1,1322,1548,0,0
105,-524,0,0,0,0,0,0,0,0,0,-1,1329,1548,0,0
112,-524,0,0,0,0,0,0,0,0,0,-1,1336,1548,0,0
119,-524,0,0,0,0,0,0,0,0,0,-1,1343,1548,0,0
126,-524,0,0,0,0,0,0,0,0,0,-1,1350,1548,0,0
133,-524,0,0,0,0,0,0,0,0,0,-1,1357,1548,0,0
140,-524,0,0,0,0,0,0,0,0,0,-1,1364,1548,0,0
147,-524,0,0,0,0,0,0,0,0,0,-1,1371,1548,0,0
154,-524,0,0,0,0,0,0,0,0,0,-1,1378,1548,0,0
161,-524,0,0,0,0,0,0,0,0,0,-1,1385,1548,0,0
168,-524,0,0,0,0,0,0,0,0,0,-1,1392,1548,0,0
175,-524,0,0,0,0,0,0,0,0,0,-1,1399,1548,0,0
182,-524,0,0,0,0,0,0,0,0,0,-1,1406,1548,0,0
189,-524,0,0,0,0,0,0,0,0,0,-1,1413,1548,0,0
196,-524,0,0,0,0,0,0,0,0,0,-1,1420,1548,0,0
203,-524,0,0,0,0,0,0,0,0,0,-1,1427,1548,0,0
210,-524,0,0,0,0,0,0,0,0,0,-1,1434,1548,0,0
217,-524,0,0,0,0,0,0,0,0,0,-1,1441,1548,0,0
224,-524,0,0,0,0,0,0,0,0,0,-1,1448,1548,0,0
231,-524,0,0,0,0,0,0,0,0,0,-1,1455,1548,0,0
238,-524,0,0,0,0,0,0,0,0,0,-1,1462,1548,0,0
245,-524,0,0,0,0,0,0,0,0,0,-1,1469,1548,0,0
252,-524,0,0,0,0,0,0,0,0,0,-1,1476,1548,0,0
259,-524,0,0,0,0,0,0,0,0,0,-1,1483,1548,0,0
266,-524,0,0,0,0,0,0,0,0,0,-1,1490,1548,0,0
273,-524,0,0,0,0,0,0,0,0,0,-1,1497,1548,0,0
280,-524,0,0,0,0,0,0,0,0,0,-1,1504,1548,0,0
287,-524,0,0,0,0,0,0,0,0,0,-1,1511,1548,0,0
294,-524,0,0,0,0,0,0,0,0,0,-1,1518,1548,0,0
301,-524,0,0,0,0,0,0,0,0,0,-1,1525,1548,0,0
308,-524,0,0,0,0,0,0,0,0,0,-1,1532,1548,0,0
315,-524,0,0,0,0,0,0,0,0,0,-1,1539,1548,0,0
322,-524,0,0,0,0,0,0,0,0,0,-1,1546,1548,0,0
329,-524,0,0,0,0,0,0,0,0,0,-1,1553,1548,0,0
336,-524,0,0,0,0,0,0,0,0,0,-1,1560,1548,0,0
343,-524,0,0,0,0,0,0,0,0,0,-1,1567,1548,0,0
350,-524,0,0,0,0,0,0,0,0,0,-1,1574,1548,0,0
357,-524,0,0,0,0,0,0,0,0,0,-1,1581,1548,0,0
364,-524,0,0,0,0,0,0,0,0,0,-1,1588,1548,0,0
371,-524,0,0,0,0,0,0,0,0,0,-1,1595,1548,0,0
378,-524,0,0,0,0,0,0,0,0,0,-1,1602,1548,0,0
385,-524,0,0,0,0,0,0,0,0,0,-1,1609,1548,0,0
392,-524,0,0,0,0,0,0,0,0,0,-1,1616,1548,0,0
399,-524,8.13403,4.49084,0,0,0,0,0,0,0,-1,1623,1548,8.13399,-4.4909
406,-524,8.64294,6.06799,0,0,0,0,0,0,0,-1,1630,1548,8.6429,-6.06805
413,-524,11.677,6.41858,0,0,0,0,0,0,0,-1,1637,1548,11.677,-6.41864
420,-524,11.4913,6.36401,0,0,0,0,0,0,0,-1,1644,1548,11.4913,-6.36402
427,-524,11.4014,6.26514,0,0,0,0,0,0,0,-1,1651,1548,11.4013,-6.26513
434,-524,9.63916,7.99463,0,0,0,0,0,0,0,-1,1658,1548,9.63919,-7.99464
441,-524,9.62512,7.96204,0,0,0,0,0,0,0,-1,1665,1548,9.62518,-7.96205
448,-524,7.71997,5.37354,0,0,0,0,0,0,0,-1,1672,1548,7.72003,-5.37356
455,-524,8.16077,4.77185,0,0,0,0,0,0,0,-1,1679,1548,8.16076,-4.7719
462,-524,8.68054,4.33179,0,0,0,0,0,0,0,-1,1686,1548,8.68059,-4.3318
469,-524,7.53259,3.53931,0,0,0,0,0,0,0,-1,1693,1548,7.53263,-3.53927
476,-524,7.26843,5.76965,0,0,0,0,0,0,0,-1,1700,1548,7.26839,-5.76964
483,-524,8.2832,7.65845,0,0,0,0,0,0,0,-1,1707,1548,8.28316,-7.65848
490,-524,7.68933,7.7699,-0.0146821,-0.0350366,0.0255948,0.00268464,-0.0524033,0.596168,0.0358639,0.0381571,1714,1548,7.68937,-7.76986
497,-524,7.24902,7.9375,-0.0139091,-0.0267521,0.0210526,0.00167954,-0.0423408,0.63737,0.0288033,0.0292505,1721,1548,7.24897,-7.93753
504,-524,7.21265,7.89685,-0.0127496,-0.0195021,0.0171416,0.00134513,-0.0335968,0.688161,0.0228595,0.0165584,1728,1548,7.21261,-7.89687
511,-524,7.19202,7.8092,-0.0108819,-0.0144488,0.0131716,0.00062643,-0.0259572,0.718107,0.0175173,0.0151652,1735,1548,7.19197,-7.80921
518,-524,7.21826,7.68054,-0.00880399,-0.0104142,0.0100446,0.000467758,-0.019686,0.745407,0.0132826,0.014941,1742,1548,7.21829,-7.68052
525,-524,7.21887,7.55054,-0.00674468,-0.00715058,0.00717902,0.000234254,-0.0141295,0.771267,0.00949873,0.0132828,1749,1548,7.21886,-7.5505
532,-524,7.21521,7.39612,-0.00500764,-0.0045417,0.00513754,0.000368154,-0.00991749,0.808056,0.00673773,0.0100701,1756,1548,7.21521,-7.39613
539,-524,7.21704,7.2356,-0.00336841,-0.00269944,0.00342489,0.000407262,-0.00647511,0.834075,0.0044587,0.0105465,1763,1548,7.21701,-7.23554
546,-524,7.21558,7.05872,-0.00120355,-0.00158984,0.00181999,0.000433516,-0.0032269,0.732533,0.00230938,0.0127868,1770,1548,7.21554,-7.05867
553,-524,7.21838,6.92212,0.000565207,-0.000516289,0.000278298,0.000632618,-0.000583701,0.237651,0.000702432,0.0215927,1777,1548,7.21838,-6.92217
560,-524,7.20618,6.76208,0.00211211,0.00138835,-0.00135632,0.003154,0.000346459,-0.65503,0.00199722,0.0300861,1784,1548,7.20618,-6.76205
567,-524,7.19226,6.63721,0.00363716,0.00323244,-0.00302148,0.00646305,0.000406548,-0.751961,0.00417978,0.0170312,1791,1548,7.19225,-6.63724
574,-524,7.2113,6.48682,0.00512607,0.0060707,-0.00613772,0.0117543,-0.000557482,-0.823799,0.00802845,0.0126915,1798,1548,7.2113,-6.48677
581,-524,7.21265,6.33191,0.00648057,0.00927481,-0.00913474,0.0171187,-0.00136327,-0.861283,0.0118929,0.0145538,1805,1548,7.21267,-6.33195
588,-524,7.22083,6.17285,0.00652179,0.0144785,-0.0140976,0.0251484,-0.00414803,-0.922923,0.0183056,0.0142344,1812,1548,7.22086,-6.17291
595,-524,7.22009,5.98877,0.00551131,0.0227507,-0.0212876,0.0370975,-0.00883555,-0.977766,0.0281431,0.0141258,1819,1548,7.22006,-5.98881
602,-524,7.36951,5.76086,0.00434701,0.0319394,-0.0295945,0.0507954,-0.014509,-1.00351,0.0395962,0.0279311,1826,1548,7.36948,-5.76082
609,-524,7.42786,5.45325,0.00185713,0.0437518,-0.0403813,0.0682956,-0.0226867,-1.02466,0.0546844,0.0420098,1833,1548,7.42785,-5.45319
616,-524,7.4801,5.2356,0,0,0,0,0,0,0,-1,1840,1548,7.48005,-5.23562
623,-524,9.01868,6.63391,0,0,0,0,0,0,0,-1,1847,1548,9.01862,-6.63385
630,-524,9.36218,4.46094,0,0,0,0,0,0,0,-1,1854,1548,9.36224,-4.46097
637,-524,8.67688,2.48401,0,0,0,0,0,0,0,-1,1861,1548,8.67683,-2.48398
644,-524,8.42334,0.680908,0,0,0,0,0,0,0,-1,1868,1548,8.42336,-0.68094
651,-524,0,0,0,0,0,0,0,0,0,-1,1875,1548,0,0
658,-524,0,0,0,0,0,0,0,0,0,-1,1882,1548,0,0
665,-524,0,0,0,0,0,0,0,0,0,-1,1889,1548,0,0
672,-524,0,0,0,0,0,0,0,0,0,-1,1896,1548,0,0
679,-524,0,0,0,0,0,0,0,0,0,-1,1903,1548,0,0
686,-524,0,0,0,0,0,0,0,0,0,-1,1910,1548,0,0
693,-524,0,0,0,0,0,0,0,0,0,-1,1917,1548,0,0
700,-524,0,0,0,0,0,0,0,0,0,-1,1924,1548,0,0
707,-524,0,0,0,0,0,0,0,0,0,-1,1931,1548,0,0
714,-524,0,0,0,0,0,0,0,0,0,-1,1938,1548,0,0
721,-524,0,0,0,0,0,0,0,0,0,-1,1945,1548,0,0
728,-524,0,0,0,0,0,0,0,0,0,-1,1952,1548,0,0
735,-524,0,0,0,0,0,0,0,0,0,-1,1959,1548,0,0
742,-524,0,0,0,0,0,0,0,0,0,-1,1966,1548,0,0
749,-524,0,0,0,0,0,0,0,0,0,-1,1973,1548,0,0
756,-524,0,0,0,0,0,0,0,0,0,-1,1980,1548,0,0
763,-524,0,0,0,0,0,0,0,0,0,-1,1987,1548,0,0
770,-524,0,0,0,0,0,0,0,0,0,-1,1994,1548,0,0
777,-524,0,0,0,0,0,0,0,0,0,-1,2001,1548,0,0
784,-524,0,0,0,0,0,0,0,0,0,-1,2008,1548,0,0
791,-524,0,0,0,0,0,0,0,0,0,-1,2015,1548,0,0
798,-524,0,0,0,0,0,0,0,0,0,-1,2022,1548,0,0
805,-524,0,0,0,0,0,0,0,0,0,-1,2029,1548,0,0
812,-524,0,0,0,0,0,0,0,0,0,-1,2036,1548,0,0
-700,-531,0,0,0,0,0,0,0,0,0,-1,524,1555,0,0
-693,-531,0,0,0,0,0,0,0,0,0,-1,531,1555,0,0
-686,-531,0,0,0,0,0,0,0,0,0,-1,538,1555,0,0
-679,-531,0,0,0,0,0,0,0,0,0,-1,545,1555,0,0
-672,-531,0,0,0,0,0,0,0,0,0,-1,552,1555,0,0
-665,-531,0,0,0,0,0,0,0,0,0,-1,559,1555,0,0
-658,-531,0,0,0,0,0,0,0,0,0,-1,566,1555,0,0
-651,-531,0,0,0,0,0,0,0,0,0,-1,573,1555,0,0
-644,-531,0,0,0,0,0,0,0,0,0,-1,580,1555,0,0
-637,-531,0,0,0,0,0,0,0,0,0,-1,587,1555,0,0
-630,-531,0,0,0,0,0,0,0,0,0,-1,594,1555,0,0
-623,-531,0,0,0,0,0,0,0,0,0,-1,601,1555,0,0
-616,-531,0,0,0,0,0,0,0,0,0,-1,608,1555,0,0
-609,-531,0,0,0,0,0,0,0,0,0,-1,615,1555,0,0
-602,-531,0,0,0,0,0,0,0,0,0,-1,622,1555,0,0
-595,-531,0,0,0,0,0,0,0,0,0,-1,629,1555,0,0
-588,-531,0,0,0,0,0,0,0,0,0,-1,636,1555,0,0
-581,-531,0,0,0,0,0,0,0,0,0,-1,643,1555,0,0
-574,-531,0,0,0,0,0,0,0,0,0,-1,650,1555,0,0
-567,-531,0,0,0,0,0,0,0,0,0,-1,657,1555,0,0
-560,-531,0,0,0,0,0,0,0,0,0,-1,664,1555,0,0
-553,-531,0,0,0,0,0,0,0,0,0,-1,671,1555,0,0
-546,-531,0,0,0,0,0,0,0,0,0,-1,678,1555,0,0
-539,-531,0,0,0,0,0,0,0,0,0,-1,685,1555,0,0
-532,-531,0,0,0,0,0,0,0,0,0,-1,692,1555,0,0
-525,-531,0,0,0,0,0,0,0,0,0,-1,699,1555,0,0
-518,-531,-1.07977,-0.437622,0,0,0,0,0,0,0,-1,706,1555,-1.07978,0.43766
-511,-531,-0.528015,0.20752,0,0,0,0,0,0,0,-1,713,1555,-0.528,-0.207482
-504,-531,0.0524292,-0.0650635,0,0,0,0,0,0,0,-1,720,1555,0.0524201,0.0650886
-497,-531,-1.94775,3.59131,0,0,0,0,0,0,0,-1,727,1555,-1.94773,-3.59127
-490,-531,-0.0990601,4.82239,0,0,0,0,0,0,0,-1,734,1555,-0.0990464,-4.82238
-483,-531,0.296265,4.06042,-0.0180458,0.023897,0.0171985,0.0300474,-0.0241961,1.22736,0.0313782,0.0458155,741,1555,0.296291,-4.06037
-476,-531,0.609863,4.10608,-0.0169128,0.0229802,0.0179681,0.0298799,-0.0238125,1.20416,0.0310652,0.0441157,748,1555,0.609869,-4.10606
-469,-531,0.539917,4.07739,-0.0150085,0.0213089,0.0182281,0.0288796,-0.0225792,1.17714,0.0297839,0.0408546,755,1555,0.539938,-4.07734
-462,-531,0.411926,4.38892,-0.0125576,0.0191334,0.0178909,0.0271869,-0.0206112,1.14782,0.0276832,0.0358852,762,1555,0.411911,-4.38897
-455,-531,0.303467,4.79517,-0.0099035,0.0166098,0.0169244,0.0248514,-0.0181451,1.11763,0.0249245,0.024661,769,1555,0.303476,-4.79522
-448,-531,0.325439,4.9646,-0.00727863,0.0139032,0.0153667,0.0219751,-0.0153506,1.08712,0.0216629,0.0120117,776,1555,0.325465,-4.96456
-441,-531,0.293884,5.10156,-0.00525951,0.0114075,0.013408,0.0188608,-0.0127128,1.06345,0.0183439,0.0111111,783,1555,0.293883,-5.10152
-434,-531,0.310364,5.27734,-0.0034181,0.00882848,0.0114316,0.0156735,-0.0102631,1.03128,0.0150827,0.0116616,790,1555,0.310359,-5.27728
-427,-531,0.310364,5.44873,-0.00188128,0.00605397,0.00951925,0.0123994,-0.00822666,0.98285,0.0119894,0.0135262,797,1555,0.310363,-5.44874
-420,-531,0.287842,5.63721,-0.000589386,0.00430827,0.00761923,0.00986253,-0.00614365,0.940885,0.00932394,0.0121698,804,1555,0.287863,-5.63722
-413,-531,0.283386,5.82031,0.000299304,0.00255183,0.00549624,0.00703601,-0.00418488,0.886457,0.00654772,0.00994029,811,1555,0.283368,-5.8203
-406,-531,0.287048,5.98779,0.000778137,0.000821612,0.00348004,0.00427999,-0.00268024,0.788521,0.00405371,0.0106953,818,1555,0.287044,-5.98785
-399,-531,0.303894,6.15039,0.0006791,-0.000438181,0.00185601,0.00205872,-0.0018178,0.639216,0.00223956,0.0125459,825,1555,0.303866,-6.15039
-392,-531,0.30835,6.29468,0.000316438,-0.00102419,0.000748076,0.000650582,-0.00135834,0.420083,0.0011836,0.0165194,832,1555,0.30834,-6.29464
-385,-531,0.284546,6.4624,-3.6757e-05,-0.000567357,0.000251196,6.32973e-05,-0.000667412,0.379049,0.000467471,0.014331,839,1555,0.284561,-6.46237
-378,-531,0.289063,6.6217,-0.00046661,-0.00019393,1.08757e-05,-0.000193497,-0.000467043,1.531,0.000270964,0.0108136,846,1555,0.289056,-6.62169
-371,-531,0.328003,6.82617,-0.000651126,0.000556927,-6.8252e-06,0.000556965,-0.000651165,-1.56515,0.000698221,0.0131069,853,1555,0.327985,-6.82611
-364,-531,0.383667,6.99915,-0.000771417,0.00188022,7.34646e-05,0.00188225,-0.000773451,1.54312,0.00157719,0.0260067,860,1555,0.383679,-6.9991
-357,-531,0.245605,6.98987,-0.000720706,0.00374067,0.000171328,0.00374724,-0.000727276,1.53247,0.00277257,0.0349612,867,1555,0.2456,-6.98983
-350,-531,0.349792,7.1189,-0.000510372,0.00624175,0.000240218,0.00625028,-0.000518908,1.53528,0.00435015,0.0427506,874,1555,0.349798,-7.1189
-343,-531,0.524292,7.1499,0,0,0,0,0,0,0,-1,881,1555,0.52428,-7.14992
-336,-531,0.629822,8.73389,0,0,0,0,0,0,0,-1,888,1555,0.629835,-8.73386
-329,-531,0.604553,7.67651,0,0,0,0,0,0,0,-1,895,1555,0.604546,-7.67646
-322,-531,1.08325,8.26147,0,0,0,0,0,0,0,-1,902,1555,1.08327,-8.26149
-315,-531,1.35046,7.56665,0,0,0,0,0,0,0,-1,909,1555,1.35049,-7.56663
-308,-531,-1.34387,7.86633,0,0,0,0,0,0,0,-1,916,1555,-1.34387,-7.8663
-301,-531,-1.32874,7.8197,0,0,0,0,0,0,0,-1,923,1555,-1.32871,-7.81965
-294,-531,-1.72095,8.41943,0,0,0,0,0,0,0,-1,930,1555,-1.72094,-8.41941
-287,-531,-2.01605,8.89014,0,0,0,0,0,0,0,-1,937,1555,-2.01605,-8.8901
-280,-531,-1.7738,9.76196,0,0,0,0,0,0,0,-1,944,1555,-1.77378,-9.76194
-273,-531,-5.5531,14.6454,0,0,0,0,0,0,0,-1,951,1555,-5.5531,-14.6454
-266,-531,-6.7038,16.0303,0,0,0,0,0,0,0,-1,958,1555,-6.7038,-16.0303
-259,-531,0,0,0,0,0,0,0,0,0,-1,965,1555,0,0
-252,-531,0,0,0,0,0,0,0,0,0,-1,972,1555,0,0
-245,-531,0,0,0,0,0,0,0,0,0,-1,979,1555,0,0
-238,-531,0,0,0,0,0,0,0,0,0,-1,986,1555,0,0
-231,-531,0,0,0,0,0,0,0,0,0,-1,993,1555,0,0
-224,-531,0,0,0,0,0,0,0,0,0,-1,1000,1555,0,0
-217,-531,0,0,0,0,0,0,0,0,0,-1,1007,1555,0,0
-210,-531,0,0,0,0,0,0,0,0,0,-1,1014,1555,0,0
-203,-531,0,0,0,0,0,0,0,0,0,-1,1021,1555,0,0
-196,-531,0,0,0,0,0,0,0,0,0,-1,1028,1555,0,0
-189,-531,0,0,0,0,0,0,0,0,0,-1,1035,1555,0,0
-182,-531,0,0,0,0,0,0,0,0,0,-1,1042,1555,0,0
-175,-531,0,0,0,0,0,0,0,0,0,-1,1049,1555,0,0
-168,-531,0,0,0,0,0,0,0,0,0,-1,1056,1555,0,0
-161,-531,0,0,0,0,0,0,0,0,0,-1,1063,1555,0,0
-154,-531,0,0,0,0,0,0,0,0,0,-1,1070,1555,0,0
-147,-531,0,0,0,0,0,0,0,0,0,-1,1077,1555,0,0
-140,-531,0,0,0,0,0,0,0,0,0,-1,1084,1555,0,0
-133,-531,0,0,0,0,0,0,0,0,0,-1,1091,1555,0,0
-126,-531,0,0,0,0,0,0,0,0,0,-1,1098,1555,0,0
-119,-531,0,0,0,0,0,0,0,0,0,-1,1105,1555,0,0
-112,-531,0,0,0,0,0,0,0,0,0,-1,1112,1555,0,0
-105,-531,0,0,0,0,0,0,0,0,0,-1,1119,1555,0,0
-98,-531,0,0,0,0,0,0,0,0,0,-1,1126,1555,0,0
-91,-531,0,0,0,0,0,0,0,0,0,-1,1133,1555,0,0
-84,-531,0,0,0,0,0,0,0,0,0,-1,1140,1555,0,0
-77,-531,0,0,0,0,0,0,0,0,0,-1,1147,1555,0,0
-70,-531,0,0,0,0,0,0,0,0,0,-1,1154,1555,0,0
-63,-531,0,0,0,0,0,0,0,0,0,-1,1161,1555,0,0
-56,-531,0,0,0,0,0,0,0,0,0,-1,1168,1555,0,0
-49,-531,0,0,0,0,0,0,0,0,0,-1,1175,1555,0,0
-42,-531,0,0,0,0,0,0,0,0,0,-1,1182,1555,0,0
-35,-531,0,0,0,0,0,0,0,0,0,-1,1189,1555,0,0
-28,-531,0,0,0,0,0,0,0,0,0,-1,1196,1555,0,0
-21,-531,0,0,0,0,0,0,0,0,0,-1,1203,1555,0,0
-14,-531,0,0,0,0,0,0,0,0,0,-1,1210,1555,0,0
-7,-531,0,0,0,0,0,0,0,0,0,-1,1217,1555,0,0
0,-531,0,0,0,0,0,0,0,0,0,-1,1224,1555,0,0
7,-531,0,0,0,0,0,0,0,0,0,-1,1231,1555,0,0
14,-531,0,0,0,0,0,0,0,0,0,-1,1238,1555,0,0
21,-531,0,0,0,0,0,0,0,0,0,-1,1245,1555,0,0
28,-531,0,0,0,0,0,0,0,0,0,-1,1252,1555,0,0
35,-531,0,0,0,0,0,0,0,0,0,-1,1259,1555,0,0
42,-531,0,0,0,0,0,0,0,0,0,-1,1266,1555,0,0
49,-531,0,0,0,0,0,0,0,0,0,-1,1273,1555,0,0
56,-531,0,0,0,0,0,0,0,0,0,-1,1280,1555,0,0
63,-531,0,0,0,0,0,0,0,0,0,-1,1287,1555,0,0
70,-531,0,0,0,0,0,0,0,0,0,-1,1294,1555,0,0
77,-531,0,0,0,0,0,0,0,0,0,-1,1301,1555,0,0
84,-531,0,0,0,0,0,0,0,0,0,-1,1308,1555,0,0
91,-531,0,0,0,0,0,0,0,0,0,-1,1315,1555,0,0
98,-531,0,0,0,0,0,0,0,0,0,-1,1322,1555,0,0
105,-531,0,0,0,0,0,0,0,0,0,-1,1329,1555,0,0
112,-531,0,0,0,0,0,0,0,0,0,-1,1336,1555,0,0
119,-531,0,0,0,0,0,0,0,0,0,-1,1343,1555,0,0
126,-531,0,0,0,0,0,0,0,0,0,-1,1350,1555,0,0
133,-531,0,0,0,0,0,0,0,0,0,-1,1357,1555,0,0
140,-531,0,0,0,0,0,0,0,0,0,-1,1364,1555,0,0
147,-531,0,0,0,0,0,0,0,0,0,-1,1371,1555,0,0
154,-531,0,0,0,0,0,0,0,0,0,-1,1378,1555,0,0
161,-531,0,0,0,0,0,0,0,0,0,-1,1385,1555,0,0
168,-531,0,0,0,0,0,0,0,0,0,-1,1392,1555,0,0
175,-531,0,0,0,0,0,0,0,0,0,-1,1399,1555,0,0
182,-531,0,0,0,0,0,0,0,0,0,-1,1406,1555,0,0
189,-531,0,0,0,0,0,0,0,0,0,-1,1413,1555,0,0
196,-531,0,0,0,0,0,0,0,0,0,-1,1420,1555,0,0
203,-531,0,0,0,0,0,0,0,0,0,-1,1427,1555,0,0
210,-531,0,0,0,0,0,0,0,0,0,-1,1434,1555,0,0
217,-531,0,0,0,0,0,0,0,0,0,-1,1441,1555,0,0
224,-531,0,0,0,0,0,0,0,0,0,-1,1448,1555,0,0
231,-531,0,0,0,0,0,0,0,0,0,-1,1455,1555,0,0
238,-531,0,0,0,0,0,0,0,0,0,-1,1462,1555,0,0
245,-531,0,0,0,0,0,0,0,0,0,-1,1469,1555,0,0
252,-531,0,0,0,0,0,0,0,0,0,-1,1476,1555,0,0
259,-531,0,0,0,0,0,0,0,0,0,-1,1483,1555,0,0
266,-531,0,0,0,0,0,0,0,0,0,-1,1490,1555,0,0
273,-531,0,0,0,0,0,0,0,0,0,-1,1497,1555,0,0
280,-531,0,0,0,0,0,0,0,0,0,-1,1504,1555,0,0
287,-531,0,0,0,0,0,0,0,0,0,-1,1511,1555,0,0
294,-531,0,0,0,0,0,0,0,0,0,-1,1518,1555,0,0
301,-531,0,0,0,0,0,0,0,0,0,-1,1525,1555,0,0
308,-531,0,0,0,0,0,0,0,0,0,-1,1532,1555,0,0
315,-531,0,0,0,0,0,0,0,0,0,-1,1539,1555,0,0
322,-531,0,0,0,0,0,0,0,0,0,-1,1546,1555,0,0
329,-531,0,0,0,0,0,0,0,0,0,-1,1553,1555,0,0
336,-531,0,0,0,0,0,0,0,0,0,-1,1560,1555,0,0
343,-531,0,0,0,0,0,0,0,0,0,-1,1567,1555,0,0
350,-531,0,0,0,0,0,0,0,0,0,-1,1574,1555,0,0
357,-531,0,0,0,0,0,0,0,0,0,-1,1581,1555,0,0
364,-531,0,0,0,0,0,0,0,0,0,-1,1588,1555,0,0
371,-531,0,0,0,0,0,0,0,0,0,-1,1595,1555,0,0
378,-531,0,0,0,0,0,0,0,0,0,-1,1602,1555,0,0
385,-531,3.13403,1.88721,0,0,0,0,0,0,0,-1,1609,1555,3.13401,-1.88726
392,-531,8.49451,7.77673,0,0,0,0,0,0,0,-1,1616,1555,8.49447,-7.77677
399,-531,8.26306,5.29602,0,0,0,0,0,0,0,-1,1623,1555,8.26302,-5.29607
406,-531,8.26147,5.42712,0,0,0,0,0,0,0,-1,1630,1555,8.26145,-5.42716
413,-531,8.20618,5.75012,0,0,0,0,0,0,0,-1,1637,1555,8.20619,-5.75017
420,-531,7.7887,6.08801,0,0,0,0,0,0,0,-1,1644,1555,7.78865,-6.08796
427,-531,3.96973,7.78503,0,0,0,0,0,0,0,-1,1651,1555,3.96972,-7.78504
434,-531,5.94116,5.57532,0,0,0,0,0,0,0,-1,1658,1555,5.9412,-5.57537
441,-531,5.60706,4.85071,0,0,0,0,0,0,0,-1,1665,1555,5.60703,-4.85069
448,-531,7.41589,6.09534,0,0,0,0,0,0,0,-1,1672,1555,7.41594,-6.09539
455,-531,7.66431,5.52588,0,0,0,0,0,0,0,-1,1679,1555,7.66436,-5.5259
462,-531,8.13184,5.07739,0,0,0,0,0,0,0,-1,1686,1555,8.13179,-5.0774
469,-531,8.55127,6.97424,0,0,0,0,0,0,0,-1,1693,1555,8.55122,-6.97427
476,-531,7.54553,7.55762,0,0,0,0,0,0,0,-1,1700,1555,7.54551,-7.55757
483,-531,7.53735,7.76184,-0.0102858,-0.0342906,0.0287258,0.00884433,-0.0534206,0.587509,0.0388985,0.0420902,1707,1555,7.53738,-7.76181
490,-531,7.26147,8.02893,-0.0102414,-0.0260643,0.0234879,0.00663165,-0.0429373,0.62295,0.0310722,0.029667,1714,1555,7.26142,-8.02897
497,-531,7.03564,8.05786,-0.00958758,-0.0194008,0.0187781,0.00491432,-0.0339027,0.657608,0.0244054,0.0149433,1721,1555,7.03569,-8.05788
504,-531,7.03247,7.97778,-0.00879415,-0.0134953,0.0148397,0.00387993,-0.0261694,0.706851,0.018873,0.0107274,1728,1555,7.03252,-7.97783
511,-531,7.04138,7.8335,-0.00743206,-0.00965355,0.0108837,0.00239745,-0.0194831,0.734546,0.0138572,0.0126421,1735,1555,7.04141,-7.83344
518,-531,7.04834,7.70569,-0.00593709,-0.00662884,0.00786052,0.00158517,-0.0141511,0.763411,0.0100044,0.0138648,1742,1555,7.0483,-7.70565
525,-531,7.05835,7.56238,-0.00437258,-0.0042504,0.00516029,0.000849165,-0.00947214,0.791317,0.00661601,0.0134814,1749,1555,7.05837,-7.56241
532,-531,7.073,7.38965,-0.00316677,-0.00248857,0.00331304,0.000502678,-0.00615801,0.836397,0.00428275,0.0104589,1756,1555,7.07301,-7.38962
539,-531,7.0697,7.23499,-0.00208953,-0.00120672,0.00185549,0.000259146,-0.0035554,0.902173,0.0024612,0.012024,1763,1555,7.06972,-7.23493
546,-531,7.05688,7.05164,-0.000311294,-0.000374116,0.000408675,6.71755e-05,-0.000752585,0.747043,0.000525548,0.0150106,1770,1555,7.0569,-7.05159
553,-531,7.06799,6.92993,0.00115622,0.000631279,-0.00098991,0.00191787,-0.000130364,-0.655806,0.00132417,0.029439,1777,1555,7.06798,-6.92998
560,-531,7.05286,6.80225,0.00259956,0.00257724,-0.00261052,0.00519894,-2.21417e-05,-0.783261,0.00347336,0.0317129,1784,1555,7.05284,-6.8023
567,-531,6.99023,6.66174,0.00428277,0.00444598,-0.00434827,0.00871341,1.53421e-05,-0.794781,0.00580383,0.0182247,1791,1555,6.99025,-6.66175
574,-531,7.04419,6.49878,0.00610762,0.00764232,-0.00802831,0.0149399,-0.00118993,-0.833044,0.0103793,0.0122664,1798,1555,7.04418,-6.49884
581,-531,7.08704,6.32312,0.00808225,0.0113838,-0.011726,0.0215747,-0.00210862,-0.855329,0.0151351,0.0110426,1805,1555,7.08703,-6.32307
588,-531,7.09863,6.12317,0.00887344,0.0174424,-0.0178417,0.0315069,-0.00519098,-0.903237,0.0229316,0.0149493,1812,1555,7.09865,-6.12313
595,-531,7.10657,5.87122,0.008608,0.0271807,-0.0266464,0.0461125,-0.0103238,-0.953069,0.0346987,0.0319506,1819,1555,7.10653,-5.8712
602,-531,7.50146,5.2738,0.00862883,0.0382698,-0.0370415,0.0633457,-0.016447,-0.975697,0.0486485,0.0452109,1826,1555,7.50144,-5.27382
609,-531,7.54968,4.62073,0.00792567,0.052381,-0.0507654,0.0855717,-0.025265,-0.991751,0.0670748,0.040241,1833,1555,7.54974,-4.62074
616,-531,7.6759,4.42029,0,0,0,0,0,0,0,-1,1840,1555,7.67587,-4.42031
623,-531,10.3961,5.82263,-0.00235495,0.0913315,-0.0874037,0.143653,-0.0546767,-1.03139,0.118285,0.0416508,1847,1555,10.3961,-5.82263
630,-531,10.248,3.99646,0,0,0,0,0,0,0,-1,1854,1555,10.248,-3.99643
637,-531,9.6499,2.14417,0,0,0,0,0,0,0,-1,1861,1555,9.64991,-2.14421
644,-531,0,0,0,0,0,0,0,0,0,-1,1868,1555,0,0
651,-531,0,0,0,0,0,0,0,0,0,-1,1875,1555,0,0
658,-531,0,0,0,0,0,0,0,0,0,-1,1882,1555,0,0
665,-531,0,0,0,0,0,0,0,0,0,-1,1889,1555,0,0
672,-531,0,0,0,0,0,0,0,0,0,-1,1896,1555,0,0
679,-531,0,0,0,0,0,0,0,0,0,-1,1903,1555,0,0
686,-531,0,0,0,0,0,0,0,0,0,-1,1910,1555,0,0
693,-531,0,0,0,0,0,0,0,0,0,-1,1917,1555,0,0
700,-531,0,0,0,0,0,0,0,0,0,-1,1924,1555,0,0
707,-531,0,0,0,0,0,0,0,0,0,-1,1931,1555,0,0
714,-531,0,0,0,0,0,0,0,0,0,-1,1938,1555,0,0
721,-531,0,0,0,0,0,0,0,0,0,-1,1945,1555,0,0
728,-531,0,0,0,0,0,0,0,0,0,-1,1952,1555,0,0
735,-531,0,0,0,0,0,0,0,0,0,-1,1959,1555,0,0
742,-531,0,0,0,0,0,0,0,0,0,-1,1966,1555,0,0
749,-531,0,0,0,0,0,0,0,0,0,-1,1973,1555,0,0
756,-531,0,0,0,0,0,0,0,0,0,-1,1980,1555,0,0
763,-531,0,0,0,0,0,0,0,0,0,-1,1987,1555,0,0
770,-531,0,0,0,0,0,0,0,0,0,-1,1994,1555,0,0
777,-531,0,0,0,0,0,0,0,0,0,-1,2001,1555,0,0
784,-531,0,0,0,0,0,0,0,0,0,-1,2008,1555,0,0
791,-531,0,0,0,0,0,0,0,0,0,-1,2015,1555,0,0
798,-531,0,0,0,0,0,0,0,0,0,-1,2022,1555,0,0
805,-531,0,0,0,0,0,0,0,0,0,-1,2029,1555,0,0
812,-531,0,0,0,0,0,0,0,0,0,-1,2036,1555,0,0
-700,-538,0,0,0,0,0,0,0,0,0,-1,524,1562,0,0
-693,-538,0,0,0,0,0,0,0,0,0,-1,531,1562,0,0
-686,-538,0,0,0,0,0,0,0,0,0,-1,538,1562,0,0
-679,-538,0,0,0,0,0,0,0,0,0,-1,545,1562,0,0
-672,-538,0,0,0,0,0,0,0,0,0,-1,552,1562,0,0
-665,-538,0,0,0,0,0,0,0,0,0,-1,559,1562,0,0
-658,-538,0,0,0,0,0,0,0,0,0,-1,566,1562,0,0
-651,-538,0,0,0,0,0,0,0,0,0,-1,573,1562,0,0
-644,-538,0,0,0,0,0,0,0,0,0,-1,580,1562,0,0
-637,-538,0,0,0,0,0,0,0,0,0,-1,587,1562,0,0
-630,-538,0,0,0,0,0,0,0,0,0,-1,594,1562,0,0
-623,-538,0,0,0,0,0,0,0,0,0,-1,601,1562,0,0
-616,-538,0,0,0,0,0,0,0,0,0,-1,608,1562,0,0
-609,-538,0,0,0,0,0,0,0,0,0,-1,615,1562,0,0
-602,-538,0,0,0,0,0,0,0,0,0,-1,622,1562,0,0
-595,-538,0,0,0,0,0,0,0,0,0,-1,629,1562,0,0
-588,-538,0,0,0,0,0,0,0,0,0,-1,636,1562,0,0
-581,-538,0,0,0,0,0,0,0,0,0,-1,643,1562,0,0
-574,-538,0,0,0,0,0,0,0,0,0,-1,650,1562,0,0
-567,-538,0,0,0,0,0,0,0,0,0,-1,657,1562,0,0
-560,-538,0,0,0,0,0,0,0,0,0,-1,664,1562,0,0
-553,-538,0,0,0,0,0,0,0,0,0,-1,671,1562,0,0
-546,-538,0,0,0,0,0,0,0,0,0,-1,678,1562,0,0
-539,-538,0,0,0,0,0,0,0,0,0,-1,685,1562,0,0
-532,-538,0,0,0,0,0,0,0,0,0,-1,692,1562,0,0
-525,-538,0,0,0,0,0,0,0,0,0,-1,699,1562,0,0
-518,-538,0,0,0,0,0,0,0,0,0,-1,706,1562,0,0
-511,-538,1.66724,3.72461,0,0,0,0,0,0,0,-1,713,1562,1.66721,-3.72467
-504,-538,-0.320435,-1.36462,0,0,0,0,0,0,0,-1,720,1562,-0.320404,1.36464
-497,-538,1.18811,4.76306,0,0,0,0,0,0,0,-1,727,1562,1.18809,-4.76307
-490,-538,0.299133,4.26819,0,0,0,0,0,0,0,-1,734,1562,0.299159,-4.26824
-483,-538,0.679626,3.55859,0,0,0,0,0,0,0,-1,741,1562,0.679599,-3.55857
-476,-538,0.87854,3.83838,0,0,0,0,0,0,0,-1,748,1562,0.878518,-3.83836
-469,-538,2.26385,3.39465,0,0,0,0,0,0,0,-1,755,1562,2.26387,-3.39461
-462,-538,0.984741,3.96631,-0.0156922,0.0275415,0.0283438,0.0415709,-0.0297216,1.11118,0.0413498,0.0411336,762,1562,0.984749,-3.96636
-455,-538,0.656982,4.59155,-0.0111743,0.024261,0.0270434,0.0388738,-0.0257871,1.07539,0.037586,0.0357981,769,1562,0.65699,-4.59161
-448,-538,0.503784,4.97095,-0.00717106,0.0208127,0.0247514,0.0352533,-0.0216117,1.04265,0.0331444,0.0155572,776,1562,0.503758,-4.9709
-441,-538,0.476318,5.13293,-0.00420039,0.0175421,0.0218126,0.0310425,-0.0177007,1.01658,0.0284911,0.0141929,783,1562,0.476293,-5.1329
-434,-538,0.460815,5.2948,-0.00185048,0.0142679,0.0186616,0.0265362,-0.0141187,0.989232,0.0238343,0.0118323,790,1562,0.460838,-5.29475
-427,-538,0.438599,5.47913,-1.9808e-05,0.010818,0.0155896,0.0219036,-0.0111054,0.952665,0.0193947,0.0136103,797,1562,0.438582,-5.4791
-420,-538,0.43457,5.64709,0.00133479,0.00849613,0.0125388,0.0179555,-0.00812459,0.92448,0.0154098,0.0174317,804,1562,0.434546,-5.64709
-413,-538,0.447449,5.82373,0.00207763,0.00614139,0.00930531,0.0136341,-0.00541506,0.892889,0.0113341,0.0164041,811,1562,0.447479,-5.82375
-406,-538,0.472412,5.96753,0.00234738,0.00378543,0.00621967,0.00932751,-0.00319469,0.842945,0.00751315,0.0135836,818,1562,0.472399,-5.96751
-399,-538,0.475769,6.14331,0.00196077,0.00188603,0.00361536,0.00553895,-0.00169216,0.78023,0.00436736,0.0131156,825,1562,0.475771,-6.14335
-392,-538,0.478271,6.29675,0.0012995,0.000666034,0.00162878,0.00264206,-0.000676526,0.689366,0.00202491,0.0141776,832,1562,0.478287,-6.29673
-385,-538,0.450378,6.47119,0.000610815,0.000653002,0.000405902,0.00103836,0.00022546,0.811358,0.000630665,0.0123534,839,1562,0.450396,-6.47119
-378,-538,0.452637,6.6499,9.72455e-06,0.000647616,-0.000161813,0.000686315,-2.89743e-05,-1.33605,0.000467501,0.00968484,846,1562,0.45266,-6.64996
-371,-538,0.451111,6.80774,-9.8868e-05,0.00102831,-0.000215118,0.00106797,-0.000138527,-1.38848,0.00076236,0.0106837,853,1562,0.451082,-6.80771
-364,-538,0.486694,6.98901,-0.000103676,0.00195876,-0.000131415,0.0019671,-0.000112016,-1.50742,0.00135029,0.00999834,860,1562,0.486722,-6.98903
-357,-538,0.49353,7.11694,5.05808e-05,0.00329281,-5.18979e-05,0.00329364,4.97503e-05,-1.55479,0.00217937,0.0175024,867,1562,0.493512,-7.11699
-350,-538,0.475586,7.17786,0.000358095,0.00520767,6.95548e-05,0.00520867,0.000357098,1.55646,0.00335974,0.0326332,874,1562,0.475612,-7.17781
-343,-538,0.374146,7.64221,0.000543934,0.00758325,6.16025e-05,0.00758379,0.000543395,1.56205,0.00488481,0.0433626,881,1562,0.37417,-7.64216
-336,-538,0.920715,8.28088,-0.00194599,0.00814104,-0.00272587,0.00883054,-0.00263549,-1.32305,0.00693452,0.042416,888,1562,0.920714,-8.28082
-329,-538,0.704407,7.72998,-0.00725599,0.00587346,-0.00845129,0.0100101,-0.0113927,-1.11561,0.0123655,0.0464443,895,1562,0.704387,-7.72999
-322,-538,0.71936,7.88074,0,0,0,0,0,0,0,-1,902,1562,0.719348,-7.88072
-315,-538,0.659607,7.6853,0,0,0,0,0,0,0,-1,909,1562,0.659615,-7.68527
-308,-538,-0.670227,7.99988,0,0,0,0,0,0,0,-1,916,1562,-0.670238,-7.99991
-301,-538,-1.07208,7.93982,0,0,0,0,0,0,0,-1,923,1562,-1.07209,-7.9398
-294,-538,-1.6698,7.99927,0,0,0,0,0,0,0,-1,930,1562,-1.66978,-7.99933
-287,-538,-3.2998,10.5934,0,0,0,0,0,0,0,-1,937,1562,-3.2998,-10.5933
-280,-538,-4.0293,11.8911,0,0,0,0,0,0,0,-1,944,1562,-4.02932,-11.8911
-273,-538,-4.85803,13.4651,0,0,0,0,0,0,0,-1,951,1562,-4.85802,-13.4651
-266,-538,-5.69073,14.9116,0,0,0,0,0,0,0,-1,958,1562,-5.69073,-14.9116
-259,-538,-6.4397,16.3737,0,0,0,0,0,0,0,-1,965,1562,-6.43969,-16.3737
-252,-538,0,0,0,0,0,0,0,0,0,-1,972,1562,0,0
-245,-538,0,0,0,0,0,0,0,0,0,-1,979,1562,0,0
-238,-538,0,0,0,0,0,0,0,0,0,-1,986,1562,0,0
-231,-538,0,0,0,0,0,0,0,0,0,-1,993,1562,0,0
-224,-538,0,0,0,0,0,0,0,0,0,-1,1000,1562,0,0
-217,-538,0,0,0,0,0,0,0,0,0,-1,1007,1562,0,0
-210,-538,0,0,0,0,0,0,0,0,0,-1,1014,1562,0,0
-203,-538,0,0,0,0,0,0,0,0,0,-1,1021,1562,0,0
-196,-538,0,0,0,0,0,0,0,0,0,-1,1028,1562,0,0
-189,-538,0,0,0,0,0,0,0,0,0,-1,1035,1562,0,0
-182,-538,0,0,0,0,0,0,0,0,0,-1,1042,1562,0,0
-175,-538,0,0,0,0,0,0,0,0,0,-1,1049,1562,0,0
-168,-538,0,0,0,0,0,0,0,0,0,-1,1056,1562,0,0
-161,-538,0,0,0,0,0,0,0,0,0,-1,1063,1562,0,0
-154,-538,0,0,0,0,0,0,0,0,0,-1,1070,1562,0,0
-147,-538,0,0,0,0,0,0,0,0,0,-1,1077,1562,0,0
-140,-538,0,0,0,0,0,0,0,0,0,-1,1084,1562,0,0
-133,-538,0,0,0,0,0,0,0,0,0,-1,1091,1562,0,0
-126,-538,0,0,0,0,0,0,0,0,0,-1,1098,1562,0,0
-119,-538,0,0,0,0,0,0,0,0,0,-1,1105,1562,0,0
-112,-538,0,0,0,0,0,0,0,0,0,-1,1112,1562,0,0
-105,-538,0,0,0,0,0,0,0,0,0,-1,1119,1562,0,0
-98,-538,0,0,0,0,0,0,0,0,0,-1,1126,1562,0,0
-91,-538,0,0,0,0,0,0,0,0,0,-1,1133,1562,0,0
-84,-538,0,0,0,0,0,0,0,0,0,-1,1140,1562,0,0
-77,-538,0,0,0,0,0,0,0,0,0,-1,1147,1562,0,0
-70,-538,0,0,0,0,0,0,0,0,0,-1,1154,1562,0,0
-63,-538,0,0,0,0,0,0,0,0,0,-1,1161,1562,0,0
-56,-538,0,0,0,0,0,0,0,0,0,-1,1168,1562,0,0
-49,-538,0,0,0,0,0,0,0,0,0,-1,1175,1562,0,0
-42,-538,0,0,0,0,0,0,0,0,0,-1,1182,1562,0,0
-35,-538,0,0,0,0,0,0,0,0,0,-1,1189,1562,0,0
-28,-538,0,0,0,0,0,0,0,0,0,-1,1196,1562,0,0
-21,-538,0,0,0,0,0,0,0,0,0,-1,1203,1562,0,0
-14,-538,0,0,0,0,0,0,0,0,0,-1,1210,1562,0,0
-7,-538,0,0,0,0,0,0,0,0,0,-1,1217,1562,0,0
0,-538,0,0,0,0,0,0,0,0,0,-1,1224,1562,0,0
7,-538,0,0,0,0,0,0,0,0,0,-1,1231,1562,0,0
14,-538,0,0,0,0,0,0,0,0,0,-1,1238,1562,0,0
21,-538,0,0,0,0,0,0,0,0,0,-1,1245,1562,0,0
28,-538,0,0,0,0,0,0,0,0,0,-1,1252,1562,0,0
35,-538,0,0,0,0,0,0,0,0,0,-1,1259,1562,0,0
42,-538,0,0,0,0,0,0,0,0,0,-1,1266,1562,0,0
49,-538,0,0,0,0,0,0,0,0,0,-1,1273,1562,0,0
56,-538,0,0,0,0,0,0,0,0,0,-1,1280,1562,0,0
63,-538,0,0,0,0,0,0,0,0,0,-1,1287,1562,0,0
70,-538,0,0,0,0,0,0,0,0,0,-1,1294,1562,0,0
77,-538,0,0,0,0,0,0,0,0,0,-1,1301,1562,0,0
84,-538,0,0,0,0,0,0,0,0,0,-1,1308,1562,0,0
91,-538,0,0,0,0,0,0,0,0,0,-1,1315,1562,0,0
98,-538,0,0,0,0,0,0,0,0,0,-1,1322,1562,0,0
105,-538,0,0,0,0,0,0,0,0,0,-1,1329,1562,0,0
112,-538,0,0,0,0,0,0,0,0,0,-1,1336,1562,0,0
119,-538,0,0,0,0,0,0,0,0,0,-1,1343,1562,0,0
126,-538,0,0,0,0,0,0,0,0,0,-1,1350,1562,0,0
133,-538,0,0,0,0,0,0,0,0,0,-1,1357,1562,0,0
140,-538,0,0,0,0,0,0,0,0,0,-1,1364,1562,0,0
147,-538,0,0,0,0,0,0,0,0,0,-1,1371,1562,0,0
154,-538,0,0,0,0,0,0,0,0,0,-1,1378,1562,0,0
161,-538,0,0,0,0,0,0,0,0,0,-1,1385,1562,0,0
168,-538,0,0,0,0,0,0,0,0,0,-1,1392,1562,0,0
175,-538,0,0,0,0,0,0,0,0,0,-1,1399,1562,0,0
182,-538,0,0,0,0,0,0,0,0,0,-1,1406,1562,0,0
189,-538,0,0,0,0,0,0,0,0,0,-1,1413,1562,0,0
196,-538,0,0,0,0,0,0,0,0,0,-1,1420,1562,0,0
203,-538,0,0,0,0,0,0,0,0,0,-1,1427,1562,0,0
210,-538,0,0,0,0,0,0,0,0,0,-1,1434,1562,0,0
217,-538,0,0,0,0,0,0,0,0,0,-1,1441,1562,0,0
224,-538,0,0,0,0,0,0,0,0,0,-1,1448,1562,0,0
231,-538,0,0,0,0,0,0,0,0,0,-1,1455,1562,0,0
238,-538,0,0,0,0,0,0,0,0,0,-1,1462,1562,0,0
245,-538,0,0,0,0,0,0,0,0,0,-1,1469,1562,0,0
252,-538,0,0,0,0,0,0,0,0,0,-1,1476,1562,0,0
259,-538,0,0,0,0,0,0,0,0,0,-1,1483,1562,0,0
266,-538,0,0,0,0,0,0,0,0,0,-1,1490,1562,0,0
273,-538,0,0,0,0,0,0,0,0,0,-1,1497,1562,0,0
280,-538,0,0,0,0,0,0,0,0,0,-1,1504,1562,0,0
287,-538,0,0,0,0,0,0,0,0,0,-1,1511,1562,0,0
294,-538,0,0,0,0,0,0,0,0,0,-1,1518,1562,0,0
301,-538,0,0,0,0,0,0,0,0,0,-1,1525,1562,0,0
308,-538,0,0,0,0,0,0,0,0,0,-1,1532,1562,0,0
315,-538,0,0,0,0,0,0,0,0,0,-1,1539,1562,0,0
322,-538,0,0,0,0,0,0,0,0,0,-1,1546,1562,0,0
329,-538,0,0,0,0,0,0,0,0,0,-1,1553,1562,0,0
336,-538,0,0,0,0,0,0,0,0,0,-1,1560,1562,0,0
343,-538,0,0,0,0,0,0,0,0,0,-1,1567,1562,0,0
350,-538,0,0,0,0,0,0,0,0,0,-1,1574,1562,0,0
357,-538,0,0,0,0,0,0,0,0,0,-1,1581,1562,0,0
364,-538,0,0,0,0,0,0,0,0,0,-1,1588,1562,0,0
371,-538,0,0,0,0,0,0,0,0,0,-1,1595,1562,0,0
378,-538,7.65637,4.13477,0,0,0,0,0,0,0,-1,1602,1562,7.65643,-4.13477
385,-538,8.69836,7.6283,0,0,0,0,0,0,0,-1,1609,1562,8.69835,-7.62829
392,-538,8.20361,7.07214,0,0,0,0,0,0,0,-1,1616,1562,8.20362,-7.07211
399,-538,7.85425,4.70508,0,0,0,0,0,0,0,-1,1623,1562,7.85425,-4.70512
406,-538,7.77734,4.96094,0,0,0,0,0,0,0,-1,1630,1562,7.77729,-4.96097
413,-538,7.71777,5.26636,0,0,0,0,0,0,0,-1,1637,1562,7.71773,-5.26641
420,-538,4.48254,5.89282,0,0,0,0,0,0,0,-1,1644,1562,4.4825,-5.89279
427,-538,4.81055,6.83191,0,0,0,0,0,0,0,-1,1651,1562,4.81055,-6.83195
434,-538,5.20825,4.04419,0,0,0,0,0,0,0,-1,1658,1562,5.20826,-4.04425
441,-538,5.56702,5.17859,0,0,0,0,0,0,0,-1,1665,1562,5.56698,-5.17863
448,-538,5.92566,6.31299,0,0,0,0,0,0,0,-1,1672,1562,5.9257,-6.31301
455,-538,8.64502,7.73633,0,0,0,0,0,0,0,-1,1679,1562,8.64497,-7.73634
462,-538,8.12244,8.03967,0,0,0,0,0,0,0,-1,1686,1562,8.12248,-8.03971
469,-538,8.50122,7.77417,-0.0120559,-0.0423885,0.0351364,0.0110476,-0.065492,0.581657,0.0477716,0.0444724,1693,1562,8.5012,-7.77422
476,-538,7.54395,8.16113,-0.0122541,-0.0335672,0.0297528,0.00869297,-0.0545143,0.61343,0.0395602,0.0425516,1700,1562,7.54399,-8.16114
483,-538,7.03894,8.28882,-0.0115522,-0.0259197,0.0246173,0.0069081,-0.0443799,0.643431,0.0321378,0.0263294,1707,1562,7.03889,-8.28887
490,-538,6.94067,8.20825,-0.0104518,-0.0195915,0.0198126,0.00531118,-0.0353545,0.672053,0.0255249,0.012793,1714,1562,6.94065,-8.20819
497,-538,6.90613,8.09326,-0.00910144,-0.0145318,0.0155871,0.00400522,-0.0276384,0.699167,0.0198955,0.00948057,1721,1562,6.90611,-8.09324
504,-538,6.90723,7.97424,-0.00796185,-0.00980545,0.0121408,0.00329213,-0.0210594,0.747508,0.0152559,0.00902469,1728,1562,6.90722,-7.97421
511,-538,6.89905,7.82996,-0.00644054,-0.0068494,0.00860976,0.00196722,-0.0152572,0.773529,0.0108866,0.00969974,1735,1562,6.89903,-7.83001
518,-538,6.88721,7.70667,-0.00491049,-0.00448867,0.00593667,0.00124084,-0.01064,0.803154,0.00754105,0.0102585,1742,1562,6.88724,-7.70666
525,-538,6.88477,7.54285,-0.00334348,-0.00270186,0.00356809,0.000559815,-0.00660516,0.830233,0.00460141,0.0110443,1749,1562,6.88472,-7.54284
532,-538,6.901,7.37903,-0.00221448,-0.0014015,0.00198493,0.000218131,-0.00383412,0.886396,0.0026318,0.0116612,1756,1562,6.90097,-7.37907
539,-538,6.90283,7.25354,-0.0013253,-0.000351506,0.000754629,5.96695e-05,-0.00173647,1.0719,0.00117804,0.0143386,1763,1562,6.90283,-7.25353
546,-538,6.89856,7.08655,0.000366771,0.000441408,-0.000621206,0.00102642,-0.000218237,-0.815399,0.000767436,0.0163968,1770,1562,6.89855,-7.08652
553,-538,6.9386,6.89575,0.00171844,0.00153634,-0.00197453,0.00360402,-0.000349236,-0.762359,0.00252715,0.0259508,1777,1562,6.93855,-6.89577
560,-538,6.9032,6.78198,0.00317975,0.00361734,-0.00367323,0.00707829,-0.000281198,-0.815146,0.00481533,0.0260019,1784,1562,6.90325,-6.78194
567,-538,6.84448,6.68262,0.00510088,0.00557837,-0.00557212,0.0109169,-0.000237606,-0.806808,0.00735839,0.0198472,1791,1562,6.84444,-6.68258
574,-538,6.90198,6.4906,0.00735713,0.00922065,-0.00994732,0.0182798,-0.00170197,-0.832097,0.0127916,0.0121656,1798,1562,6.90198,-6.49062
581,-538,6.96045,6.29541,0.0101103,0.0135857,-0.0145183,0.0264699,-0.00277387,-0.84496,0.0186402,0.0133096,1805,1562,6.96041,-6.29544
588,-538,6.96985,6.1311,0.0119088,0.0206162,-0.0220457,0.0387339,-0.00620897,-0.882886,0.0281217,0.0305065,1812,1562,6.9699,-6.13109
595,-538,7.11414,5.74756,0.012731,0.0319065,-0.0327545,0.0564476,-0.0118101,-0.927779,0.042124,0.0496284,1819,1562,7.11417,-5.74755
602,-538,7.55396,4.76099,0,0,0,0,0,0,0,-1,1826,1562,7.55391,-4.76099
609,-538,7.69287,3.44226,0,0,0,0,0,0,0,-1,1833,1562,7.69282,-3.44223
616,-538,11.9706,6.6803,0,0,0,0,0,0,0,-1,1840,1562,11.9705,-6.68028
623,-538,11.6731,4.90771,0,0,0,0,0,0,0,-1,1847,1562,11.673,-4.90772
630,-538,11.3368,3.23474,0,0,0,0,0,0,0,-1,1854,1562,11.3368,-3.23475
637,-538,0,0,0,0,0,0,0,0,0,-1,1861,1562,0,0
644,-538,0,0,0,0,0,0,0,0,0,-1,1868,1562,0,0
651,-538,0,0,0,0,0,0,0,0,0,-1,1875,1562,0,0
658,-538,0,0,0,0,0,0,0,0,0,-1,1882,1562,0,0
665,-538,0,0,0,0,0,0,0,0,0,-1,1889,1562,0,0
672,-538,0,0,0,0,0,0,0,0,0,-1,1896,1562,0,0
679,-538,0,0,0,0,0,0,0,0,0,-1,1903,1562,0,0
686,-538,0,0,0,0,0,0,0,0,0,-1,1910,1562,0,0
693,-538,0,0,0,0,0,0,0,0,0,-1,1917,1562,0,0
700,-538,0,0,0,0,0,0,0,0,0,-1,1924,1562,0,0
707,-538,0,0,0,0,0,0,0,0,0,-1,1931,1562,0,0
714,-538,0,0,0,0,0,0,0,0,0,-1,1938,1562,0,0
721,-538,0,0,0,0,0,0,0,0,0,-1,1945,1562,0,0
728,-538,0,0,0,0,0,0,0,0,0,-1,1952,1562,0,0
735,-538,0,0,0,0,0,0,0,0,0,-1,1959,1562,0,0
742,-538,0,0,0,0,0,0,0,0,0,-1,1966,1562,0,0
749,-538,0,0,0,0,0,0,0,0,0,-1,1973,1562,0,0
756,-538,0,0,0,0,0,0,0,0,0,-1,1980,1562,0,0
763,-538,0,0,0,0,0,0,0,0,0,-1,1987,1562,0,0
770,-538,0,0,0,0,0,0,0,0,0,-1,1994,1562,0,0
777,-538,0,0,0,0,0,0,0,0,0,-1,2001,1562,0,0
784,-538,0,0,0,0,0,0,0,0,0,-1,2008,1562,0,0
791,-538,0,0,0,0,0,0,0,0,0,-1,2015,1562,0,0
798,-538,0,0,0,0,0,0,0,0,0,-1,2022,1562,0,0
805,-538,0,0,0,0,0,0,0,0,0,-1,2029,1562,0,0
812,-538,0,0,0,0,0,0,0,0,0,-1,2036,1562,0,0
-700,-545,0,0,0,0,0,0,0,0,0,-1,524,1569,0,0
-693,-545,0,0,0,0,0,0,0,0,0,-1,531,1569,0,0
-686,-545,0,0,0,0,0,0,0,0,0,-1,538,1569,0,0
-679,-545,0,0,0,0,0,0,0,0,0,-1,545,1569,0,0
-672,-545,0,0,0,0,0,0,0,0,0,-1,552,1569,0,0
-665,-545,0,0,0,0,0,0,0,0,0,-1,559,1569,0,0
-658,-545,0,0,0,0,0,0,0,0,0,-1,566,1569,0,0
-651,-545,0,0,0,0,0,0,0,0,0,-1,573,1569,0,0
-644,-545,0,0,0,0,0,0,0,0,0,-1,580,1569,0,0
-637,-545,0,0,0,0,0,0,0,0,0,-1,587,1569,0,0
-630,-545,0,0,0,0,0,0,0,0,0,-1,594,1569,0,0
-623,-545,0,0,0,0,0,0,0,0,0,-1,601,1569,0,0
-616,-545,0,0,0,0,0,0,0,0,0,-1,608,1569,0,0
-609,-545,0,0,0,0,0,0,0,0,0,-1,615,1569,0,0
-602,-545,0,0,0,0,0,0,0,0,0,-1,622,1569,0,0
-595,-545,0,0,0,0,0,0,0,0,0,-1,629,1569,0,0
-588,-545,0,0,0,0,0,0,0,0,0,-1,636,1569,0,0
-581,-545,0,0,0,0,0,0,0,0,0,-1,643,1569,0,0
-574,-545,0,0,0,0,0,0,0,0,0,-1,650,1569,0,0
-567,-545,0,0,0,0,0,0,0,0,0,-1,657,1569,0,0
-560,-545,0,0,0,0,0,0,0,0,0,-1,664,1569,0,0
-553,-545,0,0,0,0,0,0,0,0,0,-1,671,1569,0,0
-546,-545,0,0,0,0,0,0,0,0,0,-1,678,1569,0,0
-539,-545,0,0,0,0,0,0,0,0,0,-1,685,1569,0,0
-532,-545,0,0,0,0,0,0,0,0,0,-1,692,1569,0,0
-525,-545,0,0,0,0,0,0,0,0,0,-1,699,1569,0,0
-518,-545,0,0,0,0,0,0,0,0,0,-1,706,1569,0,0
-511,-545,0,0,0,0,0,0,0,0,0,-1,713,1569,0,0
-504,-545,2.2439,3.20935,0,0,0,0,0,0,0,-1,720,1569,2.24391,-3.2093
-497,-545,0.119141,5.68481,0,0,0,0,0,0,0,-1,727,1569,0.119132,-5.68483
-490,-545,4.46082,2.36755,0,0,0,0,0,0,0,-1,734,1569,4.46079,-2.36756
-483,-545,1.0658,3.11926,0,0,0,0,0,0,0,-1,741,1569,1.06578,-3.11922
-476,-545,2.48883,2.2312,-0.0321152,0.0448228,0.0397126,0.0616435,-0.0489359,1.17014,0.0639834,0.0436853,748,1569,2.48886,-2.23119
-469,-545,2.09253,2.98242,-0.0238489,0.0420722,0.041702,0.0622667,-0.0440433,1.11982,0.061678,0.0435952,755,1569,2.09255,-2.98241
-462,-545,1.55878,3.82312,-0.0160636,0.0387279,0.0419466,0.0614325,-0.0387683,1.07468,0.0583421,0.0412859,762,1569,1.55876,-3.82307
-455,-545,0.879761,4.46838,-0.00929343,0.0349007,0.0404703,0.0589135,-0.0333062,1.03528,0.053923,0.0411445,769,1569,0.879732,-4.46838
-448,-545,0.688171,4.89087,-0.00384644,0.0308399,0.0374472,0.0547651,-0.0277716,1.00226,0.0484946,0.0273966,776,1569,0.6882,-4.89087
-441,-545,0.658386,5.13135,-6.59045e-05,0.0267867,0.0334215,0.0493779,-0.0226572,0.976395,0.0425326,0.0169818,783,1569,0.65838,-5.13134
-434,-545,0.613953,5.31091,0.00248866,0.0226943,0.0288879,0.0431951,-0.0180121,0.953613,0.0363213,0.0137702,790,1569,0.613978,-5.31097
-427,-545,0.619873,5.46985,0.00427423,0.0184156,0.0244417,0.0367888,-0.014099,0.926199,0.030338,0.0171255,797,1569,0.619849,-5.4699
-420,-545,0.639343,5.63403,0.00525994,0.0152568,0.0199941,0.0308678,-0.010351,0.907886,0.0247609,0.02339,804,1569,0.639353,-5.63409
-413,-545,0.642395,5.81567,0.00536097,0.0119772,0.0153657,0.0243869,-0.00704875,0.891425,0.0190473,0.0213182,811,1569,0.642401,-5.81567
-406,-545,0.638672,5.95117,0.00495648,0.00867303,0.0109484,0.0179198,-0.00429025,0.869462,0.013604,0.0153176,818,1569,0.638696,-5.9512
-399,-545,0.637939,6.13098,0.00386634,0.00577474,0.00708619,0.0119707,-0.00232961,0.852324,0.00885968,0.0108853,825,1569,0.637919,-6.13099
-392,-545,0.628357,6.30518,0.00250409,0.00351993,0.00385591,0.00690123,-0.000877214,0.850883,0.00491937,0.01106,832,1569,0.628387,-6.30521
-385,-545,0.630676,6.4856,0.00117304,0.00268923,0.00157183,0.00367622,0.00018604,1.01009,0.00239122,0.0099184,839,1569,0.630706,-6.48555
-378,-545,0.613953,6.65955,0.000139657,0.00198513,0.00034111,0.00204616,7.86257e-05,1.39375,0.00133867,0.0116268,846,1569,0.613941,-6.65955
-371,-545,0.61261,6.82703,-7.28823e-05,0.00163311,-6.19712e-05,0.00163536,-7.51305e-05,-1.53453,0.00111613,0.0147704,853,1569,0.612603,-6.82708
-364,-545,0.632324,6.9801,1.11686e-05,0.00211303,-0.000120367,0.0021199,4.29805e-06,-1.51378,0.00141184,0.00957591,860,1569,0.632307,-6.98016
-357,-545,0.664734,7.15479,0.000318015,0.00302868,-7.08306e-05,0.00303053,0.000316166,-1.54469,0.00192365,0.01043,867,1569,0.664725,-7.15479
-350,-545,0.652039,7.28772,0.000734959,0.00438985,3.18304e-05,0.00439013,0.000734682,1.56209,0.00271519,0.016096,874,1569,0.652038,-7.28775
-343,-545,0.654114,7.43262,0.00101594,0.00619969,1.35829e-05,0.00619973,0.00101591,1.56818,0.00383958,0.026591,881,1569,0.65414,-7.43263
-336,-545,0.73938,7.5968,-0.00107094,0.00632946,-0.00240948,0.00704481,-0.00178629,-1.2822,0.00539153,0.0342458,888,1569,0.739403,-7.59681
-329,-545,0.790344,7.7113,-0.0054248,0.00387977,-0.007211,0.00780899,-0.00935402,-1.07188,0.00992244,0.0416367,895,1569,0.790366,-7.71127
-322,-545,0.386169,8.00366,0,0,0,0,0,0,0,-1,902,1569,0.386198,-8.00369
-315,-545,0.0514526,7.9292,0,0,0,0,0,0,0,-1,909,1569,0.0514314,-7.92925
-308,-545,-0.139465,7.5072,0,0,0,0,0,0,0,-1,916,1569,-0.139448,-7.50718
-301,-545,-0.684937,7.61328,0,0,0,0,0,0,0,-1,923,1569,-0.684937,-7.61332
-294,-545,-1.51276,8.30151,0,0,0,0,0,0,0,-1,930,1569,-1.51278,-8.30151
-287,-545,-2.19568,9.85266,0,0,0,0,0,0,0,-1,937,1569,-2.19568,-9.85264
-280,-545,-3.15833,11.0632,0,0,0,0,0,0,0,-1,944,1569,-3.15832,-11.0633
-273,-545,-4.10596,12.3789,0,0,0,0,0,0,0,-1,951,1569,-4.10598,-12.3789
-266,-545,-5.10779,14.1372,0,0,0,0,0,0,0,-1,958,1569,-5.10778,-14.1372
-259,-545,-3.98706,7.8916,0,0,0,0,0,0,0,-1,965,1569,-3.98704,-7.89159
-252,-545,-4.75641,8.30005,0,0,0,0,0,0,0,-1,972,1569,-4.75641,-8.3001
-245,-545,0.484619,5.7207,0,0,0,0,0,0,0,-1,979,1569,0.484599,-5.72068
-238,-545,0,0,0,0,0,0,0,0,0,-1,986,1569,0,0
-231,-545,0,0,0,0,0,0,0,0,0,-1,993,1569,0,0
-224,-545,0,0,0,0,0,0,0,0,0,-1,1000,1569,0,0
-217,-545,0,0,0,0,0,0,0,0,0,-1,1007,1569,0,0
-210,-545,0,0,0,0,0,0,0,0,0,-1,1014,1569,0,0
-203,-545,0,0,0,0,0,0,0,0,0,-1,1021,1569,0,0
-196,-545,0,0,0,0,0,0,0,0,0,-1,1028,1569,0,0
-189,-545,0,0,0,0,0,0,0,0,0,-1,1035,1569,0,0
-182,-545,0,0,0,0,0,0,0,0,0,-1,1042,1569,0,0
-175,-545,0,0,0,0,0,0,0,0,0,-1,1049,1569,0,0
-168,-545,0,0,0,0,0,0,0,0,0,-1,1056,1569,0,0
-161,-545,0,0,0,0,0,0,0,0,0,-1,1063,1569,0,0
-154,-545,0,0,0,0,0,0,0,0,0,-1,1070,1569,0,0
-147,-545,0,0,0,0,0,0,0,0,0,-1,1077,1569,0,0
-140,-545,0,0,0,0,0,0,0,0,0,-1,1084,1569,0,0
-133,-545,0,0,0,0,0,0,0,0,0,-1,1091,1569,0,0
-126,-545,0,0,0,0,0,0,0,0,0,-1,1098,1569,0,0
-119,-545,0,0,0,0,0,0,0,0,0,-1,1105,1569,0,0
-112,-545,0,0,0,0,0,0,0,0,0,-1,1112,1569,0,0
-105,-545,0,0,0,0,0,0,0,0,0,-1,1119,1569,0,0
-98,-545,0,0,0,0,0,0,0,0,0,-1,1126,1569,0,0
-91,-545,0,0,0,0,0,0,0,0,0,-1,1133,1569,0,0
-84,-545,0,0,0,0,0,0,0,0,0,-1,1140,1569,0,0
-77,-545,0,0,0,0,0,0,0,0,0,-1,1147,1569,0,0
-70,-545,0,0,0,0,0,0,0,0,0,-1,1154,1569,0,0
-63,-545,0,0,0,0,0,0,0,0,0,-1,1161,1569,0,0
-56,-545,0,0,0,0,0,0,0,0,0,-1,1168,1569,0,0
-49,-545,0,0,0,0,0,0,0,0,0,-1,1175,1569,0,0
-42,-545,0,0,0,0,0,0,0,0,0,-1,1182,1569,0,0
-35,-545,0,0,0,0,0,0,0,0,0,-1,1189,1569,0,0
-28,-545,0,0,0,0,0,0,0,0,0,-1,1196,1569,0,0
-21,-545,0,0,0,0,0,0,0,0,0,-1,1203,1569,0,0
-14,-545,0,0,0,0,0,0,0,0,0,-1,1210,1569,0,0
-7,-545,0,0,0,0,0,0,0,0,0,-1,1217,1569,0,0
0,-545,0,0,0,0,0,0,0,0,0,-1,1224,1569,0,0
7,-545,0,0,0,0,0,0,0,0,0,-1,1231,1569,0,0
14,-545,0,0,0,0,0,0,0,0,0,-1,1238,1569,0,0
21,-545,0,0,0,0,0,0,0,0,0,-1,1245,1569,0,0
28,-545,0,0,0,0,0,0,0,0,0,-1,1252,1569,0,0
35,-545,0,0,0,0,0,0,0,0,0,-1,1259,1569,0,0
42,-545,0,0,0,0,0,0,0,0,0,-1,1266,1569,0,0
49,-545,0,0,0,0,0,0,0,0,0,-1,1273,1569,0,0
56,-545,0,0,0,0,0,0,0,0,0,-1,1280,1569,0,0
63,-545,0,0,0,0,0,0,0,0,0,-1,1287,1569,0,0
70,-545,0,0,0,0,0,0,0,0,0,-1,1294,1569,0,0
77,-545,0,0,0,0,0,0,0,0,0,-1,1301,1569,0,0
84,-545,0,0,0,0,0,0,0,0,0,-1,1308,1569,0,0
91,-545,0,0,0,0,0,0,0,0,0,-1,1315,1569,0,0
98,-545,0,0,0,0,0,0,0,0,0,-1,1322,1569,0,0
105,-545,0,0,0,0,0,0,0,0,0,-1,1329,1569,0,0
112,-545,0,0,0,0,0,0,0,0,0,-1,1336,1569,0,0
119,-545,0,0,0,0,0,0,0,0,0,-1,1343,1569,0,0
126,-545,0,0,0,0,0,0,0,0,0,-1,1350,1569,0,0
133,-545,0,0,0,0,0,0,0,0,0,-1,1357,1569,0,0
140,-545,0,0,0,0,0,0,0,0,0,-1,1364,1569,0,0
147,-545,0,0,0,0,0,0,0,0,0,-1,1371,1569,0,0
154,-545,0,0,0,0,0,0,0,0,0,-1,1378,1569,0,0
161,-545,0,0,0,0,0,0,0,0,0,-1,1385,1569,0,0
168,-545,0,0,0,0,0,0,0,0,0,-1,1392,1569,0,0
175,-545,0,0,0,0,0,0,0,0,0,-1,1399,1569,0,0
182,-545,0,0,0,0,0,0,0,0,0,-1,1406,1569,0,0
189,-545,0,0,0,0,0,0,0,0,0,-1,1413,1569,0,0
196,-545,0,0,0,0,0,0,0,0,0,-1,1420,1569,0,0
203,-545,0,0,0,0,0,0,0,0,0,-1,1427,1569,0,0
210,-545,0,0,0,0,0,0,0,0,0,-1,1434,1569,0,0
217,-545,0,0,0,0,0,0,0,0,0,-1,1441,1569,0,0
224,-545,0,0,0,0,0,0,0,0,0,-1,1448,1569,0,0
231,-545,0,0,0,0,0,0,0,0,0,-1,1455,1569,0,0
238,-545,0,0,0,0,0,0,0,0,0,-1,1462,1569,0,0
245,-545,0,0,0,0,0,0,0,0,0,-1,1469,1569,0,0
252,-545,0,0,0,0,0,0,0,0,0,-1,1476,1569,0,0
259,-545,0,0,0,0,0,0,0,0,0,-1,1483,1569,0,0
266,-545,0,0,0,0,0,0,0,0,0,-1,1490,1569,0,0
273,-545,0,0,0,0,0,0,0,0,0,-1,1497,1569,0,0
280,-545,0,0,0,0,0,0,0,0,0,-1,1504,1569,0,0
287,-545,0,0,0,0,0,0,0,0,0,-1,1511,1569,0,0
294,-545,0,0,0,0,0,0,0,0,0,-1,1518,1569,0,0
301,-545,0,0,0,0,0,0,0,0,0,-1,1525,1569,0,0
308,-545,0,0,0,0,0,0,0,0,0,-1,1532,1569,0,0
315,-545,0,0,0,0,0,0,0,0,0,-1,1539,1569,0,0
322,-545,0,0,0,0,0,0,0,0,0,-1,1546,1569,0,0
329,-545,0,0,0,0,0,0,0,0,0,-1,1553,1569,0,0
336,-545,0,0,0,0,0,0,0,0,0,-1,1560,1569,0,0
343,-545,0,0,0,0,0,0,0,0,0,-1,1567,1569,0,0
350,-545,0,0,0,0,0,0,0,0,0,-1,1574,1569,0,0
357,-545,0,0,0,0,0,0,0,0,0,-1,1581,1569,0,0
364,-545,5.47632,4.19043,0,0,0,0,0,0,0,-1,1588,1569,5.47628,-4.19048
371,-545,7.62146,5.18079,0,0,0,0,0,0,0,-1,1595,1569,7.62146,-5.1808
378,-545,7.24146,4.54224,0,0,0,0,0,0,0,-1,1602,1569,7.24145,-4.54226
385,-545,8.58447,1.16125,0,0,0,0,0,0,0,-1,1609,1569,8.5845,-1.1612
392,-545,7.91272,6.36743,0,0,0,0,0,0,0,-1,1616,1569,7.91276,-6.36745
399,-545,7.62476,5.90527,0,0,0,0,0,0,0,-1,1623,1569,7.62481,-5.90528
406,-545,7.25378,4.53357,0,0,0,0,0,0,0,-1,1630,1569,7.25379,-4.53355
413,-545,5.15491,4.24658,0,0,0,0,0,0,0,-1,1637,1569,5.15488,-4.2466
420,-545,5.56897,5.00464,0,0,0,0,0,0,0,-1,1644,1569,5.56892,-5.00464
427,-545,5.74536,5.93311,0,0,0,0,0,0,0,-1,1651,1569,5.74539,-5.93305
434,-545,5.48096,4.7196,0,0,0,0,0,0,0,-1,1658,1569,5.48101,-4.71955
441,-545,5.55054,5.54797,0,0,0,0,0,0,0,-1,1665,1569,5.5505,-5.54803
448,-545,7.98999,7.33044,0,0,0,0,0,0,0,-1,1672,1569,7.98995,-7.33044
455,-545,7.63416,7.60791,-0.0149289,-0.0468997,0.0382626,0.0105533,-0.0723818,0.587528,0.0521296,0.0470783,1679,1569,7.63414,-7.60794
462,-545,7.17041,7.84827,-0.0148961,-0.0387918,0.0337271,0.00893688,-0.0626247,0.615169,0.0450254,0.0440651,1686,1569,7.17035,-7.8483
469,-545,7.01978,8.13391,-0.0142555,-0.0311922,0.0289057,0.00739681,-0.0528445,0.642904,0.0379364,0.0470379,1693,1569,7.01981,-8.13394
476,-545,6.77551,8.4082,-0.0133016,-0.0245977,0.0242306,0.00593046,-0.0438298,0.670895,0.031384,0.0304738,1700,1569,6.77546,-8.4082
483,-545,6.74939,8.35364,-0.0117263,-0.0188605,0.0198528,0.00487735,-0.0354642,0.696508,0.025425,0.012446,1707,1569,6.74944,-8.35358
490,-545,6.74963,8.2312,-0.0100285,-0.0142062,0.0158412,0.00386095,-0.0280956,0.719845,0.0201411,0.0106292,1714,1569,6.74958,-8.23116
497,-545,6.76489,8.11548,-0.0083502,-0.0105098,0.012314,0.00293127,-0.0217912,0.741666,0.0155967,0.0149379,1721,1569,6.76483,-8.11542
504,-545,6.78589,7.97827,-0.00712022,-0.00679351,0.00948063,0.00252517,-0.0164389,0.794012,0.0118907,0.0152464,1728,1569,6.7859,-7.97824
511,-545,6.76208,7.82678,-0.00560957,-0.00456185,0.00647167,0.00140713,-0.0115786,0.825784,0.00822828,0.011492,1735,1569,6.76209,-7.82683
518,-545,6.74451,7.69995,-0.00415648,-0.00277353,0.00419798,0.000789543,-0.00771955,0.867023,0.00542872,0.0119636,1742,1569,6.74448,-7.69992
525,-545,6.74988,7.5321,-0.00270909,-0.0014585,0.00219555,0.000199053,-0.00436665,0.924126,0.00297967,0.011515,1749,1569,6.74982,-7.53214
532,-545,6.75427,7.3783,-0.00172424,-0.000506075,0.000872276,-5.12747e-05,-0.00217904,1.09018,0.00143591,0.0119292,1756,1569,6.7543,-7.37824
539,-545,6.74304,7.27393,-0.00101481,0.000329532,-0.000169095,0.000350475,-0.00103576,-1.44757,0.000832301,0.0153339,1763,1569,6.743,-7.27398
546,-545,6.74231,7.12341,0.000616096,0.00110168,-0.00151072,0.00238899,-0.000671214,-0.865074,0.00185728,0.017165,1770,1569,6.74228,-7.12346
553,-545,6.78076,6.92517,0.00190272,0.00230084,-0.00287365,0.00498232,-0.000778758,-0.819978,0.00360925,0.0242122,1777,1569,6.78076,-6.92514
560,-545,6.79578,6.75696,0.00345038,0.00454216,-0.0047057,0.00873352,-0.000740987,-0.843143,0.0060844,0.0239091,1784,1569,6.79577,-6.75695
567,-545,6.71924,6.67505,0.00569515,0.00665845,-0.00684346,0.0130372,-0.00068359,-0.820531,0.00892805,0.0303081,1791,1569,6.71928,-6.675
574,-545,6.76306,6.51123,0.00850993,0.0108478,-0.0120468,0.0217823,-0.00242453,-0.833763,0.0153935,0.0276332,1798,1569,6.76303,-6.51123
581,-545,6.86646,6.41272,0.0122042,0.0159068,-0.0176501,0.0318024,-0.00369145,-0.837651,0.0225331,0.0366435,1805,1569,6.86639,-6.41272
588,-545,6.57275,6.21765,0,0,0,0,0,0,0,-1,1812,1569,6.57271,-6.21768
595,-545,7.03613,5.47729,0.0174085,0.0368713,-0.0396503,0.0679669,-0.0136871,-0.905735,0.0504958,0.0488177,1819,1569,7.03618,-5.47734
602,-545,8.03894,4.33557,0,0,0,0,0,0,0,-1,1826,1569,8.03893,-4.33555
609,-545,8.71558,3.14709,0,0,0,0,0,0,0,-1,1833,1569,8.71563,-3.14711
616,-545,9.32727,2.09204,0,0,0,0,0,0,0,-1,1840,1569,9.32733,-2.09203
623,-545,13.2522,3.6488,0,0,0,0,0,0,0,-1,1847,1569,13.2522,-3.64886
630,-545,0,0,0,0,0,0,0,0,0,-1,1854,1569,0,0
637,-545,0,0,0,0,0,0,0,0,0,-1,1861,1569,0,0
644,-545,0,0,0,0,0,0,0,0,0,-1,1868,1569,0,0
651,-545,0,0,0,0,0,0,0,0,0,-1,1875,1569,0,0
658,-545,0,0,0,0,0,0,0,0,0,-1,1882,1569,0,0
665,-545,0,0,0,0,0,0,0,0,0,-1,1889,1569,0,0
672,-545,0,0,0,0,0,0,0,0,0,-1,1896,1569,0,0
679,-545,0,0,0,0,0,0,0,0,0,-1,1903,1569,0,0
686,-545,0,0,0,0,0,0,0,0,0,-1,1910,1569,0,0
693,-545,0,0,0,0,0,0,0,0,0,-1,1917,1569,0,0
700,-545,0,0,0,0,0,0,0,0,0,-1,1924,1569,0,0
707,-545,0,0,0,0,0,0,0,0,0,-1,1931,1569,0,0
714,-545,0,0,0,0,0,0,0,0,0,-1,1938,1569,0,0
721,-545,0,0,0,0,0,0,0,0,0,-1,1945,1569,0,0
728,-545,0,0,0,0,0,0,0,0,0,-1,1952,1569,0,0
735,-545,0,0,0,0,0,0,0,0,0,-1,1959,1569,0,0
742,-545,0,0,0,0,0,0,0,0,0,-1,1966,1569,0,0
749,-545,0,0,0,0,0,0,0,0,0,-1,1973,1569,0,0
756,-545,0,0,0,0,0,0,0,0,0,-1,1980,1569,0,0
763,-545,0,0,0,0,0,0,0,0,0,-1,1987,1569,0,0
770,-545,0,0,0,0,0,0,0,0,0,-1,1994,1569,0,0
777,-545,0,0,0,0,0,0,0,0,0,-1,2001,1569,0,0
784,-545,0,0,0,0,0,0,0,0,0,-1,2008,1569,0,0
791,-545,0,0,0,0,0,0,0,0,0,-1,2015,1569,0,0
798,-545,0,0,0,0,0,0,0,0,0,-1,2022,1569,0,0
805,-545,0,0,0,0,0,0,0,0,0,-1,2029,1569,0,0
812,-545,0,0,0,0,0,0,0,0,0,-1,2036,1569,0,0
-700,-552,0,0,0,0,0,0,0,0,0,-1,524,1576,0,0
-693,-552,0,0,0,0,0,0,0,0,0,-1,531,1576,0,0
-686,-552,0,0,0,0,0,0,0,0,0,-1,538,1576,0,0
-679,-552,0,0,0,0,0,0,0,0,0,-1,545,1576,0,0
-672,-552,0,0,0,0,0,0,0,0,0,-1,552,1576,0,0
-665,-552,0,0,0,0,0,0,0,0,0,-1,559,1576,0,0
-658,-552,0,0,0,0,0,0,0,0,0,-1,566,1576,0,0
-651,-552,0,0,0,0,0,0,0,0,0,-1,573,1576,0,0
-644,-552,0,0,0,0,0,0,0,0,0,-1,580,1576,0,0
-637,-552,0,0,0,0,0,0,0,0,0,-1,587,1576,0,0
-630,-552,0,0,0,0,0,0,0,0,0,-1,594,1576,0,0
-623,-552,0,0,0,0,0,0,0,0,0,-1,601,1576,0,0
-616,-552,0,0,0,0,0,0,0,0,0,-1,608,1576,0,0
-609,-552,0,0,0,0,0,0,0,0,0,-1,615,1576,0,0
-602,-552,0,0,0,0,0,0,0,0,0,-1,622,1576,0,0
-595,-552,0,0,0,0,0,0,0,0,0,-1,629,1576,0,0
-588,-552,0,0,0,0,0,0,0,0,0,-1,636,1576,0,0
-581,-552,0,0,0,0,0,0,0,0,0,-1,643,1576,0,0
-574,-552,0,0,0,0,0,0,0,0,0,-1,650,1576,0,0
-567,-552,0,0,0,0,0,0,0,0,0,-1,657,1576,0,0
-560,-552,0,0,0,0,0,0,0,0,0,-1,664,1576,0,0
-553,-552,0,0,0,0,0,0,0,0,0,-1,671,1576,0,0
-546,-552,0,0,0,0,0,0,0,0,0,-1,678,1576,0,0
-539,-552,0,0,0,0,0,0,0,0,0,-1,685,1576,0,0
-532,-552,0,0,0,0,0,0,0,0,0,-1,692,1576,0,0
-525,-552,0,0,0,0,0,0,0,0,0,-1,699,1576,0,0
-518,-552,0,0,0,0,0,0,0,0,0,-1,706,1576,0,0
-511,-552,0,0,0,0,0,0,0,0,0,-1,713,1576,0,0
-504,-552,0,0,0,0,0,0,0,0,0,-1,720,1576,0,0
-497,-552,4.93781,1.23352,0,0,0,0,0,0,0,-1,727,1576,4.93781,-1.23351
-490,-552,4.31445,1.83264,0,0,0,0,0,0,0,-1,734,1576,4.31442,-1.83266
-483,-552,3.66809,2.39941,-0.0508066,0.0622237,0.0473592,0.0794436,-0.0680265,1.22206,0.0852269,0.0470157,741,1576,3.66807,-2.39943
-476,-552,3.03241,2.96814,-0.037713,0.0590175,0.0536358,0.0828741,-0.0615696,1.15228,0.0836964,0.0446157,748,1576,3.03242,-2.96813
-469,-552,2.43256,3.33191,-0.0249556,0.0557394,0.0571402,0.0853413,-0.0545575,1.09281,0.0814198,0.0445524,755,1576,2.43256,-3.33197
-462,-552,1.6225,3.96313,-0.0136968,0.0519226,0.0580247,0.0857713,-0.0475455,1.04271,0.078018,0.04164,762,1576,1.62248,-3.9631
-455,-552,1.04871,4.36035,-0.00449462,0.0475359,0.0564532,0.0836798,-0.0406385,1.00131,0.0731951,0.042962,769,1576,1.04868,-4.36036
-448,-552,0.729248,4.64673,0.0023733,0.0428235,0.0527598,0.0791019,-0.0339051,0.968431,0.0669615,0.0413269,776,1576,0.729278,-4.6467
-441,-552,0.639648,5.03088,0.00686843,0.0379506,0.0476167,0.0724982,-0.0276791,0.943138,0.0597357,0.0362641,783,1576,0.639638,-5.03089
-434,-552,0.821167,5.32422,0.00949284,0.0329834,0.0416259,0.0644893,-0.0220131,0.922905,0.0519104,0.0196852,790,1576,0.821156,-5.32422
-427,-552,0.816223,5.44702,0.0109983,0.027749,0.0356133,0.0559585,-0.0172112,0.900887,0.0441749,0.0147745,797,1576,0.816224,-5.44698
-420,-552,0.84137,5.63281,0.0113371,0.02355,0.0295384,0.0476065,-0.0127195,0.887327,0.0367194,0.0186431,804,1576,0.84138,-5.63284
-413,-552,0.827576,5.82385,0.010512,0.0191399,0.0232565,0.0384791,-0.00882724,0.877104,0.0290458,0.0160383,811,1576,0.827577,-5.82381
-406,-552,0.796143,5.97729,0.00917569,0.0146944,0.01726,0.0294142,-0.0055441,0.864663,0.0216949,0.0112857,818,1576,0.796139,-5.97733
-399,-552,0.791992,6.1355,0.00716809,0.0105985,0.0118968,0.0209031,-0.00313649,0.856992,0.0150899,0.0126335,825,1576,0.791987,-6.13553
-392,-552,0.78772,6.29224,0.00487634,0.00710155,0.00714381,0.0132189,-0.00124099,0.862649,0.00925403,0.0141078,832,1576,0.787701,-6.2922
-385,-552,0.80072,6.48572,0.0026523,0.0052458,0.00351376,0.00769446,0.000203644,0.962169,0.00506312,0.0132843,839,1576,0.800704,-6.48573
-378,-552,0.797302,6.65454,0.000915221,0.00362425,0.00134832,0.00418093,0.000358537,1.17924,0.0026758,0.0151937,846,1576,0.79728,-6.65459
-371,-552,0.786011,6.81641,0.000351161,0.00233356,0.000400703,0.00241149,0.00027323,1.37871,0.00152476,0.0187238,853,1576,0.78601,-6.81638
-364,-552,0.807495,6.96545,0.000309792,0.00226152,7.02594e-05,0.00226404,0.000307266,1.53486,0.00141808,0.0144709,860,1576,0.807526,-6.96546
-357,-552,0.827393,7.14099,0.000557462,0.00271678,-1.99222e-05,0.00271697,0.000557278,-1.56157,0.00165709,0.0101778,867,1576,0.827404,-7.14096
-350,-552,0.82373,7.30725,0.000976297,0.00366146,8.75548e-05,0.00366431,0.000973445,1.53824,0.00219168,0.00980079,874,1576,0.823736,-7.30724
-343,-552,0.803223,7.46692,0.00129018,0.00492966,9.21944e-05,0.00493199,0.00128785,1.54549,0.00295383,0.0100715,881,1576,0.803206,-7.46691
-336,-552,0.856506,7.59497,-0.000440656,0.00473499,-0.00198736,0.00541006,-0.00111572,-1.24335,0.00403042,0.0146923,888,1576,0.856516,-7.59499
-329,-552,0.914063,7.75378,-0.00400919,0.00236135,-0.00601053,0.00597847,-0.00762631,-1.02906,0.0078739,0.0313237,895,1576,0.914077,-7.75378
-322,-552,1.02533,8.00049,0,0,0,0,0,0,0,-1,902,1576,1.02536,-8.00046
-315,-552,1.22101,8.6167,0,0,0,0,0,0,0,-1,909,1576,1.221,-8.61672
-308,-552,0.910156,8.7533,0,0,0,0,0,0,0,-1,916,1576,0.910185,-8.75333
-301,-552,0.173645,7.20715,0,0,0,0,0,0,0,-1,923,1576,0.173628,-7.20712
-294,-552,-0.196045,7.02283,0,0,0,0,0,0,0,-1,930,1576,-0.196032,-7.02286
-287,-552,-0.944031,7.17041,0,0,0,0,0,0,0,-1,937,1576,-0.944025,-7.17043
-280,-552,-1.3349,6.02258,0,0,0,0,0,0,0,-1,944,1576,-1.33488,-6.02263
-273,-552,-2.75201,11.3887,0,0,0,0,0,0,0,-1,951,1576,-2.75203,-11.3887
-266,-552,-1.32678,8.05688,0,0,0,0,0,0,0,-1,958,1576,-1.32677,-8.05683
-259,-552,-5.54321,8.31213,0,0,0,0,0,0,0,-1,965,1576,-5.54324,-8.31214
-252,-552,-6.49988,8.56104,0,0,0,0,0,0,0,-1,972,1576,-6.49986,-8.56109
-245,-552,-7.40472,8.78979,0,0,0,0,0,0,0,-1,979,1576,-7.40475,-8.78975
-238,-552,-2.04474,1.87451,0,0,0,0,0,0,0,-1,986,1576,-2.04473,-1.87452
-231,-552,-2.03931,2.02283,0,0,0,0,0,0,0,-1,993,1576,-2.03933,-2.02287
-224,-552,0,0,0,0,0,0,0,0,0,-1,1000,1576,0,0
-217,-552,0,0,0,0,0,0,0,0,0,-1,1007,1576,0,0
-210,-552,0,0,0,0,0,0,0,0,0,-1,1014,1576,0,0
-203,-552,0,0,0,0,0,0,0,0,0,-1,1021,1576,0,0
-196,-552,0,0,0,0,0,0,0,0,0,-1,1028,1576,0,0
-189,-552,0,0,0,0,0,0,0,0,0,-1,1035,1576,0,0
-182,-552,0,0,0,0,0,0,0,0,0,-1,1042,1576,0,0
-175,-552,0,0,0,0,0,0,0,0,0,-1,1049,1576,0,0
-168,-552,0,0,0,0,0,0,0,0,0,-1,1056,1576,0,0
-161,-552,0,0,0,0,0,0,0,0,0,-1,1063,1576,0,0
-154,-552,0,0,0,0,0,0,0,0,0,-1,1070,1576,0,0
-147,-552,0,0,0,0,0,0,0,0,0,-1,1077,1576,0,0
-140,-552,0,0,0,0,0,0,0,0,0,-1,1084,1576,0,0
-133,-552,0,0,0,0,0,0,0,0,0,-1,1091,1576,0,0
-126,-552,0,0,0,0,0,0,0,0,0,-1,1098,1576,0,0
-119,-552,0,0,0,0,0,0,0,0,0,-1,1105,1576,0,0
-112,-552,0,0,0,0,0,0,0,0,0,-1,1112,1576,0,0
-105,-552,0,0,0,0,0,0,0,0,0,-1,1119,1576,0,0
-98,-552,0,0,0,0,0,0,0,0,0,-1,1126,1576,0,0
-91,-552,0,0,0,0,0,0,0,0,0,-1,1133,1576,0,0
-84,-552,0,0,0,0,0,0,0,0,0,-1,1140,1576,0,0
-77,-552,0,0,0,0,0,0,0,0,0,-1,1147,1576,0,0
-70,-552,0,0,0,0,0,0,0,0,0,-1,1154,1576,0,0
-63,-552,0,0,0,0,0,0,0,0,0,-1,1161,1576,0,0
-56,-552,0,0,0,0,0,0,0,0,0,-1,1168,1576,0,0
-49,-552,0,0,0,0,0,0,0,0,0,-1,1175,1576,0,0
-42,-552,0,0,0,0,0,0,0,0,0,-1,1182,1576,0,0
-35,-552,0,0,0,0,0,0,0,0,0,-1,1189,1576,0,0
-28,-552,0,0,0,0,0,0,0,0,0,-1,1196,1576,0,0
-21,-552,0,0,0,0,0,0,0,0,0,-1,1203,1576,0,0
-14,-552,0,0,0,0,0,0,0,0,0,-1,1210,1576,0,0
-7,-552,0,0,0,0,0,0,0,0,0,-1,1217,1576,0,0
0,-552,0,0,0,0,0,0,0,0,0,-1,1224,1576,0,0
7,-552,0,0,0,0,0,0,0,0,0,-1,1231,1576,0,0
14,-552,0,0,0,0,0,0,0,0,0,-1,1238,1576,0,0
21,-552,0,0,0,0,0,0,0,0,0,-1,1245,1576,0,0
28,-552,0,0,0,0,0,0,0,0,0,-1,1252,1576,0,0
35,-552,0,0,0,0,0,0,0,0,0,-1,1259,1576,0,0
42,-552,0,0,0,0,0,0,0,0,0,-1,1266,1576,0,0
49,-552,0,0,0,0,0,0,0,0,0,-1,1273,1576,0,0
56,-552,0,0,0,0,0,0,0,0,0,-1,1280,1576,0,0
63,-552,0,0,0,0,0,0,0,0,0,-1,1287,1576,0,0
70,-552,0,0,0,0,0,0,0,0,0,-1,1294,1576,0,0
77,-552,0,0,0,0,0,0,0,0,0,-1,1301,1576,0,0
84,-552,0,0,0,0,0,0,0,0,0,-1,1308,1576,0,0
91,-552,0,0,0,0,0,0,0,0,0,-1,1315,1576,0,0
98,-552,0,0,0,0,0,0,0,0,0,-1,1322,1576,0,0
105,-552,0,0,0,0,0,0,0,0,0,-1,1329,1576,0,0
112,-552,0,0,0,0,0,0,0,0,0,-1,1336,1576,0,0
119,-552,0,0,0,0,0,0,0,0,0,-1,1343,1576,0,0
126,-552,0,0,0,0,0,0,0,0,0,-1,1350,1576,0,0
133,-552,0,0,0,0,0,0,0,0,0,-1,1357,1576,0,0
140,-552,0,0,0,0,0,0,0,0,0,-1,1364,1576,0,0
147,-552,0,0,0,0,0,0,0,0,0,-1,1371,1576,0,0
154,-552,0,0,0,0,0,0,0,0,0,-1,1378,1576,0,0
161,-552,0,0,0,0,0,0,0,0,0,-1,1385,1576,0,0
168,-552,0,0,0,0,0,0,0,0,0,-1,1392,1576,0,0
175,-552,0,0,0,0,0,0,0,0,0,-1,1399,1576,0,0
182,-552,0,0,0,0,0,0,0,0,0,-1,1406,1576,0,0
189,-552,0,0,0,0,0,0,0,0,0,-1,1413,1576,0,0
196,-552,0,0,0,0,0,0,0,0,0,-1,1420,1576,0,0
203,-552,0,0,0,0,0,0,0,0,0,-1,1427,1576,0,0
210,-552,0,0,0,0,0,0,0,0,0,-1,1434,1576,0,0
217,-552,0,0,0,0,0,0,0,0,0,-1,1441,1576,0,0
224,-552,0,0,0,0,0,0,0,0,0,-1,1448,1576,0,0
231,-552,0,0,0,0,0,0,0,0,0,-1,1455,1576,0,0
238,-552,0,0,0,0,0,0,0,0,0,-1,1462,1576,0,0
245,-552,0,0,0,0,0,0,0,0,0,-1,1469,1576,0,0
252,-552,0,0,0,0,0,0,0,0,0,-1,1476,1576,0,0
259,-552,0,0,0,0,0,0,0,0,0,-1,1483,1576,0,0
266,-552,0,0,0,0,0,0,0,0,0,-1,1490,1576,0,0
273,-552,0,0,0,0,0,0,0,0,0,-1,1497,1576,0,0
280,-552,0,0,0,0,0,0,0,0,0,-1,1504,1576,0,0
287,-552,0,0,0,0,0,0,0,0,0,-1,1511,1576,0,0
294,-552,0,0,0,0,0,0,0,0,0,-1,1518,1576,0,0
301,-552,0,0,0,0,0,0,0,0,0,-1,1525,1576,0,0
308,-552,0,0,0,0,0,0,0,0,0,-1,1532,1576,0,0
315,-552,0,0,0,0,0,0,0,0,0,-1,1539,1576,0,0
322,-552,0,0,0,0,0,0,0,0,0,-1,1546,1576,0,0
329,-552,0,0,0,0,0,0,0,0,0,-1,1553,1576,0,0
336,-552,0,0,0,0,0,0,0,0,0,-1,1560,1576,0,0
343,-552,0,0,0,0,0,0,0,0,0,-1,1567,1576,0,0
350,-552,4.97876,4.09888,0,0,0,0,0,0,0,-1,1574,1576,4.97875,-4.09883
357,-552,5.18469,4.10706,0,0,0,0,0,0,0,-1,1581,1576,5.1847,-4.10702
364,-552,4.6189,3.48181,0,0,0,0,0,0,0,-1,1588,1576,4.61895,-3.48178
371,-552,7.10657,5.64783,0,0,0,0,0,0,0,-1,1595,1576,7.10651,-5.64786
378,-552,6.44446,4.91492,0,0,0,0,0,0,0,-1,1602,1576,6.44448,-4.91496
385,-552,7.89954,0.97937,0,0,0,0,0,0,0,-1,1609,1576,7.89949,-0.979358
392,-552,7.74719,1.49023,0,0,0,0,0,0,0,-1,1616,1576,7.7472,-1.49022
399,-552,5.28796,6.40576,0,0,0,0,0,0,0,-1,1623,1576,5.28795,-6.40582
406,-552,7.95886,7.21057,0,0,0,0,0,0,0,-1,1630,1576,7.95884,-7.21056
413,-552,7.66931,7.36536,0,0,0,0,0,0,0,-1,1637,1576,7.66926,-7.36534
420,-552,6.4126,4.15637,0,0,0,0,0,0,0,-1,1644,1576,6.41255,-4.15633
427,-552,6.60632,5.06506,0,0,0,0,0,0,0,-1,1651,1576,6.60629,-5.06506
434,-552,5.31677,5.67175,0,0,0,0,0,0,0,-1,1658,1576,5.31671,-5.67176
441,-552,5.6792,6.20825,0,0,0,0,0,0,0,-1,1665,1576,5.67922,-6.20821
448,-552,5.79834,7.00818,-0.0123859,-0.0437052,0.0330098,0.00849033,-0.0645814,0.563921,0.0461455,0.0433102,1672,1576,5.79833,-7.00815
455,-552,6.33667,7.68542,-0.0127315,-0.0365489,0.029606,0.00727112,-0.0565515,0.59418,0.0403437,0.0399381,1679,1576,6.33661,-7.68545
462,-552,6.62329,8.19971,-0.0123581,-0.0303485,0.0260552,0.00621096,-0.0489175,0.619186,0.0348669,0.038717,1686,1576,6.62326,-8.19975
469,-552,6.59204,8.46497,-0.0115708,-0.0244351,0.022354,0.005258,-0.0412639,0.645312,0.029419,0.0344758,1693,1576,6.59202,-8.46491
476,-552,6.5874,8.5199,-0.0106082,-0.019308,0.0186846,0.0042262,-0.0341424,0.671032,0.0242932,0.0153639,1700,1576,6.58743,-8.5199
483,-552,6.59082,8.38477,-0.00913037,-0.0147996,0.0152556,0.00355172,-0.0274817,0.693542,0.0196125,0.0137176,1707,1576,6.5908,-8.38477
490,-552,6.59937,8.23511,-0.00757838,-0.011126,0.0120876,0.00286482,-0.0215692,0.712545,0.0154234,0.0141098,1714,1576,6.59931,-8.23512
497,-552,6.6366,8.09558,-0.00614291,-0.00819658,0.00924449,0.0021316,-0.0164711,0.730087,0.0117558,0.0202123,1721,1576,6.63655,-8.09553
504,-552,6.62732,7.96082,-0.00522846,-0.00505529,0.00697778,0.00183644,-0.0121202,0.791602,0.0087567,0.0226064,1728,1576,6.62729,-7.96078
511,-552,6.61768,7.81348,-0.00403147,-0.00317361,0.00447876,0.00089671,-0.0081018,0.833137,0.00572357,0.0176949,1735,1576,6.61763,-7.81351
518,-552,6.61523,7.68286,-0.00291414,-0.00167377,0.00258932,0.000368603,-0.00495651,0.902942,0.00343381,0.0142716,1742,1576,6.6152,-7.68282
525,-552,6.61169,7.53333,-0.00185592,-0.000557529,0.000938865,-6.52681e-05,-0.00234818,1.08789,0.00154416,0.0127125,1749,1576,6.61175,-7.5333
532,-552,6.62927,7.37354,-0.00121328,0.000233112,-0.000145965,0.000247695,-0.00122787,-1.47122,0.000912419,0.014244,1756,1576,6.62933,-7.37348
539,-552,6.62158,7.24133,-0.000852513,0.000983353,-0.00103174,0.0014464,-0.00131555,-1.14894,0.00159521,0.0172441,1763,1576,6.62159,-7.24139
546,-552,6.61511,7.11206,0.000599563,0.00176743,-0.00235147,0.00360639,-0.00123939,-0.9071,0.00290684,0.0201521,1770,1576,6.61506,-7.11206
553,-552,6.65576,6.92737,0.00178001,0.00305142,-0.00379297,0.00626159,-0.00143016,-0.868426,0.00472384,0.0233926,1777,1576,6.65578,-6.9274
560,-552,6.56824,6.91235,0.00344681,0.00543752,-0.00583107,0.0103576,-0.00147325,-0.869933,0.00744488,0.0426245,1784,1576,6.56825,-6.91238
567,-552,6.57227,6.54468,0,0,0,0,0,0,0,-1,1791,1576,6.5723,-6.54473
574,-552,6.78101,6.51685,0,0,0,0,0,0,0,-1,1798,1576,6.78096,-6.5168
581,-552,6.86719,6.47339,0,0,0,0,0,0,0,-1,1805,1576,6.86723,-6.47342
588,-552,6.02393,6.69104,0,0,0,0,0,0,0,-1,1812,1576,6.02395,-6.69103
595,-552,6.80872,5.76721,0,0,0,0,0,0,0,-1,1819,1576,6.80872,-5.76717
602,-552,7.59351,4.84326,0,0,0,0,0,0,0,-1,1826,1576,7.59348,-4.84332
609,-552,8.97168,1.92578,0,0,0,0,0,0,0,-1,1833,1576,8.9717,-1.92578
616,-552,8.70496,2.2627,0,0,0,0,0,0,0,-1,1840,1576,8.70495,-2.26274
623,-552,0,0,0,0,0,0,0,0,0,-1,1847,1576,0,0
630,-552,0,0,0,0,0,0,0,0,0,-1,1854,1576,0,0
637,-552,0,0,0,0,0,0,0,0,0,-1,1861,1576,0,0
644,-552,0,0,0,0,0,0,0,0,0,-1,1868,1576,0,0
651,-552,0,0,0,0,0,0,0,0,0,-1,1875,1576,0,0
658,-552,0,0,0,0,0,0,0,0,0,-1,1882,1576,0,0
665,-552,0,0,0,0,0,0,0,0,0,-1,1889,1576,0,0
672,-552,0,0,0,0,0,0,0,0,0,-1,1896,1576,0,0
679,-552,0,0,0,0,0,0,0,0,0,-1,1903,1576,0,0
686,-552,0,0,0,0,0,0,0,0,0,-1,1910,1576,0,0
693,-552,0,0,0,0,0,0,0,0,0,-1,1917,1576,0,0
700,-552,0,0,0,0,0,0,0,0,0,-1,1924,1576,0,0
707,-552,0,0,0,0,0,0,0,0,0,-1,1931,1576,0,0
714,-552,0,0,0,0,0,0,0,0,0,-1,1938,1576,0,0
721,-552,0,0,0,0,0,0,0,0,0,-1,1945,1576,0,0
728,-552,0,0,0,0,0,0,0,0,0,-1,1952,1576,0,0
735,-552,0,0,0,0,0,0,0,0,0,-1,1959,1576,0,0
742,-552,0,0,0,0,0,0,0,0,0,-1,1966,1576,0,0
749,-552,0,0,0,0,0,0,0,0,0,-1,1973,1576,0,0
756,-552,0,0,0,0,0,0,0,0,0,-1,1980,1576,0,0
763,-552,0,0,0,0,0,0,0,0,0,-1,1987,1576,0,0
770,-552,0,0,0,0,0,0,0,0,0,-1,1994,1576,0,0
777,-552,0,0,0,0,0,0,0,0,0,-1,2001,1576,0,0
784,-552,0,0,0,0,0,0,0,0,0,-1,2008,1576,0,0
791,-552,0,0,0,0,0,0,0,0,0,-1,2015,1576,0,0
798,-552,0,0,0,0,0,0,0,0,0,-1,2022,1576,0,0
805,-552,0,0,0,0,0,0,0,0,0,-1,2029,1576,0,0
812,-552,0,0,0,0,0,0,0,0,0,-1,2036,1576,0,0
-700,-559,0,0,0,0,0,0,0,0,0,-1,524,1583,0,0
-693,-559,0,0,0,0,0,0,0,0,0,-1,531,1583,0,0
-686,-559,0,0,0,0,0,0,0,0,0,-1,538,1583,0,0
-679,-559,0,0,0,0,0,0,0,0,0,-1,545,1583,0,0
-672,-559,0,0,0,0,0,0,0,0,0,-1,552,1583,0,0
-665,-559,0,0,0,0,0,0,0,0,0,-1,559,1583,0,0
-658,-559,0,0,0,0,0,0,0,0,0,-1,566,1583,0,0
-651,-559,0,0,0,0,0,0,0,0,0,-1,573,1583,0,0
-644,-559,0,0,0,0,0,0,0,0,0,-1,580,1583,0,0
-637,-559,0,0,0,0,0,0,0,0,0,-1,587,1583,0,0
-630,-559,0,0,0,0,0,0,0,0,0,-1,594,1583,0,0
-623,-559,0,0,0,0,0,0,0,0,0,-1,601,1583,0,0
-616,-559,0,0,0,0,0,0,0,0,0,-1,608,1583,0,0
-609,-559,0,0,0,0,0,0,0,0,0,-1,615,1583,0,0
-602,-559,0,0,0,0,0,0,0,0,0,-1,622,1583,0,0
-595,-559,0,0,0,0,0,0,0,0,0,-1,629,1583,0,0
-588,-559,0,0,0,0,0,0,0,0,0,-1,636,1583,0,0
-581,-559,0,0,0,0,0,0,0,0,0,-1,643,1583,0,0
-574,-559,0,0,0,0,0,0,0,0,0,-1,650,1583,0,0
-567,-559,0,0,0,0,0,0,0,0,0,-1,657,1583,0,0
-560,-559,0,0,0,0,0,0,0,0,0,-1,664,1583,0,0
-553,-559,0,0,0,0,0,0,0,0,0,-1,671,1583,0,0
-546,-559,0,0,0,0,0,0,0,0,0,-1,678,1583,0,0
-539,-559,0,0,0,0,0,0,0,0,0,-1,685,1583,0,0
-532,-559,0,0,0,0,0,0,0,0,0,-1,692,1583,0,0
-525,-559,0,0,0,0,0,0,0,0,0,-1,699,1583,0,0
-518,-559,0,0,0,0,0,0,0,0,0,-1,706,1583,0,0
-511,-559,0,0,0,0,0,0,0,0,0,-1,713,1583,0,0
-504,-559,0,0,0,0,0,0,0,0,0,-1,720,1583,0,0
-497,-559,0,0,0,0,0,0,0,0,0,-1,727,1583,0,0
-490,-559,4.16803,1.29773,0,0,0,0,0,0,0,-1,734,1583,4.16806,-1.29776
-483,-559,3.74524,1.8446,-0.0637167,0.0799742,0.0639703,0.104326,-0.0880688,1.20706,0.111211,0.0446488,741,1583,3.74523,-1.84457
-476,-559,2.82544,2.53015,-0.0430933,0.07536,0.0718614,0.109256,-0.0769895,1.13005,0.108066,0.0474196,748,1583,2.82546,-2.5302
-469,-559,2.25928,2.70691,-0.0243846,0.0711959,0.0761971,0.11335,-0.0665382,1.06549,0.105024,0.0464017,755,1583,2.25928,-2.70687
-462,-559,1.25714,3.20569,-0.00883741,0.066627,0.0772671,0.114883,-0.0570931,1.01253,0.101142,0.0426024,762,1583,1.25716,-3.20572
-455,-559,0.712891,3.84033,0.00328307,0.0614874,0.0752863,0.113101,-0.0483301,0.969829,0.09567,0.040633,769,1583,0.712894,-3.84037
-448,-559,0.784546,4.42688,0,0,0,0,0,0,0,-1,776,1583,0.784549,-4.42694
-441,-559,0.190552,4.89197,0.0171249,0.0501731,0.0640933,0.0998381,-0.0325401,0.911557,0.0796527,0.0430659,783,1583,0.190528,-4.89191
-434,-559,0.946167,5.36926,0.0196733,0.0442428,0.0564264,0.0897062,-0.0257901,0.892582,0.0700028,0.0335404,790,1583,0.946182,-5.36931
-427,-559,1.0155,5.50781,0.0205467,0.037881,0.0485492,0.0785306,-0.0201029,0.873729,0.0601844,0.0194825,797,1583,1.0155,-5.50778
-420,-559,0.984863,5.64502,0.0197983,0.0324049,0.0405054,0.0670945,-0.0148913,0.862587,0.0504317,0.0191204,804,1583,0.984872,-5.64504
-413,-559,0.984741,5.8186,0.0175821,0.0266697,0.0322653,0.0547096,-0.0104577,0.855351,0.0404125,0.0115277,811,1583,0.984757,-5.81866
-406,-559,0.977539,5.99854,0.0148668,0.0209224,0.0244472,0.0425286,-0.00673941,0.84701,0.0308453,0.00866188,818,1583,0.977562,-5.99856
-399,-559,0.975281,6.14014,0.0115623,0.0155042,0.0174015,0.031046,-0.00397952,0.841788,0.0221434,0.0120338,825,1583,0.975306,-6.14009
-392,-559,0.962769,6.271,0.00805446,0.0106869,0.0110093,0.0204584,-0.00171706,0.844893,0.0142458,0.015177,832,1583,0.962747,-6.27102
-385,-559,0.962463,6.46716,0.00467268,0.00772657,0.00590665,0.0123005,9.88054e-05,0.911885,0.00816757,0.0148355,839,1583,0.962464,-6.4672
-378,-559,0.982422,6.65027,0.00189542,0.00507426,0.0025962,0.00652894,0.000440744,1.06007,0.0042134,0.0144157,846,1583,0.982442,-6.65032
-371,-559,0.984314,6.76428,0.000740491,0.00273241,0.000945504,0.00310973,0.000363164,1.19109,0.00196333,0.0214583,853,1583,0.984338,-6.76424
-364,-559,1.0072,6.91699,0.000450184,0.0020726,0.000234647,0.00210585,0.000416929,1.43001,0.00128763,0.0183941,860,1583,1.00718,-6.91695
-357,-559,0.989807,7.12756,0.00060085,0.00206586,-0.000100319,0.0020727,0.000594012,-1.50274,0.00123247,0.0119758,867,1583,0.989778,-7.12751
-350,-559,0.986267,7.30432,0.0010267,0.0027054,-1.27553e-05,0.0027055,0.0010266,-1.5632,0.00157708,0.0106167,874,1583,0.986283,-7.30435
-343,-559,0.972534,7.46362,0.00139009,0.00359571,8.66196e-06,0.00359575,0.00139006,1.56687,0.00209373,0.0102267,881,1583,0.972514,-7.46362
-336,-559,0.968201,7.61035,2.71404e-05,0.00328044,-0.00173518,0.0040322,-0.00072462,-1.16196,0.00295939,0.0116779,888,1583,0.968171,-7.61032
-329,-559,1.03101,7.79602,-0.00281886,0.00117755,-0.00508676,0.00464451,-0.00628582,-0.972551,0.0063343,0.0160132,895,1583,1.03101,-7.79605
-322,-559,1.1377,8.00378,-0.00550978,-0.000739992,-0.00833488,0.00554448,-0.0117942,-0.924742,0.010225,0.0335516,902,1583,1.13767,-8.00376
-315,-559,1.15765,8.28333,-0.00957403,-0.00415318,-0.0130927,0.0065067,-0.0202339,-0.887465,0.0161025,0.0379111,909,1583,1.15765,-8.28336
-308,-559,1.11981,8.63354,0,0,0,0,0,0,0,-1,916,1583,1.11982,-8.63352
-301,-559,1.10345,8.52209,0,0,0,0,0,0,0,-1,923,1583,1.10347,-8.52214
-294,-559,0.267151,7.18738,0,0,0,0,0,0,0,-1,930,1583,0.267154,-7.18738
-287,-559,-0.295898,7.46729,-0.0421395,-0.0336621,-0.0526388,0.0149083,-0.09071,-0.825573,0.0660064,0.0456453,937,1583,-0.295919,-7.46726
-280,-559,-0.939697,6.71167,-0.0537017,-0.0457922,-0.0683021,0.0186695,-0.118164,-0.814316,0.0856796,0.0449437,944,1583,-0.939709,-6.71163
-273,-559,-1.82214,6.36646,0,0,0,0,0,0,0,-1,951,1583,-1.82212,-6.36642
-266,-559,-0.597046,6.68933,0,0,0,0,0,0,0,-1,958,1583,-0.597031,-6.68937
-259,-559,-7.00311,8.62756,0,0,0,0,0,0,0,-1,965,1583,-7.00312,-8.6275
-252,-559,-8.16071,8.59155,0,0,0,0,0,0,0,-1,972,1583,-8.16071,-8.5915
-245,-559,-4.11566,3.56042,0,0,0,0,0,0,0,-1,979,1583,-4.11564,-3.56039
-238,-559,-3.22314,2.91785,0,0,0,0,0,0,0,-1,986,1583,-3.22316,-2.91789
-231,-559,-2.42377,2.27722,0,0,0,0,0,0,0,-1,993,1583,-2.42378,-2.27726
-224,-559,-2.11206,2.69836,0,0,0,0,0,0,0,-1,1000,1583,-2.11204,-2.69831
-217,-559,0,0,0,0,0,0,0,0,0,-1,1007,1583,0,0
-210,-559,0,0,0,0,0,0,0,0,0,-1,1014,1583,0,0
-203,-559,0,0,0,0,0,0,0,0,0,-1,1021,1583,0,0
-196,-559,0,0,0,0,0,0,0,0,0,-1,1028,1583,0,0
-189,-559,0,0,0,0,0,0,0,0,0,-1,1035,1583,0,0
-182,-559,0,0,0,0,0,0,0,0,0,-1,1042,1583,0,0
-175,-559,0,0,0,0,0,0,0,0,0,-1,1049,1583,0,0
-168,-559,0,0,0,0,0,0,0,0,0,-1,1056,1583,0,0
-161,-559,0,0,0,0,0,0,0,0,0,-1,1063,1583,0,0
-154,-559,0,0,0,0,0,0,0,0,0,-1,1070,1583,0,0
-147,-559,0,0,0,0,0,0,0,0,0,-1,1077,1583,0,0
-140,-559,0,0,0,0,0,0,0,0,0,-1,1084,1583,0,0
-133,-559,0,0,0,0,0,0,0,0,0,-1,1091,1583,0,0
-126,-559,0,0,0,0,0,0,0,0,0,-1,1098,1583,0,0
-119,-559,0,0,0,0,0,0,0,0,0,-1,1105,1583,0,0
-112,-559,0,0,0,0,0,0,0,0,0,-1,1112,1583,0,0
-105,-559,0,0,0,0,0,0,0,0,0,-1,1119,1583,0,0
-98,-559,0,0,0,0,0,0,0,0,0,-1,1126,1583,0,0
-91,-559,0,0,0,0,0,0,0,0,0,-1,1133,1583,0,0
-84,-559,0,0,0,0,0,0,0,0,0,-1,1140,1583,0,0
-77,-559,0,0,0,0,0,0,0,0,0,-1,1147,1583,0,0
-70,-559,0,0,0,0,0,0,0,0,0,-1,1154,1583,0,0
-63,-559,0,0,0,0,0,0,0,0,0,-1,1161,1583,0,0
-56,-559,0,0,0,0,0,0,0,0,0,-1,1168,1583,0,0
-49,-559,0,0,0,0,0,0,0,0,0,-1,1175,1583,0,0
-42,-559,0,0,0,0,0,0,0,0,0,-1,1182,1583,0,0
-35,-559,0,0,0,0,0,0,0,0,0,-1,1189,1583,0,0
-28,-559,0,0,0,0,0,0,0,0,0,-1,1196,1583,0,0
-21,-559,0,0,0,0,0,0,0,0,0,-1,1203,1583,0,0
-14,-559,0,0,0,0,0,0,0,0,0,-1,1210,1583,0,0
-7,-559,0,0,0,0,0,0,0,0,0,-1,1217,1583,0,0
0,-559,0,0,0,0,0,0,0,0,0,-1,1224,1583,0,0
7,-559,0,0,0,0,0,0,0,0,0,-1,1231,1583,0,0
14,-559,0,0,0,0,0,0,0,0,0,-1,1238,1583,0,0
21,-559,0,0,0,0,0,0,0,0,0,-1,1245,1583,0,0
28,-559,0,0,0,0,0,0,0,0,0,-1,1252,1583,0,0
35,-559,0,0,0,0,0,0,0,0,0,-1,1259,1583,0,0
42,-559,0,0,0,0,0,0,0,0,0,-1,1266,1583,0,0
49,-559,0,0,0,0,0,0,0,0,0,-1,1273,1583,0,0
56,-559,0,0,0,0,0,0,0,0,0,-1,1280,1583,0,0
63,-559,0,0,0,0,0,0,0,0,0,-1,1287,1583,0,0
70,-559,0,0,0,0,0,0,0,0,0,-1,1294,1583,0,0
77,-559,0,0,0,0,0,0,0,0,0,-1,1301,1583,0,0
84,-559,0,0,0,0,0,0,0,0,0,-1,1308,1583,0,0
91,-559,0,0,0,0,0,0,0,0,0,-1,1315,1583,0,0
98,-559,0,0,0,0,0,0,0,0,0,-1,1322,1583,0,0
105,-559,0,0,0,0,0,0,0,0,0,-1,1329,1583,0,0
112,-559,0,0,0,0,0,0,0,0,0,-1,1336,1583,0,0
119,-559,0,0,0,0,0,0,0,0,0,-1,1343,1583,0,0
126,-559,0,0,0,0,0,0,0,0,0,-1,1350,1583,0,0
133,-559,0,0,0,0,0,0,0,0,0,-1,1357,1583,0,0
140,-559,0,0,0,0,0,0,0,0,0,-1,1364,1583,0,0
147,-559,0,0,0,0,0,0,0,0,0,-1,1371,1583,0,0
154,-559,0,0,0,0,0,0,0,0,0,-1,1378,1583,0,0
161,-559,0,0,0,0,0,0,0,0,0,-1,1385,1583,0,0
168,-559,0,0,0,0,0,0,0,0,0,-1,1392,1583,0,0
175,-559,0,0,0,0,0,0,0,0,0,-1,1399,1583,0,0
182,-559,0,0,0,0,0,0,0,0,0,-1,1406,1583,0,0
189,-559,0,0,0,0,0,0,0,0,0,-1,1413,1583,0,0
196,-559,0,0,0,0,0,0,0,0,0,-1,1420,1583,0,0
203,-559,0,0,0,0,0,0,0,0,0,-1,1427,1583,0,0
210,-559,0,0,0,0,0,0,0,0,0,-1,1434,1583,0,0
217,-559,0,0,0,0,0,0,0,0,0,-1,1441,1583,0,0
224,-559,0,0,0,0,0,0,0,0,0,-1,1448,1583,0,0
231,-559,0,0,0,0,0,0,0,0,0,-1,1455,1583,0,0
238,-559,0,0,0,0,0,0,0,0,0,-1,1462,1583,0,0
245,-559,0,0,0,0,0,0,0,0,0,-1,1469,1583,0,0
252,-559,0,0,0,0,0,0,0,0,0,-1,1476,1583,0,0
259,-559,0,0,0,0,0,0,0,0,0,-1,1483,1583,0,0
266,-559,0,0,0,0,0,0,0,0,0,-1,1490,1583,0,0
273,-559,0,0,0,0,0,0,0,0,0,-1,1497,1583,0,0
280,-559,0,0,0,0,0,0,0,0,0,-1,1504,1583,0,0
287,-559,0,0,0,0,0,0,0,0,0,-1,1511,1583,0,0
294,-559,0,0,0,0,0,0,0,0,0,-1,1518,1583,0,0
301,-559,0,0,0,0,0,0,0,0,0,-1,1525,1583,0,0
308,-559,0,0,0,0,0,0,0,0,0,-1,1532,1583,0,0
315,-559,0,0,0,0,0,0,0,0,0,-1,1539,1583,0,0
322,-559,0,0,0,0,0,0,0,0,0,-1,1546,1583,0,0
329,-559,0,0,0,0,0,0,0,0,0,-1,1553,1583,0,0
336,-559,5.97668,3.09827,0,0,0,0,0,0,0,-1,1560,1583,5.97667,-3.09824
343,-559,5.44824,2.88696,0,0,0,0,0,0,0,-1,1567,1583,5.44819,-2.88693
350,-559,4.69775,3.27051,0,0,0,0,0,0,0,-1,1574,1583,4.69771,-3.27048
357,-559,3.88025,3.60999,0,0,0,0,0,0,0,-1,1581,1583,3.88027,-3.60998
364,-559,5.00928,5.32605,0,0,0,0,0,0,0,-1,1588,1583,5.00928,-5.32607
371,-559,1.84436,2.52441,0,0,0,0,0,0,0,-1,1595,1583,1.84441,-2.52447
378,-559,6.34753,1.53137,0,0,0,0,0,0,0,-1,1602,1583,6.34752,-1.53139
385,-559,6.95911,1.48181,0,0,0,0,0,0,0,-1,1609,1583,6.95916,-1.48175
392,-559,7.03137,1.30005,0,0,0,0,0,0,0,-1,1616,1583,7.03137,-1.30009
399,-559,7.00757,1.10596,0,0,0,0,0,0,0,-1,1623,1583,7.00761,-1.10592
406,-559,5.25708,5.33411,0,0,0,0,0,0,0,-1,1630,1583,5.25714,-5.33406
413,-559,6.66516,7.46582,0,0,0,0,0,0,0,-1,1637,1583,6.66515,-7.46584
420,-559,6.20435,7.99402,0,0,0,0,0,0,0,-1,1644,1583,6.2043,-7.994
427,-559,6.22241,7.95386,0,0,0,0,0,0,0,-1,1651,1583,6.22247,-7.95387
434,-559,6.57788,7.73547,0,0,0,0,0,0,0,-1,1658,1583,6.57783,-7.73545
441,-559,6.63489,9.05164,0,0,0,0,0,0,0,-1,1665,1583,6.63487,-9.05158
448,-559,6.47644,8.52905,-0.00840513,-0.0341538,0.0240609,0.00600927,-0.0485682,0.539743,0.0345565,0.0479161,1672,1583,6.47648,-8.52903
455,-559,6.52979,8.53418,-0.00876431,-0.0291431,0.0218233,0.00513118,-0.0430386,0.566987,0.0305468,0.0379644,1679,1583,6.5298,-8.53421
462,-559,6.53918,8.64905,-0.00857065,-0.0246092,0.0193743,0.00437842,-0.0375583,0.589177,0.0266186,0.0303572,1686,1583,6.5392,-8.64907
469,-559,6.4884,8.66577,-0.00804471,-0.0200575,0.0167526,0.00374574,-0.0318479,0.613269,0.0225843,0.0174549,1693,1583,6.48837,-8.66578
476,-559,6.43762,8.54517,-0.00742734,-0.0160213,0.0140709,0.00298811,-0.0264367,0.637206,0.0187003,0.010546,1700,1583,6.43757,-8.54517
483,-559,6.44946,8.39221,-0.00633021,-0.0123377,0.0114892,0.0025414,-0.0212093,0.65754,0.0150583,0.012763,1707,1583,6.44949,-8.39219
490,-559,6.46411,8.23633,-0.00511794,-0.00925849,0.00903531,0.00208125,-0.0164577,0.672777,0.0117273,0.0156527,1714,1583,6.46414,-8.23628
497,-559,6.45691,8.09973,-0.00404843,-0.00676163,0.00673579,0.00146601,-0.0122761,0.686027,0.00871392,0.0185613,1721,1583,6.4569,-8.09975
504,-559,6.44275,7.96594,-0.00349473,-0.00397533,0.00488931,0.00116018,-0.00863024,0.760844,0.00617665,0.0234319,1728,1583,6.4427,-7.966
511,-559,6.44727,7.81531,-0.00261737,-0.00222676,0.00280455,0.000389276,-0.00523341,0.820162,0.00362567,0.0217451,1735,1583,6.4473,-7.81533
518,-559,6.47949,7.67578,-0.00182917,-0.000838052,0.00120149,-3.39373e-05,-0.00263328,0.980996,0.00174432,0.0132938,1742,1583,6.47954,-7.67584
525,-559,6.46643,7.52673,-0.00116309,0.000221524,-0.000172094,0.000242593,-0.00118416,-1.44898,0.000881505,0.0112155,1749,1583,6.46638,-7.52672
532,-559,6.46021,7.38403,-0.000890544,0.00100409,-0.00110671,0.00151356,-0.00140001,-1.13938,0.00168257,0.0138112,1756,1583,6.46015,-7.38408
539,-559,6.46484,7.25659,-0.000905808,0.00173613,-0.00190532,0.00273361,-0.00190329,-1.08851,0.00269138,0.0175449,1763,1583,6.46488,-7.25661
546,-559,6.44763,7.09619,0.000291907,0.00255117,-0.00323988,0.00485271,-0.00200963,-0.95314,0.00407374,0.0151454,1770,1583,6.44761,-7.09616
553,-559,6.58386,6.87366,0.00124994,0.00391441,-0.00481926,0.00758218,-0.00241783,-0.92025,0.00602469,0.0228957,1777,1583,6.58384,-6.87368
560,-559,6.52576,6.89233,0.00286763,0.00644309,-0.00712621,0.0120024,-0.00269167,-0.908296,0.0090335,0.0414526,1784,1583,6.52574,-6.89233
567,-559,6.91638,6.42896,0,0,0,0,0,0,0,-1,1791,1583,6.91644,-6.42893
574,-559,7.44006,5.87122,0,0,0,0,0,0,0,-1,1798,1583,7.4401,-5.87117
581,-559,5.97095,5.96179,0,0,0,0,0,0,0,-1,1805,1583,5.97093,-5.96181
588,-559,5.79102,5.89954,0,0,0,0,0,0,0,-1,1812,1583,5.79098,-5.89949
595,-559,6.63647,5.83362,0,0,0,0,0,0,0,-1,1819,1583,6.63651,-5.83363
602,-559,10.5408,2.7533,0,0,0,0,0,0,0,-1,1826,1583,10.5407,-2.75335
609,-559,5.72681,0.13562,0,0,0,0,0,0,0,-1,1833,1583,5.72678,-0.135584
616,-559,0,0,0,0,0,0,0,0,0,-1,1840,1583,0,0
623,-559,0,0,0,0,0,0,0,0,0,-1,1847,1583,0,0
630,-559,0,0,0,0,0,0,0,0,0,-1,1854,1583,0,0
637,-559,0,0,0,0,0,0,0,0,0,-1,1861,1583,0,0
644,-559,0,0,0,0,0,0,0,0,0,-1,1868,1583,0,0
651,-559,0,0,0,0,0,0,0,0,0,-1,1875,1583,0,0
658,-559,0,0,0,0,0,0,0,0,0,-1,1882,1583,0,0
665,-559,0,0,0,0,0,0,0,0,0,-1,1889,1583,0,0
672,-559,0,0,0,0,0,0,0,0,0,-1,1896,1583,0,0
679,-559,0,0,0,0,0,0,0,0,0,-1,1903,1583,0,0
686,-559,0,0,0,0,0,0,0,0,0,-1,1910,1583,0,0
693,-559,0,0,0,0,0,0,0,0,0,-1,1917,1583,0,0
700,-559,0,0,0,0,0,0,0,0,0,-1,1924,1583,0,0
707,-559,0,0,0,0,0,0,0,0,0,-1,1931,1583,0,0
714,-559,0,0,0,0,0,0,0,0,0,-1,1938,1583,0,0
721,-559,0,0,0,0,0,0,0,0,0,-1,1945,1583,0,0
728,-559,0,0,0,0,0,0,0,0,0,-1,1952,1583,0,0
735,-559,0,0,0,0,0,0,0,0,0,-1,1959,1583,0,0
742,-559,0,0,0,0,0,0,0,0,0,-1,1966,1583,0,0
749,-559,0,0,0,0,0,0,0,0,0,-1,1973,1583,0,0
756,-559,0,0,0,0,0,0,0,0,0,-1,1980,1583,0,0
763,-559,0,0,0,0,0,0,0,0,0,-1,1987,1583,0,0
770,-559,0,0,0,0,0,0,0,0,0,-1,1994,1583,0,0
777,-559,0,0,0,0,0,0,0,0,0,-1,2001,1583,0,0
784,-559,0,0,0,0,0,0,0,0,0,-1,2008,1583,0,0
791,-559,0,0,0,0,0,0,0,0,0,-1,2015,1583,0,0
798,-559,0,0,0,0,0,0,0,0,0,-1,2022,1583,0,0
805,-559,0,0,0,0,0,0,0,0,0,-1,2029,1583,0,0
812,-559,0,0,0,0,0,0,0,0,0,-1,2036,1583,0,0
-700,-566,0,0,0,0,0,0,0,0,0,-1,524,1590,0,0
-693,-566,0,0,0,0,0,0,0,0,0,-1,531,1590,0,0
-686,-566,0,0,0,0,0,0,0,0,0,-1,538,1590,0,0
-679,-566,0,0,0,0,0,0,0,0,0,-1,545,1590,0,0
-672,-566,0,0,0,0,0,0,0,0,0,-1,552,1590,0,0
-665,-566,0,0,0,0,0,0,0,0,0,-1,559,1590,0,0
-658,-566,0,0,0,0,0,0,0,0,0,-1,566,1590,0,0
-651,-566,0,0,0,0,0,0,0,0,0,-1,573,1590,0,0
-644,-566,0,0,0,0,0,0,0,0,0,-1,580,1590,0,0
-637,-566,0,0,0,0,0,0,0,0,0,-1,587,1590,0,0
-630,-566,0,0,0,0,0,0,0,0,0,-1,594,1590,0,0
-623,-566,0,0,0,0,0,0,0,0,0,-1,601,1590,0,0
-616,-566,0,0,0,0,0,0,0,0,0,-1,608,1590,0,0
-609,-566,0,0,0,0,0,0,0,0,0,-1,615,1590,0,0
-602,-566,0,0,0,0,0,0,0,0,0,-1,622,1590,0,0
-595,-566,0,0,0,0,0,0,0,0,0,-1,629,1590,0,0
-588,-566,0,0,0,0,0,0,0,0,0,-1,636,1590,0,0
-581,-566,0,0,0,0,0,0,0,0,0,-1,643,1590,0,0
-574,-566,0,0,0,0,0,0,0,0,0,-1,650,1590,0,0
-567,-566,0,0,0,0,0,0,0,0,0,-1,657,1590,0,0
-560,-566,0,0,0,0,0,0,0,0,0,-1,664,1590,0,0
-553,-566,0,0,0,0,0,0,0,0,0,-1,671,1590,0,0
-546,-566,0,0,0,0,0,0,0,0,0,-1,678,1590,0,0
-539,-566,0,0,0,0,0,0,0,0,0,-1,685,1590,0,0
-532,-566,0,0,0,0,0,0,0,0,0,-1,692,1590,0,0
-525,-566,0,0,0,0,0,0,0,0,0,-1,699,1590,0,0
-518,-566,0,0,0,0,0,0,0,0,0,-1,706,1590,0,0
-511,-566,0,0,0,0,0,0,0,0,0,-1,713,1590,0,0
-504,-566,0,0,0,0,0,0,0,0,0,-1,720,1590,0,0
-497,-566,0,0,0,0,0,0,0,0,0,-1,727,1590,0,0
-490,-566,0,0,0,0,0,0,0,0,0,-1,734,1590,0,0
-483,-566,3.19678,1.06677,-0.0662187,0.0987632,0.0851522,0.134829,-0.102284,1.17016,0.137326,0.0463839,741,1590,3.19675,-1.06673
-476,-566,2.60382,1.85022,-0.0401558,0.0929558,0.0936057,0.141255,-0.0884551,1.09444,0.133786,0.0485871,748,1590,2.60382,-1.85018
-469,-566,0.18457,1.39771,0,0,0,0,0,0,0,-1,755,1590,0.184587,-1.39771
-462,-566,0.0719604,2.35352,0.00156994,0.0826998,0.0992076,0.149315,-0.0650457,0.979471,0.126909,0.0415716,762,1590,0.07199,-2.35356
-455,-566,0.0963745,3.20801,0.0158254,0.0768847,0.0967024,0.147762,-0.0550521,0.9383,0.121104,0.0449521,769,1590,0.0963779,-3.20805
-448,-566,0.0935669,4.4353,0.0254638,0.0706318,0.0909792,0.141788,-0.0456926,0.907055,0.112882,0.0437464,776,1590,0.0935906,-4.43526
-441,-566,-0.487,4.92615,0.0309898,0.0640105,0.0829851,0.132112,-0.0371115,0.883594,0.102705,0.043495,783,1590,-0.487,-4.92611
-434,-566,1.13275,5.36816,0,0,0,0,0,0,0,-1,790,1590,1.13274,-5.36815
-427,-566,1.10876,5.4801,0.0328908,0.0495509,0.0636494,0.105413,-0.0229713,0.850465,0.079053,0.0400257,797,1590,1.10876,-5.48013
-420,-566,1.11206,5.66211,0.030592,0.0426475,0.0534396,0.0903983,-0.0171587,0.841559,0.0667246,0.0290467,804,1590,1.11205,-5.66209
-413,-566,1.14227,5.8241,0.0265473,0.0353554,0.043,0.0741763,-0.0122736,0.83643,0.0540089,0.0134608,811,1590,1.14227,-5.8241
-406,-566,1.1496,5.99719,0.0220615,0.0280899,0.033152,0.0583645,-0.00821304,0.830733,0.0419164,0.00836617,818,1590,1.14961,-5.99724
-399,-566,1.15063,6.14514,0.0171524,0.0211533,0.024242,0.0434773,-0.00517157,0.826565,0.0308535,0.00970701,825,1590,1.15065,-6.14519
-392,-566,1.13464,6.28845,0.0121878,0.0148505,0.0160547,0.029629,-0.0025907,0.826766,0.0206704,0.0123906,832,1590,1.13467,-6.2884
-385,-566,1.16309,6.49207,0.00743024,0.0105914,0.00929639,0.0184406,-0.000419002,0.869602,0.0124357,0.0140595,839,1590,1.16307,-6.49201
-378,-566,1.14606,6.67517,0.0034361,0.00672258,0.00465634,0.0100171,0.000141548,0.955028,0.00663141,0.01473,846,1590,1.14605,-6.67522
-371,-566,1.11456,6.77039,0.00141276,0.00315981,0.00205077,0.00451534,5.72288e-05,0.986736,0.00299133,0.0196901,853,1590,1.11458,-6.77035
-364,-566,1.15851,6.92273,0.000670795,0.00182675,0.000772279,0.00221338,0.000284162,1.10664,0.00139058,0.0195207,860,1590,1.15851,-6.92278
-357,-566,1.16852,7.14038,0.000651185,0.00136606,0.000122705,0.00138653,0.000630709,1.40545,0.000801602,0.0172828,867,1590,1.16853,-7.14039
-350,-566,1.16986,7.31799,0.00103027,0.00178698,0.0001646,0.00182124,0.000996015,1.36562,0.00105303,0.0212333,874,1590,1.16989,-7.31799
-343,-566,1.17041,7.45898,0.00138482,0.00241415,0.000170131,0.00244154,0.00135743,1.41117,0.00141257,0.0244979,881,1590,1.17039,-7.45902
-336,-566,1.13092,7.62122,0.000333717,0.00211912,-0.00127767,0.00278506,-0.000332222,-1.09032,0.00197677,0.0234165,888,1590,1.13092,-7.62122
-329,-566,1.15076,7.75024,-0.00190971,0.000376039,-0.00405501,0.00344615,-0.00497982,-0.922756,0.00489153,0.0132404,895,1590,1.15073,-7.75028
-322,-566,1.19781,7.90125,-0.00397096,-0.00123117,-0.00662219,0.00416134,-0.00936347,-0.887392,0.00799877,0.0133985,902,1590,1.19782,-7.9012
-315,-566,1.13104,8.04846,-0.00708329,-0.00400742,-0.0103549,0.00492309,-0.0160138,-0.859121,0.0126406,0.0256927,909,1590,1.13104,-8.04842
-308,-566,1.14288,8.21509,-0.0112288,-0.00841974,-0.0153271,0.00556701,-0.0252156,-0.83109,0.0189408,0.0355107,916,1590,1.1429,-8.21503
-301,-566,1.2312,8.37195,-0.0167944,-0.0140601,-0.0218662,0.00648162,-0.0373361,-0.816619,0.0273089,0.0426986,923,1590,1.23119,-8.37195
-294,-566,1.24463,8.52502,0,0,0,0,0,0,0,-1,930,1590,1.24464,-8.525
-287,-566,0.393616,7.96973,-0.0304141,-0.0279972,-0.0404869,0.0112992,-0.0697106,-0.800318,0.0506619,0.0444967,937,1590,0.393645,-7.96967
-280,-566,-0.328979,7.34595,-0.0383103,-0.0371989,-0.0520676,0.0143159,-0.0898252,-0.790734,0.0651816,0.0451638,944,1590,-0.329007,-7.346
-273,-566,-0.987305,6.90637,0,0,0,0,0,0,0,-1,951,1590,-0.987286,-6.90641
-266,-566,0.392151,6.90295,0,0,0,0,0,0,0,-1,958,1590,0.392151,-6.90294
-259,-566,0.343628,6.47437,0,0,0,0,0,0,0,-1,965,1590,0.34363,-6.47438
-252,-566,-5.41388,1.76697,0,0,0,0,0,0,0,-1,972,1590,-5.4139,-1.76701
-245,-566,-1.85248,3.42993,0,0,0,0,0,0,0,-1,979,1590,-1.85251,-3.42997
-238,-566,-3.46948,4.95654,0,0,0,0,0,0,0,-1,986,1590,-3.46947,-4.95657
-231,-566,-2.99841,4.92773,0,0,0,0,0,0,0,-1,993,1590,-2.99842,-4.92777
-224,-566,-3.30365,5.20776,0,0,0,0,0,0,0,-1,1000,1590,-3.30364,-5.2078
-217,-566,0.155884,4.03638,0,0,0,0,0,0,0,-1,1007,1590,0.155904,-4.0364
-210,-566,0.722107,3.68506,0,0,0,0,0,0,0,-1,1014,1590,0.722101,-3.68512
-203,-566,0,0,0,0,0,0,0,0,0,-1,1021,1590,0,0
-196,-566,0,0,0,0,0,0,0,0,0,-1,1028,1590,0,0
-189,-566,0,0,0,0,0,0,0,0,0,-1,1035,1590,0,0
-182,-566,0,0,0,0,0,0,0,0,0,-1,1042,1590,0,0
-175,-566,0,0,0,0,0,0,0,0,0,-1,1049,1590,0,0
-168,-566,0,0,0,0,0,0,0,0,0,-1,1056,1590,0,0
-161,-566,0,0,0,0,0,0,0,0,0,-1,1063,1590,0,0
-154,-566,0,0,0,0,0,0,0,0,0,-1,1070,1590,0,0
-147,-566,0,0,0,0,0,0,0,0,0,-1,1077,1590,0,0
-140,-566,0,0,0,0,0,0,0,0,0,-1,1084,1590,0,0
-133,-566,0,0,0,0,0,0,0,0,0,-1,1091,1590,0,0
-126,-566,0,0,0,0,0,0,0,0,0,-1,1098,1590,0,0
-119,-566,0,0,0,0,0,0,0,0,0,-1,1105,1590,0,0
-112,-566,0,0,0,0,0,0,0,0,0,-1,1112,1590,0,0
-105,-566,0,0,0,0,0,0,0,0,0,-1,1119,1590,0,0
-98,-566,0,0,0,0,0,0,0,0,0,-1,1126,1590,0,0
-91,-566,0,0,0,0,0,0,0,0,0,-1,1133,1590,0,0
-84,-566,0,0,0,0,0,0,0,0,0,-1,1140,1590,0,0
-77,-566,0,0,0,0,0,0,0,0,0,-1,1147,1590,0,0
-70,-566,0,0,0,0,0,0,0,0,0,-1,1154,1590,0,0
-63,-566,0,0,0,0,0,0,0,0,0,-1,1161,1590,0,0
-56,-566,0,0,0,0,0,0,0,0,0,-1,1168,1590,0,0
-49,-566,0,0,0,0,0,0,0,0,0,-1,1175,1590,0,0
-42,-566,0,0,0,0,0,0,0,0,0,-1,1182,1590,0,0
-35,-566,0,0,0,0,0,0,0,0,0,-1,1189,1590,0,0
-28,-566,0,0,0,0,0,0,0,0,0,-1,1196,1590,0,0
-21,-566,0,0,0,0,0,0,0,0,0,-1,1203,1590,0,0
-14,-566,0,0,0,0,0,0,0,0,0,-1,1210,1590,0,0
-7,-566,0,0,0,0,0,0,0,0,0,-1,1217,1590,0,0
0,-566,0,0,0,0,0,0,0,0,0,-1,1224,1590,0,0
7,-566,0,0,0,0,0,0,0,0,0,-1,1231,1590,0,0
14,-566,0,0,0,0,0,0,0,0,0,-1,1238,1590,0,0
21,-566,0,0,0,0,0,0,0,0,0,-1,1245,1590,0,0
28,-566,0,0,0,0,0,0,0,0,0,-1,1252,1590,0,0
35,-566,0,0,0,0,0,0,0,0,0,-1,1259,1590,0,0
42,-566,0,0,0,0,0,0,0,0,0,-1,1266,1590,0,0
49,-566,0,0,0,0,0,0,0,0,0,-1,1273,1590,0,0
56,-566,0,0,0,0,0,0,0,0,0,-1,1280,1590,0,0
63,-566,0,0,0,0,0,0,0,0,0,-1,1287,1590,0,0
70,-566,0,0,0,0,0,0,0,0,0,-1,1294,1590,0,0
77,-566,0,0,0,0,0,0,0,0,0,-1,1301,1590,0,0
84,-566,0,0,0,0,0,0,0,0,0,-1,1308,1590,0,0
91,-566,0,0,0,0,0,0,0,0,0,-1,1315,1590,0,0
98,-566,0,0,0,0,0,0,0,0,0,-1,1322,1590,0,0
105,-566,0,0,0,0,0,0,0,0,0,-1,1329,1590,0,0
112,-566,0,0,0,0,0,0,0,0,0,-1,1336,1590,0,0
119,-566,0,0,0,0,0,0,0,0,0,-1,1343,1590,0,0
126,-566,0,0,0,0,0,0,0,0,0,-1,1350,1590,0,0
133,-566,0,0,0,0,0,0,0,0,0,-1,1357,1590,0,0
140,-566,0,0,0,0,0,0,0,0,0,-1,1364,1590,0,0
147,-566,0,0,0,0,0,0,0,0,0,-1,1371,1590,0,0
154,-566,0,0,0,0,0,0,0,0,0,-1,1378,1590,0,0
161,-566,0,0,0,0,0,0,0,0,0,-1,1385,1590,0,0
168,-566,0,0,0,0,0,0,0,0,0,-1,1392,1590,0,0
175,-566,0,0,0,0,0,0,0,0,0,-1,1399,1590,0,0
182,-566,0,0,0,0,0,0,0,0,0,-1,1406,1590,0,0
189,-566,0,0,0,0,0,0,0,0,0,-1,1413,1590,0,0
196,-566,0,0,0,0,0,0,0,0,0,-1,1420,1590,0,0
203,-566,0,0,0,0,0,0,0,0,0,-1,1427,1590,0,0
210,-566,0,0,0,0,0,0,0,0,0,-1,1434,1590,0,0
217,-566,0,0,0,0,0,0,0,0,0,-1,1441,1590,0,0
224,-566,0,0,0,0,0,0,0,0,0,-1,1448,1590,0,0
231,-566,0,0,0,0,0,0,0,0,0,-1,1455,1590,0,0
238,-566,0,0,0,0,0,0,0,0,0,-1,1462,1590,0,0
245,-566,0,0,0,0,0,0,0,0,0,-1,1469,1590,0,0
252,-566,0,0,0,0,0,0,0,0,0,-1,1476,1590,0,0
259,-566,0,0,0,0,0,0,0,0,0,-1,1483,1590,0,0
266,-566,0,0,0,0,0,0,0,0,0,-1,1490,1590,0,0
273,-566,0,0,0,0,0,0,0,0,0,-1,1497,1590,0,0
280,-566,0,0,0,0,0,0,0,0,0,-1,1504,1590,0,0
287,-566,0,0,0,0,0,0,0,0,0,-1,1511,1590,0,0
294,-566,0,0,0,0,0,0,0,0,0,-1,1518,1590,0,0
301,-566,0,0,0,0,0,0,0,0,0,-1,1525,1590,0,0
308,-566,0,0,0,0,0,0,0,0,0,-1,1532,1590,0,0
315,-566,0,0,0,0,0,0,0,0,0,-1,1539,1590,0,0
322,-566,6.07983,4.44873,0,0,0,0,0,0,0,-1,1546,1590,6.07983,-4.44873
329,-566,5.77026,3.47534,0,0,0,0,0,0,0,-1,1553,1590,5.77026,-3.47535
336,-566,5.41138,2.62915,0,0,0,0,0,0,0,-1,1560,1590,5.41138,-2.62909
343,-566,4.81873,1.79089,0,0,0,0,0,0,0,-1,1567,1590,4.81878,-1.79095
350,-566,4.41663,2.44214,0,0,0,0,0,0,0,-1,1574,1590,4.41666,-2.44214
357,-566,6.34058,5.18579,0,0,0,0,0,0,0,-1,1581,1590,6.34059,-5.1858
364,-566,6.06262,4.20251,0,0,0,0,0,0,0,-1,1588,1590,6.06259,-4.20246
371,-566,5.78455,3.21912,0,0,0,0,0,0,0,-1,1595,1590,5.7846,-3.21912
378,-566,5.7439,0.695557,0,0,0,0,0,0,0,-1,1602,1590,5.74392,-0.695531
385,-566,5.67615,-0.573975,0,0,0,0,0,0,0,-1,1609,1590,5.67612,0.573956
392,-566,5.78638,1.82434,0,0,0,0,0,0,0,-1,1616,1590,5.78637,-1.82439
399,-566,5.36621,1.7373,0,0,0,0,0,0,0,-1,1623,1590,5.36627,-1.7373
406,-566,4.30359,5.26868,0,0,0,0,0,0,0,-1,1630,1590,4.30364,-5.26867
413,-566,4.27124,5.79492,0,0,0,0,0,0,0,-1,1637,1590,4.27123,-5.7949
420,-566,7.19812,8.25146,0,0,0,0,0,0,0,-1,1644,1590,7.19817,-8.25149
427,-566,6.67944,9.07837,0,0,0,0,0,0,0,-1,1651,1590,6.67939,-9.07837
434,-566,6.43811,9.18835,0,0,0,0,0,0,0,-1,1658,1590,6.43817,-9.18841
441,-566,6.42493,9.07617,-0.00506785,-0.0293606,0.0184882,0.00490701,-0.0393354,0.494765,0.028003,0.0468736,1665,1590,6.42491,-9.07618
448,-566,6.35193,8.89038,-0.00558016,-0.0257466,0.0172695,0.0043343,-0.0356611,0.521159,0.0253427,0.0344261,1672,1590,6.35188,-8.89032
455,-566,6.32495,8.87329,-0.00586332,-0.0222561,0.015812,0.00375038,-0.0318698,0.546282,0.0226006,0.0225069,1679,1590,6.32494,-8.87328
462,-566,6.29333,8.79382,-0.00574295,-0.0190329,0.0141318,0.00322824,-0.0280041,0.56563,0.0198332,0.0140237,1686,1590,6.29335,-8.79378
469,-566,6.28259,8.67688,-0.00536054,-0.0156219,0.0122658,0.0028044,-0.0237869,0.58731,0.0168706,0.0127552,1693,1590,6.28263,-8.67688
476,-566,6.29626,8.5354,-0.00495518,-0.0125148,0.010301,0.00223757,-0.0197075,0.609557,0.0139442,0.0106667,1700,1590,6.29624,-8.53539
483,-566,6.30847,8.38611,-0.00412054,-0.00956414,0.00835588,0.00194566,-0.0156303,0.62795,0.0111256,0.00992533,1707,1590,6.30847,-8.38608
490,-566,6.31128,8.24023,-0.00314855,-0.00704152,0.00644967,0.00164195,-0.011832,0.638846,0.00848843,0.0102321,1714,1590,6.31129,-8.24027
497,-566,6.3075,8.09998,-0.00236622,-0.0049855,0.00456992,0.00107802,-0.00842973,0.645849,0.00601147,0.0142255,1721,1590,6.30752,-8.09995
504,-566,6.30896,7.97241,-0.00210714,-0.00262709,0.00303634,0.000680341,-0.00541457,0.742692,0.00385655,0.0204651,1728,1590,6.30899,-7.97245
511,-566,6.32043,7.83655,-0.00151101,-0.00108394,0.0013043,2.41951e-05,-0.00261914,0.866536,0.00175421,0.0198377,1735,1590,6.32044,-7.83653
518,-566,6.31689,7.68591,-0.00103776,0.000117225,-6.35244e-05,0.000120708,-0.00104125,-1.51602,0.000737701,0.0115592,1742,1590,6.31685,-7.68593
525,-566,6.30859,7.52002,-0.000774564,0.00105577,-0.00120107,0.0016506,-0.0013694,-1.11095,0.00174612,0.0109335,1749,1590,6.30855,-7.52001
532,-566,6.32373,7.38452,-0.000896752,0.00178667,-0.00203392,0.00288155,-0.00199164,-1.07697,0.00282913,0.0129095,1756,1590,6.3237,-7.38454
539,-566,6.32446,7.25073,-0.00133879,0.00247355,-0.00279708,0.00395223,-0.00281746,-1.08449,0.00392674,0.015984,1763,1590,6.3244,-7.25078
546,-566,6.3418,7.05359,-0.000512684,0.00332195,-0.00418417,0.00600717,-0.00319791,-1.00024,0.00539643,0.017295,1770,1590,6.34182,-7.05354
553,-566,6.35779,6.92346,0.000140871,0.00476782,-0.00588889,0.00878137,-0.00387267,-0.972564,0.0074868,0.0344892,1777,1590,6.35774,-6.9235
560,-566,6.32446,6.60999,0.0015862,0.00750148,-0.00846021,0.0135061,-0.00441846,-0.953555,0.010783,0.0474825,1784,1590,6.32446,-6.61002
567,-566,6.57825,6.29932,0,0,0,0,0,0,0,-1,1791,1590,6.57819,-6.2993
574,-566,7.99548,3.14514,0,0,0,0,0,0,0,-1,1798,1590,7.99543,-3.14511
581,-566,2.54102,5.1311,0,0,0,0,0,0,0,-1,1805,1590,2.54099,-5.13111
588,-566,-1.91321,8.39197,0,0,0,0,0,0,0,-1,1812,1590,-1.91316,-8.39199
595,-566,9.0271,4.66467,0,0,0,0,0,0,0,-1,1819,1590,9.02705,-4.66468
602,-566,5.41614,0.198242,0,0,0,0,0,0,0,-1,1826,1590,5.41619,-0.198251
609,-566,0,0,0,0,0,0,0,0,0,-1,1833,1590,0,0
616,-566,0,0,0,0,0,0,0,0,0,-1,1840,1590,0,0
623,-566,0,0,0,0,0,0,0,0,0,-1,1847,1590,0,0
630,-566,0,0,0,0,0,0,0,0,0,-1,1854,1590,0,0
637,-566,0,0,0,0,0,0,0,0,0,-1,1861,1590,0,0
644,-566,0,0,0,0,0,0,0,0,0,-1,1868,1590,0,0
651,-566,0,0,0,0,0,0,0,0,0,-1,1875,1590,0,0
658,-566,0,0,0,0,0,0,0,0,0,-1,1882,1590,0,0
665,-566,0,0,0,0,0,0,0,0,0,-1,1889,1590,0,0
672,-566,0,0,0,0,0,0,0,0,0,-1,1896,1590,0,0
679,-566,0,0,0,0,0,0,0,0,0,-1,1903,1590,0,0
686,-566,0,0,0,0,0,0,0,0,0,-1,1910,1590,0,0
693,-566,0,0,0,0,0,0,0,0,0,-1,1917,1590,0,0
700,-566,0,0,0,0,0,0,0,0,0,-1,1924,1590,0,0
707,-566,0,0,0,0,0,0,0,0,0,-1,1931,1590,0,0
714,-566,0,0,0,0,0,0,0,0,0,-1,1938,1590,0,0
721,-566,0,0,0,0,0,0,0,0,0,-1,1945,1590,0,0
728,-566,0,0,0,0,0,0,0,0,0,-1,1952,1590,0,0
735,-566,0,0,0,0,0,0,0,0,0,-1,1959,1590,0,0
742,-566,0,0,0,0,0,0,0,0,0,-1,1966,1590,0,0
749,-566,0,0,0,0,0,0,0,0,0,-1,1973,1590,0,0
756,-566,0,0,0,0,0,0,0,0,0,-1,1980,1590,0,0
763,-566,0,0,0,0,0,0,0,0,0,-1,1987,1590,0,0
770,-566,0,0,0,0,0,0,0,0,0,-1,1994,1590,0,0
777,-566,0,0,0,0,0,0,0,0,0,-1,2001,1590,0,0
784,-566,0,0,0,0,0,0,0,0,0,-1,2008,1590,0,0
791,-566,0,0,0,0,0,0,0,0,0,-1,2015,1590,0,0
798,-566,0,0,0,0,0,0,0,0,0,-1,2022,1590,0,0
805,-566,0,0,0,0,0,0,0,0,0,-1,2029,1590,0,0
812,-566,0,0,0,0,0,0,0,0,0,-1,2036,1590,0,0
-700,-573,0,0,0,0,0,0,0,0,0,-1,524,1597,0,0
-693,-573,0,0,0,0,0,0,0,0,0,-1,531,1597,0,0
-686,-573,0,0,0,0,0,0,0,0,0,-1,538,1597,0,0
-679,-573,0,0,0,0,0,0,0,0,0,-1,545,1597,0,0
-672,-573,0,0,0,0,0,0,0,0,0,-1,552,1597,0,0
-665,-573,0,0,0,0,0,0,0,0,0,-1,559,1597,0,0
-658,-573,0,0,0,0,0,0,0,0,0,-1,566,1597,0,0
-651,-573,0,0,0,0,0,0,0,0,0,-1,573,1597,0,0
-644,-573,0,0,0,0,0,0,0,0,0,-1,580,1597,0,0
-637,-573,0,0,0,0,0,0,0,0,0,-1,587,1597,0,0
-630,-573,0,0,0,0,0,0,0,0,0,-1,594,1597,0,0
-623,-573,0,0,0,0,0,0,0,0,0,-1,601,1597,0,0
-616,-573,0,0,0,0,0,0,0,0,0,-1,608,1597,0,0
-609,-573,0,0,0,0,0,0,0,0,0,-1,615,1597,0,0
-602,-573,0,0,0,0,0,0,0,0,0,-1,622,1597,0,0
-595,-573,0,0,0,0,0,0,0,0,0,-1,629,1597,0,0
-588,-573,0,0,0,0,0,0,0,0,0,-1,636,1597,0,0
-581,-573,0,0,0,0,0,0,0,0,0,-1,643,1597,0,0
-574,-573,0,0,0,0,0,0,0,0,0,-1,650,1597,0,0
-567,-573,0,0,0,0,0,0,0,0,0,-1,657,1597,0,0
-560,-573,0,0,0,0,0,0,0,0,0,-1,664,1597,0,0
-553,-573,0,0,0,0,0,0,0,0,0,-1,671,1597,0,0
-546,-573,0,0,0,0,0,0,0,0,0,-1,678,1597,0,0
-539,-573,0,0,0,0,0,0,0,0,0,-1,685,1597,0,0
-532,-573,0,0,0,0,0,0,0,0,0,-1,692,1597,0,0
-525,-573,0,0,0,0,0,0,0,0,0,-1,699,1597,0,0
-518,-573,0,0,0,0,0,0,0,0,0,-1,706,1597,0,0
-511,-573,0,0,0,0,0,0,0,0,0,-1,713,1597,0,0
-504,-573,0,0,0,0,0,0,0,0,0,-1,720,1597,0,0
-497,-573,0,0,0,0,0,0,0,0,0,-1,727,1597,0,0
-490,-573,0,0,0,0,0,0,0,0,0,-1,734,1597,0,0
-483,-573,0,0,0,0,0,0,0,0,0,-1,741,1597,0,0
-476,-573,-0.473572,-0.396606,0,0,0,0,0,0,0,-1,748,1597,-0.473568,0.396578
-469,-573,-0.451233,0.920532,0,0,0,0,0,0,0,-1,755,1597,-0.451228,-0.920562
-462,-573,-0.480408,2.26526,0,0,0,0,0,0,0,-1,762,1597,-0.480388,-2.2652
-455,-573,-0.525391,2.57898,0,0,0,0,0,0,0,-1,769,1597,-0.525405,-2.57901
-448,-573,-1.06451,3.6958,0.0436496,0.0875013,0.113888,0.181554,-0.0504035,0.880495,0.140876,0.0454844,776,1597,-1.06453,-3.69584
-441,-573,-1.16608,4.97229,0.0489328,0.080239,0.104361,0.170115,-0.0409428,0.859838,0.129238,0.0463506,783,1597,-1.16608,-4.97235
-434,-573,-0.983276,6.45178,0.0501156,0.0725418,0.0930694,0.155071,-0.0324137,0.84535,0.115709,0.0485605,790,1597,-0.983268,-6.45179
-427,-573,1.17517,5.44983,0,0,0,0,0,0,0,-1,797,1597,1.17516,-5.44979
-420,-573,1.29578,5.45435,0.0437993,0.0551324,0.0682777,0.117978,-0.0190466,0.8268,0.0857094,0.043005,804,1597,1.29578,-5.45437
-413,-573,1.35632,5.74731,0.037363,0.0459657,0.0553534,0.0971846,-0.013856,0.824174,0.0698679,0.0306486,811,1597,1.35634,-5.74734
-406,-573,1.31866,5.96411,0.0306038,0.0367885,0.0431606,0.0769674,-0.00957515,0.821161,0.054783,0.0144047,818,1597,1.31868,-5.96415
-399,-573,1.30426,6.1582,0.0237064,0.0279672,0.0321068,0.0580142,-0.00634057,0.818527,0.0409536,0.01038,825,1597,1.30429,-6.15823
-392,-573,1.31244,6.31396,0.0169954,0.0198832,0.0218898,0.0403767,-0.00349809,0.818331,0.0281564,0.0114595,832,1597,1.31242,-6.31401
-385,-573,1.31738,6.47595,0.0106059,0.0140237,0.0132233,0.025648,-0.00101853,0.849659,0.0174481,0.0132557,839,1597,1.31737,-6.47589
-378,-573,1.29938,6.64697,0.00514818,0.00863642,0.00699967,0.014106,-0.000321388,0.907498,0.00951293,0.0142878,846,1597,1.2994,-6.64698
-371,-573,1.29547,6.81323,0.00208996,0.00363102,0.00327216,0.00622215,-0.00050117,0.901032,0.00432484,0.014894,853,1597,1.2955,-6.81326
-364,-573,1.29456,6.95984,0.000774452,0.00152241,0.0013127,0.00251336,-0.000216506,0.924167,0.00175221,0.0178125,860,1597,1.29457,-6.95989
-357,-573,1.30792,7.14099,0.000510225,0.000590621,0.000292369,0.000845543,0.000255304,0.853715,0.000500778,0.0213185,867,1597,1.3079,-7.14095
-350,-573,1.32495,7.31836,0.000809082,0.000849827,0.000293531,0.00112369,0.000535217,0.820045,0.000649006,0.0173764,874,1597,1.32498,-7.31833
-343,-573,1.33905,7.45789,0.00112949,0.00129384,0.000289411,0.00151251,0.000910811,0.923723,0.000879308,0.0220192,881,1597,1.33904,-7.45783
-336,-573,1.30255,7.63098,0.000352724,0.00109255,-0.000883688,0.00168063,-0.00023535,-0.983618,0.00120654,0.0177104,888,1597,1.30258,-7.63102
-329,-573,1.30603,7.78442,-0.00136719,-0.000248009,-0.00314097,0.00238283,-0.00399803,-0.873552,0.00372313,0.0175054,895,1597,1.30601,-7.78448
-322,-573,1.32092,7.92957,-0.00288226,-0.00148609,-0.00515351,0.0030164,-0.00738475,-0.852717,0.00617912,0.0122033,902,1597,1.3209,-7.92957
-315,-573,1.39386,8.09009,-0.00516641,-0.00367874,-0.00803623,0.00364801,-0.0124932,-0.831547,0.00977439,0.0175809,909,1597,1.39386,-8.09003
-308,-573,1.39911,8.12366,-0.00810889,-0.00726967,-0.011838,0.00415616,-0.0195347,-0.803114,0.014607,0.0264218,916,1597,1.39913,-8.12366
-301,-573,1.40662,8.23865,-0.0119484,-0.0118006,-0.0167047,0.00483031,-0.0285793,-0.78761,0.0208503,0.0285187,923,1597,1.40661,-8.23862
-294,-573,1.32245,8.42102,-0.0163842,-0.0174348,-0.0223983,0.00549498,-0.0393139,-0.773674,0.0282199,0.0336966,930,1597,1.32247,-8.42102
-287,-573,1.12457,8.37036,-0.021109,-0.0227226,-0.0303101,0.00840512,-0.0522366,-0.772092,0.0379378,0.0466564,937,1597,1.12456,-8.37035
-280,-573,0.450073,8.04028,-0.0262656,-0.0296338,-0.0386003,0.0106873,-0.0665868,-0.763597,0.048349,0.0486749,944,1597,0.450092,-8.04026
-273,-573,-0.0268555,7.75781,0,0,0,0,0,0,0,-1,951,1597,-0.02685,-7.75777
-266,-573,1.31116,7.1814,0,0,0,0,0,0,0,-1,958,1597,1.31118,-7.18142
-259,-573,1.2514,6.70959,0,0,0,0,0,0,0,-1,965,1597,1.25137,-6.70965
-252,-573,1.2088,6.22607,0,0,0,0,0,0,0,-1,972,1597,1.20881,-6.2261
-245,-573,-0.658569,5.45935,0,0,0,0,0,0,0,-1,979,1597,-0.658596,-5.45933
-238,-573,-1.00916,5.82556,-0.0809133,-0.106571,-0.100495,0.00756841,-0.195052,-0.721914,0.13263,0.0479669,986,1597,-1.00918,-5.82558
-231,-573,-1.27203,6.20398,0,0,0,0,0,0,0,-1,993,1597,-1.27205,-6.20395
-224,-573,-1.70654,6.53162,0,0,0,0,0,0,0,-1,1000,1597,-1.70652,-6.53167
-217,-573,-2.82971,6.44482,0,0,0,0,0,0,0,-1,1007,1597,-2.8297,-6.44482
-210,-573,-3.87952,6.33325,0,0,0,0,0,0,0,-1,1014,1597,-3.87951,-6.33325
-203,-573,-4.24072,6.9375,0,0,0,0,0,0,0,-1,1021,1597,-4.2407,-6.93749
-196,-573,-4.87726,6.96936,0,0,0,0,0,0,0,-1,1028,1597,-4.87723,-6.96935
-189,-573,-6.12915,6.66882,0,0,0,0,0,0,0,-1,1035,1597,-6.12913,-6.66884
-182,-573,0,0,0,0,0,0,0,0,0,-1,1042,1597,0,0
-175,-573,0,0,0,0,0,0,0,0,0,-1,1049,1597,0,0
-168,-573,0,0,0,0,0,0,0,0,0,-1,1056,1597,0,0
-161,-573,0,0,0,0,0,0,0,0,0,-1,1063,1597,0,0
-154,-573,0,0,0,0,0,0,0,0,0,-1,1070,1597,0,0
-147,-573,0,0,0,0,0,0,0,0,0,-1,1077,1597,0,0
-140,-573,0,0,0,0,0,0,0,0,0,-1,1084,1597,0,0
-133,-573,0,0,0,0,0,0,0,0,0,-1,1091,1597,0,0
-126,-573,0,0,0,0,0,0,0,0,0,-1,1098,1597,0,0
-119,-573,0,0,0,0,0,0,0,0,0,-1,1105,1597,0,0
-112,-573,0,0,0,0,0,0,0,0,0,-1,1112,1597,0,0
-105,-573,0,0,0,0,0,0,0,0,0,-1,1119,1597,0,0
-98,-573,0,0,0,0,0,0,0,0,0,-1,1126,1597,0,0
-91,-573,0,0,0,0,0,0,0,0,0,-1,1133,1597,0,0
-84,-573,0,0,0,0,0,0,0,0,0,-1,1140,1597,0,0
-77,-573,0,0,0,0,0,0,0,0,0,-1,1147,1597,0,0
-70,-573,0,0,0,0,0,0,0,0,0,-1,1154,1597,0,0
-63,-573,0,0,0,0,0,0,0,0,0,-1,1161,1597,0,0
-56,-573,0,0,0,0,0,0,0,0,0,-1,1168,1597,0,0
-49,-573,0,0,0,0,0,0,0,0,0,-1,1175,1597,0,0
-42,-573,0,0,0,0,0,0,0,0,0,-1,1182,1597,0,0
-35,-573,0,0,0,0,0,0,0,0,0,-1,1189,1597,0,0
-28,-573,0,0,0,0,0,0,0,0,0,-1,1196,1597,0,0
-21,-573,0,0,0,0,0,0,0,0,0,-1,1203,1597,0,0
-14,-573,0,0,0,0,0,0,0,0,0,-1,1210,1597,0,0
-7,-573,0,0,0,0,0,0,0,0,0,-1,1217,1597,0,0
0,-573,0,0,0,0,0,0,0,0,0,-1,1224,1597,0,0
7,-573,0,0,0,0,0,0,0,0,0,-1,1231,1597,0,0
14,-573,0,0,0,0,0,0,0,0,0,-1,1238,1597,0,0
21,-573,0,0,0,0,0,0,0,0,0,-1,1245,1597,0,0
28,-573,0,0,0,0,0,0,0,0,0,-1,1252,1597,0,0
35,-573,0,0,0,0,0,0,0,0,0,-1,1259,1597,0,0
42,-573,0,0,0,0,0,0,0,0,0,-1,1266,1597,0,0
49,-573,0,0,0,0,0,0,0,0,0,-1,1273,1597,0,0
56,-573,0,0,0,0,0,0,0,0,0,-1,1280,1597,0,0
63,-573,0,0,0,0,0,0,0,0,0,-1,1287,1597,0,0
70,-573,0,0,0,0,0,0,0,0,0,-1,1294,1597,0,0
77,-573,0,0,0,0,0,0,0,0,0,-1,1301,1597,0,0
84,-573,0,0,0,0,0,0,0,0,0,-1,1308,1597,0,0
91,-573,0,0,0,0,0,0,0,0,0,-1,1315,1597,0,0
98,-573,0,0,0,0,0,0,0,0,0,-1,1322,1597,0,0
105,-573,0,0,0,0,0,0,0,0,0,-1,1329,1597,0,0
112,-573,0,0,0,0,0,0,0,0,0,-1,1336,1597,0,0
119,-573,0,0,0,0,0,0,0,0,0,-1,1343,1597,0,0
126,-573,0,0,0,0,0,0,0,0,0,-1,1350,1597,0,0
133,-573,0,0,0,0,0,0,0,0,0,-1,1357,1597,0,0
140,-573,0,0,0,0,0,0,0,0,0,-1,1364,1597,0,0
147,-573,0,0,0,0,0,0,0,0,0,-1,1371,1597,0,0
154,-573,0,0,0,0,0,0,0,0,0,-1,1378,1597,0,0
161,-573,0,0,0,0,0,0,0,0,0,-1,1385,1597,0,0
168,-573,0,0,0,0,0,0,0,0,0,-1,1392,1597,0,0
175,-573,0,0,0,0,0,0,0,0,0,-1,1399,1597,0,0
182,-573,0,0,0,0,0,0,0,0,0,-1,1406,1597,0,0
189,-573,0,0,0,0,0,0,0,0,0,-1,1413,1597,0,0
196,-573,0,0,0,0,0,0,0,0,0,-1,1420,1597,0,0
203,-573,0,0,0,0,0,0,0,0,0,-1,1427,1597,0,0
210,-573,0,0,0,0,0,0,0,0,0,-1,1434,1597,0,0
217,-573,0,0,0,0,0,0,0,0,0,-1,1441,1597,0,0
224,-573,0,0,0,0,0,0,0,0,0,-1,1448,1597,0,0
231,-573,0,0,0,0,0,0,0,0,0,-1,1455,1597,0,0
238,-573,0,0,0,0,0,0,0,0,0,-1,1462,1597,0,0
245,-573,0,0,0,0,0,0,0,0,0,-1,1469,1597,0,0
252,-573,0,0,0,0,0,0,0,0,0,-1,1476,1597,0,0
259,-573,0,0,0,0,0,0,0,0,0,-1,1483,1597,0,0
266,-573,0,0,0,0,0,0,0,0,0,-1,1490,1597,0,0
273,-573,0,0,0,0,0,0,0,0,0,-1,1497,1597,0,0
280,-573,0,0,0,0,0,0,0,0,0,-1,1504,1597,0,0
287,-573,0,0,0,0,0,0,0,0,0,-1,1511,1597,0,0
294,-573,0,0,0,0,0,0,0,0,0,-1,1518,1597,0,0
301,-573,0,0,0,0,0,0,0,0,0,-1,1525,1597,0,0
308,-573,9.99329,6.14063,0,0,0,0,0,0,0,-1,1532,1597,9.99331,-6.14065
315,-573,10.5015,6.63318,0,0,0,0,0,0,0,-1,1539,1597,10.5014,-6.63316
322,-573,10.3269,7.77563,0,0,0,0,0,0,0,-1,1546,1597,10.327,-7.77565
329,-573,4.72656,3.18127,0,0,0,0,0,0,0,-1,1553,1597,4.72656,-3.18128
336,-573,4.53967,2.00842,0,0,0,0,0,0,0,-1,1560,1597,4.53969,-2.0084
343,-573,4.11877,0.735596,0,0,0,0,0,0,0,-1,1567,1597,4.11878,-0.735585
350,-573,2.53748,1.56433,0,0,0,0,0,0,0,-1,1574,1597,2.53753,-1.5643
357,-573,7.40247,4.03613,0,0,0,0,0,0,0,-1,1581,1597,7.40244,-4.03614
364,-573,7.14551,3.02087,0,0,0,0,0,0,0,-1,1588,1597,7.14556,-3.02084
371,-573,6.88867,2.00549,0,0,0,0,0,0,0,-1,1595,1597,6.88868,-2.00553
378,-573,8.62012,6.09106,0,0,0,0,0,0,0,-1,1602,1597,8.62012,-6.09103
385,-573,6.54346,-0.951904,0,0,0,0,0,0,0,-1,1609,1597,6.54349,0.951901
392,-573,6.41833,-2.18225,0,0,0,0,0,0,0,-1,1616,1597,6.41831,2.18228
399,-573,4.26282,4.73657,0,0,0,0,0,0,0,-1,1623,1597,4.26285,-4.73652
406,-573,6.29834,10.3599,0,0,0,0,0,0,0,-1,1630,1597,6.29835,-10.3599
413,-573,5.5741,9.36157,0,0,0,0,0,0,0,-1,1637,1597,5.57414,-9.36156
420,-573,6.53491,8.95422,0,0,0,0,0,0,0,-1,1644,1597,6.53492,-8.95428
427,-573,6.55066,9.1322,-0.00189979,-0.0251685,0.0141554,0.0047889,-0.0318572,0.441421,0.0230012,0.0492909,1651,1597,6.55063,-9.13223
434,-573,6.28772,9.14856,-0.00270763,-0.0234347,0.0136772,0.0040889,-0.0302313,0.461184,0.0216463,0.0388904,1658,1597,6.28772,-9.14855
441,-573,6.17505,9.172,-0.00334817,-0.0213352,0.0130132,0.00347687,-0.0281602,0.483032,0.0200333,0.0260318,1665,1597,6.17509,-9.17198
448,-573,6.16138,9.08386,-0.00373266,-0.0187878,0.0121024,0.00299219,-0.0255126,0.507182,0.0180885,0.0171461,1672,1597,6.16144,-9.08388
455,-573,6.14868,8.93665,-0.00392265,-0.0163526,0.0110817,0.0025679,-0.0228431,0.529838,0.0161529,0.0147252,1679,1597,6.14869,-8.93668
462,-573,6.12915,8.78967,-0.00376853,-0.0140777,0.00988114,0.00222169,-0.0200679,0.544985,0.0141773,0.0167532,1686,1597,6.12919,-8.78969
469,-573,6.14343,8.66479,-0.00340707,-0.0115321,0.00852634,0.00197513,-0.0169143,0.563076,0.0119889,0.0152056,1693,1597,6.14346,-8.66479
476,-573,6.17542,8.52283,-0.00307889,-0.00916263,0.00707515,0.00158058,-0.0138221,0.582376,0.00978425,0.0144357,1700,1597,6.17539,-8.52284
483,-573,6.18396,8.3855,-0.00237818,-0.00682588,0.00561162,0.00143418,-0.0106382,0.596744,0.00761536,0.0105961,1707,1597,6.18399,-8.38556
490,-573,6.16846,8.25366,-0.0015296,-0.00478902,0.0041459,0.0012954,-0.00761401,0.598131,0.00555835,0.00902655,1714,1597,6.16848,-8.25372
497,-573,6.15662,8.10193,-0.000925243,-0.0031416,0.00262458,0.000815521,-0.00488237,0.585637,0.00355804,0.0142232,1721,1597,6.15658,-8.10192
504,-573,6.17188,7.948,-0.000864013,-0.0012406,0.00135344,0.000314167,-0.00241878,0.716281,0.0017268,0.0158299,1728,1597,6.17185,-7.94798
511,-573,6.17957,7.80298,-0.000489368,5.88416e-05,-4.42657e-05,6.23929e-05,-0.000492919,-1.49074,0.000351262,0.0164619,1735,1597,6.17951,-7.80296
518,-573,6.17065,7.6792,-0.000301042,0.00103701,-0.00119031,0.00173343,-0.000997458,-1.04143,0.00159565,0.0132559,1742,1597,6.1706,-7.67923
525,-573,6.18591,7.53625,-0.000438213,0.00182541,-0.00211287,0.00309052,-0.00170332,-1.03129,0.00280608,0.0164492,1749,1597,6.18593,-7.53626
532,-573,6.1991,7.37927,-0.000982889,0.00249098,-0.00287994,0.00411723,-0.00260913,-1.05675,0.00391587,0.0148207,1756,1597,6.19912,-7.3793
539,-573,6.20044,7.25806,-0.00191853,0.00313577,-0.00366843,0.00506327,-0.00384602,-1.08701,0.00515976,0.0178391,1763,1597,6.20041,-7.25805
546,-573,6.23804,7.09583,-0.00165181,0.00403347,-0.00517546,0.00709557,-0.00471391,-1.03653,0.00686427,0.0281515,1770,1597,6.23798,-7.09582
553,-573,5.93066,6.74622,-0.00161707,0.00562535,-0.0071069,0.00998043,-0.00597216,-1.02102,0.00930663,0.0452805,1777,1597,5.93069,-6.74625
560,-573,6.00854,6.22253,0,0,0,0,0,0,0,-1,1784,1597,6.0086,-6.22259
567,-573,4.99597,2.77759,0,0,0,0,0,0,0,-1,1791,1597,4.99596,-2.7776
574,-573,0.83374,5.7041,0,0,0,0,0,0,0,-1,1798,1597,0.833718,-5.70405
581,-573,-0.224854,7.41602,0,0,0,0,0,0,0,-1,1805,1597,-0.224904,-7.41596
588,-573,-0.134033,7.67065,0,0,0,0,0,0,0,-1,1812,1597,-0.134037,-7.67063
595,-573,-0.0825195,8.35083,0,0,0,0,0,0,0,-1,1819,1597,-0.0824684,-8.35088
602,-573,0,0,0,0,0,0,0,0,0,-1,1826,1597,0,0
609,-573,0,0,0,0,0,0,0,0,0,-1,1833,1597,0,0
616,-573,0,0,0,0,0,0,0,0,0,-1,1840,1597,0,0
623,-573,0,0,0,0,0,0,0,0,0,-1,1847,1597,0,0
630,-573,0,0,0,0,0,0,0,0,0,-1,1854,1597,0,0
637,-573,0,0,0,0,0,0,0,0,0,-1,1861,1597,0,0
644,-573,0,0,0,0,0,0,0,0,0,-1,1868,1597,0,0
651,-573,0,0,0,0,0,0,0,0,0,-1,1875,1597,0,0
658,-573,0,0,0,0,0,0,0,0,0,-1,1882,1597,0,0
665,-573,0,0,0,0,0,0,0,0,0,-1,1889,1597,0,0
672,-573,0,0,0,0,0,0,0,0,0,-1,1896,1597,0,0
679,-573,0,0,0,0,0,0,0,0,0,-1,1903,1597,0,0
686,-573,0,0,0,0,0,0,0,0,0,-1,1910,1597,0,0
693,-573,0,0,0,0,0,0,0,0,0,-1,1917,1597,0,0
700,-573,0,0,0,0,0,0,0,0,0,-1,1924,1597,0,0
707,-573,0,0,0,0,0,0,0,0,0,-1,1931,1597,0,0
714,-573,0,0,0,0,0,0,0,0,0,-1,1938,1597,0,0
721,-573,0,0,0,0,0,0,0,0,0,-1,1945,1597,0,0
728,-573,0,0,0,0,0,0,0,0,0,-1,1952,1597,0,0
735,-573,0,0,0,0,0,0,0,0,0,-1,1959,1597,0,0
742,-573,0,0,0,0,0,0,0,0,0,-1,1966,1597,0,0
749,-573,0,0,0,0,0,0,0,0,0,-1,1973,1597,0,0
756,-573,0,0,0,0,0,0,0,0,0,-1,1980,1597,0,0
763,-573,0,0,0,0,0,0,0,0,0,-1,1987,1597,0,0
770,-573,0,0,0,0,0,0,0,0,0,-1,1994,1597,0,0
777,-573,0,0,0,0,0,0,0,0,0,-1,2001,1597,0,0
784,-573,0,0,0,0,0,0,0,0,0,-1,2008,1597,0,0
791,-573,0,0,0,0,0,0,0,0,0,-1,2015,1597,0,0
798,-573,0,0,0,0,0,0,0,0,0,-1,2022,1597,0,0
805,-573,0,0,0,0,0,0,0,0,0,-1,2029,1597,0,0
812,-573,0,0,0,0,0,0,0,0,0,-1,2036,1597,0,0
-700,-580,0,0,0,0,0,0,0,0,0,-1,524,1604,0,0
-693,-580,0,0,0,0,0,0,0,0,0,-1,531,1604,0,0
-686,-580,0,0,0,0,0,0,0,0,0,-1,538,1604,0,0
-679,-580,0,0,0,0,0,0,0,0,0,-1,545,1604,0,0
-672,-580,0,0,0,0,0,0,0,0,0,-1,552,1604,0,0
-665,-580,0,0,0,0,0,0,0,0,0,-1,559,1604,0,0
-658,-580,0,0,0,0,0,0,0,0,0,-1,566,1604,0,0
-651,-580,0,0,0,0,0,0,0,0,0,-1,573,1604,0,0
-644,-580,0,0,0,0,0,0,0,0,0,-1,580,1604,0,0
-637,-580,0,0,0,0,0,0,0,0,0,-1,587,1604,0,0
-630,-580,0,0,0,0,0,0,0,0,0,-1,594,1604,0,0
-623,-580,0,0,0,0,0,0,0,0,0,-1,601,1604,0,0
-616,-580,0,0,0,0,0,0,0,0,0,-1,608,1604,0,0
-609,-580,0,0,0,0,0,0,0,0,0,-1,615,1604,0,0
-602,-580,0,0,0,0,0,0,0,0,0,-1,622,1604,0,0
-595,-580,0,0,0,0,0,0,0,0,0,-1,629,1604,0,0
-588,-580,0,0,0,0,0,0,0,0,0,-1,636,1604,0,0
-581,-580,0,0,0,0,0,0,0,0,0,-1,643,1604,0,0
-574,-580,0,0,0,0,0,0,0,0,0,-1,650,1604,0,0
-567,-580,0,0,0,0,0,0,0,0,0,-1,657,1604,0,0
-560,-580,0,0,0,0,0,0,0,0,0,-1,664,1604,0,0
-553,-580,0,0,0,0,0,0,0,0,0,-1,671,1604,0,0
-546,-580,0,0,0,0,0,0,0,0,0,-1,678,1604,0,0
-539,-580,0,0,0,0,0,0,0,0,0,-1,685,1604,0,0
-532,-580,0,0,0,0,0,0,0,0,0,-1,692,1604,0,0
-525,-580,0,0,0,0,0,0,0,0,0,-1,699,1604,0,0
-518,-580,0,0,0,0,0,0,0,0,0,-1,706,1604,0,0
-511,-580,0,0,0,0,0,0,0,0,0,-1,713,1604,0,0
-504,-580,0,0,0,0,0,0,0,0,0,-1,720,1604,0,0
-497,-580,0,0,0,0,0,0,0,0,0,-1,727,1604,0,0
-490,-580,0,0,0,0,0,0,0,0,0,-1,734,1604,0,0
-483,-580,0,0,0,0,0,0,0,0,0,-1,741,1604,0,0
-476,-580,0,0,0,0,0,0,0,0,0,-1,748,1604,0,0
-469,-580,-0.88092,0.47937,0,0,0,0,0,0,0,-1,755,1604,-0.880934,-0.479327
-462,-580,-0.956177,1.87866,0,0,0,0,0,0,0,-1,762,1604,-0.956194,-1.8787
-455,-580,-2.7749,1.25916,0.0563768,0.112386,0.14576,0.232807,-0.0640447,0.880305,0.180384,0.0498175,769,1604,-2.77492,-1.25913
-448,-580,-2.36646,2.5885,0.0668406,0.105403,0.138255,0.225714,-0.0534711,0.854681,0.171108,0.0447192,776,1604,-2.36647,-2.58849
-441,-580,-2.28229,4.87183,0.0715076,0.0977752,0.12732,0.212637,-0.0433544,0.836794,0.158202,0.0486782,783,1604,-2.28231,-4.87186
-434,-580,-1.508,6.62341,0.0713688,0.0894882,0.114224,0.195011,-0.0341537,0.824973,0.14276,0.0474694,790,1604,-1.50798,-6.62347
-427,-580,-0.619019,8.26318,0,0,0,0,0,0,0,-1,797,1604,-0.619046,-8.2632
-420,-580,1.51709,5.24451,0,0,0,0,0,0,0,-1,804,1604,1.51709,-5.24451
-413,-580,1.29156,5.56079,0.050588,0.0578772,0.0691545,0.123483,-0.0150179,0.811725,0.0877574,0.044978,811,1604,1.29158,-5.56075
-406,-580,1.48804,5.9762,0.0410826,0.0465052,0.0545056,0.0983669,-0.010779,0.810249,0.0694504,0.0343178,818,1604,1.48804,-5.97614
-399,-580,1.48444,6.16174,0.0317935,0.035507,0.0411154,0.0748076,-0.00750708,0.807963,0.0525531,0.0151398,825,1604,1.48441,-6.16179
-392,-580,1.46661,6.32849,0.0230213,0.0254362,0.0286934,0.0529475,-0.00449005,0.806426,0.0368862,0.0111259,832,1604,1.46661,-6.3285
-385,-580,1.46521,6.48987,0.0147254,0.0177166,0.0178778,0.0341612,-0.00171921,0.82713,0.0233683,0.0111018,839,1604,1.46523,-6.48991
-378,-580,1.48376,6.65173,0.00753004,0.0105268,0.00977359,0.0189162,-0.000859374,0.86146,0.0129068,0.0139484,846,1604,1.48379,-6.65171
-371,-580,1.4726,6.83301,0.00319525,0.00385701,0.00463871,0.00817663,-0.00112437,0.821003,0.00586193,0.0136442,853,1604,1.47257,-6.83301
-364,-580,1.44623,6.98816,0.00117926,0.000844013,0.00180606,0.00282546,-0.00080219,0.739125,0.00220033,0.0196161,860,1604,1.4462,-6.9882
-357,-580,1.46735,7.12061,0.000687754,-0.000568656,0.00036157,0.000784376,-0.000665278,0.261128,0.000837899,0.0136069,867,1604,1.46735,-7.12061
-350,-580,1.49005,7.31311,0.000943218,-0.000400818,0.000327546,0.00101879,-0.000476393,0.226761,0.000881976,0.0108089,874,1604,1.49003,-7.31316
-343,-580,1.48071,7.46558,0.00124627,-4.52864e-05,0.000320109,0.00132126,-0.000120271,0.230098,0.000923543,0.0116416,881,1604,1.48071,-7.46559
-336,-580,1.48425,7.59521,0.000702092,-7.07786e-05,-0.000597156,0.00102694,-0.000395629,-0.498222,0.000847852,0.0195955,888,1604,1.48423,-7.59527
-329,-580,1.47083,7.7887,-0.000602242,-0.000967474,-0.00238372,0.00160584,-0.00317556,-0.747168,0.00280969,0.0179407,895,1604,1.47081,-7.7887
-322,-580,1.46906,7.94519,-0.00171021,-0.00178484,-0.003923,0.00217564,-0.0056707,-0.780642,0.0046775,0.0181971,902,1604,1.46908,-7.94516
-315,-580,1.50183,8.08191,-0.00338097,-0.00338749,-0.00608742,0.00270319,-0.00947165,-0.78513,0.00738235,0.0150057,909,1604,1.5018,-8.08188
-308,-580,1.52948,8.24524,-0.00548237,-0.0061836,-0.00890154,0.00307546,-0.0147414,-0.765714,0.0109971,0.0167911,916,1604,1.52945,-8.24519
-301,-580,1.54266,8.34924,-0.00814139,-0.00966782,-0.0124388,0.00355764,-0.0213668,-0.754758,0.0155665,0.0143045,923,1604,1.54265,-8.34921
-294,-580,1.54022,8.39893,-0.0109869,-0.0139931,-0.0164687,0.00404718,-0.0290272,-0.739889,0.020832,0.0189332,930,1604,1.54023,-8.39894
-287,-580,1.6452,8.44836,-0.0139969,-0.0180274,-0.0220684,0.00614804,-0.0381724,-0.739865,0.0277257,0.0417394,937,1604,1.6452,-8.44832
-280,-580,1.65088,8.34106,-0.0171793,-0.0231651,-0.0278149,0.00780329,-0.0481476,-0.731804,0.0349908,0.0482782,944,1604,1.6509,-8.34107
-273,-580,1.78662,8.23547,0,0,0,0,0,0,0,-1,951,1604,1.78664,-8.23549
-266,-580,0.556946,7.13635,0,0,0,0,0,0,0,-1,958,1604,0.55693,-7.13631
-259,-580,1.55347,7.01697,0,0,0,0,0,0,0,-1,965,1604,1.55347,-7.01702
-252,-580,2.03021,6.2124,0,0,0,0,0,0,0,-1,972,1604,2.03018,-6.21246
-245,-580,2.04211,5.69897,0,0,0,0,0,0,0,-1,979,1604,2.0421,-5.69892
-238,-580,1.70172,6.30493,0,0,0,0,0,0,0,-1,986,1604,1.70172,-6.30492
-231,-580,0.878662,8.30273,0,0,0,0,0,0,0,-1,993,1604,0.878662,-8.30268
-224,-580,-0.143555,8.20032,-0.0821232,-0.116191,-0.0928351,-0.00477228,-0.193542,-0.694664,0.127467,0.0482415,1000,1604,-0.143569,-8.20038
-217,-580,-1.16901,8.09973,0,0,0,0,0,0,0,-1,1007,1604,-1.16898,-8.09973
-210,-580,-2.21912,7.97131,-0.104336,-0.136269,-0.101532,-0.0175224,-0.223083,-0.707409,0.143239,0.0490102,1014,1604,-2.21915,-7.97136
-203,-580,-3.01923,7.66492,-0.114436,-0.142156,-0.104484,-0.022897,-0.233696,-0.719458,0.148753,0.046222,1021,1604,-3.01924,-7.66493
-196,-580,-3.65857,7.91418,-0.124976,-0.146841,-0.105114,-0.0302274,-0.24159,-0.733582,0.15199,0.0442753,1028,1604,-3.65863,-7.9142
-189,-580,-4.58252,7.59058,-0.137013,-0.150466,-0.104587,-0.0389367,-0.248542,-0.753286,0.154362,0.047031,1035,1604,-4.58256,-7.59057
-182,-580,-5.45874,7.65942,0,0,0,0,0,0,0,-1,1042,1604,-5.45876,-7.65939
-175,-580,-6.38977,7.55005,0,0,0,0,0,0,0,-1,1049,1604,-6.38981,-7.5501
-168,-580,0,0,0,0,0,0,0,0,0,-1,1056,1604,0,0
-161,-580,0,0,0,0,0,0,0,0,0,-1,1063,1604,0,0
-154,-580,0,0,0,0,0,0,0,0,0,-1,1070,1604,0,0
-147,-580,0,0,0,0,0,0,0,0,0,-1,1077,1604,0,0
-140,-580,0,0,0,0,0,0,0,0,0,-1,1084,1604,0,0
-133,-580,0,0,0,0,0,0,0,0,0,-1,1091,1604,0,0
-126,-580,0,0,0,0,0,0,0,0,0,-1,1098,1604,0,0
-119,-580,0,0,0,0,0,0,0,0,0,-1,1105,1604,0,0
-112,-580,0,0,0,0,0,0,0,0,0,-1,1112,1604,0,0
-105,-580,0,0,0,0,0,0,0,0,0,-1,1119,1604,0,0
-98,-580,0,0,0,0,0,0,0,0,0,-1,1126,1604,0,0
-91,-580,0,0,0,0,0,0,0,0,0,-1,1133,1604,0,0
-84,-580,0,0,0,0,0,0,0,0,0,-1,1140,1604,0,0
-77,-580,0,0,0,0,0,0,0,0,0,-1,1147,1604,0,0
-70,-580,0,0,0,0,0,0,0,0,0,-1,1154,1604,0,0
-63,-580,0,0,0,0,0,0,0,0,0,-1,1161,1604,0,0
-56,-580,0,0,0,0,0,0,0,0,0,-1,1168,1604,0,0
-49,-580,0,0,0,0,0,0,0,0,0,-1,1175,1604,0,0
-42,-580,0,0,0,0,0,0,0,0,0,-1,1182,1604,0,0
-35,-580,0,0,0,0,0,0,0,0,0,-1,1189,1604,0,0
-28,-580,0,0,0,0,0,0,0,0,0,-1,1196,1604,0,0
-21,-580,0,0,0,0,0,0,0,0,0,-1,1203,1604,0,0
-14,-580,0,0,0,0,0,0,0,0,0,-1,1210,1604,0,0
-7,-580,0,0,0,0,0,0,0,0,0,-1,1217,1604,0,0
0,-580,0,0,0,0,0,0,0,0,0,-1,1224,1604,0,0
7,-580,0,0,0,0,0,0,0,0,0,-1,1231,1604,0,0
14,-580,0,0,0,0,0,0,0,0,0,-1,1238,1604,0,0
21,-580,0,0,0,0,0,0,0,0,0,-1,1245,1604,0,0
28,-580,0,0,0,0,0,0,0,0,0,-1,1252,1604,0,0
35,-580,0,0,0,0,0,0,0,0,0,-1,1259,1604,0,0
42,-580,0,0,0,0,0,0,0,0,0,-1,1266,1604,0,0
49,-580,0,0,0,0,0,0,0,0,0,-1,1273,1604,0,0
56,-580,0,0,0,0,0,0,0,0,0,-1,1280,1604,0,0
63,-580,0,0,0,0,0,0,0,0,0,-1,1287,1604,0,0
70,-580,0,0,0,0,0,0,0,0,0,-1,1294,1604,0,0
77,-580,0,0,0,0,0,0,0,0,0,-1,1301,1604,0,0
84,-580,0,0,0,0,0,0,0,0,0,-1,1308,1604,0,0
91,-580,0,0,0,0,0,0,0,0,0,-1,1315,1604,0,0
98,-580,0,0,0,0,0,0,0,0,0,-1,1322,1604,0,0
105,-580,0,0,0,0,0,0,0,0,0,-1,1329,1604,0,0
112,-580,0,0,0,0,0,0,0,0,0,-1,1336,1604,0,0
119,-580,0,0,0,0,0,0,0,0,0,-1,1343,1604,0,0
126,-580,0,0,0,0,0,0,0,0,0,-1,1350,1604,0,0
133,-580,0,0,0,0,0,0,0,0,0,-1,1357,1604,0,0
140,-580,0,0,0,0,0,0,0,0,0,-1,1364,1604,0,0
147,-580,0,0,0,0,0,0,0,0,0,-1,1371,1604,0,0
154,-580,0,0,0,0,0,0,0,0,0,-1,1378,1604,0,0
161,-580,0,0,0,0,0,0,0,0,0,-1,1385,1604,0,0
168,-580,0,0,0,0,0,0,0,0,0,-1,1392,1604,0,0
175,-580,0,0,0,0,0,0,0,0,0,-1,1399,1604,0,0
182,-580,0,0,0,0,0,0,0,0,0,-1,1406,1604,0,0
189,-580,0,0,0,0,0,0,0,0,0,-1,1413,1604,0,0
196,-580,0,0,0,0,0,0,0,0,0,-1,1420,1604,0,0
203,-580,0,0,0,0,0,0,0,0,0,-1,1427,1604,0,0
210,-580,0,0,0,0,0,0,0,0,0,-1,1434,1604,0,0
217,-580,0,0,0,0,0,0,0,0,0,-1,1441,1604,0,0
224,-580,0,0,0,0,0,0,0,0,0,-1,1448,1604,0,0
231,-580,0,0,0,0,0,0,0,0,0,-1,1455,1604,0,0
238,-580,0,0,0,0,0,0,0,0,0,-1,1462,1604,0,0
245,-580,0,0,0,0,0,0,0,0,0,-1,1469,1604,0,0
252,-580,0,0,0,0,0,0,0,0,0,-1,1476,1604,0,0
259,-580,0,0,0,0,0,0,0,0,0,-1,1483,1604,0,0
266,-580,0,0,0,0,0,0,0,0,0,-1,1490,1604,0,0
273,-580,0,0,0,0,0,0,0,0,0,-1,1497,1604,0,0
280,-580,0,0,0,0,0,0,0,0,0,-1,1504,1604,0,0
287,-580,0,0,0,0,0,0,0,0,0,-1,1511,1604,0,0
294,-580,4.0437,0.177368,0,0,0,0,0,0,0,-1,1518,1604,4.04369,-0.177371
301,-580,4.89465,1.3446,0,0,0,0,0,0,0,-1,1525,1604,4.89467,-1.34463
308,-580,5.5979,4.69128,0,0,0,0,0,0,0,-1,1532,1604,5.59784,-4.69123
315,-580,10.5341,6.62097,0,0,0,0,0,0,0,-1,1539,1604,10.5341,-6.62096
322,-580,10.2366,7.50281,0,0,0,0,0,0,0,-1,1546,1604,10.2366,-7.50282
329,-580,10.5962,8.69641,0,0,0,0,0,0,0,-1,1553,1604,10.5962,-8.69642
336,-580,3.66431,1.58862,0,0,0,0,0,0,0,-1,1560,1604,3.6643,-1.58864
343,-580,3.32227,1.39636,0,0,0,0,0,0,0,-1,1567,1604,3.32222,-1.39633
350,-580,8.71277,4.0564,0,0,0,0,0,0,0,-1,1574,1604,8.71271,-4.05638
357,-580,8.52332,3.08154,0,0,0,0,0,0,0,-1,1581,1604,8.52332,-3.08157
364,-580,8.25818,2.07605,0,0,0,0,0,0,0,-1,1588,1604,8.25812,-2.07608
371,-580,7.42114,7.14282,0,0,0,0,0,0,0,-1,1595,1604,7.42119,-7.14281
378,-580,7.9718,6.6731,0,0,0,0,0,0,0,-1,1602,1604,7.9718,-6.67307
385,-580,8.52246,6.20337,0,0,0,0,0,0,0,-1,1609,1604,8.52241,-6.20334
392,-580,6.5498,-2.15625,0,0,0,0,0,0,0,-1,1616,1604,6.54984,2.15626
399,-580,4.77087,10.3883,0,0,0,0,0,0,0,-1,1623,1604,4.77084,-10.3883
406,-580,6.16895,10.2095,0,0,0,0,0,0,0,-1,1630,1604,6.16895,-10.2094
413,-580,5.87805,9.53113,0,0,0,0,0,0,0,-1,1637,1604,5.87806,-9.53113
420,-580,6.21973,9.55994,-0.000354521,-0.0190143,0.0103948,0.00428333,-0.0236521,0.419666,0.0173728,0.0409532,1644,1604,6.21972,-9.55997
427,-580,6.51685,9.4104,-0.00115583,-0.0178668,0.0100943,0.0035925,-0.0226152,0.439684,0.0164059,0.034724,1651,1604,6.51679,-9.41042
434,-580,6.1333,9.22424,-0.0017005,-0.0166225,0.0096214,0.0030138,-0.0213368,0.455601,0.0153282,0.0243382,1658,1604,6.13334,-9.22426
441,-580,5.99963,9.1709,-0.00207754,-0.0151836,0.00904068,0.00253527,-0.0197964,0.471797,0.0141188,0.0113476,1665,1604,5.99961,-9.17089
448,-580,6.01489,9.06091,-0.00230904,-0.0133661,0.00831421,0.00214695,-0.0178221,0.491991,0.0126579,0.0109122,1672,1604,6.01494,-9.0609
455,-580,6.0282,8.94165,-0.00244886,-0.0116405,0.00754909,0.00179332,-0.0158827,0.511969,0.011234,0.017671,1679,1604,6.02822,-8.94161
462,-580,5.98242,8.80261,-0.0022897,-0.0100385,0.00665318,0.00153498,-0.0138632,0.521733,0.00979395,0.0207396,1686,1604,5.98237,-8.80264
469,-580,5.98572,8.65686,-0.00195651,-0.00812723,0.00563601,0.00138339,-0.0114671,0.534962,0.00814514,0.0181664,1693,1604,5.98574,-8.65685
476,-580,6.05225,8.51367,-0.00168993,-0.00631418,0.00454193,0.00109452,-0.00909863,0.549963,0.00646157,0.0141236,1700,1604,6.05226,-8.51371
483,-580,6.0448,8.3844,-0.00111388,-0.00446228,0.00342657,0.00102562,-0.00660178,0.558158,0.00477988,0.0118504,1707,1604,6.04485,-8.38443
490,-580,6.0083,8.25867,-0.000386504,-0.00281261,0.0022914,0.000993131,-0.00419224,0.541956,0.00317803,0.0134569,1714,1604,6.00832,-8.25872
497,-580,6.00195,8.10681,6.37836e-05,-0.00149284,0.00105164,0.000593795,-0.00202285,0.466832,0.00158404,0.0117818,1721,1604,6.00197,-8.10682
504,-580,6.01794,7.94128,-3.11018e-05,4.44702e-06,-2.04228e-05,1.3747e-05,-4.04018e-05,-1.14349,3.25008e-05,0.0170184,1728,1604,6.01796,-7.94126
511,-580,6.03564,7.81616,0.000155671,0.00108907,-0.00113552,0.00185005,-0.000605312,-0.980375,0.00147708,0.0160646,1735,1604,6.0357,-7.81615
518,-580,6.05615,7.67419,9.11286e-05,0.00188109,-0.00209547,0.0032647,-0.00129249,-0.987223,0.00271198,0.0145889,1742,1604,6.05619,-7.67415
525,-580,6.0708,7.5354,-0.000415892,0.00256029,-0.00284299,0.00428109,-0.0021367,-1.0265,0.00377363,0.0170715,1749,1604,6.07082,-7.53537
532,-580,6.06335,7.38074,-0.00137784,0.00322095,-0.00358512,0.0051807,-0.00333759,-1.07054,0.00495626,0.0193569,1756,1604,6.06339,-7.38074
539,-580,6.06799,7.30334,-0.00284165,0.00389328,-0.00445102,0.00610716,-0.00505553,-1.10924,0.00645431,0.0247749,1763,1604,6.06798,-7.30336
546,-580,6.30859,7.1947,-0.00313773,0.00495073,-0.0062102,0.00831747,-0.00650446,-1.07402,0.00857876,0.0406061,1770,1604,6.30863,-7.19475
553,-580,5.66589,6.62341,-0.00384792,0.00667016,-0.00850183,0.0114081,-0.00858581,-1.06238,0.0115817,0.0496616,1777,1604,5.66586,-6.62336
560,-580,5.4696,6.44702,0,0,0,0,0,0,0,-1,1784,1604,5.46958,-6.44705
567,-580,2.20801,6.05261,0,0,0,0,0,0,0,-1,1791,1604,2.20799,-6.0526
574,-580,1.93652,6.33667,0,0,0,0,0,0,0,-1,1798,1604,1.93653,-6.33667
581,-580,1.60876,6.67664,0,0,0,0,0,0,0,-1,1805,1604,1.60873,-6.67667
588,-580,1.38684,7.14441,0,0,0,0,0,0,0,-1,1812,1604,1.38689,-7.14443
595,-580,0,0,0,0,0,0,0,0,0,-1,1819,1604,0,0
602,-580,0,0,0,0,0,0,0,0,0,-1,1826,1604,0,0
609,-580,0,0,0,0,0,0,0,0,0,-1,1833,1604,0,0
616,-580,0,0,0,0,0,0,0,0,0,-1,1840,1604,0,0
623,-580,0,0,0,0,0,0,0,0,0,-1,1847,1604,0,0
630,-580,0,0,0,0,0,0,0,0,0,-1,1854,1604,0,0
637,-580,0,0,0,0,0,0,0,0,0,-1,1861,1604,0,0
644,-580,0,0,0,0,0,0,0,0,0,-1,1868,1604,0,0
651,-580,0,0,0,0,0,0,0,0,0,-1,1875,1604,0,0
658,-580,0,0,0,0,0,0,0,0,0,-1,1882,1604,0,0
665,-580,0,0,0,0,0,0,0,0,0,-1,1889,1604,0,0
672,-580,0,0,0,0,0,0,0,0,0,-1,1896,1604,0,0
679,-580,0,0,0,0,0,0,0,0,0,-1,1903,1604,0,0
686,-580,0,0,0,0,0,0,0,0,0,-1,1910,1604,0,0
693,-580,0,0,0,0,0,0,0,0,0,-1,1917,1604,0,0
700,-580,0,0,0,0,0,0,0,0,0,-1,1924,1604,0,0
707,-580,0,0,0,0,0,0,0,0,0,-1,1931,1604,0,0
714,-580,0,0,0,0,0,0,0,0,0,-1,1938,1604,0,0
721,-580,0,0,0,0,0,0,0,0,0,-1,1945,1604,0,0
728,-580,0,0,0,0,0,0,0,0,0,-1,1952,1604,0,0
735,-580,0,0,0,0,0,0,0,0,0,-1,1959,1604,0,0
742,-580,0,0,0,0,0,0,0,0,0,-1,1966,1604,0,0
749,-580,0,0,0,0,0,0,0,0,0,-1,1973,1604,0,0
756,-580,0,0,0,0,0,0,0,0,0,-1,1980,1604,0,0
763,-580,0,0,0,0,0,0,0,0,0,-1,1987,1604,0,0
770,-580,0,0,0,0,0,0,0,0,0,-1,1994,1604,0,0
777,-580,0,0,0,0,0,0,0,0,0,-1,2001,1604,0,0
784,-580,0,0,0,0,0,0,0,0,0,-1,2008,1604,0,0
791,-580,0,0,0,0,0,0,0,0,0,-1,2015,1604,0,0
798,-580,0,0,0,0,0,0,0,0,0,-1,2022,1604,0,0
805,-580,0,0,0,0,0,0,0,0,0,-1,2029,1604,0,0
812,-580,0,0,0,0,0,0,0,0,0,-1,2036,1604,0,0
-700,-587,0,0,0,0,0,0,0,0,0,-1,524,1611,0,0
-693,-587,0,0,0,0,0,0,0,0,0,-1,531,1611,0,0
-686,-587,0,0,0,0,0,0,0,0,0,-1,538,1611,0,0
-679,-587,0,0,0,0,0,0,0,0,0,-1,545,1611,0,0
-672,-587,0,0,0,0,0,0,0,0,0,-1,552,1611,0,0
-665,-587,0,0,0,0,0,0,0,0,0,-1,559,1611,0,0
-658,-587,0,0,0,0,0,0,0,0,0,-1,566,1611,0,0
-651,-587,0,0,0,0,0,0,0,0,0,-1,573,1611,0,0
-644,-587,0,0,0,0,0,0,0,0,0,-1,580,1611,0,0
-637,-587,0,0,0,0,0,0,0,0,0,-1,587,1611,0,0
-630,-587,0,0,0,0,0,0,0,0,0,-1,594,1611,0,0
-623,-587,0,0,0,0,0,0,0,0,0,-1,601,1611,0,0
-616,-587,0,0,0,0,0,0,0,0,0,-1,608,1611,0,0
-609,-587,0,0,0,0,0,0,0,0,0,-1,615,1611,0,0
-602,-587,0,0,0,0,0,0,0,0,0,-1,622,1611,0,0
-595,-587,0,0,0,0,0,0,0,0,0,-1,629,1611,0,0
-588,-587,0,0,0,0,0,0,0,0,0,-1,636,1611,0,0
-581,-587,0,0,0,0,0,0,0,0,0,-1,643,1611,0,0
-574,-587,0,0,0,0,0,0,0,0,0,-1,650,1611,0,0
-567,-587,0,0,0,0,0,0,0,0,0,-1,657,1611,0,0
-560,-587,0,0,0,0,0,0,0,0,0,-1,664,1611,0,0
-553,-587,0,0,0,0,0,0,0,0,0,-1,671,1611,0,0
-546,-587,0,0,0,0,0,0,0,0,0,-1,678,1611,0,0
-539,-587,0,0,0,0,0,0,0,0,0,-1,685,1611,0,0
-532,-587,0,0,0,0,0,0,0,0,0,-1,692,1611,0,0
-525,-587,0,0,0,0,0,0,0,0,0,-1,699,1611,0,0
-518,-587,0,0,0,0,0,0,0,0,0,-1,706,1611,0,0
-511,-587,0,0,0,0,0,0,0,0,0,-1,713,1611,0,0
-504,-587,0,0,0,0,0,0,0,0,0,-1,720,1611,0,0
-497,-587,0,0,0,0,0,0,0,0,0,-1,727,1611,0,0
-490,-587,0,0,0,0,0,0,0,0,0,-1,734,1611,0,0
-483,-587,0,0,0,0,0,0,0,0,0,-1,741,1611,0,0
-476,-587,0,0,0,0,0,0,0,0,0,-1,748,1611,0,0
-469,-587,0,0,0,0,0,0,0,0,0,-1,755,1611,0,0
-462,-587,-3.80414,-1.49097,0,0,0,0,0,0,0,-1,762,1611,-3.80411,1.491
-455,-587,-3.7204,0.11499,0,0,0,0,0,0,0,-1,769,1611,-3.72038,-0.114979
-448,-587,-3.73438,1.37878,0,0,0,0,0,0,0,-1,776,1611,-3.73438,-1.37875
-441,-587,-3.53021,4.56543,0.0986267,0.11583,0.150907,0.25838,-0.0439238,0.813867,0.188608,0.0496054,783,1611,-3.53023,-4.56538
-434,-587,-2.36865,6.41638,0.0967846,0.107288,0.136146,0.238283,-0.034211,0.804675,0.171401,0.0479821,790,1611,-2.36868,-6.41644
-427,-587,-1.47821,8.11377,0.0898077,0.0962631,0.119617,0.212696,-0.0266255,0.798887,0.151455,0.047625,797,1611,-1.4782,-8.11378
-420,-587,0.290039,7.61682,0,0,0,0,0,0,0,-1,804,1611,0.290036,-7.61681
-413,-587,1.40332,5.34485,0,0,0,0,0,0,0,-1,811,1611,1.40332,-5.34483
-406,-587,1.73633,5.61963,0.0535349,0.0569267,0.0669719,0.122224,-0.0117625,0.798057,0.0856732,0.0471085,818,1611,1.73635,-5.61966
-399,-587,1.96832,5.95093,0.0414978,0.0436974,0.0512587,0.0938681,-0.00867293,0.796125,0.0656609,0.0328973,825,1611,1.96832,-5.95097
-392,-587,1.76642,6.22668,0.0303455,0.0316116,0.0366062,0.0675903,-0.00563313,0.794044,0.0470504,0.0239184,832,1611,1.76643,-6.22666
-385,-587,1.62103,6.47632,0.0198122,0.0218545,0.0234739,0.0443294,-0.00266274,0.807134,0.0304793,0.0143087,839,1611,1.62106,-6.47628
-378,-587,1.6123,6.672,0.0105086,0.0126459,0.013199,0.0248194,-0.0016649,0.825793,0.0171282,0.0126586,846,1611,1.61229,-6.67202
-371,-587,1.59723,6.8468,0.00449905,0.00412942,0.0063173,0.0106342,-0.00200577,0.770775,0.00784403,0.0134922,853,1611,1.59722,-6.84679
-364,-587,1.61774,7.00647,0.00150891,7.39213e-05,0.00235273,0.00325112,-0.00166829,0.637396,0.00288881,0.0168431,860,1611,1.61773,-7.00649
-357,-587,1.63361,7.12732,0.000727201,-0.00183613,0.000395909,0.000786957,-0.00189588,0.149802,0.00159243,0.0159844,867,1611,1.63359,-7.12731
-350,-587,1.62604,7.30481,0.000932159,-0.00170126,0.000309076,0.000967948,-0.00173705,0.11528,0.00158263,0.00917654,874,1611,1.62601,-7.30487
-343,-587,1.61615,7.48987,0.00122155,-0.00137724,0.000281265,0.00125165,-0.00140733,0.106585,0.00153604,0.0119619,881,1611,1.61616,-7.48991
-336,-587,1.60822,7.61523,0.000890696,-0.00119068,-0.000415534,0.000970588,-0.00127057,-0.189947,0.00129779,0.01207,888,1611,1.60824,-7.61529
-329,-587,1.60565,7.76099,-5.52757e-05,-0.00164932,-0.00179304,0.00110991,-0.0028145,-0.57626,0.00233592,0.0147326,895,1611,1.60565,-7.76101
-322,-587,1.6405,7.93628,-0.00084478,-0.00207453,-0.00296114,0.00156465,-0.00448396,-0.683028,0.00362521,0.0173154,902,1611,1.64051,-7.93627
-315,-587,1.63751,8.07739,-0.00205329,-0.0031547,-0.00455816,0.0019873,-0.0071953,-0.725281,0.00557857,0.0138335,909,1611,1.63749,-8.07742
-308,-587,1.62305,8.2323,-0.00353458,-0.0052557,-0.00659297,0.00225375,-0.011044,-0.720502,0.00821761,0.0135693,916,1611,1.62306,-8.23226
-301,-587,1.64319,8.37183,-0.00531053,-0.0078291,-0.00910284,0.00261971,-0.0157593,-0.716665,0.0114795,0.0109094,923,1611,1.64318,-8.3718
-294,-587,1.67432,8.48547,-0.0070123,-0.0110372,-0.0118326,0.00297782,-0.0210273,-0.701166,0.0151089,0.0118346,930,1611,1.67431,-8.48548
-287,-587,1.73218,8.63794,-0.00878472,-0.0140219,-0.0156236,0.00443821,-0.0272448,-0.702368,0.019809,0.0224473,937,1611,1.7322,-8.63794
-280,-587,1.8017,8.78296,-0.0106048,-0.0178061,-0.0194636,0.0055884,-0.0339993,-0.693934,0.0247403,0.0342471,944,1611,1.80171,-8.78296
-273,-587,1.93561,8.63318,-0.0137565,-0.0234512,-0.0244346,0.0063069,-0.0435146,-0.687479,0.0313244,0.041866,951,1611,1.9356,-8.63318
-266,-587,2.03009,8.63367,0,0,0,0,0,0,0,-1,958,1611,2.03008,-8.63361
-259,-587,1.7572,7.72009,0,0,0,0,0,0,0,-1,965,1611,1.75719,-7.72013
-252,-587,1.74524,7.4563,0,0,0,0,0,0,0,-1,972,1611,1.74527,-7.45634
-245,-587,1.89056,7.82947,0,0,0,0,0,0,0,-1,979,1611,1.89057,-7.82948
-238,-587,4.16101,6.68079,0,0,0,0,0,0,0,-1,986,1611,4.161,-6.68079
-231,-587,2.47504,10.0112,0,0,0,0,0,0,0,-1,993,1611,2.47505,-10.0112
-224,-587,1.48132,9.89331,0,0,0,0,0,0,0,-1,1000,1611,1.48131,-9.89326
-217,-587,0.332336,9.86267,0,0,0,0,0,0,0,-1,1007,1611,0.33232,-9.86271
-210,-587,-0.600708,9.62695,-0.0863918,-0.11,-0.0829163,-0.0144437,-0.181948,-0.714692,0.116782,0.0465824,1014,1611,-0.600735,-9.62692
-203,-587,-1.55042,9.40186,-0.0956131,-0.114683,-0.0863767,-0.0182467,-0.192049,-0.730426,0.122405,0.0444719,1021,1611,-1.55043,-9.40186
-196,-587,-2.32214,9.0835,-0.105146,-0.118456,-0.087992,-0.023558,-0.200044,-0.747656,0.126245,0.0461697,1028,1611,-2.32215,-9.08353
-189,-587,-3.04138,8.66638,-0.116248,-0.121516,-0.0887108,-0.0301319,-0.207632,-0.770557,0.129551,0.0490315,1035,1611,-3.04136,-8.66635
-182,-587,-3.87219,8.51086,-0.129273,-0.125263,-0.0870567,-0.0401883,-0.214348,-0.796911,0.131565,0.0479683,1042,1611,-3.87216,-8.51082
-175,-587,-4.80969,8.37878,-0.144015,-0.126895,-0.0839254,-0.0510942,-0.219816,-0.836219,0.13283,0.044614,1049,1611,-4.80964,-8.37883
-168,-587,-5.91394,8.72546,-0.16194,-0.131925,-0.079395,-0.0661317,-0.227733,-0.878806,0.135278,0.0457718,1056,1611,-5.91398,-8.72542
-161,-587,-7.06946,8.88501,-0.181846,-0.139956,-0.0737765,-0.084209,-0.237593,-0.923708,0.139099,0.0469714,1063,1611,-7.06947,-8.885
-154,-587,-8.18787,8.99988,0,0,0,0,0,0,0,-1,1070,1611,-8.18785,-8.99982
-147,-587,0,0,0,0,0,0,0,0,0,-1,1077,1611,0,0
-140,-587,0,0,0,0,0,0,0,0,0,-1,1084,1611,0,0
-133,-587,0,0,0,0,0,0,0,0,0,-1,1091,1611,0,0
-126,-587,0,0,0,0,0,0,0,0,0,-1,1098,1611,0,0
-119,-587,0,0,0,0,0,0,0,0,0,-1,1105,1611,0,0
-112,-587,0,0,0,0,0,0,0,0,0,-1,1112,1611,0,0
-105,-587,0,0,0,0,0,0,0,0,0,-1,1119,1611,0,0
-98,-587,0,0,0,0,0,0,0,0,0,-1,1126,1611,0,0
-91,-587,0,0,0,0,0,0,0,0,0,-1,1133,1611,0,0
-84,-587,0,0,0,0,0,0,0,0,0,-1,1140,1611,0,0
-77,-587,0,0,0,0,0,0,0,0,0,-1,1147,1611,0,0
-70,-587,0,0,0,0,0,0,0,0,0,-1,1154,1611,0,0
-63,-587,0,0,0,0,0,0,0,0,0,-1,1161,1611,0,0
-56,-587,0,0,0,0,0,0,0,0,0,-1,1168,1611,0,0
-49,-587,0,0,0,0,0,0,0,0,0,-1,1175,1611,0,0
-42,-587,0,0,0,0,0,0,0,0,0,-1,1182,1611,0,0
-35,-587,0,0,0,0,0,0,0,0,0,-1,1189,1611,0,0
-28,-587,0,0,0,0,0,0,0,0,0,-1,1196,1611,0,0
-21,-587,0,0,0,0,0,0,0,0,0,-1,1203,1611,0,0
-14,-587,0,0,0,0,0,0,0,0,0,-1,1210,1611,0,0
-7,-587,0,0,0,0,0,0,0,0,0,-1,1217,1611,0,0
0,-587,0,0,0,0,0,0,0,0,0,-1,1224,1611,0,0
7,-587,0,0,0,0,0,0,0,0,0,-1,1231,1611,0,0
14,-587,0,0,0,0,0,0,0,0,0,-1,1238,1611,0,0
21,-587,0,0,0,0,0,0,0,0,0,-1,1245,1611,0,0
28,-587,0,0,0,0,0,0,0,0,0,-1,1252,1611,0,0
35,-587,0,0,0,0,0,0,0,0,0,-1,1259,1611,0,0
42,-587,0,0,0,0,0,0,0,0,0,-1,1266,1611,0,0
49,-587,0,0,0,0,0,0,0,0,0,-1,1273,1611,0,0
56,-587,0,0,0,0,0,0,0,0,0,-1,1280,1611,0,0
63,-587,0,0,0,0,0,0,0,0,0,-1,1287,1611,0,0
70,-587,0,0,0,0,0,0,0,0,0,-1,1294,1611,0,0
77,-587,0,0,0,0,0,0,0,0,0,-1,1301,1611,0,0
84,-587,0,0,0,0,0,0,0,0,0,-1,1308,1611,0,0
91,-587,0,0,0,0,0,0,0,0,0,-1,1315,1611,0,0
98,-587,0,0,0,0,0,0,0,0,0,-1,1322,1611,0,0
105,-587,0,0,0,0,0,0,0,0,0,-1,1329,1611,0,0
112,-587,0,0,0,0,0,0,0,0,0,-1,1336,1611,0,0
119,-587,0,0,0,0,0,0,0,0,0,-1,1343,1611,0,0
126,-587,0,0,0,0,0,0,0,0,0,-1,1350,1611,0,0
133,-587,0,0,0,0,0,0,0,0,0,-1,1357,1611,0,0
140,-587,0,0,0,0,0,0,0,0,0,-1,1364,1611,0,0
147,-587,0,0,0,0,0,0,0,0,0,-1,1371,1611,0,0
154,-587,0,0,0,0,0,0,0,0,0,-1,1378,1611,0,0
161,-587,0,0,0,0,0,0,0,0,0,-1,1385,1611,0,0
168,-587,0,0,0,0,0,0,0,0,0,-1,1392,1611,0,0
175,-587,0,0,0,0,0,0,0,0,0,-1,1399,1611,0,0
182,-587,0,0,0,0,0,0,0,0,0,-1,1406,1611,0,0
189,-587,0,0,0,0,0,0,0,0,0,-1,1413,1611,0,0
196,-587,0,0,0,0,0,0,0,0,0,-1,1420,1611,0,0
203,-587,0,0,0,0,0,0,0,0,0,-1,1427,1611,0,0
210,-587,0,0,0,0,0,0,0,0,0,-1,1434,1611,0,0
217,-587,0,0,0,0,0,0,0,0,0,-1,1441,1611,0,0
224,-587,0,0,0,0,0,0,0,0,0,-1,1448,1611,0,0
231,-587,0,0,0,0,0,0,0,0,0,-1,1455,1611,0,0
238,-587,0,0,0,0,0,0,0,0,0,-1,1462,1611,0,0
245,-587,0,0,0,0,0,0,0,0,0,-1,1469,1611,0,0
252,-587,0,0,0,0,0,0,0,0,0,-1,1476,1611,0,0
259,-587,0,0,0,0,0,0,0,0,0,-1,1483,1611,0,0
266,-587,0,0,0,0,0,0,0,0,0,-1,1490,1611,0,0
273,-587,10.2936,6.35083,0,0,0,0,0,0,0,-1,1497,1611,10.2936,-6.35087
280,-587,2.09204,1.1217,0,0,0,0,0,0,0,-1,1504,1611,2.092,-1.12176
287,-587,3.2865,0.671509,0,0,0,0,0,0,0,-1,1511,1611,3.28656,-0.671538
294,-587,4.24646,1.58765,0,0,0,0,0,0,0,-1,1518,1611,4.24648,-1.58761
301,-587,5.13647,2.76465,0,0,0,0,0,0,0,-1,1525,1611,5.13648,-2.76469
308,-587,6.12231,5.86035,0,0,0,0,0,0,0,-1,1532,1611,6.12227,-5.86035
315,-587,4.76758,6.91736,0,0,0,0,0,0,0,-1,1539,1611,4.76758,-6.9174
322,-587,10.4526,6.38245,0,0,0,0,0,0,0,-1,1546,1611,10.4526,-6.38245
329,-587,10.7738,8.42444,0,0,0,0,0,0,0,-1,1553,1611,10.7738,-8.42438
336,-587,7.5531,5.96619,0,0,0,0,0,0,0,-1,1560,1611,7.55311,-5.96617
343,-587,9.57495,4.38391,0,0,0,0,0,0,0,-1,1567,1611,9.57494,-4.38397
350,-587,9.50378,3.45093,0,0,0,0,0,0,0,-1,1574,1611,9.50376,-3.4509
357,-587,9.40027,2.50806,0,0,0,0,0,0,0,-1,1581,1611,9.40022,-2.50803
364,-587,9.26477,1.34131,0,0,0,0,0,0,0,-1,1588,1611,9.26479,-1.34126
371,-587,6.98926,7.87561,0,0,0,0,0,0,0,-1,1595,1611,6.98928,-7.87564
378,-587,7.08069,7.45667,0,0,0,0,0,0,0,-1,1602,1611,7.08074,-7.45671
385,-587,7.17224,7.03772,0,0,0,0,0,0,0,-1,1609,1611,7.1722,-7.03778
392,-587,5.3916,8.21436,0,0,0,0,0,0,0,-1,1616,1611,5.39157,-8.21437
399,-587,5.448,9.41309,0,0,0,0,0,0,0,-1,1623,1611,5.44795,-9.41304
406,-587,6.07361,9.81836,0.00149144,-0.0148088,0.00794391,0.00472245,-0.0180398,0.386293,0.0138713,0.0399534,1630,1611,6.07364,-9.81839
413,-587,6.01282,9.56628,0.000821722,-0.0142552,0.00768918,0.00405136,-0.0174848,0.397648,0.0132156,0.0329388,1637,1611,6.01283,-9.56625
420,-587,5.99609,9.5321,-6.07419e-05,-0.0134451,0.00759408,0.0033691,-0.016875,0.424222,0.012525,0.0292684,1644,1611,5.99606,-9.53214
427,-587,6.03333,9.43005,-0.000568564,-0.0125153,0.00716372,0.00278544,-0.0158693,0.43788,0.0116199,0.0206575,1651,1611,6.03332,-9.43004
434,-587,5.88977,9.3186,-0.000940403,-0.0115259,0.00666773,0.00227989,-0.0147461,0.449929,0.0106722,0.0137705,1658,1611,5.88981,-9.31864
441,-587,5.86646,9.21765,-0.00120073,-0.0104696,0.00615002,0.00186554,-0.0135359,0.462509,0.0097057,0.0159201,1665,1611,5.86649,-9.21767
448,-587,5.88855,9.0863,-0.00135387,-0.00910423,0.00555804,0.00154656,-0.0120047,0.480969,0.0085653,0.013461,1672,1611,5.88861,-9.08624
455,-587,5.91272,8.95398,-0.00146324,-0.0078287,0.00494936,0.00123841,-0.0105304,0.499658,0.00746735,0.0131246,1679,1611,5.91274,-8.95398
462,-587,5.8783,8.80847,-0.00129952,-0.00666263,0.0042441,0.0010392,-0.00900135,0.50365,0.00637559,0.0170044,1686,1611,5.87831,-8.80853
469,-587,5.87524,8.66541,-0.000974339,-0.00519415,0.00343916,0.000950546,-0.00711903,0.510257,0.00509253,0.0147093,1693,1611,5.87524,-8.66542
476,-587,5.91125,8.5354,-0.000726935,-0.00379406,0.00258585,0.000745897,-0.0052669,0.517747,0.00378448,0.00996939,1700,1611,5.91126,-8.53543
483,-587,5.89087,8.39136,-0.000234803,-0.00233529,0.00171745,0.000728069,-0.00329816,0.510977,0.00247739,0.0124817,1707,1611,5.89082,-8.39134
490,-587,5.86853,8.24353,0.000411773,-0.00101298,0.000827061,0.00079096,-0.00139216,0.42988,0.00127626,0.0151887,1714,1611,5.86849,-8.24353
497,-587,5.86865,8.09338,0.000766065,1.99537e-05,-0.000193732,0.000813369,-2.73509e-05,-0.239489,0.000551589,0.0128335,1721,1611,5.86864,-8.09337
504,-587,5.87683,7.96033,0.000581595,0.00112236,-0.00112017,0.00200432,-0.000300366,-0.90382,0.00144676,0.0125654,1728,1611,5.87682,-7.96027
511,-587,5.901,7.83606,0.000641978,0.00198337,-0.00200428,0.00342619,-0.000800845,-0.946858,0.00259264,0.0137166,1735,1611,5.90098,-7.83609
518,-587,5.91553,7.68274,0.000380845,0.0025948,-0.0028202,0.00451749,-0.00154185,-0.972418,0.00363626,0.0133996,1742,1611,5.91547,-7.6828
525,-587,5.948,7.53845,-0.000449531,0.00317049,-0.00345273,0.00525887,-0.00253792,-1.02682,0.00459194,0.0167225,1749,1611,5.94795,-7.53844
532,-587,5.92371,7.37415,-0.00181981,0.00385786,-0.00424609,0.00612669,-0.00408864,-1.08006,0.00593682,0.0292547,1756,1611,5.92372,-7.37415
539,-587,6.04358,7.21558,-0.0037905,0.00474151,-0.00535589,0.00732272,-0.00637171,-1.1217,0.00791284,0.0410005,1763,1611,6.04359,-7.21559
546,-587,6.28552,7.09131,0,0,0,0,0,0,0,-1,1770,1611,6.28553,-7.09132
553,-587,5.42664,6.40088,0,0,0,0,0,0,0,-1,1777,1611,5.42665,-6.40093
560,-587,4.21179,5.23547,0,0,0,0,0,0,0,-1,1784,1611,4.21185,-5.23553
567,-587,4.03711,5.46387,0,0,0,0,0,0,0,-1,1791,1611,4.03715,-5.46382
574,-587,3.83142,5.68884,0,0,0,0,0,0,0,-1,1798,1611,3.83141,-5.68881
581,-587,3.47168,6.00977,0,0,0,0,0,0,0,-1,1805,1611,3.47167,-6.00983
588,-587,0,0,0,0,0,0,0,0,0,-1,1812,1611,0,0
595,-587,0,0,0,0,0,0,0,0,0,-1,1819,1611,0,0
602,-587,0,0,0,0,0,0,0,0,0,-1,1826,1611,0,0
609,-587,0,0,0,0,0,0,0,0,0,-1,1833,1611,0,0
616,-587,0,0,0,0,0,0,0,0,0,-1,1840,1611,0,0
623,-587,0,0,0,0,0,0,0,0,0,-1,1847,1611,0,0
630,-587,0,0,0,0,0,0,0,0,0,-1,1854,1611,0,0
637,-587,0,0,0,0,0,0,0,0,0,-1,1861,1611,0,0
644,-587,0,0,0,0,0,0,0,0,0,-1,1868,1611,0,0
651,-587,0,0,0,0,0,0,0,0,0,-1,1875,1611,0,0
658,-587,0,0,0,0,0,0,0,0,0,-1,1882,1611,0,0
665,-587,0,0,0,0,0,0,0,0,0,-1,1889,1611,0,0
672,-587,0,0,0,0,0,0,0,0,0,-1,1896,1611,0,0
679,-587,0,0,0,0,0,0,0,0,0,-1,1903,1611,0,0
686,-587,0,0,0,0,0,0,0,0,0,-1,1910,1611,0,0
693,-587,0,0,0,0,0,0,0,0,0,-1,1917,1611,0,0
700,-587,0,0,0,0,0,0,0,0,0,-1,1924,1611,0,0
707,-587,0,0,0,0,0,0,0,0,0,-1,1931,1611,0,0
714,-587,0,0,0,0,0,0,0,0,0,-1,1938,1611,0,0
721,-587,0,0,0,0,0,0,0,0,0,-1,1945,1611,0,0
728,-587,0,0,0,0,0,0,0,0,0,-1,1952,1611,0,0
735,-587,0,0,0,0,0,0,0,0,0,-1,1959,1611,0,0
742,-587,0,0,0,0,0,0,0,0,0,-1,1966,1611,0,0
749,-587,0,0,0,0,0,0,0,0,0,-1,1973,1611,0,0
756,-587,0,0,0,0,0,0,0,0,0,-1,1980,1611,0,0
763,-587,0,0,0,0,0,0,0,0,0,-1,1987,1611,0,0
770,-587,0,0,0,0,0,0,0,0,0,-1,1994,1611,0,0
777,-587,0,0,0,0,0,0,0,0,0,-1,2001,1611,0,0
784,-587,0,0,0,0,0,0,0,0,0,-1,2008,1611,0,0
791,-587,0,0,0,0,0,0,0,0,0,-1,2015,1611,0,0
798,-587,0,0,0,0,0,0,0,0,0,-1,2022,1611,0,0
805,-587,0,0,0,0,0,0,0,0,0,-1,2029,1611,0,0
812,-587,0,0,0,0,0,0,0,0,0,-1,2036,1611,0,0
-700,-594,0,0,0,0,0,0,0,0,0,-1,524,1618,0,0
-693,-594,0,0,0,0,0,0,0,0,0,-1,531,1618,0,0
-686,-594,0,0,0,0,0,0,0,0,0,-1,538,1618,0,0
-679,-594,0,0,0,0,0,0,0,0,0,-1,545,1618,0,0
-672,-594,0,0,0,0,0,0,0,0,0,-1,552,1618,0,0
-665,-594,0,0,0,0,0,0,0,0,0,-1,559,1618,0,0
-658,-594,0,0,0,0,0,0,0,0,0,-1,566,1618,0,0
-651,-594,0,0,0,0,0,0,0,0,0,-1,573,1618,0,0
-644,-594,0,0,0,0,0,0,0,0,0,-1,580,1618,0,0
-637,-594,0,0,0,0,0,0,0,0,0,-1,587,1618,0,0
-630,-594,0,0,0,0,0,0,0,0,0,-1,594,1618,0,0
-623,-594,0,0,0,0,0,0,0,0,0,-1,601,1618,0,0
-616,-594,0,0,0,0,0,0,0,0,0,-1,608,1618,0,0
-609,-594,0,0,0,0,0,0,0,0,0,-1,615,1618,0,0
-602,-594,0,0,0,0,0,0,0,0,0,-1,622,1618,0,0
-595,-594,0,0,0,0,0,0,0,0,0,-1,629,1618,0,0
-588,-594,0,0,0,0,0,0,0,0,0,-1,636,1618,0,0
-581,-594,0,0,0,0,0,0,0,0,0,-1,643,1618,0,0
-574,-594,0,0,0,0,0,0,0,0,0,-1,650,1618,0,0
-567,-594,0,0,0,0,0,0,0,0,0,-1,657,1618,0,0
-560,-594,0,0,0,0,0,0,0,0,0,-1,664,1618,0,0
-553,-594,0,0,0,0,0,0,0,0,0,-1,671,1618,0,0
-546,-594,0,0,0,0,0,0,0,0,0,-1,678,1618,0,0
-539,-594,0,0,0,0,0,0,0,0,0,-1,685,1618,0,0
-532,-594,0,0,0,0,0,0,0,0,0,-1,692,1618,0,0
-525,-594,0,0,0,0,0,0,0,0,0,-1,699,1618,0,0
-518,-594,0,0,0,0,0,0,0,0,0,-1,706,1618,0,0
-511,-594,0,0,0,0,0,0,0,0,0,-1,713,1618,0,0
-504,-594,0,0,0,0,0,0,0,0,0,-1,720,1618,0,0
-497,-594,0,0,0,0,0,0,0,0,0,-1,727,1618,0,0
-490,-594,0,0,0,0,0,0,0,0,0,-1,734,1618,0,0
-483,-594,0,0,0,0,0,0,0,0,0,-1,741,1618,0,0
-476,-594,0,0,0,0,0,0,0,0,0,-1,748,1618,0,0
-469,-594,0,0,0,0,0,0,0,0,0,-1,755,1618,0,0
-462,-594,0,0,0,0,0,0,0,0,0,-1,762,1618,0,0
-455,-594,-6.59216,2.48486,0,0,0,0,0,0,0,-1,769,1618,-6.59214,-2.48488
-448,-594,-5.74237,3.23584,0.128174,0.140517,0.186263,0.320711,-0.0520204,0.801958,0.23309,0.0432833,776,1618,-5.74238,-3.23581
-441,-594,-4.79364,4.07727,0.130216,0.133459,0.173636,0.305481,-0.0418059,0.790068,0.218924,0.0446436,783,1618,-4.79365,-4.07727
-434,-594,-3.62231,5.8208,0.126067,0.124998,0.15763,0.283164,-0.0320987,0.783702,0.200335,0.0466218,790,1618,-3.62229,-5.82083
-427,-594,-2.31836,5.5968,0.115414,0.11298,0.139198,0.2534,-0.025006,0.781026,0.177856,0.0440695,797,1618,-2.31839,-5.59684
-420,-594,-1.51398,6.45288,0.100503,0.0987647,0.119319,0.218956,-0.019689,0.781757,0.152957,0.0449165,804,1618,-1.51399,-6.45294
-413,-594,-0.698242,6.88928,0.0838747,0.0830263,0.0991412,0.182593,-0.0156916,0.783259,0.127282,0.0489044,811,1618,-0.698249,-6.88934
-406,-594,2.12451,5.19507,0,0,0,0,0,0,0,-1,818,1618,2.12453,-5.19504
-399,-594,2.53101,5.51196,0.0528282,0.0516489,0.0621293,0.114371,-0.00989351,0.780653,0.0797497,0.0460993,825,1618,2.53102,-5.51193
-392,-594,2.26282,6.0509,0.0391189,0.0376798,0.0453671,0.0837722,-0.00697349,0.777469,0.0583118,0.0387404,832,1618,2.26283,-6.05093
-385,-594,1.83752,6.4895,0.0261452,0.0259154,0.0298916,0.0559221,-0.00386152,0.783476,0.038633,0.0251179,839,1618,1.83753,-6.48952
-378,-594,1.75317,6.66968,0.0143951,0.0146281,0.0172048,0.0317169,-0.00269361,0.788783,0.0220972,0.0112552,846,1618,1.75316,-6.66963
-371,-594,1.75989,6.83765,0.00629978,0.00417686,0.00822842,0.0135349,-0.00305829,0.721253,0.0101968,0.0109973,853,1618,1.7599,-6.83764
-364,-594,1.77704,6.99561,0.00203662,-0.00103584,0.00286015,0.00374699,-0.00274621,0.538949,0.00376367,0.0101419,860,1618,1.77704,-6.99564
-357,-594,1.77979,7.1499,0.000890813,-0.00343023,0.000323861,0.000914951,-0.00345437,0.0743958,0.00266086,0.00964141,867,1618,1.77979,-7.14987
-350,-594,1.77875,7.32751,0.000991837,-0.00326732,0.000168364,0.000998482,-0.00327397,0.0394479,0.00258068,0.0131405,874,1618,1.77876,-7.32756
-343,-594,1.77179,7.5061,0.00121407,-0.00290843,0.000117168,0.00121739,-0.00291176,0.0283911,0.00244995,0.0153995,881,1618,1.77181,-7.50607
-336,-594,1.75568,7.62036,0.00101424,-0.00247738,-0.000384016,0.00105597,-0.00251911,-0.108258,0.00212091,0.0130156,888,1618,1.75569,-7.62032
-329,-594,1.76202,7.77173,0.000328192,-0.00250201,-0.00139652,0.000901249,-0.00307506,-0.389395,0.00240736,0.0141389,895,1618,1.76202,-7.77173
-322,-594,1.79834,7.95862,-0.000237794,-0.00254774,-0.00225546,0.00114121,-0.00392674,-0.548766,0.00306977,0.0160453,902,1618,1.79835,-7.95858
-315,-594,1.78888,8.09363,-0.00111708,-0.00314728,-0.00339173,0.0014082,-0.00567256,-0.639997,0.00432815,0.0161528,909,1618,1.78887,-8.09359
-308,-594,1.784,8.22412,-0.00215673,-0.00461249,-0.00480856,0.00157824,-0.00834747,-0.660393,0.00615884,0.0147916,916,1618,1.78398,-8.22408
-301,-594,1.78979,8.36462,-0.00330643,-0.00640088,-0.00652389,0.0018512,-0.0115585,-0.668968,0.00839108,0.0106158,923,1618,1.78977,-8.36458
-294,-594,1.80402,8.5,-0.00424539,-0.00870494,-0.00831012,0.00212891,-0.0150792,-0.654325,0.0108324,0.00953451,930,1618,1.80399,-8.49999
-287,-594,1.82013,8.65137,-0.00514901,-0.0108434,-0.0107716,0.00314534,-0.0191378,-0.656191,0.0139259,0.0104408,937,1618,1.82015,-8.65138
-280,-594,1.83185,8.78101,-0.00603085,-0.0134833,-0.0132014,0.00396016,-0.0234743,-0.647847,0.017123,0.0143986,944,1618,1.83186,-8.78103
-273,-594,1.91473,8.80469,-0.00795108,-0.0176644,-0.016572,0.00446127,-0.0300768,-0.642857,0.0216917,0.0264457,951,1618,1.91472,-8.80472
-266,-594,1.86273,8.73584,-0.00930202,-0.0211694,-0.0197199,0.00535757,-0.035829,-0.639258,0.0258575,0.0346199,958,1618,1.86272,-8.73583
-259,-594,1.87073,8.44275,-0.0139209,-0.029131,-0.0254384,0.00502488,-0.0480768,-0.640147,0.0338507,0.0375668,965,1618,1.87075,-8.44273
-252,-594,1.85388,8.4978,0,0,0,0,0,0,0,-1,972,1618,1.8539,-8.49784
-245,-594,2.04376,8.78345,0,0,0,0,0,0,0,-1,979,1618,2.04376,-8.78342
-238,-594,2.23505,9.05908,0,0,0,0,0,0,0,-1,986,1618,2.23502,-9.05908
-231,-594,4.43488,11.5297,0,0,0,0,0,0,0,-1,993,1618,4.43486,-11.5296
-224,-594,3.45929,11.3962,0,0,0,0,0,0,0,-1,1000,1618,3.45927,-11.3963
-217,-594,2.4837,11.2629,0,0,0,0,0,0,0,-1,1007,1618,2.48368,-11.2629
-210,-594,0.957092,11.3329,0,0,0,0,0,0,0,-1,1014,1618,0.957079,-11.3329
-203,-594,-0.0402832,10.9181,0,0,0,0,0,0,0,-1,1021,1618,-0.0402818,-10.9181
-196,-594,-0.94043,9.66211,0,0,0,0,0,0,0,-1,1028,1618,-0.940441,-9.66207
-189,-594,-1.37964,9.79614,0,0,0,0,0,0,0,-1,1035,1618,-1.37966,-9.79614
-182,-594,-2.26526,9.20789,-0.10921,-0.10214,-0.074707,-0.0308846,-0.180466,-0.80904,0.111451,0.0492971,1042,1618,-2.26525,-9.20794
-175,-594,-3.52283,9.53052,-0.12189,-0.104671,-0.0730449,-0.03973,-0.186831,-0.844058,0.11365,0.0419616,1049,1618,-3.52286,-9.53052
-168,-594,-4.84082,9.9259,-0.137007,-0.110163,-0.0701618,-0.052151,-0.195019,-0.879907,0.116584,0.0461131,1056,1618,-4.84082,-9.9259
-161,-594,-6.14746,10.2183,-0.153649,-0.118186,-0.0660793,-0.0675006,-0.204334,-0.916477,0.120215,0.0464587,1063,1618,-6.14743,-10.2183
-154,-594,-7.47607,10.7759,0,0,0,0,0,0,0,-1,1070,1618,-7.47603,-10.7759
-147,-594,-8.20129,12.521,0,0,0,0,0,0,0,-1,1077,1618,-8.20131,-12.521
-140,-594,2.76843,9.64172,0,0,0,0,0,0,0,-1,1084,1618,2.76845,-9.64167
-133,-594,0,0,0,0,0,0,0,0,0,-1,1091,1618,0,0
-126,-594,0,0,0,0,0,0,0,0,0,-1,1098,1618,0,0
-119,-594,0,0,0,0,0,0,0,0,0,-1,1105,1618,0,0
-112,-594,0,0,0,0,0,0,0,0,0,-1,1112,1618,0,0
-105,-594,0,0,0,0,0,0,0,0,0,-1,1119,1618,0,0
-98,-594,0,0,0,0,0,0,0,0,0,-1,1126,1618,0,0
-91,-594,0,0,0,0,0,0,0,0,0,-1,1133,1618,0,0
-84,-594,0,0,0,0,0,0,0,0,0,-1,1140,1618,0,0
-77,-594,0,0,0,0,0,0,0,0,0,-1,1147,1618,0,0
-70,-594,0,0,0,0,0,0,0,0,0,-1,1154,1618,0,0
-63,-594,0,0,0,0,0,0,0,0,0,-1,1161,1618,0,0
-56,-594,0,0,0,0,0,0,0,0,0,-1,1168,1618,0,0
-49,-594,0,0,0,0,0,0,0,0,0,-1,1175,1618,0,0
-42,-594,0,0,0,0,0,0,0,0,0,-1,1182,1618,0,0
-35,-594,0,0,0,0,0,0,0,0,0,-1,1189,1618,0,0
-28,-594,0,0,0,0,0,0,0,0,0,-1,1196,1618,0,0
-21,-594,0,0,0,0,0,0,0,0,0,-1,1203,1618,0,0
-14,-594,0,0,0,0,0,0,0,0,0,-1,1210,1618,0,0
-7,-594,0,0,0,0,0,0,0,0,0,-1,1217,1618,0,0
0,-594,0,0,0,0,0,0,0,0,0,-1,1224,1618,0,0
7,-594,0,0,0,0,0,0,0,0,0,-1,1231,1618,0,0
14,-594,0,0,0,0,0,0,0,0,0,-1,1238,1618,0,0
21,-594,0,0,0,0,0,0,0,0,0,-1,1245,1618,0,0
28,-594,0,0,0,0,0,0,0,0,0,-1,1252,1618,0,0
35,-594,0,0,0,0,0,0,0,0,0,-1,1259,1618,0,0
42,-594,0,0,0,0,0,0,0,0,0,-1,1266,1618,0,0
49,-594,0,0,0,0,0,0,0,0,0,-1,1273,1618,0,0
56,-594,0,0,0,0,0,0,0,0,0,-1,1280,1618,0,0
63,-594,0,0,0,0,0,0,0,0,0,-1,1287,1618,0,0
70,-594,0,0,0,0,0,0,0,0,0,-1,1294,1618,0,0
77,-594,0,0,0,0,0,0,0,0,0,-1,1301,1618,0,0
84,-594,0,0,0,0,0,0,0,0,0,-1,1308,1618,0,0
91,-594,0,0,0,0,0,0,0,0,0,-1,1315,1618,0,0
98,-594,0,0,0,0,0,0,0,0,0,-1,1322,1618,0,0
105,-594,0,0,0,0,0,0,0,0,0,-1,1329,1618,0,0
112,-594,0,0,0,0,0,0,0,0,0,-1,1336,1618,0,0
119,-594,0,0,0,0,0,0,0,0,0,-1,1343,1618,0,0
126,-594,0,0,0,0,0,0,0,0,0,-1,1350,1618,0,0
133,-594,0,0,0,0,0,0,0,0,0,-1,1357,1618,0,0
140,-594,0,0,0,0,0,0,0,0,0,-1,1364,1618,0,0
147,-594,0,0,0,0,0,0,0,0,0,-1,1371,1618,0,0
154,-594,0,0,0,0,0,0,0,0,0,-1,1378,1618,0,0
161,-594,0,0,0,0,0,0,0,0,0,-1,1385,1618,0,0
168,-594,0,0,0,0,0,0,0,0,0,-1,1392,1618,0,0
175,-594,0,0,0,0,0,0,0,0,0,-1,1399,1618,0,0
182,-594,0,0,0,0,0,0,0,0,0,-1,1406,1618,0,0
189,-594,0,0,0,0,0,0,0,0,0,-1,1413,1618,0,0
196,-594,0,0,0,0,0,0,0,0,0,-1,1420,1618,0,0
203,-594,0,0,0,0,0,0,0,0,0,-1,1427,1618,0,0
210,-594,0,0,0,0,0,0,0,0,0,-1,1434,1618,0,0
217,-594,0,0,0,0,0,0,0,0,0,-1,1441,1618,0,0
224,-594,0,0,0,0,0,0,0,0,0,-1,1448,1618,0,0
231,-594,0,0,0,0,0,0,0,0,0,-1,1455,1618,0,0
238,-594,0,0,0,0,0,0,0,0,0,-1,1462,1618,0,0
245,-594,0,0,0,0,0,0,0,0,0,-1,1469,1618,0,0
252,-594,3.03674,1.20996,0,0,0,0,0,0,0,-1,1476,1618,3.0368,-1.20999
259,-594,4.79834,1.53113,0,0,0,0,0,0,0,-1,1483,1618,4.79837,-1.53118
266,-594,3.71606,2.68152,0,0,0,0,0,0,0,-1,1490,1618,3.71609,-2.68149
273,-594,9.7655,6.33557,0,0,0,0,0,0,0,-1,1497,1618,9.76555,-6.33554
280,-594,3.13281,0.911255,0,0,0,0,0,0,0,-1,1504,1618,3.13277,-0.911207
287,-594,4.42749,1.51563,0.126019,-0.161022,0.0144852,0.126748,-0.161751,0.0502936,0.166973,0.0438086,1511,1618,4.42747,-1.51564
294,-594,4.86377,2.89954,0.109597,-0.151445,0.0132703,0.11027,-0.152118,0.0506618,0.152131,0.0470475,1518,1618,4.8638,-2.89954
301,-594,5.64636,4.41284,0,0,0,0,0,0,0,-1,1525,1618,5.64641,-4.41289
308,-594,5.98193,5.73877,0,0,0,0,0,0,0,-1,1532,1618,5.98189,-5.73879
315,-594,6.9939,6.90051,0,0,0,0,0,0,0,-1,1539,1618,6.99394,-6.90046
322,-594,5.22778,7.07495,0,0,0,0,0,0,0,-1,1546,1618,5.22777,-7.07497
329,-594,4.24658,10.2184,0,0,0,0,0,0,0,-1,1553,1618,4.24653,-10.2184
336,-594,10.1353,4.66528,0,0,0,0,0,0,0,-1,1560,1618,10.1353,-4.66533
343,-594,10.5729,3.71228,0,0,0,0,0,0,0,-1,1567,1618,10.5729,-3.71232
350,-594,10.219,2.98792,0,0,0,0,0,0,0,-1,1574,1618,10.219,-2.98797
357,-594,9.83154,1.96326,0,0,0,0,0,0,0,-1,1581,1618,9.8315,-1.96321
364,-594,9.74939,0.700562,0,0,0,0,0,0,0,-1,1588,1618,9.74939,-0.700615
371,-594,6.68103,8.5835,0,0,0,0,0,0,0,-1,1595,1618,6.68109,-8.58346
378,-594,5.91687,9.74084,0,0,0,0,0,0,0,-1,1602,1618,5.91691,-9.74079
385,-594,6.28345,7.80298,0,0,0,0,0,0,0,-1,1609,1618,6.28346,-7.80294
392,-594,5.47498,9.04602,0,0,0,0,0,0,0,-1,1616,1618,5.47497,-9.04605
399,-594,5.52319,9.59937,0.00162321,-0.0109887,0.00630148,0.00423206,-0.0135976,0.392521,0.0107569,0.0397053,1623,1618,5.5232,-9.59935
406,-594,5.79272,9.64807,0.001252,-0.0107776,0.00619885,0.00387454,-0.0134001,0.400234,0.0104668,0.0259236,1630,1618,5.79267,-9.64802
413,-594,5.79297,9.57288,0.000753076,-0.0101352,0.00583268,0.00328758,-0.0126697,0.409919,0.00972929,0.0201857,1637,1618,5.79293,-9.57289
420,-594,5.78455,9.48096,0.000336885,-0.00939711,0.00541711,0.00275225,-0.0118125,0.41942,0.00893483,0.0163984,1644,1618,5.78455,-9.48098
427,-594,5.78064,9.43872,0.000118674,-0.00863876,0.00488769,0.00230218,-0.0108223,0.420135,0.00809214,0.0116829,1651,1618,5.78061,-9.43876
434,-594,5.75635,9.3208,-0.000106501,-0.00783782,0.00437647,0.00186709,-0.00981141,0.423647,0.00724395,0.0160754,1658,1618,5.75631,-9.32076
441,-594,5.75244,9.19336,-0.000269856,-0.00702446,0.00389104,0.00150516,-0.00879947,0.427981,0.00642705,0.0153314,1665,1618,5.75246,-9.19342
448,-594,5.77954,9.05969,-0.000346927,-0.00595249,0.00337088,0.00123417,-0.00753359,0.43858,0.00548031,0.0147318,1672,1618,5.77949,-9.05966
455,-594,5.77869,8.9303,-0.000422671,-0.00496941,0.00284892,0.000948761,-0.00634084,0.448646,0.00457638,0.0114038,1679,1618,5.77863,-8.93029
462,-594,5.77856,8.78882,-0.000267605,-0.00408107,0.00227135,0.000791242,-0.00513992,0.436223,0.00371853,0.0131147,1686,1618,5.77862,-8.78887
469,-594,5.77197,8.66077,1.75019e-05,-0.00291127,0.00162598,0.000741322,-0.00363509,0.418821,0.00270458,0.0118271,1693,1618,5.77203,-8.66076
476,-594,5.76282,8.54749,0.000205191,-0.00179518,0.000979389,0.000604853,-0.00219484,0.387446,0.00170108,0.0123209,1700,1618,5.76285,-8.54751
483,-594,5.76868,8.40686,0.000548853,-0.000620558,0.000342153,0.000641606,-0.000713311,0.264722,0.000782626,0.0148065,1707,1618,5.76869,-8.40681
490,-594,5.75317,8.24426,0.00102758,0.000473758,-0.000307426,0.00116442,0.000336917,-0.418786,0.000691881,0.012551,1714,1618,5.75319,-8.24423
497,-594,5.74854,8.0968,0.00121765,0.00131793,-0.00109413,0.00236307,0.000172509,-0.808296,0.00152114,0.00987169,1721,1618,5.74853,-8.09677
504,-594,5.7655,7.95996,0.000904255,0.00211135,-0.00186898,0.00347182,-0.000456217,-0.941576,0.00248064,0.0101074,1728,1618,5.76553,-7.95998
511,-594,5.78662,7.83154,0.000794242,0.00281293,-0.00253838,0.00453528,-0.00092811,-0.97463,0.00337569,0.0118499,1735,1618,5.78661,-7.83152
518,-594,5.78613,7.68359,0.000301214,0.00331701,-0.00321411,0.00535936,-0.00174113,-1.00473,0.00427321,0.0153783,1742,1618,5.78614,-7.68355
525,-594,5.79712,7.5354,-0.000652783,0.00388172,-0.00391902,0.00614207,-0.00291313,-1.04764,0.00533767,0.0274546,1749,1618,5.79714,-7.53538
532,-594,5.76123,7.37073,-0.00219894,0.00473145,-0.00496864,0.00732389,-0.00479138,-1.08989,0.00704551,0.0436756,1756,1618,5.7612,-7.37068
539,-594,5.72949,7.15308,0,0,0,0,0,0,0,-1,1763,1618,5.72944,-7.15307
546,-594,6.95813,7.48474,0,0,0,0,0,0,0,-1,1770,1618,6.95818,-7.48475
553,-594,3.69714,5.68762,0,0,0,0,0,0,0,-1,1777,1618,3.69715,-5.68764
560,-594,6.06616,4.44482,0,0,0,0,0,0,0,-1,1784,1618,6.06621,-4.44477
567,-594,5.97266,4.73303,0,0,0,0,0,0,0,-1,1791,1618,5.97271,-4.73309
574,-594,5.9906,4.96326,0,0,0,0,0,0,0,-1,1798,1618,5.99065,-4.96326
581,-594,0,0,0,0,0,0,0,0,0,-1,1805,1618,0,0
588,-594,0,0,0,0,0,0,0,0,0,-1,1812,1618,0,0
595,-594,0,0,0,0,0,0,0,0,0,-1,1819,1618,0,0
602,-594,0,0,0,0,0,0,0,0,0,-1,1826,1618,0,0
609,-594,0,0,0,0,0,0,0,0,0,-1,1833,1618,0,0
616,-594,0,0,0,0,0,0,0,0,0,-1,1840,1618,0,0
623,-594,0,0,0,0,0,0,0,0,0,-1,1847,1618,0,0
630,-594,0,0,0,0,0,0,0,0,0,-1,1854,1618,0,0
637,-594,0,0,0,0,0,0,0,0,0,-1,1861,1618,0,0
644,-594,0,0,0,0,0,0,0,0,0,-1,1868,1618,0,0
651,-594,0,0,0,0,0,0,0,0,0,-1,1875,1618,0,0
658,-594,0,0,0,0,0,0,0,0,0,-1,1882,1618,0,0
665,-594,0,0,0,0,0,0,0,0,0,-1,1889,1618,0,0
672,-594,0,0,0,0,0,0,0,0,0,-1,1896,1618,0,0
679,-594,0,0,0,0,0,0,0,0,0,-1,1903,1618,0,0
686,-594,0,0,0,0,0,0,0,0,0,-1,1910,1618,0,0
693,-594,0,0,0,0,0,0,0,0,0,-1,1917,1618,0,0
700,-594,0,0,0,0,0,0,0,0,0,-1,1924,1618,0,0
707,-594,0,0,0,0,0,0,0,0,0,-1,1931,1618,0,0
714,-594,0,0,0,0,0,0,0,0,0,-1,1938,1618,0,0
721,-594,0,0,0,0,0,0,0,0,0,-1,1945,1618,0,0
728,-594,0,0,0,0,0,0,0,0,0,-1,1952,1618,0,0
735,-594,0,0,0,0,0,0,0,0,0,-1,1959,1618,0,0
742,-594,0,0,0,0,0,0,0,0,0,-1,1966,1618,0,0
749,-594,0,0,0,0,0,0,0,0,0,-1,1973,1618,0,0
756,-594,0,0,0,0,0,0,0,0,0,-1,1980,1618,0,0
763,-594,0,0,0,0,0,0,0,0,0,-1,1987,1618,0,0
770,-594,0,0,0,0,0,0,0,0,0,-1,1994,1618,0,0
777,-594,0,0,0,0,0,0,0,0,0,-1,2001,1618,0,0
784,-594,0,0,0,0,0,0,0,0,0,-1,2008,1618,0,0
791,-594,0,0,0,0,0,0,0,0,0,-1,2015,1618,0,0
798,-594,0,0,0,0,0,0,0,0,0,-1,2022,1618,0,0
805,-594,0,0,0,0,0,0,0,0,0,-1,2029,1618,0,0
812,-594,0,0,0,0,0,0,0,0,0,-1,2036,1618,0,0
-700,-601,0,0,0,0,0,0,0,0,0,-1,524,1625,0,0
-693,-601,0,0,0,0,0,0,0,0,0,-1,531,1625,0,0
-686,-601,0,0,0,0,0,0,0,0,0,-1,538,1625,0,0
-679,-601,0,0,0,0,0,0,0,0,0,-1,545,1625,0,0
-672,-601,0,0,0,0,0,0,0,0,0,-1,552,1625,0,0
-665,-601,0,0,0,0,0,0,0,0,0,-1,559,1625,0,0
-658,-601,0,0,0,0,0,0,0,0,0,-1,566,1625,0,0
-651,-601,0,0,0,0,0,0,0,0,0,-1,573,1625,0,0
-644,-601,0,0,0,0,0,0,0,0,0,-1,580,1625,0,0
-637,-601,0,0,0,0,0,0,0,0,0,-1,587,1625,0,0
-630,-601,0,0,0,0,0,0,0,0,0,-1,594,1625,0,0
-623,-601,0,0,0,0,0,0,0,0,0,-1,601,1625,0,0
-616,-601,0,0,0,0,0,0,0,0,0,-1,608,1625,0,0
-609,-601,0,0,0,0,0,0,0,0,0,-1,615,1625,0,0
-602,-601,0,0,0,0,0,0,0,0,0,-1,622,1625,0,0
-595,-601,0,0,0,0,0,0,0,0,0,-1,629,1625,0,0
-588,-601,0,0,0,0,0,0,0,0,0,-1,636,1625,0,0
-581,-601,0,0,0,0,0,0,0,0,0,-1,643,1625,0,0
-574,-601,0,0,0,0,0,0,0,0,0,-1,650,1625,0,0
-567,-601,0,0,0,0,0,0,0,0,0,-1,657,1625,0,0
-560,-601,0,0,0,0,0,0,0,0,0,-1,664,1625,0,0
-553,-601,0,0,0,0,0,0,0,0,0,-1,671,1625,0,0
-546,-601,0,0,0,0,0,0,0,0,0,-1,678,1625,0,0
-539,-601,0,0,0,0,0,0,0,0,0,-1,685,1625,0,0
-532,-601,0,0,0,0,0,0,0,0,0,-1,692,1625,0,0
-525,-601,0,0,0,0,0,0,0,0,0,-1,699,1625,0,0
-518,-601,0,0,0,0,0,0,0,0,0,-1,706,1625,0,0
-511,-601,0,0,0,0,0,0,0,0,0,-1,713,1625,0,0
-504,-601,0,0,0,0,0,0,0,0,0,-1,720,1625,0,0
-497,-601,0,0,0,0,0,0,0,0,0,-1,727,1625,0,0
-490,-601,0,0,0,0,0,0,0,0,0,-1,734,1625,0,0
-483,-601,0,0,0,0,0,0,0,0,0,-1,741,1625,0,0
-476,-601,0,0,0,0,0,0,0,0,0,-1,748,1625,0,0
-469,-601,0,0,0,0,0,0,0,0,0,-1,755,1625,0,0
-462,-601,0,0,0,0,0,0,0,0,0,-1,762,1625,0,0
-455,-601,0,0,0,0,0,0,0,0,0,-1,769,1625,0,0
-448,-601,-7.07623,2.7616,0.164402,0.154939,0.206949,0.366674,-0.0473328,0.773968,0.261658,0.0440161,776,1625,-7.07626,-2.76161
-441,-601,-6.06689,3.33447,0.164855,0.14893,0.194407,0.351463,-0.0376777,0.764931,0.247824,0.0444586,783,1625,-6.06691,-3.33448
-434,-601,-5.02655,3.8468,0.158193,0.140861,0.177441,0.32718,-0.0281255,0.760998,0.228074,0.0438561,790,1625,-5.02657,-3.84674
-427,-601,-4.02283,4.48096,0.14326,0.127941,0.157307,0.293094,-0.0218924,0.761071,0.203087,0.0432277,797,1625,-4.02281,-4.48101
-420,-601,-3.30377,5.29541,0.123725,0.1118,0.135585,0.253479,-0.0179538,0.763423,0.175277,0.0412639,804,1625,-3.30375,-5.29542
-413,-601,-2.62531,5.8894,0.103179,0.0939229,0.113772,0.212417,-0.0153155,0.76507,0.146983,0.0422822,811,1625,-2.62529,-5.88946
-406,-601,-1.82037,6.56201,0,0,0,0,0,0,0,-1,818,1625,-1.82038,-6.56201
-399,-601,3.04999,5.14001,0,0,0,0,0,0,0,-1,825,1625,3.05001,-5.14006
-392,-601,2.59387,5.89478,0,0,0,0,0,0,0,-1,832,1625,2.59385,-5.8948
-385,-601,2.14032,6.41699,0,0,0,0,0,0,0,-1,839,1625,2.1403,-6.41704
-378,-601,1.93994,6.74084,0.0193273,0.0163135,0.0218371,0.0397094,-0.00406858,0.75095,0.0279281,0.0294697,846,1625,1.93997,-6.74086
-371,-601,1.92133,6.84351,0.00869277,0.00407795,0.0104705,0.0171071,-0.00433641,0.676946,0.0130919,0.0143309,853,1625,1.92134,-6.84348
-364,-601,1.93323,6.99365,0.0027995,-0.00223341,0.00342248,0.00453109,-0.003965,0.468394,0.00490885,0.0101606,860,1625,1.9332,-6.99369
-357,-601,1.93323,7.15369,0.00121789,-0.00491451,0.000246982,0.00122782,-0.00492445,0.0401881,0.00375967,0.00950073,867,1625,1.9332,-7.15365
-350,-601,1.97101,7.36072,0.00116476,-0.00450198,-9.17092e-06,0.00116478,-0.004502,-0.00161837,0.00345566,0.018445,874,1625,1.97098,-7.36073
-343,-601,1.9267,7.51672,0.00126812,-0.00391813,-0.000117718,0.00127079,-0.0039208,-0.0226826,0.00312482,0.0196842,881,1625,1.92672,-7.51667
-336,-601,1.90045,7.62073,0.00112153,-0.00312517,-0.000478035,0.00117467,-0.00317831,-0.11072,0.00260043,0.0160665,888,1625,1.90048,-7.62073
-329,-601,1.9173,7.78003,0.000601443,-0.00267865,-0.00119297,0.00098943,-0.00306664,-0.314439,0.00244199,0.0139107,895,1625,1.91728,-7.78
-322,-601,1.95032,7.95508,0.00016711,-0.00236163,-0.00182481,0.00112278,-0.0033173,-0.482434,0.00266581,0.0115589,902,1625,1.95033,-7.95504
-315,-601,1.93671,8.07922,-0.000498963,-0.00256894,-0.00260923,0.00127305,-0.00434096,-0.596584,0.00339875,0.0117836,909,1625,1.93669,-8.0792
-308,-601,1.93036,8.22083,-0.0012467,-0.00354134,-0.0035526,0.00133925,-0.00612729,-0.629209,0.00459678,0.0112449,916,1625,1.93039,-8.22086
-301,-601,1.94879,8.37512,-0.0019637,-0.00476869,-0.00465819,0.00149855,-0.00823094,-0.639174,0.00604901,0.0095189,923,1625,1.94879,-8.37517
-294,-601,1.94751,8.51038,-0.00238995,-0.00645788,-0.00575555,0.00168046,-0.0105283,-0.615551,0.00764086,0.0093854,930,1625,1.94753,-8.51041
-287,-601,1.94293,8.6405,-0.00275192,-0.0080616,-0.00727736,0.00233973,-0.0131532,-0.610496,0.00964382,0.00908133,937,1625,1.94292,-8.64048
-280,-601,1.95508,8.77588,-0.00307208,-0.0100028,-0.00874161,0.00286597,-0.0159409,-0.596688,0.0117002,0.00953864,944,1625,1.95507,-8.77588
-273,-601,1.97797,8.90332,-0.00411737,-0.0130616,-0.0108747,0.00316886,-0.0203479,-0.590318,0.0147355,0.0101971,951,1625,1.97796,-8.9033
-266,-601,1.99744,9.02051,-0.00478685,-0.0156496,-0.0128375,0.00372095,-0.0241574,-0.585274,0.0174778,0.0121535,958,1625,1.99744,-9.02056
-259,-601,2.03168,9.06519,-0.00786497,-0.0214053,-0.0167673,0.0034474,-0.0327176,-0.593522,0.023047,0.0219509,965,1625,2.03167,-9.06515
-252,-601,2.0332,9.47107,0,0,0,0,0,0,0,-1,972,1625,2.03321,-9.47111
-245,-601,2.09113,9.37195,-0.0171612,-0.0361851,-0.0270672,0.00201677,-0.0553631,-0.616429,0.037599,0.0464958,979,1625,2.0911,-9.37189
-238,-601,2.37238,9.57019,-0.0225332,-0.0422813,-0.0335038,0.00252124,-0.0673357,-0.642097,0.0457541,0.0496032,986,1625,2.37235,-9.5702
-231,-601,2.62689,9.79712,0,0,0,0,0,0,0,-1,993,1625,2.62692,-9.79714
-224,-601,5.13934,13.0479,0,0,0,0,0,0,0,-1,1000,1625,5.13935,-13.0479
-217,-601,3.39429,10.3898,0,0,0,0,0,0,0,-1,1007,1625,3.39431,-10.3898
-210,-601,2.92413,9.79773,0,0,0,0,0,0,0,-1,1014,1625,2.92411,-9.79773
-203,-601,-0.188416,9.27478,0,0,0,0,0,0,0,-1,1021,1625,-0.188444,-9.27478
-196,-601,-0.153564,9.7439,-0.0714013,-0.0764229,-0.0605836,-0.0132765,-0.134548,-0.764688,0.0856168,0.0485191,1028,1625,-0.15352,-9.74394
-189,-601,-0.305176,10.1309,-0.0803636,-0.079855,-0.062837,-0.0172718,-0.142947,-0.787422,0.0900942,0.0463135,1035,1625,-0.305225,-10.1309
-182,-601,-0.712036,10.0819,-0.0903347,-0.0835807,-0.0636884,-0.0231798,-0.150736,-0.811885,0.0937242,0.0446127,1042,1625,-0.71209,-10.082
-175,-601,-1.69299,10.2773,-0.101303,-0.0872156,-0.0634622,-0.0304072,-0.158111,-0.840666,0.0968755,0.0475864,1049,1625,-1.69304,-10.2774
-168,-601,-2.64697,10.6064,0,0,0,0,0,0,0,-1,1056,1625,-2.64694,-10.6065
-161,-601,-4.39587,11.1855,-0.128289,-0.101866,-0.0602042,-0.0534409,-0.176714,-0.893405,0.104648,0.0497509,1063,1625,-4.39584,-11.1856
-154,-601,-5.76953,11.7451,0,0,0,0,0,0,0,-1,1070,1625,-5.76957,-11.7452
-147,-601,-6.63916,12.6569,0,0,0,0,0,0,0,-1,1077,1625,-6.63918,-12.6569
-140,-601,-7.2052,13.7157,0,0,0,0,0,0,0,-1,1084,1625,-7.20524,-13.7157
-133,-601,3.54932,10.5123,0,0,0,0,0,0,0,-1,1091,1625,3.54929,-10.5123
-126,-601,4.15466,12.4275,0,0,0,0,0,0,0,-1,1098,1625,4.1547,-12.4275
-119,-601,1.22485,9.43457,0,0,0,0,0,0,0,-1,1105,1625,1.22489,-9.43456
-112,-601,0,0,0,0,0,0,0,0,0,-1,1112,1625,0,0
-105,-601,0,0,0,0,0,0,0,0,0,-1,1119,1625,0,0
-98,-601,0,0,0,0,0,0,0,0,0,-1,1126,1625,0,0
-91,-601,0,0,0,0,0,0,0,0,0,-1,1133,1625,0,0
-84,-601,0,0,0,0,0,0,0,0,0,-1,1140,1625,0,0
-77,-601,0,0,0,0,0,0,0,0,0,-1,1147,1625,0,0
-70,-601,0,0,0,0,0,0,0,0,0,-1,1154,1625,0,0
-63,-601,0,0,0,0,0,0,0,0,0,-1,1161,1625,0,0
-56,-601,0,0,0,0,0,0,0,0,0,-1,1168,1625,0,0
-49,-601,0,0,0,0,0,0,0,0,0,-1,1175,1625,0,0
-42,-601,0,0,0,0,0,0,0,0,0,-1,1182,1625,0,0
-35,-601,0,0,0,0,0,0,0,0,0,-1,1189,1625,0,0
-28,-601,0,0,0,0,0,0,0,0,0,-1,1196,1625,0,0
-21,-601,0,0,0,0,0,0,0,0,0,-1,1203,1625,0,0
-14,-601,0,0,0,0,0,0,0,0,0,-1,1210,1625,0,0
-7,-601,0,0,0,0,0,0,0,0,0,-1,1217,1625,0,0
0,-601,0,0,0,0,0,0,0,0,0,-1,1224,1625,0,0
7,-601,0,0,0,0,0,0,0,0,0,-1,1231,1625,0,0
14,-601,0,0,0,0,0,0,0,0,0,-1,1238,1625,0,0
21,-601,0,0,0,0,0,0,0,0,0,-1,1245,1625,0,0
28,-601,0,0,0,0,0,0,0,0,0,-1,1252,1625,0,0
35,-601,0,0,0,0,0,0,0,0,0,-1,1259,1625,0,0
42,-601,0,0,0,0,0,0,0,0,0,-1,1266,1625,0,0
49,-601,0,0,0,0,0,0,0,0,0,-1,1273,1625,0,0
56,-601,0,0,0,0,0,0,0,0,0,-1,1280,1625,0,0
63,-601,0,0,0,0,0,0,0,0,0,-1,1287,1625,0,0
70,-601,0,0,0,0,0,0,0,0,0,-1,1294,1625,0,0
77,-601,0,0,0,0,0,0,0,0,0,-1,1301,1625,0,0
84,-601,0,0,0,0,0,0,0,0,0,-1,1308,1625,0,0
91,-601,0,0,0,0,0,0,0,0,0,-1,1315,1625,0,0
98,-601,0,0,0,0,0,0,0,0,0,-1,1322,1625,0,0
105,-601,0,0,0,0,0,0,0,0,0,-1,1329,1625,0,0
112,-601,0,0,0,0,0,0,0,0,0,-1,1336,1625,0,0
119,-601,0,0,0,0,0,0,0,0,0,-1,1343,1625,0,0
126,-601,0,0,0,0,0,0,0,0,0,-1,1350,1625,0,0
133,-601,0,0,0,0,0,0,0,0,0,-1,1357,1625,0,0
140,-601,0,0,0,0,0,0,0,0,0,-1,1364,1625,0,0
147,-601,0,0,0,0,0,0,0,0,0,-1,1371,1625,0,0
154,-601,0,0,0,0,0,0,0,0,0,-1,1378,1625,0,0
161,-601,0,0,0,0,0,0,0,0,0,-1,1385,1625,0,0
168,-601,0,0,0,0,0,0,0,0,0,-1,1392,1625,0,0
175,-601,0,0,0,0,0,0,0,0,0,-1,1399,1625,0,0
182,-601,0,0,0,0,0,0,0,0,0,-1,1406,1625,0,0
189,-601,0,0,0,0,0,0,0,0,0,-1,1413,1625,0,0
196,-601,0,0,0,0,0,0,0,0,0,-1,1420,1625,0,0
203,-601,0,0,0,0,0,0,0,0,0,-1,1427,1625,0,0
210,-601,0,0,0,0,0,0,0,0,0,-1,1434,1625,0,0
217,-601,0,0,0,0,0,0,0,0,0,-1,1441,1625,0,0
224,-601,0,0,0,0,0,0,0,0,0,-1,1448,1625,0,0
231,-601,-0.0371094,0.525879,0,0,0,0,0,0,0,-1,1455,1625,-0.0371518,-0.525824
238,-601,2.03369,-1.32861,0,0,0,0,0,0,0,-1,1462,1625,2.03364,1.32858
245,-601,2.71375,2.44983,0,0,0,0,0,0,0,-1,1469,1625,2.71371,-2.44979
252,-601,4.66943,2.28381,0,0,0,0,0,0,0,-1,1476,1625,4.66947,-2.28376
259,-601,6.42712,2.61987,0,0,0,0,0,0,0,-1,1483,1625,6.42711,-2.61985
266,-601,6.75317,1.68701,0,0,0,0,0,0,0,-1,1490,1625,6.75323,-1.687
273,-601,5.4314,2.92053,0,0,0,0,0,0,0,-1,1497,1625,5.43144,-2.92051
280,-601,4.64722,1.17786,0,0,0,0,0,0,0,-1,1504,1625,4.64722,-1.1779
287,-601,5.32532,2.6217,0.119227,-0.145107,0.0147943,0.120053,-0.145933,0.0557363,0.153809,0.0438467,1511,1625,5.32535,-2.62171
294,-601,5.97693,4.22693,0.104512,-0.132947,0.0136133,0.10529,-0.133725,0.0570799,0.138321,0.0451872,1518,1625,5.97697,-4.22694
301,-601,6.5387,5.63672,0.0913725,-0.121826,0.0124825,0.0921009,-0.122554,0.0582835,0.124346,0.0460674,1525,1625,6.53873,-5.6367
308,-601,7.32739,7.16577,0,0,0,0,0,0,0,-1,1532,1625,7.32741,-7.16577
315,-601,5.0188,8.9563,0,0,0,0,0,0,0,-1,1539,1625,5.01885,-8.9563
322,-601,4.13147,11.0045,0,0,0,0,0,0,0,-1,1546,1625,4.13142,-11.0045
329,-601,4.60413,10.5388,0,0,0,0,0,0,0,-1,1553,1625,4.60415,-10.5388
336,-601,5.0769,10.073,0,0,0,0,0,0,0,-1,1560,1625,5.07687,-10.073
343,-601,11.1404,3.14575,0,0,0,0,0,0,0,-1,1567,1625,11.1404,-3.1458
350,-601,10.9462,2.37769,0,0,0,0,0,0,0,-1,1574,1625,10.9461,-2.37764
357,-601,10.7518,1.6095,0,0,0,0,0,0,0,-1,1581,1625,10.7518,-1.60948
364,-601,5.33643,9.74426,0,0,0,0,0,0,0,-1,1588,1625,5.33637,-9.74429
371,-601,6.0625,10.528,0,0,0,0,0,0,0,-1,1595,1625,6.06248,-10.528
378,-601,5.82422,10.0123,0,0,0,0,0,0,0,-1,1602,1625,5.82418,-10.0123
385,-601,5.69458,9.89929,0,0,0,0,0,0,0,-1,1609,1625,5.69459,-9.89933
392,-601,5.45313,9.51685,0.00130289,-0.00814021,0.00574238,0.00401559,-0.0108529,0.441324,0.00888172,0.0429211,1616,1625,5.45313,-9.51685
399,-601,5.56531,9.79614,0.00136958,-0.00817589,0.00507483,0.0035634,-0.0103697,0.408033,0.0083581,0.0203703,1623,1625,5.56529,-9.7961
406,-601,5.62927,9.72412,0.00124672,-0.00789738,0.00463626,0.00318609,-0.00983675,0.396185,0.00783875,0.0137809,1630,1625,5.62923,-9.72414
413,-601,5.6217,9.62256,0.0009326,-0.00723641,0.00417117,0.00268606,-0.00898987,0.397948,0.007061,0.0125044,1637,1625,5.62173,-9.62257
420,-601,5.62097,9.55554,0.000641953,-0.00654724,0.00364604,0.00216739,-0.00807267,0.396251,0.00623118,0.0103844,1644,1625,5.62102,-9.55556
427,-601,5.64355,9.44482,0.000478177,-0.00589625,0.00309634,0.00173457,-0.00715265,0.385469,0.0054396,0.0146929,1651,1625,5.64357,-9.44477
434,-601,5.63,9.32898,0.000252803,-0.00523286,0.00260056,0.00128966,-0.00626971,0.379389,0.00466944,0.0151609,1658,1625,5.63004,-9.32897
441,-601,5.63879,9.17908,7.65019e-05,-0.00457049,0.00216536,0.000929073,-0.00542306,0.375092,0.00396154,0.0158957,1665,1625,5.63881,-9.1791
448,-601,5.65125,9.04382,-1.38808e-05,-0.00368827,0.00173378,0.000675041,-0.00437719,0.378223,0.00316721,0.0139124,1672,1625,5.65123,-9.04378
455,-601,5.65955,8.91589,-0.000122416,-0.00289115,0.00131613,0.000403368,-0.00341694,0.380068,0.00242363,0.0121541,1679,1625,5.65952,-8.9159
462,-601,5.6615,8.78223,-1.83101e-05,-0.00216958,0.000887146,0.000300336,-0.00248822,0.34483,0.00176745,0.0106364,1686,1625,5.66147,-8.78226
469,-601,5.65735,8.66504,0.000217362,-0.00119359,0.000417547,0.000331667,-0.0013079,0.267208,0.00100097,0.0107349,1693,1625,5.6573,-8.66499
476,-601,5.63831,8.54431,0.000382672,-0.000261463,-1.19925e-05,0.000382895,-0.000261686,-0.0186095,0.000374336,0.0129741,1700,1625,5.63835,-8.54426
483,-601,5.63232,8.40015,0.000650753,0.000721275,-0.000416295,0.0011038,0.000268229,-0.827648,0.000664747,0.0160754,1707,1625,5.63227,-8.40018
490,-601,5.62305,8.25464,0.00106044,0.00167904,-0.00083984,0.00226473,0.000474757,-0.961834,0.00137908,0.0118225,1714,1625,5.62306,-8.2546
497,-601,5.6449,8.10791,0.00125171,0.00243563,-0.00141039,0.00337325,0.000314092,-0.984091,0.00215179,0.00907248,1721,1625,5.64495,-8.10795
504,-601,5.65552,7.96252,0.0010146,0.00305117,-0.0020784,0.00434732,-0.00028156,-1.01318,0.00299648,0.0121698,1728,1625,5.65547,-7.96257
511,-601,5.646,7.83264,0.00099843,0.00369103,-0.00272053,0.00538015,-0.000690694,-1.01516,0.00383777,0.0221236,1735,1625,5.64596,-7.83261
518,-601,5.63501,7.67847,0.000509269,0.00424927,-0.00341194,0.00627005,-0.00151152,-1.03608,0.00476448,0.0327292,1742,1625,5.63497,-7.67842
525,-601,5.66077,7.55359,-0.000501346,0.00496077,-0.0043482,0.00736445,-0.00290502,-1.06581,0.00611258,0.042996,1749,1625,5.66077,-7.55358
532,-601,5.66479,7.46655,0,0,0,0,0,0,0,-1,1756,1625,5.66482,-7.4666
539,-601,5.98364,2.99072,0,0,0,0,0,0,0,-1,1763,1625,5.98358,-2.99068
546,-601,6.56873,3.62354,0,0,0,0,0,0,0,-1,1770,1625,6.56867,-3.62352
553,-601,7.03015,4.25049,0,0,0,0,0,0,0,-1,1777,1625,7.03011,-4.25048
560,-601,7.50745,4.83374,0,0,0,0,0,0,0,-1,1784,1625,7.50744,-4.83376
567,-601,7.82043,3.83301,0,0,0,0,0,0,0,-1,1791,1625,7.82041,-3.83303
574,-601,0,0,0,0,0,0,0,0,0,-1,1798,1625,0,0
581,-601,0,0,0,0,0,0,0,0,0,-1,1805,1625,0,0
588,-601,0,0,0,0,0,0,0,0,0,-1,1812,1625,0,0
595,-601,0,0,0,0,0,0,0,0,0,-1,1819,1625,0,0
602,-601,0,0,0,0,0,0,0,0,0,-1,1826,1625,0,0
609,-601,0,0,0,0,0,0,0,0,0,-1,1833,1625,0,0
616,-601,0,0,0,0,0,0,0,0,0,-1,1840,1625,0,0
623,-601,0,0,0,0,0,0,0,0,0,-1,1847,1625,0,0
630,-601,0,0,0,0,0,0,0,0,0,-1,1854,1625,0,0
637,-601,0,0,0,0,0,0,0,0,0,-1,1861,1625,0,0
644,-601,0,0,0,0,0,0,0,0,0,-1,1868,1625,0,0
651,-601,0,0,0,0,0,0,0,0,0,-1,1875,1625,0,0
658,-601,0,0,0,0,0,0,0,0,0,-1,1882,1625,0,0
665,-601,0,0,0,0,0,0,0,0,0,-1,1889,1625,0,0
672,-601,0,0,0,0,0,0,0,0,0,-1,1896,1625,0,0
679,-601,0,0,0,0,0,0,0,0,0,-1,1903,1625,0,0
686,-601,0,0,0,0,0,0,0,0,0,-1,1910,1625,0,0
693,-601,0,0,0,0,0,0,0,0,0,-1,1917,1625,0,0
700,-601,0,0,0,0,0,0,0,0,0,-1,1924,1625,0,0
707,-601,0,0,0,0,0,0,0,0,0,-1,1931,1625,0,0
714,-601,0,0,0,0,0,0,0,0,0,-1,1938,1625,0,0
721,-601,0,0,0,0,0,0,0,0,0,-1,1945,1625,0,0
728,-601,0,0,0,0,0,0,0,0,0,-1,1952,1625,0,0
735,-601,0,0,0,0,0,0,0,0,0,-1,1959,1625,0,0
742,-601,0,0,0,0,0,0,0,0,0,-1,1966,1625,0,0
749,-601,0,0,0,0,0,0,0,0,0,-1,1973,1625,0,0
756,-601,0,0,0,0,0,0,0,0,0,-1,1980,1625,0,0
763,-601,0,0,0,0,0,0,0,0,0,-1,1987,1625,0,0
770,-601,0,0,0,0,0,0,0,0,0,-1,1994,1625,0,0
777,-601,0,0,0,0,0,0,0,0,0,-1,2001,1625,0,0
784,-601,0,0,0,0,0,0,0,0,0,-1,2008,1625,0,0
791,-601,0,0,0,0,0,0,0,0,0,-1,2015,1625,0,0
798,-601,0,0,0,0,0,0,0,0,0,-1,2022,1625,0,0
805,-601,0,0,0,0,0,0,0,0,0,-1,2029,1625,0,0
812,-601,0,0,0,0,0,0,0,0,0,-1,2036,1625,0,0
-700,-608,0,0,0,0,0,0,0,0,0,-1,524,1632,0,0
-693,-608,0,0,0,0,0,0,0,0,0,-1,531,1632,0,0
-686,-608,0,0,0,0,0,0,0,0,0,-1,538,1632,0,0
-679,-608,0,0,0,0,0,0,0,0,0,-1,545,1632,0,0
-672,-608,0,0,0,0,0,0,0,0,0,-1,552,1632,0,0
-665,-608,0,0,0,0,0,0,0,0,0,-1,559,1632,0,0
-658,-608,0,0,0,0,0,0,0,0,0,-1,566,1632,0,0
-651,-608,0,0,0,0,0,0,0,0,0,-1,573,1632,0,0
-644,-608,0,0,0,0,0,0,0,0,0,-1,580,1632,0,0
-637,-608,0,0,0,0,0,0,0,0,0,-1,587,1632,0,0
-630,-608,0,0,0,0,0,0,0,0,0,-1,594,1632,0,0
-623,-608,0,0,0,0,0,0,0,0,0,-1,601,1632,0,0
-616,-608,0,0,0,0,0,0,0,0,0,-1,608,1632,0,0
-609,-608,0,0,0,0,0,0,0,0,0,-1,615,1632,0,0
-602,-608,0,0,0,0,0,0,0,0,0,-1,622,1632,0,0
-595,-608,0,0,0,0,0,0,0,0,0,-1,629,1632,0,0
-588,-608,0,0,0,0,0,0,0,0,0,-1,636,1632,0,0
-581,-608,0,0,0,0,0,0,0,0,0,-1,643,1632,0,0
-574,-608,0,0,0,0,0,0,0,0,0,-1,650,1632,0,0
-567,-608,0,0,0,0,0,0,0,0,0,-1,657,1632,0,0
-560,-608,0,0,0,0,0,0,0,0,0,-1,664,1632,0,0
-553,-608,0,0,0,0,0,0,0,0,0,-1,671,1632,0,0
-546,-608,0,0,0,0,0,0,0,0,0,-1,678,1632,0,0
-539,-608,0,0,0,0,0,0,0,0,0,-1,685,1632,0,0
-532,-608,0,0,0,0,0,0,0,0,0,-1,692,1632,0,0
-525,-608,0,0,0,0,0,0,0,0,0,-1,699,1632,0,0
-518,-608,0,0,0,0,0,0,0,0,0,-1,706,1632,0,0
-511,-608,0,0,0,0,0,0,0,0,0,-1,713,1632,0,0
-504,-608,0,0,0,0,0,0,0,0,0,-1,720,1632,0,0
-497,-608,0,0,0,0,0,0,0,0,0,-1,727,1632,0,0
-490,-608,0,0,0,0,0,0,0,0,0,-1,734,1632,0,0
-483,-608,0,0,0,0,0,0,0,0,0,-1,741,1632,0,0
-476,-608,0,0,0,0,0,0,0,0,0,-1,748,1632,0,0
-469,-608,0,0,0,0,0,0,0,0,0,-1,755,1632,0,0
-462,-608,0,0,0,0,0,0,0,0,0,-1,762,1632,0,0
-455,-608,0,0,0,0,0,0,0,0,0,-1,769,1632,0,0
-448,-608,0,0,0,0,0,0,0,0,0,-1,776,1632,0,0
-441,-608,-7.34601,2.78052,0,0,0,0,0,0,0,-1,783,1632,-7.346,-2.78056
-434,-608,-6.34558,3.27405,0.191659,0.152087,0.192857,0.365742,-0.021996,0.73428,0.251481,0.0454838,790,1632,-6.34555,-3.27406
-427,-608,-5.05603,3.92859,0.171756,0.138479,0.171514,0.327437,-0.0172013,0.737045,0.224245,0.0460905,797,1632,-5.05602,-3.92857
-420,-608,-3.84589,4.5249,0.147474,0.120739,0.148965,0.28367,-0.0154574,0.74065,0.19447,0.0470834,804,1632,-3.8459,-4.52494
-413,-608,-4.56964,4.09717,0,0,0,0,0,0,0,-1,811,1632,-4.56966,-4.09723
-406,-608,-1.37885,2.32397,0,0,0,0,0,0,0,-1,818,1632,-1.37883,-2.324
-399,-608,-2.31787,6.57324,0,0,0,0,0,0,0,-1,825,1632,-2.31784,-6.57323
-392,-608,2.93091,5.79126,0,0,0,0,0,0,0,-1,832,1632,2.93092,-5.79123
-385,-608,2.25818,6.63391,0,0,0,0,0,0,0,-1,839,1632,2.25818,-6.63394
-378,-608,2.19641,6.88586,0.0257948,0.017602,0.0267621,0.0487722,-0.00537537,0.709454,0.0344467,0.0477665,846,1632,2.19641,-6.88586
-371,-608,2.02582,6.99463,0.0123694,0.00400088,0.0126763,0.0215341,-0.00516386,0.625986,0.0163514,0.0385344,853,1632,2.02582,-6.99467
-364,-608,2.0733,6.95715,0.00451476,-0.0032352,0.00364646,0.0059607,-0.00468114,0.377512,0.00615885,0.0158539,860,1632,2.07329,-6.95715
-357,-608,2.08319,7.14905,0.00238988,-0.0059282,-0.000225606,0.00239599,-0.00593432,-0.0270958,0.00495201,0.0123584,867,1632,2.08319,-7.149
-350,-608,2.09467,7.32288,0.00207393,-0.00503503,-0.000604678,0.002125,-0.0050861,-0.084252,0.00427873,0.0173601,874,1632,2.09467,-7.32287
-343,-608,2.08502,7.48022,0.00194483,-0.00405534,-0.00077296,0.00204281,-0.00415331,-0.126081,0.00364585,0.0205146,881,1632,2.085,-7.48024
-336,-608,2.06799,7.61938,0.00169179,-0.00283135,-0.00100889,0.00190662,-0.00304618,-0.209804,0.00288462,0.0134573,888,1632,2.06801,-7.61941
-329,-608,2.05957,7.77393,0.00115172,-0.0019417,-0.00144758,0.00172345,-0.00251344,-0.376152,0.0024603,0.0124284,895,1632,2.0596,-7.77391
-322,-608,2.06396,7.92603,0.000672191,-0.00133656,-0.00186552,0.00178653,-0.0024509,-0.538456,0.00245648,0.0126619,902,1632,2.06399,-7.92601
-315,-608,2.08984,8.06396,2.14984e-05,-0.001285,-0.00232968,0.00178778,-0.00305128,-0.648707,0.0028254,0.0112301,909,1632,2.08986,-8.06393
-308,-608,2.07892,8.22351,-0.000649369,-0.00194218,-0.00286283,0.00163912,-0.00423067,-0.674364,0.00349729,0.011696,916,1632,2.07889,-8.22352
-301,-608,2.08282,8.39001,-0.00117237,-0.00285493,-0.00345908,0.00154626,-0.00557356,-0.66611,0.00432428,0.0102162,923,1632,2.08281,-8.38999
-294,-608,2.09149,8.53137,-0.00133566,-0.00420177,-0.00401208,0.00149161,-0.00702905,-0.613868,0.00525429,0.00956568,930,1632,2.09147,-8.53132
-287,-608,2.08466,8.64575,-0.00139434,-0.00553227,-0.00484801,0.00180773,-0.00873435,-0.583716,0.00650969,0.00946945,937,1632,2.08468,-8.64574
-280,-608,2.08472,8.77087,-0.00140316,-0.00709027,-0.00565495,0.00208292,-0.0105763,-0.552438,0.00783801,0.00817813,944,1632,2.08469,-8.77086
-273,-608,2.08124,8.91675,-0.00182386,-0.00937903,-0.00694072,0.00230069,-0.0135036,-0.536184,0.00985918,0.00826755,951,1632,2.08124,-8.91672
-266,-608,2.09821,9.06067,-0.00199474,-0.0112811,-0.00808862,0.00268865,-0.0159645,-0.524842,0.0116432,0.00819602,958,1632,2.09823,-9.06065
-259,-608,2.11273,9.15527,-0.0038842,-0.015283,-0.0106409,0.00248749,-0.0216547,-0.539532,0.0153331,0.0110143,965,1632,2.11276,-9.15533
-252,-608,2.08984,9.2583,-0.00680747,-0.0207191,-0.0138239,0.00171194,-0.0292385,-0.552306,0.0200873,0.0238402,972,1632,2.08987,-9.25827
-245,-608,2.1651,9.53003,-0.0102861,-0.0259273,-0.018142,0.00164911,-0.0378626,-0.581895,0.025809,0.0359008,979,1632,2.16509,-9.52997
-238,-608,2.13928,9.41968,-0.0142213,-0.0305411,-0.0234168,0.00241658,-0.047179,-0.617746,0.0322883,0.0401203,986,1632,2.1393,-9.41971
-231,-608,2.13696,9.44299,0,0,0,0,0,0,0,-1,993,1632,2.13696,-9.44301
-224,-608,2.02032,9.28088,0,0,0,0,0,0,0,-1,1000,1632,2.0203,-9.28088
-217,-608,3.67822,10.219,0,0,0,0,0,0,0,-1,1007,1632,3.67825,-10.2189
-210,-608,0.861633,8.77087,0,0,0,0,0,0,0,-1,1014,1632,0.861629,-8.77082
-203,-608,0.593201,9.29529,0,0,0,0,0,0,0,-1,1021,1632,0.593198,-9.29533
-196,-608,0.649048,9.89758,-0.0563719,-0.0600216,-0.0492049,-0.00895802,-0.107435,-0.766863,0.0688322,0.0448173,1028,1632,0.649026,-9.89764
-189,-608,0.746094,10.3223,-0.0642613,-0.0636599,-0.0518659,-0.0120939,-0.115827,-0.788297,0.0735193,0.0412858,1035,1632,0.746043,-10.3222
-182,-608,0.817139,10.8605,0,0,0,0,0,0,0,-1,1042,1632,0.817132,-10.8605
-175,-608,0.0241699,11.124,0,0,0,0,0,0,0,-1,1049,1632,0.0241432,-11.124
-168,-608,1.13831,10.4353,0,0,0,0,0,0,0,-1,1056,1632,1.13828,-10.4353
-161,-608,-2.6637,12.158,0,0,0,0,0,0,0,-1,1063,1632,-2.66372,-12.1579
-154,-608,-4.06628,12.5117,0,0,0,0,0,0,0,-1,1070,1632,-4.06627,-12.5117
-147,-608,-5.07703,12.7928,0,0,0,0,0,0,0,-1,1077,1632,-5.07705,-12.7929
-140,-608,2.81531,9.28625,0,0,0,0,0,0,0,-1,1084,1632,2.81536,-9.28626
-133,-608,3.26477,10.4989,0,0,0,0,0,0,0,-1,1091,1632,3.26472,-10.499
-126,-608,2.74841,11.5652,0,0,0,0,0,0,0,-1,1098,1632,2.74847,-11.5651
-119,-608,2.84692,12.9296,0,0,0,0,0,0,0,-1,1105,1632,2.84695,-12.9295
-112,-608,0.745117,10.5587,0,0,0,0,0,0,0,-1,1112,1632,0.745145,-10.5587
-105,-608,-0.252319,1.42419,0,0,0,0,0,0,0,-1,1119,1632,-0.252331,-1.42418
-98,-608,-1.67896,0.994629,0,0,0,0,0,0,0,-1,1126,1632,-1.67895,-0.994599
-91,-608,-2.99451,0.744629,0,0,0,0,0,0,0,-1,1133,1632,-2.99453,-0.744605
-84,-608,0,0,0,0,0,0,0,0,0,-1,1140,1632,0,0
-77,-608,0,0,0,0,0,0,0,0,0,-1,1147,1632,0,0
-70,-608,0,0,0,0,0,0,0,0,0,-1,1154,1632,0,0
-63,-608,0,0,0,0,0,0,0,0,0,-1,1161,1632,0,0
-56,-608,0,0,0,0,0,0,0,0,0,-1,1168,1632,0,0
-49,-608,0,0,0,0,0,0,0,0,0,-1,1175,1632,0,0
-42,-608,0,0,0,0,0,0,0,0,0,-1,1182,1632,0,0
-35,-608,0,0,0,0,0,0,0,0,0,-1,1189,1632,0,0
-28,-608,0,0,0,0,0,0,0,0,0,-1,1196,1632,0,0
-21,-608,0,0,0,0,0,0,0,0,0,-1,1203,1632,0,0
-14,-608,0,0,0,0,0,0,0,0,0,-1,1210,1632,0,0
-7,-608,0,0,0,0,0,0,0,0,0,-1,1217,1632,0,0
0,-608,0,0,0,0,0,0,0,0,0,-1,1224,1632,0,0
7,-608,0,0,0,0,0,0,0,0,0,-1,1231,1632,0,0
14,-608,0,0,0,0,0,0,0,0,0,-1,1238,1632,0,0
21,-608,0,0,0,0,0,0,0,0,0,-1,1245,1632,0,0
28,-608,0,0,0,0,0,0,0,0,0,-1,1252,1632,0,0
35,-608,0,0,0,0,0,0,0,0,0,-1,1259,1632,0,0
42,-608,0,0,0,0,0,0,0,0,0,-1,1266,1632,0,0
49,-608,0,0,0,0,0,0,0,0,0,-1,1273,1632,0,0
56,-608,0,0,0,0,0,0,0,0,0,-1,1280,1632,0,0
63,-608,0,0,0,0,0,0,0,0,0,-1,1287,1632,0,0
70,-608,0,0,0,0,0,0,0,0,0,-1,1294,1632,0,0
77,-608,0,0,0,0,0,0,0,0,0,-1,1301,1632,0,0
84,-608,0,0,0,0,0,0,0,0,0,-1,1308,1632,0,0
91,-608,0,0,0,0,0,0,0,0,0,-1,1315,1632,0,0
98,-608,0,0,0,0,0,0,0,0,0,-1,1322,1632,0,0
105,-608,0,0,0,0,0,0,0,0,0,-1,1329,1632,0,0
112,-608,0,0,0,0,0,0,0,0,0,-1,1336,1632,0,0
119,-608,0,0,0,0,0,0,0,0,0,-1,1343,1632,0,0
126,-608,0,0,0,0,0,0,0,0,0,-1,1350,1632,0,0
133,-608,0,0,0,0,0,0,0,0,0,-1,1357,1632,0,0
140,-608,0,0,0,0,0,0,0,0,0,-1,1364,1632,0,0
147,-608,0,0,0,0,0,0,0,0,0,-1,1371,1632,0,0
154,-608,0,0,0,0,0,0,0,0,0,-1,1378,1632,0,0
161,-608,0,0,0,0,0,0,0,0,0,-1,1385,1632,0,0
168,-608,0,0,0,0,0,0,0,0,0,-1,1392,1632,0,0
175,-608,0,0,0,0,0,0,0,0,0,-1,1399,1632,0,0
182,-608,0,0,0,0,0,0,0,0,0,-1,1406,1632,0,0
189,-608,0,0,0,0,0,0,0,0,0,-1,1413,1632,0,0
196,-608,0,0,0,0,0,0,0,0,0,-1,1420,1632,0,0
203,-608,0,0,0,0,0,0,0,0,0,-1,1427,1632,0,0
210,-608,5.7157,-0.333008,0,0,0,0,0,0,0,-1,1434,1632,5.71566,0.333004
217,-608,4.49402,-0.831787,0,0,0,0,0,0,0,-1,1441,1632,4.49396,0.831738
224,-608,4.18018,-1.11792,0,0,0,0,0,0,0,-1,1448,1632,4.1802,1.11796
231,-608,0.361816,0.825195,0,0,0,0,0,0,0,-1,1455,1632,0.36185,-0.825226
238,-608,2.85388,-0.28833,0,0,0,0,0,0,0,-1,1462,1632,2.85391,0.288282
245,-608,3.87537,4.02173,0,0,0,0,0,0,0,-1,1469,1632,3.87538,-4.02168
252,-608,5.66956,3.5282,0,0,0,0,0,0,0,-1,1476,1632,5.6696,-3.52815
259,-608,7.47437,3.07178,0,0,0,0,0,0,0,-1,1483,1632,7.4744,-3.07172
266,-608,9.46936,2.34766,0,0,0,0,0,0,0,-1,1490,1632,9.46932,-2.34764
273,-608,6.03003,3.34241,0,0,0,0,0,0,0,-1,1497,1632,6.02997,-3.34245
280,-608,5.72461,2.0769,0,0,0,0,0,0,0,-1,1504,1632,5.72457,-2.07688
287,-608,6.20581,3.59338,0.106284,-0.129332,0.0141084,0.107126,-0.130174,0.0595947,0.137221,0.0423843,1511,1632,6.20585,-3.59341
294,-608,6.94922,5.17151,0.0937412,-0.11676,0.0130073,0.0945419,-0.117561,0.0614801,0.122698,0.0456387,1518,1632,6.94925,-5.17151
301,-608,7.60083,6.68018,0.0821128,-0.105104,0.011849,0.0828597,-0.10585,0.0629555,0.109221,0.0492025,1525,1632,7.60086,-6.68013
308,-608,4.24915,9.21631,0,0,0,0,0,0,0,-1,1532,1632,4.24916,-9.21632
315,-608,4.71008,9.80042,0,0,0,0,0,0,0,-1,1539,1632,4.71002,-9.80036
322,-608,4.98853,10.3505,0.052703,-0.075012,0.00941146,0.0533929,-0.0757018,0.0731644,0.0749029,0.0460055,1546,1632,4.98847,-10.3504
329,-608,5.01685,10.575,0.0437205,-0.065617,0.00910036,0.0444727,-0.0663693,0.0824756,0.0644095,0.0496008,1553,1632,5.01687,-10.575
336,-608,5.2074,10.3239,0,0,0,0,0,0,0,-1,1560,1632,5.20738,-10.3239
343,-608,5.47192,5.61047,0,0,0,0,0,0,0,-1,1567,1632,5.47192,-5.61045
350,-608,11.6957,1.71387,0,0,0,0,0,0,0,-1,1574,1632,11.6957,-1.71388
357,-608,3.77002,5.10046,0,0,0,0,0,0,0,-1,1581,1632,3.77002,-5.10043
364,-608,5.66101,10.1797,0,0,0,0,0,0,0,-1,1588,1632,5.66098,-10.1797
371,-608,5.58325,10.1848,0.00336967,-0.010932,0.00547327,0.0052239,-0.0127862,0.326643,0.0106993,0.0433228,1595,1632,5.58323,-10.1848
378,-608,5.5575,10.1158,0.00211022,-0.0076346,0.00463889,0.00396534,-0.00948972,0.380425,0.00798356,0.0369573,1602,1632,5.55754,-10.1159
385,-608,5.51929,10.0283,0.00109158,-0.00631282,0.00456298,0.00326536,-0.0084866,0.444585,0.00700465,0.0339521,1609,1632,5.51926,-10.0284
392,-608,5.48755,9.94604,0.00100733,-0.00631553,0.00439957,0.00306974,-0.00837794,0.438356,0.00684207,0.0223507,1616,1632,5.48761,-9.94605
399,-608,5.48108,9.89612,0.0010105,-0.00577373,0.00393336,0.0028124,-0.00757562,0.429574,0.00620413,0.0106313,1623,1632,5.48106,-9.89615
406,-608,5.48218,9.79138,0.000811939,-0.00540789,0.00349198,0.00237808,-0.00697403,0.421603,0.00561257,0.0089664,1630,1632,5.48219,-9.7914
413,-608,5.47229,9.66699,0.000495448,-0.00473767,0.00305094,0.00189817,-0.00614039,0.430947,0.00485171,0.00962633,1637,1632,5.47232,-9.66705
420,-608,5.46509,9.55481,0.000189986,-0.00407026,0.00257921,0.00140497,-0.00528524,0.440236,0.0040734,0.0171544,1644,1632,5.46509,-9.55476
427,-608,5.5105,9.40894,-2.80105e-05,-0.00349,0.00210987,0.00097008,-0.00448809,0.441862,0.00336239,0.0194157,1651,1632,5.51052,-9.40889
434,-608,5.52295,9.30444,-0.000316488,-0.00293122,0.00168894,0.000511969,-0.00375967,0.456033,0.00269337,0.0149912,1658,1632,5.5229,-9.30441
441,-608,5.50757,9.18506,-0.000532735,-0.00239885,0.00133915,0.000166362,-0.00309795,0.481127,0.00212293,0.0127535,1665,1632,5.50761,-9.185
448,-608,5.51794,9.03638,-0.0006188,-0.00170639,0.00100983,-1.56525e-05,-0.00230953,0.538413,0.0015345,0.0147805,1672,1632,5.51794,-9.03641
455,-608,5.54089,8.91602,-0.000695604,-0.00111541,0.000683217,-0.000190772,-0.00162024,0.636362,0.00102252,0.0113804,1679,1632,5.54086,-8.91599
462,-608,5.52734,8.78552,-0.000537789,-0.000590555,0.00036697,-0.000196255,-0.000932089,0.749513,0.000567403,0.0102738,1686,1632,5.52733,-8.78547
469,-608,5.51001,8.66211,-0.00020878,0.000151628,1.12561e-05,0.000151979,-0.000209131,1.53961,0.000209356,0.00801617,1693,1632,5.51,-8.66212
476,-608,5.51538,8.53223,0.000111982,0.000864632,-0.000282749,0.000959017,1.7597e-05,-1.24862,0.00063356,0.0084737,1700,1632,5.51538,-8.53224
483,-608,5.5116,8.3855,0.000492017,0.0016397,-0.000549836,0.0018606,0.000271118,-1.18878,0.00116063,0.00835469,1707,1632,5.51161,-8.38554
490,-608,5.52942,8.26074,0.00100075,0.00246234,-0.000855863,0.00285696,0.000606126,-1.13877,0.00173819,0.00839262,1714,1632,5.52944,-8.26071
497,-608,5.53455,8.1311,0.00140813,0.0031642,-0.0013448,0.00389223,0.000680104,-1.07461,0.00240045,0.011904,1721,1632,5.53451,-8.13105
504,-608,5.49768,7.9657,0.00143025,0.00392964,-0.00200368,0.0050414,0.000318489,-1.06423,0.00325996,0.0257591,1728,1632,5.49765,-7.96574
511,-608,5.52026,7.79797,0.00147582,0.00467583,-0.00277351,0.00627775,-0.00012611,-1.04702,0.00422783,0.0399409,1735,1632,5.52023,-7.79802
518,-608,5.62097,7.56604,0.000986277,0.00545851,-0.00359784,0.00745851,-0.00101372,-1.06344,0.00534241,0.0482091,1742,1632,5.62096,-7.56599
525,-608,5.74182,7.37036,0,0,0,0,0,0,0,-1,1749,1632,5.74178,-7.37039
532,-608,8.54419,1.06445,0,0,0,0,0,0,0,-1,1756,1632,8.54425,-1.06448
539,-608,9.40796,1.43457,0,0,0,0,0,0,0,-1,1763,1632,9.40801,-1.43463
546,-608,9.94031,2.1134,0,0,0,0,0,0,0,-1,1770,1632,9.94031,-2.11346
553,-608,10.363,2.81335,0,0,0,0,0,0,0,-1,1777,1632,10.3631,-2.81333
560,-608,9.23999,4.5636,0,0,0,0,0,0,0,-1,1784,1632,9.24,-4.56354
567,-608,0,0,0,0,0,0,0,0,0,-1,1791,1632,0,0
574,-608,0,0,0,0,0,0,0,0,0,-1,1798,1632,0,0
581,-608,0,0,0,0,0,0,0,0,0,-1,1805,1632,0,0
588,-608,0,0,0,0,0,0,0,0,0,-1,1812,1632,0,0
595,-608,0,0,0,0,0,0,0,0,0,-1,1819,1632,0,0
602,-608,0,0,0,0,0,0,0,0,0,-1,1826,1632,0,0
609,-608,0,0,0,0,0,0,0,0,0,-1,1833,1632,0,0
616,-608,0,0,0,0,0,0,0,0,0,-1,1840,1632,0,0
623,-608,0,0,0,0,0,0,0,0,0,-1,1847,1632,0,0
630,-608,0,0,0,0,0,0,0,0,0,-1,1854,1632,0,0
637,-608,0,0,0,0,0,0,0,0,0,-1,1861,1632,0,0
644,-608,0,0,0,0,0,0,0,0,0,-1,1868,1632,0,0
651,-608,0,0,0,0,0,0,0,0,0,-1,1875,1632,0,0
658,-608,0,0,0,0,0,0,0,0,0,-1,1882,1632,0,0
665,-608,0,0,0,0,0,0,0,0,0,-1,1889,1632,0,0
672,-608,0,0,0,0,0,0,0,0,0,-1,1896,1632,0,0
679,-608,0,0,0,0,0,0,0,0,0,-1,1903,1632,0,0
686,-608,0,0,0,0,0,0,0,0,0,-1,1910,1632,0,0
693,-608,0,0,0,0,0,0,0,0,0,-1,1917,1632,0,0
700,-608,0,0,0,0,0,0,0,0,0,-1,1924,1632,0,0
707,-608,0,0,0,0,0,0,0,0,0,-1,1931,1632,0,0
714,-608,0,0,0,0,0,0,0,0,0,-1,1938,1632,0,0
721,-608,0,0,0,0,0,0,0,0,0,-1,1945,1632,0,0
728,-608,0,0,0,0,0,0,0,0,0,-1,1952,1632,0,0
735,-608,0,0,0,0,0,0,0,0,0,-1,1959,1632,0,0
742,-608,0,0,0,0,0,0,0,0,0,-1,1966,1632,0,0
749,-608,0,0,0,0,0,0,0,0,0,-1,1973,1632,0,0
756,-608,0,0,0,0,0,0,0,0,0,-1,1980,1632,0,0
763,-608,0,0,0,0,0,0,0,0,0,-1,1987,1632,0,0
770,-608,0,0,0,0,0,0,0,0,0,-1,1994,1632,0,0
777,-608,0,0,0,0,0,0,0,0,0,-1,2001,1632,0,0
784,-608,0,0,0,0,0,0,0,0,0,-1,2008,1632,0,0
791,-608,0,0,0,0,0,0,0,0,0,-1,2015,1632,0,0
798,-608,0,0,0,0,0,0,0,0,0,-1,2022,1632,0,0
805,-608,0,0,0,0,0,0,0,0,0,-1,2029,1632,0,0
812,-608,0,0,0,0,0,0,0,0,0,-1,2036,1632,0,0
-700,-615,0,0,0,0,0,0,0,0,0,-1,524,1639,0,0
-693,-615,0,0,0,0,0,0,0,0,0,-1,531,1639,0,0
-686,-615,0,0,0,0,0,0,0,0,0,-1,538,1639,0,0
-679,-615,0,0,0,0,0,0,0,0,0,-1,545,1639,0,0
-672,-615,0,0,0,0,0,0,0,0,0,-1,552,1639,0,0
-665,-615,0,0,0,0,0,0,0,0,0,-1,559,1639,0,0
-658,-615,0,0,0,0,0,0,0,0,0,-1,566,1639,0,0
-651,-615,0,0,0,0,0,0,0,0,0,-1,573,1639,0,0
-644,-615,0,0,0,0,0,0,0,0,0,-1,580,1639,0,0
-637,-615,0,0,0,0,0,0,0,0,0,-1,587,1639,0,0
-630,-615,0,0,0,0,0,0,0,0,0,-1,594,1639,0,0
-623,-615,0,0,0,0,0,0,0,0,0,-1,601,1639,0,0
-616,-615,0,0,0,0,0,0,0,0,0,-1,608,1639,0,0
-609,-615,0,0,0,0,0,0,0,0,0,-1,615,1639,0,0
-602,-615,0,0,0,0,0,0,0,0,0,-1,622,1639,0,0
-595,-615,0,0,0,0,0,0,0,0,0,-1,629,1639,0,0
-588,-615,0,0,0,0,0,0,0,0,0,-1,636,1639,0,0
-581,-615,0,0,0,0,0,0,0,0,0,-1,643,1639,0,0
-574,-615,0,0,0,0,0,0,0,0,0,-1,650,1639,0,0
-567,-615,0,0,0,0,0,0,0,0,0,-1,657,1639,0,0
-560,-615,0,0,0,0,0,0,0,0,0,-1,664,1639,0,0
-553,-615,0,0,0,0,0,0,0,0,0,-1,671,1639,0,0
-546,-615,0,0,0,0,0,0,0,0,0,-1,678,1639,0,0
-539,-615,0,0,0,0,0,0,0,0,0,-1,685,1639,0,0
-532,-615,0,0,0,0,0,0,0,0,0,-1,692,1639,0,0
-525,-615,0,0,0,0,0,0,0,0,0,-1,699,1639,0,0
-518,-615,0,0,0,0,0,0,0,0,0,-1,706,1639,0,0
-511,-615,0,0,0,0,0,0,0,0,0,-1,713,1639,0,0
-504,-615,0,0,0,0,0,0,0,0,0,-1,720,1639,0,0
-497,-615,0,0,0,0,0,0,0,0,0,-1,727,1639,0,0
-490,-615,0,0,0,0,0,0,0,0,0,-1,734,1639,0,0
-483,-615,0,0,0,0,0,0,0,0,0,-1,741,1639,0,0
-476,-615,0,0,0,0,0,0,0,0,0,-1,748,1639,0,0
-469,-615,0,0,0,0,0,0,0,0,0,-1,755,1639,0,0
-462,-615,0,0,0,0,0,0,0,0,0,-1,762,1639,0,0
-455,-615,0,0,0,0,0,0,0,0,0,-1,769,1639,0,0
-448,-615,0,0,0,0,0,0,0,0,0,-1,776,1639,0,0
-441,-615,0,0,0,0,0,0,0,0,0,-1,783,1639,0,0
-434,-615,-7.64508,2.98596,0,0,0,0,0,0,0,-1,790,1639,-7.64505,-2.98594
-427,-615,-6.31409,3.72571,0.20011,0.140756,0.178932,0.35181,-0.0109433,0.703218,0.238271,0.0435775,797,1639,-6.31408,-3.72577
-420,-615,-5.1814,4.26953,0.171745,0.122032,0.157538,0.306375,-0.0125984,0.707152,0.208576,0.0480389,804,1639,-5.18142,-4.26948
-413,-615,-4.01477,4.82727,0,0,0,0,0,0,0,-1,811,1639,-4.01476,-4.82724
-406,-615,-3.71051,4.62024,0,0,0,0,0,0,0,-1,818,1639,-3.71048,-4.62028
-399,-615,-2.7702,3.57324,0,0,0,0,0,0,0,-1,825,1639,-2.77022,-3.5733
-392,-615,1.80219,6.14233,0,0,0,0,0,0,0,-1,832,1639,1.80218,-6.14234
-385,-615,2.35254,6.71021,0,0,0,0,0,0,0,-1,839,1639,2.35254,-6.71016
-378,-615,1.90887,7.08423,0.0331731,0.018714,0.0314777,0.0582408,-0.00635364,0.67252,0.0411091,0.0481663,846,1639,1.90886,-7.08424
-371,-615,1.90448,7.23059,0.0162379,0.00458371,0.0144645,0.026005,-0.00518335,0.593916,0.0192979,0.045397,853,1639,1.9045,-7.23054
-364,-615,2.08246,7.12671,0.00573721,-0.00332992,0.00320954,0.00675832,-0.00435103,0.308021,0.00646398,0.0313111,860,1639,2.08246,-7.12673
-357,-615,2.20062,7.23291,0.00273467,-0.00585751,-0.00139629,0.00295588,-0.00607872,-0.157122,0.00531898,0.0257969,867,1639,2.20064,-7.23287
-350,-615,2.20569,7.33203,0.00186322,-0.00442289,-0.00187579,0.00238041,-0.00494008,-0.269033,0.00431175,0.0241456,874,1639,2.20567,-7.33206
-343,-615,2.19049,7.46411,0.00134836,-0.00303784,-0.00209121,0.00218558,-0.00387506,-0.38081,0.00354414,0.0180496,881,1639,2.1905,-7.46407
-336,-615,2.22559,7.63025,0.000850337,-0.00148421,-0.00221015,0.00218252,-0.0028164,-0.542444,0.00289385,0.00956745,888,1639,2.22558,-7.63029
-329,-615,2.20313,7.77319,0.000237003,-0.000314633,-0.00234149,0.00231886,-0.00239649,-0.72677,0.00272254,0.0101068,895,1639,2.20313,-7.77319
-322,-615,2.20337,7.93396,-0.000242071,0.000434792,-0.00248137,0.0026007,-0.00240798,-0.853175,0.00289247,0.0104597,902,1639,2.20335,-7.93398
-315,-615,2.23474,8.0824,-0.000771893,0.000590001,-0.00256317,0.00256113,-0.00274303,-0.915232,0.00306296,0.0114618,909,1639,2.23473,-8.08237
-308,-615,2.22455,8.23706,-0.00121961,9.2351e-05,-0.00263936,0.00215603,-0.00328329,-0.907199,0.00316279,0.0168874,916,1639,2.22456,-8.237
-301,-615,2.22626,8.38367,-0.00137299,-0.000668236,-0.0027043,0.00170655,-0.00374778,-0.850184,0.00322173,0.0118005,923,1639,2.22625,-8.38365
-294,-615,2.23602,8.52234,-0.00111145,-0.001828,-0.00272833,0.00128203,-0.00422148,-0.720113,0.00332509,0.00953677,930,1639,2.23604,-8.52231
-287,-615,2.21912,8.64441,-0.000749943,-0.00301317,-0.00299108,0.00131643,-0.00507955,-0.604555,0.00389995,0.00769804,937,1639,2.21909,-8.6444
-280,-615,2.21796,8.75671,-0.000368677,-0.00433775,-0.00328499,0.0014847,-0.00619112,-0.513676,0.00470112,0.00832523,944,1639,2.21794,-8.75672
-273,-615,2.21283,8.91296,-0.000293498,-0.00616668,-0.0039434,0.00168661,-0.00814679,-0.465353,0.00607199,0.0089948,951,1639,2.21284,-8.91298
-266,-615,2.22125,9.06897,-7.78931e-05,-0.00760306,-0.00452669,0.00204577,-0.00972673,-0.438659,0.00726309,0.00950484,958,1639,2.22123,-9.06899
-259,-615,2.24744,9.18359,-0.00110268,-0.0103486,-0.00610197,0.0019298,-0.0133811,-0.461219,0.00962867,0.010733,965,1639,2.24744,-9.18361
-252,-615,2.24939,9.28833,-0.0029452,-0.0140765,-0.00820757,0.00140584,-0.0184275,-0.487456,0.0127794,0.0116029,972,1639,2.24936,-9.28837
-245,-615,2.21625,9.41626,-0.00532087,-0.0178152,-0.0114205,0.00144946,-0.0245855,-0.535125,0.0168942,0.0170153,979,1639,2.21626,-9.41626
-238,-615,2.23462,9.53992,-0.00802758,-0.0211645,-0.0155833,0.00231498,-0.0315071,-0.585943,0.0218174,0.0245668,986,1639,2.23465,-9.53986
-231,-615,2.26703,9.60315,-0.0125518,-0.0257405,-0.0198162,0.00173851,-0.0400308,-0.624774,0.0272851,0.0327535,993,1639,2.26702,-9.6031
-224,-615,2.28589,9.53259,-0.0182857,-0.0302665,-0.0240548,0.000513339,-0.0490656,-0.663365,0.0328828,0.045334,1000,1639,2.2859,-9.53261
-217,-615,2.36865,9.59399,0,0,0,0,0,0,0,-1,1007,1639,2.36866,-9.59396
-210,-615,2.33423,9.89221,0,0,0,0,0,0,0,-1,1014,1639,2.33425,-9.89218
-203,-615,1.77081,10.0067,0,0,0,0,0,0,0,-1,1021,1639,1.7708,-10.0067
-196,-615,1.72388,10.0795,-0.0428162,-0.0459794,-0.039028,-0.00533774,-0.0834578,-0.765147,0.0539474,0.0462273,1028,1639,1.72391,-10.0795
-189,-615,1.53906,10.4023,-0.0495657,-0.0495782,-0.041855,-0.007717,-0.0914269,-0.785324,0.0585487,0.0452084,1035,1639,1.53903,-10.4023
-182,-615,1.43018,10.6608,0,0,0,0,0,0,0,-1,1042,1639,1.43019,-10.6608
-175,-615,3.3385,11.2841,0,0,0,0,0,0,0,-1,1049,1639,3.33856,-11.284
-168,-615,2.02783,9.96631,0,0,0,0,0,0,0,-1,1056,1639,2.0278,-9.96637
-161,-615,0.920532,8.41772,0,0,0,0,0,0,0,-1,1063,1639,0.92055,-8.4177
-154,-615,-0.166504,6.7478,0,0,0,0,0,0,0,-1,1070,1639,-0.166529,-6.74776
-147,-615,2.59143,8.1311,0,0,0,0,0,0,0,-1,1077,1639,2.5914,-8.13115
-140,-615,2.9209,9.29688,0,0,0,0,0,0,0,-1,1084,1639,2.92089,-9.29682
-133,-615,3.41589,10.2842,0,0,0,0,0,0,0,-1,1091,1639,3.41593,-10.2841
-126,-615,3.27136,11.6553,0,0,0,0,0,0,0,-1,1098,1639,3.27135,-11.6553
-119,-615,3.48401,13.155,0,0,0,0,0,0,0,-1,1105,1639,3.48397,-13.155
-112,-615,3.65698,14.4874,0,0,0,0,0,0,0,-1,1112,1639,3.65695,-14.4875
-105,-615,0.958496,2.45398,0,0,0,0,0,0,0,-1,1119,1639,0.958452,-2.45398
-98,-615,-0.647705,2.12109,0,0,0,0,0,0,0,-1,1126,1639,-0.647756,-2.12105
-91,-615,-1.48572,0.604492,0,0,0,0,0,0,0,-1,1133,1639,-1.48576,-0.604443
-84,-615,-2.46509,0.703247,0,0,0,0,0,0,0,-1,1140,1639,-2.46505,-0.703273
-77,-615,-3.17859,1.23755,0,0,0,0,0,0,0,-1,1147,1639,-3.17865,-1.23752
-70,-615,-4.03943,1.43335,0,0,0,0,0,0,0,-1,1154,1639,-4.03942,-1.43339
-63,-615,-4.8877,1.45544,0,0,0,0,0,0,0,-1,1161,1639,-4.88766,-1.45549
-56,-615,0,0,0,0,0,0,0,0,0,-1,1168,1639,0,0
-49,-615,0,0,0,0,0,0,0,0,0,-1,1175,1639,0,0
-42,-615,0,0,0,0,0,0,0,0,0,-1,1182,1639,0,0
-35,-615,0,0,0,0,0,0,0,0,0,-1,1189,1639,0,0
-28,-615,0,0,0,0,0,0,0,0,0,-1,1196,1639,0,0
-21,-615,0,0,0,0,0,0,0,0,0,-1,1203,1639,0,0
-14,-615,0,0,0,0,0,0,0,0,0,-1,1210,1639,0,0
-7,-615,0,0,0,0,0,0,0,0,0,-1,1217,1639,0,0
0,-615,0,0,0,0,0,0,0,0,0,-1,1224,1639,0,0
7,-615,0,0,0,0,0,0,0,0,0,-1,1231,1639,0,0
14,-615,0,0,0,0,0,0,0,0,0,-1,1238,1639,0,0
21,-615,0,0,0,0,0,0,0,0,0,-1,1245,1639,0,0
28,-615,0,0,0,0,0,0,0,0,0,-1,1252,1639,0,0
35,-615,0,0,0,0,0,0,0,0,0,-1,1259,1639,0,0
42,-615,0,0,0,0,0,0,0,0,0,-1,1266,1639,0,0
49,-615,0,0,0,0,0,0,0,0,0,-1,1273,1639,0,0
56,-615,0,0,0,0,0,0,0,0,0,-1,1280,1639,0,0
63,-615,0,0,0,0,0,0,0,0,0,-1,1287,1639,0,0
70,-615,0,0,0,0,0,0,0,0,0,-1,1294,1639,0,0
77,-615,0,0,0,0,0,0,0,0,0,-1,1301,1639,0,0
84,-615,0,0,0,0,0,0,0,0,0,-1,1308,1639,0,0
91,-615,0,0,0,0,0,0,0,0,0,-1,1315,1639,0,0
98,-615,0,0,0,0,0,0,0,0,0,-1,1322,1639,0,0
105,-615,0,0,0,0,0,0,0,0,0,-1,1329,1639,0,0
112,-615,0,0,0,0,0,0,0,0,0,-1,1336,1639,0,0
119,-615,0,0,0,0,0,0,0,0,0,-1,1343,1639,0,0
126,-615,0,0,0,0,0,0,0,0,0,-1,1350,1639,0,0
133,-615,0,0,0,0,0,0,0,0,0,-1,1357,1639,0,0
140,-615,0,0,0,0,0,0,0,0,0,-1,1364,1639,0,0
147,-615,0,0,0,0,0,0,0,0,0,-1,1371,1639,0,0
154,-615,0,0,0,0,0,0,0,0,0,-1,1378,1639,0,0
161,-615,0,0,0,0,0,0,0,0,0,-1,1385,1639,0,0
168,-615,0,0,0,0,0,0,0,0,0,-1,1392,1639,0,0
175,-615,5.39648,-2.00879,0,0,0,0,0,0,0,-1,1399,1639,5.3965,2.00881
182,-615,5.65393,-1.51025,0,0,0,0,0,0,0,-1,1406,1639,5.65388,1.51028
189,-615,5.58972,-1.35608,0,0,0,0,0,0,0,-1,1413,1639,5.58967,1.35607
196,-615,5.49915,-0.693604,0,0,0,0,0,0,0,-1,1420,1639,5.4991,0.693602
203,-615,5.33411,-0.226685,0,0,0,0,0,0,0,-1,1427,1639,5.33414,0.226689
210,-615,5.60278,0.108276,0,0,0,0,0,0,0,-1,1434,1639,5.60284,-0.10831
217,-615,6.26331,-0.307373,0,0,0,0,0,0,0,-1,1441,1639,6.26331,0.307372
224,-615,5.45422,-0.333984,0,0,0,0,0,0,0,-1,1448,1639,5.45422,0.333992
231,-615,4.92542,1.80298,0,0,0,0,0,0,0,-1,1455,1639,4.92537,-1.80297
238,-615,4.76355,1.96729,0,0,0,0,0,0,0,-1,1462,1639,4.76357,-1.96734
245,-615,4.08643,3.15906,0,0,0,0,0,0,0,-1,1469,1639,4.08638,-3.159
252,-615,6.37805,3.73889,0,0,0,0,0,0,0,-1,1476,1639,6.37806,-3.73891
259,-615,8.35974,3.16443,0,0,0,0,0,0,0,-1,1483,1639,8.35975,-3.16444
266,-615,10.3414,2.58997,0,0,0,0,0,0,0,-1,1490,1639,10.3414,-2.58996
273,-615,6.57043,1.84766,0,0,0,0,0,0,0,-1,1497,1639,6.5704,-1.84771
280,-615,7.10449,3.23438,0,0,0,0,0,0,0,-1,1504,1639,7.10447,-3.23435
287,-615,7.35779,4.68542,0,0,0,0,0,0,0,-1,1511,1639,7.35776,-4.68546
294,-615,7.63733,6.29114,0,0,0,0,0,0,0,-1,1518,1639,7.63735,-6.29109
301,-615,8.20715,7.81995,0,0,0,0,0,0,0,-1,1525,1639,8.20719,-7.81993
308,-615,5.47522,11.4122,0,0,0,0,0,0,0,-1,1532,1639,5.47521,-11.4123
315,-615,4.46863,11.1984,0,0,0,0,0,0,0,-1,1539,1639,4.46864,-11.1984
322,-615,4.70386,11.0793,0.0432502,-0.0580603,0.00794161,0.0438689,-0.058679,0.0777559,0.0594116,0.0465354,1546,1639,4.70387,-11.0793
329,-615,4.96521,11.0453,0.0348021,-0.0487758,0.00733527,0.035441,-0.0494147,0.0868806,0.0492124,0.0491664,1553,1639,4.96526,-11.0453
336,-615,5.27527,10.9072,0,0,0,0,0,0,0,-1,1560,1639,5.27522,-10.9073
343,-615,2.40491,6.50134,0,0,0,0,0,0,0,-1,1567,1639,2.40489,-6.50137
350,-615,5.32251,10.9441,0,0,0,0,0,0,0,-1,1574,1639,5.32248,-10.9441
357,-615,5.32849,10.5712,0,0,0,0,0,0,0,-1,1581,1639,5.32846,-10.5711
364,-615,5.44104,10.3793,0,0,0,0,0,0,0,-1,1588,1639,5.44099,-10.3792
371,-615,5.46082,10.1604,0.00221366,-0.00737086,0.0039873,0.00365553,-0.00881272,0.346984,0.00740097,0.0348096,1595,1639,5.46087,-10.1604
378,-615,5.34363,10.2354,0.00138747,-0.00537004,0.00342981,0.00282323,-0.0068058,0.396448,0.00571563,0.0185967,1602,1639,5.3436,-10.2354
385,-615,5.354,10.1075,0.000788878,-0.00461378,0.00339733,0.00242794,-0.00625284,0.449515,0.00517148,0.0106452,1609,1639,5.35404,-10.1075
392,-615,5.34302,10.0087,0.000837748,-0.0047121,0.00324106,0.00232951,-0.00620387,0.431363,0.0050932,0.00941739,1616,1639,5.34301,-10.0087
399,-615,5.32971,9.93506,0.000820367,-0.00418156,0.0029424,0.00218108,-0.00554227,0.433158,0.00459768,0.0112852,1623,1639,5.32966,-9.93502
406,-615,5.34802,9.80542,0.000647588,-0.00385127,0.00264015,0.00186664,-0.00507032,0.432569,0.00414498,0.011722,1630,1639,5.34805,-9.80541
413,-615,5.35608,9.68933,0.000364974,-0.00328599,0.00230688,0.00148127,-0.00440229,0.450685,0.00353367,0.0124088,1637,1639,5.35603,-9.68937
420,-615,5.36658,9.56042,5.57337e-05,-0.00272153,0.00195224,0.00106283,-0.00372863,0.476263,0.00290557,0.0129242,1644,1639,5.36659,-9.56042
427,-615,5.39148,9.40503,-0.000208559,-0.00224916,0.00161205,0.000678947,-0.00313667,0.503261,0.00235035,0.0143397,1651,1639,5.39151,-9.40497
434,-615,5.40637,9.29919,-0.000559962,-0.00180209,0.00130144,0.000261006,-0.00262306,0.562772,0.00184188,0.0136147,1658,1639,5.40637,-9.29916
441,-615,5.38721,9.18323,-0.00083005,-0.00137348,0.00105488,-1.24562e-05,-0.00219108,0.659348,0.00145658,0.0138304,1665,1639,5.38719,-9.18324
448,-615,5.38635,9.04053,-0.000942482,-0.000821419,0.000833014,-4.67403e-05,-0.00171716,0.821667,0.00112952,0.0151922,1672,1639,5.3864,-9.04052
455,-615,5.3833,8.93799,-0.00104283,-0.000362171,0.000582587,-2.77924e-05,-0.00137721,1.04975,0.000909018,0.0143712,1679,1639,5.38333,-8.93801
462,-615,5.38025,8.8075,-0.000912333,6.54165e-05,0.000343328,0.00017393,-0.00102085,1.26467,0.000745337,0.0142226,1686,1639,5.38026,-8.80745
469,-615,5.36816,8.66467,-0.000590876,0.000688113,4.37756e-05,0.000689609,-0.000592372,1.53662,0.000740862,0.0118104,1693,1639,5.36814,-8.66472
476,-615,5.37561,8.52368,-0.000211795,0.001305,-0.000193635,0.00132933,-0.000236125,-1.44581,0.000974509,0.0106813,1700,1639,5.37559,-8.52364
483,-615,5.37488,8.36475,0.00018636,0.00202834,-0.000407409,0.00211443,0.000100273,-1.36256,0.00137741,0.01453,1707,1639,5.37491,-8.3648
490,-615,5.39404,8.24341,0.000738807,0.00287074,-0.000671621,0.00306468,0.00054487,-1.28968,0.00188789,0.0156671,1714,1639,5.39403,-8.24341
497,-615,5.40356,8.15466,0.00139783,0.00370108,-0.00119708,0.00421056,0.000888353,-1.16842,0.00256277,0.021827,1721,1639,5.40353,-8.15468
504,-615,5.36462,7.86487,0.00171667,0.00482924,-0.00187715,0.00571134,0.000834572,-1.13151,0.00356211,0.0421052,1728,1639,5.36463,-7.86491
511,-615,5.39343,7.70996,0,0,0,0,0,0,0,-1,1735,1639,5.39341,-7.71001
518,-615,5.5238,7.49182,0,0,0,0,0,0,0,-1,1742,1639,5.52375,-7.49185
525,-615,4.37524,3.90491,0,0,0,0,0,0,0,-1,1749,1639,4.37518,-3.90495
532,-615,7.3645,0.848145,0,0,0,0,0,0,0,-1,1756,1639,7.36451,-0.848093
539,-615,12.8112,-0.0476074,0,0,0,0,0,0,0,-1,1763,1639,12.8111,0.0475553
546,-615,8.33813,2.94556,0,0,0,0,0,0,0,-1,1770,1639,8.33813,-2.9455
553,-615,5.82532,-2.04199,0,0,0,0,0,0,0,-1,1777,1639,5.82534,2.04195
560,-615,0,0,0,0,0,0,0,0,0,-1,1784,1639,0,0
567,-615,0,0,0,0,0,0,0,0,0,-1,1791,1639,0,0
574,-615,0,0,0,0,0,0,0,0,0,-1,1798,1639,0,0
581,-615,0,0,0,0,0,0,0,0,0,-1,1805,1639,0,0
588,-615,0,0,0,0,0,0,0,0,0,-1,1812,1639,0,0
595,-615,0,0,0,0,0,0,0,0,0,-1,1819,1639,0,0
602,-615,0,0,0,0,0,0,0,0,0,-1,1826,1639,0,0
609,-615,0,0,0,0,0,0,0,0,0,-1,1833,1639,0,0
616,-615,0,0,0,0,0,0,0,0,0,-1,1840,1639,0,0
623,-615,0,0,0,0,0,0,0,0,0,-1,1847,1639,0,0
630,-615,0,0,0,0,0,0,0,0,0,-1,1854,1639,0,0
637,-615,0,0,0,0,0,0,0,0,0,-1,1861,1639,0,0
644,-615,0,0,0,0,0,0,0,0,0,-1,1868,1639,0,0
651,-615,0,0,0,0,0,0,0,0,0,-1,1875,1639,0,0
658,-615,0,0,0,0,0,0,0,0,0,-1,1882,1639,0,0
665,-615,0,0,0,0,0,0,0,0,0,-1,1889,1639,0,0
672,-615,0,0,0,0,0,0,0,0,0,-1,1896,1639,0,0
679,-615,0,0,0,0,0,0,0,0,0,-1,1903,1639,0,0
686,-615,0,0,0,0,0,0,0,0,0,-1,1910,1639,0,0
693,-615,0,0,0,0,0,0,0,0,0,-1,1917,1639,0,0
700,-615,0,0,0,0,0,0,0,0,0,-1,1924,1639,0,0
707,-615,0,0,0,0,0,0,0,0,0,-1,1931,1639,0,0
714,-615,0,0,0,0,0,0,0,0,0,-1,1938,1639,0,0
721,-615,0,0,0,0,0,0,0,0,0,-1,1945,1639,0,0
728,-615,0,0,0,0,0,0,0,0,0,-1,1952,1639,0,0
735,-615,0,0,0,0,0,0,0,0,0,-1,1959,1639,0,0
742,-615,0,0,0,0,0,0,0,0,0,-1,1966,1639,0,0
749,-615,0,0,0,0,0,0,0,0,0,-1,1973,1639,0,0
756,-615,0,0,0,0,0,0,0,0,0,-1,1980,1639,0,0
763,-615,0,0,0,0,0,0,0,0,0,-1,1987,1639,0,0
770,-615,0,0,0,0,0,0,0,0,0,-1,1994,1639,0,0
777,-615,0,0,0,0,0,0,0,0,0,-1,2001,1639,0,0
784,-615,0,0,0,0,0,0,0,0,0,-1,2008,1639,0,0
791,-615,0,0,0,0,0,0,0,0,0,-1,2015,1639,0,0
798,-615,0,0,0,0,0,0,0,0,0,-1,2022,1639,0,0
805,-615,0,0,0,0,0,0,0,0,0,-1,2029,1639,0,0
812,-615,0,0,0,0,0,0,0,0,0,-1,2036,1639,0,0
-700,-622,0,0,0,0,0,0,0,0,0,-1,524,1646,0,0
-693,-622,0,0,0,0,0,0,0,0,0,-1,531,1646,0,0
-686,-622,0,0,0,0,0,0,0,0,0,-1,538,1646,0,0
-679,-622,0,0,0,0,0,0,0,0,0,-1,545,1646,0,0
-672,-622,0,0,0,0,0,0,0,0,0,-1,552,1646,0,0
-665,-622,0,0,0,0,0,0,0,0,0,-1,559,1646,0,0
-658,-622,0,0,0,0,0,0,0,0,0,-1,566,1646,0,0
-651,-622,0,0,0,0,0,0,0,0,0,-1,573,1646,0,0
-644,-622,0,0,0,0,0,0,0,0,0,-1,580,1646,0,0
-637,-622,0,0,0,0,0,0,0,0,0,-1,587,1646,0,0
-630,-622,0,0,0,0,0,0,0,0,0,-1,594,1646,0,0
-623,-622,0,0,0,0,0,0,0,0,0,-1,601,1646,0,0
-616,-622,0,0,0,0,0,0,0,0,0,-1,608,1646,0,0
-609,-622,0,0,0,0,0,0,0,0,0,-1,615,1646,0,0
-602,-622,0,0,0,0,0,0,0,0,0,-1,622,1646,0,0
-595,-622,0,0,0,0,0,0,0,0,0,-1,629,1646,0,0
-588,-622,0,0,0,0,0,0,0,0,0,-1,636,1646,0,0
-581,-622,0,0,0,0,0,0,0,0,0,-1,643,1646,0,0
-574,-622,0,0,0,0,0,0,0,0,0,-1,650,1646,0,0
-567,-622,0,0,0,0,0,0,0,0,0,-1,657,1646,0,0
-560,-622,0,0,0,0,0,0,0,0,0,-1,664,1646,0,0
-553,-622,0,0,0,0,0,0,0,0,0,-1,671,1646,0,0
-546,-622,0,0,0,0,0,0,0,0,0,-1,678,1646,0,0
-539,-622,0,0,0,0,0,0,0,0,0,-1,685,1646,0,0
-532,-622,0,0,0,0,0,0,0,0,0,-1,692,1646,0,0
-525,-622,0,0,0,0,0,0,0,0,0,-1,699,1646,0,0
-518,-622,0,0,0,0,0,0,0,0,0,-1,706,1646,0,0
-511,-622,0,0,0,0,0,0,0,0,0,-1,713,1646,0,0
-504,-622,0,0,0,0,0,0,0,0,0,-1,720,1646,0,0
-497,-622,0,0,0,0,0,0,0,0,0,-1,727,1646,0,0
-490,-622,0,0,0,0,0,0,0,0,0,-1,734,1646,0,0
-483,-622,0,0,0,0,0,0,0,0,0,-1,741,1646,0,0
-476,-622,0,0,0,0,0,0,0,0,0,-1,748,1646,0,0
-469,-622,0,0,0,0,0,0,0,0,0,-1,755,1646,0,0
-462,-622,0,0,0,0,0,0,0,0,0,-1,762,1646,0,0
-455,-622,0,0,0,0,0,0,0,0,0,-1,769,1646,0,0
-448,-622,0,0,0,0,0,0,0,0,0,-1,776,1646,0,0
-441,-622,0,0,0,0,0,0,0,0,0,-1,783,1646,0,0
-434,-622,0,0,0,0,0,0,0,0,0,-1,790,1646,0,0
-427,-622,-7.62891,3.48096,0,0,0,0,0,0,0,-1,797,1646,-7.62892,-3.48092
-420,-622,-6.54437,4.04541,0,0,0,0,0,0,0,-1,804,1646,-6.54438,-4.04538
-413,-622,-4.8988,2.47632,0,0,0,0,0,0,0,-1,811,1646,-4.89878,-2.47637
-406,-622,-4.44318,2.16858,0,0,0,0,0,0,0,-1,818,1646,-4.44315,-2.16859
-399,-622,-3.35645,3.16223,0,0,0,0,0,0,0,-1,825,1646,-3.35647,-3.16226
-392,-622,-2.1485,4.26294,0,0,0,0,0,0,0,-1,832,1646,-2.14853,-4.2629
-385,-622,1.27405,6.02002,0,0,0,0,0,0,0,-1,839,1646,1.27402,-6.01998
-378,-622,1.68695,7.24707,0,0,0,0,0,0,0,-1,846,1646,1.68692,-7.24703
-371,-622,1.85315,7.29907,0.0212394,0.00506444,0.0161804,0.031241,-0.00493708,0.553641,0.0226531,0.0436195,853,1646,1.85316,-7.29907
-364,-622,2.0246,7.45679,0.00766909,-0.00345855,0.00248841,0.00820021,-0.00398967,0.210281,0.00717642,0.0385995,860,1646,2.02461,-7.45679
-357,-622,2.3053,7.47388,0.0034461,-0.00555094,-0.00270342,0.00419592,-0.00630076,-0.270562,0.00610074,0.0415878,867,1646,2.30532,-7.47382
-350,-622,2.35785,7.42358,0.00174165,-0.00330602,-0.00317207,0.00327143,-0.0048358,-0.449359,0.00470967,0.0372456,874,1646,2.35785,-7.4236
-343,-622,2.29681,7.49353,0.000697672,-0.00142181,-0.00335199,0.00315346,-0.00387759,-0.632294,0.00406655,0.0232739,881,1646,2.29681,-7.49355
-336,-622,2.36591,7.62244,-0.000230179,0.000458648,-0.00333742,0.00346938,-0.00324091,-0.836815,0.00387494,0.00904315,888,1646,2.3659,-7.62244
-329,-622,2.35992,7.77954,-0.00108409,0.00184497,-0.00317542,0.00387732,-0.00311644,-1.00147,0.0040458,0.00869468,895,1646,2.35993,-7.77958
-322,-622,2.34784,7.93848,-0.00167524,0.00268958,-0.00303467,0.00424511,-0.00323076,-1.09713,0.00432942,0.00985392,902,1646,2.34783,-7.93844
-315,-622,2.3656,8.08801,-0.00219393,0.00287978,-0.00278591,0.00411081,-0.00342496,-1.15472,0.00435678,0.0126108,909,1646,2.36557,-8.08804
-308,-622,2.3819,8.22205,-0.0025246,0.00245376,-0.00250547,0.00349634,-0.00356719,-1.17647,0.0040782,0.0134359,916,1646,2.3819,-8.22203
-301,-622,2.36853,8.3623,-0.00242589,0.00172792,-0.00219942,0.00267607,-0.00337404,-1.16378,0.00350077,0.0133074,923,1646,2.36856,-8.36226
-294,-622,2.36456,8.50854,-0.00185874,0.000610424,-0.00188553,0.0016296,-0.00287792,-1.07526,0.00263547,0.0102991,930,1646,2.36459,-8.50852
-287,-622,2.35309,8.64404,-0.00117651,-0.000584191,-0.00180127,0.000945105,-0.00270581,-0.866878,0.00218804,0.0079566,937,1646,2.35311,-8.64401
-280,-622,2.34485,8.76648,-0.000500432,-0.00185627,-0.00181234,0.000756626,-0.00311333,-0.606426,0.00236839,0.00779243,944,1646,2.34483,-8.76643
-273,-622,2.3692,8.90393,-6.47439e-05,-0.00352193,-0.00206465,0.000899393,-0.00448607,-0.43688,0.00333123,0.0109701,951,1646,2.36923,-8.90391
-266,-622,2.36035,9.05493,0.000473276,-0.00477307,-0.00231296,0.00134736,-0.00564715,-0.361317,0.00428509,0.01166,958,1646,2.36033,-9.05495
-259,-622,2.37927,9.21155,0.000168334,-0.0067291,-0.00324014,0.00145165,-0.00801242,-0.377113,0.00588548,0.0112238,965,1646,2.37927,-9.21155
-252,-622,2.39075,9.31641,-0.000775514,-0.00922241,-0.00456244,0.00121822,-0.0112161,-0.411982,0.00791482,0.0117402,972,1646,2.39074,-9.31637
-245,-622,2.38379,9.44958,-0.00220462,-0.0117509,-0.00684242,0.001365,-0.0153205,-0.480849,0.0106977,0.0085904,979,1646,2.38381,-9.44962
-238,-622,2.38275,9.58484,-0.00389718,-0.0140917,-0.00996901,0.00220215,-0.020191,-0.549071,0.0142515,0.00924126,986,1646,2.38276,-9.58483
-231,-622,2.41687,9.68494,-0.00713916,-0.017558,-0.0132423,0.00188153,-0.0265787,-0.597999,0.0183784,0.0128299,993,1646,2.41684,-9.68495
-224,-622,2.49219,9.7926,-0.0114969,-0.0210152,-0.0166704,0.00108043,-0.0335925,-0.646355,0.0227637,0.0207656,1000,1646,2.49217,-9.79262
-217,-622,2.5589,9.77722,-0.0161935,-0.0245021,-0.0202472,0.000321172,-0.0410168,-0.684214,0.0274522,0.0352215,1007,1646,2.55893,-9.77725
-210,-622,2.44067,9.90759,-0.0214823,-0.02817,-0.0238397,-0.000753088,-0.0488991,-0.715721,0.0323513,0.0470663,1014,1646,2.44067,-9.90765
-203,-622,2.46442,10.0604,-0.0259606,-0.0310085,-0.0270146,-0.00135232,-0.0556168,-0.738819,0.0366354,0.0477166,1021,1646,2.4644,-10.0604
-196,-622,2.29431,10.0575,-0.0309115,-0.0341,-0.0299691,-0.00249425,-0.0625173,-0.758825,0.0408722,0.0474755,1028,1646,2.29434,-10.0575
-189,-622,2.47754,9.63513,-0.0364349,-0.0374097,-0.0327188,-0.00419986,-0.0696447,-0.77795,0.0450951,0.0493468,1035,1646,2.47759,-9.63514
-182,-622,2.72131,9.30078,0,0,0,0,0,0,0,-1,1042,1646,2.72132,-9.30072
-175,-622,2.42041,9.29114,0,0,0,0,0,0,0,-1,1049,1646,2.42035,-9.29118
-168,-622,1.36499,8.89404,0,0,0,0,0,0,0,-1,1056,1646,1.36505,-8.89404
-161,-622,4.45581,9.95581,0,0,0,0,0,0,0,-1,1063,1646,4.45584,-9.95582
-154,-622,0.833008,7.27686,0,0,0,0,0,0,0,-1,1070,1646,0.833054,-7.27682
-147,-622,1.0061,11.4728,0,0,0,0,0,0,0,-1,1077,1646,1.00613,-11.4728
-140,-622,3.25891,8.8418,0,0,0,0,0,0,0,-1,1084,1646,3.25892,-8.84177
-133,-622,3.40173,10.0699,0,0,0,0,0,0,0,-1,1091,1646,3.40173,-10.0699
-126,-622,3.77991,11.6252,0,0,0,0,0,0,0,-1,1098,1646,3.77995,-11.6253
-119,-622,4.06384,13.1715,0,0,0,0,0,0,0,-1,1105,1646,4.06379,-13.1716
-112,-622,4.33276,14.6605,0,0,0,0,0,0,0,-1,1112,1646,4.33281,-14.6605
-105,-622,0.306519,4.38159,0,0,0,0,0,0,0,-1,1119,1646,0.306536,-4.38159
-98,-622,-0.510376,3.5033,0,0,0,0,0,0,0,-1,1126,1646,-0.510393,-3.50324
-91,-622,-1.146,0.975952,0,0,0,0,0,0,0,-1,1133,1646,-1.14599,-0.97597
-84,-622,-2.04895,1.31787,0,0,0,0,0,0,0,-1,1140,1646,-2.0489,-1.31781
-77,-622,-1.80627,0.332275,0,0,0,0,0,0,0,-1,1147,1646,-1.80622,-0.33223
-70,-622,-3.65588,2.28149,0,0,0,0,0,0,0,-1,1154,1646,-3.65589,-2.28155
-63,-622,-2.49683,1.27087,0,0,0,0,0,0,0,-1,1161,1646,-2.49679,-1.27093
-56,-622,-2.44238,-0.575562,0,0,0,0,0,0,0,-1,1168,1646,-2.44242,0.575508
-49,-622,-2.41089,1.38818,0,0,0,0,0,0,0,-1,1175,1646,-2.41088,-1.38815
-42,-622,-2.71497,2.85242,0,0,0,0,0,0,0,-1,1182,1646,-2.71491,-2.85247
-35,-622,-3.0177,4.25842,0,0,0,0,0,0,0,-1,1189,1646,-3.01773,-4.25838
-28,-622,-0.896606,0.678833,0,0,0,0,0,0,0,-1,1196,1646,-0.89661,-0.678835
-21,-622,2.86902,10.8785,0,0,0,0,0,0,0,-1,1203,1646,2.86905,-10.8785
-14,-622,10.4946,9.23328,0,0,0,0,0,0,0,-1,1210,1646,10.4946,-9.23329
-7,-622,9.96643,9.5459,0,0,0,0,0,0,0,-1,1217,1646,9.96638,-9.54591
0,-622,0,0,0,0,0,0,0,0,0,-1,1224,1646,0,0
7,-622,0,0,0,0,0,0,0,0,0,-1,1231,1646,0,0
14,-622,0,0,0,0,0,0,0,0,0,-1,1238,1646,0,0
21,-622,0,0,0,0,0,0,0,0,0,-1,1245,1646,0,0
28,-622,0,0,0,0,0,0,0,0,0,-1,1252,1646,0,0
35,-622,0,0,0,0,0,0,0,0,0,-1,1259,1646,0,0
42,-622,0,0,0,0,0,0,0,0,0,-1,1266,1646,0,0
49,-622,0,0,0,0,0,0,0,0,0,-1,1273,1646,0,0
56,-622,0,0,0,0,0,0,0,0,0,-1,1280,1646,0,0
63,-622,0,0,0,0,0,0,0,0,0,-1,1287,1646,0,0
70,-622,0,0,0,0,0,0,0,0,0,-1,1294,1646,0,0
77,-622,0,0,0,0,0,0,0,0,0,-1,1301,1646,0,0
84,-622,0,0,0,0,0,0,0,0,0,-1,1308,1646,0,0
91,-622,0,0,0,0,0,0,0,0,0,-1,1315,1646,0,0
98,-622,0,0,0,0,0,0,0,0,0,-1,1322,1646,0,0
105,-622,0,0,0,0,0,0,0,0,0,-1,1329,1646,0,0
112,-622,0,0,0,0,0,0,0,0,0,-1,1336,1646,0,0
119,-622,0,0,0,0,0,0,0,0,0,-1,1343,1646,0,0
126,-622,3.22205,10.9525,0,0,0,0,0,0,0,-1,1350,1646,3.22205,-10.9525
133,-622,3.30017,12.3341,0,0,0,0,0,0,0,-1,1357,1646,3.30022,-12.3341
140,-622,3.39392,13.7065,0,0,0,0,0,0,0,-1,1364,1646,3.39396,-13.7066
147,-622,8.23511,8.77979,0,0,0,0,0,0,0,-1,1371,1646,8.23516,-8.77973
154,-622,9.22742,7.69604,0,0,0,0,0,0,0,-1,1378,1646,9.22739,-7.69608
161,-622,10.6884,6.46448,0,0,0,0,0,0,0,-1,1385,1646,10.6883,-6.46442
168,-622,12.2402,5.18091,0,0,0,0,0,0,0,-1,1392,1646,12.2403,-5.1809
175,-622,5.64355,-1.77075,0,0,0,0,0,0,0,-1,1399,1646,5.64351,1.77077
182,-622,5.88586,-1.32251,0,0,0,0,0,0,0,-1,1406,1646,5.88587,1.32256
189,-622,5.97986,-1.18005,0,0,0,0,0,0,0,-1,1413,1646,5.97986,1.18003
196,-622,5.85022,-0.244507,0,0,0,0,0,0,0,-1,1420,1646,5.85026,0.244478
203,-622,5.25159,0.138794,0,0,0,0,0,0,0,-1,1427,1646,5.25162,-0.138822
210,-622,6.66833,0.0397949,0,0,0,0,0,0,0,-1,1434,1646,6.6684,-0.0398278
217,-622,6.12061,0.0506592,0,0,0,0,0,0,0,-1,1441,1646,6.12058,-0.0507181
224,-622,5.57275,0.0616455,0,0,0,0,0,0,0,-1,1448,1646,5.57276,-0.0616084
231,-622,5.31348,1.3949,0,0,0,0,0,0,0,-1,1455,1646,5.31342,-1.39495
238,-622,3.76477,2.90686,0,0,0,0,0,0,0,-1,1462,1646,3.7648,-2.90686
245,-622,5.13794,2.67993,0,0,0,0,0,0,0,-1,1469,1646,5.13796,-2.67992
252,-622,6.66528,2.53992,0,0,0,0,0,0,0,-1,1476,1646,6.66522,-2.53991
259,-622,8.93787,3.31458,0,0,0,0,0,0,0,-1,1483,1646,8.93791,-3.31454
266,-622,5.72644,3.11926,0,0,0,0,0,0,0,-1,1490,1646,5.72647,-3.1192
273,-622,7.28076,3.61218,0,0,0,0,0,0,0,-1,1497,1646,7.28071,-3.61212
280,-622,8.43127,4.4447,0,0,0,0,0,0,0,-1,1504,1646,8.43123,-4.44467
287,-622,8.60315,5.94617,0,0,0,0,0,0,0,-1,1511,1646,8.60319,-5.94622
294,-622,8.77515,7.44775,0,0,0,0,0,0,0,-1,1518,1646,8.77514,-7.44777
301,-622,5.75024,9.6001,0,0,0,0,0,0,0,-1,1525,1646,5.75022,-9.60012
308,-622,5.14172,11.1174,0,0,0,0,0,0,0,-1,1532,1646,5.14172,-11.1174
315,-622,5.68958,10.3993,0,0,0,0,0,0,0,-1,1539,1646,5.68953,-10.3993
322,-622,5.18408,11.7554,0,0,0,0,0,0,0,-1,1546,1646,5.18411,-11.7554
329,-622,5.08435,11.5439,0,0,0,0,0,0,0,-1,1553,1646,5.0844,-11.544
336,-622,5.52844,11.5322,0,0,0,0,0,0,0,-1,1560,1646,5.52838,-11.5322
343,-622,5.27197,10.9818,0,0,0,0,0,0,0,-1,1567,1646,5.27195,-10.9818
350,-622,5.24573,10.8099,0.00633545,-0.0112265,0.00364134,0.00706052,-0.0119515,0.196551,0.011097,0.0488487,1574,1646,5.24567,-10.81
357,-622,5.24438,10.5422,0.00252458,-0.00646278,0.00320089,0.00354805,-0.00748624,0.309469,0.00650449,0.0404681,1581,1646,5.24441,-10.5422
364,-622,5.29285,10.4047,0.00182646,-0.00541684,0.00297488,0.00289163,-0.00648201,0.343831,0.00554262,0.0334559,1588,1646,5.29287,-10.4046
371,-622,5.26501,10.337,0.00144764,-0.00470521,0.00286128,0.00257256,-0.00583014,0.37459,0.00497134,0.0203118,1595,1646,5.26496,-10.337
378,-622,5.23267,10.2493,0.000920833,-0.00364346,0.00248198,0.0020104,-0.00473303,0.413659,0.00399769,0.010193,1602,1646,5.23267,-10.2493
385,-622,5.21851,10.1348,0.000575856,-0.00329923,0.00244365,0.00175689,-0.00448026,0.450203,0.00371368,0.00888447,1609,1646,5.21852,-10.1348
392,-622,5.21643,10.0284,0.000650305,-0.00345237,0.00230064,0.00168132,-0.00448339,0.42131,0.00367971,0.0104373,1616,1646,5.21638,-10.0285
399,-622,5.2074,9.90662,0.00059591,-0.00308076,0.00208176,0.00153484,-0.00401968,0.423708,0.00331214,0.0117554,1623,1646,5.20743,-9.90659
406,-622,5.2251,9.79053,0.000432048,-0.0028756,0.00187556,0.0012788,-0.00372234,0.424071,0.0030001,0.0156179,1630,1646,5.22506,-9.79048
413,-622,5.22925,9.68335,0.000166231,-0.00248196,0.00163677,0.000947424,-0.00326315,0.445305,0.00255059,0.0162266,1637,1646,5.22926,-9.68331
420,-622,5.24646,9.58032,-0.000165382,-0.002081,0.00139294,0.000567278,-0.00281365,0.484215,0.00209068,0.0146662,1644,1646,5.24647,-9.58032
427,-622,5.26062,9.41541,-0.000496251,-0.00177473,0.00118878,0.000214258,-0.00248523,0.538712,0.00173266,0.0112427,1651,1646,5.26063,-9.41537
434,-622,5.27527,9.29504,-0.000930062,-0.00149041,0.00100632,-0.000165645,-0.00225482,0.649629,0.00145116,0.012002,1658,1646,5.27528,-9.2951
441,-622,5.25793,9.18689,-0.00128199,-0.001195,0.000886944,-0.000350487,-0.00212651,0.809899,0.00131649,0.013654,1665,1646,5.2579,-9.18695
448,-622,5.23499,9.07324,-0.00146012,-0.000786483,0.000809789,-0.000246258,-0.00200034,0.982481,0.00125953,0.0133103,1672,1646,5.23495,-9.0733
455,-622,5.23145,8.92737,-0.00163051,-0.000425945,0.000681402,-0.000118803,-0.00193765,1.14732,0.00125404,0.0156651,1679,1646,5.23149,-8.92735
462,-622,5.26257,8.82117,-0.0015739,-2.35774e-05,0.000564063,0.000159928,-0.00175741,1.25627,0.00122839,0.0166534,1686,1646,5.26258,-8.82122
469,-622,5.26208,8.71106,-0.00130557,0.000588173,0.000366419,0.000656599,-0.001374,1.38618,0.00119651,0.0172664,1693,1646,5.26206,-8.71112
476,-622,5.26953,8.55066,-0.00090678,0.00125554,0.00023306,0.00128038,-0.000931614,1.46464,0.00128237,0.0168471,1700,1646,5.26954,-8.55067
483,-622,5.23987,8.36316,-0.000484711,0.00211466,9.88852e-05,0.00211841,-0.000488467,1.53283,0.00160015,0.0241509,1707,1646,5.23981,-8.36313
490,-622,5.23022,8.2218,0.00010782,0.00318323,-9.90558e-05,0.00318642,0.000104633,-1.53863,0.00209028,0.0306502,1714,1646,5.23024,-8.22183
497,-622,5.47009,8.09644,0.0011693,0.00450034,-0.000733147,0.00465456,0.00101508,-1.36346,0.00282611,0.0374429,1721,1646,5.47015,-8.09644
504,-622,5.6217,7.96582,0,0,0,0,0,0,0,-1,1728,1646,5.62169,-7.96577
511,-622,5.29004,4.14587,0,0,0,0,0,0,0,-1,1735,1646,5.29008,-4.14589
518,-622,5.6001,1.55359,0,0,0,0,0,0,0,-1,1742,1646,5.60015,-1.5536
525,-622,5.68213,1.32361,0,0,0,0,0,0,0,-1,1749,1646,5.68209,-1.32361
532,-622,5.44202,0.57373,0,0,0,0,0,0,0,-1,1756,1646,5.44196,-0.573705
539,-622,9.32129,1.06116,0,0,0,0,0,0,0,-1,1763,1646,9.32131,-1.0612
546,-622,6.50977,-3.45618,0,0,0,0,0,0,0,-1,1770,1646,6.50981,3.4562
553,-622,0,0,0,0,0,0,0,0,0,-1,1777,1646,0,0
560,-622,0,0,0,0,0,0,0,0,0,-1,1784,1646,0,0
567,-622,0,0,0,0,0,0,0,0,0,-1,1791,1646,0,0
574,-622,0,0,0,0,0,0,0,0,0,-1,1798,1646,0,0
581,-622,0,0,0,0,0,0,0,0,0,-1,1805,1646,0,0
588,-622,0,0,0,0,0,0,0,0,0,-1,1812,1646,0,0
595,-622,0,0,0,0,0,0,0,0,0,-1,1819,1646,0,0
602,-622,0,0,0,0,0,0,0,0,0,-1,1826,1646,0,0
609,-622,0,0,0,0,0,0,0,0,0,-1,1833,1646,0,0
616,-622,0,0,0,0,0,0,0,0,0,-1,1840,1646,0,0
623,-622,0,0,0,0,0,0,0,0,0,-1,1847,1646,0,0
630,-622,0,0,0,0,0,0,0,0,0,-1,1854,1646,0,0
637,-622,0,0,0,0,0,0,0,0,0,-1,1861,1646,0,0
644,-622,0,0,0,0,0,0,0,0,0,-1,1868,1646,0,0
651,-622,0,0,0,0,0,0,0,0,0,-1,1875,1646,0,0
658,-622,0,0,0,0,0,0,0,0,0,-1,1882,1646,0,0
665,-622,0,0,0,0,0,0,0,0,0,-1,1889,1646,0,0
672,-622,0,0,0,0,0,0,0,0,0,-1,1896,1646,0,0
679,-622,0,0,0,0,0,0,0,0,0,-1,1903,1646,0,0
686,-622,0,0,0,0,0,0,0,0,0,-1,1910,1646,0,0
693,-622,0,0,0,0,0,0,0,0,0,-1,1917,1646,0,0
700,-622,0,0,0,0,0,0,0,0,0,-1,1924,1646,0,0
707,-622,0,0,0,0,0,0,0,0,0,-1,1931,1646,0,0
714,-622,0,0,0,0,0,0,0,0,0,-1,1938,1646,0,0
721,-622,0,0,0,0,0,0,0,0,0,-1,1945,1646,0,0
728,-622,0,0,0,0,0,0,0,0,0,-1,1952,1646,0,0
735,-622,0,0,0,0,0,0,0,0,0,-1,1959,1646,0,0
742,-622,0,0,0,0,0,0,0,0,0,-1,1966,1646,0,0
749,-622,0,0,0,0,0,0,0,0,0,-1,1973,1646,0,0
756,-622,0,0,0,0,0,0,0,0,0,-1,1980,1646,0,0
763,-622,0,0,0,0,0,0,0,0,0,-1,1987,1646,0,0
770,-622,0,0,0,0,0,0,0,0,0,-1,1994,1646,0,0
777,-622,0,0,0,0,0,0,0,0,0,-1,2001,1646,0,0
784,-622,0,0,0,0,0,0,0,0,0,-1,2008,1646,0,0
791,-622,0,0,0,0,0,0,0,0,0,-1,2015,1646,0,0
798,-622,0,0,0,0,0,0,0,0,0,-1,2022,1646,0,0
805,-622,0,0,0,0,0,0,0,0,0,-1,2029,1646,0,0
812,-622,0,0,0,0,0,0,0,0,0,-1,2036,1646,0,0
-700,-629,0,0,0,0,0,0,0,0,0,-1,524,1653,0,0
-693,-629,0,0,0,0,0,0,0,0,0,-1,531,1653,0,0
-686,-629,0,0,0,0,0,0,0,0,0,-1,538,1653,0,0
-679,-629,0,0,0,0,0,0,0,0,0,-1,545,1653,0,0
-672,-629,0,0,0,0,0,0,0,0,0,-1,552,1653,0,0
-665,-629,0,0,0,0,0,0,0,0,0,-1,559,1653,0,0
-658,-629,0,0,0,0,0,0,0,0,0,-1,566,1653,0,0
-651,-629,0,0,0,0,0,0,0,0,0,-1,573,1653,0,0
-644,-629,0,0,0,0,0,0,0,0,0,-1,580,1653,0,0
-637,-629,0,0,0,0,0,0,0,0,0,-1,587,1653,0,0
-630,-629,0,0,0,0,0,0,0,0,0,-1,594,1653,0,0
-623,-629,0,0,0,0,0,0,0,0,0,-1,601,1653,0,0
-616,-629,0,0,0,0,0,0,0,0,0,-1,608,1653,0,0
-609,-629,0,0,0,0,0,0,0,0,0,-1,615,1653,0,0
-602,-629,0,0,0,0,0,0,0,0,0,-1,622,1653,0,0
-595,-629,0,0,0,0,0,0,0,0,0,-1,629,1653,0,0
-588,-629,0,0,0,0,0,0,0,0,0,-1,636,1653,0,0
-581,-629,0,0,0,0,0,0,0,0,0,-1,643,1653,0,0
-574,-629,0,0,0,0,0,0,0,0,0,-1,650,1653,0,0
-567,-629,0,0,0,0,0,0,0,0,0,-1,657,1653,0,0
-560,-629,0,0,0,0,0,0,0,0,0,-1,664,1653,0,0
-553,-629,0,0,0,0,0,0,0,0,0,-1,671,1653,0,0
-546,-629,0,0,0,0,0,0,0,0,0,-1,678,1653,0,0
-539,-629,0,0,0,0,0,0,0,0,0,-1,685,1653,0,0
-532,-629,0,0,0,0,0,0,0,0,0,-1,692,1653,0,0
-525,-629,0,0,0,0,0,0,0,0,0,-1,699,1653,0,0
-518,-629,0,0,0,0,0,0,0,0,0,-1,706,1653,0,0
-511,-629,0,0,0,0,0,0,0,0,0,-1,713,1653,0,0
-504,-629,0,0,0,0,0,0,0,0,0,-1,720,1653,0,0
-497,-629,0,0,0,0,0,0,0,0,0,-1,727,1653,0,0
-490,-629,0,0,0,0,0,0,0,0,0,-1,734,1653,0,0
-483,-629,0,0,0,0,0,0,0,0,0,-1,741,1653,0,0
-476,-629,0,0,0,0,0,0,0,0,0,-1,748,1653,0,0
-469,-629,0,0,0,0,0,0,0,0,0,-1,755,1653,0,0
-462,-629,0,0,0,0,0,0,0,0,0,-1,762,1653,0,0
-455,-629,0,0,0,0,0,0,0,0,0,-1,769,1653,0,0
-448,-629,0,0,0,0,0,0,0,0,0,-1,776,1653,0,0
-441,-629,0,0,0,0,0,0,0,0,0,-1,783,1653,0,0
-434,-629,0,0,0,0,0,0,0,0,0,-1,790,1653,0,0
-427,-629,0,0,0,0,0,0,0,0,0,-1,797,1653,0,0
-420,-629,-3.87103,3.37634,0,0,0,0,0,0,0,-1,804,1653,-3.87101,-3.37633
-413,-629,-5.69751,1.33582,0,0,0,0,0,0,0,-1,811,1653,-5.69754,-1.3358
-406,-629,-4.80127,2.0271,0,0,0,0,0,0,0,-1,818,1653,-4.80127,-2.02711
-399,-629,-3.96466,2.78967,0,0,0,0,0,0,0,-1,825,1653,-3.96469,-2.78972
-392,-629,1.99213,7.97876,0,0,0,0,0,0,0,-1,832,1653,1.99211,-7.9787
-385,-629,1.53235,8.38196,0,0,0,0,0,0,0,-1,839,1653,1.53234,-8.38191
-378,-629,0.733093,6.36353,0,0,0,0,0,0,0,-1,846,1653,0.733123,-6.3635
-371,-629,1.97943,7.38013,0,0,0,0,0,0,0,-1,853,1653,1.97943,-7.38015
-364,-629,2.20789,7.53418,0.00993376,-0.00209101,0.000766477,0.00998242,-0.00213967,0.0633995,0.00747101,0.0452739,860,1653,2.20788,-7.53414
-357,-629,2.42633,7.84912,0.0041501,-0.0035886,-0.00501875,0.00661792,-0.00605641,-0.457002,0.00731992,0.0483037,867,1653,2.4263,-7.84909
-350,-629,2.62903,7.79785,0.00133723,-0.000445917,-0.0055254,0.00604253,-0.00515121,-0.705408,0.00646953,0.0467167,874,1653,2.62901,-7.79791
-343,-629,2.43378,7.66199,-0.000364137,0.00191865,-0.00565717,0.00654842,-0.00499391,-0.884942,0.00668408,0.037703,881,1653,2.43379,-7.66201
-336,-629,2.49371,7.62646,-0.00182534,0.00403616,-0.00550094,0.00733836,-0.00512753,-1.03016,0.00723482,0.0181307,888,1653,2.49369,-7.62645
-329,-629,2.50983,7.7854,-0.00302165,0.00546457,-0.00505819,0.00782367,-0.00538076,-1.13439,0.00766695,0.0115032,895,1653,2.50981,-7.78537
-322,-629,2.51239,7.9281,-0.00371867,0.00622561,-0.00458041,0.00801382,-0.00550688,-1.19859,0.00785078,0.0116287,902,1653,2.51236,-7.9281
-315,-629,2.50787,8.078,-0.00422633,0.00627333,-0.00396678,0.00760347,-0.00555648,-1.24726,0.00762848,0.0142749,909,1653,2.50785,-8.07797
-308,-629,2.508,8.22961,-0.00444651,0.00572526,-0.00331468,0.00671007,-0.00543131,-1.282,0.00702278,0.0119441,916,1653,2.50798,-8.22959
-301,-629,2.52344,8.37891,-0.00411635,0.00481833,-0.00263907,0.00553961,-0.00483763,-1.304,0.00599587,0.0112474,923,1653,2.52342,-8.37893
-294,-629,2.51489,8.50647,-0.00328218,0.00352887,-0.00198395,0.00406462,-0.00381794,-1.30704,0.00455174,0.0123413,930,1653,2.51487,-8.50651
-287,-629,2.49207,8.64819,-0.00230311,0.00212047,-0.00150124,0.00258183,-0.00276447,-1.27264,0.00308729,0.00946058,937,1653,2.49205,-8.64822
-280,-629,2.49139,8.79382,-0.00137423,0.000707,-0.00119234,0.00124896,-0.00191619,-1.14418,0.00184089,0.00898057,944,1653,2.49139,-8.79385
-273,-629,2.5083,8.91577,-0.000669561,-0.0010551,-0.0010215,0.000177204,-0.00190186,-0.69214,0.00133092,0.0119318,951,1653,2.50829,-8.91577
-266,-629,2.50043,9.05933,0.000150177,-0.00235241,-0.000903231,0.000442114,-0.00264435,-0.312616,0.00192725,0.0133146,958,1653,2.50044,-9.0593
-259,-629,2.49207,9.22864,0.000426694,-0.00393692,-0.0012646,0.000766693,-0.00427692,-0.262647,0.00313822,0.0146815,965,1653,2.49206,-9.22862
-252,-629,2.50647,9.32092,0.000207269,-0.00575132,-0.00194297,0.000784843,-0.0063289,-0.288945,0.00450373,0.0111402,972,1653,2.5065,-9.32097
-245,-629,2.5274,9.44312,-0.000461464,-0.00754661,-0.00344679,0.000938653,-0.00894673,-0.385848,0.00630072,0.00808358,979,1653,2.52742,-9.44317
-238,-629,2.52991,9.58032,-0.00140309,-0.0091775,-0.00567404,0.00158757,-0.0121682,-0.485075,0.00868977,0.00968297,986,1653,2.52989,-9.58029
-231,-629,2.52966,9.71362,-0.00353803,-0.0117629,-0.00803217,0.00137329,-0.0166742,-0.5488,0.011601,0.00923058,993,1653,2.52969,-9.71357
-224,-629,2.56622,9.82483,-0.00665612,-0.0143103,-0.0106551,0.000838394,-0.0218048,-0.612985,0.0148239,0.00908619,1000,1653,2.56621,-9.82483
-217,-629,2.56744,9.91211,-0.0100434,-0.0168256,-0.0135206,0.000504803,-0.0273739,-0.662527,0.0184198,0.0134337,1007,1653,2.56743,-9.91211
-210,-629,2.56049,9.9884,-0.0139656,-0.0196913,-0.0166543,7.00671e-05,-0.033727,-0.700282,0.022508,0.0277844,1014,1653,2.56051,-9.98835
-203,-629,2.42438,10.0829,-0.0171734,-0.0219065,-0.0193107,-8.47653e-05,-0.0389952,-0.724427,0.0259686,0.0384998,1021,1653,2.42439,-10.0829
-196,-629,2.51428,10.1072,-0.0209536,-0.0244401,-0.0219451,-0.000682607,-0.0447111,-0.745763,0.0295825,0.0389,1028,1653,2.51434,-10.1072
-189,-629,2.78333,10.0826,-0.0251876,-0.0272149,-0.0244554,-0.00172483,-0.0506777,-0.764686,0.0332251,0.0419325,1035,1653,2.78332,-10.0826
-182,-629,2.83606,10.04,0,0,0,0,0,0,0,-1,1042,1653,2.83604,-10.0401
-175,-629,2.48877,10.7924,0,0,0,0,0,0,0,-1,1049,1653,2.48876,-10.7923
-168,-629,1.99194,11.1924,0,0,0,0,0,0,0,-1,1056,1653,1.992,-11.1924
-161,-629,1.52576,10.7524,0,0,0,0,0,0,0,-1,1063,1653,1.52574,-10.7524
-154,-629,3.72729,10.3241,0,0,0,0,0,0,0,-1,1070,1653,3.72732,-10.3241
-147,-629,1.76111,11.2395,0,0,0,0,0,0,0,-1,1077,1653,1.7611,-11.2395
-140,-629,2.99341,8.61719,0,0,0,0,0,0,0,-1,1084,1653,2.99339,-8.61716
-133,-629,3.06189,9.69836,0,0,0,0,0,0,0,-1,1091,1653,3.06186,-9.69837
-126,-629,2.69519,10.2487,0,0,0,0,0,0,0,-1,1098,1653,2.69515,-10.2486
-119,-629,4.94177,13.5525,0,0,0,0,0,0,0,-1,1105,1653,4.94172,-13.5525
-112,-629,5.63123,15.9187,0,0,0,0,0,0,0,-1,1112,1653,5.63118,-15.9187
-105,-629,2.15881,4.38342,0,0,0,0,0,0,0,-1,1119,1653,2.15878,-4.38347
-98,-629,0.825806,4.19385,0,0,0,0,0,0,0,-1,1126,1653,0.825779,-4.1939
-91,-629,-0.452271,3.64465,0,0,0,0,0,0,0,-1,1133,1653,-0.452278,-3.6446
-84,-629,-1.6897,0.867676,0,0,0,0,0,0,0,-1,1140,1653,-1.68974,-0.867617
-77,-629,-1.71143,0.768555,0,0,0,0,0,0,0,-1,1147,1653,-1.71137,-0.768609
-70,-629,-1.20886,2.52502,0,0,0,0,0,0,0,-1,1154,1653,-1.20886,-2.525
-63,-629,-0.960693,4.30212,0,0,0,0,0,0,0,-1,1161,1653,-0.960691,-4.30215
-56,-629,-1.31934,5.64343,0,0,0,0,0,0,0,-1,1168,1653,-1.31928,-5.6434
-49,-629,-2.15662,2.57458,0,0,0,0,0,0,0,-1,1175,1653,-2.15656,-2.57459
-42,-629,-2.46326,3.91467,0,0,0,0,0,0,0,-1,1182,1653,-2.4633,-3.91466
-35,-629,-2.67261,5.24292,0,0,0,0,0,0,0,-1,1189,1653,-2.67257,-5.24298
-28,-629,-0.402954,-0.866577,0,0,0,0,0,0,0,-1,1196,1653,-0.402943,0.866612
-21,-629,10.063,9.59705,0,0,0,0,0,0,0,-1,1203,1653,10.063,-9.59708
-14,-629,9.82385,9.75806,0,0,0,0,0,0,0,-1,1210,1653,9.82387,-9.75803
-7,-629,9.31677,10.0297,-0.112014,-0.0305386,0.045956,-0.00986356,-0.132689,1.14804,0.0853614,0.0449823,1217,1653,9.31682,-10.0297
0,-629,8.75391,10.0966,-0.0795697,-0.0278612,0.0591846,0.0108699,-0.118301,0.991327,0.0827289,0.0466496,1224,1653,8.75394,-10.0966
7,-629,8.57263,9.86646,-0.0507905,-0.0224097,0.067164,0.0320467,-0.105247,0.889507,0.0829369,0.0441701,1231,1653,8.57264,-9.86642
14,-629,2.82874,8.95068,0,0,0,0,0,0,0,-1,1238,1653,2.82879,-8.95067
21,-629,4.47949,11.345,0,0,0,0,0,0,0,-1,1245,1653,4.47943,-11.345
28,-629,6.02539,13.6824,0,0,0,0,0,0,0,-1,1252,1653,6.02536,-13.6824
35,-629,1.05334,12.0797,0,0,0,0,0,0,0,-1,1259,1653,1.05331,-12.0797
42,-629,1.25684,11.8044,0,0,0,0,0,0,0,-1,1266,1653,1.25687,-11.8044
49,-629,1.19531,10.5464,0,0,0,0,0,0,0,-1,1273,1653,1.19537,-10.5463
56,-629,0.930664,9.27856,0,0,0,0,0,0,0,-1,1280,1653,0.930694,-9.27861
63,-629,5.11377,9.85144,0,0,0,0,0,0,0,-1,1287,1653,5.11382,-9.8514
70,-629,5.86084,9.60339,0.0803778,-0.0492315,0.0771862,0.116357,-0.0852105,0.436189,0.116837,0.045178,1294,1653,5.86084,-9.60345
77,-629,6.26208,10.0803,0.0735895,-0.051315,0.0716832,0.10621,-0.0839351,0.427054,0.110031,0.0494107,1301,1653,6.26208,-10.0804
84,-629,6.59814,10.5347,0.0682301,-0.057387,0.0697917,0.099314,-0.0884709,0.419007,0.108478,0.0465732,1308,1653,6.5982,-10.5346
91,-629,7.00708,10.9984,0.0639252,-0.0648536,0.0714836,0.0957434,-0.0966717,0.418781,0.111091,0.044301,1315,1653,7.00711,-10.9984
98,-629,7.68262,11.0034,0.0594465,-0.0725617,0.0737284,0.0923991,-0.105514,0.420311,0.114349,0.0453854,1322,1653,7.68262,-11.0034
105,-629,8.07971,10.868,0,0,0,0,0,0,0,-1,1329,1653,8.07965,-10.8681
112,-629,8.5426,10.8303,0,0,0,0,0,0,0,-1,1336,1653,8.54257,-10.8303
119,-629,3.62585,9.4458,0,0,0,0,0,0,0,-1,1343,1653,3.62589,-9.44581
126,-629,3.47229,10.3342,0,0,0,0,0,0,0,-1,1350,1653,3.4723,-10.3342
133,-629,3.58167,11.7667,0,0,0,0,0,0,0,-1,1357,1653,3.58163,-11.7668
140,-629,4.36365,12.365,0,0,0,0,0,0,0,-1,1364,1653,4.36363,-12.365
147,-629,8.70483,8.60168,0,0,0,0,0,0,0,-1,1371,1653,8.70487,-8.60166
154,-629,9.14783,7.88013,0,0,0,0,0,0,0,-1,1378,1653,9.14786,-7.88011
161,-629,10.5461,6.83752,0,0,0,0,0,0,0,-1,1385,1653,10.5461,-6.83758
168,-629,12.0059,5.56348,0,0,0,0,0,0,0,-1,1392,1653,12.0059,-5.56352
175,-629,5.84485,-1.78845,0,0,0,0,0,0,0,-1,1399,1653,5.84479,1.7884
182,-629,5.99036,-1.27783,0,0,0,0,0,0,0,-1,1406,1653,5.99041,1.27778
189,-629,5.97668,-0.748535,0,0,0,0,0,0,0,-1,1413,1653,5.97671,0.748544
196,-629,4.52869,9.24695,0,0,0,0,0,0,0,-1,1420,1653,4.52869,-9.2469
203,-629,3.75085,6.88037,0,0,0,0,0,0,0,-1,1427,1653,3.75087,-6.88032
210,-629,3.5907,6.52637,0,0,0,0,0,0,0,-1,1434,1653,3.59067,-6.52642
217,-629,2.4585,4.84448,0,0,0,0,0,0,0,-1,1441,1653,2.45855,-4.84448
224,-629,1.31982,3.68481,0,0,0,0,0,0,0,-1,1448,1653,1.31986,-3.68487
231,-629,3.63025,1.73499,0,0,0,0,0,0,0,-1,1455,1653,3.6303,-1.735
238,-629,4.26428,2.11255,0,0,0,0,0,0,0,-1,1462,1653,4.26429,-2.11253
245,-629,5.61816,1.95361,0,0,0,0,0,0,0,-1,1469,1653,5.61815,-1.95359
252,-629,7.27136,2.18982,0,0,0,0,0,0,0,-1,1476,1653,7.27131,-2.18985
259,-629,8.67334,2.18628,0,0,0,0,0,0,0,-1,1483,1653,8.6733,-2.18633
266,-629,6.86475,3.72058,0,0,0,0,0,0,0,-1,1490,1653,6.86479,-3.72063
273,-629,7.9021,3.8717,0,0,0,0,0,0,0,-1,1497,1653,7.90205,-3.87171
280,-629,9.70837,4.39087,0,0,0,0,0,0,0,-1,1504,1653,9.7084,-4.39082
287,-629,9.82947,7.19348,0,0,0,0,0,0,0,-1,1511,1653,9.8295,-7.19347
294,-629,4.56628,10.6339,0,0,0,0,0,0,0,-1,1518,1653,4.56631,-10.6339
301,-629,5.11609,11.3976,0,0,0,0,0,0,0,-1,1525,1653,5.11612,-11.3975
308,-629,5.01257,10.7546,0,0,0,0,0,0,0,-1,1532,1653,5.01261,-10.7546
315,-629,4.90735,11.173,0,0,0,0,0,0,0,-1,1539,1653,4.9074,-11.173
322,-629,5.17651,11.49,0.0253834,-0.0307424,0.00517328,0.0258563,-0.0312153,0.0911495,0.0329987,0.043865,1546,1653,5.17657,-11.4899
329,-629,5.10547,11.3097,0.0194151,-0.0235828,0.00439796,0.0198604,-0.024028,0.100891,0.025377,0.040879,1553,1653,5.10548,-11.3097
336,-629,5.07129,11.1426,0.0142273,-0.0174375,0.00370305,0.0146546,-0.0178648,0.11488,0.0188055,0.0416259,1560,1653,5.07133,-11.1425
343,-629,5.10413,10.6777,0.00861719,-0.0114875,0.00298111,0.00904991,-0.0119203,0.144148,0.0121449,0.0393979,1567,1653,5.10409,-10.6777
350,-629,5.1272,10.588,0.00435656,-0.00619621,0.00253666,0.00493465,-0.0067743,0.224067,0.00678792,0.0270329,1574,1653,5.12715,-10.5881
357,-629,5.13452,10.5278,0.00181709,-0.00343713,0.00218766,0.00260869,-0.00422872,0.347189,0.00398434,0.0170379,1581,1653,5.13447,-10.5278
364,-629,5.11865,10.4277,0.00129956,-0.00303519,0.00205082,0.00211604,-0.00385167,0.378886,0.00349369,0.0141965,1588,1653,5.11868,-10.4277
371,-629,5.11499,10.3254,0.00098804,-0.0028007,0.00197456,0.00183,-0.00364266,0.403061,0.0032169,0.010433,1595,1653,5.11498,-10.3254
378,-629,5.11292,10.2229,0.000706499,-0.00228159,0.00169029,0.00146839,-0.00304348,0.423474,0.00265731,0.00936678,1602,1653,5.11292,-10.2229
385,-629,5.11975,10.132,0.0005633,-0.00215063,0.00160741,0.00130993,-0.00289726,0.434842,0.00248599,0.0111794,1609,1653,5.1197,-10.132
392,-629,5.104,10.0256,0.000598801,-0.00231423,0.0014767,0.00121643,-0.00293186,0.39614,0.00246233,0.0103895,1616,1653,5.10404,-10.0256
399,-629,5.0979,9.90332,0.000472568,-0.00207107,0.00130271,0.00102135,-0.00261985,0.398698,0.00216872,0.0118548,1623,1653,5.09788,-9.90328
406,-629,5.11597,9.79138,0.000274893,-0.00197181,0.00117012,0.000773609,-0.00247053,0.402894,0.00195655,0.0149843,1630,1653,5.11599,-9.79137
413,-629,5.1084,9.71399,-2.31159e-05,-0.00174251,0.00100995,0.000443493,-0.00220912,0.432796,0.00164068,0.0220633,1637,1653,5.10837,-9.71394
420,-629,5.10486,9.60889,-0.000428605,-0.00151666,0.000867854,5.16399e-05,-0.00199691,0.505428,0.00134882,0.0189413,1644,1653,5.10488,-9.60884
427,-629,5.12036,9.44678,-0.000885,-0.00141118,0.000804454,-0.000301707,-0.00199447,0.62736,0.00124136,0.011945,1651,1653,5.12036,-9.44676
434,-629,5.13806,9.3042,-0.00146805,-0.0013358,0.000762796,-0.000636266,-0.00216758,0.828636,0.00128652,0.0103813,1658,1653,5.13806,-9.30422
441,-629,5.14539,9.20068,-0.00198151,-0.00122903,0.000789095,-0.000731067,-0.00247947,1.00786,0.00147114,0.0139359,1665,1653,5.14534,-9.20067
448,-629,5.11951,9.06848,-0.00231318,-0.00102604,0.000893521,-0.000568447,-0.00277077,1.0975,0.00168988,0.0133853,1672,1653,5.11948,-9.06848
455,-629,5.11377,8.9281,-0.00263362,-0.000819734,0.000943259,-0.000418135,-0.00303522,1.16828,0.0018995,0.013032,1679,1653,5.11378,-8.92808
462,-629,5.14087,8.83508,-0.00272205,-0.000455236,0.000999277,-7.76277e-05,-0.00309966,1.2095,0.00204105,0.0158721,1686,1653,5.14082,-8.83512
469,-629,5.1637,8.69531,-0.00257286,0.000145886,0.000958848,0.000450029,-0.002877,1.26364,0.00208427,0.019424,1693,1653,5.16367,-8.69535
476,-629,5.19348,8.54175,-0.00218776,0.000925359,0.000963342,0.00119935,-0.00246175,1.2937,0.00215521,0.0264375,1700,1653,5.19344,-8.54176
483,-629,5.15039,8.33948,-0.00168124,0.00209738,0.000936391,0.0023167,-0.00190056,1.34073,0.00243878,0.0401722,1707,1653,5.15042,-8.33953
490,-629,5.07886,8.13354,-0.000963707,0.00355119,0.000820674,0.00369573,-0.00110825,1.39645,0.00290459,0.0464262,1714,1653,5.07883,-8.1335
497,-629,5.04834,7.99414,0.000675934,0.00555973,4.13757e-05,0.00556008,0.000675583,1.56233,0.00350331,0.0471124,1721,1653,5.0483,-7.99416
504,-629,4.99207,7.87366,0,0,0,0,0,0,0,-1,1728,1653,4.99205,-7.87367
511,-629,6.29138,3.40295,0,0,0,0,0,0,0,-1,1735,1653,6.29137,-3.403
518,-629,5.84387,1.41858,0,0,0,0,0,0,0,-1,1742,1653,5.84391,-1.4186
525,-629,6.4729,1.02319,0,0,0,0,0,0,0,-1,1749,1653,6.47284,-1.02316
532,-629,6.86511,0.903687,0,0,0,0,0,0,0,-1,1756,1653,6.86514,-0.903691
539,-629,6.60803,0.746704,0,0,0,0,0,0,0,-1,1763,1653,6.60809,-0.746691
546,-629,0,0,0,0,0,0,0,0,0,-1,1770,1653,0,0
553,-629,0,0,0,0,0,0,0,0,0,-1,1777,1653,0,0
560,-629,0,0,0,0,0,0,0,0,0,-1,1784,1653,0,0
567,-629,0,0,0,0,0,0,0,0,0,-1,1791,1653,0,0
574,-629,0,0,0,0,0,0,0,0,0,-1,1798,1653,0,0
581,-629,0,0,0,0,0,0,0,0,0,-1,1805,1653,0,0
588,-629,0,0,0,0,0,0,0,0,0,-1,1812,1653,0,0
595,-629,0,0,0,0,0,0,0,0,0,-1,1819,1653,0,0
602,-629,0,0,0,0,0,0,0,0,0,-1,1826,1653,0,0
609,-629,0,0,0,0,0,0,0,0,0,-1,1833,1653,0,0
616,-629,0,0,0,0,0,0,0,0,0,-1,1840,1653,0,0
623,-629,0,0,0,0,0,0,0,0,0,-1,1847,1653,0,0
630,-629,0,0,0,0,0,0,0,0,0,-1,1854,1653,0,0
637,-629,0,0,0,0,0,0,0,0,0,-1,1861,1653,0,0
644,-629,0,0,0,0,0,0,0,0,0,-1,1868,1653,0,0
651,-629,0,0,0,0,0,0,0,0,0,-1,1875,1653,0,0
658,-629,0,0,0,0,0,0,0,0,0,-1,1882,1653,0,0
665,-629,0,0,0,0,0,0,0,0,0,-1,1889,1653,0,0
672,-629,0,0,0,0,0,0,0,0,0,-1,1896,1653,0,0
679,-629,0,0,0,0,0,0,0,0,0,-1,1903,1653,0,0
686,-629,0,0,0,0,0,0,0,0,0,-1,1910,1653,0,0
693,-629,0,0,0,0,0,0,0,0,0,-1,1917,1653,0,0
700,-629,0,0,0,0,0,0,0,0,0,-1,1924,1653,0,0
707,-629,0,0,0,0,0,0,0,0,0,-1,1931,1653,0,0
714,-629,0,0,0,0,0,0,0,0,0,-1,1938,1653,0,0
721,-629,0,0,0,0,0,0,0,0,0,-1,1945,1653,0,0
728,-629,0,0,0,0,0,0,0,0,0,-1,1952,1653,0,0
735,-629,0,0,0,0,0,0,0,0,0,-1,1959,1653,0,0
742,-629,0,0,0,0,0,0,0,0,0,-1,1966,1653,0,0
749,-629,0,0,0,0,0,0,0,0,0,-1,1973,1653,0,0
756,-629,0,0,0,0,0,0,0,0,0,-1,1980,1653,0,0
763,-629,0,0,0,0,0,0,0,0,0,-1,1987,1653,0,0
770,-629,0,0,0,0,0,0,0,0,0,-1,1994,1653,0,0
777,-629,0,0,0,0,0,0,0,0,0,-1,2001,1653,0,0
784,-629,0,0,0,0,0,0,0,0,0,-1,2008,1653,0,0
791,-629,0,0,0,0,0,0,0,0,0,-1,2015,1653,0,0
798,-629,0,0,0,0,0,0,0,0,0,-1,2022,1653,0,0
805,-629,0,0,0,0,0,0,0,0,0,-1,2029,1653,0,0
812,-629,0,0,0,0,0,0,0,0,0,-1,2036,1653,0,0
-700,-636,0,0,0,0,0,0,0,0,0,-1,524,1660,0,0
-693,-636,0,0,0,0,0,0,0,0,0,-1,531,1660,0,0
-686,-636,0,0,0,0,0,0,0,0,0,-1,538,1660,0,0
-679,-636,0,0,0,0,0,0,0,0,0,-1,545,1660,0,0
-672,-636,0,0,0,0,0,0,0,0,0,-1,552,1660,0,0
-665,-636,0,0,0,0,0,0,0,0,0,-1,559,1660,0,0
-658,-636,0,0,0,0,0,0,0,0,0,-1,566,1660,0,0
-651,-636,0,0,0,0,0,0,0,0,0,-1,573,1660,0,0
-644,-636,0,0,0,0,0,0,0,0,0,-1,580,1660,0,0
-637,-636,0,0,0,0,0,0,0,0,0,-1,587,1660,0,0
-630,-636,0,0,0,0,0,0,0,0,0,-1,594,1660,0,0
-623,-636,0,0,0,0,0,0,0,0,0,-1,601,1660,0,0
-616,-636,0,0,0,0,0,0,0,0,0,-1,608,1660,0,0
-609,-636,0,0,0,0,0,0,0,0,0,-1,615,1660,0,0
-602,-636,0,0,0,0,0,0,0,0,0,-1,622,1660,0,0
-595,-636,0,0,0,0,0,0,0,0,0,-1,629,1660,0,0
-588,-636,0,0,0,0,0,0,0,0,0,-1,636,1660,0,0
-581,-636,0,0,0,0,0,0,0,0,0,-1,643,1660,0,0
-574,-636,0,0,0,0,0,0,0,0,0,-1,650,1660,0,0
-567,-636,0,0,0,0,0,0,0,0,0,-1,657,1660,0,0
-560,-636,0,0,0,0,0,0,0,0,0,-1,664,1660,0,0
-553,-636,0,0,0,0,0,0,0,0,0,-1,671,1660,0,0
-546,-636,0,0,0,0,0,0,0,0,0,-1,678,1660,0,0
-539,-636,0,0,0,0,0,0,0,0,0,-1,685,1660,0,0
-532,-636,0,0,0,0,0,0,0,0,0,-1,692,1660,0,0
-525,-636,0,0,0,0,0,0,0,0,0,-1,699,1660,0,0
-518,-636,0,0,0,0,0,0,0,0,0,-1,706,1660,0,0
-511,-636,0,0,0,0,0,0,0,0,0,-1,713,1660,0,0
-504,-636,0,0,0,0,0,0,0,0,0,-1,720,1660,0,0
-497,-636,0,0,0,0,0,0,0,0,0,-1,727,1660,0,0
-490,-636,0,0,0,0,0,0,0,0,0,-1,734,1660,0,0
-483,-636,0,0,0,0,0,0,0,0,0,-1,741,1660,0,0
-476,-636,0,0,0,0,0,0,0,0,0,-1,748,1660,0,0
-469,-636,0,0,0,0,0,0,0,0,0,-1,755,1660,0,0
-462,-636,0,0,0,0,0,0,0,0,0,-1,762,1660,0,0
-455,-636,0,0,0,0,0,0,0,0,0,-1,769,1660,0,0
-448,-636,0,0,0,0,0,0,0,0,0,-1,776,1660,0,0
-441,-636,0,0,0,0,0,0,0,0,0,-1,783,1660,0,0
-434,-636,0,0,0,0,0,0,0,0,0,-1,790,1660,0,0
-427,-636,0,0,0,0,0,0,0,0,0,-1,797,1660,0,0
-420,-636,0,0,0,0,0,0,0,0,0,-1,804,1660,0,0
-413,-636,0,0,0,0,0,0,0,0,0,-1,811,1660,0,0
-406,-636,-5.62274,1.81348,0,0,0,0,0,0,0,-1,818,1660,-5.62276,-1.81351
-399,-636,2.01935,10.4464,0,0,0,0,0,0,0,-1,825,1660,2.01933,-10.4465
-392,-636,2.17908,8.96277,0,0,0,0,0,0,0,-1,832,1660,2.17905,-8.9628
-385,-636,1.51154,7.78967,0,0,0,0,0,0,0,-1,839,1660,1.51152,-7.78965
-378,-636,0.843323,6.6283,0,0,0,0,0,0,0,-1,846,1660,0.843314,-6.62826
-371,-636,0.201721,5.46936,0,0,0,0,0,0,0,-1,853,1660,0.20171,-5.46938
-364,-636,2.50653,7.62366,0,0,0,0,0,0,0,-1,860,1660,2.50652,-7.6237
-357,-636,2.65686,8.23242,0,0,0,0,0,0,0,-1,867,1660,2.65685,-8.23242
-350,-636,2.78839,8.19897,0,0,0,0,0,0,0,-1,874,1660,2.7884,-8.19894
-343,-636,2.65161,7.85803,0,0,0,0,0,0,0,-1,881,1660,2.65159,-7.85799
-336,-636,2.62262,7.68481,-0.0040639,0.00941348,-0.00832723,0.0133871,-0.00803748,-1.12557,0.0124973,0.0374358,888,1660,2.62264,-7.68476
-329,-636,2.6853,7.79907,-0.0056899,0.010586,-0.00753455,0.0135384,-0.00864229,-1.19734,0.0129096,0.0176768,895,1660,2.68529,-7.79909
-322,-636,2.67633,7.92688,-0.00648169,0.0109836,-0.00663307,0.0132172,-0.0087152,-1.246,0.0127513,0.0113417,902,1660,2.67635,-7.92686
-315,-636,2.64319,8.07031,-0.00696924,0.0106509,-0.00561069,0.0122858,-0.00860413,-1.28726,0.0121231,0.0121766,909,1660,2.64319,-8.07026
-308,-636,2.63922,8.22681,-0.00707817,0.00978811,-0.00457651,0.0109499,-0.00823994,-1.32219,0.011116,0.011104,916,1660,2.63925,-8.22678
-301,-636,2.65607,8.39124,-0.00653788,0.00856123,-0.00356667,0.00936134,-0.00733799,-1.35012,0.00966493,0.0113327,923,1660,2.65608,-8.39118
-294,-636,2.65588,8.5282,-0.00545001,0.0069845,-0.002621,0.00751438,-0.00597989,-1.37132,0.0078077,0.0142604,930,1660,2.65586,-8.52818
-287,-636,2.64606,8.65747,-0.00421107,0.00530563,-0.00192384,0.00567983,-0.00458526,-1.37869,0.00593777,0.0121806,937,1660,2.64606,-8.65746
-280,-636,2.63538,8.79895,-0.00305361,0.00369478,-0.0014369,0.00398799,-0.00334682,-1.3695,0.00424014,0.011918,944,1660,2.6354,-8.79892
-273,-636,2.64899,8.93445,-0.00207596,0.00179937,-0.000957164,0.00202288,-0.00229948,-1.34139,0.00249722,0.0129148,951,1660,2.64897,-8.93449
-266,-636,2.65228,9.07849,-0.000974484,0.000433339,-0.00064402,0.0006835,-0.00122464,-1.2003,0.00111634,0.0140005,958,1660,2.65231,-9.07847
-259,-636,2.64532,9.22571,-9.58939e-05,-0.000826999,-0.000600783,0.00024181,-0.0011647,-0.51209,0.000868368,0.0147723,965,1660,2.6453,-9.22574
-252,-636,2.64673,9.31531,0.000450934,-0.00204031,-0.000782893,0.000676534,-0.00226591,-0.280562,0.00177951,0.0110678,972,1660,2.64675,-9.31529
-245,-636,2.66711,9.45349,0.000634907,-0.00316581,-0.00157066,0.00119998,-0.00373088,-0.345348,0.00296921,0.0101984,979,1660,2.6671,-9.4535
-238,-636,2.67017,9.58679,0.000556127,-0.00406693,-0.00286518,0.00192596,-0.00543676,-0.445972,0.00440902,0.0118745,986,1660,2.67014,-9.58685
-231,-636,2.65167,9.71912,-0.000424663,-0.00573476,-0.00424286,0.0019254,-0.00808482,-0.505822,0.00613326,0.0108571,993,1660,2.65167,-9.71906
-224,-636,2.66315,9.84924,-0.00227179,-0.00735678,-0.00591245,0.00162166,-0.0112502,-0.582339,0.00809503,0.00860503,1000,1660,2.66314,-9.84929
-217,-636,2.65967,9.9657,-0.00444874,-0.00894854,-0.00790491,0.00152022,-0.0149175,-0.646754,0.0104885,0.0100567,1007,1660,2.6597,-9.96575
-210,-636,2.66412,10.0471,-0.00713572,-0.0110724,-0.0103631,0.00144429,-0.0196524,-0.691546,0.0136086,0.0141651,1014,1660,2.6641,-10.0471
-203,-636,2.67639,10.1481,-0.00921701,-0.0127085,-0.0123511,0.00151112,-0.0234366,-0.715191,0.0161517,0.0173485,1021,1660,2.6764,-10.1481
-196,-636,2.76208,10.2332,-0.0119861,-0.0147765,-0.0145038,0.00118939,-0.027952,-0.737449,0.0190435,0.0188632,1028,1660,2.7621,-10.2332
-189,-636,2.8197,10.3002,-0.0151379,-0.0171169,-0.0166321,0.000534119,-0.032789,-0.755687,0.0220395,0.0213425,1035,1660,2.81971,-10.3001
-182,-636,3.07471,9.9928,-0.0184498,-0.0195453,-0.018635,-0.000354491,-0.0376407,-0.770705,0.0249764,0.0368578,1042,1660,3.07466,-9.99283
-175,-636,2.65735,10.6046,-0.021615,-0.0220418,-0.0202473,-0.00157997,-0.0420769,-0.780128,0.0275397,0.046437,1049,1660,2.65735,-10.6046
-168,-636,2.15906,10.9977,-0.0245895,-0.0249352,-0.0215421,-0.0032195,-0.0463051,-0.781387,0.0298548,0.0475333,1056,1660,2.15906,-10.9977
-161,-636,1.91785,10.5209,-0.0271411,-0.0283938,-0.0223578,-0.00540091,-0.050134,-0.771395,0.0317757,0.0459743,1063,1660,1.91783,-10.5209
-154,-636,3.44031,11.1879,0,0,0,0,0,0,0,-1,1070,1660,3.44029,-11.1879
-147,-636,2.37219,10.9589,0,0,0,0,0,0,0,-1,1077,1660,2.37216,-10.9589
-140,-636,2.69983,8.25745,0,0,0,0,0,0,0,-1,1084,1660,2.69984,-8.25744
-133,-636,2.72266,9.31519,0,0,0,0,0,0,0,-1,1091,1660,2.72269,-9.31515
-126,-636,2.76392,10.4205,0,0,0,0,0,0,0,-1,1098,1660,2.76389,-10.4205
-119,-636,2.94067,11.9276,0,0,0,0,0,0,0,-1,1105,1660,2.94066,-11.9276
-112,-636,-1.24963,9.7998,0,0,0,0,0,0,0,-1,1112,1660,-1.24968,-9.79978
-105,-636,3.51624,4.72791,0,0,0,0,0,0,0,-1,1119,1660,3.51618,-4.7279
-98,-636,1.54504,5.11914,0,0,0,0,0,0,0,-1,1126,1660,1.54503,-5.11912
-91,-636,-1.34851,-0.613892,0,0,0,0,0,0,0,-1,1133,1660,-1.34851,0.613898
-84,-636,-2.17297,0.887573,0,0,0,0,0,0,0,-1,1140,1660,-2.17299,-0.887547
-77,-636,-2.99744,2.38904,0,0,0,0,0,0,0,-1,1147,1660,-2.99746,-2.38899
-70,-636,-1.85706,5.08752,0,0,0,0,0,0,0,-1,1154,1660,-1.85707,-5.08749
-63,-636,-2.21033,6.97168,0,0,0,0,0,0,0,-1,1161,1660,-2.21034,-6.97165
-56,-636,-2.51917,8.80359,0,0,0,0,0,0,0,-1,1168,1660,-2.51916,-8.80361
-49,-636,-3.13,10.4113,0,0,0,0,0,0,0,-1,1175,1660,-3.12996,-10.4112
-42,-636,-2.27771,4.90173,0,0,0,0,0,0,0,-1,1182,1660,-2.27775,-4.90173
-35,-636,-2.27698,5.89685,0,0,0,0,0,0,0,-1,1189,1660,-2.27695,-5.89686
-28,-636,-1.70654,4.83936,0,0,0,0,0,0,0,-1,1196,1660,-1.70656,-4.8393
-21,-636,9.96326,15.5938,0,0,0,0,0,0,0,-1,1203,1660,9.96328,-15.5938
-14,-636,9.17725,10.2505,0,0,0,0,0,0,0,-1,1210,1660,9.17723,-10.2505
-7,-636,8.65942,10.3226,-0.0946981,-0.0350563,0.0531462,-0.00393624,-0.125818,1.04106,0.082598,0.0478199,1217,1660,8.65945,-10.3227
0,-636,8.06848,10.2727,-0.0685378,-0.0335035,0.0651058,0.0164006,-0.118442,0.916815,0.0849574,0.0458258,1224,1660,8.06848,-10.2727
7,-636,7.62427,10.2557,-0.0437019,-0.0293457,0.0726214,0.0364515,-0.109499,0.834659,0.0877121,0.0445179,1231,1660,7.6243,-10.2557
14,-636,3.72546,9.52039,0,0,0,0,0,0,0,-1,1238,1660,3.72545,-9.52038
21,-636,4.55908,11.2809,0,0,0,0,0,0,0,-1,1245,1660,4.55913,-11.2809
28,-636,5.39282,13.0414,0,0,0,0,0,0,0,-1,1252,1660,5.39281,-13.0414
35,-636,6.41797,14.8748,0,0,0,0,0,0,0,-1,1259,1660,6.41803,-14.8747
42,-636,1.76086,11.4536,0,0,0,0,0,0,0,-1,1266,1660,1.76088,-11.4536
49,-636,3.24414,10.6758,0,0,0,0,0,0,0,-1,1273,1660,3.24412,-10.6758
56,-636,4.09131,10.4624,0,0,0,0,0,0,0,-1,1280,1660,4.09133,-10.4624
63,-636,4.79138,10.324,0.0757536,-0.0388036,0.0745303,0.112473,-0.0755229,0.457771,0.109236,0.0468319,1287,1660,4.79132,-10.3239
70,-636,5.34875,10.271,0.0720382,-0.0402711,0.0668914,0.103221,-0.0714538,0.436218,0.101403,0.046508,1294,1660,5.34878,-10.271
77,-636,5.56104,10.1821,0.0660303,-0.0424582,0.061969,0.0941426,-0.0705705,0.425886,0.0954212,0.0464493,1301,1660,5.56109,-10.1821
84,-636,5.73071,10.3083,0.0612527,-0.0478732,0.0599708,0.0877676,-0.0743881,0.41629,0.0937268,0.0426576,1308,1660,5.73065,-10.3084
91,-636,6.84509,11.8893,0.0573819,-0.054331,0.0615018,0.0846062,-0.0815553,0.416732,0.0959388,0.0433108,1315,1660,6.8451,-11.8893
98,-636,6.69434,11.8193,0.0533632,-0.0605581,0.0631901,0.0814761,-0.088671,0.418599,0.0982637,0.0470801,1322,1660,6.69439,-11.8194
105,-636,6.89319,11.8088,0,0,0,0,0,0,0,-1,1329,1660,6.8932,-11.8088
112,-636,3.44446,9,0,0,0,0,0,0,0,-1,1336,1660,3.44452,-8.99998
119,-636,3.8595,9.60242,0,0,0,0,0,0,0,-1,1343,1660,3.85951,-9.60243
126,-636,3.72571,10.5116,0,0,0,0,0,0,0,-1,1350,1660,3.72568,-10.5116
133,-636,3.95996,11.3457,0,0,0,0,0,0,0,-1,1357,1660,3.95995,-11.3457
140,-636,4.36084,12.2169,0,0,0,0,0,0,0,-1,1364,1660,4.36083,-12.2169
147,-636,4.52478,13.1387,0,0,0,0,0,0,0,-1,1371,1660,4.52476,-13.1387
154,-636,10.4495,7.66443,0,0,0,0,0,0,0,-1,1378,1660,10.4494,-7.66442
161,-636,10.2961,7.13025,0,0,0,0,0,0,0,-1,1385,1660,10.2961,-7.13021
168,-636,11.7659,5.83899,0,0,0,0,0,0,0,-1,1392,1660,11.7658,-5.83899
175,-636,5.94592,-1.72888,0,0,0,0,0,0,0,-1,1399,1660,5.94598,1.72886
182,-636,5.93994,-1.11938,0,0,0,0,0,0,0,-1,1406,1660,5.93998,1.11936
189,-636,5.32544,11.9595,0,0,0,0,0,0,0,-1,1413,1660,5.32542,-11.9595
196,-636,5.3623,9.38025,0,0,0,0,0,0,0,-1,1420,1660,5.36225,-9.38027
203,-636,5.18542,9.02429,0,0,0,0,0,0,0,-1,1427,1660,5.18547,-9.0243
210,-636,4.09167,7.17041,0,0,0,0,0,0,0,-1,1434,1660,4.09173,-7.17041
217,-636,2.94897,5.28992,0,0,0,0,0,0,0,-1,1441,1660,2.94899,-5.28991
224,-636,1.49194,3.63916,0,0,0,0,0,0,0,-1,1448,1660,1.49197,-3.63918
231,-636,0.17749,2.24854,0,0,0,0,0,0,0,-1,1455,1660,0.177501,-2.24855
238,-636,-0.764648,1.00598,0,0,0,0,0,0,0,-1,1462,1660,-0.764704,-1.00595
245,-636,6.21204,1.18005,0,0,0,0,0,0,0,-1,1469,1660,6.21206,-1.18001
252,-636,7.70251,0.865723,0,0,0,0,0,0,0,-1,1476,1660,7.7025,-0.865692
259,-636,9.03601,0.787231,0,0,0,0,0,0,0,-1,1483,1660,9.03598,-0.787243
266,-636,10.1071,3.24109,0,0,0,0,0,0,0,-1,1490,1660,10.1071,-3.24103
273,-636,8.48535,5.02466,0,0,0,0,0,0,0,-1,1497,1660,8.48533,-5.02472
280,-636,8.81384,5.66992,0,0,0,0,0,0,0,-1,1504,1660,8.81381,-5.66998
287,-636,4.50195,10.7633,0,0,0,0,0,0,0,-1,1511,1660,4.50196,-10.7633
294,-636,4.22107,9.92517,0,0,0,0,0,0,0,-1,1518,1660,4.22102,-9.92521
301,-636,4.87537,11.1919,0,0,0,0,0,0,0,-1,1525,1660,4.87541,-11.1919
308,-636,4.70178,11.2375,0,0,0,0,0,0,0,-1,1532,1660,4.70184,-11.2375
315,-636,4.8363,11.1206,0.0233119,-0.0272973,0.00481564,0.023766,-0.0277514,0.0940292,0.0297733,0.0489702,1539,1660,4.83626,-11.1206
322,-636,4.96106,11.0797,0.0180878,-0.020659,0.00400225,0.0184969,-0.0210681,0.101859,0.0228589,0.038035,1546,1660,4.96108,-11.0797
329,-636,4.95618,10.9277,0.0136037,-0.0150997,0.00329279,0.0139766,-0.0154726,0.112766,0.0170098,0.0270653,1553,1660,4.95618,-10.9278
336,-636,4.97034,10.813,0.00981057,-0.010574,0.00270371,0.0101631,-0.0109265,0.12965,0.0121787,0.0223625,1560,1660,4.97032,-10.813
343,-636,4.97375,10.7396,0.00587898,-0.00647617,0.00212594,0.00623455,-0.00683175,0.165722,0.00754646,0.0195532,1567,1660,4.97379,-10.7397
350,-636,4.97229,10.6261,0.0029822,-0.00301728,0.00175387,0.0034573,-0.00349238,0.264538,0.00401242,0.0120624,1574,1660,4.97229,-10.6261
357,-636,4.99634,10.5366,0.00132603,-0.001493,0.00144215,0.00193308,-0.00210004,0.398421,0.00232919,0.0110957,1581,1660,4.9963,-10.5366
364,-636,5.00708,10.4441,0.000964602,-0.00137909,0.00130627,0.00154763,-0.00196212,0.419795,0.00203106,0.0110062,1588,1660,5.00703,-10.444
371,-636,4.99573,10.3469,0.000710298,-0.00134736,0.00119759,0.0012603,-0.00189736,0.430527,0.0018354,0.00881267,1595,1660,4.99577,-10.347
378,-636,5.0072,10.229,0.000576318,-0.0011334,0.000926969,0.000982433,-0.00153951,0.412923,0.00146784,0.00883432,1602,1660,5.00715,-10.229
385,-636,5.02686,10.1178,0.000582852,-0.00108477,0.000765548,0.000880988,-0.0013829,0.371372,0.00131772,0.0136975,1609,1660,5.02683,-10.1178
392,-636,5.0116,10.0085,0.000569268,-0.00122618,0.000634915,0.000771101,-0.00142801,0.307787,0.0012884,0.0146322,1616,1660,5.01164,-10.0086
399,-636,5.01135,9.89844,0.000357952,-0.001101,0.000492887,0.000508858,-0.00125191,0.297106,0.00104632,0.011693,1623,1660,5.01134,-9.89838
406,-636,5.02197,9.78601,9.57246e-05,-0.00110925,0.000433225,0.000235312,-0.00124884,0.311701,0.000921073,0.0137828,1630,1660,5.02197,-9.78598
413,-636,5.01782,9.68359,-0.0002768,-0.00106242,0.00036714,-0.000131938,-0.00120728,0.375816,0.000764681,0.0202937,1637,1660,5.01783,-9.68356
420,-636,4.98657,9.58813,-0.000809546,-0.00104474,0.00035509,-0.000553087,-0.0013012,0.625494,0.000754056,0.0193839,1644,1660,4.98658,-9.58813
427,-636,4.99475,9.44104,-0.00145389,-0.00118661,0.000475586,-0.000826244,-0.00181425,0.922364,0.00104885,0.0118372,1651,1660,4.99477,-9.44109
434,-636,4.98999,9.29041,-0.00224788,-0.00137124,0.000629597,-0.00104241,-0.00257671,1.08948,0.00149667,0.0115083,1658,1660,4.98993,-9.2904
441,-636,5.01331,9.15125,-0.00300432,-0.00152719,0.000859282,-0.00113268,-0.00339882,1.14039,0.00199835,0.0112685,1665,1660,5.01325,-9.15121
448,-636,5.03857,9.05237,-0.00360098,-0.00161299,0.00120553,-0.00104451,-0.00416946,1.13016,0.00250514,0.0130109,1672,1660,5.03859,-9.05234
455,-636,5.03699,8.9115,-0.00419639,-0.00165613,0.00151664,-0.00094802,-0.0049045,1.13398,0.00300394,0.0143844,1679,1660,5.03695,-8.91152
462,-636,4.99268,8.77319,-0.00449228,-0.0013422,0.00178553,-0.000536299,-0.00529818,1.14682,0.00336762,0.0178182,1686,1660,4.99265,-8.77319
469,-636,4.99292,8.63135,-0.00453707,-0.00075442,0.00195186,7.21321e-05,-0.00536362,1.17022,0.00360003,0.0278681,1693,1660,4.99291,-8.63132
476,-636,4.94897,8.57837,-0.00431047,0.000137273,0.00212828,0.000991578,-0.00516478,1.18908,0.00381689,0.0449196,1700,1660,4.94897,-8.57835
483,-636,5.10547,8.31921,0,0,0,0,0,0,0,-1,1707,1660,5.10545,-8.31923
490,-636,5.0304,8.0791,0,0,0,0,0,0,0,-1,1714,1660,5.03034,-8.07915
497,-636,4.95935,7.91919,0,0,0,0,0,0,0,-1,1721,1660,4.95934,-7.91915
504,-636,6.61694,5.77808,0,0,0,0,0,0,0,-1,1728,1660,6.61688,-5.77808
511,-636,7.13525,4.97266,0,0,0,0,0,0,0,-1,1735,1660,7.13526,-4.97265
518,-636,6.72791,1.07605,0,0,0,0,0,0,0,-1,1742,1660,6.7279,-1.0761
525,-636,7.04309,0.93335,0,0,0,0,0,0,0,-1,1749,1660,7.04308,-0.933298
532,-636,0,0,0,0,0,0,0,0,0,-1,1756,1660,0,0
539,-636,0,0,0,0,0,0,0,0,0,-1,1763,1660,0,0
546,-636,0,0,0,0,0,0,0,0,0,-1,1770,1660,0,0
553,-636,0,0,0,0,0,0,0,0,0,-1,1777,1660,0,0
560,-636,0,0,0,0,0,0,0,0,0,-1,1784,1660,0,0
567,-636,0,0,0,0,0,0,0,0,0,-1,1791,1660,0,0
574,-636,0,0,0,0,0,0,0,0,0,-1,1798,1660,0,0
581,-636,0,0,0,0,0,0,0,0,0,-1,1805,1660,0,0
588,-636,0,0,0,0,0,0,0,0,0,-1,1812,1660,0,0
595,-636,0,0,0,0,0,0,0,0,0,-1,1819,1660,0,0
602,-636,0,0,0,0,0,0,0,0,0,-1,1826,1660,0,0
609,-636,0,0,0,0,0,0,0,0,0,-1,1833,1660,0,0
616,-636,0,0,0,0,0,0,0,0,0,-1,1840,1660,0,0
623,-636,0,0,0,0,0,0,0,0,0,-1,1847,1660,0,0
630,-636,0,0,0,0,0,0,0,0,0,-1,1854,1660,0,0
637,-636,0,0,0,0,0,0,0,0,0,-1,1861,1660,0,0
644,-636,0,0,0,0,0,0,0,0,0,-1,1868,1660,0,0
651,-636,0,0,0,0,0,0,0,0,0,-1,1875,1660,0,0
658,-636,0,0,0,0,0,0,0,0,0,-1,1882,1660,0,0
665,-636,0,0,0,0,0,0,0,0,0,-1,1889,1660,0,0
672,-636,0,0,0,0,0,0,0,0,0,-1,1896,1660,0,0
679,-636,0,0,0,0,0,0,0,0,0,-1,1903,1660,0,0
686,-636,0,0,0,0,0,0,0,0,0,-1,1910,1660,0,0
693,-636,0,0,0,0,0,0,0,0,0,-1,1917,1660,0,0
700,-636,0,0,0,0,0,0,0,0,0,-1,1924,1660,0,0
707,-636,0,0,0,0,0,0,0,0,0,-1,1931,1660,0,0
714,-636,0,0,0,0,0,0,0,0,0,-1,1938,1660,0,0
721,-636,0,0,0,0,0,0,0,0,0,-1,1945,1660,0,0
728,-636,0,0,0,0,0,0,0,0,0,-1,1952,1660,0,0
735,-636,0,0,0,0,0,0,0,0,0,-1,1959,1660,0,0
742,-636,0,0,0,0,0,0,0,0,0,-1,1966,1660,0,0
749,-636,0,0,0,0,0,0,0,0,0,-1,1973,1660,0,0
756,-636,0,0,0,0,0,0,0,0,0,-1,1980,1660,0,0
763,-636,0,0,0,0,0,0,0,0,0,-1,1987,1660,0,0
770,-636,0,0,0,0,0,0,0,0,0,-1,1994,1660,0,0
777,-636,0,0,0,0,0,0,0,0,0,-1,2001,1660,0,0
784,-636,0,0,0,0,0,0,0,0,0,-1,2008,1660,0,0
791,-636,0,0,0,0,0,0,0,0,0,-1,2015,1660,0,0
798,-636,0,0,0,0,0,0,0,0,0,-1,2022,1660,0,0
805,-636,0,0,0,0,0,0,0,0,0,-1,2029,1660,0,0
812,-636,0,0,0,0,0,0,0,0,0,-1,2036,1660,0,0
-700,-643,0,0,0,0,0,0,0,0,0,-1,524,1667,0,0
-693,-643,0,0,0,0,0,0,0,0,0,-1,531,1667,0,0
-686,-643,0,0,0,0,0,0,0,0,0,-1,538,1667,0,0
-679,-643,0,0,0,0,0,0,0,0,0,-1,545,1667,0,0
-672,-643,0,0,0,0,0,0,0,0,0,-1,552,1667,0,0
-665,-643,0,0,0,0,0,0,0,0,0,-1,559,1667,0,0
-658,-643,0,0,0,0,0,0,0,0,0,-1,566,1667,0,0
-651,-643,0,0,0,0,0,0,0,0,0,-1,573,1667,0,0
-644,-643,0,0,0,0,0,0,0,0,0,-1,580,1667,0,0
-637,-643,0,0,0,0,0,0,0,0,0,-1,587,1667,0,0
-630,-643,0,0,0,0,0,0,0,0,0,-1,594,1667,0,0
-623,-643,0,0,0,0,0,0,0,0,0,-1,601,1667,0,0
-616,-643,0,0,0,0,0,0,0,0,0,-1,608,1667,0,0
-609,-643,0,0,0,0,0,0,0,0,0,-1,615,1667,0,0
-602,-643,0,0,0,0,0,0,0,0,0,-1,622,1667,0,0
-595,-643,0,0,0,0,0,0,0,0,0,-1,629,1667,0,0
-588,-643,0,0,0,0,0,0,0,0,0,-1,636,1667,0,0
-581,-643,0,0,0,0,0,0,0,0,0,-1,643,1667,0,0
-574,-643,0,0,0,0,0,0,0,0,0,-1,650,1667,0,0
-567,-643,0,0,0,0,0,0,0,0,0,-1,657,1667,0,0
-560,-643,0,0,0,0,0,0,0,0,0,-1,664,1667,0,0
-553,-643,0,0,0,0,0,0,0,0,0,-1,671,1667,0,0
-546,-643,0,0,0,0,0,0,0,0,0,-1,678,1667,0,0
-539,-643,0,0,0,0,0,0,0,0,0,-1,685,1667,0,0
-532,-643,0,0,0,0,0,0,0,0,0,-1,692,1667,0,0
-525,-643,0,0,0,0,0,0,0,0,0,-1,699,1667,0,0
-518,-643,0,0,0,0,0,0,0,0,0,-1,706,1667,0,0
-511,-643,0,0,0,0,0,0,0,0,0,-1,713,1667,0,0
-504,-643,0,0,0,0,0,0,0,0,0,-1,720,1667,0,0
-497,-643,0,0,0,0,0,0,0,0,0,-1,727,1667,0,0
-490,-643,0,0,0,0,0,0,0,0,0,-1,734,1667,0,0
-483,-643,0,0,0,0,0,0,0,0,0,-1,741,1667,0,0
-476,-643,0,0,0,0,0,0,0,0,0,-1,748,1667,0,0
-469,-643,0,0,0,0,0,0,0,0,0,-1,755,1667,0,0
-462,-643,0,0,0,0,0,0,0,0,0,-1,762,1667,0,0
-455,-643,0,0,0,0,0,0,0,0,0,-1,769,1667,0,0
-448,-643,0,0,0,0,0,0,0,0,0,-1,776,1667,0,0
-441,-643,0,0,0,0,0,0,0,0,0,-1,783,1667,0,0
-434,-643,0,0,0,0,0,0,0,0,0,-1,790,1667,0,0
-427,-643,0,0,0,0,0,0,0,0,0,-1,797,1667,0,0
-420,-643,0,0,0,0,0,0,0,0,0,-1,804,1667,0,0
-413,-643,0,0,0,0,0,0,0,0,0,-1,811,1667,0,0
-406,-643,0,0,0,0,0,0,0,0,0,-1,818,1667,0,0
-399,-643,1.73962,9.50439,0,0,0,0,0,0,0,-1,825,1667,1.7396,-9.50444
-392,-643,2.12469,8.55945,0,0,0,0,0,0,0,-1,832,1667,2.12471,-8.55949
-385,-643,1.4986,7.11096,0,0,0,0,0,0,0,-1,839,1667,1.49861,-7.11098
-378,-643,0.872498,5.66248,0,0,0,0,0,0,0,-1,846,1667,0.872511,-5.66247
-371,-643,-0.328857,4.89856,0,0,0,0,0,0,0,-1,853,1667,-0.328874,-4.89861
-364,-643,-1.28375,3.60229,0,0,0,0,0,0,0,-1,860,1667,-1.28373,-3.6023
-357,-643,-3.7207,1.09961,0,0,0,0,0,0,0,-1,867,1667,-3.72071,-1.09957
-350,-643,-4.98132,-0.492676,0,0,0,0,0,0,0,-1,874,1667,-4.98133,0.492708
-343,-643,2.61505,6.17407,0,0,0,0,0,0,0,-1,881,1667,2.61504,-6.17412
-336,-643,3.06512,7.64648,0,0,0,0,0,0,0,-1,888,1667,3.06511,-7.64643
-329,-643,3.00903,7.79602,-0.00950243,0.0179392,-0.0107819,0.0216686,-0.0132318,-1.23778,0.0203451,0.0381244,895,1667,3.00904,-7.79602
-322,-643,2.90155,7.94885,-0.0103859,0.017557,-0.00932701,0.0203842,-0.0132131,-1.27648,0.0195442,0.0251123,902,1667,2.90153,-7.94885
-315,-643,2.79468,8.08557,-0.0107999,0.0164561,-0.00778028,0.0185207,-0.0128644,-1.31142,0.018218,0.0169806,909,1667,2.7947,-8.08553
-308,-643,2.77271,8.22083,-0.0106553,0.0149522,-0.00630565,0.0164207,-0.0121238,-1.34199,0.0165423,0.0126634,916,1667,2.77271,-8.22077
-301,-643,2.77521,8.38586,-0.00975891,0.0131825,-0.00496142,0.0142096,-0.0107859,-1.36668,0.0144762,0.0141308,923,1667,2.77521,-8.38589
-294,-643,2.78522,8.52234,-0.00828647,0.0111158,-0.00372528,0.0118065,-0.00897715,-1.38748,0.0120364,0.0126845,930,1667,2.78522,-8.52232
-287,-643,2.78705,8.65417,-0.00665366,0.00902732,-0.00281461,0.00951722,-0.00714356,-1.39847,0.00965159,0.0105797,937,1667,2.78705,-8.6542
-280,-643,2.78571,8.79321,-0.00513844,0.00707892,-0.0021503,0.00744633,-0.00550585,-1.40157,0.00750587,0.0145183,944,1667,2.78572,-8.7932
-273,-643,2.78656,8.92456,-0.00393189,0.0047921,-0.00144643,0.00502567,-0.00416546,-1.4107,0.00531424,0.0134795,951,1667,2.78656,-8.9245
-266,-643,2.78033,9.05896,-0.00253654,0.00318678,-0.000997669,0.00335571,-0.00270546,-1.40307,0.00350612,0.0120714,958,1667,2.78036,-9.05902
-259,-643,2.77637,9.18787,-0.00121059,0.00188178,-0.00074971,0.00205395,-0.00138276,-1.34506,0.00199676,0.0110349,965,1667,2.77638,-9.18786
-252,-643,2.78247,9.31995,-0.000147635,0.000734973,-0.00069302,0.00111527,-0.000527931,-1.06891,0.000968692,0.0125821,972,1667,2.78245,-9.31991
-245,-643,2.79395,9.45996,0.000559359,-0.000271287,-0.00101962,0.001245,-0.000956928,-0.591993,0.00127491,0.0126111,979,1667,2.79395,-9.46001
-238,-643,2.8158,9.5863,0.000905198,-0.000967405,-0.0016337,0.00185189,-0.00191409,-0.52519,0.00217439,0.0160595,986,1667,2.81581,-9.58635
-231,-643,2.78314,9.70569,0.000757104,-0.00215966,-0.00217928,0.00192096,-0.00332351,-0.490519,0.00306378,0.0115219,993,1667,2.78315,-9.70574
-224,-643,2.78113,9.82434,2.74846e-05,-0.00313792,-0.00293599,0.0017802,-0.00489063,-0.538192,0.00398852,0.00970617,1000,1667,2.78112,-9.8243
-217,-643,2.77142,9.91919,-0.000910168,-0.00394227,-0.00403064,0.00188011,-0.00673254,-0.605517,0.00522898,0.00893777,1007,1667,2.77141,-9.9192
-210,-643,2.78125,10.0624,-0.00214238,-0.00511804,-0.00563826,0.00220105,-0.00946147,-0.656398,0.00715508,0.010891,1014,1667,2.78128,-10.0623
-203,-643,2.81287,10.1989,-0.0028819,-0.00590857,-0.0067993,0.00257044,-0.0113609,-0.675897,0.00856038,0.0115508,1021,1667,2.81288,-10.1988
-196,-643,2.81958,10.2966,-0.00430284,-0.00705949,-0.00824478,0.00267803,-0.0140404,-0.702576,0.0103688,0.0110784,1028,1667,2.81952,-10.2966
-189,-643,2.85315,10.4031,-0.0060416,-0.00845163,-0.00977208,0.00259949,-0.0170927,-0.724052,0.0123531,0.0108553,1035,1667,2.85321,-10.4031
-182,-643,2.90637,10.4784,-0.0078419,-0.00985435,-0.0112734,0.00247005,-0.0201663,-0.740888,0.0143387,0.0183285,1042,1667,2.90634,-10.4784
-175,-643,2.78699,10.5837,-0.00947403,-0.0113292,-0.0125402,0.00217281,-0.0229761,-0.748481,0.0160906,0.0322243,1049,1667,2.78698,-10.5837
-168,-643,2.60046,10.795,-0.0108238,-0.0130587,-0.0135482,0.00165293,-0.0255355,-0.744253,0.0176005,0.0393606,1056,1667,2.60044,-10.7951
-161,-643,2.47803,10.6262,-0.0116812,-0.0152214,-0.0141417,0.000800707,-0.0277033,-0.723139,0.0187415,0.0430932,1063,1667,2.47799,-10.6262
-154,-643,3.41223,10.9718,-0.0125152,-0.0176401,-0.014419,-0.000432734,-0.0297225,-0.69746,0.0196724,0.0462539,1070,1667,3.41227,-10.9718
-147,-643,3.10645,10.6024,0,0,0,0,0,0,0,-1,1077,1667,3.10643,-10.6025
-140,-643,2.95166,10.3197,0,0,0,0,0,0,0,-1,1084,1667,2.95162,-10.3197
-133,-643,2.52454,9.00305,0,0,0,0,0,0,0,-1,1091,1667,2.52454,-9.00307
-126,-643,2.88831,10.3873,0,0,0,0,0,0,0,-1,1098,1667,2.88827,-10.3874
-119,-643,3.20227,11.9598,0,0,0,0,0,0,0,-1,1105,1667,3.20223,-11.9598
-112,-643,3.80969,13.7281,0,0,0,0,0,0,0,-1,1112,1667,3.80973,-13.7281
-105,-643,-2.23413,10.0996,0,0,0,0,0,0,0,-1,1119,1667,-2.23415,-10.0996
-98,-643,3.11035,4.68066,0,0,0,0,0,0,0,-1,1126,1667,3.11041,-4.68071
-91,-643,-1.74146,-2.5885,0,0,0,0,0,0,0,-1,1133,1667,-1.74146,2.58856
-84,-643,-2.65625,0.907471,0,0,0,0,0,0,0,-1,1140,1667,-2.65623,-0.907477
-77,-643,-3.16443,2.53943,0,0,0,0,0,0,0,-1,1147,1667,-3.1644,-2.53949
-70,-643,-3.36938,4.45203,0,0,0,0,0,0,0,-1,1154,1667,-3.36941,-4.452
-63,-643,-3.67822,6.26855,0,0,0,0,0,0,0,-1,1161,1667,-3.67823,-6.26856
-56,-643,-3.95142,8.1073,0,0,0,0,0,0,0,-1,1168,1667,-3.95139,-8.10732
-49,-643,-4.23535,9.90552,0,0,0,0,0,0,0,-1,1175,1667,-4.23537,-9.90557
-42,-643,-4.25195,10.7059,0,0,0,0,0,0,0,-1,1182,1667,-4.25192,-10.706
-35,-643,-4.10986,11.6588,0,0,0,0,0,0,0,-1,1189,1667,-4.10982,-11.6589
-28,-643,-1.38513,5.604,0,0,0,0,0,0,0,-1,1196,1667,-1.3851,-5.60403
-21,-643,3.64307,10.9258,0,0,0,0,0,0,0,-1,1203,1667,3.64305,-10.9257
-14,-643,9.57813,14.3734,0,0,0,0,0,0,0,-1,1210,1667,9.57812,-14.3734
-7,-643,7.68457,10.0917,0,0,0,0,0,0,0,-1,1217,1667,7.68458,-10.0916
0,-643,7.18079,10.3589,-0.0559215,-0.0346991,0.0645484,0.0201045,-0.110725,0.866865,0.0813506,0.0461008,1224,1667,7.18084,-10.3589
7,-643,6.75476,10.6204,-0.0356766,-0.0315435,0.0708947,0.0373148,-0.104535,0.799969,0.0849068,0.0428167,1231,1667,6.75481,-10.6204
14,-643,3.92163,9.87317,-0.0164427,-0.0284486,0.0739605,0.051758,-0.0966494,0.744905,0.0869799,0.0433691,1238,1667,3.92159,-9.87321
21,-643,4.48669,11.6812,-0.000439024,-0.0293788,0.0733104,0.0598159,-0.0896337,0.687961,0.0868554,0.0447593,1245,1667,4.48672,-11.6811
28,-643,5.30151,13.4268,0.0126024,-0.028068,0.0715019,0.0666046,-0.0820702,0.646856,0.0859921,0.0461754,1252,1667,5.30151,-13.4268
35,-643,6.18018,15.2522,0,0,0,0,0,0,0,-1,1259,1667,6.18022,-15.2522
42,-643,7.13611,17.1561,0,0,0,0,0,0,0,-1,1266,1667,7.13609,-17.1561
49,-643,3.07458,11.124,0,0,0,0,0,0,0,-1,1273,1667,3.07457,-11.1241
56,-643,3.74561,11.0067,0,0,0,0,0,0,0,-1,1280,1667,3.74556,-11.0067
63,-643,4.37085,10.8481,0,0,0,0,0,0,0,-1,1287,1667,4.37083,-10.8481
70,-643,5.01074,10.6213,0,0,0,0,0,0,0,-1,1294,1667,5.0107,-10.6213
77,-643,5.14148,11.3755,0,0,0,0,0,0,0,-1,1301,1667,5.14154,-11.3755
84,-643,4.84265,10.0549,0,0,0,0,0,0,0,-1,1308,1667,4.84263,-10.0549
91,-643,6.65576,12.7794,0,0,0,0,0,0,0,-1,1315,1667,6.65578,-12.7794
98,-643,6.20959,12.5354,0,0,0,0,0,0,0,-1,1322,1667,6.20954,-12.5354
105,-643,4.18579,1.20227,0,0,0,0,0,0,0,-1,1329,1667,4.18579,-1.20223
112,-643,3.5271,9.44604,0,0,0,0,0,0,0,-1,1336,1667,3.52707,-9.4461
119,-643,3.70435,10.0953,0,0,0,0,0,0,0,-1,1343,1667,3.70435,-10.0954
126,-643,3.88306,10.6433,0,0,0,0,0,0,0,-1,1350,1667,3.88302,-10.6433
133,-643,4.17651,11.2944,0,0,0,0,0,0,0,-1,1357,1667,4.17657,-11.2944
140,-643,4.47107,12.1602,0,0,0,0,0,0,0,-1,1364,1667,4.47103,-12.1601
147,-643,4.50305,12.8239,0,0,0,0,0,0,0,-1,1371,1667,4.50311,-12.8239
154,-643,4.56824,13.2698,0,0,0,0,0,0,0,-1,1378,1667,4.5682,-13.2698
161,-643,12.2321,5.97412,0,0,0,0,0,0,0,-1,1385,1667,12.232,-5.97411
168,-643,10.5563,10.9818,0,0,0,0,0,0,0,-1,1392,1667,10.5562,-10.9819
175,-643,5.88525,-1.1698,0,0,0,0,0,0,0,-1,1399,1667,5.88526,1.16977
182,-643,5.80945,-0.418701,0,0,0,0,0,0,0,-1,1406,1667,5.80949,0.418712
189,-643,5.42297,12.9208,0,0,0,0,0,0,0,-1,1413,1667,5.42298,-12.9208
196,-643,5.51953,11.2415,0,0,0,0,0,0,0,-1,1420,1667,5.51948,-11.2414
203,-643,5.60828,9.82153,0,0,0,0,0,0,0,-1,1427,1667,5.60833,-9.82148
210,-643,4.73218,7.58728,0,0,0,0,0,0,0,-1,1434,1667,4.73222,-7.58728
217,-643,3.8031,5.28955,0,0,0,0,0,0,0,-1,1441,1667,3.80305,-5.28955
224,-643,2.96436,2.97095,0,0,0,0,0,0,0,-1,1448,1667,2.96432,-2.97095
231,-643,2.13403,1.08472,0,0,0,0,0,0,0,-1,1455,1667,2.13403,-1.08467
238,-643,1.18152,-0.261963,0,0,0,0,0,0,0,-1,1462,1667,1.18152,0.26192
245,-643,-0.157471,-1.79016,0,0,0,0,0,0,0,-1,1469,1667,-0.157517,1.7901
252,-643,8.08789,0.0202637,0,0,0,0,0,0,0,-1,1476,1667,8.08791,-0.0203056
259,-643,9.02979,-0.46936,0,0,0,0,0,0,0,-1,1483,1667,9.02974,0.46933
266,-643,4.55066,5.17554,0,0,0,0,0,0,0,-1,1490,1667,4.55063,-5.17556
273,-643,4.34363,6.56836,0,0,0,0,0,0,0,-1,1497,1667,4.34363,-6.5684
280,-643,4.53809,11.3383,0,0,0,0,0,0,0,-1,1504,1667,4.53814,-11.3382
287,-643,4.11572,10.0985,0,0,0,0,0,0,0,-1,1511,1667,4.11568,-10.0985
294,-643,4.43359,10.4336,0.0290378,-0.0368184,0.00623086,0.0296221,-0.0374027,0.0935075,0.0387836,0.0440636,1518,1667,4.43364,-10.4336
301,-643,4.82166,11.1162,0.0245303,-0.0302273,0.00539628,0.0250571,-0.030754,0.0973013,0.0322784,0.0380267,1525,1667,4.8216,-11.1162
308,-643,4.82141,11.1053,0.020124,-0.0238563,0.00452876,0.0205855,-0.0243178,0.101553,0.0259548,0.0342158,1532,1667,4.82143,-11.1053
315,-643,4.83337,11.1062,0.0160655,-0.0180745,0.00368872,0.0164596,-0.0184685,0.10641,0.0201769,0.0261013,1539,1667,4.83341,-11.1062
322,-643,4.85889,11.0411,0.0122956,-0.0131143,0.00299084,0.0126429,-0.0134615,0.115599,0.0150739,0.0147519,1546,1667,4.85888,-11.0411
329,-643,4.85474,10.9276,0.00917821,-0.00913012,0.00239139,0.00948541,-0.00943732,0.127762,0.0109251,0.0114784,1553,1667,4.85469,-10.9276
336,-643,4.84644,10.8586,0.00658422,-0.00600119,0.0019161,0.00686948,-0.00628645,0.147788,0.00759806,0.0108677,1560,1667,4.84649,-10.8586
343,-643,4.8573,10.7758,0.00399759,-0.00332335,0.00144639,0.00427299,-0.00359875,0.188154,0.0045503,0.0137929,1567,1667,4.85734,-10.7757
350,-643,4.86243,10.6588,0.00212352,-0.00105047,0.00109052,0.00246209,-0.00138903,0.301027,0.00225203,0.0137409,1574,1667,4.86239,-10.6588
357,-643,4.87805,10.5541,0.00108822,-0.000245667,0.000770375,0.00144025,-0.000597688,0.428617,0.00120966,0.0114726,1581,1667,4.87807,-10.554
364,-643,4.89551,10.4458,0.000860186,-0.000235086,0.000583565,0.00111283,-0.000487733,0.408575,0.000947288,0.00927172,1588,1667,4.89554,-10.4458
371,-643,4.89856,10.3462,0.000715331,-0.000253576,0.0004,0.000859125,-0.00039737,0.3451,0.000741587,0.00767246,1595,1667,4.89853,-10.3461
378,-643,4.90125,10.2389,0.000708517,-0.000199631,9.11659e-05,0.000717578,-0.000208693,0.0990695,0.000561041,0.00955354,1602,1667,4.90119,-10.2389
385,-643,4.9054,10.1295,0.000801916,-0.000181467,-0.000167253,0.000829584,-0.000209135,-0.16394,0.000634365,0.0150518,1609,1667,4.90544,-10.1295
392,-643,4.90002,10.0037,0.000690437,-0.00031774,-0.000289424,0.000767615,-0.000394918,-0.260599,0.000682589,0.0156128,1616,1667,4.89998,-10.0036
399,-643,4.9126,9.91516,0.000349214,-0.000314317,-0.000394068,0.000532578,-0.00049768,-0.435512,0.000594933,0.0133267,1623,1667,4.91262,-9.91511
406,-643,4.91663,9.77673,-3.42441e-05,-0.00042824,-0.000369307,0.000187322,-0.000649806,-0.540384,0.000507307,0.0122953,1630,1667,4.91664,-9.77668
413,-643,4.91931,9.6543,-0.000550188,-0.000561191,-0.000318873,-0.000236769,-0.00087461,-0.776773,0.000522354,0.0166555,1637,1667,4.91928,-9.65428
420,-643,4.87817,9.56848,-0.001296,-0.000755922,-0.000166826,-0.000708546,-0.00134338,-1.2941,0.000775987,0.0157586,1644,1667,4.87816,-9.56854
427,-643,4.87036,9.43506,-0.00223959,-0.00115741,0.000195757,-0.00112309,-0.00227392,1.39723,0.00131288,0.0135455,1651,1667,4.87042,-9.43507
434,-643,4.88599,9.29272,-0.00336485,-0.00163444,0.000641047,-0.00142284,-0.00357645,1.25196,0.00207918,0.0146441,1658,1667,4.88604,-9.2927
441,-643,4.91406,9.16345,-0.0044932,-0.00213293,0.00118853,-0.00163816,-0.00498797,1.17633,0.00293578,0.0143483,1665,1667,4.91405,-9.16343
448,-643,4.93909,9.01489,-0.00549671,-0.00255742,0.00184849,-0.00166554,-0.00638859,1.12126,0.00382667,0.0198559,1672,1667,4.93905,-9.01488
455,-643,4.79883,8.91138,-0.00651419,-0.00291299,0.00251025,-0.00162433,-0.00780285,1.09652,0.00475388,0.0286669,1679,1667,4.79878,-8.91143
462,-643,4.87512,8.79431,-0.00713966,-0.00275524,0.00307746,-0.00116902,-0.00872588,1.09488,0.00546938,0.0370397,1686,1667,4.87508,-8.79429
469,-643,4.82886,8.5769,-0.00750814,-0.00225183,0.0035285,-0.000480266,-0.00927971,1.10549,0.00603276,0.0399487,1693,1667,4.8288,-8.57694
476,-643,4.73511,8.57141,0,0,0,0,0,0,0,-1,1700,1667,4.73515,-8.57146
483,-643,5.28284,7.37,0,0,0,0,0,0,0,-1,1707,1667,5.28283,-7.36998
490,-643,5.79114,6.33887,0,0,0,0,0,0,0,-1,1714,1667,5.79114,-6.33882
497,-643,5.19385,6.54321,0,0,0,0,0,0,0,-1,1721,1667,5.19386,-6.54318
504,-643,5.28699,7.28809,0,0,0,0,0,0,0,-1,1728,1667,5.28702,-7.28805
511,-643,4.24109,6.20679,0,0,0,0,0,0,0,-1,1735,1667,4.24108,-6.20679
518,-643,7.40564,0.922607,0,0,0,0,0,0,0,-1,1742,1667,7.4057,-0.922598
525,-643,0,0,0,0,0,0,0,0,0,-1,1749,1667,0,0
532,-643,0,0,0,0,0,0,0,0,0,-1,1756,1667,0,0
539,-643,0,0,0,0,0,0,0,0,0,-1,1763,1667,0,0
546,-643,0,0,0,0,0,0,0,0,0,-1,1770,1667,0,0
553,-643,0,0,0,0,0,0,0,0,0,-1,1777,1667,0,0
560,-643,0,0,0,0,0,0,0,0,0,-1,1784,1667,0,0
567,-643,0,0,0,0,0,0,0,0,0,-1,1791,1667,0,0
574,-643,0,0,0,0,0,0,0,0,0,-1,1798,1667,0,0
581,-643,0,0,0,0,0,0,0,0,0,-1,1805,1667,0,0
588,-643,0,0,0,0,0,0,0,0,0,-1,1812,1667,0,0
595,-643,0,0,0,0,0,0,0,0,0,-1,1819,1667,0,0
602,-643,0,0,0,0,0,0,0,0,0,-1,1826,1667,0,0
609,-643,0,0,0,0,0,0,0,0,0,-1,1833,1667,0,0
616,-643,0,0,0,0,0,0,0,0,0,-1,1840,1667,0,0
623,-643,0,0,0,0,0,0,0,0,0,-1,1847,1667,0,0
630,-643,0,0,0,0,0,0,0,0,0,-1,1854,1667,0,0
637,-643,0,0,0,0,0,0,0,0,0,-1,1861,1667,0,0
644,-643,0,0,0,0,0,0,0,0,0,-1,1868,1667,0,0
651,-643,0,0,0,0,0,0,0,0,0,-1,1875,1667,0,0
658,-643,0,0,0,0,0,0,0,0,0,-1,1882,1667,0,0
665,-643,0,0,0,0,0,0,0,0,0,-1,1889,1667,0,0
672,-643,0,0,0,0,0,0,0,0,0,-1,1896,1667,0,0
679,-643,0,0,0,0,0,0,0,0,0,-1,1903,1667,0,0
686,-643,0,0,0,0,0,0,0,0,0,-1,1910,1667,0,0
693,-643,0,0,0,0,0,0,0,0,0,-1,1917,1667,0,0
700,-643,0,0,0,0,0,0,0,0,0,-1,1924,1667,0,0
707,-643,0,0,0,0,0,0,0,0,0,-1,1931,1667,0,0
714,-643,0,0,0,0,0,0,0,0,0,-1,1938,1667,0,0
721,-643,0,0,0,0,0,0,0,0,0,-1,1945,1667,0,0
728,-643,0,0,0,0,0,0,0,0,0,-1,1952,1667,0,0
735,-643,0,0,0,0,0,0,0,0,0,-1,1959,1667,0,0
742,-643,0,0,0,0,0,0,0,0,0,-1,1966,1667,0,0
749,-643,0,0,0,0,0,0,0,0,0,-1,1973,1667,0,0
756,-643,0,0,0,0,0,0,0,0,0,-1,1980,1667,0,0
763,-643,0,0,0,0,0,0,0,0,0,-1,1987,1667,0,0
770,-643,0,0,0,0,0,0,0,0,0,-1,1994,1667,0,0
777,-643,0,0,0,0,0,0,0,0,0,-1,2001,1667,0,0
784,-643,0,0,0,0,0,0,0,0,0,-1,2008,1667,0,0
791,-643,0,0,0,0,0,0,0,0,0,-1,2015,1667,0,0
798,-643,0,0,0,0,0,0,0,0,0,-1,2022,1667,0,0
805,-643,0,0,0,0,0,0,0,0,0,-1,2029,1667,0,0
812,-643,0,0,0,0,0,0,0,0,0,-1,2036,1667,0,0
-700,-650,0,0,0,0,0,0,0,0,0,-1,524,1674,0,0
-693,-650,0,0,0,0,0,0,0,0,0,-1,531,1674,0,0
-686,-650,0,0,0,0,0,0,0,0,0,-1,538,1674,0,0
-679,-650,0,0,0,0,0,0,0,0,0,-1,545,1674,0,0
-672,-650,0,0,0,0,0,0,0,0,0,-1,552,1674,0,0
-665,-650,0,0,0,0,0,0,0,0,0,-1,559,1674,0,0
-658,-650,0,0,0,0,0,0,0,0,0,-1,566,1674,0,0
-651,-650,0,0,0,0,0,0,0,0,0,-1,573,1674,0,0
-644,-650,0,0,0,0,0,0,0,0,0,-1,580,1674,0,0
-637,-650,0,0,0,0,0,0,0,0,0,-1,587,1674,0,0
-630,-650,0,0,0,0,0,0,0,0,0,-1,594,1674,0,0
-623,-650,0,0,0,0,0,0,0,0,0,-1,601,1674,0,0
-616,-650,0,0,0,0,0,0,0,0,0,-1,608,1674,0,0
-609,-650,0,0,0,0,0,0,0,0,0,-1,615,1674,0,0
-602,-650,0,0,0,0,0,0,0,0,0,-1,622,1674,0,0
-595,-650,0,0,0,0,0,0,0,0,0,-1,629,1674,0,0
-588,-650,0,0,0,0,0,0,0,0,0,-1,636,1674,0,0
-581,-650,0,0,0,0,0,0,0,0,0,-1,643,1674,0,0
-574,-650,0,0,0,0,0,0,0,0,0,-1,650,1674,0,0
-567,-650,0,0,0,0,0,0,0,0,0,-1,657,1674,0,0
-560,-650,0,0,0,0,0,0,0,0,0,-1,664,1674,0,0
-553,-650,0,0,0,0,0,0,0,0,0,-1,671,1674,0,0
-546,-650,0,0,0,0,0,0,0,0,0,-1,678,1674,0,0
-539,-650,0,0,0,0,0,0,0,0,0,-1,685,1674,0,0
-532,-650,0,0,0,0,0,0,0,0,0,-1,692,1674,0,0
-525,-650,0,0,0,0,0,0,0,0,0,-1,699,1674,0,0
-518,-650,0,0,0,0,0,0,0,0,0,-1,706,1674,0,0
-511,-650,0,0,0,0,0,0,0,0,0,-1,713,1674,0,0
-504,-650,0,0,0,0,0,0,0,0,0,-1,720,1674,0,0
-497,-650,0,0,0,0,0,0,0,0,0,-1,727,1674,0,0
-490,-650,0,0,0,0,0,0,0,0,0,-1,734,1674,0,0
-483,-650,0,0,0,0,0,0,0,0,0,-1,741,1674,0,0
-476,-650,0,0,0,0,0,0,0,0,0,-1,748,1674,0,0
-469,-650,0,0,0,0,0,0,0,0,0,-1,755,1674,0,0
-462,-650,0,0,0,0,0,0,0,0,0,-1,762,1674,0,0
-455,-650,0,0,0,0,0,0,0,0,0,-1,769,1674,0,0
-448,-650,0,0,0,0,0,0,0,0,0,-1,776,1674,0,0
-441,-650,0,0,0,0,0,0,0,0,0,-1,783,1674,0,0
-434,-650,0,0,0,0,0,0,0,0,0,-1,790,1674,0,0
-427,-650,0,0,0,0,0,0,0,0,0,-1,797,1674,0,0
-420,-650,0,0,0,0,0,0,0,0,0,-1,804,1674,0,0
-413,-650,0,0,0,0,0,0,0,0,0,-1,811,1674,0,0
-406,-650,0,0,0,0,0,0,0,0,0,-1,818,1674,0,0
-399,-650,0,0,0,0,0,0,0,0,0,-1,825,1674,0,0
-392,-650,1.72925,8.36951,0,0,0,0,0,0,0,-1,832,1674,1.72927,-8.36954
-385,-650,1.4787,6.38037,0,0,0,0,0,0,0,-1,839,1674,1.47868,-6.38036
-378,-650,1.22809,4.39111,0,0,0,0,0,0,0,-1,846,1674,1.22809,-4.39117
-371,-650,-1.35962,5.05627,0,0,0,0,0,0,0,-1,853,1674,-1.35961,-5.05633
-364,-650,-2.5766,3.37585,0,0,0,0,0,0,0,-1,860,1674,-2.57662,-3.37586
-357,-650,-3.83185,1.63733,0,0,0,0,0,0,0,-1,867,1674,-3.83184,-1.63728
-350,-650,-5.04651,0.108032,0,0,0,0,0,0,0,-1,874,1674,-5.0465,-0.10798
-343,-650,-6.21338,-1.4425,0,0,0,0,0,0,0,-1,881,1674,-6.21341,1.44248
-336,-650,3.50641,7.21509,0,0,0,0,0,0,0,-1,888,1674,3.5064,-7.21507
-329,-650,3.39935,7.61841,-0.0145193,0.0280889,-0.0150285,0.0328563,-0.0192866,-1.26362,0.0304427,0.0487744,895,1674,3.39936,-7.6184
-322,-650,3.31635,7.94104,-0.0151906,0.0264398,-0.0128472,0.0300852,-0.0188361,-1.29431,0.0284925,0.0412168,902,1674,3.31634,-7.94102
-315,-650,2.98035,8.04712,-0.015316,0.0241861,-0.0106791,0.0268883,-0.0180182,-1.32296,0.0260948,0.0384277,909,1674,2.98035,-8.0471
-308,-650,2.88342,8.18408,-0.01468,0.0216727,-0.00868504,0.0236411,-0.0166483,-1.34792,0.0233776,0.0217905,916,1674,2.8834,-8.18404
-301,-650,2.90845,8.3938,-0.0131894,0.0190887,-0.00693153,0.0205143,-0.014615,-1.36796,0.020377,0.0119839,923,1674,2.90846,-8.39383
-294,-650,2.90771,8.51575,-0.0111199,0.0163287,-0.00535965,0.0173381,-0.0121293,-1.38464,0.0171014,0.0105139,930,1674,2.90772,-8.51571
-287,-650,2.93347,8.65137,-0.00893118,0.0136694,-0.00418354,0.0144189,-0.00968072,-1.39351,0.0140033,0.0136646,937,1674,2.93345,-8.65134
-280,-650,2.92737,8.77698,-0.00691617,0.0111807,-0.00329906,0.0117634,-0.00749883,-1.39599,0.0112115,0.0138763,944,1674,2.92734,-8.77697
-273,-650,2.92249,8.9137,-0.00539944,0.00832314,-0.00234303,0.00871217,-0.00578846,-1.40626,0.00842848,0.0134709,951,1674,2.92248,-8.91372
-266,-650,2.89587,9.05542,-0.00368376,0.00631865,-0.00171651,0.00660502,-0.00397014,-1.40549,0.00616842,0.0108812,958,1674,2.89587,-9.05538
-259,-650,2.89929,9.18811,-0.00204825,0.00467146,-0.00131679,0.00492029,-0.00229707,-1.38404,0.0042577,0.0127936,965,1674,2.89926,-9.18813
-252,-650,2.91046,9.32861,-0.000694405,0.00318783,-0.00115122,0.00350354,-0.00101011,-1.30314,0.00273529,0.0120513,972,1674,2.91044,-9.3286
-245,-650,2.91339,9.46252,0.0002152,0.00182611,-0.0012539,0.00251097,-0.000469655,-1.07089,0.0018505,0.0119962,979,1674,2.9134,-9.46253
-238,-650,2.91467,9.58228,0.000515253,0.000816212,-0.00152976,0.00220288,-0.000871412,-0.834424,0.00182959,0.0136241,986,1674,2.91465,-9.58232
-231,-650,2.90417,9.70239,0.000611561,-0.000460655,-0.00170107,0.00185901,-0.0017081,-0.632746,0.00206008,0.0181957,993,1674,2.90415,-9.7024
-224,-650,2.90826,9.82532,0.000370411,-0.0014713,-0.00198641,0.00163903,-0.00273992,-0.568354,0.00255468,0.014823,1000,1674,2.90826,-9.82531
-217,-650,2.90222,9.92346,5.29382e-05,-0.0021951,-0.00256836,0.00173247,-0.00387464,-0.579134,0.00331508,0.0102833,1007,1674,2.9022,-9.92345
-210,-650,2.90991,10.056,-0.000231062,-0.00302363,-0.00356187,0.00219843,-0.00545312,-0.598599,0.00454889,0.00911795,1014,1674,2.9099,-10.056
-203,-650,2.94092,10.1877,-9.05384e-05,-0.00348342,-0.00416458,0.00270987,-0.00628383,-0.591985,0.00532742,0.0133536,1021,1674,2.94094,-10.1877
-196,-650,2.94299,10.2814,-0.000428098,-0.00403391,-0.00500733,0.00309101,-0.00755302,-0.612597,0.00632276,0.012489,1028,1674,2.94295,-10.2813
-189,-650,2.92932,10.3868,-0.000924058,-0.00466731,-0.00594883,0.00344063,-0.009032,-0.63299,0.00743836,0.00938746,1035,1674,2.92936,-10.3868
-182,-650,2.95837,10.4971,-0.00129546,-0.00517283,-0.00685006,0.00388497,-0.0103533,-0.647496,0.0084985,0.00867896,1042,1674,2.95837,-10.4971
-175,-650,2.96533,10.6045,-0.00142111,-0.00570389,-0.00759833,0.00433181,-0.0114568,-0.648048,0.00941988,0.0138898,1049,1674,2.96532,-10.6044
-168,-650,2.94727,10.6953,-0.00120732,-0.00643375,-0.00812722,0.00471648,-0.0123575,-0.629849,0.0101814,0.0187336,1056,1674,2.94727,-10.6953
-161,-650,2.98462,10.7775,-0.00057339,-0.00753442,-0.00828671,0.00493406,-0.0130419,-0.586579,0.0107245,0.0267212,1063,1674,2.98465,-10.7775
-154,-650,3.11218,10.8821,7.60613e-05,-0.00883055,-0.00816069,0.00491946,-0.013674,-0.535629,0.0111245,0.0300448,1070,1674,3.11217,-10.8821
-147,-650,3.13708,10.764,0.000754656,-0.0103697,-0.00788025,0.00483801,-0.014453,-0.478082,0.0115897,0.0381145,1077,1674,3.13703,-10.764
-140,-650,2.98828,10.6714,0.00196836,-0.0133881,-0.00765664,0.00513354,-0.0165532,-0.391996,0.0130867,0.0466471,1084,1674,2.98834,-10.6713
-133,-650,2.85205,10.8523,0,0,0,0,0,0,0,-1,1091,1674,2.85208,-10.8523
-126,-650,3.02002,11.1544,0,0,0,0,0,0,0,-1,1098,1674,3.01999,-11.1545
-119,-650,3.00574,10.891,0,0,0,0,0,0,0,-1,1105,1674,3.00579,-10.891
-112,-650,3.12524,11.379,0,0,0,0,0,0,0,-1,1112,1674,3.1252,-11.379
-105,-650,4.9259,12.0626,0,0,0,0,0,0,0,-1,1119,1674,4.92591,-12.0626
-98,-650,3.3761,6.78003,0,0,0,0,0,0,0,-1,1126,1674,3.37611,-6.78009
-91,-650,3.66809,7.04443,0,0,0,0,0,0,0,-1,1133,1674,3.66806,-7.04439
-84,-650,-3.82666,-1.59521,0,0,0,0,0,0,0,-1,1140,1674,-3.82661,1.59517
-77,-650,-4.70557,1.90198,0,0,0,0,0,0,0,-1,1147,1674,-4.7056,-1.90194
-70,-650,-4.88171,3.81653,0,0,0,0,0,0,0,-1,1154,1674,-4.88176,-3.81651
-63,-650,-5.14612,5.56543,0,0,0,0,0,0,0,-1,1161,1674,-5.14612,-5.56547
-56,-650,-5.38367,7.41101,0,0,0,0,0,0,0,-1,1168,1674,-5.38361,-7.41102
-49,-650,-5.11316,8.23706,0,0,0,0,0,0,0,-1,1175,1674,-5.11317,-8.23708
-42,-650,-4.99487,9.6792,0,0,0,0,0,0,0,-1,1182,1674,-4.99484,-9.67921
-35,-650,-4.77771,11.3369,0,0,0,0,0,0,0,-1,1189,1674,-4.77769,-11.3369
-28,-650,-4.1936,13.1501,0,0,0,0,0,0,0,-1,1196,1674,-4.19358,-13.1501
-21,-650,3.38782,10.7932,0,0,0,0,0,0,0,-1,1203,1674,3.38782,-10.7932
-14,-650,7.37781,9.41064,0,0,0,0,0,0,0,-1,1210,1674,7.37784,-9.41067
-7,-650,6.95618,9.85608,-0.0566834,-0.0325962,0.0540302,0.0107164,-0.0999961,0.895058,0.0705082,0.049961,1217,1674,6.95617,-9.85611
0,-650,6.46973,10.4011,-0.0433002,-0.0333186,0.0610782,0.0229723,-0.0995911,0.826164,0.0752299,0.043908,1224,1674,6.46976,-10.4011
7,-650,2.46472,7.90015,0,0,0,0,0,0,0,-1,1231,1674,2.46467,-7.90017
14,-650,3.3573,10.1001,-0.0123131,-0.0282573,0.0681865,0.0483658,-0.0889362,0.727204,0.0804166,0.0423243,1238,1674,3.35729,-10.1001
21,-650,4.44763,12.089,0.00183267,-0.0276847,0.0675123,0.0561806,-0.0820326,0.677787,0.0802614,0.0438536,1245,1674,4.44761,-12.089
28,-650,4.90149,13.3347,0.0138079,-0.0256261,0.0653509,0.0623513,-0.0741696,0.638886,0.0789188,0.0442236,1252,1674,4.90154,-13.3348
35,-650,5.1178,14.3781,0,0,0,0,0,0,0,-1,1259,1674,5.11776,-14.378
42,-650,5.67395,12.4175,0,0,0,0,0,0,0,-1,1266,1674,5.674,-12.4175
49,-650,2.90503,11.5723,0,0,0,0,0,0,0,-1,1273,1674,2.90503,-11.5723
56,-650,3.65588,11.58,0,0,0,0,0,0,0,-1,1280,1674,3.65586,-11.5799
63,-650,4.12561,11.4066,0,0,0,0,0,0,0,-1,1287,1674,4.1256,-11.4066
70,-650,4.60999,11.2598,0.0524097,-0.0279159,0.0488931,0.0755208,-0.051027,0.441559,0.0735172,0.0455008,1294,1674,4.60993,-11.2598
77,-650,4.93384,11.4426,0.0484712,-0.0297124,0.0453189,0.069229,-0.0504702,0.429518,0.0693906,0.0444751,1301,1674,4.93385,-11.4426
84,-650,5.69214,11.0939,0,0,0,0,0,0,0,-1,1308,1674,5.69208,-11.0938
91,-650,5.91931,11.0494,0,0,0,0,0,0,0,-1,1315,1674,5.91937,-11.0495
98,-650,5.99194,11.0516,0,0,0,0,0,0,0,-1,1322,1674,5.99193,-11.0516
105,-650,6.14514,11.0723,0,0,0,0,0,0,0,-1,1329,1674,6.14512,-11.0723
112,-650,3.6521,10.0514,0,0,0,0,0,0,0,-1,1336,1674,3.65212,-10.0514
119,-650,4.6615,9.59509,0,0,0,0,0,0,0,-1,1343,1674,4.66149,-9.59512
126,-650,4.58923,10.1541,0,0,0,0,0,0,0,-1,1350,1674,4.58927,-10.1541
133,-650,3.01917,10.7605,0,0,0,0,0,0,0,-1,1357,1674,3.0192,-10.7604
140,-650,4.53943,11.8491,0,0,0,0,0,0,0,-1,1364,1674,4.53944,-11.8491
147,-650,4.4502,12.4044,0,0,0,0,0,0,0,-1,1371,1674,4.45017,-12.4044
154,-650,4.36414,12.7855,0,0,0,0,0,0,0,-1,1378,1674,4.36415,-12.7856
161,-650,11.2434,8.83008,0,0,0,0,0,0,0,-1,1385,1674,11.2434,-8.83004
168,-650,11.2113,7.87231,0,0,0,0,0,0,0,-1,1392,1674,11.2113,-7.87236
175,-650,5.62537,-0.230713,0,0,0,0,0,0,0,-1,1399,1674,5.62538,0.230745
182,-650,5.56006,0.421631,0,0,0,0,0,0,0,-1,1406,1674,5.56,-0.421652
189,-650,4.81543,11.0654,0,0,0,0,0,0,0,-1,1413,1674,4.81542,-11.0654
196,-650,5.39575,11.9077,0,0,0,0,0,0,0,-1,1420,1674,5.39575,-11.9078
203,-650,3.93628,11.8215,0,0,0,0,0,0,0,-1,1427,1674,3.93624,-11.8216
210,-650,5.40955,8.08594,0,0,0,0,0,0,0,-1,1434,1674,5.40958,-8.086
217,-650,5.12451,4.69739,0,0,0,0,0,0,0,-1,1441,1674,5.12451,-4.69738
224,-650,4.79041,1.45813,0,0,0,0,0,0,0,-1,1448,1674,4.79046,-1.45816
231,-650,4.04102,-0.642212,0,0,0,0,0,0,0,-1,1455,1674,4.04101,0.642209
238,-650,3.23022,-1.43396,0,0,0,0,0,0,0,-1,1462,1674,3.23023,1.43394
245,-650,1.65894,-2.55042,0,0,0,0,0,0,0,-1,1469,1674,1.65889,2.55036
252,-650,8.75342,0.355103,0,0,0,0,0,0,0,-1,1476,1674,8.75337,-0.355147
259,-650,5.61255,3.17566,0,0,0,0,0,0,0,-1,1483,1674,5.61257,-3.17572
266,-650,4.00403,6.10229,0,0,0,0,0,0,0,-1,1490,1674,4.00401,-6.10225
273,-650,4.40796,11.4543,0,0,0,0,0,0,0,-1,1497,1674,4.40794,-11.4544
280,-650,4.50928,11.3744,0,0,0,0,0,0,0,-1,1504,1674,4.50932,-11.3744
287,-650,4.61072,11.2943,0,0,0,0,0,0,0,-1,1511,1674,4.6107,-11.2943
294,-650,4.73718,11.1748,0.0188384,-0.0232946,0.00499573,0.0194226,-0.0238789,0.11642,0.0250442,0.038014,1518,1674,4.73715,-11.1748
301,-650,4.74792,11.1565,0.015794,-0.018676,0.0042218,0.0163036,-0.0191856,0.120112,0.0205122,0.0275168,1525,1674,4.74795,-11.1565
308,-650,4.74536,11.1622,0.0128491,-0.0142933,0.00346697,0.0132849,-0.0147292,0.125058,0.0161811,0.0162131,1532,1674,4.74534,-11.1622
315,-650,4.76184,11.1293,0.0101642,-0.0103982,0.00275969,0.0105281,-0.0107621,0.13112,0.0122922,0.0102365,1539,1674,4.76188,-11.1293
322,-650,4.75024,11.0358,0.0077285,-0.00719649,0.00218898,0.00804293,-0.00751092,0.142663,0.00898177,0.00967283,1546,1674,4.7502,-11.0358
329,-650,4.75317,10.9163,0.00580369,-0.00473681,0.00169397,0.00606923,-0.00500236,0.155496,0.00640207,0.0155679,1553,1674,4.75321,-10.9162
336,-650,4.74609,10.8679,0.00421226,-0.00282335,0.00130881,0.00444784,-0.00305893,0.178092,0.0043587,0.0139609,1560,1674,4.74611,-10.8679
343,-650,4.7616,10.7963,0.00271623,-0.00132663,0.00092491,0.00291778,-0.00152818,0.214558,0.00260834,0.0145417,1567,1674,4.76162,-10.7962
350,-650,4.76843,10.691,0.0016311,7.48832e-05,0.000564151,0.00181409,-0.000108111,0.313664,0.001247,0.0170509,1574,1674,4.76843,-10.691
357,-650,4.77124,10.5775,0.00102597,0.000532853,0.000225383,0.00111346,0.000445363,0.370281,0.000647129,0.0134872,1581,1674,4.7712,-10.5776
364,-650,4.78821,10.4547,0.000931158,0.000576896,-1.30669e-05,0.000931639,0.000576415,-0.0368182,0.000542912,0.00916771,1588,1674,4.78816,-10.4548
371,-650,4.78162,10.3334,0.000913208,0.000633548,-0.00026755,0.00107526,0.000471491,-0.544604,0.000622368,0.0109386,1595,1674,4.7816,-10.3334
378,-650,4.77698,10.2179,0.00103211,0.000684072,-0.000619601,0.00150167,0.000214518,-0.648496,0.000937819,0.0118862,1602,1674,4.77698,-10.2179
385,-650,4.77722,10.1093,0.00120695,0.00076031,-0.00097213,0.00198108,-1.38193e-05,-0.672495,0.00132535,0.0133139,1609,1674,4.77721,-10.1093
392,-650,4.78735,10.0238,0.00099986,0.000657567,-0.00107954,0.00192173,-0.000264307,-0.706784,0.00137774,0.0166499,1616,1674,4.78733,-10.0238
399,-650,4.80872,9.9303,0.000533782,0.000564068,-0.00116008,0.0017091,-0.000611251,-0.791924,0.00138874,0.0146903,1623,1674,4.80876,-9.93031
406,-650,4.78821,9.8053,1.87107e-05,0.000367286,-0.00107269,0.00127975,-0.000893756,-0.865933,0.00126145,0.01329,1630,1674,4.78826,-9.80535
413,-650,4.77979,9.66956,-0.000668826,4.99818e-05,-0.000913006,0.000671776,-0.00129062,-0.972908,0.00115162,0.0138039,1637,1674,4.77977,-9.66961
420,-650,4.74976,9.56531,-0.00169819,-0.000412081,-0.000590997,-0.000181754,-0.00192852,-1.19918,0.00122958,0.0146676,1644,1674,4.74981,-9.56534
427,-650,4.76001,9.43774,-0.00305948,-0.00115232,5.48759e-05,-0.00115074,-0.00306106,1.54205,0.00178535,0.014107,1651,1674,4.76001,-9.43771
434,-650,4.78577,9.32312,-0.0046587,-0.00206797,0.000834221,-0.00182259,-0.00490408,1.28472,0.0028623,0.0167452,1658,1674,4.78572,-9.3231
441,-650,4.86401,9.18713,-0.00629218,-0.00304973,0.00177829,-0.00226457,-0.00707734,1.15501,0.00417346,0.0293042,1665,1674,4.86397,-9.18711
448,-650,4.61414,9.05127,-0.00789643,-0.00398108,0.00286244,-0.0024709,-0.00940662,1.08532,0.00563114,0.0439265,1672,1674,4.61417,-9.05126
455,-650,4.46375,8.99622,-0.009622,-0.00478206,0.00401448,-0.00251456,-0.0118895,1.05664,0.00723529,0.0437033,1679,1674,4.46377,-8.99623
462,-650,4.29968,8.83813,0,0,0,0,0,0,0,-1,1686,1674,4.2997,-8.83813
469,-650,4.82495,8.51917,0,0,0,0,0,0,0,-1,1693,1674,4.82501,-8.51919
476,-650,4.75647,8.30249,0,0,0,0,0,0,0,-1,1700,1674,4.75652,-8.30246
483,-650,6.86096,5.13086,0,0,0,0,0,0,0,-1,1707,1674,6.86099,-5.1309
490,-650,5.99377,5.63538,0,0,0,0,0,0,0,-1,1714,1674,5.99383,-5.63533
497,-650,5.1123,6.12317,0,0,0,0,0,0,0,-1,1721,1674,5.11231,-6.12312
504,-650,4.65247,5.48254,0,0,0,0,0,0,0,-1,1728,1674,4.65249,-5.48252
511,-650,4.14551,5.20691,0,0,0,0,0,0,0,-1,1735,1674,4.14549,-5.20691
518,-650,0,0,0,0,0,0,0,0,0,-1,1742,1674,0,0
525,-650,0,0,0,0,0,0,0,0,0,-1,1749,1674,0,0
532,-650,0,0,0,0,0,0,0,0,0,-1,1756,1674,0,0
539,-650,0,0,0,0,0,0,0,0,0,-1,1763,1674,0,0
546,-650,0,0,0,0,0,0,0,0,0,-1,1770,1674,0,0
553,-650,0,0,0,0,0,0,0,0,0,-1,1777,1674,0,0
560,-650,0,0,0,0,0,0,0,0,0,-1,1784,1674,0,0
567,-650,0,0,0,0,0,0,0,0,0,-1,1791,1674,0,0
574,-650,0,0,0,0,0,0,0,0,0,-1,1798,1674,0,0
581,-650,0,0,0,0,0,0,0,0,0,-1,1805,1674,0,0
588,-650,0,0,0,0,0,0,0,0,0,-1,1812,1674,0,0
595,-650,0,0,0,0,0,0,0,0,0,-1,1819,1674,0,0
602,-650,0,0,0,0,0,0,0,0,0,-1,1826,1674,0,0
609,-650,0,0,0,0,0,0,0,0,0,-1,1833,1674,0,0
616,-650,0,0,0,0,0,0,0,0,0,-1,1840,1674,0,0
623,-650,0,0,0,0,0,0,0,0,0,-1,1847,1674,0,0
630,-650,0,0,0,0,0,0,0,0,0,-1,1854,1674,0,0
637,-650,0,0,0,0,0,0,0,0,0,-1,1861,1674,0,0
644,-650,0,0,0,0,0,0,0,0,0,-1,1868,1674,0,0
651,-650,0,0,0,0,0,0,0,0,0,-1,1875,1674,0,0
658,-650,0,0,0,0,0,0,0,0,0,-1,1882,1674,0,0
665,-650,0,0,0,0,0,0,0,0,0,-1,1889,1674,0,0
672,-650,0,0,0,0,0,0,0,0,0,-1,1896,1674,0,0
679,-650,0,0,0,0,0,0,0,0,0,-1,1903,1674,0,0
686,-650,0,0,0,0,0,0,0,0,0,-1,1910,1674,0,0
693,-650,0,0,0,0,0,0,0,0,0,-1,1917,1674,0,0
700,-650,0,0,0,0,0,0,0,0,0,-1,1924,1674,0,0
707,-650,0,0,0,0,0,0,0,0,0,-1,1931,1674,0,0
714,-650,0,0,0,0,0,0,0,0,0,-1,1938,1674,0,0
721,-650,0,0,0,0,0,0,0,0,0,-1,1945,1674,0,0
728,-650,0,0,0,0,0,0,0,0,0,-1,1952,1674,0,0
735,-650,0,0,0,0,0,0,0,0,0,-1,1959,1674,0,0
742,-650,0,0,0,0,0,0,0,0,0,-1,1966,1674,0,0
749,-650,0,0,0,0,0,0,0,0,0,-1,1973,1674,0,0
756,-650,0,0,0,0,0,0,0,0,0,-1,1980,1674,0,0
763,-650,0,0,0,0,0,0,0,0,0,-1,1987,1674,0,0
770,-650,0,0,0,0,0,0,0,0,0,-1,1994,1674,0,0
777,-650,0,0,0,0,0,0,0,0,0,-1,2001,1674,0,0
784,-650,0,0,0,0,0,0,0,0,0,-1,2008,1674,0,0
791,-650,0,0,0,0,0,0,0,0,0,-1,2015,1674,0,0
798,-650,0,0,0,0,0,0,0,0,0,-1,2022,1674,0,0
805,-650,0,0,0,0,0,0,0,0,0,-1,2029,1674,0,0
812,-650,0,0,0,0,0,0,0,0,0,-1,2036,1674,0,0
-700,-657,0,0,0,0,0,0,0,0,0,-1,524,1681,0,0
-693,-657,0,0,0,0,0,0,0,0,0,-1,531,1681,0,0
-686,-657,0,0,0,0,0,0,0,0,0,-1,538,1681,0,0
-679,-657,0,0,0,0,0,0,0,0,0,-1,545,1681,0,0
-672,-657,0,0,0,0,0,0,0,0,0,-1,552,1681,0,0
-665,-657,0,0,0,0,0,0,0,0,0,-1,559,1681,0,0
-658,-657,0,0,0,0,0,0,0,0,0,-1,566,1681,0,0
-651,-657,0,0,0,0,0,0,0,0,0,-1,573,1681,0,0
-644,-657,0,0,0,0,0,0,0,0,0,-1,580,1681,0,0
-637,-657,0,0,0,0,0,0,0,0,0,-1,587,1681,0,0
-630,-657,0,0,0,0,0,0,0,0,0,-1,594,1681,0,0
-623,-657,0,0,0,0,0,0,0,0,0,-1,601,1681,0,0
-616,-657,0,0,0,0,0,0,0,0,0,-1,608,1681,0,0
-609,-657,0,0,0,0,0,0,0,0,0,-1,615,1681,0,0
-602,-657,0,0,0,0,0,0,0,0,0,-1,622,1681,0,0
-595,-657,0,0,0,0,0,0,0,0,0,-1,629,1681,0,0
-588,-657,0,0,0,0,0,0,0,0,0,-1,636,1681,0,0
-581,-657,0,0,0,0,0,0,0,0,0,-1,643,1681,0,0
-574,-657,0,0,0,0,0,0,0,0,0,-1,650,1681,0,0
-567,-657,0,0,0,0,0,0,0,0,0,-1,657,1681,0,0
-560,-657,0,0,0,0,0,0,0,0,0,-1,664,1681,0,0
-553,-657,0,0,0,0,0,0,0,0,0,-1,671,1681,0,0
-546,-657,0,0,0,0,0,0,0,0,0,-1,678,1681,0,0
-539,-657,0,0,0,0,0,0,0,0,0,-1,685,1681,0,0
-532,-657,0,0,0,0,0,0,0,0,0,-1,692,1681,0,0
-525,-657,0,0,0,0,0,0,0,0,0,-1,699,1681,0,0
-518,-657,0,0,0,0,0,0,0,0,0,-1,706,1681,0,0
-511,-657,0,0,0,0,0,0,0,0,0,-1,713,1681,0,0
-504,-657,0,0,0,0,0,0,0,0,0,-1,720,1681,0,0
-497,-657,0,0,0,0,0,0,0,0,0,-1,727,1681,0,0
-490,-657,0,0,0,0,0,0,0,0,0,-1,734,1681,0,0
-483,-657,0,0,0,0,0,0,0,0,0,-1,741,1681,0,0
-476,-657,0,0,0,0,0,0,0,0,0,-1,748,1681,0,0
-469,-657,0,0,0,0,0,0,0,0,0,-1,755,1681,0,0
-462,-657,0,0,0,0,0,0,0,0,0,-1,762,1681,0,0
-455,-657,0,0,0,0,0,0,0,0,0,-1,769,1681,0,0
-448,-657,0,0,0,0,0,0,0,0,0,-1,776,1681,0,0
-441,-657,0,0,0,0,0,0,0,0,0,-1,783,1681,0,0
-434,-657,0,0,0,0,0,0,0,0,0,-1,790,1681,0,0
-427,-657,0,0,0,0,0,0,0,0,0,-1,797,1681,0,0
-420,-657,0,0,0,0,0,0,0,0,0,-1,804,1681,0,0
-413,-657,0,0,0,0,0,0,0,0,0,-1,811,1681,0,0
-406,-657,0,0,0,0,0,0,0,0,0,-1,818,1681,0,0
-399,-657,0,0,0,0,0,0,0,0,0,-1,825,1681,0,0
-392,-657,0,0,0,0,0,0,0,0,0,-1,832,1681,0,0
-385,-657,1.67822,5.90381,0,0,0,0,0,0,0,-1,839,1681,1.67823,-5.9038
-378,-657,1.46515,3.85718,0,0,0,0,0,0,0,-1,846,1681,1.46517,-3.85721
-371,-657,-2.36639,5.16479,0,0,0,0,0,0,0,-1,853,1681,-2.36641,-5.16474
-364,-657,-3.20154,3.89429,0,0,0,0,0,0,0,-1,860,1681,-3.20151,-3.89425
-357,-657,-3.97162,2.20276,0,0,0,0,0,0,0,-1,867,1681,-3.97159,-2.20277
-350,-657,-5.17291,0.715698,0,0,0,0,0,0,0,-1,874,1681,-5.17294,-0.715695
-343,-657,-6.50574,-0.622192,0,0,0,0,0,0,0,-1,881,1681,-6.50574,0.622157
-336,-657,2.35657,6.39136,0,0,0,0,0,0,0,-1,888,1681,2.35656,-6.39142
-329,-657,3.14374,7.00818,-0.0207601,0.0412347,-0.0202989,0.0472898,-0.0268151,-1.2809,0.0433254,0.0491673,895,1681,3.14375,-7.0082
-322,-657,3.90326,7.53357,-0.0207645,0.0376632,-0.0170839,0.0422918,-0.0253931,-1.30622,0.0394818,0.0424857,902,1681,3.90327,-7.53353
-315,-657,3.80426,7.76172,-0.0203425,0.0338641,-0.0141038,0.0373141,-0.0237926,-1.33089,0.0355667,0.0415917,909,1681,3.80425,-7.7617
-308,-657,3.34906,7.98413,-0.018955,0.0300388,-0.0114869,0.0325983,-0.0215145,-1.35156,0.0314597,0.0359175,916,1681,3.34904,-7.98417
-301,-657,3.09357,8.30737,-0.0166544,0.0264153,-0.00926922,0.0283254,-0.0185645,-1.36757,0.0272668,0.0286721,923,1681,3.09356,-8.3074
-294,-657,2.99213,8.52869,-0.0138159,0.0227943,-0.00733914,0.0242108,-0.0152324,-1.38014,0.0229683,0.0169058,930,1681,2.9921,-8.52869
-287,-657,3.02002,8.66357,-0.0109658,0.0194313,-0.00587779,0.0205283,-0.0120628,-1.38629,0.0190269,0.0114087,937,1681,3.02002,-8.66358
-280,-657,3.0274,8.76465,-0.00833434,0.0161651,-0.00476751,0.0170602,-0.00922938,-1.38522,0.0154011,0.0123162,944,1681,3.02741,-8.76463
-273,-657,3.03503,8.90894,-0.00648548,0.0124997,-0.00358658,0.0131546,-0.00714045,-1.39017,0.0118876,0.0097858,951,1681,3.03502,-8.90894
-266,-657,3.02069,9.06177,-0.00450752,0.00986409,-0.00279914,0.01039,-0.00503346,-1.38507,0.009082,0.0139384,958,1681,3.02066,-9.06179
-259,-657,3.02545,9.18347,-0.00263098,0.00763544,-0.00225144,0.00810748,-0.00310302,-1.36413,0.0066839,0.0167531,965,1681,3.02545,-9.18347
-252,-657,3.01813,9.31323,-0.00104277,0.00559574,-0.00196237,0.00613244,-0.00157947,-1.30383,0.00470401,0.0122878,972,1681,3.01815,-9.31322
-245,-657,3.02667,9.46448,9.51334e-06,0.00367696,-0.00183268,0.00443577,-0.000749302,-1.17824,0.003236,0.0143394,979,1681,3.02667,-9.46442
-238,-657,3.04431,9.57727,0.000217569,0.00221636,-0.00176188,0.00324256,-0.000808628,-1.04339,0.00247567,0.0190269,986,1681,3.04431,-9.57723
-231,-657,3.04309,9.70532,0.000361147,0.000706436,-0.00159474,0.00213785,-0.00107026,-0.839318,0.00188608,0.0203141,993,1681,3.04308,-9.70534
-224,-657,3.0332,9.84058,0.000321073,-0.000515843,-0.00146278,0.00142407,-0.00161884,-0.646083,0.00175802,0.0156442,1000,1681,3.03323,-9.84055
-217,-657,3.01971,9.96423,0.000208501,-0.00139335,-0.00160062,0.0011974,-0.00238224,-0.553421,0.0021041,0.00959573,1007,1681,3.01971,-9.9642
-210,-657,3.01617,10.0803,0.000382413,-0.00210438,-0.00204329,0.0015309,-0.00325286,-0.512066,0.00282092,0.00993749,1014,1681,3.01616,-10.0804
-203,-657,3.0365,10.2041,0.000878409,-0.00244077,-0.0021837,0.00196159,-0.00352395,-0.460466,0.00320961,0.0122412,1021,1681,3.03652,-10.2042
-196,-657,3.06262,10.2931,0.00101562,-0.00271836,-0.00252732,0.00229076,-0.0039935,-0.467276,0.00367235,0.0130995,1028,1681,3.06256,-10.2931
-189,-657,3.06677,10.3915,0.00106802,-0.00297089,-0.00299198,0.00265829,-0.00456117,-0.488539,0.00421614,0.00969552,1035,1681,3.06673,-10.3915
-182,-657,3.06104,10.4805,0.00129864,-0.00305102,-0.00340172,0.00316133,-0.00491371,-0.500978,0.00469858,0.0080076,1042,1681,3.06107,-10.4805
-175,-657,3.06079,10.6017,0.00175143,-0.00317401,-0.0037532,0.00377775,-0.00520034,-0.49505,0.00520515,0.00988433,1049,1681,3.06078,-10.6017
-168,-657,3.06042,10.7146,0.00251479,-0.00352314,-0.00394356,0.00446229,-0.00547065,-0.458711,0.00574463,0.0114053,1056,1681,3.06037,-10.7147
-161,-657,3.06653,10.7937,0.00355781,-0.00422654,-0.00385307,0.00514242,-0.00581115,-0.390174,0.00632797,0.0113129,1063,1681,3.06655,-10.7937
-154,-657,3.06702,10.8942,0.00456686,-0.00510713,-0.00354147,0.00572474,-0.00626501,-0.315993,0.00692463,0.0111501,1070,1681,3.06706,-10.8942
-147,-657,3.08704,10.962,0.00552009,-0.0062349,-0.0031385,0.00630556,-0.00702037,-0.245232,0.00769742,0.0148256,1077,1681,3.08698,-10.9621
-140,-657,3.03748,11.0107,0.0068209,-0.00860414,-0.00286202,0.00733481,-0.00911805,-0.177668,0.00951764,0.0263312,1084,1681,3.03743,-11.0107
-133,-657,3.01587,11.0486,0,0,0,0,0,0,0,-1,1091,1681,3.01581,-11.0486
-126,-657,3.15271,11.2026,0,0,0,0,0,0,0,-1,1098,1681,3.15265,-11.2027
-119,-657,3.28955,11.3567,0,0,0,0,0,0,0,-1,1105,1681,3.2895,-11.3567
-112,-657,4.14514,11.0283,0,0,0,0,0,0,0,-1,1112,1681,4.14517,-11.0283
-105,-657,3.7655,11.0475,0,0,0,0,0,0,0,-1,1119,1681,3.76551,-11.0475
-98,-657,3.78662,8.16785,0,0,0,0,0,0,0,-1,1126,1681,3.78663,-8.16786
-91,-657,2.92407,10.2837,0,0,0,0,0,0,0,-1,1133,1681,2.92411,-10.2837
-84,-657,3.26697,10.0148,0,0,0,0,0,0,0,-1,1140,1681,3.26699,-10.0148
-77,-657,-5.29846,0.396606,0,0,0,0,0,0,0,-1,1147,1681,-5.29842,-0.396573
-70,-657,-4.14893,2.14575,0,0,0,0,0,0,0,-1,1154,1681,-4.14893,-2.1458
-63,-657,-4.1239,3.177,0,0,0,0,0,0,0,-1,1161,1681,-4.12391,-3.17698
-56,-657,-6.40576,5.73987,0,0,0,0,0,0,0,-1,1168,1681,-6.40577,-5.7399
-49,-657,-5.98462,7.54053,0,0,0,0,0,0,0,-1,1175,1681,-5.98466,-7.5405
-42,-657,-5.71948,9.28955,0,0,0,0,0,0,0,-1,1182,1681,-5.71951,-9.2895
-35,-657,-5.44556,11.015,0,0,0,0,0,0,0,-1,1189,1681,-5.44555,-11.015
-28,-657,-1.3446,8.92847,0,0,0,0,0,0,0,-1,1196,1681,-1.34459,-8.92848
-21,-657,3.02441,10.6489,0,0,0,0,0,0,0,-1,1203,1681,3.02441,-10.6489
-14,-657,6.95813,9.74463,0,0,0,0,0,0,0,-1,1210,1681,6.95808,-9.74467
-7,-657,6.5304,10.1633,-0.041933,-0.0302709,0.0510174,0.0152476,-0.0874515,0.842299,0.063992,0.0478161,1217,1681,6.53036,-10.1634
0,-657,6.13562,10.5653,-0.0324068,-0.0309812,0.0557865,0.0240971,-0.0874851,0.791787,0.0677985,0.0454972,1224,1681,6.13563,-10.5653
7,-657,5.73975,10.9589,0,0,0,0,0,0,0,-1,1231,1681,5.7398,-10.9588
14,-657,4.3103,11.1509,0,0,0,0,0,0,0,-1,1238,1681,4.3103,-11.1508
21,-657,4.46387,12.4285,0.00283122,-0.0255596,0.0597449,0.050044,-0.0727724,0.668761,0.0713117,0.0433222,1245,1681,4.46383,-12.4285
28,-657,4.63745,13.7085,0.0130296,-0.0232046,0.0575131,0.0552116,-0.0653866,0.632814,0.06971,0.0438079,1252,1681,4.63744,-13.7085
35,-657,4.75146,14.9535,0,0,0,0,0,0,0,-1,1259,1681,4.75145,-14.9534
42,-657,5.13525,12.3351,0.0279466,-0.0206001,0.0521333,0.0611804,-0.0538339,0.567522,0.0664487,0.0462926,1266,1681,5.13531,-12.3351
49,-657,5.52209,12.2793,0.0340374,-0.0213363,0.0499468,0.0634579,-0.0507567,0.532319,0.0660776,0.0471222,1273,1681,5.5221,-12.2793
56,-657,6.13342,12.095,0.0402346,-0.0217443,0.0472575,0.0657573,-0.047267,0.495192,0.065545,0.0446217,1280,1681,6.13338,-12.095
63,-657,3.97937,11.8156,0,0,0,0,0,0,0,-1,1287,1681,3.97939,-11.8156
70,-657,4.3468,11.6588,0.0430952,-0.0234188,0.041118,0.0627223,-0.0430458,0.445351,0.0614164,0.0488589,1294,1681,4.34683,-11.6588
77,-657,4.72754,11.4712,0.0399852,-0.0249646,0.0381379,0.0576014,-0.0425808,0.432713,0.0580565,0.0429153,1301,1681,4.72748,-11.4712
84,-657,5.2179,11.2594,0.0372327,-0.0280777,0.0363982,0.0534774,-0.0443223,0.419775,0.056547,0.0461913,1308,1681,5.2179,-11.2594
91,-657,5.448,11.2196,0.0351139,-0.0313912,0.0371716,0.0517358,-0.0480131,0.420495,0.0576034,0.0482104,1315,1681,5.44801,-11.2196
98,-657,5.59143,11.2083,0.0326202,-0.0347174,0.0376091,0.0494295,-0.0515266,0.420312,0.0582912,0.0479324,1322,1681,5.59149,-11.2083
105,-657,5.72131,11.2181,0.029773,-0.0374158,0.0376995,0.0466745,-0.0543173,0.421457,0.0583633,0.0486658,1329,1681,5.72135,-11.2181
112,-657,5.86121,11.2292,0,0,0,0,0,0,0,-1,1336,1681,5.86126,-11.2292
119,-657,4.61194,8.5531,0,0,0,0,0,0,0,-1,1343,1681,4.61192,-8.55305
126,-657,3.33179,10.4547,0,0,0,0,0,0,0,-1,1350,1681,3.33183,-10.4547
133,-657,3.31531,11.1361,0,0,0,0,0,0,0,-1,1357,1681,3.31534,-11.1361
140,-657,3.29883,11.8175,0,0,0,0,0,0,0,-1,1364,1681,3.29885,-11.8175
147,-657,4.21387,11.9976,0,0,0,0,0,0,0,-1,1371,1681,4.21384,-11.9976
154,-657,12.2501,7.70422,0,0,0,0,0,0,0,-1,1378,1681,12.2501,-7.70418
161,-657,12.8524,6.43372,0,0,0,0,0,0,0,-1,1385,1681,12.8524,-6.43366
168,-657,5.21643,0.70105,0,0,0,0,0,0,0,-1,1392,1681,5.21648,-0.7011
175,-657,5.52771,0.649048,0,0,0,0,0,0,0,-1,1399,1681,5.52774,-0.649019
182,-657,5.73999,1.02612,0,0,0,0,0,0,0,-1,1406,1681,5.73995,-1.02611
189,-657,5.92126,1.44116,0,0,0,0,0,0,0,-1,1413,1681,5.92126,-1.44115
196,-657,4.92834,9.59021,0,0,0,0,0,0,0,-1,1420,1681,4.9284,-9.59018
203,-657,6.26343,5.16492,0,0,0,0,0,0,0,-1,1427,1681,6.26345,-5.16488
210,-657,3.9856,5.28088,0,0,0,0,0,0,0,-1,1434,1681,3.98555,-5.28084
217,-657,3.95178,5.2843,0,0,0,0,0,0,0,-1,1441,1681,3.95174,-5.28431
224,-657,6.66736,-0.250244,0,0,0,0,0,0,0,-1,1448,1681,6.66737,0.250229
231,-657,6.85498,-1.70752,0,0,0,0,0,0,0,-1,1455,1681,6.855,1.70758
238,-657,5.34143,-2.89819,0,0,0,0,0,0,0,-1,1462,1681,5.34143,2.89813
245,-657,8.66003,-0.102783,0,0,0,0,0,0,0,-1,1469,1681,8.66,0.102824
252,-657,4.78955,0.623779,0,0,0,0,0,0,0,-1,1476,1681,4.7895,-0.623826
259,-657,2.61523,4.31909,0,0,0,0,0,0,0,-1,1483,1681,2.61523,-4.31908
266,-657,5.35437,11.4742,0,0,0,0,0,0,0,-1,1490,1681,5.35441,-11.4742
273,-657,4.75928,11.5894,0,0,0,0,0,0,0,-1,1497,1681,4.7593,-11.5894
280,-657,4.50012,11.3558,0.0119479,-0.0175687,0.00472615,0.0126862,-0.0183069,0.154959,0.0179917,0.0355292,1504,1681,4.50018,-11.3559
287,-657,4.58813,11.3361,0.0107569,-0.0149403,0.00415272,0.0114113,-0.0155947,0.156303,0.0156542,0.0293112,1511,1681,4.58811,-11.336
294,-657,4.62134,11.3438,0.00959181,-0.012643,0.0035097,0.0101327,-0.0131838,0.152896,0.0135001,0.0229774,1518,1681,4.6213,-11.3437
301,-657,4.61621,11.2825,0.00819528,-0.0098996,0.00288296,0.0086435,-0.0103478,0.154239,0.0109794,0.0152723,1525,1681,4.61626,-11.2825
308,-657,4.6394,11.1904,0.0067494,-0.00732147,0.00235432,0.00713287,-0.00770494,0.161462,0.00856874,0.0121624,1532,1681,4.63943,-11.1905
315,-657,4.66687,11.1012,0.00540359,-0.00507016,0.00188364,0.00573205,-0.00539862,0.172639,0.00642725,0.0113567,1539,1681,4.66692,-11.1012
322,-657,4.67407,11.0056,0.00417403,-0.00331723,0.00151835,0.00447007,-0.00361327,0.192562,0.00467565,0.0127907,1546,1681,4.6741,-11.0056
329,-657,4.66479,10.9003,0.00323435,-0.00202772,0.00119392,0.00349257,-0.00228594,0.212997,0.00336038,0.0185045,1553,1681,4.66475,-10.9003
336,-657,4.64746,10.8088,0.00241727,-0.00099322,0.000935544,0.00265704,-0.001233,0.250894,0.00229553,0.0164412,1560,1681,4.6475,-10.8089
343,-657,4.67358,10.7491,0.00172198,-0.000231426,0.000652465,0.00191986,-0.000429312,0.294473,0.00144444,0.0135843,1567,1681,4.67358,-10.7492
350,-657,4.69141,10.6499,0.00123806,0.00064908,0.000298034,0.00136256,0.000524585,0.39569,0.000793577,0.0152549,1574,1681,4.69142,-10.65
357,-657,4.66638,10.5551,0.00102498,0.00088138,-6.3688e-05,0.00104916,0.000857204,-0.362796,0.000645046,0.0139415,1581,1681,4.6664,-10.555
364,-657,4.6803,10.4623,0.00105768,0.00103661,-0.00038359,0.00143088,0.00066341,-0.771674,0.000826846,0.0107594,1588,1681,4.68027,-10.4623
371,-657,4.68286,10.3434,0.00117584,0.00125284,-0.000750343,0.00196567,0.000463011,-0.811031,0.00118661,0.0147061,1595,1681,4.68281,-10.3433
378,-657,4.67126,10.2191,0.00143676,0.00141493,-0.00120234,0.00262824,0.000223451,-0.780858,0.00168263,0.0142829,1602,1681,4.67123,-10.2192
385,-657,4.68469,10.116,0.00171571,0.00162645,-0.00169734,0.003369,-2.68487e-05,-0.772255,0.002255,0.0125723,1609,1681,4.68475,-10.1159
392,-657,4.69348,10.0194,0.00144325,0.00160736,-0.00182529,0.00335244,-0.000301828,-0.80786,0.00234206,0.0122754,1616,1681,4.69348,-10.0194
399,-657,4.70276,9.92053,0.00089764,0.00143783,-0.00193355,0.00312006,-0.000784594,-0.854793,0.00238499,0.011441,1623,1681,4.70274,-9.92053
406,-657,4.68384,9.80957,0.000260302,0.00119226,-0.00185414,0.00263808,-0.00118552,-0.908507,0.00226003,0.0134771,1630,1681,4.68388,-9.80954
413,-657,4.67188,9.67639,-0.000640731,0.000706291,-0.0015919,0.00176129,-0.00169573,-0.985522,0.00199604,0.0136693,1637,1681,4.67185,-9.67643
420,-657,4.67297,9.5293,-0.00201942,-0.000104125,-0.00106023,0.000366925,-0.00249047,-1.1527,0.00179517,0.0148151,1644,1681,4.67295,-9.52928
427,-657,4.69446,9.39307,-0.00391165,-0.00129818,-6.68518e-05,-0.00129647,-0.00391336,-1.54524,0.00230185,0.0180498,1651,1681,4.69451,-9.39302
434,-657,4.76917,9.2876,-0.00614979,-0.00280267,0.001158,-0.0024411,-0.00651136,1.26815,0.00379836,0.0261851,1658,1681,4.76913,-9.2876
441,-657,4.94458,9.17102,-0.00852905,-0.0045051,0.00265583,-0.00318519,-0.00984896,1.10956,0.00580332,0.0434043,1665,1681,4.94453,-9.17101
448,-657,4.47046,9.32983,-0.011058,-0.00604874,0.00427356,-0.00359995,-0.0135068,1.05046,0.00807658,0.0457167,1672,1681,4.47043,-9.32987
455,-657,4.07214,9.02979,0,0,0,0,0,0,0,-1,1679,1681,4.07216,-9.02982
462,-657,4.27234,8.52393,0,0,0,0,0,0,0,-1,1686,1681,4.2723,-8.52388
469,-657,4.77844,8.45154,0,0,0,0,0,0,0,-1,1693,1681,4.77838,-8.45151
476,-657,8.01404,3.96289,0,0,0,0,0,0,0,-1,1700,1681,8.01408,-3.96294
483,-657,7.03394,4.51196,0,0,0,0,0,0,0,-1,1707,1681,7.03389,-4.51194
490,-657,6.05713,5.02905,0,0,0,0,0,0,0,-1,1714,1681,6.05718,-5.02904
497,-657,4.94678,5.75623,0,0,0,0,0,0,0,-1,1721,1681,4.9468,-5.75626
504,-657,0,0,0,0,0,0,0,0,0,-1,1728,1681,0,0
511,-657,0,0,0,0,0,0,0,0,0,-1,1735,1681,0,0
518,-657,0,0,0,0,0,0,0,0,0,-1,1742,1681,0,0
525,-657,0,0,0,0,0,0,0,0,0,-1,1749,1681,0,0
532,-657,0,0,0,0,0,0,0,0,0,-1,1756,1681,0,0
539,-657,0,0,0,0,0,0,0,0,0,-1,1763,1681,0,0
546,-657,0,0,0,0,0,0,0,0,0,-1,1770,1681,0,0
553,-657,0,0,0,0,0,0,0,0,0,-1,1777,1681,0,0
560,-657,0,0,0,0,0,0,0,0,0,-1,1784,1681,0,0
567,-657,0,0,0,0,0,0,0,0,0,-1,1791,1681,0,0
574,-657,0,0,0,0,0,0,0,0,0,-1,1798,1681,0,0
581,-657,0,0,0,0,0,0,0,0,0,-1,1805,1681,0,0
588,-657,0,0,0,0,0,0,0,0,0,-1,1812,1681,0,0
595,-657,0,0,0,0,0,0,0,0,0,-1,1819,1681,0,0
602,-657,0,0,0,0,0,0,0,0,0,-1,1826,1681,0,0
609,-657,0,0,0,0,0,0,0,0,0,-1,1833,1681,0,0
616,-657,0,0,0,0,0,0,0,0,0,-1,1840,1681,0,0
623,-657,0,0,0,0,0,0,0,0,0,-1,1847,1681,0,0
630,-657,0,0,0,0,0,0,0,0,0,-1,1854,1681,0,0
637,-657,0,0,0,0,0,0,0,0,0,-1,1861,1681,0,0
644,-657,0,0,0,0,0,0,0,0,0,-1,1868,1681,0,0
651,-657,0,0,0,0,0,0,0,0,0,-1,1875,1681,0,0
658,-657,0,0,0,0,0,0,0,0,0,-1,1882,1681,0,0
665,-657,0,0,0,0,0,0,0,0,0,-1,1889,1681,0,0
672,-657,0,0,0,0,0,0,0,0,0,-1,1896,1681,0,0
679,-657,0,0,0,0,0,0,0,0,0,-1,1903,1681,0,0
686,-657,0,0,0,0,0,0,0,0,0,-1,1910,1681,0,0
693,-657,0,0,0,0,0,0,0,0,0,-1,1917,1681,0,0
700,-657,0,0,0,0,0,0,0,0,0,-1,1924,1681,0,0
707,-657,0,0,0,0,0,0,0,0,0,-1,1931,1681,0,0
714,-657,0,0,0,0,0,0,0,0,0,-1,1938,1681,0,0
721,-657,0,0,0,0,0,0,0,0,0,-1,1945,1681,0,0
728,-657,0,0,0,0,0,0,0,0,0,-1,1952,1681,0,0
735,-657,0,0,0,0,0,0,0,0,0,-1,1959,1681,0,0
742,-657,0,0,0,0,0,0,0,0,0,-1,1966,1681,0,0
749,-657,0,0,0,0,0,0,0,0,0,-1,1973,1681,0,0
756,-657,0,0,0,0,0,0,0,0,0,-1,1980,1681,0,0
763,-657,0,0,0,0,0,0,0,0,0,-1,1987,1681,0,0
770,-657,0,0,0,0,0,0,0,0,0,-1,1994,1681,0,0
777,-657,0,0,0,0,0,0,0,0,0,-1,2001,1681,0,0
784,-657,0,0,0,0,0,0,0,0,0,-1,2008,1681,0,0
791,-657,0,0,0,0,0,0,0,0,0,-1,2015,1681,0,0
798,-657,0,0,0,0,0,0,0,0,0,-1,2022,1681,0,0
805,-657,0,0,0,0,0,0,0,0,0,-1,2029,1681,0,0
812,-657,0,0,0,0,0,0,0,0,0,-1,2036,1681,0,0
-700,-664,0,0,0,0,0,0,0,0,0,-1,524,1688,0,0
-693,-664,0,0,0,0,0,0,0,0,0,-1,531,1688,0,0
-686,-664,0,0,0,0,0,0,0,0,0,-1,538,1688,0,0
-679,-664,0,0,0,0,0,0,0,0,0,-1,545,1688,0,0
-672,-664,0,0,0,0,0,0,0,0,0,-1,552,1688,0,0
-665,-664,0,0,0,0,0,0,0,0,0,-1,559,1688,0,0
-658,-664,0,0,0,0,0,0,0,0,0,-1,566,1688,0,0
-651,-664,0,0,0,0,0,0,0,0,0,-1,573,1688,0,0
-644,-664,0,0,0,0,0,0,0,0,0,-1,580,1688,0,0
-637,-664,0,0,0,0,0,0,0,0,0,-1,587,1688,0,0
-630,-664,0,0,0,0,0,0,0,0,0,-1,594,1688,0,0
-623,-664,0,0,0,0,0,0,0,0,0,-1,601,1688,0,0
-616,-664,0,0,0,0,0,0,0,0,0,-1,608,1688,0,0
-609,-664,0,0,0,0,0,0,0,0,0,-1,615,1688,0,0
-602,-664,0,0,0,0,0,0,0,0,0,-1,622,1688,0,0
-595,-664,0,0,0,0,0,0,0,0,0,-1,629,1688,0,0
-588,-664,0,0,0,0,0,0,0,0,0,-1,636,1688,0,0
-581,-664,0,0,0,0,0,0,0,0,0,-1,643,1688,0,0
-574,-664,0,0,0,0,0,0,0,0,0,-1,650,1688,0,0
-567,-664,0,0,0,0,0,0,0,0,0,-1,657,1688,0,0
-560,-664,0,0,0,0,0,0,0,0,0,-1,664,1688,0,0
-553,-664,0,0,0,0,0,0,0,0,0,-1,671,1688,0,0
-546,-664,0,0,0,0,0,0,0,0,0,-1,678,1688,0,0
-539,-664,0,0,0,0,0,0,0,0,0,-1,685,1688,0,0
-532,-664,0,0,0,0,0,0,0,0,0,-1,692,1688,0,0
-525,-664,0,0,0,0,0,0,0,0,0,-1,699,1688,0,0
-518,-664,0,0,0,0,0,0,0,0,0,-1,706,1688,0,0
-511,-664,0,0,0,0,0,0,0,0,0,-1,713,1688,0,0
-504,-664,0,0,0,0,0,0,0,0,0,-1,720,1688,0,0
-497,-664,0,0,0,0,0,0,0,0,0,-1,727,1688,0,0
-490,-664,0,0,0,0,0,0,0,0,0,-1,734,1688,0,0
-483,-664,0,0,0,0,0,0,0,0,0,-1,741,1688,0,0
-476,-664,0,0,0,0,0,0,0,0,0,-1,748,1688,0,0
-469,-664,0,0,0,0,0,0,0,0,0,-1,755,1688,0,0
-462,-664,0,0,0,0,0,0,0,0,0,-1,762,1688,0,0
-455,-664,0,0,0,0,0,0,0,0,0,-1,769,1688,0,0
-448,-664,0,0,0,0,0,0,0,0,0,-1,776,1688,0,0
-441,-664,0,0,0,0,0,0,0,0,0,-1,783,1688,0,0
-434,-664,0,0,0,0,0,0,0,0,0,-1,790,1688,0,0
-427,-664,0,0,0,0,0,0,0,0,0,-1,797,1688,0,0
-420,-664,0,0,0,0,0,0,0,0,0,-1,804,1688,0,0
-413,-664,0,0,0,0,0,0,0,0,0,-1,811,1688,0,0
-406,-664,0,0,0,0,0,0,0,0,0,-1,818,1688,0,0
-399,-664,0,0,0,0,0,0,0,0,0,-1,825,1688,0,0
-392,-664,0,0,0,0,0,0,0,0,0,-1,832,1688,0,0
-385,-664,0,0,0,0,0,0,0,0,0,-1,839,1688,0,0
-378,-664,0,0,0,0,0,0,0,0,0,-1,846,1688,0,0
-371,-664,-1.61676,5.92737,0,0,0,0,0,0,0,-1,853,1688,-1.61675,-5.92735
-364,-664,-2.84229,4.37683,0,0,0,0,0,0,0,-1,860,1688,-2.84232,-4.37685
-357,-664,-4.0437,2.82947,0,0,0,0,0,0,0,-1,867,1688,-4.04369,-2.82946
-350,-664,-5.24695,1.2782,0,0,0,0,0,0,0,-1,874,1688,-5.24693,-1.27815
-343,-664,-6.67126,0.569946,0,0,0,0,0,0,0,-1,881,1688,-6.67128,-0.569944
-336,-664,5.91846,5.76477,0,0,0,0,0,0,0,-1,888,1688,5.91848,-5.76473
-329,-664,5.42664,6.43945,-0.0285234,0.0576583,-0.0268784,0.065354,-0.0362191,-1.29194,0.0594419,0.0487301,895,1688,5.42666,-6.4395
-322,-664,5.0509,7.08936,-0.0276603,0.0514378,-0.0222798,0.0572817,-0.0335042,-1.31428,0.0530111,0.0473931,902,1688,5.0509,-7.08941
-315,-664,4.46533,7.49255,-0.0264521,0.0456445,-0.0182768,0.050013,-0.0308206,-1.33618,0.0471058,0.0474424,909,1688,4.46532,-7.49252
-308,-664,3.89789,7.82288,-0.0240485,0.040212,-0.0149285,0.0435107,-0.0273472,-1.35332,0.0412631,0.0463031,916,1688,3.89789,-7.82283
-301,-664,3.28949,8.36279,-0.0207302,0.0353461,-0.0122059,0.0378877,-0.0232719,-1.3655,0.035645,0.0448989,923,1688,3.28947,-8.36281
-294,-664,2.93677,8.79468,0,0,0,0,0,0,0,-1,930,1688,2.93675,-8.79468
-287,-664,3.14905,8.59949,0,0,0,0,0,0,0,-1,937,1688,3.14904,-8.59954
-280,-664,3.14618,8.78931,-0.0099137,0.0221956,-0.00670296,0.0235387,-0.0112568,-1.37304,0.0205021,0.017377,944,1688,3.14618,-8.78935
-273,-664,3.13531,8.91199,-0.0076343,0.0175452,-0.00523573,0.0185905,-0.0086796,-1.37374,0.0160872,0.0146945,951,1688,3.1353,-8.91203
-266,-664,3.12183,9.05518,-0.00530149,0.0141195,-0.00423528,0.0150029,-0.00618493,-1.36516,0.012581,0.0216237,958,1688,3.12182,-9.05512
-259,-664,3.12543,9.17993,-0.00311776,0.0111636,-0.00348109,0.0119669,-0.00392109,-1.344,0.00955696,0.0178877,965,1688,3.12543,-9.17996
-252,-664,3.14539,9.30774,-0.0012395,0.00842388,-0.00298944,0.00927391,-0.00208953,-1.29376,0.0069841,0.0159351,972,1688,3.14537,-9.30778
-245,-664,3.1225,9.46863,-1.39349e-05,0.00579096,-0.00255025,0.00675219,-0.000975164,-1.21035,0.00485924,0.0196124,979,1688,3.12252,-9.46861
-238,-664,3.1731,9.57739,0.000101559,0.00379482,-0.00209173,0.00473842,-0.000842043,-1.14702,0.00347381,0.0218385,986,1688,3.1731,-9.57738
-231,-664,3.18103,9.70325,0.000221165,0.00193682,-0.00162088,0.00291288,-0.000754894,-1.02878,0.00223643,0.0184415,993,1688,3.18102,-9.70324
-224,-664,3.15778,9.85242,0.000192076,0.000360564,-0.00119896,0.00147824,-0.000925599,-0.820472,0.00140003,0.0132606,1000,1688,3.15779,-9.85244
-217,-664,3.15027,9.97473,0.000107216,-0.000806087,-0.00100826,0.000757412,-0.00145628,-0.572762,0.00129913,0.0098996,1007,1688,3.15026,-9.97471
-210,-664,3.15271,10.0829,0.000321061,-0.00161692,-0.00110327,0.000820456,-0.00211632,-0.425054,0.0017497,0.0110538,1014,1688,3.15273,-10.0828
-203,-664,3.15662,10.1929,0.000762417,-0.00204417,-0.00103503,0.00110283,-0.00238459,-0.31775,0.0020583,0.0132046,1021,1688,3.15661,-10.1928
-196,-664,3.16956,10.2836,0.000898189,-0.00232763,-0.00117537,0.00128102,-0.00271045,-0.314872,0.00235322,0.0134596,1028,1688,3.16961,-10.2835
-189,-664,3.17993,10.3944,0.000918551,-0.00246158,-0.00151319,0.00149698,-0.00304001,-0.365119,0.00266945,0.00963308,1035,1688,3.17987,-10.3944
-182,-664,3.172,10.485,0.00108252,-0.00247706,-0.00183425,0.00185853,-0.00325308,-0.400233,0.00298757,0.00915333,1042,1688,3.17205,-10.485
-175,-664,3.16943,10.5762,0.00141881,-0.00251799,-0.00213204,0.00235217,-0.00345135,-0.412643,0.00337064,0.0119979,1049,1688,3.16944,-10.5761
-168,-664,3.1665,10.6949,0.00202845,-0.0027922,-0.00230283,0.0029517,-0.00371545,-0.381297,0.00385769,0.0131101,1056,1688,3.16651,-10.695
-161,-664,3.16968,10.7877,0.00284371,-0.00337533,-0.00227235,0.00358551,-0.00411713,-0.31554,0.00445065,0.00989596,1063,1688,3.16966,-10.7878
-154,-664,3.17627,10.8889,0.00358162,-0.00407752,-0.00207115,0.00410582,-0.00460172,-0.247889,0.00503002,0.00921272,1070,1688,3.17625,-10.889
-147,-664,3.1781,10.9902,0.00426942,-0.0049618,-0.00178951,0.00460419,-0.00529656,-0.184933,0.00572086,0.00917259,1077,1688,3.17806,-10.9902
-140,-664,3.18665,11.0823,0.00525926,-0.00682414,-0.00167262,0.00548651,-0.0070514,-0.135041,0.00725754,0.00995187,1084,1688,3.1866,-11.0823
-133,-664,3.1908,11.1647,0.00635564,-0.00972013,-0.00143803,0.00648326,-0.00984776,-0.0885168,0.00949518,0.0112074,1091,1688,3.19074,-11.1647
-126,-664,3.2594,11.2434,0.00763546,-0.0120534,-0.00156428,0.00775896,-0.0121769,-0.0787911,0.0116038,0.0205005,1098,1688,3.25941,-11.2435
-119,-664,3.54382,11.1771,0.0093262,-0.0153493,-0.00184742,0.00946375,-0.0154868,-0.0743166,0.0145445,0.0357552,1105,1688,3.54376,-11.1771
-112,-664,3.80566,11.1559,0.0109406,-0.0197364,-0.00173627,0.0110385,-0.0198344,-0.0563586,0.018064,0.0434153,1112,1688,3.80564,-11.1558
-105,-664,3.89685,11.0953,0,0,0,0,0,0,0,-1,1119,1688,3.89689,-11.0953
-98,-664,3.33057,11.1465,0,0,0,0,0,0,0,-1,1126,1688,3.33059,-11.1465
-91,-664,3.12512,10.8794,0.0123807,-0.0325006,-0.00447306,0.0128221,-0.0329421,-0.0983749,0.0272599,0.0435529,1133,1688,3.12514,-10.8794
-84,-664,3.39148,10.6212,0.0139985,-0.0358281,-0.00551692,0.014602,-0.0364317,-0.108964,0.0303495,0.0484043,1140,1688,3.39149,-10.6212
-77,-664,3.81738,10.6259,0,0,0,0,0,0,0,-1,1147,1688,3.81735,-10.6259
-70,-664,4.20374,8.24524,0,0,0,0,0,0,0,-1,1154,1688,4.20379,-8.24519
-63,-664,-4.677,2.40503,0,0,0,0,0,0,0,-1,1161,1688,-4.67702,-2.40498
-56,-664,-4.66504,3.32727,0,0,0,0,0,0,0,-1,1168,1688,-4.6651,-3.32724
-49,-664,-2.54297,3.31848,0,0,0,0,0,0,0,-1,1175,1688,-2.54297,-3.31852
-42,-664,-0.359253,4.38684,0,0,0,0,0,0,0,-1,1182,1688,-0.359261,-4.38685
-35,-664,-0.705566,3.55017,0,0,0,0,0,0,0,-1,1189,1688,-0.705567,-3.55023
-28,-664,-1.54236,10.2538,0,0,0,0,0,0,0,-1,1196,1688,-1.54236,-10.2538
-21,-664,2.99756,10.8103,0,0,0,0,0,0,0,-1,1203,1688,2.99757,-10.8103
-14,-664,6.58826,10.1318,0,0,0,0,0,0,0,-1,1210,1688,6.58826,-10.1318
-7,-664,6.19299,10.4613,-0.0302449,-0.0274989,0.0461284,0.0172769,-0.0750207,0.800276,0.0566578,0.0497372,1217,1688,6.19304,-10.4612
0,-664,5.75549,10.8204,-0.02343,-0.0279985,0.0492044,0.0235431,-0.0749716,0.762203,0.0594048,0.0485058,1224,1688,5.75546,-10.8205
7,-664,5.17578,11.1123,0,0,0,0,0,0,0,-1,1231,1688,5.17579,-11.1123
14,-664,4.52222,11.8143,0,0,0,0,0,0,0,-1,1238,1688,4.52223,-11.8144
21,-664,4.31201,12.683,0.00306178,-0.0230335,0.0510829,0.0427371,-0.0627088,0.660361,0.0612421,0.0432636,1245,1688,4.312,-12.683
28,-664,4.42944,13.934,0.01124,-0.0206948,0.0489659,0.0467761,-0.056231,0.627788,0.0595546,0.0439699,1252,1688,4.42943,-13.934
35,-664,4.49951,15.1493,0,0,0,0,0,0,0,-1,1259,1688,4.49955,-15.1493
42,-664,4.55261,12.1505,0.0229411,-0.017642,0.0437406,0.0508677,-0.0455686,0.568219,0.0557055,0.0452115,1266,1688,4.55255,-12.1505
49,-664,4.9834,12.1177,0.0278168,-0.0179446,0.0414599,0.0522906,-0.0424184,0.533257,0.0547792,0.0431214,1273,1688,4.98334,-12.1177
56,-664,5.26099,11.916,0.0326107,-0.0181272,0.038884,0.0536697,-0.0391861,0.496359,0.0538273,0.044613,1280,1688,5.261,-11.9161
63,-664,5.49683,11.6459,0,0,0,0,0,0,0,-1,1287,1688,5.49683,-11.6459
70,-664,5.21558,11.442,0,0,0,0,0,0,0,-1,1294,1688,5.21556,-11.442
77,-664,4.57129,11.4796,0,0,0,0,0,0,0,-1,1301,1688,4.5713,-11.4796
84,-664,4.73425,11.4116,0.0298635,-0.0234476,0.0301389,0.0434431,-0.0370272,0.423327,0.0465088,0.0464027,1308,1688,4.73431,-11.4116
91,-664,5.06238,11.2408,0.0281874,-0.0260453,0.0307418,0.0420632,-0.0399211,0.423989,0.0473391,0.0438985,1315,1688,5.06234,-11.2408
98,-664,5.18604,11.36,0.026047,-0.0287918,0.030987,0.0400042,-0.0427489,0.423203,0.0477863,0.04743,1322,1688,5.18608,-11.36
105,-664,5.29456,11.3746,0.0236155,-0.0308596,0.030983,0.0376312,-0.0448753,0.424821,0.0476963,0.0488238,1329,1688,5.29454,-11.3746
112,-664,5.36707,11.3553,0.0209124,-0.0324159,0.0305415,0.0347916,-0.046295,0.426537,0.0469722,0.0464139,1336,1688,5.36705,-11.3554
119,-664,5.45874,11.3578,0,0,0,0,0,0,0,-1,1343,1688,5.45873,-11.3577
126,-664,3.69202,10.8627,0,0,0,0,0,0,0,-1,1350,1688,3.69205,-10.8627
133,-664,3.61536,11.5693,0.0128416,-0.035697,0.0275274,0.0252705,-0.0481258,0.424108,0.0430548,0.0481652,1357,1688,3.6154,-11.5693
140,-664,3.50354,12.3077,0,0,0,0,0,0,0,-1,1364,1688,3.50353,-12.3077
147,-664,3.42285,13.0946,0,0,0,0,0,0,0,-1,1371,1688,3.42288,-13.0946
154,-664,13.5482,5.89453,0,0,0,0,0,0,0,-1,1378,1688,13.5482,-5.8945
161,-664,4.60132,1.56238,0,0,0,0,0,0,0,-1,1385,1688,4.60134,-1.56233
168,-664,5.172,1.25488,0,0,0,0,0,0,0,-1,1392,1688,5.17203,-1.25484
175,-664,5.58313,1.16467,0,0,0,0,0,0,0,-1,1399,1688,5.58317,-1.16466
182,-664,5.74268,1.41113,0,0,0,0,0,0,0,-1,1406,1688,5.74263,-1.41115
189,-664,5.87744,1.87061,0,0,0,0,0,0,0,-1,1413,1688,5.87745,-1.87065
196,-664,6.7594,5.97473,0,0,0,0,0,0,0,-1,1420,1688,6.75943,-5.97478
203,-664,5.38452,5.22034,0,0,0,0,0,0,0,-1,1427,1688,5.38453,-5.2203
210,-664,5.25549,6.45715,0,0,0,0,0,0,0,-1,1434,1688,5.25549,-6.45721
217,-664,5.72009,6.73975,0,0,0,0,0,0,0,-1,1441,1688,5.72014,-6.73972
224,-664,5.05725,7.42908,0,0,0,0,0,0,0,-1,1448,1688,5.05723,-7.42912
231,-664,5.13318,7.60864,0,0,0,0,0,0,0,-1,1455,1688,5.13313,-7.60862
238,-664,4.23193,6.45471,0,0,0,0,0,0,0,-1,1462,1688,4.23197,-6.45476
245,-664,4.42004,6.80896,0,0,0,0,0,0,0,-1,1469,1688,4.4201,-6.80901
252,-664,3.67346,6.85461,0,0,0,0,0,0,0,-1,1476,1688,3.6734,-6.85462
259,-664,4.54858,11.387,0,0,0,0,0,0,0,-1,1483,1688,4.54855,-11.387
266,-664,4.60254,11.641,0,0,0,0,0,0,0,-1,1490,1688,4.60251,-11.641
273,-664,4.5968,11.5775,0.00252574,-0.00979401,0.00346657,0.00343419,-0.0107025,0.256296,0.00851379,0.0364834,1497,1688,4.59685,-11.5776
280,-664,4.47168,11.4834,0.00348919,-0.008203,0.00307063,0.00424655,-0.00896036,0.241819,0.00778522,0.0233008,1504,1688,4.47162,-11.4834
287,-664,4.45605,11.3932,0.00351921,-0.00667248,0.00259339,0.00414117,-0.00729444,0.23538,0.0066855,0.019891,1511,1688,4.45607,-11.3932
294,-664,4.51294,11.3441,0.00351643,-0.0055555,0.00212218,0.00398832,-0.0060274,0.218802,0.00582239,0.0137586,1518,1688,4.51294,-11.3441
301,-664,4.53625,11.2827,0.00318152,-0.00407463,0.001655,0.00354117,-0.00443428,0.213984,0.00461424,0.00974132,1525,1688,4.53619,-11.2827
308,-664,4.56702,11.1796,0.00277173,-0.00272087,0.00136736,0.0030933,-0.00304244,0.23098,0.00354251,0.0103372,1532,1688,4.56705,-11.1795
315,-664,4.59253,11.0907,0.00238945,-0.00157533,0.00114846,0.00269809,-0.00188397,0.262541,0.00265934,0.011629,1539,1688,4.59251,-11.0907
322,-664,4.61194,11.0188,0.00205821,-0.000821904,0.0010158,0.00238043,-0.00114412,0.307167,0.00207621,0.0145653,1546,1688,4.61192,-11.0188
329,-664,4.60083,10.9177,0.00186216,-0.000341717,0.000893804,0.00217907,-0.000658636,0.340743,0.00171495,0.0160994,1553,1688,4.60081,-10.9178
336,-664,4.57129,10.8019,0.00165735,6.64387e-05,0.000791724,0.00198421,-0.000260414,0.391523,0.0014176,0.0134966,1560,1688,4.57134,-10.8019
343,-664,4.58289,10.7162,0.00159774,0.000289745,0.000644508,0.00186195,2.55362e-05,0.389044,0.00123288,0.0107788,1567,1688,4.58289,-10.7162
350,-664,4.59717,10.6333,0.00162815,0.000786097,0.000336696,0.00174622,0.000668025,0.337279,0.00101741,0.0128246,1574,1688,4.59721,-10.6333
357,-664,4.57056,10.5352,0.00177079,0.00085671,-2.32538e-05,0.00177138,0.000856119,-0.0254177,0.00102289,0.0126532,1581,1688,4.5706,-10.5352
364,-664,4.57361,10.4487,0.00198219,0.00106411,-0.000423165,0.00214748,0.00089882,-0.372378,0.00124532,0.0108609,1588,1688,4.57356,-10.4488
371,-664,4.59888,10.3381,0.00225999,0.00141097,-0.000914973,0.00284414,0.000826825,-0.568197,0.00168933,0.0135763,1595,1688,4.59884,-10.3381
378,-664,4.59131,10.2195,0.00265242,0.0017211,-0.0015156,0.00377228,0.000601236,-0.636354,0.00234033,0.0128517,1602,1688,4.59133,-10.2195
385,-664,4.58997,10.1233,0.00300174,0.00213345,-0.0022257,0.00483524,0.000299953,-0.689078,0.00312831,0.0134357,1609,1688,4.58995,-10.1232
392,-664,4.55127,10.0314,0.00262253,0.00230236,-0.00246654,0.00493417,-9.2797e-06,-0.752992,0.00329254,0.0152903,1616,1688,4.55127,-10.0313
399,-664,4.55847,9.89771,0.0019131,0.00213714,-0.00266579,0.00469327,-0.000643027,-0.806396,0.00336374,0.0128108,1623,1688,4.55853,-9.89768
406,-664,4.57312,9.78809,0.000920671,0.0019596,-0.00275624,0.0042449,-0.00136462,-0.87854,0.00337797,0.0117926,1630,1688,4.57318,-9.78806
413,-664,4.59241,9.65027,-0.000404471,0.00144048,-0.00244536,0.00313157,-0.00209557,-0.965762,0.00303759,0.0116318,1637,1688,4.59242,-9.65024
420,-664,4.63525,9.50439,-0.00226114,0.000255606,-0.00168802,0.00110268,-0.00310822,-1.1057,0.0025214,0.0252046,1644,1688,4.63521,-9.50439
427,-664,4.66309,9.55127,-0.00487183,-0.00145467,-0.000288425,-0.0014305,-0.004896,-1.48718,0.00290696,0.0434077,1651,1688,4.66313,-9.55123
434,-664,4.75,9.39063,-0.00796884,-0.00365334,0.00147877,-0.00319525,-0.00842693,1.27039,0.00491242,0.0449606,1658,1688,4.75002,-9.39065
441,-664,4.32727,9.24792,-0.0113357,-0.00630385,0.00372512,-0.00432462,-0.0133149,1.08241,0.00784311,0.0458976,1665,1688,4.32725,-9.2479
448,-664,4.2478,9.4873,0,0,0,0,0,0,0,-1,1672,1688,4.24776,-9.48731
455,-664,4.48462,8.32068,0,0,0,0,0,0,0,-1,1679,1688,4.48466,-8.32074
462,-664,4.3147,4.25439,0,0,0,0,0,0,0,-1,1686,1688,4.31467,-4.25435
469,-664,6.05469,7.49341,0,0,0,0,0,0,0,-1,1693,1688,6.05474,-7.49339
476,-664,8.37146,3.42969,0,0,0,0,0,0,0,-1,1700,1688,8.37144,-3.42966
483,-664,7.21826,3.87097,0,0,0,0,0,0,0,-1,1707,1688,7.21825,-3.871
490,-664,6.00818,4.28125,0,0,0,0,0,0,0,-1,1714,1688,6.00821,-4.28124
497,-664,0,0,0,0,0,0,0,0,0,-1,1721,1688,0,0
504,-664,0,0,0,0,0,0,0,0,0,-1,1728,1688,0,0
511,-664,0,0,0,0,0,0,0,0,0,-1,1735,1688,0,0
518,-664,0,0,0,0,0,0,0,0,0,-1,1742,1688,0,0
525,-664,0,0,0,0,0,0,0,0,0,-1,1749,1688,0,0
532,-664,0,0,0,0,0,0,0,0,0,-1,1756,1688,0,0
539,-664,0,0,0,0,0,0,0,0,0,-1,1763,1688,0,0
546,-664,0,0,0,0,0,0,0,0,0,-1,1770,1688,0,0
553,-664,0,0,0,0,0,0,0,0,0,-1,1777,1688,0,0
560,-664,0,0,0,0,0,0,0,0,0,-1,1784,1688,0,0
567,-664,0,0,0,0,0,0,0,0,0,-1,1791,1688,0,0
574,-664,0,0,0,0,0,0,0,0,0,-1,1798,1688,0,0
581,-664,0,0,0,0,0,0,0,0,0,-1,1805,1688,0,0
588,-664,0,0,0,0,0,0,0,0,0,-1,1812,1688,0,0
595,-664,0,0,0,0,0,0,0,0,0,-1,1819,1688,0,0
602,-664,0,0,0,0,0,0,0,0,0,-1,1826,1688,0,0
609,-664,0,0,0,0,0,0,0,0,0,-1,1833,1688,0,0
616,-664,0,0,0,0,0,0,0,0,0,-1,1840,1688,0,0
623,-664,0,0,0,0,0,0,0,0,0,-1,1847,1688,0,0
630,-664,0,0,0,0,0,0,0,0,0,-1,1854,1688,0,0
637,-664,0,0,0,0,0,0,0,0,0,-1,1861,1688,0,0
644,-664,0,0,0,0,0,0,0,0,0,-1,1868,1688,0,0
651,-664,0,0,0,0,0,0,0,0,0,-1,1875,1688,0,0
658,-664,0,0,0,0,0,0,0,0,0,-1,1882,1688,0,0
665,-664,0,0,0,0,0,0,0,0,0,-1,1889,1688,0,0
672,-664,0,0,0,0,0,0,0,0,0,-1,1896,1688,0,0
679,-664,0,0,0,0,0,0,0,0,0,-1,1903,1688,0,0
686,-664,0,0,0,0,0,0,0,0,0,-1,1910,1688,0,0
693,-664,0,0,0,0,0,0,0,0,0,-1,1917,1688,0,0
700,-664,0,0,0,0,0,0,0,0,0,-1,1924,1688,0,0
707,-664,0,0,0,0,0,0,0,0,0,-1,1931,1688,0,0
714,-664,0,0,0,0,0,0,0,0,0,-1,1938,1688,0,0
721,-664,0,0,0,0,0,0,0,0,0,-1,1945,1688,0,0
728,-664,0,0,0,0,0,0,0,0,0,-1,1952,1688,0,0
735,-664,0,0,0,0,0,0,0,0,0,-1,1959,1688,0,0
742,-664,0,0,0,0,0,0,0,0,0,-1,1966,1688,0,0
749,-664,0,0,0,0,0,0,0,0,0,-1,1973,1688,0,0
756,-664,0,0,0,0,0,0,0,0,0,-1,1980,1688,0,0
763,-664,0,0,0,0,0,0,0,0,0,-1,1987,1688,0,0
770,-664,0,0,0,0,0,0,0,0,0,-1,1994,1688,0,0
777,-664,0,0,0,0,0,0,0,0,0,-1,2001,1688,0,0
784,-664,0,0,0,0,0,0,0,0,0,-1,2008,1688,0,0
791,-664,0,0,0,0,0,0,0,0,0,-1,2015,1688,0,0
798,-664,0,0,0,0,0,0,0,0,0,-1,2022,1688,0,0
805,-664,0,0,0,0,0,0,0,0,0,-1,2029,1688,0,0
812,-664,0,0,0,0,0,0,0,0,0,-1,2036,1688,0,0
-700,-671,0,0,0,0,0,0,0,0,0,-1,524,1695,0,0
-693,-671,0,0,0,0,0,0,0,0,0,-1,531,1695,0,0
-686,-671,0,0,0,0,0,0,0,0,0,-1,538,1695,0,0
-679,-671,0,0,0,0,0,0,0,0,0,-1,545,1695,0,0
-672,-671,0,0,0,0,0,0,0,0,0,-1,552,1695,0,0
-665,-671,0,0,0,0,0,0,0,0,0,-1,559,1695,0,0
-658,-671,0,0,0,0,0,0,0,0,0,-1,566,1695,0,0
-651,-671,0,0,0,0,0,0,0,0,0,-1,573,1695,0,0
-644,-671,0,0,0,0,0,0,0,0,0,-1,580,1695,0,0
-637,-671,0,0,0,0,0,0,0,0,0,-1,587,1695,0,0
-630,-671,0,0,0,0,0,0,0,0,0,-1,594,1695,0,0
-623,-671,0,0,0,0,0,0,0,0,0,-1,601,1695,0,0
-616,-671,0,0,0,0,0,0,0,0,0,-1,608,1695,0,0
-609,-671,0,0,0,0,0,0,0,0,0,-1,615,1695,0,0
-602,-671,0,0,0,0,0,0,0,0,0,-1,622,1695,0,0
-595,-671,0,0,0,0,0,0,0,0,0,-1,629,1695,0,0
-588,-671,0,0,0,0,0,0,0,0,0,-1,636,1695,0,0
-581,-671,0,0,0,0,0,0,0,0,0,-1,643,1695,0,0
-574,-671,0,0,0,0,0,0,0,0,0,-1,650,1695,0,0
-567,-671,0,0,0,0,0,0,0,0,0,-1,657,1695,0,0
-560,-671,0,0,0,0,0,0,0,0,0,-1,664,1695,0,0
-553,-671,0,0,0,0,0,0,0,0,0,-1,671,1695,0,0
-546,-671,0,0,0,0,0,0,0,0,0,-1,678,1695,0,0
-539,-671,0,0,0,0,0,0,0,0,0,-1,685,1695,0,0
-532,-671,0,0,0,0,0,0,0,0,0,-1,692,1695,0,0
-525,-671,0,0,0,0,0,0,0,0,0,-1,699,1695,0,0
-518,-671,0,0,0,0,0,0,0,0,0,-1,706,1695,0,0
-511,-671,0,0,0,0,0,0,0,0,0,-1,713,1695,0,0
-504,-671,0,0,0,0,0,0,0,0,0,-1,720,1695,0,0
-497,-671,0,0,0,0,0,0,0,0,0,-1,727,1695,0,0
-490,-671,0,0,0,0,0,0,0,0,0,-1,734,1695,0,0
-483,-671,0,0,0,0,0,0,0,0,0,-1,741,1695,0,0
-476,-671,0,0,0,0,0,0,0,0,0,-1,748,1695,0,0
-469,-671,0,0,0,0,0,0,0,0,0,-1,755,1695,0,0
-462,-671,0,0,0,0,0,0,0,0,0,-1,762,1695,0,0
-455,-671,0,0,0,0,0,0,0,0,0,-1,769,1695,0,0
-448,-671,0,0,0,0,0,0,0,0,0,-1,776,1695,0,0
-441,-671,0,0,0,0,0,0,0,0,0,-1,783,1695,0,0
-434,-671,0,0,0,0,0,0,0,0,0,-1,790,1695,0,0
-427,-671,0,0,0,0,0,0,0,0,0,-1,797,1695,0,0
-420,-671,0,0,0,0,0,0,0,0,0,-1,804,1695,0,0
-413,-671,0,0,0,0,0,0,0,0,0,-1,811,1695,0,0
-406,-671,0,0,0,0,0,0,0,0,0,-1,818,1695,0,0
-399,-671,0,0,0,0,0,0,0,0,0,-1,825,1695,0,0
-392,-671,0,0,0,0,0,0,0,0,0,-1,832,1695,0,0
-385,-671,0,0,0,0,0,0,0,0,0,-1,839,1695,0,0
-378,-671,0,0,0,0,0,0,0,0,0,-1,846,1695,0,0
-371,-671,0,0,0,0,0,0,0,0,0,-1,853,1695,0,0
-364,-671,-3.11877,5.00476,0,0,0,0,0,0,0,-1,860,1695,-3.11877,-5.00472
-357,-671,-4.34961,3.50598,0,0,0,0,0,0,0,-1,867,1695,-4.34958,-3.50602
-350,-671,-5.52405,2.1637,0,0,0,0,0,0,0,-1,874,1695,-5.52408,-2.16372
-343,-671,-7.383,2.349,0,0,0,0,0,0,0,-1,881,1695,-7.38297,-2.34903
-336,-671,-8.31433,1.04541,0,0,0,0,0,0,0,-1,888,1695,-8.31432,-1.04541
-329,-671,6.27661,6.18848,0,0,0,0,0,0,0,-1,895,1695,6.27659,-6.18842
-322,-671,5.73993,6.85815,0,0,0,0,0,0,0,-1,902,1695,5.73994,-6.8582
-315,-671,5.0213,7.41211,0,0,0,0,0,0,0,-1,909,1695,5.02131,-7.41213
-308,-671,4.34637,7.70105,-0.0288549,0.0521951,-0.0190204,0.0564367,-0.0330965,-1.35138,0.0522742,0.0499105,916,1695,4.34639,-7.70109
-301,-671,3.4978,8.54211,-0.024362,0.0459822,-0.0157719,0.0493566,-0.0277364,-1.36003,0.0450893,0.0480617,923,1695,3.4978,-8.54211
-294,-671,2.50507,9.70142,0,0,0,0,0,0,0,-1,930,1695,2.50508,-9.70145
-287,-671,3.50409,7.83118,0,0,0,0,0,0,0,-1,937,1695,3.50411,-7.83114
-280,-671,3.53113,8.151,0,0,0,0,0,0,0,-1,944,1695,3.5311,-8.15101
-273,-671,3.41785,8.82776,-0.00822171,0.0238014,-0.00747975,0.0254623,-0.00988263,-1.35229,0.0210569,0.0328108,951,1695,3.41783,-8.8277
-266,-671,3.29596,9.07605,-0.00567426,0.0192474,-0.0061944,0.0207021,-0.00712899,-1.34013,0.0166931,0.0247551,958,1695,3.29595,-9.07604
-259,-671,3.21442,9.20129,-0.00334941,0.0152207,-0.00513891,0.0165479,-0.00467665,-1.31805,0.0128771,0.0217348,965,1695,3.21441,-9.20124
-252,-671,3.24139,9.30713,-0.00136094,0.0115161,-0.00431168,0.0128264,-0.00267131,-1.27576,0.00956652,0.0169436,972,1695,3.24139,-9.30709
-245,-671,3.23425,9.45386,-8.36393e-05,0.00791384,-0.00345621,0.00920049,-0.00137029,-1.21442,0.00663774,0.0201601,979,1695,3.23428,-9.45384
-238,-671,3.27649,9.58154,-8.22976e-05,0.00524928,-0.00255387,0.0062752,-0.00110822,-1.18882,0.00459761,0.0196612,986,1695,3.27646,-9.58156
-231,-671,3.28406,9.72034,3.82739e-05,0.00295259,-0.0017009,0.00373516,-0.000744291,-1.13958,0.00277172,0.0143793,993,1695,3.28406,-9.7203
-224,-671,3.26367,9.83069,4.9957e-05,0.000939236,-0.000950631,0.00154407,-0.000554881,-1.00415,0.00125589,0.0115594,1000,1695,3.26366,-9.83074
-217,-671,3.26483,9.94006,2.25321e-05,-0.000542484,-0.000423998,0.000249519,-0.000769471,-0.491525,0.000613313,0.0106475,1007,1695,3.26486,-9.94001
-210,-671,3.27759,10.0731,0.000353148,-0.00143783,-0.000190577,0.000373203,-0.00145789,-0.104845,0.0011173,0.0106579,1014,1695,3.27757,-10.0731
-203,-671,3.24927,10.1825,0.000840584,-0.00192382,6.40727e-05,0.000842068,-0.0019253,0.0231612,0.00163803,0.018959,1021,1695,3.24926,-10.1824
-196,-671,3.2583,10.3018,0.00106348,-0.00217751,8.69964e-05,0.00106581,-0.00217984,0.0268168,0.00191032,0.0165263,1028,1695,3.25827,-10.3018
-189,-671,3.28516,10.4329,0.00112653,-0.00214529,-0.000170184,0.00113536,-0.00215411,-0.0518287,0.0019293,0.0121966,1035,1695,3.28521,-10.4329
-182,-671,3.26184,10.5073,0.00127973,-0.00206166,-0.000458763,0.00134157,-0.0021235,-0.133994,0.00201747,0.00916546,1042,1695,3.26186,-10.5074
-175,-671,3.25769,10.589,0.00151312,-0.00198319,-0.000753862,0.00166874,-0.00213881,-0.203569,0.00220387,0.0115578,1049,1695,3.25772,-10.589
-168,-671,3.26025,10.688,0.00196067,-0.00216041,-0.000961479,0.00217396,-0.00237369,-0.218292,0.00262643,0.0131306,1056,1695,3.26021,-10.688
-161,-671,3.26807,10.7898,0.00253291,-0.00261429,-0.00104477,0.00273689,-0.00281828,-0.192816,0.00320739,0.00933204,1063,1695,3.26801,-10.7898
-154,-671,3.27161,10.8907,0.00298118,-0.00317504,-0.00100208,0.00314018,-0.00333404,-0.157365,0.00373845,0.00856983,1070,1695,3.27163,-10.8907
-147,-671,3.28198,11.0028,0.00337585,-0.00388104,-0.00087938,0.00348089,-0.00398608,-0.118886,0.00431435,0.00966153,1077,1695,3.28197,-11.0029
-140,-671,3.30334,11.089,0.00401344,-0.0053474,-0.000914782,0.004102,-0.00543596,-0.0965077,0.00552467,0.010286,1084,1695,3.30334,-11.089
-133,-671,3.31091,11.1791,0.00480906,-0.0074735,-0.000864183,0.00486956,-0.007534,-0.0698996,0.00721607,0.0114441,1091,1695,3.31091,-11.1791
-126,-671,3.31946,11.2725,0.00575241,-0.00927401,-0.000893159,0.00580531,-0.00932691,-0.0591616,0.0088151,0.0138836,1098,1695,3.3195,-11.2724
-119,-671,3.44226,11.3092,0.00690703,-0.0116515,-0.00103678,0.00696477,-0.0117092,-0.0556347,0.0108968,0.0256924,1105,1695,3.44221,-11.3092
-112,-671,3.58704,11.356,0.00791621,-0.0147242,-0.000980579,0.0079586,-0.0147666,-0.0432031,0.0133152,0.032349,1112,1695,3.58698,-11.356
-105,-671,3.66736,11.3914,0.00831755,-0.0173953,-0.00083716,0.00834478,-0.0174225,-0.0325122,0.0151814,0.0363322,1119,1695,3.66733,-11.3913
-98,-671,3.43176,11.4464,0.00803254,-0.0206434,-0.00198194,0.00816888,-0.0207797,-0.0686798,0.017234,0.0366752,1126,1695,3.4318,-11.4465
-91,-671,3.32263,11.3328,0.00887459,-0.0232047,-0.00269004,0.0090986,-0.0234287,-0.0830827,0.0193776,0.0388609,1133,1695,3.32265,-11.3327
-84,-671,3.35193,11.1189,0.00980951,-0.0252199,-0.00331201,0.0101199,-0.0255303,-0.093446,0.021214,0.0465061,1140,1695,3.35191,-11.1188
-77,-671,3.52319,11.3391,0,0,0,0,0,0,0,-1,1147,1695,3.52316,-11.3391
-70,-671,3.06067,10.7737,0,0,0,0,0,0,0,-1,1154,1695,3.0607,-10.7737
-63,-671,2.94592,6.90198,0,0,0,0,0,0,0,-1,1161,1695,2.94594,-6.90198
-56,-671,-3.07678,2.87976,0,0,0,0,0,0,0,-1,1168,1695,-3.07675,-2.87979
-49,-671,-1.05957,4.76917,0,0,0,0,0,0,0,-1,1175,1695,-1.05958,-4.76921
-42,-671,0.539307,3.7865,0,0,0,0,0,0,0,-1,1182,1695,0.539266,-3.78648
-35,-671,-0.272461,0.347534,0,0,0,0,0,0,0,-1,1189,1695,-0.272434,-0.347569
-28,-671,-0.662964,5.40405,0,0,0,0,0,0,0,-1,1196,1695,-0.662966,-5.40405
-21,-671,3.34485,11.142,0,0,0,0,0,0,0,-1,1203,1695,3.3449,-11.142
-14,-671,3.47314,12.0991,0,0,0,0,0,0,0,-1,1210,1695,3.47309,-12.0991
-7,-671,5.8291,10.7994,0,0,0,0,0,0,0,-1,1217,1695,5.82909,-10.7995
0,-671,5.33142,11.1169,-0.0163122,-0.024556,0.0417749,0.0215436,-0.0624119,0.736223,0.0503496,0.0480257,1224,1695,5.33145,-11.1169
7,-671,4.77881,11.4325,-0.0102751,-0.0233431,0.0429207,0.0266061,-0.0602243,0.709861,0.0513688,0.0464003,1231,1695,4.77885,-11.4325
14,-671,4.23376,12.0493,-0.00387273,-0.0216781,0.043217,0.031349,-0.0568998,0.683819,0.0516574,0.0454165,1238,1695,4.23373,-12.0493
21,-671,4.17322,12.9579,0.00282809,-0.020231,0.0422108,0.0350556,-0.0524585,0.652079,0.0508582,0.0445047,1245,1695,4.1732,-12.9579
28,-671,3.96301,11.9709,0,0,0,0,0,0,0,-1,1252,1695,3.96302,-11.9709
35,-671,3.81079,12.0118,0,0,0,0,0,0,0,-1,1259,1695,3.81076,-12.0119
42,-671,4.43506,11.8702,0.0178553,-0.0150312,0.0357188,0.040734,-0.0379099,0.569684,0.0454148,0.0468358,1266,1695,4.43502,-11.8702
49,-671,4.61963,12.0824,0.0217335,-0.0150479,0.0335899,0.0416377,-0.0349521,0.534935,0.0442753,0.0435138,1273,1695,4.61958,-12.0823
56,-671,4.79358,11.8964,0.0254652,-0.0150925,0.0312957,0.0424778,-0.0321052,0.497923,0.0431991,0.0463588,1280,1695,4.79354,-11.8963
63,-671,4.96863,10.6486,0,0,0,0,0,0,0,-1,1287,1695,4.96864,-10.6486
70,-671,4.85925,11.3358,0,0,0,0,0,0,0,-1,1294,1695,4.85922,-11.3358
77,-671,4.91833,12.0437,0,0,0,0,0,0,0,-1,1301,1695,4.91833,-12.0437
84,-671,4.98389,12.8688,0,0,0,0,0,0,0,-1,1308,1695,4.98393,-12.8688
91,-671,4.62012,11.7112,0.0218961,-0.02146,0.0250172,0.0333209,-0.0328848,0.428393,0.0382242,0.0466419,1315,1695,4.6201,-11.7112
98,-671,4.84167,11.6873,0.020099,-0.0236784,0.02512,0.0315288,-0.0351083,0.427014,0.0384915,0.0418586,1322,1695,4.84163,-11.6873
105,-671,5.03943,11.6636,0.0180721,-0.0252326,0.0250402,0.0295232,-0.0366836,0.428913,0.038299,0.0435299,1329,1695,5.0394,-11.6636
112,-671,5.23804,11.6332,0.0158864,-0.0262768,0.0244768,0.0271088,-0.0374992,0.429893,0.0374618,0.0432974,1336,1695,5.23805,-11.6332
119,-671,5.45325,11.9408,0.0134542,-0.0266141,0.0236441,0.0244105,-0.0375704,0.433929,0.0360526,0.0467771,1343,1695,5.45329,-11.9408
126,-671,3.77588,12.223,0,0,0,0,0,0,0,-1,1350,1695,3.77592,-12.223
133,-671,3.73669,12.2897,0,0,0,0,0,0,0,-1,1357,1695,3.73665,-12.2897
140,-671,3.69739,12.3564,0,0,0,0,0,0,0,-1,1364,1695,3.69738,-12.3564
147,-671,3.11963,12.8895,0,0,0,0,0,0,0,-1,1371,1695,3.11957,-12.8895
154,-671,8.6864,13.1217,0,0,0,0,0,0,0,-1,1378,1695,8.68635,-13.1218
161,-671,4.49292,4.91272,0,0,0,0,0,0,0,-1,1385,1695,4.49297,-4.91273
168,-671,5.17639,6.1416,0,0,0,0,0,0,0,-1,1392,1695,5.1764,-6.14164
175,-671,5.6731,1.64685,0,0,0,0,0,0,0,-1,1399,1695,5.67313,-1.64691
182,-671,5.56812,1.71692,0,0,0,0,0,0,0,-1,1406,1695,5.56809,-1.71686
189,-671,6.98315,6.36169,0,0,0,0,0,0,0,-1,1413,1695,6.98312,-6.36175
196,-671,5.38123,5.69775,0,0,0,0,0,0,0,-1,1420,1695,5.38125,-5.69769
203,-671,5.95117,8.11658,0,0,0,0,0,0,0,-1,1427,1695,5.9512,-8.11662
210,-671,4.73596,8.39624,0,0,0,0,0,0,0,-1,1434,1695,4.736,-8.39618
217,-671,5.37097,11.863,0,0,0,0,0,0,0,-1,1441,1695,5.37094,-11.863
224,-671,4.82495,11.5311,0,0,0,0,0,0,0,-1,1448,1695,4.82494,-11.5311
231,-671,4.50818,10.8849,0,0,0,0,0,0,0,-1,1455,1695,4.50819,-10.8849
238,-671,5.11633,11.4192,0,0,0,0,0,0,0,-1,1462,1695,5.11633,-11.4192
245,-671,4.66858,11.2205,0,0,0,0,0,0,0,-1,1469,1695,4.66855,-11.2205
252,-671,4.42493,11.5057,0,0,0,0,0,0,0,-1,1476,1695,4.42488,-11.5057
259,-671,4.42896,11.5459,-0.00134791,-0.00830356,0.00343052,5.93201e-05,-0.00971079,0.389275,0.00649372,0.0479291,1483,1695,4.42895,-11.5458
266,-671,4.45227,11.6034,-8.84851e-05,-0.00802896,0.00306547,0.00095724,-0.00907468,0.328752,0.0063928,0.0161425,1490,1695,4.45229,-11.6034
273,-671,4.43665,11.574,0.00123797,-0.00692428,0.00246616,0.00192524,-0.00761154,0.271782,0.00582318,0.00926517,1497,1695,4.43659,-11.574
280,-671,4.43848,11.5226,0.00198359,-0.00561468,0.0021806,0.00256492,-0.00619601,0.260531,0.00520092,0.00955819,1504,1695,4.4385,-11.5226
287,-671,4.43555,11.4198,0.00207969,-0.00443591,0.00182326,0.00255519,-0.00491141,0.255114,0.00438181,0.0115447,1511,1695,4.43557,-11.4198
294,-671,4.43494,11.3199,0.00216584,-0.00350627,0.00146621,0.00252243,-0.00386286,0.238574,0.00371353,0.0108385,1518,1695,4.43498,-11.32
301,-671,4.44702,11.2648,0.00203115,-0.00237501,0.00119088,0.00233241,-0.00267628,0.24778,0.00289404,0.00965359,1525,1695,4.447,-11.2648
308,-671,4.47278,11.1953,0.0018381,-0.00140574,0.00105743,0.00215235,-0.00172,0.288877,0.00224034,0.010827,1532,1695,4.47273,-11.1953
315,-671,4.50317,11.1088,0.00167466,-0.000597075,0.000989916,0.00204548,-0.000967903,0.358425,0.00177647,0.0128613,1539,1695,4.50323,-11.1088
322,-671,4.5033,11.035,0.00161219,-0.000171565,0.000974128,0.00204106,-0.000600433,0.414724,0.00159888,0.0148509,1546,1695,4.50327,-11.035
329,-671,4.47083,10.9667,0.00168025,5.38507e-05,0.00102153,0.00217273,-0.000438633,0.449231,0.00161468,0.0134647,1553,1695,4.47079,-10.9667
336,-671,4.46375,10.8444,0.00175089,0.000273671,0.00112774,0.00236037,-0.000335807,0.495475,0.00169663,0.0102371,1560,1695,4.46375,-10.8444
343,-671,4.46716,10.74,0.00198961,0.000369574,0.00116439,0.00259801,-0.000238834,0.481495,0.00181686,0.00988647,1567,1695,4.46719,-10.74
350,-671,4.48816,10.641,0.00236018,0.000766419,0.00101223,0.00285157,0.000275031,0.451939,0.00181632,0.0105868,1574,1695,4.4882,-10.641
357,-671,4.47314,10.5352,0.00279033,0.000884521,0.000830571,0.0031015,0.000573356,0.358456,0.00190552,0.0105741,1581,1695,4.47309,-10.5352
364,-671,4.46436,10.438,0.00324047,0.00123734,0.000579787,0.00339618,0.00108163,0.262373,0.00200339,0.0119618,1588,1695,4.46438,-10.438
371,-671,4.48035,10.3375,0.00375564,0.00182042,0.000231295,0.0037829,0.00179316,0.117317,0.00218504,0.0134916,1595,1695,4.48038,-10.3375
378,-671,4.49561,10.215,0.0043897,0.00245944,-0.000258225,0.00442365,0.00242549,-0.130715,0.00255796,0.0114124,1602,1695,4.49559,-10.215
385,-671,4.47668,10.118,0.00491022,0.00321375,-0.000905368,0.00530262,0.00282134,-0.408983,0.00306357,0.0128059,1609,1695,4.47669,-10.118
392,-671,4.42236,10.045,0.0045462,0.0036362,-0.00104814,0.00523383,0.00294857,-0.580621,0.00302983,0.0169727,1616,1695,4.42239,-10.0451
399,-671,4.44617,9.89355,0.0037986,0.003572,-0.00120187,0.0048925,0.0024781,-0.738403,0.00282477,0.0133609,1623,1695,4.44621,-9.89357
406,-671,4.49976,9.76794,0.00257183,0.00353478,-0.00136776,0.00450334,0.00160327,-0.954633,0.00263569,0.0175639,1630,1695,4.49981,-9.76789
413,-671,4.51587,9.64954,0.000860222,0.00304434,-0.00101011,0.00343987,0.000464694,-1.19758,0.00215511,0.0273101,1637,1695,4.51586,-9.64951
420,-671,4.57971,9.45654,-0.00156485,0.00146469,-0.000135075,0.0014707,-0.00157086,-1.52633,0.00175636,0.0441207,1644,1695,4.57967,-9.45653
427,-671,4.66174,9.81006,0,0,0,0,0,0,0,-1,1651,1695,4.66178,-9.81004
434,-671,4.69031,9.64148,0,0,0,0,0,0,0,-1,1658,1695,4.69031,-9.64148
441,-671,3.73767,9.55835,-0.0146429,-0.00832594,0.00509567,-0.00548927,-0.0174796,1.06284,0.0103219,0.0474092,1665,1695,3.73764,-9.55838
448,-671,3.50244,9.44788,0,0,0,0,0,0,0,-1,1672,1695,3.50238,-9.4479
455,-671,3.40137,9.28076,0,0,0,0,0,0,0,-1,1679,1695,3.40135,-9.28082
462,-671,5.86255,4.47961,0,0,0,0,0,0,0,-1,1686,1695,5.8625,-4.4796
469,-671,3.71301,3.76978,0,0,0,0,0,0,0,-1,1693,1695,3.71297,-3.76974
476,-671,3.75574,3.18848,0,0,0,0,0,0,0,-1,1700,1695,3.7558,-3.18847
483,-671,3.56714,2.76868,0,0,0,0,0,0,0,-1,1707,1695,3.56713,-2.7687
490,-671,0,0,0,0,0,0,0,0,0,-1,1714,1695,0,0
497,-671,0,0,0,0,0,0,0,0,0,-1,1721,1695,0,0
504,-671,0,0,0,0,0,0,0,0,0,-1,1728,1695,0,0
511,-671,0,0,0,0,0,0,0,0,0,-1,1735,1695,0,0
518,-671,0,0,0,0,0,0,0,0,0,-1,1742,1695,0,0
525,-671,0,0,0,0,0,0,0,0,0,-1,1749,1695,0,0
532,-671,0,0,0,0,0,0,0,0,0,-1,1756,1695,0,0
539,-671,0,0,0,0,0,0,0,0,0,-1,1763,1695,0,0
546,-671,0,0,0,0,0,0,0,0,0,-1,1770,1695,0,0
553,-671,0,0,0,0,0,0,0,0,0,-1,1777,1695,0,0
560,-671,0,0,0,0,0,0,0,0,0,-1,1784,1695,0,0
567,-671,0,0,0,0,0,0,0,0,0,-1,1791,1695,0,0
574,-671,0,0,0,0,0,0,0,0,0,-1,1798,1695,0,0
581,-671,0,0,0,0,0,0,0,0,0,-1,1805,1695,0,0
588,-671,0,0,0,0,0,0,0,0,0,-1,1812,1695,0,0
595,-671,0,0,0,0,0,0,0,0,0,-1,1819,1695,0,0
602,-671,0,0,0,0,0,0,0,0,0,-1,1826,1695,0,0
609,-671,0,0,0,0,0,0,0,0,0,-1,1833,1695,0,0
616,-671,0,0,0,0,0,0,0,0,0,-1,1840,1695,0,0
623,-671,0,0,0,0,0,0,0,0,0,-1,1847,1695,0,0
630,-671,0,0,0,0,0,0,0,0,0,-1,1854,1695,0,0
637,-671,0,0,0,0,0,0,0,0,0,-1,1861,1695,0,0
644,-671,0,0,0,0,0,0,0,0,0,-1,1868,1695,0,0
651,-671,0,0,0,0,0,0,0,0,0,-1,1875,1695,0,0
658,-671,0,0,0,0,0,0,0,0,0,-1,1882,1695,0,0
665,-671,0,0,0,0,0,0,0,0,0,-1,1889,1695,0,0
672,-671,0,0,0,0,0,0,0,0,0,-1,1896,1695,0,0
679,-671,0,0,0,0,0,0,0,0,0,-1,1903,1695,0,0
686,-671,0,0,0,0,0,0,0,0,0,-1,1910,1695,0,0
693,-671,0,0,0,0,0,0,0,0,0,-1,1917,1695,0,0
700,-671,0,0,0,0,0,0,0,0,0,-1,1924,1695,0,0
707,-671,0,0,0,0,0,0,0,0,0,-1,1931,1695,0,0
714,-671,0,0,0,0,0,0,0,0,0,-1,1938,1695,0,0
721,-671,0,0,0,0,0,0,0,0,0,-1,1945,1695,0,0
728,-671,0,0,0,0,0,0,0,0,0,-1,1952,1695,0,0
735,-671,0,0,0,0,0,0,0,0,0,-1,1959,1695,0,0
742,-671,0,0,0,0,0,0,0,0,0,-1,1966,1695,0,0
749,-671,0,0,0,0,0,0,0,0,0,-1,1973,1695,0,0
756,-671,0,0,0,0,0,0,0,0,0,-1,1980,1695,0,0
763,-671,0,0,0,0,0,0,0,0,0,-1,1987,1695,0,0
770,-671,0,0,0,0,0,0,0,0,0,-1,1994,1695,0,0
777,-671,0,0,0,0,0,0,0,0,0,-1,2001,1695,0,0
784,-671,0,0,0,0,0,0,0,0,0,-1,2008,1695,0,0
791,-671,0,0,0,0,0,0,0,0,0,-1,2015,1695,0,0
798,-671,0,0,0,0,0,0,0,0,0,-1,2022,1695,0,0
805,-671,0,0,0,0,0,0,0,0,0,-1,2029,1695,0,0
812,-671,0,0,0,0,0,0,0,0,0,-1,2036,1695,0,0
-700,-678,0,0,0,0,0,0,0,0,0,-1,524,1702,0,0
-693,-678,0,0,0,0,0,0,0,0,0,-1,531,1702,0,0
-686,-678,0,0,0,0,0,0,0,0,0,-1,538,1702,0,0
-679,-678,0,0,0,0,0,0,0,0,0,-1,545,1702,0,0
-672,-678,0,0,0,0,0,0,0,0,0,-1,552,1702,0,0
-665,-678,0,0,0,0,0,0,0,0,0,-1,559,1702,0,0
-658,-678,0,0,0,0,0,0,0,0,0,-1,566,1702,0,0
-651,-678,0,0,0,0,0,0,0,0,0,-1,573,1702,0,0
-644,-678,0,0,0,0,0,0,0,0,0,-1,580,1702,0,0
-637,-678,0,0,0,0,0,0,0,0,0,-1,587,1702,0,0
-630,-678,0,0,0,0,0,0,0,0,0,-1,594,1702,0,0
-623,-678,0,0,0,0,0,0,0,0,0,-1,601,1702,0,0
-616,-678,0,0,0,0,0,0,0,0,0,-1,608,1702,0,0
-609,-678,0,0,0,0,0,0,0,0,0,-1,615,1702,0,0
-602,-678,0,0,0,0,0,0,0,0,0,-1,622,1702,0,0
-595,-678,0,0,0,0,0,0,0,0,0,-1,629,1702,0,0
-588,-678,0,0,0,0,0,0,0,0,0,-1,636,1702,0,0
-581,-678,0,0,0,0,0,0,0,0,0,-1,643,1702,0,0
-574,-678,0,0,0,0,0,0,0,0,0,-1,650,1702,0,0
-567,-678,0,0,0,0,0,0,0,0,0,-1,657,1702,0,0
-560,-678,0,0,0,0,0,0,0,0,0,-1,664,1702,0,0
-553,-678,0,0,0,0,0,0,0,0,0,-1,671,1702,0,0
-546,-678,0,0,0,0,0,0,0,0,0,-1,678,1702,0,0
-539,-678,0,0,0,0,0,0,0,0,0,-1,685,1702,0,0
-532,-678,0,0,0,0,0,0,0,0,0,-1,692,1702,0,0
-525,-678,0,0,0,0,0,0,0,0,0,-1,699,1702,0,0
-518,-678,0,0,0,0,0,0,0,0,0,-1,706,1702,0,0
-511,-678,0,0,0,0,0,0,0,0,0,-1,713,1702,0,0
-504,-678,0,0,0,0,0,0,0,0,0,-1,720,1702,0,0
-497,-678,0,0,0,0,0,0,0,0,0,-1,727,1702,0,0
-490,-678,0,0,0,0,0,0,0,0,0,-1,734,1702,0,0
-483,-678,0,0,0,0,0,0,0,0,0,-1,741,1702,0,0
-476,-678,0,0,0,0,0,0,0,0,0,-1,748,1702,0,0
-469,-678,0,0,0,0,0,0,0,0,0,-1,755,1702,0,0
-462,-678,0,0,0,0,0,0,0,0,0,-1,762,1702,0,0
-455,-678,0,0,0,0,0,0,0,0,0,-1,769,1702,0,0
-448,-678,0,0,0,0,0,0,0,0,0,-1,776,1702,0,0
-441,-678,0,0,0,0,0,0,0,0,0,-1,783,1702,0,0
-434,-678,0,0,0,0,0,0,0,0,0,-1,790,1702,0,0
-427,-678,0,0,0,0,0,0,0,0,0,-1,797,1702,0,0
-420,-678,0,0,0,0,0,0,0,0,0,-1,804,1702,0,0
-413,-678,0,0,0,0,0,0,0,0,0,-1,811,1702,0,0
-406,-678,0,0,0,0,0,0,0,0,0,-1,818,1702,0,0
-399,-678,0,0,0,0,0,0,0,0,0,-1,825,1702,0,0
-392,-678,0,0,0,0,0,0,0,0,0,-1,832,1702,0,0
-385,-678,0,0,0,0,0,0,0,0,0,-1,839,1702,0,0
-378,-678,0,0,0,0,0,0,0,0,0,-1,846,1702,0,0
-371,-678,0,0,0,0,0,0,0,0,0,-1,853,1702,0,0
-364,-678,0,0,0,0,0,0,0,0,0,-1,860,1702,0,0
-357,-678,0,0,0,0,0,0,0,0,0,-1,867,1702,0,0
-350,-678,-6.99811,5.05383,0,0,0,0,0,0,0,-1,874,1702,-6.99808,-5.05378
-343,-678,-7.84955,3.83276,0,0,0,0,0,0,0,-1,881,1702,-7.84957,-3.83272
-336,-678,-8.64886,2.68469,0,0,0,0,0,0,0,-1,888,1702,-8.64884,-2.68464
-329,-678,-9.40521,1.52869,0,0,0,0,0,0,0,-1,895,1702,-9.40522,-1.52871
-322,-678,-10.1475,0.373291,0,0,0,0,0,0,0,-1,902,1702,-10.1475,-0.373341
-315,-678,4.96423,7.33752,0,0,0,0,0,0,0,-1,909,1702,4.96423,-7.33748
-308,-678,4.92163,7.40332,-0.0324638,0.0656909,-0.0237307,0.0711271,-0.0379,-1.3456,0.0639139,0.0491441,916,1702,4.92166,-7.40336
-301,-678,4.6972,7.39417,-0.0267209,0.0580924,-0.0199227,0.0625391,-0.0311676,-1.3512,0.055103,0.044815,923,1702,4.69719,-7.39419
-294,-678,4.1275,7.40759,0,0,0,0,0,0,0,-1,930,1702,4.12752,-7.40762
-287,-678,3.84546,7.35168,0,0,0,0,0,0,0,-1,937,1702,3.84543,-7.35171
-280,-678,3.63318,7.33252,0,0,0,0,0,0,0,-1,944,1702,3.63316,-7.33255
-273,-678,3.62634,8.6416,-0.00778997,0.0313172,-0.0103437,0.0338845,-0.0103573,-1.32751,0.0267198,0.0417391,951,1702,3.62632,-8.64157
-266,-678,3.64014,8.88489,-0.00534679,0.0252652,-0.00869801,0.027564,-0.00764559,-1.31241,0.021385,0.0338968,958,1702,3.64016,-8.88491
-259,-678,3.37836,9.18164,-0.00321952,0.0198013,-0.00724782,0.0218932,-0.00531133,-1.28982,0.0166507,0.0226615,965,1702,3.37837,-9.18165
-252,-678,3.33795,9.2843,-0.00143384,0.0148241,-0.00595911,0.0167744,-0.00338412,-1.25451,0.012465,0.0185221,972,1702,3.33797,-9.28431
-245,-678,3.38202,9.44116,-0.000280528,0.0100239,-0.00465031,0.0118122,-0.00206882,-1.20368,0.00864732,0.0188322,979,1702,3.38201,-9.44117
-238,-678,3.40399,9.57898,-0.000530853,0.00649668,-0.00329419,0.00779937,-0.00183354,-1.19422,0.0059064,0.0150902,986,1702,3.40401,-9.57894
-231,-678,3.37592,9.71204,-0.000535237,0.00360975,-0.00203742,0.00444351,-0.001369,-1.18236,0.00350885,0.012474,993,1702,3.3759,-9.71199
-224,-678,3.35114,9.80823,-0.000603116,0.0010523,-0.000941202,0.00147797,-0.00102879,-1.14606,0.001455,0.0124598,1000,1702,3.35112,-9.80821
-217,-678,3.36658,9.92627,-0.000657336,-0.000755172,-7.55354e-05,-0.000616262,-0.000796246,-0.498047,0.000482167,0.0126317,1007,1702,3.36659,-9.9263
-210,-678,3.37732,10.0924,-0.000239682,-0.00168237,0.000477818,-9.57816e-05,-0.00182627,0.292521,0.00118688,0.013231,1014,1702,3.37734,-10.0925
-203,-678,3.35962,10.1938,0.000303148,-0.00212874,0.000939588,0.00062387,-0.00244947,0.328942,0.00187584,0.0179838,1021,1702,3.35967,-10.1938
-196,-678,3.35266,10.3032,0.000640407,-0.00225075,0.00114255,0.00103741,-0.00264775,0.334423,0.0021943,0.0178246,1028,1702,3.35272,-10.3032
-189,-678,3.3728,10.4287,0.000808287,-0.00195261,0.000981057,0.00112139,-0.00226571,0.308929,0.00199239,0.0103839,1035,1702,3.37283,-10.4287
-182,-678,3.37659,10.5114,0.0010315,-0.00166342,0.000745805,0.00122413,-0.00185605,0.252759,0.00179077,0.00933533,1042,1702,3.37664,-10.5113
-175,-678,3.36316,10.6143,0.00125,-0.00137248,0.000486612,0.00133738,-0.00145986,0.177677,0.0016155,0.00989837,1049,1702,3.36319,-10.6143
-168,-678,3.36157,10.714,0.00165521,-0.00135839,0.000278,0.00168064,-0.00138382,0.0912225,0.00177204,0.0104888,1056,1702,3.36161,-10.714
-161,-678,3.36304,10.7968,0.002131,-0.00163284,9.98117e-05,0.00213364,-0.00163549,0.0264937,0.00218244,0.00922402,1063,1702,3.363,-10.7967
-154,-678,3.35901,10.8964,0.00244004,-0.00203862,-4.21613e-06,0.00244004,-0.00203863,-0.00094138,0.00258922,0.0082644,1070,1702,3.35905,-10.8963
-147,-678,3.37268,10.9915,0.00268405,-0.00260522,-4.55335e-05,0.00268444,-0.00260561,-0.00860781,0.00305432,0.0100901,1077,1702,3.37273,-10.9914
-140,-678,3.39087,11.0796,0.00309596,-0.00377144,-0.000246555,0.0031048,-0.00378028,-0.0358407,0.00398147,0.011182,1084,1702,3.39087,-11.0796
-133,-678,3.40869,11.1639,0.00364905,-0.00546461,-0.000377363,0.00366465,-0.0054802,-0.041312,0.00531435,0.0110216,1091,1702,3.40867,-11.164
-126,-678,3.4104,11.2542,0.00426452,-0.00692209,-0.000427379,0.00428082,-0.00693839,-0.0381305,0.00653771,0.00830133,1098,1702,3.41044,-11.2541
-119,-678,3.46228,11.3718,0.00500549,-0.00866389,-0.000524754,0.00502561,-0.008684,-0.0383139,0.00800863,0.0161291,1105,1702,3.4623,-11.3718
-112,-678,3.51953,11.4506,0.00563411,-0.0108343,-0.000519768,0.0056505,-0.0108507,-0.0315198,0.00968335,0.023682,1112,1702,3.51954,-11.4506
-105,-678,3.4917,11.511,0.00587544,-0.0126423,-0.000478811,0.00588781,-0.0126547,-0.0258339,0.0109406,0.0236695,1119,1702,3.49165,-11.511
-98,-678,3.44666,11.4999,0.00576339,-0.0147662,-0.00114147,0.00582666,-0.0148294,-0.0553736,0.0122976,0.0174825,1126,1702,3.44668,-11.4999
-91,-678,3.45105,11.5693,0.00626658,-0.0164008,-0.00155554,0.00637283,-0.016507,-0.0681989,0.0136348,0.018219,1133,1702,3.4511,-11.5694
-84,-678,3.5072,11.5361,0.00681398,-0.0175774,-0.00191179,0.00696292,-0.0177263,-0.0777472,0.0146989,0.0278634,1140,1702,3.50725,-11.5361
-77,-678,3.53259,11.64,0.00715406,-0.018142,-0.00239822,0.00737941,-0.0183674,-0.0936937,0.0153095,0.0357378,1147,1702,3.53264,-11.64
-70,-678,3.56372,11.965,0,0,0,0,0,0,0,-1,1154,1702,3.56374,-11.965
-63,-678,3.41687,11.0365,0,0,0,0,0,0,0,-1,1161,1702,3.41682,-11.0365
-56,-678,1.72388,6.13159,0,0,0,0,0,0,0,-1,1168,1702,1.72388,-6.13157
-49,-678,-0.241699,5.29895,0,0,0,0,0,0,0,-1,1175,1702,-0.241682,-5.29897
-42,-678,0.297119,3.90649,0,0,0,0,0,0,0,-1,1182,1702,0.297139,-3.90655
-35,-678,0.498413,3.64038,0,0,0,0,0,0,0,-1,1189,1702,0.498471,-3.64038
-28,-678,0.132446,3.55994,0,0,0,0,0,0,0,-1,1196,1702,0.132432,-3.55993
-21,-678,3.58215,12.0695,0,0,0,0,0,0,0,-1,1203,1702,3.5822,-12.0694
-14,-678,3.65247,12.114,0,0,0,0,0,0,0,-1,1210,1702,3.65242,-12.1141
-7,-678,4.64612,11.2518,0,0,0,0,0,0,0,-1,1217,1702,4.6461,-11.2518
0,-678,4.50146,11.7946,-0.0108814,-0.0208159,0.0339589,0.0184716,-0.050169,0.712777,0.0410139,0.0440297,1224,1702,4.5015,-11.7945
7,-678,4.20935,12.2563,-0.00673812,-0.0198347,0.0345751,0.0219033,-0.0484761,0.69181,0.0415878,0.0446314,1231,1702,4.20932,-12.2563
14,-678,4.14661,12.5609,-0.0023764,-0.0185346,0.0345752,0.0250511,-0.0459621,0.670624,0.0415878,0.0459604,1238,1702,4.1466,-12.561
21,-678,4.00879,12.3693,0,0,0,0,0,0,0,-1,1245,1702,4.00879,-12.3693
28,-678,4.00171,12.1606,0.00682252,-0.0155176,0.0321079,0.0296478,-0.0383429,0.618001,0.0393613,0.0479252,1252,1702,4.00171,-12.1607
35,-678,3.85657,12.1083,0.0102401,-0.0135448,0.0302543,0.0308554,-0.0341601,0.598133,0.0375528,0.048639,1259,1702,3.85656,-12.1082
42,-678,3.76086,12.1259,0,0,0,0,0,0,0,-1,1266,1702,3.76085,-12.1259
49,-678,4.67224,12.1774,0.0161942,-0.0125362,0.0264839,0.031958,-0.0283,0.536899,0.0348113,0.0449701,1273,1702,4.67222,-12.1774
56,-678,4.56897,12.1429,0.0190942,-0.0125039,0.024558,0.0324963,-0.025906,0.49956,0.0337901,0.0474338,1280,1702,4.56897,-12.1429
63,-678,4.47241,10.5288,0,0,0,0,0,0,0,-1,1287,1702,4.47246,-10.5288
70,-678,4.4812,11.1886,0,0,0,0,0,0,0,-1,1294,1702,4.48125,-11.1887
77,-678,4.56299,11.8468,0,0,0,0,0,0,0,-1,1301,1702,4.56298,-11.8468
84,-678,4.65991,12.6871,0.0173461,-0.0160115,0.0196154,0.026415,-0.0250804,0.433067,0.0297342,0.0464592,1308,1702,4.65992,-12.6872
91,-678,3.62756,11.8704,0.0164015,-0.0175015,0.0199666,0.0256419,-0.0267419,0.433443,0.030246,0.0447955,1315,1702,3.6276,-11.8703
98,-678,4.34351,11.7185,0.014945,-0.0192246,0.0199655,0.0241378,-0.0284174,0.431496,0.0303763,0.0414238,1322,1702,4.34349,-11.7185
105,-678,4.62524,11.7137,0.013314,-0.0203367,0.0198233,0.0224897,-0.0295124,0.43351,0.0301146,0.0401436,1329,1702,4.62528,-11.7138
112,-678,5.03003,12.5923,0,0,0,0,0,0,0,-1,1336,1702,5.03006,-12.5923
119,-678,4.44824,12.4551,0.00973769,-0.0208896,0.0183459,0.0183214,-0.0294732,0.437622,0.0278435,0.0400217,1343,1702,4.4482,-12.4551
126,-678,3.94531,12.2754,0.00773673,-0.0203328,0.0172804,0.0159638,-0.0285598,0.444338,0.0260464,0.0460087,1350,1702,3.94528,-12.2754
133,-678,3.86536,12.3323,0.00597429,-0.0203952,0.0159764,0.0135039,-0.0279248,0.440421,0.0243971,0.0497056,1357,1702,3.86537,-12.3323
140,-678,3.6582,12.3782,0,0,0,0,0,0,0,-1,1364,1702,3.65817,-12.3782
147,-678,3.62878,12.7142,0,0,0,0,0,0,0,-1,1371,1702,3.6288,-12.7143
154,-678,4.73889,12.9424,0,0,0,0,0,0,0,-1,1378,1702,4.7389,-12.9424
161,-678,3.44202,4.53992,0,0,0,0,0,0,0,-1,1385,1702,3.442,-4.53996
168,-678,4.21863,5.25781,0,0,0,0,0,0,0,-1,1392,1702,4.21865,-5.25781
175,-678,5.21899,5.9635,0,0,0,0,0,0,0,-1,1399,1702,5.21894,-5.96346
182,-678,7.31262,6.75122,0,0,0,0,0,0,0,-1,1406,1702,7.3126,-6.75123
189,-678,5.96021,6.36853,0,0,0,0,0,0,0,-1,1413,1702,5.96018,-6.36851
196,-678,5.01599,8.15771,0,0,0,0,0,0,0,-1,1420,1702,5.01596,-8.15767
203,-678,4.70203,12.5616,0,0,0,0,0,0,0,-1,1427,1702,4.70206,-12.5617
210,-678,5.05334,12.2728,0,0,0,0,0,0,0,-1,1434,1702,5.05334,-12.2728
217,-678,4.79785,11.9189,-0.010167,-0.00315106,0.00452258,-0.000935433,-0.0123826,1.11526,0.00796163,0.0482167,1441,1702,4.79784,-11.9189
224,-678,4.37708,11.7209,-0.00922958,-0.00338846,0.00431832,-0.00109582,-0.0115222,1.08273,0.00734352,0.0431139,1448,1702,4.37711,-11.721
231,-678,4.32568,11.8655,0,0,0,0,0,0,0,-1,1455,1702,4.32574,-11.8654
238,-678,4.46655,11.9536,-0.00598405,-0.0038125,0.00336486,-0.00136257,-0.00843397,0.941465,0.00522798,0.0346844,1462,1702,4.46652,-11.9536
245,-678,4.35681,11.869,-0.00393354,-0.00496044,0.00297995,-0.00142313,-0.00747085,0.700085,0.00458049,0.0288179,1469,1702,4.35686,-11.869
252,-678,4.32678,11.7666,-0.00245135,-0.00533674,0.00271793,-0.000816946,-0.00697114,0.541405,0.00440046,0.0214011,1476,1702,4.32677,-11.7666
259,-678,4.32971,11.7159,-0.00141451,-0.00571571,0.00238962,-0.000350242,-0.00677998,0.418997,0.00440788,0.0134586,1483,1702,4.32973,-11.7159
266,-678,4.35681,11.6439,-0.000477449,-0.00554263,0.00210682,0.000284303,-0.00630439,0.346941,0.00430082,0.0100065,1490,1702,4.35687,-11.6439
273,-678,4.36157,11.5776,0.000564446,-0.00475184,0.00163649,0.00102781,-0.00521521,0.275925,0.00386523,0.010713,1497,1702,4.36162,-11.5777
280,-678,4.35925,11.5129,0.0012108,-0.00371881,0.00142747,0.00159432,-0.00410233,0.26247,0.00339355,0.0117179,1504,1702,4.35919,-11.5129
287,-678,4.37109,11.411,0.00138088,-0.00281242,0.00119129,0.00169569,-0.00312723,0.25835,0.0028251,0.0118472,1511,1702,4.37109,-11.411
294,-678,4.35986,11.3203,0.00155244,-0.00202017,0.000956612,0.00179246,-0.00226019,0.245831,0.00234499,0.0119729,1518,1702,4.35982,-11.3203
301,-678,4.34558,11.264,0.00162502,-0.00122142,0.000916897,0.00189481,-0.0014912,0.286158,0.00195954,0.0111665,1525,1702,4.34555,-11.264
308,-678,4.36365,11.1959,0.00164764,-0.000637076,0.000966488,0.00200164,-0.000991074,0.351097,0.00176037,0.0130186,1532,1702,4.36367,-11.196
315,-678,4.38171,11.1151,0.00167857,-0.000152998,0.00107455,0.00217464,-0.000649065,0.432499,0.00170774,0.0143571,1539,1702,4.3817,-11.1151
322,-678,4.36365,11.0295,0.0018323,-3.91002e-05,0.00120787,0.0024245,-0.000631305,0.455847,0.00186278,0.0165549,1546,1702,4.36363,-11.0296
329,-678,4.35742,10.9355,0.0021012,2.2198e-06,0.00156766,0.00293823,-0.000834816,0.49043,0.00228843,0.0146091,1553,1702,4.35739,-10.9355
336,-678,4.37219,10.832,0.00236654,0.000113162,0.0021018,0.00362459,-0.00114489,0.539359,0.00287504,0.0119196,1560,1702,4.37225,-10.8321
343,-678,4.36987,10.7462,0.00278797,0.000164717,0.0024867,0.00428776,-0.00133507,0.542712,0.00339226,0.01101,1567,1702,4.36984,-10.7462
350,-678,4.37073,10.6575,0.00337556,0.00056747,0.00269808,0.00501306,-0.00107003,0.545487,0.00374995,0.0112797,1574,1702,4.37068,-10.6575
357,-678,4.38611,10.5504,0.0039416,0.000810045,0.00294228,0.0057088,-0.000957146,0.540875,0.00416176,0.00950409,1581,1702,4.38609,-10.5504
364,-678,4.37268,10.4503,0.00450261,0.0014359,0.00313619,0.00646022,-0.000521719,0.558025,0.00449083,0.0112013,1588,1702,4.37274,-10.4503
371,-678,4.36829,10.3337,0.00517904,0.00242895,0.00324815,0.0073312,0.000276787,0.585169,0.00479787,0.0118724,1595,1702,4.36824,-10.3338
378,-678,4.3678,10.1967,0.00596889,0.00358479,0.00320634,0.0081976,0.00135608,0.607427,0.00507381,0.0130833,1602,1702,4.36778,-10.1966
385,-678,4.36145,10.1041,0.00660762,0.00485126,0.00297244,0.00882888,0.00262999,0.641764,0.00523434,0.0143362,1609,1702,4.36141,-10.1042
392,-678,4.40283,10.048,0.00625456,0.00569338,0.0032354,0.00922152,0.00272643,0.742145,0.00547024,0.0241539,1616,1702,4.40284,-10.0479
399,-678,4.47156,9.89575,0.00546617,0.00588787,0.0034282,0.0091117,0.00224234,0.816111,0.00548208,0.0344667,1623,1702,4.4715,-9.89576
406,-678,4.44556,9.72913,0.00396399,0.00607382,0.00347053,0.00864623,0.00139159,0.932942,0.00536084,0.0382201,1630,1702,4.44558,-9.72916
413,-678,4.42639,9.54285,0.00183298,0.00574567,0.00413204,0.00836109,-0.000782439,1.00649,0.00585233,0.0430811,1637,1702,4.42637,-9.54284
420,-678,4.51685,9.38232,0,0,0,0,0,0,0,-1,1644,1702,4.51686,-9.38237
427,-678,4.30859,8.69702,0,0,0,0,0,0,0,-1,1651,1702,4.30862,-8.69707
434,-678,4.97021,9.18188,0,0,0,0,0,0,0,-1,1658,1702,4.97024,-9.18192
441,-678,3.19983,9.82874,0,0,0,0,0,0,0,-1,1665,1702,3.19985,-9.8287
448,-678,3.25525,9.74719,0,0,0,0,0,0,0,-1,1672,1702,3.25522,-9.7472
455,-678,5.44678,5.54297,0,0,0,0,0,0,0,-1,1679,1702,5.44676,-5.54294
462,-678,3.86792,2.87402,0,0,0,0,0,0,0,-1,1686,1702,3.86796,-2.87406
469,-678,2.26587,1.98755,0,0,0,0,0,0,0,-1,1693,1702,2.26592,-1.98755
476,-678,0,0,0,0,0,0,0,0,0,-1,1700,1702,0,0
483,-678,0,0,0,0,0,0,0,0,0,-1,1707,1702,0,0
490,-678,0,0,0,0,0,0,0,0,0,-1,1714,1702,0,0
497,-678,0,0,0,0,0,0,0,0,0,-1,1721,1702,0,0
504,-678,0,0,0,0,0,0,0,0,0,-1,1728,1702,0,0
511,-678,0,0,0,0,0,0,0,0,0,-1,1735,1702,0,0
518,-678,0,0,0,0,0,0,0,0,0,-1,1742,1702,0,0
525,-678,0,0,0,0,0,0,0,0,0,-1,1749,1702,0,0
532,-678,0,0,0,0,0,0,0,0,0,-1,1756,1702,0,0
539,-678,0,0,0,0,0,0,0,0,0,-1,1763,1702,0,0
546,-678,0,0,0,0,0,0,0,0,0,-1,1770,1702,0,0
553,-678,0,0,0,0,0,0,0,0,0,-1,1777,1702,0,0
560,-678,0,0,0,0,0,0,0,0,0,-1,1784,1702,0,0
567,-678,0,0,0,0,0,0,0,0,0,-1,1791,1702,0,0
574,-678,0,0,0,0,0,0,0,0,0,-1,1798,1702,0,0
581,-678,0,0,0,0,0,0,0,0,0,-1,1805,1702,0,0
588,-678,0,0,0,0,0,0,0,0,0,-1,1812,1702,0,0
595,-678,0,0,0,0,0,0,0,0,0,-1,1819,1702,0,0
602,-678,0,0,0,0,0,0,0,0,0,-1,1826,1702,0,0
609,-678,0,0,0,0,0,0,0,0,0,-1,1833,1702,0,0
616,-678,0,0,0,0,0,0,0,0,0,-1,1840,1702,0,0
623,-678,0,0,0,0,0,0,0,0,0,-1,1847,1702,0,0
630,-678,0,0,0,0,0,0,0,0,0,-1,1854,1702,0,0
637,-678,0,0,0,0,0,0,0,0,0,-1,1861,1702,0,0
644,-678,0,0,0,0,0,0,0,0,0,-1,1868,1702,0,0
651,-678,0,0,0,0,0,0,0,0,0,-1,1875,1702,0,0
658,-678,0,0,0,0,0,0,0,0,0,-1,1882,1702,0,0
665,-678,0,0,0,0,0,0,0,0,0,-1,1889,1702,0,0
672,-678,0,0,0,0,0,0,0,0,0,-1,1896,1702,0,0
679,-678,0,0,0,0,0,0,0,0,0,-1,1903,1702,0,0
686,-678,0,0,0,0,0,0,0,0,0,-1,1910,1702,0,0
693,-678,0,0,0,0,0,0,0,0,0,-1,1917,1702,0,0
700,-678,0,0,0,0,0,0,0,0,0,-1,1924,1702,0,0
707,-678,0,0,0,0,0,0,0,0,0,-1,1931,1702,0,0
714,-678,0,0,0,0,0,0,0,0,0,-1,1938,1702,0,0
721,-678,0,0,0,0,0,0,0,0,0,-1,1945,1702,0,0
728,-678,0,0,0,0,0,0,0,0,0,-1,1952,1702,0,0
735,-678,0,0,0,0,0,0,0,0,0,-1,1959,1702,0,0
742,-678,0,0,0,0,0,0,0,0,0,-1,1966,1702,0,0
749,-678,0,0,0,0,0,0,0,0,0,-1,1973,1702,0,0
756,-678,0,0,0,0,0,0,0,0,0,-1,1980,1702,0,0
763,-678,0,0,0,0,0,0,0,0,0,-1,1987,1702,0,0
770,-678,0,0,0,0,0,0,0,0,0,-1,1994,1702,0,0
777,-678,0,0,0,0,0,0,0,0,0,-1,2001,1702,0,0
784,-678,0,0,0,0,0,0,0,0,0,-1,2008,1702,0,0
791,-678,0,0,0,0,0,0,0,0,0,-1,2015,1702,0,0
798,-678,0,0,0,0,0,0,0,0,0,-1,2022,1702,0,0
805,-678,0,0,0,0,0,0,0,0,0,-1,2029,1702,0,0
812,-678,0,0,0,0,0,0,0,0,0,-1,2036,1702,0,0
-700,-685,0,0,0,0,0,0,0,0,0,-1,524,1709,0,0
-693,-685,0,0,0,0,0,0,0,0,0,-1,531,1709,0,0
-686,-685,0,0,0,0,0,0,0,0,0,-1,538,1709,0,0
-679,-685,0,0,0,0,0,0,0,0,0,-1,545,1709,0,0
-672,-685,0,0,0,0,0,0,0,0,0,-1,552,1709,0,0
-665,-685,0,0,0,0,0,0,0,0,0,-1,559,1709,0,0
-658,-685,0,0,0,0,0,0,0,0,0,-1,566,1709,0,0
-651,-685,0,0,0,0,0,0,0,0,0,-1,573,1709,0,0
-644,-685,0,0,0,0,0,0,0,0,0,-1,580,1709,0,0
-637,-685,0,0,0,0,0,0,0,0,0,-1,587,1709,0,0
-630,-685,0,0,0,0,0,0,0,0,0,-1,594,1709,0,0
-623,-685,0,0,0,0,0,0,0,0,0,-1,601,1709,0,0
-616,-685,0,0,0,0,0,0,0,0,0,-1,608,1709,0,0
-609,-685,0,0,0,0,0,0,0,0,0,-1,615,1709,0,0
-602,-685,0,0,0,0,0,0,0,0,0,-1,622,1709,0,0
-595,-685,0,0,0,0,0,0,0,0,0,-1,629,1709,0,0
-588,-685,0,0,0,0,0,0,0,0,0,-1,636,1709,0,0
-581,-685,0,0,0,0,0,0,0,0,0,-1,643,1709,0,0
-574,-685,0,0,0,0,0,0,0,0,0,-1,650,1709,0,0
-567,-685,0,0,0,0,0,0,0,0,0,-1,657,1709,0,0
-560,-685,0,0,0,0,0,0,0,0,0,-1,664,1709,0,0
-553,-685,0,0,0,0,0,0,0,0,0,-1,671,1709,0,0
-546,-685,0,0,0,0,0,0,0,0,0,-1,678,1709,0,0
-539,-685,0,0,0,0,0,0,0,0,0,-1,685,1709,0,0
-532,-685,0,0,0,0,0,0,0,0,0,-1,692,1709,0,0
-525,-685,0,0,0,0,0,0,0,0,0,-1,699,1709,0,0
-518,-685,0,0,0,0,0,0,0,0,0,-1,706,1709,0,0
-511,-685,0,0,0,0,0,0,0,0,0,-1,713,1709,0,0
-504,-685,0,0,0,0,0,0,0,0,0,-1,720,1709,0,0
-497,-685,0,0,0,0,0,0,0,0,0,-1,727,1709,0,0
-490,-685,0,0,0,0,0,0,0,0,0,-1,734,1709,0,0
-483,-685,0,0,0,0,0,0,0,0,0,-1,741,1709,0,0
-476,-685,0,0,0,0,0,0,0,0,0,-1,748,1709,0,0
-469,-685,0,0,0,0,0,0,0,0,0,-1,755,1709,0,0
-462,-685,0,0,0,0,0,0,0,0,0,-1,762,1709,0,0
-455,-685,0,0,0,0,0,0,0,0,0,-1,769,1709,0,0
-448,-685,0,0,0,0,0,0,0,0,0,-1,776,1709,0,0
-441,-685,0,0,0,0,0,0,0,0,0,-1,783,1709,0,0
-434,-685,0,0,0,0,0,0,0,0,0,-1,790,1709,0,0
-427,-685,0,0,0,0,0,0,0,0,0,-1,797,1709,0,0
-420,-685,0,0,0,0,0,0,0,0,0,-1,804,1709,0,0
-413,-685,0,0,0,0,0,0,0,0,0,-1,811,1709,0,0
-406,-685,0,0,0,0,0,0,0,0,0,-1,818,1709,0,0
-399,-685,0,0,0,0,0,0,0,0,0,-1,825,1709,0,0
-392,-685,0,0,0,0,0,0,0,0,0,-1,832,1709,0,0
-385,-685,0,0,0,0,0,0,0,0,0,-1,839,1709,0,0
-378,-685,0,0,0,0,0,0,0,0,0,-1,846,1709,0,0
-371,-685,0,0,0,0,0,0,0,0,0,-1,853,1709,0,0
-364,-685,0,0,0,0,0,0,0,0,0,-1,860,1709,0,0
-357,-685,0,0,0,0,0,0,0,0,0,-1,867,1709,0,0
-350,-685,0,0,0,0,0,0,0,0,0,-1,874,1709,0,0
-343,-685,-7.97491,5.63452,0,0,0,0,0,0,0,-1,881,1709,-7.97492,-5.63451
-336,-685,-8.73004,4.33813,0,0,0,0,0,0,0,-1,888,1709,-8.73002,-4.33818
-329,-685,-9.43805,3.16907,0,0,0,0,0,0,0,-1,895,1709,-9.43805,-3.16908
-322,-685,-10.121,1.96362,0,0,0,0,0,0,0,-1,902,1709,-10.121,-1.96362
-315,-685,4.32922,3.88074,0,0,0,0,0,0,0,-1,909,1709,4.32925,-3.88075
-308,-685,5.49969,7.45776,0,0,0,0,0,0,0,-1,916,1709,5.49969,-7.45773
-301,-685,5.013,7.44263,0,0,0,0,0,0,0,-1,923,1709,5.01302,-7.44265
-294,-685,4.38275,7.34973,0,0,0,0,0,0,0,-1,930,1709,4.38278,-7.3497
-287,-685,4.29675,7.1521,0,0,0,0,0,0,0,-1,937,1709,4.29674,-7.1521
-280,-685,3.80725,8.40161,0,0,0,0,0,0,0,-1,944,1709,3.80724,-8.40164
-273,-685,3.91254,8.39526,-0.00585971,0.0400063,-0.0138089,0.0438428,-0.00969625,-1.2998,0.0329398,0.0453082,951,1709,3.91254,-8.39532
-266,-685,4.21582,8.505,-0.00390415,0.0322309,-0.0117635,0.035723,-0.00739621,-1.28223,0.0266254,0.039929,958,1709,4.21584,-8.50506
-259,-685,4.07629,8.8595,-0.00231725,0.025068,-0.00985775,0.0282474,-0.00549659,-1.25881,0.020906,0.0378389,965,1709,4.07628,-8.85951
-252,-685,3.85315,9.2323,-0.000993271,0.0186053,-0.0080183,0.0214677,-0.00385571,-1.22791,0.0157551,0.0355399,972,1709,3.85318,-9.23232
-245,-685,3.69714,9.33643,0,0,0,0,0,0,0,-1,979,1709,3.69713,-9.33645
-238,-685,3.56238,9.54834,-0.00064196,0.00773076,-0.00426028,0.0095173,-0.0024285,-1.17372,0.00729046,0.0241704,986,1709,3.56239,-9.5483
-231,-685,3.4953,9.72229,-0.000803344,0.00411101,-0.00252248,0.00517529,-0.00186762,-1.17154,0.00421305,0.0165007,993,1709,3.49529,-9.72235
-224,-685,3.47345,9.81848,-0.000999852,0.000875004,-0.00102773,0.00132862,-0.00145347,-1.15514,0.00160678,0.0144324,1000,1709,3.47346,-9.81853
-217,-685,3.47827,9.94128,-0.00111788,-0.00127974,0.000209049,-0.000974641,-0.00142298,0.600715,0.000840078,0.0108488,1007,1709,3.47829,-9.94124
-210,-685,3.48151,10.0952,-0.000614476,-0.00215886,0.00107925,-5.96141e-05,-0.00271372,0.474876,0.00178961,0.0145002,1014,1709,3.48149,-10.0953
-203,-685,3.48047,10.2046,-1.85523e-05,-0.00247992,0.00172843,0.000872568,-0.00337104,0.476023,0.00258773,0.0146514,1021,1709,3.48048,-10.2046
-196,-685,3.47095,10.2992,0.000420717,-0.00238131,0.00207926,0.00152692,-0.00348752,0.488934,0.00296793,0.0128006,1028,1709,3.47093,-10.2992
-189,-685,3.47205,10.3939,0.000656357,-0.00174955,0.00196625,0.00175845,-0.00285165,0.510872,0.00268647,0.00869749,1035,1709,3.472,-10.3939
-182,-685,3.47205,10.4946,0.000896618,-0.00119416,0.00174133,0.00188226,-0.0021798,0.515064,0.00234733,0.0127868,1042,1709,3.47204,-10.4946
-175,-685,3.47412,10.6093,0.00103786,-0.000644476,0.00149952,0.00191603,-0.00152265,0.52979,0.00198965,0.0127067,1049,1709,3.47407,-10.6093
-168,-685,3.46619,10.7235,0.0013665,-0.000409883,0.00128668,0.00204177,-0.00108516,0.483306,0.00183328,0.0108046,1056,1709,3.46616,-10.7235
-161,-685,3.46582,10.8127,0.00175554,-0.000496306,0.00101618,0.00214631,-0.000887067,0.367106,0.00180092,0.0118438,1063,1709,3.46586,-10.8128
-154,-685,3.47388,10.9012,0.00195127,-0.000749408,0.000780753,0.00216074,-0.000958873,0.262114,0.00184513,0.0102749,1070,1709,3.47388,-10.9012
-147,-685,3.46765,10.9932,0.00210603,-0.00118932,0.000589762,0.0022084,-0.00129169,0.171863,0.00204375,0.00905795,1077,1709,3.46769,-10.9932
-140,-685,3.46973,11.0807,0.0023395,-0.00211397,0.000289315,0.00235822,-0.00213269,0.0646019,0.00259392,0.0113064,1084,1709,3.46972,-11.0807
-133,-685,3.48938,11.1603,0.00267612,-0.00353381,8.94015e-05,0.00267741,-0.00353509,0.0143926,0.00359816,0.0108393,1091,1709,3.48935,-11.1603
-126,-685,3.50195,11.2473,0.00305418,-0.00473587,-2.14147e-06,0.00305418,-0.00473587,-0.000274899,0.00453239,0.00904913,1098,1709,3.50192,-11.2473
-119,-685,3.51025,11.3364,0.00353436,-0.00603785,-8.44132e-05,0.0035351,-0.0060386,-0.00881766,0.00559002,0.0118676,1105,1709,3.51024,-11.3364
-112,-685,3.51636,11.4266,0.00394955,-0.00760785,-0.000118661,0.00395077,-0.00760907,-0.0102656,0.00678457,0.0120381,1112,1709,3.5164,-11.4267
-105,-685,3.48962,11.4939,0.00411169,-0.00885879,-0.000140863,0.00411322,-0.00886032,-0.0108586,0.00765559,0.00989437,1119,1709,3.48964,-11.4939
-98,-685,3.52441,11.5583,0.00407324,-0.0102808,-0.000554765,0.00409465,-0.0103022,-0.038572,0.00856571,0.0127751,1126,1709,3.52439,-11.5584
-91,-685,3.51282,11.6367,0.0043605,-0.0113138,-0.000813419,0.0044026,-0.0113559,-0.05171,0.00938875,0.0160441,1133,1709,3.51284,-11.6367
-84,-685,3.51587,11.7003,0.00464832,-0.0119887,-0.00102674,0.00471145,-0.0120519,-0.0614035,0.00998281,0.0141283,1140,1709,3.51585,-11.7004
-77,-685,3.55725,11.8143,0.00484804,-0.0121526,-0.00132045,0.00494999,-0.0122546,-0.0770549,0.0102271,0.0130142,1147,1709,3.55724,-11.8143
-70,-685,3.62183,11.9319,0.00506113,-0.0119037,-0.00154915,0.00520143,-0.012044,-0.0903201,0.0102146,0.0213138,1154,1709,3.62183,-11.9319
-63,-685,3.60364,11.9893,0,0,0,0,0,0,0,-1,1161,1709,3.6036,-11.9893
-56,-685,3.51917,12.4904,0,0,0,0,0,0,0,-1,1168,1709,3.51914,-12.4904
-49,-685,3.07471,9.86011,0,0,0,0,0,0,0,-1,1175,1709,3.07467,-9.86009
-42,-685,2.70618,7.54504,0,0,0,0,0,0,0,-1,1182,1709,2.7062,-7.54504
-35,-685,2.95264,7.91516,0,0,0,0,0,0,0,-1,1189,1709,2.95262,-7.91517
-28,-685,3.61133,12.0762,0,0,0,0,0,0,0,-1,1196,1709,3.61129,-12.0762
-21,-685,3.66272,12.1283,-0.0093335,-0.0150121,0.0233584,0.0113575,-0.0357032,0.724918,0.0283565,0.041711,1203,1709,3.66272,-12.1283
-14,-685,3.7771,12.0808,-0.00899802,-0.0166165,0.0251357,0.0126155,-0.03823,0.710197,0.0305721,0.0262673,1210,1709,3.77708,-12.0808
-7,-685,3.91711,12.0356,-0.00742689,-0.0170597,0.0264292,0.0146212,-0.0391078,0.695268,0.0320763,0.0386243,1217,1709,3.91709,-12.0357
0,-685,3.93408,12.2106,-0.00528648,-0.0171848,0.0271849,0.0165926,-0.0390639,0.677676,0.0329948,0.0412641,1224,1709,3.93413,-12.2106
7,-685,3.93787,12.4459,-0.00267187,-0.0163841,0.027444,0.0187595,-0.0378154,0.662993,0.0332754,0.0374441,1231,1709,3.93787,-12.4459
14,-685,4.02783,12.427,2.18126e-05,-0.0153785,0.0272292,0.0206186,-0.0359753,0.647601,0.0330731,0.038553,1238,1709,4.02783,-12.4271
21,-685,4.03662,12.4011,0.00299541,-0.0142722,0.0263414,0.0220819,-0.0333587,0.627033,0.0322286,0.035906,1245,1709,4.03657,-12.4011
28,-685,3.99536,12.3529,0.00584676,-0.0128691,0.0250449,0.0232249,-0.0302472,0.606607,0.0309607,0.0390516,1252,1709,3.99541,-12.3529
35,-685,3.8783,12.2102,0.00789846,-0.0113116,0.0234253,0.0236114,-0.0270245,0.590837,0.0292568,0.0404986,1259,1709,3.87828,-12.2102
42,-685,3.88562,12.2771,0.00972115,-0.0103582,0.0218744,0.0237498,-0.0243869,0.570254,0.0277925,0.0434154,1266,1709,3.88565,-12.2771
49,-685,3.89319,12.4167,0,0,0,0,0,0,0,-1,1273,1709,3.89318,-12.4168
56,-685,4.31592,12.2202,0.0138189,-0.00992655,0.0185686,0.023986,-0.0200937,0.500956,0.0254825,0.0444369,1280,1709,4.31595,-12.2202
63,-685,4.10217,12.325,0.0147378,-0.00995474,0.0174428,0.0237616,-0.0189786,0.477423,0.0247275,0.0441954,1287,1709,4.10216,-12.325
70,-685,4.10046,11.0743,0,0,0,0,0,0,0,-1,1294,1709,4.10047,-11.0744
77,-685,4.16052,12.3146,0,0,0,0,0,0,0,-1,1301,1709,4.16051,-12.3146
84,-685,4.24365,12.4828,0,0,0,0,0,0,0,-1,1308,1709,4.24364,-12.4828
91,-685,4.19629,12.6871,0,0,0,0,0,0,0,-1,1315,1709,4.19627,-12.6871
98,-685,4.03662,12.1672,0.0100713,-0.0150235,0.015031,0.0171037,-0.0220559,0.437606,0.022669,0.0394469,1322,1709,4.03658,-12.1672
105,-685,4.30383,11.9705,0.00876702,-0.0157961,0.0148912,0.0157879,-0.022817,0.440571,0.0224114,0.0429018,1329,1709,4.30384,-11.9705
112,-685,4.65405,12.4561,0.0074809,-0.0161175,0.0143027,0.0142233,-0.0228598,0.44051,0.0216026,0.0423802,1336,1709,4.65407,-12.4561
119,-685,4.3595,12.474,0.0061216,-0.0157998,0.0135286,0.0125724,-0.0222505,0.444937,0.0203622,0.0384159,1343,1709,4.35945,-12.4739
126,-685,4.03589,12.2948,0.00463787,-0.0151151,0.0125695,0.0107469,-0.0212241,0.452403,0.018786,0.0426566,1350,1709,4.03588,-12.2948
133,-685,3.94067,12.3522,0.00340249,-0.0146547,0.0114434,0.00895011,-0.0202023,0.451405,0.017244,0.0443638,1357,1709,3.94067,-12.3522
140,-685,3.79663,12.3845,0.00255648,-0.0140889,0.0101117,0.00733008,-0.0188625,0.44107,0.0156032,0.045377,1364,1709,3.79661,-12.3846
147,-685,3.96582,12.4139,0.00163747,-0.0125884,0.00856426,0.00565739,-0.0166083,0.438856,0.0133633,0.044896,1371,1709,3.96583,-12.4139
154,-685,4.25305,12.5895,0,0,0,0,0,0,0,-1,1378,1709,4.25308,-12.5895
161,-685,4.45874,12.4388,0,0,0,0,0,0,0,-1,1385,1709,4.4587,-12.4389
168,-685,4.37524,10.8778,0,0,0,0,0,0,0,-1,1392,1709,4.37525,-10.8778
175,-685,3.97522,8.94324,0,0,0,0,0,0,0,-1,1399,1709,3.97519,-8.94328
182,-685,3.98218,9.19739,0,0,0,0,0,0,0,-1,1406,1709,3.98221,-9.1974
189,-685,3.90552,10.3271,0,0,0,0,0,0,0,-1,1413,1709,3.90548,-10.3272
196,-685,4.66199,12.5853,0,0,0,0,0,0,0,-1,1420,1709,4.66203,-12.5854
203,-685,4.30835,12.3411,-0.00589151,-0.00049631,0.00357489,0.00128458,-0.0076724,1.10862,0.00559252,0.0447564,1427,1709,4.3084,-12.3411
210,-685,4.29211,12.21,-0.00647125,-0.0014509,0.00344731,0.000303302,-0.00822545,1.10009,0.00558748,0.025448,1434,1709,4.29215,-12.21
217,-685,4.24023,12.0323,-0.00660119,-0.00193574,0.00322639,-0.000287115,-0.00824982,1.0984,0.00540672,0.0214531,1441,1709,4.24025,-12.0324
224,-685,4.18494,11.963,-0.00605789,-0.00219405,0.0030719,-0.000497072,-0.00775487,1.0661,0.00501245,0.0155858,1448,1709,4.18497,-11.963
231,-685,4.25244,11.9318,-0.0051199,-0.00245532,0.00272663,-0.000752893,-0.00682232,1.01265,0.00431918,0.0165699,1455,1709,4.25249,-11.9318
238,-685,4.27356,11.8684,-0.00412947,-0.00256615,0.00240729,-0.000816789,-0.00587883,0.94238,0.00367732,0.0180235,1462,1709,4.27356,-11.8684
245,-685,4.26624,11.8188,-0.00288782,-0.00320974,0.00210776,-0.000934883,-0.00516268,0.74729,0.00317636,0.0174898,1469,1709,4.26622,-11.8189
252,-685,4.26147,11.7882,-0.00192325,-0.00343507,0.00188639,-0.00064695,-0.00471137,0.594835,0.00294901,0.0141904,1476,1709,4.26142,-11.7882
259,-685,4.26563,11.7344,-0.00118662,-0.00364355,0.00158315,-0.00041121,-0.00441895,0.455443,0.00281891,0.0102419,1483,1709,4.2656,-11.7344
266,-685,4.28296,11.6584,-0.000481928,-0.00341981,0.00130404,1.33853e-05,-0.00391512,0.363,0.00261456,0.0109892,1490,1709,4.28296,-11.6584
273,-685,4.28345,11.571,0.000347755,-0.00284884,0.000968468,0.000618277,-0.00311936,0.272387,0.00231337,0.0138424,1497,1709,4.28343,-11.571
280,-685,4.27344,11.4968,0.000914418,-0.0020667,0.000886815,0.00115828,-0.00231056,0.268351,0.00203923,0.0158785,1504,1709,4.27342,-11.4969
287,-685,4.29871,11.4298,0.0011377,-0.00146674,0.000866395,0.00139959,-0.00172863,0.293535,0.0018094,0.0121321,1511,1709,4.29874,-11.4298
294,-685,4.29724,11.3458,0.00136793,-0.000850386,0.000863888,0.00166467,-0.00114712,0.330861,0.00163253,0.0101586,1518,1709,4.29718,-11.3458
301,-685,4.27673,11.2716,0.00163355,-0.000399814,0.00116753,0.00216502,-0.000931282,0.427176,0.00183434,0.011693,1525,1709,4.27672,-11.2716
308,-685,4.26697,11.1848,0.0018661,-0.000230335,0.00148089,0.00263222,-0.000996448,0.477417,0.0021648,0.0127053,1532,1709,4.26698,-11.1848
315,-685,4.29688,11.1058,0.00207909,-6.92588e-05,0.00183141,0.00312811,-0.00111827,0.520171,0.00254154,0.011907,1539,1709,4.29691,-11.1058
322,-685,4.28406,11.0166,0.00244864,-0.000244605,0.00216306,0.00365,-0.00144597,0.506979,0.0030325,0.0196665,1546,1709,4.28412,-11.0165
329,-685,4.2793,10.9222,0.0029388,-0.000353316,0.00286472,0.0045967,-0.00201122,0.524633,0.00391122,0.0181967,1553,1709,4.27928,-10.9222
336,-685,4.3053,10.8345,0.00341276,-0.000321873,0.00382982,0.00580624,-0.00271535,0.558569,0.00502666,0.0120411,1560,1709,4.30525,-10.8344
343,-685,4.30237,10.7407,0.00405255,-0.000296032,0.00455046,0.0069215,-0.00316498,0.562526,0.00595653,0.0109737,1567,1709,4.30231,-10.7408
350,-685,4.29138,10.6251,0.00490864,0.000142394,0.00513095,0.00818289,-0.00313186,0.567991,0.00674606,0.0112023,1574,1709,4.29137,-10.6251
357,-685,4.297,10.5359,0.00570215,0.000551622,0.00582418,0.00949501,-0.00324124,0.577237,0.00764305,0.00929472,1581,1709,4.29694,-10.5359
364,-685,4.28406,10.436,0.00645032,0.00150351,0.00647163,0.0109051,-0.00295126,0.602868,0.00842786,0.00971446,1588,1709,4.284,-10.4361
371,-685,4.31201,10.3168,0.0073625,0.00305052,0.00704147,0.0125707,-0.00215764,0.636838,0.00918452,0.0159296,1595,1709,4.31198,-10.3167
378,-685,4.26245,10.2273,0.0084168,0.00481033,0.00754874,0.0143747,-0.00114756,0.668156,0.00998765,0.0217035,1602,1709,4.2625,-10.2273
385,-685,4.2074,10.0537,0.00926592,0.00669058,0.00784872,0.0159319,2.46083e-05,0.704092,0.0106131,0.0348233,1609,1709,4.20734,-10.0537
392,-685,4.36768,9.81592,0.00898857,0.00806031,0.00868791,0.0172247,-0.000175855,0.758712,0.0115422,0.0386734,1616,1709,4.36773,-9.81597
399,-685,4.64001,9.55688,0.00818594,0.00868549,0.00943212,0.0178711,-0.000999712,0.798636,0.0122609,0.0483043,1623,1709,4.64002,-9.55694
406,-685,4.78662,9.45288,0,0,0,0,0,0,0,-1,1630,1709,4.78666,-9.45288
413,-685,4.29626,9.51099,0,0,0,0,0,0,0,-1,1637,1709,4.29626,-9.51099
420,-685,4.31433,9.03613,0,0,0,0,0,0,0,-1,1644,1709,4.31433,-9.03607
427,-685,4.24365,8.86572,0,0,0,0,0,0,0,-1,1651,1709,4.24363,-8.86568
434,-685,4.87769,8.91418,0,0,0,0,0,0,0,-1,1658,1709,4.87768,-8.91413
441,-685,5.62,8.75549,0,0,0,0,0,0,0,-1,1665,1709,5.61996,-8.75545
448,-685,6.4043,8.58972,0,0,0,0,0,0,0,-1,1672,1709,6.40435,-8.58971
455,-685,2.31958,4.09802,0,0,0,0,0,0,0,-1,1679,1709,2.31957,-4.09803
462,-685,0,0,0,0,0,0,0,0,0,-1,1686,1709,0,0
469,-685,0,0,0,0,0,0,0,0,0,-1,1693,1709,0,0
476,-685,0,0,0,0,0,0,0,0,0,-1,1700,1709,0,0
483,-685,0,0,0,0,0,0,0,0,0,-1,1707,1709,0,0
490,-685,0,0,0,0,0,0,0,0,0,-1,1714,1709,0,0
497,-685,0,0,0,0,0,0,0,0,0,-1,1721,1709,0,0
504,-685,0,0,0,0,0,0,0,0,0,-1,1728,1709,0,0
511,-685,0,0,0,0,0,0,0,0,0,-1,1735,1709,0,0
518,-685,0,0,0,0,0,0,0,0,0,-1,1742,1709,0,0
525,-685,0,0,0,0,0,0,0,0,0,-1,1749,1709,0,0
532,-685,0,0,0,0,0,0,0,0,0,-1,1756,1709,0,0
539,-685,0,0,0,0,0,0,0,0,0,-1,1763,1709,0,0
546,-685,0,0,0,0,0,0,0,0,0,-1,1770,1709,0,0
553,-685,0,0,0,0,0,0,0,0,0,-1,1777,1709,0,0
560,-685,0,0,0,0,0,0,0,0,0,-1,1784,1709,0,0
567,-685,0,0,0,0,0,0,0,0,0,-1,1791,1709,0,0
574,-685,0,0,0,0,0,0,0,0,0,-1,1798,1709,0,0
581,-685,0,0,0,0,0,0,0,0,0,-1,1805,1709,0,0
588,-685,0,0,0,0,0,0,0,0,0,-1,1812,1709,0,0
595,-685,0,0,0,0,0,0,0,0,0,-1,1819,1709,0,0
602,-685,0,0,0,0,0,0,0,0,0,-1,1826,1709,0,0
609,-685,0,0,0,0,0,0,0,0,0,-1,1833,1709,0,0
616,-685,0,0,0,0,0,0,0,0,0,-1,1840,1709,0,0
623,-685,0,0,0,0,0,0,0,0,0,-1,1847,1709,0,0
630,-685,0,0,0,0,0,0,0,0,0,-1,1854,1709,0,0
637,-685,0,0,0,0,0,0,0,0,0,-1,1861,1709,0,0
644,-685,0,0,0,0,0,0,0,0,0,-1,1868,1709,0,0
651,-685,0,0,0,0,0,0,0,0,0,-1,1875,1709,0,0
658,-685,0,0,0,0,0,0,0,0,0,-1,1882,1709,0,0
665,-685,0,0,0,0,0,0,0,0,0,-1,1889,1709,0,0
672,-685,0,0,0,0,0,0,0,0,0,-1,1896,1709,0,0
679,-685,0,0,0,0,0,0,0,0,0,-1,1903,1709,0,0
686,-685,0,0,0,0,0,0,0,0,0,-1,1910,1709,0,0
693,-685,0,0,0,0,0,0,0,0,0,-1,1917,1709,0,0
700,-685,0,0,0,0,0,0,0,0,0,-1,1924,1709,0,0
707,-685,0,0,0,0,0,0,0,0,0,-1,1931,1709,0,0
714,-685,0,0,0,0,0,0,0,0,0,-1,1938,1709,0,0
721,-685,0,0,0,0,0,0,0,0,0,-1,1945,1709,0,0
728,-685,0,0,0,0,0,0,0,0,0,-1,1952,1709,0,0
735,-685,0,0,0,0,0,0,0,0,0,-1,1959,1709,0,0
742,-685,0,0,0,0,0,0,0,0,0,-1,1966,1709,0,0
749,-685,0,0,0,0,0,0,0,0,0,-1,1973,1709,0,0
756,-685,0,0,0,0,0,0,0,0,0,-1,1980,1709,0,0
763,-685,0,0,0,0,0,0,0,0,0,-1,1987,1709,0,0
770,-685,0,0,0,0,0,0,0,0,0,-1,1994,1709,0,0
777,-685,0,0,0,0,0,0,0,0,0,-1,2001,1709,0,0
784,-685,0,0,0,0,0,0,0,0,0,-1,2008,1709,0,0
791,-685,0,0,0,0,0,0,0,0,0,-1,2015,1709,0,0
798,-685,0,0,0,0,0,0,0,0,0,-1,2022,1709,0,0
805,-685,0,0,0,0,0,0,0,0,0,-1,2029,1709,0,0
812,-685,0,0,0,0,0,0,0,0,0,-1,2036,1709,0,0
-700,-692,0,0,0,0,0,0,0,0,0,-1,524,1716,0,0
-693,-692,0,0,0,0,0,0,0,0,0,-1,531,1716,0,0
-686,-692,0,0,0,0,0,0,0,0,0,-1,538,1716,0,0
-679,-692,0,0,0,0,0,0,0,0,0,-1,545,1716,0,0
-672,-692,0,0,0,0,0,0,0,0,0,-1,552,1716,0,0
-665,-692,0,0,0,0,0,0,0,0,0,-1,559,1716,0,0
-658,-692,0,0,0,0,0,0,0,0,0,-1,566,1716,0,0
-651,-692,0,0,0,0,0,0,0,0,0,-1,573,1716,0,0
-644,-692,0,0,0,0,0,0,0,0,0,-1,580,1716,0,0
-637,-692,0,0,0,0,0,0,0,0,0,-1,587,1716,0,0
-630,-692,0,0,0,0,0,0,0,0,0,-1,594,1716,0,0
-623,-692,0,0,0,0,0,0,0,0,0,-1,601,1716,0,0
-616,-692,0,0,0,0,0,0,0,0,0,-1,608,1716,0,0
-609,-692,0,0,0,0,0,0,0,0,0,-1,615,1716,0,0
-602,-692,0,0,0,0,0,0,0,0,0,-1,622,1716,0,0
-595,-692,0,0,0,0,0,0,0,0,0,-1,629,1716,0,0
-588,-692,0,0,0,0,0,0,0,0,0,-1,636,1716,0,0
-581,-692,0,0,0,0,0,0,0,0,0,-1,643,1716,0,0
-574,-692,0,0,0,0,0,0,0,0,0,-1,650,1716,0,0
-567,-692,0,0,0,0,0,0,0,0,0,-1,657,1716,0,0
-560,-692,0,0,0,0,0,0,0,0,0,-1,664,1716,0,0
-553,-692,0,0,0,0,0,0,0,0,0,-1,671,1716,0,0
-546,-692,0,0,0,0,0,0,0,0,0,-1,678,1716,0,0
-539,-692,0,0,0,0,0,0,0,0,0,-1,685,1716,0,0
-532,-692,0,0,0,0,0,0,0,0,0,-1,692,1716,0,0
-525,-692,0,0,0,0,0,0,0,0,0,-1,699,1716,0,0
-518,-692,0,0,0,0,0,0,0,0,0,-1,706,1716,0,0
-511,-692,0,0,0,0,0,0,0,0,0,-1,713,1716,0,0
-504,-692,0,0,0,0,0,0,0,0,0,-1,720,1716,0,0
-497,-692,0,0,0,0,0,0,0,0,0,-1,727,1716,0,0
-490,-692,0,0,0,0,0,0,0,0,0,-1,734,1716,0,0
-483,-692,0,0,0,0,0,0,0,0,0,-1,741,1716,0,0
-476,-692,0,0,0,0,0,0,0,0,0,-1,748,1716,0,0
-469,-692,0,0,0,0,0,0,0,0,0,-1,755,1716,0,0
-462,-692,0,0,0,0,0,0,0,0,0,-1,762,1716,0,0
-455,-692,0,0,0,0,0,0,0,0,0,-1,769,1716,0,0
-448,-692,0,0,0,0,0,0,0,0,0,-1,776,1716,0,0
-441,-692,0,0,0,0,0,0,0,0,0,-1,783,1716,0,0
-434,-692,0,0,0,0,0,0,0,0,0,-1,790,1716,0,0
-427,-692,0,0,0,0,0,0,0,0,0,-1,797,1716,0,0
-420,-692,0,0,0,0,0,0,0,0,0,-1,804,1716,0,0
-413,-692,0,0,0,0,0,0,0,0,0,-1,811,1716,0,0
-406,-692,0,0,0,0,0,0,0,0,0,-1,818,1716,0,0
-399,-692,0,0,0,0,0,0,0,0,0,-1,825,1716,0,0
-392,-692,0,0,0,0,0,0,0,0,0,-1,832,1716,0,0
-385,-692,0,0,0,0,0,0,0,0,0,-1,839,1716,0,0
-378,-692,0,0,0,0,0,0,0,0,0,-1,846,1716,0,0
-371,-692,0,0,0,0,0,0,0,0,0,-1,853,1716,0,0
-364,-692,0,0,0,0,0,0,0,0,0,-1,860,1716,0,0
-357,-692,0,0,0,0,0,0,0,0,0,-1,867,1716,0,0
-350,-692,0,0,0,0,0,0,0,0,0,-1,874,1716,0,0
-343,-692,0,0,0,0,0,0,0,0,0,-1,881,1716,0,0
-336,-692,0,0,0,0,0,0,0,0,0,-1,888,1716,0,0
-329,-692,3.12396,3.50745,0,0,0,0,0,0,0,-1,895,1716,3.12398,-3.50748
-322,-692,3.23596,4.03162,0,0,0,0,0,0,0,-1,902,1716,3.23596,-4.03162
-315,-692,3.14917,4.474,0,0,0,0,0,0,0,-1,909,1716,3.14919,-4.47401
-308,-692,2.92108,4.76416,0,0,0,0,0,0,0,-1,916,1716,2.92107,-4.76417
-301,-692,5.14526,7.5675,0,0,0,0,0,0,0,-1,923,1716,5.14524,-7.56745
-294,-692,5.36365,5.27319,0,0,0,0,0,0,0,-1,930,1716,5.36364,-5.27319
-287,-692,4.15906,7.63538,0,0,0,0,0,0,0,-1,937,1716,4.15904,-7.63536
-280,-692,4.1001,8.04016,0,0,0,0,0,0,0,-1,944,1716,4.10009,-8.04013
-273,-692,4.36737,7.91101,0,0,0,0,0,0,0,-1,951,1716,4.36736,-7.91099
-266,-692,4.57373,7.90967,0,0,0,0,0,0,0,-1,958,1716,4.57372,-7.90962
-259,-692,4.66827,8.43054,-0.000597842,0.0306203,-0.0128336,0.0352188,-0.00519631,-1.22673,0.0253892,0.0464482,965,1716,4.66826,-8.4305
-252,-692,4.6264,8.66748,-0.000199648,0.0224841,-0.0103235,0.0264789,-0.0041944,-1.20158,0.019204,0.048659,972,1716,4.62643,-8.66754
-245,-692,4.52631,8.93945,0,0,0,0,0,0,0,-1,979,1716,4.52631,-8.93945
-238,-692,4.37,9.21704,0,0,0,0,0,0,0,-1,986,1716,4.37002,-9.21708
-231,-692,3.65381,9.7511,-0.00116455,0.00416842,-0.00298149,0.00550187,-0.00249799,-1.15024,0.00472601,0.0325826,993,1716,3.65382,-9.7511
-224,-692,3.61224,9.849,-0.00160247,0.000101565,-0.00100254,0.000565226,-0.00206613,-1.13761,0.00159947,0.0164081,1000,1716,3.61225,-9.84902
-217,-692,3.57501,9.94507,-0.00182953,-0.00241297,0.00064236,-0.00141575,-0.00282675,0.572252,0.00163203,0.0112583,1007,1716,3.57499,-9.94502
-210,-692,3.59808,10.0702,-0.00116161,-0.00315816,0.0018261,-7.87298e-05,-0.00424104,0.535257,0.00280149,0.0120531,1014,1716,3.59807,-10.0702
-203,-692,3.62109,10.1703,-0.000395546,-0.00322781,0.00267932,0.00121886,-0.00484222,0.542288,0.00370194,0.0143349,1021,1716,3.62108,-10.1703
-196,-692,3.59558,10.2867,0.000257565,-0.00279104,0.00317368,0.00225402,-0.0047875,0.561518,0.00415221,0.0174408,1028,1716,3.59552,-10.2867
-189,-692,3.55676,10.3899,0.000674052,-0.00174816,0.00310404,0.00279488,-0.003869,0.599395,0.00386402,0.00910498,1035,1716,3.55682,-10.3899
-182,-692,3.5575,10.4878,0.000955451,-0.000821604,0.00286862,0.00307,-0.00293615,0.635214,0.00346794,0.0135577,1042,1716,3.5575,-10.4878
-175,-692,3.55896,10.6085,0.000995456,7.9609e-05,0.00264095,0.00321789,-0.00214282,0.699555,0.00311569,0.0149848,1049,1716,3.55893,-10.6085
-168,-692,3.57166,10.7379,0.00124854,0.000593318,0.00241599,0.00335903,-0.00151718,0.718009,0.00288145,0.0121231,1056,1716,3.57165,-10.738
-161,-692,3.59436,10.8452,0.00156623,0.000735118,0.00205299,0.0032453,-0.000943951,0.68554,0.0025374,0.0141615,1063,1716,3.59442,-10.8452
-154,-692,3.58813,10.9335,0.00166658,0.000651728,0.00168557,0.00291945,-0.000601141,0.639192,0.00217456,0.0142528,1070,1716,3.58813,-10.9334
-147,-692,3.56677,11.001,0.00173398,0.000337309,0.00133357,0.00254099,-0.000469704,0.5442,0.00187033,0.0129209,1077,1716,3.56679,-11.001
-140,-692,3.56458,11.0892,0.00175413,-0.000387295,0.000923621,0.00209745,-0.00073062,0.355889,0.00169516,0.0101217,1084,1716,3.56454,-11.0893
-133,-692,3.57434,11.1737,0.00184833,-0.00159851,0.00063967,0.00196321,-0.00171339,0.177702,0.00212432,0.00976239,1091,1716,3.5743,-11.1736
-126,-692,3.58643,11.2533,0.0020223,-0.00266795,0.000483022,0.00207152,-0.00271717,0.101564,0.00277312,0.00786464,1098,1716,3.58646,-11.2533
-119,-692,3.57581,11.333,0.00230512,-0.003684,0.000392036,0.00233067,-0.00370956,0.0650878,0.00351749,0.0111787,1105,1716,3.57586,-11.333
-112,-692,3.57764,11.4116,0.00259821,-0.0048534,0.000288713,0.00260938,-0.00486457,0.0386678,0.00438007,0.011266,1112,1716,3.57762,-11.4116
-105,-692,3.61328,11.4791,0.00273872,-0.00576886,0.000170408,0.00274213,-0.00577227,0.0200194,0.00501849,0.0151715,1119,1716,3.61323,-11.4792
-98,-692,3.62756,11.5828,0.00278098,-0.00676873,-0.000107844,0.0027822,-0.00676994,-0.011291,0.00567286,0.0163422,1126,1716,3.62756,-11.5828
-91,-692,3.6012,11.6396,0.00297534,-0.00743495,-0.000281512,0.00298295,-0.00744255,-0.0270154,0.00620001,0.0189725,1133,1716,3.60117,-11.6397
-84,-692,3.58716,11.682,0.00315362,-0.00780866,-0.000404913,0.00316856,-0.0078236,-0.03687,0.00653326,0.0201967,1140,1716,3.5872,-11.682
-77,-692,3.61865,11.8062,0.00326091,-0.0077872,-0.000595408,0.0032929,-0.0078192,-0.0536851,0.0065906,0.0134425,1147,1716,3.61871,-11.8062
-70,-692,3.63464,11.8724,0.00337062,-0.00752061,-0.00074351,0.00342115,-0.00757113,-0.0678473,0.00649541,0.0151605,1154,1716,3.63467,-11.8724
-63,-692,3.65405,11.9148,0.00352849,-0.00720884,-0.000835566,0.00359312,-0.00727347,-0.0771994,0.00639265,0.0202354,1161,1716,3.65404,-11.9148
-56,-692,3.62476,12.1479,0.00199643,-0.00759217,0.000664066,0.00204221,-0.00763794,0.0688179,0.00589188,0.036126,1168,1716,3.62479,-12.1479
-49,-692,3.69092,12.0116,0,0,0,0,0,0,0,-1,1175,1716,3.69088,-12.0116
-42,-692,3.73328,12.1366,0,0,0,0,0,0,0,-1,1182,1716,3.73331,-12.1366
-35,-692,3.67529,12.2341,0,0,0,0,0,0,0,-1,1189,1716,3.67529,-12.2341
-28,-692,3.63501,12.2085,-0.00498207,-0.0102391,0.0142625,0.00689211,-0.0221133,0.694273,0.017498,0.038026,1196,1716,3.63503,-12.2085
-21,-692,3.74646,12.1696,-0.00461017,-0.0114181,0.0166887,0.00901816,-0.0250465,0.684794,0.02038,0.0243443,1203,1716,3.74643,-12.1696
-14,-692,3.76379,12.1824,-0.0045894,-0.0128592,0.0182092,0.0099485,-0.0273971,0.673753,0.0223322,0.0149331,1210,1716,3.7638,-12.1824
-7,-692,3.76465,12.24,-0.00368535,-0.0132708,0.0193425,0.0114493,-0.0284055,0.663953,0.0236942,0.0154857,1217,1716,3.76459,-12.24
0,-692,3.7998,12.2739,-0.00242369,-0.0134558,0.0199798,0.0127876,-0.028667,0.650713,0.0245121,0.0177422,1224,1716,3.79985,-12.274
7,-692,3.8092,12.2833,-0.000883713,-0.0129061,0.0202113,0.0141914,-0.0279812,0.640856,0.0247784,0.02247,1231,1716,3.80918,-12.2833
14,-692,3.86133,12.3363,0.000617119,-0.0121731,0.020077,0.015293,-0.0268489,0.631215,0.0246337,0.0231528,1238,1716,3.86131,-12.3363
21,-692,3.91272,12.3263,0.00236943,-0.0112849,0.019447,0.0161528,-0.0250683,0.616586,0.0239839,0.0234687,1245,1716,3.91267,-12.3263
28,-692,3.87549,12.3201,0.00409947,-0.0102259,0.0185472,0.016819,-0.0229455,0.601127,0.0230487,0.0229757,1252,1716,3.87548,-12.32
35,-692,3.85657,12.354,0.00517122,-0.00904251,0.0172992,0.0167665,-0.0206378,0.590499,0.0216339,0.022382,1259,1716,3.85651,-12.354
42,-692,3.90088,12.4283,0.00620363,-0.00812014,0.0161588,0.0167166,-0.0186331,0.576798,0.0204191,0.0215955,1266,1716,3.90092,-12.4284
49,-692,3.92102,12.4158,0.00760116,-0.00770958,0.0148298,0.016635,-0.0167434,0.547131,0.019271,0.0253911,1273,1716,3.921,-12.4157
56,-692,3.96143,12.4269,0.00904876,-0.00754214,0.0134958,0.0165947,-0.0150881,0.509829,0.018299,0.0318276,1280,1716,3.96147,-12.4269
63,-692,3.98572,12.459,0.00966711,-0.00751544,0.012681,0.0163931,-0.0142414,0.487668,0.0177013,0.0289169,1287,1716,3.98573,-12.4589
70,-692,4.03357,12.4749,0.00919386,-0.00808149,0.0121149,0.0154351,-0.0143227,0.475707,0.0171847,0.0239892,1294,1716,4.03359,-12.4749
77,-692,4.0592,12.4324,0.00836054,-0.00860415,0.0111834,0.0139145,-0.0141582,0.460947,0.016208,0.0283289,1301,1716,4.05925,-12.4324
84,-692,4.09204,12.4673,0.00764454,-0.0094894,0.0106861,0.0127738,-0.0146186,0.447513,0.015827,0.0336114,1308,1716,4.09209,-12.4672
91,-692,4.05408,12.5253,0.00722724,-0.0102941,0.0108979,0.0124492,-0.0155161,0.446845,0.0161781,0.0303182,1315,1716,4.05404,-12.5253
98,-692,4.0116,12.5012,0.00640002,-0.0112838,0.0108263,0.0115362,-0.01642,0.442975,0.0162224,0.0269282,1322,1716,4.01157,-12.5013
105,-692,4.02234,12.4678,0.00551646,-0.0118047,0.0106904,0.0106142,-0.0169024,0.444956,0.0160244,0.0347302,1329,1716,4.02236,-12.4678
112,-692,4.03723,12.4642,0.00469411,-0.0119249,0.0101739,0.00952065,-0.0167515,0.442962,0.0153585,0.0365428,1336,1716,4.03725,-12.4642
119,-692,4.04321,12.4426,0.00391732,-0.01157,0.00954342,0.00846353,-0.0161163,0.444567,0.0144186,0.0289387,1343,1716,4.04318,-12.4427
126,-692,4.0531,12.4421,0.00297812,-0.0109067,0.00873734,0.00719539,-0.0151239,0.449689,0.0131543,0.0275365,1350,1716,4.05305,-12.4421
133,-692,4.05774,12.4087,0.00219466,-0.0102398,0.0078259,0.00597236,-0.0140175,0.449726,0.0118486,0.0212605,1357,1716,4.05768,-12.4087
140,-692,4.00757,12.3793,0.00194007,-0.00945338,0.00695185,0.00523116,-0.0127445,0.442152,0.0106761,0.0264775,1364,1716,4.00762,-12.3793
147,-692,4.03064,12.4138,0.00148655,-0.00833039,0.00575437,0.00414153,-0.0109854,0.432282,0.00902655,0.0297574,1371,1716,4.03062,-12.4138
154,-692,4.11682,12.4752,0.000712868,-0.0063337,0.0047603,0.00311191,-0.00873274,0.466818,0.00709053,0.0265077,1378,1716,4.11678,-12.4752
161,-692,4.25964,12.4205,1.84078e-05,-0.00422336,0.00353538,0.00202028,-0.00622523,0.515224,0.0049626,0.0404975,1385,1716,4.25965,-12.4205
168,-692,4.12305,12.3966,0,0,0,0,0,0,0,-1,1392,1716,4.123,-12.3966
175,-692,4.16174,12.3096,0,0,0,0,0,0,0,-1,1399,1716,4.16172,-12.3095
182,-692,4.14343,12.2449,0,0,0,0,0,0,0,-1,1406,1716,4.14349,-12.2449
189,-692,4.14868,12.2567,0,0,0,0,0,0,0,-1,1413,1716,4.1487,-12.2568
196,-692,4.1521,12.2281,-0.00256489,5.80907e-05,0.00268939,0.00173872,-0.00424553,1.01226,0.00355462,0.0190745,1420,1716,4.15215,-12.2281
203,-692,4.15051,12.1801,-0.00365775,-0.000280447,0.00274351,0.00125245,-0.00519065,1.06127,0.00394476,0.0146457,1427,1716,4.15057,-12.1801
210,-692,4.1814,12.1284,-0.00408886,-0.000906932,0.00261195,0.000560448,-0.00555624,1.05894,0.0039044,0.0170392,1434,1716,4.18138,-12.1284
217,-692,4.19238,12.0753,-0.00424733,-0.00124539,0.00239485,7.99848e-05,-0.0055727,1.06533,0.00374208,0.0170195,1441,1716,4.19239,-12.0754
224,-692,4.18835,12.0436,-0.00397066,-0.0014364,0.0022181,-0.000149007,-0.00525805,1.04491,0.00345677,0.0128556,1448,1716,4.18833,-12.0436
231,-692,4.18311,11.9845,-0.00345729,-0.00162768,0.00193389,-0.000403139,-0.00468183,1.00632,0.0029959,0.0104308,1455,1716,4.18305,-11.9845
238,-692,4.1991,11.8727,-0.00285753,-0.00170654,0.00165263,-0.000532071,-0.004032,0.952946,0.00252937,0.0151148,1462,1716,4.19905,-11.8727
245,-692,4.19543,11.8065,-0.00211368,-0.00203377,0.00137519,-0.000697953,-0.0034495,0.799922,0.00210593,0.0177299,1469,1716,4.19538,-11.8065
252,-692,4.2113,11.777,-0.00148005,-0.0020587,0.00117156,-0.000562623,-0.00297613,0.664342,0.00182568,0.0173337,1476,1716,4.21136,-11.777
259,-692,4.21094,11.7306,-0.000888606,-0.00205112,0.000943297,-0.00036186,-0.00257786,0.509276,0.00161156,0.0095411,1483,1716,4.21089,-11.7307
266,-692,4.19287,11.6736,-0.000313586,-0.00177705,0.000810889,4.6915e-05,-0.00213755,0.418333,0.00144093,0.0095231,1490,1716,4.19292,-11.6736
273,-692,4.1936,11.5699,0.000322331,-0.00125981,0.000686375,0.000578592,-0.00151607,0.357327,0.00124908,0.0139215,1497,1716,4.1936,-11.5699
280,-692,4.21423,11.5024,0.000782736,-0.000599718,0.000825887,0.00116849,-0.00098547,0.436964,0.00124508,0.0141537,1504,1716,4.21427,-11.5024
287,-692,4.2301,11.4623,0.000995056,-0.000210835,0.0011064,0.00165214,-0.000867919,0.535916,0.00147825,0.0111325,1511,1716,4.23005,-11.4623
294,-692,4.22168,11.3741,0.00121038,0.000269271,0.00141866,0.00223449,-0.00075484,0.625264,0.00179498,0.00984675,1518,1716,4.22165,-11.3742
301,-692,4.20325,11.3053,0.00160125,0.000410445,0.00215599,0.00324254,-0.00123085,0.650676,0.00266834,0.0123458,1525,1716,4.20319,-11.3053
308,-692,4.18567,11.2255,0.00199556,0.000177175,0.00279996,0.00403025,-0.00185751,0.62841,0.0034756,0.0155858,1532,1716,4.18571,-11.2254
315,-692,4.21997,11.1212,0.00235879,5.0798e-06,0.00345226,0.00482928,-0.00246541,0.621128,0.00428467,0.0149352,1539,1716,4.21997,-11.1212
322,-692,4.20337,11.0154,0.00294577,-0.000489218,0.00403003,0.00560902,-0.00315247,0.583966,0.0051243,0.0199633,1546,1716,4.20331,-11.0154
329,-692,4.19519,10.9249,0.00370657,-0.000710946,0.00518541,0.00713405,-0.00413842,0.584058,0.00658432,0.0171565,1553,1716,4.19514,-10.9249
336,-692,4.2063,10.8383,0.0044828,-0.00074061,0.00677038,0.00912775,-0.00538556,0.601315,0.0084716,0.01109,1560,1716,4.20629,-10.8382
343,-692,4.2196,10.7285,0.00545107,-0.000748484,0.00799346,0.0109247,-0.00622215,0.60043,0.0100231,0.0124968,1567,1716,4.21957,-10.7285
350,-692,4.21826,10.6056,0.00669668,-0.00025704,0.00918018,0.0130364,-0.00659671,0.604377,0.0115366,0.0129151,1574,1716,4.21826,-10.6056
357,-692,4.19238,10.5142,0.00783642,0.000330825,0.0106292,0.0153558,-0.00718858,0.615696,0.0132977,0.0155674,1581,1716,4.19243,-10.5142
364,-692,4.14734,10.4348,0.00895126,0.00169424,0.0120678,0.0179243,-0.00727876,0.639359,0.0149774,0.0231924,1588,1716,4.14738,-10.4348
371,-692,4.29541,10.3455,0.0102342,0.00401486,0.0134472,0.0209266,-0.00667757,0.671771,0.01663,0.0327844,1595,1716,4.29538,-10.3455
378,-692,4.38867,10.2947,0.0115511,0.00650262,0.0149569,0.0241953,-0.00614157,0.701803,0.01852,0.03748,1602,1716,4.38862,-10.2947
385,-692,4.32568,9.8407,0.0125984,0.00916966,0.0162691,0.0272432,-0.00547512,0.732904,0.0202356,0.0459308,1609,1716,4.32566,-9.84067
392,-692,4.14343,9.26306,0,0,0,0,0,0,0,-1,1616,1716,4.14348,-9.26301
399,-692,4.69727,9.18848,0,0,0,0,0,0,0,-1,1623,1716,4.69724,-9.18844
406,-692,3.93835,7.90723,0,0,0,0,0,0,0,-1,1630,1716,3.93838,-7.90717
413,-692,4.5155,7.74878,0,0,0,0,0,0,0,-1,1637,1716,4.51549,-7.74883
420,-692,4.20349,9.18311,0,0,0,0,0,0,0,-1,1644,1716,4.20355,-9.18313
427,-692,3.79578,8.60339,0,0,0,0,0,0,0,-1,1651,1716,3.79577,-8.6034
434,-692,4.78516,8.64636,0,0,0,0,0,0,0,-1,1658,1716,4.78512,-8.64634
441,-692,5.8208,8.74036,0,0,0,0,0,0,0,-1,1665,1716,5.82084,-8.7404
448,-692,6.73792,8.51013,0,0,0,0,0,0,0,-1,1672,1716,6.73793,-8.5101
455,-692,0,0,0,0,0,0,0,0,0,-1,1679,1716,0,0
462,-692,0,0,0,0,0,0,0,0,0,-1,1686,1716,0,0
469,-692,0,0,0,0,0,0,0,0,0,-1,1693,1716,0,0
476,-692,0,0,0,0,0,0,0,0,0,-1,1700,1716,0,0
483,-692,0,0,0,0,0,0,0,0,0,-1,1707,1716,0,0
490,-692,0,0,0,0,0,0,0,0,0,-1,1714,1716,0,0
497,-692,0,0,0,0,0,0,0,0,0,-1,1721,1716,0,0
504,-692,0,0,0,0,0,0,0,0,0,-1,1728,1716,0,0
511,-692,0,0,0,0,0,0,0,0,0,-1,1735,1716,0,0
518,-692,0,0,0,0,0,0,0,0,0,-1,1742,1716,0,0
525,-692,0,0,0,0,0,0,0,0,0,-1,1749,1716,0,0
532,-692,0,0,0,0,0,0,0,0,0,-1,1756,1716,0,0
539,-692,0,0,0,0,0,0,0,0,0,-1,1763,1716,0,0
546,-692,0,0,0,0,0,0,0,0,0,-1,1770,1716,0,0
553,-692,0,0,0,0,0,0,0,0,0,-1,1777,1716,0,0
560,-692,0,0,0,0,0,0,0,0,0,-1,1784,1716,0,0
567,-692,0,0,0,0,0,0,0,0,0,-1,1791,1716,0,0
574,-692,0,0,0,0,0,0,0,0,0,-1,1798,1716,0,0
581,-692,0,0,0,0,0,0,0,0,0,-1,1805,1716,0,0
588,-692,0,0,0,0,0,0,0,0,0,-1,1812,1716,0,0
595,-692,0,0,0,0,0,0,0,0,0,-1,1819,1716,0,0
602,-692,0,0,0,0,0,0,0,0,0,-1,1826,1716,0,0
609,-692,0,0,0,0,0,0,0,0,0,-1,1833,1716,0,0
616,-692,0,0,0,0,0,0,0,0,0,-1,1840,1716,0,0
623,-692,0,0,0,0,0,0,0,0,0,-1,1847,1716,0,0
630,-692,0,0,0,0,0,0,0,0,0,-1,1854,1716,0,0
637,-692,0,0,0,0,0,0,0,0,0,-1,1861,1716,0,0
644,-692,0,0,0,0,0,0,0,0,0,-1,1868,1716,0,0
651,-692,0,0,0,0,0,0,0,0,0,-1,1875,1716,0,0
658,-692,0,0,0,0,0,0,0,0,0,-1,1882,1716,0,0
665,-692,0,0,0,0,0,0,0,0,0,-1,1889,1716,0,0
672,-692,0,0,0,0,0,0,0,0,0,-1,1896,1716,0,0
679,-692,0,0,0,0,0,0,0,0,0,-1,1903,1716,0,0
686,-692,0,0,0,0,0,0,0,0,0,-1,1910,1716,0,0
693,-692,0,0,0,0,0,0,0,0,0,-1,1917,1716,0,0
700,-692,0,0,0,0,0,0,0,0,0,-1,1924,1716,0,0
707,-692,0,0,0,0,0,0,0,0,0,-1,1931,1716,0,0
714,-692,0,0,0,0,0,0,0,0,0,-1,1938,1716,0,0
721,-692,0,0,0,0,0,0,0,0,0,-1,1945,1716,0,0
728,-692,0,0,0,0,0,0,0,0,0,-1,1952,1716,0,0
735,-692,0,0,0,0,0,0,0,0,0,-1,1959,1716,0,0
742,-692,0,0,0,0,0,0,0,0,0,-1,1966,1716,0,0
749,-692,0,0,0,0,0,0,0,0,0,-1,1973,1716,0,0
756,-692,0,0,0,0,0,0,0,0,0,-1,1980,1716,0,0
763,-692,0,0,0,0,0,0,0,0,0,-1,1987,1716,0,0
770,-692,0,0,0,0,0,0,0,0,0,-1,1994,1716,0,0
777,-692,0,0,0,0,0,0,0,0,0,-1,2001,1716,0,0
784,-692,0,0,0,0,0,0,0,0,0,-1,2008,1716,0,0
791,-692,0,0,0,0,0,0,0,0,0,-1,2015,1716,0,0
798,-692,0,0,0,0,0,0,0,0,0,-1,2022,1716,0,0
805,-692,0,0,0,0,0,0,0,0,0,-1,2029,1716,0,0
812,-692,0,0,0,0,0,0,0,0,0,-1,2036,1716,0,0
-700,-699,0,0,0,0,0,0,0,0,0,-1,524,1723,0,0
-693,-699,0,0,0,0,0,0,0,0,0,-1,531,1723,0,0
-686,-699,0,0,0,0,0,0,0,0,0,-1,538,1723,0,0
-679,-699,0,0,0,0,0,0,0,0,0,-1,545,1723,0,0
-672,-699,0,0,0,0,0,0,0,0,0,-1,552,1723,0,0
-665,-699,0,0,0,0,0,0,0,0,0,-1,559,1723,0,0
-658,-699,0,0,0,0,0,0,0,0,0,-1,566,1723,0,0
-651,-699,0,0,0,0,0,0,0,0,0,-1,573,1723,0,0
-644,-699,0,0,0,0,0,0,0,0,0,-1,580,1723,0,0
-637,-699,0,0,0,0,0,0,0,0,0,-1,587,1723,0,0
-630,-699,0,0,0,0,0,0,0,0,0,-1,594,1723,0,0
-623,-699,0,0,0,0,0,0,0,0,0,-1,601,1723,0,0
-616,-699,0,0,0,0,0,0,0,0,0,-1,608,1723,0,0
-609,-699,0,0,0,0,0,0,0,0,0,-1,615,1723,0,0
-602,-699,0,0,0,0,0,0,0,0,0,-1,622,1723,0,0
-595,-699,0,0,0,0,0,0,0,0,0,-1,629,1723,0,0
-588,-699,0,0,0,0,0,0,0,0,0,-1,636,1723,0,0
-581,-699,0,0,0,0,0,0,0,0,0,-1,643,1723,0,0
-574,-699,0,0,0,0,0,0,0,0,0,-1,650,1723,0,0
-567,-699,0,0,0,0,0,0,0,0,0,-1,657,1723,0,0
-560,-699,0,0,0,0,0,0,0,0,0,-1,664,1723,0,0
-553,-699,0,0,0,0,0,0,0,0,0,-1,671,1723,0,0
-546,-699,0,0,0,0,0,0,0,0,0,-1,678,1723,0,0
-539,-699,0,0,0,0,0,0,0,0,0,-1,685,1723,0,0
-532,-699,0,0,0,0,0,0,0,0,0,-1,692,1723,0,0
-525,-699,0,0,0,0,0,0,0,0,0,-1,699,1723,0,0
-518,-699,0,0,0,0,0,0,0,0,0,-1,706,1723,0,0
-511,-699,0,0,0,0,0,0,0,0,0,-1,713,1723,0,0
-504,-699,0,0,0,0,0,0,0,0,0,-1,720,1723,0,0
-497,-699,0,0,0,0,0,0,0,0,0,-1,727,1723,0,0
-490,-699,0,0,0,0,0,0,0,0,0,-1,734,1723,0,0
-483,-699,0,0,0,0,0,0,0,0,0,-1,741,1723,0,0
-476,-699,0,0,0,0,0,0,0,0,0,-1,748,1723,0,0
-469,-699,0,0,0,0,0,0,0,0,0,-1,755,1723,0,0
-462,-699,0,0,0,0,0,0,0,0,0,-1,762,1723,0,0
-455,-699,0,0,0,0,0,0,0,0,0,-1,769,1723,0,0
-448,-699,0,0,0,0,0,0,0,0,0,-1,776,1723,0,0
-441,-699,0,0,0,0,0,0,0,0,0,-1,783,1723,0,0
-434,-699,0,0,0,0,0,0,0,0,0,-1,790,1723,0,0
-427,-699,0,0,0,0,0,0,0,0,0,-1,797,1723,0,0
-420,-699,0,0,0,0,0,0,0,0,0,-1,804,1723,0,0
-413,-699,0,0,0,0,0,0,0,0,0,-1,811,1723,0,0
-406,-699,0,0,0,0,0,0,0,0,0,-1,818,1723,0,0
-399,-699,0,0,0,0,0,0,0,0,0,-1,825,1723,0,0
-392,-699,0,0,0,0,0,0,0,0,0,-1,832,1723,0,0
-385,-699,0,0,0,0,0,0,0,0,0,-1,839,1723,0,0
-378,-699,0,0,0,0,0,0,0,0,0,-1,846,1723,0,0
-371,-699,0,0,0,0,0,0,0,0,0,-1,853,1723,0,0
-364,-699,0,0,0,0,0,0,0,0,0,-1,860,1723,0,0
-357,-699,0,0,0,0,0,0,0,0,0,-1,867,1723,0,0
-350,-699,0,0,0,0,0,0,0,0,0,-1,874,1723,0,0
-343,-699,0,0,0,0,0,0,0,0,0,-1,881,1723,0,0
-336,-699,0,0,0,0,0,0,0,0,0,-1,888,1723,0,0
-329,-699,0,0,0,0,0,0,0,0,0,-1,895,1723,0,0
-322,-699,0,0,0,0,0,0,0,0,0,-1,902,1723,0,0
-315,-699,1.47852,5.25037,0,0,0,0,0,0,0,-1,909,1723,1.47853,-5.25039
-308,-699,2.01111,5.2334,0,0,0,0,0,0,0,-1,916,1723,2.01109,-5.23345
-301,-699,2.41266,5.38928,0,0,0,0,0,0,0,-1,923,1723,2.41267,-5.38929
-294,-699,4.30652,9.12256,0,0,0,0,0,0,0,-1,930,1723,4.30653,-9.12261
-287,-699,4.35876,7.61853,0,0,0,0,0,0,0,-1,937,1723,4.35875,-7.61851
-280,-699,4.58282,7.59375,0.00273796,0.0707252,-0.0242274,0.0784752,-0.00501206,-1.2612,0.054065,0.0486715,944,1723,4.58285,-7.59378
-273,-699,4.77838,7.58618,0.004828,0.0595899,-0.0221163,0.0674062,-0.00298828,-1.23108,0.045966,0.0477131,951,1723,4.77838,-7.58619
-266,-699,4.99127,7.58667,0,0,0,0,0,0,0,-1,958,1723,4.99129,-7.58665
-259,-699,5.23962,8.05591,0,0,0,0,0,0,0,-1,965,1723,5.23962,-8.05592
-252,-699,5.38702,8.3197,0,0,0,0,0,0,0,-1,972,1723,5.38703,-8.31971
-245,-699,5.35547,8.54248,0,0,0,0,0,0,0,-1,979,1723,5.35549,-8.54245
-238,-699,3.35944,10.1921,0,0,0,0,0,0,0,-1,986,1723,3.35945,-10.1921
-231,-699,3.59845,10.0564,-0.00182595,0.00379774,-0.00329468,0.00531734,-0.00334554,-1.13865,0.00504452,0.040903,993,1723,3.59846,-10.0564
-224,-699,3.74719,9.91687,-0.00260077,-0.00125031,-0.000787098,-0.000888497,-0.00296259,-1.13992,0.00175551,0.0344123,1000,1723,3.7472,-9.91681
-217,-699,3.69122,9.94946,-0.00297323,-0.00413476,0.00130415,-0.00212637,-0.00498162,0.575922,0.00288638,0.0239508,1007,1723,3.69121,-9.94944
-210,-699,3.7088,10.0505,-0.0020308,-0.00466472,0.00281523,-0.000239724,-0.0064558,0.56662,0.00422622,0.0166715,1014,1723,3.70881,-10.0506
-203,-699,3.72498,10.1493,-0.00097191,-0.00435462,0.0039101,0.00159697,-0.0069235,0.58127,0.0052299,0.0198778,1021,1723,3.72497,-10.1493
-196,-699,3.70178,10.2468,-7.92265e-05,-0.00346229,0.00452975,0.00306452,-0.00660603,0.606703,0.00570673,0.0174251,1028,1723,3.70182,-10.2468
-189,-699,3.67236,10.3868,0.000510111,-0.00193678,0.0044564,0.00390796,-0.00533463,0.651431,0.00535736,0.00910804,1035,1723,3.6724,-10.3869
-182,-699,3.6781,10.4967,0.000804955,-0.000580527,0.00414865,0.0043183,-0.00409387,0.702671,0.00485735,0.0121022,1042,1723,3.67805,-10.4967
-175,-699,3.67371,10.6281,0.000708466,0.000706365,0.00387166,0.00457908,-0.00316424,0.785262,0.00449541,0.0143546,1049,1723,3.67376,-10.6281
-168,-699,3.68652,10.7363,0.000873968,0.00151368,0.00351205,0.00472041,-0.00233276,0.83081,0.0041492,0.0153539,1056,1723,3.68654,-10.7363
-161,-699,3.70032,10.8303,0.00113433,0.00188039,0.00296102,0.00449179,-0.00147707,0.848058,0.00358965,0.0132211,1063,1723,3.70028,-10.8303
-154,-699,3.67896,10.9352,0.00114912,0.00194703,0.00237979,0.00396107,-0.000864922,0.868447,0.00297128,0.012984,1070,1723,3.6789,-10.9352
-147,-699,3.66101,11.0159,0.00113981,0.00174483,0.00180603,0.00327351,-0.000388864,0.868378,0.00232283,0.0142034,1077,1723,3.661,-11.0159
-140,-699,3.651,11.0817,0.00095081,0.00118328,0.00123935,0.00231183,-0.000177748,0.832154,0.00160376,0.00956295,1084,1723,3.65096,-11.0817
-133,-699,3.67078,11.1758,0.00082779,0.000115621,0.000858723,0.00140133,-0.000457919,0.588855,0.00111855,0.00886728,1091,1723,3.67078,-11.1758
-126,-699,3.68433,11.2534,0.000872435,-0.000849247,0.000621442,0.00107331,-0.00105012,0.312637,0.00122599,0.0113032,1098,1723,3.68436,-11.2534
-119,-699,3.6825,11.3386,0.00109672,-0.00167764,0.000521881,0.00119165,-0.00177256,0.179919,0.0017223,0.0164406,1105,1723,3.68246,-11.3387
-112,-699,3.64514,11.4124,0.0013911,-0.00258438,0.000417998,0.00143458,-0.00262786,0.103634,0.00237894,0.0121219,1112,1723,3.64511,-11.4123
-105,-699,3.65381,11.4963,0.00160624,-0.00327373,0.00031002,0.00162586,-0.00329335,0.0631904,0.00289399,0.0125853,1119,1723,3.65385,-11.4963
-98,-699,3.68994,11.575,0.00175359,-0.00397157,0.000153618,0.00175771,-0.00397569,0.0268064,0.00339174,0.0138655,1126,1723,3.68996,-11.5749
-91,-699,3.69629,11.6512,0.00187073,-0.00438501,4.78867e-05,0.0018711,-0.00438538,0.00765423,0.00370813,0.019911,1133,1723,3.69626,-11.6512
-84,-699,3.6969,11.7316,0.00197147,-0.00456459,-3.2759e-06,0.00197147,-0.0045646,-0.000501203,0.00387133,0.0235547,1140,1723,3.69687,-11.7315
-77,-699,3.69543,11.7915,0.0020758,-0.0045121,-0.000120065,0.00207798,-0.00451428,-0.0182171,0.00389172,0.0162439,1147,1723,3.6954,-11.7914
-70,-699,3.69189,11.8683,0.00217781,-0.00433116,-0.000245433,0.00218705,-0.0043404,-0.0376357,0.00383637,0.0172708,1154,1723,3.69189,-11.8683
-63,-699,3.70862,11.9261,0.00233248,-0.00412428,-0.000350847,0.00235149,-0.00414329,-0.0541255,0.00379703,0.0148929,1161,1723,3.70866,-11.9261
-56,-699,3.71826,11.9624,0.00166159,-0.0043648,0.000416217,0.0016902,-0.00439341,0.0686315,0.00362611,0.010148,1168,1723,3.71832,-11.9624
-49,-699,3.7196,12.0304,9.09365e-05,-0.00525603,0.00251804,0.00109006,-0.00625515,0.377732,0.00457693,0.0192466,1175,1723,3.71958,-12.0303
-42,-699,3.72632,12.0935,-0.000976205,-0.00620224,0.00431222,0.00145291,-0.00863135,0.513004,0.00629468,0.0216326,1182,1723,3.72636,-12.0936
-35,-699,3.72925,12.1307,-0.00151725,-0.00650481,0.00656284,0.00300963,-0.0110317,0.603831,0.00853639,0.0208912,1189,1723,3.72929,-12.1307
-28,-699,3.75757,12.176,-0.0017729,-0.00686685,0.00885768,0.00489672,-0.0135365,0.645403,0.0110252,0.0161504,1196,1723,3.75756,-12.176
-21,-699,3.75903,12.1798,-0.00185217,-0.00802262,0.010492,0.00599884,-0.0158736,0.642402,0.01305,0.0115927,1203,1723,3.75905,-12.1798
-14,-699,3.7583,12.2227,-0.00200427,-0.00928739,0.0116481,0.00655822,-0.0178499,0.633896,0.014586,0.0112443,1210,1723,3.75831,-12.2226
-7,-699,3.7666,12.2806,-0.00158977,-0.00975143,0.0125939,0.00756799,-0.0189092,0.62872,0.0157471,0.00909102,1217,1723,3.76657,-12.2806
0,-699,3.78418,12.3231,-0.00096109,-0.0100419,0.0131598,0.00841955,-0.0194226,0.619281,0.0164878,0.0102842,1224,1723,3.78422,-12.3231
7,-699,3.80444,12.348,-0.000176128,-0.00975359,0.0134447,0.00930719,-0.0192369,0.614313,0.016809,0.0154417,1231,1723,3.80445,-12.3481
14,-699,3.82446,12.3781,0.00056344,-0.00930936,0.0133999,0.00990724,-0.0186532,0.608916,0.0167451,0.0164223,1238,1723,3.82446,-12.3781
21,-699,3.85254,12.3801,0.00151797,-0.00871794,0.0129967,0.0103681,-0.017568,0.597827,0.0163065,0.0149561,1245,1723,3.85252,-12.3802
28,-699,3.85364,12.3953,0.00248402,-0.00800574,0.0124199,0.0107211,-0.0162428,0.585609,0.0156761,0.0140138,1252,1723,3.85367,-12.3953
35,-699,3.86047,12.4409,0.00301675,-0.00715919,0.0116117,0.0106063,-0.0147488,0.57891,0.0147037,0.0127949,1259,1723,3.86052,-12.4409
42,-699,3.88696,12.4496,0.00363332,-0.00647898,0.0109192,0.0106102,-0.0134559,0.568571,0.0139269,0.0129097,1266,1723,3.88702,-12.4495
49,-699,3.89502,12.4565,0.0046151,-0.00618143,0.0100567,0.0106308,-0.0121971,0.539079,0.0131901,0.0146197,1273,1723,3.89507,-12.4566
56,-699,3.90991,12.488,0.00566048,-0.00605579,0.00921195,0.0107192,-0.0111145,0.502189,0.0126064,0.0150187,1280,1723,3.90987,-12.4881
63,-699,3.94385,12.5004,0.00606206,-0.00606495,0.00881564,0.0106982,-0.0107011,0.484149,0.0123548,0.0129445,1287,1723,3.94383,-12.5003
70,-699,3.94702,12.5165,0.00576723,-0.00651381,0.00863986,0.0102264,-0.010973,0.476456,0.012242,0.0107419,1294,1723,3.94705,-12.5164
77,-699,3.94666,12.5055,0.00539353,-0.00694424,0.00818439,0.00947352,-0.0110242,0.462454,0.0118457,0.0108618,1301,1723,3.94668,-12.5054
84,-699,3.95142,12.4889,0.00509152,-0.00751759,0.0080374,0.00900201,-0.0114281,0.452819,0.011823,0.0131491,1308,1723,3.95139,-12.4889
91,-699,3.94946,12.5107,0.0048534,-0.00803393,0.00817776,0.00882111,-0.0120016,0.451723,0.0120687,0.0119029,1315,1723,3.94947,-12.5107
98,-699,3.98242,12.5327,0.00431623,-0.00865907,0.00808141,0.00819192,-0.0125348,0.447179,0.0120538,0.0110328,1322,1723,3.98244,-12.5327
105,-699,3.98523,12.5349,0.00373351,-0.00892614,0.00791881,0.00754145,-0.0127341,0.448229,0.0118334,0.0162026,1329,1723,3.98523,-12.5349
112,-699,3.97144,12.5016,0.00320416,-0.00887364,0.00745814,0.00676173,-0.0124312,0.445083,0.011241,0.0225101,1336,1723,3.97141,-12.5015
119,-699,3.97888,12.5015,0.00270591,-0.00849633,0.00692016,0.00600766,-0.0117981,0.445177,0.0104598,0.0160879,1343,1723,3.9789,-12.5015
126,-699,4.01172,12.5015,0.00210548,-0.007863,0.00622238,0.00509373,-0.0108513,0.447718,0.00940376,0.0170326,1350,1723,4.01177,-12.5014
133,-699,4.05591,12.4822,0.00161427,-0.00717297,0.00544794,0.0042195,-0.00977821,0.44606,0.00829127,0.0149317,1357,1723,4.05585,-12.4821
140,-699,4.06165,12.4565,0.00152601,-0.00641958,0.00472243,0.00372447,-0.00861804,0.435699,0.00731027,0.0154174,1364,1723,4.06163,-12.4565
147,-699,4.05798,12.4429,0.00124897,-0.005432,0.00377276,0.00294759,-0.00713062,0.423047,0.00598339,0.013628,1371,1723,4.05795,-12.4429
154,-699,4.04065,12.4252,0.000728483,-0.00385968,0.00304021,0.00224303,-0.00537423,0.462185,0.00451998,0.0128715,1378,1723,4.04068,-12.4252
161,-699,4.07568,12.3827,0.000312904,-0.00230832,0.00219063,0.00155504,-0.00355046,0.515821,0.00302178,0.00940503,1385,1723,4.07568,-12.3827
168,-699,4.08435,12.36,-0.000252031,-0.0014339,0.00175648,0.00101025,-0.00269618,0.62313,0.00221247,0.0110697,1392,1723,4.08432,-12.36
175,-699,4.0802,12.3243,-0.000311101,-0.000840028,0.00106402,0.00052083,-0.00167196,0.663591,0.00132288,0.0126591,1399,1723,4.08024,-12.3243
182,-699,4.09094,12.2825,-0.000310546,-0.000481952,0.00146814,0.00107439,-0.00186689,0.756244,0.00171857,0.0132206,1406,1723,4.09094,-12.2825
189,-699,4.10718,12.2513,-0.000759952,0.000323629,0.00165475,0.00152303,-0.00195935,0.943605,0.00201581,0.0159509,1413,1723,4.10716,-12.2513
196,-699,4.10852,12.2089,-0.00149766,0.000244556,0.00195786,0.00151636,-0.00276946,0.994712,0.00250943,0.0158122,1420,1723,4.10858,-12.2089
203,-699,4.09937,12.1578,-0.00224462,2.75161e-05,0.00195546,0.00115297,-0.00337008,1.04855,0.00271395,0.0132653,1427,1723,4.09942,-12.1578
210,-699,4.11108,12.1129,-0.00255839,-0.000376726,0.00179066,0.000629197,-0.00356431,1.05897,0.00261133,0.0132443,1434,1723,4.11114,-12.1129
217,-699,4.13757,12.0905,-0.00269482,-0.00061175,0.0015368,0.000203202,-0.00350978,1.08321,0.00241044,0.0139675,1441,1723,4.13761,-12.0904
224,-699,4.1366,12.0431,-0.00256286,-0.000735659,0.00130716,-5.44782e-05,-0.00324404,1.0904,0.00214476,0.0146657,1448,1723,4.13659,-12.0431
231,-699,4.13306,11.9811,-0.00230376,-0.000879856,0.00104034,-0.000331181,-0.00285243,1.08547,0.0018014,0.0107444,1455,1723,4.13305,-11.9811
238,-699,4.1134,11.9148,-0.0019364,-0.000925033,0.000773135,-0.00050689,-0.00235454,1.07501,0.00143098,0.00973644,1462,1723,4.11334,-11.9148
245,-699,4.12134,11.849,-0.00155991,-0.000980366,0.000506467,-0.000686635,-0.00185364,1.04524,0.00108211,0.0112459,1469,1723,4.12135,-11.849
252,-699,4.13391,11.7925,-0.00116983,-0.000785737,0.000333836,-0.00059265,-0.00136292,1.04642,0.000789105,0.00983835,1476,1723,4.13386,-11.7925
259,-699,4.1272,11.7356,-0.000680233,-0.000569329,0.000299377,-0.000320312,-0.00092925,0.876973,0.000545061,0.00989279,1483,1723,4.12724,-11.7356
266,-699,4.13257,11.6832,-0.000105305,-0.00035012,0.000528866,0.000315135,-0.00077056,0.671675,0.000644947,0.0121957,1490,1723,4.13254,-11.6832
273,-699,4.1344,11.5876,0.000475642,0.000131241,0.00074383,0.00106694,-0.000460061,0.67165,0.000904528,0.0117766,1497,1723,4.13445,-11.5876
280,-699,4.14868,11.4999,0.000983597,0.000665915,0.00122739,0.00206238,-0.000412871,0.721049,0.00153121,0.0124466,1504,1723,4.14872,-11.4999
287,-699,4.13904,11.415,0.00135656,0.000820071,0.00192828,0.00303516,-0.000858533,0.716287,0.00236221,0.0105331,1511,1723,4.13899,-11.415
294,-699,4.13721,11.3472,0.00177003,0.00111851,0.00266217,0.0041263,-0.00123776,0.724518,0.00324317,0.0100534,1518,1723,4.13719,-11.3472
301,-699,4.13684,11.3032,0.00250693,0.000905601,0.00394472,0.00573142,-0.00231889,0.685273,0.00478502,0.0120268,1525,1723,4.13678,-11.3032
308,-699,4.13843,11.2294,0.00326701,0.000207249,0.00503346,0.00699795,-0.0035237,0.637864,0.00618408,0.0174485,1532,1723,4.13842,-11.2293
315,-699,4.1571,11.1201,0.00395239,-0.000396882,0.00612235,0.00827485,-0.00471934,0.61475,0.00759523,0.0197653,1539,1723,4.15714,-11.1202
322,-699,4.15076,11.0214,0.00489012,-0.00132809,0.00708791,0.00952084,-0.00595882,0.578711,0.00901571,0.0193336,1546,1723,4.15076,-11.0213
329,-699,4.12024,10.9196,0.00598038,-0.00166363,0.00891385,0.0118571,-0.00754031,0.582868,0.0112911,0.014584,1553,1723,4.12019,-10.9196
336,-699,4.12012,10.818,0.00704997,-0.00171527,0.0114255,0.0149045,-0.00956984,0.602261,0.0142417,0.0117433,1560,1723,4.12014,-10.818
343,-699,4.12305,10.7178,0.00830304,-0.00172401,0.013422,0.0176173,-0.0110383,0.606657,0.016689,0.0166699,1567,1723,4.1231,-10.7178
350,-699,4.12549,10.6254,0.00981579,-0.00103289,0.0155349,0.0208461,-0.0120632,0.61743,0.0192244,0.0277528,1574,1723,4.12553,-10.6254
357,-699,4.02722,10.5632,0.0111595,-0.000155745,0.0181139,0.0244787,-0.013475,0.63403,0.0222174,0.0380342,1581,1723,4.02728,-10.5633
364,-699,3.97363,10.4318,0.0124943,0.0017772,0.0208487,0.0286621,-0.0143906,0.65961,0.0253076,0.0417197,1588,1723,3.97365,-10.4317
371,-699,4.34741,10.4077,0.0137605,0.00536877,0.0233864,0.0333245,-0.0141952,0.696635,0.0281668,0.043597,1595,1723,4.34745,-10.4077
378,-699,4.59436,10.2599,0.0152754,0.00881077,0.0264173,0.0386575,-0.0145713,0.724523,0.0317631,0.0459713,1602,1723,4.59434,-10.2599
385,-699,4.65747,9.85583,0,0,0,0,0,0,0,-1,1609,1723,4.65742,-9.85579
392,-699,3.52039,9.8374,0,0,0,0,0,0,0,-1,1616,1723,3.52036,-9.83746
399,-699,3.91516,9.81726,0,0,0,0,0,0,0,-1,1623,1723,3.9152,-9.81721
406,-699,3.91016,10.458,0,0,0,0,0,0,0,-1,1630,1723,3.91015,-10.458
413,-699,4.92773,3.5918,0,0,0,0,0,0,0,-1,1637,1723,4.92777,-3.59182
420,-699,2.15076,7.65527,0,0,0,0,0,0,0,-1,1644,1723,2.15079,-7.65522
427,-699,3.36328,8.2428,0,0,0,0,0,0,0,-1,1651,1723,3.36332,-8.24283
434,-699,4.66455,8.90222,0,0,0,0,0,0,0,-1,1658,1723,4.66456,-8.90223
441,-699,0,0,0,0,0,0,0,0,0,-1,1665,1723,0,0
448,-699,0,0,0,0,0,0,0,0,0,-1,1672,1723,0,0
455,-699,0,0,0,0,0,0,0,0,0,-1,1679,1723,0,0
462,-699,0,0,0,0,0,0,0,0,0,-1,1686,1723,0,0
469,-699,0,0,0,0,0,0,0,0,0,-1,1693,1723,0,0
476,-699,0,0,0,0,0,0,0,0,0,-1,1700,1723,0,0
483,-699,0,0,0,0,0,0,0,0,0,-1,1707,1723,0,0
490,-699,0,0,0,0,0,0,0,0,0,-1,1714,1723,0,0
497,-699,0,0,0,0,0,0,0,0,0,-1,1721,1723,0,0
504,-699,0,0,0,0,0,0,0,0,0,-1,1728,1723,0,0
511,-699,0,0,0,0,0,0,0,0,0,-1,1735,1723,0,0
518,-699,0,0,0,0,0,0,0,0,0,-1,1742,1723,0,0
525,-699,0,0,0,0,0,0,0,0,0,-1,1749,1723,0,0
532,-699,0,0,0,0,0,0,0,0,0,-1,1756,1723,0,0
539,-699,0,0,0,0,0,0,0,0,0,-1,1763,1723,0,0
546,-699,0,0,0,0,0,0,0,0,0,-1,1770,1723,0,0
553,-699,0,0,0,0,0,0,0,0,0,-1,1777,1723,0,0
560,-699,0,0,0,0,0,0,0,0,0,-1,1784,1723,0,0
567,-699,0,0,0,0,0,0,0,0,0,-1,1791,1723,0,0
574,-699,0,0,0,0,0,0,0,0,0,-1,1798,1723,0,0
581,-699,0,0,0,0,0,0,0,0,0,-1,1805,1723,0,0
588,-699,0,0,0,0,0,0,0,0,0,-1,1812,1723,0,0
595,-699,0,0,0,0,0,0,0,0,0,-1,1819,1723,0,0
602,-699,0,0,0,0,0,0,0,0,0,-1,1826,1723,0,0
609,-699,0,0,0,0,0,0,0,0,0,-1,1833,1723,0,0
616,-699,0,0,0,0,0,0,0,0,0,-1,1840,1723,0,0
623,-699,0,0,0,0,0,0,0,0,0,-1,1847,1723,0,0
630,-699,0,0,0,0,0,0,0,0,0,-1,1854,1723,0,0
637,-699,0,0,0,0,0,0,0,0,0,-1,1861,1723,0,0
644,-699,0,0,0,0,0,0,0,0,0,-1,1868,1723,0,0
651,-699,0,0,0,0,0,0,0,0,0,-1,1875,1723,0,0
658,-699,0,0,0,0,0,0,0,0,0,-1,1882,1723,0,0
665,-699,0,0,0,0,0,0,0,0,0,-1,1889,1723,0,0
672,-699,0,0,0,0,0,0,0,0,0,-1,1896,1723,0,0
679,-699,0,0,0,0,0,0,0,0,0,-1,1903,1723,0,0
686,-699,0,0,0,0,0,0,0,0,0,-1,1910,1723,0,0
693,-699,0,0,0,0,0,0,0,0,0,-1,1917,1723,0,0
700,-699,0,0,0,0,0,0,0,0,0,-1,1924,1723,0,0
707,-699,0,0,0,0,0,0,0,0,0,-1,1931,1723,0,0
714,-699,0,0,0,0,0,0,0,0,0,-1,1938,1723,0,0
721,-699,0,0,0,0,0,0,0,0,0,-1,1945,1723,0,0
728,-699,0,0,0,0,0,0,0,0,0,-1,1952,1723,0,0
735,-699,0,0,0,0,0,0,0,0,0,-1,1959,1723,0,0
742,-699,0,0,0,0,0,0,0,0,0,-1,1966,1723,0,0
749,-699,0,0,0,0,0,0,0,0,0,-1,1973,1723,0,0
756,-699,0,0,0,0,0,0,0,0,0,-1,1980,1723,0,0
763,-699,0,0,0,0,0,0,0,0,0,-1,1987,1723,0,0
770,-699,0,0,0,0,0,0,0,0,0,-1,1994,1723,0,0
777,-699,0,0,0,0,0,0,0,0,0,-1,2001,1723,0,0
784,-699,0,0,0,0,0,0,0,0,0,-1,2008,1723,0,0
791,-699,0,0,0,0,0,0,0,0,0,-1,2015,1723,0,0
798,-699,0,0,0,0,0,0,0,0,0,-1,2022,1723,0,0
805,-699,0,0,0,0,0,0,0,0,0,-1,2029,1723,0,0
812,-699,0,0,0,0,0,0,0,0,0,-1,2036,1723,0,0
-700,-706,0,0,0,0,0,0,0,0,0,-1,524,1730,0,0
-693,-706,0,0,0,0,0,0,0,0,0,-1,531,1730,0,0
-686,-706,0,0,0,0,0,0,0,0,0,-1,538,1730,0,0
-679,-706,0,0,0,0,0,0,0,0,0,-1,545,1730,0,0
-672,-706,0,0,0,0,0,0,0,0,0,-1,552,1730,0,0
-665,-706,0,0,0,0,0,0,0,0,0,-1,559,1730,0,0
-658,-706,0,0,0,0,0,0,0,0,0,-1,566,1730,0,0
-651,-706,0,0,0,0,0,0,0,0,0,-1,573,1730,0,0
-644,-706,0,0,0,0,0,0,0,0,0,-1,580,1730,0,0
-637,-706,0,0,0,0,0,0,0,0,0,-1,587,1730,0,0
-630,-706,0,0,0,0,0,0,0,0,0,-1,594,1730,0,0
-623,-706,0,0,0,0,0,0,0,0,0,-1,601,1730,0,0
-616,-706,0,0,0,0,0,0,0,0,0,-1,608,1730,0,0
-609,-706,0,0,0,0,0,0,0,0,0,-1,615,1730,0,0
-602,-706,0,0,0,0,0,0,0,0,0,-1,622,1730,0,0
-595,-706,0,0,0,0,0,0,0,0,0,-1,629,1730,0,0
-588,-706,0,0,0,0,0,0,0,0,0,-1,636,1730,0,0
-581,-706,0,0,0,0,0,0,0,0,0,-1,643,1730,0,0
-574,-706,0,0,0,0,0,0,0,0,0,-1,650,1730,0,0
-567,-706,0,0,0,0,0,0,0,0,0,-1,657,1730,0,0
-560,-706,0,0,0,0,0,0,0,0,0,-1,664,1730,0,0
-553,-706,0,0,0,0,0,0,0,0,0,-1,671,1730,0,0
-546,-706,0,0,0,0,0,0,0,0,0,-1,678,1730,0,0
-539,-706,0,0,0,0,0,0,0,0,0,-1,685,1730,0,0
-532,-706,0,0,0,0,0,0,0,0,0,-1,692,1730,0,0
-525,-706,0,0,0,0,0,0,0,0,0,-1,699,1730,0,0
-518,-706,0,0,0,0,0,0,0,0,0,-1,706,1730,0,0
-511,-706,0,0,0,0,0,0,0,0,0,-1,713,1730,0,0
-504,-706,0,0,0,0,0,0,0,0,0,-1,720,1730,0,0
-497,-706,0,0,0,0,0,0,0,0,0,-1,727,1730,0,0
-490,-706,0,0,0,0,0,0,0,0,0,-1,734,1730,0,0
-483,-706,0,0,0,0,0,0,0,0,0,-1,741,1730,0,0
-476,-706,0,0,0,0,0,0,0,0,0,-1,748,1730,0,0
-469,-706,0,0,0,0,0,0,0,0,0,-1,755,1730,0,0
-462,-706,0,0,0,0,0,0,0,0,0,-1,762,1730,0,0
-455,-706,0,0,0,0,0,0,0,0,0,-1,769,1730,0,0
-448,-706,0,0,0,0,0,0,0,0,0,-1,776,1730,0,0
-441,-706,0,0,0,0,0,0,0,0,0,-1,783,1730,0,0
-434,-706,0,0,0,0,0,0,0,0,0,-1,790,1730,0,0
-427,-706,0,0,0,0,0,0,0,0,0,-1,797,1730,0,0
-420,-706,0,0,0,0,0,0,0,0,0,-1,804,1730,0,0
-413,-706,0,0,0,0,0,0,0,0,0,-1,811,1730,0,0
-406,-706,0,0,0,0,0,0,0,0,0,-1,818,1730,0,0
-399,-706,0,0,0,0,0,0,0,0,0,-1,825,1730,0,0
-392,-706,0,0,0,0,0,0,0,0,0,-1,832,1730,0,0
-385,-706,0,0,0,0,0,0,0,0,0,-1,839,1730,0,0
-378,-706,0,0,0,0,0,0,0,0,0,-1,846,1730,0,0
-371,-706,0,0,0,0,0,0,0,0,0,-1,853,1730,0,0
-364,-706,0,0,0,0,0,0,0,0,0,-1,860,1730,0,0
-357,-706,0,0,0,0,0,0,0,0,0,-1,867,1730,0,0
-350,-706,0,0,0,0,0,0,0,0,0,-1,874,1730,0,0
-343,-706,0,0,0,0,0,0,0,0,0,-1,881,1730,0,0
-336,-706,0,0,0,0,0,0,0,0,0,-1,888,1730,0,0
-329,-706,0,0,0,0,0,0,0,0,0,-1,895,1730,0,0
-322,-706,0,0,0,0,0,0,0,0,0,-1,902,1730,0,0
-315,-706,0,0,0,0,0,0,0,0,0,-1,909,1730,0,0
-308,-706,1.51831,5.71399,0,0,0,0,0,0,0,-1,916,1730,1.51833,-5.71397
-301,-706,1.76807,5.80627,0,0,0,0,0,0,0,-1,923,1730,1.76804,-5.80621
-294,-706,6.97656,9.29968,0,0,0,0,0,0,0,-1,930,1730,6.97654,-9.29964
-287,-706,5.89459,8.01843,0,0,0,0,0,0,0,-1,937,1730,5.89457,-8.01848
-280,-706,4.99054,7.03638,0.0141941,0.0813148,-0.0281424,0.0915528,0.00395614,-1.22189,0.0597602,0.0469209,944,1730,4.99051,-7.0364
-273,-706,5.1864,7.25439,0.0150939,0.0689302,-0.0264768,0.0797693,0.00425483,-1.18223,0.0518195,0.0490196,951,1730,5.18641,-7.25444
-266,-706,5.40875,7.24219,0,0,0,0,0,0,0,-1,958,1730,5.40877,-7.24219
-259,-706,2.37415,11.0209,0,0,0,0,0,0,0,-1,965,1730,2.37413,-11.0208
-252,-706,3.05963,10.0499,0,0,0,0,0,0,0,-1,972,1730,3.05962,-10.05
-245,-706,3.63794,9.28613,0,0,0,0,0,0,0,-1,979,1730,3.63792,-9.28608
-238,-706,3.19843,10.2269,0,0,0,0,0,0,0,-1,986,1730,3.19845,-10.227
-231,-706,3.75153,10.2147,-0.00302883,0.00288838,-0.00340171,0.0044381,-0.00457855,-1.14332,0.00520597,0.0410784,993,1730,3.75155,-10.2147
-224,-706,4.1192,10.2793,-0.00423223,-0.00323059,-0.000339232,-0.00312652,-0.00433631,-1.27311,0.00258381,0.0423571,1000,1730,4.11923,-10.2793
-217,-706,3.68066,10.136,-0.0047356,-0.00644854,0.0022573,-0.00317775,-0.00800639,0.604077,0.00465513,0.0393992,1007,1730,3.68068,-10.136
-210,-706,3.60474,10.2455,-0.00341062,-0.00660623,0.00414092,-0.000569936,-0.00944692,0.601271,0.00611682,0.0379188,1014,1730,3.60473,-10.2455
-203,-706,3.66418,10.2789,-0.00193245,-0.00572707,0.00550695,0.00199486,-0.00965439,0.619502,0.007194,0.030566,1021,1730,3.66422,-10.279
-196,-706,3.73621,10.2858,-0.000641789,-0.00423985,0.00625424,0.00406703,-0.00894866,0.645354,0.00768877,0.021983,1028,1730,3.73616,-10.2857
-189,-706,3.78137,10.3832,0.000269196,-0.00217672,0.0061501,0.00531675,-0.00722427,0.687253,0.00726843,0.0172531,1035,1730,3.78139,-10.3832
-182,-706,3.79163,10.5254,0.000666761,-0.000279052,0.00572746,0.0059408,-0.00555309,0.744207,0.00663726,0.0131871,1042,1730,3.79159,-10.5254
-175,-706,3.78271,10.6364,0.000489244,0.00148133,0.0053742,0.00638233,-0.00441176,0.831418,0.00626649,0.0144481,1049,1730,3.78268,-10.6364
-168,-706,3.78857,10.7173,0.000665014,0.00264294,0.00475086,0.00650668,-0.00319873,0.888015,0.00571088,0.0148581,1056,1730,3.78863,-10.7173
-161,-706,3.78113,10.8184,0.000970027,0.00325493,0.00391601,0.00619174,-0.00196678,0.927328,0.00491635,0.012108,1063,1730,3.78111,-10.8184
-154,-706,3.76135,10.9224,0.000945046,0.00346031,0.00303678,0.00548957,-0.00108421,0.981714,0.00406955,0.0122182,1070,1730,3.76134,-10.9224
-147,-706,3.74646,10.9918,0.00085043,0.00326459,0.00217093,0.00454146,-0.000426439,1.03912,0.00317933,0.0117662,1077,1730,3.74641,-10.9919
-140,-706,3.75732,11.0789,0.00044335,0.00279156,0.00138677,0.0034345,-0.00019959,1.13667,0.00235902,0.0102219,1084,1730,3.75735,-11.0788
-133,-706,3.76001,11.1571,7.97391e-05,0.00174426,0.000862512,0.00211057,-0.000286577,1.16917,0.00151166,0.0079436,1091,1730,3.76002,-11.1571
-126,-706,3.75244,11.2373,-2.78705e-05,0.000767289,0.000502058,0.00101012,-0.000270706,1.12029,0.000779481,0.0126717,1098,1730,3.7525,-11.2373
-119,-706,3.76868,11.3406,0.000124933,-3.77881e-05,0.000364209,0.000416759,-0.000329614,0.675508,0.000431896,0.0184349,1105,1730,3.76874,-11.3406
-112,-706,3.74133,11.4293,0.000405435,-0.000869107,0.000253361,0.000453953,-0.000917624,0.189206,0.000806823,0.0135658,1112,1730,3.74132,-11.4293
-105,-706,3.73535,11.5159,0.000622529,-0.00148255,0.000158867,0.000634451,-0.00149447,0.0749031,0.00126212,0.0098421,1119,1730,3.73529,-11.5159
-98,-706,3.7605,11.5863,0.000765881,-0.00203846,5.55228e-05,0.00076698,-0.00203956,0.0197885,0.00167496,0.0112031,1126,1730,3.76054,-11.5863
-91,-706,3.76978,11.6592,0.000879028,-0.00228771,1.85281e-05,0.000879136,-0.00228782,0.00585057,0.00188778,0.0147684,1133,1730,3.76973,-11.6591
-84,-706,3.75684,11.7153,0.000992515,-0.00231967,4.83674e-05,0.000993221,-0.00232038,0.0145987,0.00196359,0.0173885,1140,1730,3.75678,-11.7154
-77,-706,3.7666,11.7849,0.00118331,-0.00223596,1.88479e-05,0.00118342,-0.00223606,0.00551205,0.00200517,0.0161558,1147,1730,3.76663,-11.7849
-70,-706,3.74976,11.8862,0.00134024,-0.00210593,-6.89828e-05,0.00134162,-0.00210731,-0.0200065,0.00200753,0.0184335,1154,1730,3.74976,-11.8863
-63,-706,3.74438,11.924,0.00145555,-0.00195177,-0.000125581,0.00146017,-0.00195639,-0.0367896,0.00197948,0.0146784,1161,1730,3.74441,-11.924
-56,-706,3.78442,11.9597,0.00132137,-0.00203507,0.000146563,0.00132776,-0.00204146,0.0435557,0.00195971,0.0135798,1168,1730,3.78448,-11.9597
-49,-706,3.75537,12.0333,0.000673415,-0.00263543,0.00118457,0.00105377,-0.00301579,0.310692,0.00243888,0.0122187,1175,1730,3.75539,-12.0333
-42,-706,3.74329,12.0962,0.000206191,-0.00330054,0.00221453,0.00127744,-0.00437179,0.450551,0.00342079,0.0164845,1182,1730,3.74325,-12.0962
-35,-706,3.76746,12.1348,-0.000291309,-0.00364177,0.00333674,0.00176712,-0.00570021,0.552753,0.0045062,0.0158483,1189,1730,3.76743,-12.1348
-28,-706,3.80054,12.1586,-0.000693011,-0.00403029,0.00462156,0.00255192,-0.00727523,0.612153,0.00588811,0.0105076,1196,1730,3.80051,-12.1585
-21,-706,3.79651,12.1969,-0.00102938,-0.00498625,0.00559768,0.00292921,-0.00894483,0.615531,0.00714272,0.0108099,1203,1730,3.79649,-12.1969
-14,-706,3.80896,12.2354,-0.00136908,-0.00602635,0.00637288,0.00308728,-0.0104827,0.610236,0.00821331,0.0102314,1210,1730,3.80895,-12.2353
-7,-706,3.81799,12.2842,-0.00136628,-0.00651903,0.00709013,0.00360106,-0.0114864,0.611128,0.00909866,0.00891286,1217,1730,3.81796,-12.2841
0,-706,3.82581,12.3236,-0.00120762,-0.00688979,0.00757796,0.00404433,-0.0121417,0.60605,0.00972703,0.0119356,1224,1730,3.82579,-12.3236
7,-706,3.83411,12.3632,-0.000899337,-0.0068274,0.00792757,0.00460019,-0.0123269,0.6065,0.0101066,0.0129246,1231,1730,3.83413,-12.3631
14,-706,3.84241,12.3949,-0.000583446,-0.0066233,0.00801165,0.00495855,-0.0121653,0.605162,0.0101741,0.012846,1238,1730,3.84238,-12.3949
21,-706,3.8468,12.4033,-8.0191e-05,-0.00626473,0.00786004,0.00527398,-0.0116189,0.597989,0.00997979,0.0111894,1245,1730,3.84683,-12.4034
28,-706,3.85046,12.4257,0.000472583,-0.00583843,0.00760119,0.00554722,-0.0109131,0.588656,0.0096702,0.0116295,1252,1730,3.85046,-12.4257
35,-706,3.85498,12.4541,0.00079403,-0.00527413,0.0071873,0.00556142,-0.0100415,0.585673,0.0091313,0.0136435,1259,1730,3.855,-12.4541
42,-706,3.86157,12.4816,0.00125789,-0.00480718,0.00687168,0.00573643,-0.00928572,0.577596,0.00875336,0.0130526,1266,1730,3.8616,-12.4816
49,-706,3.87878,12.4918,0.00200271,-0.00463041,0.00641932,0.00591161,-0.0085393,0.546958,0.00838909,0.0144544,1273,1730,3.8788,-12.4918
56,-706,3.90308,12.5032,0.00284416,-0.00456786,0.00597472,0.00616893,-0.00789262,0.507798,0.00813875,0.0126718,1280,1730,3.90313,-12.5032
63,-706,3.92993,12.511,0.00329202,-0.00459129,0.00586357,0.00641564,-0.00771491,0.489477,0.00816977,0.0112183,1287,1730,3.92987,-12.511
70,-706,3.92261,12.5027,0.00331579,-0.00494626,0.00596806,0.00644308,-0.00807355,0.482666,0.00839878,0.012114,1294,1730,3.92264,-12.5026
77,-706,3.90918,12.507,0.0032093,-0.00529474,0.00576733,0.00612259,-0.00820804,0.46775,0.00830294,0.0113902,1301,1730,3.90912,-12.5069
84,-706,3.90881,12.522,0.00310161,-0.00568562,0.00576806,0.00595882,-0.00854282,0.45992,0.00841671,0.00942441,1308,1730,3.90885,-12.522
91,-706,3.93018,12.5477,0.00299513,-0.00601579,0.00585574,0.0058781,-0.00889876,0.457494,0.00859063,0.0102053,1315,1730,3.93017,-12.5477
98,-706,3.95691,12.5575,0.00268816,-0.00640058,0.00574807,0.00547125,-0.00918367,0.45091,0.00855104,0.0136319,1322,1730,3.95691,-12.5575
105,-706,3.96863,12.5408,0.00234514,-0.00651817,0.00558229,0.005041,-0.00921404,0.4499,0.00834687,0.0156629,1329,1730,3.9686,-12.5407
112,-706,3.96265,12.5233,0.00203597,-0.00638449,0.00519091,0.00450942,-0.00885794,0.444668,0.00785259,0.0152374,1336,1730,3.96259,-12.5234
119,-706,3.97461,12.542,0.00175154,-0.00603695,0.00475139,0.00400065,-0.00828606,0.442108,0.00723613,0.0129813,1343,1730,3.97457,-12.5419
126,-706,3.99316,12.5287,0.0014354,-0.00549098,0.00418073,0.00340104,-0.00745663,0.439497,0.00641279,0.0145324,1350,1730,3.99314,-12.5287
133,-706,4.01892,12.4841,0.00118012,-0.00484458,0.00356688,0.00283649,-0.00650094,0.434743,0.00552762,0.0123074,1357,1730,4.0189,-12.4841
140,-706,4.03162,12.4624,0.00117611,-0.00417863,0.00300433,0.00252296,-0.00552548,0.42144,0.00475333,0.0120869,1364,1730,4.03166,-12.4624
147,-706,4.07446,12.451,0.00102051,-0.00336679,0.00230899,0.00201176,-0.00435803,0.405504,0.00375984,0.02133,1371,1730,4.07445,-12.4511
154,-706,4.07507,12.4321,0.000692634,-0.0021736,0.00180533,0.00156452,-0.00304549,0.449916,0.00270699,0.0189439,1378,1730,4.07513,-12.4321
161,-706,4.02893,12.3776,0.000455074,-0.0010704,0.00125557,0.00116143,-0.00177675,0.512448,0.00170872,0.0100217,1385,1730,4.02891,-12.3776
168,-706,4.0293,12.3433,0.000138257,-0.000505913,0.000922413,0.0007932,-0.00116086,0.617427,0.00113481,0.0102792,1392,1730,4.0293,-12.3433
175,-706,4.03308,12.3164,0.000116096,-0.000119038,0.000495425,0.000507712,-0.000510655,0.6689,0.000587956,0.0103237,1399,1730,4.03303,-12.3164
182,-706,4.04187,12.2866,8.7786e-05,0.000132279,0.000693844,0.000804233,-0.000584168,0.801424,0.000804943,0.0105856,1406,1730,4.04188,-12.2866
189,-706,4.05945,12.2471,-0.000233115,0.000564802,0.000782759,0.00104441,-0.000712723,1.02108,0.00102049,0.014008,1413,1730,4.05946,-12.247
196,-706,4.05505,12.2114,-0.000715776,0.000556041,0.00089522,0.00101822,-0.00117796,1.09421,0.00126908,0.0117836,1420,1730,4.055,-12.2114
203,-706,4.04773,12.1697,-0.00119395,0.000466242,0.000817475,0.000801188,-0.0015289,1.18193,0.00136697,0.0126023,1427,1730,4.04777,-12.1697
210,-706,4.05603,12.109,-0.00139675,0.000235397,0.000637373,0.000454805,-0.00161615,1.23926,0.00125677,0.0120674,1434,1730,4.05609,-12.1091
217,-706,4.05383,12.0846,-0.001498,6.79747e-05,0.000387402,0.000158572,-0.0015886,1.34107,0.00111569,0.0122621,1441,1730,4.05385,-12.0845
224,-706,4.06287,12.0435,-0.00147792,-1.07514e-05,0.000170538,8.81043e-06,-0.00149748,1.45659,0.00100127,0.0170318,1448,1730,4.06288,-12.0434
231,-706,4.07007,11.9613,-0.0014173,-0.00014792,-2.55687e-05,-0.000147405,-0.00141782,-1.55066,0.000900108,0.0134898,1455,1730,4.07003,-11.9614
238,-706,4.05933,11.9187,-0.00122754,-0.000186673,-0.00022759,-0.000139085,-0.00127512,-1.36467,0.000807722,0.00906237,1462,1730,4.05939,-11.9187
245,-706,4.05396,11.8596,-0.00104835,-0.000168671,-0.000402288,-1.24443e-05,-0.00120457,-1.20038,0.000798934,0.011132,1469,1730,4.05396,-11.8597
252,-706,4.05847,11.7908,-0.000632885,3.04091e-05,-0.000266616,0.00012429,-0.000726766,-1.23223,0.000530813,0.0105977,1476,1730,4.0585,-11.7907
259,-706,4.078,11.7347,-6.95935e-05,0.000284646,0.000121243,0.000322169,-0.000107116,1.27066,0.000258006,0.0113471,1483,1730,4.07803,-11.7347
266,-706,4.08459,11.6874,0.000738394,0.000175861,0.0010589,0.00155275,-0.000638492,0.655585,0.0013013,0.0116939,1490,1730,4.08455,-11.6874
273,-706,4.08362,11.5936,0.00149085,0.000398369,0.00190351,0.00292495,-0.00103573,0.64567,0.00237182,0.0117841,1497,1730,4.08367,-11.5937
280,-706,4.07471,11.4939,0.00225781,0.000587385,0.00303563,0.00457104,-0.00172584,0.651152,0.00375717,0.0106171,1504,1730,4.07473,-11.4939
287,-706,4.05542,11.4078,0.00296476,0.000320267,0.00444057,0.00627576,-0.00299073,0.640696,0.00546092,0.0109711,1511,1730,4.05548,-11.4078
294,-706,4.06189,11.3419,0.00371554,0.000272707,0.00585569,0.0080976,-0.00410935,0.642439,0.00717197,0.0101222,1518,1730,4.06187,-11.3419
301,-706,4.06482,11.2694,0.00487732,-0.000385028,0.00786754,0.010542,-0.00604971,0.624028,0.00969557,0.00998634,1525,1730,4.06479,-11.2694
308,-706,4.05151,11.172,0.00603747,-0.00158398,0.00952707,0.0124877,-0.00803418,0.59515,0.0119409,0.0123974,1532,1730,4.05154,-11.172
315,-706,4.08533,11.1007,0.00703497,-0.00262861,0.0111332,0.0143397,-0.00993335,0.580665,0.0140908,0.0188255,1539,1730,4.08529,-11.1007
322,-706,4.09753,11.0063,0.00829274,-0.00397523,0.0125319,0.0161114,-0.0117938,0.557805,0.0161752,0.0182087,1546,1730,4.09759,-11.0063
329,-706,4.06201,10.9011,0.00964567,-0.00419681,0.0151341,0.0193661,-0.0139172,0.570933,0.0193018,0.0148779,1553,1730,4.06207,-10.9011
336,-706,4.01794,10.7703,0.010902,-0.00395459,0.018782,0.0236713,-0.0167238,0.597086,0.0234368,0.0198523,1560,1730,4.01792,-10.7703
343,-706,3.90454,10.6249,0.0123345,-0.00365208,0.0217368,0.0275011,-0.0188187,0.609207,0.0268989,0.0295565,1567,1730,3.90456,-10.6249
350,-706,3.67883,10.8751,0.0139942,-0.00237241,0.0250506,0.0321643,-0.0205424,0.627527,0.0306758,0.0385631,1574,1730,3.67885,-10.8751
357,-706,3.75305,10.8046,0.0150366,-0.000402541,0.0287732,0.0371077,-0.0224737,0.654339,0.0347435,0.0470369,1581,1730,3.75308,-10.8045
364,-706,3.86511,10.6212,0,0,0,0,0,0,0,-1,1588,1730,3.86506,-10.6212
371,-706,4.09814,10.3953,0,0,0,0,0,0,0,-1,1595,1730,4.09815,-10.3952
378,-706,3.90222,10.0262,0,0,0,0,0,0,0,-1,1602,1730,3.90224,-10.0262
385,-706,4.05066,10.1398,0,0,0,0,0,0,0,-1,1609,1730,4.0506,-10.1398
392,-706,6.88953,10.0787,0,0,0,0,0,0,0,-1,1616,1730,6.88957,-10.0788
399,-706,2.84668,8.81799,0,0,0,0,0,0,0,-1,1623,1730,2.84668,-8.81796
406,-706,2.85352,9.40063,0,0,0,0,0,0,0,-1,1630,1730,2.85346,-9.40059
413,-706,2.87476,10.0918,0,0,0,0,0,0,0,-1,1637,1730,2.87471,-10.0919
420,-706,5.7926,4.15125,0,0,0,0,0,0,0,-1,1644,1730,5.79255,-4.15128
427,-706,0,0,0,0,0,0,0,0,0,-1,1651,1730,0,0
434,-706,0,0,0,0,0,0,0,0,0,-1,1658,1730,0,0
441,-706,0,0,0,0,0,0,0,0,0,-1,1665,1730,0,0
448,-706,0,0,0,0,0,0,0,0,0,-1,1672,1730,0,0
455,-706,0,0,0,0,0,0,0,0,0,-1,1679,1730,0,0
462,-706,0,0,0,0,0,0,0,0,0,-1,1686,1730,0,0
469,-706,0,0,0,0,0,0,0,0,0,-1,1693,1730,0,0
476,-706,0,0,0,0,0,0,0,0,0,-1,1700,1730,0,0
483,-706,0,0,0,0,0,0,0,0,0,-1,1707,1730,0,0
490,-706,0,0,0,0,0,0,0,0,0,-1,1714,1730,0,0
497,-706,0,0,0,0,0,0,0,0,0,-1,1721,1730,0,0
504,-706,0,0,0,0,0,0,0,0,0,-1,1728,1730,0,0
511,-706,0,0,0,0,0,0,0,0,0,-1,1735,1730,0,0
518,-706,0,0,0,0,0,0,0,0,0,-1,1742,1730,0,0
525,-706,0,0,0,0,0,0,0,0,0,-1,1749,1730,0,0
532,-706,0,0,0,0,0,0,0,0,0,-1,1756,1730,0,0
539,-706,0,0,0,0,0,0,0,0,0,-1,1763,1730,0,0
546,-706,0,0,0,0,0,0,0,0,0,-1,1770,1730,0,0
553,-706,0,0,0,0,0,0,0,0,0,-1,1777,1730,0,0
560,-706,0,0,0,0,0,0,0,0,0,-1,1784,1730,0,0
567,-706,0,0,0,0,0,0,0,0,0,-1,1791,1730,0,0
574,-706,0,0,0,0,0,0,0,0,0,-1,1798,1730,0,0
581,-706,0,0,0,0,0,0,0,0,0,-1,1805,1730,0,0
588,-706,0,0,0,0,0,0,0,0,0,-1,1812,1730,0,0
595,-706,0,0,0,0,0,0,0,0,0,-1,1819,1730,0,0
602,-706,0,0,0,0,0,0,0,0,0,-1,1826,1730,0,0
609,-706,0,0,0,0,0,0,0,0,0,-1,1833,1730,0,0
616,-706,0,0,0,0,0,0,0,0,0,-1,1840,1730,0,0
623,-706,0,0,0,0,0,0,0,0,0,-1,1847,1730,0,0
630,-706,0,0,0,0,0,0,0,0,0,-1,1854,1730,0,0
637,-706,0,0,0,0,0,0,0,0,0,-1,1861,1730,0,0
644,-706,0,0,0,0,0,0,0,0,0,-1,1868,1730,0,0
651,-706,0,0,0,0,0,0,0,0,0,-1,1875,1730,0,0
658,-706,0,0,0,0,0,0,0,0,0,-1,1882,1730,0,0
665,-706,0,0,0,0,0,0,0,0,0,-1,1889,1730,0,0
672,-706,0,0,0,0,0,0,0,0,0,-1,1896,1730,0,0
679,-706,0,0,0,0,0,0,0,0,0,-1,1903,1730,0,0
686,-706,0,0,0,0,0,0,0,0,0,-1,1910,1730,0,0
693,-706,0,0,0,0,0,0,0,0,0,-1,1917,1730,0,0
700,-706,0,0,0,0,0,0,0,0,0,-1,1924,1730,0,0
707,-706,0,0,0,0,0,0,0,0,0,-1,1931,1730,0,0
714,-706,0,0,0,0,0,0,0,0,0,-1,1938,1730,0,0
721,-706,0,0,0,0,0,0,0,0,0,-1,1945,1730,0,0
728,-706,0,0,0,0,0,0,0,0,0,-1,1952,1730,0,0
735,-706,0,0,0,0,0,0,0,0,0,-1,1959,1730,0,0
742,-706,0,0,0,0,0,0,0,0,0,-1,1966,1730,0,0
749,-706,0,0,0,0,0,0,0,0,0,-1,1973,1730,0,0
756,-706,0,0,0,0,0,0,0,0,0,-1,1980,1730,0,0
763,-706,0,0,0,0,0,0,0,0,0,-1,1987,1730,0,0
770,-706,0,0,0,0,0,0,0,0,0,-1,1994,1730,0,0
777,-706,0,0,0,0,0,0,0,0,0,-1,2001,1730,0,0
784,-706,0,0,0,0,0,0,0,0,0,-1,2008,1730,0,0
791,-706,0,0,0,0,0,0,0,0,0,-1,2015,1730,0,0
798,-706,0,0,0,0,0,0,0,0,0,-1,2022,1730,0,0
805,-706,0,0,0,0,0,0,0,0,0,-1,2029,1730,0,0
812,-706,0,0,0,0,0,0,0,0,0,-1,2036,1730,0,0
-700,-713,0,0,0,0,0,0,0,0,0,-1,524,1737,0,0
-693,-713,0,0,0,0,0,0,0,0,0,-1,531,1737,0,0
-686,-713,0,0,0,0,0,0,0,0,0,-1,538,1737,0,0
-679,-713,0,0,0,0,0,0,0,0,0,-1,545,1737,0,0
-672,-713,0,0,0,0,0,0,0,0,0,-1,552,1737,0,0
-665,-713,0,0,0,0,0,0,0,0,0,-1,559,1737,0,0
-658,-713,0,0,0,0,0,0,0,0,0,-1,566,1737,0,0
-651,-713,0,0,0,0,0,0,0,0,0,-1,573,1737,0,0
-644,-713,0,0,0,0,0,0,0,0,0,-1,580,1737,0,0
-637,-713,0,0,0,0,0,0,0,0,0,-1,587,1737,0,0
-630,-713,0,0,0,0,0,0,0,0,0,-1,594,1737,0,0
-623,-713,0,0,0,0,0,0,0,0,0,-1,601,1737,0,0
-616,-713,0,0,0,0,0,0,0,0,0,-1,608,1737,0,0
-609,-713,0,0,0,0,0,0,0,0,0,-1,615,1737,0,0
-602,-713,0,0,0,0,0,0,0,0,0,-1,622,1737,0,0
-595,-713,0,0,0,0,0,0,0,0,0,-1,629,1737,0,0
-588,-713,0,0,0,0,0,0,0,0,0,-1,636,1737,0,0
-581,-713,0,0,0,0,0,0,0,0,0,-1,643,1737,0,0
-574,-713,0,0,0,0,0,0,0,0,0,-1,650,1737,0,0
-567,-713,0,0,0,0,0,0,0,0,0,-1,657,1737,0,0
-560,-713,0,0,0,0,0,0,0,0,0,-1,664,1737,0,0
-553,-713,0,0,0,0,0,0,0,0,0,-1,671,1737,0,0
-546,-713,0,0,0,0,0,0,0,0,0,-1,678,1737,0,0
-539,-713,0,0,0,0,0,0,0,0,0,-1,685,1737,0,0
-532,-713,0,0,0,0,0,0,0,0,0,-1,692,1737,0,0
-525,-713,0,0,0,0,0,0,0,0,0,-1,699,1737,0,0
-518,-713,0,0,0,0,0,0,0,0,0,-1,706,1737,0,0
-511,-713,0,0,0,0,0,0,0,0,0,-1,713,1737,0,0
-504,-713,0,0,0,0,0,0,0,0,0,-1,720,1737,0,0
-497,-713,0,0,0,0,0,0,0,0,0,-1,727,1737,0,0
-490,-713,0,0,0,0,0,0,0,0,0,-1,734,1737,0,0
-483,-713,0,0,0,0,0,0,0,0,0,-1,741,1737,0,0
-476,-713,0,0,0,0,0,0,0,0,0,-1,748,1737,0,0
-469,-713,0,0,0,0,0,0,0,0,0,-1,755,1737,0,0
-462,-713,0,0,0,0,0,0,0,0,0,-1,762,1737,0,0
-455,-713,0,0,0,0,0,0,0,0,0,-1,769,1737,0,0
-448,-713,0,0,0,0,0,0,0,0,0,-1,776,1737,0,0
-441,-713,0,0,0,0,0,0,0,0,0,-1,783,1737,0,0
-434,-713,0,0,0,0,0,0,0,0,0,-1,790,1737,0,0
-427,-713,0,0,0,0,0,0,0,0,0,-1,797,1737,0,0
-420,-713,0,0,0,0,0,0,0,0,0,-1,804,1737,0,0
-413,-713,0,0,0,0,0,0,0,0,0,-1,811,1737,0,0
-406,-713,0,0,0,0,0,0,0,0,0,-1,818,1737,0,0
-399,-713,0,0,0,0,0,0,0,0,0,-1,825,1737,0,0
-392,-713,0,0,0,0,0,0,0,0,0,-1,832,1737,0,0
-385,-713,0,0,0,0,0,0,0,0,0,-1,839,1737,0,0
-378,-713,0,0,0,0,0,0,0,0,0,-1,846,1737,0,0
-371,-713,0,0,0,0,0,0,0,0,0,-1,853,1737,0,0
-364,-713,0,0,0,0,0,0,0,0,0,-1,860,1737,0,0
-357,-713,0,0,0,0,0,0,0,0,0,-1,867,1737,0,0
-350,-713,0,0,0,0,0,0,0,0,0,-1,874,1737,0,0
-343,-713,0,0,0,0,0,0,0,0,0,-1,881,1737,0,0
-336,-713,0,0,0,0,0,0,0,0,0,-1,888,1737,0,0
-329,-713,0,0,0,0,0,0,0,0,0,-1,895,1737,0,0
-322,-713,0,0,0,0,0,0,0,0,0,-1,902,1737,0,0
-315,-713,0,0,0,0,0,0,0,0,0,-1,909,1737,0,0
-308,-713,0,0,0,0,0,0,0,0,0,-1,916,1737,0,0
-301,-713,0,0,0,0,0,0,0,0,0,-1,923,1737,0,0
-294,-713,1.52808,6.30286,0,0,0,0,0,0,0,-1,930,1737,1.5281,-6.30288
-287,-713,6.62927,7.57947,0,0,0,0,0,0,0,-1,937,1737,6.62926,-7.57943
-280,-713,5.65082,6.63708,0,0,0,0,0,0,0,-1,944,1737,5.6508,-6.63704
-273,-713,5.55005,6.90698,0,0,0,0,0,0,0,-1,951,1737,5.55004,-6.90696
-266,-713,5.24536,7.62744,0,0,0,0,0,0,0,-1,958,1737,5.24535,-7.62748
-259,-713,2.67322,10.5743,0,0,0,0,0,0,0,-1,965,1737,2.67324,-10.5743
-252,-713,3.55267,8.86694,0,0,0,0,0,0,0,-1,972,1737,3.55265,-8.86693
-245,-713,4.22144,8.90198,0,0,0,0,0,0,0,-1,979,1737,4.22145,-8.90194
-238,-713,3.29095,10.4591,0,0,0,0,0,0,0,-1,986,1737,3.29093,-10.4591
-231,-713,3.95813,10.401,0,0,0,0,0,0,0,-1,993,1737,3.95811,-10.401
-224,-713,3.75482,10.3331,0,0,0,0,0,0,0,-1,1000,1737,3.75485,-10.3332
-217,-713,3.60052,10.3246,0,0,0,0,0,0,0,-1,1007,1737,3.60052,-10.3246
-210,-713,3.4715,10.4558,0,0,0,0,0,0,0,-1,1014,1737,3.47148,-10.4558
-203,-713,3.46326,10.4543,-0.00352567,-0.00731219,0.00756711,0.00238143,-0.0132193,0.662817,0.00970456,0.0459981,1021,1737,3.46331,-10.4543
-196,-713,3.45825,10.2828,-0.00165742,-0.00503895,0.00844119,0.00526066,-0.011957,0.686556,0.0101882,0.0412397,1028,1737,3.45824,-10.2829
-189,-713,3.5271,10.3475,-0.000289468,-0.00239667,0.00826439,0.00698821,-0.00967435,0.721997,0.00966171,0.0369588,1035,1737,3.52708,-10.3475
-182,-713,3.82263,10.5209,0.000234038,0.000163787,0.00766262,0.00786161,-0.00746379,0.783106,0.00884912,0.0235094,1042,1737,3.82268,-10.5208
-175,-713,3.90186,10.6321,-3.38383e-05,0.00249348,0.0071957,0.00853564,-0.006076,0.872318,0.00847578,0.0211908,1049,1737,3.90182,-10.632
-168,-713,3.92981,10.6868,0.000109345,0.0040775,0.00604292,0.00845372,-0.00426688,0.944019,0.00747567,0.0221643,1056,1737,3.92981,-10.6868
-161,-713,3.86487,10.8171,0.000429477,0.00493078,0.00477363,0.00795772,-0.00259746,1.00568,0.00635057,0.0113282,1063,1737,3.86493,-10.8171
-154,-713,3.84595,10.8853,0.000254193,0.0052052,0.00350975,0.00702463,-0.00156524,1.09254,0.0052827,0.0105799,1070,1737,3.84591,-10.8853
-147,-713,3.83508,10.9833,-9.98737e-05,0.00487547,0.002316,0.00578667,-0.00101108,1.19596,0.00423523,0.017428,1077,1737,3.83504,-10.9832
-140,-713,3.8396,11.1031,-0.000820119,0.00439503,0.00126729,0.00468668,-0.00111176,1.3446,0.00355349,0.0166203,1084,1737,3.83957,-11.1031
-133,-713,3.82581,11.1769,-0.00149543,0.00323919,0.000579986,0.0033092,-0.00156545,1.45066,0.00287377,0.0100455,1091,1737,3.82578,-11.1769
-126,-713,3.8363,11.2451,-0.00180138,0.00212723,9.37294e-05,0.00212946,-0.00180362,1.54696,0.00227336,0.0160539,1098,1737,3.8363,-11.2452
-119,-713,3.85815,11.3022,-0.0017326,0.00121405,-7.50141e-05,0.00121596,-0.00173451,-1.54536,0.0017122,0.0259736,1105,1737,3.85816,-11.3022
-112,-713,3.84875,11.4459,-0.00145719,0.000317049,-0.000180444,0.000335215,-0.00147536,-1.47046,0.00111228,0.0134595,1112,1737,3.84874,-11.4459
-105,-713,3.85156,11.5067,-0.00120765,-0.000348486,-0.000247251,-0.000282413,-0.00127373,-1.30967,0.000772419,0.0102352,1119,1737,3.85152,-11.5068
-98,-713,3.84546,11.5801,-0.0010058,-0.000892724,-0.000305985,-0.000638098,-0.00126043,-0.876754,0.000727726,0.00986946,1126,1737,3.84548,-11.5801
-91,-713,3.81738,11.6492,-0.000792524,-0.00107572,-0.000277293,-0.000622768,-0.00124548,-0.549333,0.000719077,0.0101412,1133,1737,3.8174,-11.6491
-84,-713,3.81287,11.6993,-0.000530239,-0.00102369,-0.000174116,-0.000474988,-0.00107894,-0.307273,0.000624409,0.00919688,1140,1737,3.81286,-11.6993
-77,-713,3.83923,11.781,-0.000126503,-0.000962061,-0.00013032,-0.000106649,-0.000981915,-0.151185,0.000622115,0.0120876,1147,1737,3.83921,-11.781
-70,-713,3.81702,11.8597,0.000211659,-0.000885587,-0.000182284,0.000241149,-0.000915077,-0.160391,0.000704332,0.0143231,1154,1737,3.81701,-11.8597
-63,-713,3.81165,11.9143,0.000380709,-0.000763941,-0.000111546,0.000391478,-0.00077471,-0.0962431,0.00068531,0.0134803,1161,1737,3.8116,-11.9143
-56,-713,3.8291,11.9816,0.000515163,-0.000691783,2.06532e-05,0.000515516,-0.000692137,0.0171053,0.00069972,0.0133398,1168,1737,3.82906,-11.9816
-49,-713,3.80652,12.0464,0.000468391,-0.00089614,0.000452187,0.000604636,-0.00103238,0.292651,0.000955829,0.0147852,1175,1737,3.80651,-12.0464
-42,-713,3.83325,12.0568,0.000512219,-0.00118312,0.000918225,0.000914222,-0.00158512,0.412667,0.00146022,0.0162057,1182,1737,3.83322,-12.0567
-35,-713,3.85693,12.1024,0.000385987,-0.00151602,0.00151582,0.00122443,-0.00235446,0.505241,0.00210032,0.0131083,1189,1737,3.85689,-12.1024
-28,-713,3.84985,12.1736,0.000173128,-0.00188602,0.00220086,0.00157333,-0.00328622,0.566617,0.00286317,0.0124895,1196,1737,3.84981,-12.1736
-21,-713,3.83704,12.2148,-8.40111e-05,-0.00262727,0.00277667,0.00169836,-0.00440964,0.570667,0.00364042,0.00931991,1203,1737,3.83702,-12.2149
-14,-713,3.85193,12.2399,-0.000347568,-0.00346043,0.00332624,0.00176838,-0.00557637,0.566568,0.0044264,0.010519,1210,1737,3.85198,-12.2399
-7,-713,3.87048,12.2827,-0.0005112,-0.00400178,0.0038725,0.00199113,-0.00650412,0.573685,0.00513024,0.00996379,1217,1737,3.87052,-12.2828
0,-713,3.87146,12.3086,-0.000612723,-0.00448092,0.00429288,0.00216163,-0.00725527,0.573748,0.0056958,0.0140211,1224,1737,3.87143,-12.3086
7,-713,3.8761,12.3383,-0.000643585,-0.00466999,0.00463139,0.00239324,-0.00770681,0.580375,0.00609432,0.0163503,1231,1737,3.87614,-12.3382
14,-713,3.8866,12.375,-0.000629447,-0.00471635,0.00476147,0.00250853,-0.00785434,0.582702,0.00624273,0.0121567,1238,1737,3.88663,-12.375
21,-713,3.88013,12.4143,-0.000512201,-0.00460699,0.00472693,0.00259168,-0.00771087,0.581028,0.00618811,0.0109285,1245,1737,3.88017,-12.4143
28,-713,3.85706,12.4412,-0.000363385,-0.00444165,0.00461363,0.00264165,-0.00744669,0.577316,0.00604071,0.011536,1252,1737,3.85701,-12.4412
35,-713,3.86108,12.4462,-0.000348504,-0.00413068,0.00437873,0.00253005,-0.00700923,0.581556,0.0057063,0.0111026,1259,1737,3.86107,-12.4462
42,-713,3.87329,12.4811,-0.000182464,-0.00383387,0.00420472,0.00257582,-0.00659215,0.580579,0.00545981,0.0112364,1266,1737,3.87332,-12.481
49,-713,3.8822,12.4932,0.000216915,-0.00373324,0.00393787,0.00264726,-0.00616359,0.552951,0.00522023,0.0114518,1273,1737,3.88215,-12.4932
56,-713,3.90332,12.4952,0.00076191,-0.00369548,0.00367728,0.00283316,-0.00576672,0.512963,0.00506052,0.0112693,1280,1737,3.90333,-12.4952
63,-713,3.91406,12.5073,0.00111861,-0.00365709,0.00367361,0.00311223,-0.0056507,0.49721,0.00512955,0.0114401,1287,1737,3.91409,-12.5073
70,-713,3.91565,12.5049,0.00120602,-0.00386152,0.00379679,0.00323686,-0.00589235,0.491162,0.00534456,0.0113684,1294,1737,3.91559,-12.5048
77,-713,3.91382,12.5109,0.00122435,-0.00406972,0.00370036,0.00312698,-0.00597235,0.474923,0.00533843,0.0120621,1301,1737,3.91379,-12.5109
84,-713,3.92505,12.5459,0.00125501,-0.0042627,0.00375905,0.00315897,-0.00616665,0.468832,0.00547669,0.0121878,1308,1737,3.92503,-12.5459
91,-713,3.93689,12.566,0.00131478,-0.00441938,0.00380262,0.00321006,-0.00631466,0.462378,0.00559562,0.0122859,1315,1737,3.93693,-12.566
98,-713,3.94727,12.5551,0.00128746,-0.00458327,0.00368236,0.00306125,-0.00635706,0.4489,0.00554753,0.0118445,1322,1737,3.94732,-12.555
105,-713,3.95923,12.5372,0.00120417,-0.00456476,0.00351248,0.00286477,-0.00622536,0.441629,0.00536641,0.0134104,1329,1737,3.95919,-12.5372
112,-713,3.96765,12.525,0.00112964,-0.00437304,0.00318869,0.0025899,-0.0058333,0.429446,0.00498186,0.0134133,1336,1737,3.96765,-12.5251
119,-713,3.97021,12.5374,0.00103282,-0.00408386,0.00282258,0.00228395,-0.00533499,0.417234,0.00451483,0.0143177,1343,1737,3.97025,-12.5374
126,-713,3.9718,12.537,0.000951655,-0.00364079,0.0023464,0.00193845,-0.00462758,0.398102,0.00389544,0.0139805,1350,1737,3.9718,-12.537
133,-713,3.97144,12.4935,0.000884385,-0.00309004,0.00187038,0.00162615,-0.00383181,0.377561,0.00323579,0.0120294,1357,1737,3.97138,-12.4935
140,-713,3.99524,12.4795,0.000958042,-0.00252915,0.0014714,0.00149593,-0.00306703,0.350468,0.00268597,0.0131387,1364,1737,3.9952,-12.4795
147,-713,4.00476,12.4453,0.000905057,-0.00188285,0.00101543,0.00123569,-0.00221348,0.314784,0.00201788,0.0138314,1371,1737,4.00471,-12.4453
154,-713,3.98828,12.4363,0.000729426,-0.000999937,0.000711919,0.00098479,-0.0012553,0.344403,0.00129646,0.0133616,1378,1737,3.98828,-12.4362
161,-713,3.98132,12.3826,0.000610444,-0.000238784,0.000411912,0.000777411,-0.000405751,0.385107,0.000694242,0.0103858,1385,1737,3.98137,-12.3825
168,-713,3.97717,12.3483,0.000424389,0.00012513,0.000153732,0.000489289,6.02311e-05,0.399461,0.000308084,0.0101345,1392,1737,3.97723,-12.3482
175,-713,4.00378,12.3176,0.000398306,0.000396836,-0.000129044,0.000526617,0.000268524,-0.782551,0.000304063,0.0133489,1399,1737,4.00384,-12.3176
182,-713,4.00745,12.2878,0.000384579,0.000615879,-0.000121991,0.000668326,0.000332132,-1.16476,0.00038586,0.0117997,1406,1737,4.00743,-12.2879
189,-713,4.01306,12.2567,0.000201571,0.000847983,-0.000180162,0.000894805,0.000154749,-1.31653,0.000552229,0.0112388,1413,1737,4.01308,-12.2567
196,-713,4.02356,12.2312,-0.000107833,0.000919549,-0.000259355,0.000981308,-0.000169593,-1.33702,0.000717449,0.0115227,1420,1737,4.02353,-12.2312
203,-713,4.02124,12.1976,-0.000425516,0.000951548,-0.000402712,0.00106067,-0.000534639,-1.30618,0.000937594,0.0145052,1427,1737,4.0212,-12.1976
210,-713,4.01355,12.1198,-0.000525669,0.000863614,-0.000613339,0.00109564,-0.000757694,-1.20914,0.00107594,0.012153,1434,1737,4.01356,-12.1198
217,-713,4.01086,12.0682,-0.000584604,0.000744717,-0.000870747,0.00117549,-0.00101538,-1.11138,0.00126602,0.00979859,1441,1737,4.01086,-12.0682
224,-713,4.02258,12.0228,-0.000656351,0.000707894,-0.00107295,0.0012972,-0.00124565,-1.06854,0.00146821,0.0112469,1448,1737,4.02258,-12.0229
231,-713,4.0321,11.9637,-0.000762398,0.000564868,-0.00119791,0.00127068,-0.00146822,-1.03835,0.00158267,0.011229,1455,1737,4.03214,-11.9637
238,-713,4.00708,11.9031,-0.000712794,0.000525088,-0.00133304,0.00137587,-0.00156357,-1.00274,0.00169824,0.00880901,1462,1737,4.00713,-11.903
245,-713,4.00964,11.8481,-0.000691084,0.000538452,-0.00142549,0.00147609,-0.00162872,-0.988982,0.00179328,0.0112815,1469,1737,4.00964,-11.8481
252,-713,4.02026,11.7867,-0.000136958,0.000640961,-0.000881005,0.00121505,-0.000711046,-0.993278,0.00112465,0.0109476,1476,1737,4.02024,-11.7867
259,-713,4.03955,11.7256,0.000548914,0.000886344,2.36012e-05,0.000887987,0.000547272,1.5013,0.000517282,0.0110451,1483,1737,4.03949,-11.7255
266,-713,4.02075,11.6847,0.00167969,0.00030358,0.00188829,0.00300138,-0.00101811,0.610685,0.00241298,0.0097232,1490,1737,4.02073,-11.6847
273,-713,4.00586,11.6036,0.00266594,0.000212074,0.00351591,0.00516284,-0.00228483,0.617521,0.00440563,0.00853465,1497,1737,4.00592,-11.6036
280,-713,3.99377,11.5165,0.00374952,-2.97762e-07,0.00547487,0.00766162,-0.0039124,0.620429,0.00679813,0.0102172,1504,1737,3.99373,-11.5165
287,-713,3.98303,11.4174,0.00484772,-0.000726081,0.00778016,0.0103251,-0.00620342,0.613415,0.00964112,0.0114842,1511,1737,3.98302,-11.4173
294,-713,3.97974,11.3295,0.00602233,-0.00116693,0.0100834,0.0131326,-0.00827722,0.614175,0.0124665,0.0152955,1518,1737,3.97977,-11.3295
301,-713,3.96045,11.2213,0.00770856,-0.00232388,0.0130374,0.0166614,-0.0112767,0.601749,0.0162297,0.0164444,1525,1737,3.96043,-11.2213
308,-713,3.94873,11.1248,0.00939429,-0.00410151,0.0155043,0.0195555,-0.0142627,0.580147,0.0196045,0.01884,1532,1737,3.94873,-11.1248
315,-713,4.03333,11.1136,0.0108392,-0.00570289,0.0178731,0.0222622,-0.017126,0.568689,0.0228051,0.0259188,1539,1737,4.03334,-11.1137
322,-713,4.01147,10.9346,0.0125737,-0.00761828,0.0199662,0.0248513,-0.0198959,0.551318,0.0258876,0.0317046,1546,1737,4.01144,-10.9346
329,-713,4.02661,10.8335,0.0142885,-0.00763962,0.0236991,0.0294368,-0.022788,0.568742,0.0302334,0.0361285,1553,1737,4.02661,-10.8335
336,-713,3.85522,11.1543,0.0157163,-0.00687022,0.0288981,0.0354494,-0.0266033,0.599125,0.0359473,0.0401504,1560,1737,3.85522,-11.1543
343,-713,3.60754,11.085,0,0,0,0,0,0,0,-1,1567,1737,3.60755,-11.085
350,-713,2.67712,11.175,0.0190294,-0.00390408,0.0380842,0.0473357,-0.0322104,0.63917,0.0462018,0.0474981,1574,1737,2.67707,-11.1751
357,-713,3.47705,11.1898,0.0196222,-0.000569864,0.043488,0.0541707,-0.0351184,0.67134,0.0519408,0.0486322,1581,1737,3.47701,-11.1898
364,-713,3.87659,10.906,0,0,0,0,0,0,0,-1,1588,1737,3.87653,-10.9059
371,-713,4.28076,10.634,0,0,0,0,0,0,0,-1,1595,1737,4.28081,-10.6341
378,-713,2.80762,9.76196,0,0,0,0,0,0,0,-1,1602,1737,2.80765,-9.76198
385,-713,3.03064,9.90381,0,0,0,0,0,0,0,-1,1609,1737,3.03066,-9.90386
392,-713,2.9657,11.3511,0,0,0,0,0,0,0,-1,1616,1737,2.9657,-11.3511
399,-713,1.02551,8.88037,0,0,0,0,0,0,0,-1,1623,1737,1.02556,-8.88039
406,-713,1.65259,8.20483,0,0,0,0,0,0,0,-1,1630,1737,1.65258,-8.20488
413,-713,1.80371,8.875,0,0,0,0,0,0,0,-1,1637,1737,1.80372,-8.87503
420,-713,0,0,0,0,0,0,0,0,0,-1,1644,1737,0,0
427,-713,0,0,0,0,0,0,0,0,0,-1,1651,1737,0,0
434,-713,0,0,0,0,0,0,0,0,0,-1,1658,1737,0,0
441,-713,0,0,0,0,0,0,0,0,0,-1,1665,1737,0,0
448,-713,0,0,0,0,0,0,0,0,0,-1,1672,1737,0,0
455,-713,0,0,0,0,0,0,0,0,0,-1,1679,1737,0,0
462,-713,0,0,0,0,0,0,0,0,0,-1,1686,1737,0,0
469,-713,0,0,0,0,0,0,0,0,0,-1,1693,1737,0,0
476,-713,0,0,0,0,0,0,0,0,0,-1,1700,1737,0,0
483,-713,0,0,0,0,0,0,0,0,0,-1,1707,1737,0,0
490,-713,0,0,0,0,0,0,0,0,0,-1,1714,1737,0,0
497,-713,0,0,0,0,0,0,0,0,0,-1,1721,1737,0,0
504,-713,0,0,0,0,0,0,0,0,0,-1,1728,1737,0,0
511,-713,0,0,0,0,0,0,0,0,0,-1,1735,1737,0,0
518,-713,0,0,0,0,0,0,0,0,0,-1,1742,1737,0,0
525,-713,0,0,0,0,0,0,0,0,0,-1,1749,1737,0,0
532,-713,0,0,0,0,0,0,0,0,0,-1,1756,1737,0,0
539,-713,0,0,0,0,0,0,0,0,0,-1,1763,1737,0,0
546,-713,0,0,0,0,0,0,0,0,0,-1,1770,1737,0,0
553,-713,0,0,0,0,0,0,0,0,0,-1,1777,1737,0,0
560,-713,0,0,0,0,0,0,0,0,0,-1,1784,1737,0,0
567,-713,0,0,0,0,0,0,0,0,0,-1,1791,1737,0,0
574,-713,0,0,0,0,0,0,0,0,0,-1,1798,1737,0,0
581,-713,0,0,0,0,0,0,0,0,0,-1,1805,1737,0,0
588,-713,0,0,0,0,0,0,0,0,0,-1,1812,1737,0,0
595,-713,0,0,0,0,0,0,0,0,0,-1,1819,1737,0,0
602,-713,0,0,0,0,0,0,0,0,0,-1,1826,1737,0,0
609,-713,0,0,0,0,0,0,0,0,0,-1,1833,1737,0,0
616,-713,0,0,0,0,0,0,0,0,0,-1,1840,1737,0,0
623,-713,0,0,0,0,0,0,0,0,0,-1,1847,1737,0,0
630,-713,0,0,0,0,0,0,0,0,0,-1,1854,1737,0,0
637,-713,0,0,0,0,0,0,0,0,0,-1,1861,1737,0,0
644,-713,0,0,0,0,0,0,0,0,0,-1,1868,1737,0,0
651,-713,0,0,0,0,0,0,0,0,0,-1,1875,1737,0,0
658,-713,0,0,0,0,0,0,0,0,0,-1,1882,1737,0,0
665,-713,0,0,0,0,0,0,0,0,0,-1,1889,1737,0,0
672,-713,0,0,0,0,0,0,0,0,0,-1,1896,1737,0,0
679,-713,0,0,0,0,0,0,0,0,0,-1,1903,1737,0,0
686,-713,0,0,0,0,0,0,0,0,0,-1,1910,1737,0,0
693,-713,0,0,0,0,0,0,0,0,0,-1,1917,1737,0,0
700,-713,0,0,0,0,0,0,0,0,0,-1,1924,1737,0,0
707,-713,0,0,0,0,0,0,0,0,0,-1,1931,1737,0,0
714,-713,0,0,0,0,0,0,0,0,0,-1,1938,1737,0,0
721,-713,0,0,0,0,0,0,0,0,0,-1,1945,1737,0,0
728,-713,0,0,0,0,0,0,0,0,0,-1,1952,1737,0,0
735,-713,0,0,0,0,0,0,0,0,0,-1,1959,1737,0,0
742,-713,0,0,0,0,0,0,0,0,0,-1,1966,1737,0,0
749,-713,0,0,0,0,0,0,0,0,0,-1,1973,1737,0,0
756,-713,0,0,0,0,0,0,0,0,0,-1,1980,1737,0,0
763,-713,0,0,0,0,0,0,0,0,0,-1,1987,1737,0,0
770,-713,0,0,0,0,0,0,0,0,0,-1,1994,1737,0,0
777,-713,0,0,0,0,0,0,0,0,0,-1,2001,1737,0,0
784,-713,0,0,0,0,0,0,0,0,0,-1,2008,1737,0,0
791,-713,0,0,0,0,0,0,0,0,0,-1,2015,1737,0,0
798,-713,0,0,0,0,0,0,0,0,0,-1,2022,1737,0,0
805,-713,0,0,0,0,0,0,0,0,0,-1,2029,1737,0,0
812,-713,0,0,0,0,0,0,0,0,0,-1,2036,1737,0,0
-700,-720,0,0,0,0,0,0,0,0,0,-1,524,1744,0,0
-693,-720,0,0,0,0,0,0,0,0,0,-1,531,1744,0,0
-686,-720,0,0,0,0,0,0,0,0,0,-1,538,1744,0,0
-679,-720,0,0,0,0,0,0,0,0,0,-1,545,1744,0,0
-672,-720,0,0,0,0,0,0,0,0,0,-1,552,1744,0,0
-665,-720,0,0,0,0,0,0,0,0,0,-1,559,1744,0,0
-658,-720,0,0,0,0,0,0,0,0,0,-1,566,1744,0,0
-651,-720,0,0,0,0,0,0,0,0,0,-1,573,1744,0,0
-644,-720,0,0,0,0,0,0,0,0,0,-1,580,1744,0,0
-637,-720,0,0,0,0,0,0,0,0,0,-1,587,1744,0,0
-630,-720,0,0,0,0,0,0,0,0,0,-1,594,1744,0,0
-623,-720,0,0,0,0,0,0,0,0,0,-1,601,1744,0,0
-616,-720,0,0,0,0,0,0,0,0,0,-1,608,1744,0,0
-609,-720,0,0,0,0,0,0,0,0,0,-1,615,1744,0,0
-602,-720,0,0,0,0,0,0,0,0,0,-1,622,1744,0,0
-595,-720,0,0,0,0,0,0,0,0,0,-1,629,1744,0,0
-588,-720,0,0,0,0,0,0,0,0,0,-1,636,1744,0,0
-581,-720,0,0,0,0,0,0,0,0,0,-1,643,1744,0,0
-574,-720,0,0,0,0,0,0,0,0,0,-1,650,1744,0,0
-567,-720,0,0,0,0,0,0,0,0,0,-1,657,1744,0,0
-560,-720,0,0,0,0,0,0,0,0,0,-1,664,1744,0,0
-553,-720,0,0,0,0,0,0,0,0,0,-1,671,1744,0,0
-546,-720,0,0,0,0,0,0,0,0,0,-1,678,1744,0,0
-539,-720,0,0,0,0,0,0,0,0,0,-1,685,1744,0,0
-532,-720,0,0,0,0,0,0,0,0,0,-1,692,1744,0,0
-525,-720,0,0,0,0,0,0,0,0,0,-1,699,1744,0,0
-518,-720,0,0,0,0,0,0,0,0,0,-1,706,1744,0,0
-511,-720,0,0,0,0,0,0,0,0,0,-1,713,1744,0,0
-504,-720,0,0,0,0,0,0,0,0,0,-1,720,1744,0,0
-497,-720,0,0,0,0,0,0,0,0,0,-1,727,1744,0,0
-490,-720,0,0,0,0,0,0,0,0,0,-1,734,1744,0,0
-483,-720,0,0,0,0,0,0,0,0,0,-1,741,1744,0,0
-476,-720,0,0,0,0,0,0,0,0,0,-1,748,1744,0,0
-469,-720,0,0,0,0,0,0,0,0,0,-1,755,1744,0,0
-462,-720,0,0,0,0,0,0,0,0,0,-1,762,1744,0,0
-455,-720,0,0,0,0,0,0,0,0,0,-1,769,1744,0,0
-448,-720,0,0,0,0,0,0,0,0,0,-1,776,1744,0,0
-441,-720,0,0,0,0,0,0,0,0,0,-1,783,1744,0,0
-434,-720,0,0,0,0,0,0,0,0,0,-1,790,1744,0,0
-427,-720,0,0,0,0,0,0,0,0,0,-1,797,1744,0,0
-420,-720,0,0,0,0,0,0,0,0,0,-1,804,1744,0,0
-413,-720,0,0,0,0,0,0,0,0,0,-1,811,1744,0,0
-406,-720,0,0,0,0,0,0,0,0,0,-1,818,1744,0,0
-399,-720,0,0,0,0,0,0,0,0,0,-1,825,1744,0,0
-392,-720,0,0,0,0,0,0,0,0,0,-1,832,1744,0,0
-385,-720,0,0,0,0,0,0,0,0,0,-1,839,1744,0,0
-378,-720,0,0,0,0,0,0,0,0,0,-1,846,1744,0,0
-371,-720,0,0,0,0,0,0,0,0,0,-1,853,1744,0,0
-364,-720,0,0,0,0,0,0,0,0,0,-1,860,1744,0,0
-357,-720,0,0,0,0,0,0,0,0,0,-1,867,1744,0,0
-350,-720,0,0,0,0,0,0,0,0,0,-1,874,1744,0,0
-343,-720,0,0,0,0,0,0,0,0,0,-1,881,1744,0,0
-336,-720,0,0,0,0,0,0,0,0,0,-1,888,1744,0,0
-329,-720,0,0,0,0,0,0,0,0,0,-1,895,1744,0,0
-322,-720,0,0,0,0,0,0,0,0,0,-1,902,1744,0,0
-315,-720,0,0,0,0,0,0,0,0,0,-1,909,1744,0,0
-308,-720,0,0,0,0,0,0,0,0,0,-1,916,1744,0,0
-301,-720,0,0,0,0,0,0,0,0,0,-1,923,1744,0,0
-294,-720,0,0,0,0,0,0,0,0,0,-1,930,1744,0,0
-287,-720,0,0,0,0,0,0,0,0,0,-1,937,1744,0,0
-280,-720,2.31964,5.77417,0,0,0,0,0,0,0,-1,944,1744,2.31963,-5.77417
-273,-720,5.17963,8.19495,0,0,0,0,0,0,0,-1,951,1744,5.17961,-8.19489
-266,-720,4.37134,7.47217,0,0,0,0,0,0,0,-1,958,1744,4.37132,-7.47215
-259,-720,2.38904,5.20947,0,0,0,0,0,0,0,-1,965,1744,2.38906,-5.20952
-252,-720,3.71014,6.78967,0,0,0,0,0,0,0,-1,972,1744,3.71016,-6.78973
-245,-720,2.61328,11.2861,0,0,0,0,0,0,0,-1,979,1744,2.61329,-11.2861
-238,-720,3.27588,11.1046,0,0,0,0,0,0,0,-1,986,1744,3.27589,-11.1046
-231,-720,4.07672,10.7065,0,0,0,0,0,0,0,-1,993,1744,4.07674,-10.7066
-224,-720,3.73779,10.4995,0,0,0,0,0,0,0,-1,1000,1744,3.73779,-10.4995
-217,-720,3.56744,10.4669,-0.0116592,-0.0132259,0.00537449,-0.0070113,-0.0178738,0.713033,0.010399,0.0490862,1007,1744,3.56744,-10.4669
-210,-720,3.40289,10.4246,-0.00897265,-0.0118547,0.00819883,-0.00208916,-0.0187382,0.698408,0.0118572,0.0490482,1014,1744,3.40288,-10.4245
-203,-720,3.20496,10.3617,-0.00606052,-0.00901238,0.0101633,0.00273347,-0.0178064,0.713291,0.0128791,0.0481977,1021,1744,3.20496,-10.3617
-196,-720,2.80908,10.5372,-0.00338524,-0.00572465,0.0111481,0.00665439,-0.0157643,0.733128,0.0132949,0.0488183,1028,1744,2.80913,-10.5372
-189,-720,3.17834,10.0785,-0.00138806,-0.0024646,0.0108327,0.00891976,-0.0127724,0.760574,0.0125897,0.0473374,1035,1744,3.17837,-10.0785
-182,-720,3.52808,10.2623,-0.000731539,0.000905468,0.00997608,0.0100966,-0.00992263,0.82633,0.0115582,0.0390984,1042,1744,3.52808,-10.2623
-175,-720,3.98413,10.579,-0.0010599,0.00394276,0.00937349,0.0111429,-0.00826007,0.915786,0.0112435,0.0432652,1049,1744,3.98409,-10.579
-168,-720,3.96252,10.6711,-0.000748725,0.00593365,0.00748215,0.0107867,-0.00560181,0.99539,0.00961848,0.0366193,1056,1744,3.96249,-10.6712
-161,-720,3.89929,10.7632,-0.000177206,0.00694856,0.00571538,0.0101206,-0.00334929,1.06412,0.00809779,0.0252384,1063,1744,3.89933,-10.7632
-154,-720,3.94604,10.9218,-0.000378349,0.00722493,0.00400744,0.00894706,-0.00210048,1.16492,0.0067743,0.0186363,1070,1744,3.94603,-10.9218
-147,-720,3.93274,11.0698,-0.000924306,0.00667986,0.00242425,0.00738696,-0.00163141,1.28699,0.00554897,0.0188506,1077,1744,3.93268,-11.0698
-140,-720,3.92578,11.1639,-0.0019544,0.00606829,0.00104611,0.00620245,-0.00208856,1.44324,0.00497937,0.0156998,1084,1744,3.92581,-11.1639
-133,-720,3.90698,11.2023,-0.00294361,0.00467325,0.00016783,0.00467695,-0.0029473,1.54878,0.00443946,0.0112996,1091,1744,3.90695,-11.2023
-126,-720,3.91943,11.2789,-0.00345282,0.0033554,-0.000456734,0.0033859,-0.00348333,-1.50411,0.00396608,0.0114851,1098,1744,3.91947,-11.279
-119,-720,3.93689,11.3673,-0.00347028,0.00228465,-0.000664231,0.00236032,-0.00354595,-1.45736,0.00343281,0.0137341,1105,1744,3.93692,-11.3673
-112,-720,3.90784,11.4319,-0.00321526,0.00128069,-0.000771795,0.00140949,-0.00334406,-1.40544,0.0028192,0.0122887,1112,1744,3.90778,-11.4318
-105,-720,3.89209,11.4911,-0.00295911,0.000514371,-0.000819106,0.000697839,-0.00314258,-1.35045,0.00236227,0.0115696,1119,1744,3.89203,-11.4911
-98,-720,3.90723,11.5671,-0.00273438,-8.28598e-05,-0.000845534,0.000163821,-0.00298106,-1.28693,0.00204417,0.00996128,1126,1744,3.90728,-11.5671
-91,-720,3.87646,11.644,-0.00246813,-0.000283731,-0.000764819,-4.25715e-05,-0.00270929,-1.26535,0.00179217,0.00918342,1133,1744,3.87644,-11.6441
-84,-720,3.87292,11.7104,-0.00210957,-0.000237207,-0.000599145,-6.18984e-05,-0.00228488,-1.28614,0.00150304,0.00983773,1140,1744,3.87294,-11.7104
-77,-720,3.88782,11.7821,-0.00153598,-0.000292549,-0.000486277,-0.000124964,-0.00170357,-1.23891,0.00109643,0.012167,1147,1744,3.88781,-11.7821
-70,-720,3.8772,11.8439,-0.00103835,-0.00032833,-0.000496798,-7.27329e-05,-0.00129394,-1.09563,0.000839436,0.0111882,1154,1744,3.87724,-11.8439
-63,-720,3.84009,11.9248,-0.000842445,-0.000270504,-0.000237896,-0.000184489,-0.00092846,-1.22385,0.000567562,0.010357,1161,1744,3.84007,-11.9248
-56,-720,3.86157,12.0044,-0.000593449,-6.82299e-05,-5.70422e-05,-6.21062e-05,-0.000599573,-1.46385,0.000380705,0.0119721,1168,1744,3.86156,-12.0044
-49,-720,3.85681,12.0465,-0.000236812,0.000136136,6.96499e-05,0.000148719,-0.000249395,1.39206,0.000232288,0.0186945,1175,1744,3.85685,-12.0465
-42,-720,3.89368,12.0509,0.000262087,0.000283967,0.00014688,0.000420314,0.00012574,0.822571,0.000249108,0.0198698,1182,1744,3.89362,-12.051
-35,-720,3.91003,12.0911,0.000373976,-5.32463e-05,0.000369519,0.000587183,-0.000266454,0.523326,0.00050431,0.0167703,1189,1744,3.91009,-12.091
-28,-720,3.88513,12.1641,0.000379251,-0.000457617,0.000761158,0.000829407,-0.000907773,0.534079,0.0010033,0.0104067,1196,1744,3.88508,-12.164
-21,-720,3.8761,12.2169,0.000295555,-0.0011333,0.00116789,0.0009502,-0.00178795,0.510899,0.00160535,0.0087131,1203,1744,3.87605,-12.2169
-14,-720,3.88025,12.2311,0.000172353,-0.0018161,0.00158891,0.00105246,-0.00269621,0.505837,0.00223257,0.0106748,1210,1744,3.88023,-12.2311
-7,-720,3.89441,12.29,1.68887e-05,-0.00238588,0.00203331,0.00117721,-0.0035462,0.518565,0.00283909,0.0119405,1217,1744,3.8944,-12.29
0,-720,3.9021,12.3378,-0.000127853,-0.00293356,0.00242653,0.00127215,-0.00433357,0.523306,0.00339353,0.0123489,1224,1744,3.90212,-12.3378
7,-720,3.89844,12.3392,-0.00023666,-0.00330033,0.00276111,0.00138907,-0.00492606,0.532142,0.00383193,0.0146552,1231,1744,3.89842,-12.3392
14,-720,3.91687,12.3678,-0.000331358,-0.00353902,0.00291662,0.00139332,-0.00526369,0.534018,0.00405418,0.0141277,1238,1744,3.91692,-12.3679
21,-720,3.90088,12.4276,-0.000381949,-0.00364099,0.00293322,0.00134399,-0.00536693,0.531855,0.00410005,0.011243,1245,1744,3.90085,-12.4276
28,-720,3.88403,12.4622,-0.000405918,-0.00365124,0.00288354,0.00128017,-0.00533733,0.529115,0.0040529,0.0109848,1252,1744,3.88402,-12.4622
35,-720,3.8938,12.4622,-0.000485503,-0.00351945,0.00272556,0.0011168,-0.00512175,0.53146,0.00384127,0.0107294,1259,1744,3.89383,-12.4621
42,-720,3.88623,12.4805,-0.000456719,-0.00330929,0.00257694,0.00106231,-0.00482832,0.532642,0.00362524,0.0108465,1266,1744,3.88619,-12.4805
49,-720,3.89124,12.4984,-0.000309585,-0.00320298,0.00236449,0.00101568,-0.00452824,0.510857,0.00340821,0.0116013,1273,1744,3.89127,-12.4984
56,-720,3.91431,12.5123,7.42736e-07,-0.00311608,0.00217009,0.00111402,-0.00422936,0.474002,0.00325509,0.0100335,1280,1744,3.91428,-12.5124
63,-720,3.92114,12.5049,0.000293977,-0.00293305,0.00216375,0.00137958,-0.00401865,0.465026,0.00323844,0.0115152,1287,1744,3.92111,-12.5049
70,-720,3.927,12.5081,0.000452689,-0.00294045,0.00221614,0.00154711,-0.00403487,0.458708,0.00332773,0.0126167,1294,1744,3.92699,-12.5081
77,-720,3.92078,12.5449,0.000551557,-0.00296846,0.002092,0.00152543,-0.00394233,0.435687,0.00325799,0.0143834,1301,1744,3.92084,-12.5449
84,-720,3.93457,12.5472,0.000650605,-0.0028688,0.00210217,0.00163238,-0.00385057,0.436923,0.00325079,0.013765,1308,1744,3.9346,-12.5472
91,-720,3.9491,12.5466,0.000807582,-0.00286602,0.00209918,0.00176011,-0.00381855,0.42598,0.00329312,0.0125324,1315,1744,3.94906,-12.5466
98,-720,3.9425,12.553,0.00096274,-0.00283746,0.00195373,0.00178797,-0.00366269,0.399657,0.00320839,0.0113841,1322,1744,3.94253,-12.553
105,-720,3.93811,12.54,0.0010312,-0.00271875,0.00176998,0.00173467,-0.00342222,0.378299,0.00303,0.0115882,1329,1744,3.9381,-12.5401
112,-720,3.95081,12.5322,0.00106955,-0.00250107,0.00149522,0.00161298,-0.0030445,0.348601,0.002731,0.0112021,1336,1744,3.95081,-12.5322
119,-720,3.95508,12.5405,0.00109307,-0.0022696,0.00118989,0.00147152,-0.00264805,0.307939,0.00241055,0.0117872,1343,1744,3.95504,-12.5405
126,-720,3.95569,12.5236,0.0011368,-0.00191819,0.000783711,0.00132611,-0.00210751,0.237024,0.00199944,0.0116173,1350,1744,3.95573,-12.5235
133,-720,3.95117,12.4987,0.00113442,-0.00151128,0.000397106,0.00119274,-0.0015696,0.145816,0.00159977,0.0119537,1357,1744,3.95113,-12.4986
140,-720,3.97058,12.485,0.00118602,-0.00109136,9.95225e-05,0.00119036,-0.0010957,0.0435897,0.00132024,0.0183393,1364,1744,3.97055,-12.485
147,-720,3.95911,12.4403,0.00117202,-0.000662445,-0.000181384,0.00118978,-0.000680208,-0.0976161,0.00109292,0.0187235,1371,1744,3.95914,-12.4403
154,-720,3.95117,12.4005,0.00109689,-6.64359e-05,-0.000347848,0.00119297,-0.000162511,-0.269481,0.00085465,0.0119651,1378,1744,3.95115,-12.4005
161,-720,3.96851,12.3778,0.00101627,0.000413537,-0.000479735,0.00128144,0.000148364,-0.504951,0.000809387,0.00909025,1385,1744,3.96855,-12.3778
168,-720,3.96472,12.3539,0.000820465,0.000594809,-0.000695755,0.00141248,2.79309e-06,-0.705015,0.000940724,0.00951557,1392,1744,3.96471,-12.3539
175,-720,3.9718,12.3225,0.000688358,0.000814932,-0.000897237,0.00165111,-0.000147821,-0.820608,0.00115318,0.0152783,1399,1744,3.97183,-12.3225
182,-720,3.98364,12.2949,0.000681654,0.00108541,-0.00104202,0.00194493,-0.000177867,-0.881081,0.00135979,0.0150647,1406,1744,3.98365,-12.2949
189,-720,3.98303,12.2681,0.000613983,0.00119343,-0.00126705,0.00220346,-0.00039604,-0.897796,0.00161723,0.0127309,1413,1744,3.98306,-12.2681
196,-720,3.97717,12.2383,0.000386615,0.00135445,-0.00154272,0.00248737,-0.000746304,-0.937378,0.00195509,0.0125674,1420,1744,3.97716,-12.2383
203,-720,3.98438,12.1847,0.000143461,0.00150572,-0.0017562,0.00270825,-0.00105907,-0.97039,0.00224345,0.013871,1427,1744,3.98436,-12.1847
210,-720,3.99744,12.1295,0.000135658,0.00153787,-0.00201957,0.00297457,-0.00130105,-0.952467,0.00253078,0.0122206,1434,1744,3.99748,-12.1295
217,-720,3.96667,12.0605,0.000121582,0.00145408,-0.0022999,0.00318228,-0.00160662,-0.926382,0.00281432,0.0113489,1441,1744,3.96665,-12.0605
224,-720,3.95654,11.9974,-2.82892e-05,0.00145437,-0.00248562,0.00330686,-0.00188078,-0.930322,0.00303257,0.00928282,1448,1744,3.9566,-11.9975
231,-720,3.96985,11.9441,-0.000259275,0.0012814,-0.00254214,0.00316736,-0.00214523,-0.932514,0.00308609,0.0101114,1455,1744,3.96979,-11.9441
238,-720,3.9469,11.8794,-0.000305816,0.0012253,-0.00260368,0.00317364,-0.00225416,-0.928383,0.00314869,0.0087977,1462,1744,3.94685,-11.8794
245,-720,3.95679,11.8401,-0.00040967,0.00121433,-0.00260028,0.00312645,-0.00232179,-0.936737,0.00315696,0.0107139,1469,1744,3.95678,-11.8401
252,-720,3.97205,11.7865,0.000462698,0.00103266,-0.00144085,0.00221644,-0.000721085,-0.883031,0.00176771,0.0104568,1476,1744,3.972,-11.7865
259,-720,3.97449,11.7208,0.00136503,0.00114425,0.000179103,0.00146503,0.00104425,0.509212,0.000870993,0.00929589,1483,1744,3.97445,-11.7208
266,-720,3.95642,11.6603,0.00299929,-0.000212739,0.00336638,0.00512313,-0.00233658,0.562829,0.00440589,0.00783085,1490,1744,3.95648,-11.6603
273,-720,3.9436,11.5815,0.00439076,-0.000861024,0.00613959,0.00844244,-0.0049127,0.583321,0.00779984,0.0127852,1497,1744,3.94359,-11.5815
280,-720,3.90869,11.5032,0.00598247,-0.00176556,0.00934311,0.0122229,-0.00800597,0.588867,0.0117634,0.0168849,1504,1744,3.90874,-11.5031
287,-720,3.87195,11.3788,0.00767804,-0.00323012,0.0129921,0.0163145,-0.0118666,0.58667,0.0163377,0.0263036,1511,1744,3.87195,-11.3788
294,-720,3.88184,11.2648,0.00950224,-0.0043425,0.0166035,0.0205686,-0.0154089,0.587893,0.0208427,0.0315165,1518,1744,3.88189,-11.2647
301,-720,3.80603,11.1418,0.0118969,-0.00623319,0.020862,0.0255782,-0.0199146,0.580444,0.0263331,0.0320755,1525,1744,3.80604,-11.1418
308,-720,3.91846,10.9501,0.0142767,-0.00878928,0.0244879,0.0298116,-0.0243242,0.565322,0.0313088,0.0332977,1532,1744,3.91846,-10.9501
315,-720,4.21912,10.9301,0.016315,-0.0111488,0.0279231,0.0337,-0.0285338,0.556874,0.035972,0.0408128,1539,1744,4.21916,-10.93
322,-720,3.8927,10.8173,0,0,0,0,0,0,0,-1,1546,1744,3.89273,-10.8173
329,-720,4.00098,10.7614,0,0,0,0,0,0,0,-1,1553,1744,4.00097,-10.7613
336,-720,3.8623,11.5537,0,0,0,0,0,0,0,-1,1560,1744,3.86229,-11.5537
343,-720,4.27026,9.90381,0,0,0,0,0,0,0,-1,1567,1744,4.2703,-9.9038
350,-720,1.4729,11.5305,0,0,0,0,0,0,0,-1,1574,1744,1.47292,-11.5305
357,-720,3.11255,11.4614,0,0,0,0,0,0,0,-1,1581,1744,3.1126,-11.4614
364,-720,3.53503,11.1675,0,0,0,0,0,0,0,-1,1588,1744,3.53501,-11.1674
371,-720,2.21338,8.89368,0,0,0,0,0,0,0,-1,1595,1744,2.21342,-8.89367
378,-720,2.21692,9.76758,0.0265099,0.0217403,0.0907218,0.114878,-0.0666281,0.772258,0.10602,0.0465255,1602,1744,2.21689,-9.76754
385,-720,2.49146,10.726,0.0266042,0.0300956,0.0991032,0.127468,-0.0707687,0.794205,0.116002,0.0451349,1609,1744,2.49147,-10.726
392,-720,2.42578,11.8109,0,0,0,0,0,0,0,-1,1616,1744,2.42579,-11.8109
399,-720,2.69519,11.8286,0,0,0,0,0,0,0,-1,1623,1744,2.69524,-11.8286
406,-720,0,0,0,0,0,0,0,0,0,-1,1630,1744,0,0
413,-720,0,0,0,0,0,0,0,0,0,-1,1637,1744,0,0
420,-720,0,0,0,0,0,0,0,0,0,-1,1644,1744,0,0
427,-720,0,0,0,0,0,0,0,0,0,-1,1651,1744,0,0
434,-720,0,0,0,0,0,0,0,0,0,-1,1658,1744,0,0
441,-720,0,0,0,0,0,0,0,0,0,-1,1665,1744,0,0
448,-720,0,0,0,0,0,0,0,0,0,-1,1672,1744,0,0
455,-720,0,0,0,0,0,0,0,0,0,-1,1679,1744,0,0
462,-720,0,0,0,0,0,0,0,0,0,-1,1686,1744,0,0
469,-720,0,0,0,0,0,0,0,0,0,-1,1693,1744,0,0
476,-720,0,0,0,0,0,0,0,0,0,-1,1700,1744,0,0
483,-720,0,0,0,0,0,0,0,0,0,-1,1707,1744,0,0
490,-720,0,0,0,0,0,0,0,0,0,-1,1714,1744,0,0
497,-720,0,0,0,0,0,0,0,0,0,-1,1721,1744,0,0
504,-720,0,0,0,0,0,0,0,0,0,-1,1728,1744,0,0
511,-720,0,0,0,0,0,0,0,0,0,-1,1735,1744,0,0
518,-720,0,0,0,0,0,0,0,0,0,-1,1742,1744,0,0
525,-720,0,0,0,0,0,0,0,0,0,-1,1749,1744,0,0
532,-720,0,0,0,0,0,0,0,0,0,-1,1756,1744,0,0
539,-720,0,0,0,0,0,0,0,0,0,-1,1763,1744,0,0
546,-720,0,0,0,0,0,0,0,0,0,-1,1770,1744,0,0
553,-720,0,0,0,0,0,0,0,0,0,-1,1777,1744,0,0
560,-720,0,0,0,0,0,0,0,0,0,-1,1784,1744,0,0
567,-720,0,0,0,0,0,0,0,0,0,-1,1791,1744,0,0
574,-720,0,0,0,0,0,0,0,0,0,-1,1798,1744,0,0
581,-720,0,0,0,0,0,0,0,0,0,-1,1805,1744,0,0
588,-720,0,0,0,0,0,0,0,0,0,-1,1812,1744,0,0
595,-720,0,0,0,0,0,0,0,0,0,-1,1819,1744,0,0
602,-720,0,0,0,0,0,0,0,0,0,-1,1826,1744,0,0
609,-720,0,0,0,0,0,0,0,0,0,-1,1833,1744,0,0
616,-720,0,0,0,0,0,0,0,0,0,-1,1840,1744,0,0
623,-720,0,0,0,0,0,0,0,0,0,-1,1847,1744,0,0
630,-720,0,0,0,0,0,0,0,0,0,-1,1854,1744,0,0
637,-720,0,0,0,0,0,0,0,0,0,-1,1861,1744,0,0
644,-720,0,0,0,0,0,0,0,0,0,-1,1868,1744,0,0
651,-720,0,0,0,0,0,0,0,0,0,-1,1875,1744,0,0
658,-720,0,0,0,0,0,0,0,0,0,-1,1882,1744,0,0
665,-720,0,0,0,0,0,0,0,0,0,-1,1889,1744,0,0
672,-720,0,0,0,0,0,0,0,0,0,-1,1896,1744,0,0
679,-720,0,0,0,0,0,0,0,0,0,-1,1903,1744,0,0
686,-720,0,0,0,0,0,0,0,0,0,-1,1910,1744,0,0
693,-720,0,0,0,0,0,0,0,0,0,-1,1917,1744,0,0
700,-720,0,0,0,0,0,0,0,0,0,-1,1924,1744,0,0
707,-720,0,0,0,0,0,0,0,0,0,-1,1931,1744,0,0
714,-720,0,0,0,0,0,0,0,0,0,-1,1938,1744,0,0
721,-720,0,0,0,0,0,0,0,0,0,-1,1945,1744,0,0
728,-720,0,0,0,0,0,0,0,0,0,-1,1952,1744,0,0
735,-720,0,0,0,0,0,0,0,0,0,-1,1959,1744,0,0
742,-720,0,0,0,0,0,0,0,0,0,-1,1966,1744,0,0
749,-720,0,0,0,0,0,0,0,0,0,-1,1973,1744,0,0
756,-720,0,0,0,0,0,0,0,0,0,-1,1980,1744,0,0
763,-720,0,0,0,0,0,0,0,0,0,-1,1987,1744,0,0
770,-720,0,0,0,0,0,0,0,0,0,-1,1994,1744,0,0
777,-720,0,0,0,0,0,0,0,0,0,-1,2001,1744,0,0
784,-720,0,0,0,0,0,0,0,0,0,-1,2008,1744,0,0
791,-720,0,0,0,0,0,0,0,0,0,-1,2015,1744,0,0
798,-720,0,0,0,0,0,0,0,0,0,-1,2022,1744,0,0
805,-720,0,0,0,0,0,0,0,0,0,-1,2029,1744,0,0
812,-720,0,0,0,0,0,0,0,0,0,-1,2036,1744,0,0
-700,-727,0,0,0,0,0,0,0,0,0,-1,524,1751,0,0
-693,-727,0,0,0,0,0,0,0,0,0,-1,531,1751,0,0
-686,-727,0,0,0,0,0,0,0,0,0,-1,538,1751,0,0
-679,-727,0,0,0,0,0,0,0,0,0,-1,545,1751,0,0
-672,-727,0,0,0,0,0,0,0,0,0,-1,552,1751,0,0
-665,-727,0,0,0,0,0,0,0,0,0,-1,559,1751,0,0
-658,-727,0,0,0,0,0,0,0,0,0,-1,566,1751,0,0
-651,-727,0,0,0,0,0,0,0,0,0,-1,573,1751,0,0
-644,-727,0,0,0,0,0,0,0,0,0,-1,580,1751,0,0
-637,-727,0,0,0,0,0,0,0,0,0,-1,587,1751,0,0
-630,-727,0,0,0,0,0,0,0,0,0,-1,594,1751,0,0
-623,-727,0,0,0,0,0,0,0,0,0,-1,601,1751,0,0
-616,-727,0,0,0,0,0,0,0,0,0,-1,608,1751,0,0
-609,-727,0,0,0,0,0,0,0,0,0,-1,615,1751,0,0
-602,-727,0,0,0,0,0,0,0,0,0,-1,622,1751,0,0
-595,-727,0,0,0,0,0,0,0,0,0,-1,629,1751,0,0
-588,-727,0,0,0,0,0,0,0,0,0,-1,636,1751,0,0
-581,-727,0,0,0,0,0,0,0,0,0,-1,643,1751,0,0
-574,-727,0,0,0,0,0,0,0,0,0,-1,650,1751,0,0
-567,-727,0,0,0,0,0,0,0,0,0,-1,657,1751,0,0
-560,-727,0,0,0,0,0,0,0,0,0,-1,664,1751,0,0
-553,-727,0,0,0,0,0,0,0,0,0,-1,671,1751,0,0
-546,-727,0,0,0,0,0,0,0,0,0,-1,678,1751,0,0
-539,-727,0,0,0,0,0,0,0,0,0,-1,685,1751,0,0
-532,-727,0,0,0,0,0,0,0,0,0,-1,692,1751,0,0
-525,-727,0,0,0,0,0,0,0,0,0,-1,699,1751,0,0
-518,-727,0,0,0,0,0,0,0,0,0,-1,706,1751,0,0
-511,-727,0,0,0,0,0,0,0,0,0,-1,713,1751,0,0
-504,-727,0,0,0,0,0,0,0,0,0,-1,720,1751,0,0
-497,-727,0,0,0,0,0,0,0,0,0,-1,727,1751,0,0
-490,-727,0,0,0,0,0,0,0,0,0,-1,734,1751,0,0
-483,-727,0,0,0,0,0,0,0,0,0,-1,741,1751,0,0
-476,-727,0,0,0,0,0,0,0,0,0,-1,748,1751,0,0
-469,-727,0,0,0,0,0,0,0,0,0,-1,755,1751,0,0
-462,-727,0,0,0,0,0,0,0,0,0,-1,762,1751,0,0
-455,-727,0,0,0,0,0,0,0,0,0,-1,769,1751,0,0
-448,-727,0,0,0,0,0,0,0,0,0,-1,776,1751,0,0
-441,-727,0,0,0,0,0,0,0,0,0,-1,783,1751,0,0
-434,-727,0,0,0,0,0,0,0,0,0,-1,790,1751,0,0
-427,-727,0,0,0,0,0,0,0,0,0,-1,797,1751,0,0
-420,-727,0,0,0,0,0,0,0,0,0,-1,804,1751,0,0
-413,-727,0,0,0,0,0,0,0,0,0,-1,811,1751,0,0
-406,-727,0,0,0,0,0,0,0,0,0,-1,818,1751,0,0
-399,-727,0,0,0,0,0,0,0,0,0,-1,825,1751,0,0
-392,-727,0,0,0,0,0,0,0,0,0,-1,832,1751,0,0
-385,-727,0,0,0,0,0,0,0,0,0,-1,839,1751,0,0
-378,-727,0,0,0,0,0,0,0,0,0,-1,846,1751,0,0
-371,-727,0,0,0,0,0,0,0,0,0,-1,853,1751,0,0
-364,-727,0,0,0,0,0,0,0,0,0,-1,860,1751,0,0
-357,-727,0,0,0,0,0,0,0,0,0,-1,867,1751,0,0
-350,-727,0,0,0,0,0,0,0,0,0,-1,874,1751,0,0
-343,-727,0,0,0,0,0,0,0,0,0,-1,881,1751,0,0
-336,-727,0,0,0,0,0,0,0,0,0,-1,888,1751,0,0
-329,-727,0,0,0,0,0,0,0,0,0,-1,895,1751,0,0
-322,-727,0,0,0,0,0,0,0,0,0,-1,902,1751,0,0
-315,-727,0,0,0,0,0,0,0,0,0,-1,909,1751,0,0
-308,-727,0,0,0,0,0,0,0,0,0,-1,916,1751,0,0
-301,-727,0,0,0,0,0,0,0,0,0,-1,923,1751,0,0
-294,-727,0,0,0,0,0,0,0,0,0,-1,930,1751,0,0
-287,-727,0,0,0,0,0,0,0,0,0,-1,937,1751,0,0
-280,-727,0,0,0,0,0,0,0,0,0,-1,944,1751,0,0
-273,-727,0,0,0,0,0,0,0,0,0,-1,951,1751,0,0
-266,-727,4.24805,7.61145,0,0,0,0,0,0,0,-1,958,1751,4.24802,-7.6115
-259,-727,3.65228,5.4082,0,0,0,0,0,0,0,-1,965,1751,3.65229,-5.40818
-252,-727,4.98651,6.28906,0,0,0,0,0,0,0,-1,972,1751,4.98649,-6.28908
-245,-727,6.25244,7.34888,0,0,0,0,0,0,0,-1,979,1751,6.25241,-7.3489
-238,-727,3.43726,11.474,0,0,0,0,0,0,0,-1,986,1751,3.43724,-11.4739
-231,-727,4.32928,10.8787,0,0,0,0,0,0,0,-1,993,1751,4.32926,-10.8787
-224,-727,3.70959,10.6321,0,0,0,0,0,0,0,-1,1000,1751,3.70959,-10.6321
-217,-727,3.52795,10.6027,-0.0178438,-0.0177141,0.00781648,-0.00996221,-0.0255957,0.789544,0.0148981,0.0466048,1007,1751,3.52797,-10.6026
-210,-727,3.32007,10.5781,-0.0140251,-0.0150701,0.011198,-0.00333744,-0.0257578,0.762083,0.0161745,0.0455508,1014,1751,3.32006,-10.5781
-203,-727,2.86731,10.5156,-0.00997301,-0.010717,0.0134611,0.00312123,-0.0238113,0.771584,0.0170103,0.0457001,1021,1751,2.86731,-10.5157
-196,-727,2.71667,10.2625,0,0,0,0,0,0,0,-1,1028,1751,2.71665,-10.2625
-189,-727,3.05396,9.88745,0,0,0,0,0,0,0,-1,1035,1751,3.05391,-9.88742
-182,-727,3.34167,10.0779,0,0,0,0,0,0,0,-1,1042,1751,3.34167,-10.0779
-175,-727,4.05359,10.5217,0,0,0,0,0,0,0,-1,1049,1751,4.05356,-10.5217
-168,-727,3.97839,10.6309,0,0,0,0,0,0,0,-1,1056,1751,3.97834,-10.6309
-161,-727,3.92993,10.7599,0,0,0,0,0,0,0,-1,1063,1751,3.92999,-10.7599
-154,-727,3.93494,10.6804,-0.0014761,0.00963024,0.00420002,0.0110397,-0.00288553,1.24703,0.00848675,0.0429897,1070,1751,3.93496,-10.6805
-147,-727,3.96521,10.9536,-0.00229121,0.00870457,0.00218309,0.00912215,-0.00270878,1.3818,0.00715731,0.0351803,1077,1751,3.96527,-10.9536
-140,-727,3.96765,11.0109,-0.00366465,0.00781212,0.000400211,0.00782606,-0.00367859,1.53598,0.00678456,0.0246635,1084,1751,3.96762,-11.0108
-133,-727,4.02576,11.1132,-0.00494258,0.005971,-0.000709068,0.00601688,-0.00498846,-1.50619,0.00636318,0.0181004,1091,1751,4.0257,-11.1132
-126,-727,3.96313,11.2479,-0.00557369,0.00428226,-0.00147776,0.00449906,-0.00579049,-1.42513,0.00595625,0.0126367,1098,1751,3.96309,-11.2479
-119,-727,3.96289,11.364,-0.00558422,0.00289142,-0.00171835,0.00322655,-0.00591935,-1.37819,0.00535613,0.0110558,1105,1751,3.96289,-11.3641
-112,-727,3.9563,11.4288,-0.00528644,0.00162643,-0.0018171,0.00207496,-0.00573497,-1.32879,0.0046712,0.012858,1112,1751,3.95634,-11.4289
-105,-727,3.91895,11.5065,-0.00499686,0.000618761,-0.00182699,0.00116083,-0.00553893,-1.28237,0.00413425,0.0130462,1119,1751,3.91898,-11.5065
-98,-727,3.94934,11.5818,-0.00475276,-0.000148774,-0.00179827,0.00047035,-0.00537189,-1.23922,0.00374789,0.0111975,1126,1751,3.94931,-11.5818
-91,-727,3.9613,11.6393,-0.00446258,-0.000473952,-0.0016444,0.000116565,-0.0050531,-1.22603,0.00340825,0.0103715,1133,1751,3.96127,-11.6393
-84,-727,3.93872,11.7123,-0.00402806,-0.000501861,-0.00139883,-1.43473e-05,-0.00451557,-1.23545,0.00300561,0.0103799,1140,1751,3.93875,-11.7122
-77,-727,3.94397,11.7749,-0.00326396,-0.000699789,-0.00118786,-0.000234092,-0.00372965,-1.19716,0.00241219,0.0116382,1147,1751,3.94402,-11.7749
-70,-727,3.93774,11.839,-0.00256435,-0.000830766,-0.00111881,-0.000282264,-0.00311285,-1.11497,0.00198784,0.0126241,1154,1751,3.93774,-11.839
-63,-727,3.92249,11.9299,-0.00231041,-0.000805629,-0.000581585,-0.000607056,-0.00250898,-1.24177,0.0015115,0.00984802,1161,1751,3.92245,-11.93
-56,-727,3.91809,11.9873,-0.0019671,-0.000383372,-0.000240219,-0.000347738,-0.00200274,-1.42353,0.00123566,0.0100092,1168,1751,3.91815,-11.9873
-49,-727,3.92761,12.0306,-0.00125968,0.000317206,-0.000184114,0.000338418,-0.00128089,-1.45609,0.00098628,0.0140084,1175,1751,3.92756,-12.0307
-42,-727,3.92065,12.067,-0.000300282,0.00100889,-0.000311534,0.00107924,-0.000370635,-1.34869,0.000869773,0.0166104,1182,1751,3.92064,-12.067
-35,-727,3.88745,12.0991,-0.000132192,0.000699744,-0.000264579,0.000776758,-0.000209206,-1.28754,0.00059986,0.014332,1189,1751,3.88749,-12.0991
-28,-727,3.91321,12.1508,1.11018e-05,0.000296826,6.82102e-05,0.000312274,-4.34657e-06,1.34807,0.000209647,0.00877891,1196,1751,3.91315,-12.1508
-21,-727,3.92737,12.2051,0.00012768,-0.000353523,0.000436565,0.000385555,-0.000611397,0.533545,0.000580492,0.0093285,1203,1751,3.92738,-12.205
-14,-727,3.92114,12.2297,0.00011472,-0.000786734,0.000753712,0.000542194,-0.00121421,0.515921,0.00103851,0.010565,1210,1751,3.92117,-12.2298
-7,-727,3.93665,12.3024,1.56318e-05,-0.00120797,0.00108244,0.000647206,-0.00183955,0.528177,0.00148972,0.0141782,1217,1751,3.93663,-12.3023
0,-727,3.94275,12.3552,-0.000124264,-0.00160468,0.00140574,0.000724244,-0.00245319,0.543063,0.00192289,0.0141842,1224,1751,3.94272,-12.3552
7,-727,3.92603,12.3456,-0.000229011,-0.00191947,0.0016751,0.000802021,-0.0029505,0.551743,0.00228182,0.01361,1231,1751,3.926,-12.3456
14,-727,3.93445,12.3928,-0.000367503,-0.00216068,0.00178128,0.000730111,-0.0032583,0.552241,0.00245207,0.0130194,1238,1751,3.93444,-12.3928
21,-727,3.9231,12.4491,-0.000564131,-0.00221428,0.00180423,0.000594723,-0.00337314,0.570943,0.00247097,0.0107077,1245,1751,3.92312,-12.4491
28,-727,3.92712,12.4623,-0.000768735,-0.00221947,0.00179518,0.000442086,-0.0034303,0.593395,0.00244757,0.0103928,1252,1751,3.92712,-12.4623
35,-727,3.94897,12.4601,-0.000888211,-0.00214941,0.00172447,0.000317343,-0.00335497,0.610112,0.00234958,0.0113971,1259,1751,3.94897,-12.46
42,-727,3.92346,12.4735,-0.000896691,-0.00198421,0.00162765,0.000275627,-0.00315653,0.624189,0.00220198,0.0114556,1266,1751,3.92344,-12.4735
49,-727,3.90649,12.4973,-0.000825574,-0.00186053,0.00143126,0.000178885,-0.00286499,0.611933,0.00197233,0.0107069,1273,1751,3.90645,-12.4973
56,-727,3.91821,12.522,-0.000646342,-0.00177796,0.00129834,0.000204119,-0.00262842,0.579909,0.00182413,0.00982124,1280,1751,3.91815,-12.522
63,-727,3.93176,12.5227,-0.000369126,-0.00156949,0.0012914,0.000454749,-0.00239337,0.567871,0.00176678,0.0117169,1287,1751,3.93171,-12.5227
70,-727,3.94055,12.5198,-9.76354e-05,-0.00147274,0.00122561,0.000620105,-0.00219048,0.529778,0.00170504,0.0133912,1294,1751,3.94049,-12.5197
77,-727,3.93787,12.5521,0.000122012,-0.00141959,0.000995967,0.00061061,-0.00190818,0.456081,0.00151719,0.0150382,1301,1751,3.93785,-12.5521
84,-727,3.94263,12.531,0.000314356,-0.0012241,0.000884789,0.000717546,-0.00162729,0.427576,0.00138734,0.0149688,1308,1751,3.94266,-12.531
91,-727,3.95117,12.5292,0.000640694,-0.00124183,0.000806159,0.000938733,-0.00153987,0.354118,0.00144498,0.0151647,1315,1751,3.95119,-12.5292
98,-727,3.95532,12.5431,0.000993696,-0.00120024,0.00059193,0.00114321,-0.00134975,0.247414,0.00144096,0.0128561,1322,1751,3.95526,-12.5431
105,-727,3.95862,12.5377,0.00121234,-0.00115206,0.000347574,0.00126237,-0.00120209,0.142975,0.001423,0.0125553,1329,1751,3.95865,-12.5378
112,-727,3.95618,12.5326,0.00132024,-0.00104013,6.96694e-05,0.00132229,-0.00104218,0.0294822,0.00136832,0.011328,1336,1751,3.95617,-12.5326
119,-727,3.95801,12.5313,0.00142729,-0.000940969,-0.000204079,0.00144475,-0.000958426,-0.0853344,0.00139691,0.00952564,1343,1751,3.95801,-12.5312
126,-727,3.95801,12.4838,0.00159619,-0.00080168,-0.000578119,0.00172829,-0.000933785,-0.224651,0.0015596,0.0107828,1350,1751,3.95805,-12.4838
133,-727,3.95215,12.4583,0.00167497,-0.00057975,-0.000906165,0.00199401,-0.000898791,-0.338525,0.00170959,0.0148903,1357,1751,3.9522,-12.4583
140,-727,3.96289,12.4725,0.00166385,-0.000309943,-0.00113725,0.00218271,-0.000828806,-0.428033,0.00179632,0.0223112,1364,1751,3.96287,-12.4726
147,-727,3.95691,12.4302,0.00164029,-5.89343e-05,-0.00128575,0.00233178,-0.000750424,-0.493437,0.00185594,0.0187418,1371,1751,3.95688,-12.4302
154,-727,3.95789,12.3832,0.00160935,0.000321696,-0.00130841,0.00242376,-0.000492716,-0.556757,0.00180267,0.0104744,1378,1751,3.95788,-12.3832
161,-727,3.94641,12.3712,0.00155936,0.000640811,-0.0013174,0.00249525,-0.000295079,-0.617676,0.00177007,0.0083628,1385,1751,3.94644,-12.3712
168,-727,3.9187,12.3529,0.00128207,0.000754628,-0.00154976,0.00259038,-0.000553689,-0.701122,0.00193803,0.011477,1392,1751,3.9187,-12.3529
175,-727,3.93494,12.3248,0.00100457,0.00103947,-0.00176244,0.00278455,-0.000740504,-0.790349,0.00214621,0.0171901,1399,1751,3.93491,-12.3248
182,-727,3.96692,12.296,0.00102475,0.00146993,-0.00206692,0.00332621,-0.000831536,-0.839037,0.00254043,0.0187867,1406,1751,3.96689,-12.296
189,-727,3.93115,12.2537,0.00107675,0.00161379,-0.0025164,0.00387595,-0.00118541,-0.838551,0.00305671,0.011835,1413,1751,3.93111,-12.2536
196,-727,3.93274,12.2241,0.000850028,0.0018781,-0.00300818,0.00441585,-0.00168772,-0.870021,0.00363934,0.0128754,1420,1751,3.93279,-12.2241
203,-727,3.94849,12.1667,0.000583456,0.00214856,-0.0032962,0.00475383,-0.00202181,-0.901946,0.00401652,0.0144921,1427,1751,3.94847,-12.1667
210,-727,3.94983,12.1179,0.00066091,0.00227985,-0.00364265,0.00520188,-0.00226113,-0.894732,0.00441887,0.0140447,1434,1751,3.94985,-12.1179
217,-727,3.9209,12.0641,0.000693897,0.00222247,-0.00396685,0.00549799,-0.00258162,-0.880566,0.00476498,0.0110685,1441,1751,3.92091,-12.0641
224,-727,3.89526,11.9723,0.000470439,0.00225745,-0.00413768,0.005597,-0.00286911,-0.891737,0.00497177,0.012427,1448,1751,3.89529,-11.9723
231,-727,3.90039,11.9202,0.000127893,0.00204114,-0.00412688,0.00532082,-0.00315179,-0.899288,0.00494481,0.0102504,1455,1751,3.90035,-11.9202
238,-727,3.90356,11.87,4.26381e-06,0.00195611,-0.00411226,0.00520666,-0.00324629,-0.901903,0.00492386,0.00997732,1462,1751,3.90353,-11.87
245,-727,3.91199,11.8223,-0.00020708,0.00190573,-0.00399752,0.00498407,-0.00328542,-0.914578,0.00480785,0.00911574,1469,1751,3.91195,-11.8223
252,-727,3.9032,11.7657,0.0012402,0.00114404,-0.00190351,0.00309624,-0.000711993,-0.772772,0.00233791,0.0102031,1476,1751,3.90316,-11.7658
259,-727,3.91833,11.6862,0.00249226,0.00091785,0.000722208,0.00277336,0.00063675,0.371181,0.00167744,0.0142599,1483,1751,3.91838,-11.6861
266,-727,3.98206,11.6829,0.00489182,-0.00165884,0.00578587,0.00826511,-0.00503212,0.527841,0.00775243,0.0199561,1490,1751,3.98209,-11.6828
273,-727,4.05505,11.6525,0.00695581,-0.00326648,0.0102513,0.0132995,-0.00961012,0.55414,0.0132839,0.0319016,1497,1751,4.05501,-11.6525
280,-727,3.8335,11.5435,0.00935204,-0.00534167,0.0153176,0.0189936,-0.0149832,0.561786,0.019662,0.0467689,1504,1751,3.83354,-11.5434
287,-727,3.69336,11.4152,0,0,0,0,0,0,0,-1,1511,1751,3.69336,-11.4152
294,-727,3.77222,11.189,0,0,0,0,0,0,0,-1,1518,1751,3.77218,-11.189
301,-727,3.50244,10.6704,0.0180572,-0.013181,0.0324355,0.0384384,-0.0335622,0.561012,0.0416013,0.0471523,1525,1751,3.5024,-10.6704
308,-727,3.8717,10.599,0.0213116,-0.0167897,0.0376482,0.0444547,-0.0399328,0.551173,0.0487445,0.0431737,1532,1751,3.87174,-10.599
315,-727,4.32056,10.6469,0,0,0,0,0,0,0,-1,1539,1751,4.32051,-10.6469
322,-727,4.89441,9.52026,0,0,0,0,0,0,0,-1,1546,1751,4.89445,-9.5203
329,-727,6.61853,11.6267,0,0,0,0,0,0,0,-1,1553,1751,6.61859,-11.6267
336,-727,3.34875,7.61792,0,0,0,0,0,0,0,-1,1560,1751,3.34872,-7.61791
343,-727,2.41699,8.72095,0,0,0,0,0,0,0,-1,1567,1751,2.41702,-8.72098
350,-727,3.89783,7.50195,0,0,0,0,0,0,0,-1,1574,1751,3.89782,-7.50193
357,-727,1.34595,5.08008,0,0,0,0,0,0,0,-1,1581,1751,1.34592,-5.08005
364,-727,1.62598,6.45728,0,0,0,0,0,0,0,-1,1588,1751,1.62603,-6.45724
371,-727,1.81128,8.06897,0,0,0,0,0,0,0,-1,1595,1751,1.81125,-8.06896
378,-727,1.68237,9.37512,0.0285296,0.0274518,0.122373,0.150365,-0.0943832,0.783196,0.142532,0.0467015,1602,1751,1.68242,-9.3751
385,-727,1.4812,10.5988,0.0277999,0.0372926,0.131753,0.164385,-0.0992921,0.803403,0.153772,0.0456355,1609,1751,1.48121,-10.5987
392,-727,0,0,0,0,0,0,0,0,0,-1,1616,1751,0,0
399,-727,0,0,0,0,0,0,0,0,0,-1,1623,1751,0,0
406,-727,0,0,0,0,0,0,0,0,0,-1,1630,1751,0,0
413,-727,0,0,0,0,0,0,0,0,0,-1,1637,1751,0,0
420,-727,0,0,0,0,0,0,0,0,0,-1,1644,1751,0,0
427,-727,0,0,0,0,0,0,0,0,0,-1,1651,1751,0,0
434,-727,0,0,0,0,0,0,0,0,0,-1,1658,1751,0,0
441,-727,0,0,0,0,0,0,0,0,0,-1,1665,1751,0,0
448,-727,0,0,0,0,0,0,0,0,0,-1,1672,1751,0,0
455,-727,0,0,0,0,0,0,0,0,0,-1,1679,1751,0,0
462,-727,0,0,0,0,0,0,0,0,0,-1,1686,1751,0,0
469,-727,0,0,0,0,0,0,0,0,0,-1,1693,1751,0,0
476,-727,0,0,0,0,0,0,0,0,0,-1,1700,1751,0,0
483,-727,0,0,0,0,0,0,0,0,0,-1,1707,1751,0,0
490,-727,0,0,0,0,0,0,0,0,0,-1,1714,1751,0,0
497,-727,0,0,0,0,0,0,0,0,0,-1,1721,1751,0,0
504,-727,0,0,0,0,0,0,0,0,0,-1,1728,1751,0,0
511,-727,0,0,0,0,0,0,0,0,0,-1,1735,1751,0,0
518,-727,0,0,0,0,0,0,0,0,0,-1,1742,1751,0,0
525,-727,0,0,0,0,0,0,0,0,0,-1,1749,1751,0,0
532,-727,0,0,0,0,0,0,0,0,0,-1,1756,1751,0,0
539,-727,0,0,0,0,0,0,0,0,0,-1,1763,1751,0,0
546,-727,0,0,0,0,0,0,0,0,0,-1,1770,1751,0,0
553,-727,0,0,0,0,0,0,0,0,0,-1,1777,1751,0,0
560,-727,0,0,0,0,0,0,0,0,0,-1,1784,1751,0,0
567,-727,0,0,0,0,0,0,0,0,0,-1,1791,1751,0,0
574,-727,0,0,0,0,0,0,0,0,0,-1,1798,1751,0,0
581,-727,0,0,0,0,0,0,0,0,0,-1,1805,1751,0,0
588,-727,0,0,0,0,0,0,0,0,0,-1,1812,1751,0,0
595,-727,0,0,0,0,0,0,0,0,0,-1,1819,1751,0,0
602,-727,0,0,0,0,0,0,0,0,0,-1,1826,1751,0,0
609,-727,0,0,0,0,0,0,0,0,0,-1,1833,1751,0,0
616,-727,0,0,0,0,0,0,0,0,0,-1,1840,1751,0,0
623,-727,0,0,0,0,0,0,0,0,0,-1,1847,1751,0,0
630,-727,0,0,0,0,0,0,0,0,0,-1,1854,1751,0,0
637,-727,0,0,0,0,0,0,0,0,0,-1,1861,1751,0,0
644,-727,0,0,0,0,0,0,0,0,0,-1,1868,1751,0,0
651,-727,0,0,0,0,0,0,0,0,0,-1,1875,1751,0,0
658,-727,0,0,0,0,0,0,0,0,0,-1,1882,1751,0,0
665,-727,0,0,0,0,0,0,0,0,0,-1,1889,1751,0,0
672,-727,0,0,0,0,0,0,0,0,0,-1,1896,1751,0,0
679,-727,0,0,0,0,0,0,0,0,0,-1,1903,1751,0,0
686,-727,0,0,0,0,0,0,0,0,0,-1,1910,1751,0,0
693,-727,0,0,0,0,0,0,0,0,0,-1,1917,1751,0,0
700,-727,0,0,0,0,0,0,0,0,0,-1,1924,1751,0,0
707,-727,0,0,0,0,0,0,0,0,0,-1,1931,1751,0,0
714,-727,0,0,0,0,0,0,0,0,0,-1,1938,1751,0,0
721,-727,0,0,0,0,0,0,0,0,0,-1,1945,1751,0,0
728,-727,0,0,0,0,0,0,0,0,0,-1,1952,1751,0,0
735,-727,0,0,0,0,0,0,0,0,0,-1,1959,1751,0,0
742,-727,0,0,0,0,0,0,0,0,0,-1,1966,1751,0,0
749,-727,0,0,0,0,0,0,0,0,0,-1,1973,1751,0,0
756,-727,0,0,0,0,0,0,0,0,0,-1,1980,1751,0,0
763,-727,0,0,0,0,0,0,0,0,0,-1,1987,1751,0,0
770,-727,0,0,0,0,0,0,0,0,0,-1,1994,1751,0,0
777,-727,0,0,0,0,0,0,0,0,0,-1,2001,1751,0,0
784,-727,0,0,0,0,0,0,0,0,0,-1,2008,1751,0,0
791,-727,0,0,0,0,0,0,0,0,0,-1,2015,1751,0,0
798,-727,0,0,0,0,0,0,0,0,0,-1,2022,1751,0,0
805,-727,0,0,0,0,0,0,0,0,0,-1,2029,1751,0,0
812,-727,0,0,0,0,0,0,0,0,0,-1,2036,1751,0,0
-700,-734,0,0,0,0,0,0,0,0,0,-1,524,1758,0,0
-693,-734,0,0,0,0,0,0,0,0,0,-1,531,1758,0,0
-686,-734,0,0,0,0,0,0,0,0,0,-1,538,1758,0,0
-679,-734,0,0,0,0,0,0,0,0,0,-1,545,1758,0,0
-672,-734,0,0,0,0,0,0,0,0,0,-1,552,1758,0,0
-665,-734,0,0,0,0,0,0,0,0,0,-1,559,1758,0,0
-658,-734,0,0,0,0,0,0,0,0,0,-1,566,1758,0,0
-651,-734,0,0,0,0,0,0,0,0,0,-1,573,1758,0,0
-644,-734,0,0,0,0,0,0,0,0,0,-1,580,1758,0,0
-637,-734,0,0,0,0,0,0,0,0,0,-1,587,1758,0,0
-630,-734,0,0,0,0,0,0,0,0,0,-1,594,1758,0,0
-623,-734,0,0,0,0,0,0,0,0,0,-1,601,1758,0,0
-616,-734,0,0,0,0,0,0,0,0,0,-1,608,1758,0,0
-609,-734,0,0,0,0,0,0,0,0,0,-1,615,1758,0,0
-602,-734,0,0,0,0,0,0,0,0,0,-1,622,1758,0,0
-595,-734,0,0,0,0,0,0,0,0,0,-1,629,1758,0,0
-588,-734,0,0,0,0,0,0,0,0,0,-1,636,1758,0,0
-581,-734,0,0,0,0,0,0,0,0,0,-1,643,1758,0,0
-574,-734,0,0,0,0,0,0,0,0,0,-1,650,1758,0,0
-567,-734,0,0,0,0,0,0,0,0,0,-1,657,1758,0,0
-560,-734,0,0,0,0,0,0,0,0,0,-1,664,1758,0,0
-553,-734,0,0,0,0,0,0,0,0,0,-1,671,1758,0,0
-546,-734,0,0,0,0,0,0,0,0,0,-1,678,1758,0,0
-539,-734,0,0,0,0,0,0,0,0,0,-1,685,1758,0,0
-532,-734,0,0,0,0,0,0,0,0,0,-1,692,1758,0,0
-525,-734,0,0,0,0,0,0,0,0,0,-1,699,1758,0,0
-518,-734,0,0,0,0,0,0,0,0,0,-1,706,1758,0,0
-511,-734,0,0,0,0,0,0,0,0,0,-1,713,1758,0,0
-504,-734,0,0,0,0,0,0,0,0,0,-1,720,1758,0,0
-497,-734,0,0,0,0,0,0,0,0,0,-1,727,1758,0,0
-490,-734,0,0,0,0,0,0,0,0,0,-1,734,1758,0,0
-483,-734,0,0,0,0,0,0,0,0,0,-1,741,1758,0,0
-476,-734,0,0,0,0,0,0,0,0,0,-1,748,1758,0,0
-469,-734,0,0,0,0,0,0,0,0,0,-1,755,1758,0,0
-462,-734,0,0,0,0,0,0,0,0,0,-1,762,1758,0,0
-455,-734,0,0,0,0,0,0,0,0,0,-1,769,1758,0,0
-448,-734,0,0,0,0,0,0,0,0,0,-1,776,1758,0,0
-441,-734,0,0,0,0,0,0,0,0,0,-1,783,1758,0,0
-434,-734,0,0,0,0,0,0,0,0,0,-1,790,1758,0,0
-427,-734,0,0,0,0,0,0,0,0,0,-1,797,1758,0,0
-420,-734,0,0,0,0,0,0,0,0,0,-1,804,1758,0,0
-413,-734,0,0,0,0,0,0,0,0,0,-1,811,1758,0,0
-406,-734,0,0,0,0,0,0,0,0,0,-1,818,1758,0,0
-399,-734,0,0,0,0,0,0,0,0,0,-1,825,1758,0,0
-392,-734,0,0,0,0,0,0,0,0,0,-1,832,1758,0,0
-385,-734,0,0,0,0,0,0,0,0,0,-1,839,1758,0,0
-378,-734,0,0,0,0,0,0,0,0,0,-1,846,1758,0,0
-371,-734,0,0,0,0,0,0,0,0,0,-1,853,1758,0,0
-364,-734,0,0,0,0,0,0,0,0,0,-1,860,1758,0,0
-357,-734,0,0,0,0,0,0,0,0,0,-1,867,1758,0,0
-350,-734,0,0,0,0,0,0,0,0,0,-1,874,1758,0,0
-343,-734,0,0,0,0,0,0,0,0,0,-1,881,1758,0,0
-336,-734,0,0,0,0,0,0,0,0,0,-1,888,1758,0,0
-329,-734,0,0,0,0,0,0,0,0,0,-1,895,1758,0,0
-322,-734,0,0,0,0,0,0,0,0,0,-1,902,1758,0,0
-315,-734,0,0,0,0,0,0,0,0,0,-1,909,1758,0,0
-308,-734,0,0,0,0,0,0,0,0,0,-1,916,1758,0,0
-301,-734,0,0,0,0,0,0,0,0,0,-1,923,1758,0,0
-294,-734,0,0,0,0,0,0,0,0,0,-1,930,1758,0,0
-287,-734,0,0,0,0,0,0,0,0,0,-1,937,1758,0,0
-280,-734,0,0,0,0,0,0,0,0,0,-1,944,1758,0,0
-273,-734,0,0,0,0,0,0,0,0,0,-1,951,1758,0,0
-266,-734,0,0,0,0,0,0,0,0,0,-1,958,1758,0,0
-259,-734,0,0,0,0,0,0,0,0,0,-1,965,1758,0,0
-252,-734,5.57068,5.35791,0,0,0,0,0,0,0,-1,972,1758,5.57068,-5.3579
-245,-734,6.83002,6.19312,0,0,0,0,0,0,0,-1,979,1758,6.83001,-6.19311
-238,-734,4.79346,4.72571,0,0,0,0,0,0,0,-1,986,1758,4.79348,-4.72568
-231,-734,4.60651,10.9833,0,0,0,0,0,0,0,-1,993,1758,4.60653,-10.9833
-224,-734,3.70404,10.7893,0,0,0,0,0,0,0,-1,1000,1758,3.70402,-10.7893
-217,-734,3.51563,10.7584,0,0,0,0,0,0,0,-1,1007,1758,3.51565,-10.7585
-210,-734,3.32727,10.7277,0,0,0,0,0,0,0,-1,1014,1758,3.32729,-10.7276
-203,-734,2.67651,10.9741,0,0,0,0,0,0,0,-1,1021,1758,2.67654,-10.9741
-196,-734,3.25305,10.4098,0,0,0,0,0,0,0,-1,1028,1758,3.25304,-10.4098
-189,-734,2.21716,10.4714,0,0,0,0,0,0,0,-1,1035,1758,2.21715,-10.4715
-182,-734,3.78259,9.53308,0,0,0,0,0,0,0,-1,1042,1758,3.78256,-9.5331
-175,-734,3.50879,9.12256,0,0,0,0,0,0,0,-1,1049,1758,3.50878,-9.12255
-168,-734,3.44299,9.47632,0,0,0,0,0,0,0,-1,1056,1758,3.443,-9.47626
-161,-734,3.51257,9.94104,0,0,0,0,0,0,0,-1,1063,1758,3.51257,-9.94101
-154,-734,3.92773,10.5068,0,0,0,0,0,0,0,-1,1070,1758,3.9277,-10.5069
-147,-734,4.20532,10.9751,0,0,0,0,0,0,0,-1,1077,1758,4.20534,-10.9751
-140,-734,4.1676,11.0239,-0.00622532,0.00976546,-0.000946557,0.00982129,-0.00628116,-1.51188,0.00937135,0.0428088,1084,1758,4.16765,-11.0239
-133,-734,4.04382,11.0918,-0.00779079,0.00725862,-0.00225485,0.00758921,-0.00812137,-1.42522,0.00907224,0.0365633,1091,1758,4.04377,-11.0919
-126,-734,3.8916,11.1771,-0.00852226,0.00497562,-0.0031202,0.00566199,-0.00920863,-1.35427,0.00866657,0.0334742,1098,1758,3.89158,-11.1771
-119,-734,3.84595,11.3146,-0.00850805,0.00305735,-0.00334997,0.0039576,-0.00940831,-1.30826,0.00792782,0.0332131,1105,1758,3.8459,-11.3146
-112,-734,4.01282,11.3641,-0.00818922,0.00134269,-0.00340135,0.00243194,-0.00927847,-1.26087,0.0071358,0.0270954,1112,1758,4.01285,-11.3641
-105,-734,4.02808,11.4709,-0.00790838,-6.33711e-05,-0.00333268,0.00116124,-0.00913299,-1.21866,0.00651035,0.021143,1119,1758,4.02805,-11.4709
-98,-734,4.04993,11.5654,-0.00768762,-0.00111255,-0.00319832,0.00018654,-0.00898671,-1.18497,0.00605428,0.0173297,1126,1758,4.04997,-11.5655
-91,-734,4.06079,11.6215,-0.00740931,-0.00165437,-0.00291999,-0.000432301,-0.00863137,-1.17443,0.0056157,0.0179654,1133,1758,4.06084,-11.6215
-84,-734,4.01611,11.6836,-0.00688971,-0.00180171,-0.00254613,-0.000746438,-0.00794498,-1.17789,0.0050662,0.0148514,1140,1758,4.01612,-11.6836
-77,-734,4.00684,11.7565,-0.00585458,-0.00212641,-0.00216903,-0.00113051,-0.00685048,-1.14036,0.00424068,0.0140921,1147,1758,4.00682,-11.7564
-70,-734,3.98547,11.7966,-0.0048294,-0.0023036,-0.00194691,-0.00124586,-0.00588714,-1.07312,0.00358243,0.0118424,1154,1758,3.98548,-11.7966
-63,-734,3.99023,11.8826,-0.00440032,-0.00229273,-0.00101492,-0.00188347,-0.00480958,-1.18749,0.00279848,0.0106773,1161,1758,3.99025,-11.8826
-56,-734,3.98938,11.948,-0.00382959,-0.00153475,-0.000445441,-0.00145132,-0.00391302,-1.38565,0.00228415,0.0113012,1168,1758,3.98933,-11.948
-49,-734,3.9845,12.0044,-0.00264553,-0.000220564,-0.000292056,-0.000185886,-0.00268021,-1.45261,0.00172818,0.0123946,1175,1758,3.98452,-12.0044
-42,-734,3.9552,12.0603,-0.00103362,0.00118405,-0.000489577,0.00128732,-0.00113689,-1.3629,0.00140052,0.0132712,1182,1758,3.95523,-12.0603
-35,-734,3.92908,12.0859,-0.000896268,0.000863903,-0.00047081,0.000981922,-0.00101429,-1.32519,0.00115256,0.0132655,1189,1758,3.9291,-12.086
-28,-734,3.98035,12.1378,-0.00086037,0.000692425,-5.52804e-05,0.00069439,-0.000862335,-1.53526,0.000900518,0.00925666,1196,1758,3.98031,-12.1378
-21,-734,4.02563,12.1976,-0.000814788,0.000212284,0.00037102,0.000332289,-0.000934794,1.25797,0.000758618,0.0132016,1203,1758,4.02562,-12.1977
-14,-734,3.96631,12.2628,-0.00100565,0.000158212,0.00061301,0.000421519,-0.00126895,1.16509,0.00101605,0.0140385,1210,1758,3.96626,-12.2628
-7,-734,3.97388,12.2981,-0.0012311,0.000126487,0.000865664,0.000547756,-0.00165236,1.11789,0.00132253,0.0174274,1217,1758,3.97391,-12.298
0,-734,3.98486,12.3394,-0.00145105,0.000116657,0.0011236,0.000702807,-0.0020372,1.08996,0.00164328,0.0171722,1224,1758,3.98485,-12.3394
7,-734,3.96033,12.3624,-0.00157753,4.61827e-05,0.00133283,0.000794947,-0.00232629,1.05895,0.00187295,0.0127577,1231,1758,3.96034,-12.3625
14,-734,3.95264,12.4098,-0.00172498,-1.84572e-05,0.00137793,0.000749002,-0.00249244,1.06262,0.0019596,0.0124337,1238,1758,3.95263,-12.4098
21,-734,3.93835,12.4384,-0.0019776,0.000158711,0.00147961,0.00091544,-0.00273433,1.09804,0.00219268,0.01019,1245,1758,3.93833,-12.4384
28,-734,3.94678,12.4445,-0.00223068,0.000289292,0.00157266,0.00104446,-0.00298584,1.12313,0.00241521,0.0107603,1252,1758,3.94679,-12.4444
35,-734,3.96851,12.4569,-0.00220016,0.000353971,0.00163445,0.00115111,-0.0029973,1.11703,0.00247288,0.0131865,1259,1758,3.9685,-12.4569
42,-734,3.96863,12.4578,-0.00200758,0.000496775,0.00168515,0.00134404,-0.00285484,1.10492,0.00247598,0.010806,1266,1758,3.96866,-12.4578
49,-734,3.94507,12.4816,-0.00182276,0.000576912,0.0015815,0.0013622,-0.00260805,1.10991,0.00232954,0.00938048,1273,1758,3.94512,-12.4815
56,-734,3.92566,12.5211,-0.00138693,0.000588789,0.00141126,0.00132358,-0.00212172,1.09076,0.00200686,0.00960353,1280,1758,3.92564,-12.5212
63,-734,3.91736,12.5286,-0.000687235,0.000428181,0.00137234,0.00135181,-0.00161086,0.9784,0.00171268,0.0124828,1287,1758,3.91732,-12.5286
70,-734,3.93689,12.5272,3.55532e-05,0.000331397,0.00119797,0.00139055,-0.0010236,0.846826,0.00139916,0.0126156,1294,1758,3.93684,-12.5272
77,-734,3.95447,12.5603,0.000699538,8.87893e-05,0.000787788,0.00123907,-0.000450741,0.600497,0.00101038,0.0168285,1301,1758,3.95444,-12.5603
84,-734,3.93481,12.5477,0.00129037,-1.64383e-05,0.000481585,0.00144867,-0.000174737,0.317577,0.00102898,0.0158689,1308,1758,3.93487,-12.5478
91,-734,3.91492,12.5411,0.00205876,-0.00039312,0.000225286,0.00207929,-0.000413648,0.0908692,0.00154267,0.0166672,1315,1758,3.91494,-12.5412
98,-734,3.93213,12.5571,0.00281004,-0.000703484,-0.000203391,0.00282178,-0.000715219,-0.0576314,0.00215944,0.0127553,1322,1758,3.93207,-12.5571
105,-734,3.95093,12.5492,0.00331464,-0.000997538,-0.000653716,0.00341156,-0.00109446,-0.147193,0.00271378,0.0141256,1329,1758,3.95087,-12.5492
112,-734,3.95605,12.5243,0.00357857,-0.00114849,-0.0010934,0.00381923,-0.00138914,-0.216646,0.00311425,0.0124082,1336,1758,3.95608,-12.5243
119,-734,3.94775,12.5042,0.00379388,-0.00127705,-0.00148908,0.00419881,-0.00168199,-0.265515,0.00349739,0.0132601,1343,1758,3.94779,-12.5041
126,-734,3.95142,12.4673,0.0040355,-0.00138937,-0.0020312,0.00471173,-0.0020656,-0.321381,0.00401108,0.0160876,1350,1758,3.9514,-12.4673
133,-734,3.94177,12.4357,0.00406691,-0.00129838,-0.00243644,0.00500819,-0.00223966,-0.36867,0.0042851,0.0144742,1357,1758,3.94181,-12.4356
140,-734,3.9364,12.428,0.00380225,-0.00104371,-0.00266914,0.00498415,-0.0022256,-0.416851,0.0042629,0.0194331,1364,1758,3.9364,-12.428
147,-734,3.94214,12.4189,0.00348504,-0.000809714,-0.00278989,0.00485828,-0.00218295,-0.457403,0.00416192,0.0141373,1371,1758,3.9421,-12.4189
154,-734,3.92932,12.4177,0.00322727,-0.00038838,-0.00266216,0.00463742,-0.00179852,-0.487123,0.00383439,0.00924574,1378,1758,3.92932,-12.4178
161,-734,3.90137,12.3925,0.00270768,-2.78813e-05,-0.00228893,0.00400636,-0.00132657,-0.516086,0.00320593,0.00837084,1385,1758,3.90131,-12.3924
168,-734,3.8717,12.3499,0.00186068,0.000812541,-0.00255894,0.00394866,-0.00127544,-0.684395,0.00314501,0.0136165,1392,1758,3.87168,-12.3498
175,-734,3.88904,12.3208,0.00138758,0.00123948,-0.0028526,0.00416709,-0.00154004,-0.772422,0.00340939,0.0168111,1399,1758,3.88904,-12.3208
182,-734,3.92468,12.2714,0.00141079,0.00188736,-0.00327338,0.00493112,-0.00163296,-0.821731,0.00394601,0.0146452,1406,1758,3.92467,-12.2714
189,-734,3.89722,12.2349,0.00151342,0.00206753,-0.00394822,0.0057484,-0.00216746,-0.820427,0.00472353,0.0109158,1413,1758,3.89722,-12.2348
196,-734,3.89343,12.2164,0.00110595,0.00243821,-0.00468802,0.00650719,-0.00296303,-0.855972,0.00559381,0.0112237,1420,1758,3.89343,-12.2164
203,-734,3.90234,12.1704,0.000610645,0.00282004,-0.00506106,0.00689557,-0.00346488,-0.89285,0.00608994,0.0110927,1427,1758,3.90237,-12.1705
210,-734,3.90405,12.1158,0.00072422,0.0030441,-0.00555473,0.00755871,-0.00379039,-0.888329,0.00667172,0.0117119,1434,1758,3.90409,-12.1158
217,-734,3.87695,12.0618,0.000797623,0.0030269,-0.00597395,0.0079893,-0.00416478,-0.877629,0.00713203,0.0102558,1441,1758,3.87692,-12.0618
224,-734,3.86816,12.0026,0.000514345,0.0031031,-0.00614797,0.00809148,-0.00447403,-0.889151,0.00735423,0.0120726,1448,1758,3.86812,-12.0026
231,-734,3.854,11.9598,7.14595e-05,0.00284204,-0.00607408,0.0076868,-0.0047733,-0.897514,0.0072591,0.0130554,1455,1758,3.85405,-11.9598
238,-734,3.88,11.8916,-0.000133294,0.0027231,-0.00598359,0.00744658,-0.00485677,-0.902549,0.00715561,0.015076,1462,1758,3.88006,-11.8916
245,-734,3.87195,11.8004,-0.000478779,0.00262734,-0.00574568,0.00702616,-0.0048776,-0.917394,0.00690985,0.02012,1469,1758,3.87189,-11.8004
252,-734,3.83557,11.7216,0.00199003,0.000785573,-0.00215002,0.00362057,-0.000844966,-0.648845,0.00273916,0.0267258,1476,1758,3.83562,-11.7215
259,-734,3.87781,11.7341,0.00386038,-9.09431e-05,0.00197734,0.00467992,-0.000910477,0.392911,0.00346356,0.0390193,1483,1758,3.8778,-11.7341
266,-734,3.96606,11.8313,0.00753053,-0.00459283,0.00979153,0.0129848,-0.0100471,0.508235,0.0133335,0.045049,1490,1758,3.96603,-11.8313
273,-734,3.82556,11.5414,0.0107612,-0.00775106,0.016684,0.0205847,-0.0175746,0.532142,0.0220541,0.046157,1497,1758,3.8256,-11.5413
280,-734,3.80273,11.7347,0,0,0,0,0,0,0,-1,1504,1758,3.80272,-11.7348
287,-734,3.62073,9.07349,0,0,0,0,0,0,0,-1,1511,1758,3.62078,-9.07353
294,-734,3.97534,10.0728,0,0,0,0,0,0,0,-1,1518,1758,3.97538,-10.0727
301,-734,3.27441,10.2736,0,0,0,0,0,0,0,-1,1525,1758,3.27446,-10.2735
308,-734,3.7168,10.5139,0.0309917,-0.0292012,0.0557954,0.0642903,-0.0624997,0.538061,0.0732047,0.0462926,1532,1758,3.71679,-10.514
315,-734,3.92834,11.0771,0.0344382,-0.0335391,0.0620234,0.0711753,-0.0702762,0.534746,0.0816677,0.0451658,1539,1758,3.92831,-11.0771
322,-734,4.17163,11.5508,0,0,0,0,0,0,0,-1,1546,1758,4.17163,-11.5508
329,-734,5.45972,12.4125,0,0,0,0,0,0,0,-1,1553,1758,5.45969,-12.4125
336,-734,5.92188,13.8751,0,0,0,0,0,0,0,-1,1560,1758,5.92183,-13.8751
343,-734,5.54968,5.14221,0,0,0,0,0,0,0,-1,1567,1758,5.54973,-5.14225
350,-734,5.07397,6.73242,0,0,0,0,0,0,0,-1,1574,1758,5.07402,-6.73243
357,-734,5.05542,7.19189,0,0,0,0,0,0,0,-1,1581,1758,5.05541,-7.19184
364,-734,1.31287,6.05872,0,0,0,0,0,0,0,-1,1588,1758,1.31283,-6.05868
371,-734,1.57007,7.77197,0,0,0,0,0,0,0,-1,1595,1758,1.57008,-7.77196
378,-734,0,0,0,0,0,0,0,0,0,-1,1602,1758,0,0
385,-734,0,0,0,0,0,0,0,0,0,-1,1609,1758,0,0
392,-734,0,0,0,0,0,0,0,0,0,-1,1616,1758,0,0
399,-734,0,0,0,0,0,0,0,0,0,-1,1623,1758,0,0
406,-734,0,0,0,0,0,0,0,0,0,-1,1630,1758,0,0
413,-734,0,0,0,0,0,0,0,0,0,-1,1637,1758,0,0
420,-734,0,0,0,0,0,0,0,0,0,-1,1644,1758,0,0
427,-734,0,0,0,0,0,0,0,0,0,-1,1651,1758,0,0
434,-734,0,0,0,0,0,0,0,0,0,-1,1658,1758,0,0
441,-734,0,0,0,0,0,0,0,0,0,-1,1665,1758,0,0
448,-734,0,0,0,0,0,0,0,0,0,-1,1672,1758,0,0
455,-734,0,0,0,0,0,0,0,0,0,-1,1679,1758,0,0
462,-734,0,0,0,0,0,0,0,0,0,-1,1686,1758,0,0
469,-734,0,0,0,0,0,0,0,0,0,-1,1693,1758,0,0
476,-734,0,0,0,0,0,0,0,0,0,-1,1700,1758,0,0
483,-734,0,0,0,0,0,0,0,0,0,-1,1707,1758,0,0
490,-734,0,0,0,0,0,0,0,0,0,-1,1714,1758,0,0
497,-734,0,0,0,0,0,0,0,0,0,-1,1721,1758,0,0
504,-734,0,0,0,0,0,0,0,0,0,-1,1728,1758,0,0
511,-734,0,0,0,0,0,0,0,0,0,-1,1735,1758,0,0
518,-734,0,0,0,0,0,0,0,0,0,-1,1742,1758,0,0
525,-734,0,0,0,0,0,0,0,0,0,-1,1749,1758,0,0
532,-734,0,0,0,0,0,0,0,0,0,-1,1756,1758,0,0
539,-734,0,0,0,0,0,0,0,0,0,-1,1763,1758,0,0
546,-734,0,0,0,0,0,0,0,0,0,-1,1770,1758,0,0
553,-734,0,0,0,0,0,0,0,0,0,-1,1777,1758,0,0
560,-734,0,0,0,0,0,0,0,0,0,-1,1784,1758,0,0
567,-734,0,0,0,0,0,0,0,0,0,-1,1791,1758,0,0
574,-734,0,0,0,0,0,0,0,0,0,-1,1798,1758,0,0
581,-734,0,0,0,0,0,0,0,0,0,-1,1805,1758,0,0
588,-734,0,0,0,0,0,0,0,0,0,-1,1812,1758,0,0
595,-734,0,0,0,0,0,0,0,0,0,-1,1819,1758,0,0
602,-734,0,0,0,0,0,0,0,0,0,-1,1826,1758,0,0
609,-734,0,0,0,0,0,0,0,0,0,-1,1833,1758,0,0
616,-734,0,0,0,0,0,0,0,0,0,-1,1840,1758,0,0
623,-734,0,0,0,0,0,0,0,0,0,-1,1847,1758,0,0
630,-734,0,0,0,0,0,0,0,0,0,-1,1854,1758,0,0
637,-734,0,0,0,0,0,0,0,0,0,-1,1861,1758,0,0
644,-734,0,0,0,0,0,0,0,0,0,-1,1868,1758,0,0
651,-734,0,0,0,0,0,0,0,0,0,-1,1875,1758,0,0
658,-734,0,0,0,0,0,0,0,0,0,-1,1882,1758,0,0
665,-734,0,0,0,0,0,0,0,0,0,-1,1889,1758,0,0
672,-734,0,0,0,0,0,0,0,0,0,-1,1896,1758,0,0
679,-734,0,0,0,0,0,0,0,0,0,-1,1903,1758,0,0
686,-734,0,0,0,0,0,0,0,0,0,-1,1910,1758,0,0
693,-734,0,0,0,0,0,0,0,0,0,-1,1917,1758,0,0
700,-734,0,0,0,0,0,0,0,0,0,-1,1924,1758,0,0
707,-734,0,0,0,0,0,0,0,0,0,-1,1931,1758,0,0
714,-734,0,0,0,0,0,0,0,0,0,-1,1938,1758,0,0
721,-734,0,0,0,0,0,0,0,0,0,-1,1945,1758,0,0
728,-734,0,0,0,0,0,0,0,0,0,-1,1952,1758,0,0
735,-734,0,0,0,0,0,0,0,0,0,-1,1959,1758,0,0
742,-734,0,0,0,0,0,0,0,0,0,-1,1966,1758,0,0
749,-734,0,0,0,0,0,0,0,0,0,-1,1973,1758,0,0
756,-734,0,0,0,0,0,0,0,0,0,-1,1980,1758,0,0
763,-734,0,0,0,0,0,0,0,0,0,-1,1987,1758,0,0
770,-734,0,0,0,0,0,0,0,0,0,-1,1994,1758,0,0
777,-734,0,0,0,0,0,0,0,0,0,-1,2001,1758,0,0
784,-734,0,0,0,0,0,0,0,0,0,-1,2008,1758,0,0
791,-734,0,0,0,0,0,0,0,0,0,-1,2015,1758,0,0
798,-734,0,0,0,0,0,0,0,0,0,-1,2022,1758,0,0
805,-734,0,0,0,0,0,0,0,0,0,-1,2029,1758,0,0
812,-734,0,0,0,0,0,0,0,0,0,-1,2036,1758,0,0
-700,-741,0,0,0,0,0,0,0,0,0,-1,524,1765,0,0
-693,-741,0,0,0,0,0,0,0,0,0,-1,531,1765,0,0
-686,-741,0,0,0,0,0,0,0,0,0,-1,538,1765,0,0
-679,-741,0,0,0,0,0,0,0,0,0,-1,545,1765,0,0
-672,-741,0,0,0,0,0,0,0,0,0,-1,552,1765,0,0
-665,-741,0,0,0,0,0,0,0,0,0,-1,559,1765,0,0
-658,-741,0,0,0,0,0,0,0,0,0,-1,566,1765,0,0
-651,-741,0,0,0,0,0,0,0,0,0,-1,573,1765,0,0
-644,-741,0,0,0,0,0,0,0,0,0,-1,580,1765,0,0
-637,-741,0,0,0,0,0,0,0,0,0,-1,587,1765,0,0
-630,-741,0,0,0,0,0,0,0,0,0,-1,594,1765,0,0
-623,-741,0,0,0,0,0,0,0,0,0,-1,601,1765,0,0
-616,-741,0,0,0,0,0,0,0,0,0,-1,608,1765,0,0
-609,-741,0,0,0,0,0,0,0,0,0,-1,615,1765,0,0
-602,-741,0,0,0,0,0,0,0,0,0,-1,622,1765,0,0
-595,-741,0,0,0,0,0,0,0,0,0,-1,629,1765,0,0
-588,-741,0,0,0,0,0,0,0,0,0,-1,636,1765,0,0
-581,-741,0,0,0,0,0,0,0,0,0,-1,643,1765,0,0
-574,-741,0,0,0,0,0,0,0,0,0,-1,650,1765,0,0
-567,-741,0,0,0,0,0,0,0,0,0,-1,657,1765,0,0
-560,-741,0,0,0,0,0,0,0,0,0,-1,664,1765,0,0
-553,-741,0,0,0,0,0,0,0,0,0,-1,671,1765,0,0
-546,-741,0,0,0,0,0,0,0,0,0,-1,678,1765,0,0
-539,-741,0,0,0,0,0,0,0,0,0,-1,685,1765,0,0
-532,-741,0,0,0,0,0,0,0,0,0,-1,692,1765,0,0
-525,-741,0,0,0,0,0,0,0,0,0,-1,699,1765,0,0
-518,-741,0,0,0,0,0,0,0,0,0,-1,706,1765,0,0
-511,-741,0,0,0,0,0,0,0,0,0,-1,713,1765,0,0
-504,-741,0,0,0,0,0,0,0,0,0,-1,720,1765,0,0
-497,-741,0,0,0,0,0,0,0,0,0,-1,727,1765,0,0
-490,-741,0,0,0,0,0,0,0,0,0,-1,734,1765,0,0
-483,-741,0,0,0,0,0,0,0,0,0,-1,741,1765,0,0
-476,-741,0,0,0,0,0,0,0,0,0,-1,748,1765,0,0
-469,-741,0,0,0,0,0,0,0,0,0,-1,755,1765,0,0
-462,-741,0,0,0,0,0,0,0,0,0,-1,762,1765,0,0
-455,-741,0,0,0,0,0,0,0,0,0,-1,769,1765,0,0
-448,-741,0,0,0,0,0,0,0,0,0,-1,776,1765,0,0
-441,-741,0,0,0,0,0,0,0,0,0,-1,783,1765,0,0
-434,-741,0,0,0,0,0,0,0,0,0,-1,790,1765,0,0
-427,-741,0,0,0,0,0,0,0,0,0,-1,797,1765,0,0
-420,-741,0,0,0,0,0,0,0,0,0,-1,804,1765,0,0
-413,-741,0,0,0,0,0,0,0,0,0,-1,811,1765,0,0
-406,-741,0,0,0,0,0,0,0,0,0,-1,818,1765,0,0
-399,-741,0,0,0,0,0,0,0,0,0,-1,825,1765,0,0
-392,-741,0,0,0,0,0,0,0,0,0,-1,832,1765,0,0
-385,-741,0,0,0,0,0,0,0,0,0,-1,839,1765,0,0
-378,-741,0,0,0,0,0,0,0,0,0,-1,846,1765,0,0
-371,-741,0,0,0,0,0,0,0,0,0,-1,853,1765,0,0
-364,-741,0,0,0,0,0,0,0,0,0,-1,860,1765,0,0
-357,-741,0,0,0,0,0,0,0,0,0,-1,867,1765,0,0
-350,-741,0,0,0,0,0,0,0,0,0,-1,874,1765,0,0
-343,-741,0,0,0,0,0,0,0,0,0,-1,881,1765,0,0
-336,-741,0,0,0,0,0,0,0,0,0,-1,888,1765,0,0
-329,-741,0,0,0,0,0,0,0,0,0,-1,895,1765,0,0
-322,-741,0,0,0,0,0,0,0,0,0,-1,902,1765,0,0
-315,-741,0,0,0,0,0,0,0,0,0,-1,909,1765,0,0
-308,-741,0,0,0,0,0,0,0,0,0,-1,916,1765,0,0
-301,-741,0,0,0,0,0,0,0,0,0,-1,923,1765,0,0
-294,-741,0,0,0,0,0,0,0,0,0,-1,930,1765,0,0
-287,-741,0,0,0,0,0,0,0,0,0,-1,937,1765,0,0
-280,-741,0,0,0,0,0,0,0,0,0,-1,944,1765,0,0
-273,-741,0,0,0,0,0,0,0,0,0,-1,951,1765,0,0
-266,-741,0,0,0,0,0,0,0,0,0,-1,958,1765,0,0
-259,-741,0,0,0,0,0,0,0,0,0,-1,965,1765,0,0
-252,-741,0,0,0,0,0,0,0,0,0,-1,972,1765,0,0
-245,-741,0,0,0,0,0,0,0,0,0,-1,979,1765,0,0
-238,-741,5.22742,8.96448,0,0,0,0,0,0,0,-1,986,1765,5.22743,-8.96451
-231,-741,5.8396,8.90515,0,0,0,0,0,0,0,-1,993,1765,5.83959,-8.90517
-224,-741,6.37439,8.85596,0,0,0,0,0,0,0,-1,1000,1765,6.37438,-8.85594
-217,-741,3.51837,10.9543,0,0,0,0,0,0,0,-1,1007,1765,3.51839,-10.9544
-210,-741,4.36749,10.5653,0,0,0,0,0,0,0,-1,1014,1765,4.3675,-10.5653
-203,-741,4.0636,10.5088,0,0,0,0,0,0,0,-1,1021,1765,4.0636,-10.5088
-196,-741,3.4679,10.7836,0,0,0,0,0,0,0,-1,1028,1765,3.46784,-10.7836
-189,-741,2.59912,11.9658,0,0,0,0,0,0,0,-1,1035,1765,2.59913,-11.9658
-182,-741,3.12854,10.7032,0,0,0,0,0,0,0,-1,1042,1765,3.12857,-10.7033
-175,-741,3.19373,8.96411,0,0,0,0,0,0,0,-1,1049,1765,3.19376,-8.96417
-168,-741,2.96594,8.87219,0,0,0,0,0,0,0,-1,1056,1765,2.96592,-8.87218
-161,-741,2.7699,9.14465,0,0,0,0,0,0,0,-1,1063,1765,2.76992,-9.14465
-154,-741,2.46143,9.75415,0,0,0,0,0,0,0,-1,1070,1765,2.46145,-9.75416
-147,-741,4.229,9.21167,0,0,0,0,0,0,0,-1,1077,1765,4.22896,-9.21167
-140,-741,4.25757,11.1017,0,0,0,0,0,0,0,-1,1084,1765,4.25751,-11.1017
-133,-741,4.11755,10.7252,-0.0118337,0.00863788,-0.00481696,0.00971467,-0.0129105,-1.35087,0.013106,0.0464542,1091,1765,4.11756,-10.7252
-126,-741,3.70251,10.8071,-0.012603,0.00555306,-0.00565427,0.00716996,-0.0142198,-1.29227,0.012571,0.0442092,1098,1765,3.70253,-10.8071
-119,-741,3.70752,11.5994,0,0,0,0,0,0,0,-1,1105,1765,3.70754,-11.5993
-112,-741,3.93262,11.5057,-0.0122144,0.000502881,-0.00567204,0.00266506,-0.0143766,-1.2066,0.0105852,0.0392382,1112,1765,3.93258,-11.5058
-105,-741,4.06604,11.5509,-0.0120018,-0.00148635,-0.00544072,0.000821973,-0.0143101,-1.16955,0.00982555,0.0331988,1119,1765,4.06606,-11.5509
-98,-741,4.18579,11.5472,-0.0118757,-0.00293578,-0.00511288,-0.000614416,-0.0141971,-1.1446,0.0092667,0.03623,1126,1765,4.18579,-11.5473
-91,-741,4.10999,11.5837,-0.0116796,-0.00377391,-0.00462997,-0.00163892,-0.0138146,-1.13873,0.00871492,0.0417837,1133,1765,4.10998,-11.5837
-84,-741,4.08777,11.6418,-0.011083,-0.00404153,-0.00405446,-0.0021925,-0.012932,-1.14293,0.00799139,0.0471938,1140,1765,4.0878,-11.6418
-77,-741,4.04895,11.5636,0,0,0,0,0,0,0,-1,1147,1765,4.04897,-11.5636
-70,-741,4.1449,11.7567,0,0,0,0,0,0,0,-1,1154,1765,4.14494,-11.7567
-63,-741,4.02368,11.817,0,0,0,0,0,0,0,-1,1161,1765,4.02371,-11.817
-56,-741,4.06335,11.902,0,0,0,0,0,0,0,-1,1168,1765,4.06335,-11.9019
-49,-741,4.02405,12.0065,0,0,0,0,0,0,0,-1,1175,1765,4.02401,-12.0065
-42,-741,3.99927,12.062,0,0,0,0,0,0,0,-1,1182,1765,3.99933,-12.0621
-35,-741,4.02026,12.0967,-0.00143896,0.000752733,-0.000553167,0.000884434,-0.00157067,-1.33706,0.00143579,0.0163429,1189,1765,4.02021,-12.0967
-28,-741,4.03418,12.158,-0.00198151,0.00119294,-4.14639e-06,0.00119294,-0.00198151,-1.56949,0.00185153,0.0127313,1196,1765,4.03417,-12.1579
-21,-741,4.04773,12.2133,-0.00241243,0.0011437,0.000571825,0.00123339,-0.00250211,1.41522,0.00219776,0.0157684,1203,1765,4.04777,-12.2133
-14,-741,4.0011,12.269,-0.00317996,0.0016271,0.000728305,0.00173502,-0.00328788,1.42369,0.00294581,0.0171599,1210,1765,4.00106,-12.2691
-7,-741,4.00024,12.2733,-0.00374668,0.00217253,0.000883246,0.00230151,-0.00387567,1.42579,0.00360479,0.0160329,1217,1765,4.00021,-12.2734
0,-741,4.01953,12.309,-0.00414726,0.00262741,0.00106434,0.00279069,-0.00431054,1.41857,0.00413108,0.0157492,1224,1765,4.01955,-12.3089
7,-741,4.00391,12.3274,-0.00438083,0.00280462,0.001208,0.00300227,-0.00457848,1.40862,0.00440817,0.0163878,1231,1765,4.00387,-12.3274
14,-741,3.99402,12.3782,-0.00454504,0.00290327,0.00116181,0.00308029,-0.00472205,1.4196,0.0045378,0.0154535,1238,1765,3.99403,-12.3781
21,-741,3.98108,12.4054,-0.00484379,0.00315176,0.00127984,0.00335163,-0.00504366,1.41588,0.00487972,0.0120443,1245,1765,3.98104,-12.4054
28,-741,3.94788,12.4385,-0.00508781,0.0033078,0.00143476,0.00354622,-0.00532623,1.40613,0.00515676,0.012854,1252,1765,3.94787,-12.4385
35,-741,3.96533,12.4408,-0.00493346,0.00326619,0.00155729,0.00355199,-0.00521926,1.38929,0.00509448,0.0139686,1259,1765,3.9653,-12.4408
42,-741,3.98303,12.4561,-0.00457692,0.00322372,0.0017106,0.00358235,-0.00493555,1.36414,0.00493846,0.0133578,1266,1765,3.98305,-12.456
49,-741,3.95789,12.4828,-0.00422352,0.00312136,0.00169016,0.00349162,-0.00459379,1.35513,0.00468255,0.00950702,1273,1765,3.95784,-12.4828
56,-741,3.92798,12.5153,-0.00352206,0.00295781,0.00160514,0.00333363,-0.00389788,1.34081,0.00417935,0.00998867,1280,1765,3.92804,-12.5153
63,-741,3.93286,12.5038,-0.00242143,0.00227633,0.00166453,0.00280632,-0.00295142,1.26254,0.00332459,0.0141006,1287,1765,3.93283,-12.5038
70,-741,3.94922,12.5079,-0.00127424,0.00181408,0.00153105,0.00244444,-0.0019046,1.18023,0.00251736,0.0161952,1294,1765,3.94925,-12.508
77,-741,3.95715,12.543,-0.000139561,0.00110458,0.00111329,0.00175781,-0.000792792,1.04017,0.00150732,0.0138466,1301,1765,3.95714,-12.543
84,-741,3.91113,12.5654,0.000905209,0.000553032,0.000778623,0.00152741,-6.91662e-05,0.674192,0.00104209,0.0164829,1308,1765,3.91115,-12.5655
91,-741,3.89697,12.578,0.00220313,-0.000304936,0.000517814,0.00230583,-0.000407638,0.195797,0.00168957,0.0132704,1315,1765,3.89699,-12.578
98,-741,3.9104,12.5549,0.00343277,-0.00108828,1.35228e-05,0.00343281,-0.00108832,0.00299103,0.00272476,0.0103841,1322,1765,3.91037,-12.555
105,-741,3.92578,12.5282,0.00433895,-0.00178608,-0.000539509,0.00438611,-0.00183324,-0.0871881,0.0036902,0.0106568,1329,1765,3.92577,-12.5283
112,-741,3.94385,12.5022,0.00492795,-0.00221222,-0.00110565,0.00509523,-0.00237951,-0.150165,0.00440947,0.0102403,1336,1765,3.94382,-12.5022
119,-741,3.95313,12.4811,0.00545115,-0.00259173,-0.00163011,0.00576897,-0.00290955,-0.192557,0.0051004,0.0130689,1343,1765,3.9531,-12.4811
126,-741,3.94019,12.4584,0.00605105,-0.00290743,-0.00239889,0.00665298,-0.00350935,-0.245843,0.00596006,0.0189865,1350,1765,3.94023,-12.4584
133,-741,3.9259,12.4319,0.00631245,-0.00298171,-0.00303278,0.00721452,-0.00388379,-0.289108,0.00650309,0.0141476,1357,1765,3.92588,-12.4318
140,-741,3.90918,12.4293,0.00608587,-0.00274938,-0.00343625,0.00726496,-0.00392847,-0.330544,0.00655753,0.0106875,1364,1765,3.90914,-12.4294
147,-741,3.91736,12.4254,0.00571978,-0.00245413,-0.00372295,0.00716125,-0.0038956,-0.369412,0.00647583,0.010433,1371,1765,3.91731,-12.4254
154,-741,3.90906,12.426,0.00524603,-0.00186258,-0.00358292,0.00673854,-0.0033551,-0.394704,0.0059357,0.00898157,1378,1765,3.90902,-12.426
161,-741,3.88452,12.3979,0.00425541,-0.00137236,-0.00319796,0.00570121,-0.00281816,-0.424599,0.00501166,0.01006,1385,1765,3.88456,-12.398
168,-741,3.87488,12.3698,0.00271731,0.00081467,-0.00392256,0.00580226,-0.00227028,-0.666433,0.00480708,0.0205071,1392,1765,3.87485,-12.3697
175,-741,4.02783,12.2025,0.00200421,0.00143081,-0.00431134,0.00603837,-0.00260335,-0.752197,0.005119,0.045594,1399,1765,4.02784,-12.2025
182,-741,3.86011,12.2773,0,0,0,0,0,0,0,-1,1406,1765,3.86016,-12.2773
189,-741,3.86279,12.2532,0,0,0,0,0,0,0,-1,1413,1765,3.86273,-12.2531
196,-741,3.84827,12.2335,0,0,0,0,0,0,0,-1,1420,1765,3.8483,-12.2335
203,-741,3.87427,12.0776,0.000809535,0.00378485,-0.00725409,0.00970226,-0.00510787,-0.886535,0.00868669,0.0391333,1427,1765,3.87426,-12.0776
210,-741,3.8186,12.0933,0.000995593,0.00413552,-0.00801627,0.0107341,-0.00560301,-0.882098,0.00958606,0.0242796,1434,1765,3.8186,-12.0933
217,-741,3.86487,12.0498,0.00112764,0.00417884,-0.00861208,0.0113994,-0.00609293,-0.873062,0.0102529,0.019654,1441,1765,3.86486,-12.0498
224,-741,3.90234,12.0016,0.000790685,0.00428858,-0.00881189,0.0115234,-0.00644414,-0.883363,0.0105108,0.0253667,1448,1765,3.90228,-12.0016
231,-741,3.89307,12.0101,0.000280538,0.00397397,-0.00867568,0.0109973,-0.0067428,-0.890264,0.01034,0.0326997,1455,1765,3.89304,-12.0101
238,-741,3.8103,11.9409,4.4015e-05,0.0038126,-0.00849973,0.0106344,-0.00677778,-0.894478,0.0101348,0.0370703,1462,1765,3.81024,-11.9409
245,-741,3.80823,11.7338,-0.000392908,0.00365768,-0.00810587,0.00998745,-0.00672267,-0.907819,0.00970878,0.0429969,1469,1765,3.80826,-11.7338
252,-741,3.81958,11.6238,0.00390385,-0.00022163,-0.00194266,0.00467463,-0.000992408,-0.377714,0.00349451,0.0471149,1476,1765,3.81962,-11.6238
259,-741,3.78491,11.6476,0,0,0,0,0,0,0,-1,1483,1765,3.78494,-11.6475
266,-741,3.88416,12.027,0,0,0,0,0,0,0,-1,1490,1765,3.88414,-12.027
273,-741,3.36646,11.3684,0,0,0,0,0,0,0,-1,1497,1765,3.36642,-11.3684
280,-741,3.35974,3.5481,0,0,0,0,0,0,0,-1,1504,1765,3.35976,-3.5481
287,-741,3.57422,7.95532,0,0,0,0,0,0,0,-1,1511,1765,3.57418,-7.95532
294,-741,3.68066,8.91541,0,0,0,0,0,0,0,-1,1518,1765,3.68062,-8.91537
301,-741,3.505,9.82629,0,0,0,0,0,0,0,-1,1525,1765,3.50502,-9.82631
308,-741,3.30713,10.7155,0.0439013,-0.0474147,0.0796526,0.0900539,-0.0935673,0.525153,0.10602,0.0457831,1532,1765,3.30711,-10.7154
315,-741,3.0321,11.5249,0.0479994,-0.0528586,0.0873611,0.0984419,-0.103301,0.523637,0.116488,0.047483,1539,1765,3.03208,-11.5249
322,-741,3.08521,12.3561,0,0,0,0,0,0,0,-1,1546,1765,3.08526,-12.3561
329,-741,4.46472,13.5316,0,0,0,0,0,0,0,-1,1553,1765,4.46467,-13.5316
336,-741,4.74475,14.6453,0,0,0,0,0,0,0,-1,1560,1765,4.7447,-14.6452
343,-741,5.42297,5.93701,0,0,0,0,0,0,0,-1,1567,1765,5.42296,-5.937
350,-741,4.90369,5.44666,0,0,0,0,0,0,0,-1,1574,1765,4.90368,-5.44664
357,-741,4.02063,5.16626,0,0,0,0,0,0,0,-1,1581,1765,4.02058,-5.1662
364,-741,0,0,0,0,0,0,0,0,0,-1,1588,1765,0,0
371,-741,0,0,0,0,0,0,0,0,0,-1,1595,1765,0,0
378,-741,0,0,0,0,0,0,0,0,0,-1,1602,1765,0,0
385,-741,0,0,0,0,0,0,0,0,0,-1,1609,1765,0,0
392,-741,0,0,0,0,0,0,0,0,0,-1,1616,1765,0,0
399,-741,0,0,0,0,0,0,0,0,0,-1,1623,1765,0,0
406,-741,0,0,0,0,0,0,0,0,0,-1,1630,1765,0,0
413,-741,0,0,0,0,0,0,0,0,0,-1,1637,1765,0,0
420,-741,0,0,0,0,0,0,0,0,0,-1,1644,1765,0,0
427,-741,0,0,0,0,0,0,0,0,0,-1,1651,1765,0,0
434,-741,0,0,0,0,0,0,0,0,0,-1,1658,1765,0,0
441,-741,0,0,0,0,0,0,0,0,0,-1,1665,1765,0,0
448,-741,0,0,0,0,0,0,0,0,0,-1,1672,1765,0,0
455,-741,0,0,0,0,0,0,0,0,0,-1,1679,1765,0,0
462,-741,0,0,0,0,0,0,0,0,0,-1,1686,1765,0,0
469,-741,0,0,0,0,0,0,0,0,0,-1,1693,1765,0,0
476,-741,0,0,0,0,0,0,0,0,0,-1,1700,1765,0,0
483,-741,0,0,0,0,0,0,0,0,0,-1,1707,1765,0,0
490,-741,0,0,0,0,0,0,0,0,0,-1,1714,1765,0,0
497,-741,0,0,0,0,0,0,0,0,0,-1,1721,1765,0,0
504,-741,0,0,0,0,0,0,0,0,0,-1,1728,1765,0,0
511,-741,0,0,0,0,0,0,0,0,0,-1,1735,1765,0,0
518,-741,0,0,0,0,0,0,0,0,0,-1,1742,1765,0,0
525,-741,0,0,0,0,0,0,0,0,0,-1,1749,1765,0,0
532,-741,0,0,0,0,0,0,0,0,0,-1,1756,1765,0,0
539,-741,0,0,0,0,0,0,0,0,0,-1,1763,1765,0,0
546,-741,0,0,0,0,0,0,0,0,0,-1,1770,1765,0,0
553,-741,0,0,0,0,0,0,0,0,0,-1,1777,1765,0,0
560,-741,0,0,0,0,0,0,0,0,0,-1,1784,1765,0,0
567,-741,0,0,0,0,0,0,0,0,0,-1,1791,1765,0,0
574,-741,0,0,0,0,0,0,0,0,0,-1,1798,1765,0,0
581,-741,0,0,0,0,0,0,0,0,0,-1,1805,1765,0,0
588,-741,0,0,0,0,0,0,0,0,0,-1,1812,1765,0,0
595,-741,0,0,0,0,0,0,0,0,0,-1,1819,1765,0,0
602,-741,0,0,0,0,0,0,0,0,0,-1,1826,1765,0,0
609,-741,0,0,0,0,0,0,0,0,0,-1,1833,1765,0,0
616,-741,0,0,0,0,0,0,0,0,0,-1,1840,1765,0,0
623,-741,0,0,0,0,0,0,0,0,0,-1,1847,1765,0,0
630,-741,0,0,0,0,0,0,0,0,0,-1,1854,1765,0,0
637,-741,0,0,0,0,0,0,0,0,0,-1,1861,1765,0,0
644,-741,0,0,0,0,0,0,0,0,0,-1,1868,1765,0,0
651,-741,0,0,0,0,0,0,0,0,0,-1,1875,1765,0,0
658,-741,0,0,0,0,0,0,0,0,0,-1,1882,1765,0,0
665,-741,0,0,0,0,0,0,0,0,0,-1,1889,1765,0,0
672,-741,0,0,0,0,0,0,0,0,0,-1,1896,1765,0,0
679,-741,0,0,0,0,0,0,0,0,0,-1,1903,1765,0,0
686,-741,0,0,0,0,0,0,0,0,0,-1,1910,1765,0,0
693,-741,0,0,0,0,0,0,0,0,0,-1,1917,1765,0,0
700,-741,0,0,0,0,0,0,0,0,0,-1,1924,1765,0,0
707,-741,0,0,0,0,0,0,0,0,0,-1,1931,1765,0,0
714,-741,0,0,0,0,0,0,0,0,0,-1,1938,1765,0,0
721,-741,0,0,0,0,0,0,0,0,0,-1,1945,1765,0,0
728,-741,0,0,0,0,0,0,0,0,0,-1,1952,1765,0,0
735,-741,0,0,0,0,0,0,0,0,0,-1,1959,1765,0,0
742,-741,0,0,0,0,0,0,0,0,0,-1,1966,1765,0,0
749,-741,0,0,0,0,0,0,0,0,0,-1,1973,1765,0,0
756,-741,0,0,0,0,0,0,0,0,0,-1,1980,1765,0,0
763,-741,0,0,0,0,0,0,0,0,0,-1,1987,1765,0,0
770,-741,0,0,0,0,0,0,0,0,0,-1,1994,1765,0,0
777,-741,0,0,0,0,0,0,0,0,0,-1,2001,1765,0,0
784,-741,0,0,0,0,0,0,0,0,0,-1,2008,1765,0,0
791,-741,0,0,0,0,0,0,0,0,0,-1,2015,1765,0,0
798,-741,0,0,0,0,0,0,0,0,0,-1,2022,1765,0,0
805,-741,0,0,0,0,0,0,0,0,0,-1,2029,1765,0,0
812,-741,0,0,0,0,0,0,0,0,0,-1,2036,1765,0,0
-700,-748,0,0,0,0,0,0,0,0,0,-1,524,1772,0,0
-693,-748,0,0,0,0,0,0,0,0,0,-1,531,1772,0,0
-686,-748,0,0,0,0,0,0,0,0,0,-1,538,1772,0,0
-679,-748,0,0,0,0,0,0,0,0,0,-1,545,1772,0,0
-672,-748,0,0,0,0,0,0,0,0,0,-1,552,1772,0,0
-665,-748,0,0,0,0,0,0,0,0,0,-1,559,1772,0,0
-658,-748,0,0,0,0,0,0,0,0,0,-1,566,1772,0,0
-651,-748,0,0,0,0,0,0,0,0,0,-1,573,1772,0,0
-644,-748,0,0,0,0,0,0,0,0,0,-1,580,1772,0,0
-637,-748,0,0,0,0,0,0,0,0,0,-1,587,1772,0,0
-630,-748,0,0,0,0,0,0,0,0,0,-1,594,1772,0,0
-623,-748,0,0,0,0,0,0,0,0,0,-1,601,1772,0,0
-616,-748,0,0,0,0,0,0,0,0,0,-1,608,1772,0,0
-609,-748,0,0,0,0,0,0,0,0,0,-1,615,1772,0,0
-602,-748,0,0,0,0,0,0,0,0,0,-1,622,1772,0,0
-595,-748,0,0,0,0,0,0,0,0,0,-1,629,1772,0,0
-588,-748,0,0,0,0,0,0,0,0,0,-1,636,1772,0,0
-581,-748,0,0,0,0,0,0,0,0,0,-1,643,1772,0,0
-574,-748,0,0,0,0,0,0,0,0,0,-1,650,1772,0,0
-567,-748,0,0,0,0,0,0,0,0,0,-1,657,1772,0,0
-560,-748,0,0,0,0,0,0,0,0,0,-1,664,1772,0,0
-553,-748,0,0,0,0,0,0,0,0,0,-1,671,1772,0,0
-546,-748,0,0,0,0,0,0,0,0,0,-1,678,1772,0,0
-539,-748,0,0,0,0,0,0,0,0,0,-1,685,1772,0,0
-532,-748,0,0,0,0,0,0,0,0,0,-1,692,1772,0,0
-525,-748,0,0,0,0,0,0,0,0,0,-1,699,1772,0,0
-518,-748,0,0,0,0,0,0,0,0,0,-1,706,1772,0,0
-511,-748,0,0,0,0,0,0,0,0,0,-1,713,1772,0,0
-504,-748,0,0,0,0,0,0,0,0,0,-1,720,1772,0,0
-497,-748,0,0,0,0,0,0,0,0,0,-1,727,1772,0,0
-490,-748,0,0,0,0,0,0,0,0,0,-1,734,1772,0,0
-483,-748,0,0,0,0,0,0,0,0,0,-1,741,1772,0,0
-476,-748,0,0,0,0,0,0,0,0,0,-1,748,1772,0,0
-469,-748,0,0,0,0,0,0,0,0,0,-1,755,1772,0,0
-462,-748,0,0,0,0,0,0,0,0,0,-1,762,1772,0,0
-455,-748,0,0,0,0,0,0,0,0,0,-1,769,1772,0,0
-448,-748,0,0,0,0,0,0,0,0,0,-1,776,1772,0,0
-441,-748,0,0,0,0,0,0,0,0,0,-1,783,1772,0,0
-434,-748,0,0,0,0,0,0,0,0,0,-1,790,1772,0,0
-427,-748,0,0,0,0,0,0,0,0,0,-1,797,1772,0,0
-420,-748,0,0,0,0,0,0,0,0,0,-1,804,1772,0,0
-413,-748,0,0,0,0,0,0,0,0,0,-1,811,1772,0,0
-406,-748,0,0,0,0,0,0,0,0,0,-1,818,1772,0,0
-399,-748,0,0,0,0,0,0,0,0,0,-1,825,1772,0,0
-392,-748,0,0,0,0,0,0,0,0,0,-1,832,1772,0,0
-385,-748,0,0,0,0,0,0,0,0,0,-1,839,1772,0,0
-378,-748,0,0,0,0,0,0,0,0,0,-1,846,1772,0,0
-371,-748,0,0,0,0,0,0,0,0,0,-1,853,1772,0,0
-364,-748,0,0,0,0,0,0,0,0,0,-1,860,1772,0,0
-357,-748,0,0,0,0,0,0,0,0,0,-1,867,1772,0,0
-350,-748,0,0,0,0,0,0,0,0,0,-1,874,1772,0,0
-343,-748,0,0,0,0,0,0,0,0,0,-1,881,1772,0,0
-336,-748,0,0,0,0,0,0,0,0,0,-1,888,1772,0,0
-329,-748,0,0,0,0,0,0,0,0,0,-1,895,1772,0,0
-322,-748,0,0,0,0,0,0,0,0,0,-1,902,1772,0,0
-315,-748,0,0,0,0,0,0,0,0,0,-1,909,1772,0,0
-308,-748,0,0,0,0,0,0,0,0,0,-1,916,1772,0,0
-301,-748,0,0,0,0,0,0,0,0,0,-1,923,1772,0,0
-294,-748,0,0,0,0,0,0,0,0,0,-1,930,1772,0,0
-287,-748,0,0,0,0,0,0,0,0,0,-1,937,1772,0,0
-280,-748,0,0,0,0,0,0,0,0,0,-1,944,1772,0,0
-273,-748,0,0,0,0,0,0,0,0,0,-1,951,1772,0,0
-266,-748,0,0,0,0,0,0,0,0,0,-1,958,1772,0,0
-259,-748,0,0,0,0,0,0,0,0,0,-1,965,1772,0,0
-252,-748,0,0,0,0,0,0,0,0,0,-1,972,1772,0,0
-245,-748,0,0,0,0,0,0,0,0,0,-1,979,1772,0,0
-238,-748,0,0,0,0,0,0,0,0,0,-1,986,1772,0,0
-231,-748,0,0,0,0,0,0,0,0,0,-1,993,1772,0,0
-224,-748,0,0,0,0,0,0,0,0,0,-1,1000,1772,0,0
-217,-748,7.80432,8.96252,0,0,0,0,0,0,0,-1,1007,1772,7.80431,-8.96246
-210,-748,8.3371,9.15466,0,0,0,0,0,0,0,-1,1014,1772,8.33709,-9.1547
-203,-748,4.14246,10.7653,0,0,0,0,0,0,0,-1,1021,1772,4.14242,-10.7653
-196,-748,9.6189,10.1901,0,0,0,0,0,0,0,-1,1028,1772,9.61891,-10.19
-189,-748,3.41113,12.5135,0,0,0,0,0,0,0,-1,1035,1772,3.41114,-12.5136
-182,-748,3.6189,11.4628,0,0,0,0,0,0,0,-1,1042,1772,3.61887,-11.4628
-175,-748,3.73718,9.88293,0,0,0,0,0,0,0,-1,1049,1772,3.73717,-9.88289
-168,-748,2.64819,8.55664,0,0,0,0,0,0,0,-1,1056,1772,2.64817,-8.55666
-161,-748,2.37683,8.34314,0,0,0,0,0,0,0,-1,1063,1772,2.3768,-8.34318
-154,-748,-3.82056,10.7404,0,0,0,0,0,0,0,-1,1070,1772,-3.82062,-10.7403
-147,-748,-4.87122,10.7748,0,0,0,0,0,0,0,-1,1077,1772,-4.87117,-10.7748
-140,-748,5.38965,8.78552,0,0,0,0,0,0,0,-1,1084,1772,5.38969,-8.78552
-133,-748,4.29004,10.3318,0,0,0,0,0,0,0,-1,1091,1772,4.29009,-10.3318
-126,-748,3.73389,11.7363,0,0,0,0,0,0,0,-1,1098,1772,3.73387,-11.7364
-119,-748,3.87793,11.6782,-0.0179962,0.00229322,-0.00923024,0.00586393,-0.0215669,-1.20168,0.0166798,0.0440024,1105,1772,3.87789,-11.6782
-112,-748,4.04126,11.6134,-0.01775,-0.00101182,-0.00885291,0.00280169,-0.0215635,-1.16405,0.0153948,0.0419795,1112,1772,4.0413,-11.6134
-105,-748,4.12659,11.6558,-0.0177281,-0.00377163,-0.00832869,0.00011581,-0.0216155,-1.1341,0.0144491,0.0402048,1119,1772,4.12661,-11.6558
-98,-748,4.33105,11.5436,0,0,0,0,0,0,0,-1,1126,1772,4.33104,-11.5435
-91,-748,4.16797,11.3912,0,0,0,0,0,0,0,-1,1133,1772,4.168,-11.3913
-84,-748,4.22705,11.371,0,0,0,0,0,0,0,-1,1140,1772,4.22705,-11.371
-77,-748,4.16418,11.6129,0,0,0,0,0,0,0,-1,1147,1772,4.1642,-11.6129
-70,-748,4.41736,11.7036,0,0,0,0,0,0,0,-1,1154,1772,4.41738,-11.7036
-63,-748,4.67053,11.7944,0,0,0,0,0,0,0,-1,1161,1772,4.67056,-11.7944
-56,-748,3.05762,7.87817,0,0,0,0,0,0,0,-1,1168,1772,3.05768,-7.87822
-49,-748,3.04102,7.82471,0,0,0,0,0,0,0,-1,1175,1772,3.04096,-7.82468
-42,-748,3.62585,10.0979,0,0,0,0,0,0,0,-1,1182,1772,3.62584,-10.0979
-35,-748,3.94763,12.2104,0,0,0,0,0,0,0,-1,1189,1772,3.94766,-12.2105
-28,-748,4.03882,12.239,-0.00401278,0.00241798,-0.000140392,0.00242104,-0.00401584,-1.54898,0.00375416,0.0462875,1196,1772,4.03879,-12.239
-21,-748,4.06787,12.248,-0.00545864,0.00325678,0.000646476,0.00330447,-0.00550633,1.49716,0.00513959,0.02308,1203,1772,4.06781,-12.2481
-14,-748,4.03345,12.2538,-0.00713956,0.00444302,0.000839151,0.0045035,-0.00720004,1.49885,0.00681656,0.0158134,1210,1772,4.03342,-12.2538
-7,-748,4.01855,12.272,-0.00807854,0.0055189,0.000965306,0.00558708,-0.00814673,1.50028,0.00797499,0.0159812,1217,1772,4.01861,-12.2719
0,-748,4.02441,12.3069,-0.00863883,0.00635095,0.00113647,0.00643662,-0.0087245,1.49555,0.00878644,0.0155446,1224,1772,4.02444,-12.3069
7,-748,4.03308,12.3069,-0.00895332,0.00667993,0.00128269,0.00678448,-0.00905787,1.48947,0.00917792,0.0137531,1231,1772,4.03305,-12.3069
14,-748,4.02795,12.3591,-0.00913253,0.00666359,0.00123028,0.00675884,-0.00922778,1.49353,0.00926649,0.0149038,1238,1772,4.02799,-12.3591
21,-748,4.02563,12.4053,-0.00942412,0.00669273,0.00140906,0.00681499,-0.00954638,1.48424,0.00949002,0.0113911,1245,1772,4.02566,-12.4053
28,-748,3.9873,12.4429,-0.00959208,0.00653164,0.00164947,0.00669865,-0.00975909,1.46989,0.00955649,0.011598,1252,1772,3.98727,-12.4429
35,-748,3.98242,12.4622,-0.00922185,0.00602893,0.00188977,0.00625961,-0.00945253,1.44933,0.00913362,0.0120032,1259,1772,3.98241,-12.4621
42,-748,4.00549,12.4746,-0.00855938,0.00537746,0.00219475,0.00571491,-0.00889684,1.41824,0.00850251,0.0129253,1266,1772,4.0055,-12.4746
49,-748,3.97559,12.4883,-0.00789338,0.00475039,0.00228096,0.00514929,-0.00829228,1.39766,0.00783089,0.0105298,1273,1772,3.97558,-12.4883
56,-748,3.95557,12.4974,-0.00669789,0.00410766,0.00235309,0.00459785,-0.00718808,1.36542,0.00685917,0.0105893,1280,1772,3.95558,-12.4974
63,-748,3.96936,12.4867,-0.00497516,0.00267613,0.00263158,0.00349384,-0.00579288,1.26952,0.00541618,0.0122287,1287,1772,3.96938,-12.4867
70,-748,3.96497,12.4998,-0.00321963,0.00165263,0.00263597,0.0028058,-0.0043728,1.15841,0.00417735,0.0138096,1294,1772,3.96491,-12.4997
77,-748,3.95508,12.5186,-0.0014006,0.000331691,0.00233591,0.00195687,-0.00302578,0.962938,0.00289872,0.0132254,1301,1772,3.95511,-12.5186
84,-748,3.93347,12.5355,0.000320086,-0.000733486,0.00208319,0.00194207,-0.00235547,0.661557,0.00248501,0.015031,1308,1772,3.93348,-12.5355
91,-748,3.91345,12.5592,0.00235713,-0.00204773,0.00188634,0.00305452,-0.00274512,0.354122,0.00335001,0.012502,1315,1772,3.9134,-12.5592
98,-748,3.90369,12.5535,0.0042348,-0.00318537,0.00137615,0.0044818,-0.00343237,0.177595,0.00458262,0.0114416,1322,1772,3.9037,-12.5534
105,-748,3.9165,12.5289,0.0057139,-0.00418433,0.000768917,0.00577327,-0.00424371,0.0770661,0.00580574,0.0120626,1329,1772,3.91645,-12.5289
112,-748,3.93176,12.5052,0.00679971,-0.00478047,7.07532e-05,0.00680014,-0.0047809,0.00610955,0.00672011,0.0142699,1336,1772,3.93174,-12.5053
119,-748,3.93616,12.4917,0.00784137,-0.00526883,-0.00061656,0.0078703,-0.00529776,-0.0468911,0.00765079,0.0130047,1343,1772,3.9362,-12.4917
126,-748,3.94421,12.4875,0.00895941,-0.00569574,-0.00164053,0.00914081,-0.00587714,-0.110126,0.0087386,0.0152833,1350,1772,3.94419,-12.4875
133,-748,3.88306,12.4678,0.0096102,-0.00580563,-0.00258009,0.0100306,-0.00622599,-0.161505,0.00947101,0.00920778,1357,1772,3.88307,-12.4677
140,-748,3.88245,12.4567,0.00957097,-0.00549093,-0.0033258,0.0102726,-0.00619261,-0.207931,0.00960301,0.0111606,1364,1772,3.8825,-12.4567
147,-748,3.91101,12.4397,0.00925982,-0.00488599,-0.00398318,0.0103043,-0.00593046,-0.256445,0.00948585,0.0135882,1371,1772,3.91107,-12.4397
154,-748,3.88953,12.4193,0.00860617,-0.00406348,-0.0039298,0.0097261,-0.00518341,-0.277624,0.00874018,0.0121832,1378,1772,3.88951,-12.4193
161,-748,3.86609,12.4059,0.00702304,-0.00352501,-0.00386323,0.00828659,-0.00478856,-0.316104,0.00763846,0.0188118,1385,1772,3.86613,-12.4059
168,-748,3.8844,12.4005,0,0,0,0,0,0,0,-1,1392,1772,3.88445,-12.4006
175,-748,4.03174,12.131,0,0,0,0,0,0,0,-1,1399,1772,4.03173,-12.131
182,-748,7.62476,10.3058,0,0,0,0,0,0,0,-1,1406,1772,7.62476,-10.3058
189,-748,6.15857,6.95898,0,0,0,0,0,0,0,-1,1413,1772,6.15862,-6.95896
196,-748,3.9425,8.46021,0,0,0,0,0,0,0,-1,1420,1772,3.9425,-8.46026
203,-748,3.84375,11.7959,0,0,0,0,0,0,0,-1,1427,1772,3.84372,-11.7958
210,-748,3.76111,12.015,0,0,0,0,0,0,0,-1,1434,1772,3.76107,-12.015
217,-748,4.22986,12.0668,0.00176053,0.00578833,-0.0123277,0.0162655,-0.00871666,-0.866365,0.0146413,0.0388224,1441,1772,4.22989,-12.0668
224,-748,4.23547,11.9041,0.0013703,0.0059204,-0.0126025,0.0164515,-0.00916085,-0.874698,0.0149857,0.0404962,1448,1772,4.23549,-11.9041
231,-748,4.33618,11.9366,0.000810629,0.00553641,-0.012415,0.0158114,-0.00946434,-0.879436,0.0147455,0.0412218,1455,1772,4.33617,-11.9367
238,-748,3.75867,12.0006,0,0,0,0,0,0,0,-1,1462,1772,3.75868,-12.0006
245,-748,3.77002,11.6357,0,0,0,0,0,0,0,-1,1469,1772,3.77004,-11.6357
252,-748,3.84656,11.4731,0,0,0,0,0,0,0,-1,1476,1772,3.84656,-11.4732
259,-748,4.04822,10.3733,0,0,0,0,0,0,0,-1,1483,1772,4.04822,-10.3733
266,-748,3.45898,10.9454,0,0,0,0,0,0,0,-1,1490,1772,3.45897,-10.9454
273,-748,4.08313,10.0565,0,0,0,0,0,0,0,-1,1497,1772,4.08308,-10.0565
280,-748,5.2157,8.86853,0,0,0,0,0,0,0,-1,1504,1772,5.21574,-8.86854
287,-748,11.6401,6.0033,0,0,0,0,0,0,0,-1,1511,1772,11.6402,-6.00334
294,-748,4.29724,7.19885,0,0,0,0,0,0,0,-1,1518,1772,4.29729,-7.19883
301,-748,3.04175,10.2355,0,0,0,0,0,0,0,-1,1525,1772,3.04171,-10.2354
308,-748,2.79919,11.1362,0,0,0,0,0,0,0,-1,1532,1772,2.7992,-11.1363
315,-748,2.20203,12.3625,0.0651682,-0.0790327,0.118689,0.13194,-0.145805,0.51245,0.160423,0.0493184,1539,1772,2.20199,-12.3625
322,-748,2.9469,13.4518,0,0,0,0,0,0,0,-1,1546,1772,2.94694,-13.4518
329,-748,3.48315,14.6533,0,0,0,0,0,0,0,-1,1553,1772,3.48316,-14.6534
336,-748,3.76001,15.8163,0,0,0,0,0,0,0,-1,1560,1772,3.75995,-15.8163
343,-748,0,0,0,0,0,0,0,0,0,-1,1567,1772,0,0
350,-748,0,0,0,0,0,0,0,0,0,-1,1574,1772,0,0
357,-748,0,0,0,0,0,0,0,0,0,-1,1581,1772,0,0
364,-748,0,0,0,0,0,0,0,0,0,-1,1588,1772,0,0
371,-748,0,0,0,0,0,0,0,0,0,-1,1595,1772,0,0
378,-748,0,0,0,0,0,0,0,0,0,-1,1602,1772,0,0
385,-748,0,0,0,0,0,0,0,0,0,-1,1609,1772,0,0
392,-748,0,0,0,0,0,0,0,0,0,-1,1616,1772,0,0
399,-748,0,0,0,0,0,0,0,0,0,-1,1623,1772,0,0
406,-748,0,0,0,0,0,0,0,0,0,-1,1630,1772,0,0
413,-748,0,0,0,0,0,0,0,0,0,-1,1637,1772,0,0
420,-748,0,0,0,0,0,0,0,0,0,-1,1644,1772,0,0
427,-748,0,0,0,0,0,0,0,0,0,-1,1651,1772,0,0
434,-748,0,0,0,0,0,0,0,0,0,-1,1658,1772,0,0
441,-748,0,0,0,0,0,0,0,0,0,-1,1665,1772,0,0
448,-748,0,0,0,0,0,0,0,0,0,-1,1672,1772,0,0
455,-748,0,0,0,0,0,0,0,0,0,-1,1679,1772,0,0
462,-748,0,0,0,0,0,0,0,0,0,-1,1686,1772,0,0
469,-748,0,0,0,0,0,0,0,0,0,-1,1693,1772,0,0
476,-748,0,0,0,0,0,0,0,0,0,-1,1700,1772,0,0
483,-748,0,0,0,0,0,0,0,0,0,-1,1707,1772,0,0
490,-748,0,0,0,0,0,0,0,0,0,-1,1714,1772,0,0
497,-748,0,0,0,0,0,0,0,0,0,-1,1721,1772,0,0
504,-748,0,0,0,0,0,0,0,0,0,-1,1728,1772,0,0
511,-748,0,0,0,0,0,0,0,0,0,-1,1735,1772,0,0
518,-748,0,0,0,0,0,0,0,0,0,-1,1742,1772,0,0
525,-748,0,0,0,0,0,0,0,0,0,-1,1749,1772,0,0
532,-748,0,0,0,0,0,0,0,0,0,-1,1756,1772,0,0
539,-748,0,0,0,0,0,0,0,0,0,-1,1763,1772,0,0
546,-748,0,0,0,0,0,0,0,0,0,-1,1770,1772,0,0
553,-748,0,0,0,0,0,0,0,0,0,-1,1777,1772,0,0
560,-748,0,0,0,0,0,0,0,0,0,-1,1784,1772,0,0
567,-748,0,0,0,0,0,0,0,0,0,-1,1791,1772,0,0
574,-748,0,0,0,0,0,0,0,0,0,-1,1798,1772,0,0
581,-748,0,0,0,0,0,0,0,0,0,-1,1805,1772,0,0
588,-748,0,0,0,0,0,0,0,0,0,-1,1812,1772,0,0
595,-748,0,0,0,0,0,0,0,0,0,-1,1819,1772,0,0
602,-748,0,0,0,0,0,0,0,0,0,-1,1826,1772,0,0
609,-748,0,0,0,0,0,0,0,0,0,-1,1833,1772,0,0
616,-748,0,0,0,0,0,0,0,0,0,-1,1840,1772,0,0
623,-748,0,0,0,0,0,0,0,0,0,-1,1847,1772,0,0
630,-748,0,0,0,0,0,0,0,0,0,-1,1854,1772,0,0
637,-748,0,0,0,0,0,0,0,0,0,-1,1861,1772,0,0
644,-748,0,0,0,0,0,0,0,0,0,-1,1868,1772,0,0
651,-748,0,0,0,0,0,0,0,0,0,-1,1875,1772,0,0
658,-748,0,0,0,0,0,0,0,0,0,-1,1882,1772,0,0
665,-748,0,0,0,0,0,0,0,0,0,-1,1889,1772,0,0
672,-748,0,0,0,0,0,0,0,0,0,-1,1896,1772,0,0
679,-748,0,0,0,0,0,0,0,0,0,-1,1903,1772,0,0
686,-748,0,0,0,0,0,0,0,0,0,-1,1910,1772,0,0
693,-748,0,0,0,0,0,0,0,0,0,-1,1917,1772,0,0
700,-748,0,0,0,0,0,0,0,0,0,-1,1924,1772,0,0
707,-748,0,0,0,0,0,0,0,0,0,-1,1931,1772,0,0
714,-748,0,0,0,0,0,0,0,0,0,-1,1938,1772,0,0
721,-748,0,0,0,0,0,0,0,0,0,-1,1945,1772,0,0
728,-748,0,0,0,0,0,0,0,0,0,-1,1952,1772,0,0
735,-748,0,0,0,0,0,0,0,0,0,-1,1959,1772,0,0
742,-748,0,0,0,0,0,0,0,0,0,-1,1966,1772,0,0
749,-748,0,0,0,0,0,0,0,0,0,-1,1973,1772,0,0
756,-748,0,0,0,0,0,0,0,0,0,-1,1980,1772,0,0
763,-748,0,0,0,0,0,0,0,0,0,-1,1987,1772,0,0
770,-748,0,0,0,0,0,0,0,0,0,-1,1994,1772,0,0
777,-748,0,0,0,0,0,0,0,0,0,-1,2001,1772,0,0
784,-748,0,0,0,0,0,0,0,0,0,-1,2008,1772,0,0
791,-748,0,0,0,0,0,0,0,0,0,-1,2015,1772,0,0
798,-748,0,0,0,0,0,0,0,0,0,-1,2022,1772,0,0
805,-748,0,0,0,0,0,0,0,0,0,-1,2029,1772,0,0
812,-748,0,0,0,0,0,0,0,0,0,-1,2036,1772,0,0
-700,-755,0,0,0,0,0,0,0,0,0,-1,524,1779,0,0
-693,-755,0,0,0,0,0,0,0,0,0,-1,531,1779,0,0
-686,-755,0,0,0,0,0,0,0,0,0,-1,538,1779,0,0
-679,-755,0,0,0,0,0,0,0,0,0,-1,545,1779,0,0
-672,-755,0,0,0,0,0,0,0,0,0,-1,552,1779,0,0
-665,-755,0,0,0,0,0,0,0,0,0,-1,559,1779,0,0
-658,-755,0,0,0,0,0,0,0,0,0,-1,566,1779,0,0
-651,-755,0,0,0,0,0,0,0,0,0,-1,573,1779,0,0
-644,-755,0,0,0,0,0,0,0,0,0,-1,580,1779,0,0
-637,-755,0,0,0,0,0,0,0,0,0,-1,587,1779,0,0
-630,-755,0,0,0,0,0,0,0,0,0,-1,594,1779,0,0
-623,-755,0,0,0,0,0,0,0,0,0,-1,601,1779,0,0
-616,-755,0,0,0,0,0,0,0,0,0,-1,608,1779,0,0
-609,-755,0,0,0,0,0,0,0,0,0,-1,615,1779,0,0
-602,-755,0,0,0,0,0,0,0,0,0,-1,622,1779,0,0
-595,-755,0,0,0,0,0,0,0,0,0,-1,629,1779,0,0
-588,-755,0,0,0,0,0,0,0,0,0,-1,636,1779,0,0
-581,-755,0,0,0,0,0,0,0,0,0,-1,643,1779,0,0
-574,-755,0,0,0,0,0,0,0,0,0,-1,650,1779,0,0
-567,-755,0,0,0,0,0,0,0,0,0,-1,657,1779,0,0
-560,-755,0,0,0,0,0,0,0,0,0,-1,664,1779,0,0
-553,-755,0,0,0,0,0,0,0,0,0,-1,671,1779,0,0
-546,-755,0,0,0,0,0,0,0,0,0,-1,678,1779,0,0
-539,-755,0,0,0,0,0,0,0,0,0,-1,685,1779,0,0
-532,-755,0,0,0,0,0,0,0,0,0,-1,692,1779,0,0
-525,-755,0,0,0,0,0,0,0,0,0,-1,699,1779,0,0
-518,-755,0,0,0,0,0,0,0,0,0,-1,706,1779,0,0
-511,-755,0,0,0,0,0,0,0,0,0,-1,713,1779,0,0
-504,-755,0,0,0,0,0,0,0,0,0,-1,720,1779,0,0
-497,-755,0,0,0,0,0,0,0,0,0,-1,727,1779,0,0
-490,-755,0,0,0,0,0,0,0,0,0,-1,734,1779,0,0
-483,-755,0,0,0,0,0,0,0,0,0,-1,741,1779,0,0
-476,-755,0,0,0,0,0,0,0,0,0,-1,748,1779,0,0
-469,-755,0,0,0,0,0,0,0,0,0,-1,755,1779,0,0
-462,-755,0,0,0,0,0,0,0,0,0,-1,762,1779,0,0
-455,-755,0,0,0,0,0,0,0,0,0,-1,769,1779,0,0
-448,-755,0,0,0,0,0,0,0,0,0,-1,776,1779,0,0
-441,-755,0,0,0,0,0,0,0,0,0,-1,783,1779,0,0
-434,-755,0,0,0,0,0,0,0,0,0,-1,790,1779,0,0
-427,-755,0,0,0,0,0,0,0,0,0,-1,797,1779,0,0
-420,-755,0,0,0,0,0,0,0,0,0,-1,804,1779,0,0
-413,-755,0,0,0,0,0,0,0,0,0,-1,811,1779,0,0
-406,-755,0,0,0,0,0,0,0,0,0,-1,818,1779,0,0
-399,-755,0,0,0,0,0,0,0,0,0,-1,825,1779,0,0
-392,-755,0,0,0,0,0,0,0,0,0,-1,832,1779,0,0
-385,-755,0,0,0,0,0,0,0,0,0,-1,839,1779,0,0
-378,-755,0,0,0,0,0,0,0,0,0,-1,846,1779,0,0
-371,-755,0,0,0,0,0,0,0,0,0,-1,853,1779,0,0
-364,-755,0,0,0,0,0,0,0,0,0,-1,860,1779,0,0
-357,-755,0,0,0,0,0,0,0,0,0,-1,867,1779,0,0
-350,-755,0,0,0,0,0,0,0,0,0,-1,874,1779,0,0
-343,-755,0,0,0,0,0,0,0,0,0,-1,881,1779,0,0
-336,-755,0,0,0,0,0,0,0,0,0,-1,888,1779,0,0
-329,-755,0,0,0,0,0,0,0,0,0,-1,895,1779,0,0
-322,-755,0,0,0,0,0,0,0,0,0,-1,902,1779,0,0
-315,-755,0,0,0,0,0,0,0,0,0,-1,909,1779,0,0
-308,-755,0,0,0,0,0,0,0,0,0,-1,916,1779,0,0
-301,-755,0,0,0,0,0,0,0,0,0,-1,923,1779,0,0
-294,-755,0,0,0,0,0,0,0,0,0,-1,930,1779,0,0
-287,-755,0,0,0,0,0,0,0,0,0,-1,937,1779,0,0
-280,-755,0,0,0,0,0,0,0,0,0,-1,944,1779,0,0
-273,-755,0,0,0,0,0,0,0,0,0,-1,951,1779,0,0
-266,-755,0,0,0,0,0,0,0,0,0,-1,958,1779,0,0
-259,-755,0,0,0,0,0,0,0,0,0,-1,965,1779,0,0
-252,-755,0,0,0,0,0,0,0,0,0,-1,972,1779,0,0
-245,-755,0,0,0,0,0,0,0,0,0,-1,979,1779,0,0
-238,-755,0,0,0,0,0,0,0,0,0,-1,986,1779,0,0
-231,-755,0,0,0,0,0,0,0,0,0,-1,993,1779,0,0
-224,-755,0,0,0,0,0,0,0,0,0,-1,1000,1779,0,0
-217,-755,0,0,0,0,0,0,0,0,0,-1,1007,1779,0,0
-210,-755,0,0,0,0,0,0,0,0,0,-1,1014,1779,0,0
-203,-755,9.17322,10.2322,0,0,0,0,0,0,0,-1,1021,1779,9.17323,-10.2322
-196,-755,5.41724,13.5709,0,0,0,0,0,0,0,-1,1028,1779,5.41718,-13.571
-189,-755,4.85864,12.9271,0,0,0,0,0,0,0,-1,1035,1779,4.85866,-12.9272
-182,-755,4.35339,12.1057,0,0,0,0,0,0,0,-1,1042,1779,4.35337,-12.1057
-175,-755,3.88025,10.7515,0,0,0,0,0,0,0,-1,1049,1779,3.88029,-10.7515
-168,-755,3.58789,9.15454,0,0,0,0,0,0,0,-1,1056,1779,3.58791,-9.15456
-161,-755,-2.95337,11.1847,0,0,0,0,0,0,0,-1,1063,1779,-2.9534,-11.1847
-154,-755,-4.14355,11.0377,0,0,0,0,0,0,0,-1,1070,1779,-4.1436,-11.0378
-147,-755,-5.40332,10.7094,0,0,0,0,0,0,0,-1,1077,1779,-5.40328,-10.7094
-140,-755,4.33801,11.4038,0,0,0,0,0,0,0,-1,1084,1779,4.33802,-11.4038
-133,-755,4.44019,11.5253,0,0,0,0,0,0,0,-1,1091,1779,4.44017,-11.5253
-126,-755,4.52942,11.6165,0,0,0,0,0,0,0,-1,1098,1779,4.52939,-11.6165
-119,-755,4.30261,11.7034,-0.025251,0.00109233,-0.0139254,0.0070886,-0.0312472,-1.16419,0.0235527,0.0436178,1105,1779,4.30264,-11.7034
-112,-755,4.38123,11.7491,-0.025196,-0.00343463,-0.0130731,0.00269335,-0.031324,-1.13246,0.0218359,0.0420273,1112,1779,4.38117,-11.7492
-105,-755,4.29602,11.7871,-0.0255603,-0.00724268,-0.0121018,-0.00122459,-0.0315784,-1.10932,0.0206562,0.0415225,1119,1779,4.29598,-11.7871
-98,-755,3.87537,11.6785,-0.0261501,-0.0100631,-0.011001,-0.00447875,-0.0317345,-1.10107,0.0198327,0.0471061,1126,1779,3.87542,-11.6785
-91,-755,3.4447,11.2358,0,0,0,0,0,0,0,-1,1133,1779,3.44475,-11.2358
-84,-755,0.32251,8.17041,0,0,0,0,0,0,0,-1,1140,1779,0.322463,-8.17038
-77,-755,-0.369141,6.3689,0,0,0,0,0,0,0,-1,1147,1779,-0.369121,-6.36889
-70,-755,4.63867,11.4895,0,0,0,0,0,0,0,-1,1154,1779,4.63868,-11.4896
-63,-755,-1.36316,7.3147,0,0,0,0,0,0,0,-1,1161,1779,-1.36312,-7.31473
-56,-755,0.0483398,5.06079,0,0,0,0,0,0,0,-1,1168,1779,0.0483138,-5.06084
-49,-755,-1.32263,5.33716,0,0,0,0,0,0,0,-1,1175,1779,-1.32264,-5.33718
-42,-755,-2.03613,4.01672,0,0,0,0,0,0,0,-1,1182,1779,-2.0361,-4.01671
-35,-755,-2.72498,2.37476,0,0,0,0,0,0,0,-1,1189,1779,-2.72502,-2.37473
-28,-755,3.89868,12.3851,0,0,0,0,0,0,0,-1,1196,1779,3.89863,-12.3851
-21,-755,4.20288,12.2239,0,0,0,0,0,0,0,-1,1203,1779,4.20282,-12.2239
-14,-755,4.14551,12.2366,-0.0124983,0.00852849,0.000833845,0.00856151,-0.0125313,1.53122,0.0122496,0.0323489,1210,1779,4.14547,-12.2366
-7,-755,4.05371,12.2369,-0.0136995,0.0102221,0.000929481,0.0102582,-0.0137355,1.53202,0.0139012,0.0235892,1217,1779,4.05373,-12.237
0,-755,4.03809,12.295,-0.0142728,0.0114207,0.00111379,0.0114689,-0.014321,1.52756,0.0149201,0.0139397,1224,1779,4.0381,-12.2951
7,-755,4.04932,12.3346,-0.0145927,0.0118925,0.00130657,0.0119568,-0.014657,1.52162,0.0153918,0.0115063,1231,1779,4.04934,-12.3345
14,-755,4.06079,12.3752,-0.0146948,0.0115387,0.00133959,0.0116069,-0.014763,1.51991,0.015261,0.0102205,1238,1779,4.06084,-12.3752
21,-755,4.04883,12.407,-0.0148889,0.0110531,0.00167539,0.0111608,-0.0149967,1.50657,0.0151561,0.0145779,1245,1779,4.04878,-12.4069
28,-755,4.02209,12.425,-0.0149107,0.0101806,0.00207125,0.0103505,-0.0150806,1.48899,0.014767,0.0174687,1252,1779,4.0221,-12.425
35,-755,4.01868,12.4701,-0.0142805,0.00882712,0.00249708,0.00909389,-0.0145473,1.46437,0.0137698,0.0172494,1259,1779,4.01862,-12.4701
42,-755,4.01685,12.4822,-0.0132756,0.00733733,0.00301544,0.0077694,-0.0137077,1.42848,0.0125568,0.0130311,1266,1779,4.0169,-12.4822
49,-755,3.99548,12.4705,-0.0122686,0.00589416,0.00327235,0.00646575,-0.0128402,1.39787,0.011347,0.00928821,1273,1779,3.99544,-12.4704
56,-755,3.98193,12.4834,-0.0105522,0.00452063,0.00350223,0.00529464,-0.0113262,1.35329,0.00980439,0.00900685,1280,1779,3.98191,-12.4834
63,-755,3.9812,12.4946,-0.00816657,0.00209512,0.00399591,0.00346757,-0.00953902,1.23996,0.00777729,0.00953317,1287,1779,3.98115,-12.4946
70,-755,3.97693,12.5042,-0.00575155,0.000318649,0.00414377,0.00241996,-0.00785286,1.10148,0.00620133,0.0117667,1294,1779,3.97691,-12.5042
77,-755,3.95996,12.5157,-0.00319485,-0.00177649,0.00394094,0.00151858,-0.00648991,0.874421,0.00491168,0.0109684,1301,1779,3.95992,-12.5157
84,-755,3.96692,12.5151,-0.000695846,-0.00349296,0.00372329,0.00188289,-0.00607169,0.605739,0.00480014,0.0115532,1308,1779,3.96692,-12.5152
91,-755,3.94727,12.5204,0.00222233,-0.00536139,0.00352896,0.00361041,-0.00674947,0.374751,0.00607211,0.0120152,1315,1779,3.94731,-12.5204
98,-755,3.90247,12.5139,0.00495154,-0.00694843,0.00292541,0.00563181,-0.0076287,0.22848,0.00768484,0.012859,1322,1779,3.90249,-12.5139
105,-755,3.9303,12.5454,0.00723478,-0.00832806,0.00217515,0.00753308,-0.00862635,0.136287,0.00933676,0.0158347,1329,1779,3.93027,-12.5454
112,-755,3.93762,12.527,0.00909183,-0.00914333,0.00124971,0.00917708,-0.00922858,0.0681084,0.0106265,0.020866,1336,1779,3.93762,-12.527
119,-755,3.89758,12.5245,0.0109473,-0.00977316,0.000298154,0.0109516,-0.00977745,0.0143854,0.0119743,0.0209188,1343,1779,3.89753,-12.5245
126,-755,3.88538,12.5438,0.0128902,-0.0103065,-0.0010656,0.012939,-0.0103553,-0.0458092,0.0134765,0.0233948,1350,1779,3.88539,-12.5438
133,-755,3.81384,12.4884,0.0142636,-0.0103335,-0.00235967,0.0144879,-0.0105578,-0.0947807,0.0145194,0.0243213,1357,1779,3.81382,-12.4884
140,-755,3.8114,12.4806,0.014765,-0.00983372,-0.00351183,0.0152565,-0.0103253,-0.139064,0.0148608,0.0277569,1364,1779,3.81136,-12.4806
147,-755,3.89221,12.4537,0.0146246,-0.00899068,-0.00460035,0.0154891,-0.0098552,-0.185758,0.0147526,0.0295189,1371,1779,3.89215,-12.4537
154,-755,3.90906,12.4104,0.0137382,-0.00788255,-0.00460126,0.0146767,-0.00882104,-0.201203,0.0137061,0.0328786,1378,1779,3.90911,-12.4104
161,-755,3.87341,12.3943,0,0,0,0,0,0,0,-1,1385,1779,3.87342,-12.3943
168,-755,3.98181,7.35901,0,0,0,0,0,0,0,-1,1392,1779,3.98184,-7.35904
175,-755,8.17065,1.34363,0,0,0,0,0,0,0,-1,1399,1779,8.1706,-1.34368
182,-755,8.09216,2.96924,0,0,0,0,0,0,0,-1,1406,1779,8.09213,-2.9693
189,-755,8.04419,4.68042,0,0,0,0,0,0,0,-1,1413,1779,8.04419,-4.68046
196,-755,7.74841,7.4541,0,0,0,0,0,0,0,-1,1420,1779,7.74842,-7.45405
203,-755,4.80554,6.88696,0,0,0,0,0,0,0,-1,1427,1779,4.80554,-6.88697
210,-755,3.07959,4.92688,0,0,0,0,0,0,0,-1,1434,1779,3.07955,-4.9269
217,-755,4.62927,12.1199,0,0,0,0,0,0,0,-1,1441,1779,4.62925,-12.1199
224,-755,4.56128,11.8848,0,0,0,0,0,0,0,-1,1448,1779,4.56134,-11.8848
231,-755,4.82678,11.696,0,0,0,0,0,0,0,-1,1455,1779,4.82679,-11.696
238,-755,5.20178,11.2515,0,0,0,0,0,0,0,-1,1462,1779,5.20182,-11.2515
245,-755,4.65613,11.13,0,0,0,0,0,0,0,-1,1469,1779,4.65615,-11.13
252,-755,5.19409,10.7437,0,0,0,0,0,0,0,-1,1476,1779,5.19413,-10.7437
259,-755,3.22913,10.627,0,0,0,0,0,0,0,-1,1483,1779,3.22908,-10.6269
266,-755,4.24548,10.5674,0,0,0,0,0,0,0,-1,1490,1779,4.24553,-10.5674
273,-755,5.42371,10.0529,0,0,0,0,0,0,0,-1,1497,1779,5.4237,-10.0529
280,-755,6.5282,9.25281,0,0,0,0,0,0,0,-1,1504,1779,6.52818,-9.25283
287,-755,7.72681,8.83936,0,0,0,0,0,0,0,-1,1511,1779,7.72678,-8.83941
294,-755,-1.42712,9.12402,0,0,0,0,0,0,0,-1,1518,1779,-1.42717,-9.12401
301,-755,-0.426636,10.4518,0.0760457,-0.0989091,0.134274,0.148824,-0.171688,0.49669,0.185204,0.0472104,1525,1779,-0.426593,-10.4518
308,-755,0.486694,11.9594,0,0,0,0,0,0,0,-1,1532,1779,0.486686,-11.9594
315,-755,1.45813,13.2664,0,0,0,0,0,0,0,-1,1539,1779,1.45811,-13.2664
322,-755,0,0,0,0,0,0,0,0,0,-1,1546,1779,0,0
329,-755,0,0,0,0,0,0,0,0,0,-1,1553,1779,0,0
336,-755,0,0,0,0,0,0,0,0,0,-1,1560,1779,0,0
343,-755,0,0,0,0,0,0,0,0,0,-1,1567,1779,0,0
350,-755,0,0,0,0,0,0,0,0,0,-1,1574,1779,0,0
357,-755,0,0,0,0,0,0,0,0,0,-1,1581,1779,0,0
364,-755,0,0,0,0,0,0,0,0,0,-1,1588,1779,0,0
371,-755,0,0,0,0,0,0,0,0,0,-1,1595,1779,0,0
378,-755,0,0,0,0,0,0,0,0,0,-1,1602,1779,0,0
385,-755,0,0,0,0,0,0,0,0,0,-1,1609,1779,0,0
392,-755,0,0,0,0,0,0,0,0,0,-1,1616,1779,0,0
399,-755,0,0,0,0,0,0,0,0,0,-1,1623,1779,0,0
406,-755,0,0,0,0,0,0,0,0,0,-1,1630,1779,0,0
413,-755,0,0,0,0,0,0,0,0,0,-1,1637,1779,0,0
420,-755,0,0,0,0,0,0,0,0,0,-1,1644,1779,0,0
427,-755,0,0,0,0,0,0,0,0,0,-1,1651,1779,0,0
434,-755,0,0,0,0,0,0,0,0,0,-1,1658,1779,0,0
441,-755,0,0,0,0,0,0,0,0,0,-1,1665,1779,0,0
448,-755,0,0,0,0,0,0,0,0,0,-1,1672,1779,0,0
455,-755,0,0,0,0,0,0,0,0,0,-1,1679,1779,0,0
462,-755,0,0,0,0,0,0,0,0,0,-1,1686,1779,0,0
469,-755,0,0,0,0,0,0,0,0,0,-1,1693,1779,0,0
476,-755,0,0,0,0,0,0,0,0,0,-1,1700,1779,0,0
483,-755,0,0,0,0,0,0,0,0,0,-1,1707,1779,0,0
490,-755,0,0,0,0,0,0,0,0,0,-1,1714,1779,0,0
497,-755,0,0,0,0,0,0,0,0,0,-1,1721,1779,0,0
504,-755,0,0,0,0,0,0,0,0,0,-1,1728,1779,0,0
511,-755,0,0,0,0,0,0,0,0,0,-1,1735,1779,0,0
518,-755,0,0,0,0,0,0,0,0,0,-1,1742,1779,0,0
525,-755,0,0,0,0,0,0,0,0,0,-1,1749,1779,0,0
532,-755,0,0,0,0,0,0,0,0,0,-1,1756,1779,0,0
539,-755,0,0,0,0,0,0,0,0,0,-1,1763,1779,0,0
546,-755,0,0,0,0,0,0,0,0,0,-1,1770,1779,0,0
553,-755,0,0,0,0,0,0,0,0,0,-1,1777,1779,0,0
560,-755,0,0,0,0,0,0,0,0,0,-1,1784,1779,0,0
567,-755,0,0,0,0,0,0,0,0,0,-1,1791,1779,0,0
574,-755,0,0,0,0,0,0,0,0,0,-1,1798,1779,0,0
581,-755,0,0,0,0,0,0,0,0,0,-1,1805,1779,0,0
588,-755,0,0,0,0,0,0,0,0,0,-1,1812,1779,0,0
595,-755,0,0,0,0,0,0,0,0,0,-1,1819,1779,0,0
602,-755,0,0,0,0,0,0,0,0,0,-1,1826,1779,0,0
609,-755,0,0,0,0,0,0,0,0,0,-1,1833,1779,0,0
616,-755,0,0,0,0,0,0,0,0,0,-1,1840,1779,0,0
623,-755,0,0,0,0,0,0,0,0,0,-1,1847,1779,0,0
630,-755,0,0,0,0,0,0,0,0,0,-1,1854,1779,0,0
637,-755,0,0,0,0,0,0,0,0,0,-1,1861,1779,0,0
644,-755,0,0,0,0,0,0,0,0,0,-1,1868,1779,0,0
651,-755,0,0,0,0,0,0,0,0,0,-1,1875,1779,0,0
658,-755,0,0,0,0,0,0,0,0,0,-1,1882,1779,0,0
665,-755,0,0,0,0,0,0,0,0,0,-1,1889,1779,0,0
672,-755,0,0,0,0,0,0,0,0,0,-1,1896,1779,0,0
679,-755,0,0,0,0,0,0,0,0,0,-1,1903,1779,0,0
686,-755,0,0,0,0,0,0,0,0,0,-1,1910,1779,0,0
693,-755,0,0,0,0,0,0,0,0,0,-1,1917,1779,0,0
700,-755,0,0,0,0,0,0,0,0,0,-1,1924,1779,0,0
707,-755,0,0,0,0,0,0,0,0,0,-1,1931,1779,0,0
714,-755,0,0,0,0,0,0,0,0,0,-1,1938,1779,0,0
721,-755,0,0,0,0,0,0,0,0,0,-1,1945,1779,0,0
728,-755,0,0,0,0,0,0,0,0,0,-1,1952,1779,0,0
735,-755,0,0,0,0,0,0,0,0,0,-1,1959,1779,0,0
742,-755,0,0,0,0,0,0,0,0,0,-1,1966,1779,0,0
749,-755,0,0,0,0,0,0,0,0,0,-1,1973,1779,0,0
756,-755,0,0,0,0,0,0,0,0,0,-1,1980,1779,0,0
763,-755,0,0,0,0,0,0,0,0,0,-1,1987,1779,0,0
770,-755,0,0,0,0,0,0,0,0,0,-1,1994,1779,0,0
777,-755,0,0,0,0,0,0,0,0,0,-1,2001,1779,0,0
784,-755,0,0,0,0,0,0,0,0,0,-1,2008,1779,0,0
791,-755,0,0,0,0,0,0,0,0,0,-1,2015,1779,0,0
798,-755,0,0,0,0,0,0,0,0,0,-1,2022,1779,0,0
805,-755,0,0,0,0,0,0,0,0,0,-1,2029,1779,0,0
812,-755,0,0,0,0,0,0,0,0,0,-1,2036,1779,0,0
-700,-762,0,0,0,0,0,0,0,0,0,-1,524,1786,0,0
-693,-762,0,0,0,0,0,0,0,0,0,-1,531,1786,0,0
-686,-762,0,0,0,0,0,0,0,0,0,-1,538,1786,0,0
-679,-762,0,0,0,0,0,0,0,0,0,-1,545,1786,0,0
-672,-762,0,0,0,0,0,0,0,0,0,-1,552,1786,0,0
-665,-762,0,0,0,0,0,0,0,0,0,-1,559,1786,0,0
-658,-762,0,0,0,0,0,0,0,0,0,-1,566,1786,0,0
-651,-762,0,0,0,0,0,0,0,0,0,-1,573,1786,0,0
-644,-762,0,0,0,0,0,0,0,0,0,-1,580,1786,0,0
-637,-762,0,0,0,0,0,0,0,0,0,-1,587,1786,0,0
-630,-762,0,0,0,0,0,0,0,0,0,-1,594,1786,0,0
-623,-762,0,0,0,0,0,0,0,0,0,-1,601,1786,0,0
-616,-762,0,0,0,0,0,0,0,0,0,-1,608,1786,0,0
-609,-762,0,0,0,0,0,0,0,0,0,-1,615,1786,0,0
-602,-762,0,0,0,0,0,0,0,0,0,-1,622,1786,0,0
-595,-762,0,0,0,0,0,0,0,0,0,-1,629,1786,0,0
-588,-762,0,0,0,0,0,0,0,0,0,-1,636,1786,0,0
-581,-762,0,0,0,0,0,0,0,0,0,-1,643,1786,0,0
-574,-762,0,0,0,0,0,0,0,0,0,-1,650,1786,0,0
-567,-762,0,0,0,0,0,0,0,0,0,-1,657,1786,0,0
-560,-762,0,0,0,0,0,0,0,0,0,-1,664,1786,0,0
-553,-762,0,0,0,0,0,0,0,0,0,-1,671,1786,0,0
-546,-762,0,0,0,0,0,0,0,0,0,-1,678,1786,0,0
-539,-762,0,0,0,0,0,0,0,0,0,-1,685,1786,0,0
-532,-762,0,0,0,0,0,0,0,0,0,-1,692,1786,0,0
-525,-762,0,0,0,0,0,0,0,0,0,-1,699,1786,0,0
-518,-762,0,0,0,0,0,0,0,0,0,-1,706,1786,0,0
-511,-762,0,0,0,0,0,0,0,0,0,-1,713,1786,0,0
-504,-762,0,0,0,0,0,0,0,0,0,-1,720,1786,0,0
-497,-762,0,0,0,0,0,0,0,0,0,-1,727,1786,0,0
-490,-762,0,0,0,0,0,0,0,0,0,-1,734,1786,0,0
-483,-762,0,0,0,0,0,0,0,0,0,-1,741,1786,0,0
-476,-762,0,0,0,0,0,0,0,0,0,-1,748,1786,0,0
-469,-762,0,0,0,0,0,0,0,0,0,-1,755,1786,0,0
-462,-762,0,0,0,0,0,0,0,0,0,-1,762,1786,0,0
-455,-762,0,0,0,0,0,0,0,0,0,-1,769,1786,0,0
-448,-762,0,0,0,0,0,0,0,0,0,-1,776,1786,0,0
-441,-762,0,0,0,0,0,0,0,0,0,-1,783,1786,0,0
-434,-762,0,0,0,0,0,0,0,0,0,-1,790,1786,0,0
-427,-762,0,0,0,0,0,0,0,0,0,-1,797,1786,0,0
-420,-762,0,0,0,0,0,0,0,0,0,-1,804,1786,0,0
-413,-762,0,0,0,0,0,0,0,0,0,-1,811,1786,0,0
-406,-762,0,0,0,0,0,0,0,0,0,-1,818,1786,0,0
-399,-762,0,0,0,0,0,0,0,0,0,-1,825,1786,0,0
-392,-762,0,0,0,0,0,0,0,0,0,-1,832,1786,0,0
-385,-762,0,0,0,0,0,0,0,0,0,-1,839,1786,0,0
-378,-762,0,0,0,0,0,0,0,0,0,-1,846,1786,0,0
-371,-762,0,0,0,0,0,0,0,0,0,-1,853,1786,0,0
-364,-762,0,0,0,0,0,0,0,0,0,-1,860,1786,0,0
-357,-762,0,0,0,0,0,0,0,0,0,-1,867,1786,0,0
-350,-762,0,0,0,0,0,0,0,0,0,-1,874,1786,0,0
-343,-762,0,0,0,0,0,0,0,0,0,-1,881,1786,0,0
-336,-762,0,0,0,0,0,0,0,0,0,-1,888,1786,0,0
-329,-762,0,0,0,0,0,0,0,0,0,-1,895,1786,0,0
-322,-762,0,0,0,0,0,0,0,0,0,-1,902,1786,0,0
-315,-762,0,0,0,0,0,0,0,0,0,-1,909,1786,0,0
-308,-762,0,0,0,0,0,0,0,0,0,-1,916,1786,0,0
-301,-762,0,0,0,0,0,0,0,0,0,-1,923,1786,0,0
-294,-762,0,0,0,0,0,0,0,0,0,-1,930,1786,0,0
-287,-762,0,0,0,0,0,0,0,0,0,-1,937,1786,0,0
-280,-762,0,0,0,0,0,0,0,0,0,-1,944,1786,0,0
-273,-762,0,0,0,0,0,0,0,0,0,-1,951,1786,0,0
-266,-762,0,0,0,0,0,0,0,0,0,-1,958,1786,0,0
-259,-762,0,0,0,0,0,0,0,0,0,-1,965,1786,0,0
-252,-762,0,0,0,0,0,0,0,0,0,-1,972,1786,0,0
-245,-762,0,0,0,0,0,0,0,0,0,-1,979,1786,0,0
-238,-762,0,0,0,0,0,0,0,0,0,-1,986,1786,0,0
-231,-762,0,0,0,0,0,0,0,0,0,-1,993,1786,0,0
-224,-762,0,0,0,0,0,0,0,0,0,-1,1000,1786,0,0
-217,-762,0,0,0,0,0,0,0,0,0,-1,1007,1786,0,0
-210,-762,0,0,0,0,0,0,0,0,0,-1,1014,1786,0,0
-203,-762,0,0,0,0,0,0,0,0,0,-1,1021,1786,0,0
-196,-762,0,0,0,0,0,0,0,0,0,-1,1028,1786,0,0
-189,-762,0,0,0,0,0,0,0,0,0,-1,1035,1786,0,0
-182,-762,4.44226,13.2462,0,0,0,0,0,0,0,-1,1042,1786,4.44227,-13.2462
-175,-762,4.07861,11.6385,0,0,0,0,0,0,0,-1,1049,1786,4.07866,-11.6386
-168,-762,3.71509,10.031,0,0,0,0,0,0,0,-1,1056,1786,3.71504,-10.031
-161,-762,-3.15735,11.7089,0,0,0,0,0,0,0,-1,1063,1786,-3.15736,-11.7088
-154,-762,-4.57129,10.9923,0,0,0,0,0,0,0,-1,1070,1786,-4.57132,-10.9923
-147,-762,-1.09119,4.58313,0,0,0,0,0,0,0,-1,1077,1786,-1.09124,-4.58313
-140,-762,4.99792,5.28589,0,0,0,0,0,0,0,-1,1084,1786,4.99793,-5.28587
-133,-762,5.81714,10.131,0,0,0,0,0,0,0,-1,1091,1786,5.81712,-10.131
-126,-762,5.62036,11.3793,0,0,0,0,0,0,0,-1,1098,1786,5.62031,-11.3793
-119,-762,5.24902,11.4937,-0.0347638,-0.000728684,-0.0200742,0.00857052,-0.044063,-1.13699,0.0326098,0.0423043,1105,1786,5.24905,-11.4937
-112,-762,4.97864,11.6566,-0.0351083,-0.00693265,-0.0184717,0.0022103,-0.0442513,-1.11118,0.0302645,0.0432965,1112,1786,4.97863,-11.6567
-105,-762,4.63135,11.9175,-0.0361625,-0.0122084,-0.0168159,-0.0035403,-0.0448307,-1.09485,0.0287797,0.0432743,1119,1786,4.63136,-11.9175
-98,-762,3.81177,12.2356,-0.0376426,-0.0162034,-0.0150344,-0.00845836,-0.0453876,-1.0951,0.0278701,0.0432718,1126,1786,3.81176,-12.2355
-91,-762,2.87317,12.269,0,0,0,0,0,0,0,-1,1133,1786,2.87317,-12.269
-84,-762,0.741455,9.28662,0,0,0,0,0,0,0,-1,1140,1786,0.741428,-9.28659
-77,-762,0.0256348,7.2218,0,0,0,0,0,0,0,-1,1147,1786,0.0255824,-7.22184
-70,-762,-1.15259,5.96057,0,0,0,0,0,0,0,-1,1154,1786,-1.15258,-5.96057
-63,-762,0.350098,6.29749,0,0,0,0,0,0,0,-1,1161,1786,0.350114,-6.29743
-56,-762,-0.578979,5.10254,0,0,0,0,0,0,0,-1,1168,1786,-0.578951,-5.10249
-49,-762,-2.04541,3.66321,0,0,0,0,0,0,0,-1,1175,1786,-2.0454,-3.66319
-42,-762,-2.23462,3.474,0,0,0,0,0,0,0,-1,1182,1786,-2.23459,-3.47399
-35,-762,-3.28992,1.68164,0,0,0,0,0,0,0,-1,1189,1786,-3.28998,-1.68164
-28,-762,-3.75378,1.37769,0,0,0,0,0,0,0,-1,1196,1786,-3.75373,-1.37767
-21,-762,3.50989,11.3092,0,0,0,0,0,0,0,-1,1203,1786,3.50993,-11.3092
-14,-762,4.28931,12.2142,0,0,0,0,0,0,0,-1,1210,1786,4.28928,-12.2142
-7,-762,4.12781,12.1757,0,0,0,0,0,0,0,-1,1217,1786,4.12786,-12.1757
0,-762,4.16858,12.2148,-0.022629,0.0193318,0.000657031,0.0193421,-0.0226392,1.55514,0.0242628,0.0344614,1224,1786,4.16857,-12.2148
7,-762,4.10291,12.354,-0.0227878,0.0198001,0.000979039,0.0198226,-0.0228103,1.54782,0.0246343,0.019044,1231,1786,4.10294,-12.354
14,-762,4.07385,12.4117,-0.0225893,0.0189245,0.00117685,0.0189578,-0.0226226,1.54248,0.0240376,0.0311919,1238,1786,4.07387,-12.4118
21,-762,3.95557,12.4095,-0.022445,0.0176812,0.00171966,0.0177548,-0.0225185,1.52804,0.023306,0.0377459,1245,1786,3.95552,-12.4096
28,-762,4.02759,12.3942,-0.0220991,0.0159023,0.00233412,0.0160451,-0.0222419,1.50968,0.0222013,0.0372841,1252,1786,4.02759,-12.3941
35,-762,3.97876,12.4294,-0.0210149,0.013485,0.00302706,0.0137485,-0.0212785,1.48394,0.020378,0.039982,1259,1786,3.9787,-12.4294
42,-762,3.9718,12.4725,-0.0194781,0.0108615,0.00386598,0.0113464,-0.019963,1.44603,0.0183032,0.0374482,1266,1786,3.97175,-12.4725
49,-762,3.99548,12.4974,-0.0179409,0.00832922,0.00441186,0.00905036,-0.0186621,1.40877,0.0163174,0.0305633,1273,1786,3.99552,-12.4975
56,-762,4.04321,12.5223,-0.0154571,0.00598232,0.00491994,0.00705744,-0.0165322,1.35566,0.0139809,0.0216568,1280,1786,4.04325,-12.5224
63,-762,4.02185,12.516,-0.0121471,0.00218757,0.0057667,0.00421945,-0.0141789,1.23203,0.011129,0.0207065,1287,1786,4.02179,-12.516
70,-762,3.9668,12.5244,-0.00882856,-0.000657633,0.00617961,0.00266491,-0.0121511,1.07747,0.00911976,0.019936,1294,1786,3.96681,-12.5244
77,-762,3.94519,12.5227,-0.00525623,-0.00385854,0.00620451,0.00168636,-0.0108011,0.841479,0.00782369,0.0253797,1301,1786,3.94514,-12.5227
84,-762,4.00769,12.5276,-0.00168459,-0.00657086,0.00610996,0.00245259,-0.010708,0.595205,0.00808124,0.0311214,1308,1786,4.00766,-12.5275
91,-762,4.0155,12.5126,0.00240128,-0.00930343,0.00597965,0.0049159,-0.0118181,0.398078,0.00993151,0.0406097,1315,1786,4.01556,-12.5125
98,-762,3.87659,12.4958,0.00624365,-0.0116419,0.00531819,0.00770551,-0.0131038,0.268253,0.0121482,0.0403827,1322,1786,3.87663,-12.4959
105,-762,3.86536,12.5664,0.00959258,-0.0136885,0.0044435,0.0104119,-0.0145077,0.182328,0.014452,0.0376914,1329,1786,3.86538,-12.5664
112,-762,3.96997,12.5155,0.0124932,-0.0150086,0.00329243,0.0128818,-0.0153973,0.117505,0.0163485,0.0416304,1336,1786,3.96999,-12.5155
119,-762,4.3103,12.5405,0.0153977,-0.0160784,0.00209008,0.0155359,-0.0162165,0.0660159,0.0183337,0.0412206,1343,1786,4.31027,-12.5405
126,-762,4.40906,12.5846,0.0183841,-0.0169599,0.000428287,0.0183893,-0.0169651,0.0121153,0.0204174,0.0417312,1350,1786,4.40902,-12.5845
133,-762,3.79297,12.4869,0.0207192,-0.01715,-0.00118406,0.0207562,-0.017187,-0.0312263,0.0219388,0.0454485,1357,1786,3.79299,-12.4869
140,-762,3.76819,12.4763,0.022093,-0.0166496,-0.00273717,0.0222854,-0.016842,-0.0701856,0.022663,0.0450664,1364,1786,3.76823,-12.4763
147,-762,4.20142,12.4009,0.0224759,-0.0155177,-0.00436269,0.0229705,-0.0160123,-0.11287,0.0226259,0.0436996,1371,1786,4.20148,-12.4009
154,-762,3.93225,12.4083,0,0,0,0,0,0,0,-1,1378,1786,3.93226,-12.4083
161,-762,7.93408,-0.126221,0,0,0,0,0,0,0,-1,1385,1786,7.93402,0.126232
168,-762,8.19287,0.880615,0,0,0,0,0,0,0,-1,1392,1786,8.19291,-0.880603
175,-762,8.33997,1.95947,0,0,0,0,0,0,0,-1,1399,1786,8.33997,-1.95942
182,-762,8.28418,3.56482,0,0,0,0,0,0,0,-1,1406,1786,8.28415,-3.56485
189,-762,8.21179,5.23389,0,0,0,0,0,0,0,-1,1413,1786,8.21183,-5.23383
196,-762,8.05969,6.95483,0,0,0,0,0,0,0,-1,1420,1786,8.05972,-6.9548
203,-762,6.1261,3.35522,0,0,0,0,0,0,0,-1,1427,1786,6.12607,-3.35529
210,-762,3.74841,6.60901,0,0,0,0,0,0,0,-1,1434,1786,3.74835,-6.609
217,-762,1.37061,9.86267,0,0,0,0,0,0,0,-1,1441,1786,1.37064,-9.86271
224,-762,3.13306,13.1436,0,0,0,0,0,0,0,-1,1448,1786,3.1331,-13.1435
231,-762,5.34241,11.6335,0,0,0,0,0,0,0,-1,1455,1786,5.34245,-11.6335
238,-762,3.66101,9.58545,0,0,0,0,0,0,0,-1,1462,1786,3.66096,-9.58539
245,-762,3.92529,7.81445,0,0,0,0,0,0,0,-1,1469,1786,3.92531,-7.8145
252,-762,2.13416,6.62622,0,0,0,0,0,0,0,-1,1476,1786,2.13414,-6.62621
259,-762,4.67188,9.57422,0,0,0,0,0,0,0,-1,1483,1786,4.67187,-9.5742
266,-762,5.0321,10.1895,0,0,0,0,0,0,0,-1,1490,1786,5.03209,-10.1894
273,-762,6.76428,10.0492,0,0,0,0,0,0,0,-1,1497,1786,6.76431,-10.0492
280,-762,7.84058,9.63708,0,0,0,0,0,0,0,-1,1504,1786,7.84062,-9.63712
287,-762,-4.43665,9.48083,0,0,0,0,0,0,0,-1,1511,1786,-4.43665,-9.4808
294,-762,-3.05457,10.6536,0,0,0,0,0,0,0,-1,1518,1786,-3.05452,-10.6536
301,-762,-1.88843,12.1478,0,0,0,0,0,0,0,-1,1525,1786,-1.88843,-12.1478
308,-762,0,0,0,0,0,0,0,0,0,-1,1532,1786,0,0
315,-762,0,0,0,0,0,0,0,0,0,-1,1539,1786,0,0
322,-762,0,0,0,0,0,0,0,0,0,-1,1546,1786,0,0
329,-762,0,0,0,0,0,0,0,0,0,-1,1553,1786,0,0
336,-762,0,0,0,0,0,0,0,0,0,-1,1560,1786,0,0
343,-762,0,0,0,0,0,0,0,0,0,-1,1567,1786,0,0
350,-762,0,0,0,0,0,0,0,0,0,-1,1574,1786,0,0
357,-762,0,0,0,0,0,0,0,0,0,-1,1581,1786,0,0
364,-762,0,0,0,0,0,0,0,0,0,-1,1588,1786,0,0
371,-762,0,0,0,0,0,0,0,0,0,-1,1595,1786,0,0
378,-762,0,0,0,0,0,0,0,0,0,-1,1602,1786,0,0
385,-762,0,0,0,0,0,0,0,0,0,-1,1609,1786,0,0
392,-762,0,0,0,0,0,0,0,0,0,-1,1616,1786,0,0
399,-762,0,0,0,0,0,0,0,0,0,-1,1623,1786,0,0
406,-762,0,0,0,0,0,0,0,0,0,-1,1630,1786,0,0
413,-762,0,0,0,0,0,0,0,0,0,-1,1637,1786,0,0
420,-762,0,0,0,0,0,0,0,0,0,-1,1644,1786,0,0
427,-762,0,0,0,0,0,0,0,0,0,-1,1651,1786,0,0
434,-762,0,0,0,0,0,0,0,0,0,-1,1658,1786,0,0
441,-762,0,0,0,0,0,0,0,0,0,-1,1665,1786,0,0
448,-762,0,0,0,0,0,0,0,0,0,-1,1672,1786,0,0
455,-762,0,0,0,0,0,0,0,0,0,-1,1679,1786,0,0
462,-762,0,0,0,0,0,0,0,0,0,-1,1686,1786,0,0
469,-762,0,0,0,0,0,0,0,0,0,-1,1693,1786,0,0
476,-762,0,0,0,0,0,0,0,0,0,-1,1700,1786,0,0
483,-762,0,0,0,0,0,0,0,0,0,-1,1707,1786,0,0
490,-762,0,0,0,0,0,0,0,0,0,-1,1714,1786,0,0
497,-762,0,0,0,0,0,0,0,0,0,-1,1721,1786,0,0
504,-762,0,0,0,0,0,0,0,0,0,-1,1728,1786,0,0
511,-762,0,0,0,0,0,0,0,0,0,-1,1735,1786,0,0
518,-762,0,0,0,0,0,0,0,0,0,-1,1742,1786,0,0
525,-762,0,0,0,0,0,0,0,0,0,-1,1749,1786,0,0
532,-762,0,0,0,0,0,0,0,0,0,-1,1756,1786,0,0
539,-762,0,0,0,0,0,0,0,0,0,-1,1763,1786,0,0
546,-762,0,0,0,0,0,0,0,0,0,-1,1770,1786,0,0
553,-762,0,0,0,0,0,0,0,0,0,-1,1777,1786,0,0
560,-762,0,0,0,0,0,0,0,0,0,-1,1784,1786,0,0
567,-762,0,0,0,0,0,0,0,0,0,-1,1791,1786,0,0
574,-762,0,0,0,0,0,0,0,0,0,-1,1798,1786,0,0
581,-762,0,0,0,0,0,0,0,0,0,-1,1805,1786,0,0
588,-762,0,0,0,0,0,0,0,0,0,-1,1812,1786,0,0
595,-762,0,0,0,0,0,0,0,0,0,-1,1819,1786,0,0
602,-762,0,0,0,0,0,0,0,0,0,-1,1826,1786,0,0
609,-762,0,0,0,0,0,0,0,0,0,-1,1833,1786,0,0
616,-762,0,0,0,0,0,0,0,0,0,-1,1840,1786,0,0
623,-762,0,0,0,0,0,0,0,0,0,-1,1847,1786,0,0
630,-762,0,0,0,0,0,0,0,0,0,-1,1854,1786,0,0
637,-762,0,0,0,0,0,0,0,0,0,-1,1861,1786,0,0
644,-762,0,0,0,0,0,0,0,0,0,-1,1868,1786,0,0
651,-762,0,0,0,0,0,0,0,0,0,-1,1875,1786,0,0
658,-762,0,0,0,0,0,0,0,0,0,-1,1882,1786,0,0
665,-762,0,0,0,0,0,0,0,0,0,-1,1889,1786,0,0
672,-762,0,0,0,0,0,0,0,0,0,-1,1896,1786,0,0
679,-762,0,0,0,0,0,0,0,0,0,-1,1903,1786,0,0
686,-762,0,0,0,0,0,0,0,0,0,-1,1910,1786,0,0
693,-762,0,0,0,0,0,0,0,0,0,-1,1917,1786,0,0
700,-762,0,0,0,0,0,0,0,0,0,-1,1924,1786,0,0
707,-762,0,0,0,0,0,0,0,0,0,-1,1931,1786,0,0
714,-762,0,0,0,0,0,0,0,0,0,-1,1938,1786,0,0
721,-762,0,0,0,0,0,0,0,0,0,-1,1945,1786,0,0
728,-762,0,0,0,0,0,0,0,0,0,-1,1952,1786,0,0
735,-762,0,0,0,0,0,0,0,0,0,-1,1959,1786,0,0
742,-762,0,0,0,0,0,0,0,0,0,-1,1966,1786,0,0
749,-762,0,0,0,0,0,0,0,0,0,-1,1973,1786,0,0
756,-762,0,0,0,0,0,0,0,0,0,-1,1980,1786,0,0
763,-762,0,0,0,0,0,0,0,0,0,-1,1987,1786,0,0
770,-762,0,0,0,0,0,0,0,0,0,-1,1994,1786,0,0
777,-762,0,0,0,0,0,0,0,0,0,-1,2001,1786,0,0
784,-762,0,0,0,0,0,0,0,0,0,-1,2008,1786,0,0
791,-762,0,0,0,0,0,0,0,0,0,-1,2015,1786,0,0
798,-762,0,0,0,0,0,0,0,0,0,-1,2022,1786,0,0
805,-762,0,0,0,0,0,0,0,0,0,-1,2029,1786,0,0
812,-762,0,0,0,0,0,0,0,0,0,-1,2036,1786,0,0
-700,-769,0,0,0,0,0,0,0,0,0,-1,524,1793,0,0
-693,-769,0,0,0,0,0,0,0,0,0,-1,531,1793,0,0
-686,-769,0,0,0,0,0,0,0,0,0,-1,538,1793,0,0
-679,-769,0,0,0,0,0,0,0,0,0,-1,545,1793,0,0
-672,-769,0,0,0,0,0,0,0,0,0,-1,552,1793,0,0
-665,-769,0,0,0,0,0,0,0,0,0,-1,559,1793,0,0
-658,-769,0,0,0,0,0,0,0,0,0,-1,566,1793,0,0
-651,-769,0,0,0,0,0,0,0,0,0,-1,573,1793,0,0
-644,-769,0,0,0,0,0,0,0,0,0,-1,580,1793,0,0
-637,-769,0,0,0,0,0,0,0,0,0,-1,587,1793,0,0
-630,-769,0,0,0,0,0,0,0,0,0,-1,594,1793,0,0
-623,-769,0,0,0,0,0,0,0,0,0,-1,601,1793,0,0
-616,-769,0,0,0,0,0,0,0,0,0,-1,608,1793,0,0
-609,-769,0,0,0,0,0,0,0,0,0,-1,615,1793,0,0
-602,-769,0,0,0,0,0,0,0,0,0,-1,622,1793,0,0
-595,-769,0,0,0,0,0,0,0,0,0,-1,629,1793,0,0
-588,-769,0,0,0,0,0,0,0,0,0,-1,636,1793,0,0
-581,-769,0,0,0,0,0,0,0,0,0,-1,643,1793,0,0
-574,-769,0,0,0,0,0,0,0,0,0,-1,650,1793,0,0
-567,-769,0,0,0,0,0,0,0,0,0,-1,657,1793,0,0
-560,-769,0,0,0,0,0,0,0,0,0,-1,664,1793,0,0
-553,-769,0,0,0,0,0,0,0,0,0,-1,671,1793,0,0
-546,-769,0,0,0,0,0,0,0,0,0,-1,678,1793,0,0
-539,-769,0,0,0,0,0,0,0,0,0,-1,685,1793,0,0
-532,-769,0,0,0,0,0,0,0,0,0,-1,692,1793,0,0
-525,-769,0,0,0,0,0,0,0,0,0,-1,699,1793,0,0
-518,-769,0,0,0,0,0,0,0,0,0,-1,706,1793,0,0
-511,-769,0,0,0,0,0,0,0,0,0,-1,713,1793,0,0
-504,-769,0,0,0,0,0,0,0,0,0,-1,720,1793,0,0
-497,-769,0,0,0,0,0,0,0,0,0,-1,727,1793,0,0
-490,-769,0,0,0,0,0,0,0,0,0,-1,734,1793,0,0
-483,-769,0,0,0,0,0,0,0,0,0,-1,741,1793,0,0
-476,-769,0,0,0,0,0,0,0,0,0,-1,748,1793,0,0
-469,-769,0,0,0,0,0,0,0,0,0,-1,755,1793,0,0
-462,-769,0,0,0,0,0,0,0,0,0,-1,762,1793,0,0
-455,-769,0,0,0,0,0,0,0,0,0,-1,769,1793,0,0
-448,-769,0,0,0,0,0,0,0,0,0,-1,776,1793,0,0
-441,-769,0,0,0,0,0,0,0,0,0,-1,783,1793,0,0
-434,-769,0,0,0,0,0,0,0,0,0,-1,790,1793,0,0
-427,-769,0,0,0,0,0,0,0,0,0,-1,797,1793,0,0
-420,-769,0,0,0,0,0,0,0,0,0,-1,804,1793,0,0
-413,-769,0,0,0,0,0,0,0,0,0,-1,811,1793,0,0
-406,-769,0,0,0,0,0,0,0,0,0,-1,818,1793,0,0
-399,-769,0,0,0,0,0,0,0,0,0,-1,825,1793,0,0
-392,-769,0,0,0,0,0,0,0,0,0,-1,832,1793,0,0
-385,-769,0,0,0,0,0,0,0,0,0,-1,839,1793,0,0
-378,-769,0,0,0,0,0,0,0,0,0,-1,846,1793,0,0
-371,-769,0,0,0,0,0,0,0,0,0,-1,853,1793,0,0
-364,-769,0,0,0,0,0,0,0,0,0,-1,860,1793,0,0
-357,-769,0,0,0,0,0,0,0,0,0,-1,867,1793,0,0
-350,-769,0,0,0,0,0,0,0,0,0,-1,874,1793,0,0
-343,-769,0,0,0,0,0,0,0,0,0,-1,881,1793,0,0
-336,-769,0,0,0,0,0,0,0,0,0,-1,888,1793,0,0
-329,-769,0,0,0,0,0,0,0,0,0,-1,895,1793,0,0
-322,-769,0,0,0,0,0,0,0,0,0,-1,902,1793,0,0
-315,-769,0,0,0,0,0,0,0,0,0,-1,909,1793,0,0
-308,-769,0,0,0,0,0,0,0,0,0,-1,916,1793,0,0
-301,-769,0,0,0,0,0,0,0,0,0,-1,923,1793,0,0
-294,-769,0,0,0,0,0,0,0,0,0,-1,930,1793,0,0
-287,-769,0,0,0,0,0,0,0,0,0,-1,937,1793,0,0
-280,-769,0,0,0,0,0,0,0,0,0,-1,944,1793,0,0
-273,-769,0,0,0,0,0,0,0,0,0,-1,951,1793,0,0
-266,-769,0,0,0,0,0,0,0,0,0,-1,958,1793,0,0
-259,-769,0,0,0,0,0,0,0,0,0,-1,965,1793,0,0
-252,-769,0,0,0,0,0,0,0,0,0,-1,972,1793,0,0
-245,-769,0,0,0,0,0,0,0,0,0,-1,979,1793,0,0
-238,-769,0,0,0,0,0,0,0,0,0,-1,986,1793,0,0
-231,-769,0,0,0,0,0,0,0,0,0,-1,993,1793,0,0
-224,-769,0,0,0,0,0,0,0,0,0,-1,1000,1793,0,0
-217,-769,0,0,0,0,0,0,0,0,0,-1,1007,1793,0,0
-210,-769,0,0,0,0,0,0,0,0,0,-1,1014,1793,0,0
-203,-769,0,0,0,0,0,0,0,0,0,-1,1021,1793,0,0
-196,-769,0,0,0,0,0,0,0,0,0,-1,1028,1793,0,0
-189,-769,0,0,0,0,0,0,0,0,0,-1,1035,1793,0,0
-182,-769,0,0,0,0,0,0,0,0,0,-1,1042,1793,0,0
-175,-769,0,0,0,0,0,0,0,0,0,-1,1049,1793,0,0
-168,-769,0,0,0,0,0,0,0,0,0,-1,1056,1793,0,0
-161,-769,-3.39258,12.5125,0,0,0,0,0,0,0,-1,1063,1793,-3.39257,-12.5125
-154,-769,-0.813232,5.32874,0,0,0,0,0,0,0,-1,1070,1793,-0.813269,-5.32872
-147,-769,4.26587,4.7002,0,0,0,0,0,0,0,-1,1077,1793,4.26593,-4.70022
-140,-769,4.10376,5.28589,0,0,0,0,0,0,0,-1,1084,1793,4.10371,-5.28584
-133,-769,6.422,8.21777,0,0,0,0,0,0,0,-1,1091,1793,6.42198,-8.21773
-126,-769,5.75916,8.83643,0,0,0,0,0,0,0,-1,1098,1793,5.75917,-8.83644
-119,-769,4.98486,12.0236,0,0,0,0,0,0,0,-1,1105,1793,4.98489,-12.0235
-112,-769,5.07617,11.9126,0,0,0,0,0,0,0,-1,1112,1793,5.07622,-11.9126
-105,-769,4.74524,12.1331,0,0,0,0,0,0,0,-1,1119,1793,4.74529,-12.133
-98,-769,3.85596,12.6543,0,0,0,0,0,0,0,-1,1126,1793,3.85593,-12.6544
-91,-769,0.839844,11.8121,0,0,0,0,0,0,0,-1,1133,1793,0.839853,-11.8122
-84,-769,0.499512,11.1804,0,0,0,0,0,0,0,-1,1140,1793,0.49948,-11.1805
-77,-769,0.665771,9.61877,0,0,0,0,0,0,0,-1,1147,1793,0.665754,-9.61882
-70,-769,0.99707,7.63843,0,0,0,0,0,0,0,-1,1154,1793,0.997071,-7.63837
-63,-769,-0.0517578,6.57178,0,0,0,0,0,0,0,-1,1161,1793,-0.0517467,-6.5718
-56,-769,-1.22949,5.21887,0,0,0,0,0,0,0,-1,1168,1793,-1.22948,-5.21891
-49,-769,-2.41443,3.95471,0,0,0,0,0,0,0,-1,1175,1793,-2.41446,-3.95471
-42,-769,-3.1991,2.64941,0,0,0,0,0,0,0,-1,1182,1793,-3.19914,-2.64944
-35,-769,-3.50183,1.73389,0,0,0,0,0,0,0,-1,1189,1793,-3.50189,-1.7339
-28,-769,-3.96985,1.14075,0,0,0,0,0,0,0,-1,1196,1793,-3.96985,-1.14078
-21,-769,3.54541,10.4323,0,0,0,0,0,0,0,-1,1203,1793,3.54539,-10.4322
-14,-769,2.79883,12.0947,0,0,0,0,0,0,0,-1,1210,1793,2.79887,-12.0947
-7,-769,2.86194,13.3492,0,0,0,0,0,0,0,-1,1217,1793,2.86199,-13.3492
0,-769,4.30383,12.1373,0,0,0,0,0,0,0,-1,1224,1793,4.30383,-12.1374
7,-769,4.38049,12.5498,0,0,0,0,0,0,0,-1,1231,1793,4.38046,-12.5499
14,-769,4.08765,12.4558,0,0,0,0,0,0,0,-1,1238,1793,4.08762,-12.4558
21,-769,3.38904,12.645,-0.0325145,0.0267312,0.00144661,0.0267665,-0.0325498,1.5464,0.0343005,0.0428847,1245,1793,3.38902,-12.645
28,-769,3.56226,13.2676,-0.0315202,0.0235289,0.00237044,0.0236308,-0.0316221,1.52784,0.0320113,0.0420014,1252,1793,3.56229,-13.2676
35,-769,4.84045,13.3557,0,0,0,0,0,0,0,-1,1259,1793,4.84043,-13.3557
42,-769,3.97485,12.5167,-0.0275376,0.0151952,0.00476053,0.0157191,-0.0280615,1.46118,0.0256094,0.046243,1266,1793,3.97488,-12.5167
49,-769,4.03516,12.701,-0.0252953,0.0110178,0.00576691,0.0119117,-0.0261892,1.41702,0.0225065,0.0440001,1273,1793,4.03516,-12.701
56,-769,4.14978,12.6458,-0.0218399,0.00723341,0.00672422,0.00871329,-0.0233198,1.35417,0.0191244,0.0451901,1280,1793,4.14982,-12.6457
63,-769,4.28699,12.5806,-0.0174129,0.00158601,0.00808503,0.00456082,-0.0203878,1.21823,0.0153398,0.0462581,1287,1793,4.28696,-12.5805
70,-769,3.93835,12.509,-0.0130006,-0.00274854,0.00891425,0.00240843,-0.0181576,1.04633,0.0129825,0.0462544,1294,1793,3.93836,-12.509
77,-769,3.90198,12.5438,-0.0081812,-0.00742877,0.00933849,0.00154108,-0.0171511,0.80553,0.0119808,0.0468367,1301,1793,3.902,-12.5439
84,-769,3.91956,12.6039,-0.00326127,-0.0114788,0.00948718,0.00296866,-0.0177087,0.581048,0.0129096,0.0448219,1308,1793,3.91955,-12.6038
91,-769,4.49561,12.11,0.00227011,-0.0153065,0.00950421,0.00642646,-0.0194629,0.412257,0.0155661,0.0433255,1315,1793,4.49556,-12.11
98,-769,4.0636,12.454,0.00752764,-0.0185878,0.00885103,0.0102447,-0.0213049,0.297848,0.0185846,0.0444253,1322,1793,4.06366,-12.454
105,-769,3.76477,12.5591,0.0122748,-0.0214736,0.00791029,0.0140369,-0.0232357,0.219181,0.0217367,0.0435049,1329,1793,3.76474,-12.5591
112,-769,3.87878,12.2412,0.016601,-0.0235232,0.00659978,0.0176586,-0.0245809,0.158908,0.0244959,0.0443347,1336,1793,3.8788,-12.2412
119,-769,4.74951,12.5946,0.0209237,-0.0252694,0.0052188,0.021506,-0.0258517,0.111112,0.0273803,0.0455655,1343,1793,4.74951,-12.5946
126,-769,5.01648,12.8247,0.0252483,-0.0266296,0.00342501,0.0254734,-0.0268547,0.0656408,0.0302152,0.0475444,1350,1793,5.01645,-12.8247
133,-769,3.7627,12.4944,0,0,0,0,0,0,0,-1,1357,1793,3.76271,-12.4944
140,-769,3.73376,12.4999,0,0,0,0,0,0,0,-1,1364,1793,3.73377,-12.4999
147,-769,4.49402,12.3909,0,0,0,0,0,0,0,-1,1371,1793,4.494,-12.3908
154,-769,6.37561,1.00024,0,0,0,0,0,0,0,-1,1378,1793,6.37566,-1.00028
161,-769,6.57019,1.53223,0,0,0,0,0,0,0,-1,1385,1793,6.57019,-1.53226
168,-769,8.27637,0.756958,0,0,0,0,0,0,0,-1,1392,1793,8.27639,-0.756944
175,-769,8.47144,2.41174,0,0,0,0,0,0,0,-1,1399,1793,8.47147,-2.4118
182,-769,8.41479,4.05994,0,0,0,0,0,0,0,-1,1406,1793,8.41479,-4.05997
189,-769,8.25049,5.68433,0,0,0,0,0,0,0,-1,1413,1793,8.25054,-5.68428
196,-769,7.97729,7.42847,0,0,0,0,0,0,0,-1,1420,1793,7.9773,-7.42848
203,-769,6.67419,5.07715,0,0,0,0,0,0,0,-1,1427,1793,6.67423,-5.07717
210,-769,4.46021,8.59021,0,0,0,0,0,0,0,-1,1434,1793,4.46023,-8.59018
217,-769,2.24622,12.1031,0,0,0,0,0,0,0,-1,1441,1793,2.24623,-12.1032
224,-769,3.1051,13.2957,0,0,0,0,0,0,0,-1,1448,1793,3.10508,-13.2957
231,-769,3.0531,11.6511,0,0,0,0,0,0,0,-1,1455,1793,3.05315,-11.6511
238,-769,3.32385,9.91431,0,0,0,0,0,0,0,-1,1462,1793,3.32387,-9.91425
245,-769,3.97449,5.78943,0,0,0,0,0,0,0,-1,1469,1793,3.97448,-5.78944
252,-769,1.08972,6.7511,0,0,0,0,0,0,0,-1,1476,1793,1.08974,-6.75115
259,-769,1.76099,7.37598,0,0,0,0,0,0,0,-1,1483,1793,1.76101,-7.37595
266,-769,2.3844,8.43884,0,0,0,0,0,0,0,-1,1490,1793,2.38435,-8.4388
273,-769,3.10999,9.1925,0,0,0,0,0,0,0,-1,1497,1793,3.10995,-9.19251
280,-769,11.1288,8.04041,0,0,0,0,0,0,0,-1,1504,1793,11.1288,-8.04046
287,-769,0,0,0,0,0,0,0,0,0,-1,1511,1793,0,0
294,-769,0,0,0,0,0,0,0,0,0,-1,1518,1793,0,0
301,-769,0,0,0,0,0,0,0,0,0,-1,1525,1793,0,0
308,-769,0,0,0,0,0,0,0,0,0,-1,1532,1793,0,0
315,-769,0,0,0,0,0,0,0,0,0,-1,1539,1793,0,0
322,-769,0,0,0,0,0,0,0,0,0,-1,1546,1793,0,0
329,-769,0,0,0,0,0,0,0,0,0,-1,1553,1793,0,0
336,-769,0,0,0,0,0,0,0,0,0,-1,1560,1793,0,0
343,-769,0,0,0,0,0,0,0,0,0,-1,1567,1793,0,0
350,-769,0,0,0,0,0,0,0,0,0,-1,1574,1793,0,0
357,-769,0,0,0,0,0,0,0,0,0,-1,1581,1793,0,0
364,-769,0,0,0,0,0,0,0,0,0,-1,1588,1793,0,0
371,-769,0,0,0,0,0,0,0,0,0,-1,1595,1793,0,0
378,-769,0,0,0,0,0,0,0,0,0,-1,1602,1793,0,0
385,-769,0,0,0,0,0,0,0,0,0,-1,1609,1793,0,0
392,-769,0,0,0,0,0,0,0,0,0,-1,1616,1793,0,0
399,-769,0,0,0,0,0,0,0,0,0,-1,1623,1793,0,0
406,-769,0,0,0,0,0,0,0,0,0,-1,1630,1793,0,0
413,-769,0,0,0,0,0,0,0,0,0,-1,1637,1793,0,0
420,-769,0,0,0,0,0,0,0,0,0,-1,1644,1793,0,0
427,-769,0,0,0,0,0,0,0,0,0,-1,1651,1793,0,0
434,-769,0,0,0,0,0,0,0,0,0,-1,1658,1793,0,0
441,-769,0,0,0,0,0,0,0,0,0,-1,1665,1793,0,0
448,-769,0,0,0,0,0,0,0,0,0,-1,1672,1793,0,0
455,-769,0,0,0,0,0,0,0,0,0,-1,1679,1793,0,0
462,-769,0,0,0,0,0,0,0,0,0,-1,1686,1793,0,0
469,-769,0,0,0,0,0,0,0,0,0,-1,1693,1793,0,0
476,-769,0,0,0,0,0,0,0,0,0,-1,1700,1793,0,0
483,-769,0,0,0,0,0,0,0,0,0,-1,1707,1793,0,0
490,-769,0,0,0,0,0,0,0,0,0,-1,1714,1793,0,0
497,-769,0,0,0,0,0,0,0,0,0,-1,1721,1793,0,0
504,-769,0,0,0,0,0,0,0,0,0,-1,1728,1793,0,0
511,-769,0,0,0,0,0,0,0,0,0,-1,1735,1793,0,0
518,-769,0,0,0,0,0,0,0,0,0,-1,1742,1793,0,0
525,-769,0,0,0,0,0,0,0,0,0,-1,1749,1793,0,0
532,-769,0,0,0,0,0,0,0,0,0,-1,1756,1793,0,0
539,-769,0,0,0,0,0,0,0,0,0,-1,1763,1793,0,0
546,-769,0,0,0,0,0,0,0,0,0,-1,1770,1793,0,0
553,-769,0,0,0,0,0,0,0,0,0,-1,1777,1793,0,0
560,-769,0,0,0,0,0,0,0,0,0,-1,1784,1793,0,0
567,-769,0,0,0,0,0,0,0,0,0,-1,1791,1793,0,0
574,-769,0,0,0,0,0,0,0,0,0,-1,1798,1793,0,0
581,-769,0,0,0,0,0,0,0,0,0,-1,1805,1793,0,0
588,-769,0,0,0,0,0,0,0,0,0,-1,1812,1793,0,0
595,-769,0,0,0,0,0,0,0,0,0,-1,1819,1793,0,0
602,-769,0,0,0,0,0,0,0,0,0,-1,1826,1793,0,0
609,-769,0,0,0,0,0,0,0,0,0,-1,1833,1793,0,0
616,-769,0,0,0,0,0,0,0,0,0,-1,1840,1793,0,0
623,-769,0,0,0,0,0,0,0,0,0,-1,1847,1793,0,0
630,-769,0,0,0,0,0,0,0,0,0,-1,1854,1793,0,0
637,-769,0,0,0,0,0,0,0,0,0,-1,1861,1793,0,0
644,-769,0,0,0,0,0,0,0,0,0,-1,1868,1793,0,0
651,-769,0,0,0,0,0,0,0,0,0,-1,1875,1793,0,0
658,-769,0,0,0,0,0,0,0,0,0,-1,1882,1793,0,0
665,-769,0,0,0,0,0,0,0,0,0,-1,1889,1793,0,0
672,-769,0,0,0,0,0,0,0,0,0,-1,1896,1793,0,0
679,-769,0,0,0,0,0,0,0,0,0,-1,1903,1793,0,0
686,-769,0,0,0,0,0,0,0,0,0,-1,1910,1793,0,0
693,-769,0,0,0,0,0,0,0,0,0,-1,1917,1793,0,0
700,-769,0,0,0,0,0,0,0,0,0,-1,1924,1793,0,0
707,-769,0,0,0,0,0,0,0,0,0,-1,1931,1793,0,0
714,-769,0,0,0,0,0,0,0,0,0,-1,1938,1793,0,0
721,-769,0,0,0,0,0,0,0,0,0,-1,1945,1793,0,0
728,-769,0,0,0,0,0,0,0,0,0,-1,1952,1793,0,0
735,-769,0,0,0,0,0,0,0,0,0,-1,1959,1793,0,0
742,-769,0,0,0,0,0,0,0,0,0,-1,1966,1793,0,0
749,-769,0,0,0,0,0,0,0,0,0,-1,1973,1793,0,0
756,-769,0,0,0,0,0,0,0,0,0,-1,1980,1793,0,0
763,-769,0,0,0,0,0,0,0,0,0,-1,1987,1793,0,0
770,-769,0,0,0,0,0,0,0,0,0,-1,1994,1793,0,0
777,-769,0,0,0,0,0,0,0,0,0,-1,2001,1793,0,0
784,-769,0,0,0,0,0,0,0,0,0,-1,2008,1793,0,0
791,-769,0,0,0,0,0,0,0,0,0,-1,2015,1793,0,0
798,-769,0,0,0,0,0,0,0,0,0,-1,2022,1793,0,0
805,-769,0,0,0,0,0,0,0,0,0,-1,2029,1793,0,0
812,-769,0,0,0,0,0,0,0,0,0,-1,2036,1793,0,0
-700,-776,0,0,0,0,0,0,0,0,0,-1,524,1800,0,0
-693,-776,0,0,0,0,0,0,0,0,0,-1,531,1800,0,0
-686,-776,0,0,0,0,0,0,0,0,0,-1,538,1800,0,0
-679,-776,0,0,0,0,0,0,0,0,0,-1,545,1800,0,0
-672,-776,0,0,0,0,0,0,0,0,0,-1,552,1800,0,0
-665,-776,0,0,0,0,0,0,0,0,0,-1,559,1800,0,0
-658,-776,0,0,0,0,0,0,0,0,0,-1,566,1800,0,0
-651,-776,0,0,0,0,0,0,0,0,0,-1,573,1800,0,0
-644,-776,0,0,0,0,0,0,0,0,0,-1,580,1800,0,0
-637,-776,0,0,0,0,0,0,0,0,0,-1,587,1800,0,0
-630,-776,0,0,0,0,0,0,0,0,0,-1,594,1800,0,0
-623,-776,0,0,0,0,0,0,0,0,0,-1,601,1800,0,0
-616,-776,0,0,0,0,0,0,0,0,0,-1,608,1800,0,0
-609,-776,0,0,0,0,0,0,0,0,0,-1,615,1800,0,0
-602,-776,0,0,0,0,0,0,0,0,0,-1,622,1800,0,0
-595,-776,0,0,0,0,0,0,0,0,0,-1,629,1800,0,0
-588,-776,0,0,0,0,0,0,0,0,0,-1,636,1800,0,0
-581,-776,0,0,0,0,0,0,0,0,0,-1,643,1800,0,0
-574,-776,0,0,0,0,0,0,0,0,0,-1,650,1800,0,0
-567,-776,0,0,0,0,0,0,0,0,0,-1,657,1800,0,0
-560,-776,0,0,0,0,0,0,0,0,0,-1,664,1800,0,0
-553,-776,0,0,0,0,0,0,0,0,0,-1,671,1800,0,0
-546,-776,0,0,0,0,0,0,0,0,0,-1,678,1800,0,0
-539,-776,0,0,0,0,0,0,0,0,0,-1,685,1800,0,0
-532,-776,0,0,0,0,0,0,0,0,0,-1,692,1800,0,0
-525,-776,0,0,0,0,0,0,0,0,0,-1,699,1800,0,0
-518,-776,0,0,0,0,0,0,0,0,0,-1,706,1800,0,0
-511,-776,0,0,0,0,0,0,0,0,0,-1,713,1800,0,0
-504,-776,0,0,0,0,0,0,0,0,0,-1,720,1800,0,0
-497,-776,0,0,0,0,0,0,0,0,0,-1,727,1800,0,0
-490,-776,0,0,0,0,0,0,0,0,0,-1,734,1800,0,0
-483,-776,0,0,0,0,0,0,0,0,0,-1,741,1800,0,0
-476,-776,0,0,0,0,0,0,0,0,0,-1,748,1800,0,0
-469,-776,0,0,0,0,0,0,0,0,0,-1,755,1800,0,0
-462,-776,0,0,0,0,0,0,0,0,0,-1,762,1800,0,0
-455,-776,0,0,0,0,0,0,0,0,0,-1,769,1800,0,0
-448,-776,0,0,0,0,0,0,0,0,0,-1,776,1800,0,0
-441,-776,0,0,0,0,0,0,0,0,0,-1,783,1800,0,0
-434,-776,0,0,0,0,0,0,0,0,0,-1,790,1800,0,0
-427,-776,0,0,0,0,0,0,0,0,0,-1,797,1800,0,0
-420,-776,0,0,0,0,0,0,0,0,0,-1,804,1800,0,0
-413,-776,0,0,0,0,0,0,0,0,0,-1,811,1800,0,0
-406,-776,0,0,0,0,0,0,0,0,0,-1,818,1800,0,0
-399,-776,0,0,0,0,0,0,0,0,0,-1,825,1800,0,0
-392,-776,0,0,0,0,0,0,0,0,0,-1,832,1800,0,0
-385,-776,0,0,0,0,0,0,0,0,0,-1,839,1800,0,0
-378,-776,0,0,0,0,0,0,0,0,0,-1,846,1800,0,0
-371,-776,0,0,0,0,0,0,0,0,0,-1,853,1800,0,0
-364,-776,0,0,0,0,0,0,0,0,0,-1,860,1800,0,0
-357,-776,0,0,0,0,0,0,0,0,0,-1,867,1800,0,0
-350,-776,0,0,0,0,0,0,0,0,0,-1,874,1800,0,0
-343,-776,0,0,0,0,0,0,0,0,0,-1,881,1800,0,0
-336,-776,0,0,0,0,0,0,0,0,0,-1,888,1800,0,0
-329,-776,0,0,0,0,0,0,0,0,0,-1,895,1800,0,0
-322,-776,0,0,0,0,0,0,0,0,0,-1,902,1800,0,0
-315,-776,0,0,0,0,0,0,0,0,0,-1,909,1800,0,0
-308,-776,0,0,0,0,0,0,0,0,0,-1,916,1800,0,0
-301,-776,0,0,0,0,0,0,0,0,0,-1,923,1800,0,0
-294,-776,0,0,0,0,0,0,0,0,0,-1,930,1800,0,0
-287,-776,0,0,0,0,0,0,0,0,0,-1,937,1800,0,0
-280,-776,0,0,0,0,0,0,0,0,0,-1,944,1800,0,0
-273,-776,0,0,0,0,0,0,0,0,0,-1,951,1800,0,0
-266,-776,0,0,0,0,0,0,0,0,0,-1,958,1800,0,0
-259,-776,0,0,0,0,0,0,0,0,0,-1,965,1800,0,0
-252,-776,0,0,0,0,0,0,0,0,0,-1,972,1800,0,0
-245,-776,0,0,0,0,0,0,0,0,0,-1,979,1800,0,0
-238,-776,0,0,0,0,0,0,0,0,0,-1,986,1800,0,0
-231,-776,0,0,0,0,0,0,0,0,0,-1,993,1800,0,0
-224,-776,0,0,0,0,0,0,0,0,0,-1,1000,1800,0,0
-217,-776,0,0,0,0,0,0,0,0,0,-1,1007,1800,0,0
-210,-776,0,0,0,0,0,0,0,0,0,-1,1014,1800,0,0
-203,-776,0,0,0,0,0,0,0,0,0,-1,1021,1800,0,0
-196,-776,0,0,0,0,0,0,0,0,0,-1,1028,1800,0,0
-189,-776,0,0,0,0,0,0,0,0,0,-1,1035,1800,0,0
-182,-776,0,0,0,0,0,0,0,0,0,-1,1042,1800,0,0
-175,-776,0,0,0,0,0,0,0,0,0,-1,1049,1800,0,0
-168,-776,0,0,0,0,0,0,0,0,0,-1,1056,1800,0,0
-161,-776,0,0,0,0,0,0,0,0,0,-1,1063,1800,0,0
-154,-776,0,0,0,0,0,0,0,0,0,-1,1070,1800,0,0
-147,-776,0,0,0,0,0,0,0,0,0,-1,1077,1800,0,0
-140,-776,2.98499,5.20911,0,0,0,0,0,0,0,-1,1084,1800,2.98493,-5.2091
-133,-776,6.72363,9.35828,0,0,0,0,0,0,0,-1,1091,1800,6.72358,-9.35824
-126,-776,7.24695,13.6088,0,0,0,0,0,0,0,-1,1098,1800,7.247,-13.6087
-119,-776,6.21912,13.6016,0,0,0,0,0,0,0,-1,1105,1800,6.2191,-13.6016
-112,-776,5.14148,13.3198,0,0,0,0,0,0,0,-1,1112,1800,5.14149,-13.3199
-105,-776,4,12.9982,0,0,0,0,0,0,0,-1,1119,1800,3.99996,-12.9981
-98,-776,1.24915,13.8781,0,0,0,0,0,0,0,-1,1126,1800,1.24912,-13.8781
-91,-776,0.946411,13.2373,0,0,0,0,0,0,0,-1,1133,1800,0.946353,-13.2373
-84,-776,0.643555,12.5964,0,0,0,0,0,0,0,-1,1140,1800,0.643591,-12.5964
-77,-776,0.5448,11.2938,0,0,0,0,0,0,0,-1,1147,1800,0.544827,-11.2939
-70,-776,-2.7771,5.02222,0,0,0,0,0,0,0,-1,1154,1800,-2.77711,-5.02221
-63,-776,-0.453613,6.84619,0,0,0,0,0,0,0,-1,1161,1800,-0.453608,-6.84617
-56,-776,-2.95715,5.41614,0,0,0,0,0,0,0,-1,1168,1800,-2.95718,-5.4161
-49,-776,-2.81018,4.39587,0,0,0,0,0,0,0,-1,1175,1800,-2.8102,-4.39592
-42,-776,-3.41272,3.0249,0,0,0,0,0,0,0,-1,1182,1800,-3.41269,-3.02488
-35,-776,-3.71753,1.63635,0,0,0,0,0,0,0,-1,1189,1800,-3.71755,-1.63631
-28,-776,-4.03979,0.716064,0,0,0,0,0,0,0,-1,1196,1800,-4.03977,-0.716055
-21,-776,1.77356,10.4634,0,0,0,0,0,0,0,-1,1203,1800,1.77354,-10.4633
-14,-776,3.20935,13.8105,0,0,0,0,0,0,0,-1,1210,1800,3.20938,-13.8105
-7,-776,3.3717,13.094,0,0,0,0,0,0,0,-1,1217,1800,3.37166,-13.094
0,-776,3.52893,12.3972,0,0,0,0,0,0,0,-1,1224,1800,3.52898,-12.3972
7,-776,4.62561,12.717,0,0,0,0,0,0,0,-1,1231,1800,4.62555,-12.717
14,-776,6.24414,13.3485,0,0,0,0,0,0,0,-1,1238,1800,6.24418,-13.3485
21,-776,5.85461,13.2089,0,0,0,0,0,0,0,-1,1245,1800,5.85456,-13.2088
28,-776,5.45288,12.9814,0,0,0,0,0,0,0,-1,1252,1800,5.45285,-12.9814
35,-776,4.88989,12.8931,-0.0407701,0.026866,0.00367528,0.0270652,-0.0409692,1.51667,0.0395521,0.044096,1259,1800,4.88995,-12.8931
42,-776,4.4115,12.7184,-0.0376385,0.0201567,0.00560872,0.020696,-0.0381777,1.47494,0.0344866,0.0415722,1266,1800,4.41145,-12.7184
49,-776,3.88086,12.5874,-0.0345056,0.0136214,0.00728712,0.0147006,-0.0355847,1.42377,0.0298552,0.0411638,1273,1800,3.88088,-12.5874
56,-776,4.20435,12.7461,0,0,0,0,0,0,0,-1,1280,1800,4.2043,-12.746
63,-776,4.55981,12.6848,-0.024175,-0.000210155,0.0109752,0.00405651,-0.0284417,1.20002,0.0204478,0.0472873,1287,1800,4.55981,-12.6848
70,-776,4.56433,12.6719,-0.0184979,-0.00651652,0.0124051,0.00126872,-0.0262831,1.01034,0.0179599,0.0485654,1294,1800,4.5643,-12.6719
77,-776,3.65015,12.5455,-0.0122149,-0.0130798,0.0134444,0.000803941,-0.0260987,0.769321,0.0176732,0.049463,1301,1800,3.65009,-12.5455
84,-776,3.42346,12.619,-0.00567623,-0.0188223,0.0139983,0.00321545,-0.027714,0.565898,0.0196358,0.048519,1308,1800,3.42349,-12.619
91,-776,3.92896,12.4446,0.00157174,-0.023955,0.0142832,0.00796334,-0.0303466,0.420766,0.0233428,0.0476144,1315,1800,3.92898,-12.4445
98,-776,4.60449,12.3528,0.00857441,-0.0283421,0.0137531,0.0131347,-0.0329024,0.320175,0.0273841,0.0495629,1322,1800,4.60455,-12.3527
105,-776,5.25891,12.2402,0,0,0,0,0,0,0,-1,1329,1800,5.2589,-12.2402
112,-776,3.78772,12.1169,0,0,0,0,0,0,0,-1,1336,1800,3.78772,-12.1169
119,-776,4.91772,12.8,0,0,0,0,0,0,0,-1,1343,1800,4.91776,-12.8
126,-776,5.54993,13.1393,0,0,0,0,0,0,0,-1,1350,1800,5.54997,-13.1393
133,-776,5.18457,13.2172,0,0,0,0,0,0,0,-1,1357,1800,5.1846,-13.2171
140,-776,4.39331,10.0631,0,0,0,0,0,0,0,-1,1364,1800,4.39332,-10.0631
147,-776,6.46301,-0.617188,0,0,0,0,0,0,0,-1,1371,1800,6.46305,0.61724
154,-776,6.43774,0.344116,0,0,0,0,0,0,0,-1,1378,1800,6.43776,-0.344162
161,-776,6.50293,1.1731,0,0,0,0,0,0,0,-1,1385,1800,6.5029,-1.17313
168,-776,8.44971,1.22913,0,0,0,0,0,0,0,-1,1392,1800,8.44974,-1.22915
175,-776,8.61523,2.87061,0,0,0,0,0,0,0,-1,1399,1800,8.6152,-2.87063
182,-776,8.54065,4.60645,0,0,0,0,0,0,0,-1,1406,1800,8.5407,-4.60643
189,-776,8.35303,6.28223,0,0,0,0,0,0,0,-1,1413,1800,8.35297,-6.28225
196,-776,8.0387,8.21704,0,0,0,0,0,0,0,-1,1420,1800,8.03865,-8.217
203,-776,7.91736,9.79919,0,0,0,0,0,0,0,-1,1427,1800,7.91735,-9.79922
210,-776,5.03577,10.4949,0,0,0,0,0,0,0,-1,1434,1800,5.03574,-10.4948
217,-776,1.48315,8.46082,0,0,0,0,0,0,0,-1,1441,1800,1.48314,-8.46081
224,-776,3.09253,14.9313,0,0,0,0,0,0,0,-1,1448,1800,3.09254,-14.9313
231,-776,4.26697,8.9408,0,0,0,0,0,0,0,-1,1455,1800,4.26698,-8.94077
238,-776,4.06323,7.35266,0,0,0,0,0,0,0,-1,1462,1800,4.06325,-7.35271
245,-776,-0.578613,6.22168,0,0,0,0,0,0,0,-1,1469,1800,-0.578634,-6.22162
252,-776,0.0723877,6.86108,0,0,0,0,0,0,0,-1,1476,1800,0.0724335,-6.86106
259,-776,1.33936,7.49463,0,0,0,0,0,0,0,-1,1483,1800,1.3393,-7.49465
266,-776,0,0,0,0,0,0,0,0,0,-1,1490,1800,0,0
273,-776,0,0,0,0,0,0,0,0,0,-1,1497,1800,0,0
280,-776,0,0,0,0,0,0,0,0,0,-1,1504,1800,0,0
287,-776,0,0,0,0,0,0,0,0,0,-1,1511,1800,0,0
294,-776,0,0,0,0,0,0,0,0,0,-1,1518,1800,0,0
301,-776,0,0,0,0,0,0,0,0,0,-1,1525,1800,0,0
308,-776,0,0,0,0,0,0,0,0,0,-1,1532,1800,0,0
315,-776,0,0,0,0,0,0,0,0,0,-1,1539,1800,0,0
322,-776,0,0,0,0,0,0,0,0,0,-1,1546,1800,0,0
329,-776,0,0,0,0,0,0,0,0,0,-1,1553,1800,0,0
336,-776,0,0,0,0,0,0,0,0,0,-1,1560,1800,0,0
343,-776,0,0,0,0,0,0,0,0,0,-1,1567,1800,0,0
350,-776,0,0,0,0,0,0,0,0,0,-1,1574,1800,0,0
357,-776,0,0,0,0,0,0,0,0,0,-1,1581,1800,0,0
364,-776,0,0,0,0,0,0,0,0,0,-1,1588,1800,0,0
371,-776,0,0,0,0,0,0,0,0,0,-1,1595,1800,0,0
378,-776,0,0,0,0,0,0,0,0,0,-1,1602,1800,0,0
385,-776,0,0,0,0,0,0,0,0,0,-1,1609,1800,0,0
392,-776,0,0,0,0,0,0,0,0,0,-1,1616,1800,0,0
399,-776,0,0,0,0,0,0,0,0,0,-1,1623,1800,0,0
406,-776,0,0,0,0,0,0,0,0,0,-1,1630,1800,0,0
413,-776,0,0,0,0,0,0,0,0,0,-1,1637,1800,0,0
420,-776,0,0,0,0,0,0,0,0,0,-1,1644,1800,0,0
427,-776,0,0,0,0,0,0,0,0,0,-1,1651,1800,0,0
434,-776,0,0,0,0,0,0,0,0,0,-1,1658,1800,0,0
441,-776,0,0,0,0,0,0,0,0,0,-1,1665,1800,0,0
448,-776,0,0,0,0,0,0,0,0,0,-1,1672,1800,0,0
455,-776,0,0,0,0,0,0,0,0,0,-1,1679,1800,0,0
462,-776,0,0,0,0,0,0,0,0,0,-1,1686,1800,0,0
469,-776,0,0,0,0,0,0,0,0,0,-1,1693,1800,0,0
476,-776,0,0,0,0,0,0,0,0,0,-1,1700,1800,0,0
483,-776,0,0,0,0,0,0,0,0,0,-1,1707,1800,0,0
490,-776,0,0,0,0,0,0,0,0,0,-1,1714,1800,0,0
497,-776,0,0,0,0,0,0,0,0,0,-1,1721,1800,0,0
504,-776,0,0,0,0,0,0,0,0,0,-1,1728,1800,0,0
511,-776,0,0,0,0,0,0,0,0,0,-1,1735,1800,0,0
518,-776,0,0,0,0,0,0,0,0,0,-1,1742,1800,0,0
525,-776,0,0,0,0,0,0,0,0,0,-1,1749,1800,0,0
532,-776,0,0,0,0,0,0,0,0,0,-1,1756,1800,0,0
539,-776,0,0,0,0,0,0,0,0,0,-1,1763,1800,0,0
546,-776,0,0,0,0,0,0,0,0,0,-1,1770,1800,0,0
553,-776,0,0,0,0,0,0,0,0,0,-1,1777,1800,0,0
560,-776,0,0,0,0,0,0,0,0,0,-1,1784,1800,0,0
567,-776,0,0,0,0,0,0,0,0,0,-1,1791,1800,0,0
574,-776,0,0,0,0,0,0,0,0,0,-1,1798,1800,0,0
581,-776,0,0,0,0,0,0,0,0,0,-1,1805,1800,0,0
588,-776,0,0,0,0,0,0,0,0,0,-1,1812,1800,0,0
595,-776,0,0,0,0,0,0,0,0,0,-1,1819,1800,0,0
602,-776,0,0,0,0,0,0,0,0,0,-1,1826,1800,0,0
609,-776,0,0,0,0,0,0,0,0,0,-1,1833,1800,0,0
616,-776,0,0,0,0,0,0,0,0,0,-1,1840,1800,0,0
623,-776,0,0,0,0,0,0,0,0,0,-1,1847,1800,0,0
630,-776,0,0,0,0,0,0,0,0,0,-1,1854,1800,0,0
637,-776,0,0,0,0,0,0,0,0,0,-1,1861,1800,0,0
644,-776,0,0,0,0,0,0,0,0,0,-1,1868,1800,0,0
651,-776,0,0,0,0,0,0,0,0,0,-1,1875,1800,0,0
658,-776,0,0,0,0,0,0,0,0,0,-1,1882,1800,0,0
665,-776,0,0,0,0,0,0,0,0,0,-1,1889,1800,0,0
672,-776,0,0,0,0,0,0,0,0,0,-1,1896,1800,0,0
679,-776,0,0,0,0,0,0,0,0,0,-1,1903,1800,0,0
686,-776,0,0,0,0,0,0,0,0,0,-1,1910,1800,0,0
693,-776,0,0,0,0,0,0,0,0,0,-1,1917,1800,0,0
700,-776,0,0,0,0,0,0,0,0,0,-1,1924,1800,0,0
707,-776,0,0,0,0,0,0,0,0,0,-1,1931,1800,0,0
714,-776,0,0,0,0,0,0,0,0,0,-1,1938,1800,0,0
721,-776,0,0,0,0,0,0,0,0,0,-1,1945,1800,0,0
728,-776,0,0,0,0,0,0,0,0,0,-1,1952,1800,0,0
735,-776,0,0,0,0,0,0,0,0,0,-1,1959,1800,0,0
742,-776,0,0,0,0,0,0,0,0,0,-1,1966,1800,0,0
749,-776,0,0,0,0,0,0,0,0,0,-1,1973,1800,0,0
756,-776,0,0,0,0,0,0,0,0,0,-1,1980,1800,0,0
763,-776,0,0,0,0,0,0,0,0,0,-1,1987,1800,0,0
770,-776,0,0,0,0,0,0,0,0,0,-1,1994,1800,0,0
777,-776,0,0,0,0,0,0,0,0,0,-1,2001,1800,0,0
784,-776,0,0,0,0,0,0,0,0,0,-1,2008,1800,0,0
791,-776,0,0,0,0,0,0,0,0,0,-1,2015,1800,0,0
798,-776,0,0,0,0,0,0,0,0,0,-1,2022,1800,0,0
805,-776,0,0,0,0,0,0,0,0,0,-1,2029,1800,0,0
812,-776,0,0,0,0,0,0,0,0,0,-1,2036,1800,0,0
-700,-783,0,0,0,0,0,0,0,0,0,-1,524,1807,0,0
-693,-783,0,0,0,0,0,0,0,0,0,-1,531,1807,0,0
-686,-783,0,0,0,0,0,0,0,0,0,-1,538,1807,0,0
-679,-783,0,0,0,0,0,0,0,0,0,-1,545,1807,0,0
-672,-783,0,0,0,0,0,0,0,0,0,-1,552,1807,0,0
-665,-783,0,0,0,0,0,0,0,0,0,-1,559,1807,0,0
-658,-783,0,0,0,0,0,0,0,0,0,-1,566,1807,0,0
-651,-783,0,0,0,0,0,0,0,0,0,-1,573,1807,0,0
-644,-783,0,0,0,0,0,0,0,0,0,-1,580,1807,0,0
-637,-783,0,0,0,0,0,0,0,0,0,-1,587,1807,0,0
-630,-783,0,0,0,0,0,0,0,0,0,-1,594,1807,0,0
-623,-783,0,0,0,0,0,0,0,0,0,-1,601,1807,0,0
-616,-783,0,0,0,0,0,0,0,0,0,-1,608,1807,0,0
-609,-783,0,0,0,0,0,0,0,0,0,-1,615,1807,0,0
-602,-783,0,0,0,0,0,0,0,0,0,-1,622,1807,0,0
-595,-783,0,0,0,0,0,0,0,0,0,-1,629,1807,0,0
-588,-783,0,0,0,0,0,0,0,0,0,-1,636,1807,0,0
-581,-783,0,0,0,0,0,0,0,0,0,-1,643,1807,0,0
-574,-783,0,0,0,0,0,0,0,0,0,-1,650,1807,0,0
-567,-783,0,0,0,0,0,0,0,0,0,-1,657,1807,0,0
-560,-783,0,0,0,0,0,0,0,0,0,-1,664,1807,0,0
-553,-783,0,0,0,0,0,0,0,0,0,-1,671,1807,0,0
-546,-783,0,0,0,0,0,0,0,0,0,-1,678,1807,0,0
-539,-783,0,0,0,0,0,0,0,0,0,-1,685,1807,0,0
-532,-783,0,0,0,0,0,0,0,0,0,-1,692,1807,0,0
-525,-783,0,0,0,0,0,0,0,0,0,-1,699,1807,0,0
-518,-783,0,0,0,0,0,0,0,0,0,-1,706,1807,0,0
-511,-783,0,0,0,0,0,0,0,0,0,-1,713,1807,0,0
-504,-783,0,0,0,0,0,0,0,0,0,-1,720,1807,0,0
-497,-783,0,0,0,0,0,0,0,0,0,-1,727,1807,0,0
-490,-783,0,0,0,0,0,0,0,0,0,-1,734,1807,0,0
-483,-783,0,0,0,0,0,0,0,0,0,-1,741,1807,0,0
-476,-783,0,0,0,0,0,0,0,0,0,-1,748,1807,0,0
-469,-783,0,0,0,0,0,0,0,0,0,-1,755,1807,0,0
-462,-783,0,0,0,0,0,0,0,0,0,-1,762,1807,0,0
-455,-783,0,0,0,0,0,0,0,0,0,-1,769,1807,0,0
-448,-783,0,0,0,0,0,0,0,0,0,-1,776,1807,0,0
-441,-783,0,0,0,0,0,0,0,0,0,-1,783,1807,0,0
-434,-783,0,0,0,0,0,0,0,0,0,-1,790,1807,0,0
-427,-783,0,0,0,0,0,0,0,0,0,-1,797,1807,0,0
-420,-783,0,0,0,0,0,0,0,0,0,-1,804,1807,0,0
-413,-783,0,0,0,0,0,0,0,0,0,-1,811,1807,0,0
-406,-783,0,0,0,0,0,0,0,0,0,-1,818,1807,0,0
-399,-783,0,0,0,0,0,0,0,0,0,-1,825,1807,0,0
-392,-783,0,0,0,0,0,0,0,0,0,-1,832,1807,0,0
-385,-783,0,0,0,0,0,0,0,0,0,-1,839,1807,0,0
-378,-783,0,0,0,0,0,0,0,0,0,-1,846,1807,0,0
-371,-783,0,0,0,0,0,0,0,0,0,-1,853,1807,0,0
-364,-783,0,0,0,0,0,0,0,0,0,-1,860,1807,0,0
-357,-783,0,0,0,0,0,0,0,0,0,-1,867,1807,0,0
-350,-783,0,0,0,0,0,0,0,0,0,-1,874,1807,0,0
-343,-783,0,0,0,0,0,0,0,0,0,-1,881,1807,0,0
-336,-783,0,0,0,0,0,0,0,0,0,-1,888,1807,0,0
-329,-783,0,0,0,0,0,0,0,0,0,-1,895,1807,0,0
-322,-783,0,0,0,0,0,0,0,0,0,-1,902,1807,0,0
-315,-783,0,0,0,0,0,0,0,0,0,-1,909,1807,0,0
-308,-783,0,0,0,0,0,0,0,0,0,-1,916,1807,0,0
-301,-783,0,0,0,0,0,0,0,0,0,-1,923,1807,0,0
-294,-783,0,0,0,0,0,0,0,0,0,-1,930,1807,0,0
-287,-783,0,0,0,0,0,0,0,0,0,-1,937,1807,0,0
-280,-783,0,0,0,0,0,0,0,0,0,-1,944,1807,0,0
-273,-783,0,0,0,0,0,0,0,0,0,-1,951,1807,0,0
-266,-783,0,0,0,0,0,0,0,0,0,-1,958,1807,0,0
-259,-783,0,0,0,0,0,0,0,0,0,-1,965,1807,0,0
-252,-783,0,0,0,0,0,0,0,0,0,-1,972,1807,0,0
-245,-783,0,0,0,0,0,0,0,0,0,-1,979,1807,0,0
-238,-783,0,0,0,0,0,0,0,0,0,-1,986,1807,0,0
-231,-783,0,0,0,0,0,0,0,0,0,-1,993,1807,0,0
-224,-783,0,0,0,0,0,0,0,0,0,-1,1000,1807,0,0
-217,-783,0,0,0,0,0,0,0,0,0,-1,1007,1807,0,0
-210,-783,0,0,0,0,0,0,0,0,0,-1,1014,1807,0,0
-203,-783,0,0,0,0,0,0,0,0,0,-1,1021,1807,0,0
-196,-783,0,0,0,0,0,0,0,0,0,-1,1028,1807,0,0
-189,-783,0,0,0,0,0,0,0,0,0,-1,1035,1807,0,0
-182,-783,0,0,0,0,0,0,0,0,0,-1,1042,1807,0,0
-175,-783,0,0,0,0,0,0,0,0,0,-1,1049,1807,0,0
-168,-783,0,0,0,0,0,0,0,0,0,-1,1056,1807,0,0
-161,-783,0,0,0,0,0,0,0,0,0,-1,1063,1807,0,0
-154,-783,0,0,0,0,0,0,0,0,0,-1,1070,1807,0,0
-147,-783,0,0,0,0,0,0,0,0,0,-1,1077,1807,0,0
-140,-783,0,0,0,0,0,0,0,0,0,-1,1084,1807,0,0
-133,-783,0,0,0,0,0,0,0,0,0,-1,1091,1807,0,0
-126,-783,0,0,0,0,0,0,0,0,0,-1,1098,1807,0,0
-119,-783,0,0,0,0,0,0,0,0,0,-1,1105,1807,0,0
-112,-783,5.35229,15.2482,0,0,0,0,0,0,0,-1,1112,1807,5.35229,-15.2482
-105,-783,4.41919,14.488,0,0,0,0,0,0,0,-1,1119,1807,4.41917,-14.4881
-98,-783,3.11047,14.0786,0,0,0,0,0,0,0,-1,1126,1807,3.11046,-14.0786
-91,-783,1.01868,14.7838,0,0,0,0,0,0,0,-1,1133,1807,1.01872,-14.7838
-84,-783,0.684692,13.7784,0,0,0,0,0,0,0,-1,1140,1807,0.684752,-13.7784
-77,-783,0.332764,12.7788,0,0,0,0,0,0,0,-1,1147,1807,0.332743,-12.7788
-70,-783,-1.93176,5.12817,0,0,0,0,0,0,0,-1,1154,1807,-1.93171,-5.12813
-63,-783,-2.46729,4.38416,0,0,0,0,0,0,0,-1,1161,1807,-2.46723,-4.38411
-56,-783,-2.11902,6.73853,0,0,0,0,0,0,0,-1,1168,1807,-2.11904,-6.73854
-49,-783,-3.17688,4.59705,0,0,0,0,0,0,0,-1,1175,1807,-3.17685,-4.5971
-42,-783,-3.72876,3.1405,0,0,0,0,0,0,0,-1,1182,1807,-3.72874,-3.14055
-35,-783,-3.97046,1.59399,0,0,0,0,0,0,0,-1,1189,1807,-3.97041,-1.59401
-28,-783,-4.12195,0.270386,0,0,0,0,0,0,0,-1,1196,1807,-4.12197,-0.270408
-21,-783,6.17224,9.8053,0,0,0,0,0,0,0,-1,1203,1807,6.17219,-9.80532
-14,-783,6.38855,9.67017,0,0,0,0,0,0,0,-1,1210,1807,6.38851,-9.6702
-7,-783,3.88135,12.8389,0,0,0,0,0,0,0,-1,1217,1807,3.88133,-12.8388
0,-783,3.96997,11.9961,0,0,0,0,0,0,0,-1,1224,1807,3.96993,-11.996
7,-783,6.86963,12.6801,0,0,0,0,0,0,0,-1,1231,1807,6.86962,-12.68
14,-783,6.48486,12.5807,0,0,0,0,0,0,0,-1,1238,1807,6.48485,-12.5807
21,-783,6.11243,12.4833,-0.0611345,0.0527701,-0.000651498,0.0527739,-0.0611382,-1.56508,0.0658263,0.0440022,1245,1807,6.11245,-12.4833
28,-783,5.51086,12.479,-0.0577873,0.0447147,0.00120011,0.0447287,-0.0578013,1.55909,0.0593559,0.0454153,1252,1807,5.51083,-12.4789
35,-783,4.9115,12.4445,-0.0540709,0.0353046,0.00357895,0.0354477,-0.054214,1.53084,0.0521428,0.0473809,1259,1807,4.91148,-12.4444
42,-783,4.11377,12.0692,-0.0498763,0.0253161,0.00633718,0.0258465,-0.0504067,1.4873,0.0447795,0.0418175,1266,1807,4.11382,-12.0692
49,-783,3.99902,11.9789,-0.0456657,0.0155426,0.00892915,0.0168186,-0.0469417,1.42885,0.0381569,0.0451468,1273,1807,3.99905,-11.9789
56,-783,3.60706,12.0658,0,0,0,0,0,0,0,-1,1280,1807,3.60711,-12.0659
63,-783,4.77856,12.7397,0,0,0,0,0,0,0,-1,1287,1807,4.77851,-12.7398
70,-783,3.56006,11.1144,-0.025557,-0.0127132,0.0166936,-0.00124885,-0.0370213,0.969018,0.0242753,0.0433326,1294,1807,3.56008,-11.1144
77,-783,3.19385,12.1542,-0.0176337,-0.0215589,0.018601,-0.000892121,-0.0383005,0.732838,0.0252416,0.0459384,1301,1807,3.19386,-12.1541
84,-783,2.68933,12.5687,-0.00923697,-0.0293165,0.0197636,0.00289077,-0.0414443,0.550388,0.0286418,0.0452185,1308,1807,2.6893,-12.5687
91,-783,3.03259,12.4683,-2.32551e-05,-0.035898,0.0204765,0.00926135,-0.0451826,0.425701,0.0336365,0.0456161,1315,1807,3.03255,-12.4682
98,-783,3.54822,12.3075,0,0,0,0,0,0,0,-1,1322,1807,3.54823,-12.3075
105,-783,3.19775,15.7791,0.0178558,-0.0464038,0.0195852,0.0233545,-0.0519025,0.273711,0.0444795,0.045644,1329,1807,3.19771,-15.779
112,-783,3.75793,12.1414,0.0263906,-0.0507271,0.0185572,0.0306238,-0.0549603,0.224276,0.0500735,0.044877,1336,1807,3.75797,-12.1413
119,-783,3.90942,11.6392,0,0,0,0,0,0,0,-1,1343,1807,3.90945,-11.6391
126,-783,6.0603,13.3695,0,0,0,0,0,0,0,-1,1350,1807,6.06033,-13.3695
133,-783,6.08142,13.4784,0,0,0,0,0,0,0,-1,1357,1807,6.08144,-13.4784
140,-783,5.98425,10.7552,0,0,0,0,0,0,0,-1,1364,1807,5.98426,-10.7552
147,-783,6.45825,-1.2334,0,0,0,0,0,0,0,-1,1371,1807,6.45822,1.23339
154,-783,6.37024,-0.145874,0,0,0,0,0,0,0,-1,1378,1807,6.37018,0.145866
161,-783,6.57568,1.16174,0,0,0,0,0,0,0,-1,1385,1807,6.57562,-1.1617
168,-783,8.62561,1.79944,0,0,0,0,0,0,0,-1,1392,1807,8.62561,-1.79946
175,-783,8.78699,3.40857,0,0,0,0,0,0,0,-1,1399,1807,8.78697,-3.40854
182,-783,8.70984,5.14661,0,0,0,0,0,0,0,-1,1406,1807,8.70989,-5.14666
189,-783,8.55762,6.79871,0,0,0,0,0,0,0,-1,1413,1807,8.55766,-6.79872
196,-783,8.25488,8.66626,0,0,0,0,0,0,0,-1,1420,1807,8.25492,-8.66628
203,-783,7.86755,10.5735,0,0,0,0,0,0,0,-1,1427,1807,7.8676,-10.5734
210,-783,5.6969,8.99231,0,0,0,0,0,0,0,-1,1434,1807,5.69693,-8.99234
217,-783,5.28503,3.80872,0,0,0,0,0,0,0,-1,1441,1807,5.285,-3.80868
224,-783,3.22571,6.62903,0,0,0,0,0,0,0,-1,1448,1807,3.2257,-6.62907
231,-783,4.27942,4.56262,0,0,0,0,0,0,0,-1,1455,1807,4.27948,-4.56267
238,-783,0,0,0,0,0,0,0,0,0,-1,1462,1807,0,0
245,-783,0,0,0,0,0,0,0,0,0,-1,1469,1807,0,0
252,-783,0,0,0,0,0,0,0,0,0,-1,1476,1807,0,0
259,-783,0,0,0,0,0,0,0,0,0,-1,1483,1807,0,0
266,-783,0,0,0,0,0,0,0,0,0,-1,1490,1807,0,0
273,-783,0,0,0,0,0,0,0,0,0,-1,1497,1807,0,0
280,-783,0,0,0,0,0,0,0,0,0,-1,1504,1807,0,0
287,-783,0,0,0,0,0,0,0,0,0,-1,1511,1807,0,0
294,-783,0,0,0,0,0,0,0,0,0,-1,1518,1807,0,0
301,-783,0,0,0,0,0,0,0,0,0,-1,1525,1807,0,0
308,-783,0,0,0,0,0,0,0,0,0,-1,1532,1807,0,0
315,-783,0,0,0,0,0,0,0,0,0,-1,1539,1807,0,0
322,-783,0,0,0,0,0,0,0,0,0,-1,1546,1807,0,0
329,-783,0,0,0,0,0,0,0,0,0,-1,1553,1807,0,0
336,-783,0,0,0,0,0,0,0,0,0,-1,1560,1807,0,0
343,-783,0,0,0,0,0,0,0,0,0,-1,1567,1807,0,0
350,-783,0,0,0,0,0,0,0,0,0,-1,1574,1807,0,0
357,-783,0,0,0,0,0,0,0,0,0,-1,1581,1807,0,0
364,-783,0,0,0,0,0,0,0,0,0,-1,1588,1807,0,0
371,-783,0,0,0,0,0,0,0,0,0,-1,1595,1807,0,0
378,-783,0,0,0,0,0,0,0,0,0,-1,1602,1807,0,0
385,-783,0,0,0,0,0,0,0,0,0,-1,1609,1807,0,0
392,-783,0,0,0,0,0,0,0,0,0,-1,1616,1807,0,0
399,-783,0,0,0,0,0,0,0,0,0,-1,1623,1807,0,0
406,-783,0,0,0,0,0,0,0,0,0,-1,1630,1807,0,0
413,-783,0,0,0,0,0,0,0,0,0,-1,1637,1807,0,0
420,-783,0,0,0,0,0,0,0,0,0,-1,1644,1807,0,0
427,-783,0,0,0,0,0,0,0,0,0,-1,1651,1807,0,0
434,-783,0,0,0,0,0,0,0,0,0,-1,1658,1807,0,0
441,-783,0,0,0,0,0,0,0,0,0,-1,1665,1807,0,0
448,-783,0,0,0,0,0,0,0,0,0,-1,1672,1807,0,0
455,-783,0,0,0,0,0,0,0,0,0,-1,1679,1807,0,0
462,-783,0,0,0,0,0,0,0,0,0,-1,1686,1807,0,0
469,-783,0,0,0,0,0,0,0,0,0,-1,1693,1807,0,0
476,-783,0,0,0,0,0,0,0,0,0,-1,1700,1807,0,0
483,-783,0,0,0,0,0,0,0,0,0,-1,1707,1807,0,0
490,-783,0,0,0,0,0,0,0,0,0,-1,1714,1807,0,0
497,-783,0,0,0,0,0,0,0,0,0,-1,1721,1807,0,0
504,-783,0,0,0,0,0,0,0,0,0,-1,1728,1807,0,0
511,-783,0,0,0,0,0,0,0,0,0,-1,1735,1807,0,0
518,-783,0,0,0,0,0,0,0,0,0,-1,1742,1807,0,0
525,-783,0,0,0,0,0,0,0,0,0,-1,1749,1807,0,0
532,-783,0,0,0,0,0,0,0,0,0,-1,1756,1807,0,0
539,-783,0,0,0,0,0,0,0,0,0,-1,1763,1807,0,0
546,-783,0,0,0,0,0,0,0,0,0,-1,1770,1807,0,0
553,-783,0,0,0,0,0,0,0,0,0,-1,1777,1807,0,0
560,-783,0,0,0,0,0,0,0,0,0,-1,1784,1807,0,0
567,-783,0,0,0,0,0,0,0,0,0,-1,1791,1807,0,0
574,-783,0,0,0,0,0,0,0,0,0,-1,1798,1807,0,0
581,-783,0,0,0,0,0,0,0,0,0,-1,1805,1807,0,0
588,-783,0,0,0,0,0,0,0,0,0,-1,1812,1807,0,0
595,-783,0,0,0,0,0,0,0,0,0,-1,1819,1807,0,0
602,-783,0,0,0,0,0,0,0,0,0,-1,1826,1807,0,0
609,-783,0,0,0,0,0,0,0,0,0,-1,1833,1807,0,0
616,-783,0,0,0,0,0,0,0,0,0,-1,1840,1807,0,0
623,-783,0,0,0,0,0,0,0,0,0,-1,1847,1807,0,0
630,-783,0,0,0,0,0,0,0,0,0,-1,1854,1807,0,0
637,-783,0,0,0,0,0,0,0,0,0,-1,1861,1807,0,0
644,-783,0,0,0,0,0,0,0,0,0,-1,1868,1807,0,0
651,-783,0,0,0,0,0,0,0,0,0,-1,1875,1807,0,0
658,-783,0,0,0,0,0,0,0,0,0,-1,1882,1807,0,0
665,-783,0,0,0,0,0,0,0,0,0,-1,1889,1807,0,0
672,-783,0,0,0,0,0,0,0,0,0,-1,1896,1807,0,0
679,-783,0,0,0,0,0,0,0,0,0,-1,1903,1807,0,0
686,-783,0,0,0,0,0,0,0,0,0,-1,1910,1807,0,0
693,-783,0,0,0,0,0,0,0,0,0,-1,1917,1807,0,0
700,-783,0,0,0,0,0,0,0,0,0,-1,1924,1807,0,0
707,-783,0,0,0,0,0,0,0,0,0,-1,1931,1807,0,0
714,-783,0,0,0,0,0,0,0,0,0,-1,1938,1807,0,0
721,-783,0,0,0,0,0,0,0,0,0,-1,1945,1807,0,0
728,-783,0,0,0,0,0,0,0,0,0,-1,1952,1807,0,0
735,-783,0,0,0,0,0,0,0,0,0,-1,1959,1807,0,0
742,-783,0,0,0,0,0,0,0,0,0,-1,1966,1807,0,0
749,-783,0,0,0,0,0,0,0,0,0,-1,1973,1807,0,0
756,-783,0,0,0,0,0,0,0,0,0,-1,1980,1807,0,0
763,-783,0,0,0,0,0,0,0,0,0,-1,1987,1807,0,0
770,-783,0,0,0,0,0,0,0,0,0,-1,1994,1807,0,0
777,-783,0,0,0,0,0,0,0,0,0,-1,2001,1807,0,0
784,-783,0,0,0,0,0,0,0,0,0,-1,2008,1807,0,0
791,-783,0,0,0,0,0,0,0,0,0,-1,2015,1807,0,0
798,-783,0,0,0,0,0,0,0,0,0,-1,2022,1807,0,0
805,-783,0,0,0,0,0,0,0,0,0,-1,2029,1807,0,0
812,-783,0,0,0,0,0,0,0,0,0,-1,2036,1807,0,0
-700,-790,0,0,0,0,0,0,0,0,0,-1,524,1814,0,0
-693,-790,0,0,0,0,0,0,0,0,0,-1,531,1814,0,0
-686,-790,0,0,0,0,0,0,0,0,0,-1,538,1814,0,0
-679,-790,0,0,0,0,0,0,0,0,0,-1,545,1814,0,0
-672,-790,0,0,0,0,0,0,0,0,0,-1,552,1814,0,0
-665,-790,0,0,0,0,0,0,0,0,0,-1,559,1814,0,0
-658,-790,0,0,0,0,0,0,0,0,0,-1,566,1814,0,0
-651,-790,0,0,0,0,0,0,0,0,0,-1,573,1814,0,0
-644,-790,0,0,0,0,0,0,0,0,0,-1,580,1814,0,0
-637,-790,0,0,0,0,0,0,0,0,0,-1,587,1814,0,0
-630,-790,0,0,0,0,0,0,0,0,0,-1,594,1814,0,0
-623,-790,0,0,0,0,0,0,0,0,0,-1,601,1814,0,0
-616,-790,0,0,0,0,0,0,0,0,0,-1,608,1814,0,0
-609,-790,0,0,0,0,0,0,0,0,0,-1,615,1814,0,0
-602,-790,0,0,0,0,0,0,0,0,0,-1,622,1814,0,0
-595,-790,0,0,0,0,0,0,0,0,0,-1,629,1814,0,0
-588,-790,0,0,0,0,0,0,0,0,0,-1,636,1814,0,0
-581,-790,0,0,0,0,0,0,0,0,0,-1,643,1814,0,0
-574,-790,0,0,0,0,0,0,0,0,0,-1,650,1814,0,0
-567,-790,0,0,0,0,0,0,0,0,0,-1,657,1814,0,0
-560,-790,0,0,0,0,0,0,0,0,0,-1,664,1814,0,0
-553,-790,0,0,0,0,0,0,0,0,0,-1,671,1814,0,0
-546,-790,0,0,0,0,0,0,0,0,0,-1,678,1814,0,0
-539,-790,0,0,0,0,0,0,0,0,0,-1,685,1814,0,0
-532,-790,0,0,0,0,0,0,0,0,0,-1,692,1814,0,0
-525,-790,0,0,0,0,0,0,0,0,0,-1,699,1814,0,0
-518,-790,0,0,0,0,0,0,0,0,0,-1,706,1814,0,0
-511,-790,0,0,0,0,0,0,0,0,0,-1,713,1814,0,0
-504,-790,0,0,0,0,0,0,0,0,0,-1,720,1814,0,0
-497,-790,0,0,0,0,0,0,0,0,0,-1,727,1814,0,0
-490,-790,0,0,0,0,0,0,0,0,0,-1,734,1814,0,0
-483,-790,0,0,0,0,0,0,0,0,0,-1,741,1814,0,0
-476,-790,0,0,0,0,0,0,0,0,0,-1,748,1814,0,0
-469,-790,0,0,0,0,0,0,0,0,0,-1,755,1814,0,0
-462,-790,0,0,0,0,0,0,0,0,0,-1,762,1814,0,0
-455,-790,0,0,0,0,0,0,0,0,0,-1,769,1814,0,0
-448,-790,0,0,0,0,0,0,0,0,0,-1,776,1814,0,0
-441,-790,0,0,0,0,0,0,0,0,0,-1,783,1814,0,0
-434,-790,0,0,0,0,0,0,0,0,0,-1,790,1814,0,0
-427,-790,0,0,0,0,0,0,0,0,0,-1,797,1814,0,0
-420,-790,0,0,0,0,0,0,0,0,0,-1,804,1814,0,0
-413,-790,0,0,0,0,0,0,0,0,0,-1,811,1814,0,0
-406,-790,0,0,0,0,0,0,0,0,0,-1,818,1814,0,0
-399,-790,0,0,0,0,0,0,0,0,0,-1,825,1814,0,0
-392,-790,0,0,0,0,0,0,0,0,0,-1,832,1814,0,0
-385,-790,0,0,0,0,0,0,0,0,0,-1,839,1814,0,0
-378,-790,0,0,0,0,0,0,0,0,0,-1,846,1814,0,0
-371,-790,0,0,0,0,0,0,0,0,0,-1,853,1814,0,0
-364,-790,0,0,0,0,0,0,0,0,0,-1,860,1814,0,0
-357,-790,0,0,0,0,0,0,0,0,0,-1,867,1814,0,0
-350,-790,0,0,0,0,0,0,0,0,0,-1,874,1814,0,0
-343,-790,0,0,0,0,0,0,0,0,0,-1,881,1814,0,0
-336,-790,0,0,0,0,0,0,0,0,0,-1,888,1814,0,0
-329,-790,0,0,0,0,0,0,0,0,0,-1,895,1814,0,0
-322,-790,0,0,0,0,0,0,0,0,0,-1,902,1814,0,0
-315,-790,0,0,0,0,0,0,0,0,0,-1,909,1814,0,0
-308,-790,0,0,0,0,0,0,0,0,0,-1,916,1814,0,0
-301,-790,0,0,0,0,0,0,0,0,0,-1,923,1814,0,0
-294,-790,0,0,0,0,0,0,0,0,0,-1,930,1814,0,0
-287,-790,0,0,0,0,0,0,0,0,0,-1,937,1814,0,0
-280,-790,0,0,0,0,0,0,0,0,0,-1,944,1814,0,0
-273,-790,0,0,0,0,0,0,0,0,0,-1,951,1814,0,0
-266,-790,0,0,0,0,0,0,0,0,0,-1,958,1814,0,0
-259,-790,0,0,0,0,0,0,0,0,0,-1,965,1814,0,0
-252,-790,0,0,0,0,0,0,0,0,0,-1,972,1814,0,0
-245,-790,0,0,0,0,0,0,0,0,0,-1,979,1814,0,0
-238,-790,0,0,0,0,0,0,0,0,0,-1,986,1814,0,0
-231,-790,0,0,0,0,0,0,0,0,0,-1,993,1814,0,0
-224,-790,0,0,0,0,0,0,0,0,0,-1,1000,1814,0,0
-217,-790,0,0,0,0,0,0,0,0,0,-1,1007,1814,0,0
-210,-790,0,0,0,0,0,0,0,0,0,-1,1014,1814,0,0
-203,-790,0,0,0,0,0,0,0,0,0,-1,1021,1814,0,0
-196,-790,0,0,0,0,0,0,0,0,0,-1,1028,1814,0,0
-189,-790,0,0,0,0,0,0,0,0,0,-1,1035,1814,0,0
-182,-790,0,0,0,0,0,0,0,0,0,-1,1042,1814,0,0
-175,-790,0,0,0,0,0,0,0,0,0,-1,1049,1814,0,0
-168,-790,0,0,0,0,0,0,0,0,0,-1,1056,1814,0,0
-161,-790,0,0,0,0,0,0,0,0,0,-1,1063,1814,0,0
-154,-790,0,0,0,0,0,0,0,0,0,-1,1070,1814,0,0
-147,-790,0,0,0,0,0,0,0,0,0,-1,1077,1814,0,0
-140,-790,0,0,0,0,0,0,0,0,0,-1,1084,1814,0,0
-133,-790,0,0,0,0,0,0,0,0,0,-1,1091,1814,0,0
-126,-790,0,0,0,0,0,0,0,0,0,-1,1098,1814,0,0
-119,-790,0,0,0,0,0,0,0,0,0,-1,1105,1814,0,0
-112,-790,0,0,0,0,0,0,0,0,0,-1,1112,1814,0,0
-105,-790,0,0,0,0,0,0,0,0,0,-1,1119,1814,0,0
-98,-790,0,0,0,0,0,0,0,0,0,-1,1126,1814,0,0
-91,-790,0,0,0,0,0,0,0,0,0,-1,1133,1814,0,0
-84,-790,0,0,0,0,0,0,0,0,0,-1,1140,1814,0,0
-77,-790,-0.969238,5.30847,0,0,0,0,0,0,0,-1,1147,1814,-0.969277,-5.3085
-70,-790,-1.23169,4.98914,0,0,0,0,0,0,0,-1,1154,1814,-1.23163,-4.98916
-63,-790,-1.69128,4.32263,0,0,0,0,0,0,0,-1,1161,1814,-1.69128,-4.32258
-56,-790,-2.24756,3.75305,0,0,0,0,0,0,0,-1,1168,1814,-2.24758,-3.75302
-49,-790,-3.11011,3.35779,0,0,0,0,0,0,0,-1,1175,1814,-3.11006,-3.35781
-42,-790,0.593262,1.19165,0,0,0,0,0,0,0,-1,1182,1814,0.593225,-1.19165
-35,-790,0.307129,-0.20105,0,0,0,0,0,0,0,-1,1189,1814,0.307178,0.201006
-28,-790,-2.78467,0.785156,0,0,0,0,0,0,0,-1,1196,1814,-2.78471,-0.785183
-21,-790,5.36719,9.96191,0,0,0,0,0,0,0,-1,1203,1814,5.36715,-9.9619
-14,-790,5.74377,10.0115,0,0,0,0,0,0,0,-1,1210,1814,5.7438,-10.0114
-7,-790,5.58069,10.379,0,0,0,0,0,0,0,-1,1217,1814,5.58067,-10.3791
0,-790,4.72217,11.3514,0,0,0,0,0,0,0,-1,1224,1814,4.72222,-11.3514
7,-790,8.42554,11.7872,0,0,0,0,0,0,0,-1,1231,1814,8.42555,-11.7873
14,-790,6.72205,11.8204,0,0,0,0,0,0,0,-1,1238,1814,6.72203,-11.8204
21,-790,6.3717,11.7335,-0.0798826,0.069813,-0.00272846,0.0698627,-0.0799324,-1.55258,0.0865493,0.0423001,1245,1814,6.37175,-11.7335
28,-790,5.50623,11.6157,-0.0747491,0.057947,-0.000219623,0.0579473,-0.0747495,-1.56914,0.076817,0.0430586,1252,1814,5.50622,-11.6157
35,-790,4.92188,11.952,-0.0696969,0.0443151,0.00312191,0.0444006,-0.0697823,1.54344,0.0664642,0.0471943,1259,1814,4.92184,-11.9521
42,-790,4.05823,11.1774,-0.0642759,0.0299446,0.00691115,0.0304489,-0.0647801,1.49797,0.0561588,0.0433892,1266,1814,4.05817,-11.1774
49,-790,4.25769,11.2676,-0.0588059,0.0158826,0.0106746,0.0173783,-0.0603015,1.43159,0.0470754,0.0465859,1273,1814,4.25774,-11.2676
56,-790,4.04041,11.4637,0,0,0,0,0,0,0,-1,1280,1814,4.04042,-11.4638
63,-790,3.64746,11.7526,0,0,0,0,0,0,0,-1,1287,1814,3.64749,-11.7526
70,-790,3.20935,11.6823,-0.034435,-0.0223216,0.0218181,-0.00573516,-0.0510214,0.920788,0.0322729,0.039065,1294,1814,3.2094,-11.6822
77,-790,2.62268,11.928,-0.0247616,-0.0338109,0.0248799,-0.00399823,-0.0545742,0.695451,0.035126,0.0426875,1301,1814,2.62263,-11.928
84,-790,2.32788,12.4408,-0.0143301,-0.0438283,0.0268957,0.00159512,-0.0597535,0.534597,0.0403779,0.0457444,1308,1814,2.32783,-12.4408
91,-790,1.68274,11.9727,-0.0029479,-0.0518815,0.0282427,0.00995206,-0.0647814,0.428456,0.0468586,0.0458867,1315,1814,1.68273,-11.9727
98,-790,2.83069,13.7654,0,0,0,0,0,0,0,-1,1322,1814,2.83069,-13.7654
105,-790,2.60706,15.5282,0.0202151,-0.0645402,0.02841,0.028857,-0.0731821,0.295291,0.0607368,0.0449632,1329,1814,2.60711,-15.5282
112,-790,2.8186,16.1356,0.0316298,-0.0703633,0.0280917,0.0388551,-0.0775887,0.25175,0.0684574,0.0456349,1336,1814,2.81856,-16.1356
119,-790,2.91309,16.6455,0,0,0,0,0,0,0,-1,1343,1814,2.91304,-16.6455
126,-790,6.29053,13.4512,0,0,0,0,0,0,0,-1,1350,1814,6.29051,-13.4512
133,-790,6.36218,13.5562,0,0,0,0,0,0,0,-1,1357,1814,6.36214,-13.5561
140,-790,6.94873,10.6707,0,0,0,0,0,0,0,-1,1364,1814,6.94869,-10.6707
147,-790,6.44666,-1.87561,0,0,0,0,0,0,0,-1,1371,1814,6.4466,1.87567
154,-790,6.34485,-0.540405,0,0,0,0,0,0,0,-1,1378,1814,6.34482,0.540409
161,-790,6.62683,1.1134,0,0,0,0,0,0,0,-1,1385,1814,6.62682,-1.11344
168,-790,7.04077,2.23279,0,0,0,0,0,0,0,-1,1392,1814,7.04082,-2.23275
175,-790,9.03918,3.98535,0,0,0,0,0,0,0,-1,1399,1814,9.0392,-3.98535
182,-790,8.96997,5.67896,0,0,0,0,0,0,0,-1,1406,1814,8.97001,-5.6789
189,-790,8.59729,6.86975,0,0,0,0,0,0,0,-1,1413,1814,8.59728,-6.86972
196,-790,8.21924,9.29053,0,0,0,0,0,0,0,-1,1420,1814,8.21924,-9.29048
203,-790,0,0,0,0,0,0,0,0,0,-1,1427,1814,0,0
210,-790,0,0,0,0,0,0,0,0,0,-1,1434,1814,0,0
217,-790,0,0,0,0,0,0,0,0,0,-1,1441,1814,0,0
224,-790,0,0,0,0,0,0,0,0,0,-1,1448,1814,0,0
231,-790,0,0,0,0,0,0,0,0,0,-1,1455,1814,0,0
238,-790,0,0,0,0,0,0,0,0,0,-1,1462,1814,0,0
245,-790,0,0,0,0,0,0,0,0,0,-1,1469,1814,0,0
252,-790,0,0,0,0,0,0,0,0,0,-1,1476,1814,0,0
259,-790,0,0,0,0,0,0,0,0,0,-1,1483,1814,0,0
266,-790,0,0,0,0,0,0,0,0,0,-1,1490,1814,0,0
273,-790,0,0,0,0,0,0,0,0,0,-1,1497,1814,0,0
280,-790,0,0,0,0,0,0,0,0,0,-1,1504,1814,0,0
287,-790,0,0,0,0,0,0,0,0,0,-1,1511,1814,0,0
294,-790,0,0,0,0,0,0,0,0,0,-1,1518,1814,0,0
301,-790,0,0,0,0,0,0,0,0,0,-1,1525,1814,0,0
308,-790,0,0,0,0,0,0,0,0,0,-1,1532,1814,0,0
315,-790,0,0,0,0,0,0,0,0,0,-1,1539,1814,0,0
322,-790,0,0,0,0,0,0,0,0,0,-1,1546,1814,0,0
329,-790,0,0,0,0,0,0,0,0,0,-1,1553,1814,0,0
336,-790,0,0,0,0,0,0,0,0,0,-1,1560,1814,0,0
343,-790,0,0,0,0,0,0,0,0,0,-1,1567,1814,0,0
350,-790,0,0,0,0,0,0,0,0,0,-1,1574,1814,0,0
357,-790,0,0,0,0,0,0,0,0,0,-1,1581,1814,0,0
364,-790,0,0,0,0,0,0,0,0,0,-1,1588,1814,0,0
371,-790,0,0,0,0,0,0,0,0,0,-1,1595,1814,0,0
378,-790,0,0,0,0,0,0,0,0,0,-1,1602,1814,0,0
385,-790,0,0,0,0,0,0,0,0,0,-1,1609,1814,0,0
392,-790,0,0,0,0,0,0,0,0,0,-1,1616,1814,0,0
399,-790,0,0,0,0,0,0,0,0,0,-1,1623,1814,0,0
406,-790,0,0,0,0,0,0,0,0,0,-1,1630,1814,0,0
413,-790,0,0,0,0,0,0,0,0,0,-1,1637,1814,0,0
420,-790,0,0,0,0,0,0,0,0,0,-1,1644,1814,0,0
427,-790,0,0,0,0,0,0,0,0,0,-1,1651,1814,0,0
434,-790,0,0,0,0,0,0,0,0,0,-1,1658,1814,0,0
441,-790,0,0,0,0,0,0,0,0,0,-1,1665,1814,0,0
448,-790,0,0,0,0,0,0,0,0,0,-1,1672,1814,0,0
455,-790,0,0,0,0,0,0,0,0,0,-1,1679,1814,0,0
462,-790,0,0,0,0,0,0,0,0,0,-1,1686,1814,0,0
469,-790,0,0,0,0,0,0,0,0,0,-1,1693,1814,0,0
476,-790,0,0,0,0,0,0,0,0,0,-1,1700,1814,0,0
483,-790,0,0,0,0,0,0,0,0,0,-1,1707,1814,0,0
490,-790,0,0,0,0,0,0,0,0,0,-1,1714,1814,0,0
497,-790,0,0,0,0,0,0,0,0,0,-1,1721,1814,0,0
504,-790,0,0,0,0,0,0,0,0,0,-1,1728,1814,0,0
511,-790,0,0,0,0,0,0,0,0,0,-1,1735,1814,0,0
518,-790,0,0,0,0,0,0,0,0,0,-1,1742,1814,0,0
525,-790,0,0,0,0,0,0,0,0,0,-1,1749,1814,0,0
532,-790,0,0,0,0,0,0,0,0,0,-1,1756,1814,0,0
539,-790,0,0,0,0,0,0,0,0,0,-1,1763,1814,0,0
546,-790,0,0,0,0,0,0,0,0,0,-1,1770,1814,0,0
553,-790,0,0,0,0,0,0,0,0,0,-1,1777,1814,0,0
560,-790,0,0,0,0,0,0,0,0,0,-1,1784,1814,0,0
567,-790,0,0,0,0,0,0,0,0,0,-1,1791,1814,0,0
574,-790,0,0,0,0,0,0,0,0,0,-1,1798,1814,0,0
581,-790,0,0,0,0,0,0,0,0,0,-1,1805,1814,0,0
588,-790,0,0,0,0,0,0,0,0,0,-1,1812,1814,0,0
595,-790,0,0,0,0,0,0,0,0,0,-1,1819,1814,0,0
602,-790,0,0,0,0,0,0,0,0,0,-1,1826,1814,0,0
609,-790,0,0,0,0,0,0,0,0,0,-1,1833,1814,0,0
616,-790,0,0,0,0,0,0,0,0,0,-1,1840,1814,0,0
623,-790,0,0,0,0,0,0,0,0,0,-1,1847,1814,0,0
630,-790,0,0,0,0,0,0,0,0,0,-1,1854,1814,0,0
637,-790,0,0,0,0,0,0,0,0,0,-1,1861,1814,0,0
644,-790,0,0,0,0,0,0,0,0,0,-1,1868,1814,0,0
651,-790,0,0,0,0,0,0,0,0,0,-1,1875,1814,0,0
658,-790,0,0,0,0,0,0,0,0,0,-1,1882,1814,0,0
665,-790,0,0,0,0,0,0,0,0,0,-1,1889,1814,0,0
672,-790,0,0,0,0,0,0,0,0,0,-1,1896,1814,0,0
679,-790,0,0,0,0,0,0,0,0,0,-1,1903,1814,0,0
686,-790,0,0,0,0,0,0,0,0,0,-1,1910,1814,0,0
693,-790,0,0,0,0,0,0,0,0,0,-1,1917,1814,0,0
700,-790,0,0,0,0,0,0,0,0,0,-1,1924,1814,0,0
707,-790,0,0,0,0,0,0,0,0,0,-1,1931,1814,0,0
714,-790,0,0,0,0,0,0,0,0,0,-1,1938,1814,0,0
721,-790,0,0,0,0,0,0,0,0,0,-1,1945,1814,0,0
728,-790,0,0,0,0,0,0,0,0,0,-1,1952,1814,0,0
735,-790,0,0,0,0,0,0,0,0,0,-1,1959,1814,0,0
742,-790,0,0,0,0,0,0,0,0,0,-1,1966,1814,0,0
749,-790,0,0,0,0,0,0,0,0,0,-1,1973,1814,0,0
756,-790,0,0,0,0,0,0,0,0,0,-1,1980,1814,0,0
763,-790,0,0,0,0,0,0,0,0,0,-1,1987,1814,0,0
770,-790,0,0,0,0,0,0,0,0,0,-1,1994,1814,0,0
777,-790,0,0,0,0,0,0,0,0,0,-1,2001,1814,0,0
784,-790,0,0,0,0,0,0,0,0,0,-1,2008,1814,0,0
791,-790,0,0,0,0,0,0,0,0,0,-1,2015,1814,0,0
798,-790,0,0,0,0,0,0,0,0,0,-1,2022,1814,0,0
805,-790,0,0,0,0,0,0,0,0,0,-1,2029,1814,0,0
812,-790,0,0,0,0,0,0,0,0,0,-1,2036,1814,0,0
-700,-797,0,0,0,0,0,0,0,0,0,-1,524,1821,0,0
-693,-797,0,0,0,0,0,0,0,0,0,-1,531,1821,0,0
-686,-797,0,0,0,0,0,0,0,0,0,-1,538,1821,0,0
-679,-797,0,0,0,0,0,0,0,0,0,-1,545,1821,0,0
-672,-797,0,0,0,0,0,0,0,0,0,-1,552,1821,0,0
-665,-797,0,0,0,0,0,0,0,0,0,-1,559,1821,0,0
-658,-797,0,0,0,0,0,0,0,0,0,-1,566,1821,0,0
-651,-797,0,0,0,0,0,0,0,0,0,-1,573,1821,0,0
-644,-797,0,0,0,0,0,0,0,0,0,-1,580,1821,0,0
-637,-797,0,0,0,0,0,0,0,0,0,-1,587,1821,0,0
-630,-797,0,0,0,0,0,0,0,0,0,-1,594,1821,0,0
-623,-797,0,0,0,0,0,0,0,0,0,-1,601,1821,0,0
-616,-797,0,0,0,0,0,0,0,0,0,-1,608,1821,0,0
-609,-797,0,0,0,0,0,0,0,0,0,-1,615,1821,0,0
-602,-797,0,0,0,0,0,0,0,0,0,-1,622,1821,0,0
-595,-797,0,0,0,0,0,0,0,0,0,-1,629,1821,0,0
-588,-797,0,0,0,0,0,0,0,0,0,-1,636,1821,0,0
-581,-797,0,0,0,0,0,0,0,0,0,-1,643,1821,0,0
-574,-797,0,0,0,0,0,0,0,0,0,-1,650,1821,0,0
-567,-797,0,0,0,0,0,0,0,0,0,-1,657,1821,0,0
-560,-797,0,0,0,0,0,0,0,0,0,-1,664,1821,0,0
-553,-797,0,0,0,0,0,0,0,0,0,-1,671,1821,0,0
-546,-797,0,0,0,0,0,0,0,0,0,-1,678,1821,0,0
-539,-797,0,0,0,0,0,0,0,0,0,-1,685,1821,0,0
-532,-797,0,0,0,0,0,0,0,0,0,-1,692,1821,0,0
-525,-797,0,0,0,0,0,0,0,0,0,-1,699,1821,0,0
-518,-797,0,0,0,0,0,0,0,0,0,-1,706,1821,0,0
-511,-797,0,0,0,0,0,0,0,0,0,-1,713,1821,0,0
-504,-797,0,0,0,0,0,0,0,0,0,-1,720,1821,0,0
-497,-797,0,0,0,0,0,0,0,0,0,-1,727,1821,0,0
-490,-797,0,0,0,0,0,0,0,0,0,-1,734,1821,0,0
-483,-797,0,0,0,0,0,0,0,0,0,-1,741,1821,0,0
-476,-797,0,0,0,0,0,0,0,0,0,-1,748,1821,0,0
-469,-797,0,0,0,0,0,0,0,0,0,-1,755,1821,0,0
-462,-797,0,0,0,0,0,0,0,0,0,-1,762,1821,0,0
-455,-797,0,0,0,0,0,0,0,0,0,-1,769,1821,0,0
-448,-797,0,0,0,0,0,0,0,0,0,-1,776,1821,0,0
-441,-797,0,0,0,0,0,0,0,0,0,-1,783,1821,0,0
-434,-797,0,0,0,0,0,0,0,0,0,-1,790,1821,0,0
-427,-797,0,0,0,0,0,0,0,0,0,-1,797,1821,0,0
-420,-797,0,0,0,0,0,0,0,0,0,-1,804,1821,0,0
-413,-797,0,0,0,0,0,0,0,0,0,-1,811,1821,0,0
-406,-797,0,0,0,0,0,0,0,0,0,-1,818,1821,0,0
-399,-797,0,0,0,0,0,0,0,0,0,-1,825,1821,0,0
-392,-797,0,0,0,0,0,0,0,0,0,-1,832,1821,0,0
-385,-797,0,0,0,0,0,0,0,0,0,-1,839,1821,0,0
-378,-797,0,0,0,0,0,0,0,0,0,-1,846,1821,0,0
-371,-797,0,0,0,0,0,0,0,0,0,-1,853,1821,0,0
-364,-797,0,0,0,0,0,0,0,0,0,-1,860,1821,0,0
-357,-797,0,0,0,0,0,0,0,0,0,-1,867,1821,0,0
-350,-797,0,0,0,0,0,0,0,0,0,-1,874,1821,0,0
-343,-797,0,0,0,0,0,0,0,0,0,-1,881,1821,0,0
-336,-797,0,0,0,0,0,0,0,0,0,-1,888,1821,0,0
-329,-797,0,0,0,0,0,0,0,0,0,-1,895,1821,0,0
-322,-797,0,0,0,0,0,0,0,0,0,-1,902,1821,0,0
-315,-797,0,0,0,0,0,0,0,0,0,-1,909,1821,0,0
-308,-797,0,0,0,0,0,0,0,0,0,-1,916,1821,0,0
-301,-797,0,0,0,0,0,0,0,0,0,-1,923,1821,0,0
-294,-797,0,0,0,0,0,0,0,0,0,-1,930,1821,0,0
-287,-797,0,0,0,0,0,0,0,0,0,-1,937,1821,0,0
-280,-797,0,0,0,0,0,0,0,0,0,-1,944,1821,0,0
-273,-797,0,0,0,0,0,0,0,0,0,-1,951,1821,0,0
-266,-797,0,0,0,0,0,0,0,0,0,-1,958,1821,0,0
-259,-797,0,0,0,0,0,0,0,0,0,-1,965,1821,0,0
-252,-797,0,0,0,0,0,0,0,0,0,-1,972,1821,0,0
-245,-797,0,0,0,0,0,0,0,0,0,-1,979,1821,0,0
-238,-797,0,0,0,0,0,0,0,0,0,-1,986,1821,0,0
-231,-797,0,0,0,0,0,0,0,0,0,-1,993,1821,0,0
-224,-797,0,0,0,0,0,0,0,0,0,-1,1000,1821,0,0
-217,-797,0,0,0,0,0,0,0,0,0,-1,1007,1821,0,0
-210,-797,0,0,0,0,0,0,0,0,0,-1,1014,1821,0,0
-203,-797,0,0,0,0,0,0,0,0,0,-1,1021,1821,0,0
-196,-797,0,0,0,0,0,0,0,0,0,-1,1028,1821,0,0
-189,-797,0,0,0,0,0,0,0,0,0,-1,1035,1821,0,0
-182,-797,0,0,0,0,0,0,0,0,0,-1,1042,1821,0,0
-175,-797,0,0,0,0,0,0,0,0,0,-1,1049,1821,0,0
-168,-797,0,0,0,0,0,0,0,0,0,-1,1056,1821,0,0
-161,-797,0,0,0,0,0,0,0,0,0,-1,1063,1821,0,0
-154,-797,0,0,0,0,0,0,0,0,0,-1,1070,1821,0,0
-147,-797,0,0,0,0,0,0,0,0,0,-1,1077,1821,0,0
-140,-797,0,0,0,0,0,0,0,0,0,-1,1084,1821,0,0
-133,-797,0,0,0,0,0,0,0,0,0,-1,1091,1821,0,0
-126,-797,0,0,0,0,0,0,0,0,0,-1,1098,1821,0,0
-119,-797,0,0,0,0,0,0,0,0,0,-1,1105,1821,0,0
-112,-797,0,0,0,0,0,0,0,0,0,-1,1112,1821,0,0
-105,-797,0,0,0,0,0,0,0,0,0,-1,1119,1821,0,0
-98,-797,0,0,0,0,0,0,0,0,0,-1,1126,1821,0,0
-91,-797,0,0,0,0,0,0,0,0,0,-1,1133,1821,0,0
-84,-797,0,0,0,0,0,0,0,0,0,-1,1140,1821,0,0
-77,-797,0,0,0,0,0,0,0,0,0,-1,1147,1821,0,0
-70,-797,0,0,0,0,0,0,0,0,0,-1,1154,1821,0,0
-63,-797,0,0,0,0,0,0,0,0,0,-1,1161,1821,0,0
-56,-797,0,0,0,0,0,0,0,0,0,-1,1168,1821,0,0
-49,-797,0,0,0,0,0,0,0,0,0,-1,1175,1821,0,0
-42,-797,0.579834,0.692871,0,0,0,0,0,0,0,-1,1182,1821,0.579856,-0.692816
-35,-797,-0.185425,5.55396,0,0,0,0,0,0,0,-1,1189,1821,-0.18542,-5.55396
-28,-797,-0.310181,4.71509,0,0,0,0,0,0,0,-1,1196,1821,-0.310228,-4.71503
-21,-797,5.16907,10.7031,0,0,0,0,0,0,0,-1,1203,1821,5.16903,-10.7031
-14,-797,5.5625,10.8151,0,0,0,0,0,0,0,-1,1210,1821,5.56254,-10.8151
-7,-797,5.6991,10.9692,0,0,0,0,0,0,0,-1,1217,1821,5.69913,-10.9693
0,-797,10.4633,11.9983,0,0,0,0,0,0,0,-1,1224,1821,10.4632,-11.9983
7,-797,9.00317,11.7859,0,0,0,0,0,0,0,-1,1231,1821,9.00318,-11.7858
14,-797,7.7085,11.6147,0,0,0,0,0,0,0,-1,1238,1821,7.70844,-11.6147
21,-797,6.70642,11.183,-0.101618,0.0891591,-0.0057149,0.0893302,-0.101789,-1.54088,0.110421,0.043242,1245,1821,6.70638,-11.183
28,-797,5.77319,10.9982,-0.0942175,0.0720675,-0.00232349,0.0720999,-0.09425,-1.55683,0.0963256,0.0439624,1252,1821,5.77317,-10.9982
35,-797,5.10486,11.6022,-0.0875625,0.0528123,0.00225179,0.0528485,-0.0875986,1.55476,0.0819103,0.0495895,1259,1821,5.10482,-11.6022
42,-797,4.04553,10.3011,0,0,0,0,0,0,0,-1,1266,1821,4.04559,-10.3011
49,-797,4.56152,10.7997,0,0,0,0,0,0,0,-1,1273,1821,4.56148,-10.7996
56,-797,4.24194,11.0784,0,0,0,0,0,0,0,-1,1280,1821,4.2419,-11.0784
63,-797,3.46851,12.3264,-0.0553119,-0.0214912,0.0232147,-0.00968084,-0.0671223,1.10018,0.0418957,0.0405316,1287,1821,3.46849,-12.3264
70,-797,2.92859,12.4626,-0.0454394,-0.0366938,0.0277439,-0.0129802,-0.069153,0.863562,0.0424422,0.0409934,1294,1821,2.92864,-12.4626
77,-797,2.28455,12.2527,-0.0340125,-0.0510846,0.0322755,-0.00916329,-0.0759338,0.656121,0.0478614,0.0419263,1301,1821,2.2845,-12.2526
84,-797,2.08228,12.8578,-0.0214761,-0.0634659,0.0354355,-0.00128289,-0.0836591,0.517961,0.05535,0.0452197,1308,1821,2.08226,-12.8578
91,-797,1.77002,13.2753,-0.00780908,-0.0728187,0.0376791,0.00944835,-0.0900762,0.429495,0.0634352,0.0459332,1315,1821,1.77006,-13.2753
98,-797,1.8623,14.0787,0,0,0,0,0,0,0,-1,1322,1821,1.86236,-14.0787
105,-797,1.99463,15.3315,0.0217017,-0.0870691,0.0396553,0.0346239,-0.0999914,0.315013,0.0807167,0.0450244,1329,1821,1.99464,-15.3316
112,-797,2.20703,16.4424,0.0365635,-0.0944351,0.040632,0.0481429,-0.106014,0.277621,0.0910693,0.0454972,1336,1821,2.20697,-16.4424
119,-797,2.18127,17.2426,0,0,0,0,0,0,0,-1,1343,1821,2.18122,-17.2426
126,-797,2.03894,17.6969,0,0,0,0,0,0,0,-1,1350,1821,2.03898,-17.6969
133,-797,2.19946,18.1549,0,0,0,0,0,0,0,-1,1357,1821,2.19946,-18.1549
140,-797,8.08594,10.7717,0,0,0,0,0,0,0,-1,1364,1821,8.08597,-10.7718
147,-797,7.0835,11.9205,0,0,0,0,0,0,0,-1,1371,1821,7.08348,-11.9205
154,-797,6.33545,-1.19055,0,0,0,0,0,0,0,-1,1378,1821,6.33548,1.19052
161,-797,6.79199,1.12952,0,0,0,0,0,0,0,-1,1385,1821,6.79203,-1.12957
168,-797,0,0,0,0,0,0,0,0,0,-1,1392,1821,0,0
175,-797,0,0,0,0,0,0,0,0,0,-1,1399,1821,0,0
182,-797,0,0,0,0,0,0,0,0,0,-1,1406,1821,0,0
189,-797,0,0,0,0,0,0,0,0,0,-1,1413,1821,0,0
196,-797,0,0,0,0,0,0,0,0,0,-1,1420,1821,0,0
203,-797,0,0,0,0,0,0,0,0,0,-1,1427,1821,0,0
210,-797,0,0,0,0,0,0,0,0,0,-1,1434,1821,0,0
217,-797,0,0,0,0,0,0,0,0,0,-1,1441,1821,0,0
224,-797,0,0,0,0,0,0,0,0,0,-1,1448,1821,0,0
231,-797,0,0,0,0,0,0,0,0,0,-1,1455,1821,0,0
238,-797,0,0,0,0,0,0,0,0,0,-1,1462,1821,0,0
245,-797,0,0,0,0,0,0,0,0,0,-1,1469,1821,0,0
252,-797,0,0,0,0,0,0,0,0,0,-1,1476,1821,0,0
259,-797,0,0,0,0,0,0,0,0,0,-1,1483,1821,0,0
266,-797,0,0,0,0,0,0,0,0,0,-1,1490,1821,0,0
273,-797,0,0,0,0,0,0,0,0,0,-1,1497,1821,0,0
280,-797,0,0,0,0,0,0,0,0,0,-1,1504,1821,0,0
287,-797,0,0,0,0,0,0,0,0,0,-1,1511,1821,0,0
294,-797,0,0,0,0,0,0,0,0,0,-1,1518,1821,0,0
301,-797,0,0,0,0,0,0,0,0,0,-1,1525,1821,0,0
308,-797,0,0,0,0,0,0,0,0,0,-1,1532,1821,0,0
315,-797,0,0,0,0,0,0,0,0,0,-1,1539,1821,0,0
322,-797,0,0,0,0,0,0,0,0,0,-1,1546,1821,0,0
329,-797,0,0,0,0,0,0,0,0,0,-1,1553,1821,0,0
336,-797,0,0,0,0,0,0,0,0,0,-1,1560,1821,0,0
343,-797,0,0,0,0,0,0,0,0,0,-1,1567,1821,0,0
350,-797,0,0,0,0,0,0,0,0,0,-1,1574,1821,0,0
357,-797,0,0,0,0,0,0,0,0,0,-1,1581,1821,0,0
364,-797,0,0,0,0,0,0,0,0,0,-1,1588,1821,0,0
371,-797,0,0,0,0,0,0,0,0,0,-1,1595,1821,0,0
378,-797,0,0,0,0,0,0,0,0,0,-1,1602,1821,0,0
385,-797,0,0,0,0,0,0,0,0,0,-1,1609,1821,0,0
392,-797,0,0,0,0,0,0,0,0,0,-1,1616,1821,0,0
399,-797,0,0,0,0,0,0,0,0,0,-1,1623,1821,0,0
406,-797,0,0,0,0,0,0,0,0,0,-1,1630,1821,0,0
413,-797,0,0,0,0,0,0,0,0,0,-1,1637,1821,0,0
420,-797,0,0,0,0,0,0,0,0,0,-1,1644,1821,0,0
427,-797,0,0,0,0,0,0,0,0,0,-1,1651,1821,0,0
434,-797,0,0,0,0,0,0,0,0,0,-1,1658,1821,0,0
441,-797,0,0,0,0,0,0,0,0,0,-1,1665,1821,0,0
448,-797,0,0,0,0,0,0,0,0,0,-1,1672,1821,0,0
455,-797,0,0,0,0,0,0,0,0,0,-1,1679,1821,0,0
462,-797,0,0,0,0,0,0,0,0,0,-1,1686,1821,0,0
469,-797,0,0,0,0,0,0,0,0,0,-1,1693,1821,0,0
476,-797,0,0,0,0,0,0,0,0,0,-1,1700,1821,0,0
483,-797,0,0,0,0,0,0,0,0,0,-1,1707,1821,0,0
490,-797,0,0,0,0,0,0,0,0,0,-1,1714,1821,0,0
497,-797,0,0,0,0,0,0,0,0,0,-1,1721,1821,0,0
504,-797,0,0,0,0,0,0,0,0,0,-1,1728,1821,0,0
511,-797,0,0,0,0,0,0,0,0,0,-1,1735,1821,0,0
518,-797,0,0,0,0,0,0,0,0,0,-1,1742,1821,0,0
525,-797,0,0,0,0,0,0,0,0,0,-1,1749,1821,0,0
532,-797,0,0,0,0,0,0,0,0,0,-1,1756,1821,0,0
539,-797,0,0,0,0,0,0,0,0,0,-1,1763,1821,0,0
546,-797,0,0,0,0,0,0,0,0,0,-1,1770,1821,0,0
553,-797,0,0,0,0,0,0,0,0,0,-1,1777,1821,0,0
560,-797,0,0,0,0,0,0,0,0,0,-1,1784,1821,0,0
567,-797,0,0,0,0,0,0,0,0,0,-1,1791,1821,0,0
574,-797,0,0,0,0,0,0,0,0,0,-1,1798,1821,0,0
581,-797,0,0,0,0,0,0,0,0,0,-1,1805,1821,0,0
588,-797,0,0,0,0,0,0,0,0,0,-1,1812,1821,0,0
595,-797,0,0,0,0,0,0,0,0,0,-1,1819,1821,0,0
602,-797,0,0,0,0,0,0,0,0,0,-1,1826,1821,0,0
609,-797,0,0,0,0,0,0,0,0,0,-1,1833,1821,0,0
616,-797,0,0,0,0,0,0,0,0,0,-1,1840,1821,0,0
623,-797,0,0,0,0,0,0,0,0,0,-1,1847,1821,0,0
630,-797,0,0,0,0,0,0,0,0,0,-1,1854,1821,0,0
637,-797,0,0,0,0,0,0,0,0,0,-1,1861,1821,0,0
644,-797,0,0,0,0,0,0,0,0,0,-1,1868,1821,0,0
651,-797,0,0,0,0,0,0,0,0,0,-1,1875,1821,0,0
658,-797,0,0,0,0,0,0,0,0,0,-1,1882,1821,0,0
665,-797,0,0,0,0,0,0,0,0,0,-1,1889,1821,0,0
672,-797,0,0,0,0,0,0,0,0,0,-1,1896,1821,0,0
679,-797,0,0,0,0,0,0,0,0,0,-1,1903,1821,0,0
686,-797,0,0,0,0,0,0,0,0,0,-1,1910,1821,0,0
693,-797,0,0,0,0,0,0,0,0,0,-1,1917,1821,0,0
700,-797,0,0,0,0,0,0,0,0,0,-1,1924,1821,0,0
707,-797,0,0,0,0,0,0,0,0,0,-1,1931,1821,0,0
714,-797,0,0,0,0,0,0,0,0,0,-1,1938,1821,0,0
721,-797,0,0,0,0,0,0,0,0,0,-1,1945,1821,0,0
728,-797,0,0,0,0,0,0,0,0,0,-1,1952,1821,0,0
735,-797,0,0,0,0,0,0,0,0,0,-1,1959,1821,0,0
742,-797,0,0,0,0,0,0,0,0,0,-1,1966,1821,0,0
749,-797,0,0,0,0,0,0,0,0,0,-1,1973,1821,0,0
756,-797,0,0,0,0,0,0,0,0,0,-1,1980,1821,0,0
763,-797,0,0,0,0,0,0,0,0,0,-1,1987,1821,0,0
770,-797,0,0,0,0,0,0,0,0,0,-1,1994,1821,0,0
777,-797,0,0,0,0,0,0,0,0,0,-1,2001,1821,0,0
784,-797,0,0,0,0,0,0,0,0,0,-1,2008,1821,0,0
791,-797,0,0,0,0,0,0,0,0,0,-1,2015,1821,0,0
798,-797,0,0,0,0,0,0,0,0,0,-1,2022,1821,0,0
805,-797,0,0,0,0,0,0,0,0,0,-1,2029,1821,0,0
812,-797,0,0,0,0,0,0,0,0,0,-1,2036,1821,0,0
-700,-804,0,0,0,0,0,0,0,0,0,-1,524,1828,0,0
-693,-804,0,0,0,0,0,0,0,0,0,-1,531,1828,0,0
-686,-804,0,0,0,0,0,0,0,0,0,-1,538,1828,0,0
-679,-804,0,0,0,0,0,0,0,0,0,-1,545,1828,0,0
-672,-804,0,0,0,0,0,0,0,0,0,-1,552,1828,0,0
-665,-804,0,0,0,0,0,0,0,0,0,-1,559,1828,0,0
-658,-804,0,0,0,0,0,0,0,0,0,-1,566,1828,0,0
-651,-804,0,0,0,0,0,0,0,0,0,-1,573,1828,0,0
-644,-804,0,0,0,0,0,0,0,0,0,-1,580,1828,0,0
-637,-804,0,0,0,0,0,0,0,0,0,-1,587,1828,0,0
-630,-804,0,0,0,0,0,0,0,0,0,-1,594,1828,0,0
-623,-804,0,0,0,0,0,0,0,0,0,-1,601,1828,0,0
-616,-804,0,0,0,0,0,0,0,0,0,-1,608,1828,0,0
-609,-804,0,0,0,0,0,0,0,0,0,-1,615,1828,0,0
-602,-804,0,0,0,0,0,0,0,0,0,-1,622,1828,0,0
-595,-804,0,0,0,0,0,0,0,0,0,-1,629,1828,0,0
-588,-804,0,0,0,0,0,0,0,0,0,-1,636,1828,0,0
-581,-804,0,0,0,0,0,0,0,0,0,-1,643,1828,0,0
-574,-804,0,0,0,0,0,0,0,0,0,-1,650,1828,0,0
-567,-804,0,0,0,0,0,0,0,0,0,-1,657,1828,0,0
-560,-804,0,0,0,0,0,0,0,0,0,-1,664,1828,0,0
-553,-804,0,0,0,0,0,0,0,0,0,-1,671,1828,0,0
-546,-804,0,0,0,0,0,0,0,0,0,-1,678,1828,0,0
-539,-804,0,0,0,0,0,0,0,0,0,-1,685,1828,0,0
-532,-804,0,0,0,0,0,0,0,0,0,-1,692,1828,0,0
-525,-804,0,0,0,0,0,0,0,0,0,-1,699,1828,0,0
-518,-804,0,0,0,0,0,0,0,0,0,-1,706,1828,0,0
-511,-804,0,0,0,0,0,0,0,0,0,-1,713,1828,0,0
-504,-804,0,0,0,0,0,0,0,0,0,-1,720,1828,0,0
-497,-804,0,0,0,0,0,0,0,0,0,-1,727,1828,0,0
-490,-804,0,0,0,0,0,0,0,0,0,-1,734,1828,0,0
-483,-804,0,0,0,0,0,0,0,0,0,-1,741,1828,0,0
-476,-804,0,0,0,0,0,0,0,0,0,-1,748,1828,0,0
-469,-804,0,0,0,0,0,0,0,0,0,-1,755,1828,0,0
-462,-804,0,0,0,0,0,0,0,0,0,-1,762,1828,0,0
-455,-804,0,0,0,0,0,0,0,0,0,-1,769,1828,0,0
-448,-804,0,0,0,0,0,0,0,0,0,-1,776,1828,0,0
-441,-804,0,0,0,0,0,0,0,0,0,-1,783,1828,0,0
-434,-804,0,0,0,0,0,0,0,0,0,-1,790,1828,0,0
-427,-804,0,0,0,0,0,0,0,0,0,-1,797,1828,0,0
-420,-804,0,0,0,0,0,0,0,0,0,-1,804,1828,0,0
-413,-804,0,0,0,0,0,0,0,0,0,-1,811,1828,0,0
-406,-804,0,0,0,0,0,0,0,0,0,-1,818,1828,0,0
-399,-804,0,0,0,0,0,0,0,0,0,-1,825,1828,0,0
-392,-804,0,0,0,0,0,0,0,0,0,-1,832,1828,0,0
-385,-804,0,0,0,0,0,0,0,0,0,-1,839,1828,0,0
-378,-804,0,0,0,0,0,0,0,0,0,-1,846,1828,0,0
-371,-804,0,0,0,0,0,0,0,0,0,-1,853,1828,0,0
-364,-804,0,0,0,0,0,0,0,0,0,-1,860,1828,0,0
-357,-804,0,0,0,0,0,0,0,0,0,-1,867,1828,0,0
-350,-804,0,0,0,0,0,0,0,0,0,-1,874,1828,0,0
-343,-804,0,0,0,0,0,0,0,0,0,-1,881,1828,0,0
-336,-804,0,0,0,0,0,0,0,0,0,-1,888,1828,0,0
-329,-804,0,0,0,0,0,0,0,0,0,-1,895,1828,0,0
-322,-804,0,0,0,0,0,0,0,0,0,-1,902,1828,0,0
-315,-804,0,0,0,0,0,0,0,0,0,-1,909,1828,0,0
-308,-804,0,0,0,0,0,0,0,0,0,-1,916,1828,0,0
-301,-804,0,0,0,0,0,0,0,0,0,-1,923,1828,0,0
-294,-804,0,0,0,0,0,0,0,0,0,-1,930,1828,0,0
-287,-804,0,0,0,0,0,0,0,0,0,-1,937,1828,0,0
-280,-804,0,0,0,0,0,0,0,0,0,-1,944,1828,0,0
-273,-804,0,0,0,0,0,0,0,0,0,-1,951,1828,0,0
-266,-804,0,0,0,0,0,0,0,0,0,-1,958,1828,0,0
-259,-804,0,0,0,0,0,0,0,0,0,-1,965,1828,0,0
-252,-804,0,0,0,0,0,0,0,0,0,-1,972,1828,0,0
-245,-804,0,0,0,0,0,0,0,0,0,-1,979,1828,0,0
-238,-804,0,0,0,0,0,0,0,0,0,-1,986,1828,0,0
-231,-804,0,0,0,0,0,0,0,0,0,-1,993,1828,0,0
-224,-804,0,0,0,0,0,0,0,0,0,-1,1000,1828,0,0
-217,-804,0,0,0,0,0,0,0,0,0,-1,1007,1828,0,0
-210,-804,0,0,0,0,0,0,0,0,0,-1,1014,1828,0,0
-203,-804,0,0,0,0,0,0,0,0,0,-1,1021,1828,0,0
-196,-804,0,0,0,0,0,0,0,0,0,-1,1028,1828,0,0
-189,-804,0,0,0,0,0,0,0,0,0,-1,1035,1828,0,0
-182,-804,0,0,0,0,0,0,0,0,0,-1,1042,1828,0,0
-175,-804,0,0,0,0,0,0,0,0,0,-1,1049,1828,0,0
-168,-804,0,0,0,0,0,0,0,0,0,-1,1056,1828,0,0
-161,-804,0,0,0,0,0,0,0,0,0,-1,1063,1828,0,0
-154,-804,0,0,0,0,0,0,0,0,0,-1,1070,1828,0,0
-147,-804,0,0,0,0,0,0,0,0,0,-1,1077,1828,0,0
-140,-804,0,0,0,0,0,0,0,0,0,-1,1084,1828,0,0
-133,-804,0,0,0,0,0,0,0,0,0,-1,1091,1828,0,0
-126,-804,0,0,0,0,0,0,0,0,0,-1,1098,1828,0,0
-119,-804,0,0,0,0,0,0,0,0,0,-1,1105,1828,0,0
-112,-804,0,0,0,0,0,0,0,0,0,-1,1112,1828,0,0
-105,-804,0,0,0,0,0,0,0,0,0,-1,1119,1828,0,0
-98,-804,0,0,0,0,0,0,0,0,0,-1,1126,1828,0,0
-91,-804,0,0,0,0,0,0,0,0,0,-1,1133,1828,0,0
-84,-804,0,0,0,0,0,0,0,0,0,-1,1140,1828,0,0
-77,-804,0,0,0,0,0,0,0,0,0,-1,1147,1828,0,0
-70,-804,0,0,0,0,0,0,0,0,0,-1,1154,1828,0,0
-63,-804,0,0,0,0,0,0,0,0,0,-1,1161,1828,0,0
-56,-804,0,0,0,0,0,0,0,0,0,-1,1168,1828,0,0
-49,-804,0,0,0,0,0,0,0,0,0,-1,1175,1828,0,0
-42,-804,0,0,0,0,0,0,0,0,0,-1,1182,1828,0,0
-35,-804,0,0,0,0,0,0,0,0,0,-1,1189,1828,0,0
-28,-804,0,0,0,0,0,0,0,0,0,-1,1196,1828,0,0
-21,-804,0,0,0,0,0,0,0,0,0,-1,1203,1828,0,0
-14,-804,0,0,0,0,0,0,0,0,0,-1,1210,1828,0,0
-7,-804,0,0,0,0,0,0,0,0,0,-1,1217,1828,0,0
0,-804,0,0,0,0,0,0,0,0,0,-1,1224,1828,0,0
7,-804,0,0,0,0,0,0,0,0,0,-1,1231,1828,0,0
14,-804,0,0,0,0,0,0,0,0,0,-1,1238,1828,0,0
21,-804,0,0,0,0,0,0,0,0,0,-1,1245,1828,0,0
28,-804,0,0,0,0,0,0,0,0,0,-1,1252,1828,0,0
35,-804,5.31543,11.2777,0,0,0,0,0,0,0,-1,1259,1828,5.31537,-11.2777
42,-804,-1.18494,6.64001,0,0,0,0,0,0,0,-1,1266,1828,-1.18499,-6.64001
49,-804,4.95398,10.6587,0,0,0,0,0,0,0,-1,1273,1828,4.95403,-10.6587
56,-804,3.57239,12.7137,0,0,0,0,0,0,0,-1,1280,1828,3.5724,-12.7138
63,-804,3.17236,12.9948,-0.0699315,-0.0391003,0.0283048,-0.0222854,-0.0867463,1.03475,0.0520188,0.0477921,1287,1828,3.17233,-12.9947
70,-804,2.75452,13.3192,-0.0589825,-0.0579627,0.0343095,-0.0241594,-0.0927859,0.792829,0.0555827,0.0464291,1294,1828,2.75457,-13.3193
77,-804,2.34631,13.6377,-0.0460039,-0.0753128,0.0406702,-0.0174285,-0.103888,0.612477,0.0642422,0.0440658,1301,1828,2.34629,-13.6377
84,-804,1.94629,13.8524,-0.0315114,-0.0899438,0.0453427,-0.00678737,-0.114668,0.499205,0.0742862,0.0421282,1308,1828,1.94623,-13.8524
91,-804,0,0,0,0,0,0,0,0,0,-1,1315,1828,0,0
98,-804,0,0,0,0,0,0,0,0,0,-1,1322,1828,0,0
105,-804,0,0,0,0,0,0,0,0,0,-1,1329,1828,0,0
112,-804,0,0,0,0,0,0,0,0,0,-1,1336,1828,0,0
119,-804,0,0,0,0,0,0,0,0,0,-1,1343,1828,0,0
126,-804,0,0,0,0,0,0,0,0,0,-1,1350,1828,0,0
133,-804,0,0,0,0,0,0,0,0,0,-1,1357,1828,0,0
140,-804,0,0,0,0,0,0,0,0,0,-1,1364,1828,0,0
147,-804,0,0,0,0,0,0,0,0,0,-1,1371,1828,0,0
154,-804,0,0,0,0,0,0,0,0,0,-1,1378,1828,0,0
161,-804,0,0,0,0,0,0,0,0,0,-1,1385,1828,0,0
168,-804,0,0,0,0,0,0,0,0,0,-1,1392,1828,0,0
175,-804,0,0,0,0,0,0,0,0,0,-1,1399,1828,0,0
182,-804,0,0,0,0,0,0,0,0,0,-1,1406,1828,0,0
189,-804,0,0,0,0,0,0,0,0,0,-1,1413,1828,0,0
196,-804,0,0,0,0,0,0,0,0,0,-1,1420,1828,0,0
203,-804,0,0,0,0,0,0,0,0,0,-1,1427,1828,0,0
210,-804,0,0,0,0,0,0,0,0,0,-1,1434,1828,0,0
217,-804,0,0,0,0,0,0,0,0,0,-1,1441,1828,0,0
224,-804,0,0,0,0,0,0,0,0,0,-1,1448,1828,0,0
231,-804,0,0,0,0,0,0,0,0,0,-1,1455,1828,0,0
238,-804,0,0,0,0,0,0,0,0,0,-1,1462,1828,0,0
245,-804,0,0,0,0,0,0,0,0,0,-1,1469,1828,0,0
252,-804,0,0,0,0,0,0,0,0,0,-1,1476,1828,0,0
259,-804,0,0,0,0,0,0,0,0,0,-1,1483,1828,0,0
266,-804,0,0,0,0,0,0,0,0,0,-1,1490,1828,0,0
273,-804,0,0,0,0,0,0,0,0,0,-1,1497,1828,0,0
280,-804,0,0,0,0,0,0,0,0,0,-1,1504,1828,0,0
287,-804,0,0,0,0,0,0,0,0,0,-1,1511,1828,0,0
294,-804,0,0,0,0,0,0,0,0,0,-1,1518,1828,0,0
301,-804,0,0,0,0,0,0,0,0,0,-1,1525,1828,0,0
308,-804,0,0,0,0,0,0,0,0,0,-1,1532,1828,0,0
315,-804,0,0,0,0,0,0,0,0,0,-1,1539,1828,0,0
322,-804,0,0,0,0,0,0,0,0,0,-1,1546,1828,0,0
329,-804,0,0,0,0,0,0,0,0,0,-1,1553,1828,0,0
336,-804,0,0,0,0,0,0,0,0,0,-1,1560,1828,0,0
343,-804,0,0,0,0,0,0,0,0,0,-1,1567,1828,0,0
350,-804,0,0,0,0,0,0,0,0,0,-1,1574,1828,0,0
357,-804,0,0,0,0,0,0,0,0,0,-1,1581,1828,0,0
364,-804,0,0,0,0,0,0,0,0,0,-1,1588,1828,0,0
371,-804,0,0,0,0,0,0,0,0,0,-1,1595,1828,0,0
378,-804,0,0,0,0,0,0,0,0,0,-1,1602,1828,0,0
385,-804,0,0,0,0,0,0,0,0,0,-1,1609,1828,0,0
392,-804,0,0,0,0,0,0,0,0,0,-1,1616,1828,0,0
399,-804,0,0,0,0,0,0,0,0,0,-1,1623,1828,0,0
406,-804,0,0,0,0,0,0,0,0,0,-1,1630,1828,0,0
413,-804,0,0,0,0,0,0,0,0,0,-1,1637,1828,0,0
420,-804,0,0,0,0,0,0,0,0,0,-1,1644,1828,0,0
427,-804,0,0,0,0,0,0,0,0,0,-1,1651,1828,0,0
434,-804,0,0,0,0,0,0,0,0,0,-1,1658,1828,0,0
441,-804,0,0,0,0,0,0,0,0,0,-1,1665,1828,0,0
448,-804,0,0,0,0,0,0,0,0,0,-1,1672,1828,0,0
455,-804,0,0,0,0,0,0,0,0,0,-1,1679,1828,0,0
462,-804,0,0,0,0,0,0,0,0,0,-1,1686,1828,0,0
469,-804,0,0,0,0,0,0,0,0,0,-1,1693,1828,0,0
476,-804,0,0,0,0,0,0,0,0,0,-1,1700,1828,0,0
483,-804,0,0,0,0,0,0,0,0,0,-1,1707,1828,0,0
490,-804,0,0,0,0,0,0,0,0,0,-1,1714,1828,0,0
497,-804,0,0,0,0,0,0,0,0,0,-1,1721,1828,0,0
504,-804,0,0,0,0,0,0,0,0,0,-1,1728,1828,0,0
511,-804,0,0,0,0,0,0,0,0,0,-1,1735,1828,0,0
518,-804,0,0,0,0,0,0,0,0,0,-1,1742,1828,0,0
525,-804,0,0,0,0,0,0,0,0,0,-1,1749,1828,0,0
532,-804,0,0,0,0,0,0,0,0,0,-1,1756,1828,0,0
539,-804,0,0,0,0,0,0,0,0,0,-1,1763,1828,0,0
546,-804,0,0,0,0,0,0,0,0,0,-1,1770,1828,0,0
553,-804,0,0,0,0,0,0,0,0,0,-1,1777,1828,0,0
560,-804,0,0,0,0,0,0,0,0,0,-1,1784,1828,0,0
567,-804,0,0,0,0,0,0,0,0,0,-1,1791,1828,0,0
574,-804,0,0,0,0,0,0,0,0,0,-1,1798,1828,0,0
581,-804,0,0,0,0,0,0,0,0,0,-1,1805,1828,0,0
588,-804,0,0,0,0,0,0,0,0,0,-1,1812,1828,0,0
595,-804,0,0,0,0,0,0,0,0,0,-1,1819,1828,0,0
602,-804,0,0,0,0,0,0,0,0,0,-1,1826,1828,0,0
609,-804,0,0,0,0,0,0,0,0,0,-1,1833,1828,0,0
616,-804,0,0,0,0,0,0,0,0,0,-1,1840,1828,0,0
623,-804,0,0,0,0,0,0,0,0,0,-1,1847,1828,0,0
630,-804,0,0,0,0,0,0,0,0,0,-1,1854,1828,0,0
637,-804,0,0,0,0,0,0,0,0,0,-1,1861,1828,0,0
644,-804,0,0,0,0,0,0,0,0,0,-1,1868,1828,0,0
651,-804,0,0,0,0,0,0,0,0,0,-1,1875,1828,0,0
658,-804,0,0,0,0,0,0,0,0,0,-1,1882,1828,0,0
665,-804,0,0,0,0,0,0,0,0,0,-1,1889,1828,0,0
672,-804,0,0,0,0,0,0,0,0,0,-1,1896,1828,0,0
679,-804,0,0,0,0,0,0,0,0,0,-1,1903,1828,0,0
686,-804,0,0,0,0,0,0,0,0,0,-1,1910,1828,0,0
693,-804,0,0,0,0,0,0,0,0,0,-1,1917,1828,0,0
700,-804,0,0,0,0,0,0,0,0,0,-1,1924,1828,0,0
707,-804,0,0,0,0,0,0,0,0,0,-1,1931,1828,0,0
714,-804,0,0,0,0,0,0,0,0,0,-1,1938,1828,0,0
721,-804,0,0,0,0,0,0,0,0,0,-1,1945,1828,0,0
728,-804,0,0,0,0,0,0,0,0,0,-1,1952,1828,0,0
735,-804,0,0,0,0,0,0,0,0,0,-1,1959,1828,0,0
742,-804,0,0,0,0,0,0,0,0,0,-1,1966,1828,0,0
749,-804,0,0,0,0,0,0,0,0,0,-1,1973,1828,0,0
756,-804,0,0,0,0,0,0,0,0,0,-1,1980,1828,0,0
763,-804,0,0,0,0,0,0,0,0,0,-1,1987,1828,0,0
770,-804,0,0,0,0,0,0,0,0,0,-1,1994,1828,0,0
777,-804,0,0,0,0,0,0,0,0,0,-1,2001,1828,0,0
784,-804,0,0,0,0,0,0,0,0,0,-1,2008,1828,0,0
791,-804,0,0,0,0,0,0,0,0,0,-1,2015,1828,0,0
798,-804,0,0,0,0,0,0,0,0,0,-1,2022,1828,0,0
805,-804,0,0,0,0,0,0,0,0,0,-1,2029,1828,0,0
812,-804,0,0,0,0,0,0,0,0,0,-1,2036,1828,0,0

