 "x_c",  "y_c",  "u_c",  "v_c",  "exx",  "eyy",  "exy",  "e1",  "e2",  "gamma",  "e_vonmises",  "sigma",  "x",  "y",  "u",  "v"
-700,715,0,0,0,0,0,0,0,0,0,-1,524,309,0,0
-693,715,0,0,0,0,0,0,0,0,0,-1,531,309,0,0
-686,715,0,0,0,0,0,0,0,0,0,-1,538,309,0,0
-679,715,0,0,0,0,0,0,0,0,0,-1,545,309,0,0
-672,715,0,0,0,0,0,0,0,0,0,-1,552,309,0,0
-665,715,0,0,0,0,0,0,0,0,0,-1,559,309,0,0
-658,715,0,0,0,0,0,0,0,0,0,-1,566,309,0,0
-651,715,0,0,0,0,0,0,0,0,0,-1,573,309,0,0
-644,715,0,0,0,0,0,0,0,0,0,-1,580,309,0,0
-637,715,0,0,0,0,0,0,0,0,0,-1,587,309,0,0
-630,715,0,0,0,0,0,0,0,0,0,-1,594,309,0,0
-623,715,0,0,0,0,0,0,0,0,0,-1,601,309,0,0
-616,715,0,0,0,0,0,0,0,0,0,-1,608,309,0,0
-609,715,0,0,0,0,0,0,0,0,0,-1,615,309,0,0
-602,715,0,0,0,0,0,0,0,0,0,-1,622,309,0,0
-595,715,0,0,0,0,0,0,0,0,0,-1,629,309,0,0
-588,715,0,0,0,0,0,0,0,0,0,-1,636,309,0,0
-581,715,0,0,0,0,0,0,0,0,0,-1,643,309,0,0
-574,715,0,0,0,0,0,0,0,0,0,-1,650,309,0,0
-567,715,0,0,0,0,0,0,0,0,0,-1,657,309,0,0
-560,715,0,0,0,0,0,0,0,0,0,-1,664,309,0,0
-553,715,0,0,0,0,0,0,0,0,0,-1,671,309,0,0
-546,715,0,0,0,0,0,0,0,0,0,-1,678,309,0,0
-539,715,0,0,0,0,0,0,0,0,0,-1,685,309,0,0
-532,715,0,0,0,0,0,0,0,0,0,-1,692,309,0,0
-525,715,0,0,0,0,0,0,0,0,0,-1,699,309,0,0
-518,715,0,0,0,0,0,0,0,0,0,-1,706,309,0,0
-511,715,0,0,0,0,0,0,0,0,0,-1,713,309,0,0
-504,715,0,0,0,0,0,0,0,0,0,-1,720,309,0,0
-497,715,0,0,0,0,0,0,0,0,0,-1,727,309,0,0
-490,715,0,0,0,0,0,0,0,0,0,-1,734,309,0,0
-483,715,0,0,0,0,0,0,0,0,0,-1,741,309,0,0
-476,715,0,0,0,0,0,0,0,0,0,-1,748,309,0,0
-469,715,0,0,0,0,0,0,0,0,0,-1,755,309,0,0
-462,715,0,0,0,0,0,0,0,0,0,-1,762,309,0,0
-455,715,0,0,0,0,0,0,0,0,0,-1,769,309,0,0
-448,715,0,0,0,0,0,0,0,0,0,-1,776,309,0,0
-441,715,0,0,0,0,0,0,0,0,0,-1,783,309,0,0
-434,715,0,0,0,0,0,0,0,0,0,-1,790,309,0,0
-427,715,0,0,0,0,0,0,0,0,0,-1,797,309,0,0
-420,715,0,0,0,0,0,0,0,0,0,-1,804,309,0,0
-413,715,0,0,0,0,0,0,0,0,0,-1,811,309,0,0
-406,715,0,0,0,0,0,0,0,0,0,-1,818,309,0,0
-399,715,0,0,0,0,0,0,0,0,0,-1,825,309,0,0
-392,715,0,0,0,0,0,0,0,0,0,-1,832,309,0,0
-385,715,0,0,0,0,0,0,0,0,0,-1,839,309,0,0
-378,715,0,0,0,0,0,0,0,0,0,-1,846,309,0,0
-371,715,0,0,0,0,0,0,0,0,0,-1,853,309,0,0
-364,715,0,0,0,0,0,0,0,0,0,-1,860,309,0,0
-357,715,0,0,0,0,0,0,0,0,0,-1,867,309,0,0
-350,715,0,0,0,0,0,0,0,0,0,-1,874,309,0,0
-343,715,0,0,0,0,0,0,0,0,0,-1,881,309,0,0
-336,715,0,0,0,0,0,0,0,0,0,-1,888,309,0,0
-329,715,0,0,0,0,0,0,0,0,0,-1,895,309,0,0
-322,715,0,0,0,0,0,0,0,0,0,-1,902,309,0,0
-315,715,0,0,0,0,0,0,0,0,0,-1,909,309,0,0
-308,715,0,0,0,0,0,0,0,0,0,-1,916,309,0,0
-301,715,0,0,0,0,0,0,0,0,0,-1,923,309,0,0
-294,715,0,0,0,0,0,0,0,0,0,-1,930,309,0,0
-287,715,0,0,0,0,0,0,0,0,0,-1,937,309,0,0
-280,715,0,0,0,0,0,0,0,0,0,-1,944,309,0,0
-273,715,0,0,0,0,0,0,0,0,0,-1,951,309,0,0
-266,715,0,0,0,0,0,0,0,0,0,-1,958,309,0,0
-259,715,0,0,0,0,0,0,0,0,0,-1,965,309,0,0
-252,715,0,0,0,0,0,0,0,0,0,-1,972,309,0,0
-245,715,0,0,0,0,0,0,0,0,0,-1,979,309,0,0
-238,715,0,0,0,0,0,0,0,0,0,-1,986,309,0,0
-231,715,0,0,0,0,0,0,0,0,0,-1,993,309,0,0
-224,715,0,0,0,0,0,0,0,0,0,-1,1000,309,0,0
-217,715,0,0,0,0,0,0,0,0,0,-1,1007,309,0,0
-210,715,0,0,0,0,0,0,0,0,0,-1,1014,309,0,0
-203,715,0,0,0,0,0,0,0,0,0,-1,1021,309,0,0
-196,715,0,0,0,0,0,0,0,0,0,-1,1028,309,0,0
-189,715,0,0,0,0,0,0,0,0,0,-1,1035,309,0,0
-182,715,0,0,0,0,0,0,0,0,0,-1,1042,309,0,0
-175,715,0,0,0,0,0,0,0,0,0,-1,1049,309,0,0
-168,715,0,0,0,0,0,0,0,0,0,-1,1056,309,0,0
-161,715,0,0,0,0,0,0,0,0,0,-1,1063,309,0,0
-154,715,0,0,0,0,0,0,0,0,0,-1,1070,309,0,0
-147,715,0,0,0,0,0,0,0,0,0,-1,1077,309,0,0
-140,715,0,0,0,0,0,0,0,0,0,-1,1084,309,0,0
-133,715,0,0,0,0,0,0,0,0,0,-1,1091,309,0,0
-126,715,0,0,0,0,0,0,0,0,0,-1,1098,309,0,0
-119,715,0,0,0,0,0,0,0,0,0,-1,1105,309,0,0
-112,715,0,0,0,0,0,0,0,0,0,-1,1112,309,0,0
-105,715,0,0,0,0,0,0,0,0,0,-1,1119,309,0,0
-98,715,0,0,0,0,0,0,0,0,0,-1,1126,309,0,0
-91,715,0,0,0,0,0,0,0,0,0,-1,1133,309,0,0
-84,715,0,0,0,0,0,0,0,0,0,-1,1140,309,0,0
-77,715,0,0,0,0,0,0,0,0,0,-1,1147,309,0,0
-70,715,0,0,0,0,0,0,0,0,0,-1,1154,309,0,0
-63,715,0,0,0,0,0,0,0,0,0,-1,1161,309,0,0
-56,715,0,0,0,0,0,0,0,0,0,-1,1168,309,0,0
-49,715,0,0,0,0,0,0,0,0,0,-1,1175,309,0,0
-42,715,0,0,0,0,0,0,0,0,0,-1,1182,309,0,0
-35,715,0,0,0,0,0,0,0,0,0,-1,1189,309,0,0
-28,715,0,0,0,0,0,0,0,0,0,-1,1196,309,0,0
-21,715,0,0,0,0,0,0,0,0,0,-1,1203,309,0,0
-14,715,0,0,0,0,0,0,0,0,0,-1,1210,309,0,0
-7,715,0,0,0,0,0,0,0,0,0,-1,1217,309,0,0
0,715,0,0,0,0,0,0,0,0,0,-1,1224,309,0,0
7,715,0,0,0,0,0,0,0,0,0,-1,1231,309,0,0
14,715,0,0,0,0,0,0,0,0,0,-1,1238,309,0,0
21,715,0,0,0,0,0,0,0,0,0,-1,1245,309,0,0
28,715,0,0,0,0,0,0,0,0,0,-1,1252,309,0,0
35,715,0,0,0,0,0,0,0,0,0,-1,1259,309,0,0
42,715,0,0,0,0,0,0,0,0,0,-1,1266,309,0,0
49,715,0,0,0,0,0,0,0,0,0,-1,1273,309,0,0
56,715,0,0,0,0,0,0,0,0,0,-1,1280,309,0,0
63,715,6.17786,-37.209,0.0348381,0.152809,0.0813675,0.194322,-0.00667504,1.09903,0.131829,0.042556,1287,309,6.17786,37.209
70,715,6.15344,-36.2178,0.0283028,0.166407,0.0869931,0.208422,-0.0137128,1.12086,0.143737,0.0443233,1294,309,6.15342,36.2178
77,715,0,0,0,0,0,0,0,0,0,-1,1301,309,0,0
84,715,0,0,0,0,0,0,0,0,0,-1,1308,309,0,0
91,715,0,0,0,0,0,0,0,0,0,-1,1315,309,0,0
98,715,0,0,0,0,0,0,0,0,0,-1,1322,309,0,0
105,715,0,0,0,0,0,0,0,0,0,-1,1329,309,0,0
112,715,0,0,0,0,0,0,0,0,0,-1,1336,309,0,0
119,715,0,0,0,0,0,0,0,0,0,-1,1343,309,0,0
126,715,0,0,0,0,0,0,0,0,0,-1,1350,309,0,0
133,715,0,0,0,0,0,0,0,0,0,-1,1357,309,0,0
140,715,0,0,0,0,0,0,0,0,0,-1,1364,309,0,0
147,715,0,0,0,0,0,0,0,0,0,-1,1371,309,0,0
154,715,0,0,0,0,0,0,0,0,0,-1,1378,309,0,0
161,715,0,0,0,0,0,0,0,0,0,-1,1385,309,0,0
168,715,0,0,0,0,0,0,0,0,0,-1,1392,309,0,0
175,715,0,0,0,0,0,0,0,0,0,-1,1399,309,0,0
182,715,0,0,0,0,0,0,0,0,0,-1,1406,309,0,0
189,715,0,0,0,0,0,0,0,0,0,-1,1413,309,0,0
196,715,0,0,0,0,0,0,0,0,0,-1,1420,309,0,0
203,715,0,0,0,0,0,0,0,0,0,-1,1427,309,0,0
210,715,0,0,0,0,0,0,0,0,0,-1,1434,309,0,0
217,715,0,0,0,0,0,0,0,0,0,-1,1441,309,0,0
224,715,0,0,0,0,0,0,0,0,0,-1,1448,309,0,0
231,715,0,0,0,0,0,0,0,0,0,-1,1455,309,0,0
238,715,0,0,0,0,0,0,0,0,0,-1,1462,309,0,0
245,715,0,0,0,0,0,0,0,0,0,-1,1469,309,0,0
252,715,0,0,0,0,0,0,0,0,0,-1,1476,309,0,0
259,715,0,0,0,0,0,0,0,0,0,-1,1483,309,0,0
266,715,0,0,0,0,0,0,0,0,0,-1,1490,309,0,0
273,715,0,0,0,0,0,0,0,0,0,-1,1497,309,0,0
280,715,0,0,0,0,0,0,0,0,0,-1,1504,309,0,0
287,715,0,0,0,0,0,0,0,0,0,-1,1511,309,0,0
294,715,0,0,0,0,0,0,0,0,0,-1,1518,309,0,0
301,715,0,0,0,0,0,0,0,0,0,-1,1525,309,0,0
308,715,0,0,0,0,0,0,0,0,0,-1,1532,309,0,0
315,715,0,0,0,0,0,0,0,0,0,-1,1539,309,0,0
322,715,0,0,0,0,0,0,0,0,0,-1,1546,309,0,0
329,715,0,0,0,0,0,0,0,0,0,-1,1553,309,0,0
336,715,0,0,0,0,0,0,0,0,0,-1,1560,309,0,0
343,715,0,0,0,0,0,0,0,0,0,-1,1567,309,0,0
350,715,0,0,0,0,0,0,0,0,0,-1,1574,309,0,0
357,715,0,0,0,0,0,0,0,0,0,-1,1581,309,0,0
364,715,0,0,0,0,0,0,0,0,0,-1,1588,309,0,0
371,715,0,0,0,0,0,0,0,0,0,-1,1595,309,0,0
378,715,0,0,0,0,0,0,0,0,0,-1,1602,309,0,0
385,715,0,0,0,0,0,0,0,0,0,-1,1609,309,0,0
392,715,0,0,0,0,0,0,0,0,0,-1,1616,309,0,0
399,715,0,0,0,0,0,0,0,0,0,-1,1623,309,0,0
406,715,0,0,0,0,0,0,0,0,0,-1,1630,309,0,0
413,715,0,0,0,0,0,0,0,0,0,-1,1637,309,0,0
420,715,0,0,0,0,0,0,0,0,0,-1,1644,309,0,0
427,715,0,0,0,0,0,0,0,0,0,-1,1651,309,0,0
434,715,0,0,0,0,0,0,0,0,0,-1,1658,309,0,0
441,715,0,0,0,0,0,0,0,0,0,-1,1665,309,0,0
448,715,0,0,0,0,0,0,0,0,0,-1,1672,309,0,0
455,715,0,0,0,0,0,0,0,0,0,-1,1679,309,0,0
462,715,0,0,0,0,0,0,0,0,0,-1,1686,309,0,0
469,715,0,0,0,0,0,0,0,0,0,-1,1693,309,0,0
476,715,0,0,0,0,0,0,0,0,0,-1,1700,309,0,0
483,715,0,0,0,0,0,0,0,0,0,-1,1707,309,0,0
490,715,0,0,0,0,0,0,0,0,0,-1,1714,309,0,0
497,715,0,0,0,0,0,0,0,0,0,-1,1721,309,0,0
504,715,0,0,0,0,0,0,0,0,0,-1,1728,309,0,0
511,715,0,0,0,0,0,0,0,0,0,-1,1735,309,0,0
518,715,0,0,0,0,0,0,0,0,0,-1,1742,309,0,0
525,715,0,0,0,0,0,0,0,0,0,-1,1749,309,0,0
532,715,0,0,0,0,0,0,0,0,0,-1,1756,309,0,0
539,715,0,0,0,0,0,0,0,0,0,-1,1763,309,0,0
546,715,0,0,0,0,0,0,0,0,0,-1,1770,309,0,0
553,715,0,0,0,0,0,0,0,0,0,-1,1777,309,0,0
560,715,0,0,0,0,0,0,0,0,0,-1,1784,309,0,0
567,715,0,0,0,0,0,0,0,0,0,-1,1791,309,0,0
574,715,0,0,0,0,0,0,0,0,0,-1,1798,309,0,0
581,715,0,0,0,0,0,0,0,0,0,-1,1805,309,0,0
588,715,0,0,0,0,0,0,0,0,0,-1,1812,309,0,0
595,715,0,0,0,0,0,0,0,0,0,-1,1819,309,0,0
602,715,0,0,0,0,0,0,0,0,0,-1,1826,309,0,0
609,715,0,0,0,0,0,0,0,0,0,-1,1833,309,0,0
616,715,0,0,0,0,0,0,0,0,0,-1,1840,309,0,0
623,715,0,0,0,0,0,0,0,0,0,-1,1847,309,0,0
630,715,0,0,0,0,0,0,0,0,0,-1,1854,309,0,0
637,715,0,0,0,0,0,0,0,0,0,-1,1861,309,0,0
644,715,0,0,0,0,0,0,0,0,0,-1,1868,309,0,0
651,715,0,0,0,0,0,0,0,0,0,-1,1875,309,0,0
658,715,0,0,0,0,0,0,0,0,0,-1,1882,309,0,0
665,715,0,0,0,0,0,0,0,0,0,-1,1889,309,0,0
672,715,0,0,0,0,0,0,0,0,0,-1,1896,309,0,0
679,715,0,0,0,0,0,0,0,0,0,-1,1903,309,0,0
686,715,0,0,0,0,0,0,0,0,0,-1,1910,309,0,0
693,715,0,0,0,0,0,0,0,0,0,-1,1917,309,0,0
700,715,0,0,0,0,0,0,0,0,0,-1,1924,309,0,0
707,715,0,0,0,0,0,0,0,0,0,-1,1931,309,0,0
714,715,0,0,0,0,0,0,0,0,0,-1,1938,309,0,0
721,715,0,0,0,0,0,0,0,0,0,-1,1945,309,0,0
728,715,0,0,0,0,0,0,0,0,0,-1,1952,309,0,0
735,715,0,0,0,0,0,0,0,0,0,-1,1959,309,0,0
742,715,0,0,0,0,0,0,0,0,0,-1,1966,309,0,0
749,715,0,0,0,0,0,0,0,0,0,-1,1973,309,0,0
756,715,0,0,0,0,0,0,0,0,0,-1,1980,309,0,0
763,715,0,0,0,0,0,0,0,0,0,-1,1987,309,0,0
770,715,0,0,0,0,0,0,0,0,0,-1,1994,309,0,0
777,715,0,0,0,0,0,0,0,0,0,-1,2001,309,0,0
784,715,0,0,0,0,0,0,0,0,0,-1,2008,309,0,0
791,715,0,0,0,0,0,0,0,0,0,-1,2015,309,0,0
798,715,0,0,0,0,0,0,0,0,0,-1,2022,309,0,0
805,715,0,0,0,0,0,0,0,0,0,-1,2029,309,0,0
812,715,0,0,0,0,0,0,0,0,0,-1,2036,309,0,0
-700,708,0,0,0,0,0,0,0,0,0,-1,524,316,0,0
-693,708,0,0,0,0,0,0,0,0,0,-1,531,316,0,0
-686,708,0,0,0,0,0,0,0,0,0,-1,538,316,0,0
-679,708,0,0,0,0,0,0,0,0,0,-1,545,316,0,0
-672,708,0,0,0,0,0,0,0,0,0,-1,552,316,0,0
-665,708,0,0,0,0,0,0,0,0,0,-1,559,316,0,0
-658,708,0,0,0,0,0,0,0,0,0,-1,566,316,0,0
-651,708,0,0,0,0,0,0,0,0,0,-1,573,316,0,0
-644,708,0,0,0,0,0,0,0,0,0,-1,580,316,0,0
-637,708,0,0,0,0,0,0,0,0,0,-1,587,316,0,0
-630,708,0,0,0,0,0,0,0,0,0,-1,594,316,0,0
-623,708,0,0,0,0,0,0,0,0,0,-1,601,316,0,0
-616,708,0,0,0,0,0,0,0,0,0,-1,608,316,0,0
-609,708,0,0,0,0,0,0,0,0,0,-1,615,316,0,0
-602,708,0,0,0,0,0,0,0,0,0,-1,622,316,0,0
-595,708,0,0,0,0,0,0,0,0,0,-1,629,316,0,0
-588,708,0,0,0,0,0,0,0,0,0,-1,636,316,0,0
-581,708,0,0,0,0,0,0,0,0,0,-1,643,316,0,0
-574,708,0,0,0,0,0,0,0,0,0,-1,650,316,0,0
-567,708,0,0,0,0,0,0,0,0,0,-1,657,316,0,0
-560,708,0,0,0,0,0,0,0,0,0,-1,664,316,0,0
-553,708,0,0,0,0,0,0,0,0,0,-1,671,316,0,0
-546,708,0,0,0,0,0,0,0,0,0,-1,678,316,0,0
-539,708,0,0,0,0,0,0,0,0,0,-1,685,316,0,0
-532,708,0,0,0,0,0,0,0,0,0,-1,692,316,0,0
-525,708,0,0,0,0,0,0,0,0,0,-1,699,316,0,0
-518,708,0,0,0,0,0,0,0,0,0,-1,706,316,0,0
-511,708,0,0,0,0,0,0,0,0,0,-1,713,316,0,0
-504,708,0,0,0,0,0,0,0,0,0,-1,720,316,0,0
-497,708,0,0,0,0,0,0,0,0,0,-1,727,316,0,0
-490,708,0,0,0,0,0,0,0,0,0,-1,734,316,0,0
-483,708,0,0,0,0,0,0,0,0,0,-1,741,316,0,0
-476,708,0,0,0,0,0,0,0,0,0,-1,748,316,0,0
-469,708,0,0,0,0,0,0,0,0,0,-1,755,316,0,0
-462,708,0,0,0,0,0,0,0,0,0,-1,762,316,0,0
-455,708,0,0,0,0,0,0,0,0,0,-1,769,316,0,0
-448,708,0,0,0,0,0,0,0,0,0,-1,776,316,0,0
-441,708,0,0,0,0,0,0,0,0,0,-1,783,316,0,0
-434,708,0,0,0,0,0,0,0,0,0,-1,790,316,0,0
-427,708,0,0,0,0,0,0,0,0,0,-1,797,316,0,0
-420,708,0,0,0,0,0,0,0,0,0,-1,804,316,0,0
-413,708,0,0,0,0,0,0,0,0,0,-1,811,316,0,0
-406,708,0,0,0,0,0,0,0,0,0,-1,818,316,0,0
-399,708,0,0,0,0,0,0,0,0,0,-1,825,316,0,0
-392,708,0,0,0,0,0,0,0,0,0,-1,832,316,0,0
-385,708,0,0,0,0,0,0,0,0,0,-1,839,316,0,0
-378,708,0,0,0,0,0,0,0,0,0,-1,846,316,0,0
-371,708,0,0,0,0,0,0,0,0,0,-1,853,316,0,0
-364,708,0,0,0,0,0,0,0,0,0,-1,860,316,0,0
-357,708,0,0,0,0,0,0,0,0,0,-1,867,316,0,0
-350,708,0,0,0,0,0,0,0,0,0,-1,874,316,0,0
-343,708,0,0,0,0,0,0,0,0,0,-1,881,316,0,0
-336,708,0,0,0,0,0,0,0,0,0,-1,888,316,0,0
-329,708,0,0,0,0,0,0,0,0,0,-1,895,316,0,0
-322,708,0,0,0,0,0,0,0,0,0,-1,902,316,0,0
-315,708,0,0,0,0,0,0,0,0,0,-1,909,316,0,0
-308,708,0,0,0,0,0,0,0,0,0,-1,916,316,0,0
-301,708,0,0,0,0,0,0,0,0,0,-1,923,316,0,0
-294,708,0,0,0,0,0,0,0,0,0,-1,930,316,0,0
-287,708,0,0,0,0,0,0,0,0,0,-1,937,316,0,0
-280,708,0,0,0,0,0,0,0,0,0,-1,944,316,0,0
-273,708,0,0,0,0,0,0,0,0,0,-1,951,316,0,0
-266,708,0,0,0,0,0,0,0,0,0,-1,958,316,0,0
-259,708,0,0,0,0,0,0,0,0,0,-1,965,316,0,0
-252,708,0,0,0,0,0,0,0,0,0,-1,972,316,0,0
-245,708,0,0,0,0,0,0,0,0,0,-1,979,316,0,0
-238,708,0,0,0,0,0,0,0,0,0,-1,986,316,0,0
-231,708,0,0,0,0,0,0,0,0,0,-1,993,316,0,0
-224,708,0,0,0,0,0,0,0,0,0,-1,1000,316,0,0
-217,708,0,0,0,0,0,0,0,0,0,-1,1007,316,0,0
-210,708,0,0,0,0,0,0,0,0,0,-1,1014,316,0,0
-203,708,0,0,0,0,0,0,0,0,0,-1,1021,316,0,0
-196,708,0,0,0,0,0,0,0,0,0,-1,1028,316,0,0
-189,708,0,0,0,0,0,0,0,0,0,-1,1035,316,0,0
-182,708,0,0,0,0,0,0,0,0,0,-1,1042,316,0,0
-175,708,0,0,0,0,0,0,0,0,0,-1,1049,316,0,0
-168,708,0,0,0,0,0,0,0,0,0,-1,1056,316,0,0
-161,708,0,0,0,0,0,0,0,0,0,-1,1063,316,0,0
-154,708,0,0,0,0,0,0,0,0,0,-1,1070,316,0,0
-147,708,0,0,0,0,0,0,0,0,0,-1,1077,316,0,0
-140,708,0,0,0,0,0,0,0,0,0,-1,1084,316,0,0
-133,708,0,0,0,0,0,0,0,0,0,-1,1091,316,0,0
-126,708,0,0,0,0,0,0,0,0,0,-1,1098,316,0,0
-119,708,0,0,0,0,0,0,0,0,0,-1,1105,316,0,0
-112,708,0,0,0,0,0,0,0,0,0,-1,1112,316,0,0
-105,708,0,0,0,0,0,0,0,0,0,-1,1119,316,0,0
-98,708,0,0,0,0,0,0,0,0,0,-1,1126,316,0,0
-91,708,0,0,0,0,0,0,0,0,0,-1,1133,316,0,0
-84,708,0,0,0,0,0,0,0,0,0,-1,1140,316,0,0
-77,708,0,0,0,0,0,0,0,0,0,-1,1147,316,0,0
-70,708,0,0,0,0,0,0,0,0,0,-1,1154,316,0,0
-63,708,0,0,0,0,0,0,0,0,0,-1,1161,316,0,0
-56,708,0,0,0,0,0,0,0,0,0,-1,1168,316,0,0
-49,708,0,0,0,0,0,0,0,0,0,-1,1175,316,0,0
-42,708,0,0,0,0,0,0,0,0,0,-1,1182,316,0,0
-35,708,-2.71204,-6.31558,0,0,0,0,0,0,0,-1,1189,316,-2.712,6.3156
-28,708,-2.92371,-5.53253,0,0,0,0,0,0,0,-1,1196,316,-2.92375,5.53254
-21,708,-0.417969,-24.5911,0,0,0,0,0,0,0,-1,1203,316,-0.418022,24.5911
-14,708,5.73181,-48.5143,0,0,0,0,0,0,0,-1,1210,316,5.73179,48.5143
-7,708,8.95679,-39.8686,0,0,0,0,0,0,0,-1,1217,316,8.95682,39.8686
0,708,7.59949,-38.9249,0,0,0,0,0,0,0,-1,1224,316,7.59944,38.9249
7,708,8.02356,-38.3774,0.0722087,0.0990393,0.0495558,0.136963,0.0342844,0.917585,0.0822968,0.0479978,1231,316,8.02358,38.3774
14,708,8.19348,-39.5934,0.0702889,0.106588,0.0557159,0.147036,0.0298409,0.942854,0.0897463,0.042407,1238,316,8.19351,39.5934
21,708,9.42773,-38.047,0.0647893,0.112292,0.060506,0.153542,0.02354,0.972431,0.0954866,0.0432627,1245,316,9.42778,38.047
28,708,9.53577,-37.6693,0.0594415,0.11925,0.0634403,0.159481,0.0192106,1.00564,0.100531,0.0426287,1252,316,9.53572,37.6693
35,708,9.81543,-37.0518,0.0530547,0.128266,0.0663519,0.166928,0.0143927,1.04321,0.106812,0.0439083,1259,316,9.81542,37.0518
42,708,10.2391,-36.5949,0.0447972,0.137298,0.0677234,0.173057,0.00903817,1.08499,0.11248,0.0427985,1266,316,10.2391,36.5949
49,708,10.8022,-36.4808,0.036515,0.146156,0.067855,0.178568,0.00410251,1.12517,0.117702,0.0437795,1273,316,10.8023,36.4808
56,708,11.3776,-35.5153,0,0,0,0,0,0,0,-1,1280,316,11.3776,35.5153
63,708,5.81079,-37.4704,0.0246767,0.165925,0.0737822,0.197436,-0.00683428,1.16716,0.13396,0.0422485,1287,316,5.81075,37.4704
70,708,5.81213,-36.8883,0.0182629,0.179542,0.0781514,0.211199,-0.0133934,1.18593,0.145469,0.0421429,1294,316,5.81217,36.8883
77,708,5.7439,-36.4499,0.0134213,0.190918,0.081495,0.222659,-0.0183198,1.19939,0.154907,0.0411875,1301,316,5.74384,36.4499
84,708,7.27954,-35.2546,0.00709264,0.201839,0.0869058,0.234981,-0.0260492,1.20647,0.166019,0.0467118,1308,316,7.2796,35.2546
91,708,6.92078,-35.246,6.09953e-05,0.211103,0.0930453,0.246266,-0.0351025,1.20947,0.177042,0.0483005,1315,316,6.92083,35.246
98,708,6.57019,-35.2048,0,0,0,0,0,0,0,-1,1322,316,6.57017,35.2048
105,708,5.80457,-35.4885,-0.0133332,0.228036,0.106551,0.268341,-0.053639,1.20916,0.199196,0.044891,1329,316,5.80452,35.4885
112,708,6.71106,-34.5549,-0.0217057,0.232183,0.111482,0.274186,-0.0637085,1.21048,0.207316,0.0468001,1336,316,6.71103,34.5549
119,708,6.46033,-34.3022,-0.0310293,0.235678,0.117232,0.279881,-0.0752329,1.21022,0.216076,0.0441499,1343,316,6.46029,34.3022
126,708,6.26819,-33.7716,0,0,0,0,0,0,0,-1,1350,316,6.26821,33.7716
133,708,5.07642,-33.5272,-0.0589571,0.22685,0.113306,0.266319,-0.0984258,1.2356,0.217895,0.0457912,1357,316,5.0764,33.5272
140,708,4.31042,-33.4274,-0.074807,0.213246,0.104379,0.247092,-0.108653,1.25723,0.21051,0.0491676,1364,316,4.31044,33.4274
147,708,3.63208,-33.1998,0,0,0,0,0,0,0,-1,1371,316,3.63211,33.1998
154,708,0,0,0,0,0,0,0,0,0,-1,1378,316,0,0
161,708,0,0,0,0,0,0,0,0,0,-1,1385,316,0,0
168,708,0,0,0,0,0,0,0,0,0,-1,1392,316,0,0
175,708,0,0,0,0,0,0,0,0,0,-1,1399,316,0,0
182,708,0,0,0,0,0,0,0,0,0,-1,1406,316,0,0
189,708,0,0,0,0,0,0,0,0,0,-1,1413,316,0,0
196,708,0,0,0,0,0,0,0,0,0,-1,1420,316,0,0
203,708,0,0,0,0,0,0,0,0,0,-1,1427,316,0,0
210,708,0,0,0,0,0,0,0,0,0,-1,1434,316,0,0
217,708,0,0,0,0,0,0,0,0,0,-1,1441,316,0,0
224,708,0,0,0,0,0,0,0,0,0,-1,1448,316,0,0
231,708,0,0,0,0,0,0,0,0,0,-1,1455,316,0,0
238,708,0,0,0,0,0,0,0,0,0,-1,1462,316,0,0
245,708,0,0,0,0,0,0,0,0,0,-1,1469,316,0,0
252,708,0,0,0,0,0,0,0,0,0,-1,1476,316,0,0
259,708,0,0,0,0,0,0,0,0,0,-1,1483,316,0,0
266,708,0,0,0,0,0,0,0,0,0,-1,1490,316,0,0
273,708,0,0,0,0,0,0,0,0,0,-1,1497,316,0,0
280,708,0,0,0,0,0,0,0,0,0,-1,1504,316,0,0
287,708,0,0,0,0,0,0,0,0,0,-1,1511,316,0,0
294,708,0,0,0,0,0,0,0,0,0,-1,1518,316,0,0
301,708,0,0,0,0,0,0,0,0,0,-1,1525,316,0,0
308,708,0,0,0,0,0,0,0,0,0,-1,1532,316,0,0
315,708,0,0,0,0,0,0,0,0,0,-1,1539,316,0,0
322,708,0,0,0,0,0,0,0,0,0,-1,1546,316,0,0
329,708,0,0,0,0,0,0,0,0,0,-1,1553,316,0,0
336,708,0,0,0,0,0,0,0,0,0,-1,1560,316,0,0
343,708,0,0,0,0,0,0,0,0,0,-1,1567,316,0,0
350,708,0,0,0,0,0,0,0,0,0,-1,1574,316,0,0
357,708,0,0,0,0,0,0,0,0,0,-1,1581,316,0,0
364,708,0,0,0,0,0,0,0,0,0,-1,1588,316,0,0
371,708,0,0,0,0,0,0,0,0,0,-1,1595,316,0,0
378,708,0,0,0,0,0,0,0,0,0,-1,1602,316,0,0
385,708,0,0,0,0,0,0,0,0,0,-1,1609,316,0,0
392,708,0,0,0,0,0,0,0,0,0,-1,1616,316,0,0
399,708,0,0,0,0,0,0,0,0,0,-1,1623,316,0,0
406,708,0,0,0,0,0,0,0,0,0,-1,1630,316,0,0
413,708,0,0,0,0,0,0,0,0,0,-1,1637,316,0,0
420,708,0,0,0,0,0,0,0,0,0,-1,1644,316,0,0
427,708,0,0,0,0,0,0,0,0,0,-1,1651,316,0,0
434,708,0,0,0,0,0,0,0,0,0,-1,1658,316,0,0
441,708,0,0,0,0,0,0,0,0,0,-1,1665,316,0,0
448,708,0,0,0,0,0,0,0,0,0,-1,1672,316,0,0
455,708,0,0,0,0,0,0,0,0,0,-1,1679,316,0,0
462,708,0,0,0,0,0,0,0,0,0,-1,1686,316,0,0
469,708,0,0,0,0,0,0,0,0,0,-1,1693,316,0,0
476,708,0,0,0,0,0,0,0,0,0,-1,1700,316,0,0
483,708,0,0,0,0,0,0,0,0,0,-1,1707,316,0,0
490,708,0,0,0,0,0,0,0,0,0,-1,1714,316,0,0
497,708,0,0,0,0,0,0,0,0,0,-1,1721,316,0,0
504,708,0,0,0,0,0,0,0,0,0,-1,1728,316,0,0
511,708,0,0,0,0,0,0,0,0,0,-1,1735,316,0,0
518,708,0,0,0,0,0,0,0,0,0,-1,1742,316,0,0
525,708,0,0,0,0,0,0,0,0,0,-1,1749,316,0,0
532,708,0,0,0,0,0,0,0,0,0,-1,1756,316,0,0
539,708,0,0,0,0,0,0,0,0,0,-1,1763,316,0,0
546,708,0,0,0,0,0,0,0,0,0,-1,1770,316,0,0
553,708,0,0,0,0,0,0,0,0,0,-1,1777,316,0,0
560,708,0,0,0,0,0,0,0,0,0,-1,1784,316,0,0
567,708,0,0,0,0,0,0,0,0,0,-1,1791,316,0,0
574,708,0,0,0,0,0,0,0,0,0,-1,1798,316,0,0
581,708,0,0,0,0,0,0,0,0,0,-1,1805,316,0,0
588,708,0,0,0,0,0,0,0,0,0,-1,1812,316,0,0
595,708,0,0,0,0,0,0,0,0,0,-1,1819,316,0,0
602,708,0,0,0,0,0,0,0,0,0,-1,1826,316,0,0
609,708,0,0,0,0,0,0,0,0,0,-1,1833,316,0,0
616,708,0,0,0,0,0,0,0,0,0,-1,1840,316,0,0
623,708,0,0,0,0,0,0,0,0,0,-1,1847,316,0,0
630,708,0,0,0,0,0,0,0,0,0,-1,1854,316,0,0
637,708,0,0,0,0,0,0,0,0,0,-1,1861,316,0,0
644,708,0,0,0,0,0,0,0,0,0,-1,1868,316,0,0
651,708,0,0,0,0,0,0,0,0,0,-1,1875,316,0,0
658,708,0,0,0,0,0,0,0,0,0,-1,1882,316,0,0
665,708,0,0,0,0,0,0,0,0,0,-1,1889,316,0,0
672,708,0,0,0,0,0,0,0,0,0,-1,1896,316,0,0
679,708,0,0,0,0,0,0,0,0,0,-1,1903,316,0,0
686,708,0,0,0,0,0,0,0,0,0,-1,1910,316,0,0
693,708,0,0,0,0,0,0,0,0,0,-1,1917,316,0,0
700,708,0,0,0,0,0,0,0,0,0,-1,1924,316,0,0
707,708,0,0,0,0,0,0,0,0,0,-1,1931,316,0,0
714,708,0,0,0,0,0,0,0,0,0,-1,1938,316,0,0
721,708,0,0,0,0,0,0,0,0,0,-1,1945,316,0,0
728,708,0,0,0,0,0,0,0,0,0,-1,1952,316,0,0
735,708,0,0,0,0,0,0,0,0,0,-1,1959,316,0,0
742,708,0,0,0,0,0,0,0,0,0,-1,1966,316,0,0
749,708,0,0,0,0,0,0,0,0,0,-1,1973,316,0,0
756,708,0,0,0,0,0,0,0,0,0,-1,1980,316,0,0
763,708,0,0,0,0,0,0,0,0,0,-1,1987,316,0,0
770,708,0,0,0,0,0,0,0,0,0,-1,1994,316,0,0
777,708,0,0,0,0,0,0,0,0,0,-1,2001,316,0,0
784,708,0,0,0,0,0,0,0,0,0,-1,2008,316,0,0
791,708,0,0,0,0,0,0,0,0,0,-1,2015,316,0,0
798,708,0,0,0,0,0,0,0,0,0,-1,2022,316,0,0
805,708,0,0,0,0,0,0,0,0,0,-1,2029,316,0,0
812,708,0,0,0,0,0,0,0,0,0,-1,2036,316,0,0
-700,701,0,0,0,0,0,0,0,0,0,-1,524,323,0,0
-693,701,0,0,0,0,0,0,0,0,0,-1,531,323,0,0
-686,701,0,0,0,0,0,0,0,0,0,-1,538,323,0,0
-679,701,0,0,0,0,0,0,0,0,0,-1,545,323,0,0
-672,701,0,0,0,0,0,0,0,0,0,-1,552,323,0,0
-665,701,0,0,0,0,0,0,0,0,0,-1,559,323,0,0
-658,701,0,0,0,0,0,0,0,0,0,-1,566,323,0,0
-651,701,0,0,0,0,0,0,0,0,0,-1,573,323,0,0
-644,701,0,0,0,0,0,0,0,0,0,-1,580,323,0,0
-637,701,0,0,0,0,0,0,0,0,0,-1,587,323,0,0
-630,701,0,0,0,0,0,0,0,0,0,-1,594,323,0,0
-623,701,0,0,0,0,0,0,0,0,0,-1,601,323,0,0
-616,701,0,0,0,0,0,0,0,0,0,-1,608,323,0,0
-609,701,0,0,0,0,0,0,0,0,0,-1,615,323,0,0
-602,701,0,0,0,0,0,0,0,0,0,-1,622,323,0,0
-595,701,0,0,0,0,0,0,0,0,0,-1,629,323,0,0
-588,701,0,0,0,0,0,0,0,0,0,-1,636,323,0,0
-581,701,0,0,0,0,0,0,0,0,0,-1,643,323,0,0
-574,701,0,0,0,0,0,0,0,0,0,-1,650,323,0,0
-567,701,0,0,0,0,0,0,0,0,0,-1,657,323,0,0
-560,701,0,0,0,0,0,0,0,0,0,-1,664,323,0,0
-553,701,0,0,0,0,0,0,0,0,0,-1,671,323,0,0
-546,701,0,0,0,0,0,0,0,0,0,-1,678,323,0,0
-539,701,0,0,0,0,0,0,0,0,0,-1,685,323,0,0
-532,701,0,0,0,0,0,0,0,0,0,-1,692,323,0,0
-525,701,0,0,0,0,0,0,0,0,0,-1,699,323,0,0
-518,701,0,0,0,0,0,0,0,0,0,-1,706,323,0,0
-511,701,0,0,0,0,0,0,0,0,0,-1,713,323,0,0
-504,701,0,0,0,0,0,0,0,0,0,-1,720,323,0,0
-497,701,0,0,0,0,0,0,0,0,0,-1,727,323,0,0
-490,701,0,0,0,0,0,0,0,0,0,-1,734,323,0,0
-483,701,0,0,0,0,0,0,0,0,0,-1,741,323,0,0
-476,701,0,0,0,0,0,0,0,0,0,-1,748,323,0,0
-469,701,0,0,0,0,0,0,0,0,0,-1,755,323,0,0
-462,701,0,0,0,0,0,0,0,0,0,-1,762,323,0,0
-455,701,0,0,0,0,0,0,0,0,0,-1,769,323,0,0
-448,701,0,0,0,0,0,0,0,0,0,-1,776,323,0,0
-441,701,0,0,0,0,0,0,0,0,0,-1,783,323,0,0
-434,701,0,0,0,0,0,0,0,0,0,-1,790,323,0,0
-427,701,0,0,0,0,0,0,0,0,0,-1,797,323,0,0
-420,701,0,0,0,0,0,0,0,0,0,-1,804,323,0,0
-413,701,0,0,0,0,0,0,0,0,0,-1,811,323,0,0
-406,701,0,0,0,0,0,0,0,0,0,-1,818,323,0,0
-399,701,0,0,0,0,0,0,0,0,0,-1,825,323,0,0
-392,701,0,0,0,0,0,0,0,0,0,-1,832,323,0,0
-385,701,0,0,0,0,0,0,0,0,0,-1,839,323,0,0
-378,701,0,0,0,0,0,0,0,0,0,-1,846,323,0,0
-371,701,0,0,0,0,0,0,0,0,0,-1,853,323,0,0
-364,701,0,0,0,0,0,0,0,0,0,-1,860,323,0,0
-357,701,0,0,0,0,0,0,0,0,0,-1,867,323,0,0
-350,701,0,0,0,0,0,0,0,0,0,-1,874,323,0,0
-343,701,0,0,0,0,0,0,0,0,0,-1,881,323,0,0
-336,701,0,0,0,0,0,0,0,0,0,-1,888,323,0,0
-329,701,0,0,0,0,0,0,0,0,0,-1,895,323,0,0
-322,701,0,0,0,0,0,0,0,0,0,-1,902,323,0,0
-315,701,0,0,0,0,0,0,0,0,0,-1,909,323,0,0
-308,701,0,0,0,0,0,0,0,0,0,-1,916,323,0,0
-301,701,0,0,0,0,0,0,0,0,0,-1,923,323,0,0
-294,701,0,0,0,0,0,0,0,0,0,-1,930,323,0,0
-287,701,0,0,0,0,0,0,0,0,0,-1,937,323,0,0
-280,701,0,0,0,0,0,0,0,0,0,-1,944,323,0,0
-273,701,0,0,0,0,0,0,0,0,0,-1,951,323,0,0
-266,701,0,0,0,0,0,0,0,0,0,-1,958,323,0,0
-259,701,0,0,0,0,0,0,0,0,0,-1,965,323,0,0
-252,701,0,0,0,0,0,0,0,0,0,-1,972,323,0,0
-245,701,0,0,0,0,0,0,0,0,0,-1,979,323,0,0
-238,701,0,0,0,0,0,0,0,0,0,-1,986,323,0,0
-231,701,0,0,0,0,0,0,0,0,0,-1,993,323,0,0
-224,701,0,0,0,0,0,0,0,0,0,-1,1000,323,0,0
-217,701,0,0,0,0,0,0,0,0,0,-1,1007,323,0,0
-210,701,0,0,0,0,0,0,0,0,0,-1,1014,323,0,0
-203,701,0,0,0,0,0,0,0,0,0,-1,1021,323,0,0
-196,701,0,0,0,0,0,0,0,0,0,-1,1028,323,0,0
-189,701,0,0,0,0,0,0,0,0,0,-1,1035,323,0,0
-182,701,0,0,0,0,0,0,0,0,0,-1,1042,323,0,0
-175,701,0,0,0,0,0,0,0,0,0,-1,1049,323,0,0
-168,701,0,0,0,0,0,0,0,0,0,-1,1056,323,0,0
-161,701,0,0,0,0,0,0,0,0,0,-1,1063,323,0,0
-154,701,0,0,0,0,0,0,0,0,0,-1,1070,323,0,0
-147,701,0,0,0,0,0,0,0,0,0,-1,1077,323,0,0
-140,701,0,0,0,0,0,0,0,0,0,-1,1084,323,0,0
-133,701,0,0,0,0,0,0,0,0,0,-1,1091,323,0,0
-126,701,0,0,0,0,0,0,0,0,0,-1,1098,323,0,0
-119,701,0,0,0,0,0,0,0,0,0,-1,1105,323,0,0
-112,701,0,0,0,0,0,0,0,0,0,-1,1112,323,0,0
-105,701,0,0,0,0,0,0,0,0,0,-1,1119,323,0,0
-98,701,0,0,0,0,0,0,0,0,0,-1,1126,323,0,0
-91,701,0,0,0,0,0,0,0,0,0,-1,1133,323,0,0
-84,701,0,0,0,0,0,0,0,0,0,-1,1140,323,0,0
-77,701,0,0,0,0,0,0,0,0,0,-1,1147,323,0,0
-70,701,-12.7566,-30.413,0,0,0,0,0,0,0,-1,1154,323,-12.7566,30.413
-63,701,-18.3169,-21.2322,0,0,0,0,0,0,0,-1,1161,323,-18.3169,21.2322
-56,701,-0.420166,-0.101776,0,0,0,0,0,0,0,-1,1168,323,-0.420119,0.101777
-49,701,-1.09021,-0.155762,0,0,0,0,0,0,0,-1,1175,323,-1.09024,0.155768
-42,701,-0.210327,-0.299133,0,0,0,0,0,0,0,-1,1182,323,-0.210379,0.29914
-35,701,-2.9635,-7.98676,0,0,0,0,0,0,0,-1,1189,323,-2.9635,7.98676
-28,701,-6.64417,-5.4917,0,0,0,0,0,0,0,-1,1196,323,-6.64411,5.4917
-21,701,5.77478,-39.884,0,0,0,0,0,0,0,-1,1203,323,5.77475,39.884
-14,701,8.25208,-39.9907,0,0,0,0,0,0,0,-1,1210,323,8.25203,39.9907
-7,701,8.26477,-40.3452,0,0,0,0,0,0,0,-1,1217,323,8.26476,40.3452
0,701,7.66553,-40.1437,0,0,0,0,0,0,0,-1,1224,323,7.66557,40.1437
7,701,7.87537,-39.4741,0.0570215,0.0913491,0.0451317,0.122471,0.0259001,0.967105,0.0745293,0.044107,1231,323,7.87538,39.4741
14,701,8.14941,-39.6349,0.0552705,0.099193,0.0502311,0.132054,0.0224096,0.991479,0.0815983,0.0412911,1238,323,8.14945,39.6349
21,701,8.07349,-39.4846,0.0508595,0.106494,0.0541766,0.139578,0.017776,1.02258,0.0877287,0.0447391,1245,323,8.07353,39.4846
28,701,9.04065,-38.1622,0.0465828,0.114444,0.0566989,0.14659,0.0144374,1.05503,0.0932872,0.0425904,1252,323,9.04067,38.1622
35,701,9.552,-37.5795,0.0413652,0.12411,0.0590971,0.154877,0.0105977,1.09079,0.0999064,0.0417451,1259,323,9.55195,37.5795
42,701,9.94983,-37.206,0.0346931,0.133583,0.0603337,0.162144,0.00613192,1.12866,0.106111,0.0432562,1266,323,9.94979,37.206
49,701,10.3885,-37.0734,0.0279283,0.142675,0.0604199,0.168621,0.00198129,1.16517,0.11176,0.0459881,1273,323,10.3886,37.0734
56,701,10.9766,-36.5758,0.022355,0.152236,0.0610698,0.176441,-0.00184924,1.19345,0.118248,0.0475943,1280,323,10.9766,36.5758
63,701,11.483,-36.119,0.0169716,0.162625,0.0644894,0.187074,-0.00747767,1.20842,0.127282,0.0452983,1287,323,11.4831,36.119
70,701,5.45947,-37.7213,0.01115,0.175047,0.0678949,0.199519,-0.0133217,1.22486,0.137668,0.0446646,1294,323,5.45946,37.7213
77,701,5.49573,-37.3183,0.00656629,0.184865,0.0704395,0.209335,-0.0179036,1.23645,0.145891,0.0432339,1301,323,5.49571,37.3183
84,701,5.5575,-36.9363,0.000685383,0.193622,0.0745571,0.219076,-0.0247679,1.24181,0.154968,0.0423882,1308,323,5.55755,36.9363
91,701,5.87561,-36.4572,-0.00561688,0.200622,0.0793151,0.227596,-0.0325917,1.24297,0.16368,0.0451797,1315,323,5.87561,36.4572
98,701,5.46045,-36.3174,0,0,0,0,0,0,0,-1,1322,323,5.46049,36.3174
105,701,4.91406,-36.5259,-0.0164531,0.212208,0.0896219,0.243148,-0.0473932,1.23838,0.179989,0.0480293,1329,323,4.91403,36.5259
112,701,5.30078,-36.1201,-0.0228658,0.21351,0.093043,0.245739,-0.0550953,1.23734,0.184947,0.0457074,1336,323,5.30074,36.1201
119,701,5.00293,-35.7781,-0.0295125,0.215152,0.0976686,0.249358,-0.0637188,1.23392,0.191054,0.0437671,1343,323,5.00293,35.7781
126,701,4.54968,-35.1588,0,0,0,0,0,0,0,-1,1350,323,4.54963,35.1588
133,701,4.07336,-34.61,-0.0487185,0.206903,0.0957976,0.23882,-0.0806349,1.2492,0.191826,0.0485098,1357,323,4.07339,34.61
140,701,3.14893,-34.4833,-0.0589741,0.196945,0.0898228,0.225324,-0.0873533,1.26478,0.18629,0.0491289,1364,323,3.14889,34.4833
147,701,2.52771,-34.2402,0,0,0,0,0,0,0,-1,1371,323,2.52776,34.2402
154,701,1.96045,-33.9527,0,0,0,0,0,0,0,-1,1378,323,1.96041,33.9527
161,701,4.09717,-35.8294,0,0,0,0,0,0,0,-1,1385,323,4.09715,35.8294
168,701,30.7272,1.76184,0,0,0,0,0,0,0,-1,1392,323,30.7272,-1.76184
175,701,31.5035,2.25711,0,0,0,0,0,0,0,-1,1399,323,31.5036,-2.25712
182,701,8.80652,5.42807,0,0,0,0,0,0,0,-1,1406,323,8.8065,-5.42808
189,701,8.58081,4.24493,0,0,0,0,0,0,0,-1,1413,323,8.58082,-4.24494
196,701,0,0,0,0,0,0,0,0,0,-1,1420,323,0,0
203,701,0,0,0,0,0,0,0,0,0,-1,1427,323,0,0
210,701,0,0,0,0,0,0,0,0,0,-1,1434,323,0,0
217,701,0,0,0,0,0,0,0,0,0,-1,1441,323,0,0
224,701,0,0,0,0,0,0,0,0,0,-1,1448,323,0,0
231,701,0,0,0,0,0,0,0,0,0,-1,1455,323,0,0
238,701,0,0,0,0,0,0,0,0,0,-1,1462,323,0,0
245,701,0,0,0,0,0,0,0,0,0,-1,1469,323,0,0
252,701,0,0,0,0,0,0,0,0,0,-1,1476,323,0,0
259,701,0,0,0,0,0,0,0,0,0,-1,1483,323,0,0
266,701,0,0,0,0,0,0,0,0,0,-1,1490,323,0,0
273,701,0,0,0,0,0,0,0,0,0,-1,1497,323,0,0
280,701,0,0,0,0,0,0,0,0,0,-1,1504,323,0,0
287,701,0,0,0,0,0,0,0,0,0,-1,1511,323,0,0
294,701,0,0,0,0,0,0,0,0,0,-1,1518,323,0,0
301,701,0,0,0,0,0,0,0,0,0,-1,1525,323,0,0
308,701,0,0,0,0,0,0,0,0,0,-1,1532,323,0,0
315,701,0,0,0,0,0,0,0,0,0,-1,1539,323,0,0
322,701,0,0,0,0,0,0,0,0,0,-1,1546,323,0,0
329,701,0,0,0,0,0,0,0,0,0,-1,1553,323,0,0
336,701,0,0,0,0,0,0,0,0,0,-1,1560,323,0,0
343,701,0,0,0,0,0,0,0,0,0,-1,1567,323,0,0
350,701,0,0,0,0,0,0,0,0,0,-1,1574,323,0,0
357,701,0,0,0,0,0,0,0,0,0,-1,1581,323,0,0
364,701,0,0,0,0,0,0,0,0,0,-1,1588,323,0,0
371,701,0,0,0,0,0,0,0,0,0,-1,1595,323,0,0
378,701,0,0,0,0,0,0,0,0,0,-1,1602,323,0,0
385,701,0,0,0,0,0,0,0,0,0,-1,1609,323,0,0
392,701,0,0,0,0,0,0,0,0,0,-1,1616,323,0,0
399,701,0,0,0,0,0,0,0,0,0,-1,1623,323,0,0
406,701,0,0,0,0,0,0,0,0,0,-1,1630,323,0,0
413,701,0,0,0,0,0,0,0,0,0,-1,1637,323,0,0
420,701,0,0,0,0,0,0,0,0,0,-1,1644,323,0,0
427,701,0,0,0,0,0,0,0,0,0,-1,1651,323,0,0
434,701,0,0,0,0,0,0,0,0,0,-1,1658,323,0,0
441,701,0,0,0,0,0,0,0,0,0,-1,1665,323,0,0
448,701,0,0,0,0,0,0,0,0,0,-1,1672,323,0,0
455,701,0,0,0,0,0,0,0,0,0,-1,1679,323,0,0
462,701,0,0,0,0,0,0,0,0,0,-1,1686,323,0,0
469,701,0,0,0,0,0,0,0,0,0,-1,1693,323,0,0
476,701,0,0,0,0,0,0,0,0,0,-1,1700,323,0,0
483,701,0,0,0,0,0,0,0,0,0,-1,1707,323,0,0
490,701,0,0,0,0,0,0,0,0,0,-1,1714,323,0,0
497,701,0,0,0,0,0,0,0,0,0,-1,1721,323,0,0
504,701,0,0,0,0,0,0,0,0,0,-1,1728,323,0,0
511,701,0,0,0,0,0,0,0,0,0,-1,1735,323,0,0
518,701,0,0,0,0,0,0,0,0,0,-1,1742,323,0,0
525,701,0,0,0,0,0,0,0,0,0,-1,1749,323,0,0
532,701,0,0,0,0,0,0,0,0,0,-1,1756,323,0,0
539,701,0,0,0,0,0,0,0,0,0,-1,1763,323,0,0
546,701,0,0,0,0,0,0,0,0,0,-1,1770,323,0,0
553,701,0,0,0,0,0,0,0,0,0,-1,1777,323,0,0
560,701,0,0,0,0,0,0,0,0,0,-1,1784,323,0,0
567,701,0,0,0,0,0,0,0,0,0,-1,1791,323,0,0
574,701,0,0,0,0,0,0,0,0,0,-1,1798,323,0,0
581,701,0,0,0,0,0,0,0,0,0,-1,1805,323,0,0
588,701,0,0,0,0,0,0,0,0,0,-1,1812,323,0,0
595,701,0,0,0,0,0,0,0,0,0,-1,1819,323,0,0
602,701,0,0,0,0,0,0,0,0,0,-1,1826,323,0,0
609,701,0,0,0,0,0,0,0,0,0,-1,1833,323,0,0
616,701,0,0,0,0,0,0,0,0,0,-1,1840,323,0,0
623,701,0,0,0,0,0,0,0,0,0,-1,1847,323,0,0
630,701,0,0,0,0,0,0,0,0,0,-1,1854,323,0,0
637,701,0,0,0,0,0,0,0,0,0,-1,1861,323,0,0
644,701,0,0,0,0,0,0,0,0,0,-1,1868,323,0,0
651,701,0,0,0,0,0,0,0,0,0,-1,1875,323,0,0
658,701,0,0,0,0,0,0,0,0,0,-1,1882,323,0,0
665,701,0,0,0,0,0,0,0,0,0,-1,1889,323,0,0
672,701,0,0,0,0,0,0,0,0,0,-1,1896,323,0,0
679,701,0,0,0,0,0,0,0,0,0,-1,1903,323,0,0
686,701,0,0,0,0,0,0,0,0,0,-1,1910,323,0,0
693,701,0,0,0,0,0,0,0,0,0,-1,1917,323,0,0
700,701,0,0,0,0,0,0,0,0,0,-1,1924,323,0,0
707,701,0,0,0,0,0,0,0,0,0,-1,1931,323,0,0
714,701,0,0,0,0,0,0,0,0,0,-1,1938,323,0,0
721,701,0,0,0,0,0,0,0,0,0,-1,1945,323,0,0
728,701,0,0,0,0,0,0,0,0,0,-1,1952,323,0,0
735,701,0,0,0,0,0,0,0,0,0,-1,1959,323,0,0
742,701,0,0,0,0,0,0,0,0,0,-1,1966,323,0,0
749,701,0,0,0,0,0,0,0,0,0,-1,1973,323,0,0
756,701,0,0,0,0,0,0,0,0,0,-1,1980,323,0,0
763,701,0,0,0,0,0,0,0,0,0,-1,1987,323,0,0
770,701,0,0,0,0,0,0,0,0,0,-1,1994,323,0,0
777,701,0,0,0,0,0,0,0,0,0,-1,2001,323,0,0
784,701,0,0,0,0,0,0,0,0,0,-1,2008,323,0,0
791,701,0,0,0,0,0,0,0,0,0,-1,2015,323,0,0
798,701,0,0,0,0,0,0,0,0,0,-1,2022,323,0,0
805,701,0,0,0,0,0,0,0,0,0,-1,2029,323,0,0
812,701,0,0,0,0,0,0,0,0,0,-1,2036,323,0,0
-700,694,0,0,0,0,0,0,0,0,0,-1,524,330,0,0
-693,694,0,0,0,0,0,0,0,0,0,-1,531,330,0,0
-686,694,0,0,0,0,0,0,0,0,0,-1,538,330,0,0
-679,694,0,0,0,0,0,0,0,0,0,-1,545,330,0,0
-672,694,0,0,0,0,0,0,0,0,0,-1,552,330,0,0
-665,694,0,0,0,0,0,0,0,0,0,-1,559,330,0,0
-658,694,0,0,0,0,0,0,0,0,0,-1,566,330,0,0
-651,694,0,0,0,0,0,0,0,0,0,-1,573,330,0,0
-644,694,0,0,0,0,0,0,0,0,0,-1,580,330,0,0
-637,694,0,0,0,0,0,0,0,0,0,-1,587,330,0,0
-630,694,0,0,0,0,0,0,0,0,0,-1,594,330,0,0
-623,694,0,0,0,0,0,0,0,0,0,-1,601,330,0,0
-616,694,0,0,0,0,0,0,0,0,0,-1,608,330,0,0
-609,694,0,0,0,0,0,0,0,0,0,-1,615,330,0,0
-602,694,0,0,0,0,0,0,0,0,0,-1,622,330,0,0
-595,694,0,0,0,0,0,0,0,0,0,-1,629,330,0,0
-588,694,0,0,0,0,0,0,0,0,0,-1,636,330,0,0
-581,694,0,0,0,0,0,0,0,0,0,-1,643,330,0,0
-574,694,0,0,0,0,0,0,0,0,0,-1,650,330,0,0
-567,694,0,0,0,0,0,0,0,0,0,-1,657,330,0,0
-560,694,0,0,0,0,0,0,0,0,0,-1,664,330,0,0
-553,694,0,0,0,0,0,0,0,0,0,-1,671,330,0,0
-546,694,0,0,0,0,0,0,0,0,0,-1,678,330,0,0
-539,694,0,0,0,0,0,0,0,0,0,-1,685,330,0,0
-532,694,0,0,0,0,0,0,0,0,0,-1,692,330,0,0
-525,694,0,0,0,0,0,0,0,0,0,-1,699,330,0,0
-518,694,0,0,0,0,0,0,0,0,0,-1,706,330,0,0
-511,694,0,0,0,0,0,0,0,0,0,-1,713,330,0,0
-504,694,0,0,0,0,0,0,0,0,0,-1,720,330,0,0
-497,694,0,0,0,0,0,0,0,0,0,-1,727,330,0,0
-490,694,0,0,0,0,0,0,0,0,0,-1,734,330,0,0
-483,694,0,0,0,0,0,0,0,0,0,-1,741,330,0,0
-476,694,0,0,0,0,0,0,0,0,0,-1,748,330,0,0
-469,694,0,0,0,0,0,0,0,0,0,-1,755,330,0,0
-462,694,0,0,0,0,0,0,0,0,0,-1,762,330,0,0
-455,694,0,0,0,0,0,0,0,0,0,-1,769,330,0,0
-448,694,0,0,0,0,0,0,0,0,0,-1,776,330,0,0
-441,694,0,0,0,0,0,0,0,0,0,-1,783,330,0,0
-434,694,0,0,0,0,0,0,0,0,0,-1,790,330,0,0
-427,694,0,0,0,0,0,0,0,0,0,-1,797,330,0,0
-420,694,0,0,0,0,0,0,0,0,0,-1,804,330,0,0
-413,694,0,0,0,0,0,0,0,0,0,-1,811,330,0,0
-406,694,0,0,0,0,0,0,0,0,0,-1,818,330,0,0
-399,694,0,0,0,0,0,0,0,0,0,-1,825,330,0,0
-392,694,0,0,0,0,0,0,0,0,0,-1,832,330,0,0
-385,694,0,0,0,0,0,0,0,0,0,-1,839,330,0,0
-378,694,0,0,0,0,0,0,0,0,0,-1,846,330,0,0
-371,694,0,0,0,0,0,0,0,0,0,-1,853,330,0,0
-364,694,0,0,0,0,0,0,0,0,0,-1,860,330,0,0
-357,694,0,0,0,0,0,0,0,0,0,-1,867,330,0,0
-350,694,0,0,0,0,0,0,0,0,0,-1,874,330,0,0
-343,694,0,0,0,0,0,0,0,0,0,-1,881,330,0,0
-336,694,0,0,0,0,0,0,0,0,0,-1,888,330,0,0
-329,694,0,0,0,0,0,0,0,0,0,-1,895,330,0,0
-322,694,0,0,0,0,0,0,0,0,0,-1,902,330,0,0
-315,694,0,0,0,0,0,0,0,0,0,-1,909,330,0,0
-308,694,0,0,0,0,0,0,0,0,0,-1,916,330,0,0
-301,694,0,0,0,0,0,0,0,0,0,-1,923,330,0,0
-294,694,0,0,0,0,0,0,0,0,0,-1,930,330,0,0
-287,694,0,0,0,0,0,0,0,0,0,-1,937,330,0,0
-280,694,0,0,0,0,0,0,0,0,0,-1,944,330,0,0
-273,694,0,0,0,0,0,0,0,0,0,-1,951,330,0,0
-266,694,0,0,0,0,0,0,0,0,0,-1,958,330,0,0
-259,694,0,0,0,0,0,0,0,0,0,-1,965,330,0,0
-252,694,0,0,0,0,0,0,0,0,0,-1,972,330,0,0
-245,694,0,0,0,0,0,0,0,0,0,-1,979,330,0,0
-238,694,0,0,0,0,0,0,0,0,0,-1,986,330,0,0
-231,694,0,0,0,0,0,0,0,0,0,-1,993,330,0,0
-224,694,0,0,0,0,0,0,0,0,0,-1,1000,330,0,0
-217,694,0,0,0,0,0,0,0,0,0,-1,1007,330,0,0
-210,694,0,0,0,0,0,0,0,0,0,-1,1014,330,0,0
-203,694,0,0,0,0,0,0,0,0,0,-1,1021,330,0,0
-196,694,0,0,0,0,0,0,0,0,0,-1,1028,330,0,0
-189,694,0,0,0,0,0,0,0,0,0,-1,1035,330,0,0
-182,694,0,0,0,0,0,0,0,0,0,-1,1042,330,0,0
-175,694,0,0,0,0,0,0,0,0,0,-1,1049,330,0,0
-168,694,0,0,0,0,0,0,0,0,0,-1,1056,330,0,0
-161,694,0,0,0,0,0,0,0,0,0,-1,1063,330,0,0
-154,694,0,0,0,0,0,0,0,0,0,-1,1070,330,0,0
-147,694,0,0,0,0,0,0,0,0,0,-1,1077,330,0,0
-140,694,0,0,0,0,0,0,0,0,0,-1,1084,330,0,0
-133,694,0,0,0,0,0,0,0,0,0,-1,1091,330,0,0
-126,694,0,0,0,0,0,0,0,0,0,-1,1098,330,0,0
-119,694,0,0,0,0,0,0,0,0,0,-1,1105,330,0,0
-112,694,0,0,0,0,0,0,0,0,0,-1,1112,330,0,0
-105,694,2.5188,-19.3963,0,0,0,0,0,0,0,-1,1119,330,2.51882,19.3963
-98,694,1.34875,-10.1051,0,0,0,0,0,0,0,-1,1126,330,1.34874,10.1051
-91,694,6.62366,-46.8039,0,0,0,0,0,0,0,-1,1133,330,6.62363,46.8039
-84,694,0.0577393,-40.8823,0,0,0,0,0,0,0,-1,1140,330,0.0577026,40.8823
-77,694,-5.51379,-31.2714,0,0,0,0,0,0,0,-1,1147,330,-5.51383,31.2714
-70,694,-11.9945,-25.5143,0,0,0,0,0,0,0,-1,1154,330,-11.9945,25.5143
-63,694,-18.4752,-19.7572,0,0,0,0,0,0,0,-1,1161,330,-18.4752,19.7572
-56,694,-6.50623,-0.649139,0,0,0,0,0,0,0,-1,1168,330,-6.5062,0.649126
-49,694,-1.11426,0.0341797,0,0,0,0,0,0,0,-1,1175,330,-1.11424,-0.0341846
-42,694,-0.346313,-0.709595,0,0,0,0,0,0,0,-1,1182,330,-0.346298,0.709581
-35,694,-0.459106,-1.24713,0,0,0,0,0,0,0,-1,1189,330,-0.459142,1.24714
-28,694,-6.48413,-3.95972,0,0,0,0,0,0,0,-1,1196,330,-6.48414,3.9597
-21,694,5.77185,-39.7137,0,0,0,0,0,0,0,-1,1203,330,5.77182,39.7137
-14,694,6.92041,-40.7392,0,0,0,0,0,0,0,-1,1210,330,6.92047,40.7392
-7,694,7.55627,-40.7903,0.0412698,0.068881,0.0268415,0.0852592,0.0248916,1.02292,0.0506249,0.0460232,1217,330,7.55629,40.7902
0,694,7.52234,-41.183,0.0427733,0.0753651,0.033146,0.0960045,0.0221339,1.01387,0.0580491,0.0479379,1224,330,7.52237,41.183
7,694,7.81287,-40.5208,0.0438556,0.0816021,0.0391383,0.10618,0.0192776,1.01006,0.0653161,0.0420905,1231,330,7.81282,40.5209
14,694,8.08911,-39.9029,0.0423473,0.0889695,0.0433165,0.114849,0.0164677,1.03225,0.07171,0.0421664,1238,330,8.08915,39.9029
21,694,8.29199,-39.4272,0.0389138,0.0966456,0.0465837,0.122582,0.0129775,1.06277,0.0777572,0.0461983,1245,330,8.29194,39.4272
28,694,8.57202,-38.8813,0.0355721,0.104662,0.0487716,0.129883,0.0103506,1.09354,0.0833532,0.0456306,1252,330,8.57199,38.8813
35,694,9.07605,-38.3733,0.0314093,0.114105,0.0507665,0.138231,0.00728286,1.12715,0.089825,0.0453896,1259,330,9.07609,38.3733
42,694,9.4657,-38.0724,0.026122,0.123249,0.0519101,0.14577,0.00360055,1.16145,0.0960026,0.0477589,1266,330,9.46573,38.0724
49,694,9.56335,-37.9458,0.0207387,0.131898,0.0520259,0.152449,0.000188299,1.19461,0.10157,0.0475562,1273,330,9.56334,37.9458
56,694,9.42188,-37.5763,0.0159588,0.140945,0.0523231,0.159957,-0.00305329,1.22227,0.10767,0.0444699,1280,330,9.42184,37.5763
63,694,9.08228,-37.2546,0.0111184,0.150638,0.0548203,0.169601,-0.00784438,1.23777,0.11577,0.0434752,1287,330,9.08226,37.2546
70,694,5.61047,-38.7032,0,0,0,0,0,0,0,-1,1294,330,5.61053,38.7032
77,694,5.41272,-38.3726,0.00200188,0.169622,0.0594014,0.188538,-0.0169142,1.26251,0.131693,0.0455309,1301,330,5.41269,38.3726
84,694,5.21106,-38.0291,-0.00316764,0.176463,0.0625035,0.196071,-0.0227757,1.26681,0.13893,0.044943,1308,330,5.21102,38.029
91,694,4.86548,-37.7217,-0.00857072,0.181622,0.0661401,0.202361,-0.0293097,1.26694,0.145663,0.0431132,1315,330,4.86545,37.7217
98,694,4.57666,-37.8055,0,0,0,0,0,0,0,-1,1322,330,4.57665,37.8055
105,694,4.11218,-37.7553,-0.0171215,0.189409,0.0738848,0.213119,-0.0408314,1.26027,0.157464,0.047078,1329,330,4.11221,37.7553
112,694,3.80701,-37.7193,-0.0219646,0.189059,0.0761708,0.21368,-0.0465864,1.25815,0.160256,0.0447377,1336,330,3.80702,37.7193
119,694,3.68018,-37.4228,0,0,0,0,0,0,0,-1,1343,330,3.6802,37.4228
126,694,3.58093,-36.5078,0,0,0,0,0,0,0,-1,1350,330,3.58095,36.5078
133,694,3.02942,-35.6967,-0.0395835,0.182548,0.0791714,0.207877,-0.0649131,1.26115,0.164547,0.048468,1357,330,3.02937,35.6967
140,694,2.36987,-35.414,-0.0462777,0.175104,0.0750983,0.198175,-0.0693487,1.27274,0.160313,0.0477711,1364,330,2.36986,35.414
147,694,1.68079,-35.2183,0,0,0,0,0,0,0,-1,1371,330,1.68084,35.2183
154,694,3.06482,-38.0461,0,0,0,0,0,0,0,-1,1378,330,3.06478,38.0461
161,694,4.76746,-36.9827,0,0,0,0,0,0,0,-1,1385,330,4.76745,36.9827
168,694,30.451,0.196686,0,0,0,0,0,0,0,-1,1392,330,30.4511,-0.196674
175,694,31.0701,0.869873,0,0,0,0,0,0,0,-1,1399,330,31.07,-0.869874
182,694,8.29028,5.75238,0,0,0,0,0,0,0,-1,1406,330,8.29034,-5.75237
189,694,7.9801,4.46118,0,0,0,0,0,0,0,-1,1413,330,7.9801,-4.46118
196,694,7.39331,3.32632,0,0,0,0,0,0,0,-1,1420,330,7.39329,-3.32633
203,694,7.04492,2.20529,0,0,0,0,0,0,0,-1,1427,330,7.04496,-2.20529
210,694,6.44714,0.646912,0,0,0,0,0,0,0,-1,1434,330,6.44717,-0.646903
217,694,7.12061,-0.644958,0,0,0,0,0,0,0,-1,1441,330,7.12059,0.644961
224,694,6.74011,-1.70544,0,0,0,0,0,0,0,-1,1448,330,6.74013,1.70546
231,694,0,0,0,0,0,0,0,0,0,-1,1455,330,0,0
238,694,0,0,0,0,0,0,0,0,0,-1,1462,330,0,0
245,694,0,0,0,0,0,0,0,0,0,-1,1469,330,0,0
252,694,0,0,0,0,0,0,0,0,0,-1,1476,330,0,0
259,694,0,0,0,0,0,0,0,0,0,-1,1483,330,0,0
266,694,0,0,0,0,0,0,0,0,0,-1,1490,330,0,0
273,694,0,0,0,0,0,0,0,0,0,-1,1497,330,0,0
280,694,0,0,0,0,0,0,0,0,0,-1,1504,330,0,0
287,694,0,0,0,0,0,0,0,0,0,-1,1511,330,0,0
294,694,0,0,0,0,0,0,0,0,0,-1,1518,330,0,0
301,694,0,0,0,0,0,0,0,0,0,-1,1525,330,0,0
308,694,0,0,0,0,0,0,0,0,0,-1,1532,330,0,0
315,694,0,0,0,0,0,0,0,0,0,-1,1539,330,0,0
322,694,0,0,0,0,0,0,0,0,0,-1,1546,330,0,0
329,694,0,0,0,0,0,0,0,0,0,-1,1553,330,0,0
336,694,0,0,0,0,0,0,0,0,0,-1,1560,330,0,0
343,694,0,0,0,0,0,0,0,0,0,-1,1567,330,0,0
350,694,0,0,0,0,0,0,0,0,0,-1,1574,330,0,0
357,694,0,0,0,0,0,0,0,0,0,-1,1581,330,0,0
364,694,0,0,0,0,0,0,0,0,0,-1,1588,330,0,0
371,694,0,0,0,0,0,0,0,0,0,-1,1595,330,0,0
378,694,0,0,0,0,0,0,0,0,0,-1,1602,330,0,0
385,694,0,0,0,0,0,0,0,0,0,-1,1609,330,0,0
392,694,0,0,0,0,0,0,0,0,0,-1,1616,330,0,0
399,694,0,0,0,0,0,0,0,0,0,-1,1623,330,0,0
406,694,0,0,0,0,0,0,0,0,0,-1,1630,330,0,0
413,694,0,0,0,0,0,0,0,0,0,-1,1637,330,0,0
420,694,0,0,0,0,0,0,0,0,0,-1,1644,330,0,0
427,694,0,0,0,0,0,0,0,0,0,-1,1651,330,0,0
434,694,0,0,0,0,0,0,0,0,0,-1,1658,330,0,0
441,694,0,0,0,0,0,0,0,0,0,-1,1665,330,0,0
448,694,0,0,0,0,0,0,0,0,0,-1,1672,330,0,0
455,694,0,0,0,0,0,0,0,0,0,-1,1679,330,0,0
462,694,0,0,0,0,0,0,0,0,0,-1,1686,330,0,0
469,694,0,0,0,0,0,0,0,0,0,-1,1693,330,0,0
476,694,0,0,0,0,0,0,0,0,0,-1,1700,330,0,0
483,694,0,0,0,0,0,0,0,0,0,-1,1707,330,0,0
490,694,0,0,0,0,0,0,0,0,0,-1,1714,330,0,0
497,694,0,0,0,0,0,0,0,0,0,-1,1721,330,0,0
504,694,0,0,0,0,0,0,0,0,0,-1,1728,330,0,0
511,694,0,0,0,0,0,0,0,0,0,-1,1735,330,0,0
518,694,0,0,0,0,0,0,0,0,0,-1,1742,330,0,0
525,694,0,0,0,0,0,0,0,0,0,-1,1749,330,0,0
532,694,0,0,0,0,0,0,0,0,0,-1,1756,330,0,0
539,694,0,0,0,0,0,0,0,0,0,-1,1763,330,0,0
546,694,0,0,0,0,0,0,0,0,0,-1,1770,330,0,0
553,694,0,0,0,0,0,0,0,0,0,-1,1777,330,0,0
560,694,0,0,0,0,0,0,0,0,0,-1,1784,330,0,0
567,694,0,0,0,0,0,0,0,0,0,-1,1791,330,0,0
574,694,0,0,0,0,0,0,0,0,0,-1,1798,330,0,0
581,694,0,0,0,0,0,0,0,0,0,-1,1805,330,0,0
588,694,0,0,0,0,0,0,0,0,0,-1,1812,330,0,0
595,694,0,0,0,0,0,0,0,0,0,-1,1819,330,0,0
602,694,0,0,0,0,0,0,0,0,0,-1,1826,330,0,0
609,694,0,0,0,0,0,0,0,0,0,-1,1833,330,0,0
616,694,0,0,0,0,0,0,0,0,0,-1,1840,330,0,0
623,694,0,0,0,0,0,0,0,0,0,-1,1847,330,0,0
630,694,0,0,0,0,0,0,0,0,0,-1,1854,330,0,0
637,694,0,0,0,0,0,0,0,0,0,-1,1861,330,0,0
644,694,0,0,0,0,0,0,0,0,0,-1,1868,330,0,0
651,694,0,0,0,0,0,0,0,0,0,-1,1875,330,0,0
658,694,0,0,0,0,0,0,0,0,0,-1,1882,330,0,0
665,694,0,0,0,0,0,0,0,0,0,-1,1889,330,0,0
672,694,0,0,0,0,0,0,0,0,0,-1,1896,330,0,0
679,694,0,0,0,0,0,0,0,0,0,-1,1903,330,0,0
686,694,0,0,0,0,0,0,0,0,0,-1,1910,330,0,0
693,694,0,0,0,0,0,0,0,0,0,-1,1917,330,0,0
700,694,0,0,0,0,0,0,0,0,0,-1,1924,330,0,0
707,694,0,0,0,0,0,0,0,0,0,-1,1931,330,0,0
714,694,0,0,0,0,0,0,0,0,0,-1,1938,330,0,0
721,694,0,0,0,0,0,0,0,0,0,-1,1945,330,0,0
728,694,0,0,0,0,0,0,0,0,0,-1,1952,330,0,0
735,694,0,0,0,0,0,0,0,0,0,-1,1959,330,0,0
742,694,0,0,0,0,0,0,0,0,0,-1,1966,330,0,0
749,694,0,0,0,0,0,0,0,0,0,-1,1973,330,0,0
756,694,0,0,0,0,0,0,0,0,0,-1,1980,330,0,0
763,694,0,0,0,0,0,0,0,0,0,-1,1987,330,0,0
770,694,0,0,0,0,0,0,0,0,0,-1,1994,330,0,0
777,694,0,0,0,0,0,0,0,0,0,-1,2001,330,0,0
784,694,0,0,0,0,0,0,0,0,0,-1,2008,330,0,0
791,694,0,0,0,0,0,0,0,0,0,-1,2015,330,0,0
798,694,0,0,0,0,0,0,0,0,0,-1,2022,330,0,0
805,694,0,0,0,0,0,0,0,0,0,-1,2029,330,0,0
812,694,0,0,0,0,0,0,0,0,0,-1,2036,330,0,0
-700,687,0,0,0,0,0,0,0,0,0,-1,524,337,0,0
-693,687,0,0,0,0,0,0,0,0,0,-1,531,337,0,0
-686,687,0,0,0,0,0,0,0,0,0,-1,538,337,0,0
-679,687,0,0,0,0,0,0,0,0,0,-1,545,337,0,0
-672,687,0,0,0,0,0,0,0,0,0,-1,552,337,0,0
-665,687,0,0,0,0,0,0,0,0,0,-1,559,337,0,0
-658,687,0,0,0,0,0,0,0,0,0,-1,566,337,0,0
-651,687,0,0,0,0,0,0,0,0,0,-1,573,337,0,0
-644,687,0,0,0,0,0,0,0,0,0,-1,580,337,0,0
-637,687,0,0,0,0,0,0,0,0,0,-1,587,337,0,0
-630,687,0,0,0,0,0,0,0,0,0,-1,594,337,0,0
-623,687,0,0,0,0,0,0,0,0,0,-1,601,337,0,0
-616,687,0,0,0,0,0,0,0,0,0,-1,608,337,0,0
-609,687,0,0,0,0,0,0,0,0,0,-1,615,337,0,0
-602,687,0,0,0,0,0,0,0,0,0,-1,622,337,0,0
-595,687,0,0,0,0,0,0,0,0,0,-1,629,337,0,0
-588,687,0,0,0,0,0,0,0,0,0,-1,636,337,0,0
-581,687,0,0,0,0,0,0,0,0,0,-1,643,337,0,0
-574,687,0,0,0,0,0,0,0,0,0,-1,650,337,0,0
-567,687,0,0,0,0,0,0,0,0,0,-1,657,337,0,0
-560,687,0,0,0,0,0,0,0,0,0,-1,664,337,0,0
-553,687,0,0,0,0,0,0,0,0,0,-1,671,337,0,0
-546,687,0,0,0,0,0,0,0,0,0,-1,678,337,0,0
-539,687,0,0,0,0,0,0,0,0,0,-1,685,337,0,0
-532,687,0,0,0,0,0,0,0,0,0,-1,692,337,0,0
-525,687,0,0,0,0,0,0,0,0,0,-1,699,337,0,0
-518,687,0,0,0,0,0,0,0,0,0,-1,706,337,0,0
-511,687,0,0,0,0,0,0,0,0,0,-1,713,337,0,0
-504,687,0,0,0,0,0,0,0,0,0,-1,720,337,0,0
-497,687,0,0,0,0,0,0,0,0,0,-1,727,337,0,0
-490,687,0,0,0,0,0,0,0,0,0,-1,734,337,0,0
-483,687,0,0,0,0,0,0,0,0,0,-1,741,337,0,0
-476,687,0,0,0,0,0,0,0,0,0,-1,748,337,0,0
-469,687,0,0,0,0,0,0,0,0,0,-1,755,337,0,0
-462,687,0,0,0,0,0,0,0,0,0,-1,762,337,0,0
-455,687,0,0,0,0,0,0,0,0,0,-1,769,337,0,0
-448,687,0,0,0,0,0,0,0,0,0,-1,776,337,0,0
-441,687,0,0,0,0,0,0,0,0,0,-1,783,337,0,0
-434,687,0,0,0,0,0,0,0,0,0,-1,790,337,0,0
-427,687,0,0,0,0,0,0,0,0,0,-1,797,337,0,0
-420,687,0,0,0,0,0,0,0,0,0,-1,804,337,0,0
-413,687,0,0,0,0,0,0,0,0,0,-1,811,337,0,0
-406,687,0,0,0,0,0,0,0,0,0,-1,818,337,0,0
-399,687,0,0,0,0,0,0,0,0,0,-1,825,337,0,0
-392,687,0,0,0,0,0,0,0,0,0,-1,832,337,0,0
-385,687,0,0,0,0,0,0,0,0,0,-1,839,337,0,0
-378,687,0,0,0,0,0,0,0,0,0,-1,846,337,0,0
-371,687,0,0,0,0,0,0,0,0,0,-1,853,337,0,0
-364,687,0,0,0,0,0,0,0,0,0,-1,860,337,0,0
-357,687,0,0,0,0,0,0,0,0,0,-1,867,337,0,0
-350,687,0,0,0,0,0,0,0,0,0,-1,874,337,0,0
-343,687,0,0,0,0,0,0,0,0,0,-1,881,337,0,0
-336,687,0,0,0,0,0,0,0,0,0,-1,888,337,0,0
-329,687,0,0,0,0,0,0,0,0,0,-1,895,337,0,0
-322,687,0,0,0,0,0,0,0,0,0,-1,902,337,0,0
-315,687,0,0,0,0,0,0,0,0,0,-1,909,337,0,0
-308,687,0,0,0,0,0,0,0,0,0,-1,916,337,0,0
-301,687,0,0,0,0,0,0,0,0,0,-1,923,337,0,0
-294,687,0,0,0,0,0,0,0,0,0,-1,930,337,0,0
-287,687,0,0,0,0,0,0,0,0,0,-1,937,337,0,0
-280,687,0,0,0,0,0,0,0,0,0,-1,944,337,0,0
-273,687,0,0,0,0,0,0,0,0,0,-1,951,337,0,0
-266,687,0,0,0,0,0,0,0,0,0,-1,958,337,0,0
-259,687,0,0,0,0,0,0,0,0,0,-1,965,337,0,0
-252,687,0,0,0,0,0,0,0,0,0,-1,972,337,0,0
-245,687,0,0,0,0,0,0,0,0,0,-1,979,337,0,0
-238,687,0,0,0,0,0,0,0,0,0,-1,986,337,0,0
-231,687,0,0,0,0,0,0,0,0,0,-1,993,337,0,0
-224,687,0,0,0,0,0,0,0,0,0,-1,1000,337,0,0
-217,687,0,0,0,0,0,0,0,0,0,-1,1007,337,0,0
-210,687,0,0,0,0,0,0,0,0,0,-1,1014,337,0,0
-203,687,0,0,0,0,0,0,0,0,0,-1,1021,337,0,0
-196,687,0,0,0,0,0,0,0,0,0,-1,1028,337,0,0
-189,687,0,0,0,0,0,0,0,0,0,-1,1035,337,0,0
-182,687,0,0,0,0,0,0,0,0,0,-1,1042,337,0,0
-175,687,0,0,0,0,0,0,0,0,0,-1,1049,337,0,0
-168,687,0,0,0,0,0,0,0,0,0,-1,1056,337,0,0
-161,687,0,0,0,0,0,0,0,0,0,-1,1063,337,0,0
-154,687,0,0,0,0,0,0,0,0,0,-1,1070,337,0,0
-147,687,0,0,0,0,0,0,0,0,0,-1,1077,337,0,0
-140,687,0,0,0,0,0,0,0,0,0,-1,1084,337,0,0
-133,687,7.93958,-37.548,0,0,0,0,0,0,0,-1,1091,337,7.93957,37.548
-126,687,7.81189,-35.631,0,0,0,0,0,0,0,-1,1098,337,7.81194,35.631
-119,687,7.70825,-33.9236,0,0,0,0,0,0,0,-1,1105,337,7.70826,33.9236
-112,687,7.99866,-32.2983,0,0,0,0,0,0,0,-1,1112,337,7.99866,32.2983
-105,687,1.3208,-29.8313,0,0,0,0,0,0,0,-1,1119,337,1.3208,29.8313
-98,687,13.7111,-47.5645,0,0,0,0,0,0,0,-1,1126,337,13.711,47.5645
-91,687,7.22083,-41.1667,0,0,0,0,0,0,0,-1,1133,337,7.22079,41.1666
-84,687,0.745117,-35.0345,0,0,0,0,0,0,0,-1,1140,337,0.745155,35.0345
-77,687,-5.74353,-28.9553,0,0,0,0,0,0,0,-1,1147,337,-5.74357,28.9553
-70,687,-11.6842,-19.8473,0,0,0,0,0,0,0,-1,1154,337,-11.6842,19.8473
-63,687,-17.6757,-14.8966,0,0,0,0,0,0,0,-1,1161,337,-17.6756,14.8966
-56,687,-18.104,7.81931,0,0,0,0,0,0,0,-1,1168,337,-18.104,-7.81931
-49,687,-15.6449,-9.94391,0,0,0,0,0,0,0,-1,1175,337,-15.6449,9.94392
-42,687,-4.2019,-0.405609,0,0,0,0,0,0,0,-1,1182,337,-4.20192,0.405614
-35,687,-4.42273,-0.688171,0,0,0,0,0,0,0,-1,1189,337,-4.42276,0.688178
-28,687,-1.14038,-1.39072,0,0,0,0,0,0,0,-1,1196,337,-1.14035,1.3907
-21,687,5.62231,-41.2476,0,0,0,0,0,0,0,-1,1203,337,5.62231,41.2476
-14,687,6.25684,-41.2118,0.0295477,0.0546255,0.0183389,0.0643023,0.0198708,1.08526,0.038017,0.0481964,1210,337,6.25685,41.2118
-7,687,6.64148,-41.3547,0.0307177,0.0595453,0.0230062,0.0722801,0.017983,1.06524,0.043451,0.0473808,1217,337,6.64148,41.3547
0,687,6.90613,-41.2374,0.0318341,0.0647296,0.027669,0.0804704,0.0160933,1.05356,0.0491684,0.0492262,1224,337,6.90609,41.2374
7,687,7.20081,-40.9335,0.032677,0.0710186,0.0326515,0.0897112,0.0139844,1.05085,0.0557339,0.0464781,1231,337,7.20083,40.9335
14,687,7.52429,-40.4688,0.0314636,0.0775471,0.036044,0.097285,0.0117257,1.06979,0.0613229,0.0453124,1238,337,7.52423,40.4688
21,687,8.00537,-40.3611,0.0288865,0.0848925,0.0387409,0.104691,0.00908762,1.09834,0.0669709,0.0472351,1245,337,8.0054,40.3611
28,687,8.2334,-39.839,0.0263465,0.0924155,0.0406248,0.111742,0.00702025,1.12676,0.0722682,0.0459439,1252,337,8.23341,39.839
35,687,8.43713,-39.5286,0,0,0,0,0,0,0,-1,1259,337,8.4371,39.5286
42,687,8.82153,-39.1603,0.0190098,0.10948,0.0433339,0.126887,0.00160281,1.18883,0.0840623,0.0472256,1266,337,8.82152,39.1603
49,687,8.94153,-38.6994,0.0148321,0.117295,0.0434986,0.133271,-0.00114352,1.21882,0.0892307,0.0480533,1273,337,8.94149,38.6994
56,687,9.36902,-38.2993,0.0108912,0.125439,0.0436037,0.140148,-0.00381815,1.24544,0.0947304,0.0469944,1280,337,9.36905,38.2993
63,687,5.42773,-38.8747,0,0,0,0,0,0,0,-1,1287,337,5.42771,38.8747
70,687,5.49719,-39.1376,0.00254226,0.143251,0.0474987,0.157784,-0.0119907,1.27388,0.109405,0.0396978,1294,337,5.49715,39.1376
77,687,5.55566,-39.3799,-0.000936798,0.149793,0.0489353,0.164286,-0.0154303,1.28285,0.115013,0.0433845,1301,337,5.55562,39.3799
84,687,5.34351,-39.0741,-0.00531527,0.155039,0.0512341,0.17001,-0.020287,1.28649,0.120672,0.0470576,1308,337,5.34351,39.0741
91,687,5.07935,-38.7866,-0.00980759,0.158774,0.0539539,0.174563,-0.0255966,1.28611,0.125779,0.0457264,1315,337,5.07939,38.7866
98,687,4.60791,-38.6038,0,0,0,0,0,0,0,-1,1322,337,4.60789,38.6038
105,687,2.93872,-39.3994,-0.0164334,0.163858,0.0596171,0.181788,-0.0343638,1.27864,0.134122,0.0433729,1329,337,2.93869,39.3994
112,687,2.44421,-39.5615,-0.0200546,0.162554,0.0610226,0.181069,-0.0385694,1.27622,0.135413,0.0459045,1336,337,2.44423,39.5615
119,687,2.2251,-39.2875,-0.0231513,0.162592,0.063829,0.182411,-0.0429708,1.26973,0.138177,0.0450761,1343,337,2.2251,39.2875
126,687,2.03223,-38.9857,0,0,0,0,0,0,0,-1,1350,337,2.03222,38.9857
133,687,2.03772,-36.7859,0,0,0,0,0,0,0,-1,1357,337,2.03766,36.786
140,687,1.5459,-36.5618,0,0,0,0,0,0,0,-1,1364,337,1.54585,36.5618
147,687,2.7168,-39.7934,0,0,0,0,0,0,0,-1,1371,337,2.71685,39.7934
154,687,3.94287,-38.8627,0,0,0,0,0,0,0,-1,1378,337,3.94292,38.8627
161,687,29.3895,-1.90628,0,0,0,0,0,0,0,-1,1385,337,29.3895,1.90628
168,687,29.8564,-1.19434,0,0,0,0,0,0,0,-1,1392,337,29.8564,1.19434
175,687,30.3419,-0.453583,0,0,0,0,0,0,0,-1,1399,337,30.3419,0.45357
182,687,6.67249,0.289917,0,0,0,0,0,0,0,-1,1406,337,6.67247,-0.289916
189,687,7.76062,4.53635,0,0,0,0,0,0,0,-1,1413,337,7.76064,-4.53636
196,687,6.99048,3.2966,0,0,0,0,0,0,0,-1,1420,337,6.99046,-3.2966
203,687,6.36499,2.1445,0,0,0,0,0,0,0,-1,1427,337,6.36499,-2.14451
210,687,6.68066,0.674652,0,0,0,0,0,0,0,-1,1434,337,6.68062,-0.674655
217,687,5.99683,-0.630493,0,0,0,0,0,0,0,-1,1441,337,5.99684,0.630497
224,687,5.52917,0.524902,0,0,0,0,0,0,0,-1,1448,337,5.5292,-0.524915
231,687,5.85583,-1.73651,0,0,0,0,0,0,0,-1,1455,337,5.85577,1.73651
238,687,5.96582,-2.96774,0,0,0,0,0,0,0,-1,1462,337,5.96577,2.96773
245,687,1.28259,2.32211,0,0,0,0,0,0,0,-1,1469,337,1.28258,-2.32211
252,687,1.97278,3.88422,0,0,0,0,0,0,0,-1,1476,337,1.97281,-3.88421
259,687,0,0,0,0,0,0,0,0,0,-1,1483,337,0,0
266,687,0,0,0,0,0,0,0,0,0,-1,1490,337,0,0
273,687,0,0,0,0,0,0,0,0,0,-1,1497,337,0,0
280,687,0,0,0,0,0,0,0,0,0,-1,1504,337,0,0
287,687,0,0,0,0,0,0,0,0,0,-1,1511,337,0,0
294,687,0,0,0,0,0,0,0,0,0,-1,1518,337,0,0
301,687,0,0,0,0,0,0,0,0,0,-1,1525,337,0,0
308,687,0,0,0,0,0,0,0,0,0,-1,1532,337,0,0
315,687,0,0,0,0,0,0,0,0,0,-1,1539,337,0,0
322,687,0,0,0,0,0,0,0,0,0,-1,1546,337,0,0
329,687,0,0,0,0,0,0,0,0,0,-1,1553,337,0,0
336,687,0,0,0,0,0,0,0,0,0,-1,1560,337,0,0
343,687,0,0,0,0,0,0,0,0,0,-1,1567,337,0,0
350,687,0,0,0,0,0,0,0,0,0,-1,1574,337,0,0
357,687,0,0,0,0,0,0,0,0,0,-1,1581,337,0,0
364,687,0,0,0,0,0,0,0,0,0,-1,1588,337,0,0
371,687,0,0,0,0,0,0,0,0,0,-1,1595,337,0,0
378,687,0,0,0,0,0,0,0,0,0,-1,1602,337,0,0
385,687,0,0,0,0,0,0,0,0,0,-1,1609,337,0,0
392,687,0,0,0,0,0,0,0,0,0,-1,1616,337,0,0
399,687,0,0,0,0,0,0,0,0,0,-1,1623,337,0,0
406,687,0,0,0,0,0,0,0,0,0,-1,1630,337,0,0
413,687,0,0,0,0,0,0,0,0,0,-1,1637,337,0,0
420,687,0,0,0,0,0,0,0,0,0,-1,1644,337,0,0
427,687,0,0,0,0,0,0,0,0,0,-1,1651,337,0,0
434,687,0,0,0,0,0,0,0,0,0,-1,1658,337,0,0
441,687,0,0,0,0,0,0,0,0,0,-1,1665,337,0,0
448,687,0,0,0,0,0,0,0,0,0,-1,1672,337,0,0
455,687,0,0,0,0,0,0,0,0,0,-1,1679,337,0,0
462,687,0,0,0,0,0,0,0,0,0,-1,1686,337,0,0
469,687,0,0,0,0,0,0,0,0,0,-1,1693,337,0,0
476,687,0,0,0,0,0,0,0,0,0,-1,1700,337,0,0
483,687,0,0,0,0,0,0,0,0,0,-1,1707,337,0,0
490,687,0,0,0,0,0,0,0,0,0,-1,1714,337,0,0
497,687,0,0,0,0,0,0,0,0,0,-1,1721,337,0,0
504,687,0,0,0,0,0,0,0,0,0,-1,1728,337,0,0
511,687,0,0,0,0,0,0,0,0,0,-1,1735,337,0,0
518,687,0,0,0,0,0,0,0,0,0,-1,1742,337,0,0
525,687,0,0,0,0,0,0,0,0,0,-1,1749,337,0,0
532,687,0,0,0,0,0,0,0,0,0,-1,1756,337,0,0
539,687,0,0,0,0,0,0,0,0,0,-1,1763,337,0,0
546,687,0,0,0,0,0,0,0,0,0,-1,1770,337,0,0
553,687,0,0,0,0,0,0,0,0,0,-1,1777,337,0,0
560,687,0,0,0,0,0,0,0,0,0,-1,1784,337,0,0
567,687,0,0,0,0,0,0,0,0,0,-1,1791,337,0,0
574,687,0,0,0,0,0,0,0,0,0,-1,1798,337,0,0
581,687,0,0,0,0,0,0,0,0,0,-1,1805,337,0,0
588,687,0,0,0,0,0,0,0,0,0,-1,1812,337,0,0
595,687,0,0,0,0,0,0,0,0,0,-1,1819,337,0,0
602,687,0,0,0,0,0,0,0,0,0,-1,1826,337,0,0
609,687,0,0,0,0,0,0,0,0,0,-1,1833,337,0,0
616,687,0,0,0,0,0,0,0,0,0,-1,1840,337,0,0
623,687,0,0,0,0,0,0,0,0,0,-1,1847,337,0,0
630,687,0,0,0,0,0,0,0,0,0,-1,1854,337,0,0
637,687,0,0,0,0,0,0,0,0,0,-1,1861,337,0,0
644,687,0,0,0,0,0,0,0,0,0,-1,1868,337,0,0
651,687,0,0,0,0,0,0,0,0,0,-1,1875,337,0,0
658,687,0,0,0,0,0,0,0,0,0,-1,1882,337,0,0
665,687,0,0,0,0,0,0,0,0,0,-1,1889,337,0,0
672,687,0,0,0,0,0,0,0,0,0,-1,1896,337,0,0
679,687,0,0,0,0,0,0,0,0,0,-1,1903,337,0,0
686,687,0,0,0,0,0,0,0,0,0,-1,1910,337,0,0
693,687,0,0,0,0,0,0,0,0,0,-1,1917,337,0,0
700,687,0,0,0,0,0,0,0,0,0,-1,1924,337,0,0
707,687,0,0,0,0,0,0,0,0,0,-1,1931,337,0,0
714,687,0,0,0,0,0,0,0,0,0,-1,1938,337,0,0
721,687,0,0,0,0,0,0,0,0,0,-1,1945,337,0,0
728,687,0,0,0,0,0,0,0,0,0,-1,1952,337,0,0
735,687,0,0,0,0,0,0,0,0,0,-1,1959,337,0,0
742,687,0,0,0,0,0,0,0,0,0,-1,1966,337,0,0
749,687,0,0,0,0,0,0,0,0,0,-1,1973,337,0,0
756,687,0,0,0,0,0,0,0,0,0,-1,1980,337,0,0
763,687,0,0,0,0,0,0,0,0,0,-1,1987,337,0,0
770,687,0,0,0,0,0,0,0,0,0,-1,1994,337,0,0
777,687,0,0,0,0,0,0,0,0,0,-1,2001,337,0,0
784,687,0,0,0,0,0,0,0,0,0,-1,2008,337,0,0
791,687,0,0,0,0,0,0,0,0,0,-1,2015,337,0,0
798,687,0,0,0,0,0,0,0,0,0,-1,2022,337,0,0
805,687,0,0,0,0,0,0,0,0,0,-1,2029,337,0,0
812,687,0,0,0,0,0,0,0,0,0,-1,2036,337,0,0
-700,680,0,0,0,0,0,0,0,0,0,-1,524,344,0,0
-693,680,0,0,0,0,0,0,0,0,0,-1,531,344,0,0
-686,680,0,0,0,0,0,0,0,0,0,-1,538,344,0,0
-679,680,0,0,0,0,0,0,0,0,0,-1,545,344,0,0
-672,680,0,0,0,0,0,0,0,0,0,-1,552,344,0,0
-665,680,0,0,0,0,0,0,0,0,0,-1,559,344,0,0
-658,680,0,0,0,0,0,0,0,0,0,-1,566,344,0,0
-651,680,0,0,0,0,0,0,0,0,0,-1,573,344,0,0
-644,680,0,0,0,0,0,0,0,0,0,-1,580,344,0,0
-637,680,0,0,0,0,0,0,0,0,0,-1,587,344,0,0
-630,680,0,0,0,0,0,0,0,0,0,-1,594,344,0,0
-623,680,0,0,0,0,0,0,0,0,0,-1,601,344,0,0
-616,680,0,0,0,0,0,0,0,0,0,-1,608,344,0,0
-609,680,0,0,0,0,0,0,0,0,0,-1,615,344,0,0
-602,680,0,0,0,0,0,0,0,0,0,-1,622,344,0,0
-595,680,0,0,0,0,0,0,0,0,0,-1,629,344,0,0
-588,680,0,0,0,0,0,0,0,0,0,-1,636,344,0,0
-581,680,0,0,0,0,0,0,0,0,0,-1,643,344,0,0
-574,680,0,0,0,0,0,0,0,0,0,-1,650,344,0,0
-567,680,0,0,0,0,0,0,0,0,0,-1,657,344,0,0
-560,680,0,0,0,0,0,0,0,0,0,-1,664,344,0,0
-553,680,0,0,0,0,0,0,0,0,0,-1,671,344,0,0
-546,680,0,0,0,0,0,0,0,0,0,-1,678,344,0,0
-539,680,0,0,0,0,0,0,0,0,0,-1,685,344,0,0
-532,680,0,0,0,0,0,0,0,0,0,-1,692,344,0,0
-525,680,0,0,0,0,0,0,0,0,0,-1,699,344,0,0
-518,680,0,0,0,0,0,0,0,0,0,-1,706,344,0,0
-511,680,0,0,0,0,0,0,0,0,0,-1,713,344,0,0
-504,680,0,0,0,0,0,0,0,0,0,-1,720,344,0,0
-497,680,0,0,0,0,0,0,0,0,0,-1,727,344,0,0
-490,680,0,0,0,0,0,0,0,0,0,-1,734,344,0,0
-483,680,0,0,0,0,0,0,0,0,0,-1,741,344,0,0
-476,680,0,0,0,0,0,0,0,0,0,-1,748,344,0,0
-469,680,0,0,0,0,0,0,0,0,0,-1,755,344,0,0
-462,680,0,0,0,0,0,0,0,0,0,-1,762,344,0,0
-455,680,0,0,0,0,0,0,0,0,0,-1,769,344,0,0
-448,680,0,0,0,0,0,0,0,0,0,-1,776,344,0,0
-441,680,0,0,0,0,0,0,0,0,0,-1,783,344,0,0
-434,680,0,0,0,0,0,0,0,0,0,-1,790,344,0,0
-427,680,0,0,0,0,0,0,0,0,0,-1,797,344,0,0
-420,680,0,0,0,0,0,0,0,0,0,-1,804,344,0,0
-413,680,0,0,0,0,0,0,0,0,0,-1,811,344,0,0
-406,680,0,0,0,0,0,0,0,0,0,-1,818,344,0,0
-399,680,0,0,0,0,0,0,0,0,0,-1,825,344,0,0
-392,680,0,0,0,0,0,0,0,0,0,-1,832,344,0,0
-385,680,0,0,0,0,0,0,0,0,0,-1,839,344,0,0
-378,680,0,0,0,0,0,0,0,0,0,-1,846,344,0,0
-371,680,0,0,0,0,0,0,0,0,0,-1,853,344,0,0
-364,680,0,0,0,0,0,0,0,0,0,-1,860,344,0,0
-357,680,0,0,0,0,0,0,0,0,0,-1,867,344,0,0
-350,680,0,0,0,0,0,0,0,0,0,-1,874,344,0,0
-343,680,0,0,0,0,0,0,0,0,0,-1,881,344,0,0
-336,680,0,0,0,0,0,0,0,0,0,-1,888,344,0,0
-329,680,0,0,0,0,0,0,0,0,0,-1,895,344,0,0
-322,680,0,0,0,0,0,0,0,0,0,-1,902,344,0,0
-315,680,0,0,0,0,0,0,0,0,0,-1,909,344,0,0
-308,680,0,0,0,0,0,0,0,0,0,-1,916,344,0,0
-301,680,0,0,0,0,0,0,0,0,0,-1,923,344,0,0
-294,680,0,0,0,0,0,0,0,0,0,-1,930,344,0,0
-287,680,0,0,0,0,0,0,0,0,0,-1,937,344,0,0
-280,680,0,0,0,0,0,0,0,0,0,-1,944,344,0,0
-273,680,0,0,0,0,0,0,0,0,0,-1,951,344,0,0
-266,680,0,0,0,0,0,0,0,0,0,-1,958,344,0,0
-259,680,0,0,0,0,0,0,0,0,0,-1,965,344,0,0
-252,680,0,0,0,0,0,0,0,0,0,-1,972,344,0,0
-245,680,0,0,0,0,0,0,0,0,0,-1,979,344,0,0
-238,680,0,0,0,0,0,0,0,0,0,-1,986,344,0,0
-231,680,0,0,0,0,0,0,0,0,0,-1,993,344,0,0
-224,680,0,0,0,0,0,0,0,0,0,-1,1000,344,0,0
-217,680,0,0,0,0,0,0,0,0,0,-1,1007,344,0,0
-210,680,0,0,0,0,0,0,0,0,0,-1,1014,344,0,0
-203,680,0,0,0,0,0,0,0,0,0,-1,1021,344,0,0
-196,680,0,0,0,0,0,0,0,0,0,-1,1028,344,0,0
-189,680,0,0,0,0,0,0,0,0,0,-1,1035,344,0,0
-182,680,0,0,0,0,0,0,0,0,0,-1,1042,344,0,0
-175,680,0,0,0,0,0,0,0,0,0,-1,1049,344,0,0
-168,680,0,0,0,0,0,0,0,0,0,-1,1056,344,0,0
-161,680,0,0,0,0,0,0,0,0,0,-1,1063,344,0,0
-154,680,2.25244,-29.1442,0,0,0,0,0,0,0,-1,1070,344,2.25241,29.1442
-147,680,9.29614,-33.0369,0,0,0,0,0,0,0,-1,1077,344,9.29612,33.0369
-140,680,6.98022,-36.6899,0,0,0,0,0,0,0,-1,1084,344,6.98023,36.6899
-133,680,5.89795,-35.7619,0,0,0,0,0,0,0,-1,1091,344,5.89789,35.7619
-126,680,7.58716,-35.439,0,0,0,0,0,0,0,-1,1098,344,7.58714,35.439
-119,680,7.4646,-34.0222,0,0,0,0,0,0,0,-1,1105,344,7.46462,34.0222
-112,680,7.7467,-32.4407,0,0,0,0,0,0,0,-1,1112,344,7.74668,32.4407
-105,680,20.6371,-48.461,0,0,0,0,0,0,0,-1,1119,344,20.6371,48.461
-98,680,14.2684,-41.9997,0,0,0,0,0,0,0,-1,1126,344,14.2685,41.9997
-91,680,7.89648,-35.5147,0,0,0,0,0,0,0,-1,1133,344,7.8965,35.5147
-84,680,1.47168,-29.471,0,0,0,0,0,0,0,-1,1140,344,1.47163,29.471
-77,680,-4.95337,-23.3355,0,0,0,0,0,0,0,-1,1147,344,-4.9534,23.3356
-70,680,-11.5099,-17.4337,0,0,0,0,0,0,0,-1,1154,344,-11.5098,17.4338
-63,680,-17.2391,-1.43134,0,0,0,0,0,0,0,-1,1161,344,-17.2392,1.43133
-56,680,-6.96912,-8.83356,0,0,0,0,0,0,0,-1,1168,344,-6.96907,8.83354
-49,680,-6.7677,-2.24063,0,0,0,0,0,0,0,-1,1175,344,-6.76772,2.24063
-42,680,-1.02368,0.618805,0,0,0,0,0,0,0,-1,1182,344,-1.0237,-0.618797
-35,680,-0.947876,-0.942719,0,0,0,0,0,0,0,-1,1189,344,-0.947842,0.942731
-28,680,-1.46118,-1.10574,0,0,0,0,0,0,0,-1,1196,344,-1.4612,1.10575
-21,680,6.37268,-40.6105,0,0,0,0,0,0,0,-1,1203,344,6.37274,40.6105
-14,680,6.45508,-40.9311,0.0208613,0.0461948,0.0152879,0.0533817,0.0136744,1.13135,0.0320183,0.0444499,1210,344,6.45507,40.9311
-7,680,6.53418,-41.4712,0.021798,0.0502356,0.0186829,0.059495,0.0125385,1.11067,0.0362147,0.0452195,1217,344,6.53413,41.4712
0,680,6.48938,-41.9276,0,0,0,0,0,0,0,-1,1224,344,6.48944,41.9276
7,680,6.6366,-41.2761,0.0234076,0.0602458,0.0262427,0.0738882,0.00976512,1.09139,0.046348,0.0494261,1231,344,6.6366,41.2761
14,680,6.83203,-41.0908,0.0225096,0.0657947,0.0289721,0.0803155,0.00798885,1.10619,0.0510893,0.0456203,1238,344,6.83202,41.0908
21,680,6.1875,-41.8666,0,0,0,0,0,0,0,-1,1245,344,6.18755,41.8666
28,680,6.1792,-41.955,0,0,0,0,0,0,0,-1,1252,344,6.17923,41.955
35,680,6.08606,-41.969,0,0,0,0,0,0,0,-1,1259,344,6.08606,41.969
42,680,8.35425,-40.2339,0,0,0,0,0,0,0,-1,1266,344,8.35429,40.2338
49,680,8.44604,-40.0325,0,0,0,0,0,0,0,-1,1273,344,8.446,40.0325
56,680,5.60059,-42.0871,0.00697903,0.107913,0.0353258,0.119049,-0.00415613,1.26544,0.0807867,0.0425022,1280,344,5.60064,42.0871
63,680,5.72571,-41.7138,0.00356741,0.115302,0.0366395,0.126245,-0.00737553,1.28056,0.0867264,0.0418339,1287,344,5.72573,41.7138
70,680,5.68347,-41.3898,0.00019315,0.122869,0.038263,0.133825,-0.0107628,1.29193,0.0930118,0.0414246,1294,344,5.68342,41.3898
77,680,5.63867,-40.5957,-0.00267128,0.127985,0.039328,0.13891,-0.0135957,1.29985,0.0974551,0.0418135,1301,344,5.63871,40.5957
84,680,5.53369,-40.1567,-0.00626394,0.131939,0.0409926,0.143183,-0.017508,1.30309,0.101794,0.0452358,1308,344,5.53368,40.1567
91,680,5.64368,-39.8683,-0.00989943,0.134598,0.0429663,0.146409,-0.0217101,1.30254,0.105589,0.0454329,1315,344,5.64371,39.8684
98,680,5.59912,-39.7568,0,0,0,0,0,0,0,-1,1322,344,5.59913,39.7568
105,680,4.55957,-41.6955,0,0,0,0,0,0,0,-1,1329,344,4.55958,41.6955
112,680,0.80896,-40.9789,-0.0176145,0.135877,0.0476769,0.149481,-0.0312181,1.29285,0.111526,0.0450923,1336,344,0.808915,40.9789
119,680,0.692383,-40.8493,-0.0196406,0.135455,0.0496847,0.150006,-0.0341918,1.28589,0.113137,0.0447901,1343,344,0.692424,40.8493
126,680,4.84534,-41.4835,0,0,0,0,0,0,0,-1,1350,344,4.84538,41.4835
133,680,4.36609,-41.0007,0,0,0,0,0,0,0,-1,1357,344,4.36609,41.0007
140,680,3.70398,-40.6065,0,0,0,0,0,0,0,-1,1364,344,3.70392,40.6065
147,680,3.30078,-40.3438,0,0,0,0,0,0,0,-1,1371,344,3.30082,40.3438
154,680,4.38818,-39.8434,0,0,0,0,0,0,0,-1,1378,344,4.38822,39.8434
161,680,4.3075,-38.8314,0,0,0,0,0,0,0,-1,1385,344,4.30746,38.8314
168,680,29.4142,-2.51651,0,0,0,0,0,0,0,-1,1392,344,29.4142,2.51652
175,680,6.66541,0.942078,0,0,0,0,0,0,0,-1,1399,344,6.66538,-0.942088
182,680,6.52917,0.532379,0,0,0,0,0,0,0,-1,1406,344,6.52922,-0.532385
189,680,7.55884,4.77695,0,0,0,0,0,0,0,-1,1413,344,7.55886,-4.77694
196,680,6.55627,3.35254,0,0,0,0,0,0,0,-1,1420,344,6.55622,-3.35255
203,680,5.7334,1.90753,0,0,0,0,0,0,0,-1,1427,344,5.73341,-1.90754
210,680,5.27515,0.493622,0,0,0,0,0,0,0,-1,1434,344,5.27514,-0.493632
217,680,6.56384,-0.374176,0,0,0,0,0,0,0,-1,1441,344,6.56379,0.374176
224,680,3.9491,-0.640228,0,0,0,0,0,0,0,-1,1448,344,3.94908,0.64024
231,680,4.24866,-1.96881,0,0,0,0,0,0,0,-1,1455,344,4.2486,1.96882
238,680,4.29333,-3.23984,0,0,0,0,0,0,0,-1,1462,344,4.29332,3.23984
245,680,2.44397,0.985382,0,0,0,0,0,0,0,-1,1469,344,2.44402,-0.985394
252,680,3.07349,2.18951,0,0,0,0,0,0,0,-1,1476,344,3.0735,-2.18952
259,680,2.82971,1.30682,0,0,0,0,0,0,0,-1,1483,344,2.82972,-1.30684
266,680,2.67554,1.44067,0,0,0,0,0,0,0,-1,1490,344,2.67551,-1.44066
273,680,2.46411,1.54666,0,0,0,0,0,0,0,-1,1497,344,2.46407,-1.54666
280,680,0,0,0,0,0,0,0,0,0,-1,1504,344,0,0
287,680,0,0,0,0,0,0,0,0,0,-1,1511,344,0,0
294,680,0,0,0,0,0,0,0,0,0,-1,1518,344,0,0
301,680,0,0,0,0,0,0,0,0,0,-1,1525,344,0,0
308,680,0,0,0,0,0,0,0,0,0,-1,1532,344,0,0
315,680,0,0,0,0,0,0,0,0,0,-1,1539,344,0,0
322,680,0,0,0,0,0,0,0,0,0,-1,1546,344,0,0
329,680,0,0,0,0,0,0,0,0,0,-1,1553,344,0,0
336,680,0,0,0,0,0,0,0,0,0,-1,1560,344,0,0
343,680,0,0,0,0,0,0,0,0,0,-1,1567,344,0,0
350,680,0,0,0,0,0,0,0,0,0,-1,1574,344,0,0
357,680,0,0,0,0,0,0,0,0,0,-1,1581,344,0,0
364,680,0,0,0,0,0,0,0,0,0,-1,1588,344,0,0
371,680,0,0,0,0,0,0,0,0,0,-1,1595,344,0,0
378,680,0,0,0,0,0,0,0,0,0,-1,1602,344,0,0
385,680,0,0,0,0,0,0,0,0,0,-1,1609,344,0,0
392,680,0,0,0,0,0,0,0,0,0,-1,1616,344,0,0
399,680,0,0,0,0,0,0,0,0,0,-1,1623,344,0,0
406,680,0,0,0,0,0,0,0,0,0,-1,1630,344,0,0
413,680,0,0,0,0,0,0,0,0,0,-1,1637,344,0,0
420,680,0,0,0,0,0,0,0,0,0,-1,1644,344,0,0
427,680,0,0,0,0,0,0,0,0,0,-1,1651,344,0,0
434,680,0,0,0,0,0,0,0,0,0,-1,1658,344,0,0
441,680,0,0,0,0,0,0,0,0,0,-1,1665,344,0,0
448,680,0,0,0,0,0,0,0,0,0,-1,1672,344,0,0
455,680,0,0,0,0,0,0,0,0,0,-1,1679,344,0,0
462,680,0,0,0,0,0,0,0,0,0,-1,1686,344,0,0
469,680,0,0,0,0,0,0,0,0,0,-1,1693,344,0,0
476,680,0,0,0,0,0,0,0,0,0,-1,1700,344,0,0
483,680,0,0,0,0,0,0,0,0,0,-1,1707,344,0,0
490,680,0,0,0,0,0,0,0,0,0,-1,1714,344,0,0
497,680,0,0,0,0,0,0,0,0,0,-1,1721,344,0,0
504,680,0,0,0,0,0,0,0,0,0,-1,1728,344,0,0
511,680,0,0,0,0,0,0,0,0,0,-1,1735,344,0,0
518,680,0,0,0,0,0,0,0,0,0,-1,1742,344,0,0
525,680,0,0,0,0,0,0,0,0,0,-1,1749,344,0,0
532,680,0,0,0,0,0,0,0,0,0,-1,1756,344,0,0
539,680,0,0,0,0,0,0,0,0,0,-1,1763,344,0,0
546,680,0,0,0,0,0,0,0,0,0,-1,1770,344,0,0
553,680,0,0,0,0,0,0,0,0,0,-1,1777,344,0,0
560,680,0,0,0,0,0,0,0,0,0,-1,1784,344,0,0
567,680,0,0,0,0,0,0,0,0,0,-1,1791,344,0,0
574,680,0,0,0,0,0,0,0,0,0,-1,1798,344,0,0
581,680,0,0,0,0,0,0,0,0,0,-1,1805,344,0,0
588,680,0,0,0,0,0,0,0,0,0,-1,1812,344,0,0
595,680,0,0,0,0,0,0,0,0,0,-1,1819,344,0,0
602,680,0,0,0,0,0,0,0,0,0,-1,1826,344,0,0
609,680,0,0,0,0,0,0,0,0,0,-1,1833,344,0,0
616,680,0,0,0,0,0,0,0,0,0,-1,1840,344,0,0
623,680,0,0,0,0,0,0,0,0,0,-1,1847,344,0,0
630,680,0,0,0,0,0,0,0,0,0,-1,1854,344,0,0
637,680,0,0,0,0,0,0,0,0,0,-1,1861,344,0,0
644,680,0,0,0,0,0,0,0,0,0,-1,1868,344,0,0
651,680,0,0,0,0,0,0,0,0,0,-1,1875,344,0,0
658,680,0,0,0,0,0,0,0,0,0,-1,1882,344,0,0
665,680,0,0,0,0,0,0,0,0,0,-1,1889,344,0,0
672,680,0,0,0,0,0,0,0,0,0,-1,1896,344,0,0
679,680,0,0,0,0,0,0,0,0,0,-1,1903,344,0,0
686,680,0,0,0,0,0,0,0,0,0,-1,1910,344,0,0
693,680,0,0,0,0,0,0,0,0,0,-1,1917,344,0,0
700,680,0,0,0,0,0,0,0,0,0,-1,1924,344,0,0
707,680,0,0,0,0,0,0,0,0,0,-1,1931,344,0,0
714,680,0,0,0,0,0,0,0,0,0,-1,1938,344,0,0
721,680,0,0,0,0,0,0,0,0,0,-1,1945,344,0,0
728,680,0,0,0,0,0,0,0,0,0,-1,1952,344,0,0
735,680,0,0,0,0,0,0,0,0,0,-1,1959,344,0,0
742,680,0,0,0,0,0,0,0,0,0,-1,1966,344,0,0
749,680,0,0,0,0,0,0,0,0,0,-1,1973,344,0,0
756,680,0,0,0,0,0,0,0,0,0,-1,1980,344,0,0
763,680,0,0,0,0,0,0,0,0,0,-1,1987,344,0,0
770,680,0,0,0,0,0,0,0,0,0,-1,1994,344,0,0
777,680,0,0,0,0,0,0,0,0,0,-1,2001,344,0,0
784,680,0,0,0,0,0,0,0,0,0,-1,2008,344,0,0
791,680,0,0,0,0,0,0,0,0,0,-1,2015,344,0,0
798,680,0,0,0,0,0,0,0,0,0,-1,2022,344,0,0
805,680,0,0,0,0,0,0,0,0,0,-1,2029,344,0,0
812,680,0,0,0,0,0,0,0,0,0,-1,2036,344,0,0
-700,673,0,0,0,0,0,0,0,0,0,-1,524,351,0,0
-693,673,0,0,0,0,0,0,0,0,0,-1,531,351,0,0
-686,673,0,0,0,0,0,0,0,0,0,-1,538,351,0,0
-679,673,0,0,0,0,0,0,0,0,0,-1,545,351,0,0
-672,673,0,0,0,0,0,0,0,0,0,-1,552,351,0,0
-665,673,0,0,0,0,0,0,0,0,0,-1,559,351,0,0
-658,673,0,0,0,0,0,0,0,0,0,-1,566,351,0,0
-651,673,0,0,0,0,0,0,0,0,0,-1,573,351,0,0
-644,673,0,0,0,0,0,0,0,0,0,-1,580,351,0,0
-637,673,0,0,0,0,0,0,0,0,0,-1,587,351,0,0
-630,673,0,0,0,0,0,0,0,0,0,-1,594,351,0,0
-623,673,0,0,0,0,0,0,0,0,0,-1,601,351,0,0
-616,673,0,0,0,0,0,0,0,0,0,-1,608,351,0,0
-609,673,0,0,0,0,0,0,0,0,0,-1,615,351,0,0
-602,673,0,0,0,0,0,0,0,0,0,-1,622,351,0,0
-595,673,0,0,0,0,0,0,0,0,0,-1,629,351,0,0
-588,673,0,0,0,0,0,0,0,0,0,-1,636,351,0,0
-581,673,0,0,0,0,0,0,0,0,0,-1,643,351,0,0
-574,673,0,0,0,0,0,0,0,0,0,-1,650,351,0,0
-567,673,0,0,0,0,0,0,0,0,0,-1,657,351,0,0
-560,673,0,0,0,0,0,0,0,0,0,-1,664,351,0,0
-553,673,0,0,0,0,0,0,0,0,0,-1,671,351,0,0
-546,673,0,0,0,0,0,0,0,0,0,-1,678,351,0,0
-539,673,0,0,0,0,0,0,0,0,0,-1,685,351,0,0
-532,673,0,0,0,0,0,0,0,0,0,-1,692,351,0,0
-525,673,0,0,0,0,0,0,0,0,0,-1,699,351,0,0
-518,673,0,0,0,0,0,0,0,0,0,-1,706,351,0,0
-511,673,0,0,0,0,0,0,0,0,0,-1,713,351,0,0
-504,673,0,0,0,0,0,0,0,0,0,-1,720,351,0,0
-497,673,0,0,0,0,0,0,0,0,0,-1,727,351,0,0
-490,673,0,0,0,0,0,0,0,0,0,-1,734,351,0,0
-483,673,0,0,0,0,0,0,0,0,0,-1,741,351,0,0
-476,673,0,0,0,0,0,0,0,0,0,-1,748,351,0,0
-469,673,0,0,0,0,0,0,0,0,0,-1,755,351,0,0
-462,673,0,0,0,0,0,0,0,0,0,-1,762,351,0,0
-455,673,0,0,0,0,0,0,0,0,0,-1,769,351,0,0
-448,673,0,0,0,0,0,0,0,0,0,-1,776,351,0,0
-441,673,0,0,0,0,0,0,0,0,0,-1,783,351,0,0
-434,673,0,0,0,0,0,0,0,0,0,-1,790,351,0,0
-427,673,0,0,0,0,0,0,0,0,0,-1,797,351,0,0
-420,673,0,0,0,0,0,0,0,0,0,-1,804,351,0,0
-413,673,0,0,0,0,0,0,0,0,0,-1,811,351,0,0
-406,673,0,0,0,0,0,0,0,0,0,-1,818,351,0,0
-399,673,0,0,0,0,0,0,0,0,0,-1,825,351,0,0
-392,673,0,0,0,0,0,0,0,0,0,-1,832,351,0,0
-385,673,0,0,0,0,0,0,0,0,0,-1,839,351,0,0
-378,673,0,0,0,0,0,0,0,0,0,-1,846,351,0,0
-371,673,0,0,0,0,0,0,0,0,0,-1,853,351,0,0
-364,673,0,0,0,0,0,0,0,0,0,-1,860,351,0,0
-357,673,0,0,0,0,0,0,0,0,0,-1,867,351,0,0
-350,673,0,0,0,0,0,0,0,0,0,-1,874,351,0,0
-343,673,0,0,0,0,0,0,0,0,0,-1,881,351,0,0
-336,673,0,0,0,0,0,0,0,0,0,-1,888,351,0,0
-329,673,0,0,0,0,0,0,0,0,0,-1,895,351,0,0
-322,673,0,0,0,0,0,0,0,0,0,-1,902,351,0,0
-315,673,0,0,0,0,0,0,0,0,0,-1,909,351,0,0
-308,673,0,0,0,0,0,0,0,0,0,-1,916,351,0,0
-301,673,0,0,0,0,0,0,0,0,0,-1,923,351,0,0
-294,673,0,0,0,0,0,0,0,0,0,-1,930,351,0,0
-287,673,0,0,0,0,0,0,0,0,0,-1,937,351,0,0
-280,673,0,0,0,0,0,0,0,0,0,-1,944,351,0,0
-273,673,0,0,0,0,0,0,0,0,0,-1,951,351,0,0
-266,673,0,0,0,0,0,0,0,0,0,-1,958,351,0,0
-259,673,0,0,0,0,0,0,0,0,0,-1,965,351,0,0
-252,673,0,0,0,0,0,0,0,0,0,-1,972,351,0,0
-245,673,0,0,0,0,0,0,0,0,0,-1,979,351,0,0
-238,673,0,0,0,0,0,0,0,0,0,-1,986,351,0,0
-231,673,0,0,0,0,0,0,0,0,0,-1,993,351,0,0
-224,673,0,0,0,0,0,0,0,0,0,-1,1000,351,0,0
-217,673,0,0,0,0,0,0,0,0,0,-1,1007,351,0,0
-210,673,0,0,0,0,0,0,0,0,0,-1,1014,351,0,0
-203,673,0,0,0,0,0,0,0,0,0,-1,1021,351,0,0
-196,673,0,0,0,0,0,0,0,0,0,-1,1028,351,0,0
-189,673,0,0,0,0,0,0,0,0,0,-1,1035,351,0,0
-182,673,0,0,0,0,0,0,0,0,0,-1,1042,351,0,0
-175,673,7.10449,-31.8279,0,0,0,0,0,0,0,-1,1049,351,7.10448,31.8279
-168,673,7.33081,-32.7122,0,0,0,0,0,0,0,-1,1056,351,7.33085,32.7122
-161,673,7.8938,-33.5352,0,0,0,0,0,0,0,-1,1063,351,7.89385,33.5352
-154,673,8.80566,-35.3518,0,0,0,0,0,0,0,-1,1070,351,8.80563,35.3518
-147,673,5.11084,-37.2899,0,0,0,0,0,0,0,-1,1077,351,5.11082,37.2899
-140,673,5.4093,-36.4359,0,0,0,0,0,0,0,-1,1084,351,5.40933,36.4359
-133,673,5.87366,-36.0247,0,0,0,0,0,0,0,-1,1091,351,5.87363,36.0247
-126,673,6.15771,-35.3898,0,0,0,0,0,0,0,-1,1098,351,6.15768,35.3898
-119,673,6.98071,-34.0173,0,0,0,0,0,0,0,-1,1105,351,6.98074,34.0173
-112,673,7.27234,-32.5801,0,0,0,0,0,0,0,-1,1112,351,7.27231,32.5801
-105,673,21.1144,-43.3143,0,0,0,0,0,0,0,-1,1119,351,21.1143,43.3143
-98,673,14.8014,-36.7519,0,0,0,0,0,0,0,-1,1126,351,14.8014,36.7519
-91,673,8.54944,-29.9639,0,0,0,0,0,0,0,-1,1133,351,8.54949,29.9639
-84,673,2.17102,-24.3204,0,0,0,0,0,0,0,-1,1140,351,2.17107,24.3204
-77,673,-4.25378,-18.8346,0,0,0,0,0,0,0,-1,1147,351,-4.25381,18.8346
-70,673,-10.7933,-13.6681,0,0,0,0,0,0,0,-1,1154,351,-10.7934,13.6681
-63,673,-17.3896,-8.24469,0,0,0,0,0,0,0,-1,1161,351,-17.3896,8.2447
-56,673,-18.0282,2.79053,0,0,0,0,0,0,0,-1,1168,351,-18.0283,-2.79052
-49,673,-0.926758,-0.115448,0,0,0,0,0,0,0,-1,1175,351,-0.926732,0.115444
-42,673,-1.15015,0.289917,0,0,0,0,0,0,0,-1,1182,351,-1.15017,-0.289932
-35,673,-0.919556,-1.00711,0,0,0,0,0,0,0,-1,1189,351,-0.919514,1.00711
-28,673,5.28918,-39.2331,0,0,0,0,0,0,0,-1,1196,351,5.28924,39.2331
-21,673,6.55066,-41.2255,0,0,0,0,0,0,0,-1,1203,351,6.5506,41.2255
-14,673,6.40466,-41.3522,0.0137693,0.0379721,0.011913,0.0428519,0.00888948,1.18202,0.0261141,0.0445847,1210,351,6.4047,41.3522
-7,673,6.39148,-41.7504,0.0145945,0.0412617,0.01442,0.0475679,0.00828829,1.15854,0.029342,0.0424195,1217,351,6.39148,41.7504
0,673,6.25012,-42.048,0.0153683,0.0445029,0.0170016,0.0523244,0.00754674,1.13962,0.0326593,0.0488017,1224,351,6.2501,42.048
7,673,6.05408,-41.9594,0,0,0,0,0,0,0,-1,1231,351,6.05409,41.9594
14,673,6.24329,-41.765,0.0153876,0.0542583,0.0224513,0.0645179,0.00512796,1.14216,0.0414086,0.0437588,1238,351,6.24335,41.7651
21,673,5.96899,-42.1457,0.0141413,0.0599231,0.0242447,0.0703759,0.00368862,1.16374,0.0457373,0.0326648,1245,351,5.96901,42.1457
28,673,5.96887,-42.2521,0.0128434,0.0656476,0.0255868,0.0760117,0.00247929,1.18594,0.0498686,0.0235722,1252,351,5.96882,42.2521
35,673,5.92444,-42.239,0.0110858,0.072141,0.0266941,0.0821659,0.00106089,1.21154,0.0544271,0.034548,1259,351,5.92448,42.239
42,673,5.68201,-42.2641,0.00881466,0.0783383,0.0275573,0.0879362,-0.000783272,1.23565,0.058887,0.0355101,1266,351,5.68198,42.2641
49,673,5.58435,-42.3697,0.00648946,0.0839675,0.0277806,0.092899,-0.00244197,1.25973,0.0627625,0.0219178,1273,351,5.5844,42.3697
56,673,5.56665,-42.379,0.00410247,0.0898194,0.0277578,0.0980231,-0.00410125,1.28343,0.0667578,0.0169006,1280,351,5.56664,42.379
63,673,5.63647,-42.2074,0.00141562,0.0959118,0.0287007,0.103946,-0.00661838,1.29786,0.0716054,0.0201537,1287,351,5.63644,42.2074
70,673,5.5824,-42.0818,-0.00120351,0.10196,0.0299553,0.110028,-0.00927066,1.30773,0.0766291,0.0323833,1294,351,5.58244,42.0818
77,673,5.62122,-41.6457,-0.00348523,0.105838,0.0307313,0.113885,-0.0115317,1.31471,0.0800445,0.0392601,1301,351,5.62126,41.6456
84,673,5.31848,-41.8081,-0.0063441,0.10875,0.0318955,0.116998,-0.0145921,1.31775,0.0832897,0.0454067,1308,351,5.31854,41.8081
91,673,5.41333,-42.4744,0,0,0,0,0,0,0,-1,1315,351,5.4133,42.4744
98,673,5.0592,-42.4229,0,0,0,0,0,0,0,-1,1322,351,5.05924,42.4229
105,673,4.78882,-42.1075,0,0,0,0,0,0,0,-1,1329,351,4.78883,42.1075
112,673,4.73608,-41.964,0,0,0,0,0,0,0,-1,1336,351,4.73614,41.964
119,673,5.04272,-41.6906,0,0,0,0,0,0,0,-1,1343,351,5.04269,41.6905
126,673,4.87292,-41.5868,-0.0175606,0.106614,0.0377419,0.117185,-0.028132,1.2977,0.0889956,0.04432,1350,351,4.87291,41.5868
133,673,4.60791,-41.3119,-0.0195539,0.103565,0.037073,0.113867,-0.0298552,1.29977,0.0875759,0.0473654,1357,351,4.60791,41.3119
140,673,4.21375,-41.1181,-0.0209655,0.0990593,0.0353361,0.10869,-0.030596,1.30472,0.0845249,0.0455423,1364,351,4.2138,41.1181
147,673,3.93018,-40.8976,-0.0216301,0.0948211,0.0335434,0.103792,-0.030601,1.30947,0.081337,0.0458674,1371,351,3.93021,40.8977
154,673,4.51294,-40.4187,-0.0214658,0.0904613,0.0313543,0.0986461,-0.0296506,1.31545,0.0775604,0.0415311,1378,351,4.513,40.4187
161,673,4.52234,-39.9733,0,0,0,0,0,0,0,-1,1385,351,4.52236,39.9733
168,673,6.87061,1.83954,0,0,0,0,0,0,0,-1,1392,351,6.87063,-1.83953
175,673,6.6228,1.1459,0,0,0,0,0,0,0,-1,1399,351,6.62276,-1.14591
182,673,6.37244,0.796112,0,0,0,0,0,0,0,-1,1406,351,6.3724,-0.796102
189,673,6.12097,0.265472,0,0,0,0,0,0,0,-1,1413,351,6.121,-0.265482
196,673,6.02173,3.12717,0,0,0,0,0,0,0,-1,1420,351,6.02176,-3.12717
203,673,5.04456,1.6351,0,0,0,0,0,0,0,-1,1427,351,5.04455,-1.63509
210,673,4.79224,0.447479,0,0,0,0,0,0,0,-1,1434,351,4.79229,-0.447469
217,673,2.01648,0.972687,0,0,0,0,0,0,0,-1,1441,351,2.01644,-0.972691
224,673,2.3689,-1.80539,0,0,0,0,0,0,0,-1,1448,351,2.36896,1.80539
231,673,2.65857,-2.18497,0,0,0,0,0,0,0,-1,1455,351,2.65852,2.18496
238,673,3.77844,-2.06088,0,0,0,0,0,0,0,-1,1462,351,3.77839,2.06088
245,673,3.5376,-0.190399,0,0,0,0,0,0,0,-1,1469,351,3.53759,0.1904
252,673,3.80518,0.55603,0,0,0,0,0,0,0,-1,1476,351,3.80519,-0.556022
259,673,3.88562,1.29617,0,0,0,0,0,0,0,-1,1483,351,3.88562,-1.29618
266,673,4.22424,2.04834,0,0,0,0,0,0,0,-1,1490,351,4.22429,-2.04834
273,673,6.07886,0.385895,0,0,0,0,0,0,0,-1,1497,351,6.0789,-0.385906
280,673,6.97534,-0.0820007,0,0,0,0,0,0,0,-1,1504,351,6.97536,0.0820122
287,673,7.66968,-0.348541,0,0,0,0,0,0,0,-1,1511,351,7.66969,0.348534
294,673,8.20996,0.28537,0,0,0,0,0,0,0,-1,1518,351,8.20993,-0.28536
301,673,0,0,0,0,0,0,0,0,0,-1,1525,351,0,0
308,673,0,0,0,0,0,0,0,0,0,-1,1532,351,0,0
315,673,0,0,0,0,0,0,0,0,0,-1,1539,351,0,0
322,673,0,0,0,0,0,0,0,0,0,-1,1546,351,0,0
329,673,0,0,0,0,0,0,0,0,0,-1,1553,351,0,0
336,673,0,0,0,0,0,0,0,0,0,-1,1560,351,0,0
343,673,0,0,0,0,0,0,0,0,0,-1,1567,351,0,0
350,673,0,0,0,0,0,0,0,0,0,-1,1574,351,0,0
357,673,0,0,0,0,0,0,0,0,0,-1,1581,351,0,0
364,673,0,0,0,0,0,0,0,0,0,-1,1588,351,0,0
371,673,0,0,0,0,0,0,0,0,0,-1,1595,351,0,0
378,673,0,0,0,0,0,0,0,0,0,-1,1602,351,0,0
385,673,0,0,0,0,0,0,0,0,0,-1,1609,351,0,0
392,673,0,0,0,0,0,0,0,0,0,-1,1616,351,0,0
399,673,0,0,0,0,0,0,0,0,0,-1,1623,351,0,0
406,673,0,0,0,0,0,0,0,0,0,-1,1630,351,0,0
413,673,0,0,0,0,0,0,0,0,0,-1,1637,351,0,0
420,673,0,0,0,0,0,0,0,0,0,-1,1644,351,0,0
427,673,0,0,0,0,0,0,0,0,0,-1,1651,351,0,0
434,673,0,0,0,0,0,0,0,0,0,-1,1658,351,0,0
441,673,0,0,0,0,0,0,0,0,0,-1,1665,351,0,0
448,673,0,0,0,0,0,0,0,0,0,-1,1672,351,0,0
455,673,0,0,0,0,0,0,0,0,0,-1,1679,351,0,0
462,673,0,0,0,0,0,0,0,0,0,-1,1686,351,0,0
469,673,0,0,0,0,0,0,0,0,0,-1,1693,351,0,0
476,673,0,0,0,0,0,0,0,0,0,-1,1700,351,0,0
483,673,0,0,0,0,0,0,0,0,0,-1,1707,351,0,0
490,673,0,0,0,0,0,0,0,0,0,-1,1714,351,0,0
497,673,0,0,0,0,0,0,0,0,0,-1,1721,351,0,0
504,673,0,0,0,0,0,0,0,0,0,-1,1728,351,0,0
511,673,0,0,0,0,0,0,0,0,0,-1,1735,351,0,0
518,673,0,0,0,0,0,0,0,0,0,-1,1742,351,0,0
525,673,0,0,0,0,0,0,0,0,0,-1,1749,351,0,0
532,673,0,0,0,0,0,0,0,0,0,-1,1756,351,0,0
539,673,0,0,0,0,0,0,0,0,0,-1,1763,351,0,0
546,673,0,0,0,0,0,0,0,0,0,-1,1770,351,0,0
553,673,0,0,0,0,0,0,0,0,0,-1,1777,351,0,0
560,673,0,0,0,0,0,0,0,0,0,-1,1784,351,0,0
567,673,0,0,0,0,0,0,0,0,0,-1,1791,351,0,0
574,673,0,0,0,0,0,0,0,0,0,-1,1798,351,0,0
581,673,0,0,0,0,0,0,0,0,0,-1,1805,351,0,0
588,673,0,0,0,0,0,0,0,0,0,-1,1812,351,0,0
595,673,0,0,0,0,0,0,0,0,0,-1,1819,351,0,0
602,673,0,0,0,0,0,0,0,0,0,-1,1826,351,0,0
609,673,0,0,0,0,0,0,0,0,0,-1,1833,351,0,0
616,673,0,0,0,0,0,0,0,0,0,-1,1840,351,0,0
623,673,0,0,0,0,0,0,0,0,0,-1,1847,351,0,0
630,673,0,0,0,0,0,0,0,0,0,-1,1854,351,0,0
637,673,0,0,0,0,0,0,0,0,0,-1,1861,351,0,0
644,673,0,0,0,0,0,0,0,0,0,-1,1868,351,0,0
651,673,0,0,0,0,0,0,0,0,0,-1,1875,351,0,0
658,673,0,0,0,0,0,0,0,0,0,-1,1882,351,0,0
665,673,0,0,0,0,0,0,0,0,0,-1,1889,351,0,0
672,673,0,0,0,0,0,0,0,0,0,-1,1896,351,0,0
679,673,0,0,0,0,0,0,0,0,0,-1,1903,351,0,0
686,673,0,0,0,0,0,0,0,0,0,-1,1910,351,0,0
693,673,0,0,0,0,0,0,0,0,0,-1,1917,351,0,0
700,673,0,0,0,0,0,0,0,0,0,-1,1924,351,0,0
707,673,0,0,0,0,0,0,0,0,0,-1,1931,351,0,0
714,673,0,0,0,0,0,0,0,0,0,-1,1938,351,0,0
721,673,0,0,0,0,0,0,0,0,0,-1,1945,351,0,0
728,673,0,0,0,0,0,0,0,0,0,-1,1952,351,0,0
735,673,0,0,0,0,0,0,0,0,0,-1,1959,351,0,0
742,673,0,0,0,0,0,0,0,0,0,-1,1966,351,0,0
749,673,0,0,0,0,0,0,0,0,0,-1,1973,351,0,0
756,673,0,0,0,0,0,0,0,0,0,-1,1980,351,0,0
763,673,0,0,0,0,0,0,0,0,0,-1,1987,351,0,0
770,673,0,0,0,0,0,0,0,0,0,-1,1994,351,0,0
777,673,0,0,0,0,0,0,0,0,0,-1,2001,351,0,0
784,673,0,0,0,0,0,0,0,0,0,-1,2008,351,0,0
791,673,0,0,0,0,0,0,0,0,0,-1,2015,351,0,0
798,673,0,0,0,0,0,0,0,0,0,-1,2022,351,0,0
805,673,0,0,0,0,0,0,0,0,0,-1,2029,351,0,0
812,673,0,0,0,0,0,0,0,0,0,-1,2036,351,0,0
-700,666,0,0,0,0,0,0,0,0,0,-1,524,358,0,0
-693,666,0,0,0,0,0,0,0,0,0,-1,531,358,0,0
-686,666,0,0,0,0,0,0,0,0,0,-1,538,358,0,0
-679,666,0,0,0,0,0,0,0,0,0,-1,545,358,0,0
-672,666,0,0,0,0,0,0,0,0,0,-1,552,358,0,0
-665,666,0,0,0,0,0,0,0,0,0,-1,559,358,0,0
-658,666,0,0,0,0,0,0,0,0,0,-1,566,358,0,0
-651,666,0,0,0,0,0,0,0,0,0,-1,573,358,0,0
-644,666,0,0,0,0,0,0,0,0,0,-1,580,358,0,0
-637,666,0,0,0,0,0,0,0,0,0,-1,587,358,0,0
-630,666,0,0,0,0,0,0,0,0,0,-1,594,358,0,0
-623,666,0,0,0,0,0,0,0,0,0,-1,601,358,0,0
-616,666,0,0,0,0,0,0,0,0,0,-1,608,358,0,0
-609,666,0,0,0,0,0,0,0,0,0,-1,615,358,0,0
-602,666,0,0,0,0,0,0,0,0,0,-1,622,358,0,0
-595,666,0,0,0,0,0,0,0,0,0,-1,629,358,0,0
-588,666,0,0,0,0,0,0,0,0,0,-1,636,358,0,0
-581,666,0,0,0,0,0,0,0,0,0,-1,643,358,0,0
-574,666,0,0,0,0,0,0,0,0,0,-1,650,358,0,0
-567,666,0,0,0,0,0,0,0,0,0,-1,657,358,0,0
-560,666,0,0,0,0,0,0,0,0,0,-1,664,358,0,0
-553,666,0,0,0,0,0,0,0,0,0,-1,671,358,0,0
-546,666,0,0,0,0,0,0,0,0,0,-1,678,358,0,0
-539,666,0,0,0,0,0,0,0,0,0,-1,685,358,0,0
-532,666,0,0,0,0,0,0,0,0,0,-1,692,358,0,0
-525,666,0,0,0,0,0,0,0,0,0,-1,699,358,0,0
-518,666,0,0,0,0,0,0,0,0,0,-1,706,358,0,0
-511,666,0,0,0,0,0,0,0,0,0,-1,713,358,0,0
-504,666,0,0,0,0,0,0,0,0,0,-1,720,358,0,0
-497,666,0,0,0,0,0,0,0,0,0,-1,727,358,0,0
-490,666,0,0,0,0,0,0,0,0,0,-1,734,358,0,0
-483,666,0,0,0,0,0,0,0,0,0,-1,741,358,0,0
-476,666,0,0,0,0,0,0,0,0,0,-1,748,358,0,0
-469,666,0,0,0,0,0,0,0,0,0,-1,755,358,0,0
-462,666,0,0,0,0,0,0,0,0,0,-1,762,358,0,0
-455,666,0,0,0,0,0,0,0,0,0,-1,769,358,0,0
-448,666,0,0,0,0,0,0,0,0,0,-1,776,358,0,0
-441,666,0,0,0,0,0,0,0,0,0,-1,783,358,0,0
-434,666,0,0,0,0,0,0,0,0,0,-1,790,358,0,0
-427,666,0,0,0,0,0,0,0,0,0,-1,797,358,0,0
-420,666,0,0,0,0,0,0,0,0,0,-1,804,358,0,0
-413,666,0,0,0,0,0,0,0,0,0,-1,811,358,0,0
-406,666,0,0,0,0,0,0,0,0,0,-1,818,358,0,0
-399,666,0,0,0,0,0,0,0,0,0,-1,825,358,0,0
-392,666,0,0,0,0,0,0,0,0,0,-1,832,358,0,0
-385,666,0,0,0,0,0,0,0,0,0,-1,839,358,0,0
-378,666,0,0,0,0,0,0,0,0,0,-1,846,358,0,0
-371,666,0,0,0,0,0,0,0,0,0,-1,853,358,0,0
-364,666,0,0,0,0,0,0,0,0,0,-1,860,358,0,0
-357,666,0,0,0,0,0,0,0,0,0,-1,867,358,0,0
-350,666,0,0,0,0,0,0,0,0,0,-1,874,358,0,0
-343,666,0,0,0,0,0,0,0,0,0,-1,881,358,0,0
-336,666,0,0,0,0,0,0,0,0,0,-1,888,358,0,0
-329,666,0,0,0,0,0,0,0,0,0,-1,895,358,0,0
-322,666,0,0,0,0,0,0,0,0,0,-1,902,358,0,0
-315,666,0,0,0,0,0,0,0,0,0,-1,909,358,0,0
-308,666,0,0,0,0,0,0,0,0,0,-1,916,358,0,0
-301,666,0,0,0,0,0,0,0,0,0,-1,923,358,0,0
-294,666,0,0,0,0,0,0,0,0,0,-1,930,358,0,0
-287,666,0,0,0,0,0,0,0,0,0,-1,937,358,0,0
-280,666,0,0,0,0,0,0,0,0,0,-1,944,358,0,0
-273,666,0,0,0,0,0,0,0,0,0,-1,951,358,0,0
-266,666,0,0,0,0,0,0,0,0,0,-1,958,358,0,0
-259,666,0,0,0,0,0,0,0,0,0,-1,965,358,0,0
-252,666,0,0,0,0,0,0,0,0,0,-1,972,358,0,0
-245,666,0,0,0,0,0,0,0,0,0,-1,979,358,0,0
-238,666,0,0,0,0,0,0,0,0,0,-1,986,358,0,0
-231,666,0,0,0,0,0,0,0,0,0,-1,993,358,0,0
-224,666,0,0,0,0,0,0,0,0,0,-1,1000,358,0,0
-217,666,0,0,0,0,0,0,0,0,0,-1,1007,358,0,0
-210,666,0,0,0,0,0,0,0,0,0,-1,1014,358,0,0
-203,666,0,0,0,0,0,0,0,0,0,-1,1021,358,0,0
-196,666,4.03418,-28.8724,0,0,0,0,0,0,0,-1,1028,358,4.03422,28.8724
-189,666,5.00366,-29.597,0,0,0,0,0,0,0,-1,1035,358,5.00363,29.597
-182,666,6.83252,-30.9843,0,0,0,0,0,0,0,-1,1042,358,6.83247,30.9844
-175,666,7.01611,-31.8763,0,0,0,0,0,0,0,-1,1049,358,7.01617,31.8762
-168,666,7.21545,-32.7414,0,0,0,0,0,0,0,-1,1056,358,7.2154,32.7414
-161,666,7.69116,-33.6269,0,0,0,0,0,0,0,-1,1063,358,7.69121,33.6269
-154,666,4.95422,-38.1634,0,0,0,0,0,0,0,-1,1070,358,4.95417,38.1634
-147,666,4.99036,-37.3796,0,0,0,0,0,0,0,-1,1077,358,4.99038,37.3797
-140,666,5.14636,-36.436,0,0,0,0,0,0,0,-1,1084,358,5.14632,36.436
-133,666,5.57275,-35.9952,0,0,0,0,0,0,0,-1,1091,358,5.57273,35.9952
-126,666,5.84875,-35.3638,0,0,0,0,0,0,0,-1,1098,358,5.8487,35.3638
-119,666,6.32092,-34.9492,0,0,0,0,0,0,0,-1,1105,358,6.32098,34.9493
-112,666,6.77014,-32.8165,0,0,0,0,0,0,0,-1,1112,358,6.77013,32.8165
-105,666,6.30908,-29.0855,0,0,0,0,0,0,0,-1,1119,358,6.30905,29.0855
-98,666,15.4427,-31.5168,0,0,0,0,0,0,0,-1,1126,358,15.4428,31.5168
-91,666,9.5127,-25.1347,0,0,0,0,0,0,0,-1,1133,358,9.51269,25.1347
-84,666,2.91589,-19.4071,0,0,0,0,0,0,0,-1,1140,358,2.91592,19.4071
-77,666,-3.48083,-14.0782,0,0,0,0,0,0,0,-1,1147,358,-3.48081,14.0782
-70,666,-9.99438,-8.90146,0,0,0,0,0,0,0,-1,1154,358,-9.99433,8.90146
-63,666,-11.7778,-0.975189,0,0,0,0,0,0,0,-1,1161,358,-11.7778,0.97519
-56,666,0.424683,-2.04132,0,0,0,0,0,0,0,-1,1168,358,0.424665,2.04132
-49,666,0.754395,-2.23169,0,0,0,0,0,0,0,-1,1175,358,0.754383,2.23169
-42,666,1.34473,-3.53897,0,0,0,0,0,0,0,-1,1182,358,1.34476,3.53896
-35,666,6.10938,-41.5908,0,0,0,0,0,0,0,-1,1189,358,6.10933,41.5908
-28,666,6.26978,-41.6046,0,0,0,0,0,0,0,-1,1196,358,6.26975,41.6046
-21,666,6.29785,-41.5602,0.00745538,0.0279046,0.0070214,0.0300833,0.00527666,1.26992,0.0185486,0.0372182,1203,358,6.29782,41.5602
-14,666,6.15662,-41.7376,0.00835356,0.0302673,0.00872647,0.0333177,0.00530313,1.23451,0.0206721,0.0332343,1210,358,6.15663,41.7376
-7,666,6.06873,-41.9461,0.00910143,0.0328982,0.0105784,0.0369207,0.00507897,1.20743,0.0231076,0.0213732,1217,358,6.06873,41.9461
0,666,6.02673,-42.1242,0.0097813,0.0353958,0.0124752,0.0404675,0.00470963,1.18466,0.0255535,0.0142075,1224,358,6.02679,42.1242
7,666,5.96826,-42.2082,0.0103404,0.0397648,0.0150359,0.0460889,0.0040163,1.17266,0.0294785,0.0197604,1231,358,5.9683,42.2082
14,666,5.90979,-42.2532,0.00999517,0.043352,0.0167171,0.0502878,0.00305937,1.17752,0.0325533,0.0194013,1238,358,5.90982,42.2532
21,666,5.82703,-42.4294,0.00921727,0.047979,0.0181425,0.0551456,0.00205065,1.19459,0.0360996,0.0150746,1245,358,5.827,42.4294
28,666,5.77307,-42.556,0.00837291,0.052659,0.0192408,0.0598506,0.00118129,1.21311,0.0395126,0.0163633,1252,358,5.77309,42.556
35,666,5.77051,-42.5355,0.00717143,0.0579478,0.0201297,0.0649597,0.000159562,1.23561,0.0432534,0.0154116,1259,358,5.77049,42.5354
42,666,5.68274,-42.5898,0.00556952,0.0629766,0.0208786,0.0697669,-0.0012207,1.25636,0.0469234,0.0156086,1266,358,5.68268,42.5897
49,666,5.60071,-42.6261,0.00391402,0.0674648,0.0210954,0.0738298,-0.00245101,1.27776,0.0500569,0.0140411,1273,358,5.60067,42.6261
56,666,5.55579,-42.6601,0.00217115,0.0721371,0.0210676,0.077991,-0.0036828,1.29977,0.0532641,0.0151925,1280,358,5.55576,42.6601
63,666,5.50537,-42.7389,0.000150289,0.0769614,0.0217366,0.0826859,-0.00557424,1.31328,0.0570728,0.0171299,1287,358,5.50541,42.7389
70,666,5.43994,-42.8368,0,0,0,0,0,0,0,-1,1294,358,5.4399,42.8368
77,666,5.46606,-42.5894,-0.00356467,0.0844679,0.0232382,0.0902255,-0.00932233,1.32792,0.0634864,0.021161,1301,358,5.46606,42.5894
84,666,5.4696,-42.6017,-0.00576865,0.086548,0.0240112,0.0924197,-0.0116404,1.33096,0.0658372,0.0302231,1308,358,5.46966,42.6017
91,666,5.36511,-42.6363,-0.00796091,0.0877742,0.0249051,0.0938656,-0.0140523,1.33092,0.0677487,0.0265009,1315,358,5.36513,42.6363
98,666,5.16785,-42.539,-0.00951351,0.0883077,0.0257096,0.0946531,-0.015859,1.32882,0.0689986,0.0223288,1322,358,5.16783,42.539
105,666,5.06445,-42.3879,-0.01069,0.0884067,0.0265341,0.0950642,-0.0173475,1.32497,0.0698801,0.0259735,1329,358,5.06448,42.3879
112,666,5.1123,-42.2833,0,0,0,0,0,0,0,-1,1336,358,5.11226,42.2833
119,666,5.0553,-42.0908,0,0,0,0,0,0,0,-1,1343,358,5.05525,42.0908
126,666,4.90918,-41.7315,-0.0136322,0.0825142,0.0272184,0.0896847,-0.0208028,1.3132,0.0677964,0.0312214,1350,358,4.90916,41.7315
133,666,4.86523,-41.6224,-0.014779,0.0796983,0.026557,0.0866516,-0.0217323,1.31472,0.0662115,0.0279853,1357,358,4.86524,41.6224
140,666,4.79456,-41.6177,-0.0154165,0.0757008,0.0251455,0.0821795,-0.0218952,1.31863,0.0633586,0.0294055,1364,358,4.79455,41.6177
147,666,4.6261,-41.4472,-0.015524,0.0720336,0.0236389,0.078008,-0.0214984,1.32324,0.0604592,0.0275013,1371,358,4.6261,41.4472
154,666,4.65369,-40.9957,-0.0150101,0.0684049,0.0218062,0.0737614,-0.0203666,1.32992,0.0571851,0.0233003,1378,358,4.65368,40.9957
161,666,4.69678,-40.7264,-0.0150451,0.0640035,0.0196973,0.0686398,-0.0196813,1.33963,0.05354,0.0313383,1385,358,4.69678,40.7264
168,666,4.68945,-40.4583,0,0,0,0,0,0,0,-1,1392,358,4.68946,40.4583
175,666,4.75732,-40.7126,0,0,0,0,0,0,0,-1,1399,358,4.75727,40.7126
182,666,2.60876,-5.17068,0,0,0,0,0,0,0,-1,1406,358,2.6088,5.17068
189,666,2.46973,-5.49979,0,0,0,0,0,0,0,-1,1413,358,2.46975,5.49979
196,666,2.32458,-5.23651,0,0,0,0,0,0,0,-1,1420,358,2.32461,5.23653
203,666,2.28064,-3.88004,0,0,0,0,0,0,0,-1,1427,358,2.28059,3.88003
210,666,3.02576,-5.83548,0,0,0,0,0,0,0,-1,1434,358,3.02581,5.83547
217,666,2.30444,-5.36011,0,0,0,0,0,0,0,-1,1441,358,2.30447,5.3601
224,666,1.82324,-6.03101,0,0,0,0,0,0,0,-1,1448,358,1.82322,6.031
231,666,2.29797,-10.1093,0,0,0,0,0,0,0,-1,1455,358,2.29801,10.1093
238,666,2.52429,-6.10568,0,0,0,0,0,0,0,-1,1462,358,2.52423,6.10567
245,666,4.53345,-1.38205,0,0,0,0,0,0,0,-1,1469,358,4.53349,1.38204
252,666,4.77405,-0.246979,0,0,0,0,0,0,0,-1,1476,358,4.77405,0.246993
259,666,4.83655,1.14087,0,0,0,0,0,0,0,-1,1483,358,4.83652,-1.14087
266,666,6.14148,0.749512,0,0,0,0,0,0,0,-1,1490,358,6.14144,-0.749519
273,666,3.17737,-33.7881,0,0,0,0,0,0,0,-1,1497,358,3.17735,33.7881
280,666,-8.74878,-17.2596,0,0,0,0,0,0,0,-1,1504,358,-8.74875,17.2596
287,666,-7.06934,-20.3464,0,0,0,0,0,0,0,-1,1511,358,-7.06933,20.3464
294,666,-5.74683,-22.5017,0,0,0,0,0,0,0,-1,1518,358,-5.74685,22.5017
301,666,-6.6886,-23.5144,0,0,0,0,0,0,0,-1,1525,358,-6.68864,23.5144
308,666,-7.45471,-24.766,0,0,0,0,0,0,0,-1,1532,358,-7.45475,24.766
315,666,1.76294,-0.284027,0,0,0,0,0,0,0,-1,1539,358,1.76291,0.284016
322,666,0,0,0,0,0,0,0,0,0,-1,1546,358,0,0
329,666,0,0,0,0,0,0,0,0,0,-1,1553,358,0,0
336,666,0,0,0,0,0,0,0,0,0,-1,1560,358,0,0
343,666,0,0,0,0,0,0,0,0,0,-1,1567,358,0,0
350,666,0,0,0,0,0,0,0,0,0,-1,1574,358,0,0
357,666,0,0,0,0,0,0,0,0,0,-1,1581,358,0,0
364,666,0,0,0,0,0,0,0,0,0,-1,1588,358,0,0
371,666,0,0,0,0,0,0,0,0,0,-1,1595,358,0,0
378,666,0,0,0,0,0,0,0,0,0,-1,1602,358,0,0
385,666,0,0,0,0,0,0,0,0,0,-1,1609,358,0,0
392,666,0,0,0,0,0,0,0,0,0,-1,1616,358,0,0
399,666,0,0,0,0,0,0,0,0,0,-1,1623,358,0,0
406,666,0,0,0,0,0,0,0,0,0,-1,1630,358,0,0
413,666,0,0,0,0,0,0,0,0,0,-1,1637,358,0,0
420,666,0,0,0,0,0,0,0,0,0,-1,1644,358,0,0
427,666,0,0,0,0,0,0,0,0,0,-1,1651,358,0,0
434,666,0,0,0,0,0,0,0,0,0,-1,1658,358,0,0
441,666,0,0,0,0,0,0,0,0,0,-1,1665,358,0,0
448,666,0,0,0,0,0,0,0,0,0,-1,1672,358,0,0
455,666,0,0,0,0,0,0,0,0,0,-1,1679,358,0,0
462,666,0,0,0,0,0,0,0,0,0,-1,1686,358,0,0
469,666,0,0,0,0,0,0,0,0,0,-1,1693,358,0,0
476,666,0,0,0,0,0,0,0,0,0,-1,1700,358,0,0
483,666,0,0,0,0,0,0,0,0,0,-1,1707,358,0,0
490,666,0,0,0,0,0,0,0,0,0,-1,1714,358,0,0
497,666,0,0,0,0,0,0,0,0,0,-1,1721,358,0,0
504,666,0,0,0,0,0,0,0,0,0,-1,1728,358,0,0
511,666,0,0,0,0,0,0,0,0,0,-1,1735,358,0,0
518,666,0,0,0,0,0,0,0,0,0,-1,1742,358,0,0
525,666,0,0,0,0,0,0,0,0,0,-1,1749,358,0,0
532,666,0,0,0,0,0,0,0,0,0,-1,1756,358,0,0
539,666,0,0,0,0,0,0,0,0,0,-1,1763,358,0,0
546,666,0,0,0,0,0,0,0,0,0,-1,1770,358,0,0
553,666,0,0,0,0,0,0,0,0,0,-1,1777,358,0,0
560,666,0,0,0,0,0,0,0,0,0,-1,1784,358,0,0
567,666,0,0,0,0,0,0,0,0,0,-1,1791,358,0,0
574,666,0,0,0,0,0,0,0,0,0,-1,1798,358,0,0
581,666,0,0,0,0,0,0,0,0,0,-1,1805,358,0,0
588,666,0,0,0,0,0,0,0,0,0,-1,1812,358,0,0
595,666,0,0,0,0,0,0,0,0,0,-1,1819,358,0,0
602,666,0,0,0,0,0,0,0,0,0,-1,1826,358,0,0
609,666,0,0,0,0,0,0,0,0,0,-1,1833,358,0,0
616,666,0,0,0,0,0,0,0,0,0,-1,1840,358,0,0
623,666,0,0,0,0,0,0,0,0,0,-1,1847,358,0,0
630,666,0,0,0,0,0,0,0,0,0,-1,1854,358,0,0
637,666,0,0,0,0,0,0,0,0,0,-1,1861,358,0,0
644,666,0,0,0,0,0,0,0,0,0,-1,1868,358,0,0
651,666,0,0,0,0,0,0,0,0,0,-1,1875,358,0,0
658,666,0,0,0,0,0,0,0,0,0,-1,1882,358,0,0
665,666,0,0,0,0,0,0,0,0,0,-1,1889,358,0,0
672,666,0,0,0,0,0,0,0,0,0,-1,1896,358,0,0
679,666,0,0,0,0,0,0,0,0,0,-1,1903,358,0,0
686,666,0,0,0,0,0,0,0,0,0,-1,1910,358,0,0
693,666,0,0,0,0,0,0,0,0,0,-1,1917,358,0,0
700,666,0,0,0,0,0,0,0,0,0,-1,1924,358,0,0
707,666,0,0,0,0,0,0,0,0,0,-1,1931,358,0,0
714,666,0,0,0,0,0,0,0,0,0,-1,1938,358,0,0
721,666,0,0,0,0,0,0,0,0,0,-1,1945,358,0,0
728,666,0,0,0,0,0,0,0,0,0,-1,1952,358,0,0
735,666,0,0,0,0,0,0,0,0,0,-1,1959,358,0,0
742,666,0,0,0,0,0,0,0,0,0,-1,1966,358,0,0
749,666,0,0,0,0,0,0,0,0,0,-1,1973,358,0,0
756,666,0,0,0,0,0,0,0,0,0,-1,1980,358,0,0
763,666,0,0,0,0,0,0,0,0,0,-1,1987,358,0,0
770,666,0,0,0,0,0,0,0,0,0,-1,1994,358,0,0
777,666,0,0,0,0,0,0,0,0,0,-1,2001,358,0,0
784,666,0,0,0,0,0,0,0,0,0,-1,2008,358,0,0
791,666,0,0,0,0,0,0,0,0,0,-1,2015,358,0,0
798,666,0,0,0,0,0,0,0,0,0,-1,2022,358,0,0
805,666,0,0,0,0,0,0,0,0,0,-1,2029,358,0,0
812,666,0,0,0,0,0,0,0,0,0,-1,2036,358,0,0
-700,659,0,0,0,0,0,0,0,0,0,-1,524,365,0,0
-693,659,0,0,0,0,0,0,0,0,0,-1,531,365,0,0
-686,659,0,0,0,0,0,0,0,0,0,-1,538,365,0,0
-679,659,0,0,0,0,0,0,0,0,0,-1,545,365,0,0
-672,659,0,0,0,0,0,0,0,0,0,-1,552,365,0,0
-665,659,0,0,0,0,0,0,0,0,0,-1,559,365,0,0
-658,659,0,0,0,0,0,0,0,0,0,-1,566,365,0,0
-651,659,0,0,0,0,0,0,0,0,0,-1,573,365,0,0
-644,659,0,0,0,0,0,0,0,0,0,-1,580,365,0,0
-637,659,0,0,0,0,0,0,0,0,0,-1,587,365,0,0
-630,659,0,0,0,0,0,0,0,0,0,-1,594,365,0,0
-623,659,0,0,0,0,0,0,0,0,0,-1,601,365,0,0
-616,659,0,0,0,0,0,0,0,0,0,-1,608,365,0,0
-609,659,0,0,0,0,0,0,0,0,0,-1,615,365,0,0
-602,659,0,0,0,0,0,0,0,0,0,-1,622,365,0,0
-595,659,0,0,0,0,0,0,0,0,0,-1,629,365,0,0
-588,659,0,0,0,0,0,0,0,0,0,-1,636,365,0,0
-581,659,0,0,0,0,0,0,0,0,0,-1,643,365,0,0
-574,659,0,0,0,0,0,0,0,0,0,-1,650,365,0,0
-567,659,0,0,0,0,0,0,0,0,0,-1,657,365,0,0
-560,659,0,0,0,0,0,0,0,0,0,-1,664,365,0,0
-553,659,0,0,0,0,0,0,0,0,0,-1,671,365,0,0
-546,659,0,0,0,0,0,0,0,0,0,-1,678,365,0,0
-539,659,0,0,0,0,0,0,0,0,0,-1,685,365,0,0
-532,659,0,0,0,0,0,0,0,0,0,-1,692,365,0,0
-525,659,0,0,0,0,0,0,0,0,0,-1,699,365,0,0
-518,659,0,0,0,0,0,0,0,0,0,-1,706,365,0,0
-511,659,0,0,0,0,0,0,0,0,0,-1,713,365,0,0
-504,659,0,0,0,0,0,0,0,0,0,-1,720,365,0,0
-497,659,0,0,0,0,0,0,0,0,0,-1,727,365,0,0
-490,659,0,0,0,0,0,0,0,0,0,-1,734,365,0,0
-483,659,0,0,0,0,0,0,0,0,0,-1,741,365,0,0
-476,659,0,0,0,0,0,0,0,0,0,-1,748,365,0,0
-469,659,0,0,0,0,0,0,0,0,0,-1,755,365,0,0
-462,659,0,0,0,0,0,0,0,0,0,-1,762,365,0,0
-455,659,0,0,0,0,0,0,0,0,0,-1,769,365,0,0
-448,659,0,0,0,0,0,0,0,0,0,-1,776,365,0,0
-441,659,0,0,0,0,0,0,0,0,0,-1,783,365,0,0
-434,659,0,0,0,0,0,0,0,0,0,-1,790,365,0,0
-427,659,0,0,0,0,0,0,0,0,0,-1,797,365,0,0
-420,659,0,0,0,0,0,0,0,0,0,-1,804,365,0,0
-413,659,0,0,0,0,0,0,0,0,0,-1,811,365,0,0
-406,659,0,0,0,0,0,0,0,0,0,-1,818,365,0,0
-399,659,0,0,0,0,0,0,0,0,0,-1,825,365,0,0
-392,659,0,0,0,0,0,0,0,0,0,-1,832,365,0,0
-385,659,0,0,0,0,0,0,0,0,0,-1,839,365,0,0
-378,659,0,0,0,0,0,0,0,0,0,-1,846,365,0,0
-371,659,0,0,0,0,0,0,0,0,0,-1,853,365,0,0
-364,659,0,0,0,0,0,0,0,0,0,-1,860,365,0,0
-357,659,0,0,0,0,0,0,0,0,0,-1,867,365,0,0
-350,659,0,0,0,0,0,0,0,0,0,-1,874,365,0,0
-343,659,0,0,0,0,0,0,0,0,0,-1,881,365,0,0
-336,659,0,0,0,0,0,0,0,0,0,-1,888,365,0,0
-329,659,0,0,0,0,0,0,0,0,0,-1,895,365,0,0
-322,659,0,0,0,0,0,0,0,0,0,-1,902,365,0,0
-315,659,0,0,0,0,0,0,0,0,0,-1,909,365,0,0
-308,659,0,0,0,0,0,0,0,0,0,-1,916,365,0,0
-301,659,0,0,0,0,0,0,0,0,0,-1,923,365,0,0
-294,659,0,0,0,0,0,0,0,0,0,-1,930,365,0,0
-287,659,0,0,0,0,0,0,0,0,0,-1,937,365,0,0
-280,659,0,0,0,0,0,0,0,0,0,-1,944,365,0,0
-273,659,0,0,0,0,0,0,0,0,0,-1,951,365,0,0
-266,659,0,0,0,0,0,0,0,0,0,-1,958,365,0,0
-259,659,0,0,0,0,0,0,0,0,0,-1,965,365,0,0
-252,659,0,0,0,0,0,0,0,0,0,-1,972,365,0,0
-245,659,0,0,0,0,0,0,0,0,0,-1,979,365,0,0
-238,659,0,0,0,0,0,0,0,0,0,-1,986,365,0,0
-231,659,0,0,0,0,0,0,0,0,0,-1,993,365,0,0
-224,659,0,0,0,0,0,0,0,0,0,-1,1000,365,0,0
-217,659,10.1305,-25.2622,0,0,0,0,0,0,0,-1,1007,365,10.1305,25.2622
-210,659,9.65643,-25.515,0,0,0,0,0,0,0,-1,1014,365,9.65642,25.515
-203,659,8.58911,-25.7432,0,0,0,0,0,0,0,-1,1021,365,8.58916,25.7432
-196,659,2.68323,-27.8121,0,0,0,0,0,0,0,-1,1028,365,2.6832,27.8121
-189,659,6.88049,-28.9412,0,0,0,0,0,0,0,-1,1035,365,6.88045,28.9412
-182,659,6.94189,-30.6316,0,0,0,0,0,0,0,-1,1042,365,6.94189,30.6316
-175,659,6.948,-32.0092,0,0,0,0,0,0,0,-1,1049,365,6.94798,32.0093
-168,659,7.1416,-32.7405,0,0,0,0,0,0,0,-1,1056,365,7.14157,32.7405
-161,659,7.57361,-33.7099,0,0,0,0,0,0,0,-1,1063,365,7.57355,33.7099
-154,659,7.71448,-34.8995,0,0,0,0,0,0,0,-1,1070,365,7.7145,34.8995
-147,659,4.87,-37.4694,0,0,0,0,0,0,0,-1,1077,365,4.86994,37.4694
-140,659,4.8833,-36.4362,0,0,0,0,0,0,0,-1,1084,365,4.88331,36.4361
-133,659,5.27185,-35.9657,0,0,0,0,0,0,0,-1,1091,365,5.27183,35.9657
-126,659,5.53967,-35.3379,0,0,0,0,0,0,0,-1,1098,365,5.53972,35.3379
-119,659,6.56091,-35.7425,0,0,0,0,0,0,0,-1,1105,365,6.56091,35.7425
-112,659,6.24353,-35.0562,0,0,0,0,0,0,0,-1,1112,365,6.24349,35.0562
-105,659,5.38696,-30.5854,0,0,0,0,0,0,0,-1,1119,365,5.387,30.5854
-98,659,4.68042,-26.2438,0,0,0,0,0,0,0,-1,1126,365,4.68041,26.2438
-91,659,4.20776,-20.8654,0,0,0,0,0,0,0,-1,1133,365,4.20777,20.8654
-84,659,2.8584,-17.8303,0,0,0,0,0,0,0,-1,1140,365,2.85836,17.8303
-77,659,2.80139,-15.3457,0,0,0,0,0,0,0,-1,1147,365,2.80139,15.3457
-70,659,2.9353,-12.7028,0,0,0,0,0,0,0,-1,1154,365,2.93533,12.7028
-63,659,2.11267,-9.7796,0,0,0,0,0,0,0,-1,1161,365,2.11266,9.7796
-56,659,2.11182,-9.91541,0,0,0,0,0,0,0,-1,1168,365,2.11178,9.91541
-49,659,6.2168,-41.0057,0,0,0,0,0,0,0,-1,1175,365,6.21679,41.0057
-42,659,6.21008,-41.2207,0,0,0,0,0,0,0,-1,1182,365,6.21008,41.2207
-35,659,6.13806,-41.4871,0.00133734,0.0171042,0.0017993,0.0173069,0.00113461,1.4586,0.011179,0.0426566,1189,365,6.13808,41.4871
-28,659,6.14001,-41.6146,0.002659,0.0195818,0.0033472,0.0202198,0.002021,1.38245,0.0128593,0.0164234,1196,365,6.14007,41.6146
-21,659,6.07361,-41.8088,0.00375313,0.0216045,0.00473947,0.0227848,0.00257285,1.32673,0.014409,0.0128698,1203,365,6.0736,41.8088
-14,659,5.99036,-41.9996,0.00457829,0.0233626,0.00601582,0.0251241,0.00281685,1.28596,0.0158938,0.0108676,1210,365,5.99031,41.9996
-7,659,5.94568,-42.1511,0.00525746,0.0252787,0.00737616,0.0277027,0.00283344,1.25329,0.0176002,0.0106304,1217,365,5.94567,42.1511
0,659,5.91248,-42.2763,0.00586109,0.0270321,0.00874443,0.0301768,0.00271641,1.22558,0.0192763,0.00906659,1224,365,5.91249,42.2763
7,659,5.88,-42.3861,0.00637308,0.0304119,0.0106695,0.0344644,0.0023206,1.20781,0.0222431,0.00878046,1231,365,5.88006,42.3862
14,659,5.83826,-42.4623,0.00623946,0.0331054,0.0119114,0.0376258,0.00171901,1.20808,0.024531,0.011402,1238,365,5.83823,42.4623
21,659,5.78699,-42.5659,0.00582024,0.0367117,0.0129761,0.0414389,0.001093,1.22144,0.0272689,0.0119632,1245,365,5.78693,42.5659
28,659,5.72534,-42.6642,0.00532835,0.0404044,0.0138209,0.0451957,0.000537064,1.23709,0.0299531,0.0115383,1252,365,5.72534,42.6642
35,659,5.68054,-42.7277,0.00456242,0.0446148,0.0144895,0.0493069,-0.000129703,1.25762,0.0329146,0.0127075,1259,365,5.68056,42.7277
42,659,5.6604,-42.7728,0.0034769,0.048626,0.0150825,0.0532009,-0.00109799,1.27629,0.0358389,0.0134562,1266,365,5.66045,42.7728
49,659,5.58545,-42.8088,0.00233084,0.052183,0.0152359,0.0564706,-0.00195681,1.29647,0.038316,0.0137167,1273,365,5.58539,42.8088
56,659,5.50098,-42.823,0.00110486,0.0558877,0.015189,0.0598172,-0.00282457,1.31764,0.0408522,0.0180209,1280,365,5.50093,42.823
63,659,5.48914,-42.8672,-0.000362862,0.0596685,0.0156431,0.0635002,-0.00419459,1.33058,0.0437987,0.0181414,1287,365,5.4891,42.8672
70,659,5.45764,-42.8625,-0.00178642,0.0632272,0.0163355,0.0671009,-0.00566014,1.33796,0.046735,0.0172188,1294,365,5.45766,42.8625
77,659,5.40015,-42.827,-0.00310467,0.0652777,0.0167134,0.069144,-0.00697101,1.34346,0.0485867,0.0167672,1301,365,5.4001,42.827
84,659,5.36475,-42.8062,-0.00476239,0.0666885,0.017201,0.0706138,-0.00868769,1.34644,0.0502229,0.0127832,1308,365,5.3648,42.8062
91,659,5.31531,-42.7467,-0.00640344,0.0673929,0.0177513,0.0714408,-0.0104514,1.34659,0.051466,0.0116714,1315,365,5.31529,42.7467
98,659,5.2605,-42.6378,-0.00754954,0.0674411,0.0182046,0.0716267,-0.0117352,1.3448,0.0521053,0.00864069,1322,365,5.26048,42.6378
105,659,5.23096,-42.5211,-0.00834532,0.0671501,0.0186988,0.0715276,-0.0127228,1.34083,0.052443,0.0107726,1329,365,5.2309,42.5212
112,659,5.2063,-42.4055,-0.00930284,0.0650622,0.0184515,0.0693887,-0.0136294,1.34048,0.051408,0.0150614,1336,365,5.2063,42.4054
119,659,5.1394,-42.2641,-0.00973786,0.0637705,0.0188456,0.0683204,-0.0142878,1.3339,0.0509813,0.0163796,1343,365,5.13938,42.2641
126,659,5.05566,-42.0812,-0.010105,0.0611437,0.0187048,0.0657557,-0.014717,1.32905,0.0494778,0.0138723,1350,365,5.05571,42.0812
133,659,5.00598,-41.9248,-0.0107022,0.0586613,0.0180806,0.0630913,-0.0151322,1.33051,0.0479083,0.0124959,1357,365,5.00601,41.9248
140,659,4.96375,-41.8154,-0.0108744,0.0553186,0.016973,0.059417,-0.0149728,1.33387,0.0454323,0.0111952,1364,365,4.9638,41.8154
147,659,4.92615,-41.6428,-0.0106924,0.0523761,0.0157747,0.0561016,-0.014418,1.33888,0.0430201,0.0101621,1371,365,4.92609,41.6428
154,659,4.85571,-41.3932,-0.0101094,0.0496355,0.0143899,0.0529207,-0.0133946,1.34634,0.0404907,0.0112991,1378,365,4.85577,41.3932
161,659,4.81689,-41.1491,-0.00979792,0.0460477,0.0127573,0.0488239,-0.0125742,1.35652,0.0374511,0.0129119,1385,365,4.81689,41.1491
168,659,4.80005,-40.8934,-0.00927906,0.0406219,0.0103049,0.0426662,-0.0113233,1.37496,0.0328752,0.0193164,1392,365,4.80006,40.8934
175,659,4.77698,-40.6744,-0.00843058,0.0355022,0.00803897,0.036927,-0.00985537,1.39538,0.0284774,0.0418877,1399,365,4.77692,40.6744
182,659,4.61963,-40.5303,0,0,0,0,0,0,0,-1,1406,365,4.61965,40.5303
189,659,4.67224,-40.0647,0,0,0,0,0,0,0,-1,1413,365,4.6722,40.0647
196,659,2.41248,-13.4371,0,0,0,0,0,0,0,-1,1420,365,2.41243,13.4371
203,659,2.38623,-12.2163,0,0,0,0,0,0,0,-1,1427,365,2.38617,12.2163
210,659,2.20789,-13.9792,0,0,0,0,0,0,0,-1,1434,365,2.20794,13.9792
217,659,2.24121,-13.487,0,0,0,0,0,0,0,-1,1441,365,2.24116,13.487
224,659,2.3479,-15.2926,0,0,0,0,0,0,0,-1,1448,365,2.34793,15.2926
231,659,2.47974,-17.8629,0,0,0,0,0,0,0,-1,1455,365,2.47976,17.8628
238,659,3.57886,-21.1258,0,0,0,0,0,0,0,-1,1462,365,3.57889,21.1258
245,659,3.29883,-25.0283,0,0,0,0,0,0,0,-1,1469,365,3.29889,25.0283
252,659,2.81909,-24.1604,0,0,0,0,0,0,0,-1,1476,365,2.81905,24.1604
259,659,2.33069,-3.36703,0,0,0,0,0,0,0,-1,1483,365,2.33073,3.36702
266,659,3.40918,-35.2544,0,0,0,0,0,0,0,-1,1490,365,3.40913,35.2544
273,659,3.96887,-35.4574,0,0,0,0,0,0,0,-1,1497,365,3.96887,35.4574
280,659,3.5481,-36.0352,0,0,0,0,0,0,0,-1,1504,365,3.54813,36.0352
287,659,3.37708,-36.2786,0,0,0,0,0,0,0,-1,1511,365,3.37708,36.2786
294,659,3.56787,-37.8655,0,0,0,0,0,0,0,-1,1518,365,3.56782,37.8655
301,659,-4.51111,-22.7441,0,0,0,0,0,0,0,-1,1525,365,-4.51114,22.7441
308,659,-5.40295,-24.1075,0,0,0,0,0,0,0,-1,1532,365,-5.4029,24.1075
315,659,-6.55835,-24.4516,0,0,0,0,0,0,0,-1,1539,365,-6.55841,24.4516
322,659,-7.44983,-23.6558,0,0,0,0,0,0,0,-1,1546,365,-7.44988,23.6558
329,659,-7.67749,-23.0449,0,0,0,0,0,0,0,-1,1553,365,-7.67745,23.0449
336,659,-7.71436,-22.4188,0,0,0,0,0,0,0,-1,1560,365,-7.71432,22.4188
343,659,0,0,0,0,0,0,0,0,0,-1,1567,365,0,0
350,659,0,0,0,0,0,0,0,0,0,-1,1574,365,0,0
357,659,0,0,0,0,0,0,0,0,0,-1,1581,365,0,0
364,659,0,0,0,0,0,0,0,0,0,-1,1588,365,0,0
371,659,0,0,0,0,0,0,0,0,0,-1,1595,365,0,0
378,659,0,0,0,0,0,0,0,0,0,-1,1602,365,0,0
385,659,0,0,0,0,0,0,0,0,0,-1,1609,365,0,0
392,659,0,0,0,0,0,0,0,0,0,-1,1616,365,0,0
399,659,0,0,0,0,0,0,0,0,0,-1,1623,365,0,0
406,659,0,0,0,0,0,0,0,0,0,-1,1630,365,0,0
413,659,0,0,0,0,0,0,0,0,0,-1,1637,365,0,0
420,659,0,0,0,0,0,0,0,0,0,-1,1644,365,0,0
427,659,0,0,0,0,0,0,0,0,0,-1,1651,365,0,0
434,659,0,0,0,0,0,0,0,0,0,-1,1658,365,0,0
441,659,0,0,0,0,0,0,0,0,0,-1,1665,365,0,0
448,659,0,0,0,0,0,0,0,0,0,-1,1672,365,0,0
455,659,0,0,0,0,0,0,0,0,0,-1,1679,365,0,0
462,659,0,0,0,0,0,0,0,0,0,-1,1686,365,0,0
469,659,0,0,0,0,0,0,0,0,0,-1,1693,365,0,0
476,659,0,0,0,0,0,0,0,0,0,-1,1700,365,0,0
483,659,0,0,0,0,0,0,0,0,0,-1,1707,365,0,0
490,659,0,0,0,0,0,0,0,0,0,-1,1714,365,0,0
497,659,0,0,0,0,0,0,0,0,0,-1,1721,365,0,0
504,659,0,0,0,0,0,0,0,0,0,-1,1728,365,0,0
511,659,0,0,0,0,0,0,0,0,0,-1,1735,365,0,0
518,659,0,0,0,0,0,0,0,0,0,-1,1742,365,0,0
525,659,0,0,0,0,0,0,0,0,0,-1,1749,365,0,0
532,659,0,0,0,0,0,0,0,0,0,-1,1756,365,0,0
539,659,0,0,0,0,0,0,0,0,0,-1,1763,365,0,0
546,659,0,0,0,0,0,0,0,0,0,-1,1770,365,0,0
553,659,0,0,0,0,0,0,0,0,0,-1,1777,365,0,0
560,659,0,0,0,0,0,0,0,0,0,-1,1784,365,0,0
567,659,0,0,0,0,0,0,0,0,0,-1,1791,365,0,0
574,659,0,0,0,0,0,0,0,0,0,-1,1798,365,0,0
581,659,0,0,0,0,0,0,0,0,0,-1,1805,365,0,0
588,659,0,0,0,0,0,0,0,0,0,-1,1812,365,0,0
595,659,0,0,0,0,0,0,0,0,0,-1,1819,365,0,0
602,659,0,0,0,0,0,0,0,0,0,-1,1826,365,0,0
609,659,0,0,0,0,0,0,0,0,0,-1,1833,365,0,0
616,659,0,0,0,0,0,0,0,0,0,-1,1840,365,0,0
623,659,0,0,0,0,0,0,0,0,0,-1,1847,365,0,0
630,659,0,0,0,0,0,0,0,0,0,-1,1854,365,0,0
637,659,0,0,0,0,0,0,0,0,0,-1,1861,365,0,0
644,659,0,0,0,0,0,0,0,0,0,-1,1868,365,0,0
651,659,0,0,0,0,0,0,0,0,0,-1,1875,365,0,0
658,659,0,0,0,0,0,0,0,0,0,-1,1882,365,0,0
665,659,0,0,0,0,0,0,0,0,0,-1,1889,365,0,0
672,659,0,0,0,0,0,0,0,0,0,-1,1896,365,0,0
679,659,0,0,0,0,0,0,0,0,0,-1,1903,365,0,0
686,659,0,0,0,0,0,0,0,0,0,-1,1910,365,0,0
693,659,0,0,0,0,0,0,0,0,0,-1,1917,365,0,0
700,659,0,0,0,0,0,0,0,0,0,-1,1924,365,0,0
707,659,0,0,0,0,0,0,0,0,0,-1,1931,365,0,0
714,659,0,0,0,0,0,0,0,0,0,-1,1938,365,0,0
721,659,0,0,0,0,0,0,0,0,0,-1,1945,365,0,0
728,659,0,0,0,0,0,0,0,0,0,-1,1952,365,0,0
735,659,0,0,0,0,0,0,0,0,0,-1,1959,365,0,0
742,659,0,0,0,0,0,0,0,0,0,-1,1966,365,0,0
749,659,0,0,0,0,0,0,0,0,0,-1,1973,365,0,0
756,659,0,0,0,0,0,0,0,0,0,-1,1980,365,0,0
763,659,0,0,0,0,0,0,0,0,0,-1,1987,365,0,0
770,659,0,0,0,0,0,0,0,0,0,-1,1994,365,0,0
777,659,0,0,0,0,0,0,0,0,0,-1,2001,365,0,0
784,659,0,0,0,0,0,0,0,0,0,-1,2008,365,0,0
791,659,0,0,0,0,0,0,0,0,0,-1,2015,365,0,0
798,659,0,0,0,0,0,0,0,0,0,-1,2022,365,0,0
805,659,0,0,0,0,0,0,0,0,0,-1,2029,365,0,0
812,659,0,0,0,0,0,0,0,0,0,-1,2036,365,0,0
-700,652,0,0,0,0,0,0,0,0,0,-1,524,372,0,0
-693,652,0,0,0,0,0,0,0,0,0,-1,531,372,0,0
-686,652,0,0,0,0,0,0,0,0,0,-1,538,372,0,0
-679,652,0,0,0,0,0,0,0,0,0,-1,545,372,0,0
-672,652,0,0,0,0,0,0,0,0,0,-1,552,372,0,0
-665,652,0,0,0,0,0,0,0,0,0,-1,559,372,0,0
-658,652,0,0,0,0,0,0,0,0,0,-1,566,372,0,0
-651,652,0,0,0,0,0,0,0,0,0,-1,573,372,0,0
-644,652,0,0,0,0,0,0,0,0,0,-1,580,372,0,0
-637,652,0,0,0,0,0,0,0,0,0,-1,587,372,0,0
-630,652,0,0,0,0,0,0,0,0,0,-1,594,372,0,0
-623,652,0,0,0,0,0,0,0,0,0,-1,601,372,0,0
-616,652,0,0,0,0,0,0,0,0,0,-1,608,372,0,0
-609,652,0,0,0,0,0,0,0,0,0,-1,615,372,0,0
-602,652,0,0,0,0,0,0,0,0,0,-1,622,372,0,0
-595,652,0,0,0,0,0,0,0,0,0,-1,629,372,0,0
-588,652,0,0,0,0,0,0,0,0,0,-1,636,372,0,0
-581,652,0,0,0,0,0,0,0,0,0,-1,643,372,0,0
-574,652,0,0,0,0,0,0,0,0,0,-1,650,372,0,0
-567,652,0,0,0,0,0,0,0,0,0,-1,657,372,0,0
-560,652,0,0,0,0,0,0,0,0,0,-1,664,372,0,0
-553,652,0,0,0,0,0,0,0,0,0,-1,671,372,0,0
-546,652,0,0,0,0,0,0,0,0,0,-1,678,372,0,0
-539,652,0,0,0,0,0,0,0,0,0,-1,685,372,0,0
-532,652,0,0,0,0,0,0,0,0,0,-1,692,372,0,0
-525,652,0,0,0,0,0,0,0,0,0,-1,699,372,0,0
-518,652,0,0,0,0,0,0,0,0,0,-1,706,372,0,0
-511,652,0,0,0,0,0,0,0,0,0,-1,713,372,0,0
-504,652,0,0,0,0,0,0,0,0,0,-1,720,372,0,0
-497,652,0,0,0,0,0,0,0,0,0,-1,727,372,0,0
-490,652,0,0,0,0,0,0,0,0,0,-1,734,372,0,0
-483,652,0,0,0,0,0,0,0,0,0,-1,741,372,0,0
-476,652,0,0,0,0,0,0,0,0,0,-1,748,372,0,0
-469,652,0,0,0,0,0,0,0,0,0,-1,755,372,0,0
-462,652,0,0,0,0,0,0,0,0,0,-1,762,372,0,0
-455,652,0,0,0,0,0,0,0,0,0,-1,769,372,0,0
-448,652,0,0,0,0,0,0,0,0,0,-1,776,372,0,0
-441,652,0,0,0,0,0,0,0,0,0,-1,783,372,0,0
-434,652,0,0,0,0,0,0,0,0,0,-1,790,372,0,0
-427,652,0,0,0,0,0,0,0,0,0,-1,797,372,0,0
-420,652,0,0,0,0,0,0,0,0,0,-1,804,372,0,0
-413,652,0,0,0,0,0,0,0,0,0,-1,811,372,0,0
-406,652,0,0,0,0,0,0,0,0,0,-1,818,372,0,0
-399,652,0,0,0,0,0,0,0,0,0,-1,825,372,0,0
-392,652,0,0,0,0,0,0,0,0,0,-1,832,372,0,0
-385,652,0,0,0,0,0,0,0,0,0,-1,839,372,0,0
-378,652,0,0,0,0,0,0,0,0,0,-1,846,372,0,0
-371,652,0,0,0,0,0,0,0,0,0,-1,853,372,0,0
-364,652,0,0,0,0,0,0,0,0,0,-1,860,372,0,0
-357,652,0,0,0,0,0,0,0,0,0,-1,867,372,0,0
-350,652,0,0,0,0,0,0,0,0,0,-1,874,372,0,0
-343,652,0,0,0,0,0,0,0,0,0,-1,881,372,0,0
-336,652,0,0,0,0,0,0,0,0,0,-1,888,372,0,0
-329,652,0,0,0,0,0,0,0,0,0,-1,895,372,0,0
-322,652,0,0,0,0,0,0,0,0,0,-1,902,372,0,0
-315,652,0,0,0,0,0,0,0,0,0,-1,909,372,0,0
-308,652,0,0,0,0,0,0,0,0,0,-1,916,372,0,0
-301,652,0,0,0,0,0,0,0,0,0,-1,923,372,0,0
-294,652,0,0,0,0,0,0,0,0,0,-1,930,372,0,0
-287,652,0,0,0,0,0,0,0,0,0,-1,937,372,0,0
-280,652,0,0,0,0,0,0,0,0,0,-1,944,372,0,0
-273,652,0,0,0,0,0,0,0,0,0,-1,951,372,0,0
-266,652,0,0,0,0,0,0,0,0,0,-1,958,372,0,0
-259,652,0,0,0,0,0,0,0,0,0,-1,965,372,0,0
-252,652,0,0,0,0,0,0,0,0,0,-1,972,372,0,0
-245,652,0,0,0,0,0,0,0,0,0,-1,979,372,0,0
-238,652,0,0,0,0,0,0,0,0,0,-1,986,372,0,0
-231,652,8.79358,-27.1656,0,0,0,0,0,0,0,-1,993,372,8.79357,27.1656
-224,652,8.84552,-27.675,0,0,0,0,0,0,0,-1,1000,372,8.84555,27.675
-217,652,9.03113,-27.7474,0,0,0,0,0,0,0,-1,1007,372,9.0311,27.7474
-210,652,9.72803,-30.4624,0,0,0,0,0,0,0,-1,1014,372,9.72805,30.4624
-203,652,7.2677,-26.0732,0,0,0,0,0,0,0,-1,1021,372,7.26775,26.0732
-196,652,5.90686,-26.957,0,0,0,0,0,0,0,-1,1028,372,5.9068,26.957
-189,652,6.21326,-28.3035,0,0,0,0,0,0,0,-1,1035,372,6.21331,28.3035
-182,652,6.45068,-29.9377,0,0,0,0,0,0,0,-1,1042,372,6.45074,29.9377
-175,652,6.72559,-31.6948,0,0,0,0,0,0,0,-1,1049,372,6.72563,31.6948
-168,652,7.08533,-32.8669,0,0,0,0,0,0,0,-1,1056,372,7.08532,32.8669
-161,652,7.25427,-36.0957,0,0,0,0,0,0,0,-1,1063,372,7.25427,36.0957
-154,652,7.64185,-37.0567,0,0,0,0,0,0,0,-1,1070,372,7.64188,37.0567
-147,652,6.9519,-35.8671,0,0,0,0,0,0,0,-1,1077,372,6.9519,35.8671
-140,652,5.6842,-33.9781,0,0,0,0,0,0,0,-1,1084,372,5.68421,33.9781
-133,652,6.3009,-35.2887,0,0,0,0,0,0,0,-1,1091,372,6.30093,35.2887
-126,652,6.46851,-37.0258,0,0,0,0,0,0,0,-1,1098,372,6.46856,37.0259
-119,652,6.51501,-37.5163,0,0,0,0,0,0,0,-1,1105,372,6.51502,37.5163
-112,652,6.42224,-38.0367,0,0,0,0,0,0,0,-1,1112,372,6.42229,38.0367
-105,652,6.41858,-38.2373,0,0,0,0,0,0,0,-1,1119,372,6.41864,38.2373
-98,652,5.84302,-35.2455,0,0,0,0,0,0,0,-1,1126,372,5.84307,35.2455
-91,652,5.66296,-32.9003,0,0,0,0,0,0,0,-1,1133,372,5.66297,32.9003
-84,652,5.46057,-34.9186,0,0,0,0,0,0,0,-1,1140,372,5.46057,34.9186
-77,652,6.25537,-39.7798,0,0,0,0,0,0,0,-1,1147,372,6.25538,39.7799
-70,652,6.20679,-40.2204,0,0,0,0,0,0,0,-1,1154,372,6.20681,40.2204
-63,652,6.18982,-40.4691,0,0,0,0,0,0,0,-1,1161,372,6.18984,40.4691
-56,652,6.10132,-40.7652,0,0,0,0,0,0,0,-1,1168,372,6.10137,40.7652
-49,652,6.07959,-41.0372,-0.00299631,0.00881104,-0.000984733,0.0088926,-0.00307788,-1.48816,0.00717781,0.0377158,1175,372,6.07955,41.0372
-42,652,6.00671,-41.2119,-0.00161441,0.0108072,0.00011581,0.0108083,-0.00161549,1.56147,0.00779999,0.0122323,1182,372,6.00675,41.2118
-35,652,5.98926,-41.4248,-0.000688951,0.012572,0.00114228,0.0126697,-0.000786626,1.4855,0.00872051,0.010019,1189,372,5.98927,41.4248
-28,652,5.94885,-41.6371,0.000152887,0.0139642,0.00199994,0.0142479,-0.000130882,1.42985,0.00954256,0.00840539,1196,372,5.94884,41.6371
-21,652,5.87817,-41.8489,0.00101346,0.0152947,0.0029609,0.0158842,0.000423918,1.37426,0.010451,0.00804685,1203,372,5.87817,41.8489
-14,652,5.84631,-42.0401,0.00167514,0.016416,0.00385531,0.0173634,0.000727718,1.32983,0.0113408,0.00985992,1210,372,5.84629,42.0401
-7,652,5.82104,-42.1944,0.00222568,0.0176283,0.00480868,0.0190063,0.000847703,1.29171,0.012398,0.0131465,1217,372,5.821,42.1944
0,652,5.79285,-42.3098,0.00270499,0.0187284,0.00573449,0.0205692,0.000864197,1.26018,0.013434,0.013315,1224,372,5.79291,42.3099
7,652,5.77344,-42.4044,0.00314895,0.0212632,0.00712546,0.0237301,0.000682022,1.2375,0.0155977,0.013764,1231,372,5.77347,42.4044
14,652,5.75427,-42.5228,0.00311089,0.0232109,0.00810263,0.0260704,0.000251388,1.23153,0.0172971,0.0119991,1238,372,5.75425,42.5228
21,652,5.68921,-42.6444,0.00287469,0.0259496,0.00886986,0.0289651,-0.000140767,1.24309,0.0193572,0.0112883,1245,372,5.68919,42.6444
28,652,5.64758,-42.7389,0.00254414,0.0288319,0.00948093,0.0318945,-0.000518451,1.25835,0.0214379,0.0106657,1252,372,5.64754,42.7389
35,652,5.61682,-42.7993,0.00200316,0.0320653,0.00989651,0.0350307,-0.000962269,1.27967,0.0236811,0.0110703,1259,372,5.61684,42.7994
42,652,5.59241,-42.8427,0.00126501,0.0351319,0.0103065,0.0380218,-0.00162491,1.29742,0.0259065,0.0120096,1266,372,5.59236,42.8427
49,652,5.55933,-42.8744,0.000452079,0.0377687,0.0103565,0.0404503,-0.00222948,1.31744,0.0277399,0.0143946,1273,372,5.55937,42.8744
56,652,5.5127,-42.8701,-0.000456282,0.0404687,0.0101777,0.04286,-0.00284765,1.34002,0.0295683,0.0165996,1280,372,5.51275,42.8701
63,652,5.46912,-42.8991,-0.00149944,0.0431339,0.0102868,0.0453906,-0.00375615,1.35484,0.031587,0.0205157,1287,372,5.46913,42.8991
70,652,5.46716,-42.8753,-0.00244502,0.0454772,0.0106108,0.0477215,-0.00468931,1.36236,0.0334871,0.0176031,1294,372,5.4672,42.8753
77,652,5.42249,-42.8618,-0.00336622,0.0467292,0.0107579,0.0489417,-0.00557873,1.36796,0.0346375,0.015671,1301,372,5.42248,42.8618
84,652,5.41785,-42.8377,-0.00450664,0.0474579,0.0108656,0.0496383,-0.0066871,1.37275,0.0355316,0.0132914,1308,372,5.41783,42.8377
91,652,5.35828,-42.8289,-0.00560245,0.0477052,0.0109825,0.0498792,-0.00777643,1.37537,0.036125,0.0169489,1315,372,5.35824,42.8289
98,652,5.33875,-42.7312,-0.00634849,0.0474318,0.0110553,0.0496157,-0.00853239,1.37576,0.0362575,0.013912,1322,372,5.33871,42.7312
105,652,5.33044,-42.5958,-0.00674144,0.0469628,0.0112359,0.0492187,-0.00899742,1.37265,0.0361864,0.0121208,1329,372,5.33044,42.5958
112,652,5.29492,-42.485,-0.0072983,0.0451602,0.0108521,0.0473166,-0.00945464,1.37465,0.0351227,0.0100882,1336,372,5.29492,42.485
119,652,5.24951,-42.3383,-0.00738558,0.0440233,0.0109113,0.0462433,-0.00960557,1.37008,0.0344797,0.0102321,1343,372,5.24951,42.3384
126,652,5.18408,-42.1648,-0.00735892,0.0418475,0.010783,0.0441067,-0.00961817,1.36426,0.0330799,0.0128692,1350,372,5.18412,42.1648
133,652,5.12695,-42.0037,-0.00738381,0.0398232,0.0103388,0.0419882,-0.00954882,1.36437,0.0316588,0.0140892,1357,372,5.12694,42.0037
140,652,5.09863,-41.8635,-0.00709419,0.0373162,0.00968573,0.0393367,-0.00911469,1.36514,0.0297321,0.0108705,1364,372,5.09861,41.8635
147,652,5.09167,-41.6799,-0.00671151,0.0352047,0.0088962,0.0370147,-0.00852146,1.37008,0.0279533,0.00977564,1371,372,5.0917,41.6799
154,652,5.0752,-41.4615,-0.00609072,0.0333877,0.00804898,0.0349657,-0.0076687,1.3772,0.0262429,0.00991594,1378,372,5.07525,41.4615
161,652,5.01941,-41.2334,-0.00547506,0.0308494,0.00712112,0.0321955,-0.00682121,1.38396,0.0240619,0.0112926,1385,372,5.01937,41.2334
168,652,4.9679,-40.9727,-0.00492611,0.0272038,0.00569941,0.0281848,-0.00590715,1.40034,0.0210372,0.0122561,1392,372,4.96791,40.9727
175,652,4.93286,-40.705,-0.00445692,0.0240491,0.00456048,0.0247609,-0.00516875,1.41596,0.0184728,0.0126223,1399,372,4.93286,40.7051
182,652,4.87756,-40.4706,-0.00418588,0.0230873,0.00468951,0.0238712,-0.00496969,1.40519,0.0178034,0.0186154,1406,372,4.87757,40.4706
189,652,4.86853,-40.1967,-0.00315309,0.0206618,0.00431992,0.0214212,-0.00391249,1.39678,0.0157478,0.031171,1413,372,4.86848,40.1967
196,652,4.79419,-39.9056,0,0,0,0,0,0,0,-1,1420,372,4.7942,39.9056
203,652,4.76111,-39.568,0,0,0,0,0,0,0,-1,1427,372,4.76107,39.568
210,652,4.78076,-39.1255,0,0,0,0,0,0,0,-1,1434,372,4.78082,39.1255
217,652,4.70422,-38.8678,0,0,0,0,0,0,0,-1,1441,372,4.70421,38.8678
224,652,3.63794,-31.2791,0,0,0,0,0,0,0,-1,1448,372,3.63799,31.2791
231,652,3.83936,-30.4812,0,0,0,0,0,0,0,-1,1455,372,3.8393,30.4812
238,652,4.42358,-36.4103,0,0,0,0,0,0,0,-1,1462,372,4.4236,36.4103
245,652,4.38818,-37.3748,0,0,0,0,0,0,0,-1,1469,372,4.38819,37.3748
252,652,4.59082,-36.8264,0,0,0,0,0,0,0,-1,1476,372,4.59081,36.8264
259,652,3.44922,-31.2655,0,0,0,0,0,0,0,-1,1483,372,3.44921,31.2655
266,652,4.09717,-35.7204,0,0,0,0,0,0,0,-1,1490,372,4.09721,35.7204
273,652,4.33154,-35.5192,-0.00119053,0.0152965,-0.00759781,0.0182638,-0.00415783,-1.19847,0.0137726,0.0442043,1497,372,4.33153,35.5191
280,652,4.12671,-35.9862,-0.00106476,0.0164102,-0.00748191,0.0191759,-0.00383044,-1.21673,0.0142336,0.0451579,1504,372,4.12671,35.9862
287,652,4.21082,-36.448,0,0,0,0,0,0,0,-1,1511,372,4.21083,36.448
294,652,3.66516,-37.1052,0,0,0,0,0,0,0,-1,1518,372,3.66513,37.1052
301,652,4.83105,-37.3813,0,0,0,0,0,0,0,-1,1525,372,4.8311,37.3813
308,652,-3.18225,-22.5736,0,0,0,0,0,0,0,-1,1532,372,-3.1823,22.5736
315,652,-3.1134,-23.446,0,0,0,0,0,0,0,-1,1539,372,-3.11341,23.4459
322,652,-3.39624,-23.2068,0,0,0,0,0,0,0,-1,1546,372,-3.39618,23.2068
329,652,-3.54065,-22.8907,0,0,0,0,0,0,0,-1,1553,372,-3.54059,22.8907
336,652,-3.56519,-22.3688,0,0,0,0,0,0,0,-1,1560,372,-3.56517,22.3688
343,652,-3.58069,-21.9185,0,0,0,0,0,0,0,-1,1567,372,-3.58069,21.9185
350,652,5.28394,-25.6715,0,0,0,0,0,0,0,-1,1574,372,5.28393,25.6715
357,652,0,0,0,0,0,0,0,0,0,-1,1581,372,0,0
364,652,0,0,0,0,0,0,0,0,0,-1,1588,372,0,0
371,652,0,0,0,0,0,0,0,0,0,-1,1595,372,0,0
378,652,0,0,0,0,0,0,0,0,0,-1,1602,372,0,0
385,652,0,0,0,0,0,0,0,0,0,-1,1609,372,0,0
392,652,0,0,0,0,0,0,0,0,0,-1,1616,372,0,0
399,652,0,0,0,0,0,0,0,0,0,-1,1623,372,0,0
406,652,0,0,0,0,0,0,0,0,0,-1,1630,372,0,0
413,652,0,0,0,0,0,0,0,0,0,-1,1637,372,0,0
420,652,0,0,0,0,0,0,0,0,0,-1,1644,372,0,0
427,652,0,0,0,0,0,0,0,0,0,-1,1651,372,0,0
434,652,0,0,0,0,0,0,0,0,0,-1,1658,372,0,0
441,652,0,0,0,0,0,0,0,0,0,-1,1665,372,0,0
448,652,0,0,0,0,0,0,0,0,0,-1,1672,372,0,0
455,652,0,0,0,0,0,0,0,0,0,-1,1679,372,0,0
462,652,0,0,0,0,0,0,0,0,0,-1,1686,372,0,0
469,652,0,0,0,0,0,0,0,0,0,-1,1693,372,0,0
476,652,0,0,0,0,0,0,0,0,0,-1,1700,372,0,0
483,652,0,0,0,0,0,0,0,0,0,-1,1707,372,0,0
490,652,0,0,0,0,0,0,0,0,0,-1,1714,372,0,0
497,652,0,0,0,0,0,0,0,0,0,-1,1721,372,0,0
504,652,0,0,0,0,0,0,0,0,0,-1,1728,372,0,0
511,652,0,0,0,0,0,0,0,0,0,-1,1735,372,0,0
518,652,0,0,0,0,0,0,0,0,0,-1,1742,372,0,0
525,652,0,0,0,0,0,0,0,0,0,-1,1749,372,0,0
532,652,0,0,0,0,0,0,0,0,0,-1,1756,372,0,0
539,652,0,0,0,0,0,0,0,0,0,-1,1763,372,0,0
546,652,0,0,0,0,0,0,0,0,0,-1,1770,372,0,0
553,652,0,0,0,0,0,0,0,0,0,-1,1777,372,0,0
560,652,0,0,0,0,0,0,0,0,0,-1,1784,372,0,0
567,652,0,0,0,0,0,0,0,0,0,-1,1791,372,0,0
574,652,0,0,0,0,0,0,0,0,0,-1,1798,372,0,0
581,652,0,0,0,0,0,0,0,0,0,-1,1805,372,0,0
588,652,0,0,0,0,0,0,0,0,0,-1,1812,372,0,0
595,652,0,0,0,0,0,0,0,0,0,-1,1819,372,0,0
602,652,0,0,0,0,0,0,0,0,0,-1,1826,372,0,0
609,652,0,0,0,0,0,0,0,0,0,-1,1833,372,0,0
616,652,0,0,0,0,0,0,0,0,0,-1,1840,372,0,0
623,652,0,0,0,0,0,0,0,0,0,-1,1847,372,0,0
630,652,0,0,0,0,0,0,0,0,0,-1,1854,372,0,0
637,652,0,0,0,0,0,0,0,0,0,-1,1861,372,0,0
644,652,0,0,0,0,0,0,0,0,0,-1,1868,372,0,0
651,652,0,0,0,0,0,0,0,0,0,-1,1875,372,0,0
658,652,0,0,0,0,0,0,0,0,0,-1,1882,372,0,0
665,652,0,0,0,0,0,0,0,0,0,-1,1889,372,0,0
672,652,0,0,0,0,0,0,0,0,0,-1,1896,372,0,0
679,652,0,0,0,0,0,0,0,0,0,-1,1903,372,0,0
686,652,0,0,0,0,0,0,0,0,0,-1,1910,372,0,0
693,652,0,0,0,0,0,0,0,0,0,-1,1917,372,0,0
700,652,0,0,0,0,0,0,0,0,0,-1,1924,372,0,0
707,652,0,0,0,0,0,0,0,0,0,-1,1931,372,0,0
714,652,0,0,0,0,0,0,0,0,0,-1,1938,372,0,0
721,652,0,0,0,0,0,0,0,0,0,-1,1945,372,0,0
728,652,0,0,0,0,0,0,0,0,0,-1,1952,372,0,0
735,652,0,0,0,0,0,0,0,0,0,-1,1959,372,0,0
742,652,0,0,0,0,0,0,0,0,0,-1,1966,372,0,0
749,652,0,0,0,0,0,0,0,0,0,-1,1973,372,0,0
756,652,0,0,0,0,0,0,0,0,0,-1,1980,372,0,0
763,652,0,0,0,0,0,0,0,0,0,-1,1987,372,0,0
770,652,0,0,0,0,0,0,0,0,0,-1,1994,372,0,0
777,652,0,0,0,0,0,0,0,0,0,-1,2001,372,0,0
784,652,0,0,0,0,0,0,0,0,0,-1,2008,372,0,0
791,652,0,0,0,0,0,0,0,0,0,-1,2015,372,0,0
798,652,0,0,0,0,0,0,0,0,0,-1,2022,372,0,0
805,652,0,0,0,0,0,0,0,0,0,-1,2029,372,0,0
812,652,0,0,0,0,0,0,0,0,0,-1,2036,372,0,0
-700,645,0,0,0,0,0,0,0,0,0,-1,524,379,0,0
-693,645,0,0,0,0,0,0,0,0,0,-1,531,379,0,0
-686,645,0,0,0,0,0,0,0,0,0,-1,538,379,0,0
-679,645,0,0,0,0,0,0,0,0,0,-1,545,379,0,0
-672,645,0,0,0,0,0,0,0,0,0,-1,552,379,0,0
-665,645,0,0,0,0,0,0,0,0,0,-1,559,379,0,0
-658,645,0,0,0,0,0,0,0,0,0,-1,566,379,0,0
-651,645,0,0,0,0,0,0,0,0,0,-1,573,379,0,0
-644,645,0,0,0,0,0,0,0,0,0,-1,580,379,0,0
-637,645,0,0,0,0,0,0,0,0,0,-1,587,379,0,0
-630,645,0,0,0,0,0,0,0,0,0,-1,594,379,0,0
-623,645,0,0,0,0,0,0,0,0,0,-1,601,379,0,0
-616,645,0,0,0,0,0,0,0,0,0,-1,608,379,0,0
-609,645,0,0,0,0,0,0,0,0,0,-1,615,379,0,0
-602,645,0,0,0,0,0,0,0,0,0,-1,622,379,0,0
-595,645,0,0,0,0,0,0,0,0,0,-1,629,379,0,0
-588,645,0,0,0,0,0,0,0,0,0,-1,636,379,0,0
-581,645,0,0,0,0,0,0,0,0,0,-1,643,379,0,0
-574,645,0,0,0,0,0,0,0,0,0,-1,650,379,0,0
-567,645,0,0,0,0,0,0,0,0,0,-1,657,379,0,0
-560,645,0,0,0,0,0,0,0,0,0,-1,664,379,0,0
-553,645,0,0,0,0,0,0,0,0,0,-1,671,379,0,0
-546,645,0,0,0,0,0,0,0,0,0,-1,678,379,0,0
-539,645,0,0,0,0,0,0,0,0,0,-1,685,379,0,0
-532,645,0,0,0,0,0,0,0,0,0,-1,692,379,0,0
-525,645,0,0,0,0,0,0,0,0,0,-1,699,379,0,0
-518,645,0,0,0,0,0,0,0,0,0,-1,706,379,0,0
-511,645,0,0,0,0,0,0,0,0,0,-1,713,379,0,0
-504,645,0,0,0,0,0,0,0,0,0,-1,720,379,0,0
-497,645,0,0,0,0,0,0,0,0,0,-1,727,379,0,0
-490,645,0,0,0,0,0,0,0,0,0,-1,734,379,0,0
-483,645,0,0,0,0,0,0,0,0,0,-1,741,379,0,0
-476,645,0,0,0,0,0,0,0,0,0,-1,748,379,0,0
-469,645,0,0,0,0,0,0,0,0,0,-1,755,379,0,0
-462,645,0,0,0,0,0,0,0,0,0,-1,762,379,0,0
-455,645,0,0,0,0,0,0,0,0,0,-1,769,379,0,0
-448,645,0,0,0,0,0,0,0,0,0,-1,776,379,0,0
-441,645,0,0,0,0,0,0,0,0,0,-1,783,379,0,0
-434,645,0,0,0,0,0,0,0,0,0,-1,790,379,0,0
-427,645,0,0,0,0,0,0,0,0,0,-1,797,379,0,0
-420,645,0,0,0,0,0,0,0,0,0,-1,804,379,0,0
-413,645,0,0,0,0,0,0,0,0,0,-1,811,379,0,0
-406,645,0,0,0,0,0,0,0,0,0,-1,818,379,0,0
-399,645,0,0,0,0,0,0,0,0,0,-1,825,379,0,0
-392,645,0,0,0,0,0,0,0,0,0,-1,832,379,0,0
-385,645,0,0,0,0,0,0,0,0,0,-1,839,379,0,0
-378,645,0,0,0,0,0,0,0,0,0,-1,846,379,0,0
-371,645,0,0,0,0,0,0,0,0,0,-1,853,379,0,0
-364,645,0,0,0,0,0,0,0,0,0,-1,860,379,0,0
-357,645,0,0,0,0,0,0,0,0,0,-1,867,379,0,0
-350,645,0,0,0,0,0,0,0,0,0,-1,874,379,0,0
-343,645,0,0,0,0,0,0,0,0,0,-1,881,379,0,0
-336,645,0,0,0,0,0,0,0,0,0,-1,888,379,0,0
-329,645,0,0,0,0,0,0,0,0,0,-1,895,379,0,0
-322,645,0,0,0,0,0,0,0,0,0,-1,902,379,0,0
-315,645,0,0,0,0,0,0,0,0,0,-1,909,379,0,0
-308,645,0,0,0,0,0,0,0,0,0,-1,916,379,0,0
-301,645,0,0,0,0,0,0,0,0,0,-1,923,379,0,0
-294,645,0,0,0,0,0,0,0,0,0,-1,930,379,0,0
-287,645,0,0,0,0,0,0,0,0,0,-1,937,379,0,0
-280,645,0,0,0,0,0,0,0,0,0,-1,944,379,0,0
-273,645,0,0,0,0,0,0,0,0,0,-1,951,379,0,0
-266,645,0,0,0,0,0,0,0,0,0,-1,958,379,0,0
-259,645,0,0,0,0,0,0,0,0,0,-1,965,379,0,0
-252,645,2.95691,-26.9133,0,0,0,0,0,0,0,-1,972,379,2.9569,26.9133
-245,645,2.73169,-27.0215,0,0,0,0,0,0,0,-1,979,379,2.73172,27.0215
-238,645,2.6665,-26.9464,0,0,0,0,0,0,0,-1,986,379,2.66649,26.9464
-231,645,7.26807,-29.1054,0,0,0,0,0,0,0,-1,993,379,7.26806,29.1054
-224,645,7.69073,-29.5737,0,0,0,0,0,0,0,-1,1000,379,7.69071,29.5737
-217,645,8.65485,-33.4136,0,0,0,0,0,0,0,-1,1007,379,8.65487,33.4136
-210,645,9.21594,-32.5157,0,0,0,0,0,0,0,-1,1014,379,9.21591,32.5156
-203,645,9.77698,-31.6176,0,0,0,0,0,0,0,-1,1021,379,9.77696,31.6177
-196,645,10.2664,-29.7741,0,0,0,0,0,0,0,-1,1028,379,10.2664,29.7741
-189,645,5.88062,-28.2191,0,0,0,0,0,0,0,-1,1035,379,5.88062,28.2191
-182,645,6.34167,-29.2525,0,0,0,0,0,0,0,-1,1042,379,6.3417,29.2525
-175,645,6.1416,-34.1797,0,0,0,0,0,0,0,-1,1049,379,6.14161,34.1797
-168,645,6.55493,-35.4567,0,0,0,0,0,0,0,-1,1056,379,6.55495,35.4567
-161,645,6.77368,-35.7731,-0.000836954,0.00982099,-0.00280317,0.0105133,-0.00152925,-1.32867,0.00757027,0.0498536,1063,379,6.77373,35.7731
-154,645,6.90442,-36.3961,-0.000990245,0.00995187,-0.00281962,0.0106357,-0.00167408,-1.33286,0.00770933,0.0478664,1070,379,6.90437,36.396
-147,645,6.88477,-36.7943,0,0,0,0,0,0,0,-1,1077,379,6.88481,36.7943
-140,645,6.33655,-36.4618,0,0,0,0,0,0,0,-1,1084,379,6.33656,36.4618
-133,645,6.24365,-36.8556,0,0,0,0,0,0,0,-1,1091,379,6.24361,36.8556
-126,645,6.26221,-37.2367,-0.00323704,0.013269,-0.00342788,0.0139525,-0.00392062,-1.37396,0.0108474,0.0489611,1098,379,6.26217,37.2367
-119,645,6.21069,-37.7614,-0.00361842,0.0133332,-0.00335838,0.0139743,-0.00425952,-1.38217,0.0110141,0.0268457,1105,379,6.21065,37.7614
-112,645,6.15808,-38.1628,-0.00413435,0.0135021,-0.00305093,0.014015,-0.00464721,-1.40425,0.011218,0.017958,1112,379,6.15803,38.1628
-105,645,6.12781,-38.4542,-0.00481923,0.0135342,-0.0029882,0.0140084,-0.0052935,-1.4134,0.0115164,0.0390487,1119,379,6.12784,38.4542
-98,645,6.09473,-38.7042,0,0,0,0,0,0,0,-1,1126,379,6.09476,38.7042
-91,645,6.00427,-39.3401,0,0,0,0,0,0,0,-1,1133,379,6.00422,39.3402
-84,645,5.94629,-39.6961,0,0,0,0,0,0,0,-1,1140,379,5.94629,39.6961
-77,645,6.01489,-39.9832,-0.00486175,0.00666853,-0.0013017,0.00681365,-0.00500688,-1.45976,0.00685111,0.0392268,1147,379,6.01495,39.9832
-70,645,5.95618,-40.2962,-0.0049255,0.0055476,-0.000854094,0.00561679,-0.0049947,-1.48996,0.00613005,0.0152394,1154,379,5.95615,40.2962
-63,645,5.91821,-40.4965,-0.00399492,0.00554169,-0.00138225,0.00573799,-0.00419122,-1.42972,0.00575577,0.0115245,1161,379,5.91816,40.4965
-56,645,5.89099,-40.7274,-0.00316787,0.00638915,-0.00125401,0.00655095,-0.00332967,-1.44248,0.00580476,0.0137124,1168,379,5.89101,40.7273
-49,645,5.8645,-40.9785,-0.00249843,0.00633703,-0.000849309,0.00641793,-0.00257933,-1.47583,0.00534984,0.0115987,1175,379,5.86448,40.9785
-42,645,5.80725,-41.221,-0.00163948,0.0072459,-0.000146431,0.00724832,-0.0016419,-1.55432,0.00546239,0.0111481,1182,379,5.80729,41.221
-35,645,5.77539,-41.4717,-0.000993796,0.00834954,0.000558769,0.00838283,-0.00102709,1.51128,0.00596049,0.0110529,1189,379,5.77545,41.4717
-28,645,5.73193,-41.6868,-0.000468307,0.00902669,0.00104391,0.0091401,-0.000581724,1.46257,0.00629628,0.00914702,1196,379,5.73198,41.6868
-21,645,5.69751,-41.8745,5.35847e-05,0.00967146,0.00158672,0.00992647,-0.000201425,1.41144,0.0066858,0.0101953,1203,379,5.69751,41.8745
-14,645,5.69409,-42.0649,0.00047643,0.0101557,0.00211172,0.0105964,3.57786e-05,1.36508,0.00705234,0.00968307,1210,379,5.69405,42.0649
-7,645,5.70129,-42.2287,0.000830346,0.0106826,0.00265787,0.0113539,0.000159065,1.32341,0.00751679,0.0136835,1217,379,5.70134,42.2287
0,645,5.68799,-42.3619,0.0010832,0.0112111,0.00312991,0.0121003,0.000194004,1.29399,0.00800298,0.0269613,1224,379,5.68794,42.3619
7,645,5.64197,-42.4681,0.00127058,0.0127981,0.00390246,0.013995,7.37291e-05,1.27321,0.00930551,0.0187042,1231,379,5.64195,42.4681
14,645,5.62244,-42.5594,0.00126985,0.0139529,0.00451755,0.0153975,-0.000174709,1.2613,0.0103237,0.0173229,1238,379,5.62245,42.5594
21,645,5.58435,-42.6738,0.00120868,0.0157523,0.00500457,0.017308,-0.000347023,1.26941,0.011656,0.0114809,1245,379,5.58435,42.6738
28,645,5.57813,-42.767,0.00106898,0.0177425,0.00539106,0.0193337,-0.000522263,1.28378,0.0130667,0.00977923,1252,379,5.5781,42.767
35,645,5.55811,-42.8242,0.000811572,0.0200102,0.00563685,0.0215428,-0.000721093,1.30531,0.0146082,0.0090307,1259,379,5.55808,42.8241
42,645,5.52356,-42.8929,0.000408627,0.0221391,0.00588997,0.0236329,-0.00108515,1.32242,0.0161291,0.00870801,1266,379,5.52358,42.8929
49,645,5.53015,-42.9266,-3.67583e-07,0.0239436,0.00590467,0.0253206,-0.0013773,1.3417,0.0173577,0.0117058,1273,379,5.53016,42.9266
56,645,5.52307,-42.9212,-0.000461475,0.0257435,0.00573873,0.0269451,-0.00166312,1.36439,0.0185427,0.0124546,1280,379,5.5231,42.9212
63,645,5.50659,-42.9296,-0.000980012,0.0274343,0.00573443,0.028548,-0.00209366,1.37898,0.0197669,0.0122238,1287,379,5.50654,42.9296
70,645,5.48853,-42.9099,-0.00144047,0.0287682,0.00584552,0.0298598,-0.00253215,1.38617,0.020802,0.0158273,1294,379,5.48848,42.9098
77,645,5.47607,-42.9006,-0.00191019,0.0293802,0.00589059,0.0304524,-0.00298239,1.39075,0.0213652,0.0179281,1301,379,5.47612,42.9006
84,645,5.47986,-42.8621,-0.00249741,0.0296033,0.00582918,0.0306291,-0.00352316,1.39661,0.0216894,0.0131418,1308,379,5.47988,42.8621
91,645,5.43384,-42.8314,-0.00313225,0.0295256,0.00570089,0.0304922,-0.00409881,1.40285,0.0218231,0.015005,1315,379,5.43381,42.8314
98,645,5.41931,-42.7407,-0.00357251,0.0290811,0.00557448,0.0300065,-0.00449794,1.40629,0.0216599,0.0134037,1322,379,5.41931,42.7407
105,645,5.41809,-42.6206,-0.00369323,0.0285128,0.00558627,0.0294542,-0.00463467,1.40384,0.0213494,0.010335,1329,379,5.41808,42.6206
112,645,5.39063,-42.5147,-0.00393757,0.0271507,0.00522452,0.0280052,-0.00479209,1.40867,0.0204554,0.00895351,1336,379,5.39066,42.5147
119,645,5.37097,-42.364,-0.00404186,0.0263996,0.00509002,0.0272282,-0.00487039,1.40944,0.0199745,0.00872964,1343,379,5.37102,42.3641
126,645,5.33667,-42.187,-0.00402614,0.0249449,0.00493686,0.0257631,-0.0048443,1.40656,0.0189971,0.0120408,1350,379,5.3367,42.1869
133,645,5.31128,-42.0335,-0.00388328,0.0236451,0.0046806,0.0244191,-0.00465735,1.4069,0.0180335,0.0139354,1357,379,5.31125,42.0335
140,645,5.27307,-41.8871,-0.00352384,0.0221487,0.00440968,0.022885,-0.00426015,1.40535,0.0168571,0.0134573,1364,379,5.27313,41.8871
147,645,5.26404,-41.7085,-0.00314067,0.0210783,0.00409554,0.0217521,-0.0038145,1.40773,0.0159259,0.013977,1371,379,5.26404,41.7085
154,645,5.271,-41.4982,-0.00273631,0.0202581,0.00374633,0.020853,-0.00333128,1.4133,0.0151351,0.0129798,1378,379,5.27095,41.4982
161,645,5.24036,-41.2873,-0.00231113,0.0190351,0.00341397,0.0195678,-0.00284384,1.41601,0.0140891,0.0160162,1385,379,5.24033,41.2873
168,645,5.18958,-41.0472,-0.00206259,0.0171962,0.00282254,0.0176014,-0.00246773,1.42823,0.0126374,0.0175475,1392,379,5.18955,41.0472
175,645,5.1936,-40.7798,-0.00199634,0.0157155,0.00247231,0.0160541,-0.00233496,1.43468,0.0115599,0.0144879,1399,379,5.19358,40.7799
182,645,5.14038,-40.5212,-0.00203975,0.0153488,0.00273692,0.0157694,-0.00246037,1.41831,0.0114218,0.0114062,1406,379,5.14032,40.5212
189,645,5.11084,-40.2182,-0.00189713,0.0143422,0.00289639,0.0148433,-0.00239826,1.39947,0.0107842,0.0127849,1413,379,5.11084,40.2182
196,645,5.0708,-39.9356,-0.00155949,0.0130613,0.00332295,0.0137811,-0.00227927,1.35748,0.0100338,0.0119363,1420,379,5.07082,39.9356
203,645,5.0199,-39.6033,-0.00194481,0.0125566,0.00414882,0.0136596,-0.00304788,1.31093,0.0102742,0.0121791,1427,379,5.01988,39.6033
210,645,5.05127,-39.1682,-0.00295877,0.0116269,0.00426283,0.0127814,-0.00411325,1.30631,0.0101731,0.0216893,1434,379,5.05128,39.1682
217,645,5.00134,-38.9319,-0.00257766,0.0121462,0.00422965,0.0132747,-0.0037062,1.31006,0.0103097,0.0478605,1441,379,5.00136,38.9319
224,645,4.8999,-38.5906,0,0,0,0,0,0,0,-1,1448,379,4.89996,38.5906
231,645,4.84937,-38.1923,0,0,0,0,0,0,0,-1,1455,379,4.84942,38.1923
238,645,4.79932,-37.8185,0,0,0,0,0,0,0,-1,1462,379,4.79936,37.8185
245,645,4.77002,-37.4257,-0.00151367,0.0131249,-9.47688e-05,0.0131255,-0.00151429,-1.56432,0.0092963,0.0291946,1469,379,4.77,37.4257
252,645,4.82629,-36.8626,-0.00132593,0.0132807,-0.00102814,0.0133527,-0.00139795,-1.50087,0.00940251,0.0362045,1476,379,4.82632,36.8626
259,645,4.69739,-36.5768,0,0,0,0,0,0,0,-1,1483,379,4.69742,36.5768
266,645,4.55371,-35.973,-0.000933619,0.0138687,-0.00225809,0.0142055,-0.00127043,-1.42273,0.00992099,0.0394665,1490,379,4.55368,35.973
273,645,4.66321,-35.6794,-0.000719184,0.014667,-0.00228396,0.0149989,-0.00105106,-1.4265,0.0103674,0.0241177,1497,379,4.66323,35.6793
280,645,4.71948,-35.5372,-0.000554637,0.0159613,-0.00179914,0.0161551,-0.000748352,-1.46354,0.011028,0.0422496,1504,379,4.71954,35.5372
287,645,4.8291,-35.2864,0,0,0,0,0,0,0,-1,1511,379,4.82912,35.2864
294,645,4.93835,-34.433,0,0,0,0,0,0,0,-1,1518,379,4.93836,34.433
301,645,-0.0267334,-21.0521,0,0,0,0,0,0,0,-1,1525,379,-0.0267066,21.0521
308,645,-0.351807,-21.8966,0,0,0,0,0,0,0,-1,1532,379,-0.351807,21.8966
315,645,-0.00427246,-22.7372,0,0,0,0,0,0,0,-1,1539,379,-0.00424457,22.7372
322,645,0.717163,-22.771,0,0,0,0,0,0,0,-1,1546,379,0.717186,22.771
329,645,3.06299,-31.5194,0,0,0,0,0,0,0,-1,1553,379,3.06296,31.5194
336,645,3.49231,-30.8971,0,0,0,0,0,0,0,-1,1560,379,3.49233,30.8971
343,645,4.77185,-23.7191,0,0,0,0,0,0,0,-1,1567,379,4.77184,23.7191
350,645,4.76404,-22.1987,0,0,0,0,0,0,0,-1,1574,379,4.76399,22.1987
357,645,4.61316,-21.967,0,0,0,0,0,0,0,-1,1581,379,4.61316,21.967
364,645,-0.0794678,-3.22021,0,0,0,0,0,0,0,-1,1588,379,-0.0794987,3.22021
371,645,0,0,0,0,0,0,0,0,0,-1,1595,379,0,0
378,645,0,0,0,0,0,0,0,0,0,-1,1602,379,0,0
385,645,0,0,0,0,0,0,0,0,0,-1,1609,379,0,0
392,645,0,0,0,0,0,0,0,0,0,-1,1616,379,0,0
399,645,0,0,0,0,0,0,0,0,0,-1,1623,379,0,0
406,645,0,0,0,0,0,0,0,0,0,-1,1630,379,0,0
413,645,0,0,0,0,0,0,0,0,0,-1,1637,379,0,0
420,645,0,0,0,0,0,0,0,0,0,-1,1644,379,0,0
427,645,0,0,0,0,0,0,0,0,0,-1,1651,379,0,0
434,645,0,0,0,0,0,0,0,0,0,-1,1658,379,0,0
441,645,0,0,0,0,0,0,0,0,0,-1,1665,379,0,0
448,645,0,0,0,0,0,0,0,0,0,-1,1672,379,0,0
455,645,0,0,0,0,0,0,0,0,0,-1,1679,379,0,0
462,645,0,0,0,0,0,0,0,0,0,-1,1686,379,0,0
469,645,0,0,0,0,0,0,0,0,0,-1,1693,379,0,0
476,645,0,0,0,0,0,0,0,0,0,-1,1700,379,0,0
483,645,0,0,0,0,0,0,0,0,0,-1,1707,379,0,0
490,645,0,0,0,0,0,0,0,0,0,-1,1714,379,0,0
497,645,0,0,0,0,0,0,0,0,0,-1,1721,379,0,0
504,645,0,0,0,0,0,0,0,0,0,-1,1728,379,0,0
511,645,0,0,0,0,0,0,0,0,0,-1,1735,379,0,0
518,645,0,0,0,0,0,0,0,0,0,-1,1742,379,0,0
525,645,0,0,0,0,0,0,0,0,0,-1,1749,379,0,0
532,645,0,0,0,0,0,0,0,0,0,-1,1756,379,0,0
539,645,0,0,0,0,0,0,0,0,0,-1,1763,379,0,0
546,645,0,0,0,0,0,0,0,0,0,-1,1770,379,0,0
553,645,0,0,0,0,0,0,0,0,0,-1,1777,379,0,0
560,645,0,0,0,0,0,0,0,0,0,-1,1784,379,0,0
567,645,0,0,0,0,0,0,0,0,0,-1,1791,379,0,0
574,645,0,0,0,0,0,0,0,0,0,-1,1798,379,0,0
581,645,0,0,0,0,0,0,0,0,0,-1,1805,379,0,0
588,645,0,0,0,0,0,0,0,0,0,-1,1812,379,0,0
595,645,0,0,0,0,0,0,0,0,0,-1,1819,379,0,0
602,645,0,0,0,0,0,0,0,0,0,-1,1826,379,0,0
609,645,0,0,0,0,0,0,0,0,0,-1,1833,379,0,0
616,645,0,0,0,0,0,0,0,0,0,-1,1840,379,0,0
623,645,0,0,0,0,0,0,0,0,0,-1,1847,379,0,0
630,645,0,0,0,0,0,0,0,0,0,-1,1854,379,0,0
637,645,0,0,0,0,0,0,0,0,0,-1,1861,379,0,0
644,645,0,0,0,0,0,0,0,0,0,-1,1868,379,0,0
651,645,0,0,0,0,0,0,0,0,0,-1,1875,379,0,0
658,645,0,0,0,0,0,0,0,0,0,-1,1882,379,0,0
665,645,0,0,0,0,0,0,0,0,0,-1,1889,379,0,0
672,645,0,0,0,0,0,0,0,0,0,-1,1896,379,0,0
679,645,0,0,0,0,0,0,0,0,0,-1,1903,379,0,0
686,645,0,0,0,0,0,0,0,0,0,-1,1910,379,0,0
693,645,0,0,0,0,0,0,0,0,0,-1,1917,379,0,0
700,645,0,0,0,0,0,0,0,0,0,-1,1924,379,0,0
707,645,0,0,0,0,0,0,0,0,0,-1,1931,379,0,0
714,645,0,0,0,0,0,0,0,0,0,-1,1938,379,0,0
721,645,0,0,0,0,0,0,0,0,0,-1,1945,379,0,0
728,645,0,0,0,0,0,0,0,0,0,-1,1952,379,0,0
735,645,0,0,0,0,0,0,0,0,0,-1,1959,379,0,0
742,645,0,0,0,0,0,0,0,0,0,-1,1966,379,0,0
749,645,0,0,0,0,0,0,0,0,0,-1,1973,379,0,0
756,645,0,0,0,0,0,0,0,0,0,-1,1980,379,0,0
763,645,0,0,0,0,0,0,0,0,0,-1,1987,379,0,0
770,645,0,0,0,0,0,0,0,0,0,-1,1994,379,0,0
777,645,0,0,0,0,0,0,0,0,0,-1,2001,379,0,0
784,645,0,0,0,0,0,0,0,0,0,-1,2008,379,0,0
791,645,0,0,0,0,0,0,0,0,0,-1,2015,379,0,0
798,645,0,0,0,0,0,0,0,0,0,-1,2022,379,0,0
805,645,0,0,0,0,0,0,0,0,0,-1,2029,379,0,0
812,645,0,0,0,0,0,0,0,0,0,-1,2036,379,0,0
-700,638,0,0,0,0,0,0,0,0,0,-1,524,386,0,0
-693,638,0,0,0,0,0,0,0,0,0,-1,531,386,0,0
-686,638,0,0,0,0,0,0,0,0,0,-1,538,386,0,0
-679,638,0,0,0,0,0,0,0,0,0,-1,545,386,0,0
-672,638,0,0,0,0,0,0,0,0,0,-1,552,386,0,0
-665,638,0,0,0,0,0,0,0,0,0,-1,559,386,0,0
-658,638,0,0,0,0,0,0,0,0,0,-1,566,386,0,0
-651,638,0,0,0,0,0,0,0,0,0,-1,573,386,0,0
-644,638,0,0,0,0,0,0,0,0,0,-1,580,386,0,0
-637,638,0,0,0,0,0,0,0,0,0,-1,587,386,0,0
-630,638,0,0,0,0,0,0,0,0,0,-1,594,386,0,0
-623,638,0,0,0,0,0,0,0,0,0,-1,601,386,0,0
-616,638,0,0,0,0,0,0,0,0,0,-1,608,386,0,0
-609,638,0,0,0,0,0,0,0,0,0,-1,615,386,0,0
-602,638,0,0,0,0,0,0,0,0,0,-1,622,386,0,0
-595,638,0,0,0,0,0,0,0,0,0,-1,629,386,0,0
-588,638,0,0,0,0,0,0,0,0,0,-1,636,386,0,0
-581,638,0,0,0,0,0,0,0,0,0,-1,643,386,0,0
-574,638,0,0,0,0,0,0,0,0,0,-1,650,386,0,0
-567,638,0,0,0,0,0,0,0,0,0,-1,657,386,0,0
-560,638,0,0,0,0,0,0,0,0,0,-1,664,386,0,0
-553,638,0,0,0,0,0,0,0,0,0,-1,671,386,0,0
-546,638,0,0,0,0,0,0,0,0,0,-1,678,386,0,0
-539,638,0,0,0,0,0,0,0,0,0,-1,685,386,0,0
-532,638,0,0,0,0,0,0,0,0,0,-1,692,386,0,0
-525,638,0,0,0,0,0,0,0,0,0,-1,699,386,0,0
-518,638,0,0,0,0,0,0,0,0,0,-1,706,386,0,0
-511,638,0,0,0,0,0,0,0,0,0,-1,713,386,0,0
-504,638,0,0,0,0,0,0,0,0,0,-1,720,386,0,0
-497,638,0,0,0,0,0,0,0,0,0,-1,727,386,0,0
-490,638,0,0,0,0,0,0,0,0,0,-1,734,386,0,0
-483,638,0,0,0,0,0,0,0,0,0,-1,741,386,0,0
-476,638,0,0,0,0,0,0,0,0,0,-1,748,386,0,0
-469,638,0,0,0,0,0,0,0,0,0,-1,755,386,0,0
-462,638,0,0,0,0,0,0,0,0,0,-1,762,386,0,0
-455,638,0,0,0,0,0,0,0,0,0,-1,769,386,0,0
-448,638,0,0,0,0,0,0,0,0,0,-1,776,386,0,0
-441,638,0,0,0,0,0,0,0,0,0,-1,783,386,0,0
-434,638,0,0,0,0,0,0,0,0,0,-1,790,386,0,0
-427,638,0,0,0,0,0,0,0,0,0,-1,797,386,0,0
-420,638,0,0,0,0,0,0,0,0,0,-1,804,386,0,0
-413,638,0,0,0,0,0,0,0,0,0,-1,811,386,0,0
-406,638,0,0,0,0,0,0,0,0,0,-1,818,386,0,0
-399,638,0,0,0,0,0,0,0,0,0,-1,825,386,0,0
-392,638,0,0,0,0,0,0,0,0,0,-1,832,386,0,0
-385,638,0,0,0,0,0,0,0,0,0,-1,839,386,0,0
-378,638,0,0,0,0,0,0,0,0,0,-1,846,386,0,0
-371,638,0,0,0,0,0,0,0,0,0,-1,853,386,0,0
-364,638,0,0,0,0,0,0,0,0,0,-1,860,386,0,0
-357,638,0,0,0,0,0,0,0,0,0,-1,867,386,0,0
-350,638,0,0,0,0,0,0,0,0,0,-1,874,386,0,0
-343,638,0,0,0,0,0,0,0,0,0,-1,881,386,0,0
-336,638,0,0,0,0,0,0,0,0,0,-1,888,386,0,0
-329,638,0,0,0,0,0,0,0,0,0,-1,895,386,0,0
-322,638,0,0,0,0,0,0,0,0,0,-1,902,386,0,0
-315,638,0,0,0,0,0,0,0,0,0,-1,909,386,0,0
-308,638,0,0,0,0,0,0,0,0,0,-1,916,386,0,0
-301,638,0,0,0,0,0,0,0,0,0,-1,923,386,0,0
-294,638,0,0,0,0,0,0,0,0,0,-1,930,386,0,0
-287,638,0,0,0,0,0,0,0,0,0,-1,937,386,0,0
-280,638,0,0,0,0,0,0,0,0,0,-1,944,386,0,0
-273,638,0,0,0,0,0,0,0,0,0,-1,951,386,0,0
-266,638,7.01324,-34.2201,0,0,0,0,0,0,0,-1,958,386,7.01327,34.2201
-259,638,7.36328,-34.2107,0,0,0,0,0,0,0,-1,965,386,7.36326,34.2107
-252,638,10.8915,-29.4076,0,0,0,0,0,0,0,-1,972,386,10.8916,29.4076
-245,638,3.35309,-26.4681,0,0,0,0,0,0,0,-1,979,386,3.35311,26.4681
-238,638,2.93518,-26.3649,0,0,0,0,0,0,0,-1,986,386,2.93516,26.3649
-231,638,2.36829,-26.0088,0,0,0,0,0,0,0,-1,993,386,2.3683,26.0088
-224,638,6.3465,-30.9124,0,0,0,0,0,0,0,-1,1000,386,6.34648,30.9124
-217,638,7.41205,-32.7263,0,0,0,0,0,0,0,-1,1007,386,7.41204,32.7262
-210,638,8.7038,-34.5688,0,0,0,0,0,0,0,-1,1014,386,8.70378,34.5689
-203,638,4.32593,-27.5803,0,0,0,0,0,0,0,-1,1021,386,4.32594,27.5803
-196,638,6.0614,-28.4651,0,0,0,0,0,0,0,-1,1028,386,6.06143,28.4651
-189,638,11.4561,-30.1556,0,0,0,0,0,0,0,-1,1035,386,11.456,30.1556
-182,638,5.49121,-32.6628,0,0,0,0,0,0,0,-1,1042,386,5.4912,32.6628
-175,638,6.7168,-34.2641,0,0,0,0,0,0,0,-1,1049,386,6.71679,34.2641
-168,638,6.07361,-35.1817,-0.00232563,0.0126079,-0.00326846,0.0132919,-0.00300965,-1.36449,0.0100164,0.0481194,1056,386,6.07357,35.1817
-161,638,6.18445,-35.5904,-0.00202972,0.0110359,-0.00302388,0.0117018,-0.00269562,-1.35404,0.00883785,0.0479423,1063,386,6.18445,35.5904
-154,638,6.17554,-35.885,-0.0019171,0.0103831,-0.00287267,0.011021,-0.00255492,-1.35231,0.00833058,0.0441507,1070,386,6.17559,35.885
-147,638,6.06543,-36.1652,-0.00199365,0.0102133,-0.00280533,0.0108271,-0.00260749,-1.35538,0.00822617,0.0365257,1077,386,6.06538,36.1652
-140,638,6.04858,-36.591,-0.00211982,0.0102652,-0.00290528,0.0109129,-0.00276747,-1.35146,0.008352,0.0326864,1084,386,6.04859,36.591
-133,638,5.98169,-37.1661,-0.00239598,0.0104519,-0.00295748,0.0111,-0.00304408,-1.35507,0.00859625,0.0280525,1091,386,5.98164,37.1661
-126,638,5.93884,-37.5434,-0.00274999,0.0105774,-0.002852,0.0111621,-0.00333466,-1.3686,0.00876693,0.0208846,1098,386,5.93884,37.5434
-119,638,5.87524,-37.9479,-0.00284044,0.0104115,-0.00274248,0.0109566,-0.00338558,-1.37458,0.00865652,0.0176145,1105,386,5.8752,37.9479
-112,638,5.86401,-38.321,-0.003065,0.0104324,-0.0024766,0.0108725,-0.00350508,-1.39494,0.00865653,0.0155808,1112,386,5.86398,38.321
-105,638,5.83472,-38.6787,-0.00343965,0.0103184,-0.00242597,0.0107337,-0.00385489,-1.40127,0.00872923,0.0163596,1119,386,5.83474,38.6787
-98,638,5.80481,-39.0206,-0.00367284,0.00991626,-0.00239642,0.0103265,-0.00408306,-1.40126,0.00857571,0.0155466,1126,386,5.80478,39.0206
-91,638,5.7384,-39.3453,-0.00353638,0.0080528,-0.00196289,0.00837623,-0.00385981,-1.40749,0.00722311,0.0119849,1133,386,5.73835,39.3453
-84,638,5.672,-39.6709,-0.00328486,0.00623102,-0.00150969,0.00646479,-0.00351863,-1.41717,0.00584699,0.0134412,1140,386,5.67199,39.6709
-77,638,5.64709,-39.9788,-0.00307865,0.0050927,-0.00116002,0.00525419,-0.00324013,-1.43247,0.00494994,0.0115332,1147,386,5.64708,39.9788
-70,638,5.64868,-40.2634,-0.003027,0.00414745,-0.000807322,0.00423717,-0.00311672,-1.46011,0.00426217,0.0115949,1154,386,5.64868,40.2634
-63,638,5.64075,-40.5351,-0.00239401,0.00423242,-0.00109157,0.0044076,-0.00256919,-1.41167,0.0040744,0.0119953,1161,386,5.64078,40.5351
-56,638,5.65369,-40.7882,-0.00181169,0.00451727,-0.00111079,0.00470656,-0.00200099,-1.40201,0.00397623,0.0168074,1168,386,5.65363,40.7882
-49,638,5.63171,-41.012,-0.00142646,0.00419991,-0.000897944,0.00433975,-0.00156629,-1.41631,0.00353296,0.0148279,1175,386,5.6317,41.012
-42,638,5.58728,-41.2702,-0.000955092,0.00419108,-0.000481283,0.00423571,-0.000999716,-1.47834,0.00320937,0.0130189,1182,386,5.58723,41.2702
-35,638,5.57813,-41.502,-0.000605232,0.00436599,3.64788e-05,0.00436625,-0.0006055,1.56346,0.00313224,0.0114135,1189,386,5.57807,41.502
-28,638,5.56946,-41.7209,-0.000354068,0.0042906,0.000440886,0.00433208,-0.000395548,1.47699,0.00302853,0.0107369,1196,386,5.5695,41.7209
-21,638,5.53809,-41.8841,-0.000115128,0.00415667,0.000811288,0.00430556,-0.000264017,1.38929,0.0029623,0.0118477,1203,386,5.53807,41.884
-14,638,5.52393,-42.0733,8.75121e-05,0.003974,0.00112915,0.00427824,-0.000216724,1.30761,0.00292707,0.0114188,1210,386,5.52387,42.0733
-7,638,5.5282,-42.2798,0.000284155,0.00386797,0.00139761,0.00434857,-0.000196438,1.2396,0.00296669,0.0170614,1217,386,5.52819,42.2798
0,638,5.56628,-42.354,0.00040489,0.00393674,0.00152019,0.00450093,-0.000159306,1.21542,0.00305511,0.0339486,1224,386,5.56631,42.354
7,638,5.52112,-42.4998,0.000487673,0.0047514,0.00182625,0.00542668,-0.0001876,1.21663,0.00368191,0.0268421,1231,386,5.52115,42.4998
14,638,5.48743,-42.5929,0.000491782,0.00526368,0.00196975,0.0059717,-0.00021624,1.22573,0.00405514,0.014393,1238,386,5.48744,42.5929
21,638,5.48267,-42.6941,0.000466597,0.00629095,0.00208343,0.00695948,-0.000201934,1.2603,0.00470841,0.0117625,1245,386,5.48262,42.6941
28,638,5.50952,-42.7884,0.00045945,0.00749956,0.00215235,0.00810545,-0.000146436,1.2964,0.0054531,0.0088217,1252,386,5.5095,42.7884
35,638,5.49963,-42.8379,0.0003659,0.00900521,0.00214027,0.00950636,-0.00013525,1.34079,0.00638313,0.00999265,1259,386,5.49969,42.8379
42,638,5.50354,-42.9039,0.000208536,0.0104542,0.00209701,0.0108668,-0.000204049,1.37653,0.00731351,0.00938843,1266,386,5.50354,42.9039
49,638,5.52637,-42.946,4.74769e-05,0.0117489,0.00194567,0.0120639,-0.000267561,1.41027,0.00813326,0.00838452,1273,386,5.52641,42.946
56,638,5.50952,-42.9622,-0.000138087,0.0129796,0.00176458,0.0132128,-0.000371309,1.43939,0.0089349,0.011277,1280,386,5.50948,42.9622
63,638,5.50476,-42.972,-0.000339134,0.0141467,0.00166208,0.0143349,-0.000527392,1.45801,0.00973718,0.0131995,1287,386,5.50479,42.972
70,638,5.49634,-42.9485,-0.000525569,0.0151979,0.00169199,0.0153779,-0.000705579,1.4648,0.0104951,0.0178404,1294,386,5.49634,42.9485
77,638,5.49268,-42.9319,-0.000686877,0.0158491,0.00171789,0.0160257,-0.000863459,1.46837,0.010983,0.0176723,1301,386,5.49265,42.9319
84,638,5.53735,-42.8683,-0.000898576,0.0162842,0.00166165,0.0164434,-0.00105779,1.47527,0.0113313,0.0132209,1308,386,5.53739,42.8683
91,638,5.5365,-42.7895,-0.00135512,0.0164514,0.00154434,0.0165843,-0.00148806,1.48492,0.0115841,0.0144756,1315,386,5.53653,42.7895
98,638,5.5155,-42.7149,-0.00174318,0.0162826,0.00154002,0.0164132,-0.00187381,1.48618,0.0116172,0.0126962,1322,386,5.5155,42.7149
105,638,5.50879,-42.6328,-0.00195086,0.0159489,0.00173834,0.0161161,-0.00211812,1.47488,0.0115152,0.00978751,1329,386,5.50885,42.6328
112,638,5.50659,-42.518,-0.00234745,0.0151702,0.00165899,0.0153259,-0.00250318,1.4772,0.0111457,0.00962266,1336,386,5.50662,42.5181
119,638,5.51086,-42.3722,-0.00257966,0.0147543,0.00177066,0.0149333,-0.00275869,1.47003,0.0109911,0.0118834,1343,386,5.51084,42.3722
126,638,5.50378,-42.2177,-0.00271783,0.0138564,0.00179818,0.0140492,-0.00291067,1.46396,0.0104721,0.0160338,1350,386,5.50378,42.2177
133,638,5.48621,-42.0536,-0.00274378,0.013053,0.00179004,0.0132533,-0.00294409,1.45936,0.00996295,0.0163359,1357,386,5.48626,42.0536
140,638,5.44885,-41.8959,-0.00255226,0.0121361,0.00180675,0.0123551,-0.00277123,1.45019,0.00929916,0.0171287,1364,386,5.44884,41.8959
147,638,5.4364,-41.7384,-0.00227584,0.0115912,0.00177808,0.0118156,-0.0025002,1.44528,0.00882924,0.0190857,1371,386,5.43638,41.7384
154,638,5.4469,-41.5621,-0.00186575,0.0111809,0.00168377,0.0113947,-0.00207955,1.4445,0.00837612,0.0171593,1378,386,5.44686,41.5621
161,638,5.44604,-41.3337,-0.00132134,0.0106782,0.00157346,0.0108811,-0.00152424,1.44256,0.00781187,0.0203391,1385,386,5.44607,41.3337
168,638,5.42102,-41.0616,-0.000838104,0.00990075,0.00129941,0.0100557,-0.000993098,1.45208,0.00705819,0.0242153,1392,386,5.42108,41.0616
175,638,5.43115,-40.8105,-0.000396885,0.00919247,0.00108114,0.00931285,-0.000517265,1.45991,0.00638797,0.0191164,1399,386,5.4311,40.8105
182,638,5.40332,-40.5417,-8.69209e-05,0.00910939,0.00121664,0.00926763,-0.000245156,1.44146,0.00626174,0.0144291,1406,386,5.40327,40.5417
189,638,5.3783,-40.2509,9.19303e-05,0.00891682,0.00147636,0.00915726,-0.000148506,1.40936,0.00615494,0.0132004,1413,386,5.37827,40.2509
196,638,5.34985,-39.9584,4.83365e-05,0.00871237,0.00200029,0.00915189,-0.000391182,1.35451,0.00623574,0.0149838,1420,386,5.3499,39.9584
203,638,5.32227,-39.664,-0.000424069,0.00878766,0.00270692,0.00952421,-0.00116062,1.30513,0.00676959,0.0207583,1427,386,5.32225,39.664
210,638,5.32715,-39.3625,-0.00141989,0.00858764,0.00307572,0.00945735,-0.0022896,1.29522,0.00719065,0.0163768,1434,386,5.32714,39.3625
217,638,5.28845,-39.0075,-0.00170801,0.00929538,0.00324638,0.0101818,-0.0025944,1.30425,0.00779786,0.0120003,1441,386,5.28849,39.0075
224,638,5.23535,-38.6229,-0.00157994,0.0102691,0.00259973,0.0108144,-0.00212524,1.36404,0.00801253,0.0115308,1448,386,5.2353,38.6229
231,638,5.17761,-38.2399,-0.00133004,0.00949018,0.00149065,0.00969179,-0.00153164,1.43637,0.0070276,0.0123299,1455,386,5.17766,38.2399
238,638,5.14783,-37.8781,-0.00103588,0.0101047,0.00133086,0.0102615,-0.00119266,1.45353,0.00727123,0.0125385,1462,386,5.14779,37.8781
245,638,5.12134,-37.4866,-0.0010244,0.0105498,0.00103533,0.0106417,-0.00111628,1.48228,0.00749429,0.0145012,1469,386,5.12132,37.4866
252,638,5.1178,-37.0872,-0.000896299,0.0109309,0.000614558,0.0109627,-0.000928147,1.51902,0.00763669,0.0202968,1476,386,5.11782,37.0872
259,638,5.07642,-36.6971,-0.000770805,0.0114191,0.000324731,0.0114277,-0.00077945,1.54418,0.00789112,0.0214689,1483,386,5.07641,36.6971
266,638,4.98621,-36.2524,-0.000591696,0.0121369,0.000338689,0.0121459,-0.000600702,1.54421,0.00830475,0.0139074,1490,386,4.98622,36.2524
273,638,4.97021,-35.8618,-0.000440552,0.0130899,0.000609847,0.0131173,-0.000467984,1.52585,0.00890496,0.0121629,1497,386,4.97019,35.8618
280,638,5.0188,-35.3626,-0.000306712,0.0143716,0.00123297,0.0144744,-0.00040956,1.48757,0.00978898,0.0238278,1504,386,5.01877,35.3626
287,638,5.26196,-34.6367,-0.000151038,0.0162718,0.00228878,0.0165849,-0.00046405,1.43488,0.0112145,0.0418913,1511,386,5.26195,34.6368
294,638,5.14465,-34.2397,4.0088e-05,0.018543,0.00366403,0.0192422,-0.00065906,1.38225,0.0130533,0.0485839,1518,386,5.14468,34.2397
301,638,4.84265,-33.6088,0,0,0,0,0,0,0,-1,1525,386,4.84269,33.6088
308,638,4.87585,-32.9366,0,0,0,0,0,0,0,-1,1532,386,4.8759,32.9365
315,638,5.08459,-32.2772,0,0,0,0,0,0,0,-1,1539,386,5.08465,32.2772
322,638,3.42346,-32.1618,0,0,0,0,0,0,0,-1,1546,386,3.42342,32.1618
329,638,3.91382,-31.4144,0,0,0,0,0,0,0,-1,1553,386,3.91379,31.4144
336,638,4.02344,-30.925,0,0,0,0,0,0,0,-1,1560,386,4.02348,30.9249
343,638,4.2196,-30.1093,0,0,0,0,0,0,0,-1,1567,386,4.2196,30.1093
350,638,5.91162,-19.0222,0,0,0,0,0,0,0,-1,1574,386,5.91165,19.0222
357,638,0.387329,-3.01077,0,0,0,0,0,0,0,-1,1581,386,0.387332,3.01077
364,638,3.78149,-6.45215,0,0,0,0,0,0,0,-1,1588,386,3.78155,6.45216
371,638,4.18604,-6.71164,0,0,0,0,0,0,0,-1,1595,386,4.18598,6.71164
378,638,4.59045,-6.97113,0,0,0,0,0,0,0,-1,1602,386,4.5904,6.97112
385,638,0,0,0,0,0,0,0,0,0,-1,1609,386,0,0
392,638,0,0,0,0,0,0,0,0,0,-1,1616,386,0,0
399,638,0,0,0,0,0,0,0,0,0,-1,1623,386,0,0
406,638,0,0,0,0,0,0,0,0,0,-1,1630,386,0,0
413,638,0,0,0,0,0,0,0,0,0,-1,1637,386,0,0
420,638,0,0,0,0,0,0,0,0,0,-1,1644,386,0,0
427,638,0,0,0,0,0,0,0,0,0,-1,1651,386,0,0
434,638,0,0,0,0,0,0,0,0,0,-1,1658,386,0,0
441,638,0,0,0,0,0,0,0,0,0,-1,1665,386,0,0
448,638,0,0,0,0,0,0,0,0,0,-1,1672,386,0,0
455,638,0,0,0,0,0,0,0,0,0,-1,1679,386,0,0
462,638,0,0,0,0,0,0,0,0,0,-1,1686,386,0,0
469,638,0,0,0,0,0,0,0,0,0,-1,1693,386,0,0
476,638,0,0,0,0,0,0,0,0,0,-1,1700,386,0,0
483,638,0,0,0,0,0,0,0,0,0,-1,1707,386,0,0
490,638,0,0,0,0,0,0,0,0,0,-1,1714,386,0,0
497,638,0,0,0,0,0,0,0,0,0,-1,1721,386,0,0
504,638,0,0,0,0,0,0,0,0,0,-1,1728,386,0,0
511,638,0,0,0,0,0,0,0,0,0,-1,1735,386,0,0
518,638,0,0,0,0,0,0,0,0,0,-1,1742,386,0,0
525,638,0,0,0,0,0,0,0,0,0,-1,1749,386,0,0
532,638,0,0,0,0,0,0,0,0,0,-1,1756,386,0,0
539,638,0,0,0,0,0,0,0,0,0,-1,1763,386,0,0
546,638,0,0,0,0,0,0,0,0,0,-1,1770,386,0,0
553,638,0,0,0,0,0,0,0,0,0,-1,1777,386,0,0
560,638,0,0,0,0,0,0,0,0,0,-1,1784,386,0,0
567,638,0,0,0,0,0,0,0,0,0,-1,1791,386,0,0
574,638,0,0,0,0,0,0,0,0,0,-1,1798,386,0,0
581,638,0,0,0,0,0,0,0,0,0,-1,1805,386,0,0
588,638,0,0,0,0,0,0,0,0,0,-1,1812,386,0,0
595,638,0,0,0,0,0,0,0,0,0,-1,1819,386,0,0
602,638,0,0,0,0,0,0,0,0,0,-1,1826,386,0,0
609,638,0,0,0,0,0,0,0,0,0,-1,1833,386,0,0
616,638,0,0,0,0,0,0,0,0,0,-1,1840,386,0,0
623,638,0,0,0,0,0,0,0,0,0,-1,1847,386,0,0
630,638,0,0,0,0,0,0,0,0,0,-1,1854,386,0,0
637,638,0,0,0,0,0,0,0,0,0,-1,1861,386,0,0
644,638,0,0,0,0,0,0,0,0,0,-1,1868,386,0,0
651,638,0,0,0,0,0,0,0,0,0,-1,1875,386,0,0
658,638,0,0,0,0,0,0,0,0,0,-1,1882,386,0,0
665,638,0,0,0,0,0,0,0,0,0,-1,1889,386,0,0
672,638,0,0,0,0,0,0,0,0,0,-1,1896,386,0,0
679,638,0,0,0,0,0,0,0,0,0,-1,1903,386,0,0
686,638,0,0,0,0,0,0,0,0,0,-1,1910,386,0,0
693,638,0,0,0,0,0,0,0,0,0,-1,1917,386,0,0
700,638,0,0,0,0,0,0,0,0,0,-1,1924,386,0,0
707,638,0,0,0,0,0,0,0,0,0,-1,1931,386,0,0
714,638,0,0,0,0,0,0,0,0,0,-1,1938,386,0,0
721,638,0,0,0,0,0,0,0,0,0,-1,1945,386,0,0
728,638,0,0,0,0,0,0,0,0,0,-1,1952,386,0,0
735,638,0,0,0,0,0,0,0,0,0,-1,1959,386,0,0
742,638,0,0,0,0,0,0,0,0,0,-1,1966,386,0,0
749,638,0,0,0,0,0,0,0,0,0,-1,1973,386,0,0
756,638,0,0,0,0,0,0,0,0,0,-1,1980,386,0,0
763,638,0,0,0,0,0,0,0,0,0,-1,1987,386,0,0
770,638,0,0,0,0,0,0,0,0,0,-1,1994,386,0,0
777,638,0,0,0,0,0,0,0,0,0,-1,2001,386,0,0
784,638,0,0,0,0,0,0,0,0,0,-1,2008,386,0,0
791,638,0,0,0,0,0,0,0,0,0,-1,2015,386,0,0
798,638,0,0,0,0,0,0,0,0,0,-1,2022,386,0,0
805,638,0,0,0,0,0,0,0,0,0,-1,2029,386,0,0
812,638,0,0,0,0,0,0,0,0,0,-1,2036,386,0,0
-700,631,0,0,0,0,0,0,0,0,0,-1,524,393,0,0
-693,631,0,0,0,0,0,0,0,0,0,-1,531,393,0,0
-686,631,0,0,0,0,0,0,0,0,0,-1,538,393,0,0
-679,631,0,0,0,0,0,0,0,0,0,-1,545,393,0,0
-672,631,0,0,0,0,0,0,0,0,0,-1,552,393,0,0
-665,631,0,0,0,0,0,0,0,0,0,-1,559,393,0,0
-658,631,0,0,0,0,0,0,0,0,0,-1,566,393,0,0
-651,631,0,0,0,0,0,0,0,0,0,-1,573,393,0,0
-644,631,0,0,0,0,0,0,0,0,0,-1,580,393,0,0
-637,631,0,0,0,0,0,0,0,0,0,-1,587,393,0,0
-630,631,0,0,0,0,0,0,0,0,0,-1,594,393,0,0
-623,631,0,0,0,0,0,0,0,0,0,-1,601,393,0,0
-616,631,0,0,0,0,0,0,0,0,0,-1,608,393,0,0
-609,631,0,0,0,0,0,0,0,0,0,-1,615,393,0,0
-602,631,0,0,0,0,0,0,0,0,0,-1,622,393,0,0
-595,631,0,0,0,0,0,0,0,0,0,-1,629,393,0,0
-588,631,0,0,0,0,0,0,0,0,0,-1,636,393,0,0
-581,631,0,0,0,0,0,0,0,0,0,-1,643,393,0,0
-574,631,0,0,0,0,0,0,0,0,0,-1,650,393,0,0
-567,631,0,0,0,0,0,0,0,0,0,-1,657,393,0,0
-560,631,0,0,0,0,0,0,0,0,0,-1,664,393,0,0
-553,631,0,0,0,0,0,0,0,0,0,-1,671,393,0,0
-546,631,0,0,0,0,0,0,0,0,0,-1,678,393,0,0
-539,631,0,0,0,0,0,0,0,0,0,-1,685,393,0,0
-532,631,0,0,0,0,0,0,0,0,0,-1,692,393,0,0
-525,631,0,0,0,0,0,0,0,0,0,-1,699,393,0,0
-518,631,0,0,0,0,0,0,0,0,0,-1,706,393,0,0
-511,631,0,0,0,0,0,0,0,0,0,-1,713,393,0,0
-504,631,0,0,0,0,0,0,0,0,0,-1,720,393,0,0
-497,631,0,0,0,0,0,0,0,0,0,-1,727,393,0,0
-490,631,0,0,0,0,0,0,0,0,0,-1,734,393,0,0
-483,631,0,0,0,0,0,0,0,0,0,-1,741,393,0,0
-476,631,0,0,0,0,0,0,0,0,0,-1,748,393,0,0
-469,631,0,0,0,0,0,0,0,0,0,-1,755,393,0,0
-462,631,0,0,0,0,0,0,0,0,0,-1,762,393,0,0
-455,631,0,0,0,0,0,0,0,0,0,-1,769,393,0,0
-448,631,0,0,0,0,0,0,0,0,0,-1,776,393,0,0
-441,631,0,0,0,0,0,0,0,0,0,-1,783,393,0,0
-434,631,0,0,0,0,0,0,0,0,0,-1,790,393,0,0
-427,631,0,0,0,0,0,0,0,0,0,-1,797,393,0,0
-420,631,0,0,0,0,0,0,0,0,0,-1,804,393,0,0
-413,631,0,0,0,0,0,0,0,0,0,-1,811,393,0,0
-406,631,0,0,0,0,0,0,0,0,0,-1,818,393,0,0
-399,631,0,0,0,0,0,0,0,0,0,-1,825,393,0,0
-392,631,0,0,0,0,0,0,0,0,0,-1,832,393,0,0
-385,631,0,0,0,0,0,0,0,0,0,-1,839,393,0,0
-378,631,0,0,0,0,0,0,0,0,0,-1,846,393,0,0
-371,631,0,0,0,0,0,0,0,0,0,-1,853,393,0,0
-364,631,0,0,0,0,0,0,0,0,0,-1,860,393,0,0
-357,631,0,0,0,0,0,0,0,0,0,-1,867,393,0,0
-350,631,0,0,0,0,0,0,0,0,0,-1,874,393,0,0
-343,631,0,0,0,0,0,0,0,0,0,-1,881,393,0,0
-336,631,0,0,0,0,0,0,0,0,0,-1,888,393,0,0
-329,631,0,0,0,0,0,0,0,0,0,-1,895,393,0,0
-322,631,0,0,0,0,0,0,0,0,0,-1,902,393,0,0
-315,631,0,0,0,0,0,0,0,0,0,-1,909,393,0,0
-308,631,0,0,0,0,0,0,0,0,0,-1,916,393,0,0
-301,631,0,0,0,0,0,0,0,0,0,-1,923,393,0,0
-294,631,0,0,0,0,0,0,0,0,0,-1,930,393,0,0
-287,631,0,0,0,0,0,0,0,0,0,-1,937,393,0,0
-280,631,9.21893,-33.7639,-0.104268,-0.193974,0.0408073,-0.0884828,-0.209759,0.369103,0.121597,0.0466362,944,393,9.21891,33.7639
-273,631,8.86664,-33.9376,-0.099529,-0.179524,0.0400653,-0.0829135,-0.19614,0.393122,0.113691,0.0454463,951,393,8.86665,33.9376
-266,631,7.19012,-33.3318,-0.0934865,-0.163546,0.0387124,-0.0763077,-0.180725,0.417648,0.104761,0.0430236,958,393,7.1901,33.3318
-259,631,7.00208,-33.3918,-0.0862844,-0.146352,0.0367876,-0.0688276,-0.163809,0.443065,0.094976,0.0450349,965,393,7.00208,33.3918
-252,631,6.58398,-33.2064,0,0,0,0,0,0,0,-1,972,393,6.58397,33.2064
-245,631,6.05621,-32.6085,0,0,0,0,0,0,0,-1,979,393,6.05623,32.6085
-238,631,3.82007,-31.4595,0,0,0,0,0,0,0,-1,986,393,3.82005,31.4595
-231,631,2.14966,-25.2306,0,0,0,0,0,0,0,-1,993,393,2.14968,25.2306
-224,631,6.83575,-19.7909,0,0,0,0,0,0,0,-1,1000,393,6.83575,19.7909
-217,631,5.05188,-18.3867,0,0,0,0,0,0,0,-1,1007,393,5.0519,18.3866
-210,631,3.37842,-26.3769,0,0,0,0,0,0,0,-1,1014,393,3.37839,26.3769
-203,631,5.05298,-26.4169,0,0,0,0,0,0,0,-1,1021,393,5.05302,26.4169
-196,631,6.1366,-32.7391,0,0,0,0,0,0,0,-1,1028,393,6.13662,32.7391
-189,631,5.93713,-32.696,0,0,0,0,0,0,0,-1,1035,393,5.93712,32.696
-182,631,5.85107,-33.1874,0,0,0,0,0,0,0,-1,1042,393,5.85104,33.1874
-175,631,6.11133,-34.3894,-0.00313866,0.0150516,-0.00368059,0.0157681,-0.00385517,-1.37853,0.0120052,0.0487713,1049,393,6.11135,34.3894
-168,631,5.85461,-35.0677,-0.00267559,0.0127018,-0.00327629,0.0133707,-0.00334453,-1.36939,0.0102129,0.0237668,1056,393,5.85465,35.0677
-161,631,5.76965,-35.58,-0.00227857,0.0110514,-0.00298791,0.0116905,-0.00291766,-1.36008,0.00892663,0.0141323,1063,393,5.76964,35.5801
-154,631,5.71838,-36.0331,-0.00200885,0.0100686,-0.00276868,0.0106731,-0.0026133,-1.35585,0.00812774,0.0137919,1070,393,5.71836,36.0331
-147,631,5.69373,-36.4262,-0.00190064,0.00945586,-0.00260443,0.0100247,-0.00246943,-1.35578,0.00764045,0.0127725,1077,393,5.69374,36.4262
-140,631,5.67041,-36.8397,-0.00181794,0.009006,-0.00259482,0.00959591,-0.00240785,-1.34726,0.00733287,0.0105273,1084,393,5.6704,36.8397
-133,631,5.599,-37.2318,-0.001852,0.00869823,-0.00254802,0.00928138,-0.00243515,-1.34581,0.00713911,0.00870307,1091,393,5.59901,37.2318
-126,631,5.58057,-37.5941,-0.00196423,0.00847832,-0.00239388,0.00900094,-0.00248685,-1.35585,0.00697887,0.012672,1098,393,5.58057,37.5941
-119,631,5.54944,-37.9606,-0.00186793,0.00817736,-0.00226654,0.00866508,-0.00235566,-1.35884,0.0067014,0.0155823,1105,393,5.54943,37.9606
-112,631,5.52197,-38.3379,-0.00188038,0.0080621,-0.00204142,0.00846493,-0.0022832,-1.37597,0.00653861,0.0150718,1112,393,5.52201,38.3379
-105,631,5.54236,-38.6928,-0.00200873,0.00781211,-0.00199082,0.00820033,-0.00239695,-1.37821,0.00641687,0.0206905,1119,393,5.54237,38.6928
-98,631,5.5022,-39.0363,-0.00204336,0.00731911,-0.00194906,0.00770866,-0.00243291,-1.37353,0.00611362,0.0171446,1126,393,5.50224,39.0364
-91,631,5.44922,-39.3679,-0.00184582,0.00588849,-0.00162981,0.0062179,-0.00217523,-1.37137,0.00502966,0.0171456,1133,393,5.44917,39.3679
-84,631,5.40735,-39.6858,-0.00157146,0.00452348,-0.00127853,0.00478081,-0.00182879,-1.37218,0.00394088,0.0157428,1140,393,5.40738,39.6858
-77,631,5.38806,-39.9959,-0.00132612,0.0036194,-0.000987152,0.00380916,-0.00151588,-1.38088,0.00316802,0.0107456,1147,393,5.38808,39.9959
-70,631,5.38416,-40.2563,-0.00117491,0.00282294,-0.000691082,0.00293903,-0.001291,-1.40436,0.00250324,0.0124806,1154,393,5.38417,40.2563
-63,631,5.38354,-40.5411,-0.000867836,0.00258451,-0.000621981,0.00269315,-0.000976474,-1.39788,0.00219458,0.0137241,1161,393,5.38353,40.5411
-56,631,5.36816,-40.8422,-0.000585039,0.00211127,-0.000444133,0.00218254,-0.000656312,-1.41168,0.00171616,0.0153903,1168,393,5.36819,40.8422
-49,631,5.36243,-41.0516,-0.000409746,0.00128007,-0.000145748,0.00129255,-0.000422225,-1.48539,0.00103165,0.012717,1175,393,5.36243,41.0516
-42,631,5.36646,-41.2692,-0.000157067,0.000619271,0.000306882,0.000725927,-0.000263724,1.23631,0.000591782,0.00982392,1182,393,5.36651,41.2692
-35,631,5.38867,-41.4988,1.96504e-05,7.41222e-05,0.000814725,0.000862067,-0.000768294,0.802107,0.000941808,0.0100876,1189,393,5.3887,41.4988
-28,631,5.40479,-41.7108,4.05709e-05,-0.000628394,0.00126016,0.00100988,-0.00159771,0.655675,0.00151819,0.0131165,1196,393,5.40474,41.7108
-21,631,5.37476,-41.8911,4.83663e-05,-0.00147239,0.00150924,0.000977952,-0.00240198,0.55205,0.00200831,0.0116632,1203,393,5.37478,41.8911
-14,631,5.33972,-42.0815,0.000128244,-0.00222817,0.00165344,0.00098032,-0.00308025,0.475839,0.00244664,0.0138855,1210,393,5.3397,42.0814
-7,631,5.35034,-42.2938,0.000289892,-0.00310048,0.00167424,0.000977297,-0.00378788,0.389591,0.00290632,0.021664,1217,393,5.35031,42.2938
0,631,5.36963,-42.4231,0.000409632,-0.00344304,0.00138905,0.000858213,-0.00389162,0.312368,0.00292279,0.0258939,1224,393,5.36967,42.4231
7,631,5.37268,-42.5231,0.000425164,-0.00349704,0.00116935,0.000747329,-0.0038192,0.268838,0.00282835,0.0203511,1231,393,5.37265,42.5231
14,631,5.38708,-42.62,0.000478353,-0.00363478,0.000881308,0.000659234,-0.00381566,0.20243,0.00278961,0.0112777,1238,393,5.38706,42.62
21,631,5.40625,-42.7184,0.000592572,-0.00354804,0.000537127,0.000661115,-0.00361658,0.126923,0.00265896,0.0137211,1245,393,5.40624,42.7184
28,631,5.43311,-42.7795,0.000793413,-0.003163,0.000174353,0.000801081,-0.00317067,0.043955,0.00242531,0.0145269,1252,393,5.43305,42.7795
35,631,5.46338,-42.8357,0.000898884,-0.00233954,-0.000189939,0.000909986,-0.00235065,-0.0583847,0.00194281,0.013509,1259,393,5.46338,42.8357
42,631,5.48975,-42.8979,0.000976114,-0.00130362,-0.000651076,0.00114895,-0.00147646,-0.259482,0.00151971,0.0126152,1266,393,5.48969,42.8979
49,631,5.49988,-42.951,0.00101319,-5.62205e-05,-0.00110649,0.0017074,-0.000750433,-0.560323,0.00145444,0.0117097,1273,393,5.49991,42.9509
56,631,5.50989,-42.9957,0.000981617,0.00121601,-0.00143483,0.00253842,-0.000340794,-0.826147,0.00181657,0.0130974,1280,393,5.50984,42.9957
63,631,5.4989,-43.0356,0.000852569,0.00252598,-0.00177319,0.00364996,-0.000271412,-1.00584,0.00252864,0.0150084,1287,393,5.49888,43.0356
70,631,5.50195,-42.9774,0.000712422,0.00396454,-0.00199431,0.00491168,-0.000234713,-1.12741,0.00335543,0.0156724,1294,393,5.50194,42.9774
77,631,5.52478,-42.9344,0.000658982,0.00532968,-0.00212135,0.00614933,-0.000160661,-1.20209,0.00415414,0.0153258,1301,393,5.52479,42.9344
84,631,5.56799,-42.8848,0.000526929,0.00658702,-0.00217636,0.00728762,-0.000173672,-1.25936,0.00491733,0.0139766,1308,393,5.56794,42.8848
91,631,5.5918,-42.794,-0.000235651,0.00758827,-0.002211,0.00816986,-0.000817236,-1.31358,0.00573841,0.0171669,1315,393,5.59183,42.794
98,631,5.59253,-42.7327,-0.00107662,0.00828487,-0.0020427,0.00871118,-0.00150293,-1.36505,0.00636783,0.014164,1322,393,5.59257,42.7327
105,631,5.59326,-42.6543,-0.0018316,0.00829673,-0.00151045,0.00851719,-0.00205205,-1.42587,0.00647151,0.0117992,1329,393,5.59329,42.6543
112,631,5.62781,-42.5517,-0.00273446,0.00825665,-0.001181,0.00838211,-0.00285992,-1.46496,0.00674656,0.0121782,1336,393,5.62787,42.5517
119,631,5.63232,-42.4132,-0.00345382,0.00811234,-0.00076115,0.00816222,-0.00350369,-1.50536,0.006912,0.0125115,1343,393,5.6323,42.4132
126,631,5.61987,-42.2308,-0.00417471,0.00783296,-0.000314677,0.0078412,-0.00418295,-1.54461,0.00704843,0.0172216,1350,393,5.61982,42.2308
133,631,5.63123,-42.0609,-0.00475104,0.00743668,0.000161286,0.00743881,-0.00475317,1.55757,0.00709574,0.0187863,1357,393,5.6312,42.061
140,631,5.62195,-41.9203,-0.00502311,0.0069122,0.000646876,0.00694716,-0.00505807,1.51681,0.00695977,0.0206652,1364,393,5.62196,41.9203
147,631,5.60815,-41.7472,-0.00504209,0.00662204,0.00105771,0.00671718,-0.00513723,1.48109,0.00686438,0.0239521,1371,393,5.60819,41.7472
154,631,5.63245,-41.5258,-0.00471691,0.00629267,0.00130956,0.0064463,-0.00487054,1.45402,0.00655486,0.0230884,1378,393,5.63241,41.5257
161,631,5.69263,-41.2818,-0.00405642,0.006041,0.0014148,0.00623548,-0.00425091,1.43419,0.00609036,0.0249024,1385,393,5.69257,41.2818
168,631,5.66467,-41.0409,-0.00325051,0.00569667,0.00135147,0.00589636,-0.0034502,1.42411,0.00545749,0.0276721,1392,393,5.6647,41.0409
175,631,5.64807,-40.8343,-0.00229684,0.00539308,0.00122126,0.00558238,-0.00248613,1.41702,0.00477132,0.0204011,1399,393,5.64811,40.8343
182,631,5.6366,-40.5587,-0.00133679,0.00533428,0.00109133,0.00550828,-0.00151078,1.41269,0.00426591,0.0123553,1406,393,5.63655,40.5587
189,631,5.64478,-40.2487,-0.000574671,0.00534177,0.00109399,0.00553757,-0.000770477,1.39369,0.00397352,0.0117178,1413,393,5.64476,40.2487
196,631,5.63147,-39.9673,-6.3839e-05,0.00540202,0.0013322,0.00570943,-0.000371249,1.34401,0.00393588,0.0118384,1420,393,5.63152,39.9673
203,631,5.63782,-39.6769,-5.77873e-05,0.00573638,0.00173049,0.00621386,-0.000535271,1.30157,0.00433203,0.0134341,1427,393,5.6378,39.6769
210,631,5.64124,-39.3807,-0.000534518,0.00588292,0.00201454,0.00646291,-0.0011145,1.29048,0.00472413,0.0151253,1434,393,5.64118,39.3807
217,631,5.62964,-39.0739,-0.00074739,0.00658489,0.00223822,0.00721412,-0.00137662,1.29674,0.0053279,0.0166593,1441,393,5.62963,39.0739
224,631,5.57043,-38.7042,-0.000729584,0.00739199,0.00198655,0.00785187,-0.00118946,1.34331,0.00567278,0.01436,1448,393,5.57044,38.7042
231,631,5.52161,-38.3009,-0.000604201,0.007092,0.0014598,0.00735958,-0.000871789,1.3895,0.0052213,0.0117293,1455,393,5.52157,38.3009
238,631,5.48523,-37.9086,-0.000437031,0.00769186,0.00152607,0.00796891,-0.000714082,1.39121,0.00556592,0.0166558,1462,393,5.48519,37.9086
245,631,5.47668,-37.5445,-0.000455622,0.00819176,0.00149749,0.00844374,-0.000707602,1.40409,0.00587924,0.0186815,1469,393,5.47665,37.5445
252,631,5.45361,-37.1651,-0.000390518,0.00871318,0.0013818,0.00891829,-0.000595632,1.42343,0.00615369,0.0187037,1476,393,5.45356,37.1651
259,631,5.40942,-36.7516,-0.000326899,0.00934324,0.0013786,0.00953593,-0.000519598,1.43192,0.00653738,0.0130707,1483,393,5.40947,36.7516
266,631,5.38159,-36.3398,-0.000224561,0.0101717,0.00159852,0.0104119,-0.000464797,1.42163,0.00710128,0.0115071,1490,393,5.38164,36.3398
273,631,5.36499,-35.9151,-0.000145803,0.0111272,0.00198095,0.0114651,-0.000483776,1.40181,0.00780968,0.0146833,1497,393,5.36494,35.9151
280,631,5.35254,-35.4417,-6.35422e-05,0.0122836,0.0026031,0.01281,-0.000589904,1.37128,0.00874324,0.0145097,1504,393,5.35258,35.4417
287,631,5.33557,-34.9453,3.10287e-05,0.0138801,0.00353124,0.0147285,-0.000817389,1.335,0.0101025,0.017073,1511,393,5.33558,34.9453
294,631,5.27393,-34.3757,0.000112048,0.0156619,0.00464023,0.0169413,-0.00116737,1.30176,0.0117028,0.0219311,1518,393,5.27398,34.3757
301,631,5.18018,-33.8234,0.000217922,0.0176888,0.00588969,0.0194889,-0.00158211,1.27419,0.0135508,0.0317751,1525,393,5.18013,33.8234
308,631,5.255,-33.2289,0.000372406,0.0199223,0.00726961,0.0223292,-0.00203447,1.25107,0.0156086,0.0378828,1532,393,5.25504,33.229
315,631,5.3634,-32.6388,0.000666453,0.022484,0.00890967,0.0256601,-0.00250964,1.22836,0.0180017,0.0481207,1539,393,5.36344,32.6388
322,631,5.32751,-32.2705,0,0,0,0,0,0,0,-1,1546,393,5.32746,32.2705
329,631,4.54517,-31.4913,0,0,0,0,0,0,0,-1,1553,393,4.54518,31.4913
336,631,4.68127,-31.0589,0,0,0,0,0,0,0,-1,1560,393,4.68128,31.0589
343,631,4.69873,-30.6223,0,0,0,0,0,0,0,-1,1567,393,4.69878,30.6224
350,631,2.1344,-9.23401,0,0,0,0,0,0,0,-1,1574,393,2.13439,9.23401
357,631,2.6449,-9.60303,0,0,0,0,0,0,0,-1,1581,393,2.64491,9.60304
364,631,3.39136,-5.7594,0,0,0,0,0,0,0,-1,1588,393,3.39137,5.75939
371,631,3.72839,-6.0574,0,0,0,0,0,0,0,-1,1595,393,3.72845,6.05742
378,631,4.06555,-6.35544,0,0,0,0,0,0,0,-1,1602,393,4.06553,6.35544
385,631,3.90442,-3.58298,0,0,0,0,0,0,0,-1,1609,393,3.90437,3.58299
392,631,0.352295,-2.21301,0,0,0,0,0,0,0,-1,1616,393,0.352345,2.213
399,631,0,0,0,0,0,0,0,0,0,-1,1623,393,0,0
406,631,0,0,0,0,0,0,0,0,0,-1,1630,393,0,0
413,631,0,0,0,0,0,0,0,0,0,-1,1637,393,0,0
420,631,0,0,0,0,0,0,0,0,0,-1,1644,393,0,0
427,631,0,0,0,0,0,0,0,0,0,-1,1651,393,0,0
434,631,0,0,0,0,0,0,0,0,0,-1,1658,393,0,0
441,631,0,0,0,0,0,0,0,0,0,-1,1665,393,0,0
448,631,0,0,0,0,0,0,0,0,0,-1,1672,393,0,0
455,631,0,0,0,0,0,0,0,0,0,-1,1679,393,0,0
462,631,0,0,0,0,0,0,0,0,0,-1,1686,393,0,0
469,631,0,0,0,0,0,0,0,0,0,-1,1693,393,0,0
476,631,0,0,0,0,0,0,0,0,0,-1,1700,393,0,0
483,631,0,0,0,0,0,0,0,0,0,-1,1707,393,0,0
490,631,0,0,0,0,0,0,0,0,0,-1,1714,393,0,0
497,631,0,0,0,0,0,0,0,0,0,-1,1721,393,0,0
504,631,0,0,0,0,0,0,0,0,0,-1,1728,393,0,0
511,631,0,0,0,0,0,0,0,0,0,-1,1735,393,0,0
518,631,0,0,0,0,0,0,0,0,0,-1,1742,393,0,0
525,631,0,0,0,0,0,0,0,0,0,-1,1749,393,0,0
532,631,0,0,0,0,0,0,0,0,0,-1,1756,393,0,0
539,631,0,0,0,0,0,0,0,0,0,-1,1763,393,0,0
546,631,0,0,0,0,0,0,0,0,0,-1,1770,393,0,0
553,631,0,0,0,0,0,0,0,0,0,-1,1777,393,0,0
560,631,0,0,0,0,0,0,0,0,0,-1,1784,393,0,0
567,631,0,0,0,0,0,0,0,0,0,-1,1791,393,0,0
574,631,0,0,0,0,0,0,0,0,0,-1,1798,393,0,0
581,631,0,0,0,0,0,0,0,0,0,-1,1805,393,0,0
588,631,0,0,0,0,0,0,0,0,0,-1,1812,393,0,0
595,631,0,0,0,0,0,0,0,0,0,-1,1819,393,0,0
602,631,0,0,0,0,0,0,0,0,0,-1,1826,393,0,0
609,631,0,0,0,0,0,0,0,0,0,-1,1833,393,0,0
616,631,0,0,0,0,0,0,0,0,0,-1,1840,393,0,0
623,631,0,0,0,0,0,0,0,0,0,-1,1847,393,0,0
630,631,0,0,0,0,0,0,0,0,0,-1,1854,393,0,0
637,631,0,0,0,0,0,0,0,0,0,-1,1861,393,0,0
644,631,0,0,0,0,0,0,0,0,0,-1,1868,393,0,0
651,631,0,0,0,0,0,0,0,0,0,-1,1875,393,0,0
658,631,0,0,0,0,0,0,0,0,0,-1,1882,393,0,0
665,631,0,0,0,0,0,0,0,0,0,-1,1889,393,0,0
672,631,0,0,0,0,0,0,0,0,0,-1,1896,393,0,0
679,631,0,0,0,0,0,0,0,0,0,-1,1903,393,0,0
686,631,0,0,0,0,0,0,0,0,0,-1,1910,393,0,0
693,631,0,0,0,0,0,0,0,0,0,-1,1917,393,0,0
700,631,0,0,0,0,0,0,0,0,0,-1,1924,393,0,0
707,631,0,0,0,0,0,0,0,0,0,-1,1931,393,0,0
714,631,0,0,0,0,0,0,0,0,0,-1,1938,393,0,0
721,631,0,0,0,0,0,0,0,0,0,-1,1945,393,0,0
728,631,0,0,0,0,0,0,0,0,0,-1,1952,393,0,0
735,631,0,0,0,0,0,0,0,0,0,-1,1959,393,0,0
742,631,0,0,0,0,0,0,0,0,0,-1,1966,393,0,0
749,631,0,0,0,0,0,0,0,0,0,-1,1973,393,0,0
756,631,0,0,0,0,0,0,0,0,0,-1,1980,393,0,0
763,631,0,0,0,0,0,0,0,0,0,-1,1987,393,0,0
770,631,0,0,0,0,0,0,0,0,0,-1,1994,393,0,0
777,631,0,0,0,0,0,0,0,0,0,-1,2001,393,0,0
784,631,0,0,0,0,0,0,0,0,0,-1,2008,393,0,0
791,631,0,0,0,0,0,0,0,0,0,-1,2015,393,0,0
798,631,0,0,0,0,0,0,0,0,0,-1,2022,393,0,0
805,631,0,0,0,0,0,0,0,0,0,-1,2029,393,0,0
812,631,0,0,0,0,0,0,0,0,0,-1,2036,393,0,0
-700,624,0,0,0,0,0,0,0,0,0,-1,524,400,0,0
-693,624,0,0,0,0,0,0,0,0,0,-1,531,400,0,0
-686,624,0,0,0,0,0,0,0,0,0,-1,538,400,0,0
-679,624,0,0,0,0,0,0,0,0,0,-1,545,400,0,0
-672,624,0,0,0,0,0,0,0,0,0,-1,552,400,0,0
-665,624,0,0,0,0,0,0,0,0,0,-1,559,400,0,0
-658,624,0,0,0,0,0,0,0,0,0,-1,566,400,0,0
-651,624,0,0,0,0,0,0,0,0,0,-1,573,400,0,0
-644,624,0,0,0,0,0,0,0,0,0,-1,580,400,0,0
-637,624,0,0,0,0,0,0,0,0,0,-1,587,400,0,0
-630,624,0,0,0,0,0,0,0,0,0,-1,594,400,0,0
-623,624,0,0,0,0,0,0,0,0,0,-1,601,400,0,0
-616,624,0,0,0,0,0,0,0,0,0,-1,608,400,0,0
-609,624,0,0,0,0,0,0,0,0,0,-1,615,400,0,0
-602,624,0,0,0,0,0,0,0,0,0,-1,622,400,0,0
-595,624,0,0,0,0,0,0,0,0,0,-1,629,400,0,0
-588,624,0,0,0,0,0,0,0,0,0,-1,636,400,0,0
-581,624,0,0,0,0,0,0,0,0,0,-1,643,400,0,0
-574,624,0,0,0,0,0,0,0,0,0,-1,650,400,0,0
-567,624,0,0,0,0,0,0,0,0,0,-1,657,400,0,0
-560,624,0,0,0,0,0,0,0,0,0,-1,664,400,0,0
-553,624,0,0,0,0,0,0,0,0,0,-1,671,400,0,0
-546,624,0,0,0,0,0,0,0,0,0,-1,678,400,0,0
-539,624,0,0,0,0,0,0,0,0,0,-1,685,400,0,0
-532,624,0,0,0,0,0,0,0,0,0,-1,692,400,0,0
-525,624,0,0,0,0,0,0,0,0,0,-1,699,400,0,0
-518,624,0,0,0,0,0,0,0,0,0,-1,706,400,0,0
-511,624,0,0,0,0,0,0,0,0,0,-1,713,400,0,0
-504,624,0,0,0,0,0,0,0,0,0,-1,720,400,0,0
-497,624,0,0,0,0,0,0,0,0,0,-1,727,400,0,0
-490,624,0,0,0,0,0,0,0,0,0,-1,734,400,0,0
-483,624,0,0,0,0,0,0,0,0,0,-1,741,400,0,0
-476,624,0,0,0,0,0,0,0,0,0,-1,748,400,0,0
-469,624,0,0,0,0,0,0,0,0,0,-1,755,400,0,0
-462,624,0,0,0,0,0,0,0,0,0,-1,762,400,0,0
-455,624,0,0,0,0,0,0,0,0,0,-1,769,400,0,0
-448,624,0,0,0,0,0,0,0,0,0,-1,776,400,0,0
-441,624,0,0,0,0,0,0,0,0,0,-1,783,400,0,0
-434,624,0,0,0,0,0,0,0,0,0,-1,790,400,0,0
-427,624,0,0,0,0,0,0,0,0,0,-1,797,400,0,0
-420,624,0,0,0,0,0,0,0,0,0,-1,804,400,0,0
-413,624,0,0,0,0,0,0,0,0,0,-1,811,400,0,0
-406,624,0,0,0,0,0,0,0,0,0,-1,818,400,0,0
-399,624,0,0,0,0,0,0,0,0,0,-1,825,400,0,0
-392,624,0,0,0,0,0,0,0,0,0,-1,832,400,0,0
-385,624,0,0,0,0,0,0,0,0,0,-1,839,400,0,0
-378,624,0,0,0,0,0,0,0,0,0,-1,846,400,0,0
-371,624,0,0,0,0,0,0,0,0,0,-1,853,400,0,0
-364,624,0,0,0,0,0,0,0,0,0,-1,860,400,0,0
-357,624,0,0,0,0,0,0,0,0,0,-1,867,400,0,0
-350,624,0,0,0,0,0,0,0,0,0,-1,874,400,0,0
-343,624,0,0,0,0,0,0,0,0,0,-1,881,400,0,0
-336,624,0,0,0,0,0,0,0,0,0,-1,888,400,0,0
-329,624,0,0,0,0,0,0,0,0,0,-1,895,400,0,0
-322,624,0,0,0,0,0,0,0,0,0,-1,902,400,0,0
-315,624,0,0,0,0,0,0,0,0,0,-1,909,400,0,0
-308,624,0,0,0,0,0,0,0,0,0,-1,916,400,0,0
-301,624,0,0,0,0,0,0,0,0,0,-1,923,400,0,0
-294,624,5.3858,-27.8827,0,0,0,0,0,0,0,-1,930,400,5.38582,27.8827
-287,624,9.57275,-32.1245,0,0,0,0,0,0,0,-1,937,400,9.57274,32.1245
-280,624,8.87891,-32.3514,-0.0856488,-0.164325,0.0354048,-0.0720625,-0.177911,0.366411,0.103333,0.0487375,944,400,8.87888,32.3514
-273,624,8.16876,-32.5666,-0.0824897,-0.151791,0.0341584,-0.0684838,-0.165797,0.389122,0.0962041,0.0476805,951,400,8.16877,32.5666
-266,624,7.40503,-32.6218,-0.0777689,-0.137929,0.0325305,-0.0635427,-0.152155,0.412258,0.0882434,0.0436149,958,400,7.40504,32.6218
-259,624,6.62573,-32.4805,-0.0716061,-0.122744,0.0304293,-0.0574295,-0.136921,0.435987,0.0793925,0.0429069,965,400,6.62572,32.4805
-252,624,6.13867,-32.163,-0.0645131,-0.106967,0.0278623,-0.0507131,-0.120767,0.459876,0.0700223,0.042264,972,400,6.13866,32.163
-245,624,5.64722,-31.5637,0,0,0,0,0,0,0,-1,979,400,5.64719,31.5637
-238,624,5.21826,-30.8126,0,0,0,0,0,0,0,-1,986,400,5.21827,30.8126
-231,624,3.86121,-29.6032,0,0,0,0,0,0,0,-1,993,400,3.86122,29.6032
-224,624,4.59351,-27.4048,0,0,0,0,0,0,0,-1,1000,400,4.59353,27.4048
-217,624,5.68713,-31.1554,0,0,0,0,0,0,0,-1,1007,400,5.68716,31.1554
-210,624,5.83807,-32.1499,0,0,0,0,0,0,0,-1,1014,400,5.83806,32.1499
-203,624,5.77637,-32.5831,0,0,0,0,0,0,0,-1,1021,400,5.77636,32.5831
-196,624,5.63623,-33.0184,-0.00537723,0.0200487,-0.00294029,0.0203843,-0.00571282,-1.45715,0.015841,0.0490711,1028,400,5.63622,33.0184
-189,624,5.47791,-33.2916,-0.00434415,0.0189735,-0.00357483,0.0195092,-0.0048799,-1.42204,0.0149015,0.0467396,1035,400,5.47788,33.2916
-182,624,5.46179,-33.8037,-0.00348985,0.0163982,-0.00375382,0.0170831,-0.00417478,-1.39032,0.0130057,0.0372974,1042,400,5.46179,33.8037
-175,624,5.53186,-34.6172,-0.00285057,0.0135007,-0.00346834,0.0142059,-0.00355584,-1.37019,0.0108519,0.025798,1049,400,5.53181,34.6173
-168,624,5.43604,-35.1404,-0.00236137,0.0114367,-0.00309071,0.0120974,-0.00302205,-1.3602,0.00923851,0.0140127,1056,400,5.436,35.1404
-161,624,5.37415,-35.6285,-0.00197261,0.00976675,-0.0027504,0.0103792,-0.00258505,-1.3517,0.00792299,0.0110378,1063,400,5.3742,35.6285
-154,624,5.33813,-36.0352,-0.00165214,0.00859822,-0.00246489,0.00916014,-0.00221407,-1.34666,0.00696313,0.0101535,1070,400,5.33819,36.0352
-147,624,5.323,-36.4515,-0.00147005,0.00769458,-0.00220717,0.00819845,-0.00197391,-1.34636,0.00622875,0.0110225,1077,400,5.32297,36.4515
-140,624,5.29651,-36.8606,-0.00130107,0.00690667,-0.00208769,0.00740717,-0.00180157,-1.3355,0.00563545,0.00984487,1084,400,5.29653,36.8606
-133,624,5.23572,-37.2416,-0.00121881,0.00626951,-0.00195127,0.00674746,-0.00169676,-1.33058,0.00515778,0.0108714,1091,400,5.23574,37.2416
-126,624,5.21887,-37.5878,-0.0011956,0.00580927,-0.00175511,0.00622442,-0.00161075,-1.33853,0.00477791,0.0130052,1098,400,5.21889,37.5878
-119,624,5.20605,-37.9505,-0.00100465,0.00540159,-0.00160338,0.00578049,-0.00138355,-1.33875,0.00438815,0.0150672,1105,400,5.206,37.9505
-112,624,5.18164,-38.3409,-0.000883693,0.005168,-0.00140985,0.00548033,-0.00119602,-1.35278,0.00411064,0.0176629,1112,400,5.18168,38.3409
-105,624,5.19629,-38.6935,-0.00083178,0.00483262,-0.00135446,0.00513984,-0.001139,-1.34775,0.00386261,0.0140055,1119,400,5.19625,38.6935
-98,624,5.15686,-39.0204,-0.000715706,0.0043072,-0.00129316,0.00462057,-0.00102908,-1.33305,0.00347458,0.0134452,1126,400,5.15681,39.0204
-91,624,5.13574,-39.3486,-0.00045513,0.00330476,-0.00107475,0.00359029,-0.000740659,-1.31112,0.00267481,0.0194081,1133,400,5.13575,39.3486
-84,624,5.1604,-39.6909,-0.00012999,0.00241699,-0.000831306,0.0026643,-0.000377305,-1.28163,0.00191441,0.0184819,1140,400,5.16045,39.6908
-77,624,5.1582,-39.9894,0.000190486,0.00182215,-0.000625102,0.0020341,-2.1464e-05,-1.2439,0.00136327,0.0132094,1147,400,5.1582,39.9894
-70,624,5.15344,-40.2397,0.000513977,0.00132171,-0.000420272,0.00150071,0.000334975,-1.16815,0.000909614,0.014892,1154,400,5.15343,40.2397
-63,624,5.15027,-40.5335,0.000792732,0.000307821,2.55878e-05,0.000794079,0.000306474,0.0525733,0.00046242,0.0166736,1161,400,5.15026,40.5335
-56,624,5.12268,-40.8269,0.000908605,-0.00130352,0.000642871,0.00108186,-0.00147678,0.263249,0.00148309,0.0133084,1168,400,5.12266,40.8269
-49,624,5.14087,-41.0768,0.000994661,-0.00283641,0.00120348,0.00134135,-0.00318309,0.280475,0.00268336,0.00995024,1175,400,5.14088,41.0768
-42,624,5.14758,-41.2856,0.00116238,-0.00377694,0.00192639,0.00182485,-0.0044394,0.33122,0.00372019,0.00914624,1182,400,5.14758,41.2856
-35,624,5.16724,-41.4868,0.0012243,-0.00456382,0.00265382,0.00225686,-0.00559638,0.371062,0.00466872,0.0143531,1189,400,5.16724,41.4868
-28,624,5.18274,-41.7158,0.00100732,-0.00545554,0.00331864,0.0024079,-0.00685612,0.399356,0.0055503,0.0197778,1196,400,5.1827,41.7158
-21,624,5.19324,-41.8866,0.000754569,-0.00662709,0.0035982,0.00221828,-0.0080908,0.386345,0.00626558,0.014526,1203,400,5.19322,41.8866
-14,624,5.1925,-42.07,0.000671694,-0.0077339,0.00370268,0.00207009,-0.00913229,0.36111,0.00688279,0.0150638,1210,400,5.1925,42.07
-7,624,5.21484,-42.2286,0.000998017,-0.0093294,0.00361764,0.00213916,-0.0104705,0.305561,0.00779192,0.0202076,1217,400,5.2149,42.2286
0,624,5.25635,-42.3679,0.00163877,-0.00981296,0.00270466,0.00224542,-0.0104196,0.220645,0.00780332,0.0215152,1224,400,5.25636,42.3679
7,624,5.25928,-42.5085,0.00187663,-0.0104049,0.00199317,0.002192,-0.0107203,0.156926,0.00797855,0.0157072,1231,400,5.25929,42.5085
14,624,5.29883,-42.6362,0.00230076,-0.0110795,0.00115102,0.00239905,-0.0111778,0.0851897,0.00836702,0.0127233,1238,400,5.29879,42.6362
21,624,5.32031,-42.7197,0.0029244,-0.0116857,7.31918e-05,0.00292477,-0.011686,0.00500951,0.00892678,0.0139631,1245,400,5.32035,42.7197
28,624,5.3291,-42.7977,0.00363476,-0.0119637,-0.00105819,0.00370622,-0.0120351,-0.0674275,0.00950286,0.0126482,1252,400,5.32914,42.7977
35,624,5.36292,-42.8409,0.00408548,-0.0116569,-0.00215971,0.0043764,-0.0119479,-0.133895,0.00975688,0.0153965,1259,400,5.36286,42.8409
42,624,5.42542,-42.9018,0.00449074,-0.0108772,-0.00336853,0.00519667,-0.0115831,-0.206577,0.00991894,0.0175765,1266,400,5.42542,42.9018
49,624,5.45605,-42.9289,0.0046097,-0.00936655,-0.00452073,0.00594449,-0.0107013,-0.287102,0.0097404,0.0191255,1273,400,5.45603,42.9289
56,624,5.51306,-42.9765,0.00439855,-0.00753124,-0.0053064,0.00641725,-0.00954994,-0.363521,0.00927761,0.0191461,1280,400,5.51312,42.9765
63,624,5.53809,-42.9907,0.00396728,-0.00568437,-0.00610825,0.00692601,-0.0086431,-0.451076,0.00900704,0.0150196,1287,400,5.53811,42.9907
70,624,5.52722,-42.9965,0.00337986,-0.00336985,-0.00672591,0.00753014,-0.00752013,-0.552867,0.00868927,0.0134169,1294,400,5.52717,42.9965
77,624,5.56104,-42.9416,0.00289723,-0.000919332,-0.00707008,0.00831203,-0.00633414,-0.653584,0.00848163,0.0140359,1301,400,5.56107,42.9416
84,624,5.61548,-42.8817,0.00234177,0.00152587,-0.00714029,0.00908575,-0.00521812,-0.756862,0.00835836,0.0132091,1308,400,5.61553,42.8816
91,624,5.6438,-42.7915,0.000927563,0.00371345,-0.0070428,0.00949973,-0.00485872,-0.883029,0.00843297,0.0140807,1315,400,5.6438,42.7915
98,624,5.67859,-42.7307,-0.000818511,0.0056299,-0.00657117,0.00972524,-0.00491385,-1.01347,0.00860271,0.0141289,1322,400,5.67862,42.7306
105,624,5.70764,-42.7034,-0.00260797,0.00593814,-0.00528983,0.00846518,-0.00513501,-1.12513,0.00793015,0.0148773,1329,400,5.7077,42.7034
112,624,5.74573,-42.6058,-0.00397354,0.00635796,-0.00455621,0.00808017,-0.00569575,-1.20941,0.00799315,0.0149377,1336,400,5.74578,42.6058
119,624,5.73682,-42.4606,-0.00513633,0.006318,-0.00368942,0.00740349,-0.00622182,-1.28465,0.00787643,0.0150759,1343,400,5.73682,42.4606
126,624,5.74207,-42.2613,-0.00645003,0.00623952,-0.00263235,0.00676391,-0.00697442,-1.37416,0.00793214,0.0181477,1350,400,5.74207,42.2613
133,624,5.79126,-42.0639,-0.00758113,0.00586387,-0.00153601,0.00603712,-0.00775438,-1.45848,0.00798307,0.0194202,1357,400,5.7912,42.0639
140,624,5.80542,-41.9348,-0.00832704,0.00527209,-0.000453512,0.0052872,-0.00834215,-1.5375,0.00793452,0.0199544,1364,400,5.80547,41.9348
147,624,5.82178,-41.7462,-0.00876299,0.00475813,0.000512537,0.00477753,-0.00878239,1.53296,0.00794183,0.024319,1371,400,5.82173,41.7463
154,624,5.8739,-41.5148,-0.00871645,0.00401854,0.00128427,0.00414676,-0.00884467,1.47129,0.00766234,0.0271844,1378,400,5.87396,41.5148
161,624,5.92554,-41.2988,-0.0081646,0.00344252,0.00170581,0.00368802,-0.0084101,1.42786,0.00716001,0.0256631,1385,400,5.92556,41.2988
168,624,5.92517,-41.0598,-0.00730689,0.00308366,0.00190927,0.00342339,-0.00764661,1.39471,0.00654447,0.0241727,1392,400,5.92523,41.0597
175,624,5.9259,-40.8613,-0.00607901,0.00273096,0.00190413,0.00312489,-0.00647294,1.36679,0.00565258,0.0181138,1399,400,5.92592,40.8613
182,624,5.91113,-40.5963,-0.004539,0.00270716,0.00153824,0.00302018,-0.00485203,1.37004,0.00458586,0.0115376,1406,400,5.91109,40.5963
189,624,5.91089,-40.2798,-0.00317287,0.0028594,0.00129048,0.00312387,-0.00343735,1.36865,0.00378956,0.0109878,1413,400,5.91083,40.2798
196,624,5.90259,-39.9768,-0.00169684,0.0029483,0.00118682,0.00323396,-0.0019825,1.33459,0.00304048,0.0113561,1420,400,5.90264,39.9768
203,624,5.90942,-39.6721,-0.000704998,0.00331168,0.00113535,0.00361038,-0.0010037,1.31353,0.00280206,0.0133977,1427,400,5.90941,39.672
210,624,5.91846,-39.3659,-0.000202163,0.00353988,0.00108879,0.00383362,-0.000495903,1.30729,0.00273607,0.0172305,1434,400,5.91852,39.3659
217,624,5.90051,-39.0375,0.000209857,0.00409121,0.00122231,0.00444407,-0.000142996,1.28976,0.00301151,0.0212488,1441,400,5.90048,39.0375
224,624,5.88831,-38.6826,8.37637e-05,0.00488268,0.00128615,0.00520565,-0.000239198,1.32478,0.00355285,0.0175839,1448,400,5.88836,38.6826
231,624,5.86694,-38.3258,5.21811e-05,0.00506001,0.0012086,0.00533644,-0.000224246,1.34595,0.00363468,0.0122878,1455,400,5.86697,38.3258
238,624,5.85364,-37.982,9.72313e-05,0.00569929,0.00141931,0.00603836,-0.000241834,1.3363,0.00410855,0.0173434,1462,400,5.85358,37.982
245,624,5.85291,-37.6218,5.58948e-05,0.00627511,0.00154157,0.00663625,-0.000305245,1.34068,0.00452935,0.0189595,1469,400,5.8529,37.6218
252,624,5.828,-37.1928,6.87516e-05,0.00688668,0.00160295,0.00724474,-0.00028931,1.35103,0.0049291,0.0140108,1476,400,5.82802,37.1928
259,624,5.79419,-36.7859,7.14234e-05,0.00756492,0.00174702,0.0079522,-0.000315857,1.35264,0.00540982,0.00907694,1483,400,5.79422,36.7859
266,624,5.78442,-36.3618,0.000101486,0.00838586,0.00204156,0.00886165,-0.0003743,1.34183,0.0060364,0.0135288,1490,400,5.78445,36.3618
273,624,5.75757,-35.9227,0.000118488,0.00928242,0.00243905,0.00989116,-0.000490244,1.32621,0.00676344,0.01696,1497,400,5.75754,35.9227
280,624,5.72424,-35.4992,0.000147079,0.0103019,0.0030025,0.0111232,-0.000674248,1.30378,0.00765014,0.0151602,1504,400,5.72427,35.4992
287,624,5.69836,-35.0786,0.000179993,0.0116399,0.00378,0.0127744,-0.00095451,1.27922,0.00885164,0.0116032,1511,400,5.69841,35.0786
294,624,5.65845,-34.6134,0.000168823,0.0130587,0.00465208,0.0145623,-0.00133477,1.25819,0.0101823,0.0109338,1518,400,5.65846,34.6134
301,624,5.61548,-34.0872,0.000159558,0.0146076,0.00559984,0.0165238,-0.00175671,1.24109,0.0116457,0.0120963,1525,400,5.61544,34.0873
308,624,5.60486,-33.5752,0.000172648,0.0162411,0.00661062,0.0186112,-0.00219741,1.22655,0.013201,0.0152414,1532,400,5.60484,33.5752
315,624,5.62769,-33.0534,0.000264558,0.0180695,0.00776669,0.0209812,-0.00264718,1.21211,0.0149482,0.0211791,1539,400,5.62768,33.0534
322,624,5.59192,-32.5611,0.000255488,0.0195371,0.00896643,0.0230622,-0.00326965,1.19621,0.0165726,0.037189,1546,400,5.59192,32.5611
329,624,5.43811,-32.1543,0,0,0,0,0,0,0,-1,1553,400,5.43815,32.1543
336,624,5.35657,-31.2107,0,0,0,0,0,0,0,-1,1560,400,5.35651,31.2107
343,624,5.36511,-30.7072,0,0,0,0,0,0,0,-1,1567,400,5.36506,30.7072
350,624,1.99194,-7.29742,0,0,0,0,0,0,0,-1,1574,400,1.99198,7.29741
357,624,2.64075,-3.13092,0,0,0,0,0,0,0,-1,1581,400,2.64076,3.13091
364,624,3.16565,-4.9458,0,0,0,0,0,0,0,-1,1588,400,3.16564,4.94579
371,624,3.37561,-5.23529,0,0,0,0,0,0,0,-1,1595,400,3.37563,5.23529
378,624,1.50439,-5.22165,0,0,0,0,0,0,0,-1,1602,400,1.50438,5.22164
385,624,1.2301,-10.5866,0,0,0,0,0,0,0,-1,1609,400,1.2301,10.5866
392,624,4.26819,-5.14236,0,0,0,0,0,0,0,-1,1616,400,4.26818,5.14236
399,624,2.22168,-9.19293,0,0,0,0,0,0,0,-1,1623,400,2.22173,9.19294
406,624,2.68213,-9.91171,0,0,0,0,0,0,0,-1,1630,400,2.68213,9.91171
413,624,0,0,0,0,0,0,0,0,0,-1,1637,400,0,0
420,624,0,0,0,0,0,0,0,0,0,-1,1644,400,0,0
427,624,0,0,0,0,0,0,0,0,0,-1,1651,400,0,0
434,624,0,0,0,0,0,0,0,0,0,-1,1658,400,0,0
441,624,0,0,0,0,0,0,0,0,0,-1,1665,400,0,0
448,624,0,0,0,0,0,0,0,0,0,-1,1672,400,0,0
455,624,0,0,0,0,0,0,0,0,0,-1,1679,400,0,0
462,624,0,0,0,0,0,0,0,0,0,-1,1686,400,0,0
469,624,0,0,0,0,0,0,0,0,0,-1,1693,400,0,0
476,624,0,0,0,0,0,0,0,0,0,-1,1700,400,0,0
483,624,0,0,0,0,0,0,0,0,0,-1,1707,400,0,0
490,624,0,0,0,0,0,0,0,0,0,-1,1714,400,0,0
497,624,0,0,0,0,0,0,0,0,0,-1,1721,400,0,0
504,624,0,0,0,0,0,0,0,0,0,-1,1728,400,0,0
511,624,0,0,0,0,0,0,0,0,0,-1,1735,400,0,0
518,624,0,0,0,0,0,0,0,0,0,-1,1742,400,0,0
525,624,0,0,0,0,0,0,0,0,0,-1,1749,400,0,0
532,624,0,0,0,0,0,0,0,0,0,-1,1756,400,0,0
539,624,0,0,0,0,0,0,0,0,0,-1,1763,400,0,0
546,624,0,0,0,0,0,0,0,0,0,-1,1770,400,0,0
553,624,0,0,0,0,0,0,0,0,0,-1,1777,400,0,0
560,624,0,0,0,0,0,0,0,0,0,-1,1784,400,0,0
567,624,0,0,0,0,0,0,0,0,0,-1,1791,400,0,0
574,624,0,0,0,0,0,0,0,0,0,-1,1798,400,0,0
581,624,0,0,0,0,0,0,0,0,0,-1,1805,400,0,0
588,624,0,0,0,0,0,0,0,0,0,-1,1812,400,0,0
595,624,0,0,0,0,0,0,0,0,0,-1,1819,400,0,0
602,624,0,0,0,0,0,0,0,0,0,-1,1826,400,0,0
609,624,0,0,0,0,0,0,0,0,0,-1,1833,400,0,0
616,624,0,0,0,0,0,0,0,0,0,-1,1840,400,0,0
623,624,0,0,0,0,0,0,0,0,0,-1,1847,400,0,0
630,624,0,0,0,0,0,0,0,0,0,-1,1854,400,0,0
637,624,0,0,0,0,0,0,0,0,0,-1,1861,400,0,0
644,624,0,0,0,0,0,0,0,0,0,-1,1868,400,0,0
651,624,0,0,0,0,0,0,0,0,0,-1,1875,400,0,0
658,624,0,0,0,0,0,0,0,0,0,-1,1882,400,0,0
665,624,0,0,0,0,0,0,0,0,0,-1,1889,400,0,0
672,624,0,0,0,0,0,0,0,0,0,-1,1896,400,0,0
679,624,0,0,0,0,0,0,0,0,0,-1,1903,400,0,0
686,624,0,0,0,0,0,0,0,0,0,-1,1910,400,0,0
693,624,0,0,0,0,0,0,0,0,0,-1,1917,400,0,0
700,624,0,0,0,0,0,0,0,0,0,-1,1924,400,0,0
707,624,0,0,0,0,0,0,0,0,0,-1,1931,400,0,0
714,624,0,0,0,0,0,0,0,0,0,-1,1938,400,0,0
721,624,0,0,0,0,0,0,0,0,0,-1,1945,400,0,0
728,624,0,0,0,0,0,0,0,0,0,-1,1952,400,0,0
735,624,0,0,0,0,0,0,0,0,0,-1,1959,400,0,0
742,624,0,0,0,0,0,0,0,0,0,-1,1966,400,0,0
749,624,0,0,0,0,0,0,0,0,0,-1,1973,400,0,0
756,624,0,0,0,0,0,0,0,0,0,-1,1980,400,0,0
763,624,0,0,0,0,0,0,0,0,0,-1,1987,400,0,0
770,624,0,0,0,0,0,0,0,0,0,-1,1994,400,0,0
777,624,0,0,0,0,0,0,0,0,0,-1,2001,400,0,0
784,624,0,0,0,0,0,0,0,0,0,-1,2008,400,0,0
791,624,0,0,0,0,0,0,0,0,0,-1,2015,400,0,0
798,624,0,0,0,0,0,0,0,0,0,-1,2022,400,0,0
805,624,0,0,0,0,0,0,0,0,0,-1,2029,400,0,0
812,624,0,0,0,0,0,0,0,0,0,-1,2036,400,0,0
-700,617,0,0,0,0,0,0,0,0,0,-1,524,407,0,0
-693,617,0,0,0,0,0,0,0,0,0,-1,531,407,0,0
-686,617,0,0,0,0,0,0,0,0,0,-1,538,407,0,0
-679,617,0,0,0,0,0,0,0,0,0,-1,545,407,0,0
-672,617,0,0,0,0,0,0,0,0,0,-1,552,407,0,0
-665,617,0,0,0,0,0,0,0,0,0,-1,559,407,0,0
-658,617,0,0,0,0,0,0,0,0,0,-1,566,407,0,0
-651,617,0,0,0,0,0,0,0,0,0,-1,573,407,0,0
-644,617,0,0,0,0,0,0,0,0,0,-1,580,407,0,0
-637,617,0,0,0,0,0,0,0,0,0,-1,587,407,0,0
-630,617,0,0,0,0,0,0,0,0,0,-1,594,407,0,0
-623,617,0,0,0,0,0,0,0,0,0,-1,601,407,0,0
-616,617,0,0,0,0,0,0,0,0,0,-1,608,407,0,0
-609,617,0,0,0,0,0,0,0,0,0,-1,615,407,0,0
-602,617,0,0,0,0,0,0,0,0,0,-1,622,407,0,0
-595,617,0,0,0,0,0,0,0,0,0,-1,629,407,0,0
-588,617,0,0,0,0,0,0,0,0,0,-1,636,407,0,0
-581,617,0,0,0,0,0,0,0,0,0,-1,643,407,0,0
-574,617,0,0,0,0,0,0,0,0,0,-1,650,407,0,0
-567,617,0,0,0,0,0,0,0,0,0,-1,657,407,0,0
-560,617,0,0,0,0,0,0,0,0,0,-1,664,407,0,0
-553,617,0,0,0,0,0,0,0,0,0,-1,671,407,0,0
-546,617,0,0,0,0,0,0,0,0,0,-1,678,407,0,0
-539,617,0,0,0,0,0,0,0,0,0,-1,685,407,0,0
-532,617,0,0,0,0,0,0,0,0,0,-1,692,407,0,0
-525,617,0,0,0,0,0,0,0,0,0,-1,699,407,0,0
-518,617,0,0,0,0,0,0,0,0,0,-1,706,407,0,0
-511,617,0,0,0,0,0,0,0,0,0,-1,713,407,0,0
-504,617,0,0,0,0,0,0,0,0,0,-1,720,407,0,0
-497,617,0,0,0,0,0,0,0,0,0,-1,727,407,0,0
-490,617,0,0,0,0,0,0,0,0,0,-1,734,407,0,0
-483,617,0,0,0,0,0,0,0,0,0,-1,741,407,0,0
-476,617,0,0,0,0,0,0,0,0,0,-1,748,407,0,0
-469,617,0,0,0,0,0,0,0,0,0,-1,755,407,0,0
-462,617,0,0,0,0,0,0,0,0,0,-1,762,407,0,0
-455,617,0,0,0,0,0,0,0,0,0,-1,769,407,0,0
-448,617,0,0,0,0,0,0,0,0,0,-1,776,407,0,0
-441,617,0,0,0,0,0,0,0,0,0,-1,783,407,0,0
-434,617,0,0,0,0,0,0,0,0,0,-1,790,407,0,0
-427,617,0,0,0,0,0,0,0,0,0,-1,797,407,0,0
-420,617,0,0,0,0,0,0,0,0,0,-1,804,407,0,0
-413,617,0,0,0,0,0,0,0,0,0,-1,811,407,0,0
-406,617,0,0,0,0,0,0,0,0,0,-1,818,407,0,0
-399,617,0,0,0,0,0,0,0,0,0,-1,825,407,0,0
-392,617,0,0,0,0,0,0,0,0,0,-1,832,407,0,0
-385,617,0,0,0,0,0,0,0,0,0,-1,839,407,0,0
-378,617,0,0,0,0,0,0,0,0,0,-1,846,407,0,0
-371,617,0,0,0,0,0,0,0,0,0,-1,853,407,0,0
-364,617,0,0,0,0,0,0,0,0,0,-1,860,407,0,0
-357,617,0,0,0,0,0,0,0,0,0,-1,867,407,0,0
-350,617,0,0,0,0,0,0,0,0,0,-1,874,407,0,0
-343,617,0,0,0,0,0,0,0,0,0,-1,881,407,0,0
-336,617,0,0,0,0,0,0,0,0,0,-1,888,407,0,0
-329,617,0,0,0,0,0,0,0,0,0,-1,895,407,0,0
-322,617,0,0,0,0,0,0,0,0,0,-1,902,407,0,0
-315,617,0,0,0,0,0,0,0,0,0,-1,909,407,0,0
-308,617,0,0,0,0,0,0,0,0,0,-1,916,407,0,0
-301,617,4.52472,-26.171,0,0,0,0,0,0,0,-1,923,407,4.52473,26.171
-294,617,4.45184,-26.2752,0,0,0,0,0,0,0,-1,930,407,4.45182,26.2752
-287,617,8.84521,-30.6885,0,0,0,0,0,0,0,-1,937,407,8.84519,30.6885
-280,617,8.10901,-31.0072,-0.068736,-0.135559,0.0293318,-0.0576875,-0.146607,0.360235,0.0852815,0.0466579,944,407,8.10901,31.0072
-273,617,7.39093,-31.255,-0.0663524,-0.124394,0.0279834,-0.0550585,-0.135688,0.3836,0.0788019,0.0442138,951,407,7.39094,31.255
-266,617,6.75977,-31.3191,-0.0625845,-0.112175,0.0263504,-0.0511976,-0.123562,0.407896,0.0716867,0.0416174,958,407,6.7598,31.3191
-259,617,5.26624,-31.0608,0,0,0,0,0,0,0,-1,965,407,5.26625,31.0608
-252,617,5.53662,-31.1853,0,0,0,0,0,0,0,-1,972,407,5.5366,31.1853
-245,617,5.77252,-30.7764,0,0,0,0,0,0,0,-1,979,407,5.77254,30.7764
-238,617,5.36511,-30.5684,0,0,0,0,0,0,0,-1,986,407,5.36512,30.5684
-231,617,5.30823,-29.9348,0,0,0,0,0,0,0,-1,993,407,5.3082,29.9348
-224,617,5.21613,-30.8501,0,0,0,0,0,0,0,-1,1000,407,5.2161,30.8501
-217,617,5.28992,-31.6391,0,0,0,0,0,0,0,-1,1007,407,5.28992,31.6391
-210,617,5.29089,-32.2983,-0.00889896,0.0114256,5.88539e-05,0.0114257,-0.00889913,1.5679,0.0117647,0.0336308,1014,407,5.29088,32.2983
-203,617,5.19946,-32.8272,-0.00597788,0.0156176,-0.00148744,0.0157196,-0.00607985,-1.50235,0.0129896,0.0224211,1021,407,5.19941,32.8273
-196,617,5.1239,-33.3028,-0.00434289,0.0166461,-0.00273087,0.0169956,-0.00469239,-1.44351,0.013176,0.0190603,1028,407,5.12388,33.3028
-189,617,5.05054,-33.759,-0.00349717,0.0157335,-0.00320105,0.0162523,-0.00401601,-1.41011,0.0123924,0.0183724,1035,407,5.05056,33.759
-182,617,5.06189,-34.2447,-0.00279582,0.013619,-0.00328885,0.0142534,-0.00343025,-1.38023,0.0108283,0.0200484,1042,407,5.06188,34.2447
-175,617,5.03284,-34.688,-0.00228178,0.0110518,-0.0029573,0.0116783,-0.00290826,-1.36204,0.00891449,0.0162576,1049,407,5.03285,34.688
-168,617,4.99988,-35.1805,-0.00190049,0.00909423,-0.00250193,0.00963679,-0.00244305,-1.35725,0.00737501,0.0112403,1056,407,4.99984,35.1805
-161,617,4.96179,-35.6566,-0.00156504,0.00745498,-0.00208641,0.00791421,-0.00202427,-1.35415,0.00606457,0.0109781,1063,407,4.96174,35.6565
-154,617,4.92566,-36.0634,-0.0012523,0.00621028,-0.0017171,0.00658642,-0.00162844,-1.35515,0.00502254,0.0120037,1070,407,4.92569,36.0634
-147,617,4.9032,-36.4619,-0.00105331,0.00515298,-0.00135762,0.00543696,-0.00133729,-1.36459,0.00414298,0.0167666,1077,407,4.90325,36.4619
-140,617,4.89307,-36.8881,-0.000862502,0.0041792,-0.00111982,0.00441674,-0.00110004,-1.36178,0.00337153,0.0127515,1084,407,4.89308,36.8881
-133,617,4.87781,-37.2611,-0.000728286,0.00336594,-0.000893718,0.00355253,-0.00091487,-1.36498,0.00272499,0.01442,1091,407,4.87777,37.2611
-126,617,4.85095,-37.6091,-0.000624571,0.00277615,-0.000659314,0.0028995,-0.000747921,-1.38585,0.00222462,0.0140256,1098,407,4.85094,37.6091
-119,617,4.83838,-37.9944,-0.00038459,0.0023119,-0.000488584,0.0023977,-0.000470388,-1.39696,0.00177615,0.0144118,1105,407,4.83836,37.9944
-112,617,4.82837,-38.3528,-0.000169652,0.0020029,-0.000335361,0.00205349,-0.000220241,-1.42107,0.001448,0.0158607,1112,407,4.82841,38.3528
-105,617,4.82141,-38.6896,2.51031e-05,0.00163673,-0.000293403,0.00168848,-2.66504e-05,-1.3962,0.00113464,0.0154024,1119,407,4.82137,38.6896
-98,617,4.81946,-39.0217,0.000282107,0.00113569,-0.00024438,0.0012007,0.000217093,-1.31078,0.000738815,0.012818,1126,407,4.81942,39.0217
-91,617,4.80505,-39.3334,0.000654896,0.000548531,-0.00016228,0.000772486,0.000430941,-0.627053,0.000446989,0.0192461,1133,407,4.805,39.3334
-84,617,4.83777,-39.6787,0.0011004,0.000123077,-0.000108638,0.00111233,0.000111146,-0.10938,0.000707423,0.0187303,1140,407,4.83782,39.6787
-77,617,4.87122,-39.9725,0.00153751,-0.000137715,-6.99252e-05,0.00154043,-0.000140629,-0.0416441,0.00107689,0.0142233,1147,407,4.87116,39.9725
-70,617,4.88916,-40.2554,0.00207416,-0.000308617,-2.21175e-05,0.00207436,-0.000308822,-0.00928116,0.00149651,0.016223,1154,407,4.88911,40.2554
-63,617,4.92004,-40.5639,0.00219442,-0.00291894,0.00106166,0.00240608,-0.00313061,0.196792,0.00320572,0.0183593,1161,407,4.92,40.5639
-56,617,4.89209,-40.8232,0.00189393,-0.00664154,0.00237687,0.00251118,-0.00725879,0.254078,0.00585849,0.0133285,1168,407,4.89215,40.8232
-49,617,4.9032,-41.0661,0.00172169,-0.00943626,0.00336773,0.00265935,-0.0103739,0.271548,0.00795203,0.00974821,1175,407,4.90318,41.0661
-42,617,4.92627,-41.3104,0.00162093,-0.0103861,0.00464935,0.00321074,-0.0119759,0.32948,0.00924199,0.0113387,1182,407,4.92622,41.3104
-35,617,4.96118,-41.5135,0.0013683,-0.0111208,0.00585703,0.00368524,-0.0134378,0.376693,0.0104068,0.0172751,1189,407,4.96119,41.5135
-28,617,4.97131,-41.7153,0.000826729,-0.0121129,0.00684681,0.00377697,-0.0150631,0.406851,0.0115095,0.0201648,1196,407,4.97134,41.7153
-21,617,5.01758,-41.8698,0.000306619,-0.0134736,0.00720096,0.00338282,-0.0165498,0.403727,0.0123167,0.014435,1203,407,5.01758,41.8698
-14,617,5.04431,-42.0476,0.000125343,-0.0146723,0.00723827,0.00307713,-0.0176241,0.387215,0.012898,0.0151585,1210,407,5.04432,42.0476
-7,617,5.06445,-42.1766,0.000639262,-0.0166222,0.00699432,0.00311754,-0.0191004,0.340525,0.0138899,0.018029,1217,407,5.06447,42.1766
0,617,5.12195,-42.3079,0.0017352,-0.0169439,0.00548299,0.00322572,-0.0184344,0.26543,0.013494,0.0162807,1224,407,5.12196,42.3079
7,617,5.17883,-42.5046,0.00231514,-0.0177421,0.00427308,0.00318755,-0.0186145,0.201396,0.0135973,0.0124305,1231,407,5.17885,42.5047
14,617,5.19006,-42.6131,0.00314699,-0.018654,0.00283282,0.00350907,-0.0190161,0.127127,0.0139945,0.0142758,1238,407,5.19009,42.6131
21,617,5.23828,-42.7047,0.00414412,-0.0195759,0.000919852,0.00417974,-0.0196115,0.0387021,0.0146675,0.0128841,1245,407,5.23831,42.7047
28,617,5.28235,-42.8294,0.00521096,-0.0201483,-0.00101197,0.00525128,-0.0201887,-0.0398208,0.0155088,0.0115802,1252,407,5.28237,42.8294
35,617,5.26868,-42.8903,0.00586762,-0.0199851,-0.00287579,0.00618365,-0.0203011,-0.109455,0.0159987,0.0141072,1259,407,5.26871,42.8903
42,617,5.3501,-42.8791,0.00653563,-0.018826,-0.00549889,0.00767657,-0.0199669,-0.204583,0.0164774,0.0204876,1266,407,5.35006,42.8791
49,617,5.40601,-42.9043,0.00673454,-0.0166648,-0.0080097,0.00921364,-0.0191439,-0.300161,0.0167035,0.021134,1273,407,5.40596,42.9043
56,617,5.45911,-42.9443,0.00630094,-0.0139286,-0.00972776,0.0102196,-0.0178473,-0.382948,0.0164027,0.0154306,1280,407,5.45908,42.9443
63,617,5.52478,-42.9687,0.00568269,-0.0113117,-0.0114599,0.011452,-0.017081,-0.466389,0.01658,0.0111018,1287,407,5.5248,42.9687
70,617,5.5332,-42.9959,0.00485856,-0.00792318,-0.0129148,0.0128772,-0.0159418,-0.555639,0.01667,0.0159653,1294,407,5.53322,42.9959
77,617,5.61011,-42.9399,0.00412118,-0.00409394,-0.013904,0.0145116,-0.0144844,-0.641772,0.0167409,0.0136906,1301,407,5.61006,42.9399
84,617,5.68884,-42.8656,0.00334169,-0.000197434,-0.0143311,0.0160121,-0.0128678,-0.72397,0.0167067,0.0103268,1308,407,5.68889,42.8656
91,617,5.73193,-42.789,0.00147933,0.00329075,-0.0142863,0.0167,-0.0119299,-0.817055,0.0166058,0.0104471,1315,407,5.73187,42.789
98,617,5.76245,-42.7283,-0.000919622,0.00639865,-0.0135587,0.0167833,-0.0113042,-0.917195,0.0163189,0.0125034,1322,407,5.7625,42.7283
105,617,5.81628,-42.6696,-0.00378757,0.00720776,-0.0113838,0.0143519,-0.0109317,-1.01035,0.014642,0.0139785,1329,407,5.8163,42.6697
112,617,5.86157,-42.5752,-0.00621675,0.00819809,-0.00974111,0.0131083,-0.0111269,-1.1039,0.0140078,0.0167497,1336,407,5.86158,42.5752
119,617,5.88757,-42.4369,-0.00826657,0.00820351,-0.00776904,0.0112899,-0.0113529,-1.19265,0.0130728,0.0199074,1343,407,5.88756,42.4369
126,617,5.91663,-42.2781,-0.0106058,0.00817805,-0.00546335,0.00965151,-0.0120792,-1.30737,0.0125723,0.0220417,1350,407,5.91663,42.2781
133,617,5.95752,-42.0907,-0.012892,0.00766348,-0.00317936,0.008144,-0.0133725,-1.42079,0.0125442,0.0195319,1357,407,5.95748,42.0907
140,617,6.00476,-41.9293,-0.0147784,0.00683428,-0.000962453,0.00687705,-0.0148212,-1.52638,0.0128043,0.0172812,1364,407,6.00476,41.9293
147,617,6.06653,-41.7206,-0.0162821,0.00584499,0.00145482,0.00594023,-0.0163774,1.50542,0.0133465,0.0206639,1371,407,6.06657,41.7206
154,617,6.09094,-41.5276,-0.0170343,0.004642,0.00322687,0.00511217,-0.0175044,1.42611,0.0136955,0.0237754,1378,407,6.09089,41.5276
161,617,6.10718,-41.3341,-0.0168522,0.00348227,0.00404433,0.00425712,-0.0176271,1.3815,0.0133978,0.0253326,1385,407,6.10716,41.3341
168,617,6.16553,-41.1361,-0.0160506,0.00278138,0.00444054,0.00377593,-0.0170451,1.35046,0.0128089,0.023312,1392,407,6.16558,41.1361
175,617,6.172,-40.9095,-0.0143365,0.00205388,0.00441654,0.0031682,-0.0154508,1.32365,0.011503,0.0192443,1399,407,6.17205,40.9095
182,617,6.19507,-40.6245,-0.011676,0.00183266,0.00358903,0.00272699,-0.0125704,1.32658,0.00942173,0.0130265,1406,407,6.1951,40.6245
189,617,6.18872,-40.2983,-0.00912048,0.00184313,0.00285058,0.00254,-0.00981735,1.33103,0.00753563,0.0122777,1413,407,6.1887,40.2983
196,617,6.19128,-40.0029,-0.0060075,0.00162494,0.00217919,0.00220331,-0.00658587,1.31137,0.00528053,0.0156319,1420,407,6.1913,40.0029
203,617,6.17224,-39.7159,-0.0033059,0.00170808,0.00138902,0.00206716,-0.00366499,1.31782,0.00335204,0.0151236,1427,407,6.17229,39.7159
210,617,6.19568,-39.3716,-0.00080953,0.00155705,0.000482424,0.00165162,-0.000904093,1.37723,0.00149643,0.0150524,1434,407,6.19572,39.3716
217,617,6.21326,-39.0102,0.00118024,0.00175605,0.000188298,0.00181216,0.00112413,1.2812,0.0010563,0.0203145,1441,407,6.21327,39.0102
224,617,6.22412,-38.6918,0.000900794,0.00262016,0.000508003,0.00275904,0.000761917,1.30394,0.00164528,0.0198125,1448,407,6.22409,38.6918
231,617,6.23645,-38.3525,0.000704396,0.00323292,0.00078622,0.00345745,0.000479867,1.29262,0.00216283,0.014916,1455,407,6.23647,38.3525
238,617,6.23267,-38.0084,0.000649436,0.00392771,0.00110093,0.00426312,0.000314029,1.27507,0.0027434,0.0156458,1462,407,6.23266,38.0084
245,617,6.23474,-37.6472,0.000598777,0.00455634,0.00130682,0.00494892,0.000206196,1.27896,0.00323274,0.0130384,1469,407,6.23479,37.6472
252,617,6.19958,-37.2071,0.000570208,0.00521099,0.00147519,0.00564022,0.000140984,1.28765,0.00371404,0.0132994,1476,407,6.19958,37.2071
259,617,6.18115,-36.8014,0.00051549,0.00586728,0.00169175,0.00635721,2.5565e-05,1.28891,0.00422964,0.0112723,1483,407,6.1811,36.8013
266,617,6.17078,-36.3578,0.000479076,0.00659619,0.0019901,0.00718664,-0.000111377,1.28237,0.00482865,0.0153451,1490,407,6.17081,36.3578
273,617,6.15601,-35.9077,0.00044794,0.00738501,0.00235538,0.00810916,-0.000276205,1.27253,0.00550049,0.0159087,1497,407,6.15603,35.9077
280,617,6.12683,-35.5064,0.000434756,0.00824945,0.00284052,0.00917283,-0.000488624,1.2565,0.00628443,0.0134204,1504,407,6.12686,35.5064
287,617,6.09888,-35.066,0.00042995,0.00934017,0.00347481,0.010535,-0.000764922,1.2396,0.00729172,0.012418,1511,407,6.0989,35.066
294,617,6.08337,-34.6102,0.000369395,0.0104653,0.00415544,0.0119556,-0.00112097,1.22643,0.00836914,0.0111059,1518,407,6.08343,34.6102
301,617,6.05286,-34.1418,0.00029861,0.0116615,0.00487667,0.0134675,-0.00150731,1.21614,0.0095206,0.00896747,1525,407,6.05288,34.1418
308,617,6.01465,-33.656,0.000244309,0.0128816,0.00562959,0.0150256,-0.00189977,1.2069,0.0107067,0.00842099,1532,407,6.01467,33.656
315,617,5.97778,-33.1804,0.000228614,0.0142429,0.0064608,0.0167668,-0.00229535,1.19837,0.0120163,0.00996834,1539,407,5.97774,33.1804
322,617,5.95044,-32.6854,0.000116639,0.0152968,0.00728396,0.0182265,-0.00281305,1.18839,0.013189,0.0147184,1546,407,5.95045,32.6854
329,617,5.92786,-32.1667,2.46778e-05,0.0162636,0.0082373,0.0197104,-0.00342214,1.17449,0.014417,0.0177094,1553,407,5.92783,32.1667
336,617,5.9231,-31.4989,-0.000257517,0.0180052,0.00925137,0.0218727,-0.00412498,1.17483,0.0161335,0.0321316,1560,407,5.92311,31.4989
343,617,5.77454,-31.1342,0,0,0,0,0,0,0,-1,1567,407,5.77459,31.1342
350,617,5.61206,-30.2926,0,0,0,0,0,0,0,-1,1574,407,5.61211,30.2926
357,617,2.1748,-7.16504,0,0,0,0,0,0,0,-1,1581,407,2.1748,7.16505
364,617,2.30127,-7.60257,0,0,0,0,0,0,0,-1,1588,407,2.30125,7.60258
371,617,2.60266,-6.20667,0,0,0,0,0,0,0,-1,1595,407,2.60261,6.20668
378,617,1.56921,-10.3601,0,0,0,0,0,0,0,-1,1602,407,1.56918,10.3601
385,617,1.74146,-10.3561,0,0,0,0,0,0,0,-1,1609,407,1.7414,10.3561
392,617,1.96936,-5.10449,0,0,0,0,0,0,0,-1,1616,407,1.96931,5.10451
399,617,2.48889,-5.81256,0,0,0,0,0,0,0,-1,1623,407,2.48888,5.81255
406,617,3.01465,-6.51642,0,0,0,0,0,0,0,-1,1630,407,3.01461,6.51643
413,617,3.6427,-7.2074,0,0,0,0,0,0,0,-1,1637,407,3.64274,7.20739
420,617,3.42737,-4.47391,0,0,0,0,0,0,0,-1,1644,407,3.42737,4.47391
427,617,0,0,0,0,0,0,0,0,0,-1,1651,407,0,0
434,617,0,0,0,0,0,0,0,0,0,-1,1658,407,0,0
441,617,0,0,0,0,0,0,0,0,0,-1,1665,407,0,0
448,617,0,0,0,0,0,0,0,0,0,-1,1672,407,0,0
455,617,0,0,0,0,0,0,0,0,0,-1,1679,407,0,0
462,617,0,0,0,0,0,0,0,0,0,-1,1686,407,0,0
469,617,0,0,0,0,0,0,0,0,0,-1,1693,407,0,0
476,617,0,0,0,0,0,0,0,0,0,-1,1700,407,0,0
483,617,0,0,0,0,0,0,0,0,0,-1,1707,407,0,0
490,617,0,0,0,0,0,0,0,0,0,-1,1714,407,0,0
497,617,0,0,0,0,0,0,0,0,0,-1,1721,407,0,0
504,617,0,0,0,0,0,0,0,0,0,-1,1728,407,0,0
511,617,0,0,0,0,0,0,0,0,0,-1,1735,407,0,0
518,617,0,0,0,0,0,0,0,0,0,-1,1742,407,0,0
525,617,0,0,0,0,0,0,0,0,0,-1,1749,407,0,0
532,617,0,0,0,0,0,0,0,0,0,-1,1756,407,0,0
539,617,0,0,0,0,0,0,0,0,0,-1,1763,407,0,0
546,617,0,0,0,0,0,0,0,0,0,-1,1770,407,0,0
553,617,0,0,0,0,0,0,0,0,0,-1,1777,407,0,0
560,617,0,0,0,0,0,0,0,0,0,-1,1784,407,0,0
567,617,0,0,0,0,0,0,0,0,0,-1,1791,407,0,0
574,617,0,0,0,0,0,0,0,0,0,-1,1798,407,0,0
581,617,0,0,0,0,0,0,0,0,0,-1,1805,407,0,0
588,617,0,0,0,0,0,0,0,0,0,-1,1812,407,0,0
595,617,0,0,0,0,0,0,0,0,0,-1,1819,407,0,0
602,617,0,0,0,0,0,0,0,0,0,-1,1826,407,0,0
609,617,0,0,0,0,0,0,0,0,0,-1,1833,407,0,0
616,617,0,0,0,0,0,0,0,0,0,-1,1840,407,0,0
623,617,0,0,0,0,0,0,0,0,0,-1,1847,407,0,0
630,617,0,0,0,0,0,0,0,0,0,-1,1854,407,0,0
637,617,0,0,0,0,0,0,0,0,0,-1,1861,407,0,0
644,617,0,0,0,0,0,0,0,0,0,-1,1868,407,0,0
651,617,0,0,0,0,0,0,0,0,0,-1,1875,407,0,0
658,617,0,0,0,0,0,0,0,0,0,-1,1882,407,0,0
665,617,0,0,0,0,0,0,0,0,0,-1,1889,407,0,0
672,617,0,0,0,0,0,0,0,0,0,-1,1896,407,0,0
679,617,0,0,0,0,0,0,0,0,0,-1,1903,407,0,0
686,617,0,0,0,0,0,0,0,0,0,-1,1910,407,0,0
693,617,0,0,0,0,0,0,0,0,0,-1,1917,407,0,0
700,617,0,0,0,0,0,0,0,0,0,-1,1924,407,0,0
707,617,0,0,0,0,0,0,0,0,0,-1,1931,407,0,0
714,617,0,0,0,0,0,0,0,0,0,-1,1938,407,0,0
721,617,0,0,0,0,0,0,0,0,0,-1,1945,407,0,0
728,617,0,0,0,0,0,0,0,0,0,-1,1952,407,0,0
735,617,0,0,0,0,0,0,0,0,0,-1,1959,407,0,0
742,617,0,0,0,0,0,0,0,0,0,-1,1966,407,0,0
749,617,0,0,0,0,0,0,0,0,0,-1,1973,407,0,0
756,617,0,0,0,0,0,0,0,0,0,-1,1980,407,0,0
763,617,0,0,0,0,0,0,0,0,0,-1,1987,407,0,0
770,617,0,0,0,0,0,0,0,0,0,-1,1994,407,0,0
777,617,0,0,0,0,0,0,0,0,0,-1,2001,407,0,0
784,617,0,0,0,0,0,0,0,0,0,-1,2008,407,0,0
791,617,0,0,0,0,0,0,0,0,0,-1,2015,407,0,0
798,617,0,0,0,0,0,0,0,0,0,-1,2022,407,0,0
805,617,0,0,0,0,0,0,0,0,0,-1,2029,407,0,0
812,617,0,0,0,0,0,0,0,0,0,-1,2036,407,0,0
-700,610,0,0,0,0,0,0,0,0,0,-1,524,414,0,0
-693,610,0,0,0,0,0,0,0,0,0,-1,531,414,0,0
-686,610,0,0,0,0,0,0,0,0,0,-1,538,414,0,0
-679,610,0,0,0,0,0,0,0,0,0,-1,545,414,0,0
-672,610,0,0,0,0,0,0,0,0,0,-1,552,414,0,0
-665,610,0,0,0,0,0,0,0,0,0,-1,559,414,0,0
-658,610,0,0,0,0,0,0,0,0,0,-1,566,414,0,0
-651,610,0,0,0,0,0,0,0,0,0,-1,573,414,0,0
-644,610,0,0,0,0,0,0,0,0,0,-1,580,414,0,0
-637,610,0,0,0,0,0,0,0,0,0,-1,587,414,0,0
-630,610,0,0,0,0,0,0,0,0,0,-1,594,414,0,0
-623,610,0,0,0,0,0,0,0,0,0,-1,601,414,0,0
-616,610,0,0,0,0,0,0,0,0,0,-1,608,414,0,0
-609,610,0,0,0,0,0,0,0,0,0,-1,615,414,0,0
-602,610,0,0,0,0,0,0,0,0,0,-1,622,414,0,0
-595,610,0,0,0,0,0,0,0,0,0,-1,629,414,0,0
-588,610,0,0,0,0,0,0,0,0,0,-1,636,414,0,0
-581,610,0,0,0,0,0,0,0,0,0,-1,643,414,0,0
-574,610,0,0,0,0,0,0,0,0,0,-1,650,414,0,0
-567,610,0,0,0,0,0,0,0,0,0,-1,657,414,0,0
-560,610,0,0,0,0,0,0,0,0,0,-1,664,414,0,0
-553,610,0,0,0,0,0,0,0,0,0,-1,671,414,0,0
-546,610,0,0,0,0,0,0,0,0,0,-1,678,414,0,0
-539,610,0,0,0,0,0,0,0,0,0,-1,685,414,0,0
-532,610,0,0,0,0,0,0,0,0,0,-1,692,414,0,0
-525,610,0,0,0,0,0,0,0,0,0,-1,699,414,0,0
-518,610,0,0,0,0,0,0,0,0,0,-1,706,414,0,0
-511,610,0,0,0,0,0,0,0,0,0,-1,713,414,0,0
-504,610,0,0,0,0,0,0,0,0,0,-1,720,414,0,0
-497,610,0,0,0,0,0,0,0,0,0,-1,727,414,0,0
-490,610,0,0,0,0,0,0,0,0,0,-1,734,414,0,0
-483,610,0,0,0,0,0,0,0,0,0,-1,741,414,0,0
-476,610,0,0,0,0,0,0,0,0,0,-1,748,414,0,0
-469,610,0,0,0,0,0,0,0,0,0,-1,755,414,0,0
-462,610,0,0,0,0,0,0,0,0,0,-1,762,414,0,0
-455,610,0,0,0,0,0,0,0,0,0,-1,769,414,0,0
-448,610,0,0,0,0,0,0,0,0,0,-1,776,414,0,0
-441,610,0,0,0,0,0,0,0,0,0,-1,783,414,0,0
-434,610,0,0,0,0,0,0,0,0,0,-1,790,414,0,0
-427,610,0,0,0,0,0,0,0,0,0,-1,797,414,0,0
-420,610,0,0,0,0,0,0,0,0,0,-1,804,414,0,0
-413,610,0,0,0,0,0,0,0,0,0,-1,811,414,0,0
-406,610,0,0,0,0,0,0,0,0,0,-1,818,414,0,0
-399,610,0,0,0,0,0,0,0,0,0,-1,825,414,0,0
-392,610,0,0,0,0,0,0,0,0,0,-1,832,414,0,0
-385,610,0,0,0,0,0,0,0,0,0,-1,839,414,0,0
-378,610,0,0,0,0,0,0,0,0,0,-1,846,414,0,0
-371,610,0,0,0,0,0,0,0,0,0,-1,853,414,0,0
-364,610,0,0,0,0,0,0,0,0,0,-1,860,414,0,0
-357,610,0,0,0,0,0,0,0,0,0,-1,867,414,0,0
-350,610,0,0,0,0,0,0,0,0,0,-1,874,414,0,0
-343,610,0,0,0,0,0,0,0,0,0,-1,881,414,0,0
-336,610,0,0,0,0,0,0,0,0,0,-1,888,414,0,0
-329,610,0,0,0,0,0,0,0,0,0,-1,895,414,0,0
-322,610,0,0,0,0,0,0,0,0,0,-1,902,414,0,0
-315,610,7.68475,-21.5402,0,0,0,0,0,0,0,-1,909,414,7.68475,21.5402
-308,610,3.97211,-23.4133,0,0,0,0,0,0,0,-1,916,414,3.9721,23.4133
-301,610,4.01996,-23.7828,0,0,0,0,0,0,0,-1,923,414,4.01993,23.7828
-294,610,3.85504,-23.923,0,0,0,0,0,0,0,-1,930,414,3.85503,23.923
-287,610,3.32306,-24.1302,0,0,0,0,0,0,0,-1,937,414,3.32303,24.1302
-280,610,7.33197,-29.594,0,0,0,0,0,0,0,-1,944,414,7.33196,29.594
-273,610,6.60138,-29.8605,0,0,0,0,0,0,0,-1,951,414,6.60136,29.8605
-266,610,5.22656,-29.0848,-0.0486841,-0.0878128,0.0204297,-0.0399618,-0.0965351,0.403516,0.056009,0.0432873,958,414,5.22656,29.0848
-259,610,4.79376,-29.8324,0,0,0,0,0,0,0,-1,965,414,4.79379,29.8324
-252,610,4.93848,-30.1616,0,0,0,0,0,0,0,-1,972,414,4.93846,30.1616
-245,610,5.18103,-30.3075,-0.0338544,-0.0509909,0.0137379,-0.0262318,-0.0586135,0.506569,0.0339026,0.0466682,979,414,5.18103,30.3075
-238,610,5.03766,-30.4403,-0.028156,-0.0374956,0.0110432,-0.0208358,-0.0448158,0.585367,0.0258956,0.0470595,986,414,5.03768,30.4403
-231,610,4.82483,-30.375,-0.0225699,-0.0244856,0.00817867,-0.0152932,-0.0317623,0.727104,0.0183422,0.0400066,993,414,4.82484,30.375
-224,610,4.80188,-31.1419,-0.0170407,-0.0105645,0.00532361,-0.00757157,-0.0200337,1.05863,0.0116808,0.0298674,1000,414,4.80187,31.1419
-217,610,4.80933,-31.8096,-0.0113311,0.000807112,0.00192126,0.00110395,-0.0116279,1.4175,0.00814492,0.0203948,1007,414,4.80932,31.8096
-210,610,4.76599,-32.4052,-0.00626682,0.0104812,-0.000729912,0.010513,-0.00629857,-1.52732,0.00980728,0.0137838,1014,414,4.76596,32.4052
-203,610,4.73999,-32.9016,-0.00430596,0.0127571,-0.00161045,0.0129078,-0.00445663,-1.47751,0.0104136,0.0151696,1021,414,4.73998,32.9016
-196,610,4.70764,-33.3846,-0.00317533,0.0130828,-0.00230168,0.0134024,-0.0034949,-1.43284,0.0102995,0.0144954,1028,414,4.70759,33.3845
-189,610,4.67444,-33.862,-0.00252541,0.0122449,-0.00256335,0.0126772,-0.00295762,-1.40375,0.00959055,0.0117713,1035,414,4.67441,33.862
-182,610,4.63708,-34.3043,-0.00195996,0.0104375,-0.00252148,0.0109307,-0.00245318,-1.37763,0.0082277,0.0121927,1042,414,4.63708,34.3043
-175,610,4.60828,-34.7338,-0.00155267,0.00816062,-0.00212458,0.008605,-0.00199705,-1.36461,0.00650534,0.0126951,1049,414,4.60825,34.7338
-168,610,4.56946,-35.1917,-0.0012966,0.00627031,-0.00159619,0.00659323,-0.00161953,-1.37118,0.00502313,0.0117589,1056,414,4.56942,35.1917
-161,610,4.54651,-35.689,-0.00104354,0.00466674,-0.00111605,0.00487711,-0.00125391,-1.38448,0.00374011,0.0110902,1063,414,4.54654,35.689
-154,610,4.54346,-36.0821,-0.000777137,0.00338949,-0.000674541,0.00349598,-0.000883618,-1.41423,0.0026743,0.0132117,1070,414,4.54341,36.0821
-147,610,4.53284,-36.4539,-0.000600129,0.0022366,-0.000228098,0.00225483,-0.000618354,-1.49107,0.00174622,0.0153702,1077,414,4.5328,36.4538
-140,610,4.51941,-36.8721,-0.000432721,0.00114806,0.000117748,0.00115678,-0.000441443,1.49685,0.000953049,0.012743,1084,414,4.51936,36.8721
-133,610,4.51172,-37.2391,-0.000295852,0.000233362,0.000426721,0.000470859,-0.000533348,1.06293,0.000580153,0.0141839,1091,414,4.51174,37.2391
-126,610,4.50452,-37.5989,-0.000151263,-0.000441223,0.000696643,0.000415326,-0.00100781,0.682806,0.000845052,0.0124522,1098,414,4.50453,37.5989
-119,610,4.48975,-37.9946,0.000107574,-0.000953054,0.000881762,0.00060621,-0.00145169,0.514665,0.0012211,0.0108436,1105,414,4.4897,37.9946
-112,610,4.49255,-38.3462,0.00037668,-0.00132892,0.000991173,0.000831431,-0.00178367,0.430149,0.00154284,0.0193605,1112,414,4.49256,38.3462
-105,610,4.46021,-38.6898,0.000677144,-0.00171183,0.00101651,0.00105112,-0.00208581,0.352537,0.00184366,0.0177365,1119,414,4.46014,38.6898
-98,610,4.49475,-39.0081,0.00105035,-0.00216094,0.0010314,0.00135308,-0.00246366,0.285494,0.00223448,0.0131945,1126,414,4.49472,39.0082
-91,610,4.49072,-39.3405,0.00153416,-0.0023906,0.000970525,0.00176104,-0.00261748,0.229645,0.00254401,0.0156369,1133,414,4.49076,39.3405
-84,610,4.52136,-39.6712,0.00210452,-0.00241302,0.000818932,0.00224839,-0.0025569,0.173908,0.00277624,0.0156214,1140,414,4.52136,39.6712
-77,610,4.54407,-39.9964,0.00266007,-0.00235813,0.000668744,0.00274766,-0.00244572,0.130236,0.00300009,0.0122245,1147,414,4.54402,39.9964
-70,610,4.604,-40.2888,0.00344608,-0.00213969,0.000534515,0.00349677,-0.00219038,0.0945488,0.00331223,0.0151606,1154,414,4.60399,40.2889
-63,610,4.64661,-40.5627,0.00333044,-0.00772968,0.00282596,0.00401066,-0.00840991,0.236212,0.00731942,0.0145047,1161,414,4.64656,40.5627
-56,610,4.66296,-40.8137,0.00252977,-0.0147151,0.00506501,0.00390737,-0.0160927,0.26556,0.0122406,0.0127006,1168,414,4.663,40.8137
-49,610,4.6637,-41.0341,0.00206661,-0.0193134,0.00664949,0.00396596,-0.0212128,0.278229,0.0156324,0.0122281,1175,414,4.66366,41.0341
-42,610,4.68726,-41.276,0.0017477,-0.0201237,0.0085165,0.00467275,-0.0230487,0.330834,0.0171371,0.0147623,1182,414,4.68723,41.276
-35,610,4.7196,-41.4983,0.00123776,-0.0206251,0.0101843,0.00524673,-0.024634,0.375015,0.0184223,0.0162322,1189,414,4.71962,41.4983
-28,610,4.76782,-41.7032,0.000429975,-0.0215753,0.0114603,0.00531435,-0.0264597,0.402885,0.0196522,0.0139522,1196,414,4.76783,41.7032
-21,610,4.82288,-41.8537,-0.000297341,-0.022885,0.0118137,0.00475248,-0.0279348,0.403947,0.0203928,0.0117278,1203,414,4.82292,41.8537
-14,610,4.86243,-42.0159,-0.000548053,-0.0238555,0.0116585,0.00428243,-0.028686,0.392801,0.0206997,0.0129464,1210,414,4.86237,42.0159
-7,610,4.93066,-42.1525,0.000356917,-0.0257539,0.0109264,0.0043259,-0.0297229,0.348427,0.0214034,0.0148518,1217,414,4.93068,42.1525
0,610,4.97168,-42.304,0.00215614,-0.0254124,0.00841535,0.00452193,-0.0277781,0.274054,0.0201955,0.0114302,1224,414,4.97168,42.304
7,610,5.01123,-42.4683,0.00325928,-0.0260206,0.00631763,0.00456426,-0.0273256,0.203696,0.0199136,0.0133458,1231,414,5.01126,42.4683
14,610,5.1449,-42.5386,0.00470492,-0.0267965,0.00392505,0.00518661,-0.0272782,0.122112,0.0201382,0.0177876,1238,414,5.14488,42.5386
21,610,5.21997,-42.6054,0.00634712,-0.0276769,0.000893456,0.00637057,-0.0277003,0.0262355,0.0209163,0.0164888,1245,414,5.22001,42.6054
28,610,5.18945,-42.7327,0.00803618,-0.0282126,-0.00212721,0.00816058,-0.028337,-0.0584164,0.0221191,0.0170241,1252,414,5.18945,42.7327
35,610,5.30359,-42.7961,0.00908933,-0.0278659,-0.00497412,0.00974713,-0.0285237,-0.131482,0.022965,0.0192816,1259,414,5.30356,42.7961
42,610,5.34497,-42.8078,0.0102975,-0.0260313,-0.00921623,0.0125018,-0.0282356,-0.234767,0.0240974,0.0173402,1266,414,5.34492,42.8078
49,610,5.39246,-42.8971,0.0108283,-0.0231031,-0.0132419,0.0153842,-0.0276591,-0.331371,0.0251856,0.0171172,1273,414,5.3924,42.8971
56,610,5.47241,-42.9,0.0102809,-0.0195278,-0.015836,0.0171233,-0.0263701,-0.407848,0.0252994,0.0166149,1280,414,5.4724,42.9
63,610,5.44592,-42.8308,0.00949835,-0.0162512,-0.0183946,0.0190762,-0.0258291,-0.480061,0.0260236,0.0229419,1287,414,5.44592,42.8308
70,610,5.54321,-42.788,0.00841493,-0.0119448,-0.020579,0.0211942,-0.0247241,-0.55571,0.0265371,0.0330582,1294,414,5.54316,42.788
77,610,5.68604,-42.7624,0.00737107,-0.00693889,-0.0221701,0.0235121,-0.0230799,-0.629309,0.0269003,0.0397088,1301,414,5.686,42.7624
84,610,5.75464,-42.8359,0.00622931,-0.00172617,-0.0229318,0.0255258,-0.0210226,-0.699523,0.0269166,0.0351861,1308,414,5.7547,42.8359
91,610,5.85352,-42.8035,0.0036606,0.00304067,-0.0229112,0.0262639,-0.0195626,-0.778634,0.0265521,0.0289538,1315,414,5.85353,42.8035
98,610,5.94128,-42.7453,0.000166181,0.00744395,-0.0218822,0.0259878,-0.0183777,-0.867791,0.0257397,0.027009,1322,414,5.94126,42.7453
105,610,5.94751,-42.6285,-0.00437541,0.00884087,-0.0184564,0.0218365,-0.017371,-0.957308,0.0226854,0.0214608,1329,414,5.94752,42.6285
112,610,5.9895,-42.5128,-0.0084465,0.010601,-0.0155363,0.0193003,-0.0171458,-1.06036,0.0210544,0.014359,1336,414,5.98948,42.5128
119,610,6.04333,-42.3934,-0.0119696,0.0108758,-0.0121401,0.0161223,-0.017216,-1.16288,0.0192513,0.020536,1343,414,6.04334,42.3934
126,610,6.1261,-42.2704,-0.0159827,0.0111592,-0.00825077,0.0134705,-0.018294,-1.29767,0.0184096,0.0295942,1350,414,6.1261,42.2704
133,610,6.20081,-42.1026,-0.0200662,0.0108066,-0.00433311,0.0114033,-0.0206629,-1.43396,0.0187689,0.0229117,1357,414,6.20082,42.1026
140,610,6.22168,-41.9148,-0.0236941,0.0100288,-0.000499168,0.0100362,-0.0237014,-1.556,0.020004,0.0182273,1364,414,6.22164,41.9148
147,610,6.20422,-41.696,-0.0270765,0.00898423,0.00395366,0.00941262,-0.0275049,1.46287,0.0221511,0.0192079,1371,414,6.20419,41.696
154,610,6.21484,-41.4841,-0.0293623,0.00770059,0.00739016,0.0091198,-0.0307816,1.38107,0.0241421,0.0236608,1378,414,6.21489,41.4841
161,610,6.30945,-41.2816,-0.0298633,0.00605825,0.00887022,0.0081292,-0.0319343,1.34143,0.0244539,0.0279511,1385,414,6.3094,41.2816
168,610,6.36584,-41.0696,-0.0293211,0.00502665,0.0096447,0.00754953,-0.031844,1.31495,0.0241426,0.0272963,1392,414,6.36581,41.0696
175,610,6.40955,-40.8588,-0.0271889,0.00382006,0.00967197,0.0065895,-0.0299583,1.29192,0.0224928,0.0229747,1399,414,6.40953,40.8588
182,610,6.46729,-40.5997,-0.0231319,0.0032193,0.00819812,0.00556161,-0.0254742,1.2925,0.0191084,0.0171787,1406,414,6.46732,40.5997
189,610,6.49048,-40.2898,-0.0190145,0.00280289,0.00673386,0.00471389,-0.0209255,1.29428,0.0157584,0.0151489,1413,414,6.49052,40.2898
196,610,6.50562,-39.9937,-0.0138135,0.00193821,0.00526432,0.00353558,-0.0154109,1.27619,0.0116329,0.014762,1420,414,6.50559,39.9937
203,610,6.49829,-39.7208,-0.00875736,0.00138102,0.00335837,0.00239256,-0.0097689,1.27824,0.00743949,0.0143986,1427,414,6.4983,39.7208
210,610,6.50635,-39.4038,-0.00300224,0.000137468,0.000647945,0.00026593,-0.0031307,1.37507,0.00218118,0.0110062,1434,414,6.50634,39.4038
217,610,6.55981,-39.0247,0.00213283,-0.000391013,-0.000866531,0.0024017,-0.000659882,-0.300864,0.00186052,0.0166271,1441,414,6.55978,39.0247
224,610,6.5791,-38.6904,0.00169544,0.000635056,-0.00033459,0.00179219,0.000538308,-0.281477,0.00106186,0.0196831,1448,414,6.5791,38.6904
231,610,6.58655,-38.3622,0.00133534,0.00165498,0.000228495,0.001774,0.00121632,1.09058,0.00104749,0.0159413,1455,414,6.58658,38.3621
238,610,6.58411,-37.9822,0.00120497,0.00242208,0.000622149,0.00268382,0.000943231,1.17258,0.00157213,0.0118606,1462,414,6.58414,37.9822
245,610,6.60754,-37.5972,0.00115818,0.00308502,0.000868398,0.00341863,0.000824569,1.20401,0.00206,0.0126242,1469,414,6.6076,37.5972
252,610,6.58276,-37.1961,0.00109906,0.00374631,0.00109936,0.00414331,0.00070205,1.22425,0.00256048,0.0136846,1476,414,6.58279,37.1961
259,610,6.58765,-36.7862,0.000999842,0.00431702,0.00134102,0.00479132,0.000525533,1.23084,0.00303425,0.0123549,1483,414,6.58763,36.7862
266,610,6.58752,-36.3487,0.000907436,0.0048885,0.00160046,0.00545212,0.000343818,1.2322,0.00352573,0.0131142,1490,414,6.58752,36.3487
273,610,6.57361,-35.9096,0.000838121,0.00552981,0.00190947,0.00620871,0.000159227,1.22919,0.0040871,0.010606,1497,414,6.57356,35.9096
280,610,6.53333,-35.4831,0.00079137,0.00621181,0.0023103,0.00706287,-5.96971e-05,1.21784,0.00472861,0.0101787,1504,414,6.53336,35.4831
287,610,6.48926,-35.0268,0.000757341,0.0070493,0.00281494,0.00812483,-0.000318182,1.20584,0.00552567,0.0134689,1511,414,6.48924,35.0268
294,610,6.49597,-34.58,0.00065846,0.0079153,0.00334384,0.00922112,-0.000647359,1.19849,0.00637417,0.0120014,1518,414,6.49596,34.58
301,610,6.51074,-34.1504,0.000535715,0.00882763,0.00389692,0.0103716,-0.00100822,1.19357,0.00727379,0.0114261,1525,414,6.51073,34.1504
308,610,6.48389,-33.6738,0.000430606,0.00973817,0.00447279,0.0115391,-0.00137034,1.18801,0.00818783,0.0124669,1532,414,6.48388,33.6738
315,610,6.43506,-33.1993,0.00033568,0.0107884,0.00509117,0.0128583,-0.00173418,1.18465,0.00920484,0.0122603,1539,414,6.43507,33.1993
322,610,6.39844,-32.7008,0.000149772,0.0116115,0.00568409,0.0139523,-0.00219102,1.18015,0.0101113,0.0122083,1546,414,6.39839,32.7008
329,610,6.37,-32.2,-5.21302e-05,0.0123193,0.00630923,0.0149693,-0.0027021,1.17315,0.0109915,0.0111597,1553,414,6.37002,32.2
336,610,6.37268,-31.7038,-0.000387409,0.0133881,0.00691504,0.0162604,-0.00325973,1.17711,0.0120744,0.0104589,1560,414,6.3727,31.7038
343,610,6.3186,-31.1743,-0.000711901,0.0137401,0.0070059,0.0165788,-0.00355058,1.18583,0.0124066,0.0167168,1567,414,6.31859,31.1743
350,610,6.26404,-30.6324,0,0,0,0,0,0,0,-1,1574,414,6.26399,30.6324
357,610,6.30505,-29.9061,0,0,0,0,0,0,0,-1,1581,414,6.30503,29.9061
364,610,6.4397,-29.3452,0,0,0,0,0,0,0,-1,1588,414,6.4397,29.3452
371,610,3.54138,-13.3788,0,0,0,0,0,0,0,-1,1595,414,3.54137,13.3788
378,610,3.5752,-12.1958,0,0,0,0,0,0,0,-1,1602,414,3.57517,12.1958
385,610,2.57104,-10.3878,0,0,0,0,0,0,0,-1,1609,414,2.57109,10.3878
392,610,1.99744,-1.83582,0,0,0,0,0,0,0,-1,1616,414,1.99741,1.8358
399,610,2.77136,-2.60333,0,0,0,0,0,0,0,-1,1623,414,2.77133,2.60332
406,610,3.54529,-3.37085,0,0,0,0,0,0,0,-1,1630,414,3.54525,3.37084
413,610,3.01929,-3.20306,0,0,0,0,0,0,0,-1,1637,414,3.01929,3.20306
420,610,4.78149,-3.64041,0,0,0,0,0,0,0,-1,1644,414,4.78152,3.64042
427,610,8.85168,-23.3853,0,0,0,0,0,0,0,-1,1651,414,8.85174,23.3853
434,610,8.73706,-22.6227,0,0,0,0,0,0,0,-1,1658,414,8.73703,22.6227
441,610,0,0,0,0,0,0,0,0,0,-1,1665,414,0,0
448,610,0,0,0,0,0,0,0,0,0,-1,1672,414,0,0
455,610,0,0,0,0,0,0,0,0,0,-1,1679,414,0,0
462,610,0,0,0,0,0,0,0,0,0,-1,1686,414,0,0
469,610,0,0,0,0,0,0,0,0,0,-1,1693,414,0,0
476,610,0,0,0,0,0,0,0,0,0,-1,1700,414,0,0
483,610,0,0,0,0,0,0,0,0,0,-1,1707,414,0,0
490,610,0,0,0,0,0,0,0,0,0,-1,1714,414,0,0
497,610,0,0,0,0,0,0,0,0,0,-1,1721,414,0,0
504,610,0,0,0,0,0,0,0,0,0,-1,1728,414,0,0
511,610,0,0,0,0,0,0,0,0,0,-1,1735,414,0,0
518,610,0,0,0,0,0,0,0,0,0,-1,1742,414,0,0
525,610,0,0,0,0,0,0,0,0,0,-1,1749,414,0,0
532,610,0,0,0,0,0,0,0,0,0,-1,1756,414,0,0
539,610,0,0,0,0,0,0,0,0,0,-1,1763,414,0,0
546,610,0,0,0,0,0,0,0,0,0,-1,1770,414,0,0
553,610,0,0,0,0,0,0,0,0,0,-1,1777,414,0,0
560,610,0,0,0,0,0,0,0,0,0,-1,1784,414,0,0
567,610,0,0,0,0,0,0,0,0,0,-1,1791,414,0,0
574,610,0,0,0,0,0,0,0,0,0,-1,1798,414,0,0
581,610,0,0,0,0,0,0,0,0,0,-1,1805,414,0,0
588,610,0,0,0,0,0,0,0,0,0,-1,1812,414,0,0
595,610,0,0,0,0,0,0,0,0,0,-1,1819,414,0,0
602,610,0,0,0,0,0,0,0,0,0,-1,1826,414,0,0
609,610,0,0,0,0,0,0,0,0,0,-1,1833,414,0,0
616,610,0,0,0,0,0,0,0,0,0,-1,1840,414,0,0
623,610,0,0,0,0,0,0,0,0,0,-1,1847,414,0,0
630,610,0,0,0,0,0,0,0,0,0,-1,1854,414,0,0
637,610,0,0,0,0,0,0,0,0,0,-1,1861,414,0,0
644,610,0,0,0,0,0,0,0,0,0,-1,1868,414,0,0
651,610,0,0,0,0,0,0,0,0,0,-1,1875,414,0,0
658,610,0,0,0,0,0,0,0,0,0,-1,1882,414,0,0
665,610,0,0,0,0,0,0,0,0,0,-1,1889,414,0,0
672,610,0,0,0,0,0,0,0,0,0,-1,1896,414,0,0
679,610,0,0,0,0,0,0,0,0,0,-1,1903,414,0,0
686,610,0,0,0,0,0,0,0,0,0,-1,1910,414,0,0
693,610,0,0,0,0,0,0,0,0,0,-1,1917,414,0,0
700,610,0,0,0,0,0,0,0,0,0,-1,1924,414,0,0
707,610,0,0,0,0,0,0,0,0,0,-1,1931,414,0,0
714,610,0,0,0,0,0,0,0,0,0,-1,1938,414,0,0
721,610,0,0,0,0,0,0,0,0,0,-1,1945,414,0,0
728,610,0,0,0,0,0,0,0,0,0,-1,1952,414,0,0
735,610,0,0,0,0,0,0,0,0,0,-1,1959,414,0,0
742,610,0,0,0,0,0,0,0,0,0,-1,1966,414,0,0
749,610,0,0,0,0,0,0,0,0,0,-1,1973,414,0,0
756,610,0,0,0,0,0,0,0,0,0,-1,1980,414,0,0
763,610,0,0,0,0,0,0,0,0,0,-1,1987,414,0,0
770,610,0,0,0,0,0,0,0,0,0,-1,1994,414,0,0
777,610,0,0,0,0,0,0,0,0,0,-1,2001,414,0,0
784,610,0,0,0,0,0,0,0,0,0,-1,2008,414,0,0
791,610,0,0,0,0,0,0,0,0,0,-1,2015,414,0,0
798,610,0,0,0,0,0,0,0,0,0,-1,2022,414,0,0
805,610,0,0,0,0,0,0,0,0,0,-1,2029,414,0,0
812,610,0,0,0,0,0,0,0,0,0,-1,2036,414,0,0
-700,603,0,0,0,0,0,0,0,0,0,-1,524,421,0,0
-693,603,0,0,0,0,0,0,0,0,0,-1,531,421,0,0
-686,603,0,0,0,0,0,0,0,0,0,-1,538,421,0,0
-679,603,0,0,0,0,0,0,0,0,0,-1,545,421,0,0
-672,603,0,0,0,0,0,0,0,0,0,-1,552,421,0,0
-665,603,0,0,0,0,0,0,0,0,0,-1,559,421,0,0
-658,603,0,0,0,0,0,0,0,0,0,-1,566,421,0,0
-651,603,0,0,0,0,0,0,0,0,0,-1,573,421,0,0
-644,603,0,0,0,0,0,0,0,0,0,-1,580,421,0,0
-637,603,0,0,0,0,0,0,0,0,0,-1,587,421,0,0
-630,603,0,0,0,0,0,0,0,0,0,-1,594,421,0,0
-623,603,0,0,0,0,0,0,0,0,0,-1,601,421,0,0
-616,603,0,0,0,0,0,0,0,0,0,-1,608,421,0,0
-609,603,0,0,0,0,0,0,0,0,0,-1,615,421,0,0
-602,603,0,0,0,0,0,0,0,0,0,-1,622,421,0,0
-595,603,0,0,0,0,0,0,0,0,0,-1,629,421,0,0
-588,603,0,0,0,0,0,0,0,0,0,-1,636,421,0,0
-581,603,0,0,0,0,0,0,0,0,0,-1,643,421,0,0
-574,603,0,0,0,0,0,0,0,0,0,-1,650,421,0,0
-567,603,0,0,0,0,0,0,0,0,0,-1,657,421,0,0
-560,603,0,0,0,0,0,0,0,0,0,-1,664,421,0,0
-553,603,0,0,0,0,0,0,0,0,0,-1,671,421,0,0
-546,603,0,0,0,0,0,0,0,0,0,-1,678,421,0,0
-539,603,0,0,0,0,0,0,0,0,0,-1,685,421,0,0
-532,603,0,0,0,0,0,0,0,0,0,-1,692,421,0,0
-525,603,0,0,0,0,0,0,0,0,0,-1,699,421,0,0
-518,603,0,0,0,0,0,0,0,0,0,-1,706,421,0,0
-511,603,0,0,0,0,0,0,0,0,0,-1,713,421,0,0
-504,603,0,0,0,0,0,0,0,0,0,-1,720,421,0,0
-497,603,0,0,0,0,0,0,0,0,0,-1,727,421,0,0
-490,603,0,0,0,0,0,0,0,0,0,-1,734,421,0,0
-483,603,0,0,0,0,0,0,0,0,0,-1,741,421,0,0
-476,603,0,0,0,0,0,0,0,0,0,-1,748,421,0,0
-469,603,0,0,0,0,0,0,0,0,0,-1,755,421,0,0
-462,603,0,0,0,0,0,0,0,0,0,-1,762,421,0,0
-455,603,0,0,0,0,0,0,0,0,0,-1,769,421,0,0
-448,603,0,0,0,0,0,0,0,0,0,-1,776,421,0,0
-441,603,0,0,0,0,0,0,0,0,0,-1,783,421,0,0
-434,603,0,0,0,0,0,0,0,0,0,-1,790,421,0,0
-427,603,0,0,0,0,0,0,0,0,0,-1,797,421,0,0
-420,603,0,0,0,0,0,0,0,0,0,-1,804,421,0,0
-413,603,0,0,0,0,0,0,0,0,0,-1,811,421,0,0
-406,603,0,0,0,0,0,0,0,0,0,-1,818,421,0,0
-399,603,0,0,0,0,0,0,0,0,0,-1,825,421,0,0
-392,603,0,0,0,0,0,0,0,0,0,-1,832,421,0,0
-385,603,0,0,0,0,0,0,0,0,0,-1,839,421,0,0
-378,603,0,0,0,0,0,0,0,0,0,-1,846,421,0,0
-371,603,0,0,0,0,0,0,0,0,0,-1,853,421,0,0
-364,603,0,0,0,0,0,0,0,0,0,-1,860,421,0,0
-357,603,0,0,0,0,0,0,0,0,0,-1,867,421,0,0
-350,603,0,0,0,0,0,0,0,0,0,-1,874,421,0,0
-343,603,0,0,0,0,0,0,0,0,0,-1,881,421,0,0
-336,603,0,0,0,0,0,0,0,0,0,-1,888,421,0,0
-329,603,4.09686,-17.9702,0,0,0,0,0,0,0,-1,895,421,4.09687,17.9702
-322,603,5.98431,-20.9071,0,0,0,0,0,0,0,-1,902,421,5.98431,20.9071
-315,603,5.99744,-20.4501,0,0,0,0,0,0,0,-1,909,421,5.99745,20.4501
-308,603,5.92249,-20.778,0,0,0,0,0,0,0,-1,916,421,5.92248,20.778
-301,603,2.72424,-20.9059,0,0,0,0,0,0,0,-1,923,421,2.72424,20.9059
-294,603,2.41553,-20.6767,0,0,0,0,0,0,0,-1,930,421,2.41554,20.6767
-287,603,1.91766,-21.2242,0,0,0,0,0,0,0,-1,937,421,1.91767,21.2242
-280,603,2.1037,-22.259,0,0,0,0,0,0,0,-1,944,421,2.10372,22.259
-273,603,4.45172,-26.0901,0,0,0,0,0,0,0,-1,951,421,4.45169,26.0901
-266,603,4.35834,-27.0997,0,0,0,0,0,0,0,-1,958,421,4.35835,27.0997
-259,603,4.43921,-27.897,0,0,0,0,0,0,0,-1,965,421,4.43922,27.897
-252,603,4.54938,-29.3533,0,0,0,0,0,0,0,-1,972,421,4.54937,29.3533
-245,603,4.56586,-29.7658,-0.0246424,-0.0356512,0.00932378,-0.0193194,-0.0409742,0.518745,0.0236692,0.033831,979,421,4.56589,29.7658
-238,603,4.44281,-30.2704,-0.0200823,-0.0252704,0.00721523,-0.015009,-0.0303438,0.61283,0.0175193,0.0227771,986,421,4.44279,30.2704
-231,603,4.3783,-30.8501,-0.015796,-0.0155952,0.00511169,-0.0105829,-0.0208083,0.795217,0.0120143,0.0141632,993,421,4.37832,30.8501
-224,603,4.36169,-31.4119,-0.0116385,-0.0055186,0.003047,-0.00426027,-0.0128968,1.17916,0.00758752,0.0143408,1000,421,4.36169,31.4119
-217,603,4.33575,-31.9221,-0.00765809,0.00224107,0.000761364,0.00229929,-0.0077163,1.49448,0.00605787,0.0129287,1007,421,4.33574,31.9221
-210,603,4.3089,-32.4219,-0.00423573,0.00862464,-0.00101638,0.00870447,-0.00431556,-1.49241,0.00765815,0.0108127,1014,421,4.3089,32.4219
-203,603,4.28613,-32.9292,-0.00291821,0.00955,-0.00140788,0.00970699,-0.00307521,-1.45974,0.00770378,0.016065,1021,421,4.2861,32.9292
-196,603,4.29358,-33.434,-0.00211299,0.00934704,-0.00171215,0.00959737,-0.00236332,-1.42562,0.00731441,0.0187077,1028,421,4.29354,33.434
-189,603,4.27234,-33.8804,-0.00159599,0.00847291,-0.00177958,0.00877818,-0.00190126,-1.40091,0.00657811,0.0155354,1035,421,4.27233,33.8804
-182,603,4.21521,-34.3039,-0.00111615,0.00685241,-0.00159973,0.00716157,-0.00142531,-1.37989,0.00531359,0.0112409,1042,421,4.21522,34.3039
-175,603,4.18616,-34.7284,-0.00077872,0.00482923,-0.00112618,0.00504694,-0.000996428,-1.37984,0.00374126,0.0117642,1049,421,4.18621,34.7284
-168,603,4.14758,-35.1666,-0.000632778,0.00299446,-0.000510996,0.00306507,-0.000703392,-1.43348,0.00231376,0.0144866,1056,421,4.1476,35.1666
-161,603,4.11401,-35.6333,-0.00046261,0.00145053,4.58708e-05,0.00145162,-0.000463709,1.54684,0.00115381,0.0136321,1063,421,4.11403,35.6333
-154,603,4.13013,-36.0549,-0.000258332,0.000187488,0.000574358,0.000580676,-0.00065152,0.970502,0.0007118,0.011983,1070,421,4.13007,36.0549
-147,603,4.13684,-36.437,-0.000128263,-0.00100588,0.00112339,0.000638981,-0.00177312,0.599205,0.00144303,0.0137372,1077,421,4.13687,36.437
-140,603,4.16113,-36.8441,-2.40461e-05,-0.0021667,0.001594,0.000825195,-0.00301594,0.489521,0.00233482,0.01218,1084,421,4.16107,36.8441
-133,603,4.13965,-37.2169,6.42919e-05,-0.00313664,0.00200518,0.00102942,-0.00410177,0.448588,0.00313451,0.012294,1091,421,4.13969,37.2169
-126,603,4.13196,-37.5864,0.000208946,-0.00388332,0.00233111,0.00126454,-0.00493892,0.425205,0.0037852,0.0114191,1098,421,4.13193,37.5864
-119,603,4.15857,-37.9769,0.000449332,-0.00444952,0.00254614,0.00153297,-0.00553316,0.402378,0.00429201,0.0114332,1105,421,4.1586,37.9769
-112,603,4.15845,-38.3462,0.000731775,-0.00488749,0.00262242,0.00176546,-0.00592118,0.375474,0.00464905,0.0172669,1112,421,4.15839,38.3462
-105,603,4.16187,-38.7022,0.00109325,-0.00527566,0.00263253,0.0020405,-0.00622291,0.3454,0.00497041,0.017507,1119,421,4.16188,38.7022
-98,603,4.17126,-38.9987,0.0015484,-0.00566215,0.00261065,0.00239436,-0.00650811,0.313366,0.00531962,0.0138577,1126,421,4.17122,38.9987
-91,603,4.18652,-39.3076,0.00214226,-0.00559044,0.00241028,0.00283202,-0.00628019,0.278723,0.00538503,0.0107803,1133,421,4.18646,39.3076
-84,603,4.22705,-39.6713,0.00284275,-0.00528522,0.00203606,0.00332426,-0.00576673,0.232224,0.00531145,0.0121952,1140,421,4.2271,39.6713
-77,603,4.27844,-40.0187,0.00350573,-0.00496642,0.00167018,0.0038231,-0.00528379,0.187781,0.00528036,0.01809,1147,421,4.27839,40.0187
-70,603,4.27979,-40.2723,0,0,0,0,0,0,0,-1,1154,421,4.27978,40.2724
-63,603,4.34875,-40.5047,0,0,0,0,0,0,0,-1,1161,421,4.34877,40.5047
-56,603,4.41064,-40.7961,0,0,0,0,0,0,0,-1,1168,421,4.41068,40.7961
-49,603,4.43726,-41.0073,0,0,0,0,0,0,0,-1,1175,421,4.43726,41.0073
-42,603,4.4657,-41.2121,0,0,0,0,0,0,0,-1,1182,421,4.46573,41.2121
-35,603,4.44775,-41.4146,0.000181206,-0.0318705,0.0158267,0.00667891,-0.0383682,0.389572,0.0280712,0.0419663,1189,421,4.44775,41.4146
-28,603,4.48547,-41.559,-0.000946545,-0.0323913,0.017425,0.00680069,-0.0401385,0.418359,0.0292903,0.0287172,1196,421,4.4855,41.559
-21,603,4.5603,-41.7363,-0.00190109,-0.0331904,0.017773,0.006132,-0.0412235,0.424501,0.0297378,0.0242157,1203,421,4.56026,41.7363
-14,603,4.67407,-41.8982,-0.00222213,-0.0334643,0.0173711,0.00551854,-0.041205,0.419195,0.0294822,0.0225937,1210,421,4.67406,41.8982
-7,603,4.76318,-42.0266,-0.000802174,-0.0348182,0.0158493,0.00543789,-0.0410583,0.375074,0.0293532,0.0253145,1217,421,4.76323,42.0266
0,603,4.79456,-42.2104,0.00191426,-0.0334041,0.0120167,0.00561504,-0.0371049,0.298752,0.026805,0.0309763,1224,421,4.79452,42.2104
7,603,4.82629,-42.1931,0.00382516,-0.0334959,0.00866236,0.00573772,-0.0354085,0.217303,0.0257323,0.0414326,1231,421,4.8263,42.1931
14,603,5.08765,-42.0585,0.0061388,-0.0339369,0.00495407,0.00674213,-0.0345402,0.121188,0.0255722,0.0417971,1238,421,5.0877,42.0585
21,603,5.11523,-42.1491,0.00864647,-0.0346433,0.000438993,0.00865092,-0.0346478,0.0101394,0.0264579,0.0328168,1245,421,5.11524,42.1491
28,603,5.1394,-42.23,0.011148,-0.0349939,-0.00398125,0.011489,-0.0353349,-0.0854411,0.0281781,0.0374071,1252,421,5.13942,42.23
35,603,5.22144,-42.2411,0.0127177,-0.0343425,-0.00802739,0.0140493,-0.0356741,-0.164386,0.029599,0.0472116,1259,421,5.22149,42.2411
42,603,5.36279,-42.5103,0.0146546,-0.0319145,-0.0138803,0.0184779,-0.0357378,-0.268779,0.0318257,0.0421053,1266,421,5.36278,42.5103
49,603,5.47705,-42.7413,0.0156877,-0.0283729,-0.0192215,0.0228944,-0.0355795,-0.358707,0.0340237,0.0213297,1273,421,5.4771,42.7413
56,603,5.38647,-42.6274,0.0151091,-0.0241116,-0.0225418,0.0253769,-0.0343793,-0.427416,0.0346305,0.0432926,1280,421,5.38644,42.6274
63,603,5.32617,-42.4991,0,0,0,0,0,0,0,-1,1287,421,5.32614,42.4991
70,603,5.49744,-42.5065,0,0,0,0,0,0,0,-1,1294,421,5.49739,42.5065
77,603,5.77087,-42.5443,0,0,0,0,0,0,0,-1,1301,421,5.77084,42.5443
84,603,5.81946,-42.8133,0,0,0,0,0,0,0,-1,1308,421,5.81946,42.8133
91,603,5.98059,-42.8214,0,0,0,0,0,0,0,-1,1315,421,5.9806,42.8214
98,603,6.15967,-42.8508,0,0,0,0,0,0,0,-1,1322,421,6.15962,42.8508
105,603,6.17725,-42.2247,0,0,0,0,0,0,0,-1,1329,421,6.17719,42.2247
112,603,6.20703,-42.1982,-0.00984986,0.0132013,-0.0215721,0.0261337,-0.0227823,-1.03075,0.0282638,0.043387,1336,421,6.20704,42.1982
119,603,6.39832,-42.1127,-0.0152611,0.0140244,-0.0167788,0.0216513,-0.022888,-1.14416,0.0257181,0.045902,1343,421,6.39836,42.1127
126,603,6.33264,-42.1381,0,0,0,0,0,0,0,-1,1350,421,6.33262,42.1381
133,603,6.45215,-41.7086,-0.0278441,0.0149883,-0.00570461,0.015735,-0.0285908,-1.44063,0.0259478,0.0469895,1357,421,6.45218,41.7087
140,603,6.57996,-41.531,-0.0338534,0.014517,-0.000108916,0.0145173,-0.0338536,-1.56854,0.0286611,0.034809,1364,421,6.5799,41.531
147,603,6.40991,-41.4432,-0.0401705,0.0138837,0.00670648,0.0147034,-0.0409902,1.44918,0.0333272,0.0280416,1371,421,6.40991,41.4432
154,603,6.39246,-41.4103,-0.0450741,0.0128019,0.012291,0.015304,-0.0475761,1.36997,0.0378641,0.0331328,1378,421,6.39249,41.4103
161,603,6.57019,-41.2095,-0.046715,0.0105172,0.0147511,0.0140954,-0.0502933,1.33282,0.0390839,0.0330301,1385,421,6.57025,41.2095
168,603,6.64111,-40.9503,-0.0467864,0.00903161,0.0161549,0.01337,-0.0511248,1.30844,0.0393053,0.0350839,1392,421,6.64117,40.9503
175,603,6.8418,-40.7296,-0.0443367,0.00718386,0.0164076,0.0119654,-0.0491182,1.28723,0.0373778,0.0399147,1399,421,6.84184,40.7296
182,603,6.94019,-40.5284,-0.0386299,0.00608588,0.0142628,0.0102479,-0.0427919,1.28687,0.0324872,0.0457293,1406,421,6.94023,40.5283
189,603,6.89722,-40.2121,-0.0325749,0.00505791,0.0119843,0.00855028,-0.0360672,1.28724,0.0273442,0.0386341,1413,421,6.8972,40.2121
196,603,6.82751,-39.8771,-0.0248238,0.00333549,0.00961103,0.00630308,-0.0277914,1.27131,0.0209471,0.0281308,1420,421,6.82748,39.8771
203,603,6.83313,-39.6435,-0.0167455,0.00196635,0.0063507,0.00391815,-0.0186973,1.27262,0.0139555,0.016777,1427,421,6.83308,39.6435
210,603,6.85144,-39.4095,-0.00670546,-0.000745443,0.00133977,-0.000458125,-0.00699278,1.35954,0.00451689,0.0133411,1434,421,6.85148,39.4095
217,603,6.87427,-39.0324,0.00303504,-0.00231794,-0.0019418,0.00366524,-0.00294814,-0.313819,0.00382572,0.013815,1441,421,6.87429,39.0324
224,603,6.93323,-38.6642,0.00243821,-0.00104146,-0.00123079,0.00282954,-0.00143279,-0.307842,0.00250451,0.0177509,1448,421,6.93318,38.6642
231,603,6.94775,-38.3238,0.00192273,0.000369275,-0.000435654,0.00203657,0.000255441,-0.25558,0.00128108,0.0152914,1455,421,6.9477,38.3238
238,603,6.9541,-37.9624,0.00174881,0.00122686,2.74188e-05,0.00175025,0.00122543,0.0523396,0.00103714,0.0112941,1462,421,6.95411,37.9624
245,603,6.98303,-37.5917,0.00172259,0.00190026,0.000286501,0.00211139,0.00151147,0.935732,0.00125631,0.0120098,1469,421,6.98304,37.5917
252,603,6.99731,-37.1838,0.00164783,0.00253651,0.000553071,0.00280163,0.00138271,1.12381,0.00161756,0.0108511,1476,421,6.99736,37.1838
259,603,6.9928,-36.7798,0.00151925,0.0029764,0.000796854,0.00332755,0.00116811,1.15573,0.00194937,0.0107618,1483,421,6.99282,36.7797
266,603,6.99133,-36.3571,0.00138664,0.00334691,0.0010025,0.0037688,0.000964752,1.17246,0.00226065,0.0123852,1490,421,6.99131,36.3571
273,603,6.98865,-35.9205,0.00129264,0.00381451,0.00125337,0.00433147,0.000775683,1.1796,0.00266696,0.0112909,1497,421,6.98859,35.9205
280,603,6.96863,-35.4773,0.00121778,0.00427442,0.00156614,0.00493437,0.000557827,1.17199,0.00312031,0.0122029,1504,421,6.96862,35.4773
287,603,6.95129,-35.0208,0.00116127,0.00484969,0.00195435,0.0056926,0.000318369,1.1636,0.00369352,0.0115204,1511,421,6.95133,35.0209
294,603,6.94055,-34.5809,0.00103828,0.00548821,0.00235978,0.00650655,1.99415e-05,1.1634,0.00433107,0.00897592,1518,421,6.94061,34.5809
301,603,6.94824,-34.1327,0.00088016,0.00616899,0.00278529,0.00736525,-0.000316099,1.16513,0.00501885,0.0105663,1525,421,6.94825,34.1327
308,603,6.93884,-33.6667,0.000747815,0.00684055,0.00323865,0.00824044,-0.000652078,1.1628,0.00572338,0.0169173,1532,421,6.93889,33.6667
315,603,6.88879,-33.2018,0.00060593,0.00767816,0.00371824,0.00927327,-0.000989177,1.16555,0.0065369,0.0157887,1539,421,6.88883,33.2018
322,603,6.85608,-32.7092,0.000380903,0.00837691,0.00418492,0.0101666,-0.0014088,1.16668,0.00729285,0.0144883,1546,421,6.85612,32.7092
329,603,6.83118,-32.2022,0.000129106,0.00896537,0.00466023,0.0109689,-0.00187442,1.16477,0.00801083,0.0107783,1553,421,6.83122,32.2023
336,603,6.82593,-31.7105,-0.000210746,0.00971113,0.00510608,0.0118694,-0.00236901,1.17089,0.00880942,0.00926617,1560,421,6.82599,31.7105
343,603,6.80286,-31.1996,-0.000543271,0.0101275,0.0052931,0.0123076,-0.00272342,1.18009,0.00924755,0.0112874,1567,421,6.80283,31.1997
350,603,6.75732,-30.6683,-0.000784214,0.0109995,0.0056134,0.0132454,-0.00303019,1.1902,0.00999467,0.0208461,1574,421,6.7573,30.6683
357,603,6.74634,-30.0711,-0.00117233,0.0116567,0.00603902,0.0140522,-0.00356779,1.19317,0.0107565,0.0266762,1581,421,6.74635,30.0711
364,603,6.72437,-29.451,-0.00169479,0.0122337,0.00638159,0.0147154,-0.00417647,1.19991,0.011459,0.0343737,1588,421,6.72441,29.451
371,603,6.625,-28.728,0,0,0,0,0,0,0,-1,1595,421,6.62497,28.728
378,603,6.52942,-28.5593,0,0,0,0,0,0,0,-1,1602,421,6.52944,28.5593
385,603,6.37402,-27.9257,0,0,0,0,0,0,0,-1,1609,421,6.37405,27.9257
392,603,4.90527,-19.605,0,0,0,0,0,0,0,-1,1616,421,4.90526,19.605
399,603,2.94299,0.638214,0,0,0,0,0,0,0,-1,1623,421,2.94293,-0.638215
406,603,3.01917,-2.37219,0,0,0,0,0,0,0,-1,1630,421,3.01915,2.37219
413,603,2.38928,-2.41275,0,0,0,0,0,0,0,-1,1637,421,2.38926,2.41274
420,603,8.22217,-23.7068,0,0,0,0,0,0,0,-1,1644,421,8.22215,23.7068
427,603,8.20386,-23.1278,0,0,0,0,0,0,0,-1,1651,421,8.2039,23.1278
434,603,8.01489,-22.5655,0,0,0,0,0,0,0,-1,1658,421,8.01493,22.5655
441,603,8.00122,-22.3072,0,0,0,0,0,0,0,-1,1665,421,8.00116,22.3071
448,603,1.14355,-4.59842,0,0,0,0,0,0,0,-1,1672,421,1.14355,4.59841
455,603,0,0,0,0,0,0,0,0,0,-1,1679,421,0,0
462,603,0,0,0,0,0,0,0,0,0,-1,1686,421,0,0
469,603,0,0,0,0,0,0,0,0,0,-1,1693,421,0,0
476,603,0,0,0,0,0,0,0,0,0,-1,1700,421,0,0
483,603,0,0,0,0,0,0,0,0,0,-1,1707,421,0,0
490,603,0,0,0,0,0,0,0,0,0,-1,1714,421,0,0
497,603,0,0,0,0,0,0,0,0,0,-1,1721,421,0,0
504,603,0,0,0,0,0,0,0,0,0,-1,1728,421,0,0
511,603,0,0,0,0,0,0,0,0,0,-1,1735,421,0,0
518,603,0,0,0,0,0,0,0,0,0,-1,1742,421,0,0
525,603,0,0,0,0,0,0,0,0,0,-1,1749,421,0,0
532,603,0,0,0,0,0,0,0,0,0,-1,1756,421,0,0
539,603,0,0,0,0,0,0,0,0,0,-1,1763,421,0,0
546,603,0,0,0,0,0,0,0,0,0,-1,1770,421,0,0
553,603,0,0,0,0,0,0,0,0,0,-1,1777,421,0,0
560,603,0,0,0,0,0,0,0,0,0,-1,1784,421,0,0
567,603,0,0,0,0,0,0,0,0,0,-1,1791,421,0,0
574,603,0,0,0,0,0,0,0,0,0,-1,1798,421,0,0
581,603,0,0,0,0,0,0,0,0,0,-1,1805,421,0,0
588,603,0,0,0,0,0,0,0,0,0,-1,1812,421,0,0
595,603,0,0,0,0,0,0,0,0,0,-1,1819,421,0,0
602,603,0,0,0,0,0,0,0,0,0,-1,1826,421,0,0
609,603,0,0,0,0,0,0,0,0,0,-1,1833,421,0,0
616,603,0,0,0,0,0,0,0,0,0,-1,1840,421,0,0
623,603,0,0,0,0,0,0,0,0,0,-1,1847,421,0,0
630,603,0,0,0,0,0,0,0,0,0,-1,1854,421,0,0
637,603,0,0,0,0,0,0,0,0,0,-1,1861,421,0,0
644,603,0,0,0,0,0,0,0,0,0,-1,1868,421,0,0
651,603,0,0,0,0,0,0,0,0,0,-1,1875,421,0,0
658,603,0,0,0,0,0,0,0,0,0,-1,1882,421,0,0
665,603,0,0,0,0,0,0,0,0,0,-1,1889,421,0,0
672,603,0,0,0,0,0,0,0,0,0,-1,1896,421,0,0
679,603,0,0,0,0,0,0,0,0,0,-1,1903,421,0,0
686,603,0,0,0,0,0,0,0,0,0,-1,1910,421,0,0
693,603,0,0,0,0,0,0,0,0,0,-1,1917,421,0,0
700,603,0,0,0,0,0,0,0,0,0,-1,1924,421,0,0
707,603,0,0,0,0,0,0,0,0,0,-1,1931,421,0,0
714,603,0,0,0,0,0,0,0,0,0,-1,1938,421,0,0
721,603,0,0,0,0,0,0,0,0,0,-1,1945,421,0,0
728,603,0,0,0,0,0,0,0,0,0,-1,1952,421,0,0
735,603,0,0,0,0,0,0,0,0,0,-1,1959,421,0,0
742,603,0,0,0,0,0,0,0,0,0,-1,1966,421,0,0
749,603,0,0,0,0,0,0,0,0,0,-1,1973,421,0,0
756,603,0,0,0,0,0,0,0,0,0,-1,1980,421,0,0
763,603,0,0,0,0,0,0,0,0,0,-1,1987,421,0,0
770,603,0,0,0,0,0,0,0,0,0,-1,1994,421,0,0
777,603,0,0,0,0,0,0,0,0,0,-1,2001,421,0,0
784,603,0,0,0,0,0,0,0,0,0,-1,2008,421,0,0
791,603,0,0,0,0,0,0,0,0,0,-1,2015,421,0,0
798,603,0,0,0,0,0,0,0,0,0,-1,2022,421,0,0
805,603,0,0,0,0,0,0,0,0,0,-1,2029,421,0,0
812,603,0,0,0,0,0,0,0,0,0,-1,2036,421,0,0
-700,596,0,0,0,0,0,0,0,0,0,-1,524,428,0,0
-693,596,0,0,0,0,0,0,0,0,0,-1,531,428,0,0
-686,596,0,0,0,0,0,0,0,0,0,-1,538,428,0,0
-679,596,0,0,0,0,0,0,0,0,0,-1,545,428,0,0
-672,596,0,0,0,0,0,0,0,0,0,-1,552,428,0,0
-665,596,0,0,0,0,0,0,0,0,0,-1,559,428,0,0
-658,596,0,0,0,0,0,0,0,0,0,-1,566,428,0,0
-651,596,0,0,0,0,0,0,0,0,0,-1,573,428,0,0
-644,596,0,0,0,0,0,0,0,0,0,-1,580,428,0,0
-637,596,0,0,0,0,0,0,0,0,0,-1,587,428,0,0
-630,596,0,0,0,0,0,0,0,0,0,-1,594,428,0,0
-623,596,0,0,0,0,0,0,0,0,0,-1,601,428,0,0
-616,596,0,0,0,0,0,0,0,0,0,-1,608,428,0,0
-609,596,0,0,0,0,0,0,0,0,0,-1,615,428,0,0
-602,596,0,0,0,0,0,0,0,0,0,-1,622,428,0,0
-595,596,0,0,0,0,0,0,0,0,0,-1,629,428,0,0
-588,596,0,0,0,0,0,0,0,0,0,-1,636,428,0,0
-581,596,0,0,0,0,0,0,0,0,0,-1,643,428,0,0
-574,596,0,0,0,0,0,0,0,0,0,-1,650,428,0,0
-567,596,0,0,0,0,0,0,0,0,0,-1,657,428,0,0
-560,596,0,0,0,0,0,0,0,0,0,-1,664,428,0,0
-553,596,0,0,0,0,0,0,0,0,0,-1,671,428,0,0
-546,596,0,0,0,0,0,0,0,0,0,-1,678,428,0,0
-539,596,0,0,0,0,0,0,0,0,0,-1,685,428,0,0
-532,596,0,0,0,0,0,0,0,0,0,-1,692,428,0,0
-525,596,0,0,0,0,0,0,0,0,0,-1,699,428,0,0
-518,596,0,0,0,0,0,0,0,0,0,-1,706,428,0,0
-511,596,0,0,0,0,0,0,0,0,0,-1,713,428,0,0
-504,596,0,0,0,0,0,0,0,0,0,-1,720,428,0,0
-497,596,0,0,0,0,0,0,0,0,0,-1,727,428,0,0
-490,596,0,0,0,0,0,0,0,0,0,-1,734,428,0,0
-483,596,0,0,0,0,0,0,0,0,0,-1,741,428,0,0
-476,596,0,0,0,0,0,0,0,0,0,-1,748,428,0,0
-469,596,0,0,0,0,0,0,0,0,0,-1,755,428,0,0
-462,596,0,0,0,0,0,0,0,0,0,-1,762,428,0,0
-455,596,0,0,0,0,0,0,0,0,0,-1,769,428,0,0
-448,596,0,0,0,0,0,0,0,0,0,-1,776,428,0,0
-441,596,0,0,0,0,0,0,0,0,0,-1,783,428,0,0
-434,596,0,0,0,0,0,0,0,0,0,-1,790,428,0,0
-427,596,0,0,0,0,0,0,0,0,0,-1,797,428,0,0
-420,596,0,0,0,0,0,0,0,0,0,-1,804,428,0,0
-413,596,0,0,0,0,0,0,0,0,0,-1,811,428,0,0
-406,596,0,0,0,0,0,0,0,0,0,-1,818,428,0,0
-399,596,0,0,0,0,0,0,0,0,0,-1,825,428,0,0
-392,596,0,0,0,0,0,0,0,0,0,-1,832,428,0,0
-385,596,0,0,0,0,0,0,0,0,0,-1,839,428,0,0
-378,596,0,0,0,0,0,0,0,0,0,-1,846,428,0,0
-371,596,0,0,0,0,0,0,0,0,0,-1,853,428,0,0
-364,596,0,0,0,0,0,0,0,0,0,-1,860,428,0,0
-357,596,0,0,0,0,0,0,0,0,0,-1,867,428,0,0
-350,596,0,0,0,0,0,0,0,0,0,-1,874,428,0,0
-343,596,0,0,0,0,0,0,0,0,0,-1,881,428,0,0
-336,596,-0.98291,-20.0836,0,0,0,0,0,0,0,-1,888,428,-0.982933,20.0836
-329,596,4.43048,-20.1666,0,0,0,0,0,0,0,-1,895,428,4.43045,20.1666
-322,596,4.29657,-19.996,0,0,0,0,0,0,0,-1,902,428,4.29655,19.996
-315,596,4.20044,-19.8317,0,0,0,0,0,0,0,-1,909,428,4.20045,19.8317
-308,596,0.254761,-20.841,0,0,0,0,0,0,0,-1,916,428,0.254731,20.841
-301,596,5.13257,-26.8527,0,0,0,0,0,0,0,-1,923,428,5.1326,26.8527
-294,596,3.50983,-25.2827,0,0,0,0,0,0,0,-1,930,428,3.50982,25.2827
-287,596,4.14709,-26.2843,0,0,0,0,0,0,0,-1,937,428,4.1471,26.2843
-280,596,3.95282,-27.3487,0,0,0,0,0,0,0,-1,944,428,3.95282,27.3487
-273,596,3.92676,-27.1052,0,0,0,0,0,0,0,-1,951,428,3.92676,27.1052
-266,596,3.93469,-27.64,0,0,0,0,0,0,0,-1,958,428,3.93468,27.64
-259,596,3.94019,-28.3375,-0.0233155,-0.0389835,0.00875868,-0.0193985,-0.0429005,0.420533,0.0248064,0.0383131,965,428,3.94018,28.3375
-252,596,3.93842,-29.2473,-0.0204457,-0.0313174,0.00736618,-0.0167268,-0.0350363,0.467526,0.0202351,0.0201858,972,428,3.93844,29.2473
-245,596,3.95911,-29.8874,-0.017111,-0.0234206,0.00581975,-0.013646,-0.0268856,0.537024,0.015523,0.0154461,979,428,3.9591,29.8874
-238,596,3.95239,-30.4258,-0.0136552,-0.0160648,0.0043323,-0.0103633,-0.0193567,0.649777,0.011185,0.0135847,986,428,3.95238,30.4257
-231,596,3.89502,-30.944,-0.0105083,-0.0093859,0.0029303,-0.00696355,-0.0129307,0.880012,0.00747291,0.014155,993,428,3.89505,30.944
-224,596,3.88177,-31.4692,-0.0075214,-0.00260789,0.00158088,-0.0021432,-0.00798609,1.28491,0.00477285,0.0140898,1000,428,3.88178,31.4692
-217,596,3.85895,-31.9776,-0.00481344,0.00225857,0.000177883,0.00226305,-0.00481791,1.54566,0.00417595,0.0142649,1007,428,3.85897,31.9776
-210,596,3.85199,-32.4546,-0.00252804,0.00607011,-0.000894757,0.00616224,-0.00262016,-1.4682,0.00520617,0.012624,1014,428,3.85199,32.4546
-203,596,3.82458,-32.9154,-0.00162311,0.00603261,-0.000934971,0.00614514,-0.00173565,-1.45101,0.00478149,0.0155263,1021,428,3.82454,32.9154
-196,596,3.82483,-33.3909,-0.00103946,0.00541636,-0.000952947,0.00555409,-0.00117719,-1.42726,0.00415114,0.0164523,1028,428,3.82485,33.3909
-189,596,3.7948,-33.8605,-0.000633206,0.00445723,-0.000833735,0.0045903,-0.00076628,-1.41252,0.00334502,0.0136381,1035,428,3.79486,33.8605
-182,596,3.77258,-34.2822,-0.00022869,0.00296615,-0.000512476,0.00304634,-0.000308882,-1.41558,0.00214129,0.0122609,1042,428,3.7726,34.2822
-175,596,3.76367,-34.7137,4.0715e-05,0.00118514,4.29815e-05,0.00118675,3.9103e-05,1.53331,0.000778459,0.0143507,1049,428,3.76368,34.7137
-168,596,3.74451,-35.1677,6.30549e-05,-0.000608175,0.000754641,0.000553346,-0.00109847,0.576165,0.000970831,0.0168877,1056,428,3.74445,35.1677
-161,596,3.72253,-35.6127,0.000131839,-0.00207888,0.0013975,0.000808283,-0.00275532,0.450797,0.00215739,0.0157055,1063,428,3.72247,35.6127
-154,596,3.71155,-36.0362,0.000243786,-0.00330931,0.00202695,0.00116254,-0.00422806,0.425569,0.00327572,0.0126947,1070,428,3.7115,36.0362
-147,596,3.74524,-36.4201,0.00029107,-0.0045026,0.00269909,0.00150393,-0.00571547,0.422321,0.00439818,0.0127254,1077,428,3.74526,36.4201
-140,596,3.76074,-36.8058,0.000301509,-0.00573683,0.00332849,0.00177614,-0.00721146,0.417045,0.0054962,0.0141946,1084,428,3.76075,36.8058
-133,596,3.76318,-37.221,0.000302473,-0.00676311,0.00387808,0.00201564,-0.00847629,0.415978,0.00642894,0.0150556,1091,428,3.76312,37.221
-126,596,3.7771,-37.5832,0.00040692,-0.00759077,0.00429467,0.0022762,-0.00946005,0.410526,0.00718661,0.0128847,1098,428,3.77709,37.5832
-119,596,3.81543,-37.9734,0.00059358,-0.00823292,0.00456505,0.00252985,-0.0101692,0.401152,0.00776142,0.0157765,1105,428,3.81538,37.9735
-112,596,3.77954,-38.3401,0.000847181,-0.0087392,0.00462556,0.00271511,-0.0106071,0.383801,0.00812902,0.0168158,1112,428,3.77948,38.3401
-105,596,3.81665,-38.7017,0.00122649,-0.00913543,0.00462931,0.0029934,-0.0109023,0.364612,0.00844476,0.0192788,1119,428,3.81664,38.7017
-98,596,3.85535,-39.0164,0.00173523,-0.00944468,0.00456563,0.0033628,-0.0110722,0.342438,0.00872128,0.0191008,1126,428,3.85538,39.0165
-91,596,3.81287,-39.3916,0,0,0,0,0,0,0,-1,1133,428,3.81281,39.3916
-84,596,3.91626,-39.6718,0,0,0,0,0,0,0,-1,1140,428,3.9163,39.6718
-77,596,4.02954,-40.0728,0,0,0,0,0,0,0,-1,1147,428,4.02955,40.0728
-70,596,3.50696,-32.137,0,0,0,0,0,0,0,-1,1154,428,3.50696,32.137
-63,596,1.95569,-12.2758,0,0,0,0,0,0,0,-1,1161,428,1.95563,12.2759
-56,596,1.60107,-10.5827,0,0,0,0,0,0,0,-1,1168,428,1.60108,10.5827
-49,596,1.59473,-10.0393,0,0,0,0,0,0,0,-1,1175,428,1.59472,10.0393
-42,596,1.99585,-6.6246,0,0,0,0,0,0,0,-1,1182,428,1.99586,6.62459
-35,596,4.01697,-41.1408,0,0,0,0,0,0,0,-1,1189,428,4.01699,41.1408
-28,596,4.23669,-41.3617,0,0,0,0,0,0,0,-1,1196,428,4.23673,41.3617
-21,596,4.29822,-41.5601,0,0,0,0,0,0,0,-1,1203,428,4.29816,41.5601
-14,596,4.47656,-41.7094,0,0,0,0,0,0,0,-1,1210,428,4.47659,41.7094
-7,596,4.57336,-41.7752,0,0,0,0,0,0,0,-1,1217,428,4.57333,41.7752
0,596,4.61157,-42.0736,0,0,0,0,0,0,0,-1,1224,428,4.61159,42.0736
7,596,5.11804,-41.6124,0,0,0,0,0,0,0,-1,1231,428,5.11803,41.6124
14,596,5.06177,-41.4364,0,0,0,0,0,0,0,-1,1238,428,5.06176,41.4364
21,596,4.60815,-39.7758,0,0,0,0,0,0,0,-1,1245,428,4.60811,39.7758
28,596,5.02173,-41.5893,0,0,0,0,0,0,0,-1,1252,428,5.02176,41.5893
35,596,4.99292,-41.6147,0,0,0,0,0,0,0,-1,1259,428,4.99292,41.6148
42,596,4.96411,-41.6402,0,0,0,0,0,0,0,-1,1266,428,4.96408,41.6402
49,596,6.27319,-43.0926,0.0208297,-0.0343576,-0.0258273,0.031031,-0.0445589,-0.376172,0.0438742,0.0475106,1273,428,6.27316,43.0926
56,596,5.85938,-42.6162,0.0200761,-0.0292243,-0.030104,0.0343345,-0.0434827,-0.442338,0.0450312,0.0442679,1280,428,5.8594,42.6162
63,596,5.41772,-42.2136,0,0,0,0,0,0,0,-1,1287,428,5.41777,42.2136
70,596,7.5874,-44.3734,0,0,0,0,0,0,0,-1,1294,428,7.58736,44.3734
77,596,4.64038,-41.8808,0,0,0,0,0,0,0,-1,1301,428,4.6404,41.8808
84,596,9.36499,-44.9992,0,0,0,0,0,0,0,-1,1308,428,9.365,44.9992
91,596,8.8573,-46.0789,0,0,0,0,0,0,0,-1,1315,428,8.85734,46.0788
98,596,8.72668,-47.1928,0,0,0,0,0,0,0,-1,1322,428,8.72665,47.1928
105,596,8.60107,-48.2405,0,0,0,0,0,0,0,-1,1329,428,8.60112,48.2405
112,596,6.43726,-41.8434,0,0,0,0,0,0,0,-1,1336,428,6.43722,41.8434
119,596,6.80444,-41.6222,0,0,0,0,0,0,0,-1,1343,428,6.80445,41.6222
126,596,6.45776,-44.6136,0,0,0,0,0,0,0,-1,1350,428,6.45776,44.6136
133,596,6.70056,-41.1602,0,0,0,0,0,0,0,-1,1357,428,6.70055,41.1602
140,596,6.95752,-40.9091,0,0,0,0,0,0,0,-1,1364,428,6.95753,40.9091
147,596,6.63977,-40.8186,0,0,0,0,0,0,0,-1,1371,428,6.63974,40.8186
154,596,6.46948,-41.088,0,0,0,0,0,0,0,-1,1378,428,6.46948,41.088
161,596,6.93518,-40.9865,0,0,0,0,0,0,0,-1,1385,428,6.93519,40.9866
168,596,7.07153,-40.57,0,0,0,0,0,0,0,-1,1392,428,7.07149,40.57
175,596,7.18445,-40.3391,0,0,0,0,0,0,0,-1,1399,428,7.18441,40.3391
182,596,7.33594,-40.3714,0,0,0,0,0,0,0,-1,1406,428,7.33588,40.3714
189,596,7.27917,-40.1062,0,0,0,0,0,0,0,-1,1413,428,7.27919,40.1062
196,596,7.20557,-39.5974,0,0,0,0,0,0,0,-1,1420,428,7.20551,39.5974
203,596,7.12671,-39.5679,0,0,0,0,0,0,0,-1,1427,428,7.12671,39.5679
210,596,7.14832,-39.4131,0,0,0,0,0,0,0,-1,1434,428,7.14828,39.4131
217,596,7.20227,-39.0158,0,0,0,0,0,0,0,-1,1441,428,7.20231,39.0158
224,596,7.29614,-38.6279,0,0,0,0,0,0,0,-1,1448,428,7.29612,38.6279
231,596,7.35486,-38.3256,0.0022951,-0.000725456,-0.0015984,0.00298387,-0.00141423,-0.406868,0.00259258,0.0238997,1455,428,7.35484,38.3255
238,596,7.33643,-37.9357,0.00209928,0.000218824,-0.00110511,0.00261001,-0.000291913,-0.43292,0.00184503,0.0164859,1462,428,7.33647,37.9357
245,596,7.35986,-37.5749,0.00211477,0.000864296,-0.000850809,0.00254537,0.000433693,-0.468524,0.00157241,0.0136036,1469,428,7.35983,37.5749
252,596,7.39636,-37.1754,0.00205624,0.00145045,-0.000523313,0.002358,0.00114869,-0.523052,0.00136154,0.0107964,1476,428,7.39639,37.1754
259,596,7.40076,-36.7594,0.00195022,0.00173015,-0.000209454,0.00207679,0.00160359,-0.543542,0.00125684,0.00944772,1483,428,7.4007,36.7594
266,596,7.38757,-36.3568,0.00183567,0.00189213,3.91196e-05,0.00191214,0.00181566,1.09793,0.00124385,0.0112316,1490,428,7.38751,36.3569
273,596,7.39453,-35.9309,0.0017716,0.00220411,0.000345542,0.00239549,0.00158022,1.065,0.00140634,0.0125636,1497,428,7.39457,35.9309
280,596,7.40137,-35.4958,0.0017174,0.0024758,0.000689893,0.00288384,0.00130936,1.03668,0.00166733,0.0122307,1504,428,7.40141,35.4958
287,596,7.39697,-35.0557,0.00167733,0.0028343,0.00107164,0.00347363,0.00103801,1.03289,0.0020589,0.0111742,1511,428,7.39692,35.0557
294,596,7.38611,-34.6015,0.00155538,0.0033311,0.00145165,0.00414488,0.000741598,1.05986,0.00255223,0.00848651,1518,428,7.38615,34.6015
301,596,7.38721,-34.1326,0.00137324,0.00386086,0.00182565,0.00482613,0.000407965,1.08443,0.00309042,0.0094965,1525,428,7.38718,34.1326
308,596,7.38989,-33.6646,0.00121874,0.00434355,0.00220525,0.00548378,7.8507e-05,1.0936,0.00362997,0.015805,1532,428,7.38995,33.6646
315,596,7.33667,-33.1815,0.00103153,0.00501736,0.00257577,0.00628117,-0.000232282,1.11465,0.00426698,0.0158763,1539,428,7.33662,33.1814
322,596,7.32458,-32.6766,0.000764144,0.005624,0.00293782,0.0070066,-0.000618453,1.13093,0.00489027,0.0129854,1546,428,7.32461,32.6766
329,596,7.30505,-32.1917,0.000457258,0.00613588,0.00326116,0.00762055,-0.00102742,1.14358,0.00545519,0.00998313,1553,428,7.30508,32.1917
336,596,7.26953,-31.7111,0.000104642,0.00665236,0.00354869,0.00820669,-0.00144969,1.15797,0.00601289,0.00926745,1560,428,7.26952,31.7111
343,596,7.27197,-31.2097,-0.000221751,0.00712481,0.00378572,0.00872644,-0.00182338,1.17056,0.00651109,0.0119162,1567,428,7.27203,31.2097
350,596,7.26672,-30.6737,-0.000481514,0.00798103,0.00413229,0.0096641,-0.00216458,1.18401,0.00727245,0.0120413,1574,428,7.2667,30.6737
357,596,7.23474,-30.149,-0.000812228,0.00868986,0.00454174,0.0105115,-0.00263384,1.18936,0.00803088,0.00981019,1581,428,7.23479,30.149
364,596,7.19788,-29.5788,-0.00121043,0.00937303,0.00490358,0.0112957,-0.0031331,1.19712,0.00876355,0.0121336,1588,428,7.19786,29.5788
371,596,7.17053,-29.0441,-0.00164242,0.0101539,0.00521667,0.0121298,-0.0036184,1.20871,0.00952463,0.0161495,1595,428,7.17048,29.0441
378,596,7.08545,-28.5596,-0.00174037,0.0114615,0.00513479,0.0132234,-0.00350236,1.24024,0.0101858,0.0227214,1602,428,7.08542,28.5596
385,596,7.005,-27.9517,-0.00127967,0.0125671,0.00486673,0.0141065,-0.00281905,1.26445,0.0104713,0.0426264,1609,428,7.00505,27.9517
392,596,6.92969,-27.4059,0,0,0,0,0,0,0,-1,1616,428,6.92963,27.4059
399,596,6.97229,-26.1035,0,0,0,0,0,0,0,-1,1623,428,6.97235,26.1034
406,596,3.60034,-10.1525,0,0,0,0,0,0,0,-1,1630,428,3.60028,10.1525
413,596,3.39124,-2.63528,0,0,0,0,0,0,0,-1,1637,428,3.39122,2.6353
420,596,2.6344,-3.06308,0,0,0,0,0,0,0,-1,1644,428,2.63439,3.06308
427,596,7.61975,-22.7222,0,0,0,0,0,0,0,-1,1651,428,7.61974,22.7222
434,596,5.09753,-22.5213,0,0,0,0,0,0,0,-1,1658,428,5.09755,22.5213
441,596,7.19043,-22.087,0,0,0,0,0,0,0,-1,1665,428,7.19046,22.087
448,596,1.0769,0.0083313,0,0,0,0,0,0,0,-1,1672,428,1.07684,-0.00832231
455,596,2.00769,-1.43329,0,0,0,0,0,0,0,-1,1679,428,2.00765,1.4333
462,596,0,0,0,0,0,0,0,0,0,-1,1686,428,0,0
469,596,0,0,0,0,0,0,0,0,0,-1,1693,428,0,0
476,596,0,0,0,0,0,0,0,0,0,-1,1700,428,0,0
483,596,0,0,0,0,0,0,0,0,0,-1,1707,428,0,0
490,596,0,0,0,0,0,0,0,0,0,-1,1714,428,0,0
497,596,0,0,0,0,0,0,0,0,0,-1,1721,428,0,0
504,596,0,0,0,0,0,0,0,0,0,-1,1728,428,0,0
511,596,0,0,0,0,0,0,0,0,0,-1,1735,428,0,0
518,596,0,0,0,0,0,0,0,0,0,-1,1742,428,0,0
525,596,0,0,0,0,0,0,0,0,0,-1,1749,428,0,0
532,596,0,0,0,0,0,0,0,0,0,-1,1756,428,0,0
539,596,0,0,0,0,0,0,0,0,0,-1,1763,428,0,0
546,596,0,0,0,0,0,0,0,0,0,-1,1770,428,0,0
553,596,0,0,0,0,0,0,0,0,0,-1,1777,428,0,0
560,596,0,0,0,0,0,0,0,0,0,-1,1784,428,0,0
567,596,0,0,0,0,0,0,0,0,0,-1,1791,428,0,0
574,596,0,0,0,0,0,0,0,0,0,-1,1798,428,0,0
581,596,0,0,0,0,0,0,0,0,0,-1,1805,428,0,0
588,596,0,0,0,0,0,0,0,0,0,-1,1812,428,0,0
595,596,0,0,0,0,0,0,0,0,0,-1,1819,428,0,0
602,596,0,0,0,0,0,0,0,0,0,-1,1826,428,0,0
609,596,0,0,0,0,0,0,0,0,0,-1,1833,428,0,0
616,596,0,0,0,0,0,0,0,0,0,-1,1840,428,0,0
623,596,0,0,0,0,0,0,0,0,0,-1,1847,428,0,0
630,596,0,0,0,0,0,0,0,0,0,-1,1854,428,0,0
637,596,0,0,0,0,0,0,0,0,0,-1,1861,428,0,0
644,596,0,0,0,0,0,0,0,0,0,-1,1868,428,0,0
651,596,0,0,0,0,0,0,0,0,0,-1,1875,428,0,0
658,596,0,0,0,0,0,0,0,0,0,-1,1882,428,0,0
665,596,0,0,0,0,0,0,0,0,0,-1,1889,428,0,0
672,596,0,0,0,0,0,0,0,0,0,-1,1896,428,0,0
679,596,0,0,0,0,0,0,0,0,0,-1,1903,428,0,0
686,596,0,0,0,0,0,0,0,0,0,-1,1910,428,0,0
693,596,0,0,0,0,0,0,0,0,0,-1,1917,428,0,0
700,596,0,0,0,0,0,0,0,0,0,-1,1924,428,0,0
707,596,0,0,0,0,0,0,0,0,0,-1,1931,428,0,0
714,596,0,0,0,0,0,0,0,0,0,-1,1938,428,0,0
721,596,0,0,0,0,0,0,0,0,0,-1,1945,428,0,0
728,596,0,0,0,0,0,0,0,0,0,-1,1952,428,0,0
735,596,0,0,0,0,0,0,0,0,0,-1,1959,428,0,0
742,596,0,0,0,0,0,0,0,0,0,-1,1966,428,0,0
749,596,0,0,0,0,0,0,0,0,0,-1,1973,428,0,0
756,596,0,0,0,0,0,0,0,0,0,-1,1980,428,0,0
763,596,0,0,0,0,0,0,0,0,0,-1,1987,428,0,0
770,596,0,0,0,0,0,0,0,0,0,-1,1994,428,0,0
777,596,0,0,0,0,0,0,0,0,0,-1,2001,428,0,0
784,596,0,0,0,0,0,0,0,0,0,-1,2008,428,0,0
791,596,0,0,0,0,0,0,0,0,0,-1,2015,428,0,0
798,596,0,0,0,0,0,0,0,0,0,-1,2022,428,0,0
805,596,0,0,0,0,0,0,0,0,0,-1,2029,428,0,0
812,596,0,0,0,0,0,0,0,0,0,-1,2036,428,0,0
-700,589,0,0,0,0,0,0,0,0,0,-1,524,435,0,0
-693,589,0,0,0,0,0,0,0,0,0,-1,531,435,0,0
-686,589,0,0,0,0,0,0,0,0,0,-1,538,435,0,0
-679,589,0,0,0,0,0,0,0,0,0,-1,545,435,0,0
-672,589,0,0,0,0,0,0,0,0,0,-1,552,435,0,0
-665,589,0,0,0,0,0,0,0,0,0,-1,559,435,0,0
-658,589,0,0,0,0,0,0,0,0,0,-1,566,435,0,0
-651,589,0,0,0,0,0,0,0,0,0,-1,573,435,0,0
-644,589,0,0,0,0,0,0,0,0,0,-1,580,435,0,0
-637,589,0,0,0,0,0,0,0,0,0,-1,587,435,0,0
-630,589,0,0,0,0,0,0,0,0,0,-1,594,435,0,0
-623,589,0,0,0,0,0,0,0,0,0,-1,601,435,0,0
-616,589,0,0,0,0,0,0,0,0,0,-1,608,435,0,0
-609,589,0,0,0,0,0,0,0,0,0,-1,615,435,0,0
-602,589,0,0,0,0,0,0,0,0,0,-1,622,435,0,0
-595,589,0,0,0,0,0,0,0,0,0,-1,629,435,0,0
-588,589,0,0,0,0,0,0,0,0,0,-1,636,435,0,0
-581,589,0,0,0,0,0,0,0,0,0,-1,643,435,0,0
-574,589,0,0,0,0,0,0,0,0,0,-1,650,435,0,0
-567,589,0,0,0,0,0,0,0,0,0,-1,657,435,0,0
-560,589,0,0,0,0,0,0,0,0,0,-1,664,435,0,0
-553,589,0,0,0,0,0,0,0,0,0,-1,671,435,0,0
-546,589,0,0,0,0,0,0,0,0,0,-1,678,435,0,0
-539,589,0,0,0,0,0,0,0,0,0,-1,685,435,0,0
-532,589,0,0,0,0,0,0,0,0,0,-1,692,435,0,0
-525,589,0,0,0,0,0,0,0,0,0,-1,699,435,0,0
-518,589,0,0,0,0,0,0,0,0,0,-1,706,435,0,0
-511,589,0,0,0,0,0,0,0,0,0,-1,713,435,0,0
-504,589,0,0,0,0,0,0,0,0,0,-1,720,435,0,0
-497,589,0,0,0,0,0,0,0,0,0,-1,727,435,0,0
-490,589,0,0,0,0,0,0,0,0,0,-1,734,435,0,0
-483,589,0,0,0,0,0,0,0,0,0,-1,741,435,0,0
-476,589,0,0,0,0,0,0,0,0,0,-1,748,435,0,0
-469,589,0,0,0,0,0,0,0,0,0,-1,755,435,0,0
-462,589,0,0,0,0,0,0,0,0,0,-1,762,435,0,0
-455,589,0,0,0,0,0,0,0,0,0,-1,769,435,0,0
-448,589,0,0,0,0,0,0,0,0,0,-1,776,435,0,0
-441,589,0,0,0,0,0,0,0,0,0,-1,783,435,0,0
-434,589,0,0,0,0,0,0,0,0,0,-1,790,435,0,0
-427,589,0,0,0,0,0,0,0,0,0,-1,797,435,0,0
-420,589,0,0,0,0,0,0,0,0,0,-1,804,435,0,0
-413,589,0,0,0,0,0,0,0,0,0,-1,811,435,0,0
-406,589,0,0,0,0,0,0,0,0,0,-1,818,435,0,0
-399,589,0,0,0,0,0,0,0,0,0,-1,825,435,0,0
-392,589,0,0,0,0,0,0,0,0,0,-1,832,435,0,0
-385,589,0,0,0,0,0,0,0,0,0,-1,839,435,0,0
-378,589,0,0,0,0,0,0,0,0,0,-1,846,435,0,0
-371,589,0,0,0,0,0,0,0,0,0,-1,853,435,0,0
-364,589,0,0,0,0,0,0,0,0,0,-1,860,435,0,0
-357,589,0,0,0,0,0,0,0,0,0,-1,867,435,0,0
-350,589,-0.799927,-20.664,0,0,0,0,0,0,0,-1,874,435,-0.799952,20.664
-343,589,-0.370911,-19.1543,0,0,0,0,0,0,0,-1,881,435,-0.370922,19.1543
-336,589,-0.836914,-18.9103,0,0,0,0,0,0,0,-1,888,435,-0.836925,18.9103
-329,589,2.58252,-16.902,0,0,0,0,0,0,0,-1,895,435,2.58251,16.902
-322,589,5.25903,-22.0762,0,0,0,0,0,0,0,-1,902,435,5.25906,22.0762
-315,589,4.17072,-24.5494,0,0,0,0,0,0,0,-1,909,435,4.17071,24.5494
-308,589,4.07819,-25.7376,0,0,0,0,0,0,0,-1,916,435,4.07821,25.7376
-301,589,4.26636,-26.3933,0,0,0,0,0,0,0,-1,923,435,4.26638,26.3933
-294,589,4.45453,-27.049,0,0,0,0,0,0,0,-1,930,435,4.45455,27.049
-287,589,3.68298,-26.515,0,0,0,0,0,0,0,-1,937,435,3.68301,26.515
-280,589,3.56061,-27.1639,-0.0175333,-0.0403656,0.00785661,-0.0150911,-0.0428078,0.301383,0.0250709,0.0362912,944,435,3.56063,27.1639
-273,589,3.61694,-27.6743,-0.017303,-0.0354926,0.00702042,-0.0149086,-0.037887,0.32869,0.0220389,0.0210355,951,435,3.61695,27.6743
-266,589,3.51099,-28.1803,0,0,0,0,0,0,0,-1,958,435,3.51102,28.1803
-259,589,3.49811,-28.7941,-0.0154427,-0.0251939,0.00521603,-0.0131784,-0.0274582,0.40956,0.0158573,0.0184192,965,435,3.49812,28.7941
-252,589,3.49579,-29.4214,-0.0135484,-0.0198356,0.00432006,-0.0113492,-0.0220348,0.470868,0.0127237,0.0110441,972,435,3.49579,29.4214
-245,589,3.51428,-29.9652,-0.0111971,-0.0144313,0.00329095,-0.00914741,-0.016481,0.557034,0.0095345,0.0107086,979,435,3.51425,29.9652
-238,589,3.47028,-30.4532,-0.0086789,-0.00970097,0.00237664,-0.00675898,-0.0116209,0.679498,0.00673906,0.0150908,986,435,3.47026,30.4533
-231,589,3.42297,-30.9433,-0.0064396,-0.00551953,0.00157349,-0.0043402,-0.00761893,0.927618,0.004413,0.0154428,993,435,3.42299,30.9433
-224,589,3.41071,-31.4501,-0.00436528,-0.00141099,0.000826507,-0.00119548,-0.00458078,1.31573,0.0027436,0.0148377,1000,435,3.4107,31.4501
-217,589,3.39978,-31.9588,-0.00255257,0.00122517,9.3645e-05,0.00122749,-0.00255489,1.54603,0.00222813,0.0159167,1007,435,3.39979,31.9588
-210,589,3.3725,-32.4401,-0.00106576,0.00309874,-0.00044124,0.00314498,-0.00111199,-1.46639,0.00254948,0.0154518,1014,435,3.37247,32.4401
-203,589,3.34558,-32.9002,-0.000444407,0.00245747,-0.000266052,0.00248166,-0.000468598,-1.48012,0.00183074,0.011167,1021,435,3.34558,32.9002
-196,589,3.3208,-33.381,-2.09747e-05,0.00154663,-9.47111e-05,0.00155233,-2.66763e-05,-1.51067,0.00104389,0.0138098,1028,435,3.32085,33.381
-189,589,3.32556,-33.8797,0.000282641,0.000490426,0.000187796,0.000601152,0.000171915,1.03805,0.000357517,0.0180239,1035,435,3.32562,33.8797
-182,589,3.33362,-34.2676,0.000614909,-0.000918447,0.000651119,0.000854089,-0.00115763,0.352036,0.00116586,0.0133135,1042,435,3.33356,34.2676
-175,589,3.33667,-34.69,0.000820374,-0.00249704,0.00130782,0.00127394,-0.00295061,0.333832,0.00250226,0.0165701,1049,435,3.33672,34.69
-168,589,3.33374,-35.1763,0.000718561,-0.00431522,0.00213536,0.00150235,-0.00509901,0.351786,0.00399541,0.0141532,1056,435,3.33374,35.1763
-161,589,3.32385,-35.6169,0.000676785,-0.00576562,0.00289234,0.00178476,-0.00687359,0.365829,0.00527886,0.0130533,1063,435,3.32388,35.6169
-154,589,3.31335,-36.0136,0.000673907,-0.00702035,0.00367531,0.00214733,-0.00849377,0.38128,0.00649766,0.0125718,1070,435,3.31332,36.0136
-147,589,3.33276,-36.3997,0.000636906,-0.00827389,0.00452125,0.00252913,-0.0101661,0.396367,0.00775909,0.0120895,1077,435,3.33278,36.3997
-140,589,3.34985,-36.7833,0.000541955,-0.00964012,0.00536337,0.00284581,-0.011944,0.405721,0.00906145,0.0134044,1084,435,3.34982,36.7833
-133,589,3.36011,-37.1839,0.000430275,-0.0107766,0.00611534,0.00312116,-0.0134675,0.414526,0.0101795,0.0141572,1091,435,3.3601,37.1839
-126,589,3.41174,-37.5613,0.000467067,-0.0117364,0.00668589,0.00341697,-0.0146863,0.415523,0.0111065,0.0128558,1098,435,3.41179,37.5613
-119,589,3.38611,-37.9321,0.00056569,-0.012483,0.00706228,0.00365606,-0.0155734,0.412485,0.0117914,0.0195643,1105,435,3.3861,37.9321
-112,589,3.36499,-38.317,0.000733624,-0.0130363,0.00713999,0.00376744,-0.0160701,0.401789,0.0121653,0.0204844,1112,435,3.36499,38.317
-105,589,3.42151,-38.8073,0.00101458,-0.0133017,0.00715676,0.0039786,-0.0162657,0.392651,0.0123849,0.0372912,1119,435,3.42157,38.8073
-98,589,3.48779,-39.1386,0,0,0,0,0,0,0,-1,1126,435,3.48784,39.1387
-91,589,3.39563,-37.8231,0,0,0,0,0,0,0,-1,1133,435,3.39565,37.8231
-84,589,2.76538,-22.6013,0,0,0,0,0,0,0,-1,1140,435,2.76539,22.6014
-77,589,2.18152,-14.8023,0,0,0,0,0,0,0,-1,1147,435,2.18155,14.8023
-70,589,1.48267,-9.90961,0,0,0,0,0,0,0,-1,1154,435,1.48264,9.9096
-63,589,0.880127,-5.50586,0,0,0,0,0,0,0,-1,1161,435,0.880186,5.50587
-56,589,-2.78052,-7.28082,0,0,0,0,0,0,0,-1,1168,435,-2.78053,7.28082
-49,589,-0.525757,-2.76703,0,0,0,0,0,0,0,-1,1175,435,-0.525771,2.76702
-42,589,-2.7738,-2.87921,0,0,0,0,0,0,0,-1,1182,435,-2.77383,2.87922
-35,589,-2.55225,-3.27551,0,0,0,0,0,0,0,-1,1189,435,-2.55223,3.27552
-28,589,-0.0632324,-3.42938,0,0,0,0,0,0,0,-1,1196,435,-0.063241,3.42938
-21,589,5.2229,-41.8997,0,0,0,0,0,0,0,-1,1203,435,5.22293,41.8997
-14,589,4.82642,-41.8809,-0.00805614,-0.0593381,0.0333833,0.00839684,-0.0757911,0.457912,0.0535463,0.0457279,1210,435,4.82646,41.8809
-7,589,4.54041,-41.6413,-0.00555721,-0.0571662,0.029967,0.00818438,-0.0709078,0.429947,0.0502228,0.0486431,1217,435,4.5404,41.6413
0,589,5.33423,-41.8964,0,0,0,0,0,0,0,-1,1224,435,5.33417,41.8964
7,589,5.24573,-41.2973,0.00358624,-0.0505064,0.016473,0.00820792,-0.0551281,0.273529,0.0397714,0.0474741,1231,435,5.24576,41.2973
14,589,5.17664,-40.3907,0.00853662,-0.0496971,0.00913755,0.00993675,-0.0510973,0.152045,0.0378148,0.0462508,1238,435,5.17667,40.3906
21,589,5.22668,-39.9532,0.0135194,-0.0498188,0.00065046,0.0135261,-0.0498255,0.0102682,0.0385255,0.0480945,1245,435,5.22668,39.9532
28,589,4.54431,-40.4789,0.018282,-0.0497802,-0.00744245,0.0190863,-0.0505846,-0.107653,0.0415722,0.0456608,1252,435,4.54427,40.4789
35,589,4.65332,-41.0233,0.0212674,-0.0486122,-0.0145532,0.0241771,-0.0515219,-0.197333,0.0446452,0.0478348,1259,435,4.65331,41.0233
42,589,4.71375,-41.4083,0,0,0,0,0,0,0,-1,1266,435,4.71373,41.4083
49,589,6.93494,-43.514,0,0,0,0,0,0,0,-1,1273,435,6.93489,43.514
56,589,6.495,-42.9231,0,0,0,0,0,0,0,-1,1280,435,6.49497,42.9231
63,589,6.87207,-43.4489,0,0,0,0,0,0,0,-1,1287,435,6.87207,43.4489
70,589,7.73584,-44.1692,0,0,0,0,0,0,0,-1,1294,435,7.7358,44.1692
77,589,8.37476,-44.8834,0,0,0,0,0,0,0,-1,1301,435,8.3747,44.8834
84,589,8.84192,-44.9873,0.0183216,-0.00444874,-0.0533117,0.0614503,-0.0475775,-0.680199,0.0631168,0.044273,1308,435,8.84187,44.9873
91,589,8.44031,-45.9778,0.013324,0.00479378,-0.0534893,0.062718,-0.0446002,-0.745614,0.0622538,0.0456071,1315,435,8.44028,45.9778
98,589,8.29211,-47.1198,0.0061978,0.0137201,-0.051837,0.0619322,-0.0420143,-0.821613,0.0603797,0.0459989,1322,435,8.29215,47.1197
105,589,8.17981,-48.1904,-0.00459971,0.0177723,-0.0443082,0.0522847,-0.0391122,-0.909044,0.0529504,0.0466971,1329,435,8.1798,48.1904
112,589,7.80383,-49.1558,-0.0157557,0.0228328,-0.0367995,0.0450894,-0.0380122,-1.02685,0.0480367,0.0438713,1336,435,7.80379,49.1558
119,589,7.60693,-50.0431,-0.0263757,0.0251317,-0.0278024,0.0372756,-0.0385196,-1.15898,0.0437623,0.0446546,1343,435,7.60694,50.043
126,589,7.40894,-50.6838,0,0,0,0,0,0,0,-1,1350,435,7.40896,50.6838
133,589,7.16687,-41.7496,0,0,0,0,0,0,0,-1,1357,435,7.16681,41.7496
140,589,6.07727,-41.3155,-0.0638389,0.0290831,0.00374628,0.0292339,-0.0639897,1.53057,0.0550554,0.0429623,1364,435,6.0773,41.3155
147,589,4.96338,-41.112,-0.078349,0.02955,0.0175206,0.0323237,-0.0811227,1.41379,0.0674879,0.0439727,1371,435,4.96335,41.112
154,589,4.18628,-40.8095,-0.0910405,0.0294892,0.029542,0.0363406,-0.0978918,1.34291,0.080169,0.0425379,1378,435,4.1863,40.8095
161,589,2.00488,-40.5194,-0.096755,0.0258983,0.0351263,0.0352456,-0.106102,1.31072,0.0849564,0.0481699,1385,435,2.00483,40.5194
168,589,0.89917,-39.7728,0,0,0,0,0,0,0,-1,1392,435,0.899149,39.7728
175,589,8.66992,-7.65527,0,0,0,0,0,0,0,-1,1399,435,8.66994,7.65528
182,589,3.8136,-2.45389,0,0,0,0,0,0,0,-1,1406,435,3.81363,2.4539
189,589,3.69983,-3.68149,0,0,0,0,0,0,0,-1,1413,435,3.69987,3.68147
196,589,3.31055,-5.31677,0,0,0,0,0,0,0,-1,1420,435,3.31059,5.31678
203,589,2.72559,-8.84338,0,0,0,0,0,0,0,-1,1427,435,2.72558,8.84338
210,589,3.62378,-14.4032,0,0,0,0,0,0,0,-1,1434,435,3.62378,14.4032
217,589,4.65601,-22.3745,0,0,0,0,0,0,0,-1,1441,435,4.65607,22.3745
224,589,6.79028,-33.9412,0,0,0,0,0,0,0,-1,1448,435,6.79028,33.9412
231,589,7.76172,-38.3726,0,0,0,0,0,0,0,-1,1455,435,7.76177,38.3726
238,589,7.71436,-37.9276,0,0,0,0,0,0,0,-1,1462,435,7.71432,37.9276
245,589,7.73267,-37.5491,0,0,0,0,0,0,0,-1,1469,435,7.73267,37.5491
252,589,7.78345,-37.1373,0.00291967,0.000996122,-0.00154875,0.00378098,0.000134816,-0.507539,0.00247694,0.0162543,1476,435,7.78343,37.1373
259,589,7.79907,-36.7645,0.00274573,0.000907831,-0.001262,0.0033879,0.000265659,-0.470706,0.00217546,0.0100396,1483,435,7.79908,36.7645
266,589,7.80469,-36.3447,0.00254981,0.000695571,-0.00106377,0.00303377,0.00021161,-0.426963,0.0019558,0.0102664,1490,435,7.80465,36.3447
273,589,7.83105,-35.9457,0.00242129,0.000734353,-0.00077451,0.00272294,0.000432699,-0.371402,0.00168963,0.0119453,1497,435,7.83102,35.9457
280,589,7.84021,-35.526,0.0023057,0.000715136,-0.000456579,0.00242744,0.000593391,-0.260583,0.00146123,0.0123628,1504,435,7.84025,35.526
287,589,7.84106,-35.092,0.00222217,0.000808262,-0.000105607,0.00223001,0.000800418,-0.0741435,0.00130447,0.0117584,1511,435,7.84105,35.092
294,589,7.85388,-34.6108,0.00206396,0.00115942,0.000252729,0.00212978,0.00109359,0.254787,0.00122978,0.0101668,1518,435,7.85383,34.6108
301,589,7.84155,-34.123,0.00184322,0.00155859,0.000601081,0.00231861,0.00108321,0.669154,0.00133961,0.0102566,1525,435,7.84154,34.123
308,589,7.83838,-33.6553,0.00164624,0.00187038,0.00093942,0.00270439,0.000812228,0.844768,0.00160234,0.0101958,1532,435,7.83836,33.6553
315,589,7.82983,-33.1756,0.00140898,0.00241367,0.00124128,0.0032504,0.000572246,0.977674,0.00200361,0.0100531,1539,435,7.82979,33.1756
322,589,7.83301,-32.6885,0.00111258,0.00299085,0.00156002,0.0038726,0.000230829,1.05634,0.00250833,0.0110661,1546,435,7.83298,32.6885
329,589,7.81653,-32.2059,0.000794136,0.00350919,0.00187713,0.00446824,-0.000164906,1.09846,0.00303529,0.0102112,1553,435,7.81657,32.2059
336,589,7.78784,-31.7169,0.000461654,0.00401929,0.00217252,0.00504832,-0.000567378,1.12844,0.00356974,0.0100141,1560,435,7.78781,31.7169
343,589,7.77222,-31.2191,0.00013276,0.00460101,0.00246623,0.00569459,-0.000960815,1.15343,0.00415387,0.0115175,1567,435,7.77221,31.2191
350,589,7.75354,-30.695,-0.000129529,0.00552063,0.00286366,0.00671819,-0.00132709,1.17471,0.00498045,0.016533,1574,435,7.75357,30.695
357,589,7.73755,-30.1458,-0.0004093,0.00634699,0.00330775,0.00769674,-0.00175906,1.18336,0.00580701,0.0137112,1581,435,7.73754,30.1458
364,589,7.72571,-29.6159,-0.000716794,0.00718096,0.00373774,0.00866939,-0.00220523,1.19183,0.00663792,0.011348,1588,435,7.72576,29.6159
371,589,7.69128,-29.0628,-0.00103856,0.00810008,0.00414844,0.00970232,-0.0026408,1.20222,0.00750499,0.0112031,1595,435,7.69125,29.0628
378,589,7.65979,-28.5142,-0.00113689,0.0092888,0.00417497,0.0107546,-0.00260267,1.23315,0.00817655,0.012137,1602,435,7.65984,28.5142
385,589,7.6377,-27.9277,-0.000775733,0.0102605,0.00404005,0.0115814,-0.00209659,1.25481,0.00850635,0.0178362,1609,435,7.63767,27.9277
392,589,7.59082,-27.2048,0.000633953,0.0111128,0.00385441,0.0123778,-0.00063109,1.25367,0.00847007,0.0243911,1616,435,7.59078,27.2048
399,589,7.56726,-26.4819,0.00254388,0.0122311,0.00403613,0.0136923,0.00108266,1.22344,0.0087896,0.0370918,1623,435,7.5672,26.4819
406,589,7.56506,-25.8973,0,0,0,0,0,0,0,-1,1630,435,7.56504,25.8973
413,589,5.61377,-19.0606,0,0,0,0,0,0,0,-1,1637,435,5.61372,19.0606
420,589,2.79724,-5.79956,0,0,0,0,0,0,0,-1,1644,435,2.7973,5.79955
427,589,6.52686,-24.5801,0,0,0,0,0,0,0,-1,1651,435,6.52686,24.5801
434,589,6.88159,-23.9424,0,0,0,0,0,0,0,-1,1658,435,6.8816,23.9424
441,589,7.04443,-23.1344,0,0,0,0,0,0,0,-1,1665,435,7.0444,23.1344
448,589,0.453735,-3.2868,0,0,0,0,0,0,0,-1,1672,435,0.453701,3.28681
455,589,0.664307,-3.46848,0,0,0,0,0,0,0,-1,1679,435,0.66425,3.46846
462,589,3.46716,-4.41891,0,0,0,0,0,0,0,-1,1686,435,3.4672,4.41891
469,589,0.0238037,-3.81497,0,0,0,0,0,0,0,-1,1693,435,0.0237965,3.81498
476,589,0,0,0,0,0,0,0,0,0,-1,1700,435,0,0
483,589,0,0,0,0,0,0,0,0,0,-1,1707,435,0,0
490,589,0,0,0,0,0,0,0,0,0,-1,1714,435,0,0
497,589,0,0,0,0,0,0,0,0,0,-1,1721,435,0,0
504,589,0,0,0,0,0,0,0,0,0,-1,1728,435,0,0
511,589,0,0,0,0,0,0,0,0,0,-1,1735,435,0,0
518,589,0,0,0,0,0,0,0,0,0,-1,1742,435,0,0
525,589,0,0,0,0,0,0,0,0,0,-1,1749,435,0,0
532,589,0,0,0,0,0,0,0,0,0,-1,1756,435,0,0
539,589,0,0,0,0,0,0,0,0,0,-1,1763,435,0,0
546,589,0,0,0,0,0,0,0,0,0,-1,1770,435,0,0
553,589,0,0,0,0,0,0,0,0,0,-1,1777,435,0,0
560,589,0,0,0,0,0,0,0,0,0,-1,1784,435,0,0
567,589,0,0,0,0,0,0,0,0,0,-1,1791,435,0,0
574,589,0,0,0,0,0,0,0,0,0,-1,1798,435,0,0
581,589,0,0,0,0,0,0,0,0,0,-1,1805,435,0,0
588,589,0,0,0,0,0,0,0,0,0,-1,1812,435,0,0
595,589,0,0,0,0,0,0,0,0,0,-1,1819,435,0,0
602,589,0,0,0,0,0,0,0,0,0,-1,1826,435,0,0
609,589,0,0,0,0,0,0,0,0,0,-1,1833,435,0,0
616,589,0,0,0,0,0,0,0,0,0,-1,1840,435,0,0
623,589,0,0,0,0,0,0,0,0,0,-1,1847,435,0,0
630,589,0,0,0,0,0,0,0,0,0,-1,1854,435,0,0
637,589,0,0,0,0,0,0,0,0,0,-1,1861,435,0,0
644,589,0,0,0,0,0,0,0,0,0,-1,1868,435,0,0
651,589,0,0,0,0,0,0,0,0,0,-1,1875,435,0,0
658,589,0,0,0,0,0,0,0,0,0,-1,1882,435,0,0
665,589,0,0,0,0,0,0,0,0,0,-1,1889,435,0,0
672,589,0,0,0,0,0,0,0,0,0,-1,1896,435,0,0
679,589,0,0,0,0,0,0,0,0,0,-1,1903,435,0,0
686,589,0,0,0,0,0,0,0,0,0,-1,1910,435,0,0
693,589,0,0,0,0,0,0,0,0,0,-1,1917,435,0,0
700,589,0,0,0,0,0,0,0,0,0,-1,1924,435,0,0
707,589,0,0,0,0,0,0,0,0,0,-1,1931,435,0,0
714,589,0,0,0,0,0,0,0,0,0,-1,1938,435,0,0
721,589,0,0,0,0,0,0,0,0,0,-1,1945,435,0,0
728,589,0,0,0,0,0,0,0,0,0,-1,1952,435,0,0
735,589,0,0,0,0,0,0,0,0,0,-1,1959,435,0,0
742,589,0,0,0,0,0,0,0,0,0,-1,1966,435,0,0
749,589,0,0,0,0,0,0,0,0,0,-1,1973,435,0,0
756,589,0,0,0,0,0,0,0,0,0,-1,1980,435,0,0
763,589,0,0,0,0,0,0,0,0,0,-1,1987,435,0,0
770,589,0,0,0,0,0,0,0,0,0,-1,1994,435,0,0
777,589,0,0,0,0,0,0,0,0,0,-1,2001,435,0,0
784,589,0,0,0,0,0,0,0,0,0,-1,2008,435,0,0
791,589,0,0,0,0,0,0,0,0,0,-1,2015,435,0,0
798,589,0,0,0,0,0,0,0,0,0,-1,2022,435,0,0
805,589,0,0,0,0,0,0,0,0,0,-1,2029,435,0,0
812,589,0,0,0,0,0,0,0,0,0,-1,2036,435,0,0
-700,582,0,0,0,0,0,0,0,0,0,-1,524,442,0,0
-693,582,0,0,0,0,0,0,0,0,0,-1,531,442,0,0
-686,582,0,0,0,0,0,0,0,0,0,-1,538,442,0,0
-679,582,0,0,0,0,0,0,0,0,0,-1,545,442,0,0
-672,582,0,0,0,0,0,0,0,0,0,-1,552,442,0,0
-665,582,0,0,0,0,0,0,0,0,0,-1,559,442,0,0
-658,582,0,0,0,0,0,0,0,0,0,-1,566,442,0,0
-651,582,0,0,0,0,0,0,0,0,0,-1,573,442,0,0
-644,582,0,0,0,0,0,0,0,0,0,-1,580,442,0,0
-637,582,0,0,0,0,0,0,0,0,0,-1,587,442,0,0
-630,582,0,0,0,0,0,0,0,0,0,-1,594,442,0,0
-623,582,0,0,0,0,0,0,0,0,0,-1,601,442,0,0
-616,582,0,0,0,0,0,0,0,0,0,-1,608,442,0,0
-609,582,0,0,0,0,0,0,0,0,0,-1,615,442,0,0
-602,582,0,0,0,0,0,0,0,0,0,-1,622,442,0,0
-595,582,0,0,0,0,0,0,0,0,0,-1,629,442,0,0
-588,582,0,0,0,0,0,0,0,0,0,-1,636,442,0,0
-581,582,0,0,0,0,0,0,0,0,0,-1,643,442,0,0
-574,582,0,0,0,0,0,0,0,0,0,-1,650,442,0,0
-567,582,0,0,0,0,0,0,0,0,0,-1,657,442,0,0
-560,582,0,0,0,0,0,0,0,0,0,-1,664,442,0,0
-553,582,0,0,0,0,0,0,0,0,0,-1,671,442,0,0
-546,582,0,0,0,0,0,0,0,0,0,-1,678,442,0,0
-539,582,0,0,0,0,0,0,0,0,0,-1,685,442,0,0
-532,582,0,0,0,0,0,0,0,0,0,-1,692,442,0,0
-525,582,0,0,0,0,0,0,0,0,0,-1,699,442,0,0
-518,582,0,0,0,0,0,0,0,0,0,-1,706,442,0,0
-511,582,0,0,0,0,0,0,0,0,0,-1,713,442,0,0
-504,582,0,0,0,0,0,0,0,0,0,-1,720,442,0,0
-497,582,0,0,0,0,0,0,0,0,0,-1,727,442,0,0
-490,582,0,0,0,0,0,0,0,0,0,-1,734,442,0,0
-483,582,0,0,0,0,0,0,0,0,0,-1,741,442,0,0
-476,582,0,0,0,0,0,0,0,0,0,-1,748,442,0,0
-469,582,0,0,0,0,0,0,0,0,0,-1,755,442,0,0
-462,582,0,0,0,0,0,0,0,0,0,-1,762,442,0,0
-455,582,0,0,0,0,0,0,0,0,0,-1,769,442,0,0
-448,582,0,0,0,0,0,0,0,0,0,-1,776,442,0,0
-441,582,0,0,0,0,0,0,0,0,0,-1,783,442,0,0
-434,582,0,0,0,0,0,0,0,0,0,-1,790,442,0,0
-427,582,0,0,0,0,0,0,0,0,0,-1,797,442,0,0
-420,582,0,0,0,0,0,0,0,0,0,-1,804,442,0,0
-413,582,0,0,0,0,0,0,0,0,0,-1,811,442,0,0
-406,582,0,0,0,0,0,0,0,0,0,-1,818,442,0,0
-399,582,0,0,0,0,0,0,0,0,0,-1,825,442,0,0
-392,582,0,0,0,0,0,0,0,0,0,-1,832,442,0,0
-385,582,0,0,0,0,0,0,0,0,0,-1,839,442,0,0
-378,582,0,0,0,0,0,0,0,0,0,-1,846,442,0,0
-371,582,0,0,0,0,0,0,0,0,0,-1,853,442,0,0
-364,582,0,0,0,0,0,0,0,0,0,-1,860,442,0,0
-357,582,-1.4903,-21.5295,0,0,0,0,0,0,0,-1,867,442,-1.49031,21.5295
-350,582,-0.880859,-19.7966,0,0,0,0,0,0,0,-1,874,442,-0.880885,19.7966
-343,582,-0.208557,-18.0078,0,0,0,0,0,0,0,-1,881,442,-0.208576,18.0078
-336,582,-0.167114,-18.7637,0,0,0,0,0,0,0,-1,888,442,-0.167108,18.7637
-329,582,4.35913,-21.6647,0,0,0,0,0,0,0,-1,895,442,4.35915,21.6647
-322,582,3.31738,-23.6634,0,0,0,0,0,0,0,-1,902,442,3.31737,23.6634
-315,582,3.07111,-24.4904,0.00502035,-0.0339129,0.00454793,0.00554456,-0.0344371,0.114755,0.0250119,0.0469236,909,442,3.0711,24.4904
-308,582,3.1723,-25.1865,4.86712e-06,-0.0332721,0.00468364,0.000651512,-0.0339188,0.137197,0.0228328,0.0472754,916,442,3.1723,25.1865
-301,582,3.44635,-25.8729,-0.00396911,-0.0323564,0.00480779,-0.00317695,-0.0331486,0.163299,0.0211199,0.0436979,923,442,3.44636,25.8729
-294,582,3.22418,-25.9384,-0.00691861,-0.0307373,0.00475395,-0.00600483,-0.0316511,0.189898,0.0194112,0.0474143,930,442,3.2242,25.9384
-287,582,3.15851,-26.5706,-0.00896567,-0.0283802,0.00461513,-0.00792443,-0.0294214,0.2219,0.0175786,0.0409195,937,442,3.15851,26.5706
-280,582,3.17023,-27.085,-0.00993921,-0.0252559,0.00424305,-0.00884235,-0.0263528,0.25297,0.0154867,0.0198202,944,442,3.17021,27.085
-273,582,3.1499,-27.7053,-0.0101302,-0.0219538,0.0037464,-0.00904308,-0.0230409,0.282422,0.0134048,0.0113274,951,442,3.14991,27.7053
-266,582,3.10486,-28.2952,-0.0101187,-0.018421,0.00330098,-0.00896626,-0.0195735,0.335902,0.011314,0.0106359,958,442,3.10485,28.2952
-259,582,3.05487,-28.8587,-0.00947077,-0.0151421,0.00269924,-0.00839147,-0.0162214,0.38038,0.00936728,0.00865361,965,442,3.05486,28.8587
-252,582,3.02557,-29.4254,-0.00830118,-0.0117466,0.00224726,-0.00719231,-0.0128555,0.45838,0.00743962,0.00773098,972,442,3.02557,29.4253
-245,582,3.03674,-29.9473,-0.0066896,-0.00840085,0.00167283,-0.00566627,-0.00942418,0.549002,0.00547811,0.012013,979,442,3.03673,29.9473
-238,582,2.98627,-30.4211,-0.00487196,-0.00575794,0.00122994,-0.00400766,-0.00662224,0.612544,0.00385145,0.0174883,986,442,2.98629,30.421
-231,582,2.94116,-30.9096,-0.00328571,-0.00352533,0.000894472,-0.00250306,-0.00430798,0.718821,0.00249808,0.0134885,993,442,2.94115,30.9096
-224,582,2.94604,-31.4231,-0.00186928,-0.00148973,0.000620752,-0.00103039,-0.00232862,0.933744,0.00134739,0.0106521,1000,442,2.94602,31.4231
-217,582,2.93262,-31.9341,-0.000675513,-0.000525832,0.00038906,-0.000204479,-0.000996866,0.880418,0.000607989,0.0131001,1007,442,2.93263,31.9341
-210,582,2.90503,-32.4102,0.000285653,-0.000166114,0.000258192,0.000402824,-0.000283285,0.426021,0.000398124,0.0134499,1014,442,2.90503,32.4101
-203,582,2.90131,-32.8956,0.000752946,-0.00131986,0.000578258,0.000903351,-0.00147026,0.254462,0.00138338,0.0102057,1021,442,2.90132,32.8956
-196,582,2.87048,-33.3866,0.00107439,-0.0025347,0.000887082,0.00128064,-0.00274095,0.228445,0.00237234,0.0154749,1028,442,2.87045,33.3866
-189,582,2.88159,-33.8475,0.00128487,-0.00377895,0.00133106,0.00161343,-0.00410751,0.242003,0.003406,0.0231232,1035,442,2.88158,33.8475
-182,582,2.91785,-34.2747,0.00153901,-0.00519878,0.00195247,0.0020639,-0.00572367,0.262626,0.00465872,0.0168386,1042,442,2.91783,34.2747
-175,582,2.8894,-34.6917,0.00167815,-0.00660498,0.00273123,0.00249765,-0.00742449,0.291501,0.00595931,0.0144583,1049,442,2.88946,34.6916
-168,582,2.87573,-35.1682,0.00144443,-0.00849036,0.00370711,0.00267523,-0.00972117,0.32056,0.00753258,0.011904,1056,442,2.87575,35.1682
-161,582,2.88013,-35.584,0.00127293,-0.00992739,0.00461815,0.0029315,-0.011586,0.344795,0.00886422,0.0129831,1063,442,2.88008,35.584
-154,582,2.88879,-35.9795,0.00111476,-0.0111848,0.00560935,0.00328872,-0.0133587,0.369736,0.0101807,0.0130668,1070,442,2.88883,35.9795
-147,582,2.91028,-36.3819,0.000933117,-0.0124359,0.00669671,0.00371056,-0.0152134,0.393155,0.011579,0.0125605,1077,442,2.91026,36.3819
-140,582,2.90601,-36.752,0.000655001,-0.0138949,0.0078414,0.00407642,-0.0173163,0.411426,0.0131159,0.0135902,1084,442,2.90599,36.752
-133,582,2.97034,-37.1293,0.000325105,-0.015102,0.00891055,0.004397,-0.0191739,0.428639,0.0144726,0.0166266,1091,442,2.97036,37.1293
-126,582,3.0072,-37.4388,0.000181538,-0.0162034,0.0097661,0.00473635,-0.0207582,0.4364,0.0156582,0.0156569,1098,442,3.00726,37.4388
-119,582,2.93835,-37.6997,5.9142e-05,-0.0171024,0.0103794,0.0049454,-0.0219886,0.439989,0.0165556,0.020533,1105,442,2.93833,37.6997
-112,582,2.86377,-38.1401,-5.54097e-05,-0.0177038,0.0105909,0.00490568,-0.0226649,0.438073,0.016983,0.0338889,1112,442,2.86383,38.1401
-105,582,2.84863,-38.6179,0,0,0,0,0,0,0,-1,1119,442,2.84862,38.6179
-98,582,2.61938,-32.8673,0,0,0,0,0,0,0,-1,1126,442,2.61944,32.8673
-91,582,2.16492,-24.1119,0,0,0,0,0,0,0,-1,1133,442,2.16496,24.1119
-84,582,2.10278,-16.7533,0,0,0,0,0,0,0,-1,1140,442,2.10279,16.7533
-77,582,2.30212,-11.4907,0,0,0,0,0,0,0,-1,1147,442,2.30207,11.4907
-70,582,1.49255,-6.36548,0,0,0,0,0,0,0,-1,1154,442,1.49251,6.36549
-63,582,-4.62915,-4.0347,0,0,0,0,0,0,0,-1,1161,442,-4.6292,4.03471
-56,582,-5.81714,-5.24149,0,0,0,0,0,0,0,-1,1168,442,-5.81718,5.24149
-49,582,-3.88672,-10.1064,0,0,0,0,0,0,0,-1,1175,442,-3.88678,10.1064
-42,582,-0.948975,1.13968,0,0,0,0,0,0,0,-1,1182,442,-0.949003,-1.13969
-35,582,-2.58435,-3.86911,0,0,0,0,0,0,0,-1,1189,442,-2.58437,3.86912
-28,582,-0.825317,-3.45941,0,0,0,0,0,0,0,-1,1196,442,-0.825377,3.45942
-21,582,4.27563,-40.3866,0,0,0,0,0,0,0,-1,1203,442,4.27562,40.3866
-14,582,3.85291,-40.4165,-0.0118595,-0.0763798,0.0434719,0.0100147,-0.0982539,0.466188,0.0690832,0.0463223,1210,442,3.85289,40.4165
-7,582,3.80005,-40.2983,-0.00895799,-0.0705037,0.0388647,0.00984167,-0.0893034,0.450539,0.0630726,0.0484214,1217,442,3.80006,40.2983
0,582,5.87939,-42.7198,0,0,0,0,0,0,0,-1,1224,442,5.87943,42.7198
7,582,5.67871,-41.8034,0.00296548,-0.0591869,0.0214459,0.00964718,-0.0658686,0.302028,0.0474561,0.0474915,1231,442,5.67873,41.8034
14,582,6.02295,-40.8721,0.00973194,-0.0569968,0.0116909,0.0117209,-0.0589858,0.168516,0.0437572,0.0450776,1238,442,6.02292,40.8721
21,582,5.39771,-39.8706,0.016325,-0.0563103,0.000690888,0.0163316,-0.0563169,0.00951059,0.0440104,0.0458655,1245,442,5.39765,39.8706
28,582,5.07288,-38.7434,0.0225144,-0.0557637,-0.00967331,0.0236921,-0.0569414,-0.121148,0.0478548,0.0467205,1252,442,5.07291,38.7434
35,582,4.37488,-40.357,0.0264573,-0.0542695,-0.0186499,0.0305576,-0.0583698,-0.216414,0.0521726,0.0481183,1259,442,4.37487,40.357
42,582,4.86572,-40.9712,0.0311527,-0.0497107,-0.0310805,0.0417182,-0.0602762,-0.327686,0.0592106,0.0449857,1266,442,4.8657,40.9712
49,582,5.57312,-41.4503,0.033959,-0.0445391,-0.0417173,0.0519884,-0.0625685,-0.407937,0.0662334,0.0469707,1273,442,5.57306,41.4503
56,582,6.48767,-42.1134,0,0,0,0,0,0,0,-1,1280,442,6.4877,42.1134
63,582,7.21277,-43.0525,0,0,0,0,0,0,0,-1,1287,442,7.21278,43.0525
70,582,7.79565,-43.8365,0.0301665,-0.0267452,-0.0600704,0.0681801,-0.0647588,-0.564201,0.0767607,0.0452309,1294,442,7.79563,43.8366
77,582,8.19666,-44.427,0.0273872,-0.0167322,-0.0640891,0.0731068,-0.0624519,-0.619647,0.0783454,0.0441515,1301,442,8.19667,44.427
84,582,8.32703,-45.0497,0.0241207,-0.00538536,-0.0664538,0.0774394,-0.058704,-0.676167,0.0788501,0.0455261,1308,442,8.327,45.0497
91,582,8.05139,-45.9208,0.0182412,0.00559996,-0.0668799,0.0790985,-0.0552574,-0.738285,0.0779764,0.0470826,1315,442,8.05141,45.9208
98,582,7.70398,-47.2762,0.00992786,0.0160539,-0.0651492,0.0782121,-0.0522303,-0.808889,0.0758073,0.0446845,1322,442,7.70398,47.2762
105,582,7.56238,-48.5062,-0.00357078,0.0214082,-0.0556974,0.0659992,-0.0481618,-0.895693,0.0661786,0.0434872,1329,442,7.56243,48.5062
112,582,7.41467,-49.6777,-0.0182249,0.0278359,-0.0456889,0.0559707,-0.0463597,-1.01885,0.0591673,0.0430758,1336,442,7.41472,49.6777
119,582,7.05688,-50.4914,-0.0324114,0.0312141,-0.0337566,0.0457862,-0.0469835,-1.16328,0.0535622,0.0448604,1343,442,7.05689,50.4914
126,582,6.99817,-51.4934,0,0,0,0,0,0,0,-1,1350,442,6.99818,51.4935
133,582,6.96509,-42.1077,0,0,0,0,0,0,0,-1,1357,442,6.96514,42.1077
140,582,5.85229,-41.6653,-0.0825199,0.0377975,0.00802244,0.0383301,-0.0830525,1.50451,0.0716483,0.0437404,1364,442,5.85234,41.6653
147,582,4.34924,-41.3736,-0.102696,0.0393916,0.0264354,0.0441505,-0.107455,1.39268,0.0900369,0.0471688,1371,442,4.34926,41.3736
154,582,2.81335,-41.0284,-0.120891,0.0405616,0.0428664,0.0512369,-0.131567,1.32672,0.108885,0.0478369,1378,442,2.81334,41.0284
161,582,1.51648,-40.8437,-0.1293,0.0363737,0.0505391,0.0505737,-0.1435,1.29689,0.116251,0.0491983,1385,442,1.51649,40.8437
168,582,0.081665,-40.4535,0,0,0,0,0,0,0,-1,1392,442,0.0816215,40.4535
175,582,6.50549,-2.00424,0,0,0,0,0,0,0,-1,1399,442,6.50546,2.00425
182,582,5.18958,-2.18652,0,0,0,0,0,0,0,-1,1406,442,5.1896,2.18652
189,582,6.19751,-0.880951,0,0,0,0,0,0,0,-1,1413,442,6.19754,0.88096
196,582,4.87354,-2.22327,0,0,0,0,0,0,0,-1,1420,442,4.87348,2.22325
203,582,3.11401,-4.48257,0,0,0,0,0,0,0,-1,1427,442,3.11404,4.48259
210,582,2.93115,-11.0731,0,0,0,0,0,0,0,-1,1434,442,2.93113,11.0731
217,582,4.94092,-16.5476,0,0,0,0,0,0,0,-1,1441,442,4.94087,16.5476
224,582,5.21008,-20.9908,0,0,0,0,0,0,0,-1,1448,442,5.21006,20.9908
231,582,5.70032,-25.622,0,0,0,0,0,0,0,-1,1455,442,5.70026,25.6221
238,582,6.44189,-30.7028,0,0,0,0,0,0,0,-1,1462,442,6.44195,30.7028
245,582,8.43958,-37.7631,0,0,0,0,0,0,0,-1,1469,442,8.43957,37.7631
252,582,8.3114,-37.2625,0.00365545,0.00166801,-0.00194985,0.0048502,0.000473258,-0.549733,0.00308783,0.039165,1476,442,8.31135,37.2625
259,582,8.21448,-36.8104,0.00356126,0.000950697,-0.00172646,0.00442033,9.16286e-05,-0.461718,0.00291683,0.0228863,1483,442,8.21446,36.8104
266,582,8.21619,-36.3769,0.00338229,0.000147456,-0.00166266,0.00408446,-0.000554713,-0.399596,0.00292546,0.0147498,1490,442,8.21619,36.3769
273,582,8.27344,-35.9538,0.00324715,-0.000242442,-0.00147829,0.0037892,-0.000784487,-0.351449,0.00282418,0.0126284,1497,442,8.27345,35.9538
280,582,8.28857,-35.5295,0.00309416,-0.000716187,-0.00129776,0.00349417,-0.0011162,-0.298991,0.00277731,0.0118013,1504,442,8.28862,35.5295
287,582,8.29834,-35.0752,0.00296914,-0.000992217,-0.00107301,0.00324111,-0.00126419,-0.24824,0.00268331,0.0120687,1511,442,8.29834,35.0752
294,582,8.31934,-34.604,0.00276139,-0.00082235,-0.000812728,0.00293709,-0.000998048,-0.212907,0.0023621,0.0100367,1518,442,8.31934,34.604
301,582,8.31934,-34.1136,0.00247805,-0.000566026,-0.000544335,0.00257246,-0.000660435,-0.17173,0.00197233,0.010503,1525,442,8.3194,34.1136
308,582,8.31702,-33.6365,0.00221607,-0.000434121,-0.000283072,0.00224596,-0.00046402,-0.10523,0.00167356,0.0127315,1532,442,8.31707,33.6365
315,582,8.31641,-33.1765,0.00183464,-5.45143e-05,-0.000106034,0.00184057,-6.04471e-05,-0.0558937,0.00124769,0.0128713,1539,442,8.31645,33.1765
322,582,8.32434,-32.6802,0.00143155,0.000479808,0.000171851,0.00146163,0.000449728,0.173278,0.000864428,0.0104134,1546,442,8.32435,32.6802
329,582,8.31494,-32.2057,0.00106159,0.0010149,0.000495181,0.00153397,0.000542511,0.761842,0.000898194,0.0104734,1553,442,8.31493,32.2057
336,582,8.29163,-31.7136,0.000720541,0.00158241,0.000825487,0.00208267,0.000220275,1.02596,0.00132116,0.011436,1560,442,8.29165,31.7135
343,582,8.27039,-31.1992,0.000377712,0.00224671,0.00116094,0.00280254,-0.000178115,1.12427,0.00193047,0.0138463,1567,442,8.27039,31.1992
350,582,8.24927,-30.6724,0.000110195,0.00318539,0.0015965,0.00386432,-0.000568739,1.1687,0.00278522,0.0165648,1574,442,8.24926,30.6724
357,582,8.23633,-30.1316,-0.000114199,0.00406745,0.00207158,0.00491992,-0.000966674,1.18041,0.00364515,0.0138526,1581,442,8.23628,30.1316
364,582,8.22266,-29.6046,-0.000328632,0.004979,0.00256447,0.00601561,-0.00136524,1.18666,0.00453452,0.0102629,1588,442,8.22271,29.6046
371,582,8.21704,-29.0679,-0.000529399,0.00595216,0.00306163,0.00716966,-0.0017469,1.19231,0.0054561,0.0138524,1595,442,8.21705,29.0679
378,582,8.18164,-28.5293,-0.000581564,0.0070503,0.00321834,0.00822627,-0.00175753,1.22047,0.00615425,0.0153075,1602,442,8.18159,28.5293
385,582,8.14783,-27.9603,-0.00027389,0.00795578,0.0032341,0.00907461,-0.00139272,1.23774,0.00656342,0.0116597,1609,442,8.1478,27.9603
392,582,8.09717,-27.387,0.000865337,0.00873106,0.00320122,0.00986922,-0.000272821,1.2292,0.00667228,0.010722,1616,442,8.09711,27.387
399,582,8.04297,-26.8523,0.00241766,0.00957257,0.00349787,0.0109984,0.000991791,1.18372,0.00702507,0.0198645,1623,442,8.04297,26.8523
406,582,8.02148,-26.16,0.0039915,0.0102419,0.00356436,0.0118571,0.00237628,1.14532,0.00724374,0.0380862,1630,442,8.02151,26.16
413,582,7.93152,-25.6891,0,0,0,0,0,0,0,-1,1637,442,7.93147,25.6891
420,582,7.88501,-25.0851,0,0,0,0,0,0,0,-1,1644,442,7.88497,25.0851
427,582,7.53577,-24.4712,0.0113138,0.0101358,0.00267767,0.0134665,0.00798311,0.677144,0.00781939,0.0465321,1651,442,7.53582,24.4712
434,582,7.61462,-23.949,0.0149195,0.0100033,0.0026096,0.0160464,0.0088764,0.407645,0.00928183,0.0477323,1658,442,7.61463,23.949
441,582,7.84973,-23.2405,0.0187208,0.00966394,0.0025146,0.0193721,0.00901261,0.253449,0.0111935,0.0491017,1665,442,7.84968,23.2405
448,582,8.29858,-22.5408,0,0,0,0,0,0,0,-1,1672,442,8.2986,22.5408
455,582,6.4585,-19.4734,0,0,0,0,0,0,0,-1,1679,442,6.45854,19.4734
462,582,5.35022,-19.2616,0,0,0,0,0,0,0,-1,1686,442,5.35025,19.2616
469,582,6.20471,-20.7091,0,0,0,0,0,0,0,-1,1693,442,6.20476,20.7091
476,582,1.93579,-8.53891,0,0,0,0,0,0,0,-1,1700,442,1.93579,8.53892
483,582,0,0,0,0,0,0,0,0,0,-1,1707,442,0,0
490,582,0,0,0,0,0,0,0,0,0,-1,1714,442,0,0
497,582,0,0,0,0,0,0,0,0,0,-1,1721,442,0,0
504,582,0,0,0,0,0,0,0,0,0,-1,1728,442,0,0
511,582,0,0,0,0,0,0,0,0,0,-1,1735,442,0,0
518,582,0,0,0,0,0,0,0,0,0,-1,1742,442,0,0
525,582,0,0,0,0,0,0,0,0,0,-1,1749,442,0,0
532,582,0,0,0,0,0,0,0,0,0,-1,1756,442,0,0
539,582,0,0,0,0,0,0,0,0,0,-1,1763,442,0,0
546,582,0,0,0,0,0,0,0,0,0,-1,1770,442,0,0
553,582,0,0,0,0,0,0,0,0,0,-1,1777,442,0,0
560,582,0,0,0,0,0,0,0,0,0,-1,1784,442,0,0
567,582,0,0,0,0,0,0,0,0,0,-1,1791,442,0,0
574,582,0,0,0,0,0,0,0,0,0,-1,1798,442,0,0
581,582,0,0,0,0,0,0,0,0,0,-1,1805,442,0,0
588,582,0,0,0,0,0,0,0,0,0,-1,1812,442,0,0
595,582,0,0,0,0,0,0,0,0,0,-1,1819,442,0,0
602,582,0,0,0,0,0,0,0,0,0,-1,1826,442,0,0
609,582,0,0,0,0,0,0,0,0,0,-1,1833,442,0,0
616,582,0,0,0,0,0,0,0,0,0,-1,1840,442,0,0
623,582,0,0,0,0,0,0,0,0,0,-1,1847,442,0,0
630,582,0,0,0,0,0,0,0,0,0,-1,1854,442,0,0
637,582,0,0,0,0,0,0,0,0,0,-1,1861,442,0,0
644,582,0,0,0,0,0,0,0,0,0,-1,1868,442,0,0
651,582,0,0,0,0,0,0,0,0,0,-1,1875,442,0,0
658,582,0,0,0,0,0,0,0,0,0,-1,1882,442,0,0
665,582,0,0,0,0,0,0,0,0,0,-1,1889,442,0,0
672,582,0,0,0,0,0,0,0,0,0,-1,1896,442,0,0
679,582,0,0,0,0,0,0,0,0,0,-1,1903,442,0,0
686,582,0,0,0,0,0,0,0,0,0,-1,1910,442,0,0
693,582,0,0,0,0,0,0,0,0,0,-1,1917,442,0,0
700,582,0,0,0,0,0,0,0,0,0,-1,1924,442,0,0
707,582,0,0,0,0,0,0,0,0,0,-1,1931,442,0,0
714,582,0,0,0,0,0,0,0,0,0,-1,1938,442,0,0
721,582,0,0,0,0,0,0,0,0,0,-1,1945,442,0,0
728,582,0,0,0,0,0,0,0,0,0,-1,1952,442,0,0
735,582,0,0,0,0,0,0,0,0,0,-1,1959,442,0,0
742,582,0,0,0,0,0,0,0,0,0,-1,1966,442,0,0
749,582,0,0,0,0,0,0,0,0,0,-1,1973,442,0,0
756,582,0,0,0,0,0,0,0,0,0,-1,1980,442,0,0
763,582,0,0,0,0,0,0,0,0,0,-1,1987,442,0,0
770,582,0,0,0,0,0,0,0,0,0,-1,1994,442,0,0
777,582,0,0,0,0,0,0,0,0,0,-1,2001,442,0,0
784,582,0,0,0,0,0,0,0,0,0,-1,2008,442,0,0
791,582,0,0,0,0,0,0,0,0,0,-1,2015,442,0,0
798,582,0,0,0,0,0,0,0,0,0,-1,2022,442,0,0
805,582,0,0,0,0,0,0,0,0,0,-1,2029,442,0,0
812,582,0,0,0,0,0,0,0,0,0,-1,2036,442,0,0
-700,575,0,0,0,0,0,0,0,0,0,-1,524,449,0,0
-693,575,0,0,0,0,0,0,0,0,0,-1,531,449,0,0
-686,575,0,0,0,0,0,0,0,0,0,-1,538,449,0,0
-679,575,0,0,0,0,0,0,0,0,0,-1,545,449,0,0
-672,575,0,0,0,0,0,0,0,0,0,-1,552,449,0,0
-665,575,0,0,0,0,0,0,0,0,0,-1,559,449,0,0
-658,575,0,0,0,0,0,0,0,0,0,-1,566,449,0,0
-651,575,0,0,0,0,0,0,0,0,0,-1,573,449,0,0
-644,575,0,0,0,0,0,0,0,0,0,-1,580,449,0,0
-637,575,0,0,0,0,0,0,0,0,0,-1,587,449,0,0
-630,575,0,0,0,0,0,0,0,0,0,-1,594,449,0,0
-623,575,0,0,0,0,0,0,0,0,0,-1,601,449,0,0
-616,575,0,0,0,0,0,0,0,0,0,-1,608,449,0,0
-609,575,0,0,0,0,0,0,0,0,0,-1,615,449,0,0
-602,575,0,0,0,0,0,0,0,0,0,-1,622,449,0,0
-595,575,0,0,0,0,0,0,0,0,0,-1,629,449,0,0
-588,575,0,0,0,0,0,0,0,0,0,-1,636,449,0,0
-581,575,0,0,0,0,0,0,0,0,0,-1,643,449,0,0
-574,575,0,0,0,0,0,0,0,0,0,-1,650,449,0,0
-567,575,0,0,0,0,0,0,0,0,0,-1,657,449,0,0
-560,575,0,0,0,0,0,0,0,0,0,-1,664,449,0,0
-553,575,0,0,0,0,0,0,0,0,0,-1,671,449,0,0
-546,575,0,0,0,0,0,0,0,0,0,-1,678,449,0,0
-539,575,0,0,0,0,0,0,0,0,0,-1,685,449,0,0
-532,575,0,0,0,0,0,0,0,0,0,-1,692,449,0,0
-525,575,0,0,0,0,0,0,0,0,0,-1,699,449,0,0
-518,575,0,0,0,0,0,0,0,0,0,-1,706,449,0,0
-511,575,0,0,0,0,0,0,0,0,0,-1,713,449,0,0
-504,575,0,0,0,0,0,0,0,0,0,-1,720,449,0,0
-497,575,0,0,0,0,0,0,0,0,0,-1,727,449,0,0
-490,575,0,0,0,0,0,0,0,0,0,-1,734,449,0,0
-483,575,0,0,0,0,0,0,0,0,0,-1,741,449,0,0
-476,575,0,0,0,0,0,0,0,0,0,-1,748,449,0,0
-469,575,0,0,0,0,0,0,0,0,0,-1,755,449,0,0
-462,575,0,0,0,0,0,0,0,0,0,-1,762,449,0,0
-455,575,0,0,0,0,0,0,0,0,0,-1,769,449,0,0
-448,575,0,0,0,0,0,0,0,0,0,-1,776,449,0,0
-441,575,0,0,0,0,0,0,0,0,0,-1,783,449,0,0
-434,575,0,0,0,0,0,0,0,0,0,-1,790,449,0,0
-427,575,0,0,0,0,0,0,0,0,0,-1,797,449,0,0
-420,575,0,0,0,0,0,0,0,0,0,-1,804,449,0,0
-413,575,0,0,0,0,0,0,0,0,0,-1,811,449,0,0
-406,575,0,0,0,0,0,0,0,0,0,-1,818,449,0,0
-399,575,0,0,0,0,0,0,0,0,0,-1,825,449,0,0
-392,575,0,0,0,0,0,0,0,0,0,-1,832,449,0,0
-385,575,0,0,0,0,0,0,0,0,0,-1,839,449,0,0
-378,575,0,0,0,0,0,0,0,0,0,-1,846,449,0,0
-371,575,0.56897,-3.52304,0,0,0,0,0,0,0,-1,853,449,0.568955,3.52306
-364,575,1.49805,-4.67191,0,0,0,0,0,0,0,-1,860,449,1.49803,4.6719
-357,575,3.15521,-8.29892,0,0,0,0,0,0,0,-1,867,449,3.15521,8.29891
-350,575,-0.825928,-18.5347,0,0,0,0,0,0,0,-1,874,449,-0.825948,18.5347
-343,575,0.465393,-16.3569,0,0,0,0,0,0,0,-1,881,449,0.465397,16.3569
-336,575,3.1994,-17.5725,0,0,0,0,0,0,0,-1,888,449,3.19941,17.5725
-329,575,1.48553,-24.1103,0,0,0,0,0,0,0,-1,895,449,1.48551,24.1103
-322,575,1.79895,-24.2841,0.0133649,-0.0158771,-0.00022855,0.0133667,-0.0158789,-0.00781516,0.0169057,0.0493595,902,449,1.79895,24.2841
-315,575,2.03369,-24.408,0.00863983,-0.0182677,0.00097206,0.0086749,-0.0183027,0.0360633,0.0159027,0.0472498,909,449,2.03368,24.408
-308,575,2.33594,-24.8934,0.00498163,-0.0176374,0.00120898,0.00504606,-0.0177018,0.0532473,0.0137944,0.0476247,916,449,2.33591,24.8934
-301,575,2.72546,-25.4391,0.00191999,-0.0171691,0.00143284,0.00202694,-0.017276,0.0745044,0.012249,0.0357016,923,449,2.72548,25.439
-294,575,2.70496,-26.0055,-0.000577619,-0.0162584,0.0015788,-0.000420238,-0.0164157,0.0993555,0.0108065,0.0253985,930,449,2.70493,26.0055
-287,575,2.64441,-26.6211,-0.00249322,-0.0148013,0.00164568,-0.00227698,-0.0150175,0.130651,0.00934559,0.0195564,937,449,2.64444,26.6211
-280,575,2.64874,-27.1729,-0.00360539,-0.0128423,0.00151165,-0.0033643,-0.0130834,0.158158,0.0078451,0.0155654,944,449,2.64875,27.1728
-273,575,2.64276,-27.7613,-0.00411351,-0.0108133,0.00129004,-0.0038737,-0.0110531,0.183798,0.00647593,0.0116081,951,449,2.64279,27.7613
-266,575,2.60962,-28.3344,-0.004517,-0.0086626,0.00113304,-0.00422755,-0.00895206,0.250123,0.00517113,0.012327,958,449,2.60963,28.3344
-259,575,2.55487,-28.8743,-0.00438734,-0.00692846,0.000869191,-0.00411848,-0.00719732,0.299988,0.0041698,0.0123839,965,449,2.55485,28.8743
-252,575,2.49841,-29.4059,-0.00381608,-0.00525649,0.000790591,-0.00346683,-0.00560574,0.415977,0.0032666,0.0114394,972,449,2.49842,29.4059
-245,575,2.48724,-29.9262,-0.00283993,-0.00373938,0.000612123,-0.00253008,-0.00404923,0.468579,0.00236198,0.0150799,979,449,2.48721,29.9262
-238,575,2.47437,-30.4174,-0.00163417,-0.00294288,0.000574357,-0.00141786,-0.0031592,0.360191,0.00182715,0.0157884,986,449,2.47437,30.4174
-231,575,2.45624,-30.8905,-0.000606486,-0.00245043,0.000635724,-0.000408557,-0.00264836,0.301831,0.00164637,0.0133716,993,449,2.45623,30.8905
-224,575,2.43036,-31.3908,0.000276909,-0.00227556,0.00077402,0.000493283,-0.00249194,0.272588,0.0018478,0.0125168,1000,449,2.43033,31.3908
-217,575,2.43604,-31.9014,0.00101248,-0.00278817,0.000960047,0.00124122,-0.00301691,0.2339,0.00252868,0.010702,1007,449,2.43601,31.9014
-210,575,2.45374,-32.4128,0.00160637,-0.00370909,0.00116292,0.00184966,-0.00395238,0.206231,0.00342236,0.00917629,1014,449,2.45376,32.4128
-203,575,2.45648,-32.9029,0.00197625,-0.00533784,0.0016122,0.00231585,-0.00567744,0.207609,0.00474901,0.0122832,1021,449,2.45649,32.9029
-196,575,2.44421,-33.3674,0.00222152,-0.00683857,0.00203326,0.0026569,-0.00727395,0.210944,0.00593654,0.0164643,1028,449,2.44418,33.3674
-189,575,2.43372,-33.8071,0.0023311,-0.00829994,0.00263931,0.00295028,-0.00891912,0.230433,0.00713579,0.0177264,1035,449,2.43373,33.8071
-182,575,2.43311,-34.2445,0.00247963,-0.00978245,0.003426,0.00337192,-0.0106747,0.254786,0.0084673,0.0160729,1042,449,2.43315,34.2445
-175,575,2.44824,-34.6912,0.0025133,-0.011036,0.00434139,0.00378499,-0.0123077,0.284951,0.00971571,0.0131144,1049,449,2.4482,34.6912
-168,575,2.41614,-35.1227,0.00209243,-0.0129982,0.00547662,0.00387048,-0.0147762,0.313927,0.0113629,0.0113797,1056,449,2.41609,35.1227
-161,575,2.43567,-35.5267,0.00171578,-0.0144059,0.00656277,0.00404951,-0.0167396,0.341656,0.0127262,0.0161681,1063,449,2.43571,35.5267
-154,575,2.46411,-35.9245,0.00129996,-0.0156506,0.00781222,0.00435122,-0.0187019,0.372355,0.0141432,0.0187994,1070,449,2.46415,35.9245
-147,575,2.50684,-36.2892,0.000881297,-0.0168482,0.00920642,0.00479708,-0.020764,0.402151,0.0156881,0.0163997,1077,449,2.50683,36.2892
-140,575,2.50476,-36.5847,0.000318561,-0.0184172,0.0107508,0.00521029,-0.0233089,0.427014,0.017536,0.0222779,1084,449,2.50482,36.5847
-133,575,2.55603,-36.7794,-0.000353144,-0.0197454,0.0122699,0.00558933,-0.0256878,0.451019,0.0192606,0.0321737,1091,449,2.55599,36.7795
-126,575,2.56641,-36.8086,-0.000786699,-0.0211389,0.0135729,0.00600121,-0.0279268,0.463733,0.0209074,0.0352045,1098,449,2.56636,36.8086
-119,575,2.18506,-36.9252,-0.00115623,-0.0224609,0.0145783,0.00624686,-0.029864,0.469881,0.0222854,0.0377779,1105,449,2.18502,36.9252
-112,575,2.14807,-37.1988,0,0,0,0,0,0,0,-1,1112,449,2.14803,37.1987
-105,575,2.18347,-36.5414,0,0,0,0,0,0,0,-1,1119,449,2.18351,36.5414
-98,575,1.521,-25.6961,0,0,0,0,0,0,0,-1,1126,449,1.52105,25.6961
-91,575,1.60803,-16.4247,0,0,0,0,0,0,0,-1,1133,449,1.60802,16.4247
-84,575,1.16553,-11.9056,0,0,0,0,0,0,0,-1,1140,449,1.16558,11.9056
-77,575,0.205078,-11.2584,0,0,0,0,0,0,0,-1,1147,449,0.205117,11.2584
-70,575,-4.2467,-1.78738,0,0,0,0,0,0,0,-1,1154,449,-4.24674,1.78739
-63,575,-4.52209,-3.48798,0,0,0,0,0,0,0,-1,1161,449,-4.5221,3.48796
-56,575,-5.5968,-5.4928,0,0,0,0,0,0,0,-1,1168,449,-5.59683,5.49281
-49,575,-5.96863,-7.17612,0,0,0,0,0,0,0,-1,1175,449,-5.96868,7.1761
-42,575,-0.830322,0.773499,0,0,0,0,0,0,0,-1,1182,449,-0.83038,-0.77351
-35,575,-0.62085,0.205139,0,0,0,0,0,0,0,-1,1189,449,-0.620855,-0.205126
-28,575,0.49292,-3.87988,0,0,0,0,0,0,0,-1,1196,449,0.492941,3.87989
-21,575,3.24927,-38.5394,0,0,0,0,0,0,0,-1,1203,449,3.24924,38.5394
-14,575,2.94849,-38.6787,0,0,0,0,0,0,0,-1,1210,449,2.94843,38.6787
-7,575,6.48462,-43.8771,0,0,0,0,0,0,0,-1,1217,449,6.48466,43.8771
0,575,6.28906,-43.0121,0,0,0,0,0,0,0,-1,1224,449,6.28906,43.0121
7,575,6.06519,-42.1172,0.00214,-0.0675396,0.0268839,0.0113065,-0.0767061,0.328605,0.0552929,0.048113,1231,449,6.06519,42.1171
14,575,5.82703,-41.1912,0.0109834,-0.0631963,0.014374,0.0136713,-0.0658842,0.184862,0.0491183,0.0490767,1238,449,5.82702,41.1912
21,575,5.67712,-39.9148,0.0193622,-0.0611086,0.000607124,0.0193668,-0.0611132,0.00754407,0.0485041,0.0444255,1245,449,5.67708,39.9148
28,575,5.37146,-38.7893,0.0271202,-0.0596857,-0.0122361,0.028812,-0.0613775,-0.137394,0.0531904,0.0438977,1252,449,5.3714,38.7893
35,575,5.00464,-37.6216,0.0322459,-0.057785,-0.0232943,0.0379159,-0.063455,-0.238764,0.0591424,0.0423756,1259,449,5.00468,37.6216
42,575,4.67468,-36.2347,0.0382913,-0.0525467,-0.038176,0.0522044,-0.0664598,-0.349485,0.0686754,0.0407924,1266,449,4.67469,36.2347
49,575,6.14636,-41.4619,0.0422418,-0.0475052,-0.0507477,0.0651102,-0.0703736,-0.423376,0.0782413,0.0446981,1273,449,6.14632,41.4619
56,575,6.69275,-41.8589,0,0,0,0,0,0,0,-1,1280,449,6.6928,41.859
63,575,7.55347,-42.656,0,0,0,0,0,0,0,-1,1287,449,7.55348,42.656
70,575,8.01221,-43.4095,0.0390384,-0.0304794,-0.07317,0.0852859,-0.0767269,-0.563657,0.0935816,0.0468109,1294,449,8.01219,43.4095
77,575,8.29138,-44.2165,0.0357703,-0.0195149,-0.078048,0.0909263,-0.0746709,-0.615204,0.095761,0.0475976,1301,449,8.29139,44.2165
84,575,7.72815,-45.1171,0.0318634,-0.00676179,-0.0811517,0.0959689,-0.0708673,-0.66858,0.0966857,0.0463162,1308,449,7.7281,45.1171
91,575,7.51392,-45.8243,0,0,0,0,0,0,0,-1,1315,449,7.5139,45.8243
98,575,7.46582,-48.0343,0.0160686,0.0173959,-0.0803134,0.0970483,-0.0635839,-0.78953,0.0934095,0.0451973,1322,449,7.46582,48.0343
105,575,6.94104,-49.3612,-0.000404432,0.0242597,-0.0685315,0.0815599,-0.0577046,-0.874419,0.0807967,0.0428185,1329,449,6.94105,49.3612
112,575,7.03174,-50.1461,-0.0193274,0.0320446,-0.0552459,0.0672839,-0.0545666,-1.003,0.070478,0.0435996,1336,449,7.03178,50.1461
119,575,6.99988,-51.2181,-0.0377921,0.0367493,-0.0396724,0.0539121,-0.0549549,-1.1625,0.0628554,0.0460431,1343,449,6.99991,51.2181
126,575,6.91724,-52.3273,0,0,0,0,0,0,0,-1,1350,449,6.91724,52.3273
133,575,6.37781,-42.8703,0,0,0,0,0,0,0,-1,1357,449,6.37787,42.8703
140,575,5.72607,-42.0775,0,0,0,0,0,0,0,-1,1364,449,5.72602,42.0776
147,575,4.77307,-41.5246,0,0,0,0,0,0,0,-1,1371,449,4.7731,41.5246
154,575,2.54065,-41.1859,0,0,0,0,0,0,0,-1,1378,449,2.54063,41.1859
161,575,1.02246,-40.6799,0,0,0,0,0,0,0,-1,1385,449,1.02251,40.6799
168,575,7.5509,-35.3165,0,0,0,0,0,0,0,-1,1392,449,7.5509,35.3165
175,575,4.32617,1.93634,0,0,0,0,0,0,0,-1,1399,449,4.32612,-1.93634
182,575,6.3147,-2.88345,0,0,0,0,0,0,0,-1,1406,449,6.31466,2.88346
189,575,6.10449,-1.30817,0,0,0,0,0,0,0,-1,1413,449,6.10455,1.30817
196,575,5.79895,0.818359,0,0,0,0,0,0,0,-1,1420,449,5.79895,-0.81837
203,575,3.29724,-1.46378,0,0,0,0,0,0,0,-1,1427,449,3.29722,1.46377
210,575,2.32739,-7.74503,0,0,0,0,0,0,0,-1,1434,449,2.32741,7.74502
217,575,3.33618,-11.5521,0,0,0,0,0,0,0,-1,1441,449,3.3362,11.5521
224,575,5.51709,-16.3903,0,0,0,0,0,0,0,-1,1448,449,5.51713,16.3903
231,575,5.48572,-20.4595,0,0,0,0,0,0,0,-1,1455,449,5.48571,20.4595
238,575,5.33484,-22.3575,0,0,0,0,0,0,0,-1,1462,449,5.33478,22.3575
245,575,5.59741,-23.513,0,0,0,0,0,0,0,-1,1469,449,5.5974,23.513
252,575,8.86169,-37.5799,0,0,0,0,0,0,0,-1,1476,449,8.86164,37.5799
259,575,8.69434,-36.9612,0,0,0,0,0,0,0,-1,1483,449,8.69431,36.9612
266,575,8.65503,-36.4714,0,0,0,0,0,0,0,-1,1490,449,8.65499,36.4714
273,575,8.70691,-36.0905,0,0,0,0,0,0,0,-1,1497,449,8.70695,36.0905
280,575,8.71228,-35.5132,0,0,0,0,0,0,0,-1,1504,449,8.7123,35.5132
287,575,8.6853,-35.0841,0.00395103,-0.00199432,-0.00164916,0.00437784,-0.00242114,-0.25325,0.00397921,0.0282435,1511,449,8.68526,35.0841
294,575,8.77295,-34.6231,0.00369247,-0.00210502,-0.00152237,0.00406792,-0.00248046,-0.241795,0.00381756,0.0137664,1518,449,8.7729,34.6231
301,575,8.80432,-34.1264,0.00332314,-0.00210127,-0.00137441,0.0036515,-0.00242963,-0.234516,0.00353449,0.0105016,1525,449,8.80427,34.1264
308,575,8.80981,-33.6356,0.00294271,-0.00229318,-0.0012523,0.00322681,-0.00257729,-0.22309,0.00335798,0.0111845,1532,449,8.80983,33.6356
315,575,8.80212,-33.1716,0.00236796,-0.00219841,-0.00125751,0.00269136,-0.00252181,-0.251718,0.00301036,0.0113149,1539,449,8.80207,33.1716
322,575,8.81433,-32.6881,0.00181846,-0.00180654,-0.00106037,0.00210585,-0.00209393,-0.26467,0.00242475,0.0102031,1546,449,8.81438,32.6881
329,575,8.80481,-32.2115,0.00135155,-0.00132226,-0.000771787,0.00155833,-0.00152904,-0.261778,0.00178253,0.0107938,1553,449,8.80479,32.2114
336,575,8.78064,-31.7103,0.000942392,-0.000733957,-0.000453063,0.001057,-0.000848569,-0.247774,0.00110238,0.0126829,1560,449,8.78068,31.7103
343,575,8.78955,-31.1769,0.000527771,-4.48469e-05,-0.000128089,0.000555117,-7.21931e-05,-0.210336,0.00039634,0.0126182,1567,449,8.7896,31.1769
350,575,8.77026,-30.649,0.000227795,0.000870646,0.000309812,0.000995648,0.000102793,1.1873,0.000632292,0.011547,1574,449,8.77029,30.6489
357,575,8.74536,-30.1196,8.86274e-06,0.00177801,0.000793141,0.00208152,-0.000294648,1.20532,0.0014956,0.0111393,1581,449,8.74539,30.1196
364,575,8.73267,-29.5954,-0.000171262,0.00274055,0.00131814,0.00324861,-0.000679321,1.20291,0.00242412,0.0103662,1588,449,8.73262,29.5954
371,575,8.73376,-29.0784,-0.000307383,0.00374378,0.00186743,0.00447325,-0.00103684,1.1984,0.00338119,0.0184309,1595,449,8.73374,29.0784
378,575,8.7135,-28.5281,-0.000347682,0.00476767,0.00212917,0.00553791,-0.00111793,1.22368,0.00411551,0.017792,1602,449,8.71351,28.5281
385,575,8.66223,-27.959,-0.000101159,0.00565587,0.00227428,0.0064459,-0.000891184,1.23646,0.00462305,0.0111453,1609,449,8.66222,27.959
392,575,8.62866,-27.4155,0.000818115,0.00640084,0.00237217,0.00727266,-5.37008e-05,1.2186,0.00486644,0.00960493,1616,449,8.62871,27.4155
399,575,8.59302,-26.8916,0.00210487,0.00709986,0.00276159,0.00832578,0.000878945,1.15301,0.00528197,0.0105026,1623,449,8.59298,26.8916
406,575,8.56323,-26.2834,0.00335474,0.00769487,0.0029909,0.00922002,0.00182959,1.09923,0.00563668,0.0123535,1630,449,8.56317,26.2834
413,575,8.54138,-25.6771,0.00466464,0.00806703,0.00309691,0.00989924,0.00283243,1.03656,0.00588704,0.0157789,1637,449,8.54139,25.6771
420,575,8.48877,-25.0865,0.00641849,0.0081137,0.00291102,0.010298,0.00423418,0.927066,0.00597675,0.015641,1644,449,8.48875,25.0865
427,575,8.43494,-24.4483,0.00874525,0.00792045,0.00302956,0.0113904,0.00527535,0.717751,0.00658218,0.0172637,1651,449,8.43494,24.4483
434,575,8.35461,-23.9086,0.0113011,0.00790084,0.00326562,0.0132826,0.00591929,0.545398,0.00768382,0.0258721,1658,449,8.35467,23.9086
441,575,8.54797,-23.2832,0.0139441,0.00772585,0.00353032,0.0155392,0.00613073,0.424377,0.00903783,0.0474248,1665,449,8.54799,23.2832
448,575,8.89709,-22.4728,0,0,0,0,0,0,0,-1,1672,449,8.89707,22.4728
455,575,10.1959,-21.5318,0,0,0,0,0,0,0,-1,1679,449,10.1959,21.5318
462,575,6.42517,-19.7967,0,0,0,0,0,0,0,-1,1686,449,6.42519,19.7967
469,575,7.94983,-20.7686,0,0,0,0,0,0,0,-1,1693,449,7.94978,20.7686
476,575,8.07861,-20.3889,0,0,0,0,0,0,0,-1,1700,449,8.0786,20.3888
483,575,7.26025,-21.0203,0,0,0,0,0,0,0,-1,1707,449,7.26024,21.0203
490,575,6.78235,-18.917,0,0,0,0,0,0,0,-1,1714,449,6.7824,18.917
497,575,0,0,0,0,0,0,0,0,0,-1,1721,449,0,0
504,575,0,0,0,0,0,0,0,0,0,-1,1728,449,0,0
511,575,0,0,0,0,0,0,0,0,0,-1,1735,449,0,0
518,575,0,0,0,0,0,0,0,0,0,-1,1742,449,0,0
525,575,0,0,0,0,0,0,0,0,0,-1,1749,449,0,0
532,575,0,0,0,0,0,0,0,0,0,-1,1756,449,0,0
539,575,0,0,0,0,0,0,0,0,0,-1,1763,449,0,0
546,575,0,0,0,0,0,0,0,0,0,-1,1770,449,0,0
553,575,0,0,0,0,0,0,0,0,0,-1,1777,449,0,0
560,575,0,0,0,0,0,0,0,0,0,-1,1784,449,0,0
567,575,0,0,0,0,0,0,0,0,0,-1,1791,449,0,0
574,575,0,0,0,0,0,0,0,0,0,-1,1798,449,0,0
581,575,0,0,0,0,0,0,0,0,0,-1,1805,449,0,0
588,575,0,0,0,0,0,0,0,0,0,-1,1812,449,0,0
595,575,0,0,0,0,0,0,0,0,0,-1,1819,449,0,0
602,575,0,0,0,0,0,0,0,0,0,-1,1826,449,0,0
609,575,0,0,0,0,0,0,0,0,0,-1,1833,449,0,0
616,575,0,0,0,0,0,0,0,0,0,-1,1840,449,0,0
623,575,0,0,0,0,0,0,0,0,0,-1,1847,449,0,0
630,575,0,0,0,0,0,0,0,0,0,-1,1854,449,0,0
637,575,0,0,0,0,0,0,0,0,0,-1,1861,449,0,0
644,575,0,0,0,0,0,0,0,0,0,-1,1868,449,0,0
651,575,0,0,0,0,0,0,0,0,0,-1,1875,449,0,0
658,575,0,0,0,0,0,0,0,0,0,-1,1882,449,0,0
665,575,0,0,0,0,0,0,0,0,0,-1,1889,449,0,0
672,575,0,0,0,0,0,0,0,0,0,-1,1896,449,0,0
679,575,0,0,0,0,0,0,0,0,0,-1,1903,449,0,0
686,575,0,0,0,0,0,0,0,0,0,-1,1910,449,0,0
693,575,0,0,0,0,0,0,0,0,0,-1,1917,449,0,0
700,575,0,0,0,0,0,0,0,0,0,-1,1924,449,0,0
707,575,0,0,0,0,0,0,0,0,0,-1,1931,449,0,0
714,575,0,0,0,0,0,0,0,0,0,-1,1938,449,0,0
721,575,0,0,0,0,0,0,0,0,0,-1,1945,449,0,0
728,575,0,0,0,0,0,0,0,0,0,-1,1952,449,0,0
735,575,0,0,0,0,0,0,0,0,0,-1,1959,449,0,0
742,575,0,0,0,0,0,0,0,0,0,-1,1966,449,0,0
749,575,0,0,0,0,0,0,0,0,0,-1,1973,449,0,0
756,575,0,0,0,0,0,0,0,0,0,-1,1980,449,0,0
763,575,0,0,0,0,0,0,0,0,0,-1,1987,449,0,0
770,575,0,0,0,0,0,0,0,0,0,-1,1994,449,0,0
777,575,0,0,0,0,0,0,0,0,0,-1,2001,449,0,0
784,575,0,0,0,0,0,0,0,0,0,-1,2008,449,0,0
791,575,0,0,0,0,0,0,0,0,0,-1,2015,449,0,0
798,575,0,0,0,0,0,0,0,0,0,-1,2022,449,0,0
805,575,0,0,0,0,0,0,0,0,0,-1,2029,449,0,0
812,575,0,0,0,0,0,0,0,0,0,-1,2036,449,0,0
-700,568,0,0,0,0,0,0,0,0,0,-1,524,456,0,0
-693,568,0,0,0,0,0,0,0,0,0,-1,531,456,0,0
-686,568,0,0,0,0,0,0,0,0,0,-1,538,456,0,0
-679,568,0,0,0,0,0,0,0,0,0,-1,545,456,0,0
-672,568,0,0,0,0,0,0,0,0,0,-1,552,456,0,0
-665,568,0,0,0,0,0,0,0,0,0,-1,559,456,0,0
-658,568,0,0,0,0,0,0,0,0,0,-1,566,456,0,0
-651,568,0,0,0,0,0,0,0,0,0,-1,573,456,0,0
-644,568,0,0,0,0,0,0,0,0,0,-1,580,456,0,0
-637,568,0,0,0,0,0,0,0,0,0,-1,587,456,0,0
-630,568,0,0,0,0,0,0,0,0,0,-1,594,456,0,0
-623,568,0,0,0,0,0,0,0,0,0,-1,601,456,0,0
-616,568,0,0,0,0,0,0,0,0,0,-1,608,456,0,0
-609,568,0,0,0,0,0,0,0,0,0,-1,615,456,0,0
-602,568,0,0,0,0,0,0,0,0,0,-1,622,456,0,0
-595,568,0,0,0,0,0,0,0,0,0,-1,629,456,0,0
-588,568,0,0,0,0,0,0,0,0,0,-1,636,456,0,0
-581,568,0,0,0,0,0,0,0,0,0,-1,643,456,0,0
-574,568,0,0,0,0,0,0,0,0,0,-1,650,456,0,0
-567,568,0,0,0,0,0,0,0,0,0,-1,657,456,0,0
-560,568,0,0,0,0,0,0,0,0,0,-1,664,456,0,0
-553,568,0,0,0,0,0,0,0,0,0,-1,671,456,0,0
-546,568,0,0,0,0,0,0,0,0,0,-1,678,456,0,0
-539,568,0,0,0,0,0,0,0,0,0,-1,685,456,0,0
-532,568,0,0,0,0,0,0,0,0,0,-1,692,456,0,0
-525,568,0,0,0,0,0,0,0,0,0,-1,699,456,0,0
-518,568,0,0,0,0,0,0,0,0,0,-1,706,456,0,0
-511,568,0,0,0,0,0,0,0,0,0,-1,713,456,0,0
-504,568,0,0,0,0,0,0,0,0,0,-1,720,456,0,0
-497,568,0,0,0,0,0,0,0,0,0,-1,727,456,0,0
-490,568,0,0,0,0,0,0,0,0,0,-1,734,456,0,0
-483,568,0,0,0,0,0,0,0,0,0,-1,741,456,0,0
-476,568,0,0,0,0,0,0,0,0,0,-1,748,456,0,0
-469,568,0,0,0,0,0,0,0,0,0,-1,755,456,0,0
-462,568,0,0,0,0,0,0,0,0,0,-1,762,456,0,0
-455,568,0,0,0,0,0,0,0,0,0,-1,769,456,0,0
-448,568,0,0,0,0,0,0,0,0,0,-1,776,456,0,0
-441,568,0,0,0,0,0,0,0,0,0,-1,783,456,0,0
-434,568,0,0,0,0,0,0,0,0,0,-1,790,456,0,0
-427,568,0,0,0,0,0,0,0,0,0,-1,797,456,0,0
-420,568,0,0,0,0,0,0,0,0,0,-1,804,456,0,0
-413,568,0,0,0,0,0,0,0,0,0,-1,811,456,0,0
-406,568,0,0,0,0,0,0,0,0,0,-1,818,456,0,0
-399,568,0,0,0,0,0,0,0,0,0,-1,825,456,0,0
-392,568,0,0,0,0,0,0,0,0,0,-1,832,456,0,0
-385,568,0,0,0,0,0,0,0,0,0,-1,839,456,0,0
-378,568,0.321777,-7.29929,0,0,0,0,0,0,0,-1,846,456,0.321806,7.29927
-371,568,1.09595,-7.46707,0,0,0,0,0,0,0,-1,853,456,1.09597,7.46707
-364,568,1.87787,-7.61115,0,0,0,0,0,0,0,-1,860,456,1.87784,7.61116
-357,568,2.14166,-7.67645,0,0,0,0,0,0,0,-1,867,456,2.14167,7.67646
-350,568,2.7467,-11.2507,0,0,0,0,0,0,0,-1,874,456,2.7467,11.2507
-343,568,2.16516,-11.3762,0,0,0,0,0,0,0,-1,881,456,2.16514,11.3762
-336,568,2.29675,-22.8745,0,0,0,0,0,0,0,-1,888,456,2.29673,22.8744
-329,568,2.13855,-23.3,0,0,0,0,0,0,0,-1,895,456,2.13856,23.3
-322,568,1.86908,-23.9628,0.0116499,-0.00690687,-0.00229462,0.0119294,-0.0071864,-0.121222,0.0111492,0.0416784,902,456,1.86906,23.9628
-315,568,2.28015,-23.9826,0.00909905,-0.00836528,-0.00124895,0.00918792,-0.00845415,-0.0710327,0.0101886,0.0397823,909,456,2.28013,23.9826
-308,568,2.22455,-24.8011,0.00693952,-0.00772004,-0.000977986,0.00700447,-0.00778499,-0.0663215,0.00854266,0.0339569,916,456,2.22457,24.8011
-301,568,2.24072,-25.5074,0.00501444,-0.0071968,-0.00083397,0.00507114,-0.0072535,-0.0678752,0.00715272,0.0200947,923,456,2.24073,25.5075
-294,568,2.18243,-26.0695,0.00321375,-0.00653,-0.000633672,0.00325479,-0.00657103,-0.0646706,0.00577964,0.0136868,930,456,2.18246,26.0695
-287,568,2.13568,-26.6504,0.00170757,-0.00554181,-0.000490069,0.00174055,-0.00557479,-0.067194,0.00441265,0.0114197,937,456,2.13566,26.6504
-280,568,2.12366,-27.2261,0.000708639,-0.00437958,-0.000481714,0.000753842,-0.00442479,-0.0935646,0.00323059,0.0111683,944,456,2.12367,27.2261
-273,568,2.11145,-27.788,9.40341e-05,-0.0032764,-0.000494278,0.000165025,-0.00334739,-0.142651,0.00228858,0.0123088,951,456,2.11146,27.788
-266,568,2.0744,-28.3344,-0.000495816,-0.00221015,-0.000415246,-0.000400531,-0.00230544,-0.225561,0.00142237,0.0114806,958,456,2.07438,28.3344
-259,568,2.04388,-28.8568,-0.000663915,-0.00170268,-0.000375065,-0.000542648,-0.00182395,-0.312714,0.00108146,0.0126537,965,456,2.04386,28.8568
-252,568,1.99982,-29.3757,-0.000491758,-0.00145117,-0.000119107,-0.000477192,-0.00146574,-0.121685,0.000863238,0.0130473,972,456,1.99983,29.3757
-245,568,1.96277,-29.8737,3.25829e-05,-0.00144956,6.75024e-05,3.56509e-05,-0.00145263,0.0454183,0.000980521,0.0147463,979,456,1.96277,29.8738
-238,568,1.97083,-30.3737,0.000791996,-0.00215136,0.000396915,0.000844581,-0.00220395,0.131717,0.00181746,0.0132101,986,456,1.97082,30.3737
-231,568,1.94879,-30.8758,0.00142301,-0.00306186,0.000813789,0.00156611,-0.00320496,0.174062,0.00280822,0.0121717,993,456,1.94882,30.8758
-224,568,1.91125,-31.3725,0.00192927,-0.00426117,0.00130503,0.00219314,-0.00452505,0.199506,0.00395587,0.013742,1000,456,1.91127,31.3725
-217,568,1.92584,-31.8801,0.00240936,-0.00585071,0.00180428,0.00278628,-0.00622763,0.20594,0.00532911,0.011499,1007,456,1.92585,31.8801
-210,568,1.95203,-32.3773,0.00279606,-0.00767983,0.00227064,0.00326704,-0.00815082,0.204523,0.00679014,0.0113624,1014,456,1.95206,32.3773
-203,568,1.95319,-32.8577,0.00311129,-0.00957804,0.0028035,0.00370308,-0.0101698,0.208035,0.00829452,0.010539,1021,456,1.95318,32.8577
-196,568,1.98206,-33.3051,0.00331215,-0.0112557,0.00329548,0.00402296,-0.0119665,0.212437,0.00960375,0.0146346,1028,456,1.98203,33.3051
-189,568,1.97778,-33.7505,0.00331593,-0.0129011,0.00407197,0.00428095,-0.0138662,0.232696,0.0109536,0.0149288,1035,456,1.97784,33.7505
-182,568,1.98267,-34.2309,0.00334421,-0.0144287,0.00505116,0.00467947,-0.0157639,0.258435,0.0123678,0.0165375,1042,456,1.98261,34.2309
-175,568,1.98889,-34.6528,0.00326816,-0.0154863,0.0061461,0.00510284,-0.017321,0.290091,0.0135719,0.0162033,1049,456,1.98884,34.6528
-168,568,2.00098,-34.9516,0.00265457,-0.0175294,0.0074822,0.00512568,-0.0200005,0.318987,0.0153306,0.0214388,1056,456,2.00096,34.9516
-161,568,1.98657,-35.3127,0.00204161,-0.0189134,0.00880394,0.00524941,-0.0221212,0.34941,0.0167733,0.0334768,1063,456,1.98653,35.3127
-154,568,2.12463,-35.8891,0.00129223,-0.020181,0.0104216,0.00551836,-0.0244071,0.385254,0.018389,0.0379214,1070,456,2.12459,35.8891
-147,568,2.1178,-36.1935,0.000572975,-0.0213105,0.0122522,0.00605796,-0.0267955,0.420919,0.0201882,0.0392935,1077,456,2.11785,36.1935
-140,568,1.96069,-36.3945,-0.000294165,-0.0231227,0.014306,0.00659311,-0.03001,0.448678,0.0225283,0.0393438,1084,456,1.96063,36.3945
-133,568,1.9126,-36.6661,-0.00138206,-0.0248087,0.0164594,0.00710648,-0.0332972,0.476148,0.0249072,0.0447556,1091,456,1.91261,36.6661
-126,568,2.07312,-36.884,-0.0022355,-0.0268652,0.0184958,0.00767017,-0.0367708,0.491691,0.0274304,0.046792,1098,456,2.07317,36.884
-119,568,2.10364,-37.1203,0,0,0,0,0,0,0,-1,1105,456,2.10358,37.1203
-112,568,1.98242,-35.0942,0,0,0,0,0,0,0,-1,1112,456,1.98247,35.0942
-105,568,2.02454,-25.038,0,0,0,0,0,0,0,-1,1119,456,2.02459,25.038
-98,568,1.58618,-14.7874,0,0,0,0,0,0,0,-1,1126,456,1.58617,14.7874
-91,568,1.11621,-11.1853,0,0,0,0,0,0,0,-1,1133,456,1.11626,11.1853
-84,568,0.461792,-9.7959,0,0,0,0,0,0,0,-1,1140,456,0.461793,9.7959
-77,568,-1.13806,-8.57822,0,0,0,0,0,0,0,-1,1147,456,-1.13807,8.57821
-70,568,-4.09766,-1.42911,0,0,0,0,0,0,0,-1,1154,456,-4.09767,1.4291
-63,568,-5.92273,-3.70752,0,0,0,0,0,0,0,-1,1161,456,-5.92272,3.70751
-56,568,-5.24158,-6.01385,0,0,0,0,0,0,0,-1,1168,456,-5.24161,6.01386
-49,568,-5.24365,-8.33557,0,0,0,0,0,0,0,-1,1175,456,-5.24371,8.33557
-42,568,-0.664795,0.521973,0,0,0,0,0,0,0,-1,1182,456,-0.664829,-0.521984
-35,568,-0.153076,-1.67731,0,0,0,0,0,0,0,-1,1189,456,-0.153068,1.67731
-28,568,1.25439,-4.48798,0,0,0,0,0,0,0,-1,1196,456,1.2544,4.48797
-21,568,2.14014,-36.9157,0,0,0,0,0,0,0,-1,1203,456,2.14017,36.9157
-14,568,1.87073,-37.0481,-0.0195256,-0.120838,0.0660526,0.0130588,-0.153423,0.458281,0.106901,0.0463812,1210,456,1.87068,37.0481
-7,568,1.573,-37.1644,-0.0167239,-0.101715,0.0588118,0.0133387,-0.131778,0.472541,0.0926189,0.0494395,1217,456,1.573,37.1644
0,568,6.66638,-43.2894,0,0,0,0,0,0,0,-1,1224,456,6.66641,43.2894
7,568,6.51343,-42.724,0.00138473,-0.074902,0.0322642,0.0132003,-0.0867176,0.351045,0.0626769,0.0488101,1231,456,6.51337,42.724
14,568,6.04932,-41.393,0.0124024,-0.0673374,0.0168484,0.0158162,-0.0707512,0.199911,0.0532287,0.0456927,1238,456,6.04926,41.393
21,568,5.97986,-39.9647,0,0,0,0,0,0,0,-1,1245,456,5.97986,39.9647
28,568,5.64709,-38.8477,0,0,0,0,0,0,0,-1,1252,456,5.64703,38.8477
35,568,5.05835,-37.6832,0,0,0,0,0,0,0,-1,1259,456,5.05836,37.6832
42,568,4.77856,-36.411,0,0,0,0,0,0,0,-1,1266,456,4.7786,36.411
49,568,6.40112,-41.5043,0,0,0,0,0,0,0,-1,1273,456,6.40107,41.5043
56,568,6.92126,-42.0923,0.0521466,-0.0431984,-0.070096,0.089245,-0.0802969,-0.486775,0.0979305,0.0463626,1280,456,6.92128,42.0923
63,568,7.49329,-42.5931,0,0,0,0,0,0,0,-1,1287,456,7.49334,42.5931
70,568,8.18701,-43.1323,0.0505954,-0.0336756,-0.0875213,0.105596,-0.088676,-0.561057,0.112305,0.0477195,1294,456,8.18705,43.1323
77,568,7.23792,-44.2014,0.0470713,-0.022447,-0.0933786,0.11195,-0.087326,-0.607224,0.115345,0.0460478,1301,456,7.23794,44.2014
84,568,7.11792,-45.1148,0.0427577,-0.00898977,-0.0974634,0.117723,-0.0839553,-0.655655,0.116982,0.0466374,1308,456,7.11794,45.1148
91,568,6.85242,-45.7709,0.035844,0.00463741,-0.0989992,0.120462,-0.0799806,-0.707236,0.11651,0.0424442,1315,456,6.85246,45.7709
98,568,7.19666,-48.9321,0.02661,0.0163387,-0.0975858,0.119195,-0.0762464,-0.759109,0.113743,0.0449355,1322,456,7.1967,48.9321
105,568,6.71729,-50.2336,0.006976,0.0248632,-0.0829132,0.0993138,-0.0674746,-0.839124,0.0968784,0.0478658,1329,456,6.71734,50.2336
112,568,6.90283,-50.4815,-0.0171865,0.0338104,-0.0652779,0.0783932,-0.0617693,-0.971592,0.0811124,0.0475282,1336,456,6.90286,50.4815
119,568,6.73901,-51.6808,0,0,0,0,0,0,0,-1,1343,456,6.73902,51.6808
126,568,6.81213,-26.7261,0,0,0,0,0,0,0,-1,1350,456,6.8121,26.7261
133,568,6.42847,-43.0325,0,0,0,0,0,0,0,-1,1357,456,6.42853,43.0325
140,568,5.55725,-42.3768,0,0,0,0,0,0,0,-1,1364,456,5.55726,42.3768
147,568,4.07373,-42.5183,0,0,0,0,0,0,0,-1,1371,456,4.07374,42.5183
154,568,2.10278,-41.4287,-0.190338,0.0662175,0.0812607,0.0897899,-0.213911,1.28846,0.180157,0.0404008,1378,456,2.10272,41.4288
161,568,0.141357,-40.3475,-0.204089,0.0605912,0.093589,0.09034,-0.233838,1.26303,0.193179,0.049313,1385,456,0.141297,40.3475
168,568,-1.74231,-39.2641,0,0,0,0,0,0,0,-1,1392,456,-1.74226,39.2641
175,568,10.5151,0.747498,0,0,0,0,0,0,0,-1,1399,456,10.5152,-0.747501
182,568,6.35095,-3.63361,0,0,0,0,0,0,0,-1,1406,456,6.35093,3.63359
189,568,6.17493,-1.70911,0,0,0,0,0,0,0,-1,1413,456,6.17497,1.70911
196,568,6.04724,0.200836,0,0,0,0,0,0,0,-1,1420,456,6.04724,-0.200835
203,568,5.9281,2.08649,0,0,0,0,0,0,0,-1,1427,456,5.92812,-2.08648
210,568,1.46216,-2.50446,0,0,0,0,0,0,0,-1,1434,456,1.46219,2.50446
217,568,2.62366,-7.86703,0,0,0,0,0,0,0,-1,1441,456,2.62365,7.86704
224,568,3.43494,-12.1555,0,0,0,0,0,0,0,-1,1448,456,3.43492,12.1555
231,568,4.38245,-9.3205,0,0,0,0,0,0,0,-1,1455,456,4.38244,9.32048
238,568,5.88879,-20.7448,0,0,0,0,0,0,0,-1,1462,456,5.88876,20.7449
245,568,3.34387,-10.6774,0,0,0,0,0,0,0,-1,1469,456,3.34389,10.6774
252,568,3.56946,-9.28928,0,0,0,0,0,0,0,-1,1476,456,3.56948,9.28928
259,568,3.38843,-8.73068,0,0,0,0,0,0,0,-1,1483,456,3.38842,8.73068
266,568,3.104,-9.16876,0,0,0,0,0,0,0,-1,1490,456,3.10397,9.16876
273,568,8.97107,-36.394,0,0,0,0,0,0,0,-1,1497,456,8.97105,36.394
280,568,8.67639,-35.7156,0,0,0,0,0,0,0,-1,1504,456,8.67637,35.7156
287,568,9.15051,-35.2222,0,0,0,0,0,0,0,-1,1511,456,9.15055,35.2222
294,568,9.27844,-34.4722,0.00456729,-0.00323939,-0.00222103,0.00515495,-0.00382704,-0.258659,0.00520461,0.0448959,1518,456,9.27849,34.4722
301,568,9.25598,-34.058,0.0041442,-0.00339561,-0.00214165,0.00471006,-0.00396147,-0.258313,0.00501273,0.0205013,1525,456,9.25593,34.058
308,568,9.27795,-33.6021,0.00364463,-0.0038897,-0.00214365,0.00421183,-0.00445691,-0.25867,0.00500557,0.0139237,1532,456,9.2779,33.6021
315,568,9.28052,-33.1496,0.00283195,-0.00409889,-0.00235787,0.00355803,-0.00482497,-0.298725,0.00485832,0.0088428,1539,456,9.28047,33.1496
322,568,9.27625,-32.6758,0.00212787,-0.003845,-0.0022351,0.00287164,-0.00458878,-0.321244,0.00434514,0.0102734,1546,456,9.2762,32.6757
329,568,9.28418,-32.1961,0.00157004,-0.00341262,-0.00198402,0.00226352,-0.00410611,-0.336261,0.00372844,0.0111027,1553,456,9.28416,32.1961
336,568,9.29724,-31.6895,0.00109034,-0.0028266,-0.00169328,0.00172084,-0.00345711,-0.356452,0.003045,0.0113153,1560,456,9.29718,31.6895
343,568,9.32117,-31.1525,0.000602825,-0.00216254,-0.00140281,0.00118983,-0.00274955,-0.396312,0.00233307,0.0112793,1567,456,9.32113,31.1525
350,568,9.29883,-30.6379,0.000246989,-0.00133298,-0.00100463,0.000735035,-0.00182102,-0.45222,0.00151949,0.00981821,1574,456,9.29882,30.6379
357,568,9.26074,-30.1031,1.29957e-05,-0.00044408,-0.000526085,0.000358038,-0.000789123,-0.58049,0.000677723,0.00981946,1581,456,9.26069,30.1032
364,568,9.25977,-29.5987,-0.000160075,0.000532638,1.53088e-05,0.000532976,-0.000160413,1.54871,0.000419149,0.0122469,1588,456,9.25981,29.5987
371,568,9.23938,-29.0442,-0.000259821,0.00153934,0.000601247,0.00172177,-0.00044225,1.27621,0.00132019,0.0212529,1595,456,9.23938,29.0442
378,568,9.21802,-28.4987,-0.000277277,0.00255245,0.000985511,0.00286184,-0.000586674,1.2666,0.00213055,0.018788,1602,456,9.21804,28.4987
385,568,9.19434,-27.9613,-7.62354e-05,0.00349606,0.00127961,0.00390712,-0.000487296,1.25997,0.00278144,0.00911234,1609,456,9.19435,27.9613
392,568,9.15869,-27.4272,0.000648557,0.00427137,0.00152193,0.00482586,9.40689e-05,1.22141,0.00318634,0.0104793,1616,456,9.15871,27.4272
399,568,9.11084,-26.9167,0.00169973,0.00492819,0.00200345,0.00588681,0.000741109,1.12451,0.00370231,0.0179166,1623,456,9.11084,26.9167
406,568,9.10376,-26.3256,0.00269663,0.00553174,0.00237788,0.00688254,0.00134583,1.05419,0.00421204,0.0160354,1630,456,9.1037,26.3256
413,568,9.08276,-25.6964,0.00368381,0.00600023,0.00268407,0.00776532,0.00191873,0.989085,0.00467058,0.0120835,1637,456,9.08281,25.6964
420,568,9.05237,-25.0965,0.00499013,0.00619847,0.00277935,0.00843856,0.00275004,0.892422,0.00496949,0.0105476,1644,456,9.05233,25.0965
427,568,9.01379,-24.4849,0.00668814,0.00615914,0.00309475,0.00952967,0.00331761,0.742768,0.00558591,0.0129474,1651,456,9.01381,24.4849
434,568,9.02148,-23.8594,0.00850549,0.00624695,0.00350895,0.0110624,0.00369003,0.62972,0.00650376,0.0189289,1658,456,9.0215,23.8594
441,568,9.03845,-23.3097,0.0103617,0.00619669,0.00396444,0.0127573,0.00380107,0.543559,0.00756324,0.028611,1665,456,9.03844,23.3097
448,568,9.54077,-22.6474,0.0120079,0.00591926,0.00443121,0.0143398,0.00358738,0.484418,0.00861668,0.0437107,1672,456,9.54082,22.6474
455,568,9.85986,-21.8672,0,0,0,0,0,0,0,-1,1679,456,9.85985,21.8672
462,568,8.53418,-21.5056,0,0,0,0,0,0,0,-1,1686,456,8.53415,21.5055
469,568,8.63477,-20.8319,0.0159342,0.00500572,0.00593939,0.0185406,0.00239939,0.41352,0.0116433,0.0470165,1693,456,8.63482,20.8319
476,568,8.81042,-20.3031,0.0169099,0.00441699,0.00631011,0.0195424,0.0017845,0.395234,0.012476,0.0498971,1700,456,8.8104,20.3031
483,568,9.09045,-19.5779,0,0,0,0,0,0,0,-1,1707,456,9.09046,19.5779
490,568,7.97534,-18.7272,0,0,0,0,0,0,0,-1,1714,456,7.97538,18.7272
497,568,7.45508,-18.4313,0,0,0,0,0,0,0,-1,1721,456,7.45512,18.4313
504,568,0,0,0,0,0,0,0,0,0,-1,1728,456,0,0
511,568,0,0,0,0,0,0,0,0,0,-1,1735,456,0,0
518,568,0,0,0,0,0,0,0,0,0,-1,1742,456,0,0
525,568,0,0,0,0,0,0,0,0,0,-1,1749,456,0,0
532,568,0,0,0,0,0,0,0,0,0,-1,1756,456,0,0
539,568,0,0,0,0,0,0,0,0,0,-1,1763,456,0,0
546,568,0,0,0,0,0,0,0,0,0,-1,1770,456,0,0
553,568,0,0,0,0,0,0,0,0,0,-1,1777,456,0,0
560,568,0,0,0,0,0,0,0,0,0,-1,1784,456,0,0
567,568,0,0,0,0,0,0,0,0,0,-1,1791,456,0,0
574,568,0,0,0,0,0,0,0,0,0,-1,1798,456,0,0
581,568,0,0,0,0,0,0,0,0,0,-1,1805,456,0,0
588,568,0,0,0,0,0,0,0,0,0,-1,1812,456,0,0
595,568,0,0,0,0,0,0,0,0,0,-1,1819,456,0,0
602,568,0,0,0,0,0,0,0,0,0,-1,1826,456,0,0
609,568,0,0,0,0,0,0,0,0,0,-1,1833,456,0,0
616,568,0,0,0,0,0,0,0,0,0,-1,1840,456,0,0
623,568,0,0,0,0,0,0,0,0,0,-1,1847,456,0,0
630,568,0,0,0,0,0,0,0,0,0,-1,1854,456,0,0
637,568,0,0,0,0,0,0,0,0,0,-1,1861,456,0,0
644,568,0,0,0,0,0,0,0,0,0,-1,1868,456,0,0
651,568,0,0,0,0,0,0,0,0,0,-1,1875,456,0,0
658,568,0,0,0,0,0,0,0,0,0,-1,1882,456,0,0
665,568,0,0,0,0,0,0,0,0,0,-1,1889,456,0,0
672,568,0,0,0,0,0,0,0,0,0,-1,1896,456,0,0
679,568,0,0,0,0,0,0,0,0,0,-1,1903,456,0,0
686,568,0,0,0,0,0,0,0,0,0,-1,1910,456,0,0
693,568,0,0,0,0,0,0,0,0,0,-1,1917,456,0,0
700,568,0,0,0,0,0,0,0,0,0,-1,1924,456,0,0
707,568,0,0,0,0,0,0,0,0,0,-1,1931,456,0,0
714,568,0,0,0,0,0,0,0,0,0,-1,1938,456,0,0
721,568,0,0,0,0,0,0,0,0,0,-1,1945,456,0,0
728,568,0,0,0,0,0,0,0,0,0,-1,1952,456,0,0
735,568,0,0,0,0,0,0,0,0,0,-1,1959,456,0,0
742,568,0,0,0,0,0,0,0,0,0,-1,1966,456,0,0
749,568,0,0,0,0,0,0,0,0,0,-1,1973,456,0,0
756,568,0,0,0,0,0,0,0,0,0,-1,1980,456,0,0
763,568,0,0,0,0,0,0,0,0,0,-1,1987,456,0,0
770,568,0,0,0,0,0,0,0,0,0,-1,1994,456,0,0
777,568,0,0,0,0,0,0,0,0,0,-1,2001,456,0,0
784,568,0,0,0,0,0,0,0,0,0,-1,2008,456,0,0
791,568,0,0,0,0,0,0,0,0,0,-1,2015,456,0,0
798,568,0,0,0,0,0,0,0,0,0,-1,2022,456,0,0
805,568,0,0,0,0,0,0,0,0,0,-1,2029,456,0,0
812,568,0,0,0,0,0,0,0,0,0,-1,2036,456,0,0
-700,561,0,0,0,0,0,0,0,0,0,-1,524,463,0,0
-693,561,0,0,0,0,0,0,0,0,0,-1,531,463,0,0
-686,561,0,0,0,0,0,0,0,0,0,-1,538,463,0,0
-679,561,0,0,0,0,0,0,0,0,0,-1,545,463,0,0
-672,561,0,0,0,0,0,0,0,0,0,-1,552,463,0,0
-665,561,0,0,0,0,0,0,0,0,0,-1,559,463,0,0
-658,561,0,0,0,0,0,0,0,0,0,-1,566,463,0,0
-651,561,0,0,0,0,0,0,0,0,0,-1,573,463,0,0
-644,561,0,0,0,0,0,0,0,0,0,-1,580,463,0,0
-637,561,0,0,0,0,0,0,0,0,0,-1,587,463,0,0
-630,561,0,0,0,0,0,0,0,0,0,-1,594,463,0,0
-623,561,0,0,0,0,0,0,0,0,0,-1,601,463,0,0
-616,561,0,0,0,0,0,0,0,0,0,-1,608,463,0,0
-609,561,0,0,0,0,0,0,0,0,0,-1,615,463,0,0
-602,561,0,0,0,0,0,0,0,0,0,-1,622,463,0,0
-595,561,0,0,0,0,0,0,0,0,0,-1,629,463,0,0
-588,561,0,0,0,0,0,0,0,0,0,-1,636,463,0,0
-581,561,0,0,0,0,0,0,0,0,0,-1,643,463,0,0
-574,561,0,0,0,0,0,0,0,0,0,-1,650,463,0,0
-567,561,0,0,0,0,0,0,0,0,0,-1,657,463,0,0
-560,561,0,0,0,0,0,0,0,0,0,-1,664,463,0,0
-553,561,0,0,0,0,0,0,0,0,0,-1,671,463,0,0
-546,561,0,0,0,0,0,0,0,0,0,-1,678,463,0,0
-539,561,0,0,0,0,0,0,0,0,0,-1,685,463,0,0
-532,561,0,0,0,0,0,0,0,0,0,-1,692,463,0,0
-525,561,0,0,0,0,0,0,0,0,0,-1,699,463,0,0
-518,561,0,0,0,0,0,0,0,0,0,-1,706,463,0,0
-511,561,0,0,0,0,0,0,0,0,0,-1,713,463,0,0
-504,561,0,0,0,0,0,0,0,0,0,-1,720,463,0,0
-497,561,0,0,0,0,0,0,0,0,0,-1,727,463,0,0
-490,561,0,0,0,0,0,0,0,0,0,-1,734,463,0,0
-483,561,0,0,0,0,0,0,0,0,0,-1,741,463,0,0
-476,561,0,0,0,0,0,0,0,0,0,-1,748,463,0,0
-469,561,0,0,0,0,0,0,0,0,0,-1,755,463,0,0
-462,561,0,0,0,0,0,0,0,0,0,-1,762,463,0,0
-455,561,0,0,0,0,0,0,0,0,0,-1,769,463,0,0
-448,561,0,0,0,0,0,0,0,0,0,-1,776,463,0,0
-441,561,0,0,0,0,0,0,0,0,0,-1,783,463,0,0
-434,561,0,0,0,0,0,0,0,0,0,-1,790,463,0,0
-427,561,0,0,0,0,0,0,0,0,0,-1,797,463,0,0
-420,561,0,0,0,0,0,0,0,0,0,-1,804,463,0,0
-413,561,0,0,0,0,0,0,0,0,0,-1,811,463,0,0
-406,561,0,0,0,0,0,0,0,0,0,-1,818,463,0,0
-399,561,0,0,0,0,0,0,0,0,0,-1,825,463,0,0
-392,561,4.92407,-2.54578,0,0,0,0,0,0,0,-1,832,463,4.92408,2.54576
-385,561,5.55634,-1.02338,0,0,0,0,0,0,0,-1,839,463,5.55634,1.02338
-378,561,0.160522,-4.51785,0,0,0,0,0,0,0,-1,846,463,0.160542,4.51785
-371,561,1.06299,-7.56818,0,0,0,0,0,0,0,-1,853,463,1.06297,7.56817
-364,561,1.45264,-7.57684,0,0,0,0,0,0,0,-1,860,463,1.45264,7.57684
-357,561,0.948242,-12.2803,0,0,0,0,0,0,0,-1,867,463,0.948262,12.2803
-350,561,1.33124,-11.9406,0,0,0,0,0,0,0,-1,874,463,1.33127,11.9406
-343,561,1.13214,-14.1837,0,0,0,0,0,0,0,-1,881,463,1.13217,14.1837
-336,561,1.99316,-22.4131,0,0,0,0,0,0,0,-1,888,463,1.99316,22.4131
-329,561,1.6958,-23.2641,0.00998505,-0.000567605,-0.00432465,0.0115309,-0.00211347,-0.343299,0.00848001,0.0424626,895,463,1.6958,23.2641
-322,561,1.67346,-23.6613,0.00897313,-0.00173567,-0.00331233,0.00991485,-0.00267739,-0.276999,0.00765996,0.0362137,902,463,1.67346,23.6613
-315,561,1.82428,-24.0662,0.00770728,-0.00259509,-0.00247559,0.00827127,-0.00315909,-0.223998,0.00681578,0.0240239,909,463,1.82425,24.0662
-308,561,1.76617,-24.7926,0.00643425,-0.0022154,-0.00211791,0.00692499,-0.00270614,-0.22769,0.00573561,0.0201995,916,463,1.76618,24.7926
-301,561,1.70465,-25.5424,0.0052529,-0.00191114,-0.00190303,0.00572704,-0.00238528,-0.244176,0.00481429,0.0145421,923,463,1.70468,25.5424
-294,561,1.64203,-26.1143,0.00407598,-0.00146115,-0.00164787,0.00452928,-0.00191445,-0.268444,0.00382103,0.0119602,930,463,1.64202,26.1143
-287,561,1.60138,-26.6506,0.00303029,-0.000844536,-0.00143133,0.00350167,-0.00131592,-0.318143,0.00287528,0.0100585,937,463,1.6014,26.6506
-280,561,1.56378,-27.1868,0.00228085,-0.000317198,-0.00129318,0.0028148,-0.000851143,-0.391572,0.00221543,0.0120527,944,463,1.56381,27.1868
-273,561,1.53058,-27.7319,0.00174451,7.41729e-05,-0.00111508,0.00230251,-0.000483827,-0.463976,0.00171913,0.0150552,951,463,1.53056,27.7319
-266,561,1.53162,-28.2708,0.00122657,0.000281836,-0.000828982,0.00170832,-0.000199914,-0.526432,0.00121103,0.0095971,958,463,1.53164,28.2709
-259,561,1.53912,-28.8111,0.00106791,-0.000122409,-0.000531584,0.00127075,-0.000325245,-0.364517,0.000973854,0.0104544,965,463,1.53915,28.8111
-252,561,1.50323,-29.342,0.00117142,-0.000911635,-2.9619e-05,0.00117184,-0.000912056,-0.0142152,0.00120625,0.0146479,972,463,1.50321,29.342
-245,561,1.45276,-29.8479,0.00156191,-0.001929,0.000432193,0.00161462,-0.00198171,0.121365,0.00207994,0.0164779,979,463,1.45277,29.8479
-238,561,1.46881,-30.3644,0.00217983,-0.00354921,0.00100522,0.00235109,-0.00372047,0.168747,0.00353501,0.0134321,986,463,1.46884,30.3644
-231,561,1.4389,-30.8824,0.00270934,-0.00528633,0.0016243,0.00302671,-0.0056037,0.192961,0.00505627,0.0116499,993,463,1.43891,30.8824
-224,561,1.41565,-31.383,0.00313381,-0.00724904,0.00232305,0.00362987,-0.0077451,0.210377,0.00670907,0.0118816,1000,463,1.41567,31.383
-217,561,1.43939,-31.8735,0.00360673,-0.00941771,0.00298976,0.00426023,-0.0100712,0.215198,0.00849797,0.012576,1007,463,1.43939,31.8735
-210,561,1.45074,-32.3535,0.00396817,-0.0117434,0.00358719,0.00474843,-0.0125237,0.214177,0.0103033,0.0133865,1014,463,1.45072,32.3535
-203,561,1.45654,-32.8069,0.00427609,-0.0138722,0.00417612,0.00519094,-0.014787,0.215661,0.0119696,0.0144927,1021,463,1.45653,32.8069
-196,561,1.41785,-33.2281,0.0044492,-0.0157926,0.00473793,0.0055033,-0.0168467,0.218915,0.0134463,0.0165523,1028,463,1.4178,33.2281
-189,561,1.49341,-33.6425,0.00434104,-0.017728,0.00570402,0.00572814,-0.0191151,0.238548,0.0150213,0.0204855,1035,463,1.49347,33.6425
-182,561,1.56799,-34.0637,0.00421633,-0.0194158,0.00692146,0.00609427,-0.0212938,0.264944,0.0166044,0.0256027,1042,463,1.56795,34.0637
-175,561,1.47241,-34.4564,0.00400126,-0.0203236,0.0082638,0.00654309,-0.0228654,0.298402,0.0178294,0.0399513,1049,463,1.47244,34.4564
-168,561,1.37756,-34.824,0,0,0,0,0,0,0,-1,1056,463,1.37757,34.824
-161,561,1.54944,-35.1812,0.00224062,-0.0239401,0.0114973,0.00657279,-0.0282723,0.360348,0.0213786,0.0497718,1063,463,1.54942,35.1812
-154,561,1.50293,-35.6026,0.00104553,-0.0252605,0.0135886,0.00680418,-0.0310192,0.400842,0.0232813,0.0495702,1070,463,1.5029,35.6026
-147,561,1.48169,-36.0659,0,0,0,0,0,0,0,-1,1077,463,1.48166,36.0659
-140,561,0.866699,-36.4275,0,0,0,0,0,0,0,-1,1084,463,0.86665,36.4275
-133,561,1.38965,-36.5098,0,0,0,0,0,0,0,-1,1091,463,1.38968,36.5098
-126,561,1.63965,-36.7554,0,0,0,0,0,0,0,-1,1098,463,1.63964,36.7554
-119,561,-0.336304,-35.422,0,0,0,0,0,0,0,-1,1105,463,-0.336245,35.422
-112,561,1.24365,-29.1982,0,0,0,0,0,0,0,-1,1112,463,1.2437,29.1981
-105,561,0.530518,-13.5379,0,0,0,0,0,0,0,-1,1119,463,0.530477,13.5379
-98,561,1.5387,-7.54352,0,0,0,0,0,0,0,-1,1126,463,1.53871,7.54351
-91,561,1.29553,-6.57968,0,0,0,0,0,0,0,-1,1133,463,1.29549,6.5797
-84,561,1.23364,-5.84555,0,0,0,0,0,0,0,-1,1140,463,1.23363,5.84556
-77,561,-2.36023,1.00204,0,0,0,0,0,0,0,-1,1147,463,-2.3602,-1.00205
-70,561,-3.90015,-1.41541,0,0,0,0,0,0,0,-1,1154,463,-3.90009,1.4154
-63,561,-6.95691,-4.02756,0,0,0,0,0,0,0,-1,1161,463,-6.95696,4.02756
-56,561,-5.37988,-6.66855,0,0,0,0,0,0,0,-1,1168,463,-5.37988,6.66854
-49,561,-5.7439,-9.11029,0,0,0,0,0,0,0,-1,1175,463,-5.74387,9.1103
-42,561,-1.72644,-5.63065,0,0,0,0,0,0,0,-1,1182,463,-1.72648,5.63064
-35,561,-1.65674,-4.87994,0,0,0,0,0,0,0,-1,1189,463,-1.6567,4.87993
-28,561,-1.91418,-3.86896,0,0,0,0,0,0,0,-1,1196,463,-1.91414,3.86895
-21,561,0.646973,-35.3444,0,0,0,0,0,0,0,-1,1203,463,0.646914,35.3444
-14,561,0.711548,-35.3782,-0.0224844,-0.14843,0.0771527,0.0141326,-0.185047,0.443125,0.128335,0.0468681,1210,463,0.711599,35.3782
-7,561,0.785156,-35.5703,-0.0200287,-0.11869,0.0680213,0.0146668,-0.153386,0.47167,0.10748,0.0484664,1217,463,0.78514,35.5703
0,561,0.819702,-36.1677,0,0,0,0,0,0,0,-1,1224,463,0.819749,36.1677
7,561,6.79346,-43.0976,0,0,0,0,0,0,0,-1,1231,463,6.79346,43.0976
14,561,6.37854,-41.6361,0,0,0,0,0,0,0,-1,1238,463,6.3785,41.6362
21,561,6.28687,-40.1528,0,0,0,0,0,0,0,-1,1245,463,6.28683,40.1528
28,561,5.74597,-38.6249,0,0,0,0,0,0,0,-1,1252,463,5.74595,38.6249
35,561,5.17371,-37.7513,0,0,0,0,0,0,0,-1,1259,463,5.17376,37.7513
42,561,5.75354,-38.1587,0.0555658,-0.0441826,-0.0537326,0.0790035,-0.0676203,-0.411311,0.0847383,0.0469202,1266,463,5.75349,38.1587
49,561,6.41504,-38.7315,0.0639136,-0.0416857,-0.0699578,0.0987604,-0.0765325,-0.462135,0.101476,0.0427813,1273,463,6.41503,38.7315
56,561,6.69202,-40.0111,0.065587,-0.0407219,-0.0818601,0.110036,-0.0851711,-0.497445,0.113007,0.0410657,1280,463,6.692,40.0111
63,561,7.5177,-42.262,0,0,0,0,0,0,0,-1,1287,463,7.51767,42.262
70,561,8.38953,-42.8453,0,0,0,0,0,0,0,-1,1294,463,8.38958,42.8453
77,561,9.26147,-43.4287,0,0,0,0,0,0,0,-1,1301,463,9.26148,43.4287
84,561,6.55359,-45.1165,0,0,0,0,0,0,0,-1,1308,463,6.55354,45.1165
91,561,11.4893,-44.9119,0.0535928,-0.00033241,-0.117921,0.147594,-0.0943341,-0.673005,0.140801,0.0408825,1315,463,11.4892,44.9119
98,561,12.3586,-45.355,0.0462684,0.00903621,-0.117189,0.146311,-0.0910062,-0.706629,0.13825,0.0467256,1322,463,12.3586,45.355
105,561,13.3425,-45.8722,0,0,0,0,0,0,0,-1,1329,463,13.3426,45.8722
112,561,6.42395,-50.8431,0,0,0,0,0,0,0,-1,1336,463,6.42396,50.8431
119,561,6.4364,-28.3505,0,0,0,0,0,0,0,-1,1343,463,6.43643,28.3505
126,561,6.72668,-27.2786,0,0,0,0,0,0,0,-1,1350,463,6.7267,27.2786
133,561,7.28821,-25.1331,0,0,0,0,0,0,0,-1,1357,463,7.28818,25.1331
140,561,7.56189,-23.5632,0,0,0,0,0,0,0,-1,1364,463,7.56192,23.5632
147,561,3.40991,-43.094,0,0,0,0,0,0,0,-1,1371,463,3.40995,43.094
154,561,1.47754,-41.9901,-0.226056,0.0795949,0.107415,0.113568,-0.260029,1.26447,0.221152,0.044855,1378,463,1.47751,41.9901
161,561,-0.244019,-40.5217,-0.242501,0.0727812,0.122225,0.114614,-0.284334,1.24104,0.237179,0.0492148,1385,463,-0.244054,40.5217
168,561,-1.06763,-38.7777,0,0,0,0,0,0,0,-1,1392,463,-1.06757,38.7777
175,561,10.4185,0.276398,0,0,0,0,0,0,0,-1,1399,463,10.4185,-0.276394
182,561,6.45703,-4.02127,0,0,0,0,0,0,0,-1,1406,463,6.45704,4.02127
189,561,6.50854,-2.08685,0,0,0,0,0,0,0,-1,1413,463,6.50851,2.08686
196,561,6.44775,-0.27182,0,0,0,0,0,0,0,-1,1420,463,6.44773,0.271814
203,561,6.18591,1.1301,0,0,0,0,0,0,0,-1,1427,463,6.18592,-1.13009
210,561,5.68713,2.68427,0,0,0,0,0,0,0,-1,1434,463,5.6871,-2.68425
217,561,3.61743,-7.33582,0,0,0,0,0,0,0,-1,1441,463,3.61738,7.33581
224,561,4.27466,-8.59171,0,0,0,0,0,0,0,-1,1448,463,4.27466,8.59171
231,561,4.93188,-9.8476,0,0,0,0,0,0,0,-1,1455,463,4.93193,9.84761
238,561,2.18018,-5.18359,0,0,0,0,0,0,0,-1,1462,463,2.18023,5.18359
245,561,3.07568,-3.50238,0,0,0,0,0,0,0,-1,1469,463,3.0757,3.50238
252,561,3.47412,-3.71109,0,0,0,0,0,0,0,-1,1476,463,3.47413,3.71109
259,561,3.42212,-3.2334,0,0,0,0,0,0,0,-1,1483,463,3.42214,3.2334
266,561,4.44373,-5.90027,0,0,0,0,0,0,0,-1,1490,463,4.44372,5.90026
273,561,2.59485,-3.65268,0,0,0,0,0,0,0,-1,1497,463,2.5948,3.65268
280,561,3.10767,-6.38235,0,0,0,0,0,0,0,-1,1504,463,3.10766,6.38235
287,561,4.91809,-14.429,0,0,0,0,0,0,0,-1,1511,463,4.9181,14.429
294,561,9.69739,-34.2344,0,0,0,0,0,0,0,-1,1518,463,9.69734,34.2345
301,561,9.76318,-33.8738,0,0,0,0,0,0,0,-1,1525,463,9.7632,33.8738
308,561,9.73584,-33.4897,0.00429129,-0.00579065,-0.0030324,0.00513308,-0.00663243,-0.27078,0.00681118,0.0316488,1532,463,9.73587,33.4897
315,561,9.78809,-33.0806,0.00312233,-0.00622351,-0.00352677,0.00430383,-0.00740502,-0.323259,0.00683869,0.0188758,1539,463,9.78805,33.0806
322,561,9.76404,-32.6306,0.00222146,-0.00600757,-0.0034792,0.00349527,-0.00728138,-0.350964,0.00634861,0.0155221,1546,463,9.76406,32.6306
329,561,9.77661,-32.1604,0.00156961,-0.00555657,-0.00326726,0.00284083,-0.00682779,-0.371057,0.0057382,0.0115487,1553,463,9.77667,32.1604
336,561,9.8175,-31.6538,0.00101694,-0.00494641,-0.00301409,0.00227497,-0.00620444,-0.395402,0.00506779,0.0104588,1560,463,9.81749,31.6538
343,561,9.8219,-31.1324,0.000455291,-0.00429741,-0.00276277,0.0017231,-0.00556522,-0.430224,0.00439849,0.00990977,1567,463,9.8219,31.1324
350,561,9.79907,-30.6082,5.46929e-05,-0.00356417,-0.00240433,0.00125439,-0.00476386,-0.462825,0.00366628,0.00924315,1574,463,9.79912,30.6082
357,561,9.78052,-30.0773,-0.000182436,-0.00270548,-0.00192707,0.000859311,-0.00374723,-0.495586,0.00282844,0.0101122,1581,463,9.78049,30.0773
364,561,9.78345,-29.5841,-0.000339545,-0.00172003,-0.00136705,0.000501636,-0.00256121,-0.551612,0.00189693,0.0100494,1588,463,9.78351,29.5841
371,561,9.77356,-29.0579,-0.000387458,-0.000685509,-0.000736951,0.000215384,-0.00128835,-0.685634,0.000938967,0.0165196,1595,463,9.77354,29.0579
378,561,9.7583,-28.5042,-0.000361204,0.000379673,-0.000218787,0.000439458,-0.000420989,-1.30405,0.000496818,0.0117439,1602,463,9.75829,28.5042
385,561,9.73389,-27.9463,-0.000187782,0.00144506,0.000236618,0.00147866,-0.000221379,1.42975,0.00106724,0.0101746,1609,463,9.73394,27.9463
392,561,9.71143,-27.3831,0.000366361,0.00231917,0.000625793,0.0025025,0.000183031,1.28581,0.00161079,0.0139517,1616,463,9.71146,27.3832
399,561,9.72156,-26.8389,0.00119821,0.0030096,0.00117368,0.0035864,0.000621406,1.11401,0.00221307,0.0196291,1623,463,9.72157,26.8389
406,561,9.70215,-26.2916,0.00198967,0.00367877,0.00164971,0.00468754,0.000980899,1.02198,0.0028548,0.0182137,1630,463,9.70217,26.2916
413,561,9.65027,-25.7087,0.00274622,0.0042709,0.00208963,0.0057329,0.00128421,0.960306,0.00347391,0.0170306,1637,463,9.65023,25.7087
420,561,9.61096,-25.1091,0.00373775,0.00462353,0.00237939,0.0066009,0.00176038,0.877412,0.00394691,0.0138731,1644,463,9.61094,25.1091
427,561,9.59131,-24.4866,0.00498531,0.00472542,0.00280171,0.00766009,0.00205064,0.762224,0.00457889,0.0110335,1651,463,9.59137,24.4866
434,561,9.57996,-23.8714,0.0062949,0.00489553,0.00330012,0.00896869,0.00222174,0.680936,0.00539331,0.0129395,1658,463,9.57993,23.8714
441,561,9.59045,-23.2853,0.00762923,0.00492884,0.00384048,0.01035,0.00220812,0.616362,0.00629438,0.016611,1665,463,9.59047,23.2853
448,561,9.62573,-22.6544,0.00879242,0.00480661,0.00439861,0.0116285,0.00197049,0.572693,0.00718615,0.0248899,1672,463,9.62575,22.6544
455,561,9.79309,-21.9871,0.00989312,0.00448242,0.0049531,0.0128315,0.001544,0.53544,0.00808896,0.045275,1679,463,9.79311,21.9871
462,561,9.58044,-21.368,0.0108644,0.00440462,0.00564301,0.0141365,0.00113254,0.52547,0.00907042,0.044163,1686,463,9.58046,21.368
469,561,9.32751,-20.8939,0.0115979,0.00426186,0.0061704,0.0151082,0.000751555,0.517234,0.00983117,0.0260889,1693,463,9.32747,20.8939
476,561,9.48315,-20.2813,0.0122499,0.00380563,0.00673414,0.015976,7.94893e-05,0.505389,0.0106243,0.0434668,1700,463,9.48315,20.2814
483,561,9.67297,-19.6631,0,0,0,0,0,0,0,-1,1707,463,9.67301,19.6631
490,561,8.08118,-18.5471,0,0,0,0,0,0,0,-1,1714,463,8.08123,18.5471
497,561,8.24731,-17.6062,0,0,0,0,0,0,0,-1,1721,463,8.24728,17.6062
504,561,10.0769,-0.811401,0,0,0,0,0,0,0,-1,1728,463,10.0769,0.8114
511,561,0,0,0,0,0,0,0,0,0,-1,1735,463,0,0
518,561,0,0,0,0,0,0,0,0,0,-1,1742,463,0,0
525,561,0,0,0,0,0,0,0,0,0,-1,1749,463,0,0
532,561,0,0,0,0,0,0,0,0,0,-1,1756,463,0,0
539,561,0,0,0,0,0,0,0,0,0,-1,1763,463,0,0
546,561,0,0,0,0,0,0,0,0,0,-1,1770,463,0,0
553,561,0,0,0,0,0,0,0,0,0,-1,1777,463,0,0
560,561,0,0,0,0,0,0,0,0,0,-1,1784,463,0,0
567,561,0,0,0,0,0,0,0,0,0,-1,1791,463,0,0
574,561,0,0,0,0,0,0,0,0,0,-1,1798,463,0,0
581,561,0,0,0,0,0,0,0,0,0,-1,1805,463,0,0
588,561,0,0,0,0,0,0,0,0,0,-1,1812,463,0,0
595,561,0,0,0,0,0,0,0,0,0,-1,1819,463,0,0
602,561,0,0,0,0,0,0,0,0,0,-1,1826,463,0,0
609,561,0,0,0,0,0,0,0,0,0,-1,1833,463,0,0
616,561,0,0,0,0,0,0,0,0,0,-1,1840,463,0,0
623,561,0,0,0,0,0,0,0,0,0,-1,1847,463,0,0
630,561,0,0,0,0,0,0,0,0,0,-1,1854,463,0,0
637,561,0,0,0,0,0,0,0,0,0,-1,1861,463,0,0
644,561,0,0,0,0,0,0,0,0,0,-1,1868,463,0,0
651,561,0,0,0,0,0,0,0,0,0,-1,1875,463,0,0
658,561,0,0,0,0,0,0,0,0,0,-1,1882,463,0,0
665,561,0,0,0,0,0,0,0,0,0,-1,1889,463,0,0
672,561,0,0,0,0,0,0,0,0,0,-1,1896,463,0,0
679,561,0,0,0,0,0,0,0,0,0,-1,1903,463,0,0
686,561,0,0,0,0,0,0,0,0,0,-1,1910,463,0,0
693,561,0,0,0,0,0,0,0,0,0,-1,1917,463,0,0
700,561,0,0,0,0,0,0,0,0,0,-1,1924,463,0,0
707,561,0,0,0,0,0,0,0,0,0,-1,1931,463,0,0
714,561,0,0,0,0,0,0,0,0,0,-1,1938,463,0,0
721,561,0,0,0,0,0,0,0,0,0,-1,1945,463,0,0
728,561,0,0,0,0,0,0,0,0,0,-1,1952,463,0,0
735,561,0,0,0,0,0,0,0,0,0,-1,1959,463,0,0
742,561,0,0,0,0,0,0,0,0,0,-1,1966,463,0,0
749,561,0,0,0,0,0,0,0,0,0,-1,1973,463,0,0
756,561,0,0,0,0,0,0,0,0,0,-1,1980,463,0,0
763,561,0,0,0,0,0,0,0,0,0,-1,1987,463,0,0
770,561,0,0,0,0,0,0,0,0,0,-1,1994,463,0,0
777,561,0,0,0,0,0,0,0,0,0,-1,2001,463,0,0
784,561,0,0,0,0,0,0,0,0,0,-1,2008,463,0,0
791,561,0,0,0,0,0,0,0,0,0,-1,2015,463,0,0
798,561,0,0,0,0,0,0,0,0,0,-1,2022,463,0,0
805,561,0,0,0,0,0,0,0,0,0,-1,2029,463,0,0
812,561,0,0,0,0,0,0,0,0,0,-1,2036,463,0,0
-700,554,0,0,0,0,0,0,0,0,0,-1,524,470,0,0
-693,554,0,0,0,0,0,0,0,0,0,-1,531,470,0,0
-686,554,0,0,0,0,0,0,0,0,0,-1,538,470,0,0
-679,554,0,0,0,0,0,0,0,0,0,-1,545,470,0,0
-672,554,0,0,0,0,0,0,0,0,0,-1,552,470,0,0
-665,554,0,0,0,0,0,0,0,0,0,-1,559,470,0,0
-658,554,0,0,0,0,0,0,0,0,0,-1,566,470,0,0
-651,554,0,0,0,0,0,0,0,0,0,-1,573,470,0,0
-644,554,0,0,0,0,0,0,0,0,0,-1,580,470,0,0
-637,554,0,0,0,0,0,0,0,0,0,-1,587,470,0,0
-630,554,0,0,0,0,0,0,0,0,0,-1,594,470,0,0
-623,554,0,0,0,0,0,0,0,0,0,-1,601,470,0,0
-616,554,0,0,0,0,0,0,0,0,0,-1,608,470,0,0
-609,554,0,0,0,0,0,0,0,0,0,-1,615,470,0,0
-602,554,0,0,0,0,0,0,0,0,0,-1,622,470,0,0
-595,554,0,0,0,0,0,0,0,0,0,-1,629,470,0,0
-588,554,0,0,0,0,0,0,0,0,0,-1,636,470,0,0
-581,554,0,0,0,0,0,0,0,0,0,-1,643,470,0,0
-574,554,0,0,0,0,0,0,0,0,0,-1,650,470,0,0
-567,554,0,0,0,0,0,0,0,0,0,-1,657,470,0,0
-560,554,0,0,0,0,0,0,0,0,0,-1,664,470,0,0
-553,554,0,0,0,0,0,0,0,0,0,-1,671,470,0,0
-546,554,0,0,0,0,0,0,0,0,0,-1,678,470,0,0
-539,554,0,0,0,0,0,0,0,0,0,-1,685,470,0,0
-532,554,0,0,0,0,0,0,0,0,0,-1,692,470,0,0
-525,554,0,0,0,0,0,0,0,0,0,-1,699,470,0,0
-518,554,0,0,0,0,0,0,0,0,0,-1,706,470,0,0
-511,554,0,0,0,0,0,0,0,0,0,-1,713,470,0,0
-504,554,0,0,0,0,0,0,0,0,0,-1,720,470,0,0
-497,554,0,0,0,0,0,0,0,0,0,-1,727,470,0,0
-490,554,0,0,0,0,0,0,0,0,0,-1,734,470,0,0
-483,554,0,0,0,0,0,0,0,0,0,-1,741,470,0,0
-476,554,0,0,0,0,0,0,0,0,0,-1,748,470,0,0
-469,554,0,0,0,0,0,0,0,0,0,-1,755,470,0,0
-462,554,0,0,0,0,0,0,0,0,0,-1,762,470,0,0
-455,554,0,0,0,0,0,0,0,0,0,-1,769,470,0,0
-448,554,0,0,0,0,0,0,0,0,0,-1,776,470,0,0
-441,554,0,0,0,0,0,0,0,0,0,-1,783,470,0,0
-434,554,0,0,0,0,0,0,0,0,0,-1,790,470,0,0
-427,554,0,0,0,0,0,0,0,0,0,-1,797,470,0,0
-420,554,0,0,0,0,0,0,0,0,0,-1,804,470,0,0
-413,554,0,0,0,0,0,0,0,0,0,-1,811,470,0,0
-406,554,0,0,0,0,0,0,0,0,0,-1,818,470,0,0
-399,554,-1.32275,-3.95142,0,0,0,0,0,0,0,-1,825,470,-1.32275,3.95141
-392,554,-1.35632,-3.7406,0,0,0,0,0,0,0,-1,832,470,-1.35632,3.7406
-385,554,-0.849243,-4.14447,0,0,0,0,0,0,0,-1,839,470,-0.849262,4.14446
-378,554,-0.982666,-4.55084,0,0,0,0,0,0,0,-1,846,470,-0.982671,4.55084
-371,554,-1.74542,-4.63467,0,0,0,0,0,0,0,-1,853,470,-1.74541,4.63468
-364,554,1.04883,-7.68756,0,0,0,0,0,0,0,-1,860,470,1.0488,7.68757
-357,554,1.62164,-19.1316,0,0,0,0,0,0,0,-1,867,470,1.62162,19.1316
-350,554,1.17157,-18.1341,0,0,0,0,0,0,0,-1,874,470,1.17156,18.1341
-343,554,1.51788,-22.0129,0,0,0,0,0,0,0,-1,881,470,1.51787,22.0129
-336,554,1.4035,-22.5126,0.00731441,0.00432098,-0.00584751,0.0118537,-0.000218331,-0.660109,0.00797625,0.0409098,888,470,1.40348,22.5126
-329,554,1.25806,-23.1637,0.00675558,0.00210848,-0.0045087,0.00950423,-0.000640175,-0.547473,0.00655997,0.0206744,895,470,1.25807,23.1637
-322,554,1.17859,-23.7637,0.00613582,0.000569874,-0.00344152,0.00777879,-0.0010731,-0.445403,0.00557808,0.0140348,902,470,1.1786,23.7637
-315,554,1.1886,-24.3398,0.00543487,-0.000182946,-0.00266282,0.00649644,-0.00124451,-0.379353,0.00479988,0.0136087,909,470,1.18857,24.3398
-308,554,1.15466,-24.9362,0.00464444,-0.000192433,-0.00220408,0.00549813,-0.00104612,-0.36953,0.00405931,0.0143819,916,470,1.15464,24.9362
-301,554,1.15295,-25.5461,0.00390161,-0.000214429,-0.00190252,0.00464627,-0.00095909,-0.373078,0.00346178,0.0142944,923,470,1.15293,25.5461
-294,554,1.10388,-26.0872,0.00320128,4.84621e-05,-0.00162207,0.00388676,-0.000637023,-0.399836,0.00282754,0.0126096,930,470,1.10388,26.0873
-287,554,1.06049,-26.6319,0.00260988,0.000416398,-0.00139423,0.00328704,-0.000260764,-0.452132,0.00228325,0.0120477,937,470,1.06048,26.6319
-280,554,1.02814,-27.1778,0.00220961,0.000509961,-0.00120487,0.00283421,-0.000114633,-0.478252,0.00192882,0.0116542,944,470,1.02811,27.1778
-273,554,0.981079,-27.7359,0.00192469,0.000478628,-0.000923816,0.00237478,2.85391e-05,-0.453361,0.00157376,0.015599,951,470,0.981057,27.7359
-266,554,0.969421,-28.2779,0.00171423,0.000139363,-0.000519948,0.0018704,-1.68128e-05,-0.291794,0.00125258,0.0121293,958,470,0.969445,28.2779
-259,554,0.983032,-28.7663,0.00181323,-0.000789267,-5.91479e-05,0.00181457,-0.00079061,-0.0227117,0.00154234,0.0121371,965,470,0.983058,28.7663
-252,554,0.949402,-29.2868,0.00208616,-0.0022185,0.00059065,0.00216574,-0.00229807,0.133915,0.00257756,0.0143934,972,470,0.949396,29.2868
-245,554,0.942444,-29.8292,0.00255519,-0.00385824,0.00125879,0.00279341,-0.00409646,0.187033,0.00400151,0.0157776,979,470,0.942461,29.8292
-238,554,0.963074,-30.3676,0.0032024,-0.00602391,0.00201855,0.0036247,-0.0064462,0.206232,0.00589001,0.0124495,986,470,0.963053,30.3676
-231,554,0.947571,-30.8777,0.00377576,-0.00829696,0.0028062,0.00439616,-0.00891736,0.217581,0.00783291,0.0110163,993,470,0.947568,30.8777
-224,554,0.940186,-31.3612,0.00424536,-0.0108188,0.00369824,0.0051043,-0.0116778,0.22821,0.00993381,0.0109121,1000,470,0.940156,31.3612
-217,554,0.950745,-31.845,0.00478492,-0.0135265,0.00455036,0.00585334,-0.0145949,0.230621,0.0121601,0.0114673,1007,470,0.950733,31.845
-210,554,0.991516,-32.2991,0.00520006,-0.016145,0.00523044,0.00641283,-0.0173578,0.227842,0.0142006,0.0152513,1014,470,0.991508,32.2991
-203,554,0.968384,-32.6951,0.0055197,-0.0186462,0.0059026,0.00688436,-0.0200109,0.227205,0.0161327,0.0243551,1021,470,0.968379,32.6951
-196,554,0.959595,-33.0148,0.00569212,-0.0209806,0.00653862,0.00720878,-0.0224973,0.227923,0.0178919,0.0315202,1028,470,0.95965,33.0148
-189,554,1.06787,-33.2919,0.00550791,-0.0232411,0.00763012,0.00740747,-0.0251407,0.243995,0.0196994,0.0379079,1035,470,1.06784,33.2919
-182,554,1.06311,-33.8391,0,0,0,0,0,0,0,-1,1042,470,1.06307,33.8391
-175,554,0.954834,-34.2193,0,0,0,0,0,0,0,-1,1049,470,0.954828,34.2193
-168,554,0.704834,-34.3747,0,0,0,0,0,0,0,-1,1056,470,0.704856,34.3747
-161,554,1.05359,-34.8581,0,0,0,0,0,0,0,-1,1063,470,1.05356,34.8581
-154,554,1.01868,-35.2624,0,0,0,0,0,0,0,-1,1070,470,1.01863,35.2624
-147,554,1.34558,-35.0622,0,0,0,0,0,0,0,-1,1077,470,1.3456,35.0622
-140,554,-0.25708,-36.2908,0,0,0,0,0,0,0,-1,1084,470,-0.257034,36.2908
-133,554,2.67163,-32.8187,0,0,0,0,0,0,0,-1,1091,470,2.67161,32.8187
-126,554,0.851929,-33.5393,0,0,0,0,0,0,0,-1,1098,470,0.851942,33.5393
-119,554,-1.03479,-32.1628,0,0,0,0,0,0,0,-1,1105,470,-1.03476,32.1628
-112,554,1.03162,-24.5784,0,0,0,0,0,0,0,-1,1112,470,1.03156,24.5784
-105,554,0.608765,-21.0475,0,0,0,0,0,0,0,-1,1119,470,0.608728,21.0475
-98,554,1.51929,-7.3624,0,0,0,0,0,0,0,-1,1126,470,1.51928,7.36241
-91,554,1.41089,-6.5864,0,0,0,0,0,0,0,-1,1133,470,1.41093,6.58638
-84,554,1.62305,-5.87186,0,0,0,0,0,0,0,-1,1140,470,1.62299,5.87186
-77,554,-2.56958,1.33258,0,0,0,0,0,0,0,-1,1147,470,-2.56959,-1.33257
-70,554,-3.68164,-1.18332,0,0,0,0,0,0,0,-1,1154,470,-3.68158,1.18331
-63,554,-4.86853,-3.88708,0,0,0,0,0,0,0,-1,1161,470,-4.86853,3.88708
-56,554,-5.69958,-6.45422,0,0,0,0,0,0,0,-1,1168,470,-5.69955,6.45422
-49,554,-6.23645,-8.8569,0,0,0,0,0,0,0,-1,1175,470,-6.23643,8.85689
-42,554,-6.62524,-11.5382,0,0,0,0,0,0,0,-1,1182,470,-6.62522,11.5382
-35,554,-2.40173,-4.59482,0,0,0,0,0,0,0,-1,1189,470,-2.40169,4.59481
-28,554,-0.760132,-1.65555,0,0,0,0,0,0,0,-1,1196,470,-0.760095,1.65556
-21,554,-6.11462,-31.9121,0,0,0,0,0,0,0,-1,1203,470,-6.11458,31.9122
-14,554,-0.171021,-33.7231,0,0,0,0,0,0,0,-1,1210,470,-0.17103,33.7231
-7,554,0.657471,-34.1422,0,0,0,0,0,0,0,-1,1217,470,0.65753,34.1422
0,554,1.11047,-34.7982,0,0,0,0,0,0,0,-1,1224,470,1.11048,34.7981
7,554,6.84851,-43.4075,0,0,0,0,0,0,0,-1,1231,470,6.84855,43.4075
14,554,6.74805,-41.8581,0,0,0,0,0,0,0,-1,1238,470,6.748,41.8581
21,554,6.60864,-40.1922,0,0,0,0,0,0,0,-1,1245,470,6.60865,40.1922
28,554,6.34473,-38.6601,0,0,0,0,0,0,0,-1,1252,470,6.3447,38.6601
35,554,6.13062,-37.7322,0,0,0,0,0,0,0,-1,1259,470,6.13063,37.7322
42,554,6.38318,-38.3191,0.0662399,-0.0255267,-0.0612698,0.0969024,-0.0561893,-0.464008,0.0894233,0.0482136,1266,470,6.3832,38.3191
49,554,6.65417,-39.1072,0.079189,-0.0262446,-0.078474,0.121009,-0.0680647,-0.489633,0.110579,0.047992,1273,470,6.65412,39.1072
56,554,6.99902,-39.9754,0.0842831,-0.0319412,-0.092824,0.135685,-0.083343,-0.505722,0.127654,0.0437984,1280,470,6.999,39.9754
63,554,7.65063,-41.0396,0,0,0,0,0,0,0,-1,1287,470,7.65066,41.0396
70,554,8.57349,-42.2029,0,0,0,0,0,0,0,-1,1294,470,8.57353,42.203
77,554,9.62793,-43.0479,0,0,0,0,0,0,0,-1,1301,470,9.62794,43.0479
84,554,10.6818,-43.4009,0,0,0,0,0,0,0,-1,1308,470,10.6818,43.4009
91,554,11.5419,-43.8694,0.0891331,-0.0179799,-0.137976,0.183582,-0.112429,-0.60027,0.17254,0.0419875,1315,470,11.5418,43.8694
98,554,12.634,-44.4564,0.0894722,-0.0182819,-0.138842,0.184524,-0.113334,-0.600319,0.173598,0.047226,1322,470,12.634,44.4564
105,554,13.774,-45.0997,0,0,0,0,0,0,0,-1,1329,470,13.774,45.0997
112,554,7.00586,-29.5698,0,0,0,0,0,0,0,-1,1336,470,7.00582,29.5698
119,554,7.09485,-28.4001,0,0,0,0,0,0,0,-1,1343,470,7.09482,28.4001
126,554,7.57751,-27.1743,0,0,0,0,0,0,0,-1,1350,470,7.57747,27.1743
133,554,8.26685,-25.9059,0,0,0,0,0,0,0,-1,1357,470,8.26688,25.9059
140,554,8.94446,-24.7668,0,0,0,0,0,0,0,-1,1364,470,8.94446,24.7669
147,554,9.69653,-23.6268,0,0,0,0,0,0,0,-1,1371,470,9.69656,23.6268
154,554,0.890015,-42.5471,0,0,0,0,0,0,0,-1,1378,470,0.890035,42.5471
161,554,-0.778687,-40.7399,0,0,0,0,0,0,0,-1,1385,470,-0.778649,40.7399
168,554,9.35071,-19.7403,0,0,0,0,0,0,0,-1,1392,470,9.35075,19.7403
175,554,10.663,0.286957,0,0,0,0,0,0,0,-1,1399,470,10.663,-0.286966
182,554,6.71106,-4.50217,0,0,0,0,0,0,0,-1,1406,470,6.71107,4.50215
189,554,6.90479,-2.50348,0,0,0,0,0,0,0,-1,1413,470,6.90477,2.50348
196,554,6.96216,-0.740906,0,0,0,0,0,0,0,-1,1420,470,6.96214,0.740912
203,554,6.43518,0.414154,0,0,0,0,0,0,0,-1,1427,470,6.43523,-0.414141
210,554,6.21167,1.96707,0,0,0,0,0,0,0,-1,1434,470,6.21165,-1.96706
217,554,5.64551,3.4989,0,0,0,0,0,0,0,-1,1441,470,5.64555,-3.49891
224,554,4.85144,-8.85172,0,0,0,0,0,0,0,-1,1448,470,4.85146,8.85173
231,554,3.25073,-5.29642,0,0,0,0,0,0,0,-1,1455,470,3.25078,5.29642
238,554,4.28625,-3.25253,0,0,0,0,0,0,0,-1,1462,470,4.28622,3.25252
245,554,4.0752,-2.90033,0,0,0,0,0,0,0,-1,1469,470,4.07515,2.90032
252,554,3.52112,-0.934998,0,0,0,0,0,0,0,-1,1476,470,3.52113,0.934996
259,554,3.96448,-2.16425,0,0,0,0,0,0,0,-1,1483,470,3.96446,2.16424
266,554,3.0592,-2.71716,0,0,0,0,0,0,0,-1,1490,470,3.05923,2.71718
273,554,2.58521,-3.06876,0,0,0,0,0,0,0,-1,1497,470,2.58524,3.06874
280,554,2.83301,-0.991699,0,0,0,0,0,0,0,-1,1504,470,2.83303,0.991704
287,554,3.54126,-4.12277,0,0,0,0,0,0,0,-1,1511,470,3.54123,4.12277
294,554,3.62036,-8.50146,0,0,0,0,0,0,0,-1,1518,470,3.62031,8.50145
301,554,9.31323,-32.2134,0,0,0,0,0,0,0,-1,1525,470,9.31327,32.2134
308,554,10.1981,-33.3741,0,0,0,0,0,0,0,-1,1532,470,10.1982,33.3741
315,554,10.3245,-33.0112,0,0,0,0,0,0,0,-1,1539,470,10.3245,33.0112
322,554,10.2875,-32.5612,0,0,0,0,0,0,0,-1,1546,470,10.2875,32.5613
329,554,10.3076,-31.9172,0.00114018,-0.00812603,-0.00488694,0.00324116,-0.010227,-0.406028,0.00811704,0.0349018,1553,470,10.3076,31.9172
336,554,10.3031,-31.568,0.000552143,-0.00740512,-0.00461488,0.00266668,-0.00951965,-0.429651,0.00739732,0.022364,1560,470,10.3031,31.568
343,554,10.3114,-31.1212,-4.95211e-05,-0.00668769,-0.00434721,0.00210082,-0.00883803,-0.459356,0.00670294,0.0138899,1567,470,10.3114,31.1212
350,554,10.3401,-30.5836,-0.000462228,-0.00600036,-0.00399006,0.00162548,-0.00808807,-0.482057,0.00600763,0.00984078,1574,470,10.3401,30.5836
357,554,10.3395,-30.0572,-0.000661832,-0.00511397,-0.00347301,0.00123729,-0.00701309,-0.5004,0.00513773,0.0105353,1581,470,10.3394,30.0572
364,554,10.3195,-29.5672,-0.000765739,-0.00406353,-0.00286392,0.000890044,-0.00571932,-0.5242,0.00414156,0.0091565,1588,470,10.3195,29.5672
371,554,10.3119,-29.05,-0.000728376,-0.00294618,-0.00216377,0.000594088,-0.00426865,-0.548604,0.00306306,0.00906108,1595,470,10.3118,29.05
378,554,10.2996,-28.4836,-0.000624093,-0.00173325,-0.00147634,0.000398396,-0.00275574,-0.60573,0.00198334,0.0101695,1602,470,10.2996,28.4836
385,554,10.2825,-27.9271,-0.000441515,-0.000472562,-0.000828931,0.000372038,-0.00128612,-0.776036,0.00100465,0.00923134,1609,470,10.2825,27.9271
392,554,10.2792,-27.3603,-1.60738e-05,0.000552,-0.000280606,0.000667233,-0.000131307,-1.18113,0.000494438,0.0128295,1616,470,10.2792,27.3603
399,554,10.2966,-26.7965,0.0006324,0.00134709,0.000335759,0.00148008,0.000499408,1.19366,0.000869451,0.0177204,1623,470,10.2967,26.7965
406,554,10.244,-26.2601,0.00127577,0.00213343,0.000901373,0.00270278,0.000706418,1.00743,0.00161861,0.0169422,1630,470,10.244,26.2601
413,554,10.2186,-25.6692,0.00188608,0.00287785,0.00144782,0.00391235,0.000851574,0.950388,0.00237581,0.0167447,1637,470,10.2187,25.6692
420,554,10.1945,-25.0815,0.0026664,0.00339764,0.00189135,0.00495839,0.00110565,0.880877,0.00300561,0.0179025,1644,470,10.1944,25.0815
427,554,10.1688,-24.4836,0.00358349,0.00363441,0.00236622,0.00597531,0.00124259,0.790778,0.00364072,0.0118249,1651,470,10.1689,24.4836
434,554,10.1289,-23.9026,0.00453468,0.00386909,0.00288991,0.00711089,0.00129288,0.728072,0.0043738,0.0100445,1658,470,10.1289,23.9026
441,554,10.1254,-23.3014,0.00551437,0.00395551,0.00344851,0.00827044,0.00119944,0.674255,0.00516048,0.0117275,1665,470,10.1254,23.3014
448,554,10.1042,-22.6277,0.00635827,0.00391303,0.00402236,0.00933972,0.000931582,0.637858,0.00594035,0.0190698,1672,470,10.1042,22.6277
455,554,10.0499,-22.0503,0.00717765,0.00373833,0.00461874,0.0103865,0.00052951,0.607188,0.00675474,0.0214791,1679,470,10.05,22.0503
462,554,9.9751,-21.4948,0.00790859,0.00368692,0.00531846,0.0115198,7.573e-05,0.596487,0.00765474,0.0226408,1686,470,9.97508,21.4948
469,554,9.90942,-20.9013,0.00841216,0.00356089,0.00586497,0.0123333,-0.000360244,0.589319,0.00834487,0.0255856,1693,470,9.90938,20.9013
476,554,9.85046,-19.9953,0.00876798,0.00317954,0.00653386,0.01308,-0.00113251,0.583341,0.00912099,0.0449599,1700,470,9.85046,19.9953
483,554,9.78735,-19.0992,0,0,0,0,0,0,0,-1,1707,470,9.78729,19.0992
490,554,8.59937,-18.6279,0,0,0,0,0,0,0,-1,1714,470,8.59933,18.6279
497,554,10.9613,1.60983,0,0,0,0,0,0,0,-1,1721,470,10.9613,-1.60982
504,554,2.13257,-3.81628,0,0,0,0,0,0,0,-1,1728,470,2.1326,3.8163
511,554,1.31396,-4.02713,0,0,0,0,0,0,0,-1,1735,470,1.31398,4.02712
518,554,5.04236,-5.9472,0,0,0,0,0,0,0,-1,1742,470,5.04231,5.94721
525,554,0,0,0,0,0,0,0,0,0,-1,1749,470,0,0
532,554,0,0,0,0,0,0,0,0,0,-1,1756,470,0,0
539,554,0,0,0,0,0,0,0,0,0,-1,1763,470,0,0
546,554,0,0,0,0,0,0,0,0,0,-1,1770,470,0,0
553,554,0,0,0,0,0,0,0,0,0,-1,1777,470,0,0
560,554,0,0,0,0,0,0,0,0,0,-1,1784,470,0,0
567,554,0,0,0,0,0,0,0,0,0,-1,1791,470,0,0
574,554,0,0,0,0,0,0,0,0,0,-1,1798,470,0,0
581,554,0,0,0,0,0,0,0,0,0,-1,1805,470,0,0
588,554,0,0,0,0,0,0,0,0,0,-1,1812,470,0,0
595,554,0,0,0,0,0,0,0,0,0,-1,1819,470,0,0
602,554,0,0,0,0,0,0,0,0,0,-1,1826,470,0,0
609,554,0,0,0,0,0,0,0,0,0,-1,1833,470,0,0
616,554,0,0,0,0,0,0,0,0,0,-1,1840,470,0,0
623,554,0,0,0,0,0,0,0,0,0,-1,1847,470,0,0
630,554,0,0,0,0,0,0,0,0,0,-1,1854,470,0,0
637,554,0,0,0,0,0,0,0,0,0,-1,1861,470,0,0
644,554,0,0,0,0,0,0,0,0,0,-1,1868,470,0,0
651,554,0,0,0,0,0,0,0,0,0,-1,1875,470,0,0
658,554,0,0,0,0,0,0,0,0,0,-1,1882,470,0,0
665,554,0,0,0,0,0,0,0,0,0,-1,1889,470,0,0
672,554,0,0,0,0,0,0,0,0,0,-1,1896,470,0,0
679,554,0,0,0,0,0,0,0,0,0,-1,1903,470,0,0
686,554,0,0,0,0,0,0,0,0,0,-1,1910,470,0,0
693,554,0,0,0,0,0,0,0,0,0,-1,1917,470,0,0
700,554,0,0,0,0,0,0,0,0,0,-1,1924,470,0,0
707,554,0,0,0,0,0,0,0,0,0,-1,1931,470,0,0
714,554,0,0,0,0,0,0,0,0,0,-1,1938,470,0,0
721,554,0,0,0,0,0,0,0,0,0,-1,1945,470,0,0
728,554,0,0,0,0,0,0,0,0,0,-1,1952,470,0,0
735,554,0,0,0,0,0,0,0,0,0,-1,1959,470,0,0
742,554,0,0,0,0,0,0,0,0,0,-1,1966,470,0,0
749,554,0,0,0,0,0,0,0,0,0,-1,1973,470,0,0
756,554,0,0,0,0,0,0,0,0,0,-1,1980,470,0,0
763,554,0,0,0,0,0,0,0,0,0,-1,1987,470,0,0
770,554,0,0,0,0,0,0,0,0,0,-1,1994,470,0,0
777,554,0,0,0,0,0,0,0,0,0,-1,2001,470,0,0
784,554,0,0,0,0,0,0,0,0,0,-1,2008,470,0,0
791,554,0,0,0,0,0,0,0,0,0,-1,2015,470,0,0
798,554,0,0,0,0,0,0,0,0,0,-1,2022,470,0,0
805,554,0,0,0,0,0,0,0,0,0,-1,2029,470,0,0
812,554,0,0,0,0,0,0,0,0,0,-1,2036,470,0,0
-700,547,0,0,0,0,0,0,0,0,0,-1,524,477,0,0
-693,547,0,0,0,0,0,0,0,0,0,-1,531,477,0,0
-686,547,0,0,0,0,0,0,0,0,0,-1,538,477,0,0
-679,547,0,0,0,0,0,0,0,0,0,-1,545,477,0,0
-672,547,0,0,0,0,0,0,0,0,0,-1,552,477,0,0
-665,547,0,0,0,0,0,0,0,0,0,-1,559,477,0,0
-658,547,0,0,0,0,0,0,0,0,0,-1,566,477,0,0
-651,547,0,0,0,0,0,0,0,0,0,-1,573,477,0,0
-644,547,0,0,0,0,0,0,0,0,0,-1,580,477,0,0
-637,547,0,0,0,0,0,0,0,0,0,-1,587,477,0,0
-630,547,0,0,0,0,0,0,0,0,0,-1,594,477,0,0
-623,547,0,0,0,0,0,0,0,0,0,-1,601,477,0,0
-616,547,0,0,0,0,0,0,0,0,0,-1,608,477,0,0
-609,547,0,0,0,0,0,0,0,0,0,-1,615,477,0,0
-602,547,0,0,0,0,0,0,0,0,0,-1,622,477,0,0
-595,547,0,0,0,0,0,0,0,0,0,-1,629,477,0,0
-588,547,0,0,0,0,0,0,0,0,0,-1,636,477,0,0
-581,547,0,0,0,0,0,0,0,0,0,-1,643,477,0,0
-574,547,0,0,0,0,0,0,0,0,0,-1,650,477,0,0
-567,547,0,0,0,0,0,0,0,0,0,-1,657,477,0,0
-560,547,0,0,0,0,0,0,0,0,0,-1,664,477,0,0
-553,547,0,0,0,0,0,0,0,0,0,-1,671,477,0,0
-546,547,0,0,0,0,0,0,0,0,0,-1,678,477,0,0
-539,547,0,0,0,0,0,0,0,0,0,-1,685,477,0,0
-532,547,0,0,0,0,0,0,0,0,0,-1,692,477,0,0
-525,547,0,0,0,0,0,0,0,0,0,-1,699,477,0,0
-518,547,0,0,0,0,0,0,0,0,0,-1,706,477,0,0
-511,547,0,0,0,0,0,0,0,0,0,-1,713,477,0,0
-504,547,0,0,0,0,0,0,0,0,0,-1,720,477,0,0
-497,547,0,0,0,0,0,0,0,0,0,-1,727,477,0,0
-490,547,0,0,0,0,0,0,0,0,0,-1,734,477,0,0
-483,547,0,0,0,0,0,0,0,0,0,-1,741,477,0,0
-476,547,0,0,0,0,0,0,0,0,0,-1,748,477,0,0
-469,547,0,0,0,0,0,0,0,0,0,-1,755,477,0,0
-462,547,0,0,0,0,0,0,0,0,0,-1,762,477,0,0
-455,547,0,0,0,0,0,0,0,0,0,-1,769,477,0,0
-448,547,0,0,0,0,0,0,0,0,0,-1,776,477,0,0
-441,547,0,0,0,0,0,0,0,0,0,-1,783,477,0,0
-434,547,0,0,0,0,0,0,0,0,0,-1,790,477,0,0
-427,547,0,0,0,0,0,0,0,0,0,-1,797,477,0,0
-420,547,0,0,0,0,0,0,0,0,0,-1,804,477,0,0
-413,547,0,0,0,0,0,0,0,0,0,-1,811,477,0,0
-406,547,0.144592,-11.0292,0,0,0,0,0,0,0,-1,818,477,0.144583,11.0292
-399,547,0.775513,-10.0294,0,0,0,0,0,0,0,-1,825,477,0.775482,10.0295
-392,547,-1.52271,-4.41675,0,0,0,0,0,0,0,-1,832,477,-1.52273,4.41674
-385,547,-1.73743,-4.6431,0,0,0,0,0,0,0,-1,839,477,-1.73743,4.64308
-378,547,-2.41339,-4.60071,0,0,0,0,0,0,0,-1,846,477,-2.41337,4.60071
-371,547,1.64569,-11.1445,0,0,0,0,0,0,0,-1,853,477,1.64569,11.1445
-364,547,0.998169,-19.0624,0,0,0,0,0,0,0,-1,860,477,0.998159,19.0624
-357,547,0.910522,-19.9575,0,0,0,0,0,0,0,-1,867,477,0.910513,19.9575
-350,547,0.843384,-20.673,0,0,0,0,0,0,0,-1,874,477,0.84339,20.673
-343,547,0.862671,-21.943,0,0,0,0,0,0,0,-1,881,477,0.862679,21.9429
-336,547,0.763794,-22.5484,0.00468523,0.00583345,-0.00557712,0.0108659,-0.000347248,-0.836688,0.00736244,0.0186977,888,477,0.763812,22.5484
-329,547,0.67627,-23.1666,0.00439537,0.00361244,-0.00431137,0.00833301,-0.000325194,-0.740123,0.00566685,0.0110569,895,477,0.676293,23.1666
-322,547,0.646912,-23.7714,0.00405289,0.00191927,-0.00325739,0.00641372,-0.000441558,-0.627151,0.00443034,0.0115447,902,477,0.64691,23.7714
-315,547,0.61499,-24.3823,0.00365809,0.000954094,-0.00245501,0.00510877,-0.000496582,-0.533704,0.00358286,0.0105434,909,477,0.614971,24.3823
-308,547,0.621155,-24.9459,0.00321042,0.00060731,-0.001928,0.00423507,-0.000417343,-0.488496,0.00297228,0.0123983,916,477,0.621143,24.9459
-301,547,0.610779,-25.5228,0.00278256,0.000289459,-0.00156201,0.00353445,-0.000462433,-0.448625,0.0025246,0.0120871,923,477,0.610785,25.5228
-294,547,0.549194,-26.0596,0.00242015,0.000289454,-0.00122434,0.00297775,-0.000268152,-0.427363,0.00208032,0.0102859,930,477,0.549165,26.0596
-287,547,0.514038,-26.611,0.00216263,0.000371712,-0.000933412,0.00256066,-2.63143e-05,-0.403074,0.00171594,0.011911,937,477,0.514041,26.611
-280,547,0.50238,-27.1712,0.00203003,0.000115855,-0.000673253,0.0022431,-9.72227e-05,-0.306515,0.00152884,0.0135497,944,477,0.5024,27.1712
-273,547,0.471863,-27.7289,0.00196352,-0.000225199,-0.00031054,0.00200673,-0.000268406,-0.138248,0.00143568,0.0128548,951,477,0.471837,27.7289
-266,547,0.440002,-28.2587,0.0020619,-0.000969521,0.000185375,0.00207319,-0.000980815,0.0608491,0.00180044,0.0123203,958,477,0.440004,28.2587
-259,547,0.434753,-28.7409,0.00244329,-0.00223448,0.000768249,0.00256623,-0.00235742,0.158683,0.00284352,0.0112577,965,477,0.434779,28.7409
-252,547,0.452942,-29.2739,0.00291832,-0.00409647,0.00150811,0.00322881,-0.00440696,0.20304,0.00442597,0.01106,972,477,0.45296,29.2739
-245,547,0.464844,-29.8133,0.00350351,-0.00616549,0.00233003,0.0040357,-0.00669768,0.224555,0.00626013,0.0122377,979,477,0.464831,29.8133
-238,547,0.465027,-30.3355,0.0042375,-0.00870776,0.0032115,0.00499043,-0.00946069,0.230288,0.00847537,0.00967515,986,477,0.465042,30.3356
-231,547,0.452881,-30.8457,0.00491885,-0.0114097,0.00411157,0.00589572,-0.0123865,0.233265,0.0107747,0.00951079,993,477,0.452852,30.8457
-224,547,0.429626,-31.3046,0.0054908,-0.0144792,0.00517281,0.00675117,-0.0157396,0.238995,0.0133262,0.0118995,1000,477,0.429614,31.3046
-217,547,0.442139,-31.7479,0.00616249,-0.0178051,0.00620162,0.00767208,-0.0193147,0.238775,0.0160569,0.0183246,1007,477,0.442149,31.7479
-210,547,0.488647,-32.0822,0.00665477,-0.0210124,0.00702432,0.00833599,-0.0226936,0.234923,0.0185432,0.0305869,1014,477,0.488671,32.0821
-203,547,0.590393,-32.2071,0.0070117,-0.0241153,0.00783588,0.008873,-0.0259766,0.233214,0.0209125,0.0440957,1021,477,0.59041,32.2071
-196,547,0.61731,-32.3117,0,0,0,0,0,0,0,-1,1028,477,0.617361,32.3117
-189,547,0.628418,-32.7845,0,0,0,0,0,0,0,-1,1035,477,0.628424,32.7845
-182,547,1.67871,-33.0365,0,0,0,0,0,0,0,-1,1042,477,1.6787,33.0365
-175,547,-0.350098,-12.3584,0,0,0,0,0,0,0,-1,1049,477,-0.350098,12.3584
-168,547,0.761719,-32.9387,0,0,0,0,0,0,0,-1,1056,477,0.761738,32.9387
-161,547,0.0430908,-34.6016,0,0,0,0,0,0,0,-1,1063,477,0.0431231,34.6016
-154,547,-0.284424,-31.1176,0,0,0,0,0,0,0,-1,1070,477,-0.284395,31.1176
-147,547,3.69434,-26.413,0,0,0,0,0,0,0,-1,1077,477,3.69437,26.413
-140,547,1.55676,-22.5229,0,0,0,0,0,0,0,-1,1084,477,1.5568,22.5229
-133,547,2.31665,-17.9421,0,0,0,0,0,0,0,-1,1091,477,2.31667,17.9421
-126,547,-1.15271,-30.6984,0,0,0,0,0,0,0,-1,1098,477,-1.15267,30.6984
-119,547,0.967651,-24.9351,0,0,0,0,0,0,0,-1,1105,477,0.967657,24.9351
-112,547,1.15674,-22.2276,0,0,0,0,0,0,0,-1,1112,477,1.15677,22.2276
-105,547,0.966797,-20.5777,0,0,0,0,0,0,0,-1,1119,477,0.966804,20.5777
-98,547,0.70166,-18.9755,0,0,0,0,0,0,0,-1,1126,477,0.701713,18.9755
-91,547,1.37805,-7.12024,0,0,0,0,0,0,0,-1,1133,477,1.37804,7.12025
-84,547,1.94202,-6.66241,0,0,0,0,0,0,0,-1,1140,477,1.94201,6.66241
-77,547,-2.28357,1.8588,0,0,0,0,0,0,0,-1,1147,477,-2.28356,-1.85879
-70,547,-3.70178,-0.874908,0,0,0,0,0,0,0,-1,1154,477,-3.70182,0.874918
-63,547,-5.12012,-3.60861,0,0,0,0,0,0,0,-1,1161,477,-5.12009,3.60862
-56,547,-6.01917,-6.2399,0,0,0,0,0,0,0,-1,1168,477,-6.01921,6.23991
-49,547,-6.729,-8.60349,0,0,0,0,0,0,0,-1,1175,477,-6.72899,8.60348
-42,547,-2.41736,-5.53012,0,0,0,0,0,0,0,-1,1182,477,-2.41734,5.53011
-35,547,-2.96838,-4.45734,0,0,0,0,0,0,0,-1,1189,477,-2.96839,4.45734
-28,547,-0.869141,-1.29901,0,0,0,0,0,0,0,-1,1196,477,-0.869135,1.29901
-21,547,-7.68262,-30.8089,0,0,0,0,0,0,0,-1,1203,477,-7.68256,30.8089
-14,547,0.365723,-32.0526,0,0,0,0,0,0,0,-1,1210,477,0.365739,32.0526
-7,547,0.75061,-32.7653,0,0,0,0,0,0,0,-1,1217,477,0.7506,32.7653
0,547,1.1355,-33.478,0,0,0,0,0,0,0,-1,1224,477,1.13546,33.478
7,547,6.18005,-38.201,0,0,0,0,0,0,0,-1,1231,477,6.18001,38.201
14,547,0,0,0,0,0,0,0,0,0,-1,1238,477,0,0
21,547,0,0,0,0,0,0,0,0,0,-1,1245,477,0,0
28,547,0,0,0,0,0,0,0,0,0,-1,1252,477,0,0
35,547,0,0,0,0,0,0,0,0,0,-1,1259,477,0,0
42,547,0,0,0,0,0,0,0,0,0,-1,1266,477,0,0
49,547,0,0,0,0,0,0,0,0,0,-1,1273,477,0,0
56,547,0,0,0,0,0,0,0,0,0,-1,1280,477,0,0
63,547,0,0,0,0,0,0,0,0,0,-1,1287,477,0,0
70,547,0,0,0,0,0,0,0,0,0,-1,1294,477,0,0
77,547,0,0,0,0,0,0,0,0,0,-1,1301,477,0,0
84,547,0,0,0,0,0,0,0,0,0,-1,1308,477,0,0
91,547,0,0,0,0,0,0,0,0,0,-1,1315,477,0,0
98,547,0,0,0,0,0,0,0,0,0,-1,1322,477,0,0
105,547,7.41064,-30.5782,0,0,0,0,0,0,0,-1,1329,477,7.41068,30.5782
112,547,7.74426,-29.475,0,0,0,0,0,0,0,-1,1336,477,7.74432,29.475
119,547,8.13123,-28.7777,0,0,0,0,0,0,0,-1,1343,477,8.1312,28.7777
126,547,8.48413,-27.5669,0,0,0,0,0,0,0,-1,1350,477,8.48419,27.5669
133,547,8.90308,-26.1648,0,0,0,0,0,0,0,-1,1357,477,8.90302,26.1648
140,547,9.1853,-25.1858,0,0,0,0,0,0,0,-1,1364,477,9.1853,25.1858
147,547,9.31567,-24.1259,0,0,0,0,0,0,0,-1,1371,477,9.31572,24.1259
154,547,9.17798,-22.8742,0,0,0,0,0,0,0,-1,1378,477,9.17793,22.8742
161,547,9.10242,-21.6484,0,0,0,0,0,0,0,-1,1385,477,9.10238,21.6484
168,547,13.4181,-26.3557,0,0,0,0,0,0,0,-1,1392,477,13.4181,26.3557
175,547,3.35034,-0.26532,0,0,0,0,0,0,0,-1,1399,477,3.3503,0.265306
182,547,4.26038,3.72672,0,0,0,0,0,0,0,-1,1406,477,4.26039,-3.7267
189,547,3.40454,1.28671,0,0,0,0,0,0,0,-1,1413,477,3.40457,-1.28673
196,547,3.53931,1.87793,0,0,0,0,0,0,0,-1,1420,477,3.53928,-1.87794
203,547,6.49414,-0.425842,0,0,0,0,0,0,0,-1,1427,477,6.4941,0.425844
210,547,4.82092,0.53595,0,0,0,0,0,0,0,-1,1434,477,4.82096,-0.535942
217,547,4.68579,0.480072,0,0,0,0,0,0,0,-1,1441,477,4.68577,-0.480069
224,547,4.55615,0.739807,0,0,0,0,0,0,0,-1,1448,477,4.55613,-0.73981
231,547,5.90869,-3.57721,0,0,0,0,0,0,0,-1,1455,477,5.90871,3.57722
238,547,5.50049,-3.15356,0,0,0,0,0,0,0,-1,1462,477,5.50045,3.15356
245,547,5.13708,-2.65213,0,0,0,0,0,0,0,-1,1469,477,5.13708,2.65212
252,547,3.73511,-0.645233,0,0,0,0,0,0,0,-1,1476,477,3.73515,0.645237
259,547,5.86816,-3.20816,0,0,0,0,0,0,0,-1,1483,477,5.86815,3.20816
266,547,5.40222,-2.45731,0,0,0,0,0,0,0,-1,1490,477,5.40221,2.45732
273,547,3.05737,0.495789,0,0,0,0,0,0,0,-1,1497,477,3.05742,-0.49578
280,547,2.0885,1.47797,0,0,0,0,0,0,0,-1,1504,477,2.08848,-1.47795
287,547,2.31177,-2.21716,0,0,0,0,0,0,0,-1,1511,477,2.31174,2.21717
294,547,2.4823,-3.03659,0,0,0,0,0,0,0,-1,1518,477,2.48229,3.0366
301,547,4.72119,-3.93454,0,0,0,0,0,0,0,-1,1525,477,4.72119,3.93453
308,547,4.07471,-5.42175,0,0,0,0,0,0,0,-1,1532,477,4.07468,5.42174
315,547,3.58496,-6.62112,0,0,0,0,0,0,0,-1,1539,477,3.58497,6.62113
322,547,5.73926,-14.1878,0,0,0,0,0,0,0,-1,1546,477,5.73926,14.1878
329,547,10.736,-31.8198,0,0,0,0,0,0,0,-1,1553,477,10.7359,31.8198
336,547,10.8787,-31.7774,0,0,0,0,0,0,0,-1,1560,477,10.8786,31.7774
343,547,10.9572,-31.2068,-0.00104923,-0.00949981,-0.0062252,0.00224919,-0.0127982,-0.487241,0.00937228,0.0473344,1567,477,10.9571,31.2068
350,547,10.9313,-30.6014,-0.00143218,-0.0087855,-0.00584154,0.00179343,-0.0120111,-0.50452,0.00866729,0.0287403,1574,477,10.9313,30.6014
357,547,10.8892,-30.0616,-0.00153378,-0.00777665,-0.00523957,0.00144367,-0.0107541,-0.516756,0.0076959,0.0148626,1581,477,10.8891,30.0616
364,547,10.8578,-29.5474,-0.00152516,-0.00657427,-0.00454429,0.00114874,-0.00924817,-0.531853,0.00658186,0.0110011,1588,477,10.8577,29.5474
371,547,10.8556,-29.015,-0.00134768,-0.00528294,-0.00373568,0.000906875,-0.0075375,-0.543004,0.00535296,0.010253,1595,477,10.8556,29.0151
378,547,10.8419,-28.4716,-0.00111063,-0.00384478,-0.00285183,0.000684861,-0.00564027,-0.561896,0.00400802,0.0110561,1602,477,10.842,28.4715
385,547,10.8248,-27.8949,-0.000835512,-0.00231613,-0.00196406,0.000523131,-0.00367477,-0.605168,0.00264155,0.0107519,1609,477,10.8249,27.8949
392,547,10.8153,-27.3333,-0.000456307,-0.00110542,-0.00123007,0.000491301,-0.00205303,-0.656411,0.00155848,0.0120351,1616,477,10.8153,27.3333
399,547,10.7837,-26.7839,7.30444e-05,-0.000148417,-0.000532981,0.000506675,-0.000582048,-0.682976,0.000629077,0.0138487,1623,477,10.7837,26.7839
406,547,10.7867,-26.2301,0.00063937,0.000791641,0.000123317,0.000860432,0.00057058,1.06195,0.000505507,0.0135492,1630,477,10.7867,26.2301
413,547,10.7931,-25.6391,0.00119019,0.00171085,0.000772291,0.00226551,0.000635534,0.947961,0.00134934,0.014122,1637,477,10.7931,25.6391
420,547,10.7804,-25.0754,0.00185157,0.00241495,0.0013605,0.00352262,0.000743902,0.88748,0.0021439,0.016437,1644,477,10.7804,25.0754
427,547,10.7677,-24.4702,0.00253032,0.00278096,0.00186392,0.00452377,0.000787509,0.818964,0.00279063,0.0137659,1651,477,10.7677,24.4702
434,547,10.7128,-23.9015,0.00322038,0.00307439,0.00238883,0.00553734,0.00075744,0.770124,0.00346677,0.00943766,1658,477,10.7127,23.9014
441,547,10.6667,-23.3364,0.0039431,0.00321007,0.00293963,0.00653897,0.0006142,0.723378,0.00416969,0.0102215,1665,477,10.6667,23.3364
448,547,10.6361,-22.6938,0.00455727,0.00322311,0.00349931,0.00745252,0.000327859,0.691212,0.00486275,0.0111912,1672,477,10.6361,22.6938
455,547,10.6328,-22.0836,0.00516842,0.00316068,0.00410064,0.00838628,-5.71781e-05,0.665355,0.00561001,0.0123594,1679,477,10.6329,22.0837
462,547,10.5828,-21.494,0.00570536,0.00314016,0.0047803,0.00937214,-0.000526623,0.654331,0.00643082,0.0126959,1686,477,10.5827,21.494
469,547,10.495,-20.8823,0.00601755,0.00304295,0.00531995,0.0100542,-0.000993686,0.649093,0.00705738,0.021264,1693,477,10.495,20.8823
476,547,10.4607,-20.1339,0.00613001,0.00273347,0.00602265,0.0106892,-0.00182577,0.647976,0.00780625,0.038048,1700,477,10.4607,20.1339
483,547,10.4821,-19.3506,0,0,0,0,0,0,0,-1,1707,477,10.4821,19.3506
490,547,3.65271,-3.71707,0,0,0,0,0,0,0,-1,1714,477,3.65277,3.71708
497,547,2.55481,-3.81421,0,0,0,0,0,0,0,-1,1721,477,2.55476,3.8142
504,547,4.01953,-2.22714,0,0,0,0,0,0,0,-1,1728,477,4.0195,2.22713
511,547,5.2146,-6.9552,0,0,0,0,0,0,0,-1,1735,477,5.21464,6.95521
518,547,5.24243,-6.56122,0,0,0,0,0,0,0,-1,1742,477,5.24241,6.56121
525,547,5.89368,-5.49866,0,0,0,0,0,0,0,-1,1749,477,5.89372,5.49866
532,547,0,0,0,0,0,0,0,0,0,-1,1756,477,0,0
539,547,0,0,0,0,0,0,0,0,0,-1,1763,477,0,0
546,547,0,0,0,0,0,0,0,0,0,-1,1770,477,0,0
553,547,0,0,0,0,0,0,0,0,0,-1,1777,477,0,0
560,547,0,0,0,0,0,0,0,0,0,-1,1784,477,0,0
567,547,0,0,0,0,0,0,0,0,0,-1,1791,477,0,0
574,547,0,0,0,0,0,0,0,0,0,-1,1798,477,0,0
581,547,0,0,0,0,0,0,0,0,0,-1,1805,477,0,0
588,547,0,0,0,0,0,0,0,0,0,-1,1812,477,0,0
595,547,0,0,0,0,0,0,0,0,0,-1,1819,477,0,0
602,547,0,0,0,0,0,0,0,0,0,-1,1826,477,0,0
609,547,0,0,0,0,0,0,0,0,0,-1,1833,477,0,0
616,547,0,0,0,0,0,0,0,0,0,-1,1840,477,0,0
623,547,0,0,0,0,0,0,0,0,0,-1,1847,477,0,0
630,547,0,0,0,0,0,0,0,0,0,-1,1854,477,0,0
637,547,0,0,0,0,0,0,0,0,0,-1,1861,477,0,0
644,547,0,0,0,0,0,0,0,0,0,-1,1868,477,0,0
651,547,0,0,0,0,0,0,0,0,0,-1,1875,477,0,0
658,547,0,0,0,0,0,0,0,0,0,-1,1882,477,0,0
665,547,0,0,0,0,0,0,0,0,0,-1,1889,477,0,0
672,547,0,0,0,0,0,0,0,0,0,-1,1896,477,0,0
679,547,0,0,0,0,0,0,0,0,0,-1,1903,477,0,0
686,547,0,0,0,0,0,0,0,0,0,-1,1910,477,0,0
693,547,0,0,0,0,0,0,0,0,0,-1,1917,477,0,0
700,547,0,0,0,0,0,0,0,0,0,-1,1924,477,0,0
707,547,0,0,0,0,0,0,0,0,0,-1,1931,477,0,0
714,547,0,0,0,0,0,0,0,0,0,-1,1938,477,0,0
721,547,0,0,0,0,0,0,0,0,0,-1,1945,477,0,0
728,547,0,0,0,0,0,0,0,0,0,-1,1952,477,0,0
735,547,0,0,0,0,0,0,0,0,0,-1,1959,477,0,0
742,547,0,0,0,0,0,0,0,0,0,-1,1966,477,0,0
749,547,0,0,0,0,0,0,0,0,0,-1,1973,477,0,0
756,547,0,0,0,0,0,0,0,0,0,-1,1980,477,0,0
763,547,0,0,0,0,0,0,0,0,0,-1,1987,477,0,0
770,547,0,0,0,0,0,0,0,0,0,-1,1994,477,0,0
777,547,0,0,0,0,0,0,0,0,0,-1,2001,477,0,0
784,547,0,0,0,0,0,0,0,0,0,-1,2008,477,0,0
791,547,0,0,0,0,0,0,0,0,0,-1,2015,477,0,0
798,547,0,0,0,0,0,0,0,0,0,-1,2022,477,0,0
805,547,0,0,0,0,0,0,0,0,0,-1,2029,477,0,0
812,547,0,0,0,0,0,0,0,0,0,-1,2036,477,0,0
-700,540,0,0,0,0,0,0,0,0,0,-1,524,484,0,0
-693,540,0,0,0,0,0,0,0,0,0,-1,531,484,0,0
-686,540,0,0,0,0,0,0,0,0,0,-1,538,484,0,0
-679,540,0,0,0,0,0,0,0,0,0,-1,545,484,0,0
-672,540,0,0,0,0,0,0,0,0,0,-1,552,484,0,0
-665,540,0,0,0,0,0,0,0,0,0,-1,559,484,0,0
-658,540,0,0,0,0,0,0,0,0,0,-1,566,484,0,0
-651,540,0,0,0,0,0,0,0,0,0,-1,573,484,0,0
-644,540,0,0,0,0,0,0,0,0,0,-1,580,484,0,0
-637,540,0,0,0,0,0,0,0,0,0,-1,587,484,0,0
-630,540,0,0,0,0,0,0,0,0,0,-1,594,484,0,0
-623,540,0,0,0,0,0,0,0,0,0,-1,601,484,0,0
-616,540,0,0,0,0,0,0,0,0,0,-1,608,484,0,0
-609,540,0,0,0,0,0,0,0,0,0,-1,615,484,0,0
-602,540,0,0,0,0,0,0,0,0,0,-1,622,484,0,0
-595,540,0,0,0,0,0,0,0,0,0,-1,629,484,0,0
-588,540,0,0,0,0,0,0,0,0,0,-1,636,484,0,0
-581,540,0,0,0,0,0,0,0,0,0,-1,643,484,0,0
-574,540,0,0,0,0,0,0,0,0,0,-1,650,484,0,0
-567,540,0,0,0,0,0,0,0,0,0,-1,657,484,0,0
-560,540,0,0,0,0,0,0,0,0,0,-1,664,484,0,0
-553,540,0,0,0,0,0,0,0,0,0,-1,671,484,0,0
-546,540,0,0,0,0,0,0,0,0,0,-1,678,484,0,0
-539,540,0,0,0,0,0,0,0,0,0,-1,685,484,0,0
-532,540,0,0,0,0,0,0,0,0,0,-1,692,484,0,0
-525,540,0,0,0,0,0,0,0,0,0,-1,699,484,0,0
-518,540,0,0,0,0,0,0,0,0,0,-1,706,484,0,0
-511,540,0,0,0,0,0,0,0,0,0,-1,713,484,0,0
-504,540,0,0,0,0,0,0,0,0,0,-1,720,484,0,0
-497,540,0,0,0,0,0,0,0,0,0,-1,727,484,0,0
-490,540,0,0,0,0,0,0,0,0,0,-1,734,484,0,0
-483,540,0,0,0,0,0,0,0,0,0,-1,741,484,0,0
-476,540,0,0,0,0,0,0,0,0,0,-1,748,484,0,0
-469,540,0,0,0,0,0,0,0,0,0,-1,755,484,0,0
-462,540,0,0,0,0,0,0,0,0,0,-1,762,484,0,0
-455,540,0,0,0,0,0,0,0,0,0,-1,769,484,0,0
-448,540,0,0,0,0,0,0,0,0,0,-1,776,484,0,0
-441,540,0,0,0,0,0,0,0,0,0,-1,783,484,0,0
-434,540,0,0,0,0,0,0,0,0,0,-1,790,484,0,0
-427,540,0,0,0,0,0,0,0,0,0,-1,797,484,0,0
-420,540,0.227051,-10.0402,0,0,0,0,0,0,0,-1,804,484,0.227063,10.0402
-413,540,-0.0393677,-10.3862,0,0,0,0,0,0,0,-1,811,484,-0.0393683,10.3862
-406,540,-0.518372,-11.5288,0,0,0,0,0,0,0,-1,818,484,-0.518402,11.5288
-399,540,0.0863037,-11.3801,0,0,0,0,0,0,0,-1,825,484,0.0863201,11.3801
-392,540,-0.517395,-10.6735,0,0,0,0,0,0,0,-1,832,484,-0.517377,10.6735
-385,540,-2.29407,-5.03418,0,0,0,0,0,0,0,-1,839,484,-2.29408,5.03418
-378,540,1.06445,-10.5824,0,0,0,0,0,0,0,-1,846,484,1.06446,10.5824
-371,540,1.14825,-10.7452,0,0,0,0,0,0,0,-1,853,484,1.14827,10.7452
-364,540,0.332886,-19.3895,0,0,0,0,0,0,0,-1,860,484,0.332903,19.3895
-357,540,0.29657,-20.2351,0.00368833,0.0169601,-0.0106833,0.0229007,-0.00225224,-1.06331,0.0160706,0.0484651,867,484,0.296595,20.2351
-350,540,0.228027,-21.0062,0.00336614,0.012223,-0.0082409,0.0171499,-0.00156083,-1.03195,0.0119875,0.0386341,874,484,0.228028,21.0062
-343,540,0.181152,-21.8686,0.00313988,0.00887008,-0.00644662,0.0130596,-0.00104965,-0.994506,0.00907654,0.02119,881,484,0.181156,21.8686
-336,540,0.12793,-22.6283,0.0030106,0.00629053,-0.00504838,0.00995864,-0.000657512,-0.942446,0.00686876,0.0137355,888,484,0.127947,22.6283
-329,540,0.0931396,-23.1906,0.00285483,0.00418404,-0.00386743,0.00744355,-0.000404684,-0.87049,0.00510261,0.010835,895,484,0.093169,23.1906
-322,540,0.0545044,-23.7669,0.00266105,0.00248695,-0.00285114,0.00542647,-0.000278464,-0.770138,0.00371395,0.014679,902,484,0.054516,23.7669
-315,540,0.041748,-24.3506,0.0024508,0.00144872,-0.00205531,0.00406526,-0.000165737,-0.665841,0.00276707,0.0133788,909,484,0.0417179,24.3506
-308,540,0.0587769,-24.9232,0.00223302,0.000890297,-0.0014879,0.00319401,-7.06901e-05,-0.573466,0.00215329,0.0128538,916,484,0.0587468,24.9232
-301,540,0.0152588,-25.4698,0.0020254,0.000410879,-0.00108459,0.00257017,-0.000133899,-0.465477,0.00175978,0.0128877,923,484,0.0152699,25.4699
-294,540,-0.010498,-26.0103,0.00189858,0.000230499,-0.000708938,0.00215917,-3.00907e-05,-0.352248,0.00144958,0.0119013,930,484,-0.0105006,26.0103
-287,540,-0.0117188,-26.5832,0.00189752,0.000100105,-0.000377844,0.00197371,2.3907e-05,-0.198997,0.00130791,0.00886281,937,484,-0.0117332,26.5832
-280,540,-0.0245361,-27.145,0.00198544,-0.00040423,-7.79978e-05,0.00198798,-0.000406773,-0.0325934,0.00147967,0.0095243,944,484,-0.0245091,27.145
-273,540,-0.0392456,-27.6964,0.00211074,-0.000957161,0.000325127,0.00214481,-0.000991238,0.104431,0.00185098,0.011606,951,484,-0.0392613,27.6963
-266,540,-0.0606079,-28.2364,0.00251162,-0.00199364,0.000863267,0.00267137,-0.00215339,0.182981,0.00279092,0.0133645,958,484,-0.0606207,28.2364
-259,540,-0.0805664,-28.7527,0.0032029,-0.00346918,0.00150692,0.00352745,-0.00379374,0.212137,0.00422782,0.0132472,965,484,-0.0805701,28.7527
-252,540,-0.0668335,-29.2552,0.00392718,-0.005663,0.00227822,0.00444087,-0.0061767,0.221771,0.0061573,0.0124112,972,484,-0.0668405,29.2552
-245,540,-0.0610962,-29.789,0.00469505,-0.00811379,0.00321297,0.00545581,-0.00887455,0.232496,0.00835175,0.0121012,979,484,-0.0610934,29.789
-238,540,-0.0870972,-30.2813,0.00558031,-0.0110484,0.00420742,0.00658426,-0.0120524,0.234235,0.0109132,0.0106415,986,484,-0.0871252,30.2813
-231,540,-0.0762329,-30.7523,0.00644414,-0.0142641,0.0052339,0.00769181,-0.0155118,0.234014,0.0136479,0.0154899,993,484,-0.0762414,30.7523
-224,540,-0.112793,-31.1619,0.00718641,-0.0180624,0.0065275,0.0087741,-0.0196501,0.238598,0.0168064,0.0245684,1000,484,-0.112804,31.1618
-217,540,-0.11322,-31.4211,0.00807261,-0.0222834,0.00781632,0.009967,-0.0241778,0.237779,0.0202746,0.0358269,1007,484,-0.113244,31.4211
-210,540,0.0377808,-31.8676,0.00869767,-0.0264011,0.00889152,0.0108216,-0.028525,0.23448,0.0234708,0.0480023,1014,484,0.0377518,31.8676
-203,540,0.120361,-31.9154,0,0,0,0,0,0,0,-1,1021,484,0.120369,31.9154
-196,540,-0.0180664,-31.6161,0,0,0,0,0,0,0,-1,1028,484,-0.0180467,31.6162
-189,540,-0.726807,-22.826,0,0,0,0,0,0,0,-1,1035,484,-0.72684,22.8259
-182,540,0.109375,-15.2948,0,0,0,0,0,0,0,-1,1042,484,0.109331,15.2948
-175,540,1.73413,-10.728,0,0,0,0,0,0,0,-1,1049,484,1.73414,10.728
-168,540,1.18164,-7.65347,0,0,0,0,0,0,0,-1,1056,484,1.18163,7.65347
-161,540,-0.405884,-9.86481,0,0,0,0,0,0,0,-1,1063,484,-0.405886,9.8648
-154,540,1.96863,-22.0727,0,0,0,0,0,0,0,-1,1070,484,1.96859,22.0727
-147,540,1.32764,-21.9952,0,0,0,0,0,0,0,-1,1077,484,1.32762,21.9952
-140,540,1.40735,-15.6289,0,0,0,0,0,0,0,-1,1084,484,1.4073,15.6289
-133,540,2.28345,-17.6413,0,0,0,0,0,0,0,-1,1091,484,2.2835,17.6413
-126,540,1.25293,-23.9108,0,0,0,0,0,0,0,-1,1098,484,1.25288,23.9108
-119,540,1.55969,-23.0125,0,0,0,0,0,0,0,-1,1105,484,1.55968,23.0125
-112,540,1.4801,-21.6515,0,0,0,0,0,0,0,-1,1112,484,1.4801,21.6515
-105,540,1.30078,-19.8938,0,0,0,0,0,0,0,-1,1119,484,1.30077,19.8938
-98,540,1.08105,-18.1304,0,0,0,0,0,0,0,-1,1126,484,1.08101,18.1304
-91,540,1.56519,-7.48666,0,0,0,0,0,0,0,-1,1133,484,1.56514,7.48667
-84,540,-0.945923,4.43073,0,0,0,0,0,0,0,-1,1140,484,-0.945891,-4.43074
-77,540,-2.28894,2.14368,0,0,0,0,0,0,0,-1,1147,484,-2.28894,-2.14368
-70,540,-3.75244,-0.452576,0,0,0,0,0,0,0,-1,1154,484,-3.75244,0.452576
-63,540,-5.26257,-3.04767,0,0,0,0,0,0,0,-1,1161,484,-5.26262,3.04766
-56,540,-5.19055,-6.12595,0,0,0,0,0,0,0,-1,1168,484,-5.19057,6.12595
-49,540,-5.63867,-8.52298,0,0,0,0,0,0,0,-1,1175,484,-5.63871,8.52298
-42,540,0,0,0,0,0,0,0,0,0,-1,1182,484,0,0
-35,540,0,0,0,0,0,0,0,0,0,-1,1189,484,0,0
-28,540,0,0,0,0,0,0,0,0,0,-1,1196,484,0,0
-21,540,0,0,0,0,0,0,0,0,0,-1,1203,484,0,0
-14,540,0,0,0,0,0,0,0,0,0,-1,1210,484,0,0
-7,540,0,0,0,0,0,0,0,0,0,-1,1217,484,0,0
0,540,0,0,0,0,0,0,0,0,0,-1,1224,484,0,0
7,540,0,0,0,0,0,0,0,0,0,-1,1231,484,0,0
14,540,0,0,0,0,0,0,0,0,0,-1,1238,484,0,0
21,540,0,0,0,0,0,0,0,0,0,-1,1245,484,0,0
28,540,0,0,0,0,0,0,0,0,0,-1,1252,484,0,0
35,540,0,0,0,0,0,0,0,0,0,-1,1259,484,0,0
42,540,0,0,0,0,0,0,0,0,0,-1,1266,484,0,0
49,540,0,0,0,0,0,0,0,0,0,-1,1273,484,0,0
56,540,0,0,0,0,0,0,0,0,0,-1,1280,484,0,0
63,540,0,0,0,0,0,0,0,0,0,-1,1287,484,0,0
70,540,0,0,0,0,0,0,0,0,0,-1,1294,484,0,0
77,540,0,0,0,0,0,0,0,0,0,-1,1301,484,0,0
84,540,0,0,0,0,0,0,0,0,0,-1,1308,484,0,0
91,540,0,0,0,0,0,0,0,0,0,-1,1315,484,0,0
98,540,0,0,0,0,0,0,0,0,0,-1,1322,484,0,0
105,540,0,0,0,0,0,0,0,0,0,-1,1329,484,0,0
112,540,0,0,0,0,0,0,0,0,0,-1,1336,484,0,0
119,540,0,0,0,0,0,0,0,0,0,-1,1343,484,0,0
126,540,0,0,0,0,0,0,0,0,0,-1,1350,484,0,0
133,540,0,0,0,0,0,0,0,0,0,-1,1357,484,0,0
140,540,0,0,0,0,0,0,0,0,0,-1,1364,484,0,0
147,540,0,0,0,0,0,0,0,0,0,-1,1371,484,0,0
154,540,0,0,0,0,0,0,0,0,0,-1,1378,484,0,0
161,540,0,0,0,0,0,0,0,0,0,-1,1385,484,0,0
168,540,3.05078,-0.0010376,0,0,0,0,0,0,0,-1,1392,484,3.05084,0.00102554
175,540,3.37708,0.617035,0,0,0,0,0,0,0,-1,1399,484,3.37707,-0.617046
182,540,3.32678,1.23267,0,0,0,0,0,0,0,-1,1406,484,3.32678,-1.23266
189,540,3.5813,2.15619,0,0,0,0,0,0,0,-1,1413,484,3.58129,-2.1562
196,540,1.84448,-0.801483,0,0,0,0,0,0,0,-1,1420,484,1.84446,0.80148
203,540,4.14648,0.702087,0,0,0,0,0,0,0,-1,1427,484,4.14645,-0.702089
210,540,4.50671,-0.56076,0,0,0,0,0,0,0,-1,1434,484,4.50667,0.560771
217,540,5.00452,-0.278717,0,0,0,0,0,0,0,-1,1441,484,5.00452,0.278709
224,540,6.44458,-2.83527,0,0,0,0,0,0,0,-1,1448,484,6.44457,2.83525
231,540,6.9231,-3.10504,0,0,0,0,0,0,0,-1,1455,484,6.92307,3.10505
238,540,6.4823,-2.58365,0,0,0,0,0,0,0,-1,1462,484,6.48225,2.58363
245,540,6.02087,-1.97916,0,0,0,0,0,0,0,-1,1469,484,6.02088,1.97915
252,540,6.50647,-3.56006,0,0,0,0,0,0,0,-1,1476,484,6.50649,3.56006
259,540,6.01941,-2.798,0,0,0,0,0,0,0,-1,1483,484,6.01941,2.79801
266,540,5.5332,-2.02853,0,0,0,0,0,0,0,-1,1490,484,5.53323,2.02855
273,540,5.06787,-1.28137,0,0,0,0,0,0,0,-1,1497,484,5.06786,1.28136
280,540,1.62903,-2.14609,0,0,0,0,0,0,0,-1,1504,484,1.62906,2.1461
287,540,1.97156,-2.45053,0,0,0,0,0,0,0,-1,1511,484,1.97159,2.45053
294,540,2.44165,-2.6185,0,0,0,0,0,0,0,-1,1518,484,2.44167,2.6185
301,540,4.36169,-2.54272,0,0,0,0,0,0,0,-1,1525,484,4.36165,2.54272
308,540,4.2019,-4.30469,0,0,0,0,0,0,0,-1,1532,484,4.20193,4.3047
315,540,4.45923,-5.32101,0,0,0,0,0,0,0,-1,1539,484,4.45923,5.32103
322,540,4.71655,-6.33737,0,0,0,0,0,0,0,-1,1546,484,4.71653,6.33736
329,540,5.8949,-12.9383,0,0,0,0,0,0,0,-1,1553,484,5.89492,12.9383
336,540,7.16467,-17.7826,0,0,0,0,0,0,0,-1,1560,484,7.16469,17.7826
343,540,11.6257,-31.4086,0,0,0,0,0,0,0,-1,1567,484,11.6258,31.4086
350,540,11.4728,-30.7007,0,0,0,0,0,0,0,-1,1574,484,11.4728,30.7007
357,540,11.4858,-29.7916,-0.003152,-0.0110631,-0.00757712,0.00143991,-0.015655,-0.544837,0.0109483,0.0419638,1581,484,11.4859,29.7916
364,540,11.3615,-29.447,-0.00289161,-0.00953377,-0.00666935,0.0012378,-0.0136632,-0.55439,0.00954817,0.0246025,1588,484,11.3614,29.447
371,540,11.3689,-28.9611,-0.00243754,-0.00787848,-0.0056274,0.00109248,-0.0114085,-0.560245,0.00799474,0.0165477,1595,484,11.3689,28.961
378,540,11.3876,-28.4321,-0.00194145,-0.00602087,-0.00442838,0.000894384,-0.0088567,-0.569581,0.00622405,0.0136028,1602,484,11.3876,28.432
385,540,11.3857,-27.8907,-0.00146863,-0.00410381,-0.00321603,0.000689253,-0.00626169,-0.590981,0.00442215,0.0151682,1609,484,11.3858,27.8906
392,540,11.3644,-27.3203,-0.00104829,-0.00267352,-0.00228496,0.000564252,-0.00428606,-0.614554,0.00306283,0.0138346,1616,484,11.3643,27.3204
399,540,11.3379,-26.7744,-0.000562352,-0.00149592,-0.00150346,0.000545119,-0.00260339,-0.634879,0.00194296,0.0175128,1623,484,11.3379,26.7744
406,540,11.3524,-26.2139,5.86278e-06,-0.000379061,-0.000759744,0.000597143,-0.000970341,-0.661345,0.000913497,0.017547,1630,484,11.3524,26.2139
413,540,11.3479,-25.6172,0.000578184,0.000709454,-2.11466e-05,0.000712776,0.000574861,-1.41495,0.000436536,0.013621,1637,484,11.3479,25.6172
420,540,11.3606,-25.0197,0.00120861,0.00158105,0.000695339,0.00211467,0.000674989,0.916232,0.00124723,0.0127651,1644,484,11.3606,25.0197
427,540,11.3247,-24.4379,0.00173293,0.00205156,0.00121509,0.00311774,0.000666754,0.850583,0.00189574,0.0130878,1651,484,11.3247,24.4379
434,540,11.2808,-23.8671,0.00224712,0.002382,0.00173717,0.00405304,0.000576085,0.8048,0.00253194,0.0150436,1658,484,11.2808,23.8671
441,540,11.2849,-23.277,0.00280331,0.0025559,0.00228396,0.00496691,0.000392298,0.758343,0.00318856,0.0188398,1665,484,11.285,23.277
448,540,11.2363,-22.6793,0.00328702,0.00260966,0.00284226,0.0058107,8.59683e-05,0.726098,0.00384547,0.0118132,1672,484,11.2363,22.6793
455,540,11.2209,-22.0741,0.00377928,0.00264042,0.00346127,0.00671764,-0.000297942,0.703871,0.00458097,0.010774,1679,484,11.2209,22.0741
462,540,11.1711,-21.4712,0.00419579,0.0026621,0.00413465,0.00763411,-0.000776216,0.693706,0.00536689,0.0108923,1686,484,11.1712,21.4712
469,540,11.1204,-20.8558,0.00439162,0.00261427,0.00468244,0.00826897,-0.00126308,0.691619,0.00597832,0.014896,1693,484,11.1204,20.8558
476,540,11.114,-20.2514,0.00436415,0.00238871,0.00540126,0.00886725,-0.0021144,0.694963,0.00672798,0.0213329,1700,484,11.114,20.2514
483,540,11.1597,-19.5236,0.00426005,0.0022149,0.00617767,0.00949921,-0.00302425,0.703378,0.00754568,0.0336399,1707,484,11.1597,19.5236
490,540,11.3215,-18.7108,0,0,0,0,0,0,0,-1,1714,484,11.3215,18.7109
497,540,10.3452,-16.9359,0,0,0,0,0,0,0,-1,1721,484,10.3453,16.9359
504,540,5.96704,-6.98599,0,0,0,0,0,0,0,-1,1728,484,5.96708,6.98598
511,540,5.82471,-6.83521,0,0,0,0,0,0,0,-1,1735,484,5.82465,6.83522
518,540,9.98181,-12.4608,0,0,0,0,0,0,0,-1,1742,484,9.98187,12.4608
525,540,11.6792,-17.253,0,0,0,0,0,0,0,-1,1749,484,11.6792,17.253
532,540,2.84265,-1.07925,0,0,0,0,0,0,0,-1,1756,484,2.84269,1.07927
539,540,0,0,0,0,0,0,0,0,0,-1,1763,484,0,0
546,540,0,0,0,0,0,0,0,0,0,-1,1770,484,0,0
553,540,0,0,0,0,0,0,0,0,0,-1,1777,484,0,0
560,540,0,0,0,0,0,0,0,0,0,-1,1784,484,0,0
567,540,0,0,0,0,0,0,0,0,0,-1,1791,484,0,0
574,540,0,0,0,0,0,0,0,0,0,-1,1798,484,0,0
581,540,0,0,0,0,0,0,0,0,0,-1,1805,484,0,0
588,540,0,0,0,0,0,0,0,0,0,-1,1812,484,0,0
595,540,0,0,0,0,0,0,0,0,0,-1,1819,484,0,0
602,540,0,0,0,0,0,0,0,0,0,-1,1826,484,0,0
609,540,0,0,0,0,0,0,0,0,0,-1,1833,484,0,0
616,540,0,0,0,0,0,0,0,0,0,-1,1840,484,0,0
623,540,0,0,0,0,0,0,0,0,0,-1,1847,484,0,0
630,540,0,0,0,0,0,0,0,0,0,-1,1854,484,0,0
637,540,0,0,0,0,0,0,0,0,0,-1,1861,484,0,0
644,540,0,0,0,0,0,0,0,0,0,-1,1868,484,0,0
651,540,0,0,0,0,0,0,0,0,0,-1,1875,484,0,0
658,540,0,0,0,0,0,0,0,0,0,-1,1882,484,0,0
665,540,0,0,0,0,0,0,0,0,0,-1,1889,484,0,0
672,540,0,0,0,0,0,0,0,0,0,-1,1896,484,0,0
679,540,0,0,0,0,0,0,0,0,0,-1,1903,484,0,0
686,540,0,0,0,0,0,0,0,0,0,-1,1910,484,0,0
693,540,0,0,0,0,0,0,0,0,0,-1,1917,484,0,0
700,540,0,0,0,0,0,0,0,0,0,-1,1924,484,0,0
707,540,0,0,0,0,0,0,0,0,0,-1,1931,484,0,0
714,540,0,0,0,0,0,0,0,0,0,-1,1938,484,0,0
721,540,0,0,0,0,0,0,0,0,0,-1,1945,484,0,0
728,540,0,0,0,0,0,0,0,0,0,-1,1952,484,0,0
735,540,0,0,0,0,0,0,0,0,0,-1,1959,484,0,0
742,540,0,0,0,0,0,0,0,0,0,-1,1966,484,0,0
749,540,0,0,0,0,0,0,0,0,0,-1,1973,484,0,0
756,540,0,0,0,0,0,0,0,0,0,-1,1980,484,0,0
763,540,0,0,0,0,0,0,0,0,0,-1,1987,484,0,0
770,540,0,0,0,0,0,0,0,0,0,-1,1994,484,0,0
777,540,0,0,0,0,0,0,0,0,0,-1,2001,484,0,0
784,540,0,0,0,0,0,0,0,0,0,-1,2008,484,0,0
791,540,0,0,0,0,0,0,0,0,0,-1,2015,484,0,0
798,540,0,0,0,0,0,0,0,0,0,-1,2022,484,0,0
805,540,0,0,0,0,0,0,0,0,0,-1,2029,484,0,0
812,540,0,0,0,0,0,0,0,0,0,-1,2036,484,0,0
-700,533,0,0,0,0,0,0,0,0,0,-1,524,491,0,0
-693,533,0,0,0,0,0,0,0,0,0,-1,531,491,0,0
-686,533,0,0,0,0,0,0,0,0,0,-1,538,491,0,0
-679,533,0,0,0,0,0,0,0,0,0,-1,545,491,0,0
-672,533,0,0,0,0,0,0,0,0,0,-1,552,491,0,0
-665,533,0,0,0,0,0,0,0,0,0,-1,559,491,0,0
-658,533,0,0,0,0,0,0,0,0,0,-1,566,491,0,0
-651,533,0,0,0,0,0,0,0,0,0,-1,573,491,0,0
-644,533,0,0,0,0,0,0,0,0,0,-1,580,491,0,0
-637,533,0,0,0,0,0,0,0,0,0,-1,587,491,0,0
-630,533,0,0,0,0,0,0,0,0,0,-1,594,491,0,0
-623,533,0,0,0,0,0,0,0,0,0,-1,601,491,0,0
-616,533,0,0,0,0,0,0,0,0,0,-1,608,491,0,0
-609,533,0,0,0,0,0,0,0,0,0,-1,615,491,0,0
-602,533,0,0,0,0,0,0,0,0,0,-1,622,491,0,0
-595,533,0,0,0,0,0,0,0,0,0,-1,629,491,0,0
-588,533,0,0,0,0,0,0,0,0,0,-1,636,491,0,0
-581,533,0,0,0,0,0,0,0,0,0,-1,643,491,0,0
-574,533,0,0,0,0,0,0,0,0,0,-1,650,491,0,0
-567,533,0,0,0,0,0,0,0,0,0,-1,657,491,0,0
-560,533,0,0,0,0,0,0,0,0,0,-1,664,491,0,0
-553,533,0,0,0,0,0,0,0,0,0,-1,671,491,0,0
-546,533,0,0,0,0,0,0,0,0,0,-1,678,491,0,0
-539,533,0,0,0,0,0,0,0,0,0,-1,685,491,0,0
-532,533,0,0,0,0,0,0,0,0,0,-1,692,491,0,0
-525,533,0,0,0,0,0,0,0,0,0,-1,699,491,0,0
-518,533,0,0,0,0,0,0,0,0,0,-1,706,491,0,0
-511,533,0,0,0,0,0,0,0,0,0,-1,713,491,0,0
-504,533,0,0,0,0,0,0,0,0,0,-1,720,491,0,0
-497,533,0,0,0,0,0,0,0,0,0,-1,727,491,0,0
-490,533,0,0,0,0,0,0,0,0,0,-1,734,491,0,0
-483,533,0,0,0,0,0,0,0,0,0,-1,741,491,0,0
-476,533,0,0,0,0,0,0,0,0,0,-1,748,491,0,0
-469,533,0,0,0,0,0,0,0,0,0,-1,755,491,0,0
-462,533,0,0,0,0,0,0,0,0,0,-1,762,491,0,0
-455,533,0,0,0,0,0,0,0,0,0,-1,769,491,0,0
-448,533,0,0,0,0,0,0,0,0,0,-1,776,491,0,0
-441,533,0,0,0,0,0,0,0,0,0,-1,783,491,0,0
-434,533,0,0,0,0,0,0,0,0,0,-1,790,491,0,0
-427,533,0.559814,-4.40222,0,0,0,0,0,0,0,-1,797,491,0.559816,4.40222
-420,533,-1.11127,-10.9054,0,0,0,0,0,0,0,-1,804,491,-1.11124,10.9054
-413,533,-0.704773,-11.0942,0,0,0,0,0,0,0,-1,811,491,-0.704742,11.0942
-406,533,-0.670898,-12.0899,0,0,0,0,0,0,0,-1,818,491,-0.670908,12.0899
-399,533,-0.455017,-12.4423,0,0,0,0,0,0,0,-1,825,491,-0.455032,12.4423
-392,533,-1.89661,-10.3905,0,0,0,0,0,0,0,-1,832,491,-1.89661,10.3905
-385,533,0.797729,-17.0485,0,0,0,0,0,0,0,-1,839,491,0.797746,17.0485
-378,533,-0.202759,-18.2586,0,0,0,0,0,0,0,-1,846,491,-0.202767,18.2586
-371,533,-0.408447,-19.2635,0,0,0,0,0,0,0,-1,853,491,-0.408441,19.2635
-364,533,-0.370911,-19.9259,0.0027079,0.0194774,-0.0114156,0.0252567,-0.00307138,-1.10215,0.0179494,0.042684,860,491,-0.370881,19.9259
-357,533,-0.343811,-20.6173,0.00255785,0.0151766,-0.00927461,0.0200845,-0.00235003,-1.08408,0.0142378,0.0264958,867,491,-0.343782,20.6173
-350,533,-0.329834,-21.3325,0.00222075,0.0111542,-0.0071394,0.015109,-0.00173409,-1.06493,0.0106977,0.0154615,874,491,-0.329841,21.3325
-343,533,-0.384705,-21.9987,0.00202895,0.00822799,-0.00555233,0.0114874,-0.00123041,-1.03997,0.00809959,0.013186,881,491,-0.384729,21.9987
-336,533,-0.434631,-22.6193,0.00194394,0.00594484,-0.00429937,0.00868637,-0.000797586,-1.00315,0.00607426,0.0163622,888,491,-0.434605,22.6193
-329,533,-0.45636,-23.1831,0.001865,0.00404745,-0.00323753,0.00637271,-0.00046026,-0.947946,0.00440991,0.015042,895,491,-0.456362,23.1831
-322,533,-0.501465,-23.7413,0.00176174,0.00245945,-0.00230163,0.00443851,-0.000217318,-0.860611,0.00303404,0.0124463,902,491,-0.501478,23.7413
-315,533,-0.527954,-24.3042,0.0016785,0.00145695,-0.00155277,0.00312444,1.10023e-05,-0.749788,0.0020793,0.0133034,909,491,-0.527938,24.3042
-308,533,-0.534668,-24.8851,0.00163393,0.000848184,-0.00101038,0.00232513,0.000156978,-0.599977,0.0015005,0.0121955,916,491,-0.534687,24.8851
-301,533,-0.568054,-25.4445,0.00159734,0.000354658,-0.000624252,0.00185677,9.52291e-05,-0.393868,0.00120735,0.0134526,923,491,-0.568034,25.4445
-294,533,-0.565613,-25.985,0.00166171,0.000118993,-0.00025275,0.00170206,7.86396e-05,-0.158322,0.00110942,0.0130035,930,491,-0.565615,25.985
-287,533,-0.563232,-26.5594,0.00188354,-0.000123637,8.52807e-05,0.00188715,-0.000127254,0.0423861,0.00130259,0.0100993,937,491,-0.563202,26.5595
-280,533,-0.574951,-27.1337,0.00217681,-0.000800919,0.000405465,0.00223104,-0.000855142,0.132942,0.00183989,0.00868766,944,491,-0.574975,27.1336
-273,533,-0.588501,-27.6668,0.00249816,-0.00151896,0.000829612,0.00266275,-0.00168355,0.195848,0.00253047,0.0116334,951,491,-0.588482,27.6668
-266,533,-0.599976,-28.2007,0.00321854,-0.00282641,0.00140523,0.00352923,-0.0031371,0.217599,0.00385103,0.012116,958,491,-0.599975,28.2008
-259,533,-0.58844,-28.7313,0.00426225,-0.0045172,0.00211402,0.00474477,-0.00499972,0.224403,0.00562663,0.013157,965,491,-0.588412,28.7313
-252,533,-0.588623,-29.2441,0.0052811,-0.00709756,0.00293733,0.00594274,-0.00775919,0.221553,0.00793395,0.0186682,972,491,-0.588623,29.2441
-245,533,-0.691406,-29.7616,0.00627138,-0.0100687,0.00404676,0.00721867,-0.011016,0.229947,0.0106036,0.0321186,979,491,-0.691405,29.7616
-238,533,-0.524414,-30.1692,0.00735028,-0.0135739,0.00521956,0.00858003,-0.0148037,0.231384,0.013659,0.0366965,986,491,-0.524437,30.1692
-231,533,-0.409302,-30.417,0.00844388,-0.0175344,0.00644616,0.00995545,-0.019046,0.230331,0.017016,0.0478102,993,491,-0.409304,30.417
-224,533,-0.635681,-31.1018,0,0,0,0,0,0,0,-1,1000,491,-0.635685,31.1018
-217,533,-0.644775,-31.2864,0,0,0,0,0,0,0,-1,1007,491,-0.644753,31.2864
-210,533,-0.252319,-31.8301,0,0,0,0,0,0,0,-1,1014,491,-0.252312,31.8301
-203,533,-0.292786,-31.1553,0,0,0,0,0,0,0,-1,1021,491,-0.29279,31.1553
-196,533,0.688354,-19.5743,0,0,0,0,0,0,0,-1,1028,491,0.688406,19.5743
-189,533,-0.169189,-15.0303,0,0,0,0,0,0,0,-1,1035,491,-0.169241,15.0303
-182,533,1.26123,-11.4969,0,0,0,0,0,0,0,-1,1042,491,1.26128,11.4969
-175,533,0.937744,-7.36966,0,0,0,0,0,0,0,-1,1049,491,0.937769,7.36965
-168,533,2.64807,-2.7543,0,0,0,0,0,0,0,-1,1056,491,2.64812,2.7543
-161,533,1.91833,-1.76553,0,0,0,0,0,0,0,-1,1063,491,1.91836,1.76554
-154,533,0.376709,-11.0633,0,0,0,0,0,0,0,-1,1070,491,0.376715,11.0632
-147,533,0.383789,-12.1586,0,0,0,0,0,0,0,-1,1077,491,0.383829,12.1586
-140,533,1.14001,-15.4608,0,0,0,0,0,0,0,-1,1084,491,1.14005,15.4608
-133,533,0.189941,-16.0795,0,0,0,0,0,0,0,-1,1091,491,0.18994,16.0795
-126,533,2.89612,-2.59003,0,0,0,0,0,0,0,-1,1098,491,2.89608,2.59003
-119,533,1.78284,-22.5394,0,0,0,0,0,0,0,-1,1105,491,1.78279,22.5394
-112,533,1.83862,-21.2401,0,0,0,0,0,0,0,-1,1112,491,1.83859,21.24
-105,533,1.67554,-19.4018,0,0,0,0,0,0,0,-1,1119,491,1.6755,19.4018
-98,533,-1.39392,-5.16367,0,0,0,0,0,0,0,-1,1126,491,-1.39394,5.16367
-91,533,0.367432,4.49753,0,0,0,0,0,0,0,-1,1133,491,0.367468,-4.49754
-84,533,-0.88623,3.03604,0,0,0,0,0,0,0,-1,1140,491,-0.886288,-3.03605
-77,533,0,0,0,0,0,0,0,0,0,-1,1147,491,0,0
-70,533,0,0,0,0,0,0,0,0,0,-1,1154,491,0,0
-63,533,0,0,0,0,0,0,0,0,0,-1,1161,491,0,0
-56,533,0,0,0,0,0,0,0,0,0,-1,1168,491,0,0
-49,533,0,0,0,0,0,0,0,0,0,-1,1175,491,0,0
-42,533,0,0,0,0,0,0,0,0,0,-1,1182,491,0,0
-35,533,0,0,0,0,0,0,0,0,0,-1,1189,491,0,0
-28,533,0,0,0,0,0,0,0,0,0,-1,1196,491,0,0
-21,533,0,0,0,0,0,0,0,0,0,-1,1203,491,0,0
-14,533,0,0,0,0,0,0,0,0,0,-1,1210,491,0,0
-7,533,0,0,0,0,0,0,0,0,0,-1,1217,491,0,0
0,533,0,0,0,0,0,0,0,0,0,-1,1224,491,0,0
7,533,0,0,0,0,0,0,0,0,0,-1,1231,491,0,0
14,533,0,0,0,0,0,0,0,0,0,-1,1238,491,0,0
21,533,0,0,0,0,0,0,0,0,0,-1,1245,491,0,0
28,533,0,0,0,0,0,0,0,0,0,-1,1252,491,0,0
35,533,0,0,0,0,0,0,0,0,0,-1,1259,491,0,0
42,533,0,0,0,0,0,0,0,0,0,-1,1266,491,0,0
49,533,0,0,0,0,0,0,0,0,0,-1,1273,491,0,0
56,533,0,0,0,0,0,0,0,0,0,-1,1280,491,0,0
63,533,0,0,0,0,0,0,0,0,0,-1,1287,491,0,0
70,533,0,0,0,0,0,0,0,0,0,-1,1294,491,0,0
77,533,0,0,0,0,0,0,0,0,0,-1,1301,491,0,0
84,533,0,0,0,0,0,0,0,0,0,-1,1308,491,0,0
91,533,0,0,0,0,0,0,0,0,0,-1,1315,491,0,0
98,533,0,0,0,0,0,0,0,0,0,-1,1322,491,0,0
105,533,0,0,0,0,0,0,0,0,0,-1,1329,491,0,0
112,533,0,0,0,0,0,0,0,0,0,-1,1336,491,0,0
119,533,0,0,0,0,0,0,0,0,0,-1,1343,491,0,0
126,533,0,0,0,0,0,0,0,0,0,-1,1350,491,0,0
133,533,0,0,0,0,0,0,0,0,0,-1,1357,491,0,0
140,533,0,0,0,0,0,0,0,0,0,-1,1364,491,0,0
147,533,0,0,0,0,0,0,0,0,0,-1,1371,491,0,0
154,533,0,0,0,0,0,0,0,0,0,-1,1378,491,0,0
161,533,0,0,0,0,0,0,0,0,0,-1,1385,491,0,0
168,533,0,0,0,0,0,0,0,0,0,-1,1392,491,0,0
175,533,0,0,0,0,0,0,0,0,0,-1,1399,491,0,0
182,533,0,0,0,0,0,0,0,0,0,-1,1406,491,0,0
189,533,0,0,0,0,0,0,0,0,0,-1,1413,491,0,0
196,533,0,0,0,0,0,0,0,0,0,-1,1420,491,0,0
203,533,3.7887,1.16193,0,0,0,0,0,0,0,-1,1427,491,3.78872,-1.16193
210,533,5.09558,-0.216034,0,0,0,0,0,0,0,-1,1434,491,5.09559,0.216028
217,533,6.91614,-2.46814,0,0,0,0,0,0,0,-1,1441,491,6.91618,2.46814
224,533,7.23621,-2.1857,0,0,0,0,0,0,0,-1,1448,491,7.23621,2.1857
231,533,7.23474,-1.92282,0,0,0,0,0,0,0,-1,1455,491,7.2347,1.92282
238,533,7.23535,-1.67258,0,0,0,0,0,0,0,-1,1462,491,7.23539,1.67258
245,533,6.86682,-1.2301,0,0,0,0,0,0,0,-1,1469,491,6.86686,1.23011
252,533,6.63354,-3.07825,0,0,0,0,0,0,0,-1,1476,491,6.6335,3.07824
259,533,6.16431,-2.35037,0,0,0,0,0,0,0,-1,1483,491,6.1643,2.35037
266,533,5.68884,-1.6214,0,0,0,0,0,0,0,-1,1490,491,5.68885,1.6214
273,533,5.21399,-0.864227,0,0,0,0,0,0,0,-1,1497,491,5.21403,0.864227
280,533,1.41089,-1.97946,0,0,0,0,0,0,0,-1,1504,491,1.41087,1.97946
287,533,1.6814,-2.44443,0,0,0,0,0,0,0,-1,1511,491,1.6814,2.44444
294,533,2.2384,-2.57626,0,0,0,0,0,0,0,-1,1518,491,2.23839,2.57625
301,533,3.39941,-4.0817,0,0,0,0,0,0,0,-1,1525,491,3.3994,4.08171
308,533,4.13733,-4.14752,0,0,0,0,0,0,0,-1,1532,491,4.13727,4.14752
315,533,4.80762,-5.29349,0,0,0,0,0,0,0,-1,1539,491,4.80762,5.29347
322,533,5.47803,-6.43942,0,0,0,0,0,0,0,-1,1546,491,5.47798,6.43943
329,533,3.88477,-3.86301,0,0,0,0,0,0,0,-1,1553,491,3.88475,3.86299
336,533,6.70923,-13.2003,0,0,0,0,0,0,0,-1,1560,491,6.70926,13.2004
343,533,7.06677,-17.1133,0,0,0,0,0,0,0,-1,1567,491,7.06673,17.1133
350,533,10.0876,-23.7254,0,0,0,0,0,0,0,-1,1574,491,10.0877,23.7254
357,533,12.4863,-29.5448,0,0,0,0,0,0,0,-1,1581,491,12.4864,29.5448
364,533,12.2087,-29.0626,-0.00487856,-0.0125735,-0.00905065,0.00110848,-0.0185605,-0.58442,0.0127592,0.0481128,1588,491,12.2088,29.0626
371,533,11.8636,-28.804,-0.00400458,-0.0103483,-0.00767212,0.0011255,-0.0154784,-0.589384,0.0107138,0.046053,1595,491,11.8637,28.804
378,533,11.8768,-28.3524,-0.00312712,-0.0079007,-0.00606573,0.00100451,-0.0120323,-0.597958,0.00837649,0.0330789,1602,491,11.8768,28.3524
385,533,11.9457,-27.8439,-0.00233828,-0.00554074,-0.00445926,0.000798525,-0.00867754,-0.613028,0.00606874,0.0234499,1609,491,11.9457,27.8439
392,533,11.9376,-27.3213,-0.00178557,-0.00391792,-0.00332469,0.000639716,-0.00634321,-0.630237,0.00445737,0.0140776,1616,491,11.9376,27.3213
399,533,11.9441,-26.7798,-0.00127193,-0.00256188,-0.00247221,0.00063805,-0.00447187,-0.657797,0.0032151,0.0129315,1623,491,11.9441,26.7798
406,533,11.9387,-26.2111,-0.000629736,-0.00132717,-0.00165644,0.000714292,-0.0026712,-0.681651,0.00206059,0.0153789,1630,491,11.9387,26.2111
413,533,11.9174,-25.5948,4.02668e-05,-0.000122921,-0.000836102,0.000798746,-0.000881401,-0.736758,0.000970425,0.0135184,1637,491,11.9174,25.5948
420,533,11.9014,-25.015,0.000712535,0.000871308,8.02646e-07,0.000871312,0.000712531,1.56574,0.000535848,0.0130847,1644,491,11.9014,25.015
427,533,11.885,-24.4219,0.00114896,0.00141257,0.000530664,0.00182755,0.000733975,0.907126,0.00106192,0.0141529,1651,491,11.8851,24.4219
434,533,11.8461,-23.8607,0.00154835,0.00176629,0.00104371,0.0027067,0.000607933,0.837413,0.00163983,0.0134265,1658,491,11.8461,23.8607
441,533,11.8418,-23.259,0.00199434,0.00197185,0.00158092,0.00356406,0.000402135,0.781842,0.00225399,0.0160045,1665,491,11.8418,23.259
448,533,11.8259,-22.67,0.00239327,0.0020591,0.00212938,0.00436211,9.02521e-05,0.746245,0.00287846,0.0170622,1672,491,11.8259,22.67
455,533,11.7926,-22.0829,0.00280408,0.00217677,0.0027456,0.00525388,-0.000273032,0.728525,0.00359706,0.015791,1679,491,11.7926,22.0829
462,533,11.7524,-21.4542,0.00313525,0.00222002,0.0033754,0.00608392,-0.000728644,0.718022,0.00431936,0.0149658,1686,491,11.7525,21.4541
469,533,11.7347,-20.8491,0.00325369,0.00220328,0.00389866,0.00666237,-0.0012054,0.718444,0.00489312,0.0102498,1693,491,11.7347,20.8491
476,533,11.7264,-20.2011,0.00313423,0.00203996,0.00458931,0.00720891,-0.00203472,0.726068,0.00560859,0.012219,1700,491,11.7264,20.2011
483,533,11.7411,-19.5165,0.00293154,0.00193786,0.00528911,0.00774709,-0.00287769,0.738567,0.00634533,0.0188191,1707,491,11.7411,19.5165
490,533,11.879,-18.9549,0.0024912,0.00165623,0.00607361,0.00816165,-0.00401423,0.751083,0.0071644,0.0481246,1714,491,11.879,18.9549
497,533,12.1019,-18.3633,0,0,0,0,0,0,0,-1,1721,491,12.1019,18.3633
504,533,11.9363,-17.3562,0,0,0,0,0,0,0,-1,1728,491,11.9363,17.3562
511,533,12.0931,-16.6371,0,0,0,0,0,0,0,-1,1735,491,12.0932,16.6371
518,533,11.5179,-16.4514,0,0,0,0,0,0,0,-1,1742,491,11.5179,16.4513
525,533,11.8268,-16.2152,0,0,0,0,0,0,0,-1,1749,491,11.8267,16.2152
532,533,11.285,-15.4504,0,0,0,0,0,0,0,-1,1756,491,11.285,15.4504
539,533,3.61609,1.62427,0,0,0,0,0,0,0,-1,1763,491,3.61606,-1.62426
546,533,3.59607,1.65799,0,0,0,0,0,0,0,-1,1770,491,3.59605,-1.658
553,533,0,0,0,0,0,0,0,0,0,-1,1777,491,0,0
560,533,0,0,0,0,0,0,0,0,0,-1,1784,491,0,0
567,533,0,0,0,0,0,0,0,0,0,-1,1791,491,0,0
574,533,0,0,0,0,0,0,0,0,0,-1,1798,491,0,0
581,533,0,0,0,0,0,0,0,0,0,-1,1805,491,0,0
588,533,0,0,0,0,0,0,0,0,0,-1,1812,491,0,0
595,533,0,0,0,0,0,0,0,0,0,-1,1819,491,0,0
602,533,0,0,0,0,0,0,0,0,0,-1,1826,491,0,0
609,533,0,0,0,0,0,0,0,0,0,-1,1833,491,0,0
616,533,0,0,0,0,0,0,0,0,0,-1,1840,491,0,0
623,533,0,0,0,0,0,0,0,0,0,-1,1847,491,0,0
630,533,0,0,0,0,0,0,0,0,0,-1,1854,491,0,0
637,533,0,0,0,0,0,0,0,0,0,-1,1861,491,0,0
644,533,0,0,0,0,0,0,0,0,0,-1,1868,491,0,0
651,533,0,0,0,0,0,0,0,0,0,-1,1875,491,0,0
658,533,0,0,0,0,0,0,0,0,0,-1,1882,491,0,0
665,533,0,0,0,0,0,0,0,0,0,-1,1889,491,0,0
672,533,0,0,0,0,0,0,0,0,0,-1,1896,491,0,0
679,533,0,0,0,0,0,0,0,0,0,-1,1903,491,0,0
686,533,0,0,0,0,0,0,0,0,0,-1,1910,491,0,0
693,533,0,0,0,0,0,0,0,0,0,-1,1917,491,0,0
700,533,0,0,0,0,0,0,0,0,0,-1,1924,491,0,0
707,533,0,0,0,0,0,0,0,0,0,-1,1931,491,0,0
714,533,0,0,0,0,0,0,0,0,0,-1,1938,491,0,0
721,533,0,0,0,0,0,0,0,0,0,-1,1945,491,0,0
728,533,0,0,0,0,0,0,0,0,0,-1,1952,491,0,0
735,533,0,0,0,0,0,0,0,0,0,-1,1959,491,0,0
742,533,0,0,0,0,0,0,0,0,0,-1,1966,491,0,0
749,533,0,0,0,0,0,0,0,0,0,-1,1973,491,0,0
756,533,0,0,0,0,0,0,0,0,0,-1,1980,491,0,0
763,533,0,0,0,0,0,0,0,0,0,-1,1987,491,0,0
770,533,0,0,0,0,0,0,0,0,0,-1,1994,491,0,0
777,533,0,0,0,0,0,0,0,0,0,-1,2001,491,0,0
784,533,0,0,0,0,0,0,0,0,0,-1,2008,491,0,0
791,533,0,0,0,0,0,0,0,0,0,-1,2015,491,0,0
798,533,0,0,0,0,0,0,0,0,0,-1,2022,491,0,0
805,533,0,0,0,0,0,0,0,0,0,-1,2029,491,0,0
812,533,0,0,0,0,0,0,0,0,0,-1,2036,491,0,0
-700,526,0,0,0,0,0,0,0,0,0,-1,524,498,0,0
-693,526,0,0,0,0,0,0,0,0,0,-1,531,498,0,0
-686,526,0,0,0,0,0,0,0,0,0,-1,538,498,0,0
-679,526,0,0,0,0,0,0,0,0,0,-1,545,498,0,0
-672,526,0,0,0,0,0,0,0,0,0,-1,552,498,0,0
-665,526,0,0,0,0,0,0,0,0,0,-1,559,498,0,0
-658,526,0,0,0,0,0,0,0,0,0,-1,566,498,0,0
-651,526,0,0,0,0,0,0,0,0,0,-1,573,498,0,0
-644,526,0,0,0,0,0,0,0,0,0,-1,580,498,0,0
-637,526,0,0,0,0,0,0,0,0,0,-1,587,498,0,0
-630,526,0,0,0,0,0,0,0,0,0,-1,594,498,0,0
-623,526,0,0,0,0,0,0,0,0,0,-1,601,498,0,0
-616,526,0,0,0,0,0,0,0,0,0,-1,608,498,0,0
-609,526,0,0,0,0,0,0,0,0,0,-1,615,498,0,0
-602,526,0,0,0,0,0,0,0,0,0,-1,622,498,0,0
-595,526,0,0,0,0,0,0,0,0,0,-1,629,498,0,0
-588,526,0,0,0,0,0,0,0,0,0,-1,636,498,0,0
-581,526,0,0,0,0,0,0,0,0,0,-1,643,498,0,0
-574,526,0,0,0,0,0,0,0,0,0,-1,650,498,0,0
-567,526,0,0,0,0,0,0,0,0,0,-1,657,498,0,0
-560,526,0,0,0,0,0,0,0,0,0,-1,664,498,0,0
-553,526,0,0,0,0,0,0,0,0,0,-1,671,498,0,0
-546,526,0,0,0,0,0,0,0,0,0,-1,678,498,0,0
-539,526,0,0,0,0,0,0,0,0,0,-1,685,498,0,0
-532,526,0,0,0,0,0,0,0,0,0,-1,692,498,0,0
-525,526,0,0,0,0,0,0,0,0,0,-1,699,498,0,0
-518,526,0,0,0,0,0,0,0,0,0,-1,706,498,0,0
-511,526,0,0,0,0,0,0,0,0,0,-1,713,498,0,0
-504,526,0,0,0,0,0,0,0,0,0,-1,720,498,0,0
-497,526,0,0,0,0,0,0,0,0,0,-1,727,498,0,0
-490,526,0,0,0,0,0,0,0,0,0,-1,734,498,0,0
-483,526,0,0,0,0,0,0,0,0,0,-1,741,498,0,0
-476,526,0,0,0,0,0,0,0,0,0,-1,748,498,0,0
-469,526,0,0,0,0,0,0,0,0,0,-1,755,498,0,0
-462,526,0,0,0,0,0,0,0,0,0,-1,762,498,0,0
-455,526,0,0,0,0,0,0,0,0,0,-1,769,498,0,0
-448,526,0,0,0,0,0,0,0,0,0,-1,776,498,0,0
-441,526,0,0,0,0,0,0,0,0,0,-1,783,498,0,0
-434,526,-0.153564,-5.96649,0,0,0,0,0,0,0,-1,790,498,-0.153589,5.9665
-427,526,1.23206,-4.59808,0,0,0,0,0,0,0,-1,797,498,1.23208,4.59809
-420,526,-1.76373,-11.6241,0,0,0,0,0,0,0,-1,804,498,-1.76373,11.6241
-413,526,-1.38965,-11.7916,0,0,0,0,0,0,0,-1,811,498,-1.38963,11.7916
-406,526,-1.35187,-12.5182,0,0,0,0,0,0,0,-1,818,498,-1.35185,12.5181
-399,526,-1.32715,-13.2116,0,0,0,0,0,0,0,-1,825,498,-1.32713,13.2116
-392,526,0.197571,-15.303,0,0,0,0,0,0,0,-1,832,498,0.197598,15.303
-385,526,-0.766052,-17.2805,0,0,0,0,0,0,0,-1,839,498,-0.766031,17.2805
-378,526,-0.800171,-18.2311,0.00247289,0.0254171,-0.0143157,0.0322903,-0.00440026,-1.12318,0.0231335,0.0440792,846,498,-0.800181,18.2311
-371,526,-0.867249,-19.1284,0.00220044,0.0205088,-0.0118762,0.0263494,-0.00364017,-1.11374,0.0188969,0.0365718,853,498,-0.867244,19.1284
-364,526,-0.900757,-19.9799,0.00195075,0.0165059,-0.00967657,0.0213361,-0.00287949,-1.10781,0.0152746,0.0214837,860,498,-0.900742,19.9799
-357,526,-0.878418,-20.7103,0.00171624,0.0130475,-0.00788581,0.017092,-0.00232819,-1.0969,0.0122447,0.014157,867,498,-0.878431,20.7103
-350,526,-0.90686,-21.3418,0.00141429,0.00972451,-0.00610109,0.012951,-0.00181221,-1.08434,0.00929714,0.0120835,874,498,-0.906884,21.3418
-343,526,-0.9646,-21.9547,0.00129482,0.00721736,-0.00475578,0.00985846,-0.00134628,-1.06386,0.00706396,0.015775,881,498,-0.964572,21.9547
-336,526,-1.00659,-22.5551,0.00127496,0.00523097,-0.0036636,0.00741643,-0.000910504,-1.03293,0.00527405,0.0165662,888,498,-1.0066,22.5551
-329,526,-1.01123,-23.1462,0.00128737,0.00355621,-0.00273311,0.00538098,-0.000537402,-0.982111,0.00377921,0.016252,895,498,-1.01125,23.1463
-322,526,-1.0321,-23.6913,0.0012867,0.00211978,-0.00187864,0.0036275,-0.00022102,-0.894495,0.00249527,0.0108356,902,498,-1.03209,23.6913
-315,526,-1.07306,-24.2826,0.00133185,0.00117194,-0.00116151,0.00241616,8.76359e-05,-0.751035,0.00158237,0.00918252,909,498,-1.07308,24.2826
-308,526,-1.09235,-24.8837,0.00145076,0.000553383,-0.000619969,0.00176737,0.000236772,-0.472162,0.00110779,0.0087722,916,498,-1.09236,24.8836
-301,526,-1.12421,-25.4291,0.00157354,8.35888e-05,-0.000209286,0.00160238,5.47495e-05,-0.136936,0.00105048,0.0105808,923,498,-1.12422,25.4291
-294,526,-1.11969,-25.97,0.00179967,-0.000179478,0.000205775,0.00182084,-0.000200646,0.10251,0.001286,0.0103774,930,498,-1.1197,25.97
-287,526,-1.1366,-26.5275,0.00220197,-0.000519038,0.00060263,0.00232947,-0.000646531,0.208486,0.00180745,0.0106744,937,498,-1.13657,26.5275
-280,526,-1.15814,-27.0892,0.00266516,-0.00136632,0.00100296,0.00290089,-0.00160205,0.230848,0.00263558,0.0129767,944,498,-1.15815,27.0892
-273,526,-1.15027,-27.6489,0.00316526,-0.00227477,0.00147234,0.00353819,-0.00264769,0.248069,0.00358373,0.0103764,951,498,-1.15025,27.6489
-266,526,-1.15704,-28.1799,0.00420993,-0.00390397,0.00209908,0.0047208,-0.00441484,0.238737,0.00527545,0.012734,958,498,-1.15705,28.18
-259,526,-1.07404,-28.6828,0.00560295,-0.00583131,0.00281899,0.00626017,-0.00648852,0.229047,0.00736085,0.0330716,965,498,-1.07406,28.6828
-252,526,-0.925293,-29.2275,0,0,0,0,0,0,0,-1,972,498,-0.925275,29.2275
-245,526,-1.19598,-29.8328,0,0,0,0,0,0,0,-1,979,498,-1.19601,29.8328
-238,526,-0.995422,-30.1946,0,0,0,0,0,0,0,-1,986,498,-0.99544,30.1946
-231,526,-0.622803,-30.22,0,0,0,0,0,0,0,-1,993,498,-0.622814,30.22
-224,526,-1.4339,-31.2747,0,0,0,0,0,0,0,-1,1000,498,-1.43393,31.2747
-217,526,-1.08447,-31.3865,0,0,0,0,0,0,0,-1,1007,498,-1.08448,31.3866
-210,526,-1.39386,-31.7806,0,0,0,0,0,0,0,-1,1014,498,-1.39387,31.7806
-203,526,-0.659302,-18.8818,0,0,0,0,0,0,0,-1,1021,498,-0.659273,18.8818
-196,526,-0.328247,-12.179,0,0,0,0,0,0,0,-1,1028,498,-0.328238,12.179
-189,526,0.401245,-5.96826,0,0,0,0,0,0,0,-1,1035,498,0.401197,5.96826
-182,526,1.7323,-2.99405,0,0,0,0,0,0,0,-1,1042,498,1.73226,2.99404
-175,526,2.27637,-2.07983,0,0,0,0,0,0,0,-1,1049,498,2.27639,2.07984
-168,526,2.12036,-1.66049,0,0,0,0,0,0,0,-1,1056,498,2.12035,1.66048
-161,526,2.09082,-1.20572,0,0,0,0,0,0,0,-1,1063,498,2.09086,1.2057
-154,526,-1.3446,-5.37799,0,0,0,0,0,0,0,-1,1070,498,-1.34457,5.37799
-147,526,-0.472656,-6.64996,0,0,0,0,0,0,0,-1,1077,498,-0.472659,6.64997
-140,526,0.422852,-8.03339,0,0,0,0,0,0,0,-1,1084,498,0.422844,8.0334
-133,526,1.09583,-9.2215,0,0,0,0,0,0,0,-1,1091,498,1.09581,9.2215
-126,526,3.42529,-2.36053,0,0,0,0,0,0,0,-1,1098,498,3.42523,2.36052
-119,526,2.7771,-0.764099,0,0,0,0,0,0,0,-1,1105,498,2.7771,0.764107
-112,526,2.57715,-1.1893,0,0,0,0,0,0,0,-1,1112,498,2.57718,1.1893
-105,526,0,0,0,0,0,0,0,0,0,-1,1119,498,0,0
-98,526,0,0,0,0,0,0,0,0,0,-1,1126,498,0,0
-91,526,0,0,0,0,0,0,0,0,0,-1,1133,498,0,0
-84,526,0,0,0,0,0,0,0,0,0,-1,1140,498,0,0
-77,526,0,0,0,0,0,0,0,0,0,-1,1147,498,0,0
-70,526,0,0,0,0,0,0,0,0,0,-1,1154,498,0,0
-63,526,0,0,0,0,0,0,0,0,0,-1,1161,498,0,0
-56,526,0,0,0,0,0,0,0,0,0,-1,1168,498,0,0
-49,526,0,0,0,0,0,0,0,0,0,-1,1175,498,0,0
-42,526,0,0,0,0,0,0,0,0,0,-1,1182,498,0,0
-35,526,0,0,0,0,0,0,0,0,0,-1,1189,498,0,0
-28,526,0,0,0,0,0,0,0,0,0,-1,1196,498,0,0
-21,526,0,0,0,0,0,0,0,0,0,-1,1203,498,0,0
-14,526,0,0,0,0,0,0,0,0,0,-1,1210,498,0,0
-7,526,0,0,0,0,0,0,0,0,0,-1,1217,498,0,0
0,526,0,0,0,0,0,0,0,0,0,-1,1224,498,0,0
7,526,0,0,0,0,0,0,0,0,0,-1,1231,498,0,0
14,526,0,0,0,0,0,0,0,0,0,-1,1238,498,0,0
21,526,0,0,0,0,0,0,0,0,0,-1,1245,498,0,0
28,526,0,0,0,0,0,0,0,0,0,-1,1252,498,0,0
35,526,0,0,0,0,0,0,0,0,0,-1,1259,498,0,0
42,526,0,0,0,0,0,0,0,0,0,-1,1266,498,0,0
49,526,0,0,0,0,0,0,0,0,0,-1,1273,498,0,0
56,526,0,0,0,0,0,0,0,0,0,-1,1280,498,0,0
63,526,0,0,0,0,0,0,0,0,0,-1,1287,498,0,0
70,526,0,0,0,0,0,0,0,0,0,-1,1294,498,0,0
77,526,0,0,0,0,0,0,0,0,0,-1,1301,498,0,0
84,526,0,0,0,0,0,0,0,0,0,-1,1308,498,0,0
91,526,0,0,0,0,0,0,0,0,0,-1,1315,498,0,0
98,526,0,0,0,0,0,0,0,0,0,-1,1322,498,0,0
105,526,0,0,0,0,0,0,0,0,0,-1,1329,498,0,0
112,526,0,0,0,0,0,0,0,0,0,-1,1336,498,0,0
119,526,0,0,0,0,0,0,0,0,0,-1,1343,498,0,0
126,526,0,0,0,0,0,0,0,0,0,-1,1350,498,0,0
133,526,0,0,0,0,0,0,0,0,0,-1,1357,498,0,0
140,526,0,0,0,0,0,0,0,0,0,-1,1364,498,0,0
147,526,0,0,0,0,0,0,0,0,0,-1,1371,498,0,0
154,526,0,0,0,0,0,0,0,0,0,-1,1378,498,0,0
161,526,0,0,0,0,0,0,0,0,0,-1,1385,498,0,0
168,526,0,0,0,0,0,0,0,0,0,-1,1392,498,0,0
175,526,0,0,0,0,0,0,0,0,0,-1,1399,498,0,0
182,526,0,0,0,0,0,0,0,0,0,-1,1406,498,0,0
189,526,0,0,0,0,0,0,0,0,0,-1,1413,498,0,0
196,526,0,0,0,0,0,0,0,0,0,-1,1420,498,0,0
203,526,0,0,0,0,0,0,0,0,0,-1,1427,498,0,0
210,526,0,0,0,0,0,0,0,0,0,-1,1434,498,0,0
217,526,0,0,0,0,0,0,0,0,0,-1,1441,498,0,0
224,526,0,0,0,0,0,0,0,0,0,-1,1448,498,0,0
231,526,7.93237,-1.30618,0,0,0,0,0,0,0,-1,1455,498,7.93238,1.30618
238,526,7.97717,-1.08197,0,0,0,0,0,0,0,-1,1462,498,7.97723,1.08196
245,526,7.2793,-0.792938,0,0,0,0,0,0,0,-1,1469,498,7.27931,0.792926
252,526,6.73523,-2.23608,0,0,0,0,0,0,0,-1,1476,498,6.73525,2.23608
259,526,6.22949,-1.84967,0,0,0,0,0,0,0,-1,1483,498,6.22953,1.84968
266,526,5.72375,-1.46329,0,0,0,0,0,0,0,-1,1490,498,5.72381,1.46328
273,526,4.33984,0.49173,0,0,0,0,0,0,0,-1,1497,498,4.33979,-0.491727
280,526,1.4585,-1.59897,0,0,0,0,0,0,0,-1,1504,498,1.45846,1.59895
287,526,1.46411,-2.40134,0,0,0,0,0,0,0,-1,1511,498,1.46406,2.40133
294,526,5.57471,-4.59085,0,0,0,0,0,0,0,-1,1518,498,5.57466,4.59084
301,526,4.42786,-3.99677,0,0,0,0,0,0,0,-1,1525,498,4.42788,3.99676
308,526,5.79529,-4.19366,0,0,0,0,0,0,0,-1,1532,498,5.79528,4.19368
315,526,5.09851,-5.20068,0,0,0,0,0,0,0,-1,1539,498,5.09851,5.20068
322,526,5.50708,-4.72348,0,0,0,0,0,0,0,-1,1546,498,5.50713,4.72347
329,526,3.88672,-4.345,0,0,0,0,0,0,0,-1,1553,498,3.88674,4.34501
336,526,4.97876,-2.23828,0,0,0,0,0,0,0,-1,1560,498,4.97877,2.23828
343,526,3.31665,-2.69696,0,0,0,0,0,0,0,-1,1567,498,3.31667,2.69696
350,526,6.06287,-6.12015,0,0,0,0,0,0,0,-1,1574,498,6.06286,6.12014
357,526,12.9944,-29.1665,0,0,0,0,0,0,0,-1,1581,498,12.9943,29.1665
364,526,13.0615,-28.8779,0,0,0,0,0,0,0,-1,1588,498,13.0615,28.8779
371,526,12.4481,-29.0131,0,0,0,0,0,0,0,-1,1595,498,12.4481,29.0131
378,526,12.3359,-28.5771,0,0,0,0,0,0,0,-1,1602,498,12.336,28.5771
385,526,12.4691,-27.9013,0,0,0,0,0,0,0,-1,1609,498,12.4691,27.9013
392,526,12.58,-27.3152,-0.00253801,-0.00494449,-0.00464396,0.00105606,-0.00853856,-0.658637,0.00607507,0.0365244,1616,498,12.5799,27.3153
399,526,12.4817,-26.7578,-0.00189369,-0.00336575,-0.00365685,0.00110047,-0.00635991,-0.686088,0.00465037,0.0205904,1623,498,12.4816,26.7578
406,526,12.5145,-26.1552,-0.00109526,-0.00200622,-0.00270433,0.00119168,-0.00429316,-0.701968,0.00333116,0.0126104,1630,498,12.5146,26.1551
413,526,12.4927,-25.5826,-0.000281491,-0.000705819,-0.00174072,0.00125995,-0.00224726,-0.724756,0.00205146,0.0131381,1637,498,12.4926,25.5827
420,526,12.454,-25.025,0.000447013,0.000380839,-0.000730966,0.00114564,-0.000317788,-0.762781,0.000888833,0.0136735,1644,498,12.454,25.025
427,526,12.4489,-24.4365,0.00079333,0.000953394,-0.000149546,0.00104298,0.000703747,-1.03109,0.000614299,0.0138006,1651,498,12.4488,24.4365
434,526,12.4197,-23.8341,0.00106426,0.00129806,0.000385214,0.00158372,0.000778601,0.932713,0.000914405,0.0124927,1658,498,12.4197,23.8341
441,526,12.4052,-23.2306,0.00138819,0.0015113,0.000933604,0.00238537,0.000514111,0.818317,0.00144959,0.0119555,1665,498,12.4051,23.2306
448,526,12.4019,-22.643,0.00170289,0.0016047,0.00147812,0.00313273,0.000174864,0.768798,0.00203271,0.0113091,1672,498,12.4019,22.643
455,526,12.3738,-22.0789,0.00203905,0.00177281,0.00208285,0.00399303,-0.000181173,0.753485,0.00272442,0.0138131,1679,498,12.3738,22.0788
462,526,12.3558,-21.4473,0.00229891,0.00184005,0.00266335,0.00474269,-0.000603735,0.742433,0.00338106,0.0105322,1686,498,12.3559,21.4472
469,526,12.3486,-20.8332,0.00237204,0.00185079,0.00315768,0.00527983,-0.001057,0.744223,0.00392001,0.00776775,1693,498,12.3486,20.8332
476,526,12.3177,-20.2136,0.00220963,0.00174404,0.00380045,0.00578441,-0.00183073,0.754809,0.00458987,0.00933916,1700,498,12.3178,20.2136
483,526,12.3,-19.5272,0.00196215,0.00169818,0.004395,0.00622715,-0.00256682,0.770388,0.00522175,0.0122068,1707,498,12.3,19.5272
490,526,12.3625,-18.8034,0.00148831,0.00150901,0.00505589,0.00655456,-0.00355724,0.786422,0.00592293,0.0275262,1714,498,12.3625,18.8034
497,526,12.296,-18.3956,0.0006427,0.00112087,0.00566306,0.00654989,-0.00478632,0.806495,0.00657131,0.0348863,1721,498,12.2961,18.3956
504,526,12.2643,-17.6404,-0.000629479,0.000737559,0.00613972,0.00623169,-0.00612361,0.840834,0.00713343,0.0360939,1728,498,12.2642,17.6404
511,526,12.4238,-16.873,-0.00207909,0.000179969,0.00667726,0.00582256,-0.00772168,0.869186,0.00784535,0.0471916,1735,498,12.4238,16.873
518,526,12.1519,-16.3138,-0.00392315,-0.000533246,0.00724214,0.00520964,-0.00966604,0.900349,0.008716,0.0476539,1742,498,12.1518,16.3138
525,526,12.2043,-15.7487,-0.00674099,-0.00146103,0.00785011,0.00418112,-0.0123831,0.947607,0.00994651,0.0464057,1749,498,12.2043,15.7487
532,526,12.2253,-15.1462,0,0,0,0,0,0,0,-1,1756,498,12.2253,15.1462
539,526,10.9778,-15.113,0,0,0,0,0,0,0,-1,1763,498,10.9778,15.1131
546,526,3.36731,1.07721,0,0,0,0,0,0,0,-1,1770,498,3.36735,-1.07719
553,526,3.40796,1.37137,0,0,0,0,0,0,0,-1,1777,498,3.40792,-1.37138
560,526,0,0,0,0,0,0,0,0,0,-1,1784,498,0,0
567,526,0,0,0,0,0,0,0,0,0,-1,1791,498,0,0
574,526,0,0,0,0,0,0,0,0,0,-1,1798,498,0,0
581,526,0,0,0,0,0,0,0,0,0,-1,1805,498,0,0
588,526,0,0,0,0,0,0,0,0,0,-1,1812,498,0,0
595,526,0,0,0,0,0,0,0,0,0,-1,1819,498,0,0
602,526,0,0,0,0,0,0,0,0,0,-1,1826,498,0,0
609,526,0,0,0,0,0,0,0,0,0,-1,1833,498,0,0
616,526,0,0,0,0,0,0,0,0,0,-1,1840,498,0,0
623,526,0,0,0,0,0,0,0,0,0,-1,1847,498,0,0
630,526,0,0,0,0,0,0,0,0,0,-1,1854,498,0,0
637,526,0,0,0,0,0,0,0,0,0,-1,1861,498,0,0
644,526,0,0,0,0,0,0,0,0,0,-1,1868,498,0,0
651,526,0,0,0,0,0,0,0,0,0,-1,1875,498,0,0
658,526,0,0,0,0,0,0,0,0,0,-1,1882,498,0,0
665,526,0,0,0,0,0,0,0,0,0,-1,1889,498,0,0
672,526,0,0,0,0,0,0,0,0,0,-1,1896,498,0,0
679,526,0,0,0,0,0,0,0,0,0,-1,1903,498,0,0
686,526,0,0,0,0,0,0,0,0,0,-1,1910,498,0,0
693,526,0,0,0,0,0,0,0,0,0,-1,1917,498,0,0
700,526,0,0,0,0,0,0,0,0,0,-1,1924,498,0,0
707,526,0,0,0,0,0,0,0,0,0,-1,1931,498,0,0
714,526,0,0,0,0,0,0,0,0,0,-1,1938,498,0,0
721,526,0,0,0,0,0,0,0,0,0,-1,1945,498,0,0
728,526,0,0,0,0,0,0,0,0,0,-1,1952,498,0,0
735,526,0,0,0,0,0,0,0,0,0,-1,1959,498,0,0
742,526,0,0,0,0,0,0,0,0,0,-1,1966,498,0,0
749,526,0,0,0,0,0,0,0,0,0,-1,1973,498,0,0
756,526,0,0,0,0,0,0,0,0,0,-1,1980,498,0,0
763,526,0,0,0,0,0,0,0,0,0,-1,1987,498,0,0
770,526,0,0,0,0,0,0,0,0,0,-1,1994,498,0,0
777,526,0,0,0,0,0,0,0,0,0,-1,2001,498,0,0
784,526,0,0,0,0,0,0,0,0,0,-1,2008,498,0,0
791,526,0,0,0,0,0,0,0,0,0,-1,2015,498,0,0
798,526,0,0,0,0,0,0,0,0,0,-1,2022,498,0,0
805,526,0,0,0,0,0,0,0,0,0,-1,2029,498,0,0
812,526,0,0,0,0,0,0,0,0,0,-1,2036,498,0,0
-700,519,0,0,0,0,0,0,0,0,0,-1,524,505,0,0
-693,519,0,0,0,0,0,0,0,0,0,-1,531,505,0,0
-686,519,0,0,0,0,0,0,0,0,0,-1,538,505,0,0
-679,519,0,0,0,0,0,0,0,0,0,-1,545,505,0,0
-672,519,0,0,0,0,0,0,0,0,0,-1,552,505,0,0
-665,519,0,0,0,0,0,0,0,0,0,-1,559,505,0,0
-658,519,0,0,0,0,0,0,0,0,0,-1,566,505,0,0
-651,519,0,0,0,0,0,0,0,0,0,-1,573,505,0,0
-644,519,0,0,0,0,0,0,0,0,0,-1,580,505,0,0
-637,519,0,0,0,0,0,0,0,0,0,-1,587,505,0,0
-630,519,0,0,0,0,0,0,0,0,0,-1,594,505,0,0
-623,519,0,0,0,0,0,0,0,0,0,-1,601,505,0,0
-616,519,0,0,0,0,0,0,0,0,0,-1,608,505,0,0
-609,519,0,0,0,0,0,0,0,0,0,-1,615,505,0,0
-602,519,0,0,0,0,0,0,0,0,0,-1,622,505,0,0
-595,519,0,0,0,0,0,0,0,0,0,-1,629,505,0,0
-588,519,0,0,0,0,0,0,0,0,0,-1,636,505,0,0
-581,519,0,0,0,0,0,0,0,0,0,-1,643,505,0,0
-574,519,0,0,0,0,0,0,0,0,0,-1,650,505,0,0
-567,519,0,0,0,0,0,0,0,0,0,-1,657,505,0,0
-560,519,0,0,0,0,0,0,0,0,0,-1,664,505,0,0
-553,519,0,0,0,0,0,0,0,0,0,-1,671,505,0,0
-546,519,0,0,0,0,0,0,0,0,0,-1,678,505,0,0
-539,519,0,0,0,0,0,0,0,0,0,-1,685,505,0,0
-532,519,0,0,0,0,0,0,0,0,0,-1,692,505,0,0
-525,519,0,0,0,0,0,0,0,0,0,-1,699,505,0,0
-518,519,0,0,0,0,0,0,0,0,0,-1,706,505,0,0
-511,519,0,0,0,0,0,0,0,0,0,-1,713,505,0,0
-504,519,0,0,0,0,0,0,0,0,0,-1,720,505,0,0
-497,519,0,0,0,0,0,0,0,0,0,-1,727,505,0,0
-490,519,0,0,0,0,0,0,0,0,0,-1,734,505,0,0
-483,519,0,0,0,0,0,0,0,0,0,-1,741,505,0,0
-476,519,0,0,0,0,0,0,0,0,0,-1,748,505,0,0
-469,519,0,0,0,0,0,0,0,0,0,-1,755,505,0,0
-462,519,0,0,0,0,0,0,0,0,0,-1,762,505,0,0
-455,519,0,0,0,0,0,0,0,0,0,-1,769,505,0,0
-448,519,0,0,0,0,0,0,0,0,0,-1,776,505,0,0
-441,519,1.34839,-5.29346,0,0,0,0,0,0,0,-1,783,505,1.3484,5.29347
-434,519,0.949585,-5.77313,0,0,0,0,0,0,0,-1,790,505,0.949598,5.77315
-427,519,-0.0523682,-9.31567,0,0,0,0,0,0,0,-1,797,505,-0.0523854,9.31568
-420,519,-2.38867,-12.1938,0,0,0,0,0,0,0,-1,804,505,-2.38867,12.1938
-413,519,-2.2298,-12.4998,0,0,0,0,0,0,0,-1,811,505,-2.22979,12.4998
-406,519,-1.44373,-12.3475,0,0,0,0,0,0,0,-1,818,505,-1.44376,12.3475
-399,519,-1.60516,-15.0849,0,0,0,0,0,0,0,-1,825,505,-1.60518,15.0849
-392,519,-1.08459,-17.4735,0,0,0,0,0,0,0,-1,832,505,-1.0846,17.4735
-385,519,-1.55627,-17.5454,0,0,0,0,0,0,0,-1,839,505,-1.5563,17.5454
-378,519,-1.48798,-18.3709,0.00212085,0.020691,-0.0117839,0.0264084,-0.00359652,-1.11907,0.0189187,0.031086,846,505,-1.48798,18.3709
-371,519,-1.44788,-19.2597,0.00174324,0.016886,-0.00978394,0.021686,-0.00305677,-1.1147,0.0155766,0.0180921,853,505,-1.44787,19.2597
-364,519,-1.44446,-20.0424,0.00143479,0.013612,-0.00795502,0.0175411,-0.00249426,-1.11203,0.012608,0.0113897,860,505,-1.44445,20.0424
-357,519,-1.45563,-20.72,0.00117156,0.0108017,-0.00640817,0.0140023,-0.00202894,-1.1076,0.0100795,0.0109862,867,505,-1.4556,20.72
-350,519,-1.48981,-21.3392,0.000892456,0.0080267,-0.00486744,0.0104942,-0.00157502,-1.10162,0.00757589,0.0125205,874,505,-1.48979,21.3392
-343,519,-1.55695,-21.9072,0.000807478,0.00590029,-0.00369495,0.00784129,-0.00113353,-1.0871,0.00564345,0.0163603,881,505,-1.55697,21.9073
-336,519,-1.60712,-22.4905,0.000839059,0.00417759,-0.00272936,0.00570768,-0.000691024,-1.05985,0.00405513,0.0169993,888,505,-1.60712,22.4905
-329,519,-1.58661,-23.0761,0.000946914,0.00268649,-0.0019205,0.00392499,-0.000291582,-0.998028,0.00271907,0.0141123,895,505,-1.5866,23.0761
-322,519,-1.58679,-23.669,0.00107346,0.00138884,-0.00116829,0.00241004,5.22658e-05,-0.852479,0.00158956,0.0115082,902,505,-1.5868,23.669
-315,519,-1.62079,-24.2782,0.00129378,0.000479056,-0.000529876,0.00155479,0.000218053,-0.457689,0.000972026,0.0094649,909,505,-1.62078,24.2782
-308,519,-1.6463,-24.892,0.00164628,-0.000161871,-5.34406e-05,0.00164786,-0.000163449,-0.029521,0.00115691,0.00864002,916,505,-1.64631,24.892
-301,519,-1.66821,-25.4251,0.00201927,-0.000590377,0.000307984,0.00205512,-0.000626232,0.115897,0.00161969,0.0131085,923,505,-1.66823,25.4251
-294,519,-1.69153,-25.9429,0.00248675,-0.000852635,0.000689352,0.00262346,-0.000989342,0.195772,0.0021558,0.0153253,930,505,-1.69155,25.9429
-287,519,-1.72272,-26.5113,0.00312915,-0.00124768,0.00107408,0.00337853,-0.00149705,0.228132,0.00288394,0.0116476,937,505,-1.72269,26.5113
-280,519,-1.74493,-27.0731,0.00386201,-0.00223319,0.00150167,0.00421189,-0.00258307,0.228911,0.00396046,0.0185966,944,505,-1.7449,27.0731
-273,519,-1.70557,-27.6388,0.00462595,-0.00330237,0.00197591,0.0050911,-0.00376752,0.231201,0.00513352,0.0346805,951,505,-1.70554,27.6388
-266,519,-1.70599,-28.227,0,0,0,0,0,0,0,-1,958,505,-1.70602,28.227
-259,519,-1.50537,-28.8071,0,0,0,0,0,0,0,-1,965,505,-1.50539,28.8071
-252,519,-1.84009,-26.8372,0,0,0,0,0,0,0,-1,972,505,-1.8401,26.8372
-245,519,-1.23254,-23.2696,0,0,0,0,0,0,0,-1,979,505,-1.23256,23.2696
-238,519,-1.06903,-23.1753,0,0,0,0,0,0,0,-1,986,505,-1.06904,23.1753
-231,519,0.337585,-11.2798,0,0,0,0,0,0,0,-1,993,505,0.337568,11.2798
-224,519,-0.0494995,-7.97394,0,0,0,0,0,0,0,-1,1000,505,-0.0495123,7.97392
-217,519,-1.80774,-31.742,0,0,0,0,0,0,0,-1,1007,505,-1.80775,31.742
-210,519,-2.14398,-4.74774,0,0,0,0,0,0,0,-1,1014,505,-2.14397,4.74775
-203,519,-0.513611,-5.39017,0,0,0,0,0,0,0,-1,1021,505,-0.513585,5.39017
-196,519,-0.374023,-5.41635,0,0,0,0,0,0,0,-1,1028,505,-0.374047,5.41635
-189,519,-0.234497,-5.44254,0,0,0,0,0,0,0,-1,1035,505,-0.234508,5.44253
-182,519,2.76697,-1.19659,0,0,0,0,0,0,0,-1,1042,505,2.76696,1.19661
-175,519,2.31323,-0.960938,0,0,0,0,0,0,0,-1,1049,505,2.31319,0.960941
-168,519,2.01074,-0.721405,0,0,0,0,0,0,0,-1,1056,505,2.01072,0.721407
-161,519,2.32056,-0.522339,0,0,0,0,0,0,0,-1,1063,505,2.32057,0.522328
-154,519,2.55566,0.116669,0,0,0,0,0,0,0,-1,1070,505,2.55563,-0.116661
-147,519,-0.55127,-6.14001,0,0,0,0,0,0,0,-1,1077,505,-0.551252,6.14001
-140,519,0.240601,-7.53503,0,0,0,0,0,0,0,-1,1084,505,0.240653,7.53501
-133,519,2.70911,-4.4516,0,0,0,0,0,0,0,-1,1091,505,2.70915,4.45161
-126,519,0,0,0,0,0,0,0,0,0,-1,1098,505,0,0
-119,519,0,0,0,0,0,0,0,0,0,-1,1105,505,0,0
-112,519,0,0,0,0,0,0,0,0,0,-1,1112,505,0,0
-105,519,0,0,0,0,0,0,0,0,0,-1,1119,505,0,0
-98,519,0,0,0,0,0,0,0,0,0,-1,1126,505,0,0
-91,519,0,0,0,0,0,0,0,0,0,-1,1133,505,0,0
-84,519,0,0,0,0,0,0,0,0,0,-1,1140,505,0,0
-77,519,0,0,0,0,0,0,0,0,0,-1,1147,505,0,0
-70,519,0,0,0,0,0,0,0,0,0,-1,1154,505,0,0
-63,519,0,0,0,0,0,0,0,0,0,-1,1161,505,0,0
-56,519,0,0,0,0,0,0,0,0,0,-1,1168,505,0,0
-49,519,0,0,0,0,0,0,0,0,0,-1,1175,505,0,0
-42,519,0,0,0,0,0,0,0,0,0,-1,1182,505,0,0
-35,519,0,0,0,0,0,0,0,0,0,-1,1189,505,0,0
-28,519,0,0,0,0,0,0,0,0,0,-1,1196,505,0,0
-21,519,0,0,0,0,0,0,0,0,0,-1,1203,505,0,0
-14,519,0,0,0,0,0,0,0,0,0,-1,1210,505,0,0
-7,519,0,0,0,0,0,0,0,0,0,-1,1217,505,0,0
0,519,0,0,0,0,0,0,0,0,0,-1,1224,505,0,0
7,519,0,0,0,0,0,0,0,0,0,-1,1231,505,0,0
14,519,0,0,0,0,0,0,0,0,0,-1,1238,505,0,0
21,519,0,0,0,0,0,0,0,0,0,-1,1245,505,0,0
28,519,0,0,0,0,0,0,0,0,0,-1,1252,505,0,0
35,519,0,0,0,0,0,0,0,0,0,-1,1259,505,0,0
42,519,0,0,0,0,0,0,0,0,0,-1,1266,505,0,0
49,519,0,0,0,0,0,0,0,0,0,-1,1273,505,0,0
56,519,0,0,0,0,0,0,0,0,0,-1,1280,505,0,0
63,519,0,0,0,0,0,0,0,0,0,-1,1287,505,0,0
70,519,0,0,0,0,0,0,0,0,0,-1,1294,505,0,0
77,519,0,0,0,0,0,0,0,0,0,-1,1301,505,0,0
84,519,0,0,0,0,0,0,0,0,0,-1,1308,505,0,0
91,519,0,0,0,0,0,0,0,0,0,-1,1315,505,0,0
98,519,0,0,0,0,0,0,0,0,0,-1,1322,505,0,0
105,519,0,0,0,0,0,0,0,0,0,-1,1329,505,0,0
112,519,0,0,0,0,0,0,0,0,0,-1,1336,505,0,0
119,519,0,0,0,0,0,0,0,0,0,-1,1343,505,0,0
126,519,0,0,0,0,0,0,0,0,0,-1,1350,505,0,0
133,519,0,0,0,0,0,0,0,0,0,-1,1357,505,0,0
140,519,0,0,0,0,0,0,0,0,0,-1,1364,505,0,0
147,519,0,0,0,0,0,0,0,0,0,-1,1371,505,0,0
154,519,0,0,0,0,0,0,0,0,0,-1,1378,505,0,0
161,519,0,0,0,0,0,0,0,0,0,-1,1385,505,0,0
168,519,0,0,0,0,0,0,0,0,0,-1,1392,505,0,0
175,519,0,0,0,0,0,0,0,0,0,-1,1399,505,0,0
182,519,0,0,0,0,0,0,0,0,0,-1,1406,505,0,0
189,519,0,0,0,0,0,0,0,0,0,-1,1413,505,0,0
196,519,0,0,0,0,0,0,0,0,0,-1,1420,505,0,0
203,519,0,0,0,0,0,0,0,0,0,-1,1427,505,0,0
210,519,0,0,0,0,0,0,0,0,0,-1,1434,505,0,0
217,519,0,0,0,0,0,0,0,0,0,-1,1441,505,0,0
224,519,0,0,0,0,0,0,0,0,0,-1,1448,505,0,0
231,519,0,0,0,0,0,0,0,0,0,-1,1455,505,0,0
238,519,0,0,0,0,0,0,0,0,0,-1,1462,505,0,0
245,519,0,0,0,0,0,0,0,0,0,-1,1469,505,0,0
252,519,5.26208,0.0938416,0,0,0,0,0,0,0,-1,1476,505,5.26207,-0.0938493
259,519,6.14246,-1.36441,0,0,0,0,0,0,0,-1,1483,505,6.14241,1.36441
266,519,5.31909,-0.400787,0,0,0,0,0,0,0,-1,1490,505,5.31912,0.400773
273,519,4.02393,0.325531,0,0,0,0,0,0,0,-1,1497,505,4.0239,-0.325522
280,519,4.68848,0.53006,0,0,0,0,0,0,0,-1,1504,505,4.68842,-0.530073
287,519,7.9519,-3.80801,0,0,0,0,0,0,0,-1,1511,505,7.95193,3.808
294,519,6.92273,-3.38889,0,0,0,0,0,0,0,-1,1518,505,6.92268,3.38888
301,519,5.35669,-2.92661,0,0,0,0,0,0,0,-1,1525,505,5.35675,2.9266
308,519,7.37549,-5.64529,0,0,0,0,0,0,0,-1,1532,505,7.3755,5.64529
315,519,6.30029,-4.53754,0,0,0,0,0,0,0,-1,1539,505,6.30024,4.53753
322,519,5.84302,-5.45117,0,0,0,0,0,0,0,-1,1546,505,5.84303,5.45116
329,519,4.92407,0.62384,0,0,0,0,0,0,0,-1,1553,505,4.92403,-0.623832
336,519,3.10095,-0.329285,0,0,0,0,0,0,0,-1,1560,505,3.1009,0.329283
343,519,2.49146,-2.31119,0,0,0,0,0,0,0,-1,1567,505,2.49145,2.31119
350,519,3.47729,-2.22516,0,0,0,0,0,0,0,-1,1574,505,3.47726,2.22515
357,519,13.271,-29.6344,0,0,0,0,0,0,0,-1,1581,505,13.271,29.6344
364,519,12.8292,-28.3627,0,0,0,0,0,0,0,-1,1588,505,12.8292,28.3627
371,519,12.3875,-27.0911,0,0,0,0,0,0,0,-1,1595,505,12.3874,27.091
378,519,6.36597,-10.0967,0,0,0,0,0,0,0,-1,1602,505,6.36597,10.0967
385,519,6.24756,-9.72186,0,0,0,0,0,0,0,-1,1609,505,6.24752,9.72183
392,519,13.0431,-27.463,0,0,0,0,0,0,0,-1,1616,505,13.0431,27.4629
399,519,13.2069,-26.5554,-0.00274094,-0.00411839,-0.0050256,0.00164291,-0.00850223,-0.717301,0.00628775,0.048939,1623,505,13.207,26.5554
406,519,13.0686,-26.1486,-0.00161585,-0.00256381,-0.00388131,0.00182031,-0.00599997,-0.724639,0.00472511,0.0327588,1630,505,13.0686,26.1486
413,519,13.1262,-25.5899,-0.000521426,-0.00113864,-0.00273799,0.00192529,-0.00358536,-0.729278,0.00322934,0.0159922,1637,505,13.1262,25.5899
420,519,13.0625,-24.9777,0.000366331,4.20848e-05,-0.00154111,0.00175382,-0.00134541,-0.732991,0.00179451,0.0153063,1644,505,13.0625,24.9777
427,519,13.0502,-24.42,0.000698129,0.000618441,-0.00090917,0.00156833,-0.000251758,-0.7635,0.00113879,0.0135587,1651,505,13.0502,24.42
434,519,13.0424,-23.8359,0.000886182,0.000929653,-0.000358341,0.00126692,0.000548919,-0.815689,0.000733623,0.0128539,1658,505,13.0423,23.836
441,519,13.0081,-23.2105,0.00112096,0.00114293,0.000196282,0.00132853,0.000935356,0.813344,0.000788033,0.012757,1665,505,13.0081,23.2105
448,519,12.9999,-22.6187,0.00137925,0.00123342,0.000737473,0.0020474,0.000565266,0.736126,0.00122094,0.00979224,1672,505,12.9999,22.6187
455,519,12.9734,-22.0418,0.00164671,0.00143334,0.0013259,0.00287021,0.000209842,0.745252,0.0018475,0.0109184,1679,505,12.9734,22.0418
462,519,12.9604,-21.4232,0.00183122,0.00151507,0.00185419,0.00353406,-0.00018777,0.742875,0.00242106,0.01064,1686,505,12.9605,21.4232
469,519,12.9662,-20.7968,0.00185887,0.00155479,0.00233313,0.00404491,-0.000631241,0.752862,0.00292977,0.0108074,1693,505,12.9661,20.7967
476,519,12.9316,-20.1682,0.00166242,0.00150912,0.00293526,0.00452203,-0.00135049,0.772344,0.00355149,0.0126536,1700,505,12.9317,20.1682
483,519,12.9114,-19.5496,0.00137041,0.00151626,0.00346427,0.00490837,-0.0020217,0.795922,0.00411515,0.0133,1707,505,12.9113,19.5496
490,519,12.8795,-18.8856,0.000865925,0.00141883,0.00402237,0.00517423,-0.00288948,0.819708,0.00471747,0.0115162,1714,505,12.8795,18.8856
497,519,12.8418,-18.3257,7.46076e-05,0.00123139,0.00456688,0.00525636,-0.00395036,0.848387,0.0053333,0.0177312,1721,505,12.8418,18.3257
504,519,12.7822,-17.6369,-0.00109253,0.00101651,0.00503098,0.0051023,-0.00517832,0.888705,0.00593557,0.0188159,1728,505,12.7822,17.6369
511,519,12.8175,-16.8798,-0.0024825,0.000694258,0.00549001,0.00482104,-0.00660929,0.926214,0.00662617,0.026468,1735,505,12.8175,16.8799
518,519,12.7559,-16.2542,-0.00427018,0.000285812,0.00590246,0.00433461,-0.00831898,0.969562,0.0074253,0.0431423,1742,505,12.7559,16.2541
525,519,12.6282,-15.7039,-0.00675154,-0.000263981,0.00624071,0.00352563,-0.0105412,1.02507,0.00845143,0.0445634,1749,505,12.6282,15.7039
532,519,12.4435,-14.8295,0,0,0,0,0,0,0,-1,1756,505,12.4435,14.8295
539,519,12.365,-13.963,0,0,0,0,0,0,0,-1,1763,505,12.365,13.963
546,519,4.62024,-2.89774,0,0,0,0,0,0,0,-1,1770,505,4.62023,2.89775
553,519,4.14136,0.0667419,0,0,0,0,0,0,0,-1,1777,505,4.14141,-0.0667503
560,519,3.77856,0.279724,0,0,0,0,0,0,0,-1,1784,505,3.77861,-0.279731
567,519,0,0,0,0,0,0,0,0,0,-1,1791,505,0,0
574,519,0,0,0,0,0,0,0,0,0,-1,1798,505,0,0
581,519,0,0,0,0,0,0,0,0,0,-1,1805,505,0,0
588,519,0,0,0,0,0,0,0,0,0,-1,1812,505,0,0
595,519,0,0,0,0,0,0,0,0,0,-1,1819,505,0,0
602,519,0,0,0,0,0,0,0,0,0,-1,1826,505,0,0
609,519,0,0,0,0,0,0,0,0,0,-1,1833,505,0,0
616,519,0,0,0,0,0,0,0,0,0,-1,1840,505,0,0
623,519,0,0,0,0,0,0,0,0,0,-1,1847,505,0,0
630,519,0,0,0,0,0,0,0,0,0,-1,1854,505,0,0
637,519,0,0,0,0,0,0,0,0,0,-1,1861,505,0,0
644,519,0,0,0,0,0,0,0,0,0,-1,1868,505,0,0
651,519,0,0,0,0,0,0,0,0,0,-1,1875,505,0,0
658,519,0,0,0,0,0,0,0,0,0,-1,1882,505,0,0
665,519,0,0,0,0,0,0,0,0,0,-1,1889,505,0,0
672,519,0,0,0,0,0,0,0,0,0,-1,1896,505,0,0
679,519,0,0,0,0,0,0,0,0,0,-1,1903,505,0,0
686,519,0,0,0,0,0,0,0,0,0,-1,1910,505,0,0
693,519,0,0,0,0,0,0,0,0,0,-1,1917,505,0,0
700,519,0,0,0,0,0,0,0,0,0,-1,1924,505,0,0
707,519,0,0,0,0,0,0,0,0,0,-1,1931,505,0,0
714,519,0,0,0,0,0,0,0,0,0,-1,1938,505,0,0
721,519,0,0,0,0,0,0,0,0,0,-1,1945,505,0,0
728,519,0,0,0,0,0,0,0,0,0,-1,1952,505,0,0
735,519,0,0,0,0,0,0,0,0,0,-1,1959,505,0,0
742,519,0,0,0,0,0,0,0,0,0,-1,1966,505,0,0
749,519,0,0,0,0,0,0,0,0,0,-1,1973,505,0,0
756,519,0,0,0,0,0,0,0,0,0,-1,1980,505,0,0
763,519,0,0,0,0,0,0,0,0,0,-1,1987,505,0,0
770,519,0,0,0,0,0,0,0,0,0,-1,1994,505,0,0
777,519,0,0,0,0,0,0,0,0,0,-1,2001,505,0,0
784,519,0,0,0,0,0,0,0,0,0,-1,2008,505,0,0
791,519,0,0,0,0,0,0,0,0,0,-1,2015,505,0,0
798,519,0,0,0,0,0,0,0,0,0,-1,2022,505,0,0
805,519,0,0,0,0,0,0,0,0,0,-1,2029,505,0,0
812,519,0,0,0,0,0,0,0,0,0,-1,2036,505,0,0
-700,512,0,0,0,0,0,0,0,0,0,-1,524,512,0,0
-693,512,0,0,0,0,0,0,0,0,0,-1,531,512,0,0
-686,512,0,0,0,0,0,0,0,0,0,-1,538,512,0,0
-679,512,0,0,0,0,0,0,0,0,0,-1,545,512,0,0
-672,512,0,0,0,0,0,0,0,0,0,-1,552,512,0,0
-665,512,0,0,0,0,0,0,0,0,0,-1,559,512,0,0
-658,512,0,0,0,0,0,0,0,0,0,-1,566,512,0,0
-651,512,0,0,0,0,0,0,0,0,0,-1,573,512,0,0
-644,512,0,0,0,0,0,0,0,0,0,-1,580,512,0,0
-637,512,0,0,0,0,0,0,0,0,0,-1,587,512,0,0
-630,512,0,0,0,0,0,0,0,0,0,-1,594,512,0,0
-623,512,0,0,0,0,0,0,0,0,0,-1,601,512,0,0
-616,512,0,0,0,0,0,0,0,0,0,-1,608,512,0,0
-609,512,0,0,0,0,0,0,0,0,0,-1,615,512,0,0
-602,512,0,0,0,0,0,0,0,0,0,-1,622,512,0,0
-595,512,0,0,0,0,0,0,0,0,0,-1,629,512,0,0
-588,512,0,0,0,0,0,0,0,0,0,-1,636,512,0,0
-581,512,0,0,0,0,0,0,0,0,0,-1,643,512,0,0
-574,512,0,0,0,0,0,0,0,0,0,-1,650,512,0,0
-567,512,0,0,0,0,0,0,0,0,0,-1,657,512,0,0
-560,512,0,0,0,0,0,0,0,0,0,-1,664,512,0,0
-553,512,0,0,0,0,0,0,0,0,0,-1,671,512,0,0
-546,512,0,0,0,0,0,0,0,0,0,-1,678,512,0,0
-539,512,0,0,0,0,0,0,0,0,0,-1,685,512,0,0
-532,512,0,0,0,0,0,0,0,0,0,-1,692,512,0,0
-525,512,0,0,0,0,0,0,0,0,0,-1,699,512,0,0
-518,512,0,0,0,0,0,0,0,0,0,-1,706,512,0,0
-511,512,0,0,0,0,0,0,0,0,0,-1,713,512,0,0
-504,512,0,0,0,0,0,0,0,0,0,-1,720,512,0,0
-497,512,0,0,0,0,0,0,0,0,0,-1,727,512,0,0
-490,512,0,0,0,0,0,0,0,0,0,-1,734,512,0,0
-483,512,0,0,0,0,0,0,0,0,0,-1,741,512,0,0
-476,512,0,0,0,0,0,0,0,0,0,-1,748,512,0,0
-469,512,0,0,0,0,0,0,0,0,0,-1,755,512,0,0
-462,512,0,0,0,0,0,0,0,0,0,-1,762,512,0,0
-455,512,0,0,0,0,0,0,0,0,0,-1,769,512,0,0
-448,512,1.96283,-4.15674,0,0,0,0,0,0,0,-1,776,512,1.96285,4.15677
-441,512,1.78198,-4.88824,0,0,0,0,0,0,0,-1,783,512,1.78201,4.88826
-434,512,0.0726929,-9.85822,0,0,0,0,0,0,0,-1,790,512,0.0727008,9.85819
-427,512,-0.384583,-9.94824,0,0,0,0,0,0,0,-1,797,512,-0.384552,9.94823
-420,512,-2.93219,-12.4855,0,0,0,0,0,0,0,-1,804,512,-2.93219,12.4855
-413,512,-2.22711,-11.4485,0,0,0,0,0,0,0,-1,811,512,-2.22712,11.4485
-406,512,-2.38037,-13.5743,0,0,0,0,0,0,0,-1,818,512,-2.38034,13.5743
-399,512,-2.01007,-16.7854,0,0,0,0,0,0,0,-1,825,512,-2.01005,16.7854
-392,512,-1.91553,-17.4761,0.0030809,0.0241437,-0.0137824,0.0309578,-0.00373318,-1.11164,0.0219888,0.0421427,832,512,-1.91554,17.4761
-385,512,-1.97113,-18.1226,0.00236515,0.0200838,-0.0114494,0.0257012,-0.00325226,-1.11467,0.0183147,0.0203491,839,512,-1.9711,18.1226
-378,512,-2.02185,-18.7465,0.00183699,0.0165112,-0.00952027,0.0211936,-0.00284543,-1.1137,0.0151668,0.0153386,846,512,-2.02187,18.7465
-371,512,-2.02924,-19.4241,0.0014808,0.01342,-0.00789244,0.0173462,-0.00244539,-1.10918,0.0124595,0.0123879,853,512,-2.02923,19.4241
-364,512,-2.04395,-20.1124,0.00122048,0.0106636,-0.00633383,0.0138421,-0.00195799,-1.10569,0.0099452,0.0098625,860,512,-2.04392,20.1124
-357,512,-2.06384,-20.7278,0.00104709,0.00832484,-0.00497193,0.0108472,-0.00147533,-1.1013,0.0077701,0.0108255,867,512,-2.06386,20.7278
-350,512,-2.09943,-21.3273,0.000869944,0.00597304,-0.00363855,0.00786552,-0.00102254,-1.09118,0.00561565,0.011287,874,512,-2.09941,21.3273
-343,512,-2.15247,-21.8997,0.000855485,0.0041668,-0.00262143,0.00561164,-0.000589358,-1.06706,0.00395222,0.0135089,881,512,-2.15244,21.8997
-336,512,-2.18994,-22.4968,0.000960592,0.00266782,-0.00177055,0.00377979,-0.000151377,-1.01002,0.0025718,0.0148851,888,512,-2.18994,22.4968
-329,512,-2.1604,-23.0802,0.00117787,0.00135175,-0.00108265,0.00235095,0.000178673,-0.825464,0.00151127,0.0161793,895,512,-2.16042,23.0802
-322,512,-2.17657,-23.6655,0.001441,0.000222553,-0.000462531,0.00159669,6.68671e-05,-0.324685,0.00104289,0.0134157,902,512,-2.1766,23.6655
-315,512,-2.2074,-24.2757,0.00182865,-0.000606866,4.11425e-05,0.00182934,-0.000607561,0.0168863,0.00146471,0.0111381,909,512,-2.20741,24.2757
-308,512,-2.23895,-24.8649,0.00239467,-0.00122351,0.000379047,0.00243395,-0.0012628,0.103268,0.00216973,0.0109876,916,512,-2.23898,24.8649
-301,512,-2.26172,-25.4045,0.00297509,-0.00154038,0.00060893,0.00305577,-0.00162105,0.13172,0.00274219,0.0152952,923,512,-2.26174,25.4045
-294,512,-2.26318,-25.9277,0.00359483,-0.00174325,0.000885319,0.00373783,-0.00188625,0.16014,0.0033052,0.0152185,930,512,-2.26319,25.9277
-287,512,-2.35522,-26.434,0.00440791,-0.00214276,0.00117275,0.00461153,-0.00234638,0.171916,0.0040875,0.0262285,937,512,-2.35524,26.434
-280,512,-2.24152,-27.0255,0.00537438,-0.00325132,0.00157845,0.00565416,-0.00353109,0.175423,0.00535012,0.0484961,944,512,-2.2415,27.0255
-273,512,-2.11493,-27.6714,0,0,0,0,0,0,0,-1,951,512,-2.11495,27.6714
-266,512,-2.33594,-25.9839,0,0,0,0,0,0,0,-1,958,512,-2.33592,25.9839
-259,512,-0.525452,-14.0815,0,0,0,0,0,0,0,-1,965,512,-0.525475,14.0815
-252,512,1.45941,-3.43475,0,0,0,0,0,0,0,-1,972,512,1.45938,3.43475
-245,512,-1.6731,-22.8959,0,0,0,0,0,0,0,-1,979,512,-1.67312,22.8959
-238,512,0.227051,-8.92969,0,0,0,0,0,0,0,-1,986,512,0.227073,8.92968
-231,512,-2.54437,-10.169,0,0,0,0,0,0,0,-1,993,512,-2.54439,10.169
-224,512,-4.84601,-7.52783,0,0,0,0,0,0,0,-1,1000,512,-4.84602,7.52786
-217,512,-7.37274,-3.89563,0,0,0,0,0,0,0,-1,1007,512,-7.37274,3.89561
-210,512,-3.76642,-1.94702,0,0,0,0,0,0,0,-1,1014,512,-3.76641,1.94702
-203,512,-2.48328,-5.19061,0,0,0,0,0,0,0,-1,1021,512,-2.48328,5.19059
-196,512,-1.14929,-4.63202,0,0,0,0,0,0,0,-1,1028,512,-1.14934,4.632
-189,512,0.197998,4.55505,0,0,0,0,0,0,0,-1,1035,512,0.197996,-4.55506
-182,512,2.73938,0.0778503,0,0,0,0,0,0,0,-1,1042,512,2.73944,-0.077852
-175,512,2.29565,0.209808,0,0,0,0,0,0,0,-1,1049,512,2.29565,-0.209813
-168,512,2.09399,-0.302856,0,0,0,0,0,0,0,-1,1056,512,2.09403,0.302826
-161,512,2.76636,0.0921021,0,0,0,0,0,0,0,-1,1063,512,2.76633,-0.0921104
-154,512,3.41382,0.466187,0,0,0,0,0,0,0,-1,1070,512,3.41382,-0.466178
-147,512,0,0,0,0,0,0,0,0,0,-1,1077,512,0,0
-140,512,0,0,0,0,0,0,0,0,0,-1,1084,512,0,0
-133,512,0,0,0,0,0,0,0,0,0,-1,1091,512,0,0
-126,512,0,0,0,0,0,0,0,0,0,-1,1098,512,0,0
-119,512,0,0,0,0,0,0,0,0,0,-1,1105,512,0,0
-112,512,0,0,0,0,0,0,0,0,0,-1,1112,512,0,0
-105,512,0,0,0,0,0,0,0,0,0,-1,1119,512,0,0
-98,512,0,0,0,0,0,0,0,0,0,-1,1126,512,0,0
-91,512,0,0,0,0,0,0,0,0,0,-1,1133,512,0,0
-84,512,0,0,0,0,0,0,0,0,0,-1,1140,512,0,0
-77,512,0,0,0,0,0,0,0,0,0,-1,1147,512,0,0
-70,512,0,0,0,0,0,0,0,0,0,-1,1154,512,0,0
-63,512,0,0,0,0,0,0,0,0,0,-1,1161,512,0,0
-56,512,0,0,0,0,0,0,0,0,0,-1,1168,512,0,0
-49,512,0,0,0,0,0,0,0,0,0,-1,1175,512,0,0
-42,512,0,0,0,0,0,0,0,0,0,-1,1182,512,0,0
-35,512,0,0,0,0,0,0,0,0,0,-1,1189,512,0,0
-28,512,0,0,0,0,0,0,0,0,0,-1,1196,512,0,0
-21,512,0,0,0,0,0,0,0,0,0,-1,1203,512,0,0
-14,512,0,0,0,0,0,0,0,0,0,-1,1210,512,0,0
-7,512,0,0,0,0,0,0,0,0,0,-1,1217,512,0,0
0,512,0,0,0,0,0,0,0,0,0,-1,1224,512,0,0
7,512,0,0,0,0,0,0,0,0,0,-1,1231,512,0,0
14,512,0,0,0,0,0,0,0,0,0,-1,1238,512,0,0
21,512,0,0,0,0,0,0,0,0,0,-1,1245,512,0,0
28,512,0,0,0,0,0,0,0,0,0,-1,1252,512,0,0
35,512,0,0,0,0,0,0,0,0,0,-1,1259,512,0,0
42,512,0,0,0,0,0,0,0,0,0,-1,1266,512,0,0
49,512,0,0,0,0,0,0,0,0,0,-1,1273,512,0,0
56,512,0,0,0,0,0,0,0,0,0,-1,1280,512,0,0
63,512,0,0,0,0,0,0,0,0,0,-1,1287,512,0,0
70,512,0,0,0,0,0,0,0,0,0,-1,1294,512,0,0
77,512,0,0,0,0,0,0,0,0,0,-1,1301,512,0,0
84,512,0,0,0,0,0,0,0,0,0,-1,1308,512,0,0
91,512,0,0,0,0,0,0,0,0,0,-1,1315,512,0,0
98,512,0,0,0,0,0,0,0,0,0,-1,1322,512,0,0
105,512,0,0,0,0,0,0,0,0,0,-1,1329,512,0,0
112,512,0,0,0,0,0,0,0,0,0,-1,1336,512,0,0
119,512,0,0,0,0,0,0,0,0,0,-1,1343,512,0,0
126,512,0,0,0,0,0,0,0,0,0,-1,1350,512,0,0
133,512,0,0,0,0,0,0,0,0,0,-1,1357,512,0,0
140,512,0,0,0,0,0,0,0,0,0,-1,1364,512,0,0
147,512,0,0,0,0,0,0,0,0,0,-1,1371,512,0,0
154,512,0,0,0,0,0,0,0,0,0,-1,1378,512,0,0
161,512,0,0,0,0,0,0,0,0,0,-1,1385,512,0,0
168,512,0,0,0,0,0,0,0,0,0,-1,1392,512,0,0
175,512,0,0,0,0,0,0,0,0,0,-1,1399,512,0,0
182,512,0,0,0,0,0,0,0,0,0,-1,1406,512,0,0
189,512,0,0,0,0,0,0,0,0,0,-1,1413,512,0,0
196,512,0,0,0,0,0,0,0,0,0,-1,1420,512,0,0
203,512,0,0,0,0,0,0,0,0,0,-1,1427,512,0,0
210,512,0,0,0,0,0,0,0,0,0,-1,1434,512,0,0
217,512,0,0,0,0,0,0,0,0,0,-1,1441,512,0,0
224,512,0,0,0,0,0,0,0,0,0,-1,1448,512,0,0
231,512,0,0,0,0,0,0,0,0,0,-1,1455,512,0,0
238,512,0,0,0,0,0,0,0,0,0,-1,1462,512,0,0
245,512,0,0,0,0,0,0,0,0,0,-1,1469,512,0,0
252,512,0,0,0,0,0,0,0,0,0,-1,1476,512,0,0
259,512,0,0,0,0,0,0,0,0,0,-1,1483,512,0,0
266,512,0,0,0,0,0,0,0,0,0,-1,1490,512,0,0
273,512,4.00745,0.618622,0,0,0,0,0,0,0,-1,1497,512,4.00747,-0.618611
280,512,4.49609,0.649841,0,0,0,0,0,0,0,-1,1504,512,4.49612,-0.649834
287,512,4.77234,0.458069,0,0,0,0,0,0,0,-1,1511,512,4.77233,-0.458083
294,512,8.54956,-2.36273,0,0,0,0,0,0,0,-1,1518,512,8.54952,2.36274
301,512,6.302,-1.69092,0,0,0,0,0,0,0,-1,1525,512,6.30196,1.69093
308,512,8.2439,-6.22754,0,0,0,0,0,0,0,-1,1532,512,8.24394,6.22757
315,512,7.53687,-6.04211,0,0,0,0,0,0,0,-1,1539,512,7.53691,6.04211
322,512,6.82983,-5.85663,0,0,0,0,0,0,0,-1,1546,512,6.82988,5.85666
329,512,4.38147,-0.329651,0,0,0,0,0,0,0,-1,1553,512,4.38144,0.329662
336,512,4.41467,-0.741455,0,0,0,0,0,0,0,-1,1560,512,4.41467,0.741442
343,512,4.44727,-1.21667,0,0,0,0,0,0,0,-1,1567,512,4.44732,1.21666
350,512,4.55469,-1.65082,0,0,0,0,0,0,0,-1,1574,512,4.5547,1.65083
357,512,5.79993,-2.67456,0,0,0,0,0,0,0,-1,1581,512,5.79991,2.67454
364,512,13.118,-28.5485,0,0,0,0,0,0,0,-1,1588,512,13.1181,28.5485
371,512,5.28467,-7.69269,0,0,0,0,0,0,0,-1,1595,512,5.28464,7.69269
378,512,6.29407,-9.88055,0,0,0,0,0,0,0,-1,1602,512,6.29412,9.88057
385,512,6.45569,-9.32233,0,0,0,0,0,0,0,-1,1609,512,6.45565,9.3223
392,512,6.35522,-8.98425,0,0,0,0,0,0,0,-1,1616,512,6.35526,8.98422
399,512,13.9285,-26.1993,0,0,0,0,0,0,0,-1,1623,512,13.9285,26.1993
406,512,13.7097,-26.2316,0,0,0,0,0,0,0,-1,1630,512,13.7097,26.2315
413,512,13.7728,-25.6288,0,0,0,0,0,0,0,-1,1637,512,13.7729,25.6289
420,512,13.7025,-25.0118,0.000947404,-0.000260349,-0.002218,0.00264227,-0.00195521,-0.652489,0.00266422,0.0267466,1644,512,13.7025,25.0119
427,512,13.6764,-24.4037,0.00120062,0.000322847,-0.00161613,0.0024364,-0.000912932,-0.652813,0.0019993,0.0145957,1651,512,13.6764,24.4037
434,512,13.6411,-23.8293,0.0011833,0.000603026,-0.00109715,0.00202803,-0.0002417,-0.656134,0.00143936,0.0122788,1658,512,13.6412,23.8294
441,512,13.5992,-23.2107,0.00120249,0.000840347,-0.000559086,0.0016091,0.000433742,-0.628792,0.00096134,0.0150239,1665,512,13.5992,23.2107
448,512,13.5854,-22.614,0.00129637,0.000940429,-2.85214e-05,0.00129864,0.000938158,-0.0794548,0.0007741,0.0100514,1672,512,13.5854,22.6139
455,512,13.5702,-22.007,0.00139737,0.00117132,0.000542909,0.0018389,0.0007298,0.682772,0.00106919,0.00913579,1679,512,13.5702,22.007
462,512,13.5592,-21.3837,0.00142874,0.00125638,0.00103427,0.00238041,0.000304702,0.743833,0.00149576,0.00985169,1686,512,13.5592,21.3837
469,512,13.5497,-20.7657,0.00136343,0.00131785,0.00152924,0.00287005,-0.000188765,0.777947,0.00197929,0.0117948,1693,512,13.5497,20.7658
476,512,13.511,-20.1496,0.00112335,0.00132283,0.00211805,0.00334348,-0.00089731,0.808926,0.00258063,0.0146207,1700,512,13.511,20.1496
483,512,13.5073,-19.5108,0.000796718,0.00135931,0.00262676,0.0037198,-0.00156376,0.838739,0.00313398,0.013056,1707,512,13.5073,19.5108
490,512,13.499,-18.8793,0.000273216,0.0013253,0.00312013,0.00396343,-0.00236491,0.868911,0.00369232,0.0100009,1714,512,13.499,18.8793
497,512,13.4637,-18.2463,-0.000444521,0.00127977,0.00362619,0.00414489,-0.00330965,0.902109,0.00431288,0.0107013,1721,512,13.4637,18.2463
504,512,13.4048,-17.5822,-0.00142819,0.00116372,0.00408313,0.00415163,-0.0044161,0.939066,0.00494737,0.0137658,1728,512,13.4048,17.5822
511,512,13.3679,-16.891,-0.00270572,0.000995479,0.00446066,0.00397418,-0.00568443,0.982029,0.00560546,0.0163472,1735,512,13.3679,16.891
518,512,13.4109,-16.249,-0.00435159,0.000804491,0.00473854,0.0036209,-0.00716799,1.03453,0.00634019,0.0199885,1742,512,13.4108,16.249
525,512,13.2089,-15.5084,-0.00644447,0.000529133,0.00488248,0.00304203,-0.00895736,1.09548,0.00720299,0.0390318,1749,512,13.2089,15.5084
532,512,13.1625,-14.546,0,0,0,0,0,0,0,-1,1756,512,13.1624,14.546
539,512,7.05908,-7.00647,0,0,0,0,0,0,0,-1,1763,512,7.05909,7.00647
546,512,2.77551,-0.66449,0,0,0,0,0,0,0,-1,1770,512,2.77548,0.664503
553,512,3.927,-0.448853,0,0,0,0,0,0,0,-1,1777,512,3.92704,0.448843
560,512,3.55762,-0.201233,0,0,0,0,0,0,0,-1,1784,512,3.55768,0.201259
567,512,3.09045,0.191193,0,0,0,0,0,0,0,-1,1791,512,3.09045,-0.191203
574,512,0,0,0,0,0,0,0,0,0,-1,1798,512,0,0
581,512,0,0,0,0,0,0,0,0,0,-1,1805,512,0,0
588,512,0,0,0,0,0,0,0,0,0,-1,1812,512,0,0
595,512,0,0,0,0,0,0,0,0,0,-1,1819,512,0,0
602,512,0,0,0,0,0,0,0,0,0,-1,1826,512,0,0
609,512,0,0,0,0,0,0,0,0,0,-1,1833,512,0,0
616,512,0,0,0,0,0,0,0,0,0,-1,1840,512,0,0
623,512,0,0,0,0,0,0,0,0,0,-1,1847,512,0,0
630,512,0,0,0,0,0,0,0,0,0,-1,1854,512,0,0
637,512,0,0,0,0,0,0,0,0,0,-1,1861,512,0,0
644,512,0,0,0,0,0,0,0,0,0,-1,1868,512,0,0
651,512,0,0,0,0,0,0,0,0,0,-1,1875,512,0,0
658,512,0,0,0,0,0,0,0,0,0,-1,1882,512,0,0
665,512,0,0,0,0,0,0,0,0,0,-1,1889,512,0,0
672,512,0,0,0,0,0,0,0,0,0,-1,1896,512,0,0
679,512,0,0,0,0,0,0,0,0,0,-1,1903,512,0,0
686,512,0,0,0,0,0,0,0,0,0,-1,1910,512,0,0
693,512,0,0,0,0,0,0,0,0,0,-1,1917,512,0,0
700,512,0,0,0,0,0,0,0,0,0,-1,1924,512,0,0
707,512,0,0,0,0,0,0,0,0,0,-1,1931,512,0,0
714,512,0,0,0,0,0,0,0,0,0,-1,1938,512,0,0
721,512,0,0,0,0,0,0,0,0,0,-1,1945,512,0,0
728,512,0,0,0,0,0,0,0,0,0,-1,1952,512,0,0
735,512,0,0,0,0,0,0,0,0,0,-1,1959,512,0,0
742,512,0,0,0,0,0,0,0,0,0,-1,1966,512,0,0
749,512,0,0,0,0,0,0,0,0,0,-1,1973,512,0,0
756,512,0,0,0,0,0,0,0,0,0,-1,1980,512,0,0
763,512,0,0,0,0,0,0,0,0,0,-1,1987,512,0,0
770,512,0,0,0,0,0,0,0,0,0,-1,1994,512,0,0
777,512,0,0,0,0,0,0,0,0,0,-1,2001,512,0,0
784,512,0,0,0,0,0,0,0,0,0,-1,2008,512,0,0
791,512,0,0,0,0,0,0,0,0,0,-1,2015,512,0,0
798,512,0,0,0,0,0,0,0,0,0,-1,2022,512,0,0
805,512,0,0,0,0,0,0,0,0,0,-1,2029,512,0,0
812,512,0,0,0,0,0,0,0,0,0,-1,2036,512,0,0
-700,505,0,0,0,0,0,0,0,0,0,-1,524,519,0,0
-693,505,0,0,0,0,0,0,0,0,0,-1,531,519,0,0
-686,505,0,0,0,0,0,0,0,0,0,-1,538,519,0,0
-679,505,0,0,0,0,0,0,0,0,0,-1,545,519,0,0
-672,505,0,0,0,0,0,0,0,0,0,-1,552,519,0,0
-665,505,0,0,0,0,0,0,0,0,0,-1,559,519,0,0
-658,505,0,0,0,0,0,0,0,0,0,-1,566,519,0,0
-651,505,0,0,0,0,0,0,0,0,0,-1,573,519,0,0
-644,505,0,0,0,0,0,0,0,0,0,-1,580,519,0,0
-637,505,0,0,0,0,0,0,0,0,0,-1,587,519,0,0
-630,505,0,0,0,0,0,0,0,0,0,-1,594,519,0,0
-623,505,0,0,0,0,0,0,0,0,0,-1,601,519,0,0
-616,505,0,0,0,0,0,0,0,0,0,-1,608,519,0,0
-609,505,0,0,0,0,0,0,0,0,0,-1,615,519,0,0
-602,505,0,0,0,0,0,0,0,0,0,-1,622,519,0,0
-595,505,0,0,0,0,0,0,0,0,0,-1,629,519,0,0
-588,505,0,0,0,0,0,0,0,0,0,-1,636,519,0,0
-581,505,0,0,0,0,0,0,0,0,0,-1,643,519,0,0
-574,505,0,0,0,0,0,0,0,0,0,-1,650,519,0,0
-567,505,0,0,0,0,0,0,0,0,0,-1,657,519,0,0
-560,505,0,0,0,0,0,0,0,0,0,-1,664,519,0,0
-553,505,0,0,0,0,0,0,0,0,0,-1,671,519,0,0
-546,505,0,0,0,0,0,0,0,0,0,-1,678,519,0,0
-539,505,0,0,0,0,0,0,0,0,0,-1,685,519,0,0
-532,505,0,0,0,0,0,0,0,0,0,-1,692,519,0,0
-525,505,0,0,0,0,0,0,0,0,0,-1,699,519,0,0
-518,505,0,0,0,0,0,0,0,0,0,-1,706,519,0,0
-511,505,0,0,0,0,0,0,0,0,0,-1,713,519,0,0
-504,505,0,0,0,0,0,0,0,0,0,-1,720,519,0,0
-497,505,0,0,0,0,0,0,0,0,0,-1,727,519,0,0
-490,505,0,0,0,0,0,0,0,0,0,-1,734,519,0,0
-483,505,0,0,0,0,0,0,0,0,0,-1,741,519,0,0
-476,505,0,0,0,0,0,0,0,0,0,-1,748,519,0,0
-469,505,0,0,0,0,0,0,0,0,0,-1,755,519,0,0
-462,505,0,0,0,0,0,0,0,0,0,-1,762,519,0,0
-455,505,2.72137,-3.26379,0,0,0,0,0,0,0,-1,769,519,2.72135,3.26377
-448,505,2.51111,-3.94989,0,0,0,0,0,0,0,-1,776,519,2.51112,3.94986
-441,505,2.80212,-6.8902,0,0,0,0,0,0,0,-1,783,519,2.80209,6.89019
-434,505,-0.155212,-10.6374,0,0,0,0,0,0,0,-1,790,519,-0.155194,10.6374
-427,505,-0.474426,-10.4702,0,0,0,0,0,0,0,-1,797,519,-0.474433,10.4702
-420,505,-0.922546,-10.1928,0,0,0,0,0,0,0,-1,804,519,-0.92257,10.1928
-413,505,-3.33948,-13.6183,0,0,0,0,0,0,0,-1,811,519,-3.33949,13.6184
-406,505,-2.83563,-15.1596,0,0,0,0,0,0,0,-1,818,519,-2.83563,15.1596
-399,505,-2.56848,-16.6402,0,0,0,0,0,0,0,-1,825,519,-2.56848,16.6402
-392,505,-2.54718,-17.4361,0.00242121,0.0194598,-0.0111064,0.024938,-0.003057,-1.11256,0.0177324,0.0247132,832,519,-2.54717,17.4361
-385,505,-2.56824,-18.1813,0.001993,0.015961,-0.00919494,0.0205236,-0.00256956,-1.11019,0.0146144,0.0104857,839,519,-2.56822,18.1814
-378,505,-2.61688,-18.8234,0.00167856,0.0129488,-0.00758437,0.0167623,-0.00213499,-1.1049,0.0119503,0.0112405,846,519,-2.61691,18.8234
-371,505,-2.62622,-19.4805,0.00145108,0.0103064,-0.00621699,0.0135112,-0.00175377,-1.09483,0.00964538,0.013928,853,519,-2.6262,19.4806
-364,505,-2.63556,-20.1158,0.00129292,0.00786855,-0.00488563,0.0104696,-0.00130816,-1.08157,0.00745417,0.0148735,860,519,-2.63555,20.1158
-357,505,-2.66382,-20.7326,0.00123139,0.00584351,-0.00370269,0.00789954,-0.000824641,-1.06391,0.00556165,0.0123002,867,519,-2.6638,20.7326
-350,505,-2.70898,-21.316,0.00118168,0.00382413,-0.00256972,0.00539238,-0.000386575,-1.02285,0.00373046,0.0116001,874,519,-2.70898,21.316
-343,505,-2.74182,-21.8874,0.00124732,0.00226427,-0.00169972,0.00352994,-1.83543e-05,-0.930738,0.00235944,0.0100558,881,519,-2.74183,21.8874
-336,505,-2.7605,-22.4829,0.00141988,0.000937824,-0.000955758,0.00216454,0.000193172,-0.66188,0.00138314,0.0129631,888,519,-2.76048,22.4829
-329,505,-2.75073,-23.0617,0.00172592,-0.000216177,-0.000374805,0.00179574,-0.000286,-0.184181,0.001303,0.0183309,895,519,-2.75074,23.0617
-322,505,-2.77032,-23.6662,0.00209468,-0.00113897,0.000118414,0.00209901,-0.0011433,0.0365541,0.00189886,0.0216647,902,519,-2.77033,23.6662
-315,505,-2.8006,-24.2598,0.00259921,-0.00182838,0.00049009,0.00265281,-0.00188198,0.108933,0.00263074,0.0158332,909,519,-2.8006,24.2598
-308,505,-2.82935,-24.8154,0.00331802,-0.00234285,0.000696142,0.00340237,-0.0024272,0.120581,0.00338136,0.0119264,916,519,-2.82932,24.8154
-301,505,-2.83289,-25.3919,0.0040438,-0.00243864,0.000820032,0.00414592,-0.00254076,0.123901,0.00389746,0.0176775,923,519,-2.83291,25.3919
-294,505,-2.83423,-25.9055,0,0,0,0,0,0,0,-1,930,519,-2.83424,25.9055
-287,505,-2.90125,-26.4967,0,0,0,0,0,0,0,-1,937,519,-2.90123,26.4967
-280,505,-2.71973,-27.2409,0,0,0,0,0,0,0,-1,944,519,-2.71975,27.2409
-273,505,-0.0680542,-9.44867,0,0,0,0,0,0,0,-1,951,519,-0.0680462,9.44866
-266,505,-0.036377,-9.07922,0,0,0,0,0,0,0,-1,958,519,-0.0364055,9.0792
-259,505,0.10321,-6.69824,0,0,0,0,0,0,0,-1,965,519,0.103235,6.69826
-252,505,6.82312,-15.6972,0,0,0,0,0,0,0,-1,972,519,6.82314,15.6972
-245,505,4.26727,-12.9861,0,0,0,0,0,0,0,-1,979,519,4.2673,12.9861
-238,505,1.67432,-11.2307,0,0,0,0,0,0,0,-1,986,519,1.67429,11.2307
-231,505,-0.958435,-8.3075,0,0,0,0,0,0,0,-1,993,519,-0.958421,8.30751
-224,505,-3.69653,-5.12732,0,0,0,0,0,0,0,-1,1000,519,-3.69653,5.12733
-217,505,-6.34302,-1.65533,0,0,0,0,0,0,0,-1,1007,519,-6.34299,1.65535
-210,505,-3.06128,-0.396301,0,0,0,0,0,0,0,-1,1014,519,-3.06129,0.396294
-203,505,-4.26465,2.03607,0,0,0,0,0,0,0,-1,1021,519,-4.26462,-2.03606
-196,505,-5.47595,4.27295,0,0,0,0,0,0,0,-1,1028,519,-5.47597,-4.27292
-189,505,1.51526,5.56207,0,0,0,0,0,0,0,-1,1035,519,1.51523,-5.56209
-182,505,2.97815,7.5097,0,0,0,0,0,0,0,-1,1042,519,2.97812,-7.5097
-175,505,-2.38416,-2.17548,0,0,0,0,0,0,0,-1,1049,519,-2.38411,2.1755
-168,505,0,0,0,0,0,0,0,0,0,-1,1056,519,0,0
-161,505,0,0,0,0,0,0,0,0,0,-1,1063,519,0,0
-154,505,0,0,0,0,0,0,0,0,0,-1,1070,519,0,0
-147,505,0,0,0,0,0,0,0,0,0,-1,1077,519,0,0
-140,505,0,0,0,0,0,0,0,0,0,-1,1084,519,0,0
-133,505,0,0,0,0,0,0,0,0,0,-1,1091,519,0,0
-126,505,0,0,0,0,0,0,0,0,0,-1,1098,519,0,0
-119,505,0,0,0,0,0,0,0,0,0,-1,1105,519,0,0
-112,505,0,0,0,0,0,0,0,0,0,-1,1112,519,0,0
-105,505,0,0,0,0,0,0,0,0,0,-1,1119,519,0,0
-98,505,0,0,0,0,0,0,0,0,0,-1,1126,519,0,0
-91,505,0,0,0,0,0,0,0,0,0,-1,1133,519,0,0
-84,505,0,0,0,0,0,0,0,0,0,-1,1140,519,0,0
-77,505,0,0,0,0,0,0,0,0,0,-1,1147,519,0,0
-70,505,0,0,0,0,0,0,0,0,0,-1,1154,519,0,0
-63,505,0,0,0,0,0,0,0,0,0,-1,1161,519,0,0
-56,505,0,0,0,0,0,0,0,0,0,-1,1168,519,0,0
-49,505,0,0,0,0,0,0,0,0,0,-1,1175,519,0,0
-42,505,0,0,0,0,0,0,0,0,0,-1,1182,519,0,0
-35,505,0,0,0,0,0,0,0,0,0,-1,1189,519,0,0
-28,505,0,0,0,0,0,0,0,0,0,-1,1196,519,0,0
-21,505,0,0,0,0,0,0,0,0,0,-1,1203,519,0,0
-14,505,0,0,0,0,0,0,0,0,0,-1,1210,519,0,0
-7,505,0,0,0,0,0,0,0,0,0,-1,1217,519,0,0
0,505,0,0,0,0,0,0,0,0,0,-1,1224,519,0,0
7,505,0,0,0,0,0,0,0,0,0,-1,1231,519,0,0
14,505,0,0,0,0,0,0,0,0,0,-1,1238,519,0,0
21,505,0,0,0,0,0,0,0,0,0,-1,1245,519,0,0
28,505,0,0,0,0,0,0,0,0,0,-1,1252,519,0,0
35,505,0,0,0,0,0,0,0,0,0,-1,1259,519,0,0
42,505,0,0,0,0,0,0,0,0,0,-1,1266,519,0,0
49,505,0,0,0,0,0,0,0,0,0,-1,1273,519,0,0
56,505,0,0,0,0,0,0,0,0,0,-1,1280,519,0,0
63,505,0,0,0,0,0,0,0,0,0,-1,1287,519,0,0
70,505,0,0,0,0,0,0,0,0,0,-1,1294,519,0,0
77,505,0,0,0,0,0,0,0,0,0,-1,1301,519,0,0
84,505,0,0,0,0,0,0,0,0,0,-1,1308,519,0,0
91,505,0,0,0,0,0,0,0,0,0,-1,1315,519,0,0
98,505,0,0,0,0,0,0,0,0,0,-1,1322,519,0,0
105,505,0,0,0,0,0,0,0,0,0,-1,1329,519,0,0
112,505,0,0,0,0,0,0,0,0,0,-1,1336,519,0,0
119,505,0,0,0,0,0,0,0,0,0,-1,1343,519,0,0
126,505,0,0,0,0,0,0,0,0,0,-1,1350,519,0,0
133,505,0,0,0,0,0,0,0,0,0,-1,1357,519,0,0
140,505,0,0,0,0,0,0,0,0,0,-1,1364,519,0,0
147,505,0,0,0,0,0,0,0,0,0,-1,1371,519,0,0
154,505,0,0,0,0,0,0,0,0,0,-1,1378,519,0,0
161,505,0,0,0,0,0,0,0,0,0,-1,1385,519,0,0
168,505,0,0,0,0,0,0,0,0,0,-1,1392,519,0,0
175,505,0,0,0,0,0,0,0,0,0,-1,1399,519,0,0
182,505,0,0,0,0,0,0,0,0,0,-1,1406,519,0,0
189,505,0,0,0,0,0,0,0,0,0,-1,1413,519,0,0
196,505,0,0,0,0,0,0,0,0,0,-1,1420,519,0,0
203,505,0,0,0,0,0,0,0,0,0,-1,1427,519,0,0
210,505,0,0,0,0,0,0,0,0,0,-1,1434,519,0,0
217,505,0,0,0,0,0,0,0,0,0,-1,1441,519,0,0
224,505,0,0,0,0,0,0,0,0,0,-1,1448,519,0,0
231,505,0,0,0,0,0,0,0,0,0,-1,1455,519,0,0
238,505,0,0,0,0,0,0,0,0,0,-1,1462,519,0,0
245,505,0,0,0,0,0,0,0,0,0,-1,1469,519,0,0
252,505,0,0,0,0,0,0,0,0,0,-1,1476,519,0,0
259,505,0,0,0,0,0,0,0,0,0,-1,1483,519,0,0
266,505,0,0,0,0,0,0,0,0,0,-1,1490,519,0,0
273,505,0,0,0,0,0,0,0,0,0,-1,1497,519,0,0
280,505,0,0,0,0,0,0,0,0,0,-1,1504,519,0,0
287,505,4.39478,0.499512,0,0,0,0,0,0,0,-1,1511,519,4.39476,-0.499506
294,505,4.88867,0.0822754,0,0,0,0,0,0,0,-1,1518,519,4.88871,-0.0822748
301,505,4.82153,-0.0704346,0,0,0,0,0,0,0,-1,1525,519,4.82156,0.0704312
308,505,4.67761,-0.29187,0,0,0,0,0,0,0,-1,1532,519,4.67762,0.291845
315,505,8.44055,-6.54352,0,0,0,0,0,0,0,-1,1539,519,8.44059,6.54349
322,505,4.78955,-0.594116,0,0,0,0,0,0,0,-1,1546,519,4.78957,0.594096
329,505,5.16321,0.434631,0,0,0,0,0,0,0,-1,1553,519,5.16316,-0.434614
336,505,4.94495,-0.920471,0,0,0,0,0,0,0,-1,1560,519,4.945,0.920495
343,505,5.01855,-1.4823,0,0,0,0,0,0,0,-1,1567,519,5.01851,1.48227
350,505,5.33154,-1.77838,0,0,0,0,0,0,0,-1,1574,519,5.33152,1.77838
357,505,5.56567,-1.9425,0,0,0,0,0,0,0,-1,1581,519,5.56562,1.94248
364,505,5.85205,-2.6579,0,0,0,0,0,0,0,-1,1588,519,5.85211,2.65788
371,505,5.88477,-7.00922,0,0,0,0,0,0,0,-1,1595,519,5.88473,7.00924
378,505,5.44104,-7.10162,0,0,0,0,0,0,0,-1,1602,519,5.44099,7.10162
385,505,6.64661,-8.65015,0,0,0,0,0,0,0,-1,1609,519,6.64662,8.65014
392,505,6.34558,-8.3429,0,0,0,0,0,0,0,-1,1616,519,6.34554,8.34288
399,505,7.45898,-9.70386,0,0,0,0,0,0,0,-1,1623,519,7.45899,9.70388
406,505,7.08679,-9.4928,0,0,0,0,0,0,0,-1,1630,519,7.08678,9.49278
413,505,8.4032,-14.0308,0,0,0,0,0,0,0,-1,1637,519,8.4032,14.0308
420,505,14.2567,-25.2034,0,0,0,0,0,0,0,-1,1644,519,14.2567,25.2034
427,505,14.2764,-24.5215,0.00155895,3.01984e-05,-0.00208372,0.00301406,-0.00142492,-0.609603,0.00261702,0.0309837,1651,519,14.2764,24.5215
434,505,14.222,-23.8345,0.00144903,0.000284073,-0.00163045,0.00259792,-0.000864816,-0.613838,0.00208101,0.0132627,1658,519,14.2221,23.8345
441,505,14.2118,-23.1623,0.00138034,0.000552469,-0.00115105,0.00218962,-0.000256816,-0.612791,0.00155245,0.0120234,1665,519,14.2118,23.1623
448,505,14.1987,-22.5638,0.00144545,0.000674546,-0.000679002,0.00184077,0.000279217,-0.527244,0.00114551,0.0116286,1672,519,14.1987,22.5638
455,505,14.188,-21.9663,0.0014979,0.000938903,-0.000180596,0.00155117,0.000885634,-0.28683,0.000898568,0.0115457,1679,519,14.188,21.9663
462,505,14.1694,-21.3632,0.00146859,0.00102577,0.000220063,0.00155935,0.000935008,0.391169,0.000906229,0.0113286,1686,519,14.1694,21.3632
469,505,14.1555,-20.7429,0.00138156,0.00111319,0.000691707,0.00195198,0.000542775,0.689594,0.00116339,0.0109361,1693,519,14.1555,20.7429
476,505,14.1238,-20.1304,0.00115418,0.00117563,0.00123496,0.00239991,-7.01074e-05,0.78974,0.00162381,0.0113495,1700,519,14.1238,20.1304
483,505,14.1195,-19.5018,0.000826823,0.00124072,0.0017108,0.00275704,-0.000689506,0.845588,0.00210583,0.0123938,1707,519,14.1196,19.5018
490,505,14.1106,-18.8657,0.000290393,0.00127483,0.00214592,0.00298426,-0.00141904,0.898135,0.00259523,0.0111877,1714,519,14.1106,18.8656
497,505,14.0819,-18.225,-0.000400174,0.00135503,0.00263097,0.00325091,-0.00229606,0.946378,0.00321832,0.0112969,1721,519,14.082,18.225
504,505,14.0341,-17.571,-0.00130303,0.00130245,0.00307166,0.00333621,-0.00333678,0.985959,0.00385266,0.0131387,1728,519,14.034,17.571
511,505,13.9868,-16.9173,-0.00247514,0.00124244,0.0034244,0.00328001,-0.0045127,1.03405,0.00451785,0.0149349,1735,519,13.9868,16.9173
518,505,14.0228,-16.2659,-0.00398488,0.00119878,0.00364123,0.00307642,-0.00586252,1.0947,0.00524379,0.0216431,1742,519,14.0228,16.2659
525,505,13.8468,-15.5458,-0.00578439,0.00106857,0.00372066,0.00270017,-0.00741598,1.15753,0.0060484,0.0309003,1749,519,13.8468,15.5458
532,505,13.4327,-14.8242,0,0,0,0,0,0,0,-1,1756,519,13.4327,14.8242
539,505,7.90369,-7.11932,0,0,0,0,0,0,0,-1,1763,519,7.90373,7.11932
546,505,7.94946,-6.64539,0,0,0,0,0,0,0,-1,1770,519,7.94947,6.64539
553,505,2.82837,0.162659,0,0,0,0,0,0,0,-1,1777,519,2.82841,-0.162672
560,505,3.66223,-0.479797,0,0,0,0,0,0,0,-1,1784,519,3.66219,0.47982
567,505,4.65271,-0.950256,0,0,0,0,0,0,0,-1,1791,519,4.65274,0.95028
574,505,5.54443,-1.19977,0,0,0,0,0,0,0,-1,1798,519,5.54443,1.19974
581,505,0,0,0,0,0,0,0,0,0,-1,1805,519,0,0
588,505,0,0,0,0,0,0,0,0,0,-1,1812,519,0,0
595,505,0,0,0,0,0,0,0,0,0,-1,1819,519,0,0
602,505,0,0,0,0,0,0,0,0,0,-1,1826,519,0,0
609,505,0,0,0,0,0,0,0,0,0,-1,1833,519,0,0
616,505,0,0,0,0,0,0,0,0,0,-1,1840,519,0,0
623,505,0,0,0,0,0,0,0,0,0,-1,1847,519,0,0
630,505,0,0,0,0,0,0,0,0,0,-1,1854,519,0,0
637,505,0,0,0,0,0,0,0,0,0,-1,1861,519,0,0
644,505,0,0,0,0,0,0,0,0,0,-1,1868,519,0,0
651,505,0,0,0,0,0,0,0,0,0,-1,1875,519,0,0
658,505,0,0,0,0,0,0,0,0,0,-1,1882,519,0,0
665,505,0,0,0,0,0,0,0,0,0,-1,1889,519,0,0
672,505,0,0,0,0,0,0,0,0,0,-1,1896,519,0,0
679,505,0,0,0,0,0,0,0,0,0,-1,1903,519,0,0
686,505,0,0,0,0,0,0,0,0,0,-1,1910,519,0,0
693,505,0,0,0,0,0,0,0,0,0,-1,1917,519,0,0
700,505,0,0,0,0,0,0,0,0,0,-1,1924,519,0,0
707,505,0,0,0,0,0,0,0,0,0,-1,1931,519,0,0
714,505,0,0,0,0,0,0,0,0,0,-1,1938,519,0,0
721,505,0,0,0,0,0,0,0,0,0,-1,1945,519,0,0
728,505,0,0,0,0,0,0,0,0,0,-1,1952,519,0,0
735,505,0,0,0,0,0,0,0,0,0,-1,1959,519,0,0
742,505,0,0,0,0,0,0,0,0,0,-1,1966,519,0,0
749,505,0,0,0,0,0,0,0,0,0,-1,1973,519,0,0
756,505,0,0,0,0,0,0,0,0,0,-1,1980,519,0,0
763,505,0,0,0,0,0,0,0,0,0,-1,1987,519,0,0
770,505,0,0,0,0,0,0,0,0,0,-1,1994,519,0,0
777,505,0,0,0,0,0,0,0,0,0,-1,2001,519,0,0
784,505,0,0,0,0,0,0,0,0,0,-1,2008,519,0,0
791,505,0,0,0,0,0,0,0,0,0,-1,2015,519,0,0
798,505,0,0,0,0,0,0,0,0,0,-1,2022,519,0,0
805,505,0,0,0,0,0,0,0,0,0,-1,2029,519,0,0
812,505,0,0,0,0,0,0,0,0,0,-1,2036,519,0,0
-700,498,0,0,0,0,0,0,0,0,0,-1,524,526,0,0
-693,498,0,0,0,0,0,0,0,0,0,-1,531,526,0,0
-686,498,0,0,0,0,0,0,0,0,0,-1,538,526,0,0
-679,498,0,0,0,0,0,0,0,0,0,-1,545,526,0,0
-672,498,0,0,0,0,0,0,0,0,0,-1,552,526,0,0
-665,498,0,0,0,0,0,0,0,0,0,-1,559,526,0,0
-658,498,0,0,0,0,0,0,0,0,0,-1,566,526,0,0
-651,498,0,0,0,0,0,0,0,0,0,-1,573,526,0,0
-644,498,0,0,0,0,0,0,0,0,0,-1,580,526,0,0
-637,498,0,0,0,0,0,0,0,0,0,-1,587,526,0,0
-630,498,0,0,0,0,0,0,0,0,0,-1,594,526,0,0
-623,498,0,0,0,0,0,0,0,0,0,-1,601,526,0,0
-616,498,0,0,0,0,0,0,0,0,0,-1,608,526,0,0
-609,498,0,0,0,0,0,0,0,0,0,-1,615,526,0,0
-602,498,0,0,0,0,0,0,0,0,0,-1,622,526,0,0
-595,498,0,0,0,0,0,0,0,0,0,-1,629,526,0,0
-588,498,0,0,0,0,0,0,0,0,0,-1,636,526,0,0
-581,498,0,0,0,0,0,0,0,0,0,-1,643,526,0,0
-574,498,0,0,0,0,0,0,0,0,0,-1,650,526,0,0
-567,498,0,0,0,0,0,0,0,0,0,-1,657,526,0,0
-560,498,0,0,0,0,0,0,0,0,0,-1,664,526,0,0
-553,498,0,0,0,0,0,0,0,0,0,-1,671,526,0,0
-546,498,0,0,0,0,0,0,0,0,0,-1,678,526,0,0
-539,498,0,0,0,0,0,0,0,0,0,-1,685,526,0,0
-532,498,0,0,0,0,0,0,0,0,0,-1,692,526,0,0
-525,498,0,0,0,0,0,0,0,0,0,-1,699,526,0,0
-518,498,0,0,0,0,0,0,0,0,0,-1,706,526,0,0
-511,498,0,0,0,0,0,0,0,0,0,-1,713,526,0,0
-504,498,0,0,0,0,0,0,0,0,0,-1,720,526,0,0
-497,498,0,0,0,0,0,0,0,0,0,-1,727,526,0,0
-490,498,0,0,0,0,0,0,0,0,0,-1,734,526,0,0
-483,498,0,0,0,0,0,0,0,0,0,-1,741,526,0,0
-476,498,0,0,0,0,0,0,0,0,0,-1,748,526,0,0
-469,498,0,0,0,0,0,0,0,0,0,-1,755,526,0,0
-462,498,6.81024,1.15515,0,0,0,0,0,0,0,-1,762,526,6.81026,-1.15514
-455,498,3.25757,-3.0592,0,0,0,0,0,0,0,-1,769,526,3.25754,3.05921
-448,498,3.05939,-3.74298,0,0,0,0,0,0,0,-1,776,526,3.05939,3.74296
-441,498,2.77191,-6.08209,0,0,0,0,0,0,0,-1,783,526,2.77189,6.08207
-434,498,2.10681,-6.95929,0,0,0,0,0,0,0,-1,790,526,2.10682,6.9593
-427,498,-0.368042,-10.7726,0,0,0,0,0,0,0,-1,797,526,-0.36807,10.7726
-420,498,-1.05035,-10.5142,0,0,0,0,0,0,0,-1,804,526,-1.05034,10.5142
-413,498,-3.41736,-14.6664,0,0,0,0,0,0,0,-1,811,526,-3.41735,14.6664
-406,498,-3.27875,-15.6371,0.00302062,0.0226447,-0.0122254,0.0285086,-0.00284332,-1.12356,0.0200209,0.0487161,818,526,-3.27877,15.6371
-399,498,-3.0979,-16.7148,0.00237604,0.0187463,-0.0104044,0.0237993,-0.00267697,-1.11869,0.0168297,0.0273225,825,526,-3.0979,16.7149
-392,498,-3.17786,-17.5225,0.0019325,0.0153497,-0.0087161,0.01964,-0.00235779,-1.11339,0.0139459,0.0147344,832,526,-3.17784,17.5224
-385,498,-3.18744,-18.1819,0.00173249,0.0123644,-0.00718194,0.0159837,-0.00188685,-1.10399,0.0113372,0.0103624,839,526,-3.18745,18.182
-378,498,-3.19519,-18.8133,0.0016035,0.00978925,-0.00583672,0.0128251,-0.00143237,-1.09117,0.00906533,0.0107671,846,526,-3.19518,18.8133
-371,498,-3.21429,-19.4406,0.00151713,0.00748369,-0.00469112,0.0100598,-0.00105895,-1.06861,0.00708593,0.015469,853,526,-3.21432,19.4406
-364,498,-3.22467,-20.0743,0.00148091,0.005313,-0.00355895,0.0074389,-0.000644993,-1.03233,0.00518765,0.0156346,860,526,-3.22467,20.0744
-357,498,-3.24634,-20.6886,0.00153728,0.0035362,-0.00254901,0.00527469,-0.000201207,-0.972236,0.00358541,0.0113102,867,526,-3.24636,20.6886
-350,498,-3.28217,-21.2717,0.00162444,0.00181496,-0.00162335,0.00334584,9.35617e-05,-0.814704,0.00220004,0.0114941,874,526,-3.28215,21.2717
-343,498,-3.28864,-21.8653,0.00177174,0.000463594,-0.000900572,0.0022307,4.63333e-06,-0.471323,0.00148559,0.0116904,881,526,-3.28861,21.8653
-336,498,-3.32562,-22.4601,0.00199844,-0.00072111,-0.000263913,0.00202381,-0.000746484,-0.0958512,0.00165513,0.0152015,888,526,-3.32561,22.4601
-329,498,-3.34631,-23.0179,0.00237254,-0.00172773,0.000214963,0.00238378,-0.00173897,0.0522357,0.00238995,0.0230057,895,526,-3.34633,23.0179
-322,498,-3.36737,-23.6315,0.00282621,-0.0024224,0.000577561,0.00288902,-0.00248521,0.108314,0.00310573,0.0255232,902,526,-3.36736,23.6315
-315,498,-3.39612,-24.2236,0.00342355,-0.00294768,0.000808647,0.00352458,-0.00304871,0.124296,0.00379841,0.0183854,909,526,-3.39612,24.2236
-308,498,-3.41211,-24.7704,0.00427776,-0.00332145,0.000868654,0.00437579,-0.00341948,0.112377,0.00451188,0.0197574,916,526,-3.41211,24.7704
-301,498,-3.32202,-25.3798,0.00513101,-0.00313532,0.000885613,0.00522482,-0.00322914,0.105539,0.00492602,0.0405426,923,526,-3.32202,25.3798
-294,498,-3.23602,-25.993,0,0,0,0,0,0,0,-1,930,526,-3.23605,25.993
-287,498,-0.91394,-13.4327,0,0,0,0,0,0,0,-1,937,526,-0.913935,13.4327
-280,498,-0.341614,-8.66608,0,0,0,0,0,0,0,-1,944,526,-0.341589,8.66606
-273,498,-0.988892,-8.62921,0,0,0,0,0,0,0,-1,951,526,-0.988906,8.62922
-266,498,0.362488,-6.33545,0,0,0,0,0,0,0,-1,958,526,0.362478,6.33547
-259,498,10.9454,-17.3615,0,0,0,0,0,0,0,-1,965,526,10.9454,17.3614
-252,498,8.56586,-14.6886,0,0,0,0,0,0,0,-1,972,526,8.56584,14.6886
-245,498,5.97382,-11.928,0,0,0,0,0,0,0,-1,979,526,5.97381,11.928
-238,498,2.24841,-13.8145,0,0,0,0,0,0,0,-1,986,526,2.24838,13.8145
-231,498,0.665894,-10.4898,0,0,0,0,0,0,0,-1,993,526,0.665863,10.4898
-224,498,-2.11243,-4.76312,0,0,0,0,0,0,0,-1,1000,526,-2.11245,4.76314
-217,498,-3.82239,-1.42841,0,0,0,0,0,0,0,-1,1007,526,-3.82241,1.42843
-210,498,-1.80591,-0.358215,0,0,0,0,0,0,0,-1,1014,526,-1.8059,0.3582
-203,498,-3.17316,1.06641,0,0,0,0,0,0,0,-1,1021,526,-3.17313,-1.0664
-196,498,-0.103271,5.40527,0,0,0,0,0,0,0,-1,1028,526,-0.103285,-5.40528
-189,498,3.00256,6.47137,0,0,0,0,0,0,0,-1,1035,526,3.00256,-6.47139
-182,498,0,0,0,0,0,0,0,0,0,-1,1042,526,0,0
-175,498,0,0,0,0,0,0,0,0,0,-1,1049,526,0,0
-168,498,0,0,0,0,0,0,0,0,0,-1,1056,526,0,0
-161,498,0,0,0,0,0,0,0,0,0,-1,1063,526,0,0
-154,498,0,0,0,0,0,0,0,0,0,-1,1070,526,0,0
-147,498,0,0,0,0,0,0,0,0,0,-1,1077,526,0,0
-140,498,0,0,0,0,0,0,0,0,0,-1,1084,526,0,0
-133,498,0,0,0,0,0,0,0,0,0,-1,1091,526,0,0
-126,498,0,0,0,0,0,0,0,0,0,-1,1098,526,0,0
-119,498,0,0,0,0,0,0,0,0,0,-1,1105,526,0,0
-112,498,0,0,0,0,0,0,0,0,0,-1,1112,526,0,0
-105,498,0,0,0,0,0,0,0,0,0,-1,1119,526,0,0
-98,498,0,0,0,0,0,0,0,0,0,-1,1126,526,0,0
-91,498,0,0,0,0,0,0,0,0,0,-1,1133,526,0,0
-84,498,0,0,0,0,0,0,0,0,0,-1,1140,526,0,0
-77,498,0,0,0,0,0,0,0,0,0,-1,1147,526,0,0
-70,498,0,0,0,0,0,0,0,0,0,-1,1154,526,0,0
-63,498,0,0,0,0,0,0,0,0,0,-1,1161,526,0,0
-56,498,0,0,0,0,0,0,0,0,0,-1,1168,526,0,0
-49,498,0,0,0,0,0,0,0,0,0,-1,1175,526,0,0
-42,498,0,0,0,0,0,0,0,0,0,-1,1182,526,0,0
-35,498,0,0,0,0,0,0,0,0,0,-1,1189,526,0,0
-28,498,0,0,0,0,0,0,0,0,0,-1,1196,526,0,0
-21,498,0,0,0,0,0,0,0,0,0,-1,1203,526,0,0
-14,498,0,0,0,0,0,0,0,0,0,-1,1210,526,0,0
-7,498,0,0,0,0,0,0,0,0,0,-1,1217,526,0,0
0,498,0,0,0,0,0,0,0,0,0,-1,1224,526,0,0
7,498,0,0,0,0,0,0,0,0,0,-1,1231,526,0,0
14,498,0,0,0,0,0,0,0,0,0,-1,1238,526,0,0
21,498,0,0,0,0,0,0,0,0,0,-1,1245,526,0,0
28,498,0,0,0,0,0,0,0,0,0,-1,1252,526,0,0
35,498,0,0,0,0,0,0,0,0,0,-1,1259,526,0,0
42,498,0,0,0,0,0,0,0,0,0,-1,1266,526,0,0
49,498,0,0,0,0,0,0,0,0,0,-1,1273,526,0,0
56,498,0,0,0,0,0,0,0,0,0,-1,1280,526,0,0
63,498,0,0,0,0,0,0,0,0,0,-1,1287,526,0,0
70,498,0,0,0,0,0,0,0,0,0,-1,1294,526,0,0
77,498,0,0,0,0,0,0,0,0,0,-1,1301,526,0,0
84,498,0,0,0,0,0,0,0,0,0,-1,1308,526,0,0
91,498,0,0,0,0,0,0,0,0,0,-1,1315,526,0,0
98,498,0,0,0,0,0,0,0,0,0,-1,1322,526,0,0
105,498,0,0,0,0,0,0,0,0,0,-1,1329,526,0,0
112,498,0,0,0,0,0,0,0,0,0,-1,1336,526,0,0
119,498,0,0,0,0,0,0,0,0,0,-1,1343,526,0,0
126,498,0,0,0,0,0,0,0,0,0,-1,1350,526,0,0
133,498,0,0,0,0,0,0,0,0,0,-1,1357,526,0,0
140,498,0,0,0,0,0,0,0,0,0,-1,1364,526,0,0
147,498,0,0,0,0,0,0,0,0,0,-1,1371,526,0,0
154,498,0,0,0,0,0,0,0,0,0,-1,1378,526,0,0
161,498,0,0,0,0,0,0,0,0,0,-1,1385,526,0,0
168,498,0,0,0,0,0,0,0,0,0,-1,1392,526,0,0
175,498,0,0,0,0,0,0,0,0,0,-1,1399,526,0,0
182,498,0,0,0,0,0,0,0,0,0,-1,1406,526,0,0
189,498,0,0,0,0,0,0,0,0,0,-1,1413,526,0,0
196,498,0,0,0,0,0,0,0,0,0,-1,1420,526,0,0
203,498,0,0,0,0,0,0,0,0,0,-1,1427,526,0,0
210,498,0,0,0,0,0,0,0,0,0,-1,1434,526,0,0
217,498,0,0,0,0,0,0,0,0,0,-1,1441,526,0,0
224,498,0,0,0,0,0,0,0,0,0,-1,1448,526,0,0
231,498,0,0,0,0,0,0,0,0,0,-1,1455,526,0,0
238,498,0,0,0,0,0,0,0,0,0,-1,1462,526,0,0
245,498,0,0,0,0,0,0,0,0,0,-1,1469,526,0,0
252,498,0,0,0,0,0,0,0,0,0,-1,1476,526,0,0
259,498,0,0,0,0,0,0,0,0,0,-1,1483,526,0,0
266,498,0,0,0,0,0,0,0,0,0,-1,1490,526,0,0
273,498,0,0,0,0,0,0,0,0,0,-1,1497,526,0,0
280,498,0,0,0,0,0,0,0,0,0,-1,1504,526,0,0
287,498,0,0,0,0,0,0,0,0,0,-1,1511,526,0,0
294,498,0,0,0,0,0,0,0,0,0,-1,1518,526,0,0
301,498,0,0,0,0,0,0,0,0,0,-1,1525,526,0,0
308,498,4.77942,-0.293884,0,0,0,0,0,0,0,-1,1532,526,4.77939,0.293899
315,498,4.56091,-0.564148,0,0,0,0,0,0,0,-1,1539,526,4.56097,0.564142
322,498,4.52344,-0.447266,0,0,0,0,0,0,0,-1,1546,526,4.52341,0.447295
329,498,4.63232,-0.156982,0,0,0,0,0,0,0,-1,1553,526,4.63238,0.156991
336,498,5.22644,0.0925903,0,0,0,0,0,0,0,-1,1560,526,5.22648,-0.0926188
343,498,6.22607,-1.67615,0,0,0,0,0,0,0,-1,1567,526,6.22605,1.67617
350,498,6.19373,-1.59906,0,0,0,0,0,0,0,-1,1574,526,6.19367,1.59906
357,498,6.21472,-1.58929,0,0,0,0,0,0,0,-1,1581,526,6.21476,1.58927
364,498,5.73547,-1.2019,0,0,0,0,0,0,0,-1,1588,526,5.73547,1.20192
371,498,3.27087,-4.55334,0,0,0,0,0,0,0,-1,1595,526,3.27089,4.55332
378,498,8.42944,-4.70624,0,0,0,0,0,0,0,-1,1602,526,8.42942,4.70624
385,498,4.7793,-5.15314,0,0,0,0,0,0,0,-1,1609,526,4.77935,5.15311
392,498,9.12439,-8.57953,0,0,0,0,0,0,0,-1,1616,526,9.12443,8.57955
399,498,7.98938,-9.46021,0,0,0,0,0,0,0,-1,1623,526,7.98936,9.4602
406,498,7.58081,-9.26819,0,0,0,0,0,0,0,-1,1630,526,7.58085,9.26817
413,498,7.17236,-9.07611,0,0,0,0,0,0,0,-1,1637,526,7.17234,9.07614
420,498,11.4314,-16.1147,0,0,0,0,0,0,0,-1,1644,526,11.4313,16.1147
427,498,14.738,-24.588,0,0,0,0,0,0,0,-1,1651,526,14.7381,24.588
434,498,14.7228,-23.8427,0.00158425,-4.68819e-05,-0.00200765,0.00293566,-0.00139829,-0.592466,0.00255414,0.0398916,1658,526,14.7228,23.8427
441,498,14.8131,-23.1664,0.00144467,0.000286274,-0.00156104,0.0025305,-0.000799554,-0.607754,0.00200732,0.0141039,1665,526,14.8131,23.1664
448,498,14.8301,-22.5297,0.00151375,0.000457126,-0.00113417,0.00223662,-0.000265739,-0.567434,0.00158709,0.0108592,1672,526,14.83,22.5297
455,498,14.8127,-21.9333,0.00154654,0.000758311,-0.000722969,0.00197584,0.000329011,-0.53585,0.0012224,0.0142251,1679,526,14.8128,21.9333
462,498,14.8055,-21.3561,0.00148902,0.000853329,-0.000422808,0.00170013,0.000642221,-0.463088,0.000991301,0.0160337,1686,526,14.8055,21.3561
469,498,14.7938,-20.7511,0.00141985,0.000954525,6.32777e-06,0.00141994,0.000954439,0.0135952,0.000835844,0.0131906,1693,526,14.7938,20.7511
476,498,14.774,-20.1234,0.00125265,0.00106094,0.000477368,0.00164369,0.000669901,0.686318,0.000954378,0.00991873,1700,526,14.774,20.1234
483,498,14.738,-19.4985,0.000964835,0.0011331,0.000908981,0.00196183,0.000136102,0.831545,0.00126497,0.00873907,1707,526,14.738,19.4985
490,498,14.7013,-18.8762,0.000454451,0.00121296,0.00128293,0.00217152,-0.000504107,0.929113,0.00164172,0.0106989,1714,526,14.7014,18.8762
497,498,14.6825,-18.2188,-0.000173281,0.00138644,0.00174917,0.00252172,-0.00130856,0.995095,0.00224808,0.0124357,1721,526,14.6825,18.2188
504,498,14.6648,-17.5623,-0.000977149,0.00136136,0.00216233,0.00265032,-0.00226611,1.03325,0.00284139,0.0149549,1728,526,14.6647,17.5623
511,498,14.6194,-16.9097,-0.00201299,0.00135139,0.00249117,0.00267514,-0.00333674,1.08236,0.00347796,0.016269,1735,526,14.6193,16.9097
518,498,14.6365,-16.2639,-0.0033251,0.00137502,0.00268407,0.00259245,-0.00454253,1.14497,0.00417035,0.0169987,1742,526,14.6364,16.2639
525,498,14.5345,-15.6173,-0.00481367,0.00132986,0.0027764,0.00239865,-0.00588245,1.20333,0.0049201,0.025322,1749,526,14.5346,15.6173
532,498,14.2881,-14.9125,-0.00648891,0.0012641,0.00274684,0.00213864,-0.00736345,1.26256,0.00575584,0.0434081,1756,526,14.2881,14.9126
539,498,14.2666,-14.2325,0,0,0,0,0,0,0,-1,1763,526,14.2666,14.2325
546,498,10.2014,-8.47589,0,0,0,0,0,0,0,-1,1770,526,10.2014,8.47589
553,498,5.93958,-1.71448,0,0,0,0,0,0,0,-1,1777,526,5.93956,1.71447
560,498,3.69385,-0.615112,0,0,0,0,0,0,0,-1,1784,526,3.69381,0.615118
567,498,5.12695,-0.581604,0,0,0,0,0,0,0,-1,1791,526,5.12699,0.58159
574,498,3.88,0.0286255,0,0,0,0,0,0,0,-1,1798,526,3.87999,-0.0286535
581,498,10.8722,2.58551,0,0,0,0,0,0,0,-1,1805,526,10.8723,-2.58551
588,498,0,0,0,0,0,0,0,0,0,-1,1812,526,0,0
595,498,0,0,0,0,0,0,0,0,0,-1,1819,526,0,0
602,498,0,0,0,0,0,0,0,0,0,-1,1826,526,0,0
609,498,0,0,0,0,0,0,0,0,0,-1,1833,526,0,0
616,498,0,0,0,0,0,0,0,0,0,-1,1840,526,0,0
623,498,0,0,0,0,0,0,0,0,0,-1,1847,526,0,0
630,498,0,0,0,0,0,0,0,0,0,-1,1854,526,0,0
637,498,0,0,0,0,0,0,0,0,0,-1,1861,526,0,0
644,498,0,0,0,0,0,0,0,0,0,-1,1868,526,0,0
651,498,0,0,0,0,0,0,0,0,0,-1,1875,526,0,0
658,498,0,0,0,0,0,0,0,0,0,-1,1882,526,0,0
665,498,0,0,0,0,0,0,0,0,0,-1,1889,526,0,0
672,498,0,0,0,0,0,0,0,0,0,-1,1896,526,0,0
679,498,0,0,0,0,0,0,0,0,0,-1,1903,526,0,0
686,498,0,0,0,0,0,0,0,0,0,-1,1910,526,0,0
693,498,0,0,0,0,0,0,0,0,0,-1,1917,526,0,0
700,498,0,0,0,0,0,0,0,0,0,-1,1924,526,0,0
707,498,0,0,0,0,0,0,0,0,0,-1,1931,526,0,0
714,498,0,0,0,0,0,0,0,0,0,-1,1938,526,0,0
721,498,0,0,0,0,0,0,0,0,0,-1,1945,526,0,0
728,498,0,0,0,0,0,0,0,0,0,-1,1952,526,0,0
735,498,0,0,0,0,0,0,0,0,0,-1,1959,526,0,0
742,498,0,0,0,0,0,0,0,0,0,-1,1966,526,0,0
749,498,0,0,0,0,0,0,0,0,0,-1,1973,526,0,0
756,498,0,0,0,0,0,0,0,0,0,-1,1980,526,0,0
763,498,0,0,0,0,0,0,0,0,0,-1,1987,526,0,0
770,498,0,0,0,0,0,0,0,0,0,-1,1994,526,0,0
777,498,0,0,0,0,0,0,0,0,0,-1,2001,526,0,0
784,498,0,0,0,0,0,0,0,0,0,-1,2008,526,0,0
791,498,0,0,0,0,0,0,0,0,0,-1,2015,526,0,0
798,498,0,0,0,0,0,0,0,0,0,-1,2022,526,0,0
805,498,0,0,0,0,0,0,0,0,0,-1,2029,526,0,0
812,498,0,0,0,0,0,0,0,0,0,-1,2036,526,0,0
-700,491,0,0,0,0,0,0,0,0,0,-1,524,533,0,0
-693,491,0,0,0,0,0,0,0,0,0,-1,531,533,0,0
-686,491,0,0,0,0,0,0,0,0,0,-1,538,533,0,0
-679,491,0,0,0,0,0,0,0,0,0,-1,545,533,0,0
-672,491,0,0,0,0,0,0,0,0,0,-1,552,533,0,0
-665,491,0,0,0,0,0,0,0,0,0,-1,559,533,0,0
-658,491,0,0,0,0,0,0,0,0,0,-1,566,533,0,0
-651,491,0,0,0,0,0,0,0,0,0,-1,573,533,0,0
-644,491,0,0,0,0,0,0,0,0,0,-1,580,533,0,0
-637,491,0,0,0,0,0,0,0,0,0,-1,587,533,0,0
-630,491,0,0,0,0,0,0,0,0,0,-1,594,533,0,0
-623,491,0,0,0,0,0,0,0,0,0,-1,601,533,0,0
-616,491,0,0,0,0,0,0,0,0,0,-1,608,533,0,0
-609,491,0,0,0,0,0,0,0,0,0,-1,615,533,0,0
-602,491,0,0,0,0,0,0,0,0,0,-1,622,533,0,0
-595,491,0,0,0,0,0,0,0,0,0,-1,629,533,0,0
-588,491,0,0,0,0,0,0,0,0,0,-1,636,533,0,0
-581,491,0,0,0,0,0,0,0,0,0,-1,643,533,0,0
-574,491,0,0,0,0,0,0,0,0,0,-1,650,533,0,0
-567,491,0,0,0,0,0,0,0,0,0,-1,657,533,0,0
-560,491,0,0,0,0,0,0,0,0,0,-1,664,533,0,0
-553,491,0,0,0,0,0,0,0,0,0,-1,671,533,0,0
-546,491,0,0,0,0,0,0,0,0,0,-1,678,533,0,0
-539,491,0,0,0,0,0,0,0,0,0,-1,685,533,0,0
-532,491,0,0,0,0,0,0,0,0,0,-1,692,533,0,0
-525,491,0,0,0,0,0,0,0,0,0,-1,699,533,0,0
-518,491,0,0,0,0,0,0,0,0,0,-1,706,533,0,0
-511,491,0,0,0,0,0,0,0,0,0,-1,713,533,0,0
-504,491,0,0,0,0,0,0,0,0,0,-1,720,533,0,0
-497,491,0,0,0,0,0,0,0,0,0,-1,727,533,0,0
-490,491,0,0,0,0,0,0,0,0,0,-1,734,533,0,0
-483,491,0,0,0,0,0,0,0,0,0,-1,741,533,0,0
-476,491,0,0,0,0,0,0,0,0,0,-1,748,533,0,0
-469,491,-5.85913,4.55011,0,0,0,0,0,0,0,-1,755,533,-5.8591,-4.55009
-462,491,-9.93713,4.90381,0,0,0,0,0,0,0,-1,762,533,-9.93716,-4.9038
-455,491,1.9494,-0.27887,0,0,0,0,0,0,0,-1,769,533,1.94941,0.27885
-448,491,2.68909,-1.8999,0,0,0,0,0,0,0,-1,776,533,2.6891,1.89988
-441,491,3.46069,-3.51855,0,0,0,0,0,0,0,-1,783,533,3.46071,3.51854
-434,491,2.67145,-7.44061,0,0,0,0,0,0,0,-1,790,533,2.67146,7.44061
-427,491,2.27136,-8.34546,0,0,0,0,0,0,0,-1,797,533,2.27136,8.34546
-420,491,-3.50403,-13.9624,0,0,0,0,0,0,0,-1,804,533,-3.50403,13.9624
-413,491,-3.64142,-15.3441,0,0,0,0,0,0,0,-1,811,533,-3.64139,15.3441
-406,491,-3.64514,-16.1835,0.00220224,0.0178949,-0.00946735,0.0223447,-0.0022476,-1.13142,0.0156994,0.025201,818,533,-3.64511,16.1835
-399,491,-3.69769,-16.936,0.00181978,0.0146586,-0.00802596,0.0185166,-0.0020382,-1.12272,0.0130769,0.0124484,825,533,-3.69771,16.936
-392,491,-3.78375,-17.5914,0.00158405,0.011777,-0.00665716,0.0150645,-0.0017035,-1.11209,0.0106563,0.0115796,832,533,-3.78375,17.5914
-385,491,-3.80164,-18.1909,0.00154597,0.0092212,-0.00542101,0.0120255,-0.0012583,-1.09341,0.00846763,0.0103809,839,533,-3.80166,18.1909
-378,491,-3.80457,-18.7903,0.00155316,0.0069969,-0.00429734,0.00936184,-0.000811785,-1.0677,0.00652867,0.013982,846,533,-3.80455,18.7903
-371,491,-3.82361,-19.41,0.00158937,0.00497282,-0.00333628,0.00702177,-0.000459587,-1.02004,0.00484165,0.0138304,853,533,-3.82359,19.41
-364,491,-3.83826,-20.0372,0.00166882,0.00304901,-0.00237815,0.00483517,-0.000117342,-0.926611,0.00326327,0.0131357,860,533,-3.83826,20.0372
-357,491,-3.85779,-20.6266,0.00184267,0.00148608,-0.00152762,0.00320236,0.000126384,-0.727303,0.00209405,0.012133,867,533,-3.85778,20.6266
-350,491,-3.87677,-21.2074,0.0020843,5.37147e-05,-0.000812698,0.00236951,-0.000231491,-0.33751,0.00166222,0.0146158,874,533,-3.87674,21.2074
-343,491,-3.87616,-21.8323,0.00233812,-0.00111362,-0.000233968,0.00235391,-0.00112941,-0.0673719,0.0020521,0.0220599,881,533,-3.87614,21.8323
-336,491,-3.94391,-22.4531,0.00264671,-0.00219096,0.00030069,0.00266533,-0.00220958,0.0618385,0.00281863,0.0236152,888,533,-3.94393,22.4531
-329,491,-4.01074,-23.0034,0.00312414,-0.00309763,0.000695255,0.00320088,-0.00317437,0.109939,0.00368077,0.026204,895,533,-4.01074,23.0034
-322,491,-3.9906,-23.5692,0.00371543,-0.00360285,0.000938771,0.00383393,-0.00372135,0.125569,0.00436221,0.0231986,902,533,-3.99062,23.5692
-315,491,-3.99811,-24.1143,0.00446398,-0.00403147,0.00102929,0.00458691,-0.0041544,0.118867,0.00504886,0.0196699,909,533,-3.9981,24.1143
-308,491,-3.97717,-24.8003,0,0,0,0,0,0,0,-1,916,533,-3.97716,24.8003
-301,491,-3.91528,-25.6946,0,0,0,0,0,0,0,-1,923,533,-3.91527,25.6947
-294,491,-0.777283,-8.60913,0,0,0,0,0,0,0,-1,930,533,-0.777288,8.6091
-287,491,-0.26123,-8.69055,0,0,0,0,0,0,0,-1,937,533,-0.261204,8.69053
-280,491,0.2948,-5.99219,0,0,0,0,0,0,0,-1,944,533,0.294811,5.99221
-273,491,0.369995,-5.33691,0,0,0,0,0,0,0,-1,951,533,0.369985,5.33693
-266,491,1.1167,-5.0321,0,0,0,0,0,0,0,-1,958,533,1.11668,5.0321
-259,491,12.0862,-16.9615,0,0,0,0,0,0,0,-1,965,533,12.0862,16.9615
-252,491,9.72443,-13.8417,0,0,0,0,0,0,0,-1,972,533,9.72444,13.8418
-245,491,5.27258,-14.3619,0,0,0,0,0,0,0,-1,979,533,5.27255,14.3619
-238,491,3.65381,-11.1472,0,0,0,0,0,0,0,-1,986,533,3.6538,11.1472
-231,491,2.17719,-7.86835,0,0,0,0,0,0,0,-1,993,533,2.17719,7.86832
-224,491,0.554626,-4.61725,0,0,0,0,0,0,0,-1,1000,533,0.554608,4.61727
-217,491,-2.92743,-1.0766,0,0,0,0,0,0,0,-1,1007,533,-2.92743,1.07659
-210,491,-0.92395,0.374512,0,0,0,0,0,0,0,-1,1014,533,-0.923959,-0.374531
-203,491,0.417419,4.77161,0,0,0,0,0,0,0,-1,1021,533,0.417446,-4.77162
-196,491,0,0,0,0,0,0,0,0,0,-1,1028,533,0,0
-189,491,0,0,0,0,0,0,0,0,0,-1,1035,533,0,0
-182,491,0,0,0,0,0,0,0,0,0,-1,1042,533,0,0
-175,491,0,0,0,0,0,0,0,0,0,-1,1049,533,0,0
-168,491,0,0,0,0,0,0,0,0,0,-1,1056,533,0,0
-161,491,0,0,0,0,0,0,0,0,0,-1,1063,533,0,0
-154,491,0,0,0,0,0,0,0,0,0,-1,1070,533,0,0
-147,491,0,0,0,0,0,0,0,0,0,-1,1077,533,0,0
-140,491,0,0,0,0,0,0,0,0,0,-1,1084,533,0,0
-133,491,0,0,0,0,0,0,0,0,0,-1,1091,533,0,0
-126,491,0,0,0,0,0,0,0,0,0,-1,1098,533,0,0
-119,491,0,0,0,0,0,0,0,0,0,-1,1105,533,0,0
-112,491,0,0,0,0,0,0,0,0,0,-1,1112,533,0,0
-105,491,0,0,0,0,0,0,0,0,0,-1,1119,533,0,0
-98,491,0,0,0,0,0,0,0,0,0,-1,1126,533,0,0
-91,491,0,0,0,0,0,0,0,0,0,-1,1133,533,0,0
-84,491,0,0,0,0,0,0,0,0,0,-1,1140,533,0,0
-77,491,0,0,0,0,0,0,0,0,0,-1,1147,533,0,0
-70,491,0,0,0,0,0,0,0,0,0,-1,1154,533,0,0
-63,491,0,0,0,0,0,0,0,0,0,-1,1161,533,0,0
-56,491,0,0,0,0,0,0,0,0,0,-1,1168,533,0,0
-49,491,0,0,0,0,0,0,0,0,0,-1,1175,533,0,0
-42,491,0,0,0,0,0,0,0,0,0,-1,1182,533,0,0
-35,491,0,0,0,0,0,0,0,0,0,-1,1189,533,0,0
-28,491,0,0,0,0,0,0,0,0,0,-1,1196,533,0,0
-21,491,0,0,0,0,0,0,0,0,0,-1,1203,533,0,0
-14,491,0,0,0,0,0,0,0,0,0,-1,1210,533,0,0
-7,491,0,0,0,0,0,0,0,0,0,-1,1217,533,0,0
0,491,0,0,0,0,0,0,0,0,0,-1,1224,533,0,0
7,491,0,0,0,0,0,0,0,0,0,-1,1231,533,0,0
14,491,0,0,0,0,0,0,0,0,0,-1,1238,533,0,0
21,491,0,0,0,0,0,0,0,0,0,-1,1245,533,0,0
28,491,0,0,0,0,0,0,0,0,0,-1,1252,533,0,0
35,491,0,0,0,0,0,0,0,0,0,-1,1259,533,0,0
42,491,0,0,0,0,0,0,0,0,0,-1,1266,533,0,0
49,491,0,0,0,0,0,0,0,0,0,-1,1273,533,0,0
56,491,0,0,0,0,0,0,0,0,0,-1,1280,533,0,0
63,491,0,0,0,0,0,0,0,0,0,-1,1287,533,0,0
70,491,0,0,0,0,0,0,0,0,0,-1,1294,533,0,0
77,491,0,0,0,0,0,0,0,0,0,-1,1301,533,0,0
84,491,0,0,0,0,0,0,0,0,0,-1,1308,533,0,0
91,491,0,0,0,0,0,0,0,0,0,-1,1315,533,0,0
98,491,0,0,0,0,0,0,0,0,0,-1,1322,533,0,0
105,491,0,0,0,0,0,0,0,0,0,-1,1329,533,0,0
112,491,0,0,0,0,0,0,0,0,0,-1,1336,533,0,0
119,491,0,0,0,0,0,0,0,0,0,-1,1343,533,0,0
126,491,0,0,0,0,0,0,0,0,0,-1,1350,533,0,0
133,491,0,0,0,0,0,0,0,0,0,-1,1357,533,0,0
140,491,0,0,0,0,0,0,0,0,0,-1,1364,533,0,0
147,491,0,0,0,0,0,0,0,0,0,-1,1371,533,0,0
154,491,0,0,0,0,0,0,0,0,0,-1,1378,533,0,0
161,491,0,0,0,0,0,0,0,0,0,-1,1385,533,0,0
168,491,0,0,0,0,0,0,0,0,0,-1,1392,533,0,0
175,491,0,0,0,0,0,0,0,0,0,-1,1399,533,0,0
182,491,0,0,0,0,0,0,0,0,0,-1,1406,533,0,0
189,491,0,0,0,0,0,0,0,0,0,-1,1413,533,0,0
196,491,0,0,0,0,0,0,0,0,0,-1,1420,533,0,0
203,491,0,0,0,0,0,0,0,0,0,-1,1427,533,0,0
210,491,0,0,0,0,0,0,0,0,0,-1,1434,533,0,0
217,491,0,0,0,0,0,0,0,0,0,-1,1441,533,0,0
224,491,0,0,0,0,0,0,0,0,0,-1,1448,533,0,0
231,491,0,0,0,0,0,0,0,0,0,-1,1455,533,0,0
238,491,0,0,0,0,0,0,0,0,0,-1,1462,533,0,0
245,491,0,0,0,0,0,0,0,0,0,-1,1469,533,0,0
252,491,0,0,0,0,0,0,0,0,0,-1,1476,533,0,0
259,491,0,0,0,0,0,0,0,0,0,-1,1483,533,0,0
266,491,0,0,0,0,0,0,0,0,0,-1,1490,533,0,0
273,491,0,0,0,0,0,0,0,0,0,-1,1497,533,0,0
280,491,0,0,0,0,0,0,0,0,0,-1,1504,533,0,0
287,491,0,0,0,0,0,0,0,0,0,-1,1511,533,0,0
294,491,0,0,0,0,0,0,0,0,0,-1,1518,533,0,0
301,491,0,0,0,0,0,0,0,0,0,-1,1525,533,0,0
308,491,0,0,0,0,0,0,0,0,0,-1,1532,533,0,0
315,491,0,0,0,0,0,0,0,0,0,-1,1539,533,0,0
322,491,4.26331,-0.734314,0,0,0,0,0,0,0,-1,1546,533,4.26326,0.734324
329,491,4.25354,-0.783752,0,0,0,0,0,0,0,-1,1553,533,4.25359,0.783734
336,491,4.81604,-0.722107,0,0,0,0,0,0,0,-1,1560,533,4.81605,0.722115
343,491,6.14478,-1.44281,0,0,0,0,0,0,0,-1,1567,533,6.14474,1.44281
350,491,6.36353,-1.30792,0,0,0,0,0,0,0,-1,1574,533,6.36352,1.3079
357,491,6.69482,-1.06018,0,0,0,0,0,0,0,-1,1581,533,6.69489,1.06018
364,491,8.01086,-1.69604,0,0,0,0,0,0,0,-1,1588,533,8.01087,1.69607
371,491,8.2135,-0.539307,0,0,0,0,0,0,0,-1,1595,533,8.21348,0.53929
378,491,13.3589,2.17267,0,0,0,0,0,0,0,-1,1602,533,13.3589,-2.17264
385,491,8.08228,-4.95471,0,0,0,0,0,0,0,-1,1609,533,8.08227,4.95474
392,491,2.88721,-4.30988,0,0,0,0,0,0,0,-1,1616,533,2.88716,4.30986
399,491,8.95862,-8.55518,0,0,0,0,0,0,0,-1,1623,533,8.95864,8.55516
406,491,8.16541,-9.00806,0,0,0,0,0,0,0,-1,1630,533,8.16535,9.00807
413,491,5.31848,-3.7124,0,0,0,0,0,0,0,-1,1637,533,5.31849,3.7124
420,491,4.86389,-3.95892,0,0,0,0,0,0,0,-1,1644,533,4.86387,3.95893
427,491,11.5096,-15.2742,0,0,0,0,0,0,0,-1,1651,533,11.5096,15.2742
434,491,15.2852,-23.8655,0,0,0,0,0,0,0,-1,1658,533,15.2852,23.8655
441,491,15.4668,-22.9012,0.00142852,6.36182e-05,-0.00216361,0.00301476,-0.00152262,-0.632625,0.00266645,0.0492103,1665,533,15.4668,22.9012
448,491,15.429,-22.5594,0.00149821,0.000347509,-0.00170349,0.00272088,-0.000875167,-0.622539,0.00216542,0.0343377,1672,533,15.429,22.5594
455,491,15.4343,-21.937,0.00152585,0.000701824,-0.00131212,0.00248913,-0.000261451,-0.63327,0.00175308,0.0190504,1679,533,15.4343,21.937
462,491,15.4297,-21.3323,0.00150598,0.000826709,-0.000985275,0.00220852,0.000124175,-0.619419,0.00143275,0.015834,1686,533,15.4296,21.3323
469,491,15.4058,-20.7232,0.00150194,0.000913907,-0.000518901,0.00180434,0.000611516,-0.527642,0.0010596,0.0149901,1693,533,15.4058,20.7232
476,491,15.3949,-20.0911,0.0014417,0.00102442,-6.88692e-05,0.00145277,0.00101334,-0.159411,0.000860299,0.0103573,1700,533,15.3948,20.0911
483,491,15.3624,-19.4541,0.00123401,0.00105842,0.000370811,0.00152728,0.000765153,0.669161,0.000881774,0.0120171,1707,533,15.3624,19.4541
490,491,15.3271,-18.8614,0.000782177,0.00114729,0.00072076,0.00170826,0.000221215,0.909433,0.00107273,0.010883,1714,533,15.3271,18.8614
497,491,15.3165,-18.2194,0.000233734,0.00136952,0.0011816,0.00211261,-0.000509357,1.00941,0.00160536,0.0119576,1721,533,15.3166,18.2194
504,491,15.3077,-17.5481,-0.00046976,0.00133318,0.00156071,0.00223406,-0.00137064,1.04729,0.00210098,0.0139313,1728,533,15.3078,17.5481
511,491,15.2504,-16.903,-0.00138243,0.00133003,0.00184683,0.00226512,-0.00231752,1.1021,0.00264584,0.0137187,1735,533,15.2504,16.903
518,491,15.2161,-16.2918,-0.00253238,0.00136927,0.0019946,0.00220845,-0.00337156,1.17255,0.00324487,0.0106944,1742,533,15.2161,16.2918
525,491,15.2178,-15.639,-0.00378448,0.0013642,0.00206563,0.00209047,-0.00451075,1.2327,0.00389567,0.0100914,1749,533,15.2178,15.6391
532,491,15.1895,-14.9781,-0.00511868,0.00141657,0.00206803,0.002016,-0.00571811,1.28867,0.00463267,0.0222422,1756,533,15.1895,14.9781
539,491,15.0088,-14.3909,-0.00654709,0.00150752,0.00195442,0.0019567,-0.00699627,1.34489,0.00543512,0.0403857,1763,533,15.0088,14.3909
546,491,14.6881,-13.5815,0,0,0,0,0,0,0,-1,1770,533,14.6881,13.5816
553,491,10.5021,-7.77869,0,0,0,0,0,0,0,-1,1777,533,10.502,7.77871
560,491,6.28455,-1.43585,0,0,0,0,0,0,0,-1,1784,533,6.28458,1.43586
567,491,5.67651,-1.3562,0,0,0,0,0,0,0,-1,1791,533,5.67649,1.3562
574,491,8.0719,1.58325,0,0,0,0,0,0,0,-1,1798,533,8.07195,-1.58326
581,491,9.44812,1.60931,0,0,0,0,0,0,0,-1,1805,533,9.44808,-1.60933
588,491,11.0497,1.54962,0,0,0,0,0,0,0,-1,1812,533,11.0496,-1.54963
595,491,0,0,0,0,0,0,0,0,0,-1,1819,533,0,0
602,491,0,0,0,0,0,0,0,0,0,-1,1826,533,0,0
609,491,0,0,0,0,0,0,0,0,0,-1,1833,533,0,0
616,491,0,0,0,0,0,0,0,0,0,-1,1840,533,0,0
623,491,0,0,0,0,0,0,0,0,0,-1,1847,533,0,0
630,491,0,0,0,0,0,0,0,0,0,-1,1854,533,0,0
637,491,0,0,0,0,0,0,0,0,0,-1,1861,533,0,0
644,491,0,0,0,0,0,0,0,0,0,-1,1868,533,0,0
651,491,0,0,0,0,0,0,0,0,0,-1,1875,533,0,0
658,491,0,0,0,0,0,0,0,0,0,-1,1882,533,0,0
665,491,0,0,0,0,0,0,0,0,0,-1,1889,533,0,0
672,491,0,0,0,0,0,0,0,0,0,-1,1896,533,0,0
679,491,0,0,0,0,0,0,0,0,0,-1,1903,533,0,0
686,491,0,0,0,0,0,0,0,0,0,-1,1910,533,0,0
693,491,0,0,0,0,0,0,0,0,0,-1,1917,533,0,0
700,491,0,0,0,0,0,0,0,0,0,-1,1924,533,0,0
707,491,0,0,0,0,0,0,0,0,0,-1,1931,533,0,0
714,491,0,0,0,0,0,0,0,0,0,-1,1938,533,0,0
721,491,0,0,0,0,0,0,0,0,0,-1,1945,533,0,0
728,491,0,0,0,0,0,0,0,0,0,-1,1952,533,0,0
735,491,0,0,0,0,0,0,0,0,0,-1,1959,533,0,0
742,491,0,0,0,0,0,0,0,0,0,-1,1966,533,0,0
749,491,0,0,0,0,0,0,0,0,0,-1,1973,533,0,0
756,491,0,0,0,0,0,0,0,0,0,-1,1980,533,0,0
763,491,0,0,0,0,0,0,0,0,0,-1,1987,533,0,0
770,491,0,0,0,0,0,0,0,0,0,-1,1994,533,0,0
777,491,0,0,0,0,0,0,0,0,0,-1,2001,533,0,0
784,491,0,0,0,0,0,0,0,0,0,-1,2008,533,0,0
791,491,0,0,0,0,0,0,0,0,0,-1,2015,533,0,0
798,491,0,0,0,0,0,0,0,0,0,-1,2022,533,0,0
805,491,0,0,0,0,0,0,0,0,0,-1,2029,533,0,0
812,491,0,0,0,0,0,0,0,0,0,-1,2036,533,0,0
-700,484,0,0,0,0,0,0,0,0,0,-1,524,540,0,0
-693,484,0,0,0,0,0,0,0,0,0,-1,531,540,0,0
-686,484,0,0,0,0,0,0,0,0,0,-1,538,540,0,0
-679,484,0,0,0,0,0,0,0,0,0,-1,545,540,0,0
-672,484,0,0,0,0,0,0,0,0,0,-1,552,540,0,0
-665,484,0,0,0,0,0,0,0,0,0,-1,559,540,0,0
-658,484,0,0,0,0,0,0,0,0,0,-1,566,540,0,0
-651,484,0,0,0,0,0,0,0,0,0,-1,573,540,0,0
-644,484,0,0,0,0,0,0,0,0,0,-1,580,540,0,0
-637,484,0,0,0,0,0,0,0,0,0,-1,587,540,0,0
-630,484,0,0,0,0,0,0,0,0,0,-1,594,540,0,0
-623,484,0,0,0,0,0,0,0,0,0,-1,601,540,0,0
-616,484,0,0,0,0,0,0,0,0,0,-1,608,540,0,0
-609,484,0,0,0,0,0,0,0,0,0,-1,615,540,0,0
-602,484,0,0,0,0,0,0,0,0,0,-1,622,540,0,0
-595,484,0,0,0,0,0,0,0,0,0,-1,629,540,0,0
-588,484,0,0,0,0,0,0,0,0,0,-1,636,540,0,0
-581,484,0,0,0,0,0,0,0,0,0,-1,643,540,0,0
-574,484,0,0,0,0,0,0,0,0,0,-1,650,540,0,0
-567,484,0,0,0,0,0,0,0,0,0,-1,657,540,0,0
-560,484,0,0,0,0,0,0,0,0,0,-1,664,540,0,0
-553,484,0,0,0,0,0,0,0,0,0,-1,671,540,0,0
-546,484,0,0,0,0,0,0,0,0,0,-1,678,540,0,0
-539,484,0,0,0,0,0,0,0,0,0,-1,685,540,0,0
-532,484,0,0,0,0,0,0,0,0,0,-1,692,540,0,0
-525,484,0,0,0,0,0,0,0,0,0,-1,699,540,0,0
-518,484,0,0,0,0,0,0,0,0,0,-1,706,540,0,0
-511,484,0,0,0,0,0,0,0,0,0,-1,713,540,0,0
-504,484,0,0,0,0,0,0,0,0,0,-1,720,540,0,0
-497,484,0,0,0,0,0,0,0,0,0,-1,727,540,0,0
-490,484,0,0,0,0,0,0,0,0,0,-1,734,540,0,0
-483,484,0,0,0,0,0,0,0,0,0,-1,741,540,0,0
-476,484,-8.46552,1.44702,0,0,0,0,0,0,0,-1,748,540,-8.46554,-1.44702
-469,484,-7.82343,1.70355,0,0,0,0,0,0,0,-1,755,540,-7.82345,-1.70355
-462,484,-8.36987,3.08612,0,0,0,0,0,0,0,-1,762,540,-8.36988,-3.0861
-455,484,-6.77197,2.07092,0,0,0,0,0,0,0,-1,769,540,-6.77197,-2.07094
-448,484,3.54895,-1.40106,0,0,0,0,0,0,0,-1,776,540,3.54897,1.40106
-441,484,4.28906,-3.05884,0,0,0,0,0,0,0,-1,783,540,4.28905,3.05883
-434,484,-2.17548,-5.07245,0,0,0,0,0,0,0,-1,790,540,-2.17546,5.07243
-427,484,-4.19574,-13.8243,0,0,0,0,0,0,0,-1,797,540,-4.19576,13.8243
-420,484,-4.17712,-14.7375,0,0,0,0,0,0,0,-1,804,540,-4.17712,14.7375
-413,484,-4.19019,-15.5129,0.00178682,0.0165287,-0.00820849,0.02019,-0.00187447,-1.15124,0.0141263,0.0306554,811,540,-4.19017,15.5128
-406,484,-4.2561,-16.2476,0.00165042,0.0136924,-0.00716162,0.0170278,-0.00168492,-1.13494,0.0119531,0.0157471,818,540,-4.25611,16.2476
-399,484,-4.32275,-16.9372,0.00144817,0.0110007,-0.00599448,0.013889,-0.00144019,-1.12178,0.00977486,0.0162498,825,540,-4.32275,16.9372
-392,484,-4.37726,-17.5513,0.00136922,0.00855233,-0.00486668,0.0110092,-0.00108768,-1.10328,0.00772761,0.0187303,832,540,-4.37727,17.5513
-385,484,-4.4223,-18.1811,0.00144644,0.00635722,-0.00385674,0.00847385,-0.000670192,-1.06886,0.00588536,0.0134337,839,540,-4.42227,18.1811
-378,484,-4.41083,-18.7828,0.00155792,0.00443458,-0.0029081,0.00624061,-0.000248102,-1.01506,0.00424552,0.0143044,846,540,-4.41081,18.7828
-371,484,-4.43866,-19.3892,0.00169786,0.0026711,-0.00209227,0.00433259,3.63707e-05,-0.899657,0.00287635,0.0156209,853,540,-4.43865,19.3892
-364,484,-4.47351,-19.9919,0.0018835,0.00101488,-0.00129173,0.00281198,8.63975e-05,-0.623224,0.00184653,0.0112731,860,540,-4.47351,19.9919
-357,484,-4.48987,-20.5851,0.00217344,-0.000309253,-0.000604955,0.002313,-0.000448817,-0.226733,0.00171134,0.0124816,867,540,-4.48989,20.5851
-350,484,-4.50879,-21.1807,0.00258434,-0.00137509,-0.000136168,0.00258902,-0.00137977,-0.0343367,0.00232656,0.0145192,874,540,-4.5088,21.1807
-343,484,-4.50824,-21.8083,0.00297159,-0.00227272,0.000249934,0.00298347,-0.0022846,0.0475146,0.00305043,0.0227226,881,540,-4.50827,21.8083
-336,484,-4.55115,-22.4314,0.00339861,-0.00314902,0.000619637,0.00345673,-0.00320714,0.093529,0.00384829,0.0256612,888,540,-4.55112,22.4314
-329,484,-4.5722,-22.9637,0.00404797,-0.00386751,0.000856444,0.00413958,-0.00395912,0.106556,0.00467617,0.0372481,895,540,-4.57218,22.9637
-322,484,-4.52283,-23.5285,0,0,0,0,0,0,0,-1,902,540,-4.5228,23.5285
-315,484,-4.42358,-24.1168,0,0,0,0,0,0,0,-1,909,540,-4.42358,24.1168
-308,484,-1.32623,-8.9317,0,0,0,0,0,0,0,-1,916,540,-1.32626,8.93173
-301,484,-1.33453,-6.52667,0,0,0,0,0,0,0,-1,923,540,-1.33454,6.5267
-294,484,-1.61224,-8.17059,0,0,0,0,0,0,0,-1,930,540,-1.61227,8.17058
-287,484,-0.715759,-5.62103,0,0,0,0,0,0,0,-1,937,540,-0.715772,5.62105
-280,484,2.66742,-1.6795,0,0,0,0,0,0,0,-1,944,540,2.6674,1.67949
-273,484,2.53125,-2.22296,0,0,0,0,0,0,0,-1,951,540,2.53128,2.22295
-266,484,2.6778,-2.72058,0,0,0,0,0,0,0,-1,958,540,2.6778,2.72061
-259,484,2.41718,-2.59894,0,0,0,0,0,0,0,-1,965,540,2.41717,2.59892
-252,484,10.6069,-11.696,0,0,0,0,0,0,0,-1,972,540,10.6069,11.696
-245,484,6.34106,-11.6107,0,0,0,0,0,0,0,-1,979,540,6.34104,11.6107
-238,484,4.89319,-8.54059,0,0,0,0,0,0,0,-1,986,540,4.89321,8.5406
-231,484,3.47675,-5.22064,0,0,0,0,0,0,0,-1,993,540,3.47676,5.22067
-224,484,1.71344,-2.03473,0,0,0,0,0,0,0,-1,1000,540,1.71342,2.03472
-217,484,-0.745056,1.17358,0,0,0,0,0,0,0,-1,1007,540,-0.745043,-1.17359
-210,484,0,0,0,0,0,0,0,0,0,-1,1014,540,0,0
-203,484,0,0,0,0,0,0,0,0,0,-1,1021,540,0,0
-196,484,0,0,0,0,0,0,0,0,0,-1,1028,540,0,0
-189,484,0,0,0,0,0,0,0,0,0,-1,1035,540,0,0
-182,484,0,0,0,0,0,0,0,0,0,-1,1042,540,0,0
-175,484,0,0,0,0,0,0,0,0,0,-1,1049,540,0,0
-168,484,0,0,0,0,0,0,0,0,0,-1,1056,540,0,0
-161,484,0,0,0,0,0,0,0,0,0,-1,1063,540,0,0
-154,484,0,0,0,0,0,0,0,0,0,-1,1070,540,0,0
-147,484,0,0,0,0,0,0,0,0,0,-1,1077,540,0,0
-140,484,0,0,0,0,0,0,0,0,0,-1,1084,540,0,0
-133,484,0,0,0,0,0,0,0,0,0,-1,1091,540,0,0
-126,484,0,0,0,0,0,0,0,0,0,-1,1098,540,0,0
-119,484,0,0,0,0,0,0,0,0,0,-1,1105,540,0,0
-112,484,0,0,0,0,0,0,0,0,0,-1,1112,540,0,0
-105,484,0,0,0,0,0,0,0,0,0,-1,1119,540,0,0
-98,484,0,0,0,0,0,0,0,0,0,-1,1126,540,0,0
-91,484,0,0,0,0,0,0,0,0,0,-1,1133,540,0,0
-84,484,0,0,0,0,0,0,0,0,0,-1,1140,540,0,0
-77,484,0,0,0,0,0,0,0,0,0,-1,1147,540,0,0
-70,484,0,0,0,0,0,0,0,0,0,-1,1154,540,0,0
-63,484,0,0,0,0,0,0,0,0,0,-1,1161,540,0,0
-56,484,0,0,0,0,0,0,0,0,0,-1,1168,540,0,0
-49,484,0,0,0,0,0,0,0,0,0,-1,1175,540,0,0
-42,484,0,0,0,0,0,0,0,0,0,-1,1182,540,0,0
-35,484,0,0,0,0,0,0,0,0,0,-1,1189,540,0,0
-28,484,0,0,0,0,0,0,0,0,0,-1,1196,540,0,0
-21,484,0,0,0,0,0,0,0,0,0,-1,1203,540,0,0
-14,484,0,0,0,0,0,0,0,0,0,-1,1210,540,0,0
-7,484,0,0,0,0,0,0,0,0,0,-1,1217,540,0,0
0,484,0,0,0,0,0,0,0,0,0,-1,1224,540,0,0
7,484,0,0,0,0,0,0,0,0,0,-1,1231,540,0,0
14,484,0,0,0,0,0,0,0,0,0,-1,1238,540,0,0
21,484,0,0,0,0,0,0,0,0,0,-1,1245,540,0,0
28,484,0,0,0,0,0,0,0,0,0,-1,1252,540,0,0
35,484,0,0,0,0,0,0,0,0,0,-1,1259,540,0,0
42,484,0,0,0,0,0,0,0,0,0,-1,1266,540,0,0
49,484,0,0,0,0,0,0,0,0,0,-1,1273,540,0,0
56,484,0,0,0,0,0,0,0,0,0,-1,1280,540,0,0
63,484,0,0,0,0,0,0,0,0,0,-1,1287,540,0,0
70,484,0,0,0,0,0,0,0,0,0,-1,1294,540,0,0
77,484,0,0,0,0,0,0,0,0,0,-1,1301,540,0,0
84,484,0,0,0,0,0,0,0,0,0,-1,1308,540,0,0
91,484,0,0,0,0,0,0,0,0,0,-1,1315,540,0,0
98,484,0,0,0,0,0,0,0,0,0,-1,1322,540,0,0
105,484,0,0,0,0,0,0,0,0,0,-1,1329,540,0,0
112,484,0,0,0,0,0,0,0,0,0,-1,1336,540,0,0
119,484,0,0,0,0,0,0,0,0,0,-1,1343,540,0,0
126,484,0,0,0,0,0,0,0,0,0,-1,1350,540,0,0
133,484,0,0,0,0,0,0,0,0,0,-1,1357,540,0,0
140,484,0,0,0,0,0,0,0,0,0,-1,1364,540,0,0
147,484,0,0,0,0,0,0,0,0,0,-1,1371,540,0,0
154,484,0,0,0,0,0,0,0,0,0,-1,1378,540,0,0
161,484,0,0,0,0,0,0,0,0,0,-1,1385,540,0,0
168,484,0,0,0,0,0,0,0,0,0,-1,1392,540,0,0
175,484,0,0,0,0,0,0,0,0,0,-1,1399,540,0,0
182,484,0,0,0,0,0,0,0,0,0,-1,1406,540,0,0
189,484,0,0,0,0,0,0,0,0,0,-1,1413,540,0,0
196,484,0,0,0,0,0,0,0,0,0,-1,1420,540,0,0
203,484,0,0,0,0,0,0,0,0,0,-1,1427,540,0,0
210,484,0,0,0,0,0,0,0,0,0,-1,1434,540,0,0
217,484,0,0,0,0,0,0,0,0,0,-1,1441,540,0,0
224,484,0,0,0,0,0,0,0,0,0,-1,1448,540,0,0
231,484,0,0,0,0,0,0,0,0,0,-1,1455,540,0,0
238,484,0,0,0,0,0,0,0,0,0,-1,1462,540,0,0
245,484,0,0,0,0,0,0,0,0,0,-1,1469,540,0,0
252,484,0,0,0,0,0,0,0,0,0,-1,1476,540,0,0
259,484,0,0,0,0,0,0,0,0,0,-1,1483,540,0,0
266,484,0,0,0,0,0,0,0,0,0,-1,1490,540,0,0
273,484,0,0,0,0,0,0,0,0,0,-1,1497,540,0,0
280,484,0,0,0,0,0,0,0,0,0,-1,1504,540,0,0
287,484,0,0,0,0,0,0,0,0,0,-1,1511,540,0,0
294,484,0,0,0,0,0,0,0,0,0,-1,1518,540,0,0
301,484,0,0,0,0,0,0,0,0,0,-1,1525,540,0,0
308,484,0,0,0,0,0,0,0,0,0,-1,1532,540,0,0
315,484,0,0,0,0,0,0,0,0,0,-1,1539,540,0,0
322,484,0,0,0,0,0,0,0,0,0,-1,1546,540,0,0
329,484,0,0,0,0,0,0,0,0,0,-1,1553,540,0,0
336,484,4.38708,-1.64136,0,0,0,0,0,0,0,-1,1560,540,4.38704,1.64138
343,484,7.57996,-1.05457,0,0,0,0,0,0,0,-1,1567,540,7.57995,1.05454
350,484,8.10425,-1.18878,0,0,0,0,0,0,0,-1,1574,540,8.1043,1.18877
357,484,7.74902,-3.80286,0,0,0,0,0,0,0,-1,1581,540,7.74901,3.80287
364,484,6.31262,-3.87213,0,0,0,0,0,0,0,-1,1588,540,6.31263,3.87215
371,484,7.21008,0.973511,0,0,0,0,0,0,0,-1,1595,540,7.21014,-0.973541
378,484,11.0563,1.5014,0,0,0,0,0,0,0,-1,1602,540,11.0563,-1.5014
385,484,14.3469,2.5545,0,0,0,0,0,0,0,-1,1609,540,14.3469,-2.55453
392,484,7.39453,-4.95026,0,0,0,0,0,0,0,-1,1616,540,7.39448,4.95023
399,484,7.14417,-2.5639,0,0,0,0,0,0,0,-1,1623,540,7.14417,2.56391
406,484,7.88953,-2.47321,0,0,0,0,0,0,0,-1,1630,540,7.88954,2.47323
413,484,4.4895,-1.08673,0,0,0,0,0,0,0,-1,1637,540,4.48952,1.08674
420,484,4.50012,-2.11255,0,0,0,0,0,0,0,-1,1644,540,4.50012,2.11256
427,484,5.28601,-3.54053,0,0,0,0,0,0,0,-1,1651,540,5.28599,3.54051
434,484,11.1488,-13.5359,0,0,0,0,0,0,0,-1,1658,540,11.1489,13.5359
441,484,16.0074,-22.5637,0,0,0,0,0,0,0,-1,1665,540,16.0074,22.5637
448,484,15.9871,-22.6608,0,0,0,0,0,0,0,-1,1672,540,15.9871,22.6608
455,484,16.0394,-21.9952,0,0,0,0,0,0,0,-1,1679,540,16.0395,21.9952
462,484,16.0547,-21.3279,0.00161168,0.000794499,-0.00154805,0.00280415,-0.000397974,-0.656371,0.00201523,0.0290387,1686,540,16.0547,21.3279
469,484,16.0474,-20.6797,0.00163967,0.000890204,-0.00100965,0.00234189,0.000187987,-0.607702,0.00150252,0.0189759,1693,540,16.0474,20.6797
476,484,16.0157,-20.0315,0.00167605,0.00100305,-0.000556791,0.00199013,0.000688975,-0.513589,0.00116698,0.0169065,1700,540,16.0157,20.0315
483,484,15.9854,-19.4261,0.00154729,0.000985501,-7.69028e-05,0.00155762,0.000975163,-0.133616,0.000908771,0.013018,1707,540,15.9854,19.4261
490,484,15.9612,-18.8345,0.00115686,0.00108422,0.000278151,0.00140105,0.000840027,0.720473,0.000814227,0.0125699,1714,540,15.9612,18.8346
497,484,15.9464,-18.1979,0.000682702,0.00134184,0.000754853,0.00183594,0.00018861,0.991227,0.00116618,0.0134623,1721,540,15.9464,18.1979
504,484,15.937,-17.5557,7.02667e-05,0.00127883,0.00111397,0.00194186,-0.000592762,1.03392,0.0015309,0.0161839,1728,540,15.937,17.5557
511,484,15.9229,-16.9221,-0.000719919,0.00126547,0.00137842,0.00197145,-0.00142589,1.09747,0.00196987,0.0197305,1735,540,15.9228,16.922
518,484,15.8942,-16.2977,-0.00170038,0.00130379,0.00151216,0.00193311,-0.00232969,1.17643,0.00246468,0.0162313,1742,540,15.8942,16.2977
525,484,15.855,-15.6436,-0.00272973,0.00132531,0.0015822,0.0018696,-0.00327402,1.23947,0.00300634,0.0129979,1749,540,15.855,15.6436
532,484,15.8378,-14.9365,-0.00377698,0.00143941,0.00161518,0.00189903,-0.0042366,1.29356,0.00362709,0.014867,1756,540,15.8377,14.9365
539,484,15.7662,-14.2606,-0.00484887,0.00157888,0.00157062,0.00194213,-0.00521212,1.34351,0.00427191,0.0380621,1763,540,15.7662,14.2606
546,484,15.7411,-13.5798,0,0,0,0,0,0,0,-1,1770,540,15.741,13.5798
553,484,12.4246,-8.96423,0,0,0,0,0,0,0,-1,1777,540,12.4246,8.96422
560,484,10.0549,-5.47931,0,0,0,0,0,0,0,-1,1784,540,10.055,5.47928
567,484,7.78223,-1.38312,0,0,0,0,0,0,0,-1,1791,540,7.78224,1.38311
574,484,5.74463,1.50922,0,0,0,0,0,0,0,-1,1798,540,5.74463,-1.50924
581,484,10.34,2.9491,0,0,0,0,0,0,0,-1,1805,540,10.34,-2.94912
588,484,10.6669,2.88568,0,0,0,0,0,0,0,-1,1812,540,10.6669,-2.88567
595,484,10.7233,1.04767,0,0,0,0,0,0,0,-1,1819,540,10.7233,-1.04766
602,484,0,0,0,0,0,0,0,0,0,-1,1826,540,0,0
609,484,0,0,0,0,0,0,0,0,0,-1,1833,540,0,0
616,484,0,0,0,0,0,0,0,0,0,-1,1840,540,0,0
623,484,0,0,0,0,0,0,0,0,0,-1,1847,540,0,0
630,484,0,0,0,0,0,0,0,0,0,-1,1854,540,0,0
637,484,0,0,0,0,0,0,0,0,0,-1,1861,540,0,0
644,484,0,0,0,0,0,0,0,0,0,-1,1868,540,0,0
651,484,0,0,0,0,0,0,0,0,0,-1,1875,540,0,0
658,484,0,0,0,0,0,0,0,0,0,-1,1882,540,0,0
665,484,0,0,0,0,0,0,0,0,0,-1,1889,540,0,0
672,484,0,0,0,0,0,0,0,0,0,-1,1896,540,0,0
679,484,0,0,0,0,0,0,0,0,0,-1,1903,540,0,0
686,484,0,0,0,0,0,0,0,0,0,-1,1910,540,0,0
693,484,0,0,0,0,0,0,0,0,0,-1,1917,540,0,0
700,484,0,0,0,0,0,0,0,0,0,-1,1924,540,0,0
707,484,0,0,0,0,0,0,0,0,0,-1,1931,540,0,0
714,484,0,0,0,0,0,0,0,0,0,-1,1938,540,0,0
721,484,0,0,0,0,0,0,0,0,0,-1,1945,540,0,0
728,484,0,0,0,0,0,0,0,0,0,-1,1952,540,0,0
735,484,0,0,0,0,0,0,0,0,0,-1,1959,540,0,0
742,484,0,0,0,0,0,0,0,0,0,-1,1966,540,0,0
749,484,0,0,0,0,0,0,0,0,0,-1,1973,540,0,0
756,484,0,0,0,0,0,0,0,0,0,-1,1980,540,0,0
763,484,0,0,0,0,0,0,0,0,0,-1,1987,540,0,0
770,484,0,0,0,0,0,0,0,0,0,-1,1994,540,0,0
777,484,0,0,0,0,0,0,0,0,0,-1,2001,540,0,0
784,484,0,0,0,0,0,0,0,0,0,-1,2008,540,0,0
791,484,0,0,0,0,0,0,0,0,0,-1,2015,540,0,0
798,484,0,0,0,0,0,0,0,0,0,-1,2022,540,0,0
805,484,0,0,0,0,0,0,0,0,0,-1,2029,540,0,0
812,484,0,0,0,0,0,0,0,0,0,-1,2036,540,0,0
-700,477,0,0,0,0,0,0,0,0,0,-1,524,547,0,0
-693,477,0,0,0,0,0,0,0,0,0,-1,531,547,0,0
-686,477,0,0,0,0,0,0,0,0,0,-1,538,547,0,0
-679,477,0,0,0,0,0,0,0,0,0,-1,545,547,0,0
-672,477,0,0,0,0,0,0,0,0,0,-1,552,547,0,0
-665,477,0,0,0,0,0,0,0,0,0,-1,559,547,0,0
-658,477,0,0,0,0,0,0,0,0,0,-1,566,547,0,0
-651,477,0,0,0,0,0,0,0,0,0,-1,573,547,0,0
-644,477,0,0,0,0,0,0,0,0,0,-1,580,547,0,0
-637,477,0,0,0,0,0,0,0,0,0,-1,587,547,0,0
-630,477,0,0,0,0,0,0,0,0,0,-1,594,547,0,0
-623,477,0,0,0,0,0,0,0,0,0,-1,601,547,0,0
-616,477,0,0,0,0,0,0,0,0,0,-1,608,547,0,0
-609,477,0,0,0,0,0,0,0,0,0,-1,615,547,0,0
-602,477,0,0,0,0,0,0,0,0,0,-1,622,547,0,0
-595,477,0,0,0,0,0,0,0,0,0,-1,629,547,0,0
-588,477,0,0,0,0,0,0,0,0,0,-1,636,547,0,0
-581,477,0,0,0,0,0,0,0,0,0,-1,643,547,0,0
-574,477,0,0,0,0,0,0,0,0,0,-1,650,547,0,0
-567,477,0,0,0,0,0,0,0,0,0,-1,657,547,0,0
-560,477,0,0,0,0,0,0,0,0,0,-1,664,547,0,0
-553,477,0,0,0,0,0,0,0,0,0,-1,671,547,0,0
-546,477,0,0,0,0,0,0,0,0,0,-1,678,547,0,0
-539,477,0,0,0,0,0,0,0,0,0,-1,685,547,0,0
-532,477,0,0,0,0,0,0,0,0,0,-1,692,547,0,0
-525,477,0,0,0,0,0,0,0,0,0,-1,699,547,0,0
-518,477,0,0,0,0,0,0,0,0,0,-1,706,547,0,0
-511,477,0,0,0,0,0,0,0,0,0,-1,713,547,0,0
-504,477,0,0,0,0,0,0,0,0,0,-1,720,547,0,0
-497,477,0,0,0,0,0,0,0,0,0,-1,727,547,0,0
-490,477,0,0,0,0,0,0,0,0,0,-1,734,547,0,0
-483,477,-7.73151,-0.224182,0,0,0,0,0,0,0,-1,741,547,-7.73152,0.224176
-476,477,-6.25806,-0.310547,0,0,0,0,0,0,0,-1,748,547,-6.25804,0.310549
-469,477,-7.26617,0.525085,0,0,0,0,0,0,0,-1,755,547,-7.2662,-0.525111
-462,477,-6.65143,1.06042,0,0,0,0,0,0,0,-1,762,547,-6.65143,-1.06043
-455,477,-5.31757,0.429016,0,0,0,0,0,0,0,-1,769,547,-5.31756,-0.42902
-448,477,-4.0697,0.273376,0,0,0,0,0,0,0,-1,776,547,-4.06971,-0.273363
-441,477,-2.47504,-4.76971,0,0,0,0,0,0,0,-1,783,547,-2.47505,4.76973
-434,477,-4.5744,-13.8731,0,0,0,0,0,0,0,-1,790,547,-4.57441,13.8731
-427,477,-4.79175,-14.1162,0.000976912,0.0176498,-0.00737291,0.0204424,-0.00181571,-1.20873,0.0142721,0.0451489,797,547,-4.79174,14.1162
-420,477,-4.84766,-14.5724,0.00110721,0.0150446,-0.00678505,0.0178021,-0.00165033,-1.18477,0.0124547,0.0357216,804,547,-4.84768,14.5724
-413,477,-4.83826,-15.496,0.00120518,0.0126026,-0.00610773,0.0152573,-0.00144954,-1.16078,0.0106875,0.0201751,811,547,-4.83826,15.496
-406,477,-4.92462,-16.2382,0.00119893,0.0102422,-0.00525081,0.01265,-0.0012088,-1.14086,0.00886377,0.0116784,818,547,-4.9246,16.2381
-399,477,-4.92633,-16.875,0.00115792,0.00802362,-0.00430514,0.010097,-0.000915464,-1.12197,0.00705632,0.019217,825,547,-4.92632,16.875
-392,477,-4.99268,-17.5177,0.00122239,0.00595683,-0.00338499,0.00772021,-0.000540995,-1.09054,0.00533629,0.0174752,832,547,-4.9927,17.5177
-385,477,-5.00616,-18.1334,0.00140669,0.00408513,-0.00257134,0.0056451,-0.000153279,-1.02548,0.00381552,0.0147773,839,547,-5.00619,18.1334
-378,477,-5.01257,-18.7553,0.00162227,0.00242973,-0.00178232,0.00385347,0.000198529,-0.896778,0.00250543,0.0133293,846,547,-5.0126,18.7553
-371,477,-5.05719,-19.3474,0.00188137,0.000898745,-0.00109494,0.00259017,0.000189941,-0.574507,0.00166708,0.0131665,853,547,-5.05722,19.3473
-364,477,-5.07782,-19.934,0.00220216,-0.000513042,-0.000444597,0.00227311,-0.000583988,-0.15824,0.00174299,0.0126254,860,547,-5.0778,19.9339
-357,477,-5.09595,-20.5373,0.00264292,-0.00165781,8.57882e-05,0.00264463,-0.00165952,0.0199368,0.0025066,0.0113061,867,547,-5.09594,20.5373
-350,477,-5.11896,-21.1382,0.00327242,-0.00240627,0.000307449,0.00328902,-0.00242286,0.0539308,0.00331037,0.0106534,874,547,-5.11897,21.1382
-343,477,-5.04456,-21.7632,0.00384992,-0.00313362,0.000514231,0.00388758,-0.00317128,0.0731093,0.00408242,0.0205662,881,547,-5.04457,21.7632
-336,477,-4.99121,-22.3723,0.00445842,-0.00392423,0.000736616,0.00452266,-0.00398846,0.0869856,0.00491712,0.0450493,888,547,-4.99122,22.3723
-329,477,-4.83716,-22.9637,0,0,0,0,0,0,0,-1,895,547,-4.83715,22.9637
-322,477,-2.04822,-12.0026,0,0,0,0,0,0,0,-1,902,547,-2.04819,12.0026
-315,477,-1.67358,-9.15253,0,0,0,0,0,0,0,-1,909,547,-1.67356,9.15253
-308,477,-1.30127,-6.55188,0,0,0,0,0,0,0,-1,916,547,-1.30128,6.55185
-301,477,-1.21185,-6.28351,0,0,0,0,0,0,0,-1,923,547,-1.21184,6.28352
-294,477,-0.352905,3.27142,0,0,0,0,0,0,0,-1,930,547,-0.35292,-3.27144
-287,477,3.54364,2.15399,0,0,0,0,0,0,0,-1,937,547,3.54362,-2.15396
-280,477,1.97308,-0.954163,0,0,0,0,0,0,0,-1,944,547,1.9731,0.954178
-273,477,2.11621,-3.76709,0,0,0,0,0,0,0,-1,951,547,2.11619,3.76706
-266,477,2.04669,-3.42389,0,0,0,0,0,0,0,-1,958,547,2.04671,3.42391
-259,477,-1.33478,-3.41205,0,0,0,0,0,0,0,-1,965,547,-1.3348,3.41206
-252,477,0.597168,-5.32922,0,0,0,0,0,0,0,-1,972,547,0.597144,5.32924
-245,477,8.2309,-8.48492,0,0,0,0,0,0,0,-1,979,547,8.23091,8.48494
-238,477,6.60938,-5.64063,0,0,0,0,0,0,0,-1,986,547,6.60938,5.64063
-231,477,4.71716,-2.52484,0,0,0,0,0,0,0,-1,993,547,4.71716,2.52483
-224,477,0,0,0,0,0,0,0,0,0,-1,1000,547,0,0
-217,477,0,0,0,0,0,0,0,0,0,-1,1007,547,0,0
-210,477,0,0,0,0,0,0,0,0,0,-1,1014,547,0,0
-203,477,0,0,0,0,0,0,0,0,0,-1,1021,547,0,0
-196,477,0,0,0,0,0,0,0,0,0,-1,1028,547,0,0
-189,477,0,0,0,0,0,0,0,0,0,-1,1035,547,0,0
-182,477,0,0,0,0,0,0,0,0,0,-1,1042,547,0,0
-175,477,0,0,0,0,0,0,0,0,0,-1,1049,547,0,0
-168,477,0,0,0,0,0,0,0,0,0,-1,1056,547,0,0
-161,477,0,0,0,0,0,0,0,0,0,-1,1063,547,0,0
-154,477,0,0,0,0,0,0,0,0,0,-1,1070,547,0,0
-147,477,0,0,0,0,0,0,0,0,0,-1,1077,547,0,0
-140,477,0,0,0,0,0,0,0,0,0,-1,1084,547,0,0
-133,477,0,0,0,0,0,0,0,0,0,-1,1091,547,0,0
-126,477,0,0,0,0,0,0,0,0,0,-1,1098,547,0,0
-119,477,0,0,0,0,0,0,0,0,0,-1,1105,547,0,0
-112,477,0,0,0,0,0,0,0,0,0,-1,1112,547,0,0
-105,477,0,0,0,0,0,0,0,0,0,-1,1119,547,0,0
-98,477,0,0,0,0,0,0,0,0,0,-1,1126,547,0,0
-91,477,0,0,0,0,0,0,0,0,0,-1,1133,547,0,0
-84,477,0,0,0,0,0,0,0,0,0,-1,1140,547,0,0
-77,477,0,0,0,0,0,0,0,0,0,-1,1147,547,0,0
-70,477,0,0,0,0,0,0,0,0,0,-1,1154,547,0,0
-63,477,0,0,0,0,0,0,0,0,0,-1,1161,547,0,0
-56,477,0,0,0,0,0,0,0,0,0,-1,1168,547,0,0
-49,477,0,0,0,0,0,0,0,0,0,-1,1175,547,0,0
-42,477,0,0,0,0,0,0,0,0,0,-1,1182,547,0,0
-35,477,0,0,0,0,0,0,0,0,0,-1,1189,547,0,0
-28,477,0,0,0,0,0,0,0,0,0,-1,1196,547,0,0
-21,477,0,0,0,0,0,0,0,0,0,-1,1203,547,0,0
-14,477,0,0,0,0,0,0,0,0,0,-1,1210,547,0,0
-7,477,0,0,0,0,0,0,0,0,0,-1,1217,547,0,0
0,477,0,0,0,0,0,0,0,0,0,-1,1224,547,0,0
7,477,0,0,0,0,0,0,0,0,0,-1,1231,547,0,0
14,477,0,0,0,0,0,0,0,0,0,-1,1238,547,0,0
21,477,0,0,0,0,0,0,0,0,0,-1,1245,547,0,0
28,477,0,0,0,0,0,0,0,0,0,-1,1252,547,0,0
35,477,0,0,0,0,0,0,0,0,0,-1,1259,547,0,0
42,477,0,0,0,0,0,0,0,0,0,-1,1266,547,0,0
49,477,0,0,0,0,0,0,0,0,0,-1,1273,547,0,0
56,477,0,0,0,0,0,0,0,0,0,-1,1280,547,0,0
63,477,0,0,0,0,0,0,0,0,0,-1,1287,547,0,0
70,477,0,0,0,0,0,0,0,0,0,-1,1294,547,0,0
77,477,0,0,0,0,0,0,0,0,0,-1,1301,547,0,0
84,477,0,0,0,0,0,0,0,0,0,-1,1308,547,0,0
91,477,0,0,0,0,0,0,0,0,0,-1,1315,547,0,0
98,477,0,0,0,0,0,0,0,0,0,-1,1322,547,0,0
105,477,0,0,0,0,0,0,0,0,0,-1,1329,547,0,0
112,477,0,0,0,0,0,0,0,0,0,-1,1336,547,0,0
119,477,0,0,0,0,0,0,0,0,0,-1,1343,547,0,0
126,477,0,0,0,0,0,0,0,0,0,-1,1350,547,0,0
133,477,0,0,0,0,0,0,0,0,0,-1,1357,547,0,0
140,477,0,0,0,0,0,0,0,0,0,-1,1364,547,0,0
147,477,0,0,0,0,0,0,0,0,0,-1,1371,547,0,0
154,477,0,0,0,0,0,0,0,0,0,-1,1378,547,0,0
161,477,0,0,0,0,0,0,0,0,0,-1,1385,547,0,0
168,477,0,0,0,0,0,0,0,0,0,-1,1392,547,0,0
175,477,0,0,0,0,0,0,0,0,0,-1,1399,547,0,0
182,477,0,0,0,0,0,0,0,0,0,-1,1406,547,0,0
189,477,0,0,0,0,0,0,0,0,0,-1,1413,547,0,0
196,477,0,0,0,0,0,0,0,0,0,-1,1420,547,0,0
203,477,0,0,0,0,0,0,0,0,0,-1,1427,547,0,0
210,477,0,0,0,0,0,0,0,0,0,-1,1434,547,0,0
217,477,0,0,0,0,0,0,0,0,0,-1,1441,547,0,0
224,477,0,0,0,0,0,0,0,0,0,-1,1448,547,0,0
231,477,0,0,0,0,0,0,0,0,0,-1,1455,547,0,0
238,477,0,0,0,0,0,0,0,0,0,-1,1462,547,0,0
245,477,0,0,0,0,0,0,0,0,0,-1,1469,547,0,0
252,477,0,0,0,0,0,0,0,0,0,-1,1476,547,0,0
259,477,0,0,0,0,0,0,0,0,0,-1,1483,547,0,0
266,477,0,0,0,0,0,0,0,0,0,-1,1490,547,0,0
273,477,0,0,0,0,0,0,0,0,0,-1,1497,547,0,0
280,477,0,0,0,0,0,0,0,0,0,-1,1504,547,0,0
287,477,0,0,0,0,0,0,0,0,0,-1,1511,547,0,0
294,477,0,0,0,0,0,0,0,0,0,-1,1518,547,0,0
301,477,0,0,0,0,0,0,0,0,0,-1,1525,547,0,0
308,477,0,0,0,0,0,0,0,0,0,-1,1532,547,0,0
315,477,0,0,0,0,0,0,0,0,0,-1,1539,547,0,0
322,477,0,0,0,0,0,0,0,0,0,-1,1546,547,0,0
329,477,0,0,0,0,0,0,0,0,0,-1,1553,547,0,0
336,477,0,0,0,0,0,0,0,0,0,-1,1560,547,0,0
343,477,0,0,0,0,0,0,0,0,0,-1,1567,547,0,0
350,477,1.7699,-3.32275,0,0,0,0,0,0,0,-1,1574,547,1.7699,3.32272
357,477,3.073,-4.83313,0,0,0,0,0,0,0,-1,1581,547,3.07303,4.83316
364,477,4.30127,-4.22864,0,0,0,0,0,0,0,-1,1588,547,4.30125,4.22865
371,477,4.57703,0.283264,0,0,0,0,0,0,0,-1,1595,547,4.57706,-0.283262
378,477,8.57947,1.05969,0,0,0,0,0,0,0,-1,1602,547,8.5795,-1.05972
385,477,12.3726,2.02356,0,0,0,0,0,0,0,-1,1609,547,12.3725,-2.02355
392,477,16.4678,2.76843,0,0,0,0,0,0,0,-1,1616,547,16.4678,-2.76845
399,477,8.00037,-2.29523,0,0,0,0,0,0,0,-1,1623,547,8.00031,2.2952
406,477,4.82495,2.7475,0,0,0,0,0,0,0,-1,1630,547,4.825,-2.74752
413,477,4.88171,-0.336426,0,0,0,0,0,0,0,-1,1637,547,4.88169,0.336398
420,477,3.34875,0.102722,0,0,0,0,0,0,0,-1,1644,547,3.34871,-0.1027
427,477,1.66772,-0.373108,0,0,0,0,0,0,0,-1,1651,547,1.66768,0.373104
434,477,3.76978,-2.30798,0,0,0,0,0,0,0,-1,1658,547,3.76974,2.30801
441,477,4.05444,-2.80402,0,0,0,0,0,0,0,-1,1665,547,4.05444,2.804
448,477,10.4247,-11.7421,0,0,0,0,0,0,0,-1,1672,547,10.4247,11.7421
455,477,13.3054,-16.8109,0,0,0,0,0,0,0,-1,1679,547,13.3054,16.8109
462,477,16.6692,-21.3775,0,0,0,0,0,0,0,-1,1686,547,16.6691,21.3775
469,477,16.6892,-20.6508,0,0,0,0,0,0,0,-1,1693,547,16.6892,20.6507
476,477,16.6362,-20.0469,0.00216378,0.000888387,-0.000932646,0.0026559,0.000396267,-0.48553,0.00165441,0.0252337,1700,547,16.6363,20.0469
483,477,16.6255,-19.417,0.00209234,0.000856784,-0.00038681,0.00220345,0.000745678,-0.279706,0.00129412,0.0130281,1707,547,16.6255,19.417
490,477,16.5902,-18.7978,0.00173501,0.00100681,-8.3908e-06,0.00173511,0.00100671,-0.0115205,0.00100605,0.0119692,1714,547,16.5902,18.7978
497,477,16.5592,-18.1492,0.00129426,0.0013231,0.000496199,0.00180509,0.000812272,0.799928,0.00104391,0.0128389,1721,547,16.5592,18.1492
504,477,16.5433,-17.5398,0.00072744,0.00124558,0.000836079,0.00186181,0.000111214,0.935639,0.00120585,0.0174126,1728,547,16.5434,17.5398
511,477,16.5791,-16.9348,1.73149e-05,0.00121748,0.00107782,0.00185101,-0.000616216,1.0394,0.00148273,0.023241,1735,547,16.5791,16.9347
518,477,16.5499,-16.2872,-0.000836944,0.00124022,0.00120137,0.0017897,-0.00138642,1.14182,0.00183866,0.0208028,1742,547,16.55,16.2872
525,477,16.5022,-15.6038,-0.00170973,0.00126561,0.00127117,0.00173473,-0.00217885,1.21725,0.00226435,0.0168815,1749,547,16.5023,15.6038
532,477,16.452,-14.9211,-0.00256579,0.00138172,0.0013279,0.00178684,-0.00297091,1.27469,0.0027751,0.0194067,1756,547,16.452,14.9211
539,477,16.4065,-14.2007,-0.00340671,0.00152764,0.0013406,0.00186834,-0.0037474,1.32193,0.0033022,0.0175494,1763,547,16.4064,14.2007
546,477,16.2927,-13.6496,-0.00415439,0.00193599,0.00138903,0.00223783,-0.00445622,1.35682,0.00393492,0.0410945,1770,547,16.2927,13.6496
553,477,16.3326,-12.6402,0,0,0,0,0,0,0,-1,1777,547,16.3326,12.6402
560,477,16.2762,-11.5214,0,0,0,0,0,0,0,-1,1784,547,16.2762,11.5213
567,477,13.9529,-8.70972,0,0,0,0,0,0,0,-1,1791,547,13.9529,8.7097
574,477,6.82593,-0.916992,0,0,0,0,0,0,0,-1,1798,547,6.82598,0.916977
581,477,9.29321,-0.557007,0,0,0,0,0,0,0,-1,1805,547,9.29324,0.55703
588,477,9.75195,0.422729,0,0,0,0,0,0,0,-1,1812,547,9.75198,-0.42273
595,477,9.89172,1.21326,0,0,0,0,0,0,0,-1,1819,547,9.89174,-1.21328
602,477,6.5271,-0.964417,0,0,0,0,0,0,0,-1,1826,547,6.52706,0.964427
609,477,0,0,0,0,0,0,0,0,0,-1,1833,547,0,0
616,477,0,0,0,0,0,0,0,0,0,-1,1840,547,0,0
623,477,0,0,0,0,0,0,0,0,0,-1,1847,547,0,0
630,477,0,0,0,0,0,0,0,0,0,-1,1854,547,0,0
637,477,0,0,0,0,0,0,0,0,0,-1,1861,547,0,0
644,477,0,0,0,0,0,0,0,0,0,-1,1868,547,0,0
651,477,0,0,0,0,0,0,0,0,0,-1,1875,547,0,0
658,477,0,0,0,0,0,0,0,0,0,-1,1882,547,0,0
665,477,0,0,0,0,0,0,0,0,0,-1,1889,547,0,0
672,477,0,0,0,0,0,0,0,0,0,-1,1896,547,0,0
679,477,0,0,0,0,0,0,0,0,0,-1,1903,547,0,0
686,477,0,0,0,0,0,0,0,0,0,-1,1910,547,0,0
693,477,0,0,0,0,0,0,0,0,0,-1,1917,547,0,0
700,477,0,0,0,0,0,0,0,0,0,-1,1924,547,0,0
707,477,0,0,0,0,0,0,0,0,0,-1,1931,547,0,0
714,477,0,0,0,0,0,0,0,0,0,-1,1938,547,0,0
721,477,0,0,0,0,0,0,0,0,0,-1,1945,547,0,0
728,477,0,0,0,0,0,0,0,0,0,-1,1952,547,0,0
735,477,0,0,0,0,0,0,0,0,0,-1,1959,547,0,0
742,477,0,0,0,0,0,0,0,0,0,-1,1966,547,0,0
749,477,0,0,0,0,0,0,0,0,0,-1,1973,547,0,0
756,477,0,0,0,0,0,0,0,0,0,-1,1980,547,0,0
763,477,0,0,0,0,0,0,0,0,0,-1,1987,547,0,0
770,477,0,0,0,0,0,0,0,0,0,-1,1994,547,0,0
777,477,0,0,0,0,0,0,0,0,0,-1,2001,547,0,0
784,477,0,0,0,0,0,0,0,0,0,-1,2008,547,0,0
791,477,0,0,0,0,0,0,0,0,0,-1,2015,547,0,0
798,477,0,0,0,0,0,0,0,0,0,-1,2022,547,0,0
805,477,0,0,0,0,0,0,0,0,0,-1,2029,547,0,0
812,477,0,0,0,0,0,0,0,0,0,-1,2036,547,0,0
-700,470,0,0,0,0,0,0,0,0,0,-1,524,554,0,0
-693,470,0,0,0,0,0,0,0,0,0,-1,531,554,0,0
-686,470,0,0,0,0,0,0,0,0,0,-1,538,554,0,0
-679,470,0,0,0,0,0,0,0,0,0,-1,545,554,0,0
-672,470,0,0,0,0,0,0,0,0,0,-1,552,554,0,0
-665,470,0,0,0,0,0,0,0,0,0,-1,559,554,0,0
-658,470,0,0,0,0,0,0,0,0,0,-1,566,554,0,0
-651,470,0,0,0,0,0,0,0,0,0,-1,573,554,0,0
-644,470,0,0,0,0,0,0,0,0,0,-1,580,554,0,0
-637,470,0,0,0,0,0,0,0,0,0,-1,587,554,0,0
-630,470,0,0,0,0,0,0,0,0,0,-1,594,554,0,0
-623,470,0,0,0,0,0,0,0,0,0,-1,601,554,0,0
-616,470,0,0,0,0,0,0,0,0,0,-1,608,554,0,0
-609,470,0,0,0,0,0,0,0,0,0,-1,615,554,0,0
-602,470,0,0,0,0,0,0,0,0,0,-1,622,554,0,0
-595,470,0,0,0,0,0,0,0,0,0,-1,629,554,0,0
-588,470,0,0,0,0,0,0,0,0,0,-1,636,554,0,0
-581,470,0,0,0,0,0,0,0,0,0,-1,643,554,0,0
-574,470,0,0,0,0,0,0,0,0,0,-1,650,554,0,0
-567,470,0,0,0,0,0,0,0,0,0,-1,657,554,0,0
-560,470,0,0,0,0,0,0,0,0,0,-1,664,554,0,0
-553,470,0,0,0,0,0,0,0,0,0,-1,671,554,0,0
-546,470,0,0,0,0,0,0,0,0,0,-1,678,554,0,0
-539,470,0,0,0,0,0,0,0,0,0,-1,685,554,0,0
-532,470,0,0,0,0,0,0,0,0,0,-1,692,554,0,0
-525,470,0,0,0,0,0,0,0,0,0,-1,699,554,0,0
-518,470,0,0,0,0,0,0,0,0,0,-1,706,554,0,0
-511,470,0,0,0,0,0,0,0,0,0,-1,713,554,0,0
-504,470,0,0,0,0,0,0,0,0,0,-1,720,554,0,0
-497,470,0,0,0,0,0,0,0,0,0,-1,727,554,0,0
-490,470,-9.13263,-1.03125,0,0,0,0,0,0,0,-1,734,554,-9.1326,1.03127
-483,470,-7.68677,-1.03955,0,0,0,0,0,0,0,-1,741,554,-7.68678,1.03958
-476,470,-6.17969,-1.03394,0,0,0,0,0,0,0,-1,748,554,-6.17971,1.03395
-469,470,-6.23016,-0.651855,0,0,0,0,0,0,0,-1,755,554,-6.23014,0.651829
-462,470,-4.87915,-1.03705,0,0,0,0,0,0,0,-1,762,554,-4.87914,1.03702
-455,470,-4.14777,-1.37079,0,0,0,0,0,0,0,-1,769,554,-4.14779,1.37078
-448,470,-2.9314,-5.74518,0,0,0,0,0,0,0,-1,776,554,-2.93137,5.74518
-441,470,-4.83759,-12.0768,0,0,0,0,0,0,0,-1,783,554,-4.83758,12.0768
-434,470,-5.47247,-13.5376,0,0,0,0,0,0,0,-1,790,554,-5.47245,13.5376
-427,470,-5.48553,-14.1935,0.00033479,0.0132232,-0.00535852,0.0151601,-0.00160202,-1.22396,0.0106808,0.0232476,797,554,-5.48554,14.1936
-420,470,-5.45325,-14.8762,0.000665231,0.0112398,-0.00493677,0.0131862,-0.00128123,-1.19523,0.00924752,0.0156039,804,554,-5.45325,14.8761
-413,470,-5.50708,-15.5717,0.000872881,0.00930664,-0.00438157,0.0111709,-0.000991379,-1.16852,0.00779876,0.0136967,811,554,-5.5071,15.5717
-406,470,-5.54572,-16.2128,0.000959132,0.00738065,-0.00366065,0.00903911,-0.00069933,-1.14541,0.00627219,0.0114365,818,554,-5.54573,16.2128
-399,470,-5.56018,-16.8456,0.00105441,0.00558489,-0.00289423,0.00699496,-0.00035566,-1.11744,0.00478626,0.0140766,825,554,-5.56019,16.8456
-392,470,-5.57983,-17.4722,0.00124165,0.00386268,-0.00214324,0.00506432,4.00103e-05,-1.0598,0.00336295,0.0143473,832,554,-5.57981,17.4722
-385,470,-5.60754,-18.089,0.00151485,0.00228651,-0.00149572,0.00344536,0.000356005,-0.911624,0.00218791,0.0112222,839,554,-5.60757,18.089
-378,470,-5.62384,-18.7153,0.00181966,0.00087697,-0.000857253,0.00232661,0.000370028,-0.53404,0.00144362,0.0158606,846,554,-5.62382,18.7153
-371,470,-5.65503,-19.307,0.00219081,-0.00043695,-0.000298569,0.00222431,-0.000470447,-0.111724,0.00166203,0.0140169,853,554,-5.65503,19.307
-364,470,-5.68585,-19.895,0.00264749,-0.00160977,0.000179696,0.00265507,-0.00161734,0.0421096,0.00249081,0.0142635,860,554,-5.68585,19.8949
-357,470,-5.71204,-20.5004,0.00324384,-0.0026272,0.000517269,0.00328906,-0.00267243,0.08721,0.003448,0.0142821,867,554,-5.71204,20.5004
-350,470,-5.70874,-21.1207,0.00410698,-0.00311785,0.000433652,0.00413291,-0.00314379,0.0597366,0.00421412,0.0118276,874,554,-5.70873,21.1208
-343,470,-5.59509,-21.7065,0.00489139,-0.00380311,0.000409893,0.00491067,-0.00382239,0.0470049,0.00505507,0.0459578,881,554,-5.59512,21.7065
-336,470,-5.35242,-22.3572,0,0,0,0,0,0,0,-1,888,554,-5.35243,22.3572
-329,470,-2.78516,-12.3594,0,0,0,0,0,0,0,-1,895,554,-2.78517,12.3594
-322,470,-2.30829,-11.4527,0,0,0,0,0,0,0,-1,902,554,-2.30827,11.4527
-315,470,-1.04797,-8.29529,0,0,0,0,0,0,0,-1,909,554,-1.04797,8.29526
-308,470,-1.39368,-6.68152,0,0,0,0,0,0,0,-1,916,554,-1.39369,6.68149
-301,470,-0.0340576,3.34888,0,0,0,0,0,0,0,-1,923,554,-0.0340496,-3.3489
-294,470,-1.18378,3.22266,0,0,0,0,0,0,0,-1,930,554,-1.18376,-3.22268
-287,470,-2.15454,3.2204,0,0,0,0,0,0,0,-1,937,554,-2.15452,-3.22037
-280,470,-3.00537,3.099,0,0,0,0,0,0,0,-1,944,554,-3.00536,-3.09898
-273,470,-12.3932,3.65009,0,0,0,0,0,0,0,-1,951,554,-12.3932,-3.65011
-266,470,-11.5706,1.16028,0,0,0,0,0,0,0,-1,958,554,-11.5706,-1.16031
-259,470,-7.50415,-2.77167,0,0,0,0,0,0,0,-1,965,554,-7.50413,2.7717
-252,470,-0.371155,-5.87823,0,0,0,0,0,0,0,-1,972,554,-0.37114,5.87821
-245,470,1.33221,-6.81122,0,0,0,0,0,0,0,-1,979,554,1.33223,6.8112
-238,470,0,0,0,0,0,0,0,0,0,-1,986,554,0,0
-231,470,0,0,0,0,0,0,0,0,0,-1,993,554,0,0
-224,470,0,0,0,0,0,0,0,0,0,-1,1000,554,0,0
-217,470,0,0,0,0,0,0,0,0,0,-1,1007,554,0,0
-210,470,0,0,0,0,0,0,0,0,0,-1,1014,554,0,0
-203,470,0,0,0,0,0,0,0,0,0,-1,1021,554,0,0
-196,470,0,0,0,0,0,0,0,0,0,-1,1028,554,0,0
-189,470,0,0,0,0,0,0,0,0,0,-1,1035,554,0,0
-182,470,0,0,0,0,0,0,0,0,0,-1,1042,554,0,0
-175,470,0,0,0,0,0,0,0,0,0,-1,1049,554,0,0
-168,470,0,0,0,0,0,0,0,0,0,-1,1056,554,0,0
-161,470,0,0,0,0,0,0,0,0,0,-1,1063,554,0,0
-154,470,0,0,0,0,0,0,0,0,0,-1,1070,554,0,0
-147,470,0,0,0,0,0,0,0,0,0,-1,1077,554,0,0
-140,470,0,0,0,0,0,0,0,0,0,-1,1084,554,0,0
-133,470,0,0,0,0,0,0,0,0,0,-1,1091,554,0,0
-126,470,0,0,0,0,0,0,0,0,0,-1,1098,554,0,0
-119,470,0,0,0,0,0,0,0,0,0,-1,1105,554,0,0
-112,470,0,0,0,0,0,0,0,0,0,-1,1112,554,0,0
-105,470,0,0,0,0,0,0,0,0,0,-1,1119,554,0,0
-98,470,0,0,0,0,0,0,0,0,0,-1,1126,554,0,0
-91,470,0,0,0,0,0,0,0,0,0,-1,1133,554,0,0
-84,470,0,0,0,0,0,0,0,0,0,-1,1140,554,0,0
-77,470,0,0,0,0,0,0,0,0,0,-1,1147,554,0,0
-70,470,0,0,0,0,0,0,0,0,0,-1,1154,554,0,0
-63,470,0,0,0,0,0,0,0,0,0,-1,1161,554,0,0
-56,470,0,0,0,0,0,0,0,0,0,-1,1168,554,0,0
-49,470,0,0,0,0,0,0,0,0,0,-1,1175,554,0,0
-42,470,0,0,0,0,0,0,0,0,0,-1,1182,554,0,0
-35,470,0,0,0,0,0,0,0,0,0,-1,1189,554,0,0
-28,470,0,0,0,0,0,0,0,0,0,-1,1196,554,0,0
-21,470,0,0,0,0,0,0,0,0,0,-1,1203,554,0,0
-14,470,0,0,0,0,0,0,0,0,0,-1,1210,554,0,0
-7,470,0,0,0,0,0,0,0,0,0,-1,1217,554,0,0
0,470,0,0,0,0,0,0,0,0,0,-1,1224,554,0,0
7,470,0,0,0,0,0,0,0,0,0,-1,1231,554,0,0
14,470,0,0,0,0,0,0,0,0,0,-1,1238,554,0,0
21,470,0,0,0,0,0,0,0,0,0,-1,1245,554,0,0
28,470,0,0,0,0,0,0,0,0,0,-1,1252,554,0,0
35,470,0,0,0,0,0,0,0,0,0,-1,1259,554,0,0
42,470,0,0,0,0,0,0,0,0,0,-1,1266,554,0,0
49,470,0,0,0,0,0,0,0,0,0,-1,1273,554,0,0
56,470,0,0,0,0,0,0,0,0,0,-1,1280,554,0,0
63,470,0,0,0,0,0,0,0,0,0,-1,1287,554,0,0
70,470,0,0,0,0,0,0,0,0,0,-1,1294,554,0,0
77,470,0,0,0,0,0,0,0,0,0,-1,1301,554,0,0
84,470,0,0,0,0,0,0,0,0,0,-1,1308,554,0,0
91,470,0,0,0,0,0,0,0,0,0,-1,1315,554,0,0
98,470,0,0,0,0,0,0,0,0,0,-1,1322,554,0,0
105,470,0,0,0,0,0,0,0,0,0,-1,1329,554,0,0
112,470,0,0,0,0,0,0,0,0,0,-1,1336,554,0,0
119,470,0,0,0,0,0,0,0,0,0,-1,1343,554,0,0
126,470,0,0,0,0,0,0,0,0,0,-1,1350,554,0,0
133,470,0,0,0,0,0,0,0,0,0,-1,1357,554,0,0
140,470,0,0,0,0,0,0,0,0,0,-1,1364,554,0,0
147,470,0,0,0,0,0,0,0,0,0,-1,1371,554,0,0
154,470,0,0,0,0,0,0,0,0,0,-1,1378,554,0,0
161,470,0,0,0,0,0,0,0,0,0,-1,1385,554,0,0
168,470,0,0,0,0,0,0,0,0,0,-1,1392,554,0,0
175,470,0,0,0,0,0,0,0,0,0,-1,1399,554,0,0
182,470,0,0,0,0,0,0,0,0,0,-1,1406,554,0,0
189,470,0,0,0,0,0,0,0,0,0,-1,1413,554,0,0
196,470,0,0,0,0,0,0,0,0,0,-1,1420,554,0,0
203,470,0,0,0,0,0,0,0,0,0,-1,1427,554,0,0
210,470,0,0,0,0,0,0,0,0,0,-1,1434,554,0,0
217,470,0,0,0,0,0,0,0,0,0,-1,1441,554,0,0
224,470,0,0,0,0,0,0,0,0,0,-1,1448,554,0,0
231,470,0,0,0,0,0,0,0,0,0,-1,1455,554,0,0
238,470,0,0,0,0,0,0,0,0,0,-1,1462,554,0,0
245,470,0,0,0,0,0,0,0,0,0,-1,1469,554,0,0
252,470,0,0,0,0,0,0,0,0,0,-1,1476,554,0,0
259,470,0,0,0,0,0,0,0,0,0,-1,1483,554,0,0
266,470,0,0,0,0,0,0,0,0,0,-1,1490,554,0,0
273,470,0,0,0,0,0,0,0,0,0,-1,1497,554,0,0
280,470,0,0,0,0,0,0,0,0,0,-1,1504,554,0,0
287,470,0,0,0,0,0,0,0,0,0,-1,1511,554,0,0
294,470,0,0,0,0,0,0,0,0,0,-1,1518,554,0,0
301,470,0,0,0,0,0,0,0,0,0,-1,1525,554,0,0
308,470,0,0,0,0,0,0,0,0,0,-1,1532,554,0,0
315,470,0,0,0,0,0,0,0,0,0,-1,1539,554,0,0
322,470,0,0,0,0,0,0,0,0,0,-1,1546,554,0,0
329,470,0,0,0,0,0,0,0,0,0,-1,1553,554,0,0
336,470,0,0,0,0,0,0,0,0,0,-1,1560,554,0,0
343,470,0,0,0,0,0,0,0,0,0,-1,1567,554,0,0
350,470,0,0,0,0,0,0,0,0,0,-1,1574,554,0,0
357,470,0,0,0,0,0,0,0,0,0,-1,1581,554,0,0
364,470,1.33423,0.293335,0,0,0,0,0,0,0,-1,1588,554,1.33422,-0.293348
371,470,2.22498,-0.0305176,0,0,0,0,0,0,0,-1,1595,554,2.22494,0.0305046
378,470,6.27051,0.710083,0,0,0,0,0,0,0,-1,1602,554,6.27054,-0.710093
385,470,10.3657,1.47296,0,0,0,0,0,0,0,-1,1609,554,10.3657,-1.47299
392,470,15.3881,3.01935,0,0,0,0,0,0,0,-1,1616,554,15.388,-3.01937
399,470,18.4479,2.93793,0,0,0,0,0,0,0,-1,1623,554,18.4479,-2.93792
406,470,15.1896,1.36676,0,0,0,0,0,0,0,-1,1630,554,15.1896,-1.36679
413,470,6.55383,1.99207,0,0,0,0,0,0,0,-1,1637,554,6.5538,-1.99208
420,470,4.47095,0.845703,0,0,0,0,0,0,0,-1,1644,554,4.47098,-0.845718
427,470,3.51038,1.19684,0,0,0,0,0,0,0,-1,1651,554,3.51039,-1.19684
434,470,3.31775,-1.37427,0,0,0,0,0,0,0,-1,1658,554,3.31781,1.37426
441,470,2.55457,-2.05902,0,0,0,0,0,0,0,-1,1665,554,2.55461,2.05904
448,470,3.27258,-2.64032,0,0,0,0,0,0,0,-1,1672,554,3.27257,2.64029
455,470,10.3658,-9.82233,0,0,0,0,0,0,0,-1,1679,554,10.3659,9.82233
462,470,11.0651,-11.9958,0,0,0,0,0,0,0,-1,1686,554,11.0651,11.9958
469,470,15.4242,-19.0521,0,0,0,0,0,0,0,-1,1693,554,15.4242,19.0521
476,470,17.278,-20.0806,0,0,0,0,0,0,0,-1,1700,554,17.278,20.0805
483,470,17.2646,-19.3851,0.00289992,0.000711401,-0.000314524,0.00294422,0.000667096,-0.139943,0.00178255,0.0173896,1707,554,17.2647,19.3851
490,470,17.2163,-18.7613,0.00262884,0.000936012,5.40223e-05,0.00263057,0.00093429,0.0318692,0.00153985,0.0118251,1714,554,17.2163,18.7613
497,470,17.1956,-18.1232,0.00220713,0.00131852,0.000542192,0.00246381,0.00106184,0.442152,0.00142699,0.0119633,1721,554,17.1956,18.1231
504,470,17.1965,-17.5131,0.00162938,0.00122948,0.000797376,0.0022515,0.000607371,0.662551,0.00134506,0.01796,1728,554,17.1965,17.5131
511,470,17.1986,-16.9163,0.000926382,0.00118276,0.000954578,0.00201772,9.14242e-05,0.852143,0.00131573,0.0260569,1735,554,17.1986,16.9163
518,470,17.1783,-16.2568,0.000114263,0.00118066,0.00102093,0.00179925,-0.000504321,1.02605,0.00139826,0.0264967,1742,554,17.1784,16.2568
525,470,17.1282,-15.5526,-0.000711038,0.00120425,0.00104603,0.00166479,-0.00117158,1.15605,0.00164581,0.016438,1749,554,17.1282,15.5526
532,470,17.0717,-14.8539,-0.00150204,0.00131406,0.00107667,0.00167853,-0.00186651,1.24439,0.00204769,0.0144476,1756,554,17.0716,14.8539
539,470,17.0322,-14.2145,-0.0022462,0.00145814,0.00109148,0.00175582,-0.00254388,1.30454,0.00249629,0.0160813,1763,554,17.0322,14.2145
546,470,17.004,-13.583,-0.00288332,0.00182361,0.00114228,0.00208617,-0.00314588,1.34486,0.00304131,0.0154356,1770,554,17.004,13.583
553,470,17.0326,-12.8636,-0.0033351,0.00233575,0.00127901,0.00261087,-0.00361022,1.35892,0.00360716,0.0254576,1777,554,17.0326,12.8636
560,470,17.0183,-12.083,-0.00352492,0.00305329,0.00149802,0.00337837,-0.00384999,1.35711,0.00417626,0.045618,1784,554,17.0183,12.083
567,470,16.8403,-11.1472,0,0,0,0,0,0,0,-1,1791,554,16.8403,11.1472
574,470,14.2793,-8.07147,0,0,0,0,0,0,0,-1,1798,554,14.2793,8.07147
581,470,8.24646,-4.06317,0,0,0,0,0,0,0,-1,1805,554,8.24648,4.06318
588,470,11.1803,1.74927,0,0,0,0,0,0,0,-1,1812,554,11.1803,-1.74926
595,470,4.72192,3.44116,0,0,0,0,0,0,0,-1,1819,554,4.72191,-3.44116
602,470,14.4307,2.76141,0,0,0,0,0,0,0,-1,1826,554,14.4306,-2.76139
609,470,20.9181,4.41058,0,0,0,0,0,0,0,-1,1833,554,20.9181,-4.4106
616,470,0,0,0,0,0,0,0,0,0,-1,1840,554,0,0
623,470,0,0,0,0,0,0,0,0,0,-1,1847,554,0,0
630,470,0,0,0,0,0,0,0,0,0,-1,1854,554,0,0
637,470,0,0,0,0,0,0,0,0,0,-1,1861,554,0,0
644,470,0,0,0,0,0,0,0,0,0,-1,1868,554,0,0
651,470,0,0,0,0,0,0,0,0,0,-1,1875,554,0,0
658,470,0,0,0,0,0,0,0,0,0,-1,1882,554,0,0
665,470,0,0,0,0,0,0,0,0,0,-1,1889,554,0,0
672,470,0,0,0,0,0,0,0,0,0,-1,1896,554,0,0
679,470,0,0,0,0,0,0,0,0,0,-1,1903,554,0,0
686,470,0,0,0,0,0,0,0,0,0,-1,1910,554,0,0
693,470,0,0,0,0,0,0,0,0,0,-1,1917,554,0,0
700,470,0,0,0,0,0,0,0,0,0,-1,1924,554,0,0
707,470,0,0,0,0,0,0,0,0,0,-1,1931,554,0,0
714,470,0,0,0,0,0,0,0,0,0,-1,1938,554,0,0
721,470,0,0,0,0,0,0,0,0,0,-1,1945,554,0,0
728,470,0,0,0,0,0,0,0,0,0,-1,1952,554,0,0
735,470,0,0,0,0,0,0,0,0,0,-1,1959,554,0,0
742,470,0,0,0,0,0,0,0,0,0,-1,1966,554,0,0
749,470,0,0,0,0,0,0,0,0,0,-1,1973,554,0,0
756,470,0,0,0,0,0,0,0,0,0,-1,1980,554,0,0
763,470,0,0,0,0,0,0,0,0,0,-1,1987,554,0,0
770,470,0,0,0,0,0,0,0,0,0,-1,1994,554,0,0
777,470,0,0,0,0,0,0,0,0,0,-1,2001,554,0,0
784,470,0,0,0,0,0,0,0,0,0,-1,2008,554,0,0
791,470,0,0,0,0,0,0,0,0,0,-1,2015,554,0,0
798,470,0,0,0,0,0,0,0,0,0,-1,2022,554,0,0
805,470,0,0,0,0,0,0,0,0,0,-1,2029,554,0,0
812,470,0,0,0,0,0,0,0,0,0,-1,2036,554,0,0
-700,463,0,0,0,0,0,0,0,0,0,-1,524,561,0,0
-693,463,0,0,0,0,0,0,0,0,0,-1,531,561,0,0
-686,463,0,0,0,0,0,0,0,0,0,-1,538,561,0,0
-679,463,0,0,0,0,0,0,0,0,0,-1,545,561,0,0
-672,463,0,0,0,0,0,0,0,0,0,-1,552,561,0,0
-665,463,0,0,0,0,0,0,0,0,0,-1,559,561,0,0
-658,463,0,0,0,0,0,0,0,0,0,-1,566,561,0,0
-651,463,0,0,0,0,0,0,0,0,0,-1,573,561,0,0
-644,463,0,0,0,0,0,0,0,0,0,-1,580,561,0,0
-637,463,0,0,0,0,0,0,0,0,0,-1,587,561,0,0
-630,463,0,0,0,0,0,0,0,0,0,-1,594,561,0,0
-623,463,0,0,0,0,0,0,0,0,0,-1,601,561,0,0
-616,463,0,0,0,0,0,0,0,0,0,-1,608,561,0,0
-609,463,0,0,0,0,0,0,0,0,0,-1,615,561,0,0
-602,463,0,0,0,0,0,0,0,0,0,-1,622,561,0,0
-595,463,0,0,0,0,0,0,0,0,0,-1,629,561,0,0
-588,463,0,0,0,0,0,0,0,0,0,-1,636,561,0,0
-581,463,0,0,0,0,0,0,0,0,0,-1,643,561,0,0
-574,463,0,0,0,0,0,0,0,0,0,-1,650,561,0,0
-567,463,0,0,0,0,0,0,0,0,0,-1,657,561,0,0
-560,463,0,0,0,0,0,0,0,0,0,-1,664,561,0,0
-553,463,0,0,0,0,0,0,0,0,0,-1,671,561,0,0
-546,463,0,0,0,0,0,0,0,0,0,-1,678,561,0,0
-539,463,0,0,0,0,0,0,0,0,0,-1,685,561,0,0
-532,463,0,0,0,0,0,0,0,0,0,-1,692,561,0,0
-525,463,0,0,0,0,0,0,0,0,0,-1,699,561,0,0
-518,463,0,0,0,0,0,0,0,0,0,-1,706,561,0,0
-511,463,0,0,0,0,0,0,0,0,0,-1,713,561,0,0
-504,463,0,0,0,0,0,0,0,0,0,-1,720,561,0,0
-497,463,-9.81451,-1.67126,0,0,0,0,0,0,0,-1,727,561,-9.81452,1.67127
-490,463,-8.57043,-1.58942,0,0,0,0,0,0,0,-1,734,561,-8.57045,1.58944
-483,463,-7.29224,-1.7226,0,0,0,0,0,0,0,-1,741,561,-7.29226,1.72261
-476,463,-5.77704,-1.7312,0,0,0,0,0,0,0,-1,748,561,-5.77703,1.73121
-469,463,-5.14545,-2.138,0,0,0,0,0,0,0,-1,755,561,-5.14546,2.13799
-462,463,-3.13672,-3.07977,0,0,0,0,0,0,0,-1,762,561,-3.13672,3.07974
-455,463,-2.91406,-5.61798,0,0,0,0,0,0,0,-1,769,561,-2.91406,5.61801
-448,463,-4.00177,-8.54681,0,0,0,0,0,0,0,-1,776,561,-4.00175,8.54683
-441,463,-5.99365,-12.5301,0,0,0,0,0,0,0,-1,783,561,-5.99364,12.5301
-434,463,-6.06671,-13.585,-0.000397509,0.0115226,-0.00415557,0.0128283,-0.00170319,-1.26636,0.00917279,0.0299959,790,561,-6.06669,13.585
-427,463,-6.08441,-14.2549,9.70352e-05,0.00988069,-0.00387513,0.0112296,-0.00125186,-1.23582,0.00793665,0.0109777,797,561,-6.08439,14.2549
-420,463,-6.08459,-14.9053,0.000462701,0.00825501,-0.00354313,0.00962515,-0.000907432,-1.20181,0.00673964,0.0099005,804,561,-6.0846,14.9052
-413,463,-6.12567,-15.5463,0.000698889,0.00662711,-0.00307149,0.00793149,-0.000605488,-1.1692,0.00550061,0.0102405,811,561,-6.12568,15.5463
-406,463,-6.17004,-16.1769,0.00083095,0.00499389,-0.00245561,0.00613151,-0.000306672,-1.13696,0.00419364,0.0100544,818,561,-6.17006,16.1769
-399,463,-6.18457,-16.8054,0.00101762,0.003497,-0.00182853,0.00446646,4.8154e-05,-1.08329,0.00296172,0.0107907,825,561,-6.18459,16.8054
-392,463,-6.2171,-17.4266,0.0012976,0.00203816,-0.00121271,0.00293586,0.000399903,-0.933571,0.00183849,0.0113319,832,561,-6.21709,17.4266
-385,463,-6.24463,-18.0703,0.00164768,0.000710962,-0.000700396,0.00202189,0.000336757,-0.490692,0.00125087,0.0115231,839,561,-6.24461,18.0703
-378,463,-6.25635,-18.6965,0.00204848,-0.000475139,-0.000191215,0.00206289,-0.000489546,-0.075198,0.00156419,0.0126201,846,561,-6.25633,18.6965
-371,463,-6.26764,-19.3075,0.00255841,-0.00155907,0.000259593,0.00257471,-0.00157537,0.0627157,0.0024191,0.0131307,853,561,-6.26764,19.3075
-364,463,-6.27899,-19.8756,0.00319264,-0.00243688,0.000575513,0.00325087,-0.00249512,0.100841,0.003327,0.0148778,860,561,-6.27902,19.8756
-357,463,-6.33154,-20.4482,0.00399419,-0.00327759,0.000729038,0.00406656,-0.00334996,0.0989437,0.00428858,0.0205688,867,561,-6.33152,20.4482
-350,463,-6.23438,-21.118,0.00517208,-0.00338181,0.000335,0.00518518,-0.00339491,0.0390836,0.00498953,0.0426338,874,561,-6.2344,21.1181
-343,463,-5.91638,-21.7634,0,0,0,0,0,0,0,-1,881,561,-5.91639,21.7634
-336,463,-2.94928,-12.2127,0,0,0,0,0,0,0,-1,888,561,-2.94925,12.2127
-329,463,-2.64307,-12.7037,0,0,0,0,0,0,0,-1,895,561,-2.64307,12.7038
-322,463,-1.82898,-9.11957,0,0,0,0,0,0,0,-1,902,561,-1.829,9.11957
-315,463,-0.944763,-5.96234,0,0,0,0,0,0,0,-1,909,561,-0.94479,5.96237
-308,463,-1.1535,-3.17889,0,0,0,0,0,0,0,-1,916,561,-1.15352,3.17889
-301,463,-1.50366,-3.15338,0,0,0,0,0,0,0,-1,923,561,-1.50364,3.15341
-294,463,-2.35889,-3.93463,0,0,0,0,0,0,0,-1,930,561,-2.35886,3.93465
-287,463,-2.80322,2.73999,0,0,0,0,0,0,0,-1,937,561,-2.80322,-2.74
-280,463,-12.864,5.25146,0,0,0,0,0,0,0,-1,944,561,-12.864,-5.25149
-273,463,-12.4598,3.39178,0,0,0,0,0,0,0,-1,951,561,-12.4598,-3.3918
-266,463,-8.78101,-3.7356,0,0,0,0,0,0,0,-1,958,561,-8.78098,3.73562
-259,463,-6.23285,-5.68842,0,0,0,0,0,0,0,-1,965,561,-6.23288,5.68843
-252,463,0,0,0,0,0,0,0,0,0,-1,972,561,0,0
-245,463,0,0,0,0,0,0,0,0,0,-1,979,561,0,0
-238,463,0,0,0,0,0,0,0,0,0,-1,986,561,0,0
-231,463,0,0,0,0,0,0,0,0,0,-1,993,561,0,0
-224,463,0,0,0,0,0,0,0,0,0,-1,1000,561,0,0
-217,463,0,0,0,0,0,0,0,0,0,-1,1007,561,0,0
-210,463,0,0,0,0,0,0,0,0,0,-1,1014,561,0,0
-203,463,0,0,0,0,0,0,0,0,0,-1,1021,561,0,0
-196,463,0,0,0,0,0,0,0,0,0,-1,1028,561,0,0
-189,463,0,0,0,0,0,0,0,0,0,-1,1035,561,0,0
-182,463,0,0,0,0,0,0,0,0,0,-1,1042,561,0,0
-175,463,0,0,0,0,0,0,0,0,0,-1,1049,561,0,0
-168,463,0,0,0,0,0,0,0,0,0,-1,1056,561,0,0
-161,463,0,0,0,0,0,0,0,0,0,-1,1063,561,0,0
-154,463,0,0,0,0,0,0,0,0,0,-1,1070,561,0,0
-147,463,0,0,0,0,0,0,0,0,0,-1,1077,561,0,0
-140,463,0,0,0,0,0,0,0,0,0,-1,1084,561,0,0
-133,463,0,0,0,0,0,0,0,0,0,-1,1091,561,0,0
-126,463,0,0,0,0,0,0,0,0,0,-1,1098,561,0,0
-119,463,0,0,0,0,0,0,0,0,0,-1,1105,561,0,0
-112,463,0,0,0,0,0,0,0,0,0,-1,1112,561,0,0
-105,463,0,0,0,0,0,0,0,0,0,-1,1119,561,0,0
-98,463,0,0,0,0,0,0,0,0,0,-1,1126,561,0,0
-91,463,0,0,0,0,0,0,0,0,0,-1,1133,561,0,0
-84,463,0,0,0,0,0,0,0,0,0,-1,1140,561,0,0
-77,463,0,0,0,0,0,0,0,0,0,-1,1147,561,0,0
-70,463,0,0,0,0,0,0,0,0,0,-1,1154,561,0,0
-63,463,0,0,0,0,0,0,0,0,0,-1,1161,561,0,0
-56,463,0,0,0,0,0,0,0,0,0,-1,1168,561,0,0
-49,463,0,0,0,0,0,0,0,0,0,-1,1175,561,0,0
-42,463,0,0,0,0,0,0,0,0,0,-1,1182,561,0,0
-35,463,0,0,0,0,0,0,0,0,0,-1,1189,561,0,0
-28,463,0,0,0,0,0,0,0,0,0,-1,1196,561,0,0
-21,463,0,0,0,0,0,0,0,0,0,-1,1203,561,0,0
-14,463,0,0,0,0,0,0,0,0,0,-1,1210,561,0,0
-7,463,0,0,0,0,0,0,0,0,0,-1,1217,561,0,0
0,463,0,0,0,0,0,0,0,0,0,-1,1224,561,0,0
7,463,0,0,0,0,0,0,0,0,0,-1,1231,561,0,0
14,463,0,0,0,0,0,0,0,0,0,-1,1238,561,0,0
21,463,0,0,0,0,0,0,0,0,0,-1,1245,561,0,0
28,463,0,0,0,0,0,0,0,0,0,-1,1252,561,0,0
35,463,0,0,0,0,0,0,0,0,0,-1,1259,561,0,0
42,463,0,0,0,0,0,0,0,0,0,-1,1266,561,0,0
49,463,0,0,0,0,0,0,0,0,0,-1,1273,561,0,0
56,463,0,0,0,0,0,0,0,0,0,-1,1280,561,0,0
63,463,0,0,0,0,0,0,0,0,0,-1,1287,561,0,0
70,463,0,0,0,0,0,0,0,0,0,-1,1294,561,0,0
77,463,0,0,0,0,0,0,0,0,0,-1,1301,561,0,0
84,463,0,0,0,0,0,0,0,0,0,-1,1308,561,0,0
91,463,0,0,0,0,0,0,0,0,0,-1,1315,561,0,0
98,463,0,0,0,0,0,0,0,0,0,-1,1322,561,0,0
105,463,0,0,0,0,0,0,0,0,0,-1,1329,561,0,0
112,463,0,0,0,0,0,0,0,0,0,-1,1336,561,0,0
119,463,0,0,0,0,0,0,0,0,0,-1,1343,561,0,0
126,463,0,0,0,0,0,0,0,0,0,-1,1350,561,0,0
133,463,0,0,0,0,0,0,0,0,0,-1,1357,561,0,0
140,463,0,0,0,0,0,0,0,0,0,-1,1364,561,0,0
147,463,0,0,0,0,0,0,0,0,0,-1,1371,561,0,0
154,463,0,0,0,0,0,0,0,0,0,-1,1378,561,0,0
161,463,0,0,0,0,0,0,0,0,0,-1,1385,561,0,0
168,463,0,0,0,0,0,0,0,0,0,-1,1392,561,0,0
175,463,0,0,0,0,0,0,0,0,0,-1,1399,561,0,0
182,463,0,0,0,0,0,0,0,0,0,-1,1406,561,0,0
189,463,0,0,0,0,0,0,0,0,0,-1,1413,561,0,0
196,463,0,0,0,0,0,0,0,0,0,-1,1420,561,0,0
203,463,0,0,0,0,0,0,0,0,0,-1,1427,561,0,0
210,463,0,0,0,0,0,0,0,0,0,-1,1434,561,0,0
217,463,0,0,0,0,0,0,0,0,0,-1,1441,561,0,0
224,463,0,0,0,0,0,0,0,0,0,-1,1448,561,0,0
231,463,0,0,0,0,0,0,0,0,0,-1,1455,561,0,0
238,463,0,0,0,0,0,0,0,0,0,-1,1462,561,0,0
245,463,0,0,0,0,0,0,0,0,0,-1,1469,561,0,0
252,463,0,0,0,0,0,0,0,0,0,-1,1476,561,0,0
259,463,0,0,0,0,0,0,0,0,0,-1,1483,561,0,0
266,463,0,0,0,0,0,0,0,0,0,-1,1490,561,0,0
273,463,0,0,0,0,0,0,0,0,0,-1,1497,561,0,0
280,463,0,0,0,0,0,0,0,0,0,-1,1504,561,0,0
287,463,0,0,0,0,0,0,0,0,0,-1,1511,561,0,0
294,463,0,0,0,0,0,0,0,0,0,-1,1518,561,0,0
301,463,0,0,0,0,0,0,0,0,0,-1,1525,561,0,0
308,463,0,0,0,0,0,0,0,0,0,-1,1532,561,0,0
315,463,0,0,0,0,0,0,0,0,0,-1,1539,561,0,0
322,463,0,0,0,0,0,0,0,0,0,-1,1546,561,0,0
329,463,0,0,0,0,0,0,0,0,0,-1,1553,561,0,0
336,463,0,0,0,0,0,0,0,0,0,-1,1560,561,0,0
343,463,0,0,0,0,0,0,0,0,0,-1,1567,561,0,0
350,463,0,0,0,0,0,0,0,0,0,-1,1574,561,0,0
357,463,0,0,0,0,0,0,0,0,0,-1,1581,561,0,0
364,463,0,0,0,0,0,0,0,0,0,-1,1588,561,0,0
371,463,1.75842,0.152588,0,0,0,0,0,0,0,-1,1595,561,1.75844,-0.152558
378,463,4.58813,-0.0444336,0,0,0,0,0,0,0,-1,1602,561,4.58809,0.0444505
385,463,8.88574,1.65057,0,0,0,0,0,0,0,-1,1609,561,8.88575,-1.65055
392,463,14.0912,2.50513,0,0,0,0,0,0,0,-1,1616,561,14.0912,-2.5051
399,463,21.4769,2.7002,0,0,0,0,0,0,0,-1,1623,561,21.477,-2.70017
406,463,26.2987,4.32318,0,0,0,0,0,0,0,-1,1630,561,26.2987,-4.3232
413,463,26.5011,2.65222,0,0,0,0,0,0,0,-1,1637,561,26.5011,-2.65224
420,463,8.849,2.26611,0,0,0,0,0,0,0,-1,1644,561,8.84899,-2.26613
427,463,5.12207,1.69183,0,0,0,0,0,0,0,-1,1651,561,5.12206,-1.69184
434,463,4.59814,1.81995,0,0,0,0,0,0,0,-1,1658,561,4.59812,-1.81994
441,463,1.76392,-5.99225,0,0,0,0,0,0,0,-1,1665,561,1.7639,5.99225
448,463,2.49939,-4.30536,0,0,0,0,0,0,0,-1,1672,561,2.49941,4.30536
455,463,4.40295,-3.02557,0,0,0,0,0,0,0,-1,1679,561,4.40299,3.02558
462,463,5.38293,-4.06445,0,0,0,0,0,0,0,-1,1686,561,5.38289,4.06444
469,463,5.94373,-4.50647,0,0,0,0,0,0,0,-1,1693,561,5.94368,4.50646
476,463,15.2559,-17.3189,0,0,0,0,0,0,0,-1,1700,561,15.2558,17.3189
483,463,17.8593,-19.5447,0,0,0,0,0,0,0,-1,1707,561,17.8593,19.5447
490,463,17.8953,-18.8061,0.00350185,0.000891574,0.000409201,0.0035645,0.000828929,0.151912,0.00215386,0.0268673,1714,561,17.8953,18.8061
497,463,17.8502,-18.093,0.00312275,0.00133856,0.000862401,0.00347145,0.00098986,0.384237,0.002065,0.013305,1721,561,17.8503,18.0929
504,463,17.8448,-17.4691,0.00254167,0.00122977,0.000998221,0.00308017,0.000691272,0.494717,0.0018662,0.0155699,1728,561,17.8449,17.4691
511,463,17.8392,-16.8569,0.0018644,0.00114219,0.00104037,0.00260456,0.00040204,0.618358,0.00161908,0.022947,1735,561,17.8392,16.8569
518,463,17.822,-16.1951,0.00112436,0.00109061,0.00103299,0.00214062,7.43566e-05,0.777232,0.00140295,0.02516,1742,561,17.822,16.1951
525,463,17.7621,-15.5201,0.000369059,0.00110755,0.000997267,0.00180174,-0.000325124,0.962702,0.00132292,0.020488,1749,561,17.7621,15.5201
532,463,17.7671,-14.8454,-0.000337338,0.00121108,0.000987279,0.00169151,-0.000817769,1.11791,0.00147772,0.0179668,1756,561,17.7671,14.8454
539,463,17.7122,-14.177,-0.000976202,0.00135436,0.000992823,0.00171995,-0.0013418,1.21797,0.00177219,0.0171632,1763,561,17.7122,14.177
546,463,17.6658,-13.549,-0.00150497,0.00169159,0.0010449,0.00200284,-0.00181623,1.28129,0.00220582,0.013597,1770,561,17.6658,13.549
553,463,17.6711,-12.8508,-0.00190138,0.00215662,0.00118546,0.00247755,-0.00222231,1.30642,0.0027148,0.0120397,1777,561,17.6711,12.8508
560,463,17.6986,-12.0467,-0.00212195,0.00276465,0.00141873,0.00314668,-0.00250398,1.30776,0.00326944,0.0222951,1784,561,17.6986,12.0467
567,463,17.5322,-11.3771,-0.00206101,0.00369819,0.00196156,0.00430281,-0.00266564,1.2718,0.00406008,0.0319481,1791,561,17.5323,11.3771
574,463,17.6058,-10.7164,0,0,0,0,0,0,0,-1,1798,561,17.6058,10.7164
581,463,9.4939,-3.88245,0,0,0,0,0,0,0,-1,1805,561,9.49392,3.88245
588,463,1.97424,2.16016,0,0,0,0,0,0,0,-1,1812,561,1.97422,-2.16013
595,463,9.98657,2.99854,0,0,0,0,0,0,0,-1,1819,561,9.98662,-2.99856
602,463,17.2202,4.91302,0,0,0,0,0,0,0,-1,1826,561,17.2202,-4.91305
609,463,17.96,4.03131,0,0,0,0,0,0,0,-1,1833,561,17.96,-4.03132
616,463,20.8352,3.15131,0,0,0,0,0,0,0,-1,1840,561,20.8352,-3.1513
623,463,0,0,0,0,0,0,0,0,0,-1,1847,561,0,0
630,463,0,0,0,0,0,0,0,0,0,-1,1854,561,0,0
637,463,0,0,0,0,0,0,0,0,0,-1,1861,561,0,0
644,463,0,0,0,0,0,0,0,0,0,-1,1868,561,0,0
651,463,0,0,0,0,0,0,0,0,0,-1,1875,561,0,0
658,463,0,0,0,0,0,0,0,0,0,-1,1882,561,0,0
665,463,0,0,0,0,0,0,0,0,0,-1,1889,561,0,0
672,463,0,0,0,0,0,0,0,0,0,-1,1896,561,0,0
679,463,0,0,0,0,0,0,0,0,0,-1,1903,561,0,0
686,463,0,0,0,0,0,0,0,0,0,-1,1910,561,0,0
693,463,0,0,0,0,0,0,0,0,0,-1,1917,561,0,0
700,463,0,0,0,0,0,0,0,0,0,-1,1924,561,0,0
707,463,0,0,0,0,0,0,0,0,0,-1,1931,561,0,0
714,463,0,0,0,0,0,0,0,0,0,-1,1938,561,0,0
721,463,0,0,0,0,0,0,0,0,0,-1,1945,561,0,0
728,463,0,0,0,0,0,0,0,0,0,-1,1952,561,0,0
735,463,0,0,0,0,0,0,0,0,0,-1,1959,561,0,0
742,463,0,0,0,0,0,0,0,0,0,-1,1966,561,0,0
749,463,0,0,0,0,0,0,0,0,0,-1,1973,561,0,0
756,463,0,0,0,0,0,0,0,0,0,-1,1980,561,0,0
763,463,0,0,0,0,0,0,0,0,0,-1,1987,561,0,0
770,463,0,0,0,0,0,0,0,0,0,-1,1994,561,0,0
777,463,0,0,0,0,0,0,0,0,0,-1,2001,561,0,0
784,463,0,0,0,0,0,0,0,0,0,-1,2008,561,0,0
791,463,0,0,0,0,0,0,0,0,0,-1,2015,561,0,0
798,463,0,0,0,0,0,0,0,0,0,-1,2022,561,0,0
805,463,0,0,0,0,0,0,0,0,0,-1,2029,561,0,0
812,463,0,0,0,0,0,0,0,0,0,-1,2036,561,0,0
-700,456,0,0,0,0,0,0,0,0,0,-1,524,568,0,0
-693,456,0,0,0,0,0,0,0,0,0,-1,531,568,0,0
-686,456,0,0,0,0,0,0,0,0,0,-1,538,568,0,0
-679,456,0,0,0,0,0,0,0,0,0,-1,545,568,0,0
-672,456,0,0,0,0,0,0,0,0,0,-1,552,568,0,0
-665,456,0,0,0,0,0,0,0,0,0,-1,559,568,0,0
-658,456,0,0,0,0,0,0,0,0,0,-1,566,568,0,0
-651,456,0,0,0,0,0,0,0,0,0,-1,573,568,0,0
-644,456,0,0,0,0,0,0,0,0,0,-1,580,568,0,0
-637,456,0,0,0,0,0,0,0,0,0,-1,587,568,0,0
-630,456,0,0,0,0,0,0,0,0,0,-1,594,568,0,0
-623,456,0,0,0,0,0,0,0,0,0,-1,601,568,0,0
-616,456,0,0,0,0,0,0,0,0,0,-1,608,568,0,0
-609,456,0,0,0,0,0,0,0,0,0,-1,615,568,0,0
-602,456,0,0,0,0,0,0,0,0,0,-1,622,568,0,0
-595,456,0,0,0,0,0,0,0,0,0,-1,629,568,0,0
-588,456,0,0,0,0,0,0,0,0,0,-1,636,568,0,0
-581,456,0,0,0,0,0,0,0,0,0,-1,643,568,0,0
-574,456,0,0,0,0,0,0,0,0,0,-1,650,568,0,0
-567,456,0,0,0,0,0,0,0,0,0,-1,657,568,0,0
-560,456,0,0,0,0,0,0,0,0,0,-1,664,568,0,0
-553,456,0,0,0,0,0,0,0,0,0,-1,671,568,0,0
-546,456,0,0,0,0,0,0,0,0,0,-1,678,568,0,0
-539,456,0,0,0,0,0,0,0,0,0,-1,685,568,0,0
-532,456,0,0,0,0,0,0,0,0,0,-1,692,568,0,0
-525,456,0,0,0,0,0,0,0,0,0,-1,699,568,0,0
-518,456,0,0,0,0,0,0,0,0,0,-1,706,568,0,0
-511,456,0,0,0,0,0,0,0,0,0,-1,713,568,0,0
-504,456,-10.3994,-2.34839,0,0,0,0,0,0,0,-1,720,568,-10.3994,2.3484
-497,456,-9.21375,-2.38068,0,0,0,0,0,0,0,-1,727,568,-9.21372,2.38069
-490,456,-8.09058,-2.31824,0,0,0,0,0,0,0,-1,734,568,-8.09057,2.31821
-483,456,-6.66119,-2.24329,0,0,0,0,0,0,0,-1,741,568,-6.66121,2.24331
-476,456,-5.1499,-2.21185,0,0,0,0,0,0,0,-1,748,568,-5.14992,2.21184
-469,456,-2.81238,-3.51501,0,0,0,0,0,0,0,-1,755,568,-2.81237,3.51501
-462,456,-4.2431,-5.27478,0,0,0,0,0,0,0,-1,762,568,-4.24312,5.27476
-455,456,-5.98364,-8.72119,0,0,0,0,0,0,0,-1,769,568,-5.98364,8.72122
-448,456,-6.73419,-11.8241,0,0,0,0,0,0,0,-1,776,568,-6.73419,11.8241
-441,456,-6.57263,-12.8621,-0.00102594,0.0103385,-0.00341682,0.0112867,-0.00197412,-1.3001,0.00826152,0.0353314,783,568,-6.57266,12.8621
-434,456,-6.7041,-13.5813,-0.000358958,0.00879218,-0.0032067,0.00980399,-0.00137076,-1.26515,0.00703755,0.0176991,790,568,-6.70411,13.5813
-427,456,-6.71716,-14.2334,0.000112641,0.00733393,-0.00290614,0.00835819,-0.000911626,-1.23194,0.00589953,0.00916671,797,568,-6.71716,14.2334
-420,456,-6.73138,-14.8798,0.00048007,0.00590824,-0.00257448,0.00693503,-0.000546726,-1.19129,0.00481595,0.00901857,804,568,-6.7314,14.8798
-413,456,-6.76495,-15.5134,0.000712509,0.00445609,-0.00211207,0.00540644,-0.000237835,-1.14798,0.00368613,0.00861027,811,568,-6.76495,15.5134
-406,456,-6.81488,-16.1311,0.000855187,0.00299831,-0.00153481,0.00379861,5.48844e-05,-1.09015,0.00251431,0.00930324,818,568,-6.81488,16.1311
-399,456,-6.83405,-16.7558,0.00108425,0.00169314,-0.000980488,0.00241536,0.000362028,-0.935932,0.00150416,0.0117465,825,568,-6.83402,16.7558
-392,456,-6.83997,-17.3813,0.0014092,0.000417379,-0.000443875,0.00157884,0.000247744,-0.365041,0.000980468,0.011586,832,568,-6.83997,17.3814
-385,456,-6.85986,-18.0171,0.00179037,-0.000723338,-8.63745e-06,0.0017904,-0.000723368,-0.00343609,0.00149427,0.0108926,839,568,-6.85985,18.0171
-378,456,-6.88629,-18.6675,0.00224485,-0.00173843,0.000425367,0.00228977,-0.00178335,0.105207,0.00235767,0.0113707,846,568,-6.8863,18.6675
-371,456,-6.9035,-19.2761,0.00285942,-0.00261093,0.000826912,0.00298169,-0.00273319,0.146794,0.00330053,0.0127818,853,568,-6.90353,19.2761
-364,456,-6.90118,-19.8292,0.00364145,-0.00316389,0.00103403,0.00379509,-0.00331753,0.14751,0.00410956,0.0268591,860,568,-6.90117,19.8292
-357,456,-6.81439,-20.5146,0,0,0,0,0,0,0,-1,867,568,-6.81436,20.5146
-350,456,-6.67554,-21.3416,0,0,0,0,0,0,0,-1,874,568,-6.67555,21.3416
-343,456,-3.39081,-12.0217,0,0,0,0,0,0,0,-1,881,568,-3.39078,12.0217
-336,456,-3.04517,-12.4623,0,0,0,0,0,0,0,-1,888,568,-3.04519,12.4624
-329,456,-1.06183,-10.7184,0,0,0,0,0,0,0,-1,895,568,-1.06184,10.7184
-322,456,-0.662537,-7.66632,0,0,0,0,0,0,0,-1,902,568,-0.662564,7.66633
-315,456,-0.675476,-3.38397,0,0,0,0,0,0,0,-1,909,568,-0.675473,3.38399
-308,456,-1.1618,-3.15314,0,0,0,0,0,0,0,-1,916,568,-1.16178,3.15314
-301,456,-1.83551,-3.26447,0,0,0,0,0,0,0,-1,923,568,-1.8355,3.26449
-294,456,-2.93414,-3.35449,0,0,0,0,0,0,0,-1,930,568,-2.93413,3.35451
-287,456,-3.7569,-3.53101,0,0,0,0,0,0,0,-1,937,568,-3.75692,3.53101
-280,456,-13.072,4.52856,0,0,0,0,0,0,0,-1,944,568,-13.072,-4.52855
-273,456,-8.26538,-6.66748,0,0,0,0,0,0,0,-1,951,568,-8.26536,6.66745
-266,456,-5.71527,-9.36884,0,0,0,0,0,0,0,-1,958,568,-5.71529,9.36885
-259,456,0,0,0,0,0,0,0,0,0,-1,965,568,0,0
-252,456,0,0,0,0,0,0,0,0,0,-1,972,568,0,0
-245,456,0,0,0,0,0,0,0,0,0,-1,979,568,0,0
-238,456,0,0,0,0,0,0,0,0,0,-1,986,568,0,0
-231,456,0,0,0,0,0,0,0,0,0,-1,993,568,0,0
-224,456,0,0,0,0,0,0,0,0,0,-1,1000,568,0,0
-217,456,0,0,0,0,0,0,0,0,0,-1,1007,568,0,0
-210,456,0,0,0,0,0,0,0,0,0,-1,1014,568,0,0
-203,456,0,0,0,0,0,0,0,0,0,-1,1021,568,0,0
-196,456,0,0,0,0,0,0,0,0,0,-1,1028,568,0,0
-189,456,0,0,0,0,0,0,0,0,0,-1,1035,568,0,0
-182,456,0,0,0,0,0,0,0,0,0,-1,1042,568,0,0
-175,456,0,0,0,0,0,0,0,0,0,-1,1049,568,0,0
-168,456,0,0,0,0,0,0,0,0,0,-1,1056,568,0,0
-161,456,0,0,0,0,0,0,0,0,0,-1,1063,568,0,0
-154,456,0,0,0,0,0,0,0,0,0,-1,1070,568,0,0
-147,456,0,0,0,0,0,0,0,0,0,-1,1077,568,0,0
-140,456,0,0,0,0,0,0,0,0,0,-1,1084,568,0,0
-133,456,0,0,0,0,0,0,0,0,0,-1,1091,568,0,0
-126,456,0,0,0,0,0,0,0,0,0,-1,1098,568,0,0
-119,456,0,0,0,0,0,0,0,0,0,-1,1105,568,0,0
-112,456,0,0,0,0,0,0,0,0,0,-1,1112,568,0,0
-105,456,0,0,0,0,0,0,0,0,0,-1,1119,568,0,0
-98,456,0,0,0,0,0,0,0,0,0,-1,1126,568,0,0
-91,456,0,0,0,0,0,0,0,0,0,-1,1133,568,0,0
-84,456,0,0,0,0,0,0,0,0,0,-1,1140,568,0,0
-77,456,0,0,0,0,0,0,0,0,0,-1,1147,568,0,0
-70,456,0,0,0,0,0,0,0,0,0,-1,1154,568,0,0
-63,456,0,0,0,0,0,0,0,0,0,-1,1161,568,0,0
-56,456,0,0,0,0,0,0,0,0,0,-1,1168,568,0,0
-49,456,0,0,0,0,0,0,0,0,0,-1,1175,568,0,0
-42,456,0,0,0,0,0,0,0,0,0,-1,1182,568,0,0
-35,456,0,0,0,0,0,0,0,0,0,-1,1189,568,0,0
-28,456,0,0,0,0,0,0,0,0,0,-1,1196,568,0,0
-21,456,0,0,0,0,0,0,0,0,0,-1,1203,568,0,0
-14,456,0,0,0,0,0,0,0,0,0,-1,1210,568,0,0
-7,456,0,0,0,0,0,0,0,0,0,-1,1217,568,0,0
0,456,0,0,0,0,0,0,0,0,0,-1,1224,568,0,0
7,456,0,0,0,0,0,0,0,0,0,-1,1231,568,0,0
14,456,0,0,0,0,0,0,0,0,0,-1,1238,568,0,0
21,456,0,0,0,0,0,0,0,0,0,-1,1245,568,0,0
28,456,0,0,0,0,0,0,0,0,0,-1,1252,568,0,0
35,456,0,0,0,0,0,0,0,0,0,-1,1259,568,0,0
42,456,0,0,0,0,0,0,0,0,0,-1,1266,568,0,0
49,456,0,0,0,0,0,0,0,0,0,-1,1273,568,0,0
56,456,0,0,0,0,0,0,0,0,0,-1,1280,568,0,0
63,456,0,0,0,0,0,0,0,0,0,-1,1287,568,0,0
70,456,0,0,0,0,0,0,0,0,0,-1,1294,568,0,0
77,456,0,0,0,0,0,0,0,0,0,-1,1301,568,0,0
84,456,0,0,0,0,0,0,0,0,0,-1,1308,568,0,0
91,456,0,0,0,0,0,0,0,0,0,-1,1315,568,0,0
98,456,0,0,0,0,0,0,0,0,0,-1,1322,568,0,0
105,456,0,0,0,0,0,0,0,0,0,-1,1329,568,0,0
112,456,0,0,0,0,0,0,0,0,0,-1,1336,568,0,0
119,456,0,0,0,0,0,0,0,0,0,-1,1343,568,0,0
126,456,0,0,0,0,0,0,0,0,0,-1,1350,568,0,0
133,456,0,0,0,0,0,0,0,0,0,-1,1357,568,0,0
140,456,0,0,0,0,0,0,0,0,0,-1,1364,568,0,0
147,456,0,0,0,0,0,0,0,0,0,-1,1371,568,0,0
154,456,0,0,0,0,0,0,0,0,0,-1,1378,568,0,0
161,456,0,0,0,0,0,0,0,0,0,-1,1385,568,0,0
168,456,0,0,0,0,0,0,0,0,0,-1,1392,568,0,0
175,456,0,0,0,0,0,0,0,0,0,-1,1399,568,0,0
182,456,0,0,0,0,0,0,0,0,0,-1,1406,568,0,0
189,456,0,0,0,0,0,0,0,0,0,-1,1413,568,0,0
196,456,0,0,0,0,0,0,0,0,0,-1,1420,568,0,0
203,456,0,0,0,0,0,0,0,0,0,-1,1427,568,0,0
210,456,0,0,0,0,0,0,0,0,0,-1,1434,568,0,0
217,456,0,0,0,0,0,0,0,0,0,-1,1441,568,0,0
224,456,0,0,0,0,0,0,0,0,0,-1,1448,568,0,0
231,456,0,0,0,0,0,0,0,0,0,-1,1455,568,0,0
238,456,0,0,0,0,0,0,0,0,0,-1,1462,568,0,0
245,456,0,0,0,0,0,0,0,0,0,-1,1469,568,0,0
252,456,0,0,0,0,0,0,0,0,0,-1,1476,568,0,0
259,456,0,0,0,0,0,0,0,0,0,-1,1483,568,0,0
266,456,0,0,0,0,0,0,0,0,0,-1,1490,568,0,0
273,456,0,0,0,0,0,0,0,0,0,-1,1497,568,0,0
280,456,0,0,0,0,0,0,0,0,0,-1,1504,568,0,0
287,456,0,0,0,0,0,0,0,0,0,-1,1511,568,0,0
294,456,0,0,0,0,0,0,0,0,0,-1,1518,568,0,0
301,456,0,0,0,0,0,0,0,0,0,-1,1525,568,0,0
308,456,0,0,0,0,0,0,0,0,0,-1,1532,568,0,0
315,456,0,0,0,0,0,0,0,0,0,-1,1539,568,0,0
322,456,0,0,0,0,0,0,0,0,0,-1,1546,568,0,0
329,456,0,0,0,0,0,0,0,0,0,-1,1553,568,0,0
336,456,0,0,0,0,0,0,0,0,0,-1,1560,568,0,0
343,456,0,0,0,0,0,0,0,0,0,-1,1567,568,0,0
350,456,0,0,0,0,0,0,0,0,0,-1,1574,568,0,0
357,456,0,0,0,0,0,0,0,0,0,-1,1581,568,0,0
364,456,0,0,0,0,0,0,0,0,0,-1,1588,568,0,0
371,456,0,0,0,0,0,0,0,0,0,-1,1595,568,0,0
378,456,0,0,0,0,0,0,0,0,0,-1,1602,568,0,0
385,456,5.66284,0.660645,0,0,0,0,0,0,0,-1,1609,568,5.66285,-0.660615
392,456,17.5027,4.32971,0,0,0,0,0,0,0,-1,1616,568,17.5026,-4.32971
399,456,24.1917,5.99652,0,0,0,0,0,0,0,-1,1623,568,24.1916,-5.99651
406,456,24.446,4.53003,0,0,0,0,0,0,0,-1,1630,568,24.446,-4.53005
413,456,24.9418,2.90521,0,0,0,0,0,0,0,-1,1637,568,24.9418,-2.90524
420,456,25.3048,1.04712,0,0,0,0,0,0,0,-1,1644,568,25.3048,-1.04713
427,456,6.21375,2.02905,0,0,0,0,0,0,0,-1,1651,568,6.21372,-2.02904
434,456,3.0719,-4.86285,0,0,0,0,0,0,0,-1,1658,568,3.07184,4.86287
441,456,2.90344,-4.70459,0,0,0,0,0,0,0,-1,1665,568,2.90346,4.7046
448,456,3.06995,-4.93689,0,0,0,0,0,0,0,-1,1672,568,3.06991,4.93687
455,456,3.46582,-3.43701,0,0,0,0,0,0,0,-1,1679,568,3.46585,3.43698
462,456,4.68445,-4.45831,0,0,0,0,0,0,0,-1,1686,568,4.68439,4.45833
469,456,4.93201,-2.289,0,0,0,0,0,0,0,-1,1693,568,4.93197,2.28903
476,456,4.8363,-2.79364,0,0,0,0,0,0,0,-1,1700,568,4.83636,2.79363
483,456,12.8522,-13.692,0,0,0,0,0,0,0,-1,1707,568,12.8522,13.6919
490,456,18.4631,-19.0396,0,0,0,0,0,0,0,-1,1714,568,18.4631,19.0396
497,456,18.4952,-18.0668,0,0,0,0,0,0,0,-1,1721,568,18.4953,18.0669
504,456,18.4647,-17.4525,0.0034183,0.00142173,0.00137669,0.00412056,0.000719472,0.471699,0.00254139,0.0142389,1728,568,18.4647,17.4525
511,456,18.4845,-16.8062,0.00273829,0.0012311,0.00128409,0.00347358,0.000495809,0.520044,0.00216942,0.0150792,1735,568,18.4845,16.8062
518,456,18.4689,-16.1441,0.00204932,0.00106994,0.00119517,0.00285123,0.000268036,0.590968,0.00181807,0.0188146,1742,568,18.4689,16.1441
525,456,18.4139,-15.4777,0.00132803,0.00103344,0.00108636,0.00227703,8.44341e-05,0.718016,0.00149067,0.0181619,1749,568,18.4139,15.4777
532,456,18.42,-14.7953,0.000669708,0.0010837,0.00102215,0.0019196,-0.000166188,0.885304,0.00133857,0.0168835,1756,568,18.42,14.7953
539,456,18.3795,-14.1138,0.00010099,0.00118706,0.00100099,0.00178283,-0.000494778,1.03393,0.0013833,0.0195095,1763,568,18.3795,14.1139
546,456,18.3044,-13.4584,-0.000355445,0.00145793,0.00103236,0.00192523,-0.000822748,1.14574,0.00162855,0.0213499,1770,568,18.3045,13.4584
553,456,18.2842,-12.7768,-0.000716249,0.00185289,0.00115887,0.00229837,-0.00116174,1.2038,0.00203331,0.014079,1777,568,18.2842,12.7768
560,456,18.2882,-12.1301,-0.000941011,0.00234663,0.00138379,0.00285153,-0.00144591,1.22094,0.00252498,0.0111674,1784,568,18.2882,12.1301
567,456,18.2646,-11.4467,-0.000881331,0.00312554,0.00189492,0.00387973,-0.00163552,1.19201,0.00327092,0.0190871,1791,568,18.2647,11.4467
574,456,18.2751,-10.8057,0,0,0,0,0,0,0,-1,1798,568,18.2751,10.8057
581,456,16.2228,-9.08563,0,0,0,0,0,0,0,-1,1805,568,16.2228,9.08562
588,456,5.23901,-0.0901489,0,0,0,0,0,0,0,-1,1812,568,5.23906,0.0901656
595,456,6.90063,3.14886,0,0,0,0,0,0,0,-1,1819,568,6.90066,-3.14887
602,456,16.894,4.10938,0,0,0,0,0,0,0,-1,1826,568,16.8941,-4.1094
609,456,14.9966,3.5708,0,0,0,0,0,0,0,-1,1833,568,14.9966,-3.57083
616,456,17.7407,2.6579,0,0,0,0,0,0,0,-1,1840,568,17.7408,-2.6579
623,456,20.6838,1.7121,0,0,0,0,0,0,0,-1,1847,568,20.6838,-1.71208
630,456,0,0,0,0,0,0,0,0,0,-1,1854,568,0,0
637,456,0,0,0,0,0,0,0,0,0,-1,1861,568,0,0
644,456,0,0,0,0,0,0,0,0,0,-1,1868,568,0,0
651,456,0,0,0,0,0,0,0,0,0,-1,1875,568,0,0
658,456,0,0,0,0,0,0,0,0,0,-1,1882,568,0,0
665,456,0,0,0,0,0,0,0,0,0,-1,1889,568,0,0
672,456,0,0,0,0,0,0,0,0,0,-1,1896,568,0,0
679,456,0,0,0,0,0,0,0,0,0,-1,1903,568,0,0
686,456,0,0,0,0,0,0,0,0,0,-1,1910,568,0,0
693,456,0,0,0,0,0,0,0,0,0,-1,1917,568,0,0
700,456,0,0,0,0,0,0,0,0,0,-1,1924,568,0,0
707,456,0,0,0,0,0,0,0,0,0,-1,1931,568,0,0
714,456,0,0,0,0,0,0,0,0,0,-1,1938,568,0,0
721,456,0,0,0,0,0,0,0,0,0,-1,1945,568,0,0
728,456,0,0,0,0,0,0,0,0,0,-1,1952,568,0,0
735,456,0,0,0,0,0,0,0,0,0,-1,1959,568,0,0
742,456,0,0,0,0,0,0,0,0,0,-1,1966,568,0,0
749,456,0,0,0,0,0,0,0,0,0,-1,1973,568,0,0
756,456,0,0,0,0,0,0,0,0,0,-1,1980,568,0,0
763,456,0,0,0,0,0,0,0,0,0,-1,1987,568,0,0
770,456,0,0,0,0,0,0,0,0,0,-1,1994,568,0,0
777,456,0,0,0,0,0,0,0,0,0,-1,2001,568,0,0
784,456,0,0,0,0,0,0,0,0,0,-1,2008,568,0,0
791,456,0,0,0,0,0,0,0,0,0,-1,2015,568,0,0
798,456,0,0,0,0,0,0,0,0,0,-1,2022,568,0,0
805,456,0,0,0,0,0,0,0,0,0,-1,2029,568,0,0
812,456,0,0,0,0,0,0,0,0,0,-1,2036,568,0,0
-700,449,0,0,0,0,0,0,0,0,0,-1,524,575,0,0
-693,449,0,0,0,0,0,0,0,0,0,-1,531,575,0,0
-686,449,0,0,0,0,0,0,0,0,0,-1,538,575,0,0
-679,449,0,0,0,0,0,0,0,0,0,-1,545,575,0,0
-672,449,0,0,0,0,0,0,0,0,0,-1,552,575,0,0
-665,449,0,0,0,0,0,0,0,0,0,-1,559,575,0,0
-658,449,0,0,0,0,0,0,0,0,0,-1,566,575,0,0
-651,449,0,0,0,0,0,0,0,0,0,-1,573,575,0,0
-644,449,0,0,0,0,0,0,0,0,0,-1,580,575,0,0
-637,449,0,0,0,0,0,0,0,0,0,-1,587,575,0,0
-630,449,0,0,0,0,0,0,0,0,0,-1,594,575,0,0
-623,449,0,0,0,0,0,0,0,0,0,-1,601,575,0,0
-616,449,0,0,0,0,0,0,0,0,0,-1,608,575,0,0
-609,449,0,0,0,0,0,0,0,0,0,-1,615,575,0,0
-602,449,0,0,0,0,0,0,0,0,0,-1,622,575,0,0
-595,449,0,0,0,0,0,0,0,0,0,-1,629,575,0,0
-588,449,0,0,0,0,0,0,0,0,0,-1,636,575,0,0
-581,449,0,0,0,0,0,0,0,0,0,-1,643,575,0,0
-574,449,0,0,0,0,0,0,0,0,0,-1,650,575,0,0
-567,449,0,0,0,0,0,0,0,0,0,-1,657,575,0,0
-560,449,0,0,0,0,0,0,0,0,0,-1,664,575,0,0
-553,449,0,0,0,0,0,0,0,0,0,-1,671,575,0,0
-546,449,0,0,0,0,0,0,0,0,0,-1,678,575,0,0
-539,449,0,0,0,0,0,0,0,0,0,-1,685,575,0,0
-532,449,0,0,0,0,0,0,0,0,0,-1,692,575,0,0
-525,449,0,0,0,0,0,0,0,0,0,-1,699,575,0,0
-518,449,0,0,0,0,0,0,0,0,0,-1,706,575,0,0
-511,449,-0.941345,-4.4519,0,0,0,0,0,0,0,-1,713,575,-0.941356,4.45191
-504,449,-14.1078,0.318237,0,0,0,0,0,0,0,-1,720,575,-14.1078,-0.318231
-497,449,-8.61292,-3.09009,0,0,0,0,0,0,0,-1,727,575,-8.61291,3.09011
-490,449,-7.50995,-2.96252,0,0,0,0,0,0,0,-1,734,575,-7.50995,2.96251
-483,449,-5.77789,-2.50061,0,0,0,0,0,0,0,-1,741,575,-5.77792,2.50059
-476,449,-4.1723,-2.07739,0,0,0,0,0,0,0,-1,748,575,-4.17228,2.0774
-469,449,-5.0976,-5.78448,0,0,0,0,0,0,0,-1,755,575,-5.09758,5.78451
-462,449,-6.54181,-9.54535,0,0,0,0,0,0,0,-1,762,575,-6.54178,9.54536
-455,449,-7.5069,-11.1528,0,0,0,0,0,0,0,-1,769,575,-7.50687,11.1527
-448,449,-7.24249,-12.1007,-0.00161068,0.00908765,-0.00276871,0.00976172,-0.00228475,-1.33198,0.00738811,0.0452345,776,575,-7.2425,12.1007
-441,449,-7.25879,-12.9731,-0.000871261,0.00770935,-0.00261778,0.00844493,-0.00160684,-1.29687,0.00623497,0.0212871,783,575,-7.25878,12.9731
-434,449,-7.33868,-13.5742,-0.000277655,0.00637937,-0.00236459,0.00713378,-0.00103207,-1.26196,0.00513457,0.0140185,790,575,-7.33867,13.5741
-427,449,-7.35706,-14.1971,0.000153617,0.00513137,-0.00205108,0.00586762,-0.000582633,-1.22616,0.00411972,0.0133974,797,575,-7.35703,14.1971
-420,449,-7.36957,-14.8334,0.000513829,0.00391659,-0.00173244,0.00464339,-0.000212967,-1.17357,0.00316897,0.0127087,804,575,-7.36958,14.8333
-413,449,-7.39398,-15.4682,0.000739678,0.00265325,-0.00128609,0.00329943,9.35055e-05,-1.10521,0.00216912,0.00989066,811,575,-7.39401,15.4682
-406,449,-7.42889,-16.1072,0.000891582,0.00138258,-0.000750855,0.00192705,0.000347111,-0.9434,0.00118605,0.00956578,818,575,-7.42887,16.1072
-399,449,-7.46307,-16.7465,0.00115659,0.000262102,-0.000267131,0.00123029,0.000188398,-0.26921,0.000765166,0.00956899,825,575,-7.46309,16.7465
-392,449,-7.46417,-17.3727,0.00152382,-0.000837041,0.000186115,0.0015384,-0.000851623,0.0781901,0.00139874,0.0103114,832,575,-7.46417,17.3727
-385,449,-7.47852,-17.9821,0.00193588,-0.0018194,0.000544874,0.00201334,-0.00189686,0.141217,0.00225789,0.0106387,839,575,-7.47851,17.9821
-378,449,-7.52228,-18.604,0.00245242,-0.00271854,0.000902428,0.00260539,-0.0028715,0.167908,0.00316333,0.00976256,846,575,-7.52228,18.604
-371,449,-7.5188,-19.2534,0.0031869,-0.00345327,0.00125787,0.00341719,-0.00368357,0.181078,0.00410059,0.0182807,853,575,-7.51878,19.2534
-364,449,-7.50208,-19.916,0,0,0,0,0,0,0,-1,860,575,-7.50206,19.916
-357,449,-5.88049,-15.8704,0,0,0,0,0,0,0,-1,867,575,-5.88051,15.8704
-350,449,-2.8764,-9.90204,0,0,0,0,0,0,0,-1,874,575,-2.87638,9.90203
-343,449,-2.98492,-9.2254,0,0,0,0,0,0,0,-1,881,575,-2.98491,9.22541
-336,449,-1.29523,-9.54626,0,0,0,0,0,0,0,-1,888,575,-1.29525,9.54626
-329,449,-0.733398,-7.78937,0,0,0,0,0,0,0,-1,895,575,-0.733398,7.78937
-322,449,-0.628845,-3.16669,0,0,0,0,0,0,0,-1,902,575,-0.628861,3.16667
-315,449,-0.540344,-3.21918,0,0,0,0,0,0,0,-1,909,575,-0.540336,3.21917
-308,449,-1.04413,-2.99341,0,0,0,0,0,0,0,-1,916,575,-1.04415,2.99338
-301,449,-1.58691,-2.80725,0,0,0,0,0,0,0,-1,923,575,-1.58692,2.80728
-294,449,-3.71118,-2.76086,0,0,0,0,0,0,0,-1,930,575,-3.71119,2.76087
-287,449,-4.4082,-2.69525,0,0,0,0,0,0,0,-1,937,575,-4.40822,2.69526
-280,449,0.723999,-14.2697,0,0,0,0,0,0,0,-1,944,575,0.723977,14.2696
-273,449,0,0,0,0,0,0,0,0,0,-1,951,575,0,0
-266,449,0,0,0,0,0,0,0,0,0,-1,958,575,0,0
-259,449,0,0,0,0,0,0,0,0,0,-1,965,575,0,0
-252,449,0,0,0,0,0,0,0,0,0,-1,972,575,0,0
-245,449,0,0,0,0,0,0,0,0,0,-1,979,575,0,0
-238,449,0,0,0,0,0,0,0,0,0,-1,986,575,0,0
-231,449,0,0,0,0,0,0,0,0,0,-1,993,575,0,0
-224,449,0,0,0,0,0,0,0,0,0,-1,1000,575,0,0
-217,449,0,0,0,0,0,0,0,0,0,-1,1007,575,0,0
-210,449,0,0,0,0,0,0,0,0,0,-1,1014,575,0,0
-203,449,0,0,0,0,0,0,0,0,0,-1,1021,575,0,0
-196,449,0,0,0,0,0,0,0,0,0,-1,1028,575,0,0
-189,449,0,0,0,0,0,0,0,0,0,-1,1035,575,0,0
-182,449,0,0,0,0,0,0,0,0,0,-1,1042,575,0,0
-175,449,0,0,0,0,0,0,0,0,0,-1,1049,575,0,0
-168,449,0,0,0,0,0,0,0,0,0,-1,1056,575,0,0
-161,449,0,0,0,0,0,0,0,0,0,-1,1063,575,0,0
-154,449,0,0,0,0,0,0,0,0,0,-1,1070,575,0,0
-147,449,0,0,0,0,0,0,0,0,0,-1,1077,575,0,0
-140,449,0,0,0,0,0,0,0,0,0,-1,1084,575,0,0
-133,449,0,0,0,0,0,0,0,0,0,-1,1091,575,0,0
-126,449,0,0,0,0,0,0,0,0,0,-1,1098,575,0,0
-119,449,0,0,0,0,0,0,0,0,0,-1,1105,575,0,0
-112,449,0,0,0,0,0,0,0,0,0,-1,1112,575,0,0
-105,449,0,0,0,0,0,0,0,0,0,-1,1119,575,0,0
-98,449,0,0,0,0,0,0,0,0,0,-1,1126,575,0,0
-91,449,0,0,0,0,0,0,0,0,0,-1,1133,575,0,0
-84,449,0,0,0,0,0,0,0,0,0,-1,1140,575,0,0
-77,449,0,0,0,0,0,0,0,0,0,-1,1147,575,0,0
-70,449,0,0,0,0,0,0,0,0,0,-1,1154,575,0,0
-63,449,0,0,0,0,0,0,0,0,0,-1,1161,575,0,0
-56,449,0,0,0,0,0,0,0,0,0,-1,1168,575,0,0
-49,449,0,0,0,0,0,0,0,0,0,-1,1175,575,0,0
-42,449,0,0,0,0,0,0,0,0,0,-1,1182,575,0,0
-35,449,0,0,0,0,0,0,0,0,0,-1,1189,575,0,0
-28,449,0,0,0,0,0,0,0,0,0,-1,1196,575,0,0
-21,449,0,0,0,0,0,0,0,0,0,-1,1203,575,0,0
-14,449,0,0,0,0,0,0,0,0,0,-1,1210,575,0,0
-7,449,0,0,0,0,0,0,0,0,0,-1,1217,575,0,0
0,449,0,0,0,0,0,0,0,0,0,-1,1224,575,0,0
7,449,0,0,0,0,0,0,0,0,0,-1,1231,575,0,0
14,449,0,0,0,0,0,0,0,0,0,-1,1238,575,0,0
21,449,0,0,0,0,0,0,0,0,0,-1,1245,575,0,0
28,449,0,0,0,0,0,0,0,0,0,-1,1252,575,0,0
35,449,0,0,0,0,0,0,0,0,0,-1,1259,575,0,0
42,449,0,0,0,0,0,0,0,0,0,-1,1266,575,0,0
49,449,0,0,0,0,0,0,0,0,0,-1,1273,575,0,0
56,449,0,0,0,0,0,0,0,0,0,-1,1280,575,0,0
63,449,0,0,0,0,0,0,0,0,0,-1,1287,575,0,0
70,449,0,0,0,0,0,0,0,0,0,-1,1294,575,0,0
77,449,0,0,0,0,0,0,0,0,0,-1,1301,575,0,0
84,449,0,0,0,0,0,0,0,0,0,-1,1308,575,0,0
91,449,0,0,0,0,0,0,0,0,0,-1,1315,575,0,0
98,449,0,0,0,0,0,0,0,0,0,-1,1322,575,0,0
105,449,0,0,0,0,0,0,0,0,0,-1,1329,575,0,0
112,449,0,0,0,0,0,0,0,0,0,-1,1336,575,0,0
119,449,0,0,0,0,0,0,0,0,0,-1,1343,575,0,0
126,449,0,0,0,0,0,0,0,0,0,-1,1350,575,0,0
133,449,0,0,0,0,0,0,0,0,0,-1,1357,575,0,0
140,449,0,0,0,0,0,0,0,0,0,-1,1364,575,0,0
147,449,0,0,0,0,0,0,0,0,0,-1,1371,575,0,0
154,449,0,0,0,0,0,0,0,0,0,-1,1378,575,0,0
161,449,0,0,0,0,0,0,0,0,0,-1,1385,575,0,0
168,449,0,0,0,0,0,0,0,0,0,-1,1392,575,0,0
175,449,0,0,0,0,0,0,0,0,0,-1,1399,575,0,0
182,449,0,0,0,0,0,0,0,0,0,-1,1406,575,0,0
189,449,0,0,0,0,0,0,0,0,0,-1,1413,575,0,0
196,449,0,0,0,0,0,0,0,0,0,-1,1420,575,0,0
203,449,0,0,0,0,0,0,0,0,0,-1,1427,575,0,0
210,449,0,0,0,0,0,0,0,0,0,-1,1434,575,0,0
217,449,0,0,0,0,0,0,0,0,0,-1,1441,575,0,0
224,449,0,0,0,0,0,0,0,0,0,-1,1448,575,0,0
231,449,0,0,0,0,0,0,0,0,0,-1,1455,575,0,0
238,449,0,0,0,0,0,0,0,0,0,-1,1462,575,0,0
245,449,0,0,0,0,0,0,0,0,0,-1,1469,575,0,0
252,449,0,0,0,0,0,0,0,0,0,-1,1476,575,0,0
259,449,0,0,0,0,0,0,0,0,0,-1,1483,575,0,0
266,449,0,0,0,0,0,0,0,0,0,-1,1490,575,0,0
273,449,0,0,0,0,0,0,0,0,0,-1,1497,575,0,0
280,449,0,0,0,0,0,0,0,0,0,-1,1504,575,0,0
287,449,0,0,0,0,0,0,0,0,0,-1,1511,575,0,0
294,449,0,0,0,0,0,0,0,0,0,-1,1518,575,0,0
301,449,0,0,0,0,0,0,0,0,0,-1,1525,575,0,0
308,449,0,0,0,0,0,0,0,0,0,-1,1532,575,0,0
315,449,0,0,0,0,0,0,0,0,0,-1,1539,575,0,0
322,449,0,0,0,0,0,0,0,0,0,-1,1546,575,0,0
329,449,0,0,0,0,0,0,0,0,0,-1,1553,575,0,0
336,449,0,0,0,0,0,0,0,0,0,-1,1560,575,0,0
343,449,0,0,0,0,0,0,0,0,0,-1,1567,575,0,0
350,449,0,0,0,0,0,0,0,0,0,-1,1574,575,0,0
357,449,0,0,0,0,0,0,0,0,0,-1,1581,575,0,0
364,449,0,0,0,0,0,0,0,0,0,-1,1588,575,0,0
371,449,0,0,0,0,0,0,0,0,0,-1,1595,575,0,0
378,449,0,0,0,0,0,0,0,0,0,-1,1602,575,0,0
385,449,0,0,0,0,0,0,0,0,0,-1,1609,575,0,0
392,449,7.95471,3.66217,0,0,0,0,0,0,0,-1,1616,575,7.95471,-3.66218
399,449,19.9791,5.565,0,0,0,0,0,0,0,-1,1623,575,19.9791,-5.56499
406,449,24.9847,4.55969,0,0,0,0,0,0,0,-1,1630,575,24.9848,-4.55968
413,449,30.4159,3.15027,0,0,0,0,0,0,0,-1,1637,575,30.4159,-3.15028
420,449,23.9675,1.29718,0,0,0,0,0,0,0,-1,1644,575,23.9675,-1.29721
427,449,24.4276,-0.596558,0,0,0,0,0,0,0,-1,1651,575,24.4277,0.596569
434,449,25.61,-2.96594,0,0,0,0,0,0,0,-1,1658,575,25.61,2.96595
441,449,3.89856,-6.06458,0,0,0,0,0,0,0,-1,1665,575,3.89855,6.06459
448,449,4.03198,-5.18207,0,0,0,0,0,0,0,-1,1672,575,4.03197,5.18207
455,449,4.21948,-4.09467,0,0,0,0,0,0,0,-1,1679,575,4.21952,4.09465
462,449,4.23181,-2.96924,0,0,0,0,0,0,0,-1,1686,575,4.23185,2.96926
469,449,4.51672,-2.95135,0,0,0,0,0,0,0,-1,1693,575,4.51672,2.95135
476,449,4.71838,-1.86688,0,0,0,0,0,0,0,-1,1700,575,4.71842,1.86689
483,449,4.87878,-1.73126,0,0,0,0,0,0,0,-1,1707,575,4.87875,1.73128
490,449,5.73279,-2.74573,0,0,0,0,0,0,0,-1,1714,575,5.73282,2.74575
497,449,17.2095,-16.4381,0,0,0,0,0,0,0,-1,1721,575,17.2094,16.4381
504,449,19.0648,-17.4483,0,0,0,0,0,0,0,-1,1728,575,19.0648,17.4483
511,449,19.1151,-16.7742,0.00365743,0.00157716,0.00166348,0.0045792,0.000655393,0.506,0.00285948,0.0135843,1735,575,19.1151,16.7742
518,449,19.1052,-16.1146,0.00298874,0.00122012,0.00147804,0.00382681,0.000382051,0.515814,0.00243387,0.0145018,1742,575,19.1052,16.1146
525,449,19.058,-15.4556,0.00225494,0.00107022,0.00127966,0.00307269,0.000252468,0.56863,0.0019697,0.0139296,1749,575,19.0579,15.4556
532,449,19.0239,-14.7867,0.00159112,0.00101463,0.00113937,0.00247814,0.00012761,0.661504,0.00161124,0.0106749,1756,575,19.0239,14.7868
539,449,18.9805,-14.1088,0.00103319,0.00104761,0.00107022,0.00211065,-2.9848e-05,0.788768,0.00141715,0.0135503,1763,575,18.9804,14.1088
546,449,18.9546,-13.4229,0.000578987,0.00122255,0.00105478,0.00200354,-0.000202002,0.933449,0.00140787,0.0240141,1770,575,18.9546,13.4229
553,449,18.9235,-12.7817,0.000182678,0.00152823,0.00113111,0.00217152,-0.000460617,1.05369,0.00162315,0.0177951,1777,575,18.9234,12.7817
560,449,18.9159,-12.1431,-0.000125965,0.00190949,0.00129452,0.00253845,-0.000754919,1.11853,0.0019922,0.0140703,1784,575,18.9159,12.1431
567,449,18.8976,-11.4785,-0.000194647,0.00252928,0.00168532,0.00333416,-0.000999534,1.12524,0.00262029,0.010508,1791,575,18.8976,11.4785
574,449,18.8981,-10.7744,-0.000256278,0.003183,0.00211209,0.00418698,-0.00126026,1.12706,0.0032928,0.0238159,1798,575,18.8981,10.7743
581,449,18.9417,-9.88184,0,0,0,0,0,0,0,-1,1805,575,18.9416,9.88183
588,449,12.3274,-4.5672,0,0,0,0,0,0,0,-1,1812,575,12.3274,4.5672
595,449,15.9352,-5.65479,0,0,0,0,0,0,0,-1,1819,575,15.9352,5.65478
602,449,9.46167,4.17444,0,0,0,0,0,0,0,-1,1826,575,9.46164,-4.17442
609,449,12.2028,3.18652,0,0,0,0,0,0,0,-1,1833,575,12.2027,-3.18655
616,449,14.9438,2.19867,0,0,0,0,0,0,0,-1,1840,575,14.9438,-2.19867
623,449,9.83789,-0.0820313,0,0,0,0,0,0,0,-1,1847,575,9.83794,0.0820443
630,449,8.90686,4.99329,0,0,0,0,0,0,0,-1,1854,575,8.90685,-4.99327
637,449,0,0,0,0,0,0,0,0,0,-1,1861,575,0,0
644,449,0,0,0,0,0,0,0,0,0,-1,1868,575,0,0
651,449,0,0,0,0,0,0,0,0,0,-1,1875,575,0,0
658,449,0,0,0,0,0,0,0,0,0,-1,1882,575,0,0
665,449,0,0,0,0,0,0,0,0,0,-1,1889,575,0,0
672,449,0,0,0,0,0,0,0,0,0,-1,1896,575,0,0
679,449,0,0,0,0,0,0,0,0,0,-1,1903,575,0,0
686,449,0,0,0,0,0,0,0,0,0,-1,1910,575,0,0
693,449,0,0,0,0,0,0,0,0,0,-1,1917,575,0,0
700,449,0,0,0,0,0,0,0,0,0,-1,1924,575,0,0
707,449,0,0,0,0,0,0,0,0,0,-1,1931,575,0,0
714,449,0,0,0,0,0,0,0,0,0,-1,1938,575,0,0
721,449,0,0,0,0,0,0,0,0,0,-1,1945,575,0,0
728,449,0,0,0,0,0,0,0,0,0,-1,1952,575,0,0
735,449,0,0,0,0,0,0,0,0,0,-1,1959,575,0,0
742,449,0,0,0,0,0,0,0,0,0,-1,1966,575,0,0
749,449,0,0,0,0,0,0,0,0,0,-1,1973,575,0,0
756,449,0,0,0,0,0,0,0,0,0,-1,1980,575,0,0
763,449,0,0,0,0,0,0,0,0,0,-1,1987,575,0,0
770,449,0,0,0,0,0,0,0,0,0,-1,1994,575,0,0
777,449,0,0,0,0,0,0,0,0,0,-1,2001,575,0,0
784,449,0,0,0,0,0,0,0,0,0,-1,2008,575,0,0
791,449,0,0,0,0,0,0,0,0,0,-1,2015,575,0,0
798,449,0,0,0,0,0,0,0,0,0,-1,2022,575,0,0
805,449,0,0,0,0,0,0,0,0,0,-1,2029,575,0,0
812,449,0,0,0,0,0,0,0,0,0,-1,2036,575,0,0
-700,442,0,0,0,0,0,0,0,0,0,-1,524,582,0,0
-693,442,0,0,0,0,0,0,0,0,0,-1,531,582,0,0
-686,442,0,0,0,0,0,0,0,0,0,-1,538,582,0,0
-679,442,0,0,0,0,0,0,0,0,0,-1,545,582,0,0
-672,442,0,0,0,0,0,0,0,0,0,-1,552,582,0,0
-665,442,0,0,0,0,0,0,0,0,0,-1,559,582,0,0
-658,442,0,0,0,0,0,0,0,0,0,-1,566,582,0,0
-651,442,0,0,0,0,0,0,0,0,0,-1,573,582,0,0
-644,442,0,0,0,0,0,0,0,0,0,-1,580,582,0,0
-637,442,0,0,0,0,0,0,0,0,0,-1,587,582,0,0
-630,442,0,0,0,0,0,0,0,0,0,-1,594,582,0,0
-623,442,0,0,0,0,0,0,0,0,0,-1,601,582,0,0
-616,442,0,0,0,0,0,0,0,0,0,-1,608,582,0,0
-609,442,0,0,0,0,0,0,0,0,0,-1,615,582,0,0
-602,442,0,0,0,0,0,0,0,0,0,-1,622,582,0,0
-595,442,0,0,0,0,0,0,0,0,0,-1,629,582,0,0
-588,442,0,0,0,0,0,0,0,0,0,-1,636,582,0,0
-581,442,0,0,0,0,0,0,0,0,0,-1,643,582,0,0
-574,442,0,0,0,0,0,0,0,0,0,-1,650,582,0,0
-567,442,0,0,0,0,0,0,0,0,0,-1,657,582,0,0
-560,442,0,0,0,0,0,0,0,0,0,-1,664,582,0,0
-553,442,0,0,0,0,0,0,0,0,0,-1,671,582,0,0
-546,442,0,0,0,0,0,0,0,0,0,-1,678,582,0,0
-539,442,0,0,0,0,0,0,0,0,0,-1,685,582,0,0
-532,442,0,0,0,0,0,0,0,0,0,-1,692,582,0,0
-525,442,0,0,0,0,0,0,0,0,0,-1,699,582,0,0
-518,442,-0.493774,-5.72943,0,0,0,0,0,0,0,-1,706,582,-0.493791,5.72946
-511,442,-1.33008,-6.18512,0,0,0,0,0,0,0,-1,713,582,-1.33006,6.18511
-504,442,-3.20807,-6.34082,0,0,0,0,0,0,0,-1,720,582,-3.2081,6.34083
-497,442,-13.6886,-0.250122,0,0,0,0,0,0,0,-1,727,582,-13.6886,0.250143
-490,442,-9.09039,-3.64862,0,0,0,0,0,0,0,-1,734,582,-9.09037,3.64861
-483,442,-7.36499,-1.01892,0,0,0,0,0,0,0,-1,741,582,-7.365,1.01895
-476,442,-4.84784,-4.44141,0,0,0,0,0,0,0,-1,748,582,-4.84787,4.44138
-469,442,-8.10089,-9.28687,0,0,0,0,0,0,0,-1,755,582,-8.10087,9.28689
-462,442,-8.23132,-10.6674,0,0,0,0,0,0,0,-1,762,582,-8.23132,10.6674
-455,442,-7.89526,-11.421,0,0,0,0,0,0,0,-1,769,582,-7.89524,11.421
-448,442,-7.88245,-12.2079,-0.00140894,0.00664764,-0.00202325,0.00712719,-0.00188849,-1.33807,0.00549031,0.0193842,776,582,-7.88245,12.2079
-441,442,-7.93921,-12.9038,-0.000814809,0.00532404,-0.00174367,0.00578474,-0.0012755,-1.31249,0.00434453,0.0142638,783,582,-7.93922,12.9038
-434,442,-7.96277,-13.5467,-0.000299402,0.00415572,-0.00145688,0.00458984,-0.000733517,-1.2812,0.00333142,0.0137409,790,582,-7.96276,13.5467
-427,442,-8,-14.1869,0.000105469,0.00307158,-0.00115429,0.00346784,-0.000290796,-1.24011,0.00241467,0.013173,797,582,-8,14.1869
-420,442,-8.01447,-14.8223,0.000476544,0.00204291,-0.000874228,0.00243346,8.59937e-05,-1.15066,0.00159441,0.0136213,804,582,-8.01445,14.8223
-413,442,-8.02051,-15.4433,0.000725427,0.000977104,-0.000483715,0.00135108,0.00035145,-0.912652,0.000809417,0.0114555,811,582,-8.0205,15.4433
-406,442,-8.04913,-16.0941,0.000927363,-6.00745e-05,-4.90795e-05,0.000929796,-6.25079e-05,-0.0495412,0.000641716,0.0095867,818,582,-8.04916,16.0941
-399,442,-8.07953,-16.7313,0.00127413,-0.000931227,0.000292128,0.00131217,-0.000969267,0.129488,0.00132214,0.00835028,825,582,-8.07954,16.7313
-392,442,-8.09802,-17.3369,0.00174388,-0.00174556,0.000568523,0.00183417,-0.00183585,0.157502,0.00211889,0.00996529,832,582,-8.09804,17.3369
-385,442,-8.12402,-17.9307,0.00226048,-0.00244592,0.000746275,0.00237598,-0.00256142,0.15355,0.00285128,0.0121256,839,582,-8.12401,17.9307
-378,442,-8.13965,-18.5801,0.00292653,-0.00310978,0.00091598,0.00306247,-0.00324571,0.147328,0.00364254,0.0159874,846,582,-8.13966,18.5801
-371,442,-8.17432,-19.3317,0,0,0,0,0,0,0,-1,853,582,-8.17432,19.3317
-364,442,-6.89764,-17.5333,0,0,0,0,0,0,0,-1,860,582,-6.89765,17.5333
-357,442,-4.9115,-11.2649,0,0,0,0,0,0,0,-1,867,582,-4.91147,11.2649
-350,442,-1.75372,-6.27618,0,0,0,0,0,0,0,-1,874,582,-1.75371,6.27618
-343,442,-1.4599,-4.63605,0,0,0,0,0,0,0,-1,881,582,-1.4599,4.63607
-336,442,-1.4054,-2.64313,0,0,0,0,0,0,0,-1,888,582,-1.40539,2.64315
-329,442,-0.952576,-2.76923,0,0,0,0,0,0,0,-1,895,582,-0.952571,2.7692
-322,442,-0.972534,-2.63208,0,0,0,0,0,0,0,-1,902,582,-0.972512,2.6321
-315,442,-0.445557,-2.89764,0,0,0,0,0,0,0,-1,909,582,-0.445582,2.89765
-308,442,-0.654175,-3.07831,0,0,0,0,0,0,0,-1,916,582,-0.654145,3.07832
-301,442,-1.37427,-2.41455,0,0,0,0,0,0,0,-1,923,582,-1.37425,2.41453
-294,442,-2.99963,-2.07855,0,0,0,0,0,0,0,-1,930,582,-2.99964,2.07857
-287,442,3.54828,-9.00824,0,0,0,0,0,0,0,-1,937,582,3.54829,9.00823
-280,442,0,0,0,0,0,0,0,0,0,-1,944,582,0,0
-273,442,0,0,0,0,0,0,0,0,0,-1,951,582,0,0
-266,442,0,0,0,0,0,0,0,0,0,-1,958,582,0,0
-259,442,0,0,0,0,0,0,0,0,0,-1,965,582,0,0
-252,442,0,0,0,0,0,0,0,0,0,-1,972,582,0,0
-245,442,0,0,0,0,0,0,0,0,0,-1,979,582,0,0
-238,442,0,0,0,0,0,0,0,0,0,-1,986,582,0,0
-231,442,0,0,0,0,0,0,0,0,0,-1,993,582,0,0
-224,442,0,0,0,0,0,0,0,0,0,-1,1000,582,0,0
-217,442,0,0,0,0,0,0,0,0,0,-1,1007,582,0,0
-210,442,0,0,0,0,0,0,0,0,0,-1,1014,582,0,0
-203,442,0,0,0,0,0,0,0,0,0,-1,1021,582,0,0
-196,442,0,0,0,0,0,0,0,0,0,-1,1028,582,0,0
-189,442,0,0,0,0,0,0,0,0,0,-1,1035,582,0,0
-182,442,0,0,0,0,0,0,0,0,0,-1,1042,582,0,0
-175,442,0,0,0,0,0,0,0,0,0,-1,1049,582,0,0
-168,442,0,0,0,0,0,0,0,0,0,-1,1056,582,0,0
-161,442,0,0,0,0,0,0,0,0,0,-1,1063,582,0,0
-154,442,0,0,0,0,0,0,0,0,0,-1,1070,582,0,0
-147,442,0,0,0,0,0,0,0,0,0,-1,1077,582,0,0
-140,442,0,0,0,0,0,0,0,0,0,-1,1084,582,0,0
-133,442,0,0,0,0,0,0,0,0,0,-1,1091,582,0,0
-126,442,0,0,0,0,0,0,0,0,0,-1,1098,582,0,0
-119,442,0,0,0,0,0,0,0,0,0,-1,1105,582,0,0
-112,442,0,0,0,0,0,0,0,0,0,-1,1112,582,0,0
-105,442,0,0,0,0,0,0,0,0,0,-1,1119,582,0,0
-98,442,0,0,0,0,0,0,0,0,0,-1,1126,582,0,0
-91,442,0,0,0,0,0,0,0,0,0,-1,1133,582,0,0
-84,442,0,0,0,0,0,0,0,0,0,-1,1140,582,0,0
-77,442,0,0,0,0,0,0,0,0,0,-1,1147,582,0,0
-70,442,0,0,0,0,0,0,0,0,0,-1,1154,582,0,0
-63,442,0,0,0,0,0,0,0,0,0,-1,1161,582,0,0
-56,442,0,0,0,0,0,0,0,0,0,-1,1168,582,0,0
-49,442,0,0,0,0,0,0,0,0,0,-1,1175,582,0,0
-42,442,0,0,0,0,0,0,0,0,0,-1,1182,582,0,0
-35,442,0,0,0,0,0,0,0,0,0,-1,1189,582,0,0
-28,442,0,0,0,0,0,0,0,0,0,-1,1196,582,0,0
-21,442,0,0,0,0,0,0,0,0,0,-1,1203,582,0,0
-14,442,0,0,0,0,0,0,0,0,0,-1,1210,582,0,0
-7,442,0,0,0,0,0,0,0,0,0,-1,1217,582,0,0
0,442,0,0,0,0,0,0,0,0,0,-1,1224,582,0,0
7,442,0,0,0,0,0,0,0,0,0,-1,1231,582,0,0
14,442,0,0,0,0,0,0,0,0,0,-1,1238,582,0,0
21,442,0,0,0,0,0,0,0,0,0,-1,1245,582,0,0
28,442,0,0,0,0,0,0,0,0,0,-1,1252,582,0,0
35,442,0,0,0,0,0,0,0,0,0,-1,1259,582,0,0
42,442,0,0,0,0,0,0,0,0,0,-1,1266,582,0,0
49,442,0,0,0,0,0,0,0,0,0,-1,1273,582,0,0
56,442,0,0,0,0,0,0,0,0,0,-1,1280,582,0,0
63,442,0,0,0,0,0,0,0,0,0,-1,1287,582,0,0
70,442,0,0,0,0,0,0,0,0,0,-1,1294,582,0,0
77,442,0,0,0,0,0,0,0,0,0,-1,1301,582,0,0
84,442,0,0,0,0,0,0,0,0,0,-1,1308,582,0,0
91,442,0,0,0,0,0,0,0,0,0,-1,1315,582,0,0
98,442,0,0,0,0,0,0,0,0,0,-1,1322,582,0,0
105,442,0,0,0,0,0,0,0,0,0,-1,1329,582,0,0
112,442,0,0,0,0,0,0,0,0,0,-1,1336,582,0,0
119,442,0,0,0,0,0,0,0,0,0,-1,1343,582,0,0
126,442,0,0,0,0,0,0,0,0,0,-1,1350,582,0,0
133,442,0,0,0,0,0,0,0,0,0,-1,1357,582,0,0
140,442,0,0,0,0,0,0,0,0,0,-1,1364,582,0,0
147,442,0,0,0,0,0,0,0,0,0,-1,1371,582,0,0
154,442,0,0,0,0,0,0,0,0,0,-1,1378,582,0,0
161,442,0,0,0,0,0,0,0,0,0,-1,1385,582,0,0
168,442,0,0,0,0,0,0,0,0,0,-1,1392,582,0,0
175,442,0,0,0,0,0,0,0,0,0,-1,1399,582,0,0
182,442,0,0,0,0,0,0,0,0,0,-1,1406,582,0,0
189,442,0,0,0,0,0,0,0,0,0,-1,1413,582,0,0
196,442,0,0,0,0,0,0,0,0,0,-1,1420,582,0,0
203,442,0,0,0,0,0,0,0,0,0,-1,1427,582,0,0
210,442,0,0,0,0,0,0,0,0,0,-1,1434,582,0,0
217,442,0,0,0,0,0,0,0,0,0,-1,1441,582,0,0
224,442,0,0,0,0,0,0,0,0,0,-1,1448,582,0,0
231,442,0,0,0,0,0,0,0,0,0,-1,1455,582,0,0
238,442,0,0,0,0,0,0,0,0,0,-1,1462,582,0,0
245,442,0,0,0,0,0,0,0,0,0,-1,1469,582,0,0
252,442,0,0,0,0,0,0,0,0,0,-1,1476,582,0,0
259,442,0,0,0,0,0,0,0,0,0,-1,1483,582,0,0
266,442,0,0,0,0,0,0,0,0,0,-1,1490,582,0,0
273,442,0,0,0,0,0,0,0,0,0,-1,1497,582,0,0
280,442,0,0,0,0,0,0,0,0,0,-1,1504,582,0,0
287,442,0,0,0,0,0,0,0,0,0,-1,1511,582,0,0
294,442,0,0,0,0,0,0,0,0,0,-1,1518,582,0,0
301,442,0,0,0,0,0,0,0,0,0,-1,1525,582,0,0
308,442,0,0,0,0,0,0,0,0,0,-1,1532,582,0,0
315,442,0,0,0,0,0,0,0,0,0,-1,1539,582,0,0
322,442,0,0,0,0,0,0,0,0,0,-1,1546,582,0,0
329,442,0,0,0,0,0,0,0,0,0,-1,1553,582,0,0
336,442,0,0,0,0,0,0,0,0,0,-1,1560,582,0,0
343,442,0,0,0,0,0,0,0,0,0,-1,1567,582,0,0
350,442,0,0,0,0,0,0,0,0,0,-1,1574,582,0,0
357,442,0,0,0,0,0,0,0,0,0,-1,1581,582,0,0
364,442,0,0,0,0,0,0,0,0,0,-1,1588,582,0,0
371,442,0,0,0,0,0,0,0,0,0,-1,1595,582,0,0
378,442,0,0,0,0,0,0,0,0,0,-1,1602,582,0,0
385,442,0,0,0,0,0,0,0,0,0,-1,1609,582,0,0
392,442,0,0,0,0,0,0,0,0,0,-1,1616,582,0,0
399,442,0,0,0,0,0,0,0,0,0,-1,1623,582,0,0
406,442,17.6321,4.08295,0,0,0,0,0,0,0,-1,1630,582,17.6321,-4.08293
413,442,25.4768,2.74445,0,0,0,0,0,0,0,-1,1637,582,25.4768,-2.74444
420,442,22.7478,1.55011,0,0,0,0,0,0,0,-1,1644,582,22.7478,-1.55009
427,442,23.2969,-0.456787,0,0,0,0,0,0,0,-1,1651,582,23.2968,0.456769
434,442,23.9512,-2.49365,0,0,0,0,0,0,0,-1,1658,582,23.9512,2.49366
441,442,24.8251,-4.43958,0,0,0,0,0,0,0,-1,1665,582,24.8251,4.43956
448,442,4.7749,-5.88562,0,0,0,0,0,0,0,-1,1672,582,4.7749,5.8856
455,442,4.87024,-4.60687,0,0,0,0,0,0,0,-1,1679,582,4.87019,4.60686
462,442,5.02307,-3.72821,0,0,0,0,0,0,0,-1,1686,582,5.02311,3.7282
469,442,5.12976,-2.98834,0,0,0,0,0,0,0,-1,1693,582,5.12971,2.98834
476,442,5.4624,1.76947,0,0,0,0,0,0,0,-1,1700,582,5.46234,-1.76944
483,442,5.98486,1.87042,0,0,0,0,0,0,0,-1,1707,582,5.98492,-1.87045
490,442,5.04407,-2.35834,0,0,0,0,0,0,0,-1,1714,582,5.04411,2.35837
497,442,6.20984,-3.07831,0,0,0,0,0,0,0,-1,1721,582,6.2098,3.07833
504,442,19.5764,-17.7925,0,0,0,0,0,0,0,-1,1728,582,19.5764,17.7925
511,442,19.6802,-16.8467,0.00437828,0.00229339,0.00200715,0.00559754,0.00107413,0.545888,0.00343018,0.044075,1735,582,19.6802,16.8467
518,442,19.7529,-16.0565,0.00375305,0.0016414,0.00174921,0.00474038,0.000654066,0.513867,0.00296637,0.012762,1742,582,19.753,16.0564
525,442,19.7144,-15.4232,0.00301549,0.00130966,0.00147518,0.00386658,0.000458571,0.523289,0.00243927,0.0109079,1749,582,19.7143,15.4232
532,442,19.6858,-14.7676,0.00235163,0.00109371,0.00126856,0.00313859,0.000306744,0.555255,0.00199801,0.0109064,1756,582,19.6858,14.7676
539,442,19.6577,-14.0762,0.00180956,0.00103151,0.0011627,0.00264659,0.00019448,0.62396,0.00170327,0.012758,1763,582,19.6577,14.0762
546,442,19.6492,-13.4193,0.00136338,0.00108976,0.00110996,0.00234493,0.000108209,0.724079,0.0015285,0.0172188,1770,582,19.6491,13.4193
553,442,19.5981,-12.7827,0.000951015,0.00129383,0.00113966,0.0022749,-3.00569e-05,0.86004,0.00152672,0.0179665,1777,582,19.5981,12.7826
560,442,19.5737,-12.1169,0.000590951,0.0015637,0.00123865,0.00240805,-0.000253397,0.972481,0.00169615,0.0153912,1784,582,19.5737,12.1169
567,442,19.5519,-11.452,0.000434832,0.00202785,0.00151624,0.00294406,-0.000481379,1.02725,0.00214128,0.0112613,1791,582,19.5518,11.452
574,442,19.5449,-10.7795,0.00033039,0.00257422,0.00186313,0.00362715,-0.000722534,1.0564,0.00269147,0.0135995,1798,582,19.5449,10.7796
581,442,19.5834,-10.0099,0.000227669,0.00315925,0.00225947,0.00438674,-0.000999818,1.07314,0.00330851,0.0269228,1805,582,19.5834,10.0099
588,442,19.6731,-9.20251,0,0,0,0,0,0,0,-1,1812,582,19.673,9.20249
595,442,16.27,-6.47083,0,0,0,0,0,0,0,-1,1819,582,16.27,6.47082
602,442,16.2213,-4.49225,0,0,0,0,0,0,0,-1,1826,582,16.2213,4.49223
609,442,12.761,2.97223,0,0,0,0,0,0,0,-1,1833,582,12.761,-2.97221
616,442,9.78345,-0.103394,0,0,0,0,0,0,0,-1,1840,582,9.78341,0.103424
623,442,9.23828,0.326721,0,0,0,0,0,0,0,-1,1847,582,9.23829,-0.326727
630,442,7.74304,2.3924,0,0,0,0,0,0,0,-1,1854,582,7.7431,-2.39238
637,442,5.87805,1.84027,0,0,0,0,0,0,0,-1,1861,582,5.87807,-1.84025
644,442,0,0,0,0,0,0,0,0,0,-1,1868,582,0,0
651,442,0,0,0,0,0,0,0,0,0,-1,1875,582,0,0
658,442,0,0,0,0,0,0,0,0,0,-1,1882,582,0,0
665,442,0,0,0,0,0,0,0,0,0,-1,1889,582,0,0
672,442,0,0,0,0,0,0,0,0,0,-1,1896,582,0,0
679,442,0,0,0,0,0,0,0,0,0,-1,1903,582,0,0
686,442,0,0,0,0,0,0,0,0,0,-1,1910,582,0,0
693,442,0,0,0,0,0,0,0,0,0,-1,1917,582,0,0
700,442,0,0,0,0,0,0,0,0,0,-1,1924,582,0,0
707,442,0,0,0,0,0,0,0,0,0,-1,1931,582,0,0
714,442,0,0,0,0,0,0,0,0,0,-1,1938,582,0,0
721,442,0,0,0,0,0,0,0,0,0,-1,1945,582,0,0
728,442,0,0,0,0,0,0,0,0,0,-1,1952,582,0,0
735,442,0,0,0,0,0,0,0,0,0,-1,1959,582,0,0
742,442,0,0,0,0,0,0,0,0,0,-1,1966,582,0,0
749,442,0,0,0,0,0,0,0,0,0,-1,1973,582,0,0
756,442,0,0,0,0,0,0,0,0,0,-1,1980,582,0,0
763,442,0,0,0,0,0,0,0,0,0,-1,1987,582,0,0
770,442,0,0,0,0,0,0,0,0,0,-1,1994,582,0,0
777,442,0,0,0,0,0,0,0,0,0,-1,2001,582,0,0
784,442,0,0,0,0,0,0,0,0,0,-1,2008,582,0,0
791,442,0,0,0,0,0,0,0,0,0,-1,2015,582,0,0
798,442,0,0,0,0,0,0,0,0,0,-1,2022,582,0,0
805,442,0,0,0,0,0,0,0,0,0,-1,2029,582,0,0
812,442,0,0,0,0,0,0,0,0,0,-1,2036,582,0,0
-700,435,0,0,0,0,0,0,0,0,0,-1,524,589,0,0
-693,435,0,0,0,0,0,0,0,0,0,-1,531,589,0,0
-686,435,0,0,0,0,0,0,0,0,0,-1,538,589,0,0
-679,435,0,0,0,0,0,0,0,0,0,-1,545,589,0,0
-672,435,0,0,0,0,0,0,0,0,0,-1,552,589,0,0
-665,435,0,0,0,0,0,0,0,0,0,-1,559,589,0,0
-658,435,0,0,0,0,0,0,0,0,0,-1,566,589,0,0
-651,435,0,0,0,0,0,0,0,0,0,-1,573,589,0,0
-644,435,0,0,0,0,0,0,0,0,0,-1,580,589,0,0
-637,435,0,0,0,0,0,0,0,0,0,-1,587,589,0,0
-630,435,0,0,0,0,0,0,0,0,0,-1,594,589,0,0
-623,435,0,0,0,0,0,0,0,0,0,-1,601,589,0,0
-616,435,0,0,0,0,0,0,0,0,0,-1,608,589,0,0
-609,435,0,0,0,0,0,0,0,0,0,-1,615,589,0,0
-602,435,0,0,0,0,0,0,0,0,0,-1,622,589,0,0
-595,435,0,0,0,0,0,0,0,0,0,-1,629,589,0,0
-588,435,0,0,0,0,0,0,0,0,0,-1,636,589,0,0
-581,435,0,0,0,0,0,0,0,0,0,-1,643,589,0,0
-574,435,0,0,0,0,0,0,0,0,0,-1,650,589,0,0
-567,435,0,0,0,0,0,0,0,0,0,-1,657,589,0,0
-560,435,0,0,0,0,0,0,0,0,0,-1,664,589,0,0
-553,435,0,0,0,0,0,0,0,0,0,-1,671,589,0,0
-546,435,0,0,0,0,0,0,0,0,0,-1,678,589,0,0
-539,435,0,0,0,0,0,0,0,0,0,-1,685,589,0,0
-532,435,0,0,0,0,0,0,0,0,0,-1,692,589,0,0
-525,435,-10.0776,10.0547,0,0,0,0,0,0,0,-1,699,589,-10.0776,-10.0547
-518,435,-1.83093,-5.82367,0,0,0,0,0,0,0,-1,706,589,-1.83093,5.8237
-511,435,-2.45154,-5.33118,0,0,0,0,0,0,0,-1,713,589,-2.45151,5.33115
-504,435,-3.07208,-4.83862,0,0,0,0,0,0,0,-1,720,589,-3.0721,4.8386
-497,435,-6.31012,-5.84698,0,0,0,0,0,0,0,-1,727,589,-6.31012,5.84697
-490,435,-5.81903,-0.458679,0,0,0,0,0,0,0,-1,734,589,-5.81902,0.458684
-483,435,-6.96503,-3.01624,0,0,0,0,0,0,0,-1,741,589,-6.96505,3.01623
-476,435,-8.86981,-8.85138,0,0,0,0,0,0,0,-1,748,589,-8.86978,8.85135
-469,435,-8.55774,-9.74561,0,0,0,0,0,0,0,-1,755,589,-8.55773,9.74558
-462,435,-8.53156,-10.5867,0,0,0,0,0,0,0,-1,762,589,-8.53156,10.5867
-455,435,-8.56573,-11.4828,-0.00165975,0.00618433,-0.00168402,0.00653058,-0.002006,-1.36801,0.0051542,0.0244084,769,589,-8.56576,11.4828
-448,435,-8.55237,-12.2089,-0.00101152,0.00488782,-0.00149983,0.00524724,-0.00137093,-1.33559,0.00403356,0.0137013,776,589,-8.55238,12.2088
-441,435,-8.57495,-12.8712,-0.000497809,0.00363914,-0.00120809,0.00396609,-0.000824762,-1.30649,0.00295757,0.0114472,783,589,-8.57492,12.8712
-434,435,-8.60181,-13.4863,-3.26597e-05,0.00259014,-0.000929835,0.00288634,-0.000328855,-1.26241,0.00204269,0.0124938,790,589,-8.60179,13.4863
-427,435,-8.63446,-14.1635,0.000345998,0.00161011,-0.000644353,0.00188065,7.54545e-05,-1.17328,0.00122939,0.0100845,797,589,-8.63449,14.1635
-420,435,-8.62909,-14.793,0.000698985,0.000690017,-0.000379657,0.00107418,0.000314817,-0.779493,0.000637638,0.0102971,804,589,-8.62908,14.7931
-413,435,-8.65076,-15.4349,0.000922376,-0.00026056,-3.53938e-06,0.000922386,-0.000260571,-0.002992,0.000717725,0.0113222,811,589,-8.65077,15.435
-406,435,-8.6908,-16.0861,0.00110309,-0.00115558,0.000391129,0.0011689,-0.00122139,0.166704,0.00138015,0.0116454,818,589,-8.6908,16.0861
-399,435,-8.72052,-16.6935,0.00143341,-0.00189433,0.000672501,0.00156418,-0.0020251,0.192052,0.00207796,0.00973081,825,589,-8.72053,16.6935
-392,435,-8.75006,-17.3035,0.00189321,-0.00253406,0.000866014,0.00205658,-0.00269743,0.186457,0.00275303,0.0102903,832,589,-8.75004,17.3035
-385,435,-8.75262,-17.9218,0.00238234,-0.00307357,0.000980183,0.00255309,-0.00324432,0.172473,0.00335506,0.0206451,839,589,-8.75264,17.9217
-378,435,-8.7959,-18.4812,0.00304746,-0.00363853,0.00109673,0.00322277,-0.00381383,0.158502,0.00406736,0.0452673,846,589,-8.79592,18.4812
-371,435,-9.08374,-19.1507,0,0,0,0,0,0,0,-1,853,589,-9.08373,19.1507
-364,435,-5.62848,-11.5937,0,0,0,0,0,0,0,-1,860,589,-5.62847,11.5937
-357,435,-5.57343,-10.9666,0,0,0,0,0,0,0,-1,867,589,-5.57342,10.9666
-350,435,-0.86676,-3.69836,0,0,0,0,0,0,0,-1,874,589,-0.866784,3.69834
-343,435,-1.60706,-2.36835,0,0,0,0,0,0,0,-1,881,589,-1.60706,2.36838
-336,435,-2.07263,-1.94012,0,0,0,0,0,0,0,-1,888,589,-2.07265,1.94014
-329,435,-2.55963,-1.5517,0,0,0,0,0,0,0,-1,895,589,-2.5596,1.55168
-322,435,-3.08545,-1.55255,0,0,0,0,0,0,0,-1,902,589,-3.08544,1.55254
-315,435,-0.404297,-2.63763,0,0,0,0,0,0,0,-1,909,589,-0.404276,2.63761
-308,435,-1.70056,-1.90369,0,0,0,0,0,0,0,-1,916,589,-1.70056,1.90367
-301,435,-1.25232,-2.05511,0,0,0,0,0,0,0,-1,923,589,-1.25234,2.05514
-294,435,0.75238,-5.02625,0,0,0,0,0,0,0,-1,930,589,0.752354,5.02627
-287,435,0,0,0,0,0,0,0,0,0,-1,937,589,0,0
-280,435,0,0,0,0,0,0,0,0,0,-1,944,589,0,0
-273,435,0,0,0,0,0,0,0,0,0,-1,951,589,0,0
-266,435,0,0,0,0,0,0,0,0,0,-1,958,589,0,0
-259,435,0,0,0,0,0,0,0,0,0,-1,965,589,0,0
-252,435,0,0,0,0,0,0,0,0,0,-1,972,589,0,0
-245,435,0,0,0,0,0,0,0,0,0,-1,979,589,0,0
-238,435,0,0,0,0,0,0,0,0,0,-1,986,589,0,0
-231,435,0,0,0,0,0,0,0,0,0,-1,993,589,0,0
-224,435,0,0,0,0,0,0,0,0,0,-1,1000,589,0,0
-217,435,0,0,0,0,0,0,0,0,0,-1,1007,589,0,0
-210,435,0,0,0,0,0,0,0,0,0,-1,1014,589,0,0
-203,435,0,0,0,0,0,0,0,0,0,-1,1021,589,0,0
-196,435,0,0,0,0,0,0,0,0,0,-1,1028,589,0,0
-189,435,0,0,0,0,0,0,0,0,0,-1,1035,589,0,0
-182,435,0,0,0,0,0,0,0,0,0,-1,1042,589,0,0
-175,435,0,0,0,0,0,0,0,0,0,-1,1049,589,0,0
-168,435,0,0,0,0,0,0,0,0,0,-1,1056,589,0,0
-161,435,0,0,0,0,0,0,0,0,0,-1,1063,589,0,0
-154,435,0,0,0,0,0,0,0,0,0,-1,1070,589,0,0
-147,435,0,0,0,0,0,0,0,0,0,-1,1077,589,0,0
-140,435,0,0,0,0,0,0,0,0,0,-1,1084,589,0,0
-133,435,0,0,0,0,0,0,0,0,0,-1,1091,589,0,0
-126,435,0,0,0,0,0,0,0,0,0,-1,1098,589,0,0
-119,435,0,0,0,0,0,0,0,0,0,-1,1105,589,0,0
-112,435,0,0,0,0,0,0,0,0,0,-1,1112,589,0,0
-105,435,0,0,0,0,0,0,0,0,0,-1,1119,589,0,0
-98,435,0,0,0,0,0,0,0,0,0,-1,1126,589,0,0
-91,435,0,0,0,0,0,0,0,0,0,-1,1133,589,0,0
-84,435,0,0,0,0,0,0,0,0,0,-1,1140,589,0,0
-77,435,0,0,0,0,0,0,0,0,0,-1,1147,589,0,0
-70,435,0,0,0,0,0,0,0,0,0,-1,1154,589,0,0
-63,435,0,0,0,0,0,0,0,0,0,-1,1161,589,0,0
-56,435,0,0,0,0,0,0,0,0,0,-1,1168,589,0,0
-49,435,0,0,0,0,0,0,0,0,0,-1,1175,589,0,0
-42,435,0,0,0,0,0,0,0,0,0,-1,1182,589,0,0
-35,435,0,0,0,0,0,0,0,0,0,-1,1189,589,0,0
-28,435,0,0,0,0,0,0,0,0,0,-1,1196,589,0,0
-21,435,0,0,0,0,0,0,0,0,0,-1,1203,589,0,0
-14,435,0,0,0,0,0,0,0,0,0,-1,1210,589,0,0
-7,435,0,0,0,0,0,0,0,0,0,-1,1217,589,0,0
0,435,0,0,0,0,0,0,0,0,0,-1,1224,589,0,0
7,435,0,0,0,0,0,0,0,0,0,-1,1231,589,0,0
14,435,0,0,0,0,0,0,0,0,0,-1,1238,589,0,0
21,435,0,0,0,0,0,0,0,0,0,-1,1245,589,0,0
28,435,0,0,0,0,0,0,0,0,0,-1,1252,589,0,0
35,435,0,0,0,0,0,0,0,0,0,-1,1259,589,0,0
42,435,0,0,0,0,0,0,0,0,0,-1,1266,589,0,0
49,435,0,0,0,0,0,0,0,0,0,-1,1273,589,0,0
56,435,0,0,0,0,0,0,0,0,0,-1,1280,589,0,0
63,435,0,0,0,0,0,0,0,0,0,-1,1287,589,0,0
70,435,0,0,0,0,0,0,0,0,0,-1,1294,589,0,0
77,435,0,0,0,0,0,0,0,0,0,-1,1301,589,0,0
84,435,0,0,0,0,0,0,0,0,0,-1,1308,589,0,0
91,435,0,0,0,0,0,0,0,0,0,-1,1315,589,0,0
98,435,0,0,0,0,0,0,0,0,0,-1,1322,589,0,0
105,435,0,0,0,0,0,0,0,0,0,-1,1329,589,0,0
112,435,0,0,0,0,0,0,0,0,0,-1,1336,589,0,0
119,435,0,0,0,0,0,0,0,0,0,-1,1343,589,0,0
126,435,0,0,0,0,0,0,0,0,0,-1,1350,589,0,0
133,435,0,0,0,0,0,0,0,0,0,-1,1357,589,0,0
140,435,0,0,0,0,0,0,0,0,0,-1,1364,589,0,0
147,435,0,0,0,0,0,0,0,0,0,-1,1371,589,0,0
154,435,0,0,0,0,0,0,0,0,0,-1,1378,589,0,0
161,435,0,0,0,0,0,0,0,0,0,-1,1385,589,0,0
168,435,0,0,0,0,0,0,0,0,0,-1,1392,589,0,0
175,435,0,0,0,0,0,0,0,0,0,-1,1399,589,0,0
182,435,0,0,0,0,0,0,0,0,0,-1,1406,589,0,0
189,435,0,0,0,0,0,0,0,0,0,-1,1413,589,0,0
196,435,0,0,0,0,0,0,0,0,0,-1,1420,589,0,0
203,435,0,0,0,0,0,0,0,0,0,-1,1427,589,0,0
210,435,0,0,0,0,0,0,0,0,0,-1,1434,589,0,0
217,435,0,0,0,0,0,0,0,0,0,-1,1441,589,0,0
224,435,0,0,0,0,0,0,0,0,0,-1,1448,589,0,0
231,435,0,0,0,0,0,0,0,0,0,-1,1455,589,0,0
238,435,0,0,0,0,0,0,0,0,0,-1,1462,589,0,0
245,435,0,0,0,0,0,0,0,0,0,-1,1469,589,0,0
252,435,0,0,0,0,0,0,0,0,0,-1,1476,589,0,0
259,435,0,0,0,0,0,0,0,0,0,-1,1483,589,0,0
266,435,0,0,0,0,0,0,0,0,0,-1,1490,589,0,0
273,435,0,0,0,0,0,0,0,0,0,-1,1497,589,0,0
280,435,0,0,0,0,0,0,0,0,0,-1,1504,589,0,0
287,435,0,0,0,0,0,0,0,0,0,-1,1511,589,0,0
294,435,0,0,0,0,0,0,0,0,0,-1,1518,589,0,0
301,435,0,0,0,0,0,0,0,0,0,-1,1525,589,0,0
308,435,0,0,0,0,0,0,0,0,0,-1,1532,589,0,0
315,435,0,0,0,0,0,0,0,0,0,-1,1539,589,0,0
322,435,0,0,0,0,0,0,0,0,0,-1,1546,589,0,0
329,435,0,0,0,0,0,0,0,0,0,-1,1553,589,0,0
336,435,0,0,0,0,0,0,0,0,0,-1,1560,589,0,0
343,435,0,0,0,0,0,0,0,0,0,-1,1567,589,0,0
350,435,0,0,0,0,0,0,0,0,0,-1,1574,589,0,0
357,435,0,0,0,0,0,0,0,0,0,-1,1581,589,0,0
364,435,0,0,0,0,0,0,0,0,0,-1,1588,589,0,0
371,435,0,0,0,0,0,0,0,0,0,-1,1595,589,0,0
378,435,0,0,0,0,0,0,0,0,0,-1,1602,589,0,0
385,435,0,0,0,0,0,0,0,0,0,-1,1609,589,0,0
392,435,0,0,0,0,0,0,0,0,0,-1,1616,589,0,0
399,435,0,0,0,0,0,0,0,0,0,-1,1623,589,0,0
406,435,0,0,0,0,0,0,0,0,0,-1,1630,589,0,0
413,435,20.4565,3.49835,0,0,0,0,0,0,0,-1,1637,589,20.4565,-3.49836
420,435,21.4015,1.49609,0,0,0,0,0,0,0,-1,1644,589,21.4015,-1.49609
427,435,22.0464,-0.373962,0,0,0,0,0,0,0,-1,1651,589,22.0464,0.373972
434,435,22.1863,-1.54407,0,0,0,0,0,0,0,-1,1658,589,22.1862,1.54405
441,435,22.3992,-2.38287,0,0,0,0,0,0,0,-1,1665,589,22.3992,2.38289
448,435,7.4585,-0.00292969,0,0,0,0,0,0,0,-1,1672,589,7.45848,0.00294131
455,435,5.49915,-5.047,0,0,0,0,0,0,0,-1,1679,589,5.49914,5.04703
462,435,5.60669,-4.71466,0,0,0,0,0,0,0,-1,1686,589,5.60675,4.71469
469,435,5.87708,1.22351,0,0,0,0,0,0,0,-1,1693,589,5.87703,-1.22351
476,435,6.14136,1.37714,0,0,0,0,0,0,0,-1,1700,589,6.14138,-1.37712
483,435,6.49243,1.36169,0,0,0,0,0,0,0,-1,1707,589,6.49242,-1.36171
490,435,4.38391,-1.36218,0,0,0,0,0,0,0,-1,1714,589,4.38389,1.3622
497,435,7.23499,-3.64551,0,0,0,0,0,0,0,-1,1721,589,7.23495,3.64551
504,435,7.31189,-3.75909,0,0,0,0,0,0,0,-1,1728,589,7.31184,3.75911
511,435,20.2524,-16.7754,0,0,0,0,0,0,0,-1,1735,589,20.2525,16.7754
518,435,20.4297,-16.0558,0.00463654,0.0021167,0.00198857,0.00573072,0.00102252,0.503025,0.00352937,0.0276724,1742,589,20.4296,16.0558
525,435,20.3767,-15.3903,0.00382296,0.00160406,0.00165953,0.00470974,0.000717286,0.490752,0.00293014,0.0120933,1749,589,20.3767,15.3903
532,435,20.3533,-14.706,0.00309522,0.00124339,0.0013932,0.00384212,0.000496489,0.492114,0.00241301,0.0142921,1756,589,20.3533,14.706
539,435,20.3448,-14.0211,0.00252059,0.00112685,0.00126081,0.0032643,0.000383135,0.532936,0.0020604,0.0164212,1763,589,20.3448,14.0211
546,435,20.3097,-13.3935,0.00203784,0.00109644,0.00117791,0.00283562,0.000298668,0.595314,0.00179914,0.0163096,1770,589,20.3097,13.3935
553,435,20.2715,-12.7486,0.00158242,0.00122695,0.00116402,0.0025822,0.000227173,0.709638,0.00165096,0.0112806,1777,589,20.2715,12.7486
560,435,20.2393,-12.0874,0.00115278,0.00141532,0.00120391,0.0024951,7.29995e-05,0.839702,0.00163961,0.00987956,1784,589,20.2393,12.0874
567,435,20.229,-11.4006,0.000877309,0.00176011,0.00137635,0.00276411,-0.000126689,0.940569,0.00188639,0.00953741,1791,589,20.229,11.4006
574,435,20.1943,-10.7479,0.000693257,0.00221552,0.00163278,0.00325586,-0.000347079,1.0035,0.00229503,0.0108109,1798,589,20.1944,10.7479
581,435,20.1691,-10.099,0.000567663,0.00270372,0.00194918,0.0038583,-0.000586916,1.03603,0.00278851,0.0176631,1805,589,20.169,10.099
588,435,20.1372,-9.43335,0.000646906,0.00334467,0.0024462,0.00478924,-0.000797663,1.03736,0.00348924,0.044042,1812,589,20.1372,9.43335
595,435,20.1514,-8.48853,0,0,0,0,0,0,0,-1,1819,589,20.1514,8.4885
602,435,16.8671,-6.39026,0,0,0,0,0,0,0,-1,1826,589,16.867,6.39024
609,435,15.2611,-3.42242,0,0,0,0,0,0,0,-1,1833,589,15.2611,3.42242
616,435,5.05151,-2.75269,0,0,0,0,0,0,0,-1,1840,589,5.05157,2.7527
623,435,11.7588,3.9704,0,0,0,0,0,0,0,-1,1847,589,11.7587,-3.97043
630,435,4.72742,-0.87561,0,0,0,0,0,0,0,-1,1854,589,4.7274,0.875636
637,435,5.05286,1.48792,0,0,0,0,0,0,0,-1,1861,589,5.05291,-1.48792
644,435,0,0,0,0,0,0,0,0,0,-1,1868,589,0,0
651,435,0,0,0,0,0,0,0,0,0,-1,1875,589,0,0
658,435,0,0,0,0,0,0,0,0,0,-1,1882,589,0,0
665,435,0,0,0,0,0,0,0,0,0,-1,1889,589,0,0
672,435,0,0,0,0,0,0,0,0,0,-1,1896,589,0,0
679,435,0,0,0,0,0,0,0,0,0,-1,1903,589,0,0
686,435,0,0,0,0,0,0,0,0,0,-1,1910,589,0,0
693,435,0,0,0,0,0,0,0,0,0,-1,1917,589,0,0
700,435,0,0,0,0,0,0,0,0,0,-1,1924,589,0,0
707,435,0,0,0,0,0,0,0,0,0,-1,1931,589,0,0
714,435,0,0,0,0,0,0,0,0,0,-1,1938,589,0,0
721,435,0,0,0,0,0,0,0,0,0,-1,1945,589,0,0
728,435,0,0,0,0,0,0,0,0,0,-1,1952,589,0,0
735,435,0,0,0,0,0,0,0,0,0,-1,1959,589,0,0
742,435,0,0,0,0,0,0,0,0,0,-1,1966,589,0,0
749,435,0,0,0,0,0,0,0,0,0,-1,1973,589,0,0
756,435,0,0,0,0,0,0,0,0,0,-1,1980,589,0,0
763,435,0,0,0,0,0,0,0,0,0,-1,1987,589,0,0
770,435,0,0,0,0,0,0,0,0,0,-1,1994,589,0,0
777,435,0,0,0,0,0,0,0,0,0,-1,2001,589,0,0
784,435,0,0,0,0,0,0,0,0,0,-1,2008,589,0,0
791,435,0,0,0,0,0,0,0,0,0,-1,2015,589,0,0
798,435,0,0,0,0,0,0,0,0,0,-1,2022,589,0,0
805,435,0,0,0,0,0,0,0,0,0,-1,2029,589,0,0
812,435,0,0,0,0,0,0,0,0,0,-1,2036,589,0,0
-700,428,0,0,0,0,0,0,0,0,0,-1,524,596,0,0
-693,428,0,0,0,0,0,0,0,0,0,-1,531,596,0,0
-686,428,0,0,0,0,0,0,0,0,0,-1,538,596,0,0
-679,428,0,0,0,0,0,0,0,0,0,-1,545,596,0,0
-672,428,0,0,0,0,0,0,0,0,0,-1,552,596,0,0
-665,428,0,0,0,0,0,0,0,0,0,-1,559,596,0,0
-658,428,0,0,0,0,0,0,0,0,0,-1,566,596,0,0
-651,428,0,0,0,0,0,0,0,0,0,-1,573,596,0,0
-644,428,0,0,0,0,0,0,0,0,0,-1,580,596,0,0
-637,428,0,0,0,0,0,0,0,0,0,-1,587,596,0,0
-630,428,0,0,0,0,0,0,0,0,0,-1,594,596,0,0
-623,428,0,0,0,0,0,0,0,0,0,-1,601,596,0,0
-616,428,0,0,0,0,0,0,0,0,0,-1,608,596,0,0
-609,428,0,0,0,0,0,0,0,0,0,-1,615,596,0,0
-602,428,0,0,0,0,0,0,0,0,0,-1,622,596,0,0
-595,428,0,0,0,0,0,0,0,0,0,-1,629,596,0,0
-588,428,0,0,0,0,0,0,0,0,0,-1,636,596,0,0
-581,428,0,0,0,0,0,0,0,0,0,-1,643,596,0,0
-574,428,0,0,0,0,0,0,0,0,0,-1,650,596,0,0
-567,428,0,0,0,0,0,0,0,0,0,-1,657,596,0,0
-560,428,0,0,0,0,0,0,0,0,0,-1,664,596,0,0
-553,428,0,0,0,0,0,0,0,0,0,-1,671,596,0,0
-546,428,0,0,0,0,0,0,0,0,0,-1,678,596,0,0
-539,428,0,0,0,0,0,0,0,0,0,-1,685,596,0,0
-532,428,0,0,0,0,0,0,0,0,0,-1,692,596,0,0
-525,428,-9.59918,7.58618,0,0,0,0,0,0,0,-1,699,596,-9.59918,-7.5862
-518,428,-2.92285,-4.81854,0,0,0,0,0,0,0,-1,706,596,-2.92285,4.81856
-511,428,-3.68811,-4.79474,0,0,0,0,0,0,0,-1,713,596,-3.68811,4.79474
-504,428,-4.45337,-4.77094,0,0,0,0,0,0,0,-1,720,596,-4.45337,4.77092
-497,428,-2.98108,-3.77502,0,0,0,0,0,0,0,-1,727,596,-2.98106,3.77505
-490,428,-6.39044,-2.80481,0,0,0,0,0,0,0,-1,734,596,-6.39047,2.80483
-483,428,-9.70264,-8.41449,0,0,0,0,0,0,0,-1,741,596,-9.70266,8.41448
-476,428,-9.02484,-9.35364,0,0,0,0,0,0,0,-1,748,596,-9.02483,9.35365
-469,428,-8.98273,-10.0928,-0.00298133,0.00675863,-0.00110271,0.00688191,-0.00310461,-1.45946,0.0059016,0.0291801,755,596,-8.9827,10.0928
-462,428,-9.10773,-10.7255,-0.00197814,0.00559581,-0.00127246,0.00580388,-0.0021862,-1.40872,0.00476808,0.0306748,762,596,-9.10774,10.7254
-455,428,-9.1853,-11.4637,-0.0012035,0.00465163,-0.00125234,0.00490824,-0.00146012,-1.36869,0.00385224,0.0166306,769,596,-9.18531,11.4637
-448,428,-9.20886,-12.1423,-0.000617872,0.00352206,-0.00108326,0.00378837,-0.00088419,-1.32973,0.00286614,0.0119296,776,596,-9.20885,12.1423
-441,428,-9.23285,-12.8174,-0.000166299,0.00236143,-0.000790022,0.00258803,-0.0003929,-1.29147,0.00187013,0.0142214,783,596,-9.23287,12.8175
-434,428,-9.25098,-13.4878,0.000244643,0.00140546,-0.000515906,0.0016016,4.84994e-05,-1.20748,0.00105194,0.010905,790,596,-9.25098,13.4878
-427,428,-9.25604,-14.1506,0.000582449,0.00048762,-0.000237407,0.00077713,0.00029294,-0.686836,0.000453182,0.0110274,797,596,-9.25606,14.1506
-420,428,-9.25867,-14.7652,0.000891695,-0.000391704,3.66736e-05,0.000892743,-0.000392751,0.0285443,0.000760663,0.0117288,804,596,-9.25866,14.7652
-413,428,-9.29364,-15.3835,0.00106803,-0.00130941,0.000425443,0.00114187,-0.00138325,0.171848,0.00146009,0.0145974,811,596,-9.29367,15.3835
-406,428,-9.33148,-16.0106,0.00120788,-0.00216641,0.000809174,0.00139189,-0.00235042,0.223602,0.00218412,0.0172891,818,596,-9.33145,16.0105
-399,428,-9.34283,-16.647,0.00149299,-0.00292056,0.00106504,0.00173655,-0.00316413,0.224825,0.00286915,0.0162244,825,596,-9.34284,16.647
-392,428,-9.31708,-17.3065,0.00190484,-0.00355783,0.00121645,0.00216348,-0.00381646,0.209498,0.00349621,0.0293641,832,596,-9.31709,17.3065
-385,428,-9.35327,-17.9476,0,0,0,0,0,0,0,-1,839,596,-9.35329,17.9476
-378,428,-9.54413,-18.4167,0,0,0,0,0,0,0,-1,846,596,-9.54414,18.4167
-371,428,-5.96155,-11.0703,0,0,0,0,0,0,0,-1,853,596,-5.96154,11.0702
-364,428,-6.33643,-10.7223,0,0,0,0,0,0,0,-1,860,596,-6.33645,10.7223
-357,428,-3.20996,-4.70966,0,0,0,0,0,0,0,-1,867,596,-3.20997,4.70965
-350,428,-1.62793,-3.94055,0,0,0,0,0,0,0,-1,874,596,-1.62794,3.94055
-343,428,-0.0567017,-4.80994,0,0,0,0,0,0,0,-1,881,596,-0.0567096,4.80996
-336,428,-3.29175,-1.39569,0,0,0,0,0,0,0,-1,888,596,-3.29172,1.39568
-329,428,-3.71564,-0.791321,0,0,0,0,0,0,0,-1,895,596,-3.71564,0.791299
-322,428,-5.52863,-3.59827,0,0,0,0,0,0,0,-1,902,596,-5.52865,3.59829
-315,428,-4.57172,-1.22052,0,0,0,0,0,0,0,-1,909,596,-4.57171,1.22052
-308,428,-5.94324,-0.810791,0,0,0,0,0,0,0,-1,916,596,-5.94321,0.810803
-301,428,0,0,0,0,0,0,0,0,0,-1,923,596,0,0
-294,428,0,0,0,0,0,0,0,0,0,-1,930,596,0,0
-287,428,0,0,0,0,0,0,0,0,0,-1,937,596,0,0
-280,428,0,0,0,0,0,0,0,0,0,-1,944,596,0,0
-273,428,0,0,0,0,0,0,0,0,0,-1,951,596,0,0
-266,428,0,0,0,0,0,0,0,0,0,-1,958,596,0,0
-259,428,0,0,0,0,0,0,0,0,0,-1,965,596,0,0
-252,428,0,0,0,0,0,0,0,0,0,-1,972,596,0,0
-245,428,0,0,0,0,0,0,0,0,0,-1,979,596,0,0
-238,428,0,0,0,0,0,0,0,0,0,-1,986,596,0,0
-231,428,0,0,0,0,0,0,0,0,0,-1,993,596,0,0
-224,428,0,0,0,0,0,0,0,0,0,-1,1000,596,0,0
-217,428,0,0,0,0,0,0,0,0,0,-1,1007,596,0,0
-210,428,0,0,0,0,0,0,0,0,0,-1,1014,596,0,0
-203,428,0,0,0,0,0,0,0,0,0,-1,1021,596,0,0
-196,428,0,0,0,0,0,0,0,0,0,-1,1028,596,0,0
-189,428,0,0,0,0,0,0,0,0,0,-1,1035,596,0,0
-182,428,0,0,0,0,0,0,0,0,0,-1,1042,596,0,0
-175,428,0,0,0,0,0,0,0,0,0,-1,1049,596,0,0
-168,428,0,0,0,0,0,0,0,0,0,-1,1056,596,0,0
-161,428,0,0,0,0,0,0,0,0,0,-1,1063,596,0,0
-154,428,0,0,0,0,0,0,0,0,0,-1,1070,596,0,0
-147,428,0,0,0,0,0,0,0,0,0,-1,1077,596,0,0
-140,428,0,0,0,0,0,0,0,0,0,-1,1084,596,0,0
-133,428,0,0,0,0,0,0,0,0,0,-1,1091,596,0,0
-126,428,0,0,0,0,0,0,0,0,0,-1,1098,596,0,0
-119,428,0,0,0,0,0,0,0,0,0,-1,1105,596,0,0
-112,428,0,0,0,0,0,0,0,0,0,-1,1112,596,0,0
-105,428,0,0,0,0,0,0,0,0,0,-1,1119,596,0,0
-98,428,0,0,0,0,0,0,0,0,0,-1,1126,596,0,0
-91,428,0,0,0,0,0,0,0,0,0,-1,1133,596,0,0
-84,428,0,0,0,0,0,0,0,0,0,-1,1140,596,0,0
-77,428,0,0,0,0,0,0,0,0,0,-1,1147,596,0,0
-70,428,0,0,0,0,0,0,0,0,0,-1,1154,596,0,0
-63,428,0,0,0,0,0,0,0,0,0,-1,1161,596,0,0
-56,428,0,0,0,0,0,0,0,0,0,-1,1168,596,0,0
-49,428,0,0,0,0,0,0,0,0,0,-1,1175,596,0,0
-42,428,0,0,0,0,0,0,0,0,0,-1,1182,596,0,0
-35,428,0,0,0,0,0,0,0,0,0,-1,1189,596,0,0
-28,428,0,0,0,0,0,0,0,0,0,-1,1196,596,0,0
-21,428,0,0,0,0,0,0,0,0,0,-1,1203,596,0,0
-14,428,0,0,0,0,0,0,0,0,0,-1,1210,596,0,0
-7,428,0,0,0,0,0,0,0,0,0,-1,1217,596,0,0
0,428,0,0,0,0,0,0,0,0,0,-1,1224,596,0,0
7,428,0,0,0,0,0,0,0,0,0,-1,1231,596,0,0
14,428,0,0,0,0,0,0,0,0,0,-1,1238,596,0,0
21,428,0,0,0,0,0,0,0,0,0,-1,1245,596,0,0
28,428,0,0,0,0,0,0,0,0,0,-1,1252,596,0,0
35,428,0,0,0,0,0,0,0,0,0,-1,1259,596,0,0
42,428,0,0,0,0,0,0,0,0,0,-1,1266,596,0,0
49,428,0,0,0,0,0,0,0,0,0,-1,1273,596,0,0
56,428,0,0,0,0,0,0,0,0,0,-1,1280,596,0,0
63,428,0,0,0,0,0,0,0,0,0,-1,1287,596,0,0
70,428,0,0,0,0,0,0,0,0,0,-1,1294,596,0,0
77,428,0,0,0,0,0,0,0,0,0,-1,1301,596,0,0
84,428,0,0,0,0,0,0,0,0,0,-1,1308,596,0,0
91,428,0,0,0,0,0,0,0,0,0,-1,1315,596,0,0
98,428,0,0,0,0,0,0,0,0,0,-1,1322,596,0,0
105,428,0,0,0,0,0,0,0,0,0,-1,1329,596,0,0
112,428,0,0,0,0,0,0,0,0,0,-1,1336,596,0,0
119,428,0,0,0,0,0,0,0,0,0,-1,1343,596,0,0
126,428,0,0,0,0,0,0,0,0,0,-1,1350,596,0,0
133,428,0,0,0,0,0,0,0,0,0,-1,1357,596,0,0
140,428,0,0,0,0,0,0,0,0,0,-1,1364,596,0,0
147,428,0,0,0,0,0,0,0,0,0,-1,1371,596,0,0
154,428,0,0,0,0,0,0,0,0,0,-1,1378,596,0,0
161,428,0,0,0,0,0,0,0,0,0,-1,1385,596,0,0
168,428,0,0,0,0,0,0,0,0,0,-1,1392,596,0,0
175,428,0,0,0,0,0,0,0,0,0,-1,1399,596,0,0
182,428,0,0,0,0,0,0,0,0,0,-1,1406,596,0,0
189,428,0,0,0,0,0,0,0,0,0,-1,1413,596,0,0
196,428,0,0,0,0,0,0,0,0,0,-1,1420,596,0,0
203,428,0,0,0,0,0,0,0,0,0,-1,1427,596,0,0
210,428,0,0,0,0,0,0,0,0,0,-1,1434,596,0,0
217,428,0,0,0,0,0,0,0,0,0,-1,1441,596,0,0
224,428,0,0,0,0,0,0,0,0,0,-1,1448,596,0,0
231,428,0,0,0,0,0,0,0,0,0,-1,1455,596,0,0
238,428,0,0,0,0,0,0,0,0,0,-1,1462,596,0,0
245,428,0,0,0,0,0,0,0,0,0,-1,1469,596,0,0
252,428,0,0,0,0,0,0,0,0,0,-1,1476,596,0,0
259,428,0,0,0,0,0,0,0,0,0,-1,1483,596,0,0
266,428,0,0,0,0,0,0,0,0,0,-1,1490,596,0,0
273,428,0,0,0,0,0,0,0,0,0,-1,1497,596,0,0
280,428,0,0,0,0,0,0,0,0,0,-1,1504,596,0,0
287,428,0,0,0,0,0,0,0,0,0,-1,1511,596,0,0
294,428,0,0,0,0,0,0,0,0,0,-1,1518,596,0,0
301,428,0,0,0,0,0,0,0,0,0,-1,1525,596,0,0
308,428,0,0,0,0,0,0,0,0,0,-1,1532,596,0,0
315,428,0,0,0,0,0,0,0,0,0,-1,1539,596,0,0
322,428,0,0,0,0,0,0,0,0,0,-1,1546,596,0,0
329,428,0,0,0,0,0,0,0,0,0,-1,1553,596,0,0
336,428,0,0,0,0,0,0,0,0,0,-1,1560,596,0,0
343,428,0,0,0,0,0,0,0,0,0,-1,1567,596,0,0
350,428,0,0,0,0,0,0,0,0,0,-1,1574,596,0,0
357,428,0,0,0,0,0,0,0,0,0,-1,1581,596,0,0
364,428,0,0,0,0,0,0,0,0,0,-1,1588,596,0,0
371,428,0,0,0,0,0,0,0,0,0,-1,1595,596,0,0
378,428,0,0,0,0,0,0,0,0,0,-1,1602,596,0,0
385,428,0,0,0,0,0,0,0,0,0,-1,1609,596,0,0
392,428,0,0,0,0,0,0,0,0,0,-1,1616,596,0,0
399,428,0,0,0,0,0,0,0,0,0,-1,1623,596,0,0
406,428,0,0,0,0,0,0,0,0,0,-1,1630,596,0,0
413,428,0,0,0,0,0,0,0,0,0,-1,1637,596,0,0
420,428,19.8469,1.3399,0,0,0,0,0,0,0,-1,1644,596,19.8469,-1.33992
427,428,20.7299,-0.225281,0,0,0,0,0,0,0,-1,1651,596,20.7299,0.225262
434,428,19.8915,-0.583069,0,0,0,0,0,0,0,-1,1658,596,19.8915,0.583075
441,428,8.17993,0.607483,0,0,0,0,0,0,0,-1,1665,596,8.17997,-0.607513
448,428,7.84338,-0.385986,0,0,0,0,0,0,0,-1,1672,596,7.84336,0.385978
455,428,6.64038,2.1123,0,0,0,0,0,0,0,-1,1679,596,6.64037,-2.11229
462,428,4.84106,4.12341,0,0,0,0,0,0,0,-1,1686,596,4.84107,-4.12339
469,428,7.83789,3.10083,0,0,0,0,0,0,0,-1,1693,596,7.83785,-3.10086
476,428,7.61255,1.73956,0,0,0,0,0,0,0,-1,1700,596,7.61252,-1.73958
483,428,7.22766,1.05121,0,0,0,0,0,0,0,-1,1707,596,7.2277,-1.05121
490,428,5.4071,-3.2793,0,0,0,0,0,0,0,-1,1714,596,5.40707,3.27929
497,428,7.84106,-3.65491,0,0,0,0,0,0,0,-1,1721,596,7.84107,3.65491
504,428,6.92139,-2.83356,0,0,0,0,0,0,0,-1,1728,596,6.92137,2.83353
511,428,7.88501,-3.78723,0,0,0,0,0,0,0,-1,1735,596,7.88502,3.78722
518,428,21.0616,-16.1154,0,0,0,0,0,0,0,-1,1742,596,21.0616,16.1153
525,428,21.0065,-15.3491,0,0,0,0,0,0,0,-1,1749,596,21.0065,15.3491
532,428,20.9924,-14.6412,0.003865,0.00141233,0.00155887,0.00462209,0.00065524,0.452115,0.00288786,0.0205853,1756,596,20.9924,14.6412
539,428,21.0215,-13.997,0.00318265,0.00125146,0.00133529,0.00386489,0.000569214,0.472356,0.00240938,0.0216412,1763,596,21.0215,13.997
546,428,20.9797,-13.3907,0.00260265,0.00112559,0.00118173,0.00325765,0.000470591,0.506114,0.00203314,0.0165664,1770,596,20.9797,13.3908
553,428,20.9314,-12.7337,0.00207465,0.00118212,0.00110256,0.00281783,0.000438938,0.5931,0.00175068,0.0109942,1777,596,20.9314,12.7337
560,428,20.9241,-12.0518,0.00157572,0.00129726,0.00108615,0.00253153,0.000341454,0.721653,0.00158617,0.0120931,1784,596,20.9241,12.0518
567,428,20.9028,-11.3851,0.00120661,0.00153989,0.00118145,0.0025664,0.000180104,0.855458,0.00165417,0.0120891,1791,596,20.9028,11.3852
574,428,20.8676,-10.7275,0.000967301,0.00191627,0.0013904,0.00291091,-2.7342e-05,0.949831,0.00194979,0.0142274,1798,596,20.8676,10.7276
581,428,20.8198,-10.0447,0.000820595,0.0023337,0.00168894,0.00342779,-0.000273495,0.995971,0.0023816,0.0120186,1805,596,20.8198,10.0448
588,428,20.7958,-9.33575,0.000827035,0.00292281,0.00214587,0.00426299,-0.000513141,1.01253,0.00302757,0.0177882,1812,596,20.7957,9.33576
595,428,20.7411,-8.60577,0.000935552,0.00360643,0.00267417,0.00526007,-0.000718087,1.01698,0.00376895,0.0297862,1819,596,20.7411,8.60575
602,428,20.8617,-7.8313,0,0,0,0,0,0,0,-1,1826,596,20.8617,7.83133
609,428,17.2073,-4.82446,0,0,0,0,0,0,0,-1,1833,596,17.2073,4.82447
616,428,15.7817,-3.09558,0,0,0,0,0,0,0,-1,1840,596,15.7817,3.09556
623,428,9.53577,1.12518,0,0,0,0,0,0,0,-1,1847,596,9.5358,-1.1252
630,428,7.07996,6.88562,0,0,0,0,0,0,0,-1,1854,596,7.0799,-6.88565
637,428,3.95435,1.90857,0,0,0,0,0,0,0,-1,1861,596,3.95439,-1.90858
644,428,5.75476,0.888977,0,0,0,0,0,0,0,-1,1868,596,5.75472,-0.888955
651,428,0,0,0,0,0,0,0,0,0,-1,1875,596,0,0
658,428,0,0,0,0,0,0,0,0,0,-1,1882,596,0,0
665,428,0,0,0,0,0,0,0,0,0,-1,1889,596,0,0
672,428,0,0,0,0,0,0,0,0,0,-1,1896,596,0,0
679,428,0,0,0,0,0,0,0,0,0,-1,1903,596,0,0
686,428,0,0,0,0,0,0,0,0,0,-1,1910,596,0,0
693,428,0,0,0,0,0,0,0,0,0,-1,1917,596,0,0
700,428,0,0,0,0,0,0,0,0,0,-1,1924,596,0,0
707,428,0,0,0,0,0,0,0,0,0,-1,1931,596,0,0
714,428,0,0,0,0,0,0,0,0,0,-1,1938,596,0,0
721,428,0,0,0,0,0,0,0,0,0,-1,1945,596,0,0
728,428,0,0,0,0,0,0,0,0,0,-1,1952,596,0,0
735,428,0,0,0,0,0,0,0,0,0,-1,1959,596,0,0
742,428,0,0,0,0,0,0,0,0,0,-1,1966,596,0,0
749,428,0,0,0,0,0,0,0,0,0,-1,1973,596,0,0
756,428,0,0,0,0,0,0,0,0,0,-1,1980,596,0,0
763,428,0,0,0,0,0,0,0,0,0,-1,1987,596,0,0
770,428,0,0,0,0,0,0,0,0,0,-1,1994,596,0,0
777,428,0,0,0,0,0,0,0,0,0,-1,2001,596,0,0
784,428,0,0,0,0,0,0,0,0,0,-1,2008,596,0,0
791,428,0,0,0,0,0,0,0,0,0,-1,2015,596,0,0
798,428,0,0,0,0,0,0,0,0,0,-1,2022,596,0,0
805,428,0,0,0,0,0,0,0,0,0,-1,2029,596,0,0
812,428,0,0,0,0,0,0,0,0,0,-1,2036,596,0,0
-700,421,0,0,0,0,0,0,0,0,0,-1,524,603,0,0
-693,421,0,0,0,0,0,0,0,0,0,-1,531,603,0,0
-686,421,0,0,0,0,0,0,0,0,0,-1,538,603,0,0
-679,421,0,0,0,0,0,0,0,0,0,-1,545,603,0,0
-672,421,0,0,0,0,0,0,0,0,0,-1,552,603,0,0
-665,421,0,0,0,0,0,0,0,0,0,-1,559,603,0,0
-658,421,0,0,0,0,0,0,0,0,0,-1,566,603,0,0
-651,421,0,0,0,0,0,0,0,0,0,-1,573,603,0,0
-644,421,0,0,0,0,0,0,0,0,0,-1,580,603,0,0
-637,421,0,0,0,0,0,0,0,0,0,-1,587,603,0,0
-630,421,0,0,0,0,0,0,0,0,0,-1,594,603,0,0
-623,421,0,0,0,0,0,0,0,0,0,-1,601,603,0,0
-616,421,0,0,0,0,0,0,0,0,0,-1,608,603,0,0
-609,421,0,0,0,0,0,0,0,0,0,-1,615,603,0,0
-602,421,0,0,0,0,0,0,0,0,0,-1,622,603,0,0
-595,421,0,0,0,0,0,0,0,0,0,-1,629,603,0,0
-588,421,0,0,0,0,0,0,0,0,0,-1,636,603,0,0
-581,421,0,0,0,0,0,0,0,0,0,-1,643,603,0,0
-574,421,0,0,0,0,0,0,0,0,0,-1,650,603,0,0
-567,421,0,0,0,0,0,0,0,0,0,-1,657,603,0,0
-560,421,0,0,0,0,0,0,0,0,0,-1,664,603,0,0
-553,421,0,0,0,0,0,0,0,0,0,-1,671,603,0,0
-546,421,0,0,0,0,0,0,0,0,0,-1,678,603,0,0
-539,421,0,0,0,0,0,0,0,0,0,-1,685,603,0,0
-532,421,-8.97382,6.95636,0,0,0,0,0,0,0,-1,692,603,-8.97384,-6.95634
-525,421,-2.11481,-8.04272,0,0,0,0,0,0,0,-1,699,603,-2.11483,8.0427
-518,421,-3.05908,-5.07233,0,0,0,0,0,0,0,-1,706,603,-3.0591,5.07235
-511,421,-4.63525,-4.08447,0,0,0,0,0,0,0,-1,713,603,-4.63524,4.08449
-504,421,-5.17029,-4.94458,0,0,0,0,0,0,0,-1,720,603,-5.17029,4.9446
-497,421,-6.63141,-2.32501,0,0,0,0,0,0,0,-1,727,603,-6.6314,2.32498
-490,421,-6.7616,-4.14783,0,0,0,0,0,0,0,-1,734,603,-6.76159,4.1478
-483,421,-9.40015,-9.01672,0,0,0,0,0,0,0,-1,741,603,-9.40015,9.0167
-476,421,-9.56158,-9.57281,-0.00260995,0.0066769,-0.00104153,0.00679228,-0.00272532,-1.46047,0.00565974,0.0353849,748,603,-9.56161,9.57282
-469,421,-9.75922,-10.0767,-0.00202771,0.00528553,-0.00104541,0.00543203,-0.00217421,-1.43156,0.00452374,0.0283352,755,603,-9.75922,10.0767
-462,421,-9.77625,-10.8434,-0.00132155,0.00417571,-0.00106253,0.00437393,-0.00151977,-1.38636,0.00353323,0.020964,762,603,-9.77627,10.8435
-455,421,-9.78748,-11.4773,-0.000737865,0.00324083,-0.000976518,0.00346758,-0.000964615,-1.34264,0.00269151,0.0188469,769,603,-9.78746,11.4773
-448,421,-9.84686,-12.1087,-0.00023799,0.00223964,-0.00079491,0.00247274,-0.000471094,-1.28555,0.0018259,0.0187391,776,603,-9.84684,12.1087
-441,421,-9.86169,-12.7872,0.000141116,0.00115662,-0.000478933,0.00134685,-4.91219e-05,-1.1927,0.000914717,0.0157195,783,603,-9.86169,12.7872
-434,421,-9.89764,-13.4544,0.000493178,0.00028427,-0.00018431,0.000600575,0.000176873,-0.527599,0.00035637,0.0115491,790,603,-9.89765,13.4544
-427,421,-9.89764,-14.1082,0.000782991,-0.000570875,0.000118356,0.00079326,-0.000581144,0.0865458,0.000796656,0.0102288,797,603,-9.89764,14.1082
-420,421,-9.90576,-14.7234,0.00102703,-0.00141067,0.000447739,0.00110667,-0.0014903,0.176021,0.00150481,0.0115375,804,603,-9.90577,14.7234
-413,421,-9.94806,-15.3386,0.00113858,-0.00227918,0.00089144,0.00135712,-0.00249772,0.240409,0.00225783,0.0146242,811,603,-9.94805,15.3386
-406,421,-10.0108,-15.9987,0.00122975,-0.00306551,0.0012989,0.001592,-0.00342775,0.271973,0.00296205,0.0211425,818,603,-10.0108,15.9987
-399,421,-9.94458,-16.7385,0.00145339,-0.00381343,0.00156065,0.0018811,-0.00424115,0.267492,0.00362117,0.0331277,825,603,-9.9446,16.7385
-392,421,-9.89008,-17.4928,0,0,0,0,0,0,0,-1,832,603,-9.89006,17.4928
-385,421,-9.76154,-15.8135,0,0,0,0,0,0,0,-1,839,603,-9.76152,15.8135
-378,421,-4.94733,-8.87909,0,0,0,0,0,0,0,-1,846,603,-4.94731,8.87906
-371,421,-5.65082,-7.01849,0,0,0,0,0,0,0,-1,853,603,-5.65082,7.0185
-364,421,-5.94189,-7.09875,0,0,0,0,0,0,0,-1,860,603,-5.94192,7.09878
-357,421,-7.62531,-8.26337,0,0,0,0,0,0,0,-1,867,603,-7.62532,8.26337
-350,421,-5.38019,-3.75024,0,0,0,0,0,0,0,-1,874,603,-5.38017,3.75026
-343,421,-6.22797,-2.57123,0,0,0,0,0,0,0,-1,881,603,-6.22798,2.57121
-336,421,-6.22882,-2.59369,0,0,0,0,0,0,0,-1,888,603,-6.22883,2.5937
-329,421,-4.50134,-1.49469,0,0,0,0,0,0,0,-1,895,603,-4.50137,1.49468
-322,421,-7.55817,1.13263,0,0,0,0,0,0,0,-1,902,603,-7.55818,-1.13263
-315,421,-4.47821,-1.26733,0,0,0,0,0,0,0,-1,909,603,-4.47824,1.26732
-308,421,0,0,0,0,0,0,0,0,0,-1,916,603,0,0
-301,421,0,0,0,0,0,0,0,0,0,-1,923,603,0,0
-294,421,0,0,0,0,0,0,0,0,0,-1,930,603,0,0
-287,421,0,0,0,0,0,0,0,0,0,-1,937,603,0,0
-280,421,0,0,0,0,0,0,0,0,0,-1,944,603,0,0
-273,421,0,0,0,0,0,0,0,0,0,-1,951,603,0,0
-266,421,0,0,0,0,0,0,0,0,0,-1,958,603,0,0
-259,421,0,0,0,0,0,0,0,0,0,-1,965,603,0,0
-252,421,0,0,0,0,0,0,0,0,0,-1,972,603,0,0
-245,421,0,0,0,0,0,0,0,0,0,-1,979,603,0,0
-238,421,0,0,0,0,0,0,0,0,0,-1,986,603,0,0
-231,421,0,0,0,0,0,0,0,0,0,-1,993,603,0,0
-224,421,0,0,0,0,0,0,0,0,0,-1,1000,603,0,0
-217,421,0,0,0,0,0,0,0,0,0,-1,1007,603,0,0
-210,421,0,0,0,0,0,0,0,0,0,-1,1014,603,0,0
-203,421,0,0,0,0,0,0,0,0,0,-1,1021,603,0,0
-196,421,0,0,0,0,0,0,0,0,0,-1,1028,603,0,0
-189,421,0,0,0,0,0,0,0,0,0,-1,1035,603,0,0
-182,421,0,0,0,0,0,0,0,0,0,-1,1042,603,0,0
-175,421,0,0,0,0,0,0,0,0,0,-1,1049,603,0,0
-168,421,0,0,0,0,0,0,0,0,0,-1,1056,603,0,0
-161,421,0,0,0,0,0,0,0,0,0,-1,1063,603,0,0
-154,421,0,0,0,0,0,0,0,0,0,-1,1070,603,0,0
-147,421,0,0,0,0,0,0,0,0,0,-1,1077,603,0,0
-140,421,0,0,0,0,0,0,0,0,0,-1,1084,603,0,0
-133,421,0,0,0,0,0,0,0,0,0,-1,1091,603,0,0
-126,421,0,0,0,0,0,0,0,0,0,-1,1098,603,0,0
-119,421,0,0,0,0,0,0,0,0,0,-1,1105,603,0,0
-112,421,0,0,0,0,0,0,0,0,0,-1,1112,603,0,0
-105,421,0,0,0,0,0,0,0,0,0,-1,1119,603,0,0
-98,421,0,0,0,0,0,0,0,0,0,-1,1126,603,0,0
-91,421,0,0,0,0,0,0,0,0,0,-1,1133,603,0,0
-84,421,0,0,0,0,0,0,0,0,0,-1,1140,603,0,0
-77,421,0,0,0,0,0,0,0,0,0,-1,1147,603,0,0
-70,421,0,0,0,0,0,0,0,0,0,-1,1154,603,0,0
-63,421,0,0,0,0,0,0,0,0,0,-1,1161,603,0,0
-56,421,0,0,0,0,0,0,0,0,0,-1,1168,603,0,0
-49,421,0,0,0,0,0,0,0,0,0,-1,1175,603,0,0
-42,421,0,0,0,0,0,0,0,0,0,-1,1182,603,0,0
-35,421,0,0,0,0,0,0,0,0,0,-1,1189,603,0,0
-28,421,0,0,0,0,0,0,0,0,0,-1,1196,603,0,0
-21,421,0,0,0,0,0,0,0,0,0,-1,1203,603,0,0
-14,421,0,0,0,0,0,0,0,0,0,-1,1210,603,0,0
-7,421,0,0,0,0,0,0,0,0,0,-1,1217,603,0,0
0,421,0,0,0,0,0,0,0,0,0,-1,1224,603,0,0
7,421,0,0,0,0,0,0,0,0,0,-1,1231,603,0,0
14,421,0,0,0,0,0,0,0,0,0,-1,1238,603,0,0
21,421,0,0,0,0,0,0,0,0,0,-1,1245,603,0,0
28,421,0,0,0,0,0,0,0,0,0,-1,1252,603,0,0
35,421,0,0,0,0,0,0,0,0,0,-1,1259,603,0,0
42,421,0,0,0,0,0,0,0,0,0,-1,1266,603,0,0
49,421,0,0,0,0,0,0,0,0,0,-1,1273,603,0,0
56,421,0,0,0,0,0,0,0,0,0,-1,1280,603,0,0
63,421,0,0,0,0,0,0,0,0,0,-1,1287,603,0,0
70,421,0,0,0,0,0,0,0,0,0,-1,1294,603,0,0
77,421,0,0,0,0,0,0,0,0,0,-1,1301,603,0,0
84,421,0,0,0,0,0,0,0,0,0,-1,1308,603,0,0
91,421,0,0,0,0,0,0,0,0,0,-1,1315,603,0,0
98,421,0,0,0,0,0,0,0,0,0,-1,1322,603,0,0
105,421,0,0,0,0,0,0,0,0,0,-1,1329,603,0,0
112,421,0,0,0,0,0,0,0,0,0,-1,1336,603,0,0
119,421,0,0,0,0,0,0,0,0,0,-1,1343,603,0,0
126,421,0,0,0,0,0,0,0,0,0,-1,1350,603,0,0
133,421,0,0,0,0,0,0,0,0,0,-1,1357,603,0,0
140,421,0,0,0,0,0,0,0,0,0,-1,1364,603,0,0
147,421,0,0,0,0,0,0,0,0,0,-1,1371,603,0,0
154,421,0,0,0,0,0,0,0,0,0,-1,1378,603,0,0
161,421,0,0,0,0,0,0,0,0,0,-1,1385,603,0,0
168,421,0,0,0,0,0,0,0,0,0,-1,1392,603,0,0
175,421,0,0,0,0,0,0,0,0,0,-1,1399,603,0,0
182,421,0,0,0,0,0,0,0,0,0,-1,1406,603,0,0
189,421,0,0,0,0,0,0,0,0,0,-1,1413,603,0,0
196,421,0,0,0,0,0,0,0,0,0,-1,1420,603,0,0
203,421,0,0,0,0,0,0,0,0,0,-1,1427,603,0,0
210,421,0,0,0,0,0,0,0,0,0,-1,1434,603,0,0
217,421,0,0,0,0,0,0,0,0,0,-1,1441,603,0,0
224,421,0,0,0,0,0,0,0,0,0,-1,1448,603,0,0
231,421,0,0,0,0,0,0,0,0,0,-1,1455,603,0,0
238,421,0,0,0,0,0,0,0,0,0,-1,1462,603,0,0
245,421,0,0,0,0,0,0,0,0,0,-1,1469,603,0,0
252,421,0,0,0,0,0,0,0,0,0,-1,1476,603,0,0
259,421,0,0,0,0,0,0,0,0,0,-1,1483,603,0,0
266,421,0,0,0,0,0,0,0,0,0,-1,1490,603,0,0
273,421,0,0,0,0,0,0,0,0,0,-1,1497,603,0,0
280,421,0,0,0,0,0,0,0,0,0,-1,1504,603,0,0
287,421,0,0,0,0,0,0,0,0,0,-1,1511,603,0,0
294,421,0,0,0,0,0,0,0,0,0,-1,1518,603,0,0
301,421,0,0,0,0,0,0,0,0,0,-1,1525,603,0,0
308,421,0,0,0,0,0,0,0,0,0,-1,1532,603,0,0
315,421,0,0,0,0,0,0,0,0,0,-1,1539,603,0,0
322,421,0,0,0,0,0,0,0,0,0,-1,1546,603,0,0
329,421,0,0,0,0,0,0,0,0,0,-1,1553,603,0,0
336,421,0,0,0,0,0,0,0,0,0,-1,1560,603,0,0
343,421,0,0,0,0,0,0,0,0,0,-1,1567,603,0,0
350,421,0,0,0,0,0,0,0,0,0,-1,1574,603,0,0
357,421,0,0,0,0,0,0,0,0,0,-1,1581,603,0,0
364,421,0,0,0,0,0,0,0,0,0,-1,1588,603,0,0
371,421,0,0,0,0,0,0,0,0,0,-1,1595,603,0,0
378,421,0,0,0,0,0,0,0,0,0,-1,1602,603,0,0
385,421,0,0,0,0,0,0,0,0,0,-1,1609,603,0,0
392,421,0,0,0,0,0,0,0,0,0,-1,1616,603,0,0
399,421,0,0,0,0,0,0,0,0,0,-1,1623,603,0,0
406,421,0,0,0,0,0,0,0,0,0,-1,1630,603,0,0
413,421,0,0,0,0,0,0,0,0,0,-1,1637,603,0,0
420,421,0,0,0,0,0,0,0,0,0,-1,1644,603,0,0
427,421,0,0,0,0,0,0,0,0,0,-1,1651,603,0,0
434,421,3.68176,-0.0327759,0,0,0,0,0,0,0,-1,1658,603,3.6818,0.0328037
441,421,8.06689,0.527832,0,0,0,0,0,0,0,-1,1665,603,8.06693,-0.527851
448,421,6.93921,0.802246,0,0,0,0,0,0,0,-1,1672,603,6.93923,-0.802251
455,421,7.29456,2.14825,0,0,0,0,0,0,0,-1,1679,603,7.29461,-2.14827
462,421,7.86902,3.53174,0,0,0,0,0,0,0,-1,1686,603,7.869,-3.53173
469,421,8.06604,2.81213,0,0,0,0,0,0,0,-1,1693,603,8.06606,-2.81212
476,421,8.26306,2.09253,0,0,0,0,0,0,0,-1,1700,603,8.26312,-2.09251
483,421,8.05322,0.798096,0,0,0,0,0,0,0,-1,1707,603,8.05323,-0.7981
490,421,7.51233,0.213074,0,0,0,0,0,0,0,-1,1714,603,7.51235,-0.213043
497,421,7.49634,-2.86688,0,0,0,0,0,0,0,-1,1721,603,7.4963,2.86688
504,421,6.90491,-2.18671,0,0,0,0,0,0,0,-1,1728,603,6.90491,2.18669
511,421,6.31348,-1.50653,0,0,0,0,0,0,0,-1,1735,603,6.31353,1.5065
518,421,6.27588,-2.49878,0,0,0,0,0,0,0,-1,1742,603,6.2759,2.4988
525,421,21.4585,-15.6547,0,0,0,0,0,0,0,-1,1749,603,21.4585,15.6547
532,421,21.5541,-14.6885,0.00461014,0.00158836,0.00170572,0.00537791,0.000820592,0.422947,0.00334546,0.0462287,1756,603,21.5541,14.6885
539,421,21.6664,-13.9788,0.00382312,0.00139296,0.0013934,0.00445682,0.000759263,0.426828,0.00275325,0.0235787,1763,603,21.6664,13.9788
546,421,21.6382,-13.365,0.00314647,0.00116304,0.00117859,0.00369507,0.00061444,0.435646,0.00228626,0.0136771,1770,603,21.6382,13.365
553,421,21.6019,-12.6927,0.00256002,0.00114779,0.00104515,0.00311523,0.000592586,0.488313,0.00191018,0.0119157,1777,603,21.6019,12.6927
560,421,21.5864,-12.0064,0.00200784,0.00119247,0.000986555,0.00266763,0.000532685,0.589464,0.00163013,0.0147868,1784,603,21.5865,12.0064
567,421,21.5609,-11.3583,0.00155627,0.00133508,0.00102144,0.00247308,0.00041826,0.731471,0.0015285,0.0184338,1791,603,21.5609,11.3583
574,421,21.5319,-10.6697,0.00126262,0.00164128,0.00120036,0.00266714,0.000236755,0.863618,0.00170467,0.0200909,1798,603,21.5318,10.6697
581,421,21.4899,-9.95343,0.00108725,0.00200374,0.00148359,0.00309824,-7.25128e-06,0.935188,0.00206792,0.0167115,1805,603,21.4898,9.95345
588,421,21.4557,-9.34143,0.00103295,0.00254992,0.00190065,0.00383784,-0.000254973,0.975249,0.00264765,0.0117884,1812,603,21.4557,9.34143
595,421,21.4824,-8.65833,0.00112156,0.00321784,0.00243246,0.00481837,-0.000478967,0.988826,0.00338322,0.0198744,1819,603,21.4824,8.65833
602,421,21.4597,-7.97192,0,0,0,0,0,0,0,-1,1826,603,21.4597,7.97192
609,421,21.4891,-7.13342,0,0,0,0,0,0,0,-1,1833,603,21.4892,7.13343
616,421,17.7633,-4.72491,0,0,0,0,0,0,0,-1,1840,603,17.7633,4.7249
623,421,6.19885,0.376648,0,0,0,0,0,0,0,-1,1847,603,6.19881,-0.376624
630,421,6.54993,0.778748,0,0,0,0,0,0,0,-1,1854,603,6.54991,-0.778744
637,421,3.74512,1.65405,0,0,0,0,0,0,0,-1,1861,603,3.74517,-1.65407
644,421,3.58081,0.354675,0,0,0,0,0,0,0,-1,1868,603,3.58082,-0.354704
651,421,3.28687,3.66351,0,0,0,0,0,0,0,-1,1875,603,3.28688,-3.66353
658,421,0,0,0,0,0,0,0,0,0,-1,1882,603,0,0
665,421,0,0,0,0,0,0,0,0,0,-1,1889,603,0,0
672,421,0,0,0,0,0,0,0,0,0,-1,1896,603,0,0
679,421,0,0,0,0,0,0,0,0,0,-1,1903,603,0,0
686,421,0,0,0,0,0,0,0,0,0,-1,1910,603,0,0
693,421,0,0,0,0,0,0,0,0,0,-1,1917,603,0,0
700,421,0,0,0,0,0,0,0,0,0,-1,1924,603,0,0
707,421,0,0,0,0,0,0,0,0,0,-1,1931,603,0,0
714,421,0,0,0,0,0,0,0,0,0,-1,1938,603,0,0
721,421,0,0,0,0,0,0,0,0,0,-1,1945,603,0,0
728,421,0,0,0,0,0,0,0,0,0,-1,1952,603,0,0
735,421,0,0,0,0,0,0,0,0,0,-1,1959,603,0,0
742,421,0,0,0,0,0,0,0,0,0,-1,1966,603,0,0
749,421,0,0,0,0,0,0,0,0,0,-1,1973,603,0,0
756,421,0,0,0,0,0,0,0,0,0,-1,1980,603,0,0
763,421,0,0,0,0,0,0,0,0,0,-1,1987,603,0,0
770,421,0,0,0,0,0,0,0,0,0,-1,1994,603,0,0
777,421,0,0,0,0,0,0,0,0,0,-1,2001,603,0,0
784,421,0,0,0,0,0,0,0,0,0,-1,2008,603,0,0
791,421,0,0,0,0,0,0,0,0,0,-1,2015,603,0,0
798,421,0,0,0,0,0,0,0,0,0,-1,2022,603,0,0
805,421,0,0,0,0,0,0,0,0,0,-1,2029,603,0,0
812,421,0,0,0,0,0,0,0,0,0,-1,2036,603,0,0
-700,414,0,0,0,0,0,0,0,0,0,-1,524,610,0,0
-693,414,0,0,0,0,0,0,0,0,0,-1,531,610,0,0
-686,414,0,0,0,0,0,0,0,0,0,-1,538,610,0,0
-679,414,0,0,0,0,0,0,0,0,0,-1,545,610,0,0
-672,414,0,0,0,0,0,0,0,0,0,-1,552,610,0,0
-665,414,0,0,0,0,0,0,0,0,0,-1,559,610,0,0
-658,414,0,0,0,0,0,0,0,0,0,-1,566,610,0,0
-651,414,0,0,0,0,0,0,0,0,0,-1,573,610,0,0
-644,414,0,0,0,0,0,0,0,0,0,-1,580,610,0,0
-637,414,0,0,0,0,0,0,0,0,0,-1,587,610,0,0
-630,414,0,0,0,0,0,0,0,0,0,-1,594,610,0,0
-623,414,0,0,0,0,0,0,0,0,0,-1,601,610,0,0
-616,414,0,0,0,0,0,0,0,0,0,-1,608,610,0,0
-609,414,0,0,0,0,0,0,0,0,0,-1,615,610,0,0
-602,414,0,0,0,0,0,0,0,0,0,-1,622,610,0,0
-595,414,0,0,0,0,0,0,0,0,0,-1,629,610,0,0
-588,414,0,0,0,0,0,0,0,0,0,-1,636,610,0,0
-581,414,0,0,0,0,0,0,0,0,0,-1,643,610,0,0
-574,414,0,0,0,0,0,0,0,0,0,-1,650,610,0,0
-567,414,0,0,0,0,0,0,0,0,0,-1,657,610,0,0
-560,414,0,0,0,0,0,0,0,0,0,-1,664,610,0,0
-553,414,0,0,0,0,0,0,0,0,0,-1,671,610,0,0
-546,414,0,0,0,0,0,0,0,0,0,-1,678,610,0,0
-539,414,-7.50146,5.65619,0,0,0,0,0,0,0,-1,685,610,-7.50149,-5.65617
-532,414,-8.15204,4.01605,0,0,0,0,0,0,0,-1,692,610,-8.15206,-4.01606
-525,414,-3.47137,-3.27924,0,0,0,0,0,0,0,-1,699,610,-3.47136,3.27922
-518,414,-4.12909,-4.36908,0,0,0,0,0,0,0,-1,706,610,-4.12909,4.36909
-511,414,-3.92542,-4.97021,0,0,0,0,0,0,0,-1,713,610,-3.92542,4.97023
-504,414,-9.35394,-5.49896,0,0,0,0,0,0,0,-1,720,610,-9.35394,5.49898
-497,414,-9.67627,-6.54761,0,0,0,0,0,0,0,-1,727,610,-9.6763,6.5476
-490,414,-10.5372,-7.67395,0,0,0,0,0,0,0,-1,734,610,-10.5372,7.67395
-483,414,-10.216,-8.8797,0,0,0,0,0,0,0,-1,741,610,-10.216,8.87971
-476,414,-10.3796,-9.50531,-0.00161721,0.00542867,-0.00104932,0.00558162,-0.00177017,-1.42605,0.00443062,0.0234715,748,610,-10.3796,9.50533
-469,414,-10.4319,-10.1307,-0.00124737,0.00414408,-0.000932347,0.00430075,-0.00140405,-1.4043,0.00343229,0.0141856,755,610,-10.4319,10.1307
-462,414,-10.4,-10.796,-0.000746152,0.00312049,-0.000864259,0.00330488,-0.000930536,-1.3606,0.00257021,0.0220271,762,610,-10.3999,10.7959
-455,414,-10.4504,-11.4369,-0.000302705,0.00221176,-0.000744487,0.00241565,-0.0005066,-1.30348,0.00180318,0.0232157,769,610,-10.4504,11.4369
-448,414,-10.4977,-12.0955,0.000144782,0.00132817,-0.000574529,0.00156121,-8.82578e-05,-1.18546,0.00107144,0.0236197,776,610,-10.4977,12.0955
-441,414,-10.4966,-12.78,0.000487283,0.000324381,-0.00026754,0.000685496,0.000126168,-0.637634,0.000421287,0.0182182,783,610,-10.4966,12.7801
-434,414,-10.545,-13.4232,0.000810661,-0.000489734,2.27236e-05,0.000811058,-0.000490131,0.0174673,0.00075882,0.0105464,790,610,-10.545,13.4232
-427,414,-10.5539,-14.0647,0.00106871,-0.0013287,0.000339478,0.00111586,-0.00137585,0.137988,0.00144119,0.0108166,797,610,-10.5539,14.0647
-420,414,-10.5538,-14.6873,0.00124362,-0.00220487,0.000741397,0.00139626,-0.0023575,0.203042,0.0021908,0.0101606,804,610,-10.5538,14.6873
-413,414,-10.5822,-15.3297,0.00129239,-0.00311278,0.00126116,0.0016279,-0.00344829,0.260008,0.00299289,0.0106083,811,610,-10.5822,15.3297
-406,414,-10.6165,-16.0859,0.00133451,-0.00392629,0.0017201,0.001847,-0.00443878,0.289566,0.00373051,0.0270129,818,610,-10.6165,16.0859
-399,414,-10.5132,-16.7376,0,0,0,0,0,0,0,-1,825,610,-10.5132,16.7376
-392,414,-9.43781,-14.5624,0,0,0,0,0,0,0,-1,832,610,-9.43779,14.5624
-385,414,-8.14691,-13.0653,0,0,0,0,0,0,0,-1,839,610,-8.14692,13.0653
-378,414,-8.04907,-11.3331,0,0,0,0,0,0,0,-1,846,610,-8.04905,11.3331
-371,414,-5.20886,-8.05151,0,0,0,0,0,0,0,-1,853,610,-5.20887,8.05153
-364,414,-6.76282,-6.58759,0,0,0,0,0,0,0,-1,860,610,-6.7628,6.58756
-357,414,-9.08685,-8.86188,0,0,0,0,0,0,0,-1,867,610,-9.08688,8.86187
-350,414,-6.4502,-2.41821,0,0,0,0,0,0,0,-1,874,610,-6.45021,2.41822
-343,414,-6.80249,-2.32117,0,0,0,0,0,0,0,-1,881,610,-6.80252,2.32116
-336,414,-7.11017,-2.52026,0,0,0,0,0,0,0,-1,888,610,-7.11016,2.52026
-329,414,-7.59747,-2.70313,0,0,0,0,0,0,0,-1,895,610,-7.59747,2.70315
-322,414,-4.42236,-1.29163,0,0,0,0,0,0,0,-1,902,610,-4.42238,1.2916
-315,414,0,0,0,0,0,0,0,0,0,-1,909,610,0,0
-308,414,0,0,0,0,0,0,0,0,0,-1,916,610,0,0
-301,414,0,0,0,0,0,0,0,0,0,-1,923,610,0,0
-294,414,0,0,0,0,0,0,0,0,0,-1,930,610,0,0
-287,414,0,0,0,0,0,0,0,0,0,-1,937,610,0,0
-280,414,0,0,0,0,0,0,0,0,0,-1,944,610,0,0
-273,414,0,0,0,0,0,0,0,0,0,-1,951,610,0,0
-266,414,0,0,0,0,0,0,0,0,0,-1,958,610,0,0
-259,414,0,0,0,0,0,0,0,0,0,-1,965,610,0,0
-252,414,0,0,0,0,0,0,0,0,0,-1,972,610,0,0
-245,414,0,0,0,0,0,0,0,0,0,-1,979,610,0,0
-238,414,0,0,0,0,0,0,0,0,0,-1,986,610,0,0
-231,414,0,0,0,0,0,0,0,0,0,-1,993,610,0,0
-224,414,0,0,0,0,0,0,0,0,0,-1,1000,610,0,0
-217,414,0,0,0,0,0,0,0,0,0,-1,1007,610,0,0
-210,414,0,0,0,0,0,0,0,0,0,-1,1014,610,0,0
-203,414,0,0,0,0,0,0,0,0,0,-1,1021,610,0,0
-196,414,0,0,0,0,0,0,0,0,0,-1,1028,610,0,0
-189,414,0,0,0,0,0,0,0,0,0,-1,1035,610,0,0
-182,414,0,0,0,0,0,0,0,0,0,-1,1042,610,0,0
-175,414,0,0,0,0,0,0,0,0,0,-1,1049,610,0,0
-168,414,0,0,0,0,0,0,0,0,0,-1,1056,610,0,0
-161,414,0,0,0,0,0,0,0,0,0,-1,1063,610,0,0
-154,414,0,0,0,0,0,0,0,0,0,-1,1070,610,0,0
-147,414,0,0,0,0,0,0,0,0,0,-1,1077,610,0,0
-140,414,0,0,0,0,0,0,0,0,0,-1,1084,610,0,0
-133,414,0,0,0,0,0,0,0,0,0,-1,1091,610,0,0
-126,414,0,0,0,0,0,0,0,0,0,-1,1098,610,0,0
-119,414,0,0,0,0,0,0,0,0,0,-1,1105,610,0,0
-112,414,0,0,0,0,0,0,0,0,0,-1,1112,610,0,0
-105,414,0,0,0,0,0,0,0,0,0,-1,1119,610,0,0
-98,414,0,0,0,0,0,0,0,0,0,-1,1126,610,0,0
-91,414,0,0,0,0,0,0,0,0,0,-1,1133,610,0,0
-84,414,0,0,0,0,0,0,0,0,0,-1,1140,610,0,0
-77,414,0,0,0,0,0,0,0,0,0,-1,1147,610,0,0
-70,414,0,0,0,0,0,0,0,0,0,-1,1154,610,0,0
-63,414,0,0,0,0,0,0,0,0,0,-1,1161,610,0,0
-56,414,0,0,0,0,0,0,0,0,0,-1,1168,610,0,0
-49,414,0,0,0,0,0,0,0,0,0,-1,1175,610,0,0
-42,414,0,0,0,0,0,0,0,0,0,-1,1182,610,0,0
-35,414,0,0,0,0,0,0,0,0,0,-1,1189,610,0,0
-28,414,0,0,0,0,0,0,0,0,0,-1,1196,610,0,0
-21,414,0,0,0,0,0,0,0,0,0,-1,1203,610,0,0
-14,414,0,0,0,0,0,0,0,0,0,-1,1210,610,0,0
-7,414,0,0,0,0,0,0,0,0,0,-1,1217,610,0,0
0,414,0,0,0,0,0,0,0,0,0,-1,1224,610,0,0
7,414,0,0,0,0,0,0,0,0,0,-1,1231,610,0,0
14,414,0,0,0,0,0,0,0,0,0,-1,1238,610,0,0
21,414,0,0,0,0,0,0,0,0,0,-1,1245,610,0,0
28,414,0,0,0,0,0,0,0,0,0,-1,1252,610,0,0
35,414,0,0,0,0,0,0,0,0,0,-1,1259,610,0,0
42,414,0,0,0,0,0,0,0,0,0,-1,1266,610,0,0
49,414,0,0,0,0,0,0,0,0,0,-1,1273,610,0,0
56,414,0,0,0,0,0,0,0,0,0,-1,1280,610,0,0
63,414,0,0,0,0,0,0,0,0,0,-1,1287,610,0,0
70,414,0,0,0,0,0,0,0,0,0,-1,1294,610,0,0
77,414,0,0,0,0,0,0,0,0,0,-1,1301,610,0,0
84,414,0,0,0,0,0,0,0,0,0,-1,1308,610,0,0
91,414,0,0,0,0,0,0,0,0,0,-1,1315,610,0,0
98,414,0,0,0,0,0,0,0,0,0,-1,1322,610,0,0
105,414,0,0,0,0,0,0,0,0,0,-1,1329,610,0,0
112,414,0,0,0,0,0,0,0,0,0,-1,1336,610,0,0
119,414,0,0,0,0,0,0,0,0,0,-1,1343,610,0,0
126,414,0,0,0,0,0,0,0,0,0,-1,1350,610,0,0
133,414,0,0,0,0,0,0,0,0,0,-1,1357,610,0,0
140,414,0,0,0,0,0,0,0,0,0,-1,1364,610,0,0
147,414,0,0,0,0,0,0,0,0,0,-1,1371,610,0,0
154,414,0,0,0,0,0,0,0,0,0,-1,1378,610,0,0
161,414,0,0,0,0,0,0,0,0,0,-1,1385,610,0,0
168,414,0,0,0,0,0,0,0,0,0,-1,1392,610,0,0
175,414,0,0,0,0,0,0,0,0,0,-1,1399,610,0,0
182,414,0,0,0,0,0,0,0,0,0,-1,1406,610,0,0
189,414,0,0,0,0,0,0,0,0,0,-1,1413,610,0,0
196,414,0,0,0,0,0,0,0,0,0,-1,1420,610,0,0
203,414,0,0,0,0,0,0,0,0,0,-1,1427,610,0,0
210,414,0,0,0,0,0,0,0,0,0,-1,1434,610,0,0
217,414,0,0,0,0,0,0,0,0,0,-1,1441,610,0,0
224,414,0,0,0,0,0,0,0,0,0,-1,1448,610,0,0
231,414,0,0,0,0,0,0,0,0,0,-1,1455,610,0,0
238,414,0,0,0,0,0,0,0,0,0,-1,1462,610,0,0
245,414,0,0,0,0,0,0,0,0,0,-1,1469,610,0,0
252,414,0,0,0,0,0,0,0,0,0,-1,1476,610,0,0
259,414,0,0,0,0,0,0,0,0,0,-1,1483,610,0,0
266,414,0,0,0,0,0,0,0,0,0,-1,1490,610,0,0
273,414,0,0,0,0,0,0,0,0,0,-1,1497,610,0,0
280,414,0,0,0,0,0,0,0,0,0,-1,1504,610,0,0
287,414,0,0,0,0,0,0,0,0,0,-1,1511,610,0,0
294,414,0,0,0,0,0,0,0,0,0,-1,1518,610,0,0
301,414,0,0,0,0,0,0,0,0,0,-1,1525,610,0,0
308,414,0,0,0,0,0,0,0,0,0,-1,1532,610,0,0
315,414,0,0,0,0,0,0,0,0,0,-1,1539,610,0,0
322,414,0,0,0,0,0,0,0,0,0,-1,1546,610,0,0
329,414,0,0,0,0,0,0,0,0,0,-1,1553,610,0,0
336,414,0,0,0,0,0,0,0,0,0,-1,1560,610,0,0
343,414,0,0,0,0,0,0,0,0,0,-1,1567,610,0,0
350,414,0,0,0,0,0,0,0,0,0,-1,1574,610,0,0
357,414,0,0,0,0,0,0,0,0,0,-1,1581,610,0,0
364,414,0,0,0,0,0,0,0,0,0,-1,1588,610,0,0
371,414,0,0,0,0,0,0,0,0,0,-1,1595,610,0,0
378,414,0,0,0,0,0,0,0,0,0,-1,1602,610,0,0
385,414,0,0,0,0,0,0,0,0,0,-1,1609,610,0,0
392,414,0,0,0,0,0,0,0,0,0,-1,1616,610,0,0
399,414,0,0,0,0,0,0,0,0,0,-1,1623,610,0,0
406,414,0,0,0,0,0,0,0,0,0,-1,1630,610,0,0
413,414,0,0,0,0,0,0,0,0,0,-1,1637,610,0,0
420,414,0,0,0,0,0,0,0,0,0,-1,1644,610,0,0
427,414,0,0,0,0,0,0,0,0,0,-1,1651,610,0,0
434,414,0,0,0,0,0,0,0,0,0,-1,1658,610,0,0
441,414,7.84375,0.584412,0,0,0,0,0,0,0,-1,1665,610,7.84379,-0.584394
448,414,7.40808,1.25446,0,0,0,0,0,0,0,-1,1672,610,7.40807,-1.25446
455,414,6.3512,1.73846,0,0,0,0,0,0,0,-1,1679,610,6.3512,-1.73847
462,414,8.18103,3.22113,0,0,0,0,0,0,0,-1,1686,610,8.18108,-3.22112
469,414,8.38513,2.49579,0,0,0,0,0,0,0,-1,1693,610,8.38516,-2.49576
476,414,8.64099,1.71161,0,0,0,0,0,0,0,-1,1700,610,8.64097,-1.71164
483,414,8.62744,0.687622,0,0,0,0,0,0,0,-1,1707,610,8.62749,-0.687615
490,414,8.38831,-0.0302734,0,0,0,0,0,0,0,-1,1714,610,8.38835,0.0302913
497,414,4.71094,-0.110046,0,0,0,0,0,0,0,-1,1721,610,4.71089,0.110024
504,414,7.19568,-1.43835,0,0,0,0,0,0,0,-1,1728,610,7.19563,1.43836
511,414,5.94153,-1.28772,0,0,0,0,0,0,0,-1,1735,610,5.94151,1.28769
518,414,4.53381,-0.0996704,0,0,0,0,0,0,0,-1,1742,610,4.53378,0.0996819
525,414,6.18811,-1.64056,0,0,0,0,0,0,0,-1,1749,610,6.18814,1.64055
532,414,22.2065,-14.9547,0,0,0,0,0,0,0,-1,1756,610,22.2066,14.9547
539,414,22.233,-14.0027,0,0,0,0,0,0,0,-1,1763,610,22.233,14.0027
546,414,22.2871,-13.3223,0.00383265,0.00131468,0.00135757,0.00442516,0.000722167,0.411528,0.00274128,0.0152161,1770,610,22.287,13.3223
553,414,22.2842,-12.6536,0.00311107,0.00121211,0.00112128,0.00363087,0.000692313,0.434087,0.00222599,0.012501,1777,610,22.2842,12.6535
560,414,22.2572,-11.9688,0.00245445,0.00117069,0.00098154,0.00298536,0.000639781,0.495823,0.00181496,0.0152425,1784,610,22.2572,11.9688
567,414,22.2264,-11.2825,0.00188077,0.0011955,0.00091746,0.00251749,0.000558779,0.606687,0.00152654,0.0256527,1791,610,22.2264,11.2825
574,414,22.1833,-10.6416,0.00150424,0.00141764,0.00102941,0.00249126,0.000430622,0.764381,0.00153753,0.0224943,1798,610,22.1834,10.6416
581,414,22.1665,-9.9613,0.0012713,0.00171857,0.00125919,0.00277383,0.000216034,0.873283,0.00178158,0.016818,1805,610,22.1665,9.96128
588,414,22.1194,-9.30945,0.00114485,0.00220202,0.00160408,0.00336237,-1.54929e-05,0.944557,0.00224676,0.0164368,1812,610,22.1194,9.30944
595,414,22.1062,-8.60352,0.00120736,0.00283205,0.00209605,0.00426767,-0.000228253,0.970266,0.00292417,0.021129,1819,610,22.1062,8.60351
602,414,22.0814,-7.94861,0.00143099,0.00367691,0.00273157,0.00550734,-0.000399443,0.980419,0.00381169,0.0245861,1826,610,22.0814,7.94863
609,414,21.9481,-7.25446,0.00198291,0.00485116,0.00366832,0.00735572,-0.000521651,0.971738,0.00508662,0.0311847,1833,610,21.9482,7.25446
616,414,22.3124,-6.29846,0,0,0,0,0,0,0,-1,1840,610,22.3124,6.29849
623,414,9.6969,0.0378418,0,0,0,0,0,0,0,-1,1847,610,9.69685,-0.0378644
630,414,5.47144,0.499329,0,0,0,0,0,0,0,-1,1854,610,5.47142,-0.499303
637,414,8.36707,4.16278,0,0,0,0,0,0,0,-1,1861,610,8.36709,-4.16278
644,414,5.87073,1.51422,0,0,0,0,0,0,0,-1,1868,610,5.87076,-1.51424
651,414,3.6377,0.820557,0,0,0,0,0,0,0,-1,1875,610,3.6377,-0.820543
658,414,2.29761,3.87323,0,0,0,0,0,0,0,-1,1882,610,2.29758,-3.87325
665,414,0,0,0,0,0,0,0,0,0,-1,1889,610,0,0
672,414,0,0,0,0,0,0,0,0,0,-1,1896,610,0,0
679,414,0,0,0,0,0,0,0,0,0,-1,1903,610,0,0
686,414,0,0,0,0,0,0,0,0,0,-1,1910,610,0,0
693,414,0,0,0,0,0,0,0,0,0,-1,1917,610,0,0
700,414,0,0,0,0,0,0,0,0,0,-1,1924,610,0,0
707,414,0,0,0,0,0,0,0,0,0,-1,1931,610,0,0
714,414,0,0,0,0,0,0,0,0,0,-1,1938,610,0,0
721,414,0,0,0,0,0,0,0,0,0,-1,1945,610,0,0
728,414,0,0,0,0,0,0,0,0,0,-1,1952,610,0,0
735,414,0,0,0,0,0,0,0,0,0,-1,1959,610,0,0
742,414,0,0,0,0,0,0,0,0,0,-1,1966,610,0,0
749,414,0,0,0,0,0,0,0,0,0,-1,1973,610,0,0
756,414,0,0,0,0,0,0,0,0,0,-1,1980,610,0,0
763,414,0,0,0,0,0,0,0,0,0,-1,1987,610,0,0
770,414,0,0,0,0,0,0,0,0,0,-1,1994,610,0,0
777,414,0,0,0,0,0,0,0,0,0,-1,2001,610,0,0
784,414,0,0,0,0,0,0,0,0,0,-1,2008,610,0,0
791,414,0,0,0,0,0,0,0,0,0,-1,2015,610,0,0
798,414,0,0,0,0,0,0,0,0,0,-1,2022,610,0,0
805,414,0,0,0,0,0,0,0,0,0,-1,2029,610,0,0
812,414,0,0,0,0,0,0,0,0,0,-1,2036,610,0,0
-700,407,0,0,0,0,0,0,0,0,0,-1,524,617,0,0
-693,407,0,0,0,0,0,0,0,0,0,-1,531,617,0,0
-686,407,0,0,0,0,0,0,0,0,0,-1,538,617,0,0
-679,407,0,0,0,0,0,0,0,0,0,-1,545,617,0,0
-672,407,0,0,0,0,0,0,0,0,0,-1,552,617,0,0
-665,407,0,0,0,0,0,0,0,0,0,-1,559,617,0,0
-658,407,0,0,0,0,0,0,0,0,0,-1,566,617,0,0
-651,407,0,0,0,0,0,0,0,0,0,-1,573,617,0,0
-644,407,0,0,0,0,0,0,0,0,0,-1,580,617,0,0
-637,407,0,0,0,0,0,0,0,0,0,-1,587,617,0,0
-630,407,0,0,0,0,0,0,0,0,0,-1,594,617,0,0
-623,407,0,0,0,0,0,0,0,0,0,-1,601,617,0,0
-616,407,0,0,0,0,0,0,0,0,0,-1,608,617,0,0
-609,407,0,0,0,0,0,0,0,0,0,-1,615,617,0,0
-602,407,0,0,0,0,0,0,0,0,0,-1,622,617,0,0
-595,407,0,0,0,0,0,0,0,0,0,-1,629,617,0,0
-588,407,0,0,0,0,0,0,0,0,0,-1,636,617,0,0
-581,407,0,0,0,0,0,0,0,0,0,-1,643,617,0,0
-574,407,0,0,0,0,0,0,0,0,0,-1,650,617,0,0
-567,407,0,0,0,0,0,0,0,0,0,-1,657,617,0,0
-560,407,0,0,0,0,0,0,0,0,0,-1,664,617,0,0
-553,407,0,0,0,0,0,0,0,0,0,-1,671,617,0,0
-546,407,-8.54517,-0.658142,0,0,0,0,0,0,0,-1,678,617,-8.54515,0.658112
-539,407,-6.09442,-1.01154,0,0,0,0,0,0,0,-1,685,617,-6.09441,1.01155
-532,407,-7.75665,1.62152,0,0,0,0,0,0,0,-1,692,617,-7.75667,-1.62154
-525,407,-3.78247,-2.67639,0,0,0,0,0,0,0,-1,699,617,-3.78246,2.67638
-518,407,-5.013,-5.87323,0,0,0,0,0,0,0,-1,706,617,-5.013,5.87324
-511,407,-9.42743,-4.94189,0,0,0,0,0,0,0,-1,713,617,-9.42745,4.94191
-504,407,-9.80591,-7.48315,0,0,0,0,0,0,0,-1,720,617,-9.80588,7.48317
-497,407,-9.84467,-6.81641,0,0,0,0,0,0,0,-1,727,617,-9.84468,6.8164
-490,407,-11.1223,-7.81653,0,0,0,0,0,0,0,-1,734,617,-11.1223,7.81656
-483,407,-10.965,-8.80908,-0.000736526,0.00596347,-0.00152991,0.00629629,-0.00106934,-1.35659,0.00459563,0.0332675,741,617,-10.965,8.80906
-476,407,-11.012,-9.44586,-0.000754245,0.00447096,-0.00113709,0.00470768,-0.00099097,-1.36554,0.00351564,0.0158226,748,617,-11.012,9.44588
-469,407,-11.0567,-10.0893,-0.000503092,0.00330355,-0.000942816,0.00352426,-0.000723808,-1.34083,0.00262427,0.0127361,755,617,-11.0567,10.0893
-462,407,-11.0798,-10.7435,-0.000138956,0.00235334,-0.00080577,0.00259116,-0.000376772,-1.2838,0.00186575,0.0187749,762,617,-11.0798,10.7435
-455,407,-11.1309,-11.4221,0.000209477,0.00145882,-0.000652545,0.0017375,-6.91946e-05,-1.16719,0.00118207,0.0209941,769,617,-11.1309,11.4221
-448,407,-11.1382,-12.0917,0.000617174,0.000659193,-0.000485429,0.00112407,0.0001523,-0.807025,0.000704123,0.0191406,776,617,-11.1382,12.0918
-441,407,-11.1549,-12.7307,0.000936094,-0.000274359,-0.000188354,0.000964726,-0.00030299,-0.150856,0.000764432,0.0150893,783,617,-11.1549,12.7306
-434,407,-11.2059,-13.3575,0.00123539,-0.00106172,0.000104087,0.00124009,-0.00106643,0.0451888,0.00133293,0.0109624,790,617,-11.206,13.3575
-427,407,-11.2131,-14.0013,0.00145072,-0.00194161,0.00045557,0.00151084,-0.00200173,0.131197,0.00203457,0.0111149,797,617,-11.2131,14.0014
-420,407,-11.1982,-14.6404,0.00152079,-0.00294736,0.000971522,0.00172289,-0.00314946,0.205098,0.00285296,0.0110648,804,617,-11.1982,14.6405
-413,407,-11.2063,-15.2654,0.00146745,-0.00401455,0.00161628,0.0019085,-0.0044556,0.266393,0.00377114,0.0142324,811,617,-11.2063,15.2654
-406,407,-11.3157,-15.6899,0.00137894,-0.00501044,0.00219612,0.00206098,-0.00569247,0.301119,0.00463724,0.0434925,818,617,-11.3157,15.6899
-399,407,-11.1846,-16.1223,0,0,0,0,0,0,0,-1,825,617,-11.1847,16.1223
-392,407,-8.33612,-12.195,0,0,0,0,0,0,0,-1,832,617,-8.33611,12.195
-385,407,-7.65765,-10.7744,0,0,0,0,0,0,0,-1,839,617,-7.65767,10.7744
-378,407,-6.08655,-7.42291,0,0,0,0,0,0,0,-1,846,617,-6.08652,7.42292
-371,407,-7.4007,-5.79449,0,0,0,0,0,0,0,-1,853,617,-7.40072,5.79447
-364,407,-10.0638,-6.6228,0,0,0,0,0,0,0,-1,860,617,-10.0639,6.62279
-357,407,-6.64447,-1.83337,0,0,0,0,0,0,0,-1,867,617,-6.64446,1.8334
-350,407,-7.03351,-1.77551,0,0,0,0,0,0,0,-1,874,617,-7.03349,1.77551
-343,407,-7.40967,-1.95026,0,0,0,0,0,0,0,-1,881,617,-7.40969,1.95026
-336,407,-8.10229,-2.40662,0,0,0,0,0,0,0,-1,888,617,-8.10229,2.40664
-329,407,-8.81232,-2.76331,0,0,0,0,0,0,0,-1,895,617,-8.81235,2.76331
-322,407,0,0,0,0,0,0,0,0,0,-1,902,617,0,0
-315,407,0,0,0,0,0,0,0,0,0,-1,909,617,0,0
-308,407,0,0,0,0,0,0,0,0,0,-1,916,617,0,0
-301,407,0,0,0,0,0,0,0,0,0,-1,923,617,0,0
-294,407,0,0,0,0,0,0,0,0,0,-1,930,617,0,0
-287,407,0,0,0,0,0,0,0,0,0,-1,937,617,0,0
-280,407,0,0,0,0,0,0,0,0,0,-1,944,617,0,0
-273,407,0,0,0,0,0,0,0,0,0,-1,951,617,0,0
-266,407,0,0,0,0,0,0,0,0,0,-1,958,617,0,0
-259,407,0,0,0,0,0,0,0,0,0,-1,965,617,0,0
-252,407,0,0,0,0,0,0,0,0,0,-1,972,617,0,0
-245,407,0,0,0,0,0,0,0,0,0,-1,979,617,0,0
-238,407,0,0,0,0,0,0,0,0,0,-1,986,617,0,0
-231,407,0,0,0,0,0,0,0,0,0,-1,993,617,0,0
-224,407,0,0,0,0,0,0,0,0,0,-1,1000,617,0,0
-217,407,0,0,0,0,0,0,0,0,0,-1,1007,617,0,0
-210,407,0,0,0,0,0,0,0,0,0,-1,1014,617,0,0
-203,407,0,0,0,0,0,0,0,0,0,-1,1021,617,0,0
-196,407,0,0,0,0,0,0,0,0,0,-1,1028,617,0,0
-189,407,0,0,0,0,0,0,0,0,0,-1,1035,617,0,0
-182,407,0,0,0,0,0,0,0,0,0,-1,1042,617,0,0
-175,407,0,0,0,0,0,0,0,0,0,-1,1049,617,0,0
-168,407,0,0,0,0,0,0,0,0,0,-1,1056,617,0,0
-161,407,0,0,0,0,0,0,0,0,0,-1,1063,617,0,0
-154,407,0,0,0,0,0,0,0,0,0,-1,1070,617,0,0
-147,407,0,0,0,0,0,0,0,0,0,-1,1077,617,0,0
-140,407,0,0,0,0,0,0,0,0,0,-1,1084,617,0,0
-133,407,0,0,0,0,0,0,0,0,0,-1,1091,617,0,0
-126,407,0,0,0,0,0,0,0,0,0,-1,1098,617,0,0
-119,407,0,0,0,0,0,0,0,0,0,-1,1105,617,0,0
-112,407,0,0,0,0,0,0,0,0,0,-1,1112,617,0,0
-105,407,0,0,0,0,0,0,0,0,0,-1,1119,617,0,0
-98,407,0,0,0,0,0,0,0,0,0,-1,1126,617,0,0
-91,407,0,0,0,0,0,0,0,0,0,-1,1133,617,0,0
-84,407,0,0,0,0,0,0,0,0,0,-1,1140,617,0,0
-77,407,0,0,0,0,0,0,0,0,0,-1,1147,617,0,0
-70,407,0,0,0,0,0,0,0,0,0,-1,1154,617,0,0
-63,407,0,0,0,0,0,0,0,0,0,-1,1161,617,0,0
-56,407,0,0,0,0,0,0,0,0,0,-1,1168,617,0,0
-49,407,0,0,0,0,0,0,0,0,0,-1,1175,617,0,0
-42,407,0,0,0,0,0,0,0,0,0,-1,1182,617,0,0
-35,407,0,0,0,0,0,0,0,0,0,-1,1189,617,0,0
-28,407,0,0,0,0,0,0,0,0,0,-1,1196,617,0,0
-21,407,0,0,0,0,0,0,0,0,0,-1,1203,617,0,0
-14,407,0,0,0,0,0,0,0,0,0,-1,1210,617,0,0
-7,407,0,0,0,0,0,0,0,0,0,-1,1217,617,0,0
0,407,0,0,0,0,0,0,0,0,0,-1,1224,617,0,0
7,407,0,0,0,0,0,0,0,0,0,-1,1231,617,0,0
14,407,0,0,0,0,0,0,0,0,0,-1,1238,617,0,0
21,407,0,0,0,0,0,0,0,0,0,-1,1245,617,0,0
28,407,0,0,0,0,0,0,0,0,0,-1,1252,617,0,0
35,407,0,0,0,0,0,0,0,0,0,-1,1259,617,0,0
42,407,0,0,0,0,0,0,0,0,0,-1,1266,617,0,0
49,407,0,0,0,0,0,0,0,0,0,-1,1273,617,0,0
56,407,0,0,0,0,0,0,0,0,0,-1,1280,617,0,0
63,407,0,0,0,0,0,0,0,0,0,-1,1287,617,0,0
70,407,0,0,0,0,0,0,0,0,0,-1,1294,617,0,0
77,407,0,0,0,0,0,0,0,0,0,-1,1301,617,0,0
84,407,0,0,0,0,0,0,0,0,0,-1,1308,617,0,0
91,407,0,0,0,0,0,0,0,0,0,-1,1315,617,0,0
98,407,0,0,0,0,0,0,0,0,0,-1,1322,617,0,0
105,407,0,0,0,0,0,0,0,0,0,-1,1329,617,0,0
112,407,0,0,0,0,0,0,0,0,0,-1,1336,617,0,0
119,407,0,0,0,0,0,0,0,0,0,-1,1343,617,0,0
126,407,0,0,0,0,0,0,0,0,0,-1,1350,617,0,0
133,407,0,0,0,0,0,0,0,0,0,-1,1357,617,0,0
140,407,0,0,0,0,0,0,0,0,0,-1,1364,617,0,0
147,407,0,0,0,0,0,0,0,0,0,-1,1371,617,0,0
154,407,0,0,0,0,0,0,0,0,0,-1,1378,617,0,0
161,407,0,0,0,0,0,0,0,0,0,-1,1385,617,0,0
168,407,0,0,0,0,0,0,0,0,0,-1,1392,617,0,0
175,407,0,0,0,0,0,0,0,0,0,-1,1399,617,0,0
182,407,0,0,0,0,0,0,0,0,0,-1,1406,617,0,0
189,407,0,0,0,0,0,0,0,0,0,-1,1413,617,0,0
196,407,0,0,0,0,0,0,0,0,0,-1,1420,617,0,0
203,407,0,0,0,0,0,0,0,0,0,-1,1427,617,0,0
210,407,0,0,0,0,0,0,0,0,0,-1,1434,617,0,0
217,407,0,0,0,0,0,0,0,0,0,-1,1441,617,0,0
224,407,0,0,0,0,0,0,0,0,0,-1,1448,617,0,0
231,407,0,0,0,0,0,0,0,0,0,-1,1455,617,0,0
238,407,0,0,0,0,0,0,0,0,0,-1,1462,617,0,0
245,407,0,0,0,0,0,0,0,0,0,-1,1469,617,0,0
252,407,0,0,0,0,0,0,0,0,0,-1,1476,617,0,0
259,407,0,0,0,0,0,0,0,0,0,-1,1483,617,0,0
266,407,0,0,0,0,0,0,0,0,0,-1,1490,617,0,0
273,407,0,0,0,0,0,0,0,0,0,-1,1497,617,0,0
280,407,0,0,0,0,0,0,0,0,0,-1,1504,617,0,0
287,407,0,0,0,0,0,0,0,0,0,-1,1511,617,0,0
294,407,0,0,0,0,0,0,0,0,0,-1,1518,617,0,0
301,407,0,0,0,0,0,0,0,0,0,-1,1525,617,0,0
308,407,0,0,0,0,0,0,0,0,0,-1,1532,617,0,0
315,407,0,0,0,0,0,0,0,0,0,-1,1539,617,0,0
322,407,0,0,0,0,0,0,0,0,0,-1,1546,617,0,0
329,407,0,0,0,0,0,0,0,0,0,-1,1553,617,0,0
336,407,0,0,0,0,0,0,0,0,0,-1,1560,617,0,0
343,407,0,0,0,0,0,0,0,0,0,-1,1567,617,0,0
350,407,0,0,0,0,0,0,0,0,0,-1,1574,617,0,0
357,407,0,0,0,0,0,0,0,0,0,-1,1581,617,0,0
364,407,0,0,0,0,0,0,0,0,0,-1,1588,617,0,0
371,407,0,0,0,0,0,0,0,0,0,-1,1595,617,0,0
378,407,0,0,0,0,0,0,0,0,0,-1,1602,617,0,0
385,407,0,0,0,0,0,0,0,0,0,-1,1609,617,0,0
392,407,0,0,0,0,0,0,0,0,0,-1,1616,617,0,0
399,407,0,0,0,0,0,0,0,0,0,-1,1623,617,0,0
406,407,0,0,0,0,0,0,0,0,0,-1,1630,617,0,0
413,407,0,0,0,0,0,0,0,0,0,-1,1637,617,0,0
420,407,0,0,0,0,0,0,0,0,0,-1,1644,617,0,0
427,407,0,0,0,0,0,0,0,0,0,-1,1651,617,0,0
434,407,0,0,0,0,0,0,0,0,0,-1,1658,617,0,0
441,407,0,0,0,0,0,0,0,0,0,-1,1665,617,0,0
448,407,7.02893,2.13843,0,0,0,0,0,0,0,-1,1672,617,7.02899,-2.13844
455,407,7.55237,2.29242,0,0,0,0,0,0,0,-1,1679,617,7.55236,-2.29244
462,407,8.2926,2.46173,0,0,0,0,0,0,0,-1,1686,617,8.29261,-2.46174
469,407,8.71509,2.22681,0,0,0,0,0,0,0,-1,1693,617,8.71511,-2.22681
476,407,8.89917,1.47766,0,0,0,0,0,0,0,-1,1700,617,8.89914,-1.47768
483,407,9.02612,0.682983,0,0,0,0,0,0,0,-1,1707,617,9.02608,-0.683004
490,407,9.12659,0.000671387,0,0,0,0,0,0,0,-1,1714,617,9.12653,-0.000675931
497,407,7.76819,0.855835,0,0,0,0,0,0,0,-1,1721,617,7.7682,-0.855865
504,407,4.69336,0.160706,0,0,0,0,0,0,0,-1,1728,617,4.69337,-0.1607
511,407,4.07104,-0.00140381,0,0,0,0,0,0,0,-1,1735,617,4.07109,0.00141425
518,407,6.09534,1.9411,0,0,0,0,0,0,0,-1,1742,617,6.09532,-1.94113
525,407,5.72534,-1.35986,0,0,0,0,0,0,0,-1,1749,617,5.72529,1.35988
532,407,18.5767,-10.6388,0,0,0,0,0,0,0,-1,1756,617,18.5766,10.6388
539,407,22.8578,-14.0483,0,0,0,0,0,0,0,-1,1763,617,22.8578,14.0484
546,407,22.9662,-13.2946,0.00444114,0.00165482,0.00163134,0.00519324,0.000902716,0.431992,0.00320393,0.0225611,1770,617,22.9662,13.2946
553,407,22.9354,-12.6433,0.00362966,0.00142699,0.00128788,0.0042229,0.000833754,0.431659,0.00258261,0.0159552,1777,617,22.9354,12.6433
560,407,22.9232,-11.9452,0.0029191,0.00126922,0.00106177,0.00343874,0.000749591,0.455134,0.00208797,0.0169998,1784,617,22.9233,11.9452
567,407,22.9288,-11.2519,0.002259,0.00114334,0.000887205,0.00274917,0.000653172,0.504753,0.0016585,0.0309831,1791,617,22.9289,11.2519
574,407,22.8827,-10.6457,0.00182455,0.00125651,0.000926744,0.00250982,0.00057124,0.636706,0.00151904,0.0270325,1798,617,22.8827,10.6457
581,407,22.8361,-9.96387,0.00154622,0.00148244,0.00110023,0.00261502,0.000413644,0.770909,0.00162313,0.0184853,1805,617,22.836,9.96385
588,407,22.7905,-9.27264,0.00136882,0.00188607,0.00138019,0.00303165,0.000223233,0.878017,0.00195095,0.0126211,1812,617,22.7905,9.27267
595,407,22.7957,-8.61053,0.00142535,0.00244198,0.00183233,0.0038352,3.21291e-05,0.920704,0.00254616,0.0233413,1819,617,22.7957,8.61056
602,407,22.7788,-7.90021,0.00172485,0.00319728,0.00246017,0.00502903,-0.000106905,0.930784,0.00338889,0.0208916,1826,617,22.7789,7.90022
609,407,22.7037,-7.18195,0.00231479,0.00422622,0.00332765,0.00673268,-0.000191665,0.925236,0.00455369,0.0178554,1833,617,22.7037,7.18197
616,407,22.7534,-6.38611,0.00326262,0.00560983,0.00445022,0.0090386,-0.000166146,0.914322,0.00608187,0.0311589,1840,617,22.7534,6.38613
623,407,23.0449,-5.46674,0,0,0,0,0,0,0,-1,1847,617,23.045,5.46674
630,407,7.06177,0.814575,0,0,0,0,0,0,0,-1,1854,617,7.06178,-0.814579
637,407,9.76819,-0.110657,0,0,0,0,0,0,0,-1,1861,617,9.76814,0.11064
644,407,5.09766,2.27747,0,0,0,0,0,0,0,-1,1868,617,5.09764,-2.27746
651,407,7.37524,0.0513916,0,0,0,0,0,0,0,-1,1875,617,7.3752,-0.0513923
658,407,3.76685,0.594177,0,0,0,0,0,0,0,-1,1882,617,3.76683,-0.594184
665,407,5.76123,0.375061,0,0,0,0,0,0,0,-1,1889,617,5.76118,-0.37509
672,407,0,0,0,0,0,0,0,0,0,-1,1896,617,0,0
679,407,0,0,0,0,0,0,0,0,0,-1,1903,617,0,0
686,407,0,0,0,0,0,0,0,0,0,-1,1910,617,0,0
693,407,0,0,0,0,0,0,0,0,0,-1,1917,617,0,0
700,407,0,0,0,0,0,0,0,0,0,-1,1924,617,0,0
707,407,0,0,0,0,0,0,0,0,0,-1,1931,617,0,0
714,407,0,0,0,0,0,0,0,0,0,-1,1938,617,0,0
721,407,0,0,0,0,0,0,0,0,0,-1,1945,617,0,0
728,407,0,0,0,0,0,0,0,0,0,-1,1952,617,0,0
735,407,0,0,0,0,0,0,0,0,0,-1,1959,617,0,0
742,407,0,0,0,0,0,0,0,0,0,-1,1966,617,0,0
749,407,0,0,0,0,0,0,0,0,0,-1,1973,617,0,0
756,407,0,0,0,0,0,0,0,0,0,-1,1980,617,0,0
763,407,0,0,0,0,0,0,0,0,0,-1,1987,617,0,0
770,407,0,0,0,0,0,0,0,0,0,-1,1994,617,0,0
777,407,0,0,0,0,0,0,0,0,0,-1,2001,617,0,0
784,407,0,0,0,0,0,0,0,0,0,-1,2008,617,0,0
791,407,0,0,0,0,0,0,0,0,0,-1,2015,617,0,0
798,407,0,0,0,0,0,0,0,0,0,-1,2022,617,0,0
805,407,0,0,0,0,0,0,0,0,0,-1,2029,617,0,0
812,407,0,0,0,0,0,0,0,0,0,-1,2036,617,0,0
-700,400,0,0,0,0,0,0,0,0,0,-1,524,624,0,0
-693,400,0,0,0,0,0,0,0,0,0,-1,531,624,0,0
-686,400,0,0,0,0,0,0,0,0,0,-1,538,624,0,0
-679,400,0,0,0,0,0,0,0,0,0,-1,545,624,0,0
-672,400,0,0,0,0,0,0,0,0,0,-1,552,624,0,0
-665,400,0,0,0,0,0,0,0,0,0,-1,559,624,0,0
-658,400,0,0,0,0,0,0,0,0,0,-1,566,624,0,0
-651,400,0,0,0,0,0,0,0,0,0,-1,573,624,0,0
-644,400,0,0,0,0,0,0,0,0,0,-1,580,624,0,0
-637,400,0,0,0,0,0,0,0,0,0,-1,587,624,0,0
-630,400,0,0,0,0,0,0,0,0,0,-1,594,624,0,0
-623,400,0,0,0,0,0,0,0,0,0,-1,601,624,0,0
-616,400,0,0,0,0,0,0,0,0,0,-1,608,624,0,0
-609,400,0,0,0,0,0,0,0,0,0,-1,615,624,0,0
-602,400,0,0,0,0,0,0,0,0,0,-1,622,624,0,0
-595,400,0,0,0,0,0,0,0,0,0,-1,629,624,0,0
-588,400,0,0,0,0,0,0,0,0,0,-1,636,624,0,0
-581,400,0,0,0,0,0,0,0,0,0,-1,643,624,0,0
-574,400,0,0,0,0,0,0,0,0,0,-1,650,624,0,0
-567,400,0,0,0,0,0,0,0,0,0,-1,657,624,0,0
-560,400,0,0,0,0,0,0,0,0,0,-1,664,624,0,0
-553,400,0,0,0,0,0,0,0,0,0,-1,671,624,0,0
-546,400,-8.41174,-1.4599,0,0,0,0,0,0,0,-1,678,624,-8.41173,1.45989
-539,400,-5.69104,-1.7337,0,0,0,0,0,0,0,-1,685,624,-5.69103,1.7337
-532,400,-3.03632,-2.03912,0,0,0,0,0,0,0,-1,692,624,-3.03632,2.03909
-525,400,-6.20813,-7.04071,0,0,0,0,0,0,0,-1,699,624,-6.20814,7.04071
-518,400,-5.26544,-1.58661,0,0,0,0,0,0,0,-1,706,624,-5.26544,1.58658
-511,400,-10.6307,-6.7121,0,0,0,0,0,0,0,-1,713,624,-10.6307,6.71209
-504,400,-10.2663,-6.55109,0,0,0,0,0,0,0,-1,720,624,-10.2663,6.55106
-497,400,-11.7922,-7.14294,0,0,0,0,0,0,0,-1,727,624,-11.7922,7.14291
-490,400,-11.6095,-7.96405,0.00042206,0.00661799,-0.00227271,0.00736223,-0.000322186,-1.25433,0.005019,0.0356537,734,624,-11.6095,7.96407
-483,400,-11.6448,-8.76019,0.000111087,0.00490492,-0.00162079,0.00540147,-0.000385464,-1.27351,0.0037361,0.0182104,741,624,-11.6448,8.76019
-476,400,-11.6666,-9.41101,5.67992e-05,0.00359505,-0.00121561,0.00397244,-0.000320586,-1.26978,0.00276137,0.0146061,748,624,-11.6666,9.41104
-469,400,-11.7031,-10.0555,0.00023514,0.00256015,-0.000983321,0.00292026,-0.000124963,-1.21975,0.0019898,0.0146831,755,624,-11.7031,10.0556
-462,400,-11.7309,-10.7296,0.000497839,0.00169444,-0.00080605,0.00209997,9.23066e-05,-1.10466,0.00137025,0.0177954,762,624,-11.7309,10.7295
-455,400,-11.7584,-11.3812,0.000773705,0.000835307,-0.000634426,0.00143968,0.000169333,-0.809654,0.000908616,0.0195386,769,624,-11.7583,11.3812
-448,400,-11.7767,-12.0607,0.00113927,0.000117714,-0.000475103,0.00132608,-6.90864e-05,-0.374613,0.000907956,0.0154354,776,624,-11.7766,12.0607
-441,400,-11.7986,-12.6714,0.00143493,-0.000709901,-0.000211991,0.00145568,-0.000730653,-0.0975801,0.00128521,0.0148435,783,624,-11.7986,12.6714
-434,400,-11.8469,-13.29,0.00169958,-0.00145331,6.63605e-05,0.00170097,-0.00145471,0.0210351,0.00182378,0.0122816,790,624,-11.8469,13.29
-427,400,-11.8738,-13.9341,0.00184846,-0.00237135,0.000456194,0.00189721,-0.00242011,0.106469,0.00249869,0.0104841,797,624,-11.8738,13.9341
-420,400,-11.8284,-14.6173,0.0017592,-0.00353296,0.00111141,0.00198313,-0.0037569,0.198824,0.00336634,0.0166953,804,624,-11.8284,14.6173
-413,400,-11.9121,-15.1294,0.00151004,-0.00481553,0.0019154,0.00204482,-0.0053503,0.272266,0.00440946,0.0394159,811,624,-11.9121,15.1294
-406,400,-12.0313,-15.5967,0,0,0,0,0,0,0,-1,818,624,-12.0312,15.5967
-399,400,-11.0176,-13.2944,0,0,0,0,0,0,0,-1,825,624,-11.0176,13.2944
-392,400,-4.92285,-6.63354,0,0,0,0,0,0,0,-1,832,624,-4.92285,6.63354
-385,400,-3.68738,-5.04205,0,0,0,0,0,0,0,-1,839,624,-3.68736,5.04207
-378,400,-6.84064,-1.28662,0,0,0,0,0,0,0,-1,846,624,-6.84062,1.28662
-371,400,-6.98865,-1.2572,0,0,0,0,0,0,0,-1,853,624,-6.98865,1.25721
-364,400,-6.97247,-1.24133,0,0,0,0,0,0,0,-1,860,624,-6.97249,1.24135
-357,400,-7.18329,-1.23218,0,0,0,0,0,0,0,-1,867,624,-7.18327,1.2322
-350,400,-7.40186,-1.19409,0,0,0,0,0,0,0,-1,874,624,-7.40187,1.19407
-343,400,-8.09357,-1.51147,0,0,0,0,0,0,0,-1,881,624,-8.09355,1.51148
-336,400,0,0,0,0,0,0,0,0,0,-1,888,624,0,0
-329,400,0,0,0,0,0,0,0,0,0,-1,895,624,0,0
-322,400,0,0,0,0,0,0,0,0,0,-1,902,624,0,0
-315,400,0,0,0,0,0,0,0,0,0,-1,909,624,0,0
-308,400,0,0,0,0,0,0,0,0,0,-1,916,624,0,0
-301,400,0,0,0,0,0,0,0,0,0,-1,923,624,0,0
-294,400,0,0,0,0,0,0,0,0,0,-1,930,624,0,0
-287,400,0,0,0,0,0,0,0,0,0,-1,937,624,0,0
-280,400,0,0,0,0,0,0,0,0,0,-1,944,624,0,0
-273,400,0,0,0,0,0,0,0,0,0,-1,951,624,0,0
-266,400,0,0,0,0,0,0,0,0,0,-1,958,624,0,0
-259,400,0,0,0,0,0,0,0,0,0,-1,965,624,0,0
-252,400,0,0,0,0,0,0,0,0,0,-1,972,624,0,0
-245,400,0,0,0,0,0,0,0,0,0,-1,979,624,0,0
-238,400,0,0,0,0,0,0,0,0,0,-1,986,624,0,0
-231,400,0,0,0,0,0,0,0,0,0,-1,993,624,0,0
-224,400,0,0,0,0,0,0,0,0,0,-1,1000,624,0,0
-217,400,0,0,0,0,0,0,0,0,0,-1,1007,624,0,0
-210,400,0,0,0,0,0,0,0,0,0,-1,1014,624,0,0
-203,400,0,0,0,0,0,0,0,0,0,-1,1021,624,0,0
-196,400,0,0,0,0,0,0,0,0,0,-1,1028,624,0,0
-189,400,0,0,0,0,0,0,0,0,0,-1,1035,624,0,0
-182,400,0,0,0,0,0,0,0,0,0,-1,1042,624,0,0
-175,400,0,0,0,0,0,0,0,0,0,-1,1049,624,0,0
-168,400,0,0,0,0,0,0,0,0,0,-1,1056,624,0,0
-161,400,0,0,0,0,0,0,0,0,0,-1,1063,624,0,0
-154,400,0,0,0,0,0,0,0,0,0,-1,1070,624,0,0
-147,400,0,0,0,0,0,0,0,0,0,-1,1077,624,0,0
-140,400,0,0,0,0,0,0,0,0,0,-1,1084,624,0,0
-133,400,0,0,0,0,0,0,0,0,0,-1,1091,624,0,0
-126,400,0,0,0,0,0,0,0,0,0,-1,1098,624,0,0
-119,400,0,0,0,0,0,0,0,0,0,-1,1105,624,0,0
-112,400,0,0,0,0,0,0,0,0,0,-1,1112,624,0,0
-105,400,0,0,0,0,0,0,0,0,0,-1,1119,624,0,0
-98,400,0,0,0,0,0,0,0,0,0,-1,1126,624,0,0
-91,400,0,0,0,0,0,0,0,0,0,-1,1133,624,0,0
-84,400,0,0,0,0,0,0,0,0,0,-1,1140,624,0,0
-77,400,0,0,0,0,0,0,0,0,0,-1,1147,624,0,0
-70,400,0,0,0,0,0,0,0,0,0,-1,1154,624,0,0
-63,400,0,0,0,0,0,0,0,0,0,-1,1161,624,0,0
-56,400,0,0,0,0,0,0,0,0,0,-1,1168,624,0,0
-49,400,0,0,0,0,0,0,0,0,0,-1,1175,624,0,0
-42,400,0,0,0,0,0,0,0,0,0,-1,1182,624,0,0
-35,400,0,0,0,0,0,0,0,0,0,-1,1189,624,0,0
-28,400,0,0,0,0,0,0,0,0,0,-1,1196,624,0,0
-21,400,0,0,0,0,0,0,0,0,0,-1,1203,624,0,0
-14,400,0,0,0,0,0,0,0,0,0,-1,1210,624,0,0
-7,400,0,0,0,0,0,0,0,0,0,-1,1217,624,0,0
0,400,0,0,0,0,0,0,0,0,0,-1,1224,624,0,0
7,400,0,0,0,0,0,0,0,0,0,-1,1231,624,0,0
14,400,0,0,0,0,0,0,0,0,0,-1,1238,624,0,0
21,400,0,0,0,0,0,0,0,0,0,-1,1245,624,0,0
28,400,0,0,0,0,0,0,0,0,0,-1,1252,624,0,0
35,400,0,0,0,0,0,0,0,0,0,-1,1259,624,0,0
42,400,0,0,0,0,0,0,0,0,0,-1,1266,624,0,0
49,400,0,0,0,0,0,0,0,0,0,-1,1273,624,0,0
56,400,0,0,0,0,0,0,0,0,0,-1,1280,624,0,0
63,400,0,0,0,0,0,0,0,0,0,-1,1287,624,0,0
70,400,0,0,0,0,0,0,0,0,0,-1,1294,624,0,0
77,400,0,0,0,0,0,0,0,0,0,-1,1301,624,0,0
84,400,0,0,0,0,0,0,0,0,0,-1,1308,624,0,0
91,400,0,0,0,0,0,0,0,0,0,-1,1315,624,0,0
98,400,0,0,0,0,0,0,0,0,0,-1,1322,624,0,0
105,400,0,0,0,0,0,0,0,0,0,-1,1329,624,0,0
112,400,0,0,0,0,0,0,0,0,0,-1,1336,624,0,0
119,400,0,0,0,0,0,0,0,0,0,-1,1343,624,0,0
126,400,0,0,0,0,0,0,0,0,0,-1,1350,624,0,0
133,400,0,0,0,0,0,0,0,0,0,-1,1357,624,0,0
140,400,0,0,0,0,0,0,0,0,0,-1,1364,624,0,0
147,400,0,0,0,0,0,0,0,0,0,-1,1371,624,0,0
154,400,0,0,0,0,0,0,0,0,0,-1,1378,624,0,0
161,400,0,0,0,0,0,0,0,0,0,-1,1385,624,0,0
168,400,0,0,0,0,0,0,0,0,0,-1,1392,624,0,0
175,400,0,0,0,0,0,0,0,0,0,-1,1399,624,0,0
182,400,0,0,0,0,0,0,0,0,0,-1,1406,624,0,0
189,400,0,0,0,0,0,0,0,0,0,-1,1413,624,0,0
196,400,0,0,0,0,0,0,0,0,0,-1,1420,624,0,0
203,400,0,0,0,0,0,0,0,0,0,-1,1427,624,0,0
210,400,0,0,0,0,0,0,0,0,0,-1,1434,624,0,0
217,400,0,0,0,0,0,0,0,0,0,-1,1441,624,0,0
224,400,0,0,0,0,0,0,0,0,0,-1,1448,624,0,0
231,400,0,0,0,0,0,0,0,0,0,-1,1455,624,0,0
238,400,0,0,0,0,0,0,0,0,0,-1,1462,624,0,0
245,400,0,0,0,0,0,0,0,0,0,-1,1469,624,0,0
252,400,0,0,0,0,0,0,0,0,0,-1,1476,624,0,0
259,400,0,0,0,0,0,0,0,0,0,-1,1483,624,0,0
266,400,0,0,0,0,0,0,0,0,0,-1,1490,624,0,0
273,400,0,0,0,0,0,0,0,0,0,-1,1497,624,0,0
280,400,0,0,0,0,0,0,0,0,0,-1,1504,624,0,0
287,400,0,0,0,0,0,0,0,0,0,-1,1511,624,0,0
294,400,0,0,0,0,0,0,0,0,0,-1,1518,624,0,0
301,400,0,0,0,0,0,0,0,0,0,-1,1525,624,0,0
308,400,0,0,0,0,0,0,0,0,0,-1,1532,624,0,0
315,400,0,0,0,0,0,0,0,0,0,-1,1539,624,0,0
322,400,0,0,0,0,0,0,0,0,0,-1,1546,624,0,0
329,400,0,0,0,0,0,0,0,0,0,-1,1553,624,0,0
336,400,0,0,0,0,0,0,0,0,0,-1,1560,624,0,0
343,400,0,0,0,0,0,0,0,0,0,-1,1567,624,0,0
350,400,0,0,0,0,0,0,0,0,0,-1,1574,624,0,0
357,400,0,0,0,0,0,0,0,0,0,-1,1581,624,0,0
364,400,0,0,0,0,0,0,0,0,0,-1,1588,624,0,0
371,400,0,0,0,0,0,0,0,0,0,-1,1595,624,0,0
378,400,0,0,0,0,0,0,0,0,0,-1,1602,624,0,0
385,400,0,0,0,0,0,0,0,0,0,-1,1609,624,0,0
392,400,0,0,0,0,0,0,0,0,0,-1,1616,624,0,0
399,400,0,0,0,0,0,0,0,0,0,-1,1623,624,0,0
406,400,0,0,0,0,0,0,0,0,0,-1,1630,624,0,0
413,400,0,0,0,0,0,0,0,0,0,-1,1637,624,0,0
420,400,0,0,0,0,0,0,0,0,0,-1,1644,624,0,0
427,400,0,0,0,0,0,0,0,0,0,-1,1651,624,0,0
434,400,0,0,0,0,0,0,0,0,0,-1,1658,624,0,0
441,400,0,0,0,0,0,0,0,0,0,-1,1665,624,0,0
448,400,0,0,0,0,0,0,0,0,0,-1,1672,624,0,0
455,400,8.91309,2.75885,0,0,0,0,0,0,0,-1,1679,624,8.91312,-2.75885
462,400,8.90356,2.37878,0,0,0,0,0,0,0,-1,1686,624,8.90353,-2.37878
469,400,9.14429,1.76849,0,0,0,0,0,0,0,-1,1693,624,9.14432,-1.76847
476,400,9.23254,1.25995,0,0,0,0,0,0,0,-1,1700,624,9.23252,-1.25994
483,400,9.59766,0.562439,0,0,0,0,0,0,0,-1,1707,624,9.59771,-0.56242
490,400,9.92578,-0.213745,0,0,0,0,0,0,0,-1,1714,624,9.92579,0.21376
497,400,9.19141,0.175232,0,0,0,0,0,0,0,-1,1721,624,9.19138,-0.175209
504,400,9.23438,0.00823975,0,0,0,0,0,0,0,-1,1728,624,9.23436,-0.00823766
511,400,6.16687,3.3501,0,0,0,0,0,0,0,-1,1735,624,6.16682,-3.35007
518,400,6.55237,1.74994,0,0,0,0,0,0,0,-1,1742,624,6.55236,-1.74993
525,400,6.99731,1.08783,0,0,0,0,0,0,0,-1,1749,624,6.99736,-1.08785
532,400,6.96582,-1.74982,0,0,0,0,0,0,0,-1,1756,624,6.96585,1.74983
539,400,21.2305,-10.5841,0,0,0,0,0,0,0,-1,1763,624,21.2304,10.5841
546,400,23.674,-13.2795,0,0,0,0,0,0,0,-1,1770,624,23.674,13.2795
553,400,23.5326,-12.6524,0.00429928,0.00179839,0.00154784,0.00503866,0.001059,0.445639,0.00306766,0.0404353,1777,624,23.5326,12.6524
560,400,23.5958,-11.9204,0.00348719,0.00152474,0.00123876,0.00408626,0.000925676,0.450444,0.00247403,0.0151477,1784,624,23.5958,11.9204
567,400,23.5836,-11.238,0.00267997,0.00124102,0.000943069,0.00314667,0.000774315,0.459543,0.00189322,0.0178248,1791,624,23.5836,11.238
574,400,23.5582,-10.6046,0.00213001,0.00123747,0.000900561,0.00268881,0.000678669,0.555359,0.00161458,0.0209233,1798,624,23.5582,10.6046
581,400,23.4933,-9.94171,0.0017557,0.00138282,0.00100566,0.00259205,0.000546466,0.693743,0.00157775,0.0207101,1805,624,23.4933,9.9417
588,400,23.4637,-9.22241,0.0015042,0.0016895,0.00121435,0.00281473,0.000378966,0.823471,0.00176379,0.0157543,1812,624,23.4637,9.2224
595,400,23.4623,-8.55261,0.00151594,0.00214386,0.00159912,0.00345955,0.000200253,0.882332,0.0022426,0.014903,1819,624,23.4622,8.55262
602,400,23.4379,-7.87555,0.00179085,0.00277584,0.00216422,0.00450289,6.37942e-05,0.897274,0.00298089,0.0153325,1826,624,23.4379,7.87554
609,400,23.3517,-7.18115,0.00228666,0.00361258,0.00289159,0.00591623,-1.69952e-05,0.898087,0.00394983,0.014708,1833,624,23.3517,7.18116
616,400,23.3292,-6.48798,0.00310991,0.0047372,0.00384927,0.00785788,-1.07721e-05,0.889553,0.00524218,0.0186397,1840,624,23.3292,6.48799
623,400,23.4546,-5.41248,0,0,0,0,0,0,0,-1,1847,624,23.4546,5.41245
630,400,11.9432,0.09021,0,0,0,0,0,0,0,-1,1854,624,11.9432,-0.0902007
637,400,6.92896,1.01917,0,0,0,0,0,0,0,-1,1861,624,6.92899,-1.01918
644,400,8.65381,1.4599,0,0,0,0,0,0,0,-1,1868,624,8.65379,-1.45991
651,400,7.90601,0.424072,0,0,0,0,0,0,0,-1,1875,624,7.90598,-0.424097
658,400,8.69031,1.0484,0,0,0,0,0,0,0,-1,1882,624,8.6903,-1.0484
665,400,5.98438,0.522522,0,0,0,0,0,0,0,-1,1889,624,5.98442,-0.522552
672,400,0,0,0,0,0,0,0,0,0,-1,1896,624,0,0
679,400,0,0,0,0,0,0,0,0,0,-1,1903,624,0,0
686,400,0,0,0,0,0,0,0,0,0,-1,1910,624,0,0
693,400,0,0,0,0,0,0,0,0,0,-1,1917,624,0,0
700,400,0,0,0,0,0,0,0,0,0,-1,1924,624,0,0
707,400,0,0,0,0,0,0,0,0,0,-1,1931,624,0,0
714,400,0,0,0,0,0,0,0,0,0,-1,1938,624,0,0
721,400,0,0,0,0,0,0,0,0,0,-1,1945,624,0,0
728,400,0,0,0,0,0,0,0,0,0,-1,1952,624,0,0
735,400,0,0,0,0,0,0,0,0,0,-1,1959,624,0,0
742,400,0,0,0,0,0,0,0,0,0,-1,1966,624,0,0
749,400,0,0,0,0,0,0,0,0,0,-1,1973,624,0,0
756,400,0,0,0,0,0,0,0,0,0,-1,1980,624,0,0
763,400,0,0,0,0,0,0,0,0,0,-1,1987,624,0,0
770,400,0,0,0,0,0,0,0,0,0,-1,1994,624,0,0
777,400,0,0,0,0,0,0,0,0,0,-1,2001,624,0,0
784,400,0,0,0,0,0,0,0,0,0,-1,2008,624,0,0
791,400,0,0,0,0,0,0,0,0,0,-1,2015,624,0,0
798,400,0,0,0,0,0,0,0,0,0,-1,2022,624,0,0
805,400,0,0,0,0,0,0,0,0,0,-1,2029,624,0,0
812,400,0,0,0,0,0,0,0,0,0,-1,2036,624,0,0
-700,393,0,0,0,0,0,0,0,0,0,-1,524,631,0,0
-693,393,0,0,0,0,0,0,0,0,0,-1,531,631,0,0
-686,393,0,0,0,0,0,0,0,0,0,-1,538,631,0,0
-679,393,0,0,0,0,0,0,0,0,0,-1,545,631,0,0
-672,393,0,0,0,0,0,0,0,0,0,-1,552,631,0,0
-665,393,0,0,0,0,0,0,0,0,0,-1,559,631,0,0
-658,393,0,0,0,0,0,0,0,0,0,-1,566,631,0,0
-651,393,0,0,0,0,0,0,0,0,0,-1,573,631,0,0
-644,393,0,0,0,0,0,0,0,0,0,-1,580,631,0,0
-637,393,0,0,0,0,0,0,0,0,0,-1,587,631,0,0
-630,393,0,0,0,0,0,0,0,0,0,-1,594,631,0,0
-623,393,0,0,0,0,0,0,0,0,0,-1,601,631,0,0
-616,393,0,0,0,0,0,0,0,0,0,-1,608,631,0,0
-609,393,0,0,0,0,0,0,0,0,0,-1,615,631,0,0
-602,393,0,0,0,0,0,0,0,0,0,-1,622,631,0,0
-595,393,0,0,0,0,0,0,0,0,0,-1,629,631,0,0
-588,393,0,0,0,0,0,0,0,0,0,-1,636,631,0,0
-581,393,0,0,0,0,0,0,0,0,0,-1,643,631,0,0
-574,393,0,0,0,0,0,0,0,0,0,-1,650,631,0,0
-567,393,0,0,0,0,0,0,0,0,0,-1,657,631,0,0
-560,393,0,0,0,0,0,0,0,0,0,-1,664,631,0,0
-553,393,-2.35107,3.92633,0,0,0,0,0,0,0,-1,671,631,-2.35108,-3.92634
-546,393,-1.78778,2.4856,0,0,0,0,0,0,0,-1,678,631,-1.78778,-2.48557
-539,393,-5.2113,-2.20245,0,0,0,0,0,0,0,-1,685,631,-5.21128,2.20247
-532,393,-2.83643,-2.01624,0,0,0,0,0,0,0,-1,692,631,-2.83642,2.01626
-525,393,-5.9505,-0.952698,0,0,0,0,0,0,0,-1,699,631,-5.95053,0.95268
-518,393,-5.80219,-1.57739,0,0,0,0,0,0,0,-1,706,631,-5.80219,1.57738
-511,393,-6.15527,-2.09906,0,0,0,0,0,0,0,-1,713,631,-6.15526,2.09903
-504,393,-12.7737,-5.95251,0,0,0,0,0,0,0,-1,720,631,-12.7737,5.95249
-497,393,-12.3502,-6.995,0.000900436,0.00686775,-0.00263832,0.00786692,-9.87344e-05,-1.20877,0.00527784,0.046441,727,631,-12.3502,6.99502
-490,393,-12.2835,-8.02722,0.000687623,0.00525998,-0.00197863,0.0059973,-4.97026e-05,-1.21409,0.00401487,0.021803,734,631,-12.2835,8.02724
-483,393,-12.2935,-8.73529,0.000550359,0.00389351,-0.00148311,0.00445661,-1.2741e-05,-1.20793,0.00297533,0.0206771,741,631,-12.2934,8.73529
-476,393,-12.3055,-9.36841,0.00063421,0.00283549,-0.00119381,0.00335861,0.000111091,-1.1578,0.00220298,0.0174802,748,631,-12.3055,9.3684
-469,393,-12.3441,-10.023,0.000812313,0.00195178,-0.000989911,0.0025242,0.000239889,-1.04652,0.00160881,0.0132726,755,631,-12.3441,10.023
-462,393,-12.3841,-10.7262,0.00102389,0.00120715,-0.000827819,0.0019484,0.000282644,-0.84052,0.00121572,0.0152171,762,631,-12.3841,10.7262
-455,393,-12.4169,-11.3866,0.00127705,0.000422922,-0.000685319,0.00165748,4.24918e-05,-0.506761,0.0010911,0.0149998,769,631,-12.4169,11.3866
-448,393,-12.4447,-12.0316,0.00164322,-0.000199566,-0.000569994,0.00180527,-0.00036162,-0.277,0.00134042,0.0145435,776,631,-12.4447,12.0316
-441,393,-12.461,-12.6598,0.00198228,-0.000865198,-0.000402424,0.00203806,-0.000920979,-0.137734,0.00174851,0.0134347,783,631,-12.461,12.6598
-434,393,-12.5018,-13.2631,0.00227912,-0.00153775,-0.00019602,0.00228916,-0.00154779,-0.0511768,0.00222901,0.0124229,790,631,-12.5019,13.2631
-427,393,-12.482,-13.9348,0.0024221,-0.00248993,0.000199889,0.00243022,-0.00249805,0.0406044,0.00284542,0.0209078,797,631,-12.482,13.9348
-420,393,-12.4976,-14.5438,0.00221539,-0.00383457,0.00100371,0.00237756,-0.00399674,0.160188,0.00371957,0.0477534,804,631,-12.4976,14.5438
-413,393,-12.7592,-15.1655,0,0,0,0,0,0,0,-1,811,631,-12.7592,15.1655
-406,393,-11.826,-12.7987,0,0,0,0,0,0,0,-1,818,631,-11.8261,12.7987
-399,393,-5.07343,-5.92365,0,0,0,0,0,0,0,-1,825,631,-5.07344,5.92364
-392,393,-2.08063,-3.02386,0,0,0,0,0,0,0,-1,832,631,-2.08063,3.02384
-385,393,-3.16931,-0.624756,0,0,0,0,0,0,0,-1,839,631,-3.16928,0.624764
-378,393,-7.33081,-0.872314,0,0,0,0,0,0,0,-1,846,631,-7.33081,0.872325
-371,393,-7.47858,-0.811096,0,0,0,0,0,0,0,-1,853,631,-7.47859,0.811075
-364,393,-7.64917,-0.662415,0,0,0,0,0,0,0,-1,860,631,-7.64917,0.662406
-357,393,-8.09686,-0.726013,0,0,0,0,0,0,0,-1,867,631,-8.09689,0.726029
-350,393,-8.38788,-0.511841,0,0,0,0,0,0,0,-1,874,631,-8.38785,0.511811
-343,393,0,0,0,0,0,0,0,0,0,-1,881,631,0,0
-336,393,0,0,0,0,0,0,0,0,0,-1,888,631,0,0
-329,393,0,0,0,0,0,0,0,0,0,-1,895,631,0,0
-322,393,0,0,0,0,0,0,0,0,0,-1,902,631,0,0
-315,393,0,0,0,0,0,0,0,0,0,-1,909,631,0,0
-308,393,0,0,0,0,0,0,0,0,0,-1,916,631,0,0
-301,393,0,0,0,0,0,0,0,0,0,-1,923,631,0,0
-294,393,0,0,0,0,0,0,0,0,0,-1,930,631,0,0
-287,393,0,0,0,0,0,0,0,0,0,-1,937,631,0,0
-280,393,0,0,0,0,0,0,0,0,0,-1,944,631,0,0
-273,393,0,0,0,0,0,0,0,0,0,-1,951,631,0,0
-266,393,0,0,0,0,0,0,0,0,0,-1,958,631,0,0
-259,393,0,0,0,0,0,0,0,0,0,-1,965,631,0,0
-252,393,0,0,0,0,0,0,0,0,0,-1,972,631,0,0
-245,393,0,0,0,0,0,0,0,0,0,-1,979,631,0,0
-238,393,0,0,0,0,0,0,0,0,0,-1,986,631,0,0
-231,393,0,0,0,0,0,0,0,0,0,-1,993,631,0,0
-224,393,0,0,0,0,0,0,0,0,0,-1,1000,631,0,0
-217,393,0,0,0,0,0,0,0,0,0,-1,1007,631,0,0
-210,393,0,0,0,0,0,0,0,0,0,-1,1014,631,0,0
-203,393,0,0,0,0,0,0,0,0,0,-1,1021,631,0,0
-196,393,0,0,0,0,0,0,0,0,0,-1,1028,631,0,0
-189,393,0,0,0,0,0,0,0,0,0,-1,1035,631,0,0
-182,393,0,0,0,0,0,0,0,0,0,-1,1042,631,0,0
-175,393,0,0,0,0,0,0,0,0,0,-1,1049,631,0,0
-168,393,0,0,0,0,0,0,0,0,0,-1,1056,631,0,0
-161,393,0,0,0,0,0,0,0,0,0,-1,1063,631,0,0
-154,393,0,0,0,0,0,0,0,0,0,-1,1070,631,0,0
-147,393,0,0,0,0,0,0,0,0,0,-1,1077,631,0,0
-140,393,0,0,0,0,0,0,0,0,0,-1,1084,631,0,0
-133,393,0,0,0,0,0,0,0,0,0,-1,1091,631,0,0
-126,393,0,0,0,0,0,0,0,0,0,-1,1098,631,0,0
-119,393,0,0,0,0,0,0,0,0,0,-1,1105,631,0,0
-112,393,0,0,0,0,0,0,0,0,0,-1,1112,631,0,0
-105,393,0,0,0,0,0,0,0,0,0,-1,1119,631,0,0
-98,393,0,0,0,0,0,0,0,0,0,-1,1126,631,0,0
-91,393,0,0,0,0,0,0,0,0,0,-1,1133,631,0,0
-84,393,0,0,0,0,0,0,0,0,0,-1,1140,631,0,0
-77,393,0,0,0,0,0,0,0,0,0,-1,1147,631,0,0
-70,393,0,0,0,0,0,0,0,0,0,-1,1154,631,0,0
-63,393,0,0,0,0,0,0,0,0,0,-1,1161,631,0,0
-56,393,0,0,0,0,0,0,0,0,0,-1,1168,631,0,0
-49,393,0,0,0,0,0,0,0,0,0,-1,1175,631,0,0
-42,393,0,0,0,0,0,0,0,0,0,-1,1182,631,0,0
-35,393,0,0,0,0,0,0,0,0,0,-1,1189,631,0,0
-28,393,0,0,0,0,0,0,0,0,0,-1,1196,631,0,0
-21,393,0,0,0,0,0,0,0,0,0,-1,1203,631,0,0
-14,393,0,0,0,0,0,0,0,0,0,-1,1210,631,0,0
-7,393,0,0,0,0,0,0,0,0,0,-1,1217,631,0,0
0,393,0,0,0,0,0,0,0,0,0,-1,1224,631,0,0
7,393,0,0,0,0,0,0,0,0,0,-1,1231,631,0,0
14,393,0,0,0,0,0,0,0,0,0,-1,1238,631,0,0
21,393,0,0,0,0,0,0,0,0,0,-1,1245,631,0,0
28,393,0,0,0,0,0,0,0,0,0,-1,1252,631,0,0
35,393,0,0,0,0,0,0,0,0,0,-1,1259,631,0,0
42,393,0,0,0,0,0,0,0,0,0,-1,1266,631,0,0
49,393,0,0,0,0,0,0,0,0,0,-1,1273,631,0,0
56,393,0,0,0,0,0,0,0,0,0,-1,1280,631,0,0
63,393,0,0,0,0,0,0,0,0,0,-1,1287,631,0,0
70,393,0,0,0,0,0,0,0,0,0,-1,1294,631,0,0
77,393,0,0,0,0,0,0,0,0,0,-1,1301,631,0,0
84,393,0,0,0,0,0,0,0,0,0,-1,1308,631,0,0
91,393,0,0,0,0,0,0,0,0,0,-1,1315,631,0,0
98,393,0,0,0,0,0,0,0,0,0,-1,1322,631,0,0
105,393,0,0,0,0,0,0,0,0,0,-1,1329,631,0,0
112,393,0,0,0,0,0,0,0,0,0,-1,1336,631,0,0
119,393,0,0,0,0,0,0,0,0,0,-1,1343,631,0,0
126,393,0,0,0,0,0,0,0,0,0,-1,1350,631,0,0
133,393,0,0,0,0,0,0,0,0,0,-1,1357,631,0,0
140,393,0,0,0,0,0,0,0,0,0,-1,1364,631,0,0
147,393,0,0,0,0,0,0,0,0,0,-1,1371,631,0,0
154,393,0,0,0,0,0,0,0,0,0,-1,1378,631,0,0
161,393,0,0,0,0,0,0,0,0,0,-1,1385,631,0,0
168,393,0,0,0,0,0,0,0,0,0,-1,1392,631,0,0
175,393,0,0,0,0,0,0,0,0,0,-1,1399,631,0,0
182,393,0,0,0,0,0,0,0,0,0,-1,1406,631,0,0
189,393,0,0,0,0,0,0,0,0,0,-1,1413,631,0,0
196,393,0,0,0,0,0,0,0,0,0,-1,1420,631,0,0
203,393,0,0,0,0,0,0,0,0,0,-1,1427,631,0,0
210,393,0,0,0,0,0,0,0,0,0,-1,1434,631,0,0
217,393,0,0,0,0,0,0,0,0,0,-1,1441,631,0,0
224,393,0,0,0,0,0,0,0,0,0,-1,1448,631,0,0
231,393,0,0,0,0,0,0,0,0,0,-1,1455,631,0,0
238,393,0,0,0,0,0,0,0,0,0,-1,1462,631,0,0
245,393,0,0,0,0,0,0,0,0,0,-1,1469,631,0,0
252,393,0,0,0,0,0,0,0,0,0,-1,1476,631,0,0
259,393,0,0,0,0,0,0,0,0,0,-1,1483,631,0,0
266,393,0,0,0,0,0,0,0,0,0,-1,1490,631,0,0
273,393,0,0,0,0,0,0,0,0,0,-1,1497,631,0,0
280,393,0,0,0,0,0,0,0,0,0,-1,1504,631,0,0
287,393,0,0,0,0,0,0,0,0,0,-1,1511,631,0,0
294,393,0,0,0,0,0,0,0,0,0,-1,1518,631,0,0
301,393,0,0,0,0,0,0,0,0,0,-1,1525,631,0,0
308,393,0,0,0,0,0,0,0,0,0,-1,1532,631,0,0
315,393,0,0,0,0,0,0,0,0,0,-1,1539,631,0,0
322,393,0,0,0,0,0,0,0,0,0,-1,1546,631,0,0
329,393,0,0,0,0,0,0,0,0,0,-1,1553,631,0,0
336,393,0,0,0,0,0,0,0,0,0,-1,1560,631,0,0
343,393,0,0,0,0,0,0,0,0,0,-1,1567,631,0,0
350,393,0,0,0,0,0,0,0,0,0,-1,1574,631,0,0
357,393,0,0,0,0,0,0,0,0,0,-1,1581,631,0,0
364,393,0,0,0,0,0,0,0,0,0,-1,1588,631,0,0
371,393,0,0,0,0,0,0,0,0,0,-1,1595,631,0,0
378,393,0,0,0,0,0,0,0,0,0,-1,1602,631,0,0
385,393,0,0,0,0,0,0,0,0,0,-1,1609,631,0,0
392,393,0,0,0,0,0,0,0,0,0,-1,1616,631,0,0
399,393,0,0,0,0,0,0,0,0,0,-1,1623,631,0,0
406,393,0,0,0,0,0,0,0,0,0,-1,1630,631,0,0
413,393,0,0,0,0,0,0,0,0,0,-1,1637,631,0,0
420,393,0,0,0,0,0,0,0,0,0,-1,1644,631,0,0
427,393,0,0,0,0,0,0,0,0,0,-1,1651,631,0,0
434,393,0,0,0,0,0,0,0,0,0,-1,1658,631,0,0
441,393,0,0,0,0,0,0,0,0,0,-1,1665,631,0,0
448,393,0,0,0,0,0,0,0,0,0,-1,1672,631,0,0
455,393,0,0,0,0,0,0,0,0,0,-1,1679,631,0,0
462,393,8.51099,1.89502,0,0,0,0,0,0,0,-1,1686,631,8.51103,-1.89504
469,393,9.39465,1.51703,0,0,0,0,0,0,0,-1,1693,631,9.39465,-1.51703
476,393,9.95569,1.185,0,0,0,0,0,0,0,-1,1700,631,9.95575,-1.18497
483,393,10.5267,0.887329,0,0,0,0,0,0,0,-1,1707,631,10.5267,-0.887321
490,393,10.9303,0.761414,0,0,0,0,0,0,0,-1,1714,631,10.9303,-0.761386
497,393,8.32153,1.88104,0,0,0,0,0,0,0,-1,1721,631,8.32148,-1.88103
504,393,9.46985,1.78711,0,0,0,0,0,0,0,-1,1728,631,9.46986,-1.78713
511,393,9.66565,-0.375977,0,0,0,0,0,0,0,-1,1735,631,9.66571,0.375949
518,393,7.01599,1.62482,0,0,0,0,0,0,0,-1,1742,631,7.01597,-1.62483
525,393,7.88245,-1.13422,0,0,0,0,0,0,0,-1,1749,631,7.88246,1.13423
532,393,7.06335,-1.18103,0,0,0,0,0,0,0,-1,1756,631,7.06332,1.18101
539,393,9.91626,-2.46301,0,0,0,0,0,0,0,-1,1763,631,9.91625,2.46302
546,393,16.4094,-8.04651,0,0,0,0,0,0,0,-1,1770,631,16.4094,8.04649
553,393,24.0669,-12.6965,0,0,0,0,0,0,0,-1,1777,631,24.0669,12.6965
560,393,24.2551,-11.9503,0.00402995,0.00173025,0.0013806,0.00467682,0.00108338,0.438168,0.00282682,0.0429567,1784,631,24.2552,11.9503
567,393,24.2332,-11.2382,0.00300757,0.00129595,0.000946922,0.00342811,0.000875411,0.417949,0.00205667,0.0153195,1791,631,24.2332,11.2382
574,393,24.2123,-10.5793,0.00229998,0.00117517,0.00081422,0.00272715,0.000748004,0.483161,0.00162712,0.0150962,1798,631,24.2123,10.5793
581,393,24.1678,-9.90961,0.00180607,0.0012557,0.000851087,0.00242535,0.000636415,0.629036,0.00145202,0.0161439,1805,631,24.1678,9.90963
588,393,24.1379,-9.18762,0.00149831,0.0014858,0.00100598,0.00249806,0.000486055,0.782288,0.00152932,0.0181527,1812,631,24.1379,9.18763
595,393,24.1285,-8.50592,0.00149775,0.00187162,0.00134394,0.00304156,0.000327809,0.854502,0.00192775,0.0157645,1819,631,24.1285,8.5059
602,393,24.1122,-7.84015,0.00179131,0.0024236,0.00186747,0.0040015,0.000213414,0.869248,0.00259945,0.0176384,1826,631,24.1121,7.84017
609,393,24.0631,-7.18109,0.00226641,0.0031482,0.00250627,0.00525206,0.000162543,0.872466,0.00344847,0.0168251,1833,631,24.0631,7.18108
616,393,24.0042,-6.49237,0.00300681,0.00412918,0.00331837,0.00693348,0.0002025,0.869163,0.00455632,0.0164623,1840,631,24.0041,6.49238
623,393,24.0143,-5.66357,0.00414374,0.00534602,0.00441483,0.00920045,0.000289312,0.853064,0.0060395,0.0330216,1847,631,24.0143,5.66355
630,393,24.3191,-4.93024,0,0,0,0,0,0,0,-1,1854,631,24.3191,4.93026
637,393,11.4626,0.608887,0,0,0,0,0,0,0,-1,1861,631,11.4627,-0.608904
644,393,8.97583,1.30585,0,0,0,0,0,0,0,-1,1868,631,8.97586,-1.30584
651,393,11.348,0.53302,0,0,0,0,0,0,0,-1,1875,631,11.348,-0.53305
658,393,9.21338,1.50836,0,0,0,0,0,0,0,-1,1882,631,9.21338,-1.50834
665,393,6.1001,2.32129,0,0,0,0,0,0,0,-1,1889,631,6.10012,-2.3213
672,393,7.14575,2.43225,0,0,0,0,0,0,0,-1,1896,631,7.14572,-2.43222
679,393,0,0,0,0,0,0,0,0,0,-1,1903,631,0,0
686,393,0,0,0,0,0,0,0,0,0,-1,1910,631,0,0
693,393,0,0,0,0,0,0,0,0,0,-1,1917,631,0,0
700,393,0,0,0,0,0,0,0,0,0,-1,1924,631,0,0
707,393,0,0,0,0,0,0,0,0,0,-1,1931,631,0,0
714,393,0,0,0,0,0,0,0,0,0,-1,1938,631,0,0
721,393,0,0,0,0,0,0,0,0,0,-1,1945,631,0,0
728,393,0,0,0,0,0,0,0,0,0,-1,1952,631,0,0
735,393,0,0,0,0,0,0,0,0,0,-1,1959,631,0,0
742,393,0,0,0,0,0,0,0,0,0,-1,1966,631,0,0
749,393,0,0,0,0,0,0,0,0,0,-1,1973,631,0,0
756,393,0,0,0,0,0,0,0,0,0,-1,1980,631,0,0
763,393,0,0,0,0,0,0,0,0,0,-1,1987,631,0,0
770,393,0,0,0,0,0,0,0,0,0,-1,1994,631,0,0
777,393,0,0,0,0,0,0,0,0,0,-1,2001,631,0,0
784,393,0,0,0,0,0,0,0,0,0,-1,2008,631,0,0
791,393,0,0,0,0,0,0,0,0,0,-1,2015,631,0,0
798,393,0,0,0,0,0,0,0,0,0,-1,2022,631,0,0
805,393,0,0,0,0,0,0,0,0,0,-1,2029,631,0,0
812,393,0,0,0,0,0,0,0,0,0,-1,2036,631,0,0
-700,386,0,0,0,0,0,0,0,0,0,-1,524,638,0,0
-693,386,0,0,0,0,0,0,0,0,0,-1,531,638,0,0
-686,386,0,0,0,0,0,0,0,0,0,-1,538,638,0,0
-679,386,0,0,0,0,0,0,0,0,0,-1,545,638,0,0
-672,386,0,0,0,0,0,0,0,0,0,-1,552,638,0,0
-665,386,0,0,0,0,0,0,0,0,0,-1,559,638,0,0
-658,386,0,0,0,0,0,0,0,0,0,-1,566,638,0,0
-651,386,0,0,0,0,0,0,0,0,0,-1,573,638,0,0
-644,386,0,0,0,0,0,0,0,0,0,-1,580,638,0,0
-637,386,0,0,0,0,0,0,0,0,0,-1,587,638,0,0
-630,386,0,0,0,0,0,0,0,0,0,-1,594,638,0,0
-623,386,0,0,0,0,0,0,0,0,0,-1,601,638,0,0
-616,386,0,0,0,0,0,0,0,0,0,-1,608,638,0,0
-609,386,0,0,0,0,0,0,0,0,0,-1,615,638,0,0
-602,386,0,0,0,0,0,0,0,0,0,-1,622,638,0,0
-595,386,0,0,0,0,0,0,0,0,0,-1,629,638,0,0
-588,386,0,0,0,0,0,0,0,0,0,-1,636,638,0,0
-581,386,0,0,0,0,0,0,0,0,0,-1,643,638,0,0
-574,386,0,0,0,0,0,0,0,0,0,-1,650,638,0,0
-567,386,0,0,0,0,0,0,0,0,0,-1,657,638,0,0
-560,386,-3.97229,-5.13898,0,0,0,0,0,0,0,-1,664,638,-3.97232,5.13897
-553,386,-4.94244,-5.54309,0,0,0,0,0,0,0,-1,671,638,-4.94242,5.5431
-546,386,-1.78668,1.72827,0,0,0,0,0,0,0,-1,678,638,-1.78668,-1.72829
-539,386,-0.879456,-2.90009,0,0,0,0,0,0,0,-1,685,638,-0.879442,2.90008
-532,386,-5.4884,1.73328,0,0,0,0,0,0,0,-1,692,638,-5.4884,-1.73325
-525,386,-6.64148,-1.50604,0,0,0,0,0,0,0,-1,699,638,-6.64149,1.50603
-518,386,-11.1217,-4.10382,0,0,0,0,0,0,0,-1,706,638,-11.1217,4.1038
-511,386,-12.2236,-4.81763,0,0,0,0,0,0,0,-1,713,638,-12.2236,4.81763
-504,386,-12.9449,-6.56897,0,0,0,0,0,0,0,-1,720,638,-12.9449,6.56897
-497,386,-12.9672,-7.33118,0.00105308,0.00548935,-0.00233097,0.00648891,5.35268e-05,-1.1657,0.00430821,0.0219684,727,638,-12.9672,7.33116
-490,386,-12.9131,-8.08075,0.000997587,0.00418595,-0.0017975,0.00499435,0.00018918,-1.14816,0.00326833,0.0129834,734,638,-12.9131,8.08074
-483,386,-12.9229,-8.75812,0.000963212,0.00304345,-0.00137912,0.0037307,0.00027596,-1.10849,0.00240044,0.0165849,741,638,-12.9229,8.75815
-476,386,-12.9515,-9.39294,0.00113659,0.00221614,-0.00119736,0.00298977,0.000362968,-0.99716,0.00188388,0.0157225,748,638,-12.9515,9.39293
-469,386,-12.9916,-10.0062,0.00134269,0.00148635,-0.00105337,0.00247033,0.000358704,-0.819439,0.0015413,0.0122629,755,638,-12.9916,10.0062
-462,386,-13.0223,-10.6961,0.00154519,0.000870338,-0.00094018,0.00220666,0.000208866,-0.61311,0.00140666,0.0117431,762,638,-13.0223,10.6961
-455,386,-13.0542,-11.357,0.00180514,0.000172556,-0.000845951,0.00216442,-0.000186722,-0.401619,0.00150904,0.0135415,769,638,-13.0542,11.357
-448,386,-13.0952,-11.9824,0.00218679,-0.000364407,-0.000782599,0.00240773,-0.000585342,-0.275149,0.00183171,0.0133602,776,638,-13.0952,11.9823
-441,386,-13.1395,-12.6165,0.002606,-0.000826392,-0.000743952,0.00276031,-0.000980702,-0.204519,0.00223986,0.0137948,783,638,-13.1395,12.6165
-434,386,-13.1085,-13.3043,0.00296615,-0.00142182,-0.000630151,0.00305486,-0.00151052,-0.139844,0.00268562,0.0338183,790,638,-13.1085,13.3043
-427,386,-13.0651,-13.9777,0,0,0,0,0,0,0,-1,797,638,-13.0651,13.9776
-420,386,-13.1655,-14.5245,0,0,0,0,0,0,0,-1,804,638,-13.1655,14.5245
-413,386,-5.45691,-5.35785,0,0,0,0,0,0,0,-1,811,638,-5.45691,5.35783
-406,386,-4.51135,-4.10999,0,0,0,0,0,0,0,-1,818,638,-4.51135,4.10996
-399,386,-3.57117,-3.42126,0,0,0,0,0,0,0,-1,825,638,-3.57116,3.42129
-392,386,-4.00977,0.403625,0,0,0,0,0,0,0,-1,832,638,-4.0098,-0.403616
-385,386,-3.2406,-0.118469,0,0,0,0,0,0,0,-1,839,638,-3.24058,0.118485
-378,386,-2.55243,-1.22748,0,0,0,0,0,0,0,-1,846,638,-2.55243,1.22748
-371,386,-7.95807,-0.330261,0,0,0,0,0,0,0,-1,853,638,-7.95806,0.330284
-364,386,-8.90637,-0.665955,0,0,0,0,0,0,0,-1,860,638,-8.90635,0.665951
-357,386,-9.10364,-0.388733,0,0,0,0,0,0,0,-1,867,638,-9.10364,0.388744
-350,386,0,0,0,0,0,0,0,0,0,-1,874,638,0,0
-343,386,0,0,0,0,0,0,0,0,0,-1,881,638,0,0
-336,386,0,0,0,0,0,0,0,0,0,-1,888,638,0,0
-329,386,0,0,0,0,0,0,0,0,0,-1,895,638,0,0
-322,386,0,0,0,0,0,0,0,0,0,-1,902,638,0,0
-315,386,0,0,0,0,0,0,0,0,0,-1,909,638,0,0
-308,386,0,0,0,0,0,0,0,0,0,-1,916,638,0,0
-301,386,0,0,0,0,0,0,0,0,0,-1,923,638,0,0
-294,386,0,0,0,0,0,0,0,0,0,-1,930,638,0,0
-287,386,0,0,0,0,0,0,0,0,0,-1,937,638,0,0
-280,386,0,0,0,0,0,0,0,0,0,-1,944,638,0,0
-273,386,0,0,0,0,0,0,0,0,0,-1,951,638,0,0
-266,386,0,0,0,0,0,0,0,0,0,-1,958,638,0,0
-259,386,0,0,0,0,0,0,0,0,0,-1,965,638,0,0
-252,386,0,0,0,0,0,0,0,0,0,-1,972,638,0,0
-245,386,0,0,0,0,0,0,0,0,0,-1,979,638,0,0
-238,386,0,0,0,0,0,0,0,0,0,-1,986,638,0,0
-231,386,0,0,0,0,0,0,0,0,0,-1,993,638,0,0
-224,386,0,0,0,0,0,0,0,0,0,-1,1000,638,0,0
-217,386,0,0,0,0,0,0,0,0,0,-1,1007,638,0,0
-210,386,0,0,0,0,0,0,0,0,0,-1,1014,638,0,0
-203,386,0,0,0,0,0,0,0,0,0,-1,1021,638,0,0
-196,386,0,0,0,0,0,0,0,0,0,-1,1028,638,0,0
-189,386,0,0,0,0,0,0,0,0,0,-1,1035,638,0,0
-182,386,0,0,0,0,0,0,0,0,0,-1,1042,638,0,0
-175,386,0,0,0,0,0,0,0,0,0,-1,1049,638,0,0
-168,386,0,0,0,0,0,0,0,0,0,-1,1056,638,0,0
-161,386,0,0,0,0,0,0,0,0,0,-1,1063,638,0,0
-154,386,0,0,0,0,0,0,0,0,0,-1,1070,638,0,0
-147,386,0,0,0,0,0,0,0,0,0,-1,1077,638,0,0
-140,386,0,0,0,0,0,0,0,0,0,-1,1084,638,0,0
-133,386,0,0,0,0,0,0,0,0,0,-1,1091,638,0,0
-126,386,0,0,0,0,0,0,0,0,0,-1,1098,638,0,0
-119,386,0,0,0,0,0,0,0,0,0,-1,1105,638,0,0
-112,386,0,0,0,0,0,0,0,0,0,-1,1112,638,0,0
-105,386,0,0,0,0,0,0,0,0,0,-1,1119,638,0,0
-98,386,0,0,0,0,0,0,0,0,0,-1,1126,638,0,0
-91,386,0,0,0,0,0,0,0,0,0,-1,1133,638,0,0
-84,386,0,0,0,0,0,0,0,0,0,-1,1140,638,0,0
-77,386,0,0,0,0,0,0,0,0,0,-1,1147,638,0,0
-70,386,0,0,0,0,0,0,0,0,0,-1,1154,638,0,0
-63,386,0,0,0,0,0,0,0,0,0,-1,1161,638,0,0
-56,386,0,0,0,0,0,0,0,0,0,-1,1168,638,0,0
-49,386,0,0,0,0,0,0,0,0,0,-1,1175,638,0,0
-42,386,0,0,0,0,0,0,0,0,0,-1,1182,638,0,0
-35,386,0,0,0,0,0,0,0,0,0,-1,1189,638,0,0
-28,386,0,0,0,0,0,0,0,0,0,-1,1196,638,0,0
-21,386,0,0,0,0,0,0,0,0,0,-1,1203,638,0,0
-14,386,0,0,0,0,0,0,0,0,0,-1,1210,638,0,0
-7,386,0,0,0,0,0,0,0,0,0,-1,1217,638,0,0
0,386,0,0,0,0,0,0,0,0,0,-1,1224,638,0,0
7,386,0,0,0,0,0,0,0,0,0,-1,1231,638,0,0
14,386,0,0,0,0,0,0,0,0,0,-1,1238,638,0,0
21,386,0,0,0,0,0,0,0,0,0,-1,1245,638,0,0
28,386,0,0,0,0,0,0,0,0,0,-1,1252,638,0,0
35,386,0,0,0,0,0,0,0,0,0,-1,1259,638,0,0
42,386,0,0,0,0,0,0,0,0,0,-1,1266,638,0,0
49,386,0,0,0,0,0,0,0,0,0,-1,1273,638,0,0
56,386,0,0,0,0,0,0,0,0,0,-1,1280,638,0,0
63,386,0,0,0,0,0,0,0,0,0,-1,1287,638,0,0
70,386,0,0,0,0,0,0,0,0,0,-1,1294,638,0,0
77,386,0,0,0,0,0,0,0,0,0,-1,1301,638,0,0
84,386,0,0,0,0,0,0,0,0,0,-1,1308,638,0,0
91,386,0,0,0,0,0,0,0,0,0,-1,1315,638,0,0
98,386,0,0,0,0,0,0,0,0,0,-1,1322,638,0,0
105,386,0,0,0,0,0,0,0,0,0,-1,1329,638,0,0
112,386,0,0,0,0,0,0,0,0,0,-1,1336,638,0,0
119,386,0,0,0,0,0,0,0,0,0,-1,1343,638,0,0
126,386,0,0,0,0,0,0,0,0,0,-1,1350,638,0,0
133,386,0,0,0,0,0,0,0,0,0,-1,1357,638,0,0
140,386,0,0,0,0,0,0,0,0,0,-1,1364,638,0,0
147,386,0,0,0,0,0,0,0,0,0,-1,1371,638,0,0
154,386,0,0,0,0,0,0,0,0,0,-1,1378,638,0,0
161,386,0,0,0,0,0,0,0,0,0,-1,1385,638,0,0
168,386,0,0,0,0,0,0,0,0,0,-1,1392,638,0,0
175,386,0,0,0,0,0,0,0,0,0,-1,1399,638,0,0
182,386,0,0,0,0,0,0,0,0,0,-1,1406,638,0,0
189,386,0,0,0,0,0,0,0,0,0,-1,1413,638,0,0
196,386,0,0,0,0,0,0,0,0,0,-1,1420,638,0,0
203,386,0,0,0,0,0,0,0,0,0,-1,1427,638,0,0
210,386,0,0,0,0,0,0,0,0,0,-1,1434,638,0,0
217,386,0,0,0,0,0,0,0,0,0,-1,1441,638,0,0
224,386,0,0,0,0,0,0,0,0,0,-1,1448,638,0,0
231,386,0,0,0,0,0,0,0,0,0,-1,1455,638,0,0
238,386,0,0,0,0,0,0,0,0,0,-1,1462,638,0,0
245,386,0,0,0,0,0,0,0,0,0,-1,1469,638,0,0
252,386,0,0,0,0,0,0,0,0,0,-1,1476,638,0,0
259,386,0,0,0,0,0,0,0,0,0,-1,1483,638,0,0
266,386,0,0,0,0,0,0,0,0,0,-1,1490,638,0,0
273,386,0,0,0,0,0,0,0,0,0,-1,1497,638,0,0
280,386,0,0,0,0,0,0,0,0,0,-1,1504,638,0,0
287,386,0,0,0,0,0,0,0,0,0,-1,1511,638,0,0
294,386,0,0,0,0,0,0,0,0,0,-1,1518,638,0,0
301,386,0,0,0,0,0,0,0,0,0,-1,1525,638,0,0
308,386,0,0,0,0,0,0,0,0,0,-1,1532,638,0,0
315,386,0,0,0,0,0,0,0,0,0,-1,1539,638,0,0
322,386,0,0,0,0,0,0,0,0,0,-1,1546,638,0,0
329,386,0,0,0,0,0,0,0,0,0,-1,1553,638,0,0
336,386,0,0,0,0,0,0,0,0,0,-1,1560,638,0,0
343,386,0,0,0,0,0,0,0,0,0,-1,1567,638,0,0
350,386,0,0,0,0,0,0,0,0,0,-1,1574,638,0,0
357,386,0,0,0,0,0,0,0,0,0,-1,1581,638,0,0
364,386,0,0,0,0,0,0,0,0,0,-1,1588,638,0,0
371,386,0,0,0,0,0,0,0,0,0,-1,1595,638,0,0
378,386,0,0,0,0,0,0,0,0,0,-1,1602,638,0,0
385,386,0,0,0,0,0,0,0,0,0,-1,1609,638,0,0
392,386,0,0,0,0,0,0,0,0,0,-1,1616,638,0,0
399,386,0,0,0,0,0,0,0,0,0,-1,1623,638,0,0
406,386,0,0,0,0,0,0,0,0,0,-1,1630,638,0,0
413,386,0,0,0,0,0,0,0,0,0,-1,1637,638,0,0
420,386,0,0,0,0,0,0,0,0,0,-1,1644,638,0,0
427,386,0,0,0,0,0,0,0,0,0,-1,1651,638,0,0
434,386,0,0,0,0,0,0,0,0,0,-1,1658,638,0,0
441,386,0,0,0,0,0,0,0,0,0,-1,1665,638,0,0
448,386,0,0,0,0,0,0,0,0,0,-1,1672,638,0,0
455,386,0,0,0,0,0,0,0,0,0,-1,1679,638,0,0
462,386,0,0,0,0,0,0,0,0,0,-1,1686,638,0,0
469,386,9.84692,1.55804,0,0,0,0,0,0,0,-1,1693,638,9.84691,-1.55807
476,386,10.6145,0.986511,0,0,0,0,0,0,0,-1,1700,638,10.6145,-0.986529
483,386,11.4113,0.732971,0,0,0,0,0,0,0,-1,1707,638,11.4112,-0.732958
490,386,7.79785,1.79572,0,0,0,0,0,0,0,-1,1714,638,7.79788,-1.7957
497,386,8.96362,1.77081,0,0,0,0,0,0,0,-1,1721,638,8.96357,-1.77081
504,386,10.0555,1.69427,0,0,0,0,0,0,0,-1,1728,638,10.0555,-1.69426
511,386,11.2172,1.534,0,0,0,0,0,0,0,-1,1735,638,11.2172,-1.53398
518,386,7.41553,1.75238,0,0,0,0,0,0,0,-1,1742,638,7.41547,-1.75238
525,386,8.82422,-1.1449,0,0,0,0,0,0,0,-1,1749,638,8.82426,1.14492
532,386,10.6432,0.617371,0,0,0,0,0,0,0,-1,1756,638,10.6432,-0.617359
539,386,9.62061,-0.393616,0,0,0,0,0,0,0,-1,1763,638,9.62059,0.393634
546,386,10.7963,-2.854,0,0,0,0,0,0,0,-1,1770,638,10.7962,2.854
553,386,16.9939,-7.27942,0,0,0,0,0,0,0,-1,1777,638,16.9939,7.27944
560,386,24.8546,-12.0771,0,0,0,0,0,0,0,-1,1784,638,24.8547,12.0771
567,386,24.7997,-11.2543,0.00343284,0.00145775,0.00105229,0.00388841,0.00100219,0.408564,0.00233116,0.0429413,1791,638,24.7997,11.2543
574,386,24.8833,-10.5183,0.00252136,0.0011894,0.000794084,0.00289177,0.000818993,0.436456,0.00172108,0.0138579,1798,638,24.8833,10.5183
581,386,24.8348,-9.88855,0.00186174,0.00118232,0.000723934,0.00232171,0.000722351,0.566021,0.00137195,0.0147223,1805,638,24.8348,9.88858
588,386,24.8314,-9.20734,0.00146955,0.00130479,0.000797194,0.00218861,0.00058573,0.733911,0.00130829,0.0137444,1812,638,24.8314,9.20734
595,386,24.7931,-8.49609,0.00141812,0.00160235,0.00106205,0.00257627,0.000444199,0.828655,0.00159026,0.0155155,1819,638,24.793,8.49609
602,386,24.7639,-7.83356,0.00167551,0.00205622,0.00151387,0.00339165,0.000340075,0.847941,0.0021567,0.0167493,1826,638,24.7639,7.83358
609,386,24.7603,-7.18164,0.00209243,0.00265941,0.00205296,0.00444836,0.000303478,0.854008,0.00286977,0.015864,1833,638,24.7603,7.18161
616,386,24.7051,-6.47491,0.0027462,0.00348478,0.00272992,0.00587027,0.000360707,0.852628,0.00379899,0.0127985,1840,638,24.705,6.47493
623,386,24.6495,-5.76666,0.00372687,0.00450546,0.00363832,0.00777525,0.00045707,0.838695,0.00503806,0.0100979,1847,638,24.6495,5.76665
630,386,24.7819,-5.05811,0.00492958,0.00557888,0.00457267,0.00983841,0.000670054,0.820838,0.00634739,0.0384621,1854,638,24.7819,5.05808
637,386,24.9666,-4.30164,0,0,0,0,0,0,0,-1,1861,638,24.9666,4.30163
644,386,11.6521,0.723328,0,0,0,0,0,0,0,-1,1868,638,11.6521,-0.723355
651,386,9.3866,1.31097,0,0,0,0,0,0,0,-1,1875,638,9.3866,-1.31095
658,386,12.0731,-0.00415039,0,0,0,0,0,0,0,-1,1882,638,12.0731,0.00412803
665,386,6.33167,1.78601,0,0,0,0,0,0,0,-1,1889,638,6.33171,-1.78601
672,386,7.23352,2.14435,0,0,0,0,0,0,0,-1,1896,638,7.23353,-2.14433
679,386,8.07764,2.57104,0,0,0,0,0,0,0,-1,1903,638,8.07758,-2.57103
686,386,0,0,0,0,0,0,0,0,0,-1,1910,638,0,0
693,386,0,0,0,0,0,0,0,0,0,-1,1917,638,0,0
700,386,0,0,0,0,0,0,0,0,0,-1,1924,638,0,0
707,386,0,0,0,0,0,0,0,0,0,-1,1931,638,0,0
714,386,0,0,0,0,0,0,0,0,0,-1,1938,638,0,0
721,386,0,0,0,0,0,0,0,0,0,-1,1945,638,0,0
728,386,0,0,0,0,0,0,0,0,0,-1,1952,638,0,0
735,386,0,0,0,0,0,0,0,0,0,-1,1959,638,0,0
742,386,0,0,0,0,0,0,0,0,0,-1,1966,638,0,0
749,386,0,0,0,0,0,0,0,0,0,-1,1973,638,0,0
756,386,0,0,0,0,0,0,0,0,0,-1,1980,638,0,0
763,386,0,0,0,0,0,0,0,0,0,-1,1987,638,0,0
770,386,0,0,0,0,0,0,0,0,0,-1,1994,638,0,0
777,386,0,0,0,0,0,0,0,0,0,-1,2001,638,0,0
784,386,0,0,0,0,0,0,0,0,0,-1,2008,638,0,0
791,386,0,0,0,0,0,0,0,0,0,-1,2015,638,0,0
798,386,0,0,0,0,0,0,0,0,0,-1,2022,638,0,0
805,386,0,0,0,0,0,0,0,0,0,-1,2029,638,0,0
812,386,0,0,0,0,0,0,0,0,0,-1,2036,638,0,0
-700,379,0,0,0,0,0,0,0,0,0,-1,524,645,0,0
-693,379,0,0,0,0,0,0,0,0,0,-1,531,645,0,0
-686,379,0,0,0,0,0,0,0,0,0,-1,538,645,0,0
-679,379,0,0,0,0,0,0,0,0,0,-1,545,645,0,0
-672,379,0,0,0,0,0,0,0,0,0,-1,552,645,0,0
-665,379,0,0,0,0,0,0,0,0,0,-1,559,645,0,0
-658,379,0,0,0,0,0,0,0,0,0,-1,566,645,0,0
-651,379,0,0,0,0,0,0,0,0,0,-1,573,645,0,0
-644,379,0,0,0,0,0,0,0,0,0,-1,580,645,0,0
-637,379,0,0,0,0,0,0,0,0,0,-1,587,645,0,0
-630,379,0,0,0,0,0,0,0,0,0,-1,594,645,0,0
-623,379,0,0,0,0,0,0,0,0,0,-1,601,645,0,0
-616,379,0,0,0,0,0,0,0,0,0,-1,608,645,0,0
-609,379,0,0,0,0,0,0,0,0,0,-1,615,645,0,0
-602,379,0,0,0,0,0,0,0,0,0,-1,622,645,0,0
-595,379,0,0,0,0,0,0,0,0,0,-1,629,645,0,0
-588,379,0,0,0,0,0,0,0,0,0,-1,636,645,0,0
-581,379,0,0,0,0,0,0,0,0,0,-1,643,645,0,0
-574,379,0,0,0,0,0,0,0,0,0,-1,650,645,0,0
-567,379,-8.78058,0.59668,0,0,0,0,0,0,0,-1,657,645,-8.7806,-0.596692
-560,379,-9.53485,-0.211304,0,0,0,0,0,0,0,-1,664,645,-9.53487,0.211282
-553,379,-5.17108,-4.53119,0,0,0,0,0,0,0,-1,671,645,-5.17106,4.53117
-546,379,-6.23053,-4.92102,0,0,0,0,0,0,0,-1,678,645,-6.23054,4.92105
-539,379,-0.71698,-2.19427,0,0,0,0,0,0,0,-1,685,645,-0.716959,2.19427
-532,379,-7.69611,0.217224,0,0,0,0,0,0,0,-1,692,645,-7.69614,-0.217204
-525,379,-7.09833,-1.13043,0,0,0,0,0,0,0,-1,699,645,-7.0983,1.13041
-518,379,-10.5613,-3.82849,0,0,0,0,0,0,0,-1,706,645,-10.5613,3.82849
-511,379,-13.5012,-5.97076,0,0,0,0,0,0,0,-1,713,645,-13.5012,5.97078
-504,379,-13.4872,-6.73376,0.000720268,0.00568073,-0.00246252,0.00669557,-0.000294577,-1.17989,0.00456508,0.0310793,720,645,-13.4872,6.73374
-497,379,-13.5743,-7.37024,0.000922894,0.00429363,-0.0018741,0.00512872,8.78044e-05,-1.15161,0.00339025,0.0137372,727,645,-13.5743,7.37021
-490,379,-13.5852,-8.06073,0.00108668,0.0032337,-0.00149846,0.00400351,0.000316874,-1.09622,0.0025699,0.01053,734,645,-13.5852,8.06073
-483,379,-13.6024,-8.72968,0.00124285,0.00229371,-0.00120866,0.0030862,0.000450353,-0.990436,0.00192499,0.0119147,741,645,-13.6023,8.72965
-476,379,-13.6108,-9.33386,0.00152513,0.0016594,-0.00114219,0.00273643,0.0004481,-0.814751,0.00169478,0.0125932,748,645,-13.6108,9.33389
-469,379,-13.6403,-9.95245,0.00178441,0.00108053,-0.00108478,0.00257291,0.000292027,-0.628537,0.00162669,0.0124442,755,645,-13.6402,9.95243
-462,379,-13.6815,-10.62,0.00203462,0.00060027,-0.00105777,0.00259541,3.94731e-05,-0.487492,0.00171727,0.0100711,762,645,-13.6815,10.62
-455,379,-13.7168,-11.2891,0.00236272,8.17358e-06,-0.00105093,0.00276356,-0.00039266,-0.364378,0.00198624,0.00993994,769,645,-13.7168,11.2891
-448,379,-13.7286,-11.9276,0.00281857,-0.000432792,-0.00108419,0.00314694,-0.000761162,-0.294088,0.00239239,0.0116638,776,645,-13.7286,11.9276
-441,379,-13.7344,-12.6174,0.00340878,-0.000628184,-0.00125241,0.00376576,-0.000985157,-0.277667,0.00289531,0.0225635,783,645,-13.7344,12.6174
-434,379,-13.6198,-13.3775,0,0,0,0,0,0,0,-1,790,645,-13.6198,13.3775
-427,379,-4.16113,-4.13452,0,0,0,0,0,0,0,-1,797,645,-4.16116,4.1345
-420,379,-4.63953,-3.46869,0,0,0,0,0,0,0,-1,804,645,-4.63953,3.46872
-413,379,-4.62543,-3.7912,0,0,0,0,0,0,0,-1,811,645,-4.62541,3.79123
-406,379,-4.64063,-4.38489,0,0,0,0,0,0,0,-1,818,645,-4.64065,4.3849
-399,379,-2.93536,-1.40118,0,0,0,0,0,0,0,-1,825,645,-2.93534,1.40119
-392,379,-4.16711,-0.466003,0,0,0,0,0,0,0,-1,832,645,-4.16714,0.465992
-385,379,-3.51862,0.441101,0,0,0,0,0,0,0,-1,839,645,-3.51859,-0.441072
-378,379,-5.3504,0.212219,0,0,0,0,0,0,0,-1,846,645,-5.35038,-0.212241
-371,379,-4.32092,-0.186707,0,0,0,0,0,0,0,-1,853,645,-4.3209,0.186707
-364,379,-3.40887,-0.549805,0,0,0,0,0,0,0,-1,860,645,-3.4089,0.549802
-357,379,0,0,0,0,0,0,0,0,0,-1,867,645,0,0
-350,379,0,0,0,0,0,0,0,0,0,-1,874,645,0,0
-343,379,0,0,0,0,0,0,0,0,0,-1,881,645,0,0
-336,379,0,0,0,0,0,0,0,0,0,-1,888,645,0,0
-329,379,0,0,0,0,0,0,0,0,0,-1,895,645,0,0
-322,379,0,0,0,0,0,0,0,0,0,-1,902,645,0,0
-315,379,0,0,0,0,0,0,0,0,0,-1,909,645,0,0
-308,379,0,0,0,0,0,0,0,0,0,-1,916,645,0,0
-301,379,0,0,0,0,0,0,0,0,0,-1,923,645,0,0
-294,379,0,0,0,0,0,0,0,0,0,-1,930,645,0,0
-287,379,0,0,0,0,0,0,0,0,0,-1,937,645,0,0
-280,379,0,0,0,0,0,0,0,0,0,-1,944,645,0,0
-273,379,0,0,0,0,0,0,0,0,0,-1,951,645,0,0
-266,379,0,0,0,0,0,0,0,0,0,-1,958,645,0,0
-259,379,0,0,0,0,0,0,0,0,0,-1,965,645,0,0
-252,379,0,0,0,0,0,0,0,0,0,-1,972,645,0,0
-245,379,0,0,0,0,0,0,0,0,0,-1,979,645,0,0
-238,379,0,0,0,0,0,0,0,0,0,-1,986,645,0,0
-231,379,0,0,0,0,0,0,0,0,0,-1,993,645,0,0
-224,379,0,0,0,0,0,0,0,0,0,-1,1000,645,0,0
-217,379,0,0,0,0,0,0,0,0,0,-1,1007,645,0,0
-210,379,0,0,0,0,0,0,0,0,0,-1,1014,645,0,0
-203,379,0,0,0,0,0,0,0,0,0,-1,1021,645,0,0
-196,379,0,0,0,0,0,0,0,0,0,-1,1028,645,0,0
-189,379,0,0,0,0,0,0,0,0,0,-1,1035,645,0,0
-182,379,0,0,0,0,0,0,0,0,0,-1,1042,645,0,0
-175,379,0,0,0,0,0,0,0,0,0,-1,1049,645,0,0
-168,379,0,0,0,0,0,0,0,0,0,-1,1056,645,0,0
-161,379,0,0,0,0,0,0,0,0,0,-1,1063,645,0,0
-154,379,0,0,0,0,0,0,0,0,0,-1,1070,645,0,0
-147,379,0,0,0,0,0,0,0,0,0,-1,1077,645,0,0
-140,379,0,0,0,0,0,0,0,0,0,-1,1084,645,0,0
-133,379,0,0,0,0,0,0,0,0,0,-1,1091,645,0,0
-126,379,0,0,0,0,0,0,0,0,0,-1,1098,645,0,0
-119,379,0,0,0,0,0,0,0,0,0,-1,1105,645,0,0
-112,379,0,0,0,0,0,0,0,0,0,-1,1112,645,0,0
-105,379,0,0,0,0,0,0,0,0,0,-1,1119,645,0,0
-98,379,0,0,0,0,0,0,0,0,0,-1,1126,645,0,0
-91,379,0,0,0,0,0,0,0,0,0,-1,1133,645,0,0
-84,379,0,0,0,0,0,0,0,0,0,-1,1140,645,0,0
-77,379,0,0,0,0,0,0,0,0,0,-1,1147,645,0,0
-70,379,0,0,0,0,0,0,0,0,0,-1,1154,645,0,0
-63,379,0,0,0,0,0,0,0,0,0,-1,1161,645,0,0
-56,379,0,0,0,0,0,0,0,0,0,-1,1168,645,0,0
-49,379,0,0,0,0,0,0,0,0,0,-1,1175,645,0,0
-42,379,0,0,0,0,0,0,0,0,0,-1,1182,645,0,0
-35,379,0,0,0,0,0,0,0,0,0,-1,1189,645,0,0
-28,379,0,0,0,0,0,0,0,0,0,-1,1196,645,0,0
-21,379,0,0,0,0,0,0,0,0,0,-1,1203,645,0,0
-14,379,0,0,0,0,0,0,0,0,0,-1,1210,645,0,0
-7,379,0,0,0,0,0,0,0,0,0,-1,1217,645,0,0
0,379,0,0,0,0,0,0,0,0,0,-1,1224,645,0,0
7,379,0,0,0,0,0,0,0,0,0,-1,1231,645,0,0
14,379,0,0,0,0,0,0,0,0,0,-1,1238,645,0,0
21,379,0,0,0,0,0,0,0,0,0,-1,1245,645,0,0
28,379,0,0,0,0,0,0,0,0,0,-1,1252,645,0,0
35,379,0,0,0,0,0,0,0,0,0,-1,1259,645,0,0
42,379,0,0,0,0,0,0,0,0,0,-1,1266,645,0,0
49,379,0,0,0,0,0,0,0,0,0,-1,1273,645,0,0
56,379,0,0,0,0,0,0,0,0,0,-1,1280,645,0,0
63,379,0,0,0,0,0,0,0,0,0,-1,1287,645,0,0
70,379,0,0,0,0,0,0,0,0,0,-1,1294,645,0,0
77,379,0,0,0,0,0,0,0,0,0,-1,1301,645,0,0
84,379,0,0,0,0,0,0,0,0,0,-1,1308,645,0,0
91,379,0,0,0,0,0,0,0,0,0,-1,1315,645,0,0
98,379,0,0,0,0,0,0,0,0,0,-1,1322,645,0,0
105,379,0,0,0,0,0,0,0,0,0,-1,1329,645,0,0
112,379,0,0,0,0,0,0,0,0,0,-1,1336,645,0,0
119,379,0,0,0,0,0,0,0,0,0,-1,1343,645,0,0
126,379,0,0,0,0,0,0,0,0,0,-1,1350,645,0,0
133,379,0,0,0,0,0,0,0,0,0,-1,1357,645,0,0
140,379,0,0,0,0,0,0,0,0,0,-1,1364,645,0,0
147,379,0,0,0,0,0,0,0,0,0,-1,1371,645,0,0
154,379,0,0,0,0,0,0,0,0,0,-1,1378,645,0,0
161,379,0,0,0,0,0,0,0,0,0,-1,1385,645,0,0
168,379,0,0,0,0,0,0,0,0,0,-1,1392,645,0,0
175,379,0,0,0,0,0,0,0,0,0,-1,1399,645,0,0
182,379,0,0,0,0,0,0,0,0,0,-1,1406,645,0,0
189,379,0,0,0,0,0,0,0,0,0,-1,1413,645,0,0
196,379,0,0,0,0,0,0,0,0,0,-1,1420,645,0,0
203,379,0,0,0,0,0,0,0,0,0,-1,1427,645,0,0
210,379,0,0,0,0,0,0,0,0,0,-1,1434,645,0,0
217,379,0,0,0,0,0,0,0,0,0,-1,1441,645,0,0
224,379,0,0,0,0,0,0,0,0,0,-1,1448,645,0,0
231,379,0,0,0,0,0,0,0,0,0,-1,1455,645,0,0
238,379,0,0,0,0,0,0,0,0,0,-1,1462,645,0,0
245,379,0,0,0,0,0,0,0,0,0,-1,1469,645,0,0
252,379,0,0,0,0,0,0,0,0,0,-1,1476,645,0,0
259,379,0,0,0,0,0,0,0,0,0,-1,1483,645,0,0
266,379,0,0,0,0,0,0,0,0,0,-1,1490,645,0,0
273,379,0,0,0,0,0,0,0,0,0,-1,1497,645,0,0
280,379,0,0,0,0,0,0,0,0,0,-1,1504,645,0,0
287,379,0,0,0,0,0,0,0,0,0,-1,1511,645,0,0
294,379,0,0,0,0,0,0,0,0,0,-1,1518,645,0,0
301,379,0,0,0,0,0,0,0,0,0,-1,1525,645,0,0
308,379,0,0,0,0,0,0,0,0,0,-1,1532,645,0,0
315,379,0,0,0,0,0,0,0,0,0,-1,1539,645,0,0
322,379,0,0,0,0,0,0,0,0,0,-1,1546,645,0,0
329,379,0,0,0,0,0,0,0,0,0,-1,1553,645,0,0
336,379,0,0,0,0,0,0,0,0,0,-1,1560,645,0,0
343,379,0,0,0,0,0,0,0,0,0,-1,1567,645,0,0
350,379,0,0,0,0,0,0,0,0,0,-1,1574,645,0,0
357,379,0,0,0,0,0,0,0,0,0,-1,1581,645,0,0
364,379,0,0,0,0,0,0,0,0,0,-1,1588,645,0,0
371,379,0,0,0,0,0,0,0,0,0,-1,1595,645,0,0
378,379,0,0,0,0,0,0,0,0,0,-1,1602,645,0,0
385,379,0,0,0,0,0,0,0,0,0,-1,1609,645,0,0
392,379,0,0,0,0,0,0,0,0,0,-1,1616,645,0,0
399,379,0,0,0,0,0,0,0,0,0,-1,1623,645,0,0
406,379,0,0,0,0,0,0,0,0,0,-1,1630,645,0,0
413,379,0,0,0,0,0,0,0,0,0,-1,1637,645,0,0
420,379,0,0,0,0,0,0,0,0,0,-1,1644,645,0,0
427,379,0,0,0,0,0,0,0,0,0,-1,1651,645,0,0
434,379,0,0,0,0,0,0,0,0,0,-1,1658,645,0,0
441,379,0,0,0,0,0,0,0,0,0,-1,1665,645,0,0
448,379,0,0,0,0,0,0,0,0,0,-1,1672,645,0,0
455,379,0,0,0,0,0,0,0,0,0,-1,1679,645,0,0
462,379,0,0,0,0,0,0,0,0,0,-1,1686,645,0,0
469,379,0,0,0,0,0,0,0,0,0,-1,1693,645,0,0
476,379,11.1787,0.830383,0,0,0,0,0,0,0,-1,1700,645,11.1787,-0.830365
483,379,7.4231,1.54321,0,0,0,0,0,0,0,-1,1707,645,7.42314,-1.54324
490,379,8.52881,1.56677,0,0,0,0,0,0,0,-1,1714,645,8.52878,-1.56677
497,379,9.63599,1.49573,0,0,0,0,0,0,0,-1,1721,645,9.63604,-1.4957
504,379,10.0833,1.35229,0,0,0,0,0,0,0,-1,1728,645,10.0832,-1.35227
511,379,8.14343,1.59912,0,0,0,0,0,0,0,-1,1735,645,8.14347,-1.59912
518,379,12.7955,-0.324097,0,0,0,0,0,0,0,-1,1742,645,12.7955,0.324101
525,379,6.03711,1.10352,0,0,0,0,0,0,0,-1,1749,645,6.03711,-1.10351
532,379,8.70947,0.887817,0,0,0,0,0,0,0,-1,1756,645,8.70953,-0.887808
539,379,9.87097,0.111389,0,0,0,0,0,0,0,-1,1763,645,9.87095,-0.111395
546,379,8.42383,-0.730652,0,0,0,0,0,0,0,-1,1770,645,8.42378,0.730638
553,379,19.2905,-7.67834,0,0,0,0,0,0,0,-1,1777,645,19.2905,7.67837
560,379,22.5734,-10.4749,0,0,0,0,0,0,0,-1,1784,645,22.5734,10.4749
567,379,25.3602,-11.3673,0,0,0,0,0,0,0,-1,1791,645,25.3602,11.3673
574,379,25.5485,-10.4812,0.00270789,0.0011763,0.000727531,0.00299838,0.000885811,0.37989,0.00177876,0.0147734,1798,645,25.5485,10.4812
581,379,25.5323,-9.84662,0.00191103,0.0011287,0.000590639,0.00222829,0.000811438,0.492918,0.00130224,0.0149893,1805,645,25.5324,9.8466
588,379,25.5144,-9.16565,0.00146329,0.00116577,0.000613199,0.00194551,0.000683544,0.6664,0.00113967,0.0179388,1812,645,25.5145,9.16566
595,379,25.476,-8.48492,0.00136537,0.00140262,0.000821141,0.00220535,0.000562643,0.79674,0.00132318,0.0158311,1819,645,25.4759,8.48491
602,379,25.4346,-7.83551,0.00156915,0.00177134,0.00120269,0.00287718,0.000463314,0.82733,0.00178385,0.0159584,1826,645,25.4345,7.83552
609,379,25.3987,-7.18182,0.00190989,0.00225508,0.00165452,0.00374598,0.000418985,0.837368,0.00237004,0.0169762,1833,645,25.3986,7.18181
616,379,25.3608,-6.47693,0.00245225,0.00291688,0.00221745,0.00491416,0.000454979,0.837591,0.00313547,0.0135297,1840,645,25.3609,6.4769
623,379,25.3524,-5.7439,0.00317888,0.00371855,0.0029653,0.00642627,0.000471169,0.830772,0.00413608,0.0112699,1847,645,25.3524,5.74391
630,379,25.3419,-5.06757,0.00384414,0.00455779,0.00368202,0.00790023,0.000501696,0.833702,0.00510781,0.013382,1854,645,25.3419,5.06754
637,379,25.3503,-4.27142,0.00450352,0.00558518,0.0044585,0.00953553,0.000553169,0.845755,0.00618088,0.0461781,1861,645,25.3503,4.2714
644,379,25.6433,-3.31824,0,0,0,0,0,0,0,-1,1868,645,25.6434,3.31824
651,379,12.9515,0.220825,0,0,0,0,0,0,0,-1,1875,645,12.9515,-0.220814
658,379,13.7498,0.37439,0,0,0,0,0,0,0,-1,1882,645,13.7498,-0.374371
665,379,11.9719,0.353333,0,0,0,0,0,0,0,-1,1889,645,11.9719,-0.353321
672,379,7.57605,2.15326,0,0,0,0,0,0,0,-1,1896,645,7.57599,-2.15326
679,379,8.55078,2.50409,0,0,0,0,0,0,0,-1,1903,645,8.55073,-2.50406
686,379,0,0,0,0,0,0,0,0,0,-1,1910,645,0,0
693,379,0,0,0,0,0,0,0,0,0,-1,1917,645,0,0
700,379,0,0,0,0,0,0,0,0,0,-1,1924,645,0,0
707,379,0,0,0,0,0,0,0,0,0,-1,1931,645,0,0
714,379,0,0,0,0,0,0,0,0,0,-1,1938,645,0,0
721,379,0,0,0,0,0,0,0,0,0,-1,1945,645,0,0
728,379,0,0,0,0,0,0,0,0,0,-1,1952,645,0,0
735,379,0,0,0,0,0,0,0,0,0,-1,1959,645,0,0
742,379,0,0,0,0,0,0,0,0,0,-1,1966,645,0,0
749,379,0,0,0,0,0,0,0,0,0,-1,1973,645,0,0
756,379,0,0,0,0,0,0,0,0,0,-1,1980,645,0,0
763,379,0,0,0,0,0,0,0,0,0,-1,1987,645,0,0
770,379,0,0,0,0,0,0,0,0,0,-1,1994,645,0,0
777,379,0,0,0,0,0,0,0,0,0,-1,2001,645,0,0
784,379,0,0,0,0,0,0,0,0,0,-1,2008,645,0,0
791,379,0,0,0,0,0,0,0,0,0,-1,2015,645,0,0
798,379,0,0,0,0,0,0,0,0,0,-1,2022,645,0,0
805,379,0,0,0,0,0,0,0,0,0,-1,2029,645,0,0
812,379,0,0,0,0,0,0,0,0,0,-1,2036,645,0,0
-700,372,0,0,0,0,0,0,0,0,0,-1,524,652,0,0
-693,372,0,0,0,0,0,0,0,0,0,-1,531,652,0,0
-686,372,0,0,0,0,0,0,0,0,0,-1,538,652,0,0
-679,372,0,0,0,0,0,0,0,0,0,-1,545,652,0,0
-672,372,0,0,0,0,0,0,0,0,0,-1,552,652,0,0
-665,372,0,0,0,0,0,0,0,0,0,-1,559,652,0,0
-658,372,0,0,0,0,0,0,0,0,0,-1,566,652,0,0
-651,372,0,0,0,0,0,0,0,0,0,-1,573,652,0,0
-644,372,0,0,0,0,0,0,0,0,0,-1,580,652,0,0
-637,372,0,0,0,0,0,0,0,0,0,-1,587,652,0,0
-630,372,0,0,0,0,0,0,0,0,0,-1,594,652,0,0
-623,372,0,0,0,0,0,0,0,0,0,-1,601,652,0,0
-616,372,0,0,0,0,0,0,0,0,0,-1,608,652,0,0
-609,372,0,0,0,0,0,0,0,0,0,-1,615,652,0,0
-602,372,0,0,0,0,0,0,0,0,0,-1,622,652,0,0
-595,372,0,0,0,0,0,0,0,0,0,-1,629,652,0,0
-588,372,0,0,0,0,0,0,0,0,0,-1,636,652,0,0
-581,372,0,0,0,0,0,0,0,0,0,-1,643,652,0,0
-574,372,0,0,0,0,0,0,0,0,0,-1,650,652,0,0
-567,372,-7.93744,0.73407,0,0,0,0,0,0,0,-1,657,652,-7.93741,-0.734076
-560,372,-8.78552,-0.158203,0,0,0,0,0,0,0,-1,664,652,-8.78552,0.158216
-553,372,-7.95551,1.61694,0,0,0,0,0,0,0,-1,671,652,-7.95552,-1.61697
-546,372,-4.2403,-3.75372,0,0,0,0,0,0,0,-1,678,652,-4.24028,3.75369
-539,372,-7.92285,-0.0650024,0,0,0,0,0,0,0,-1,685,652,-7.92287,0.0649772
-532,372,-8.59589,-0.419556,0,0,0,0,0,0,0,-1,692,652,-8.59591,0.419539
-525,372,-8.03674,-1.36804,0,0,0,0,0,0,0,-1,699,652,-8.03676,1.36806
-518,372,-14.2119,-5.23969,0,0,0,0,0,0,0,-1,706,652,-14.2119,5.23966
-511,372,-14.1594,-6.04578,9.80127e-06,0.00551795,-0.00231381,0.0063609,-0.000833156,-1.22143,0.00454385,0.0367375,713,652,-14.1594,6.04578
-504,372,-14.1933,-6.66461,0.000586923,0.0042965,-0.00182954,0.00504699,-0.000163565,-1.18152,0.00342049,0.0171574,720,652,-14.1933,6.66464
-497,372,-14.2029,-7.35919,0.000984641,0.00319039,-0.00145503,0.00391329,0.000261746,-1.10969,0.00252613,0.0117476,727,652,-14.2029,7.35919
-490,372,-14.2347,-8.01813,0.00128439,0.00234096,-0.00123311,0.00315419,0.000471166,-0.987777,0.00196466,0.0119971,734,652,-14.2347,8.01814
-483,372,-14.2648,-8.6532,0.00155908,0.00157806,-0.00104903,0.00261764,0.000519495,-0.789922,0.00160029,0.0117973,741,652,-14.2648,8.65321
-476,372,-14.2751,-9.26837,0.00191855,0.00111377,-0.00107128,0.00266052,0.000371807,-0.605742,0.00166365,0.0134523,748,652,-14.2752,9.26837
-469,372,-14.2977,-9.89514,0.00222102,0.000697797,-0.00110152,0.00279858,0.000120234,-0.482925,0.00182696,0.0114557,755,652,-14.2977,9.89511
-462,372,-14.3218,-10.5737,0.00251415,0.000386451,-0.0011745,0.00303499,-0.000134387,-0.417397,0.00206957,0.0104025,762,652,-14.3218,10.5737
-455,372,-14.3621,-11.2483,0.00290203,-4.62401e-05,-0.00127526,0.00337709,-0.000521299,-0.356594,0.00244376,0.0102897,769,652,-14.3621,11.2483
-448,372,-14.3718,-11.9037,0.00340069,-0.00033962,-0.00142994,0.00388473,-0.000823656,-0.326393,0.00290358,0.0128586,776,652,-14.3717,11.9038
-441,372,-14.3277,-12.6342,0,0,0,0,0,0,0,-1,783,652,-14.3277,12.6341
-434,372,-9.86865,-9.68494,0,0,0,0,0,0,0,-1,790,652,-9.86863,9.68492
-427,372,-4.54248,-3.56268,0,0,0,0,0,0,0,-1,797,652,-4.54247,3.56266
-420,372,-4.66168,-2.93597,0,0,0,0,0,0,0,-1,804,652,-4.66166,2.93599
-413,372,-4.74762,-3.29541,0,0,0,0,0,0,0,-1,811,652,-4.74763,3.29542
-406,372,-0.885437,-0.583923,0,0,0,0,0,0,0,-1,818,652,-0.885437,0.5839
-399,372,-3.97357,-0.825012,0,0,0,0,0,0,0,-1,825,652,-3.97359,0.825037
-392,372,-7.64337,0.173035,0,0,0,0,0,0,0,-1,832,652,-7.64337,-0.173019
-385,372,-6.48871,-0.0271606,0,0,0,0,0,0,0,-1,839,652,-6.48874,0.0271353
-378,372,-5.33044,-0.242432,0,0,0,0,0,0,0,-1,846,652,-5.33042,0.242457
-371,372,-4.40802,-0.495667,0,0,0,0,0,0,0,-1,853,652,-4.40802,0.495661
-364,372,0,0,0,0,0,0,0,0,0,-1,860,652,0,0
-357,372,0,0,0,0,0,0,0,0,0,-1,867,652,0,0
-350,372,0,0,0,0,0,0,0,0,0,-1,874,652,0,0
-343,372,0,0,0,0,0,0,0,0,0,-1,881,652,0,0
-336,372,0,0,0,0,0,0,0,0,0,-1,888,652,0,0
-329,372,0,0,0,0,0,0,0,0,0,-1,895,652,0,0
-322,372,0,0,0,0,0,0,0,0,0,-1,902,652,0,0
-315,372,0,0,0,0,0,0,0,0,0,-1,909,652,0,0
-308,372,0,0,0,0,0,0,0,0,0,-1,916,652,0,0
-301,372,0,0,0,0,0,0,0,0,0,-1,923,652,0,0
-294,372,0,0,0,0,0,0,0,0,0,-1,930,652,0,0
-287,372,0,0,0,0,0,0,0,0,0,-1,937,652,0,0
-280,372,0,0,0,0,0,0,0,0,0,-1,944,652,0,0
-273,372,0,0,0,0,0,0,0,0,0,-1,951,652,0,0
-266,372,0,0,0,0,0,0,0,0,0,-1,958,652,0,0
-259,372,0,0,0,0,0,0,0,0,0,-1,965,652,0,0
-252,372,0,0,0,0,0,0,0,0,0,-1,972,652,0,0
-245,372,0,0,0,0,0,0,0,0,0,-1,979,652,0,0
-238,372,0,0,0,0,0,0,0,0,0,-1,986,652,0,0
-231,372,0,0,0,0,0,0,0,0,0,-1,993,652,0,0
-224,372,0,0,0,0,0,0,0,0,0,-1,1000,652,0,0
-217,372,0,0,0,0,0,0,0,0,0,-1,1007,652,0,0
-210,372,0,0,0,0,0,0,0,0,0,-1,1014,652,0,0
-203,372,0,0,0,0,0,0,0,0,0,-1,1021,652,0,0
-196,372,0,0,0,0,0,0,0,0,0,-1,1028,652,0,0
-189,372,0,0,0,0,0,0,0,0,0,-1,1035,652,0,0
-182,372,0,0,0,0,0,0,0,0,0,-1,1042,652,0,0
-175,372,0,0,0,0,0,0,0,0,0,-1,1049,652,0,0
-168,372,0,0,0,0,0,0,0,0,0,-1,1056,652,0,0
-161,372,0,0,0,0,0,0,0,0,0,-1,1063,652,0,0
-154,372,0,0,0,0,0,0,0,0,0,-1,1070,652,0,0
-147,372,0,0,0,0,0,0,0,0,0,-1,1077,652,0,0
-140,372,0,0,0,0,0,0,0,0,0,-1,1084,652,0,0
-133,372,0,0,0,0,0,0,0,0,0,-1,1091,652,0,0
-126,372,0,0,0,0,0,0,0,0,0,-1,1098,652,0,0
-119,372,0,0,0,0,0,0,0,0,0,-1,1105,652,0,0
-112,372,0,0,0,0,0,0,0,0,0,-1,1112,652,0,0
-105,372,0,0,0,0,0,0,0,0,0,-1,1119,652,0,0
-98,372,0,0,0,0,0,0,0,0,0,-1,1126,652,0,0
-91,372,0,0,0,0,0,0,0,0,0,-1,1133,652,0,0
-84,372,0,0,0,0,0,0,0,0,0,-1,1140,652,0,0
-77,372,0,0,0,0,0,0,0,0,0,-1,1147,652,0,0
-70,372,0,0,0,0,0,0,0,0,0,-1,1154,652,0,0
-63,372,0,0,0,0,0,0,0,0,0,-1,1161,652,0,0
-56,372,0,0,0,0,0,0,0,0,0,-1,1168,652,0,0
-49,372,0,0,0,0,0,0,0,0,0,-1,1175,652,0,0
-42,372,0,0,0,0,0,0,0,0,0,-1,1182,652,0,0
-35,372,0,0,0,0,0,0,0,0,0,-1,1189,652,0,0
-28,372,0,0,0,0,0,0,0,0,0,-1,1196,652,0,0
-21,372,0,0,0,0,0,0,0,0,0,-1,1203,652,0,0
-14,372,0,0,0,0,0,0,0,0,0,-1,1210,652,0,0
-7,372,0,0,0,0,0,0,0,0,0,-1,1217,652,0,0
0,372,0,0,0,0,0,0,0,0,0,-1,1224,652,0,0
7,372,0,0,0,0,0,0,0,0,0,-1,1231,652,0,0
14,372,0,0,0,0,0,0,0,0,0,-1,1238,652,0,0
21,372,0,0,0,0,0,0,0,0,0,-1,1245,652,0,0
28,372,0,0,0,0,0,0,0,0,0,-1,1252,652,0,0
35,372,0,0,0,0,0,0,0,0,0,-1,1259,652,0,0
42,372,0,0,0,0,0,0,0,0,0,-1,1266,652,0,0
49,372,0,0,0,0,0,0,0,0,0,-1,1273,652,0,0
56,372,0,0,0,0,0,0,0,0,0,-1,1280,652,0,0
63,372,0,0,0,0,0,0,0,0,0,-1,1287,652,0,0
70,372,0,0,0,0,0,0,0,0,0,-1,1294,652,0,0
77,372,0,0,0,0,0,0,0,0,0,-1,1301,652,0,0
84,372,0,0,0,0,0,0,0,0,0,-1,1308,652,0,0
91,372,0,0,0,0,0,0,0,0,0,-1,1315,652,0,0
98,372,0,0,0,0,0,0,0,0,0,-1,1322,652,0,0
105,372,0,0,0,0,0,0,0,0,0,-1,1329,652,0,0
112,372,0,0,0,0,0,0,0,0,0,-1,1336,652,0,0
119,372,0,0,0,0,0,0,0,0,0,-1,1343,652,0,0
126,372,0,0,0,0,0,0,0,0,0,-1,1350,652,0,0
133,372,0,0,0,0,0,0,0,0,0,-1,1357,652,0,0
140,372,0,0,0,0,0,0,0,0,0,-1,1364,652,0,0
147,372,0,0,0,0,0,0,0,0,0,-1,1371,652,0,0
154,372,0,0,0,0,0,0,0,0,0,-1,1378,652,0,0
161,372,0,0,0,0,0,0,0,0,0,-1,1385,652,0,0
168,372,0,0,0,0,0,0,0,0,0,-1,1392,652,0,0
175,372,0,0,0,0,0,0,0,0,0,-1,1399,652,0,0
182,372,0,0,0,0,0,0,0,0,0,-1,1406,652,0,0
189,372,0,0,0,0,0,0,0,0,0,-1,1413,652,0,0
196,372,0,0,0,0,0,0,0,0,0,-1,1420,652,0,0
203,372,0,0,0,0,0,0,0,0,0,-1,1427,652,0,0
210,372,0,0,0,0,0,0,0,0,0,-1,1434,652,0,0
217,372,0,0,0,0,0,0,0,0,0,-1,1441,652,0,0
224,372,0,0,0,0,0,0,0,0,0,-1,1448,652,0,0
231,372,0,0,0,0,0,0,0,0,0,-1,1455,652,0,0
238,372,0,0,0,0,0,0,0,0,0,-1,1462,652,0,0
245,372,0,0,0,0,0,0,0,0,0,-1,1469,652,0,0
252,372,0,0,0,0,0,0,0,0,0,-1,1476,652,0,0
259,372,0,0,0,0,0,0,0,0,0,-1,1483,652,0,0
266,372,0,0,0,0,0,0,0,0,0,-1,1490,652,0,0
273,372,0,0,0,0,0,0,0,0,0,-1,1497,652,0,0
280,372,0,0,0,0,0,0,0,0,0,-1,1504,652,0,0
287,372,0,0,0,0,0,0,0,0,0,-1,1511,652,0,0
294,372,0,0,0,0,0,0,0,0,0,-1,1518,652,0,0
301,372,0,0,0,0,0,0,0,0,0,-1,1525,652,0,0
308,372,0,0,0,0,0,0,0,0,0,-1,1532,652,0,0
315,372,0,0,0,0,0,0,0,0,0,-1,1539,652,0,0
322,372,0,0,0,0,0,0,0,0,0,-1,1546,652,0,0
329,372,0,0,0,0,0,0,0,0,0,-1,1553,652,0,0
336,372,0,0,0,0,0,0,0,0,0,-1,1560,652,0,0
343,372,0,0,0,0,0,0,0,0,0,-1,1567,652,0,0
350,372,0,0,0,0,0,0,0,0,0,-1,1574,652,0,0
357,372,0,0,0,0,0,0,0,0,0,-1,1581,652,0,0
364,372,0,0,0,0,0,0,0,0,0,-1,1588,652,0,0
371,372,0,0,0,0,0,0,0,0,0,-1,1595,652,0,0
378,372,0,0,0,0,0,0,0,0,0,-1,1602,652,0,0
385,372,0,0,0,0,0,0,0,0,0,-1,1609,652,0,0
392,372,0,0,0,0,0,0,0,0,0,-1,1616,652,0,0
399,372,0,0,0,0,0,0,0,0,0,-1,1623,652,0,0
406,372,0,0,0,0,0,0,0,0,0,-1,1630,652,0,0
413,372,0,0,0,0,0,0,0,0,0,-1,1637,652,0,0
420,372,0,0,0,0,0,0,0,0,0,-1,1644,652,0,0
427,372,0,0,0,0,0,0,0,0,0,-1,1651,652,0,0
434,372,0,0,0,0,0,0,0,0,0,-1,1658,652,0,0
441,372,0,0,0,0,0,0,0,0,0,-1,1665,652,0,0
448,372,0,0,0,0,0,0,0,0,0,-1,1672,652,0,0
455,372,0,0,0,0,0,0,0,0,0,-1,1679,652,0,0
462,372,0,0,0,0,0,0,0,0,0,-1,1686,652,0,0
469,372,0,0,0,0,0,0,0,0,0,-1,1693,652,0,0
476,372,0,0,0,0,0,0,0,0,0,-1,1700,652,0,0
483,372,8.74182,1.53125,0,0,0,0,0,0,0,-1,1707,652,8.74186,-1.53126
490,372,9.78455,1.67096,0,0,0,0,0,0,0,-1,1714,652,9.7846,-1.67093
497,372,9.97644,1.46069,0,0,0,0,0,0,0,-1,1721,652,9.97647,-1.46071
504,372,10.1216,1.28375,0,0,0,0,0,0,0,-1,1728,652,10.1216,-1.28376
511,372,11.7367,-0.0272217,0,0,0,0,0,0,0,-1,1735,652,11.7367,0.0272326
518,372,12.0657,-0.0995483,0,0,0,0,0,0,0,-1,1742,652,12.0657,0.0995285
525,372,12.3947,-0.171814,0,0,0,0,0,0,0,-1,1749,652,12.3946,0.171824
532,372,9.36597,1.72034,0,0,0,0,0,0,0,-1,1756,652,9.36597,-1.72036
539,372,7.82886,-0.0865479,0,0,0,0,0,0,0,-1,1763,652,7.82882,0.0865771
546,372,10.953,-0.187195,0,0,0,0,0,0,0,-1,1770,652,10.953,0.187181
553,372,14.1201,-4.83234,0,0,0,0,0,0,0,-1,1777,652,14.1201,4.83235
560,372,20.1057,-8.06934,0,0,0,0,0,0,0,-1,1784,652,20.1058,8.06936
567,372,26.2366,-11.2404,0,0,0,0,0,0,0,-1,1791,652,26.2366,11.2404
574,372,26.2363,-10.383,0.00278971,0.00119981,0.000637535,0.00301378,0.000975745,0.337974,0.00177567,0.0413191,1798,652,26.2363,10.383
581,372,26.2306,-9.80109,0.00188742,0.00110825,0.000428446,0.00207692,0.000918748,0.416434,0.00120176,0.0216509,1805,652,26.2306,9.80112
588,372,26.1837,-9.13037,0.00141247,0.00104214,0.000400314,0.00166837,0.00078624,0.568773,0.000963765,0.0169803,1812,652,26.1837,9.1304
595,372,26.1399,-8.45874,0.00127403,0.00120393,0.00055102,0.00179111,0.000686844,0.753636,0.00104342,0.0147995,1819,652,26.1399,8.45877
602,372,26.1293,-7.80853,0.00141795,0.00147129,0.000858176,0.00230321,0.000586029,0.800931,0.00138218,0.0156015,1826,652,26.1293,7.80853
609,372,26.0449,-7.14648,0.00169614,0.0018326,0.00124231,0.00300855,0.000520189,0.812831,0.00185675,0.0170325,1833,652,26.0449,7.14649
616,372,26.0295,-6.42664,0.00213422,0.00234091,0.00171607,0.00395674,0.000518393,0.815473,0.00248313,0.0163156,1840,652,26.0296,6.42666
623,372,26.0436,-5.70709,0.00265973,0.00296385,0.00233715,0.00515388,0.000469701,0.817884,0.00329055,0.0125998,1847,652,26.0436,5.70711
630,372,26.0165,-5.03387,0.00300532,0.0036242,0.0028944,0.00622565,0.000403866,0.838651,0.00402257,0.0164605,1854,652,26.0165,5.0339
637,372,26.03,-4.36157,0.00332803,0.00441188,0.00349662,0.00740832,0.000331593,0.862279,0.00483214,0.0280556,1861,652,26.0301,4.36157
644,372,26.0072,-3.64337,0,0,0,0,0,0,0,-1,1868,652,26.0072,3.64337
651,372,21.3998,-0.888,0,0,0,0,0,0,0,-1,1875,652,21.3998,0.887992
658,372,14.157,0.280273,0,0,0,0,0,0,0,-1,1882,652,14.157,-0.280264
665,372,15.2286,0.463867,0,0,0,0,0,0,0,-1,1889,652,15.2287,-0.463854
672,372,9.34106,1.48444,0,0,0,0,0,0,0,-1,1896,652,9.34109,-1.48444
679,372,10.7308,2.32391,0,0,0,0,0,0,0,-1,1903,652,10.7309,-2.3239
686,372,11.6295,2.52997,0,0,0,0,0,0,0,-1,1910,652,11.6296,-2.52996
693,372,0,0,0,0,0,0,0,0,0,-1,1917,652,0,0
700,372,0,0,0,0,0,0,0,0,0,-1,1924,652,0,0
707,372,0,0,0,0,0,0,0,0,0,-1,1931,652,0,0
714,372,0,0,0,0,0,0,0,0,0,-1,1938,652,0,0
721,372,0,0,0,0,0,0,0,0,0,-1,1945,652,0,0
728,372,0,0,0,0,0,0,0,0,0,-1,1952,652,0,0
735,372,0,0,0,0,0,0,0,0,0,-1,1959,652,0,0
742,372,0,0,0,0,0,0,0,0,0,-1,1966,652,0,0
749,372,0,0,0,0,0,0,0,0,0,-1,1973,652,0,0
756,372,0,0,0,0,0,0,0,0,0,-1,1980,652,0,0
763,372,0,0,0,0,0,0,0,0,0,-1,1987,652,0,0
770,372,0,0,0,0,0,0,0,0,0,-1,1994,652,0,0
777,372,0,0,0,0,0,0,0,0,0,-1,2001,652,0,0
784,372,0,0,0,0,0,0,0,0,0,-1,2008,652,0,0
791,372,0,0,0,0,0,0,0,0,0,-1,2015,652,0,0
798,372,0,0,0,0,0,0,0,0,0,-1,2022,652,0,0
805,372,0,0,0,0,0,0,0,0,0,-1,2029,652,0,0
812,372,0,0,0,0,0,0,0,0,0,-1,2036,652,0,0
-700,365,0,0,0,0,0,0,0,0,0,-1,524,659,0,0
-693,365,0,0,0,0,0,0,0,0,0,-1,531,659,0,0
-686,365,0,0,0,0,0,0,0,0,0,-1,538,659,0,0
-679,365,0,0,0,0,0,0,0,0,0,-1,545,659,0,0
-672,365,0,0,0,0,0,0,0,0,0,-1,552,659,0,0
-665,365,0,0,0,0,0,0,0,0,0,-1,559,659,0,0
-658,365,0,0,0,0,0,0,0,0,0,-1,566,659,0,0
-651,365,0,0,0,0,0,0,0,0,0,-1,573,659,0,0
-644,365,0,0,0,0,0,0,0,0,0,-1,580,659,0,0
-637,365,0,0,0,0,0,0,0,0,0,-1,587,659,0,0
-630,365,0,0,0,0,0,0,0,0,0,-1,594,659,0,0
-623,365,0,0,0,0,0,0,0,0,0,-1,601,659,0,0
-616,365,0,0,0,0,0,0,0,0,0,-1,608,659,0,0
-609,365,0,0,0,0,0,0,0,0,0,-1,615,659,0,0
-602,365,0,0,0,0,0,0,0,0,0,-1,622,659,0,0
-595,365,0,0,0,0,0,0,0,0,0,-1,629,659,0,0
-588,365,0,0,0,0,0,0,0,0,0,-1,636,659,0,0
-581,365,0,0,0,0,0,0,0,0,0,-1,643,659,0,0
-574,365,-7.69281,1.59015,0,0,0,0,0,0,0,-1,650,659,-7.69282,-1.59018
-567,365,-8.2583,1.72638,0,0,0,0,0,0,0,-1,657,659,-8.25827,-1.72637
-560,365,-7.17767,0.275757,0,0,0,0,0,0,0,-1,664,659,-7.17768,-0.27577
-553,365,-10.0349,-0.169617,0,0,0,0,0,0,0,-1,671,659,-10.0349,0.169593
-546,365,-10.6303,-1.51642,0,0,0,0,0,0,0,-1,678,659,-10.6303,1.5164
-539,365,-8.38599,1.52936,0,0,0,0,0,0,0,-1,685,659,-8.38598,-1.52935
-532,365,-8.52863,0.166504,0,0,0,0,0,0,0,-1,692,659,-8.52863,-0.166501
-525,365,-9.28229,-2.62726,0,0,0,0,0,0,0,-1,699,659,-9.28227,2.62724
-518,365,-14.8312,-5.23108,0,0,0,0,0,0,0,-1,706,659,-14.8312,5.23108
-511,365,-14.8425,-5.97803,1.79243e-05,0.00428294,-0.0016964,0.00487538,-0.000574517,-1.2348,0.0034577,0.0350059,713,659,-14.8424,5.97801
-504,365,-14.8151,-6.63483,0.000656082,0.00324487,-0.00139544,0.00385382,4.71314e-05,-1.15932,0.00255365,0.0125643,720,659,-14.8151,6.63485
-497,365,-14.8469,-7.33044,0.00113815,0.00234251,-0.0011677,0.00305415,0.000426506,-1.02346,0.00190987,0.0129305,727,659,-14.8469,7.33043
-490,365,-14.8927,-7.99811,0.0014837,0.00164816,-0.00104302,0.00261219,0.000519674,-0.824735,0.00159668,0.0137973,734,659,-14.8927,7.99809
-483,365,-14.9219,-8.61938,0.00182694,0.00103105,-0.000938112,0.00244802,0.000409972,-0.584804,0.00151398,0.0129066,741,659,-14.9219,8.61937
-476,365,-14.8906,-9.25153,0.00222165,0.000708953,-0.00102353,0.00273797,0.000192636,-0.467199,0.00176461,0.0171596,748,659,-14.8906,9.25153
-469,365,-14.9227,-9.88623,0.00254879,0.0004478,-0.00112306,0.00303609,-3.94969e-05,-0.409386,0.00203735,0.0173123,755,659,-14.9227,9.88623
-462,365,-14.981,-10.541,0.00289502,0.000300804,-0.00128008,0.0034203,-0.000224477,-0.389396,0.00235859,0.0152519,762,659,-14.981,10.541
-455,365,-15.0048,-11.2209,0.0033562,1.39532e-05,-0.00146606,0.00390813,-0.000537978,-0.360062,0.00280202,0.017009,769,659,-15.0048,11.2209
-448,365,-14.9269,-11.9891,0.00388694,-0.000161861,-0.0017077,0.00451102,-0.00078594,-0.350372,0.00330066,0.0418929,776,659,-14.927,11.9891
-441,365,-14.6708,-12.852,0,0,0,0,0,0,0,-1,783,659,-14.6708,12.852
-434,365,-5.45056,-3.98041,0,0,0,0,0,0,0,-1,790,659,-5.45055,3.98042
-427,365,-5.05377,-4.74689,0,0,0,0,0,0,0,-1,797,659,-5.05376,4.7469
-420,365,-4.58813,-3.16376,0,0,0,0,0,0,0,-1,804,659,-4.58816,3.16374
-413,365,0.141357,0.672729,0,0,0,0,0,0,0,-1,811,659,0.141365,-0.672714
-406,365,-1.75067,-0.934448,0,0,0,0,0,0,0,-1,818,659,-1.7507,0.934424
-399,365,-4.10242,-1.25439,0,0,0,0,0,0,0,-1,825,659,-4.10244,1.25438
-392,365,-7.46545,-0.779724,0,0,0,0,0,0,0,-1,832,659,-7.46543,0.779744
-385,365,-6.27875,-0.887573,0,0,0,0,0,0,0,-1,839,659,-6.27874,0.887545
-378,365,-5.34503,-0.263306,0,0,0,0,0,0,0,-1,846,659,-5.34504,0.263275
-371,365,0,0,0,0,0,0,0,0,0,-1,853,659,0,0
-364,365,0,0,0,0,0,0,0,0,0,-1,860,659,0,0
-357,365,0,0,0,0,0,0,0,0,0,-1,867,659,0,0
-350,365,0,0,0,0,0,0,0,0,0,-1,874,659,0,0
-343,365,0,0,0,0,0,0,0,0,0,-1,881,659,0,0
-336,365,0,0,0,0,0,0,0,0,0,-1,888,659,0,0
-329,365,0,0,0,0,0,0,0,0,0,-1,895,659,0,0
-322,365,0,0,0,0,0,0,0,0,0,-1,902,659,0,0
-315,365,0,0,0,0,0,0,0,0,0,-1,909,659,0,0
-308,365,0,0,0,0,0,0,0,0,0,-1,916,659,0,0
-301,365,0,0,0,0,0,0,0,0,0,-1,923,659,0,0
-294,365,0,0,0,0,0,0,0,0,0,-1,930,659,0,0
-287,365,0,0,0,0,0,0,0,0,0,-1,937,659,0,0
-280,365,0,0,0,0,0,0,0,0,0,-1,944,659,0,0
-273,365,0,0,0,0,0,0,0,0,0,-1,951,659,0,0
-266,365,0,0,0,0,0,0,0,0,0,-1,958,659,0,0
-259,365,0,0,0,0,0,0,0,0,0,-1,965,659,0,0
-252,365,0,0,0,0,0,0,0,0,0,-1,972,659,0,0
-245,365,0,0,0,0,0,0,0,0,0,-1,979,659,0,0
-238,365,0,0,0,0,0,0,0,0,0,-1,986,659,0,0
-231,365,0,0,0,0,0,0,0,0,0,-1,993,659,0,0
-224,365,0,0,0,0,0,0,0,0,0,-1,1000,659,0,0
-217,365,0,0,0,0,0,0,0,0,0,-1,1007,659,0,0
-210,365,0,0,0,0,0,0,0,0,0,-1,1014,659,0,0
-203,365,0,0,0,0,0,0,0,0,0,-1,1021,659,0,0
-196,365,0,0,0,0,0,0,0,0,0,-1,1028,659,0,0
-189,365,0,0,0,0,0,0,0,0,0,-1,1035,659,0,0
-182,365,0,0,0,0,0,0,0,0,0,-1,1042,659,0,0
-175,365,0,0,0,0,0,0,0,0,0,-1,1049,659,0,0
-168,365,0,0,0,0,0,0,0,0,0,-1,1056,659,0,0
-161,365,0,0,0,0,0,0,0,0,0,-1,1063,659,0,0
-154,365,0,0,0,0,0,0,0,0,0,-1,1070,659,0,0
-147,365,0,0,0,0,0,0,0,0,0,-1,1077,659,0,0
-140,365,0,0,0,0,0,0,0,0,0,-1,1084,659,0,0
-133,365,0,0,0,0,0,0,0,0,0,-1,1091,659,0,0
-126,365,0,0,0,0,0,0,0,0,0,-1,1098,659,0,0
-119,365,0,0,0,0,0,0,0,0,0,-1,1105,659,0,0
-112,365,0,0,0,0,0,0,0,0,0,-1,1112,659,0,0
-105,365,0,0,0,0,0,0,0,0,0,-1,1119,659,0,0
-98,365,0,0,0,0,0,0,0,0,0,-1,1126,659,0,0
-91,365,0,0,0,0,0,0,0,0,0,-1,1133,659,0,0
-84,365,0,0,0,0,0,0,0,0,0,-1,1140,659,0,0
-77,365,0,0,0,0,0,0,0,0,0,-1,1147,659,0,0
-70,365,0,0,0,0,0,0,0,0,0,-1,1154,659,0,0
-63,365,0,0,0,0,0,0,0,0,0,-1,1161,659,0,0
-56,365,0,0,0,0,0,0,0,0,0,-1,1168,659,0,0
-49,365,0,0,0,0,0,0,0,0,0,-1,1175,659,0,0
-42,365,0,0,0,0,0,0,0,0,0,-1,1182,659,0,0
-35,365,0,0,0,0,0,0,0,0,0,-1,1189,659,0,0
-28,365,0,0,0,0,0,0,0,0,0,-1,1196,659,0,0
-21,365,0,0,0,0,0,0,0,0,0,-1,1203,659,0,0
-14,365,0,0,0,0,0,0,0,0,0,-1,1210,659,0,0
-7,365,0,0,0,0,0,0,0,0,0,-1,1217,659,0,0
0,365,0,0,0,0,0,0,0,0,0,-1,1224,659,0,0
7,365,0,0,0,0,0,0,0,0,0,-1,1231,659,0,0
14,365,0,0,0,0,0,0,0,0,0,-1,1238,659,0,0
21,365,0,0,0,0,0,0,0,0,0,-1,1245,659,0,0
28,365,0,0,0,0,0,0,0,0,0,-1,1252,659,0,0
35,365,0,0,0,0,0,0,0,0,0,-1,1259,659,0,0
42,365,0,0,0,0,0,0,0,0,0,-1,1266,659,0,0
49,365,0,0,0,0,0,0,0,0,0,-1,1273,659,0,0
56,365,0,0,0,0,0,0,0,0,0,-1,1280,659,0,0
63,365,0,0,0,0,0,0,0,0,0,-1,1287,659,0,0
70,365,0,0,0,0,0,0,0,0,0,-1,1294,659,0,0
77,365,0,0,0,0,0,0,0,0,0,-1,1301,659,0,0
84,365,0,0,0,0,0,0,0,0,0,-1,1308,659,0,0
91,365,0,0,0,0,0,0,0,0,0,-1,1315,659,0,0
98,365,0,0,0,0,0,0,0,0,0,-1,1322,659,0,0
105,365,0,0,0,0,0,0,0,0,0,-1,1329,659,0,0
112,365,0,0,0,0,0,0,0,0,0,-1,1336,659,0,0
119,365,0,0,0,0,0,0,0,0,0,-1,1343,659,0,0
126,365,0,0,0,0,0,0,0,0,0,-1,1350,659,0,0
133,365,0,0,0,0,0,0,0,0,0,-1,1357,659,0,0
140,365,0,0,0,0,0,0,0,0,0,-1,1364,659,0,0
147,365,0,0,0,0,0,0,0,0,0,-1,1371,659,0,0
154,365,0,0,0,0,0,0,0,0,0,-1,1378,659,0,0
161,365,0,0,0,0,0,0,0,0,0,-1,1385,659,0,0
168,365,0,0,0,0,0,0,0,0,0,-1,1392,659,0,0
175,365,0,0,0,0,0,0,0,0,0,-1,1399,659,0,0
182,365,0,0,0,0,0,0,0,0,0,-1,1406,659,0,0
189,365,0,0,0,0,0,0,0,0,0,-1,1413,659,0,0
196,365,0,0,0,0,0,0,0,0,0,-1,1420,659,0,0
203,365,0,0,0,0,0,0,0,0,0,-1,1427,659,0,0
210,365,0,0,0,0,0,0,0,0,0,-1,1434,659,0,0
217,365,0,0,0,0,0,0,0,0,0,-1,1441,659,0,0
224,365,0,0,0,0,0,0,0,0,0,-1,1448,659,0,0
231,365,0,0,0,0,0,0,0,0,0,-1,1455,659,0,0
238,365,0,0,0,0,0,0,0,0,0,-1,1462,659,0,0
245,365,0,0,0,0,0,0,0,0,0,-1,1469,659,0,0
252,365,0,0,0,0,0,0,0,0,0,-1,1476,659,0,0
259,365,0,0,0,0,0,0,0,0,0,-1,1483,659,0,0
266,365,0,0,0,0,0,0,0,0,0,-1,1490,659,0,0
273,365,0,0,0,0,0,0,0,0,0,-1,1497,659,0,0
280,365,0,0,0,0,0,0,0,0,0,-1,1504,659,0,0
287,365,0,0,0,0,0,0,0,0,0,-1,1511,659,0,0
294,365,0,0,0,0,0,0,0,0,0,-1,1518,659,0,0
301,365,0,0,0,0,0,0,0,0,0,-1,1525,659,0,0
308,365,0,0,0,0,0,0,0,0,0,-1,1532,659,0,0
315,365,0,0,0,0,0,0,0,0,0,-1,1539,659,0,0
322,365,0,0,0,0,0,0,0,0,0,-1,1546,659,0,0
329,365,0,0,0,0,0,0,0,0,0,-1,1553,659,0,0
336,365,0,0,0,0,0,0,0,0,0,-1,1560,659,0,0
343,365,0,0,0,0,0,0,0,0,0,-1,1567,659,0,0
350,365,0,0,0,0,0,0,0,0,0,-1,1574,659,0,0
357,365,0,0,0,0,0,0,0,0,0,-1,1581,659,0,0
364,365,0,0,0,0,0,0,0,0,0,-1,1588,659,0,0
371,365,0,0,0,0,0,0,0,0,0,-1,1595,659,0,0
378,365,0,0,0,0,0,0,0,0,0,-1,1602,659,0,0
385,365,0,0,0,0,0,0,0,0,0,-1,1609,659,0,0
392,365,0,0,0,0,0,0,0,0,0,-1,1616,659,0,0
399,365,0,0,0,0,0,0,0,0,0,-1,1623,659,0,0
406,365,0,0,0,0,0,0,0,0,0,-1,1630,659,0,0
413,365,0,0,0,0,0,0,0,0,0,-1,1637,659,0,0
420,365,0,0,0,0,0,0,0,0,0,-1,1644,659,0,0
427,365,0,0,0,0,0,0,0,0,0,-1,1651,659,0,0
434,365,0,0,0,0,0,0,0,0,0,-1,1658,659,0,0
441,365,0,0,0,0,0,0,0,0,0,-1,1665,659,0,0
448,365,0,0,0,0,0,0,0,0,0,-1,1672,659,0,0
455,365,0,0,0,0,0,0,0,0,0,-1,1679,659,0,0
462,365,0,0,0,0,0,0,0,0,0,-1,1686,659,0,0
469,365,0,0,0,0,0,0,0,0,0,-1,1693,659,0,0
476,365,0,0,0,0,0,0,0,0,0,-1,1700,659,0,0
483,365,0,0,0,0,0,0,0,0,0,-1,1707,659,0,0
490,365,8.39551,0.471252,0,0,0,0,0,0,0,-1,1714,659,8.39551,-0.471241
497,365,9.89233,1.35394,0,0,0,0,0,0,0,-1,1721,659,9.89237,-1.35396
504,365,10.1414,1.18005,0,0,0,0,0,0,0,-1,1728,659,10.1413,-1.18004
511,365,10.5151,0.993896,0,0,0,0,0,0,0,-1,1735,659,10.5152,-0.993894
518,365,11.2029,0.398132,0,0,0,0,0,0,0,-1,1742,659,11.2029,-0.398136
525,365,15.5748,3.85303,0,0,0,0,0,0,0,-1,1749,659,15.5748,-3.85303
532,365,11.2446,1.00629,0,0,0,0,0,0,0,-1,1756,659,11.2446,-1.00631
539,365,12.6301,1.03204,0,0,0,0,0,0,0,-1,1763,659,12.6302,-1.03204
546,365,11.647,0.84198,0,0,0,0,0,0,0,-1,1770,659,11.6469,-0.841955
553,365,12.028,-0.558899,0,0,0,0,0,0,0,-1,1777,659,12.028,0.558873
560,365,14.5372,-4.55548,0,0,0,0,0,0,0,-1,1784,659,14.5373,4.55547
567,365,20.5676,-7.53888,0,0,0,0,0,0,0,-1,1791,659,20.5676,7.53887
574,365,27.1428,-10.2812,0,0,0,0,0,0,0,-1,1798,659,27.1428,10.2812
581,365,26.9155,-9.68298,0,0,0,0,0,0,0,-1,1805,659,26.9156,9.683
588,365,26.8253,-9.13959,0.00128869,0.00103633,0.000211911,0.00140914,0.000915875,0.516865,0.000825675,0.0246365,1812,659,26.8254,9.13957
595,365,26.818,-8.43103,0.00109788,0.00111479,0.000320618,0.00142706,0.000785601,0.798581,0.000825313,0.0132778,1819,659,26.8179,8.43102
602,365,26.7872,-7.74426,0.00116428,0.00126566,0.000547075,0.00176439,0.000665554,0.831594,0.00102886,0.0158807,1826,659,26.7872,7.74424
609,365,26.7264,-7.04102,0.00139783,0.0015013,0.000874489,0.00232558,0.000573546,0.814943,0.00139896,0.0172196,1833,659,26.7265,7.04101
616,365,26.7217,-6.33521,0.00175918,0.00186302,0.00126952,0.00308168,0.000540515,0.805834,0.00190009,0.0187631,1840,659,26.7216,6.33521
623,365,26.7378,-5.67297,0.00215239,0.00232857,0.00177685,0.00401951,0.000461447,0.810166,0.00253987,0.0121128,1847,659,26.7378,5.67299
630,365,26.6951,-5.01489,0.0023274,0.00284367,0.002217,0.00481752,0.000353553,0.843355,0.00310055,0.0151334,1854,659,26.6951,5.0149
637,365,26.6556,-4.35565,0.00246614,0.00344884,0.00267901,0.00568119,0.000233796,0.876094,0.00371198,0.0214365,1861,659,26.6557,4.35564
644,365,26.6532,-3.66278,0.00230718,0.00418129,0.00312146,0.00650331,-1.48392e-05,0.931217,0.0043405,0.0255841,1868,659,26.6533,3.66275
651,365,26.7017,-2.92706,0,0,0,0,0,0,0,-1,1875,659,26.7017,2.92705
658,365,24.745,-2.13275,0,0,0,0,0,0,0,-1,1882,659,24.745,2.13277
665,365,14.0961,0.769043,0,0,0,0,0,0,0,-1,1889,659,14.0961,-0.769063
672,365,10.0579,2.15088,0,0,0,0,0,0,0,-1,1896,659,10.0579,-2.15088
679,365,10.9718,2.19208,0,0,0,0,0,0,0,-1,1903,659,10.9718,-2.19211
686,365,12.2134,2.17108,0,0,0,0,0,0,0,-1,1910,659,12.2134,-2.17109
693,365,13.7141,1.98279,0,0,0,0,0,0,0,-1,1917,659,13.7141,-1.98278
700,365,0,0,0,0,0,0,0,0,0,-1,1924,659,0,0
707,365,0,0,0,0,0,0,0,0,0,-1,1931,659,0,0
714,365,0,0,0,0,0,0,0,0,0,-1,1938,659,0,0
721,365,0,0,0,0,0,0,0,0,0,-1,1945,659,0,0
728,365,0,0,0,0,0,0,0,0,0,-1,1952,659,0,0
735,365,0,0,0,0,0,0,0,0,0,-1,1959,659,0,0
742,365,0,0,0,0,0,0,0,0,0,-1,1966,659,0,0
749,365,0,0,0,0,0,0,0,0,0,-1,1973,659,0,0
756,365,0,0,0,0,0,0,0,0,0,-1,1980,659,0,0
763,365,0,0,0,0,0,0,0,0,0,-1,1987,659,0,0
770,365,0,0,0,0,0,0,0,0,0,-1,1994,659,0,0
777,365,0,0,0,0,0,0,0,0,0,-1,2001,659,0,0
784,365,0,0,0,0,0,0,0,0,0,-1,2008,659,0,0
791,365,0,0,0,0,0,0,0,0,0,-1,2015,659,0,0
798,365,0,0,0,0,0,0,0,0,0,-1,2022,659,0,0
805,365,0,0,0,0,0,0,0,0,0,-1,2029,659,0,0
812,365,0,0,0,0,0,0,0,0,0,-1,2036,659,0,0
-700,358,0,0,0,0,0,0,0,0,0,-1,524,666,0,0
-693,358,0,0,0,0,0,0,0,0,0,-1,531,666,0,0
-686,358,0,0,0,0,0,0,0,0,0,-1,538,666,0,0
-679,358,0,0,0,0,0,0,0,0,0,-1,545,666,0,0
-672,358,0,0,0,0,0,0,0,0,0,-1,552,666,0,0
-665,358,0,0,0,0,0,0,0,0,0,-1,559,666,0,0
-658,358,0,0,0,0,0,0,0,0,0,-1,566,666,0,0
-651,358,0,0,0,0,0,0,0,0,0,-1,573,666,0,0
-644,358,0,0,0,0,0,0,0,0,0,-1,580,666,0,0
-637,358,0,0,0,0,0,0,0,0,0,-1,587,666,0,0
-630,358,0,0,0,0,0,0,0,0,0,-1,594,666,0,0
-623,358,0,0,0,0,0,0,0,0,0,-1,601,666,0,0
-616,358,0,0,0,0,0,0,0,0,0,-1,608,666,0,0
-609,358,0,0,0,0,0,0,0,0,0,-1,615,666,0,0
-602,358,0,0,0,0,0,0,0,0,0,-1,622,666,0,0
-595,358,0,0,0,0,0,0,0,0,0,-1,629,666,0,0
-588,358,0,0,0,0,0,0,0,0,0,-1,636,666,0,0
-581,358,-8.31616,1.61993,0,0,0,0,0,0,0,-1,643,666,-8.31614,-1.61993
-574,358,-8.22406,1.75385,0,0,0,0,0,0,0,-1,650,666,-8.22408,-1.75383
-567,358,-8.14215,1.91577,0,0,0,0,0,0,0,-1,657,666,-8.14214,-1.91579
-560,358,-10.6086,2.18872,0,0,0,0,0,0,0,-1,664,666,-10.6086,-2.18873
-553,358,-13.4767,1.09552,0,0,0,0,0,0,0,-1,671,666,-13.4767,-1.09551
-546,358,-13.3743,-0.185059,0,0,0,0,0,0,0,-1,678,666,-13.3743,0.185037
-539,358,-9.43884,-2.04785,0,0,0,0,0,0,0,-1,685,666,-9.43884,2.04785
-532,358,-12.4141,-2.36572,0,0,0,0,0,0,0,-1,692,666,-12.4141,2.3657
-525,358,-12.731,-3.88031,0,0,0,0,0,0,0,-1,699,666,-12.731,3.88029
-518,358,-15.4615,-5.27484,0,0,0,0,0,0,0,-1,706,666,-15.4615,5.27487
-511,358,-15.4702,-5.93372,-7.4521e-05,0.00330893,-0.00113267,0.0036531,-0.000418691,-1.2758,0.00258628,0.0177799,713,666,-15.4702,5.93369
-504,358,-15.4808,-6.58911,0.000604736,0.00241246,-0.00094692,0.00281765,0.000199543,-1.16647,0.00181558,0.0130209,720,666,-15.4808,6.58909
-497,358,-15.5002,-7.28125,0.00115478,0.00167096,-0.000822745,0.00227515,0.000550594,-0.937386,0.00137061,0.0117857,727,666,-15.5003,7.28126
-490,358,-15.5315,-7.95032,0.00155636,0.00110085,-0.000774485,0.00213588,0.000521325,-0.642394,0.00128587,0.0106468,734,666,-15.5315,7.95034
-483,358,-15.5643,-8.57831,0.00198796,0.000624586,-0.000761468,0.00232829,0.000284249,-0.420313,0.00146666,0.0100019,741,666,-15.5643,8.5783
-476,358,-15.5311,-9.18982,0.00243655,0.000416756,-0.000918732,0.00279192,6.13837e-05,-0.369082,0.00184116,0.0133491,748,666,-15.5311,9.18982
-469,358,-15.5925,-9.83478,0.0028431,0.000301011,-0.00112138,0.00326706,-0.00012295,-0.36146,0.00222016,0.0175316,755,666,-15.5925,9.83477
-462,358,-15.6446,-10.5029,0.00333335,0.000312765,-0.00140207,0.00388383,-0.000237716,-0.374128,0.00267199,0.0194628,762,666,-15.6446,10.503
-455,358,-15.5641,-11.2289,0.00398819,0.00022182,-0.00172059,0.00465585,-0.000445841,-0.370156,0.00326268,0.0457359,769,666,-15.5641,11.2289
-448,358,-15.3931,-12.254,0,0,0,0,0,0,0,-1,776,666,-15.3931,12.254
-441,358,-5.56293,-3.98041,0,0,0,0,0,0,0,-1,783,666,-5.56291,3.98043
-434,358,-5.21558,-4.43127,0,0,0,0,0,0,0,-1,790,666,-5.21559,4.43125
-427,358,-3.56189,-3.15729,0,0,0,0,0,0,0,-1,797,666,-3.56192,3.15729
-420,358,0.200195,1.08234,0,0,0,0,0,0,0,-1,804,666,0.200174,-1.08231
-413,358,0.0325317,0.161072,0,0,0,0,0,0,0,-1,811,666,0.0325501,-0.161098
-406,358,-3.85846,0.753113,0,0,0,0,0,0,0,-1,818,666,-3.85846,-0.753129
-399,358,-1.31213,0.190735,0,0,0,0,0,0,0,-1,825,666,-1.31215,-0.190763
-392,358,-3.73914,-0.832214,0,0,0,0,0,0,0,-1,832,666,-3.73915,0.832202
-385,358,-5.95178,-1.69141,0,0,0,0,0,0,0,-1,839,666,-5.9518,1.69143
-378,358,0,0,0,0,0,0,0,0,0,-1,846,666,0,0
-371,358,0,0,0,0,0,0,0,0,0,-1,853,666,0,0
-364,358,0,0,0,0,0,0,0,0,0,-1,860,666,0,0
-357,358,0,0,0,0,0,0,0,0,0,-1,867,666,0,0
-350,358,0,0,0,0,0,0,0,0,0,-1,874,666,0,0
-343,358,0,0,0,0,0,0,0,0,0,-1,881,666,0,0
-336,358,0,0,0,0,0,0,0,0,0,-1,888,666,0,0
-329,358,0,0,0,0,0,0,0,0,0,-1,895,666,0,0
-322,358,0,0,0,0,0,0,0,0,0,-1,902,666,0,0
-315,358,0,0,0,0,0,0,0,0,0,-1,909,666,0,0
-308,358,0,0,0,0,0,0,0,0,0,-1,916,666,0,0
-301,358,0,0,0,0,0,0,0,0,0,-1,923,666,0,0
-294,358,0,0,0,0,0,0,0,0,0,-1,930,666,0,0
-287,358,0,0,0,0,0,0,0,0,0,-1,937,666,0,0
-280,358,0,0,0,0,0,0,0,0,0,-1,944,666,0,0
-273,358,0,0,0,0,0,0,0,0,0,-1,951,666,0,0
-266,358,0,0,0,0,0,0,0,0,0,-1,958,666,0,0
-259,358,0,0,0,0,0,0,0,0,0,-1,965,666,0,0
-252,358,0,0,0,0,0,0,0,0,0,-1,972,666,0,0
-245,358,0,0,0,0,0,0,0,0,0,-1,979,666,0,0
-238,358,0,0,0,0,0,0,0,0,0,-1,986,666,0,0
-231,358,0,0,0,0,0,0,0,0,0,-1,993,666,0,0
-224,358,0,0,0,0,0,0,0,0,0,-1,1000,666,0,0
-217,358,0,0,0,0,0,0,0,0,0,-1,1007,666,0,0
-210,358,0,0,0,0,0,0,0,0,0,-1,1014,666,0,0
-203,358,0,0,0,0,0,0,0,0,0,-1,1021,666,0,0
-196,358,0,0,0,0,0,0,0,0,0,-1,1028,666,0,0
-189,358,0,0,0,0,0,0,0,0,0,-1,1035,666,0,0
-182,358,0,0,0,0,0,0,0,0,0,-1,1042,666,0,0
-175,358,0,0,0,0,0,0,0,0,0,-1,1049,666,0,0
-168,358,0,0,0,0,0,0,0,0,0,-1,1056,666,0,0
-161,358,0,0,0,0,0,0,0,0,0,-1,1063,666,0,0
-154,358,0,0,0,0,0,0,0,0,0,-1,1070,666,0,0
-147,358,0,0,0,0,0,0,0,0,0,-1,1077,666,0,0
-140,358,0,0,0,0,0,0,0,0,0,-1,1084,666,0,0
-133,358,0,0,0,0,0,0,0,0,0,-1,1091,666,0,0
-126,358,0,0,0,0,0,0,0,0,0,-1,1098,666,0,0
-119,358,0,0,0,0,0,0,0,0,0,-1,1105,666,0,0
-112,358,0,0,0,0,0,0,0,0,0,-1,1112,666,0,0
-105,358,0,0,0,0,0,0,0,0,0,-1,1119,666,0,0
-98,358,0,0,0,0,0,0,0,0,0,-1,1126,666,0,0
-91,358,0,0,0,0,0,0,0,0,0,-1,1133,666,0,0
-84,358,0,0,0,0,0,0,0,0,0,-1,1140,666,0,0
-77,358,0,0,0,0,0,0,0,0,0,-1,1147,666,0,0
-70,358,0,0,0,0,0,0,0,0,0,-1,1154,666,0,0
-63,358,0,0,0,0,0,0,0,0,0,-1,1161,666,0,0
-56,358,0,0,0,0,0,0,0,0,0,-1,1168,666,0,0
-49,358,0,0,0,0,0,0,0,0,0,-1,1175,666,0,0
-42,358,0,0,0,0,0,0,0,0,0,-1,1182,666,0,0
-35,358,0,0,0,0,0,0,0,0,0,-1,1189,666,0,0
-28,358,0,0,0,0,0,0,0,0,0,-1,1196,666,0,0
-21,358,0,0,0,0,0,0,0,0,0,-1,1203,666,0,0
-14,358,0,0,0,0,0,0,0,0,0,-1,1210,666,0,0
-7,358,0,0,0,0,0,0,0,0,0,-1,1217,666,0,0
0,358,0,0,0,0,0,0,0,0,0,-1,1224,666,0,0
7,358,0,0,0,0,0,0,0,0,0,-1,1231,666,0,0
14,358,0,0,0,0,0,0,0,0,0,-1,1238,666,0,0
21,358,0,0,0,0,0,0,0,0,0,-1,1245,666,0,0
28,358,0,0,0,0,0,0,0,0,0,-1,1252,666,0,0
35,358,0,0,0,0,0,0,0,0,0,-1,1259,666,0,0
42,358,0,0,0,0,0,0,0,0,0,-1,1266,666,0,0
49,358,0,0,0,0,0,0,0,0,0,-1,1273,666,0,0
56,358,0,0,0,0,0,0,0,0,0,-1,1280,666,0,0
63,358,0,0,0,0,0,0,0,0,0,-1,1287,666,0,0
70,358,0,0,0,0,0,0,0,0,0,-1,1294,666,0,0
77,358,0,0,0,0,0,0,0,0,0,-1,1301,666,0,0
84,358,0,0,0,0,0,0,0,0,0,-1,1308,666,0,0
91,358,0,0,0,0,0,0,0,0,0,-1,1315,666,0,0
98,358,0,0,0,0,0,0,0,0,0,-1,1322,666,0,0
105,358,0,0,0,0,0,0,0,0,0,-1,1329,666,0,0
112,358,0,0,0,0,0,0,0,0,0,-1,1336,666,0,0
119,358,0,0,0,0,0,0,0,0,0,-1,1343,666,0,0
126,358,0,0,0,0,0,0,0,0,0,-1,1350,666,0,0
133,358,0,0,0,0,0,0,0,0,0,-1,1357,666,0,0
140,358,0,0,0,0,0,0,0,0,0,-1,1364,666,0,0
147,358,0,0,0,0,0,0,0,0,0,-1,1371,666,0,0
154,358,0,0,0,0,0,0,0,0,0,-1,1378,666,0,0
161,358,0,0,0,0,0,0,0,0,0,-1,1385,666,0,0
168,358,0,0,0,0,0,0,0,0,0,-1,1392,666,0,0
175,358,0,0,0,0,0,0,0,0,0,-1,1399,666,0,0
182,358,0,0,0,0,0,0,0,0,0,-1,1406,666,0,0
189,358,0,0,0,0,0,0,0,0,0,-1,1413,666,0,0
196,358,0,0,0,0,0,0,0,0,0,-1,1420,666,0,0
203,358,0,0,0,0,0,0,0,0,0,-1,1427,666,0,0
210,358,0,0,0,0,0,0,0,0,0,-1,1434,666,0,0
217,358,0,0,0,0,0,0,0,0,0,-1,1441,666,0,0
224,358,0,0,0,0,0,0,0,0,0,-1,1448,666,0,0
231,358,0,0,0,0,0,0,0,0,0,-1,1455,666,0,0
238,358,0,0,0,0,0,0,0,0,0,-1,1462,666,0,0
245,358,0,0,0,0,0,0,0,0,0,-1,1469,666,0,0
252,358,0,0,0,0,0,0,0,0,0,-1,1476,666,0,0
259,358,0,0,0,0,0,0,0,0,0,-1,1483,666,0,0
266,358,0,0,0,0,0,0,0,0,0,-1,1490,666,0,0
273,358,0,0,0,0,0,0,0,0,0,-1,1497,666,0,0
280,358,0,0,0,0,0,0,0,0,0,-1,1504,666,0,0
287,358,0,0,0,0,0,0,0,0,0,-1,1511,666,0,0
294,358,0,0,0,0,0,0,0,0,0,-1,1518,666,0,0
301,358,0,0,0,0,0,0,0,0,0,-1,1525,666,0,0
308,358,0,0,0,0,0,0,0,0,0,-1,1532,666,0,0
315,358,0,0,0,0,0,0,0,0,0,-1,1539,666,0,0
322,358,0,0,0,0,0,0,0,0,0,-1,1546,666,0,0
329,358,0,0,0,0,0,0,0,0,0,-1,1553,666,0,0
336,358,0,0,0,0,0,0,0,0,0,-1,1560,666,0,0
343,358,0,0,0,0,0,0,0,0,0,-1,1567,666,0,0
350,358,0,0,0,0,0,0,0,0,0,-1,1574,666,0,0
357,358,0,0,0,0,0,0,0,0,0,-1,1581,666,0,0
364,358,0,0,0,0,0,0,0,0,0,-1,1588,666,0,0
371,358,0,0,0,0,0,0,0,0,0,-1,1595,666,0,0
378,358,0,0,0,0,0,0,0,0,0,-1,1602,666,0,0
385,358,0,0,0,0,0,0,0,0,0,-1,1609,666,0,0
392,358,0,0,0,0,0,0,0,0,0,-1,1616,666,0,0
399,358,0,0,0,0,0,0,0,0,0,-1,1623,666,0,0
406,358,0,0,0,0,0,0,0,0,0,-1,1630,666,0,0
413,358,0,0,0,0,0,0,0,0,0,-1,1637,666,0,0
420,358,0,0,0,0,0,0,0,0,0,-1,1644,666,0,0
427,358,0,0,0,0,0,0,0,0,0,-1,1651,666,0,0
434,358,0,0,0,0,0,0,0,0,0,-1,1658,666,0,0
441,358,0,0,0,0,0,0,0,0,0,-1,1665,666,0,0
448,358,0,0,0,0,0,0,0,0,0,-1,1672,666,0,0
455,358,0,0,0,0,0,0,0,0,0,-1,1679,666,0,0
462,358,0,0,0,0,0,0,0,0,0,-1,1686,666,0,0
469,358,0,0,0,0,0,0,0,0,0,-1,1693,666,0,0
476,358,0,0,0,0,0,0,0,0,0,-1,1700,666,0,0
483,358,0,0,0,0,0,0,0,0,0,-1,1707,666,0,0
490,358,0,0,0,0,0,0,0,0,0,-1,1714,666,0,0
497,358,8.57239,1.1322,0,0,0,0,0,0,0,-1,1721,666,8.57234,-1.13219
504,358,10.5972,0.832947,0,0,0,0,0,0,0,-1,1728,666,10.5972,-0.832968
511,358,10.6873,0.868469,0,0,0,0,0,0,0,-1,1735,666,10.6872,-0.868484
518,358,16.5884,2.34894,0,0,0,0,0,0,0,-1,1742,666,16.5884,-2.34894
525,358,15.7626,3.65344,0,0,0,0,0,0,0,-1,1749,666,15.7626,-3.65342
532,358,14.9368,4.95789,0,0,0,0,0,0,0,-1,1756,666,14.9367,-4.9579
539,358,15.1597,3.42694,0,0,0,0,0,0,0,-1,1763,666,15.1597,-3.42692
546,358,12.3792,1.53558,0,0,0,0,0,0,0,-1,1770,666,12.3792,-1.5356
553,358,11.6584,1.26172,0,0,0,0,0,0,0,-1,1777,666,11.6585,-1.26175
560,358,10.8234,1.43042,0,0,0,0,0,0,0,-1,1784,666,10.8233,-1.43041
567,358,10.1333,-0.955139,0,0,0,0,0,0,0,-1,1791,666,10.1333,0.955132
574,358,14.7886,-2.69293,0,0,0,0,0,0,0,-1,1798,666,14.7885,2.6929
581,358,20.1738,-6.76135,0,0,0,0,0,0,0,-1,1805,666,20.1738,6.76137
588,358,27.4359,-9.16376,0,0,0,0,0,0,0,-1,1812,666,27.4359,9.16374
595,358,27.4849,-8.4126,0.000868041,0.00108988,0.000176942,0.00118779,0.000770127,1.06537,0.000695764,0.0167482,1819,666,27.4848,8.41263
602,358,27.4486,-7.68109,0.00092518,0.00114206,0.000319862,0.00137137,0.000695877,0.948831,0.000791787,0.0136278,1826,666,27.4487,7.6811
609,358,27.3987,-6.99054,0.00118635,0.00127936,0.000604015,0.00183865,0.00062705,0.823818,0.00107928,0.0179393,1833,666,27.3987,6.99057
616,358,27.386,-6.32037,0.00151903,0.00152311,0.000936561,0.00245764,0.000584509,0.786488,0.00148251,0.0169919,1840,666,27.386,6.32038
623,358,27.4126,-5.65729,0.00182196,0.00186416,0.00134137,0.0031846,0.000501518,0.793264,0.00197721,0.014581,1847,666,27.4127,5.6573
630,358,27.3761,-5.00507,0.00185737,0.0022709,0.00168763,0.00376438,0.000363888,0.846353,0.00239752,0.0179234,1854,666,27.3761,5.0051
637,358,27.2942,-4.33557,0.00178954,0.00276791,0.0020305,0.00436732,0.000190131,0.903605,0.00285028,0.0251466,1861,666,27.2942,4.33558
644,358,27.2821,-3.67181,0.00142398,0.00333832,0.00231459,0.00488585,-0.000123546,0.981459,0.00329919,0.0207368,1868,666,27.2821,3.67181
651,358,27.4304,-2.85651,0.000621397,0.00415704,0.00259066,0.00552558,-0.000747138,1.0848,0.00395635,0.0431276,1875,666,27.4305,2.85652
658,358,27.4513,-1.89398,0,0,0,0,0,0,0,-1,1882,666,27.4513,1.89401
665,358,26.6349,-1.66046,0,0,0,0,0,0,0,-1,1889,666,26.6349,1.66048
672,358,12.4299,1.47272,0,0,0,0,0,0,0,-1,1896,666,12.4299,-1.4727
679,358,12.1294,2.19702,0,0,0,0,0,0,0,-1,1903,666,12.1294,-2.19703
686,358,11.9557,2.2002,0,0,0,0,0,0,0,-1,1910,666,11.9557,-2.20021
693,358,13.188,2.52203,0,0,0,0,0,0,0,-1,1917,666,13.188,-2.52202
700,358,0,0,0,0,0,0,0,0,0,-1,1924,666,0,0
707,358,0,0,0,0,0,0,0,0,0,-1,1931,666,0,0
714,358,0,0,0,0,0,0,0,0,0,-1,1938,666,0,0
721,358,0,0,0,0,0,0,0,0,0,-1,1945,666,0,0
728,358,0,0,0,0,0,0,0,0,0,-1,1952,666,0,0
735,358,0,0,0,0,0,0,0,0,0,-1,1959,666,0,0
742,358,0,0,0,0,0,0,0,0,0,-1,1966,666,0,0
749,358,0,0,0,0,0,0,0,0,0,-1,1973,666,0,0
756,358,0,0,0,0,0,0,0,0,0,-1,1980,666,0,0
763,358,0,0,0,0,0,0,0,0,0,-1,1987,666,0,0
770,358,0,0,0,0,0,0,0,0,0,-1,1994,666,0,0
777,358,0,0,0,0,0,0,0,0,0,-1,2001,666,0,0
784,358,0,0,0,0,0,0,0,0,0,-1,2008,666,0,0
791,358,0,0,0,0,0,0,0,0,0,-1,2015,666,0,0
798,358,0,0,0,0,0,0,0,0,0,-1,2022,666,0,0
805,358,0,0,0,0,0,0,0,0,0,-1,2029,666,0,0
812,358,0,0,0,0,0,0,0,0,0,-1,2036,666,0,0
-700,351,0,0,0,0,0,0,0,0,0,-1,524,673,0,0
-693,351,0,0,0,0,0,0,0,0,0,-1,531,673,0,0
-686,351,0,0,0,0,0,0,0,0,0,-1,538,673,0,0
-679,351,0,0,0,0,0,0,0,0,0,-1,545,673,0,0
-672,351,0,0,0,0,0,0,0,0,0,-1,552,673,0,0
-665,351,0,0,0,0,0,0,0,0,0,-1,559,673,0,0
-658,351,0,0,0,0,0,0,0,0,0,-1,566,673,0,0
-651,351,0,0,0,0,0,0,0,0,0,-1,573,673,0,0
-644,351,0,0,0,0,0,0,0,0,0,-1,580,673,0,0
-637,351,0,0,0,0,0,0,0,0,0,-1,587,673,0,0
-630,351,0,0,0,0,0,0,0,0,0,-1,594,673,0,0
-623,351,0,0,0,0,0,0,0,0,0,-1,601,673,0,0
-616,351,0,0,0,0,0,0,0,0,0,-1,608,673,0,0
-609,351,0,0,0,0,0,0,0,0,0,-1,615,673,0,0
-602,351,0,0,0,0,0,0,0,0,0,-1,622,673,0,0
-595,351,0,0,0,0,0,0,0,0,0,-1,629,673,0,0
-588,351,0,0,0,0,0,0,0,0,0,-1,636,673,0,0
-581,351,-9.0647,1.71906,0,0,0,0,0,0,0,-1,643,673,-9.06472,-1.71908
-574,351,-8.23584,2.64764,0,0,0,0,0,0,0,-1,650,673,-8.23584,-2.64764
-567,351,-10.8027,4.56836,0,0,0,0,0,0,0,-1,657,673,-10.8027,-4.56839
-560,351,-14.2001,2.17084,0,0,0,0,0,0,0,-1,664,673,-14.2002,-2.17086
-553,351,-13.4979,0.779541,0,0,0,0,0,0,0,-1,671,673,-13.4978,-0.779519
-546,351,-14.0065,0.73645,0,0,0,0,0,0,0,-1,678,673,-14.0065,-0.736473
-539,351,-12.8123,-1.46393,0,0,0,0,0,0,0,-1,685,673,-12.8123,1.46395
-532,351,-16.0198,-4.03937,0,0,0,0,0,0,0,-1,692,673,-16.0198,4.03936
-525,351,-16.1687,-4.59473,0,0,0,0,0,0,0,-1,699,673,-16.1687,4.59473
-518,351,-16.1013,-5.19763,-0.000844471,0.00349449,-0.000843248,0.00365261,-0.00100259,-1.38544,0.00282912,0.021864,706,673,-16.1013,5.19766
-511,351,-16.092,-5.88562,1.06739e-05,0.00256826,-0.000714289,0.00275423,-0.000175292,-1.3161,0.00189728,0.0124339,713,673,-16.092,5.88561
-504,351,-16.136,-6.56647,0.000682975,0.00174911,-0.000587029,0.00200899,0.000423096,-1.15403,0.00122294,0.0119427,720,673,-16.136,6.56648
-497,351,-16.1636,-7.23468,0.00125137,0.00110175,-0.000514699,0.00169667,0.000656452,-0.71323,0.000987888,0.0112072,727,673,-16.1637,7.23469
-490,351,-16.1816,-7.88568,0.00169107,0.0006136,-0.000518353,0.00189995,0.000404722,-0.38306,0.0011556,0.0102572,734,673,-16.1816,7.88571
-483,351,-16.1965,-8.52106,0.00217869,0.000263745,-0.000589497,0.00234561,9.68239e-05,-0.275935,0.00153248,0.012146,741,673,-16.1965,8.52106
-476,351,-16.2352,-9.15875,0.00262113,0.00013558,-0.000795134,0.00285373,-9.70184e-05,-0.284587,0.00193564,0.0111306,748,673,-16.2352,9.15877
-469,351,-16.2526,-9.78558,0.00307151,0.000167407,-0.00111027,0.00344734,-0.000208421,-0.326396,0.00237076,0.0138582,755,673,-16.2526,9.78561
-462,351,-16.2422,-10.4481,0.00372915,0.000365111,-0.00157663,0.00435255,-0.000258284,-0.376533,0.00299151,0.0331098,762,673,-16.2423,10.4481
-455,351,-16.2153,-11.1379,0,0,0,0,0,0,0,-1,769,673,-16.2153,11.138
-448,351,-6.61456,-4.38654,0,0,0,0,0,0,0,-1,776,673,-6.61456,4.38654
-441,351,-4.31567,-2.3009,0,0,0,0,0,0,0,-1,783,673,-4.31565,2.30089
-434,351,-3.81708,-2.28003,0,0,0,0,0,0,0,-1,790,673,-3.81706,2.28006
-427,351,-2.05157,-2.7785,0,0,0,0,0,0,0,-1,797,673,-2.05157,2.77848
-420,351,-1.06989,-2.43665,0,0,0,0,0,0,0,-1,804,673,-1.06991,2.43663
-413,351,-0.392334,-2.06671,0,0,0,0,0,0,0,-1,811,673,-0.392363,2.06672
-406,351,-1.86316,-2.58105,0,0,0,0,0,0,0,-1,818,673,-1.86313,2.58106
-399,351,1.00952,-1.53455,0,0,0,0,0,0,0,-1,825,673,1.00954,1.53457
-392,351,-1.02197,0.877136,0,0,0,0,0,0,0,-1,832,673,-1.02195,-0.877143
-385,351,-1.47205,1.04437,0,0,0,0,0,0,0,-1,839,673,-1.47207,-1.04435
-378,351,0,0,0,0,0,0,0,0,0,-1,846,673,0,0
-371,351,0,0,0,0,0,0,0,0,0,-1,853,673,0,0
-364,351,0,0,0,0,0,0,0,0,0,-1,860,673,0,0
-357,351,0,0,0,0,0,0,0,0,0,-1,867,673,0,0
-350,351,0,0,0,0,0,0,0,0,0,-1,874,673,0,0
-343,351,0,0,0,0,0,0,0,0,0,-1,881,673,0,0
-336,351,0,0,0,0,0,0,0,0,0,-1,888,673,0,0
-329,351,0,0,0,0,0,0,0,0,0,-1,895,673,0,0
-322,351,0,0,0,0,0,0,0,0,0,-1,902,673,0,0
-315,351,0,0,0,0,0,0,0,0,0,-1,909,673,0,0
-308,351,0,0,0,0,0,0,0,0,0,-1,916,673,0,0
-301,351,0,0,0,0,0,0,0,0,0,-1,923,673,0,0
-294,351,0,0,0,0,0,0,0,0,0,-1,930,673,0,0
-287,351,0,0,0,0,0,0,0,0,0,-1,937,673,0,0
-280,351,0,0,0,0,0,0,0,0,0,-1,944,673,0,0
-273,351,0,0,0,0,0,0,0,0,0,-1,951,673,0,0
-266,351,0,0,0,0,0,0,0,0,0,-1,958,673,0,0
-259,351,0,0,0,0,0,0,0,0,0,-1,965,673,0,0
-252,351,0,0,0,0,0,0,0,0,0,-1,972,673,0,0
-245,351,0,0,0,0,0,0,0,0,0,-1,979,673,0,0
-238,351,0,0,0,0,0,0,0,0,0,-1,986,673,0,0
-231,351,0,0,0,0,0,0,0,0,0,-1,993,673,0,0
-224,351,0,0,0,0,0,0,0,0,0,-1,1000,673,0,0
-217,351,0,0,0,0,0,0,0,0,0,-1,1007,673,0,0
-210,351,0,0,0,0,0,0,0,0,0,-1,1014,673,0,0
-203,351,0,0,0,0,0,0,0,0,0,-1,1021,673,0,0
-196,351,0,0,0,0,0,0,0,0,0,-1,1028,673,0,0
-189,351,0,0,0,0,0,0,0,0,0,-1,1035,673,0,0
-182,351,0,0,0,0,0,0,0,0,0,-1,1042,673,0,0
-175,351,0,0,0,0,0,0,0,0,0,-1,1049,673,0,0
-168,351,0,0,0,0,0,0,0,0,0,-1,1056,673,0,0
-161,351,0,0,0,0,0,0,0,0,0,-1,1063,673,0,0
-154,351,0,0,0,0,0,0,0,0,0,-1,1070,673,0,0
-147,351,0,0,0,0,0,0,0,0,0,-1,1077,673,0,0
-140,351,0,0,0,0,0,0,0,0,0,-1,1084,673,0,0
-133,351,0,0,0,0,0,0,0,0,0,-1,1091,673,0,0
-126,351,0,0,0,0,0,0,0,0,0,-1,1098,673,0,0
-119,351,0,0,0,0,0,0,0,0,0,-1,1105,673,0,0
-112,351,0,0,0,0,0,0,0,0,0,-1,1112,673,0,0
-105,351,0,0,0,0,0,0,0,0,0,-1,1119,673,0,0
-98,351,0,0,0,0,0,0,0,0,0,-1,1126,673,0,0
-91,351,0,0,0,0,0,0,0,0,0,-1,1133,673,0,0
-84,351,0,0,0,0,0,0,0,0,0,-1,1140,673,0,0
-77,351,0,0,0,0,0,0,0,0,0,-1,1147,673,0,0
-70,351,0,0,0,0,0,0,0,0,0,-1,1154,673,0,0
-63,351,0,0,0,0,0,0,0,0,0,-1,1161,673,0,0
-56,351,0,0,0,0,0,0,0,0,0,-1,1168,673,0,0
-49,351,0,0,0,0,0,0,0,0,0,-1,1175,673,0,0
-42,351,0,0,0,0,0,0,0,0,0,-1,1182,673,0,0
-35,351,0,0,0,0,0,0,0,0,0,-1,1189,673,0,0
-28,351,0,0,0,0,0,0,0,0,0,-1,1196,673,0,0
-21,351,0,0,0,0,0,0,0,0,0,-1,1203,673,0,0
-14,351,0,0,0,0,0,0,0,0,0,-1,1210,673,0,0
-7,351,0,0,0,0,0,0,0,0,0,-1,1217,673,0,0
0,351,0,0,0,0,0,0,0,0,0,-1,1224,673,0,0
7,351,0,0,0,0,0,0,0,0,0,-1,1231,673,0,0
14,351,0,0,0,0,0,0,0,0,0,-1,1238,673,0,0
21,351,0,0,0,0,0,0,0,0,0,-1,1245,673,0,0
28,351,0,0,0,0,0,0,0,0,0,-1,1252,673,0,0
35,351,0,0,0,0,0,0,0,0,0,-1,1259,673,0,0
42,351,0,0,0,0,0,0,0,0,0,-1,1266,673,0,0
49,351,0,0,0,0,0,0,0,0,0,-1,1273,673,0,0
56,351,0,0,0,0,0,0,0,0,0,-1,1280,673,0,0
63,351,0,0,0,0,0,0,0,0,0,-1,1287,673,0,0
70,351,0,0,0,0,0,0,0,0,0,-1,1294,673,0,0
77,351,0,0,0,0,0,0,0,0,0,-1,1301,673,0,0
84,351,0,0,0,0,0,0,0,0,0,-1,1308,673,0,0
91,351,0,0,0,0,0,0,0,0,0,-1,1315,673,0,0
98,351,0,0,0,0,0,0,0,0,0,-1,1322,673,0,0
105,351,0,0,0,0,0,0,0,0,0,-1,1329,673,0,0
112,351,0,0,0,0,0,0,0,0,0,-1,1336,673,0,0
119,351,0,0,0,0,0,0,0,0,0,-1,1343,673,0,0
126,351,0,0,0,0,0,0,0,0,0,-1,1350,673,0,0
133,351,0,0,0,0,0,0,0,0,0,-1,1357,673,0,0
140,351,0,0,0,0,0,0,0,0,0,-1,1364,673,0,0
147,351,0,0,0,0,0,0,0,0,0,-1,1371,673,0,0
154,351,0,0,0,0,0,0,0,0,0,-1,1378,673,0,0
161,351,0,0,0,0,0,0,0,0,0,-1,1385,673,0,0
168,351,0,0,0,0,0,0,0,0,0,-1,1392,673,0,0
175,351,0,0,0,0,0,0,0,0,0,-1,1399,673,0,0
182,351,0,0,0,0,0,0,0,0,0,-1,1406,673,0,0
189,351,0,0,0,0,0,0,0,0,0,-1,1413,673,0,0
196,351,0,0,0,0,0,0,0,0,0,-1,1420,673,0,0
203,351,0,0,0,0,0,0,0,0,0,-1,1427,673,0,0
210,351,0,0,0,0,0,0,0,0,0,-1,1434,673,0,0
217,351,0,0,0,0,0,0,0,0,0,-1,1441,673,0,0
224,351,0,0,0,0,0,0,0,0,0,-1,1448,673,0,0
231,351,0,0,0,0,0,0,0,0,0,-1,1455,673,0,0
238,351,0,0,0,0,0,0,0,0,0,-1,1462,673,0,0
245,351,0,0,0,0,0,0,0,0,0,-1,1469,673,0,0
252,351,0,0,0,0,0,0,0,0,0,-1,1476,673,0,0
259,351,0,0,0,0,0,0,0,0,0,-1,1483,673,0,0
266,351,0,0,0,0,0,0,0,0,0,-1,1490,673,0,0
273,351,0,0,0,0,0,0,0,0,0,-1,1497,673,0,0
280,351,0,0,0,0,0,0,0,0,0,-1,1504,673,0,0
287,351,0,0,0,0,0,0,0,0,0,-1,1511,673,0,0
294,351,0,0,0,0,0,0,0,0,0,-1,1518,673,0,0
301,351,0,0,0,0,0,0,0,0,0,-1,1525,673,0,0
308,351,0,0,0,0,0,0,0,0,0,-1,1532,673,0,0
315,351,0,0,0,0,0,0,0,0,0,-1,1539,673,0,0
322,351,0,0,0,0,0,0,0,0,0,-1,1546,673,0,0
329,351,0,0,0,0,0,0,0,0,0,-1,1553,673,0,0
336,351,0,0,0,0,0,0,0,0,0,-1,1560,673,0,0
343,351,0,0,0,0,0,0,0,0,0,-1,1567,673,0,0
350,351,0,0,0,0,0,0,0,0,0,-1,1574,673,0,0
357,351,0,0,0,0,0,0,0,0,0,-1,1581,673,0,0
364,351,0,0,0,0,0,0,0,0,0,-1,1588,673,0,0
371,351,0,0,0,0,0,0,0,0,0,-1,1595,673,0,0
378,351,0,0,0,0,0,0,0,0,0,-1,1602,673,0,0
385,351,0,0,0,0,0,0,0,0,0,-1,1609,673,0,0
392,351,0,0,0,0,0,0,0,0,0,-1,1616,673,0,0
399,351,0,0,0,0,0,0,0,0,0,-1,1623,673,0,0
406,351,0,0,0,0,0,0,0,0,0,-1,1630,673,0,0
413,351,0,0,0,0,0,0,0,0,0,-1,1637,673,0,0
420,351,0,0,0,0,0,0,0,0,0,-1,1644,673,0,0
427,351,0,0,0,0,0,0,0,0,0,-1,1651,673,0,0
434,351,0,0,0,0,0,0,0,0,0,-1,1658,673,0,0
441,351,0,0,0,0,0,0,0,0,0,-1,1665,673,0,0
448,351,0,0,0,0,0,0,0,0,0,-1,1672,673,0,0
455,351,0,0,0,0,0,0,0,0,0,-1,1679,673,0,0
462,351,0,0,0,0,0,0,0,0,0,-1,1686,673,0,0
469,351,0,0,0,0,0,0,0,0,0,-1,1693,673,0,0
476,351,0,0,0,0,0,0,0,0,0,-1,1700,673,0,0
483,351,0,0,0,0,0,0,0,0,0,-1,1707,673,0,0
490,351,0,0,0,0,0,0,0,0,0,-1,1714,673,0,0
497,351,0,0,0,0,0,0,0,0,0,-1,1721,673,0,0
504,351,10.8842,1.61615,0,0,0,0,0,0,0,-1,1728,673,10.8842,-1.61618
511,351,15.4548,0.0236816,0,0,0,0,0,0,0,-1,1735,673,15.4549,-0.0236664
518,351,16.7448,2.49268,0,0,0,0,0,0,0,-1,1742,673,16.7448,-2.49269
525,351,16.0701,3.43225,0,0,0,0,0,0,0,-1,1749,673,16.07,-3.43227
532,351,32.3822,3.03021,0,0,0,0,0,0,0,-1,1756,673,32.3822,-3.03019
539,351,15.3387,3.54486,0,0,0,0,0,0,0,-1,1763,673,15.3387,-3.54485
546,351,13.9387,4.59357,0,0,0,0,0,0,0,-1,1770,673,13.9388,-4.59359
553,351,12.0682,2.02832,0,0,0,0,0,0,0,-1,1777,673,12.0683,-2.02831
560,351,12.0173,0.55304,0,0,0,0,0,0,0,-1,1784,673,12.0174,-0.553028
567,351,10.7827,0.130188,0,0,0,0,0,0,0,-1,1791,673,10.7827,-0.130183
574,351,13.405,-1.09204,0,0,0,0,0,0,0,-1,1798,673,13.405,1.09207
581,351,15.2351,-3.06049,0,0,0,0,0,0,0,-1,1805,673,15.2351,3.06046
588,351,27.8502,-9.26318,0,0,0,0,0,0,0,-1,1812,673,27.8503,9.2632
595,351,28.1492,-8.53265,0.000744841,0.00121524,0.000199622,0.00128853,0.000671547,1.21891,0.000744155,0.0490215,1819,673,28.1492,8.53268
602,351,28.1229,-7.6731,0.000705494,0.00111026,0.000172946,0.00117409,0.000641665,1.21723,0.00067884,0.0181484,1826,673,28.1229,7.67312
609,351,28.1147,-6.99396,0.000956315,0.0011103,0.000376105,0.00141721,0.000649401,0.886356,0.000819178,0.0175416,1833,673,28.1148,6.99398
616,351,28.0903,-6.31372,0.00123464,0.00120993,0.000630606,0.00185301,0.000591561,0.775602,0.00109289,0.0145514,1840,673,28.0903,6.3137
623,351,28.1022,-5.65161,0.00144798,0.00142741,0.00092859,0.00236634,0.000509051,0.77986,0.00143823,0.0156965,1847,673,28.1022,5.65164
630,351,28.0574,-5.00232,0.00139144,0.00173115,0.00119342,0.00276674,0.000355846,0.856086,0.00173806,0.0275204,1854,673,28.0573,5.00233
637,351,28,-4.289,0.00120583,0.00213639,0.00144303,0.00318729,0.000154926,0.941352,0.00207515,0.0312116,1861,673,28,4.28899
644,351,27.9535,-3.59473,0.000738483,0.00258947,0.0016218,0.00353127,-0.00020331,1.04468,0.00242479,0.0213023,1868,673,27.9535,3.59475
651,351,27.9585,-2.88464,-0.000126675,0.00321481,0.00175873,0.00396987,-0.000881736,1.16527,0.00298424,0.0169428,1875,673,27.9585,2.88463
658,351,27.8632,-2.14178,-0.00164055,0.00385398,0.00164875,0.00431075,-0.00209732,1.30053,0.00377256,0.0363586,1882,673,27.8632,2.14179
665,351,27.6484,-1.29065,0,0,0,0,0,0,0,-1,1889,673,27.6485,1.29065
672,351,26.6923,-1.20514,0,0,0,0,0,0,0,-1,1896,673,26.6923,1.20516
679,351,14.1252,1.85681,0,0,0,0,0,0,0,-1,1903,673,14.1253,-1.85682
686,351,13.0294,2.1189,0,0,0,0,0,0,0,-1,1910,673,13.0294,-2.11892
693,351,13.5187,2.34595,0,0,0,0,0,0,0,-1,1917,673,13.5187,-2.34596
700,351,14.5629,-2.40173,0,0,0,0,0,0,0,-1,1924,673,14.5629,2.40172
707,351,0,0,0,0,0,0,0,0,0,-1,1931,673,0,0
714,351,0,0,0,0,0,0,0,0,0,-1,1938,673,0,0
721,351,0,0,0,0,0,0,0,0,0,-1,1945,673,0,0
728,351,0,0,0,0,0,0,0,0,0,-1,1952,673,0,0
735,351,0,0,0,0,0,0,0,0,0,-1,1959,673,0,0
742,351,0,0,0,0,0,0,0,0,0,-1,1966,673,0,0
749,351,0,0,0,0,0,0,0,0,0,-1,1973,673,0,0
756,351,0,0,0,0,0,0,0,0,0,-1,1980,673,0,0
763,351,0,0,0,0,0,0,0,0,0,-1,1987,673,0,0
770,351,0,0,0,0,0,0,0,0,0,-1,1994,673,0,0
777,351,0,0,0,0,0,0,0,0,0,-1,2001,673,0,0
784,351,0,0,0,0,0,0,0,0,0,-1,2008,673,0,0
791,351,0,0,0,0,0,0,0,0,0,-1,2015,673,0,0
798,351,0,0,0,0,0,0,0,0,0,-1,2022,673,0,0
805,351,0,0,0,0,0,0,0,0,0,-1,2029,673,0,0
812,351,0,0,0,0,0,0,0,0,0,-1,2036,673,0,0
-700,344,0,0,0,0,0,0,0,0,0,-1,524,680,0,0
-693,344,0,0,0,0,0,0,0,0,0,-1,531,680,0,0
-686,344,0,0,0,0,0,0,0,0,0,-1,538,680,0,0
-679,344,0,0,0,0,0,0,0,0,0,-1,545,680,0,0
-672,344,0,0,0,0,0,0,0,0,0,-1,552,680,0,0
-665,344,0,0,0,0,0,0,0,0,0,-1,559,680,0,0
-658,344,0,0,0,0,0,0,0,0,0,-1,566,680,0,0
-651,344,0,0,0,0,0,0,0,0,0,-1,573,680,0,0
-644,344,0,0,0,0,0,0,0,0,0,-1,580,680,0,0
-637,344,0,0,0,0,0,0,0,0,0,-1,587,680,0,0
-630,344,0,0,0,0,0,0,0,0,0,-1,594,680,0,0
-623,344,0,0,0,0,0,0,0,0,0,-1,601,680,0,0
-616,344,0,0,0,0,0,0,0,0,0,-1,608,680,0,0
-609,344,0,0,0,0,0,0,0,0,0,-1,615,680,0,0
-602,344,0,0,0,0,0,0,0,0,0,-1,622,680,0,0
-595,344,0,0,0,0,0,0,0,0,0,-1,629,680,0,0
-588,344,-9.27826,1.47302,0,0,0,0,0,0,0,-1,636,680,-9.27829,-1.473
-581,344,-10.0098,1.71753,0,0,0,0,0,0,0,-1,643,680,-10.0098,-1.7175
-574,344,-10.2208,3.04871,0,0,0,0,0,0,0,-1,650,680,-10.2208,-3.04869
-567,344,-14.3779,2.29016,0,0,0,0,0,0,0,-1,657,680,-14.3779,-2.29014
-560,344,-14.1238,1.8374,0,0,0,0,0,0,0,-1,664,680,-14.1238,-1.83743
-553,344,-14.7884,2.00116,0,0,0,0,0,0,0,-1,671,680,-14.7884,-2.00115
-546,344,-17.4192,0.157654,0,0,0,0,0,0,0,-1,678,680,-17.4192,-0.157635
-539,344,-16.7995,-3.11017,0,0,0,0,0,0,0,-1,685,680,-16.7995,3.11014
-532,344,-16.4976,-4.01172,-0.00250959,0.00541866,-0.000688434,0.00547799,-0.00256892,-1.48482,0.00474601,0.0487171,692,680,-16.4976,4.01171
-525,344,-16.8206,-4.4693,-0.00145412,0.00400551,-0.000597849,0.00407021,-0.00151882,-1.46299,0.00333702,0.0461103,699,680,-16.8205,4.46927
-518,344,-16.7709,-5.21338,-0.000567949,0.00283256,-0.000475563,0.00289781,-0.000633205,-1.43443,0.0021739,0.0208154,706,680,-16.7709,5.21338
-511,344,-16.773,-5.88116,0.000157024,0.00188979,-0.000341215,0.00195456,9.22531e-05,-1.3832,0.0012734,0.0177955,713,680,-16.773,5.88116
-504,344,-16.7863,-6.56421,0.00078292,0.00108081,-0.000237547,0.00121224,0.000651484,-1.06542,0.000700543,0.0186424,720,680,-16.7863,6.56422
-497,344,-16.8416,-7.23688,0.00133854,0.000479564,-0.00019545,0.00138092,0.000437183,-0.213535,0.000814957,0.0167109,727,680,-16.8416,7.2369
-490,344,-16.861,-7.87,0.00179735,3.6643e-05,-0.000237059,0.0018287,5.28409e-06,-0.131519,0.00121738,0.0149278,734,680,-16.861,7.86999
-483,344,-16.8467,-8.49988,0.00231486,-0.000189041,-0.00040272,0.00237804,-0.000252219,-0.15561,0.00167577,0.0146358,741,680,-16.8467,8.49986
-476,344,-16.8864,-9.15472,0.00270537,-0.00026118,-0.00065425,0.00284325,-0.000399062,-0.207708,0.00204156,0.0146251,748,680,-16.8864,9.1547
-469,344,-16.8923,-9.83929,0.00319489,-3.58914e-05,-0.00112925,0.00355046,-0.000391462,-0.305046,0.00250767,0.0195207,755,680,-16.8923,9.8393
-462,344,-16.8783,-10.4778,0,0,0,0,0,0,0,-1,762,680,-16.8783,10.4778
-455,344,-12.1653,-7.99176,0,0,0,0,0,0,0,-1,769,680,-12.1653,7.99174
-448,344,-5.67657,-2.72864,0,0,0,0,0,0,0,-1,776,680,-5.6766,2.72863
-441,344,-5.09229,-2.34167,0,0,0,0,0,0,0,-1,783,680,-5.09229,2.34168
-434,344,-4.28778,-2.08807,0,0,0,0,0,0,0,-1,790,680,-4.28778,2.08809
-427,344,-3.06506,-1.45404,0,0,0,0,0,0,0,-1,797,680,-3.06505,1.45402
-420,344,-1.96582,-1.57574,0,0,0,0,0,0,0,-1,804,680,-1.96579,1.57574
-413,344,-0.817993,-1.4751,0,0,0,0,0,0,0,-1,811,680,-0.818017,1.47511
-406,344,-0.00714111,-1.25189,0,0,0,0,0,0,0,-1,818,680,-0.00714956,1.25191
-399,344,0.240051,-1.75769,0,0,0,0,0,0,0,-1,825,680,0.240079,1.75767
-392,344,1.11353,-2.05615,0,0,0,0,0,0,0,-1,832,680,1.11351,2.05616
-385,344,0,0,0,0,0,0,0,0,0,-1,839,680,0,0
-378,344,0,0,0,0,0,0,0,0,0,-1,846,680,0,0
-371,344,0,0,0,0,0,0,0,0,0,-1,853,680,0,0
-364,344,0,0,0,0,0,0,0,0,0,-1,860,680,0,0
-357,344,0,0,0,0,0,0,0,0,0,-1,867,680,0,0
-350,344,0,0,0,0,0,0,0,0,0,-1,874,680,0,0
-343,344,0,0,0,0,0,0,0,0,0,-1,881,680,0,0
-336,344,0,0,0,0,0,0,0,0,0,-1,888,680,0,0
-329,344,0,0,0,0,0,0,0,0,0,-1,895,680,0,0
-322,344,0,0,0,0,0,0,0,0,0,-1,902,680,0,0
-315,344,0,0,0,0,0,0,0,0,0,-1,909,680,0,0
-308,344,0,0,0,0,0,0,0,0,0,-1,916,680,0,0
-301,344,0,0,0,0,0,0,0,0,0,-1,923,680,0,0
-294,344,0,0,0,0,0,0,0,0,0,-1,930,680,0,0
-287,344,0,0,0,0,0,0,0,0,0,-1,937,680,0,0
-280,344,0,0,0,0,0,0,0,0,0,-1,944,680,0,0
-273,344,0,0,0,0,0,0,0,0,0,-1,951,680,0,0
-266,344,0,0,0,0,0,0,0,0,0,-1,958,680,0,0
-259,344,0,0,0,0,0,0,0,0,0,-1,965,680,0,0
-252,344,0,0,0,0,0,0,0,0,0,-1,972,680,0,0
-245,344,0,0,0,0,0,0,0,0,0,-1,979,680,0,0
-238,344,0,0,0,0,0,0,0,0,0,-1,986,680,0,0
-231,344,0,0,0,0,0,0,0,0,0,-1,993,680,0,0
-224,344,0,0,0,0,0,0,0,0,0,-1,1000,680,0,0
-217,344,0,0,0,0,0,0,0,0,0,-1,1007,680,0,0
-210,344,0,0,0,0,0,0,0,0,0,-1,1014,680,0,0
-203,344,0,0,0,0,0,0,0,0,0,-1,1021,680,0,0
-196,344,0,0,0,0,0,0,0,0,0,-1,1028,680,0,0
-189,344,0,0,0,0,0,0,0,0,0,-1,1035,680,0,0
-182,344,0,0,0,0,0,0,0,0,0,-1,1042,680,0,0
-175,344,0,0,0,0,0,0,0,0,0,-1,1049,680,0,0
-168,344,0,0,0,0,0,0,0,0,0,-1,1056,680,0,0
-161,344,0,0,0,0,0,0,0,0,0,-1,1063,680,0,0
-154,344,0,0,0,0,0,0,0,0,0,-1,1070,680,0,0
-147,344,0,0,0,0,0,0,0,0,0,-1,1077,680,0,0
-140,344,0,0,0,0,0,0,0,0,0,-1,1084,680,0,0
-133,344,0,0,0,0,0,0,0,0,0,-1,1091,680,0,0
-126,344,0,0,0,0,0,0,0,0,0,-1,1098,680,0,0
-119,344,0,0,0,0,0,0,0,0,0,-1,1105,680,0,0
-112,344,0,0,0,0,0,0,0,0,0,-1,1112,680,0,0
-105,344,0,0,0,0,0,0,0,0,0,-1,1119,680,0,0
-98,344,0,0,0,0,0,0,0,0,0,-1,1126,680,0,0
-91,344,0,0,0,0,0,0,0,0,0,-1,1133,680,0,0
-84,344,0,0,0,0,0,0,0,0,0,-1,1140,680,0,0
-77,344,0,0,0,0,0,0,0,0,0,-1,1147,680,0,0
-70,344,0,0,0,0,0,0,0,0,0,-1,1154,680,0,0
-63,344,0,0,0,0,0,0,0,0,0,-1,1161,680,0,0
-56,344,0,0,0,0,0,0,0,0,0,-1,1168,680,0,0
-49,344,0,0,0,0,0,0,0,0,0,-1,1175,680,0,0
-42,344,0,0,0,0,0,0,0,0,0,-1,1182,680,0,0
-35,344,0,0,0,0,0,0,0,0,0,-1,1189,680,0,0
-28,344,0,0,0,0,0,0,0,0,0,-1,1196,680,0,0
-21,344,0,0,0,0,0,0,0,0,0,-1,1203,680,0,0
-14,344,0,0,0,0,0,0,0,0,0,-1,1210,680,0,0
-7,344,0,0,0,0,0,0,0,0,0,-1,1217,680,0,0
0,344,0,0,0,0,0,0,0,0,0,-1,1224,680,0,0
7,344,0,0,0,0,0,0,0,0,0,-1,1231,680,0,0
14,344,0,0,0,0,0,0,0,0,0,-1,1238,680,0,0
21,344,0,0,0,0,0,0,0,0,0,-1,1245,680,0,0
28,344,0,0,0,0,0,0,0,0,0,-1,1252,680,0,0
35,344,0,0,0,0,0,0,0,0,0,-1,1259,680,0,0
42,344,0,0,0,0,0,0,0,0,0,-1,1266,680,0,0
49,344,0,0,0,0,0,0,0,0,0,-1,1273,680,0,0
56,344,0,0,0,0,0,0,0,0,0,-1,1280,680,0,0
63,344,0,0,0,0,0,0,0,0,0,-1,1287,680,0,0
70,344,0,0,0,0,0,0,0,0,0,-1,1294,680,0,0
77,344,0,0,0,0,0,0,0,0,0,-1,1301,680,0,0
84,344,0,0,0,0,0,0,0,0,0,-1,1308,680,0,0
91,344,0,0,0,0,0,0,0,0,0,-1,1315,680,0,0
98,344,0,0,0,0,0,0,0,0,0,-1,1322,680,0,0
105,344,0,0,0,0,0,0,0,0,0,-1,1329,680,0,0
112,344,0,0,0,0,0,0,0,0,0,-1,1336,680,0,0
119,344,0,0,0,0,0,0,0,0,0,-1,1343,680,0,0
126,344,0,0,0,0,0,0,0,0,0,-1,1350,680,0,0
133,344,0,0,0,0,0,0,0,0,0,-1,1357,680,0,0
140,344,0,0,0,0,0,0,0,0,0,-1,1364,680,0,0
147,344,0,0,0,0,0,0,0,0,0,-1,1371,680,0,0
154,344,0,0,0,0,0,0,0,0,0,-1,1378,680,0,0
161,344,0,0,0,0,0,0,0,0,0,-1,1385,680,0,0
168,344,0,0,0,0,0,0,0,0,0,-1,1392,680,0,0
175,344,0,0,0,0,0,0,0,0,0,-1,1399,680,0,0
182,344,0,0,0,0,0,0,0,0,0,-1,1406,680,0,0
189,344,0,0,0,0,0,0,0,0,0,-1,1413,680,0,0
196,344,0,0,0,0,0,0,0,0,0,-1,1420,680,0,0
203,344,0,0,0,0,0,0,0,0,0,-1,1427,680,0,0
210,344,0,0,0,0,0,0,0,0,0,-1,1434,680,0,0
217,344,0,0,0,0,0,0,0,0,0,-1,1441,680,0,0
224,344,0,0,0,0,0,0,0,0,0,-1,1448,680,0,0
231,344,0,0,0,0,0,0,0,0,0,-1,1455,680,0,0
238,344,0,0,0,0,0,0,0,0,0,-1,1462,680,0,0
245,344,0,0,0,0,0,0,0,0,0,-1,1469,680,0,0
252,344,0,0,0,0,0,0,0,0,0,-1,1476,680,0,0
259,344,0,0,0,0,0,0,0,0,0,-1,1483,680,0,0
266,344,0,0,0,0,0,0,0,0,0,-1,1490,680,0,0
273,344,0,0,0,0,0,0,0,0,0,-1,1497,680,0,0
280,344,0,0,0,0,0,0,0,0,0,-1,1504,680,0,0
287,344,0,0,0,0,0,0,0,0,0,-1,1511,680,0,0
294,344,0,0,0,0,0,0,0,0,0,-1,1518,680,0,0
301,344,0,0,0,0,0,0,0,0,0,-1,1525,680,0,0
308,344,0,0,0,0,0,0,0,0,0,-1,1532,680,0,0
315,344,0,0,0,0,0,0,0,0,0,-1,1539,680,0,0
322,344,0,0,0,0,0,0,0,0,0,-1,1546,680,0,0
329,344,0,0,0,0,0,0,0,0,0,-1,1553,680,0,0
336,344,0,0,0,0,0,0,0,0,0,-1,1560,680,0,0
343,344,0,0,0,0,0,0,0,0,0,-1,1567,680,0,0
350,344,0,0,0,0,0,0,0,0,0,-1,1574,680,0,0
357,344,0,0,0,0,0,0,0,0,0,-1,1581,680,0,0
364,344,0,0,0,0,0,0,0,0,0,-1,1588,680,0,0
371,344,0,0,0,0,0,0,0,0,0,-1,1595,680,0,0
378,344,0,0,0,0,0,0,0,0,0,-1,1602,680,0,0
385,344,0,0,0,0,0,0,0,0,0,-1,1609,680,0,0
392,344,0,0,0,0,0,0,0,0,0,-1,1616,680,0,0
399,344,0,0,0,0,0,0,0,0,0,-1,1623,680,0,0
406,344,0,0,0,0,0,0,0,0,0,-1,1630,680,0,0
413,344,0,0,0,0,0,0,0,0,0,-1,1637,680,0,0
420,344,0,0,0,0,0,0,0,0,0,-1,1644,680,0,0
427,344,0,0,0,0,0,0,0,0,0,-1,1651,680,0,0
434,344,0,0,0,0,0,0,0,0,0,-1,1658,680,0,0
441,344,0,0,0,0,0,0,0,0,0,-1,1665,680,0,0
448,344,0,0,0,0,0,0,0,0,0,-1,1672,680,0,0
455,344,0,0,0,0,0,0,0,0,0,-1,1679,680,0,0
462,344,0,0,0,0,0,0,0,0,0,-1,1686,680,0,0
469,344,0,0,0,0,0,0,0,0,0,-1,1693,680,0,0
476,344,0,0,0,0,0,0,0,0,0,-1,1700,680,0,0
483,344,0,0,0,0,0,0,0,0,0,-1,1707,680,0,0
490,344,0,0,0,0,0,0,0,0,0,-1,1714,680,0,0
497,344,0,0,0,0,0,0,0,0,0,-1,1721,680,0,0
504,344,0,0,0,0,0,0,0,0,0,-1,1728,680,0,0
511,344,15.4819,0.452637,0,0,0,0,0,0,0,-1,1735,680,15.4819,-0.452656
518,344,17.1357,2.31207,0,0,0,0,0,0,0,-1,1742,680,17.1358,-2.31207
525,344,31.5201,2.6217,0,0,0,0,0,0,0,-1,1749,680,31.5201,-2.62168
532,344,31.9766,2.61047,0,0,0,0,0,0,0,-1,1756,680,31.9765,-2.6105
539,344,32.4379,2.65314,0,0,0,0,0,0,0,-1,1763,680,32.4378,-2.65316
546,344,14.6722,4.30243,0,0,0,0,0,0,0,-1,1770,680,14.6722,-4.30241
553,344,14.8136,4.35681,0,0,0,0,0,0,0,-1,1777,680,14.8136,-4.35679
560,344,11.9363,2.14185,0,0,0,0,0,0,0,-1,1784,680,11.9362,-2.14182
567,344,11.397,0.925842,0,0,0,0,0,0,0,-1,1791,680,11.397,-0.92583
574,344,10.0004,0.504639,0,0,0,0,0,0,0,-1,1798,680,10.0004,-0.504645
581,344,13.6709,-0.969604,0,0,0,0,0,0,0,-1,1805,680,13.6709,0.969629
588,344,16.1447,-3.15948,0,0,0,0,0,0,0,-1,1812,680,16.1447,3.15946
595,344,28.6963,-8.58099,0,0,0,0,0,0,0,-1,1819,680,28.6963,8.58101
602,344,28.9696,-7.65021,0.000502666,0.00117852,6.89446e-05,0.00118548,0.000495705,1.47017,0.000687487,0.0422899,1826,680,28.9696,7.65018
609,344,28.8149,-6.94196,0.000838884,0.00104146,0.000244958,0.00120525,0.0006751,0.981443,0.000697526,0.0156853,1833,680,28.8149,6.94199
616,344,28.7568,-6.27332,0.00110225,0.00100375,0.00046134,0.00151696,0.000589036,0.732224,0.000883071,0.0212609,1840,680,28.7568,6.27333
623,344,28.7618,-5.61835,0.00126086,0.00111299,0.000680236,0.00187117,0.000502685,0.731265,0.00111821,0.019959,1847,680,28.7618,5.61835
630,344,28.7135,-4.97046,0.00116192,0.00132371,0.000890379,0.00213686,0.000348769,0.830698,0.00132372,0.0271971,1854,680,28.7136,4.97047
637,344,28.6998,-4.26697,0.000894728,0.00164593,0.00106735,0.00240184,0.000138817,0.954582,0.00155702,0.0261286,1861,680,28.6998,4.26695
644,344,28.686,-3.55701,0.000364133,0.00200802,0.00117053,0.00261637,-0.000244217,1.0915,0.00183109,0.0164948,1868,680,28.6861,3.55702
651,344,28.6472,-2.88184,-0.000519564,0.00249143,0.00121271,0.00291912,-0.000947247,1.23175,0.002327,0.0109375,1875,680,28.6472,2.88181
658,344,28.6163,-2.11316,-0.00192821,0.00304705,0.0010859,0.00327372,-0.00215488,1.365,0.00315632,0.0231764,1882,680,28.6163,2.11316
665,344,28.4579,-1.44348,-0.00394581,0.00362589,0.000744376,0.00369838,-0.00401829,1.47372,0.0044565,0.0385041,1889,680,28.4579,1.4435
672,344,28.4972,-0.820557,0,0,0,0,0,0,0,-1,1896,680,28.4972,0.820561
679,344,28.2183,-0.882141,0,0,0,0,0,0,0,-1,1903,680,28.2183,0.88215
686,344,15.024,1.82709,0,0,0,0,0,0,0,-1,1910,680,15.024,-1.82706
693,344,12.4362,-1.42346,0,0,0,0,0,0,0,-1,1917,680,12.4361,1.42348
700,344,17.5396,2.61206,0,0,0,0,0,0,0,-1,1924,680,17.5396,-2.61204
707,344,18.5829,3.29352,0,0,0,0,0,0,0,-1,1931,680,18.5828,-3.2935
714,344,0,0,0,0,0,0,0,0,0,-1,1938,680,0,0
721,344,0,0,0,0,0,0,0,0,0,-1,1945,680,0,0
728,344,0,0,0,0,0,0,0,0,0,-1,1952,680,0,0
735,344,0,0,0,0,0,0,0,0,0,-1,1959,680,0,0
742,344,0,0,0,0,0,0,0,0,0,-1,1966,680,0,0
749,344,0,0,0,0,0,0,0,0,0,-1,1973,680,0,0
756,344,0,0,0,0,0,0,0,0,0,-1,1980,680,0,0
763,344,0,0,0,0,0,0,0,0,0,-1,1987,680,0,0
770,344,0,0,0,0,0,0,0,0,0,-1,1994,680,0,0
777,344,0,0,0,0,0,0,0,0,0,-1,2001,680,0,0
784,344,0,0,0,0,0,0,0,0,0,-1,2008,680,0,0
791,344,0,0,0,0,0,0,0,0,0,-1,2015,680,0,0
798,344,0,0,0,0,0,0,0,0,0,-1,2022,680,0,0
805,344,0,0,0,0,0,0,0,0,0,-1,2029,680,0,0
812,344,0,0,0,0,0,0,0,0,0,-1,2036,680,0,0
-700,337,0,0,0,0,0,0,0,0,0,-1,524,687,0,0
-693,337,0,0,0,0,0,0,0,0,0,-1,531,687,0,0
-686,337,0,0,0,0,0,0,0,0,0,-1,538,687,0,0
-679,337,0,0,0,0,0,0,0,0,0,-1,545,687,0,0
-672,337,0,0,0,0,0,0,0,0,0,-1,552,687,0,0
-665,337,0,0,0,0,0,0,0,0,0,-1,559,687,0,0
-658,337,0,0,0,0,0,0,0,0,0,-1,566,687,0,0
-651,337,0,0,0,0,0,0,0,0,0,-1,573,687,0,0
-644,337,0,0,0,0,0,0,0,0,0,-1,580,687,0,0
-637,337,0,0,0,0,0,0,0,0,0,-1,587,687,0,0
-630,337,0,0,0,0,0,0,0,0,0,-1,594,687,0,0
-623,337,0,0,0,0,0,0,0,0,0,-1,601,687,0,0
-616,337,0,0,0,0,0,0,0,0,0,-1,608,687,0,0
-609,337,0,0,0,0,0,0,0,0,0,-1,615,687,0,0
-602,337,0,0,0,0,0,0,0,0,0,-1,622,687,0,0
-595,337,0,0,0,0,0,0,0,0,0,-1,629,687,0,0
-588,337,-10.8413,1.27863,0,0,0,0,0,0,0,-1,636,687,-10.8413,-1.27861
-581,337,-11.2157,1.31567,0,0,0,0,0,0,0,-1,643,687,-11.2157,-1.3157
-574,337,-6.03339,2.0321,0,0,0,0,0,0,0,-1,650,687,-6.03337,-2.03213
-567,337,-13.8102,1.56787,0,0,0,0,0,0,0,-1,657,687,-13.8102,-1.56789
-560,337,-15.5435,2.34247,0,0,0,0,0,0,0,-1,664,687,-15.5435,-2.34247
-553,337,-18.0128,1.12927,0,0,0,0,0,0,0,-1,671,687,-18.0128,-1.12926
-546,337,-17.5491,-1.98364,0,0,0,0,0,0,0,-1,678,687,-17.5491,1.98363
-539,337,-17.2926,-3.00458,-0.00288747,0.00559864,-0.000497368,0.00562769,-0.00291652,-1.51245,0.0050151,0.049045,685,687,-17.2926,3.00455
-532,337,-17.2876,-3.88074,-0.00201326,0.00422365,-0.000392542,0.00424826,-0.00203787,-1.50819,0.00370333,0.0362881,692,687,-17.2876,3.88072
-525,337,-17.4453,-4.54742,-0.00116417,0.00296333,-0.000230803,0.00297619,-0.00117703,-1.51511,0.00247173,0.0180205,699,687,-17.4453,4.54743
-518,337,-17.4503,-5.2099,-0.000435638,0.00192033,-5.92931e-05,0.00192182,-0.000437129,-1.54565,0.00144907,0.0230462,706,687,-17.4502,5.20992
-511,337,-17.4611,-5.8595,0.000227921,0.00105924,8.97759e-05,0.00106882,0.000218336,1.46444,0.000652071,0.0241996,713,687,-17.4611,5.85949
-504,337,-17.462,-6.55396,0.000818876,0.000355141,0.000193196,0.000888815,0.000285202,0.347335,0.000524019,0.0243733,720,687,-17.462,6.55397
-497,337,-17.5,-7.203,0.00137104,-0.000117026,0.0002121,0.00140068,-0.000146667,0.138851,0.000986319,0.0176374,727,687,-17.5,7.20303
-490,337,-17.5203,-7.83813,0.00189686,-0.000423259,0.000131027,0.00190423,-0.000430635,0.0562359,0.00143474,0.0150643,734,687,-17.5203,7.83815
-483,337,-17.5029,-8.48975,0.00248793,-0.000404783,-0.000160292,0.00249678,-0.000413638,-0.0551871,0.00181815,0.0151263,741,687,-17.5029,8.48976
-476,337,-17.5325,-9.17316,0.00286216,-0.000322878,-0.000504215,0.00294007,-0.000400793,-0.153315,0.0021064,0.0166566,748,687,-17.5325,9.17316
-469,337,-17.5684,-9.87122,0,0,0,0,0,0,0,-1,755,687,-17.5684,9.87123
-462,337,-14.186,-8.89264,0,0,0,0,0,0,0,-1,762,687,-14.186,8.89266
-455,337,-6.00574,-3.12933,0,0,0,0,0,0,0,-1,769,687,-6.00576,3.12934
-448,337,-5.30627,-2.07202,0,0,0,0,0,0,0,-1,776,687,-5.30628,2.07205
-441,337,-4.24762,-1.49597,0,0,0,0,0,0,0,-1,783,687,-4.24762,1.49598
-434,337,-6.86908,1.37531,0,0,0,0,0,0,0,-1,790,687,-6.86908,-1.3753
-427,337,-9.92004,2.487,0,0,0,0,0,0,0,-1,797,687,-9.92002,-2.48701
-420,337,-2.95996,-1.76697,0,0,0,0,0,0,0,-1,804,687,-2.95998,1.76696
-413,337,-1.29169,-1.99487,0,0,0,0,0,0,0,-1,811,687,-1.29171,1.9949
-406,337,-1.02356,-1.89563,0,0,0,0,0,0,0,-1,818,687,-1.02357,1.89564
-399,337,-0.472839,-2.21338,0,0,0,0,0,0,0,-1,825,687,-0.472837,2.2134
-392,337,0,0,0,0,0,0,0,0,0,-1,832,687,0,0
-385,337,0,0,0,0,0,0,0,0,0,-1,839,687,0,0
-378,337,0,0,0,0,0,0,0,0,0,-1,846,687,0,0
-371,337,0,0,0,0,0,0,0,0,0,-1,853,687,0,0
-364,337,0,0,0,0,0,0,0,0,0,-1,860,687,0,0
-357,337,0,0,0,0,0,0,0,0,0,-1,867,687,0,0
-350,337,0,0,0,0,0,0,0,0,0,-1,874,687,0,0
-343,337,0,0,0,0,0,0,0,0,0,-1,881,687,0,0
-336,337,0,0,0,0,0,0,0,0,0,-1,888,687,0,0
-329,337,0,0,0,0,0,0,0,0,0,-1,895,687,0,0
-322,337,0,0,0,0,0,0,0,0,0,-1,902,687,0,0
-315,337,0,0,0,0,0,0,0,0,0,-1,909,687,0,0
-308,337,0,0,0,0,0,0,0,0,0,-1,916,687,0,0
-301,337,0,0,0,0,0,0,0,0,0,-1,923,687,0,0
-294,337,0,0,0,0,0,0,0,0,0,-1,930,687,0,0
-287,337,0,0,0,0,0,0,0,0,0,-1,937,687,0,0
-280,337,0,0,0,0,0,0,0,0,0,-1,944,687,0,0
-273,337,0,0,0,0,0,0,0,0,0,-1,951,687,0,0
-266,337,0,0,0,0,0,0,0,0,0,-1,958,687,0,0
-259,337,0,0,0,0,0,0,0,0,0,-1,965,687,0,0
-252,337,0,0,0,0,0,0,0,0,0,-1,972,687,0,0
-245,337,0,0,0,0,0,0,0,0,0,-1,979,687,0,0
-238,337,0,0,0,0,0,0,0,0,0,-1,986,687,0,0
-231,337,0,0,0,0,0,0,0,0,0,-1,993,687,0,0
-224,337,0,0,0,0,0,0,0,0,0,-1,1000,687,0,0
-217,337,0,0,0,0,0,0,0,0,0,-1,1007,687,0,0
-210,337,0,0,0,0,0,0,0,0,0,-1,1014,687,0,0
-203,337,0,0,0,0,0,0,0,0,0,-1,1021,687,0,0
-196,337,0,0,0,0,0,0,0,0,0,-1,1028,687,0,0
-189,337,0,0,0,0,0,0,0,0,0,-1,1035,687,0,0
-182,337,0,0,0,0,0,0,0,0,0,-1,1042,687,0,0
-175,337,0,0,0,0,0,0,0,0,0,-1,1049,687,0,0
-168,337,0,0,0,0,0,0,0,0,0,-1,1056,687,0,0
-161,337,0,0,0,0,0,0,0,0,0,-1,1063,687,0,0
-154,337,0,0,0,0,0,0,0,0,0,-1,1070,687,0,0
-147,337,0,0,0,0,0,0,0,0,0,-1,1077,687,0,0
-140,337,0,0,0,0,0,0,0,0,0,-1,1084,687,0,0
-133,337,0,0,0,0,0,0,0,0,0,-1,1091,687,0,0
-126,337,0,0,0,0,0,0,0,0,0,-1,1098,687,0,0
-119,337,0,0,0,0,0,0,0,0,0,-1,1105,687,0,0
-112,337,0,0,0,0,0,0,0,0,0,-1,1112,687,0,0
-105,337,0,0,0,0,0,0,0,0,0,-1,1119,687,0,0
-98,337,0,0,0,0,0,0,0,0,0,-1,1126,687,0,0
-91,337,0,0,0,0,0,0,0,0,0,-1,1133,687,0,0
-84,337,0,0,0,0,0,0,0,0,0,-1,1140,687,0,0
-77,337,0,0,0,0,0,0,0,0,0,-1,1147,687,0,0
-70,337,0,0,0,0,0,0,0,0,0,-1,1154,687,0,0
-63,337,0,0,0,0,0,0,0,0,0,-1,1161,687,0,0
-56,337,0,0,0,0,0,0,0,0,0,-1,1168,687,0,0
-49,337,0,0,0,0,0,0,0,0,0,-1,1175,687,0,0
-42,337,0,0,0,0,0,0,0,0,0,-1,1182,687,0,0
-35,337,0,0,0,0,0,0,0,0,0,-1,1189,687,0,0
-28,337,0,0,0,0,0,0,0,0,0,-1,1196,687,0,0
-21,337,0,0,0,0,0,0,0,0,0,-1,1203,687,0,0
-14,337,0,0,0,0,0,0,0,0,0,-1,1210,687,0,0
-7,337,0,0,0,0,0,0,0,0,0,-1,1217,687,0,0
0,337,0,0,0,0,0,0,0,0,0,-1,1224,687,0,0
7,337,0,0,0,0,0,0,0,0,0,-1,1231,687,0,0
14,337,0,0,0,0,0,0,0,0,0,-1,1238,687,0,0
21,337,0,0,0,0,0,0,0,0,0,-1,1245,687,0,0
28,337,0,0,0,0,0,0,0,0,0,-1,1252,687,0,0
35,337,0,0,0,0,0,0,0,0,0,-1,1259,687,0,0
42,337,0,0,0,0,0,0,0,0,0,-1,1266,687,0,0
49,337,0,0,0,0,0,0,0,0,0,-1,1273,687,0,0
56,337,0,0,0,0,0,0,0,0,0,-1,1280,687,0,0
63,337,0,0,0,0,0,0,0,0,0,-1,1287,687,0,0
70,337,0,0,0,0,0,0,0,0,0,-1,1294,687,0,0
77,337,0,0,0,0,0,0,0,0,0,-1,1301,687,0,0
84,337,0,0,0,0,0,0,0,0,0,-1,1308,687,0,0
91,337,0,0,0,0,0,0,0,0,0,-1,1315,687,0,0
98,337,0,0,0,0,0,0,0,0,0,-1,1322,687,0,0
105,337,0,0,0,0,0,0,0,0,0,-1,1329,687,0,0
112,337,0,0,0,0,0,0,0,0,0,-1,1336,687,0,0
119,337,0,0,0,0,0,0,0,0,0,-1,1343,687,0,0
126,337,0,0,0,0,0,0,0,0,0,-1,1350,687,0,0
133,337,0,0,0,0,0,0,0,0,0,-1,1357,687,0,0
140,337,0,0,0,0,0,0,0,0,0,-1,1364,687,0,0
147,337,0,0,0,0,0,0,0,0,0,-1,1371,687,0,0
154,337,0,0,0,0,0,0,0,0,0,-1,1378,687,0,0
161,337,0,0,0,0,0,0,0,0,0,-1,1385,687,0,0
168,337,0,0,0,0,0,0,0,0,0,-1,1392,687,0,0
175,337,0,0,0,0,0,0,0,0,0,-1,1399,687,0,0
182,337,0,0,0,0,0,0,0,0,0,-1,1406,687,0,0
189,337,0,0,0,0,0,0,0,0,0,-1,1413,687,0,0
196,337,0,0,0,0,0,0,0,0,0,-1,1420,687,0,0
203,337,0,0,0,0,0,0,0,0,0,-1,1427,687,0,0
210,337,0,0,0,0,0,0,0,0,0,-1,1434,687,0,0
217,337,0,0,0,0,0,0,0,0,0,-1,1441,687,0,0
224,337,0,0,0,0,0,0,0,0,0,-1,1448,687,0,0
231,337,0,0,0,0,0,0,0,0,0,-1,1455,687,0,0
238,337,0,0,0,0,0,0,0,0,0,-1,1462,687,0,0
245,337,0,0,0,0,0,0,0,0,0,-1,1469,687,0,0
252,337,0,0,0,0,0,0,0,0,0,-1,1476,687,0,0
259,337,0,0,0,0,0,0,0,0,0,-1,1483,687,0,0
266,337,0,0,0,0,0,0,0,0,0,-1,1490,687,0,0
273,337,0,0,0,0,0,0,0,0,0,-1,1497,687,0,0
280,337,0,0,0,0,0,0,0,0,0,-1,1504,687,0,0
287,337,0,0,0,0,0,0,0,0,0,-1,1511,687,0,0
294,337,0,0,0,0,0,0,0,0,0,-1,1518,687,0,0
301,337,0,0,0,0,0,0,0,0,0,-1,1525,687,0,0
308,337,0,0,0,0,0,0,0,0,0,-1,1532,687,0,0
315,337,0,0,0,0,0,0,0,0,0,-1,1539,687,0,0
322,337,0,0,0,0,0,0,0,0,0,-1,1546,687,0,0
329,337,0,0,0,0,0,0,0,0,0,-1,1553,687,0,0
336,337,0,0,0,0,0,0,0,0,0,-1,1560,687,0,0
343,337,0,0,0,0,0,0,0,0,0,-1,1567,687,0,0
350,337,0,0,0,0,0,0,0,0,0,-1,1574,687,0,0
357,337,0,0,0,0,0,0,0,0,0,-1,1581,687,0,0
364,337,0,0,0,0,0,0,0,0,0,-1,1588,687,0,0
371,337,0,0,0,0,0,0,0,0,0,-1,1595,687,0,0
378,337,0,0,0,0,0,0,0,0,0,-1,1602,687,0,0
385,337,0,0,0,0,0,0,0,0,0,-1,1609,687,0,0
392,337,0,0,0,0,0,0,0,0,0,-1,1616,687,0,0
399,337,0,0,0,0,0,0,0,0,0,-1,1623,687,0,0
406,337,0,0,0,0,0,0,0,0,0,-1,1630,687,0,0
413,337,0,0,0,0,0,0,0,0,0,-1,1637,687,0,0
420,337,0,0,0,0,0,0,0,0,0,-1,1644,687,0,0
427,337,0,0,0,0,0,0,0,0,0,-1,1651,687,0,0
434,337,0,0,0,0,0,0,0,0,0,-1,1658,687,0,0
441,337,0,0,0,0,0,0,0,0,0,-1,1665,687,0,0
448,337,0,0,0,0,0,0,0,0,0,-1,1672,687,0,0
455,337,0,0,0,0,0,0,0,0,0,-1,1679,687,0,0
462,337,0,0,0,0,0,0,0,0,0,-1,1686,687,0,0
469,337,0,0,0,0,0,0,0,0,0,-1,1693,687,0,0
476,337,0,0,0,0,0,0,0,0,0,-1,1700,687,0,0
483,337,0,0,0,0,0,0,0,0,0,-1,1707,687,0,0
490,337,0,0,0,0,0,0,0,0,0,-1,1714,687,0,0
497,337,0,0,0,0,0,0,0,0,0,-1,1721,687,0,0
504,337,0,0,0,0,0,0,0,0,0,-1,1728,687,0,0
511,337,0,0,0,0,0,0,0,0,0,-1,1735,687,0,0
518,337,18.0369,1.64581,0,0,0,0,0,0,0,-1,1742,687,18.0368,-1.64581
525,337,31.0717,2.13745,0,0,0,0,0,0,0,-1,1749,687,31.0717,-2.13747
532,337,31.5126,2.13904,0,0,0,0,0,0,0,-1,1756,687,31.5125,-2.13905
539,337,31.9684,2.15594,0,0,0,0,0,0,0,-1,1763,687,31.9684,-2.15596
546,337,32.3584,1.43719,0,0,0,0,0,0,0,-1,1770,687,32.3585,-1.43722
553,337,32.1809,1.36395,0,0,0,0,0,0,0,-1,1777,687,32.181,-1.36396
560,337,18.4053,3.62793,0,0,0,0,0,0,0,-1,1784,687,18.4052,-3.6279
567,337,11.9288,1.38776,0,0,0,0,0,0,0,-1,1791,687,11.9288,-1.38777
574,337,10.704,1.19476,0,0,0,0,0,0,0,-1,1798,687,10.704,-1.19478
581,337,8.50427,0.561768,0,0,0,0,0,0,0,-1,1805,687,8.5043,-0.561754
588,337,8.5885,-0.0536499,0,0,0,0,0,0,0,-1,1812,687,8.58844,0.0536788
595,337,13.8816,-1.70703,0,0,0,0,0,0,0,-1,1819,687,13.8816,1.70702
602,337,29.5205,-7.62683,0,0,0,0,0,0,0,-1,1826,687,29.5205,7.6268
609,337,29.4882,-6.87756,0.000941071,0.00101836,0.000200405,0.00118381,0.000775618,0.880642,0.00069436,0.0244577,1833,687,29.4882,6.87759
616,337,29.4468,-6.22668,0.00114595,0.000839151,0.000384279,0.00140632,0.000578784,0.595496,0.000816159,0.0162421,1840,687,29.4468,6.22667
623,337,29.4326,-5.57349,0.00123805,0.00084733,0.000524772,0.00160265,0.000482733,0.607209,0.000949351,0.0144845,1847,687,29.4326,5.57346
630,337,29.3872,-4.88971,0.00110679,0.000977972,0.000688593,0.00173398,0.000350781,0.738766,0.00105861,0.0190515,1854,687,29.3872,4.88973
637,337,29.3864,-4.23364,0.00076192,0.00123244,0.000804993,0.00183585,0.000158515,0.927566,0.00117463,0.0175004,1861,687,29.3864,4.23366
644,337,29.3655,-3.5282,0.00019101,0.00155347,0.000869308,0.00197667,-0.000232192,1.11774,0.00140161,0.0109043,1868,687,29.3655,3.52821
651,337,29.3342,-2.84424,-0.000683709,0.00196486,0.000867985,0.00222397,-0.000942815,1.2807,0.00187755,0.00949075,1875,687,29.3343,2.84426
658,337,29.3187,-2.17194,-0.00196392,0.00249548,0.000767457,0.00262386,-0.00209231,1.40505,0.00272864,0.0114824,1882,687,29.3187,2.17193
665,337,29.3009,-1.49817,-0.00373098,0.00309057,0.000504165,0.00312763,-0.00376804,1.49742,0.00398694,0.0163301,1889,687,29.3009,1.49814
672,337,29.3192,-0.774475,0,0,0,0,0,0,0,-1,1896,687,29.3192,0.774449
679,337,28.8236,-0.043457,0,0,0,0,0,0,0,-1,1903,687,28.8236,0.0434482
686,337,18.5614,1.68597,0,0,0,0,0,0,0,-1,1910,687,18.5614,-1.68598
693,337,16.5415,2.21411,0,0,0,0,0,0,0,-1,1917,687,16.5415,-2.2141
700,337,17.2661,2.44379,0,0,0,0,0,0,0,-1,1924,687,17.2661,-2.44378
707,337,17.3544,5.61853,0,0,0,0,0,0,0,-1,1931,687,17.3543,-5.61851
714,337,0,0,0,0,0,0,0,0,0,-1,1938,687,0,0
721,337,0,0,0,0,0,0,0,0,0,-1,1945,687,0,0
728,337,0,0,0,0,0,0,0,0,0,-1,1952,687,0,0
735,337,0,0,0,0,0,0,0,0,0,-1,1959,687,0,0
742,337,0,0,0,0,0,0,0,0,0,-1,1966,687,0,0
749,337,0,0,0,0,0,0,0,0,0,-1,1973,687,0,0
756,337,0,0,0,0,0,0,0,0,0,-1,1980,687,0,0
763,337,0,0,0,0,0,0,0,0,0,-1,1987,687,0,0
770,337,0,0,0,0,0,0,0,0,0,-1,1994,687,0,0
777,337,0,0,0,0,0,0,0,0,0,-1,2001,687,0,0
784,337,0,0,0,0,0,0,0,0,0,-1,2008,687,0,0
791,337,0,0,0,0,0,0,0,0,0,-1,2015,687,0,0
798,337,0,0,0,0,0,0,0,0,0,-1,2022,687,0,0
805,337,0,0,0,0,0,0,0,0,0,-1,2029,687,0,0
812,337,0,0,0,0,0,0,0,0,0,-1,2036,687,0,0
-700,330,0,0,0,0,0,0,0,0,0,-1,524,694,0,0
-693,330,0,0,0,0,0,0,0,0,0,-1,531,694,0,0
-686,330,0,0,0,0,0,0,0,0,0,-1,538,694,0,0
-679,330,0,0,0,0,0,0,0,0,0,-1,545,694,0,0
-672,330,0,0,0,0,0,0,0,0,0,-1,552,694,0,0
-665,330,0,0,0,0,0,0,0,0,0,-1,559,694,0,0
-658,330,0,0,0,0,0,0,0,0,0,-1,566,694,0,0
-651,330,0,0,0,0,0,0,0,0,0,-1,573,694,0,0
-644,330,0,0,0,0,0,0,0,0,0,-1,580,694,0,0
-637,330,0,0,0,0,0,0,0,0,0,-1,587,694,0,0
-630,330,0,0,0,0,0,0,0,0,0,-1,594,694,0,0
-623,330,0,0,0,0,0,0,0,0,0,-1,601,694,0,0
-616,330,0,0,0,0,0,0,0,0,0,-1,608,694,0,0
-609,330,0,0,0,0,0,0,0,0,0,-1,615,694,0,0
-602,330,0,0,0,0,0,0,0,0,0,-1,622,694,0,0
-595,330,-4.67883,1.65515,0,0,0,0,0,0,0,-1,629,694,-4.67881,-1.65515
-588,330,-8.5047,2.67346,0,0,0,0,0,0,0,-1,636,694,-8.50469,-2.67348
-581,330,-12.4227,0.947083,0,0,0,0,0,0,0,-1,643,694,-12.4227,-0.947109
-574,330,-9.02118,1.87952,0,0,0,0,0,0,0,-1,650,694,-9.02115,-1.87953
-567,330,-8.35577,0.909973,0,0,0,0,0,0,0,-1,657,694,-8.35575,-0.909945
-560,330,-13.1036,-0.584656,0,0,0,0,0,0,0,-1,664,694,-13.1035,0.584658
-553,330,-17.5484,-1.21545,0,0,0,0,0,0,0,-1,671,694,-17.5484,1.21547
-546,330,-17.9683,-2.09186,0,0,0,0,0,0,0,-1,678,694,-17.9683,2.09184
-539,330,-17.8489,-3.21503,-0.00221512,0.00442248,-0.000288221,0.00443497,-0.00222761,-1.52748,0.00391638,0.0266214,685,694,-17.8489,3.21501
-532,330,-18.0864,-3.83649,-0.00147239,0.00324797,-0.000180571,0.00325487,-0.00147929,-1.53262,0.00279661,0.0183444,692,694,-18.0864,3.83648
-525,330,-18.0603,-4.55475,-0.000773619,0.00218438,-1.89951e-05,0.0021845,-0.000773741,-1.56438,0.0017715,0.0107759,699,694,-18.0603,4.55476
-518,330,-18.0786,-5.16284,-0.000140287,0.00130552,0.000154042,0.00132175,-0.000156517,1.46582,0.000937704,0.0141993,706,694,-18.0786,5.16285
-511,330,-18.1256,-5.82007,0.000461327,0.00056682,0.000303176,0.000821804,0.000206343,0.871526,0.000493678,0.019845,713,694,-18.1256,5.8201
-504,330,-18.1254,-6.51813,0.00102324,-5.30141e-06,0.000419734,0.00117279,-0.000154846,0.342262,0.000838256,0.0185302,720,694,-18.1254,6.51812
-497,330,-18.164,-7.14301,0.00159017,-0.000347997,0.000449971,0.00168954,-0.000447369,0.217352,0.00130137,0.013748,727,694,-18.164,7.14302
-490,330,-18.1691,-7.79572,0.00221624,-0.000532193,0.000394259,0.00227168,-0.000587631,0.139696,0.00174366,0.013972,734,694,-18.1691,7.79574
-483,330,-18.1623,-8.47314,0.00289379,-0.000282462,7.38422e-05,0.0028955,-0.000284178,0.0232315,0.0020317,0.0144061,741,694,-18.1623,8.47315
-476,330,-18.1646,-9.17487,0,0,0,0,0,0,0,-1,748,694,-18.1646,9.17486
-469,330,-16.1478,-9.23303,0,0,0,0,0,0,0,-1,755,694,-16.1478,9.23301
-462,330,-7.26733,-3.84833,0,0,0,0,0,0,0,-1,762,694,-7.26731,3.84832
-455,330,-5.04254,-1.79303,0,0,0,0,0,0,0,-1,769,694,-5.04252,1.79305
-448,330,-4.89886,-1.66156,0,0,0,0,0,0,0,-1,776,694,-4.89886,1.66157
-441,330,-5.30676,-2.34045,0,0,0,0,0,0,0,-1,783,694,-5.30679,2.34048
-434,330,-7.20428,1.00024,0,0,0,0,0,0,0,-1,790,694,-7.20431,-1.00027
-427,330,-16.0428,2.89258,0,0,0,0,0,0,0,-1,797,694,-16.0428,-2.89259
-420,330,-29.0331,0.271606,0,0,0,0,0,0,0,-1,804,694,-29.0331,-0.27158
-413,330,-29.0896,0.56366,0,0,0,0,0,0,0,-1,811,694,-29.0896,-0.563671
-406,330,-1.65375,-1.74371,0,0,0,0,0,0,0,-1,818,694,-1.65375,1.74371
-399,330,0,0,0,0,0,0,0,0,0,-1,825,694,0,0
-392,330,0,0,0,0,0,0,0,0,0,-1,832,694,0,0
-385,330,0,0,0,0,0,0,0,0,0,-1,839,694,0,0
-378,330,0,0,0,0,0,0,0,0,0,-1,846,694,0,0
-371,330,0,0,0,0,0,0,0,0,0,-1,853,694,0,0
-364,330,0,0,0,0,0,0,0,0,0,-1,860,694,0,0
-357,330,0,0,0,0,0,0,0,0,0,-1,867,694,0,0
-350,330,0,0,0,0,0,0,0,0,0,-1,874,694,0,0
-343,330,0,0,0,0,0,0,0,0,0,-1,881,694,0,0
-336,330,0,0,0,0,0,0,0,0,0,-1,888,694,0,0
-329,330,0,0,0,0,0,0,0,0,0,-1,895,694,0,0
-322,330,0,0,0,0,0,0,0,0,0,-1,902,694,0,0
-315,330,0,0,0,0,0,0,0,0,0,-1,909,694,0,0
-308,330,0,0,0,0,0,0,0,0,0,-1,916,694,0,0
-301,330,0,0,0,0,0,0,0,0,0,-1,923,694,0,0
-294,330,0,0,0,0,0,0,0,0,0,-1,930,694,0,0
-287,330,0,0,0,0,0,0,0,0,0,-1,937,694,0,0
-280,330,0,0,0,0,0,0,0,0,0,-1,944,694,0,0
-273,330,0,0,0,0,0,0,0,0,0,-1,951,694,0,0
-266,330,0,0,0,0,0,0,0,0,0,-1,958,694,0,0
-259,330,0,0,0,0,0,0,0,0,0,-1,965,694,0,0
-252,330,0,0,0,0,0,0,0,0,0,-1,972,694,0,0
-245,330,0,0,0,0,0,0,0,0,0,-1,979,694,0,0
-238,330,0,0,0,0,0,0,0,0,0,-1,986,694,0,0
-231,330,0,0,0,0,0,0,0,0,0,-1,993,694,0,0
-224,330,0,0,0,0,0,0,0,0,0,-1,1000,694,0,0
-217,330,0,0,0,0,0,0,0,0,0,-1,1007,694,0,0
-210,330,0,0,0,0,0,0,0,0,0,-1,1014,694,0,0
-203,330,0,0,0,0,0,0,0,0,0,-1,1021,694,0,0
-196,330,0,0,0,0,0,0,0,0,0,-1,1028,694,0,0
-189,330,0,0,0,0,0,0,0,0,0,-1,1035,694,0,0
-182,330,0,0,0,0,0,0,0,0,0,-1,1042,694,0,0
-175,330,0,0,0,0,0,0,0,0,0,-1,1049,694,0,0
-168,330,0,0,0,0,0,0,0,0,0,-1,1056,694,0,0
-161,330,0,0,0,0,0,0,0,0,0,-1,1063,694,0,0
-154,330,0,0,0,0,0,0,0,0,0,-1,1070,694,0,0
-147,330,0,0,0,0,0,0,0,0,0,-1,1077,694,0,0
-140,330,0,0,0,0,0,0,0,0,0,-1,1084,694,0,0
-133,330,0,0,0,0,0,0,0,0,0,-1,1091,694,0,0
-126,330,0,0,0,0,0,0,0,0,0,-1,1098,694,0,0
-119,330,0,0,0,0,0,0,0,0,0,-1,1105,694,0,0
-112,330,0,0,0,0,0,0,0,0,0,-1,1112,694,0,0
-105,330,0,0,0,0,0,0,0,0,0,-1,1119,694,0,0
-98,330,0,0,0,0,0,0,0,0,0,-1,1126,694,0,0
-91,330,0,0,0,0,0,0,0,0,0,-1,1133,694,0,0
-84,330,0,0,0,0,0,0,0,0,0,-1,1140,694,0,0
-77,330,0,0,0,0,0,0,0,0,0,-1,1147,694,0,0
-70,330,0,0,0,0,0,0,0,0,0,-1,1154,694,0,0
-63,330,0,0,0,0,0,0,0,0,0,-1,1161,694,0,0
-56,330,0,0,0,0,0,0,0,0,0,-1,1168,694,0,0
-49,330,0,0,0,0,0,0,0,0,0,-1,1175,694,0,0
-42,330,0,0,0,0,0,0,0,0,0,-1,1182,694,0,0
-35,330,0,0,0,0,0,0,0,0,0,-1,1189,694,0,0
-28,330,0,0,0,0,0,0,0,0,0,-1,1196,694,0,0
-21,330,0,0,0,0,0,0,0,0,0,-1,1203,694,0,0
-14,330,0,0,0,0,0,0,0,0,0,-1,1210,694,0,0
-7,330,0,0,0,0,0,0,0,0,0,-1,1217,694,0,0
0,330,0,0,0,0,0,0,0,0,0,-1,1224,694,0,0
7,330,0,0,0,0,0,0,0,0,0,-1,1231,694,0,0
14,330,0,0,0,0,0,0,0,0,0,-1,1238,694,0,0
21,330,0,0,0,0,0,0,0,0,0,-1,1245,694,0,0
28,330,0,0,0,0,0,0,0,0,0,-1,1252,694,0,0
35,330,0,0,0,0,0,0,0,0,0,-1,1259,694,0,0
42,330,0,0,0,0,0,0,0,0,0,-1,1266,694,0,0
49,330,0,0,0,0,0,0,0,0,0,-1,1273,694,0,0
56,330,0,0,0,0,0,0,0,0,0,-1,1280,694,0,0
63,330,0,0,0,0,0,0,0,0,0,-1,1287,694,0,0
70,330,0,0,0,0,0,0,0,0,0,-1,1294,694,0,0
77,330,0,0,0,0,0,0,0,0,0,-1,1301,694,0,0
84,330,0,0,0,0,0,0,0,0,0,-1,1308,694,0,0
91,330,0,0,0,0,0,0,0,0,0,-1,1315,694,0,0
98,330,0,0,0,0,0,0,0,0,0,-1,1322,694,0,0
105,330,0,0,0,0,0,0,0,0,0,-1,1329,694,0,0
112,330,0,0,0,0,0,0,0,0,0,-1,1336,694,0,0
119,330,0,0,0,0,0,0,0,0,0,-1,1343,694,0,0
126,330,0,0,0,0,0,0,0,0,0,-1,1350,694,0,0
133,330,0,0,0,0,0,0,0,0,0,-1,1357,694,0,0
140,330,0,0,0,0,0,0,0,0,0,-1,1364,694,0,0
147,330,0,0,0,0,0,0,0,0,0,-1,1371,694,0,0
154,330,0,0,0,0,0,0,0,0,0,-1,1378,694,0,0
161,330,0,0,0,0,0,0,0,0,0,-1,1385,694,0,0
168,330,0,0,0,0,0,0,0,0,0,-1,1392,694,0,0
175,330,0,0,0,0,0,0,0,0,0,-1,1399,694,0,0
182,330,0,0,0,0,0,0,0,0,0,-1,1406,694,0,0
189,330,0,0,0,0,0,0,0,0,0,-1,1413,694,0,0
196,330,0,0,0,0,0,0,0,0,0,-1,1420,694,0,0
203,330,0,0,0,0,0,0,0,0,0,-1,1427,694,0,0
210,330,0,0,0,0,0,0,0,0,0,-1,1434,694,0,0
217,330,0,0,0,0,0,0,0,0,0,-1,1441,694,0,0
224,330,0,0,0,0,0,0,0,0,0,-1,1448,694,0,0
231,330,0,0,0,0,0,0,0,0,0,-1,1455,694,0,0
238,330,0,0,0,0,0,0,0,0,0,-1,1462,694,0,0
245,330,0,0,0,0,0,0,0,0,0,-1,1469,694,0,0
252,330,0,0,0,0,0,0,0,0,0,-1,1476,694,0,0
259,330,0,0,0,0,0,0,0,0,0,-1,1483,694,0,0
266,330,0,0,0,0,0,0,0,0,0,-1,1490,694,0,0
273,330,0,0,0,0,0,0,0,0,0,-1,1497,694,0,0
280,330,0,0,0,0,0,0,0,0,0,-1,1504,694,0,0
287,330,0,0,0,0,0,0,0,0,0,-1,1511,694,0,0
294,330,0,0,0,0,0,0,0,0,0,-1,1518,694,0,0
301,330,0,0,0,0,0,0,0,0,0,-1,1525,694,0,0
308,330,0,0,0,0,0,0,0,0,0,-1,1532,694,0,0
315,330,0,0,0,0,0,0,0,0,0,-1,1539,694,0,0
322,330,0,0,0,0,0,0,0,0,0,-1,1546,694,0,0
329,330,0,0,0,0,0,0,0,0,0,-1,1553,694,0,0
336,330,0,0,0,0,0,0,0,0,0,-1,1560,694,0,0
343,330,0,0,0,0,0,0,0,0,0,-1,1567,694,0,0
350,330,0,0,0,0,0,0,0,0,0,-1,1574,694,0,0
357,330,0,0,0,0,0,0,0,0,0,-1,1581,694,0,0
364,330,0,0,0,0,0,0,0,0,0,-1,1588,694,0,0
371,330,0,0,0,0,0,0,0,0,0,-1,1595,694,0,0
378,330,0,0,0,0,0,0,0,0,0,-1,1602,694,0,0
385,330,0,0,0,0,0,0,0,0,0,-1,1609,694,0,0
392,330,0,0,0,0,0,0,0,0,0,-1,1616,694,0,0
399,330,0,0,0,0,0,0,0,0,0,-1,1623,694,0,0
406,330,0,0,0,0,0,0,0,0,0,-1,1630,694,0,0
413,330,0,0,0,0,0,0,0,0,0,-1,1637,694,0,0
420,330,0,0,0,0,0,0,0,0,0,-1,1644,694,0,0
427,330,0,0,0,0,0,0,0,0,0,-1,1651,694,0,0
434,330,0,0,0,0,0,0,0,0,0,-1,1658,694,0,0
441,330,0,0,0,0,0,0,0,0,0,-1,1665,694,0,0
448,330,0,0,0,0,0,0,0,0,0,-1,1672,694,0,0
455,330,0,0,0,0,0,0,0,0,0,-1,1679,694,0,0
462,330,0,0,0,0,0,0,0,0,0,-1,1686,694,0,0
469,330,0,0,0,0,0,0,0,0,0,-1,1693,694,0,0
476,330,0,0,0,0,0,0,0,0,0,-1,1700,694,0,0
483,330,0,0,0,0,0,0,0,0,0,-1,1707,694,0,0
490,330,0,0,0,0,0,0,0,0,0,-1,1714,694,0,0
497,330,0,0,0,0,0,0,0,0,0,-1,1721,694,0,0
504,330,0,0,0,0,0,0,0,0,0,-1,1728,694,0,0
511,330,0,0,0,0,0,0,0,0,0,-1,1735,694,0,0
518,330,0,0,0,0,0,0,0,0,0,-1,1742,694,0,0
525,330,30.6694,0.69519,0,0,0,0,0,0,0,-1,1749,694,30.6694,-0.695206
532,330,30.9469,1.32501,0,0,0,0,0,0,0,-1,1756,694,30.9469,-1.32501
539,330,31.5155,1.62506,0,0,0,0,0,0,0,-1,1763,694,31.5155,-1.62507
546,330,31.4187,1.85651,0,0,0,0,0,0,0,-1,1770,694,31.4187,-1.85651
553,330,31.8452,1.81476,0,0,0,0,0,0,0,-1,1777,694,31.8452,-1.81475
560,330,32.2401,2.43225,0,0,0,0,0,0,0,-1,1784,694,32.2401,-2.43227
567,330,18.0321,3.98578,0,0,0,0,0,0,0,-1,1791,694,18.0321,-3.98576
574,330,12.0454,2.1662,0,0,0,0,0,0,0,-1,1798,694,12.0455,-2.16618
581,330,11.4215,4.50836,0,0,0,0,0,0,0,-1,1805,694,11.4215,-4.50837
588,330,6.45667,-0.0630493,0,0,0,0,0,0,0,-1,1812,694,6.45661,0.0630695
595,330,8.23193,-0.258484,0,0,0,0,0,0,0,-1,1819,694,8.23188,0.258459
602,330,29.952,-7.66901,0,0,0,0,0,0,0,-1,1826,694,29.952,7.66899
609,330,30.0938,-6.89514,0.00114041,0.00106886,0.00023288,0.00134025,0.000869023,0.709191,0.00078507,0.0354574,1833,694,30.0938,6.89517
616,330,30.1294,-6.21783,0.00127393,0.000748976,0.000400992,0.00149071,0.000532196,0.495606,0.000872317,0.0108361,1840,694,30.1293,6.21783
623,330,30.108,-5.55139,0.00131371,0.000680127,0.000482636,0.00157423,0.000419602,0.494976,0.000941328,0.012629,1847,694,30.108,5.5514
630,330,30.0933,-4.85742,0.00116373,0.000751221,0.000617334,0.00160835,0.000306597,0.624175,0.000986056,0.0137001,1854,694,30.0933,4.85744
637,330,30.074,-4.18359,0.000752739,0.00094812,0.000682177,0.00153957,0.000161293,0.856516,0.000977061,0.0128899,1861,694,30.0739,4.1836
644,330,30.0222,-3.51025,0.000156569,0.00123642,0.000715833,0.00159312,-0.00020013,1.10851,0.00113469,0.00799995,1868,694,30.0222,3.51027
651,330,30.0051,-2.81726,-0.000681646,0.00159283,0.000689123,0.00178533,-0.000874145,1.2984,0.0015652,0.0108916,1875,694,30.0052,2.81724
658,330,29.9755,-2.14069,-0.00181808,0.00209177,0.00061089,0.00218499,-0.0019113,1.41936,0.00236676,0.0125691,1882,694,29.9755,2.14069
665,330,29.9348,-1.46405,-0.00332227,0.0026731,0.000416165,0.00270185,-0.00335102,1.50182,0.00350132,0.011561,1889,694,29.9348,1.46405
672,330,30.0106,-0.730164,-0.00528753,0.00342282,6.58076e-05,0.00342332,-0.00528803,1.56324,0.00506776,0.0296788,1896,694,30.0106,0.730157
679,330,29.5348,-0.122314,-0.00807764,0.00426736,-0.000473436,0.00428549,-0.00809577,-1.53252,0.00726028,0.0480223,1903,694,29.5348,0.122312
686,330,29.1797,0.728333,0,0,0,0,0,0,0,-1,1910,694,29.1797,-0.728338
693,330,17.3999,2.5976,0,0,0,0,0,0,0,-1,1917,694,17.4,-2.59759
700,330,17.1072,4.13,0,0,0,0,0,0,0,-1,1924,694,17.1071,-4.13002
707,330,16.663,4.88672,0,0,0,0,0,0,0,-1,1931,694,16.6629,-4.88673
714,330,16.5454,5.80896,0,0,0,0,0,0,0,-1,1938,694,16.5454,-5.80899
721,330,0,0,0,0,0,0,0,0,0,-1,1945,694,0,0
728,330,0,0,0,0,0,0,0,0,0,-1,1952,694,0,0
735,330,0,0,0,0,0,0,0,0,0,-1,1959,694,0,0
742,330,0,0,0,0,0,0,0,0,0,-1,1966,694,0,0
749,330,0,0,0,0,0,0,0,0,0,-1,1973,694,0,0
756,330,0,0,0,0,0,0,0,0,0,-1,1980,694,0,0
763,330,0,0,0,0,0,0,0,0,0,-1,1987,694,0,0
770,330,0,0,0,0,0,0,0,0,0,-1,1994,694,0,0
777,330,0,0,0,0,0,0,0,0,0,-1,2001,694,0,0
784,330,0,0,0,0,0,0,0,0,0,-1,2008,694,0,0
791,330,0,0,0,0,0,0,0,0,0,-1,2015,694,0,0
798,330,0,0,0,0,0,0,0,0,0,-1,2022,694,0,0
805,330,0,0,0,0,0,0,0,0,0,-1,2029,694,0,0
812,330,0,0,0,0,0,0,0,0,0,-1,2036,694,0,0
-700,323,0,0,0,0,0,0,0,0,0,-1,524,701,0,0
-693,323,0,0,0,0,0,0,0,0,0,-1,531,701,0,0
-686,323,0,0,0,0,0,0,0,0,0,-1,538,701,0,0
-679,323,0,0,0,0,0,0,0,0,0,-1,545,701,0,0
-672,323,0,0,0,0,0,0,0,0,0,-1,552,701,0,0
-665,323,0,0,0,0,0,0,0,0,0,-1,559,701,0,0
-658,323,0,0,0,0,0,0,0,0,0,-1,566,701,0,0
-651,323,0,0,0,0,0,0,0,0,0,-1,573,701,0,0
-644,323,0,0,0,0,0,0,0,0,0,-1,580,701,0,0
-637,323,0,0,0,0,0,0,0,0,0,-1,587,701,0,0
-630,323,0,0,0,0,0,0,0,0,0,-1,594,701,0,0
-623,323,0,0,0,0,0,0,0,0,0,-1,601,701,0,0
-616,323,0,0,0,0,0,0,0,0,0,-1,608,701,0,0
-609,323,0,0,0,0,0,0,0,0,0,-1,615,701,0,0
-602,323,-4.15833,2.12256,0,0,0,0,0,0,0,-1,622,701,-4.1583,-2.12257
-595,323,-4.052,1.79156,0,0,0,0,0,0,0,-1,629,701,-4.05198,-1.79158
-588,323,-4.07019,1.94543,0,0,0,0,0,0,0,-1,636,701,-4.07019,-1.94542
-581,323,-6.63727,0.562805,0,0,0,0,0,0,0,-1,643,701,-6.63728,-0.56279
-574,323,-6.15887,0.426697,0,0,0,0,0,0,0,-1,650,701,-6.15887,-0.426727
-567,323,-10.0015,0.0371094,0,0,0,0,0,0,0,-1,657,701,-10.0015,-0.037126
-560,323,-16.3503,-1.16956,0,0,0,0,0,0,0,-1,664,701,-16.3503,1.16957
-553,323,-18.6486,-1.98859,0,0,0,0,0,0,0,-1,671,701,-18.6486,1.98857
-546,323,-18.6371,-2.54266,-0.00241705,0.00482262,-0.000155614,0.00482597,-0.0024204,-1.54931,0.00425984,0.0290902,678,701,-18.6372,2.54269
-539,323,-18.642,-3.12408,-0.00156458,0.00369869,-0.000130383,0.00370192,-0.00156781,-1.54604,0.00312454,0.0233715,685,701,-18.642,3.12406
-532,323,-18.6805,-3.83679,-0.000893559,0.00265173,-3.26267e-05,0.00265203,-0.000893859,-1.56159,0.00212945,0.0112061,692,701,-18.6805,3.83681
-525,323,-18.7171,-4.52142,-0.000316445,0.00169371,0.000121353,0.00170101,-0.000323744,1.51072,0.00125591,0.00788741,699,701,-18.7171,4.52145
-518,323,-18.7383,-5.133,0.000214467,0.000877245,0.000295411,0.0009898,0.000101912,1.20677,0.000628655,0.00976426,706,701,-18.7383,5.13297
-511,323,-18.78,-5.78564,0.000699186,0.000150278,0.000460849,0.000961115,-0.000111651,0.516831,0.000681018,0.0136885,713,701,-18.78,5.78564
-504,323,-18.8176,-6.45441,0.00114436,-0.000427927,0.00061246,0.00135478,-0.000638342,0.330923,0.00117525,0.0147823,720,701,-18.8176,6.45442
-497,323,-18.8265,-7.08661,0.00162257,-0.000798099,0.000686595,0.00180376,-0.000979282,0.258005,0.00163012,0.012406,727,701,-18.8265,7.08664
-490,323,-18.8461,-7.73975,0.00225716,-0.00104026,0.000714805,0.00240544,-0.00118855,0.204547,0.00211427,0.013535,734,701,-18.8461,7.73973
-483,323,-18.8396,-8.38672,0.00292017,-0.000722262,0.000440049,0.00297258,-0.000774671,0.11854,0.00228416,0.029352,741,701,-18.8396,8.38672
-476,323,-18.8143,-9.04865,0,0,0,0,0,0,0,-1,748,701,-18.8143,9.04864
-469,323,-8.33301,-3.64001,0,0,0,0,0,0,0,-1,755,701,-8.33298,3.64
-462,323,-5.29431,-1.45697,0,0,0,0,0,0,0,-1,762,701,-5.29431,1.45699
-455,323,-5.0658,-1.36639,0,0,0,0,0,0,0,-1,769,701,-5.06578,1.3664
-448,323,-4.91608,-1.59601,0,0,0,0,0,0,0,-1,776,701,-4.91606,1.59604
-441,323,-14.4006,0.535217,0,0,0,0,0,0,0,-1,783,701,-14.4006,-0.535203
-434,323,-15.3158,2.479,0,0,0,0,0,0,0,-1,790,701,-15.3158,-2.47898
-427,323,-28.3923,1.16797,0,0,0,0,0,0,0,-1,797,701,-28.3923,-1.16796
-420,323,-28.7292,1.09302,0,0,0,0,0,0,0,-1,804,701,-28.7292,-1.09304
-413,323,-28.7955,1.22418,0,0,0,0,0,0,0,-1,811,701,-28.7956,-1.22419
-406,323,0,0,0,0,0,0,0,0,0,-1,818,701,0,0
-399,323,0,0,0,0,0,0,0,0,0,-1,825,701,0,0
-392,323,0,0,0,0,0,0,0,0,0,-1,832,701,0,0
-385,323,0,0,0,0,0,0,0,0,0,-1,839,701,0,0
-378,323,0,0,0,0,0,0,0,0,0,-1,846,701,0,0
-371,323,0,0,0,0,0,0,0,0,0,-1,853,701,0,0
-364,323,0,0,0,0,0,0,0,0,0,-1,860,701,0,0
-357,323,0,0,0,0,0,0,0,0,0,-1,867,701,0,0
-350,323,0,0,0,0,0,0,0,0,0,-1,874,701,0,0
-343,323,0,0,0,0,0,0,0,0,0,-1,881,701,0,0
-336,323,0,0,0,0,0,0,0,0,0,-1,888,701,0,0
-329,323,0,0,0,0,0,0,0,0,0,-1,895,701,0,0
-322,323,0,0,0,0,0,0,0,0,0,-1,902,701,0,0
-315,323,0,0,0,0,0,0,0,0,0,-1,909,701,0,0
-308,323,0,0,0,0,0,0,0,0,0,-1,916,701,0,0
-301,323,0,0,0,0,0,0,0,0,0,-1,923,701,0,0
-294,323,0,0,0,0,0,0,0,0,0,-1,930,701,0,0
-287,323,0,0,0,0,0,0,0,0,0,-1,937,701,0,0
-280,323,0,0,0,0,0,0,0,0,0,-1,944,701,0,0
-273,323,0,0,0,0,0,0,0,0,0,-1,951,701,0,0
-266,323,0,0,0,0,0,0,0,0,0,-1,958,701,0,0
-259,323,0,0,0,0,0,0,0,0,0,-1,965,701,0,0
-252,323,0,0,0,0,0,0,0,0,0,-1,972,701,0,0
-245,323,0,0,0,0,0,0,0,0,0,-1,979,701,0,0
-238,323,0,0,0,0,0,0,0,0,0,-1,986,701,0,0
-231,323,0,0,0,0,0,0,0,0,0,-1,993,701,0,0
-224,323,0,0,0,0,0,0,0,0,0,-1,1000,701,0,0
-217,323,0,0,0,0,0,0,0,0,0,-1,1007,701,0,0
-210,323,0,0,0,0,0,0,0,0,0,-1,1014,701,0,0
-203,323,0,0,0,0,0,0,0,0,0,-1,1021,701,0,0
-196,323,0,0,0,0,0,0,0,0,0,-1,1028,701,0,0
-189,323,0,0,0,0,0,0,0,0,0,-1,1035,701,0,0
-182,323,0,0,0,0,0,0,0,0,0,-1,1042,701,0,0
-175,323,0,0,0,0,0,0,0,0,0,-1,1049,701,0,0
-168,323,0,0,0,0,0,0,0,0,0,-1,1056,701,0,0
-161,323,0,0,0,0,0,0,0,0,0,-1,1063,701,0,0
-154,323,0,0,0,0,0,0,0,0,0,-1,1070,701,0,0
-147,323,0,0,0,0,0,0,0,0,0,-1,1077,701,0,0
-140,323,0,0,0,0,0,0,0,0,0,-1,1084,701,0,0
-133,323,0,0,0,0,0,0,0,0,0,-1,1091,701,0,0
-126,323,0,0,0,0,0,0,0,0,0,-1,1098,701,0,0
-119,323,0,0,0,0,0,0,0,0,0,-1,1105,701,0,0
-112,323,0,0,0,0,0,0,0,0,0,-1,1112,701,0,0
-105,323,0,0,0,0,0,0,0,0,0,-1,1119,701,0,0
-98,323,0,0,0,0,0,0,0,0,0,-1,1126,701,0,0
-91,323,0,0,0,0,0,0,0,0,0,-1,1133,701,0,0
-84,323,0,0,0,0,0,0,0,0,0,-1,1140,701,0,0
-77,323,0,0,0,0,0,0,0,0,0,-1,1147,701,0,0
-70,323,0,0,0,0,0,0,0,0,0,-1,1154,701,0,0
-63,323,0,0,0,0,0,0,0,0,0,-1,1161,701,0,0
-56,323,0,0,0,0,0,0,0,0,0,-1,1168,701,0,0
-49,323,0,0,0,0,0,0,0,0,0,-1,1175,701,0,0
-42,323,0,0,0,0,0,0,0,0,0,-1,1182,701,0,0
-35,323,0,0,0,0,0,0,0,0,0,-1,1189,701,0,0
-28,323,0,0,0,0,0,0,0,0,0,-1,1196,701,0,0
-21,323,0,0,0,0,0,0,0,0,0,-1,1203,701,0,0
-14,323,0,0,0,0,0,0,0,0,0,-1,1210,701,0,0
-7,323,0,0,0,0,0,0,0,0,0,-1,1217,701,0,0
0,323,0,0,0,0,0,0,0,0,0,-1,1224,701,0,0
7,323,0,0,0,0,0,0,0,0,0,-1,1231,701,0,0
14,323,0,0,0,0,0,0,0,0,0,-1,1238,701,0,0
21,323,0,0,0,0,0,0,0,0,0,-1,1245,701,0,0
28,323,0,0,0,0,0,0,0,0,0,-1,1252,701,0,0
35,323,0,0,0,0,0,0,0,0,0,-1,1259,701,0,0
42,323,0,0,0,0,0,0,0,0,0,-1,1266,701,0,0
49,323,0,0,0,0,0,0,0,0,0,-1,1273,701,0,0
56,323,0,0,0,0,0,0,0,0,0,-1,1280,701,0,0
63,323,0,0,0,0,0,0,0,0,0,-1,1287,701,0,0
70,323,0,0,0,0,0,0,0,0,0,-1,1294,701,0,0
77,323,0,0,0,0,0,0,0,0,0,-1,1301,701,0,0
84,323,0,0,0,0,0,0,0,0,0,-1,1308,701,0,0
91,323,0,0,0,0,0,0,0,0,0,-1,1315,701,0,0
98,323,0,0,0,0,0,0,0,0,0,-1,1322,701,0,0
105,323,0,0,0,0,0,0,0,0,0,-1,1329,701,0,0
112,323,0,0,0,0,0,0,0,0,0,-1,1336,701,0,0
119,323,0,0,0,0,0,0,0,0,0,-1,1343,701,0,0
126,323,0,0,0,0,0,0,0,0,0,-1,1350,701,0,0
133,323,0,0,0,0,0,0,0,0,0,-1,1357,701,0,0
140,323,0,0,0,0,0,0,0,0,0,-1,1364,701,0,0
147,323,0,0,0,0,0,0,0,0,0,-1,1371,701,0,0
154,323,0,0,0,0,0,0,0,0,0,-1,1378,701,0,0
161,323,0,0,0,0,0,0,0,0,0,-1,1385,701,0,0
168,323,0,0,0,0,0,0,0,0,0,-1,1392,701,0,0
175,323,0,0,0,0,0,0,0,0,0,-1,1399,701,0,0
182,323,0,0,0,0,0,0,0,0,0,-1,1406,701,0,0
189,323,0,0,0,0,0,0,0,0,0,-1,1413,701,0,0
196,323,0,0,0,0,0,0,0,0,0,-1,1420,701,0,0
203,323,0,0,0,0,0,0,0,0,0,-1,1427,701,0,0
210,323,0,0,0,0,0,0,0,0,0,-1,1434,701,0,0
217,323,0,0,0,0,0,0,0,0,0,-1,1441,701,0,0
224,323,0,0,0,0,0,0,0,0,0,-1,1448,701,0,0
231,323,0,0,0,0,0,0,0,0,0,-1,1455,701,0,0
238,323,0,0,0,0,0,0,0,0,0,-1,1462,701,0,0
245,323,0,0,0,0,0,0,0,0,0,-1,1469,701,0,0
252,323,0,0,0,0,0,0,0,0,0,-1,1476,701,0,0
259,323,0,0,0,0,0,0,0,0,0,-1,1483,701,0,0
266,323,0,0,0,0,0,0,0,0,0,-1,1490,701,0,0
273,323,0,0,0,0,0,0,0,0,0,-1,1497,701,0,0
280,323,0,0,0,0,0,0,0,0,0,-1,1504,701,0,0
287,323,0,0,0,0,0,0,0,0,0,-1,1511,701,0,0
294,323,0,0,0,0,0,0,0,0,0,-1,1518,701,0,0
301,323,0,0,0,0,0,0,0,0,0,-1,1525,701,0,0
308,323,0,0,0,0,0,0,0,0,0,-1,1532,701,0,0
315,323,0,0,0,0,0,0,0,0,0,-1,1539,701,0,0
322,323,0,0,0,0,0,0,0,0,0,-1,1546,701,0,0
329,323,0,0,0,0,0,0,0,0,0,-1,1553,701,0,0
336,323,0,0,0,0,0,0,0,0,0,-1,1560,701,0,0
343,323,0,0,0,0,0,0,0,0,0,-1,1567,701,0,0
350,323,0,0,0,0,0,0,0,0,0,-1,1574,701,0,0
357,323,0,0,0,0,0,0,0,0,0,-1,1581,701,0,0
364,323,0,0,0,0,0,0,0,0,0,-1,1588,701,0,0
371,323,0,0,0,0,0,0,0,0,0,-1,1595,701,0,0
378,323,0,0,0,0,0,0,0,0,0,-1,1602,701,0,0
385,323,0,0,0,0,0,0,0,0,0,-1,1609,701,0,0
392,323,0,0,0,0,0,0,0,0,0,-1,1616,701,0,0
399,323,0,0,0,0,0,0,0,0,0,-1,1623,701,0,0
406,323,0,0,0,0,0,0,0,0,0,-1,1630,701,0,0
413,323,0,0,0,0,0,0,0,0,0,-1,1637,701,0,0
420,323,0,0,0,0,0,0,0,0,0,-1,1644,701,0,0
427,323,0,0,0,0,0,0,0,0,0,-1,1651,701,0,0
434,323,0,0,0,0,0,0,0,0,0,-1,1658,701,0,0
441,323,0,0,0,0,0,0,0,0,0,-1,1665,701,0,0
448,323,0,0,0,0,0,0,0,0,0,-1,1672,701,0,0
455,323,0,0,0,0,0,0,0,0,0,-1,1679,701,0,0
462,323,0,0,0,0,0,0,0,0,0,-1,1686,701,0,0
469,323,0,0,0,0,0,0,0,0,0,-1,1693,701,0,0
476,323,0,0,0,0,0,0,0,0,0,-1,1700,701,0,0
483,323,0,0,0,0,0,0,0,0,0,-1,1707,701,0,0
490,323,0,0,0,0,0,0,0,0,0,-1,1714,701,0,0
497,323,0,0,0,0,0,0,0,0,0,-1,1721,701,0,0
504,323,0,0,0,0,0,0,0,0,0,-1,1728,701,0,0
511,323,0,0,0,0,0,0,0,0,0,-1,1735,701,0,0
518,323,0,0,0,0,0,0,0,0,0,-1,1742,701,0,0
525,323,0,0,0,0,0,0,0,0,0,-1,1749,701,0,0
532,323,33.6193,1.69446,0,0,0,0,0,0,0,-1,1756,701,33.6193,-1.69444
539,323,32.2698,2.44037,0,0,0,0,0,0,0,-1,1763,701,32.2697,-2.44036
546,323,31.1644,3.9444,0,0,0,0,0,0,0,-1,1770,701,31.1644,-3.94438
553,323,30.2488,5.8775,0,0,0,0,0,0,0,-1,1777,701,30.2487,-5.87752
560,323,40.6711,1.25153,0,0,0,0,0,0,0,-1,1784,701,40.6711,-1.25154
567,323,42.1637,2.01208,0,0,0,0,0,0,0,-1,1791,701,42.1637,-2.01207
574,323,12.514,5.89685,0,0,0,0,0,0,0,-1,1798,701,12.5141,-5.89683
581,323,11.821,5.3476,0,0,0,0,0,0,0,-1,1805,701,11.821,-5.34762
588,323,11.7933,7.00818,0,0,0,0,0,0,0,-1,1812,701,11.7933,-7.00819
595,323,6.67847,0.06604,0,0,0,0,0,0,0,-1,1819,701,6.67841,-0.0660418
602,323,30.6732,-7.53046,0,0,0,0,0,0,0,-1,1826,701,30.6732,7.53046
609,323,30.7742,-6.84778,0.00152054,0.00118461,0.000475309,0.00185669,0.00084846,0.615553,0.00107328,0.0490222,1833,701,30.7742,6.84776
616,323,30.8041,-6.18158,0.00155194,0.000707172,0.000572901,0.00184133,0.000417781,0.467746,0.0011147,0.0123894,1840,701,30.8041,6.18159
623,323,30.7917,-5.50818,0.00152342,0.000552854,0.000548864,0.00177077,0.000305504,0.4234,0.00109301,0.0134459,1847,701,30.7917,5.50819
630,323,30.7673,-4.81311,0.00138379,0.000569257,0.000644336,0.00173878,0.000214267,0.503563,0.00109478,0.0146403,1854,701,30.7673,4.81311
637,323,30.749,-4.14178,0.000944335,0.000711183,0.000655877,0.00149392,0.000161602,0.697446,0.000946685,0.0112191,1861,701,30.7491,4.14181
644,323,30.709,-3.47852,0.000353671,0.000976037,0.000657517,0.00139229,-6.2582e-05,1.00642,0.000949742,0.00830322,1868,701,30.709,3.47852
651,323,30.6862,-2.78088,-0.00042801,0.00130773,0.000611651,0.00150161,-0.000621891,1.26384,0.00126058,0.0107012,1875,701,30.6862,2.78086
658,323,30.6245,-2.08173,-0.00143394,0.00180878,0.000542822,0.00189724,-0.00152239,1.40926,0.00197827,0.0166362,1882,701,30.6245,2.0817
665,323,30.5764,-1.41309,-0.00270859,0.00240271,0.000400877,0.00243396,-0.00273984,1.493,0.00298883,0.0142809,1889,701,30.5764,1.41307
672,323,30.5997,-0.687195,-0.00430463,0.00316471,0.000171072,0.00316862,-0.00430855,1.54791,0.00433364,0.0163956,1896,701,30.5998,0.687208
679,323,30.4694,-0.0141602,-0.00646048,0.0040686,-0.000162219,0.0040711,-0.00646298,-1.55539,0.00613389,0.0490796,1903,701,30.4694,0.0141796
686,323,30.3691,0.478271,0,0,0,0,0,0,0,-1,1910,701,30.3691,-0.478252
693,323,23.8806,1.08844,0,0,0,0,0,0,0,-1,1917,701,23.8806,-1.08845
700,323,10.7705,0.828613,0,0,0,0,0,0,0,-1,1924,701,10.7705,-0.828591
707,323,16.9005,4.79193,0,0,0,0,0,0,0,-1,1931,701,16.9005,-4.7919
714,323,16.2346,6.25958,0,0,0,0,0,0,0,-1,1938,701,16.2346,-6.25956
721,323,0,0,0,0,0,0,0,0,0,-1,1945,701,0,0
728,323,0,0,0,0,0,0,0,0,0,-1,1952,701,0,0
735,323,0,0,0,0,0,0,0,0,0,-1,1959,701,0,0
742,323,0,0,0,0,0,0,0,0,0,-1,1966,701,0,0
749,323,0,0,0,0,0,0,0,0,0,-1,1973,701,0,0
756,323,0,0,0,0,0,0,0,0,0,-1,1980,701,0,0
763,323,0,0,0,0,0,0,0,0,0,-1,1987,701,0,0
770,323,0,0,0,0,0,0,0,0,0,-1,1994,701,0,0
777,323,0,0,0,0,0,0,0,0,0,-1,2001,701,0,0
784,323,0,0,0,0,0,0,0,0,0,-1,2008,701,0,0
791,323,0,0,0,0,0,0,0,0,0,-1,2015,701,0,0
798,323,0,0,0,0,0,0,0,0,0,-1,2022,701,0,0
805,323,0,0,0,0,0,0,0,0,0,-1,2029,701,0,0
812,323,0,0,0,0,0,0,0,0,0,-1,2036,701,0,0
-700,316,0,0,0,0,0,0,0,0,0,-1,524,708,0,0
-693,316,0,0,0,0,0,0,0,0,0,-1,531,708,0,0
-686,316,0,0,0,0,0,0,0,0,0,-1,538,708,0,0
-679,316,0,0,0,0,0,0,0,0,0,-1,545,708,0,0
-672,316,0,0,0,0,0,0,0,0,0,-1,552,708,0,0
-665,316,0,0,0,0,0,0,0,0,0,-1,559,708,0,0
-658,316,0,0,0,0,0,0,0,0,0,-1,566,708,0,0
-651,316,0,0,0,0,0,0,0,0,0,-1,573,708,0,0
-644,316,0,0,0,0,0,0,0,0,0,-1,580,708,0,0
-637,316,0,0,0,0,0,0,0,0,0,-1,587,708,0,0
-630,316,0,0,0,0,0,0,0,0,0,-1,594,708,0,0
-623,316,0,0,0,0,0,0,0,0,0,-1,601,708,0,0
-616,316,0,0,0,0,0,0,0,0,0,-1,608,708,0,0
-609,316,0,0,0,0,0,0,0,0,0,-1,615,708,0,0
-602,316,-0.451782,-0.0494995,0,0,0,0,0,0,0,-1,622,708,-0.451768,0.0495022
-595,316,-3.3761,2.17188,0,0,0,0,0,0,0,-1,629,708,-3.37609,-2.17189
-588,316,-5.00177,2.60675,0,0,0,0,0,0,0,-1,636,708,-5.00175,-2.60676
-581,316,-3.94653,0.393433,0,0,0,0,0,0,0,-1,643,708,-3.94655,-0.39342
-574,316,-9.67395,1.06067,0,0,0,0,0,0,0,-1,650,708,-9.67396,-1.06065
-567,316,-10.1962,0.448425,0,0,0,0,0,0,0,-1,657,708,-10.1962,-0.448411
-560,316,-18.9941,-1.75067,0,0,0,0,0,0,0,-1,664,708,-18.9941,1.75068
-553,316,-19.4882,-1.84186,0,0,0,0,0,0,0,-1,671,708,-19.4882,1.84188
-546,316,-19.4064,-2.47284,-0.00191834,0.00429684,-0.000226422,0.00430508,-0.00192658,-1.53443,0.00368417,0.0337079,678,708,-19.4064,2.47285
-539,316,-19.2985,-3.17145,-0.00109946,0.00316295,-0.000134862,0.00316722,-0.00110372,-1.5392,0.00255997,0.0139081,685,708,-19.2984,3.17143
-532,316,-19.3323,-3.81274,-0.000503598,0.00211342,3.1635e-05,0.0021138,-0.000503981,1.55871,0.00160381,0.0110797,692,708,-19.3323,3.81275
-525,316,-19.3576,-4.44781,-4.19584e-05,0.00111839,0.000261805,0.00117472,-9.82934e-05,1.35885,0.000817884,0.00953694,699,708,-19.3576,4.44784
-518,316,-19.3826,-5.10431,0.000358003,0.000286589,0.000521541,0.000845058,-0.000200466,0.751219,0.000640734,0.00992494,706,708,-19.3826,5.10428
-511,316,-19.4209,-5.7547,0.000699017,-0.000467003,0.000828968,0.00112946,-0.000897447,0.478931,0.00117279,0.0107811,713,708,-19.4209,5.75471
-504,316,-19.4515,-6.4248,0.00102159,-0.000994642,0.00124455,0.0016151,-0.00158815,0.444986,0.00184942,0.014162,720,708,-19.4515,6.4248
-497,316,-19.4612,-7.0412,0.00142048,-0.00131373,0.00165313,0.00219856,-0.00209181,0.43991,0.00247731,0.0131211,727,708,-19.4612,7.04117
-490,316,-19.4858,-7.68341,0.00208647,-0.00139471,0.00219759,0.00314928,-0.00245751,0.450462,0.00324529,0.0179061,734,708,-19.4858,7.6834
-483,316,-19.4274,-8.32874,0,0,0,0,0,0,0,-1,741,708,-19.4274,8.32874
-476,316,-8.90894,-3.31207,0,0,0,0,0,0,0,-1,748,708,-8.90896,3.31206
-469,316,-6.24194,-1.42725,0,0,0,0,0,0,0,-1,755,708,-6.24192,1.42725
-462,316,-5.74237,-1.40039,0,0,0,0,0,0,0,-1,762,708,-5.74238,1.40039
-455,316,-5.44745,-1.21899,0,0,0,0,0,0,0,-1,769,708,-5.44746,1.21898
-448,316,-14.8945,0.655396,0,0,0,0,0,0,0,-1,776,708,-14.8946,-0.655396
-441,316,-14.9626,0.576111,0,0,0,0,0,0,0,-1,783,708,-14.9626,-0.576115
-434,316,-27.7723,1.15576,0,0,0,0,0,0,0,-1,790,708,-27.7723,-1.15579
-427,316,-28.0504,1.31427,0,0,0,0,0,0,0,-1,797,708,-28.0504,-1.31427
-420,316,-28.198,1.62891,0,0,0,0,0,0,0,-1,804,708,-28.198,-1.62889
-413,316,0,0,0,0,0,0,0,0,0,-1,811,708,0,0
-406,316,0,0,0,0,0,0,0,0,0,-1,818,708,0,0
-399,316,0,0,0,0,0,0,0,0,0,-1,825,708,0,0
-392,316,0,0,0,0,0,0,0,0,0,-1,832,708,0,0
-385,316,0,0,0,0,0,0,0,0,0,-1,839,708,0,0
-378,316,0,0,0,0,0,0,0,0,0,-1,846,708,0,0
-371,316,0,0,0,0,0,0,0,0,0,-1,853,708,0,0
-364,316,0,0,0,0,0,0,0,0,0,-1,860,708,0,0
-357,316,0,0,0,0,0,0,0,0,0,-1,867,708,0,0
-350,316,0,0,0,0,0,0,0,0,0,-1,874,708,0,0
-343,316,0,0,0,0,0,0,0,0,0,-1,881,708,0,0
-336,316,0,0,0,0,0,0,0,0,0,-1,888,708,0,0
-329,316,0,0,0,0,0,0,0,0,0,-1,895,708,0,0
-322,316,0,0,0,0,0,0,0,0,0,-1,902,708,0,0
-315,316,0,0,0,0,0,0,0,0,0,-1,909,708,0,0
-308,316,0,0,0,0,0,0,0,0,0,-1,916,708,0,0
-301,316,0,0,0,0,0,0,0,0,0,-1,923,708,0,0
-294,316,0,0,0,0,0,0,0,0,0,-1,930,708,0,0
-287,316,0,0,0,0,0,0,0,0,0,-1,937,708,0,0
-280,316,0,0,0,0,0,0,0,0,0,-1,944,708,0,0
-273,316,0,0,0,0,0,0,0,0,0,-1,951,708,0,0
-266,316,0,0,0,0,0,0,0,0,0,-1,958,708,0,0
-259,316,0,0,0,0,0,0,0,0,0,-1,965,708,0,0
-252,316,0,0,0,0,0,0,0,0,0,-1,972,708,0,0
-245,316,0,0,0,0,0,0,0,0,0,-1,979,708,0,0
-238,316,0,0,0,0,0,0,0,0,0,-1,986,708,0,0
-231,316,0,0,0,0,0,0,0,0,0,-1,993,708,0,0
-224,316,0,0,0,0,0,0,0,0,0,-1,1000,708,0,0
-217,316,0,0,0,0,0,0,0,0,0,-1,1007,708,0,0
-210,316,0,0,0,0,0,0,0,0,0,-1,1014,708,0,0
-203,316,0,0,0,0,0,0,0,0,0,-1,1021,708,0,0
-196,316,0,0,0,0,0,0,0,0,0,-1,1028,708,0,0
-189,316,0,0,0,0,0,0,0,0,0,-1,1035,708,0,0
-182,316,0,0,0,0,0,0,0,0,0,-1,1042,708,0,0
-175,316,0,0,0,0,0,0,0,0,0,-1,1049,708,0,0
-168,316,0,0,0,0,0,0,0,0,0,-1,1056,708,0,0
-161,316,0,0,0,0,0,0,0,0,0,-1,1063,708,0,0
-154,316,0,0,0,0,0,0,0,0,0,-1,1070,708,0,0
-147,316,0,0,0,0,0,0,0,0,0,-1,1077,708,0,0
-140,316,0,0,0,0,0,0,0,0,0,-1,1084,708,0,0
-133,316,0,0,0,0,0,0,0,0,0,-1,1091,708,0,0
-126,316,0,0,0,0,0,0,0,0,0,-1,1098,708,0,0
-119,316,0,0,0,0,0,0,0,0,0,-1,1105,708,0,0
-112,316,0,0,0,0,0,0,0,0,0,-1,1112,708,0,0
-105,316,0,0,0,0,0,0,0,0,0,-1,1119,708,0,0
-98,316,0,0,0,0,0,0,0,0,0,-1,1126,708,0,0
-91,316,0,0,0,0,0,0,0,0,0,-1,1133,708,0,0
-84,316,0,0,0,0,0,0,0,0,0,-1,1140,708,0,0
-77,316,0,0,0,0,0,0,0,0,0,-1,1147,708,0,0
-70,316,0,0,0,0,0,0,0,0,0,-1,1154,708,0,0
-63,316,0,0,0,0,0,0,0,0,0,-1,1161,708,0,0
-56,316,0,0,0,0,0,0,0,0,0,-1,1168,708,0,0
-49,316,0,0,0,0,0,0,0,0,0,-1,1175,708,0,0
-42,316,0,0,0,0,0,0,0,0,0,-1,1182,708,0,0
-35,316,0,0,0,0,0,0,0,0,0,-1,1189,708,0,0
-28,316,0,0,0,0,0,0,0,0,0,-1,1196,708,0,0
-21,316,0,0,0,0,0,0,0,0,0,-1,1203,708,0,0
-14,316,0,0,0,0,0,0,0,0,0,-1,1210,708,0,0
-7,316,0,0,0,0,0,0,0,0,0,-1,1217,708,0,0
0,316,0,0,0,0,0,0,0,0,0,-1,1224,708,0,0
7,316,0,0,0,0,0,0,0,0,0,-1,1231,708,0,0
14,316,0,0,0,0,0,0,0,0,0,-1,1238,708,0,0
21,316,0,0,0,0,0,0,0,0,0,-1,1245,708,0,0
28,316,0,0,0,0,0,0,0,0,0,-1,1252,708,0,0
35,316,0,0,0,0,0,0,0,0,0,-1,1259,708,0,0
42,316,0,0,0,0,0,0,0,0,0,-1,1266,708,0,0
49,316,0,0,0,0,0,0,0,0,0,-1,1273,708,0,0
56,316,0,0,0,0,0,0,0,0,0,-1,1280,708,0,0
63,316,0,0,0,0,0,0,0,0,0,-1,1287,708,0,0
70,316,0,0,0,0,0,0,0,0,0,-1,1294,708,0,0
77,316,0,0,0,0,0,0,0,0,0,-1,1301,708,0,0
84,316,0,0,0,0,0,0,0,0,0,-1,1308,708,0,0
91,316,0,0,0,0,0,0,0,0,0,-1,1315,708,0,0
98,316,0,0,0,0,0,0,0,0,0,-1,1322,708,0,0
105,316,0,0,0,0,0,0,0,0,0,-1,1329,708,0,0
112,316,0,0,0,0,0,0,0,0,0,-1,1336,708,0,0
119,316,0,0,0,0,0,0,0,0,0,-1,1343,708,0,0
126,316,0,0,0,0,0,0,0,0,0,-1,1350,708,0,0
133,316,0,0,0,0,0,0,0,0,0,-1,1357,708,0,0
140,316,0,0,0,0,0,0,0,0,0,-1,1364,708,0,0
147,316,0,0,0,0,0,0,0,0,0,-1,1371,708,0,0
154,316,0,0,0,0,0,0,0,0,0,-1,1378,708,0,0
161,316,0,0,0,0,0,0,0,0,0,-1,1385,708,0,0
168,316,0,0,0,0,0,0,0,0,0,-1,1392,708,0,0
175,316,0,0,0,0,0,0,0,0,0,-1,1399,708,0,0
182,316,0,0,0,0,0,0,0,0,0,-1,1406,708,0,0
189,316,0,0,0,0,0,0,0,0,0,-1,1413,708,0,0
196,316,0,0,0,0,0,0,0,0,0,-1,1420,708,0,0
203,316,0,0,0,0,0,0,0,0,0,-1,1427,708,0,0
210,316,0,0,0,0,0,0,0,0,0,-1,1434,708,0,0
217,316,0,0,0,0,0,0,0,0,0,-1,1441,708,0,0
224,316,0,0,0,0,0,0,0,0,0,-1,1448,708,0,0
231,316,0,0,0,0,0,0,0,0,0,-1,1455,708,0,0
238,316,0,0,0,0,0,0,0,0,0,-1,1462,708,0,0
245,316,0,0,0,0,0,0,0,0,0,-1,1469,708,0,0
252,316,0,0,0,0,0,0,0,0,0,-1,1476,708,0,0
259,316,0,0,0,0,0,0,0,0,0,-1,1483,708,0,0
266,316,0,0,0,0,0,0,0,0,0,-1,1490,708,0,0
273,316,0,0,0,0,0,0,0,0,0,-1,1497,708,0,0
280,316,0,0,0,0,0,0,0,0,0,-1,1504,708,0,0
287,316,0,0,0,0,0,0,0,0,0,-1,1511,708,0,0
294,316,0,0,0,0,0,0,0,0,0,-1,1518,708,0,0
301,316,0,0,0,0,0,0,0,0,0,-1,1525,708,0,0
308,316,0,0,0,0,0,0,0,0,0,-1,1532,708,0,0
315,316,0,0,0,0,0,0,0,0,0,-1,1539,708,0,0
322,316,0,0,0,0,0,0,0,0,0,-1,1546,708,0,0
329,316,0,0,0,0,0,0,0,0,0,-1,1553,708,0,0
336,316,0,0,0,0,0,0,0,0,0,-1,1560,708,0,0
343,316,0,0,0,0,0,0,0,0,0,-1,1567,708,0,0
350,316,0,0,0,0,0,0,0,0,0,-1,1574,708,0,0
357,316,0,0,0,0,0,0,0,0,0,-1,1581,708,0,0
364,316,0,0,0,0,0,0,0,0,0,-1,1588,708,0,0
371,316,0,0,0,0,0,0,0,0,0,-1,1595,708,0,0
378,316,0,0,0,0,0,0,0,0,0,-1,1602,708,0,0
385,316,0,0,0,0,0,0,0,0,0,-1,1609,708,0,0
392,316,0,0,0,0,0,0,0,0,0,-1,1616,708,0,0
399,316,0,0,0,0,0,0,0,0,0,-1,1623,708,0,0
406,316,0,0,0,0,0,0,0,0,0,-1,1630,708,0,0
413,316,0,0,0,0,0,0,0,0,0,-1,1637,708,0,0
420,316,0,0,0,0,0,0,0,0,0,-1,1644,708,0,0
427,316,0,0,0,0,0,0,0,0,0,-1,1651,708,0,0
434,316,0,0,0,0,0,0,0,0,0,-1,1658,708,0,0
441,316,0,0,0,0,0,0,0,0,0,-1,1665,708,0,0
448,316,0,0,0,0,0,0,0,0,0,-1,1672,708,0,0
455,316,0,0,0,0,0,0,0,0,0,-1,1679,708,0,0
462,316,0,0,0,0,0,0,0,0,0,-1,1686,708,0,0
469,316,0,0,0,0,0,0,0,0,0,-1,1693,708,0,0
476,316,0,0,0,0,0,0,0,0,0,-1,1700,708,0,0
483,316,0,0,0,0,0,0,0,0,0,-1,1707,708,0,0
490,316,0,0,0,0,0,0,0,0,0,-1,1714,708,0,0
497,316,0,0,0,0,0,0,0,0,0,-1,1721,708,0,0
504,316,0,0,0,0,0,0,0,0,0,-1,1728,708,0,0
511,316,0,0,0,0,0,0,0,0,0,-1,1735,708,0,0
518,316,0,0,0,0,0,0,0,0,0,-1,1742,708,0,0
525,316,0,0,0,0,0,0,0,0,0,-1,1749,708,0,0
532,316,33.8604,0.531128,0,0,0,0,0,0,0,-1,1756,708,33.8604,-0.531151
539,316,44.4543,2.73468,0,0,0,0,0,0,0,-1,1763,708,44.4543,-2.7347
546,316,44.713,3.35498,0,0,0,0,0,0,0,-1,1770,708,44.7131,-3.35501
553,316,39.9031,6.57275,0,0,0,0,0,0,0,-1,1777,708,39.9031,-6.57274
560,316,39.1196,1.10046,0,0,0,0,0,0,0,-1,1784,708,39.1197,-1.10048
567,316,47.3683,6.04919,0,0,0,0,0,0,0,-1,1791,708,47.3683,-6.04918
574,316,45.9872,6.7655,0,0,0,0,0,0,0,-1,1798,708,45.9871,-6.76552
581,316,24.6815,7.77496,0,0,0,0,0,0,0,-1,1805,708,24.6815,-7.77499
588,316,19.7659,2.90198,0,0,0,0,0,0,0,-1,1812,708,19.7659,-2.902
595,316,12.5363,1.50702,0,0,0,0,0,0,0,-1,1819,708,12.5363,-1.50701
602,316,7.79919,0.0422363,0,0,0,0,0,0,0,-1,1826,708,7.79923,-0.0422066
609,316,31.4559,-6.79041,0,0,0,0,0,0,0,-1,1833,708,31.4559,6.79042
616,316,31.4961,-6.15942,0.00173088,0.000523746,0.000562531,0.00195238,0.000302247,0.375111,0.00121345,0.0143856,1840,708,31.4961,6.15942
623,316,31.481,-5.47217,0.00164422,0.000325316,0.00046877,0.00179386,0.000175681,0.308984,0.00114186,0.0115629,1847,708,31.4809,5.47219
630,316,31.4335,-4.80389,0.0015431,0.000326911,0.000564078,0.00176444,0.00010557,0.373933,0.00114273,0.0136582,1854,708,31.4334,4.80391
637,316,31.4137,-4.09613,0.00111857,0.000451179,0.000576388,0.00145089,0.00011886,0.523002,0.000930174,0.0126575,1861,708,31.4137,4.09611
644,316,31.3975,-3.42114,0.000577378,0.00073987,0.000601345,0.00126543,5.18148e-05,0.852545,0.000826892,0.0122797,1868,708,31.3975,3.42117
651,316,31.3534,-2.75,-9.81686e-05,0.00109942,0.000597198,0.00134632,-0.00034507,1.17876,0.00103198,0.0147782,1875,708,31.3534,2.75001
658,316,31.2908,-2.03632,-0.000916576,0.00163602,0.000590084,0.00176583,-0.00104638,1.35426,0.00164125,0.027156,1882,708,31.2908,2.03634
665,316,31.2228,-1.35358,-0.00187759,0.00228152,0.000566654,0.00235734,-0.00195342,1.43778,0.00249246,0.0199858,1889,708,31.2228,1.35355
672,316,31.2495,-0.696838,-0.00303621,0.00308457,0.000504711,0.00312591,-0.00307755,1.48907,0.0035816,0.0136462,1896,708,31.2495,0.696848
679,316,31.3051,0.0818481,-0.00448743,0.00406319,0.000423911,0.00408415,-0.00450839,1.52138,0.00496293,0.0437365,1903,708,31.3051,-0.0818692
686,316,31.3998,0.841858,0,0,0,0,0,0,0,-1,1910,708,31.3998,-0.841865
693,316,26.4315,1.80652,0,0,0,0,0,0,0,-1,1917,708,26.4315,-1.80651
700,316,12.8749,2.89136,0,0,0,0,0,0,0,-1,1924,708,12.8748,-2.89137
707,316,15.7089,5.41486,0,0,0,0,0,0,0,-1,1931,708,15.7088,-5.41487
714,316,16.1727,5.52045,0,0,0,0,0,0,0,-1,1938,708,16.1728,-5.52042
721,316,16.7094,6.53351,0,0,0,0,0,0,0,-1,1945,708,16.7094,-6.5335
728,316,0,0,0,0,0,0,0,0,0,-1,1952,708,0,0
735,316,0,0,0,0,0,0,0,0,0,-1,1959,708,0,0
742,316,0,0,0,0,0,0,0,0,0,-1,1966,708,0,0
749,316,0,0,0,0,0,0,0,0,0,-1,1973,708,0,0
756,316,0,0,0,0,0,0,0,0,0,-1,1980,708,0,0
763,316,0,0,0,0,0,0,0,0,0,-1,1987,708,0,0
770,316,0,0,0,0,0,0,0,0,0,-1,1994,708,0,0
777,316,0,0,0,0,0,0,0,0,0,-1,2001,708,0,0
784,316,0,0,0,0,0,0,0,0,0,-1,2008,708,0,0
791,316,0,0,0,0,0,0,0,0,0,-1,2015,708,0,0
798,316,0,0,0,0,0,0,0,0,0,-1,2022,708,0,0
805,316,0,0,0,0,0,0,0,0,0,-1,2029,708,0,0
812,316,0,0,0,0,0,0,0,0,0,-1,2036,708,0,0
-700,309,0,0,0,0,0,0,0,0,0,-1,524,715,0,0
-693,309,0,0,0,0,0,0,0,0,0,-1,531,715,0,0
-686,309,0,0,0,0,0,0,0,0,0,-1,538,715,0,0
-679,309,0,0,0,0,0,0,0,0,0,-1,545,715,0,0
-672,309,0,0,0,0,0,0,0,0,0,-1,552,715,0,0
-665,309,0,0,0,0,0,0,0,0,0,-1,559,715,0,0
-658,309,0,0,0,0,0,0,0,0,0,-1,566,715,0,0
-651,309,0,0,0,0,0,0,0,0,0,-1,573,715,0,0
-644,309,0,0,0,0,0,0,0,0,0,-1,580,715,0,0
-637,309,0,0,0,0,0,0,0,0,0,-1,587,715,0,0
-630,309,0,0,0,0,0,0,0,0,0,-1,594,715,0,0
-623,309,0,0,0,0,0,0,0,0,0,-1,601,715,0,0
-616,309,0,0,0,0,0,0,0,0,0,-1,608,715,0,0
-609,309,-5.95392,-3.93689,0,0,0,0,0,0,0,-1,615,715,-5.95392,3.93686
-602,309,-4.99786,-3.31287,0,0,0,0,0,0,0,-1,622,715,-4.99786,3.31284
-595,309,-6.80847,2.4046,0,0,0,0,0,0,0,-1,629,715,-6.80845,-2.40458
-588,309,-6.08795,2.19324,0,0,0,0,0,0,0,-1,636,715,-6.08793,-2.19325
-581,309,-5.97552,1.3277,0,0,0,0,0,0,0,-1,643,715,-5.97552,-1.32769
-574,309,-8.73602,0.208435,0,0,0,0,0,0,0,-1,650,715,-8.73604,-0.208437
-567,309,-10.3909,0.85968,0,0,0,0,0,0,0,-1,657,715,-10.3909,-0.859696
-560,309,-18.6088,-1.73389,0,0,0,0,0,0,0,-1,664,715,-18.6088,1.73389
-553,309,-20.1556,-1.78516,0,0,0,0,0,0,0,-1,671,715,-20.1556,1.78515
-546,309,-20.0325,-2.46497,-0.00158003,0.00359876,-3.03799e-05,0.00359894,-0.00158021,-1.56493,0.00306496,0.0267374,678,715,-20.0325,2.46494
-539,309,-19.9548,-3.15637,-0.000824092,0.00249832,6.32793e-05,0.00249953,-0.000825297,1.55176,0.00199907,0.0156321,685,715,-19.9549,3.15636
-532,309,-19.9714,-3.78851,-0.000302082,0.00148422,0.000249269,0.00151835,-0.000336214,1.43471,0.00114094,0.0129061,692,715,-19.9715,3.78852
-525,309,-19.9809,-4.44519,5.91013e-05,0.000504302,0.000508914,0.000837169,-0.000273766,0.991562,0.000668327,0.0157013,699,715,-19.9809,4.44517
-518,309,-20.0231,-5.09912,0.000382679,-0.000270388,0.000805749,0.000925545,-0.000813254,0.592884,0.00100459,0.015932,706,715,-20.0231,5.09914
-511,309,-20.0783,-5.71594,0.000675042,-0.000911364,0.00119917,0.00131961,-0.00155593,0.493203,0.00166206,0.0120725,713,715,-20.0783,5.71597
-504,309,-20.0792,-6.38928,0.000976433,-0.00117506,0.00181325,0.00200903,-0.00220765,0.517671,0.0024354,0.00987659,720,715,-20.0792,6.38925
-497,309,-20.0968,-7.00116,0.00141419,-0.00121998,0.00243396,0.00286457,-0.00267036,0.537395,0.00319625,0.0146542,727,715,-20.0968,7.00115
-490,309,-20.1241,-7.62671,0,0,0,0,0,0,0,-1,734,715,-20.1241,7.6267
-483,309,-17.7261,-7.75836,0,0,0,0,0,0,0,-1,741,715,-17.7261,7.75839
-476,309,-5.29486,-1.2262,0,0,0,0,0,0,0,-1,748,715,-5.29484,1.22622
-469,309,-4.22717,-0.592896,0,0,0,0,0,0,0,-1,755,715,-4.2272,0.592905
-462,309,-10.428,2.46948,0,0,0,0,0,0,0,-1,762,715,-10.428,-2.46947
-455,309,-15.8216,0.00915527,0,0,0,0,0,0,0,-1,769,715,-15.8216,-0.00913359
-448,309,-37.3543,-1.02441,0,0,0,0,0,0,0,-1,776,715,-37.3543,1.02444
-441,309,-19.8181,1.4425,0,0,0,0,0,0,0,-1,783,715,-19.8181,-1.44249
-434,309,-28.3196,0.95105,0,0,0,0,0,0,0,-1,790,715,-28.3196,-0.951068
-427,309,-27.8553,1.40332,0,0,0,0,0,0,0,-1,797,715,-27.8553,-1.40334
-420,309,-27.3148,1.90747,0,0,0,0,0,0,0,-1,804,715,-27.3148,-1.90745
-413,309,0,0,0,0,0,0,0,0,0,-1,811,715,0,0
-406,309,0,0,0,0,0,0,0,0,0,-1,818,715,0,0
-399,309,0,0,0,0,0,0,0,0,0,-1,825,715,0,0
-392,309,0,0,0,0,0,0,0,0,0,-1,832,715,0,0
-385,309,0,0,0,0,0,0,0,0,0,-1,839,715,0,0
-378,309,0,0,0,0,0,0,0,0,0,-1,846,715,0,0
-371,309,0,0,0,0,0,0,0,0,0,-1,853,715,0,0
-364,309,0,0,0,0,0,0,0,0,0,-1,860,715,0,0
-357,309,0,0,0,0,0,0,0,0,0,-1,867,715,0,0
-350,309,0,0,0,0,0,0,0,0,0,-1,874,715,0,0
-343,309,0,0,0,0,0,0,0,0,0,-1,881,715,0,0
-336,309,0,0,0,0,0,0,0,0,0,-1,888,715,0,0
-329,309,0,0,0,0,0,0,0,0,0,-1,895,715,0,0
-322,309,0,0,0,0,0,0,0,0,0,-1,902,715,0,0
-315,309,0,0,0,0,0,0,0,0,0,-1,909,715,0,0
-308,309,0,0,0,0,0,0,0,0,0,-1,916,715,0,0
-301,309,0,0,0,0,0,0,0,0,0,-1,923,715,0,0
-294,309,0,0,0,0,0,0,0,0,0,-1,930,715,0,0
-287,309,0,0,0,0,0,0,0,0,0,-1,937,715,0,0
-280,309,0,0,0,0,0,0,0,0,0,-1,944,715,0,0
-273,309,0,0,0,0,0,0,0,0,0,-1,951,715,0,0
-266,309,0,0,0,0,0,0,0,0,0,-1,958,715,0,0
-259,309,0,0,0,0,0,0,0,0,0,-1,965,715,0,0
-252,309,0,0,0,0,0,0,0,0,0,-1,972,715,0,0
-245,309,0,0,0,0,0,0,0,0,0,-1,979,715,0,0
-238,309,0,0,0,0,0,0,0,0,0,-1,986,715,0,0
-231,309,0,0,0,0,0,0,0,0,0,-1,993,715,0,0
-224,309,0,0,0,0,0,0,0,0,0,-1,1000,715,0,0
-217,309,0,0,0,0,0,0,0,0,0,-1,1007,715,0,0
-210,309,0,0,0,0,0,0,0,0,0,-1,1014,715,0,0
-203,309,0,0,0,0,0,0,0,0,0,-1,1021,715,0,0
-196,309,0,0,0,0,0,0,0,0,0,-1,1028,715,0,0
-189,309,0,0,0,0,0,0,0,0,0,-1,1035,715,0,0
-182,309,0,0,0,0,0,0,0,0,0,-1,1042,715,0,0
-175,309,0,0,0,0,0,0,0,0,0,-1,1049,715,0,0
-168,309,0,0,0,0,0,0,0,0,0,-1,1056,715,0,0
-161,309,0,0,0,0,0,0,0,0,0,-1,1063,715,0,0
-154,309,0,0,0,0,0,0,0,0,0,-1,1070,715,0,0
-147,309,0,0,0,0,0,0,0,0,0,-1,1077,715,0,0
-140,309,0,0,0,0,0,0,0,0,0,-1,1084,715,0,0
-133,309,0,0,0,0,0,0,0,0,0,-1,1091,715,0,0
-126,309,0,0,0,0,0,0,0,0,0,-1,1098,715,0,0
-119,309,0,0,0,0,0,0,0,0,0,-1,1105,715,0,0
-112,309,0,0,0,0,0,0,0,0,0,-1,1112,715,0,0
-105,309,0,0,0,0,0,0,0,0,0,-1,1119,715,0,0
-98,309,0,0,0,0,0,0,0,0,0,-1,1126,715,0,0
-91,309,0,0,0,0,0,0,0,0,0,-1,1133,715,0,0
-84,309,0,0,0,0,0,0,0,0,0,-1,1140,715,0,0
-77,309,0,0,0,0,0,0,0,0,0,-1,1147,715,0,0
-70,309,0,0,0,0,0,0,0,0,0,-1,1154,715,0,0
-63,309,0,0,0,0,0,0,0,0,0,-1,1161,715,0,0
-56,309,0,0,0,0,0,0,0,0,0,-1,1168,715,0,0
-49,309,0,0,0,0,0,0,0,0,0,-1,1175,715,0,0
-42,309,0,0,0,0,0,0,0,0,0,-1,1182,715,0,0
-35,309,0,0,0,0,0,0,0,0,0,-1,1189,715,0,0
-28,309,0,0,0,0,0,0,0,0,0,-1,1196,715,0,0
-21,309,0,0,0,0,0,0,0,0,0,-1,1203,715,0,0
-14,309,0,0,0,0,0,0,0,0,0,-1,1210,715,0,0
-7,309,0,0,0,0,0,0,0,0,0,-1,1217,715,0,0
0,309,0,0,0,0,0,0,0,0,0,-1,1224,715,0,0
7,309,0,0,0,0,0,0,0,0,0,-1,1231,715,0,0
14,309,0,0,0,0,0,0,0,0,0,-1,1238,715,0,0
21,309,0,0,0,0,0,0,0,0,0,-1,1245,715,0,0
28,309,0,0,0,0,0,0,0,0,0,-1,1252,715,0,0
35,309,0,0,0,0,0,0,0,0,0,-1,1259,715,0,0
42,309,0,0,0,0,0,0,0,0,0,-1,1266,715,0,0
49,309,0,0,0,0,0,0,0,0,0,-1,1273,715,0,0
56,309,0,0,0,0,0,0,0,0,0,-1,1280,715,0,0
63,309,0,0,0,0,0,0,0,0,0,-1,1287,715,0,0
70,309,0,0,0,0,0,0,0,0,0,-1,1294,715,0,0
77,309,0,0,0,0,0,0,0,0,0,-1,1301,715,0,0
84,309,0,0,0,0,0,0,0,0,0,-1,1308,715,0,0
91,309,0,0,0,0,0,0,0,0,0,-1,1315,715,0,0
98,309,0,0,0,0,0,0,0,0,0,-1,1322,715,0,0
105,309,0,0,0,0,0,0,0,0,0,-1,1329,715,0,0
112,309,0,0,0,0,0,0,0,0,0,-1,1336,715,0,0
119,309,0,0,0,0,0,0,0,0,0,-1,1343,715,0,0
126,309,0,0,0,0,0,0,0,0,0,-1,1350,715,0,0
133,309,0,0,0,0,0,0,0,0,0,-1,1357,715,0,0
140,309,0,0,0,0,0,0,0,0,0,-1,1364,715,0,0
147,309,0,0,0,0,0,0,0,0,0,-1,1371,715,0,0
154,309,0,0,0,0,0,0,0,0,0,-1,1378,715,0,0
161,309,0,0,0,0,0,0,0,0,0,-1,1385,715,0,0
168,309,0,0,0,0,0,0,0,0,0,-1,1392,715,0,0
175,309,0,0,0,0,0,0,0,0,0,-1,1399,715,0,0
182,309,0,0,0,0,0,0,0,0,0,-1,1406,715,0,0
189,309,0,0,0,0,0,0,0,0,0,-1,1413,715,0,0
196,309,0,0,0,0,0,0,0,0,0,-1,1420,715,0,0
203,309,0,0,0,0,0,0,0,0,0,-1,1427,715,0,0
210,309,0,0,0,0,0,0,0,0,0,-1,1434,715,0,0
217,309,0,0,0,0,0,0,0,0,0,-1,1441,715,0,0
224,309,0,0,0,0,0,0,0,0,0,-1,1448,715,0,0
231,309,0,0,0,0,0,0,0,0,0,-1,1455,715,0,0
238,309,0,0,0,0,0,0,0,0,0,-1,1462,715,0,0
245,309,0,0,0,0,0,0,0,0,0,-1,1469,715,0,0
252,309,0,0,0,0,0,0,0,0,0,-1,1476,715,0,0
259,309,0,0,0,0,0,0,0,0,0,-1,1483,715,0,0
266,309,0,0,0,0,0,0,0,0,0,-1,1490,715,0,0
273,309,0,0,0,0,0,0,0,0,0,-1,1497,715,0,0
280,309,0,0,0,0,0,0,0,0,0,-1,1504,715,0,0
287,309,0,0,0,0,0,0,0,0,0,-1,1511,715,0,0
294,309,0,0,0,0,0,0,0,0,0,-1,1518,715,0,0
301,309,0,0,0,0,0,0,0,0,0,-1,1525,715,0,0
308,309,0,0,0,0,0,0,0,0,0,-1,1532,715,0,0
315,309,0,0,0,0,0,0,0,0,0,-1,1539,715,0,0
322,309,0,0,0,0,0,0,0,0,0,-1,1546,715,0,0
329,309,0,0,0,0,0,0,0,0,0,-1,1553,715,0,0
336,309,0,0,0,0,0,0,0,0,0,-1,1560,715,0,0
343,309,0,0,0,0,0,0,0,0,0,-1,1567,715,0,0
350,309,0,0,0,0,0,0,0,0,0,-1,1574,715,0,0
357,309,0,0,0,0,0,0,0,0,0,-1,1581,715,0,0
364,309,0,0,0,0,0,0,0,0,0,-1,1588,715,0,0
371,309,0,0,0,0,0,0,0,0,0,-1,1595,715,0,0
378,309,0,0,0,0,0,0,0,0,0,-1,1602,715,0,0
385,309,0,0,0,0,0,0,0,0,0,-1,1609,715,0,0
392,309,0,0,0,0,0,0,0,0,0,-1,1616,715,0,0
399,309,0,0,0,0,0,0,0,0,0,-1,1623,715,0,0
406,309,0,0,0,0,0,0,0,0,0,-1,1630,715,0,0
413,309,0,0,0,0,0,0,0,0,0,-1,1637,715,0,0
420,309,0,0,0,0,0,0,0,0,0,-1,1644,715,0,0
427,309,0,0,0,0,0,0,0,0,0,-1,1651,715,0,0
434,309,0,0,0,0,0,0,0,0,0,-1,1658,715,0,0
441,309,0,0,0,0,0,0,0,0,0,-1,1665,715,0,0
448,309,0,0,0,0,0,0,0,0,0,-1,1672,715,0,0
455,309,0,0,0,0,0,0,0,0,0,-1,1679,715,0,0
462,309,0,0,0,0,0,0,0,0,0,-1,1686,715,0,0
469,309,0,0,0,0,0,0,0,0,0,-1,1693,715,0,0
476,309,0,0,0,0,0,0,0,0,0,-1,1700,715,0,0
483,309,0,0,0,0,0,0,0,0,0,-1,1707,715,0,0
490,309,0,0,0,0,0,0,0,0,0,-1,1714,715,0,0
497,309,0,0,0,0,0,0,0,0,0,-1,1721,715,0,0
504,309,0,0,0,0,0,0,0,0,0,-1,1728,715,0,0
511,309,0,0,0,0,0,0,0,0,0,-1,1735,715,0,0
518,309,0,0,0,0,0,0,0,0,0,-1,1742,715,0,0
525,309,0,0,0,0,0,0,0,0,0,-1,1749,715,0,0
532,309,0,0,0,0,0,0,0,0,0,-1,1756,715,0,0
539,309,44.2073,2.66235,0,0,0,0,0,0,0,-1,1763,715,44.2073,-2.66238
546,309,44.4976,3.25531,0,0,0,0,0,0,0,-1,1770,715,44.4976,-3.25533
553,309,47.9611,4.06433,0,0,0,0,0,0,0,-1,1777,715,47.9611,-4.06434
560,309,47.9784,4.64801,0,0,0,0,0,0,0,-1,1784,715,47.9784,-4.64799
567,309,47.0073,5.43121,0,0,0,0,0,0,0,-1,1791,715,47.0073,-5.43121
574,309,45.8746,6.53271,0,0,0,0,0,0,0,-1,1798,715,45.8747,-6.53269
581,309,45.0629,7.73468,0,0,0,0,0,0,0,-1,1805,715,45.0629,-7.73471
588,309,26.2064,7.76422,0,0,0,0,0,0,0,-1,1812,715,26.2064,-7.7642
595,309,19.585,3.71558,0,0,0,0,0,0,0,-1,1819,715,19.5849,-3.71555
602,309,11.0811,3.47772,0,0,0,0,0,0,0,-1,1826,715,11.0811,-3.47772
609,309,32.1428,-6.89734,0,0,0,0,0,0,0,-1,1833,715,32.1428,6.89736
616,309,32.1644,-6.16016,0.00427522,0.00067464,0.00122358,0.00465167,0.000298192,0.298471,0.00300665,0.0252748,1840,715,32.1645,6.16013
623,309,32.1606,-5.44397,0.00311503,0.000342164,0.000836831,0.00334801,0.000109189,0.271526,0.00219651,0.0112495,1847,715,32.1607,5.44397
630,309,32.106,-4.7688,0.00239562,0.000255452,0.000752248,0.00263357,1.75e-05,0.306362,0.00174991,0.0112858,1854,715,32.106,4.7688
637,309,32.0627,-4.07788,0.00163295,0.000295261,0.000654893,0.00190018,2.80307e-05,0.387429,0.00125755,0.0140368,1861,715,32.0628,4.07785
644,309,32.0276,-3.39526,0.000933326,0.000551529,0.000622758,0.00139379,9.10674e-05,0.636676,0.000900373,0.0143708,1868,715,32.0276,3.39524
651,309,32.0057,-2.7182,0.000219839,0.000891987,0.000606052,0.00124891,-0.000137084,1.03856,0.00088186,0.0135033,1875,715,32.0058,2.71821
658,309,31.9644,-2.00159,-0.000466598,0.00142463,0.000621343,0.0016105,-0.000652466,1.28013,0.00134498,0.0195869,1882,715,31.9643,2.00158
665,309,31.9723,-1.34778,-0.00116918,0.00208278,0.000676579,0.00221793,-0.00130433,1.37364,0.00205625,0.0174161,1889,715,31.9723,1.34779
672,309,31.9399,-0.687805,-0.00198241,0.0028802,0.000720123,0.0029846,-0.00208681,1.42682,0.00294324,0.01578,1896,715,31.94,0.687821
679,309,31.9595,0.0712891,-0.00291551,0.00385885,0.000785999,0.00394885,-0.00300551,1.45679,0.0040274,0.0229953,1903,715,31.9594,-0.0712802
686,309,31.7448,0.862671,-0.00389637,0.00503919,0.000921873,0.00513331,-0.00399048,1.46906,0.00528138,0.0443506,1910,715,31.7447,-0.862683
693,309,31.1532,1.6297,0,0,0,0,0,0,0,-1,1917,715,31.1532,-1.62973
700,309,23.0179,3.08337,0,0,0,0,0,0,0,-1,1924,715,23.018,-3.08336
707,309,15.6318,4.58655,0,0,0,0,0,0,0,-1,1931,715,15.6318,-4.58657
714,309,16.7573,6.68286,0,0,0,0,0,0,0,-1,1938,715,16.7574,-6.68284
721,309,16.8337,5.4458,0,0,0,0,0,0,0,-1,1945,715,16.8338,-5.44582
728,309,0,0,0,0,0,0,0,0,0,-1,1952,715,0,0
735,309,0,0,0,0,0,0,0,0,0,-1,1959,715,0,0
742,309,0,0,0,0,0,0,0,0,0,-1,1966,715,0,0
749,309,0,0,0,0,0,0,0,0,0,-1,1973,715,0,0
756,309,0,0,0,0,0,0,0,0,0,-1,1980,715,0,0
763,309,0,0,0,0,0,0,0,0,0,-1,1987,715,0,0
770,309,0,0,0,0,0,0,0,0,0,-1,1994,715,0,0
777,309,0,0,0,0,0,0,0,0,0,-1,2001,715,0,0
784,309,0,0,0,0,0,0,0,0,0,-1,2008,715,0,0
791,309,0,0,0,0,0,0,0,0,0,-1,2015,715,0,0
798,309,0,0,0,0,0,0,0,0,0,-1,2022,715,0,0
805,309,0,0,0,0,0,0,0,0,0,-1,2029,715,0,0
812,309,0,0,0,0,0,0,0,0,0,-1,2036,715,0,0
-700,302,0,0,0,0,0,0,0,0,0,-1,524,722,0,0
-693,302,0,0,0,0,0,0,0,0,0,-1,531,722,0,0
-686,302,0,0,0,0,0,0,0,0,0,-1,538,722,0,0
-679,302,0,0,0,0,0,0,0,0,0,-1,545,722,0,0
-672,302,0,0,0,0,0,0,0,0,0,-1,552,722,0,0
-665,302,0,0,0,0,0,0,0,0,0,-1,559,722,0,0
-658,302,0,0,0,0,0,0,0,0,0,-1,566,722,0,0
-651,302,0,0,0,0,0,0,0,0,0,-1,573,722,0,0
-644,302,0,0,0,0,0,0,0,0,0,-1,580,722,0,0
-637,302,0,0,0,0,0,0,0,0,0,-1,587,722,0,0
-630,302,0,0,0,0,0,0,0,0,0,-1,594,722,0,0
-623,302,0,0,0,0,0,0,0,0,0,-1,601,722,0,0
-616,302,0,0,0,0,0,0,0,0,0,-1,608,722,0,0
-609,302,-7.79266,-3.71649,0,0,0,0,0,0,0,-1,615,722,-7.79267,3.7165
-602,302,0.92865,-1.99158,0,0,0,0,0,0,0,-1,622,722,0.928637,1.99157
-595,302,-7.89941,2.13641,0,0,0,0,0,0,0,-1,629,722,-7.89939,-2.13639
-588,302,-7.10895,1.79163,0,0,0,0,0,0,0,-1,636,722,-7.10896,-1.79163
-581,302,-9.17566,1.09448,0,0,0,0,0,0,0,-1,643,722,-9.17569,-1.09445
-574,302,-11.5183,-0.344543,0,0,0,0,0,0,0,-1,650,722,-11.5183,0.344557
-567,302,-12.1534,-0.672241,0,0,0,0,0,0,0,-1,657,722,-12.1535,0.672246
-560,302,-20.7243,-1.08899,0,0,0,0,0,0,0,-1,664,722,-20.7243,1.08898
-553,302,-20.6335,-1.75226,-0.00259685,0.00435918,3.27352e-05,0.00435933,-0.00259701,1.56609,0.00405898,0.0286422,671,722,-20.6335,1.75223
-546,302,-20.6293,-2.46973,-0.00148222,0.00299299,4.49727e-05,0.00299344,-0.00148267,1.56075,0.00263289,0.0170081,678,722,-20.6293,2.46975
-539,302,-20.6351,-3.08868,-0.000737919,0.00188832,0.000210657,0.00190511,-0.000754709,1.49126,0.0015828,0.0156256,685,722,-20.6351,3.08871
-532,302,-20.6432,-3.73846,-0.000238232,0.0008529,0.000476524,0.00103171,-0.00041704,1.21182,0.000861164,0.0148838,692,722,-20.6432,3.73845
-525,302,-20.6128,-4.45782,7.98821e-05,-9.63085e-05,0.000764287,0.000761134,-0.000777561,0.728019,0.000888383,0.0186607,699,722,-20.6128,4.45782
-518,302,-20.6544,-5.0686,0.000438106,-0.000749638,0.00102998,0.00103316,-0.00134469,0.523884,0.00137677,0.0202991,706,722,-20.6544,5.06859
-511,302,-20.713,-5.67499,0.000818457,-0.00119445,0.0014227,0.00155471,-0.0019307,0.477552,0.0020162,0.0109919,713,722,-20.713,5.67499
-504,302,-20.7365,-6.34985,0.00124798,-0.00106646,0.00211336,0.00250021,-0.0023187,0.534909,0.00278286,0.00971546,720,722,-20.7365,6.34983
-497,302,-20.7682,-6.9729,0.00195493,-0.00068604,0.00270268,0.00364246,-0.00237357,0.558162,0.00349901,0.015061,727,722,-20.7682,6.97293
-490,302,-20.8073,-7.58551,0,0,0,0,0,0,0,-1,734,722,-20.8073,7.58551
-483,302,-9.53412,-3.1673,0,0,0,0,0,0,0,-1,741,722,-9.53411,3.1673
-476,302,-4.29749,-0.203491,0,0,0,0,0,0,0,-1,748,722,-4.29751,0.203464
-469,302,-12.369,1.42859,0,0,0,0,0,0,0,-1,755,722,-12.3689,-1.42857
-462,302,-17.4766,0.310791,0,0,0,0,0,0,0,-1,762,722,-17.4766,-0.310788
-455,302,-36.7368,-2.97418,0,0,0,0,0,0,0,-1,769,722,-36.7368,2.97416
-448,302,-39.9575,-0.624146,0,0,0,0,0,0,0,-1,776,722,-39.9575,0.624164
-441,302,-39.4683,-0.341492,0,0,0,0,0,0,0,-1,783,722,-39.4683,0.341475
-434,302,-39.4329,-0.154724,0,0,0,0,0,0,0,-1,790,722,-39.4329,0.154743
-427,302,-27.1735,1.81506,0,0,0,0,0,0,0,-1,797,722,-27.1735,-1.81504
-420,302,0,0,0,0,0,0,0,0,0,-1,804,722,0,0
-413,302,0,0,0,0,0,0,0,0,0,-1,811,722,0,0
-406,302,0,0,0,0,0,0,0,0,0,-1,818,722,0,0
-399,302,0,0,0,0,0,0,0,0,0,-1,825,722,0,0
-392,302,0,0,0,0,0,0,0,0,0,-1,832,722,0,0
-385,302,0,0,0,0,0,0,0,0,0,-1,839,722,0,0
-378,302,0,0,0,0,0,0,0,0,0,-1,846,722,0,0
-371,302,0,0,0,0,0,0,0,0,0,-1,853,722,0,0
-364,302,0,0,0,0,0,0,0,0,0,-1,860,722,0,0
-357,302,0,0,0,0,0,0,0,0,0,-1,867,722,0,0
-350,302,0,0,0,0,0,0,0,0,0,-1,874,722,0,0
-343,302,0,0,0,0,0,0,0,0,0,-1,881,722,0,0
-336,302,0,0,0,0,0,0,0,0,0,-1,888,722,0,0
-329,302,0,0,0,0,0,0,0,0,0,-1,895,722,0,0
-322,302,0,0,0,0,0,0,0,0,0,-1,902,722,0,0
-315,302,0,0,0,0,0,0,0,0,0,-1,909,722,0,0
-308,302,0,0,0,0,0,0,0,0,0,-1,916,722,0,0
-301,302,0,0,0,0,0,0,0,0,0,-1,923,722,0,0
-294,302,0,0,0,0,0,0,0,0,0,-1,930,722,0,0
-287,302,0,0,0,0,0,0,0,0,0,-1,937,722,0,0
-280,302,0,0,0,0,0,0,0,0,0,-1,944,722,0,0
-273,302,0,0,0,0,0,0,0,0,0,-1,951,722,0,0
-266,302,0,0,0,0,0,0,0,0,0,-1,958,722,0,0
-259,302,0,0,0,0,0,0,0,0,0,-1,965,722,0,0
-252,302,0,0,0,0,0,0,0,0,0,-1,972,722,0,0
-245,302,0,0,0,0,0,0,0,0,0,-1,979,722,0,0
-238,302,0,0,0,0,0,0,0,0,0,-1,986,722,0,0
-231,302,0,0,0,0,0,0,0,0,0,-1,993,722,0,0
-224,302,0,0,0,0,0,0,0,0,0,-1,1000,722,0,0
-217,302,0,0,0,0,0,0,0,0,0,-1,1007,722,0,0
-210,302,0,0,0,0,0,0,0,0,0,-1,1014,722,0,0
-203,302,0,0,0,0,0,0,0,0,0,-1,1021,722,0,0
-196,302,0,0,0,0,0,0,0,0,0,-1,1028,722,0,0
-189,302,0,0,0,0,0,0,0,0,0,-1,1035,722,0,0
-182,302,0,0,0,0,0,0,0,0,0,-1,1042,722,0,0
-175,302,0,0,0,0,0,0,0,0,0,-1,1049,722,0,0
-168,302,0,0,0,0,0,0,0,0,0,-1,1056,722,0,0
-161,302,0,0,0,0,0,0,0,0,0,-1,1063,722,0,0
-154,302,0,0,0,0,0,0,0,0,0,-1,1070,722,0,0
-147,302,0,0,0,0,0,0,0,0,0,-1,1077,722,0,0
-140,302,0,0,0,0,0,0,0,0,0,-1,1084,722,0,0
-133,302,0,0,0,0,0,0,0,0,0,-1,1091,722,0,0
-126,302,0,0,0,0,0,0,0,0,0,-1,1098,722,0,0
-119,302,0,0,0,0,0,0,0,0,0,-1,1105,722,0,0
-112,302,0,0,0,0,0,0,0,0,0,-1,1112,722,0,0
-105,302,0,0,0,0,0,0,0,0,0,-1,1119,722,0,0
-98,302,0,0,0,0,0,0,0,0,0,-1,1126,722,0,0
-91,302,0,0,0,0,0,0,0,0,0,-1,1133,722,0,0
-84,302,0,0,0,0,0,0,0,0,0,-1,1140,722,0,0
-77,302,0,0,0,0,0,0,0,0,0,-1,1147,722,0,0
-70,302,0,0,0,0,0,0,0,0,0,-1,1154,722,0,0
-63,302,0,0,0,0,0,0,0,0,0,-1,1161,722,0,0
-56,302,0,0,0,0,0,0,0,0,0,-1,1168,722,0,0
-49,302,0,0,0,0,0,0,0,0,0,-1,1175,722,0,0
-42,302,0,0,0,0,0,0,0,0,0,-1,1182,722,0,0
-35,302,0,0,0,0,0,0,0,0,0,-1,1189,722,0,0
-28,302,0,0,0,0,0,0,0,0,0,-1,1196,722,0,0
-21,302,0,0,0,0,0,0,0,0,0,-1,1203,722,0,0
-14,302,0,0,0,0,0,0,0,0,0,-1,1210,722,0,0
-7,302,0,0,0,0,0,0,0,0,0,-1,1217,722,0,0
0,302,0,0,0,0,0,0,0,0,0,-1,1224,722,0,0
7,302,0,0,0,0,0,0,0,0,0,-1,1231,722,0,0
14,302,0,0,0,0,0,0,0,0,0,-1,1238,722,0,0
21,302,0,0,0,0,0,0,0,0,0,-1,1245,722,0,0
28,302,0,0,0,0,0,0,0,0,0,-1,1252,722,0,0
35,302,0,0,0,0,0,0,0,0,0,-1,1259,722,0,0
42,302,0,0,0,0,0,0,0,0,0,-1,1266,722,0,0
49,302,0,0,0,0,0,0,0,0,0,-1,1273,722,0,0
56,302,0,0,0,0,0,0,0,0,0,-1,1280,722,0,0
63,302,0,0,0,0,0,0,0,0,0,-1,1287,722,0,0
70,302,0,0,0,0,0,0,0,0,0,-1,1294,722,0,0
77,302,0,0,0,0,0,0,0,0,0,-1,1301,722,0,0
84,302,0,0,0,0,0,0,0,0,0,-1,1308,722,0,0
91,302,0,0,0,0,0,0,0,0,0,-1,1315,722,0,0
98,302,0,0,0,0,0,0,0,0,0,-1,1322,722,0,0
105,302,0,0,0,0,0,0,0,0,0,-1,1329,722,0,0
112,302,0,0,0,0,0,0,0,0,0,-1,1336,722,0,0
119,302,0,0,0,0,0,0,0,0,0,-1,1343,722,0,0
126,302,0,0,0,0,0,0,0,0,0,-1,1350,722,0,0
133,302,0,0,0,0,0,0,0,0,0,-1,1357,722,0,0
140,302,0,0,0,0,0,0,0,0,0,-1,1364,722,0,0
147,302,0,0,0,0,0,0,0,0,0,-1,1371,722,0,0
154,302,0,0,0,0,0,0,0,0,0,-1,1378,722,0,0
161,302,0,0,0,0,0,0,0,0,0,-1,1385,722,0,0
168,302,0,0,0,0,0,0,0,0,0,-1,1392,722,0,0
175,302,0,0,0,0,0,0,0,0,0,-1,1399,722,0,0
182,302,0,0,0,0,0,0,0,0,0,-1,1406,722,0,0
189,302,0,0,0,0,0,0,0,0,0,-1,1413,722,0,0
196,302,0,0,0,0,0,0,0,0,0,-1,1420,722,0,0
203,302,0,0,0,0,0,0,0,0,0,-1,1427,722,0,0
210,302,0,0,0,0,0,0,0,0,0,-1,1434,722,0,0
217,302,0,0,0,0,0,0,0,0,0,-1,1441,722,0,0
224,302,0,0,0,0,0,0,0,0,0,-1,1448,722,0,0
231,302,0,0,0,0,0,0,0,0,0,-1,1455,722,0,0
238,302,0,0,0,0,0,0,0,0,0,-1,1462,722,0,0
245,302,0,0,0,0,0,0,0,0,0,-1,1469,722,0,0
252,302,0,0,0,0,0,0,0,0,0,-1,1476,722,0,0
259,302,0,0,0,0,0,0,0,0,0,-1,1483,722,0,0
266,302,0,0,0,0,0,0,0,0,0,-1,1490,722,0,0
273,302,0,0,0,0,0,0,0,0,0,-1,1497,722,0,0
280,302,0,0,0,0,0,0,0,0,0,-1,1504,722,0,0
287,302,0,0,0,0,0,0,0,0,0,-1,1511,722,0,0
294,302,0,0,0,0,0,0,0,0,0,-1,1518,722,0,0
301,302,0,0,0,0,0,0,0,0,0,-1,1525,722,0,0
308,302,0,0,0,0,0,0,0,0,0,-1,1532,722,0,0
315,302,0,0,0,0,0,0,0,0,0,-1,1539,722,0,0
322,302,0,0,0,0,0,0,0,0,0,-1,1546,722,0,0
329,302,0,0,0,0,0,0,0,0,0,-1,1553,722,0,0
336,302,0,0,0,0,0,0,0,0,0,-1,1560,722,0,0
343,302,0,0,0,0,0,0,0,0,0,-1,1567,722,0,0
350,302,0,0,0,0,0,0,0,0,0,-1,1574,722,0,0
357,302,0,0,0,0,0,0,0,0,0,-1,1581,722,0,0
364,302,0,0,0,0,0,0,0,0,0,-1,1588,722,0,0
371,302,0,0,0,0,0,0,0,0,0,-1,1595,722,0,0
378,302,0,0,0,0,0,0,0,0,0,-1,1602,722,0,0
385,302,0,0,0,0,0,0,0,0,0,-1,1609,722,0,0
392,302,0,0,0,0,0,0,0,0,0,-1,1616,722,0,0
399,302,0,0,0,0,0,0,0,0,0,-1,1623,722,0,0
406,302,0,0,0,0,0,0,0,0,0,-1,1630,722,0,0
413,302,0,0,0,0,0,0,0,0,0,-1,1637,722,0,0
420,302,0,0,0,0,0,0,0,0,0,-1,1644,722,0,0
427,302,0,0,0,0,0,0,0,0,0,-1,1651,722,0,0
434,302,0,0,0,0,0,0,0,0,0,-1,1658,722,0,0
441,302,0,0,0,0,0,0,0,0,0,-1,1665,722,0,0
448,302,0,0,0,0,0,0,0,0,0,-1,1672,722,0,0
455,302,0,0,0,0,0,0,0,0,0,-1,1679,722,0,0
462,302,0,0,0,0,0,0,0,0,0,-1,1686,722,0,0
469,302,0,0,0,0,0,0,0,0,0,-1,1693,722,0,0
476,302,0,0,0,0,0,0,0,0,0,-1,1700,722,0,0
483,302,0,0,0,0,0,0,0,0,0,-1,1707,722,0,0
490,302,0,0,0,0,0,0,0,0,0,-1,1714,722,0,0
497,302,0,0,0,0,0,0,0,0,0,-1,1721,722,0,0
504,302,0,0,0,0,0,0,0,0,0,-1,1728,722,0,0
511,302,0,0,0,0,0,0,0,0,0,-1,1735,722,0,0
518,302,0,0,0,0,0,0,0,0,0,-1,1742,722,0,0
525,302,0,0,0,0,0,0,0,0,0,-1,1749,722,0,0
532,302,0,0,0,0,0,0,0,0,0,-1,1756,722,0,0
539,302,0,0,0,0,0,0,0,0,0,-1,1763,722,0,0
546,302,48.9873,1.50562,0,0,0,0,0,0,0,-1,1770,722,48.9873,-1.50562
553,302,48.5511,2.79346,0,0,0,0,0,0,0,-1,1777,722,48.5512,-2.79343
560,302,47.9004,3.90967,0,0,0,0,0,0,0,-1,1784,722,47.9004,-3.90967
567,302,46.8901,4.84912,0,0,0,0,0,0,0,-1,1791,722,46.8901,-4.84912
574,302,45.9537,6.00867,0,0,0,0,0,0,0,-1,1798,722,45.9537,-6.00864
581,302,45.137,7.38043,0,0,0,0,0,0,0,-1,1805,722,45.1369,-7.38044
588,302,26.9731,7.19983,0,0,0,0,0,0,0,-1,1812,722,26.9732,-7.19981
595,302,27.3826,8.13104,0,0,0,0,0,0,0,-1,1819,722,27.3825,-8.13102
602,302,14.7349,5.21246,0,0,0,0,0,0,0,-1,1826,722,14.7349,-5.21247
609,302,31.1039,-6.34253,0,0,0,0,0,0,0,-1,1833,722,31.1039,6.34254
616,302,32.8228,-6.14648,0,0,0,0,0,0,0,-1,1840,722,32.8227,6.14647
623,302,32.8188,-5.40826,0.00507893,0.000292858,0.00164875,0.00559192,-0.000220133,0.301645,0.00380345,0.0141586,1847,722,32.8189,5.40825
630,302,32.7666,-4.72754,0.00352645,0.000109165,0.00124901,0.00393429,-0.000298674,0.315614,0.00272787,0.0117254,1854,722,32.7666,4.72756
637,302,32.7155,-4.04816,0.00227268,8.17674e-05,0.000935451,0.00261774,-0.000263295,0.353388,0.00183922,0.0154131,1861,722,32.7155,4.04818
644,302,32.6948,-3.37524,0.00123865,0.000274509,0.000759316,0.001656,-0.000142838,0.502564,0.00115456,0.0161949,1868,722,32.6948,3.37525
651,302,32.6838,-2.68121,0.000416809,0.000619853,0.000647987,0.00117422,-0.000137561,0.863103,0.000832466,0.0147009,1875,722,32.6839,2.68119
658,302,32.7,-2.00922,-0.000201706,0.00116354,0.000602564,0.00139144,-0.000429609,1.2092,0.00109918,0.0149226,1882,722,32.7,2.00923
665,302,32.6591,-1.35229,-0.000697693,0.00183315,0.000681209,0.00200486,-0.000869399,1.32388,0.00170207,0.0147965,1889,722,32.6591,1.35228
672,302,32.6119,-0.672241,-0.00121012,0.00261904,0.000789026,0.00277525,-0.00136633,1.37534,0.00243683,0.0122219,1896,722,32.6119,0.672246
679,302,32.5808,0.0415649,-0.00172817,0.00357024,0.000933784,0.00373,-0.00188793,1.40136,0.00330112,0.00965091,1903,722,32.5808,-0.0415778
686,302,32.5658,0.772278,-0.00217437,0.00470228,0.00116727,0.00489501,-0.00236711,1.40716,0.00427662,0.0213502,1910,722,32.5658,-0.772273
693,302,32.4689,1.51794,0,0,0,0,0,0,0,-1,1917,722,32.4689,-1.51797
700,302,25.4069,1.97308,0,0,0,0,0,0,0,-1,1924,722,25.4068,-1.97311
707,302,16.7321,4.76685,0,0,0,0,0,0,0,-1,1931,722,16.7321,-4.76687
714,302,17.2,5.77594,0,0,0,0,0,0,0,-1,1938,722,17.2,-5.77595
721,302,17.7914,6.60394,0,0,0,0,0,0,0,-1,1945,722,17.7914,-6.60395
728,302,17.2798,4.81702,0,0,0,0,0,0,0,-1,1952,722,17.2798,-4.81703
735,302,0,0,0,0,0,0,0,0,0,-1,1959,722,0,0
742,302,0,0,0,0,0,0,0,0,0,-1,1966,722,0,0
749,302,0,0,0,0,0,0,0,0,0,-1,1973,722,0,0
756,302,0,0,0,0,0,0,0,0,0,-1,1980,722,0,0
763,302,0,0,0,0,0,0,0,0,0,-1,1987,722,0,0
770,302,0,0,0,0,0,0,0,0,0,-1,1994,722,0,0
777,302,0,0,0,0,0,0,0,0,0,-1,2001,722,0,0
784,302,0,0,0,0,0,0,0,0,0,-1,2008,722,0,0
791,302,0,0,0,0,0,0,0,0,0,-1,2015,722,0,0
798,302,0,0,0,0,0,0,0,0,0,-1,2022,722,0,0
805,302,0,0,0,0,0,0,0,0,0,-1,2029,722,0,0
812,302,0,0,0,0,0,0,0,0,0,-1,2036,722,0,0
-700,295,0,0,0,0,0,0,0,0,0,-1,524,729,0,0
-693,295,0,0,0,0,0,0,0,0,0,-1,531,729,0,0
-686,295,0,0,0,0,0,0,0,0,0,-1,538,729,0,0
-679,295,0,0,0,0,0,0,0,0,0,-1,545,729,0,0
-672,295,0,0,0,0,0,0,0,0,0,-1,552,729,0,0
-665,295,0,0,0,0,0,0,0,0,0,-1,559,729,0,0
-658,295,0,0,0,0,0,0,0,0,0,-1,566,729,0,0
-651,295,0,0,0,0,0,0,0,0,0,-1,573,729,0,0
-644,295,0,0,0,0,0,0,0,0,0,-1,580,729,0,0
-637,295,0,0,0,0,0,0,0,0,0,-1,587,729,0,0
-630,295,0,0,0,0,0,0,0,0,0,-1,594,729,0,0
-623,295,0,0,0,0,0,0,0,0,0,-1,601,729,0,0
-616,295,-13.4911,1.31738,0,0,0,0,0,0,0,-1,608,729,-13.4911,-1.3174
-609,295,-10.2864,0.832031,0,0,0,0,0,0,0,-1,615,729,-10.2863,-0.832034
-602,295,-8.19006,3.01587,0,0,0,0,0,0,0,-1,622,729,-8.19005,-3.01588
-595,295,-0.615479,-1.95447,0,0,0,0,0,0,0,-1,629,729,-0.615481,1.95445
-588,295,-7.98999,1.56903,0,0,0,0,0,0,0,-1,636,729,-7.98997,-1.56905
-581,295,-12.0404,0.150574,0,0,0,0,0,0,0,-1,643,729,-12.0404,-0.150604
-574,295,-12.1605,-0.0739746,0,0,0,0,0,0,0,-1,650,729,-12.1605,0.0739856
-567,295,-20.9266,-0.306213,0,0,0,0,0,0,0,-1,657,729,-20.9266,0.306184
-560,295,-21.1642,-1.11469,-0.00416063,0.00510714,1.49697e-06,0.00510714,-0.00416063,1.57063,0.00536005,0.0368273,664,729,-21.1642,1.11469
-553,295,-21.2186,-1.79358,-0.00245289,0.00378077,-3.63286e-05,0.00378098,-0.0024531,-1.56497,0.00362636,0.0200131,671,729,-21.2185,1.79361
-546,295,-21.3038,-2.4696,-0.00144694,0.00238252,0.000146795,0.00238814,-0.00145256,1.53254,0.00223925,0.0213893,678,729,-21.3038,2.4696
-539,295,-21.3154,-3.07043,-0.000787672,0.00120723,0.000430068,0.001296,-0.000876438,1.36726,0.00126203,0.019222,685,729,-21.3154,3.07044
-532,295,-21.3234,-3.68317,-0.000371016,8.51791e-05,0.000817072,0.000705395,-0.000991232,0.921515,0.000984171,0.0163258,692,729,-21.3234,3.68317
-525,295,-21.3101,-4.37189,-0.000112625,-0.000886178,0.00115985,0.00072324,-0.00172204,0.624461,0.00145051,0.0143409,699,729,-21.3101,4.37186
-518,295,-21.3132,-5.01526,0.000273172,-0.00147637,0.00141974,0.001066,-0.00226919,0.509293,0.0019669,0.011201,706,729,-21.3132,5.01528
-511,295,-21.362,-5.63824,0.000767105,-0.00178895,0.00181986,0.00171286,-0.00273471,0.479275,0.0025903,0.01024,713,729,-21.362,5.63822
-504,295,-21.3904,-6.28778,0.00137846,-0.00137283,0.00253787,0.00288954,-0.00288391,0.537039,0.0033333,0.0111759,720,729,-21.3904,6.2878
-497,295,-21.4651,-6.86456,0.00236186,-0.000728129,0.00305348,0.00423896,-0.00260523,0.551189,0.00398884,0.0218851,727,729,-21.4651,6.86455
-490,295,-21.5401,-7.401,0,0,0,0,0,0,0,-1,734,729,-21.5401,7.40102
-483,295,-6.84503,-0.454651,0,0,0,0,0,0,0,-1,741,729,-6.84505,0.454639
-476,295,-13.1738,-0.836243,0,0,0,0,0,0,0,-1,748,729,-13.1738,0.836223
-469,295,-26.5608,-0.466187,0,0,0,0,0,0,0,-1,755,729,-26.5608,0.466162
-462,295,-29.7701,-0.792664,0,0,0,0,0,0,0,-1,762,729,-29.7701,0.792642
-455,295,-39.7284,-1.35437,0,0,0,0,0,0,0,-1,769,729,-39.7284,1.35437
-448,295,-40.9255,-1.80212,0,0,0,0,0,0,0,-1,776,729,-40.9255,1.80211
-441,295,-39.6894,-0.329468,0,0,0,0,0,0,0,-1,783,729,-39.6894,0.329463
-434,295,-39.6559,-0.0856934,0,0,0,0,0,0,0,-1,790,729,-39.6559,0.0856846
-427,295,0,0,0,0,0,0,0,0,0,-1,797,729,0,0
-420,295,0,0,0,0,0,0,0,0,0,-1,804,729,0,0
-413,295,0,0,0,0,0,0,0,0,0,-1,811,729,0,0
-406,295,0,0,0,0,0,0,0,0,0,-1,818,729,0,0
-399,295,0,0,0,0,0,0,0,0,0,-1,825,729,0,0
-392,295,0,0,0,0,0,0,0,0,0,-1,832,729,0,0
-385,295,0,0,0,0,0,0,0,0,0,-1,839,729,0,0
-378,295,0,0,0,0,0,0,0,0,0,-1,846,729,0,0
-371,295,0,0,0,0,0,0,0,0,0,-1,853,729,0,0
-364,295,0,0,0,0,0,0,0,0,0,-1,860,729,0,0
-357,295,0,0,0,0,0,0,0,0,0,-1,867,729,0,0
-350,295,0,0,0,0,0,0,0,0,0,-1,874,729,0,0
-343,295,0,0,0,0,0,0,0,0,0,-1,881,729,0,0
-336,295,0,0,0,0,0,0,0,0,0,-1,888,729,0,0
-329,295,0,0,0,0,0,0,0,0,0,-1,895,729,0,0
-322,295,0,0,0,0,0,0,0,0,0,-1,902,729,0,0
-315,295,0,0,0,0,0,0,0,0,0,-1,909,729,0,0
-308,295,0,0,0,0,0,0,0,0,0,-1,916,729,0,0
-301,295,0,0,0,0,0,0,0,0,0,-1,923,729,0,0
-294,295,0,0,0,0,0,0,0,0,0,-1,930,729,0,0
-287,295,0,0,0,0,0,0,0,0,0,-1,937,729,0,0
-280,295,0,0,0,0,0,0,0,0,0,-1,944,729,0,0
-273,295,0,0,0,0,0,0,0,0,0,-1,951,729,0,0
-266,295,0,0,0,0,0,0,0,0,0,-1,958,729,0,0
-259,295,0,0,0,0,0,0,0,0,0,-1,965,729,0,0
-252,295,0,0,0,0,0,0,0,0,0,-1,972,729,0,0
-245,295,0,0,0,0,0,0,0,0,0,-1,979,729,0,0
-238,295,0,0,0,0,0,0,0,0,0,-1,986,729,0,0
-231,295,0,0,0,0,0,0,0,0,0,-1,993,729,0,0
-224,295,0,0,0,0,0,0,0,0,0,-1,1000,729,0,0
-217,295,0,0,0,0,0,0,0,0,0,-1,1007,729,0,0
-210,295,0,0,0,0,0,0,0,0,0,-1,1014,729,0,0
-203,295,0,0,0,0,0,0,0,0,0,-1,1021,729,0,0
-196,295,0,0,0,0,0,0,0,0,0,-1,1028,729,0,0
-189,295,0,0,0,0,0,0,0,0,0,-1,1035,729,0,0
-182,295,0,0,0,0,0,0,0,0,0,-1,1042,729,0,0
-175,295,0,0,0,0,0,0,0,0,0,-1,1049,729,0,0
-168,295,0,0,0,0,0,0,0,0,0,-1,1056,729,0,0
-161,295,0,0,0,0,0,0,0,0,0,-1,1063,729,0,0
-154,295,0,0,0,0,0,0,0,0,0,-1,1070,729,0,0
-147,295,0,0,0,0,0,0,0,0,0,-1,1077,729,0,0
-140,295,0,0,0,0,0,0,0,0,0,-1,1084,729,0,0
-133,295,0,0,0,0,0,0,0,0,0,-1,1091,729,0,0
-126,295,0,0,0,0,0,0,0,0,0,-1,1098,729,0,0
-119,295,0,0,0,0,0,0,0,0,0,-1,1105,729,0,0
-112,295,0,0,0,0,0,0,0,0,0,-1,1112,729,0,0
-105,295,0,0,0,0,0,0,0,0,0,-1,1119,729,0,0
-98,295,0,0,0,0,0,0,0,0,0,-1,1126,729,0,0
-91,295,0,0,0,0,0,0,0,0,0,-1,1133,729,0,0
-84,295,0,0,0,0,0,0,0,0,0,-1,1140,729,0,0
-77,295,0,0,0,0,0,0,0,0,0,-1,1147,729,0,0
-70,295,0,0,0,0,0,0,0,0,0,-1,1154,729,0,0
-63,295,0,0,0,0,0,0,0,0,0,-1,1161,729,0,0
-56,295,0,0,0,0,0,0,0,0,0,-1,1168,729,0,0
-49,295,0,0,0,0,0,0,0,0,0,-1,1175,729,0,0
-42,295,0,0,0,0,0,0,0,0,0,-1,1182,729,0,0
-35,295,0,0,0,0,0,0,0,0,0,-1,1189,729,0,0
-28,295,0,0,0,0,0,0,0,0,0,-1,1196,729,0,0
-21,295,0,0,0,0,0,0,0,0,0,-1,1203,729,0,0
-14,295,0,0,0,0,0,0,0,0,0,-1,1210,729,0,0
-7,295,0,0,0,0,0,0,0,0,0,-1,1217,729,0,0
0,295,0,0,0,0,0,0,0,0,0,-1,1224,729,0,0
7,295,0,0,0,0,0,0,0,0,0,-1,1231,729,0,0
14,295,0,0,0,0,0,0,0,0,0,-1,1238,729,0,0
21,295,0,0,0,0,0,0,0,0,0,-1,1245,729,0,0
28,295,0,0,0,0,0,0,0,0,0,-1,1252,729,0,0
35,295,0,0,0,0,0,0,0,0,0,-1,1259,729,0,0
42,295,0,0,0,0,0,0,0,0,0,-1,1266,729,0,0
49,295,0,0,0,0,0,0,0,0,0,-1,1273,729,0,0
56,295,0,0,0,0,0,0,0,0,0,-1,1280,729,0,0
63,295,0,0,0,0,0,0,0,0,0,-1,1287,729,0,0
70,295,0,0,0,0,0,0,0,0,0,-1,1294,729,0,0
77,295,0,0,0,0,0,0,0,0,0,-1,1301,729,0,0
84,295,0,0,0,0,0,0,0,0,0,-1,1308,729,0,0
91,295,0,0,0,0,0,0,0,0,0,-1,1315,729,0,0
98,295,0,0,0,0,0,0,0,0,0,-1,1322,729,0,0
105,295,0,0,0,0,0,0,0,0,0,-1,1329,729,0,0
112,295,0,0,0,0,0,0,0,0,0,-1,1336,729,0,0
119,295,0,0,0,0,0,0,0,0,0,-1,1343,729,0,0
126,295,0,0,0,0,0,0,0,0,0,-1,1350,729,0,0
133,295,0,0,0,0,0,0,0,0,0,-1,1357,729,0,0
140,295,0,0,0,0,0,0,0,0,0,-1,1364,729,0,0
147,295,0,0,0,0,0,0,0,0,0,-1,1371,729,0,0
154,295,0,0,0,0,0,0,0,0,0,-1,1378,729,0,0
161,295,0,0,0,0,0,0,0,0,0,-1,1385,729,0,0
168,295,0,0,0,0,0,0,0,0,0,-1,1392,729,0,0
175,295,0,0,0,0,0,0,0,0,0,-1,1399,729,0,0
182,295,0,0,0,0,0,0,0,0,0,-1,1406,729,0,0
189,295,0,0,0,0,0,0,0,0,0,-1,1413,729,0,0
196,295,0,0,0,0,0,0,0,0,0,-1,1420,729,0,0
203,295,0,0,0,0,0,0,0,0,0,-1,1427,729,0,0
210,295,0,0,0,0,0,0,0,0,0,-1,1434,729,0,0
217,295,0,0,0,0,0,0,0,0,0,-1,1441,729,0,0
224,295,0,0,0,0,0,0,0,0,0,-1,1448,729,0,0
231,295,0,0,0,0,0,0,0,0,0,-1,1455,729,0,0
238,295,0,0,0,0,0,0,0,0,0,-1,1462,729,0,0
245,295,0,0,0,0,0,0,0,0,0,-1,1469,729,0,0
252,295,0,0,0,0,0,0,0,0,0,-1,1476,729,0,0
259,295,0,0,0,0,0,0,0,0,0,-1,1483,729,0,0
266,295,0,0,0,0,0,0,0,0,0,-1,1490,729,0,0
273,295,0,0,0,0,0,0,0,0,0,-1,1497,729,0,0
280,295,0,0,0,0,0,0,0,0,0,-1,1504,729,0,0
287,295,0,0,0,0,0,0,0,0,0,-1,1511,729,0,0
294,295,0,0,0,0,0,0,0,0,0,-1,1518,729,0,0
301,295,0,0,0,0,0,0,0,0,0,-1,1525,729,0,0
308,295,0,0,0,0,0,0,0,0,0,-1,1532,729,0,0
315,295,0,0,0,0,0,0,0,0,0,-1,1539,729,0,0
322,295,0,0,0,0,0,0,0,0,0,-1,1546,729,0,0
329,295,0,0,0,0,0,0,0,0,0,-1,1553,729,0,0
336,295,0,0,0,0,0,0,0,0,0,-1,1560,729,0,0
343,295,0,0,0,0,0,0,0,0,0,-1,1567,729,0,0
350,295,0,0,0,0,0,0,0,0,0,-1,1574,729,0,0
357,295,0,0,0,0,0,0,0,0,0,-1,1581,729,0,0
364,295,0,0,0,0,0,0,0,0,0,-1,1588,729,0,0
371,295,0,0,0,0,0,0,0,0,0,-1,1595,729,0,0
378,295,0,0,0,0,0,0,0,0,0,-1,1602,729,0,0
385,295,0,0,0,0,0,0,0,0,0,-1,1609,729,0,0
392,295,0,0,0,0,0,0,0,0,0,-1,1616,729,0,0
399,295,0,0,0,0,0,0,0,0,0,-1,1623,729,0,0
406,295,0,0,0,0,0,0,0,0,0,-1,1630,729,0,0
413,295,0,0,0,0,0,0,0,0,0,-1,1637,729,0,0
420,295,0,0,0,0,0,0,0,0,0,-1,1644,729,0,0
427,295,0,0,0,0,0,0,0,0,0,-1,1651,729,0,0
434,295,0,0,0,0,0,0,0,0,0,-1,1658,729,0,0
441,295,0,0,0,0,0,0,0,0,0,-1,1665,729,0,0
448,295,0,0,0,0,0,0,0,0,0,-1,1672,729,0,0
455,295,0,0,0,0,0,0,0,0,0,-1,1679,729,0,0
462,295,0,0,0,0,0,0,0,0,0,-1,1686,729,0,0
469,295,0,0,0,0,0,0,0,0,0,-1,1693,729,0,0
476,295,0,0,0,0,0,0,0,0,0,-1,1700,729,0,0
483,295,0,0,0,0,0,0,0,0,0,-1,1707,729,0,0
490,295,0,0,0,0,0,0,0,0,0,-1,1714,729,0,0
497,295,0,0,0,0,0,0,0,0,0,-1,1721,729,0,0
504,295,0,0,0,0,0,0,0,0,0,-1,1728,729,0,0
511,295,0,0,0,0,0,0,0,0,0,-1,1735,729,0,0
518,295,0,0,0,0,0,0,0,0,0,-1,1742,729,0,0
525,295,0,0,0,0,0,0,0,0,0,-1,1749,729,0,0
532,295,0,0,0,0,0,0,0,0,0,-1,1756,729,0,0
539,295,0,0,0,0,0,0,0,0,0,-1,1763,729,0,0
546,295,48.8486,1.93115,0,0,0,0,0,0,0,-1,1770,729,48.8486,-1.93117
553,295,48.7095,2.24249,0,0,0,0,0,0,0,-1,1777,729,48.7095,-2.24251
560,295,47.8405,3.19769,0,0,0,0,0,0,0,-1,1784,729,47.8405,-3.19772
567,295,50.6709,1.9353,0,0,0,0,0,0,0,-1,1791,729,50.6709,-1.9353
574,295,45.8945,5.06598,0,0,0,0,0,0,0,-1,1798,729,45.8945,-5.06597
581,295,37.8191,2.19592,0,0,0,0,0,0,0,-1,1805,729,37.8191,-2.19594
588,295,39.0542,2.45679,0,0,0,0,0,0,0,-1,1812,729,39.0542,-2.45676
595,295,27.2102,6.99121,0,0,0,0,0,0,0,-1,1819,729,27.2103,-6.99121
602,295,26.9065,7.82141,0,0,0,0,0,0,0,-1,1826,729,26.9064,-7.8214
609,295,11.7737,2.19989,0,0,0,0,0,0,0,-1,1833,729,11.7736,-2.19988
616,295,33.525,-6.03009,0,0,0,0,0,0,0,-1,1840,729,33.525,6.03007
623,295,33.4655,-5.37842,0.00602762,0.000197206,0.00266534,0.00706241,-0.000837582,0.370327,0.00501085,0.0295942,1847,729,33.4654,5.37843
630,295,33.4257,-4.70105,0.00425066,-1.44181e-05,0.00201372,0.00505118,-0.000814931,0.378375,0.00366938,0.0124223,1854,729,33.4257,4.70108
637,295,33.4044,-4.0141,0.00286024,-7.91776e-05,0.0015014,0.00349154,-0.000710479,0.398032,0.00259712,0.0142625,1861,729,33.4045,4.01409
644,295,33.3855,-3.33954,0.00165729,3.53648e-05,0.00113219,0.00223899,-0.000546338,0.474615,0.00170422,0.014136,1868,729,33.3855,3.33955
651,295,33.3649,-2.65204,0.000759959,0.0003558,0.000860435,0.00144173,-0.000325967,0.67006,0.00108623,0.0145264,1875,729,33.3649,2.65207
658,295,33.3549,-1.98334,0.000206747,0.000885125,0.000684425,0.0013098,-0.000217927,1.01545,0.000954174,0.0131885,1882,729,33.3548,1.98332
665,295,33.3301,-1.32324,-0.000131712,0.00155909,0.000727922,0.00182929,-0.000401915,1.21536,0.00137325,0.0122072,1889,729,33.3301,1.32321
672,295,33.2859,-0.648743,-0.00045655,0.00231078,0.000859181,0.00255583,-0.000701602,1.29296,0.00197964,0.0129187,1896,729,33.2859,0.648716
679,295,33.24,0.0438232,-0.000747398,0.00320822,0.00102506,0.00345807,-0.000997253,1.33171,0.0026999,0.00952156,1903,729,33.24,-0.0438515
686,295,33.2529,0.720215,-0.000938396,0.00426324,0.00127781,0.00456019,-0.00123535,1.34246,0.00352482,0.0116976,1910,729,33.2529,-0.72021
693,295,33.2805,1.39423,0,0,0,0,0,0,0,-1,1917,729,33.2805,-1.39424
700,295,31.3757,2.06982,0,0,0,0,0,0,0,-1,1924,729,31.3758,-2.0698
707,295,22.2661,3.05206,0,0,0,0,0,0,0,-1,1931,729,22.2662,-3.05207
714,295,17.4906,4.63068,0,0,0,0,0,0,0,-1,1938,729,17.4906,-4.63066
721,295,18.3792,5.32281,0,0,0,0,0,0,0,-1,1945,729,18.3791,-5.32283
728,295,17.379,3.74866,0,0,0,0,0,0,0,-1,1952,729,17.379,-3.74863
735,295,0,0,0,0,0,0,0,0,0,-1,1959,729,0,0
742,295,0,0,0,0,0,0,0,0,0,-1,1966,729,0,0
749,295,0,0,0,0,0,0,0,0,0,-1,1973,729,0,0
756,295,0,0,0,0,0,0,0,0,0,-1,1980,729,0,0
763,295,0,0,0,0,0,0,0,0,0,-1,1987,729,0,0
770,295,0,0,0,0,0,0,0,0,0,-1,1994,729,0,0
777,295,0,0,0,0,0,0,0,0,0,-1,2001,729,0,0
784,295,0,0,0,0,0,0,0,0,0,-1,2008,729,0,0
791,295,0,0,0,0,0,0,0,0,0,-1,2015,729,0,0
798,295,0,0,0,0,0,0,0,0,0,-1,2022,729,0,0
805,295,0,0,0,0,0,0,0,0,0,-1,2029,729,0,0
812,295,0,0,0,0,0,0,0,0,0,-1,2036,729,0,0
-700,288,0,0,0,0,0,0,0,0,0,-1,524,736,0,0
-693,288,0,0,0,0,0,0,0,0,0,-1,531,736,0,0
-686,288,0,0,0,0,0,0,0,0,0,-1,538,736,0,0
-679,288,0,0,0,0,0,0,0,0,0,-1,545,736,0,0
-672,288,0,0,0,0,0,0,0,0,0,-1,552,736,0,0
-665,288,0,0,0,0,0,0,0,0,0,-1,559,736,0,0
-658,288,0,0,0,0,0,0,0,0,0,-1,566,736,0,0
-651,288,0,0,0,0,0,0,0,0,0,-1,573,736,0,0
-644,288,0,0,0,0,0,0,0,0,0,-1,580,736,0,0
-637,288,0,0,0,0,0,0,0,0,0,-1,587,736,0,0
-630,288,0,0,0,0,0,0,0,0,0,-1,594,736,0,0
-623,288,0,0,0,0,0,0,0,0,0,-1,601,736,0,0
-616,288,-11.7584,2.4425,0,0,0,0,0,0,0,-1,608,736,-11.7584,-2.44251
-609,288,-10.3007,2.32178,0,0,0,0,0,0,0,-1,615,736,-10.3007,-2.32178
-602,288,-10.1458,-1.85559,0,0,0,0,0,0,0,-1,622,736,-10.1458,1.85556
-595,288,-7.63208,1.81769,0,0,0,0,0,0,0,-1,629,736,-7.63205,-1.81766
-588,288,-8.19269,1.50598,0,0,0,0,0,0,0,-1,636,736,-8.19268,-1.50601
-581,288,-13.1915,0.659241,0,0,0,0,0,0,0,-1,643,736,-13.1915,-0.659228
-574,288,-21.4022,0.222351,0,0,0,0,0,0,0,-1,650,736,-21.4021,-0.222349
-567,288,-21.577,-0.465759,-0.00572416,0.00634639,-0.000779493,0.00639652,-0.00577429,-1.50657,0.00702988,0.0393433,657,736,-21.5771,0.465755
-560,288,-21.8524,-1.17847,-0.00364232,0.00452737,-0.000457271,0.00455289,-0.00366784,-1.51506,0.0047554,0.0181089,664,736,-21.8523,1.17847
-553,288,-21.8401,-1.78265,-0.00218334,0.00313179,-0.000187995,0.00313843,-0.00218998,-1.53549,0.00309256,0.01988,671,736,-21.8402,1.78267
-546,288,-21.8922,-2.42444,-0.00130646,0.00171175,0.000211209,0.00172646,-0.00132117,1.50127,0.00176473,0.0209807,678,736,-21.8922,2.42442
-539,288,-21.9371,-3.04407,-0.000761926,0.000463894,0.000677544,0.000764616,-0.00106265,1.15308,0.00105964,0.0174221,685,736,-21.9371,3.04407
-532,288,-21.9206,-3.66833,-0.000445367,-0.000731921,0.00119958,0.000619465,-0.00179675,0.72596,0.00144915,0.0142202,692,736,-21.9206,3.66834
-525,288,-21.937,-4.31891,-0.000224486,-0.00167171,0.00152826,0.000742816,-0.00263901,0.564291,0.00205226,0.0126232,699,736,-21.937,4.3189
-518,288,-22.0013,-4.9696,0.000216467,-0.00211472,0.00166277,0.00108149,-0.00297975,0.479702,0.00242864,0.0123131,706,736,-22.0013,4.96961
-511,288,-22.0363,-5.60773,0.000864982,-0.00221414,0.00191968,0.0017862,-0.00313536,0.447423,0.00287683,0.00992969,713,736,-22.0363,5.60774
-504,288,-22.0605,-6.24011,0.00162057,-0.00149651,0.00250938,0.00301602,-0.00289196,0.507509,0.00341122,0.0110592,720,736,-22.0605,6.24009
-497,288,-22.0902,-6.66125,0.00276673,-0.000619091,0.00280062,0.00434634,-0.0021987,0.513545,0.003846,0.0327887,727,736,-22.0902,6.66125
-490,288,-21.9929,-6.99207,0,0,0,0,0,0,0,-1,734,736,-21.9929,6.99207
-483,288,-17.3287,0.564758,0,0,0,0,0,0,0,-1,741,736,-17.3287,-0.56477
-476,288,-26.136,0.452148,0,0,0,0,0,0,0,-1,748,736,-26.136,-0.452177
-469,288,-27.7904,0.649841,0,0,0,0,0,0,0,-1,755,736,-27.7904,-0.649854
-462,288,-38.9562,0.158569,0,0,0,0,0,0,0,-1,762,736,-38.9562,-0.158541
-455,288,-43.7539,-0.235657,0,0,0,0,0,0,0,-1,769,736,-43.7539,0.23565
-448,288,-44.3273,-0.595276,0,0,0,0,0,0,0,-1,776,736,-44.3273,0.595262
-441,288,-41.1157,-2.28247,0,0,0,0,0,0,0,-1,783,736,-41.1157,2.28244
-434,288,-39.9307,-0.149353,0,0,0,0,0,0,0,-1,790,736,-39.9307,0.149359
-427,288,0,0,0,0,0,0,0,0,0,-1,797,736,0,0
-420,288,0,0,0,0,0,0,0,0,0,-1,804,736,0,0
-413,288,0,0,0,0,0,0,0,0,0,-1,811,736,0,0
-406,288,0,0,0,0,0,0,0,0,0,-1,818,736,0,0
-399,288,0,0,0,0,0,0,0,0,0,-1,825,736,0,0
-392,288,0,0,0,0,0,0,0,0,0,-1,832,736,0,0
-385,288,0,0,0,0,0,0,0,0,0,-1,839,736,0,0
-378,288,0,0,0,0,0,0,0,0,0,-1,846,736,0,0
-371,288,0,0,0,0,0,0,0,0,0,-1,853,736,0,0
-364,288,0,0,0,0,0,0,0,0,0,-1,860,736,0,0
-357,288,0,0,0,0,0,0,0,0,0,-1,867,736,0,0
-350,288,0,0,0,0,0,0,0,0,0,-1,874,736,0,0
-343,288,0,0,0,0,0,0,0,0,0,-1,881,736,0,0
-336,288,0,0,0,0,0,0,0,0,0,-1,888,736,0,0
-329,288,0,0,0,0,0,0,0,0,0,-1,895,736,0,0
-322,288,0,0,0,0,0,0,0,0,0,-1,902,736,0,0
-315,288,0,0,0,0,0,0,0,0,0,-1,909,736,0,0
-308,288,0,0,0,0,0,0,0,0,0,-1,916,736,0,0
-301,288,0,0,0,0,0,0,0,0,0,-1,923,736,0,0
-294,288,0,0,0,0,0,0,0,0,0,-1,930,736,0,0
-287,288,0,0,0,0,0,0,0,0,0,-1,937,736,0,0
-280,288,0,0,0,0,0,0,0,0,0,-1,944,736,0,0
-273,288,0,0,0,0,0,0,0,0,0,-1,951,736,0,0
-266,288,0,0,0,0,0,0,0,0,0,-1,958,736,0,0
-259,288,0,0,0,0,0,0,0,0,0,-1,965,736,0,0
-252,288,0,0,0,0,0,0,0,0,0,-1,972,736,0,0
-245,288,0,0,0,0,0,0,0,0,0,-1,979,736,0,0
-238,288,0,0,0,0,0,0,0,0,0,-1,986,736,0,0
-231,288,0,0,0,0,0,0,0,0,0,-1,993,736,0,0
-224,288,0,0,0,0,0,0,0,0,0,-1,1000,736,0,0
-217,288,0,0,0,0,0,0,0,0,0,-1,1007,736,0,0
-210,288,0,0,0,0,0,0,0,0,0,-1,1014,736,0,0
-203,288,0,0,0,0,0,0,0,0,0,-1,1021,736,0,0
-196,288,0,0,0,0,0,0,0,0,0,-1,1028,736,0,0
-189,288,0,0,0,0,0,0,0,0,0,-1,1035,736,0,0
-182,288,0,0,0,0,0,0,0,0,0,-1,1042,736,0,0
-175,288,0,0,0,0,0,0,0,0,0,-1,1049,736,0,0
-168,288,0,0,0,0,0,0,0,0,0,-1,1056,736,0,0
-161,288,0,0,0,0,0,0,0,0,0,-1,1063,736,0,0
-154,288,0,0,0,0,0,0,0,0,0,-1,1070,736,0,0
-147,288,0,0,0,0,0,0,0,0,0,-1,1077,736,0,0
-140,288,0,0,0,0,0,0,0,0,0,-1,1084,736,0,0
-133,288,0,0,0,0,0,0,0,0,0,-1,1091,736,0,0
-126,288,0,0,0,0,0,0,0,0,0,-1,1098,736,0,0
-119,288,0,0,0,0,0,0,0,0,0,-1,1105,736,0,0
-112,288,0,0,0,0,0,0,0,0,0,-1,1112,736,0,0
-105,288,0,0,0,0,0,0,0,0,0,-1,1119,736,0,0
-98,288,0,0,0,0,0,0,0,0,0,-1,1126,736,0,0
-91,288,0,0,0,0,0,0,0,0,0,-1,1133,736,0,0
-84,288,0,0,0,0,0,0,0,0,0,-1,1140,736,0,0
-77,288,0,0,0,0,0,0,0,0,0,-1,1147,736,0,0
-70,288,0,0,0,0,0,0,0,0,0,-1,1154,736,0,0
-63,288,0,0,0,0,0,0,0,0,0,-1,1161,736,0,0
-56,288,0,0,0,0,0,0,0,0,0,-1,1168,736,0,0
-49,288,0,0,0,0,0,0,0,0,0,-1,1175,736,0,0
-42,288,0,0,0,0,0,0,0,0,0,-1,1182,736,0,0
-35,288,0,0,0,0,0,0,0,0,0,-1,1189,736,0,0
-28,288,0,0,0,0,0,0,0,0,0,-1,1196,736,0,0
-21,288,0,0,0,0,0,0,0,0,0,-1,1203,736,0,0
-14,288,0,0,0,0,0,0,0,0,0,-1,1210,736,0,0
-7,288,0,0,0,0,0,0,0,0,0,-1,1217,736,0,0
0,288,0,0,0,0,0,0,0,0,0,-1,1224,736,0,0
7,288,0,0,0,0,0,0,0,0,0,-1,1231,736,0,0
14,288,0,0,0,0,0,0,0,0,0,-1,1238,736,0,0
21,288,0,0,0,0,0,0,0,0,0,-1,1245,736,0,0
28,288,0,0,0,0,0,0,0,0,0,-1,1252,736,0,0
35,288,0,0,0,0,0,0,0,0,0,-1,1259,736,0,0
42,288,0,0,0,0,0,0,0,0,0,-1,1266,736,0,0
49,288,0,0,0,0,0,0,0,0,0,-1,1273,736,0,0
56,288,0,0,0,0,0,0,0,0,0,-1,1280,736,0,0
63,288,0,0,0,0,0,0,0,0,0,-1,1287,736,0,0
70,288,0,0,0,0,0,0,0,0,0,-1,1294,736,0,0
77,288,0,0,0,0,0,0,0,0,0,-1,1301,736,0,0
84,288,0,0,0,0,0,0,0,0,0,-1,1308,736,0,0
91,288,0,0,0,0,0,0,0,0,0,-1,1315,736,0,0
98,288,0,0,0,0,0,0,0,0,0,-1,1322,736,0,0
105,288,0,0,0,0,0,0,0,0,0,-1,1329,736,0,0
112,288,0,0,0,0,0,0,0,0,0,-1,1336,736,0,0
119,288,0,0,0,0,0,0,0,0,0,-1,1343,736,0,0
126,288,0,0,0,0,0,0,0,0,0,-1,1350,736,0,0
133,288,0,0,0,0,0,0,0,0,0,-1,1357,736,0,0
140,288,0,0,0,0,0,0,0,0,0,-1,1364,736,0,0
147,288,0,0,0,0,0,0,0,0,0,-1,1371,736,0,0
154,288,0,0,0,0,0,0,0,0,0,-1,1378,736,0,0
161,288,0,0,0,0,0,0,0,0,0,-1,1385,736,0,0
168,288,0,0,0,0,0,0,0,0,0,-1,1392,736,0,0
175,288,0,0,0,0,0,0,0,0,0,-1,1399,736,0,0
182,288,0,0,0,0,0,0,0,0,0,-1,1406,736,0,0
189,288,0,0,0,0,0,0,0,0,0,-1,1413,736,0,0
196,288,0,0,0,0,0,0,0,0,0,-1,1420,736,0,0
203,288,0,0,0,0,0,0,0,0,0,-1,1427,736,0,0
210,288,0,0,0,0,0,0,0,0,0,-1,1434,736,0,0
217,288,0,0,0,0,0,0,0,0,0,-1,1441,736,0,0
224,288,0,0,0,0,0,0,0,0,0,-1,1448,736,0,0
231,288,0,0,0,0,0,0,0,0,0,-1,1455,736,0,0
238,288,0,0,0,0,0,0,0,0,0,-1,1462,736,0,0
245,288,0,0,0,0,0,0,0,0,0,-1,1469,736,0,0
252,288,0,0,0,0,0,0,0,0,0,-1,1476,736,0,0
259,288,0,0,0,0,0,0,0,0,0,-1,1483,736,0,0
266,288,0,0,0,0,0,0,0,0,0,-1,1490,736,0,0
273,288,0,0,0,0,0,0,0,0,0,-1,1497,736,0,0
280,288,0,0,0,0,0,0,0,0,0,-1,1504,736,0,0
287,288,0,0,0,0,0,0,0,0,0,-1,1511,736,0,0
294,288,0,0,0,0,0,0,0,0,0,-1,1518,736,0,0
301,288,0,0,0,0,0,0,0,0,0,-1,1525,736,0,0
308,288,0,0,0,0,0,0,0,0,0,-1,1532,736,0,0
315,288,0,0,0,0,0,0,0,0,0,-1,1539,736,0,0
322,288,0,0,0,0,0,0,0,0,0,-1,1546,736,0,0
329,288,0,0,0,0,0,0,0,0,0,-1,1553,736,0,0
336,288,0,0,0,0,0,0,0,0,0,-1,1560,736,0,0
343,288,0,0,0,0,0,0,0,0,0,-1,1567,736,0,0
350,288,0,0,0,0,0,0,0,0,0,-1,1574,736,0,0
357,288,0,0,0,0,0,0,0,0,0,-1,1581,736,0,0
364,288,0,0,0,0,0,0,0,0,0,-1,1588,736,0,0
371,288,0,0,0,0,0,0,0,0,0,-1,1595,736,0,0
378,288,0,0,0,0,0,0,0,0,0,-1,1602,736,0,0
385,288,0,0,0,0,0,0,0,0,0,-1,1609,736,0,0
392,288,0,0,0,0,0,0,0,0,0,-1,1616,736,0,0
399,288,0,0,0,0,0,0,0,0,0,-1,1623,736,0,0
406,288,0,0,0,0,0,0,0,0,0,-1,1630,736,0,0
413,288,0,0,0,0,0,0,0,0,0,-1,1637,736,0,0
420,288,0,0,0,0,0,0,0,0,0,-1,1644,736,0,0
427,288,0,0,0,0,0,0,0,0,0,-1,1651,736,0,0
434,288,0,0,0,0,0,0,0,0,0,-1,1658,736,0,0
441,288,0,0,0,0,0,0,0,0,0,-1,1665,736,0,0
448,288,0,0,0,0,0,0,0,0,0,-1,1672,736,0,0
455,288,0,0,0,0,0,0,0,0,0,-1,1679,736,0,0
462,288,0,0,0,0,0,0,0,0,0,-1,1686,736,0,0
469,288,0,0,0,0,0,0,0,0,0,-1,1693,736,0,0
476,288,0,0,0,0,0,0,0,0,0,-1,1700,736,0,0
483,288,0,0,0,0,0,0,0,0,0,-1,1707,736,0,0
490,288,0,0,0,0,0,0,0,0,0,-1,1714,736,0,0
497,288,0,0,0,0,0,0,0,0,0,-1,1721,736,0,0
504,288,0,0,0,0,0,0,0,0,0,-1,1728,736,0,0
511,288,0,0,0,0,0,0,0,0,0,-1,1735,736,0,0
518,288,0,0,0,0,0,0,0,0,0,-1,1742,736,0,0
525,288,0,0,0,0,0,0,0,0,0,-1,1749,736,0,0
532,288,0,0,0,0,0,0,0,0,0,-1,1756,736,0,0
539,288,0,0,0,0,0,0,0,0,0,-1,1763,736,0,0
546,288,0,0,0,0,0,0,0,0,0,-1,1770,736,0,0
553,288,48.1055,1.96002,0,0,0,0,0,0,0,-1,1777,736,48.1055,-1.96004
560,288,50.3898,2.00574,0,0,0,0,0,0,0,-1,1784,736,50.3898,-2.00572
567,288,53.0564,2.46729,0,0,0,0,0,0,0,-1,1791,736,53.0564,-2.46731
574,288,53.3617,3.01221,0,0,0,0,0,0,0,-1,1798,736,53.3617,-3.01222
581,288,53.8143,2.55176,0,0,0,0,0,0,0,-1,1805,736,53.8143,-2.55178
588,288,54.9313,3.29852,0,0,0,0,0,0,0,-1,1812,736,54.9313,-3.29849
595,288,47.035,3.35156,0,0,0,0,0,0,0,-1,1819,736,47.035,-3.35157
602,288,26.7634,7.61279,0,0,0,0,0,0,0,-1,1826,736,26.7635,-7.61279
609,288,17.5223,4.86414,0,0,0,0,0,0,0,-1,1833,736,17.5223,-4.86412
616,288,13.4886,0.801331,0,0,0,0,0,0,0,-1,1840,736,13.4886,-0.80132
623,288,34.1091,-5.3717,0,0,0,0,0,0,0,-1,1847,736,34.1091,5.37171
630,288,34.0471,-4.66266,0.00509275,0.000125566,0.00247617,0.00611624,-0.000897931,0.391952,0.0044074,0.0257156,1854,736,34.0471,4.66265
637,288,34.0851,-3.98438,0.00357831,-6.70197e-05,0.00192184,0.00440433,-0.000893046,0.405938,0.00327475,0.0110772,1861,736,34.085,3.98439
644,288,34.0798,-3.3103,0.00213682,-0.000140406,0.00145872,0.0028487,-0.000852282,0.454013,0.00223799,0.0107698,1868,736,34.0798,3.31029
651,288,34.0497,-2.64093,0.00105235,4.97589e-05,0.00105187,0.00171627,-0.000614161,0.563031,0.00139473,0.0123184,1875,736,34.0496,2.64091
658,288,34.0387,-1.95239,0.000479612,0.000497734,0.000741699,0.00123043,-0.000253081,0.791506,0.000916369,0.0173927,1882,736,34.0387,1.95238
665,288,33.9896,-1.26917,0.000276327,0.00116828,0.000755129,0.00159929,-0.000154688,1.05214,0.00112132,0.0181567,1889,736,33.9896,1.26919
672,288,33.9617,-0.614319,0.000105453,0.00188436,0.000918959,0.00227381,-0.000284005,1.16994,0.00161887,0.0154406,1896,736,33.9616,0.614321
679,288,33.9315,0.0648193,-1.05795e-05,0.00273458,0.00111116,0.00312797,-0.000403969,1.23053,0.00223219,0.0121931,1903,736,33.9316,-0.0648161
686,288,33.9006,0.702637,-3.11277e-05,0.0037291,0.00137993,0.00418116,-0.000483187,1.25422,0.00296167,0.0101656,1910,736,33.9007,-0.702609
693,288,33.907,1.46906,9.02061e-05,0.00480954,0.0016834,0.00534847,-0.000448722,1.26096,0.00372424,0.024372,1917,736,33.907,-1.46905
700,288,33.9014,2.3053,0,0,0,0,0,0,0,-1,1924,736,33.9013,-2.3053
707,288,30.9496,3.07977,0,0,0,0,0,0,0,-1,1931,736,30.9496,-3.07975
714,288,23.0149,3.82544,0,0,0,0,0,0,0,-1,1938,736,23.0149,-3.82541
721,288,18.0732,3.69385,0,0,0,0,0,0,0,-1,1945,736,18.0732,-3.69387
728,288,19.3208,3.91455,0,0,0,0,0,0,0,-1,1952,736,19.3209,-3.91455
735,288,18.7712,3.51312,0,0,0,0,0,0,0,-1,1959,736,18.7713,-3.51309
742,288,0,0,0,0,0,0,0,0,0,-1,1966,736,0,0
749,288,0,0,0,0,0,0,0,0,0,-1,1973,736,0,0
756,288,0,0,0,0,0,0,0,0,0,-1,1980,736,0,0
763,288,0,0,0,0,0,0,0,0,0,-1,1987,736,0,0
770,288,0,0,0,0,0,0,0,0,0,-1,1994,736,0,0
777,288,0,0,0,0,0,0,0,0,0,-1,2001,736,0,0
784,288,0,0,0,0,0,0,0,0,0,-1,2008,736,0,0
791,288,0,0,0,0,0,0,0,0,0,-1,2015,736,0,0
798,288,0,0,0,0,0,0,0,0,0,-1,2022,736,0,0
805,288,0,0,0,0,0,0,0,0,0,-1,2029,736,0,0
812,288,0,0,0,0,0,0,0,0,0,-1,2036,736,0,0
-700,281,0,0,0,0,0,0,0,0,0,-1,524,743,0,0
-693,281,0,0,0,0,0,0,0,0,0,-1,531,743,0,0
-686,281,0,0,0,0,0,0,0,0,0,-1,538,743,0,0
-679,281,0,0,0,0,0,0,0,0,0,-1,545,743,0,0
-672,281,0,0,0,0,0,0,0,0,0,-1,552,743,0,0
-665,281,0,0,0,0,0,0,0,0,0,-1,559,743,0,0
-658,281,0,0,0,0,0,0,0,0,0,-1,566,743,0,0
-651,281,0,0,0,0,0,0,0,0,0,-1,573,743,0,0
-644,281,0,0,0,0,0,0,0,0,0,-1,580,743,0,0
-637,281,0,0,0,0,0,0,0,0,0,-1,587,743,0,0
-630,281,0,0,0,0,0,0,0,0,0,-1,594,743,0,0
-623,281,-19.1697,5.67017,0,0,0,0,0,0,0,-1,601,743,-19.1697,-5.67019
-616,281,-11.5906,2.6853,0,0,0,0,0,0,0,-1,608,743,-11.5906,-2.68529
-609,281,-16.1972,4.14838,0,0,0,0,0,0,0,-1,615,743,-16.1972,-4.14837
-602,281,-12.7697,3.94086,0,0,0,0,0,0,0,-1,622,743,-12.7697,-3.94086
-595,281,-10.4797,-1.07404,0,0,0,0,0,0,0,-1,629,743,-10.4798,1.07402
-588,281,-13.277,1.49817,0,0,0,0,0,0,0,-1,636,743,-13.2771,-1.49817
-581,281,-22.3873,0.758118,0,0,0,0,0,0,0,-1,643,743,-22.3873,-0.758094
-574,281,-22.2905,0.150208,-0.00744882,0.00778614,-0.00166989,0.00796703,-0.00762971,-1.46289,0.00900548,0.0414708,650,743,-22.2905,-0.150178
-567,281,-22.4532,-0.441895,-0.00499281,0.00570697,-0.00103965,0.00580705,-0.00509289,-1.47483,0.00629758,0.0208792,657,743,-22.4532,0.441906
-560,281,-22.5174,-1.08893,-0.00337313,0.00387618,-0.000466865,0.00390612,-0.00340308,-1.50675,0.0042233,0.00850513,664,743,-22.5174,1.08894
-553,281,-22.5036,-1.73932,-0.00223141,0.00238693,1.96722e-05,0.00238701,-0.00223149,1.56654,0.002667,0.0146675,671,743,-22.5036,1.73933
-546,281,-22.5233,-2.35944,-0.00153674,0.000950356,0.00055854,0.00107003,-0.00165641,1.35972,0.0015862,0.0169945,678,743,-22.5232,2.35941
-539,281,-22.5643,-3.01782,-0.00114732,-0.000363502,0.00114955,0.000459112,-0.00196993,0.949681,0.00149009,0.0148685,685,743,-22.5643,3.01784
-532,281,-22.5796,-3.62915,-0.00094708,-0.00152369,0.00171732,0.000505968,-0.00297674,0.702233,0.00217288,0.0137285,692,743,-22.5796,3.62916
-525,281,-22.62,-4.27759,-0.000720337,-0.00226656,0.00193313,0.000588543,-0.00357544,0.595176,0.00260209,0.015265,699,743,-22.62,4.27759
-518,281,-22.6588,-4.9458,-0.000144362,-0.00240731,0.00187768,0.000916408,-0.00346808,0.514238,0.00267046,0.0133531,706,743,-22.6588,4.94579
-511,281,-22.6897,-5.59912,0.00069662,-0.00223427,0.00199406,0.0017058,-0.00324346,0.468512,0.00290306,0.0121555,713,743,-22.6897,5.59915
-504,281,-22.7412,-6.23499,0.00160207,-0.00122926,0.00248948,0.00305025,-0.00267744,0.52687,0.00330922,0.0155567,720,743,-22.7412,6.23499
-497,281,-22.6354,-6.81226,0.00289083,-0.000135739,0.00264508,0.00442491,-0.00166982,0.525567,0.00363666,0.0489006,727,743,-22.6354,6.81223
-490,281,-22.4546,-7.28339,0,0,0,0,0,0,0,-1,734,743,-22.4546,7.28341
-483,281,-22.1078,-2.34973,0,0,0,0,0,0,0,-1,741,743,-22.1078,2.3497
-476,281,-28.0016,2.17786,0,0,0,0,0,0,0,-1,748,743,-28.0016,-2.17786
-469,281,-34.6448,0.171692,0,0,0,0,0,0,0,-1,755,743,-34.6448,-0.171685
-462,281,-41.1978,1.31653,0,0,0,0,0,0,0,-1,762,743,-41.1978,-1.31656
-455,281,-42.8792,0.221863,0,0,0,0,0,0,0,-1,769,743,-42.8792,-0.221842
-448,281,-43.549,-0.256531,0,0,0,0,0,0,0,-1,776,743,-43.5489,0.256546
-441,281,-44.1879,-0.576233,0,0,0,0,0,0,0,-1,783,743,-44.1879,0.576237
-434,281,0,0,0,0,0,0,0,0,0,-1,790,743,0,0
-427,281,0,0,0,0,0,0,0,0,0,-1,797,743,0,0
-420,281,0,0,0,0,0,0,0,0,0,-1,804,743,0,0
-413,281,0,0,0,0,0,0,0,0,0,-1,811,743,0,0
-406,281,0,0,0,0,0,0,0,0,0,-1,818,743,0,0
-399,281,0,0,0,0,0,0,0,0,0,-1,825,743,0,0
-392,281,0,0,0,0,0,0,0,0,0,-1,832,743,0,0
-385,281,0,0,0,0,0,0,0,0,0,-1,839,743,0,0
-378,281,0,0,0,0,0,0,0,0,0,-1,846,743,0,0
-371,281,0,0,0,0,0,0,0,0,0,-1,853,743,0,0
-364,281,0,0,0,0,0,0,0,0,0,-1,860,743,0,0
-357,281,0,0,0,0,0,0,0,0,0,-1,867,743,0,0
-350,281,0,0,0,0,0,0,0,0,0,-1,874,743,0,0
-343,281,0,0,0,0,0,0,0,0,0,-1,881,743,0,0
-336,281,0,0,0,0,0,0,0,0,0,-1,888,743,0,0
-329,281,0,0,0,0,0,0,0,0,0,-1,895,743,0,0
-322,281,0,0,0,0,0,0,0,0,0,-1,902,743,0,0
-315,281,0,0,0,0,0,0,0,0,0,-1,909,743,0,0
-308,281,0,0,0,0,0,0,0,0,0,-1,916,743,0,0
-301,281,0,0,0,0,0,0,0,0,0,-1,923,743,0,0
-294,281,0,0,0,0,0,0,0,0,0,-1,930,743,0,0
-287,281,0,0,0,0,0,0,0,0,0,-1,937,743,0,0
-280,281,0,0,0,0,0,0,0,0,0,-1,944,743,0,0
-273,281,0,0,0,0,0,0,0,0,0,-1,951,743,0,0
-266,281,0,0,0,0,0,0,0,0,0,-1,958,743,0,0
-259,281,0,0,0,0,0,0,0,0,0,-1,965,743,0,0
-252,281,0,0,0,0,0,0,0,0,0,-1,972,743,0,0
-245,281,0,0,0,0,0,0,0,0,0,-1,979,743,0,0
-238,281,0,0,0,0,0,0,0,0,0,-1,986,743,0,0
-231,281,0,0,0,0,0,0,0,0,0,-1,993,743,0,0
-224,281,0,0,0,0,0,0,0,0,0,-1,1000,743,0,0
-217,281,0,0,0,0,0,0,0,0,0,-1,1007,743,0,0
-210,281,0,0,0,0,0,0,0,0,0,-1,1014,743,0,0
-203,281,0,0,0,0,0,0,0,0,0,-1,1021,743,0,0
-196,281,0,0,0,0,0,0,0,0,0,-1,1028,743,0,0
-189,281,0,0,0,0,0,0,0,0,0,-1,1035,743,0,0
-182,281,0,0,0,0,0,0,0,0,0,-1,1042,743,0,0
-175,281,0,0,0,0,0,0,0,0,0,-1,1049,743,0,0
-168,281,0,0,0,0,0,0,0,0,0,-1,1056,743,0,0
-161,281,0,0,0,0,0,0,0,0,0,-1,1063,743,0,0
-154,281,0,0,0,0,0,0,0,0,0,-1,1070,743,0,0
-147,281,0,0,0,0,0,0,0,0,0,-1,1077,743,0,0
-140,281,0,0,0,0,0,0,0,0,0,-1,1084,743,0,0
-133,281,0,0,0,0,0,0,0,0,0,-1,1091,743,0,0
-126,281,0,0,0,0,0,0,0,0,0,-1,1098,743,0,0
-119,281,0,0,0,0,0,0,0,0,0,-1,1105,743,0,0
-112,281,0,0,0,0,0,0,0,0,0,-1,1112,743,0,0
-105,281,0,0,0,0,0,0,0,0,0,-1,1119,743,0,0
-98,281,0,0,0,0,0,0,0,0,0,-1,1126,743,0,0
-91,281,0,0,0,0,0,0,0,0,0,-1,1133,743,0,0
-84,281,0,0,0,0,0,0,0,0,0,-1,1140,743,0,0
-77,281,0,0,0,0,0,0,0,0,0,-1,1147,743,0,0
-70,281,0,0,0,0,0,0,0,0,0,-1,1154,743,0,0
-63,281,0,0,0,0,0,0,0,0,0,-1,1161,743,0,0
-56,281,0,0,0,0,0,0,0,0,0,-1,1168,743,0,0
-49,281,0,0,0,0,0,0,0,0,0,-1,1175,743,0,0
-42,281,0,0,0,0,0,0,0,0,0,-1,1182,743,0,0
-35,281,0,0,0,0,0,0,0,0,0,-1,1189,743,0,0
-28,281,0,0,0,0,0,0,0,0,0,-1,1196,743,0,0
-21,281,0,0,0,0,0,0,0,0,0,-1,1203,743,0,0
-14,281,0,0,0,0,0,0,0,0,0,-1,1210,743,0,0
-7,281,0,0,0,0,0,0,0,0,0,-1,1217,743,0,0
0,281,0,0,0,0,0,0,0,0,0,-1,1224,743,0,0
7,281,0,0,0,0,0,0,0,0,0,-1,1231,743,0,0
14,281,0,0,0,0,0,0,0,0,0,-1,1238,743,0,0
21,281,0,0,0,0,0,0,0,0,0,-1,1245,743,0,0
28,281,0,0,0,0,0,0,0,0,0,-1,1252,743,0,0
35,281,0,0,0,0,0,0,0,0,0,-1,1259,743,0,0
42,281,0,0,0,0,0,0,0,0,0,-1,1266,743,0,0
49,281,0,0,0,0,0,0,0,0,0,-1,1273,743,0,0
56,281,0,0,0,0,0,0,0,0,0,-1,1280,743,0,0
63,281,0,0,0,0,0,0,0,0,0,-1,1287,743,0,0
70,281,0,0,0,0,0,0,0,0,0,-1,1294,743,0,0
77,281,0,0,0,0,0,0,0,0,0,-1,1301,743,0,0
84,281,0,0,0,0,0,0,0,0,0,-1,1308,743,0,0
91,281,0,0,0,0,0,0,0,0,0,-1,1315,743,0,0
98,281,0,0,0,0,0,0,0,0,0,-1,1322,743,0,0
105,281,0,0,0,0,0,0,0,0,0,-1,1329,743,0,0
112,281,0,0,0,0,0,0,0,0,0,-1,1336,743,0,0
119,281,0,0,0,0,0,0,0,0,0,-1,1343,743,0,0
126,281,0,0,0,0,0,0,0,0,0,-1,1350,743,0,0
133,281,0,0,0,0,0,0,0,0,0,-1,1357,743,0,0
140,281,0,0,0,0,0,0,0,0,0,-1,1364,743,0,0
147,281,0,0,0,0,0,0,0,0,0,-1,1371,743,0,0
154,281,0,0,0,0,0,0,0,0,0,-1,1378,743,0,0
161,281,0,0,0,0,0,0,0,0,0,-1,1385,743,0,0
168,281,0,0,0,0,0,0,0,0,0,-1,1392,743,0,0
175,281,0,0,0,0,0,0,0,0,0,-1,1399,743,0,0
182,281,0,0,0,0,0,0,0,0,0,-1,1406,743,0,0
189,281,0,0,0,0,0,0,0,0,0,-1,1413,743,0,0
196,281,0,0,0,0,0,0,0,0,0,-1,1420,743,0,0
203,281,0,0,0,0,0,0,0,0,0,-1,1427,743,0,0
210,281,0,0,0,0,0,0,0,0,0,-1,1434,743,0,0
217,281,0,0,0,0,0,0,0,0,0,-1,1441,743,0,0
224,281,0,0,0,0,0,0,0,0,0,-1,1448,743,0,0
231,281,0,0,0,0,0,0,0,0,0,-1,1455,743,0,0
238,281,0,0,0,0,0,0,0,0,0,-1,1462,743,0,0
245,281,0,0,0,0,0,0,0,0,0,-1,1469,743,0,0
252,281,0,0,0,0,0,0,0,0,0,-1,1476,743,0,0
259,281,0,0,0,0,0,0,0,0,0,-1,1483,743,0,0
266,281,0,0,0,0,0,0,0,0,0,-1,1490,743,0,0
273,281,0,0,0,0,0,0,0,0,0,-1,1497,743,0,0
280,281,0,0,0,0,0,0,0,0,0,-1,1504,743,0,0
287,281,0,0,0,0,0,0,0,0,0,-1,1511,743,0,0
294,281,0,0,0,0,0,0,0,0,0,-1,1518,743,0,0
301,281,0,0,0,0,0,0,0,0,0,-1,1525,743,0,0
308,281,0,0,0,0,0,0,0,0,0,-1,1532,743,0,0
315,281,0,0,0,0,0,0,0,0,0,-1,1539,743,0,0
322,281,0,0,0,0,0,0,0,0,0,-1,1546,743,0,0
329,281,0,0,0,0,0,0,0,0,0,-1,1553,743,0,0
336,281,0,0,0,0,0,0,0,0,0,-1,1560,743,0,0
343,281,0,0,0,0,0,0,0,0,0,-1,1567,743,0,0
350,281,0,0,0,0,0,0,0,0,0,-1,1574,743,0,0
357,281,0,0,0,0,0,0,0,0,0,-1,1581,743,0,0
364,281,0,0,0,0,0,0,0,0,0,-1,1588,743,0,0
371,281,0,0,0,0,0,0,0,0,0,-1,1595,743,0,0
378,281,0,0,0,0,0,0,0,0,0,-1,1602,743,0,0
385,281,0,0,0,0,0,0,0,0,0,-1,1609,743,0,0
392,281,0,0,0,0,0,0,0,0,0,-1,1616,743,0,0
399,281,0,0,0,0,0,0,0,0,0,-1,1623,743,0,0
406,281,0,0,0,0,0,0,0,0,0,-1,1630,743,0,0
413,281,0,0,0,0,0,0,0,0,0,-1,1637,743,0,0
420,281,0,0,0,0,0,0,0,0,0,-1,1644,743,0,0
427,281,0,0,0,0,0,0,0,0,0,-1,1651,743,0,0
434,281,0,0,0,0,0,0,0,0,0,-1,1658,743,0,0
441,281,0,0,0,0,0,0,0,0,0,-1,1665,743,0,0
448,281,0,0,0,0,0,0,0,0,0,-1,1672,743,0,0
455,281,0,0,0,0,0,0,0,0,0,-1,1679,743,0,0
462,281,0,0,0,0,0,0,0,0,0,-1,1686,743,0,0
469,281,0,0,0,0,0,0,0,0,0,-1,1693,743,0,0
476,281,0,0,0,0,0,0,0,0,0,-1,1700,743,0,0
483,281,0,0,0,0,0,0,0,0,0,-1,1707,743,0,0
490,281,0,0,0,0,0,0,0,0,0,-1,1714,743,0,0
497,281,0,0,0,0,0,0,0,0,0,-1,1721,743,0,0
504,281,0,0,0,0,0,0,0,0,0,-1,1728,743,0,0
511,281,0,0,0,0,0,0,0,0,0,-1,1735,743,0,0
518,281,0,0,0,0,0,0,0,0,0,-1,1742,743,0,0
525,281,0,0,0,0,0,0,0,0,0,-1,1749,743,0,0
532,281,0,0,0,0,0,0,0,0,0,-1,1756,743,0,0
539,281,0,0,0,0,0,0,0,0,0,-1,1763,743,0,0
546,281,0,0,0,0,0,0,0,0,0,-1,1770,743,0,0
553,281,0,0,0,0,0,0,0,0,0,-1,1777,743,0,0
560,281,53.1833,2.68683,0,0,0,0,0,0,0,-1,1784,743,53.1833,-2.68685
567,281,53.3784,2.7608,0,0,0,0,0,0,0,-1,1791,743,53.3784,-2.76078
574,281,53.4863,3.00604,0,0,0,0,0,0,0,-1,1798,743,53.4863,-3.00606
581,281,54.8129,3.36597,0,0,0,0,0,0,0,-1,1805,743,54.8129,-3.36597
588,281,54.6653,3.14581,0,0,0,0,0,0,0,-1,1812,743,54.6653,-3.14579
595,281,54.8569,3.32269,0,0,0,0,0,0,0,-1,1819,743,54.857,-3.32269
602,281,45.9985,3.98254,0,0,0,0,0,0,0,-1,1826,743,45.9985,-3.98254
609,281,32.7925,1.28723,0,0,0,0,0,0,0,-1,1833,743,32.7925,-1.28722
616,281,21.3191,-0.253906,0,0,0,0,0,0,0,-1,1840,743,21.3191,0.253931
623,281,31.8741,-4.74182,0,0,0,0,0,0,0,-1,1847,743,31.8741,4.74184
630,281,34.6221,-4.61066,0,0,0,0,0,0,0,-1,1854,743,34.6221,4.61064
637,281,34.7137,-3.9588,0.00391334,-0.000210812,0.00227082,0.00491863,-0.00121611,0.416769,0.00375076,0.0168855,1861,743,34.7138,3.95883
644,281,34.7365,-3.2691,0.0023494,-0.000460788,0.00176248,0.00319833,-0.00130972,0.448875,0.00267778,0.01042,1868,743,34.7364,3.26911
651,281,34.7377,-2.60828,0.00108984,-0.000399121,0.00122081,0.00177526,-0.00108454,0.511591,0.00166709,0.0115078,1875,743,34.7377,2.60828
658,281,34.6995,-1.92755,0.000474689,-3.27969e-05,0.000733612,0.000997201,-0.000555309,0.618897,0.000908364,0.0211536,1882,743,34.6995,1.92755
665,281,34.6344,-1.2298,0.000385239,0.000676435,0.000664473,0.00121107,-0.000149401,0.893253,0.000861512,0.0231271,1889,743,34.6344,1.22978
672,281,34.6038,-0.576416,0.000345053,0.00139635,0.000850237,0.00187031,-0.000128902,1.06226,0.00129199,0.0136806,1896,743,34.6037,0.576442
679,281,34.5804,0.0614624,0.00037585,0.00223668,0.0010605,0.00271705,-0.000104525,1.14547,0.0018472,0.0194791,1903,743,34.5805,-0.0614793
686,281,34.5261,0.709106,0.000500719,0.00320722,0.00133573,0.00375541,-4.74707e-05,1.18135,0.00251958,0.01538,1910,743,34.5261,-0.709079
693,281,34.5123,1.38788,0.000770214,0.0042643,0.0016594,0.00492677,0.000107742,1.19096,0.00324919,0.011972,1917,743,34.5123,-1.38789
700,281,34.4738,2.11346,0.00122495,0.00566684,0.00207216,0.0064834,0.000408392,1.19542,0.00419277,0.0350081,1924,743,34.4737,-2.11346
707,281,34.5444,2.81781,0,0,0,0,0,0,0,-1,1931,743,34.5444,-2.81782
714,281,25.0125,2.5105,0,0,0,0,0,0,0,-1,1938,743,25.0124,-2.51053
721,281,16.9656,3.22174,0,0,0,0,0,0,0,-1,1945,743,16.9656,-3.22172
728,281,19.0251,3.63934,0,0,0,0,0,0,0,-1,1952,743,19.0252,-3.63932
735,281,19.0869,2.50311,0,0,0,0,0,0,0,-1,1959,743,19.0869,-2.5031
742,281,0,0,0,0,0,0,0,0,0,-1,1966,743,0,0
749,281,0,0,0,0,0,0,0,0,0,-1,1973,743,0,0
756,281,0,0,0,0,0,0,0,0,0,-1,1980,743,0,0
763,281,0,0,0,0,0,0,0,0,0,-1,1987,743,0,0
770,281,0,0,0,0,0,0,0,0,0,-1,1994,743,0,0
777,281,0,0,0,0,0,0,0,0,0,-1,2001,743,0,0
784,281,0,0,0,0,0,0,0,0,0,-1,2008,743,0,0
791,281,0,0,0,0,0,0,0,0,0,-1,2015,743,0,0
798,281,0,0,0,0,0,0,0,0,0,-1,2022,743,0,0
805,281,0,0,0,0,0,0,0,0,0,-1,2029,743,0,0
812,281,0,0,0,0,0,0,0,0,0,-1,2036,743,0,0
-700,274,0,0,0,0,0,0,0,0,0,-1,524,750,0,0
-693,274,0,0,0,0,0,0,0,0,0,-1,531,750,0,0
-686,274,0,0,0,0,0,0,0,0,0,-1,538,750,0,0
-679,274,0,0,0,0,0,0,0,0,0,-1,545,750,0,0
-672,274,0,0,0,0,0,0,0,0,0,-1,552,750,0,0
-665,274,0,0,0,0,0,0,0,0,0,-1,559,750,0,0
-658,274,0,0,0,0,0,0,0,0,0,-1,566,750,0,0
-651,274,0,0,0,0,0,0,0,0,0,-1,573,750,0,0
-644,274,0,0,0,0,0,0,0,0,0,-1,580,750,0,0
-637,274,0,0,0,0,0,0,0,0,0,-1,587,750,0,0
-630,274,0,0,0,0,0,0,0,0,0,-1,594,750,0,0
-623,274,-19.6909,5.12701,0,0,0,0,0,0,0,-1,601,750,-19.6908,-5.12703
-616,274,-17.9133,3.9024,0,0,0,0,0,0,0,-1,608,750,-17.9133,-3.90239
-609,274,-22.8754,6.07513,0,0,0,0,0,0,0,-1,615,750,-22.8754,-6.07514
-602,274,-22.5925,4.8269,0,0,0,0,0,0,0,-1,622,750,-22.5925,-4.82689
-595,274,-22.2496,3.62689,0,0,0,0,0,0,0,-1,629,750,-22.2497,-3.62688
-588,274,-22.4466,2.48804,0,0,0,0,0,0,0,-1,636,750,-22.4466,-2.48804
-581,274,-23.0159,0.858521,0,0,0,0,0,0,0,-1,643,750,-23.016,-0.858525
-574,274,-22.9311,0.14093,-0.00552902,0.00706883,-0.00190571,0.00735081,-0.00581099,-1.4239,0.00761628,0.027044,650,750,-22.9311,-0.140909
-567,274,-23.1232,-0.472839,-0.00389035,0.00511574,-0.00112898,0.00525511,-0.00402972,-1.44797,0.00537614,0.0262788,657,750,-23.1232,0.472814
-560,274,-23.1642,-1.04907,-0.00281342,0.00335548,-0.000426978,0.00338489,-0.00284283,-1.50202,0.00360011,0.0146468,664,750,-23.1642,1.04906
-553,274,-23.1567,-1.70026,-0.00207363,0.00182679,0.000205056,0.00183754,-0.00208438,1.51842,0.00226582,0.00966126,671,750,-23.1567,1.70028
-546,274,-23.2062,-2.3548,-0.00167188,0.000408983,0.000846756,0.000710005,-0.0019729,1.22923,0.00160516,0.0118251,678,750,-23.2062,2.3548
-539,274,-23.2393,-3.00531,-0.00151062,-0.000948184,0.00151504,0.000311511,-0.00277032,0.877163,0.00195899,0.0126115,685,750,-23.2393,3.00531
-532,274,-23.2518,-3.60602,-0.00146652,-0.00201307,0.00206679,0.000344986,-0.00382458,0.719669,0.00267215,0.0126049,692,750,-23.2518,3.60602
-525,274,-23.2712,-4.22809,-0.00122262,-0.00253803,0.00209809,0.000318438,-0.00407909,0.63351,0.00283151,0.0126735,699,750,-23.2712,4.22812
-518,274,-23.2966,-4.90088,-0.000490014,-0.00244423,0.00184654,0.000622001,-0.00355625,0.542048,0.00260306,0.0132586,706,750,-23.2966,4.9009
-511,274,-23.308,-5.56531,0.000523084,-0.00213442,0.00182675,0.00145323,-0.00306456,0.470963,0.00266307,0.0147462,713,750,-23.308,5.56531
-504,274,-23.3925,-6.22906,0.00153781,-0.00102371,0.00222893,0.00282774,-0.00231364,0.524628,0.00297332,0.0285005,720,750,-23.3924,6.22905
-497,274,-23.2723,-6.91821,0,0,0,0,0,0,0,-1,727,750,-23.2723,6.91822
-490,274,-13.6545,-3.58826,0,0,0,0,0,0,0,-1,734,750,-13.6546,3.58825
-483,274,-27.8608,1.30981,0,0,0,0,0,0,0,-1,741,750,-27.8608,-1.30979
-476,274,-33.7561,-0.508606,0,0,0,0,0,0,0,-1,748,750,-33.7561,0.508636
-469,274,-41.1387,0.907715,0,0,0,0,0,0,0,-1,755,750,-41.1387,-0.907744
-462,274,-41.2065,1.21558,0,0,0,0,0,0,0,-1,762,750,-41.2066,-1.2156
-455,274,-41.2744,1.52344,0,0,0,0,0,0,0,-1,769,750,-41.2744,-1.52346
-448,274,-42.0142,0.518311,0,0,0,0,0,0,0,-1,776,750,-42.0142,-0.518291
-441,274,0,0,0,0,0,0,0,0,0,-1,783,750,0,0
-434,274,0,0,0,0,0,0,0,0,0,-1,790,750,0,0
-427,274,0,0,0,0,0,0,0,0,0,-1,797,750,0,0
-420,274,0,0,0,0,0,0,0,0,0,-1,804,750,0,0
-413,274,0,0,0,0,0,0,0,0,0,-1,811,750,0,0
-406,274,0,0,0,0,0,0,0,0,0,-1,818,750,0,0
-399,274,0,0,0,0,0,0,0,0,0,-1,825,750,0,0
-392,274,0,0,0,0,0,0,0,0,0,-1,832,750,0,0
-385,274,0,0,0,0,0,0,0,0,0,-1,839,750,0,0
-378,274,0,0,0,0,0,0,0,0,0,-1,846,750,0,0
-371,274,0,0,0,0,0,0,0,0,0,-1,853,750,0,0
-364,274,0,0,0,0,0,0,0,0,0,-1,860,750,0,0
-357,274,0,0,0,0,0,0,0,0,0,-1,867,750,0,0
-350,274,0,0,0,0,0,0,0,0,0,-1,874,750,0,0
-343,274,0,0,0,0,0,0,0,0,0,-1,881,750,0,0
-336,274,0,0,0,0,0,0,0,0,0,-1,888,750,0,0
-329,274,0,0,0,0,0,0,0,0,0,-1,895,750,0,0
-322,274,0,0,0,0,0,0,0,0,0,-1,902,750,0,0
-315,274,0,0,0,0,0,0,0,0,0,-1,909,750,0,0
-308,274,0,0,0,0,0,0,0,0,0,-1,916,750,0,0
-301,274,0,0,0,0,0,0,0,0,0,-1,923,750,0,0
-294,274,0,0,0,0,0,0,0,0,0,-1,930,750,0,0
-287,274,0,0,0,0,0,0,0,0,0,-1,937,750,0,0
-280,274,0,0,0,0,0,0,0,0,0,-1,944,750,0,0
-273,274,0,0,0,0,0,0,0,0,0,-1,951,750,0,0
-266,274,0,0,0,0,0,0,0,0,0,-1,958,750,0,0
-259,274,0,0,0,0,0,0,0,0,0,-1,965,750,0,0
-252,274,0,0,0,0,0,0,0,0,0,-1,972,750,0,0
-245,274,0,0,0,0,0,0,0,0,0,-1,979,750,0,0
-238,274,0,0,0,0,0,0,0,0,0,-1,986,750,0,0
-231,274,0,0,0,0,0,0,0,0,0,-1,993,750,0,0
-224,274,0,0,0,0,0,0,0,0,0,-1,1000,750,0,0
-217,274,0,0,0,0,0,0,0,0,0,-1,1007,750,0,0
-210,274,0,0,0,0,0,0,0,0,0,-1,1014,750,0,0
-203,274,0,0,0,0,0,0,0,0,0,-1,1021,750,0,0
-196,274,0,0,0,0,0,0,0,0,0,-1,1028,750,0,0
-189,274,0,0,0,0,0,0,0,0,0,-1,1035,750,0,0
-182,274,0,0,0,0,0,0,0,0,0,-1,1042,750,0,0
-175,274,0,0,0,0,0,0,0,0,0,-1,1049,750,0,0
-168,274,0,0,0,0,0,0,0,0,0,-1,1056,750,0,0
-161,274,0,0,0,0,0,0,0,0,0,-1,1063,750,0,0
-154,274,0,0,0,0,0,0,0,0,0,-1,1070,750,0,0
-147,274,0,0,0,0,0,0,0,0,0,-1,1077,750,0,0
-140,274,0,0,0,0,0,0,0,0,0,-1,1084,750,0,0
-133,274,0,0,0,0,0,0,0,0,0,-1,1091,750,0,0
-126,274,0,0,0,0,0,0,0,0,0,-1,1098,750,0,0
-119,274,0,0,0,0,0,0,0,0,0,-1,1105,750,0,0
-112,274,0,0,0,0,0,0,0,0,0,-1,1112,750,0,0
-105,274,0,0,0,0,0,0,0,0,0,-1,1119,750,0,0
-98,274,0,0,0,0,0,0,0,0,0,-1,1126,750,0,0
-91,274,0,0,0,0,0,0,0,0,0,-1,1133,750,0,0
-84,274,0,0,0,0,0,0,0,0,0,-1,1140,750,0,0
-77,274,0,0,0,0,0,0,0,0,0,-1,1147,750,0,0
-70,274,0,0,0,0,0,0,0,0,0,-1,1154,750,0,0
-63,274,0,0,0,0,0,0,0,0,0,-1,1161,750,0,0
-56,274,0,0,0,0,0,0,0,0,0,-1,1168,750,0,0
-49,274,0,0,0,0,0,0,0,0,0,-1,1175,750,0,0
-42,274,0,0,0,0,0,0,0,0,0,-1,1182,750,0,0
-35,274,0,0,0,0,0,0,0,0,0,-1,1189,750,0,0
-28,274,0,0,0,0,0,0,0,0,0,-1,1196,750,0,0
-21,274,0,0,0,0,0,0,0,0,0,-1,1203,750,0,0
-14,274,0,0,0,0,0,0,0,0,0,-1,1210,750,0,0
-7,274,0,0,0,0,0,0,0,0,0,-1,1217,750,0,0
0,274,0,0,0,0,0,0,0,0,0,-1,1224,750,0,0
7,274,0,0,0,0,0,0,0,0,0,-1,1231,750,0,0
14,274,0,0,0,0,0,0,0,0,0,-1,1238,750,0,0
21,274,0,0,0,0,0,0,0,0,0,-1,1245,750,0,0
28,274,0,0,0,0,0,0,0,0,0,-1,1252,750,0,0
35,274,0,0,0,0,0,0,0,0,0,-1,1259,750,0,0
42,274,0,0,0,0,0,0,0,0,0,-1,1266,750,0,0
49,274,0,0,0,0,0,0,0,0,0,-1,1273,750,0,0
56,274,0,0,0,0,0,0,0,0,0,-1,1280,750,0,0
63,274,0,0,0,0,0,0,0,0,0,-1,1287,750,0,0
70,274,0,0,0,0,0,0,0,0,0,-1,1294,750,0,0
77,274,0,0,0,0,0,0,0,0,0,-1,1301,750,0,0
84,274,0,0,0,0,0,0,0,0,0,-1,1308,750,0,0
91,274,0,0,0,0,0,0,0,0,0,-1,1315,750,0,0
98,274,0,0,0,0,0,0,0,0,0,-1,1322,750,0,0
105,274,0,0,0,0,0,0,0,0,0,-1,1329,750,0,0
112,274,0,0,0,0,0,0,0,0,0,-1,1336,750,0,0
119,274,0,0,0,0,0,0,0,0,0,-1,1343,750,0,0
126,274,0,0,0,0,0,0,0,0,0,-1,1350,750,0,0
133,274,0,0,0,0,0,0,0,0,0,-1,1357,750,0,0
140,274,0,0,0,0,0,0,0,0,0,-1,1364,750,0,0
147,274,0,0,0,0,0,0,0,0,0,-1,1371,750,0,0
154,274,0,0,0,0,0,0,0,0,0,-1,1378,750,0,0
161,274,0,0,0,0,0,0,0,0,0,-1,1385,750,0,0
168,274,0,0,0,0,0,0,0,0,0,-1,1392,750,0,0
175,274,0,0,0,0,0,0,0,0,0,-1,1399,750,0,0
182,274,0,0,0,0,0,0,0,0,0,-1,1406,750,0,0
189,274,0,0,0,0,0,0,0,0,0,-1,1413,750,0,0
196,274,0,0,0,0,0,0,0,0,0,-1,1420,750,0,0
203,274,0,0,0,0,0,0,0,0,0,-1,1427,750,0,0
210,274,0,0,0,0,0,0,0,0,0,-1,1434,750,0,0
217,274,0,0,0,0,0,0,0,0,0,-1,1441,750,0,0
224,274,0,0,0,0,0,0,0,0,0,-1,1448,750,0,0
231,274,0,0,0,0,0,0,0,0,0,-1,1455,750,0,0
238,274,0,0,0,0,0,0,0,0,0,-1,1462,750,0,0
245,274,0,0,0,0,0,0,0,0,0,-1,1469,750,0,0
252,274,0,0,0,0,0,0,0,0,0,-1,1476,750,0,0
259,274,0,0,0,0,0,0,0,0,0,-1,1483,750,0,0
266,274,0,0,0,0,0,0,0,0,0,-1,1490,750,0,0
273,274,0,0,0,0,0,0,0,0,0,-1,1497,750,0,0
280,274,0,0,0,0,0,0,0,0,0,-1,1504,750,0,0
287,274,0,0,0,0,0,0,0,0,0,-1,1511,750,0,0
294,274,0,0,0,0,0,0,0,0,0,-1,1518,750,0,0
301,274,0,0,0,0,0,0,0,0,0,-1,1525,750,0,0
308,274,0,0,0,0,0,0,0,0,0,-1,1532,750,0,0
315,274,0,0,0,0,0,0,0,0,0,-1,1539,750,0,0
322,274,0,0,0,0,0,0,0,0,0,-1,1546,750,0,0
329,274,0,0,0,0,0,0,0,0,0,-1,1553,750,0,0
336,274,0,0,0,0,0,0,0,0,0,-1,1560,750,0,0
343,274,0,0,0,0,0,0,0,0,0,-1,1567,750,0,0
350,274,0,0,0,0,0,0,0,0,0,-1,1574,750,0,0
357,274,0,0,0,0,0,0,0,0,0,-1,1581,750,0,0
364,274,0,0,0,0,0,0,0,0,0,-1,1588,750,0,0
371,274,0,0,0,0,0,0,0,0,0,-1,1595,750,0,0
378,274,0,0,0,0,0,0,0,0,0,-1,1602,750,0,0
385,274,0,0,0,0,0,0,0,0,0,-1,1609,750,0,0
392,274,0,0,0,0,0,0,0,0,0,-1,1616,750,0,0
399,274,0,0,0,0,0,0,0,0,0,-1,1623,750,0,0
406,274,0,0,0,0,0,0,0,0,0,-1,1630,750,0,0
413,274,0,0,0,0,0,0,0,0,0,-1,1637,750,0,0
420,274,0,0,0,0,0,0,0,0,0,-1,1644,750,0,0
427,274,0,0,0,0,0,0,0,0,0,-1,1651,750,0,0
434,274,0,0,0,0,0,0,0,0,0,-1,1658,750,0,0
441,274,0,0,0,0,0,0,0,0,0,-1,1665,750,0,0
448,274,0,0,0,0,0,0,0,0,0,-1,1672,750,0,0
455,274,0,0,0,0,0,0,0,0,0,-1,1679,750,0,0
462,274,0,0,0,0,0,0,0,0,0,-1,1686,750,0,0
469,274,0,0,0,0,0,0,0,0,0,-1,1693,750,0,0
476,274,0,0,0,0,0,0,0,0,0,-1,1700,750,0,0
483,274,0,0,0,0,0,0,0,0,0,-1,1707,750,0,0
490,274,0,0,0,0,0,0,0,0,0,-1,1714,750,0,0
497,274,0,0,0,0,0,0,0,0,0,-1,1721,750,0,0
504,274,0,0,0,0,0,0,0,0,0,-1,1728,750,0,0
511,274,0,0,0,0,0,0,0,0,0,-1,1735,750,0,0
518,274,0,0,0,0,0,0,0,0,0,-1,1742,750,0,0
525,274,0,0,0,0,0,0,0,0,0,-1,1749,750,0,0
532,274,0,0,0,0,0,0,0,0,0,-1,1756,750,0,0
539,274,0,0,0,0,0,0,0,0,0,-1,1763,750,0,0
546,274,0,0,0,0,0,0,0,0,0,-1,1770,750,0,0
553,274,0,0,0,0,0,0,0,0,0,-1,1777,750,0,0
560,274,53.8148,2.82648,0,0,0,0,0,0,0,-1,1784,750,53.8148,-2.82646
567,274,53.5079,3.00684,0,0,0,0,0,0,0,-1,1791,750,53.5079,-3.00685
574,274,54.4718,3.29578,0,0,0,0,0,0,0,-1,1798,750,54.4718,-3.29576
581,274,54.5679,3.2691,0,0,0,0,0,0,0,-1,1805,750,54.5678,-3.26908
588,274,54.5679,3.17505,0,0,0,0,0,0,0,-1,1812,750,54.5679,-3.17507
595,274,54.1619,3.29663,0,0,0,0,0,0,0,-1,1819,750,54.1618,-3.29663
602,274,57.011,2.72906,0,0,0,0,0,0,0,-1,1826,750,57.011,-2.72905
609,274,44.6676,3.10461,0,0,0,0,0,0,0,-1,1833,750,44.6676,-3.1046
616,274,32.7869,1.78436,0,0,0,0,0,0,0,-1,1840,750,32.7868,-1.78437
623,274,24.8231,-1.80353,0,0,0,0,0,0,0,-1,1847,750,24.8232,1.80351
630,274,35.557,-4.6875,0,0,0,0,0,0,0,-1,1854,750,35.557,4.68753
637,274,35.3918,-3.97705,0.00366365,-0.000454277,0.00236846,0.00474299,-0.00153361,0.427595,0.00377841,0.0205936,1861,750,35.3918,3.97703
644,274,35.38,-3.25385,0.00205014,-0.000838326,0.0018343,0.00294053,-0.00172871,0.451908,0.00272588,0.0120099,1868,750,35.38,3.25383
651,274,35.3741,-2.57977,0.000658629,-0.000900522,0.00116685,0.00128236,-0.00152426,0.4909,0.00162241,0.0136244,1875,750,35.3741,2.57976
658,274,35.3392,-1.9054,3.12916e-05,-0.000638073,0.000483647,0.000284765,-0.000891547,0.482731,0.000708622,0.0168936,1882,750,35.3392,1.9054
665,274,35.2876,-1.2038,0.000171622,0.00011382,0.000317758,0.000461791,-0.000176349,0.740047,0.000380518,0.0166609,1889,750,35.2876,1.20382
672,274,35.28,-0.552002,0.000429944,0.000865574,0.000571746,0.00125959,3.59286e-05,0.967393,0.00082801,0.0143188,1896,750,35.28,0.552004
679,274,35.2498,0.108765,0.000762829,0.00174003,0.000866914,0.00224655,0.000256306,1.04201,0.00142,0.0155735,1903,750,35.2498,-0.108769
686,274,35.2161,0.768555,0.00118158,0.00274232,0.00123292,0.00342109,0.000502816,1.06754,0.00213297,0.0164296,1910,750,35.2161,-0.768535
693,274,35.1707,1.44849,0.00172871,0.00381956,0.00166712,0.00474192,0.000806338,1.06545,0.00292973,0.0120258,1917,750,35.1707,-1.44847
700,274,35.1676,2.16211,0.00243948,0.0051403,0.00219162,0.00636415,0.00121563,1.06151,0.00390121,0.0161039,1924,750,35.1676,-2.1621
707,274,35.0458,2.86395,0.00329585,0.00658957,0.00292532,0.00829974,0.00158568,1.04177,0.00508765,0.0313931,1931,750,35.0458,-2.86395
714,274,34.8695,3.59369,0,0,0,0,0,0,0,-1,1938,750,34.8695,-3.59369
721,274,25.6215,3.91144,0,0,0,0,0,0,0,-1,1945,750,25.6214,-3.91141
728,274,19.2209,3.95154,0,0,0,0,0,0,0,-1,1952,750,19.221,-3.95151
735,274,20.6608,4.10931,0,0,0,0,0,0,0,-1,1959,750,20.6607,-4.10932
742,274,11.7815,-0.740234,0,0,0,0,0,0,0,-1,1966,750,11.7815,0.740253
749,274,0,0,0,0,0,0,0,0,0,-1,1973,750,0,0
756,274,0,0,0,0,0,0,0,0,0,-1,1980,750,0,0
763,274,0,0,0,0,0,0,0,0,0,-1,1987,750,0,0
770,274,0,0,0,0,0,0,0,0,0,-1,1994,750,0,0
777,274,0,0,0,0,0,0,0,0,0,-1,2001,750,0,0
784,274,0,0,0,0,0,0,0,0,0,-1,2008,750,0,0
791,274,0,0,0,0,0,0,0,0,0,-1,2015,750,0,0
798,274,0,0,0,0,0,0,0,0,0,-1,2022,750,0,0
805,274,0,0,0,0,0,0,0,0,0,-1,2029,750,0,0
812,274,0,0,0,0,0,0,0,0,0,-1,2036,750,0,0
-700,267,0,0,0,0,0,0,0,0,0,-1,524,757,0,0
-693,267,0,0,0,0,0,0,0,0,0,-1,531,757,0,0
-686,267,0,0,0,0,0,0,0,0,0,-1,538,757,0,0
-679,267,0,0,0,0,0,0,0,0,0,-1,545,757,0,0
-672,267,0,0,0,0,0,0,0,0,0,-1,552,757,0,0
-665,267,0,0,0,0,0,0,0,0,0,-1,559,757,0,0
-658,267,0,0,0,0,0,0,0,0,0,-1,566,757,0,0
-651,267,0,0,0,0,0,0,0,0,0,-1,573,757,0,0
-644,267,0,0,0,0,0,0,0,0,0,-1,580,757,0,0
-637,267,0,0,0,0,0,0,0,0,0,-1,587,757,0,0
-630,267,-21.3979,5.17529,0,0,0,0,0,0,0,-1,594,757,-21.3979,-5.17529
-623,267,-20.043,4.43115,0,0,0,0,0,0,0,-1,601,757,-20.043,-4.43116
-616,267,-23.9603,6.67145,0,0,0,0,0,0,0,-1,608,757,-23.9603,-6.67147
-609,267,-23.6296,5.39941,0,0,0,0,0,0,0,-1,615,757,-23.6297,-5.39942
-602,267,-23.3533,4.11847,0,0,0,0,0,0,0,-1,622,757,-23.3533,-4.11848
-595,267,-23.3228,3.19354,0,0,0,0,0,0,0,-1,629,757,-23.3228,-3.19356
-588,267,-23.36,2.16394,0,0,0,0,0,0,0,-1,636,757,-23.36,-2.16393
-581,267,-23.5042,1.10144,-0.00555076,0.00846459,-0.00345653,0.00927069,-0.00635687,-1.34168,0.0090747,0.0373448,643,757,-23.5042,-1.10145
-574,267,-23.6329,0.247559,-0.00429719,0.00638106,-0.00225331,0.00683707,-0.0047532,-1.37112,0.0067276,0.0223195,650,757,-23.6329,-0.247554
-567,267,-23.7384,-0.363525,-0.00325678,0.0045609,-0.00129492,0.00476981,-0.00346569,-1.41085,0.0047746,0.0283865,657,757,-23.7384,0.363547
-560,267,-23.7778,-0.984619,-0.00258998,0.00287823,-0.000430489,0.00291191,-0.00262367,-1.49271,0.00319741,0.0232775,664,757,-23.7778,0.984632
-553,267,-23.8179,-1.63159,-0.00217002,0.00131962,0.000375895,0.00135965,-0.00221005,1.4647,0.00208037,0.0181378,671,757,-23.8179,1.63158
-546,267,-23.8448,-2.31006,-0.00199999,-8.43584e-05,0.0011424,0.000448624,-0.00253297,1.13427,0.00185635,0.0121554,678,757,-23.8448,2.31007
-539,267,-23.8603,-2.97449,-0.00203559,-0.00146267,0.00188251,0.000155054,-0.00365331,0.860903,0.00248884,0.0115971,685,757,-23.8603,2.9745
-532,267,-23.8538,-3.58917,-0.00212743,-0.00241549,0.00236344,9.63598e-05,-0.00463928,0.754966,0.00312547,0.0123107,692,757,-23.8538,3.58915
-525,267,-23.9062,-4.18103,-0.00185645,-0.0027637,0.0021586,-0.000104324,-0.00451583,0.681831,0.00297639,0.0115906,699,757,-23.9062,4.18104
-518,267,-23.9363,-4.84351,-0.00101503,-0.00253188,0.00170399,9.17007e-05,-0.00363861,0.576018,0.00245688,0.0123655,706,757,-23.9363,4.84348
-511,267,-23.9274,-5.46985,9.80605e-05,-0.00218036,0.00153626,0.000871412,-0.00295371,0.466363,0.00231494,0.0210043,713,757,-23.9274,5.46984
-504,267,-24.0856,-5.84827,0.00115815,-0.00106254,0.00181491,0.00217543,-0.00207981,0.510877,0.00245697,0.0369068,720,757,-24.0856,5.84829
-497,267,-24.3129,-6.22369,0,0,0,0,0,0,0,-1,727,757,-24.3129,6.2237
-490,267,-23.4949,-0.494995,0,0,0,0,0,0,0,-1,734,757,-23.4949,0.494981
-483,267,-33.2785,-0.448425,0,0,0,0,0,0,0,-1,741,757,-33.2785,0.448407
-476,267,-40.2954,0.52002,0,0,0,0,0,0,0,-1,748,757,-40.2954,-0.520037
-469,267,-41.4992,1.23291,0,0,0,0,0,0,0,-1,755,757,-41.4992,-1.23292
-462,267,-41.1967,1.06104,0.0119619,0.00973991,0.0128645,0.0237633,-0.00206149,0.742325,0.0165721,0.0471701,762,757,-41.1967,-1.06103
-455,267,-41.1419,1.34387,0.0129056,0.011932,0.0188791,0.0313041,-0.00646656,0.772509,0.0233257,0.0485804,769,757,-41.1419,-1.34387
-448,267,-40.9064,1.47162,0,0,0,0,0,0,0,-1,776,757,-40.9065,-1.47164
-441,267,0,0,0,0,0,0,0,0,0,-1,783,757,0,0
-434,267,0,0,0,0,0,0,0,0,0,-1,790,757,0,0
-427,267,0,0,0,0,0,0,0,0,0,-1,797,757,0,0
-420,267,0,0,0,0,0,0,0,0,0,-1,804,757,0,0
-413,267,0,0,0,0,0,0,0,0,0,-1,811,757,0,0
-406,267,0,0,0,0,0,0,0,0,0,-1,818,757,0,0
-399,267,0,0,0,0,0,0,0,0,0,-1,825,757,0,0
-392,267,0,0,0,0,0,0,0,0,0,-1,832,757,0,0
-385,267,0,0,0,0,0,0,0,0,0,-1,839,757,0,0
-378,267,0,0,0,0,0,0,0,0,0,-1,846,757,0,0
-371,267,0,0,0,0,0,0,0,0,0,-1,853,757,0,0
-364,267,0,0,0,0,0,0,0,0,0,-1,860,757,0,0
-357,267,0,0,0,0,0,0,0,0,0,-1,867,757,0,0
-350,267,0,0,0,0,0,0,0,0,0,-1,874,757,0,0
-343,267,0,0,0,0,0,0,0,0,0,-1,881,757,0,0
-336,267,0,0,0,0,0,0,0,0,0,-1,888,757,0,0
-329,267,0,0,0,0,0,0,0,0,0,-1,895,757,0,0
-322,267,0,0,0,0,0,0,0,0,0,-1,902,757,0,0
-315,267,0,0,0,0,0,0,0,0,0,-1,909,757,0,0
-308,267,0,0,0,0,0,0,0,0,0,-1,916,757,0,0
-301,267,0,0,0,0,0,0,0,0,0,-1,923,757,0,0
-294,267,0,0,0,0,0,0,0,0,0,-1,930,757,0,0
-287,267,0,0,0,0,0,0,0,0,0,-1,937,757,0,0
-280,267,0,0,0,0,0,0,0,0,0,-1,944,757,0,0
-273,267,0,0,0,0,0,0,0,0,0,-1,951,757,0,0
-266,267,0,0,0,0,0,0,0,0,0,-1,958,757,0,0
-259,267,0,0,0,0,0,0,0,0,0,-1,965,757,0,0
-252,267,0,0,0,0,0,0,0,0,0,-1,972,757,0,0
-245,267,0,0,0,0,0,0,0,0,0,-1,979,757,0,0
-238,267,0,0,0,0,0,0,0,0,0,-1,986,757,0,0
-231,267,0,0,0,0,0,0,0,0,0,-1,993,757,0,0
-224,267,0,0,0,0,0,0,0,0,0,-1,1000,757,0,0
-217,267,0,0,0,0,0,0,0,0,0,-1,1007,757,0,0
-210,267,0,0,0,0,0,0,0,0,0,-1,1014,757,0,0
-203,267,0,0,0,0,0,0,0,0,0,-1,1021,757,0,0
-196,267,0,0,0,0,0,0,0,0,0,-1,1028,757,0,0
-189,267,0,0,0,0,0,0,0,0,0,-1,1035,757,0,0
-182,267,0,0,0,0,0,0,0,0,0,-1,1042,757,0,0
-175,267,0,0,0,0,0,0,0,0,0,-1,1049,757,0,0
-168,267,0,0,0,0,0,0,0,0,0,-1,1056,757,0,0
-161,267,0,0,0,0,0,0,0,0,0,-1,1063,757,0,0
-154,267,0,0,0,0,0,0,0,0,0,-1,1070,757,0,0
-147,267,0,0,0,0,0,0,0,0,0,-1,1077,757,0,0
-140,267,0,0,0,0,0,0,0,0,0,-1,1084,757,0,0
-133,267,0,0,0,0,0,0,0,0,0,-1,1091,757,0,0
-126,267,0,0,0,0,0,0,0,0,0,-1,1098,757,0,0
-119,267,0,0,0,0,0,0,0,0,0,-1,1105,757,0,0
-112,267,0,0,0,0,0,0,0,0,0,-1,1112,757,0,0
-105,267,0,0,0,0,0,0,0,0,0,-1,1119,757,0,0
-98,267,0,0,0,0,0,0,0,0,0,-1,1126,757,0,0
-91,267,0,0,0,0,0,0,0,0,0,-1,1133,757,0,0
-84,267,0,0,0,0,0,0,0,0,0,-1,1140,757,0,0
-77,267,0,0,0,0,0,0,0,0,0,-1,1147,757,0,0
-70,267,0,0,0,0,0,0,0,0,0,-1,1154,757,0,0
-63,267,0,0,0,0,0,0,0,0,0,-1,1161,757,0,0
-56,267,0,0,0,0,0,0,0,0,0,-1,1168,757,0,0
-49,267,0,0,0,0,0,0,0,0,0,-1,1175,757,0,0
-42,267,0,0,0,0,0,0,0,0,0,-1,1182,757,0,0
-35,267,0,0,0,0,0,0,0,0,0,-1,1189,757,0,0
-28,267,0,0,0,0,0,0,0,0,0,-1,1196,757,0,0
-21,267,0,0,0,0,0,0,0,0,0,-1,1203,757,0,0
-14,267,0,0,0,0,0,0,0,0,0,-1,1210,757,0,0
-7,267,0,0,0,0,0,0,0,0,0,-1,1217,757,0,0
0,267,0,0,0,0,0,0,0,0,0,-1,1224,757,0,0
7,267,0,0,0,0,0,0,0,0,0,-1,1231,757,0,0
14,267,0,0,0,0,0,0,0,0,0,-1,1238,757,0,0
21,267,0,0,0,0,0,0,0,0,0,-1,1245,757,0,0
28,267,0,0,0,0,0,0,0,0,0,-1,1252,757,0,0
35,267,0,0,0,0,0,0,0,0,0,-1,1259,757,0,0
42,267,0,0,0,0,0,0,0,0,0,-1,1266,757,0,0
49,267,0,0,0,0,0,0,0,0,0,-1,1273,757,0,0
56,267,0,0,0,0,0,0,0,0,0,-1,1280,757,0,0
63,267,0,0,0,0,0,0,0,0,0,-1,1287,757,0,0
70,267,0,0,0,0,0,0,0,0,0,-1,1294,757,0,0
77,267,0,0,0,0,0,0,0,0,0,-1,1301,757,0,0
84,267,0,0,0,0,0,0,0,0,0,-1,1308,757,0,0
91,267,0,0,0,0,0,0,0,0,0,-1,1315,757,0,0
98,267,0,0,0,0,0,0,0,0,0,-1,1322,757,0,0
105,267,0,0,0,0,0,0,0,0,0,-1,1329,757,0,0
112,267,0,0,0,0,0,0,0,0,0,-1,1336,757,0,0
119,267,0,0,0,0,0,0,0,0,0,-1,1343,757,0,0
126,267,0,0,0,0,0,0,0,0,0,-1,1350,757,0,0
133,267,0,0,0,0,0,0,0,0,0,-1,1357,757,0,0
140,267,0,0,0,0,0,0,0,0,0,-1,1364,757,0,0
147,267,0,0,0,0,0,0,0,0,0,-1,1371,757,0,0
154,267,0,0,0,0,0,0,0,0,0,-1,1378,757,0,0
161,267,0,0,0,0,0,0,0,0,0,-1,1385,757,0,0
168,267,0,0,0,0,0,0,0,0,0,-1,1392,757,0,0
175,267,0,0,0,0,0,0,0,0,0,-1,1399,757,0,0
182,267,0,0,0,0,0,0,0,0,0,-1,1406,757,0,0
189,267,0,0,0,0,0,0,0,0,0,-1,1413,757,0,0
196,267,0,0,0,0,0,0,0,0,0,-1,1420,757,0,0
203,267,0,0,0,0,0,0,0,0,0,-1,1427,757,0,0
210,267,0,0,0,0,0,0,0,0,0,-1,1434,757,0,0
217,267,0,0,0,0,0,0,0,0,0,-1,1441,757,0,0
224,267,0,0,0,0,0,0,0,0,0,-1,1448,757,0,0
231,267,0,0,0,0,0,0,0,0,0,-1,1455,757,0,0
238,267,0,0,0,0,0,0,0,0,0,-1,1462,757,0,0
245,267,0,0,0,0,0,0,0,0,0,-1,1469,757,0,0
252,267,0,0,0,0,0,0,0,0,0,-1,1476,757,0,0
259,267,0,0,0,0,0,0,0,0,0,-1,1483,757,0,0
266,267,0,0,0,0,0,0,0,0,0,-1,1490,757,0,0
273,267,0,0,0,0,0,0,0,0,0,-1,1497,757,0,0
280,267,0,0,0,0,0,0,0,0,0,-1,1504,757,0,0
287,267,0,0,0,0,0,0,0,0,0,-1,1511,757,0,0
294,267,0,0,0,0,0,0,0,0,0,-1,1518,757,0,0
301,267,0,0,0,0,0,0,0,0,0,-1,1525,757,0,0
308,267,0,0,0,0,0,0,0,0,0,-1,1532,757,0,0
315,267,0,0,0,0,0,0,0,0,0,-1,1539,757,0,0
322,267,0,0,0,0,0,0,0,0,0,-1,1546,757,0,0
329,267,0,0,0,0,0,0,0,0,0,-1,1553,757,0,0
336,267,0,0,0,0,0,0,0,0,0,-1,1560,757,0,0
343,267,0,0,0,0,0,0,0,0,0,-1,1567,757,0,0
350,267,0,0,0,0,0,0,0,0,0,-1,1574,757,0,0
357,267,0,0,0,0,0,0,0,0,0,-1,1581,757,0,0
364,267,0,0,0,0,0,0,0,0,0,-1,1588,757,0,0
371,267,0,0,0,0,0,0,0,0,0,-1,1595,757,0,0
378,267,0,0,0,0,0,0,0,0,0,-1,1602,757,0,0
385,267,0,0,0,0,0,0,0,0,0,-1,1609,757,0,0
392,267,0,0,0,0,0,0,0,0,0,-1,1616,757,0,0
399,267,0,0,0,0,0,0,0,0,0,-1,1623,757,0,0
406,267,0,0,0,0,0,0,0,0,0,-1,1630,757,0,0
413,267,0,0,0,0,0,0,0,0,0,-1,1637,757,0,0
420,267,0,0,0,0,0,0,0,0,0,-1,1644,757,0,0
427,267,0,0,0,0,0,0,0,0,0,-1,1651,757,0,0
434,267,0,0,0,0,0,0,0,0,0,-1,1658,757,0,0
441,267,0,0,0,0,0,0,0,0,0,-1,1665,757,0,0
448,267,0,0,0,0,0,0,0,0,0,-1,1672,757,0,0
455,267,0,0,0,0,0,0,0,0,0,-1,1679,757,0,0
462,267,0,0,0,0,0,0,0,0,0,-1,1686,757,0,0
469,267,0,0,0,0,0,0,0,0,0,-1,1693,757,0,0
476,267,0,0,0,0,0,0,0,0,0,-1,1700,757,0,0
483,267,0,0,0,0,0,0,0,0,0,-1,1707,757,0,0
490,267,0,0,0,0,0,0,0,0,0,-1,1714,757,0,0
497,267,0,0,0,0,0,0,0,0,0,-1,1721,757,0,0
504,267,0,0,0,0,0,0,0,0,0,-1,1728,757,0,0
511,267,0,0,0,0,0,0,0,0,0,-1,1735,757,0,0
518,267,0,0,0,0,0,0,0,0,0,-1,1742,757,0,0
525,267,0,0,0,0,0,0,0,0,0,-1,1749,757,0,0
532,267,0,0,0,0,0,0,0,0,0,-1,1756,757,0,0
539,267,0,0,0,0,0,0,0,0,0,-1,1763,757,0,0
546,267,0,0,0,0,0,0,0,0,0,-1,1770,757,0,0
553,267,0,0,0,0,0,0,0,0,0,-1,1777,757,0,0
560,267,0,0,0,0,0,0,0,0,0,-1,1784,757,0,0
567,267,53.6261,3.07043,0,0,0,0,0,0,0,-1,1791,757,53.6261,-3.07042
574,267,53.6608,3.11139,0,0,0,0,0,0,0,-1,1798,757,53.6608,-3.11138
581,267,54.4174,3.67548,0,0,0,0,0,0,0,-1,1805,757,54.4174,-3.67546
588,267,54.2849,3.25952,0,0,0,0,0,0,0,-1,1812,757,54.2849,-3.25955
595,267,55.4659,3.16711,0,0,0,0,0,0,0,-1,1819,757,55.4659,-3.16713
602,267,56.2271,2.77844,0,0,0,0,0,0,0,-1,1826,757,56.227,-2.77847
609,267,56.1868,3.5036,0,0,0,0,0,0,0,-1,1833,757,56.1868,-3.50361
616,267,44.2543,3.28918,0,0,0,0,0,0,0,-1,1840,757,44.2542,-3.28918
623,267,24.1475,-1.1391,0,0,0,0,0,0,0,-1,1847,757,24.1475,1.13913
630,267,36.4225,-4.21661,0,0,0,0,0,0,0,-1,1854,757,36.4225,4.2166
637,267,36.1285,-3.76782,0.00382143,-0.000545864,0.00231062,0.00481698,-0.00154141,0.406822,0.00382995,0.0428105,1861,757,36.1286,3.76782
644,267,36.0272,-3.2392,0.0021887,-0.000999079,0.00176459,0.00297268,-0.00178306,0.41809,0.00277421,0.0144101,1868,757,36.0272,3.2392
651,267,36.0005,-2.55084,0.000641091,-0.00118218,0.00103004,0.00110498,-0.00164606,0.423151,0.00159852,0.0148704,1875,757,36.0005,2.55083
658,267,35.9838,-1.87555,-0.000204082,-0.00106911,0.000158904,-0.000175815,-0.00109738,0.176044,0.000680594,0.0153135,1882,757,35.9837,1.87557
665,267,35.9752,-1.19879,-0.000143894,-0.000368238,-0.000164183,-5.72234e-05,-0.000454909,-0.485712,0.000286112,0.0154044,1889,757,35.9753,1.19878
672,267,35.969,-0.527588,0.000124702,0.000332573,0.000121033,0.000388173,6.91023e-05,1.14017,0.0002391,0.0139746,1896,757,35.969,0.527573
679,267,35.9279,0.137573,0.000527345,0.00115899,0.000475491,0.00141398,0.000272347,1.07854,0.000866264,0.0134867,1903,757,35.9278,-0.137598
686,267,35.8981,0.809814,0.00108269,0.00213119,0.000916186,0.00266252,0.00055137,1.04527,0.00162275,0.014547,1910,757,35.8981,-0.809836
693,267,35.8461,1.45087,0.00177825,0.00316426,0.00144165,0.00407083,0.000871689,1.00944,0.00247503,0.0142353,1917,757,35.8461,-1.45086
700,267,35.8308,2.13367,0.00262701,0.00434498,0.00204887,0.00570764,0.00126435,0.983893,0.00346149,0.0147292,1924,757,35.8308,-2.13367
707,267,35.8142,2.80408,0.00361485,0.00562372,0.00282975,0.00762202,0.00161656,0.955939,0.00463738,0.0167697,1931,757,35.8142,-2.80405
714,267,35.9276,3.54401,0.00489643,0.00725336,0.00405863,0.0103011,0.00184863,0.926693,0.00634168,0.04121,1938,757,35.9276,-3.54402
721,267,36.1488,4.32153,0,0,0,0,0,0,0,-1,1945,757,36.1488,-4.32155
728,267,26.7886,3.90027,0,0,0,0,0,0,0,-1,1952,757,26.7886,-3.90028
735,267,24.6713,2.82483,0,0,0,0,0,0,0,-1,1959,757,24.6713,-2.82483
742,267,18.1177,3.56561,0,0,0,0,0,0,0,-1,1966,757,18.1176,-3.56564
749,267,0,0,0,0,0,0,0,0,0,-1,1973,757,0,0
756,267,0,0,0,0,0,0,0,0,0,-1,1980,757,0,0
763,267,0,0,0,0,0,0,0,0,0,-1,1987,757,0,0
770,267,0,0,0,0,0,0,0,0,0,-1,1994,757,0,0
777,267,0,0,0,0,0,0,0,0,0,-1,2001,757,0,0
784,267,0,0,0,0,0,0,0,0,0,-1,2008,757,0,0
791,267,0,0,0,0,0,0,0,0,0,-1,2015,757,0,0
798,267,0,0,0,0,0,0,0,0,0,-1,2022,757,0,0
805,267,0,0,0,0,0,0,0,0,0,-1,2029,757,0,0
812,267,0,0,0,0,0,0,0,0,0,-1,2036,757,0,0
-700,260,0,0,0,0,0,0,0,0,0,-1,524,764,0,0
-693,260,0,0,0,0,0,0,0,0,0,-1,531,764,0,0
-686,260,0,0,0,0,0,0,0,0,0,-1,538,764,0,0
-679,260,0,0,0,0,0,0,0,0,0,-1,545,764,0,0
-672,260,0,0,0,0,0,0,0,0,0,-1,552,764,0,0
-665,260,0,0,0,0,0,0,0,0,0,-1,559,764,0,0
-658,260,0,0,0,0,0,0,0,0,0,-1,566,764,0,0
-651,260,0,0,0,0,0,0,0,0,0,-1,573,764,0,0
-644,260,0,0,0,0,0,0,0,0,0,-1,580,764,0,0
-637,260,0,0,0,0,0,0,0,0,0,-1,587,764,0,0
-630,260,-21.8905,4.49341,0,0,0,0,0,0,0,-1,594,764,-21.8905,-4.49342
-623,260,-20.3127,3.53546,0,0,0,0,0,0,0,-1,601,764,-20.3127,-3.53544
-616,260,-23.4346,3.65009,0,0,0,0,0,0,0,-1,608,764,-23.4345,-3.65008
-609,260,-24.3839,4.72369,0,0,0,0,0,0,0,-1,615,764,-24.3839,-4.7237
-602,260,-24.7581,4.57861,0,0,0,0,0,0,0,-1,622,764,-24.758,-4.5786
-595,260,-24.0903,3.02014,0,0,0,0,0,0,0,-1,629,764,-24.0903,-3.02017
-588,260,-24.1869,1.87366,0,0,0,0,0,0,0,-1,636,764,-24.1869,-1.87368
-581,260,-24.3578,0.880188,-0.00409351,0.00774666,-0.00348879,0.00869819,-0.00504504,-1.30453,0.00802755,0.0269629,643,764,-24.3578,-0.880158
-574,260,-24.3508,0.263733,-0.00340906,0.00580223,-0.00226244,0.00632792,-0.00393475,-1.34249,0.00597861,0.018347,650,764,-24.3507,-0.263729
-567,260,-24.3713,-0.310486,-0.00283424,0.00401184,-0.00121394,0.00422072,-0.00304312,-1.4004,0.00421211,0.0190718,657,764,-24.3712,0.310515
-560,260,-24.403,-0.953674,-0.00249565,0.00232285,-0.000250195,0.0023358,-0.00250861,-1.51906,0.00279751,0.0207851,664,764,-24.403,0.953669
-553,260,-24.4502,-1.59393,-0.00234204,0.00067801,0.000669431,0.000819745,-0.00248378,1.36215,0.00198631,0.0182164,671,764,-24.4502,1.59394
-546,260,-24.4713,-2.26434,-0.00236433,-0.000780162,0.00150661,0.000129894,-0.00327439,1.02741,0.00222749,0.011803,678,764,-24.4713,2.26437
-539,260,-24.4689,-2.91797,-0.00256546,-0.00218589,0.00227133,-9.64291e-05,-0.00465492,0.827079,0.00307164,0.0129774,685,764,-24.4689,2.91798
-532,260,-24.4659,-3.51141,-0.00276845,-0.002989,0.0026267,-0.00024971,-0.00550774,0.764419,0.00359149,0.0177951,692,764,-24.4659,3.51143
-525,260,-24.5259,-4.16449,-0.00246503,-0.00314312,0.00218315,-0.000594757,-0.0050134,0.708363,0.00316271,0.0158166,699,764,-24.5259,4.16447
-518,260,-24.6034,-4.77881,-0.00155925,-0.00278299,0.0015863,-0.000470903,-0.00387134,0.60133,0.00243913,0.0204535,706,764,-24.6034,4.77881
-511,260,-24.6408,-5.36115,-0.000423597,-0.00240362,0.00131548,0.000232787,-0.00306001,0.462821,0.00212186,0.0369386,713,764,-24.6408,5.36116
-504,260,-24.7304,-5.56561,0,0,0,0,0,0,0,-1,720,764,-24.7304,5.56559
-497,260,-16.6542,-3.67334,0,0,0,0,0,0,0,-1,727,764,-16.6542,3.67331
-490,260,-29.4557,0.921387,0,0,0,0,0,0,0,-1,734,764,-29.4557,-0.921369
-483,260,-40.8972,1.04193,0,0,0,0,0,0,0,-1,741,764,-40.8972,-1.04193
-476,260,-41.7193,1.19098,0,0,0,0,0,0,0,-1,748,764,-41.7193,-1.19099
-469,260,-41.5023,1.23535,0.0104368,0.00715075,0.00614369,0.0151533,0.00243417,0.654741,0.00939653,0.0467686,755,764,-41.5023,-1.23533
-462,260,-41.3395,0.984131,0.0121883,0.00903546,0.0101024,0.0208365,0.000387222,0.708,0.0137638,0.0438242,762,764,-41.3395,-0.984145
-455,260,-41.3524,1.17682,0.0133496,0.0108374,0.0150292,0.0271752,-0.00298813,0.743706,0.0191905,0.0459507,769,764,-41.3524,-1.17681
-448,260,0,0,0,0,0,0,0,0,0,-1,776,764,0,0
-441,260,0,0,0,0,0,0,0,0,0,-1,783,764,0,0
-434,260,0,0,0,0,0,0,0,0,0,-1,790,764,0,0
-427,260,0,0,0,0,0,0,0,0,0,-1,797,764,0,0
-420,260,0,0,0,0,0,0,0,0,0,-1,804,764,0,0
-413,260,0,0,0,0,0,0,0,0,0,-1,811,764,0,0
-406,260,0,0,0,0,0,0,0,0,0,-1,818,764,0,0
-399,260,0,0,0,0,0,0,0,0,0,-1,825,764,0,0
-392,260,0,0,0,0,0,0,0,0,0,-1,832,764,0,0
-385,260,0,0,0,0,0,0,0,0,0,-1,839,764,0,0
-378,260,0,0,0,0,0,0,0,0,0,-1,846,764,0,0
-371,260,0,0,0,0,0,0,0,0,0,-1,853,764,0,0
-364,260,0,0,0,0,0,0,0,0,0,-1,860,764,0,0
-357,260,0,0,0,0,0,0,0,0,0,-1,867,764,0,0
-350,260,0,0,0,0,0,0,0,0,0,-1,874,764,0,0
-343,260,0,0,0,0,0,0,0,0,0,-1,881,764,0,0
-336,260,0,0,0,0,0,0,0,0,0,-1,888,764,0,0
-329,260,0,0,0,0,0,0,0,0,0,-1,895,764,0,0
-322,260,0,0,0,0,0,0,0,0,0,-1,902,764,0,0
-315,260,0,0,0,0,0,0,0,0,0,-1,909,764,0,0
-308,260,0,0,0,0,0,0,0,0,0,-1,916,764,0,0
-301,260,0,0,0,0,0,0,0,0,0,-1,923,764,0,0
-294,260,0,0,0,0,0,0,0,0,0,-1,930,764,0,0
-287,260,0,0,0,0,0,0,0,0,0,-1,937,764,0,0
-280,260,0,0,0,0,0,0,0,0,0,-1,944,764,0,0
-273,260,0,0,0,0,0,0,0,0,0,-1,951,764,0,0
-266,260,0,0,0,0,0,0,0,0,0,-1,958,764,0,0
-259,260,0,0,0,0,0,0,0,0,0,-1,965,764,0,0
-252,260,0,0,0,0,0,0,0,0,0,-1,972,764,0,0
-245,260,0,0,0,0,0,0,0,0,0,-1,979,764,0,0
-238,260,0,0,0,0,0,0,0,0,0,-1,986,764,0,0
-231,260,0,0,0,0,0,0,0,0,0,-1,993,764,0,0
-224,260,0,0,0,0,0,0,0,0,0,-1,1000,764,0,0
-217,260,0,0,0,0,0,0,0,0,0,-1,1007,764,0,0
-210,260,0,0,0,0,0,0,0,0,0,-1,1014,764,0,0
-203,260,0,0,0,0,0,0,0,0,0,-1,1021,764,0,0
-196,260,0,0,0,0,0,0,0,0,0,-1,1028,764,0,0
-189,260,0,0,0,0,0,0,0,0,0,-1,1035,764,0,0
-182,260,0,0,0,0,0,0,0,0,0,-1,1042,764,0,0
-175,260,0,0,0,0,0,0,0,0,0,-1,1049,764,0,0
-168,260,0,0,0,0,0,0,0,0,0,-1,1056,764,0,0
-161,260,0,0,0,0,0,0,0,0,0,-1,1063,764,0,0
-154,260,0,0,0,0,0,0,0,0,0,-1,1070,764,0,0
-147,260,0,0,0,0,0,0,0,0,0,-1,1077,764,0,0
-140,260,0,0,0,0,0,0,0,0,0,-1,1084,764,0,0
-133,260,0,0,0,0,0,0,0,0,0,-1,1091,764,0,0
-126,260,0,0,0,0,0,0,0,0,0,-1,1098,764,0,0
-119,260,0,0,0,0,0,0,0,0,0,-1,1105,764,0,0
-112,260,0,0,0,0,0,0,0,0,0,-1,1112,764,0,0
-105,260,0,0,0,0,0,0,0,0,0,-1,1119,764,0,0
-98,260,0,0,0,0,0,0,0,0,0,-1,1126,764,0,0
-91,260,0,0,0,0,0,0,0,0,0,-1,1133,764,0,0
-84,260,0,0,0,0,0,0,0,0,0,-1,1140,764,0,0
-77,260,0,0,0,0,0,0,0,0,0,-1,1147,764,0,0
-70,260,0,0,0,0,0,0,0,0,0,-1,1154,764,0,0
-63,260,0,0,0,0,0,0,0,0,0,-1,1161,764,0,0
-56,260,0,0,0,0,0,0,0,0,0,-1,1168,764,0,0
-49,260,0,0,0,0,0,0,0,0,0,-1,1175,764,0,0
-42,260,0,0,0,0,0,0,0,0,0,-1,1182,764,0,0
-35,260,0,0,0,0,0,0,0,0,0,-1,1189,764,0,0
-28,260,0,0,0,0,0,0,0,0,0,-1,1196,764,0,0
-21,260,0,0,0,0,0,0,0,0,0,-1,1203,764,0,0
-14,260,0,0,0,0,0,0,0,0,0,-1,1210,764,0,0
-7,260,0,0,0,0,0,0,0,0,0,-1,1217,764,0,0
0,260,0,0,0,0,0,0,0,0,0,-1,1224,764,0,0
7,260,0,0,0,0,0,0,0,0,0,-1,1231,764,0,0
14,260,0,0,0,0,0,0,0,0,0,-1,1238,764,0,0
21,260,0,0,0,0,0,0,0,0,0,-1,1245,764,0,0
28,260,0,0,0,0,0,0,0,0,0,-1,1252,764,0,0
35,260,0,0,0,0,0,0,0,0,0,-1,1259,764,0,0
42,260,0,0,0,0,0,0,0,0,0,-1,1266,764,0,0
49,260,0,0,0,0,0,0,0,0,0,-1,1273,764,0,0
56,260,0,0,0,0,0,0,0,0,0,-1,1280,764,0,0
63,260,0,0,0,0,0,0,0,0,0,-1,1287,764,0,0
70,260,0,0,0,0,0,0,0,0,0,-1,1294,764,0,0
77,260,0,0,0,0,0,0,0,0,0,-1,1301,764,0,0
84,260,0,0,0,0,0,0,0,0,0,-1,1308,764,0,0
91,260,0,0,0,0,0,0,0,0,0,-1,1315,764,0,0
98,260,0,0,0,0,0,0,0,0,0,-1,1322,764,0,0
105,260,0,0,0,0,0,0,0,0,0,-1,1329,764,0,0
112,260,0,0,0,0,0,0,0,0,0,-1,1336,764,0,0
119,260,0,0,0,0,0,0,0,0,0,-1,1343,764,0,0
126,260,0,0,0,0,0,0,0,0,0,-1,1350,764,0,0
133,260,0,0,0,0,0,0,0,0,0,-1,1357,764,0,0
140,260,0,0,0,0,0,0,0,0,0,-1,1364,764,0,0
147,260,0,0,0,0,0,0,0,0,0,-1,1371,764,0,0
154,260,0,0,0,0,0,0,0,0,0,-1,1378,764,0,0
161,260,0,0,0,0,0,0,0,0,0,-1,1385,764,0,0
168,260,0,0,0,0,0,0,0,0,0,-1,1392,764,0,0
175,260,0,0,0,0,0,0,0,0,0,-1,1399,764,0,0
182,260,0,0,0,0,0,0,0,0,0,-1,1406,764,0,0
189,260,0,0,0,0,0,0,0,0,0,-1,1413,764,0,0
196,260,0,0,0,0,0,0,0,0,0,-1,1420,764,0,0
203,260,0,0,0,0,0,0,0,0,0,-1,1427,764,0,0
210,260,0,0,0,0,0,0,0,0,0,-1,1434,764,0,0
217,260,0,0,0,0,0,0,0,0,0,-1,1441,764,0,0
224,260,0,0,0,0,0,0,0,0,0,-1,1448,764,0,0
231,260,0,0,0,0,0,0,0,0,0,-1,1455,764,0,0
238,260,0,0,0,0,0,0,0,0,0,-1,1462,764,0,0
245,260,0,0,0,0,0,0,0,0,0,-1,1469,764,0,0
252,260,0,0,0,0,0,0,0,0,0,-1,1476,764,0,0
259,260,0,0,0,0,0,0,0,0,0,-1,1483,764,0,0
266,260,0,0,0,0,0,0,0,0,0,-1,1490,764,0,0
273,260,0,0,0,0,0,0,0,0,0,-1,1497,764,0,0
280,260,0,0,0,0,0,0,0,0,0,-1,1504,764,0,0
287,260,0,0,0,0,0,0,0,0,0,-1,1511,764,0,0
294,260,0,0,0,0,0,0,0,0,0,-1,1518,764,0,0
301,260,0,0,0,0,0,0,0,0,0,-1,1525,764,0,0
308,260,0,0,0,0,0,0,0,0,0,-1,1532,764,0,0
315,260,0,0,0,0,0,0,0,0,0,-1,1539,764,0,0
322,260,0,0,0,0,0,0,0,0,0,-1,1546,764,0,0
329,260,0,0,0,0,0,0,0,0,0,-1,1553,764,0,0
336,260,0,0,0,0,0,0,0,0,0,-1,1560,764,0,0
343,260,0,0,0,0,0,0,0,0,0,-1,1567,764,0,0
350,260,0,0,0,0,0,0,0,0,0,-1,1574,764,0,0
357,260,0,0,0,0,0,0,0,0,0,-1,1581,764,0,0
364,260,0,0,0,0,0,0,0,0,0,-1,1588,764,0,0
371,260,0,0,0,0,0,0,0,0,0,-1,1595,764,0,0
378,260,0,0,0,0,0,0,0,0,0,-1,1602,764,0,0
385,260,0,0,0,0,0,0,0,0,0,-1,1609,764,0,0
392,260,0,0,0,0,0,0,0,0,0,-1,1616,764,0,0
399,260,0,0,0,0,0,0,0,0,0,-1,1623,764,0,0
406,260,0,0,0,0,0,0,0,0,0,-1,1630,764,0,0
413,260,0,0,0,0,0,0,0,0,0,-1,1637,764,0,0
420,260,0,0,0,0,0,0,0,0,0,-1,1644,764,0,0
427,260,0,0,0,0,0,0,0,0,0,-1,1651,764,0,0
434,260,0,0,0,0,0,0,0,0,0,-1,1658,764,0,0
441,260,0,0,0,0,0,0,0,0,0,-1,1665,764,0,0
448,260,0,0,0,0,0,0,0,0,0,-1,1672,764,0,0
455,260,0,0,0,0,0,0,0,0,0,-1,1679,764,0,0
462,260,0,0,0,0,0,0,0,0,0,-1,1686,764,0,0
469,260,0,0,0,0,0,0,0,0,0,-1,1693,764,0,0
476,260,0,0,0,0,0,0,0,0,0,-1,1700,764,0,0
483,260,0,0,0,0,0,0,0,0,0,-1,1707,764,0,0
490,260,0,0,0,0,0,0,0,0,0,-1,1714,764,0,0
497,260,0,0,0,0,0,0,0,0,0,-1,1721,764,0,0
504,260,0,0,0,0,0,0,0,0,0,-1,1728,764,0,0
511,260,0,0,0,0,0,0,0,0,0,-1,1735,764,0,0
518,260,0,0,0,0,0,0,0,0,0,-1,1742,764,0,0
525,260,0,0,0,0,0,0,0,0,0,-1,1749,764,0,0
532,260,0,0,0,0,0,0,0,0,0,-1,1756,764,0,0
539,260,0,0,0,0,0,0,0,0,0,-1,1763,764,0,0
546,260,0,0,0,0,0,0,0,0,0,-1,1770,764,0,0
553,260,0,0,0,0,0,0,0,0,0,-1,1777,764,0,0
560,260,0,0,0,0,0,0,0,0,0,-1,1784,764,0,0
567,260,0,0,0,0,0,0,0,0,0,-1,1791,764,0,0
574,260,53.8113,2.81989,0,0,0,0,0,0,0,-1,1798,764,53.8113,-2.81987
581,260,53.6373,3.2326,0,0,0,0,0,0,0,-1,1805,764,53.6374,-3.23258
588,260,55.1012,3.11426,0,0,0,0,0,0,0,-1,1812,764,55.1012,-3.11426
595,260,55.3518,3.10132,0.0201666,0.00401625,0.00542712,0.0218209,0.00236198,0.295868,0.0138274,0.0465386,1819,764,55.3517,-3.10133
602,260,55.7155,3.0528,0.0158911,0.00263001,0.00546416,0.0178525,0.000668633,0.344628,0.0116852,0.0451041,1826,764,55.7154,-3.0528
609,260,55.7081,3.05707,0,0,0,0,0,0,0,-1,1833,764,55.7082,-3.05705
616,260,46.0709,2.74542,0,0,0,0,0,0,0,-1,1840,764,46.0709,-2.74545
623,260,32.2268,3.25836,0,0,0,0,0,0,0,-1,1847,764,32.2268,-3.25833
630,260,24.3739,-0.536316,0,0,0,0,0,0,0,-1,1854,764,24.3739,0.536343
637,260,36.8877,-3.57751,0,0,0,0,0,0,0,-1,1861,764,36.8877,3.5775
644,260,36.8495,-3.21472,0.00169408,-0.000824157,0.0016488,0.00250955,-0.00163963,0.459307,0.00241302,0.0392974,1868,764,36.8494,3.2147
651,260,36.764,-2.49249,9.7289e-05,-0.00113024,0.000882854,0.000558763,-0.00159171,0.481648,0.00128844,0.0176231,1875,764,36.7641,2.4925
658,260,36.6697,-1.83093,-0.000904228,-0.0011916,-0.000128467,-0.000855172,-0.00124065,-0.36477,0.000733203,0.0168295,1882,764,36.6697,1.83091
665,260,36.6129,-1.1897,-0.000953673,-0.000656022,-0.000650181,-0.000137851,-0.00147184,-0.897909,0.000938659,0.0171227,1889,764,36.6129,1.18973
672,260,36.6296,-0.493835,-0.000689989,-0.00011435,-0.000414821,0.000102723,-0.000907063,-1.08869,0.000641696,0.0146753,1896,764,36.6297,0.493854
679,260,36.5793,0.180969,-0.00022547,0.000578255,-6.1018e-05,0.000582861,-0.000230076,-1.49545,0.000483857,0.0130635,1903,764,36.5794,-0.180954
686,260,36.5358,0.855103,0.000475993,0.00147021,0.000400005,0.00161116,0.000335041,1.23201,0.000981673,0.016683,1910,764,36.5357,-0.855105
693,260,36.4771,1.45563,0.00147769,0.00243016,0.00103268,0.00309113,0.000816728,1.00145,0.00184963,0.0165202,1917,764,36.4771,-1.45561
700,260,36.4453,2.12433,0.00261811,0.00346539,0.00172177,0.00481487,0.00126862,0.906027,0.00288168,0.0138633,1924,764,36.4453,-2.12432
707,260,36.4617,2.80524,0.00396843,0.00457665,0.00257456,0.006865,0.00168008,0.844187,0.0041321,0.0144851,1931,764,36.4617,-2.80522
714,260,36.4889,3.48438,0.00571008,0.00593496,0.00383514,0.0096593,0.00198574,0.800053,0.00589027,0.030548,1938,764,36.4889,-3.48437
721,260,36.5363,4.17468,0,0,0,0,0,0,0,-1,1945,764,36.5362,-4.17466
728,260,33.4344,5.75409,0,0,0,0,0,0,0,-1,1952,764,33.4345,-5.75408
735,260,26.9788,4.85681,0,0,0,0,0,0,0,-1,1959,764,26.9787,-4.85678
742,260,32.1443,1.73688,0,0,0,0,0,0,0,-1,1966,764,32.1442,-1.73688
749,260,33.6013,2.94733,0,0,0,0,0,0,0,-1,1973,764,33.6013,-2.9473
756,260,0,0,0,0,0,0,0,0,0,-1,1980,764,0,0
763,260,0,0,0,0,0,0,0,0,0,-1,1987,764,0,0
770,260,0,0,0,0,0,0,0,0,0,-1,1994,764,0,0
777,260,0,0,0,0,0,0,0,0,0,-1,2001,764,0,0
784,260,0,0,0,0,0,0,0,0,0,-1,2008,764,0,0
791,260,0,0,0,0,0,0,0,0,0,-1,2015,764,0,0
798,260,0,0,0,0,0,0,0,0,0,-1,2022,764,0,0
805,260,0,0,0,0,0,0,0,0,0,-1,2029,764,0,0
812,260,0,0,0,0,0,0,0,0,0,-1,2036,764,0,0
-700,253,0,0,0,0,0,0,0,0,0,-1,524,771,0,0
-693,253,0,0,0,0,0,0,0,0,0,-1,531,771,0,0
-686,253,0,0,0,0,0,0,0,0,0,-1,538,771,0,0
-679,253,0,0,0,0,0,0,0,0,0,-1,545,771,0,0
-672,253,0,0,0,0,0,0,0,0,0,-1,552,771,0,0
-665,253,0,0,0,0,0,0,0,0,0,-1,559,771,0,0
-658,253,0,0,0,0,0,0,0,0,0,-1,566,771,0,0
-651,253,0,0,0,0,0,0,0,0,0,-1,573,771,0,0
-644,253,0,0,0,0,0,0,0,0,0,-1,580,771,0,0
-637,253,-24.7979,-0.491394,0,0,0,0,0,0,0,-1,587,771,-24.7978,0.491371
-630,253,-25.156,0.540405,0,0,0,0,0,0,0,-1,594,771,-25.156,-0.540421
-623,253,-20.808,2.84314,0,0,0,0,0,0,0,-1,601,771,-20.8081,-2.84312
-616,253,-25.0877,2.96875,0,0,0,0,0,0,0,-1,608,771,-25.0877,-2.96876
-609,253,-24.28,2.08228,0,0,0,0,0,0,0,-1,615,771,-24.2801,-2.08227
-602,253,-24.6464,3.77881,0,0,0,0,0,0,0,-1,622,771,-24.6464,-3.77881
-595,253,-24.713,2.90277,0,0,0,0,0,0,0,-1,629,771,-24.713,-2.90279
-588,253,-24.774,1.84741,-0.00339242,0.00928649,-0.00463265,0.0107988,-0.00490473,-1.25526,0.00927687,0.0404097,636,771,-24.774,-1.84739
-581,253,-24.9716,0.867188,-0.00288719,0.00703114,-0.0032896,0.00802301,-0.00387906,-1.27795,0.00700912,0.0258219,643,771,-24.9716,-0.867204
-574,253,-24.9921,0.242737,-0.00256634,0.00518738,-0.00211496,0.00572675,-0.00310571,-1.32109,0.00517372,0.0217066,650,771,-24.9921,-0.242707
-567,253,-25.037,-0.402222,-0.00230767,0.00341796,-0.0010478,0.00360368,-0.0024934,-1.39537,0.00353955,0.0174549,657,771,-25.037,0.402195
-560,253,-25.0254,-0.947205,-0.00219272,0.00171993,-4.28563e-05,0.0017204,-0.00219319,-1.55984,0.002265,0.0135906,664,771,-25.0254,0.947214
-553,253,-25.0626,-1.56805,-0.0021694,-1.9068e-05,0.000954839,0.000343715,-0.00253219,1.2077,0.00181359,0.0128874,671,771,-25.0626,1.56803
-546,253,-25.1101,-2.21869,-0.00222508,-0.00152692,0.00184318,-5.89062e-08,-0.00375195,0.878985,0.00250128,0.0106983,678,771,-25.1101,2.21871
-539,253,-25.1505,-2.87335,-0.00241323,-0.00290164,0.00262996,-1.6161e-05,-0.00529871,0.739103,0.0035271,0.0123086,685,771,-25.1505,2.87334
-532,253,-25.1307,-3.51691,-0.00256323,-0.00354073,0.00290637,-0.000104801,-0.00599916,0.702095,0.00396497,0.0182781,692,771,-25.1307,3.51688
-525,253,-25.1342,-4.16394,-0.0022048,-0.00355996,0.00237792,-0.000409805,-0.00535495,0.646604,0.00344151,0.0180435,699,771,-25.1342,4.16391
-518,253,-25.2408,-4.79987,-0.0013223,-0.00314261,0.0017705,-0.000241709,-0.0042232,0.54798,0.00273846,0.0314178,706,771,-25.2408,4.79985
-511,253,-25.3851,-5.31201,0,0,0,0,0,0,0,-1,713,771,-25.3851,5.31198
-504,253,-19.317,-4.1723,0,0,0,0,0,0,0,-1,720,771,-19.317,4.1723
-497,253,-21.7737,-1.76837,0,0,0,0,0,0,0,-1,727,771,-21.7738,1.7684
-490,253,-29.7674,0.438354,0,0,0,0,0,0,0,-1,734,771,-29.7674,-0.438339
-483,253,-42.1978,1.16815,0,0,0,0,0,0,0,-1,741,771,-42.1978,-1.16817
-476,253,-41.9132,1.2254,0.00714702,0.00428674,0.00191771,0.00810914,0.00332462,0.465008,0.00470704,0.0495385,748,771,-41.9132,-1.22542
-469,253,-41.6358,1.09741,0.00925885,0.00625839,0.00356385,0.0116254,0.00389188,0.586177,0.00683297,0.0442086,755,771,-41.6358,-1.0974
-462,253,-41.4601,0.996399,0.0108825,0.00790105,0.00642572,0.0159881,0.0027954,0.671418,0.00985994,0.0434755,762,771,-41.4601,-0.996408
-455,253,-41.4948,1.10107,0.0120524,0.00875879,0.0107777,0.0213084,-0.000497145,0.709585,0.0143742,0.0335038,769,771,-41.4948,-1.10108
-448,253,0,0,0,0,0,0,0,0,0,-1,776,771,0,0
-441,253,0,0,0,0,0,0,0,0,0,-1,783,771,0,0
-434,253,0,0,0,0,0,0,0,0,0,-1,790,771,0,0
-427,253,0,0,0,0,0,0,0,0,0,-1,797,771,0,0
-420,253,0,0,0,0,0,0,0,0,0,-1,804,771,0,0
-413,253,0,0,0,0,0,0,0,0,0,-1,811,771,0,0
-406,253,0,0,0,0,0,0,0,0,0,-1,818,771,0,0
-399,253,0,0,0,0,0,0,0,0,0,-1,825,771,0,0
-392,253,0,0,0,0,0,0,0,0,0,-1,832,771,0,0
-385,253,0,0,0,0,0,0,0,0,0,-1,839,771,0,0
-378,253,0,0,0,0,0,0,0,0,0,-1,846,771,0,0
-371,253,0,0,0,0,0,0,0,0,0,-1,853,771,0,0
-364,253,0,0,0,0,0,0,0,0,0,-1,860,771,0,0
-357,253,0,0,0,0,0,0,0,0,0,-1,867,771,0,0
-350,253,0,0,0,0,0,0,0,0,0,-1,874,771,0,0
-343,253,0,0,0,0,0,0,0,0,0,-1,881,771,0,0
-336,253,0,0,0,0,0,0,0,0,0,-1,888,771,0,0
-329,253,0,0,0,0,0,0,0,0,0,-1,895,771,0,0
-322,253,0,0,0,0,0,0,0,0,0,-1,902,771,0,0
-315,253,0,0,0,0,0,0,0,0,0,-1,909,771,0,0
-308,253,0,0,0,0,0,0,0,0,0,-1,916,771,0,0
-301,253,0,0,0,0,0,0,0,0,0,-1,923,771,0,0
-294,253,0,0,0,0,0,0,0,0,0,-1,930,771,0,0
-287,253,0,0,0,0,0,0,0,0,0,-1,937,771,0,0
-280,253,0,0,0,0,0,0,0,0,0,-1,944,771,0,0
-273,253,0,0,0,0,0,0,0,0,0,-1,951,771,0,0
-266,253,0,0,0,0,0,0,0,0,0,-1,958,771,0,0
-259,253,0,0,0,0,0,0,0,0,0,-1,965,771,0,0
-252,253,0,0,0,0,0,0,0,0,0,-1,972,771,0,0
-245,253,0,0,0,0,0,0,0,0,0,-1,979,771,0,0
-238,253,0,0,0,0,0,0,0,0,0,-1,986,771,0,0
-231,253,0,0,0,0,0,0,0,0,0,-1,993,771,0,0
-224,253,0,0,0,0,0,0,0,0,0,-1,1000,771,0,0
-217,253,0,0,0,0,0,0,0,0,0,-1,1007,771,0,0
-210,253,0,0,0,0,0,0,0,0,0,-1,1014,771,0,0
-203,253,0,0,0,0,0,0,0,0,0,-1,1021,771,0,0
-196,253,0,0,0,0,0,0,0,0,0,-1,1028,771,0,0
-189,253,0,0,0,0,0,0,0,0,0,-1,1035,771,0,0
-182,253,0,0,0,0,0,0,0,0,0,-1,1042,771,0,0
-175,253,0,0,0,0,0,0,0,0,0,-1,1049,771,0,0
-168,253,0,0,0,0,0,0,0,0,0,-1,1056,771,0,0
-161,253,0,0,0,0,0,0,0,0,0,-1,1063,771,0,0
-154,253,0,0,0,0,0,0,0,0,0,-1,1070,771,0,0
-147,253,0,0,0,0,0,0,0,0,0,-1,1077,771,0,0
-140,253,0,0,0,0,0,0,0,0,0,-1,1084,771,0,0
-133,253,0,0,0,0,0,0,0,0,0,-1,1091,771,0,0
-126,253,0,0,0,0,0,0,0,0,0,-1,1098,771,0,0
-119,253,0,0,0,0,0,0,0,0,0,-1,1105,771,0,0
-112,253,0,0,0,0,0,0,0,0,0,-1,1112,771,0,0
-105,253,0,0,0,0,0,0,0,0,0,-1,1119,771,0,0
-98,253,0,0,0,0,0,0,0,0,0,-1,1126,771,0,0
-91,253,0,0,0,0,0,0,0,0,0,-1,1133,771,0,0
-84,253,0,0,0,0,0,0,0,0,0,-1,1140,771,0,0
-77,253,0,0,0,0,0,0,0,0,0,-1,1147,771,0,0
-70,253,0,0,0,0,0,0,0,0,0,-1,1154,771,0,0
-63,253,0,0,0,0,0,0,0,0,0,-1,1161,771,0,0
-56,253,0,0,0,0,0,0,0,0,0,-1,1168,771,0,0
-49,253,0,0,0,0,0,0,0,0,0,-1,1175,771,0,0
-42,253,0,0,0,0,0,0,0,0,0,-1,1182,771,0,0
-35,253,0,0,0,0,0,0,0,0,0,-1,1189,771,0,0
-28,253,0,0,0,0,0,0,0,0,0,-1,1196,771,0,0
-21,253,0,0,0,0,0,0,0,0,0,-1,1203,771,0,0
-14,253,0,0,0,0,0,0,0,0,0,-1,1210,771,0,0
-7,253,0,0,0,0,0,0,0,0,0,-1,1217,771,0,0
0,253,0,0,0,0,0,0,0,0,0,-1,1224,771,0,0
7,253,0,0,0,0,0,0,0,0,0,-1,1231,771,0,0
14,253,0,0,0,0,0,0,0,0,0,-1,1238,771,0,0
21,253,0,0,0,0,0,0,0,0,0,-1,1245,771,0,0
28,253,0,0,0,0,0,0,0,0,0,-1,1252,771,0,0
35,253,0,0,0,0,0,0,0,0,0,-1,1259,771,0,0
42,253,0,0,0,0,0,0,0,0,0,-1,1266,771,0,0
49,253,0,0,0,0,0,0,0,0,0,-1,1273,771,0,0
56,253,0,0,0,0,0,0,0,0,0,-1,1280,771,0,0
63,253,0,0,0,0,0,0,0,0,0,-1,1287,771,0,0
70,253,0,0,0,0,0,0,0,0,0,-1,1294,771,0,0
77,253,0,0,0,0,0,0,0,0,0,-1,1301,771,0,0
84,253,0,0,0,0,0,0,0,0,0,-1,1308,771,0,0
91,253,0,0,0,0,0,0,0,0,0,-1,1315,771,0,0
98,253,0,0,0,0,0,0,0,0,0,-1,1322,771,0,0
105,253,0,0,0,0,0,0,0,0,0,-1,1329,771,0,0
112,253,0,0,0,0,0,0,0,0,0,-1,1336,771,0,0
119,253,0,0,0,0,0,0,0,0,0,-1,1343,771,0,0
126,253,0,0,0,0,0,0,0,0,0,-1,1350,771,0,0
133,253,0,0,0,0,0,0,0,0,0,-1,1357,771,0,0
140,253,0,0,0,0,0,0,0,0,0,-1,1364,771,0,0
147,253,0,0,0,0,0,0,0,0,0,-1,1371,771,0,0
154,253,0,0,0,0,0,0,0,0,0,-1,1378,771,0,0
161,253,0,0,0,0,0,0,0,0,0,-1,1385,771,0,0
168,253,0,0,0,0,0,0,0,0,0,-1,1392,771,0,0
175,253,0,0,0,0,0,0,0,0,0,-1,1399,771,0,0
182,253,0,0,0,0,0,0,0,0,0,-1,1406,771,0,0
189,253,0,0,0,0,0,0,0,0,0,-1,1413,771,0,0
196,253,0,0,0,0,0,0,0,0,0,-1,1420,771,0,0
203,253,0,0,0,0,0,0,0,0,0,-1,1427,771,0,0
210,253,0,0,0,0,0,0,0,0,0,-1,1434,771,0,0
217,253,0,0,0,0,0,0,0,0,0,-1,1441,771,0,0
224,253,0,0,0,0,0,0,0,0,0,-1,1448,771,0,0
231,253,0,0,0,0,0,0,0,0,0,-1,1455,771,0,0
238,253,0,0,0,0,0,0,0,0,0,-1,1462,771,0,0
245,253,0,0,0,0,0,0,0,0,0,-1,1469,771,0,0
252,253,0,0,0,0,0,0,0,0,0,-1,1476,771,0,0
259,253,0,0,0,0,0,0,0,0,0,-1,1483,771,0,0
266,253,0,0,0,0,0,0,0,0,0,-1,1490,771,0,0
273,253,0,0,0,0,0,0,0,0,0,-1,1497,771,0,0
280,253,0,0,0,0,0,0,0,0,0,-1,1504,771,0,0
287,253,0,0,0,0,0,0,0,0,0,-1,1511,771,0,0
294,253,0,0,0,0,0,0,0,0,0,-1,1518,771,0,0
301,253,0,0,0,0,0,0,0,0,0,-1,1525,771,0,0
308,253,0,0,0,0,0,0,0,0,0,-1,1532,771,0,0
315,253,0,0,0,0,0,0,0,0,0,-1,1539,771,0,0
322,253,0,0,0,0,0,0,0,0,0,-1,1546,771,0,0
329,253,0,0,0,0,0,0,0,0,0,-1,1553,771,0,0
336,253,0,0,0,0,0,0,0,0,0,-1,1560,771,0,0
343,253,0,0,0,0,0,0,0,0,0,-1,1567,771,0,0
350,253,0,0,0,0,0,0,0,0,0,-1,1574,771,0,0
357,253,0,0,0,0,0,0,0,0,0,-1,1581,771,0,0
364,253,0,0,0,0,0,0,0,0,0,-1,1588,771,0,0
371,253,0,0,0,0,0,0,0,0,0,-1,1595,771,0,0
378,253,0,0,0,0,0,0,0,0,0,-1,1602,771,0,0
385,253,0,0,0,0,0,0,0,0,0,-1,1609,771,0,0
392,253,0,0,0,0,0,0,0,0,0,-1,1616,771,0,0
399,253,0,0,0,0,0,0,0,0,0,-1,1623,771,0,0
406,253,0,0,0,0,0,0,0,0,0,-1,1630,771,0,0
413,253,0,0,0,0,0,0,0,0,0,-1,1637,771,0,0
420,253,0,0,0,0,0,0,0,0,0,-1,1644,771,0,0
427,253,0,0,0,0,0,0,0,0,0,-1,1651,771,0,0
434,253,0,0,0,0,0,0,0,0,0,-1,1658,771,0,0
441,253,0,0,0,0,0,0,0,0,0,-1,1665,771,0,0
448,253,0,0,0,0,0,0,0,0,0,-1,1672,771,0,0
455,253,0,0,0,0,0,0,0,0,0,-1,1679,771,0,0
462,253,0,0,0,0,0,0,0,0,0,-1,1686,771,0,0
469,253,0,0,0,0,0,0,0,0,0,-1,1693,771,0,0
476,253,0,0,0,0,0,0,0,0,0,-1,1700,771,0,0
483,253,0,0,0,0,0,0,0,0,0,-1,1707,771,0,0
490,253,0,0,0,0,0,0,0,0,0,-1,1714,771,0,0
497,253,0,0,0,0,0,0,0,0,0,-1,1721,771,0,0
504,253,0,0,0,0,0,0,0,0,0,-1,1728,771,0,0
511,253,0,0,0,0,0,0,0,0,0,-1,1735,771,0,0
518,253,0,0,0,0,0,0,0,0,0,-1,1742,771,0,0
525,253,0,0,0,0,0,0,0,0,0,-1,1749,771,0,0
532,253,0,0,0,0,0,0,0,0,0,-1,1756,771,0,0
539,253,0,0,0,0,0,0,0,0,0,-1,1763,771,0,0
546,253,0,0,0,0,0,0,0,0,0,-1,1770,771,0,0
553,253,0,0,0,0,0,0,0,0,0,-1,1777,771,0,0
560,253,0,0,0,0,0,0,0,0,0,-1,1784,771,0,0
567,253,0,0,0,0,0,0,0,0,0,-1,1791,771,0,0
574,253,53.9088,2.43701,0,0,0,0,0,0,0,-1,1798,771,53.9088,-2.43702
581,253,54.4066,3.328,0,0,0,0,0,0,0,-1,1805,771,54.4067,-3.32802
588,253,54.876,3.15186,0.0210316,0.00432625,0.0043889,0.0221145,0.00324337,0.241899,0.0137896,0.0448331,1812,771,54.876,-3.15186
595,253,55.2451,3.05914,0.0178184,0.00296081,0.00535741,0.0195487,0.00123052,0.312396,0.0126423,0.0476635,1819,771,55.2451,-3.05915
602,253,55.3265,3.02106,0.0143137,0.00198635,0.00530017,0.0162792,2.09007e-05,0.355108,0.0108458,0.0465558,1826,771,55.3266,-3.02106
609,253,55.4473,3.0329,0.0109771,0.0012763,0.00478728,0.0129417,-0.000688318,0.389425,0.00886615,0.0428426,1833,771,55.4473,-3.0329
616,253,55.4148,3.35297,0,0,0,0,0,0,0,-1,1840,771,55.4148,-3.35294
623,253,48.8328,3.01001,0,0,0,0,0,0,0,-1,1847,771,48.8328,-3.01002
630,253,33.561,2.96838,0,0,0,0,0,0,0,-1,1854,771,33.561,-2.96836
637,253,22.3192,-0.604004,0,0,0,0,0,0,0,-1,1861,771,22.3192,0.603986
644,253,37.741,-3.17963,0,0,0,0,0,0,0,-1,1868,771,37.741,3.1796
651,253,37.4236,-2.43121,-0.000315468,-0.000924487,0.000710961,0.000153451,-0.00139341,0.583064,0.000984084,0.0336695,1875,771,37.4236,2.43118
658,253,37.3165,-1.78619,-0.00137256,-0.00110149,-0.000329839,-0.000880428,-0.00159363,-0.980339,0.000921769,0.020851,1882,771,37.3166,1.7862
665,253,37.2124,-1.14789,-0.00154342,-0.000764941,-0.000999497,-8.15665e-05,-0.0022268,-0.971082,0.0014581,0.0227395,1889,771,37.2124,1.14791
672,253,37.2036,-0.475525,-0.00136257,-0.000464078,-0.000849897,4.80005e-05,-0.00187465,-1.02853,0.00126607,0.0170184,1896,771,37.2036,0.47554
679,253,37.2458,0.242371,-0.000924364,2.24392e-05,-0.000544782,0.000270769,-0.00117269,-1.1431,0.000885954,0.0131098,1903,771,37.2458,-0.242373
686,253,37.1897,0.8927,-0.000137127,0.00080428,-0.000119009,0.000819092,-0.000151939,-1.44698,0.000603121,0.0201711,1910,771,37.1897,-0.892677
693,253,37.1106,1.51367,0.00106977,0.0016713,0.000559272,0.00200555,0.000735519,1.03211,0.00117153,0.0194934,1917,771,37.1106,-1.51365
700,253,37.1031,2.14941,0.00237805,0.00258776,0.00127753,0.00376473,0.00120108,0.826345,0.00222052,0.0150633,1924,771,37.1031,-2.1494
707,253,37.1191,2.82367,0.00386734,0.00356341,0.00214111,0.00586187,0.00156888,0.74997,0.00350405,0.0144667,1931,771,37.1191,-2.82366
714,253,37.1061,3.47797,0.00568913,0.00469864,0.00335842,0.00858863,0.00179914,0.712194,0.00523022,0.0222747,1938,771,37.1061,-3.47798
721,253,37.1499,4.17694,0.00774671,0.00541703,0.00466061,0.0113858,0.00177789,0.66294,0.00707281,0.040348,1945,771,37.1499,-4.17694
728,253,37.2212,4.86591,0,0,0,0,0,0,0,-1,1952,771,37.2212,-4.86591
735,253,34.5735,6.15118,0,0,0,0,0,0,0,-1,1959,771,34.5734,-6.1512
742,253,31.0571,5.7337,0,0,0,0,0,0,0,-1,1966,771,31.0571,-5.73373
749,253,33.7754,3.21533,0,0,0,0,0,0,0,-1,1973,771,33.7754,-3.21533
756,253,0,0,0,0,0,0,0,0,0,-1,1980,771,0,0
763,253,0,0,0,0,0,0,0,0,0,-1,1987,771,0,0
770,253,0,0,0,0,0,0,0,0,0,-1,1994,771,0,0
777,253,0,0,0,0,0,0,0,0,0,-1,2001,771,0,0
784,253,0,0,0,0,0,0,0,0,0,-1,2008,771,0,0
791,253,0,0,0,0,0,0,0,0,0,-1,2015,771,0,0
798,253,0,0,0,0,0,0,0,0,0,-1,2022,771,0,0
805,253,0,0,0,0,0,0,0,0,0,-1,2029,771,0,0
812,253,0,0,0,0,0,0,0,0,0,-1,2036,771,0,0
-700,246,0,0,0,0,0,0,0,0,0,-1,524,778,0,0
-693,246,0,0,0,0,0,0,0,0,0,-1,531,778,0,0
-686,246,0,0,0,0,0,0,0,0,0,-1,538,778,0,0
-679,246,0,0,0,0,0,0,0,0,0,-1,545,778,0,0
-672,246,0,0,0,0,0,0,0,0,0,-1,552,778,0,0
-665,246,0,0,0,0,0,0,0,0,0,-1,559,778,0,0
-658,246,0,0,0,0,0,0,0,0,0,-1,566,778,0,0
-651,246,0,0,0,0,0,0,0,0,0,-1,573,778,0,0
-644,246,0,0,0,0,0,0,0,0,0,-1,580,778,0,0
-637,246,-24.1234,0.130432,0,0,0,0,0,0,0,-1,587,778,-24.1234,-0.130438
-630,246,-24.0781,1.38916,0,0,0,0,0,0,0,-1,594,778,-24.0781,-1.38913
-623,246,-23.9183,2.49573,0,0,0,0,0,0,0,-1,601,778,-23.9183,-2.49575
-616,246,-26.8182,2.0705,0,0,0,0,0,0,0,-1,608,778,-26.8182,-2.07052
-609,246,-26.0615,1.16388,0,0,0,0,0,0,0,-1,615,778,-26.0615,-1.16388
-602,246,-25.0712,3.49005,0,0,0,0,0,0,0,-1,622,778,-25.0711,-3.49008
-595,246,-25.571,2.68372,0,0,0,0,0,0,0,-1,629,778,-25.571,-2.68369
-588,246,-25.4565,1.69843,-0.00173687,0.00820292,-0.00418867,0.00973263,-0.00326658,-1.22064,0.00780846,0.0318962,636,778,-25.4565,-1.69842
-581,246,-25.6321,0.93689,-0.00167614,0.0062208,-0.00299671,0.00722921,-0.00268456,-1.24619,0.0059208,0.0189826,643,778,-25.6321,-0.936894
-574,246,-25.605,0.223389,-0.00173379,0.00449111,-0.00188826,0.00501911,-0.00226179,-1.29814,0.00430293,0.0193886,650,778,-25.605,-0.223392
-567,246,-25.6404,-0.384155,-0.00181816,0.00277146,-0.000825689,0.00291548,-0.00196219,-1.3981,0.002834,0.0238392,657,778,-25.6404,0.384137
-560,246,-25.7053,-0.956421,-0.00194864,0.00106727,0.000190571,0.00107927,-0.00196063,1.50794,0.00177951,0.018612,664,778,-25.7053,0.956449
-553,246,-25.7162,-1.5351,-0.00210287,-0.00072311,0.00123478,1.44378e-06,-0.00282743,1.04015,0.00188543,0.0137585,671,778,-25.7162,1.53511
-546,246,-25.739,-2.17133,-0.00226046,-0.00222755,0.00212219,-0.000121755,-0.00436626,0.789275,0.00287111,0.0109756,678,778,-25.739,2.17135
-539,246,-25.7754,-2.8277,-0.0024835,-0.00349406,0.00287094,-7.37181e-05,-0.00590385,0.698291,0.00391156,0.010615,685,778,-25.7754,2.82768
-532,246,-25.7626,-3.48596,-0.0025934,-0.00398197,0.00304715,-0.000162441,-0.00641292,0.673387,0.00422218,0.0158208,692,778,-25.7626,3.48598
-525,246,-25.8163,-4.10559,-0.00220848,-0.00393033,0.00247145,-0.000452296,-0.00568651,0.617797,0.00364959,0.0318395,699,778,-25.8163,4.10561
-518,246,-26.0594,-4.4826,-0.00135772,-0.00352564,0.00189249,-0.000260749,-0.00462262,0.525319,0.00299861,0.0455964,706,778,-26.0594,4.48261
-511,246,-26.4487,-4.67932,0,0,0,0,0,0,0,-1,713,778,-26.4487,4.67934
-504,246,-20.0047,-2.88214,0,0,0,0,0,0,0,-1,720,778,-20.0047,2.88216
-497,246,-29.4669,1.82684,0,0,0,0,0,0,0,-1,727,778,-29.4669,-1.82687
-490,246,-40.4299,1.04309,0,0,0,0,0,0,0,-1,734,778,-40.4299,-1.04308
-483,246,-41.5417,1.58673,0,0,0,0,0,0,0,-1,741,778,-41.5417,-1.58673
-476,246,-41.6454,0.999451,0.00636836,0.00345593,0.000690061,0.00652358,0.0033007,0.221264,0.00376648,0.0481583,748,778,-41.6455,-0.999451
-469,246,-41.5028,1.07715,0.00830335,0.00531469,0.00168361,0.00906014,0.0045579,0.422444,0.00523091,0.0403083,755,778,-41.5028,-1.07716
-462,246,-41.4261,1.15991,0.00963531,0.0065515,0.00396425,0.012347,0.00383984,0.599925,0.00729631,0.0457219,762,778,-41.4262,-1.15993
-455,246,0,0,0,0,0,0,0,0,0,-1,769,778,0,0
-448,246,0,0,0,0,0,0,0,0,0,-1,776,778,0,0
-441,246,0,0,0,0,0,0,0,0,0,-1,783,778,0,0
-434,246,0,0,0,0,0,0,0,0,0,-1,790,778,0,0
-427,246,0,0,0,0,0,0,0,0,0,-1,797,778,0,0
-420,246,0,0,0,0,0,0,0,0,0,-1,804,778,0,0
-413,246,0,0,0,0,0,0,0,0,0,-1,811,778,0,0
-406,246,0,0,0,0,0,0,0,0,0,-1,818,778,0,0
-399,246,0,0,0,0,0,0,0,0,0,-1,825,778,0,0
-392,246,0,0,0,0,0,0,0,0,0,-1,832,778,0,0
-385,246,0,0,0,0,0,0,0,0,0,-1,839,778,0,0
-378,246,0,0,0,0,0,0,0,0,0,-1,846,778,0,0
-371,246,0,0,0,0,0,0,0,0,0,-1,853,778,0,0
-364,246,0,0,0,0,0,0,0,0,0,-1,860,778,0,0
-357,246,0,0,0,0,0,0,0,0,0,-1,867,778,0,0
-350,246,0,0,0,0,0,0,0,0,0,-1,874,778,0,0
-343,246,0,0,0,0,0,0,0,0,0,-1,881,778,0,0
-336,246,0,0,0,0,0,0,0,0,0,-1,888,778,0,0
-329,246,0,0,0,0,0,0,0,0,0,-1,895,778,0,0
-322,246,0,0,0,0,0,0,0,0,0,-1,902,778,0,0
-315,246,0,0,0,0,0,0,0,0,0,-1,909,778,0,0
-308,246,0,0,0,0,0,0,0,0,0,-1,916,778,0,0
-301,246,0,0,0,0,0,0,0,0,0,-1,923,778,0,0
-294,246,0,0,0,0,0,0,0,0,0,-1,930,778,0,0
-287,246,0,0,0,0,0,0,0,0,0,-1,937,778,0,0
-280,246,0,0,0,0,0,0,0,0,0,-1,944,778,0,0
-273,246,0,0,0,0,0,0,0,0,0,-1,951,778,0,0
-266,246,0,0,0,0,0,0,0,0,0,-1,958,778,0,0
-259,246,0,0,0,0,0,0,0,0,0,-1,965,778,0,0
-252,246,0,0,0,0,0,0,0,0,0,-1,972,778,0,0
-245,246,0,0,0,0,0,0,0,0,0,-1,979,778,0,0
-238,246,0,0,0,0,0,0,0,0,0,-1,986,778,0,0
-231,246,0,0,0,0,0,0,0,0,0,-1,993,778,0,0
-224,246,0,0,0,0,0,0,0,0,0,-1,1000,778,0,0
-217,246,0,0,0,0,0,0,0,0,0,-1,1007,778,0,0
-210,246,0,0,0,0,0,0,0,0,0,-1,1014,778,0,0
-203,246,0,0,0,0,0,0,0,0,0,-1,1021,778,0,0
-196,246,0,0,0,0,0,0,0,0,0,-1,1028,778,0,0
-189,246,0,0,0,0,0,0,0,0,0,-1,1035,778,0,0
-182,246,0,0,0,0,0,0,0,0,0,-1,1042,778,0,0
-175,246,0,0,0,0,0,0,0,0,0,-1,1049,778,0,0
-168,246,0,0,0,0,0,0,0,0,0,-1,1056,778,0,0
-161,246,0,0,0,0,0,0,0,0,0,-1,1063,778,0,0
-154,246,0,0,0,0,0,0,0,0,0,-1,1070,778,0,0
-147,246,0,0,0,0,0,0,0,0,0,-1,1077,778,0,0
-140,246,0,0,0,0,0,0,0,0,0,-1,1084,778,0,0
-133,246,0,0,0,0,0,0,0,0,0,-1,1091,778,0,0
-126,246,0,0,0,0,0,0,0,0,0,-1,1098,778,0,0
-119,246,0,0,0,0,0,0,0,0,0,-1,1105,778,0,0
-112,246,0,0,0,0,0,0,0,0,0,-1,1112,778,0,0
-105,246,0,0,0,0,0,0,0,0,0,-1,1119,778,0,0
-98,246,0,0,0,0,0,0,0,0,0,-1,1126,778,0,0
-91,246,0,0,0,0,0,0,0,0,0,-1,1133,778,0,0
-84,246,0,0,0,0,0,0,0,0,0,-1,1140,778,0,0
-77,246,0,0,0,0,0,0,0,0,0,-1,1147,778,0,0
-70,246,0,0,0,0,0,0,0,0,0,-1,1154,778,0,0
-63,246,0,0,0,0,0,0,0,0,0,-1,1161,778,0,0
-56,246,0,0,0,0,0,0,0,0,0,-1,1168,778,0,0
-49,246,0,0,0,0,0,0,0,0,0,-1,1175,778,0,0
-42,246,0,0,0,0,0,0,0,0,0,-1,1182,778,0,0
-35,246,0,0,0,0,0,0,0,0,0,-1,1189,778,0,0
-28,246,0,0,0,0,0,0,0,0,0,-1,1196,778,0,0
-21,246,0,0,0,0,0,0,0,0,0,-1,1203,778,0,0
-14,246,0,0,0,0,0,0,0,0,0,-1,1210,778,0,0
-7,246,0,0,0,0,0,0,0,0,0,-1,1217,778,0,0
0,246,0,0,0,0,0,0,0,0,0,-1,1224,778,0,0
7,246,0,0,0,0,0,0,0,0,0,-1,1231,778,0,0
14,246,0,0,0,0,0,0,0,0,0,-1,1238,778,0,0
21,246,0,0,0,0,0,0,0,0,0,-1,1245,778,0,0
28,246,0,0,0,0,0,0,0,0,0,-1,1252,778,0,0
35,246,0,0,0,0,0,0,0,0,0,-1,1259,778,0,0
42,246,0,0,0,0,0,0,0,0,0,-1,1266,778,0,0
49,246,0,0,0,0,0,0,0,0,0,-1,1273,778,0,0
56,246,0,0,0,0,0,0,0,0,0,-1,1280,778,0,0
63,246,0,0,0,0,0,0,0,0,0,-1,1287,778,0,0
70,246,0,0,0,0,0,0,0,0,0,-1,1294,778,0,0
77,246,0,0,0,0,0,0,0,0,0,-1,1301,778,0,0
84,246,0,0,0,0,0,0,0,0,0,-1,1308,778,0,0
91,246,0,0,0,0,0,0,0,0,0,-1,1315,778,0,0
98,246,0,0,0,0,0,0,0,0,0,-1,1322,778,0,0
105,246,0,0,0,0,0,0,0,0,0,-1,1329,778,0,0
112,246,0,0,0,0,0,0,0,0,0,-1,1336,778,0,0
119,246,0,0,0,0,0,0,0,0,0,-1,1343,778,0,0
126,246,0,0,0,0,0,0,0,0,0,-1,1350,778,0,0
133,246,0,0,0,0,0,0,0,0,0,-1,1357,778,0,0
140,246,0,0,0,0,0,0,0,0,0,-1,1364,778,0,0
147,246,0,0,0,0,0,0,0,0,0,-1,1371,778,0,0
154,246,0,0,0,0,0,0,0,0,0,-1,1378,778,0,0
161,246,0,0,0,0,0,0,0,0,0,-1,1385,778,0,0
168,246,0,0,0,0,0,0,0,0,0,-1,1392,778,0,0
175,246,0,0,0,0,0,0,0,0,0,-1,1399,778,0,0
182,246,0,0,0,0,0,0,0,0,0,-1,1406,778,0,0
189,246,0,0,0,0,0,0,0,0,0,-1,1413,778,0,0
196,246,0,0,0,0,0,0,0,0,0,-1,1420,778,0,0
203,246,0,0,0,0,0,0,0,0,0,-1,1427,778,0,0
210,246,0,0,0,0,0,0,0,0,0,-1,1434,778,0,0
217,246,0,0,0,0,0,0,0,0,0,-1,1441,778,0,0
224,246,0,0,0,0,0,0,0,0,0,-1,1448,778,0,0
231,246,0,0,0,0,0,0,0,0,0,-1,1455,778,0,0
238,246,0,0,0,0,0,0,0,0,0,-1,1462,778,0,0
245,246,0,0,0,0,0,0,0,0,0,-1,1469,778,0,0
252,246,0,0,0,0,0,0,0,0,0,-1,1476,778,0,0
259,246,0,0,0,0,0,0,0,0,0,-1,1483,778,0,0
266,246,0,0,0,0,0,0,0,0,0,-1,1490,778,0,0
273,246,0,0,0,0,0,0,0,0,0,-1,1497,778,0,0
280,246,0,0,0,0,0,0,0,0,0,-1,1504,778,0,0
287,246,0,0,0,0,0,0,0,0,0,-1,1511,778,0,0
294,246,0,0,0,0,0,0,0,0,0,-1,1518,778,0,0
301,246,0,0,0,0,0,0,0,0,0,-1,1525,778,0,0
308,246,0,0,0,0,0,0,0,0,0,-1,1532,778,0,0
315,246,0,0,0,0,0,0,0,0,0,-1,1539,778,0,0
322,246,0,0,0,0,0,0,0,0,0,-1,1546,778,0,0
329,246,0,0,0,0,0,0,0,0,0,-1,1553,778,0,0
336,246,0,0,0,0,0,0,0,0,0,-1,1560,778,0,0
343,246,0,0,0,0,0,0,0,0,0,-1,1567,778,0,0
350,246,0,0,0,0,0,0,0,0,0,-1,1574,778,0,0
357,246,0,0,0,0,0,0,0,0,0,-1,1581,778,0,0
364,246,0,0,0,0,0,0,0,0,0,-1,1588,778,0,0
371,246,0,0,0,0,0,0,0,0,0,-1,1595,778,0,0
378,246,0,0,0,0,0,0,0,0,0,-1,1602,778,0,0
385,246,0,0,0,0,0,0,0,0,0,-1,1609,778,0,0
392,246,0,0,0,0,0,0,0,0,0,-1,1616,778,0,0
399,246,0,0,0,0,0,0,0,0,0,-1,1623,778,0,0
406,246,0,0,0,0,0,0,0,0,0,-1,1630,778,0,0
413,246,0,0,0,0,0,0,0,0,0,-1,1637,778,0,0
420,246,0,0,0,0,0,0,0,0,0,-1,1644,778,0,0
427,246,0,0,0,0,0,0,0,0,0,-1,1651,778,0,0
434,246,0,0,0,0,0,0,0,0,0,-1,1658,778,0,0
441,246,0,0,0,0,0,0,0,0,0,-1,1665,778,0,0
448,246,0,0,0,0,0,0,0,0,0,-1,1672,778,0,0
455,246,0,0,0,0,0,0,0,0,0,-1,1679,778,0,0
462,246,0,0,0,0,0,0,0,0,0,-1,1686,778,0,0
469,246,0,0,0,0,0,0,0,0,0,-1,1693,778,0,0
476,246,0,0,0,0,0,0,0,0,0,-1,1700,778,0,0
483,246,0,0,0,0,0,0,0,0,0,-1,1707,778,0,0
490,246,0,0,0,0,0,0,0,0,0,-1,1714,778,0,0
497,246,0,0,0,0,0,0,0,0,0,-1,1721,778,0,0
504,246,0,0,0,0,0,0,0,0,0,-1,1728,778,0,0
511,246,0,0,0,0,0,0,0,0,0,-1,1735,778,0,0
518,246,0,0,0,0,0,0,0,0,0,-1,1742,778,0,0
525,246,0,0,0,0,0,0,0,0,0,-1,1749,778,0,0
532,246,0,0,0,0,0,0,0,0,0,-1,1756,778,0,0
539,246,0,0,0,0,0,0,0,0,0,-1,1763,778,0,0
546,246,0,0,0,0,0,0,0,0,0,-1,1770,778,0,0
553,246,0,0,0,0,0,0,0,0,0,-1,1777,778,0,0
560,246,0,0,0,0,0,0,0,0,0,-1,1784,778,0,0
567,246,0,0,0,0,0,0,0,0,0,-1,1791,778,0,0
574,246,0,0,0,0,0,0,0,0,0,-1,1798,778,0,0
581,246,54.8241,3.02643,0.0158772,0.00548531,-0.000367773,0.0158902,0.00547231,-0.0353314,0.00932116,0.038128,1805,778,54.8241,-3.0264
588,246,54.8442,3.01617,0.0163922,0.00402396,0.00359238,0.0173599,0.00305626,0.26313,0.010701,0.0422615,1812,778,54.8442,-3.0162
595,246,55.0769,2.97339,0.0146467,0.00270302,0.00484477,0.0163648,0.000984947,0.340788,0.0105968,0.0425663,1819,778,55.0769,-2.97337
602,246,55.1316,3.06647,0.0120883,0.0017859,0.00490288,0.0140486,-0.00017437,0.380352,0.0094244,0.0460849,1826,778,55.1316,-3.06645
609,246,55.1667,3.13934,0.00942996,0.00119031,0.00451197,0.01142,-0.000799763,0.415398,0.00789346,0.0450743,1833,778,55.1668,-3.13936
616,246,54.9197,3.52722,0,0,0,0,0,0,0,-1,1840,778,54.9196,-3.52725
623,246,54.6337,3.89764,0,0,0,0,0,0,0,-1,1847,778,54.6337,-3.89766
630,246,49.5938,1.99902,0,0,0,0,0,0,0,-1,1854,778,49.5937,-1.999
637,246,29.5785,0.837585,0,0,0,0,0,0,0,-1,1861,778,29.5785,-0.837606
644,246,28.1232,-1.43188,0,0,0,0,0,0,0,-1,1868,778,28.1232,1.43188
651,246,38.0063,-2.40857,0,0,0,0,0,0,0,-1,1875,778,38.0063,2.40858
658,246,37.8448,-1.84802,-0.00178099,-0.0011119,-0.000534427,-0.000815941,-0.00207695,-1.06506,0.00120827,0.0402189,1882,778,37.8449,1.84805
665,246,37.8912,-1.09637,-0.00208875,-0.000854656,-0.00129494,-3.72651e-05,-0.00290614,-1.00774,0.00192512,0.024924,1889,778,37.8912,1.09637
672,246,37.882,-0.401794,-0.00209116,-0.000729105,-0.00125086,1.41045e-05,-0.00283437,-1.03468,0.0018943,0.0211538,1896,778,37.8819,0.401798
679,246,37.8798,0.257263,-0.00181547,-0.000430963,-0.00102392,0.00011276,-0.00235919,-1.08264,0.0016117,0.0201903,1903,778,37.8798,-0.257259
686,246,37.8693,0.918762,-0.00106101,0.000248638,-0.00065489,0.000519922,-0.00133229,-1.17807,0.00110313,0.0226957,1910,778,37.8693,-0.918734
693,246,37.8323,1.53467,0.000301936,0.00104106,5.93794e-05,0.0010458,0.000297196,1.49114,0.000622258,0.0182944,1917,778,37.8323,-1.53469
700,246,37.8162,2.16925,0.00180605,0.00193657,0.000862324,0.0027361,0.00100652,0.823165,0.00159797,0.0148881,1924,778,37.8162,-2.16927
707,246,37.8037,2.85425,0.00346652,0.00288124,0.00179125,0.00498889,0.00135888,0.704428,0.00297816,0.0139734,1931,778,37.8038,-2.85422
714,246,37.7573,3.53687,0.00543136,0.00394437,0.00302766,0.00780547,0.00157026,0.664997,0.00476723,0.0138507,1938,778,37.7573,-3.53685
721,246,37.6995,4.13751,0.00763609,0.00467739,0.00438947,0.0107888,0.00152469,0.622864,0.00674201,0.0194253,1945,778,37.6994,-4.13753
728,246,37.8087,4.86298,0,0,0,0,0,0,0,-1,1952,778,37.8087,-4.86296
735,246,38.0609,5.68695,0,0,0,0,0,0,0,-1,1959,778,38.0609,-5.68695
742,246,31.7356,6.70013,0,0,0,0,0,0,0,-1,1966,778,31.7356,-6.70011
749,246,32.3883,7.69324,0,0,0,0,0,0,0,-1,1973,778,32.3883,-7.69322
756,246,33.6919,3.45264,0,0,0,0,0,0,0,-1,1980,778,33.6919,-3.45262
763,246,0,0,0,0,0,0,0,0,0,-1,1987,778,0,0
770,246,0,0,0,0,0,0,0,0,0,-1,1994,778,0,0
777,246,0,0,0,0,0,0,0,0,0,-1,2001,778,0,0
784,246,0,0,0,0,0,0,0,0,0,-1,2008,778,0,0
791,246,0,0,0,0,0,0,0,0,0,-1,2015,778,0,0
798,246,0,0,0,0,0,0,0,0,0,-1,2022,778,0,0
805,246,0,0,0,0,0,0,0,0,0,-1,2029,778,0,0
812,246,0,0,0,0,0,0,0,0,0,-1,2036,778,0,0
-700,239,0,0,0,0,0,0,0,0,0,-1,524,785,0,0
-693,239,0,0,0,0,0,0,0,0,0,-1,531,785,0,0
-686,239,0,0,0,0,0,0,0,0,0,-1,538,785,0,0
-679,239,0,0,0,0,0,0,0,0,0,-1,545,785,0,0
-672,239,0,0,0,0,0,0,0,0,0,-1,552,785,0,0
-665,239,0,0,0,0,0,0,0,0,0,-1,559,785,0,0
-658,239,0,0,0,0,0,0,0,0,0,-1,566,785,0,0
-651,239,0,0,0,0,0,0,0,0,0,-1,573,785,0,0
-644,239,0,0,0,0,0,0,0,0,0,-1,580,785,0,0
-637,239,-23.2709,0.465088,0,0,0,0,0,0,0,-1,587,785,-23.271,-0.465116
-630,239,-23.4006,0.956299,0,0,0,0,0,0,0,-1,594,785,-23.4005,-0.956285
-623,239,-30.6328,2.52185,0,0,0,0,0,0,0,-1,601,785,-30.6328,-2.52183
-616,239,-29.1425,1.42139,0,0,0,0,0,0,0,-1,608,785,-29.1425,-1.42139
-609,239,-27.8569,0.322937,0,0,0,0,0,0,0,-1,615,785,-27.857,-0.322963
-602,239,-26.0712,3.69385,0,0,0,0,0,0,0,-1,622,785,-26.0712,-3.69386
-595,239,-26.0969,2.68744,-0.000112085,0.00899532,-0.00490988,0.0111381,-0.00225489,-1.15929,0.00828003,0.0415172,629,785,-26.0969,-2.68745
-588,239,-26.1437,1.71497,-0.000582201,0.00713313,-0.00366757,0.00859831,-0.00204738,-1.19072,0.00652267,0.0209815,636,785,-26.1437,-1.71499
-581,239,-26.2545,0.961243,-0.000724738,0.0053865,-0.00264155,0.00637002,-0.00170825,-1.21437,0.00491604,0.0117028,643,785,-26.2544,-0.961246
-574,239,-26.2466,0.281189,-0.000973903,0.00376754,-0.00162796,0.00427267,-0.00147904,-1.26993,0.00344885,0.0125009,650,785,-26.2466,-0.281217
-567,239,-26.2861,-0.338501,-0.00126408,0.00210851,-0.000606666,0.00221432,-0.00136988,-1.39812,0.0020884,0.0176196,657,785,-26.2861,0.338476
-560,239,-26.3458,-0.919556,-0.00154825,0.000391932,0.000376624,0.000462476,-0.0016188,1.38563,0.00126193,0.018072,664,785,-26.3457,0.919579
-553,239,-26.3674,-1.52478,-0.00182839,-0.00141706,0.00142408,-0.000183867,-0.00306158,0.857112,0.00198261,0.0144785,671,785,-26.3674,1.52476
-546,239,-26.3914,-2.14148,-0.0020741,-0.00288107,0.00225195,-0.000189774,-0.0047654,0.696753,0.0031156,0.0148932,678,785,-26.3914,2.1415
-539,239,-26.4897,-2.76831,-0.00234485,-0.00399689,0.00289461,-0.000160704,-0.00618104,0.646409,0.00406818,0.016504,685,785,-26.4897,2.76832
-532,239,-26.5295,-3.39069,-0.00248643,-0.00436778,0.00296871,-0.000312927,-0.00654129,0.631971,0.00426038,0.021683,692,785,-26.5295,3.39068
-525,239,-26.5571,-3.81482,-0.00216393,-0.00430915,0.00238397,-0.000622384,-0.0058507,0.574002,0.00371044,0.0350263,699,785,-26.5571,3.81482
-518,239,-26.7999,-4.16541,0,0,0,0,0,0,0,-1,706,785,-26.7999,4.16543
-511,239,-20.9849,-2.09235,0,0,0,0,0,0,0,-1,713,785,-20.9848,2.09234
-504,239,-25.5015,2.00421,0,0,0,0,0,0,0,-1,720,785,-25.5015,-2.00422
-497,239,-40.2453,1.4447,0,0,0,0,0,0,0,-1,727,785,-40.2453,-1.4447
-490,239,-41.2899,1.30206,0,0,0,0,0,0,0,-1,734,785,-41.2899,-1.30207
-483,239,-41.4434,1.47864,0.00380628,0.000782377,-0.000163109,0.00381505,0.000773604,-0.0537321,0.00232874,0.045814,741,785,-41.4433,-1.47866
-476,239,-41.3886,1.25977,0.00559389,0.00258138,-0.000306321,0.00562472,0.00255055,-0.100315,0.00325212,0.0418601,748,785,-41.3886,-1.25978
-469,239,-41.4697,1.08008,0.00732207,0.00423473,0.000340351,0.00735914,0.00419765,0.108505,0.00426282,0.0405556,755,785,-41.4697,-1.08006
-462,239,-41.3596,1.19482,0.00812261,0.00472158,0.00254772,0.0094852,0.00335899,0.49112,0.00555342,0.0465286,762,785,-41.3596,-1.19485
-455,239,0,0,0,0,0,0,0,0,0,-1,769,785,0,0
-448,239,0,0,0,0,0,0,0,0,0,-1,776,785,0,0
-441,239,0,0,0,0,0,0,0,0,0,-1,783,785,0,0
-434,239,0,0,0,0,0,0,0,0,0,-1,790,785,0,0
-427,239,0,0,0,0,0,0,0,0,0,-1,797,785,0,0
-420,239,0,0,0,0,0,0,0,0,0,-1,804,785,0,0
-413,239,0,0,0,0,0,0,0,0,0,-1,811,785,0,0
-406,239,0,0,0,0,0,0,0,0,0,-1,818,785,0,0
-399,239,0,0,0,0,0,0,0,0,0,-1,825,785,0,0
-392,239,0,0,0,0,0,0,0,0,0,-1,832,785,0,0
-385,239,0,0,0,0,0,0,0,0,0,-1,839,785,0,0
-378,239,0,0,0,0,0,0,0,0,0,-1,846,785,0,0
-371,239,0,0,0,0,0,0,0,0,0,-1,853,785,0,0
-364,239,0,0,0,0,0,0,0,0,0,-1,860,785,0,0
-357,239,0,0,0,0,0,0,0,0,0,-1,867,785,0,0
-350,239,0,0,0,0,0,0,0,0,0,-1,874,785,0,0
-343,239,0,0,0,0,0,0,0,0,0,-1,881,785,0,0
-336,239,0,0,0,0,0,0,0,0,0,-1,888,785,0,0
-329,239,0,0,0,0,0,0,0,0,0,-1,895,785,0,0
-322,239,0,0,0,0,0,0,0,0,0,-1,902,785,0,0
-315,239,0,0,0,0,0,0,0,0,0,-1,909,785,0,0
-308,239,0,0,0,0,0,0,0,0,0,-1,916,785,0,0
-301,239,0,0,0,0,0,0,0,0,0,-1,923,785,0,0
-294,239,0,0,0,0,0,0,0,0,0,-1,930,785,0,0
-287,239,0,0,0,0,0,0,0,0,0,-1,937,785,0,0
-280,239,0,0,0,0,0,0,0,0,0,-1,944,785,0,0
-273,239,0,0,0,0,0,0,0,0,0,-1,951,785,0,0
-266,239,0,0,0,0,0,0,0,0,0,-1,958,785,0,0
-259,239,0,0,0,0,0,0,0,0,0,-1,965,785,0,0
-252,239,0,0,0,0,0,0,0,0,0,-1,972,785,0,0
-245,239,0,0,0,0,0,0,0,0,0,-1,979,785,0,0
-238,239,0,0,0,0,0,0,0,0,0,-1,986,785,0,0
-231,239,0,0,0,0,0,0,0,0,0,-1,993,785,0,0
-224,239,0,0,0,0,0,0,0,0,0,-1,1000,785,0,0
-217,239,0,0,0,0,0,0,0,0,0,-1,1007,785,0,0
-210,239,0,0,0,0,0,0,0,0,0,-1,1014,785,0,0
-203,239,0,0,0,0,0,0,0,0,0,-1,1021,785,0,0
-196,239,0,0,0,0,0,0,0,0,0,-1,1028,785,0,0
-189,239,0,0,0,0,0,0,0,0,0,-1,1035,785,0,0
-182,239,0,0,0,0,0,0,0,0,0,-1,1042,785,0,0
-175,239,0,0,0,0,0,0,0,0,0,-1,1049,785,0,0
-168,239,0,0,0,0,0,0,0,0,0,-1,1056,785,0,0
-161,239,0,0,0,0,0,0,0,0,0,-1,1063,785,0,0
-154,239,0,0,0,0,0,0,0,0,0,-1,1070,785,0,0
-147,239,0,0,0,0,0,0,0,0,0,-1,1077,785,0,0
-140,239,0,0,0,0,0,0,0,0,0,-1,1084,785,0,0
-133,239,0,0,0,0,0,0,0,0,0,-1,1091,785,0,0
-126,239,0,0,0,0,0,0,0,0,0,-1,1098,785,0,0
-119,239,0,0,0,0,0,0,0,0,0,-1,1105,785,0,0
-112,239,0,0,0,0,0,0,0,0,0,-1,1112,785,0,0
-105,239,0,0,0,0,0,0,0,0,0,-1,1119,785,0,0
-98,239,0,0,0,0,0,0,0,0,0,-1,1126,785,0,0
-91,239,0,0,0,0,0,0,0,0,0,-1,1133,785,0,0
-84,239,0,0,0,0,0,0,0,0,0,-1,1140,785,0,0
-77,239,0,0,0,0,0,0,0,0,0,-1,1147,785,0,0
-70,239,0,0,0,0,0,0,0,0,0,-1,1154,785,0,0
-63,239,0,0,0,0,0,0,0,0,0,-1,1161,785,0,0
-56,239,0,0,0,0,0,0,0,0,0,-1,1168,785,0,0
-49,239,0,0,0,0,0,0,0,0,0,-1,1175,785,0,0
-42,239,0,0,0,0,0,0,0,0,0,-1,1182,785,0,0
-35,239,0,0,0,0,0,0,0,0,0,-1,1189,785,0,0
-28,239,0,0,0,0,0,0,0,0,0,-1,1196,785,0,0
-21,239,0,0,0,0,0,0,0,0,0,-1,1203,785,0,0
-14,239,0,0,0,0,0,0,0,0,0,-1,1210,785,0,0
-7,239,0,0,0,0,0,0,0,0,0,-1,1217,785,0,0
0,239,0,0,0,0,0,0,0,0,0,-1,1224,785,0,0
7,239,0,0,0,0,0,0,0,0,0,-1,1231,785,0,0
14,239,0,0,0,0,0,0,0,0,0,-1,1238,785,0,0
21,239,0,0,0,0,0,0,0,0,0,-1,1245,785,0,0
28,239,0,0,0,0,0,0,0,0,0,-1,1252,785,0,0
35,239,0,0,0,0,0,0,0,0,0,-1,1259,785,0,0
42,239,0,0,0,0,0,0,0,0,0,-1,1266,785,0,0
49,239,0,0,0,0,0,0,0,0,0,-1,1273,785,0,0
56,239,0,0,0,0,0,0,0,0,0,-1,1280,785,0,0
63,239,0,0,0,0,0,0,0,0,0,-1,1287,785,0,0
70,239,0,0,0,0,0,0,0,0,0,-1,1294,785,0,0
77,239,0,0,0,0,0,0,0,0,0,-1,1301,785,0,0
84,239,0,0,0,0,0,0,0,0,0,-1,1308,785,0,0
91,239,0,0,0,0,0,0,0,0,0,-1,1315,785,0,0
98,239,0,0,0,0,0,0,0,0,0,-1,1322,785,0,0
105,239,0,0,0,0,0,0,0,0,0,-1,1329,785,0,0
112,239,0,0,0,0,0,0,0,0,0,-1,1336,785,0,0
119,239,0,0,0,0,0,0,0,0,0,-1,1343,785,0,0
126,239,0,0,0,0,0,0,0,0,0,-1,1350,785,0,0
133,239,0,0,0,0,0,0,0,0,0,-1,1357,785,0,0
140,239,0,0,0,0,0,0,0,0,0,-1,1364,785,0,0
147,239,0,0,0,0,0,0,0,0,0,-1,1371,785,0,0
154,239,0,0,0,0,0,0,0,0,0,-1,1378,785,0,0
161,239,0,0,0,0,0,0,0,0,0,-1,1385,785,0,0
168,239,0,0,0,0,0,0,0,0,0,-1,1392,785,0,0
175,239,0,0,0,0,0,0,0,0,0,-1,1399,785,0,0
182,239,0,0,0,0,0,0,0,0,0,-1,1406,785,0,0
189,239,0,0,0,0,0,0,0,0,0,-1,1413,785,0,0
196,239,0,0,0,0,0,0,0,0,0,-1,1420,785,0,0
203,239,0,0,0,0,0,0,0,0,0,-1,1427,785,0,0
210,239,0,0,0,0,0,0,0,0,0,-1,1434,785,0,0
217,239,0,0,0,0,0,0,0,0,0,-1,1441,785,0,0
224,239,0,0,0,0,0,0,0,0,0,-1,1448,785,0,0
231,239,0,0,0,0,0,0,0,0,0,-1,1455,785,0,0
238,239,0,0,0,0,0,0,0,0,0,-1,1462,785,0,0
245,239,0,0,0,0,0,0,0,0,0,-1,1469,785,0,0
252,239,0,0,0,0,0,0,0,0,0,-1,1476,785,0,0
259,239,0,0,0,0,0,0,0,0,0,-1,1483,785,0,0
266,239,0,0,0,0,0,0,0,0,0,-1,1490,785,0,0
273,239,0,0,0,0,0,0,0,0,0,-1,1497,785,0,0
280,239,0,0,0,0,0,0,0,0,0,-1,1504,785,0,0
287,239,0,0,0,0,0,0,0,0,0,-1,1511,785,0,0
294,239,0,0,0,0,0,0,0,0,0,-1,1518,785,0,0
301,239,0,0,0,0,0,0,0,0,0,-1,1525,785,0,0
308,239,0,0,0,0,0,0,0,0,0,-1,1532,785,0,0
315,239,0,0,0,0,0,0,0,0,0,-1,1539,785,0,0
322,239,0,0,0,0,0,0,0,0,0,-1,1546,785,0,0
329,239,0,0,0,0,0,0,0,0,0,-1,1553,785,0,0
336,239,0,0,0,0,0,0,0,0,0,-1,1560,785,0,0
343,239,0,0,0,0,0,0,0,0,0,-1,1567,785,0,0
350,239,0,0,0,0,0,0,0,0,0,-1,1574,785,0,0
357,239,0,0,0,0,0,0,0,0,0,-1,1581,785,0,0
364,239,0,0,0,0,0,0,0,0,0,-1,1588,785,0,0
371,239,0,0,0,0,0,0,0,0,0,-1,1595,785,0,0
378,239,0,0,0,0,0,0,0,0,0,-1,1602,785,0,0
385,239,0,0,0,0,0,0,0,0,0,-1,1609,785,0,0
392,239,0,0,0,0,0,0,0,0,0,-1,1616,785,0,0
399,239,0,0,0,0,0,0,0,0,0,-1,1623,785,0,0
406,239,0,0,0,0,0,0,0,0,0,-1,1630,785,0,0
413,239,0,0,0,0,0,0,0,0,0,-1,1637,785,0,0
420,239,0,0,0,0,0,0,0,0,0,-1,1644,785,0,0
427,239,0,0,0,0,0,0,0,0,0,-1,1651,785,0,0
434,239,0,0,0,0,0,0,0,0,0,-1,1658,785,0,0
441,239,0,0,0,0,0,0,0,0,0,-1,1665,785,0,0
448,239,0,0,0,0,0,0,0,0,0,-1,1672,785,0,0
455,239,0,0,0,0,0,0,0,0,0,-1,1679,785,0,0
462,239,0,0,0,0,0,0,0,0,0,-1,1686,785,0,0
469,239,0,0,0,0,0,0,0,0,0,-1,1693,785,0,0
476,239,0,0,0,0,0,0,0,0,0,-1,1700,785,0,0
483,239,0,0,0,0,0,0,0,0,0,-1,1707,785,0,0
490,239,0,0,0,0,0,0,0,0,0,-1,1714,785,0,0
497,239,0,0,0,0,0,0,0,0,0,-1,1721,785,0,0
504,239,0,0,0,0,0,0,0,0,0,-1,1728,785,0,0
511,239,0,0,0,0,0,0,0,0,0,-1,1735,785,0,0
518,239,0,0,0,0,0,0,0,0,0,-1,1742,785,0,0
525,239,0,0,0,0,0,0,0,0,0,-1,1749,785,0,0
532,239,0,0,0,0,0,0,0,0,0,-1,1756,785,0,0
539,239,0,0,0,0,0,0,0,0,0,-1,1763,785,0,0
546,239,0,0,0,0,0,0,0,0,0,-1,1770,785,0,0
553,239,0,0,0,0,0,0,0,0,0,-1,1777,785,0,0
560,239,0,0,0,0,0,0,0,0,0,-1,1784,785,0,0
567,239,0,0,0,0,0,0,0,0,0,-1,1791,785,0,0
574,239,0,0,0,0,0,0,0,0,0,-1,1798,785,0,0
581,239,54.9077,3.04089,0.00892888,0.00528476,-0.00205025,0.0098497,0.00436393,-0.422129,0.00569901,0.0367436,1805,785,54.9077,-3.04089
588,239,54.8715,3.05524,0.0114976,0.00393996,0.00236188,0.012175,0.00326255,0.279312,0.00727715,0.0392556,1812,785,54.8715,-3.05524
595,239,54.9752,2.93658,0.0113782,0.00260895,0.00407213,0.0129775,0.00100967,0.37423,0.00833552,0.0355923,1819,785,54.9753,-2.93657
602,239,55.0413,2.95422,0.00988705,0.00171675,0.00439832,0.0118047,-0.000200911,0.411149,0.00793762,0.0391274,1826,785,55.0412,-2.95421
609,239,55.0387,3.00153,0,0,0,0,0,0,0,-1,1833,785,55.0387,-3.00155
616,239,54.4166,3.58051,0,0,0,0,0,0,0,-1,1840,785,54.4166,-3.5805
623,239,54.5615,3.67389,0,0,0,0,0,0,0,-1,1847,785,54.5615,-3.6739
630,239,54.5767,3.64667,0,0,0,0,0,0,0,-1,1854,785,54.5766,-3.64667
637,239,39.5542,2.54114,0,0,0,0,0,0,0,-1,1861,785,39.5543,-2.54114
644,239,18.3466,0.735413,0,0,0,0,0,0,0,-1,1868,785,18.3465,-0.735414
651,239,34.2471,-2.15778,0,0,0,0,0,0,0,-1,1875,785,34.2471,2.1578
658,239,38.2769,-1.9762,0,0,0,0,0,0,0,-1,1882,785,38.2768,1.97623
665,239,38.573,-1.04279,-0.00253506,-0.000823319,-0.00160785,0.000142267,-0.00350065,-1.02998,0.0023826,0.0252584,1889,785,38.573,1.04279
672,239,38.5721,-0.361389,-0.00275525,-0.000809863,-0.00165798,0.000139689,-0.00370481,-1.05068,0.00251773,0.021564,1896,785,38.5721,0.361363
679,239,38.5354,0.312744,-0.00268978,-0.000684537,-0.00150969,0.000125134,-0.00349945,-1.07852,0.00237578,0.0213601,1903,785,38.5354,-0.312725
686,239,38.5237,0.984619,-0.00203855,-0.00011204,-0.00121802,0.000477588,-0.00262818,-1.11996,0.0019311,0.0234877,1910,785,38.5237,-0.984627
693,239,38.5101,1.56836,-0.000564831,0.000596063,-0.000496061,0.000779157,-0.000747925,-1.21721,0.000881723,0.0165014,1917,785,38.5101,-1.56834
700,239,38.4845,2.20258,0.00112002,0.00145939,0.000373265,0.00169973,0.000879683,0.998731,0.000981541,0.0126031,1924,785,38.4845,-2.2026
707,239,38.4512,2.88336,0.00293998,0.00237515,0.00136509,0.00405156,0.00126356,0.683397,0.00239373,0.0120381,1931,785,38.4511,-2.88335
714,239,38.4192,3.5257,0.00502219,0.00336816,0.0025983,0.00692192,0.00146844,0.631322,0.00421135,0.0111017,1938,785,38.4192,-3.5257
721,239,38.3265,4.16785,0.00733337,0.00411372,0.00395864,0.009997,0.0014501,0.59228,0.00623774,0.0229503,1945,785,38.3265,-4.16786
728,239,38.1936,4.8183,0,0,0,0,0,0,0,-1,1952,785,38.1936,-4.81829
735,239,37.2275,6.09485,0,0,0,0,0,0,0,-1,1959,785,37.2276,-6.09486
742,239,32.4141,7.6665,0,0,0,0,0,0,0,-1,1966,785,32.4141,-7.6665
749,239,32.1489,3.4411,0,0,0,0,0,0,0,-1,1973,785,32.149,-3.44109
756,239,32.9064,3.6687,0,0,0,0,0,0,0,-1,1980,785,32.9063,-3.66873
763,239,0,0,0,0,0,0,0,0,0,-1,1987,785,0,0
770,239,0,0,0,0,0,0,0,0,0,-1,1994,785,0,0
777,239,0,0,0,0,0,0,0,0,0,-1,2001,785,0,0
784,239,0,0,0,0,0,0,0,0,0,-1,2008,785,0,0
791,239,0,0,0,0,0,0,0,0,0,-1,2015,785,0,0
798,239,0,0,0,0,0,0,0,0,0,-1,2022,785,0,0
805,239,0,0,0,0,0,0,0,0,0,-1,2029,785,0,0
812,239,0,0,0,0,0,0,0,0,0,-1,2036,785,0,0
-700,232,0,0,0,0,0,0,0,0,0,-1,524,792,0,0
-693,232,0,0,0,0,0,0,0,0,0,-1,531,792,0,0
-686,232,0,0,0,0,0,0,0,0,0,-1,538,792,0,0
-679,232,0,0,0,0,0,0,0,0,0,-1,545,792,0,0
-672,232,0,0,0,0,0,0,0,0,0,-1,552,792,0,0
-665,232,0,0,0,0,0,0,0,0,0,-1,559,792,0,0
-658,232,0,0,0,0,0,0,0,0,0,-1,566,792,0,0
-651,232,0,0,0,0,0,0,0,0,0,-1,573,792,0,0
-644,232,-31.7343,6.23914,0,0,0,0,0,0,0,-1,580,792,-31.7343,-6.23911
-637,232,-30.1556,5.06824,0,0,0,0,0,0,0,-1,587,792,-30.1556,-5.06823
-630,232,-32.2345,1.80212,0,0,0,0,0,0,0,-1,594,792,-32.2345,-1.80211
-623,232,-31.5665,1.05115,0,0,0,0,0,0,0,-1,601,792,-31.5664,-1.05112
-616,232,-30.6812,0.432861,0,0,0,0,0,0,0,-1,608,792,-30.6812,-0.432881
-609,232,-29.7142,-0.478943,0,0,0,0,0,0,0,-1,615,792,-29.7142,0.478965
-602,232,-26.8233,3.81384,0,0,0,0,0,0,0,-1,622,792,-26.8233,-3.81387
-595,232,-26.7866,2.75098,0.00100755,0.00807162,-0.00453983,0.0102916,-0.0012124,-1.11599,0.00729883,0.0372534,629,792,-26.7866,-2.75097
-588,232,-26.8333,1.68774,0.000418454,0.00632916,-0.00335659,0.00784604,-0.00109842,-1.14636,0.00563264,0.0146357,636,792,-26.8333,-1.68772
-581,232,-26.8647,0.970459,0.000110424,0.00467836,-0.00236852,0.00568475,-0.00089596,-1.16901,0.00412108,0.00905488,643,792,-26.8647,-0.97048
-574,232,-26.8762,0.340698,-0.000299649,0.00306914,-0.00137223,0.00355735,-0.000787859,-1.22898,0.00267317,0.00889584,650,792,-26.8762,-0.340708
-567,232,-26.9196,-0.277466,-0.00072769,0.00142634,-0.0003767,0.00149032,-0.000791667,-1.40257,0.00133793,0.0110897,657,792,-26.9196,0.277485
-560,232,-26.9787,-0.875122,-0.00107692,-0.000328491,0.000553347,-3.4702e-05,-0.00137071,1.08271,0.000902462,0.0155327,664,792,-26.9787,0.87513
-553,232,-27.0275,-1.4986,-0.00139951,-0.00213166,0.00158236,-0.000141434,-0.00338974,0.671725,0.00221419,0.0147103,671,792,-27.0275,1.49862
-546,232,-27.0428,-2.12067,-0.00164013,-0.00352445,0.00231495,-8.29624e-05,-0.00508162,0.592139,0.00336043,0.0213474,678,792,-27.0428,2.12068
-539,232,-27.1899,-2.66998,-0.0018714,-0.00447978,0.00280709,-8.03315e-05,-0.00627086,0.567931,0.00415405,0.0330999,685,792,-27.1899,2.66999
-532,232,-27.3878,-3.26324,-0.00199917,-0.00480823,0.00282337,-0.000250269,-0.00655713,0.554589,0.00429043,0.0349078,692,792,-27.3877,3.26327
-525,232,-27.3762,-3.92255,0,0,0,0,0,0,0,-1,699,792,-27.3762,3.92255
-518,232,-20.8098,-3.08154,0,0,0,0,0,0,0,-1,706,792,-20.8098,3.08155
-511,232,-21.6708,-0.962708,0,0,0,0,0,0,0,-1,713,792,-21.6708,0.962731
-504,232,-34.2155,0.346985,0,0,0,0,0,0,0,-1,720,792,-34.2155,-0.346955
-497,232,-41.3316,1.23224,0,0,0,0,0,0,0,-1,727,792,-41.3316,-1.23225
-490,232,-41.3064,1.2356,0.00201107,-0.00168781,-3.34051e-05,0.00201137,-0.00168812,-0.00903015,0.00213862,0.0433412,734,792,-41.3064,-1.23562
-483,232,-41.3389,1.28656,0.0033386,-0.000209503,-0.000695606,0.0034701,-0.000341003,-0.186839,0.00243504,0.0423237,741,792,-41.339,-1.28653
-476,232,-41.3942,1.12836,0.00493107,0.00155308,-0.00108826,0.00525131,0.00123284,-0.286187,0.00317085,0.0364044,748,792,-41.3942,-1.12835
-469,232,-41.3698,1.12561,0.006308,0.00291126,-0.000567261,0.00640023,0.00281903,-0.161177,0.0037039,0.0330811,755,792,-41.3698,-1.12561
-462,232,0,0,0,0,0,0,0,0,0,-1,762,792,0,0
-455,232,0,0,0,0,0,0,0,0,0,-1,769,792,0,0
-448,232,0,0,0,0,0,0,0,0,0,-1,776,792,0,0
-441,232,0,0,0,0,0,0,0,0,0,-1,783,792,0,0
-434,232,0,0,0,0,0,0,0,0,0,-1,790,792,0,0
-427,232,0,0,0,0,0,0,0,0,0,-1,797,792,0,0
-420,232,0,0,0,0,0,0,0,0,0,-1,804,792,0,0
-413,232,0,0,0,0,0,0,0,0,0,-1,811,792,0,0
-406,232,0,0,0,0,0,0,0,0,0,-1,818,792,0,0
-399,232,0,0,0,0,0,0,0,0,0,-1,825,792,0,0
-392,232,0,0,0,0,0,0,0,0,0,-1,832,792,0,0
-385,232,0,0,0,0,0,0,0,0,0,-1,839,792,0,0
-378,232,0,0,0,0,0,0,0,0,0,-1,846,792,0,0
-371,232,0,0,0,0,0,0,0,0,0,-1,853,792,0,0
-364,232,0,0,0,0,0,0,0,0,0,-1,860,792,0,0
-357,232,0,0,0,0,0,0,0,0,0,-1,867,792,0,0
-350,232,0,0,0,0,0,0,0,0,0,-1,874,792,0,0
-343,232,0,0,0,0,0,0,0,0,0,-1,881,792,0,0
-336,232,0,0,0,0,0,0,0,0,0,-1,888,792,0,0
-329,232,0,0,0,0,0,0,0,0,0,-1,895,792,0,0
-322,232,0,0,0,0,0,0,0,0,0,-1,902,792,0,0
-315,232,0,0,0,0,0,0,0,0,0,-1,909,792,0,0
-308,232,0,0,0,0,0,0,0,0,0,-1,916,792,0,0
-301,232,0,0,0,0,0,0,0,0,0,-1,923,792,0,0
-294,232,0,0,0,0,0,0,0,0,0,-1,930,792,0,0
-287,232,0,0,0,0,0,0,0,0,0,-1,937,792,0,0
-280,232,0,0,0,0,0,0,0,0,0,-1,944,792,0,0
-273,232,0,0,0,0,0,0,0,0,0,-1,951,792,0,0
-266,232,0,0,0,0,0,0,0,0,0,-1,958,792,0,0
-259,232,0,0,0,0,0,0,0,0,0,-1,965,792,0,0
-252,232,0,0,0,0,0,0,0,0,0,-1,972,792,0,0
-245,232,0,0,0,0,0,0,0,0,0,-1,979,792,0,0
-238,232,0,0,0,0,0,0,0,0,0,-1,986,792,0,0
-231,232,0,0,0,0,0,0,0,0,0,-1,993,792,0,0
-224,232,0,0,0,0,0,0,0,0,0,-1,1000,792,0,0
-217,232,0,0,0,0,0,0,0,0,0,-1,1007,792,0,0
-210,232,0,0,0,0,0,0,0,0,0,-1,1014,792,0,0
-203,232,0,0,0,0,0,0,0,0,0,-1,1021,792,0,0
-196,232,0,0,0,0,0,0,0,0,0,-1,1028,792,0,0
-189,232,0,0,0,0,0,0,0,0,0,-1,1035,792,0,0
-182,232,0,0,0,0,0,0,0,0,0,-1,1042,792,0,0
-175,232,0,0,0,0,0,0,0,0,0,-1,1049,792,0,0
-168,232,0,0,0,0,0,0,0,0,0,-1,1056,792,0,0
-161,232,0,0,0,0,0,0,0,0,0,-1,1063,792,0,0
-154,232,0,0,0,0,0,0,0,0,0,-1,1070,792,0,0
-147,232,0,0,0,0,0,0,0,0,0,-1,1077,792,0,0
-140,232,0,0,0,0,0,0,0,0,0,-1,1084,792,0,0
-133,232,0,0,0,0,0,0,0,0,0,-1,1091,792,0,0
-126,232,0,0,0,0,0,0,0,0,0,-1,1098,792,0,0
-119,232,0,0,0,0,0,0,0,0,0,-1,1105,792,0,0
-112,232,0,0,0,0,0,0,0,0,0,-1,1112,792,0,0
-105,232,0,0,0,0,0,0,0,0,0,-1,1119,792,0,0
-98,232,0,0,0,0,0,0,0,0,0,-1,1126,792,0,0
-91,232,0,0,0,0,0,0,0,0,0,-1,1133,792,0,0
-84,232,0,0,0,0,0,0,0,0,0,-1,1140,792,0,0
-77,232,0,0,0,0,0,0,0,0,0,-1,1147,792,0,0
-70,232,0,0,0,0,0,0,0,0,0,-1,1154,792,0,0
-63,232,0,0,0,0,0,0,0,0,0,-1,1161,792,0,0
-56,232,0,0,0,0,0,0,0,0,0,-1,1168,792,0,0
-49,232,0,0,0,0,0,0,0,0,0,-1,1175,792,0,0
-42,232,0,0,0,0,0,0,0,0,0,-1,1182,792,0,0
-35,232,0,0,0,0,0,0,0,0,0,-1,1189,792,0,0
-28,232,0,0,0,0,0,0,0,0,0,-1,1196,792,0,0
-21,232,0,0,0,0,0,0,0,0,0,-1,1203,792,0,0
-14,232,0,0,0,0,0,0,0,0,0,-1,1210,792,0,0
-7,232,0,0,0,0,0,0,0,0,0,-1,1217,792,0,0
0,232,0,0,0,0,0,0,0,0,0,-1,1224,792,0,0
7,232,0,0,0,0,0,0,0,0,0,-1,1231,792,0,0
14,232,0,0,0,0,0,0,0,0,0,-1,1238,792,0,0
21,232,0,0,0,0,0,0,0,0,0,-1,1245,792,0,0
28,232,0,0,0,0,0,0,0,0,0,-1,1252,792,0,0
35,232,0,0,0,0,0,0,0,0,0,-1,1259,792,0,0
42,232,0,0,0,0,0,0,0,0,0,-1,1266,792,0,0
49,232,0,0,0,0,0,0,0,0,0,-1,1273,792,0,0
56,232,0,0,0,0,0,0,0,0,0,-1,1280,792,0,0
63,232,0,0,0,0,0,0,0,0,0,-1,1287,792,0,0
70,232,0,0,0,0,0,0,0,0,0,-1,1294,792,0,0
77,232,0,0,0,0,0,0,0,0,0,-1,1301,792,0,0
84,232,0,0,0,0,0,0,0,0,0,-1,1308,792,0,0
91,232,0,0,0,0,0,0,0,0,0,-1,1315,792,0,0
98,232,0,0,0,0,0,0,0,0,0,-1,1322,792,0,0
105,232,0,0,0,0,0,0,0,0,0,-1,1329,792,0,0
112,232,0,0,0,0,0,0,0,0,0,-1,1336,792,0,0
119,232,0,0,0,0,0,0,0,0,0,-1,1343,792,0,0
126,232,0,0,0,0,0,0,0,0,0,-1,1350,792,0,0
133,232,0,0,0,0,0,0,0,0,0,-1,1357,792,0,0
140,232,0,0,0,0,0,0,0,0,0,-1,1364,792,0,0
147,232,0,0,0,0,0,0,0,0,0,-1,1371,792,0,0
154,232,0,0,0,0,0,0,0,0,0,-1,1378,792,0,0
161,232,0,0,0,0,0,0,0,0,0,-1,1385,792,0,0
168,232,0,0,0,0,0,0,0,0,0,-1,1392,792,0,0
175,232,0,0,0,0,0,0,0,0,0,-1,1399,792,0,0
182,232,0,0,0,0,0,0,0,0,0,-1,1406,792,0,0
189,232,0,0,0,0,0,0,0,0,0,-1,1413,792,0,0
196,232,0,0,0,0,0,0,0,0,0,-1,1420,792,0,0
203,232,0,0,0,0,0,0,0,0,0,-1,1427,792,0,0
210,232,0,0,0,0,0,0,0,0,0,-1,1434,792,0,0
217,232,0,0,0,0,0,0,0,0,0,-1,1441,792,0,0
224,232,0,0,0,0,0,0,0,0,0,-1,1448,792,0,0
231,232,0,0,0,0,0,0,0,0,0,-1,1455,792,0,0
238,232,0,0,0,0,0,0,0,0,0,-1,1462,792,0,0
245,232,0,0,0,0,0,0,0,0,0,-1,1469,792,0,0
252,232,0,0,0,0,0,0,0,0,0,-1,1476,792,0,0
259,232,0,0,0,0,0,0,0,0,0,-1,1483,792,0,0
266,232,0,0,0,0,0,0,0,0,0,-1,1490,792,0,0
273,232,0,0,0,0,0,0,0,0,0,-1,1497,792,0,0
280,232,0,0,0,0,0,0,0,0,0,-1,1504,792,0,0
287,232,0,0,0,0,0,0,0,0,0,-1,1511,792,0,0
294,232,0,0,0,0,0,0,0,0,0,-1,1518,792,0,0
301,232,0,0,0,0,0,0,0,0,0,-1,1525,792,0,0
308,232,0,0,0,0,0,0,0,0,0,-1,1532,792,0,0
315,232,0,0,0,0,0,0,0,0,0,-1,1539,792,0,0
322,232,0,0,0,0,0,0,0,0,0,-1,1546,792,0,0
329,232,0,0,0,0,0,0,0,0,0,-1,1553,792,0,0
336,232,0,0,0,0,0,0,0,0,0,-1,1560,792,0,0
343,232,0,0,0,0,0,0,0,0,0,-1,1567,792,0,0
350,232,0,0,0,0,0,0,0,0,0,-1,1574,792,0,0
357,232,0,0,0,0,0,0,0,0,0,-1,1581,792,0,0
364,232,0,0,0,0,0,0,0,0,0,-1,1588,792,0,0
371,232,0,0,0,0,0,0,0,0,0,-1,1595,792,0,0
378,232,0,0,0,0,0,0,0,0,0,-1,1602,792,0,0
385,232,0,0,0,0,0,0,0,0,0,-1,1609,792,0,0
392,232,0,0,0,0,0,0,0,0,0,-1,1616,792,0,0
399,232,0,0,0,0,0,0,0,0,0,-1,1623,792,0,0
406,232,0,0,0,0,0,0,0,0,0,-1,1630,792,0,0
413,232,0,0,0,0,0,0,0,0,0,-1,1637,792,0,0
420,232,0,0,0,0,0,0,0,0,0,-1,1644,792,0,0
427,232,0,0,0,0,0,0,0,0,0,-1,1651,792,0,0
434,232,0,0,0,0,0,0,0,0,0,-1,1658,792,0,0
441,232,0,0,0,0,0,0,0,0,0,-1,1665,792,0,0
448,232,0,0,0,0,0,0,0,0,0,-1,1672,792,0,0
455,232,0,0,0,0,0,0,0,0,0,-1,1679,792,0,0
462,232,0,0,0,0,0,0,0,0,0,-1,1686,792,0,0
469,232,0,0,0,0,0,0,0,0,0,-1,1693,792,0,0
476,232,0,0,0,0,0,0,0,0,0,-1,1700,792,0,0
483,232,0,0,0,0,0,0,0,0,0,-1,1707,792,0,0
490,232,0,0,0,0,0,0,0,0,0,-1,1714,792,0,0
497,232,0,0,0,0,0,0,0,0,0,-1,1721,792,0,0
504,232,0,0,0,0,0,0,0,0,0,-1,1728,792,0,0
511,232,0,0,0,0,0,0,0,0,0,-1,1735,792,0,0
518,232,0,0,0,0,0,0,0,0,0,-1,1742,792,0,0
525,232,0,0,0,0,0,0,0,0,0,-1,1749,792,0,0
532,232,0,0,0,0,0,0,0,0,0,-1,1756,792,0,0
539,232,0,0,0,0,0,0,0,0,0,-1,1763,792,0,0
546,232,0,0,0,0,0,0,0,0,0,-1,1770,792,0,0
553,232,0,0,0,0,0,0,0,0,0,-1,1777,792,0,0
560,232,0,0,0,0,0,0,0,0,0,-1,1784,792,0,0
567,232,0,0,0,0,0,0,0,0,0,-1,1791,792,0,0
574,232,0,0,0,0,0,0,0,0,0,-1,1798,792,0,0
581,232,0,0,0,0,0,0,0,0,0,-1,1805,792,0,0
588,232,54.9015,2.95313,0.00713409,0.00419039,0.000913142,0.00739434,0.00393014,0.277644,0.00427195,0.0399283,1812,792,54.9015,-2.95314
595,232,54.9259,2.94568,0.00814714,0.00285432,0.00294417,0.00945947,0.00154199,0.419305,0.00586033,0.0373444,1819,792,54.9258,-2.94569
602,232,54.9536,2.90747,0.00763505,0.00200633,0.00359639,0.00938738,0.000254002,0.453393,0.00617533,0.0364276,1826,792,54.9536,-2.90747
609,232,54.9299,2.95227,0.00637443,0.00153667,0.00357077,0.00826848,-0.000357383,0.487696,0.00563523,0.0446612,1833,792,54.9299,-2.95224
616,232,54.6669,3.29468,0,0,0,0,0,0,0,-1,1840,792,54.6669,-3.29466
623,232,54.6626,3.39642,0,0,0,0,0,0,0,-1,1847,792,54.6626,-3.39644
630,232,54.6583,3.49823,0,0,0,0,0,0,0,-1,1854,792,54.6584,-3.49821
637,232,47.0471,4.04309,0,0,0,0,0,0,0,-1,1861,792,47.0471,-4.04309
644,232,30.7756,4.24139,0,0,0,0,0,0,0,-1,1868,792,30.7757,-4.24141
651,232,31.6797,-0.564087,0,0,0,0,0,0,0,-1,1875,792,31.6797,0.564059
658,232,39.4678,-1.58221,0,0,0,0,0,0,0,-1,1882,792,39.4678,1.58224
665,232,39.2898,-0.980164,-0.00290286,-0.000514463,-0.00193388,0.000564225,-0.00398154,-1.062,0.00286104,0.0314684,1889,792,39.2898,0.980154
672,232,39.1741,-0.318481,-0.00329819,-0.000713553,-0.00203505,0.000404837,-0.00441658,-1.06829,0.00308819,0.0335115,1896,792,39.1741,0.318453
679,232,39.1787,0.354736,-0.0034773,-0.000843236,-0.00196417,0.000204591,-0.00452512,-1.08073,0.00308721,0.0193764,1903,792,39.1787,-0.354744
686,232,39.1743,1.00769,-0.00299486,-0.000443947,-0.00178344,0.000473185,-0.00391199,-1.09581,0.00277918,0.0184929,1910,792,39.1743,-1.00768
693,232,39.1605,1.5885,-0.0014778,0.00013535,-0.00110541,0.000697168,-0.00203962,-1.10058,0.00164223,0.0113303,1917,792,39.1605,-1.58851
700,232,39.1244,2.23541,0.000399365,0.000942226,-0.00020243,0.0010094,0.000332192,-1.2504,0.000594016,0.0140256,1924,792,39.1244,-2.23541
707,232,39.0901,2.90039,0.00244786,0.00183854,0.000860203,0.00305576,0.00123064,0.615205,0.00177534,0.0143726,1931,792,39.0901,-2.90038
714,232,39.0731,3.5329,0.00475512,0.00278559,0.00211077,0.00609954,0.00144116,0.567136,0.00368124,0.0146418,1938,792,39.0732,-3.53288
721,232,39.0284,4.17346,0.00733565,0.00357332,0.00349478,0.0094234,0.00148558,0.538498,0.00585029,0.0221179,1945,792,39.0284,-4.17347
728,232,38.9375,4.88354,0,0,0,0,0,0,0,-1,1952,792,38.9375,-4.88354
735,232,37.4669,5.34619,0,0,0,0,0,0,0,-1,1959,792,37.4669,-5.3462
742,232,25.6461,6.00684,0,0,0,0,0,0,0,-1,1966,792,25.6461,-6.00684
749,232,31.2874,3.74713,0,0,0,0,0,0,0,-1,1973,792,31.2874,-3.74713
756,232,32.1207,3.896,0,0,0,0,0,0,0,-1,1980,792,32.1207,-3.89597
763,232,32.7255,4.05878,0,0,0,0,0,0,0,-1,1987,792,32.7255,-4.05881
770,232,0,0,0,0,0,0,0,0,0,-1,1994,792,0,0
777,232,0,0,0,0,0,0,0,0,0,-1,2001,792,0,0
784,232,0,0,0,0,0,0,0,0,0,-1,2008,792,0,0
791,232,0,0,0,0,0,0,0,0,0,-1,2015,792,0,0
798,232,0,0,0,0,0,0,0,0,0,-1,2022,792,0,0
805,232,0,0,0,0,0,0,0,0,0,-1,2029,792,0,0
812,232,0,0,0,0,0,0,0,0,0,-1,2036,792,0,0
-700,225,0,0,0,0,0,0,0,0,0,-1,524,799,0,0
-693,225,0,0,0,0,0,0,0,0,0,-1,531,799,0,0
-686,225,0,0,0,0,0,0,0,0,0,-1,538,799,0,0
-679,225,0,0,0,0,0,0,0,0,0,-1,545,799,0,0
-672,225,0,0,0,0,0,0,0,0,0,-1,552,799,0,0
-665,225,0,0,0,0,0,0,0,0,0,-1,559,799,0,0
-658,225,0,0,0,0,0,0,0,0,0,-1,566,799,0,0
-651,225,0,0,0,0,0,0,0,0,0,-1,573,799,0,0
-644,225,-31.6232,6.26855,0,0,0,0,0,0,0,-1,580,799,-31.6231,-6.26854
-637,225,-31.4901,6.06842,0,0,0,0,0,0,0,-1,587,799,-31.4901,-6.06839
-630,225,-29.8912,5.02606,0,0,0,0,0,0,0,-1,594,799,-29.8912,-5.02606
-623,225,-32.8276,-0.00836182,0,0,0,0,0,0,0,-1,601,799,-32.8276,0.00837668
-616,225,-32.0569,-0.549255,0,0,0,0,0,0,0,-1,608,799,-32.0569,0.549265
-609,225,-27.8046,3.35376,0,0,0,0,0,0,0,-1,615,799,-27.8046,-3.35376
-602,225,-27.7749,2.7066,0.00273981,0.00917795,-0.00497965,0.0118884,2.93432e-05,-1.07233,0.00791584,0.0498105,622,799,-27.7749,-2.70661
-595,225,-27.5853,2.34222,0.00174251,0.00735756,-0.00387507,0.00933527,-0.00023519,-1.09889,0.00630337,0.0313318,629,799,-27.5852,-2.34221
-588,225,-27.5034,1.58984,0.00104823,0.00555714,-0.0028483,0.00693523,-0.000329861,-1.12017,0.00473727,0.0131915,636,799,-27.5034,-1.58987
-581,225,-27.5024,0.984619,0.0006056,0.00390217,-0.00197655,0.00482752,-0.000319752,-1.13294,0.00333005,0.0107817,643,799,-27.5024,-0.984618
-574,225,-27.5209,0.363708,9.78755e-05,0.00231384,-0.00102576,0.00271576,-0.000304047,-1.19735,0.0019199,0.00882824,650,799,-27.5209,-0.363737
-567,225,-27.5572,-0.252686,-0.000395899,0.000689397,-0.000106527,0.000699755,-0.000406256,-1.47387,0.000646007,0.0120829,657,799,-27.5572,0.252695
-560,225,-27.6041,-0.84729,-0.000748554,-0.0010859,0.000711839,-0.000185676,-0.00164877,0.669068,0.00104282,0.0137418,664,799,-27.604,0.847275
-553,225,-27.65,-1.48126,-0.00107775,-0.0027982,0.00167299,-5.67783e-05,-0.00381917,0.547932,0.0025274,0.0122572,671,799,-27.65,1.48123
-546,225,-27.6869,-2.09137,-0.00131121,-0.00400229,0.00229268,1.60374e-06,-0.0053151,0.520038,0.00354394,0.0217921,678,799,-27.6869,2.09138
-539,225,-27.7377,-2.65143,-0.00152952,-0.00478039,0.00267914,-2.12963e-05,-0.00628862,0.512732,0.00418533,0.0477354,685,799,-27.7377,2.6514
-532,225,-27.9221,-3.16003,-0.00167293,-0.00509928,0.00270213,-0.000186652,-0.00658556,0.502872,0.00432949,0.0482368,692,799,-27.9221,3.16
-525,225,-28.1653,-3.43506,0,0,0,0,0,0,0,-1,699,799,-28.1653,3.43504
-518,225,-21.963,0.171326,0,0,0,0,0,0,0,-1,706,799,-21.9629,-0.171319
-511,225,-33.0002,0.660217,0,0,0,0,0,0,0,-1,713,799,-33.0002,-0.660239
-504,225,-41.4575,1.2561,0,0,0,0,0,0,0,-1,720,799,-41.4575,-1.25611
-497,225,-41.3458,1.17969,0.000679224,-0.00367712,0.000793,0.000819086,-0.00381698,0.174576,0.00285709,0.0420418,727,799,-41.3458,-1.17967
-490,225,-41.3403,1.16461,0.00159934,-0.00250801,-1.91068e-05,0.00159943,-0.00250809,-0.00465172,0.00239075,0.0370138,734,799,-41.3404,-1.16461
-483,225,-41.3635,1.15613,0.00284028,-0.00103241,-0.000861524,0.00302329,-0.00121542,-0.209312,0.00252032,0.0322319,741,799,-41.3635,-1.15616
-476,225,-41.416,1.04272,0.00431491,0.000764727,-0.00145125,0.00483265,0.00024699,-0.342679,0.00314267,0.0322277,748,799,-41.4159,-1.04272
-469,225,-41.3627,1.14252,0.00547342,0.00179854,-0.000944444,0.00570194,0.00157003,-0.237393,0.00340097,0.0363504,755,799,-41.3627,-1.14253
-462,225,0,0,0,0,0,0,0,0,0,-1,762,799,0,0
-455,225,0,0,0,0,0,0,0,0,0,-1,769,799,0,0
-448,225,0,0,0,0,0,0,0,0,0,-1,776,799,0,0
-441,225,0,0,0,0,0,0,0,0,0,-1,783,799,0,0
-434,225,0,0,0,0,0,0,0,0,0,-1,790,799,0,0
-427,225,0,0,0,0,0,0,0,0,0,-1,797,799,0,0
-420,225,0,0,0,0,0,0,0,0,0,-1,804,799,0,0
-413,225,0,0,0,0,0,0,0,0,0,-1,811,799,0,0
-406,225,0,0,0,0,0,0,0,0,0,-1,818,799,0,0
-399,225,0,0,0,0,0,0,0,0,0,-1,825,799,0,0
-392,225,0,0,0,0,0,0,0,0,0,-1,832,799,0,0
-385,225,0,0,0,0,0,0,0,0,0,-1,839,799,0,0
-378,225,0,0,0,0,0,0,0,0,0,-1,846,799,0,0
-371,225,0,0,0,0,0,0,0,0,0,-1,853,799,0,0
-364,225,0,0,0,0,0,0,0,0,0,-1,860,799,0,0
-357,225,0,0,0,0,0,0,0,0,0,-1,867,799,0,0
-350,225,0,0,0,0,0,0,0,0,0,-1,874,799,0,0
-343,225,0,0,0,0,0,0,0,0,0,-1,881,799,0,0
-336,225,0,0,0,0,0,0,0,0,0,-1,888,799,0,0
-329,225,0,0,0,0,0,0,0,0,0,-1,895,799,0,0
-322,225,0,0,0,0,0,0,0,0,0,-1,902,799,0,0
-315,225,0,0,0,0,0,0,0,0,0,-1,909,799,0,0
-308,225,0,0,0,0,0,0,0,0,0,-1,916,799,0,0
-301,225,0,0,0,0,0,0,0,0,0,-1,923,799,0,0
-294,225,0,0,0,0,0,0,0,0,0,-1,930,799,0,0
-287,225,0,0,0,0,0,0,0,0,0,-1,937,799,0,0
-280,225,0,0,0,0,0,0,0,0,0,-1,944,799,0,0
-273,225,0,0,0,0,0,0,0,0,0,-1,951,799,0,0
-266,225,0,0,0,0,0,0,0,0,0,-1,958,799,0,0
-259,225,0,0,0,0,0,0,0,0,0,-1,965,799,0,0
-252,225,0,0,0,0,0,0,0,0,0,-1,972,799,0,0
-245,225,0,0,0,0,0,0,0,0,0,-1,979,799,0,0
-238,225,0,0,0,0,0,0,0,0,0,-1,986,799,0,0
-231,225,0,0,0,0,0,0,0,0,0,-1,993,799,0,0
-224,225,0,0,0,0,0,0,0,0,0,-1,1000,799,0,0
-217,225,0,0,0,0,0,0,0,0,0,-1,1007,799,0,0
-210,225,0,0,0,0,0,0,0,0,0,-1,1014,799,0,0
-203,225,0,0,0,0,0,0,0,0,0,-1,1021,799,0,0
-196,225,0,0,0,0,0,0,0,0,0,-1,1028,799,0,0
-189,225,0,0,0,0,0,0,0,0,0,-1,1035,799,0,0
-182,225,0,0,0,0,0,0,0,0,0,-1,1042,799,0,0
-175,225,0,0,0,0,0,0,0,0,0,-1,1049,799,0,0
-168,225,0,0,0,0,0,0,0,0,0,-1,1056,799,0,0
-161,225,0,0,0,0,0,0,0,0,0,-1,1063,799,0,0
-154,225,0,0,0,0,0,0,0,0,0,-1,1070,799,0,0
-147,225,0,0,0,0,0,0,0,0,0,-1,1077,799,0,0
-140,225,0,0,0,0,0,0,0,0,0,-1,1084,799,0,0
-133,225,0,0,0,0,0,0,0,0,0,-1,1091,799,0,0
-126,225,0,0,0,0,0,0,0,0,0,-1,1098,799,0,0
-119,225,0,0,0,0,0,0,0,0,0,-1,1105,799,0,0
-112,225,0,0,0,0,0,0,0,0,0,-1,1112,799,0,0
-105,225,0,0,0,0,0,0,0,0,0,-1,1119,799,0,0
-98,225,0,0,0,0,0,0,0,0,0,-1,1126,799,0,0
-91,225,0,0,0,0,0,0,0,0,0,-1,1133,799,0,0
-84,225,0,0,0,0,0,0,0,0,0,-1,1140,799,0,0
-77,225,0,0,0,0,0,0,0,0,0,-1,1147,799,0,0
-70,225,0,0,0,0,0,0,0,0,0,-1,1154,799,0,0
-63,225,0,0,0,0,0,0,0,0,0,-1,1161,799,0,0
-56,225,0,0,0,0,0,0,0,0,0,-1,1168,799,0,0
-49,225,0,0,0,0,0,0,0,0,0,-1,1175,799,0,0
-42,225,0,0,0,0,0,0,0,0,0,-1,1182,799,0,0
-35,225,0,0,0,0,0,0,0,0,0,-1,1189,799,0,0
-28,225,0,0,0,0,0,0,0,0,0,-1,1196,799,0,0
-21,225,0,0,0,0,0,0,0,0,0,-1,1203,799,0,0
-14,225,0,0,0,0,0,0,0,0,0,-1,1210,799,0,0
-7,225,0,0,0,0,0,0,0,0,0,-1,1217,799,0,0
0,225,0,0,0,0,0,0,0,0,0,-1,1224,799,0,0
7,225,0,0,0,0,0,0,0,0,0,-1,1231,799,0,0
14,225,0,0,0,0,0,0,0,0,0,-1,1238,799,0,0
21,225,0,0,0,0,0,0,0,0,0,-1,1245,799,0,0
28,225,0,0,0,0,0,0,0,0,0,-1,1252,799,0,0
35,225,0,0,0,0,0,0,0,0,0,-1,1259,799,0,0
42,225,0,0,0,0,0,0,0,0,0,-1,1266,799,0,0
49,225,0,0,0,0,0,0,0,0,0,-1,1273,799,0,0
56,225,0,0,0,0,0,0,0,0,0,-1,1280,799,0,0
63,225,0,0,0,0,0,0,0,0,0,-1,1287,799,0,0
70,225,0,0,0,0,0,0,0,0,0,-1,1294,799,0,0
77,225,0,0,0,0,0,0,0,0,0,-1,1301,799,0,0
84,225,0,0,0,0,0,0,0,0,0,-1,1308,799,0,0
91,225,0,0,0,0,0,0,0,0,0,-1,1315,799,0,0
98,225,0,0,0,0,0,0,0,0,0,-1,1322,799,0,0
105,225,0,0,0,0,0,0,0,0,0,-1,1329,799,0,0
112,225,0,0,0,0,0,0,0,0,0,-1,1336,799,0,0
119,225,0,0,0,0,0,0,0,0,0,-1,1343,799,0,0
126,225,0,0,0,0,0,0,0,0,0,-1,1350,799,0,0
133,225,0,0,0,0,0,0,0,0,0,-1,1357,799,0,0
140,225,0,0,0,0,0,0,0,0,0,-1,1364,799,0,0
147,225,0,0,0,0,0,0,0,0,0,-1,1371,799,0,0
154,225,0,0,0,0,0,0,0,0,0,-1,1378,799,0,0
161,225,0,0,0,0,0,0,0,0,0,-1,1385,799,0,0
168,225,0,0,0,0,0,0,0,0,0,-1,1392,799,0,0
175,225,0,0,0,0,0,0,0,0,0,-1,1399,799,0,0
182,225,0,0,0,0,0,0,0,0,0,-1,1406,799,0,0
189,225,0,0,0,0,0,0,0,0,0,-1,1413,799,0,0
196,225,0,0,0,0,0,0,0,0,0,-1,1420,799,0,0
203,225,0,0,0,0,0,0,0,0,0,-1,1427,799,0,0
210,225,0,0,0,0,0,0,0,0,0,-1,1434,799,0,0
217,225,0,0,0,0,0,0,0,0,0,-1,1441,799,0,0
224,225,0,0,0,0,0,0,0,0,0,-1,1448,799,0,0
231,225,0,0,0,0,0,0,0,0,0,-1,1455,799,0,0
238,225,0,0,0,0,0,0,0,0,0,-1,1462,799,0,0
245,225,0,0,0,0,0,0,0,0,0,-1,1469,799,0,0
252,225,0,0,0,0,0,0,0,0,0,-1,1476,799,0,0
259,225,0,0,0,0,0,0,0,0,0,-1,1483,799,0,0
266,225,0,0,0,0,0,0,0,0,0,-1,1490,799,0,0
273,225,0,0,0,0,0,0,0,0,0,-1,1497,799,0,0
280,225,0,0,0,0,0,0,0,0,0,-1,1504,799,0,0
287,225,0,0,0,0,0,0,0,0,0,-1,1511,799,0,0
294,225,0,0,0,0,0,0,0,0,0,-1,1518,799,0,0
301,225,0,0,0,0,0,0,0,0,0,-1,1525,799,0,0
308,225,0,0,0,0,0,0,0,0,0,-1,1532,799,0,0
315,225,0,0,0,0,0,0,0,0,0,-1,1539,799,0,0
322,225,0,0,0,0,0,0,0,0,0,-1,1546,799,0,0
329,225,0,0,0,0,0,0,0,0,0,-1,1553,799,0,0
336,225,0,0,0,0,0,0,0,0,0,-1,1560,799,0,0
343,225,0,0,0,0,0,0,0,0,0,-1,1567,799,0,0
350,225,0,0,0,0,0,0,0,0,0,-1,1574,799,0,0
357,225,0,0,0,0,0,0,0,0,0,-1,1581,799,0,0
364,225,0,0,0,0,0,0,0,0,0,-1,1588,799,0,0
371,225,0,0,0,0,0,0,0,0,0,-1,1595,799,0,0
378,225,0,0,0,0,0,0,0,0,0,-1,1602,799,0,0
385,225,0,0,0,0,0,0,0,0,0,-1,1609,799,0,0
392,225,0,0,0,0,0,0,0,0,0,-1,1616,799,0,0
399,225,0,0,0,0,0,0,0,0,0,-1,1623,799,0,0
406,225,0,0,0,0,0,0,0,0,0,-1,1630,799,0,0
413,225,0,0,0,0,0,0,0,0,0,-1,1637,799,0,0
420,225,0,0,0,0,0,0,0,0,0,-1,1644,799,0,0
427,225,0,0,0,0,0,0,0,0,0,-1,1651,799,0,0
434,225,0,0,0,0,0,0,0,0,0,-1,1658,799,0,0
441,225,0,0,0,0,0,0,0,0,0,-1,1665,799,0,0
448,225,0,0,0,0,0,0,0,0,0,-1,1672,799,0,0
455,225,0,0,0,0,0,0,0,0,0,-1,1679,799,0,0
462,225,0,0,0,0,0,0,0,0,0,-1,1686,799,0,0
469,225,0,0,0,0,0,0,0,0,0,-1,1693,799,0,0
476,225,0,0,0,0,0,0,0,0,0,-1,1700,799,0,0
483,225,0,0,0,0,0,0,0,0,0,-1,1707,799,0,0
490,225,0,0,0,0,0,0,0,0,0,-1,1714,799,0,0
497,225,0,0,0,0,0,0,0,0,0,-1,1721,799,0,0
504,225,0,0,0,0,0,0,0,0,0,-1,1728,799,0,0
511,225,0,0,0,0,0,0,0,0,0,-1,1735,799,0,0
518,225,0,0,0,0,0,0,0,0,0,-1,1742,799,0,0
525,225,0,0,0,0,0,0,0,0,0,-1,1749,799,0,0
532,225,0,0,0,0,0,0,0,0,0,-1,1756,799,0,0
539,225,0,0,0,0,0,0,0,0,0,-1,1763,799,0,0
546,225,0,0,0,0,0,0,0,0,0,-1,1770,799,0,0
553,225,0,0,0,0,0,0,0,0,0,-1,1777,799,0,0
560,225,0,0,0,0,0,0,0,0,0,-1,1784,799,0,0
567,225,0,0,0,0,0,0,0,0,0,-1,1791,799,0,0
574,225,0,0,0,0,0,0,0,0,0,-1,1798,799,0,0
581,225,0,0,0,0,0,0,0,0,0,-1,1805,799,0,0
588,225,54.921,2.93304,0.00414512,0.00503315,-0.000469188,0.00523511,0.00394316,-1.16432,0.00314904,0.0368359,1812,799,54.921,-2.93303
595,225,54.9298,2.93982,0.00556826,0.00363055,0.00156821,0.00644277,0.00275605,0.508692,0.00373265,0.0357865,1819,799,54.9299,-2.93984
602,225,54.936,2.9657,0.005702,0.0026679,0.00252625,0.00713171,0.00123819,0.515,0.0044002,0.0362967,1826,799,54.9361,-2.96571
609,225,54.905,3.02789,0.00501031,0.00203837,0.00277365,0.00667096,0.000377713,0.539481,0.0043269,0.0343146,1833,799,54.9051,-3.0279
616,225,54.8407,3.03052,0.00368554,0.00138477,0.00231184,0.0051174,-4.70863e-05,0.554533,0.0034274,0.0388378,1840,799,54.8407,-3.03054
623,225,54.8505,3.10095,0.00212638,0.000940961,0.00143525,0.00308649,-1.91452e-05,0.589581,0.00206407,0.0424258,1847,799,54.8505,-3.10095
630,225,55.3125,2.84106,0,0,0,0,0,0,0,-1,1854,799,55.3125,-2.84108
637,225,54.7838,2.68109,0,0,0,0,0,0,0,-1,1861,799,54.7838,-2.68109
644,225,42.0298,2.46411,0,0,0,0,0,0,0,-1,1868,799,42.0298,-2.4641
651,225,27.9657,0.579529,0,0,0,0,0,0,0,-1,1875,799,27.9657,-0.579541
658,225,40.9227,-1.04681,0,0,0,0,0,0,0,-1,1882,799,40.9227,1.04679
665,225,40.2145,-0.684692,-0.00344016,-0.000412068,-0.00213941,0.000694845,-0.00454708,-1.09333,0.00328757,0.0348334,1889,799,40.2145,0.684701
672,225,39.8405,-0.161499,-0.00395372,-0.000696214,-0.00226199,0.000462401,-0.00511233,-1.09743,0.00357234,0.0349767,1896,799,39.8404,0.161522
679,225,39.8193,0.42981,-0.00432481,-0.00100439,-0.00227556,0.000152214,-0.00548142,-1.10055,0.00370606,0.0222111,1903,799,39.8194,-0.42981
686,225,39.8287,1.00323,-0.00401215,-0.000763377,-0.00224142,0.00038038,-0.0051559,-1.09896,0.00357082,0.0105414,1910,799,39.8288,-1.00322
693,225,39.8066,1.62018,-0.00246393,-0.000304384,-0.0016618,0.000597634,-0.00336595,-1.0735,0.00246742,0.0102524,1917,799,39.8067,-1.62018
700,225,39.7701,2.26233,-0.000389409,0.000485326,-0.000737504,0.000905398,-0.00080948,-1.05304,0.000990601,0.0124803,1924,799,39.7702,-2.26234
707,225,39.7164,2.91559,0.00191084,0.00140517,0.000406193,0.00213646,0.00117955,0.507014,0.00123572,0.0131275,1931,799,39.7164,-2.9156
714,225,39.7074,3.56836,0.00449241,0.0023661,0.0017222,0.00545318,0.00140533,0.508868,0.0032693,0.0140079,1938,799,39.7074,-3.56833
721,225,39.7245,4.21454,0.0073873,0.00325992,0.00319709,0.00912889,0.00151833,0.498799,0.00564826,0.0170132,1945,799,39.7245,-4.21453
728,225,39.7235,4.87427,0,0,0,0,0,0,0,-1,1952,799,39.7235,-4.87428
735,225,40.0583,5.84369,0,0,0,0,0,0,0,-1,1959,799,40.0584,-5.8437
742,225,29.0922,3.2132,0,0,0,0,0,0,0,-1,1966,799,29.0921,-3.21322
749,225,29.9529,4.45538,0,0,0,0,0,0,0,-1,1973,799,29.9529,-4.45537
756,225,31.8855,3.83466,0,0,0,0,0,0,0,-1,1980,799,31.8855,-3.83463
763,225,29.4901,5.14417,0,0,0,0,0,0,0,-1,1987,799,29.4902,-5.14415
770,225,0,0,0,0,0,0,0,0,0,-1,1994,799,0,0
777,225,0,0,0,0,0,0,0,0,0,-1,2001,799,0,0
784,225,0,0,0,0,0,0,0,0,0,-1,2008,799,0,0
791,225,0,0,0,0,0,0,0,0,0,-1,2015,799,0,0
798,225,0,0,0,0,0,0,0,0,0,-1,2022,799,0,0
805,225,0,0,0,0,0,0,0,0,0,-1,2029,799,0,0
812,225,0,0,0,0,0,0,0,0,0,-1,2036,799,0,0
-700,218,0,0,0,0,0,0,0,0,0,-1,524,806,0,0
-693,218,0,0,0,0,0,0,0,0,0,-1,531,806,0,0
-686,218,0,0,0,0,0,0,0,0,0,-1,538,806,0,0
-679,218,0,0,0,0,0,0,0,0,0,-1,545,806,0,0
-672,218,0,0,0,0,0,0,0,0,0,-1,552,806,0,0
-665,218,0,0,0,0,0,0,0,0,0,-1,559,806,0,0
-658,218,0,0,0,0,0,0,0,0,0,-1,566,806,0,0
-651,218,-31.2516,6.36798,0,0,0,0,0,0,0,-1,573,806,-31.2517,-6.36799
-644,218,-31.3896,6.17743,0,0,0,0,0,0,0,-1,580,806,-31.3897,-6.17743
-637,218,-31.3395,5.94513,0,0,0,0,0,0,0,-1,587,806,-31.3395,-5.94511
-630,218,-29.7347,3.06238,0,0,0,0,0,0,0,-1,594,806,-29.7347,-3.06238
-623,218,-29.4469,4.34161,0,0,0,0,0,0,0,-1,601,806,-29.4469,-4.34164
-616,218,-20.0258,1.87585,0,0,0,0,0,0,0,-1,608,806,-20.0258,-1.87585
-609,218,-27.8422,3.4635,0,0,0,0,0,0,0,-1,615,806,-27.8423,-3.46349
-602,218,-28.1841,2.77509,0.00334058,0.00898659,-0.0041431,0.011177,0.00115014,-1.08446,0.00709909,0.040228,622,806,-28.1841,-2.77512
-595,218,-28.1771,2.18066,0.00226368,0.0068871,-0.00316146,0.00849187,0.0006589,-1.10108,0.00545489,0.0186297,629,806,-28.177,-2.18067
-588,218,-28.1308,1.59448,0.00154444,0.00494113,-0.00220373,0.00602501,0.000460556,-1.1137,0.00387229,0.0117915,636,806,-28.1308,-1.59449
-581,218,-28.131,1.00629,0.000966015,0.00334184,-0.00136714,0.00396506,0.000342791,-1.14308,0.00253684,0.0113462,643,806,-28.131,-1.00631
-574,218,-28.1695,0.395386,0.000420032,0.00186287,-0.000408862,0.00197067,0.000312226,-1.31299,0.00122307,0.0104621,650,806,-28.1695,-0.395405
-567,218,-28.1993,-0.224854,-1.81813e-05,0.000409808,0.000466583,0.00070913,-0.000317503,1.00041,0.000606932,0.0172502,657,806,-28.1994,0.224854
-560,218,-28.2369,-0.80719,-0.00030184,-0.00124671,0.00116817,0.000485816,-0.00203436,0.593243,0.00154387,0.0172566,664,806,-28.2369,0.807182
-553,218,-28.1831,-1.54987,-0.000566992,-0.00274552,0.00200984,0.000629781,-0.00394229,0.537072,0.00286132,0.0176289,671,806,-28.1831,1.54985
-546,218,-28.3218,-2.2821,-0.000717344,-0.00373005,0.00244051,0.000644263,-0.00509166,0.508903,0.00362831,0.0244075,678,806,-28.3218,2.28209
-539,218,-28.3483,-2.85822,-0.000893714,-0.00442493,0.00267847,0.000548731,-0.00586737,0.493996,0.00410673,0.0355546,685,806,-28.3482,2.85823
-532,218,-28.4295,-3.16711,-0.00103392,-0.00483283,0.00267943,0.00035102,-0.00621777,0.47706,0.004267,0.0488811,692,806,-28.4295,3.16709
-525,218,-28.8853,-3.39325,0,0,0,0,0,0,0,-1,699,806,-28.8853,3.39325
-518,218,-23.61,2.54181,0,0,0,0,0,0,0,-1,706,806,-23.61,-2.54183
-511,218,-40.1439,1.16718,0,0,0,0,0,0,0,-1,713,806,-40.1439,-1.16715
-504,218,-41.1797,0.947998,0,0,0,0,0,0,0,-1,720,806,-41.1797,-0.947996
-497,218,-41.1555,1.22589,0.000742742,-0.00407606,0.000911553,0.000909412,-0.00424273,0.180844,0.00317534,0.0450175,727,806,-41.1555,-1.22591
-490,218,-41.2285,1.16522,0.00154206,-0.00293312,9.27593e-06,0.00154208,-0.00293314,0.00207274,0.00262504,0.0362083,734,806,-41.2285,-1.16524
-483,218,-41.3176,1.13995,0.00268223,-0.00150623,-0.000997926,0.00290784,-0.00173184,-0.222341,0.00270725,0.0338581,741,806,-41.3176,-1.13995
-476,218,-41.3635,1.10126,0.00383955,0.000135202,-0.00170978,0.00450808,-0.00053332,-0.372722,0.00319802,0.0374851,748,806,-41.3635,-1.10128
-469,218,0,0,0,0,0,0,0,0,0,-1,755,806,0,0
-462,218,0,0,0,0,0,0,0,0,0,-1,762,806,0,0
-455,218,0,0,0,0,0,0,0,0,0,-1,769,806,0,0
-448,218,0,0,0,0,0,0,0,0,0,-1,776,806,0,0
-441,218,0,0,0,0,0,0,0,0,0,-1,783,806,0,0
-434,218,0,0,0,0,0,0,0,0,0,-1,790,806,0,0
-427,218,0,0,0,0,0,0,0,0,0,-1,797,806,0,0
-420,218,0,0,0,0,0,0,0,0,0,-1,804,806,0,0
-413,218,0,0,0,0,0,0,0,0,0,-1,811,806,0,0
-406,218,0,0,0,0,0,0,0,0,0,-1,818,806,0,0
-399,218,0,0,0,0,0,0,0,0,0,-1,825,806,0,0
-392,218,0,0,0,0,0,0,0,0,0,-1,832,806,0,0
-385,218,0,0,0,0,0,0,0,0,0,-1,839,806,0,0
-378,218,0,0,0,0,0,0,0,0,0,-1,846,806,0,0
-371,218,0,0,0,0,0,0,0,0,0,-1,853,806,0,0
-364,218,0,0,0,0,0,0,0,0,0,-1,860,806,0,0
-357,218,0,0,0,0,0,0,0,0,0,-1,867,806,0,0
-350,218,0,0,0,0,0,0,0,0,0,-1,874,806,0,0
-343,218,0,0,0,0,0,0,0,0,0,-1,881,806,0,0
-336,218,0,0,0,0,0,0,0,0,0,-1,888,806,0,0
-329,218,0,0,0,0,0,0,0,0,0,-1,895,806,0,0
-322,218,0,0,0,0,0,0,0,0,0,-1,902,806,0,0
-315,218,0,0,0,0,0,0,0,0,0,-1,909,806,0,0
-308,218,0,0,0,0,0,0,0,0,0,-1,916,806,0,0
-301,218,0,0,0,0,0,0,0,0,0,-1,923,806,0,0
-294,218,0,0,0,0,0,0,0,0,0,-1,930,806,0,0
-287,218,0,0,0,0,0,0,0,0,0,-1,937,806,0,0
-280,218,0,0,0,0,0,0,0,0,0,-1,944,806,0,0
-273,218,0,0,0,0,0,0,0,0,0,-1,951,806,0,0
-266,218,0,0,0,0,0,0,0,0,0,-1,958,806,0,0
-259,218,0,0,0,0,0,0,0,0,0,-1,965,806,0,0
-252,218,0,0,0,0,0,0,0,0,0,-1,972,806,0,0
-245,218,0,0,0,0,0,0,0,0,0,-1,979,806,0,0
-238,218,0,0,0,0,0,0,0,0,0,-1,986,806,0,0
-231,218,0,0,0,0,0,0,0,0,0,-1,993,806,0,0
-224,218,0,0,0,0,0,0,0,0,0,-1,1000,806,0,0
-217,218,0,0,0,0,0,0,0,0,0,-1,1007,806,0,0
-210,218,0,0,0,0,0,0,0,0,0,-1,1014,806,0,0
-203,218,0,0,0,0,0,0,0,0,0,-1,1021,806,0,0
-196,218,0,0,0,0,0,0,0,0,0,-1,1028,806,0,0
-189,218,0,0,0,0,0,0,0,0,0,-1,1035,806,0,0
-182,218,0,0,0,0,0,0,0,0,0,-1,1042,806,0,0
-175,218,0,0,0,0,0,0,0,0,0,-1,1049,806,0,0
-168,218,0,0,0,0,0,0,0,0,0,-1,1056,806,0,0
-161,218,0,0,0,0,0,0,0,0,0,-1,1063,806,0,0
-154,218,0,0,0,0,0,0,0,0,0,-1,1070,806,0,0
-147,218,0,0,0,0,0,0,0,0,0,-1,1077,806,0,0
-140,218,0,0,0,0,0,0,0,0,0,-1,1084,806,0,0
-133,218,0,0,0,0,0,0,0,0,0,-1,1091,806,0,0
-126,218,0,0,0,0,0,0,0,0,0,-1,1098,806,0,0
-119,218,0,0,0,0,0,0,0,0,0,-1,1105,806,0,0
-112,218,0,0,0,0,0,0,0,0,0,-1,1112,806,0,0
-105,218,0,0,0,0,0,0,0,0,0,-1,1119,806,0,0
-98,218,0,0,0,0,0,0,0,0,0,-1,1126,806,0,0
-91,218,0,0,0,0,0,0,0,0,0,-1,1133,806,0,0
-84,218,0,0,0,0,0,0,0,0,0,-1,1140,806,0,0
-77,218,0,0,0,0,0,0,0,0,0,-1,1147,806,0,0
-70,218,0,0,0,0,0,0,0,0,0,-1,1154,806,0,0
-63,218,0,0,0,0,0,0,0,0,0,-1,1161,806,0,0
-56,218,0,0,0,0,0,0,0,0,0,-1,1168,806,0,0
-49,218,0,0,0,0,0,0,0,0,0,-1,1175,806,0,0
-42,218,0,0,0,0,0,0,0,0,0,-1,1182,806,0,0
-35,218,0,0,0,0,0,0,0,0,0,-1,1189,806,0,0
-28,218,0,0,0,0,0,0,0,0,0,-1,1196,806,0,0
-21,218,0,0,0,0,0,0,0,0,0,-1,1203,806,0,0
-14,218,0,0,0,0,0,0,0,0,0,-1,1210,806,0,0
-7,218,0,0,0,0,0,0,0,0,0,-1,1217,806,0,0
0,218,0,0,0,0,0,0,0,0,0,-1,1224,806,0,0
7,218,0,0,0,0,0,0,0,0,0,-1,1231,806,0,0
14,218,0,0,0,0,0,0,0,0,0,-1,1238,806,0,0
21,218,0,0,0,0,0,0,0,0,0,-1,1245,806,0,0
28,218,0,0,0,0,0,0,0,0,0,-1,1252,806,0,0
35,218,0,0,0,0,0,0,0,0,0,-1,1259,806,0,0
42,218,0,0,0,0,0,0,0,0,0,-1,1266,806,0,0
49,218,0,0,0,0,0,0,0,0,0,-1,1273,806,0,0
56,218,0,0,0,0,0,0,0,0,0,-1,1280,806,0,0
63,218,0,0,0,0,0,0,0,0,0,-1,1287,806,0,0
70,218,0,0,0,0,0,0,0,0,0,-1,1294,806,0,0
77,218,0,0,0,0,0,0,0,0,0,-1,1301,806,0,0
84,218,0,0,0,0,0,0,0,0,0,-1,1308,806,0,0
91,218,0,0,0,0,0,0,0,0,0,-1,1315,806,0,0
98,218,0,0,0,0,0,0,0,0,0,-1,1322,806,0,0
105,218,0,0,0,0,0,0,0,0,0,-1,1329,806,0,0
112,218,0,0,0,0,0,0,0,0,0,-1,1336,806,0,0
119,218,0,0,0,0,0,0,0,0,0,-1,1343,806,0,0
126,218,0,0,0,0,0,0,0,0,0,-1,1350,806,0,0
133,218,0,0,0,0,0,0,0,0,0,-1,1357,806,0,0
140,218,0,0,0,0,0,0,0,0,0,-1,1364,806,0,0
147,218,0,0,0,0,0,0,0,0,0,-1,1371,806,0,0
154,218,0,0,0,0,0,0,0,0,0,-1,1378,806,0,0
161,218,0,0,0,0,0,0,0,0,0,-1,1385,806,0,0
168,218,0,0,0,0,0,0,0,0,0,-1,1392,806,0,0
175,218,0,0,0,0,0,0,0,0,0,-1,1399,806,0,0
182,218,0,0,0,0,0,0,0,0,0,-1,1406,806,0,0
189,218,0,0,0,0,0,0,0,0,0,-1,1413,806,0,0
196,218,0,0,0,0,0,0,0,0,0,-1,1420,806,0,0
203,218,0,0,0,0,0,0,0,0,0,-1,1427,806,0,0
210,218,0,0,0,0,0,0,0,0,0,-1,1434,806,0,0
217,218,0,0,0,0,0,0,0,0,0,-1,1441,806,0,0
224,218,0,0,0,0,0,0,0,0,0,-1,1448,806,0,0
231,218,0,0,0,0,0,0,0,0,0,-1,1455,806,0,0
238,218,0,0,0,0,0,0,0,0,0,-1,1462,806,0,0
245,218,0,0,0,0,0,0,0,0,0,-1,1469,806,0,0
252,218,0,0,0,0,0,0,0,0,0,-1,1476,806,0,0
259,218,0,0,0,0,0,0,0,0,0,-1,1483,806,0,0
266,218,0,0,0,0,0,0,0,0,0,-1,1490,806,0,0
273,218,0,0,0,0,0,0,0,0,0,-1,1497,806,0,0
280,218,0,0,0,0,0,0,0,0,0,-1,1504,806,0,0
287,218,0,0,0,0,0,0,0,0,0,-1,1511,806,0,0
294,218,0,0,0,0,0,0,0,0,0,-1,1518,806,0,0
301,218,0,0,0,0,0,0,0,0,0,-1,1525,806,0,0
308,218,0,0,0,0,0,0,0,0,0,-1,1532,806,0,0
315,218,0,0,0,0,0,0,0,0,0,-1,1539,806,0,0
322,218,0,0,0,0,0,0,0,0,0,-1,1546,806,0,0
329,218,0,0,0,0,0,0,0,0,0,-1,1553,806,0,0
336,218,0,0,0,0,0,0,0,0,0,-1,1560,806,0,0
343,218,0,0,0,0,0,0,0,0,0,-1,1567,806,0,0
350,218,0,0,0,0,0,0,0,0,0,-1,1574,806,0,0
357,218,0,0,0,0,0,0,0,0,0,-1,1581,806,0,0
364,218,0,0,0,0,0,0,0,0,0,-1,1588,806,0,0
371,218,0,0,0,0,0,0,0,0,0,-1,1595,806,0,0
378,218,0,0,0,0,0,0,0,0,0,-1,1602,806,0,0
385,218,0,0,0,0,0,0,0,0,0,-1,1609,806,0,0
392,218,0,0,0,0,0,0,0,0,0,-1,1616,806,0,0
399,218,0,0,0,0,0,0,0,0,0,-1,1623,806,0,0
406,218,0,0,0,0,0,0,0,0,0,-1,1630,806,0,0
413,218,0,0,0,0,0,0,0,0,0,-1,1637,806,0,0
420,218,0,0,0,0,0,0,0,0,0,-1,1644,806,0,0
427,218,0,0,0,0,0,0,0,0,0,-1,1651,806,0,0
434,218,0,0,0,0,0,0,0,0,0,-1,1658,806,0,0
441,218,0,0,0,0,0,0,0,0,0,-1,1665,806,0,0
448,218,0,0,0,0,0,0,0,0,0,-1,1672,806,0,0
455,218,0,0,0,0,0,0,0,0,0,-1,1679,806,0,0
462,218,0,0,0,0,0,0,0,0,0,-1,1686,806,0,0
469,218,0,0,0,0,0,0,0,0,0,-1,1693,806,0,0
476,218,0,0,0,0,0,0,0,0,0,-1,1700,806,0,0
483,218,0,0,0,0,0,0,0,0,0,-1,1707,806,0,0
490,218,0,0,0,0,0,0,0,0,0,-1,1714,806,0,0
497,218,0,0,0,0,0,0,0,0,0,-1,1721,806,0,0
504,218,0,0,0,0,0,0,0,0,0,-1,1728,806,0,0
511,218,0,0,0,0,0,0,0,0,0,-1,1735,806,0,0
518,218,0,0,0,0,0,0,0,0,0,-1,1742,806,0,0
525,218,0,0,0,0,0,0,0,0,0,-1,1749,806,0,0
532,218,0,0,0,0,0,0,0,0,0,-1,1756,806,0,0
539,218,0,0,0,0,0,0,0,0,0,-1,1763,806,0,0
546,218,0,0,0,0,0,0,0,0,0,-1,1770,806,0,0
553,218,0,0,0,0,0,0,0,0,0,-1,1777,806,0,0
560,218,0,0,0,0,0,0,0,0,0,-1,1784,806,0,0
567,218,0,0,0,0,0,0,0,0,0,-1,1791,806,0,0
574,218,0,0,0,0,0,0,0,0,0,-1,1798,806,0,0
581,218,0,0,0,0,0,0,0,0,0,-1,1805,806,0,0
588,218,0,0,0,0,0,0,0,0,0,-1,1812,806,0,0
595,218,54.9347,3.08185,0.00379675,0.00405509,0.000327379,0.00427786,0.00357398,0.973299,0.00264864,0.0384362,1819,806,54.9347,-3.08185
602,218,54.9473,3.07758,0.00422851,0.00316187,0.00143433,0.00522546,0.00216492,0.607406,0.00303165,0.0359678,1826,806,54.9473,-3.07756
609,218,54.9526,3.14435,0.00392793,0.00243622,0.00193167,0.00525274,0.00111142,0.601156,0.00319642,0.0311864,1833,806,54.9526,-3.14435
616,218,54.8766,3.06824,0.00291977,0.00171913,0.00173449,0.00415489,0.00048401,0.618796,0.00262351,0.0327133,1840,806,54.8766,-3.06822
623,218,54.8684,2.98651,0.00143772,0.0011775,0.000931032,0.00224769,0.000367533,0.715973,0.00139222,0.0382716,1847,806,54.8684,-2.98651
630,218,55.1757,2.88727,7.69902e-05,0.000929169,0.000255459,0.000999881,6.27834e-06,1.30075,0.000664504,0.0397719,1854,806,55.1756,-2.88728
637,218,54.9034,3.0083,0,0,0,0,0,0,0,-1,1861,806,54.9034,-3.0083
644,218,52.4042,2.47949,0,0,0,0,0,0,0,-1,1868,806,52.4041,-2.47949
651,218,41.7338,1.99164,0,0,0,0,0,0,0,-1,1875,806,41.7338,-1.99162
658,218,28.41,0.514954,0,0,0,0,0,0,0,-1,1882,806,28.41,-0.514983
665,218,41.2969,-0.234192,0,0,0,0,0,0,0,-1,1889,806,41.2969,0.23417
672,218,40.7853,-0.0645142,-0.004345,-0.000606863,-0.00238255,0.000552267,-0.00550413,-1.118,0.00386668,0.0269757,1896,806,40.7853,0.0645426
679,218,40.6019,0.46759,-0.00485309,-0.000979854,-0.00244868,0.000205472,-0.00603842,-1.11998,0.00409582,0.024364,1903,806,40.6019,-0.467608
686,218,40.4955,1.01752,-0.00472396,-0.00088884,-0.00256627,0.000397153,-0.00600996,-1.10626,0.00414537,0.0128084,1910,806,40.4955,-1.0175
693,218,40.4684,1.64386,-0.00329166,-0.000607915,-0.00213571,0.000572493,-0.00447206,-1.06588,0.00318938,0.0122536,1917,806,40.4684,-1.64385
700,218,40.4158,2.26984,-0.00121821,9.11344e-05,-0.00124556,0.000843592,-0.00197067,-1.02736,0.00166768,0.0103142,1924,806,40.4158,-2.26984
707,218,40.3583,2.92096,0.00117363,0.000979543,-5.4878e-05,0.00118807,0.000965101,-0.257334,0.000729177,0.00850638,1931,806,40.3583,-2.92098
714,218,40.3422,3.59314,0.00390788,0.00192069,0.00130141,0.00455163,0.00127694,0.459363,0.00271094,0.0110346,1938,806,40.3422,-3.59315
721,218,40.3624,4.2168,0.00694935,0.00286988,0.00281587,0.00838663,0.0014326,0.47195,0.00518001,0.0151607,1945,806,40.3625,-4.21677
728,218,40.3462,4.87573,0.010366,0.00393676,0.00442147,0.0126179,0.00168482,0.471074,0.00791037,0.0296548,1952,806,40.3462,-4.87571
735,218,40.5083,5.70331,0,0,0,0,0,0,0,-1,1959,806,40.5083,-5.70331
742,218,41.54,6.1452,0,0,0,0,0,0,0,-1,1966,806,41.54,-6.14517
749,218,42.0249,6.64703,0,0,0,0,0,0,0,-1,1973,806,42.0249,-6.64703
756,218,37.9641,5.3277,0,0,0,0,0,0,0,-1,1980,806,37.9641,-5.32767
763,218,39.5968,4.98688,0,0,0,0,0,0,0,-1,1987,806,39.5968,-4.98688
770,218,0,0,0,0,0,0,0,0,0,-1,1994,806,0,0
777,218,0,0,0,0,0,0,0,0,0,-1,2001,806,0,0
784,218,0,0,0,0,0,0,0,0,0,-1,2008,806,0,0
791,218,0,0,0,0,0,0,0,0,0,-1,2015,806,0,0
798,218,0,0,0,0,0,0,0,0,0,-1,2022,806,0,0
805,218,0,0,0,0,0,0,0,0,0,-1,2029,806,0,0
812,218,0,0,0,0,0,0,0,0,0,-1,2036,806,0,0
-700,211,0,0,0,0,0,0,0,0,0,-1,524,813,0,0
-693,211,0,0,0,0,0,0,0,0,0,-1,531,813,0,0
-686,211,0,0,0,0,0,0,0,0,0,-1,538,813,0,0
-679,211,0,0,0,0,0,0,0,0,0,-1,545,813,0,0
-672,211,0,0,0,0,0,0,0,0,0,-1,552,813,0,0
-665,211,0,0,0,0,0,0,0,0,0,-1,559,813,0,0
-658,211,0,0,0,0,0,0,0,0,0,-1,566,813,0,0
-651,211,-32.4163,6.39746,0,0,0,0,0,0,0,-1,573,813,-32.4163,-6.39747
-644,211,-31.1364,6.37982,0,0,0,0,0,0,0,-1,580,813,-31.1364,-6.37985
-637,211,-31.2496,6.42194,0,0,0,0,0,0,0,-1,587,813,-31.2496,-6.42195
-630,211,-26.2802,6.70776,0,0,0,0,0,0,0,-1,594,813,-26.2802,-6.70775
-623,211,-26.2827,6.96381,0,0,0,0,0,0,0,-1,601,813,-26.2827,-6.96378
-616,211,-28.653,4.07117,0,0,0,0,0,0,0,-1,608,813,-28.653,-4.07117
-609,211,-28.5824,3.47839,0.00541953,0.0129789,-0.0035516,0.0143857,0.0040127,-1.19365,0.0085719,0.0396379,615,813,-28.5824,-3.47842
-602,211,-28.6216,2.86658,0.00401291,0.00930209,-0.00275831,0.0104788,0.00283623,-1.16758,0.00625846,0.0223751,622,813,-28.6216,-2.86657
-595,211,-28.7115,2.25531,0.00274632,0.00673842,-0.00206594,0.00761506,0.00186968,-1.16949,0.00458244,0.0113839,629,813,-28.7116,-2.2553
-588,211,-28.7392,1.63177,0.00191537,0.00445304,-0.00135205,0.00503838,0.00133003,-1.16223,0.00301501,0.0114044,636,813,-28.7392,-1.63179
-581,211,-28.7635,1.02472,0.00122665,0.002837,-0.000630827,0.00305469,0.00100896,-1.23851,0.00179717,0.0118535,643,813,-28.7635,-1.02474
-574,211,-28.8037,0.426147,0.000699721,0.00144997,0.000218509,0.00150897,0.00064072,1.30707,0.0008745,0.0129764,650,813,-28.8037,-0.426148
-567,211,-28.8509,-0.196655,0.000378765,0.000191493,0.000948036,0.00123778,-0.00066752,0.736174,0.00111633,0.0198541,657,813,-28.8509,0.196633
-560,211,-28.8992,-0.816345,0.00019172,-0.0013671,0.00148797,0.00109205,-0.00226743,0.544141,0.00197877,0.0257777,664,813,-28.8992,0.816367
-553,211,-28.7547,-1.47113,-9.67635e-06,-0.00270859,0.00219645,0.00121874,-0.00393701,0.509934,0.00311152,0.0428587,671,813,-28.7547,1.47111
-546,211,-29.0547,-2.01471,-0.000109133,-0.0035847,0.00251342,0.00120876,-0.0049026,0.482932,0.00373706,0.0496823,678,813,-29.0548,2.0147
-539,211,-28.9686,-2.63184,-0.000264741,-0.00428195,0.00267618,0.00107276,-0.00561945,0.463472,0.00415036,0.0304515,685,813,-28.9686,2.63182
-532,211,-28.8726,-3.17511,0,0,0,0,0,0,0,-1,692,813,-28.8726,3.17509
-525,211,-14.3009,2.3233,0,0,0,0,0,0,0,-1,699,813,-14.3009,-2.3233
-518,211,-34.952,1.93011,0,0,0,0,0,0,0,-1,706,813,-34.952,-1.9301
-511,211,-41.8024,0.352722,0,0,0,0,0,0,0,-1,713,813,-41.8024,-0.352729
-504,211,-41.3105,0.950195,0,0,0,0,0,0,0,-1,720,813,-41.3105,-0.950179
-497,211,-41.2014,1.26312,0,0,0,0,0,0,0,-1,727,813,-41.2013,-1.26313
-490,211,-41.1817,1.2854,0.001542,-0.00365914,-2.47727e-05,0.00154212,-0.00365926,-0.00476278,0.00308482,0.0361784,734,813,-41.1817,-1.28542
-483,211,-41.2627,1.21692,0.00256659,-0.00241582,-0.0011788,0.0028314,-0.00268064,-0.220983,0.00318278,0.0339899,741,813,-41.2627,-1.21695
-476,211,-41.3234,1.18787,0.00315494,-0.00123048,-0.00178541,0.0037899,-0.00186543,-0.341684,0.00332752,0.0385685,748,813,-41.3234,-1.18786
-469,211,0,0,0,0,0,0,0,0,0,-1,755,813,0,0
-462,211,0,0,0,0,0,0,0,0,0,-1,762,813,0,0
-455,211,0,0,0,0,0,0,0,0,0,-1,769,813,0,0
-448,211,0,0,0,0,0,0,0,0,0,-1,776,813,0,0
-441,211,0,0,0,0,0,0,0,0,0,-1,783,813,0,0
-434,211,0,0,0,0,0,0,0,0,0,-1,790,813,0,0
-427,211,0,0,0,0,0,0,0,0,0,-1,797,813,0,0
-420,211,0,0,0,0,0,0,0,0,0,-1,804,813,0,0
-413,211,0,0,0,0,0,0,0,0,0,-1,811,813,0,0
-406,211,0,0,0,0,0,0,0,0,0,-1,818,813,0,0
-399,211,0,0,0,0,0,0,0,0,0,-1,825,813,0,0
-392,211,0,0,0,0,0,0,0,0,0,-1,832,813,0,0
-385,211,0,0,0,0,0,0,0,0,0,-1,839,813,0,0
-378,211,0,0,0,0,0,0,0,0,0,-1,846,813,0,0
-371,211,0,0,0,0,0,0,0,0,0,-1,853,813,0,0
-364,211,0,0,0,0,0,0,0,0,0,-1,860,813,0,0
-357,211,0,0,0,0,0,0,0,0,0,-1,867,813,0,0
-350,211,0,0,0,0,0,0,0,0,0,-1,874,813,0,0
-343,211,0,0,0,0,0,0,0,0,0,-1,881,813,0,0
-336,211,0,0,0,0,0,0,0,0,0,-1,888,813,0,0
-329,211,0,0,0,0,0,0,0,0,0,-1,895,813,0,0
-322,211,0,0,0,0,0,0,0,0,0,-1,902,813,0,0
-315,211,0,0,0,0,0,0,0,0,0,-1,909,813,0,0
-308,211,0,0,0,0,0,0,0,0,0,-1,916,813,0,0
-301,211,0,0,0,0,0,0,0,0,0,-1,923,813,0,0
-294,211,0,0,0,0,0,0,0,0,0,-1,930,813,0,0
-287,211,0,0,0,0,0,0,0,0,0,-1,937,813,0,0
-280,211,0,0,0,0,0,0,0,0,0,-1,944,813,0,0
-273,211,0,0,0,0,0,0,0,0,0,-1,951,813,0,0
-266,211,0,0,0,0,0,0,0,0,0,-1,958,813,0,0
-259,211,0,0,0,0,0,0,0,0,0,-1,965,813,0,0
-252,211,0,0,0,0,0,0,0,0,0,-1,972,813,0,0
-245,211,0,0,0,0,0,0,0,0,0,-1,979,813,0,0
-238,211,0,0,0,0,0,0,0,0,0,-1,986,813,0,0
-231,211,0,0,0,0,0,0,0,0,0,-1,993,813,0,0
-224,211,0,0,0,0,0,0,0,0,0,-1,1000,813,0,0
-217,211,0,0,0,0,0,0,0,0,0,-1,1007,813,0,0
-210,211,0,0,0,0,0,0,0,0,0,-1,1014,813,0,0
-203,211,0,0,0,0,0,0,0,0,0,-1,1021,813,0,0
-196,211,0,0,0,0,0,0,0,0,0,-1,1028,813,0,0
-189,211,0,0,0,0,0,0,0,0,0,-1,1035,813,0,0
-182,211,0,0,0,0,0,0,0,0,0,-1,1042,813,0,0
-175,211,0,0,0,0,0,0,0,0,0,-1,1049,813,0,0
-168,211,0,0,0,0,0,0,0,0,0,-1,1056,813,0,0
-161,211,0,0,0,0,0,0,0,0,0,-1,1063,813,0,0
-154,211,0,0,0,0,0,0,0,0,0,-1,1070,813,0,0
-147,211,0,0,0,0,0,0,0,0,0,-1,1077,813,0,0
-140,211,0,0,0,0,0,0,0,0,0,-1,1084,813,0,0
-133,211,0,0,0,0,0,0,0,0,0,-1,1091,813,0,0
-126,211,0,0,0,0,0,0,0,0,0,-1,1098,813,0,0
-119,211,0,0,0,0,0,0,0,0,0,-1,1105,813,0,0
-112,211,0,0,0,0,0,0,0,0,0,-1,1112,813,0,0
-105,211,0,0,0,0,0,0,0,0,0,-1,1119,813,0,0
-98,211,0,0,0,0,0,0,0,0,0,-1,1126,813,0,0
-91,211,0,0,0,0,0,0,0,0,0,-1,1133,813,0,0
-84,211,0,0,0,0,0,0,0,0,0,-1,1140,813,0,0
-77,211,0,0,0,0,0,0,0,0,0,-1,1147,813,0,0
-70,211,0,0,0,0,0,0,0,0,0,-1,1154,813,0,0
-63,211,0,0,0,0,0,0,0,0,0,-1,1161,813,0,0
-56,211,0,0,0,0,0,0,0,0,0,-1,1168,813,0,0
-49,211,0,0,0,0,0,0,0,0,0,-1,1175,813,0,0
-42,211,0,0,0,0,0,0,0,0,0,-1,1182,813,0,0
-35,211,0,0,0,0,0,0,0,0,0,-1,1189,813,0,0
-28,211,0,0,0,0,0,0,0,0,0,-1,1196,813,0,0
-21,211,0,0,0,0,0,0,0,0,0,-1,1203,813,0,0
-14,211,0,0,0,0,0,0,0,0,0,-1,1210,813,0,0
-7,211,0,0,0,0,0,0,0,0,0,-1,1217,813,0,0
0,211,0,0,0,0,0,0,0,0,0,-1,1224,813,0,0
7,211,0,0,0,0,0,0,0,0,0,-1,1231,813,0,0
14,211,0,0,0,0,0,0,0,0,0,-1,1238,813,0,0
21,211,0,0,0,0,0,0,0,0,0,-1,1245,813,0,0
28,211,0,0,0,0,0,0,0,0,0,-1,1252,813,0,0
35,211,0,0,0,0,0,0,0,0,0,-1,1259,813,0,0
42,211,0,0,0,0,0,0,0,0,0,-1,1266,813,0,0
49,211,0,0,0,0,0,0,0,0,0,-1,1273,813,0,0
56,211,0,0,0,0,0,0,0,0,0,-1,1280,813,0,0
63,211,0,0,0,0,0,0,0,0,0,-1,1287,813,0,0
70,211,0,0,0,0,0,0,0,0,0,-1,1294,813,0,0
77,211,0,0,0,0,0,0,0,0,0,-1,1301,813,0,0
84,211,0,0,0,0,0,0,0,0,0,-1,1308,813,0,0
91,211,0,0,0,0,0,0,0,0,0,-1,1315,813,0,0
98,211,0,0,0,0,0,0,0,0,0,-1,1322,813,0,0
105,211,0,0,0,0,0,0,0,0,0,-1,1329,813,0,0
112,211,0,0,0,0,0,0,0,0,0,-1,1336,813,0,0
119,211,0,0,0,0,0,0,0,0,0,-1,1343,813,0,0
126,211,0,0,0,0,0,0,0,0,0,-1,1350,813,0,0
133,211,0,0,0,0,0,0,0,0,0,-1,1357,813,0,0
140,211,0,0,0,0,0,0,0,0,0,-1,1364,813,0,0
147,211,0,0,0,0,0,0,0,0,0,-1,1371,813,0,0
154,211,0,0,0,0,0,0,0,0,0,-1,1378,813,0,0
161,211,0,0,0,0,0,0,0,0,0,-1,1385,813,0,0
168,211,0,0,0,0,0,0,0,0,0,-1,1392,813,0,0
175,211,0,0,0,0,0,0,0,0,0,-1,1399,813,0,0
182,211,0,0,0,0,0,0,0,0,0,-1,1406,813,0,0
189,211,0,0,0,0,0,0,0,0,0,-1,1413,813,0,0
196,211,0,0,0,0,0,0,0,0,0,-1,1420,813,0,0
203,211,0,0,0,0,0,0,0,0,0,-1,1427,813,0,0
210,211,0,0,0,0,0,0,0,0,0,-1,1434,813,0,0
217,211,0,0,0,0,0,0,0,0,0,-1,1441,813,0,0
224,211,0,0,0,0,0,0,0,0,0,-1,1448,813,0,0
231,211,0,0,0,0,0,0,0,0,0,-1,1455,813,0,0
238,211,0,0,0,0,0,0,0,0,0,-1,1462,813,0,0
245,211,0,0,0,0,0,0,0,0,0,-1,1469,813,0,0
252,211,0,0,0,0,0,0,0,0,0,-1,1476,813,0,0
259,211,0,0,0,0,0,0,0,0,0,-1,1483,813,0,0
266,211,0,0,0,0,0,0,0,0,0,-1,1490,813,0,0
273,211,0,0,0,0,0,0,0,0,0,-1,1497,813,0,0
280,211,0,0,0,0,0,0,0,0,0,-1,1504,813,0,0
287,211,0,0,0,0,0,0,0,0,0,-1,1511,813,0,0
294,211,0,0,0,0,0,0,0,0,0,-1,1518,813,0,0
301,211,0,0,0,0,0,0,0,0,0,-1,1525,813,0,0
308,211,0,0,0,0,0,0,0,0,0,-1,1532,813,0,0
315,211,0,0,0,0,0,0,0,0,0,-1,1539,813,0,0
322,211,0,0,0,0,0,0,0,0,0,-1,1546,813,0,0
329,211,0,0,0,0,0,0,0,0,0,-1,1553,813,0,0
336,211,0,0,0,0,0,0,0,0,0,-1,1560,813,0,0
343,211,0,0,0,0,0,0,0,0,0,-1,1567,813,0,0
350,211,0,0,0,0,0,0,0,0,0,-1,1574,813,0,0
357,211,0,0,0,0,0,0,0,0,0,-1,1581,813,0,0
364,211,0,0,0,0,0,0,0,0,0,-1,1588,813,0,0
371,211,0,0,0,0,0,0,0,0,0,-1,1595,813,0,0
378,211,0,0,0,0,0,0,0,0,0,-1,1602,813,0,0
385,211,0,0,0,0,0,0,0,0,0,-1,1609,813,0,0
392,211,0,0,0,0,0,0,0,0,0,-1,1616,813,0,0
399,211,0,0,0,0,0,0,0,0,0,-1,1623,813,0,0
406,211,0,0,0,0,0,0,0,0,0,-1,1630,813,0,0
413,211,0,0,0,0,0,0,0,0,0,-1,1637,813,0,0
420,211,0,0,0,0,0,0,0,0,0,-1,1644,813,0,0
427,211,0,0,0,0,0,0,0,0,0,-1,1651,813,0,0
434,211,0,0,0,0,0,0,0,0,0,-1,1658,813,0,0
441,211,0,0,0,0,0,0,0,0,0,-1,1665,813,0,0
448,211,0,0,0,0,0,0,0,0,0,-1,1672,813,0,0
455,211,0,0,0,0,0,0,0,0,0,-1,1679,813,0,0
462,211,0,0,0,0,0,0,0,0,0,-1,1686,813,0,0
469,211,0,0,0,0,0,0,0,0,0,-1,1693,813,0,0
476,211,0,0,0,0,0,0,0,0,0,-1,1700,813,0,0
483,211,0,0,0,0,0,0,0,0,0,-1,1707,813,0,0
490,211,0,0,0,0,0,0,0,0,0,-1,1714,813,0,0
497,211,0,0,0,0,0,0,0,0,0,-1,1721,813,0,0
504,211,0,0,0,0,0,0,0,0,0,-1,1728,813,0,0
511,211,0,0,0,0,0,0,0,0,0,-1,1735,813,0,0
518,211,0,0,0,0,0,0,0,0,0,-1,1742,813,0,0
525,211,0,0,0,0,0,0,0,0,0,-1,1749,813,0,0
532,211,0,0,0,0,0,0,0,0,0,-1,1756,813,0,0
539,211,0,0,0,0,0,0,0,0,0,-1,1763,813,0,0
546,211,0,0,0,0,0,0,0,0,0,-1,1770,813,0,0
553,211,0,0,0,0,0,0,0,0,0,-1,1777,813,0,0
560,211,0,0,0,0,0,0,0,0,0,-1,1784,813,0,0
567,211,0,0,0,0,0,0,0,0,0,-1,1791,813,0,0
574,211,0,0,0,0,0,0,0,0,0,-1,1798,813,0,0
581,211,0,0,0,0,0,0,0,0,0,-1,1805,813,0,0
588,211,0,0,0,0,0,0,0,0,0,-1,1812,813,0,0
595,211,54.9835,2.92468,0.00275729,0.00446432,-0.00103055,0.00494891,0.0022727,-1.13125,0.00286042,0.0400132,1819,813,54.9836,-2.92467
602,211,54.9364,3.0188,0.00323393,0.00369671,0.000157597,0.00374528,0.00318536,1.27184,0.00233272,0.039427,1826,813,54.9364,-3.01882
609,211,54.92,3.02954,0.00315552,0.00296688,0.000964016,0.00402982,0.00209258,0.736634,0.00232719,0.0401687,1833,813,54.92,-3.02953
616,211,54.866,3.06946,0.00248099,0.00229591,0.00121584,0.00360781,0.00116909,0.747416,0.00212553,0.0340072,1840,813,54.8659,-3.06946
623,211,54.8845,2.99377,0.00111741,0.00168474,0.000625715,0.00208808,0.000714059,0.998215,0.00122546,0.0340716,1847,813,54.8845,-2.99378
630,211,54.9362,2.9527,-0.000248664,0.00138945,2.80589e-05,0.00138993,-0.000249145,1.55367,0.00101987,0.0374958,1854,813,54.9361,-2.9527
637,211,54.8951,3.00549,-0.00130446,0.00101571,-0.000548015,0.00113864,-0.00142738,-1.35014,0.00148462,0.041881,1861,813,54.8952,-3.00551
644,211,54.8641,3.06671,0,0,0,0,0,0,0,-1,1868,813,54.8641,-3.06673
651,211,48.5043,2.95557,0,0,0,0,0,0,0,-1,1875,813,48.5043,-2.95558
658,211,27.7909,1.52234,0,0,0,0,0,0,0,-1,1882,813,27.7909,-1.52234
665,211,41.918,-0.551208,0,0,0,0,0,0,0,-1,1889,813,41.9179,0.551238
672,211,41.7136,-0.0557861,-0.0044224,-0.000469538,-0.00235275,0.00062677,-0.00551871,-1.13474,0.00390487,0.0474528,1896,813,41.7137,0.0557611
679,211,41.4132,0.4776,-0.00499705,-0.000899471,-0.00245396,0.000248532,-0.00614505,-1.13323,0.00418201,0.0305294,1903,813,41.4132,-0.477585
686,211,41.1458,1.04321,-0.00505893,-0.000971611,-0.00271581,0.000383575,-0.00641412,-1.10795,0.0044095,0.0147074,1910,813,41.1457,-1.04324
693,211,41.0824,1.65735,-0.00390313,-0.000902353,-0.00251017,0.000521656,-0.00532714,-1.05477,0.00373747,0.0129489,1917,813,41.0823,-1.65735
700,211,40.9738,2.27191,-0.00206296,-0.000352533,-0.00177555,0.000763028,-0.00317852,-1.00983,0.00241389,0.0148287,1924,813,40.9738,-2.27192
707,211,40.9863,2.97443,0.000196228,0.000457955,-0.000639221,0.00097957,-0.000325388,-0.886365,0.00078434,0.0217532,1931,813,40.9863,-2.97441
714,211,40.9983,3.64447,0.00292022,0.00136998,0.000697251,0.00318768,0.00110253,0.366281,0.00186933,0.0231127,1938,813,40.9983,-3.64448
721,211,41.0104,4.22021,0.00600573,0.00234542,0.00219698,0.00703498,0.00131617,0.438117,0.00431864,0.0186351,1945,813,41.0103,-4.22025
728,211,40.9962,4.83698,0.00941523,0.00339604,0.00377424,0.0112329,0.00157837,0.44882,0.00702186,0.0186838,1952,813,40.9962,-4.83696
735,211,41.1942,5.62952,0,0,0,0,0,0,0,-1,1959,813,41.1942,-5.62953
742,211,41.635,6.05536,0.0187765,0.00611103,0.00830456,0.0228874,0.00200014,0.459652,0.0146372,0.0487758,1966,813,41.635,-6.05536
749,211,42.0834,6.44885,0,0,0,0,0,0,0,-1,1973,813,42.0834,-6.44883
756,211,42.4518,6.71936,0,0,0,0,0,0,0,-1,1980,813,42.4518,-6.71936
763,211,39.4379,6.60083,0,0,0,0,0,0,0,-1,1987,813,39.4378,-6.60085
770,211,39.2373,7.45868,0,0,0,0,0,0,0,-1,1994,813,39.2373,-7.45868
777,211,0,0,0,0,0,0,0,0,0,-1,2001,813,0,0
784,211,0,0,0,0,0,0,0,0,0,-1,2008,813,0,0
791,211,0,0,0,0,0,0,0,0,0,-1,2015,813,0,0
798,211,0,0,0,0,0,0,0,0,0,-1,2022,813,0,0
805,211,0,0,0,0,0,0,0,0,0,-1,2029,813,0,0
812,211,0,0,0,0,0,0,0,0,0,-1,2036,813,0,0
-700,204,0,0,0,0,0,0,0,0,0,-1,524,820,0,0
-693,204,0,0,0,0,0,0,0,0,0,-1,531,820,0,0
-686,204,0,0,0,0,0,0,0,0,0,-1,538,820,0,0
-679,204,0,0,0,0,0,0,0,0,0,-1,545,820,0,0
-672,204,0,0,0,0,0,0,0,0,0,-1,552,820,0,0
-665,204,0,0,0,0,0,0,0,0,0,-1,559,820,0,0
-658,204,0,0,0,0,0,0,0,0,0,-1,566,820,0,0
-651,204,-30.8603,6.04706,0,0,0,0,0,0,0,-1,573,820,-30.8603,-6.04704
-644,204,-30.553,6.28735,0,0,0,0,0,0,0,-1,580,820,-30.5531,-6.28735
-637,204,-30.6819,7.18677,0,0,0,0,0,0,0,-1,587,820,-30.6819,-7.18676
-630,204,-26.3576,4.56836,0,0,0,0,0,0,0,-1,594,820,-26.3576,-4.56833
-623,204,-27.8553,4.75055,0,0,0,0,0,0,0,-1,601,820,-27.8554,-4.75058
-616,204,-29.4275,4.09998,0,0,0,0,0,0,0,-1,608,820,-29.4275,-4.09997
-609,204,-29.3087,3.49066,0.00637,0.0130965,-0.00195047,0.0136212,0.00584535,-1.30803,0.00789047,0.0365054,615,820,-29.3087,-3.49064
-602,204,-29.274,2.87177,0.00459553,0.00922174,-0.00149665,0.0096637,0.00415356,-1.28365,0.00559764,0.018397,622,820,-29.274,-2.87174
-595,204,-29.3373,2.25439,0.0031247,0.00642466,-0.00101272,0.00671067,0.00283869,-1.29555,0.00388969,0.0158593,629,820,-29.3373,-2.25442
-588,204,-29.361,1.64618,0.00219159,0.00398453,-0.000477035,0.00410355,0.00207257,-1.32629,0.00236923,0.0138013,636,820,-29.361,-1.64618
-581,204,-29.3874,1.03796,0.00142744,0.00236017,0.00011261,0.00237357,0.00141403,1.45233,0.00137873,0.0127896,643,820,-29.3874,-1.03798
-574,204,-29.4051,0.437866,0.000908594,0.00102167,0.00077943,0.00174661,0.000183653,0.821603,0.00110827,0.0141662,650,820,-29.4051,-0.437844
-567,204,-29.4033,-0.159302,0.000728436,-0.000125242,0.00135133,0.00171874,-0.00111555,0.632424,0.00164868,0.0154073,657,820,-29.4033,0.159307
-560,204,-29.3571,-0.818359,0.000612251,-0.00167005,0.00177618,0.00158227,-0.00264007,0.499864,0.00246314,0.0215931,664,820,-29.3571,0.818353
-553,204,-29.4734,-1.41565,0,0,0,0,0,0,0,-1,671,820,-29.4734,1.41563
-546,204,-29.6698,-1.82172,0.000319121,-0.00376039,0.0026478,0.00162173,-0.00506301,0.457196,0.0040263,0.0266529,678,820,-29.6698,1.8217
-539,204,-29.5122,-2.49042,0.000167481,-0.00448365,0.00277598,0.00146329,-0.00577945,0.43673,0.00442218,0.0491002,685,820,-29.5122,2.49043
-532,204,-29.3543,-3.44086,0,0,0,0,0,0,0,-1,692,820,-29.3543,3.44085
-525,204,-25.7137,1.52496,0,0,0,0,0,0,0,-1,699,820,-25.7137,-1.52496
-518,204,-41.8088,0.365417,0,0,0,0,0,0,0,-1,706,820,-41.8088,-0.365423
-511,204,-41.7267,0.51355,-4.60764e-05,-0.00634365,0.00241874,0.000775671,-0.0071654,0.327508,0.00505536,0.0499623,713,820,-41.7267,-0.513576
-504,204,-41.4227,0.974304,0.000149587,-0.00626408,0.00204355,0.000745366,-0.00685986,0.283679,0.00484086,0.0478146,720,820,-41.4228,-0.974295
-497,204,-41.3032,1.27283,0.00070958,-0.00561214,0.00134183,0.000982601,-0.00588516,0.200729,0.00428866,0.0386926,727,820,-41.3032,-1.27285
-490,204,-41.3189,1.26642,0.00129665,-0.00456497,0.000259471,0.00130812,-0.00457643,0.0441509,0.00356784,0.0335012,734,820,-41.3189,-1.26645
-483,204,-41.3299,1.25079,0.00227121,-0.00332201,-0.00107151,0.00246945,-0.00352025,-0.182946,0.00347585,0.0380911,741,820,-41.3299,-1.25079
-476,204,0,0,0,0,0,0,0,0,0,-1,748,820,0,0
-469,204,0,0,0,0,0,0,0,0,0,-1,755,820,0,0
-462,204,0,0,0,0,0,0,0,0,0,-1,762,820,0,0
-455,204,0,0,0,0,0,0,0,0,0,-1,769,820,0,0
-448,204,0,0,0,0,0,0,0,0,0,-1,776,820,0,0
-441,204,0,0,0,0,0,0,0,0,0,-1,783,820,0,0
-434,204,0,0,0,0,0,0,0,0,0,-1,790,820,0,0
-427,204,0,0,0,0,0,0,0,0,0,-1,797,820,0,0
-420,204,0,0,0,0,0,0,0,0,0,-1,804,820,0,0
-413,204,0,0,0,0,0,0,0,0,0,-1,811,820,0,0
-406,204,0,0,0,0,0,0,0,0,0,-1,818,820,0,0
-399,204,0,0,0,0,0,0,0,0,0,-1,825,820,0,0
-392,204,0,0,0,0,0,0,0,0,0,-1,832,820,0,0
-385,204,0,0,0,0,0,0,0,0,0,-1,839,820,0,0
-378,204,0,0,0,0,0,0,0,0,0,-1,846,820,0,0
-371,204,0,0,0,0,0,0,0,0,0,-1,853,820,0,0
-364,204,0,0,0,0,0,0,0,0,0,-1,860,820,0,0
-357,204,0,0,0,0,0,0,0,0,0,-1,867,820,0,0
-350,204,0,0,0,0,0,0,0,0,0,-1,874,820,0,0
-343,204,0,0,0,0,0,0,0,0,0,-1,881,820,0,0
-336,204,0,0,0,0,0,0,0,0,0,-1,888,820,0,0
-329,204,0,0,0,0,0,0,0,0,0,-1,895,820,0,0
-322,204,0,0,0,0,0,0,0,0,0,-1,902,820,0,0
-315,204,0,0,0,0,0,0,0,0,0,-1,909,820,0,0
-308,204,0,0,0,0,0,0,0,0,0,-1,916,820,0,0
-301,204,0,0,0,0,0,0,0,0,0,-1,923,820,0,0
-294,204,0,0,0,0,0,0,0,0,0,-1,930,820,0,0
-287,204,0,0,0,0,0,0,0,0,0,-1,937,820,0,0
-280,204,0,0,0,0,0,0,0,0,0,-1,944,820,0,0
-273,204,0,0,0,0,0,0,0,0,0,-1,951,820,0,0
-266,204,0,0,0,0,0,0,0,0,0,-1,958,820,0,0
-259,204,0,0,0,0,0,0,0,0,0,-1,965,820,0,0
-252,204,0,0,0,0,0,0,0,0,0,-1,972,820,0,0
-245,204,0,0,0,0,0,0,0,0,0,-1,979,820,0,0
-238,204,0,0,0,0,0,0,0,0,0,-1,986,820,0,0
-231,204,0,0,0,0,0,0,0,0,0,-1,993,820,0,0
-224,204,0,0,0,0,0,0,0,0,0,-1,1000,820,0,0
-217,204,0,0,0,0,0,0,0,0,0,-1,1007,820,0,0
-210,204,0,0,0,0,0,0,0,0,0,-1,1014,820,0,0
-203,204,0,0,0,0,0,0,0,0,0,-1,1021,820,0,0
-196,204,0,0,0,0,0,0,0,0,0,-1,1028,820,0,0
-189,204,0,0,0,0,0,0,0,0,0,-1,1035,820,0,0
-182,204,0,0,0,0,0,0,0,0,0,-1,1042,820,0,0
-175,204,0,0,0,0,0,0,0,0,0,-1,1049,820,0,0
-168,204,0,0,0,0,0,0,0,0,0,-1,1056,820,0,0
-161,204,0,0,0,0,0,0,0,0,0,-1,1063,820,0,0
-154,204,0,0,0,0,0,0,0,0,0,-1,1070,820,0,0
-147,204,0,0,0,0,0,0,0,0,0,-1,1077,820,0,0
-140,204,0,0,0,0,0,0,0,0,0,-1,1084,820,0,0
-133,204,0,0,0,0,0,0,0,0,0,-1,1091,820,0,0
-126,204,0,0,0,0,0,0,0,0,0,-1,1098,820,0,0
-119,204,0,0,0,0,0,0,0,0,0,-1,1105,820,0,0
-112,204,0,0,0,0,0,0,0,0,0,-1,1112,820,0,0
-105,204,0,0,0,0,0,0,0,0,0,-1,1119,820,0,0
-98,204,0,0,0,0,0,0,0,0,0,-1,1126,820,0,0
-91,204,0,0,0,0,0,0,0,0,0,-1,1133,820,0,0
-84,204,0,0,0,0,0,0,0,0,0,-1,1140,820,0,0
-77,204,0,0,0,0,0,0,0,0,0,-1,1147,820,0,0
-70,204,0,0,0,0,0,0,0,0,0,-1,1154,820,0,0
-63,204,0,0,0,0,0,0,0,0,0,-1,1161,820,0,0
-56,204,0,0,0,0,0,0,0,0,0,-1,1168,820,0,0
-49,204,0,0,0,0,0,0,0,0,0,-1,1175,820,0,0
-42,204,0,0,0,0,0,0,0,0,0,-1,1182,820,0,0
-35,204,0,0,0,0,0,0,0,0,0,-1,1189,820,0,0
-28,204,0,0,0,0,0,0,0,0,0,-1,1196,820,0,0
-21,204,0,0,0,0,0,0,0,0,0,-1,1203,820,0,0
-14,204,0,0,0,0,0,0,0,0,0,-1,1210,820,0,0
-7,204,0,0,0,0,0,0,0,0,0,-1,1217,820,0,0
0,204,0,0,0,0,0,0,0,0,0,-1,1224,820,0,0
7,204,0,0,0,0,0,0,0,0,0,-1,1231,820,0,0
14,204,0,0,0,0,0,0,0,0,0,-1,1238,820,0,0
21,204,0,0,0,0,0,0,0,0,0,-1,1245,820,0,0
28,204,0,0,0,0,0,0,0,0,0,-1,1252,820,0,0
35,204,0,0,0,0,0,0,0,0,0,-1,1259,820,0,0
42,204,0,0,0,0,0,0,0,0,0,-1,1266,820,0,0
49,204,0,0,0,0,0,0,0,0,0,-1,1273,820,0,0
56,204,0,0,0,0,0,0,0,0,0,-1,1280,820,0,0
63,204,0,0,0,0,0,0,0,0,0,-1,1287,820,0,0
70,204,0,0,0,0,0,0,0,0,0,-1,1294,820,0,0
77,204,0,0,0,0,0,0,0,0,0,-1,1301,820,0,0
84,204,0,0,0,0,0,0,0,0,0,-1,1308,820,0,0
91,204,0,0,0,0,0,0,0,0,0,-1,1315,820,0,0
98,204,0,0,0,0,0,0,0,0,0,-1,1322,820,0,0
105,204,0,0,0,0,0,0,0,0,0,-1,1329,820,0,0
112,204,0,0,0,0,0,0,0,0,0,-1,1336,820,0,0
119,204,0,0,0,0,0,0,0,0,0,-1,1343,820,0,0
126,204,0,0,0,0,0,0,0,0,0,-1,1350,820,0,0
133,204,0,0,0,0,0,0,0,0,0,-1,1357,820,0,0
140,204,0,0,0,0,0,0,0,0,0,-1,1364,820,0,0
147,204,0,0,0,0,0,0,0,0,0,-1,1371,820,0,0
154,204,0,0,0,0,0,0,0,0,0,-1,1378,820,0,0
161,204,0,0,0,0,0,0,0,0,0,-1,1385,820,0,0
168,204,0,0,0,0,0,0,0,0,0,-1,1392,820,0,0
175,204,0,0,0,0,0,0,0,0,0,-1,1399,820,0,0
182,204,0,0,0,0,0,0,0,0,0,-1,1406,820,0,0
189,204,0,0,0,0,0,0,0,0,0,-1,1413,820,0,0
196,204,0,0,0,0,0,0,0,0,0,-1,1420,820,0,0
203,204,0,0,0,0,0,0,0,0,0,-1,1427,820,0,0
210,204,0,0,0,0,0,0,0,0,0,-1,1434,820,0,0
217,204,0,0,0,0,0,0,0,0,0,-1,1441,820,0,0
224,204,0,0,0,0,0,0,0,0,0,-1,1448,820,0,0
231,204,0,0,0,0,0,0,0,0,0,-1,1455,820,0,0
238,204,0,0,0,0,0,0,0,0,0,-1,1462,820,0,0
245,204,0,0,0,0,0,0,0,0,0,-1,1469,820,0,0
252,204,0,0,0,0,0,0,0,0,0,-1,1476,820,0,0
259,204,0,0,0,0,0,0,0,0,0,-1,1483,820,0,0
266,204,0,0,0,0,0,0,0,0,0,-1,1490,820,0,0
273,204,0,0,0,0,0,0,0,0,0,-1,1497,820,0,0
280,204,0,0,0,0,0,0,0,0,0,-1,1504,820,0,0
287,204,0,0,0,0,0,0,0,0,0,-1,1511,820,0,0
294,204,0,0,0,0,0,0,0,0,0,-1,1518,820,0,0
301,204,0,0,0,0,0,0,0,0,0,-1,1525,820,0,0
308,204,0,0,0,0,0,0,0,0,0,-1,1532,820,0,0
315,204,0,0,0,0,0,0,0,0,0,-1,1539,820,0,0
322,204,0,0,0,0,0,0,0,0,0,-1,1546,820,0,0
329,204,0,0,0,0,0,0,0,0,0,-1,1553,820,0,0
336,204,0,0,0,0,0,0,0,0,0,-1,1560,820,0,0
343,204,0,0,0,0,0,0,0,0,0,-1,1567,820,0,0
350,204,0,0,0,0,0,0,0,0,0,-1,1574,820,0,0
357,204,0,0,0,0,0,0,0,0,0,-1,1581,820,0,0
364,204,0,0,0,0,0,0,0,0,0,-1,1588,820,0,0
371,204,0,0,0,0,0,0,0,0,0,-1,1595,820,0,0
378,204,0,0,0,0,0,0,0,0,0,-1,1602,820,0,0
385,204,0,0,0,0,0,0,0,0,0,-1,1609,820,0,0
392,204,0,0,0,0,0,0,0,0,0,-1,1616,820,0,0
399,204,0,0,0,0,0,0,0,0,0,-1,1623,820,0,0
406,204,0,0,0,0,0,0,0,0,0,-1,1630,820,0,0
413,204,0,0,0,0,0,0,0,0,0,-1,1637,820,0,0
420,204,0,0,0,0,0,0,0,0,0,-1,1644,820,0,0
427,204,0,0,0,0,0,0,0,0,0,-1,1651,820,0,0
434,204,0,0,0,0,0,0,0,0,0,-1,1658,820,0,0
441,204,0,0,0,0,0,0,0,0,0,-1,1665,820,0,0
448,204,0,0,0,0,0,0,0,0,0,-1,1672,820,0,0
455,204,0,0,0,0,0,0,0,0,0,-1,1679,820,0,0
462,204,0,0,0,0,0,0,0,0,0,-1,1686,820,0,0
469,204,0,0,0,0,0,0,0,0,0,-1,1693,820,0,0
476,204,0,0,0,0,0,0,0,0,0,-1,1700,820,0,0
483,204,0,0,0,0,0,0,0,0,0,-1,1707,820,0,0
490,204,0,0,0,0,0,0,0,0,0,-1,1714,820,0,0
497,204,0,0,0,0,0,0,0,0,0,-1,1721,820,0,0
504,204,0,0,0,0,0,0,0,0,0,-1,1728,820,0,0
511,204,0,0,0,0,0,0,0,0,0,-1,1735,820,0,0
518,204,0,0,0,0,0,0,0,0,0,-1,1742,820,0,0
525,204,0,0,0,0,0,0,0,0,0,-1,1749,820,0,0
532,204,0,0,0,0,0,0,0,0,0,-1,1756,820,0,0
539,204,0,0,0,0,0,0,0,0,0,-1,1763,820,0,0
546,204,0,0,0,0,0,0,0,0,0,-1,1770,820,0,0
553,204,0,0,0,0,0,0,0,0,0,-1,1777,820,0,0
560,204,0,0,0,0,0,0,0,0,0,-1,1784,820,0,0
567,204,0,0,0,0,0,0,0,0,0,-1,1791,820,0,0
574,204,0,0,0,0,0,0,0,0,0,-1,1798,820,0,0
581,204,0,0,0,0,0,0,0,0,0,-1,1805,820,0,0
588,204,0,0,0,0,0,0,0,0,0,-1,1812,820,0,0
595,204,0,0,0,0,0,0,0,0,0,-1,1819,820,0,0
602,204,54.963,2.92242,0.00273894,0.00425215,-0.00119601,0.00491078,0.00208031,-1.06742,0.00284625,0.0406407,1826,820,54.963,-2.92245
609,204,54.9094,2.92487,0.0024107,0.00342439,-0.000296275,0.00350463,0.00233046,-1.30631,0.00205978,0.0439108,1833,820,54.9095,-2.92485
616,204,54.8699,2.94751,0.00185981,0.00276543,0.000369692,0.00289718,0.00172806,1.22845,0.00168303,0.0397235,1840,820,54.8698,-2.9475
623,204,54.873,2.96558,0.000650422,0.00205559,0.000121971,0.0020661,0.000639913,1.48485,0.00122132,0.0308488,1847,820,54.873,-2.9656
630,204,54.9137,2.95569,-0.000673273,0.001684,-0.000323375,0.00172756,-0.000716829,-1.43691,0.00145092,0.0304103,1854,820,54.9137,-2.9557
637,204,54.8978,2.95728,-0.00171213,0.00124039,-0.000851031,0.00146812,-0.00193986,-1.30932,0.00197387,0.0356739,1861,820,54.8978,-2.95728
644,204,54.8567,3.05518,0,0,0,0,0,0,0,-1,1868,820,54.8567,-3.05516
651,204,53.7611,2.32251,0,0,0,0,0,0,0,-1,1875,820,53.7611,-2.32249
658,204,34.9631,1.64844,0,0,0,0,0,0,0,-1,1882,820,34.9631,-1.64842
665,204,21.8292,1.51099,0,0,0,0,0,0,0,-1,1889,820,21.8292,-1.51099
672,204,42.5403,-0.119812,0,0,0,0,0,0,0,-1,1896,820,42.5402,0.119791
679,204,41.8933,0.379761,-0.00504941,-0.000949438,-0.00243996,0.0001874,-0.00618625,-1.13478,0.00418803,0.0399706,1903,820,41.8933,-0.37974
686,204,41.7886,1.0506,-0.00519999,-0.00114564,-0.00280345,0.000286777,-0.00663241,-1.09843,0.00452023,0.0203332,1910,820,41.7886,-1.05059
693,204,41.6377,1.69153,-0.00428786,-0.00123271,-0.00282042,0.000447246,-0.00596782,-1.03359,0.00413569,0.0170347,1917,820,41.6377,-1.69153
700,204,41.653,2.33014,-0.00275521,-0.000835114,-0.00231128,0.00070758,-0.0042979,-0.982243,0.00312792,0.0179274,1924,820,41.653,-2.33015
707,204,41.6447,2.99945,-0.000727406,-9.65429e-05,-0.00128051,0.00090681,-0.00173076,-0.906161,0.00154737,0.0170032,1931,820,41.6446,-2.99944
714,204,41.6583,3.65833,0.00190227,0.000823773,5.03987e-05,0.00190462,0.000821423,0.0465953,0.00110309,0.0260613,1938,820,41.6583,-3.65834
721,204,41.6565,4.20673,0.00496379,0.00187162,0.00157906,0.00562764,0.00120777,0.397974,0.00342099,0.022386,1945,820,41.6565,-4.20672
728,204,41.5831,4.85272,0.00832163,0.0029601,0.0032091,0.00982235,0.00145938,0.43743,0.00612005,0.01368,1952,820,41.5831,-4.85274
735,204,41.5129,5.49365,0.0121532,0.00427102,0.00516048,0.0147054,0.00171881,0.459292,0.00928383,0.015947,1959,820,41.5129,-5.49368
742,204,41.5706,6.05487,0.0169886,0.00562451,0.00752765,0.0207379,0.00187516,0.462108,0.0132446,0.031384,1966,820,41.5706,-6.05486
749,204,41.5701,6.98846,0,0,0,0,0,0,0,-1,1973,820,41.5701,-6.98844
756,204,40.6648,6.79272,0,0,0,0,0,0,0,-1,1980,820,40.6648,-6.79274
763,204,39.8257,7.0863,0,0,0,0,0,0,0,-1,1987,820,39.8256,-7.0863
770,204,39.7449,7.36835,0,0,0,0,0,0,0,-1,1994,820,39.7449,-7.36834
777,204,0,0,0,0,0,0,0,0,0,-1,2001,820,0,0
784,204,0,0,0,0,0,0,0,0,0,-1,2008,820,0,0
791,204,0,0,0,0,0,0,0,0,0,-1,2015,820,0,0
798,204,0,0,0,0,0,0,0,0,0,-1,2022,820,0,0
805,204,0,0,0,0,0,0,0,0,0,-1,2029,820,0,0
812,204,0,0,0,0,0,0,0,0,0,-1,2036,820,0,0
-700,197,0,0,0,0,0,0,0,0,0,-1,524,827,0,0
-693,197,0,0,0,0,0,0,0,0,0,-1,531,827,0,0
-686,197,0,0,0,0,0,0,0,0,0,-1,538,827,0,0
-679,197,0,0,0,0,0,0,0,0,0,-1,545,827,0,0
-672,197,0,0,0,0,0,0,0,0,0,-1,552,827,0,0
-665,197,0,0,0,0,0,0,0,0,0,-1,559,827,0,0
-658,197,-34.5739,5.17334,0,0,0,0,0,0,0,-1,566,827,-34.5738,-5.17337
-651,197,-34.4095,4.15332,0,0,0,0,0,0,0,-1,573,827,-34.4096,-4.15333
-644,197,-35.0823,3.64722,0,0,0,0,0,0,0,-1,580,827,-35.0823,-3.6472
-637,197,-27.6712,4.42389,0,0,0,0,0,0,0,-1,587,827,-27.6712,-4.42386
-630,197,-27.0933,4.53906,0,0,0,0,0,0,0,-1,594,827,-27.0933,-4.53909
-623,197,-29.9208,4.73871,0,0,0,0,0,0,0,-1,601,827,-29.9208,-4.73869
-616,197,-29.8867,4.10791,0.00945574,0.0188563,-0.00076328,0.0189179,0.00939417,-1.4903,0.0109223,0.0494554,608,827,-29.8867,-4.10793
-609,197,-29.864,3.47278,0.00661726,0.0130454,-0.00068173,0.0131169,0.00654576,-1.46629,0.00757307,0.0357124,615,827,-29.864,-3.47277
-602,197,-29.8929,2.84485,0.00466809,0.00904877,-0.000414778,0.00908769,0.00462916,-1.47722,0.00524709,0.0197656,622,827,-29.8929,-2.84488
-595,197,-29.9571,2.29236,0.00316157,0.00612573,-1.3917e-05,0.0061258,0.0031615,-1.5661,0.00353734,0.0194283,629,827,-29.9571,-2.29234
-588,197,-29.9781,1.66327,0.00224177,0.00363534,0.000440577,0.00376295,0.00211417,1.28888,0.00217807,0.0207162,636,827,-29.9781,-1.66328
-581,197,-29.9984,1.06079,0.00150451,0.00210789,0.000959385,0.0028119,0.0008005,0.937734,0.00167288,0.0118474,643,827,-29.9984,-1.06082
-574,197,-30.006,0.455566,0.00109566,0.000936972,0.00149958,0.00251799,-0.000485357,0.758967,0.00186166,0.013406,650,827,-30.006,-0.45555
-567,197,-29.9591,-0.121765,0.00105595,-6.85444e-05,0.00192163,0.0024959,-0.0015085,0.643077,0.00233525,0.017218,657,827,-29.9591,0.121782
-560,197,-29.9025,-0.737244,0.000984718,-0.00155052,0.00223453,0.00228614,-0.00285195,0.527389,0.00297247,0.0298888,664,827,-29.9025,0.737251
-553,197,-30.3624,-1.17395,0.000815483,-0.00271927,0.00270105,0.002276,-0.00417979,0.495691,0.00378088,0.0281779,671,827,-30.3624,1.17392
-546,197,-30.3011,-1.67883,0.000766809,-0.0034914,0.00289067,0.00222784,-0.00495243,0.467981,0.00424385,0.0448358,678,827,-30.3012,1.67884
-539,197,-29.9987,-2.21924,0,0,0,0,0,0,0,-1,685,827,-29.9987,2.21924
-532,197,-16.0519,0.0410156,0,0,0,0,0,0,0,-1,692,827,-16.0519,-0.0410415
-525,197,-35.3785,2.11829,0,0,0,0,0,0,0,-1,699,827,-35.3785,-2.11826
-518,197,-41.3226,0.995728,0,0,0,0,0,0,0,-1,706,827,-41.3226,-0.995719
-511,197,-41.4541,0.900513,0.000153888,-0.00662788,0.00275759,0.00113364,-0.00760762,0.341381,0.00548879,0.0455826,713,827,-41.4541,-0.900525
-504,197,-41.4905,0.993591,0.000241825,-0.0066727,0.00241296,0.00100061,-0.00743148,0.304671,0.00531932,0.0418952,720,827,-41.4905,-0.99358
-497,197,-41.4371,1.15509,0.000657585,-0.00603037,0.00169183,0.0010612,-0.00643399,0.234191,0.00468331,0.0393267,727,827,-41.437,-1.15511
-490,197,-41.3984,1.25171,0.00116823,-0.0050003,0.000541077,0.00121534,-0.00504741,0.086832,0.00383479,0.0366425,734,827,-41.3984,-1.25173
-483,197,-41.2877,1.40771,0.00227269,-0.00368588,-0.00109858,0.00246878,-0.00388197,-0.176635,0.00369674,0.0392349,741,827,-41.2877,-1.40773
-476,197,0,0,0,0,0,0,0,0,0,-1,748,827,0,0
-469,197,0,0,0,0,0,0,0,0,0,-1,755,827,0,0
-462,197,0,0,0,0,0,0,0,0,0,-1,762,827,0,0
-455,197,0,0,0,0,0,0,0,0,0,-1,769,827,0,0
-448,197,0,0,0,0,0,0,0,0,0,-1,776,827,0,0
-441,197,0,0,0,0,0,0,0,0,0,-1,783,827,0,0
-434,197,0,0,0,0,0,0,0,0,0,-1,790,827,0,0
-427,197,0,0,0,0,0,0,0,0,0,-1,797,827,0,0
-420,197,0,0,0,0,0,0,0,0,0,-1,804,827,0,0
-413,197,0,0,0,0,0,0,0,0,0,-1,811,827,0,0
-406,197,0,0,0,0,0,0,0,0,0,-1,818,827,0,0
-399,197,0,0,0,0,0,0,0,0,0,-1,825,827,0,0
-392,197,0,0,0,0,0,0,0,0,0,-1,832,827,0,0
-385,197,0,0,0,0,0,0,0,0,0,-1,839,827,0,0
-378,197,0,0,0,0,0,0,0,0,0,-1,846,827,0,0
-371,197,0,0,0,0,0,0,0,0,0,-1,853,827,0,0
-364,197,0,0,0,0,0,0,0,0,0,-1,860,827,0,0
-357,197,0,0,0,0,0,0,0,0,0,-1,867,827,0,0
-350,197,0,0,0,0,0,0,0,0,0,-1,874,827,0,0
-343,197,0,0,0,0,0,0,0,0,0,-1,881,827,0,0
-336,197,0,0,0,0,0,0,0,0,0,-1,888,827,0,0
-329,197,0,0,0,0,0,0,0,0,0,-1,895,827,0,0
-322,197,0,0,0,0,0,0,0,0,0,-1,902,827,0,0
-315,197,0,0,0,0,0,0,0,0,0,-1,909,827,0,0
-308,197,0,0,0,0,0,0,0,0,0,-1,916,827,0,0
-301,197,0,0,0,0,0,0,0,0,0,-1,923,827,0,0
-294,197,0,0,0,0,0,0,0,0,0,-1,930,827,0,0
-287,197,0,0,0,0,0,0,0,0,0,-1,937,827,0,0
-280,197,0,0,0,0,0,0,0,0,0,-1,944,827,0,0
-273,197,0,0,0,0,0,0,0,0,0,-1,951,827,0,0
-266,197,0,0,0,0,0,0,0,0,0,-1,958,827,0,0
-259,197,0,0,0,0,0,0,0,0,0,-1,965,827,0,0
-252,197,0,0,0,0,0,0,0,0,0,-1,972,827,0,0
-245,197,0,0,0,0,0,0,0,0,0,-1,979,827,0,0
-238,197,0,0,0,0,0,0,0,0,0,-1,986,827,0,0
-231,197,0,0,0,0,0,0,0,0,0,-1,993,827,0,0
-224,197,0,0,0,0,0,0,0,0,0,-1,1000,827,0,0
-217,197,0,0,0,0,0,0,0,0,0,-1,1007,827,0,0
-210,197,0,0,0,0,0,0,0,0,0,-1,1014,827,0,0
-203,197,0,0,0,0,0,0,0,0,0,-1,1021,827,0,0
-196,197,0,0,0,0,0,0,0,0,0,-1,1028,827,0,0
-189,197,0,0,0,0,0,0,0,0,0,-1,1035,827,0,0
-182,197,0,0,0,0,0,0,0,0,0,-1,1042,827,0,0
-175,197,0,0,0,0,0,0,0,0,0,-1,1049,827,0,0
-168,197,0,0,0,0,0,0,0,0,0,-1,1056,827,0,0
-161,197,0,0,0,0,0,0,0,0,0,-1,1063,827,0,0
-154,197,0,0,0,0,0,0,0,0,0,-1,1070,827,0,0
-147,197,0,0,0,0,0,0,0,0,0,-1,1077,827,0,0
-140,197,0,0,0,0,0,0,0,0,0,-1,1084,827,0,0
-133,197,0,0,0,0,0,0,0,0,0,-1,1091,827,0,0
-126,197,0,0,0,0,0,0,0,0,0,-1,1098,827,0,0
-119,197,0,0,0,0,0,0,0,0,0,-1,1105,827,0,0
-112,197,0,0,0,0,0,0,0,0,0,-1,1112,827,0,0
-105,197,0,0,0,0,0,0,0,0,0,-1,1119,827,0,0
-98,197,0,0,0,0,0,0,0,0,0,-1,1126,827,0,0
-91,197,0,0,0,0,0,0,0,0,0,-1,1133,827,0,0
-84,197,0,0,0,0,0,0,0,0,0,-1,1140,827,0,0
-77,197,0,0,0,0,0,0,0,0,0,-1,1147,827,0,0
-70,197,0,0,0,0,0,0,0,0,0,-1,1154,827,0,0
-63,197,0,0,0,0,0,0,0,0,0,-1,1161,827,0,0
-56,197,0,0,0,0,0,0,0,0,0,-1,1168,827,0,0
-49,197,0,0,0,0,0,0,0,0,0,-1,1175,827,0,0
-42,197,0,0,0,0,0,0,0,0,0,-1,1182,827,0,0
-35,197,0,0,0,0,0,0,0,0,0,-1,1189,827,0,0
-28,197,0,0,0,0,0,0,0,0,0,-1,1196,827,0,0
-21,197,0,0,0,0,0,0,0,0,0,-1,1203,827,0,0
-14,197,0,0,0,0,0,0,0,0,0,-1,1210,827,0,0
-7,197,0,0,0,0,0,0,0,0,0,-1,1217,827,0,0
0,197,0,0,0,0,0,0,0,0,0,-1,1224,827,0,0
7,197,0,0,0,0,0,0,0,0,0,-1,1231,827,0,0
14,197,0,0,0,0,0,0,0,0,0,-1,1238,827,0,0
21,197,0,0,0,0,0,0,0,0,0,-1,1245,827,0,0
28,197,0,0,0,0,0,0,0,0,0,-1,1252,827,0,0
35,197,0,0,0,0,0,0,0,0,0,-1,1259,827,0,0
42,197,0,0,0,0,0,0,0,0,0,-1,1266,827,0,0
49,197,0,0,0,0,0,0,0,0,0,-1,1273,827,0,0
56,197,0,0,0,0,0,0,0,0,0,-1,1280,827,0,0
63,197,0,0,0,0,0,0,0,0,0,-1,1287,827,0,0
70,197,0,0,0,0,0,0,0,0,0,-1,1294,827,0,0
77,197,0,0,0,0,0,0,0,0,0,-1,1301,827,0,0
84,197,0,0,0,0,0,0,0,0,0,-1,1308,827,0,0
91,197,0,0,0,0,0,0,0,0,0,-1,1315,827,0,0
98,197,0,0,0,0,0,0,0,0,0,-1,1322,827,0,0
105,197,0,0,0,0,0,0,0,0,0,-1,1329,827,0,0
112,197,0,0,0,0,0,0,0,0,0,-1,1336,827,0,0
119,197,0,0,0,0,0,0,0,0,0,-1,1343,827,0,0
126,197,0,0,0,0,0,0,0,0,0,-1,1350,827,0,0
133,197,0,0,0,0,0,0,0,0,0,-1,1357,827,0,0
140,197,0,0,0,0,0,0,0,0,0,-1,1364,827,0,0
147,197,0,0,0,0,0,0,0,0,0,-1,1371,827,0,0
154,197,0,0,0,0,0,0,0,0,0,-1,1378,827,0,0
161,197,0,0,0,0,0,0,0,0,0,-1,1385,827,0,0
168,197,0,0,0,0,0,0,0,0,0,-1,1392,827,0,0
175,197,0,0,0,0,0,0,0,0,0,-1,1399,827,0,0
182,197,0,0,0,0,0,0,0,0,0,-1,1406,827,0,0
189,197,0,0,0,0,0,0,0,0,0,-1,1413,827,0,0
196,197,0,0,0,0,0,0,0,0,0,-1,1420,827,0,0
203,197,0,0,0,0,0,0,0,0,0,-1,1427,827,0,0
210,197,0,0,0,0,0,0,0,0,0,-1,1434,827,0,0
217,197,0,0,0,0,0,0,0,0,0,-1,1441,827,0,0
224,197,0,0,0,0,0,0,0,0,0,-1,1448,827,0,0
231,197,0,0,0,0,0,0,0,0,0,-1,1455,827,0,0
238,197,0,0,0,0,0,0,0,0,0,-1,1462,827,0,0
245,197,0,0,0,0,0,0,0,0,0,-1,1469,827,0,0
252,197,0,0,0,0,0,0,0,0,0,-1,1476,827,0,0
259,197,0,0,0,0,0,0,0,0,0,-1,1483,827,0,0
266,197,0,0,0,0,0,0,0,0,0,-1,1490,827,0,0
273,197,0,0,0,0,0,0,0,0,0,-1,1497,827,0,0
280,197,0,0,0,0,0,0,0,0,0,-1,1504,827,0,0
287,197,0,0,0,0,0,0,0,0,0,-1,1511,827,0,0
294,197,0,0,0,0,0,0,0,0,0,-1,1518,827,0,0
301,197,0,0,0,0,0,0,0,0,0,-1,1525,827,0,0
308,197,0,0,0,0,0,0,0,0,0,-1,1532,827,0,0
315,197,0,0,0,0,0,0,0,0,0,-1,1539,827,0,0
322,197,0,0,0,0,0,0,0,0,0,-1,1546,827,0,0
329,197,0,0,0,0,0,0,0,0,0,-1,1553,827,0,0
336,197,0,0,0,0,0,0,0,0,0,-1,1560,827,0,0
343,197,0,0,0,0,0,0,0,0,0,-1,1567,827,0,0
350,197,0,0,0,0,0,0,0,0,0,-1,1574,827,0,0
357,197,0,0,0,0,0,0,0,0,0,-1,1581,827,0,0
364,197,0,0,0,0,0,0,0,0,0,-1,1588,827,0,0
371,197,0,0,0,0,0,0,0,0,0,-1,1595,827,0,0
378,197,0,0,0,0,0,0,0,0,0,-1,1602,827,0,0
385,197,0,0,0,0,0,0,0,0,0,-1,1609,827,0,0
392,197,0,0,0,0,0,0,0,0,0,-1,1616,827,0,0
399,197,0,0,0,0,0,0,0,0,0,-1,1623,827,0,0
406,197,0,0,0,0,0,0,0,0,0,-1,1630,827,0,0
413,197,0,0,0,0,0,0,0,0,0,-1,1637,827,0,0
420,197,0,0,0,0,0,0,0,0,0,-1,1644,827,0,0
427,197,0,0,0,0,0,0,0,0,0,-1,1651,827,0,0
434,197,0,0,0,0,0,0,0,0,0,-1,1658,827,0,0
441,197,0,0,0,0,0,0,0,0,0,-1,1665,827,0,0
448,197,0,0,0,0,0,0,0,0,0,-1,1672,827,0,0
455,197,0,0,0,0,0,0,0,0,0,-1,1679,827,0,0
462,197,0,0,0,0,0,0,0,0,0,-1,1686,827,0,0
469,197,0,0,0,0,0,0,0,0,0,-1,1693,827,0,0
476,197,0,0,0,0,0,0,0,0,0,-1,1700,827,0,0
483,197,0,0,0,0,0,0,0,0,0,-1,1707,827,0,0
490,197,0,0,0,0,0,0,0,0,0,-1,1714,827,0,0
497,197,0,0,0,0,0,0,0,0,0,-1,1721,827,0,0
504,197,0,0,0,0,0,0,0,0,0,-1,1728,827,0,0
511,197,0,0,0,0,0,0,0,0,0,-1,1735,827,0,0
518,197,0,0,0,0,0,0,0,0,0,-1,1742,827,0,0
525,197,0,0,0,0,0,0,0,0,0,-1,1749,827,0,0
532,197,0,0,0,0,0,0,0,0,0,-1,1756,827,0,0
539,197,0,0,0,0,0,0,0,0,0,-1,1763,827,0,0
546,197,0,0,0,0,0,0,0,0,0,-1,1770,827,0,0
553,197,0,0,0,0,0,0,0,0,0,-1,1777,827,0,0
560,197,0,0,0,0,0,0,0,0,0,-1,1784,827,0,0
567,197,0,0,0,0,0,0,0,0,0,-1,1791,827,0,0
574,197,0,0,0,0,0,0,0,0,0,-1,1798,827,0,0
581,197,0,0,0,0,0,0,0,0,0,-1,1805,827,0,0
588,197,0,0,0,0,0,0,0,0,0,-1,1812,827,0,0
595,197,0,0,0,0,0,0,0,0,0,-1,1819,827,0,0
602,197,54.9082,2.94659,0.00258494,0.00399947,-0.00230147,0.0056999,0.000884506,-0.934473,0.00354211,0.0413027,1826,827,54.9083,-2.94661
609,197,54.8853,2.87128,0.00204176,0.00330728,-0.00142139,0.00423039,0.00111865,-0.994812,0.00253116,0.0431005,1833,827,54.8853,-2.87128
616,197,54.9109,2.88202,0.00153116,0.0028675,-0.000504112,0.00303633,0.00136232,-1.24762,0.0017561,0.039595,1840,827,54.9109,-2.88201
623,197,54.8704,2.88788,0.000476777,0.00217434,-0.000354427,0.00224537,0.000405749,-1.37302,0.00138167,0.0362955,1847,827,54.8703,-2.88791
630,197,54.963,2.86877,-0.000829103,0.00171484,-0.000590474,0.00184521,-0.000959476,-1.35349,0.00164598,0.0335115,1854,827,54.963,-2.86878
637,197,54.9534,2.90106,-0.00188396,0.00118417,-0.00103165,0.00149879,-0.00219859,-1.27478,0.00214739,0.0298225,1861,827,54.9534,-2.90109
644,197,54.8895,3.00671,-0.00270244,0.000654364,-0.00140001,0.00116161,-0.00320968,-1.22319,0.00261447,0.0336618,1868,827,54.8896,-3.0067
651,197,54.8735,3.0946,0,0,0,0,0,0,0,-1,1875,827,54.8735,-3.09462
658,197,40.4694,3.05927,0,0,0,0,0,0,0,-1,1882,827,40.4694,-3.05926
665,197,14.0618,1.80304,0,0,0,0,0,0,0,-1,1889,827,14.0617,-1.80303
672,197,40.0977,-0.62207,0,0,0,0,0,0,0,-1,1896,827,40.0977,0.6221
679,197,42.3103,0.408142,0,0,0,0,0,0,0,-1,1903,827,42.3103,-0.408144
686,197,42.4106,1.12384,-0.00505349,-0.00139696,-0.00273012,6.05243e-05,-0.00651097,-1.08044,0.00436096,0.0327178,1910,827,42.4106,-1.12381
693,197,42.3152,1.82349,-0.00432359,-0.00152368,-0.00291518,0.000310268,-0.00615754,-1.00925,0.00421226,0.0217948,1917,827,42.3151,-1.82347
700,197,42.3159,2.40735,-0.00315648,-0.00123257,-0.00264305,0.000618135,-0.00500718,-0.959925,0.00356209,0.0249135,1924,827,42.3159,-2.40737
707,197,42.3131,3.03259,-0.00152087,-0.000578572,-0.00179807,0.000809055,-0.00290849,-0.913532,0.00225753,0.0106617,1931,827,42.3131,-3.03262
714,197,42.2806,3.6405,0.000846914,0.000341546,-0.000557726,0.00120653,-1.80674e-05,-0.5727,0.000810441,0.013196,1938,827,42.2806,-3.64049
721,197,42.2393,4.24799,0.00375354,0.0014521,0.000914188,0.00407248,0.00113316,0.335673,0.0024271,0.0129781,1945,827,42.2393,-4.24796
728,197,42.1934,4.88727,0.00699719,0.00258717,0.00253288,0.00815038,0.00143397,0.427245,0.00502428,0.0110343,1952,827,42.1933,-4.88727
735,197,42.1466,5.51538,0.0105691,0.00389294,0.00436527,0.0127263,0.00173571,0.45898,0.0079689,0.0117802,1959,827,42.1466,-5.51539
742,197,42.1144,6.17078,0.0148691,0.00527058,0.00651526,0.0181619,0.00197776,0.467959,0.0115055,0.0211567,1966,827,42.1144,-6.1708
749,197,42.2601,7.02576,0.020228,0.00675491,0.00930546,0.0249794,0.00200353,0.472093,0.0160269,0.046132,1973,827,42.2601,-7.02579
756,197,42.3693,7.85345,0,0,0,0,0,0,0,-1,1980,827,42.3693,-7.85344
763,197,40.1951,7.57208,0,0,0,0,0,0,0,-1,1987,827,40.1951,-7.57207
770,197,40.1252,8.19623,0,0,0,0,0,0,0,-1,1994,827,40.1252,-8.1962
777,197,0,0,0,0,0,0,0,0,0,-1,2001,827,0,0
784,197,0,0,0,0,0,0,0,0,0,-1,2008,827,0,0
791,197,0,0,0,0,0,0,0,0,0,-1,2015,827,0,0
798,197,0,0,0,0,0,0,0,0,0,-1,2022,827,0,0
805,197,0,0,0,0,0,0,0,0,0,-1,2029,827,0,0
812,197,0,0,0,0,0,0,0,0,0,-1,2036,827,0,0
-700,190,0,0,0,0,0,0,0,0,0,-1,524,834,0,0
-693,190,0,0,0,0,0,0,0,0,0,-1,531,834,0,0
-686,190,0,0,0,0,0,0,0,0,0,-1,538,834,0,0
-679,190,0,0,0,0,0,0,0,0,0,-1,545,834,0,0
-672,190,0,0,0,0,0,0,0,0,0,-1,552,834,0,0
-665,190,0,0,0,0,0,0,0,0,0,-1,559,834,0,0
-658,190,-34.7194,5.09772,0,0,0,0,0,0,0,-1,566,834,-34.7194,-5.09772
-651,190,-34.6227,4.48425,0,0,0,0,0,0,0,-1,573,834,-34.6227,-4.48426
-644,190,-30.2181,8.39307,0,0,0,0,0,0,0,-1,580,834,-30.2181,-8.39308
-637,190,-34.7321,3.4776,0,0,0,0,0,0,0,-1,587,834,-34.732,-3.47759
-630,190,-30.4207,6.19299,0,0,0,0,0,0,0,-1,594,834,-30.4207,-6.19301
-623,190,-30.5741,4.73462,0,0,0,0,0,0,0,-1,601,834,-30.5741,-4.7346
-616,190,-30.5168,4.08832,0.00961937,0.0191424,0.000564483,0.0191757,0.00958603,1.5118,0.0110711,0.0450825,608,834,-30.5168,-4.08835
-609,190,-30.4734,3.42773,0.00661917,0.0132286,0.000419956,0.0132552,0.00659259,1.5076,0.00765294,0.0260664,615,834,-30.4734,-3.42772
-602,190,-30.5172,2.87408,0.00448737,0.00907439,0.000534795,0.00913591,0.00442585,1.45625,0.00527547,0.0179132,622,834,-30.5172,-2.87408
-595,190,-30.5713,2.28247,0.00293808,0.00601086,0.000874752,0.00624243,0.00270651,1.31201,0.00361466,0.0208418,629,834,-30.5713,-2.28249
-588,190,-30.5927,1.66901,0.00204146,0.00348055,0.00127268,0.00422301,0.00129899,1.04268,0.0024976,0.0184774,636,834,-30.5926,-1.669
-581,190,-30.6035,1.0733,0.0013823,0.0020678,0.00173168,0.00349033,-4.02258e-05,0.8831,0.00234041,0.0129302,643,834,-30.6035,-1.07329
-574,190,-30.603,0.484497,0.00113319,0.00108099,0.00213091,0.00323816,-0.00102398,0.779274,0.00256905,0.0123831,650,834,-30.6029,-0.48448
-567,190,-30.5028,-0.184204,0.00124826,0.00021834,0.00237467,0.00316316,-0.00169657,0.678624,0.00284804,0.0258075,657,834,-30.5028,0.184176
-560,190,-30.345,-0.89386,0,0,0,0,0,0,0,-1,664,834,-30.345,0.893873
-553,190,-30.7341,-1.19806,0,0,0,0,0,0,0,-1,671,834,-30.7341,1.19805
-546,190,-30.3707,-1.48627,0,0,0,0,0,0,0,-1,678,834,-30.3707,1.48627
-539,190,-16.4624,-0.542542,0,0,0,0,0,0,0,-1,685,834,-16.4624,0.542527
-532,190,-21.6292,2.06122,0,0,0,0,0,0,0,-1,692,834,-21.6292,-2.06123
-525,190,-38.9377,1.03369,0,0,0,0,0,0,0,-1,699,834,-38.9377,-1.0337
-518,190,-41.5016,0.791504,0,0,0,0,0,0,0,-1,706,834,-41.5016,-0.791505
-511,190,-41.3143,1.07477,0.000470263,-0.00635299,0.00286669,0.00151477,-0.00739749,0.34941,0.00550648,0.0404145,713,834,-41.3143,-1.07475
-504,190,-41.4283,1.13202,0.000478328,-0.00647868,0.00260362,0.0013448,-0.00734515,0.321267,0.00540113,0.042658,720,834,-41.4283,-1.13203
-497,190,-41.5018,1.18732,0.000741169,-0.00585216,0.00195513,0.00127733,-0.00638832,0.267652,0.00474235,0.0447709,727,834,-41.5018,-1.18732
-490,190,-41.4276,1.18848,0.00115808,-0.00495321,0.000946661,0.00130137,-0.00509649,0.150215,0.00390442,0.0427516,734,834,-41.4276,-1.18848
-483,190,0,0,0,0,0,0,0,0,0,-1,741,834,0,0
-476,190,0,0,0,0,0,0,0,0,0,-1,748,834,0,0
-469,190,0,0,0,0,0,0,0,0,0,-1,755,834,0,0
-462,190,0,0,0,0,0,0,0,0,0,-1,762,834,0,0
-455,190,0,0,0,0,0,0,0,0,0,-1,769,834,0,0
-448,190,0,0,0,0,0,0,0,0,0,-1,776,834,0,0
-441,190,0,0,0,0,0,0,0,0,0,-1,783,834,0,0
-434,190,0,0,0,0,0,0,0,0,0,-1,790,834,0,0
-427,190,0,0,0,0,0,0,0,0,0,-1,797,834,0,0
-420,190,0,0,0,0,0,0,0,0,0,-1,804,834,0,0
-413,190,0,0,0,0,0,0,0,0,0,-1,811,834,0,0
-406,190,0,0,0,0,0,0,0,0,0,-1,818,834,0,0
-399,190,0,0,0,0,0,0,0,0,0,-1,825,834,0,0
-392,190,0,0,0,0,0,0,0,0,0,-1,832,834,0,0
-385,190,0,0,0,0,0,0,0,0,0,-1,839,834,0,0
-378,190,0,0,0,0,0,0,0,0,0,-1,846,834,0,0
-371,190,0,0,0,0,0,0,0,0,0,-1,853,834,0,0
-364,190,0,0,0,0,0,0,0,0,0,-1,860,834,0,0
-357,190,0,0,0,0,0,0,0,0,0,-1,867,834,0,0
-350,190,0,0,0,0,0,0,0,0,0,-1,874,834,0,0
-343,190,0,0,0,0,0,0,0,0,0,-1,881,834,0,0
-336,190,0,0,0,0,0,0,0,0,0,-1,888,834,0,0
-329,190,0,0,0,0,0,0,0,0,0,-1,895,834,0,0
-322,190,0,0,0,0,0,0,0,0,0,-1,902,834,0,0
-315,190,0,0,0,0,0,0,0,0,0,-1,909,834,0,0
-308,190,0,0,0,0,0,0,0,0,0,-1,916,834,0,0
-301,190,0,0,0,0,0,0,0,0,0,-1,923,834,0,0
-294,190,0,0,0,0,0,0,0,0,0,-1,930,834,0,0
-287,190,0,0,0,0,0,0,0,0,0,-1,937,834,0,0
-280,190,0,0,0,0,0,0,0,0,0,-1,944,834,0,0
-273,190,0,0,0,0,0,0,0,0,0,-1,951,834,0,0
-266,190,0,0,0,0,0,0,0,0,0,-1,958,834,0,0
-259,190,0,0,0,0,0,0,0,0,0,-1,965,834,0,0
-252,190,0,0,0,0,0,0,0,0,0,-1,972,834,0,0
-245,190,0,0,0,0,0,0,0,0,0,-1,979,834,0,0
-238,190,0,0,0,0,0,0,0,0,0,-1,986,834,0,0
-231,190,0,0,0,0,0,0,0,0,0,-1,993,834,0,0
-224,190,0,0,0,0,0,0,0,0,0,-1,1000,834,0,0
-217,190,0,0,0,0,0,0,0,0,0,-1,1007,834,0,0
-210,190,0,0,0,0,0,0,0,0,0,-1,1014,834,0,0
-203,190,0,0,0,0,0,0,0,0,0,-1,1021,834,0,0
-196,190,0,0,0,0,0,0,0,0,0,-1,1028,834,0,0
-189,190,0,0,0,0,0,0,0,0,0,-1,1035,834,0,0
-182,190,0,0,0,0,0,0,0,0,0,-1,1042,834,0,0
-175,190,0,0,0,0,0,0,0,0,0,-1,1049,834,0,0
-168,190,0,0,0,0,0,0,0,0,0,-1,1056,834,0,0
-161,190,0,0,0,0,0,0,0,0,0,-1,1063,834,0,0
-154,190,0,0,0,0,0,0,0,0,0,-1,1070,834,0,0
-147,190,0,0,0,0,0,0,0,0,0,-1,1077,834,0,0
-140,190,0,0,0,0,0,0,0,0,0,-1,1084,834,0,0
-133,190,0,0,0,0,0,0,0,0,0,-1,1091,834,0,0
-126,190,0,0,0,0,0,0,0,0,0,-1,1098,834,0,0
-119,190,0,0,0,0,0,0,0,0,0,-1,1105,834,0,0
-112,190,0,0,0,0,0,0,0,0,0,-1,1112,834,0,0
-105,190,0,0,0,0,0,0,0,0,0,-1,1119,834,0,0
-98,190,0,0,0,0,0,0,0,0,0,-1,1126,834,0,0
-91,190,0,0,0,0,0,0,0,0,0,-1,1133,834,0,0
-84,190,0,0,0,0,0,0,0,0,0,-1,1140,834,0,0
-77,190,0,0,0,0,0,0,0,0,0,-1,1147,834,0,0
-70,190,0,0,0,0,0,0,0,0,0,-1,1154,834,0,0
-63,190,0,0,0,0,0,0,0,0,0,-1,1161,834,0,0
-56,190,0,0,0,0,0,0,0,0,0,-1,1168,834,0,0
-49,190,0,0,0,0,0,0,0,0,0,-1,1175,834,0,0
-42,190,0,0,0,0,0,0,0,0,0,-1,1182,834,0,0
-35,190,0,0,0,0,0,0,0,0,0,-1,1189,834,0,0
-28,190,0,0,0,0,0,0,0,0,0,-1,1196,834,0,0
-21,190,0,0,0,0,0,0,0,0,0,-1,1203,834,0,0
-14,190,0,0,0,0,0,0,0,0,0,-1,1210,834,0,0
-7,190,0,0,0,0,0,0,0,0,0,-1,1217,834,0,0
0,190,0,0,0,0,0,0,0,0,0,-1,1224,834,0,0
7,190,0,0,0,0,0,0,0,0,0,-1,1231,834,0,0
14,190,0,0,0,0,0,0,0,0,0,-1,1238,834,0,0
21,190,0,0,0,0,0,0,0,0,0,-1,1245,834,0,0
28,190,0,0,0,0,0,0,0,0,0,-1,1252,834,0,0
35,190,0,0,0,0,0,0,0,0,0,-1,1259,834,0,0
42,190,0,0,0,0,0,0,0,0,0,-1,1266,834,0,0
49,190,0,0,0,0,0,0,0,0,0,-1,1273,834,0,0
56,190,0,0,0,0,0,0,0,0,0,-1,1280,834,0,0
63,190,0,0,0,0,0,0,0,0,0,-1,1287,834,0,0
70,190,0,0,0,0,0,0,0,0,0,-1,1294,834,0,0
77,190,0,0,0,0,0,0,0,0,0,-1,1301,834,0,0
84,190,0,0,0,0,0,0,0,0,0,-1,1308,834,0,0
91,190,0,0,0,0,0,0,0,0,0,-1,1315,834,0,0
98,190,0,0,0,0,0,0,0,0,0,-1,1322,834,0,0
105,190,0,0,0,0,0,0,0,0,0,-1,1329,834,0,0
112,190,0,0,0,0,0,0,0,0,0,-1,1336,834,0,0
119,190,0,0,0,0,0,0,0,0,0,-1,1343,834,0,0
126,190,0,0,0,0,0,0,0,0,0,-1,1350,834,0,0
133,190,0,0,0,0,0,0,0,0,0,-1,1357,834,0,0
140,190,0,0,0,0,0,0,0,0,0,-1,1364,834,0,0
147,190,0,0,0,0,0,0,0,0,0,-1,1371,834,0,0
154,190,0,0,0,0,0,0,0,0,0,-1,1378,834,0,0
161,190,0,0,0,0,0,0,0,0,0,-1,1385,834,0,0
168,190,0,0,0,0,0,0,0,0,0,-1,1392,834,0,0
175,190,0,0,0,0,0,0,0,0,0,-1,1399,834,0,0
182,190,0,0,0,0,0,0,0,0,0,-1,1406,834,0,0
189,190,0,0,0,0,0,0,0,0,0,-1,1413,834,0,0
196,190,0,0,0,0,0,0,0,0,0,-1,1420,834,0,0
203,190,0,0,0,0,0,0,0,0,0,-1,1427,834,0,0
210,190,0,0,0,0,0,0,0,0,0,-1,1434,834,0,0
217,190,0,0,0,0,0,0,0,0,0,-1,1441,834,0,0
224,190,0,0,0,0,0,0,0,0,0,-1,1448,834,0,0
231,190,0,0,0,0,0,0,0,0,0,-1,1455,834,0,0
238,190,0,0,0,0,0,0,0,0,0,-1,1462,834,0,0
245,190,0,0,0,0,0,0,0,0,0,-1,1469,834,0,0
252,190,0,0,0,0,0,0,0,0,0,-1,1476,834,0,0
259,190,0,0,0,0,0,0,0,0,0,-1,1483,834,0,0
266,190,0,0,0,0,0,0,0,0,0,-1,1490,834,0,0
273,190,0,0,0,0,0,0,0,0,0,-1,1497,834,0,0
280,190,0,0,0,0,0,0,0,0,0,-1,1504,834,0,0
287,190,0,0,0,0,0,0,0,0,0,-1,1511,834,0,0
294,190,0,0,0,0,0,0,0,0,0,-1,1518,834,0,0
301,190,0,0,0,0,0,0,0,0,0,-1,1525,834,0,0
308,190,0,0,0,0,0,0,0,0,0,-1,1532,834,0,0
315,190,0,0,0,0,0,0,0,0,0,-1,1539,834,0,0
322,190,0,0,0,0,0,0,0,0,0,-1,1546,834,0,0
329,190,0,0,0,0,0,0,0,0,0,-1,1553,834,0,0
336,190,0,0,0,0,0,0,0,0,0,-1,1560,834,0,0
343,190,0,0,0,0,0,0,0,0,0,-1,1567,834,0,0
350,190,0,0,0,0,0,0,0,0,0,-1,1574,834,0,0
357,190,0,0,0,0,0,0,0,0,0,-1,1581,834,0,0
364,190,0,0,0,0,0,0,0,0,0,-1,1588,834,0,0
371,190,0,0,0,0,0,0,0,0,0,-1,1595,834,0,0
378,190,0,0,0,0,0,0,0,0,0,-1,1602,834,0,0
385,190,0,0,0,0,0,0,0,0,0,-1,1609,834,0,0
392,190,0,0,0,0,0,0,0,0,0,-1,1616,834,0,0
399,190,0,0,0,0,0,0,0,0,0,-1,1623,834,0,0
406,190,0,0,0,0,0,0,0,0,0,-1,1630,834,0,0
413,190,0,0,0,0,0,0,0,0,0,-1,1637,834,0,0
420,190,0,0,0,0,0,0,0,0,0,-1,1644,834,0,0
427,190,0,0,0,0,0,0,0,0,0,-1,1651,834,0,0
434,190,0,0,0,0,0,0,0,0,0,-1,1658,834,0,0
441,190,0,0,0,0,0,0,0,0,0,-1,1665,834,0,0
448,190,0,0,0,0,0,0,0,0,0,-1,1672,834,0,0
455,190,0,0,0,0,0,0,0,0,0,-1,1679,834,0,0
462,190,0,0,0,0,0,0,0,0,0,-1,1686,834,0,0
469,190,0,0,0,0,0,0,0,0,0,-1,1693,834,0,0
476,190,0,0,0,0,0,0,0,0,0,-1,1700,834,0,0
483,190,0,0,0,0,0,0,0,0,0,-1,1707,834,0,0
490,190,0,0,0,0,0,0,0,0,0,-1,1714,834,0,0
497,190,0,0,0,0,0,0,0,0,0,-1,1721,834,0,0
504,190,0,0,0,0,0,0,0,0,0,-1,1728,834,0,0
511,190,0,0,0,0,0,0,0,0,0,-1,1735,834,0,0
518,190,0,0,0,0,0,0,0,0,0,-1,1742,834,0,0
525,190,0,0,0,0,0,0,0,0,0,-1,1749,834,0,0
532,190,0,0,0,0,0,0,0,0,0,-1,1756,834,0,0
539,190,0,0,0,0,0,0,0,0,0,-1,1763,834,0,0
546,190,0,0,0,0,0,0,0,0,0,-1,1770,834,0,0
553,190,0,0,0,0,0,0,0,0,0,-1,1777,834,0,0
560,190,0,0,0,0,0,0,0,0,0,-1,1784,834,0,0
567,190,0,0,0,0,0,0,0,0,0,-1,1791,834,0,0
574,190,0,0,0,0,0,0,0,0,0,-1,1798,834,0,0
581,190,0,0,0,0,0,0,0,0,0,-1,1805,834,0,0
588,190,0,0,0,0,0,0,0,0,0,-1,1812,834,0,0
595,190,0,0,0,0,0,0,0,0,0,-1,1819,834,0,0
602,190,54.767,2.92767,0.00293864,0.00325571,-0.00334813,0.00644905,-0.000254707,-0.809055,0.00438674,0.0441797,1826,834,54.767,-2.92768
609,190,54.7257,3.14362,0.00232529,0.00262783,-0.00242915,0.00491042,4.27004e-05,-0.816494,0.00325947,0.0419417,1833,834,54.7257,-3.14362
616,190,54.9996,3.03082,0.00174625,0.00238193,-0.00140157,0.00350125,0.000626933,-0.896899,0.0021558,0.0378385,1840,834,54.9997,-3.03085
623,190,54.9609,3.04236,0.000722745,0.00181397,-0.000865183,0.00229121,0.000245501,-1.06672,0.00145257,0.0359501,1847,834,54.961,-3.04235
630,190,55.0314,2.89172,-0.000649397,0.00136199,-0.00083756,0.00166509,-0.000952492,-1.22358,0.00152981,0.0412611,1854,834,55.0313,-2.89173
637,190,54.9783,2.93787,-0.00181965,0.000805511,-0.00114329,0.00123362,-0.00224775,-1.21251,0.0020382,0.0348936,1861,834,54.9783,-2.93786
644,190,54.9094,2.98358,-0.00269433,0.00024479,-0.00144302,0.000834823,-0.00328436,-1.18265,0.00251447,0.0276876,1868,834,54.9095,-2.9836
651,190,54.9924,2.98889,0,0,0,0,0,0,0,-1,1875,834,54.9925,-2.98891
658,190,54.0599,3.0943,0,0,0,0,0,0,0,-1,1882,834,54.0599,-3.09428
665,190,25.9916,3.05157,0,0,0,0,0,0,0,-1,1889,834,25.9916,-3.05156
672,190,27.2662,1.70862,0,0,0,0,0,0,0,-1,1896,834,27.2662,-1.70861
679,190,43.0502,0.707397,0,0,0,0,0,0,0,-1,1903,834,43.0502,-0.707416
686,190,43.0099,1.25464,-0.00491392,-0.0013499,-0.00256456,-9.01194e-06,-0.00625481,-1.08903,0.00416687,0.0282076,1910,834,43.0099,-1.25461
693,190,43.0513,1.84839,-0.00430628,-0.00131998,-0.00282502,0.000382214,-0.00600847,-1.02851,0.00413894,0.024063,1917,834,43.0512,-1.84842
700,190,42.8976,2.42548,-0.00347221,-0.00100819,-0.00271672,0.000742824,-0.00522322,-0.998275,0.00375433,0.0161101,1924,834,42.8975,-2.4255
707,190,42.9053,3.04053,-0.00225116,-0.000453021,-0.00209789,0.000930339,-0.00363452,-0.987839,0.00278541,0.0137771,1931,834,42.9052,-3.04054
714,190,42.9117,3.64655,-0.000200058,0.000320643,-0.00105519,0.00114713,-0.00102654,-0.906349,0.00125561,0.0124378,1938,834,42.9118,-3.64656
721,190,42.8738,4.26587,0.00248146,0.00127663,0.000226347,0.00252258,0.00123551,0.179708,0.00145651,0.0117336,1945,834,42.8737,-4.26588
728,190,42.819,4.88843,0.0055649,0.0022531,0.00170905,0.00628867,0.00152932,0.400596,0.00378705,0.013411,1952,834,42.8189,-4.8884
735,190,42.7994,5.48932,0.00891535,0.00338755,0.00333549,0.0104833,0.00181963,0.439419,0.00646819,0.011968,1959,834,42.7995,-5.48933
742,190,42.7516,6.13757,0.0127073,0.00456977,0.00515603,0.0152066,0.00207046,0.45136,0.00952291,0.0162679,1966,834,42.7516,-6.13757
749,190,42.8805,6.88214,0.0172012,0.00580403,0.00742242,0.0208603,0.00214494,0.458015,0.0132499,0.0395136,1973,834,42.8805,-6.88211
756,190,42.8949,7.35834,0,0,0,0,0,0,0,-1,1980,834,42.8949,-7.35836
763,190,41.8417,8.34167,0,0,0,0,0,0,0,-1,1987,834,41.8417,-8.34168
770,190,39.8972,7.38257,0,0,0,0,0,0,0,-1,1994,834,39.8972,-7.38259
777,190,40.5735,6.99371,0,0,0,0,0,0,0,-1,2001,834,40.5735,-6.99373
784,190,0,0,0,0,0,0,0,0,0,-1,2008,834,0,0
791,190,0,0,0,0,0,0,0,0,0,-1,2015,834,0,0
798,190,0,0,0,0,0,0,0,0,0,-1,2022,834,0,0
805,190,0,0,0,0,0,0,0,0,0,-1,2029,834,0,0
812,190,0,0,0,0,0,0,0,0,0,-1,2036,834,0,0
-700,183,0,0,0,0,0,0,0,0,0,-1,524,841,0,0
-693,183,0,0,0,0,0,0,0,0,0,-1,531,841,0,0
-686,183,0,0,0,0,0,0,0,0,0,-1,538,841,0,0
-679,183,0,0,0,0,0,0,0,0,0,-1,545,841,0,0
-672,183,0,0,0,0,0,0,0,0,0,-1,552,841,0,0
-665,183,0,0,0,0,0,0,0,0,0,-1,559,841,0,0
-658,183,-35.7355,6.94122,0,0,0,0,0,0,0,-1,566,841,-35.7355,-6.94119
-651,183,-30.6476,8.90436,0,0,0,0,0,0,0,-1,573,841,-30.6476,-8.90438
-644,183,-30.8835,7.7569,0,0,0,0,0,0,0,-1,580,841,-30.8835,-7.75691
-637,183,-31.0331,6.52216,0,0,0,0,0,0,0,-1,587,841,-31.0331,-6.52214
-630,183,-30.9782,5.87708,0.0176267,0.0372577,0.0043204,0.0381665,0.0167179,1.36348,0.0220918,0.0471925,594,841,-30.9782,-5.87706
-623,183,-30.8707,4.86975,0.0134511,0.0273082,0.0027538,0.0278354,0.0129239,1.38164,0.0160844,0.0469443,601,841,-30.8707,-4.86976
-616,183,-31.0833,4.06396,0.00942667,0.01947,0.00193696,0.0198306,0.00906605,1.38673,0.0114632,0.0390215,608,841,-31.0833,-4.06394
-609,183,-31.1035,3.48059,0.0063555,0.0134272,0.00160011,0.0137724,0.0060103,1.35832,0.00797293,0.0172554,615,841,-31.1035,-3.4806
-602,183,-31.1328,2.88129,0.00412774,0.00909517,0.00157928,0.00955475,0.00366816,1.28761,0.00556578,0.0116992,622,841,-31.1327,-2.88132
-595,183,-31.1631,2.27515,0.00259766,0.00589852,0.00184072,0.00672036,0.00177581,1.15087,0.0040212,0.0124385,629,841,-31.1631,-2.27514
-588,183,-31.1663,1.66779,0.00179445,0.00337202,0.00214794,0.00487143,0.000295041,0.961367,0.00315387,0.0135147,636,841,-31.1663,-1.66777
-581,183,-31.2082,1.09283,0.00130365,0.00210584,0.00248674,0.00422363,-0.000814134,0.865356,0.00312271,0.0139368,643,841,-31.2082,-1.09282
-574,183,-31.2039,0.550537,0.00123714,0.00129002,0.00269291,0.00395663,-0.00142946,0.790307,0.00322174,0.0155801,650,841,-31.2039,-0.550512
-567,183,-31.0546,-0.229187,0,0,0,0,0,0,0,-1,657,841,-31.0546,0.229157
-560,183,-30.6185,-0.892395,0,0,0,0,0,0,0,-1,664,841,-30.6185,0.892377
-553,183,-31.2349,-1.42444,0,0,0,0,0,0,0,-1,671,841,-31.2349,1.42445
-546,183,-27.8053,-1.91199,0,0,0,0,0,0,0,-1,678,841,-27.8053,1.91201
-539,183,-16.8032,-0.417297,0,0,0,0,0,0,0,-1,685,841,-16.8032,0.41732
-532,183,-29.9686,0.953613,0,0,0,0,0,0,0,-1,692,841,-29.9686,-0.953627
-525,183,-41.5416,0.701599,0,0,0,0,0,0,0,-1,699,841,-41.5417,-0.701584
-518,183,-41.3635,0.879395,0.00110876,-0.00538277,0.00309028,0.0023446,-0.00661861,0.380432,0.00536744,0.0480052,706,841,-41.3635,-0.879395
-511,183,-41.2527,1.0788,0.000609728,-0.00601331,0.00310477,0.00183757,-0.00724115,0.376593,0.00554244,0.0386376,713,841,-41.2528,-1.07882
-504,183,-41.3461,1.30127,0.000599973,-0.00618206,0.00297934,0.00172288,-0.00730497,0.360432,0.00553439,0.039253,720,841,-41.3461,-1.30129
-497,183,-41.3607,1.40643,0.000819446,-0.00552822,0.00244807,0.00165389,-0.00636266,0.328506,0.00488726,0.0429163,727,841,-41.3607,-1.40646
-490,183,-41.2841,1.25104,0.00144763,-0.0046709,0.00158742,0.00183496,-0.00505822,0.239323,0.00412226,0.0427056,734,841,-41.2841,-1.25105
-483,183,0,0,0,0,0,0,0,0,0,-1,741,841,0,0
-476,183,0,0,0,0,0,0,0,0,0,-1,748,841,0,0
-469,183,0,0,0,0,0,0,0,0,0,-1,755,841,0,0
-462,183,0,0,0,0,0,0,0,0,0,-1,762,841,0,0
-455,183,0,0,0,0,0,0,0,0,0,-1,769,841,0,0
-448,183,0,0,0,0,0,0,0,0,0,-1,776,841,0,0
-441,183,0,0,0,0,0,0,0,0,0,-1,783,841,0,0
-434,183,0,0,0,0,0,0,0,0,0,-1,790,841,0,0
-427,183,0,0,0,0,0,0,0,0,0,-1,797,841,0,0
-420,183,0,0,0,0,0,0,0,0,0,-1,804,841,0,0
-413,183,0,0,0,0,0,0,0,0,0,-1,811,841,0,0
-406,183,0,0,0,0,0,0,0,0,0,-1,818,841,0,0
-399,183,0,0,0,0,0,0,0,0,0,-1,825,841,0,0
-392,183,0,0,0,0,0,0,0,0,0,-1,832,841,0,0
-385,183,0,0,0,0,0,0,0,0,0,-1,839,841,0,0
-378,183,0,0,0,0,0,0,0,0,0,-1,846,841,0,0
-371,183,0,0,0,0,0,0,0,0,0,-1,853,841,0,0
-364,183,0,0,0,0,0,0,0,0,0,-1,860,841,0,0
-357,183,0,0,0,0,0,0,0,0,0,-1,867,841,0,0
-350,183,0,0,0,0,0,0,0,0,0,-1,874,841,0,0
-343,183,0,0,0,0,0,0,0,0,0,-1,881,841,0,0
-336,183,0,0,0,0,0,0,0,0,0,-1,888,841,0,0
-329,183,0,0,0,0,0,0,0,0,0,-1,895,841,0,0
-322,183,0,0,0,0,0,0,0,0,0,-1,902,841,0,0
-315,183,0,0,0,0,0,0,0,0,0,-1,909,841,0,0
-308,183,0,0,0,0,0,0,0,0,0,-1,916,841,0,0
-301,183,0,0,0,0,0,0,0,0,0,-1,923,841,0,0
-294,183,0,0,0,0,0,0,0,0,0,-1,930,841,0,0
-287,183,0,0,0,0,0,0,0,0,0,-1,937,841,0,0
-280,183,0,0,0,0,0,0,0,0,0,-1,944,841,0,0
-273,183,0,0,0,0,0,0,0,0,0,-1,951,841,0,0
-266,183,0,0,0,0,0,0,0,0,0,-1,958,841,0,0
-259,183,0,0,0,0,0,0,0,0,0,-1,965,841,0,0
-252,183,0,0,0,0,0,0,0,0,0,-1,972,841,0,0
-245,183,0,0,0,0,0,0,0,0,0,-1,979,841,0,0
-238,183,0,0,0,0,0,0,0,0,0,-1,986,841,0,0
-231,183,0,0,0,0,0,0,0,0,0,-1,993,841,0,0
-224,183,0,0,0,0,0,0,0,0,0,-1,1000,841,0,0
-217,183,0,0,0,0,0,0,0,0,0,-1,1007,841,0,0
-210,183,0,0,0,0,0,0,0,0,0,-1,1014,841,0,0
-203,183,0,0,0,0,0,0,0,0,0,-1,1021,841,0,0
-196,183,0,0,0,0,0,0,0,0,0,-1,1028,841,0,0
-189,183,0,0,0,0,0,0,0,0,0,-1,1035,841,0,0
-182,183,0,0,0,0,0,0,0,0,0,-1,1042,841,0,0
-175,183,0,0,0,0,0,0,0,0,0,-1,1049,841,0,0
-168,183,0,0,0,0,0,0,0,0,0,-1,1056,841,0,0
-161,183,0,0,0,0,0,0,0,0,0,-1,1063,841,0,0
-154,183,0,0,0,0,0,0,0,0,0,-1,1070,841,0,0
-147,183,0,0,0,0,0,0,0,0,0,-1,1077,841,0,0
-140,183,0,0,0,0,0,0,0,0,0,-1,1084,841,0,0
-133,183,0,0,0,0,0,0,0,0,0,-1,1091,841,0,0
-126,183,0,0,0,0,0,0,0,0,0,-1,1098,841,0,0
-119,183,0,0,0,0,0,0,0,0,0,-1,1105,841,0,0
-112,183,0,0,0,0,0,0,0,0,0,-1,1112,841,0,0
-105,183,0,0,0,0,0,0,0,0,0,-1,1119,841,0,0
-98,183,0,0,0,0,0,0,0,0,0,-1,1126,841,0,0
-91,183,0,0,0,0,0,0,0,0,0,-1,1133,841,0,0
-84,183,0,0,0,0,0,0,0,0,0,-1,1140,841,0,0
-77,183,0,0,0,0,0,0,0,0,0,-1,1147,841,0,0
-70,183,0,0,0,0,0,0,0,0,0,-1,1154,841,0,0
-63,183,0,0,0,0,0,0,0,0,0,-1,1161,841,0,0
-56,183,0,0,0,0,0,0,0,0,0,-1,1168,841,0,0
-49,183,0,0,0,0,0,0,0,0,0,-1,1175,841,0,0
-42,183,0,0,0,0,0,0,0,0,0,-1,1182,841,0,0
-35,183,0,0,0,0,0,0,0,0,0,-1,1189,841,0,0
-28,183,0,0,0,0,0,0,0,0,0,-1,1196,841,0,0
-21,183,0,0,0,0,0,0,0,0,0,-1,1203,841,0,0
-14,183,0,0,0,0,0,0,0,0,0,-1,1210,841,0,0
-7,183,0,0,0,0,0,0,0,0,0,-1,1217,841,0,0
0,183,0,0,0,0,0,0,0,0,0,-1,1224,841,0,0
7,183,0,0,0,0,0,0,0,0,0,-1,1231,841,0,0
14,183,0,0,0,0,0,0,0,0,0,-1,1238,841,0,0
21,183,0,0,0,0,0,0,0,0,0,-1,1245,841,0,0
28,183,0,0,0,0,0,0,0,0,0,-1,1252,841,0,0
35,183,0,0,0,0,0,0,0,0,0,-1,1259,841,0,0
42,183,0,0,0,0,0,0,0,0,0,-1,1266,841,0,0
49,183,0,0,0,0,0,0,0,0,0,-1,1273,841,0,0
56,183,0,0,0,0,0,0,0,0,0,-1,1280,841,0,0
63,183,0,0,0,0,0,0,0,0,0,-1,1287,841,0,0
70,183,0,0,0,0,0,0,0,0,0,-1,1294,841,0,0
77,183,0,0,0,0,0,0,0,0,0,-1,1301,841,0,0
84,183,0,0,0,0,0,0,0,0,0,-1,1308,841,0,0
91,183,0,0,0,0,0,0,0,0,0,-1,1315,841,0,0
98,183,0,0,0,0,0,0,0,0,0,-1,1322,841,0,0
105,183,0,0,0,0,0,0,0,0,0,-1,1329,841,0,0
112,183,0,0,0,0,0,0,0,0,0,-1,1336,841,0,0
119,183,0,0,0,0,0,0,0,0,0,-1,1343,841,0,0
126,183,0,0,0,0,0,0,0,0,0,-1,1350,841,0,0
133,183,0,0,0,0,0,0,0,0,0,-1,1357,841,0,0
140,183,0,0,0,0,0,0,0,0,0,-1,1364,841,0,0
147,183,0,0,0,0,0,0,0,0,0,-1,1371,841,0,0
154,183,0,0,0,0,0,0,0,0,0,-1,1378,841,0,0
161,183,0,0,0,0,0,0,0,0,0,-1,1385,841,0,0
168,183,0,0,0,0,0,0,0,0,0,-1,1392,841,0,0
175,183,0,0,0,0,0,0,0,0,0,-1,1399,841,0,0
182,183,0,0,0,0,0,0,0,0,0,-1,1406,841,0,0
189,183,0,0,0,0,0,0,0,0,0,-1,1413,841,0,0
196,183,0,0,0,0,0,0,0,0,0,-1,1420,841,0,0
203,183,0,0,0,0,0,0,0,0,0,-1,1427,841,0,0
210,183,0,0,0,0,0,0,0,0,0,-1,1434,841,0,0
217,183,0,0,0,0,0,0,0,0,0,-1,1441,841,0,0
224,183,0,0,0,0,0,0,0,0,0,-1,1448,841,0,0
231,183,0,0,0,0,0,0,0,0,0,-1,1455,841,0,0
238,183,0,0,0,0,0,0,0,0,0,-1,1462,841,0,0
245,183,0,0,0,0,0,0,0,0,0,-1,1469,841,0,0
252,183,0,0,0,0,0,0,0,0,0,-1,1476,841,0,0
259,183,0,0,0,0,0,0,0,0,0,-1,1483,841,0,0
266,183,0,0,0,0,0,0,0,0,0,-1,1490,841,0,0
273,183,0,0,0,0,0,0,0,0,0,-1,1497,841,0,0
280,183,0,0,0,0,0,0,0,0,0,-1,1504,841,0,0
287,183,0,0,0,0,0,0,0,0,0,-1,1511,841,0,0
294,183,0,0,0,0,0,0,0,0,0,-1,1518,841,0,0
301,183,0,0,0,0,0,0,0,0,0,-1,1525,841,0,0
308,183,0,0,0,0,0,0,0,0,0,-1,1532,841,0,0
315,183,0,0,0,0,0,0,0,0,0,-1,1539,841,0,0
322,183,0,0,0,0,0,0,0,0,0,-1,1546,841,0,0
329,183,0,0,0,0,0,0,0,0,0,-1,1553,841,0,0
336,183,0,0,0,0,0,0,0,0,0,-1,1560,841,0,0
343,183,0,0,0,0,0,0,0,0,0,-1,1567,841,0,0
350,183,0,0,0,0,0,0,0,0,0,-1,1574,841,0,0
357,183,0,0,0,0,0,0,0,0,0,-1,1581,841,0,0
364,183,0,0,0,0,0,0,0,0,0,-1,1588,841,0,0
371,183,0,0,0,0,0,0,0,0,0,-1,1595,841,0,0
378,183,0,0,0,0,0,0,0,0,0,-1,1602,841,0,0
385,183,0,0,0,0,0,0,0,0,0,-1,1609,841,0,0
392,183,0,0,0,0,0,0,0,0,0,-1,1616,841,0,0
399,183,0,0,0,0,0,0,0,0,0,-1,1623,841,0,0
406,183,0,0,0,0,0,0,0,0,0,-1,1630,841,0,0
413,183,0,0,0,0,0,0,0,0,0,-1,1637,841,0,0
420,183,0,0,0,0,0,0,0,0,0,-1,1644,841,0,0
427,183,0,0,0,0,0,0,0,0,0,-1,1651,841,0,0
434,183,0,0,0,0,0,0,0,0,0,-1,1658,841,0,0
441,183,0,0,0,0,0,0,0,0,0,-1,1665,841,0,0
448,183,0,0,0,0,0,0,0,0,0,-1,1672,841,0,0
455,183,0,0,0,0,0,0,0,0,0,-1,1679,841,0,0
462,183,0,0,0,0,0,0,0,0,0,-1,1686,841,0,0
469,183,0,0,0,0,0,0,0,0,0,-1,1693,841,0,0
476,183,0,0,0,0,0,0,0,0,0,-1,1700,841,0,0
483,183,0,0,0,0,0,0,0,0,0,-1,1707,841,0,0
490,183,0,0,0,0,0,0,0,0,0,-1,1714,841,0,0
497,183,0,0,0,0,0,0,0,0,0,-1,1721,841,0,0
504,183,0,0,0,0,0,0,0,0,0,-1,1728,841,0,0
511,183,0,0,0,0,0,0,0,0,0,-1,1735,841,0,0
518,183,0,0,0,0,0,0,0,0,0,-1,1742,841,0,0
525,183,0,0,0,0,0,0,0,0,0,-1,1749,841,0,0
532,183,0,0,0,0,0,0,0,0,0,-1,1756,841,0,0
539,183,0,0,0,0,0,0,0,0,0,-1,1763,841,0,0
546,183,0,0,0,0,0,0,0,0,0,-1,1770,841,0,0
553,183,0,0,0,0,0,0,0,0,0,-1,1777,841,0,0
560,183,0,0,0,0,0,0,0,0,0,-1,1784,841,0,0
567,183,0,0,0,0,0,0,0,0,0,-1,1791,841,0,0
574,183,0,0,0,0,0,0,0,0,0,-1,1798,841,0,0
581,183,0,0,0,0,0,0,0,0,0,-1,1805,841,0,0
588,183,0,0,0,0,0,0,0,0,0,-1,1812,841,0,0
595,183,0,0,0,0,0,0,0,0,0,-1,1819,841,0,0
602,183,0,0,0,0,0,0,0,0,0,-1,1826,841,0,0
609,183,54.8722,3.00891,0.00266751,0.00178967,-0.00308371,0.00534339,-0.000886205,-0.714705,0.00389144,0.0421161,1833,841,54.8722,-3.0089
616,183,54.8989,2.98212,0.00197202,0.00156506,-0.00197156,0.00375057,-0.000213495,-0.733977,0.0025745,0.0385043,1840,841,54.8989,-2.9821
623,183,55.0225,2.88446,0.00102298,0.00113676,-0.00111386,0.00219519,-3.54458e-05,-0.810913,0.00147542,0.040625,1847,841,55.0224,-2.88449
630,183,55.0306,2.87323,-0.00027436,0.000814035,-0.000830642,0.00126287,-0.000723197,-1.07539,0.00116068,0.0410438,1854,841,55.0307,-2.87321
637,183,54.9664,2.94757,-0.00148308,0.00037162,-0.000985208,0.000797272,-0.00190873,-1.16298,0.00160564,0.0351899,1861,841,54.9664,-2.94757
644,183,54.8309,2.9328,-0.00239252,-0.000132624,-0.00124215,0.000416626,-0.00294177,-1.15447,0.00211379,0.0274703,1868,841,54.8309,-2.93279
651,183,54.9058,2.9184,-0.00302259,-0.000633121,-0.00154729,0.000127007,-0.00378272,-1.11416,0.0025652,0.0240087,1875,841,54.9058,-2.91837
658,183,55.0439,2.88983,0,0,0,0,0,0,0,-1,1882,841,55.044,-2.88984
665,183,38.4337,2.66992,0,0,0,0,0,0,0,-1,1889,841,38.4337,-2.6699
672,183,29.168,1.54572,0,0,0,0,0,0,0,-1,1896,841,29.168,-1.54574
679,183,43.8203,0.790222,0,0,0,0,0,0,0,-1,1903,841,43.8203,-0.790218
686,183,43.7708,1.30701,-0.00437272,-0.00119384,-0.00239992,9.52464e-05,-0.00566181,-1.07788,0.00380668,0.0327264,1910,841,43.7707,-1.30699
693,183,43.7262,1.8454,-0.0038347,-0.00104964,-0.00268375,0.000581344,-0.00546568,-1.02471,0.00385222,0.0297019,1917,841,43.7262,-1.84539
700,183,43.616,2.47681,-0.00323371,-0.000718214,-0.00265571,0.000962525,-0.00491445,-1.00655,0.00363982,0.0293751,1924,841,43.616,-2.4768
707,183,43.5242,3.07648,-0.00241196,-0.000245887,-0.00222566,0.00114626,-0.0038041,-1.01184,0.00299226,0.0129721,1931,841,43.5242,-3.07647
714,183,43.5413,3.66675,-0.000826918,0.00038511,-0.00140893,0.00131283,-0.00175464,-0.988499,0.00177712,0.015665,1938,841,43.5413,-3.66674
721,183,43.502,4.25806,0.00141604,0.00118698,-0.000376609,0.00169515,0.000907872,-0.637792,0.000979519,0.0146384,1945,841,43.5019,-4.25804
728,183,43.4462,4.89038,0.00410894,0.0020189,0.000902833,0.00444492,0.00168292,0.356265,0.00259136,0.0129714,1952,841,43.4461,-4.8904
735,183,43.4445,5.48651,0.00703306,0.00300826,0.00228958,0.00806893,0.00197239,0.42487,0.0048572,0.0115364,1959,841,43.4444,-5.48652
742,183,43.4563,6.11786,0.0101486,0.00406345,0.00378287,0.0119607,0.0022514,0.446719,0.00733932,0.0132216,1966,841,43.4563,-6.11785
749,183,43.6898,6.9339,0.0136087,0.0051549,0.00555266,0.0163603,0.00240336,0.46007,0.0102005,0.0369232,1973,841,43.6898,-6.93389
756,183,44.1293,7.65912,0,0,0,0,0,0,0,-1,1980,841,44.1293,-7.65913
763,183,44.5585,8.23737,0,0,0,0,0,0,0,-1,1987,841,44.5585,-8.23736
770,183,41.0603,7.72028,0,0,0,0,0,0,0,-1,1994,841,41.0603,-7.72026
777,183,42.1948,7.22906,0,0,0,0,0,0,0,-1,2001,841,42.1948,-7.22905
784,183,0,0,0,0,0,0,0,0,0,-1,2008,841,0,0
791,183,0,0,0,0,0,0,0,0,0,-1,2015,841,0,0
798,183,0,0,0,0,0,0,0,0,0,-1,2022,841,0,0
805,183,0,0,0,0,0,0,0,0,0,-1,2029,841,0,0
812,183,0,0,0,0,0,0,0,0,0,-1,2036,841,0,0
-700,176,0,0,0,0,0,0,0,0,0,-1,524,848,0,0
-693,176,0,0,0,0,0,0,0,0,0,-1,531,848,0,0
-686,176,0,0,0,0,0,0,0,0,0,-1,538,848,0,0
-679,176,0,0,0,0,0,0,0,0,0,-1,545,848,0,0
-672,176,0,0,0,0,0,0,0,0,0,-1,552,848,0,0
-665,176,-35.85,6.68445,0,0,0,0,0,0,0,-1,559,848,-35.8501,-6.68442
-658,176,-35.6655,6.72937,0,0,0,0,0,0,0,-1,566,848,-35.6655,-6.72935
-651,176,-31.6237,8.01343,0,0,0,0,0,0,0,-1,573,848,-31.6237,-8.01342
-644,176,-31.699,7.17108,0.0264946,0.0668093,0.0128357,0.0705491,0.0227548,1.28729,0.0415779,0.0446327,580,848,-31.699,-7.17109
-637,176,-31.6808,6.27869,0.0220311,0.0506288,0.00887195,0.0531576,0.0195024,1.29313,0.031051,0.048127,587,848,-31.6808,-6.2787
-630,176,-31.6406,5.6806,0.0176056,0.0375793,0.0060766,0.0392827,0.0159022,1.29749,0.0228165,0.0453744,594,848,-31.6406,-5.6806
-623,176,-31.4768,4.75177,0.0131801,0.0273964,0.00423681,0.0285633,0.0120132,1.30204,0.0165602,0.0414874,601,848,-31.4768,-4.75176
-616,176,-31.6656,4.10187,0.00907421,0.0193705,0.00319725,0.0202825,0.00816217,1.29292,0.0117842,0.0272816,608,848,-31.6656,-4.10188
-609,176,-31.713,3.47858,0.00596207,0.0132358,0.00269933,0.014128,0.00506979,1.25155,0.00826447,0.0114906,615,848,-31.713,-3.47855
-602,176,-31.7466,2.87921,0.00367297,0.00877618,0.00257204,0.00984757,0.00260158,1.1761,0.0058925,0.0120126,622,848,-31.7466,-2.8792
-595,176,-31.7781,2.28284,0.00218779,0.00554028,0.0027548,0.00708874,0.000639325,1.05871,0.00452779,0.0120289,629,848,-31.7781,-2.28283
-588,176,-31.7707,1.70123,0.00152794,0.00313691,0.00296231,0.00540203,-0.000737183,0.917986,0.00387055,0.0135609,636,848,-31.7707,-1.70123
-581,176,-31.8115,1.17352,0.00126382,0.00208795,0.00318437,0.0048868,-0.00153503,0.849742,0.00387233,0.0121983,643,848,-31.8115,-1.1735
-574,176,-31.8672,0.607117,0.00135304,0.00140964,0.00326144,0.0046429,-0.00188022,0.789736,0.00387708,0.0234912,650,848,-31.8673,-0.60713
-567,176,-31.8676,-0.0811157,0,0,0,0,0,0,0,-1,657,848,-31.8676,0.0810864
-560,176,-31.6935,-0.0994873,0,0,0,0,0,0,0,-1,664,848,-31.6936,0.0994584
-553,176,-29.4605,-1.50214,0,0,0,0,0,0,0,-1,671,848,-29.4605,1.50211
-546,176,-16.657,-0.403198,0,0,0,0,0,0,0,-1,678,848,-16.657,0.403182
-539,176,-22.7061,1.48657,0,0,0,0,0,0,0,-1,685,848,-22.7061,-1.48657
-532,176,-38.8326,1.29749,0,0,0,0,0,0,0,-1,692,848,-38.8326,-1.29747
-525,176,-41.1531,1.26019,0,0,0,0,0,0,0,-1,699,848,-41.1531,-1.26021
-518,176,-41.1619,1.02191,0.00147977,-0.0050145,0.00333152,0.00288483,-0.00641956,0.399113,0.00549959,0.0438092,706,848,-41.1619,-1.02192
-511,176,-41.2447,1.06165,0.000879627,-0.00571056,0.00336299,0.00229276,-0.00712369,0.397798,0.00567006,0.0390923,713,848,-41.2447,-1.06163
-504,176,-41.3737,1.28998,0.000893295,-0.00579805,0.00323719,0.00220304,-0.00710779,0.38446,0.00561873,0.0393255,720,848,-41.3737,-1.28998
-497,176,-41.3531,1.40259,0.00109736,-0.00502129,0.00262808,0.00207118,-0.00599511,0.354859,0.00483726,0.0423531,727,848,-41.3532,-1.40261
-490,176,-41.3368,1.36121,0,0,0,0,0,0,0,-1,734,848,-41.3368,-1.36118
-483,176,0,0,0,0,0,0,0,0,0,-1,741,848,0,0
-476,176,0,0,0,0,0,0,0,0,0,-1,748,848,0,0
-469,176,0,0,0,0,0,0,0,0,0,-1,755,848,0,0
-462,176,0,0,0,0,0,0,0,0,0,-1,762,848,0,0
-455,176,0,0,0,0,0,0,0,0,0,-1,769,848,0,0
-448,176,0,0,0,0,0,0,0,0,0,-1,776,848,0,0
-441,176,0,0,0,0,0,0,0,0,0,-1,783,848,0,0
-434,176,0,0,0,0,0,0,0,0,0,-1,790,848,0,0
-427,176,0,0,0,0,0,0,0,0,0,-1,797,848,0,0
-420,176,0,0,0,0,0,0,0,0,0,-1,804,848,0,0
-413,176,0,0,0,0,0,0,0,0,0,-1,811,848,0,0
-406,176,0,0,0,0,0,0,0,0,0,-1,818,848,0,0
-399,176,0,0,0,0,0,0,0,0,0,-1,825,848,0,0
-392,176,0,0,0,0,0,0,0,0,0,-1,832,848,0,0
-385,176,0,0,0,0,0,0,0,0,0,-1,839,848,0,0
-378,176,0,0,0,0,0,0,0,0,0,-1,846,848,0,0
-371,176,0,0,0,0,0,0,0,0,0,-1,853,848,0,0
-364,176,0,0,0,0,0,0,0,0,0,-1,860,848,0,0
-357,176,0,0,0,0,0,0,0,0,0,-1,867,848,0,0
-350,176,0,0,0,0,0,0,0,0,0,-1,874,848,0,0
-343,176,0,0,0,0,0,0,0,0,0,-1,881,848,0,0
-336,176,0,0,0,0,0,0,0,0,0,-1,888,848,0,0
-329,176,0,0,0,0,0,0,0,0,0,-1,895,848,0,0
-322,176,0,0,0,0,0,0,0,0,0,-1,902,848,0,0
-315,176,0,0,0,0,0,0,0,0,0,-1,909,848,0,0
-308,176,0,0,0,0,0,0,0,0,0,-1,916,848,0,0
-301,176,0,0,0,0,0,0,0,0,0,-1,923,848,0,0
-294,176,0,0,0,0,0,0,0,0,0,-1,930,848,0,0
-287,176,0,0,0,0,0,0,0,0,0,-1,937,848,0,0
-280,176,0,0,0,0,0,0,0,0,0,-1,944,848,0,0
-273,176,0,0,0,0,0,0,0,0,0,-1,951,848,0,0
-266,176,0,0,0,0,0,0,0,0,0,-1,958,848,0,0
-259,176,0,0,0,0,0,0,0,0,0,-1,965,848,0,0
-252,176,0,0,0,0,0,0,0,0,0,-1,972,848,0,0
-245,176,0,0,0,0,0,0,0,0,0,-1,979,848,0,0
-238,176,0,0,0,0,0,0,0,0,0,-1,986,848,0,0
-231,176,0,0,0,0,0,0,0,0,0,-1,993,848,0,0
-224,176,0,0,0,0,0,0,0,0,0,-1,1000,848,0,0
-217,176,0,0,0,0,0,0,0,0,0,-1,1007,848,0,0
-210,176,0,0,0,0,0,0,0,0,0,-1,1014,848,0,0
-203,176,0,0,0,0,0,0,0,0,0,-1,1021,848,0,0
-196,176,0,0,0,0,0,0,0,0,0,-1,1028,848,0,0
-189,176,0,0,0,0,0,0,0,0,0,-1,1035,848,0,0
-182,176,0,0,0,0,0,0,0,0,0,-1,1042,848,0,0
-175,176,0,0,0,0,0,0,0,0,0,-1,1049,848,0,0
-168,176,0,0,0,0,0,0,0,0,0,-1,1056,848,0,0
-161,176,0,0,0,0,0,0,0,0,0,-1,1063,848,0,0
-154,176,0,0,0,0,0,0,0,0,0,-1,1070,848,0,0
-147,176,0,0,0,0,0,0,0,0,0,-1,1077,848,0,0
-140,176,0,0,0,0,0,0,0,0,0,-1,1084,848,0,0
-133,176,0,0,0,0,0,0,0,0,0,-1,1091,848,0,0
-126,176,0,0,0,0,0,0,0,0,0,-1,1098,848,0,0
-119,176,0,0,0,0,0,0,0,0,0,-1,1105,848,0,0
-112,176,0,0,0,0,0,0,0,0,0,-1,1112,848,0,0
-105,176,0,0,0,0,0,0,0,0,0,-1,1119,848,0,0
-98,176,0,0,0,0,0,0,0,0,0,-1,1126,848,0,0
-91,176,0,0,0,0,0,0,0,0,0,-1,1133,848,0,0
-84,176,0,0,0,0,0,0,0,0,0,-1,1140,848,0,0
-77,176,0,0,0,0,0,0,0,0,0,-1,1147,848,0,0
-70,176,0,0,0,0,0,0,0,0,0,-1,1154,848,0,0
-63,176,0,0,0,0,0,0,0,0,0,-1,1161,848,0,0
-56,176,0,0,0,0,0,0,0,0,0,-1,1168,848,0,0
-49,176,0,0,0,0,0,0,0,0,0,-1,1175,848,0,0
-42,176,0,0,0,0,0,0,0,0,0,-1,1182,848,0,0
-35,176,0,0,0,0,0,0,0,0,0,-1,1189,848,0,0
-28,176,0,0,0,0,0,0,0,0,0,-1,1196,848,0,0
-21,176,0,0,0,0,0,0,0,0,0,-1,1203,848,0,0
-14,176,0,0,0,0,0,0,0,0,0,-1,1210,848,0,0
-7,176,0,0,0,0,0,0,0,0,0,-1,1217,848,0,0
0,176,0,0,0,0,0,0,0,0,0,-1,1224,848,0,0
7,176,0,0,0,0,0,0,0,0,0,-1,1231,848,0,0
14,176,0,0,0,0,0,0,0,0,0,-1,1238,848,0,0
21,176,0,0,0,0,0,0,0,0,0,-1,1245,848,0,0
28,176,0,0,0,0,0,0,0,0,0,-1,1252,848,0,0
35,176,0,0,0,0,0,0,0,0,0,-1,1259,848,0,0
42,176,0,0,0,0,0,0,0,0,0,-1,1266,848,0,0
49,176,0,0,0,0,0,0,0,0,0,-1,1273,848,0,0
56,176,0,0,0,0,0,0,0,0,0,-1,1280,848,0,0
63,176,0,0,0,0,0,0,0,0,0,-1,1287,848,0,0
70,176,0,0,0,0,0,0,0,0,0,-1,1294,848,0,0
77,176,0,0,0,0,0,0,0,0,0,-1,1301,848,0,0
84,176,0,0,0,0,0,0,0,0,0,-1,1308,848,0,0
91,176,0,0,0,0,0,0,0,0,0,-1,1315,848,0,0
98,176,0,0,0,0,0,0,0,0,0,-1,1322,848,0,0
105,176,0,0,0,0,0,0,0,0,0,-1,1329,848,0,0
112,176,0,0,0,0,0,0,0,0,0,-1,1336,848,0,0
119,176,0,0,0,0,0,0,0,0,0,-1,1343,848,0,0
126,176,0,0,0,0,0,0,0,0,0,-1,1350,848,0,0
133,176,0,0,0,0,0,0,0,0,0,-1,1357,848,0,0
140,176,0,0,0,0,0,0,0,0,0,-1,1364,848,0,0
147,176,0,0,0,0,0,0,0,0,0,-1,1371,848,0,0
154,176,0,0,0,0,0,0,0,0,0,-1,1378,848,0,0
161,176,0,0,0,0,0,0,0,0,0,-1,1385,848,0,0
168,176,0,0,0,0,0,0,0,0,0,-1,1392,848,0,0
175,176,0,0,0,0,0,0,0,0,0,-1,1399,848,0,0
182,176,0,0,0,0,0,0,0,0,0,-1,1406,848,0,0
189,176,0,0,0,0,0,0,0,0,0,-1,1413,848,0,0
196,176,0,0,0,0,0,0,0,0,0,-1,1420,848,0,0
203,176,0,0,0,0,0,0,0,0,0,-1,1427,848,0,0
210,176,0,0,0,0,0,0,0,0,0,-1,1434,848,0,0
217,176,0,0,0,0,0,0,0,0,0,-1,1441,848,0,0
224,176,0,0,0,0,0,0,0,0,0,-1,1448,848,0,0
231,176,0,0,0,0,0,0,0,0,0,-1,1455,848,0,0
238,176,0,0,0,0,0,0,0,0,0,-1,1462,848,0,0
245,176,0,0,0,0,0,0,0,0,0,-1,1469,848,0,0
252,176,0,0,0,0,0,0,0,0,0,-1,1476,848,0,0
259,176,0,0,0,0,0,0,0,0,0,-1,1483,848,0,0
266,176,0,0,0,0,0,0,0,0,0,-1,1490,848,0,0
273,176,0,0,0,0,0,0,0,0,0,-1,1497,848,0,0
280,176,0,0,0,0,0,0,0,0,0,-1,1504,848,0,0
287,176,0,0,0,0,0,0,0,0,0,-1,1511,848,0,0
294,176,0,0,0,0,0,0,0,0,0,-1,1518,848,0,0
301,176,0,0,0,0,0,0,0,0,0,-1,1525,848,0,0
308,176,0,0,0,0,0,0,0,0,0,-1,1532,848,0,0
315,176,0,0,0,0,0,0,0,0,0,-1,1539,848,0,0
322,176,0,0,0,0,0,0,0,0,0,-1,1546,848,0,0
329,176,0,0,0,0,0,0,0,0,0,-1,1553,848,0,0
336,176,0,0,0,0,0,0,0,0,0,-1,1560,848,0,0
343,176,0,0,0,0,0,0,0,0,0,-1,1567,848,0,0
350,176,0,0,0,0,0,0,0,0,0,-1,1574,848,0,0
357,176,0,0,0,0,0,0,0,0,0,-1,1581,848,0,0
364,176,0,0,0,0,0,0,0,0,0,-1,1588,848,0,0
371,176,0,0,0,0,0,0,0,0,0,-1,1595,848,0,0
378,176,0,0,0,0,0,0,0,0,0,-1,1602,848,0,0
385,176,0,0,0,0,0,0,0,0,0,-1,1609,848,0,0
392,176,0,0,0,0,0,0,0,0,0,-1,1616,848,0,0
399,176,0,0,0,0,0,0,0,0,0,-1,1623,848,0,0
406,176,0,0,0,0,0,0,0,0,0,-1,1630,848,0,0
413,176,0,0,0,0,0,0,0,0,0,-1,1637,848,0,0
420,176,0,0,0,0,0,0,0,0,0,-1,1644,848,0,0
427,176,0,0,0,0,0,0,0,0,0,-1,1651,848,0,0
434,176,0,0,0,0,0,0,0,0,0,-1,1658,848,0,0
441,176,0,0,0,0,0,0,0,0,0,-1,1665,848,0,0
448,176,0,0,0,0,0,0,0,0,0,-1,1672,848,0,0
455,176,0,0,0,0,0,0,0,0,0,-1,1679,848,0,0
462,176,0,0,0,0,0,0,0,0,0,-1,1686,848,0,0
469,176,0,0,0,0,0,0,0,0,0,-1,1693,848,0,0
476,176,0,0,0,0,0,0,0,0,0,-1,1700,848,0,0
483,176,0,0,0,0,0,0,0,0,0,-1,1707,848,0,0
490,176,0,0,0,0,0,0,0,0,0,-1,1714,848,0,0
497,176,0,0,0,0,0,0,0,0,0,-1,1721,848,0,0
504,176,0,0,0,0,0,0,0,0,0,-1,1728,848,0,0
511,176,0,0,0,0,0,0,0,0,0,-1,1735,848,0,0
518,176,0,0,0,0,0,0,0,0,0,-1,1742,848,0,0
525,176,0,0,0,0,0,0,0,0,0,-1,1749,848,0,0
532,176,0,0,0,0,0,0,0,0,0,-1,1756,848,0,0
539,176,0,0,0,0,0,0,0,0,0,-1,1763,848,0,0
546,176,0,0,0,0,0,0,0,0,0,-1,1770,848,0,0
553,176,0,0,0,0,0,0,0,0,0,-1,1777,848,0,0
560,176,0,0,0,0,0,0,0,0,0,-1,1784,848,0,0
567,176,0,0,0,0,0,0,0,0,0,-1,1791,848,0,0
574,176,0,0,0,0,0,0,0,0,0,-1,1798,848,0,0
581,176,0,0,0,0,0,0,0,0,0,-1,1805,848,0,0
588,176,0,0,0,0,0,0,0,0,0,-1,1812,848,0,0
595,176,0,0,0,0,0,0,0,0,0,-1,1819,848,0,0
602,176,0,0,0,0,0,0,0,0,0,-1,1826,848,0,0
609,176,55.0167,2.78595,0.00306545,0.000646351,-0.00406277,0.00609491,-0.0023831,-0.640718,0.00504873,0.0418064,1833,848,55.0168,-2.78596
616,176,55.1302,2.57837,0.00220303,0.000409033,-0.00280527,0.00425122,-0.00163916,-0.630658,0.0035105,0.0406073,1840,848,55.1303,-2.57837
623,176,55.1627,2.60974,0.0013251,0.000154758,-0.00162451,0.00246662,-0.000986764,-0.612526,0.00205393,0.0425803,1847,848,55.1627,-2.60976
630,176,55.207,2.74084,0.000196548,7.21446e-05,-0.00103167,0.00116789,-0.000899197,-0.755289,0.00119679,0.0416311,1854,848,55.207,-2.74086
637,176,55.028,2.87073,-0.000947361,-9.80756e-05,-0.000942161,0.000510717,-0.00155615,-0.997121,0.00124315,0.0330411,1861,848,55.028,-2.87072
644,176,54.8655,2.91418,-0.00185273,-0.000444249,-0.00110477,0.000161653,-0.00245863,-1.06915,0.00169554,0.030756,1868,848,54.8655,-2.91418
651,176,54.855,2.94141,-0.00250436,-0.000872124,-0.00140636,-6.22396e-05,-0.00331424,-1.0483,0.00218904,0.0299116,1875,848,54.855,-2.94138
658,176,54.8655,2.95117,0,0,0,0,0,0,0,-1,1882,848,54.8655,-2.95115
665,176,54.3333,2.34277,0,0,0,0,0,0,0,-1,1889,848,54.3333,-2.34279
672,176,16.9304,2.80719,0,0,0,0,0,0,0,-1,1896,848,16.9305,-2.80719
679,176,44.6501,0.684814,0,0,0,0,0,0,0,-1,1903,848,44.6501,-0.684823
686,176,44.5424,1.38867,-0.00362304,-0.00107052,-0.00227351,0.00026046,-0.00495401,-1.04116,0.00339283,0.0447217,1910,848,44.5424,-1.38866
693,176,44.3763,2.01563,-0.0031214,-0.000867171,-0.00254517,0.000789283,-0.00477786,-0.993842,0.00347831,0.0251173,1917,848,44.3764,-2.01563
700,176,44.2404,2.65936,-0.00266231,-0.000550895,-0.00255077,0.001154,-0.0043672,-0.981604,0.0033628,0.0294052,1924,848,44.2404,-2.65937
707,176,44.2148,3.19788,-0.00214959,-0.000187395,-0.00225475,0.00129046,-0.00362745,-0.990606,0.00294428,0.0172972,1931,848,44.2148,-3.19786
714,176,44.1603,3.70477,-0.00104957,0.000333422,-0.00163526,0.00141738,-0.00213353,-0.985428,0.00206397,0.0118545,1938,848,44.1602,-3.70479
721,176,44.1362,4.29248,0.000610459,0.00103752,-0.000862798,0.00171282,-6.48405e-05,-0.906703,0.00116409,0.0124828,1945,848,44.1363,-4.29248
728,176,44.073,4.90253,0.00270904,0.00179508,0.000177919,0.00274246,0.00176166,0.185639,0.00160461,0.0155249,1952,848,44.073,-4.90252
735,176,44.0602,5.51215,0.00502572,0.00272961,0.00131976,0.00562689,0.00212844,0.427431,0.00328063,0.0140142,1959,848,44.0601,-5.51216
742,176,44.0449,6.13489,0.00740429,0.00376835,0.00254082,0.00871055,0.00246209,0.474871,0.00518499,0.0252522,1966,848,44.045,-6.13491
749,176,44.4202,6.96454,0.00984233,0.00485608,0.00390226,0.0119799,0.00271851,0.501135,0.0072523,0.0389725,1973,848,44.4202,-6.96455
756,176,44.9159,7.86316,0,0,0,0,0,0,0,-1,1980,848,44.9159,-7.86318
763,176,44.4343,7.70581,0,0,0,0,0,0,0,-1,1987,848,44.4343,-7.70578
770,176,36.4186,4.25641,0,0,0,0,0,0,0,-1,1994,848,36.4186,-4.25639
777,176,43.8328,7.50177,0,0,0,0,0,0,0,-1,2001,848,43.8328,-7.50178
784,176,0,0,0,0,0,0,0,0,0,-1,2008,848,0,0
791,176,0,0,0,0,0,0,0,0,0,-1,2015,848,0,0
798,176,0,0,0,0,0,0,0,0,0,-1,2022,848,0,0
805,176,0,0,0,0,0,0,0,0,0,-1,2029,848,0,0
812,176,0,0,0,0,0,0,0,0,0,-1,2036,848,0,0
-700,169,0,0,0,0,0,0,0,0,0,-1,524,855,0,0
-693,169,0,0,0,0,0,0,0,0,0,-1,531,855,0,0
-686,169,0,0,0,0,0,0,0,0,0,-1,538,855,0,0
-679,169,0,0,0,0,0,0,0,0,0,-1,545,855,0,0
-672,169,0,0,0,0,0,0,0,0,0,-1,552,855,0,0
-665,169,-35.6535,6.30945,0,0,0,0,0,0,0,-1,559,855,-35.6535,-6.30943
-658,169,-34.7747,6.01379,0,0,0,0,0,0,0,-1,566,855,-34.7746,-6.01382
-651,169,-32.4828,7.84583,0,0,0,0,0,0,0,-1,573,855,-32.4828,-7.84584
-644,169,-32.5435,6.96881,0.0270823,0.0676607,0.015537,0.0729264,0.0218167,1.24404,0.0432215,0.0463431,580,855,-32.5434,-6.9688
-637,169,-32.7287,5.99963,0.0220369,0.0509577,0.0108458,0.0545731,0.0184215,1.24904,0.0320573,0.0471945,587,855,-32.7287,-5.99964
-630,169,-32.1687,5.73407,0.0172629,0.0376015,0.00755615,0.0401015,0.014763,1.25128,0.0234194,0.0493109,594,855,-32.1687,-5.7341
-623,169,-32.2786,4.81537,0.0126386,0.0272167,0.00539117,0.0289938,0.0108616,1.25238,0.0169141,0.0390072,601,855,-32.2786,-4.81536
-616,169,-32.2955,4.07764,0.0084766,0.0190258,0.00411303,0.0204399,0.00706252,1.23965,0.0119872,0.0222656,608,855,-32.2955,-4.07762
-609,169,-32.3215,3.5047,0.00538194,0.0128032,0.00345696,0.014164,0.00402114,1.19578,0.00842831,0.0134118,615,855,-32.3215,-3.50467
-602,169,-32.3541,2.91473,0.00311653,0.00821764,0.00324318,0.00979305,0.00154113,1.11861,0.00608044,0.0126563,622,855,-32.3541,-2.91471
-595,169,-32.3698,2.3125,0.00176164,0.00495967,0.00336092,0.00708256,-0.000361259,1.00744,0.00484662,0.011558,629,855,-32.3697,-2.3125
-588,169,-32.3634,1.74774,0.00129779,0.0027018,0.00348646,0.00555623,-0.00155664,0.884746,0.00431761,0.0107191,636,855,-32.3634,-1.74775
-581,169,-32.4117,1.245,0.00122799,0.00184624,0.0036244,0.00517467,-0.00210044,0.82794,0.00432348,0.0177719,643,855,-32.4117,-1.24497
-574,169,-32.689,0.610107,0.00131221,0.001302,0.00361535,0.00492246,-0.00230825,0.784692,0.00426463,0.0325153,650,855,-32.689,-0.610094
-567,169,-32.4852,0.103455,0.00150319,0.000658949,0.00360403,0.00470974,-0.0025476,0.727101,0.00425156,0.0401452,657,855,-32.4852,-0.103454
-560,169,-32.4512,-0.283081,0.00157099,-0.000122873,0.00367634,0.00449669,-0.00304857,0.672187,0.00438292,0.0498586,664,855,-32.4513,0.283106
-553,169,-32.1944,-0.787964,0,0,0,0,0,0,0,-1,671,855,-32.1944,0.787959
-546,169,-19.0852,-1.05609,0,0,0,0,0,0,0,-1,678,855,-19.0852,1.05612
-539,169,-33.2307,1.10706,0,0,0,0,0,0,0,-1,685,855,-33.2307,-1.10708
-532,169,-41.1813,1.21619,0,0,0,0,0,0,0,-1,692,855,-41.1813,-1.21621
-525,169,-41.1733,1.125,0.00195773,-0.00361041,0.00364401,0.00375949,-0.00541217,0.459193,0.00532384,0.0481191,699,855,-41.1733,-1.125
-518,169,-41.0431,1.07196,0.00151946,-0.00451829,0.00358033,0.00318379,-0.00618262,0.435136,0.00549931,0.0418959,706,855,-41.0431,-1.07193
-511,169,-41.1321,1.00739,0.000894824,-0.00509884,0.00360509,0.00258603,-0.00679004,0.438636,0.00559172,0.0398798,713,855,-41.1321,-1.00738
-504,169,-41.3151,1.24829,0.00113311,-0.00479773,0.00340083,0.00267982,-0.00634444,0.426843,0.00535144,0.0404354,720,855,-41.3151,-1.24828
-497,169,-41.262,1.24005,0.00155927,-0.00372291,0.00259565,0.00262125,-0.0047849,0.388361,0.00433634,0.0422541,727,855,-41.262,-1.24002
-490,169,0,0,0,0,0,0,0,0,0,-1,734,855,0,0
-483,169,0,0,0,0,0,0,0,0,0,-1,741,855,0,0
-476,169,0,0,0,0,0,0,0,0,0,-1,748,855,0,0
-469,169,0,0,0,0,0,0,0,0,0,-1,755,855,0,0
-462,169,0,0,0,0,0,0,0,0,0,-1,762,855,0,0
-455,169,0,0,0,0,0,0,0,0,0,-1,769,855,0,0
-448,169,0,0,0,0,0,0,0,0,0,-1,776,855,0,0
-441,169,0,0,0,0,0,0,0,0,0,-1,783,855,0,0
-434,169,0,0,0,0,0,0,0,0,0,-1,790,855,0,0
-427,169,0,0,0,0,0,0,0,0,0,-1,797,855,0,0
-420,169,0,0,0,0,0,0,0,0,0,-1,804,855,0,0
-413,169,0,0,0,0,0,0,0,0,0,-1,811,855,0,0
-406,169,0,0,0,0,0,0,0,0,0,-1,818,855,0,0
-399,169,0,0,0,0,0,0,0,0,0,-1,825,855,0,0
-392,169,0,0,0,0,0,0,0,0,0,-1,832,855,0,0
-385,169,0,0,0,0,0,0,0,0,0,-1,839,855,0,0
-378,169,0,0,0,0,0,0,0,0,0,-1,846,855,0,0
-371,169,0,0,0,0,0,0,0,0,0,-1,853,855,0,0
-364,169,0,0,0,0,0,0,0,0,0,-1,860,855,0,0
-357,169,0,0,0,0,0,0,0,0,0,-1,867,855,0,0
-350,169,0,0,0,0,0,0,0,0,0,-1,874,855,0,0
-343,169,0,0,0,0,0,0,0,0,0,-1,881,855,0,0
-336,169,0,0,0,0,0,0,0,0,0,-1,888,855,0,0
-329,169,0,0,0,0,0,0,0,0,0,-1,895,855,0,0
-322,169,0,0,0,0,0,0,0,0,0,-1,902,855,0,0
-315,169,0,0,0,0,0,0,0,0,0,-1,909,855,0,0
-308,169,0,0,0,0,0,0,0,0,0,-1,916,855,0,0
-301,169,0,0,0,0,0,0,0,0,0,-1,923,855,0,0
-294,169,0,0,0,0,0,0,0,0,0,-1,930,855,0,0
-287,169,0,0,0,0,0,0,0,0,0,-1,937,855,0,0
-280,169,0,0,0,0,0,0,0,0,0,-1,944,855,0,0
-273,169,0,0,0,0,0,0,0,0,0,-1,951,855,0,0
-266,169,0,0,0,0,0,0,0,0,0,-1,958,855,0,0
-259,169,0,0,0,0,0,0,0,0,0,-1,965,855,0,0
-252,169,0,0,0,0,0,0,0,0,0,-1,972,855,0,0
-245,169,0,0,0,0,0,0,0,0,0,-1,979,855,0,0
-238,169,0,0,0,0,0,0,0,0,0,-1,986,855,0,0
-231,169,0,0,0,0,0,0,0,0,0,-1,993,855,0,0
-224,169,0,0,0,0,0,0,0,0,0,-1,1000,855,0,0
-217,169,0,0,0,0,0,0,0,0,0,-1,1007,855,0,0
-210,169,0,0,0,0,0,0,0,0,0,-1,1014,855,0,0
-203,169,0,0,0,0,0,0,0,0,0,-1,1021,855,0,0
-196,169,0,0,0,0,0,0,0,0,0,-1,1028,855,0,0
-189,169,0,0,0,0,0,0,0,0,0,-1,1035,855,0,0
-182,169,0,0,0,0,0,0,0,0,0,-1,1042,855,0,0
-175,169,0,0,0,0,0,0,0,0,0,-1,1049,855,0,0
-168,169,0,0,0,0,0,0,0,0,0,-1,1056,855,0,0
-161,169,0,0,0,0,0,0,0,0,0,-1,1063,855,0,0
-154,169,0,0,0,0,0,0,0,0,0,-1,1070,855,0,0
-147,169,0,0,0,0,0,0,0,0,0,-1,1077,855,0,0
-140,169,0,0,0,0,0,0,0,0,0,-1,1084,855,0,0
-133,169,0,0,0,0,0,0,0,0,0,-1,1091,855,0,0
-126,169,0,0,0,0,0,0,0,0,0,-1,1098,855,0,0
-119,169,0,0,0,0,0,0,0,0,0,-1,1105,855,0,0
-112,169,0,0,0,0,0,0,0,0,0,-1,1112,855,0,0
-105,169,0,0,0,0,0,0,0,0,0,-1,1119,855,0,0
-98,169,0,0,0,0,0,0,0,0,0,-1,1126,855,0,0
-91,169,0,0,0,0,0,0,0,0,0,-1,1133,855,0,0
-84,169,0,0,0,0,0,0,0,0,0,-1,1140,855,0,0
-77,169,0,0,0,0,0,0,0,0,0,-1,1147,855,0,0
-70,169,0,0,0,0,0,0,0,0,0,-1,1154,855,0,0
-63,169,0,0,0,0,0,0,0,0,0,-1,1161,855,0,0
-56,169,0,0,0,0,0,0,0,0,0,-1,1168,855,0,0
-49,169,0,0,0,0,0,0,0,0,0,-1,1175,855,0,0
-42,169,0,0,0,0,0,0,0,0,0,-1,1182,855,0,0
-35,169,0,0,0,0,0,0,0,0,0,-1,1189,855,0,0
-28,169,0,0,0,0,0,0,0,0,0,-1,1196,855,0,0
-21,169,0,0,0,0,0,0,0,0,0,-1,1203,855,0,0
-14,169,0,0,0,0,0,0,0,0,0,-1,1210,855,0,0
-7,169,0,0,0,0,0,0,0,0,0,-1,1217,855,0,0
0,169,0,0,0,0,0,0,0,0,0,-1,1224,855,0,0
7,169,0,0,0,0,0,0,0,0,0,-1,1231,855,0,0
14,169,0,0,0,0,0,0,0,0,0,-1,1238,855,0,0
21,169,0,0,0,0,0,0,0,0,0,-1,1245,855,0,0
28,169,0,0,0,0,0,0,0,0,0,-1,1252,855,0,0
35,169,0,0,0,0,0,0,0,0,0,-1,1259,855,0,0
42,169,0,0,0,0,0,0,0,0,0,-1,1266,855,0,0
49,169,0,0,0,0,0,0,0,0,0,-1,1273,855,0,0
56,169,0,0,0,0,0,0,0,0,0,-1,1280,855,0,0
63,169,0,0,0,0,0,0,0,0,0,-1,1287,855,0,0
70,169,0,0,0,0,0,0,0,0,0,-1,1294,855,0,0
77,169,0,0,0,0,0,0,0,0,0,-1,1301,855,0,0
84,169,0,0,0,0,0,0,0,0,0,-1,1308,855,0,0
91,169,0,0,0,0,0,0,0,0,0,-1,1315,855,0,0
98,169,0,0,0,0,0,0,0,0,0,-1,1322,855,0,0
105,169,0,0,0,0,0,0,0,0,0,-1,1329,855,0,0
112,169,0,0,0,0,0,0,0,0,0,-1,1336,855,0,0
119,169,0,0,0,0,0,0,0,0,0,-1,1343,855,0,0
126,169,0,0,0,0,0,0,0,0,0,-1,1350,855,0,0
133,169,0,0,0,0,0,0,0,0,0,-1,1357,855,0,0
140,169,0,0,0,0,0,0,0,0,0,-1,1364,855,0,0
147,169,0,0,0,0,0,0,0,0,0,-1,1371,855,0,0
154,169,0,0,0,0,0,0,0,0,0,-1,1378,855,0,0
161,169,0,0,0,0,0,0,0,0,0,-1,1385,855,0,0
168,169,0,0,0,0,0,0,0,0,0,-1,1392,855,0,0
175,169,0,0,0,0,0,0,0,0,0,-1,1399,855,0,0
182,169,0,0,0,0,0,0,0,0,0,-1,1406,855,0,0
189,169,0,0,0,0,0,0,0,0,0,-1,1413,855,0,0
196,169,0,0,0,0,0,0,0,0,0,-1,1420,855,0,0
203,169,0,0,0,0,0,0,0,0,0,-1,1427,855,0,0
210,169,0,0,0,0,0,0,0,0,0,-1,1434,855,0,0
217,169,0,0,0,0,0,0,0,0,0,-1,1441,855,0,0
224,169,0,0,0,0,0,0,0,0,0,-1,1448,855,0,0
231,169,0,0,0,0,0,0,0,0,0,-1,1455,855,0,0
238,169,0,0,0,0,0,0,0,0,0,-1,1462,855,0,0
245,169,0,0,0,0,0,0,0,0,0,-1,1469,855,0,0
252,169,0,0,0,0,0,0,0,0,0,-1,1476,855,0,0
259,169,0,0,0,0,0,0,0,0,0,-1,1483,855,0,0
266,169,0,0,0,0,0,0,0,0,0,-1,1490,855,0,0
273,169,0,0,0,0,0,0,0,0,0,-1,1497,855,0,0
280,169,0,0,0,0,0,0,0,0,0,-1,1504,855,0,0
287,169,0,0,0,0,0,0,0,0,0,-1,1511,855,0,0
294,169,0,0,0,0,0,0,0,0,0,-1,1518,855,0,0
301,169,0,0,0,0,0,0,0,0,0,-1,1525,855,0,0
308,169,0,0,0,0,0,0,0,0,0,-1,1532,855,0,0
315,169,0,0,0,0,0,0,0,0,0,-1,1539,855,0,0
322,169,0,0,0,0,0,0,0,0,0,-1,1546,855,0,0
329,169,0,0,0,0,0,0,0,0,0,-1,1553,855,0,0
336,169,0,0,0,0,0,0,0,0,0,-1,1560,855,0,0
343,169,0,0,0,0,0,0,0,0,0,-1,1567,855,0,0
350,169,0,0,0,0,0,0,0,0,0,-1,1574,855,0,0
357,169,0,0,0,0,0,0,0,0,0,-1,1581,855,0,0
364,169,0,0,0,0,0,0,0,0,0,-1,1588,855,0,0
371,169,0,0,0,0,0,0,0,0,0,-1,1595,855,0,0
378,169,0,0,0,0,0,0,0,0,0,-1,1602,855,0,0
385,169,0,0,0,0,0,0,0,0,0,-1,1609,855,0,0
392,169,0,0,0,0,0,0,0,0,0,-1,1616,855,0,0
399,169,0,0,0,0,0,0,0,0,0,-1,1623,855,0,0
406,169,0,0,0,0,0,0,0,0,0,-1,1630,855,0,0
413,169,0,0,0,0,0,0,0,0,0,-1,1637,855,0,0
420,169,0,0,0,0,0,0,0,0,0,-1,1644,855,0,0
427,169,0,0,0,0,0,0,0,0,0,-1,1651,855,0,0
434,169,0,0,0,0,0,0,0,0,0,-1,1658,855,0,0
441,169,0,0,0,0,0,0,0,0,0,-1,1665,855,0,0
448,169,0,0,0,0,0,0,0,0,0,-1,1672,855,0,0
455,169,0,0,0,0,0,0,0,0,0,-1,1679,855,0,0
462,169,0,0,0,0,0,0,0,0,0,-1,1686,855,0,0
469,169,0,0,0,0,0,0,0,0,0,-1,1693,855,0,0
476,169,0,0,0,0,0,0,0,0,0,-1,1700,855,0,0
483,169,0,0,0,0,0,0,0,0,0,-1,1707,855,0,0
490,169,0,0,0,0,0,0,0,0,0,-1,1714,855,0,0
497,169,0,0,0,0,0,0,0,0,0,-1,1721,855,0,0
504,169,0,0,0,0,0,0,0,0,0,-1,1728,855,0,0
511,169,0,0,0,0,0,0,0,0,0,-1,1735,855,0,0
518,169,0,0,0,0,0,0,0,0,0,-1,1742,855,0,0
525,169,0,0,0,0,0,0,0,0,0,-1,1749,855,0,0
532,169,0,0,0,0,0,0,0,0,0,-1,1756,855,0,0
539,169,0,0,0,0,0,0,0,0,0,-1,1763,855,0,0
546,169,0,0,0,0,0,0,0,0,0,-1,1770,855,0,0
553,169,0,0,0,0,0,0,0,0,0,-1,1777,855,0,0
560,169,0,0,0,0,0,0,0,0,0,-1,1784,855,0,0
567,169,0,0,0,0,0,0,0,0,0,-1,1791,855,0,0
574,169,0,0,0,0,0,0,0,0,0,-1,1798,855,0,0
581,169,0,0,0,0,0,0,0,0,0,-1,1805,855,0,0
588,169,0,0,0,0,0,0,0,0,0,-1,1812,855,0,0
595,169,0,0,0,0,0,0,0,0,0,-1,1819,855,0,0
602,169,0,0,0,0,0,0,0,0,0,-1,1826,855,0,0
609,169,0,0,0,0,0,0,0,0,0,-1,1833,855,0,0
616,169,54.9802,3.06335,0.00245533,-0.000847002,-0.00384778,0.00499126,-0.00338293,-0.58272,0.00486447,0.0430937,1840,855,54.9803,-3.06335
623,169,55.1763,2.72168,0.00158044,-0.00103008,-0.00245879,0.00305895,-0.00250859,-0.541385,0.00321965,0.0447376,1847,855,55.1763,-2.72168
630,169,55.1056,2.78302,0.000687064,-0.000907282,-0.00155972,0.00164153,-0.00186174,-0.549155,0.00202395,0.0451251,1854,855,55.1056,-2.783
637,169,55.053,2.86951,-0.000253871,-0.000723506,-0.00111659,0.000652322,-0.0016297,-0.681759,0.00135721,0.0392511,1861,855,55.0529,-2.86949
644,169,54.9498,2.99896,-0.00106151,-0.000815528,-0.0010778,0.000146282,-0.00202332,-0.842208,0.00140019,0.0369253,1868,855,54.9498,-2.99897
651,169,54.8751,3.08124,-0.0016913,-0.00110273,-0.0013001,-6.40202e-05,-0.00273001,-0.896701,0.00179905,0.0356025,1875,855,54.8751,-3.08122
658,169,54.9082,2.93085,-0.0021331,-0.00108542,-0.00156725,4.32128e-05,-0.00326174,-0.946682,0.00218904,0.032087,1882,855,54.9082,-2.93082
665,169,55.0641,2.67822,0,0,0,0,0,0,0,-1,1889,855,55.0641,-2.67825
672,169,31.2465,2.96387,0,0,0,0,0,0,0,-1,1896,855,31.2464,-2.9639
679,169,38.4297,1.08197,0,0,0,0,0,0,0,-1,1903,855,38.4296,-1.08194
686,169,45.0304,1.43762,0,0,0,0,0,0,0,-1,1910,855,45.0304,-1.43761
693,169,45.0319,2.06812,-0.00246414,-0.0005713,-0.00235413,0.00101953,-0.00405497,-0.976524,0.00309957,0.0264989,1917,855,45.0319,-2.06814
700,169,45.016,2.70605,-0.00217678,-0.000252226,-0.00234028,0.00131589,-0.0037449,-0.980452,0.00303196,0.0235826,1924,855,45.0159,-2.70607
707,169,44.9081,3.23199,-0.0019545,2.33984e-05,-0.00213289,0.00138545,-0.00331656,-1.00248,0.00278998,0.0227545,1931,855,44.9081,-3.23202
714,169,44.7291,3.70642,-0.00128427,0.000438236,-0.00169043,0.00147417,-0.00232021,-1.021,0.00220876,0.0148425,1938,855,44.7292,-3.70642
721,169,44.7429,4.32947,-0.000177367,0.00102588,-0.00118464,0.0017529,-0.000904395,-1.02035,0.00156005,0.016981,1945,855,44.743,-4.32949
728,169,44.7112,4.94849,0.00135002,0.00167506,-0.000419557,0.00196247,0.0010626,-0.970179,0.00113433,0.0141721,1952,855,44.7112,-4.94849
735,169,44.6719,5.55792,0.00310984,0.00249457,0.000465389,0.00336009,0.00224433,0.493354,0.00197609,0.0199748,1959,855,44.6719,-5.55793
742,169,44.6688,6.17358,0.00486899,0.00345422,0.0014447,0.00577019,0.00255302,0.557735,0.00333877,0.0198147,1966,855,44.6688,-6.17357
749,169,44.6573,6.70709,0.00650224,0.00445952,0.00247563,0.00815893,0.00280284,0.589752,0.00478683,0.0315315,1973,855,44.6573,-6.70712
756,169,44.8704,7.23267,0,0,0,0,0,0,0,-1,1980,855,44.8703,-7.23267
763,169,45.1978,7.5675,0,0,0,0,0,0,0,-1,1987,855,45.1977,-7.56751
770,169,37.2059,3.97021,0,0,0,0,0,0,0,-1,1994,855,37.2059,-3.97022
777,169,41.7505,8.7085,0,0,0,0,0,0,0,-1,2001,855,41.7505,-8.70852
784,169,39.0697,9.4693,0,0,0,0,0,0,0,-1,2008,855,39.0697,-9.46928
791,169,0,0,0,0,0,0,0,0,0,-1,2015,855,0,0
798,169,0,0,0,0,0,0,0,0,0,-1,2022,855,0,0
805,169,0,0,0,0,0,0,0,0,0,-1,2029,855,0,0
812,169,0,0,0,0,0,0,0,0,0,-1,2036,855,0,0
-700,162,0,0,0,0,0,0,0,0,0,-1,524,862,0,0
-693,162,0,0,0,0,0,0,0,0,0,-1,531,862,0,0
-686,162,0,0,0,0,0,0,0,0,0,-1,538,862,0,0
-679,162,0,0,0,0,0,0,0,0,0,-1,545,862,0,0
-672,162,0,0,0,0,0,0,0,0,0,-1,552,862,0,0
-665,162,-35.5759,6.16321,0,0,0,0,0,0,0,-1,559,862,-35.5759,-6.16319
-658,162,-34.894,5.74805,0,0,0,0,0,0,0,-1,566,862,-34.894,-5.74806
-651,162,-33.9987,6.55432,0,0,0,0,0,0,0,-1,573,862,-33.9987,-6.55429
-644,162,-33.778,6.19391,0.0263485,0.0647869,0.0164514,0.0708664,0.020269,1.21682,0.0421452,0.0472451,580,862,-33.7779,-6.19394
-637,162,-33.6513,5.62408,0.0212511,0.0487221,0.0116272,0.0529825,0.0169906,1.21957,0.0312383,0.0473971,587,862,-33.6513,-5.62406
-630,162,-33.326,5.00189,0.0164516,0.0358103,0.00827052,0.0388625,0.0133994,1.21726,0.0227947,0.0458274,594,862,-33.326,-5.00188
-623,162,-33.0283,4.56903,0.0118742,0.0258432,0.00605898,0.028105,0.0096124,1.21352,0.0164942,0.0329783,601,862,-33.0283,-4.569
-616,162,-32.8665,4.10065,0.00778645,0.0179268,0.00472721,0.0197887,0.00592459,1.19559,0.0117275,0.0199676,608,862,-32.8665,-4.10065
-609,162,-32.9243,3.50677,0.00479407,0.0119094,0.00403053,0.0137278,0.00297566,1.14698,0.00833885,0.014135,615,862,-32.9243,-3.50677
-602,162,-32.9628,2.91626,0.0026305,0.00744375,0.00379044,0.00952704,0.000547215,1.06825,0.00617704,0.0113895,622,862,-32.9627,-2.91627
-595,162,-32.9472,2.35828,0.00144695,0.00437104,0.00384549,0.00702304,-0.00120505,0.967058,0.0051311,0.0107213,629,862,-32.9472,-2.35825
-588,162,-32.9277,1.80676,0.00115352,0.00239799,0.00386647,0.00569198,-0.00214047,0.86518,0.00467446,0.0121873,636,862,-32.9277,-1.80673
-581,162,-33.1526,1.23962,0.00117047,0.00174706,0.00389003,0.00535946,-0.00244193,0.822386,0.00460793,0.0299098,643,862,-33.1526,-1.23965
-574,162,-33.4766,0.617554,0.00115097,0.00130672,0.00378761,0.00501726,-0.00255956,0.795677,0.00445053,0.0425851,650,862,-33.4765,-0.617545
-567,162,-33.4449,0.0369873,0.00124319,0.000758761,0.0037465,0.00475529,-0.00275334,0.753117,0.00438617,0.0471749,657,862,-33.4449,-0.0369765
-560,162,-33.165,-0.626892,0.00134366,0.000155285,0.00380958,0.00460511,-0.00310616,0.708036,0.00448005,0.0440958,664,862,-33.165,0.62689
-553,162,-32.6971,-1.35669,0,0,0,0,0,0,0,-1,671,862,-32.6971,1.35669
-546,162,-22.8181,-1.51154,0,0,0,0,0,0,0,-1,678,862,-22.8181,1.51155
-539,162,-41.1533,1.07013,0,0,0,0,0,0,0,-1,685,862,-41.1533,-1.07013
-532,162,-41.1776,1.13409,0.0017092,-0.00213909,0.00374941,0.00399936,-0.00442925,0.548327,0.00486837,0.041869,692,862,-41.1776,-1.1341
-525,162,-41.2286,1.09583,0.00181407,-0.00292742,0.00363985,0.00378716,-0.00490052,0.496743,0.00502955,0.0419431,699,862,-41.2286,-1.09585
-518,162,-41.1773,1.05554,0.00130267,-0.00372646,0.00359656,0.00317653,-0.00560032,0.480318,0.00513132,0.040727,706,862,-41.1773,-1.05555
-511,162,-41.1593,1.01672,0.000788673,-0.00405095,0.00362031,0.00272341,-0.00598569,0.490797,0.00514445,0.0420342,713,862,-41.1593,-1.0167
-504,162,-41.3089,1.21179,0.00147841,-0.00318343,0.00336636,0.00324207,-0.00494709,0.482589,0.00476205,0.0442542,720,862,-41.3089,-1.21182
-497,162,-41.2807,1.35388,0.00229196,-0.00184681,0.00251493,0.00347945,-0.0030343,0.441142,0.00376364,0.0429548,727,862,-41.2807,-1.35387
-490,162,0,0,0,0,0,0,0,0,0,-1,734,862,0,0
-483,162,0,0,0,0,0,0,0,0,0,-1,741,862,0,0
-476,162,0,0,0,0,0,0,0,0,0,-1,748,862,0,0
-469,162,0,0,0,0,0,0,0,0,0,-1,755,862,0,0
-462,162,0,0,0,0,0,0,0,0,0,-1,762,862,0,0
-455,162,0,0,0,0,0,0,0,0,0,-1,769,862,0,0
-448,162,0,0,0,0,0,0,0,0,0,-1,776,862,0,0
-441,162,0,0,0,0,0,0,0,0,0,-1,783,862,0,0
-434,162,0,0,0,0,0,0,0,0,0,-1,790,862,0,0
-427,162,0,0,0,0,0,0,0,0,0,-1,797,862,0,0
-420,162,0,0,0,0,0,0,0,0,0,-1,804,862,0,0
-413,162,0,0,0,0,0,0,0,0,0,-1,811,862,0,0
-406,162,0,0,0,0,0,0,0,0,0,-1,818,862,0,0
-399,162,0,0,0,0,0,0,0,0,0,-1,825,862,0,0
-392,162,0,0,0,0,0,0,0,0,0,-1,832,862,0,0
-385,162,0,0,0,0,0,0,0,0,0,-1,839,862,0,0
-378,162,0,0,0,0,0,0,0,0,0,-1,846,862,0,0
-371,162,0,0,0,0,0,0,0,0,0,-1,853,862,0,0
-364,162,0,0,0,0,0,0,0,0,0,-1,860,862,0,0
-357,162,0,0,0,0,0,0,0,0,0,-1,867,862,0,0
-350,162,0,0,0,0,0,0,0,0,0,-1,874,862,0,0
-343,162,0,0,0,0,0,0,0,0,0,-1,881,862,0,0
-336,162,0,0,0,0,0,0,0,0,0,-1,888,862,0,0
-329,162,0,0,0,0,0,0,0,0,0,-1,895,862,0,0
-322,162,0,0,0,0,0,0,0,0,0,-1,902,862,0,0
-315,162,0,0,0,0,0,0,0,0,0,-1,909,862,0,0
-308,162,0,0,0,0,0,0,0,0,0,-1,916,862,0,0
-301,162,0,0,0,0,0,0,0,0,0,-1,923,862,0,0
-294,162,0,0,0,0,0,0,0,0,0,-1,930,862,0,0
-287,162,0,0,0,0,0,0,0,0,0,-1,937,862,0,0
-280,162,0,0,0,0,0,0,0,0,0,-1,944,862,0,0
-273,162,0,0,0,0,0,0,0,0,0,-1,951,862,0,0
-266,162,0,0,0,0,0,0,0,0,0,-1,958,862,0,0
-259,162,0,0,0,0,0,0,0,0,0,-1,965,862,0,0
-252,162,0,0,0,0,0,0,0,0,0,-1,972,862,0,0
-245,162,0,0,0,0,0,0,0,0,0,-1,979,862,0,0
-238,162,0,0,0,0,0,0,0,0,0,-1,986,862,0,0
-231,162,0,0,0,0,0,0,0,0,0,-1,993,862,0,0
-224,162,0,0,0,0,0,0,0,0,0,-1,1000,862,0,0
-217,162,0,0,0,0,0,0,0,0,0,-1,1007,862,0,0
-210,162,0,0,0,0,0,0,0,0,0,-1,1014,862,0,0
-203,162,0,0,0,0,0,0,0,0,0,-1,1021,862,0,0
-196,162,0,0,0,0,0,0,0,0,0,-1,1028,862,0,0
-189,162,0,0,0,0,0,0,0,0,0,-1,1035,862,0,0
-182,162,0,0,0,0,0,0,0,0,0,-1,1042,862,0,0
-175,162,0,0,0,0,0,0,0,0,0,-1,1049,862,0,0
-168,162,0,0,0,0,0,0,0,0,0,-1,1056,862,0,0
-161,162,0,0,0,0,0,0,0,0,0,-1,1063,862,0,0
-154,162,0,0,0,0,0,0,0,0,0,-1,1070,862,0,0
-147,162,0,0,0,0,0,0,0,0,0,-1,1077,862,0,0
-140,162,0,0,0,0,0,0,0,0,0,-1,1084,862,0,0
-133,162,0,0,0,0,0,0,0,0,0,-1,1091,862,0,0
-126,162,0,0,0,0,0,0,0,0,0,-1,1098,862,0,0
-119,162,0,0,0,0,0,0,0,0,0,-1,1105,862,0,0
-112,162,0,0,0,0,0,0,0,0,0,-1,1112,862,0,0
-105,162,0,0,0,0,0,0,0,0,0,-1,1119,862,0,0
-98,162,0,0,0,0,0,0,0,0,0,-1,1126,862,0,0
-91,162,0,0,0,0,0,0,0,0,0,-1,1133,862,0,0
-84,162,0,0,0,0,0,0,0,0,0,-1,1140,862,0,0
-77,162,0,0,0,0,0,0,0,0,0,-1,1147,862,0,0
-70,162,0,0,0,0,0,0,0,0,0,-1,1154,862,0,0
-63,162,0,0,0,0,0,0,0,0,0,-1,1161,862,0,0
-56,162,0,0,0,0,0,0,0,0,0,-1,1168,862,0,0
-49,162,0,0,0,0,0,0,0,0,0,-1,1175,862,0,0
-42,162,0,0,0,0,0,0,0,0,0,-1,1182,862,0,0
-35,162,0,0,0,0,0,0,0,0,0,-1,1189,862,0,0
-28,162,0,0,0,0,0,0,0,0,0,-1,1196,862,0,0
-21,162,0,0,0,0,0,0,0,0,0,-1,1203,862,0,0
-14,162,0,0,0,0,0,0,0,0,0,-1,1210,862,0,0
-7,162,0,0,0,0,0,0,0,0,0,-1,1217,862,0,0
0,162,0,0,0,0,0,0,0,0,0,-1,1224,862,0,0
7,162,0,0,0,0,0,0,0,0,0,-1,1231,862,0,0
14,162,0,0,0,0,0,0,0,0,0,-1,1238,862,0,0
21,162,0,0,0,0,0,0,0,0,0,-1,1245,862,0,0
28,162,0,0,0,0,0,0,0,0,0,-1,1252,862,0,0
35,162,0,0,0,0,0,0,0,0,0,-1,1259,862,0,0
42,162,0,0,0,0,0,0,0,0,0,-1,1266,862,0,0
49,162,0,0,0,0,0,0,0,0,0,-1,1273,862,0,0
56,162,0,0,0,0,0,0,0,0,0,-1,1280,862,0,0
63,162,0,0,0,0,0,0,0,0,0,-1,1287,862,0,0
70,162,0,0,0,0,0,0,0,0,0,-1,1294,862,0,0
77,162,0,0,0,0,0,0,0,0,0,-1,1301,862,0,0
84,162,0,0,0,0,0,0,0,0,0,-1,1308,862,0,0
91,162,0,0,0,0,0,0,0,0,0,-1,1315,862,0,0
98,162,0,0,0,0,0,0,0,0,0,-1,1322,862,0,0
105,162,0,0,0,0,0,0,0,0,0,-1,1329,862,0,0
112,162,0,0,0,0,0,0,0,0,0,-1,1336,862,0,0
119,162,0,0,0,0,0,0,0,0,0,-1,1343,862,0,0
126,162,0,0,0,0,0,0,0,0,0,-1,1350,862,0,0
133,162,0,0,0,0,0,0,0,0,0,-1,1357,862,0,0
140,162,0,0,0,0,0,0,0,0,0,-1,1364,862,0,0
147,162,0,0,0,0,0,0,0,0,0,-1,1371,862,0,0
154,162,0,0,0,0,0,0,0,0,0,-1,1378,862,0,0
161,162,0,0,0,0,0,0,0,0,0,-1,1385,862,0,0
168,162,0,0,0,0,0,0,0,0,0,-1,1392,862,0,0
175,162,0,0,0,0,0,0,0,0,0,-1,1399,862,0,0
182,162,0,0,0,0,0,0,0,0,0,-1,1406,862,0,0
189,162,0,0,0,0,0,0,0,0,0,-1,1413,862,0,0
196,162,0,0,0,0,0,0,0,0,0,-1,1420,862,0,0
203,162,0,0,0,0,0,0,0,0,0,-1,1427,862,0,0
210,162,0,0,0,0,0,0,0,0,0,-1,1434,862,0,0
217,162,0,0,0,0,0,0,0,0,0,-1,1441,862,0,0
224,162,0,0,0,0,0,0,0,0,0,-1,1448,862,0,0
231,162,0,0,0,0,0,0,0,0,0,-1,1455,862,0,0
238,162,0,0,0,0,0,0,0,0,0,-1,1462,862,0,0
245,162,0,0,0,0,0,0,0,0,0,-1,1469,862,0,0
252,162,0,0,0,0,0,0,0,0,0,-1,1476,862,0,0
259,162,0,0,0,0,0,0,0,0,0,-1,1483,862,0,0
266,162,0,0,0,0,0,0,0,0,0,-1,1490,862,0,0
273,162,0,0,0,0,0,0,0,0,0,-1,1497,862,0,0
280,162,0,0,0,0,0,0,0,0,0,-1,1504,862,0,0
287,162,0,0,0,0,0,0,0,0,0,-1,1511,862,0,0
294,162,0,0,0,0,0,0,0,0,0,-1,1518,862,0,0
301,162,0,0,0,0,0,0,0,0,0,-1,1525,862,0,0
308,162,0,0,0,0,0,0,0,0,0,-1,1532,862,0,0
315,162,0,0,0,0,0,0,0,0,0,-1,1539,862,0,0
322,162,0,0,0,0,0,0,0,0,0,-1,1546,862,0,0
329,162,0,0,0,0,0,0,0,0,0,-1,1553,862,0,0
336,162,0,0,0,0,0,0,0,0,0,-1,1560,862,0,0
343,162,0,0,0,0,0,0,0,0,0,-1,1567,862,0,0
350,162,0,0,0,0,0,0,0,0,0,-1,1574,862,0,0
357,162,0,0,0,0,0,0,0,0,0,-1,1581,862,0,0
364,162,0,0,0,0,0,0,0,0,0,-1,1588,862,0,0
371,162,0,0,0,0,0,0,0,0,0,-1,1595,862,0,0
378,162,0,0,0,0,0,0,0,0,0,-1,1602,862,0,0
385,162,0,0,0,0,0,0,0,0,0,-1,1609,862,0,0
392,162,0,0,0,0,0,0,0,0,0,-1,1616,862,0,0
399,162,0,0,0,0,0,0,0,0,0,-1,1623,862,0,0
406,162,0,0,0,0,0,0,0,0,0,-1,1630,862,0,0
413,162,0,0,0,0,0,0,0,0,0,-1,1637,862,0,0
420,162,0,0,0,0,0,0,0,0,0,-1,1644,862,0,0
427,162,0,0,0,0,0,0,0,0,0,-1,1651,862,0,0
434,162,0,0,0,0,0,0,0,0,0,-1,1658,862,0,0
441,162,0,0,0,0,0,0,0,0,0,-1,1665,862,0,0
448,162,0,0,0,0,0,0,0,0,0,-1,1672,862,0,0
455,162,0,0,0,0,0,0,0,0,0,-1,1679,862,0,0
462,162,0,0,0,0,0,0,0,0,0,-1,1686,862,0,0
469,162,0,0,0,0,0,0,0,0,0,-1,1693,862,0,0
476,162,0,0,0,0,0,0,0,0,0,-1,1700,862,0,0
483,162,0,0,0,0,0,0,0,0,0,-1,1707,862,0,0
490,162,0,0,0,0,0,0,0,0,0,-1,1714,862,0,0
497,162,0,0,0,0,0,0,0,0,0,-1,1721,862,0,0
504,162,0,0,0,0,0,0,0,0,0,-1,1728,862,0,0
511,162,0,0,0,0,0,0,0,0,0,-1,1735,862,0,0
518,162,0,0,0,0,0,0,0,0,0,-1,1742,862,0,0
525,162,0,0,0,0,0,0,0,0,0,-1,1749,862,0,0
532,162,0,0,0,0,0,0,0,0,0,-1,1756,862,0,0
539,162,0,0,0,0,0,0,0,0,0,-1,1763,862,0,0
546,162,0,0,0,0,0,0,0,0,0,-1,1770,862,0,0
553,162,0,0,0,0,0,0,0,0,0,-1,1777,862,0,0
560,162,0,0,0,0,0,0,0,0,0,-1,1784,862,0,0
567,162,0,0,0,0,0,0,0,0,0,-1,1791,862,0,0
574,162,0,0,0,0,0,0,0,0,0,-1,1798,862,0,0
581,162,0,0,0,0,0,0,0,0,0,-1,1805,862,0,0
588,162,0,0,0,0,0,0,0,0,0,-1,1812,862,0,0
595,162,0,0,0,0,0,0,0,0,0,-1,1819,862,0,0
602,162,0,0,0,0,0,0,0,0,0,-1,1826,862,0,0
609,162,0,0,0,0,0,0,0,0,0,-1,1833,862,0,0
616,162,54.8402,3.112,0.00277117,-0.00175769,-0.00476032,0.00577819,-0.00476472,-0.563393,0.00609632,0.0415492,1840,862,54.8402,-3.11198
623,162,54.8739,2.85785,0.00171192,-0.00193437,-0.00336197,0.00371326,-0.00393571,-0.536948,0.00441675,0.045556,1847,862,54.8739,-2.85788
630,162,54.8658,2.78137,0.000836173,-0.00181355,-0.00232127,0.00218405,-0.00316143,-0.526081,0.00310336,0.0455287,1854,862,54.8659,-2.78136
637,162,54.9012,2.81958,2.97554e-05,-0.00147371,-0.00158783,0.00103481,-0.00247877,-0.564314,0.00208489,0.0434252,1861,862,54.9013,-2.81959
644,162,54.9805,2.91919,-0.000661987,-0.00138857,-0.00131901,0.000342847,-0.00239341,-0.651016,0.00172131,0.039309,1868,862,54.9805,-2.91922
651,162,54.9429,2.99884,-0.00121575,-0.00154116,-0.00141141,4.22979e-05,-0.00279921,-0.728013,0.0018804,0.0338739,1875,862,54.9429,-2.99882
658,162,54.9636,2.91882,-0.00163253,-0.00137203,-0.00157477,7.7858e-05,-0.00308243,-0.82666,0.00208139,0.0313571,1882,862,54.9637,-2.91879
665,162,55.036,2.78473,-0.00199945,-0.00137919,-0.00180657,0.000143669,-0.00352232,-0.870403,0.00239754,0.0473544,1889,862,55.036,-2.78475
672,162,55.0789,2.67096,0,0,0,0,0,0,0,-1,1896,862,55.0788,-2.67094
679,162,26.5077,2.54785,0,0,0,0,0,0,0,-1,1903,862,26.5077,-2.54787
686,162,45.343,1.34393,0,0,0,0,0,0,0,-1,1910,862,45.343,-1.34395
693,162,45.6383,2.11688,-0.00188386,-0.000442685,-0.00222023,0.00117097,-0.00349751,-0.942312,0.0028047,0.0325976,1917,862,45.6383,-2.11687
700,162,45.6106,2.68353,-0.00169941,-8.25963e-05,-0.00213518,0.00139209,-0.0031741,-0.966366,0.00270238,0.0289133,1924,862,45.6106,-2.68352
707,162,45.4824,3.20612,-0.00165836,0.00018696,-0.00195945,0.00143012,-0.00290152,-1.00544,0.00254851,0.020658,1931,862,45.4825,-3.20612
714,162,45.329,3.71838,-0.0012883,0.000582406,-0.0016295,0.00152592,-0.00223182,-1.04594,0.00218225,0.0229084,1938,862,45.329,-3.71838
721,162,45.2535,4.41986,-0.000606045,0.00114178,-0.00133016,0.00185943,-0.00132369,-1.07604,0.00184643,0.0290487,1945,862,45.2535,-4.41988
728,162,45.26,5.00549,0.000335304,0.00171947,-0.000841357,0.00211682,-6.2044e-05,-1.12958,0.00143234,0.0242969,1952,862,45.26,-5.00548
735,162,45.2877,5.59442,0.00146371,0.00239628,-0.000218946,0.00244512,0.00141487,-1.3513,0.0014175,0.0124511,1959,862,45.2878,-5.59445
742,162,45.2638,6.16937,0.00257607,0.00323173,0.000516506,0.00351566,0.00229214,1.06817,0.00206079,0.0146509,1966,862,45.2638,-6.16935
749,162,45.1943,6.71185,0.00344246,0.00412269,0.00125935,0.00508705,0.0024781,0.917286,0.00293733,0.0211531,1973,862,45.1943,-6.71184
756,162,45.1093,7.19489,0.00388737,0.00503631,0.00190722,0.0064537,0.00246998,0.93168,0.00376005,0.0457099,1980,862,45.1093,-7.19489
763,162,45.0426,7.73047,0,0,0,0,0,0,0,-1,1987,862,45.0426,-7.73044
770,162,43.2596,8.44946,0,0,0,0,0,0,0,-1,1994,862,43.2597,-8.44947
777,162,43.4399,9.09882,0,0,0,0,0,0,0,-1,2001,862,43.44,-9.09883
784,162,43.3364,10.054,0,0,0,0,0,0,0,-1,2008,862,43.3365,-10.054
791,162,0,0,0,0,0,0,0,0,0,-1,2015,862,0,0
798,162,0,0,0,0,0,0,0,0,0,-1,2022,862,0,0
805,162,0,0,0,0,0,0,0,0,0,-1,2029,862,0,0
812,162,0,0,0,0,0,0,0,0,0,-1,2036,862,0,0
-700,155,0,0,0,0,0,0,0,0,0,-1,524,869,0,0
-693,155,0,0,0,0,0,0,0,0,0,-1,531,869,0,0
-686,155,0,0,0,0,0,0,0,0,0,-1,538,869,0,0
-679,155,0,0,0,0,0,0,0,0,0,-1,545,869,0,0
-672,155,0,0,0,0,0,0,0,0,0,-1,552,869,0,0
-665,155,-35.6971,6.00806,0,0,0,0,0,0,0,-1,559,869,-35.6971,-6.00807
-658,155,-35.1172,5.68665,0,0,0,0,0,0,0,-1,566,869,-35.1172,-5.68666
-651,155,-34.5151,4.90802,0,0,0,0,0,0,0,-1,573,869,-34.5151,-4.908
-644,155,-34.8807,5.75165,0,0,0,0,0,0,0,-1,580,869,-34.8807,-5.75168
-637,155,-34.9631,4.60944,0,0,0,0,0,0,0,-1,587,869,-34.9631,-4.60946
-630,155,-34.2865,4.60828,0.0141823,0.0331007,0.0082171,0.0361714,0.0111117,1.21317,0.0213948,0.0459745,594,869,-34.2865,-4.60827
-623,155,-33.4172,4.6767,0.0101143,0.0238438,0.00616071,0.0262029,0.00775524,1.2051,0.0155424,0.0277084,601,869,-33.4172,-4.67671
-616,155,-33.4327,4.11255,0.00639474,0.0163924,0.00491979,0.0184073,0.00437982,1.18208,0.0111034,0.015718,608,869,-33.4328,-4.11254
-609,155,-33.4985,3.49304,0.00369839,0.0106882,0.00429141,0.0127278,0.00165881,1.12713,0.00798988,0.0146892,615,869,-33.4985,-3.49302
-602,155,-33.5371,2.91473,0.00180861,0.00647461,0.0040971,0.00885638,-0.000573164,1.04422,0.00610429,0.0133155,622,869,-33.5371,-2.91471
-595,155,-33.552,2.36597,0.000936027,0.00377105,0.00412409,0.00671444,-0.00200736,0.950931,0.00527432,0.0129658,629,869,-33.552,-2.36598
-588,155,-33.5258,1.86292,0.000862707,0.00222547,0.00407696,0.00567759,-0.00258941,0.868198,0.0048827,0.0177171,636,869,-33.5258,-1.86294
-581,155,-33.8072,1.45581,0.000969806,0.00177318,0.00402686,0.00541834,-0.00267535,0.83511,0.0047615,0.0359069,643,869,-33.8072,-1.45582
-574,155,-34.0638,1.1626,0,0,0,0,0,0,0,-1,650,869,-34.0638,-1.16259
-567,155,-33.9108,0.185608,0.000863568,0.00084973,0.00382048,0.00467714,-0.00296384,0.784493,0.00444833,0.04963,657,869,-33.9108,-0.185621
-560,155,-33.7585,-0.489807,0.0010378,0.000411223,0.00388621,0.00462333,-0.00317431,0.745177,0.00452781,0.0407745,664,869,-33.7585,0.489834
-553,155,-33.4406,-1.44128,0,0,0,0,0,0,0,-1,671,869,-33.4406,1.44126
-546,155,-22.7988,0.873657,0,0,0,0,0,0,0,-1,678,869,-22.7988,-0.873645
-539,155,-41.2896,0.845703,0,0,0,0,0,0,0,-1,685,869,-41.2896,-0.845698
-532,155,-41.2253,1.06494,0.00140774,-0.00145611,0.00363474,0.00388244,-0.00393081,0.597756,0.00451101,0.0374224,692,869,-41.2253,-1.06493
-525,155,-41.2376,1.13727,0.00144689,-0.00220744,0.00348717,0.00355659,-0.00431714,0.544079,0.00455296,0.0393114,699,869,-41.2376,-1.1373
-518,155,-41.2907,1.24152,0.000883023,-0.00294576,0.00339914,0.00286979,-0.00493253,0.528938,0.00455685,0.0430875,706,869,-41.2907,-1.24152
-511,155,-41.3273,1.43311,0.00070072,-0.00321765,0.00331352,0.00259092,-0.00510786,0.51841,0.00452338,0.0425604,713,869,-41.3273,-1.43312
-504,155,-41.4108,1.56653,0.00215382,-0.00218972,0.00291302,0.00361554,-0.00365144,0.465078,0.00419561,0.041512,720,869,-41.4108,-1.56655
-497,155,0,0,0,0,0,0,0,0,0,-1,727,869,0,0
-490,155,0,0,0,0,0,0,0,0,0,-1,734,869,0,0
-483,155,0,0,0,0,0,0,0,0,0,-1,741,869,0,0
-476,155,0,0,0,0,0,0,0,0,0,-1,748,869,0,0
-469,155,0,0,0,0,0,0,0,0,0,-1,755,869,0,0
-462,155,0,0,0,0,0,0,0,0,0,-1,762,869,0,0
-455,155,0,0,0,0,0,0,0,0,0,-1,769,869,0,0
-448,155,0,0,0,0,0,0,0,0,0,-1,776,869,0,0
-441,155,0,0,0,0,0,0,0,0,0,-1,783,869,0,0
-434,155,0,0,0,0,0,0,0,0,0,-1,790,869,0,0
-427,155,0,0,0,0,0,0,0,0,0,-1,797,869,0,0
-420,155,0,0,0,0,0,0,0,0,0,-1,804,869,0,0
-413,155,0,0,0,0,0,0,0,0,0,-1,811,869,0,0
-406,155,0,0,0,0,0,0,0,0,0,-1,818,869,0,0
-399,155,0,0,0,0,0,0,0,0,0,-1,825,869,0,0
-392,155,0,0,0,0,0,0,0,0,0,-1,832,869,0,0
-385,155,0,0,0,0,0,0,0,0,0,-1,839,869,0,0
-378,155,0,0,0,0,0,0,0,0,0,-1,846,869,0,0
-371,155,0,0,0,0,0,0,0,0,0,-1,853,869,0,0
-364,155,0,0,0,0,0,0,0,0,0,-1,860,869,0,0
-357,155,0,0,0,0,0,0,0,0,0,-1,867,869,0,0
-350,155,0,0,0,0,0,0,0,0,0,-1,874,869,0,0
-343,155,0,0,0,0,0,0,0,0,0,-1,881,869,0,0
-336,155,0,0,0,0,0,0,0,0,0,-1,888,869,0,0
-329,155,0,0,0,0,0,0,0,0,0,-1,895,869,0,0
-322,155,0,0,0,0,0,0,0,0,0,-1,902,869,0,0
-315,155,0,0,0,0,0,0,0,0,0,-1,909,869,0,0
-308,155,0,0,0,0,0,0,0,0,0,-1,916,869,0,0
-301,155,0,0,0,0,0,0,0,0,0,-1,923,869,0,0
-294,155,0,0,0,0,0,0,0,0,0,-1,930,869,0,0
-287,155,0,0,0,0,0,0,0,0,0,-1,937,869,0,0
-280,155,0,0,0,0,0,0,0,0,0,-1,944,869,0,0
-273,155,0,0,0,0,0,0,0,0,0,-1,951,869,0,0
-266,155,0,0,0,0,0,0,0,0,0,-1,958,869,0,0
-259,155,0,0,0,0,0,0,0,0,0,-1,965,869,0,0
-252,155,0,0,0,0,0,0,0,0,0,-1,972,869,0,0
-245,155,0,0,0,0,0,0,0,0,0,-1,979,869,0,0
-238,155,0,0,0,0,0,0,0,0,0,-1,986,869,0,0
-231,155,0,0,0,0,0,0,0,0,0,-1,993,869,0,0
-224,155,0,0,0,0,0,0,0,0,0,-1,1000,869,0,0
-217,155,0,0,0,0,0,0,0,0,0,-1,1007,869,0,0
-210,155,0,0,0,0,0,0,0,0,0,-1,1014,869,0,0
-203,155,0,0,0,0,0,0,0,0,0,-1,1021,869,0,0
-196,155,0,0,0,0,0,0,0,0,0,-1,1028,869,0,0
-189,155,0,0,0,0,0,0,0,0,0,-1,1035,869,0,0
-182,155,0,0,0,0,0,0,0,0,0,-1,1042,869,0,0
-175,155,0,0,0,0,0,0,0,0,0,-1,1049,869,0,0
-168,155,0,0,0,0,0,0,0,0,0,-1,1056,869,0,0
-161,155,0,0,0,0,0,0,0,0,0,-1,1063,869,0,0
-154,155,0,0,0,0,0,0,0,0,0,-1,1070,869,0,0
-147,155,0,0,0,0,0,0,0,0,0,-1,1077,869,0,0
-140,155,0,0,0,0,0,0,0,0,0,-1,1084,869,0,0
-133,155,0,0,0,0,0,0,0,0,0,-1,1091,869,0,0
-126,155,0,0,0,0,0,0,0,0,0,-1,1098,869,0,0
-119,155,0,0,0,0,0,0,0,0,0,-1,1105,869,0,0
-112,155,0,0,0,0,0,0,0,0,0,-1,1112,869,0,0
-105,155,0,0,0,0,0,0,0,0,0,-1,1119,869,0,0
-98,155,0,0,0,0,0,0,0,0,0,-1,1126,869,0,0
-91,155,0,0,0,0,0,0,0,0,0,-1,1133,869,0,0
-84,155,0,0,0,0,0,0,0,0,0,-1,1140,869,0,0
-77,155,0,0,0,0,0,0,0,0,0,-1,1147,869,0,0
-70,155,0,0,0,0,0,0,0,0,0,-1,1154,869,0,0
-63,155,0,0,0,0,0,0,0,0,0,-1,1161,869,0,0
-56,155,0,0,0,0,0,0,0,0,0,-1,1168,869,0,0
-49,155,0,0,0,0,0,0,0,0,0,-1,1175,869,0,0
-42,155,0,0,0,0,0,0,0,0,0,-1,1182,869,0,0
-35,155,0,0,0,0,0,0,0,0,0,-1,1189,869,0,0
-28,155,0,0,0,0,0,0,0,0,0,-1,1196,869,0,0
-21,155,0,0,0,0,0,0,0,0,0,-1,1203,869,0,0
-14,155,0,0,0,0,0,0,0,0,0,-1,1210,869,0,0
-7,155,0,0,0,0,0,0,0,0,0,-1,1217,869,0,0
0,155,0,0,0,0,0,0,0,0,0,-1,1224,869,0,0
7,155,0,0,0,0,0,0,0,0,0,-1,1231,869,0,0
14,155,0,0,0,0,0,0,0,0,0,-1,1238,869,0,0
21,155,0,0,0,0,0,0,0,0,0,-1,1245,869,0,0
28,155,0,0,0,0,0,0,0,0,0,-1,1252,869,0,0
35,155,0,0,0,0,0,0,0,0,0,-1,1259,869,0,0
42,155,0,0,0,0,0,0,0,0,0,-1,1266,869,0,0
49,155,0,0,0,0,0,0,0,0,0,-1,1273,869,0,0
56,155,0,0,0,0,0,0,0,0,0,-1,1280,869,0,0
63,155,0,0,0,0,0,0,0,0,0,-1,1287,869,0,0
70,155,0,0,0,0,0,0,0,0,0,-1,1294,869,0,0
77,155,0,0,0,0,0,0,0,0,0,-1,1301,869,0,0
84,155,0,0,0,0,0,0,0,0,0,-1,1308,869,0,0
91,155,0,0,0,0,0,0,0,0,0,-1,1315,869,0,0
98,155,0,0,0,0,0,0,0,0,0,-1,1322,869,0,0
105,155,0,0,0,0,0,0,0,0,0,-1,1329,869,0,0
112,155,0,0,0,0,0,0,0,0,0,-1,1336,869,0,0
119,155,0,0,0,0,0,0,0,0,0,-1,1343,869,0,0
126,155,0,0,0,0,0,0,0,0,0,-1,1350,869,0,0
133,155,0,0,0,0,0,0,0,0,0,-1,1357,869,0,0
140,155,0,0,0,0,0,0,0,0,0,-1,1364,869,0,0
147,155,0,0,0,0,0,0,0,0,0,-1,1371,869,0,0
154,155,0,0,0,0,0,0,0,0,0,-1,1378,869,0,0
161,155,0,0,0,0,0,0,0,0,0,-1,1385,869,0,0
168,155,0,0,0,0,0,0,0,0,0,-1,1392,869,0,0
175,155,0,0,0,0,0,0,0,0,0,-1,1399,869,0,0
182,155,0,0,0,0,0,0,0,0,0,-1,1406,869,0,0
189,155,0,0,0,0,0,0,0,0,0,-1,1413,869,0,0
196,155,0,0,0,0,0,0,0,0,0,-1,1420,869,0,0
203,155,0,0,0,0,0,0,0,0,0,-1,1427,869,0,0
210,155,0,0,0,0,0,0,0,0,0,-1,1434,869,0,0
217,155,0,0,0,0,0,0,0,0,0,-1,1441,869,0,0
224,155,0,0,0,0,0,0,0,0,0,-1,1448,869,0,0
231,155,0,0,0,0,0,0,0,0,0,-1,1455,869,0,0
238,155,0,0,0,0,0,0,0,0,0,-1,1462,869,0,0
245,155,0,0,0,0,0,0,0,0,0,-1,1469,869,0,0
252,155,0,0,0,0,0,0,0,0,0,-1,1476,869,0,0
259,155,0,0,0,0,0,0,0,0,0,-1,1483,869,0,0
266,155,0,0,0,0,0,0,0,0,0,-1,1490,869,0,0
273,155,0,0,0,0,0,0,0,0,0,-1,1497,869,0,0
280,155,0,0,0,0,0,0,0,0,0,-1,1504,869,0,0
287,155,0,0,0,0,0,0,0,0,0,-1,1511,869,0,0
294,155,0,0,0,0,0,0,0,0,0,-1,1518,869,0,0
301,155,0,0,0,0,0,0,0,0,0,-1,1525,869,0,0
308,155,0,0,0,0,0,0,0,0,0,-1,1532,869,0,0
315,155,0,0,0,0,0,0,0,0,0,-1,1539,869,0,0
322,155,0,0,0,0,0,0,0,0,0,-1,1546,869,0,0
329,155,0,0,0,0,0,0,0,0,0,-1,1553,869,0,0
336,155,0,0,0,0,0,0,0,0,0,-1,1560,869,0,0
343,155,0,0,0,0,0,0,0,0,0,-1,1567,869,0,0
350,155,0,0,0,0,0,0,0,0,0,-1,1574,869,0,0
357,155,0,0,0,0,0,0,0,0,0,-1,1581,869,0,0
364,155,0,0,0,0,0,0,0,0,0,-1,1588,869,0,0
371,155,0,0,0,0,0,0,0,0,0,-1,1595,869,0,0
378,155,0,0,0,0,0,0,0,0,0,-1,1602,869,0,0
385,155,0,0,0,0,0,0,0,0,0,-1,1609,869,0,0
392,155,0,0,0,0,0,0,0,0,0,-1,1616,869,0,0
399,155,0,0,0,0,0,0,0,0,0,-1,1623,869,0,0
406,155,0,0,0,0,0,0,0,0,0,-1,1630,869,0,0
413,155,0,0,0,0,0,0,0,0,0,-1,1637,869,0,0
420,155,0,0,0,0,0,0,0,0,0,-1,1644,869,0,0
427,155,0,0,0,0,0,0,0,0,0,-1,1651,869,0,0
434,155,0,0,0,0,0,0,0,0,0,-1,1658,869,0,0
441,155,0,0,0,0,0,0,0,0,0,-1,1665,869,0,0
448,155,0,0,0,0,0,0,0,0,0,-1,1672,869,0,0
455,155,0,0,0,0,0,0,0,0,0,-1,1679,869,0,0
462,155,0,0,0,0,0,0,0,0,0,-1,1686,869,0,0
469,155,0,0,0,0,0,0,0,0,0,-1,1693,869,0,0
476,155,0,0,0,0,0,0,0,0,0,-1,1700,869,0,0
483,155,0,0,0,0,0,0,0,0,0,-1,1707,869,0,0
490,155,0,0,0,0,0,0,0,0,0,-1,1714,869,0,0
497,155,0,0,0,0,0,0,0,0,0,-1,1721,869,0,0
504,155,0,0,0,0,0,0,0,0,0,-1,1728,869,0,0
511,155,0,0,0,0,0,0,0,0,0,-1,1735,869,0,0
518,155,0,0,0,0,0,0,0,0,0,-1,1742,869,0,0
525,155,0,0,0,0,0,0,0,0,0,-1,1749,869,0,0
532,155,0,0,0,0,0,0,0,0,0,-1,1756,869,0,0
539,155,0,0,0,0,0,0,0,0,0,-1,1763,869,0,0
546,155,0,0,0,0,0,0,0,0,0,-1,1770,869,0,0
553,155,0,0,0,0,0,0,0,0,0,-1,1777,869,0,0
560,155,0,0,0,0,0,0,0,0,0,-1,1784,869,0,0
567,155,0,0,0,0,0,0,0,0,0,-1,1791,869,0,0
574,155,0,0,0,0,0,0,0,0,0,-1,1798,869,0,0
581,155,0,0,0,0,0,0,0,0,0,-1,1805,869,0,0
588,155,0,0,0,0,0,0,0,0,0,-1,1812,869,0,0
595,155,0,0,0,0,0,0,0,0,0,-1,1819,869,0,0
602,155,0,0,0,0,0,0,0,0,0,-1,1826,869,0,0
609,155,0,0,0,0,0,0,0,0,0,-1,1833,869,0,0
616,155,54.9517,2.99988,0.00282838,-0.00205899,-0.00554213,0.00644166,-0.00567227,-0.577756,0.00699868,0.0438381,1840,869,54.9516,-2.99985
623,155,54.9539,2.85834,0.00175445,-0.0021716,-0.00418228,0.00441148,-0.00482863,-0.565977,0.00533659,0.0442601,1847,869,54.9539,-2.85831
630,155,54.8839,2.75568,0.000997596,-0.00211629,-0.00308613,0.00289728,-0.00401598,-0.551779,0.00400876,0.0456565,1854,869,54.8839,-2.7557
637,155,54.8535,2.80896,0.000429967,-0.0018029,-0.00218054,0.00176327,-0.0031362,-0.548798,0.00286549,0.0426517,1861,869,54.8536,-2.80894
644,155,54.9036,2.87231,-6.39676e-05,-0.00166602,-0.00171492,0.00102778,-0.00275777,-0.566909,0.00226038,0.0363388,1868,869,54.9035,-2.87232
651,155,54.9757,2.91449,-0.000508215,-0.00171582,-0.00164913,0.000644171,-0.00286821,-0.60991,0.00215914,0.0327979,1875,869,54.9757,-2.9145
658,155,54.97,2.87231,-0.000892456,-0.00141837,-0.00168033,0.000545362,-0.00285619,-0.707782,0.00210954,0.0283491,1882,869,54.9699,-2.87232
665,155,54.8979,2.87512,-0.00122554,-0.00131402,-0.00185626,0.000587005,-0.00312657,-0.773484,0.0023051,0.0327964,1889,869,54.898,-2.87509
672,155,54.8063,2.96246,0,0,0,0,0,0,0,-1,1896,869,54.8063,-2.96247
679,155,35.1565,2.78528,0,0,0,0,0,0,0,-1,1903,869,35.1565,-2.7853
686,155,43.6101,1.63361,0,0,0,0,0,0,0,-1,1910,869,43.6101,-1.63362
693,155,46.3239,2.1947,0,0,0,0,0,0,0,-1,1917,869,46.3239,-2.19473
700,155,46.236,2.78876,-0.00113561,0.000116932,-0.0019883,0.00157526,-0.00259393,-0.937968,0.00243092,0.0376123,1924,869,46.236,-2.78879
707,155,46.2076,3.36359,-0.00123279,0.000348365,-0.00181981,0.00154191,-0.00242633,-0.990312,0.00230995,0.0262346,1931,869,46.2076,-3.3636
714,155,46.2094,3.90045,-0.00108114,0.000730356,-0.00157164,0.00163856,-0.00198934,-1.04681,0.00209783,0.0493538,1938,869,46.2094,-3.90044
721,155,45.9069,4.43195,-0.000757121,0.00129924,-0.00144036,0.00204075,-0.00149863,-1.09537,0.00205144,0.0348469,1945,869,45.9069,-4.43194
728,155,45.8856,5.0434,-0.00042535,0.00189697,-0.00119477,0.00240188,-0.000930256,-1.17096,0.00198536,0.0207267,1952,869,45.8856,-5.0434
735,155,45.8807,5.60779,-3.10525e-05,0.00253461,-0.000844351,0.00278755,-0.000283989,-1.27974,0.0019599,0.0169286,1959,869,45.8807,-5.6078
742,155,45.8875,6.198,0.000322416,0.00333608,-0.000410313,0.00339094,0.000267551,-1.43787,0.00217693,0.0186416,1966,869,45.8874,-6.19798
749,155,45.8004,6.74493,0.000398294,0.00420075,2.13907e-06,0.00420075,0.000398293,1.57023,0.00267763,0.0179116,1973,869,45.8004,-6.7449
756,155,45.7019,7.35815,-1.15817e-05,0.00515534,0.000299254,0.00517262,-2.88561e-05,1.51314,0.00345807,0.0303726,1980,869,45.7019,-7.35814
763,155,45.6421,8.02557,-0.00101933,0.00724144,0.00091325,0.0073412,-0.00111909,1.46199,0.00530664,0.047335,1987,869,45.6421,-8.02556
770,155,45.5972,8.68378,0,0,0,0,0,0,0,-1,1994,869,45.5971,-8.68376
777,155,43.5001,9.6864,0,0,0,0,0,0,0,-1,2001,869,43.5001,-9.68637
784,155,43.5391,10.9663,0,0,0,0,0,0,0,-1,2008,869,43.5391,-10.9663
791,155,0,0,0,0,0,0,0,0,0,-1,2015,869,0,0
798,155,0,0,0,0,0,0,0,0,0,-1,2022,869,0,0
805,155,0,0,0,0,0,0,0,0,0,-1,2029,869,0,0
812,155,0,0,0,0,0,0,0,0,0,-1,2036,869,0,0
-700,148,0,0,0,0,0,0,0,0,0,-1,524,876,0,0
-693,148,0,0,0,0,0,0,0,0,0,-1,531,876,0,0
-686,148,0,0,0,0,0,0,0,0,0,-1,538,876,0,0
-679,148,0,0,0,0,0,0,0,0,0,-1,545,876,0,0
-672,148,-36.6312,7.91376,0,0,0,0,0,0,0,-1,552,876,-36.6312,-7.91378
-665,148,-35.9308,6.84241,0,0,0,0,0,0,0,-1,559,876,-35.9308,-6.84243
-658,148,-35.2736,5.81018,0,0,0,0,0,0,0,-1,566,876,-35.2736,-5.8102
-651,148,-34.8042,4.8103,0,0,0,0,0,0,0,-1,573,876,-34.8042,-4.81031
-644,148,-36.0641,1.69067,0,0,0,0,0,0,0,-1,580,876,-36.0641,-1.6907
-637,148,-34.0625,1.75256,0,0,0,0,0,0,0,-1,587,876,-34.0625,-1.75256
-630,148,-34.5269,4.07751,0,0,0,0,0,0,0,-1,594,876,-34.5269,-4.07749
-623,148,-33.8182,4.77478,0.00722808,0.0218946,0.00532318,0.023623,0.00549972,1.25685,0.0142731,0.0279311,601,876,-33.8182,-4.77475
-616,148,-33.9875,4.11084,0.00434994,0.0148977,0.00448586,0.0165474,0.00270018,1.21838,0.0102508,0.0144226,608,876,-33.9875,-4.11085
-609,148,-34.0844,3.49799,0.00228096,0.00951834,0.00410978,0.0113755,0.000423777,1.14637,0.00744644,0.0134343,615,876,-34.0844,-3.49801
-602,148,-34.1355,2.92468,0.000914594,0.00565743,0.00406168,0.00798929,-0.00141727,1.04963,0.00585606,0.0147429,622,876,-34.1355,-2.9247
-595,148,-34.1436,2.38318,0.000433801,0.00342149,0.00414552,0.00633411,-0.00247882,0.958331,0.00524792,0.0133177,629,876,-34.1436,-2.38321
-588,148,-34.1666,1.78278,0.000527333,0.00225069,0.00415803,0.00563538,-0.00285736,0.887569,0.00498996,0.0259118,636,876,-34.1666,-1.78277
-581,148,-34.3708,1.39911,0.000609222,0.00192467,0.00412788,0.0054469,-0.00291301,0.864403,0.00489994,0.043146,643,876,-34.3709,-1.39908
-574,148,-34.046,1.02307,0,0,0,0,0,0,0,-1,650,876,-34.046,-1.02307
-567,148,-34.2245,0.479431,0,0,0,0,0,0,0,-1,657,876,-34.2246,-0.479442
-560,148,-34.3854,-0.356201,0,0,0,0,0,0,0,-1,664,876,-34.3854,0.356178
-553,148,-18.3896,-0.00280762,0,0,0,0,0,0,0,-1,671,876,-18.3897,0.00278524
-546,148,-41.2484,1.00861,0,0,0,0,0,0,0,-1,678,876,-41.2483,-1.00862
-539,148,-41.2258,0.960144,0.000456844,-0.000219444,0.00386742,0.00400087,-0.00376347,0.741792,0.00448344,0.0421302,685,876,-41.2258,-0.960169
-532,148,-41.2081,1.05933,0.00053154,-0.000684814,0.00353871,0.00351395,-0.00366723,0.700297,0.00414637,0.0369559,692,876,-41.208,-1.05933
-525,148,-41.2244,1.17175,0.000459139,-0.00141679,0.00325172,0.00290547,-0.00386312,0.644984,0.00392087,0.0375844,699,876,-41.2244,-1.17173
-518,148,-41.3339,1.31897,7.67343e-06,-0.00217128,0.0029904,0.00210088,-0.00426449,0.610709,0.00374514,0.0437968,706,876,-41.3338,-1.319
-511,148,-41.2948,1.5517,0.000460095,-0.00255495,0.00266575,0.00201506,-0.00410991,0.52806,0.00360454,0.0421791,713,876,-41.2948,-1.55168
-504,148,-41.1282,1.47394,0.00292605,-0.00166053,0.00204521,0.00370556,-0.00244004,0.36414,0.00357315,0.0417786,720,876,-41.1283,-1.47396
-497,148,0,0,0,0,0,0,0,0,0,-1,727,876,0,0
-490,148,0,0,0,0,0,0,0,0,0,-1,734,876,0,0
-483,148,0,0,0,0,0,0,0,0,0,-1,741,876,0,0
-476,148,0,0,0,0,0,0,0,0,0,-1,748,876,0,0
-469,148,0,0,0,0,0,0,0,0,0,-1,755,876,0,0
-462,148,0,0,0,0,0,0,0,0,0,-1,762,876,0,0
-455,148,0,0,0,0,0,0,0,0,0,-1,769,876,0,0
-448,148,0,0,0,0,0,0,0,0,0,-1,776,876,0,0
-441,148,0,0,0,0,0,0,0,0,0,-1,783,876,0,0
-434,148,0,0,0,0,0,0,0,0,0,-1,790,876,0,0
-427,148,0,0,0,0,0,0,0,0,0,-1,797,876,0,0
-420,148,0,0,0,0,0,0,0,0,0,-1,804,876,0,0
-413,148,0,0,0,0,0,0,0,0,0,-1,811,876,0,0
-406,148,0,0,0,0,0,0,0,0,0,-1,818,876,0,0
-399,148,0,0,0,0,0,0,0,0,0,-1,825,876,0,0
-392,148,0,0,0,0,0,0,0,0,0,-1,832,876,0,0
-385,148,0,0,0,0,0,0,0,0,0,-1,839,876,0,0
-378,148,0,0,0,0,0,0,0,0,0,-1,846,876,0,0
-371,148,0,0,0,0,0,0,0,0,0,-1,853,876,0,0
-364,148,0,0,0,0,0,0,0,0,0,-1,860,876,0,0
-357,148,0,0,0,0,0,0,0,0,0,-1,867,876,0,0
-350,148,0,0,0,0,0,0,0,0,0,-1,874,876,0,0
-343,148,0,0,0,0,0,0,0,0,0,-1,881,876,0,0
-336,148,0,0,0,0,0,0,0,0,0,-1,888,876,0,0
-329,148,0,0,0,0,0,0,0,0,0,-1,895,876,0,0
-322,148,0,0,0,0,0,0,0,0,0,-1,902,876,0,0
-315,148,0,0,0,0,0,0,0,0,0,-1,909,876,0,0
-308,148,0,0,0,0,0,0,0,0,0,-1,916,876,0,0
-301,148,0,0,0,0,0,0,0,0,0,-1,923,876,0,0
-294,148,0,0,0,0,0,0,0,0,0,-1,930,876,0,0
-287,148,0,0,0,0,0,0,0,0,0,-1,937,876,0,0
-280,148,0,0,0,0,0,0,0,0,0,-1,944,876,0,0
-273,148,0,0,0,0,0,0,0,0,0,-1,951,876,0,0
-266,148,0,0,0,0,0,0,0,0,0,-1,958,876,0,0
-259,148,0,0,0,0,0,0,0,0,0,-1,965,876,0,0
-252,148,0,0,0,0,0,0,0,0,0,-1,972,876,0,0
-245,148,0,0,0,0,0,0,0,0,0,-1,979,876,0,0
-238,148,0,0,0,0,0,0,0,0,0,-1,986,876,0,0
-231,148,0,0,0,0,0,0,0,0,0,-1,993,876,0,0
-224,148,0,0,0,0,0,0,0,0,0,-1,1000,876,0,0
-217,148,0,0,0,0,0,0,0,0,0,-1,1007,876,0,0
-210,148,0,0,0,0,0,0,0,0,0,-1,1014,876,0,0
-203,148,0,0,0,0,0,0,0,0,0,-1,1021,876,0,0
-196,148,0,0,0,0,0,0,0,0,0,-1,1028,876,0,0
-189,148,0,0,0,0,0,0,0,0,0,-1,1035,876,0,0
-182,148,0,0,0,0,0,0,0,0,0,-1,1042,876,0,0
-175,148,0,0,0,0,0,0,0,0,0,-1,1049,876,0,0
-168,148,0,0,0,0,0,0,0,0,0,-1,1056,876,0,0
-161,148,0,0,0,0,0,0,0,0,0,-1,1063,876,0,0
-154,148,0,0,0,0,0,0,0,0,0,-1,1070,876,0,0
-147,148,0,0,0,0,0,0,0,0,0,-1,1077,876,0,0
-140,148,0,0,0,0,0,0,0,0,0,-1,1084,876,0,0
-133,148,0,0,0,0,0,0,0,0,0,-1,1091,876,0,0
-126,148,0,0,0,0,0,0,0,0,0,-1,1098,876,0,0
-119,148,0,0,0,0,0,0,0,0,0,-1,1105,876,0,0
-112,148,0,0,0,0,0,0,0,0,0,-1,1112,876,0,0
-105,148,0,0,0,0,0,0,0,0,0,-1,1119,876,0,0
-98,148,0,0,0,0,0,0,0,0,0,-1,1126,876,0,0
-91,148,0,0,0,0,0,0,0,0,0,-1,1133,876,0,0
-84,148,0,0,0,0,0,0,0,0,0,-1,1140,876,0,0
-77,148,0,0,0,0,0,0,0,0,0,-1,1147,876,0,0
-70,148,0,0,0,0,0,0,0,0,0,-1,1154,876,0,0
-63,148,0,0,0,0,0,0,0,0,0,-1,1161,876,0,0
-56,148,0,0,0,0,0,0,0,0,0,-1,1168,876,0,0
-49,148,0,0,0,0,0,0,0,0,0,-1,1175,876,0,0
-42,148,0,0,0,0,0,0,0,0,0,-1,1182,876,0,0
-35,148,0,0,0,0,0,0,0,0,0,-1,1189,876,0,0
-28,148,0,0,0,0,0,0,0,0,0,-1,1196,876,0,0
-21,148,0,0,0,0,0,0,0,0,0,-1,1203,876,0,0
-14,148,0,0,0,0,0,0,0,0,0,-1,1210,876,0,0
-7,148,0,0,0,0,0,0,0,0,0,-1,1217,876,0,0
0,148,0,0,0,0,0,0,0,0,0,-1,1224,876,0,0
7,148,0,0,0,0,0,0,0,0,0,-1,1231,876,0,0
14,148,0,0,0,0,0,0,0,0,0,-1,1238,876,0,0
21,148,0,0,0,0,0,0,0,0,0,-1,1245,876,0,0
28,148,0,0,0,0,0,0,0,0,0,-1,1252,876,0,0
35,148,0,0,0,0,0,0,0,0,0,-1,1259,876,0,0
42,148,0,0,0,0,0,0,0,0,0,-1,1266,876,0,0
49,148,0,0,0,0,0,0,0,0,0,-1,1273,876,0,0
56,148,0,0,0,0,0,0,0,0,0,-1,1280,876,0,0
63,148,0,0,0,0,0,0,0,0,0,-1,1287,876,0,0
70,148,0,0,0,0,0,0,0,0,0,-1,1294,876,0,0
77,148,0,0,0,0,0,0,0,0,0,-1,1301,876,0,0
84,148,0,0,0,0,0,0,0,0,0,-1,1308,876,0,0
91,148,0,0,0,0,0,0,0,0,0,-1,1315,876,0,0
98,148,0,0,0,0,0,0,0,0,0,-1,1322,876,0,0
105,148,0,0,0,0,0,0,0,0,0,-1,1329,876,0,0
112,148,0,0,0,0,0,0,0,0,0,-1,1336,876,0,0
119,148,0,0,0,0,0,0,0,0,0,-1,1343,876,0,0
126,148,0,0,0,0,0,0,0,0,0,-1,1350,876,0,0
133,148,0,0,0,0,0,0,0,0,0,-1,1357,876,0,0
140,148,0,0,0,0,0,0,0,0,0,-1,1364,876,0,0
147,148,0,0,0,0,0,0,0,0,0,-1,1371,876,0,0
154,148,0,0,0,0,0,0,0,0,0,-1,1378,876,0,0
161,148,0,0,0,0,0,0,0,0,0,-1,1385,876,0,0
168,148,0,0,0,0,0,0,0,0,0,-1,1392,876,0,0
175,148,0,0,0,0,0,0,0,0,0,-1,1399,876,0,0
182,148,0,0,0,0,0,0,0,0,0,-1,1406,876,0,0
189,148,0,0,0,0,0,0,0,0,0,-1,1413,876,0,0
196,148,0,0,0,0,0,0,0,0,0,-1,1420,876,0,0
203,148,0,0,0,0,0,0,0,0,0,-1,1427,876,0,0
210,148,0,0,0,0,0,0,0,0,0,-1,1434,876,0,0
217,148,0,0,0,0,0,0,0,0,0,-1,1441,876,0,0
224,148,0,0,0,0,0,0,0,0,0,-1,1448,876,0,0
231,148,0,0,0,0,0,0,0,0,0,-1,1455,876,0,0
238,148,0,0,0,0,0,0,0,0,0,-1,1462,876,0,0
245,148,0,0,0,0,0,0,0,0,0,-1,1469,876,0,0
252,148,0,0,0,0,0,0,0,0,0,-1,1476,876,0,0
259,148,0,0,0,0,0,0,0,0,0,-1,1483,876,0,0
266,148,0,0,0,0,0,0,0,0,0,-1,1490,876,0,0
273,148,0,0,0,0,0,0,0,0,0,-1,1497,876,0,0
280,148,0,0,0,0,0,0,0,0,0,-1,1504,876,0,0
287,148,0,0,0,0,0,0,0,0,0,-1,1511,876,0,0
294,148,0,0,0,0,0,0,0,0,0,-1,1518,876,0,0
301,148,0,0,0,0,0,0,0,0,0,-1,1525,876,0,0
308,148,0,0,0,0,0,0,0,0,0,-1,1532,876,0,0
315,148,0,0,0,0,0,0,0,0,0,-1,1539,876,0,0
322,148,0,0,0,0,0,0,0,0,0,-1,1546,876,0,0
329,148,0,0,0,0,0,0,0,0,0,-1,1553,876,0,0
336,148,0,0,0,0,0,0,0,0,0,-1,1560,876,0,0
343,148,0,0,0,0,0,0,0,0,0,-1,1567,876,0,0
350,148,0,0,0,0,0,0,0,0,0,-1,1574,876,0,0
357,148,0,0,0,0,0,0,0,0,0,-1,1581,876,0,0
364,148,0,0,0,0,0,0,0,0,0,-1,1588,876,0,0
371,148,0,0,0,0,0,0,0,0,0,-1,1595,876,0,0
378,148,0,0,0,0,0,0,0,0,0,-1,1602,876,0,0
385,148,0,0,0,0,0,0,0,0,0,-1,1609,876,0,0
392,148,0,0,0,0,0,0,0,0,0,-1,1616,876,0,0
399,148,0,0,0,0,0,0,0,0,0,-1,1623,876,0,0
406,148,0,0,0,0,0,0,0,0,0,-1,1630,876,0,0
413,148,0,0,0,0,0,0,0,0,0,-1,1637,876,0,0
420,148,0,0,0,0,0,0,0,0,0,-1,1644,876,0,0
427,148,0,0,0,0,0,0,0,0,0,-1,1651,876,0,0
434,148,0,0,0,0,0,0,0,0,0,-1,1658,876,0,0
441,148,0,0,0,0,0,0,0,0,0,-1,1665,876,0,0
448,148,0,0,0,0,0,0,0,0,0,-1,1672,876,0,0
455,148,0,0,0,0,0,0,0,0,0,-1,1679,876,0,0
462,148,0,0,0,0,0,0,0,0,0,-1,1686,876,0,0
469,148,0,0,0,0,0,0,0,0,0,-1,1693,876,0,0
476,148,0,0,0,0,0,0,0,0,0,-1,1700,876,0,0
483,148,0,0,0,0,0,0,0,0,0,-1,1707,876,0,0
490,148,0,0,0,0,0,0,0,0,0,-1,1714,876,0,0
497,148,0,0,0,0,0,0,0,0,0,-1,1721,876,0,0
504,148,0,0,0,0,0,0,0,0,0,-1,1728,876,0,0
511,148,0,0,0,0,0,0,0,0,0,-1,1735,876,0,0
518,148,0,0,0,0,0,0,0,0,0,-1,1742,876,0,0
525,148,0,0,0,0,0,0,0,0,0,-1,1749,876,0,0
532,148,0,0,0,0,0,0,0,0,0,-1,1756,876,0,0
539,148,0,0,0,0,0,0,0,0,0,-1,1763,876,0,0
546,148,0,0,0,0,0,0,0,0,0,-1,1770,876,0,0
553,148,0,0,0,0,0,0,0,0,0,-1,1777,876,0,0
560,148,0,0,0,0,0,0,0,0,0,-1,1784,876,0,0
567,148,0,0,0,0,0,0,0,0,0,-1,1791,876,0,0
574,148,0,0,0,0,0,0,0,0,0,-1,1798,876,0,0
581,148,0,0,0,0,0,0,0,0,0,-1,1805,876,0,0
588,148,0,0,0,0,0,0,0,0,0,-1,1812,876,0,0
595,148,0,0,0,0,0,0,0,0,0,-1,1819,876,0,0
602,148,0,0,0,0,0,0,0,0,0,-1,1826,876,0,0
609,148,0,0,0,0,0,0,0,0,0,-1,1833,876,0,0
616,148,0,0,0,0,0,0,0,0,0,-1,1840,876,0,0
623,148,55.0155,2.96252,0.00188828,-0.00186393,-0.00479065,0.00515708,-0.00513273,-0.598768,0.00594083,0.041054,1847,876,55.0155,-2.96251
630,148,54.9021,2.77173,0.00121337,-0.00184779,-0.00369426,0.00368156,-0.00431599,-0.589006,0.00462223,0.0423536,1854,876,54.9021,-2.77175
637,148,54.8375,2.86359,0.000736994,-0.00161449,-0.00275707,0.00255855,-0.00343605,-0.583851,0.00347332,0.0382818,1861,876,54.8375,-2.86357
644,148,54.8536,2.92346,0.000308899,-0.0014882,-0.00219016,0.00177766,-0.00295696,-0.590735,0.00276166,0.0365848,1868,876,54.8537,-2.92349
651,148,54.9451,2.84894,-0.000111225,-0.00147384,-0.00199081,0.00131163,-0.0028967,-0.620532,0.00248646,0.0372585,1875,876,54.9451,-2.84895
658,148,54.9377,2.88904,-0.000492559,-0.00107664,-0.0018795,0.00111746,-0.00268666,-0.708323,0.00225773,0.0342089,1882,876,54.9377,-2.88903
665,148,54.8354,2.98822,-0.000793843,-0.000882933,-0.00197287,0.00113498,-0.00281176,-0.774111,0.0023462,0.0250352,1889,876,54.8355,-2.98823
672,148,54.8789,2.88434,-0.000999562,-0.000717527,-0.00190234,0.00104901,-0.0027661,-0.822395,0.0022758,0.0304055,1896,876,54.8789,-2.88434
679,148,54.954,2.72052,0,0,0,0,0,0,0,-1,1903,876,54.954,-2.72053
686,148,21.6195,2.40845,0,0,0,0,0,0,0,-1,1910,876,21.6196,-2.40846
693,148,46.3185,2.11761,0,0,0,0,0,0,0,-1,1917,876,46.3184,-2.11761
700,148,46.8671,2.86188,0,0,0,0,0,0,0,-1,1924,876,46.867,-2.86187
707,148,47.4155,3.60614,0,0,0,0,0,0,0,-1,1931,876,47.4156,-3.60612
714,148,46.949,3.98395,0,0,0,0,0,0,0,-1,1938,876,46.949,-3.98395
721,148,46.5131,4.49115,-0.000737451,0.00153524,-0.00147513,0.00226096,-0.00146317,-1.11359,0.00216651,0.0243866,1945,876,46.5131,-4.49115
728,148,46.4932,5.0614,-0.000750362,0.00212327,-0.00140339,0.00269492,-0.00132201,-1.18398,0.0023639,0.0205378,1952,876,46.4932,-5.06141
735,148,46.4995,5.64508,-0.000847387,0.00282456,-0.00126894,0.0032204,-0.00124323,-1.26841,0.00266002,0.0200533,1959,876,46.4995,-5.64508
742,148,46.4476,6.2193,-0.00101104,0.00373698,-0.00109761,0.00397844,-0.00125249,-1.35426,0.00315381,0.0211125,1966,876,46.4476,-6.21932
749,148,46.353,6.75043,-0.00140524,0.00478987,-0.000965142,0.00493675,-0.00155212,-1.41977,0.00391254,0.0212809,1973,876,46.353,-6.75043
756,148,46.2693,7.37756,-0.00218957,0.00609176,-0.0009436,0.00619791,-0.00229573,-1.45877,0.00507338,0.0266798,1980,876,46.2693,-7.37758
763,148,46.1278,8.04077,-0.00338087,0.00862155,-0.000649658,0.00865661,-0.00341593,-1.51688,0.00718566,0.0456542,1987,876,46.1278,-8.04075
770,148,45.9784,8.69849,0,0,0,0,0,0,0,-1,1994,876,45.9784,-8.69846
777,148,44.2043,9.88892,0,0,0,0,0,0,0,-1,2001,876,44.2043,-9.88889
784,148,43.7417,11.8786,0,0,0,0,0,0,0,-1,2008,876,43.7417,-11.8786
791,148,42.936,11.5876,0,0,0,0,0,0,0,-1,2015,876,42.936,-11.5876
798,148,0,0,0,0,0,0,0,0,0,-1,2022,876,0,0
805,148,0,0,0,0,0,0,0,0,0,-1,2029,876,0,0
812,148,0,0,0,0,0,0,0,0,0,-1,2036,876,0,0
-700,141,0,0,0,0,0,0,0,0,0,-1,524,883,0,0
-693,141,0,0,0,0,0,0,0,0,0,-1,531,883,0,0
-686,141,0,0,0,0,0,0,0,0,0,-1,538,883,0,0
-679,141,0,0,0,0,0,0,0,0,0,-1,545,883,0,0
-672,141,-36.9324,7.59656,0,0,0,0,0,0,0,-1,552,883,-36.9324,-7.59659
-665,141,-36.3577,6.56287,0,0,0,0,0,0,0,-1,559,883,-36.3577,-6.56289
-658,141,-35.4344,5.92352,0,0,0,0,0,0,0,-1,566,883,-35.4344,-5.92349
-651,141,-36.1428,3.05023,0,0,0,0,0,0,0,-1,573,883,-36.1428,-3.0502
-644,141,-36.9785,1.43658,0,0,0,0,0,0,0,-1,580,883,-36.9785,-1.43657
-637,141,-34.2079,5.9259,0,0,0,0,0,0,0,-1,587,883,-34.2079,-5.92588
-630,141,-34.3547,5.47449,0,0,0,0,0,0,0,-1,594,883,-34.3547,-5.47447
-623,141,-34.3488,4.72559,0.00292256,0.0192909,0.00498716,0.0206907,0.00152276,1.29716,0.0133153,0.0306326,601,883,-34.3488,-4.72558
-616,141,-34.5704,4.05933,0.00178392,0.0133856,0.00394217,0.0145984,0.000571174,1.27235,0.00954756,0.0141463,608,883,-34.5704,-4.05931
-609,141,-34.6564,3.48755,0.000634302,0.00844615,0.00378016,0.00997583,-0.000895381,1.18628,0.00696822,0.0151814,615,883,-34.6564,-3.48753
-602,141,-34.6863,2.94214,-0.000197048,0.00497275,0.00392214,0.00708518,-0.00230948,1.07675,0.00565279,0.0151193,622,883,-34.6863,-2.94217
-595,141,-34.6761,2.39056,-0.00035606,0.00310886,0.00406672,0.00579677,-0.00304397,0.986761,0.00518603,0.0151797,629,883,-34.6761,-2.39057
-588,141,-35.0242,1.82971,-0.000114287,0.0021444,0.00413351,0.00530007,-0.00326995,0.918752,0.00499396,0.0304094,636,883,-35.0242,-1.82969
-581,141,-34.9641,1.33185,-1.38682e-05,0.00187597,0.00413071,0.00516846,-0.00330636,0.897841,0.00493215,0.0419085,643,883,-34.964,-1.33187
-574,141,-34.6098,0.913818,0,0,0,0,0,0,0,-1,650,883,-34.6098,-0.913792
-567,141,-30.5335,0.480103,0,0,0,0,0,0,0,-1,657,883,-30.5335,-0.480081
-560,141,-30.5542,0.23175,0,0,0,0,0,0,0,-1,664,883,-30.5542,-0.231742
-553,141,-32.0876,1.39459,0,0,0,0,0,0,0,-1,671,883,-32.0876,-1.3946
-546,141,-41.1418,1.11133,0,0,0,0,0,0,0,-1,678,883,-41.1418,-1.11131
-539,141,-41.1669,1.02802,0.00011268,0.000290862,0.00380784,0.00401065,-0.00360711,0.797094,0.00440017,0.0310209,685,883,-41.1669,-1.028
-532,141,-41.2098,1.0246,0.000246914,-1.13816e-07,0.00341207,0.00353771,-0.00329091,0.767307,0.00394336,0.0297368,692,883,-41.2098,-1.0246
-525,141,-41.2222,1.09399,0.000188343,-0.000598464,0.003029,0.00284938,-0.0032595,0.72082,0.00352961,0.0370386,699,883,-41.2222,-1.09402
-518,141,-41.3154,1.29309,-0.000168519,-0.00113415,0.00262532,0.00201802,-0.00332068,0.694461,0.00311273,0.0413399,706,883,-41.3153,-1.29308
-511,141,-41.2852,1.50903,0.000631083,-0.00130139,0.00205377,0.00193456,-0.00260487,0.565525,0.00263034,0.0385366,713,883,-41.2851,-1.50902
-504,141,-41.1409,1.49207,0.00343668,-0.000154166,0.00104349,0.0037179,-0.000435379,0.263239,0.00263574,0.0431916,720,883,-41.1409,-1.49207
-497,141,0,0,0,0,0,0,0,0,0,-1,727,883,0,0
-490,141,0,0,0,0,0,0,0,0,0,-1,734,883,0,0
-483,141,0,0,0,0,0,0,0,0,0,-1,741,883,0,0
-476,141,0,0,0,0,0,0,0,0,0,-1,748,883,0,0
-469,141,0,0,0,0,0,0,0,0,0,-1,755,883,0,0
-462,141,0,0,0,0,0,0,0,0,0,-1,762,883,0,0
-455,141,0,0,0,0,0,0,0,0,0,-1,769,883,0,0
-448,141,0,0,0,0,0,0,0,0,0,-1,776,883,0,0
-441,141,0,0,0,0,0,0,0,0,0,-1,783,883,0,0
-434,141,0,0,0,0,0,0,0,0,0,-1,790,883,0,0
-427,141,0,0,0,0,0,0,0,0,0,-1,797,883,0,0
-420,141,0,0,0,0,0,0,0,0,0,-1,804,883,0,0
-413,141,0,0,0,0,0,0,0,0,0,-1,811,883,0,0
-406,141,0,0,0,0,0,0,0,0,0,-1,818,883,0,0
-399,141,0,0,0,0,0,0,0,0,0,-1,825,883,0,0
-392,141,0,0,0,0,0,0,0,0,0,-1,832,883,0,0
-385,141,0,0,0,0,0,0,0,0,0,-1,839,883,0,0
-378,141,0,0,0,0,0,0,0,0,0,-1,846,883,0,0
-371,141,0,0,0,0,0,0,0,0,0,-1,853,883,0,0
-364,141,0,0,0,0,0,0,0,0,0,-1,860,883,0,0
-357,141,0,0,0,0,0,0,0,0,0,-1,867,883,0,0
-350,141,0,0,0,0,0,0,0,0,0,-1,874,883,0,0
-343,141,0,0,0,0,0,0,0,0,0,-1,881,883,0,0
-336,141,0,0,0,0,0,0,0,0,0,-1,888,883,0,0
-329,141,0,0,0,0,0,0,0,0,0,-1,895,883,0,0
-322,141,0,0,0,0,0,0,0,0,0,-1,902,883,0,0
-315,141,0,0,0,0,0,0,0,0,0,-1,909,883,0,0
-308,141,0,0,0,0,0,0,0,0,0,-1,916,883,0,0
-301,141,0,0,0,0,0,0,0,0,0,-1,923,883,0,0
-294,141,0,0,0,0,0,0,0,0,0,-1,930,883,0,0
-287,141,0,0,0,0,0,0,0,0,0,-1,937,883,0,0
-280,141,0,0,0,0,0,0,0,0,0,-1,944,883,0,0
-273,141,0,0,0,0,0,0,0,0,0,-1,951,883,0,0
-266,141,0,0,0,0,0,0,0,0,0,-1,958,883,0,0
-259,141,0,0,0,0,0,0,0,0,0,-1,965,883,0,0
-252,141,0,0,0,0,0,0,0,0,0,-1,972,883,0,0
-245,141,0,0,0,0,0,0,0,0,0,-1,979,883,0,0
-238,141,0,0,0,0,0,0,0,0,0,-1,986,883,0,0
-231,141,0,0,0,0,0,0,0,0,0,-1,993,883,0,0
-224,141,0,0,0,0,0,0,0,0,0,-1,1000,883,0,0
-217,141,0,0,0,0,0,0,0,0,0,-1,1007,883,0,0
-210,141,0,0,0,0,0,0,0,0,0,-1,1014,883,0,0
-203,141,0,0,0,0,0,0,0,0,0,-1,1021,883,0,0
-196,141,0,0,0,0,0,0,0,0,0,-1,1028,883,0,0
-189,141,0,0,0,0,0,0,0,0,0,-1,1035,883,0,0
-182,141,0,0,0,0,0,0,0,0,0,-1,1042,883,0,0
-175,141,0,0,0,0,0,0,0,0,0,-1,1049,883,0,0
-168,141,0,0,0,0,0,0,0,0,0,-1,1056,883,0,0
-161,141,0,0,0,0,0,0,0,0,0,-1,1063,883,0,0
-154,141,0,0,0,0,0,0,0,0,0,-1,1070,883,0,0
-147,141,0,0,0,0,0,0,0,0,0,-1,1077,883,0,0
-140,141,0,0,0,0,0,0,0,0,0,-1,1084,883,0,0
-133,141,0,0,0,0,0,0,0,0,0,-1,1091,883,0,0
-126,141,0,0,0,0,0,0,0,0,0,-1,1098,883,0,0
-119,141,0,0,0,0,0,0,0,0,0,-1,1105,883,0,0
-112,141,0,0,0,0,0,0,0,0,0,-1,1112,883,0,0
-105,141,0,0,0,0,0,0,0,0,0,-1,1119,883,0,0
-98,141,0,0,0,0,0,0,0,0,0,-1,1126,883,0,0
-91,141,0,0,0,0,0,0,0,0,0,-1,1133,883,0,0
-84,141,0,0,0,0,0,0,0,0,0,-1,1140,883,0,0
-77,141,0,0,0,0,0,0,0,0,0,-1,1147,883,0,0
-70,141,0,0,0,0,0,0,0,0,0,-1,1154,883,0,0
-63,141,0,0,0,0,0,0,0,0,0,-1,1161,883,0,0
-56,141,0,0,0,0,0,0,0,0,0,-1,1168,883,0,0
-49,141,0,0,0,0,0,0,0,0,0,-1,1175,883,0,0
-42,141,0,0,0,0,0,0,0,0,0,-1,1182,883,0,0
-35,141,0,0,0,0,0,0,0,0,0,-1,1189,883,0,0
-28,141,0,0,0,0,0,0,0,0,0,-1,1196,883,0,0
-21,141,0,0,0,0,0,0,0,0,0,-1,1203,883,0,0
-14,141,0,0,0,0,0,0,0,0,0,-1,1210,883,0,0
-7,141,0,0,0,0,0,0,0,0,0,-1,1217,883,0,0
0,141,0,0,0,0,0,0,0,0,0,-1,1224,883,0,0
7,141,0,0,0,0,0,0,0,0,0,-1,1231,883,0,0
14,141,0,0,0,0,0,0,0,0,0,-1,1238,883,0,0
21,141,0,0,0,0,0,0,0,0,0,-1,1245,883,0,0
28,141,0,0,0,0,0,0,0,0,0,-1,1252,883,0,0
35,141,0,0,0,0,0,0,0,0,0,-1,1259,883,0,0
42,141,0,0,0,0,0,0,0,0,0,-1,1266,883,0,0
49,141,0,0,0,0,0,0,0,0,0,-1,1273,883,0,0
56,141,0,0,0,0,0,0,0,0,0,-1,1280,883,0,0
63,141,0,0,0,0,0,0,0,0,0,-1,1287,883,0,0
70,141,0,0,0,0,0,0,0,0,0,-1,1294,883,0,0
77,141,0,0,0,0,0,0,0,0,0,-1,1301,883,0,0
84,141,0,0,0,0,0,0,0,0,0,-1,1308,883,0,0
91,141,0,0,0,0,0,0,0,0,0,-1,1315,883,0,0
98,141,0,0,0,0,0,0,0,0,0,-1,1322,883,0,0
105,141,0,0,0,0,0,0,0,0,0,-1,1329,883,0,0
112,141,0,0,0,0,0,0,0,0,0,-1,1336,883,0,0
119,141,0,0,0,0,0,0,0,0,0,-1,1343,883,0,0
126,141,0,0,0,0,0,0,0,0,0,-1,1350,883,0,0
133,141,0,0,0,0,0,0,0,0,0,-1,1357,883,0,0
140,141,0,0,0,0,0,0,0,0,0,-1,1364,883,0,0
147,141,0,0,0,0,0,0,0,0,0,-1,1371,883,0,0
154,141,0,0,0,0,0,0,0,0,0,-1,1378,883,0,0
161,141,0,0,0,0,0,0,0,0,0,-1,1385,883,0,0
168,141,0,0,0,0,0,0,0,0,0,-1,1392,883,0,0
175,141,0,0,0,0,0,0,0,0,0,-1,1399,883,0,0
182,141,0,0,0,0,0,0,0,0,0,-1,1406,883,0,0
189,141,0,0,0,0,0,0,0,0,0,-1,1413,883,0,0
196,141,0,0,0,0,0,0,0,0,0,-1,1420,883,0,0
203,141,0,0,0,0,0,0,0,0,0,-1,1427,883,0,0
210,141,0,0,0,0,0,0,0,0,0,-1,1434,883,0,0
217,141,0,0,0,0,0,0,0,0,0,-1,1441,883,0,0
224,141,0,0,0,0,0,0,0,0,0,-1,1448,883,0,0
231,141,0,0,0,0,0,0,0,0,0,-1,1455,883,0,0
238,141,0,0,0,0,0,0,0,0,0,-1,1462,883,0,0
245,141,0,0,0,0,0,0,0,0,0,-1,1469,883,0,0
252,141,0,0,0,0,0,0,0,0,0,-1,1476,883,0,0
259,141,0,0,0,0,0,0,0,0,0,-1,1483,883,0,0
266,141,0,0,0,0,0,0,0,0,0,-1,1490,883,0,0
273,141,0,0,0,0,0,0,0,0,0,-1,1497,883,0,0
280,141,0,0,0,0,0,0,0,0,0,-1,1504,883,0,0
287,141,0,0,0,0,0,0,0,0,0,-1,1511,883,0,0
294,141,0,0,0,0,0,0,0,0,0,-1,1518,883,0,0
301,141,0,0,0,0,0,0,0,0,0,-1,1525,883,0,0
308,141,0,0,0,0,0,0,0,0,0,-1,1532,883,0,0
315,141,0,0,0,0,0,0,0,0,0,-1,1539,883,0,0
322,141,0,0,0,0,0,0,0,0,0,-1,1546,883,0,0
329,141,0,0,0,0,0,0,0,0,0,-1,1553,883,0,0
336,141,0,0,0,0,0,0,0,0,0,-1,1560,883,0,0
343,141,0,0,0,0,0,0,0,0,0,-1,1567,883,0,0
350,141,0,0,0,0,0,0,0,0,0,-1,1574,883,0,0
357,141,0,0,0,0,0,0,0,0,0,-1,1581,883,0,0
364,141,0,0,0,0,0,0,0,0,0,-1,1588,883,0,0
371,141,0,0,0,0,0,0,0,0,0,-1,1595,883,0,0
378,141,0,0,0,0,0,0,0,0,0,-1,1602,883,0,0
385,141,0,0,0,0,0,0,0,0,0,-1,1609,883,0,0
392,141,0,0,0,0,0,0,0,0,0,-1,1616,883,0,0
399,141,0,0,0,0,0,0,0,0,0,-1,1623,883,0,0
406,141,0,0,0,0,0,0,0,0,0,-1,1630,883,0,0
413,141,0,0,0,0,0,0,0,0,0,-1,1637,883,0,0
420,141,0,0,0,0,0,0,0,0,0,-1,1644,883,0,0
427,141,0,0,0,0,0,0,0,0,0,-1,1651,883,0,0
434,141,0,0,0,0,0,0,0,0,0,-1,1658,883,0,0
441,141,0,0,0,0,0,0,0,0,0,-1,1665,883,0,0
448,141,0,0,0,0,0,0,0,0,0,-1,1672,883,0,0
455,141,0,0,0,0,0,0,0,0,0,-1,1679,883,0,0
462,141,0,0,0,0,0,0,0,0,0,-1,1686,883,0,0
469,141,0,0,0,0,0,0,0,0,0,-1,1693,883,0,0
476,141,0,0,0,0,0,0,0,0,0,-1,1700,883,0,0
483,141,0,0,0,0,0,0,0,0,0,-1,1707,883,0,0
490,141,0,0,0,0,0,0,0,0,0,-1,1714,883,0,0
497,141,0,0,0,0,0,0,0,0,0,-1,1721,883,0,0
504,141,0,0,0,0,0,0,0,0,0,-1,1728,883,0,0
511,141,0,0,0,0,0,0,0,0,0,-1,1735,883,0,0
518,141,0,0,0,0,0,0,0,0,0,-1,1742,883,0,0
525,141,0,0,0,0,0,0,0,0,0,-1,1749,883,0,0
532,141,0,0,0,0,0,0,0,0,0,-1,1756,883,0,0
539,141,0,0,0,0,0,0,0,0,0,-1,1763,883,0,0
546,141,0,0,0,0,0,0,0,0,0,-1,1770,883,0,0
553,141,0,0,0,0,0,0,0,0,0,-1,1777,883,0,0
560,141,0,0,0,0,0,0,0,0,0,-1,1784,883,0,0
567,141,0,0,0,0,0,0,0,0,0,-1,1791,883,0,0
574,141,0,0,0,0,0,0,0,0,0,-1,1798,883,0,0
581,141,0,0,0,0,0,0,0,0,0,-1,1805,883,0,0
588,141,0,0,0,0,0,0,0,0,0,-1,1812,883,0,0
595,141,0,0,0,0,0,0,0,0,0,-1,1819,883,0,0
602,141,0,0,0,0,0,0,0,0,0,-1,1826,883,0,0
609,141,0,0,0,0,0,0,0,0,0,-1,1833,883,0,0
616,141,0,0,0,0,0,0,0,0,0,-1,1840,883,0,0
623,141,54.8959,3.17108,0.00212225,-0.00118291,-0.00519381,0.00592005,-0.00498071,-0.631371,0.00630134,0.0426759,1847,883,54.8959,-3.17106
630,141,54.866,2.9826,0.00155366,-0.0012485,-0.00417163,0.00455321,-0.00424805,-0.623387,0.00508243,0.04394,1854,883,54.866,-2.98264
637,141,54.7094,3.15485,0.00113625,-0.00109362,-0.00327951,0.00348517,-0.00344254,-0.621543,0.00399974,0.0431917,1861,883,54.7093,-3.15486
644,141,54.7668,3.09326,0.00072147,-0.00100807,-0.00266072,0.00265443,-0.00294102,-0.628277,0.00323195,0.041291,1868,883,54.7668,-3.09326
651,141,54.9246,2.98083,0.000285722,-0.000991785,-0.00232363,0.00205679,-0.00276285,-0.651264,0.00279256,0.0405856,1875,883,54.9245,-2.98081
658,141,54.8575,2.93079,-0.000109221,-0.00057815,-0.00204337,0.00171309,-0.00240046,-0.728276,0.00238599,0.0383084,1882,883,54.8575,-2.93076
665,141,54.8254,2.9248,-0.000374967,-0.000348434,-0.0020042,0.00164255,-0.00236595,-0.788708,0.00232683,0.0273222,1889,883,54.8254,-2.92479
672,141,54.8473,2.94629,-0.000549322,-0.000188314,-0.00187842,0.00151825,-0.00225589,-0.833298,0.00219283,0.0186069,1896,883,54.8472,-2.94631
679,141,54.8564,2.95496,-0.000552259,5.05166e-05,-0.00180385,0.00157799,-0.00207973,-0.868174,0.0021184,0.0396198,1903,883,54.8565,-2.95493
686,141,54.8301,2.9101,0,0,0,0,0,0,0,-1,1910,883,54.83,-2.91009
693,141,46.7864,2.02905,0,0,0,0,0,0,0,-1,1917,883,46.7864,-2.02907
700,141,47.355,2.84668,0,0,0,0,0,0,0,-1,1924,883,47.355,-2.8467
707,141,47.3251,3.5686,-0.000864289,0.000952313,-0.00146656,0.00176907,-0.00168104,-1.06266,0.00199214,0.032516,1931,883,47.325,-3.56861
714,141,47.0638,3.97522,-0.000904069,0.0012126,-0.00134653,0.00186692,-0.0015584,-1.11846,0.00198028,0.0302747,1938,883,47.0638,-3.97523
721,141,47.0349,4.48804,-0.000810793,0.00164766,-0.0014338,0.00230703,-0.00147016,-1.13976,0.00219853,0.0168192,1945,883,47.035,-4.48803
728,141,47.0939,4.98926,-0.00105266,0.00217946,-0.0015133,0.00277738,-0.00165058,-1.19451,0.00258393,0.0163906,1952,883,47.0939,-4.98928
735,141,47.0748,5.64252,-0.00151244,0.00286829,-0.00159382,0.0033868,-0.00203094,-1.25627,0.00316042,0.0182804,1959,883,47.0748,-5.64254
742,141,47.017,6.22717,-0.00208496,0.00383949,-0.00168312,0.00428427,-0.00252973,-1.31244,0.0039773,0.0184777,1966,883,47.0169,-6.22718
749,141,46.9919,6.73828,-0.00284418,0.00500417,-0.0018278,0.00540896,-0.00324898,-1.35285,0.00505025,0.0152,1973,883,46.992,-6.73829
756,141,46.9753,7.30017,-0.00385987,0.00646171,-0.00208402,0.00686661,-0.00426477,-1.3789,0.00648496,0.0221579,1980,883,46.9753,-7.30019
763,141,46.8799,7.81897,-0.00507743,0.00903436,-0.00215017,0.0093547,-0.00539777,-1.4229,0.00861887,0.044645,1987,883,46.8798,-7.81894
770,141,46.751,8.33069,0,0,0,0,0,0,0,-1,1994,883,46.751,-8.3307
777,141,42.8359,8.39563,0,0,0,0,0,0,0,-1,2001,883,42.836,-8.39564
784,141,43.439,10.2161,0,0,0,0,0,0,0,-1,2008,883,43.4389,-10.2161
791,141,42.5815,7.74707,0,0,0,0,0,0,0,-1,2015,883,42.5815,-7.74706
798,141,0,0,0,0,0,0,0,0,0,-1,2022,883,0,0
805,141,0,0,0,0,0,0,0,0,0,-1,2029,883,0,0
812,141,0,0,0,0,0,0,0,0,0,-1,2036,883,0,0
-700,134,0,0,0,0,0,0,0,0,0,-1,524,890,0,0
-693,134,0,0,0,0,0,0,0,0,0,-1,531,890,0,0
-686,134,0,0,0,0,0,0,0,0,0,-1,538,890,0,0
-679,134,0,0,0,0,0,0,0,0,0,-1,545,890,0,0
-672,134,-37.1349,7.24268,0,0,0,0,0,0,0,-1,552,890,-37.135,-7.24265
-665,134,-36.5696,6.05627,0,0,0,0,0,0,0,-1,559,890,-36.5696,-6.0563
-658,134,-36.7392,4.95111,0,0,0,0,0,0,0,-1,566,890,-36.7392,-4.95109
-651,134,-37.1125,2.70453,0,0,0,0,0,0,0,-1,573,890,-37.1125,-2.70451
-644,134,-37.8325,1.0694,0,0,0,0,0,0,0,-1,580,890,-37.8325,-1.06941
-637,134,-38.2886,-0.658752,0,0,0,0,0,0,0,-1,587,890,-38.2886,0.658751
-630,134,-34.854,5.00964,0,0,0,0,0,0,0,-1,594,890,-34.854,-5.00964
-623,134,-34.9667,4.55981,-0.000604741,0.0164072,0.00462522,0.0175834,-0.00178093,1.32178,0.0123587,0.0279889,601,890,-34.9667,-4.55981
-616,134,-35.1374,4.03149,-0.000577261,0.0117031,0.00344076,0.0126015,-0.00147559,1.31541,0.00893356,0.0132753,608,890,-35.1374,-4.0315
-609,134,-35.2353,3.49097,-0.000874477,0.00728793,0.00349987,0.0085831,-0.00216964,1.21636,0.00656588,0.0125119,615,890,-35.2353,-3.49098
-602,134,-35.2495,2.95715,-0.00126865,0.0042347,0.00380152,0.00617592,-0.00320987,1.09867,0.00550834,0.0134128,622,890,-35.2495,-2.95715
-595,134,-35.1832,2.48212,-0.00124405,0.00263057,0.0039816,0.00512116,-0.00373464,1.01182,0.00513375,0.0223995,629,890,-35.1832,-2.48209
-588,134,-35.1619,1.99786,0,0,0,0,0,0,0,-1,636,890,-35.1619,-1.99788
-581,134,-35.7553,1.44958,0,0,0,0,0,0,0,-1,643,890,-35.7553,-1.44956
-574,134,-31.1517,0.757751,0,0,0,0,0,0,0,-1,650,890,-31.1517,-0.757758
-567,134,-30.9003,0.296326,0,0,0,0,0,0,0,-1,657,890,-30.9002,-0.296302
-560,134,-22.9123,0.106567,0,0,0,0,0,0,0,-1,664,890,-22.9123,-0.106594
-553,134,-41.1384,1.05347,0,0,0,0,0,0,0,-1,671,890,-41.1384,-1.05346
-546,134,-41.1744,1.03772,-0.000541611,0.000418451,0.00364531,0.0036152,-0.00373836,0.850864,0.00424578,0.032201,678,890,-41.1744,-1.0377
-539,134,-41.1971,1.01538,-0.000547646,0.000424815,0.00346321,0.00343576,-0.00355859,0.855142,0.0040384,0.0183232,685,890,-41.1971,-1.01538
-532,134,-41.2142,1.04333,-0.00024318,0.00039349,0.0030342,0.00312601,-0.0029757,0.837665,0.00352318,0.0233953,692,890,-41.2142,-1.04331
-525,134,-41.1364,1.16168,-5.60071e-05,0.000124365,0.00261348,0.00264922,-0.00258086,0.802645,0.00301967,0.0341422,699,890,-41.1364,-1.16169
-518,134,-41.1313,1.19592,3.11994e-05,7.16826e-05,0.0021651,0.00221663,-0.00211375,0.790073,0.00250038,0.040541,706,890,-41.1313,-1.19593
-511,134,-41.085,1.29156,0.00128166,0.000353208,0.00153316,0.00241934,-0.000784473,0.638392,0.00192833,0.0420283,713,890,-41.085,-1.29158
-504,134,0,0,0,0,0,0,0,0,0,-1,720,890,0,0
-497,134,0,0,0,0,0,0,0,0,0,-1,727,890,0,0
-490,134,0,0,0,0,0,0,0,0,0,-1,734,890,0,0
-483,134,0,0,0,0,0,0,0,0,0,-1,741,890,0,0
-476,134,0,0,0,0,0,0,0,0,0,-1,748,890,0,0
-469,134,0,0,0,0,0,0,0,0,0,-1,755,890,0,0
-462,134,0,0,0,0,0,0,0,0,0,-1,762,890,0,0
-455,134,0,0,0,0,0,0,0,0,0,-1,769,890,0,0
-448,134,0,0,0,0,0,0,0,0,0,-1,776,890,0,0
-441,134,0,0,0,0,0,0,0,0,0,-1,783,890,0,0
-434,134,0,0,0,0,0,0,0,0,0,-1,790,890,0,0
-427,134,0,0,0,0,0,0,0,0,0,-1,797,890,0,0
-420,134,0,0,0,0,0,0,0,0,0,-1,804,890,0,0
-413,134,0,0,0,0,0,0,0,0,0,-1,811,890,0,0
-406,134,0,0,0,0,0,0,0,0,0,-1,818,890,0,0
-399,134,0,0,0,0,0,0,0,0,0,-1,825,890,0,0
-392,134,0,0,0,0,0,0,0,0,0,-1,832,890,0,0
-385,134,0,0,0,0,0,0,0,0,0,-1,839,890,0,0
-378,134,0,0,0,0,0,0,0,0,0,-1,846,890,0,0
-371,134,0,0,0,0,0,0,0,0,0,-1,853,890,0,0
-364,134,0,0,0,0,0,0,0,0,0,-1,860,890,0,0
-357,134,0,0,0,0,0,0,0,0,0,-1,867,890,0,0
-350,134,0,0,0,0,0,0,0,0,0,-1,874,890,0,0
-343,134,0,0,0,0,0,0,0,0,0,-1,881,890,0,0
-336,134,0,0,0,0,0,0,0,0,0,-1,888,890,0,0
-329,134,0,0,0,0,0,0,0,0,0,-1,895,890,0,0
-322,134,0,0,0,0,0,0,0,0,0,-1,902,890,0,0
-315,134,0,0,0,0,0,0,0,0,0,-1,909,890,0,0
-308,134,0,0,0,0,0,0,0,0,0,-1,916,890,0,0
-301,134,0,0,0,0,0,0,0,0,0,-1,923,890,0,0
-294,134,0,0,0,0,0,0,0,0,0,-1,930,890,0,0
-287,134,0,0,0,0,0,0,0,0,0,-1,937,890,0,0
-280,134,0,0,0,0,0,0,0,0,0,-1,944,890,0,0
-273,134,0,0,0,0,0,0,0,0,0,-1,951,890,0,0
-266,134,0,0,0,0,0,0,0,0,0,-1,958,890,0,0
-259,134,0,0,0,0,0,0,0,0,0,-1,965,890,0,0
-252,134,0,0,0,0,0,0,0,0,0,-1,972,890,0,0
-245,134,0,0,0,0,0,0,0,0,0,-1,979,890,0,0
-238,134,0,0,0,0,0,0,0,0,0,-1,986,890,0,0
-231,134,0,0,0,0,0,0,0,0,0,-1,993,890,0,0
-224,134,0,0,0,0,0,0,0,0,0,-1,1000,890,0,0
-217,134,0,0,0,0,0,0,0,0,0,-1,1007,890,0,0
-210,134,0,0,0,0,0,0,0,0,0,-1,1014,890,0,0
-203,134,0,0,0,0,0,0,0,0,0,-1,1021,890,0,0
-196,134,0,0,0,0,0,0,0,0,0,-1,1028,890,0,0
-189,134,0,0,0,0,0,0,0,0,0,-1,1035,890,0,0
-182,134,0,0,0,0,0,0,0,0,0,-1,1042,890,0,0
-175,134,0,0,0,0,0,0,0,0,0,-1,1049,890,0,0
-168,134,0,0,0,0,0,0,0,0,0,-1,1056,890,0,0
-161,134,0,0,0,0,0,0,0,0,0,-1,1063,890,0,0
-154,134,0,0,0,0,0,0,0,0,0,-1,1070,890,0,0
-147,134,0,0,0,0,0,0,0,0,0,-1,1077,890,0,0
-140,134,0,0,0,0,0,0,0,0,0,-1,1084,890,0,0
-133,134,0,0,0,0,0,0,0,0,0,-1,1091,890,0,0
-126,134,0,0,0,0,0,0,0,0,0,-1,1098,890,0,0
-119,134,0,0,0,0,0,0,0,0,0,-1,1105,890,0,0
-112,134,0,0,0,0,0,0,0,0,0,-1,1112,890,0,0
-105,134,0,0,0,0,0,0,0,0,0,-1,1119,890,0,0
-98,134,0,0,0,0,0,0,0,0,0,-1,1126,890,0,0
-91,134,0,0,0,0,0,0,0,0,0,-1,1133,890,0,0
-84,134,0,0,0,0,0,0,0,0,0,-1,1140,890,0,0
-77,134,0,0,0,0,0,0,0,0,0,-1,1147,890,0,0
-70,134,0,0,0,0,0,0,0,0,0,-1,1154,890,0,0
-63,134,0,0,0,0,0,0,0,0,0,-1,1161,890,0,0
-56,134,0,0,0,0,0,0,0,0,0,-1,1168,890,0,0
-49,134,0,0,0,0,0,0,0,0,0,-1,1175,890,0,0
-42,134,0,0,0,0,0,0,0,0,0,-1,1182,890,0,0
-35,134,0,0,0,0,0,0,0,0,0,-1,1189,890,0,0
-28,134,0,0,0,0,0,0,0,0,0,-1,1196,890,0,0
-21,134,0,0,0,0,0,0,0,0,0,-1,1203,890,0,0
-14,134,0,0,0,0,0,0,0,0,0,-1,1210,890,0,0
-7,134,0,0,0,0,0,0,0,0,0,-1,1217,890,0,0
0,134,0,0,0,0,0,0,0,0,0,-1,1224,890,0,0
7,134,0,0,0,0,0,0,0,0,0,-1,1231,890,0,0
14,134,0,0,0,0,0,0,0,0,0,-1,1238,890,0,0
21,134,0,0,0,0,0,0,0,0,0,-1,1245,890,0,0
28,134,0,0,0,0,0,0,0,0,0,-1,1252,890,0,0
35,134,0,0,0,0,0,0,0,0,0,-1,1259,890,0,0
42,134,0,0,0,0,0,0,0,0,0,-1,1266,890,0,0
49,134,0,0,0,0,0,0,0,0,0,-1,1273,890,0,0
56,134,0,0,0,0,0,0,0,0,0,-1,1280,890,0,0
63,134,0,0,0,0,0,0,0,0,0,-1,1287,890,0,0
70,134,0,0,0,0,0,0,0,0,0,-1,1294,890,0,0
77,134,0,0,0,0,0,0,0,0,0,-1,1301,890,0,0
84,134,0,0,0,0,0,0,0,0,0,-1,1308,890,0,0
91,134,0,0,0,0,0,0,0,0,0,-1,1315,890,0,0
98,134,0,0,0,0,0,0,0,0,0,-1,1322,890,0,0
105,134,0,0,0,0,0,0,0,0,0,-1,1329,890,0,0
112,134,0,0,0,0,0,0,0,0,0,-1,1336,890,0,0
119,134,0,0,0,0,0,0,0,0,0,-1,1343,890,0,0
126,134,0,0,0,0,0,0,0,0,0,-1,1350,890,0,0
133,134,0,0,0,0,0,0,0,0,0,-1,1357,890,0,0
140,134,0,0,0,0,0,0,0,0,0,-1,1364,890,0,0
147,134,0,0,0,0,0,0,0,0,0,-1,1371,890,0,0
154,134,0,0,0,0,0,0,0,0,0,-1,1378,890,0,0
161,134,0,0,0,0,0,0,0,0,0,-1,1385,890,0,0
168,134,0,0,0,0,0,0,0,0,0,-1,1392,890,0,0
175,134,0,0,0,0,0,0,0,0,0,-1,1399,890,0,0
182,134,0,0,0,0,0,0,0,0,0,-1,1406,890,0,0
189,134,0,0,0,0,0,0,0,0,0,-1,1413,890,0,0
196,134,0,0,0,0,0,0,0,0,0,-1,1420,890,0,0
203,134,0,0,0,0,0,0,0,0,0,-1,1427,890,0,0
210,134,0,0,0,0,0,0,0,0,0,-1,1434,890,0,0
217,134,0,0,0,0,0,0,0,0,0,-1,1441,890,0,0
224,134,0,0,0,0,0,0,0,0,0,-1,1448,890,0,0
231,134,0,0,0,0,0,0,0,0,0,-1,1455,890,0,0
238,134,0,0,0,0,0,0,0,0,0,-1,1462,890,0,0
245,134,0,0,0,0,0,0,0,0,0,-1,1469,890,0,0
252,134,0,0,0,0,0,0,0,0,0,-1,1476,890,0,0
259,134,0,0,0,0,0,0,0,0,0,-1,1483,890,0,0
266,134,0,0,0,0,0,0,0,0,0,-1,1490,890,0,0
273,134,0,0,0,0,0,0,0,0,0,-1,1497,890,0,0
280,134,0,0,0,0,0,0,0,0,0,-1,1504,890,0,0
287,134,0,0,0,0,0,0,0,0,0,-1,1511,890,0,0
294,134,0,0,0,0,0,0,0,0,0,-1,1518,890,0,0
301,134,0,0,0,0,0,0,0,0,0,-1,1525,890,0,0
308,134,0,0,0,0,0,0,0,0,0,-1,1532,890,0,0
315,134,0,0,0,0,0,0,0,0,0,-1,1539,890,0,0
322,134,0,0,0,0,0,0,0,0,0,-1,1546,890,0,0
329,134,0,0,0,0,0,0,0,0,0,-1,1553,890,0,0
336,134,0,0,0,0,0,0,0,0,0,-1,1560,890,0,0
343,134,0,0,0,0,0,0,0,0,0,-1,1567,890,0,0
350,134,0,0,0,0,0,0,0,0,0,-1,1574,890,0,0
357,134,0,0,0,0,0,0,0,0,0,-1,1581,890,0,0
364,134,0,0,0,0,0,0,0,0,0,-1,1588,890,0,0
371,134,0,0,0,0,0,0,0,0,0,-1,1595,890,0,0
378,134,0,0,0,0,0,0,0,0,0,-1,1602,890,0,0
385,134,0,0,0,0,0,0,0,0,0,-1,1609,890,0,0
392,134,0,0,0,0,0,0,0,0,0,-1,1616,890,0,0
399,134,0,0,0,0,0,0,0,0,0,-1,1623,890,0,0
406,134,0,0,0,0,0,0,0,0,0,-1,1630,890,0,0
413,134,0,0,0,0,0,0,0,0,0,-1,1637,890,0,0
420,134,0,0,0,0,0,0,0,0,0,-1,1644,890,0,0
427,134,0,0,0,0,0,0,0,0,0,-1,1651,890,0,0
434,134,0,0,0,0,0,0,0,0,0,-1,1658,890,0,0
441,134,0,0,0,0,0,0,0,0,0,-1,1665,890,0,0
448,134,0,0,0,0,0,0,0,0,0,-1,1672,890,0,0
455,134,0,0,0,0,0,0,0,0,0,-1,1679,890,0,0
462,134,0,0,0,0,0,0,0,0,0,-1,1686,890,0,0
469,134,0,0,0,0,0,0,0,0,0,-1,1693,890,0,0
476,134,0,0,0,0,0,0,0,0,0,-1,1700,890,0,0
483,134,0,0,0,0,0,0,0,0,0,-1,1707,890,0,0
490,134,0,0,0,0,0,0,0,0,0,-1,1714,890,0,0
497,134,0,0,0,0,0,0,0,0,0,-1,1721,890,0,0
504,134,0,0,0,0,0,0,0,0,0,-1,1728,890,0,0
511,134,0,0,0,0,0,0,0,0,0,-1,1735,890,0,0
518,134,0,0,0,0,0,0,0,0,0,-1,1742,890,0,0
525,134,0,0,0,0,0,0,0,0,0,-1,1749,890,0,0
532,134,0,0,0,0,0,0,0,0,0,-1,1756,890,0,0
539,134,0,0,0,0,0,0,0,0,0,-1,1763,890,0,0
546,134,0,0,0,0,0,0,0,0,0,-1,1770,890,0,0
553,134,0,0,0,0,0,0,0,0,0,-1,1777,890,0,0
560,134,0,0,0,0,0,0,0,0,0,-1,1784,890,0,0
567,134,0,0,0,0,0,0,0,0,0,-1,1791,890,0,0
574,134,0,0,0,0,0,0,0,0,0,-1,1798,890,0,0
581,134,0,0,0,0,0,0,0,0,0,-1,1805,890,0,0
588,134,0,0,0,0,0,0,0,0,0,-1,1812,890,0,0
595,134,0,0,0,0,0,0,0,0,0,-1,1819,890,0,0
602,134,0,0,0,0,0,0,0,0,0,-1,1826,890,0,0
609,134,0,0,0,0,0,0,0,0,0,-1,1833,890,0,0
616,134,0,0,0,0,0,0,0,0,0,-1,1840,890,0,0
623,134,54.8531,3.14423,0.00215341,-0.000506156,-0.00603509,0.00700349,-0.00535623,-0.67696,0.00715698,0.0436177,1847,890,54.8532,-3.14425
630,134,54.7766,3.23132,0.00179461,-0.000530429,-0.00493428,0.00570146,-0.00443728,-0.669708,0.00586875,0.043902,1854,890,54.7766,-3.23135
637,134,54.776,3.47156,0.00150274,-0.000386218,-0.00399192,0.0046604,-0.00354387,-0.669235,0.00475134,0.0460417,1861,890,54.776,-3.47153
644,134,54.8938,3.29163,0.00110328,-0.000339767,-0.00324633,0.0037073,-0.00294379,-0.676047,0.00384844,0.0427818,1868,890,54.8938,-3.29164
651,134,54.8278,3.16327,0.000643378,-0.000386261,-0.00269616,0.00287343,-0.00261631,-0.691061,0.00317066,0.043275,1875,890,54.8278,-3.1633
658,134,54.7781,3.01587,0.000213179,-6.55842e-05,-0.00218378,0.00226202,-0.00211443,-0.753529,0.00252722,0.0401444,1882,890,54.7781,-3.01588
665,134,54.8102,2.79816,-3.14799e-05,0.000134346,-0.00195648,0.00200967,-0.00190681,-0.806575,0.00226144,0.0316992,1889,890,54.8101,-2.79815
672,134,54.866,2.84589,-0.000195228,0.00023519,-0.00172159,0.00175497,-0.00171501,-0.847579,0.00200343,0.0198997,1896,890,54.866,-2.84586
679,134,54.891,2.8504,-0.000224859,0.000391795,-0.00157582,0.00168917,-0.00152224,-0.882008,0.00185494,0.0193814,1903,890,54.891,-2.85042
686,134,54.8171,2.80872,0,0,0,0,0,0,0,-1,1910,890,54.8171,-2.80872
693,134,34.5778,2.48096,0,0,0,0,0,0,0,-1,1917,890,34.5777,-2.48099
700,134,47.6771,2.66876,0,0,0,0,0,0,0,-1,1924,890,47.6771,-2.66878
707,134,47.4901,3.10449,-0.000856541,0.00102484,-0.00111265,0.00154117,-0.00137287,-1.13632,0.00168335,0.0246104,1931,890,47.4901,-3.10451
714,134,47.5085,3.75543,-0.000967406,0.00124535,-0.00106328,0.00167345,-0.00139551,-1.18803,0.00177428,0.0242858,1938,890,47.5085,-3.7554
721,134,47.6591,4.40863,-0.000916353,0.00164789,-0.0012312,0.00214332,-0.00141178,-1.18823,0.00206697,0.0231358,1945,890,47.659,-4.40864
728,134,47.72,4.96088,-0.00127349,0.00219033,-0.00140925,0.00269125,-0.00177441,-1.22928,0.0025963,0.0203752,1952,890,47.72,-4.96089
735,134,47.6888,5.64148,-0.00185063,0.00288949,-0.00164486,0.00340434,-0.00236548,-1.26745,0.00334916,0.0255152,1959,890,47.6889,-5.6415
742,134,47.6272,6.23511,-0.00255894,0.00393972,-0.00192523,0.00446725,-0.00308647,-1.30335,0.00438536,0.0165146,1966,890,47.6271,-6.23509
749,134,47.6298,6.75745,-0.00335228,0.00524841,-0.00226095,0.00580655,-0.00391042,-1.32877,0.00564559,0.0129152,1973,890,47.6298,-6.75747
756,134,47.5856,7.26465,-0.00414314,0.00685846,-0.00266993,0.00747218,-0.00475685,-1.34486,0.00711822,0.0178418,1980,890,47.5856,-7.26463
763,134,47.5253,7.70801,-0.0047681,0.00936271,-0.00294875,0.00995335,-0.00535874,-1.37311,0.00897212,0.03913,1987,890,47.5253,-7.708
770,134,47.4592,8.14636,0,0,0,0,0,0,0,-1,1994,890,47.4592,-8.14638
777,134,43.6969,5.94574,0,0,0,0,0,0,0,-1,2001,890,43.697,-5.94577
784,134,42.3352,7.4964,0,0,0,0,0,0,0,-1,2008,890,42.3352,-7.49641
791,134,42.2061,9.63593,0,0,0,0,0,0,0,-1,2015,890,42.2061,-9.63591
798,134,0,0,0,0,0,0,0,0,0,-1,2022,890,0,0
805,134,0,0,0,0,0,0,0,0,0,-1,2029,890,0,0
812,134,0,0,0,0,0,0,0,0,0,-1,2036,890,0,0
-700,127,0,0,0,0,0,0,0,0,0,-1,524,897,0,0
-693,127,0,0,0,0,0,0,0,0,0,-1,531,897,0,0
-686,127,0,0,0,0,0,0,0,0,0,-1,538,897,0,0
-679,127,-36.8239,8.63116,0,0,0,0,0,0,0,-1,545,897,-36.8239,-8.63116
-672,127,-37.3853,6.80005,0,0,0,0,0,0,0,-1,552,897,-37.3853,-6.80007
-665,127,-36.693,5.54901,0,0,0,0,0,0,0,-1,559,897,-36.693,-5.54899
-658,127,-37.2131,3.97449,0,0,0,0,0,0,0,-1,566,897,-37.2131,-3.97446
-651,127,-37.9974,2.57092,0,0,0,0,0,0,0,-1,573,897,-37.9974,-2.57093
-644,127,-38.7797,1.09039,0,0,0,0,0,0,0,-1,580,897,-38.7797,-1.09042
-637,127,-35.9027,4.25031,0,0,0,0,0,0,0,-1,587,897,-35.9027,-4.2503
-630,127,-35.7328,4.44672,0,0,0,0,0,0,0,-1,594,897,-35.7329,-4.44672
-623,127,-35.6824,4.4588,-0.00366774,0.0141858,0.00476566,0.0153782,-0.0048602,1.32561,0.0121993,0.0176079,601,897,-35.6825,-4.45878
-616,127,-35.7326,4.00763,-0.00290598,0.0103434,0.00322995,0.0110889,-0.00365144,1.34397,0.00886409,0.0108252,608,897,-35.7326,-4.00761
-609,127,-35.7929,3.49701,-0.00246376,0.00638074,0.00326561,0.00745581,-0.00353883,1.25276,0.00648065,0.0142598,615,897,-35.7929,-3.497
-602,127,-35.8026,2.99811,-0.00244971,0.00379812,0.00360009,0.00544071,-0.00409229,1.14275,0.0055222,0.0164041,622,897,-35.8026,-2.99809
-595,127,-35.7526,2.5412,-0.00233664,0.00246328,0.00373726,0.00450482,-0.00437817,1.07082,0.00512877,0.0281373,629,897,-35.7526,-2.54118
-588,127,-35.72,2.32153,0,0,0,0,0,0,0,-1,636,897,-35.72,-2.32151
-581,127,-35.257,1.25146,0,0,0,0,0,0,0,-1,643,897,-35.257,-1.25143
-574,127,-25.2603,0.511169,0,0,0,0,0,0,0,-1,650,897,-25.2603,-0.51117
-567,127,-24.5417,-0.0447388,0,0,0,0,0,0,0,-1,657,897,-24.5417,0.0447226
-560,127,-18.9678,1.21667,0,0,0,0,0,0,0,-1,664,897,-18.9677,-1.2167
-553,127,-41.1979,1.05316,0,0,0,0,0,0,0,-1,671,897,-41.1979,-1.05316
-546,127,-41.219,1.04877,-0.00153653,0.000712338,0.00306439,0.00285208,-0.00367627,0.961239,0.00377914,0.0224712,678,897,-41.219,-1.04875
-539,127,-41.2065,1.02692,-0.00145023,0.00087063,0.00285541,0.0027924,-0.003372,0.978403,0.00356426,0.021193,685,897,-41.2065,-1.02692
-532,127,-41.1609,1.02441,-0.00092421,0.0010882,0.00244391,0.00272494,-0.00256094,0.980683,0.00305229,0.0178775,692,897,-41.1609,-1.02444
-525,127,-41.2298,1.2149,-0.000385613,0.00116036,0.00205937,0.00258704,-0.00181229,0.964937,0.00255305,0.0314776,699,897,-41.2298,-1.21488
-518,127,-41.1612,1.24005,0.000115411,0.00159076,0.00165139,0.00266175,-0.000955576,0.995451,0.00216451,0.0392619,706,897,-41.1612,-1.24004
-511,127,-41.1076,0.981567,0.00156786,0.00236006,0.00101401,0.00305259,0.000875325,0.971599,0.00181506,0.0442367,713,897,-41.1076,-0.981582
-504,127,0,0,0,0,0,0,0,0,0,-1,720,897,0,0
-497,127,0,0,0,0,0,0,0,0,0,-1,727,897,0,0
-490,127,0,0,0,0,0,0,0,0,0,-1,734,897,0,0
-483,127,0,0,0,0,0,0,0,0,0,-1,741,897,0,0
-476,127,0,0,0,0,0,0,0,0,0,-1,748,897,0,0
-469,127,0,0,0,0,0,0,0,0,0,-1,755,897,0,0
-462,127,0,0,0,0,0,0,0,0,0,-1,762,897,0,0
-455,127,0,0,0,0,0,0,0,0,0,-1,769,897,0,0
-448,127,0,0,0,0,0,0,0,0,0,-1,776,897,0,0
-441,127,0,0,0,0,0,0,0,0,0,-1,783,897,0,0
-434,127,0,0,0,0,0,0,0,0,0,-1,790,897,0,0
-427,127,0,0,0,0,0,0,0,0,0,-1,797,897,0,0
-420,127,0,0,0,0,0,0,0,0,0,-1,804,897,0,0
-413,127,0,0,0,0,0,0,0,0,0,-1,811,897,0,0
-406,127,0,0,0,0,0,0,0,0,0,-1,818,897,0,0
-399,127,0,0,0,0,0,0,0,0,0,-1,825,897,0,0
-392,127,0,0,0,0,0,0,0,0,0,-1,832,897,0,0
-385,127,0,0,0,0,0,0,0,0,0,-1,839,897,0,0
-378,127,0,0,0,0,0,0,0,0,0,-1,846,897,0,0
-371,127,0,0,0,0,0,0,0,0,0,-1,853,897,0,0
-364,127,0,0,0,0,0,0,0,0,0,-1,860,897,0,0
-357,127,0,0,0,0,0,0,0,0,0,-1,867,897,0,0
-350,127,0,0,0,0,0,0,0,0,0,-1,874,897,0,0
-343,127,0,0,0,0,0,0,0,0,0,-1,881,897,0,0
-336,127,0,0,0,0,0,0,0,0,0,-1,888,897,0,0
-329,127,0,0,0,0,0,0,0,0,0,-1,895,897,0,0
-322,127,0,0,0,0,0,0,0,0,0,-1,902,897,0,0
-315,127,0,0,0,0,0,0,0,0,0,-1,909,897,0,0
-308,127,0,0,0,0,0,0,0,0,0,-1,916,897,0,0
-301,127,0,0,0,0,0,0,0,0,0,-1,923,897,0,0
-294,127,0,0,0,0,0,0,0,0,0,-1,930,897,0,0
-287,127,0,0,0,0,0,0,0,0,0,-1,937,897,0,0
-280,127,0,0,0,0,0,0,0,0,0,-1,944,897,0,0
-273,127,0,0,0,0,0,0,0,0,0,-1,951,897,0,0
-266,127,0,0,0,0,0,0,0,0,0,-1,958,897,0,0
-259,127,0,0,0,0,0,0,0,0,0,-1,965,897,0,0
-252,127,0,0,0,0,0,0,0,0,0,-1,972,897,0,0
-245,127,0,0,0,0,0,0,0,0,0,-1,979,897,0,0
-238,127,0,0,0,0,0,0,0,0,0,-1,986,897,0,0
-231,127,0,0,0,0,0,0,0,0,0,-1,993,897,0,0
-224,127,0,0,0,0,0,0,0,0,0,-1,1000,897,0,0
-217,127,0,0,0,0,0,0,0,0,0,-1,1007,897,0,0
-210,127,0,0,0,0,0,0,0,0,0,-1,1014,897,0,0
-203,127,0,0,0,0,0,0,0,0,0,-1,1021,897,0,0
-196,127,0,0,0,0,0,0,0,0,0,-1,1028,897,0,0
-189,127,0,0,0,0,0,0,0,0,0,-1,1035,897,0,0
-182,127,0,0,0,0,0,0,0,0,0,-1,1042,897,0,0
-175,127,0,0,0,0,0,0,0,0,0,-1,1049,897,0,0
-168,127,0,0,0,0,0,0,0,0,0,-1,1056,897,0,0
-161,127,0,0,0,0,0,0,0,0,0,-1,1063,897,0,0
-154,127,0,0,0,0,0,0,0,0,0,-1,1070,897,0,0
-147,127,0,0,0,0,0,0,0,0,0,-1,1077,897,0,0
-140,127,0,0,0,0,0,0,0,0,0,-1,1084,897,0,0
-133,127,0,0,0,0,0,0,0,0,0,-1,1091,897,0,0
-126,127,0,0,0,0,0,0,0,0,0,-1,1098,897,0,0
-119,127,0,0,0,0,0,0,0,0,0,-1,1105,897,0,0
-112,127,0,0,0,0,0,0,0,0,0,-1,1112,897,0,0
-105,127,0,0,0,0,0,0,0,0,0,-1,1119,897,0,0
-98,127,0,0,0,0,0,0,0,0,0,-1,1126,897,0,0
-91,127,0,0,0,0,0,0,0,0,0,-1,1133,897,0,0
-84,127,0,0,0,0,0,0,0,0,0,-1,1140,897,0,0
-77,127,0,0,0,0,0,0,0,0,0,-1,1147,897,0,0
-70,127,0,0,0,0,0,0,0,0,0,-1,1154,897,0,0
-63,127,0,0,0,0,0,0,0,0,0,-1,1161,897,0,0
-56,127,0,0,0,0,0,0,0,0,0,-1,1168,897,0,0
-49,127,0,0,0,0,0,0,0,0,0,-1,1175,897,0,0
-42,127,0,0,0,0,0,0,0,0,0,-1,1182,897,0,0
-35,127,0,0,0,0,0,0,0,0,0,-1,1189,897,0,0
-28,127,0,0,0,0,0,0,0,0,0,-1,1196,897,0,0
-21,127,0,0,0,0,0,0,0,0,0,-1,1203,897,0,0
-14,127,0,0,0,0,0,0,0,0,0,-1,1210,897,0,0
-7,127,0,0,0,0,0,0,0,0,0,-1,1217,897,0,0
0,127,0,0,0,0,0,0,0,0,0,-1,1224,897,0,0
7,127,0,0,0,0,0,0,0,0,0,-1,1231,897,0,0
14,127,0,0,0,0,0,0,0,0,0,-1,1238,897,0,0
21,127,0,0,0,0,0,0,0,0,0,-1,1245,897,0,0
28,127,0,0,0,0,0,0,0,0,0,-1,1252,897,0,0
35,127,0,0,0,0,0,0,0,0,0,-1,1259,897,0,0
42,127,0,0,0,0,0,0,0,0,0,-1,1266,897,0,0
49,127,0,0,0,0,0,0,0,0,0,-1,1273,897,0,0
56,127,0,0,0,0,0,0,0,0,0,-1,1280,897,0,0
63,127,0,0,0,0,0,0,0,0,0,-1,1287,897,0,0
70,127,0,0,0,0,0,0,0,0,0,-1,1294,897,0,0
77,127,0,0,0,0,0,0,0,0,0,-1,1301,897,0,0
84,127,0,0,0,0,0,0,0,0,0,-1,1308,897,0,0
91,127,0,0,0,0,0,0,0,0,0,-1,1315,897,0,0
98,127,0,0,0,0,0,0,0,0,0,-1,1322,897,0,0
105,127,0,0,0,0,0,0,0,0,0,-1,1329,897,0,0
112,127,0,0,0,0,0,0,0,0,0,-1,1336,897,0,0
119,127,0,0,0,0,0,0,0,0,0,-1,1343,897,0,0
126,127,0,0,0,0,0,0,0,0,0,-1,1350,897,0,0
133,127,0,0,0,0,0,0,0,0,0,-1,1357,897,0,0
140,127,0,0,0,0,0,0,0,0,0,-1,1364,897,0,0
147,127,0,0,0,0,0,0,0,0,0,-1,1371,897,0,0
154,127,0,0,0,0,0,0,0,0,0,-1,1378,897,0,0
161,127,0,0,0,0,0,0,0,0,0,-1,1385,897,0,0
168,127,0,0,0,0,0,0,0,0,0,-1,1392,897,0,0
175,127,0,0,0,0,0,0,0,0,0,-1,1399,897,0,0
182,127,0,0,0,0,0,0,0,0,0,-1,1406,897,0,0
189,127,0,0,0,0,0,0,0,0,0,-1,1413,897,0,0
196,127,0,0,0,0,0,0,0,0,0,-1,1420,897,0,0
203,127,0,0,0,0,0,0,0,0,0,-1,1427,897,0,0
210,127,0,0,0,0,0,0,0,0,0,-1,1434,897,0,0
217,127,0,0,0,0,0,0,0,0,0,-1,1441,897,0,0
224,127,0,0,0,0,0,0,0,0,0,-1,1448,897,0,0
231,127,0,0,0,0,0,0,0,0,0,-1,1455,897,0,0
238,127,0,0,0,0,0,0,0,0,0,-1,1462,897,0,0
245,127,0,0,0,0,0,0,0,0,0,-1,1469,897,0,0
252,127,0,0,0,0,0,0,0,0,0,-1,1476,897,0,0
259,127,0,0,0,0,0,0,0,0,0,-1,1483,897,0,0
266,127,0,0,0,0,0,0,0,0,0,-1,1490,897,0,0
273,127,0,0,0,0,0,0,0,0,0,-1,1497,897,0,0
280,127,0,0,0,0,0,0,0,0,0,-1,1504,897,0,0
287,127,0,0,0,0,0,0,0,0,0,-1,1511,897,0,0
294,127,0,0,0,0,0,0,0,0,0,-1,1518,897,0,0
301,127,0,0,0,0,0,0,0,0,0,-1,1525,897,0,0
308,127,0,0,0,0,0,0,0,0,0,-1,1532,897,0,0
315,127,0,0,0,0,0,0,0,0,0,-1,1539,897,0,0
322,127,0,0,0,0,0,0,0,0,0,-1,1546,897,0,0
329,127,0,0,0,0,0,0,0,0,0,-1,1553,897,0,0
336,127,0,0,0,0,0,0,0,0,0,-1,1560,897,0,0
343,127,0,0,0,0,0,0,0,0,0,-1,1567,897,0,0
350,127,0,0,0,0,0,0,0,0,0,-1,1574,897,0,0
357,127,0,0,0,0,0,0,0,0,0,-1,1581,897,0,0
364,127,0,0,0,0,0,0,0,0,0,-1,1588,897,0,0
371,127,0,0,0,0,0,0,0,0,0,-1,1595,897,0,0
378,127,0,0,0,0,0,0,0,0,0,-1,1602,897,0,0
385,127,0,0,0,0,0,0,0,0,0,-1,1609,897,0,0
392,127,0,0,0,0,0,0,0,0,0,-1,1616,897,0,0
399,127,0,0,0,0,0,0,0,0,0,-1,1623,897,0,0
406,127,0,0,0,0,0,0,0,0,0,-1,1630,897,0,0
413,127,0,0,0,0,0,0,0,0,0,-1,1637,897,0,0
420,127,0,0,0,0,0,0,0,0,0,-1,1644,897,0,0
427,127,0,0,0,0,0,0,0,0,0,-1,1651,897,0,0
434,127,0,0,0,0,0,0,0,0,0,-1,1658,897,0,0
441,127,0,0,0,0,0,0,0,0,0,-1,1665,897,0,0
448,127,0,0,0,0,0,0,0,0,0,-1,1672,897,0,0
455,127,0,0,0,0,0,0,0,0,0,-1,1679,897,0,0
462,127,0,0,0,0,0,0,0,0,0,-1,1686,897,0,0
469,127,0,0,0,0,0,0,0,0,0,-1,1693,897,0,0
476,127,0,0,0,0,0,0,0,0,0,-1,1700,897,0,0
483,127,0,0,0,0,0,0,0,0,0,-1,1707,897,0,0
490,127,0,0,0,0,0,0,0,0,0,-1,1714,897,0,0
497,127,0,0,0,0,0,0,0,0,0,-1,1721,897,0,0
504,127,0,0,0,0,0,0,0,0,0,-1,1728,897,0,0
511,127,0,0,0,0,0,0,0,0,0,-1,1735,897,0,0
518,127,0,0,0,0,0,0,0,0,0,-1,1742,897,0,0
525,127,0,0,0,0,0,0,0,0,0,-1,1749,897,0,0
532,127,0,0,0,0,0,0,0,0,0,-1,1756,897,0,0
539,127,0,0,0,0,0,0,0,0,0,-1,1763,897,0,0
546,127,0,0,0,0,0,0,0,0,0,-1,1770,897,0,0
553,127,0,0,0,0,0,0,0,0,0,-1,1777,897,0,0
560,127,0,0,0,0,0,0,0,0,0,-1,1784,897,0,0
567,127,0,0,0,0,0,0,0,0,0,-1,1791,897,0,0
574,127,0,0,0,0,0,0,0,0,0,-1,1798,897,0,0
581,127,0,0,0,0,0,0,0,0,0,-1,1805,897,0,0
588,127,0,0,0,0,0,0,0,0,0,-1,1812,897,0,0
595,127,0,0,0,0,0,0,0,0,0,-1,1819,897,0,0
602,127,0,0,0,0,0,0,0,0,0,-1,1826,897,0,0
609,127,0,0,0,0,0,0,0,0,0,-1,1833,897,0,0
616,127,0,0,0,0,0,0,0,0,0,-1,1840,897,0,0
623,127,0,0,0,0,0,0,0,0,0,-1,1847,897,0,0
630,127,54.7255,3.3869,0.00184269,-0.000156621,-0.00546049,0.00639427,-0.0047082,-0.694865,0.00643461,0.0410428,1854,897,54.7255,-3.38688
637,127,54.6938,3.3125,0.00165184,0.000150976,-0.00452669,0.00548988,-0.00368707,-0.703256,0.00533228,0.0422018,1861,897,54.6939,-3.31252
644,127,54.8451,3.14209,0.00128561,0.000270687,-0.00369176,0.00450462,-0.00294832,-0.717097,0.00433412,0.0417673,1868,897,54.8451,-3.14211
651,127,54.7837,3.10242,0.000827287,0.000236946,-0.00295963,0.00350643,-0.00244219,-0.735696,0.00345271,0.0416553,1875,897,54.7836,-3.10242
658,127,54.7845,3.00873,0.000392378,0.000489492,-0.00224323,0.00268469,-0.00180282,-0.79622,0.00260749,0.0407082,1882,897,54.7845,-3.00874
665,127,54.8209,2.84888,0.000178191,0.000690539,-0.00181471,0.00226707,-0.00139834,-0.855517,0.00213595,0.0377668,1889,897,54.8209,-2.84886
672,127,54.8301,2.74402,4.37864e-05,0.000744032,-0.00145981,0.00189512,-0.0011073,-0.903095,0.00175323,0.0315962,1896,897,54.8301,-2.744
679,127,54.9067,2.83008,1.8051e-05,0.000825225,-0.0012403,0.00172595,-0.000882669,-0.942693,0.00153209,0.0221189,1903,897,54.9068,-2.83008
686,127,54.8596,2.84064,1.48448e-05,0.000986587,-0.00117815,0.00177512,-0.000773692,-0.980973,0.00150895,0.0457683,1910,897,54.8596,-2.84063
693,127,54.7683,2.69983,0,0,0,0,0,0,0,-1,1917,897,54.7683,-2.69983
700,127,48.1407,2.56781,0,0,0,0,0,0,0,-1,1924,897,48.1407,-2.56779
707,127,47.9938,3.14038,-0.00085545,0.00121562,-0.000734217,0.0014495,-0.00108933,-1.26242,0.0014707,0.0299207,1931,897,47.9938,-3.14037
714,127,48.2607,3.81256,-0.0010425,0.00139705,-0.000773503,0.00162163,-0.00126708,-1.28822,0.00167198,0.0239682,1938,897,48.2607,-3.81256
721,127,48.3951,4.54364,-0.00102683,0.00176097,-0.00102385,0.00209659,-0.00136245,-1.25403,0.00201201,0.0228116,1945,897,48.3951,-4.54364
728,127,48.3008,5.04962,-0.00148464,0.00231778,-0.00129086,0.0027146,-0.00188146,-1.27256,0.00266803,0.0199099,1952,897,48.3008,-5.04962
735,127,48.2852,5.67609,-0.00222229,0.003063,-0.00163232,0.00352649,-0.00268578,-1.29414,0.00359758,0.0199289,1959,897,48.2851,-5.67611
742,127,48.2452,6.23645,-0.00313524,0.00424807,-0.00205124,0.00477968,-0.00366684,-1.31721,0.00489068,0.0184699,1966,897,48.2452,-6.23645
749,127,48.2079,6.74731,-0.00412149,0.00582317,-0.00252488,0.0064275,-0.00472582,-1.33587,0.0064643,0.0140784,1973,897,48.2079,-6.74729
756,127,48.1295,7.23511,-0.00499021,0.00776279,-0.00302588,0.00844431,-0.00567173,-1.34926,0.00820213,0.0167775,1980,897,48.1296,-7.23513
763,127,48.0942,7.6842,-0.00553795,0.0104556,-0.0034254,0.0111583,-0.0062407,-1.36844,0.0101782,0.0261728,1987,897,48.0942,-7.68419
770,127,48.1377,8.14172,0,0,0,0,0,0,0,-1,1994,897,48.1377,-8.14174
777,127,42.703,5.33789,0,0,0,0,0,0,0,-1,2001,897,42.7031,-5.33791
784,127,42.6145,8.47131,0,0,0,0,0,0,0,-1,2008,897,42.6146,-8.47131
791,127,42.5813,5.51636,0,0,0,0,0,0,0,-1,2015,897,42.5813,-5.51633
798,127,0,0,0,0,0,0,0,0,0,-1,2022,897,0,0
805,127,0,0,0,0,0,0,0,0,0,-1,2029,897,0,0
812,127,0,0,0,0,0,0,0,0,0,-1,2036,897,0,0
-700,120,0,0,0,0,0,0,0,0,0,-1,524,904,0,0
-693,120,0,0,0,0,0,0,0,0,0,-1,531,904,0,0
-686,120,0,0,0,0,0,0,0,0,0,-1,538,904,0,0
-679,120,-36.5525,7.67188,0,0,0,0,0,0,0,-1,545,904,-36.5525,-7.67189
-672,120,-36.6606,6.23993,0,0,0,0,0,0,0,-1,552,904,-36.6606,-6.23994
-665,120,-36.7357,4.7077,0,0,0,0,0,0,0,-1,559,904,-36.7356,-4.70773
-658,120,-36.8363,3.36487,0,0,0,0,0,0,0,-1,566,904,-36.8363,-3.36485
-651,120,-38.6806,2.67523,0,0,0,0,0,0,0,-1,573,904,-38.6806,-2.67521
-644,120,-39.3876,1.10193,0,0,0,0,0,0,0,-1,580,904,-39.3876,-1.10194
-637,120,-36.679,5.28546,0,0,0,0,0,0,0,-1,587,904,-36.679,-5.28543
-630,120,-36.4487,4.55585,0,0,0,0,0,0,0,-1,594,904,-36.4487,-4.55586
-623,120,-36.2853,4.46991,-0.00667425,0.0125401,0.00516962,0.0138427,-0.00797683,1.32397,0.0127483,0.0125743,601,904,-36.2854,-4.4699
-616,120,-36.3053,3.98462,-0.00511456,0.00922547,0.00318746,0.00990205,-0.00579114,1.36164,0.0091635,0.0108657,608,904,-36.3053,-3.98459
-609,120,-36.3245,3.50824,-0.00395331,0.0055919,0.00306133,0.00648935,-0.00485076,1.28563,0.00656996,0.0141433,615,904,-36.3245,-3.50826
-602,120,-36.3469,3.02191,-0.00351922,0.00339817,0.0033824,0.00477716,-0.00489821,1.18367,0.00558623,0.0165476,622,904,-36.3469,-3.02193
-595,120,-36.2711,2.56781,-0.0032491,0.00230159,0.00346024,0.00396199,-0.0049095,1.1234,0.00513168,0.0306646,629,904,-36.271,-2.5678
-588,120,-36.2029,1.94812,-0.00293453,0.00154991,0.00346059,0.00343119,-0.00481581,1.07286,0.00478372,0.0417723,636,904,-36.203,-1.94811
-581,120,-35.8727,1.17694,0,0,0,0,0,0,0,-1,643,904,-35.8727,-1.17696
-574,120,-27.5438,0.505066,0,0,0,0,0,0,0,-1,650,904,-27.5438,-0.505085
-567,120,-25.2822,-0.410645,0,0,0,0,0,0,0,-1,657,904,-25.2821,0.410629
-560,120,-27.3358,1.10327,0,0,0,0,0,0,0,-1,664,904,-27.3358,-1.10324
-553,120,-41.1363,1.10345,0,0,0,0,0,0,0,-1,671,904,-41.1363,-1.10345
-546,120,-41.186,1.04724,-0.00231557,0.00106198,0.0025553,0.00243613,-0.00368972,1.07739,0.00356136,0.0295255,678,904,-41.186,-1.04723
-539,120,-41.1345,1.05157,-0.00207038,0.00136033,0.00230471,0.00251798,-0.00322802,1.10531,0.00332589,0.0250275,685,904,-41.1345,-1.05158
-532,120,-41.1563,1.05725,-0.00123497,0.0017665,0.00190112,0.00268784,-0.00215631,1.11952,0.00280238,0.0276196,692,904,-41.1563,-1.05725
-525,120,-41.3163,1.1673,-0.000249596,0.00204498,0.00149032,0.00277847,-0.000983081,1.11343,0.00225268,0.035241,699,904,-41.3163,-1.16733
-518,120,-41.5519,1.19275,0.000604736,0.00270632,0.000990034,0.00309925,0.000211806,1.19298,0.0019993,0.038902,706,904,-41.5519,-1.19273
-511,120,-41.3889,0.984436,0.00215906,0.00364194,0.000161688,0.00365937,0.00214163,1.46344,0.00212295,0.0392316,713,904,-41.3889,-0.984438
-504,120,0,0,0,0,0,0,0,0,0,-1,720,904,0,0
-497,120,0,0,0,0,0,0,0,0,0,-1,727,904,0,0
-490,120,0,0,0,0,0,0,0,0,0,-1,734,904,0,0
-483,120,0,0,0,0,0,0,0,0,0,-1,741,904,0,0
-476,120,0,0,0,0,0,0,0,0,0,-1,748,904,0,0
-469,120,0,0,0,0,0,0,0,0,0,-1,755,904,0,0
-462,120,0,0,0,0,0,0,0,0,0,-1,762,904,0,0
-455,120,0,0,0,0,0,0,0,0,0,-1,769,904,0,0
-448,120,0,0,0,0,0,0,0,0,0,-1,776,904,0,0
-441,120,0,0,0,0,0,0,0,0,0,-1,783,904,0,0
-434,120,0,0,0,0,0,0,0,0,0,-1,790,904,0,0
-427,120,0,0,0,0,0,0,0,0,0,-1,797,904,0,0
-420,120,0,0,0,0,0,0,0,0,0,-1,804,904,0,0
-413,120,0,0,0,0,0,0,0,0,0,-1,811,904,0,0
-406,120,0,0,0,0,0,0,0,0,0,-1,818,904,0,0
-399,120,0,0,0,0,0,0,0,0,0,-1,825,904,0,0
-392,120,0,0,0,0,0,0,0,0,0,-1,832,904,0,0
-385,120,0,0,0,0,0,0,0,0,0,-1,839,904,0,0
-378,120,0,0,0,0,0,0,0,0,0,-1,846,904,0,0
-371,120,0,0,0,0,0,0,0,0,0,-1,853,904,0,0
-364,120,0,0,0,0,0,0,0,0,0,-1,860,904,0,0
-357,120,0,0,0,0,0,0,0,0,0,-1,867,904,0,0
-350,120,0,0,0,0,0,0,0,0,0,-1,874,904,0,0
-343,120,0,0,0,0,0,0,0,0,0,-1,881,904,0,0
-336,120,0,0,0,0,0,0,0,0,0,-1,888,904,0,0
-329,120,0,0,0,0,0,0,0,0,0,-1,895,904,0,0
-322,120,0,0,0,0,0,0,0,0,0,-1,902,904,0,0
-315,120,0,0,0,0,0,0,0,0,0,-1,909,904,0,0
-308,120,0,0,0,0,0,0,0,0,0,-1,916,904,0,0
-301,120,0,0,0,0,0,0,0,0,0,-1,923,904,0,0
-294,120,0,0,0,0,0,0,0,0,0,-1,930,904,0,0
-287,120,0,0,0,0,0,0,0,0,0,-1,937,904,0,0
-280,120,0,0,0,0,0,0,0,0,0,-1,944,904,0,0
-273,120,0,0,0,0,0,0,0,0,0,-1,951,904,0,0
-266,120,0,0,0,0,0,0,0,0,0,-1,958,904,0,0
-259,120,0,0,0,0,0,0,0,0,0,-1,965,904,0,0
-252,120,0,0,0,0,0,0,0,0,0,-1,972,904,0,0
-245,120,0,0,0,0,0,0,0,0,0,-1,979,904,0,0
-238,120,0,0,0,0,0,0,0,0,0,-1,986,904,0,0
-231,120,0,0,0,0,0,0,0,0,0,-1,993,904,0,0
-224,120,0,0,0,0,0,0,0,0,0,-1,1000,904,0,0
-217,120,0,0,0,0,0,0,0,0,0,-1,1007,904,0,0
-210,120,0,0,0,0,0,0,0,0,0,-1,1014,904,0,0
-203,120,0,0,0,0,0,0,0,0,0,-1,1021,904,0,0
-196,120,0,0,0,0,0,0,0,0,0,-1,1028,904,0,0
-189,120,0,0,0,0,0,0,0,0,0,-1,1035,904,0,0
-182,120,0,0,0,0,0,0,0,0,0,-1,1042,904,0,0
-175,120,0,0,0,0,0,0,0,0,0,-1,1049,904,0,0
-168,120,0,0,0,0,0,0,0,0,0,-1,1056,904,0,0
-161,120,0,0,0,0,0,0,0,0,0,-1,1063,904,0,0
-154,120,0,0,0,0,0,0,0,0,0,-1,1070,904,0,0
-147,120,0,0,0,0,0,0,0,0,0,-1,1077,904,0,0
-140,120,0,0,0,0,0,0,0,0,0,-1,1084,904,0,0
-133,120,0,0,0,0,0,0,0,0,0,-1,1091,904,0,0
-126,120,0,0,0,0,0,0,0,0,0,-1,1098,904,0,0
-119,120,0,0,0,0,0,0,0,0,0,-1,1105,904,0,0
-112,120,0,0,0,0,0,0,0,0,0,-1,1112,904,0,0
-105,120,0,0,0,0,0,0,0,0,0,-1,1119,904,0,0
-98,120,0,0,0,0,0,0,0,0,0,-1,1126,904,0,0
-91,120,0,0,0,0,0,0,0,0,0,-1,1133,904,0,0
-84,120,0,0,0,0,0,0,0,0,0,-1,1140,904,0,0
-77,120,0,0,0,0,0,0,0,0,0,-1,1147,904,0,0
-70,120,0,0,0,0,0,0,0,0,0,-1,1154,904,0,0
-63,120,0,0,0,0,0,0,0,0,0,-1,1161,904,0,0
-56,120,0,0,0,0,0,0,0,0,0,-1,1168,904,0,0
-49,120,0,0,0,0,0,0,0,0,0,-1,1175,904,0,0
-42,120,0,0,0,0,0,0,0,0,0,-1,1182,904,0,0
-35,120,0,0,0,0,0,0,0,0,0,-1,1189,904,0,0
-28,120,0,0,0,0,0,0,0,0,0,-1,1196,904,0,0
-21,120,0,0,0,0,0,0,0,0,0,-1,1203,904,0,0
-14,120,0,0,0,0,0,0,0,0,0,-1,1210,904,0,0
-7,120,0,0,0,0,0,0,0,0,0,-1,1217,904,0,0
0,120,0,0,0,0,0,0,0,0,0,-1,1224,904,0,0
7,120,0,0,0,0,0,0,0,0,0,-1,1231,904,0,0
14,120,0,0,0,0,0,0,0,0,0,-1,1238,904,0,0
21,120,0,0,0,0,0,0,0,0,0,-1,1245,904,0,0
28,120,0,0,0,0,0,0,0,0,0,-1,1252,904,0,0
35,120,0,0,0,0,0,0,0,0,0,-1,1259,904,0,0
42,120,0,0,0,0,0,0,0,0,0,-1,1266,904,0,0
49,120,0,0,0,0,0,0,0,0,0,-1,1273,904,0,0
56,120,0,0,0,0,0,0,0,0,0,-1,1280,904,0,0
63,120,0,0,0,0,0,0,0,0,0,-1,1287,904,0,0
70,120,0,0,0,0,0,0,0,0,0,-1,1294,904,0,0
77,120,0,0,0,0,0,0,0,0,0,-1,1301,904,0,0
84,120,0,0,0,0,0,0,0,0,0,-1,1308,904,0,0
91,120,0,0,0,0,0,0,0,0,0,-1,1315,904,0,0
98,120,0,0,0,0,0,0,0,0,0,-1,1322,904,0,0
105,120,0,0,0,0,0,0,0,0,0,-1,1329,904,0,0
112,120,0,0,0,0,0,0,0,0,0,-1,1336,904,0,0
119,120,0,0,0,0,0,0,0,0,0,-1,1343,904,0,0
126,120,0,0,0,0,0,0,0,0,0,-1,1350,904,0,0
133,120,0,0,0,0,0,0,0,0,0,-1,1357,904,0,0
140,120,0,0,0,0,0,0,0,0,0,-1,1364,904,0,0
147,120,0,0,0,0,0,0,0,0,0,-1,1371,904,0,0
154,120,0,0,0,0,0,0,0,0,0,-1,1378,904,0,0
161,120,0,0,0,0,0,0,0,0,0,-1,1385,904,0,0
168,120,0,0,0,0,0,0,0,0,0,-1,1392,904,0,0
175,120,0,0,0,0,0,0,0,0,0,-1,1399,904,0,0
182,120,0,0,0,0,0,0,0,0,0,-1,1406,904,0,0
189,120,0,0,0,0,0,0,0,0,0,-1,1413,904,0,0
196,120,0,0,0,0,0,0,0,0,0,-1,1420,904,0,0
203,120,0,0,0,0,0,0,0,0,0,-1,1427,904,0,0
210,120,0,0,0,0,0,0,0,0,0,-1,1434,904,0,0
217,120,0,0,0,0,0,0,0,0,0,-1,1441,904,0,0
224,120,0,0,0,0,0,0,0,0,0,-1,1448,904,0,0
231,120,0,0,0,0,0,0,0,0,0,-1,1455,904,0,0
238,120,0,0,0,0,0,0,0,0,0,-1,1462,904,0,0
245,120,0,0,0,0,0,0,0,0,0,-1,1469,904,0,0
252,120,0,0,0,0,0,0,0,0,0,-1,1476,904,0,0
259,120,0,0,0,0,0,0,0,0,0,-1,1483,904,0,0
266,120,0,0,0,0,0,0,0,0,0,-1,1490,904,0,0
273,120,0,0,0,0,0,0,0,0,0,-1,1497,904,0,0
280,120,0,0,0,0,0,0,0,0,0,-1,1504,904,0,0
287,120,0,0,0,0,0,0,0,0,0,-1,1511,904,0,0
294,120,0,0,0,0,0,0,0,0,0,-1,1518,904,0,0
301,120,0,0,0,0,0,0,0,0,0,-1,1525,904,0,0
308,120,0,0,0,0,0,0,0,0,0,-1,1532,904,0,0
315,120,0,0,0,0,0,0,0,0,0,-1,1539,904,0,0
322,120,0,0,0,0,0,0,0,0,0,-1,1546,904,0,0
329,120,0,0,0,0,0,0,0,0,0,-1,1553,904,0,0
336,120,0,0,0,0,0,0,0,0,0,-1,1560,904,0,0
343,120,0,0,0,0,0,0,0,0,0,-1,1567,904,0,0
350,120,0,0,0,0,0,0,0,0,0,-1,1574,904,0,0
357,120,0,0,0,0,0,0,0,0,0,-1,1581,904,0,0
364,120,0,0,0,0,0,0,0,0,0,-1,1588,904,0,0
371,120,0,0,0,0,0,0,0,0,0,-1,1595,904,0,0
378,120,0,0,0,0,0,0,0,0,0,-1,1602,904,0,0
385,120,0,0,0,0,0,0,0,0,0,-1,1609,904,0,0
392,120,0,0,0,0,0,0,0,0,0,-1,1616,904,0,0
399,120,0,0,0,0,0,0,0,0,0,-1,1623,904,0,0
406,120,0,0,0,0,0,0,0,0,0,-1,1630,904,0,0
413,120,0,0,0,0,0,0,0,0,0,-1,1637,904,0,0
420,120,0,0,0,0,0,0,0,0,0,-1,1644,904,0,0
427,120,0,0,0,0,0,0,0,0,0,-1,1651,904,0,0
434,120,0,0,0,0,0,0,0,0,0,-1,1658,904,0,0
441,120,0,0,0,0,0,0,0,0,0,-1,1665,904,0,0
448,120,0,0,0,0,0,0,0,0,0,-1,1672,904,0,0
455,120,0,0,0,0,0,0,0,0,0,-1,1679,904,0,0
462,120,0,0,0,0,0,0,0,0,0,-1,1686,904,0,0
469,120,0,0,0,0,0,0,0,0,0,-1,1693,904,0,0
476,120,0,0,0,0,0,0,0,0,0,-1,1700,904,0,0
483,120,0,0,0,0,0,0,0,0,0,-1,1707,904,0,0
490,120,0,0,0,0,0,0,0,0,0,-1,1714,904,0,0
497,120,0,0,0,0,0,0,0,0,0,-1,1721,904,0,0
504,120,0,0,0,0,0,0,0,0,0,-1,1728,904,0,0
511,120,0,0,0,0,0,0,0,0,0,-1,1735,904,0,0
518,120,0,0,0,0,0,0,0,0,0,-1,1742,904,0,0
525,120,0,0,0,0,0,0,0,0,0,-1,1749,904,0,0
532,120,0,0,0,0,0,0,0,0,0,-1,1756,904,0,0
539,120,0,0,0,0,0,0,0,0,0,-1,1763,904,0,0
546,120,0,0,0,0,0,0,0,0,0,-1,1770,904,0,0
553,120,0,0,0,0,0,0,0,0,0,-1,1777,904,0,0
560,120,0,0,0,0,0,0,0,0,0,-1,1784,904,0,0
567,120,0,0,0,0,0,0,0,0,0,-1,1791,904,0,0
574,120,0,0,0,0,0,0,0,0,0,-1,1798,904,0,0
581,120,0,0,0,0,0,0,0,0,0,-1,1805,904,0,0
588,120,0,0,0,0,0,0,0,0,0,-1,1812,904,0,0
595,120,0,0,0,0,0,0,0,0,0,-1,1819,904,0,0
602,120,0,0,0,0,0,0,0,0,0,-1,1826,904,0,0
609,120,0,0,0,0,0,0,0,0,0,-1,1833,904,0,0
616,120,0,0,0,0,0,0,0,0,0,-1,1840,904,0,0
623,120,0,0,0,0,0,0,0,0,0,-1,1847,904,0,0
630,120,54.661,3.48157,0.00149059,0.000792754,-0.00572262,0.00687492,-0.00459158,-0.75495,0.0066638,0.0408051,1854,904,54.6611,-3.48156
637,120,54.7583,3.52441,0.00151969,0.00119904,-0.00483187,0.00619389,-0.00347516,-0.768814,0.00565551,0.0431286,1861,904,54.7583,-3.52441
644,120,54.8184,3.23834,0.00129636,0.00134572,-0.00397791,0.00529903,-0.00265694,-0.7885,0.00467705,0.0423038,1868,904,54.8184,-3.23834
651,120,54.8502,2.93933,0.000937344,0.00126186,-0.00315019,0.00425397,-0.00205477,-0.811129,0.00371539,0.0412981,1875,904,54.8502,-2.93931
658,120,54.8904,2.93738,0.000556996,0.00136162,-0.00229868,0.00329293,-0.00137432,-0.87203,0.00276949,0.0400563,1882,904,54.8904,-2.93739
665,120,54.8557,2.87585,0.000396023,0.00148032,-0.00169655,0.00271924,-0.0008429,-0.940049,0.0021496,0.0359262,1889,904,54.8557,-2.87583
672,120,54.8617,2.77478,0.000259449,0.00140887,-0.0012306,0.00219235,-0.000524026,-1.00386,0.00166398,0.0348737,1896,904,54.8617,-2.77479
679,120,54.906,2.78046,0.000210782,0.00135644,-0.000931362,0.00187703,-0.000309811,-1.0611,0.00136638,0.0287696,1903,904,54.906,-2.78047
686,120,54.8679,2.87451,0.000189486,0.00139389,-0.00082257,0.00181113,-0.000227757,-1.10137,0.00129006,0.0250662,1910,904,54.8679,-2.87449
693,120,54.7902,2.87091,0,0,0,0,0,0,0,-1,1917,904,54.7901,-2.8709
700,120,42.2007,3.00946,0,0,0,0,0,0,0,-1,1924,904,42.2007,-3.00944
707,120,48.7693,3.50824,0,0,0,0,0,0,0,-1,1931,904,48.7693,-3.50824
714,120,48.9991,4.1333,-0.00121187,0.00154485,-0.000575507,0.00166017,-0.00132719,-1.37303,0.00172832,0.0237844,1938,904,48.9992,-4.13328
721,120,48.9813,4.66217,-0.00124768,0.00185271,-0.000902691,0.00209638,-0.00149135,-1.30714,0.00208117,0.0205303,1945,904,48.9813,-4.66217
728,120,48.868,5.17737,-0.00176976,0.00237975,-0.0012342,0.00271909,-0.0021091,-1.30248,0.00279497,0.0132192,1952,904,48.868,-5.17736
735,120,48.8198,5.67554,-0.00259066,0.0030941,-0.00166328,0.00354499,-0.00304155,-1.30607,0.00380644,0.0128575,1959,904,48.8198,-5.67555
742,120,48.7906,6.23334,-0.00360234,0.00432196,-0.00221867,0.00490086,-0.00418124,-1.31556,0.00524904,0.0144118,1966,904,48.7907,-6.23333
749,120,48.7683,6.73499,-0.00465409,0.00604796,-0.00286339,0.00676591,-0.00537204,-1.32513,0.00702324,0.012112,1973,904,48.7684,-6.73501
756,120,48.6819,7.24243,-0.00550382,0.00815201,-0.00351145,0.00900203,-0.00635384,-1.33329,0.00890955,0.0152982,1980,904,48.6819,-7.24241
763,120,48.5652,7.74872,-0.00593145,0.0108037,-0.00409071,0.0117501,-0.00687786,-1.34344,0.0108768,0.0312666,1987,904,48.5652,-7.74871
770,120,48.4968,8.276,0,0,0,0,0,0,0,-1,1994,904,48.4969,-8.27603
777,120,41.3512,6.78638,0,0,0,0,0,0,0,-1,2001,904,41.3512,-6.78635
784,120,43.5239,5.77271,0,0,0,0,0,0,0,-1,2008,904,43.524,-5.77269
791,120,41.957,6.00659,0,0,0,0,0,0,0,-1,2015,904,41.957,-6.00662
798,120,42.4553,5.6944,0,0,0,0,0,0,0,-1,2022,904,42.4552,-5.69439
805,120,0,0,0,0,0,0,0,0,0,-1,2029,904,0,0
812,120,0,0,0,0,0,0,0,0,0,-1,2036,904,0,0
-700,113,0,0,0,0,0,0,0,0,0,-1,524,911,0,0
-693,113,0,0,0,0,0,0,0,0,0,-1,531,911,0,0
-686,113,0,0,0,0,0,0,0,0,0,-1,538,911,0,0
-679,113,-38.1912,4.73584,0,0,0,0,0,0,0,-1,545,911,-38.1912,-4.73586
-672,113,-36.4607,5.34326,0,0,0,0,0,0,0,-1,552,911,-36.4607,-5.34329
-665,113,-36.6906,3.93085,0,0,0,0,0,0,0,-1,559,911,-36.6906,-3.93087
-658,113,-37.1281,2.40698,0,0,0,0,0,0,0,-1,566,911,-37.1281,-2.40697
-651,113,-39.4437,2.88983,0,0,0,0,0,0,0,-1,573,911,-39.4437,-2.88981
-644,113,-36.6913,5.77936,0,0,0,0,0,0,0,-1,580,911,-36.6913,-5.77938
-637,113,-36.7648,5.31,-0.010518,0.0119461,0.013671,0.0184075,-0.0169793,1.12928,0.0204361,0.0449501,587,911,-36.7649,-5.31003
-630,113,-36.7227,4.96246,-0.0101876,0.0128331,0.00856727,0.0156715,-0.013026,1.25087,0.0165919,0.0213005,594,911,-36.7227,-4.96249
-623,113,-36.8257,4.46484,-0.0086582,0.0105675,0.00552095,0.0120401,-0.0101308,1.31013,0.0128162,0.0124703,601,911,-36.8257,-4.46487
-616,113,-36.8378,3.97369,-0.0065973,0.00779214,0.00318571,0.00846588,-0.00727105,1.36238,0.00909445,0.0111637,608,911,-36.8378,-3.97371
-609,113,-36.8384,3.52991,-0.00503205,0.00451685,0.00284922,0.00530239,-0.00581758,1.30178,0.00642241,0.0114861,615,911,-36.8385,-3.52989
-602,113,-36.8597,3.03052,-0.00440859,0.00264667,0.00302681,0.00376724,-0.00552916,1.21623,0.00539931,0.0183869,622,911,-36.8597,-3.03053
-595,113,-36.8762,2.64001,-0.00410578,0.0017267,0.00298731,0.0029852,-0.00536428,1.17208,0.00488537,0.026078,629,911,-36.8762,-2.64004
-588,113,-36.8245,2.13391,-0.00379849,0.00108617,0.00297461,0.00249264,-0.00520496,1.12912,0.00453524,0.0313347,636,911,-36.8244,-2.13393
-581,113,-36.8107,1.6123,-0.00360653,0.000905525,0.00288026,0.00230813,-0.00500914,1.11763,0.0043195,0.0318424,643,911,-36.8107,-1.61228
-574,113,-36.7751,0.912842,0,0,0,0,0,0,0,-1,650,911,-36.7751,-0.912855
-567,113,-21.8396,0.437378,0,0,0,0,0,0,0,-1,657,911,-21.8396,-0.437351
-560,113,-41.1471,1.01434,0,0,0,0,0,0,0,-1,664,911,-41.1471,-1.01434
-553,113,-41.1401,1.0979,-0.0032464,0.000745005,0.00212572,0.00166504,-0.00416643,1.16233,0.00346851,0.0405421,671,911,-41.1401,-1.09789
-546,113,-41.1465,1.06104,-0.00316591,0.00107247,0.00191783,0.00181143,-0.00390487,1.20302,0.00337327,0.0324141,678,911,-41.1465,-1.06104
-539,113,-41.0905,1.06903,-0.00273366,0.00158575,0.00168513,0.00216539,-0.0033133,1.2395,0.00318618,0.0351242,685,911,-41.0905,-1.069
-532,113,-41.1248,1.03925,-0.00150024,0.00229918,0.00138888,0.00275274,-0.0019538,1.25515,0.00273034,0.0399498,692,911,-41.1247,-1.03924
-525,113,-41.2667,0.953796,5.31248e-05,0.00291546,0.00108987,0.00328319,-0.000314612,1.24538,0.00230085,0.0395433,699,911,-41.2666,-0.953818
-518,113,-41.407,1.0025,0.00125431,0.00389134,0.000608334,0.00402491,0.00112074,1.35466,0.00239862,0.0399849,706,911,-41.407,-1.00253
-511,113,-41.4396,0.961975,0.00285449,0.00494404,-0.000388657,0.00501398,0.00278454,-1.39273,0.00290073,0.0406858,713,911,-41.4397,-0.96198
-504,113,0,0,0,0,0,0,0,0,0,-1,720,911,0,0
-497,113,0,0,0,0,0,0,0,0,0,-1,727,911,0,0
-490,113,0,0,0,0,0,0,0,0,0,-1,734,911,0,0
-483,113,0,0,0,0,0,0,0,0,0,-1,741,911,0,0
-476,113,0,0,0,0,0,0,0,0,0,-1,748,911,0,0
-469,113,0,0,0,0,0,0,0,0,0,-1,755,911,0,0
-462,113,0,0,0,0,0,0,0,0,0,-1,762,911,0,0
-455,113,0,0,0,0,0,0,0,0,0,-1,769,911,0,0
-448,113,0,0,0,0,0,0,0,0,0,-1,776,911,0,0
-441,113,0,0,0,0,0,0,0,0,0,-1,783,911,0,0
-434,113,0,0,0,0,0,0,0,0,0,-1,790,911,0,0
-427,113,0,0,0,0,0,0,0,0,0,-1,797,911,0,0
-420,113,0,0,0,0,0,0,0,0,0,-1,804,911,0,0
-413,113,0,0,0,0,0,0,0,0,0,-1,811,911,0,0
-406,113,0,0,0,0,0,0,0,0,0,-1,818,911,0,0
-399,113,0,0,0,0,0,0,0,0,0,-1,825,911,0,0
-392,113,0,0,0,0,0,0,0,0,0,-1,832,911,0,0
-385,113,0,0,0,0,0,0,0,0,0,-1,839,911,0,0
-378,113,0,0,0,0,0,0,0,0,0,-1,846,911,0,0
-371,113,0,0,0,0,0,0,0,0,0,-1,853,911,0,0
-364,113,0,0,0,0,0,0,0,0,0,-1,860,911,0,0
-357,113,0,0,0,0,0,0,0,0,0,-1,867,911,0,0
-350,113,0,0,0,0,0,0,0,0,0,-1,874,911,0,0
-343,113,0,0,0,0,0,0,0,0,0,-1,881,911,0,0
-336,113,0,0,0,0,0,0,0,0,0,-1,888,911,0,0
-329,113,0,0,0,0,0,0,0,0,0,-1,895,911,0,0
-322,113,0,0,0,0,0,0,0,0,0,-1,902,911,0,0
-315,113,0,0,0,0,0,0,0,0,0,-1,909,911,0,0
-308,113,0,0,0,0,0,0,0,0,0,-1,916,911,0,0
-301,113,0,0,0,0,0,0,0,0,0,-1,923,911,0,0
-294,113,0,0,0,0,0,0,0,0,0,-1,930,911,0,0
-287,113,0,0,0,0,0,0,0,0,0,-1,937,911,0,0
-280,113,0,0,0,0,0,0,0,0,0,-1,944,911,0,0
-273,113,0,0,0,0,0,0,0,0,0,-1,951,911,0,0
-266,113,0,0,0,0,0,0,0,0,0,-1,958,911,0,0
-259,113,0,0,0,0,0,0,0,0,0,-1,965,911,0,0
-252,113,0,0,0,0,0,0,0,0,0,-1,972,911,0,0
-245,113,0,0,0,0,0,0,0,0,0,-1,979,911,0,0
-238,113,0,0,0,0,0,0,0,0,0,-1,986,911,0,0
-231,113,0,0,0,0,0,0,0,0,0,-1,993,911,0,0
-224,113,0,0,0,0,0,0,0,0,0,-1,1000,911,0,0
-217,113,0,0,0,0,0,0,0,0,0,-1,1007,911,0,0
-210,113,0,0,0,0,0,0,0,0,0,-1,1014,911,0,0
-203,113,0,0,0,0,0,0,0,0,0,-1,1021,911,0,0
-196,113,0,0,0,0,0,0,0,0,0,-1,1028,911,0,0
-189,113,0,0,0,0,0,0,0,0,0,-1,1035,911,0,0
-182,113,0,0,0,0,0,0,0,0,0,-1,1042,911,0,0
-175,113,0,0,0,0,0,0,0,0,0,-1,1049,911,0,0
-168,113,0,0,0,0,0,0,0,0,0,-1,1056,911,0,0
-161,113,0,0,0,0,0,0,0,0,0,-1,1063,911,0,0
-154,113,0,0,0,0,0,0,0,0,0,-1,1070,911,0,0
-147,113,0,0,0,0,0,0,0,0,0,-1,1077,911,0,0
-140,113,0,0,0,0,0,0,0,0,0,-1,1084,911,0,0
-133,113,0,0,0,0,0,0,0,0,0,-1,1091,911,0,0
-126,113,0,0,0,0,0,0,0,0,0,-1,1098,911,0,0
-119,113,0,0,0,0,0,0,0,0,0,-1,1105,911,0,0
-112,113,0,0,0,0,0,0,0,0,0,-1,1112,911,0,0
-105,113,0,0,0,0,0,0,0,0,0,-1,1119,911,0,0
-98,113,0,0,0,0,0,0,0,0,0,-1,1126,911,0,0
-91,113,0,0,0,0,0,0,0,0,0,-1,1133,911,0,0
-84,113,0,0,0,0,0,0,0,0,0,-1,1140,911,0,0
-77,113,0,0,0,0,0,0,0,0,0,-1,1147,911,0,0
-70,113,0,0,0,0,0,0,0,0,0,-1,1154,911,0,0
-63,113,0,0,0,0,0,0,0,0,0,-1,1161,911,0,0
-56,113,0,0,0,0,0,0,0,0,0,-1,1168,911,0,0
-49,113,0,0,0,0,0,0,0,0,0,-1,1175,911,0,0
-42,113,0,0,0,0,0,0,0,0,0,-1,1182,911,0,0
-35,113,0,0,0,0,0,0,0,0,0,-1,1189,911,0,0
-28,113,0,0,0,0,0,0,0,0,0,-1,1196,911,0,0
-21,113,0,0,0,0,0,0,0,0,0,-1,1203,911,0,0
-14,113,0,0,0,0,0,0,0,0,0,-1,1210,911,0,0
-7,113,0,0,0,0,0,0,0,0,0,-1,1217,911,0,0
0,113,0,0,0,0,0,0,0,0,0,-1,1224,911,0,0
7,113,0,0,0,0,0,0,0,0,0,-1,1231,911,0,0
14,113,0,0,0,0,0,0,0,0,0,-1,1238,911,0,0
21,113,0,0,0,0,0,0,0,0,0,-1,1245,911,0,0
28,113,0,0,0,0,0,0,0,0,0,-1,1252,911,0,0
35,113,0,0,0,0,0,0,0,0,0,-1,1259,911,0,0
42,113,0,0,0,0,0,0,0,0,0,-1,1266,911,0,0
49,113,0,0,0,0,0,0,0,0,0,-1,1273,911,0,0
56,113,0,0,0,0,0,0,0,0,0,-1,1280,911,0,0
63,113,0,0,0,0,0,0,0,0,0,-1,1287,911,0,0
70,113,0,0,0,0,0,0,0,0,0,-1,1294,911,0,0
77,113,0,0,0,0,0,0,0,0,0,-1,1301,911,0,0
84,113,0,0,0,0,0,0,0,0,0,-1,1308,911,0,0
91,113,0,0,0,0,0,0,0,0,0,-1,1315,911,0,0
98,113,0,0,0,0,0,0,0,0,0,-1,1322,911,0,0
105,113,0,0,0,0,0,0,0,0,0,-1,1329,911,0,0
112,113,0,0,0,0,0,0,0,0,0,-1,1336,911,0,0
119,113,0,0,0,0,0,0,0,0,0,-1,1343,911,0,0
126,113,0,0,0,0,0,0,0,0,0,-1,1350,911,0,0
133,113,0,0,0,0,0,0,0,0,0,-1,1357,911,0,0
140,113,0,0,0,0,0,0,0,0,0,-1,1364,911,0,0
147,113,0,0,0,0,0,0,0,0,0,-1,1371,911,0,0
154,113,0,0,0,0,0,0,0,0,0,-1,1378,911,0,0
161,113,0,0,0,0,0,0,0,0,0,-1,1385,911,0,0
168,113,0,0,0,0,0,0,0,0,0,-1,1392,911,0,0
175,113,0,0,0,0,0,0,0,0,0,-1,1399,911,0,0
182,113,0,0,0,0,0,0,0,0,0,-1,1406,911,0,0
189,113,0,0,0,0,0,0,0,0,0,-1,1413,911,0,0
196,113,0,0,0,0,0,0,0,0,0,-1,1420,911,0,0
203,113,0,0,0,0,0,0,0,0,0,-1,1427,911,0,0
210,113,0,0,0,0,0,0,0,0,0,-1,1434,911,0,0
217,113,0,0,0,0,0,0,0,0,0,-1,1441,911,0,0
224,113,0,0,0,0,0,0,0,0,0,-1,1448,911,0,0
231,113,0,0,0,0,0,0,0,0,0,-1,1455,911,0,0
238,113,0,0,0,0,0,0,0,0,0,-1,1462,911,0,0
245,113,0,0,0,0,0,0,0,0,0,-1,1469,911,0,0
252,113,0,0,0,0,0,0,0,0,0,-1,1476,911,0,0
259,113,0,0,0,0,0,0,0,0,0,-1,1483,911,0,0
266,113,0,0,0,0,0,0,0,0,0,-1,1490,911,0,0
273,113,0,0,0,0,0,0,0,0,0,-1,1497,911,0,0
280,113,0,0,0,0,0,0,0,0,0,-1,1504,911,0,0
287,113,0,0,0,0,0,0,0,0,0,-1,1511,911,0,0
294,113,0,0,0,0,0,0,0,0,0,-1,1518,911,0,0
301,113,0,0,0,0,0,0,0,0,0,-1,1525,911,0,0
308,113,0,0,0,0,0,0,0,0,0,-1,1532,911,0,0
315,113,0,0,0,0,0,0,0,0,0,-1,1539,911,0,0
322,113,0,0,0,0,0,0,0,0,0,-1,1546,911,0,0
329,113,0,0,0,0,0,0,0,0,0,-1,1553,911,0,0
336,113,0,0,0,0,0,0,0,0,0,-1,1560,911,0,0
343,113,0,0,0,0,0,0,0,0,0,-1,1567,911,0,0
350,113,0,0,0,0,0,0,0,0,0,-1,1574,911,0,0
357,113,0,0,0,0,0,0,0,0,0,-1,1581,911,0,0
364,113,0,0,0,0,0,0,0,0,0,-1,1588,911,0,0
371,113,0,0,0,0,0,0,0,0,0,-1,1595,911,0,0
378,113,0,0,0,0,0,0,0,0,0,-1,1602,911,0,0
385,113,0,0,0,0,0,0,0,0,0,-1,1609,911,0,0
392,113,0,0,0,0,0,0,0,0,0,-1,1616,911,0,0
399,113,0,0,0,0,0,0,0,0,0,-1,1623,911,0,0
406,113,0,0,0,0,0,0,0,0,0,-1,1630,911,0,0
413,113,0,0,0,0,0,0,0,0,0,-1,1637,911,0,0
420,113,0,0,0,0,0,0,0,0,0,-1,1644,911,0,0
427,113,0,0,0,0,0,0,0,0,0,-1,1651,911,0,0
434,113,0,0,0,0,0,0,0,0,0,-1,1658,911,0,0
441,113,0,0,0,0,0,0,0,0,0,-1,1665,911,0,0
448,113,0,0,0,0,0,0,0,0,0,-1,1672,911,0,0
455,113,0,0,0,0,0,0,0,0,0,-1,1679,911,0,0
462,113,0,0,0,0,0,0,0,0,0,-1,1686,911,0,0
469,113,0,0,0,0,0,0,0,0,0,-1,1693,911,0,0
476,113,0,0,0,0,0,0,0,0,0,-1,1700,911,0,0
483,113,0,0,0,0,0,0,0,0,0,-1,1707,911,0,0
490,113,0,0,0,0,0,0,0,0,0,-1,1714,911,0,0
497,113,0,0,0,0,0,0,0,0,0,-1,1721,911,0,0
504,113,0,0,0,0,0,0,0,0,0,-1,1728,911,0,0
511,113,0,0,0,0,0,0,0,0,0,-1,1735,911,0,0
518,113,0,0,0,0,0,0,0,0,0,-1,1742,911,0,0
525,113,0,0,0,0,0,0,0,0,0,-1,1749,911,0,0
532,113,0,0,0,0,0,0,0,0,0,-1,1756,911,0,0
539,113,0,0,0,0,0,0,0,0,0,-1,1763,911,0,0
546,113,0,0,0,0,0,0,0,0,0,-1,1770,911,0,0
553,113,0,0,0,0,0,0,0,0,0,-1,1777,911,0,0
560,113,0,0,0,0,0,0,0,0,0,-1,1784,911,0,0
567,113,0,0,0,0,0,0,0,0,0,-1,1791,911,0,0
574,113,0,0,0,0,0,0,0,0,0,-1,1798,911,0,0
581,113,0,0,0,0,0,0,0,0,0,-1,1805,911,0,0
588,113,0,0,0,0,0,0,0,0,0,-1,1812,911,0,0
595,113,0,0,0,0,0,0,0,0,0,-1,1819,911,0,0
602,113,0,0,0,0,0,0,0,0,0,-1,1826,911,0,0
609,113,0,0,0,0,0,0,0,0,0,-1,1833,911,0,0
616,113,0,0,0,0,0,0,0,0,0,-1,1840,911,0,0
623,113,0,0,0,0,0,0,0,0,0,-1,1847,911,0,0
630,113,54.8623,3.42383,0.00158772,0.00262151,-0.00650292,0.00862804,-0.00441881,-0.825058,0.00766217,0.0399836,1854,911,54.8623,-3.42385
637,113,54.9104,3.54321,0.00173166,0.00270211,-0.00540349,0.00764212,-0.00320835,-0.830177,0.0064365,0.0397391,1861,911,54.9104,-3.5432
644,113,54.8862,2.9989,0.00150971,0.00264461,-0.00439129,0.00650495,-0.00235064,-0.849653,0.00529699,0.03942,1868,911,54.8863,-2.99891
651,113,55.0049,2.8551,0.00109951,0.00236457,-0.00339445,0.00518492,-0.00172083,-0.877513,0.00415088,0.0421541,1875,911,55.0049,-2.85508
658,113,55.1536,2.82281,0.000640856,0.00219792,-0.00237326,0.00391708,-0.0010783,-0.943889,0.00303535,0.041229,1882,911,55.1536,-2.82283
665,113,55.0547,2.85797,0.000416454,0.00212537,-0.00156745,0.00305613,-0.000514309,-1.03494,0.00222872,0.0350117,1889,911,55.0547,-2.85799
672,113,54.8212,2.89276,0.000187165,0.00188345,-0.000977851,0.00232974,-0.000259118,-1.14264,0.00164634,0.0339015,1896,911,54.8211,-2.89276
679,113,54.7698,2.87335,5.87992e-05,0.00165962,-0.000592036,0.00185478,-0.000136363,-1.25237,0.00128439,0.0304243,1903,911,54.7698,-2.87334
686,113,54.8517,2.83173,1.28342e-05,0.00154808,-0.000440461,0.00166547,-0.000104558,-1.31033,0.00114676,0.0263121,1910,911,54.8517,-2.83175
693,113,54.8521,2.85461,0,0,0,0,0,0,0,-1,1917,911,54.8521,-2.85461
700,113,43.897,2.79669,0,0,0,0,0,0,0,-1,1924,911,43.897,-2.79671
707,113,49.3167,3.57275,0,0,0,0,0,0,0,-1,1931,911,49.3166,-3.57277
714,113,49.4244,4.0741,-0.0015601,0.00150637,-0.000319853,0.00153938,-0.0015931,-1.46796,0.00180863,0.0242777,1938,911,49.4245,-4.07407
721,113,49.4429,4.58301,-0.001625,0.00179009,-0.000700107,0.00192804,-0.00176295,-1.37624,0.00213171,0.0237799,1945,911,49.4429,-4.58302
728,113,49.4447,5.15533,-0.0021246,0.00231539,-0.00106344,0.00255696,-0.00236617,-1.34743,0.00284308,0.0233602,1952,911,49.4447,-5.15533
735,113,49.368,5.70099,-0.00286433,0.00302465,-0.00154375,0.0034048,-0.00324448,-1.32935,0.00383933,0.0200916,1959,911,49.3681,-5.70098
742,113,49.322,6.21088,-0.00376453,0.00428988,-0.00218724,0.00484551,-0.00432016,-1.32202,0.0052947,0.0126192,1966,911,49.322,-6.21088
749,113,49.3339,6.72485,-0.00467399,0.00615938,-0.00296038,0.00691556,-0.00543017,-1.32071,0.00714499,0.00981646,1973,911,49.3338,-6.72486
756,113,49.2506,7.26935,-0.00533725,0.00842343,-0.00370786,0.00935893,-0.00627275,-1.32365,0.00908339,0.0143439,1980,911,49.2507,-7.26937
763,113,49.0885,7.87439,-0.00556297,0.0110871,-0.00437702,0.0121676,-0.0066435,-1.32877,0.0110156,0.0325443,1987,911,49.0885,-7.87441
770,113,48.9597,8.47437,0,0,0,0,0,0,0,-1,1994,911,48.9598,-8.47437
777,113,50.3684,8.04102,0,0,0,0,0,0,0,-1,2001,911,50.3684,-8.04103
784,113,42.8354,6.22766,0,0,0,0,0,0,0,-1,2008,911,42.8355,-6.22766
791,113,41.7288,7.26263,0,0,0,0,0,0,0,-1,2015,911,41.7287,-7.26261
798,113,46.2527,8.20587,0,0,0,0,0,0,0,-1,2022,911,46.2528,-8.20587
805,113,0,0,0,0,0,0,0,0,0,-1,2029,911,0,0
812,113,0,0,0,0,0,0,0,0,0,-1,2036,911,0,0
-700,106,0,0,0,0,0,0,0,0,0,-1,524,918,0,0
-693,106,0,0,0,0,0,0,0,0,0,-1,531,918,0,0
-686,106,0,0,0,0,0,0,0,0,0,-1,538,918,0,0
-679,106,-37.7675,5.70471,0,0,0,0,0,0,0,-1,545,918,-37.7675,-5.70469
-672,106,-36.5257,4.47375,0,0,0,0,0,0,0,-1,552,918,-36.5257,-4.47377
-665,106,-36.685,3.31519,0,0,0,0,0,0,0,-1,559,918,-36.685,-3.31518
-658,106,-36.8162,5.6568,0,0,0,0,0,0,0,-1,566,918,-36.8162,-5.65679
-651,106,-36.5986,6.38763,0,0,0,0,0,0,0,-1,573,918,-36.5986,-6.38761
-644,106,-36.5468,6.04364,0,0,0,0,0,0,0,-1,580,918,-36.5468,-6.04363
-637,106,-36.8701,5.51593,-0.0137986,0.00831494,0.0130125,0.0143338,-0.0198175,1.13756,0.0198018,0.0375725,587,918,-36.8701,-5.5159
-630,106,-37.1914,5.02136,-0.0127421,0.0102045,0.00824661,0.0128607,-0.0153983,1.25919,0.0163373,0.0163405,594,918,-37.1914,-5.02136
-623,106,-37.3542,4.42236,-0.0106026,0.0087392,0.00524349,0.0100692,-0.0119326,1.32238,0.012718,0.0158775,601,918,-37.3542,-4.42236
-616,106,-37.3876,3.92047,-0.00807226,0.0065578,0.00283213,0.00708692,-0.00860137,1.3861,0.0090717,0.0160805,608,918,-37.3876,-3.92045
-609,106,-37.3622,3.48669,-0.00624857,0.00372245,0.00236187,0.00425362,-0.00677973,1.34958,0.00642552,0.0121351,615,918,-37.3622,-3.48672
-602,106,-37.3719,3.02441,-0.00549349,0.00223229,0.00245514,0.00294648,-0.00620767,1.28771,0.00539579,0.0198295,622,918,-37.3719,-3.02442
-595,106,-37.5076,2.58417,-0.00516412,0.00150443,0.00239947,0.00227805,-0.00593774,1.2589,0.00489774,0.0245386,629,918,-37.5076,-2.58416
-588,106,-37.6022,2.10046,0,0,0,0,0,0,0,-1,636,918,-37.6022,-2.10046
-581,106,-37.3257,1.54413,0,0,0,0,0,0,0,-1,643,918,-37.3257,-1.54416
-574,106,-37.3272,1.04089,0,0,0,0,0,0,0,-1,650,918,-37.3272,-1.0409
-567,106,-36.2079,0.840881,0,0,0,0,0,0,0,-1,657,918,-36.208,-0.840858
-560,106,-41.1585,0.980957,0,0,0,0,0,0,0,-1,664,918,-41.1585,-0.980973
-553,106,-41.1495,1.09229,-0.00415973,0.00116088,0.00154178,0.00157536,-0.00457421,1.30817,0.00368849,0.0353693,671,918,-41.1495,-1.09229
-546,106,-41.1054,1.06427,-0.0039536,0.00166723,0.00129575,0.00195156,-0.00423793,1.35479,0.00365387,0.0359313,678,918,-41.1054,-1.06428
-539,106,-41.134,1.09436,-0.00319621,0.00238358,0.00103204,0.00256835,-0.00338098,1.39364,0.00344551,0.0387614,685,918,-41.134,-1.09438
-532,106,-41.1827,1.1369,-0.00139959,0.00329691,0.000732118,0.00340839,-0.00151107,1.41969,0.00290981,0.0413728,692,918,-41.1827,-1.13691
-525,106,-41.2389,1.03326,0.000824085,0.00417822,0.000333758,0.00421111,0.000791196,1.47257,0.00258437,0.0393271,699,918,-41.2389,-1.03327
-518,106,-41.2729,1.0589,0.0023209,0.00549911,-0.000347729,0.00553671,0.0022833,-1.46308,0.00321293,0.0398809,706,918,-41.2729,-1.0589
-511,106,0,0,0,0,0,0,0,0,0,-1,713,918,0,0
-504,106,0,0,0,0,0,0,0,0,0,-1,720,918,0,0
-497,106,0,0,0,0,0,0,0,0,0,-1,727,918,0,0
-490,106,0,0,0,0,0,0,0,0,0,-1,734,918,0,0
-483,106,0,0,0,0,0,0,0,0,0,-1,741,918,0,0
-476,106,0,0,0,0,0,0,0,0,0,-1,748,918,0,0
-469,106,0,0,0,0,0,0,0,0,0,-1,755,918,0,0
-462,106,0,0,0,0,0,0,0,0,0,-1,762,918,0,0
-455,106,0,0,0,0,0,0,0,0,0,-1,769,918,0,0
-448,106,0,0,0,0,0,0,0,0,0,-1,776,918,0,0
-441,106,0,0,0,0,0,0,0,0,0,-1,783,918,0,0
-434,106,0,0,0,0,0,0,0,0,0,-1,790,918,0,0
-427,106,0,0,0,0,0,0,0,0,0,-1,797,918,0,0
-420,106,0,0,0,0,0,0,0,0,0,-1,804,918,0,0
-413,106,0,0,0,0,0,0,0,0,0,-1,811,918,0,0
-406,106,0,0,0,0,0,0,0,0,0,-1,818,918,0,0
-399,106,0,0,0,0,0,0,0,0,0,-1,825,918,0,0
-392,106,0,0,0,0,0,0,0,0,0,-1,832,918,0,0
-385,106,0,0,0,0,0,0,0,0,0,-1,839,918,0,0
-378,106,0,0,0,0,0,0,0,0,0,-1,846,918,0,0
-371,106,0,0,0,0,0,0,0,0,0,-1,853,918,0,0
-364,106,0,0,0,0,0,0,0,0,0,-1,860,918,0,0
-357,106,0,0,0,0,0,0,0,0,0,-1,867,918,0,0
-350,106,0,0,0,0,0,0,0,0,0,-1,874,918,0,0
-343,106,0,0,0,0,0,0,0,0,0,-1,881,918,0,0
-336,106,0,0,0,0,0,0,0,0,0,-1,888,918,0,0
-329,106,0,0,0,0,0,0,0,0,0,-1,895,918,0,0
-322,106,0,0,0,0,0,0,0,0,0,-1,902,918,0,0
-315,106,0,0,0,0,0,0,0,0,0,-1,909,918,0,0
-308,106,0,0,0,0,0,0,0,0,0,-1,916,918,0,0
-301,106,0,0,0,0,0,0,0,0,0,-1,923,918,0,0
-294,106,0,0,0,0,0,0,0,0,0,-1,930,918,0,0
-287,106,0,0,0,0,0,0,0,0,0,-1,937,918,0,0
-280,106,0,0,0,0,0,0,0,0,0,-1,944,918,0,0
-273,106,0,0,0,0,0,0,0,0,0,-1,951,918,0,0
-266,106,0,0,0,0,0,0,0,0,0,-1,958,918,0,0
-259,106,0,0,0,0,0,0,0,0,0,-1,965,918,0,0
-252,106,0,0,0,0,0,0,0,0,0,-1,972,918,0,0
-245,106,0,0,0,0,0,0,0,0,0,-1,979,918,0,0
-238,106,0,0,0,0,0,0,0,0,0,-1,986,918,0,0
-231,106,0,0,0,0,0,0,0,0,0,-1,993,918,0,0
-224,106,0,0,0,0,0,0,0,0,0,-1,1000,918,0,0
-217,106,0,0,0,0,0,0,0,0,0,-1,1007,918,0,0
-210,106,0,0,0,0,0,0,0,0,0,-1,1014,918,0,0
-203,106,0,0,0,0,0,0,0,0,0,-1,1021,918,0,0
-196,106,0,0,0,0,0,0,0,0,0,-1,1028,918,0,0
-189,106,0,0,0,0,0,0,0,0,0,-1,1035,918,0,0
-182,106,0,0,0,0,0,0,0,0,0,-1,1042,918,0,0
-175,106,0,0,0,0,0,0,0,0,0,-1,1049,918,0,0
-168,106,0,0,0,0,0,0,0,0,0,-1,1056,918,0,0
-161,106,0,0,0,0,0,0,0,0,0,-1,1063,918,0,0
-154,106,0,0,0,0,0,0,0,0,0,-1,1070,918,0,0
-147,106,0,0,0,0,0,0,0,0,0,-1,1077,918,0,0
-140,106,0,0,0,0,0,0,0,0,0,-1,1084,918,0,0
-133,106,0,0,0,0,0,0,0,0,0,-1,1091,918,0,0
-126,106,0,0,0,0,0,0,0,0,0,-1,1098,918,0,0
-119,106,0,0,0,0,0,0,0,0,0,-1,1105,918,0,0
-112,106,0,0,0,0,0,0,0,0,0,-1,1112,918,0,0
-105,106,0,0,0,0,0,0,0,0,0,-1,1119,918,0,0
-98,106,0,0,0,0,0,0,0,0,0,-1,1126,918,0,0
-91,106,0,0,0,0,0,0,0,0,0,-1,1133,918,0,0
-84,106,0,0,0,0,0,0,0,0,0,-1,1140,918,0,0
-77,106,0,0,0,0,0,0,0,0,0,-1,1147,918,0,0
-70,106,0,0,0,0,0,0,0,0,0,-1,1154,918,0,0
-63,106,0,0,0,0,0,0,0,0,0,-1,1161,918,0,0
-56,106,0,0,0,0,0,0,0,0,0,-1,1168,918,0,0
-49,106,0,0,0,0,0,0,0,0,0,-1,1175,918,0,0
-42,106,0,0,0,0,0,0,0,0,0,-1,1182,918,0,0
-35,106,0,0,0,0,0,0,0,0,0,-1,1189,918,0,0
-28,106,0,0,0,0,0,0,0,0,0,-1,1196,918,0,0
-21,106,0,0,0,0,0,0,0,0,0,-1,1203,918,0,0
-14,106,0,0,0,0,0,0,0,0,0,-1,1210,918,0,0
-7,106,0,0,0,0,0,0,0,0,0,-1,1217,918,0,0
0,106,0,0,0,0,0,0,0,0,0,-1,1224,918,0,0
7,106,0,0,0,0,0,0,0,0,0,-1,1231,918,0,0
14,106,0,0,0,0,0,0,0,0,0,-1,1238,918,0,0
21,106,0,0,0,0,0,0,0,0,0,-1,1245,918,0,0
28,106,0,0,0,0,0,0,0,0,0,-1,1252,918,0,0
35,106,0,0,0,0,0,0,0,0,0,-1,1259,918,0,0
42,106,0,0,0,0,0,0,0,0,0,-1,1266,918,0,0
49,106,0,0,0,0,0,0,0,0,0,-1,1273,918,0,0
56,106,0,0,0,0,0,0,0,0,0,-1,1280,918,0,0
63,106,0,0,0,0,0,0,0,0,0,-1,1287,918,0,0
70,106,0,0,0,0,0,0,0,0,0,-1,1294,918,0,0
77,106,0,0,0,0,0,0,0,0,0,-1,1301,918,0,0
84,106,0,0,0,0,0,0,0,0,0,-1,1308,918,0,0
91,106,0,0,0,0,0,0,0,0,0,-1,1315,918,0,0
98,106,0,0,0,0,0,0,0,0,0,-1,1322,918,0,0
105,106,0,0,0,0,0,0,0,0,0,-1,1329,918,0,0
112,106,0,0,0,0,0,0,0,0,0,-1,1336,918,0,0
119,106,0,0,0,0,0,0,0,0,0,-1,1343,918,0,0
126,106,0,0,0,0,0,0,0,0,0,-1,1350,918,0,0
133,106,0,0,0,0,0,0,0,0,0,-1,1357,918,0,0
140,106,0,0,0,0,0,0,0,0,0,-1,1364,918,0,0
147,106,0,0,0,0,0,0,0,0,0,-1,1371,918,0,0
154,106,0,0,0,0,0,0,0,0,0,-1,1378,918,0,0
161,106,0,0,0,0,0,0,0,0,0,-1,1385,918,0,0
168,106,0,0,0,0,0,0,0,0,0,-1,1392,918,0,0
175,106,0,0,0,0,0,0,0,0,0,-1,1399,918,0,0
182,106,0,0,0,0,0,0,0,0,0,-1,1406,918,0,0
189,106,0,0,0,0,0,0,0,0,0,-1,1413,918,0,0
196,106,0,0,0,0,0,0,0,0,0,-1,1420,918,0,0
203,106,0,0,0,0,0,0,0,0,0,-1,1427,918,0,0
210,106,0,0,0,0,0,0,0,0,0,-1,1434,918,0,0
217,106,0,0,0,0,0,0,0,0,0,-1,1441,918,0,0
224,106,0,0,0,0,0,0,0,0,0,-1,1448,918,0,0
231,106,0,0,0,0,0,0,0,0,0,-1,1455,918,0,0
238,106,0,0,0,0,0,0,0,0,0,-1,1462,918,0,0
245,106,0,0,0,0,0,0,0,0,0,-1,1469,918,0,0
252,106,0,0,0,0,0,0,0,0,0,-1,1476,918,0,0
259,106,0,0,0,0,0,0,0,0,0,-1,1483,918,0,0
266,106,0,0,0,0,0,0,0,0,0,-1,1490,918,0,0
273,106,0,0,0,0,0,0,0,0,0,-1,1497,918,0,0
280,106,0,0,0,0,0,0,0,0,0,-1,1504,918,0,0
287,106,0,0,0,0,0,0,0,0,0,-1,1511,918,0,0
294,106,0,0,0,0,0,0,0,0,0,-1,1518,918,0,0
301,106,0,0,0,0,0,0,0,0,0,-1,1525,918,0,0
308,106,0,0,0,0,0,0,0,0,0,-1,1532,918,0,0
315,106,0,0,0,0,0,0,0,0,0,-1,1539,918,0,0
322,106,0,0,0,0,0,0,0,0,0,-1,1546,918,0,0
329,106,0,0,0,0,0,0,0,0,0,-1,1553,918,0,0
336,106,0,0,0,0,0,0,0,0,0,-1,1560,918,0,0
343,106,0,0,0,0,0,0,0,0,0,-1,1567,918,0,0
350,106,0,0,0,0,0,0,0,0,0,-1,1574,918,0,0
357,106,0,0,0,0,0,0,0,0,0,-1,1581,918,0,0
364,106,0,0,0,0,0,0,0,0,0,-1,1588,918,0,0
371,106,0,0,0,0,0,0,0,0,0,-1,1595,918,0,0
378,106,0,0,0,0,0,0,0,0,0,-1,1602,918,0,0
385,106,0,0,0,0,0,0,0,0,0,-1,1609,918,0,0
392,106,0,0,0,0,0,0,0,0,0,-1,1616,918,0,0
399,106,0,0,0,0,0,0,0,0,0,-1,1623,918,0,0
406,106,0,0,0,0,0,0,0,0,0,-1,1630,918,0,0
413,106,0,0,0,0,0,0,0,0,0,-1,1637,918,0,0
420,106,0,0,0,0,0,0,0,0,0,-1,1644,918,0,0
427,106,0,0,0,0,0,0,0,0,0,-1,1651,918,0,0
434,106,0,0,0,0,0,0,0,0,0,-1,1658,918,0,0
441,106,0,0,0,0,0,0,0,0,0,-1,1665,918,0,0
448,106,0,0,0,0,0,0,0,0,0,-1,1672,918,0,0
455,106,0,0,0,0,0,0,0,0,0,-1,1679,918,0,0
462,106,0,0,0,0,0,0,0,0,0,-1,1686,918,0,0
469,106,0,0,0,0,0,0,0,0,0,-1,1693,918,0,0
476,106,0,0,0,0,0,0,0,0,0,-1,1700,918,0,0
483,106,0,0,0,0,0,0,0,0,0,-1,1707,918,0,0
490,106,0,0,0,0,0,0,0,0,0,-1,1714,918,0,0
497,106,0,0,0,0,0,0,0,0,0,-1,1721,918,0,0
504,106,0,0,0,0,0,0,0,0,0,-1,1728,918,0,0
511,106,0,0,0,0,0,0,0,0,0,-1,1735,918,0,0
518,106,0,0,0,0,0,0,0,0,0,-1,1742,918,0,0
525,106,0,0,0,0,0,0,0,0,0,-1,1749,918,0,0
532,106,0,0,0,0,0,0,0,0,0,-1,1756,918,0,0
539,106,0,0,0,0,0,0,0,0,0,-1,1763,918,0,0
546,106,0,0,0,0,0,0,0,0,0,-1,1770,918,0,0
553,106,0,0,0,0,0,0,0,0,0,-1,1777,918,0,0
560,106,0,0,0,0,0,0,0,0,0,-1,1784,918,0,0
567,106,0,0,0,0,0,0,0,0,0,-1,1791,918,0,0
574,106,0,0,0,0,0,0,0,0,0,-1,1798,918,0,0
581,106,0,0,0,0,0,0,0,0,0,-1,1805,918,0,0
588,106,0,0,0,0,0,0,0,0,0,-1,1812,918,0,0
595,106,0,0,0,0,0,0,0,0,0,-1,1819,918,0,0
602,106,0,0,0,0,0,0,0,0,0,-1,1826,918,0,0
609,106,0,0,0,0,0,0,0,0,0,-1,1833,918,0,0
616,106,0,0,0,0,0,0,0,0,0,-1,1840,918,0,0
623,106,0,0,0,0,0,0,0,0,0,-1,1847,918,0,0
630,106,54.9537,3.23993,0.00170607,0.00350066,-0.00716786,0.00982716,-0.00462044,-0.847666,0.00851997,0.0398277,1854,918,54.9538,-3.2399
637,106,54.9052,3.30127,0.00187999,0.00341452,-0.00581426,0.00851192,-0.00321741,-0.851,0.00699812,0.0392282,1861,918,54.9052,-3.30127
644,106,54.9351,3.01495,0.00160846,0.00329502,-0.00464117,0.00716889,-0.00226542,-0.875266,0.00568685,0.0388944,1868,918,54.9351,-3.01494
651,106,55.0854,2.77515,0.00113074,0.00296827,-0.00349667,0.00566486,-0.00156586,-0.913871,0.00439257,0.0423787,1875,918,55.0855,-2.77517
658,106,55.2837,2.75623,0.000592151,0.00271512,-0.00234025,0.00422337,-0.000916094,-0.998311,0.00316544,0.0441366,1882,918,55.2837,-2.75621
665,106,55.0526,3.00574,0.000290973,0.00258542,-0.00135328,0.00321231,-0.000335922,-1.13699,0.00226185,0.0415964,1889,918,55.0527,-3.00575
672,106,54.7589,3.25458,-2.53433e-05,0.00228663,-0.000637396,0.00245071,-0.000189424,-1.31884,0.00170047,0.0385939,1896,918,54.7589,-3.25459
679,106,54.7378,3.07031,-0.000217079,0.00195196,-0.000168373,0.00196495,-0.000230071,-1.49379,0.00139301,0.0329378,1903,918,54.7378,-3.0703
686,106,54.8644,2.84766,-0.000262691,0.00172234,8.45853e-06,0.00172238,-0.000262727,1.56654,0.0012451,0.0301333,1910,918,54.8644,-2.84765
693,106,54.9037,2.74487,-0.000359258,0.00154333,0.000177415,0.00155973,-0.00037566,1.47861,0.00118506,0.0358824,1917,918,54.9037,-2.74485
700,106,55.0052,2.67633,0,0,0,0,0,0,0,-1,1924,918,55.0052,-2.67631
707,106,49.8324,3.49506,0,0,0,0,0,0,0,-1,1931,918,49.8324,-3.49504
714,106,49.9832,4.0343,-0.0018713,0.00160496,-6.14354e-06,0.00160497,-0.00187131,-1.56903,0.00200899,0.0418807,1938,918,49.9832,-4.0343
721,106,50.0409,4.62042,-0.00196581,0.00188693,-0.000438017,0.0019361,-0.00201498,-1.45901,0.00228131,0.0284979,1945,918,50.0408,-4.62045
728,106,50.0509,5.21021,-0.00243214,0.00242622,-0.000838038,0.00256672,-0.00257264,-1.4047,0.00296721,0.0276648,1952,918,50.0509,-5.21022
735,106,49.9747,5.72577,-0.00308313,0.00313506,-0.00135666,0.00341816,-0.00336623,-1.36507,0.00391701,0.0244302,1959,918,49.9747,-5.72576
742,106,49.9033,6.20526,-0.00389598,0.00442496,-0.00205528,0.00490493,-0.00437595,-1.34138,0.00536122,0.0131331,1966,918,49.9033,-6.20524
749,106,49.8676,6.70636,-0.00472928,0.00641989,-0.0029136,0.00713538,-0.00544477,-1.32999,0.00728498,0.0104594,1973,918,49.8675,-6.70636
756,106,49.8043,7.20905,-0.00530435,0.00886229,-0.00371292,0.00977642,-0.00621848,-1.3294,0.0093105,0.0136489,1980,918,49.8043,-7.20903
763,106,49.6909,7.82819,-0.00544735,0.0116441,-0.00441059,0.0127152,-0.00651842,-1.33257,0.011295,0.0265863,1987,918,49.6909,-7.82816
770,106,49.4724,8.28284,-0.00483618,0.0146462,-0.00523185,0.0159623,-0.00615225,-1.32436,0.0131799,0.0470496,1994,918,49.4725,-8.28286
777,106,49.3386,8.66541,0,0,0,0,0,0,0,-1,2001,918,49.3385,-8.66541
784,106,49.4929,9.54376,0,0,0,0,0,0,0,-1,2008,918,49.4928,-9.54374
791,106,46.7073,9.83844,0,0,0,0,0,0,0,-1,2015,918,46.7073,-9.83841
798,106,47.1345,8.55341,0,0,0,0,0,0,0,-1,2022,918,47.1345,-8.55342
805,106,0,0,0,0,0,0,0,0,0,-1,2029,918,0,0
812,106,0,0,0,0,0,0,0,0,0,-1,2036,918,0,0
-700,99,0,0,0,0,0,0,0,0,0,-1,524,925,0,0
-693,99,0,0,0,0,0,0,0,0,0,-1,531,925,0,0
-686,99,0,0,0,0,0,0,0,0,0,-1,538,925,0,0
-679,99,-37.3093,6.7345,0,0,0,0,0,0,0,-1,545,925,-37.3093,-6.73447
-672,99,-35.666,4.09698,0,0,0,0,0,0,0,-1,552,925,-35.666,-4.09696
-665,99,-37.4195,6.52234,0,0,0,0,0,0,0,-1,559,925,-37.4195,-6.52236
-658,99,-37.3392,5.80591,0,0,0,0,0,0,0,-1,566,925,-37.3392,-5.80591
-651,99,-36.5819,7.63556,0,0,0,0,0,0,0,-1,573,925,-36.5819,-7.63558
-644,99,-37.0114,6.61554,-0.0173111,0.00651746,0.0185794,0.0166745,-0.0274682,1.0705,0.0257385,0.0495398,580,925,-37.0113,-6.61552
-637,99,-37.4289,5.53387,-0.0158039,0.0086029,0.0128535,0.0141234,-0.0213243,1.16513,0.020606,0.0330899,587,925,-37.4289,-5.53388
-630,99,-37.7005,4.96216,-0.0142515,0.0101762,0.00835018,0.0127577,-0.0168331,1.27096,0.0171382,0.0171381,594,925,-37.7005,-4.96218
-623,99,-37.901,4.4201,-0.0119333,0.00869179,0.00524335,0.00994822,-0.0131897,1.33561,0.0134023,0.0117566,601,925,-37.901,-4.42009
-616,99,-37.9093,3.93292,-0.00929435,0.00651805,0.0026215,0.00694133,-0.00971763,1.41071,0.00966247,0.0136216,608,925,-37.9093,-3.93293
-609,99,-37.8943,3.49506,-0.00741526,0.00378327,0.00187027,0.00408737,-0.00771936,1.40961,0.00692329,0.0119751,615,925,-37.8943,-3.49503
-602,99,-37.8762,3.09973,-0.00659171,0.00242982,0.00180323,0.0027769,-0.00693879,1.38065,0.00577836,0.0162198,622,925,-37.8762,-3.09971
-595,99,-37.9765,2.67169,-0.00620035,0.00174394,0.00169729,0.00209137,-0.00654778,1.36889,0.00520432,0.0214949,629,925,-37.9765,-2.67171
-588,99,-37.9756,2.18134,-0.00579714,0.00126422,0.00181671,0.0017042,-0.00623712,1.33319,0.00482748,0.0242087,636,925,-37.9757,-2.18135
-581,99,-37.9644,1.60754,-0.00545489,0.00118275,0.00178216,0.00163098,-0.00590312,1.3244,0.00457698,0.0196138,643,925,-37.9643,-1.60755
-574,99,-38.0519,1.0506,0,0,0,0,0,0,0,-1,650,925,-38.0519,-1.05063
-567,99,-41.0463,1.16687,0,0,0,0,0,0,0,-1,657,925,-41.0463,-1.16686
-560,99,-41.0257,0.975769,-0.00501595,0.00148358,0.0011206,0.00167136,-0.00520373,1.40477,0.00414029,0.047706,664,925,-41.0257,-0.97579
-553,99,-41.0909,0.993835,-0.00487235,0.00190396,0.000846421,0.00200809,-0.00497648,1.44839,0.00415216,0.039026,671,925,-41.0909,-0.993863
-546,99,-41.0334,0.919922,-0.00443867,0.00255132,0.000585632,0.00260005,-0.0044874,1.48779,0.00414002,0.0424374,678,925,-41.0334,-0.919942
-539,99,-41.0786,1.13922,-0.00326808,0.00337378,0.000324749,0.00338962,-0.00328392,1.52206,0.00385314,0.0401733,685,925,-41.0786,-1.13922
-532,99,-41.1384,1.40594,-0.000941887,0.00425602,6.15055e-05,0.00425675,-0.000942615,1.55897,0.00319867,0.0420852,692,925,-41.1384,-1.40595
-525,99,-41.1484,1.32751,0.0017438,0.00513691,-0.000418626,0.0051878,0.00169292,-1.44984,0.00305481,0.0412093,699,925,-41.1484,-1.32752
-518,99,-41.2017,1.37592,0.00326899,0.00661453,-0.00119351,0.00699666,0.00288686,-1.26093,0.00406004,0.0407723,706,925,-41.2016,-1.37591
-511,99,0,0,0,0,0,0,0,0,0,-1,713,925,0,0
-504,99,0,0,0,0,0,0,0,0,0,-1,720,925,0,0
-497,99,0,0,0,0,0,0,0,0,0,-1,727,925,0,0
-490,99,0,0,0,0,0,0,0,0,0,-1,734,925,0,0
-483,99,0,0,0,0,0,0,0,0,0,-1,741,925,0,0
-476,99,0,0,0,0,0,0,0,0,0,-1,748,925,0,0
-469,99,0,0,0,0,0,0,0,0,0,-1,755,925,0,0
-462,99,0,0,0,0,0,0,0,0,0,-1,762,925,0,0
-455,99,0,0,0,0,0,0,0,0,0,-1,769,925,0,0
-448,99,0,0,0,0,0,0,0,0,0,-1,776,925,0,0
-441,99,0,0,0,0,0,0,0,0,0,-1,783,925,0,0
-434,99,0,0,0,0,0,0,0,0,0,-1,790,925,0,0
-427,99,0,0,0,0,0,0,0,0,0,-1,797,925,0,0
-420,99,0,0,0,0,0,0,0,0,0,-1,804,925,0,0
-413,99,0,0,0,0,0,0,0,0,0,-1,811,925,0,0
-406,99,0,0,0,0,0,0,0,0,0,-1,818,925,0,0
-399,99,0,0,0,0,0,0,0,0,0,-1,825,925,0,0
-392,99,0,0,0,0,0,0,0,0,0,-1,832,925,0,0
-385,99,0,0,0,0,0,0,0,0,0,-1,839,925,0,0
-378,99,0,0,0,0,0,0,0,0,0,-1,846,925,0,0
-371,99,0,0,0,0,0,0,0,0,0,-1,853,925,0,0
-364,99,0,0,0,0,0,0,0,0,0,-1,860,925,0,0
-357,99,0,0,0,0,0,0,0,0,0,-1,867,925,0,0
-350,99,0,0,0,0,0,0,0,0,0,-1,874,925,0,0
-343,99,0,0,0,0,0,0,0,0,0,-1,881,925,0,0
-336,99,0,0,0,0,0,0,0,0,0,-1,888,925,0,0
-329,99,0,0,0,0,0,0,0,0,0,-1,895,925,0,0
-322,99,0,0,0,0,0,0,0,0,0,-1,902,925,0,0
-315,99,0,0,0,0,0,0,0,0,0,-1,909,925,0,0
-308,99,0,0,0,0,0,0,0,0,0,-1,916,925,0,0
-301,99,0,0,0,0,0,0,0,0,0,-1,923,925,0,0
-294,99,0,0,0,0,0,0,0,0,0,-1,930,925,0,0
-287,99,0,0,0,0,0,0,0,0,0,-1,937,925,0,0
-280,99,0,0,0,0,0,0,0,0,0,-1,944,925,0,0
-273,99,0,0,0,0,0,0,0,0,0,-1,951,925,0,0
-266,99,0,0,0,0,0,0,0,0,0,-1,958,925,0,0
-259,99,0,0,0,0,0,0,0,0,0,-1,965,925,0,0
-252,99,0,0,0,0,0,0,0,0,0,-1,972,925,0,0
-245,99,0,0,0,0,0,0,0,0,0,-1,979,925,0,0
-238,99,0,0,0,0,0,0,0,0,0,-1,986,925,0,0
-231,99,0,0,0,0,0,0,0,0,0,-1,993,925,0,0
-224,99,0,0,0,0,0,0,0,0,0,-1,1000,925,0,0
-217,99,0,0,0,0,0,0,0,0,0,-1,1007,925,0,0
-210,99,0,0,0,0,0,0,0,0,0,-1,1014,925,0,0
-203,99,0,0,0,0,0,0,0,0,0,-1,1021,925,0,0
-196,99,0,0,0,0,0,0,0,0,0,-1,1028,925,0,0
-189,99,0,0,0,0,0,0,0,0,0,-1,1035,925,0,0
-182,99,0,0,0,0,0,0,0,0,0,-1,1042,925,0,0
-175,99,0,0,0,0,0,0,0,0,0,-1,1049,925,0,0
-168,99,0,0,0,0,0,0,0,0,0,-1,1056,925,0,0
-161,99,0,0,0,0,0,0,0,0,0,-1,1063,925,0,0
-154,99,0,0,0,0,0,0,0,0,0,-1,1070,925,0,0
-147,99,0,0,0,0,0,0,0,0,0,-1,1077,925,0,0
-140,99,0,0,0,0,0,0,0,0,0,-1,1084,925,0,0
-133,99,0,0,0,0,0,0,0,0,0,-1,1091,925,0,0
-126,99,0,0,0,0,0,0,0,0,0,-1,1098,925,0,0
-119,99,0,0,0,0,0,0,0,0,0,-1,1105,925,0,0
-112,99,0,0,0,0,0,0,0,0,0,-1,1112,925,0,0
-105,99,0,0,0,0,0,0,0,0,0,-1,1119,925,0,0
-98,99,0,0,0,0,0,0,0,0,0,-1,1126,925,0,0
-91,99,0,0,0,0,0,0,0,0,0,-1,1133,925,0,0
-84,99,0,0,0,0,0,0,0,0,0,-1,1140,925,0,0
-77,99,0,0,0,0,0,0,0,0,0,-1,1147,925,0,0
-70,99,0,0,0,0,0,0,0,0,0,-1,1154,925,0,0
-63,99,0,0,0,0,0,0,0,0,0,-1,1161,925,0,0
-56,99,0,0,0,0,0,0,0,0,0,-1,1168,925,0,0
-49,99,0,0,0,0,0,0,0,0,0,-1,1175,925,0,0
-42,99,0,0,0,0,0,0,0,0,0,-1,1182,925,0,0
-35,99,0,0,0,0,0,0,0,0,0,-1,1189,925,0,0
-28,99,0,0,0,0,0,0,0,0,0,-1,1196,925,0,0
-21,99,0,0,0,0,0,0,0,0,0,-1,1203,925,0,0
-14,99,0,0,0,0,0,0,0,0,0,-1,1210,925,0,0
-7,99,0,0,0,0,0,0,0,0,0,-1,1217,925,0,0
0,99,0,0,0,0,0,0,0,0,0,-1,1224,925,0,0
7,99,0,0,0,0,0,0,0,0,0,-1,1231,925,0,0
14,99,0,0,0,0,0,0,0,0,0,-1,1238,925,0,0
21,99,0,0,0,0,0,0,0,0,0,-1,1245,925,0,0
28,99,0,0,0,0,0,0,0,0,0,-1,1252,925,0,0
35,99,0,0,0,0,0,0,0,0,0,-1,1259,925,0,0
42,99,0,0,0,0,0,0,0,0,0,-1,1266,925,0,0
49,99,0,0,0,0,0,0,0,0,0,-1,1273,925,0,0
56,99,0,0,0,0,0,0,0,0,0,-1,1280,925,0,0
63,99,0,0,0,0,0,0,0,0,0,-1,1287,925,0,0
70,99,0,0,0,0,0,0,0,0,0,-1,1294,925,0,0
77,99,0,0,0,0,0,0,0,0,0,-1,1301,925,0,0
84,99,0,0,0,0,0,0,0,0,0,-1,1308,925,0,0
91,99,0,0,0,0,0,0,0,0,0,-1,1315,925,0,0
98,99,0,0,0,0,0,0,0,0,0,-1,1322,925,0,0
105,99,0,0,0,0,0,0,0,0,0,-1,1329,925,0,0
112,99,0,0,0,0,0,0,0,0,0,-1,1336,925,0,0
119,99,0,0,0,0,0,0,0,0,0,-1,1343,925,0,0
126,99,0,0,0,0,0,0,0,0,0,-1,1350,925,0,0
133,99,0,0,0,0,0,0,0,0,0,-1,1357,925,0,0
140,99,0,0,0,0,0,0,0,0,0,-1,1364,925,0,0
147,99,0,0,0,0,0,0,0,0,0,-1,1371,925,0,0
154,99,0,0,0,0,0,0,0,0,0,-1,1378,925,0,0
161,99,0,0,0,0,0,0,0,0,0,-1,1385,925,0,0
168,99,0,0,0,0,0,0,0,0,0,-1,1392,925,0,0
175,99,0,0,0,0,0,0,0,0,0,-1,1399,925,0,0
182,99,0,0,0,0,0,0,0,0,0,-1,1406,925,0,0
189,99,0,0,0,0,0,0,0,0,0,-1,1413,925,0,0
196,99,0,0,0,0,0,0,0,0,0,-1,1420,925,0,0
203,99,0,0,0,0,0,0,0,0,0,-1,1427,925,0,0
210,99,0,0,0,0,0,0,0,0,0,-1,1434,925,0,0
217,99,0,0,0,0,0,0,0,0,0,-1,1441,925,0,0
224,99,0,0,0,0,0,0,0,0,0,-1,1448,925,0,0
231,99,0,0,0,0,0,0,0,0,0,-1,1455,925,0,0
238,99,0,0,0,0,0,0,0,0,0,-1,1462,925,0,0
245,99,0,0,0,0,0,0,0,0,0,-1,1469,925,0,0
252,99,0,0,0,0,0,0,0,0,0,-1,1476,925,0,0
259,99,0,0,0,0,0,0,0,0,0,-1,1483,925,0,0
266,99,0,0,0,0,0,0,0,0,0,-1,1490,925,0,0
273,99,0,0,0,0,0,0,0,0,0,-1,1497,925,0,0
280,99,0,0,0,0,0,0,0,0,0,-1,1504,925,0,0
287,99,0,0,0,0,0,0,0,0,0,-1,1511,925,0,0
294,99,0,0,0,0,0,0,0,0,0,-1,1518,925,0,0
301,99,0,0,0,0,0,0,0,0,0,-1,1525,925,0,0
308,99,0,0,0,0,0,0,0,0,0,-1,1532,925,0,0
315,99,0,0,0,0,0,0,0,0,0,-1,1539,925,0,0
322,99,0,0,0,0,0,0,0,0,0,-1,1546,925,0,0
329,99,0,0,0,0,0,0,0,0,0,-1,1553,925,0,0
336,99,0,0,0,0,0,0,0,0,0,-1,1560,925,0,0
343,99,0,0,0,0,0,0,0,0,0,-1,1567,925,0,0
350,99,0,0,0,0,0,0,0,0,0,-1,1574,925,0,0
357,99,0,0,0,0,0,0,0,0,0,-1,1581,925,0,0
364,99,0,0,0,0,0,0,0,0,0,-1,1588,925,0,0
371,99,0,0,0,0,0,0,0,0,0,-1,1595,925,0,0
378,99,0,0,0,0,0,0,0,0,0,-1,1602,925,0,0
385,99,0,0,0,0,0,0,0,0,0,-1,1609,925,0,0
392,99,0,0,0,0,0,0,0,0,0,-1,1616,925,0,0
399,99,0,0,0,0,0,0,0,0,0,-1,1623,925,0,0
406,99,0,0,0,0,0,0,0,0,0,-1,1630,925,0,0
413,99,0,0,0,0,0,0,0,0,0,-1,1637,925,0,0
420,99,0,0,0,0,0,0,0,0,0,-1,1644,925,0,0
427,99,0,0,0,0,0,0,0,0,0,-1,1651,925,0,0
434,99,0,0,0,0,0,0,0,0,0,-1,1658,925,0,0
441,99,0,0,0,0,0,0,0,0,0,-1,1665,925,0,0
448,99,0,0,0,0,0,0,0,0,0,-1,1672,925,0,0
455,99,0,0,0,0,0,0,0,0,0,-1,1679,925,0,0
462,99,0,0,0,0,0,0,0,0,0,-1,1686,925,0,0
469,99,0,0,0,0,0,0,0,0,0,-1,1693,925,0,0
476,99,0,0,0,0,0,0,0,0,0,-1,1700,925,0,0
483,99,0,0,0,0,0,0,0,0,0,-1,1707,925,0,0
490,99,0,0,0,0,0,0,0,0,0,-1,1714,925,0,0
497,99,0,0,0,0,0,0,0,0,0,-1,1721,925,0,0
504,99,0,0,0,0,0,0,0,0,0,-1,1728,925,0,0
511,99,0,0,0,0,0,0,0,0,0,-1,1735,925,0,0
518,99,0,0,0,0,0,0,0,0,0,-1,1742,925,0,0
525,99,0,0,0,0,0,0,0,0,0,-1,1749,925,0,0
532,99,0,0,0,0,0,0,0,0,0,-1,1756,925,0,0
539,99,0,0,0,0,0,0,0,0,0,-1,1763,925,0,0
546,99,0,0,0,0,0,0,0,0,0,-1,1770,925,0,0
553,99,0,0,0,0,0,0,0,0,0,-1,1777,925,0,0
560,99,0,0,0,0,0,0,0,0,0,-1,1784,925,0,0
567,99,0,0,0,0,0,0,0,0,0,-1,1791,925,0,0
574,99,0,0,0,0,0,0,0,0,0,-1,1798,925,0,0
581,99,0,0,0,0,0,0,0,0,0,-1,1805,925,0,0
588,99,0,0,0,0,0,0,0,0,0,-1,1812,925,0,0
595,99,0,0,0,0,0,0,0,0,0,-1,1819,925,0,0
602,99,0,0,0,0,0,0,0,0,0,-1,1826,925,0,0
609,99,0,0,0,0,0,0,0,0,0,-1,1833,925,0,0
616,99,0,0,0,0,0,0,0,0,0,-1,1840,925,0,0
623,99,0,0,0,0,0,0,0,0,0,-1,1847,925,0,0
630,99,0,0,0,0,0,0,0,0,0,-1,1854,925,0,0
637,99,54.8853,2.85077,0.00165761,0.00377113,-0.00594227,0.00874987,-0.00332113,-0.873397,0.0072003,0.0433223,1861,925,54.8853,-2.85076
644,99,54.8364,2.67255,0.00145726,0.00361552,-0.00463976,0.0073,-0.00222721,-0.899659,0.00575458,0.0399159,1868,925,54.8364,-2.67252
651,99,54.9824,2.54297,0.00102746,0.00328466,-0.00339961,0.00573811,-0.00142599,-0.945664,0.00437884,0.0400895,1875,925,54.9825,-2.54298
658,99,55.2205,2.54968,0.000504975,0.00302913,-0.00217463,0.00428138,-0.000747277,-1.04833,0.00313319,0.0426962,1882,925,55.2205,-2.54965
665,99,55.0476,2.77246,0.000157447,0.00291273,-0.00105986,0.00327325,-0.000203071,-1.24292,0.00225291,0.0438436,1889,925,55.0476,-2.77248
672,99,54.7882,3.10687,-0.000241348,0.00261812,-0.0002267,0.00263598,-0.00025921,-1.49217,0.00184979,0.0414127,1896,925,54.7882,-3.10685
679,99,54.7772,3.03351,-0.000505515,0.00222739,0.000315682,0.00226338,-0.000541506,1.45728,0.00171811,0.0375255,1903,925,54.7772,-3.03351
686,99,54.8311,2.91034,-0.000565411,0.00191069,0.000514491,0.00201334,-0.000668059,1.37387,0.00161174,0.0313613,1910,925,54.8311,-2.91032
693,99,54.8589,2.88745,-0.00063639,0.00165293,0.000675508,0.00183739,-0.000820849,1.30423,0.00157169,0.0333935,1917,925,54.8589,-2.88747
700,99,54.8888,2.86218,0,0,0,0,0,0,0,-1,1924,925,54.8888,-2.86219
707,99,47.9915,3.27429,0,0,0,0,0,0,0,-1,1931,925,47.9914,-3.27427
714,99,50.5872,4.00623,0,0,0,0,0,0,0,-1,1938,925,50.5872,-4.00624
721,99,50.5526,4.62018,-0.00234766,0.00204657,-0.000190504,0.00205481,-0.00235591,-1.52755,0.00254851,0.0316188,1945,925,50.5527,-4.62019
728,99,50.5663,5.18048,-0.00277776,0.00260365,-0.000642488,0.00267929,-0.0028534,-1.4536,0.00319483,0.0253155,1952,925,50.5662,-5.18046
735,99,50.5142,5.71313,-0.00333929,0.00329761,-0.00122589,0.0035168,-0.00355848,-1.39386,0.00408494,0.0206284,1959,925,50.5141,-5.7131
742,99,50.4495,6.20905,-0.00408201,0.00461048,-0.00202431,0.00505879,-0.00453031,-1.35285,0.00553907,0.0146375,1966,925,50.4495,-6.20902
749,99,50.3878,6.68811,-0.00487354,0.00666721,-0.00301465,0.00740724,-0.00561357,-1.33008,0.0075413,0.0127501,1973,925,50.3879,-6.68812
756,99,50.3473,7.13647,-0.00544009,0.0092505,-0.00396066,0.0102503,-0.00643987,-1.32354,0.00971941,0.0135706,1980,925,50.3473,-7.13647
763,99,50.2935,7.61053,-0.0056022,0.0121948,-0.00482294,0.0134177,-0.00682517,-1.32246,0.011892,0.0161046,1987,925,50.2935,-7.61052
770,99,50.1663,8.19141,-0.00512721,0.0153071,-0.00578807,0.0168326,-0.0066528,-1.31308,0.0139775,0.0294369,1994,925,50.1662,-8.1914
777,99,50.074,8.75671,-0.00421641,0.0183813,-0.00682578,0.0202831,-0.00611814,-1.29908,0.0159573,0.0433734,2001,925,50.074,-8.75672
784,99,50.1077,9.28088,-0.00173582,0.0210528,-0.00816517,0.0236763,-0.00435937,-1.25991,0.0174201,0.0479053,2008,925,50.1077,-9.28087
791,99,50.0225,9.76587,0,0,0,0,0,0,0,-1,2015,925,50.0224,-9.76588
798,99,48.709,9.64752,0,0,0,0,0,0,0,-1,2022,925,48.709,-9.6475
805,99,0,0,0,0,0,0,0,0,0,-1,2029,925,0,0
812,99,0,0,0,0,0,0,0,0,0,-1,2036,925,0,0
-700,92,0,0,0,0,0,0,0,0,0,-1,524,932,0,0
-693,92,0,0,0,0,0,0,0,0,0,-1,531,932,0,0
-686,92,-37.7668,5.11951,0,0,0,0,0,0,0,-1,538,932,-37.7668,-5.11949
-679,92,-36.8135,5.11542,0,0,0,0,0,0,0,-1,545,932,-36.8135,-5.11543
-672,92,-36.4276,4.84265,-0.00439174,-0.0269006,0.0581175,0.043551,-0.0748434,0.689757,0.0691463,0.0469496,552,932,-36.4276,-4.84267
-665,92,-37.5764,6.72937,-0.0116417,-0.0118858,0.0455318,0.0337682,-0.0572957,0.784058,0.0531574,0.0493943,559,932,-37.5764,-6.72939
-658,92,-37.7452,6.15125,-0.0157043,-0.00167686,0.0349519,0.0269581,-0.0443393,0.884417,0.0415693,0.0469487,566,932,-37.7452,-6.15127
-651,92,-37.0872,6.93799,0,0,0,0,0,0,0,-1,573,932,-37.0872,-6.93798
-644,92,-37.5872,6.18597,-0.0171426,0.00840604,0.0190948,0.0186055,-0.027342,1.0802,0.0266872,0.0447292,580,932,-37.5872,-6.18599
-637,92,-38.1339,5.25006,-0.0153573,0.00965523,0.0137451,0.0157321,-0.0214342,1.15452,0.021542,0.0260727,587,932,-38.1338,-5.25007
-630,92,-38.2543,4.81042,-0.0137659,0.0106648,0.00930867,0.0138074,-0.0169085,1.24521,0.0177639,0.014108,594,932,-38.2544,-4.81044
-623,92,-38.3696,4.40167,-0.01163,0.00901402,0.00600613,0.0106343,-0.0132502,1.3073,0.0138173,0.0102033,601,932,-38.3696,-4.40166
-616,92,-38.3793,3.95544,-0.00932556,0.00671604,0.00303764,0.00727198,-0.00988151,1.38978,0.0099417,0.009749,608,932,-38.3793,-3.95543
-609,92,-38.4109,3.52582,-0.00769495,0.00398751,0.0018411,0.00427079,-0.00797822,1.41813,0.00717914,0.00959072,615,932,-38.411,-3.52579
-602,92,-38.384,3.09448,-0.00695954,0.00264386,0.00147315,0.00286476,-0.00718044,1.42196,0.00597535,0.011387,622,932,-38.384,-3.09446
-595,92,-38.2787,2.5863,-0.00659316,0.00186451,0.00116314,0.00202156,-0.0067502,1.43659,0.005304,0.0219705,629,932,-38.2787,-2.58633
-588,92,-38.3488,2.19293,-0.00623685,0.0013163,0.00121359,0.0015065,-0.00642705,1.41533,0.00486524,0.0269234,636,932,-38.3488,-2.19295
-581,92,-38.7364,1.71594,-0.00593832,0.00120823,0.00112005,0.00137966,-0.00610975,1.41892,0.0046025,0.0315652,643,932,-38.7364,-1.71591
-574,92,-39.141,1.13586,0,0,0,0,0,0,0,-1,650,932,-39.141,-1.13586
-567,92,-41.0532,1.0658,0,0,0,0,0,0,0,-1,657,932,-41.0532,-1.06578
-560,92,-40.9961,0.860535,-0.00562586,0.00173598,0.000285893,0.00174706,-0.00563695,1.53204,0.00445598,0.0423475,664,932,-40.9961,-0.860556
-553,92,-41.2796,0.691895,-0.00537445,0.0022806,3.4881e-05,0.00228076,-0.00537461,1.56624,0.00453855,0.0407397,671,932,-41.2796,-0.691918
-546,92,-41.318,0.739319,-0.00467219,0.0030285,-0.000170218,0.00303226,-0.00467595,-1.54871,0.00448394,0.0425995,678,932,-41.318,-0.739318
-539,92,-41.2593,1.06384,-0.00313532,0.00389722,-0.000319256,0.00391168,-0.00314978,-1.52552,0.00408484,0.04262,685,932,-41.2593,-1.06386
-532,92,-41.2462,1.25171,-0.000512436,0.00468373,-0.000395436,0.00471365,-0.000542356,-1.49527,0.00333794,0.0446623,692,932,-41.2462,-1.2517
-525,92,-41.187,1.34131,0.00216956,0.00552109,-0.000765839,0.00568779,0.00200286,-1.35646,0.00333137,0.0412673,699,932,-41.187,-1.34129
-518,92,-41.0886,1.29797,0.00337258,0.00709004,-0.00143047,0.00757675,0.00288586,-1.24283,0.00441562,0.0388654,706,932,-41.0886,-1.29797
-511,92,0,0,0,0,0,0,0,0,0,-1,713,932,0,0
-504,92,0,0,0,0,0,0,0,0,0,-1,720,932,0,0
-497,92,0,0,0,0,0,0,0,0,0,-1,727,932,0,0
-490,92,0,0,0,0,0,0,0,0,0,-1,734,932,0,0
-483,92,0,0,0,0,0,0,0,0,0,-1,741,932,0,0
-476,92,0,0,0,0,0,0,0,0,0,-1,748,932,0,0
-469,92,0,0,0,0,0,0,0,0,0,-1,755,932,0,0
-462,92,0,0,0,0,0,0,0,0,0,-1,762,932,0,0
-455,92,0,0,0,0,0,0,0,0,0,-1,769,932,0,0
-448,92,0,0,0,0,0,0,0,0,0,-1,776,932,0,0
-441,92,0,0,0,0,0,0,0,0,0,-1,783,932,0,0
-434,92,0,0,0,0,0,0,0,0,0,-1,790,932,0,0
-427,92,0,0,0,0,0,0,0,0,0,-1,797,932,0,0
-420,92,0,0,0,0,0,0,0,0,0,-1,804,932,0,0
-413,92,0,0,0,0,0,0,0,0,0,-1,811,932,0,0
-406,92,0,0,0,0,0,0,0,0,0,-1,818,932,0,0
-399,92,0,0,0,0,0,0,0,0,0,-1,825,932,0,0
-392,92,0,0,0,0,0,0,0,0,0,-1,832,932,0,0
-385,92,0,0,0,0,0,0,0,0,0,-1,839,932,0,0
-378,92,0,0,0,0,0,0,0,0,0,-1,846,932,0,0
-371,92,0,0,0,0,0,0,0,0,0,-1,853,932,0,0
-364,92,0,0,0,0,0,0,0,0,0,-1,860,932,0,0
-357,92,0,0,0,0,0,0,0,0,0,-1,867,932,0,0
-350,92,0,0,0,0,0,0,0,0,0,-1,874,932,0,0
-343,92,0,0,0,0,0,0,0,0,0,-1,881,932,0,0
-336,92,0,0,0,0,0,0,0,0,0,-1,888,932,0,0
-329,92,0,0,0,0,0,0,0,0,0,-1,895,932,0,0
-322,92,0,0,0,0,0,0,0,0,0,-1,902,932,0,0
-315,92,0,0,0,0,0,0,0,0,0,-1,909,932,0,0
-308,92,0,0,0,0,0,0,0,0,0,-1,916,932,0,0
-301,92,0,0,0,0,0,0,0,0,0,-1,923,932,0,0
-294,92,0,0,0,0,0,0,0,0,0,-1,930,932,0,0
-287,92,0,0,0,0,0,0,0,0,0,-1,937,932,0,0
-280,92,0,0,0,0,0,0,0,0,0,-1,944,932,0,0
-273,92,0,0,0,0,0,0,0,0,0,-1,951,932,0,0
-266,92,0,0,0,0,0,0,0,0,0,-1,958,932,0,0
-259,92,0,0,0,0,0,0,0,0,0,-1,965,932,0,0
-252,92,0,0,0,0,0,0,0,0,0,-1,972,932,0,0
-245,92,0,0,0,0,0,0,0,0,0,-1,979,932,0,0
-238,92,0,0,0,0,0,0,0,0,0,-1,986,932,0,0
-231,92,0,0,0,0,0,0,0,0,0,-1,993,932,0,0
-224,92,0,0,0,0,0,0,0,0,0,-1,1000,932,0,0
-217,92,0,0,0,0,0,0,0,0,0,-1,1007,932,0,0
-210,92,0,0,0,0,0,0,0,0,0,-1,1014,932,0,0
-203,92,0,0,0,0,0,0,0,0,0,-1,1021,932,0,0
-196,92,0,0,0,0,0,0,0,0,0,-1,1028,932,0,0
-189,92,0,0,0,0,0,0,0,0,0,-1,1035,932,0,0
-182,92,0,0,0,0,0,0,0,0,0,-1,1042,932,0,0
-175,92,0,0,0,0,0,0,0,0,0,-1,1049,932,0,0
-168,92,0,0,0,0,0,0,0,0,0,-1,1056,932,0,0
-161,92,0,0,0,0,0,0,0,0,0,-1,1063,932,0,0
-154,92,0,0,0,0,0,0,0,0,0,-1,1070,932,0,0
-147,92,0,0,0,0,0,0,0,0,0,-1,1077,932,0,0
-140,92,0,0,0,0,0,0,0,0,0,-1,1084,932,0,0
-133,92,0,0,0,0,0,0,0,0,0,-1,1091,932,0,0
-126,92,0,0,0,0,0,0,0,0,0,-1,1098,932,0,0
-119,92,0,0,0,0,0,0,0,0,0,-1,1105,932,0,0
-112,92,0,0,0,0,0,0,0,0,0,-1,1112,932,0,0
-105,92,0,0,0,0,0,0,0,0,0,-1,1119,932,0,0
-98,92,0,0,0,0,0,0,0,0,0,-1,1126,932,0,0
-91,92,0,0,0,0,0,0,0,0,0,-1,1133,932,0,0
-84,92,0,0,0,0,0,0,0,0,0,-1,1140,932,0,0
-77,92,0,0,0,0,0,0,0,0,0,-1,1147,932,0,0
-70,92,0,0,0,0,0,0,0,0,0,-1,1154,932,0,0
-63,92,0,0,0,0,0,0,0,0,0,-1,1161,932,0,0
-56,92,0,0,0,0,0,0,0,0,0,-1,1168,932,0,0
-49,92,0,0,0,0,0,0,0,0,0,-1,1175,932,0,0
-42,92,0,0,0,0,0,0,0,0,0,-1,1182,932,0,0
-35,92,0,0,0,0,0,0,0,0,0,-1,1189,932,0,0
-28,92,0,0,0,0,0,0,0,0,0,-1,1196,932,0,0
-21,92,0,0,0,0,0,0,0,0,0,-1,1203,932,0,0
-14,92,0,0,0,0,0,0,0,0,0,-1,1210,932,0,0
-7,92,0,0,0,0,0,0,0,0,0,-1,1217,932,0,0
0,92,0,0,0,0,0,0,0,0,0,-1,1224,932,0,0
7,92,0,0,0,0,0,0,0,0,0,-1,1231,932,0,0
14,92,0,0,0,0,0,0,0,0,0,-1,1238,932,0,0
21,92,0,0,0,0,0,0,0,0,0,-1,1245,932,0,0
28,92,0,0,0,0,0,0,0,0,0,-1,1252,932,0,0
35,92,0,0,0,0,0,0,0,0,0,-1,1259,932,0,0
42,92,0,0,0,0,0,0,0,0,0,-1,1266,932,0,0
49,92,0,0,0,0,0,0,0,0,0,-1,1273,932,0,0
56,92,0,0,0,0,0,0,0,0,0,-1,1280,932,0,0
63,92,0,0,0,0,0,0,0,0,0,-1,1287,932,0,0
70,92,0,0,0,0,0,0,0,0,0,-1,1294,932,0,0
77,92,0,0,0,0,0,0,0,0,0,-1,1301,932,0,0
84,92,0,0,0,0,0,0,0,0,0,-1,1308,932,0,0
91,92,0,0,0,0,0,0,0,0,0,-1,1315,932,0,0
98,92,0,0,0,0,0,0,0,0,0,-1,1322,932,0,0
105,92,0,0,0,0,0,0,0,0,0,-1,1329,932,0,0
112,92,0,0,0,0,0,0,0,0,0,-1,1336,932,0,0
119,92,0,0,0,0,0,0,0,0,0,-1,1343,932,0,0
126,92,0,0,0,0,0,0,0,0,0,-1,1350,932,0,0
133,92,0,0,0,0,0,0,0,0,0,-1,1357,932,0,0
140,92,0,0,0,0,0,0,0,0,0,-1,1364,932,0,0
147,92,0,0,0,0,0,0,0,0,0,-1,1371,932,0,0
154,92,0,0,0,0,0,0,0,0,0,-1,1378,932,0,0
161,92,0,0,0,0,0,0,0,0,0,-1,1385,932,0,0
168,92,0,0,0,0,0,0,0,0,0,-1,1392,932,0,0
175,92,0,0,0,0,0,0,0,0,0,-1,1399,932,0,0
182,92,0,0,0,0,0,0,0,0,0,-1,1406,932,0,0
189,92,0,0,0,0,0,0,0,0,0,-1,1413,932,0,0
196,92,0,0,0,0,0,0,0,0,0,-1,1420,932,0,0
203,92,0,0,0,0,0,0,0,0,0,-1,1427,932,0,0
210,92,0,0,0,0,0,0,0,0,0,-1,1434,932,0,0
217,92,0,0,0,0,0,0,0,0,0,-1,1441,932,0,0
224,92,0,0,0,0,0,0,0,0,0,-1,1448,932,0,0
231,92,0,0,0,0,0,0,0,0,0,-1,1455,932,0,0
238,92,0,0,0,0,0,0,0,0,0,-1,1462,932,0,0
245,92,0,0,0,0,0,0,0,0,0,-1,1469,932,0,0
252,92,0,0,0,0,0,0,0,0,0,-1,1476,932,0,0
259,92,0,0,0,0,0,0,0,0,0,-1,1483,932,0,0
266,92,0,0,0,0,0,0,0,0,0,-1,1490,932,0,0
273,92,0,0,0,0,0,0,0,0,0,-1,1497,932,0,0
280,92,0,0,0,0,0,0,0,0,0,-1,1504,932,0,0
287,92,0,0,0,0,0,0,0,0,0,-1,1511,932,0,0
294,92,0,0,0,0,0,0,0,0,0,-1,1518,932,0,0
301,92,0,0,0,0,0,0,0,0,0,-1,1525,932,0,0
308,92,0,0,0,0,0,0,0,0,0,-1,1532,932,0,0
315,92,0,0,0,0,0,0,0,0,0,-1,1539,932,0,0
322,92,0,0,0,0,0,0,0,0,0,-1,1546,932,0,0
329,92,0,0,0,0,0,0,0,0,0,-1,1553,932,0,0
336,92,0,0,0,0,0,0,0,0,0,-1,1560,932,0,0
343,92,0,0,0,0,0,0,0,0,0,-1,1567,932,0,0
350,92,0,0,0,0,0,0,0,0,0,-1,1574,932,0,0
357,92,0,0,0,0,0,0,0,0,0,-1,1581,932,0,0
364,92,0,0,0,0,0,0,0,0,0,-1,1588,932,0,0
371,92,0,0,0,0,0,0,0,0,0,-1,1595,932,0,0
378,92,0,0,0,0,0,0,0,0,0,-1,1602,932,0,0
385,92,0,0,0,0,0,0,0,0,0,-1,1609,932,0,0
392,92,0,0,0,0,0,0,0,0,0,-1,1616,932,0,0
399,92,0,0,0,0,0,0,0,0,0,-1,1623,932,0,0
406,92,0,0,0,0,0,0,0,0,0,-1,1630,932,0,0
413,92,0,0,0,0,0,0,0,0,0,-1,1637,932,0,0
420,92,0,0,0,0,0,0,0,0,0,-1,1644,932,0,0
427,92,0,0,0,0,0,0,0,0,0,-1,1651,932,0,0
434,92,0,0,0,0,0,0,0,0,0,-1,1658,932,0,0
441,92,0,0,0,0,0,0,0,0,0,-1,1665,932,0,0
448,92,0,0,0,0,0,0,0,0,0,-1,1672,932,0,0
455,92,0,0,0,0,0,0,0,0,0,-1,1679,932,0,0
462,92,0,0,0,0,0,0,0,0,0,-1,1686,932,0,0
469,92,0,0,0,0,0,0,0,0,0,-1,1693,932,0,0
476,92,0,0,0,0,0,0,0,0,0,-1,1700,932,0,0
483,92,0,0,0,0,0,0,0,0,0,-1,1707,932,0,0
490,92,0,0,0,0,0,0,0,0,0,-1,1714,932,0,0
497,92,0,0,0,0,0,0,0,0,0,-1,1721,932,0,0
504,92,0,0,0,0,0,0,0,0,0,-1,1728,932,0,0
511,92,0,0,0,0,0,0,0,0,0,-1,1735,932,0,0
518,92,0,0,0,0,0,0,0,0,0,-1,1742,932,0,0
525,92,0,0,0,0,0,0,0,0,0,-1,1749,932,0,0
532,92,0,0,0,0,0,0,0,0,0,-1,1756,932,0,0
539,92,0,0,0,0,0,0,0,0,0,-1,1763,932,0,0
546,92,0,0,0,0,0,0,0,0,0,-1,1770,932,0,0
553,92,0,0,0,0,0,0,0,0,0,-1,1777,932,0,0
560,92,0,0,0,0,0,0,0,0,0,-1,1784,932,0,0
567,92,0,0,0,0,0,0,0,0,0,-1,1791,932,0,0
574,92,0,0,0,0,0,0,0,0,0,-1,1798,932,0,0
581,92,0,0,0,0,0,0,0,0,0,-1,1805,932,0,0
588,92,0,0,0,0,0,0,0,0,0,-1,1812,932,0,0
595,92,0,0,0,0,0,0,0,0,0,-1,1819,932,0,0
602,92,0,0,0,0,0,0,0,0,0,-1,1826,932,0,0
609,92,0,0,0,0,0,0,0,0,0,-1,1833,932,0,0
616,92,0,0,0,0,0,0,0,0,0,-1,1840,932,0,0
623,92,0,0,0,0,0,0,0,0,0,-1,1847,932,0,0
630,92,0,0,0,0,0,0,0,0,0,-1,1854,932,0,0
637,92,54.77,2.69891,0.0012072,0.00401804,-0.00586011,0.00863891,-0.00341366,-0.90309,0.00717323,0.0492413,1861,932,54.77,-2.6989
644,92,54.7903,2.61469,0.00112455,0.00369283,-0.00443778,0.00702853,-0.00221115,-0.926234,0.00557098,0.0399064,1868,932,54.7902,-2.61471
651,92,54.954,2.60895,0.000782622,0.0032887,-0.00313101,0.0054081,-0.00133678,-0.975739,0.00412386,0.0391048,1875,932,54.9539,-2.60893
658,92,55.1056,2.69617,0.000333221,0.00300749,-0.00188379,0.00398046,-0.000639748,-1.09404,0.00289058,0.0423815,1882,932,55.1055,-2.69614
665,92,54.9677,2.81219,-2.38093e-05,0.00286606,-0.000730563,0.00304025,-0.000197997,-1.33674,0.00209595,0.0422871,1889,932,54.9676,-2.81219
672,92,54.8785,2.79327,-0.000500979,0.00256015,0.000162068,0.00256871,-0.000509535,1.51805,0.00190517,0.0425585,1896,932,54.8785,-2.79327
679,92,54.9082,2.88171,-0.000850308,0.00212002,0.000741363,0.00229478,-0.00102506,1.3393,0.00196288,0.0404919,1903,932,54.9083,-2.88172
686,92,54.8787,2.8526,-0.000947203,0.00172461,0.000944024,0.0020245,-0.00124709,1.26321,0.00190655,0.0309597,1910,932,54.8786,-2.8526
693,92,54.8481,2.98456,-0.0010115,0.00139706,0.001082,0.00181173,-0.00142617,1.20481,0.00187382,0.0234525,1917,932,54.8481,-2.98453
700,92,54.8109,3.00415,0,0,0,0,0,0,0,-1,1924,932,54.8109,-3.00415
707,92,32.9893,3.26874,0,0,0,0,0,0,0,-1,1931,932,32.9893,-3.26874
714,92,51.3733,4.12427,0,0,0,0,0,0,0,-1,1938,932,51.3733,-4.12427
721,92,51.2179,4.76141,-0.00280612,0.00186123,-3.65558e-05,0.00186151,-0.0028064,-1.56296,0.00271336,0.0334183,1945,932,51.2179,-4.76144
728,92,51.0413,5.29199,-0.00318974,0.00247934,-0.000523811,0.00252733,-0.00323774,-1.47943,0.00333688,0.0256236,1952,932,51.0413,-5.29197
735,92,51.007,5.74152,-0.00362873,0.00320254,-0.00115148,0.00339141,-0.0038176,-1.40822,0.00416455,0.0196853,1959,932,51.007,-5.74151
742,92,51.0367,6.18402,-0.00424572,0.00457622,-0.00202181,0.0050175,-0.004687,-1.3559,0.00560398,0.019849,1966,932,51.0367,-6.18401
749,92,50.9474,6.66608,-0.00490613,0.00670128,-0.0030583,0.00745778,-0.00566262,-1.32831,0.00759866,0.0182951,1973,932,50.9474,-6.66606
756,92,50.8591,7.11151,-0.00535455,0.00941045,-0.00408522,0.0104654,-0.00640949,-1.31808,0.00983607,0.0157074,1980,932,50.8592,-7.11153
763,92,50.8418,7.56592,-0.00540961,0.0125329,-0.00504094,0.0138522,-0.00672886,-1.31483,0.0121174,0.0171165,1987,932,50.8418,-7.56592
770,92,50.7737,8.15314,-0.00492374,0.0158209,-0.00607588,0.0174695,-0.00657229,-1.30585,0.0143479,0.0255713,1994,932,50.7736,-8.15312
777,92,50.8071,8.53699,-0.00407744,0.0191439,-0.00719586,0.021193,-0.00612649,-1.29338,0.0165531,0.0433903,2001,932,50.8071,-8.537
784,92,50.7537,8.98102,-0.00181546,0.0222256,-0.00859046,0.0249797,-0.00456954,-1.26055,0.0183668,0.0491019,2008,932,50.7536,-8.98099
791,92,50.6963,9.56732,0,0,0,0,0,0,0,-1,2015,932,50.6962,-9.56731
798,92,49.969,10.3243,0,0,0,0,0,0,0,-1,2022,932,49.969,-10.3243
805,92,0,0,0,0,0,0,0,0,0,-1,2029,932,0,0
812,92,0,0,0,0,0,0,0,0,0,-1,2036,932,0,0
-700,85,0,0,0,0,0,0,0,0,0,-1,524,939,0,0
-693,85,0,0,0,0,0,0,0,0,0,-1,531,939,0,0
-686,85,-38.1099,4.75745,0.0123789,-0.0586581,0.0791295,0.0635959,-0.109875,0.574443,0.101335,0.0425572,538,939,-38.1099,-4.75746
-679,85,-37.7424,5.43646,8.42807e-05,-0.0345069,0.0666085,0.0516061,-0.0860287,0.658373,0.0802876,0.0420928,545,939,-37.7424,-5.43648
-672,85,-37.1941,5.31427,-0.00868633,-0.0173715,0.0545757,0.0417193,-0.0677771,0.745697,0.0638117,0.0428624,552,939,-37.1941,-5.31429
-665,85,-37.6275,6.58167,-0.0141597,-0.00541183,0.0437884,0.0342205,-0.0537921,0.835177,0.0512312,0.0468532,559,939,-37.6275,-6.58167
-658,85,-37.9443,6.17981,-0.0170407,0.00263325,0.0343652,0.0285417,-0.0429491,0.924795,0.0415537,0.0484602,566,939,-37.9443,-6.17982
-651,85,-38.1794,5.77032,-0.0178731,0.00759523,0.0263366,0.0241147,-0.0343926,1.01059,0.0339525,0.0449372,573,939,-38.1794,-5.77034
-644,85,-38.2242,5.75385,0,0,0,0,0,0,0,-1,580,939,-38.2243,-5.75385
-637,85,-38.653,5.10846,-0.0150385,0.0106494,0.0145956,0.0172476,-0.0216368,1.14622,0.0224975,0.0199763,587,939,-38.653,-5.10843
-630,85,-38.7621,4.71539,-0.0132977,0.011119,0.0101068,0.0147596,-0.0169384,1.22505,0.0183153,0.0133982,594,939,-38.7621,-4.71538
-623,85,-38.8428,4.3324,-0.0111794,0.0092997,0.00656176,0.0112218,-0.0131015,1.28585,0.014057,0.0106111,601,939,-38.8428,-4.33238
-616,85,-38.8516,3.94214,-0.00906292,0.00688775,0.00324412,0.00752231,-0.00969748,1.37763,0.00996826,0.0107257,608,939,-38.8516,-3.94215
-609,85,-38.8884,3.51685,-0.0075818,0.00414815,0.00158735,0.00435916,-0.00779281,1.43864,0.00710869,0.0128728,615,939,-38.8885,-3.51685
-602,85,-38.8804,3.08112,-0.00686245,0.00278843,0.000915847,0.00287457,-0.00694859,1.47701,0.00583173,0.0171409,622,939,-38.8804,-3.08114
-595,85,-38.7929,2.65784,-0.00648982,0.00190672,0.000386692,0.00192449,-0.0065076,1.52487,0.00510234,0.0202537,629,939,-38.7929,-2.65784
-588,85,-38.7922,2.25604,-0.00618599,0.00129165,0.000342337,0.00130729,-0.00620163,1.52514,0.00463209,0.0214029,636,939,-38.7922,-2.25603
-581,85,-39.1071,1.87128,-0.0059605,0.00115479,0.000186895,0.00115969,-0.00596541,1.54455,0.00441457,0.0326702,643,939,-39.1071,-1.8713
-574,85,-39.8303,1.40363,0,0,0,0,0,0,0,-1,650,939,-39.8303,-1.40361
-567,85,-41.0853,0.896057,0,0,0,0,0,0,0,-1,657,939,-41.0853,-0.896056
-560,85,-41.0258,0.856018,-0.00577352,0.00187308,-0.000706711,0.00193785,-0.00583829,-1.47941,0.00467402,0.0375111,664,939,-41.0257,-0.856048
-553,85,-41.3315,0.872131,-0.00540829,0.00251408,-0.000875246,0.00260962,-0.00550384,-1.46207,0.00478262,0.042382,671,939,-41.3316,-0.872122
-546,85,-41.3972,1.03333,-0.00447661,0.00331992,-0.000940337,0.00343173,-0.00458842,-1.45245,0.00464646,0.0410851,678,939,-41.3972,-1.03334
-539,85,-41.2756,1.14349,-0.00268123,0.0041871,-0.000872862,0.00429629,-0.00279042,-1.44635,0.00412219,0.039016,685,939,-41.2755,-1.14348
-532,85,-41.1743,1.0589,0.000111222,0.00485699,-0.000732946,0.00496761,6.02566e-07,-1.421,0.00331154,0.041091,692,939,-41.1743,-1.05893
-525,85,-41.1083,1.07477,0.00271033,0.00567361,-0.00108726,0.00602974,0.00235419,-1.25426,0.00350902,0.039569,699,939,-41.1083,-1.07478
-518,85,-41.0626,1.15723,0.00358831,0.00736737,-0.00174801,0.00805191,0.00290377,-1.19754,0.00470859,0.0359967,706,939,-41.0626,-1.15724
-511,85,0,0,0,0,0,0,0,0,0,-1,713,939,0,0
-504,85,0,0,0,0,0,0,0,0,0,-1,720,939,0,0
-497,85,0,0,0,0,0,0,0,0,0,-1,727,939,0,0
-490,85,0,0,0,0,0,0,0,0,0,-1,734,939,0,0
-483,85,0,0,0,0,0,0,0,0,0,-1,741,939,0,0
-476,85,0,0,0,0,0,0,0,0,0,-1,748,939,0,0
-469,85,0,0,0,0,0,0,0,0,0,-1,755,939,0,0
-462,85,0,0,0,0,0,0,0,0,0,-1,762,939,0,0
-455,85,0,0,0,0,0,0,0,0,0,-1,769,939,0,0
-448,85,0,0,0,0,0,0,0,0,0,-1,776,939,0,0
-441,85,0,0,0,0,0,0,0,0,0,-1,783,939,0,0
-434,85,0,0,0,0,0,0,0,0,0,-1,790,939,0,0
-427,85,0,0,0,0,0,0,0,0,0,-1,797,939,0,0
-420,85,0,0,0,0,0,0,0,0,0,-1,804,939,0,0
-413,85,0,0,0,0,0,0,0,0,0,-1,811,939,0,0
-406,85,0,0,0,0,0,0,0,0,0,-1,818,939,0,0
-399,85,0,0,0,0,0,0,0,0,0,-1,825,939,0,0
-392,85,0,0,0,0,0,0,0,0,0,-1,832,939,0,0
-385,85,0,0,0,0,0,0,0,0,0,-1,839,939,0,0
-378,85,0,0,0,0,0,0,0,0,0,-1,846,939,0,0
-371,85,0,0,0,0,0,0,0,0,0,-1,853,939,0,0
-364,85,0,0,0,0,0,0,0,0,0,-1,860,939,0,0
-357,85,0,0,0,0,0,0,0,0,0,-1,867,939,0,0
-350,85,0,0,0,0,0,0,0,0,0,-1,874,939,0,0
-343,85,0,0,0,0,0,0,0,0,0,-1,881,939,0,0
-336,85,0,0,0,0,0,0,0,0,0,-1,888,939,0,0
-329,85,0,0,0,0,0,0,0,0,0,-1,895,939,0,0
-322,85,0,0,0,0,0,0,0,0,0,-1,902,939,0,0
-315,85,0,0,0,0,0,0,0,0,0,-1,909,939,0,0
-308,85,0,0,0,0,0,0,0,0,0,-1,916,939,0,0
-301,85,0,0,0,0,0,0,0,0,0,-1,923,939,0,0
-294,85,0,0,0,0,0,0,0,0,0,-1,930,939,0,0
-287,85,0,0,0,0,0,0,0,0,0,-1,937,939,0,0
-280,85,0,0,0,0,0,0,0,0,0,-1,944,939,0,0
-273,85,0,0,0,0,0,0,0,0,0,-1,951,939,0,0
-266,85,0,0,0,0,0,0,0,0,0,-1,958,939,0,0
-259,85,0,0,0,0,0,0,0,0,0,-1,965,939,0,0
-252,85,0,0,0,0,0,0,0,0,0,-1,972,939,0,0
-245,85,0,0,0,0,0,0,0,0,0,-1,979,939,0,0
-238,85,0,0,0,0,0,0,0,0,0,-1,986,939,0,0
-231,85,0,0,0,0,0,0,0,0,0,-1,993,939,0,0
-224,85,0,0,0,0,0,0,0,0,0,-1,1000,939,0,0
-217,85,0,0,0,0,0,0,0,0,0,-1,1007,939,0,0
-210,85,0,0,0,0,0,0,0,0,0,-1,1014,939,0,0
-203,85,0,0,0,0,0,0,0,0,0,-1,1021,939,0,0
-196,85,0,0,0,0,0,0,0,0,0,-1,1028,939,0,0
-189,85,0,0,0,0,0,0,0,0,0,-1,1035,939,0,0
-182,85,0,0,0,0,0,0,0,0,0,-1,1042,939,0,0
-175,85,0,0,0,0,0,0,0,0,0,-1,1049,939,0,0
-168,85,0,0,0,0,0,0,0,0,0,-1,1056,939,0,0
-161,85,0,0,0,0,0,0,0,0,0,-1,1063,939,0,0
-154,85,0,0,0,0,0,0,0,0,0,-1,1070,939,0,0
-147,85,0,0,0,0,0,0,0,0,0,-1,1077,939,0,0
-140,85,0,0,0,0,0,0,0,0,0,-1,1084,939,0,0
-133,85,0,0,0,0,0,0,0,0,0,-1,1091,939,0,0
-126,85,0,0,0,0,0,0,0,0,0,-1,1098,939,0,0
-119,85,0,0,0,0,0,0,0,0,0,-1,1105,939,0,0
-112,85,0,0,0,0,0,0,0,0,0,-1,1112,939,0,0
-105,85,0,0,0,0,0,0,0,0,0,-1,1119,939,0,0
-98,85,0,0,0,0,0,0,0,0,0,-1,1126,939,0,0
-91,85,0,0,0,0,0,0,0,0,0,-1,1133,939,0,0
-84,85,0,0,0,0,0,0,0,0,0,-1,1140,939,0,0
-77,85,0,0,0,0,0,0,0,0,0,-1,1147,939,0,0
-70,85,0,0,0,0,0,0,0,0,0,-1,1154,939,0,0
-63,85,0,0,0,0,0,0,0,0,0,-1,1161,939,0,0
-56,85,0,0,0,0,0,0,0,0,0,-1,1168,939,0,0
-49,85,0,0,0,0,0,0,0,0,0,-1,1175,939,0,0
-42,85,0,0,0,0,0,0,0,0,0,-1,1182,939,0,0
-35,85,0,0,0,0,0,0,0,0,0,-1,1189,939,0,0
-28,85,0,0,0,0,0,0,0,0,0,-1,1196,939,0,0
-21,85,0,0,0,0,0,0,0,0,0,-1,1203,939,0,0
-14,85,0,0,0,0,0,0,0,0,0,-1,1210,939,0,0
-7,85,0,0,0,0,0,0,0,0,0,-1,1217,939,0,0
0,85,0,0,0,0,0,0,0,0,0,-1,1224,939,0,0
7,85,0,0,0,0,0,0,0,0,0,-1,1231,939,0,0
14,85,0,0,0,0,0,0,0,0,0,-1,1238,939,0,0
21,85,0,0,0,0,0,0,0,0,0,-1,1245,939,0,0
28,85,0,0,0,0,0,0,0,0,0,-1,1252,939,0,0
35,85,0,0,0,0,0,0,0,0,0,-1,1259,939,0,0
42,85,0,0,0,0,0,0,0,0,0,-1,1266,939,0,0
49,85,0,0,0,0,0,0,0,0,0,-1,1273,939,0,0
56,85,0,0,0,0,0,0,0,0,0,-1,1280,939,0,0
63,85,0,0,0,0,0,0,0,0,0,-1,1287,939,0,0
70,85,0,0,0,0,0,0,0,0,0,-1,1294,939,0,0
77,85,0,0,0,0,0,0,0,0,0,-1,1301,939,0,0
84,85,0,0,0,0,0,0,0,0,0,-1,1308,939,0,0
91,85,0,0,0,0,0,0,0,0,0,-1,1315,939,0,0
98,85,0,0,0,0,0,0,0,0,0,-1,1322,939,0,0
105,85,0,0,0,0,0,0,0,0,0,-1,1329,939,0,0
112,85,0,0,0,0,0,0,0,0,0,-1,1336,939,0,0
119,85,0,0,0,0,0,0,0,0,0,-1,1343,939,0,0
126,85,0,0,0,0,0,0,0,0,0,-1,1350,939,0,0
133,85,0,0,0,0,0,0,0,0,0,-1,1357,939,0,0
140,85,0,0,0,0,0,0,0,0,0,-1,1364,939,0,0
147,85,0,0,0,0,0,0,0,0,0,-1,1371,939,0,0
154,85,0,0,0,0,0,0,0,0,0,-1,1378,939,0,0
161,85,0,0,0,0,0,0,0,0,0,-1,1385,939,0,0
168,85,0,0,0,0,0,0,0,0,0,-1,1392,939,0,0
175,85,0,0,0,0,0,0,0,0,0,-1,1399,939,0,0
182,85,0,0,0,0,0,0,0,0,0,-1,1406,939,0,0
189,85,0,0,0,0,0,0,0,0,0,-1,1413,939,0,0
196,85,0,0,0,0,0,0,0,0,0,-1,1420,939,0,0
203,85,0,0,0,0,0,0,0,0,0,-1,1427,939,0,0
210,85,0,0,0,0,0,0,0,0,0,-1,1434,939,0,0
217,85,0,0,0,0,0,0,0,0,0,-1,1441,939,0,0
224,85,0,0,0,0,0,0,0,0,0,-1,1448,939,0,0
231,85,0,0,0,0,0,0,0,0,0,-1,1455,939,0,0
238,85,0,0,0,0,0,0,0,0,0,-1,1462,939,0,0
245,85,0,0,0,0,0,0,0,0,0,-1,1469,939,0,0
252,85,0,0,0,0,0,0,0,0,0,-1,1476,939,0,0
259,85,0,0,0,0,0,0,0,0,0,-1,1483,939,0,0
266,85,0,0,0,0,0,0,0,0,0,-1,1490,939,0,0
273,85,0,0,0,0,0,0,0,0,0,-1,1497,939,0,0
280,85,0,0,0,0,0,0,0,0,0,-1,1504,939,0,0
287,85,0,0,0,0,0,0,0,0,0,-1,1511,939,0,0
294,85,0,0,0,0,0,0,0,0,0,-1,1518,939,0,0
301,85,0,0,0,0,0,0,0,0,0,-1,1525,939,0,0
308,85,0,0,0,0,0,0,0,0,0,-1,1532,939,0,0
315,85,0,0,0,0,0,0,0,0,0,-1,1539,939,0,0
322,85,0,0,0,0,0,0,0,0,0,-1,1546,939,0,0
329,85,0,0,0,0,0,0,0,0,0,-1,1553,939,0,0
336,85,0,0,0,0,0,0,0,0,0,-1,1560,939,0,0
343,85,0,0,0,0,0,0,0,0,0,-1,1567,939,0,0
350,85,0,0,0,0,0,0,0,0,0,-1,1574,939,0,0
357,85,0,0,0,0,0,0,0,0,0,-1,1581,939,0,0
364,85,0,0,0,0,0,0,0,0,0,-1,1588,939,0,0
371,85,0,0,0,0,0,0,0,0,0,-1,1595,939,0,0
378,85,0,0,0,0,0,0,0,0,0,-1,1602,939,0,0
385,85,0,0,0,0,0,0,0,0,0,-1,1609,939,0,0
392,85,0,0,0,0,0,0,0,0,0,-1,1616,939,0,0
399,85,0,0,0,0,0,0,0,0,0,-1,1623,939,0,0
406,85,0,0,0,0,0,0,0,0,0,-1,1630,939,0,0
413,85,0,0,0,0,0,0,0,0,0,-1,1637,939,0,0
420,85,0,0,0,0,0,0,0,0,0,-1,1644,939,0,0
427,85,0,0,0,0,0,0,0,0,0,-1,1651,939,0,0
434,85,0,0,0,0,0,0,0,0,0,-1,1658,939,0,0
441,85,0,0,0,0,0,0,0,0,0,-1,1665,939,0,0
448,85,0,0,0,0,0,0,0,0,0,-1,1672,939,0,0
455,85,0,0,0,0,0,0,0,0,0,-1,1679,939,0,0
462,85,0,0,0,0,0,0,0,0,0,-1,1686,939,0,0
469,85,0,0,0,0,0,0,0,0,0,-1,1693,939,0,0
476,85,0,0,0,0,0,0,0,0,0,-1,1700,939,0,0
483,85,0,0,0,0,0,0,0,0,0,-1,1707,939,0,0
490,85,0,0,0,0,0,0,0,0,0,-1,1714,939,0,0
497,85,0,0,0,0,0,0,0,0,0,-1,1721,939,0,0
504,85,0,0,0,0,0,0,0,0,0,-1,1728,939,0,0
511,85,0,0,0,0,0,0,0,0,0,-1,1735,939,0,0
518,85,0,0,0,0,0,0,0,0,0,-1,1742,939,0,0
525,85,0,0,0,0,0,0,0,0,0,-1,1749,939,0,0
532,85,0,0,0,0,0,0,0,0,0,-1,1756,939,0,0
539,85,0,0,0,0,0,0,0,0,0,-1,1763,939,0,0
546,85,0,0,0,0,0,0,0,0,0,-1,1770,939,0,0
553,85,0,0,0,0,0,0,0,0,0,-1,1777,939,0,0
560,85,0,0,0,0,0,0,0,0,0,-1,1784,939,0,0
567,85,0,0,0,0,0,0,0,0,0,-1,1791,939,0,0
574,85,0,0,0,0,0,0,0,0,0,-1,1798,939,0,0
581,85,0,0,0,0,0,0,0,0,0,-1,1805,939,0,0
588,85,0,0,0,0,0,0,0,0,0,-1,1812,939,0,0
595,85,0,0,0,0,0,0,0,0,0,-1,1819,939,0,0
602,85,0,0,0,0,0,0,0,0,0,-1,1826,939,0,0
609,85,0,0,0,0,0,0,0,0,0,-1,1833,939,0,0
616,85,0,0,0,0,0,0,0,0,0,-1,1840,939,0,0
623,85,0,0,0,0,0,0,0,0,0,-1,1847,939,0,0
630,85,0,0,0,0,0,0,0,0,0,-1,1854,939,0,0
637,85,54.8248,2.84113,0.000599597,0.0035304,-0.00578215,0.00802995,-0.00389995,-0.909503,0.00702396,0.0494177,1861,939,54.8248,-2.84115
644,85,54.7775,2.64508,0.000699683,0.00310741,-0.00424645,0.00631735,-0.00251026,-0.923523,0.00525223,0.0417073,1868,939,54.7774,-2.64507
651,85,54.9225,2.5954,0.000490999,0.00269001,-0.0028858,0.00467867,-0.00149766,-0.96741,0.00372022,0.0412857,1875,939,54.9225,-2.59541
658,85,55.0774,2.69708,0.000157407,0.00245165,-0.00162099,0.00329036,-0.000681296,-1.09332,0.00245242,0.0417609,1882,939,55.0774,-2.69709
665,85,54.8796,2.85461,-0.000127832,0.00231396,-0.000459657,0.00239762,-0.000211494,-1.39076,0.00167337,0.042052,1889,939,54.8797,-2.8546
672,85,54.967,2.81757,-0.000602457,0.00200218,0.000465532,0.00208288,-0.000683162,1.39914,0.00166374,0.0433023,1896,939,54.9671,-2.81759
679,85,55.1155,2.80487,-0.000976206,0.0015207,0.00106941,0.00191611,-0.00137161,1.21664,0.00190683,0.0416947,1903,939,55.1155,-2.80489
686,85,54.9469,2.86377,-0.00108046,0.00105475,0.0012712,0.00164718,-0.00167289,1.13468,0.00191686,0.0342715,1910,939,54.9469,-2.86379
693,85,54.8212,2.94531,-0.00113418,0.000676305,0.0013787,0.00142039,-0.00187826,1.0759,0.00191058,0.0254996,1917,939,54.8211,-2.94534
700,85,54.8508,2.9339,-0.00149085,0.000538814,0.00134588,0.00120959,-0.00216163,1.10844,0.00197208,0.0400274,1924,939,54.8508,-2.9339
707,85,55.0055,2.93622,0,0,0,0,0,0,0,-1,1931,939,55.0055,-2.93624
714,85,51.8657,4.229,0,0,0,0,0,0,0,-1,1938,939,51.8657,-4.22902
721,85,51.6884,4.8266,-0.00303535,0.00131412,0.000127884,0.00131788,-0.00303911,1.54143,0.00258011,0.0340901,1945,939,51.6884,-4.82662
728,85,51.4926,5.4549,-0.00341087,0.00202828,-0.000354709,0.00205132,-0.00343391,-1.50595,0.00320025,0.0289244,1952,939,51.4925,-5.45492
735,85,51.5216,5.80316,-0.0037862,0.00283935,-0.00098198,0.00298183,-0.00392868,-1.42671,0.00400225,0.026164,1959,939,51.5216,-5.80316
742,85,51.588,6.21814,-0.00436641,0.00429666,-0.00185539,0.00467731,-0.00474705,-1.36845,0.00544121,0.0187347,1966,939,51.5881,-6.21813
749,85,51.48,6.67096,-0.00500363,0.0065125,-0.00288342,0.00719411,-0.00568525,-1.33867,0.00745289,0.0152111,1973,939,51.48,-6.67093
756,85,51.3412,7.07343,-0.00544542,0.00936422,-0.00391934,0.0103375,-0.0064187,-1.32739,0.00976199,0.0139554,1980,939,51.3412,-7.07344
763,85,51.3269,7.50037,-0.00550934,0.0126814,-0.00488685,0.0139111,-0.00673904,-1.32428,0.0121597,0.0142158,1987,939,51.3269,-7.50036
770,85,51.2728,8.00244,-0.00509208,0.016128,-0.00592303,0.0176693,-0.00663338,-1.31622,0.0145054,0.0204911,1994,939,51.2729,-8.00247
777,85,51.2009,8.61395,-0.00437928,0.0196225,-0.00706204,0.0215462,-0.00630296,-1.30485,0.0168624,0.0405733,2001,939,51.201,-8.61397
784,85,51.7278,9.26343,-0.00243434,0.0229158,-0.00845534,0.0254772,-0.00499574,-1.27665,0.0188718,0.0475599,2008,939,51.7278,-9.2634
791,85,52.0283,9.99738,0,0,0,0,0,0,0,-1,2015,939,52.0282,-9.99737
798,85,50.0857,8.06873,0,0,0,0,0,0,0,-1,2022,939,50.0858,-8.06875
805,85,49.3545,7.11475,0,0,0,0,0,0,0,-1,2029,939,49.3545,-7.11474
812,85,0,0,0,0,0,0,0,0,0,-1,2036,939,0,0
-700,78,0,0,0,0,0,0,0,0,0,-1,524,946,0,0
-693,78,0,0,0,0,0,0,0,0,0,-1,531,946,0,0
-686,78,-39.0673,6.16583,-0.00458406,-0.0421857,0.0664549,0.0456784,-0.0924481,0.647545,0.0812569,0.0457572,538,946,-39.0673,-6.16586
-679,78,-38.6734,5.89215,-0.0121189,-0.0223712,0.0579159,0.0408973,-0.0753874,0.741258,0.0681143,0.0486372,545,946,-38.6734,-5.89217
-672,78,-38.2176,5.68726,-0.0169881,-0.00864797,0.0490056,0.0363646,-0.0620007,0.827843,0.0574306,0.0474652,552,946,-38.2176,-5.68726
-665,78,-37.1558,6.23834,-0.01955,0.000725796,0.040482,0.03232,-0.0511442,0.90809,0.0485949,0.0458568,559,946,-37.1558,-6.23837
-658,78,-38.0618,6.15472,-0.0203074,0.00683863,0.0326551,0.0286292,-0.042098,0.982359,0.0410804,0.0493394,566,946,-38.0619,-6.15471
-651,78,-38.494,5.7179,-0.0196608,0.0103835,0.0257031,0.0251324,-0.0344097,1.04985,0.0345155,0.0470633,573,946,-38.494,-5.71789
-644,78,-38.8364,5.3526,-0.0179758,0.0118698,0.0197561,0.0217057,-0.0278116,1.10886,0.0286612,0.028301,580,946,-38.8364,-5.35261
-637,78,-39.1012,4.99469,-0.0151499,0.0117387,0.0150644,0.0184856,-0.0218968,1.14971,0.0233425,0.0179081,587,946,-39.1012,-4.99469
-630,78,-39.2484,4.63617,-0.0129373,0.0116603,0.0106189,0.0156102,-0.0168873,1.21468,0.0187673,0.0172143,594,946,-39.2483,-4.63619
-623,78,-39.2843,4.2583,-0.010655,0.00966031,0.00690254,0.0117837,-0.0127784,1.27237,0.0141848,0.0138618,601,946,-39.2843,-4.25829
-616,78,-39.3049,3.86938,-0.00862173,0.00712655,0.00331141,0.00779451,-0.00928969,1.37175,0.00987615,0.0123066,608,946,-39.3049,-3.86941
-609,78,-39.2888,3.50061,-0.00720205,0.0043471,0.00123535,0.00447776,-0.00733271,1.46542,0.00688487,0.0129888,615,946,-39.2888,-3.50062
-602,78,-39.3024,3.10468,-0.00642641,0.00292927,0.000258779,0.00293642,-0.00643356,1.54316,0.00553393,0.0169354,622,946,-39.3024,-3.10466
-595,78,-39.2297,2.67078,-0.00600777,0.00193139,-0.00052659,0.00196616,-0.00604254,-1.50485,0.00481935,0.0176098,629,946,-39.2296,-2.67077
-588,78,-39.2051,2.34094,-0.00574064,0.00124508,-0.00072757,0.00132005,-0.00581561,-1.46811,0.00438385,0.0148379,636,946,-39.2051,-2.34097
-581,78,-39.1491,1.93475,0,0,0,0,0,0,0,-1,643,946,-39.1491,-1.93473
-574,78,-40.2297,1.49524,-0.00553476,0.00112794,-0.00135194,0.00139181,-0.00579863,-1.37804,0.00440363,0.0414889,650,946,-40.2297,-1.49525
-567,78,-41.0917,0.970276,-0.00558087,0.00143435,-0.00163713,0.0017976,-0.00594412,-1.35245,0.00467851,0.0337724,657,946,-41.0917,-0.97027
-560,78,-41.0807,0.985229,-0.00549617,0.00193846,-0.00183008,0.00236453,-0.00592223,-1.34206,0.00492915,0.0338176,664,946,-41.0808,-0.985235
-553,78,-41.1913,0.956116,-0.00504133,0.00264165,-0.00187427,0.00307449,-0.00547418,-1.34384,0.00499998,0.044638,671,946,-41.1913,-0.956116
-546,78,-41.2576,1.07544,-0.00398321,0.00347594,-0.00175835,0.00386966,-0.00437693,-1.35052,0.00476417,0.0429231,678,946,-41.2576,-1.07544
-539,78,-41.0642,1.1864,-0.00209575,0.004308,-0.00145477,0.00462299,-0.00241074,-1.35756,0.00412734,0.0363584,685,946,-41.0642,-1.18641
-532,78,-40.9155,1.02161,0.000727537,0.00485007,-0.00114144,0.00514501,0.000432597,-1.31793,0.00329529,0.0376423,692,946,-40.9154,-1.02161
-525,78,-40.9354,0.860413,0.00334319,0.00563146,-0.00161911,0.00646989,0.00250476,-1.09298,0.00376698,0.0380311,699,946,-40.9354,-0.860432
-518,78,-41.0156,0.972046,0.00406225,0.00735692,-0.00235537,0.00858387,0.0028353,-1.09056,0.00505014,0.0386852,706,946,-41.0156,-0.972075
-511,78,0,0,0,0,0,0,0,0,0,-1,713,946,0,0
-504,78,0,0,0,0,0,0,0,0,0,-1,720,946,0,0
-497,78,0,0,0,0,0,0,0,0,0,-1,727,946,0,0
-490,78,0,0,0,0,0,0,0,0,0,-1,734,946,0,0
-483,78,0,0,0,0,0,0,0,0,0,-1,741,946,0,0
-476,78,0,0,0,0,0,0,0,0,0,-1,748,946,0,0
-469,78,0,0,0,0,0,0,0,0,0,-1,755,946,0,0
-462,78,0,0,0,0,0,0,0,0,0,-1,762,946,0,0
-455,78,0,0,0,0,0,0,0,0,0,-1,769,946,0,0
-448,78,0,0,0,0,0,0,0,0,0,-1,776,946,0,0
-441,78,0,0,0,0,0,0,0,0,0,-1,783,946,0,0
-434,78,0,0,0,0,0,0,0,0,0,-1,790,946,0,0
-427,78,0,0,0,0,0,0,0,0,0,-1,797,946,0,0
-420,78,0,0,0,0,0,0,0,0,0,-1,804,946,0,0
-413,78,0,0,0,0,0,0,0,0,0,-1,811,946,0,0
-406,78,0,0,0,0,0,0,0,0,0,-1,818,946,0,0
-399,78,0,0,0,0,0,0,0,0,0,-1,825,946,0,0
-392,78,0,0,0,0,0,0,0,0,0,-1,832,946,0,0
-385,78,0,0,0,0,0,0,0,0,0,-1,839,946,0,0
-378,78,0,0,0,0,0,0,0,0,0,-1,846,946,0,0
-371,78,0,0,0,0,0,0,0,0,0,-1,853,946,0,0
-364,78,0,0,0,0,0,0,0,0,0,-1,860,946,0,0
-357,78,0,0,0,0,0,0,0,0,0,-1,867,946,0,0
-350,78,0,0,0,0,0,0,0,0,0,-1,874,946,0,0
-343,78,0,0,0,0,0,0,0,0,0,-1,881,946,0,0
-336,78,0,0,0,0,0,0,0,0,0,-1,888,946,0,0
-329,78,0,0,0,0,0,0,0,0,0,-1,895,946,0,0
-322,78,0,0,0,0,0,0,0,0,0,-1,902,946,0,0
-315,78,0,0,0,0,0,0,0,0,0,-1,909,946,0,0
-308,78,0,0,0,0,0,0,0,0,0,-1,916,946,0,0
-301,78,0,0,0,0,0,0,0,0,0,-1,923,946,0,0
-294,78,0,0,0,0,0,0,0,0,0,-1,930,946,0,0
-287,78,0,0,0,0,0,0,0,0,0,-1,937,946,0,0
-280,78,0,0,0,0,0,0,0,0,0,-1,944,946,0,0
-273,78,0,0,0,0,0,0,0,0,0,-1,951,946,0,0
-266,78,0,0,0,0,0,0,0,0,0,-1,958,946,0,0
-259,78,0,0,0,0,0,0,0,0,0,-1,965,946,0,0
-252,78,0,0,0,0,0,0,0,0,0,-1,972,946,0,0
-245,78,0,0,0,0,0,0,0,0,0,-1,979,946,0,0
-238,78,0,0,0,0,0,0,0,0,0,-1,986,946,0,0
-231,78,0,0,0,0,0,0,0,0,0,-1,993,946,0,0
-224,78,0,0,0,0,0,0,0,0,0,-1,1000,946,0,0
-217,78,0,0,0,0,0,0,0,0,0,-1,1007,946,0,0
-210,78,0,0,0,0,0,0,0,0,0,-1,1014,946,0,0
-203,78,0,0,0,0,0,0,0,0,0,-1,1021,946,0,0
-196,78,0,0,0,0,0,0,0,0,0,-1,1028,946,0,0
-189,78,0,0,0,0,0,0,0,0,0,-1,1035,946,0,0
-182,78,0,0,0,0,0,0,0,0,0,-1,1042,946,0,0
-175,78,0,0,0,0,0,0,0,0,0,-1,1049,946,0,0
-168,78,0,0,0,0,0,0,0,0,0,-1,1056,946,0,0
-161,78,0,0,0,0,0,0,0,0,0,-1,1063,946,0,0
-154,78,0,0,0,0,0,0,0,0,0,-1,1070,946,0,0
-147,78,0,0,0,0,0,0,0,0,0,-1,1077,946,0,0
-140,78,0,0,0,0,0,0,0,0,0,-1,1084,946,0,0
-133,78,0,0,0,0,0,0,0,0,0,-1,1091,946,0,0
-126,78,0,0,0,0,0,0,0,0,0,-1,1098,946,0,0
-119,78,0,0,0,0,0,0,0,0,0,-1,1105,946,0,0
-112,78,0,0,0,0,0,0,0,0,0,-1,1112,946,0,0
-105,78,0,0,0,0,0,0,0,0,0,-1,1119,946,0,0
-98,78,0,0,0,0,0,0,0,0,0,-1,1126,946,0,0
-91,78,0,0,0,0,0,0,0,0,0,-1,1133,946,0,0
-84,78,0,0,0,0,0,0,0,0,0,-1,1140,946,0,0
-77,78,0,0,0,0,0,0,0,0,0,-1,1147,946,0,0
-70,78,0,0,0,0,0,0,0,0,0,-1,1154,946,0,0
-63,78,0,0,0,0,0,0,0,0,0,-1,1161,946,0,0
-56,78,0,0,0,0,0,0,0,0,0,-1,1168,946,0,0
-49,78,0,0,0,0,0,0,0,0,0,-1,1175,946,0,0
-42,78,0,0,0,0,0,0,0,0,0,-1,1182,946,0,0
-35,78,0,0,0,0,0,0,0,0,0,-1,1189,946,0,0
-28,78,0,0,0,0,0,0,0,0,0,-1,1196,946,0,0
-21,78,0,0,0,0,0,0,0,0,0,-1,1203,946,0,0
-14,78,0,0,0,0,0,0,0,0,0,-1,1210,946,0,0
-7,78,0,0,0,0,0,0,0,0,0,-1,1217,946,0,0
0,78,0,0,0,0,0,0,0,0,0,-1,1224,946,0,0
7,78,0,0,0,0,0,0,0,0,0,-1,1231,946,0,0
14,78,0,0,0,0,0,0,0,0,0,-1,1238,946,0,0
21,78,0,0,0,0,0,0,0,0,0,-1,1245,946,0,0
28,78,0,0,0,0,0,0,0,0,0,-1,1252,946,0,0
35,78,0,0,0,0,0,0,0,0,0,-1,1259,946,0,0
42,78,0,0,0,0,0,0,0,0,0,-1,1266,946,0,0
49,78,0,0,0,0,0,0,0,0,0,-1,1273,946,0,0
56,78,0,0,0,0,0,0,0,0,0,-1,1280,946,0,0
63,78,0,0,0,0,0,0,0,0,0,-1,1287,946,0,0
70,78,0,0,0,0,0,0,0,0,0,-1,1294,946,0,0
77,78,0,0,0,0,0,0,0,0,0,-1,1301,946,0,0
84,78,0,0,0,0,0,0,0,0,0,-1,1308,946,0,0
91,78,0,0,0,0,0,0,0,0,0,-1,1315,946,0,0
98,78,0,0,0,0,0,0,0,0,0,-1,1322,946,0,0
105,78,0,0,0,0,0,0,0,0,0,-1,1329,946,0,0
112,78,0,0,0,0,0,0,0,0,0,-1,1336,946,0,0
119,78,0,0,0,0,0,0,0,0,0,-1,1343,946,0,0
126,78,0,0,0,0,0,0,0,0,0,-1,1350,946,0,0
133,78,0,0,0,0,0,0,0,0,0,-1,1357,946,0,0
140,78,0,0,0,0,0,0,0,0,0,-1,1364,946,0,0
147,78,0,0,0,0,0,0,0,0,0,-1,1371,946,0,0
154,78,0,0,0,0,0,0,0,0,0,-1,1378,946,0,0
161,78,0,0,0,0,0,0,0,0,0,-1,1385,946,0,0
168,78,0,0,0,0,0,0,0,0,0,-1,1392,946,0,0
175,78,0,0,0,0,0,0,0,0,0,-1,1399,946,0,0
182,78,0,0,0,0,0,0,0,0,0,-1,1406,946,0,0
189,78,0,0,0,0,0,0,0,0,0,-1,1413,946,0,0
196,78,0,0,0,0,0,0,0,0,0,-1,1420,946,0,0
203,78,0,0,0,0,0,0,0,0,0,-1,1427,946,0,0
210,78,0,0,0,0,0,0,0,0,0,-1,1434,946,0,0
217,78,0,0,0,0,0,0,0,0,0,-1,1441,946,0,0
224,78,0,0,0,0,0,0,0,0,0,-1,1448,946,0,0
231,78,0,0,0,0,0,0,0,0,0,-1,1455,946,0,0
238,78,0,0,0,0,0,0,0,0,0,-1,1462,946,0,0
245,78,0,0,0,0,0,0,0,0,0,-1,1469,946,0,0
252,78,0,0,0,0,0,0,0,0,0,-1,1476,946,0,0
259,78,0,0,0,0,0,0,0,0,0,-1,1483,946,0,0
266,78,0,0,0,0,0,0,0,0,0,-1,1490,946,0,0
273,78,0,0,0,0,0,0,0,0,0,-1,1497,946,0,0
280,78,0,0,0,0,0,0,0,0,0,-1,1504,946,0,0
287,78,0,0,0,0,0,0,0,0,0,-1,1511,946,0,0
294,78,0,0,0,0,0,0,0,0,0,-1,1518,946,0,0
301,78,0,0,0,0,0,0,0,0,0,-1,1525,946,0,0
308,78,0,0,0,0,0,0,0,0,0,-1,1532,946,0,0
315,78,0,0,0,0,0,0,0,0,0,-1,1539,946,0,0
322,78,0,0,0,0,0,0,0,0,0,-1,1546,946,0,0
329,78,0,0,0,0,0,0,0,0,0,-1,1553,946,0,0
336,78,0,0,0,0,0,0,0,0,0,-1,1560,946,0,0
343,78,0,0,0,0,0,0,0,0,0,-1,1567,946,0,0
350,78,0,0,0,0,0,0,0,0,0,-1,1574,946,0,0
357,78,0,0,0,0,0,0,0,0,0,-1,1581,946,0,0
364,78,0,0,0,0,0,0,0,0,0,-1,1588,946,0,0
371,78,0,0,0,0,0,0,0,0,0,-1,1595,946,0,0
378,78,0,0,0,0,0,0,0,0,0,-1,1602,946,0,0
385,78,0,0,0,0,0,0,0,0,0,-1,1609,946,0,0
392,78,0,0,0,0,0,0,0,0,0,-1,1616,946,0,0
399,78,0,0,0,0,0,0,0,0,0,-1,1623,946,0,0
406,78,0,0,0,0,0,0,0,0,0,-1,1630,946,0,0
413,78,0,0,0,0,0,0,0,0,0,-1,1637,946,0,0
420,78,0,0,0,0,0,0,0,0,0,-1,1644,946,0,0
427,78,0,0,0,0,0,0,0,0,0,-1,1651,946,0,0
434,78,0,0,0,0,0,0,0,0,0,-1,1658,946,0,0
441,78,0,0,0,0,0,0,0,0,0,-1,1665,946,0,0
448,78,0,0,0,0,0,0,0,0,0,-1,1672,946,0,0
455,78,0,0,0,0,0,0,0,0,0,-1,1679,946,0,0
462,78,0,0,0,0,0,0,0,0,0,-1,1686,946,0,0
469,78,0,0,0,0,0,0,0,0,0,-1,1693,946,0,0
476,78,0,0,0,0,0,0,0,0,0,-1,1700,946,0,0
483,78,0,0,0,0,0,0,0,0,0,-1,1707,946,0,0
490,78,0,0,0,0,0,0,0,0,0,-1,1714,946,0,0
497,78,0,0,0,0,0,0,0,0,0,-1,1721,946,0,0
504,78,0,0,0,0,0,0,0,0,0,-1,1728,946,0,0
511,78,0,0,0,0,0,0,0,0,0,-1,1735,946,0,0
518,78,0,0,0,0,0,0,0,0,0,-1,1742,946,0,0
525,78,0,0,0,0,0,0,0,0,0,-1,1749,946,0,0
532,78,0,0,0,0,0,0,0,0,0,-1,1756,946,0,0
539,78,0,0,0,0,0,0,0,0,0,-1,1763,946,0,0
546,78,0,0,0,0,0,0,0,0,0,-1,1770,946,0,0
553,78,0,0,0,0,0,0,0,0,0,-1,1777,946,0,0
560,78,0,0,0,0,0,0,0,0,0,-1,1784,946,0,0
567,78,0,0,0,0,0,0,0,0,0,-1,1791,946,0,0
574,78,0,0,0,0,0,0,0,0,0,-1,1798,946,0,0
581,78,0,0,0,0,0,0,0,0,0,-1,1805,946,0,0
588,78,0,0,0,0,0,0,0,0,0,-1,1812,946,0,0
595,78,0,0,0,0,0,0,0,0,0,-1,1819,946,0,0
602,78,0,0,0,0,0,0,0,0,0,-1,1826,946,0,0
609,78,0,0,0,0,0,0,0,0,0,-1,1833,946,0,0
616,78,0,0,0,0,0,0,0,0,0,-1,1840,946,0,0
623,78,0,0,0,0,0,0,0,0,0,-1,1847,946,0,0
630,78,0,0,0,0,0,0,0,0,0,-1,1854,946,0,0
637,78,55.0547,2.99182,-0.000223503,0.00217883,-0.00612164,0.00721603,-0.00526071,-0.882276,0.00723288,0.0449179,1861,946,55.0547,-2.99179
644,78,54.8918,2.71454,0.000111157,0.00183458,-0.00437735,0.00543423,-0.00348849,-0.882584,0.0051922,0.0415018,1868,946,54.8919,-2.71452
651,78,54.9161,2.59564,6.5551e-05,0.00153403,-0.0028936,0.00378509,-0.00218551,-0.909649,0.00348812,0.0384696,1875,946,54.9161,-2.59564
658,78,54.9646,2.69562,-0.000127929,0.00143896,-0.00153795,0.00238151,-0.00107048,-1.02097,0.00204036,0.0365839,1882,946,54.9646,-2.69562
665,78,54.9226,2.81976,-0.00035631,0.00149201,-0.000296952,0.00153855,-0.000402846,-1.41535,0.00118307,0.0404148,1889,946,54.9226,-2.81976
672,78,54.8647,2.89056,-0.000842623,0.00136215,0.000717805,0.00157525,-0.00105572,1.28221,0.00152883,0.0423242,1896,946,54.8647,-2.89054
679,78,54.964,2.97455,-0.00126136,0.0010077,0.00139763,0.00167332,-0.00192698,1.12633,0.00208035,0.0411351,1903,946,54.964,-2.97455
686,78,54.8596,2.88171,-0.00139988,0.0006039,0.001645,0.0015281,-0.00232408,1.05892,0.00223983,0.0361413,1910,946,54.8596,-2.88169
693,78,54.7853,2.8205,-0.00146724,0.000274723,0.00174572,0.00135467,-0.00254719,1.01679,0.00228754,0.0277799,1917,946,54.7853,-2.8205
700,78,54.7949,2.85693,-0.00180635,0.0002006,0.00167952,0.00115359,-0.00275934,1.05468,0.00232167,0.0244701,1924,946,54.7949,-2.85694
707,78,54.9161,2.92859,0,0,0,0,0,0,0,-1,1931,946,54.9162,-2.92859
714,78,52.1094,4.44916,0,0,0,0,0,0,0,-1,1938,946,52.1093,-4.44917
721,78,52.0304,4.9082,-0.00342713,0.00118944,0.000429331,0.00122902,-0.00346672,1.47885,0.00281183,0.032282,1945,946,52.0304,-4.90821
728,78,51.968,5.49817,-0.0037788,0.00199218,-5.19377e-05,0.00199265,-0.00377926,-1.5618,0.00338521,0.0336207,1952,946,51.968,-5.49815
735,78,52.0648,5.8656,-0.00408103,0.00286719,-0.000683419,0.00293377,-0.00414761,-1.47368,0.00410841,0.0240835,1959,946,52.0648,-5.86558
742,78,52.0861,6.24353,-0.0046134,0.00438248,-0.00158522,0.00465365,-0.00488457,-1.40138,0.00550743,0.0188604,1966,946,52.086,-6.2435
749,78,51.9408,6.65155,-0.00521953,0.00663725,-0.00262822,0.00719371,-0.00577599,-1.36215,0.00750296,0.0158629,1973,946,51.9408,-6.65155
756,78,51.8785,7.00128,-0.00567325,0.00956972,-0.00369119,0.0104165,-0.00652005,-1.34529,0.00986422,0.0151457,1980,946,51.8785,-7.00126
763,78,51.7938,7.37262,-0.00579236,0.0130518,-0.00467473,0.0141478,-0.0068883,-1.34052,0.0123839,0.0160778,1987,946,51.7938,-7.37261
770,78,51.7246,7.78802,-0.00551037,0.0167569,-0.00569046,0.0181269,-0.0068803,-1.33455,0.0149167,0.0221201,1994,946,51.7246,-7.788
777,78,51.6016,8.26672,-0.00500793,0.0205276,-0.00682773,0.0222386,-0.0067189,-1.32526,0.0175007,0.0416317,2001,946,51.6017,-8.26674
784,78,52.2014,9.17871,0,0,0,0,0,0,0,-1,2008,946,52.2014,-9.17872
791,78,51.2107,8.53662,0,0,0,0,0,0,0,-1,2015,946,51.2106,-8.53664
798,78,51.2927,7.8479,0,0,0,0,0,0,0,-1,2022,946,51.2928,-7.84791
805,78,50.8481,6.75513,0,0,0,0,0,0,0,-1,2029,946,50.848,-6.75512
812,78,0,0,0,0,0,0,0,0,0,-1,2036,946,0,0
-700,71,0,0,0,0,0,0,0,0,0,-1,524,953,0,0
-693,71,0,0,0,0,0,0,0,0,0,-1,531,953,0,0
-686,71,-39.7069,6.76526,0,0,0,0,0,0,0,-1,538,953,-39.7069,-6.76525
-679,71,-39.5172,5.77161,0,0,0,0,0,0,0,-1,545,953,-39.5172,-5.77161
-672,71,-39.3319,5.68542,-0.0275878,-0.000383992,0.0422554,0.0304048,-0.0583766,0.941109,0.0520991,0.0485322,552,953,-39.3319,-5.68542
-665,71,-39.1874,5.60284,-0.0269438,0.0065599,0.0361122,0.0296165,-0.0500004,1.00257,0.0464663,0.0470366,559,953,-39.1874,-5.60282
-658,71,-37.8688,5.34424,0,0,0,0,0,0,0,-1,566,953,-37.8688,-5.34424
-651,71,-38.4082,5.24969,-0.0227036,0.0130665,0.0244592,0.0254821,-0.0351192,1.10109,0.0351353,0.0464737,573,953,-38.4082,-5.24968
-644,71,-39.178,5.29565,-0.0197184,0.0135923,0.0193482,0.0224664,-0.0285925,1.14077,0.0295495,0.0341027,580,953,-39.1781,-5.29565
-637,71,-39.5366,4.93793,-0.0158779,0.0128281,0.0151941,0.0193765,-0.0224263,1.16387,0.0241563,0.0169253,587,953,-39.5366,-4.93791
-630,71,-39.66,4.57758,-0.0129421,0.0122096,0.0108808,0.0162633,-0.0169958,1.21417,0.0192038,0.016542,594,953,-39.66,-4.5776
-623,71,-39.6936,4.21423,-0.0102964,0.0100541,0.00708149,0.0122758,-0.0125181,1.26679,0.014315,0.0153565,601,953,-39.6936,-4.21421
-616,71,-39.7097,3.81549,-0.00821325,0.00742955,0.00333779,0.00811198,-0.00889568,1.36912,0.00982285,0.0149469,608,953,-39.7097,-3.81549
-609,71,-39.6993,3.47809,-0.0068143,0.00466359,0.000924831,0.00473763,-0.00688834,1.49091,0.00675044,0.0160655,615,953,-39.6993,-3.47807
-602,71,-39.6761,3.12286,-0.00596979,0.00320797,-0.000344127,0.00322085,-0.00598268,-1.53337,0.00539282,0.0177174,622,953,-39.6762,-3.12287
-595,71,-39.6659,2.78412,-0.00547533,0.00213157,-0.00138151,0.0023747,-0.00571846,-1.39659,0.00480368,0.0198689,629,953,-39.6659,-2.78415
-588,71,-39.6337,2.48236,-0.00517678,0.00138373,-0.00177,0.0018308,-0.00562385,-1.32339,0.00448581,0.0225321,636,953,-39.6337,-2.48236
-581,71,-39.4642,2.12921,0,0,0,0,0,0,0,-1,643,953,-39.4642,-2.12918
-574,71,-40.7246,1.30621,-0.0049886,0.00117465,-0.00255625,0.00209688,-0.00591082,-1.22456,0.00479486,0.0439355,650,953,-40.7246,-1.30624
-567,71,-41.0701,0.968933,-0.00505234,0.00151972,-0.00280781,0.00255593,-0.00608855,-1.21726,0.00512793,0.021957,657,953,-41.07,-0.968944
-560,71,-41.0952,1.02478,-0.00494759,0.00205194,-0.00288902,0.00309032,-0.00598597,-1.22575,0.00532835,0.0288408,664,953,-41.0952,-1.02479
-553,71,-41.2513,1.00159,-0.00442062,0.00277526,-0.00277997,0.00372413,-0.00536949,-1.24187,0.00527877,0.0419075,671,953,-41.2514,-1.0016
-546,71,-41.2106,0.904907,-0.00327541,0.00358689,-0.00245679,0.00437577,-0.00406429,-1.2601,0.00487397,0.0435596,678,953,-41.2106,-0.904908
-539,71,-41.0848,1.03125,-0.00130629,0.00431219,-0.00190643,0.00489799,-0.00189209,-1.27268,0.00404628,0.0398465,685,953,-41.0848,-1.03128
-532,71,-41.0557,0.837463,0.00162083,0.00467111,-0.00144223,0.00524503,0.00104691,-1.19206,0.00320523,0.0412068,692,953,-41.0557,-0.837474
-525,71,-41.0828,0.650574,0.00435525,0.00540678,-0.0020956,0.00704156,0.00272046,-0.908307,0.00410031,0.0400159,699,953,-41.0828,-0.650597
-518,71,0,0,0,0,0,0,0,0,0,-1,706,953,0,0
-511,71,0,0,0,0,0,0,0,0,0,-1,713,953,0,0
-504,71,0,0,0,0,0,0,0,0,0,-1,720,953,0,0
-497,71,0,0,0,0,0,0,0,0,0,-1,727,953,0,0
-490,71,0,0,0,0,0,0,0,0,0,-1,734,953,0,0
-483,71,0,0,0,0,0,0,0,0,0,-1,741,953,0,0
-476,71,0,0,0,0,0,0,0,0,0,-1,748,953,0,0
-469,71,0,0,0,0,0,0,0,0,0,-1,755,953,0,0
-462,71,0,0,0,0,0,0,0,0,0,-1,762,953,0,0
-455,71,0,0,0,0,0,0,0,0,0,-1,769,953,0,0
-448,71,0,0,0,0,0,0,0,0,0,-1,776,953,0,0
-441,71,0,0,0,0,0,0,0,0,0,-1,783,953,0,0
-434,71,0,0,0,0,0,0,0,0,0,-1,790,953,0,0
-427,71,0,0,0,0,0,0,0,0,0,-1,797,953,0,0
-420,71,0,0,0,0,0,0,0,0,0,-1,804,953,0,0
-413,71,0,0,0,0,0,0,0,0,0,-1,811,953,0,0
-406,71,0,0,0,0,0,0,0,0,0,-1,818,953,0,0
-399,71,0,0,0,0,0,0,0,0,0,-1,825,953,0,0
-392,71,0,0,0,0,0,0,0,0,0,-1,832,953,0,0
-385,71,0,0,0,0,0,0,0,0,0,-1,839,953,0,0
-378,71,0,0,0,0,0,0,0,0,0,-1,846,953,0,0
-371,71,0,0,0,0,0,0,0,0,0,-1,853,953,0,0
-364,71,0,0,0,0,0,0,0,0,0,-1,860,953,0,0
-357,71,0,0,0,0,0,0,0,0,0,-1,867,953,0,0
-350,71,0,0,0,0,0,0,0,0,0,-1,874,953,0,0
-343,71,0,0,0,0,0,0,0,0,0,-1,881,953,0,0
-336,71,0,0,0,0,0,0,0,0,0,-1,888,953,0,0
-329,71,0,0,0,0,0,0,0,0,0,-1,895,953,0,0
-322,71,0,0,0,0,0,0,0,0,0,-1,902,953,0,0
-315,71,0,0,0,0,0,0,0,0,0,-1,909,953,0,0
-308,71,0,0,0,0,0,0,0,0,0,-1,916,953,0,0
-301,71,0,0,0,0,0,0,0,0,0,-1,923,953,0,0
-294,71,0,0,0,0,0,0,0,0,0,-1,930,953,0,0
-287,71,0,0,0,0,0,0,0,0,0,-1,937,953,0,0
-280,71,0,0,0,0,0,0,0,0,0,-1,944,953,0,0
-273,71,0,0,0,0,0,0,0,0,0,-1,951,953,0,0
-266,71,0,0,0,0,0,0,0,0,0,-1,958,953,0,0
-259,71,0,0,0,0,0,0,0,0,0,-1,965,953,0,0
-252,71,0,0,0,0,0,0,0,0,0,-1,972,953,0,0
-245,71,0,0,0,0,0,0,0,0,0,-1,979,953,0,0
-238,71,0,0,0,0,0,0,0,0,0,-1,986,953,0,0
-231,71,0,0,0,0,0,0,0,0,0,-1,993,953,0,0
-224,71,0,0,0,0,0,0,0,0,0,-1,1000,953,0,0
-217,71,0,0,0,0,0,0,0,0,0,-1,1007,953,0,0
-210,71,0,0,0,0,0,0,0,0,0,-1,1014,953,0,0
-203,71,0,0,0,0,0,0,0,0,0,-1,1021,953,0,0
-196,71,0,0,0,0,0,0,0,0,0,-1,1028,953,0,0
-189,71,0,0,0,0,0,0,0,0,0,-1,1035,953,0,0
-182,71,0,0,0,0,0,0,0,0,0,-1,1042,953,0,0
-175,71,0,0,0,0,0,0,0,0,0,-1,1049,953,0,0
-168,71,0,0,0,0,0,0,0,0,0,-1,1056,953,0,0
-161,71,0,0,0,0,0,0,0,0,0,-1,1063,953,0,0
-154,71,0,0,0,0,0,0,0,0,0,-1,1070,953,0,0
-147,71,0,0,0,0,0,0,0,0,0,-1,1077,953,0,0
-140,71,0,0,0,0,0,0,0,0,0,-1,1084,953,0,0
-133,71,0,0,0,0,0,0,0,0,0,-1,1091,953,0,0
-126,71,0,0,0,0,0,0,0,0,0,-1,1098,953,0,0
-119,71,0,0,0,0,0,0,0,0,0,-1,1105,953,0,0
-112,71,0,0,0,0,0,0,0,0,0,-1,1112,953,0,0
-105,71,0,0,0,0,0,0,0,0,0,-1,1119,953,0,0
-98,71,0,0,0,0,0,0,0,0,0,-1,1126,953,0,0
-91,71,0,0,0,0,0,0,0,0,0,-1,1133,953,0,0
-84,71,0,0,0,0,0,0,0,0,0,-1,1140,953,0,0
-77,71,0,0,0,0,0,0,0,0,0,-1,1147,953,0,0
-70,71,0,0,0,0,0,0,0,0,0,-1,1154,953,0,0
-63,71,0,0,0,0,0,0,0,0,0,-1,1161,953,0,0
-56,71,0,0,0,0,0,0,0,0,0,-1,1168,953,0,0
-49,71,0,0,0,0,0,0,0,0,0,-1,1175,953,0,0
-42,71,0,0,0,0,0,0,0,0,0,-1,1182,953,0,0
-35,71,0,0,0,0,0,0,0,0,0,-1,1189,953,0,0
-28,71,0,0,0,0,0,0,0,0,0,-1,1196,953,0,0
-21,71,0,0,0,0,0,0,0,0,0,-1,1203,953,0,0
-14,71,0,0,0,0,0,0,0,0,0,-1,1210,953,0,0
-7,71,0,0,0,0,0,0,0,0,0,-1,1217,953,0,0
0,71,0,0,0,0,0,0,0,0,0,-1,1224,953,0,0
7,71,0,0,0,0,0,0,0,0,0,-1,1231,953,0,0
14,71,0,0,0,0,0,0,0,0,0,-1,1238,953,0,0
21,71,0,0,0,0,0,0,0,0,0,-1,1245,953,0,0
28,71,0,0,0,0,0,0,0,0,0,-1,1252,953,0,0
35,71,0,0,0,0,0,0,0,0,0,-1,1259,953,0,0
42,71,0,0,0,0,0,0,0,0,0,-1,1266,953,0,0
49,71,0,0,0,0,0,0,0,0,0,-1,1273,953,0,0
56,71,0,0,0,0,0,0,0,0,0,-1,1280,953,0,0
63,71,0,0,0,0,0,0,0,0,0,-1,1287,953,0,0
70,71,0,0,0,0,0,0,0,0,0,-1,1294,953,0,0
77,71,0,0,0,0,0,0,0,0,0,-1,1301,953,0,0
84,71,0,0,0,0,0,0,0,0,0,-1,1308,953,0,0
91,71,0,0,0,0,0,0,0,0,0,-1,1315,953,0,0
98,71,0,0,0,0,0,0,0,0,0,-1,1322,953,0,0
105,71,0,0,0,0,0,0,0,0,0,-1,1329,953,0,0
112,71,0,0,0,0,0,0,0,0,0,-1,1336,953,0,0
119,71,0,0,0,0,0,0,0,0,0,-1,1343,953,0,0
126,71,0,0,0,0,0,0,0,0,0,-1,1350,953,0,0
133,71,0,0,0,0,0,0,0,0,0,-1,1357,953,0,0
140,71,0,0,0,0,0,0,0,0,0,-1,1364,953,0,0
147,71,0,0,0,0,0,0,0,0,0,-1,1371,953,0,0
154,71,0,0,0,0,0,0,0,0,0,-1,1378,953,0,0
161,71,0,0,0,0,0,0,0,0,0,-1,1385,953,0,0
168,71,0,0,0,0,0,0,0,0,0,-1,1392,953,0,0
175,71,0,0,0,0,0,0,0,0,0,-1,1399,953,0,0
182,71,0,0,0,0,0,0,0,0,0,-1,1406,953,0,0
189,71,0,0,0,0,0,0,0,0,0,-1,1413,953,0,0
196,71,0,0,0,0,0,0,0,0,0,-1,1420,953,0,0
203,71,0,0,0,0,0,0,0,0,0,-1,1427,953,0,0
210,71,0,0,0,0,0,0,0,0,0,-1,1434,953,0,0
217,71,0,0,0,0,0,0,0,0,0,-1,1441,953,0,0
224,71,0,0,0,0,0,0,0,0,0,-1,1448,953,0,0
231,71,0,0,0,0,0,0,0,0,0,-1,1455,953,0,0
238,71,0,0,0,0,0,0,0,0,0,-1,1462,953,0,0
245,71,0,0,0,0,0,0,0,0,0,-1,1469,953,0,0
252,71,0,0,0,0,0,0,0,0,0,-1,1476,953,0,0
259,71,0,0,0,0,0,0,0,0,0,-1,1483,953,0,0
266,71,0,0,0,0,0,0,0,0,0,-1,1490,953,0,0
273,71,0,0,0,0,0,0,0,0,0,-1,1497,953,0,0
280,71,0,0,0,0,0,0,0,0,0,-1,1504,953,0,0
287,71,0,0,0,0,0,0,0,0,0,-1,1511,953,0,0
294,71,0,0,0,0,0,0,0,0,0,-1,1518,953,0,0
301,71,0,0,0,0,0,0,0,0,0,-1,1525,953,0,0
308,71,0,0,0,0,0,0,0,0,0,-1,1532,953,0,0
315,71,0,0,0,0,0,0,0,0,0,-1,1539,953,0,0
322,71,0,0,0,0,0,0,0,0,0,-1,1546,953,0,0
329,71,0,0,0,0,0,0,0,0,0,-1,1553,953,0,0
336,71,0,0,0,0,0,0,0,0,0,-1,1560,953,0,0
343,71,0,0,0,0,0,0,0,0,0,-1,1567,953,0,0
350,71,0,0,0,0,0,0,0,0,0,-1,1574,953,0,0
357,71,0,0,0,0,0,0,0,0,0,-1,1581,953,0,0
364,71,0,0,0,0,0,0,0,0,0,-1,1588,953,0,0
371,71,0,0,0,0,0,0,0,0,0,-1,1595,953,0,0
378,71,0,0,0,0,0,0,0,0,0,-1,1602,953,0,0
385,71,0,0,0,0,0,0,0,0,0,-1,1609,953,0,0
392,71,0,0,0,0,0,0,0,0,0,-1,1616,953,0,0
399,71,0,0,0,0,0,0,0,0,0,-1,1623,953,0,0
406,71,0,0,0,0,0,0,0,0,0,-1,1630,953,0,0
413,71,0,0,0,0,0,0,0,0,0,-1,1637,953,0,0
420,71,0,0,0,0,0,0,0,0,0,-1,1644,953,0,0
427,71,0,0,0,0,0,0,0,0,0,-1,1651,953,0,0
434,71,0,0,0,0,0,0,0,0,0,-1,1658,953,0,0
441,71,0,0,0,0,0,0,0,0,0,-1,1665,953,0,0
448,71,0,0,0,0,0,0,0,0,0,-1,1672,953,0,0
455,71,0,0,0,0,0,0,0,0,0,-1,1679,953,0,0
462,71,0,0,0,0,0,0,0,0,0,-1,1686,953,0,0
469,71,0,0,0,0,0,0,0,0,0,-1,1693,953,0,0
476,71,0,0,0,0,0,0,0,0,0,-1,1700,953,0,0
483,71,0,0,0,0,0,0,0,0,0,-1,1707,953,0,0
490,71,0,0,0,0,0,0,0,0,0,-1,1714,953,0,0
497,71,0,0,0,0,0,0,0,0,0,-1,1721,953,0,0
504,71,0,0,0,0,0,0,0,0,0,-1,1728,953,0,0
511,71,0,0,0,0,0,0,0,0,0,-1,1735,953,0,0
518,71,0,0,0,0,0,0,0,0,0,-1,1742,953,0,0
525,71,0,0,0,0,0,0,0,0,0,-1,1749,953,0,0
532,71,0,0,0,0,0,0,0,0,0,-1,1756,953,0,0
539,71,0,0,0,0,0,0,0,0,0,-1,1763,953,0,0
546,71,0,0,0,0,0,0,0,0,0,-1,1770,953,0,0
553,71,0,0,0,0,0,0,0,0,0,-1,1777,953,0,0
560,71,0,0,0,0,0,0,0,0,0,-1,1784,953,0,0
567,71,0,0,0,0,0,0,0,0,0,-1,1791,953,0,0
574,71,0,0,0,0,0,0,0,0,0,-1,1798,953,0,0
581,71,0,0,0,0,0,0,0,0,0,-1,1805,953,0,0
588,71,0,0,0,0,0,0,0,0,0,-1,1812,953,0,0
595,71,0,0,0,0,0,0,0,0,0,-1,1819,953,0,0
602,71,0,0,0,0,0,0,0,0,0,-1,1826,953,0,0
609,71,0,0,0,0,0,0,0,0,0,-1,1833,953,0,0
616,71,0,0,0,0,0,0,0,0,0,-1,1840,953,0,0
623,71,0,0,0,0,0,0,0,0,0,-1,1847,953,0,0
630,71,0,0,0,0,0,0,0,0,0,-1,1854,953,0,0
637,71,55.0194,2.89038,-0.000980445,0.00108717,-0.00567706,0.00582379,-0.00571706,-0.875462,0.00666321,0.0405228,1861,953,55.0194,-2.89037
644,71,54.7596,2.90509,-0.000410031,0.000757074,-0.00401279,0.00422852,-0.00388148,-0.857604,0.00468374,0.0424906,1868,953,54.7597,-2.9051
651,71,54.6986,2.77893,-0.000298371,0.000530916,-0.00260109,0.00275021,-0.00251766,-0.864439,0.0030424,0.0370843,1875,953,54.6986,-2.77893
658,71,54.868,2.65009,-0.000358199,0.000516732,-0.0012993,0.00145024,-0.00129171,-0.947783,0.00158394,0.0347966,1882,953,54.868,-2.65007
665,71,54.9253,2.74445,-0.00053663,0.000747801,-8.95303e-05,0.000754011,-0.000542841,-1.50154,0.000752039,0.0397764,1889,953,54.9253,-2.74442
672,71,54.8081,2.78918,-0.0010142,0.000853125,0.000940295,0.00124456,-0.00140564,1.17633,0.00153103,0.0404905,1896,953,54.8081,-2.78919
679,71,54.8262,2.83948,-0.00145522,0.000702658,0.00165533,0.00159963,-0.00235219,1.07422,0.00229534,0.0391625,1903,953,54.8262,-2.83947
686,71,54.7876,2.74872,-0.00162571,0.000434325,0.00193163,0.0015934,-0.00278479,1.03034,0.00255875,0.0374105,1910,953,54.7876,-2.74872
693,71,54.798,2.68933,-0.00171055,0.00020123,0.0020246,0.00148426,-0.00299358,1.00595,0.00263378,0.0320563,1917,953,54.798,-2.68931
700,71,54.8187,2.78632,-0.00202344,0.000192236,0.00192899,0.00130888,-0.00314008,1.04606,0.00264014,0.0297555,1924,953,54.8187,-2.78632
707,71,54.8672,2.88184,0,0,0,0,0,0,0,-1,1931,953,54.8672,-2.88185
714,71,52.8622,4.61957,0,0,0,0,0,0,0,-1,1938,953,52.8622,-4.61956
721,71,52.5895,4.99762,-0.00369549,0.00140445,0.000652633,0.00148664,-0.00377768,1.44552,0.00313383,0.0417018,1945,953,52.5894,-4.99763
728,71,52.3918,5.48956,-0.00403505,0.00226266,0.000165245,0.002267,-0.00403938,1.54458,0.00368861,0.0277079,1952,953,52.3919,-5.48959
735,71,52.429,5.91272,-0.00429401,0.00316327,-0.000470141,0.00319279,-0.00432353,-1.50808,0.00435589,0.0210123,1959,953,52.429,-5.9127
742,71,52.4803,6.26929,-0.00482531,0.00470288,-0.00140325,0.00490525,-0.00502767,-1.42757,0.00573492,0.021439,1966,953,52.4804,-6.26927
749,71,52.4615,6.63562,-0.00545117,0.00692983,-0.00244404,0.00739482,-0.00591617,-1.38279,0.00770089,0.0199279,1973,953,52.4615,-6.63562
756,71,52.3958,6.96863,-0.00597952,0.00987351,-0.00352312,0.0106212,-0.00672722,-1.36167,0.0100999,0.0180724,1980,953,52.3958,-6.96861
763,71,52.293,7.3302,-0.00622198,0.013468,-0.00453334,0.0144616,-0.00721558,-1.35503,0.0127463,0.0200449,1987,953,52.2929,-7.33017
770,71,52.062,7.62512,-0.0061316,0.017431,-0.00557121,0.0186819,-0.00738247,-1.34994,0.0155124,0.0241962,1994,953,52.0621,-7.62511
777,71,51.8391,7.88629,-0.00587831,0.0215235,-0.00673203,0.0230881,-0.00744289,-1.34244,0.0183823,0.0447615,2001,953,51.8392,-7.88628
784,71,51.7805,8.19495,-0.00474776,0.0256281,-0.00813637,0.0276702,-0.00678985,-1.32489,0.0210778,0.0480747,2008,953,51.7805,-8.19497
791,71,51.791,8.70184,0,0,0,0,0,0,0,-1,2015,953,51.791,-8.70184
798,71,51.5068,9.03137,0,0,0,0,0,0,0,-1,2022,953,51.5069,-9.0314
805,71,45.0161,6.63287,0,0,0,0,0,0,0,-1,2029,953,45.0161,-6.63289
812,71,0,0,0,0,0,0,0,0,0,-1,2036,953,0,0
-700,64,0,0,0,0,0,0,0,0,0,-1,524,960,0,0
-693,64,0,0,0,0,0,0,0,0,0,-1,531,960,0,0
-686,64,-40.8173,7.11426,0,0,0,0,0,0,0,-1,538,960,-40.8173,-7.11425
-679,64,-39.7489,5.12006,0,0,0,0,0,0,0,-1,545,960,-39.7489,-5.12004
-672,64,-39.9888,5.23004,-0.0381427,0.00661446,0.035243,0.0259836,-0.0575118,1.06827,0.0493384,0.047632,552,960,-39.9888,-5.23005
-665,64,-40.0639,5.48279,-0.034505,0.0114999,0.0311674,0.027234,-0.0502391,1.1033,0.0453817,0.0469124,559,960,-40.0639,-5.48279
-658,64,-40.1719,5.48303,-0.0303452,0.0142477,0.0268706,0.0268678,-0.0429653,1.13171,0.0406736,0.0475454,566,960,-40.172,-5.48302
-651,64,-40.1827,5.37042,-0.0259983,0.015316,0.022539,0.0252322,-0.0359144,1.15633,0.0354821,0.0466211,573,960,-40.1827,-5.37044
-644,64,-40.0045,5.09961,-0.0216222,0.0150585,0.0182984,0.0226257,-0.0291894,1.17867,0.0299953,0.0348982,580,960,-40.0045,-5.09961
-637,64,-39.9735,4.77606,-0.016689,0.0138036,0.0146796,0.0197219,-0.0226073,1.18757,0.0244577,0.0177105,587,960,-39.9735,-4.77606
-630,64,-40.047,4.47351,-0.0129007,0.0127012,0.0105621,0.0164961,-0.0166956,1.22587,0.0191634,0.0142298,594,960,-40.047,-4.47353
-623,64,-40.0668,4.18402,-0.00972186,0.0104241,0.00677228,0.012489,-0.0117868,1.27484,0.0140176,0.0150455,601,960,-40.0669,-4.184
-616,64,-40.0836,3.8479,-0.00745199,0.0077532,0.00295738,0.00830815,-0.00800694,1.3853,0.00942006,0.0185906,608,960,-40.0836,-3.8479
-609,64,-40.0758,3.53888,-0.0060123,0.00503568,0.000254813,0.00504156,-0.00601818,1.54775,0.00639363,0.0180289,615,960,-40.0758,-3.53887
-602,64,-40.0627,3.2157,-0.00509391,0.00355843,-0.00127929,0.00374362,-0.0052791,-1.42704,0.00523435,0.0174306,622,960,-40.0627,-3.2157
-595,64,-40.0639,2.92633,-0.00453967,0.00243408,-0.00252053,0.00324969,-0.00535528,-1.25784,0.00501741,0.0206742,629,960,-40.0639,-2.92632
-588,64,-39.9867,2.71881,-0.00421486,0.00163796,-0.00304921,0.00293785,-0.00551474,-1.16782,0.00495512,0.0311707,636,960,-39.9867,-2.71881
-581,64,-39.8334,2.49786,0,0,0,0,0,0,0,-1,643,960,-39.8334,-2.49785
-574,64,-41.074,0.887329,0,0,0,0,0,0,0,-1,650,960,-41.074,-0.887346
-567,64,-41.0383,0.935059,-0.00409981,0.00158732,-0.00401122,0.00366064,-0.00617313,-1.09374,0.00573897,0.0271321,657,960,-41.0383,-0.935041
-560,64,-41.1118,0.911926,-0.00402595,0.00209406,-0.00389161,0.00398464,-0.00591653,-1.11857,0.0057526,0.034823,664,960,-41.1118,-0.911935
-553,64,-41.1139,0.841125,-0.0035241,0.00276223,-0.00350514,0.00432709,-0.00508897,-1.1509,0.00544229,0.0397063,671,960,-41.1139,-0.841132
-546,64,-41.1057,0.706787,-0.00244019,0.00347372,-0.00281584,0.00459996,-0.00356644,-1.19032,0.00472744,0.0416039,678,960,-41.1057,-0.706802
-539,64,-41.2459,0.900208,-0.000548949,0.00402183,-0.0018498,0.00467664,-0.00120376,-1.23057,0.00358699,0.0408073,685,960,-41.2459,-0.900211
-532,64,-41.3162,0.961304,0.00230748,0.00420687,-0.00110094,0.00471113,0.00180322,-1.14129,0.00274478,0.0398283,692,960,-41.3162,-0.961284
-525,64,-41.2415,0.855469,0.00504946,0.0049241,-0.00182152,0.00680938,0.00316419,-0.768199,0.00393466,0.0388538,699,960,-41.2414,-0.855498
-518,64,0,0,0,0,0,0,0,0,0,-1,706,960,0,0
-511,64,0,0,0,0,0,0,0,0,0,-1,713,960,0,0
-504,64,0,0,0,0,0,0,0,0,0,-1,720,960,0,0
-497,64,0,0,0,0,0,0,0,0,0,-1,727,960,0,0
-490,64,0,0,0,0,0,0,0,0,0,-1,734,960,0,0
-483,64,0,0,0,0,0,0,0,0,0,-1,741,960,0,0
-476,64,0,0,0,0,0,0,0,0,0,-1,748,960,0,0
-469,64,0,0,0,0,0,0,0,0,0,-1,755,960,0,0
-462,64,0,0,0,0,0,0,0,0,0,-1,762,960,0,0
-455,64,0,0,0,0,0,0,0,0,0,-1,769,960,0,0
-448,64,0,0,0,0,0,0,0,0,0,-1,776,960,0,0
-441,64,0,0,0,0,0,0,0,0,0,-1,783,960,0,0
-434,64,0,0,0,0,0,0,0,0,0,-1,790,960,0,0
-427,64,0,0,0,0,0,0,0,0,0,-1,797,960,0,0
-420,64,0,0,0,0,0,0,0,0,0,-1,804,960,0,0
-413,64,0,0,0,0,0,0,0,0,0,-1,811,960,0,0
-406,64,0,0,0,0,0,0,0,0,0,-1,818,960,0,0
-399,64,0,0,0,0,0,0,0,0,0,-1,825,960,0,0
-392,64,0,0,0,0,0,0,0,0,0,-1,832,960,0,0
-385,64,0,0,0,0,0,0,0,0,0,-1,839,960,0,0
-378,64,0,0,0,0,0,0,0,0,0,-1,846,960,0,0
-371,64,0,0,0,0,0,0,0,0,0,-1,853,960,0,0
-364,64,0,0,0,0,0,0,0,0,0,-1,860,960,0,0
-357,64,0,0,0,0,0,0,0,0,0,-1,867,960,0,0
-350,64,0,0,0,0,0,0,0,0,0,-1,874,960,0,0
-343,64,0,0,0,0,0,0,0,0,0,-1,881,960,0,0
-336,64,0,0,0,0,0,0,0,0,0,-1,888,960,0,0
-329,64,0,0,0,0,0,0,0,0,0,-1,895,960,0,0
-322,64,0,0,0,0,0,0,0,0,0,-1,902,960,0,0
-315,64,0,0,0,0,0,0,0,0,0,-1,909,960,0,0
-308,64,0,0,0,0,0,0,0,0,0,-1,916,960,0,0
-301,64,0,0,0,0,0,0,0,0,0,-1,923,960,0,0
-294,64,0,0,0,0,0,0,0,0,0,-1,930,960,0,0
-287,64,0,0,0,0,0,0,0,0,0,-1,937,960,0,0
-280,64,0,0,0,0,0,0,0,0,0,-1,944,960,0,0
-273,64,0,0,0,0,0,0,0,0,0,-1,951,960,0,0
-266,64,0,0,0,0,0,0,0,0,0,-1,958,960,0,0
-259,64,0,0,0,0,0,0,0,0,0,-1,965,960,0,0
-252,64,0,0,0,0,0,0,0,0,0,-1,972,960,0,0
-245,64,0,0,0,0,0,0,0,0,0,-1,979,960,0,0
-238,64,0,0,0,0,0,0,0,0,0,-1,986,960,0,0
-231,64,0,0,0,0,0,0,0,0,0,-1,993,960,0,0
-224,64,0,0,0,0,0,0,0,0,0,-1,1000,960,0,0
-217,64,0,0,0,0,0,0,0,0,0,-1,1007,960,0,0
-210,64,0,0,0,0,0,0,0,0,0,-1,1014,960,0,0
-203,64,0,0,0,0,0,0,0,0,0,-1,1021,960,0,0
-196,64,0,0,0,0,0,0,0,0,0,-1,1028,960,0,0
-189,64,0,0,0,0,0,0,0,0,0,-1,1035,960,0,0
-182,64,0,0,0,0,0,0,0,0,0,-1,1042,960,0,0
-175,64,0,0,0,0,0,0,0,0,0,-1,1049,960,0,0
-168,64,0,0,0,0,0,0,0,0,0,-1,1056,960,0,0
-161,64,0,0,0,0,0,0,0,0,0,-1,1063,960,0,0
-154,64,0,0,0,0,0,0,0,0,0,-1,1070,960,0,0
-147,64,0,0,0,0,0,0,0,0,0,-1,1077,960,0,0
-140,64,0,0,0,0,0,0,0,0,0,-1,1084,960,0,0
-133,64,0,0,0,0,0,0,0,0,0,-1,1091,960,0,0
-126,64,0,0,0,0,0,0,0,0,0,-1,1098,960,0,0
-119,64,0,0,0,0,0,0,0,0,0,-1,1105,960,0,0
-112,64,0,0,0,0,0,0,0,0,0,-1,1112,960,0,0
-105,64,0,0,0,0,0,0,0,0,0,-1,1119,960,0,0
-98,64,0,0,0,0,0,0,0,0,0,-1,1126,960,0,0
-91,64,0,0,0,0,0,0,0,0,0,-1,1133,960,0,0
-84,64,0,0,0,0,0,0,0,0,0,-1,1140,960,0,0
-77,64,0,0,0,0,0,0,0,0,0,-1,1147,960,0,0
-70,64,0,0,0,0,0,0,0,0,0,-1,1154,960,0,0
-63,64,0,0,0,0,0,0,0,0,0,-1,1161,960,0,0
-56,64,0,0,0,0,0,0,0,0,0,-1,1168,960,0,0
-49,64,0,0,0,0,0,0,0,0,0,-1,1175,960,0,0
-42,64,0,0,0,0,0,0,0,0,0,-1,1182,960,0,0
-35,64,0,0,0,0,0,0,0,0,0,-1,1189,960,0,0
-28,64,0,0,0,0,0,0,0,0,0,-1,1196,960,0,0
-21,64,0,0,0,0,0,0,0,0,0,-1,1203,960,0,0
-14,64,0,0,0,0,0,0,0,0,0,-1,1210,960,0,0
-7,64,0,0,0,0,0,0,0,0,0,-1,1217,960,0,0
0,64,0,0,0,0,0,0,0,0,0,-1,1224,960,0,0
7,64,0,0,0,0,0,0,0,0,0,-1,1231,960,0,0
14,64,0,0,0,0,0,0,0,0,0,-1,1238,960,0,0
21,64,0,0,0,0,0,0,0,0,0,-1,1245,960,0,0
28,64,0,0,0,0,0,0,0,0,0,-1,1252,960,0,0
35,64,0,0,0,0,0,0,0,0,0,-1,1259,960,0,0
42,64,0,0,0,0,0,0,0,0,0,-1,1266,960,0,0
49,64,0,0,0,0,0,0,0,0,0,-1,1273,960,0,0
56,64,0,0,0,0,0,0,0,0,0,-1,1280,960,0,0
63,64,0,0,0,0,0,0,0,0,0,-1,1287,960,0,0
70,64,0,0,0,0,0,0,0,0,0,-1,1294,960,0,0
77,64,0,0,0,0,0,0,0,0,0,-1,1301,960,0,0
84,64,0,0,0,0,0,0,0,0,0,-1,1308,960,0,0
91,64,0,0,0,0,0,0,0,0,0,-1,1315,960,0,0
98,64,0,0,0,0,0,0,0,0,0,-1,1322,960,0,0
105,64,0,0,0,0,0,0,0,0,0,-1,1329,960,0,0
112,64,0,0,0,0,0,0,0,0,0,-1,1336,960,0,0
119,64,0,0,0,0,0,0,0,0,0,-1,1343,960,0,0
126,64,0,0,0,0,0,0,0,0,0,-1,1350,960,0,0
133,64,0,0,0,0,0,0,0,0,0,-1,1357,960,0,0
140,64,0,0,0,0,0,0,0,0,0,-1,1364,960,0,0
147,64,0,0,0,0,0,0,0,0,0,-1,1371,960,0,0
154,64,0,0,0,0,0,0,0,0,0,-1,1378,960,0,0
161,64,0,0,0,0,0,0,0,0,0,-1,1385,960,0,0
168,64,0,0,0,0,0,0,0,0,0,-1,1392,960,0,0
175,64,0,0,0,0,0,0,0,0,0,-1,1399,960,0,0
182,64,0,0,0,0,0,0,0,0,0,-1,1406,960,0,0
189,64,0,0,0,0,0,0,0,0,0,-1,1413,960,0,0
196,64,0,0,0,0,0,0,0,0,0,-1,1420,960,0,0
203,64,0,0,0,0,0,0,0,0,0,-1,1427,960,0,0
210,64,0,0,0,0,0,0,0,0,0,-1,1434,960,0,0
217,64,0,0,0,0,0,0,0,0,0,-1,1441,960,0,0
224,64,0,0,0,0,0,0,0,0,0,-1,1448,960,0,0
231,64,0,0,0,0,0,0,0,0,0,-1,1455,960,0,0
238,64,0,0,0,0,0,0,0,0,0,-1,1462,960,0,0
245,64,0,0,0,0,0,0,0,0,0,-1,1469,960,0,0
252,64,0,0,0,0,0,0,0,0,0,-1,1476,960,0,0
259,64,0,0,0,0,0,0,0,0,0,-1,1483,960,0,0
266,64,0,0,0,0,0,0,0,0,0,-1,1490,960,0,0
273,64,0,0,0,0,0,0,0,0,0,-1,1497,960,0,0
280,64,0,0,0,0,0,0,0,0,0,-1,1504,960,0,0
287,64,0,0,0,0,0,0,0,0,0,-1,1511,960,0,0
294,64,0,0,0,0,0,0,0,0,0,-1,1518,960,0,0
301,64,0,0,0,0,0,0,0,0,0,-1,1525,960,0,0
308,64,0,0,0,0,0,0,0,0,0,-1,1532,960,0,0
315,64,0,0,0,0,0,0,0,0,0,-1,1539,960,0,0
322,64,0,0,0,0,0,0,0,0,0,-1,1546,960,0,0
329,64,0,0,0,0,0,0,0,0,0,-1,1553,960,0,0
336,64,0,0,0,0,0,0,0,0,0,-1,1560,960,0,0
343,64,0,0,0,0,0,0,0,0,0,-1,1567,960,0,0
350,64,0,0,0,0,0,0,0,0,0,-1,1574,960,0,0
357,64,0,0,0,0,0,0,0,0,0,-1,1581,960,0,0
364,64,0,0,0,0,0,0,0,0,0,-1,1588,960,0,0
371,64,0,0,0,0,0,0,0,0,0,-1,1595,960,0,0
378,64,0,0,0,0,0,0,0,0,0,-1,1602,960,0,0
385,64,0,0,0,0,0,0,0,0,0,-1,1609,960,0,0
392,64,0,0,0,0,0,0,0,0,0,-1,1616,960,0,0
399,64,0,0,0,0,0,0,0,0,0,-1,1623,960,0,0
406,64,0,0,0,0,0,0,0,0,0,-1,1630,960,0,0
413,64,0,0,0,0,0,0,0,0,0,-1,1637,960,0,0
420,64,0,0,0,0,0,0,0,0,0,-1,1644,960,0,0
427,64,0,0,0,0,0,0,0,0,0,-1,1651,960,0,0
434,64,0,0,0,0,0,0,0,0,0,-1,1658,960,0,0
441,64,0,0,0,0,0,0,0,0,0,-1,1665,960,0,0
448,64,0,0,0,0,0,0,0,0,0,-1,1672,960,0,0
455,64,0,0,0,0,0,0,0,0,0,-1,1679,960,0,0
462,64,0,0,0,0,0,0,0,0,0,-1,1686,960,0,0
469,64,0,0,0,0,0,0,0,0,0,-1,1693,960,0,0
476,64,0,0,0,0,0,0,0,0,0,-1,1700,960,0,0
483,64,0,0,0,0,0,0,0,0,0,-1,1707,960,0,0
490,64,0,0,0,0,0,0,0,0,0,-1,1714,960,0,0
497,64,0,0,0,0,0,0,0,0,0,-1,1721,960,0,0
504,64,0,0,0,0,0,0,0,0,0,-1,1728,960,0,0
511,64,0,0,0,0,0,0,0,0,0,-1,1735,960,0,0
518,64,0,0,0,0,0,0,0,0,0,-1,1742,960,0,0
525,64,0,0,0,0,0,0,0,0,0,-1,1749,960,0,0
532,64,0,0,0,0,0,0,0,0,0,-1,1756,960,0,0
539,64,0,0,0,0,0,0,0,0,0,-1,1763,960,0,0
546,64,0,0,0,0,0,0,0,0,0,-1,1770,960,0,0
553,64,0,0,0,0,0,0,0,0,0,-1,1777,960,0,0
560,64,0,0,0,0,0,0,0,0,0,-1,1784,960,0,0
567,64,0,0,0,0,0,0,0,0,0,-1,1791,960,0,0
574,64,0,0,0,0,0,0,0,0,0,-1,1798,960,0,0
581,64,0,0,0,0,0,0,0,0,0,-1,1805,960,0,0
588,64,0,0,0,0,0,0,0,0,0,-1,1812,960,0,0
595,64,0,0,0,0,0,0,0,0,0,-1,1819,960,0,0
602,64,0,0,0,0,0,0,0,0,0,-1,1826,960,0,0
609,64,0,0,0,0,0,0,0,0,0,-1,1833,960,0,0
616,64,0,0,0,0,0,0,0,0,0,-1,1840,960,0,0
623,64,0,0,0,0,0,0,0,0,0,-1,1847,960,0,0
630,64,0,0,0,0,0,0,0,0,0,-1,1854,960,0,0
637,64,0,0,0,0,0,0,0,0,0,-1,1861,960,0,0
644,64,54.6901,2.84332,-0.000876577,0.000260418,-0.00309179,0.00283554,-0.0034517,-0.876319,0.00363575,0.0419635,1868,960,54.69,-2.8433
651,64,54.7562,2.81848,-0.000589284,2.64698e-05,-0.00192865,0.00167166,-0.00223447,-0.864547,0.002263,0.038334,1875,960,54.7562,-2.81849
658,64,54.8265,2.70001,-0.000515327,5.11939e-06,-0.000824277,0.000609273,-0.00111948,-0.938297,0.00101248,0.036222,1882,960,54.8265,-2.70004
665,64,54.8706,2.64044,-0.000585365,0.000287813,0.000226936,0.00034327,-0.000640823,1.33112,0.000576759,0.0424304,1889,960,54.8706,-2.64047
672,64,54.9673,2.68689,-0.000952134,0.000533288,0.00116809,0.0011748,-0.00159364,1.06857,0.00160444,0.0447174,1896,960,54.9672,-2.68691
679,64,54.9266,2.69537,-0.00132484,0.000517275,0.00185924,0.0016711,-0.00247866,1.01538,0.00241094,0.04015,1903,960,54.9266,-2.69536
686,64,54.7968,2.61383,-0.0014607,0.000344125,0.00214809,0.00177166,-0.00288824,0.984255,0.00271601,0.0357936,1910,960,54.7968,-2.61381
693,64,54.7678,2.68445,-0.00152941,0.000157961,0.00223226,0.00170065,-0.0030721,0.966076,0.00279321,0.0318128,1917,960,54.7678,-2.68445
700,64,54.8137,2.8349,-0.00179271,0.000173744,0.00210328,0.00151226,-0.00313123,1.00404,0.0027347,0.0278278,1924,960,54.8137,-2.83491
707,64,54.7266,3.17804,-0.00234657,0.000429616,0.00178028,0.001299,-0.00321595,1.11652,0.00268388,0.0460252,1931,960,54.7266,-3.17802
714,64,53.729,4.77618,0,0,0,0,0,0,0,-1,1938,960,53.729,-4.77617
721,64,53.056,5.04236,-0.00351286,0.00154648,0.000822977,0.00167699,-0.00364336,1.41353,0.00314086,0.0407134,1945,960,53.056,-5.04234
728,64,52.7797,5.51141,-0.00389475,0.00244386,0.00033799,0.00246183,-0.00391272,1.51767,0.00371199,0.0214136,1952,960,52.7797,-5.51144
735,64,52.7424,5.95343,-0.00418208,0.003377,-0.000285251,0.00338775,-0.00419282,-1.53313,0.00438487,0.0299505,1959,960,52.7425,-5.95346
742,64,52.8562,6.2475,-0.00478536,0.00495187,-0.00123689,0.00510653,-0.00494002,-1.4464,0.00580064,0.026669,1966,960,52.8562,-6.24752
749,64,52.8634,6.59967,-0.00551317,0.00717593,-0.00226484,0.00756805,-0.0059053,-1.39936,0.00779856,0.0167066,1973,960,52.8633,-6.59964
756,64,52.8093,6.94983,-0.00620957,0.010162,-0.00334304,0.0108183,-0.0068659,-1.37693,0.0102946,0.0153896,1980,960,52.8094,-6.94982
763,64,52.756,7.2984,-0.0066794,0.013906,-0.00436375,0.0147929,-0.00756623,-1.3703,0.0131319,0.0178424,1987,960,52.7559,-7.2984
770,64,52.5167,7.57159,-0.00684266,0.0181781,-0.00541359,0.0192992,-0.00796373,-1.3666,0.0161874,0.01857,1994,960,52.5167,-7.57157
777,64,52.2983,7.92413,-0.00687648,0.0226521,-0.00657878,0.0240515,-0.00827587,-1.36121,0.0193908,0.035818,2001,960,52.2984,-7.92412
784,64,52.2944,8.3537,-0.0061637,0.0272707,-0.00797031,0.0290735,-0.00796651,-1.34835,0.0225127,0.0453151,2008,960,52.2945,-8.35371
791,64,52.2979,8.88727,0,0,0,0,0,0,0,-1,2015,960,52.2979,-8.88725
798,64,52.1885,7.42731,0,0,0,0,0,0,0,-1,2022,960,52.1884,-7.42733
805,64,54.3772,7.26849,0,0,0,0,0,0,0,-1,2029,960,54.3773,-7.26848
812,64,0,0,0,0,0,0,0,0,0,-1,2036,960,0,0
-700,57,0,0,0,0,0,0,0,0,0,-1,524,967,0,0
-693,57,0,0,0,0,0,0,0,0,0,-1,531,967,0,0
-686,57,-35.0686,7.17413,0,0,0,0,0,0,0,-1,538,967,-35.0686,-7.17415
-679,57,-41.5753,11.3688,0,0,0,0,0,0,0,-1,545,967,-41.5753,-11.3688
-672,57,-40.515,4.44983,0,0,0,0,0,0,0,-1,552,967,-40.515,-4.44983
-665,57,-40.6876,5.20435,-0.043336,0.0198847,0.0265298,0.0295423,-0.0529936,1.22168,0.0482891,0.0482695,559,967,-40.6876,-5.20438
-658,57,-40.7157,5.41241,-0.0367966,0.0202702,0.0235025,0.0287033,-0.0452297,1.22629,0.0430392,0.0493275,566,967,-40.7157,-5.41242
-651,57,-40.7499,5.32312,0,0,0,0,0,0,0,-1,573,967,-40.7499,-5.32311
-644,57,-40.467,4.91333,-0.0245202,0.0178271,0.0168649,0.0237228,-0.0304159,1.23449,0.0313365,0.0370625,580,967,-40.467,-4.91334
-637,57,-40.3464,4.61121,-0.0181374,0.0154547,0.0137186,0.0203452,-0.0230279,1.22835,0.0250574,0.0213507,587,967,-40.3464,-4.6112
-630,57,-40.4238,4.36273,-0.0132531,0.0133364,0.00999838,0.0166765,-0.0165932,1.24839,0.0192083,0.0145316,594,967,-40.4238,-4.36274
-623,57,-40.4401,4.14172,-0.00938465,0.0107477,0.00638855,0.0126038,-0.0112408,1.28804,0.0137742,0.0131402,601,967,-40.4402,-4.14171
-616,57,-40.433,3.87262,-0.00676199,0.00794798,0.0026128,0.00839828,-0.0072123,1.40013,0.00902144,0.015435,608,967,-40.433,-3.87262
-609,57,-40.4396,3.56177,-0.00519571,0.00523267,-0.000321552,0.00524257,-0.00520561,-1.54,0.00603228,0.0161109,615,967,-40.4396,-3.56179
-602,57,-40.4169,3.25726,-0.00415694,0.00367963,-0.00210032,0.00420705,-0.00468436,-1.32477,0.00513592,0.0115676,622,967,-40.4169,-3.25728
-595,57,-40.405,3.00769,-0.00351642,0.00249215,-0.00351823,0.00411428,-0.00513855,-1.13878,0.00535302,0.0142426,629,967,-40.405,-3.00768
-588,57,-40.3246,2.87,-0.00313952,0.00163175,-0.00417507,0.0040547,-0.00556247,-1.04496,0.00557517,0.0231776,636,967,-40.3246,-2.87002
-581,57,-40.5749,1.95508,-0.00292029,0.00121449,-0.00462128,0.00420974,-0.00591554,-0.995727,0.00587342,0.0367965,643,967,-40.5749,-1.95506
-574,57,-41.054,0.951416,0,0,0,0,0,0,0,-1,650,967,-41.054,-0.951387
-567,57,-41.0565,0.977112,-0.00304571,0.00142027,-0.00500282,0.00466582,-0.00629126,-0.995304,0.00634924,0.0327946,657,967,-41.0565,-0.977098
-560,57,-41.0793,0.921692,-0.00304413,0.00191419,-0.00465718,0.00471097,-0.00584091,-1.02999,0.00610376,0.0406311,664,967,-41.0793,-0.921672
-553,57,-40.9658,0.69928,-0.0026636,0.00256218,-0.00396233,0.00469559,-0.004797,-1.07689,0.00548065,0.0420889,671,967,-40.9658,-0.699281
-546,57,-41.0161,0.619324,-0.00175986,0.0032273,-0.00287312,0.00453803,-0.00307058,-1.1428,0.00441998,0.0424676,678,967,-41.0161,-0.619343
-539,57,-41.2743,0.810547,-5.3426e-05,0.00369518,-0.00146254,0.00419828,-0.000556527,-1.23949,0.00300161,0.0398368,685,967,-41.2743,-0.810554
-532,57,-41.312,0.951416,0.00267151,0.00381679,-0.000414215,0.00395089,0.00253741,-1.25768,0.00231161,0.0367576,692,967,-41.312,-0.951388
-525,57,-41.1749,0.862244,0.00544956,0.00461419,-0.00120211,0.00630448,0.00375927,-0.618194,0.00366232,0.0381733,699,967,-41.1749,-0.862262
-518,57,0,0,0,0,0,0,0,0,0,-1,706,967,0,0
-511,57,0,0,0,0,0,0,0,0,0,-1,713,967,0,0
-504,57,0,0,0,0,0,0,0,0,0,-1,720,967,0,0
-497,57,0,0,0,0,0,0,0,0,0,-1,727,967,0,0
-490,57,0,0,0,0,0,0,0,0,0,-1,734,967,0,0
-483,57,0,0,0,0,0,0,0,0,0,-1,741,967,0,0
-476,57,0,0,0,0,0,0,0,0,0,-1,748,967,0,0
-469,57,0,0,0,0,0,0,0,0,0,-1,755,967,0,0
-462,57,0,0,0,0,0,0,0,0,0,-1,762,967,0,0
-455,57,0,0,0,0,0,0,0,0,0,-1,769,967,0,0
-448,57,0,0,0,0,0,0,0,0,0,-1,776,967,0,0
-441,57,0,0,0,0,0,0,0,0,0,-1,783,967,0,0
-434,57,0,0,0,0,0,0,0,0,0,-1,790,967,0,0
-427,57,0,0,0,0,0,0,0,0,0,-1,797,967,0,0
-420,57,0,0,0,0,0,0,0,0,0,-1,804,967,0,0
-413,57,0,0,0,0,0,0,0,0,0,-1,811,967,0,0
-406,57,0,0,0,0,0,0,0,0,0,-1,818,967,0,0
-399,57,0,0,0,0,0,0,0,0,0,-1,825,967,0,0
-392,57,0,0,0,0,0,0,0,0,0,-1,832,967,0,0
-385,57,0,0,0,0,0,0,0,0,0,-1,839,967,0,0
-378,57,0,0,0,0,0,0,0,0,0,-1,846,967,0,0
-371,57,0,0,0,0,0,0,0,0,0,-1,853,967,0,0
-364,57,0,0,0,0,0,0,0,0,0,-1,860,967,0,0
-357,57,0,0,0,0,0,0,0,0,0,-1,867,967,0,0
-350,57,0,0,0,0,0,0,0,0,0,-1,874,967,0,0
-343,57,0,0,0,0,0,0,0,0,0,-1,881,967,0,0
-336,57,0,0,0,0,0,0,0,0,0,-1,888,967,0,0
-329,57,0,0,0,0,0,0,0,0,0,-1,895,967,0,0
-322,57,0,0,0,0,0,0,0,0,0,-1,902,967,0,0
-315,57,0,0,0,0,0,0,0,0,0,-1,909,967,0,0
-308,57,0,0,0,0,0,0,0,0,0,-1,916,967,0,0
-301,57,0,0,0,0,0,0,0,0,0,-1,923,967,0,0
-294,57,0,0,0,0,0,0,0,0,0,-1,930,967,0,0
-287,57,0,0,0,0,0,0,0,0,0,-1,937,967,0,0
-280,57,0,0,0,0,0,0,0,0,0,-1,944,967,0,0
-273,57,0,0,0,0,0,0,0,0,0,-1,951,967,0,0
-266,57,0,0,0,0,0,0,0,0,0,-1,958,967,0,0
-259,57,0,0,0,0,0,0,0,0,0,-1,965,967,0,0
-252,57,0,0,0,0,0,0,0,0,0,-1,972,967,0,0
-245,57,0,0,0,0,0,0,0,0,0,-1,979,967,0,0
-238,57,0,0,0,0,0,0,0,0,0,-1,986,967,0,0
-231,57,0,0,0,0,0,0,0,0,0,-1,993,967,0,0
-224,57,0,0,0,0,0,0,0,0,0,-1,1000,967,0,0
-217,57,0,0,0,0,0,0,0,0,0,-1,1007,967,0,0
-210,57,0,0,0,0,0,0,0,0,0,-1,1014,967,0,0
-203,57,0,0,0,0,0,0,0,0,0,-1,1021,967,0,0
-196,57,0,0,0,0,0,0,0,0,0,-1,1028,967,0,0
-189,57,0,0,0,0,0,0,0,0,0,-1,1035,967,0,0
-182,57,0,0,0,0,0,0,0,0,0,-1,1042,967,0,0
-175,57,0,0,0,0,0,0,0,0,0,-1,1049,967,0,0
-168,57,0,0,0,0,0,0,0,0,0,-1,1056,967,0,0
-161,57,0,0,0,0,0,0,0,0,0,-1,1063,967,0,0
-154,57,0,0,0,0,0,0,0,0,0,-1,1070,967,0,0
-147,57,0,0,0,0,0,0,0,0,0,-1,1077,967,0,0
-140,57,0,0,0,0,0,0,0,0,0,-1,1084,967,0,0
-133,57,0,0,0,0,0,0,0,0,0,-1,1091,967,0,0
-126,57,0,0,0,0,0,0,0,0,0,-1,1098,967,0,0
-119,57,0,0,0,0,0,0,0,0,0,-1,1105,967,0,0
-112,57,0,0,0,0,0,0,0,0,0,-1,1112,967,0,0
-105,57,0,0,0,0,0,0,0,0,0,-1,1119,967,0,0
-98,57,0,0,0,0,0,0,0,0,0,-1,1126,967,0,0
-91,57,0,0,0,0,0,0,0,0,0,-1,1133,967,0,0
-84,57,0,0,0,0,0,0,0,0,0,-1,1140,967,0,0
-77,57,0,0,0,0,0,0,0,0,0,-1,1147,967,0,0
-70,57,0,0,0,0,0,0,0,0,0,-1,1154,967,0,0
-63,57,0,0,0,0,0,0,0,0,0,-1,1161,967,0,0
-56,57,0,0,0,0,0,0,0,0,0,-1,1168,967,0,0
-49,57,0,0,0,0,0,0,0,0,0,-1,1175,967,0,0
-42,57,0,0,0,0,0,0,0,0,0,-1,1182,967,0,0
-35,57,0,0,0,0,0,0,0,0,0,-1,1189,967,0,0
-28,57,0,0,0,0,0,0,0,0,0,-1,1196,967,0,0
-21,57,0,0,0,0,0,0,0,0,0,-1,1203,967,0,0
-14,57,0,0,0,0,0,0,0,0,0,-1,1210,967,0,0
-7,57,0,0,0,0,0,0,0,0,0,-1,1217,967,0,0
0,57,0,0,0,0,0,0,0,0,0,-1,1224,967,0,0
7,57,0,0,0,0,0,0,0,0,0,-1,1231,967,0,0
14,57,0,0,0,0,0,0,0,0,0,-1,1238,967,0,0
21,57,0,0,0,0,0,0,0,0,0,-1,1245,967,0,0
28,57,0,0,0,0,0,0,0,0,0,-1,1252,967,0,0
35,57,0,0,0,0,0,0,0,0,0,-1,1259,967,0,0
42,57,0,0,0,0,0,0,0,0,0,-1,1266,967,0,0
49,57,0,0,0,0,0,0,0,0,0,-1,1273,967,0,0
56,57,0,0,0,0,0,0,0,0,0,-1,1280,967,0,0
63,57,0,0,0,0,0,0,0,0,0,-1,1287,967,0,0
70,57,0,0,0,0,0,0,0,0,0,-1,1294,967,0,0
77,57,0,0,0,0,0,0,0,0,0,-1,1301,967,0,0
84,57,0,0,0,0,0,0,0,0,0,-1,1308,967,0,0
91,57,0,0,0,0,0,0,0,0,0,-1,1315,967,0,0
98,57,0,0,0,0,0,0,0,0,0,-1,1322,967,0,0
105,57,0,0,0,0,0,0,0,0,0,-1,1329,967,0,0
112,57,0,0,0,0,0,0,0,0,0,-1,1336,967,0,0
119,57,0,0,0,0,0,0,0,0,0,-1,1343,967,0,0
126,57,0,0,0,0,0,0,0,0,0,-1,1350,967,0,0
133,57,0,0,0,0,0,0,0,0,0,-1,1357,967,0,0
140,57,0,0,0,0,0,0,0,0,0,-1,1364,967,0,0
147,57,0,0,0,0,0,0,0,0,0,-1,1371,967,0,0
154,57,0,0,0,0,0,0,0,0,0,-1,1378,967,0,0
161,57,0,0,0,0,0,0,0,0,0,-1,1385,967,0,0
168,57,0,0,0,0,0,0,0,0,0,-1,1392,967,0,0
175,57,0,0,0,0,0,0,0,0,0,-1,1399,967,0,0
182,57,0,0,0,0,0,0,0,0,0,-1,1406,967,0,0
189,57,0,0,0,0,0,0,0,0,0,-1,1413,967,0,0
196,57,0,0,0,0,0,0,0,0,0,-1,1420,967,0,0
203,57,0,0,0,0,0,0,0,0,0,-1,1427,967,0,0
210,57,0,0,0,0,0,0,0,0,0,-1,1434,967,0,0
217,57,0,0,0,0,0,0,0,0,0,-1,1441,967,0,0
224,57,0,0,0,0,0,0,0,0,0,-1,1448,967,0,0
231,57,0,0,0,0,0,0,0,0,0,-1,1455,967,0,0
238,57,0,0,0,0,0,0,0,0,0,-1,1462,967,0,0
245,57,0,0,0,0,0,0,0,0,0,-1,1469,967,0,0
252,57,0,0,0,0,0,0,0,0,0,-1,1476,967,0,0
259,57,0,0,0,0,0,0,0,0,0,-1,1483,967,0,0
266,57,0,0,0,0,0,0,0,0,0,-1,1490,967,0,0
273,57,0,0,0,0,0,0,0,0,0,-1,1497,967,0,0
280,57,0,0,0,0,0,0,0,0,0,-1,1504,967,0,0
287,57,0,0,0,0,0,0,0,0,0,-1,1511,967,0,0
294,57,0,0,0,0,0,0,0,0,0,-1,1518,967,0,0
301,57,0,0,0,0,0,0,0,0,0,-1,1525,967,0,0
308,57,0,0,0,0,0,0,0,0,0,-1,1532,967,0,0
315,57,0,0,0,0,0,0,0,0,0,-1,1539,967,0,0
322,57,0,0,0,0,0,0,0,0,0,-1,1546,967,0,0
329,57,0,0,0,0,0,0,0,0,0,-1,1553,967,0,0
336,57,0,0,0,0,0,0,0,0,0,-1,1560,967,0,0
343,57,0,0,0,0,0,0,0,0,0,-1,1567,967,0,0
350,57,0,0,0,0,0,0,0,0,0,-1,1574,967,0,0
357,57,0,0,0,0,0,0,0,0,0,-1,1581,967,0,0
364,57,0,0,0,0,0,0,0,0,0,-1,1588,967,0,0
371,57,0,0,0,0,0,0,0,0,0,-1,1595,967,0,0
378,57,0,0,0,0,0,0,0,0,0,-1,1602,967,0,0
385,57,0,0,0,0,0,0,0,0,0,-1,1609,967,0,0
392,57,0,0,0,0,0,0,0,0,0,-1,1616,967,0,0
399,57,0,0,0,0,0,0,0,0,0,-1,1623,967,0,0
406,57,0,0,0,0,0,0,0,0,0,-1,1630,967,0,0
413,57,0,0,0,0,0,0,0,0,0,-1,1637,967,0,0
420,57,0,0,0,0,0,0,0,0,0,-1,1644,967,0,0
427,57,0,0,0,0,0,0,0,0,0,-1,1651,967,0,0
434,57,0,0,0,0,0,0,0,0,0,-1,1658,967,0,0
441,57,0,0,0,0,0,0,0,0,0,-1,1665,967,0,0
448,57,0,0,0,0,0,0,0,0,0,-1,1672,967,0,0
455,57,0,0,0,0,0,0,0,0,0,-1,1679,967,0,0
462,57,0,0,0,0,0,0,0,0,0,-1,1686,967,0,0
469,57,0,0,0,0,0,0,0,0,0,-1,1693,967,0,0
476,57,0,0,0,0,0,0,0,0,0,-1,1700,967,0,0
483,57,0,0,0,0,0,0,0,0,0,-1,1707,967,0,0
490,57,0,0,0,0,0,0,0,0,0,-1,1714,967,0,0
497,57,0,0,0,0,0,0,0,0,0,-1,1721,967,0,0
504,57,0,0,0,0,0,0,0,0,0,-1,1728,967,0,0
511,57,0,0,0,0,0,0,0,0,0,-1,1735,967,0,0
518,57,0,0,0,0,0,0,0,0,0,-1,1742,967,0,0
525,57,0,0,0,0,0,0,0,0,0,-1,1749,967,0,0
532,57,0,0,0,0,0,0,0,0,0,-1,1756,967,0,0
539,57,0,0,0,0,0,0,0,0,0,-1,1763,967,0,0
546,57,0,0,0,0,0,0,0,0,0,-1,1770,967,0,0
553,57,0,0,0,0,0,0,0,0,0,-1,1777,967,0,0
560,57,0,0,0,0,0,0,0,0,0,-1,1784,967,0,0
567,57,0,0,0,0,0,0,0,0,0,-1,1791,967,0,0
574,57,0,0,0,0,0,0,0,0,0,-1,1798,967,0,0
581,57,0,0,0,0,0,0,0,0,0,-1,1805,967,0,0
588,57,0,0,0,0,0,0,0,0,0,-1,1812,967,0,0
595,57,0,0,0,0,0,0,0,0,0,-1,1819,967,0,0
602,57,0,0,0,0,0,0,0,0,0,-1,1826,967,0,0
609,57,0,0,0,0,0,0,0,0,0,-1,1833,967,0,0
616,57,0,0,0,0,0,0,0,0,0,-1,1840,967,0,0
623,57,0,0,0,0,0,0,0,0,0,-1,1847,967,0,0
630,57,0,0,0,0,0,0,0,0,0,-1,1854,967,0,0
637,57,0,0,0,0,0,0,0,0,0,-1,1861,967,0,0
644,57,54.7904,2.85803,-0.00114245,-0.000178783,-0.00218912,0.00158091,-0.00290214,-0.893722,0.00262549,0.0413269,1868,967,54.7904,-2.85802
651,57,54.8193,2.85815,-0.000721046,-0.000303082,-0.00133628,0.000840454,-0.00186458,-0.862965,0.00159863,0.0357235,1875,967,54.8193,-2.85817
658,57,54.8331,2.79779,-0.000542055,-0.000292573,-0.000454091,5.3599e-05,-0.000888227,-0.919444,0.000610802,0.0345207,1882,967,54.8332,-2.79778
665,57,54.8904,2.63239,-0.000525043,9.02277e-06,0.00042805,0.000246503,-0.000762523,1.06428,0.000607424,0.0438681,1889,967,54.8903,-2.63241
672,57,55.0504,2.72559,-0.000795014,0.000329138,0.00127141,0.00115718,-0.00162305,0.993526,0.00161266,0.0476352,1896,967,55.0504,-2.72556
679,57,54.9237,2.68237,-0.00111046,0.000386175,0.00193425,0.00171181,-0.0024361,0.96997,0.00240693,0.0413191,1903,967,54.9237,-2.68238
686,57,54.8101,2.49323,-0.00123113,0.000268747,0.00224394,0.00188475,-0.00284713,0.946665,0.00275073,0.0370716,1910,967,54.81,-2.49325
693,57,54.7987,2.65619,-0.00130759,0.00010783,0.00233322,0.0018383,-0.00303807,0.932648,0.00284364,0.0318144,1917,967,54.7987,-2.65619
700,57,54.7865,2.8443,-0.00153486,0.000117363,0.00219083,0.00163266,-0.00305016,0.965693,0.00274461,0.0236537,1924,967,54.7865,-2.84429
707,57,54.7615,3.14392,-0.00203525,0.000379619,0.00186831,0.00139671,-0.00305234,1.07227,0.00262727,0.0489408,1931,967,54.7615,-3.1439
714,57,54.6637,3.59747,0,0,0,0,0,0,0,-1,1938,967,54.6637,-3.59749
721,57,53.3462,5.25031,0,0,0,0,0,0,0,-1,1945,967,53.3462,-5.25032
728,57,53.1698,5.64301,-0.00379322,0.00255607,0.000495861,0.00259457,-0.00383171,1.49333,0.00373306,0.0234178,1952,967,53.1698,-5.64298
735,57,53.1881,6.01428,-0.00413522,0.00355249,-0.000106593,0.00355397,-0.0041367,-1.55693,0.00444446,0.028897,1959,967,53.1881,-6.01428
742,57,53.2322,6.21973,-0.00482541,0.00520541,-0.00107229,0.00531876,-0.00493876,-1.46548,0.00592354,0.0219396,1966,967,53.2322,-6.21972
749,57,53.2048,6.57648,-0.0056695,0.00746315,-0.00206525,0.00778028,-0.00598662,-1.41843,0.00797078,0.0151477,1973,967,53.2048,-6.57649
756,57,53.1533,6.89215,-0.00653991,0.0104875,-0.0031167,0.01104,-0.00709246,-1.39533,0.0105512,0.0118354,1980,967,53.1533,-6.89213
763,57,53.0846,7.19885,-0.00724466,0.0143578,-0.00412549,0.0151189,-0.0080057,-1.38837,0.0135599,0.0131814,1987,967,53.0846,-7.19885
770,57,52.9867,7.47357,-0.00766864,0.0189298,-0.00517543,0.0199013,-0.00864017,-1.38524,0.0169006,0.0134326,1994,967,52.9868,-7.4736
777,57,52.8323,7.79779,-0.00799231,0.0237982,-0.00633256,0.0250131,-0.0092073,-1.38124,0.0204476,0.0286289,2001,967,52.8323,-7.79781
784,57,52.6411,8.16699,-0.00765943,0.0289298,-0.00769772,0.0304833,-0.00921294,-1.37166,0.0239903,0.0453536,2008,967,52.6411,-8.16698
791,57,52.4678,8.56409,0,0,0,0,0,0,0,-1,2015,967,52.4677,-8.56408
798,57,53.6355,7.92041,0,0,0,0,0,0,0,-1,2022,967,53.6354,-7.92043
805,57,53.7283,6.82739,0,0,0,0,0,0,0,-1,2029,967,53.7283,-6.82739
812,57,0,0,0,0,0,0,0,0,0,-1,2036,967,0,0
-700,50,0,0,0,0,0,0,0,0,0,-1,524,974,0,0
-693,50,-34.6191,7.36676,-0.0806374,0.0310865,0.0261052,0.0368853,-0.0864361,1.35222,0.0730903,0.0468369,531,974,-34.6191,-7.36676
-686,50,-35.6361,6.76862,-0.0741922,0.0398134,0.028178,0.0463977,-0.0807765,1.34125,0.074313,0.0449591,538,974,-35.6362,-6.7686
-679,50,-36.7308,5.83051,0,0,0,0,0,0,0,-1,545,974,-36.7308,-5.83048
-672,50,-40.2297,3.341,0,0,0,0,0,0,0,-1,552,974,-40.2297,-3.34103
-665,50,-41.1957,4.92505,0,0,0,0,0,0,0,-1,559,974,-41.1958,-4.92502
-658,50,-41.2189,5.21802,0,0,0,0,0,0,0,-1,566,974,-41.219,-5.218
-651,50,-39.9017,4.27917,0,0,0,0,0,0,0,-1,573,974,-39.9016,-4.27916
-644,50,-40.6891,4.69965,0,0,0,0,0,0,0,-1,580,974,-40.6891,-4.69964
-637,50,-40.6531,4.47034,-0.0195697,0.0182685,0.0125919,0.0220758,-0.023377,1.27718,0.0262458,0.020018,587,974,-40.6531,-4.47037
-630,50,-40.7239,4.28741,-0.013625,0.0140037,0.00918863,0.0167805,-0.0164018,1.27732,0.0191582,0.012376,594,974,-40.7239,-4.28744
-623,50,-40.7429,4.09991,-0.00895659,0.0109199,0.00581439,0.0124959,-0.0105325,1.30612,0.0133115,0.0118349,601,974,-40.7429,-4.09989
-616,50,-40.7603,3.86786,-0.00583642,0.00792634,0.0021603,0.00825747,-0.00616755,1.4187,0.00835737,0.0122919,608,974,-40.7603,-3.86783
-609,50,-40.7597,3.55353,-0.00407289,0.00525511,-0.000914767,0.00534397,-0.00416175,-1.47396,0.00550226,0.0117495,615,974,-40.7597,-3.55352
-602,50,-40.7663,3.2962,-0.0028961,0.0036498,-0.0028713,0.00473077,-0.00397707,-1.21074,0.00503375,0.0114975,622,974,-40.7663,-3.29619
-595,50,-40.7585,3.06567,-0.00217681,0.00241522,-0.00440366,0.00508548,-0.00484708,-1.0257,0.00573511,0.0126279,629,974,-40.7585,-3.06568
-588,50,-40.7552,2.73431,-0.00175507,0.00149385,-0.00515327,0.00527264,-0.00553386,-0.938083,0.00623974,0.0209906,636,974,-40.7553,-2.73429
-581,50,-40.9296,1.66315,-0.00152359,0.0010178,-0.0056057,0.00549502,-0.0060008,-0.896854,0.00663926,0.0277548,643,974,-40.9296,-1.66316
-574,50,-41.0807,0.677979,0,0,0,0,0,0,0,-1,650,974,-41.0807,-0.67796
-567,50,-41.0475,0.940674,-0.00186442,0.00116057,-0.00576591,0.00560906,-0.00631291,-0.913666,0.00688715,0.0348885,657,974,-41.0475,-0.940692
-560,50,-41.0119,0.783508,-0.00205306,0.00164356,-0.00518815,0.0053028,-0.0057123,-0.956517,0.00636104,0.0414051,664,974,-41.0119,-0.783508
-553,50,-40.963,0.706116,-0.00197765,0.00229817,-0.00418993,0.00486411,-0.00454359,-1.0213,0.00543259,0.0438734,671,974,-40.963,-0.706088
-546,50,-41.0302,0.707825,-0.00149106,0.00296657,-0.00272784,0.00426036,-0.00278485,-1.12793,0.00409718,0.0437602,678,974,-41.0302,-0.707797
-539,50,-40.9951,0.818176,-0.00023709,0.00346901,-0.000950734,0.00369867,-0.000466752,-1.33377,0.00263518,0.042979,685,974,-40.9951,-0.818197
-532,50,-41.0084,0.89386,0.00207637,0.00365179,0.000315431,0.0037126,0.00201556,1.38035,0.0021461,0.0405359,692,974,-41.0084,-0.893865
-525,50,-41.0439,0.86853,0.00471824,0.00466337,-0.000520687,0.00521221,0.00416939,-0.759076,0.00318463,0.0408965,699,974,-41.0439,-0.868525
-518,50,0,0,0,0,0,0,0,0,0,-1,706,974,0,0
-511,50,0,0,0,0,0,0,0,0,0,-1,713,974,0,0
-504,50,0,0,0,0,0,0,0,0,0,-1,720,974,0,0
-497,50,0,0,0,0,0,0,0,0,0,-1,727,974,0,0
-490,50,0,0,0,0,0,0,0,0,0,-1,734,974,0,0
-483,50,0,0,0,0,0,0,0,0,0,-1,741,974,0,0
-476,50,0,0,0,0,0,0,0,0,0,-1,748,974,0,0
-469,50,0,0,0,0,0,0,0,0,0,-1,755,974,0,0
-462,50,0,0,0,0,0,0,0,0,0,-1,762,974,0,0
-455,50,0,0,0,0,0,0,0,0,0,-1,769,974,0,0
-448,50,0,0,0,0,0,0,0,0,0,-1,776,974,0,0
-441,50,0,0,0,0,0,0,0,0,0,-1,783,974,0,0
-434,50,0,0,0,0,0,0,0,0,0,-1,790,974,0,0
-427,50,0,0,0,0,0,0,0,0,0,-1,797,974,0,0
-420,50,0,0,0,0,0,0,0,0,0,-1,804,974,0,0
-413,50,0,0,0,0,0,0,0,0,0,-1,811,974,0,0
-406,50,0,0,0,0,0,0,0,0,0,-1,818,974,0,0
-399,50,0,0,0,0,0,0,0,0,0,-1,825,974,0,0
-392,50,0,0,0,0,0,0,0,0,0,-1,832,974,0,0
-385,50,0,0,0,0,0,0,0,0,0,-1,839,974,0,0
-378,50,0,0,0,0,0,0,0,0,0,-1,846,974,0,0
-371,50,0,0,0,0,0,0,0,0,0,-1,853,974,0,0
-364,50,0,0,0,0,0,0,0,0,0,-1,860,974,0,0
-357,50,0,0,0,0,0,0,0,0,0,-1,867,974,0,0
-350,50,0,0,0,0,0,0,0,0,0,-1,874,974,0,0
-343,50,0,0,0,0,0,0,0,0,0,-1,881,974,0,0
-336,50,0,0,0,0,0,0,0,0,0,-1,888,974,0,0
-329,50,0,0,0,0,0,0,0,0,0,-1,895,974,0,0
-322,50,0,0,0,0,0,0,0,0,0,-1,902,974,0,0
-315,50,0,0,0,0,0,0,0,0,0,-1,909,974,0,0
-308,50,0,0,0,0,0,0,0,0,0,-1,916,974,0,0
-301,50,0,0,0,0,0,0,0,0,0,-1,923,974,0,0
-294,50,0,0,0,0,0,0,0,0,0,-1,930,974,0,0
-287,50,0,0,0,0,0,0,0,0,0,-1,937,974,0,0
-280,50,0,0,0,0,0,0,0,0,0,-1,944,974,0,0
-273,50,0,0,0,0,0,0,0,0,0,-1,951,974,0,0
-266,50,0,0,0,0,0,0,0,0,0,-1,958,974,0,0
-259,50,0,0,0,0,0,0,0,0,0,-1,965,974,0,0
-252,50,0,0,0,0,0,0,0,0,0,-1,972,974,0,0
-245,50,0,0,0,0,0,0,0,0,0,-1,979,974,0,0
-238,50,0,0,0,0,0,0,0,0,0,-1,986,974,0,0
-231,50,0,0,0,0,0,0,0,0,0,-1,993,974,0,0
-224,50,0,0,0,0,0,0,0,0,0,-1,1000,974,0,0
-217,50,0,0,0,0,0,0,0,0,0,-1,1007,974,0,0
-210,50,0,0,0,0,0,0,0,0,0,-1,1014,974,0,0
-203,50,0,0,0,0,0,0,0,0,0,-1,1021,974,0,0
-196,50,0,0,0,0,0,0,0,0,0,-1,1028,974,0,0
-189,50,0,0,0,0,0,0,0,0,0,-1,1035,974,0,0
-182,50,0,0,0,0,0,0,0,0,0,-1,1042,974,0,0
-175,50,0,0,0,0,0,0,0,0,0,-1,1049,974,0,0
-168,50,0,0,0,0,0,0,0,0,0,-1,1056,974,0,0
-161,50,0,0,0,0,0,0,0,0,0,-1,1063,974,0,0
-154,50,0,0,0,0,0,0,0,0,0,-1,1070,974,0,0
-147,50,0,0,0,0,0,0,0,0,0,-1,1077,974,0,0
-140,50,0,0,0,0,0,0,0,0,0,-1,1084,974,0,0
-133,50,0,0,0,0,0,0,0,0,0,-1,1091,974,0,0
-126,50,0,0,0,0,0,0,0,0,0,-1,1098,974,0,0
-119,50,0,0,0,0,0,0,0,0,0,-1,1105,974,0,0
-112,50,0,0,0,0,0,0,0,0,0,-1,1112,974,0,0
-105,50,0,0,0,0,0,0,0,0,0,-1,1119,974,0,0
-98,50,0,0,0,0,0,0,0,0,0,-1,1126,974,0,0
-91,50,0,0,0,0,0,0,0,0,0,-1,1133,974,0,0
-84,50,0,0,0,0,0,0,0,0,0,-1,1140,974,0,0
-77,50,0,0,0,0,0,0,0,0,0,-1,1147,974,0,0
-70,50,0,0,0,0,0,0,0,0,0,-1,1154,974,0,0
-63,50,0,0,0,0,0,0,0,0,0,-1,1161,974,0,0
-56,50,0,0,0,0,0,0,0,0,0,-1,1168,974,0,0
-49,50,0,0,0,0,0,0,0,0,0,-1,1175,974,0,0
-42,50,0,0,0,0,0,0,0,0,0,-1,1182,974,0,0
-35,50,0,0,0,0,0,0,0,0,0,-1,1189,974,0,0
-28,50,0,0,0,0,0,0,0,0,0,-1,1196,974,0,0
-21,50,0,0,0,0,0,0,0,0,0,-1,1203,974,0,0
-14,50,0,0,0,0,0,0,0,0,0,-1,1210,974,0,0
-7,50,0,0,0,0,0,0,0,0,0,-1,1217,974,0,0
0,50,0,0,0,0,0,0,0,0,0,-1,1224,974,0,0
7,50,0,0,0,0,0,0,0,0,0,-1,1231,974,0,0
14,50,0,0,0,0,0,0,0,0,0,-1,1238,974,0,0
21,50,0,0,0,0,0,0,0,0,0,-1,1245,974,0,0
28,50,0,0,0,0,0,0,0,0,0,-1,1252,974,0,0
35,50,0,0,0,0,0,0,0,0,0,-1,1259,974,0,0
42,50,0,0,0,0,0,0,0,0,0,-1,1266,974,0,0
49,50,0,0,0,0,0,0,0,0,0,-1,1273,974,0,0
56,50,0,0,0,0,0,0,0,0,0,-1,1280,974,0,0
63,50,0,0,0,0,0,0,0,0,0,-1,1287,974,0,0
70,50,0,0,0,0,0,0,0,0,0,-1,1294,974,0,0
77,50,0,0,0,0,0,0,0,0,0,-1,1301,974,0,0
84,50,0,0,0,0,0,0,0,0,0,-1,1308,974,0,0
91,50,0,0,0,0,0,0,0,0,0,-1,1315,974,0,0
98,50,0,0,0,0,0,0,0,0,0,-1,1322,974,0,0
105,50,0,0,0,0,0,0,0,0,0,-1,1329,974,0,0
112,50,0,0,0,0,0,0,0,0,0,-1,1336,974,0,0
119,50,0,0,0,0,0,0,0,0,0,-1,1343,974,0,0
126,50,0,0,0,0,0,0,0,0,0,-1,1350,974,0,0
133,50,0,0,0,0,0,0,0,0,0,-1,1357,974,0,0
140,50,0,0,0,0,0,0,0,0,0,-1,1364,974,0,0
147,50,0,0,0,0,0,0,0,0,0,-1,1371,974,0,0
154,50,0,0,0,0,0,0,0,0,0,-1,1378,974,0,0
161,50,0,0,0,0,0,0,0,0,0,-1,1385,974,0,0
168,50,0,0,0,0,0,0,0,0,0,-1,1392,974,0,0
175,50,0,0,0,0,0,0,0,0,0,-1,1399,974,0,0
182,50,0,0,0,0,0,0,0,0,0,-1,1406,974,0,0
189,50,0,0,0,0,0,0,0,0,0,-1,1413,974,0,0
196,50,0,0,0,0,0,0,0,0,0,-1,1420,974,0,0
203,50,0,0,0,0,0,0,0,0,0,-1,1427,974,0,0
210,50,0,0,0,0,0,0,0,0,0,-1,1434,974,0,0
217,50,0,0,0,0,0,0,0,0,0,-1,1441,974,0,0
224,50,0,0,0,0,0,0,0,0,0,-1,1448,974,0,0
231,50,0,0,0,0,0,0,0,0,0,-1,1455,974,0,0
238,50,0,0,0,0,0,0,0,0,0,-1,1462,974,0,0
245,50,0,0,0,0,0,0,0,0,0,-1,1469,974,0,0
252,50,0,0,0,0,0,0,0,0,0,-1,1476,974,0,0
259,50,0,0,0,0,0,0,0,0,0,-1,1483,974,0,0
266,50,0,0,0,0,0,0,0,0,0,-1,1490,974,0,0
273,50,0,0,0,0,0,0,0,0,0,-1,1497,974,0,0
280,50,0,0,0,0,0,0,0,0,0,-1,1504,974,0,0
287,50,0,0,0,0,0,0,0,0,0,-1,1511,974,0,0
294,50,0,0,0,0,0,0,0,0,0,-1,1518,974,0,0
301,50,0,0,0,0,0,0,0,0,0,-1,1525,974,0,0
308,50,0,0,0,0,0,0,0,0,0,-1,1532,974,0,0
315,50,0,0,0,0,0,0,0,0,0,-1,1539,974,0,0
322,50,0,0,0,0,0,0,0,0,0,-1,1546,974,0,0
329,50,0,0,0,0,0,0,0,0,0,-1,1553,974,0,0
336,50,0,0,0,0,0,0,0,0,0,-1,1560,974,0,0
343,50,0,0,0,0,0,0,0,0,0,-1,1567,974,0,0
350,50,0,0,0,0,0,0,0,0,0,-1,1574,974,0,0
357,50,0,0,0,0,0,0,0,0,0,-1,1581,974,0,0
364,50,0,0,0,0,0,0,0,0,0,-1,1588,974,0,0
371,50,0,0,0,0,0,0,0,0,0,-1,1595,974,0,0
378,50,0,0,0,0,0,0,0,0,0,-1,1602,974,0,0
385,50,0,0,0,0,0,0,0,0,0,-1,1609,974,0,0
392,50,0,0,0,0,0,0,0,0,0,-1,1616,974,0,0
399,50,0,0,0,0,0,0,0,0,0,-1,1623,974,0,0
406,50,0,0,0,0,0,0,0,0,0,-1,1630,974,0,0
413,50,0,0,0,0,0,0,0,0,0,-1,1637,974,0,0
420,50,0,0,0,0,0,0,0,0,0,-1,1644,974,0,0
427,50,0,0,0,0,0,0,0,0,0,-1,1651,974,0,0
434,50,0,0,0,0,0,0,0,0,0,-1,1658,974,0,0
441,50,0,0,0,0,0,0,0,0,0,-1,1665,974,0,0
448,50,0,0,0,0,0,0,0,0,0,-1,1672,974,0,0
455,50,0,0,0,0,0,0,0,0,0,-1,1679,974,0,0
462,50,0,0,0,0,0,0,0,0,0,-1,1686,974,0,0
469,50,0,0,0,0,0,0,0,0,0,-1,1693,974,0,0
476,50,0,0,0,0,0,0,0,0,0,-1,1700,974,0,0
483,50,0,0,0,0,0,0,0,0,0,-1,1707,974,0,0
490,50,0,0,0,0,0,0,0,0,0,-1,1714,974,0,0
497,50,0,0,0,0,0,0,0,0,0,-1,1721,974,0,0
504,50,0,0,0,0,0,0,0,0,0,-1,1728,974,0,0
511,50,0,0,0,0,0,0,0,0,0,-1,1735,974,0,0
518,50,0,0,0,0,0,0,0,0,0,-1,1742,974,0,0
525,50,0,0,0,0,0,0,0,0,0,-1,1749,974,0,0
532,50,0,0,0,0,0,0,0,0,0,-1,1756,974,0,0
539,50,0,0,0,0,0,0,0,0,0,-1,1763,974,0,0
546,50,0,0,0,0,0,0,0,0,0,-1,1770,974,0,0
553,50,0,0,0,0,0,0,0,0,0,-1,1777,974,0,0
560,50,0,0,0,0,0,0,0,0,0,-1,1784,974,0,0
567,50,0,0,0,0,0,0,0,0,0,-1,1791,974,0,0
574,50,0,0,0,0,0,0,0,0,0,-1,1798,974,0,0
581,50,0,0,0,0,0,0,0,0,0,-1,1805,974,0,0
588,50,0,0,0,0,0,0,0,0,0,-1,1812,974,0,0
595,50,0,0,0,0,0,0,0,0,0,-1,1819,974,0,0
602,50,0,0,0,0,0,0,0,0,0,-1,1826,974,0,0
609,50,0,0,0,0,0,0,0,0,0,-1,1833,974,0,0
616,50,0,0,0,0,0,0,0,0,0,-1,1840,974,0,0
623,50,0,0,0,0,0,0,0,0,0,-1,1847,974,0,0
630,50,0,0,0,0,0,0,0,0,0,-1,1854,974,0,0
637,50,0,0,0,0,0,0,0,0,0,-1,1861,974,0,0
644,50,54.8982,2.87061,-0.00101982,-0.00113787,-0.00170481,0.000626989,-0.00278467,-0.768093,0.00209693,0.0400618,1868,974,54.8982,-2.87058
651,50,54.7234,2.8855,-0.000604638,-0.00105107,-0.00110165,0.000296186,-0.00195189,-0.685443,0.00141039,0.0345599,1875,974,54.7234,-2.8855
658,50,54.761,2.83832,-0.000418897,-0.000926793,-0.000375359,-0.000219652,-0.00112604,-0.487992,0.000689242,0.0371692,1882,974,54.7609,-2.83834
665,50,54.8787,2.7243,-0.000387441,-0.000550175,0.000397841,-6.27317e-05,-0.000874885,0.684528,0.000563511,0.0406975,1889,974,54.8787,-2.7243
672,50,54.8867,2.63806,-0.00060946,-0.000104688,0.00118968,0.000859086,-0.00157323,0.889921,0.00142433,0.0411586,1896,974,54.8867,-2.63808
679,50,54.7986,2.63397,-0.000888541,8.3964e-05,0.00185398,0.0015144,-0.00231897,0.913647,0.00222939,0.040166,1903,974,54.7986,-2.63396
686,50,54.8287,2.51947,-0.00100667,7.42299e-05,0.0022047,0.00180375,-0.00273619,0.905596,0.0026395,0.0424929,1910,974,54.8288,-2.5195
693,50,54.8263,2.66895,-0.00108852,-1.59841e-05,0.00232073,0.00182964,-0.00293414,0.898944,0.0027749,0.0406491,1917,974,54.8263,-2.66894
700,50,54.7429,2.88568,-0.00127726,9.02881e-06,0.00218363,0.00164226,-0.00291049,0.928614,0.00266231,0.0219936,1924,974,54.7429,-2.88567
707,50,54.7926,2.90112,-0.0017417,0.000302336,0.00186677,0.00140854,-0.00284791,1.03585,0.00250386,0.0355028,1931,974,54.7926,-2.90112
714,50,54.7695,2.91718,0,0,0,0,0,0,0,-1,1938,974,54.7695,-2.91715
721,50,53.5503,5.26099,0,0,0,0,0,0,0,-1,1945,974,53.5503,-5.26098
728,50,53.5486,5.66119,-0.00369312,0.00268488,0.000602048,0.00274121,-0.00374945,1.4775,0.00376243,0.0218102,1952,974,53.5486,-5.66119
735,50,53.5863,5.98114,-0.00411294,0.00376219,-4.98331e-06,0.00376219,-0.00411294,-1.57016,0.00454821,0.0207225,1959,974,53.5863,-5.98113
742,50,53.5927,6.26208,-0.0049105,0.00546995,-0.00098237,0.0055621,-0.00500266,-1.47727,0.00610241,0.0162999,1966,974,53.5927,-6.26209
749,50,53.5605,6.51782,-0.00588404,0.00774063,-0.00193747,0.00801079,-0.0061542,-1.43225,0.00820154,0.0170623,1973,974,53.5606,-6.51783
756,50,53.5037,6.81671,-0.00693033,0.010761,-0.00295595,0.0112419,-0.00741115,-1.40955,0.0108448,0.0140787,1980,974,53.5037,-6.81673
763,50,53.41,7.1109,-0.00786424,0.0146906,-0.00396805,0.0153683,-0.00854197,-1.40163,0.0139909,0.0139275,1987,974,53.4101,-7.11091
770,50,53.3389,7.35065,-0.00854277,0.0194905,-0.00505245,0.0203733,-0.00942557,-1.39781,0.0175872,0.0128511,1994,974,53.3389,-7.35065
777,50,53.2983,7.64276,-0.0091393,0.0246958,-0.00625644,0.0258156,-0.0102591,-1.39369,0.0214636,0.0244641,2001,974,53.2983,-7.64274
784,50,53.0789,8.07849,-0.00915409,0.0302573,-0.00766617,0.031696,-0.0105928,-1.38529,0.0254086,0.0416157,2008,974,53.0788,-8.07849
791,50,52.8752,8.42474,-0.0077238,0.0362086,-0.00973491,0.0382691,-0.00978431,-1.36221,0.0293234,0.0467459,2015,974,52.8752,-8.42477
798,50,53.5244,8.28876,0,0,0,0,0,0,0,-1,2022,974,53.5244,-8.28874
805,50,53.1201,6.52881,0,0,0,0,0,0,0,-1,2029,974,53.1201,-6.52879
812,50,0,0,0,0,0,0,0,0,0,-1,2036,974,0,0
-700,43,0,0,0,0,0,0,0,0,0,-1,524,981,0,0
-693,43,-35.2212,7.41766,-0.0907851,0.0758997,0.0262449,0.0799343,-0.0948198,1.41826,0.101016,0.042881,531,981,-35.2212,-7.41766
-686,43,-36.2424,6.55432,-0.0802225,0.0766398,0.0279728,0.0814788,-0.0850615,1.3995,0.0961595,0.0439499,538,981,-36.2424,-6.55434
-679,43,-37.2631,5.57202,-0.0705608,0.0716374,0.0270439,0.0766071,-0.0755304,1.38906,0.0878374,0.046411,545,981,-37.2631,-5.57203
-672,43,-38.2591,5.14294,0,0,0,0,0,0,0,-1,552,981,-38.2591,-5.14295
-665,43,-39.3478,4.51526,0,0,0,0,0,0,0,-1,559,981,-39.3478,-4.51526
-658,43,-39.7662,4.11469,0,0,0,0,0,0,0,-1,566,981,-39.7662,-4.11469
-651,43,-40.2783,4.29681,-0.0354332,0.0384767,0.0175415,0.0424286,-0.0393851,1.34921,0.0472461,0.041862,573,981,-40.2783,-4.29679
-644,43,-40.8091,4.53088,-0.0278906,0.0306662,0.0146016,0.0341052,-0.0313297,1.33949,0.0377902,0.0260744,580,981,-40.8091,-4.53088
-637,43,-40.9675,4.36212,-0.0201244,0.0216065,0.0113084,0.0244738,-0.0229918,1.32247,0.0274087,0.0193528,587,981,-40.9675,-4.36213
-630,43,-40.9932,4.18915,-0.0137643,0.0147837,0.00801819,0.0168816,-0.0158622,1.31489,0.0189077,0.0156754,594,981,-40.9932,-4.18917
-623,43,-40.9829,4.00342,-0.00849442,0.0111979,0.00495854,0.012376,-0.00967251,1.33753,0.0127615,0.0125036,601,981,-40.9829,-4.00342
-616,43,-40.9909,3.7782,-0.00500895,0.00785905,0.00153415,0.00803943,-0.00518933,1.45376,0.00769648,0.0113301,608,981,-40.9909,-3.77818
-609,43,-41.0175,3.56018,-0.00309014,0.00511698,-0.0015482,0.00539932,-0.00337249,-1.39041,0.00510927,0.0136022,615,981,-41.0175,-3.56018
-602,43,-40.9966,3.36047,-0.00180327,0.00347931,-0.00356197,0.00527244,-0.0035964,-1.10443,0.00515081,0.0162334,622,981,-40.9967,-3.36045
-595,43,-41.0801,3.13715,-0.0010413,0.00221622,-0.00510057,0.00594177,-0.00476685,-0.939945,0.00619502,0.0170278,629,981,-41.0801,-3.13718
-588,43,-41.2584,2.97723,0,0,0,0,0,0,0,-1,636,981,-41.2584,-2.97721
-581,43,-41.0287,1.40613,-0.000332298,0.000696266,-0.00629427,0.00649722,-0.00613326,-0.826161,0.00729322,0.0341105,643,981,-41.0287,-1.40614
-574,43,-41.0109,0.988831,-0.000469775,0.000482145,-0.00651453,0.00653808,-0.00652571,-0.821864,0.00754238,0.0276967,650,981,-41.0109,-0.988812
-567,43,-40.9955,0.908813,-0.000860077,0.000653175,-0.00621619,0.00615861,-0.00636552,-0.84596,0.00723114,0.036838,657,981,-40.9955,-0.908784
-560,43,-40.9382,0.828003,-0.00124846,0.00106156,-0.00544139,0.00546917,-0.00565607,-0.889978,0.00642347,0.0418429,664,981,-40.9382,-0.828031
-553,43,-40.894,0.809509,-0.00150231,0.00165959,-0.00418659,0.00455379,-0.00439651,-0.965932,0.00516772,0.0443719,671,981,-40.8941,-0.809512
-546,43,-40.9434,0.752625,-0.00147155,0.00227734,-0.00240681,0.00345351,-0.00264772,-1.11624,0.00353278,0.0456067,678,981,-40.9434,-0.752597
-539,43,-41.031,0.81842,-0.000723975,0.00281074,-0.000341031,0.00284334,-0.000756577,-1.47549,0.00219172,0.0473415,685,981,-41.031,-0.818413
-532,43,-41.1035,0.778748,0.00109348,0.00308877,0.00106086,0.00354739,0.000634858,1.16275,0.00218428,0.0468216,692,981,-41.1035,-0.778759
-525,43,-41.1325,0.715393,0,0,0,0,0,0,0,-1,699,981,-41.1325,-0.715401
-518,43,0,0,0,0,0,0,0,0,0,-1,706,981,0,0
-511,43,0,0,0,0,0,0,0,0,0,-1,713,981,0,0
-504,43,0,0,0,0,0,0,0,0,0,-1,720,981,0,0
-497,43,0,0,0,0,0,0,0,0,0,-1,727,981,0,0
-490,43,0,0,0,0,0,0,0,0,0,-1,734,981,0,0
-483,43,0,0,0,0,0,0,0,0,0,-1,741,981,0,0
-476,43,0,0,0,0,0,0,0,0,0,-1,748,981,0,0
-469,43,0,0,0,0,0,0,0,0,0,-1,755,981,0,0
-462,43,0,0,0,0,0,0,0,0,0,-1,762,981,0,0
-455,43,0,0,0,0,0,0,0,0,0,-1,769,981,0,0
-448,43,0,0,0,0,0,0,0,0,0,-1,776,981,0,0
-441,43,0,0,0,0,0,0,0,0,0,-1,783,981,0,0
-434,43,0,0,0,0,0,0,0,0,0,-1,790,981,0,0
-427,43,0,0,0,0,0,0,0,0,0,-1,797,981,0,0
-420,43,0,0,0,0,0,0,0,0,0,-1,804,981,0,0
-413,43,0,0,0,0,0,0,0,0,0,-1,811,981,0,0
-406,43,0,0,0,0,0,0,0,0,0,-1,818,981,0,0
-399,43,0,0,0,0,0,0,0,0,0,-1,825,981,0,0
-392,43,0,0,0,0,0,0,0,0,0,-1,832,981,0,0
-385,43,0,0,0,0,0,0,0,0,0,-1,839,981,0,0
-378,43,0,0,0,0,0,0,0,0,0,-1,846,981,0,0
-371,43,0,0,0,0,0,0,0,0,0,-1,853,981,0,0
-364,43,0,0,0,0,0,0,0,0,0,-1,860,981,0,0
-357,43,0,0,0,0,0,0,0,0,0,-1,867,981,0,0
-350,43,0,0,0,0,0,0,0,0,0,-1,874,981,0,0
-343,43,0,0,0,0,0,0,0,0,0,-1,881,981,0,0
-336,43,0,0,0,0,0,0,0,0,0,-1,888,981,0,0
-329,43,0,0,0,0,0,0,0,0,0,-1,895,981,0,0
-322,43,0,0,0,0,0,0,0,0,0,-1,902,981,0,0
-315,43,0,0,0,0,0,0,0,0,0,-1,909,981,0,0
-308,43,0,0,0,0,0,0,0,0,0,-1,916,981,0,0
-301,43,0,0,0,0,0,0,0,0,0,-1,923,981,0,0
-294,43,0,0,0,0,0,0,0,0,0,-1,930,981,0,0
-287,43,0,0,0,0,0,0,0,0,0,-1,937,981,0,0
-280,43,0,0,0,0,0,0,0,0,0,-1,944,981,0,0
-273,43,0,0,0,0,0,0,0,0,0,-1,951,981,0,0
-266,43,0,0,0,0,0,0,0,0,0,-1,958,981,0,0
-259,43,0,0,0,0,0,0,0,0,0,-1,965,981,0,0
-252,43,0,0,0,0,0,0,0,0,0,-1,972,981,0,0
-245,43,0,0,0,0,0,0,0,0,0,-1,979,981,0,0
-238,43,0,0,0,0,0,0,0,0,0,-1,986,981,0,0
-231,43,0,0,0,0,0,0,0,0,0,-1,993,981,0,0
-224,43,0,0,0,0,0,0,0,0,0,-1,1000,981,0,0
-217,43,0,0,0,0,0,0,0,0,0,-1,1007,981,0,0
-210,43,0,0,0,0,0,0,0,0,0,-1,1014,981,0,0
-203,43,0,0,0,0,0,0,0,0,0,-1,1021,981,0,0
-196,43,0,0,0,0,0,0,0,0,0,-1,1028,981,0,0
-189,43,0,0,0,0,0,0,0,0,0,-1,1035,981,0,0
-182,43,0,0,0,0,0,0,0,0,0,-1,1042,981,0,0
-175,43,0,0,0,0,0,0,0,0,0,-1,1049,981,0,0
-168,43,0,0,0,0,0,0,0,0,0,-1,1056,981,0,0
-161,43,0,0,0,0,0,0,0,0,0,-1,1063,981,0,0
-154,43,0,0,0,0,0,0,0,0,0,-1,1070,981,0,0
-147,43,0,0,0,0,0,0,0,0,0,-1,1077,981,0,0
-140,43,0,0,0,0,0,0,0,0,0,-1,1084,981,0,0
-133,43,0,0,0,0,0,0,0,0,0,-1,1091,981,0,0
-126,43,0,0,0,0,0,0,0,0,0,-1,1098,981,0,0
-119,43,0,0,0,0,0,0,0,0,0,-1,1105,981,0,0
-112,43,0,0,0,0,0,0,0,0,0,-1,1112,981,0,0
-105,43,0,0,0,0,0,0,0,0,0,-1,1119,981,0,0
-98,43,0,0,0,0,0,0,0,0,0,-1,1126,981,0,0
-91,43,0,0,0,0,0,0,0,0,0,-1,1133,981,0,0
-84,43,0,0,0,0,0,0,0,0,0,-1,1140,981,0,0
-77,43,0,0,0,0,0,0,0,0,0,-1,1147,981,0,0
-70,43,0,0,0,0,0,0,0,0,0,-1,1154,981,0,0
-63,43,0,0,0,0,0,0,0,0,0,-1,1161,981,0,0
-56,43,0,0,0,0,0,0,0,0,0,-1,1168,981,0,0
-49,43,0,0,0,0,0,0,0,0,0,-1,1175,981,0,0
-42,43,0,0,0,0,0,0,0,0,0,-1,1182,981,0,0
-35,43,0,0,0,0,0,0,0,0,0,-1,1189,981,0,0
-28,43,0,0,0,0,0,0,0,0,0,-1,1196,981,0,0
-21,43,0,0,0,0,0,0,0,0,0,-1,1203,981,0,0
-14,43,0,0,0,0,0,0,0,0,0,-1,1210,981,0,0
-7,43,0,0,0,0,0,0,0,0,0,-1,1217,981,0,0
0,43,0,0,0,0,0,0,0,0,0,-1,1224,981,0,0
7,43,0,0,0,0,0,0,0,0,0,-1,1231,981,0,0
14,43,0,0,0,0,0,0,0,0,0,-1,1238,981,0,0
21,43,0,0,0,0,0,0,0,0,0,-1,1245,981,0,0
28,43,0,0,0,0,0,0,0,0,0,-1,1252,981,0,0
35,43,0,0,0,0,0,0,0,0,0,-1,1259,981,0,0
42,43,0,0,0,0,0,0,0,0,0,-1,1266,981,0,0
49,43,0,0,0,0,0,0,0,0,0,-1,1273,981,0,0
56,43,0,0,0,0,0,0,0,0,0,-1,1280,981,0,0
63,43,0,0,0,0,0,0,0,0,0,-1,1287,981,0,0
70,43,0,0,0,0,0,0,0,0,0,-1,1294,981,0,0
77,43,0,0,0,0,0,0,0,0,0,-1,1301,981,0,0
84,43,0,0,0,0,0,0,0,0,0,-1,1308,981,0,0
91,43,0,0,0,0,0,0,0,0,0,-1,1315,981,0,0
98,43,0,0,0,0,0,0,0,0,0,-1,1322,981,0,0
105,43,0,0,0,0,0,0,0,0,0,-1,1329,981,0,0
112,43,0,0,0,0,0,0,0,0,0,-1,1336,981,0,0
119,43,0,0,0,0,0,0,0,0,0,-1,1343,981,0,0
126,43,0,0,0,0,0,0,0,0,0,-1,1350,981,0,0
133,43,0,0,0,0,0,0,0,0,0,-1,1357,981,0,0
140,43,0,0,0,0,0,0,0,0,0,-1,1364,981,0,0
147,43,0,0,0,0,0,0,0,0,0,-1,1371,981,0,0
154,43,0,0,0,0,0,0,0,0,0,-1,1378,981,0,0
161,43,0,0,0,0,0,0,0,0,0,-1,1385,981,0,0
168,43,0,0,0,0,0,0,0,0,0,-1,1392,981,0,0
175,43,0,0,0,0,0,0,0,0,0,-1,1399,981,0,0
182,43,0,0,0,0,0,0,0,0,0,-1,1406,981,0,0
189,43,0,0,0,0,0,0,0,0,0,-1,1413,981,0,0
196,43,0,0,0,0,0,0,0,0,0,-1,1420,981,0,0
203,43,0,0,0,0,0,0,0,0,0,-1,1427,981,0,0
210,43,0,0,0,0,0,0,0,0,0,-1,1434,981,0,0
217,43,0,0,0,0,0,0,0,0,0,-1,1441,981,0,0
224,43,0,0,0,0,0,0,0,0,0,-1,1448,981,0,0
231,43,0,0,0,0,0,0,0,0,0,-1,1455,981,0,0
238,43,0,0,0,0,0,0,0,0,0,-1,1462,981,0,0
245,43,0,0,0,0,0,0,0,0,0,-1,1469,981,0,0
252,43,0,0,0,0,0,0,0,0,0,-1,1476,981,0,0
259,43,0,0,0,0,0,0,0,0,0,-1,1483,981,0,0
266,43,0,0,0,0,0,0,0,0,0,-1,1490,981,0,0
273,43,0,0,0,0,0,0,0,0,0,-1,1497,981,0,0
280,43,0,0,0,0,0,0,0,0,0,-1,1504,981,0,0
287,43,0,0,0,0,0,0,0,0,0,-1,1511,981,0,0
294,43,0,0,0,0,0,0,0,0,0,-1,1518,981,0,0
301,43,0,0,0,0,0,0,0,0,0,-1,1525,981,0,0
308,43,0,0,0,0,0,0,0,0,0,-1,1532,981,0,0
315,43,0,0,0,0,0,0,0,0,0,-1,1539,981,0,0
322,43,0,0,0,0,0,0,0,0,0,-1,1546,981,0,0
329,43,0,0,0,0,0,0,0,0,0,-1,1553,981,0,0
336,43,0,0,0,0,0,0,0,0,0,-1,1560,981,0,0
343,43,0,0,0,0,0,0,0,0,0,-1,1567,981,0,0
350,43,0,0,0,0,0,0,0,0,0,-1,1574,981,0,0
357,43,0,0,0,0,0,0,0,0,0,-1,1581,981,0,0
364,43,0,0,0,0,0,0,0,0,0,-1,1588,981,0,0
371,43,0,0,0,0,0,0,0,0,0,-1,1595,981,0,0
378,43,0,0,0,0,0,0,0,0,0,-1,1602,981,0,0
385,43,0,0,0,0,0,0,0,0,0,-1,1609,981,0,0
392,43,0,0,0,0,0,0,0,0,0,-1,1616,981,0,0
399,43,0,0,0,0,0,0,0,0,0,-1,1623,981,0,0
406,43,0,0,0,0,0,0,0,0,0,-1,1630,981,0,0
413,43,0,0,0,0,0,0,0,0,0,-1,1637,981,0,0
420,43,0,0,0,0,0,0,0,0,0,-1,1644,981,0,0
427,43,0,0,0,0,0,0,0,0,0,-1,1651,981,0,0
434,43,0,0,0,0,0,0,0,0,0,-1,1658,981,0,0
441,43,0,0,0,0,0,0,0,0,0,-1,1665,981,0,0
448,43,0,0,0,0,0,0,0,0,0,-1,1672,981,0,0
455,43,0,0,0,0,0,0,0,0,0,-1,1679,981,0,0
462,43,0,0,0,0,0,0,0,0,0,-1,1686,981,0,0
469,43,0,0,0,0,0,0,0,0,0,-1,1693,981,0,0
476,43,0,0,0,0,0,0,0,0,0,-1,1700,981,0,0
483,43,0,0,0,0,0,0,0,0,0,-1,1707,981,0,0
490,43,0,0,0,0,0,0,0,0,0,-1,1714,981,0,0
497,43,0,0,0,0,0,0,0,0,0,-1,1721,981,0,0
504,43,0,0,0,0,0,0,0,0,0,-1,1728,981,0,0
511,43,0,0,0,0,0,0,0,0,0,-1,1735,981,0,0
518,43,0,0,0,0,0,0,0,0,0,-1,1742,981,0,0
525,43,0,0,0,0,0,0,0,0,0,-1,1749,981,0,0
532,43,0,0,0,0,0,0,0,0,0,-1,1756,981,0,0
539,43,0,0,0,0,0,0,0,0,0,-1,1763,981,0,0
546,43,0,0,0,0,0,0,0,0,0,-1,1770,981,0,0
553,43,0,0,0,0,0,0,0,0,0,-1,1777,981,0,0
560,43,0,0,0,0,0,0,0,0,0,-1,1784,981,0,0
567,43,0,0,0,0,0,0,0,0,0,-1,1791,981,0,0
574,43,0,0,0,0,0,0,0,0,0,-1,1798,981,0,0
581,43,0,0,0,0,0,0,0,0,0,-1,1805,981,0,0
588,43,0,0,0,0,0,0,0,0,0,-1,1812,981,0,0
595,43,0,0,0,0,0,0,0,0,0,-1,1819,981,0,0
602,43,0,0,0,0,0,0,0,0,0,-1,1826,981,0,0
609,43,0,0,0,0,0,0,0,0,0,-1,1833,981,0,0
616,43,0,0,0,0,0,0,0,0,0,-1,1840,981,0,0
623,43,0,0,0,0,0,0,0,0,0,-1,1847,981,0,0
630,43,0,0,0,0,0,0,0,0,0,-1,1854,981,0,0
637,43,0,0,0,0,0,0,0,0,0,-1,1861,981,0,0
644,43,54.8573,2.73346,-0.000882753,-0.00148972,-0.00135937,0.000206598,-0.00257907,-0.675573,0.00179222,0.0393832,1868,981,54.8573,-2.73348
651,43,54.6532,2.88977,-0.000551837,-0.00149315,-0.00100743,8.94583e-05,-0.00213445,-0.566872,0.0014537,0.038437,1875,981,54.6532,-2.88976
658,43,54.7461,2.89496,-0.000392846,-0.00141957,-0.000427481,-0.000238166,-0.00157425,-0.347184,0.00097981,0.0369604,1882,981,54.7462,-2.89498
665,43,54.8889,2.82043,-0.000346202,-0.00108404,0.000233239,-0.000278656,-0.00115159,0.281888,0.000693752,0.0369207,1889,981,54.889,-2.82043
672,43,54.7443,2.66931,-0.000489313,-0.000604037,0.000953594,0.000408643,-0.00150199,0.755358,0.00116175,0.0377059,1896,981,54.7442,-2.66931
679,43,54.67,2.61823,-0.000686509,-0.00031481,0.00159837,0.00110848,-0.0021098,0.843275,0.00188782,0.0396326,1903,981,54.6701,-2.6182
686,43,54.7322,2.70148,-0.000760425,-0.000220225,0.00197578,0.00150383,-0.00248448,0.85333,0.00232574,0.0431444,1910,981,54.7322,-2.7015
693,43,54.7762,2.70325,-0.00081822,-0.000224743,0.00211601,0.00161524,-0.0026582,0.855061,0.00249164,0.0397793,1917,981,54.7763,-2.70322
700,43,54.7639,2.85596,-0.000959091,-0.000171153,0.00199541,0.00146881,-0.00259905,0.882864,0.0023786,0.0326818,1924,981,54.7639,-2.85598
707,43,54.827,2.85773,-0.00139047,0.000183046,0.00169728,0.00126705,-0.00247447,1.00243,0.00219735,0.0296651,1931,981,54.827,-2.85774
714,43,54.8129,2.83411,0,0,0,0,0,0,0,-1,1938,981,54.8129,-2.8341
721,43,53.9495,5.27887,0,0,0,0,0,0,0,-1,1945,981,53.9495,-5.27886
728,43,53.9558,5.64001,-0.0035689,0.00286522,0.000574909,0.00291619,-0.00361987,1.48238,0.00378088,0.0197961,1952,981,53.9559,-5.63998
735,43,53.9534,5.97156,-0.00410918,0.00402925,-1.77955e-05,0.00402929,-0.00410922,-1.56861,0.00469885,0.0150116,1959,981,53.9533,-5.97157
742,43,53.9059,6.24805,-0.00505127,0.00577168,-0.000963864,0.00585685,-0.00513643,-1.48266,0.00635152,0.0166332,1966,981,53.9059,-6.24804
749,43,53.8705,6.51477,-0.00618127,0.00801366,-0.00184811,0.00825033,-0.00641794,-1.44343,0.00849073,0.0197329,1973,981,53.8705,-6.5148
756,43,53.8457,6.75458,-0.00741281,0.0109585,-0.00279715,0.011375,-0.00782925,-1.423,0.0111504,0.0215364,1980,981,53.8457,-6.75455
763,43,53.7545,6.98785,-0.0085751,0.0148536,-0.00377783,0.0154477,-0.0091692,-1.41481,0.0143659,0.024437,1987,981,53.7545,-6.98785
770,43,53.6671,7.27692,-0.00949572,0.0197603,-0.00488586,0.0205546,-0.0102901,-1.40962,0.0181339,0.0190679,1994,981,53.6671,-7.27694
777,43,53.7209,7.51727,-0.0103073,0.0251517,-0.00613726,0.0261839,-0.0113395,-1.40417,0.022222,0.0234053,2001,981,53.721,-7.51729
784,43,53.8923,7.81268,-0.0105635,0.0309284,-0.00760343,0.0322779,-0.0119129,-1.39515,0.0264012,0.042783,2008,981,53.8923,-7.81268
791,43,53.9934,8.08459,-0.00946747,0.0371469,-0.00969281,0.039082,-0.0114026,-1.37374,0.0305728,0.0478355,2015,981,53.9935,-8.08462
798,43,53.9443,8.29779,-0.00702055,0.0438895,-0.0125943,0.0468347,-0.00996576,-1.34107,0.035021,0.0468881,2022,981,53.9443,-8.29778
805,43,54.1519,8.51556,0,0,0,0,0,0,0,-1,2029,981,54.1519,-8.51554
812,43,51.9709,1.47284,0,0,0,0,0,0,0,-1,2036,981,51.9708,-1.47286
-700,36,0,0,0,0,0,0,0,0,0,-1,524,988,0,0
-693,36,-35.8854,7.08972,0,0,0,0,0,0,0,-1,531,988,-35.8854,-7.08969
-686,36,-36.4787,6.52332,0,0,0,0,0,0,0,-1,538,988,-36.4787,-6.52333
-679,36,-37.8425,5.56702,-0.0716229,0.0920972,0.025359,0.0959351,-0.0754608,1.42059,0.0991906,0.0439283,545,988,-37.8425,-5.56704
-672,36,-38.7553,5.10547,-0.0616654,0.0802016,0.0233911,0.0839588,-0.0654226,1.41153,0.0864665,0.0498148,552,988,-38.7553,-5.10545
-665,36,-39.4741,4.60522,0,0,0,0,0,0,0,-1,559,988,-39.4741,-4.60525
-658,36,-40.3657,4.12909,0,0,0,0,0,0,0,-1,566,988,-40.3657,-4.12907
-651,36,-40.7174,4.19025,-0.0356323,0.0454393,0.0160563,0.0485034,-0.0386965,1.38223,0.0504509,0.0406843,573,988,-40.7174,-4.19023
-644,36,-41.0669,4.31061,-0.0280055,0.0355712,0.0132516,0.0382226,-0.030657,1.37331,0.0398476,0.0267274,580,988,-41.0669,-4.3106
-637,36,-41.2275,4.16687,-0.0202646,0.0241513,0.00985102,0.0262381,-0.0223514,1.36205,0.0280831,0.0218417,587,988,-41.2275,-4.16686
-630,36,-41.222,4.09021,-0.0137403,0.0154739,0.00676547,0.0169646,-0.015231,1.35392,0.0185971,0.0165031,594,988,-41.222,-4.09022
-623,36,-41.2355,3.94299,-0.00802451,0.011415,0.00405302,0.0122262,-0.00883569,1.37326,0.0122125,0.0129064,601,988,-41.2355,-3.94299
-616,36,-41.2129,3.7832,-0.00426411,0.00776062,0.000959605,0.00783671,-0.00434021,1.49166,0.00712631,0.0105473,608,988,-41.2129,-3.7832
-609,36,-41.1943,3.63562,-0.00220628,0.00498822,-0.00203192,0.00552242,-0.00274048,-1.31371,0.00485988,0.0152565,615,988,-41.1944,-3.63561
-602,36,-41.2261,3.41943,-0.000803235,0.00332184,-0.00401433,0.00577249,-0.00325389,-1.02271,0.00527857,0.0205367,622,988,-41.2261,-3.41944
-595,36,-41.3698,3.20056,1.00692e-05,0.00208437,-0.00548283,0.00662729,-0.00453284,-0.878875,0.00648102,0.0240171,629,988,-41.3698,-3.20057
-588,36,-41.2841,2.28467,0.000510279,0.00110066,-0.00623744,0.00704989,-0.00543895,-0.809043,0.00723041,0.038134,636,988,-41.2841,-2.28465
-581,36,-41.0237,1.23608,0.000830162,0.000460294,-0.00656115,0.00720899,-0.00591853,-0.771309,0.00759137,0.0361203,643,988,-41.0238,-1.23611
-574,36,-40.9885,0.978577,0.00065532,0.000161273,-0.0066638,0.00707667,-0.00626008,-0.766872,0.00770479,0.0275917,650,988,-40.9885,-0.978577
-567,36,-40.9866,0.856567,0.000137376,0.0002455,-0.00622742,0.00641909,-0.00603621,-0.789739,0.00719221,0.0363355,657,988,-40.9866,-0.856549
-560,36,-40.8306,0.786377,-0.000476524,0.000589651,-0.00529217,0.00537551,-0.00526239,-0.835595,0.00614191,0.0403959,664,988,-40.8307,-0.786393
-553,36,-40.8052,1.00568,-0.00111821,0.00111952,-0.00384322,0.00400343,-0.00400212,-0.927046,0.00462201,0.0439076,671,988,-40.8052,-1.0057
-546,36,-40.9702,1.12219,-0.0016507,0.00163363,-0.00183737,0.00245574,-0.00247281,-1.15008,0.00284551,0.0434978,678,988,-40.9702,-1.12218
-539,36,-41.1607,0.833191,0,0,0,0,0,0,0,-1,685,988,-41.1607,-0.833168
-532,36,-41.2014,0.846802,0,0,0,0,0,0,0,-1,692,988,-41.2014,-0.8468
-525,36,-40.4991,0.606934,0,0,0,0,0,0,0,-1,699,988,-40.4991,-0.606949
-518,36,0,0,0,0,0,0,0,0,0,-1,706,988,0,0
-511,36,0,0,0,0,0,0,0,0,0,-1,713,988,0,0
-504,36,0,0,0,0,0,0,0,0,0,-1,720,988,0,0
-497,36,0,0,0,0,0,0,0,0,0,-1,727,988,0,0
-490,36,0,0,0,0,0,0,0,0,0,-1,734,988,0,0
-483,36,0,0,0,0,0,0,0,0,0,-1,741,988,0,0
-476,36,0,0,0,0,0,0,0,0,0,-1,748,988,0,0
-469,36,0,0,0,0,0,0,0,0,0,-1,755,988,0,0
-462,36,0,0,0,0,0,0,0,0,0,-1,762,988,0,0
-455,36,0,0,0,0,0,0,0,0,0,-1,769,988,0,0
-448,36,0,0,0,0,0,0,0,0,0,-1,776,988,0,0
-441,36,0,0,0,0,0,0,0,0,0,-1,783,988,0,0
-434,36,0,0,0,0,0,0,0,0,0,-1,790,988,0,0
-427,36,0,0,0,0,0,0,0,0,0,-1,797,988,0,0
-420,36,0,0,0,0,0,0,0,0,0,-1,804,988,0,0
-413,36,0,0,0,0,0,0,0,0,0,-1,811,988,0,0
-406,36,0,0,0,0,0,0,0,0,0,-1,818,988,0,0
-399,36,0,0,0,0,0,0,0,0,0,-1,825,988,0,0
-392,36,0,0,0,0,0,0,0,0,0,-1,832,988,0,0
-385,36,0,0,0,0,0,0,0,0,0,-1,839,988,0,0
-378,36,0,0,0,0,0,0,0,0,0,-1,846,988,0,0
-371,36,0,0,0,0,0,0,0,0,0,-1,853,988,0,0
-364,36,0,0,0,0,0,0,0,0,0,-1,860,988,0,0
-357,36,0,0,0,0,0,0,0,0,0,-1,867,988,0,0
-350,36,0,0,0,0,0,0,0,0,0,-1,874,988,0,0
-343,36,0,0,0,0,0,0,0,0,0,-1,881,988,0,0
-336,36,0,0,0,0,0,0,0,0,0,-1,888,988,0,0
-329,36,0,0,0,0,0,0,0,0,0,-1,895,988,0,0
-322,36,0,0,0,0,0,0,0,0,0,-1,902,988,0,0
-315,36,0,0,0,0,0,0,0,0,0,-1,909,988,0,0
-308,36,0,0,0,0,0,0,0,0,0,-1,916,988,0,0
-301,36,0,0,0,0,0,0,0,0,0,-1,923,988,0,0
-294,36,0,0,0,0,0,0,0,0,0,-1,930,988,0,0
-287,36,0,0,0,0,0,0,0,0,0,-1,937,988,0,0
-280,36,0,0,0,0,0,0,0,0,0,-1,944,988,0,0
-273,36,0,0,0,0,0,0,0,0,0,-1,951,988,0,0
-266,36,0,0,0,0,0,0,0,0,0,-1,958,988,0,0
-259,36,0,0,0,0,0,0,0,0,0,-1,965,988,0,0
-252,36,0,0,0,0,0,0,0,0,0,-1,972,988,0,0
-245,36,0,0,0,0,0,0,0,0,0,-1,979,988,0,0
-238,36,0,0,0,0,0,0,0,0,0,-1,986,988,0,0
-231,36,0,0,0,0,0,0,0,0,0,-1,993,988,0,0
-224,36,0,0,0,0,0,0,0,0,0,-1,1000,988,0,0
-217,36,0,0,0,0,0,0,0,0,0,-1,1007,988,0,0
-210,36,0,0,0,0,0,0,0,0,0,-1,1014,988,0,0
-203,36,0,0,0,0,0,0,0,0,0,-1,1021,988,0,0
-196,36,0,0,0,0,0,0,0,0,0,-1,1028,988,0,0
-189,36,0,0,0,0,0,0,0,0,0,-1,1035,988,0,0
-182,36,0,0,0,0,0,0,0,0,0,-1,1042,988,0,0
-175,36,0,0,0,0,0,0,0,0,0,-1,1049,988,0,0
-168,36,0,0,0,0,0,0,0,0,0,-1,1056,988,0,0
-161,36,0,0,0,0,0,0,0,0,0,-1,1063,988,0,0
-154,36,0,0,0,0,0,0,0,0,0,-1,1070,988,0,0
-147,36,0,0,0,0,0,0,0,0,0,-1,1077,988,0,0
-140,36,0,0,0,0,0,0,0,0,0,-1,1084,988,0,0
-133,36,0,0,0,0,0,0,0,0,0,-1,1091,988,0,0
-126,36,0,0,0,0,0,0,0,0,0,-1,1098,988,0,0
-119,36,0,0,0,0,0,0,0,0,0,-1,1105,988,0,0
-112,36,0,0,0,0,0,0,0,0,0,-1,1112,988,0,0
-105,36,0,0,0,0,0,0,0,0,0,-1,1119,988,0,0
-98,36,0,0,0,0,0,0,0,0,0,-1,1126,988,0,0
-91,36,0,0,0,0,0,0,0,0,0,-1,1133,988,0,0
-84,36,0,0,0,0,0,0,0,0,0,-1,1140,988,0,0
-77,36,0,0,0,0,0,0,0,0,0,-1,1147,988,0,0
-70,36,0,0,0,0,0,0,0,0,0,-1,1154,988,0,0
-63,36,0,0,0,0,0,0,0,0,0,-1,1161,988,0,0
-56,36,0,0,0,0,0,0,0,0,0,-1,1168,988,0,0
-49,36,0,0,0,0,0,0,0,0,0,-1,1175,988,0,0
-42,36,0,0,0,0,0,0,0,0,0,-1,1182,988,0,0
-35,36,0,0,0,0,0,0,0,0,0,-1,1189,988,0,0
-28,36,0,0,0,0,0,0,0,0,0,-1,1196,988,0,0
-21,36,0,0,0,0,0,0,0,0,0,-1,1203,988,0,0
-14,36,0,0,0,0,0,0,0,0,0,-1,1210,988,0,0
-7,36,0,0,0,0,0,0,0,0,0,-1,1217,988,0,0
0,36,0,0,0,0,0,0,0,0,0,-1,1224,988,0,0
7,36,0,0,0,0,0,0,0,0,0,-1,1231,988,0,0
14,36,0,0,0,0,0,0,0,0,0,-1,1238,988,0,0
21,36,0,0,0,0,0,0,0,0,0,-1,1245,988,0,0
28,36,0,0,0,0,0,0,0,0,0,-1,1252,988,0,0
35,36,0,0,0,0,0,0,0,0,0,-1,1259,988,0,0
42,36,0,0,0,0,0,0,0,0,0,-1,1266,988,0,0
49,36,0,0,0,0,0,0,0,0,0,-1,1273,988,0,0
56,36,0,0,0,0,0,0,0,0,0,-1,1280,988,0,0
63,36,0,0,0,0,0,0,0,0,0,-1,1287,988,0,0
70,36,0,0,0,0,0,0,0,0,0,-1,1294,988,0,0
77,36,0,0,0,0,0,0,0,0,0,-1,1301,988,0,0
84,36,0,0,0,0,0,0,0,0,0,-1,1308,988,0,0
91,36,0,0,0,0,0,0,0,0,0,-1,1315,988,0,0
98,36,0,0,0,0,0,0,0,0,0,-1,1322,988,0,0
105,36,0,0,0,0,0,0,0,0,0,-1,1329,988,0,0
112,36,0,0,0,0,0,0,0,0,0,-1,1336,988,0,0
119,36,0,0,0,0,0,0,0,0,0,-1,1343,988,0,0
126,36,0,0,0,0,0,0,0,0,0,-1,1350,988,0,0
133,36,0,0,0,0,0,0,0,0,0,-1,1357,988,0,0
140,36,0,0,0,0,0,0,0,0,0,-1,1364,988,0,0
147,36,0,0,0,0,0,0,0,0,0,-1,1371,988,0,0
154,36,0,0,0,0,0,0,0,0,0,-1,1378,988,0,0
161,36,0,0,0,0,0,0,0,0,0,-1,1385,988,0,0
168,36,0,0,0,0,0,0,0,0,0,-1,1392,988,0,0
175,36,0,0,0,0,0,0,0,0,0,-1,1399,988,0,0
182,36,0,0,0,0,0,0,0,0,0,-1,1406,988,0,0
189,36,0,0,0,0,0,0,0,0,0,-1,1413,988,0,0
196,36,0,0,0,0,0,0,0,0,0,-1,1420,988,0,0
203,36,0,0,0,0,0,0,0,0,0,-1,1427,988,0,0
210,36,0,0,0,0,0,0,0,0,0,-1,1434,988,0,0
217,36,0,0,0,0,0,0,0,0,0,-1,1441,988,0,0
224,36,0,0,0,0,0,0,0,0,0,-1,1448,988,0,0
231,36,0,0,0,0,0,0,0,0,0,-1,1455,988,0,0
238,36,0,0,0,0,0,0,0,0,0,-1,1462,988,0,0
245,36,0,0,0,0,0,0,0,0,0,-1,1469,988,0,0
252,36,0,0,0,0,0,0,0,0,0,-1,1476,988,0,0
259,36,0,0,0,0,0,0,0,0,0,-1,1483,988,0,0
266,36,0,0,0,0,0,0,0,0,0,-1,1490,988,0,0
273,36,0,0,0,0,0,0,0,0,0,-1,1497,988,0,0
280,36,0,0,0,0,0,0,0,0,0,-1,1504,988,0,0
287,36,0,0,0,0,0,0,0,0,0,-1,1511,988,0,0
294,36,0,0,0,0,0,0,0,0,0,-1,1518,988,0,0
301,36,0,0,0,0,0,0,0,0,0,-1,1525,988,0,0
308,36,0,0,0,0,0,0,0,0,0,-1,1532,988,0,0
315,36,0,0,0,0,0,0,0,0,0,-1,1539,988,0,0
322,36,0,0,0,0,0,0,0,0,0,-1,1546,988,0,0
329,36,0,0,0,0,0,0,0,0,0,-1,1553,988,0,0
336,36,0,0,0,0,0,0,0,0,0,-1,1560,988,0,0
343,36,0,0,0,0,0,0,0,0,0,-1,1567,988,0,0
350,36,0,0,0,0,0,0,0,0,0,-1,1574,988,0,0
357,36,0,0,0,0,0,0,0,0,0,-1,1581,988,0,0
364,36,0,0,0,0,0,0,0,0,0,-1,1588,988,0,0
371,36,0,0,0,0,0,0,0,0,0,-1,1595,988,0,0
378,36,0,0,0,0,0,0,0,0,0,-1,1602,988,0,0
385,36,0,0,0,0,0,0,0,0,0,-1,1609,988,0,0
392,36,0,0,0,0,0,0,0,0,0,-1,1616,988,0,0
399,36,0,0,0,0,0,0,0,0,0,-1,1623,988,0,0
406,36,0,0,0,0,0,0,0,0,0,-1,1630,988,0,0
413,36,0,0,0,0,0,0,0,0,0,-1,1637,988,0,0
420,36,0,0,0,0,0,0,0,0,0,-1,1644,988,0,0
427,36,0,0,0,0,0,0,0,0,0,-1,1651,988,0,0
434,36,0,0,0,0,0,0,0,0,0,-1,1658,988,0,0
441,36,0,0,0,0,0,0,0,0,0,-1,1665,988,0,0
448,36,0,0,0,0,0,0,0,0,0,-1,1672,988,0,0
455,36,0,0,0,0,0,0,0,0,0,-1,1679,988,0,0
462,36,0,0,0,0,0,0,0,0,0,-1,1686,988,0,0
469,36,0,0,0,0,0,0,0,0,0,-1,1693,988,0,0
476,36,0,0,0,0,0,0,0,0,0,-1,1700,988,0,0
483,36,0,0,0,0,0,0,0,0,0,-1,1707,988,0,0
490,36,0,0,0,0,0,0,0,0,0,-1,1714,988,0,0
497,36,0,0,0,0,0,0,0,0,0,-1,1721,988,0,0
504,36,0,0,0,0,0,0,0,0,0,-1,1728,988,0,0
511,36,0,0,0,0,0,0,0,0,0,-1,1735,988,0,0
518,36,0,0,0,0,0,0,0,0,0,-1,1742,988,0,0
525,36,0,0,0,0,0,0,0,0,0,-1,1749,988,0,0
532,36,0,0,0,0,0,0,0,0,0,-1,1756,988,0,0
539,36,0,0,0,0,0,0,0,0,0,-1,1763,988,0,0
546,36,0,0,0,0,0,0,0,0,0,-1,1770,988,0,0
553,36,0,0,0,0,0,0,0,0,0,-1,1777,988,0,0
560,36,0,0,0,0,0,0,0,0,0,-1,1784,988,0,0
567,36,0,0,0,0,0,0,0,0,0,-1,1791,988,0,0
574,36,0,0,0,0,0,0,0,0,0,-1,1798,988,0,0
581,36,0,0,0,0,0,0,0,0,0,-1,1805,988,0,0
588,36,0,0,0,0,0,0,0,0,0,-1,1812,988,0,0
595,36,0,0,0,0,0,0,0,0,0,-1,1819,988,0,0
602,36,0,0,0,0,0,0,0,0,0,-1,1826,988,0,0
609,36,0,0,0,0,0,0,0,0,0,-1,1833,988,0,0
616,36,0,0,0,0,0,0,0,0,0,-1,1840,988,0,0
623,36,0,0,0,0,0,0,0,0,0,-1,1847,988,0,0
630,36,0,0,0,0,0,0,0,0,0,-1,1854,988,0,0
637,36,0,0,0,0,0,0,0,0,0,-1,1861,988,0,0
644,36,54.7111,2.87891,-0.000923021,-0.000433089,-0.00106802,0.000417697,-0.00177381,-0.89813,0.00134359,0.0422971,1868,988,54.7111,-2.87889
651,36,54.6749,2.96594,-0.000701108,-0.00081515,-0.000934299,0.000177908,-0.00169417,-0.75492,0.00119318,0.0402787,1875,988,54.6749,-2.96594
658,36,54.7047,2.93311,-0.000557023,-0.00101473,-0.000489582,-0.000245446,-0.00132631,-0.566765,0.000814806,0.0382773,1882,988,54.7048,-2.93309
665,36,54.821,2.85229,-0.000468409,-0.000910598,6.88424e-05,-0.000457939,-0.000921067,0.150928,0.000531781,0.0375562,1889,988,54.821,-2.85233
672,36,54.7157,2.92731,-0.000493839,-0.000585758,0.000716225,0.0001779,-0.0012575,0.753358,0.000903488,0.0388162,1896,988,54.7156,-2.92732
679,36,54.6653,2.86212,-0.000554504,-0.000348062,0.00133598,0.000888682,-0.00179125,0.823953,0.00157624,0.0402155,1903,988,54.6653,-2.8621
686,36,54.6367,2.94653,-0.000537854,-0.000262175,0.00172568,0.00133116,-0.00213119,0.825251,0.0020167,0.0407211,1910,988,54.6368,-2.94655
693,36,54.7777,2.81238,-0.000528455,-0.000256813,0.0018983,0.00151052,-0.00229579,0.821112,0.00221311,0.0410669,1917,988,54.7777,-2.81241
700,36,54.8318,2.96863,-0.000599826,-0.000213658,0.00181062,0.00141415,-0.00222763,0.838517,0.00212,0.0365843,1924,988,54.8318,-2.96861
707,36,54.8734,2.85272,-0.000989214,0.000166714,0.00153944,0.00123311,-0.00205561,0.964975,0.00191844,0.0274538,1931,988,54.8734,-2.85275
714,36,54.8889,2.6889,0,0,0,0,0,0,0,-1,1938,988,54.8889,-2.68893
721,36,54.2401,5.38086,0,0,0,0,0,0,0,-1,1945,988,54.2401,-5.38087
728,36,54.2026,5.73694,-0.00334419,0.00302718,0.000567605,0.00307735,-0.00339436,1.48263,0.00373794,0.0219129,1952,988,54.2026,-5.73696
735,36,54.2001,6.0592,-0.00397397,0.00425639,1.1159e-05,0.0042564,-0.00397399,1.56944,0.00475275,0.0195724,1959,988,54.2001,-6.05919
742,36,54.1254,6.25012,-0.00498235,0.00602968,-0.000852244,0.00609525,-0.00504791,-1.49401,0.00644297,0.016719,1966,988,54.1253,-6.25011
749,36,54.1416,6.49414,-0.00621059,0.00823402,-0.00163711,0.00841724,-0.00639381,-1.45934,0.00857772,0.0190974,1973,988,54.1415,-6.49413
756,36,54.1173,6.71442,-0.00755827,0.0111038,-0.00247878,0.0114274,-0.0078819,-1.44097,0.0112107,0.0186455,1980,988,54.1173,-6.71444
763,36,53.9889,6.89514,-0.0088488,0.0149735,-0.00336286,0.0154392,-0.00931442,-1.43321,0.0144366,0.0202873,1987,988,53.9889,-6.89513
770,36,53.9193,7.12354,-0.00988573,0.0200028,-0.00438235,0.0206321,-0.010515,-1.42817,0.0182963,0.0166328,1994,988,53.9193,-7.12356
777,36,53.9539,7.40564,-0.0106908,0.0255737,-0.00552773,0.0263976,-0.0115146,-1.42284,0.0224438,0.0239838,2001,988,53.9539,-7.40561
784,36,54.0828,7.61987,-0.0108427,0.0315229,-0.0068294,0.0325966,-0.0119164,-1.41486,0.0266081,0.0452473,2008,988,54.0827,-7.61987
791,36,54.1738,7.83942,0,0,0,0,0,0,0,-1,2015,988,54.1738,-7.83944
798,36,53.8591,7.93024,0,0,0,0,0,0,0,-1,2022,988,53.8591,-7.93022
805,36,54.8027,7.71881,0,0,0,0,0,0,0,-1,2029,988,54.8028,-7.71879
812,36,52.1794,2.04254,0,0,0,0,0,0,0,-1,2036,988,52.1795,-2.04251
-700,29,0,0,0,0,0,0,0,0,0,-1,524,995,0,0
-693,29,-36.5898,6.77246,-0.100442,0.152104,0.0268366,0.154925,-0.103262,1.46609,0.150056,0.0449633,531,995,-36.5898,-6.77244
-686,29,-37.3793,6.32159,-0.0842997,0.13086,0.0267275,0.13413,-0.0875701,1.44904,0.128936,0.0427397,538,995,-37.3793,-6.32158
-679,29,-38.5022,5.67242,-0.0718815,0.112694,0.0252036,0.116074,-0.0752612,1.4375,0.111302,0.0445242,545,995,-38.5022,-5.67241
-672,29,-39.3097,5.06537,-0.0610766,0.0961027,0.0230656,0.0994176,-0.0643915,1.42806,0.0952932,0.0458349,552,995,-39.3097,-5.06538
-665,29,-40.1371,4.51703,0,0,0,0,0,0,0,-1,559,995,-40.1371,-4.517
-658,29,-40.1111,3.922,0,0,0,0,0,0,0,-1,566,995,-40.1111,-3.92203
-651,29,-40.8283,3.79602,0,0,0,0,0,0,0,-1,573,995,-40.8283,-3.79601
-644,29,-41.1696,3.86218,-0.0272822,0.0408279,0.0124658,0.0430377,-0.029492,1.39535,0.0421178,0.0437958,580,995,-41.1695,-3.86217
-637,29,-41.3995,3.99445,-0.019839,0.0271085,0.00876812,0.0286926,-0.0214231,1.39206,0.0290356,0.0261627,587,995,-41.3995,-3.99442
-630,29,-41.3954,3.98041,-0.0134085,0.0163871,0.00569887,0.0174399,-0.0144613,1.38812,0.0184449,0.0132933,594,995,-41.3954,-3.9804
-623,29,-41.3947,3.91223,-0.00748127,0.011661,0.00320894,0.0121846,-0.00800488,1.40905,0.0117394,0.0119156,601,995,-41.3947,-3.91222
-616,29,-41.4022,3.75623,-0.00365924,0.0075621,0.000310333,0.00757067,-0.00366782,1.54317,0.00661768,0.0142303,608,995,-41.4022,-3.75621
-609,29,-41.4244,3.67249,-0.00159519,0.0046502,-0.00255416,0.00556173,-0.00250672,-1.22801,0.00476833,0.0213348,615,995,-41.4244,-3.67246
-602,29,-41.5314,3.51404,-0.000128295,0.00297881,-0.00441461,0.00610525,-0.00325473,-0.954587,0.00548688,0.0227963,622,995,-41.5313,-3.51407
-595,29,-41.5997,3.27991,0.000702418,0.00180676,-0.00574193,0.00702301,-0.00451383,-0.833333,0.0067131,0.0241208,629,995,-41.5997,-3.2799
-588,29,-41.2883,2.40509,0.00127194,0.000817138,-0.00638225,0.00743083,-0.00534176,-0.767591,0.00740706,0.0433949,636,995,-41.2883,-2.40511
-581,29,-40.9452,1.54504,0.00167296,0.000140578,-0.00657113,0.00752242,-0.00570888,-0.72736,0.00766298,0.0490788,643,995,-40.9452,-1.54502
-574,29,-40.8958,0.718506,0,0,0,0,0,0,0,-1,650,995,-40.8958,-0.718493
-567,29,-40.9682,0.885254,0.000917116,-0.000126235,-0.0059693,0.00638749,-0.00559661,-0.741812,0.00692404,0.034144,657,995,-40.9682,-0.885256
-560,29,-40.9424,0.919006,0.000154492,0.000237266,-0.00487369,0.00506975,-0.00467799,-0.789644,0.00562938,0.0387777,664,995,-40.9424,-0.918997
-553,29,-40.8809,1.02325,-0.0007741,0.000789239,-0.00323099,0.00333177,-0.00331663,-0.904082,0.00383846,0.0403192,671,995,-40.8809,-1.02328
-546,29,-40.9854,1.12885,-0.00173101,0.00129185,-0.000993052,0.00158889,-0.00202805,-1.28015,0.00209337,0.0400848,678,995,-40.9854,-1.12886
-539,29,-41.1714,1.06921,-0.00215757,0.00179966,0.0013169,0.00219784,-0.00255575,1.27718,0.00274707,0.0417339,685,995,-41.1714,-1.06919
-532,29,-41.0439,0.907349,-0.00146373,0.00198479,0.00268757,0.00345367,-0.00293261,1.07061,0.00369121,0.0462996,692,995,-41.0439,-0.907332
-525,29,-40.5597,0.631592,0,0,0,0,0,0,0,-1,699,995,-40.5597,-0.63162
-518,29,0,0,0,0,0,0,0,0,0,-1,706,995,0,0
-511,29,0,0,0,0,0,0,0,0,0,-1,713,995,0,0
-504,29,0,0,0,0,0,0,0,0,0,-1,720,995,0,0
-497,29,0,0,0,0,0,0,0,0,0,-1,727,995,0,0
-490,29,0,0,0,0,0,0,0,0,0,-1,734,995,0,0
-483,29,0,0,0,0,0,0,0,0,0,-1,741,995,0,0
-476,29,0,0,0,0,0,0,0,0,0,-1,748,995,0,0
-469,29,0,0,0,0,0,0,0,0,0,-1,755,995,0,0
-462,29,0,0,0,0,0,0,0,0,0,-1,762,995,0,0
-455,29,0,0,0,0,0,0,0,0,0,-1,769,995,0,0
-448,29,0,0,0,0,0,0,0,0,0,-1,776,995,0,0
-441,29,0,0,0,0,0,0,0,0,0,-1,783,995,0,0
-434,29,0,0,0,0,0,0,0,0,0,-1,790,995,0,0
-427,29,0,0,0,0,0,0,0,0,0,-1,797,995,0,0
-420,29,0,0,0,0,0,0,0,0,0,-1,804,995,0,0
-413,29,0,0,0,0,0,0,0,0,0,-1,811,995,0,0
-406,29,0,0,0,0,0,0,0,0,0,-1,818,995,0,0
-399,29,0,0,0,0,0,0,0,0,0,-1,825,995,0,0
-392,29,0,0,0,0,0,0,0,0,0,-1,832,995,0,0
-385,29,0,0,0,0,0,0,0,0,0,-1,839,995,0,0
-378,29,0,0,0,0,0,0,0,0,0,-1,846,995,0,0
-371,29,0,0,0,0,0,0,0,0,0,-1,853,995,0,0
-364,29,0,0,0,0,0,0,0,0,0,-1,860,995,0,0
-357,29,0,0,0,0,0,0,0,0,0,-1,867,995,0,0
-350,29,0,0,0,0,0,0,0,0,0,-1,874,995,0,0
-343,29,0,0,0,0,0,0,0,0,0,-1,881,995,0,0
-336,29,0,0,0,0,0,0,0,0,0,-1,888,995,0,0
-329,29,0,0,0,0,0,0,0,0,0,-1,895,995,0,0
-322,29,0,0,0,0,0,0,0,0,0,-1,902,995,0,0
-315,29,0,0,0,0,0,0,0,0,0,-1,909,995,0,0
-308,29,0,0,0,0,0,0,0,0,0,-1,916,995,0,0
-301,29,0,0,0,0,0,0,0,0,0,-1,923,995,0,0
-294,29,0,0,0,0,0,0,0,0,0,-1,930,995,0,0
-287,29,0,0,0,0,0,0,0,0,0,-1,937,995,0,0
-280,29,0,0,0,0,0,0,0,0,0,-1,944,995,0,0
-273,29,0,0,0,0,0,0,0,0,0,-1,951,995,0,0
-266,29,0,0,0,0,0,0,0,0,0,-1,958,995,0,0
-259,29,0,0,0,0,0,0,0,0,0,-1,965,995,0,0
-252,29,0,0,0,0,0,0,0,0,0,-1,972,995,0,0
-245,29,0,0,0,0,0,0,0,0,0,-1,979,995,0,0
-238,29,0,0,0,0,0,0,0,0,0,-1,986,995,0,0
-231,29,0,0,0,0,0,0,0,0,0,-1,993,995,0,0
-224,29,0,0,0,0,0,0,0,0,0,-1,1000,995,0,0
-217,29,0,0,0,0,0,0,0,0,0,-1,1007,995,0,0
-210,29,0,0,0,0,0,0,0,0,0,-1,1014,995,0,0
-203,29,0,0,0,0,0,0,0,0,0,-1,1021,995,0,0
-196,29,0,0,0,0,0,0,0,0,0,-1,1028,995,0,0
-189,29,0,0,0,0,0,0,0,0,0,-1,1035,995,0,0
-182,29,0,0,0,0,0,0,0,0,0,-1,1042,995,0,0
-175,29,0,0,0,0,0,0,0,0,0,-1,1049,995,0,0
-168,29,0,0,0,0,0,0,0,0,0,-1,1056,995,0,0
-161,29,0,0,0,0,0,0,0,0,0,-1,1063,995,0,0
-154,29,0,0,0,0,0,0,0,0,0,-1,1070,995,0,0
-147,29,0,0,0,0,0,0,0,0,0,-1,1077,995,0,0
-140,29,0,0,0,0,0,0,0,0,0,-1,1084,995,0,0
-133,29,0,0,0,0,0,0,0,0,0,-1,1091,995,0,0
-126,29,0,0,0,0,0,0,0,0,0,-1,1098,995,0,0
-119,29,0,0,0,0,0,0,0,0,0,-1,1105,995,0,0
-112,29,0,0,0,0,0,0,0,0,0,-1,1112,995,0,0
-105,29,0,0,0,0,0,0,0,0,0,-1,1119,995,0,0
-98,29,0,0,0,0,0,0,0,0,0,-1,1126,995,0,0
-91,29,0,0,0,0,0,0,0,0,0,-1,1133,995,0,0
-84,29,0,0,0,0,0,0,0,0,0,-1,1140,995,0,0
-77,29,0,0,0,0,0,0,0,0,0,-1,1147,995,0,0
-70,29,0,0,0,0,0,0,0,0,0,-1,1154,995,0,0
-63,29,0,0,0,0,0,0,0,0,0,-1,1161,995,0,0
-56,29,0,0,0,0,0,0,0,0,0,-1,1168,995,0,0
-49,29,0,0,0,0,0,0,0,0,0,-1,1175,995,0,0
-42,29,0,0,0,0,0,0,0,0,0,-1,1182,995,0,0
-35,29,0,0,0,0,0,0,0,0,0,-1,1189,995,0,0
-28,29,0,0,0,0,0,0,0,0,0,-1,1196,995,0,0
-21,29,0,0,0,0,0,0,0,0,0,-1,1203,995,0,0
-14,29,0,0,0,0,0,0,0,0,0,-1,1210,995,0,0
-7,29,0,0,0,0,0,0,0,0,0,-1,1217,995,0,0
0,29,0,0,0,0,0,0,0,0,0,-1,1224,995,0,0
7,29,0,0,0,0,0,0,0,0,0,-1,1231,995,0,0
14,29,0,0,0,0,0,0,0,0,0,-1,1238,995,0,0
21,29,0,0,0,0,0,0,0,0,0,-1,1245,995,0,0
28,29,0,0,0,0,0,0,0,0,0,-1,1252,995,0,0
35,29,0,0,0,0,0,0,0,0,0,-1,1259,995,0,0
42,29,0,0,0,0,0,0,0,0,0,-1,1266,995,0,0
49,29,0,0,0,0,0,0,0,0,0,-1,1273,995,0,0
56,29,0,0,0,0,0,0,0,0,0,-1,1280,995,0,0
63,29,0,0,0,0,0,0,0,0,0,-1,1287,995,0,0
70,29,0,0,0,0,0,0,0,0,0,-1,1294,995,0,0
77,29,0,0,0,0,0,0,0,0,0,-1,1301,995,0,0
84,29,0,0,0,0,0,0,0,0,0,-1,1308,995,0,0
91,29,0,0,0,0,0,0,0,0,0,-1,1315,995,0,0
98,29,0,0,0,0,0,0,0,0,0,-1,1322,995,0,0
105,29,0,0,0,0,0,0,0,0,0,-1,1329,995,0,0
112,29,0,0,0,0,0,0,0,0,0,-1,1336,995,0,0
119,29,0,0,0,0,0,0,0,0,0,-1,1343,995,0,0
126,29,0,0,0,0,0,0,0,0,0,-1,1350,995,0,0
133,29,0,0,0,0,0,0,0,0,0,-1,1357,995,0,0
140,29,0,0,0,0,0,0,0,0,0,-1,1364,995,0,0
147,29,0,0,0,0,0,0,0,0,0,-1,1371,995,0,0
154,29,0,0,0,0,0,0,0,0,0,-1,1378,995,0,0
161,29,0,0,0,0,0,0,0,0,0,-1,1385,995,0,0
168,29,0,0,0,0,0,0,0,0,0,-1,1392,995,0,0
175,29,0,0,0,0,0,0,0,0,0,-1,1399,995,0,0
182,29,0,0,0,0,0,0,0,0,0,-1,1406,995,0,0
189,29,0,0,0,0,0,0,0,0,0,-1,1413,995,0,0
196,29,0,0,0,0,0,0,0,0,0,-1,1420,995,0,0
203,29,0,0,0,0,0,0,0,0,0,-1,1427,995,0,0
210,29,0,0,0,0,0,0,0,0,0,-1,1434,995,0,0
217,29,0,0,0,0,0,0,0,0,0,-1,1441,995,0,0
224,29,0,0,0,0,0,0,0,0,0,-1,1448,995,0,0
231,29,0,0,0,0,0,0,0,0,0,-1,1455,995,0,0
238,29,0,0,0,0,0,0,0,0,0,-1,1462,995,0,0
245,29,0,0,0,0,0,0,0,0,0,-1,1469,995,0,0
252,29,0,0,0,0,0,0,0,0,0,-1,1476,995,0,0
259,29,0,0,0,0,0,0,0,0,0,-1,1483,995,0,0
266,29,0,0,0,0,0,0,0,0,0,-1,1490,995,0,0
273,29,0,0,0,0,0,0,0,0,0,-1,1497,995,0,0
280,29,0,0,0,0,0,0,0,0,0,-1,1504,995,0,0
287,29,0,0,0,0,0,0,0,0,0,-1,1511,995,0,0
294,29,0,0,0,0,0,0,0,0,0,-1,1518,995,0,0
301,29,0,0,0,0,0,0,0,0,0,-1,1525,995,0,0
308,29,0,0,0,0,0,0,0,0,0,-1,1532,995,0,0
315,29,0,0,0,0,0,0,0,0,0,-1,1539,995,0,0
322,29,0,0,0,0,0,0,0,0,0,-1,1546,995,0,0
329,29,0,0,0,0,0,0,0,0,0,-1,1553,995,0,0
336,29,0,0,0,0,0,0,0,0,0,-1,1560,995,0,0
343,29,0,0,0,0,0,0,0,0,0,-1,1567,995,0,0
350,29,0,0,0,0,0,0,0,0,0,-1,1574,995,0,0
357,29,0,0,0,0,0,0,0,0,0,-1,1581,995,0,0
364,29,0,0,0,0,0,0,0,0,0,-1,1588,995,0,0
371,29,0,0,0,0,0,0,0,0,0,-1,1595,995,0,0
378,29,0,0,0,0,0,0,0,0,0,-1,1602,995,0,0
385,29,0,0,0,0,0,0,0,0,0,-1,1609,995,0,0
392,29,0,0,0,0,0,0,0,0,0,-1,1616,995,0,0
399,29,0,0,0,0,0,0,0,0,0,-1,1623,995,0,0
406,29,0,0,0,0,0,0,0,0,0,-1,1630,995,0,0
413,29,0,0,0,0,0,0,0,0,0,-1,1637,995,0,0
420,29,0,0,0,0,0,0,0,0,0,-1,1644,995,0,0
427,29,0,0,0,0,0,0,0,0,0,-1,1651,995,0,0
434,29,0,0,0,0,0,0,0,0,0,-1,1658,995,0,0
441,29,0,0,0,0,0,0,0,0,0,-1,1665,995,0,0
448,29,0,0,0,0,0,0,0,0,0,-1,1672,995,0,0
455,29,0,0,0,0,0,0,0,0,0,-1,1679,995,0,0
462,29,0,0,0,0,0,0,0,0,0,-1,1686,995,0,0
469,29,0,0,0,0,0,0,0,0,0,-1,1693,995,0,0
476,29,0,0,0,0,0,0,0,0,0,-1,1700,995,0,0
483,29,0,0,0,0,0,0,0,0,0,-1,1707,995,0,0
490,29,0,0,0,0,0,0,0,0,0,-1,1714,995,0,0
497,29,0,0,0,0,0,0,0,0,0,-1,1721,995,0,0
504,29,0,0,0,0,0,0,0,0,0,-1,1728,995,0,0
511,29,0,0,0,0,0,0,0,0,0,-1,1735,995,0,0
518,29,0,0,0,0,0,0,0,0,0,-1,1742,995,0,0
525,29,0,0,0,0,0,0,0,0,0,-1,1749,995,0,0
532,29,0,0,0,0,0,0,0,0,0,-1,1756,995,0,0
539,29,0,0,0,0,0,0,0,0,0,-1,1763,995,0,0
546,29,0,0,0,0,0,0,0,0,0,-1,1770,995,0,0
553,29,0,0,0,0,0,0,0,0,0,-1,1777,995,0,0
560,29,0,0,0,0,0,0,0,0,0,-1,1784,995,0,0
567,29,0,0,0,0,0,0,0,0,0,-1,1791,995,0,0
574,29,0,0,0,0,0,0,0,0,0,-1,1798,995,0,0
581,29,0,0,0,0,0,0,0,0,0,-1,1805,995,0,0
588,29,0,0,0,0,0,0,0,0,0,-1,1812,995,0,0
595,29,0,0,0,0,0,0,0,0,0,-1,1819,995,0,0
602,29,0,0,0,0,0,0,0,0,0,-1,1826,995,0,0
609,29,0,0,0,0,0,0,0,0,0,-1,1833,995,0,0
616,29,0,0,0,0,0,0,0,0,0,-1,1840,995,0,0
623,29,0,0,0,0,0,0,0,0,0,-1,1847,995,0,0
630,29,0,0,0,0,0,0,0,0,0,-1,1854,995,0,0
637,29,0,0,0,0,0,0,0,0,0,-1,1861,995,0,0
644,29,54.8451,3.20831,-0.000959225,0.00144531,-0.000630194,0.00160047,-0.00111438,-1.3294,0.00157577,0.0431656,1868,995,54.845,-3.2083
651,29,54.8093,3.11108,-0.000893773,0.00055824,-0.000760491,0.000883629,-0.00121916,-1.1665,0.00121919,0.0407871,1875,995,54.8093,-3.1111
658,29,54.7974,2.93762,-0.000789988,-3.22932e-05,-0.00049574,0.000212786,-0.00103507,-1.11166,0.000770826,0.0407573,1882,995,54.7973,-2.93759
665,29,54.8644,2.90033,-0.00066972,-0.00025193,-6.64443e-05,-0.000241617,-0.000680032,-1.41682,0.000398059,0.0397832,1889,995,54.8643,-2.90036
672,29,54.8098,2.93774,-0.000591222,-0.000172533,0.000479036,0.000140904,-0.00090466,0.991398,0.000655145,0.0398807,1896,995,54.8098,-2.93774
679,29,54.7102,2.98456,-0.000522412,-7.90567e-05,0.00104268,0.000765251,-0.00136672,0.89014,0.00124712,0.0406635,1903,995,54.7102,-2.98456
686,29,54.7267,2.84766,-0.000447239,-8.21184e-05,0.00142072,0.00116772,-0.00169708,0.849297,0.00166338,0.0400858,1910,995,54.7266,-2.84766
693,29,54.7079,2.9491,-0.000402488,-0.000138665,0.00160985,0.00134467,-0.00188582,0.826277,0.00187383,0.0407678,1917,995,54.7079,-2.94909
700,29,54.7383,3.00238,-0.000428142,-0.000150301,0.00155957,0.00127652,-0.00185497,0.829819,0.00181822,0.0352337,1924,995,54.7382,-3.00235
707,29,54.778,2.89935,-0.00079889,0.000207358,0.0013336,0.00112959,-0.00172112,0.965776,0.00165763,0.0235037,1931,995,54.778,-2.89938
714,29,54.7285,3.27802,-0.00152483,0.000890554,0.00109558,0.00131345,-0.00194773,1.20242,0.00189468,0.045695,1938,995,54.7285,-3.27803
721,29,54.2562,5.57678,0,0,0,0,0,0,0,-1,1945,995,54.2562,-5.57681
728,29,54.3707,5.87531,-0.00337342,0.0031245,0.000519076,0.00316571,-0.00341463,1.49158,0.00380007,0.0320602,1952,995,54.3708,-5.87528
735,29,54.3796,6.14081,-0.00411633,0.00437604,2.86033e-06,0.00437604,-0.00411633,1.57046,0.00490384,0.0165944,1959,995,54.3796,-6.14082
742,29,54.3412,6.28418,-0.00515976,0.00610049,-0.000760822,0.00615167,-0.00521094,-1.50364,0.00656769,0.01424,1966,995,54.3412,-6.28415
749,29,54.3138,6.46857,-0.00645733,0.00822454,-0.0014463,0.00836565,-0.00659844,-1.47353,0.00865958,0.0154569,1973,995,54.3139,-6.46858
756,29,54.3173,6.66608,-0.00786833,0.01103,-0.00214776,0.011271,-0.00810935,-1.45905,0.0112388,0.0149549,1980,995,54.3172,-6.66607
763,29,54.2646,6.79895,-0.00919858,0.0148526,-0.00287234,0.0151909,-0.00953685,-1.45357,0.0144004,0.013203,1987,995,54.2646,-6.79896
770,29,54.1694,6.91241,-0.0102691,0.0199662,-0.00370189,0.0204129,-0.0107158,-1.45072,0.0182605,0.0169031,1994,995,54.1693,-6.91244
777,29,54.0645,7.1615,-0.010943,0.0257288,-0.00455005,0.026285,-0.0114991,-1.44918,0.0223645,0.0286941,2001,995,54.0645,-7.16151
784,29,54.0537,7.36554,-0.0107884,0.0318661,-0.00529635,0.0325139,-0.0114362,-1.44909,0.0263293,0.0460861,2008,995,54.0536,-7.36554
791,29,54.0439,7.58228,0,0,0,0,0,0,0,-1,2015,995,54.0439,-7.58225
798,29,54.0354,7.60742,0,0,0,0,0,0,0,-1,2022,995,54.0354,-7.60741
805,29,52.4414,3.14838,0,0,0,0,0,0,0,-1,2029,995,52.4414,-3.14837
812,29,52.4426,2.32715,0,0,0,0,0,0,0,-1,2036,995,52.4427,-2.32716
-700,22,0,0,0,0,0,0,0,0,0,-1,524,1002,0,0
-693,22,-37.1926,6.48267,-0.097442,0.19439,0.0337807,0.198249,-0.101301,1.45705,0.175939,0.0475736,531,1002,-37.1926,-6.48269
-686,22,-38.1624,5.94928,-0.0810898,0.157748,0.029936,0.161443,-0.0847849,1.44799,0.144438,0.0474642,538,1002,-38.1624,-5.94929
-679,22,-39.063,5.39746,-0.0684559,0.131484,0.0267463,0.135,-0.071972,1.44009,0.121328,0.0480526,545,1002,-39.063,-5.39747
-672,22,-39.9154,4.88129,-0.0575783,0.109854,0.0237253,0.113151,-0.0608753,1.43272,0.101974,0.0458853,552,1002,-39.9154,-4.88131
-665,22,-40.7882,4.36444,0,0,0,0,0,0,0,-1,559,1002,-40.7882,-4.36442
-658,22,-42.4355,5.97858,0,0,0,0,0,0,0,-1,566,1002,-42.4355,-5.97859
-651,22,-40.5718,3.21326,0,0,0,0,0,0,0,-1,573,1002,-40.5718,-3.21324
-644,22,-41.1663,3.57031,-0.0250142,0.0448609,0.0117921,0.0467973,-0.0269506,1.40804,0.0430893,0.0398884,580,1002,-41.1663,-3.57034
-637,22,-41.5458,3.83423,-0.0180887,0.0291072,0.00773153,0.0303415,-0.019323,1.41249,0.0289081,0.0249911,587,1002,-41.5458,-3.83426
-630,22,-41.5262,3.87079,-0.012235,0.0168171,0.00461179,0.0175316,-0.0129495,1.41709,0.0176644,0.0137509,594,1002,-41.5262,-3.8708
-623,22,-41.5529,3.82434,-0.00658821,0.0116185,0.0023373,0.0119137,-0.00688347,1.44513,0.0109813,0.012357,601,1002,-41.5529,-3.82432
-616,22,-41.5422,3.67487,-0.00293211,0.00716631,-0.000293627,0.00717484,-0.00294064,-1.54175,0.0060083,0.01928,608,1002,-41.5422,-3.67487
-609,22,-41.6543,3.61713,-0.00100938,0.004139,-0.00288167,0.00542881,-0.00229918,-1.14995,0.00458209,0.0292028,615,1002,-41.6543,-3.6171
-602,22,-41.8013,3.56,0.00044967,0.00246223,-0.00452775,0.00609417,-0.00318227,-0.894745,0.005443,0.0278649,622,1002,-41.8013,-3.55998
-595,22,-41.7678,3.35236,0.00126917,0.00132585,-0.00564266,0.00694025,-0.00434522,-0.78791,0.00657284,0.0284293,629,1002,-41.7678,-3.35234
-588,22,-41.2835,2.66516,0,0,0,0,0,0,0,-1,636,1002,-41.2835,-2.66515
-581,22,-40.8536,1.909,0,0,0,0,0,0,0,-1,643,1002,-40.8536,-1.90902
-574,22,-41.0632,0.842773,0,0,0,0,0,0,0,-1,650,1002,-41.0633,-0.84275
-567,22,-40.9219,0.938965,0.00164395,-0.000757864,-0.00533396,0.00591052,-0.00502443,-0.674672,0.0063202,0.033463,657,1002,-40.9219,-0.938991
-560,22,-40.9255,0.928223,0.000801007,-0.000391278,-0.00413981,0.00438738,-0.00397765,-0.713889,0.00483148,0.0369914,664,1002,-40.9255,-0.928229
-553,22,-41.0409,1.04559,-0.000332708,0.000174344,-0.00240151,0.00233567,-0.00249404,-0.837988,0.00278893,0.0402862,671,1002,-41.0409,-1.04562
-546,22,-41.0997,1.0163,-0.00162259,0.000680118,-6.9074e-05,0.000682188,-0.00162466,-1.54084,0.00136841,0.0403752,678,1002,-41.0997,-1.01631
-539,22,-41.1105,1.01282,-0.00245232,0.00125552,0.0022174,0.00229191,-0.00348871,1.13358,0.0033612,0.0420969,685,1002,-41.1105,-1.01279
-532,22,-40.8447,0.87854,-0.00216819,0.00149516,0.00354203,0.00365109,-0.00432412,1.02402,0.00460995,0.0447629,692,1002,-40.8447,-0.878533
-525,22,0,0,0,0,0,0,0,0,0,-1,699,1002,0,0
-518,22,0,0,0,0,0,0,0,0,0,-1,706,1002,0,0
-511,22,0,0,0,0,0,0,0,0,0,-1,713,1002,0,0
-504,22,0,0,0,0,0,0,0,0,0,-1,720,1002,0,0
-497,22,0,0,0,0,0,0,0,0,0,-1,727,1002,0,0
-490,22,0,0,0,0,0,0,0,0,0,-1,734,1002,0,0
-483,22,0,0,0,0,0,0,0,0,0,-1,741,1002,0,0
-476,22,0,0,0,0,0,0,0,0,0,-1,748,1002,0,0
-469,22,0,0,0,0,0,0,0,0,0,-1,755,1002,0,0
-462,22,0,0,0,0,0,0,0,0,0,-1,762,1002,0,0
-455,22,0,0,0,0,0,0,0,0,0,-1,769,1002,0,0
-448,22,0,0,0,0,0,0,0,0,0,-1,776,1002,0,0
-441,22,0,0,0,0,0,0,0,0,0,-1,783,1002,0,0
-434,22,0,0,0,0,0,0,0,0,0,-1,790,1002,0,0
-427,22,0,0,0,0,0,0,0,0,0,-1,797,1002,0,0
-420,22,0,0,0,0,0,0,0,0,0,-1,804,1002,0,0
-413,22,0,0,0,0,0,0,0,0,0,-1,811,1002,0,0
-406,22,0,0,0,0,0,0,0,0,0,-1,818,1002,0,0
-399,22,0,0,0,0,0,0,0,0,0,-1,825,1002,0,0
-392,22,0,0,0,0,0,0,0,0,0,-1,832,1002,0,0
-385,22,0,0,0,0,0,0,0,0,0,-1,839,1002,0,0
-378,22,0,0,0,0,0,0,0,0,0,-1,846,1002,0,0
-371,22,0,0,0,0,0,0,0,0,0,-1,853,1002,0,0
-364,22,0,0,0,0,0,0,0,0,0,-1,860,1002,0,0
-357,22,0,0,0,0,0,0,0,0,0,-1,867,1002,0,0
-350,22,0,0,0,0,0,0,0,0,0,-1,874,1002,0,0
-343,22,0,0,0,0,0,0,0,0,0,-1,881,1002,0,0
-336,22,0,0,0,0,0,0,0,0,0,-1,888,1002,0,0
-329,22,0,0,0,0,0,0,0,0,0,-1,895,1002,0,0
-322,22,0,0,0,0,0,0,0,0,0,-1,902,1002,0,0
-315,22,0,0,0,0,0,0,0,0,0,-1,909,1002,0,0
-308,22,0,0,0,0,0,0,0,0,0,-1,916,1002,0,0
-301,22,0,0,0,0,0,0,0,0,0,-1,923,1002,0,0
-294,22,0,0,0,0,0,0,0,0,0,-1,930,1002,0,0
-287,22,0,0,0,0,0,0,0,0,0,-1,937,1002,0,0
-280,22,0,0,0,0,0,0,0,0,0,-1,944,1002,0,0
-273,22,0,0,0,0,0,0,0,0,0,-1,951,1002,0,0
-266,22,0,0,0,0,0,0,0,0,0,-1,958,1002,0,0
-259,22,0,0,0,0,0,0,0,0,0,-1,965,1002,0,0
-252,22,0,0,0,0,0,0,0,0,0,-1,972,1002,0,0
-245,22,0,0,0,0,0,0,0,0,0,-1,979,1002,0,0
-238,22,0,0,0,0,0,0,0,0,0,-1,986,1002,0,0
-231,22,0,0,0,0,0,0,0,0,0,-1,993,1002,0,0
-224,22,0,0,0,0,0,0,0,0,0,-1,1000,1002,0,0
-217,22,0,0,0,0,0,0,0,0,0,-1,1007,1002,0,0
-210,22,0,0,0,0,0,0,0,0,0,-1,1014,1002,0,0
-203,22,0,0,0,0,0,0,0,0,0,-1,1021,1002,0,0
-196,22,0,0,0,0,0,0,0,0,0,-1,1028,1002,0,0
-189,22,0,0,0,0,0,0,0,0,0,-1,1035,1002,0,0
-182,22,0,0,0,0,0,0,0,0,0,-1,1042,1002,0,0
-175,22,0,0,0,0,0,0,0,0,0,-1,1049,1002,0,0
-168,22,0,0,0,0,0,0,0,0,0,-1,1056,1002,0,0
-161,22,0,0,0,0,0,0,0,0,0,-1,1063,1002,0,0
-154,22,0,0,0,0,0,0,0,0,0,-1,1070,1002,0,0
-147,22,0,0,0,0,0,0,0,0,0,-1,1077,1002,0,0
-140,22,0,0,0,0,0,0,0,0,0,-1,1084,1002,0,0
-133,22,0,0,0,0,0,0,0,0,0,-1,1091,1002,0,0
-126,22,0,0,0,0,0,0,0,0,0,-1,1098,1002,0,0
-119,22,0,0,0,0,0,0,0,0,0,-1,1105,1002,0,0
-112,22,0,0,0,0,0,0,0,0,0,-1,1112,1002,0,0
-105,22,0,0,0,0,0,0,0,0,0,-1,1119,1002,0,0
-98,22,0,0,0,0,0,0,0,0,0,-1,1126,1002,0,0
-91,22,0,0,0,0,0,0,0,0,0,-1,1133,1002,0,0
-84,22,0,0,0,0,0,0,0,0,0,-1,1140,1002,0,0
-77,22,0,0,0,0,0,0,0,0,0,-1,1147,1002,0,0
-70,22,0,0,0,0,0,0,0,0,0,-1,1154,1002,0,0
-63,22,0,0,0,0,0,0,0,0,0,-1,1161,1002,0,0
-56,22,0,0,0,0,0,0,0,0,0,-1,1168,1002,0,0
-49,22,0,0,0,0,0,0,0,0,0,-1,1175,1002,0,0
-42,22,0,0,0,0,0,0,0,0,0,-1,1182,1002,0,0
-35,22,0,0,0,0,0,0,0,0,0,-1,1189,1002,0,0
-28,22,0,0,0,0,0,0,0,0,0,-1,1196,1002,0,0
-21,22,0,0,0,0,0,0,0,0,0,-1,1203,1002,0,0
-14,22,0,0,0,0,0,0,0,0,0,-1,1210,1002,0,0
-7,22,0,0,0,0,0,0,0,0,0,-1,1217,1002,0,0
0,22,0,0,0,0,0,0,0,0,0,-1,1224,1002,0,0
7,22,0,0,0,0,0,0,0,0,0,-1,1231,1002,0,0
14,22,0,0,0,0,0,0,0,0,0,-1,1238,1002,0,0
21,22,0,0,0,0,0,0,0,0,0,-1,1245,1002,0,0
28,22,0,0,0,0,0,0,0,0,0,-1,1252,1002,0,0
35,22,0,0,0,0,0,0,0,0,0,-1,1259,1002,0,0
42,22,0,0,0,0,0,0,0,0,0,-1,1266,1002,0,0
49,22,0,0,0,0,0,0,0,0,0,-1,1273,1002,0,0
56,22,0,0,0,0,0,0,0,0,0,-1,1280,1002,0,0
63,22,0,0,0,0,0,0,0,0,0,-1,1287,1002,0,0
70,22,0,0,0,0,0,0,0,0,0,-1,1294,1002,0,0
77,22,0,0,0,0,0,0,0,0,0,-1,1301,1002,0,0
84,22,0,0,0,0,0,0,0,0,0,-1,1308,1002,0,0
91,22,0,0,0,0,0,0,0,0,0,-1,1315,1002,0,0
98,22,0,0,0,0,0,0,0,0,0,-1,1322,1002,0,0
105,22,0,0,0,0,0,0,0,0,0,-1,1329,1002,0,0
112,22,0,0,0,0,0,0,0,0,0,-1,1336,1002,0,0
119,22,0,0,0,0,0,0,0,0,0,-1,1343,1002,0,0
126,22,0,0,0,0,0,0,0,0,0,-1,1350,1002,0,0
133,22,0,0,0,0,0,0,0,0,0,-1,1357,1002,0,0
140,22,0,0,0,0,0,0,0,0,0,-1,1364,1002,0,0
147,22,0,0,0,0,0,0,0,0,0,-1,1371,1002,0,0
154,22,0,0,0,0,0,0,0,0,0,-1,1378,1002,0,0
161,22,0,0,0,0,0,0,0,0,0,-1,1385,1002,0,0
168,22,0,0,0,0,0,0,0,0,0,-1,1392,1002,0,0
175,22,0,0,0,0,0,0,0,0,0,-1,1399,1002,0,0
182,22,0,0,0,0,0,0,0,0,0,-1,1406,1002,0,0
189,22,0,0,0,0,0,0,0,0,0,-1,1413,1002,0,0
196,22,0,0,0,0,0,0,0,0,0,-1,1420,1002,0,0
203,22,0,0,0,0,0,0,0,0,0,-1,1427,1002,0,0
210,22,0,0,0,0,0,0,0,0,0,-1,1434,1002,0,0
217,22,0,0,0,0,0,0,0,0,0,-1,1441,1002,0,0
224,22,0,0,0,0,0,0,0,0,0,-1,1448,1002,0,0
231,22,0,0,0,0,0,0,0,0,0,-1,1455,1002,0,0
238,22,0,0,0,0,0,0,0,0,0,-1,1462,1002,0,0
245,22,0,0,0,0,0,0,0,0,0,-1,1469,1002,0,0
252,22,0,0,0,0,0,0,0,0,0,-1,1476,1002,0,0
259,22,0,0,0,0,0,0,0,0,0,-1,1483,1002,0,0
266,22,0,0,0,0,0,0,0,0,0,-1,1490,1002,0,0
273,22,0,0,0,0,0,0,0,0,0,-1,1497,1002,0,0
280,22,0,0,0,0,0,0,0,0,0,-1,1504,1002,0,0
287,22,0,0,0,0,0,0,0,0,0,-1,1511,1002,0,0
294,22,0,0,0,0,0,0,0,0,0,-1,1518,1002,0,0
301,22,0,0,0,0,0,0,0,0,0,-1,1525,1002,0,0
308,22,0,0,0,0,0,0,0,0,0,-1,1532,1002,0,0
315,22,0,0,0,0,0,0,0,0,0,-1,1539,1002,0,0
322,22,0,0,0,0,0,0,0,0,0,-1,1546,1002,0,0
329,22,0,0,0,0,0,0,0,0,0,-1,1553,1002,0,0
336,22,0,0,0,0,0,0,0,0,0,-1,1560,1002,0,0
343,22,0,0,0,0,0,0,0,0,0,-1,1567,1002,0,0
350,22,0,0,0,0,0,0,0,0,0,-1,1574,1002,0,0
357,22,0,0,0,0,0,0,0,0,0,-1,1581,1002,0,0
364,22,0,0,0,0,0,0,0,0,0,-1,1588,1002,0,0
371,22,0,0,0,0,0,0,0,0,0,-1,1595,1002,0,0
378,22,0,0,0,0,0,0,0,0,0,-1,1602,1002,0,0
385,22,0,0,0,0,0,0,0,0,0,-1,1609,1002,0,0
392,22,0,0,0,0,0,0,0,0,0,-1,1616,1002,0,0
399,22,0,0,0,0,0,0,0,0,0,-1,1623,1002,0,0
406,22,0,0,0,0,0,0,0,0,0,-1,1630,1002,0,0
413,22,0,0,0,0,0,0,0,0,0,-1,1637,1002,0,0
420,22,0,0,0,0,0,0,0,0,0,-1,1644,1002,0,0
427,22,0,0,0,0,0,0,0,0,0,-1,1651,1002,0,0
434,22,0,0,0,0,0,0,0,0,0,-1,1658,1002,0,0
441,22,0,0,0,0,0,0,0,0,0,-1,1665,1002,0,0
448,22,0,0,0,0,0,0,0,0,0,-1,1672,1002,0,0
455,22,0,0,0,0,0,0,0,0,0,-1,1679,1002,0,0
462,22,0,0,0,0,0,0,0,0,0,-1,1686,1002,0,0
469,22,0,0,0,0,0,0,0,0,0,-1,1693,1002,0,0
476,22,0,0,0,0,0,0,0,0,0,-1,1700,1002,0,0
483,22,0,0,0,0,0,0,0,0,0,-1,1707,1002,0,0
490,22,0,0,0,0,0,0,0,0,0,-1,1714,1002,0,0
497,22,0,0,0,0,0,0,0,0,0,-1,1721,1002,0,0
504,22,0,0,0,0,0,0,0,0,0,-1,1728,1002,0,0
511,22,0,0,0,0,0,0,0,0,0,-1,1735,1002,0,0
518,22,0,0,0,0,0,0,0,0,0,-1,1742,1002,0,0
525,22,0,0,0,0,0,0,0,0,0,-1,1749,1002,0,0
532,22,0,0,0,0,0,0,0,0,0,-1,1756,1002,0,0
539,22,0,0,0,0,0,0,0,0,0,-1,1763,1002,0,0
546,22,0,0,0,0,0,0,0,0,0,-1,1770,1002,0,0
553,22,0,0,0,0,0,0,0,0,0,-1,1777,1002,0,0
560,22,0,0,0,0,0,0,0,0,0,-1,1784,1002,0,0
567,22,0,0,0,0,0,0,0,0,0,-1,1791,1002,0,0
574,22,0,0,0,0,0,0,0,0,0,-1,1798,1002,0,0
581,22,0,0,0,0,0,0,0,0,0,-1,1805,1002,0,0
588,22,0,0,0,0,0,0,0,0,0,-1,1812,1002,0,0
595,22,0,0,0,0,0,0,0,0,0,-1,1819,1002,0,0
602,22,0,0,0,0,0,0,0,0,0,-1,1826,1002,0,0
609,22,0,0,0,0,0,0,0,0,0,-1,1833,1002,0,0
616,22,0,0,0,0,0,0,0,0,0,-1,1840,1002,0,0
623,22,0,0,0,0,0,0,0,0,0,-1,1847,1002,0,0
630,22,0,0,0,0,0,0,0,0,0,-1,1854,1002,0,0
637,22,0,0,0,0,0,0,0,0,0,-1,1861,1002,0,0
644,22,54.755,3.14563,-0.00084714,0.00315832,-0.00014741,0.00316374,-0.000852557,-1.53406,0.00244344,0.0415045,1868,1002,54.7549,-3.14566
651,22,54.8409,3.08612,-0.000987073,0.00180835,-0.000531494,0.00190599,-0.00108472,-1.38911,0.00174825,0.0420722,1875,1002,54.8409,-3.08611
658,22,54.8903,3.01404,-0.000962384,0.00087045,-0.000450415,0.000975157,-0.00106709,-1.34239,0.00117949,0.0399009,1882,1002,54.8902,-3.01403
665,22,54.8987,2.91907,-0.000843341,0.000368794,-0.000153749,0.000387992,-0.000862538,-1.44658,0.000739119,0.0380259,1889,1002,54.8986,-2.91907
672,22,54.8018,2.86554,-0.000700312,0.000232909,0.000286141,0.000313658,-0.000781061,1.29575,0.000650956,0.0392487,1896,1002,54.8017,-2.86551
679,22,54.7212,2.92139,-0.000546518,0.000187746,0.000786323,0.000688421,-0.00104719,1.00381,0.00100917,0.039469,1903,1002,54.7211,-2.92138
686,22,54.7393,3.04059,-0.000456157,9.09506e-05,0.00115317,0.00100257,-0.00136777,0.901855,0.00137392,0.0384268,1910,1002,54.7393,-3.04058
693,22,54.7234,3.10406,-0.000412366,-3.42325e-05,0.00136403,0.00115377,-0.00160037,0.854264,0.00159706,0.0364665,1917,1002,54.7234,-3.10407
700,22,54.7209,3.0365,-0.000426629,-0.000114387,0.00136562,0.00110401,-0.00164502,0.842312,0.00159736,0.0314054,1924,1002,54.7209,-3.03651
707,22,54.7117,2.97797,-0.000807102,0.000207159,0.00119366,0.000996946,-0.00159689,0.986272,0.00151085,0.0293941,1931,1002,54.7117,-2.97794
714,22,54.7246,2.97638,-0.00154117,0.000881114,0.00101877,0.00125262,-0.00191268,1.22112,0.00184068,0.0413695,1938,1002,54.7246,-2.97636
721,22,54.7181,3.26447,0,0,0,0,0,0,0,-1,1945,1002,54.7181,-3.26449
728,22,54.2615,6.01898,0,0,0,0,0,0,0,-1,1952,1002,54.2615,-6.01895
735,22,54.5231,6.20172,-0.00431442,0.00435983,0.00010358,0.00436106,-0.00431565,1.55886,0.00500953,0.0176162,1959,1002,54.523,-6.2017
742,22,54.5349,6.31384,-0.00531087,0.00592284,-0.00052747,0.00594755,-0.00533558,-1.52398,0.00651751,0.0176163,1966,1002,54.5349,-6.31386
749,22,54.4795,6.45612,-0.00656838,0.00790436,-0.00109192,0.00798628,-0.0066503,-1.49591,0.00846216,0.0134763,1973,1002,54.4795,-6.45612
756,22,54.4832,6.56854,-0.0078428,0.0105822,-0.00160772,0.0107215,-0.00798203,-1.48441,0.010837,0.0187139,1980,1002,54.4831,-6.56855
763,22,54.4136,6.72858,-0.00891266,0.0142133,-0.00209882,0.0144022,-0.0091016,-1.48102,0.0136845,0.0202723,1987,1002,54.4136,-6.72858
770,22,54.2549,6.8205,-0.00958612,0.0191426,-0.00262659,0.0193808,-0.00982429,-1.48037,0.0171598,0.0188843,1994,1002,54.2549,-6.8205
777,22,53.9951,6.82684,-0.00964074,0.0248327,-0.00302355,0.0250958,-0.00990392,-1.48397,0.020832,0.0394255,2001,1002,53.9952,-6.82686
784,22,53.783,6.87885,0,0,0,0,0,0,0,-1,2008,1002,53.783,-6.87886
791,22,53.0637,6.84979,0,0,0,0,0,0,0,-1,2015,1002,53.0637,-6.84979
798,22,52.8127,5.21808,0,0,0,0,0,0,0,-1,2022,1002,52.8129,-5.21806
805,22,52.9055,4.27399,0,0,0,0,0,0,0,-1,2029,1002,52.9054,-4.27399
812,22,52.6453,2.59845,0,0,0,0,0,0,0,-1,2036,1002,52.6452,-2.59844
-700,15,0,0,0,0,0,0,0,0,0,-1,524,1009,0,0
-693,15,-37.3889,5.89087,0,0,0,0,0,0,0,-1,531,1009,-37.3889,-5.89086
-686,15,-38.7526,5.63232,0,0,0,0,0,0,0,-1,538,1009,-38.7526,-5.63234
-679,15,-40.0293,5.43518,-0.0561587,0.145306,0.029852,0.149636,-0.060489,1.42674,0.124902,0.0467003,545,1009,-40.0293,-5.43515
-672,15,-40.556,4.67279,-0.0473928,0.119447,0.0254657,0.123247,-0.0511932,1.42265,0.103538,0.0423803,552,1009,-40.556,-4.67278
-665,15,-41.4819,4.16626,0,0,0,0,0,0,0,-1,559,1009,-41.4818,-4.16626
-658,15,-42.5535,5.04181,0,0,0,0,0,0,0,-1,566,1009,-42.5535,-5.04181
-651,15,-39.9013,2.47266,0,0,0,0,0,0,0,-1,573,1009,-39.9013,-2.47268
-644,15,-41.36,3.47961,0,0,0,0,0,0,0,-1,580,1009,-41.36,-3.47964
-637,15,-41.5472,3.80536,-0.0144221,0.0302233,0.00700065,0.0312953,-0.0154941,1.41885,0.0275225,0.0290033,587,1009,-41.5472,-3.80536
-630,15,-41.5565,3.79303,-0.00980328,0.0171759,0.00374784,0.0176868,-0.0103142,1.4353,0.0163522,0.0156385,594,1009,-41.5565,-3.79302
-623,15,-41.6241,3.75275,-0.00508648,0.0117177,0.00158551,0.0118659,-0.00523477,1.47754,0.0101175,0.0108257,601,1009,-41.6242,-3.75277
-616,15,-41.6218,3.69733,-0.0020562,0.0070465,-0.000791496,0.00711481,-0.00212451,-1.48471,0.00558767,0.0175023,608,1009,-41.6218,-3.6973
-609,15,-41.6883,3.67426,-0.000542735,0.00389782,-0.00309228,0.00548436,-0.00212927,-1.09675,0.00453576,0.0231321,615,1009,-41.6883,-3.67423
-602,15,-41.7288,3.62555,0.000726271,0.00212546,-0.00453586,0.00601536,-0.00316363,-0.861914,0.00538407,0.0214787,622,1009,-41.7287,-3.62556
-595,15,-41.4249,2.93878,0.00141757,0.00101168,-0.00539422,0.00661266,-0.00418341,-0.766596,0.00628549,0.0479774,629,1009,-41.4249,-2.93878
-588,15,-40.9999,2.13776,0,0,0,0,0,0,0,-1,636,1009,-40.9999,-2.13774
-581,15,-40.8018,2.0918,0,0,0,0,0,0,0,-1,643,1009,-40.8018,-2.09182
-574,15,-40.9584,0.865784,0.00239575,-0.0011955,-0.0054219,0.00631163,-0.00511137,-0.625492,0.0066072,0.0371583,650,1009,-40.9585,-0.865796
-567,15,-40.996,0.9151,0.00181993,-0.00120089,-0.00469795,0.00524431,-0.00462527,-0.629865,0.00570193,0.0361937,657,1009,-40.996,-0.915117
-560,15,-40.9349,0.863342,0.000952522,-0.00085436,-0.0034799,0.00364435,-0.00354618,-0.658394,0.00415159,0.0390352,664,1009,-40.9349,-0.863337
-553,15,-40.9492,0.844055,-0.000264179,-0.00029302,-0.00173317,0.00145463,-0.00201183,-0.781238,0.00200996,0.0425062,671,1009,-40.9492,-0.844053
-546,15,-41.0491,0.814148,-0.00169739,0.000223771,0.00058927,0.000390113,-0.00186373,1.29567,0.00139088,0.0443283,678,1009,-41.0491,-0.814144
-539,15,-41.0665,0.873535,-0.00272388,0.000893737,0.00279585,0.00241488,-0.00424502,1.07252,0.00389319,0.044446,685,1009,-41.0665,-0.873543
-532,15,-40.9855,1.19922,-0.00269551,0.00130498,0.00415002,0.00391165,-0.00530218,1.00996,0.00533976,0.0436918,692,1009,-40.9855,-1.1992
-525,15,0,0,0,0,0,0,0,0,0,-1,699,1009,0,0
-518,15,0,0,0,0,0,0,0,0,0,-1,706,1009,0,0
-511,15,0,0,0,0,0,0,0,0,0,-1,713,1009,0,0
-504,15,0,0,0,0,0,0,0,0,0,-1,720,1009,0,0
-497,15,0,0,0,0,0,0,0,0,0,-1,727,1009,0,0
-490,15,0,0,0,0,0,0,0,0,0,-1,734,1009,0,0
-483,15,0,0,0,0,0,0,0,0,0,-1,741,1009,0,0
-476,15,0,0,0,0,0,0,0,0,0,-1,748,1009,0,0
-469,15,0,0,0,0,0,0,0,0,0,-1,755,1009,0,0
-462,15,0,0,0,0,0,0,0,0,0,-1,762,1009,0,0
-455,15,0,0,0,0,0,0,0,0,0,-1,769,1009,0,0
-448,15,0,0,0,0,0,0,0,0,0,-1,776,1009,0,0
-441,15,0,0,0,0,0,0,0,0,0,-1,783,1009,0,0
-434,15,0,0,0,0,0,0,0,0,0,-1,790,1009,0,0
-427,15,0,0,0,0,0,0,0,0,0,-1,797,1009,0,0
-420,15,0,0,0,0,0,0,0,0,0,-1,804,1009,0,0
-413,15,0,0,0,0,0,0,0,0,0,-1,811,1009,0,0
-406,15,0,0,0,0,0,0,0,0,0,-1,818,1009,0,0
-399,15,0,0,0,0,0,0,0,0,0,-1,825,1009,0,0
-392,15,0,0,0,0,0,0,0,0,0,-1,832,1009,0,0
-385,15,0,0,0,0,0,0,0,0,0,-1,839,1009,0,0
-378,15,0,0,0,0,0,0,0,0,0,-1,846,1009,0,0
-371,15,0,0,0,0,0,0,0,0,0,-1,853,1009,0,0
-364,15,0,0,0,0,0,0,0,0,0,-1,860,1009,0,0
-357,15,0,0,0,0,0,0,0,0,0,-1,867,1009,0,0
-350,15,0,0,0,0,0,0,0,0,0,-1,874,1009,0,0
-343,15,0,0,0,0,0,0,0,0,0,-1,881,1009,0,0
-336,15,0,0,0,0,0,0,0,0,0,-1,888,1009,0,0
-329,15,0,0,0,0,0,0,0,0,0,-1,895,1009,0,0
-322,15,0,0,0,0,0,0,0,0,0,-1,902,1009,0,0
-315,15,0,0,0,0,0,0,0,0,0,-1,909,1009,0,0
-308,15,0,0,0,0,0,0,0,0,0,-1,916,1009,0,0
-301,15,0,0,0,0,0,0,0,0,0,-1,923,1009,0,0
-294,15,0,0,0,0,0,0,0,0,0,-1,930,1009,0,0
-287,15,0,0,0,0,0,0,0,0,0,-1,937,1009,0,0
-280,15,0,0,0,0,0,0,0,0,0,-1,944,1009,0,0
-273,15,0,0,0,0,0,0,0,0,0,-1,951,1009,0,0
-266,15,0,0,0,0,0,0,0,0,0,-1,958,1009,0,0
-259,15,0,0,0,0,0,0,0,0,0,-1,965,1009,0,0
-252,15,0,0,0,0,0,0,0,0,0,-1,972,1009,0,0
-245,15,0,0,0,0,0,0,0,0,0,-1,979,1009,0,0
-238,15,0,0,0,0,0,0,0,0,0,-1,986,1009,0,0
-231,15,0,0,0,0,0,0,0,0,0,-1,993,1009,0,0
-224,15,0,0,0,0,0,0,0,0,0,-1,1000,1009,0,0
-217,15,0,0,0,0,0,0,0,0,0,-1,1007,1009,0,0
-210,15,0,0,0,0,0,0,0,0,0,-1,1014,1009,0,0
-203,15,0,0,0,0,0,0,0,0,0,-1,1021,1009,0,0
-196,15,0,0,0,0,0,0,0,0,0,-1,1028,1009,0,0
-189,15,0,0,0,0,0,0,0,0,0,-1,1035,1009,0,0
-182,15,0,0,0,0,0,0,0,0,0,-1,1042,1009,0,0
-175,15,0,0,0,0,0,0,0,0,0,-1,1049,1009,0,0
-168,15,0,0,0,0,0,0,0,0,0,-1,1056,1009,0,0
-161,15,0,0,0,0,0,0,0,0,0,-1,1063,1009,0,0
-154,15,0,0,0,0,0,0,0,0,0,-1,1070,1009,0,0
-147,15,0,0,0,0,0,0,0,0,0,-1,1077,1009,0,0
-140,15,0,0,0,0,0,0,0,0,0,-1,1084,1009,0,0
-133,15,0,0,0,0,0,0,0,0,0,-1,1091,1009,0,0
-126,15,0,0,0,0,0,0,0,0,0,-1,1098,1009,0,0
-119,15,0,0,0,0,0,0,0,0,0,-1,1105,1009,0,0
-112,15,0,0,0,0,0,0,0,0,0,-1,1112,1009,0,0
-105,15,0,0,0,0,0,0,0,0,0,-1,1119,1009,0,0
-98,15,0,0,0,0,0,0,0,0,0,-1,1126,1009,0,0
-91,15,0,0,0,0,0,0,0,0,0,-1,1133,1009,0,0
-84,15,0,0,0,0,0,0,0,0,0,-1,1140,1009,0,0
-77,15,0,0,0,0,0,0,0,0,0,-1,1147,1009,0,0
-70,15,0,0,0,0,0,0,0,0,0,-1,1154,1009,0,0
-63,15,0,0,0,0,0,0,0,0,0,-1,1161,1009,0,0
-56,15,0,0,0,0,0,0,0,0,0,-1,1168,1009,0,0
-49,15,0,0,0,0,0,0,0,0,0,-1,1175,1009,0,0
-42,15,0,0,0,0,0,0,0,0,0,-1,1182,1009,0,0
-35,15,0,0,0,0,0,0,0,0,0,-1,1189,1009,0,0
-28,15,0,0,0,0,0,0,0,0,0,-1,1196,1009,0,0
-21,15,0,0,0,0,0,0,0,0,0,-1,1203,1009,0,0
-14,15,0,0,0,0,0,0,0,0,0,-1,1210,1009,0,0
-7,15,0,0,0,0,0,0,0,0,0,-1,1217,1009,0,0
0,15,0,0,0,0,0,0,0,0,0,-1,1224,1009,0,0
7,15,0,0,0,0,0,0,0,0,0,-1,1231,1009,0,0
14,15,0,0,0,0,0,0,0,0,0,-1,1238,1009,0,0
21,15,0,0,0,0,0,0,0,0,0,-1,1245,1009,0,0
28,15,0,0,0,0,0,0,0,0,0,-1,1252,1009,0,0
35,15,0,0,0,0,0,0,0,0,0,-1,1259,1009,0,0
42,15,0,0,0,0,0,0,0,0,0,-1,1266,1009,0,0
49,15,0,0,0,0,0,0,0,0,0,-1,1273,1009,0,0
56,15,0,0,0,0,0,0,0,0,0,-1,1280,1009,0,0
63,15,0,0,0,0,0,0,0,0,0,-1,1287,1009,0,0
70,15,0,0,0,0,0,0,0,0,0,-1,1294,1009,0,0
77,15,0,0,0,0,0,0,0,0,0,-1,1301,1009,0,0
84,15,0,0,0,0,0,0,0,0,0,-1,1308,1009,0,0
91,15,0,0,0,0,0,0,0,0,0,-1,1315,1009,0,0
98,15,0,0,0,0,0,0,0,0,0,-1,1322,1009,0,0
105,15,0,0,0,0,0,0,0,0,0,-1,1329,1009,0,0
112,15,0,0,0,0,0,0,0,0,0,-1,1336,1009,0,0
119,15,0,0,0,0,0,0,0,0,0,-1,1343,1009,0,0
126,15,0,0,0,0,0,0,0,0,0,-1,1350,1009,0,0
133,15,0,0,0,0,0,0,0,0,0,-1,1357,1009,0,0
140,15,0,0,0,0,0,0,0,0,0,-1,1364,1009,0,0
147,15,0,0,0,0,0,0,0,0,0,-1,1371,1009,0,0
154,15,0,0,0,0,0,0,0,0,0,-1,1378,1009,0,0
161,15,0,0,0,0,0,0,0,0,0,-1,1385,1009,0,0
168,15,0,0,0,0,0,0,0,0,0,-1,1392,1009,0,0
175,15,0,0,0,0,0,0,0,0,0,-1,1399,1009,0,0
182,15,0,0,0,0,0,0,0,0,0,-1,1406,1009,0,0
189,15,0,0,0,0,0,0,0,0,0,-1,1413,1009,0,0
196,15,0,0,0,0,0,0,0,0,0,-1,1420,1009,0,0
203,15,0,0,0,0,0,0,0,0,0,-1,1427,1009,0,0
210,15,0,0,0,0,0,0,0,0,0,-1,1434,1009,0,0
217,15,0,0,0,0,0,0,0,0,0,-1,1441,1009,0,0
224,15,0,0,0,0,0,0,0,0,0,-1,1448,1009,0,0
231,15,0,0,0,0,0,0,0,0,0,-1,1455,1009,0,0
238,15,0,0,0,0,0,0,0,0,0,-1,1462,1009,0,0
245,15,0,0,0,0,0,0,0,0,0,-1,1469,1009,0,0
252,15,0,0,0,0,0,0,0,0,0,-1,1476,1009,0,0
259,15,0,0,0,0,0,0,0,0,0,-1,1483,1009,0,0
266,15,0,0,0,0,0,0,0,0,0,-1,1490,1009,0,0
273,15,0,0,0,0,0,0,0,0,0,-1,1497,1009,0,0
280,15,0,0,0,0,0,0,0,0,0,-1,1504,1009,0,0
287,15,0,0,0,0,0,0,0,0,0,-1,1511,1009,0,0
294,15,0,0,0,0,0,0,0,0,0,-1,1518,1009,0,0
301,15,0,0,0,0,0,0,0,0,0,-1,1525,1009,0,0
308,15,0,0,0,0,0,0,0,0,0,-1,1532,1009,0,0
315,15,0,0,0,0,0,0,0,0,0,-1,1539,1009,0,0
322,15,0,0,0,0,0,0,0,0,0,-1,1546,1009,0,0
329,15,0,0,0,0,0,0,0,0,0,-1,1553,1009,0,0
336,15,0,0,0,0,0,0,0,0,0,-1,1560,1009,0,0
343,15,0,0,0,0,0,0,0,0,0,-1,1567,1009,0,0
350,15,0,0,0,0,0,0,0,0,0,-1,1574,1009,0,0
357,15,0,0,0,0,0,0,0,0,0,-1,1581,1009,0,0
364,15,0,0,0,0,0,0,0,0,0,-1,1588,1009,0,0
371,15,0,0,0,0,0,0,0,0,0,-1,1595,1009,0,0
378,15,0,0,0,0,0,0,0,0,0,-1,1602,1009,0,0
385,15,0,0,0,0,0,0,0,0,0,-1,1609,1009,0,0
392,15,0,0,0,0,0,0,0,0,0,-1,1616,1009,0,0
399,15,0,0,0,0,0,0,0,0,0,-1,1623,1009,0,0
406,15,0,0,0,0,0,0,0,0,0,-1,1630,1009,0,0
413,15,0,0,0,0,0,0,0,0,0,-1,1637,1009,0,0
420,15,0,0,0,0,0,0,0,0,0,-1,1644,1009,0,0
427,15,0,0,0,0,0,0,0,0,0,-1,1651,1009,0,0
434,15,0,0,0,0,0,0,0,0,0,-1,1658,1009,0,0
441,15,0,0,0,0,0,0,0,0,0,-1,1665,1009,0,0
448,15,0,0,0,0,0,0,0,0,0,-1,1672,1009,0,0
455,15,0,0,0,0,0,0,0,0,0,-1,1679,1009,0,0
462,15,0,0,0,0,0,0,0,0,0,-1,1686,1009,0,0
469,15,0,0,0,0,0,0,0,0,0,-1,1693,1009,0,0
476,15,0,0,0,0,0,0,0,0,0,-1,1700,1009,0,0
483,15,0,0,0,0,0,0,0,0,0,-1,1707,1009,0,0
490,15,0,0,0,0,0,0,0,0,0,-1,1714,1009,0,0
497,15,0,0,0,0,0,0,0,0,0,-1,1721,1009,0,0
504,15,0,0,0,0,0,0,0,0,0,-1,1728,1009,0,0
511,15,0,0,0,0,0,0,0,0,0,-1,1735,1009,0,0
518,15,0,0,0,0,0,0,0,0,0,-1,1742,1009,0,0
525,15,0,0,0,0,0,0,0,0,0,-1,1749,1009,0,0
532,15,0,0,0,0,0,0,0,0,0,-1,1756,1009,0,0
539,15,0,0,0,0,0,0,0,0,0,-1,1763,1009,0,0
546,15,0,0,0,0,0,0,0,0,0,-1,1770,1009,0,0
553,15,0,0,0,0,0,0,0,0,0,-1,1777,1009,0,0
560,15,0,0,0,0,0,0,0,0,0,-1,1784,1009,0,0
567,15,0,0,0,0,0,0,0,0,0,-1,1791,1009,0,0
574,15,0,0,0,0,0,0,0,0,0,-1,1798,1009,0,0
581,15,0,0,0,0,0,0,0,0,0,-1,1805,1009,0,0
588,15,0,0,0,0,0,0,0,0,0,-1,1812,1009,0,0
595,15,0,0,0,0,0,0,0,0,0,-1,1819,1009,0,0
602,15,0,0,0,0,0,0,0,0,0,-1,1826,1009,0,0
609,15,0,0,0,0,0,0,0,0,0,-1,1833,1009,0,0
616,15,0,0,0,0,0,0,0,0,0,-1,1840,1009,0,0
623,15,0,0,0,0,0,0,0,0,0,-1,1847,1009,0,0
630,15,0,0,0,0,0,0,0,0,0,-1,1854,1009,0,0
637,15,0,0,0,0,0,0,0,0,0,-1,1861,1009,0,0
644,15,54.6505,2.75854,-0.000704899,0.00437376,-3.74303e-05,0.00437403,-0.000705175,-1.56343,0.00317727,0.0414537,1868,1009,54.6505,-2.75852
651,15,54.7506,2.85352,-0.00110233,0.00270829,-0.000404906,0.00275084,-0.00114488,-1.4661,0.00231202,0.0404997,1875,1009,54.7506,-2.85349
658,15,54.8229,3.12665,-0.00118081,0.00153043,-0.000346357,0.00157397,-0.00122436,-1.44572,0.00161982,0.0383307,1882,1009,54.8229,-3.12664
665,15,54.7617,2.99811,-0.00108217,0.000828888,-8.40789e-05,0.00083258,-0.00108586,-1.52691,0.00111083,0.0370152,1889,1009,54.7617,-2.99809
672,15,54.713,2.85657,-0.000893135,0.000532925,0.000312933,0.000598572,-0.000958783,1.36401,0.000907121,0.0371144,1896,1009,54.7131,-2.85654
679,15,54.7803,2.87677,-0.000651424,0.000377079,0.000779819,0.000796943,-0.00107129,1.07689,0.00108249,0.038037,1903,1009,54.7803,-2.87677
686,15,54.844,2.85339,-0.000528267,0.000203719,0.00113109,0.00102656,-0.0013511,0.94187,0.001377,0.0413285,1910,1009,54.844,-2.85338
693,15,54.7712,2.87854,-0.000471449,3.14499e-05,0.00135818,0.00116126,-0.00160126,0.876931,0.00160167,0.0387415,1917,1009,54.7713,-2.87855
700,15,54.7805,2.92438,-0.000460666,-9.96383e-05,0.00139812,0.00112958,-0.00168988,0.849599,0.0016385,0.0288375,1924,1009,54.7805,-2.92436
707,15,54.7532,2.98163,-0.000838074,0.000200935,0.00125184,0.00103679,-0.00167393,0.98208,0.00157938,0.0263035,1931,1009,54.7532,-2.98162
714,15,54.7549,2.92548,-0.00155514,0.000867863,0.00111681,0.00130409,-0.00199136,1.19842,0.00191637,0.0311184,1938,1009,54.7549,-2.92546
721,15,54.7418,2.80481,0,0,0,0,0,0,0,-1,1945,1009,54.7418,-2.8048
728,15,54.6942,6.12646,0,0,0,0,0,0,0,-1,1952,1009,54.6943,-6.12649
735,15,54.6141,6.27045,-0.00442941,0.00440776,0.000361065,0.00442249,-0.00444414,1.53003,0.00511916,0.0197007,1959,1009,54.6141,-6.27043
742,15,54.6176,6.43311,-0.00536245,0.00587967,-0.00018184,0.00588261,-0.00536539,-1.55463,0.00649633,0.0365744,1966,1009,54.6175,-6.43313
749,15,54.6212,6.50458,-0.00656006,0.00777033,-0.000613791,0.00779657,-0.00658631,-1.52807,0.00831375,0.0228633,1973,1009,54.6212,-6.5046
756,15,54.6212,6.48309,-0.00772505,0.0104072,-0.000950212,0.0104569,-0.00777471,-1.51858,0.0105639,0.0173752,1980,1009,54.6212,-6.48309
763,15,54.5392,6.60364,-0.00862396,0.0139275,-0.00123172,0.0139945,-0.00869104,-1.51639,0.0132163,0.0143846,1987,1009,54.5392,-6.60364
770,15,54.3914,6.65405,-0.00901299,0.0187565,-0.0014692,0.018834,-0.00909051,-1.51809,0.0164461,0.0195098,1994,1009,54.3914,-6.65403
777,15,54.0388,6.72705,-0.00864446,0.0244731,-0.00147644,0.0245388,-0.00871015,-1.52633,0.0199082,0.0441507,2001,1009,54.0387,-6.72706
784,15,53.7429,6.81592,0,0,0,0,0,0,0,-1,2008,1009,53.7429,-6.81591
791,15,52.2471,4.599,0,0,0,0,0,0,0,-1,2015,1009,52.247,-4.59901
798,15,52.7864,4.94916,0,0,0,0,0,0,0,-1,2022,1009,52.7864,-4.94916
805,15,52.8821,4.04376,0,0,0,0,0,0,0,-1,2029,1009,52.8821,-4.04377
812,15,52.9155,2.91199,0,0,0,0,0,0,0,-1,2036,1009,52.9156,-2.91201
-700,8,0,0,0,0,0,0,0,0,0,-1,524,1016,0,0
-693,8,-37.9218,5.31293,-0.0508835,0.252822,0.0544729,0.262296,-0.0603582,1.39858,0.198073,0.0476023,531,1016,-37.9218,-5.31291
-686,8,-40.0008,5.78748,-0.0462481,0.1949,0.0414909,0.201839,-0.0531872,1.40509,0.155354,0.0456361,538,1016,-40.0008,-5.78748
-679,8,-40.4507,4.99097,-0.0410874,0.156984,0.033489,0.162493,-0.0465963,1.40776,0.126749,0.0416528,545,1016,-40.4507,-4.99097
-672,8,-40.9756,4.41571,-0.035572,0.127998,0.0275568,0.132516,-0.0400898,1.4083,0.104308,0.0403959,552,1016,-40.9755,-4.41574
-665,8,-41.438,3.63312,0,0,0,0,0,0,0,-1,559,1016,-41.438,-3.63314
-658,8,-41.5604,3.02472,0,0,0,0,0,0,0,-1,566,1016,-41.5604,-3.02474
-651,8,-40.7366,3.17615,0,0,0,0,0,0,0,-1,573,1016,-40.7366,-3.17615
-644,8,-41.3696,3.36499,0,0,0,0,0,0,0,-1,580,1016,-41.3695,-3.365
-637,8,-41.3909,3.56354,-0.0113486,0.0311292,0.00605679,0.031976,-0.0121953,1.4319,0.0263409,0.041835,587,1016,-41.3909,-3.56355
-630,8,-41.5928,3.71722,-0.00789674,0.0173506,0.00266214,0.0176283,-0.00817439,1.46688,0.0152268,0.0238542,594,1016,-41.5929,-3.71725
-623,8,-41.5803,3.75134,-0.00418096,0.011692,0.000597198,0.0117144,-0.00420339,1.53324,0.00952507,0.0153937,601,1016,-41.5802,-3.75136
-616,8,-41.5981,3.72424,-0.00179439,0.00685013,-0.00155981,0.00712297,-0.00206723,-1.39763,0.00556716,0.0163301,608,1016,-41.5981,-3.72425
-609,8,-41.6573,3.65369,-0.000549226,0.00360252,-0.00354693,0.00563639,-0.0025831,-1.05015,0.00485343,0.0182257,615,1016,-41.6574,-3.65369
-602,8,-41.6019,3.69617,0.000599849,0.00182284,-0.00472598,0.00597673,-0.00355403,-0.849736,0.00556153,0.0224361,622,1016,-41.6019,-3.69616
-595,8,-41.0603,3.56934,0,0,0,0,0,0,0,-1,629,1016,-41.0603,-3.56932
-588,8,-40.9232,0.763977,0,0,0,0,0,0,0,-1,636,1016,-40.9232,-0.763985
-581,8,-40.9601,0.961487,0.00233826,-0.00100076,-0.00530217,0.00622755,-0.00489005,-0.632876,0.00643421,0.0315684,643,1016,-40.9601,-0.961512
-574,8,-40.8771,0.894104,0.00225359,-0.00142081,-0.00497258,0.00571751,-0.00488473,-0.608443,0.00612749,0.0388594,650,1016,-40.8771,-0.89409
-567,8,-40.8717,0.780884,0.00170593,-0.00143105,-0.00419447,0.00461558,-0.0043407,-0.606477,0.00517173,0.0422562,657,1016,-40.8717,-0.780858
-560,8,-40.8964,0.95874,0.000865825,-0.00107131,-0.00295483,0.00300678,-0.00321227,-0.627021,0.00359123,0.0398285,664,1016,-40.8964,-0.958767
-553,8,-40.8903,0.902283,-0.000339734,-0.00047218,-0.00121563,0.000811474,-0.00162339,-0.758187,0.00143158,0.0415251,671,1016,-40.8903,-0.902266
-546,8,-40.9491,0.793396,-0.00178275,0.000110071,0.00106088,0.000585336,-0.00225802,1.14961,0.00173371,0.0433633,678,1016,-40.9491,-0.793385
-539,8,-41.0348,0.860046,-0.00288718,0.00088973,0.00308318,0.00261683,-0.00461428,1.06018,0.00422765,0.043921,685,1016,-41.0348,-0.860032
-532,8,-41.0662,1.10565,-0.00305397,0.00149767,0.00444471,0.00421533,-0.00577163,1.02201,0.00578926,0.0432955,692,1016,-41.0661,-1.10566
-525,8,0,0,0,0,0,0,0,0,0,-1,699,1016,0,0
-518,8,0,0,0,0,0,0,0,0,0,-1,706,1016,0,0
-511,8,0,0,0,0,0,0,0,0,0,-1,713,1016,0,0
-504,8,0,0,0,0,0,0,0,0,0,-1,720,1016,0,0
-497,8,0,0,0,0,0,0,0,0,0,-1,727,1016,0,0
-490,8,0,0,0,0,0,0,0,0,0,-1,734,1016,0,0
-483,8,0,0,0,0,0,0,0,0,0,-1,741,1016,0,0
-476,8,0,0,0,0,0,0,0,0,0,-1,748,1016,0,0
-469,8,0,0,0,0,0,0,0,0,0,-1,755,1016,0,0
-462,8,0,0,0,0,0,0,0,0,0,-1,762,1016,0,0
-455,8,0,0,0,0,0,0,0,0,0,-1,769,1016,0,0
-448,8,0,0,0,0,0,0,0,0,0,-1,776,1016,0,0
-441,8,0,0,0,0,0,0,0,0,0,-1,783,1016,0,0
-434,8,0,0,0,0,0,0,0,0,0,-1,790,1016,0,0
-427,8,0,0,0,0,0,0,0,0,0,-1,797,1016,0,0
-420,8,0,0,0,0,0,0,0,0,0,-1,804,1016,0,0
-413,8,0,0,0,0,0,0,0,0,0,-1,811,1016,0,0
-406,8,0,0,0,0,0,0,0,0,0,-1,818,1016,0,0
-399,8,0,0,0,0,0,0,0,0,0,-1,825,1016,0,0
-392,8,0,0,0,0,0,0,0,0,0,-1,832,1016,0,0
-385,8,0,0,0,0,0,0,0,0,0,-1,839,1016,0,0
-378,8,0,0,0,0,0,0,0,0,0,-1,846,1016,0,0
-371,8,0,0,0,0,0,0,0,0,0,-1,853,1016,0,0
-364,8,0,0,0,0,0,0,0,0,0,-1,860,1016,0,0
-357,8,0,0,0,0,0,0,0,0,0,-1,867,1016,0,0
-350,8,0,0,0,0,0,0,0,0,0,-1,874,1016,0,0
-343,8,0,0,0,0,0,0,0,0,0,-1,881,1016,0,0
-336,8,0,0,0,0,0,0,0,0,0,-1,888,1016,0,0
-329,8,0,0,0,0,0,0,0,0,0,-1,895,1016,0,0
-322,8,0,0,0,0,0,0,0,0,0,-1,902,1016,0,0
-315,8,0,0,0,0,0,0,0,0,0,-1,909,1016,0,0
-308,8,0,0,0,0,0,0,0,0,0,-1,916,1016,0,0
-301,8,0,0,0,0,0,0,0,0,0,-1,923,1016,0,0
-294,8,0,0,0,0,0,0,0,0,0,-1,930,1016,0,0
-287,8,0,0,0,0,0,0,0,0,0,-1,937,1016,0,0
-280,8,0,0,0,0,0,0,0,0,0,-1,944,1016,0,0
-273,8,0,0,0,0,0,0,0,0,0,-1,951,1016,0,0
-266,8,0,0,0,0,0,0,0,0,0,-1,958,1016,0,0
-259,8,0,0,0,0,0,0,0,0,0,-1,965,1016,0,0
-252,8,0,0,0,0,0,0,0,0,0,-1,972,1016,0,0
-245,8,0,0,0,0,0,0,0,0,0,-1,979,1016,0,0
-238,8,0,0,0,0,0,0,0,0,0,-1,986,1016,0,0
-231,8,0,0,0,0,0,0,0,0,0,-1,993,1016,0,0
-224,8,0,0,0,0,0,0,0,0,0,-1,1000,1016,0,0
-217,8,0,0,0,0,0,0,0,0,0,-1,1007,1016,0,0
-210,8,0,0,0,0,0,0,0,0,0,-1,1014,1016,0,0
-203,8,0,0,0,0,0,0,0,0,0,-1,1021,1016,0,0
-196,8,0,0,0,0,0,0,0,0,0,-1,1028,1016,0,0
-189,8,0,0,0,0,0,0,0,0,0,-1,1035,1016,0,0
-182,8,0,0,0,0,0,0,0,0,0,-1,1042,1016,0,0
-175,8,0,0,0,0,0,0,0,0,0,-1,1049,1016,0,0
-168,8,0,0,0,0,0,0,0,0,0,-1,1056,1016,0,0
-161,8,0,0,0,0,0,0,0,0,0,-1,1063,1016,0,0
-154,8,0,0,0,0,0,0,0,0,0,-1,1070,1016,0,0
-147,8,0,0,0,0,0,0,0,0,0,-1,1077,1016,0,0
-140,8,0,0,0,0,0,0,0,0,0,-1,1084,1016,0,0
-133,8,0,0,0,0,0,0,0,0,0,-1,1091,1016,0,0
-126,8,0,0,0,0,0,0,0,0,0,-1,1098,1016,0,0
-119,8,0,0,0,0,0,0,0,0,0,-1,1105,1016,0,0
-112,8,0,0,0,0,0,0,0,0,0,-1,1112,1016,0,0
-105,8,0,0,0,0,0,0,0,0,0,-1,1119,1016,0,0
-98,8,0,0,0,0,0,0,0,0,0,-1,1126,1016,0,0
-91,8,0,0,0,0,0,0,0,0,0,-1,1133,1016,0,0
-84,8,0,0,0,0,0,0,0,0,0,-1,1140,1016,0,0
-77,8,0,0,0,0,0,0,0,0,0,-1,1147,1016,0,0
-70,8,0,0,0,0,0,0,0,0,0,-1,1154,1016,0,0
-63,8,0,0,0,0,0,0,0,0,0,-1,1161,1016,0,0
-56,8,0,0,0,0,0,0,0,0,0,-1,1168,1016,0,0
-49,8,0,0,0,0,0,0,0,0,0,-1,1175,1016,0,0
-42,8,0,0,0,0,0,0,0,0,0,-1,1182,1016,0,0
-35,8,0,0,0,0,0,0,0,0,0,-1,1189,1016,0,0
-28,8,0,0,0,0,0,0,0,0,0,-1,1196,1016,0,0
-21,8,0,0,0,0,0,0,0,0,0,-1,1203,1016,0,0
-14,8,0,0,0,0,0,0,0,0,0,-1,1210,1016,0,0
-7,8,0,0,0,0,0,0,0,0,0,-1,1217,1016,0,0
0,8,0,0,0,0,0,0,0,0,0,-1,1224,1016,0,0
7,8,0,0,0,0,0,0,0,0,0,-1,1231,1016,0,0
14,8,0,0,0,0,0,0,0,0,0,-1,1238,1016,0,0
21,8,0,0,0,0,0,0,0,0,0,-1,1245,1016,0,0
28,8,0,0,0,0,0,0,0,0,0,-1,1252,1016,0,0
35,8,0,0,0,0,0,0,0,0,0,-1,1259,1016,0,0
42,8,0,0,0,0,0,0,0,0,0,-1,1266,1016,0,0
49,8,0,0,0,0,0,0,0,0,0,-1,1273,1016,0,0
56,8,0,0,0,0,0,0,0,0,0,-1,1280,1016,0,0
63,8,0,0,0,0,0,0,0,0,0,-1,1287,1016,0,0
70,8,0,0,0,0,0,0,0,0,0,-1,1294,1016,0,0
77,8,0,0,0,0,0,0,0,0,0,-1,1301,1016,0,0
84,8,0,0,0,0,0,0,0,0,0,-1,1308,1016,0,0
91,8,0,0,0,0,0,0,0,0,0,-1,1315,1016,0,0
98,8,0,0,0,0,0,0,0,0,0,-1,1322,1016,0,0
105,8,0,0,0,0,0,0,0,0,0,-1,1329,1016,0,0
112,8,0,0,0,0,0,0,0,0,0,-1,1336,1016,0,0
119,8,0,0,0,0,0,0,0,0,0,-1,1343,1016,0,0
126,8,0,0,0,0,0,0,0,0,0,-1,1350,1016,0,0
133,8,0,0,0,0,0,0,0,0,0,-1,1357,1016,0,0
140,8,0,0,0,0,0,0,0,0,0,-1,1364,1016,0,0
147,8,0,0,0,0,0,0,0,0,0,-1,1371,1016,0,0
154,8,0,0,0,0,0,0,0,0,0,-1,1378,1016,0,0
161,8,0,0,0,0,0,0,0,0,0,-1,1385,1016,0,0
168,8,0,0,0,0,0,0,0,0,0,-1,1392,1016,0,0
175,8,0,0,0,0,0,0,0,0,0,-1,1399,1016,0,0
182,8,0,0,0,0,0,0,0,0,0,-1,1406,1016,0,0
189,8,0,0,0,0,0,0,0,0,0,-1,1413,1016,0,0
196,8,0,0,0,0,0,0,0,0,0,-1,1420,1016,0,0
203,8,0,0,0,0,0,0,0,0,0,-1,1427,1016,0,0
210,8,0,0,0,0,0,0,0,0,0,-1,1434,1016,0,0
217,8,0,0,0,0,0,0,0,0,0,-1,1441,1016,0,0
224,8,0,0,0,0,0,0,0,0,0,-1,1448,1016,0,0
231,8,0,0,0,0,0,0,0,0,0,-1,1455,1016,0,0
238,8,0,0,0,0,0,0,0,0,0,-1,1462,1016,0,0
245,8,0,0,0,0,0,0,0,0,0,-1,1469,1016,0,0
252,8,0,0,0,0,0,0,0,0,0,-1,1476,1016,0,0
259,8,0,0,0,0,0,0,0,0,0,-1,1483,1016,0,0
266,8,0,0,0,0,0,0,0,0,0,-1,1490,1016,0,0
273,8,0,0,0,0,0,0,0,0,0,-1,1497,1016,0,0
280,8,0,0,0,0,0,0,0,0,0,-1,1504,1016,0,0
287,8,0,0,0,0,0,0,0,0,0,-1,1511,1016,0,0
294,8,0,0,0,0,0,0,0,0,0,-1,1518,1016,0,0
301,8,0,0,0,0,0,0,0,0,0,-1,1525,1016,0,0
308,8,0,0,0,0,0,0,0,0,0,-1,1532,1016,0,0
315,8,0,0,0,0,0,0,0,0,0,-1,1539,1016,0,0
322,8,0,0,0,0,0,0,0,0,0,-1,1546,1016,0,0
329,8,0,0,0,0,0,0,0,0,0,-1,1553,1016,0,0
336,8,0,0,0,0,0,0,0,0,0,-1,1560,1016,0,0
343,8,0,0,0,0,0,0,0,0,0,-1,1567,1016,0,0
350,8,0,0,0,0,0,0,0,0,0,-1,1574,1016,0,0
357,8,0,0,0,0,0,0,0,0,0,-1,1581,1016,0,0
364,8,0,0,0,0,0,0,0,0,0,-1,1588,1016,0,0
371,8,0,0,0,0,0,0,0,0,0,-1,1595,1016,0,0
378,8,0,0,0,0,0,0,0,0,0,-1,1602,1016,0,0
385,8,0,0,0,0,0,0,0,0,0,-1,1609,1016,0,0
392,8,0,0,0,0,0,0,0,0,0,-1,1616,1016,0,0
399,8,0,0,0,0,0,0,0,0,0,-1,1623,1016,0,0
406,8,0,0,0,0,0,0,0,0,0,-1,1630,1016,0,0
413,8,0,0,0,0,0,0,0,0,0,-1,1637,1016,0,0
420,8,0,0,0,0,0,0,0,0,0,-1,1644,1016,0,0
427,8,0,0,0,0,0,0,0,0,0,-1,1651,1016,0,0
434,8,0,0,0,0,0,0,0,0,0,-1,1658,1016,0,0
441,8,0,0,0,0,0,0,0,0,0,-1,1665,1016,0,0
448,8,0,0,0,0,0,0,0,0,0,-1,1672,1016,0,0
455,8,0,0,0,0,0,0,0,0,0,-1,1679,1016,0,0
462,8,0,0,0,0,0,0,0,0,0,-1,1686,1016,0,0
469,8,0,0,0,0,0,0,0,0,0,-1,1693,1016,0,0
476,8,0,0,0,0,0,0,0,0,0,-1,1700,1016,0,0
483,8,0,0,0,0,0,0,0,0,0,-1,1707,1016,0,0
490,8,0,0,0,0,0,0,0,0,0,-1,1714,1016,0,0
497,8,0,0,0,0,0,0,0,0,0,-1,1721,1016,0,0
504,8,0,0,0,0,0,0,0,0,0,-1,1728,1016,0,0
511,8,0,0,0,0,0,0,0,0,0,-1,1735,1016,0,0
518,8,0,0,0,0,0,0,0,0,0,-1,1742,1016,0,0
525,8,0,0,0,0,0,0,0,0,0,-1,1749,1016,0,0
532,8,0,0,0,0,0,0,0,0,0,-1,1756,1016,0,0
539,8,0,0,0,0,0,0,0,0,0,-1,1763,1016,0,0
546,8,0,0,0,0,0,0,0,0,0,-1,1770,1016,0,0
553,8,0,0,0,0,0,0,0,0,0,-1,1777,1016,0,0
560,8,0,0,0,0,0,0,0,0,0,-1,1784,1016,0,0
567,8,0,0,0,0,0,0,0,0,0,-1,1791,1016,0,0
574,8,0,0,0,0,0,0,0,0,0,-1,1798,1016,0,0
581,8,0,0,0,0,0,0,0,0,0,-1,1805,1016,0,0
588,8,0,0,0,0,0,0,0,0,0,-1,1812,1016,0,0
595,8,0,0,0,0,0,0,0,0,0,-1,1819,1016,0,0
602,8,0,0,0,0,0,0,0,0,0,-1,1826,1016,0,0
609,8,0,0,0,0,0,0,0,0,0,-1,1833,1016,0,0
616,8,0,0,0,0,0,0,0,0,0,-1,1840,1016,0,0
623,8,0,0,0,0,0,0,0,0,0,-1,1847,1016,0,0
630,8,0,0,0,0,0,0,0,0,0,-1,1854,1016,0,0
637,8,0,0,0,0,0,0,0,0,0,-1,1861,1016,0,0
644,8,54.6693,2.59845,-0.0014982,0.00542751,0.000184945,0.00543245,-0.00150313,1.54412,0.00421303,0.0441096,1868,1016,54.6694,-2.59846
651,8,54.7087,2.65186,-0.00183022,0.00339422,-0.000105252,0.00339634,-0.00183234,-1.55066,0.00306346,0.0409919,1875,1016,54.7087,-2.65184
658,8,54.7424,2.98071,-0.00179147,0.0019517,-5.67458e-05,0.00195256,-0.00179233,-1.55564,0.00216277,0.039267,1882,1016,54.7424,-2.98073
665,8,54.7021,2.86804,-0.00155613,0.00103036,0.000148699,0.00103888,-0.00156465,1.51356,0.00151333,0.038705,1889,1016,54.7021,-2.86806
672,8,54.7128,2.75317,-0.00121956,0.000562704,0.00047194,0.000679958,-0.00133682,1.32728,0.00118479,0.038991,1896,1016,54.7128,-2.75315
679,8,54.7463,2.72375,-0.000809106,0.000280814,0.00086084,0.000754689,-0.00128298,1.06758,0.00118956,0.0382657,1903,1016,54.7463,-2.72378
686,8,54.8031,2.75,-0.000606642,2.44344e-05,0.00115143,0.000902776,-0.00148498,0.919135,0.00139217,0.0395732,1910,1016,54.8031,-2.74997
693,8,54.7603,2.77814,-0.000506518,-0.000193449,0.00135845,0.00101746,-0.00171742,0.84276,0.00159613,0.038985,1917,1016,54.7603,-2.77815
700,8,54.8077,2.83887,-0.000456211,-0.000341701,0.00141044,0.00101265,-0.00181056,0.805684,0.00165154,0.030956,1924,1016,54.8078,-2.83886
707,8,54.7808,2.9035,-0.000843584,-3.47445e-05,0.00128375,0.000906777,-0.00178511,0.937993,0.0015815,0.0238498,1931,1016,54.7807,-2.90353
714,8,54.7632,2.84662,-0.001558,0.000636213,0.00117987,0.00115024,-0.00207202,1.15993,0.00188557,0.0285851,1938,1016,54.7632,-2.8466
721,8,54.8054,2.76331,0,0,0,0,0,0,0,-1,1945,1016,54.8055,-2.76328
728,8,52.1681,5.36774,0,0,0,0,0,0,0,-1,1952,1016,52.168,-5.36773
735,8,54.6498,6.37354,0,0,0,0,0,0,0,-1,1959,1016,54.6498,-6.37354
742,8,54.5767,6.56061,0,0,0,0,0,0,0,-1,1966,1016,54.5767,-6.56058
749,8,54.7726,6.56372,0,0,0,0,0,0,0,-1,1973,1016,54.7725,-6.56372
756,8,54.6719,6.39636,-0.00755477,0.0101508,-0.000452564,0.0101623,-0.00756633,-1.54526,0.0102722,0.0319463,1980,1016,54.6718,-6.39638
763,8,54.6484,6.48187,-0.00828667,0.0135168,-0.000582915,0.0135323,-0.00830224,-1.54409,0.0127262,0.0168403,1987,1016,54.6484,-6.4819
770,8,54.5376,6.42883,-0.00838325,0.0180757,-0.000643558,0.0180913,-0.00839889,-1.54649,0.0156316,0.0218076,1994,1016,54.5375,-6.42882
777,8,54.1814,6.4718,-0.00760512,0.0235909,-0.000407844,0.0235962,-0.00761045,-1.55773,0.0187886,0.0373088,2001,1016,54.1815,-6.47182
784,8,53.8203,6.51886,0,0,0,0,0,0,0,-1,2008,1016,53.8202,-6.51883
791,8,52.9048,5.05865,0,0,0,0,0,0,0,-1,2015,1016,52.9048,-5.05865
798,8,53.0093,4.89709,0,0,0,0,0,0,0,-1,2022,1016,53.0093,-4.89708
805,8,53.1655,4.22552,0,0,0,0,0,0,0,-1,2029,1016,53.1655,-4.22554
812,8,53.2068,3.84381,0,0,0,0,0,0,0,-1,2036,1016,53.2067,-3.84382
-700,1,0,0,0,0,0,0,0,0,0,-1,524,1023,0,0
-693,1,-39.9669,4.02789,-0.0208689,0.264338,0.0628115,0.277558,-0.0340891,1.36335,0.197385,0.042035,531,1023,-39.9669,-4.02792
-686,1,-40.4704,3.78119,-0.0229532,0.203483,0.0474142,0.21301,-0.0324805,1.3725,0.15398,0.0444988,538,1023,-40.4704,-3.78121
-679,1,-41.0988,3.71307,-0.0226626,0.16328,0.0377208,0.170641,-0.0300233,1.37808,0.124976,0.0436972,545,1023,-41.0988,-3.71307
-672,1,-41.4125,3.69128,-0.0209023,0.132575,0.0305585,0.138436,-0.026763,1.38131,0.102384,0.0441325,552,1023,-41.4125,-3.69127
-665,1,-41.4615,3.28546,0,0,0,0,0,0,0,-1,559,1023,-41.4616,-3.28548
-658,1,-41.564,3.13281,0,0,0,0,0,0,0,-1,566,1023,-41.564,-3.13283
-651,1,-41.4012,3.44379,0,0,0,0,0,0,0,-1,573,1023,-41.4013,-3.44378
-644,1,-41.0601,3.58374,0,0,0,0,0,0,0,-1,580,1023,-41.0601,-3.58374
-637,1,-41.3695,3.51782,-0.00742108,0.03136,0.00608858,0.0322935,-0.00835451,1.41867,0.0247876,0.038155,587,1023,-41.3695,-3.51781
-630,1,-41.6426,3.62396,-0.00533063,0.0174111,0.00251029,0.0176849,-0.00560443,1.46216,0.0140361,0.0329975,594,1023,-41.6426,-3.62397
-623,1,-41.5279,3.70868,-0.0028457,0.011574,0.000398973,0.0115851,-0.00285673,1.54316,0.008831,0.0156576,601,1023,-41.5279,-3.70865
-616,1,-41.6221,3.65942,-0.00121843,0.00654614,-0.00168998,0.00689802,-0.00157031,-1.36551,0.00520173,0.0193958,608,1023,-41.6221,-3.65943
-609,1,-41.6426,3.70697,-0.000305085,0.00316942,-0.00343187,0.00527869,-0.00241436,-1.0197,0.00454305,0.019525,615,1023,-41.6426,-3.70699
-602,1,-41.4846,3.78479,0.000634318,0.00129423,-0.0044285,0.00540505,-0.0034765,-0.822583,0.00516791,0.0146434,622,1023,-41.4846,-3.78482
-595,1,-41.3133,3.82526,0,0,0,0,0,0,0,-1,629,1023,-41.3133,-3.82526
-588,1,-41.1064,3.8645,0,0,0,0,0,0,0,-1,636,1023,-41.1064,-3.86449
-581,1,-40.9511,0.989807,0.00231462,-0.00149145,-0.00462613,0.00541385,-0.00459067,-0.590265,0.00578262,0.0299032,643,1023,-40.9511,-0.989832
-574,1,-40.9532,1.13141,0.00226633,-0.0019052,-0.00422867,0.00489565,-0.00453452,-0.556284,0.00544584,0.0393547,650,1023,-40.9533,-1.13142
-567,1,-40.7182,0.708374,0.00175372,-0.00188988,-0.00344424,0.0038283,-0.00396446,-0.542132,0.00449938,0.0439602,657,1023,-40.7182,-0.708355
-560,1,-40.6607,0.813293,0.000930627,-0.00147665,-0.00224857,0.00227744,-0.00282346,-0.539658,0.00295063,0.0406646,664,1023,-40.6607,-0.813263
-553,1,-40.7774,0.881653,-0.00027874,-0.000788074,-0.000596104,0.000114817,-0.00118163,-0.583524,0.000828683,0.0397828,671,1023,-40.7774,-0.881657
-546,1,-40.8739,0.803955,-0.00176692,-7.97279e-05,0.00155415,0.000845018,-0.00269166,1.03405,0.00213267,0.0422079,678,1023,-40.8739,-0.803925
-539,1,-41.071,0.878479,-0.00303786,0.0008041,0.00341243,0.00279909,-0.00503285,1.04176,0.00458267,0.042837,685,1023,-41.071,-0.878466
-532,1,-41.168,0.998291,-0.00344915,0.00152654,0.00488932,0.00452457,-0.00644718,1.02074,0.00636687,0.0438209,692,1023,-41.168,-0.998309
-525,1,0,0,0,0,0,0,0,0,0,-1,699,1023,0,0
-518,1,0,0,0,0,0,0,0,0,0,-1,706,1023,0,0
-511,1,0,0,0,0,0,0,0,0,0,-1,713,1023,0,0
-504,1,0,0,0,0,0,0,0,0,0,-1,720,1023,0,0
-497,1,0,0,0,0,0,0,0,0,0,-1,727,1023,0,0
-490,1,0,0,0,0,0,0,0,0,0,-1,734,1023,0,0
-483,1,0,0,0,0,0,0,0,0,0,-1,741,1023,0,0
-476,1,0,0,0,0,0,0,0,0,0,-1,748,1023,0,0
-469,1,0,0,0,0,0,0,0,0,0,-1,755,1023,0,0
-462,1,0,0,0,0,0,0,0,0,0,-1,762,1023,0,0
-455,1,0,0,0,0,0,0,0,0,0,-1,769,1023,0,0
-448,1,0,0,0,0,0,0,0,0,0,-1,776,1023,0,0
-441,1,0,0,0,0,0,0,0,0,0,-1,783,1023,0,0
-434,1,0,0,0,0,0,0,0,0,0,-1,790,1023,0,0
-427,1,0,0,0,0,0,0,0,0,0,-1,797,1023,0,0
-420,1,0,0,0,0,0,0,0,0,0,-1,804,1023,0,0
-413,1,0,0,0,0,0,0,0,0,0,-1,811,1023,0,0
-406,1,0,0,0,0,0,0,0,0,0,-1,818,1023,0,0
-399,1,0,0,0,0,0,0,0,0,0,-1,825,1023,0,0
-392,1,0,0,0,0,0,0,0,0,0,-1,832,1023,0,0
-385,1,0,0,0,0,0,0,0,0,0,-1,839,1023,0,0
-378,1,0,0,0,0,0,0,0,0,0,-1,846,1023,0,0
-371,1,0,0,0,0,0,0,0,0,0,-1,853,1023,0,0
-364,1,0,0,0,0,0,0,0,0,0,-1,860,1023,0,0
-357,1,0,0,0,0,0,0,0,0,0,-1,867,1023,0,0
-350,1,0,0,0,0,0,0,0,0,0,-1,874,1023,0,0
-343,1,0,0,0,0,0,0,0,0,0,-1,881,1023,0,0
-336,1,0,0,0,0,0,0,0,0,0,-1,888,1023,0,0
-329,1,0,0,0,0,0,0,0,0,0,-1,895,1023,0,0
-322,1,0,0,0,0,0,0,0,0,0,-1,902,1023,0,0
-315,1,0,0,0,0,0,0,0,0,0,-1,909,1023,0,0
-308,1,0,0,0,0,0,0,0,0,0,-1,916,1023,0,0
-301,1,0,0,0,0,0,0,0,0,0,-1,923,1023,0,0
-294,1,0,0,0,0,0,0,0,0,0,-1,930,1023,0,0
-287,1,0,0,0,0,0,0,0,0,0,-1,937,1023,0,0
-280,1,0,0,0,0,0,0,0,0,0,-1,944,1023,0,0
-273,1,0,0,0,0,0,0,0,0,0,-1,951,1023,0,0
-266,1,0,0,0,0,0,0,0,0,0,-1,958,1023,0,0
-259,1,0,0,0,0,0,0,0,0,0,-1,965,1023,0,0
-252,1,0,0,0,0,0,0,0,0,0,-1,972,1023,0,0
-245,1,0,0,0,0,0,0,0,0,0,-1,979,1023,0,0
-238,1,0,0,0,0,0,0,0,0,0,-1,986,1023,0,0
-231,1,0,0,0,0,0,0,0,0,0,-1,993,1023,0,0
-224,1,0,0,0,0,0,0,0,0,0,-1,1000,1023,0,0
-217,1,0,0,0,0,0,0,0,0,0,-1,1007,1023,0,0
-210,1,0,0,0,0,0,0,0,0,0,-1,1014,1023,0,0
-203,1,0,0,0,0,0,0,0,0,0,-1,1021,1023,0,0
-196,1,0,0,0,0,0,0,0,0,0,-1,1028,1023,0,0
-189,1,0,0,0,0,0,0,0,0,0,-1,1035,1023,0,0
-182,1,0,0,0,0,0,0,0,0,0,-1,1042,1023,0,0
-175,1,0,0,0,0,0,0,0,0,0,-1,1049,1023,0,0
-168,1,0,0,0,0,0,0,0,0,0,-1,1056,1023,0,0
-161,1,0,0,0,0,0,0,0,0,0,-1,1063,1023,0,0
-154,1,0,0,0,0,0,0,0,0,0,-1,1070,1023,0,0
-147,1,0,0,0,0,0,0,0,0,0,-1,1077,1023,0,0
-140,1,0,0,0,0,0,0,0,0,0,-1,1084,1023,0,0
-133,1,0,0,0,0,0,0,0,0,0,-1,1091,1023,0,0
-126,1,0,0,0,0,0,0,0,0,0,-1,1098,1023,0,0
-119,1,0,0,0,0,0,0,0,0,0,-1,1105,1023,0,0
-112,1,0,0,0,0,0,0,0,0,0,-1,1112,1023,0,0
-105,1,0,0,0,0,0,0,0,0,0,-1,1119,1023,0,0
-98,1,0,0,0,0,0,0,0,0,0,-1,1126,1023,0,0
-91,1,0,0,0,0,0,0,0,0,0,-1,1133,1023,0,0
-84,1,0,0,0,0,0,0,0,0,0,-1,1140,1023,0,0
-77,1,0,0,0,0,0,0,0,0,0,-1,1147,1023,0,0
-70,1,0,0,0,0,0,0,0,0,0,-1,1154,1023,0,0
-63,1,0,0,0,0,0,0,0,0,0,-1,1161,1023,0,0
-56,1,0,0,0,0,0,0,0,0,0,-1,1168,1023,0,0
-49,1,0,0,0,0,0,0,0,0,0,-1,1175,1023,0,0
-42,1,0,0,0,0,0,0,0,0,0,-1,1182,1023,0,0
-35,1,0,0,0,0,0,0,0,0,0,-1,1189,1023,0,0
-28,1,0,0,0,0,0,0,0,0,0,-1,1196,1023,0,0
-21,1,0,0,0,0,0,0,0,0,0,-1,1203,1023,0,0
-14,1,0,0,0,0,0,0,0,0,0,-1,1210,1023,0,0
-7,1,0,0,0,0,0,0,0,0,0,-1,1217,1023,0,0
0,1,0,0,0,0,0,0,0,0,0,-1,1224,1023,0,0
7,1,0,0,0,0,0,0,0,0,0,-1,1231,1023,0,0
14,1,0,0,0,0,0,0,0,0,0,-1,1238,1023,0,0
21,1,0,0,0,0,0,0,0,0,0,-1,1245,1023,0,0
28,1,0,0,0,0,0,0,0,0,0,-1,1252,1023,0,0
35,1,0,0,0,0,0,0,0,0,0,-1,1259,1023,0,0
42,1,0,0,0,0,0,0,0,0,0,-1,1266,1023,0,0
49,1,0,0,0,0,0,0,0,0,0,-1,1273,1023,0,0
56,1,0,0,0,0,0,0,0,0,0,-1,1280,1023,0,0
63,1,0,0,0,0,0,0,0,0,0,-1,1287,1023,0,0
70,1,0,0,0,0,0,0,0,0,0,-1,1294,1023,0,0
77,1,0,0,0,0,0,0,0,0,0,-1,1301,1023,0,0
84,1,0,0,0,0,0,0,0,0,0,-1,1308,1023,0,0
91,1,0,0,0,0,0,0,0,0,0,-1,1315,1023,0,0
98,1,0,0,0,0,0,0,0,0,0,-1,1322,1023,0,0
105,1,0,0,0,0,0,0,0,0,0,-1,1329,1023,0,0
112,1,0,0,0,0,0,0,0,0,0,-1,1336,1023,0,0
119,1,0,0,0,0,0,0,0,0,0,-1,1343,1023,0,0
126,1,0,0,0,0,0,0,0,0,0,-1,1350,1023,0,0
133,1,0,0,0,0,0,0,0,0,0,-1,1357,1023,0,0
140,1,0,0,0,0,0,0,0,0,0,-1,1364,1023,0,0
147,1,0,0,0,0,0,0,0,0,0,-1,1371,1023,0,0
154,1,0,0,0,0,0,0,0,0,0,-1,1378,1023,0,0
161,1,0,0,0,0,0,0,0,0,0,-1,1385,1023,0,0
168,1,0,0,0,0,0,0,0,0,0,-1,1392,1023,0,0
175,1,0,0,0,0,0,0,0,0,0,-1,1399,1023,0,0
182,1,0,0,0,0,0,0,0,0,0,-1,1406,1023,0,0
189,1,0,0,0,0,0,0,0,0,0,-1,1413,1023,0,0
196,1,0,0,0,0,0,0,0,0,0,-1,1420,1023,0,0
203,1,0,0,0,0,0,0,0,0,0,-1,1427,1023,0,0
210,1,0,0,0,0,0,0,0,0,0,-1,1434,1023,0,0
217,1,0,0,0,0,0,0,0,0,0,-1,1441,1023,0,0
224,1,0,0,0,0,0,0,0,0,0,-1,1448,1023,0,0
231,1,0,0,0,0,0,0,0,0,0,-1,1455,1023,0,0
238,1,0,0,0,0,0,0,0,0,0,-1,1462,1023,0,0
245,1,0,0,0,0,0,0,0,0,0,-1,1469,1023,0,0
252,1,0,0,0,0,0,0,0,0,0,-1,1476,1023,0,0
259,1,0,0,0,0,0,0,0,0,0,-1,1483,1023,0,0
266,1,0,0,0,0,0,0,0,0,0,-1,1490,1023,0,0
273,1,0,0,0,0,0,0,0,0,0,-1,1497,1023,0,0
280,1,0,0,0,0,0,0,0,0,0,-1,1504,1023,0,0
287,1,0,0,0,0,0,0,0,0,0,-1,1511,1023,0,0
294,1,0,0,0,0,0,0,0,0,0,-1,1518,1023,0,0
301,1,0,0,0,0,0,0,0,0,0,-1,1525,1023,0,0
308,1,0,0,0,0,0,0,0,0,0,-1,1532,1023,0,0
315,1,0,0,0,0,0,0,0,0,0,-1,1539,1023,0,0
322,1,0,0,0,0,0,0,0,0,0,-1,1546,1023,0,0
329,1,0,0,0,0,0,0,0,0,0,-1,1553,1023,0,0
336,1,0,0,0,0,0,0,0,0,0,-1,1560,1023,0,0
343,1,0,0,0,0,0,0,0,0,0,-1,1567,1023,0,0
350,1,0,0,0,0,0,0,0,0,0,-1,1574,1023,0,0
357,1,0,0,0,0,0,0,0,0,0,-1,1581,1023,0,0
364,1,0,0,0,0,0,0,0,0,0,-1,1588,1023,0,0
371,1,0,0,0,0,0,0,0,0,0,-1,1595,1023,0,0
378,1,0,0,0,0,0,0,0,0,0,-1,1602,1023,0,0
385,1,0,0,0,0,0,0,0,0,0,-1,1609,1023,0,0
392,1,0,0,0,0,0,0,0,0,0,-1,1616,1023,0,0
399,1,0,0,0,0,0,0,0,0,0,-1,1623,1023,0,0
406,1,0,0,0,0,0,0,0,0,0,-1,1630,1023,0,0
413,1,0,0,0,0,0,0,0,0,0,-1,1637,1023,0,0
420,1,0,0,0,0,0,0,0,0,0,-1,1644,1023,0,0
427,1,0,0,0,0,0,0,0,0,0,-1,1651,1023,0,0
434,1,0,0,0,0,0,0,0,0,0,-1,1658,1023,0,0
441,1,0,0,0,0,0,0,0,0,0,-1,1665,1023,0,0
448,1,0,0,0,0,0,0,0,0,0,-1,1672,1023,0,0
455,1,0,0,0,0,0,0,0,0,0,-1,1679,1023,0,0
462,1,0,0,0,0,0,0,0,0,0,-1,1686,1023,0,0
469,1,0,0,0,0,0,0,0,0,0,-1,1693,1023,0,0
476,1,0,0,0,0,0,0,0,0,0,-1,1700,1023,0,0
483,1,0,0,0,0,0,0,0,0,0,-1,1707,1023,0,0
490,1,0,0,0,0,0,0,0,0,0,-1,1714,1023,0,0
497,1,0,0,0,0,0,0,0,0,0,-1,1721,1023,0,0
504,1,0,0,0,0,0,0,0,0,0,-1,1728,1023,0,0
511,1,0,0,0,0,0,0,0,0,0,-1,1735,1023,0,0
518,1,0,0,0,0,0,0,0,0,0,-1,1742,1023,0,0
525,1,0,0,0,0,0,0,0,0,0,-1,1749,1023,0,0
532,1,0,0,0,0,0,0,0,0,0,-1,1756,1023,0,0
539,1,0,0,0,0,0,0,0,0,0,-1,1763,1023,0,0
546,1,0,0,0,0,0,0,0,0,0,-1,1770,1023,0,0
553,1,0,0,0,0,0,0,0,0,0,-1,1777,1023,0,0
560,1,0,0,0,0,0,0,0,0,0,-1,1784,1023,0,0
567,1,0,0,0,0,0,0,0,0,0,-1,1791,1023,0,0
574,1,0,0,0,0,0,0,0,0,0,-1,1798,1023,0,0
581,1,0,0,0,0,0,0,0,0,0,-1,1805,1023,0,0
588,1,0,0,0,0,0,0,0,0,0,-1,1812,1023,0,0
595,1,0,0,0,0,0,0,0,0,0,-1,1819,1023,0,0
602,1,0,0,0,0,0,0,0,0,0,-1,1826,1023,0,0
609,1,0,0,0,0,0,0,0,0,0,-1,1833,1023,0,0
616,1,0,0,0,0,0,0,0,0,0,-1,1840,1023,0,0
623,1,0,0,0,0,0,0,0,0,0,-1,1847,1023,0,0
630,1,0,0,0,0,0,0,0,0,0,-1,1854,1023,0,0
637,1,0,0,0,0,0,0,0,0,0,-1,1861,1023,0,0
644,1,0,0,0,0,0,0,0,0,0,-1,1868,1023,0,0
651,1,54.7286,2.68365,-0.00248999,0.00367375,4.27386e-05,0.00367405,-0.00249029,1.56386,0.00358079,0.0400537,1875,1023,54.7287,-2.68364
658,1,54.8011,2.93091,-0.00234249,0.00213957,9.64953e-05,0.00214165,-0.00234457,1.54928,0.002591,0.0411459,1882,1023,54.8012,-2.93092
665,1,54.804,2.76508,-0.00198407,0.00111474,0.000264995,0.00113724,-0.00200657,1.4861,0.00183806,0.0398559,1889,1023,54.8039,-2.76507
672,1,54.8081,2.58917,-0.00152952,0.000547808,0.000540207,0.000679891,-0.0016616,1.331,0.0013909,0.0390354,1896,1023,54.8082,-2.58917
679,1,54.7479,2.60547,-0.00100637,0.000178541,0.000873885,0.000641869,-0.0014697,1.08329,0.00124995,0.0381566,1903,1023,54.7479,-2.60547
686,1,54.7141,2.80371,-0.000783744,-0.000154389,0.00112529,0.000699395,-0.00163753,0.921736,0.00138499,0.0378294,1910,1023,54.7141,-2.80371
693,1,54.702,2.96912,-0.000687494,-0.000420213,0.00132227,0.000775154,-0.00188286,0.835762,0.0015784,0.0363741,1917,1023,54.7021,-2.96909
700,1,54.7765,2.93878,-0.000631573,-0.000592442,0.00139367,0.000781802,-0.00200582,0.792417,0.00166034,0.0326315,1924,1023,54.7764,-2.93878
707,1,54.7458,2.85706,-0.00103745,-0.000294258,0.00130819,0.00069409,-0.0020258,0.92378,0.00163187,0.0272541,1931,1023,54.7458,-2.85708
714,1,54.7356,2.76245,-0.00174582,0.000356884,0.00124442,0.000934621,-0.00232356,1.13615,0.00193725,0.0295187,1938,1023,54.7356,-2.76247
721,1,54.8077,2.70844,0,0,0,0,0,0,0,-1,1945,1023,54.8078,-2.70844
728,1,52.4639,5.59277,0,0,0,0,0,0,0,-1,1952,1023,52.4639,-5.59276
735,1,53.3617,6.10699,0,0,0,0,0,0,0,-1,1959,1023,53.3617,-6.10698
742,1,52.4393,5.81525,0,0,0,0,0,0,0,-1,1966,1023,52.4393,-5.81527
749,1,54.7673,6.31763,0,0,0,0,0,0,0,-1,1973,1023,54.7673,-6.31761
756,1,54.7369,6.46173,-0.00741067,0.00959855,6.28687e-05,0.00959878,-0.0074109,1.5671,0.00984759,0.0329866,1980,1023,54.7369,-6.46174
763,1,54.6311,6.38989,-0.00792298,0.0126071,8.98851e-05,0.0126075,-0.00792337,1.56642,0.0119559,0.0176517,1987,1023,54.6311,-6.38992
770,1,54.5664,6.3208,-0.00771423,0.01658,0.000207475,0.0165818,-0.007716,1.56226,0.0143362,0.0188931,1994,1023,54.5663,-6.32082
777,1,54.3064,6.18378,-0.00655248,0.0213727,0.000709941,0.0213908,-0.00657051,1.5454,0.0168824,0.0262481,2001,1023,54.3064,-6.18378
784,1,54.1521,5.95557,-0.00461661,0.0263027,0.00163952,0.0263894,-0.0047033,1.51797,0.0193521,0.0486197,2008,1023,54.1522,-5.95559
791,1,54.0413,5.76117,0,0,0,0,0,0,0,-1,2015,1023,54.0412,-5.76118
798,1,53.2661,4.83832,0,0,0,0,0,0,0,-1,2022,1023,53.2661,-4.83831
805,1,53.1658,4.19226,0,0,0,0,0,0,0,-1,2029,1023,53.1657,-4.19228
812,1,53.0276,3.65912,0,0,0,0,0,0,0,-1,2036,1023,53.0275,-3.6591
-700,-6,0,0,0,0,0,0,0,0,0,-1,524,1030,0,0
-693,-6,-44.4136,-2.94971,0.00785528,0.265747,0.0684739,0.2828,-0.00919788,1.32672,0.191673,0.0442653,531,1030,-44.4136,2.94965
-686,-6,-43.4196,-2.28882,0.00158716,0.206685,0.0529283,0.219538,-0.0112662,1.33256,0.150255,0.0467348,538,1030,-43.4196,2.28876
-679,-6,-42.0074,2.69116,0,0,0,0,0,0,0,-1,545,1030,-42.0074,-2.69113
-672,-6,-41.6582,2.71021,-0.00406061,0.134436,0.0342855,0.142459,-0.0120834,1.34093,0.0992458,0.0453073,552,1030,-41.6582,-2.71021
-665,-6,-41.396,2.69714,-0.00479944,0.108342,0.0276647,0.114744,-0.0112016,1.34338,0.0804903,0.0433384,559,1030,-41.396,-2.69718
-658,-6,-41.449,2.83069,0,0,0,0,0,0,0,-1,566,1030,-41.4491,-2.83065
-651,-6,-41.3897,2.94263,0,0,0,0,0,0,0,-1,573,1030,-41.3897,-2.94266
-644,-6,-41.0791,3.82776,0,0,0,0,0,0,0,-1,580,1030,-41.0791,-3.82781
-637,-6,-41.3369,3.64441,-0.0030762,0.0306251,0.00667279,0.0318982,-0.0043493,1.38227,0.0228536,0.0431193,587,1030,-41.3369,-3.64435
-630,-6,-41.4803,3.54895,-0.00258221,0.0169706,0.00288051,0.0173861,-0.00299773,1.42753,0.0127084,0.0238084,594,1030,-41.4803,-3.54899
-623,-6,-41.4494,3.62085,-0.00134005,0.0111067,0.000648671,0.0111404,-0.00137376,1.51887,0.00792466,0.0177061,601,1030,-41.4494,-3.62082
-616,-6,-41.4832,3.66028,-0.000486711,0.00605012,-0.00141607,0.0063437,-0.000780288,-1.36637,0.00451178,0.0197819,608,1030,-41.4832,-3.66023
-609,-6,-41.4719,3.76721,3.18731e-05,0.00262646,-0.00301966,0.0046157,-0.00195737,-0.988285,0.00389704,0.019477,615,1030,-41.4719,-3.76716
-602,-6,-41.3928,3.88489,0.000715377,0.000694057,-0.00393769,0.00464242,-0.00323299,-0.784045,0.00457107,0.0140736,622,1030,-41.3927,-3.88488
-595,-6,-41.3563,3.9679,0,0,0,0,0,0,0,-1,629,1030,-41.3562,-3.96795
-588,-6,-41.1163,2.29285,0,0,0,0,0,0,0,-1,636,1030,-41.1163,-2.29286
-581,-6,-40.9582,0.994385,0.00219433,-0.00198318,-0.00387128,0.00450441,-0.00429325,-0.538005,0.00507982,0.0259982,643,1030,-40.9582,-0.994435
-574,-6,-40.9415,1.01135,0.00217975,-0.00236134,-0.0034358,0.00402747,-0.00420906,-0.493416,0.00475575,0.0348441,650,1030,-40.9415,-1.01141
-567,-6,-40.7435,0.812378,0.00171249,-0.00229695,-0.00267813,0.0030531,-0.00363757,-0.464111,0.00386777,0.0422609,657,1030,-40.7436,-0.812325
-560,-6,-40.6682,0.821899,0.000944458,-0.00182011,-0.00156964,0.0016537,-0.00252936,-0.424391,0.00243266,0.0408964,664,1030,-40.6682,-0.82194
-553,-6,-40.696,0.927612,-0.000172063,-0.00106082,-6.40384e-05,-0.000167473,-0.00106541,-0.0715613,0.000661553,0.0407882,671,1030,-40.696,-0.927566
-546,-6,-40.8478,0.930054,-0.00152253,-0.000267947,0.00187782,0.00108458,-0.00287506,0.946598,0.00236272,0.0430932,678,1030,-40.8479,-0.930057
-539,-6,-41.0111,0.963623,-0.002685,0.000619096,0.00351871,0.00285428,-0.00492019,1.00488,0.00454111,0.0430074,685,1030,-41.0111,-0.963612
-532,-6,-41.0891,1.02466,-0.00305808,0.00133261,0.00507126,0.00466332,-0.00638878,0.989669,0.0064068,0.0420826,692,1030,-41.0891,-1.02461
-525,-6,0,0,0,0,0,0,0,0,0,-1,699,1030,0,0
-518,-6,0,0,0,0,0,0,0,0,0,-1,706,1030,0,0
-511,-6,0,0,0,0,0,0,0,0,0,-1,713,1030,0,0
-504,-6,0,0,0,0,0,0,0,0,0,-1,720,1030,0,0
-497,-6,0,0,0,0,0,0,0,0,0,-1,727,1030,0,0
-490,-6,0,0,0,0,0,0,0,0,0,-1,734,1030,0,0
-483,-6,0,0,0,0,0,0,0,0,0,-1,741,1030,0,0
-476,-6,0,0,0,0,0,0,0,0,0,-1,748,1030,0,0
-469,-6,0,0,0,0,0,0,0,0,0,-1,755,1030,0,0
-462,-6,0,0,0,0,0,0,0,0,0,-1,762,1030,0,0
-455,-6,0,0,0,0,0,0,0,0,0,-1,769,1030,0,0
-448,-6,0,0,0,0,0,0,0,0,0,-1,776,1030,0,0
-441,-6,0,0,0,0,0,0,0,0,0,-1,783,1030,0,0
-434,-6,0,0,0,0,0,0,0,0,0,-1,790,1030,0,0
-427,-6,0,0,0,0,0,0,0,0,0,-1,797,1030,0,0
-420,-6,0,0,0,0,0,0,0,0,0,-1,804,1030,0,0
-413,-6,0,0,0,0,0,0,0,0,0,-1,811,1030,0,0
-406,-6,0,0,0,0,0,0,0,0,0,-1,818,1030,0,0
-399,-6,0,0,0,0,0,0,0,0,0,-1,825,1030,0,0
-392,-6,0,0,0,0,0,0,0,0,0,-1,832,1030,0,0
-385,-6,0,0,0,0,0,0,0,0,0,-1,839,1030,0,0
-378,-6,0,0,0,0,0,0,0,0,0,-1,846,1030,0,0
-371,-6,0,0,0,0,0,0,0,0,0,-1,853,1030,0,0
-364,-6,0,0,0,0,0,0,0,0,0,-1,860,1030,0,0
-357,-6,0,0,0,0,0,0,0,0,0,-1,867,1030,0,0
-350,-6,0,0,0,0,0,0,0,0,0,-1,874,1030,0,0
-343,-6,0,0,0,0,0,0,0,0,0,-1,881,1030,0,0
-336,-6,0,0,0,0,0,0,0,0,0,-1,888,1030,0,0
-329,-6,0,0,0,0,0,0,0,0,0,-1,895,1030,0,0
-322,-6,0,0,0,0,0,0,0,0,0,-1,902,1030,0,0
-315,-6,0,0,0,0,0,0,0,0,0,-1,909,1030,0,0
-308,-6,0,0,0,0,0,0,0,0,0,-1,916,1030,0,0
-301,-6,0,0,0,0,0,0,0,0,0,-1,923,1030,0,0
-294,-6,0,0,0,0,0,0,0,0,0,-1,930,1030,0,0
-287,-6,0,0,0,0,0,0,0,0,0,-1,937,1030,0,0
-280,-6,0,0,0,0,0,0,0,0,0,-1,944,1030,0,0
-273,-6,0,0,0,0,0,0,0,0,0,-1,951,1030,0,0
-266,-6,0,0,0,0,0,0,0,0,0,-1,958,1030,0,0
-259,-6,0,0,0,0,0,0,0,0,0,-1,965,1030,0,0
-252,-6,0,0,0,0,0,0,0,0,0,-1,972,1030,0,0
-245,-6,0,0,0,0,0,0,0,0,0,-1,979,1030,0,0
-238,-6,0,0,0,0,0,0,0,0,0,-1,986,1030,0,0
-231,-6,0,0,0,0,0,0,0,0,0,-1,993,1030,0,0
-224,-6,0,0,0,0,0,0,0,0,0,-1,1000,1030,0,0
-217,-6,0,0,0,0,0,0,0,0,0,-1,1007,1030,0,0
-210,-6,0,0,0,0,0,0,0,0,0,-1,1014,1030,0,0
-203,-6,0,0,0,0,0,0,0,0,0,-1,1021,1030,0,0
-196,-6,0,0,0,0,0,0,0,0,0,-1,1028,1030,0,0
-189,-6,0,0,0,0,0,0,0,0,0,-1,1035,1030,0,0
-182,-6,0,0,0,0,0,0,0,0,0,-1,1042,1030,0,0
-175,-6,0,0,0,0,0,0,0,0,0,-1,1049,1030,0,0
-168,-6,0,0,0,0,0,0,0,0,0,-1,1056,1030,0,0
-161,-6,0,0,0,0,0,0,0,0,0,-1,1063,1030,0,0
-154,-6,0,0,0,0,0,0,0,0,0,-1,1070,1030,0,0
-147,-6,0,0,0,0,0,0,0,0,0,-1,1077,1030,0,0
-140,-6,0,0,0,0,0,0,0,0,0,-1,1084,1030,0,0
-133,-6,0,0,0,0,0,0,0,0,0,-1,1091,1030,0,0
-126,-6,0,0,0,0,0,0,0,0,0,-1,1098,1030,0,0
-119,-6,0,0,0,0,0,0,0,0,0,-1,1105,1030,0,0
-112,-6,0,0,0,0,0,0,0,0,0,-1,1112,1030,0,0
-105,-6,0,0,0,0,0,0,0,0,0,-1,1119,1030,0,0
-98,-6,0,0,0,0,0,0,0,0,0,-1,1126,1030,0,0
-91,-6,0,0,0,0,0,0,0,0,0,-1,1133,1030,0,0
-84,-6,0,0,0,0,0,0,0,0,0,-1,1140,1030,0,0
-77,-6,0,0,0,0,0,0,0,0,0,-1,1147,1030,0,0
-70,-6,0,0,0,0,0,0,0,0,0,-1,1154,1030,0,0
-63,-6,0,0,0,0,0,0,0,0,0,-1,1161,1030,0,0
-56,-6,0,0,0,0,0,0,0,0,0,-1,1168,1030,0,0
-49,-6,0,0,0,0,0,0,0,0,0,-1,1175,1030,0,0
-42,-6,0,0,0,0,0,0,0,0,0,-1,1182,1030,0,0
-35,-6,0,0,0,0,0,0,0,0,0,-1,1189,1030,0,0
-28,-6,0,0,0,0,0,0,0,0,0,-1,1196,1030,0,0
-21,-6,0,0,0,0,0,0,0,0,0,-1,1203,1030,0,0
-14,-6,0,0,0,0,0,0,0,0,0,-1,1210,1030,0,0
-7,-6,0,0,0,0,0,0,0,0,0,-1,1217,1030,0,0
0,-6,0,0,0,0,0,0,0,0,0,-1,1224,1030,0,0
7,-6,0,0,0,0,0,0,0,0,0,-1,1231,1030,0,0
14,-6,0,0,0,0,0,0,0,0,0,-1,1238,1030,0,0
21,-6,0,0,0,0,0,0,0,0,0,-1,1245,1030,0,0
28,-6,0,0,0,0,0,0,0,0,0,-1,1252,1030,0,0
35,-6,0,0,0,0,0,0,0,0,0,-1,1259,1030,0,0
42,-6,0,0,0,0,0,0,0,0,0,-1,1266,1030,0,0
49,-6,0,0,0,0,0,0,0,0,0,-1,1273,1030,0,0
56,-6,0,0,0,0,0,0,0,0,0,-1,1280,1030,0,0
63,-6,0,0,0,0,0,0,0,0,0,-1,1287,1030,0,0
70,-6,0,0,0,0,0,0,0,0,0,-1,1294,1030,0,0
77,-6,0,0,0,0,0,0,0,0,0,-1,1301,1030,0,0
84,-6,0,0,0,0,0,0,0,0,0,-1,1308,1030,0,0
91,-6,0,0,0,0,0,0,0,0,0,-1,1315,1030,0,0
98,-6,0,0,0,0,0,0,0,0,0,-1,1322,1030,0,0
105,-6,0,0,0,0,0,0,0,0,0,-1,1329,1030,0,0
112,-6,0,0,0,0,0,0,0,0,0,-1,1336,1030,0,0
119,-6,0,0,0,0,0,0,0,0,0,-1,1343,1030,0,0
126,-6,0,0,0,0,0,0,0,0,0,-1,1350,1030,0,0
133,-6,0,0,0,0,0,0,0,0,0,-1,1357,1030,0,0
140,-6,0,0,0,0,0,0,0,0,0,-1,1364,1030,0,0
147,-6,0,0,0,0,0,0,0,0,0,-1,1371,1030,0,0
154,-6,0,0,0,0,0,0,0,0,0,-1,1378,1030,0,0
161,-6,0,0,0,0,0,0,0,0,0,-1,1385,1030,0,0
168,-6,0,0,0,0,0,0,0,0,0,-1,1392,1030,0,0
175,-6,0,0,0,0,0,0,0,0,0,-1,1399,1030,0,0
182,-6,0,0,0,0,0,0,0,0,0,-1,1406,1030,0,0
189,-6,0,0,0,0,0,0,0,0,0,-1,1413,1030,0,0
196,-6,0,0,0,0,0,0,0,0,0,-1,1420,1030,0,0
203,-6,0,0,0,0,0,0,0,0,0,-1,1427,1030,0,0
210,-6,0,0,0,0,0,0,0,0,0,-1,1434,1030,0,0
217,-6,0,0,0,0,0,0,0,0,0,-1,1441,1030,0,0
224,-6,0,0,0,0,0,0,0,0,0,-1,1448,1030,0,0
231,-6,0,0,0,0,0,0,0,0,0,-1,1455,1030,0,0
238,-6,0,0,0,0,0,0,0,0,0,-1,1462,1030,0,0
245,-6,0,0,0,0,0,0,0,0,0,-1,1469,1030,0,0
252,-6,0,0,0,0,0,0,0,0,0,-1,1476,1030,0,0
259,-6,0,0,0,0,0,0,0,0,0,-1,1483,1030,0,0
266,-6,0,0,0,0,0,0,0,0,0,-1,1490,1030,0,0
273,-6,0,0,0,0,0,0,0,0,0,-1,1497,1030,0,0
280,-6,0,0,0,0,0,0,0,0,0,-1,1504,1030,0,0
287,-6,0,0,0,0,0,0,0,0,0,-1,1511,1030,0,0
294,-6,0,0,0,0,0,0,0,0,0,-1,1518,1030,0,0
301,-6,0,0,0,0,0,0,0,0,0,-1,1525,1030,0,0
308,-6,0,0,0,0,0,0,0,0,0,-1,1532,1030,0,0
315,-6,0,0,0,0,0,0,0,0,0,-1,1539,1030,0,0
322,-6,0,0,0,0,0,0,0,0,0,-1,1546,1030,0,0
329,-6,0,0,0,0,0,0,0,0,0,-1,1553,1030,0,0
336,-6,0,0,0,0,0,0,0,0,0,-1,1560,1030,0,0
343,-6,0,0,0,0,0,0,0,0,0,-1,1567,1030,0,0
350,-6,0,0,0,0,0,0,0,0,0,-1,1574,1030,0,0
357,-6,0,0,0,0,0,0,0,0,0,-1,1581,1030,0,0
364,-6,0,0,0,0,0,0,0,0,0,-1,1588,1030,0,0
371,-6,0,0,0,0,0,0,0,0,0,-1,1595,1030,0,0
378,-6,0,0,0,0,0,0,0,0,0,-1,1602,1030,0,0
385,-6,0,0,0,0,0,0,0,0,0,-1,1609,1030,0,0
392,-6,0,0,0,0,0,0,0,0,0,-1,1616,1030,0,0
399,-6,0,0,0,0,0,0,0,0,0,-1,1623,1030,0,0
406,-6,0,0,0,0,0,0,0,0,0,-1,1630,1030,0,0
413,-6,0,0,0,0,0,0,0,0,0,-1,1637,1030,0,0
420,-6,0,0,0,0,0,0,0,0,0,-1,1644,1030,0,0
427,-6,0,0,0,0,0,0,0,0,0,-1,1651,1030,0,0
434,-6,0,0,0,0,0,0,0,0,0,-1,1658,1030,0,0
441,-6,0,0,0,0,0,0,0,0,0,-1,1665,1030,0,0
448,-6,0,0,0,0,0,0,0,0,0,-1,1672,1030,0,0
455,-6,0,0,0,0,0,0,0,0,0,-1,1679,1030,0,0
462,-6,0,0,0,0,0,0,0,0,0,-1,1686,1030,0,0
469,-6,0,0,0,0,0,0,0,0,0,-1,1693,1030,0,0
476,-6,0,0,0,0,0,0,0,0,0,-1,1700,1030,0,0
483,-6,0,0,0,0,0,0,0,0,0,-1,1707,1030,0,0
490,-6,0,0,0,0,0,0,0,0,0,-1,1714,1030,0,0
497,-6,0,0,0,0,0,0,0,0,0,-1,1721,1030,0,0
504,-6,0,0,0,0,0,0,0,0,0,-1,1728,1030,0,0
511,-6,0,0,0,0,0,0,0,0,0,-1,1735,1030,0,0
518,-6,0,0,0,0,0,0,0,0,0,-1,1742,1030,0,0
525,-6,0,0,0,0,0,0,0,0,0,-1,1749,1030,0,0
532,-6,0,0,0,0,0,0,0,0,0,-1,1756,1030,0,0
539,-6,0,0,0,0,0,0,0,0,0,-1,1763,1030,0,0
546,-6,0,0,0,0,0,0,0,0,0,-1,1770,1030,0,0
553,-6,0,0,0,0,0,0,0,0,0,-1,1777,1030,0,0
560,-6,0,0,0,0,0,0,0,0,0,-1,1784,1030,0,0
567,-6,0,0,0,0,0,0,0,0,0,-1,1791,1030,0,0
574,-6,0,0,0,0,0,0,0,0,0,-1,1798,1030,0,0
581,-6,0,0,0,0,0,0,0,0,0,-1,1805,1030,0,0
588,-6,0,0,0,0,0,0,0,0,0,-1,1812,1030,0,0
595,-6,0,0,0,0,0,0,0,0,0,-1,1819,1030,0,0
602,-6,0,0,0,0,0,0,0,0,0,-1,1826,1030,0,0
609,-6,0,0,0,0,0,0,0,0,0,-1,1833,1030,0,0
616,-6,0,0,0,0,0,0,0,0,0,-1,1840,1030,0,0
623,-6,0,0,0,0,0,0,0,0,0,-1,1847,1030,0,0
630,-6,0,0,0,0,0,0,0,0,0,-1,1854,1030,0,0
637,-6,0,0,0,0,0,0,0,0,0,-1,1861,1030,0,0
644,-6,0,0,0,0,0,0,0,0,0,-1,1868,1030,0,0
651,-6,54.9192,2.90051,-0.0026889,0.00352734,1.75361e-05,0.00352739,-0.00268895,1.56798,0.00359987,0.036992,1875,1030,54.9191,-2.90048
658,-6,54.8885,3.09961,-0.00254729,0.00208984,9.49747e-05,0.00209179,-0.00254923,1.55033,0.00268383,0.0427695,1882,1030,54.8886,-3.09965
665,-6,54.8384,2.79724,-0.00217021,0.00111818,0.000268702,0.00113999,-0.00219203,1.4898,0.00195544,0.0446615,1889,1030,54.8384,-2.79721
672,-6,54.808,2.55786,-0.00169161,0.000570702,0.000548908,0.00069685,-0.00181776,1.3449,0.00149912,0.0411099,1896,1030,54.808,-2.55783
679,-6,54.7184,2.66846,-0.00114108,0.000210134,0.000883523,0.000646758,-0.0015777,1.11181,0.00132125,0.0417485,1903,1030,54.7184,-2.66843
686,-6,54.6874,2.78662,-0.00094919,-0.000133345,0.00113885,0.000668438,-0.00175097,0.957373,0.0014427,0.0396268,1910,1030,54.6874,-2.7866
693,-6,54.701,2.89709,-0.000885851,-0.000409812,0.00135134,0.000724306,-0.00201997,0.872572,0.00164222,0.0380672,1917,1030,54.701,-2.8971
700,-6,54.7598,2.95203,-0.000847361,-0.00059171,0.00146171,0.000747749,-0.00218682,0.829012,0.00176087,0.0337757,1924,1030,54.7597,-2.95202
707,-6,54.7147,2.86816,-0.00126292,-0.000327782,0.00142687,0.000706172,-0.00229688,0.94373,0.00181308,0.0282702,1931,1030,54.7148,-2.86813
714,-6,54.7706,2.66785,-0.00194359,0.000266859,0.00140856,0.000952044,-0.00262877,1.11805,0.0021416,0.0387308,1938,1030,54.7707,-2.66782
721,-6,54.8662,2.28198,0,0,0,0,0,0,0,-1,1945,1030,54.8662,-2.28196
728,-6,53.1713,6.25494,0,0,0,0,0,0,0,-1,1952,1030,53.1713,-6.25495
735,-6,54.5933,6.51343,0,0,0,0,0,0,0,-1,1959,1030,54.5933,-6.51345
742,-6,54.6859,6.61273,0,0,0,0,0,0,0,-1,1966,1030,54.6859,-6.61271
749,-6,54.6339,6.26117,0,0,0,0,0,0,0,-1,1973,1030,54.6339,-6.26116
756,-6,54.678,6.30835,-0.00725754,0.00896572,0.000707952,0.00899655,-0.00728837,1.52727,0.00941933,0.027332,1980,1030,54.6779,-6.30838
763,-6,54.5531,6.20825,-0.00761127,0.0117522,0.000886447,0.0117927,-0.00765176,1.52514,0.0113108,0.0211921,1987,1030,54.5531,-6.20824
770,-6,54.4763,6.14081,-0.00721019,0.015333,0.00121269,0.0153981,-0.00727523,1.51721,0.0133675,0.0186012,1994,1030,54.4764,-6.14082
777,-6,54.3865,6.08276,-0.00577934,0.0196802,0.00203276,0.0198415,-0.00594062,1.49162,0.0155899,0.0189618,2001,1030,54.3865,-6.08274
784,-6,54.3547,5.85291,-0.00367178,0.024152,0.00328686,0.024535,-0.00405479,1.45479,0.0178623,0.0437771,2008,1030,54.3547,-5.85288
791,-6,54.3601,5.6012,0,0,0,0,0,0,0,-1,2015,1030,54.3601,-5.60122
798,-6,53.1736,5.93164,0,0,0,0,0,0,0,-1,2022,1030,53.1735,-5.93164
805,-6,53.4292,4.00781,0,0,0,0,0,0,0,-1,2029,1030,53.4291,-4.00778
812,-6,55.2832,7.48309,0,0,0,0,0,0,0,-1,2036,1030,55.2833,-7.48309
-700,-13,0,0,0,0,0,0,0,0,0,-1,524,1037,0,0
-693,-13,-44.0616,-2.98022,0.0358986,0.251687,0.0710191,0.272962,0.0146228,1.27973,0.177302,0.0461869,531,1037,-44.0616,2.98019
-686,-13,-43.4738,-2.21082,0.0248837,0.199038,0.0560764,0.215532,0.00838965,1.28473,0.140974,0.0461665,538,1037,-43.4738,2.21087
-679,-13,-42.9415,-1.67993,0,0,0,0,0,0,0,-1,545,1037,-42.9415,1.67995
-672,-13,-41.8184,0.498413,0,0,0,0,0,0,0,-1,552,1037,-41.8184,-0.498439
-665,-13,-41.364,1.73804,0,0,0,0,0,0,0,-1,559,1037,-41.3639,-1.73804
-658,-13,-41.1517,2.13635,0,0,0,0,0,0,0,-1,566,1037,-41.1517,-2.1363
-651,-13,-41.1121,2.58948,0.00347743,0.0647105,0.0179387,0.0695788,-0.00139079,1.3058,0.0468563,0.0417733,573,1037,-41.1121,-2.58952
-644,-13,-41.057,3.12524,0.00193843,0.0480944,0.0127694,0.0513916,-0.00135878,1.3181,0.0347229,0.0332631,580,1037,-41.057,-3.1252
-637,-13,-41.155,3.35291,0.00109372,0.0293734,0.00691811,0.0309751,-0.000507958,1.34329,0.0208214,0.0286947,587,1037,-41.155,-3.35293
-630,-13,-41.3029,3.37622,0.000105077,0.0162785,0.00296269,0.0168041,-0.000420555,1.39521,0.0113455,0.0177984,594,1037,-41.3029,-3.37623
-623,-13,-41.3255,3.54077,0.000118972,0.0104893,0.000640969,0.0105287,7.95061e-05,1.5093,0.0069928,0.0147601,601,1037,-41.3255,-3.54077
-616,-13,-41.3179,3.70129,0.000299035,0.00555849,-0.00132727,0.00587445,-1.693e-05,-1.33709,0.00392196,0.0137149,608,1037,-41.3179,-3.70135
-609,-13,-41.2739,3.84106,0.000423457,0.00221239,-0.00281799,0.00427446,-0.00163861,-0.939076,0.00352516,0.0190489,615,1037,-41.2738,-3.84102
-602,-13,-41.2648,3.93726,0.00085064,0.000324545,-0.00367184,0.00426885,-0.00309366,-0.74964,0.00426876,0.0142073,622,1037,-41.2648,-3.93723
-595,-13,-41.2801,4.02063,0,0,0,0,0,0,0,-1,629,1037,-41.2801,-4.02061
-588,-13,-40.9349,1.97498,0,0,0,0,0,0,0,-1,636,1037,-40.9349,-1.97492
-581,-13,-40.9493,0.900391,0.00208553,-0.00205947,-0.00337974,0.00397761,-0.00395155,-0.510359,0.00457791,0.018682,643,1037,-40.9493,-0.900439
-574,-13,-40.9586,0.962524,0.00210556,-0.00236496,-0.00293135,0.00355665,-0.00381605,-0.45966,0.00425751,0.0331168,650,1037,-40.9585,-0.962503
-567,-13,-40.9412,1.06995,0.00170403,-0.00223952,-0.00221267,0.002696,-0.0032315,-0.421452,0.00342689,0.040874,657,1037,-40.9412,-1.06998
-560,-13,-40.8828,1.02209,0.00102846,-0.00171599,-0.00119247,0.0014742,-0.00216173,-0.357711,0.00211167,0.0416711,664,1037,-40.8827,-1.02215
-553,-13,-40.9244,0.989258,7.319e-05,-0.000935706,0.0001711,0.000101417,-0.000963933,0.163502,0.000678957,0.0431413,671,1037,-40.9245,-0.989271
-546,-13,-40.9587,0.936401,-0.00103666,-0.0001441,0.0019093,0.00137039,-0.00255115,0.900207,0.00229805,0.0420696,678,1037,-40.9587,-0.936358
-539,-13,-40.9674,0.932983,-0.00196189,0.000612985,0.00336875,0.00293193,-0.00428083,0.967919,0.00418849,0.042526,685,1037,-40.9674,-0.933031
-532,-13,-41.0109,1.02502,-0.00221714,0.00124757,0.00494233,0.00475236,-0.00572193,0.953965,0.00605596,0.0405514,692,1037,-41.0109,-1.02502
-525,-13,0,0,0,0,0,0,0,0,0,-1,699,1037,0,0
-518,-13,0,0,0,0,0,0,0,0,0,-1,706,1037,0,0
-511,-13,0,0,0,0,0,0,0,0,0,-1,713,1037,0,0
-504,-13,0,0,0,0,0,0,0,0,0,-1,720,1037,0,0
-497,-13,0,0,0,0,0,0,0,0,0,-1,727,1037,0,0
-490,-13,0,0,0,0,0,0,0,0,0,-1,734,1037,0,0
-483,-13,0,0,0,0,0,0,0,0,0,-1,741,1037,0,0
-476,-13,0,0,0,0,0,0,0,0,0,-1,748,1037,0,0
-469,-13,0,0,0,0,0,0,0,0,0,-1,755,1037,0,0
-462,-13,0,0,0,0,0,0,0,0,0,-1,762,1037,0,0
-455,-13,0,0,0,0,0,0,0,0,0,-1,769,1037,0,0
-448,-13,0,0,0,0,0,0,0,0,0,-1,776,1037,0,0
-441,-13,0,0,0,0,0,0,0,0,0,-1,783,1037,0,0
-434,-13,0,0,0,0,0,0,0,0,0,-1,790,1037,0,0
-427,-13,0,0,0,0,0,0,0,0,0,-1,797,1037,0,0
-420,-13,0,0,0,0,0,0,0,0,0,-1,804,1037,0,0
-413,-13,0,0,0,0,0,0,0,0,0,-1,811,1037,0,0
-406,-13,0,0,0,0,0,0,0,0,0,-1,818,1037,0,0
-399,-13,0,0,0,0,0,0,0,0,0,-1,825,1037,0,0
-392,-13,0,0,0,0,0,0,0,0,0,-1,832,1037,0,0
-385,-13,0,0,0,0,0,0,0,0,0,-1,839,1037,0,0
-378,-13,0,0,0,0,0,0,0,0,0,-1,846,1037,0,0
-371,-13,0,0,0,0,0,0,0,0,0,-1,853,1037,0,0
-364,-13,0,0,0,0,0,0,0,0,0,-1,860,1037,0,0
-357,-13,0,0,0,0,0,0,0,0,0,-1,867,1037,0,0
-350,-13,0,0,0,0,0,0,0,0,0,-1,874,1037,0,0
-343,-13,0,0,0,0,0,0,0,0,0,-1,881,1037,0,0
-336,-13,0,0,0,0,0,0,0,0,0,-1,888,1037,0,0
-329,-13,0,0,0,0,0,0,0,0,0,-1,895,1037,0,0
-322,-13,0,0,0,0,0,0,0,0,0,-1,902,1037,0,0
-315,-13,0,0,0,0,0,0,0,0,0,-1,909,1037,0,0
-308,-13,0,0,0,0,0,0,0,0,0,-1,916,1037,0,0
-301,-13,0,0,0,0,0,0,0,0,0,-1,923,1037,0,0
-294,-13,0,0,0,0,0,0,0,0,0,-1,930,1037,0,0
-287,-13,0,0,0,0,0,0,0,0,0,-1,937,1037,0,0
-280,-13,0,0,0,0,0,0,0,0,0,-1,944,1037,0,0
-273,-13,0,0,0,0,0,0,0,0,0,-1,951,1037,0,0
-266,-13,0,0,0,0,0,0,0,0,0,-1,958,1037,0,0
-259,-13,0,0,0,0,0,0,0,0,0,-1,965,1037,0,0
-252,-13,0,0,0,0,0,0,0,0,0,-1,972,1037,0,0
-245,-13,0,0,0,0,0,0,0,0,0,-1,979,1037,0,0
-238,-13,0,0,0,0,0,0,0,0,0,-1,986,1037,0,0
-231,-13,0,0,0,0,0,0,0,0,0,-1,993,1037,0,0
-224,-13,0,0,0,0,0,0,0,0,0,-1,1000,1037,0,0
-217,-13,0,0,0,0,0,0,0,0,0,-1,1007,1037,0,0
-210,-13,0,0,0,0,0,0,0,0,0,-1,1014,1037,0,0
-203,-13,0,0,0,0,0,0,0,0,0,-1,1021,1037,0,0
-196,-13,0,0,0,0,0,0,0,0,0,-1,1028,1037,0,0
-189,-13,0,0,0,0,0,0,0,0,0,-1,1035,1037,0,0
-182,-13,0,0,0,0,0,0,0,0,0,-1,1042,1037,0,0
-175,-13,0,0,0,0,0,0,0,0,0,-1,1049,1037,0,0
-168,-13,0,0,0,0,0,0,0,0,0,-1,1056,1037,0,0
-161,-13,0,0,0,0,0,0,0,0,0,-1,1063,1037,0,0
-154,-13,0,0,0,0,0,0,0,0,0,-1,1070,1037,0,0
-147,-13,0,0,0,0,0,0,0,0,0,-1,1077,1037,0,0
-140,-13,0,0,0,0,0,0,0,0,0,-1,1084,1037,0,0
-133,-13,0,0,0,0,0,0,0,0,0,-1,1091,1037,0,0
-126,-13,0,0,0,0,0,0,0,0,0,-1,1098,1037,0,0
-119,-13,0,0,0,0,0,0,0,0,0,-1,1105,1037,0,0
-112,-13,0,0,0,0,0,0,0,0,0,-1,1112,1037,0,0
-105,-13,0,0,0,0,0,0,0,0,0,-1,1119,1037,0,0
-98,-13,0,0,0,0,0,0,0,0,0,-1,1126,1037,0,0
-91,-13,0,0,0,0,0,0,0,0,0,-1,1133,1037,0,0
-84,-13,0,0,0,0,0,0,0,0,0,-1,1140,1037,0,0
-77,-13,0,0,0,0,0,0,0,0,0,-1,1147,1037,0,0
-70,-13,0,0,0,0,0,0,0,0,0,-1,1154,1037,0,0
-63,-13,0,0,0,0,0,0,0,0,0,-1,1161,1037,0,0
-56,-13,0,0,0,0,0,0,0,0,0,-1,1168,1037,0,0
-49,-13,0,0,0,0,0,0,0,0,0,-1,1175,1037,0,0
-42,-13,0,0,0,0,0,0,0,0,0,-1,1182,1037,0,0
-35,-13,0,0,0,0,0,0,0,0,0,-1,1189,1037,0,0
-28,-13,0,0,0,0,0,0,0,0,0,-1,1196,1037,0,0
-21,-13,0,0,0,0,0,0,0,0,0,-1,1203,1037,0,0
-14,-13,0,0,0,0,0,0,0,0,0,-1,1210,1037,0,0
-7,-13,0,0,0,0,0,0,0,0,0,-1,1217,1037,0,0
0,-13,0,0,0,0,0,0,0,0,0,-1,1224,1037,0,0
7,-13,0,0,0,0,0,0,0,0,0,-1,1231,1037,0,0
14,-13,0,0,0,0,0,0,0,0,0,-1,1238,1037,0,0
21,-13,0,0,0,0,0,0,0,0,0,-1,1245,1037,0,0
28,-13,0,0,0,0,0,0,0,0,0,-1,1252,1037,0,0
35,-13,0,0,0,0,0,0,0,0,0,-1,1259,1037,0,0
42,-13,0,0,0,0,0,0,0,0,0,-1,1266,1037,0,0
49,-13,0,0,0,0,0,0,0,0,0,-1,1273,1037,0,0
56,-13,0,0,0,0,0,0,0,0,0,-1,1280,1037,0,0
63,-13,0,0,0,0,0,0,0,0,0,-1,1287,1037,0,0
70,-13,0,0,0,0,0,0,0,0,0,-1,1294,1037,0,0
77,-13,0,0,0,0,0,0,0,0,0,-1,1301,1037,0,0
84,-13,0,0,0,0,0,0,0,0,0,-1,1308,1037,0,0
91,-13,0,0,0,0,0,0,0,0,0,-1,1315,1037,0,0
98,-13,0,0,0,0,0,0,0,0,0,-1,1322,1037,0,0
105,-13,0,0,0,0,0,0,0,0,0,-1,1329,1037,0,0
112,-13,0,0,0,0,0,0,0,0,0,-1,1336,1037,0,0
119,-13,0,0,0,0,0,0,0,0,0,-1,1343,1037,0,0
126,-13,0,0,0,0,0,0,0,0,0,-1,1350,1037,0,0
133,-13,0,0,0,0,0,0,0,0,0,-1,1357,1037,0,0
140,-13,0,0,0,0,0,0,0,0,0,-1,1364,1037,0,0
147,-13,0,0,0,0,0,0,0,0,0,-1,1371,1037,0,0
154,-13,0,0,0,0,0,0,0,0,0,-1,1378,1037,0,0
161,-13,0,0,0,0,0,0,0,0,0,-1,1385,1037,0,0
168,-13,0,0,0,0,0,0,0,0,0,-1,1392,1037,0,0
175,-13,0,0,0,0,0,0,0,0,0,-1,1399,1037,0,0
182,-13,0,0,0,0,0,0,0,0,0,-1,1406,1037,0,0
189,-13,0,0,0,0,0,0,0,0,0,-1,1413,1037,0,0
196,-13,0,0,0,0,0,0,0,0,0,-1,1420,1037,0,0
203,-13,0,0,0,0,0,0,0,0,0,-1,1427,1037,0,0
210,-13,0,0,0,0,0,0,0,0,0,-1,1434,1037,0,0
217,-13,0,0,0,0,0,0,0,0,0,-1,1441,1037,0,0
224,-13,0,0,0,0,0,0,0,0,0,-1,1448,1037,0,0
231,-13,0,0,0,0,0,0,0,0,0,-1,1455,1037,0,0
238,-13,0,0,0,0,0,0,0,0,0,-1,1462,1037,0,0
245,-13,0,0,0,0,0,0,0,0,0,-1,1469,1037,0,0
252,-13,0,0,0,0,0,0,0,0,0,-1,1476,1037,0,0
259,-13,0,0,0,0,0,0,0,0,0,-1,1483,1037,0,0
266,-13,0,0,0,0,0,0,0,0,0,-1,1490,1037,0,0
273,-13,0,0,0,0,0,0,0,0,0,-1,1497,1037,0,0
280,-13,0,0,0,0,0,0,0,0,0,-1,1504,1037,0,0
287,-13,0,0,0,0,0,0,0,0,0,-1,1511,1037,0,0
294,-13,0,0,0,0,0,0,0,0,0,-1,1518,1037,0,0
301,-13,0,0,0,0,0,0,0,0,0,-1,1525,1037,0,0
308,-13,0,0,0,0,0,0,0,0,0,-1,1532,1037,0,0
315,-13,0,0,0,0,0,0,0,0,0,-1,1539,1037,0,0
322,-13,0,0,0,0,0,0,0,0,0,-1,1546,1037,0,0
329,-13,0,0,0,0,0,0,0,0,0,-1,1553,1037,0,0
336,-13,0,0,0,0,0,0,0,0,0,-1,1560,1037,0,0
343,-13,0,0,0,0,0,0,0,0,0,-1,1567,1037,0,0
350,-13,0,0,0,0,0,0,0,0,0,-1,1574,1037,0,0
357,-13,0,0,0,0,0,0,0,0,0,-1,1581,1037,0,0
364,-13,0,0,0,0,0,0,0,0,0,-1,1588,1037,0,0
371,-13,0,0,0,0,0,0,0,0,0,-1,1595,1037,0,0
378,-13,0,0,0,0,0,0,0,0,0,-1,1602,1037,0,0
385,-13,0,0,0,0,0,0,0,0,0,-1,1609,1037,0,0
392,-13,0,0,0,0,0,0,0,0,0,-1,1616,1037,0,0
399,-13,0,0,0,0,0,0,0,0,0,-1,1623,1037,0,0
406,-13,0,0,0,0,0,0,0,0,0,-1,1630,1037,0,0
413,-13,0,0,0,0,0,0,0,0,0,-1,1637,1037,0,0
420,-13,0,0,0,0,0,0,0,0,0,-1,1644,1037,0,0
427,-13,0,0,0,0,0,0,0,0,0,-1,1651,1037,0,0
434,-13,0,0,0,0,0,0,0,0,0,-1,1658,1037,0,0
441,-13,0,0,0,0,0,0,0,0,0,-1,1665,1037,0,0
448,-13,0,0,0,0,0,0,0,0,0,-1,1672,1037,0,0
455,-13,0,0,0,0,0,0,0,0,0,-1,1679,1037,0,0
462,-13,0,0,0,0,0,0,0,0,0,-1,1686,1037,0,0
469,-13,0,0,0,0,0,0,0,0,0,-1,1693,1037,0,0
476,-13,0,0,0,0,0,0,0,0,0,-1,1700,1037,0,0
483,-13,0,0,0,0,0,0,0,0,0,-1,1707,1037,0,0
490,-13,0,0,0,0,0,0,0,0,0,-1,1714,1037,0,0
497,-13,0,0,0,0,0,0,0,0,0,-1,1721,1037,0,0
504,-13,0,0,0,0,0,0,0,0,0,-1,1728,1037,0,0
511,-13,0,0,0,0,0,0,0,0,0,-1,1735,1037,0,0
518,-13,0,0,0,0,0,0,0,0,0,-1,1742,1037,0,0
525,-13,0,0,0,0,0,0,0,0,0,-1,1749,1037,0,0
532,-13,0,0,0,0,0,0,0,0,0,-1,1756,1037,0,0
539,-13,0,0,0,0,0,0,0,0,0,-1,1763,1037,0,0
546,-13,0,0,0,0,0,0,0,0,0,-1,1770,1037,0,0
553,-13,0,0,0,0,0,0,0,0,0,-1,1777,1037,0,0
560,-13,0,0,0,0,0,0,0,0,0,-1,1784,1037,0,0
567,-13,0,0,0,0,0,0,0,0,0,-1,1791,1037,0,0
574,-13,0,0,0,0,0,0,0,0,0,-1,1798,1037,0,0
581,-13,0,0,0,0,0,0,0,0,0,-1,1805,1037,0,0
588,-13,0,0,0,0,0,0,0,0,0,-1,1812,1037,0,0
595,-13,0,0,0,0,0,0,0,0,0,-1,1819,1037,0,0
602,-13,0,0,0,0,0,0,0,0,0,-1,1826,1037,0,0
609,-13,0,0,0,0,0,0,0,0,0,-1,1833,1037,0,0
616,-13,0,0,0,0,0,0,0,0,0,-1,1840,1037,0,0
623,-13,0,0,0,0,0,0,0,0,0,-1,1847,1037,0,0
630,-13,0,0,0,0,0,0,0,0,0,-1,1854,1037,0,0
637,-13,0,0,0,0,0,0,0,0,0,-1,1861,1037,0,0
644,-13,0,0,0,0,0,0,0,0,0,-1,1868,1037,0,0
651,-13,55.0223,3.19763,-0.00263932,0.00326732,-0.00011921,0.00326972,-0.00264173,-1.55062,0.00341939,0.0399421,1875,1037,55.0224,-3.19762
658,-13,54.942,3.28699,-0.00252691,0.00192121,8.08277e-05,0.00192267,-0.00252838,1.55263,0.00257774,0.0468163,1882,1037,54.942,-3.28704
665,-13,54.7625,2.79834,-0.00216576,0.00103499,0.000320458,0.00106676,-0.00219753,1.47198,0.00192196,0.0467669,1889,1037,54.7625,-2.79829
672,-13,54.7212,2.64709,-0.00170118,0.000538955,0.000644802,0.000711296,-0.00187352,1.30962,0.00154181,0.0393113,1896,1037,54.7212,-2.64707
679,-13,54.6901,2.74316,-0.00116385,0.000228968,0.00100093,0.000751926,-0.00168681,1.08934,0.00144208,0.0396507,1903,1037,54.6901,-2.74314
686,-13,54.6871,2.87048,-0.0010381,-7.86123e-05,0.00126187,0.000791638,-0.00190835,0.967051,0.00160266,0.042146,1910,1037,54.6872,-2.87053
693,-13,54.6434,2.88342,-0.00104261,-0.000331917,0.00147499,0.000829929,-0.00220446,0.903603,0.00181083,0.0423179,1917,1037,54.6434,-2.88348
700,-13,54.6769,2.80359,-0.00105482,-0.000493883,0.00161622,0.00086602,-0.00241473,0.87131,0.00196323,0.0383341,1924,1037,54.6768,-2.80365
707,-13,54.7771,2.8562,-0.00148578,-0.000264807,0.00162402,0.00085968,-0.00261026,0.965182,0.00208663,0.0304511,1931,1037,54.7771,-2.85625
714,-13,54.7794,2.99329,-0.00213172,0.000260298,0.00163846,0.00109283,-0.00296426,1.10067,0.00242401,0.0359051,1938,1037,54.7795,-2.99332
721,-13,54.6012,3.08276,0,0,0,0,0,0,0,-1,1945,1037,54.6012,-3.0828
728,-13,54.566,6.56873,0,0,0,0,0,0,0,-1,1952,1037,54.5661,-6.56873
735,-13,54.5209,6.53247,-0.00502969,0.00365131,0.00141656,0.00387662,-0.005255,1.41307,0.00529212,0.03235,1959,1037,54.5208,-6.53244
742,-13,54.5264,6.45715,-0.00563543,0.00471168,0.00121436,0.00485229,-0.00577604,1.45552,0.00614399,0.0204936,1966,1037,54.5264,-6.45715
749,-13,54.5946,6.36121,-0.00654322,0.00614604,0.00113433,0.00624664,-0.00664383,1.48234,0.00744349,0.0272939,1973,1037,54.5946,-6.36123
756,-13,54.5704,6.27698,-0.00730077,0.00832073,0.00131556,0.00843075,-0.00741079,1.48736,0.00915243,0.0184349,1980,1037,54.5705,-6.27703
763,-13,54.5129,6.14185,-0.00760624,0.0108706,0.00159961,0.011008,-0.0077437,1.48507,0.0108809,0.0277843,1987,1037,54.5129,-6.14183
770,-13,54.4204,6.06506,-0.00721207,0.0140933,0.00203885,0.0142866,-0.00740543,1.47624,0.0127322,0.0238206,1994,1037,54.4203,-6.06512
777,-13,54.2754,5.95386,-0.00577643,0.0179962,0.0030244,0.0183749,-0.00615517,1.44622,0.0147366,0.0165311,2001,1037,54.2754,-5.95392
784,-13,54.2888,5.89221,-0.00374628,0.021992,0.00443392,0.0227344,-0.00448869,1.4049,0.0168529,0.0348702,2008,1037,54.2889,-5.89226
791,-13,54.5347,5.86292,-0.00107615,0.0262515,0.00652018,0.0277274,-0.0025521,1.34818,0.0193917,0.045822,2015,1037,54.5348,-5.8629
798,-13,54.5881,5.68127,0,0,0,0,0,0,0,-1,2022,1037,54.5881,-5.68121
805,-13,55.3589,5.76379,0,0,0,0,0,0,0,-1,2029,1037,55.3589,-5.76382
812,-13,55.1711,6.36731,0,0,0,0,0,0,0,-1,2036,1037,55.1711,-6.36734
-700,-20,-43.945,-3.50769,0,0,0,0,0,0,0,-1,524,1044,-43.945,3.50765
-693,-20,-43.576,-2.80981,0.063022,0.218931,0.0689697,0.245062,0.0368913,1.20864,0.152571,0.0444809,531,1044,-43.576,2.8098
-686,-20,-43.2401,-2.05078,0.0470614,0.17872,0.0558981,0.199251,0.0265305,1.2188,0.124933,0.0445917,538,1044,-43.24,2.05079
-679,-20,-42.1942,-0.674438,0,0,0,0,0,0,0,-1,545,1044,-42.1942,0.674447
-672,-20,-41.8073,0.0270996,0.0262235,0.121411,0.0373094,0.134292,0.0133429,1.23837,0.0854284,0.0479287,552,1044,-41.8073,-0.0271195
-665,-20,-41.4382,0.789917,0.0196098,0.0986468,0.0300847,0.108795,0.00946146,1.24546,0.069591,0.0425866,559,1044,-41.4382,-0.789948
-658,-20,-41.1686,1.8551,0,0,0,0,0,0,0,-1,566,1044,-41.1686,-1.85516
-651,-20,-40.9652,2.60388,0.0105373,0.0607264,0.0181274,0.0665889,0.00467479,1.25801,0.0429193,0.0405064,573,1044,-40.9652,-2.60386
-644,-20,-40.9048,2.89551,0.00716331,0.0451305,0.0128302,0.0490596,0.00323425,1.27363,0.0316834,0.0282165,580,1044,-40.9049,-2.89551
-637,-20,-40.9843,3.07104,0.00465845,0.02768,0.00702684,0.0296553,0.00268314,1.29676,0.0189393,0.0218984,587,1044,-40.9843,-3.07101
-630,-20,-41.0689,3.30273,0.00236782,0.0155345,0.00307653,0.0162179,0.00168443,1.35221,0.0102965,0.0173506,594,1044,-41.0689,-3.30274
-623,-20,-41.1274,3.5083,0.00125033,0.00992926,0.000748794,0.00999339,0.00118621,1.48536,0.00630417,0.015216,601,1044,-41.1274,-3.50825
-616,-20,-41.1397,3.67468,0.000760935,0.00518871,-0.00111748,0.00545476,0.000494893,-1.33707,0.00348328,0.0155633,608,1044,-41.1397,-3.6747
-609,-20,-41.1563,3.85754,0.000589872,0.00199466,-0.00247368,0.00386374,-0.0012792,-0.923731,0.00309173,0.0170495,615,1044,-41.1563,-3.8575
-602,-20,-41.1277,3.97168,0.000809969,0.000158412,-0.00327679,0.00377714,-0.00280876,-0.735851,0.00381604,0.0151341,622,1044,-41.1277,-3.97171
-595,-20,-41.1041,4.06189,0.00103557,-0.000628335,-0.00350724,0.00380818,-0.00340095,-0.668946,0.0041644,0.0353964,629,1044,-41.1041,-4.06194
-588,-20,-40.9581,3.91394,0,0,0,0,0,0,0,-1,636,1044,-40.9581,-3.91397
-581,-20,-40.9002,0.865723,0,0,0,0,0,0,0,-1,643,1044,-40.9002,-0.865662
-574,-20,-40.9976,1.0199,0.00191648,-0.00224278,-0.00243351,0.00303792,-0.00336422,-0.431825,0.00369787,0.0354119,650,1044,-40.9976,-1.01995
-567,-20,-41.0048,1.20166,0.00159674,-0.00210683,-0.00180154,0.00232849,-0.00283858,-0.385823,0.00298805,0.0425449,657,1044,-41.0048,-1.2017
-560,-20,-41.0397,1.22021,0.00103811,-0.00160724,-0.000925281,0.00132963,-0.00189876,-0.305212,0.00187354,0.0436995,664,1044,-41.0397,-1.22018
-553,-20,-41.0808,0.874756,0.000266914,-0.000891901,0.000236473,0.000313312,-0.000938299,0.193747,0.000752049,0.0452851,671,1044,-41.0808,-0.87478
-546,-20,-41.0584,0.676514,-0.000584248,-0.000208931,0.00171729,0.00133093,-0.00212411,0.83982,0.00201221,0.0455205,678,1044,-41.0584,-0.67655
-539,-20,-40.9096,0.708374,-0.0012715,0.000308603,0.00298626,0.00260755,-0.00357045,0.914717,0.00358128,0.0448566,685,1044,-40.9096,-0.708421
-532,-20,-40.8576,1.07996,-0.00146542,0.000782465,0.00464103,0.0044337,-0.00511666,0.904199,0.0055186,0.0417025,692,1044,-40.8576,-1.08001
-525,-20,0,0,0,0,0,0,0,0,0,-1,699,1044,0,0
-518,-20,0,0,0,0,0,0,0,0,0,-1,706,1044,0,0
-511,-20,0,0,0,0,0,0,0,0,0,-1,713,1044,0,0
-504,-20,0,0,0,0,0,0,0,0,0,-1,720,1044,0,0
-497,-20,0,0,0,0,0,0,0,0,0,-1,727,1044,0,0
-490,-20,0,0,0,0,0,0,0,0,0,-1,734,1044,0,0
-483,-20,0,0,0,0,0,0,0,0,0,-1,741,1044,0,0
-476,-20,0,0,0,0,0,0,0,0,0,-1,748,1044,0,0
-469,-20,0,0,0,0,0,0,0,0,0,-1,755,1044,0,0
-462,-20,0,0,0,0,0,0,0,0,0,-1,762,1044,0,0
-455,-20,0,0,0,0,0,0,0,0,0,-1,769,1044,0,0
-448,-20,0,0,0,0,0,0,0,0,0,-1,776,1044,0,0
-441,-20,0,0,0,0,0,0,0,0,0,-1,783,1044,0,0
-434,-20,0,0,0,0,0,0,0,0,0,-1,790,1044,0,0
-427,-20,0,0,0,0,0,0,0,0,0,-1,797,1044,0,0
-420,-20,0,0,0,0,0,0,0,0,0,-1,804,1044,0,0
-413,-20,0,0,0,0,0,0,0,0,0,-1,811,1044,0,0
-406,-20,0,0,0,0,0,0,0,0,0,-1,818,1044,0,0
-399,-20,0,0,0,0,0,0,0,0,0,-1,825,1044,0,0
-392,-20,0,0,0,0,0,0,0,0,0,-1,832,1044,0,0
-385,-20,0,0,0,0,0,0,0,0,0,-1,839,1044,0,0
-378,-20,0,0,0,0,0,0,0,0,0,-1,846,1044,0,0
-371,-20,0,0,0,0,0,0,0,0,0,-1,853,1044,0,0
-364,-20,0,0,0,0,0,0,0,0,0,-1,860,1044,0,0
-357,-20,0,0,0,0,0,0,0,0,0,-1,867,1044,0,0
-350,-20,0,0,0,0,0,0,0,0,0,-1,874,1044,0,0
-343,-20,0,0,0,0,0,0,0,0,0,-1,881,1044,0,0
-336,-20,0,0,0,0,0,0,0,0,0,-1,888,1044,0,0
-329,-20,0,0,0,0,0,0,0,0,0,-1,895,1044,0,0
-322,-20,0,0,0,0,0,0,0,0,0,-1,902,1044,0,0
-315,-20,0,0,0,0,0,0,0,0,0,-1,909,1044,0,0
-308,-20,0,0,0,0,0,0,0,0,0,-1,916,1044,0,0
-301,-20,0,0,0,0,0,0,0,0,0,-1,923,1044,0,0
-294,-20,0,0,0,0,0,0,0,0,0,-1,930,1044,0,0
-287,-20,0,0,0,0,0,0,0,0,0,-1,937,1044,0,0
-280,-20,0,0,0,0,0,0,0,0,0,-1,944,1044,0,0
-273,-20,0,0,0,0,0,0,0,0,0,-1,951,1044,0,0
-266,-20,0,0,0,0,0,0,0,0,0,-1,958,1044,0,0
-259,-20,0,0,0,0,0,0,0,0,0,-1,965,1044,0,0
-252,-20,0,0,0,0,0,0,0,0,0,-1,972,1044,0,0
-245,-20,0,0,0,0,0,0,0,0,0,-1,979,1044,0,0
-238,-20,0,0,0,0,0,0,0,0,0,-1,986,1044,0,0
-231,-20,0,0,0,0,0,0,0,0,0,-1,993,1044,0,0
-224,-20,0,0,0,0,0,0,0,0,0,-1,1000,1044,0,0
-217,-20,0,0,0,0,0,0,0,0,0,-1,1007,1044,0,0
-210,-20,0,0,0,0,0,0,0,0,0,-1,1014,1044,0,0
-203,-20,0,0,0,0,0,0,0,0,0,-1,1021,1044,0,0
-196,-20,0,0,0,0,0,0,0,0,0,-1,1028,1044,0,0
-189,-20,0,0,0,0,0,0,0,0,0,-1,1035,1044,0,0
-182,-20,0,0,0,0,0,0,0,0,0,-1,1042,1044,0,0
-175,-20,0,0,0,0,0,0,0,0,0,-1,1049,1044,0,0
-168,-20,0,0,0,0,0,0,0,0,0,-1,1056,1044,0,0
-161,-20,0,0,0,0,0,0,0,0,0,-1,1063,1044,0,0
-154,-20,0,0,0,0,0,0,0,0,0,-1,1070,1044,0,0
-147,-20,0,0,0,0,0,0,0,0,0,-1,1077,1044,0,0
-140,-20,0,0,0,0,0,0,0,0,0,-1,1084,1044,0,0
-133,-20,0,0,0,0,0,0,0,0,0,-1,1091,1044,0,0
-126,-20,0,0,0,0,0,0,0,0,0,-1,1098,1044,0,0
-119,-20,0,0,0,0,0,0,0,0,0,-1,1105,1044,0,0
-112,-20,0,0,0,0,0,0,0,0,0,-1,1112,1044,0,0
-105,-20,0,0,0,0,0,0,0,0,0,-1,1119,1044,0,0
-98,-20,0,0,0,0,0,0,0,0,0,-1,1126,1044,0,0
-91,-20,0,0,0,0,0,0,0,0,0,-1,1133,1044,0,0
-84,-20,0,0,0,0,0,0,0,0,0,-1,1140,1044,0,0
-77,-20,0,0,0,0,0,0,0,0,0,-1,1147,1044,0,0
-70,-20,0,0,0,0,0,0,0,0,0,-1,1154,1044,0,0
-63,-20,0,0,0,0,0,0,0,0,0,-1,1161,1044,0,0
-56,-20,0,0,0,0,0,0,0,0,0,-1,1168,1044,0,0
-49,-20,0,0,0,0,0,0,0,0,0,-1,1175,1044,0,0
-42,-20,0,0,0,0,0,0,0,0,0,-1,1182,1044,0,0
-35,-20,0,0,0,0,0,0,0,0,0,-1,1189,1044,0,0
-28,-20,0,0,0,0,0,0,0,0,0,-1,1196,1044,0,0
-21,-20,0,0,0,0,0,0,0,0,0,-1,1203,1044,0,0
-14,-20,0,0,0,0,0,0,0,0,0,-1,1210,1044,0,0
-7,-20,0,0,0,0,0,0,0,0,0,-1,1217,1044,0,0
0,-20,0,0,0,0,0,0,0,0,0,-1,1224,1044,0,0
7,-20,0,0,0,0,0,0,0,0,0,-1,1231,1044,0,0
14,-20,0,0,0,0,0,0,0,0,0,-1,1238,1044,0,0
21,-20,0,0,0,0,0,0,0,0,0,-1,1245,1044,0,0
28,-20,0,0,0,0,0,0,0,0,0,-1,1252,1044,0,0
35,-20,0,0,0,0,0,0,0,0,0,-1,1259,1044,0,0
42,-20,0,0,0,0,0,0,0,0,0,-1,1266,1044,0,0
49,-20,0,0,0,0,0,0,0,0,0,-1,1273,1044,0,0
56,-20,0,0,0,0,0,0,0,0,0,-1,1280,1044,0,0
63,-20,0,0,0,0,0,0,0,0,0,-1,1287,1044,0,0
70,-20,0,0,0,0,0,0,0,0,0,-1,1294,1044,0,0
77,-20,0,0,0,0,0,0,0,0,0,-1,1301,1044,0,0
84,-20,0,0,0,0,0,0,0,0,0,-1,1308,1044,0,0
91,-20,0,0,0,0,0,0,0,0,0,-1,1315,1044,0,0
98,-20,0,0,0,0,0,0,0,0,0,-1,1322,1044,0,0
105,-20,0,0,0,0,0,0,0,0,0,-1,1329,1044,0,0
112,-20,0,0,0,0,0,0,0,0,0,-1,1336,1044,0,0
119,-20,0,0,0,0,0,0,0,0,0,-1,1343,1044,0,0
126,-20,0,0,0,0,0,0,0,0,0,-1,1350,1044,0,0
133,-20,0,0,0,0,0,0,0,0,0,-1,1357,1044,0,0
140,-20,0,0,0,0,0,0,0,0,0,-1,1364,1044,0,0
147,-20,0,0,0,0,0,0,0,0,0,-1,1371,1044,0,0
154,-20,0,0,0,0,0,0,0,0,0,-1,1378,1044,0,0
161,-20,0,0,0,0,0,0,0,0,0,-1,1385,1044,0,0
168,-20,0,0,0,0,0,0,0,0,0,-1,1392,1044,0,0
175,-20,0,0,0,0,0,0,0,0,0,-1,1399,1044,0,0
182,-20,0,0,0,0,0,0,0,0,0,-1,1406,1044,0,0
189,-20,0,0,0,0,0,0,0,0,0,-1,1413,1044,0,0
196,-20,0,0,0,0,0,0,0,0,0,-1,1420,1044,0,0
203,-20,0,0,0,0,0,0,0,0,0,-1,1427,1044,0,0
210,-20,0,0,0,0,0,0,0,0,0,-1,1434,1044,0,0
217,-20,0,0,0,0,0,0,0,0,0,-1,1441,1044,0,0
224,-20,0,0,0,0,0,0,0,0,0,-1,1448,1044,0,0
231,-20,0,0,0,0,0,0,0,0,0,-1,1455,1044,0,0
238,-20,0,0,0,0,0,0,0,0,0,-1,1462,1044,0,0
245,-20,0,0,0,0,0,0,0,0,0,-1,1469,1044,0,0
252,-20,0,0,0,0,0,0,0,0,0,-1,1476,1044,0,0
259,-20,0,0,0,0,0,0,0,0,0,-1,1483,1044,0,0
266,-20,0,0,0,0,0,0,0,0,0,-1,1490,1044,0,0
273,-20,0,0,0,0,0,0,0,0,0,-1,1497,1044,0,0
280,-20,0,0,0,0,0,0,0,0,0,-1,1504,1044,0,0
287,-20,0,0,0,0,0,0,0,0,0,-1,1511,1044,0,0
294,-20,0,0,0,0,0,0,0,0,0,-1,1518,1044,0,0
301,-20,0,0,0,0,0,0,0,0,0,-1,1525,1044,0,0
308,-20,0,0,0,0,0,0,0,0,0,-1,1532,1044,0,0
315,-20,0,0,0,0,0,0,0,0,0,-1,1539,1044,0,0
322,-20,0,0,0,0,0,0,0,0,0,-1,1546,1044,0,0
329,-20,0,0,0,0,0,0,0,0,0,-1,1553,1044,0,0
336,-20,0,0,0,0,0,0,0,0,0,-1,1560,1044,0,0
343,-20,0,0,0,0,0,0,0,0,0,-1,1567,1044,0,0
350,-20,0,0,0,0,0,0,0,0,0,-1,1574,1044,0,0
357,-20,0,0,0,0,0,0,0,0,0,-1,1581,1044,0,0
364,-20,0,0,0,0,0,0,0,0,0,-1,1588,1044,0,0
371,-20,0,0,0,0,0,0,0,0,0,-1,1595,1044,0,0
378,-20,0,0,0,0,0,0,0,0,0,-1,1602,1044,0,0
385,-20,0,0,0,0,0,0,0,0,0,-1,1609,1044,0,0
392,-20,0,0,0,0,0,0,0,0,0,-1,1616,1044,0,0
399,-20,0,0,0,0,0,0,0,0,0,-1,1623,1044,0,0
406,-20,0,0,0,0,0,0,0,0,0,-1,1630,1044,0,0
413,-20,0,0,0,0,0,0,0,0,0,-1,1637,1044,0,0
420,-20,0,0,0,0,0,0,0,0,0,-1,1644,1044,0,0
427,-20,0,0,0,0,0,0,0,0,0,-1,1651,1044,0,0
434,-20,0,0,0,0,0,0,0,0,0,-1,1658,1044,0,0
441,-20,0,0,0,0,0,0,0,0,0,-1,1665,1044,0,0
448,-20,0,0,0,0,0,0,0,0,0,-1,1672,1044,0,0
455,-20,0,0,0,0,0,0,0,0,0,-1,1679,1044,0,0
462,-20,0,0,0,0,0,0,0,0,0,-1,1686,1044,0,0
469,-20,0,0,0,0,0,0,0,0,0,-1,1693,1044,0,0
476,-20,0,0,0,0,0,0,0,0,0,-1,1700,1044,0,0
483,-20,0,0,0,0,0,0,0,0,0,-1,1707,1044,0,0
490,-20,0,0,0,0,0,0,0,0,0,-1,1714,1044,0,0
497,-20,0,0,0,0,0,0,0,0,0,-1,1721,1044,0,0
504,-20,0,0,0,0,0,0,0,0,0,-1,1728,1044,0,0
511,-20,0,0,0,0,0,0,0,0,0,-1,1735,1044,0,0
518,-20,0,0,0,0,0,0,0,0,0,-1,1742,1044,0,0
525,-20,0,0,0,0,0,0,0,0,0,-1,1749,1044,0,0
532,-20,0,0,0,0,0,0,0,0,0,-1,1756,1044,0,0
539,-20,0,0,0,0,0,0,0,0,0,-1,1763,1044,0,0
546,-20,0,0,0,0,0,0,0,0,0,-1,1770,1044,0,0
553,-20,0,0,0,0,0,0,0,0,0,-1,1777,1044,0,0
560,-20,0,0,0,0,0,0,0,0,0,-1,1784,1044,0,0
567,-20,0,0,0,0,0,0,0,0,0,-1,1791,1044,0,0
574,-20,0,0,0,0,0,0,0,0,0,-1,1798,1044,0,0
581,-20,0,0,0,0,0,0,0,0,0,-1,1805,1044,0,0
588,-20,0,0,0,0,0,0,0,0,0,-1,1812,1044,0,0
595,-20,0,0,0,0,0,0,0,0,0,-1,1819,1044,0,0
602,-20,0,0,0,0,0,0,0,0,0,-1,1826,1044,0,0
609,-20,0,0,0,0,0,0,0,0,0,-1,1833,1044,0,0
616,-20,0,0,0,0,0,0,0,0,0,-1,1840,1044,0,0
623,-20,0,0,0,0,0,0,0,0,0,-1,1847,1044,0,0
630,-20,0,0,0,0,0,0,0,0,0,-1,1854,1044,0,0
637,-20,0,0,0,0,0,0,0,0,0,-1,1861,1044,0,0
644,-20,0,0,0,0,0,0,0,0,0,-1,1868,1044,0,0
651,-20,54.9766,3.08826,-0.00251946,0.00345877,-8.82621e-05,0.00346007,-0.00252076,-1.55604,0.0034672,0.0419459,1875,1044,54.9765,-3.0882
658,-20,54.7809,2.90088,-0.00241898,0.0019902,0.000195233,0.00199883,-0.00242761,1.52663,0.0025596,0.043243,1882,1044,54.7808,-2.90092
665,-20,54.7611,2.76025,-0.00206704,0.00104737,0.000470495,0.0011169,-0.00213656,1.42409,0.00190889,0.0403473,1889,1044,54.7611,-2.76023
672,-20,54.7513,2.77661,-0.00161802,0.000498846,0.000819252,0.000778866,-0.00189804,1.24145,0.0015899,0.0257542,1896,1044,54.7513,-2.77664
679,-20,54.7244,2.80518,-0.00110265,0.000163874,0.00118006,0.000869852,-0.00180863,1.03166,0.00157777,0.0286654,1903,1044,54.7243,-2.80515
686,-20,54.7594,3.01379,-0.0010467,-0.000152589,0.00145169,0.000919324,-0.00211861,0.934768,0.00179893,0.0399948,1910,1044,54.7594,-3.01385
693,-20,54.6467,2.83618,-0.0011385,-0.000401198,0.00166828,0.000938674,-0.00247837,0.894139,0.0020385,0.0452448,1917,1044,54.6467,-2.83614
700,-20,54.6503,2.81104,-0.00121696,-0.000547771,0.00183576,0.000983639,-0.00274837,0.875541,0.00223353,0.0392811,1924,1044,54.6503,-2.81106
707,-20,54.7549,2.85144,-0.00165511,-0.000344124,0.00188202,0.000993289,-0.00299252,0.952974,0.00239576,0.0319936,1931,1044,54.7549,-2.85147
714,-20,54.7699,3.04468,-0.00227211,0.00012715,0.00192691,0.00119734,-0.0033423,1.06382,0.00271673,0.0330253,1938,1044,54.77,-3.04463
721,-20,54.6234,3.07568,0,0,0,0,0,0,0,-1,1945,1044,54.6234,-3.07571
728,-20,54.9176,6.61401,0,0,0,0,0,0,0,-1,1952,1044,54.9176,-6.61401
735,-20,54.6144,6.55457,-0.00511575,0.00333169,0.00180098,0.00369963,-0.00548369,1.36927,0.00533524,0.0316586,1959,1044,54.6143,-6.55459
742,-20,54.3693,6.38879,-0.00565693,0.00431305,0.00162574,0.00457145,-0.00591533,1.41317,0.0060711,0.0257381,1966,1044,54.3692,-6.38876
749,-20,54.4524,6.3136,-0.00647915,0.00562986,0.00158933,0.00583499,-0.00668427,1.44244,0.00723354,0.0276328,1973,1044,54.4524,-6.31356
756,-20,54.4524,6.2196,-0.00714393,0.00769263,0.00182308,0.00791337,-0.00736466,1.45031,0.00882267,0.0185517,1980,1044,54.4524,-6.21956
763,-20,54.3671,6.12231,-0.0073589,0.0100367,0.00213755,0.0102955,-0.00761771,1.45031,0.0103806,0.0287534,1987,1044,54.3671,-6.12236
770,-20,54.2769,6.07068,-0.00691276,0.0129882,0.00256644,0.0133138,-0.0072384,1.44459,0.0120374,0.0247819,1994,1044,54.2769,-6.0707
777,-20,54.1445,5.8678,-0.00541574,0.0165344,0.00354089,0.0170915,-0.0059728,1.41475,0.0138223,0.0154034,2001,1044,54.1445,-5.86778
784,-20,54.145,5.77612,-0.00339413,0.0201205,0.00490341,0.021102,-0.00437565,1.37324,0.0157307,0.0208261,2008,1044,54.145,-5.77618
791,-20,54.3245,5.58289,-0.000804252,0.0238423,0.00689019,0.0256378,-0.00259968,1.31589,0.018021,0.0377984,2015,1044,54.3243,-5.58285
798,-20,54.6196,5.4021,0,0,0,0,0,0,0,-1,2022,1044,54.6196,-5.40207
805,-20,54.9009,5.35278,0.008362,0.0326446,0.0136399,0.0387642,0.00224245,1.14907,0.0251287,0.0436177,2029,1044,54.9008,-5.35274
812,-20,54.9475,5.37219,0.0148319,0.0383436,0.0189378,0.0488776,0.0042979,1.06317,0.0312511,0.044909,2036,1044,54.9474,-5.37217
-700,-27,-40.9657,-5.01904,0,0,0,0,0,0,0,-1,524,1051,-40.9657,5.01901
-693,-27,-43.3709,-2.55591,0,0,0,0,0,0,0,-1,531,1051,-43.3709,2.55585
-686,-27,-42.9425,-2.10559,0.0517457,0.150921,0.0510628,0.172512,0.0301552,1.17077,0.10639,0.0448101,538,1051,-42.9425,2.10559
-679,-27,-42.5522,-1.72009,0.042504,0.12774,0.0430426,0.145694,0.02455,1.17562,0.0900682,0.0446262,545,1051,-42.5521,1.72014
-672,-27,-42.0391,-0.652222,0.0341577,0.106751,0.0357837,0.121424,0.0194846,1.18166,0.0752998,0.0424988,552,1051,-42.0391,0.652273
-665,-27,-41.3531,0.0738525,0.0269696,0.0875452,0.0291776,0.0993131,0.0152017,1.18743,0.0617682,0.0410763,559,1051,-41.3531,-0.0738783
-658,-27,-41.1116,1.88513,0,0,0,0,0,0,0,-1,566,1051,-41.1116,-1.88517
-651,-27,-40.7064,2.83386,0.0155244,0.0542706,0.0176657,0.0611157,0.00867931,1.20113,0.0381809,0.0358508,573,1051,-40.7064,-2.83392
-644,-27,-40.7182,2.79163,0.0109133,0.0404096,0.0124904,0.0449881,0.00633478,1.21945,0.0281194,0.0181391,580,1051,-40.7182,-2.79162
-637,-27,-40.7828,2.93433,0.00712179,0.0250148,0.00692753,0.0273834,0.00475324,1.24135,0.0168955,0.0162205,587,1051,-40.7828,-2.93429
-630,-27,-40.8588,3.27075,0.00379081,0.0143648,0.00309471,0.015204,0.00295167,1.30601,0.0093094,0.0198417,594,1051,-40.8587,-3.2708
-623,-27,-40.8915,3.50281,0.00191712,0.00922003,0.000841988,0.00931585,0.0018213,1.45748,0.00570127,0.0178078,601,1051,-40.8915,-3.50283
-616,-27,-40.8539,3.73108,0.0010267,0.00479485,-0.000864274,0.00498362,0.000837927,-1.35575,0.00308132,0.0157095,608,1051,-40.854,-3.73104
-609,-27,-40.8741,3.91125,0.000647801,0.00185441,-0.00213818,0.00347277,-0.00097056,-0.922903,0.00269754,0.0148101,615,1051,-40.8741,-3.91125
-602,-27,-40.862,4.08618,0.000694624,8.54926e-05,-0.00294564,0.0033514,-0.00257128,-0.733884,0.00342934,0.0142519,622,1051,-40.862,-4.08622
-595,-27,-40.8958,4.24902,0.000868776,-0.000649478,-0.00316974,0.00336903,-0.00314973,-0.667866,0.00376431,0.0175745,629,1051,-40.8958,-4.24898
-588,-27,-41.1015,4.36023,0,0,0,0,0,0,0,-1,636,1051,-41.1015,-4.36019
-581,-27,-40.8858,0.976318,0.0016068,-0.00189971,-0.00247109,0.00288343,-0.00317634,-0.476859,0.00349997,0.0218558,643,1051,-40.8858,-0.976309
-574,-27,-40.8843,1.21021,0.001692,-0.00212818,-0.00207748,0.00260403,-0.00304021,-0.413676,0.00326194,0.0334376,650,1051,-40.8843,-1.21017
-567,-27,-40.857,1.45215,0.00144943,-0.00201037,-0.00152143,0.00202329,-0.00258423,-0.360684,0.00266672,0.043565,657,1051,-40.857,-1.4521
-560,-27,-41.0506,0.954834,0,0,0,0,0,0,0,-1,664,1051,-41.0506,-0.954889
-553,-27,-40.9941,0.798218,0.000374031,-0.00104143,0.000264592,0.000421874,-0.00108927,0.178885,0.000900377,0.0460042,671,1051,-40.9941,-0.798198
-546,-27,-40.9532,0.605957,-0.000269903,-0.000626939,0.00158307,0.00114468,-0.00204152,0.729252,0.00186369,0.0472329,678,1051,-40.9533,-0.605924
-539,-27,-40.8232,0.740112,-0.000809946,-0.000575793,0.00276846,0.00207806,-0.0034638,0.80653,0.00323277,0.045964,685,1051,-40.8232,-0.740072
-532,-27,-40.7734,0.960938,-0.00104143,-0.000478491,0.00455614,0.00380486,-0.00532478,0.816248,0.0052953,0.0437943,692,1051,-40.7735,-0.960993
-525,-27,0,0,0,0,0,0,0,0,0,-1,699,1051,0,0
-518,-27,0,0,0,0,0,0,0,0,0,-1,706,1051,0,0
-511,-27,0,0,0,0,0,0,0,0,0,-1,713,1051,0,0
-504,-27,0,0,0,0,0,0,0,0,0,-1,720,1051,0,0
-497,-27,0,0,0,0,0,0,0,0,0,-1,727,1051,0,0
-490,-27,0,0,0,0,0,0,0,0,0,-1,734,1051,0,0
-483,-27,0,0,0,0,0,0,0,0,0,-1,741,1051,0,0
-476,-27,0,0,0,0,0,0,0,0,0,-1,748,1051,0,0
-469,-27,0,0,0,0,0,0,0,0,0,-1,755,1051,0,0
-462,-27,0,0,0,0,0,0,0,0,0,-1,762,1051,0,0
-455,-27,0,0,0,0,0,0,0,0,0,-1,769,1051,0,0
-448,-27,0,0,0,0,0,0,0,0,0,-1,776,1051,0,0
-441,-27,0,0,0,0,0,0,0,0,0,-1,783,1051,0,0
-434,-27,0,0,0,0,0,0,0,0,0,-1,790,1051,0,0
-427,-27,0,0,0,0,0,0,0,0,0,-1,797,1051,0,0
-420,-27,0,0,0,0,0,0,0,0,0,-1,804,1051,0,0
-413,-27,0,0,0,0,0,0,0,0,0,-1,811,1051,0,0
-406,-27,0,0,0,0,0,0,0,0,0,-1,818,1051,0,0
-399,-27,0,0,0,0,0,0,0,0,0,-1,825,1051,0,0
-392,-27,0,0,0,0,0,0,0,0,0,-1,832,1051,0,0
-385,-27,0,0,0,0,0,0,0,0,0,-1,839,1051,0,0
-378,-27,0,0,0,0,0,0,0,0,0,-1,846,1051,0,0
-371,-27,0,0,0,0,0,0,0,0,0,-1,853,1051,0,0
-364,-27,0,0,0,0,0,0,0,0,0,-1,860,1051,0,0
-357,-27,0,0,0,0,0,0,0,0,0,-1,867,1051,0,0
-350,-27,0,0,0,0,0,0,0,0,0,-1,874,1051,0,0
-343,-27,0,0,0,0,0,0,0,0,0,-1,881,1051,0,0
-336,-27,0,0,0,0,0,0,0,0,0,-1,888,1051,0,0
-329,-27,0,0,0,0,0,0,0,0,0,-1,895,1051,0,0
-322,-27,0,0,0,0,0,0,0,0,0,-1,902,1051,0,0
-315,-27,0,0,0,0,0,0,0,0,0,-1,909,1051,0,0
-308,-27,0,0,0,0,0,0,0,0,0,-1,916,1051,0,0
-301,-27,0,0,0,0,0,0,0,0,0,-1,923,1051,0,0
-294,-27,0,0,0,0,0,0,0,0,0,-1,930,1051,0,0
-287,-27,0,0,0,0,0,0,0,0,0,-1,937,1051,0,0
-280,-27,0,0,0,0,0,0,0,0,0,-1,944,1051,0,0
-273,-27,0,0,0,0,0,0,0,0,0,-1,951,1051,0,0
-266,-27,0,0,0,0,0,0,0,0,0,-1,958,1051,0,0
-259,-27,0,0,0,0,0,0,0,0,0,-1,965,1051,0,0
-252,-27,0,0,0,0,0,0,0,0,0,-1,972,1051,0,0
-245,-27,0,0,0,0,0,0,0,0,0,-1,979,1051,0,0
-238,-27,0,0,0,0,0,0,0,0,0,-1,986,1051,0,0
-231,-27,0,0,0,0,0,0,0,0,0,-1,993,1051,0,0
-224,-27,0,0,0,0,0,0,0,0,0,-1,1000,1051,0,0
-217,-27,0,0,0,0,0,0,0,0,0,-1,1007,1051,0,0
-210,-27,0,0,0,0,0,0,0,0,0,-1,1014,1051,0,0
-203,-27,0,0,0,0,0,0,0,0,0,-1,1021,1051,0,0
-196,-27,0,0,0,0,0,0,0,0,0,-1,1028,1051,0,0
-189,-27,0,0,0,0,0,0,0,0,0,-1,1035,1051,0,0
-182,-27,0,0,0,0,0,0,0,0,0,-1,1042,1051,0,0
-175,-27,0,0,0,0,0,0,0,0,0,-1,1049,1051,0,0
-168,-27,0,0,0,0,0,0,0,0,0,-1,1056,1051,0,0
-161,-27,0,0,0,0,0,0,0,0,0,-1,1063,1051,0,0
-154,-27,0,0,0,0,0,0,0,0,0,-1,1070,1051,0,0
-147,-27,0,0,0,0,0,0,0,0,0,-1,1077,1051,0,0
-140,-27,0,0,0,0,0,0,0,0,0,-1,1084,1051,0,0
-133,-27,0,0,0,0,0,0,0,0,0,-1,1091,1051,0,0
-126,-27,0,0,0,0,0,0,0,0,0,-1,1098,1051,0,0
-119,-27,0,0,0,0,0,0,0,0,0,-1,1105,1051,0,0
-112,-27,0,0,0,0,0,0,0,0,0,-1,1112,1051,0,0
-105,-27,0,0,0,0,0,0,0,0,0,-1,1119,1051,0,0
-98,-27,0,0,0,0,0,0,0,0,0,-1,1126,1051,0,0
-91,-27,0,0,0,0,0,0,0,0,0,-1,1133,1051,0,0
-84,-27,0,0,0,0,0,0,0,0,0,-1,1140,1051,0,0
-77,-27,0,0,0,0,0,0,0,0,0,-1,1147,1051,0,0
-70,-27,0,0,0,0,0,0,0,0,0,-1,1154,1051,0,0
-63,-27,0,0,0,0,0,0,0,0,0,-1,1161,1051,0,0
-56,-27,0,0,0,0,0,0,0,0,0,-1,1168,1051,0,0
-49,-27,0,0,0,0,0,0,0,0,0,-1,1175,1051,0,0
-42,-27,0,0,0,0,0,0,0,0,0,-1,1182,1051,0,0
-35,-27,0,0,0,0,0,0,0,0,0,-1,1189,1051,0,0
-28,-27,0,0,0,0,0,0,0,0,0,-1,1196,1051,0,0
-21,-27,0,0,0,0,0,0,0,0,0,-1,1203,1051,0,0
-14,-27,0,0,0,0,0,0,0,0,0,-1,1210,1051,0,0
-7,-27,0,0,0,0,0,0,0,0,0,-1,1217,1051,0,0
0,-27,0,0,0,0,0,0,0,0,0,-1,1224,1051,0,0
7,-27,0,0,0,0,0,0,0,0,0,-1,1231,1051,0,0
14,-27,0,0,0,0,0,0,0,0,0,-1,1238,1051,0,0
21,-27,0,0,0,0,0,0,0,0,0,-1,1245,1051,0,0
28,-27,0,0,0,0,0,0,0,0,0,-1,1252,1051,0,0
35,-27,0,0,0,0,0,0,0,0,0,-1,1259,1051,0,0
42,-27,0,0,0,0,0,0,0,0,0,-1,1266,1051,0,0
49,-27,0,0,0,0,0,0,0,0,0,-1,1273,1051,0,0
56,-27,0,0,0,0,0,0,0,0,0,-1,1280,1051,0,0
63,-27,0,0,0,0,0,0,0,0,0,-1,1287,1051,0,0
70,-27,0,0,0,0,0,0,0,0,0,-1,1294,1051,0,0
77,-27,0,0,0,0,0,0,0,0,0,-1,1301,1051,0,0
84,-27,0,0,0,0,0,0,0,0,0,-1,1308,1051,0,0
91,-27,0,0,0,0,0,0,0,0,0,-1,1315,1051,0,0
98,-27,0,0,0,0,0,0,0,0,0,-1,1322,1051,0,0
105,-27,0,0,0,0,0,0,0,0,0,-1,1329,1051,0,0
112,-27,0,0,0,0,0,0,0,0,0,-1,1336,1051,0,0
119,-27,0,0,0,0,0,0,0,0,0,-1,1343,1051,0,0
126,-27,0,0,0,0,0,0,0,0,0,-1,1350,1051,0,0
133,-27,0,0,0,0,0,0,0,0,0,-1,1357,1051,0,0
140,-27,0,0,0,0,0,0,0,0,0,-1,1364,1051,0,0
147,-27,0,0,0,0,0,0,0,0,0,-1,1371,1051,0,0
154,-27,0,0,0,0,0,0,0,0,0,-1,1378,1051,0,0
161,-27,0,0,0,0,0,0,0,0,0,-1,1385,1051,0,0
168,-27,0,0,0,0,0,0,0,0,0,-1,1392,1051,0,0
175,-27,0,0,0,0,0,0,0,0,0,-1,1399,1051,0,0
182,-27,0,0,0,0,0,0,0,0,0,-1,1406,1051,0,0
189,-27,0,0,0,0,0,0,0,0,0,-1,1413,1051,0,0
196,-27,0,0,0,0,0,0,0,0,0,-1,1420,1051,0,0
203,-27,0,0,0,0,0,0,0,0,0,-1,1427,1051,0,0
210,-27,0,0,0,0,0,0,0,0,0,-1,1434,1051,0,0
217,-27,0,0,0,0,0,0,0,0,0,-1,1441,1051,0,0
224,-27,0,0,0,0,0,0,0,0,0,-1,1448,1051,0,0
231,-27,0,0,0,0,0,0,0,0,0,-1,1455,1051,0,0
238,-27,0,0,0,0,0,0,0,0,0,-1,1462,1051,0,0
245,-27,0,0,0,0,0,0,0,0,0,-1,1469,1051,0,0
252,-27,0,0,0,0,0,0,0,0,0,-1,1476,1051,0,0
259,-27,0,0,0,0,0,0,0,0,0,-1,1483,1051,0,0
266,-27,0,0,0,0,0,0,0,0,0,-1,1490,1051,0,0
273,-27,0,0,0,0,0,0,0,0,0,-1,1497,1051,0,0
280,-27,0,0,0,0,0,0,0,0,0,-1,1504,1051,0,0
287,-27,0,0,0,0,0,0,0,0,0,-1,1511,1051,0,0
294,-27,0,0,0,0,0,0,0,0,0,-1,1518,1051,0,0
301,-27,0,0,0,0,0,0,0,0,0,-1,1525,1051,0,0
308,-27,0,0,0,0,0,0,0,0,0,-1,1532,1051,0,0
315,-27,0,0,0,0,0,0,0,0,0,-1,1539,1051,0,0
322,-27,0,0,0,0,0,0,0,0,0,-1,1546,1051,0,0
329,-27,0,0,0,0,0,0,0,0,0,-1,1553,1051,0,0
336,-27,0,0,0,0,0,0,0,0,0,-1,1560,1051,0,0
343,-27,0,0,0,0,0,0,0,0,0,-1,1567,1051,0,0
350,-27,0,0,0,0,0,0,0,0,0,-1,1574,1051,0,0
357,-27,0,0,0,0,0,0,0,0,0,-1,1581,1051,0,0
364,-27,0,0,0,0,0,0,0,0,0,-1,1588,1051,0,0
371,-27,0,0,0,0,0,0,0,0,0,-1,1595,1051,0,0
378,-27,0,0,0,0,0,0,0,0,0,-1,1602,1051,0,0
385,-27,0,0,0,0,0,0,0,0,0,-1,1609,1051,0,0
392,-27,0,0,0,0,0,0,0,0,0,-1,1616,1051,0,0
399,-27,0,0,0,0,0,0,0,0,0,-1,1623,1051,0,0
406,-27,0,0,0,0,0,0,0,0,0,-1,1630,1051,0,0
413,-27,0,0,0,0,0,0,0,0,0,-1,1637,1051,0,0
420,-27,0,0,0,0,0,0,0,0,0,-1,1644,1051,0,0
427,-27,0,0,0,0,0,0,0,0,0,-1,1651,1051,0,0
434,-27,0,0,0,0,0,0,0,0,0,-1,1658,1051,0,0
441,-27,0,0,0,0,0,0,0,0,0,-1,1665,1051,0,0
448,-27,0,0,0,0,0,0,0,0,0,-1,1672,1051,0,0
455,-27,0,0,0,0,0,0,0,0,0,-1,1679,1051,0,0
462,-27,0,0,0,0,0,0,0,0,0,-1,1686,1051,0,0
469,-27,0,0,0,0,0,0,0,0,0,-1,1693,1051,0,0
476,-27,0,0,0,0,0,0,0,0,0,-1,1700,1051,0,0
483,-27,0,0,0,0,0,0,0,0,0,-1,1707,1051,0,0
490,-27,0,0,0,0,0,0,0,0,0,-1,1714,1051,0,0
497,-27,0,0,0,0,0,0,0,0,0,-1,1721,1051,0,0
504,-27,0,0,0,0,0,0,0,0,0,-1,1728,1051,0,0
511,-27,0,0,0,0,0,0,0,0,0,-1,1735,1051,0,0
518,-27,0,0,0,0,0,0,0,0,0,-1,1742,1051,0,0
525,-27,0,0,0,0,0,0,0,0,0,-1,1749,1051,0,0
532,-27,0,0,0,0,0,0,0,0,0,-1,1756,1051,0,0
539,-27,0,0,0,0,0,0,0,0,0,-1,1763,1051,0,0
546,-27,0,0,0,0,0,0,0,0,0,-1,1770,1051,0,0
553,-27,0,0,0,0,0,0,0,0,0,-1,1777,1051,0,0
560,-27,0,0,0,0,0,0,0,0,0,-1,1784,1051,0,0
567,-27,0,0,0,0,0,0,0,0,0,-1,1791,1051,0,0
574,-27,0,0,0,0,0,0,0,0,0,-1,1798,1051,0,0
581,-27,0,0,0,0,0,0,0,0,0,-1,1805,1051,0,0
588,-27,0,0,0,0,0,0,0,0,0,-1,1812,1051,0,0
595,-27,0,0,0,0,0,0,0,0,0,-1,1819,1051,0,0
602,-27,0,0,0,0,0,0,0,0,0,-1,1826,1051,0,0
609,-27,0,0,0,0,0,0,0,0,0,-1,1833,1051,0,0
616,-27,0,0,0,0,0,0,0,0,0,-1,1840,1051,0,0
623,-27,0,0,0,0,0,0,0,0,0,-1,1847,1051,0,0
630,-27,0,0,0,0,0,0,0,0,0,-1,1854,1051,0,0
637,-27,0,0,0,0,0,0,0,0,0,-1,1861,1051,0,0
644,-27,0,0,0,0,0,0,0,0,0,-1,1868,1051,0,0
651,-27,54.9895,2.78186,-0.0019774,0.00389002,0.000181575,0.00389563,-0.00198301,1.53989,0.0034534,0.0397898,1875,1051,54.9895,-2.78183
658,-27,54.8585,2.76001,-0.00193833,0.00222253,0.000502303,0.00228231,-0.00199811,1.45234,0.00247311,0.0389689,1882,1051,54.8585,-2.75995
665,-27,54.7422,2.80786,-0.00164739,0.00116743,0.000748827,0.00135424,-0.0018342,1.32631,0.00184779,0.0380656,1889,1051,54.7422,-2.80786
672,-27,54.7032,2.88232,-0.00126416,0.00050231,0.0010498,0.000991006,-0.00175286,1.13512,0.00160439,0.0290056,1896,1051,54.7032,-2.88232
679,-27,54.7344,2.87292,-0.000823123,7.74328e-05,0.00134187,0.00104255,-0.00178824,0.947275,0.00165316,0.027588,1903,1051,54.7344,-2.87295
686,-27,54.8148,2.94287,-0.000839944,-0.000306197,0.00157236,0.00102177,-0.00216791,0.869461,0.00188078,0.039884,1910,1051,54.8149,-2.94292
693,-27,54.8105,2.8938,-0.00100224,-0.000595243,0.00175709,0.000970095,-0.00256758,0.843049,0.00211075,0.043486,1917,1051,54.8106,-2.89379
700,-27,54.7308,2.79688,-0.00113214,-0.000758076,0.00191561,0.000979607,-0.00286982,0.834062,0.00231006,0.0385379,1924,1051,54.7309,-2.79686
707,-27,54.708,2.84558,-0.00157332,-0.000595782,0.00199095,0.000965519,-0.00313462,0.905766,0.00247518,0.0261551,1931,1051,54.708,-2.8456
714,-27,54.7665,2.96069,-0.00216824,-0.00018485,0.00206582,0.00111497,-0.00346806,1.00918,0.00275983,0.0251237,1938,1051,54.7665,-2.9607
721,-27,54.723,3.10535,0,0,0,0,0,0,0,-1,1945,1051,54.723,-3.10531
728,-27,54.9827,6.6803,0,0,0,0,0,0,0,-1,1952,1051,54.9827,-6.68033
735,-27,54.4655,6.65564,-0.00489247,0.002872,0.00206405,0.00338658,-0.00540705,1.32647,0.00512148,0.0324744,1959,1051,54.4654,-6.65562
742,-27,54.2216,6.53455,-0.00537356,0.00377801,0.00194673,0.0041749,-0.00577046,1.36967,0.00576654,0.02023,1966,1051,54.2215,-6.53455
749,-27,54.2628,6.34216,-0.00610721,0.00498989,0.00198032,0.00533269,-0.00645002,1.39939,0.00681294,0.0160966,1973,1051,54.2629,-6.34213
756,-27,54.2417,6.19141,-0.00668305,0.00694481,0.00228606,0.00731807,-0.00705631,1.40895,0.00829951,0.0153896,1980,1051,54.2417,-6.19138
763,-27,54.1716,6.02466,-0.00683402,0.00909288,0.0026588,0.00952501,-0.00726615,1.40968,0.00972358,0.0164154,1987,1051,54.1717,-6.02461
770,-27,54.1118,5.84607,-0.00635688,0.0118262,0.00310487,0.0123417,-0.00687244,1.40625,0.0112421,0.0172539,1994,1051,54.1117,-5.84602
777,-27,54.0229,5.7854,-0.00488418,0.0149916,0.00405902,0.0157886,-0.00568116,1.37692,0.0128453,0.0188771,2001,1051,54.0228,-5.78543
784,-27,53.9751,5.77942,-0.00293736,0.0181173,0.00536426,0.0194053,-0.00422527,1.33517,0.0145512,0.029181,2008,1051,53.9751,-5.77946
791,-27,54.1262,5.93127,-0.000433251,0.0212288,0.00723178,0.0234212,-0.00262565,1.27644,0.0165589,0.0441444,2015,1051,54.1262,-5.93127
798,-27,54.4861,5.92944,0,0,0,0,0,0,0,-1,2022,1051,54.4861,-5.92943
805,-27,54.4531,4.81104,0.0079994,0.027928,0.013347,0.0346199,0.00130749,1.10605,0.0226567,0.0450373,2029,1051,54.4531,-4.811
812,-27,54.6355,4.93872,0.0139023,0.0317838,0.0180783,0.0430114,0.00267471,1.01504,0.0278256,0.0459098,2036,1051,54.6355,-4.93868
-700,-34,-41.9511,-3.81104,0,0,0,0,0,0,0,-1,524,1058,-41.9511,3.81103
-693,-34,-43.2402,-2.89075,0,0,0,0,0,0,0,-1,531,1058,-43.2402,2.89077
-686,-34,-42.6936,-2.25745,0.0540333,0.121268,0.0438167,0.142878,0.0324236,1.11262,0.086494,0.0483048,538,1058,-42.6936,2.25745
-679,-34,-42.1387,-1.65393,0.046997,0.104548,0.0377601,0.123248,0.0282978,1.11099,0.0745449,0.0440619,545,1058,-42.1387,1.65394
-672,-34,-41.4721,-0.903809,0.039318,0.0885903,0.0318865,0.104249,0.0236591,1.11431,0.0631091,0.0442194,552,1058,-41.4721,0.903749
-665,-34,-40.8886,-0.205566,0.0318913,0.0734302,0.0262816,0.0861584,0.0191631,1.11979,0.0522363,0.0428864,559,1058,-40.8886,0.205622
-658,-34,-40.6644,2.48779,0.0250191,0.059226,0.0209818,0.0691921,0.0150529,1.12736,0.042019,0.0440244,566,1058,-40.6644,-2.48778
-651,-34,-40.4423,2.62341,0.0188772,0.0462227,0.0160441,0.0536298,0.0114702,1.13828,0.0326093,0.0319539,573,1058,-40.4423,-2.62339
-644,-34,-40.5569,2.65198,0.0134731,0.0346678,0.0113512,0.0395996,0.00854126,1.16093,0.0240634,0.0162318,580,1058,-40.5569,-2.65196
-637,-34,-40.5823,2.86401,0.00885493,0.0219538,0.00632987,0.0245127,0.00629601,1.18662,0.0146997,0.017442,587,1058,-40.5823,-2.86404
-630,-34,-40.6074,3.18469,0.00492888,0.012973,0.00277476,0.0138373,0.0040646,1.26884,0.00821243,0.0188433,594,1058,-40.6074,-3.1847
-623,-34,-40.6053,3.45605,0.00262663,0.00831675,0.000663558,0.00839311,0.00255028,1.45623,0.0049685,0.015116,601,1058,-40.6053,-3.45611
-616,-34,-40.566,3.75952,0.00156615,0.00423893,-0.000874828,0.0044998,0.00130527,-1.28099,0.0026732,0.0216271,608,1058,-40.566,-3.75955
-609,-34,-40.5622,3.9895,0.00112296,0.00157841,-0.00203906,0.00340243,-0.000701055,-0.841008,0.0025345,0.0198714,615,1058,-40.5622,-3.98951
-602,-34,-40.5912,4.14771,0.00104529,-0.000144692,-0.00284114,0.00335307,-0.00245247,-0.68218,0.00336525,0.0164398,622,1058,-40.5912,-4.14768
-595,-34,-40.6994,4.33582,0.00115177,-0.000871861,-0.00304905,0.0033525,-0.00307259,-0.625192,0.00371071,0.017716,629,1058,-40.6994,-4.33576
-588,-34,-40.9834,4.49194,0,0,0,0,0,0,0,-1,636,1058,-40.9834,-4.49193
-581,-34,-40.8708,0.994263,0.00171426,-0.00203054,-0.00230247,0.00280956,-0.00312584,-0.444025,0.00342842,0.0227877,643,1058,-40.8708,-0.994288
-574,-34,-40.8279,1.26611,0.00176145,-0.00222266,-0.00189796,0.00252086,-0.00298206,-0.380607,0.00318083,0.0343631,650,1058,-40.8279,-1.26605
-567,-34,-40.801,1.32202,0.00150101,-0.00211596,-0.001347,0.00194753,-0.00256247,-0.320089,0.0026119,0.0406547,657,1058,-40.8011,-1.32206
-560,-34,-40.8775,1.26123,0.0010018,-0.0017718,-0.000603054,0.00112724,-0.00189724,-0.205094,0.00176495,0.0421202,664,1058,-40.8775,-1.26117
-553,-34,-40.9304,0.837158,0.000350999,-0.0013598,0.000382544,0.000432642,-0.00144144,0.210266,0.00113305,0.0446247,671,1058,-40.9303,-0.83713
-546,-34,-40.976,0.7677,-0.000321073,-0.00115556,0.00163466,0.00094875,-0.00242538,0.660442,0.00200928,0.0442492,678,1058,-40.976,-0.767695
-539,-34,-40.9443,0.925293,-0.00090716,-0.00151452,0.00274972,0.0015556,-0.00397728,0.730401,0.00329482,0.0419299,685,1058,-40.9443,-0.92529
-532,-34,-40.9377,0.989624,-0.00120838,-0.00175893,0.00444466,0.00296952,-0.00593683,0.754471,0.00523635,0.0415768,692,1058,-40.9378,-0.989597
-525,-34,0,0,0,0,0,0,0,0,0,-1,699,1058,0,0
-518,-34,0,0,0,0,0,0,0,0,0,-1,706,1058,0,0
-511,-34,0,0,0,0,0,0,0,0,0,-1,713,1058,0,0
-504,-34,0,0,0,0,0,0,0,0,0,-1,720,1058,0,0
-497,-34,0,0,0,0,0,0,0,0,0,-1,727,1058,0,0
-490,-34,0,0,0,0,0,0,0,0,0,-1,734,1058,0,0
-483,-34,0,0,0,0,0,0,0,0,0,-1,741,1058,0,0
-476,-34,0,0,0,0,0,0,0,0,0,-1,748,1058,0,0
-469,-34,0,0,0,0,0,0,0,0,0,-1,755,1058,0,0
-462,-34,0,0,0,0,0,0,0,0,0,-1,762,1058,0,0
-455,-34,0,0,0,0,0,0,0,0,0,-1,769,1058,0,0
-448,-34,0,0,0,0,0,0,0,0,0,-1,776,1058,0,0
-441,-34,0,0,0,0,0,0,0,0,0,-1,783,1058,0,0
-434,-34,0,0,0,0,0,0,0,0,0,-1,790,1058,0,0
-427,-34,0,0,0,0,0,0,0,0,0,-1,797,1058,0,0
-420,-34,0,0,0,0,0,0,0,0,0,-1,804,1058,0,0
-413,-34,0,0,0,0,0,0,0,0,0,-1,811,1058,0,0
-406,-34,0,0,0,0,0,0,0,0,0,-1,818,1058,0,0
-399,-34,0,0,0,0,0,0,0,0,0,-1,825,1058,0,0
-392,-34,0,0,0,0,0,0,0,0,0,-1,832,1058,0,0
-385,-34,0,0,0,0,0,0,0,0,0,-1,839,1058,0,0
-378,-34,0,0,0,0,0,0,0,0,0,-1,846,1058,0,0
-371,-34,0,0,0,0,0,0,0,0,0,-1,853,1058,0,0
-364,-34,0,0,0,0,0,0,0,0,0,-1,860,1058,0,0
-357,-34,0,0,0,0,0,0,0,0,0,-1,867,1058,0,0
-350,-34,0,0,0,0,0,0,0,0,0,-1,874,1058,0,0
-343,-34,0,0,0,0,0,0,0,0,0,-1,881,1058,0,0
-336,-34,0,0,0,0,0,0,0,0,0,-1,888,1058,0,0
-329,-34,0,0,0,0,0,0,0,0,0,-1,895,1058,0,0
-322,-34,0,0,0,0,0,0,0,0,0,-1,902,1058,0,0
-315,-34,0,0,0,0,0,0,0,0,0,-1,909,1058,0,0
-308,-34,0,0,0,0,0,0,0,0,0,-1,916,1058,0,0
-301,-34,0,0,0,0,0,0,0,0,0,-1,923,1058,0,0
-294,-34,0,0,0,0,0,0,0,0,0,-1,930,1058,0,0
-287,-34,0,0,0,0,0,0,0,0,0,-1,937,1058,0,0
-280,-34,0,0,0,0,0,0,0,0,0,-1,944,1058,0,0
-273,-34,0,0,0,0,0,0,0,0,0,-1,951,1058,0,0
-266,-34,0,0,0,0,0,0,0,0,0,-1,958,1058,0,0
-259,-34,0,0,0,0,0,0,0,0,0,-1,965,1058,0,0
-252,-34,0,0,0,0,0,0,0,0,0,-1,972,1058,0,0
-245,-34,0,0,0,0,0,0,0,0,0,-1,979,1058,0,0
-238,-34,0,0,0,0,0,0,0,0,0,-1,986,1058,0,0
-231,-34,0,0,0,0,0,0,0,0,0,-1,993,1058,0,0
-224,-34,0,0,0,0,0,0,0,0,0,-1,1000,1058,0,0
-217,-34,0,0,0,0,0,0,0,0,0,-1,1007,1058,0,0
-210,-34,0,0,0,0,0,0,0,0,0,-1,1014,1058,0,0
-203,-34,0,0,0,0,0,0,0,0,0,-1,1021,1058,0,0
-196,-34,0,0,0,0,0,0,0,0,0,-1,1028,1058,0,0
-189,-34,0,0,0,0,0,0,0,0,0,-1,1035,1058,0,0
-182,-34,0,0,0,0,0,0,0,0,0,-1,1042,1058,0,0
-175,-34,0,0,0,0,0,0,0,0,0,-1,1049,1058,0,0
-168,-34,0,0,0,0,0,0,0,0,0,-1,1056,1058,0,0
-161,-34,0,0,0,0,0,0,0,0,0,-1,1063,1058,0,0
-154,-34,0,0,0,0,0,0,0,0,0,-1,1070,1058,0,0
-147,-34,0,0,0,0,0,0,0,0,0,-1,1077,1058,0,0
-140,-34,0,0,0,0,0,0,0,0,0,-1,1084,1058,0,0
-133,-34,0,0,0,0,0,0,0,0,0,-1,1091,1058,0,0
-126,-34,0,0,0,0,0,0,0,0,0,-1,1098,1058,0,0
-119,-34,0,0,0,0,0,0,0,0,0,-1,1105,1058,0,0
-112,-34,0,0,0,0,0,0,0,0,0,-1,1112,1058,0,0
-105,-34,0,0,0,0,0,0,0,0,0,-1,1119,1058,0,0
-98,-34,0,0,0,0,0,0,0,0,0,-1,1126,1058,0,0
-91,-34,0,0,0,0,0,0,0,0,0,-1,1133,1058,0,0
-84,-34,0,0,0,0,0,0,0,0,0,-1,1140,1058,0,0
-77,-34,0,0,0,0,0,0,0,0,0,-1,1147,1058,0,0
-70,-34,0,0,0,0,0,0,0,0,0,-1,1154,1058,0,0
-63,-34,0,0,0,0,0,0,0,0,0,-1,1161,1058,0,0
-56,-34,0,0,0,0,0,0,0,0,0,-1,1168,1058,0,0
-49,-34,0,0,0,0,0,0,0,0,0,-1,1175,1058,0,0
-42,-34,0,0,0,0,0,0,0,0,0,-1,1182,1058,0,0
-35,-34,0,0,0,0,0,0,0,0,0,-1,1189,1058,0,0
-28,-34,0,0,0,0,0,0,0,0,0,-1,1196,1058,0,0
-21,-34,0,0,0,0,0,0,0,0,0,-1,1203,1058,0,0
-14,-34,0,0,0,0,0,0,0,0,0,-1,1210,1058,0,0
-7,-34,0,0,0,0,0,0,0,0,0,-1,1217,1058,0,0
0,-34,0,0,0,0,0,0,0,0,0,-1,1224,1058,0,0
7,-34,0,0,0,0,0,0,0,0,0,-1,1231,1058,0,0
14,-34,0,0,0,0,0,0,0,0,0,-1,1238,1058,0,0
21,-34,0,0,0,0,0,0,0,0,0,-1,1245,1058,0,0
28,-34,0,0,0,0,0,0,0,0,0,-1,1252,1058,0,0
35,-34,0,0,0,0,0,0,0,0,0,-1,1259,1058,0,0
42,-34,0,0,0,0,0,0,0,0,0,-1,1266,1058,0,0
49,-34,0,0,0,0,0,0,0,0,0,-1,1273,1058,0,0
56,-34,0,0,0,0,0,0,0,0,0,-1,1280,1058,0,0
63,-34,0,0,0,0,0,0,0,0,0,-1,1287,1058,0,0
70,-34,0,0,0,0,0,0,0,0,0,-1,1294,1058,0,0
77,-34,0,0,0,0,0,0,0,0,0,-1,1301,1058,0,0
84,-34,0,0,0,0,0,0,0,0,0,-1,1308,1058,0,0
91,-34,0,0,0,0,0,0,0,0,0,-1,1315,1058,0,0
98,-34,0,0,0,0,0,0,0,0,0,-1,1322,1058,0,0
105,-34,0,0,0,0,0,0,0,0,0,-1,1329,1058,0,0
112,-34,0,0,0,0,0,0,0,0,0,-1,1336,1058,0,0
119,-34,0,0,0,0,0,0,0,0,0,-1,1343,1058,0,0
126,-34,0,0,0,0,0,0,0,0,0,-1,1350,1058,0,0
133,-34,0,0,0,0,0,0,0,0,0,-1,1357,1058,0,0
140,-34,0,0,0,0,0,0,0,0,0,-1,1364,1058,0,0
147,-34,0,0,0,0,0,0,0,0,0,-1,1371,1058,0,0
154,-34,0,0,0,0,0,0,0,0,0,-1,1378,1058,0,0
161,-34,0,0,0,0,0,0,0,0,0,-1,1385,1058,0,0
168,-34,0,0,0,0,0,0,0,0,0,-1,1392,1058,0,0
175,-34,0,0,0,0,0,0,0,0,0,-1,1399,1058,0,0
182,-34,0,0,0,0,0,0,0,0,0,-1,1406,1058,0,0
189,-34,0,0,0,0,0,0,0,0,0,-1,1413,1058,0,0
196,-34,0,0,0,0,0,0,0,0,0,-1,1420,1058,0,0
203,-34,0,0,0,0,0,0,0,0,0,-1,1427,1058,0,0
210,-34,0,0,0,0,0,0,0,0,0,-1,1434,1058,0,0
217,-34,0,0,0,0,0,0,0,0,0,-1,1441,1058,0,0
224,-34,0,0,0,0,0,0,0,0,0,-1,1448,1058,0,0
231,-34,0,0,0,0,0,0,0,0,0,-1,1455,1058,0,0
238,-34,0,0,0,0,0,0,0,0,0,-1,1462,1058,0,0
245,-34,0,0,0,0,0,0,0,0,0,-1,1469,1058,0,0
252,-34,0,0,0,0,0,0,0,0,0,-1,1476,1058,0,0
259,-34,0,0,0,0,0,0,0,0,0,-1,1483,1058,0,0
266,-34,0,0,0,0,0,0,0,0,0,-1,1490,1058,0,0
273,-34,0,0,0,0,0,0,0,0,0,-1,1497,1058,0,0
280,-34,0,0,0,0,0,0,0,0,0,-1,1504,1058,0,0
287,-34,0,0,0,0,0,0,0,0,0,-1,1511,1058,0,0
294,-34,0,0,0,0,0,0,0,0,0,-1,1518,1058,0,0
301,-34,0,0,0,0,0,0,0,0,0,-1,1525,1058,0,0
308,-34,0,0,0,0,0,0,0,0,0,-1,1532,1058,0,0
315,-34,0,0,0,0,0,0,0,0,0,-1,1539,1058,0,0
322,-34,0,0,0,0,0,0,0,0,0,-1,1546,1058,0,0
329,-34,0,0,0,0,0,0,0,0,0,-1,1553,1058,0,0
336,-34,0,0,0,0,0,0,0,0,0,-1,1560,1058,0,0
343,-34,0,0,0,0,0,0,0,0,0,-1,1567,1058,0,0
350,-34,0,0,0,0,0,0,0,0,0,-1,1574,1058,0,0
357,-34,0,0,0,0,0,0,0,0,0,-1,1581,1058,0,0
364,-34,0,0,0,0,0,0,0,0,0,-1,1588,1058,0,0
371,-34,0,0,0,0,0,0,0,0,0,-1,1595,1058,0,0
378,-34,0,0,0,0,0,0,0,0,0,-1,1602,1058,0,0
385,-34,0,0,0,0,0,0,0,0,0,-1,1609,1058,0,0
392,-34,0,0,0,0,0,0,0,0,0,-1,1616,1058,0,0
399,-34,0,0,0,0,0,0,0,0,0,-1,1623,1058,0,0
406,-34,0,0,0,0,0,0,0,0,0,-1,1630,1058,0,0
413,-34,0,0,0,0,0,0,0,0,0,-1,1637,1058,0,0
420,-34,0,0,0,0,0,0,0,0,0,-1,1644,1058,0,0
427,-34,0,0,0,0,0,0,0,0,0,-1,1651,1058,0,0
434,-34,0,0,0,0,0,0,0,0,0,-1,1658,1058,0,0
441,-34,0,0,0,0,0,0,0,0,0,-1,1665,1058,0,0
448,-34,0,0,0,0,0,0,0,0,0,-1,1672,1058,0,0
455,-34,0,0,0,0,0,0,0,0,0,-1,1679,1058,0,0
462,-34,0,0,0,0,0,0,0,0,0,-1,1686,1058,0,0
469,-34,0,0,0,0,0,0,0,0,0,-1,1693,1058,0,0
476,-34,0,0,0,0,0,0,0,0,0,-1,1700,1058,0,0
483,-34,0,0,0,0,0,0,0,0,0,-1,1707,1058,0,0
490,-34,0,0,0,0,0,0,0,0,0,-1,1714,1058,0,0
497,-34,0,0,0,0,0,0,0,0,0,-1,1721,1058,0,0
504,-34,0,0,0,0,0,0,0,0,0,-1,1728,1058,0,0
511,-34,0,0,0,0,0,0,0,0,0,-1,1735,1058,0,0
518,-34,0,0,0,0,0,0,0,0,0,-1,1742,1058,0,0
525,-34,0,0,0,0,0,0,0,0,0,-1,1749,1058,0,0
532,-34,0,0,0,0,0,0,0,0,0,-1,1756,1058,0,0
539,-34,0,0,0,0,0,0,0,0,0,-1,1763,1058,0,0
546,-34,0,0,0,0,0,0,0,0,0,-1,1770,1058,0,0
553,-34,0,0,0,0,0,0,0,0,0,-1,1777,1058,0,0
560,-34,0,0,0,0,0,0,0,0,0,-1,1784,1058,0,0
567,-34,0,0,0,0,0,0,0,0,0,-1,1791,1058,0,0
574,-34,0,0,0,0,0,0,0,0,0,-1,1798,1058,0,0
581,-34,0,0,0,0,0,0,0,0,0,-1,1805,1058,0,0
588,-34,0,0,0,0,0,0,0,0,0,-1,1812,1058,0,0
595,-34,0,0,0,0,0,0,0,0,0,-1,1819,1058,0,0
602,-34,0,0,0,0,0,0,0,0,0,-1,1826,1058,0,0
609,-34,0,0,0,0,0,0,0,0,0,-1,1833,1058,0,0
616,-34,0,0,0,0,0,0,0,0,0,-1,1840,1058,0,0
623,-34,0,0,0,0,0,0,0,0,0,-1,1847,1058,0,0
630,-34,0,0,0,0,0,0,0,0,0,-1,1854,1058,0,0
637,-34,0,0,0,0,0,0,0,0,0,-1,1861,1058,0,0
644,-34,0,0,0,0,0,0,0,0,0,-1,1868,1058,0,0
651,-34,54.8831,2.73242,-0.00184145,0.0035188,-0.00017731,0.00352466,-0.00184731,-1.53777,0.0031515,0.0383177,1875,1058,54.8831,-2.73244
658,-34,54.842,2.75879,-0.00165613,0.0018718,0.00035961,0.00190808,-0.00169241,1.47024,0.00207999,0.0417628,1882,1058,54.842,-2.75883
665,-34,54.726,2.90759,-0.00130925,0.000834246,0.000717802,0.00105241,-0.00152742,1.27573,0.00149786,0.0411839,1889,1058,54.7259,-2.90756
672,-34,54.7927,2.87463,-0.000930498,0.000173912,0.00109313,0.000846401,-0.00160299,1.01928,0.00143647,0.0373762,1896,1058,54.7927,-2.87463
679,-34,55.136,2.15637,0,0,0,0,0,0,0,-1,1903,1058,55.136,-2.15633
686,-34,54.7643,2.65271,-0.000592801,-0.00062915,0.00170369,0.00109281,-0.00231476,0.780064,0.00200908,0.0417612,1910,1058,54.7642,-2.6527
693,-34,54.7167,2.9502,-0.000791473,-0.000904291,0.0019235,0.00107645,-0.00277221,0.770739,0.00229279,0.0423284,1917,1058,54.7167,-2.95025
700,-34,54.7072,2.86975,-0.000937923,-0.00102843,0.00212056,0.00113787,-0.00310422,0.77473,0.00253536,0.0407334,1924,1058,54.7071,-2.86972
707,-34,54.7087,2.83215,-0.00136494,-0.000880074,0.00224786,0.00113839,-0.00338341,0.839116,0.0027158,0.0268223,1931,1058,54.7088,-2.83213
714,-34,54.718,2.96167,-0.00192701,-0.000522133,0.00235322,0.00123125,-0.0036804,0.930439,0.00295092,0.0210727,1938,1058,54.7181,-2.9617
721,-34,54.7106,3.12305,0,0,0,0,0,0,0,-1,1945,1058,54.7106,-3.12301
728,-34,54.3538,6.80823,0,0,0,0,0,0,0,-1,1952,1058,54.3538,-6.8082
735,-34,54.1254,6.71387,-0.00447752,0.00244139,0.00248785,0.00324307,-0.00527919,1.25907,0.00496692,0.0208368,1959,1058,54.1254,-6.71382
742,-34,53.9985,6.5354,-0.00492204,0.00331129,0.0024415,0.00398084,-0.00559159,1.30314,0.00555267,0.0173209,1966,1058,53.9985,-6.5354
749,-34,54.0204,6.34766,-0.00558016,0.00443666,0.00252426,0.00503681,-0.00618032,1.33737,0.00648742,0.0152195,1973,1058,54.0204,-6.34771
756,-34,54.0306,6.14746,-0.00611194,0.00625691,0.00285327,0.00688338,-0.00673841,1.35466,0.00786469,0.0116308,1980,1058,54.0307,-6.14744
763,-34,53.9706,5.95825,-0.00629007,0.00818875,0.0032336,0.0088781,-0.00697942,1.36076,0.0091772,0.0133658,1987,1058,53.9705,-5.95825
770,-34,53.8867,5.76855,-0.00594074,0.0106335,0.00364266,0.0113987,-0.00670599,1.36373,0.0105692,0.018746,1994,1058,53.8868,-5.76853
777,-34,53.7573,5.66687,-0.00477406,0.0133147,0.00451414,0.0143787,-0.00583801,1.33933,0.0120143,0.0199855,2001,1058,53.7574,-5.66687
784,-34,53.7585,5.75061,-0.00319628,0.0158392,0.00567948,0.017405,-0.00476203,1.30179,0.0134742,0.0389889,2008,1058,53.7585,-5.75059
791,-34,53.8738,5.82471,0,0,0,0,0,0,0,-1,2015,1058,53.8737,-5.82475
798,-34,54.2603,4.50281,0.00183491,0.0202628,0.00954051,0.0243123,-0.00221456,1.16939,0.0169945,0.0442921,2022,1058,54.2602,-4.50287
805,-34,54.2432,4.03198,0.00612421,0.022292,0.0125506,0.0291368,-0.000720597,1.07151,0.0196691,0.0473857,2029,1058,54.2432,-4.03195
812,-34,54.4636,4.48083,0,0,0,0,0,0,0,-1,2036,1058,54.4636,-4.48083
-700,-41,-41.1563,-4.41406,0,0,0,0,0,0,0,-1,524,1065,-41.1563,4.41401
-693,-41,-40.9637,-3.88904,0,0,0,0,0,0,0,-1,531,1065,-40.9638,3.88909
-686,-41,-42.2223,-2.16455,0,0,0,0,0,0,0,-1,538,1065,-42.2223,2.16456
-679,-41,-41.766,-1.69568,0.0437567,0.0779022,0.0285199,0.0940689,0.02759,1.0551,0.0558363,0.0444517,545,1065,-41.766,1.69568
-672,-41,-40.9403,-0.813232,0.0372978,0.0672523,0.0247504,0.0812043,0.0233458,1.05749,0.0482742,0.0451045,552,1065,-40.9403,0.813237
-665,-41,-40.7532,0.704834,0,0,0,0,0,0,0,-1,559,1065,-40.7533,-0.70481
-658,-41,-40.3922,1.49011,0,0,0,0,0,0,0,-1,566,1065,-40.3922,-1.49011
-651,-41,-40.035,2.09619,0,0,0,0,0,0,0,-1,573,1065,-40.035,-2.09614
-644,-41,-40.2692,2.57483,0.0129274,0.0280416,0.00943259,0.032571,0.00839799,1.12313,0.0195262,0.0181514,580,1065,-40.2692,-2.57485
-637,-41,-40.3173,2.82861,0.00849747,0.0185094,0.00547614,0.0209229,0.00608402,1.15568,0.0124273,0.018859,587,1065,-40.3173,-2.8286
-630,-41,-40.311,3.12512,0.0047259,0.0113283,0.00248752,0.0121606,0.00389362,1.24792,0.00717066,0.0158756,594,1065,-40.3109,-3.12518
-623,-41,-40.3148,3.40527,0.00247759,0.00723871,0.000641819,0.00732371,0.00239259,1.43912,0.00431219,0.0133603,601,1065,-40.3147,-3.40526
-616,-41,-40.3095,3.73315,0.00156816,0.00357488,-0.000642574,0.00376301,0.00138004,-1.28599,0.00219814,0.0165521,608,1065,-40.3095,-3.73313
-609,-41,-40.2839,4.00354,0.00124516,0.00120962,-0.00162741,0.0028549,-0.000400119,-0.779938,0.0020497,0.021703,615,1065,-40.2838,-4.00353
-602,-41,-40.3066,4.22144,0.00116977,-0.000450476,-0.00238736,0.00288071,-0.00216142,-0.621825,0.00292093,0.0143099,622,1065,-40.3066,-4.22145
-595,-41,-40.4792,4.41638,0.00126838,-0.00118778,-0.00257186,0.00289032,-0.00280972,-0.562652,0.00329103,0.0235056,629,1065,-40.4792,-4.41633
-588,-41,-40.7324,2.52026,0,0,0,0,0,0,0,-1,636,1065,-40.7324,-2.52021
-581,-41,-40.9206,0.766479,0,0,0,0,0,0,0,-1,643,1065,-40.9206,-0.7665
-574,-41,-40.8753,1.13147,0.00182652,-0.00250561,-0.00151301,0.00230262,-0.00298171,-0.30486,0.0030593,0.0391919,650,1065,-40.8753,-1.1315
-567,-41,-40.8333,1.19263,0.00159479,-0.00244216,-0.00102006,0.0018379,-0.00268527,-0.233964,0.00262668,0.0405507,657,1065,-40.8333,-1.19259
-560,-41,-40.7123,1.04834,0.00112297,-0.00217637,-0.000375168,0.00116509,-0.00221849,-0.111809,0.00198482,0.0404782,664,1065,-40.7123,-1.04838
-553,-41,-40.8932,0.848999,0.000524663,-0.00186001,0.000450674,0.000606992,-0.00194234,0.180688,0.00153769,0.0426545,671,1065,-40.8932,-0.848983
-546,-41,-40.955,0.833984,-7.3161e-05,-0.00175783,0.00146387,0.000773424,-0.00260442,0.524325,0.00204347,0.0397011,678,1065,-40.955,-0.833977
-539,-41,-40.962,0.971069,-0.000549905,-0.0023346,0.00230494,0.00102939,-0.0039139,0.60071,0.00301162,0.0387504,685,1065,-40.962,-0.971129
-532,-41,-41.0058,1.11694,-0.000745112,-0.00273224,0.0036548,0.00204877,-0.00552612,0.65268,0.00452436,0.0402008,692,1065,-41.0058,-1.117
-525,-41,0,0,0,0,0,0,0,0,0,-1,699,1065,0,0
-518,-41,0,0,0,0,0,0,0,0,0,-1,706,1065,0,0
-511,-41,0,0,0,0,0,0,0,0,0,-1,713,1065,0,0
-504,-41,0,0,0,0,0,0,0,0,0,-1,720,1065,0,0
-497,-41,0,0,0,0,0,0,0,0,0,-1,727,1065,0,0
-490,-41,0,0,0,0,0,0,0,0,0,-1,734,1065,0,0
-483,-41,0,0,0,0,0,0,0,0,0,-1,741,1065,0,0
-476,-41,0,0,0,0,0,0,0,0,0,-1,748,1065,0,0
-469,-41,0,0,0,0,0,0,0,0,0,-1,755,1065,0,0
-462,-41,0,0,0,0,0,0,0,0,0,-1,762,1065,0,0
-455,-41,0,0,0,0,0,0,0,0,0,-1,769,1065,0,0
-448,-41,0,0,0,0,0,0,0,0,0,-1,776,1065,0,0
-441,-41,0,0,0,0,0,0,0,0,0,-1,783,1065,0,0
-434,-41,0,0,0,0,0,0,0,0,0,-1,790,1065,0,0
-427,-41,0,0,0,0,0,0,0,0,0,-1,797,1065,0,0
-420,-41,0,0,0,0,0,0,0,0,0,-1,804,1065,0,0
-413,-41,0,0,0,0,0,0,0,0,0,-1,811,1065,0,0
-406,-41,0,0,0,0,0,0,0,0,0,-1,818,1065,0,0
-399,-41,0,0,0,0,0,0,0,0,0,-1,825,1065,0,0
-392,-41,0,0,0,0,0,0,0,0,0,-1,832,1065,0,0
-385,-41,0,0,0,0,0,0,0,0,0,-1,839,1065,0,0
-378,-41,0,0,0,0,0,0,0,0,0,-1,846,1065,0,0
-371,-41,0,0,0,0,0,0,0,0,0,-1,853,1065,0,0
-364,-41,0,0,0,0,0,0,0,0,0,-1,860,1065,0,0
-357,-41,0,0,0,0,0,0,0,0,0,-1,867,1065,0,0
-350,-41,0,0,0,0,0,0,0,0,0,-1,874,1065,0,0
-343,-41,0,0,0,0,0,0,0,0,0,-1,881,1065,0,0
-336,-41,0,0,0,0,0,0,0,0,0,-1,888,1065,0,0
-329,-41,0,0,0,0,0,0,0,0,0,-1,895,1065,0,0
-322,-41,0,0,0,0,0,0,0,0,0,-1,902,1065,0,0
-315,-41,0,0,0,0,0,0,0,0,0,-1,909,1065,0,0
-308,-41,0,0,0,0,0,0,0,0,0,-1,916,1065,0,0
-301,-41,0,0,0,0,0,0,0,0,0,-1,923,1065,0,0
-294,-41,0,0,0,0,0,0,0,0,0,-1,930,1065,0,0
-287,-41,0,0,0,0,0,0,0,0,0,-1,937,1065,0,0
-280,-41,0,0,0,0,0,0,0,0,0,-1,944,1065,0,0
-273,-41,0,0,0,0,0,0,0,0,0,-1,951,1065,0,0
-266,-41,0,0,0,0,0,0,0,0,0,-1,958,1065,0,0
-259,-41,0,0,0,0,0,0,0,0,0,-1,965,1065,0,0
-252,-41,0,0,0,0,0,0,0,0,0,-1,972,1065,0,0
-245,-41,0,0,0,0,0,0,0,0,0,-1,979,1065,0,0
-238,-41,0,0,0,0,0,0,0,0,0,-1,986,1065,0,0
-231,-41,0,0,0,0,0,0,0,0,0,-1,993,1065,0,0
-224,-41,0,0,0,0,0,0,0,0,0,-1,1000,1065,0,0
-217,-41,0,0,0,0,0,0,0,0,0,-1,1007,1065,0,0
-210,-41,0,0,0,0,0,0,0,0,0,-1,1014,1065,0,0
-203,-41,0,0,0,0,0,0,0,0,0,-1,1021,1065,0,0
-196,-41,0,0,0,0,0,0,0,0,0,-1,1028,1065,0,0
-189,-41,0,0,0,0,0,0,0,0,0,-1,1035,1065,0,0
-182,-41,0,0,0,0,0,0,0,0,0,-1,1042,1065,0,0
-175,-41,0,0,0,0,0,0,0,0,0,-1,1049,1065,0,0
-168,-41,0,0,0,0,0,0,0,0,0,-1,1056,1065,0,0
-161,-41,0,0,0,0,0,0,0,0,0,-1,1063,1065,0,0
-154,-41,0,0,0,0,0,0,0,0,0,-1,1070,1065,0,0
-147,-41,0,0,0,0,0,0,0,0,0,-1,1077,1065,0,0
-140,-41,0,0,0,0,0,0,0,0,0,-1,1084,1065,0,0
-133,-41,0,0,0,0,0,0,0,0,0,-1,1091,1065,0,0
-126,-41,0,0,0,0,0,0,0,0,0,-1,1098,1065,0,0
-119,-41,0,0,0,0,0,0,0,0,0,-1,1105,1065,0,0
-112,-41,0,0,0,0,0,0,0,0,0,-1,1112,1065,0,0
-105,-41,0,0,0,0,0,0,0,0,0,-1,1119,1065,0,0
-98,-41,0,0,0,0,0,0,0,0,0,-1,1126,1065,0,0
-91,-41,0,0,0,0,0,0,0,0,0,-1,1133,1065,0,0
-84,-41,0,0,0,0,0,0,0,0,0,-1,1140,1065,0,0
-77,-41,0,0,0,0,0,0,0,0,0,-1,1147,1065,0,0
-70,-41,0,0,0,0,0,0,0,0,0,-1,1154,1065,0,0
-63,-41,0,0,0,0,0,0,0,0,0,-1,1161,1065,0,0
-56,-41,0,0,0,0,0,0,0,0,0,-1,1168,1065,0,0
-49,-41,0,0,0,0,0,0,0,0,0,-1,1175,1065,0,0
-42,-41,0,0,0,0,0,0,0,0,0,-1,1182,1065,0,0
-35,-41,0,0,0,0,0,0,0,0,0,-1,1189,1065,0,0
-28,-41,0,0,0,0,0,0,0,0,0,-1,1196,1065,0,0
-21,-41,0,0,0,0,0,0,0,0,0,-1,1203,1065,0,0
-14,-41,0,0,0,0,0,0,0,0,0,-1,1210,1065,0,0
-7,-41,0,0,0,0,0,0,0,0,0,-1,1217,1065,0,0
0,-41,0,0,0,0,0,0,0,0,0,-1,1224,1065,0,0
7,-41,0,0,0,0,0,0,0,0,0,-1,1231,1065,0,0
14,-41,0,0,0,0,0,0,0,0,0,-1,1238,1065,0,0
21,-41,0,0,0,0,0,0,0,0,0,-1,1245,1065,0,0
28,-41,0,0,0,0,0,0,0,0,0,-1,1252,1065,0,0
35,-41,0,0,0,0,0,0,0,0,0,-1,1259,1065,0,0
42,-41,0,0,0,0,0,0,0,0,0,-1,1266,1065,0,0
49,-41,0,0,0,0,0,0,0,0,0,-1,1273,1065,0,0
56,-41,0,0,0,0,0,0,0,0,0,-1,1280,1065,0,0
63,-41,0,0,0,0,0,0,0,0,0,-1,1287,1065,0,0
70,-41,0,0,0,0,0,0,0,0,0,-1,1294,1065,0,0
77,-41,0,0,0,0,0,0,0,0,0,-1,1301,1065,0,0
84,-41,0,0,0,0,0,0,0,0,0,-1,1308,1065,0,0
91,-41,0,0,0,0,0,0,0,0,0,-1,1315,1065,0,0
98,-41,0,0,0,0,0,0,0,0,0,-1,1322,1065,0,0
105,-41,0,0,0,0,0,0,0,0,0,-1,1329,1065,0,0
112,-41,0,0,0,0,0,0,0,0,0,-1,1336,1065,0,0
119,-41,0,0,0,0,0,0,0,0,0,-1,1343,1065,0,0
126,-41,0,0,0,0,0,0,0,0,0,-1,1350,1065,0,0
133,-41,0,0,0,0,0,0,0,0,0,-1,1357,1065,0,0
140,-41,0,0,0,0,0,0,0,0,0,-1,1364,1065,0,0
147,-41,0,0,0,0,0,0,0,0,0,-1,1371,1065,0,0
154,-41,0,0,0,0,0,0,0,0,0,-1,1378,1065,0,0
161,-41,0,0,0,0,0,0,0,0,0,-1,1385,1065,0,0
168,-41,0,0,0,0,0,0,0,0,0,-1,1392,1065,0,0
175,-41,0,0,0,0,0,0,0,0,0,-1,1399,1065,0,0
182,-41,0,0,0,0,0,0,0,0,0,-1,1406,1065,0,0
189,-41,0,0,0,0,0,0,0,0,0,-1,1413,1065,0,0
196,-41,0,0,0,0,0,0,0,0,0,-1,1420,1065,0,0
203,-41,0,0,0,0,0,0,0,0,0,-1,1427,1065,0,0
210,-41,0,0,0,0,0,0,0,0,0,-1,1434,1065,0,0
217,-41,0,0,0,0,0,0,0,0,0,-1,1441,1065,0,0
224,-41,0,0,0,0,0,0,0,0,0,-1,1448,1065,0,0
231,-41,0,0,0,0,0,0,0,0,0,-1,1455,1065,0,0
238,-41,0,0,0,0,0,0,0,0,0,-1,1462,1065,0,0
245,-41,0,0,0,0,0,0,0,0,0,-1,1469,1065,0,0
252,-41,0,0,0,0,0,0,0,0,0,-1,1476,1065,0,0
259,-41,0,0,0,0,0,0,0,0,0,-1,1483,1065,0,0
266,-41,0,0,0,0,0,0,0,0,0,-1,1490,1065,0,0
273,-41,0,0,0,0,0,0,0,0,0,-1,1497,1065,0,0
280,-41,0,0,0,0,0,0,0,0,0,-1,1504,1065,0,0
287,-41,0,0,0,0,0,0,0,0,0,-1,1511,1065,0,0
294,-41,0,0,0,0,0,0,0,0,0,-1,1518,1065,0,0
301,-41,0,0,0,0,0,0,0,0,0,-1,1525,1065,0,0
308,-41,0,0,0,0,0,0,0,0,0,-1,1532,1065,0,0
315,-41,0,0,0,0,0,0,0,0,0,-1,1539,1065,0,0
322,-41,0,0,0,0,0,0,0,0,0,-1,1546,1065,0,0
329,-41,0,0,0,0,0,0,0,0,0,-1,1553,1065,0,0
336,-41,0,0,0,0,0,0,0,0,0,-1,1560,1065,0,0
343,-41,0,0,0,0,0,0,0,0,0,-1,1567,1065,0,0
350,-41,0,0,0,0,0,0,0,0,0,-1,1574,1065,0,0
357,-41,0,0,0,0,0,0,0,0,0,-1,1581,1065,0,0
364,-41,0,0,0,0,0,0,0,0,0,-1,1588,1065,0,0
371,-41,0,0,0,0,0,0,0,0,0,-1,1595,1065,0,0
378,-41,0,0,0,0,0,0,0,0,0,-1,1602,1065,0,0
385,-41,0,0,0,0,0,0,0,0,0,-1,1609,1065,0,0
392,-41,0,0,0,0,0,0,0,0,0,-1,1616,1065,0,0
399,-41,0,0,0,0,0,0,0,0,0,-1,1623,1065,0,0
406,-41,0,0,0,0,0,0,0,0,0,-1,1630,1065,0,0
413,-41,0,0,0,0,0,0,0,0,0,-1,1637,1065,0,0
420,-41,0,0,0,0,0,0,0,0,0,-1,1644,1065,0,0
427,-41,0,0,0,0,0,0,0,0,0,-1,1651,1065,0,0
434,-41,0,0,0,0,0,0,0,0,0,-1,1658,1065,0,0
441,-41,0,0,0,0,0,0,0,0,0,-1,1665,1065,0,0
448,-41,0,0,0,0,0,0,0,0,0,-1,1672,1065,0,0
455,-41,0,0,0,0,0,0,0,0,0,-1,1679,1065,0,0
462,-41,0,0,0,0,0,0,0,0,0,-1,1686,1065,0,0
469,-41,0,0,0,0,0,0,0,0,0,-1,1693,1065,0,0
476,-41,0,0,0,0,0,0,0,0,0,-1,1700,1065,0,0
483,-41,0,0,0,0,0,0,0,0,0,-1,1707,1065,0,0
490,-41,0,0,0,0,0,0,0,0,0,-1,1714,1065,0,0
497,-41,0,0,0,0,0,0,0,0,0,-1,1721,1065,0,0
504,-41,0,0,0,0,0,0,0,0,0,-1,1728,1065,0,0
511,-41,0,0,0,0,0,0,0,0,0,-1,1735,1065,0,0
518,-41,0,0,0,0,0,0,0,0,0,-1,1742,1065,0,0
525,-41,0,0,0,0,0,0,0,0,0,-1,1749,1065,0,0
532,-41,0,0,0,0,0,0,0,0,0,-1,1756,1065,0,0
539,-41,0,0,0,0,0,0,0,0,0,-1,1763,1065,0,0
546,-41,0,0,0,0,0,0,0,0,0,-1,1770,1065,0,0
553,-41,0,0,0,0,0,0,0,0,0,-1,1777,1065,0,0
560,-41,0,0,0,0,0,0,0,0,0,-1,1784,1065,0,0
567,-41,0,0,0,0,0,0,0,0,0,-1,1791,1065,0,0
574,-41,0,0,0,0,0,0,0,0,0,-1,1798,1065,0,0
581,-41,0,0,0,0,0,0,0,0,0,-1,1805,1065,0,0
588,-41,0,0,0,0,0,0,0,0,0,-1,1812,1065,0,0
595,-41,0,0,0,0,0,0,0,0,0,-1,1819,1065,0,0
602,-41,0,0,0,0,0,0,0,0,0,-1,1826,1065,0,0
609,-41,0,0,0,0,0,0,0,0,0,-1,1833,1065,0,0
616,-41,0,0,0,0,0,0,0,0,0,-1,1840,1065,0,0
623,-41,0,0,0,0,0,0,0,0,0,-1,1847,1065,0,0
630,-41,0,0,0,0,0,0,0,0,0,-1,1854,1065,0,0
637,-41,0,0,0,0,0,0,0,0,0,-1,1861,1065,0,0
644,-41,0,0,0,0,0,0,0,0,0,-1,1868,1065,0,0
651,-41,54.7334,2.71509,-0.00150493,0.00216566,-0.000734208,0.00230707,-0.00164634,-1.38052,0.00229311,0.035291,1875,1065,54.7334,-2.71505
658,-41,54.7834,2.67859,-0.00124369,0.000729728,4.8715e-05,0.000730929,-0.00124489,1.54613,0.00115353,0.0420965,1882,1065,54.7834,-2.67863
665,-41,54.6301,2.91162,-0.000900917,-0.000151132,0.000545628,0.000135983,-0.00118803,1.0864,0.000841022,0.0419817,1889,1065,54.6301,-2.9116
672,-41,54.7522,2.85999,-0.00056679,-0.000669901,0.00100872,0.000391694,-0.00162839,0.759866,0.001237,0.0398885,1896,1065,54.7521,-2.86
679,-41,54.8649,2.46436,-0.00026356,-0.000951396,0.00138676,0.000821289,-0.00203625,0.66385,0.00169878,0.0398203,1903,1065,54.8649,-2.4644
686,-41,54.7048,2.61536,-0.000402184,-0.00121071,0.00168893,0.000930186,-0.00254308,0.667927,0.00207611,0.0416193,1910,1065,54.7049,-2.61532
693,-41,54.6084,3.09253,-0.00062924,-0.00136818,0.00192143,0.000957916,-0.00295534,0.690412,0.00235538,0.0450836,1917,1065,54.6085,-3.09248
700,-41,54.6647,3.0321,-0.000780152,-0.00137012,0.00214292,0.00108799,-0.00323826,0.717,0.00259857,0.0414636,1924,1065,54.6647,-3.03208
707,-41,54.7223,2.80591,-0.00119089,-0.00117386,0.002324,0.00114164,-0.00350639,0.787231,0.00279691,0.0292849,1931,1065,54.7223,-2.80587
714,-41,54.7028,2.88574,-0.00171652,-0.000812477,0.00246235,0.001239,-0.003768,0.876174,0.0030112,0.0233815,1938,1065,54.7027,-2.88573
721,-41,54.6936,3.02612,0,0,0,0,0,0,0,-1,1945,1065,54.6936,-3.02611
728,-41,54.0725,6.85706,0,0,0,0,0,0,0,-1,1952,1065,54.0725,-6.85711
735,-41,53.8712,6.68701,-0.00407223,0.00208142,0.00272643,0.00311559,-0.0051064,1.20825,0.00479313,0.0196351,1959,1065,53.8712,-6.68705
742,-41,53.7422,6.49414,-0.00451348,0.00296151,0.00276127,0.00387089,-0.00542286,1.25265,0.00539063,0.0165184,1966,1065,53.7422,-6.49413
749,-41,53.7654,6.33777,-0.00512219,0.00402909,0.00290212,0.00487183,-0.00596493,1.28818,0.0062672,0.0153117,1973,1065,53.7654,-6.33778
756,-41,53.8002,6.15112,-0.00564202,0.00568786,0.00324088,0.0065494,-0.00650355,1.31097,0.00753614,0.014133,1980,1065,53.8002,-6.15112
763,-41,53.7119,5.90063,-0.00590796,0.00741439,0.003608,0.00832876,-0.00682234,1.32259,0.00876189,0.0126831,1987,1065,53.7119,-5.90066
770,-41,53.6281,5.6825,-0.0057648,0.00957682,0.00395192,0.010535,-0.00672295,1.33293,0.0100446,0.0138473,1994,1065,53.628,-5.68248
777,-41,53.5049,5.48779,-0.00501231,0.0118253,0.00466811,0.0130329,-0.0062199,1.31766,0.0113452,0.0158301,2001,1065,53.5048,-5.48781
784,-41,53.457,5.29089,-0.00392366,0.0138147,0.00559434,0.0154317,-0.00554061,1.28943,0.0125492,0.0274359,2008,1065,53.4571,-5.29093
791,-41,53.5,5.01721,-0.00241311,0.015407,0.00686474,0.0177448,-0.00475089,1.24257,0.0136911,0.0457094,2015,1065,53.4999,-5.01717
798,-41,53.4514,4.55627,-0.000126504,0.016504,0.00857339,0.0201322,-0.00375473,1.17045,0.0148323,0.0445464,2022,1065,53.4515,-4.55626
805,-41,53.4751,3.94775,0.00341393,0.0171091,0.0108808,0.0231177,-0.00259464,1.06625,0.0163454,0.0444448,2029,1065,53.4751,-3.94778
812,-41,53.365,3.6228,0,0,0,0,0,0,0,-1,2036,1065,53.365,-3.62282
-700,-48,-41.442,-4.67505,0,0,0,0,0,0,0,-1,524,1072,-41.442,4.67508
-693,-48,-43.0399,-2.59009,0,0,0,0,0,0,0,-1,531,1072,-43.04,2.59015
-686,-48,-42.1276,-2.42041,0,0,0,0,0,0,0,-1,538,1072,-42.1276,2.42041
-679,-48,-41.3112,-1.99756,0.044684,0.0528014,0.0200662,0.0692152,0.0282702,0.885185,0.0401841,0.045682,545,1072,-41.3112,1.99751
-672,-48,-40.5724,-1.26135,0.0374552,0.0465564,0.0177252,0.0603058,0.0237058,0.911049,0.0350819,0.0460854,552,1072,-40.5724,1.26131
-665,-48,-40.4235,-0.127075,0,0,0,0,0,0,0,-1,559,1072,-40.4235,0.127124
-658,-48,-40.1197,0.900757,0.0233533,0.0336255,0.0125161,0.0420183,0.0149605,0.9801,0.0245921,0.0434575,566,1072,-40.1197,-0.900758
-651,-48,-39.7549,1.83923,0.0172787,0.0272849,0.0098278,0.0333098,0.0112538,1.02084,0.0195656,0.03826,573,1072,-39.7549,-1.83925
-644,-48,-39.8783,2.53491,0.0121863,0.0212732,0.00709936,0.0251585,0.00830098,1.07005,0.0148026,0.0226253,580,1072,-39.8783,-2.53488
-637,-48,-39.9042,2.73157,0.00781116,0.0148139,0.00420591,0.0167851,0.00583993,1.13252,0.00983916,0.0218249,587,1072,-39.9042,-2.73158
-630,-48,-39.9219,3.05664,0.00430501,0.00957226,0.00183572,0.0101489,0.00372836,1.26643,0.0059278,0.0232136,594,1072,-39.9219,-3.05667
-623,-48,-40.0311,3.3678,0.00232602,0.00620044,0.000309655,0.00622504,0.00230143,1.49154,0.00363448,0.0130385,601,1072,-40.0311,-3.36776
-616,-48,-40.0303,3.6825,0.00170882,0.00305498,-0.00069066,0.00334629,0.00141751,-1.17165,0.00193948,0.0118653,608,1072,-40.0303,-3.68254
-609,-48,-39.9679,4.00732,0.00156321,0.00105843,-0.00149662,0.00282857,-0.000206931,-0.701864,0.00195834,0.0128411,615,1072,-39.9679,-4.00728
-602,-48,-39.9881,4.26831,0.00152366,-0.000460399,-0.00215865,0.00290732,-0.00184406,-0.570011,0.00276601,0.0136371,622,1072,-39.9881,-4.26837
-595,-48,-40.0497,4.49951,0.00160943,-0.00115957,-0.00228456,0.00289627,-0.00244641,-0.512979,0.00308824,0.0320287,629,1072,-40.0498,-4.49948
-588,-48,-40.6583,2.61621,0,0,0,0,0,0,0,-1,636,1072,-40.6583,-2.61618
-581,-48,-40.8337,0.856445,0,0,0,0,0,0,0,-1,643,1072,-40.8337,-0.856429
-574,-48,-40.9139,1.0188,0.00210189,-0.00246452,-0.00122197,0.00240833,-0.00277095,-0.245704,0.0029927,0.04298,650,1072,-40.9139,-1.01877
-567,-48,-40.5713,1.146,0.00189007,-0.00247322,-0.000741374,0.0020126,-0.00259575,-0.16379,0.00266772,0.0399861,657,1072,-40.5713,-1.14604
-560,-48,-40.58,1.13586,0.00143132,-0.00232433,-0.000142703,0.00143674,-0.00232975,-0.037924,0.00219486,0.0392821,664,1072,-40.58,-1.13582
-553,-48,-40.7579,0.901245,0.000857537,-0.00217877,0.000596774,0.000970619,-0.00229185,0.187268,0.00193439,0.0403341,671,1072,-40.758,-0.901221
-546,-48,-40.8264,0.758179,0.000308646,-0.0022958,0.00145642,0.000960124,-0.00294728,0.420618,0.00235117,0.0390611,678,1072,-40.8264,-0.758147
-539,-48,-40.7584,0.865845,3.03923e-05,-0.00320183,0.00202063,0.0010017,-0.00417314,0.448087,0.00316921,0.0388039,685,1072,-40.7584,-0.865799
-532,-48,-40.7863,1.0802,2.15629e-05,-0.003907,0.00302983,0.00166814,-0.00555358,0.497804,0.00436598,0.0398923,692,1072,-40.7862,-1.08023
-525,-48,0,0,0,0,0,0,0,0,0,-1,699,1072,0,0
-518,-48,0,0,0,0,0,0,0,0,0,-1,706,1072,0,0
-511,-48,0,0,0,0,0,0,0,0,0,-1,713,1072,0,0
-504,-48,0,0,0,0,0,0,0,0,0,-1,720,1072,0,0
-497,-48,0,0,0,0,0,0,0,0,0,-1,727,1072,0,0
-490,-48,0,0,0,0,0,0,0,0,0,-1,734,1072,0,0
-483,-48,0,0,0,0,0,0,0,0,0,-1,741,1072,0,0
-476,-48,0,0,0,0,0,0,0,0,0,-1,748,1072,0,0
-469,-48,0,0,0,0,0,0,0,0,0,-1,755,1072,0,0
-462,-48,0,0,0,0,0,0,0,0,0,-1,762,1072,0,0
-455,-48,0,0,0,0,0,0,0,0,0,-1,769,1072,0,0
-448,-48,0,0,0,0,0,0,0,0,0,-1,776,1072,0,0
-441,-48,0,0,0,0,0,0,0,0,0,-1,783,1072,0,0
-434,-48,0,0,0,0,0,0,0,0,0,-1,790,1072,0,0
-427,-48,0,0,0,0,0,0,0,0,0,-1,797,1072,0,0
-420,-48,0,0,0,0,0,0,0,0,0,-1,804,1072,0,0
-413,-48,0,0,0,0,0,0,0,0,0,-1,811,1072,0,0
-406,-48,0,0,0,0,0,0,0,0,0,-1,818,1072,0,0
-399,-48,0,0,0,0,0,0,0,0,0,-1,825,1072,0,0
-392,-48,0,0,0,0,0,0,0,0,0,-1,832,1072,0,0
-385,-48,0,0,0,0,0,0,0,0,0,-1,839,1072,0,0
-378,-48,0,0,0,0,0,0,0,0,0,-1,846,1072,0,0
-371,-48,0,0,0,0,0,0,0,0,0,-1,853,1072,0,0
-364,-48,0,0,0,0,0,0,0,0,0,-1,860,1072,0,0
-357,-48,0,0,0,0,0,0,0,0,0,-1,867,1072,0,0
-350,-48,0,0,0,0,0,0,0,0,0,-1,874,1072,0,0
-343,-48,0,0,0,0,0,0,0,0,0,-1,881,1072,0,0
-336,-48,0,0,0,0,0,0,0,0,0,-1,888,1072,0,0
-329,-48,0,0,0,0,0,0,0,0,0,-1,895,1072,0,0
-322,-48,0,0,0,0,0,0,0,0,0,-1,902,1072,0,0
-315,-48,0,0,0,0,0,0,0,0,0,-1,909,1072,0,0
-308,-48,0,0,0,0,0,0,0,0,0,-1,916,1072,0,0
-301,-48,0,0,0,0,0,0,0,0,0,-1,923,1072,0,0
-294,-48,0,0,0,0,0,0,0,0,0,-1,930,1072,0,0
-287,-48,0,0,0,0,0,0,0,0,0,-1,937,1072,0,0
-280,-48,0,0,0,0,0,0,0,0,0,-1,944,1072,0,0
-273,-48,0,0,0,0,0,0,0,0,0,-1,951,1072,0,0
-266,-48,0,0,0,0,0,0,0,0,0,-1,958,1072,0,0
-259,-48,0,0,0,0,0,0,0,0,0,-1,965,1072,0,0
-252,-48,0,0,0,0,0,0,0,0,0,-1,972,1072,0,0
-245,-48,0,0,0,0,0,0,0,0,0,-1,979,1072,0,0
-238,-48,0,0,0,0,0,0,0,0,0,-1,986,1072,0,0
-231,-48,0,0,0,0,0,0,0,0,0,-1,993,1072,0,0
-224,-48,0,0,0,0,0,0,0,0,0,-1,1000,1072,0,0
-217,-48,0,0,0,0,0,0,0,0,0,-1,1007,1072,0,0
-210,-48,0,0,0,0,0,0,0,0,0,-1,1014,1072,0,0
-203,-48,0,0,0,0,0,0,0,0,0,-1,1021,1072,0,0
-196,-48,0,0,0,0,0,0,0,0,0,-1,1028,1072,0,0
-189,-48,0,0,0,0,0,0,0,0,0,-1,1035,1072,0,0
-182,-48,0,0,0,0,0,0,0,0,0,-1,1042,1072,0,0
-175,-48,0,0,0,0,0,0,0,0,0,-1,1049,1072,0,0
-168,-48,0,0,0,0,0,0,0,0,0,-1,1056,1072,0,0
-161,-48,0,0,0,0,0,0,0,0,0,-1,1063,1072,0,0
-154,-48,0,0,0,0,0,0,0,0,0,-1,1070,1072,0,0
-147,-48,0,0,0,0,0,0,0,0,0,-1,1077,1072,0,0
-140,-48,0,0,0,0,0,0,0,0,0,-1,1084,1072,0,0
-133,-48,0,0,0,0,0,0,0,0,0,-1,1091,1072,0,0
-126,-48,0,0,0,0,0,0,0,0,0,-1,1098,1072,0,0
-119,-48,0,0,0,0,0,0,0,0,0,-1,1105,1072,0,0
-112,-48,0,0,0,0,0,0,0,0,0,-1,1112,1072,0,0
-105,-48,0,0,0,0,0,0,0,0,0,-1,1119,1072,0,0
-98,-48,0,0,0,0,0,0,0,0,0,-1,1126,1072,0,0
-91,-48,0,0,0,0,0,0,0,0,0,-1,1133,1072,0,0
-84,-48,0,0,0,0,0,0,0,0,0,-1,1140,1072,0,0
-77,-48,0,0,0,0,0,0,0,0,0,-1,1147,1072,0,0
-70,-48,0,0,0,0,0,0,0,0,0,-1,1154,1072,0,0
-63,-48,0,0,0,0,0,0,0,0,0,-1,1161,1072,0,0
-56,-48,0,0,0,0,0,0,0,0,0,-1,1168,1072,0,0
-49,-48,0,0,0,0,0,0,0,0,0,-1,1175,1072,0,0
-42,-48,0,0,0,0,0,0,0,0,0,-1,1182,1072,0,0
-35,-48,0,0,0,0,0,0,0,0,0,-1,1189,1072,0,0
-28,-48,0,0,0,0,0,0,0,0,0,-1,1196,1072,0,0
-21,-48,0,0,0,0,0,0,0,0,0,-1,1203,1072,0,0
-14,-48,0,0,0,0,0,0,0,0,0,-1,1210,1072,0,0
-7,-48,0,0,0,0,0,0,0,0,0,-1,1217,1072,0,0
0,-48,0,0,0,0,0,0,0,0,0,-1,1224,1072,0,0
7,-48,0,0,0,0,0,0,0,0,0,-1,1231,1072,0,0
14,-48,0,0,0,0,0,0,0,0,0,-1,1238,1072,0,0
21,-48,0,0,0,0,0,0,0,0,0,-1,1245,1072,0,0
28,-48,0,0,0,0,0,0,0,0,0,-1,1252,1072,0,0
35,-48,0,0,0,0,0,0,0,0,0,-1,1259,1072,0,0
42,-48,0,0,0,0,0,0,0,0,0,-1,1266,1072,0,0
49,-48,0,0,0,0,0,0,0,0,0,-1,1273,1072,0,0
56,-48,0,0,0,0,0,0,0,0,0,-1,1280,1072,0,0
63,-48,0,0,0,0,0,0,0,0,0,-1,1287,1072,0,0
70,-48,0,0,0,0,0,0,0,0,0,-1,1294,1072,0,0
77,-48,0,0,0,0,0,0,0,0,0,-1,1301,1072,0,0
84,-48,0,0,0,0,0,0,0,0,0,-1,1308,1072,0,0
91,-48,0,0,0,0,0,0,0,0,0,-1,1315,1072,0,0
98,-48,0,0,0,0,0,0,0,0,0,-1,1322,1072,0,0
105,-48,0,0,0,0,0,0,0,0,0,-1,1329,1072,0,0
112,-48,0,0,0,0,0,0,0,0,0,-1,1336,1072,0,0
119,-48,0,0,0,0,0,0,0,0,0,-1,1343,1072,0,0
126,-48,0,0,0,0,0,0,0,0,0,-1,1350,1072,0,0
133,-48,0,0,0,0,0,0,0,0,0,-1,1357,1072,0,0
140,-48,0,0,0,0,0,0,0,0,0,-1,1364,1072,0,0
147,-48,0,0,0,0,0,0,0,0,0,-1,1371,1072,0,0
154,-48,0,0,0,0,0,0,0,0,0,-1,1378,1072,0,0
161,-48,0,0,0,0,0,0,0,0,0,-1,1385,1072,0,0
168,-48,0,0,0,0,0,0,0,0,0,-1,1392,1072,0,0
175,-48,0,0,0,0,0,0,0,0,0,-1,1399,1072,0,0
182,-48,0,0,0,0,0,0,0,0,0,-1,1406,1072,0,0
189,-48,0,0,0,0,0,0,0,0,0,-1,1413,1072,0,0
196,-48,0,0,0,0,0,0,0,0,0,-1,1420,1072,0,0
203,-48,0,0,0,0,0,0,0,0,0,-1,1427,1072,0,0
210,-48,0,0,0,0,0,0,0,0,0,-1,1434,1072,0,0
217,-48,0,0,0,0,0,0,0,0,0,-1,1441,1072,0,0
224,-48,0,0,0,0,0,0,0,0,0,-1,1448,1072,0,0
231,-48,0,0,0,0,0,0,0,0,0,-1,1455,1072,0,0
238,-48,0,0,0,0,0,0,0,0,0,-1,1462,1072,0,0
245,-48,0,0,0,0,0,0,0,0,0,-1,1469,1072,0,0
252,-48,0,0,0,0,0,0,0,0,0,-1,1476,1072,0,0
259,-48,0,0,0,0,0,0,0,0,0,-1,1483,1072,0,0
266,-48,0,0,0,0,0,0,0,0,0,-1,1490,1072,0,0
273,-48,0,0,0,0,0,0,0,0,0,-1,1497,1072,0,0
280,-48,0,0,0,0,0,0,0,0,0,-1,1504,1072,0,0
287,-48,0,0,0,0,0,0,0,0,0,-1,1511,1072,0,0
294,-48,0,0,0,0,0,0,0,0,0,-1,1518,1072,0,0
301,-48,0,0,0,0,0,0,0,0,0,-1,1525,1072,0,0
308,-48,0,0,0,0,0,0,0,0,0,-1,1532,1072,0,0
315,-48,0,0,0,0,0,0,0,0,0,-1,1539,1072,0,0
322,-48,0,0,0,0,0,0,0,0,0,-1,1546,1072,0,0
329,-48,0,0,0,0,0,0,0,0,0,-1,1553,1072,0,0
336,-48,0,0,0,0,0,0,0,0,0,-1,1560,1072,0,0
343,-48,0,0,0,0,0,0,0,0,0,-1,1567,1072,0,0
350,-48,0,0,0,0,0,0,0,0,0,-1,1574,1072,0,0
357,-48,0,0,0,0,0,0,0,0,0,-1,1581,1072,0,0
364,-48,0,0,0,0,0,0,0,0,0,-1,1588,1072,0,0
371,-48,0,0,0,0,0,0,0,0,0,-1,1595,1072,0,0
378,-48,0,0,0,0,0,0,0,0,0,-1,1602,1072,0,0
385,-48,0,0,0,0,0,0,0,0,0,-1,1609,1072,0,0
392,-48,0,0,0,0,0,0,0,0,0,-1,1616,1072,0,0
399,-48,0,0,0,0,0,0,0,0,0,-1,1623,1072,0,0
406,-48,0,0,0,0,0,0,0,0,0,-1,1630,1072,0,0
413,-48,0,0,0,0,0,0,0,0,0,-1,1637,1072,0,0
420,-48,0,0,0,0,0,0,0,0,0,-1,1644,1072,0,0
427,-48,0,0,0,0,0,0,0,0,0,-1,1651,1072,0,0
434,-48,0,0,0,0,0,0,0,0,0,-1,1658,1072,0,0
441,-48,0,0,0,0,0,0,0,0,0,-1,1665,1072,0,0
448,-48,0,0,0,0,0,0,0,0,0,-1,1672,1072,0,0
455,-48,0,0,0,0,0,0,0,0,0,-1,1679,1072,0,0
462,-48,0,0,0,0,0,0,0,0,0,-1,1686,1072,0,0
469,-48,0,0,0,0,0,0,0,0,0,-1,1693,1072,0,0
476,-48,0,0,0,0,0,0,0,0,0,-1,1700,1072,0,0
483,-48,0,0,0,0,0,0,0,0,0,-1,1707,1072,0,0
490,-48,0,0,0,0,0,0,0,0,0,-1,1714,1072,0,0
497,-48,0,0,0,0,0,0,0,0,0,-1,1721,1072,0,0
504,-48,0,0,0,0,0,0,0,0,0,-1,1728,1072,0,0
511,-48,0,0,0,0,0,0,0,0,0,-1,1735,1072,0,0
518,-48,0,0,0,0,0,0,0,0,0,-1,1742,1072,0,0
525,-48,0,0,0,0,0,0,0,0,0,-1,1749,1072,0,0
532,-48,0,0,0,0,0,0,0,0,0,-1,1756,1072,0,0
539,-48,0,0,0,0,0,0,0,0,0,-1,1763,1072,0,0
546,-48,0,0,0,0,0,0,0,0,0,-1,1770,1072,0,0
553,-48,0,0,0,0,0,0,0,0,0,-1,1777,1072,0,0
560,-48,0,0,0,0,0,0,0,0,0,-1,1784,1072,0,0
567,-48,0,0,0,0,0,0,0,0,0,-1,1791,1072,0,0
574,-48,0,0,0,0,0,0,0,0,0,-1,1798,1072,0,0
581,-48,0,0,0,0,0,0,0,0,0,-1,1805,1072,0,0
588,-48,0,0,0,0,0,0,0,0,0,-1,1812,1072,0,0
595,-48,0,0,0,0,0,0,0,0,0,-1,1819,1072,0,0
602,-48,0,0,0,0,0,0,0,0,0,-1,1826,1072,0,0
609,-48,0,0,0,0,0,0,0,0,0,-1,1833,1072,0,0
616,-48,0,0,0,0,0,0,0,0,0,-1,1840,1072,0,0
623,-48,0,0,0,0,0,0,0,0,0,-1,1847,1072,0,0
630,-48,0,0,0,0,0,0,0,0,0,-1,1854,1072,0,0
637,-48,0,0,0,0,0,0,0,0,0,-1,1861,1072,0,0
644,-48,0,0,0,0,0,0,0,0,0,-1,1868,1072,0,0
651,-48,54.6846,2.77979,-0.000808978,0.00076208,-0.000787871,0.00108911,-0.00113601,-1.17735,0.00128477,0.0312231,1875,1072,54.6846,-2.77979
658,-48,54.7898,2.66711,-0.000603173,-0.000308398,4.1924e-05,-0.000302552,-0.00060902,1.43223,0.00035162,0.0377506,1882,1072,54.7898,-2.66706
665,-48,54.6488,2.82715,-0.000357742,-0.000931241,0.000548876,-2.52251e-05,-0.00126376,0.544683,0.000834224,0.0424084,1889,1072,54.6488,-2.82713
672,-48,54.5916,2.91101,-0.00013189,-0.00124319,0.000994483,0.000451647,-0.00182672,0.530637,0.00139299,0.0400135,1896,1072,54.5915,-2.91096
679,-48,54.6708,2.88391,3.50338e-05,-0.00133585,0.00132239,0.000839069,-0.00213988,0.546294,0.00177371,0.0380575,1903,1072,54.6708,-2.88397
686,-48,54.6714,2.91052,-0.000176196,-0.00145146,0.00157476,0.000885122,-0.00251278,0.593032,0.00203542,0.0404131,1910,1072,54.6714,-2.91051
693,-48,54.611,3.19775,-0.000420143,-0.00151302,0.0017726,0.000888334,-0.00282149,0.635885,0.0022367,0.0416478,1917,1072,54.611,-3.1978
700,-48,54.6399,3.08484,-0.000566662,-0.00143614,0.00197242,0.00101836,-0.00302116,0.676928,0.00242589,0.0341701,1924,1072,54.6399,-3.08483
707,-48,54.7483,2.83264,-0.000952827,-0.00122152,0.00218469,0.00110164,-0.00327599,0.754689,0.00262929,0.026686,1931,1072,54.7483,-2.83258
714,-48,54.703,2.95313,-0.00144123,-0.00087506,0.00234752,0.00120638,-0.00352268,0.845403,0.0028374,0.0376955,1938,1072,54.703,-2.95316
721,-48,54.661,3.23694,0,0,0,0,0,0,0,-1,1945,1072,54.661,-3.23696
728,-48,53.7421,7.07092,0,0,0,0,0,0,0,-1,1952,1072,53.742,-7.07089
735,-48,53.5841,6.82092,-0.00358643,0.00177278,0.00273301,0.00292066,-0.00473431,1.17316,0.00446075,0.0214502,1959,1072,53.5841,-6.82092
742,-48,53.4474,6.54834,-0.00405142,0.00263513,0.00287478,0.00370115,-0.00511743,1.2157,0.00511325,0.0174943,1966,1072,53.4474,-6.54835
749,-48,53.4977,6.31042,-0.0046668,0.00365472,0.00310189,0.00468372,-0.0056958,1.25049,0.00600211,0.0154634,1973,1072,53.4977,-6.31042
756,-48,53.5032,6.09155,-0.00524225,0.00515588,0.00345923,0.00620153,-0.0062879,1.27725,0.00721083,0.0136676,1980,1072,53.5032,-6.09151
763,-48,53.4296,5.84814,-0.00567343,0.00677723,0.00383165,0.00786191,-0.00675811,1.29493,0.00844889,0.0129548,1987,1072,53.4296,-5.84809
770,-48,53.3905,5.5968,-0.00581339,0.00883555,0.00416429,0.00993659,-0.00691443,1.31231,0.00978095,0.0138557,1994,1072,53.3905,-5.59678
777,-48,53.2729,5.35535,-0.00554277,0.0109367,0.00478633,0.012226,-0.00683206,1.30767,0.0111491,0.0133953,2001,1072,53.2729,-5.35538
784,-48,53.2117,5.10632,-0.00500652,0.012723,0.00554348,0.0143136,-0.0065971,1.29137,0.0123437,0.0261189,2008,1072,53.2116,-5.10633
791,-48,53.2222,4.78662,-0.00415746,0.0139934,0.0065302,0.0160986,-0.00626269,1.25893,0.0133201,0.0418544,2015,1072,53.2223,-4.78663
798,-48,53.1851,4.43518,-0.00266674,0.0145238,0.00781905,0.0175482,-0.00569112,1.20172,0.0139872,0.0463796,2022,1072,53.1852,-4.43519
805,-48,53.1345,4.10547,-3.6636e-05,0.0141791,0.00952819,0.0189586,-0.00481608,1.10586,0.0145132,0.0473457,2029,1072,53.1346,-4.10547
812,-48,53.1724,3.7251,0.00316613,0.0124376,0.0117178,0.0204033,-0.00479958,0.973759,0.0154526,0.0476137,2036,1072,53.1724,-3.72515
-700,-55,-38.9717,-3.29053,0,0,0,0,0,0,0,-1,524,1079,-38.9717,3.29052
-693,-55,-41.4461,-4.45044,0,0,0,0,0,0,0,-1,531,1079,-41.4461,4.45044
-686,-55,-41.1507,-2.39209,0,0,0,0,0,0,0,-1,538,1079,-41.1507,2.39209
-679,-55,-40.6979,-2.21545,0,0,0,0,0,0,0,-1,545,1079,-40.698,2.2154
-672,-55,-41.2338,0.819824,0,0,0,0,0,0,0,-1,552,1079,-41.2338,-0.819875
-665,-55,-39.6318,-0.510132,0,0,0,0,0,0,0,-1,559,1079,-39.6318,0.510118
-658,-55,-39.6781,0.41272,0.0206856,0.0186611,0.00663914,0.0263892,0.0129575,0.70975,0.0152366,0.0485051,566,1079,-39.6781,-0.41269
-651,-55,-39.6063,1.4574,0.0149611,0.0165839,0.00547871,0.021311,0.010234,0.858913,0.0123071,0.0411802,573,1079,-39.6063,-1.45743
-644,-55,-39.5878,2.4231,0.0103927,0.0139188,0.00406291,0.0165847,0.00772682,0.990102,0.00958259,0.0256829,580,1079,-39.5878,-2.42307
-637,-55,-39.5963,2.6571,0.00653869,0.0110551,0.0025303,0.0121883,0.00540544,1.14971,0.00705189,0.0197898,587,1079,-39.5963,-2.6571
-630,-55,-39.5997,3.01868,0.0035664,0.00787735,0.00102254,0.00810759,0.00333616,1.34932,0.00470531,0.0218647,594,1079,-39.5997,-3.01871
-623,-55,-39.7485,3.40515,0.00201733,0.00519115,-7.38111e-05,0.00519286,0.00201562,-1.54756,0.003023,0.0191562,601,1079,-39.7485,-3.40519
-616,-55,-39.7723,3.7063,0.00176728,0.0025365,-0.000727259,0.00297459,0.00132919,-1.02863,0.00172061,0.0181633,608,1079,-39.7723,-3.70635
-609,-55,-39.7094,4.05261,0.00182019,0.00088205,-0.00128743,0.00272134,-1.90985e-05,-0.610699,0.00182063,0.0188268,615,1079,-39.7094,-4.05265
-602,-55,-39.6595,4.33435,0.00184168,-0.000483533,-0.00178517,0.00280944,-0.0014513,-0.496769,0.00250125,0.0151077,622,1079,-39.6595,-4.33431
-595,-55,-39.5219,4.64624,0.0019149,-0.001133,-0.00180901,0.00275631,-0.00197441,-0.435359,0.00274369,0.0329182,629,1079,-39.5219,-4.64621
-588,-55,-39.4844,5.02002,0,0,0,0,0,0,0,-1,636,1079,-39.4845,-5.02005
-581,-55,-40.8309,1.07556,0,0,0,0,0,0,0,-1,643,1079,-40.831,-1.07558
-574,-55,-40.7134,1.16394,0.00228343,-0.00252989,-0.000715082,0.00238741,-0.00263388,-0.144409,0.00290021,0.0396209,650,1079,-40.7134,-1.16399
-567,-55,-40.6024,1.1134,0.00207257,-0.00263232,-0.000247852,0.00208559,-0.00264535,-0.0524859,0.00273778,0.038447,657,1079,-40.6024,-1.1134
-560,-55,-40.7731,1.13123,0.00160668,-0.0026172,0.000295434,0.00162725,-0.00263776,0.0694929,0.00248534,0.0387914,664,1079,-40.7732,-1.13128
-553,-55,-40.8891,1.06775,0.00100923,-0.00264772,0.000922169,0.00122861,-0.0028671,0.233556,0.00242692,0.0392374,671,1079,-40.8891,-1.0678
-546,-55,-40.8388,0.980469,0.000482387,-0.00297373,0.00158,0.00109582,-0.00358716,0.370336,0.00282838,0.0373889,678,1079,-40.8388,-0.98048
-539,-55,-40.7194,1.0022,0.000453077,-0.00419626,0.00181106,0.00107527,-0.00481845,0.330921,0.00362429,0.0373756,685,1079,-40.7193,-1.00221
-532,-55,-40.6412,1.0293,0.00065407,-0.00525154,0.00237634,0.00149152,-0.00608899,0.338822,0.00463716,0.0387953,692,1079,-40.6412,-1.02927
-525,-55,0,0,0,0,0,0,0,0,0,-1,699,1079,0,0
-518,-55,0,0,0,0,0,0,0,0,0,-1,706,1079,0,0
-511,-55,0,0,0,0,0,0,0,0,0,-1,713,1079,0,0
-504,-55,0,0,0,0,0,0,0,0,0,-1,720,1079,0,0
-497,-55,0,0,0,0,0,0,0,0,0,-1,727,1079,0,0
-490,-55,0,0,0,0,0,0,0,0,0,-1,734,1079,0,0
-483,-55,0,0,0,0,0,0,0,0,0,-1,741,1079,0,0
-476,-55,0,0,0,0,0,0,0,0,0,-1,748,1079,0,0
-469,-55,0,0,0,0,0,0,0,0,0,-1,755,1079,0,0
-462,-55,0,0,0,0,0,0,0,0,0,-1,762,1079,0,0
-455,-55,0,0,0,0,0,0,0,0,0,-1,769,1079,0,0
-448,-55,0,0,0,0,0,0,0,0,0,-1,776,1079,0,0
-441,-55,0,0,0,0,0,0,0,0,0,-1,783,1079,0,0
-434,-55,0,0,0,0,0,0,0,0,0,-1,790,1079,0,0
-427,-55,0,0,0,0,0,0,0,0,0,-1,797,1079,0,0
-420,-55,0,0,0,0,0,0,0,0,0,-1,804,1079,0,0
-413,-55,0,0,0,0,0,0,0,0,0,-1,811,1079,0,0
-406,-55,0,0,0,0,0,0,0,0,0,-1,818,1079,0,0
-399,-55,0,0,0,0,0,0,0,0,0,-1,825,1079,0,0
-392,-55,0,0,0,0,0,0,0,0,0,-1,832,1079,0,0
-385,-55,0,0,0,0,0,0,0,0,0,-1,839,1079,0,0
-378,-55,0,0,0,0,0,0,0,0,0,-1,846,1079,0,0
-371,-55,0,0,0,0,0,0,0,0,0,-1,853,1079,0,0
-364,-55,0,0,0,0,0,0,0,0,0,-1,860,1079,0,0
-357,-55,0,0,0,0,0,0,0,0,0,-1,867,1079,0,0
-350,-55,0,0,0,0,0,0,0,0,0,-1,874,1079,0,0
-343,-55,0,0,0,0,0,0,0,0,0,-1,881,1079,0,0
-336,-55,0,0,0,0,0,0,0,0,0,-1,888,1079,0,0
-329,-55,0,0,0,0,0,0,0,0,0,-1,895,1079,0,0
-322,-55,0,0,0,0,0,0,0,0,0,-1,902,1079,0,0
-315,-55,0,0,0,0,0,0,0,0,0,-1,909,1079,0,0
-308,-55,0,0,0,0,0,0,0,0,0,-1,916,1079,0,0
-301,-55,0,0,0,0,0,0,0,0,0,-1,923,1079,0,0
-294,-55,0,0,0,0,0,0,0,0,0,-1,930,1079,0,0
-287,-55,0,0,0,0,0,0,0,0,0,-1,937,1079,0,0
-280,-55,0,0,0,0,0,0,0,0,0,-1,944,1079,0,0
-273,-55,0,0,0,0,0,0,0,0,0,-1,951,1079,0,0
-266,-55,0,0,0,0,0,0,0,0,0,-1,958,1079,0,0
-259,-55,0,0,0,0,0,0,0,0,0,-1,965,1079,0,0
-252,-55,0,0,0,0,0,0,0,0,0,-1,972,1079,0,0
-245,-55,0,0,0,0,0,0,0,0,0,-1,979,1079,0,0
-238,-55,0,0,0,0,0,0,0,0,0,-1,986,1079,0,0
-231,-55,0,0,0,0,0,0,0,0,0,-1,993,1079,0,0
-224,-55,0,0,0,0,0,0,0,0,0,-1,1000,1079,0,0
-217,-55,0,0,0,0,0,0,0,0,0,-1,1007,1079,0,0
-210,-55,0,0,0,0,0,0,0,0,0,-1,1014,1079,0,0
-203,-55,0,0,0,0,0,0,0,0,0,-1,1021,1079,0,0
-196,-55,0,0,0,0,0,0,0,0,0,-1,1028,1079,0,0
-189,-55,0,0,0,0,0,0,0,0,0,-1,1035,1079,0,0
-182,-55,0,0,0,0,0,0,0,0,0,-1,1042,1079,0,0
-175,-55,0,0,0,0,0,0,0,0,0,-1,1049,1079,0,0
-168,-55,0,0,0,0,0,0,0,0,0,-1,1056,1079,0,0
-161,-55,0,0,0,0,0,0,0,0,0,-1,1063,1079,0,0
-154,-55,0,0,0,0,0,0,0,0,0,-1,1070,1079,0,0
-147,-55,0,0,0,0,0,0,0,0,0,-1,1077,1079,0,0
-140,-55,0,0,0,0,0,0,0,0,0,-1,1084,1079,0,0
-133,-55,0,0,0,0,0,0,0,0,0,-1,1091,1079,0,0
-126,-55,0,0,0,0,0,0,0,0,0,-1,1098,1079,0,0
-119,-55,0,0,0,0,0,0,0,0,0,-1,1105,1079,0,0
-112,-55,0,0,0,0,0,0,0,0,0,-1,1112,1079,0,0
-105,-55,0,0,0,0,0,0,0,0,0,-1,1119,1079,0,0
-98,-55,0,0,0,0,0,0,0,0,0,-1,1126,1079,0,0
-91,-55,0,0,0,0,0,0,0,0,0,-1,1133,1079,0,0
-84,-55,0,0,0,0,0,0,0,0,0,-1,1140,1079,0,0
-77,-55,0,0,0,0,0,0,0,0,0,-1,1147,1079,0,0
-70,-55,0,0,0,0,0,0,0,0,0,-1,1154,1079,0,0
-63,-55,0,0,0,0,0,0,0,0,0,-1,1161,1079,0,0
-56,-55,0,0,0,0,0,0,0,0,0,-1,1168,1079,0,0
-49,-55,0,0,0,0,0,0,0,0,0,-1,1175,1079,0,0
-42,-55,0,0,0,0,0,0,0,0,0,-1,1182,1079,0,0
-35,-55,0,0,0,0,0,0,0,0,0,-1,1189,1079,0,0
-28,-55,0,0,0,0,0,0,0,0,0,-1,1196,1079,0,0
-21,-55,0,0,0,0,0,0,0,0,0,-1,1203,1079,0,0
-14,-55,0,0,0,0,0,0,0,0,0,-1,1210,1079,0,0
-7,-55,0,0,0,0,0,0,0,0,0,-1,1217,1079,0,0
0,-55,0,0,0,0,0,0,0,0,0,-1,1224,1079,0,0
7,-55,0,0,0,0,0,0,0,0,0,-1,1231,1079,0,0
14,-55,0,0,0,0,0,0,0,0,0,-1,1238,1079,0,0
21,-55,0,0,0,0,0,0,0,0,0,-1,1245,1079,0,0
28,-55,0,0,0,0,0,0,0,0,0,-1,1252,1079,0,0
35,-55,0,0,0,0,0,0,0,0,0,-1,1259,1079,0,0
42,-55,0,0,0,0,0,0,0,0,0,-1,1266,1079,0,0
49,-55,0,0,0,0,0,0,0,0,0,-1,1273,1079,0,0
56,-55,0,0,0,0,0,0,0,0,0,-1,1280,1079,0,0
63,-55,0,0,0,0,0,0,0,0,0,-1,1287,1079,0,0
70,-55,0,0,0,0,0,0,0,0,0,-1,1294,1079,0,0
77,-55,0,0,0,0,0,0,0,0,0,-1,1301,1079,0,0
84,-55,0,0,0,0,0,0,0,0,0,-1,1308,1079,0,0
91,-55,0,0,0,0,0,0,0,0,0,-1,1315,1079,0,0
98,-55,0,0,0,0,0,0,0,0,0,-1,1322,1079,0,0
105,-55,0,0,0,0,0,0,0,0,0,-1,1329,1079,0,0
112,-55,0,0,0,0,0,0,0,0,0,-1,1336,1079,0,0
119,-55,0,0,0,0,0,0,0,0,0,-1,1343,1079,0,0
126,-55,0,0,0,0,0,0,0,0,0,-1,1350,1079,0,0
133,-55,0,0,0,0,0,0,0,0,0,-1,1357,1079,0,0
140,-55,0,0,0,0,0,0,0,0,0,-1,1364,1079,0,0
147,-55,0,0,0,0,0,0,0,0,0,-1,1371,1079,0,0
154,-55,0,0,0,0,0,0,0,0,0,-1,1378,1079,0,0
161,-55,0,0,0,0,0,0,0,0,0,-1,1385,1079,0,0
168,-55,0,0,0,0,0,0,0,0,0,-1,1392,1079,0,0
175,-55,0,0,0,0,0,0,0,0,0,-1,1399,1079,0,0
182,-55,0,0,0,0,0,0,0,0,0,-1,1406,1079,0,0
189,-55,0,0,0,0,0,0,0,0,0,-1,1413,1079,0,0
196,-55,0,0,0,0,0,0,0,0,0,-1,1420,1079,0,0
203,-55,0,0,0,0,0,0,0,0,0,-1,1427,1079,0,0
210,-55,0,0,0,0,0,0,0,0,0,-1,1434,1079,0,0
217,-55,0,0,0,0,0,0,0,0,0,-1,1441,1079,0,0
224,-55,0,0,0,0,0,0,0,0,0,-1,1448,1079,0,0
231,-55,0,0,0,0,0,0,0,0,0,-1,1455,1079,0,0
238,-55,0,0,0,0,0,0,0,0,0,-1,1462,1079,0,0
245,-55,0,0,0,0,0,0,0,0,0,-1,1469,1079,0,0
252,-55,0,0,0,0,0,0,0,0,0,-1,1476,1079,0,0
259,-55,0,0,0,0,0,0,0,0,0,-1,1483,1079,0,0
266,-55,0,0,0,0,0,0,0,0,0,-1,1490,1079,0,0
273,-55,0,0,0,0,0,0,0,0,0,-1,1497,1079,0,0
280,-55,0,0,0,0,0,0,0,0,0,-1,1504,1079,0,0
287,-55,0,0,0,0,0,0,0,0,0,-1,1511,1079,0,0
294,-55,0,0,0,0,0,0,0,0,0,-1,1518,1079,0,0
301,-55,0,0,0,0,0,0,0,0,0,-1,1525,1079,0,0
308,-55,0,0,0,0,0,0,0,0,0,-1,1532,1079,0,0
315,-55,0,0,0,0,0,0,0,0,0,-1,1539,1079,0,0
322,-55,0,0,0,0,0,0,0,0,0,-1,1546,1079,0,0
329,-55,0,0,0,0,0,0,0,0,0,-1,1553,1079,0,0
336,-55,0,0,0,0,0,0,0,0,0,-1,1560,1079,0,0
343,-55,0,0,0,0,0,0,0,0,0,-1,1567,1079,0,0
350,-55,0,0,0,0,0,0,0,0,0,-1,1574,1079,0,0
357,-55,0,0,0,0,0,0,0,0,0,-1,1581,1079,0,0
364,-55,0,0,0,0,0,0,0,0,0,-1,1588,1079,0,0
371,-55,0,0,0,0,0,0,0,0,0,-1,1595,1079,0,0
378,-55,0,0,0,0,0,0,0,0,0,-1,1602,1079,0,0
385,-55,0,0,0,0,0,0,0,0,0,-1,1609,1079,0,0
392,-55,0,0,0,0,0,0,0,0,0,-1,1616,1079,0,0
399,-55,0,0,0,0,0,0,0,0,0,-1,1623,1079,0,0
406,-55,0,0,0,0,0,0,0,0,0,-1,1630,1079,0,0
413,-55,0,0,0,0,0,0,0,0,0,-1,1637,1079,0,0
420,-55,0,0,0,0,0,0,0,0,0,-1,1644,1079,0,0
427,-55,0,0,0,0,0,0,0,0,0,-1,1651,1079,0,0
434,-55,0,0,0,0,0,0,0,0,0,-1,1658,1079,0,0
441,-55,0,0,0,0,0,0,0,0,0,-1,1665,1079,0,0
448,-55,0,0,0,0,0,0,0,0,0,-1,1672,1079,0,0
455,-55,0,0,0,0,0,0,0,0,0,-1,1679,1079,0,0
462,-55,0,0,0,0,0,0,0,0,0,-1,1686,1079,0,0
469,-55,0,0,0,0,0,0,0,0,0,-1,1693,1079,0,0
476,-55,0,0,0,0,0,0,0,0,0,-1,1700,1079,0,0
483,-55,0,0,0,0,0,0,0,0,0,-1,1707,1079,0,0
490,-55,0,0,0,0,0,0,0,0,0,-1,1714,1079,0,0
497,-55,0,0,0,0,0,0,0,0,0,-1,1721,1079,0,0
504,-55,0,0,0,0,0,0,0,0,0,-1,1728,1079,0,0
511,-55,0,0,0,0,0,0,0,0,0,-1,1735,1079,0,0
518,-55,0,0,0,0,0,0,0,0,0,-1,1742,1079,0,0
525,-55,0,0,0,0,0,0,0,0,0,-1,1749,1079,0,0
532,-55,0,0,0,0,0,0,0,0,0,-1,1756,1079,0,0
539,-55,0,0,0,0,0,0,0,0,0,-1,1763,1079,0,0
546,-55,0,0,0,0,0,0,0,0,0,-1,1770,1079,0,0
553,-55,0,0,0,0,0,0,0,0,0,-1,1777,1079,0,0
560,-55,0,0,0,0,0,0,0,0,0,-1,1784,1079,0,0
567,-55,0,0,0,0,0,0,0,0,0,-1,1791,1079,0,0
574,-55,0,0,0,0,0,0,0,0,0,-1,1798,1079,0,0
581,-55,0,0,0,0,0,0,0,0,0,-1,1805,1079,0,0
588,-55,0,0,0,0,0,0,0,0,0,-1,1812,1079,0,0
595,-55,0,0,0,0,0,0,0,0,0,-1,1819,1079,0,0
602,-55,0,0,0,0,0,0,0,0,0,-1,1826,1079,0,0
609,-55,0,0,0,0,0,0,0,0,0,-1,1833,1079,0,0
616,-55,0,0,0,0,0,0,0,0,0,-1,1840,1079,0,0
623,-55,0,0,0,0,0,0,0,0,0,-1,1847,1079,0,0
630,-55,0,0,0,0,0,0,0,0,0,-1,1854,1079,0,0
637,-55,0,0,0,0,0,0,0,0,0,-1,1861,1079,0,0
644,-55,0,0,0,0,0,0,0,0,0,-1,1868,1079,0,0
651,-55,54.6871,2.93457,0.000367881,0.000120502,-0.000688177,0.000943396,-0.000455013,-0.69648,0.000823621,0.0337454,1875,1079,54.6871,-2.93461
658,-55,54.7832,2.82825,0.000331597,-0.000622624,7.12436e-05,0.000336887,-0.000627914,0.0741139,0.000565412,0.0326172,1882,1079,54.7833,-2.82829
665,-55,54.7238,2.77271,0.000371574,-0.00105122,0.000534263,0.000549853,-0.0012295,0.322072,0.00105199,0.0374354,1889,1079,54.7237,-2.77273
672,-55,54.7108,2.85889,0.000419436,-0.00124167,0.0009214,0.000829365,-0.0016516,0.418603,0.00145837,0.0379003,1896,1079,54.7108,-2.85889
679,-55,54.8346,2.92712,0.000410689,-0.00124243,0.00117294,0.00101905,-0.00185079,0.478466,0.00167994,0.0365838,1903,1079,54.8346,-2.92709
686,-55,54.8621,2.67664,0.0001264,-0.00131096,0.00137049,0.000955213,-0.00213977,0.543911,0.00183,0.0404713,1910,1079,54.8621,-2.67667
693,-55,54.7659,2.92224,-0.00013401,-0.00136253,0.00153822,0.000908063,-0.00240461,0.595433,0.00197656,0.0408516,1917,1079,54.7659,-2.92222
700,-55,54.6829,3.07996,-0.000284606,-0.0012744,0.00171516,0.00100563,-0.00256463,0.644941,0.00212579,0.0329303,1924,1079,54.6829,-3.08001
707,-55,54.7324,2.84631,-0.000635138,-0.00108588,0.00196506,0.00111744,-0.00283845,0.728304,0.00235488,0.025559,1931,1079,54.7324,-2.84636
714,-55,54.7148,3.00793,-0.00108012,-0.000796078,0.00216282,0.00122938,-0.00310558,0.818183,0.00257974,0.0472024,1938,1079,54.7148,-3.00788
721,-55,54.7128,3.28894,0,0,0,0,0,0,0,-1,1945,1079,54.7127,-3.28897
728,-55,53.3807,7.17554,0,0,0,0,0,0,0,-1,1952,1079,53.3807,-7.17548
735,-55,53.2631,6.88818,-0.00308352,0.0015298,0.00266791,0.00274996,-0.00430367,1.14185,0.00410522,0.0207499,1959,1079,53.263,-6.88815
742,-55,53.2461,6.60864,-0.00358995,0.00237668,0.00292496,0.00357135,-0.00478463,1.18304,0.00484125,0.020847,1966,1079,53.2461,-6.60865
749,-55,53.2599,6.32068,-0.00423181,0.00339073,0.00322477,0.00457194,-0.00541303,1.21968,0.00577164,0.0146586,1973,1079,53.2599,-6.3207
756,-55,53.1926,6.06079,-0.00488798,0.00478948,0.0035698,0.0059638,-0.0060623,1.25299,0.00694335,0.0124198,1980,1079,53.1927,-6.06082
763,-55,53.1396,5.81213,-0.00547879,0.00643765,0.0038883,0.00759415,-0.00663529,1.2817,0.00822158,0.0150406,1987,1079,53.1396,-5.81211
770,-55,53.1034,5.54553,-0.00587563,0.008549,0.00412774,0.00964666,-0.00697329,1.31089,0.00963682,0.015633,1994,1079,53.1034,-5.54553
777,-55,53.009,5.28442,-0.00597792,0.0107575,0.00451229,0.0118966,-0.00711702,1.32352,0.0110925,0.0137292,2001,1079,53.0091,-5.28443
784,-55,52.9141,5.02234,-0.00582972,0.0126986,0.00491902,0.0139236,-0.00705467,1.32674,0.0123263,0.0308443,2008,1079,52.914,-5.02236
791,-55,52.8062,4.729,-0.00537843,0.0141893,0.00538366,0.0155727,-0.00676183,1.31928,0.0132251,0.0444923,2015,1079,52.8063,-4.72895
798,-55,52.6694,4.32715,-0.00431075,0.0149914,0.00591751,0.0166611,-0.00598046,1.29578,0.0135482,0.04874,2022,1079,52.6695,-4.32718
805,-55,52.8809,4.01233,0,0,0,0,0,0,0,-1,2029,1079,52.8808,-4.01232
812,-55,52.4194,4.7312,0,0,0,0,0,0,0,-1,2036,1079,52.4195,-4.73122
-700,-62,-38.1382,-2.64783,0,0,0,0,0,0,0,-1,524,1086,-38.1381,2.6478
-693,-62,-38.0489,-1.86267,0,0,0,0,0,0,0,-1,531,1086,-38.0489,1.86264
-686,-62,-39.1455,0.789795,0,0,0,0,0,0,0,-1,538,1086,-39.1455,-0.789744
-679,-62,-39.6532,0.86499,0,0,0,0,0,0,0,-1,545,1086,-39.6532,-0.864994
-672,-62,-40.2051,0.811279,0.0260176,-0.000371635,-0.00143312,0.0260952,-0.000449235,-0.0540949,0.0175485,0.0484105,552,1086,-40.2051,-0.811267
-665,-62,-40.7827,0.949707,0,0,0,0,0,0,0,-1,559,1086,-40.7827,-0.949673
-658,-62,-39.2802,1.10229,0,0,0,0,0,0,0,-1,566,1086,-39.2802,-1.1023
-651,-62,-39.2515,1.70691,0.0104233,0.00830765,0.000905557,0.010758,0.00797298,0.353999,0.00644737,0.0452934,573,1086,-39.2515,-1.70694
-644,-62,-39.2514,2.30688,0.00711325,0.008169,0.000811897,0.00860954,0.00667271,1.07365,0.00521537,0.0171333,580,1086,-39.2514,-2.30684
-637,-62,-39.2928,2.6792,0.00443742,0.00793729,0.00057689,0.00802993,0.00434478,1.41157,0.00464129,0.0143915,587,1086,-39.2928,-2.67919
-630,-62,-39.3425,3.02112,0.00243875,0.00627013,3.64436e-06,0.00627013,0.00243875,1.56985,0.0036497,0.0157885,594,1086,-39.3425,-3.02107
-623,-62,-39.4022,3.41968,0.00152556,0.00415087,-0.000601522,0.00428213,0.0013943,-1.35595,0.00252192,0.0180192,601,1086,-39.4022,-3.41968
-616,-62,-39.4125,3.797,0.00173458,0.00195859,-0.00087852,0.00273221,0.000960952,-0.848801,0.0016004,0.0182632,608,1086,-39.4125,-3.79697
-609,-62,-39.3655,4.10254,0.00202284,0.000628414,-0.00115548,0.00267516,-2.39055e-05,-0.513941,0.00179146,0.0185416,615,1086,-39.3656,-4.10258
-602,-62,-39.2804,4.38013,0.00213869,-0.000581821,-0.00146445,0.00277717,-0.0012203,-0.411135,0.00236556,0.0161786,622,1086,-39.2804,-4.38008
-595,-62,-39.1337,4.7312,0.00218874,-0.00121708,-0.00133704,0.00265091,-0.00167926,-0.332811,0.00252092,0.038182,629,1086,-39.1337,-4.73119
-588,-62,-39.0393,5.12097,0,0,0,0,0,0,0,-1,636,1086,-39.0393,-5.12101
-581,-62,-40.8307,1.19263,0,0,0,0,0,0,0,-1,643,1086,-40.8307,-1.19267
-574,-62,-40.7595,1.18188,0.00239659,-0.00267852,-0.000240434,0.00240796,-0.00268989,-0.0472341,0.00294474,0.0350499,650,1086,-40.7594,-1.18193
-567,-62,-40.7657,1.01172,0.00215883,-0.00285354,0.00019821,0.00216665,-0.00286136,0.0394622,0.00291215,0.038214,657,1086,-40.7657,-1.0117
-560,-62,-40.8939,1.05823,0.0016607,-0.00293031,0.000669363,0.0017563,-0.00302591,0.141865,0.00279326,0.0387105,664,1086,-40.8939,-1.05821
-553,-62,-40.8403,1.06909,0.000976942,-0.00304737,0.00115629,0.00128551,-0.00335595,0.260787,0.00276719,0.0359866,671,1086,-40.8403,-1.06906
-546,-62,-40.8298,0.978882,0.000392839,-0.00343302,0.00157751,0.000959392,-0.00399958,0.344798,0.00303712,0.0327821,678,1086,-40.8298,-0.978942
-539,-62,-40.7595,0.991821,0.00059396,-0.00474172,0.00146832,0.000971333,-0.0051191,0.251566,0.00377836,0.0383371,685,1086,-40.7595,-0.991765
-532,-62,-40.6808,1.02954,0.00101465,-0.00594698,0.00157302,0.00135358,-0.00628591,0.212221,0.00470713,0.040296,692,1086,-40.6808,-1.02957
-525,-62,0,0,0,0,0,0,0,0,0,-1,699,1086,0,0
-518,-62,0,0,0,0,0,0,0,0,0,-1,706,1086,0,0
-511,-62,0,0,0,0,0,0,0,0,0,-1,713,1086,0,0
-504,-62,0,0,0,0,0,0,0,0,0,-1,720,1086,0,0
-497,-62,0,0,0,0,0,0,0,0,0,-1,727,1086,0,0
-490,-62,0,0,0,0,0,0,0,0,0,-1,734,1086,0,0
-483,-62,0,0,0,0,0,0,0,0,0,-1,741,1086,0,0
-476,-62,0,0,0,0,0,0,0,0,0,-1,748,1086,0,0
-469,-62,0,0,0,0,0,0,0,0,0,-1,755,1086,0,0
-462,-62,0,0,0,0,0,0,0,0,0,-1,762,1086,0,0
-455,-62,0,0,0,0,0,0,0,0,0,-1,769,1086,0,0
-448,-62,0,0,0,0,0,0,0,0,0,-1,776,1086,0,0
-441,-62,0,0,0,0,0,0,0,0,0,-1,783,1086,0,0
-434,-62,0,0,0,0,0,0,0,0,0,-1,790,1086,0,0
-427,-62,0,0,0,0,0,0,0,0,0,-1,797,1086,0,0
-420,-62,0,0,0,0,0,0,0,0,0,-1,804,1086,0,0
-413,-62,0,0,0,0,0,0,0,0,0,-1,811,1086,0,0
-406,-62,0,0,0,0,0,0,0,0,0,-1,818,1086,0,0
-399,-62,0,0,0,0,0,0,0,0,0,-1,825,1086,0,0
-392,-62,0,0,0,0,0,0,0,0,0,-1,832,1086,0,0
-385,-62,0,0,0,0,0,0,0,0,0,-1,839,1086,0,0
-378,-62,0,0,0,0,0,0,0,0,0,-1,846,1086,0,0
-371,-62,0,0,0,0,0,0,0,0,0,-1,853,1086,0,0
-364,-62,0,0,0,0,0,0,0,0,0,-1,860,1086,0,0
-357,-62,0,0,0,0,0,0,0,0,0,-1,867,1086,0,0
-350,-62,0,0,0,0,0,0,0,0,0,-1,874,1086,0,0
-343,-62,0,0,0,0,0,0,0,0,0,-1,881,1086,0,0
-336,-62,0,0,0,0,0,0,0,0,0,-1,888,1086,0,0
-329,-62,0,0,0,0,0,0,0,0,0,-1,895,1086,0,0
-322,-62,0,0,0,0,0,0,0,0,0,-1,902,1086,0,0
-315,-62,0,0,0,0,0,0,0,0,0,-1,909,1086,0,0
-308,-62,0,0,0,0,0,0,0,0,0,-1,916,1086,0,0
-301,-62,0,0,0,0,0,0,0,0,0,-1,923,1086,0,0
-294,-62,0,0,0,0,0,0,0,0,0,-1,930,1086,0,0
-287,-62,0,0,0,0,0,0,0,0,0,-1,937,1086,0,0
-280,-62,0,0,0,0,0,0,0,0,0,-1,944,1086,0,0
-273,-62,0,0,0,0,0,0,0,0,0,-1,951,1086,0,0
-266,-62,0,0,0,0,0,0,0,0,0,-1,958,1086,0,0
-259,-62,0,0,0,0,0,0,0,0,0,-1,965,1086,0,0
-252,-62,0,0,0,0,0,0,0,0,0,-1,972,1086,0,0
-245,-62,0,0,0,0,0,0,0,0,0,-1,979,1086,0,0
-238,-62,0,0,0,0,0,0,0,0,0,-1,986,1086,0,0
-231,-62,0,0,0,0,0,0,0,0,0,-1,993,1086,0,0
-224,-62,0,0,0,0,0,0,0,0,0,-1,1000,1086,0,0
-217,-62,0,0,0,0,0,0,0,0,0,-1,1007,1086,0,0
-210,-62,0,0,0,0,0,0,0,0,0,-1,1014,1086,0,0
-203,-62,0,0,0,0,0,0,0,0,0,-1,1021,1086,0,0
-196,-62,0,0,0,0,0,0,0,0,0,-1,1028,1086,0,0
-189,-62,0,0,0,0,0,0,0,0,0,-1,1035,1086,0,0
-182,-62,0,0,0,0,0,0,0,0,0,-1,1042,1086,0,0
-175,-62,0,0,0,0,0,0,0,0,0,-1,1049,1086,0,0
-168,-62,0,0,0,0,0,0,0,0,0,-1,1056,1086,0,0
-161,-62,0,0,0,0,0,0,0,0,0,-1,1063,1086,0,0
-154,-62,0,0,0,0,0,0,0,0,0,-1,1070,1086,0,0
-147,-62,0,0,0,0,0,0,0,0,0,-1,1077,1086,0,0
-140,-62,0,0,0,0,0,0,0,0,0,-1,1084,1086,0,0
-133,-62,0,0,0,0,0,0,0,0,0,-1,1091,1086,0,0
-126,-62,0,0,0,0,0,0,0,0,0,-1,1098,1086,0,0
-119,-62,0,0,0,0,0,0,0,0,0,-1,1105,1086,0,0
-112,-62,0,0,0,0,0,0,0,0,0,-1,1112,1086,0,0
-105,-62,0,0,0,0,0,0,0,0,0,-1,1119,1086,0,0
-98,-62,0,0,0,0,0,0,0,0,0,-1,1126,1086,0,0
-91,-62,0,0,0,0,0,0,0,0,0,-1,1133,1086,0,0
-84,-62,0,0,0,0,0,0,0,0,0,-1,1140,1086,0,0
-77,-62,0,0,0,0,0,0,0,0,0,-1,1147,1086,0,0
-70,-62,0,0,0,0,0,0,0,0,0,-1,1154,1086,0,0
-63,-62,0,0,0,0,0,0,0,0,0,-1,1161,1086,0,0
-56,-62,0,0,0,0,0,0,0,0,0,-1,1168,1086,0,0
-49,-62,0,0,0,0,0,0,0,0,0,-1,1175,1086,0,0
-42,-62,0,0,0,0,0,0,0,0,0,-1,1182,1086,0,0
-35,-62,0,0,0,0,0,0,0,0,0,-1,1189,1086,0,0
-28,-62,0,0,0,0,0,0,0,0,0,-1,1196,1086,0,0
-21,-62,0,0,0,0,0,0,0,0,0,-1,1203,1086,0,0
-14,-62,0,0,0,0,0,0,0,0,0,-1,1210,1086,0,0
-7,-62,0,0,0,0,0,0,0,0,0,-1,1217,1086,0,0
0,-62,0,0,0,0,0,0,0,0,0,-1,1224,1086,0,0
7,-62,0,0,0,0,0,0,0,0,0,-1,1231,1086,0,0
14,-62,0,0,0,0,0,0,0,0,0,-1,1238,1086,0,0
21,-62,0,0,0,0,0,0,0,0,0,-1,1245,1086,0,0
28,-62,0,0,0,0,0,0,0,0,0,-1,1252,1086,0,0
35,-62,0,0,0,0,0,0,0,0,0,-1,1259,1086,0,0
42,-62,0,0,0,0,0,0,0,0,0,-1,1266,1086,0,0
49,-62,0,0,0,0,0,0,0,0,0,-1,1273,1086,0,0
56,-62,0,0,0,0,0,0,0,0,0,-1,1280,1086,0,0
63,-62,0,0,0,0,0,0,0,0,0,-1,1287,1086,0,0
70,-62,0,0,0,0,0,0,0,0,0,-1,1294,1086,0,0
77,-62,0,0,0,0,0,0,0,0,0,-1,1301,1086,0,0
84,-62,0,0,0,0,0,0,0,0,0,-1,1308,1086,0,0
91,-62,0,0,0,0,0,0,0,0,0,-1,1315,1086,0,0
98,-62,0,0,0,0,0,0,0,0,0,-1,1322,1086,0,0
105,-62,0,0,0,0,0,0,0,0,0,-1,1329,1086,0,0
112,-62,0,0,0,0,0,0,0,0,0,-1,1336,1086,0,0
119,-62,0,0,0,0,0,0,0,0,0,-1,1343,1086,0,0
126,-62,0,0,0,0,0,0,0,0,0,-1,1350,1086,0,0
133,-62,0,0,0,0,0,0,0,0,0,-1,1357,1086,0,0
140,-62,0,0,0,0,0,0,0,0,0,-1,1364,1086,0,0
147,-62,0,0,0,0,0,0,0,0,0,-1,1371,1086,0,0
154,-62,0,0,0,0,0,0,0,0,0,-1,1378,1086,0,0
161,-62,0,0,0,0,0,0,0,0,0,-1,1385,1086,0,0
168,-62,0,0,0,0,0,0,0,0,0,-1,1392,1086,0,0
175,-62,0,0,0,0,0,0,0,0,0,-1,1399,1086,0,0
182,-62,0,0,0,0,0,0,0,0,0,-1,1406,1086,0,0
189,-62,0,0,0,0,0,0,0,0,0,-1,1413,1086,0,0
196,-62,0,0,0,0,0,0,0,0,0,-1,1420,1086,0,0
203,-62,0,0,0,0,0,0,0,0,0,-1,1427,1086,0,0
210,-62,0,0,0,0,0,0,0,0,0,-1,1434,1086,0,0
217,-62,0,0,0,0,0,0,0,0,0,-1,1441,1086,0,0
224,-62,0,0,0,0,0,0,0,0,0,-1,1448,1086,0,0
231,-62,0,0,0,0,0,0,0,0,0,-1,1455,1086,0,0
238,-62,0,0,0,0,0,0,0,0,0,-1,1462,1086,0,0
245,-62,0,0,0,0,0,0,0,0,0,-1,1469,1086,0,0
252,-62,0,0,0,0,0,0,0,0,0,-1,1476,1086,0,0
259,-62,0,0,0,0,0,0,0,0,0,-1,1483,1086,0,0
266,-62,0,0,0,0,0,0,0,0,0,-1,1490,1086,0,0
273,-62,0,0,0,0,0,0,0,0,0,-1,1497,1086,0,0
280,-62,0,0,0,0,0,0,0,0,0,-1,1504,1086,0,0
287,-62,0,0,0,0,0,0,0,0,0,-1,1511,1086,0,0
294,-62,0,0,0,0,0,0,0,0,0,-1,1518,1086,0,0
301,-62,0,0,0,0,0,0,0,0,0,-1,1525,1086,0,0
308,-62,0,0,0,0,0,0,0,0,0,-1,1532,1086,0,0
315,-62,0,0,0,0,0,0,0,0,0,-1,1539,1086,0,0
322,-62,0,0,0,0,0,0,0,0,0,-1,1546,1086,0,0
329,-62,0,0,0,0,0,0,0,0,0,-1,1553,1086,0,0
336,-62,0,0,0,0,0,0,0,0,0,-1,1560,1086,0,0
343,-62,0,0,0,0,0,0,0,0,0,-1,1567,1086,0,0
350,-62,0,0,0,0,0,0,0,0,0,-1,1574,1086,0,0
357,-62,0,0,0,0,0,0,0,0,0,-1,1581,1086,0,0
364,-62,0,0,0,0,0,0,0,0,0,-1,1588,1086,0,0
371,-62,0,0,0,0,0,0,0,0,0,-1,1595,1086,0,0
378,-62,0,0,0,0,0,0,0,0,0,-1,1602,1086,0,0
385,-62,0,0,0,0,0,0,0,0,0,-1,1609,1086,0,0
392,-62,0,0,0,0,0,0,0,0,0,-1,1616,1086,0,0
399,-62,0,0,0,0,0,0,0,0,0,-1,1623,1086,0,0
406,-62,0,0,0,0,0,0,0,0,0,-1,1630,1086,0,0
413,-62,0,0,0,0,0,0,0,0,0,-1,1637,1086,0,0
420,-62,0,0,0,0,0,0,0,0,0,-1,1644,1086,0,0
427,-62,0,0,0,0,0,0,0,0,0,-1,1651,1086,0,0
434,-62,0,0,0,0,0,0,0,0,0,-1,1658,1086,0,0
441,-62,0,0,0,0,0,0,0,0,0,-1,1665,1086,0,0
448,-62,0,0,0,0,0,0,0,0,0,-1,1672,1086,0,0
455,-62,0,0,0,0,0,0,0,0,0,-1,1679,1086,0,0
462,-62,0,0,0,0,0,0,0,0,0,-1,1686,1086,0,0
469,-62,0,0,0,0,0,0,0,0,0,-1,1693,1086,0,0
476,-62,0,0,0,0,0,0,0,0,0,-1,1700,1086,0,0
483,-62,0,0,0,0,0,0,0,0,0,-1,1707,1086,0,0
490,-62,0,0,0,0,0,0,0,0,0,-1,1714,1086,0,0
497,-62,0,0,0,0,0,0,0,0,0,-1,1721,1086,0,0
504,-62,0,0,0,0,0,0,0,0,0,-1,1728,1086,0,0
511,-62,0,0,0,0,0,0,0,0,0,-1,1735,1086,0,0
518,-62,0,0,0,0,0,0,0,0,0,-1,1742,1086,0,0
525,-62,0,0,0,0,0,0,0,0,0,-1,1749,1086,0,0
532,-62,0,0,0,0,0,0,0,0,0,-1,1756,1086,0,0
539,-62,0,0,0,0,0,0,0,0,0,-1,1763,1086,0,0
546,-62,0,0,0,0,0,0,0,0,0,-1,1770,1086,0,0
553,-62,0,0,0,0,0,0,0,0,0,-1,1777,1086,0,0
560,-62,0,0,0,0,0,0,0,0,0,-1,1784,1086,0,0
567,-62,0,0,0,0,0,0,0,0,0,-1,1791,1086,0,0
574,-62,0,0,0,0,0,0,0,0,0,-1,1798,1086,0,0
581,-62,0,0,0,0,0,0,0,0,0,-1,1805,1086,0,0
588,-62,0,0,0,0,0,0,0,0,0,-1,1812,1086,0,0
595,-62,0,0,0,0,0,0,0,0,0,-1,1819,1086,0,0
602,-62,0,0,0,0,0,0,0,0,0,-1,1826,1086,0,0
609,-62,0,0,0,0,0,0,0,0,0,-1,1833,1086,0,0
616,-62,0,0,0,0,0,0,0,0,0,-1,1840,1086,0,0
623,-62,0,0,0,0,0,0,0,0,0,-1,1847,1086,0,0
630,-62,0,0,0,0,0,0,0,0,0,-1,1854,1086,0,0
637,-62,0,0,0,0,0,0,0,0,0,-1,1861,1086,0,0
644,-62,0,0,0,0,0,0,0,0,0,-1,1868,1086,0,0
651,-62,54.5804,2.9646,0.00235506,-6.84531e-05,-0.00073239,0.0025592,-0.000272588,-0.271825,0.00180387,0.0407589,1875,1086,54.5804,-2.96461
658,-62,54.6908,2.83716,0.00180263,-0.000592136,-2.57726e-05,0.00180291,-0.000592413,-0.0107604,0.0014406,0.0373764,1882,1086,54.6908,-2.83719
665,-62,54.6846,2.76917,0.00144453,-0.000913813,0.000419254,0.00151684,-0.000986128,0.170805,0.00145588,0.037534,1889,1086,54.6846,-2.76919
672,-62,54.6647,2.81628,0.00116697,-0.00105328,0.000769068,0.00140734,-0.00129366,0.30293,0.00155988,0.0374019,1896,1086,54.6646,-2.81633
679,-62,54.7295,2.90869,0.000875621,-0.00103254,0.000968872,0.00128131,-0.00143823,0.396545,0.001571,0.0375257,1903,1086,54.7295,-2.90866
686,-62,54.7965,2.78052,0.000472283,-0.00110845,0.00113453,0.00106461,-0.00170077,0.481162,0.00161061,0.0417804,1910,1086,54.7965,-2.78053
693,-62,54.8284,2.79346,0.000175609,-0.00118363,0.00128854,0.000952771,-0.00196079,0.542721,0.00171538,0.0412706,1917,1086,54.8284,-2.79349
700,-62,54.8025,2.73523,-2.04699e-06,-0.00110431,0.00144642,0.000994687,-0.00210104,0.603375,0.00182497,0.0326802,1924,1086,54.8025,-2.73518
707,-62,54.7261,2.82642,-0.000333729,-0.000958983,0.00172775,0.00110945,-0.00240216,0.695894,0.00207271,0.0231692,1931,1086,54.726,-2.82639
714,-62,54.7394,2.82996,-0.00074022,-0.000720709,0.00196687,0.00123643,-0.00269736,0.787878,0.0023228,0.0392025,1938,1086,54.7394,-2.83001
721,-62,54.7653,2.85376,0,0,0,0,0,0,0,-1,1945,1086,54.7652,-2.85379
728,-62,53.0686,7.30786,0,0,0,0,0,0,0,-1,1952,1086,53.0686,-7.30785
735,-62,53.001,6.91479,-0.00262502,0.00129683,0.00249697,0.00251082,-0.00383901,1.11826,0.00369271,0.0264549,1959,1086,53.001,-6.91479
742,-62,52.9348,6.65027,-0.00317266,0.00211776,0.00282651,0.00334376,-0.00439866,1.16154,0.0044839,0.0268073,1966,1086,52.9348,-6.65026
749,-62,52.9034,6.33044,-0.00385142,0.00314102,0.00315957,0.00435717,-0.00506757,1.20337,0.00544653,0.0206384,1973,1086,52.9034,-6.33046
756,-62,52.828,6.09985,-0.00460685,0.00446964,0.00343292,0.00562179,-0.005759,1.24699,0.00657086,0.0149694,1980,1086,52.828,-6.09989
763,-62,52.8135,5.79639,-0.00536725,0.00618284,0.00358641,0.00720584,-0.00639025,1.29293,0.00785442,0.0165751,1987,1086,52.8135,-5.7964
770,-62,52.7902,5.50061,-0.00601902,0.00836845,0.00360498,0.00922119,-0.00687176,1.33852,0.00932422,0.0138245,1994,1086,52.7901,-5.50058
777,-62,52.667,5.17542,-0.0064519,0.0107394,0.00360021,0.0114629,-0.00717541,1.37248,0.0108553,0.0143583,2001,1086,52.6669,-5.17543
784,-62,52.5708,4.83911,-0.00663333,0.0129336,0.0034846,0.0135356,-0.00723537,1.39971,0.0121746,0.0276019,2008,1086,52.5707,-4.83913
791,-62,52.4355,4.60205,-0.00648863,0.0148198,0.00322024,0.0152958,-0.00696466,1.42404,0.0131487,0.0435983,2015,1086,52.4356,-4.60208
798,-62,52.2864,4.21753,-0.00571449,0.0162045,0.00273198,0.0165399,-0.00604987,1.44865,0.0135028,0.0469023,2022,1086,52.2865,-4.21752
805,-62,52.1855,3.8429,0,0,0,0,0,0,0,-1,2029,1086,52.1856,-3.84295
812,-62,51.6858,1.41431,0,0,0,0,0,0,0,-1,2036,1086,51.6857,-1.41428
-700,-69,-37.5739,-1.97546,0,0,0,0,0,0,0,-1,524,1093,-37.5739,1.97544
-693,-69,-37.6721,-1.08411,0,0,0,0,0,0,0,-1,531,1093,-37.6721,1.08406
-686,-69,-37.7816,-0.253174,0,0,0,0,0,0,0,-1,538,1093,-37.7816,0.253146
-679,-69,-37.7957,0.428101,0,0,0,0,0,0,0,-1,545,1093,-37.7957,-0.42804
-672,-69,-39.2059,0.836182,0,0,0,0,0,0,0,-1,552,1093,-39.2059,-0.836157
-665,-69,-38.5709,1.59412,0,0,0,0,0,0,0,-1,559,1093,-38.5709,-1.59416
-658,-69,-38.7349,1.79797,0.00915419,0.00306436,-0.00429224,0.0113719,0.000846684,-0.476895,0.00731536,0.0479068,566,1093,-38.7349,-1.79798
-651,-69,-38.8332,1.90784,0.00604673,0.00510251,-0.00281233,0.00842631,0.00272293,-0.702238,0.00496533,0.0368515,573,1093,-38.8332,-1.90781
-644,-69,-38.8441,2.27417,0.0038575,0.00571863,-0.00191733,0.00691929,0.00265685,-1.01133,0.00403054,0.0116591,580,1093,-38.8441,-2.27411
-637,-69,-38.8853,2.66321,0.00216328,0.00620965,-0.00125729,0.00656849,0.00180443,-1.29278,0.00391854,0.0128318,587,1093,-38.8853,-2.66318
-630,-69,-38.9284,3.01563,0.00104501,0.00509106,-0.00106723,0.00535531,0.000780762,-1.32808,0.0033405,0.0153613,594,1093,-38.9284,-3.01566
-623,-69,-38.9142,3.38904,0.000814401,0.00336538,-0.00117866,0.00382659,0.000353193,-1.19781,0.00244186,0.0176069,601,1093,-38.9142,-3.38902
-616,-69,-38.9296,3.74646,0.00149293,0.00145182,-0.00109699,0.00256956,0.00037519,-0.776029,0.00160268,0.0206923,608,1093,-38.9296,-3.74651
-609,-69,-38.9315,4.06335,0.00206276,0.000366562,-0.00109194,0.00259727,-0.000167947,-0.455215,0.00179013,0.0182092,615,1093,-38.9315,-4.06341
-602,-69,-38.8912,4.43372,0.00232688,-0.000678409,-0.00119002,0.00274102,-0.00109255,-0.334906,0.00228051,0.019226,622,1093,-38.8912,-4.43371
-595,-69,-38.7902,4.76099,0.00237948,-0.00132315,-0.000906604,0.00258955,-0.00153322,-0.22769,0.00240618,0.0396214,629,1093,-38.7902,-4.76102
-588,-69,-38.761,5.07129,0,0,0,0,0,0,0,-1,636,1093,-38.7611,-5.07133
-581,-69,-40.8254,1.18042,0,0,0,0,0,0,0,-1,643,1093,-40.8254,-1.18038
-574,-69,-40.8412,1.00256,0.00247227,-0.00267532,0.000186525,0.00247902,-0.00268207,0.0361722,0.00298053,0.0328094,650,1093,-40.8412,-1.0025
-567,-69,-40.926,0.790649,0.00221487,-0.00285937,0.000593077,0.00228327,-0.00292776,0.114818,0.00301625,0.0382791,657,1093,-40.926,-0.790604
-560,-69,-40.7739,1.05261,0.00169635,-0.00294825,0.000994596,0.00190037,-0.00315227,0.202323,0.00294684,0.0386173,664,1093,-40.7739,-1.05255
-553,-69,-40.7117,1.08801,0.000896592,-0.00306446,0.00133157,0.0013026,-0.00347047,0.295957,0.00284891,0.0377048,671,1093,-40.7118,-1.08803
-546,-69,-40.7738,0.859985,0.000180093,-0.00340104,0.00149585,0.000722702,-0.00394365,0.347981,0.00290017,0.0370781,678,1093,-40.7738,-0.860041
-539,-69,-40.8315,0.953979,0.000453393,-0.00463304,0.00102803,0.000653313,-0.00483296,0.192071,0.00346036,0.0424413,685,1093,-40.8315,-0.953967
-532,-69,-40.7926,0.986938,0.000994581,-0.005795,0.000635087,0.00105348,-0.00585389,0.0924697,0.00429702,0.044209,692,1093,-40.7926,-0.986997
-525,-69,0,0,0,0,0,0,0,0,0,-1,699,1093,0,0
-518,-69,0,0,0,0,0,0,0,0,0,-1,706,1093,0,0
-511,-69,0,0,0,0,0,0,0,0,0,-1,713,1093,0,0
-504,-69,0,0,0,0,0,0,0,0,0,-1,720,1093,0,0
-497,-69,0,0,0,0,0,0,0,0,0,-1,727,1093,0,0
-490,-69,0,0,0,0,0,0,0,0,0,-1,734,1093,0,0
-483,-69,0,0,0,0,0,0,0,0,0,-1,741,1093,0,0
-476,-69,0,0,0,0,0,0,0,0,0,-1,748,1093,0,0
-469,-69,0,0,0,0,0,0,0,0,0,-1,755,1093,0,0
-462,-69,0,0,0,0,0,0,0,0,0,-1,762,1093,0,0
-455,-69,0,0,0,0,0,0,0,0,0,-1,769,1093,0,0
-448,-69,0,0,0,0,0,0,0,0,0,-1,776,1093,0,0
-441,-69,0,0,0,0,0,0,0,0,0,-1,783,1093,0,0
-434,-69,0,0,0,0,0,0,0,0,0,-1,790,1093,0,0
-427,-69,0,0,0,0,0,0,0,0,0,-1,797,1093,0,0
-420,-69,0,0,0,0,0,0,0,0,0,-1,804,1093,0,0
-413,-69,0,0,0,0,0,0,0,0,0,-1,811,1093,0,0
-406,-69,0,0,0,0,0,0,0,0,0,-1,818,1093,0,0
-399,-69,0,0,0,0,0,0,0,0,0,-1,825,1093,0,0
-392,-69,0,0,0,0,0,0,0,0,0,-1,832,1093,0,0
-385,-69,0,0,0,0,0,0,0,0,0,-1,839,1093,0,0
-378,-69,0,0,0,0,0,0,0,0,0,-1,846,1093,0,0
-371,-69,0,0,0,0,0,0,0,0,0,-1,853,1093,0,0
-364,-69,0,0,0,0,0,0,0,0,0,-1,860,1093,0,0
-357,-69,0,0,0,0,0,0,0,0,0,-1,867,1093,0,0
-350,-69,0,0,0,0,0,0,0,0,0,-1,874,1093,0,0
-343,-69,0,0,0,0,0,0,0,0,0,-1,881,1093,0,0
-336,-69,0,0,0,0,0,0,0,0,0,-1,888,1093,0,0
-329,-69,0,0,0,0,0,0,0,0,0,-1,895,1093,0,0
-322,-69,0,0,0,0,0,0,0,0,0,-1,902,1093,0,0
-315,-69,0,0,0,0,0,0,0,0,0,-1,909,1093,0,0
-308,-69,0,0,0,0,0,0,0,0,0,-1,916,1093,0,0
-301,-69,0,0,0,0,0,0,0,0,0,-1,923,1093,0,0
-294,-69,0,0,0,0,0,0,0,0,0,-1,930,1093,0,0
-287,-69,0,0,0,0,0,0,0,0,0,-1,937,1093,0,0
-280,-69,0,0,0,0,0,0,0,0,0,-1,944,1093,0,0
-273,-69,0,0,0,0,0,0,0,0,0,-1,951,1093,0,0
-266,-69,0,0,0,0,0,0,0,0,0,-1,958,1093,0,0
-259,-69,0,0,0,0,0,0,0,0,0,-1,965,1093,0,0
-252,-69,0,0,0,0,0,0,0,0,0,-1,972,1093,0,0
-245,-69,0,0,0,0,0,0,0,0,0,-1,979,1093,0,0
-238,-69,0,0,0,0,0,0,0,0,0,-1,986,1093,0,0
-231,-69,0,0,0,0,0,0,0,0,0,-1,993,1093,0,0
-224,-69,0,0,0,0,0,0,0,0,0,-1,1000,1093,0,0
-217,-69,0,0,0,0,0,0,0,0,0,-1,1007,1093,0,0
-210,-69,0,0,0,0,0,0,0,0,0,-1,1014,1093,0,0
-203,-69,0,0,0,0,0,0,0,0,0,-1,1021,1093,0,0
-196,-69,0,0,0,0,0,0,0,0,0,-1,1028,1093,0,0
-189,-69,0,0,0,0,0,0,0,0,0,-1,1035,1093,0,0
-182,-69,0,0,0,0,0,0,0,0,0,-1,1042,1093,0,0
-175,-69,0,0,0,0,0,0,0,0,0,-1,1049,1093,0,0
-168,-69,0,0,0,0,0,0,0,0,0,-1,1056,1093,0,0
-161,-69,0,0,0,0,0,0,0,0,0,-1,1063,1093,0,0
-154,-69,0,0,0,0,0,0,0,0,0,-1,1070,1093,0,0
-147,-69,0,0,0,0,0,0,0,0,0,-1,1077,1093,0,0
-140,-69,0,0,0,0,0,0,0,0,0,-1,1084,1093,0,0
-133,-69,0,0,0,0,0,0,0,0,0,-1,1091,1093,0,0
-126,-69,0,0,0,0,0,0,0,0,0,-1,1098,1093,0,0
-119,-69,0,0,0,0,0,0,0,0,0,-1,1105,1093,0,0
-112,-69,0,0,0,0,0,0,0,0,0,-1,1112,1093,0,0
-105,-69,0,0,0,0,0,0,0,0,0,-1,1119,1093,0,0
-98,-69,0,0,0,0,0,0,0,0,0,-1,1126,1093,0,0
-91,-69,0,0,0,0,0,0,0,0,0,-1,1133,1093,0,0
-84,-69,0,0,0,0,0,0,0,0,0,-1,1140,1093,0,0
-77,-69,0,0,0,0,0,0,0,0,0,-1,1147,1093,0,0
-70,-69,0,0,0,0,0,0,0,0,0,-1,1154,1093,0,0
-63,-69,0,0,0,0,0,0,0,0,0,-1,1161,1093,0,0
-56,-69,0,0,0,0,0,0,0,0,0,-1,1168,1093,0,0
-49,-69,0,0,0,0,0,0,0,0,0,-1,1175,1093,0,0
-42,-69,0,0,0,0,0,0,0,0,0,-1,1182,1093,0,0
-35,-69,0,0,0,0,0,0,0,0,0,-1,1189,1093,0,0
-28,-69,0,0,0,0,0,0,0,0,0,-1,1196,1093,0,0
-21,-69,0,0,0,0,0,0,0,0,0,-1,1203,1093,0,0
-14,-69,0,0,0,0,0,0,0,0,0,-1,1210,1093,0,0
-7,-69,0,0,0,0,0,0,0,0,0,-1,1217,1093,0,0
0,-69,0,0,0,0,0,0,0,0,0,-1,1224,1093,0,0
7,-69,0,0,0,0,0,0,0,0,0,-1,1231,1093,0,0
14,-69,0,0,0,0,0,0,0,0,0,-1,1238,1093,0,0
21,-69,0,0,0,0,0,0,0,0,0,-1,1245,1093,0,0
28,-69,0,0,0,0,0,0,0,0,0,-1,1252,1093,0,0
35,-69,0,0,0,0,0,0,0,0,0,-1,1259,1093,0,0
42,-69,0,0,0,0,0,0,0,0,0,-1,1266,1093,0,0
49,-69,0,0,0,0,0,0,0,0,0,-1,1273,1093,0,0
56,-69,0,0,0,0,0,0,0,0,0,-1,1280,1093,0,0
63,-69,0,0,0,0,0,0,0,0,0,-1,1287,1093,0,0
70,-69,0,0,0,0,0,0,0,0,0,-1,1294,1093,0,0
77,-69,0,0,0,0,0,0,0,0,0,-1,1301,1093,0,0
84,-69,0,0,0,0,0,0,0,0,0,-1,1308,1093,0,0
91,-69,0,0,0,0,0,0,0,0,0,-1,1315,1093,0,0
98,-69,0,0,0,0,0,0,0,0,0,-1,1322,1093,0,0
105,-69,0,0,0,0,0,0,0,0,0,-1,1329,1093,0,0
112,-69,0,0,0,0,0,0,0,0,0,-1,1336,1093,0,0
119,-69,0,0,0,0,0,0,0,0,0,-1,1343,1093,0,0
126,-69,0,0,0,0,0,0,0,0,0,-1,1350,1093,0,0
133,-69,0,0,0,0,0,0,0,0,0,-1,1357,1093,0,0
140,-69,0,0,0,0,0,0,0,0,0,-1,1364,1093,0,0
147,-69,0,0,0,0,0,0,0,0,0,-1,1371,1093,0,0
154,-69,0,0,0,0,0,0,0,0,0,-1,1378,1093,0,0
161,-69,0,0,0,0,0,0,0,0,0,-1,1385,1093,0,0
168,-69,0,0,0,0,0,0,0,0,0,-1,1392,1093,0,0
175,-69,0,0,0,0,0,0,0,0,0,-1,1399,1093,0,0
182,-69,0,0,0,0,0,0,0,0,0,-1,1406,1093,0,0
189,-69,0,0,0,0,0,0,0,0,0,-1,1413,1093,0,0
196,-69,0,0,0,0,0,0,0,0,0,-1,1420,1093,0,0
203,-69,0,0,0,0,0,0,0,0,0,-1,1427,1093,0,0
210,-69,0,0,0,0,0,0,0,0,0,-1,1434,1093,0,0
217,-69,0,0,0,0,0,0,0,0,0,-1,1441,1093,0,0
224,-69,0,0,0,0,0,0,0,0,0,-1,1448,1093,0,0
231,-69,0,0,0,0,0,0,0,0,0,-1,1455,1093,0,0
238,-69,0,0,0,0,0,0,0,0,0,-1,1462,1093,0,0
245,-69,0,0,0,0,0,0,0,0,0,-1,1469,1093,0,0
252,-69,0,0,0,0,0,0,0,0,0,-1,1476,1093,0,0
259,-69,0,0,0,0,0,0,0,0,0,-1,1483,1093,0,0
266,-69,0,0,0,0,0,0,0,0,0,-1,1490,1093,0,0
273,-69,0,0,0,0,0,0,0,0,0,-1,1497,1093,0,0
280,-69,0,0,0,0,0,0,0,0,0,-1,1504,1093,0,0
287,-69,0,0,0,0,0,0,0,0,0,-1,1511,1093,0,0
294,-69,0,0,0,0,0,0,0,0,0,-1,1518,1093,0,0
301,-69,0,0,0,0,0,0,0,0,0,-1,1525,1093,0,0
308,-69,0,0,0,0,0,0,0,0,0,-1,1532,1093,0,0
315,-69,0,0,0,0,0,0,0,0,0,-1,1539,1093,0,0
322,-69,0,0,0,0,0,0,0,0,0,-1,1546,1093,0,0
329,-69,0,0,0,0,0,0,0,0,0,-1,1553,1093,0,0
336,-69,0,0,0,0,0,0,0,0,0,-1,1560,1093,0,0
343,-69,0,0,0,0,0,0,0,0,0,-1,1567,1093,0,0
350,-69,0,0,0,0,0,0,0,0,0,-1,1574,1093,0,0
357,-69,0,0,0,0,0,0,0,0,0,-1,1581,1093,0,0
364,-69,0,0,0,0,0,0,0,0,0,-1,1588,1093,0,0
371,-69,0,0,0,0,0,0,0,0,0,-1,1595,1093,0,0
378,-69,0,0,0,0,0,0,0,0,0,-1,1602,1093,0,0
385,-69,0,0,0,0,0,0,0,0,0,-1,1609,1093,0,0
392,-69,0,0,0,0,0,0,0,0,0,-1,1616,1093,0,0
399,-69,0,0,0,0,0,0,0,0,0,-1,1623,1093,0,0
406,-69,0,0,0,0,0,0,0,0,0,-1,1630,1093,0,0
413,-69,0,0,0,0,0,0,0,0,0,-1,1637,1093,0,0
420,-69,0,0,0,0,0,0,0,0,0,-1,1644,1093,0,0
427,-69,0,0,0,0,0,0,0,0,0,-1,1651,1093,0,0
434,-69,0,0,0,0,0,0,0,0,0,-1,1658,1093,0,0
441,-69,0,0,0,0,0,0,0,0,0,-1,1665,1093,0,0
448,-69,0,0,0,0,0,0,0,0,0,-1,1672,1093,0,0
455,-69,0,0,0,0,0,0,0,0,0,-1,1679,1093,0,0
462,-69,0,0,0,0,0,0,0,0,0,-1,1686,1093,0,0
469,-69,0,0,0,0,0,0,0,0,0,-1,1693,1093,0,0
476,-69,0,0,0,0,0,0,0,0,0,-1,1700,1093,0,0
483,-69,0,0,0,0,0,0,0,0,0,-1,1707,1093,0,0
490,-69,0,0,0,0,0,0,0,0,0,-1,1714,1093,0,0
497,-69,0,0,0,0,0,0,0,0,0,-1,1721,1093,0,0
504,-69,0,0,0,0,0,0,0,0,0,-1,1728,1093,0,0
511,-69,0,0,0,0,0,0,0,0,0,-1,1735,1093,0,0
518,-69,0,0,0,0,0,0,0,0,0,-1,1742,1093,0,0
525,-69,0,0,0,0,0,0,0,0,0,-1,1749,1093,0,0
532,-69,0,0,0,0,0,0,0,0,0,-1,1756,1093,0,0
539,-69,0,0,0,0,0,0,0,0,0,-1,1763,1093,0,0
546,-69,0,0,0,0,0,0,0,0,0,-1,1770,1093,0,0
553,-69,0,0,0,0,0,0,0,0,0,-1,1777,1093,0,0
560,-69,0,0,0,0,0,0,0,0,0,-1,1784,1093,0,0
567,-69,0,0,0,0,0,0,0,0,0,-1,1791,1093,0,0
574,-69,0,0,0,0,0,0,0,0,0,-1,1798,1093,0,0
581,-69,0,0,0,0,0,0,0,0,0,-1,1805,1093,0,0
588,-69,0,0,0,0,0,0,0,0,0,-1,1812,1093,0,0
595,-69,0,0,0,0,0,0,0,0,0,-1,1819,1093,0,0
602,-69,0,0,0,0,0,0,0,0,0,-1,1826,1093,0,0
609,-69,0,0,0,0,0,0,0,0,0,-1,1833,1093,0,0
616,-69,0,0,0,0,0,0,0,0,0,-1,1840,1093,0,0
623,-69,0,0,0,0,0,0,0,0,0,-1,1847,1093,0,0
630,-69,0,0,0,0,0,0,0,0,0,-1,1854,1093,0,0
637,-69,0,0,0,0,0,0,0,0,0,-1,1861,1093,0,0
644,-69,0,0,0,0,0,0,0,0,0,-1,1868,1093,0,0
651,-69,54.5004,2.96899,0.00449608,-0.00042061,-0.00128392,0.00481116,-0.000735693,-0.240652,0.0034787,0.0417353,1875,1093,54.5003,-2.96893
658,-69,54.5842,2.86218,0.00335977,-0.000761914,-0.00042286,0.00340271,-0.00080485,-0.101189,0.00257896,0.0394023,1882,1093,54.5842,-2.86223
665,-69,54.6785,2.86926,0.00254804,-0.000963087,0.000127449,0.00255266,-0.000967707,0.0362351,0.00210002,0.0415725,1889,1093,54.6785,-2.86923
672,-69,54.6522,2.90503,0.00190349,-0.00101557,0.000510146,0.00199007,-0.00110215,0.168127,0.00180967,0.0375281,1896,1093,54.6522,-2.90502
679,-69,54.6465,2.93274,0.00130986,-0.000936315,0.000695001,0.00150751,-0.00113397,0.277075,0.00153013,0.0367015,1903,1093,54.6465,-2.93274
686,-69,54.6851,2.87488,0.000788412,-0.000987109,0.000841576,0.00112391,-0.00132261,0.379349,0.00141405,0.040217,1910,1093,54.685,-2.87487
693,-69,54.7064,2.73804,0.000455739,-0.00107108,0.000980434,0.000934926,-0.00155027,0.454607,0.00144941,0.0381695,1917,1093,54.7064,-2.73808
700,-69,54.7134,2.69836,0.000240087,-0.00102216,0.00113475,0.00090741,-0.00168948,0.53161,0.00152181,0.0291907,1924,1093,54.7133,-2.69841
707,-69,54.7081,2.81189,-9.13201e-05,-0.000900762,0.00143594,0.000995841,-0.00198792,0.648036,0.00175413,0.0227227,1931,1093,54.7082,-2.81187
714,-69,54.7468,2.83032,-0.000480533,-0.00066524,0.00170442,0.00113403,-0.0022798,0.758332,0.00200764,0.0316568,1938,1093,54.7469,-2.83035
721,-69,54.7887,2.89343,0,0,0,0,0,0,0,-1,1945,1093,54.7887,-2.89339
728,-69,52.356,7.4209,0,0,0,0,0,0,0,-1,1952,1093,52.3559,-7.4209
735,-69,52.6162,7.03992,-0.00224848,0.00107788,0.00220714,0.00217833,-0.00334893,1.10828,0.00321493,0.037544,1959,1093,52.6162,-7.03992
742,-69,52.5563,6.76086,-0.00283453,0.00183052,0.00260054,0.00299135,-0.00399536,1.15096,0.00404764,0.0296768,1966,1093,52.5562,-6.76083
749,-69,52.3958,6.36963,-0.00355857,0.00284394,0.00297297,0.0040115,-0.00472613,1.19658,0.0050503,0.0311253,1973,1093,52.3958,-6.36967
756,-69,52.4614,6.09094,-0.00438081,0.00411651,0.00315736,0.00516124,-0.00542554,1.25125,0.00611292,0.0172337,1980,1093,52.4614,-6.09092
763,-69,52.4474,5.77295,-0.00524648,0.00591671,0.00308969,0.00671481,-0.00604457,1.31801,0.00737002,0.0179024,1987,1093,52.4474,-5.77297
770,-69,52.3936,5.50647,-0.00607218,0.00819415,0.00279583,0.00872249,-0.00660052,1.38402,0.00887498,0.0197253,1994,1093,52.3936,-5.50645
777,-69,52.2627,5.18628,-0.00668169,0.0107692,0.00225955,0.011057,-0.00696951,1.4441,0.0104964,0.0245225,2001,1093,52.2628,-5.18634
784,-69,52.2275,4.86853,-0.00701035,0.0133079,0.00143557,0.0134089,-0.00711128,1.50061,0.0120318,0.0344569,2008,1093,52.2276,-4.86851
791,-69,52.1018,4.40271,0,0,0,0,0,0,0,-1,2015,1093,52.1018,-4.40269
798,-69,52.0198,4.02222,0,0,0,0,0,0,0,-1,2022,1093,52.0197,-4.02219
805,-69,51.9607,3.62659,0,0,0,0,0,0,0,-1,2029,1093,51.9608,-3.62665
812,-69,51.4475,1.92175,0,0,0,0,0,0,0,-1,2036,1093,51.4476,-1.92179
-700,-76,0,0,0,0,0,0,0,0,0,-1,524,1100,0,0
-693,-76,-37.4904,-0.189453,0.0269907,-0.045594,-0.026632,0.0357139,-0.0543172,-0.316532,0.052348,0.042137,531,1100,-37.4904,0.189429
-686,-76,-37.5192,0.439087,0.0203823,-0.031539,-0.0235562,0.0294766,-0.0406333,-0.368439,0.0406484,0.0466168,538,1100,-37.5192,-0.439064
-679,-76,-37.4138,0.974487,0.0151324,-0.0207316,-0.0197621,0.0238855,-0.0294847,-0.416956,0.0308698,0.0478421,545,1100,-37.4139,-0.974488
-672,-76,-38.0569,0.944824,0.0109474,-0.012315,-0.0158794,0.0189996,-0.0203673,-0.469304,0.0227331,0.0465538,552,1100,-38.0569,-0.944844
-665,-76,-38.0487,0.870117,0,0,0,0,0,0,0,-1,559,1100,-38.0487,-0.870071
-658,-76,-38.3826,1.53198,0.0046288,-0.00129921,-0.00902253,0.0111617,-0.00783212,-0.626696,0.0110221,0.0491691,566,1100,-38.3826,-1.53195
-651,-76,-38.3311,1.8656,0.00255457,0.00167101,-0.00640111,0.00852913,-0.00430355,-0.750945,0.00754165,0.0314488,573,1100,-38.3311,-1.86565
-644,-76,-38.363,2.23303,0.00127412,0.0031476,-0.00449204,0.00679953,-0.00237781,-0.888192,0.00549972,0.0123108,580,1100,-38.363,-2.23303
-637,-76,-38.4622,2.59131,0.000344667,0.0044291,-0.00293468,0.00596221,-0.00118845,-1.08938,0.00442448,0.0151539,587,1100,-38.4621,-2.59126
-630,-76,-38.4946,2.979,-6.3101e-05,0.00396124,-0.00198974,0.00477889,-0.000880752,-1.1809,0.00351647,0.0153056,594,1100,-38.4946,-2.97898
-623,-76,-38.5054,3.35889,0.000313879,0.00270526,-0.00159489,0.00350289,-0.000483758,-1.10705,0.00251209,0.0186059,601,1100,-38.5055,-3.35893
-616,-76,-38.5524,3.75793,0.00138689,0.00110054,-0.00118263,0.00243498,5.24458e-05,-0.725159,0.00160612,0.0182578,608,1100,-38.5525,-3.75796
-609,-76,-38.5558,4.11804,0.00217442,0.000279324,-0.000900567,0.00253411,-8.0365e-05,-0.379992,0.00171682,0.0183207,615,1100,-38.5559,-4.11808
-602,-76,-38.5023,4.49744,0.00252628,-0.000579746,-0.000741312,0.00269413,-0.000747604,-0.222677,0.00209034,0.0198521,622,1100,-38.5022,-4.49743
-595,-76,-38.4617,4.82935,0.00248431,-0.00119382,-0.000297274,0.00250818,-0.00121769,-0.0801291,0.00219372,0.0349408,629,1100,-38.4617,-4.8293
-588,-76,-38.4419,5.1571,0,0,0,0,0,0,0,-1,636,1100,-38.4419,-5.15709
-581,-76,-40.7672,0.893677,0,0,0,0,0,0,0,-1,643,1100,-40.7672,-0.893674
-574,-76,-40.8817,0.883423,0.00250123,-0.00238134,0.000798353,0.00262846,-0.00250856,0.15803,0.00296613,0.0360753,650,1100,-40.8816,-0.883422
-567,-76,-40.9412,1.22412,0.00225454,-0.00254717,0.00118733,0.00253209,-0.00282472,0.229636,0.00309429,0.0394378,657,1100,-40.9412,-1.22417
-560,-76,-40.8465,1.2644,0.00176025,-0.00263075,0.00153021,0.0022409,-0.0031114,0.304347,0.00310374,0.0400365,664,1100,-40.8465,-1.26443
-553,-76,-40.739,0.866089,0.000884146,-0.0027371,0.00171162,0.00156511,-0.00341806,0.37865,0.00294259,0.0430908,671,1100,-40.739,-0.866054
-546,-76,-40.74,0.952759,4.85488e-05,-0.00304672,0.00155555,0.000695202,-0.00369338,0.393974,0.00272372,0.0408574,678,1100,-40.74,-0.952806
-539,-76,-40.8617,1.0907,0.000403396,-0.00419972,0.000588306,0.000477396,-0.00427372,0.125127,0.00302088,0.0429324,685,1100,-40.8617,-1.09074
-532,-76,-40.8823,1.07434,0.00112221,-0.00531576,-0.000465428,0.00115568,-0.00534923,-0.0717968,0.00400732,0.0462577,692,1100,-40.8823,-1.07433
-525,-76,0,0,0,0,0,0,0,0,0,-1,699,1100,0,0
-518,-76,0,0,0,0,0,0,0,0,0,-1,706,1100,0,0
-511,-76,0,0,0,0,0,0,0,0,0,-1,713,1100,0,0
-504,-76,0,0,0,0,0,0,0,0,0,-1,720,1100,0,0
-497,-76,0,0,0,0,0,0,0,0,0,-1,727,1100,0,0
-490,-76,0,0,0,0,0,0,0,0,0,-1,734,1100,0,0
-483,-76,0,0,0,0,0,0,0,0,0,-1,741,1100,0,0
-476,-76,0,0,0,0,0,0,0,0,0,-1,748,1100,0,0
-469,-76,0,0,0,0,0,0,0,0,0,-1,755,1100,0,0
-462,-76,0,0,0,0,0,0,0,0,0,-1,762,1100,0,0
-455,-76,0,0,0,0,0,0,0,0,0,-1,769,1100,0,0
-448,-76,0,0,0,0,0,0,0,0,0,-1,776,1100,0,0
-441,-76,0,0,0,0,0,0,0,0,0,-1,783,1100,0,0
-434,-76,0,0,0,0,0,0,0,0,0,-1,790,1100,0,0
-427,-76,0,0,0,0,0,0,0,0,0,-1,797,1100,0,0
-420,-76,0,0,0,0,0,0,0,0,0,-1,804,1100,0,0
-413,-76,0,0,0,0,0,0,0,0,0,-1,811,1100,0,0
-406,-76,0,0,0,0,0,0,0,0,0,-1,818,1100,0,0
-399,-76,0,0,0,0,0,0,0,0,0,-1,825,1100,0,0
-392,-76,0,0,0,0,0,0,0,0,0,-1,832,1100,0,0
-385,-76,0,0,0,0,0,0,0,0,0,-1,839,1100,0,0
-378,-76,0,0,0,0,0,0,0,0,0,-1,846,1100,0,0
-371,-76,0,0,0,0,0,0,0,0,0,-1,853,1100,0,0
-364,-76,0,0,0,0,0,0,0,0,0,-1,860,1100,0,0
-357,-76,0,0,0,0,0,0,0,0,0,-1,867,1100,0,0
-350,-76,0,0,0,0,0,0,0,0,0,-1,874,1100,0,0
-343,-76,0,0,0,0,0,0,0,0,0,-1,881,1100,0,0
-336,-76,0,0,0,0,0,0,0,0,0,-1,888,1100,0,0
-329,-76,0,0,0,0,0,0,0,0,0,-1,895,1100,0,0
-322,-76,0,0,0,0,0,0,0,0,0,-1,902,1100,0,0
-315,-76,0,0,0,0,0,0,0,0,0,-1,909,1100,0,0
-308,-76,0,0,0,0,0,0,0,0,0,-1,916,1100,0,0
-301,-76,0,0,0,0,0,0,0,0,0,-1,923,1100,0,0
-294,-76,0,0,0,0,0,0,0,0,0,-1,930,1100,0,0
-287,-76,0,0,0,0,0,0,0,0,0,-1,937,1100,0,0
-280,-76,0,0,0,0,0,0,0,0,0,-1,944,1100,0,0
-273,-76,0,0,0,0,0,0,0,0,0,-1,951,1100,0,0
-266,-76,0,0,0,0,0,0,0,0,0,-1,958,1100,0,0
-259,-76,0,0,0,0,0,0,0,0,0,-1,965,1100,0,0
-252,-76,0,0,0,0,0,0,0,0,0,-1,972,1100,0,0
-245,-76,0,0,0,0,0,0,0,0,0,-1,979,1100,0,0
-238,-76,0,0,0,0,0,0,0,0,0,-1,986,1100,0,0
-231,-76,0,0,0,0,0,0,0,0,0,-1,993,1100,0,0
-224,-76,0,0,0,0,0,0,0,0,0,-1,1000,1100,0,0
-217,-76,0,0,0,0,0,0,0,0,0,-1,1007,1100,0,0
-210,-76,0,0,0,0,0,0,0,0,0,-1,1014,1100,0,0
-203,-76,0,0,0,0,0,0,0,0,0,-1,1021,1100,0,0
-196,-76,0,0,0,0,0,0,0,0,0,-1,1028,1100,0,0
-189,-76,0,0,0,0,0,0,0,0,0,-1,1035,1100,0,0
-182,-76,0,0,0,0,0,0,0,0,0,-1,1042,1100,0,0
-175,-76,0,0,0,0,0,0,0,0,0,-1,1049,1100,0,0
-168,-76,0,0,0,0,0,0,0,0,0,-1,1056,1100,0,0
-161,-76,0,0,0,0,0,0,0,0,0,-1,1063,1100,0,0
-154,-76,0,0,0,0,0,0,0,0,0,-1,1070,1100,0,0
-147,-76,0,0,0,0,0,0,0,0,0,-1,1077,1100,0,0
-140,-76,0,0,0,0,0,0,0,0,0,-1,1084,1100,0,0
-133,-76,0,0,0,0,0,0,0,0,0,-1,1091,1100,0,0
-126,-76,0,0,0,0,0,0,0,0,0,-1,1098,1100,0,0
-119,-76,0,0,0,0,0,0,0,0,0,-1,1105,1100,0,0
-112,-76,0,0,0,0,0,0,0,0,0,-1,1112,1100,0,0
-105,-76,0,0,0,0,0,0,0,0,0,-1,1119,1100,0,0
-98,-76,0,0,0,0,0,0,0,0,0,-1,1126,1100,0,0
-91,-76,0,0,0,0,0,0,0,0,0,-1,1133,1100,0,0
-84,-76,0,0,0,0,0,0,0,0,0,-1,1140,1100,0,0
-77,-76,0,0,0,0,0,0,0,0,0,-1,1147,1100,0,0
-70,-76,0,0,0,0,0,0,0,0,0,-1,1154,1100,0,0
-63,-76,0,0,0,0,0,0,0,0,0,-1,1161,1100,0,0
-56,-76,0,0,0,0,0,0,0,0,0,-1,1168,1100,0,0
-49,-76,0,0,0,0,0,0,0,0,0,-1,1175,1100,0,0
-42,-76,0,0,0,0,0,0,0,0,0,-1,1182,1100,0,0
-35,-76,0,0,0,0,0,0,0,0,0,-1,1189,1100,0,0
-28,-76,0,0,0,0,0,0,0,0,0,-1,1196,1100,0,0
-21,-76,0,0,0,0,0,0,0,0,0,-1,1203,1100,0,0
-14,-76,0,0,0,0,0,0,0,0,0,-1,1210,1100,0,0
-7,-76,0,0,0,0,0,0,0,0,0,-1,1217,1100,0,0
0,-76,0,0,0,0,0,0,0,0,0,-1,1224,1100,0,0
7,-76,0,0,0,0,0,0,0,0,0,-1,1231,1100,0,0
14,-76,0,0,0,0,0,0,0,0,0,-1,1238,1100,0,0
21,-76,0,0,0,0,0,0,0,0,0,-1,1245,1100,0,0
28,-76,0,0,0,0,0,0,0,0,0,-1,1252,1100,0,0
35,-76,0,0,0,0,0,0,0,0,0,-1,1259,1100,0,0
42,-76,0,0,0,0,0,0,0,0,0,-1,1266,1100,0,0
49,-76,0,0,0,0,0,0,0,0,0,-1,1273,1100,0,0
56,-76,0,0,0,0,0,0,0,0,0,-1,1280,1100,0,0
63,-76,0,0,0,0,0,0,0,0,0,-1,1287,1100,0,0
70,-76,0,0,0,0,0,0,0,0,0,-1,1294,1100,0,0
77,-76,0,0,0,0,0,0,0,0,0,-1,1301,1100,0,0
84,-76,0,0,0,0,0,0,0,0,0,-1,1308,1100,0,0
91,-76,0,0,0,0,0,0,0,0,0,-1,1315,1100,0,0
98,-76,0,0,0,0,0,0,0,0,0,-1,1322,1100,0,0
105,-76,0,0,0,0,0,0,0,0,0,-1,1329,1100,0,0
112,-76,0,0,0,0,0,0,0,0,0,-1,1336,1100,0,0
119,-76,0,0,0,0,0,0,0,0,0,-1,1343,1100,0,0
126,-76,0,0,0,0,0,0,0,0,0,-1,1350,1100,0,0
133,-76,0,0,0,0,0,0,0,0,0,-1,1357,1100,0,0
140,-76,0,0,0,0,0,0,0,0,0,-1,1364,1100,0,0
147,-76,0,0,0,0,0,0,0,0,0,-1,1371,1100,0,0
154,-76,0,0,0,0,0,0,0,0,0,-1,1378,1100,0,0
161,-76,0,0,0,0,0,0,0,0,0,-1,1385,1100,0,0
168,-76,0,0,0,0,0,0,0,0,0,-1,1392,1100,0,0
175,-76,0,0,0,0,0,0,0,0,0,-1,1399,1100,0,0
182,-76,0,0,0,0,0,0,0,0,0,-1,1406,1100,0,0
189,-76,0,0,0,0,0,0,0,0,0,-1,1413,1100,0,0
196,-76,0,0,0,0,0,0,0,0,0,-1,1420,1100,0,0
203,-76,0,0,0,0,0,0,0,0,0,-1,1427,1100,0,0
210,-76,0,0,0,0,0,0,0,0,0,-1,1434,1100,0,0
217,-76,0,0,0,0,0,0,0,0,0,-1,1441,1100,0,0
224,-76,0,0,0,0,0,0,0,0,0,-1,1448,1100,0,0
231,-76,0,0,0,0,0,0,0,0,0,-1,1455,1100,0,0
238,-76,0,0,0,0,0,0,0,0,0,-1,1462,1100,0,0
245,-76,0,0,0,0,0,0,0,0,0,-1,1469,1100,0,0
252,-76,0,0,0,0,0,0,0,0,0,-1,1476,1100,0,0
259,-76,0,0,0,0,0,0,0,0,0,-1,1483,1100,0,0
266,-76,0,0,0,0,0,0,0,0,0,-1,1490,1100,0,0
273,-76,0,0,0,0,0,0,0,0,0,-1,1497,1100,0,0
280,-76,0,0,0,0,0,0,0,0,0,-1,1504,1100,0,0
287,-76,0,0,0,0,0,0,0,0,0,-1,1511,1100,0,0
294,-76,0,0,0,0,0,0,0,0,0,-1,1518,1100,0,0
301,-76,0,0,0,0,0,0,0,0,0,-1,1525,1100,0,0
308,-76,0,0,0,0,0,0,0,0,0,-1,1532,1100,0,0
315,-76,0,0,0,0,0,0,0,0,0,-1,1539,1100,0,0
322,-76,0,0,0,0,0,0,0,0,0,-1,1546,1100,0,0
329,-76,0,0,0,0,0,0,0,0,0,-1,1553,1100,0,0
336,-76,0,0,0,0,0,0,0,0,0,-1,1560,1100,0,0
343,-76,0,0,0,0,0,0,0,0,0,-1,1567,1100,0,0
350,-76,0,0,0,0,0,0,0,0,0,-1,1574,1100,0,0
357,-76,0,0,0,0,0,0,0,0,0,-1,1581,1100,0,0
364,-76,0,0,0,0,0,0,0,0,0,-1,1588,1100,0,0
371,-76,0,0,0,0,0,0,0,0,0,-1,1595,1100,0,0
378,-76,0,0,0,0,0,0,0,0,0,-1,1602,1100,0,0
385,-76,0,0,0,0,0,0,0,0,0,-1,1609,1100,0,0
392,-76,0,0,0,0,0,0,0,0,0,-1,1616,1100,0,0
399,-76,0,0,0,0,0,0,0,0,0,-1,1623,1100,0,0
406,-76,0,0,0,0,0,0,0,0,0,-1,1630,1100,0,0
413,-76,0,0,0,0,0,0,0,0,0,-1,1637,1100,0,0
420,-76,0,0,0,0,0,0,0,0,0,-1,1644,1100,0,0
427,-76,0,0,0,0,0,0,0,0,0,-1,1651,1100,0,0
434,-76,0,0,0,0,0,0,0,0,0,-1,1658,1100,0,0
441,-76,0,0,0,0,0,0,0,0,0,-1,1665,1100,0,0
448,-76,0,0,0,0,0,0,0,0,0,-1,1672,1100,0,0
455,-76,0,0,0,0,0,0,0,0,0,-1,1679,1100,0,0
462,-76,0,0,0,0,0,0,0,0,0,-1,1686,1100,0,0
469,-76,0,0,0,0,0,0,0,0,0,-1,1693,1100,0,0
476,-76,0,0,0,0,0,0,0,0,0,-1,1700,1100,0,0
483,-76,0,0,0,0,0,0,0,0,0,-1,1707,1100,0,0
490,-76,0,0,0,0,0,0,0,0,0,-1,1714,1100,0,0
497,-76,0,0,0,0,0,0,0,0,0,-1,1721,1100,0,0
504,-76,0,0,0,0,0,0,0,0,0,-1,1728,1100,0,0
511,-76,0,0,0,0,0,0,0,0,0,-1,1735,1100,0,0
518,-76,0,0,0,0,0,0,0,0,0,-1,1742,1100,0,0
525,-76,0,0,0,0,0,0,0,0,0,-1,1749,1100,0,0
532,-76,0,0,0,0,0,0,0,0,0,-1,1756,1100,0,0
539,-76,0,0,0,0,0,0,0,0,0,-1,1763,1100,0,0
546,-76,0,0,0,0,0,0,0,0,0,-1,1770,1100,0,0
553,-76,0,0,0,0,0,0,0,0,0,-1,1777,1100,0,0
560,-76,0,0,0,0,0,0,0,0,0,-1,1784,1100,0,0
567,-76,0,0,0,0,0,0,0,0,0,-1,1791,1100,0,0
574,-76,0,0,0,0,0,0,0,0,0,-1,1798,1100,0,0
581,-76,0,0,0,0,0,0,0,0,0,-1,1805,1100,0,0
588,-76,0,0,0,0,0,0,0,0,0,-1,1812,1100,0,0
595,-76,0,0,0,0,0,0,0,0,0,-1,1819,1100,0,0
602,-76,0,0,0,0,0,0,0,0,0,-1,1826,1100,0,0
609,-76,0,0,0,0,0,0,0,0,0,-1,1833,1100,0,0
616,-76,0,0,0,0,0,0,0,0,0,-1,1840,1100,0,0
623,-76,0,0,0,0,0,0,0,0,0,-1,1847,1100,0,0
630,-76,0,0,0,0,0,0,0,0,0,-1,1854,1100,0,0
637,-76,0,0,0,0,0,0,0,0,0,-1,1861,1100,0,0
644,-76,0,0,0,0,0,0,0,0,0,-1,1868,1100,0,0
651,-76,54.4838,2.81726,0.00566289,-0.00115421,-0.00128526,0.00589716,-0.00138848,-0.180292,0.00446679,0.0394183,1875,1100,54.4838,-2.81723
658,-76,54.5284,2.77539,0.00418633,-0.00130653,-0.000457208,0.00422413,-0.00134433,-0.0824803,0.0033552,0.0394136,1882,1100,54.5284,-2.77533
665,-76,54.6877,2.62769,0.0031078,-0.00135347,7.21216e-05,0.00310896,-0.00135464,0.0161605,0.00264257,0.0385893,1889,1100,54.6877,-2.62763
672,-76,54.7225,2.90552,0.00224769,-0.00128913,0.000407642,0.00229406,-0.00133551,0.113278,0.00211975,0.0363304,1896,1100,54.7225,-2.90557
679,-76,54.6423,2.94983,0.00149536,-0.00112586,0.000523109,0.0015959,-0.00122639,0.18988,0.0016341,0.0361997,1903,1100,54.6424,-2.94978
686,-76,54.7535,2.9259,0.000976404,-0.00111847,0.000611014,0.00114159,-0.00128366,0.264041,0.00140102,0.0371376,1910,1100,54.7535,-2.92587
693,-76,54.7301,2.8252,0.000687266,-0.0011648,0.000719778,0.0009341,-0.00141163,0.330364,0.00136363,0.039054,1917,1100,54.7301,-2.82524
700,-76,54.6683,2.76941,0.000483118,-0.00111856,0.000847968,0.000848638,-0.00148408,0.406988,0.00136335,0.0333271,1924,1100,54.6683,-2.76938
707,-76,54.6879,2.81433,0.000184073,-0.000965969,0.00113701,0.000883199,-0.00166509,0.551288,0.00149417,0.0238695,1931,1100,54.6879,-2.81439
714,-76,54.7686,2.82068,0,0,0,0,0,0,0,-1,1938,1100,54.7685,-2.82071
721,-76,45.1713,3.04919,0,0,0,0,0,0,0,-1,1945,1100,45.1713,-3.04915
728,-76,51.5037,7.43518,0,0,0,0,0,0,0,-1,1952,1100,51.5036,-7.43518
735,-76,51.9131,7.18945,-0.00177404,0.000846357,0.00189802,0.00184247,-0.00277016,1.08749,0.002681,0.0432133,1959,1100,51.913,-7.18943
742,-76,52.147,6.83154,-0.00237977,0.00158701,0.00233752,0.00266921,-0.00346197,1.13721,0.00354968,0.0300708,1966,1100,52.147,-6.8316
749,-76,52.0406,6.38879,-0.00314913,0.00262373,0.00274634,0.0037215,-0.0042469,1.19053,0.00460389,0.0296131,1973,1100,52.0406,-6.38883
756,-76,52.1044,6.08105,-0.00405798,0.00385616,0.00287096,0.00478793,-0.00498975,1.25697,0.00564555,0.0178413,1980,1100,52.1043,-6.08106
763,-76,52.0713,5.73889,-0.00505406,0.00574209,0.00264188,0.0063539,-0.00566587,1.34323,0.00694341,0.017602,1987,1100,52.0713,-5.73893
770,-76,51.9753,5.45483,-0.00608156,0.00812398,0.00210374,0.00842898,-0.00638656,1.42682,0.00858081,0.019257,1994,1100,51.9754,-5.45478
777,-76,51.8647,5.22729,-0.00691809,0.0108517,0.00116267,0.0109275,-0.00699384,1.50574,0.0104296,0.0227995,2001,1100,51.8649,-5.22731
784,-76,51.842,4.875,-0.00748233,0.0136584,-0.000223402,0.0136608,-0.00748469,-1.56023,0.0123807,0.033951,2008,1100,51.842,-4.87495
791,-76,51.885,4.55432,-0.00761784,0.0165315,-0.00226855,0.0167428,-0.0078291,-1.47794,0.0144944,0.0429274,2015,1100,51.8851,-4.55435
798,-76,51.9001,4.21106,0,0,0,0,0,0,0,-1,2022,1100,51.9003,-4.21104
805,-76,50.9246,3.47559,0,0,0,0,0,0,0,-1,2029,1100,50.9246,-3.47565
812,-76,51.002,2.57251,0,0,0,0,0,0,0,-1,2036,1100,51.0019,-2.57251
-700,-83,0,0,0,0,0,0,0,0,0,-1,524,1107,0,0
-693,-83,-37.4948,-0.118042,0.0175537,-0.0515873,-0.0373585,0.0338829,-0.0679165,-0.41207,0.0598588,0.0435915,531,1107,-37.4948,0.118033
-686,-83,-37.3218,0.859863,0.0120569,-0.0375273,-0.032824,0.0283995,-0.0538699,-0.461955,0.0482511,0.0460726,538,1107,-37.3218,-0.859852
-679,-83,-37.0228,1.31348,0.00802141,-0.0263102,-0.0275314,0.0233,-0.0415888,-0.506638,0.0379564,0.0469719,545,1107,-37.0228,-1.31348
-672,-83,-37.1682,1.14038,0.00502348,-0.0172625,-0.0222415,0.0187572,-0.0309962,-0.553174,0.0290134,0.0452996,552,1107,-37.1681,-1.1404
-665,-83,-37.3284,0.966553,0.00262124,-0.010111,-0.0173056,0.0146946,-0.0221843,-0.609148,0.0214379,0.0456513,559,1107,-37.3283,-0.966493
-658,-83,-37.5781,1.02905,0,0,0,0,0,0,0,-1,566,1107,-37.5781,-1.02911
-651,-83,-37.9915,1.6687,-0.000469495,-0.000981446,-0.00935375,0.00863179,-0.0100827,-0.771719,0.0108156,0.0344292,573,1107,-37.9915,-1.66869
-644,-83,-37.9225,2.146,-0.000992992,0.0011891,-0.0065779,0.00676582,-0.00656972,-0.867583,0.00769955,0.0182026,580,1107,-37.9225,-2.14601
-637,-83,-38.0228,2.55835,-0.00132509,0.00309495,-0.00427972,0.0057016,-0.00393173,-1.02374,0.005593,0.012838,587,1107,-38.0228,-2.55839
-630,-83,-38.0639,2.97754,-0.00112278,0.00313357,-0.00272228,0.00446082,-0.00245003,-1.11716,0.00404589,0.0170061,594,1107,-38.0639,-2.97751
-623,-83,-38.0876,3.33643,-0.000172039,0.00222374,-0.00189717,0.00326956,-0.00121785,-1.067,0.00267955,0.0182023,601,1107,-38.0876,-3.33647
-616,-83,-38.1566,3.73267,0.00119686,0.000804693,-0.00126281,0.00227873,-0.000277169,-0.708375,0.00161947,0.0163522,608,1107,-38.1566,-3.73268
-609,-83,-38.136,4.10706,0.00209853,8.76101e-05,-0.000773806,0.00236182,-0.000175679,-0.327965,0.00163625,0.019959,615,1107,-38.136,-4.10701
-602,-83,-38.146,4.53784,0.00247302,-0.000647688,-0.000381223,0.00251892,-0.000693584,-0.119812,0.00195199,0.0196233,622,1107,-38.146,-4.53785
-595,-83,-38.0456,4.93274,0.00230238,-0.00121993,0.000208006,0.00231462,-0.00123217,0.0587816,0.00207929,0.0254411,629,1107,-38.0456,-4.9327
-588,-83,-38.0162,5.22473,0,0,0,0,0,0,0,-1,636,1107,-38.0163,-5.22477
-581,-83,-40.7224,0.906372,0,0,0,0,0,0,0,-1,643,1107,-40.7224,-0.906388
-574,-83,-40.8665,0.905396,0,0,0,0,0,0,0,-1,650,1107,-40.8665,-0.90545
-567,-83,-40.402,-0.248535,0,0,0,0,0,0,0,-1,657,1107,-40.402,0.248553
-560,-83,-40.4765,0.243652,0.00171556,-0.00244614,0.00193462,0.00247596,-0.00320654,0.3745,0.00328982,0.0461203,664,1107,-40.4765,-0.243663
-553,-83,-40.6375,0.789063,0.000826941,-0.00247964,0.00198824,0.00175947,-0.00341217,0.438561,0.00303625,0.0438246,671,1107,-40.6375,-0.789089
-546,-83,-40.7501,1.13928,-5.03276e-05,-0.00263267,0.00157694,0.000696606,-0.0033796,0.442354,0.0025176,0.0405479,678,1107,-40.7501,-1.13933
-539,-83,-40.7559,1.33923,0.000431635,-0.00351557,0.000183662,0.000440162,-0.00352409,0.046396,0.00250902,0.0418664,685,1107,-40.7559,-1.3392
-532,-83,-40.824,1.27637,0.00138662,-0.00443916,-0.00144074,0.00172345,-0.00477598,-0.229663,0.00388796,0.0441647,692,1107,-40.824,-1.27631
-525,-83,0,0,0,0,0,0,0,0,0,-1,699,1107,0,0
-518,-83,0,0,0,0,0,0,0,0,0,-1,706,1107,0,0
-511,-83,0,0,0,0,0,0,0,0,0,-1,713,1107,0,0
-504,-83,0,0,0,0,0,0,0,0,0,-1,720,1107,0,0
-497,-83,0,0,0,0,0,0,0,0,0,-1,727,1107,0,0
-490,-83,0,0,0,0,0,0,0,0,0,-1,734,1107,0,0
-483,-83,0,0,0,0,0,0,0,0,0,-1,741,1107,0,0
-476,-83,0,0,0,0,0,0,0,0,0,-1,748,1107,0,0
-469,-83,0,0,0,0,0,0,0,0,0,-1,755,1107,0,0
-462,-83,0,0,0,0,0,0,0,0,0,-1,762,1107,0,0
-455,-83,0,0,0,0,0,0,0,0,0,-1,769,1107,0,0
-448,-83,0,0,0,0,0,0,0,0,0,-1,776,1107,0,0
-441,-83,0,0,0,0,0,0,0,0,0,-1,783,1107,0,0
-434,-83,0,0,0,0,0,0,0,0,0,-1,790,1107,0,0
-427,-83,0,0,0,0,0,0,0,0,0,-1,797,1107,0,0
-420,-83,0,0,0,0,0,0,0,0,0,-1,804,1107,0,0
-413,-83,0,0,0,0,0,0,0,0,0,-1,811,1107,0,0
-406,-83,0,0,0,0,0,0,0,0,0,-1,818,1107,0,0
-399,-83,0,0,0,0,0,0,0,0,0,-1,825,1107,0,0
-392,-83,0,0,0,0,0,0,0,0,0,-1,832,1107,0,0
-385,-83,0,0,0,0,0,0,0,0,0,-1,839,1107,0,0
-378,-83,0,0,0,0,0,0,0,0,0,-1,846,1107,0,0
-371,-83,0,0,0,0,0,0,0,0,0,-1,853,1107,0,0
-364,-83,0,0,0,0,0,0,0,0,0,-1,860,1107,0,0
-357,-83,0,0,0,0,0,0,0,0,0,-1,867,1107,0,0
-350,-83,0,0,0,0,0,0,0,0,0,-1,874,1107,0,0
-343,-83,0,0,0,0,0,0,0,0,0,-1,881,1107,0,0
-336,-83,0,0,0,0,0,0,0,0,0,-1,888,1107,0,0
-329,-83,0,0,0,0,0,0,0,0,0,-1,895,1107,0,0
-322,-83,0,0,0,0,0,0,0,0,0,-1,902,1107,0,0
-315,-83,0,0,0,0,0,0,0,0,0,-1,909,1107,0,0
-308,-83,0,0,0,0,0,0,0,0,0,-1,916,1107,0,0
-301,-83,0,0,0,0,0,0,0,0,0,-1,923,1107,0,0
-294,-83,0,0,0,0,0,0,0,0,0,-1,930,1107,0,0
-287,-83,0,0,0,0,0,0,0,0,0,-1,937,1107,0,0
-280,-83,0,0,0,0,0,0,0,0,0,-1,944,1107,0,0
-273,-83,0,0,0,0,0,0,0,0,0,-1,951,1107,0,0
-266,-83,0,0,0,0,0,0,0,0,0,-1,958,1107,0,0
-259,-83,0,0,0,0,0,0,0,0,0,-1,965,1107,0,0
-252,-83,0,0,0,0,0,0,0,0,0,-1,972,1107,0,0
-245,-83,0,0,0,0,0,0,0,0,0,-1,979,1107,0,0
-238,-83,0,0,0,0,0,0,0,0,0,-1,986,1107,0,0
-231,-83,0,0,0,0,0,0,0,0,0,-1,993,1107,0,0
-224,-83,0,0,0,0,0,0,0,0,0,-1,1000,1107,0,0
-217,-83,0,0,0,0,0,0,0,0,0,-1,1007,1107,0,0
-210,-83,0,0,0,0,0,0,0,0,0,-1,1014,1107,0,0
-203,-83,0,0,0,0,0,0,0,0,0,-1,1021,1107,0,0
-196,-83,0,0,0,0,0,0,0,0,0,-1,1028,1107,0,0
-189,-83,0,0,0,0,0,0,0,0,0,-1,1035,1107,0,0
-182,-83,0,0,0,0,0,0,0,0,0,-1,1042,1107,0,0
-175,-83,0,0,0,0,0,0,0,0,0,-1,1049,1107,0,0
-168,-83,0,0,0,0,0,0,0,0,0,-1,1056,1107,0,0
-161,-83,0,0,0,0,0,0,0,0,0,-1,1063,1107,0,0
-154,-83,0,0,0,0,0,0,0,0,0,-1,1070,1107,0,0
-147,-83,0,0,0,0,0,0,0,0,0,-1,1077,1107,0,0
-140,-83,0,0,0,0,0,0,0,0,0,-1,1084,1107,0,0
-133,-83,0,0,0,0,0,0,0,0,0,-1,1091,1107,0,0
-126,-83,0,0,0,0,0,0,0,0,0,-1,1098,1107,0,0
-119,-83,0,0,0,0,0,0,0,0,0,-1,1105,1107,0,0
-112,-83,0,0,0,0,0,0,0,0,0,-1,1112,1107,0,0
-105,-83,0,0,0,0,0,0,0,0,0,-1,1119,1107,0,0
-98,-83,0,0,0,0,0,0,0,0,0,-1,1126,1107,0,0
-91,-83,0,0,0,0,0,0,0,0,0,-1,1133,1107,0,0
-84,-83,0,0,0,0,0,0,0,0,0,-1,1140,1107,0,0
-77,-83,0,0,0,0,0,0,0,0,0,-1,1147,1107,0,0
-70,-83,0,0,0,0,0,0,0,0,0,-1,1154,1107,0,0
-63,-83,0,0,0,0,0,0,0,0,0,-1,1161,1107,0,0
-56,-83,0,0,0,0,0,0,0,0,0,-1,1168,1107,0,0
-49,-83,0,0,0,0,0,0,0,0,0,-1,1175,1107,0,0
-42,-83,0,0,0,0,0,0,0,0,0,-1,1182,1107,0,0
-35,-83,0,0,0,0,0,0,0,0,0,-1,1189,1107,0,0
-28,-83,0,0,0,0,0,0,0,0,0,-1,1196,1107,0,0
-21,-83,0,0,0,0,0,0,0,0,0,-1,1203,1107,0,0
-14,-83,0,0,0,0,0,0,0,0,0,-1,1210,1107,0,0
-7,-83,0,0,0,0,0,0,0,0,0,-1,1217,1107,0,0
0,-83,0,0,0,0,0,0,0,0,0,-1,1224,1107,0,0
7,-83,0,0,0,0,0,0,0,0,0,-1,1231,1107,0,0
14,-83,0,0,0,0,0,0,0,0,0,-1,1238,1107,0,0
21,-83,0,0,0,0,0,0,0,0,0,-1,1245,1107,0,0
28,-83,0,0,0,0,0,0,0,0,0,-1,1252,1107,0,0
35,-83,0,0,0,0,0,0,0,0,0,-1,1259,1107,0,0
42,-83,0,0,0,0,0,0,0,0,0,-1,1266,1107,0,0
49,-83,0,0,0,0,0,0,0,0,0,-1,1273,1107,0,0
56,-83,0,0,0,0,0,0,0,0,0,-1,1280,1107,0,0
63,-83,0,0,0,0,0,0,0,0,0,-1,1287,1107,0,0
70,-83,0,0,0,0,0,0,0,0,0,-1,1294,1107,0,0
77,-83,0,0,0,0,0,0,0,0,0,-1,1301,1107,0,0
84,-83,0,0,0,0,0,0,0,0,0,-1,1308,1107,0,0
91,-83,0,0,0,0,0,0,0,0,0,-1,1315,1107,0,0
98,-83,0,0,0,0,0,0,0,0,0,-1,1322,1107,0,0
105,-83,0,0,0,0,0,0,0,0,0,-1,1329,1107,0,0
112,-83,0,0,0,0,0,0,0,0,0,-1,1336,1107,0,0
119,-83,0,0,0,0,0,0,0,0,0,-1,1343,1107,0,0
126,-83,0,0,0,0,0,0,0,0,0,-1,1350,1107,0,0
133,-83,0,0,0,0,0,0,0,0,0,-1,1357,1107,0,0
140,-83,0,0,0,0,0,0,0,0,0,-1,1364,1107,0,0
147,-83,0,0,0,0,0,0,0,0,0,-1,1371,1107,0,0
154,-83,0,0,0,0,0,0,0,0,0,-1,1378,1107,0,0
161,-83,0,0,0,0,0,0,0,0,0,-1,1385,1107,0,0
168,-83,0,0,0,0,0,0,0,0,0,-1,1392,1107,0,0
175,-83,0,0,0,0,0,0,0,0,0,-1,1399,1107,0,0
182,-83,0,0,0,0,0,0,0,0,0,-1,1406,1107,0,0
189,-83,0,0,0,0,0,0,0,0,0,-1,1413,1107,0,0
196,-83,0,0,0,0,0,0,0,0,0,-1,1420,1107,0,0
203,-83,0,0,0,0,0,0,0,0,0,-1,1427,1107,0,0
210,-83,0,0,0,0,0,0,0,0,0,-1,1434,1107,0,0
217,-83,0,0,0,0,0,0,0,0,0,-1,1441,1107,0,0
224,-83,0,0,0,0,0,0,0,0,0,-1,1448,1107,0,0
231,-83,0,0,0,0,0,0,0,0,0,-1,1455,1107,0,0
238,-83,0,0,0,0,0,0,0,0,0,-1,1462,1107,0,0
245,-83,0,0,0,0,0,0,0,0,0,-1,1469,1107,0,0
252,-83,0,0,0,0,0,0,0,0,0,-1,1476,1107,0,0
259,-83,0,0,0,0,0,0,0,0,0,-1,1483,1107,0,0
266,-83,0,0,0,0,0,0,0,0,0,-1,1490,1107,0,0
273,-83,0,0,0,0,0,0,0,0,0,-1,1497,1107,0,0
280,-83,0,0,0,0,0,0,0,0,0,-1,1504,1107,0,0
287,-83,0,0,0,0,0,0,0,0,0,-1,1511,1107,0,0
294,-83,0,0,0,0,0,0,0,0,0,-1,1518,1107,0,0
301,-83,0,0,0,0,0,0,0,0,0,-1,1525,1107,0,0
308,-83,0,0,0,0,0,0,0,0,0,-1,1532,1107,0,0
315,-83,0,0,0,0,0,0,0,0,0,-1,1539,1107,0,0
322,-83,0,0,0,0,0,0,0,0,0,-1,1546,1107,0,0
329,-83,0,0,0,0,0,0,0,0,0,-1,1553,1107,0,0
336,-83,0,0,0,0,0,0,0,0,0,-1,1560,1107,0,0
343,-83,0,0,0,0,0,0,0,0,0,-1,1567,1107,0,0
350,-83,0,0,0,0,0,0,0,0,0,-1,1574,1107,0,0
357,-83,0,0,0,0,0,0,0,0,0,-1,1581,1107,0,0
364,-83,0,0,0,0,0,0,0,0,0,-1,1588,1107,0,0
371,-83,0,0,0,0,0,0,0,0,0,-1,1595,1107,0,0
378,-83,0,0,0,0,0,0,0,0,0,-1,1602,1107,0,0
385,-83,0,0,0,0,0,0,0,0,0,-1,1609,1107,0,0
392,-83,0,0,0,0,0,0,0,0,0,-1,1616,1107,0,0
399,-83,0,0,0,0,0,0,0,0,0,-1,1623,1107,0,0
406,-83,0,0,0,0,0,0,0,0,0,-1,1630,1107,0,0
413,-83,0,0,0,0,0,0,0,0,0,-1,1637,1107,0,0
420,-83,0,0,0,0,0,0,0,0,0,-1,1644,1107,0,0
427,-83,0,0,0,0,0,0,0,0,0,-1,1651,1107,0,0
434,-83,0,0,0,0,0,0,0,0,0,-1,1658,1107,0,0
441,-83,0,0,0,0,0,0,0,0,0,-1,1665,1107,0,0
448,-83,0,0,0,0,0,0,0,0,0,-1,1672,1107,0,0
455,-83,0,0,0,0,0,0,0,0,0,-1,1679,1107,0,0
462,-83,0,0,0,0,0,0,0,0,0,-1,1686,1107,0,0
469,-83,0,0,0,0,0,0,0,0,0,-1,1693,1107,0,0
476,-83,0,0,0,0,0,0,0,0,0,-1,1700,1107,0,0
483,-83,0,0,0,0,0,0,0,0,0,-1,1707,1107,0,0
490,-83,0,0,0,0,0,0,0,0,0,-1,1714,1107,0,0
497,-83,0,0,0,0,0,0,0,0,0,-1,1721,1107,0,0
504,-83,0,0,0,0,0,0,0,0,0,-1,1728,1107,0,0
511,-83,0,0,0,0,0,0,0,0,0,-1,1735,1107,0,0
518,-83,0,0,0,0,0,0,0,0,0,-1,1742,1107,0,0
525,-83,0,0,0,0,0,0,0,0,0,-1,1749,1107,0,0
532,-83,0,0,0,0,0,0,0,0,0,-1,1756,1107,0,0
539,-83,0,0,0,0,0,0,0,0,0,-1,1763,1107,0,0
546,-83,0,0,0,0,0,0,0,0,0,-1,1770,1107,0,0
553,-83,0,0,0,0,0,0,0,0,0,-1,1777,1107,0,0
560,-83,0,0,0,0,0,0,0,0,0,-1,1784,1107,0,0
567,-83,0,0,0,0,0,0,0,0,0,-1,1791,1107,0,0
574,-83,0,0,0,0,0,0,0,0,0,-1,1798,1107,0,0
581,-83,0,0,0,0,0,0,0,0,0,-1,1805,1107,0,0
588,-83,0,0,0,0,0,0,0,0,0,-1,1812,1107,0,0
595,-83,0,0,0,0,0,0,0,0,0,-1,1819,1107,0,0
602,-83,0,0,0,0,0,0,0,0,0,-1,1826,1107,0,0
609,-83,0,0,0,0,0,0,0,0,0,-1,1833,1107,0,0
616,-83,0,0,0,0,0,0,0,0,0,-1,1840,1107,0,0
623,-83,0,0,0,0,0,0,0,0,0,-1,1847,1107,0,0
630,-83,0,0,0,0,0,0,0,0,0,-1,1854,1107,0,0
637,-83,0,0,0,0,0,0,0,0,0,-1,1861,1107,0,0
644,-83,54.6934,2.75134,0.00907821,-0.000811499,-0.00269418,0.00976454,-0.00149782,-0.249438,0.00706211,0.0366524,1868,1107,54.6934,-2.75138
651,-83,54.6107,2.62756,0.00653703,-0.00115052,-0.00116463,0.00670959,-0.00132308,-0.147099,0.0049731,0.038675,1875,1107,54.6108,-2.62762
658,-83,54.5355,2.49988,0.00478841,-0.00131736,-0.000460398,0.00482293,-0.00135188,-0.0748398,0.00374808,0.0427076,1882,1107,54.5355,-2.49992
665,-83,54.63,2.49023,0.00349127,-0.00138201,-5.68406e-06,0.00349127,-0.00138201,-0.00116637,0.00290011,0.0394387,1889,1107,54.6301,-2.49026
672,-83,54.6506,2.83887,0.00245403,-0.00135055,0.000258229,0.00247148,-0.001368,0.0674609,0.00224703,0.0364463,1896,1107,54.6507,-2.83884
679,-83,54.6377,2.98181,0.00157821,-0.0012339,0.00030602,0.00161113,-0.00126682,0.107151,0.00166554,0.0376849,1903,1107,54.6377,-2.98179
686,-83,54.7545,2.91284,0.00105807,-0.00124806,0.000336017,0.00110603,-0.00129602,0.14178,0.00138827,0.0359021,1910,1107,54.7545,-2.91281
693,-83,54.7261,2.81555,0.000795189,-0.00129229,0.00042678,0.000879072,-0.00137618,0.194075,0.00131257,0.0372588,1917,1107,54.7261,-2.81552
700,-83,54.6594,2.80652,0.000590257,-0.00124647,0.000531076,0.000732758,-0.00138897,0.26215,0.00124436,0.0328606,1924,1107,54.6594,-2.80651
707,-83,54.6842,2.83386,0.000315853,-0.00108799,0.000820263,0.000693525,-0.00146567,0.431493,0.0012729,0.0228119,1931,1107,54.6842,-2.83389
714,-83,54.7192,2.87573,0,0,0,0,0,0,0,-1,1938,1107,54.7193,-2.87577
721,-83,49.1162,7.36719,0,0,0,0,0,0,0,-1,1945,1107,49.1162,-7.36721
728,-83,51.3352,7.5011,0,0,0,0,0,0,0,-1,1952,1107,51.3352,-7.50113
735,-83,51.5021,7.18079,-0.00143455,0.000616993,0.00159626,0.00148866,-0.00230622,1.07098,0.00220785,0.0419305,1959,1107,51.5021,-7.18078
742,-83,51.6587,6.82837,-0.0020214,0.00137019,0.00206635,0.00234751,-0.00299872,1.12901,0.00309427,0.0259563,1966,1107,51.6587,-6.82841
749,-83,51.7562,6.44092,-0.0028119,0.00243448,0.00250655,0.0034395,-0.00381693,1.18946,0.00419139,0.0192917,1973,1107,51.7562,-6.44097
756,-83,51.7711,6.08032,-0.00377196,0.00366392,0.00255418,0.00445673,-0.00456478,1.26983,0.0052087,0.0182013,1980,1107,51.7711,-6.0803
763,-83,51.722,5.70728,-0.00482392,0.00570796,0.00210941,0.00611474,-0.0052307,1.38029,0.00655692,0.0128319,1987,1107,51.722,-5.70729
770,-83,51.6288,5.40186,-0.00593743,0.00828404,0.00127139,0.00839681,-0.0060502,1.48233,0.00837758,0.0152077,1994,1107,51.6288,-5.40185
777,-83,51.5256,5.0813,-0.0068772,0.0112826,-0.000112542,0.0112832,-0.0068779,-1.5646,0.0105877,0.0174275,2001,1107,51.5257,-5.08124
784,-83,51.4058,4.77478,-0.00758101,0.0145238,-0.00211285,0.0147239,-0.00778115,-1.47635,0.0131978,0.0273026,2008,1107,51.4058,-4.77477
791,-83,51.2439,4.63306,-0.00787235,0.0180554,-0.00504141,0.0190011,-0.00881811,-1.38535,0.0164162,0.0416814,2015,1107,51.2438,-4.63302
798,-83,50.9585,4.55005,-0.00741228,0.0218496,-0.00915516,0.0244779,-0.0100406,-1.29123,0.0205021,0.0424696,2022,1107,50.9585,-4.55004
805,-83,50.6836,3.9519,-0.00582943,0.0259907,-0.0149845,0.0319362,-0.0117749,-1.19307,0.0261161,0.0447696,2029,1107,50.6835,-3.95193
812,-83,50.5295,3.21204,0,0,0,0,0,0,0,-1,2036,1107,50.5295,-3.21207
-700,-90,0,0,0,0,0,0,0,0,0,-1,524,1114,0,0
-693,-90,-36.1235,1.83826,0.0133028,-0.0541232,-0.0428125,0.0340827,-0.0749031,-0.451875,0.0643773,0.0479899,531,1114,-36.1235,-1.83826
-686,-90,-36.4097,1.64941,0.00836893,-0.0408107,-0.0377589,0.028839,-0.0612807,-0.496778,0.0531425,0.0447635,538,1114,-36.4097,-1.64939
-679,-90,-36.4665,1.50061,0.00477207,-0.0298874,-0.031993,0.0238274,-0.0489427,-0.537185,0.0428398,0.0436656,545,1114,-36.4665,-1.50062
-672,-90,-36.5257,1.33752,0.00217848,-0.0208086,-0.0262192,0.0193126,-0.0379428,-0.57883,0.0336347,0.0438626,552,1114,-36.5257,-1.33754
-665,-90,-36.6281,1.11926,0.000161832,-0.0133857,-0.0207649,0.0152299,-0.0284537,-0.627734,0.0256031,0.044575,559,1114,-36.628,-1.11921
-658,-90,-37.0723,1.16064,-0.00133791,-0.00754368,-0.0158663,0.0117261,-0.0206077,-0.688835,0.0189012,0.0415207,566,1114,-37.0723,-1.16059
-651,-90,-37.4346,1.45105,-0.00218728,-0.00329776,-0.0116747,0.00894533,-0.0144304,-0.761636,0.0136192,0.0329869,573,1114,-37.4347,-1.45103
-644,-90,-37.549,2.00769,-0.00235796,-0.00058713,-0.0083073,0.00688181,-0.0098269,-0.838489,0.0096966,0.0162996,580,1114,-37.549,-2.00764
-637,-90,-37.5854,2.53589,-0.00243062,0.00184556,-0.00548321,0.00559279,-0.00617785,-0.971298,0.00679858,0.0135204,587,1114,-37.5854,-2.5359
-630,-90,-37.6161,2.95825,-0.00189147,0.00234247,-0.00340842,0.00423784,-0.00378684,-1.06329,0.00463549,0.0124945,594,1114,-37.6161,-2.95827
-623,-90,-37.6454,3.36865,-0.000553713,0.00171817,-0.00217628,0.00303713,-0.00187268,-1.02593,0.00286113,0.0108864,601,1114,-37.6455,-3.36867
-616,-90,-37.6796,3.79834,0.00095835,0.000412186,-0.00134215,0.00205491,-0.000684377,-0.685035,0.00164619,0.0134226,608,1114,-37.6796,-3.79832
-609,-90,-37.684,4.18884,0.00189775,-0.000301673,-0.000653581,0.00207731,-0.000481232,-0.268117,0.00157006,0.0200911,615,1114,-37.684,-4.1889
-602,-90,-37.7742,4.56555,0.00227406,-0.000943247,-5.62185e-05,0.00227505,-0.000944229,-0.0174666,0.00191085,0.0212442,622,1114,-37.7742,-4.56559
-595,-90,-37.6251,5.04773,0.00196709,-0.00144622,0.000605911,0.00207146,-0.00155059,0.170574,0.00209838,0.0182133,629,1114,-37.625,-5.04776
-588,-90,-37.6167,5.41479,0,0,0,0,0,0,0,-1,636,1114,-37.6167,-5.41483
-581,-90,-40.7053,0.940186,0,0,0,0,0,0,0,-1,643,1114,-40.7053,-0.940125
-574,-90,-40.8193,1.052,0,0,0,0,0,0,0,-1,650,1114,-40.8193,-1.052
-567,-90,-40.8152,0.682861,0,0,0,0,0,0,0,-1,657,1114,-40.8152,-0.682851
-560,-90,-40.6929,0.799438,0.00179689,-0.00230183,0.00216965,0.00273203,-0.00323697,0.40695,0.00345031,0.0425216,664,1114,-40.693,-0.799425
-553,-90,-40.6331,0.917358,0.00100206,-0.00219791,0.00212537,0.00206237,-0.00325822,0.462752,0.0030976,0.042529,671,1114,-40.6331,-0.917315
-546,-90,-40.7822,1.31665,0.000198752,-0.00207024,0.00151711,0.000958644,-0.00283013,0.464352,0.00227467,0.0424853,678,1114,-40.7822,-1.31664
-539,-90,-40.7965,1.42603,0.000850862,-0.00246596,-0.000206574,0.000863678,-0.00247877,-0.0619615,0.00200346,0.0424198,685,1114,-40.7965,-1.42608
-532,-90,-40.7524,1.28101,0.00210526,-0.00298736,-0.00229219,0.002985,-0.0038671,-0.366463,0.00396697,0.0423148,692,1114,-40.7524,-1.28101
-525,-90,0,0,0,0,0,0,0,0,0,-1,699,1114,0,0
-518,-90,0,0,0,0,0,0,0,0,0,-1,706,1114,0,0
-511,-90,0,0,0,0,0,0,0,0,0,-1,713,1114,0,0
-504,-90,0,0,0,0,0,0,0,0,0,-1,720,1114,0,0
-497,-90,0,0,0,0,0,0,0,0,0,-1,727,1114,0,0
-490,-90,0,0,0,0,0,0,0,0,0,-1,734,1114,0,0
-483,-90,0,0,0,0,0,0,0,0,0,-1,741,1114,0,0
-476,-90,0,0,0,0,0,0,0,0,0,-1,748,1114,0,0
-469,-90,0,0,0,0,0,0,0,0,0,-1,755,1114,0,0
-462,-90,0,0,0,0,0,0,0,0,0,-1,762,1114,0,0
-455,-90,0,0,0,0,0,0,0,0,0,-1,769,1114,0,0
-448,-90,0,0,0,0,0,0,0,0,0,-1,776,1114,0,0
-441,-90,0,0,0,0,0,0,0,0,0,-1,783,1114,0,0
-434,-90,0,0,0,0,0,0,0,0,0,-1,790,1114,0,0
-427,-90,0,0,0,0,0,0,0,0,0,-1,797,1114,0,0
-420,-90,0,0,0,0,0,0,0,0,0,-1,804,1114,0,0
-413,-90,0,0,0,0,0,0,0,0,0,-1,811,1114,0,0
-406,-90,0,0,0,0,0,0,0,0,0,-1,818,1114,0,0
-399,-90,0,0,0,0,0,0,0,0,0,-1,825,1114,0,0
-392,-90,0,0,0,0,0,0,0,0,0,-1,832,1114,0,0
-385,-90,0,0,0,0,0,0,0,0,0,-1,839,1114,0,0
-378,-90,0,0,0,0,0,0,0,0,0,-1,846,1114,0,0
-371,-90,0,0,0,0,0,0,0,0,0,-1,853,1114,0,0
-364,-90,0,0,0,0,0,0,0,0,0,-1,860,1114,0,0
-357,-90,0,0,0,0,0,0,0,0,0,-1,867,1114,0,0
-350,-90,0,0,0,0,0,0,0,0,0,-1,874,1114,0,0
-343,-90,0,0,0,0,0,0,0,0,0,-1,881,1114,0,0
-336,-90,0,0,0,0,0,0,0,0,0,-1,888,1114,0,0
-329,-90,0,0,0,0,0,0,0,0,0,-1,895,1114,0,0
-322,-90,0,0,0,0,0,0,0,0,0,-1,902,1114,0,0
-315,-90,0,0,0,0,0,0,0,0,0,-1,909,1114,0,0
-308,-90,0,0,0,0,0,0,0,0,0,-1,916,1114,0,0
-301,-90,0,0,0,0,0,0,0,0,0,-1,923,1114,0,0
-294,-90,0,0,0,0,0,0,0,0,0,-1,930,1114,0,0
-287,-90,0,0,0,0,0,0,0,0,0,-1,937,1114,0,0
-280,-90,0,0,0,0,0,0,0,0,0,-1,944,1114,0,0
-273,-90,0,0,0,0,0,0,0,0,0,-1,951,1114,0,0
-266,-90,0,0,0,0,0,0,0,0,0,-1,958,1114,0,0
-259,-90,0,0,0,0,0,0,0,0,0,-1,965,1114,0,0
-252,-90,0,0,0,0,0,0,0,0,0,-1,972,1114,0,0
-245,-90,0,0,0,0,0,0,0,0,0,-1,979,1114,0,0
-238,-90,0,0,0,0,0,0,0,0,0,-1,986,1114,0,0
-231,-90,0,0,0,0,0,0,0,0,0,-1,993,1114,0,0
-224,-90,0,0,0,0,0,0,0,0,0,-1,1000,1114,0,0
-217,-90,0,0,0,0,0,0,0,0,0,-1,1007,1114,0,0
-210,-90,0,0,0,0,0,0,0,0,0,-1,1014,1114,0,0
-203,-90,0,0,0,0,0,0,0,0,0,-1,1021,1114,0,0
-196,-90,0,0,0,0,0,0,0,0,0,-1,1028,1114,0,0
-189,-90,0,0,0,0,0,0,0,0,0,-1,1035,1114,0,0
-182,-90,0,0,0,0,0,0,0,0,0,-1,1042,1114,0,0
-175,-90,0,0,0,0,0,0,0,0,0,-1,1049,1114,0,0
-168,-90,0,0,0,0,0,0,0,0,0,-1,1056,1114,0,0
-161,-90,0,0,0,0,0,0,0,0,0,-1,1063,1114,0,0
-154,-90,0,0,0,0,0,0,0,0,0,-1,1070,1114,0,0
-147,-90,0,0,0,0,0,0,0,0,0,-1,1077,1114,0,0
-140,-90,0,0,0,0,0,0,0,0,0,-1,1084,1114,0,0
-133,-90,0,0,0,0,0,0,0,0,0,-1,1091,1114,0,0
-126,-90,0,0,0,0,0,0,0,0,0,-1,1098,1114,0,0
-119,-90,0,0,0,0,0,0,0,0,0,-1,1105,1114,0,0
-112,-90,0,0,0,0,0,0,0,0,0,-1,1112,1114,0,0
-105,-90,0,0,0,0,0,0,0,0,0,-1,1119,1114,0,0
-98,-90,0,0,0,0,0,0,0,0,0,-1,1126,1114,0,0
-91,-90,0,0,0,0,0,0,0,0,0,-1,1133,1114,0,0
-84,-90,0,0,0,0,0,0,0,0,0,-1,1140,1114,0,0
-77,-90,0,0,0,0,0,0,0,0,0,-1,1147,1114,0,0
-70,-90,0,0,0,0,0,0,0,0,0,-1,1154,1114,0,0
-63,-90,0,0,0,0,0,0,0,0,0,-1,1161,1114,0,0
-56,-90,0,0,0,0,0,0,0,0,0,-1,1168,1114,0,0
-49,-90,0,0,0,0,0,0,0,0,0,-1,1175,1114,0,0
-42,-90,0,0,0,0,0,0,0,0,0,-1,1182,1114,0,0
-35,-90,0,0,0,0,0,0,0,0,0,-1,1189,1114,0,0
-28,-90,0,0,0,0,0,0,0,0,0,-1,1196,1114,0,0
-21,-90,0,0,0,0,0,0,0,0,0,-1,1203,1114,0,0
-14,-90,0,0,0,0,0,0,0,0,0,-1,1210,1114,0,0
-7,-90,0,0,0,0,0,0,0,0,0,-1,1217,1114,0,0
0,-90,0,0,0,0,0,0,0,0,0,-1,1224,1114,0,0
7,-90,0,0,0,0,0,0,0,0,0,-1,1231,1114,0,0
14,-90,0,0,0,0,0,0,0,0,0,-1,1238,1114,0,0
21,-90,0,0,0,0,0,0,0,0,0,-1,1245,1114,0,0
28,-90,0,0,0,0,0,0,0,0,0,-1,1252,1114,0,0
35,-90,0,0,0,0,0,0,0,0,0,-1,1259,1114,0,0
42,-90,0,0,0,0,0,0,0,0,0,-1,1266,1114,0,0
49,-90,0,0,0,0,0,0,0,0,0,-1,1273,1114,0,0
56,-90,0,0,0,0,0,0,0,0,0,-1,1280,1114,0,0
63,-90,0,0,0,0,0,0,0,0,0,-1,1287,1114,0,0
70,-90,0,0,0,0,0,0,0,0,0,-1,1294,1114,0,0
77,-90,0,0,0,0,0,0,0,0,0,-1,1301,1114,0,0
84,-90,0,0,0,0,0,0,0,0,0,-1,1308,1114,0,0
91,-90,0,0,0,0,0,0,0,0,0,-1,1315,1114,0,0
98,-90,0,0,0,0,0,0,0,0,0,-1,1322,1114,0,0
105,-90,0,0,0,0,0,0,0,0,0,-1,1329,1114,0,0
112,-90,0,0,0,0,0,0,0,0,0,-1,1336,1114,0,0
119,-90,0,0,0,0,0,0,0,0,0,-1,1343,1114,0,0
126,-90,0,0,0,0,0,0,0,0,0,-1,1350,1114,0,0
133,-90,0,0,0,0,0,0,0,0,0,-1,1357,1114,0,0
140,-90,0,0,0,0,0,0,0,0,0,-1,1364,1114,0,0
147,-90,0,0,0,0,0,0,0,0,0,-1,1371,1114,0,0
154,-90,0,0,0,0,0,0,0,0,0,-1,1378,1114,0,0
161,-90,0,0,0,0,0,0,0,0,0,-1,1385,1114,0,0
168,-90,0,0,0,0,0,0,0,0,0,-1,1392,1114,0,0
175,-90,0,0,0,0,0,0,0,0,0,-1,1399,1114,0,0
182,-90,0,0,0,0,0,0,0,0,0,-1,1406,1114,0,0
189,-90,0,0,0,0,0,0,0,0,0,-1,1413,1114,0,0
196,-90,0,0,0,0,0,0,0,0,0,-1,1420,1114,0,0
203,-90,0,0,0,0,0,0,0,0,0,-1,1427,1114,0,0
210,-90,0,0,0,0,0,0,0,0,0,-1,1434,1114,0,0
217,-90,0,0,0,0,0,0,0,0,0,-1,1441,1114,0,0
224,-90,0,0,0,0,0,0,0,0,0,-1,1448,1114,0,0
231,-90,0,0,0,0,0,0,0,0,0,-1,1455,1114,0,0
238,-90,0,0,0,0,0,0,0,0,0,-1,1462,1114,0,0
245,-90,0,0,0,0,0,0,0,0,0,-1,1469,1114,0,0
252,-90,0,0,0,0,0,0,0,0,0,-1,1476,1114,0,0
259,-90,0,0,0,0,0,0,0,0,0,-1,1483,1114,0,0
266,-90,0,0,0,0,0,0,0,0,0,-1,1490,1114,0,0
273,-90,0,0,0,0,0,0,0,0,0,-1,1497,1114,0,0
280,-90,0,0,0,0,0,0,0,0,0,-1,1504,1114,0,0
287,-90,0,0,0,0,0,0,0,0,0,-1,1511,1114,0,0
294,-90,0,0,0,0,0,0,0,0,0,-1,1518,1114,0,0
301,-90,0,0,0,0,0,0,0,0,0,-1,1525,1114,0,0
308,-90,0,0,0,0,0,0,0,0,0,-1,1532,1114,0,0
315,-90,0,0,0,0,0,0,0,0,0,-1,1539,1114,0,0
322,-90,0,0,0,0,0,0,0,0,0,-1,1546,1114,0,0
329,-90,0,0,0,0,0,0,0,0,0,-1,1553,1114,0,0
336,-90,0,0,0,0,0,0,0,0,0,-1,1560,1114,0,0
343,-90,0,0,0,0,0,0,0,0,0,-1,1567,1114,0,0
350,-90,0,0,0,0,0,0,0,0,0,-1,1574,1114,0,0
357,-90,0,0,0,0,0,0,0,0,0,-1,1581,1114,0,0
364,-90,0,0,0,0,0,0,0,0,0,-1,1588,1114,0,0
371,-90,0,0,0,0,0,0,0,0,0,-1,1595,1114,0,0
378,-90,0,0,0,0,0,0,0,0,0,-1,1602,1114,0,0
385,-90,0,0,0,0,0,0,0,0,0,-1,1609,1114,0,0
392,-90,0,0,0,0,0,0,0,0,0,-1,1616,1114,0,0
399,-90,0,0,0,0,0,0,0,0,0,-1,1623,1114,0,0
406,-90,0,0,0,0,0,0,0,0,0,-1,1630,1114,0,0
413,-90,0,0,0,0,0,0,0,0,0,-1,1637,1114,0,0
420,-90,0,0,0,0,0,0,0,0,0,-1,1644,1114,0,0
427,-90,0,0,0,0,0,0,0,0,0,-1,1651,1114,0,0
434,-90,0,0,0,0,0,0,0,0,0,-1,1658,1114,0,0
441,-90,0,0,0,0,0,0,0,0,0,-1,1665,1114,0,0
448,-90,0,0,0,0,0,0,0,0,0,-1,1672,1114,0,0
455,-90,0,0,0,0,0,0,0,0,0,-1,1679,1114,0,0
462,-90,0,0,0,0,0,0,0,0,0,-1,1686,1114,0,0
469,-90,0,0,0,0,0,0,0,0,0,-1,1693,1114,0,0
476,-90,0,0,0,0,0,0,0,0,0,-1,1700,1114,0,0
483,-90,0,0,0,0,0,0,0,0,0,-1,1707,1114,0,0
490,-90,0,0,0,0,0,0,0,0,0,-1,1714,1114,0,0
497,-90,0,0,0,0,0,0,0,0,0,-1,1721,1114,0,0
504,-90,0,0,0,0,0,0,0,0,0,-1,1728,1114,0,0
511,-90,0,0,0,0,0,0,0,0,0,-1,1735,1114,0,0
518,-90,0,0,0,0,0,0,0,0,0,-1,1742,1114,0,0
525,-90,0,0,0,0,0,0,0,0,0,-1,1749,1114,0,0
532,-90,0,0,0,0,0,0,0,0,0,-1,1756,1114,0,0
539,-90,0,0,0,0,0,0,0,0,0,-1,1763,1114,0,0
546,-90,0,0,0,0,0,0,0,0,0,-1,1770,1114,0,0
553,-90,0,0,0,0,0,0,0,0,0,-1,1777,1114,0,0
560,-90,0,0,0,0,0,0,0,0,0,-1,1784,1114,0,0
567,-90,0,0,0,0,0,0,0,0,0,-1,1791,1114,0,0
574,-90,0,0,0,0,0,0,0,0,0,-1,1798,1114,0,0
581,-90,0,0,0,0,0,0,0,0,0,-1,1805,1114,0,0
588,-90,0,0,0,0,0,0,0,0,0,-1,1812,1114,0,0
595,-90,0,0,0,0,0,0,0,0,0,-1,1819,1114,0,0
602,-90,0,0,0,0,0,0,0,0,0,-1,1826,1114,0,0
609,-90,0,0,0,0,0,0,0,0,0,-1,1833,1114,0,0
616,-90,0,0,0,0,0,0,0,0,0,-1,1840,1114,0,0
623,-90,0,0,0,0,0,0,0,0,0,-1,1847,1114,0,0
630,-90,0,0,0,0,0,0,0,0,0,-1,1854,1114,0,0
637,-90,0,0,0,0,0,0,0,0,0,-1,1861,1114,0,0
644,-90,54.7456,2.68835,0.0101399,-0.000581136,-0.00267979,0.0107725,-0.00121365,-0.231788,0.00761848,0.0357162,1868,1114,54.7456,-2.68841
651,-90,54.7427,2.6488,0.00715644,-0.000924829,-0.00126143,0.00734876,-0.00111715,-0.151299,0.00531087,0.0365739,1875,1114,54.7427,-2.64885
658,-90,54.64,2.56702,0.00515514,-0.00112303,-0.000619978,0.00521578,-0.00118367,-0.0974965,0.00393159,0.0396813,1882,1114,54.64,-2.56702
665,-90,54.6334,2.78418,0.00365969,-0.00121314,-0.00020632,0.00366841,-0.00122186,-0.0422401,0.00293882,0.040386,1889,1114,54.6334,-2.78421
672,-90,54.6522,2.93311,0.00247206,-0.00121273,8.61718e-06,0.00247208,-0.00121275,0.00233856,0.00216846,0.0403724,1896,1114,54.6522,-2.93316
679,-90,54.6774,3.02051,0.001505,-0.00115363,1.52899e-05,0.00150508,-0.00115372,0.00575079,0.00153952,0.0384787,1903,1114,54.6774,-3.02053
686,-90,54.7681,3.01355,0.000979497,-0.00120249,7.90872e-06,0.000979526,-0.00120252,0.00362449,0.00126199,0.0351581,1910,1114,54.768,-3.0135
693,-90,54.7235,2.90552,0.000733458,-0.00127469,9.01301e-05,0.000737495,-0.00127873,0.0447622,0.00117797,0.0346861,1917,1114,54.7235,-2.90557
700,-90,54.6709,2.82471,0.000508337,-0.0012616,0.000197977,0.000530211,-0.00128348,0.110044,0.00107682,0.0298285,1924,1114,54.6709,-2.82467
707,-90,54.6753,2.81433,0.000248115,-0.00113879,0.000496526,0.000407549,-0.00129823,0.310698,0.00102861,0.0232918,1931,1114,54.6753,-2.81435
714,-90,54.7261,2.82605,0,0,0,0,0,0,0,-1,1938,1114,54.7261,-2.8261
721,-90,51.322,7.93286,0,0,0,0,0,0,0,-1,1945,1114,51.322,-7.9329
728,-90,51.3175,7.63098,-0.000834098,-0.00022509,0.00105743,0.000570811,-0.00163,0.925588,0.00131878,0.0347019,1952,1114,51.3175,-7.63101
735,-90,51.0911,7.23206,-0.0012367,0.000376933,0.00130179,0.00110165,-0.00196141,1.06281,0.00179153,0.0355513,1959,1114,51.0911,-7.23207
742,-90,51.1973,6.80029,-0.00175321,0.00107212,0.00184172,0.00198057,-0.00266165,1.11256,0.00268979,0.031407,1966,1114,51.1973,-6.80025
749,-90,51.4958,6.31177,-0.0025152,0.00212945,0.00233389,0.00309957,-0.00348533,1.17686,0.00380397,0.0219141,1973,1114,51.4958,-6.31181
756,-90,51.4541,6.0033,-0.00343041,0.00338146,0.00233455,0.00410475,-0.00415371,1.27035,0.00476805,0.0184572,1980,1114,51.4541,-6.00332
763,-90,51.3618,5.66931,-0.00436491,0.0056165,0.00171361,0.0059025,-0.0046509,1.40542,0.00610728,0.0121027,1987,1114,51.3618,-5.66928
770,-90,51.3031,5.31604,-0.0053302,0.00842071,0.000656698,0.008452,-0.00536149,1.52318,0.00804148,0.0156047,1994,1114,51.3031,-5.316
777,-90,51.2212,5.00378,-0.00609606,0.0117573,-0.00104131,0.0118178,-0.00615659,-1.51273,0.0105477,0.016623,2001,1114,51.2211,-5.00375
784,-90,51.0676,4.75684,-0.00664111,0.0155619,-0.00349926,0.0161003,-0.00717954,-1.41812,0.0137657,0.0307485,2008,1114,51.0675,-4.75684
791,-90,50.9346,4.54248,-0.00675823,0.0199941,-0.00711534,0.0217689,-0.00853297,-1.32636,0.0180425,0.0437849,2015,1114,50.9345,-4.54249
798,-90,50.509,4.92065,-0.00611339,0.0251231,-0.0121749,0.0293078,-0.0102981,-1.23973,0.0237282,0.0426603,2022,1114,50.509,-4.92065
805,-90,50.4785,4.15112,-0.00439218,0.0311907,-0.0192941,0.0396442,-0.0128457,-1.15785,0.0315942,0.0438864,2029,1114,50.4785,-4.1511
812,-90,50.4397,3.39954,0,0,0,0,0,0,0,-1,2036,1114,50.4396,-3.39955
-700,-97,0,0,0,0,0,0,0,0,0,-1,524,1121,0,0
-693,-97,-35.9323,2.12598,0,0,0,0,0,0,0,-1,531,1121,-35.9323,-2.12602
-686,-97,-35.9145,1.98608,0.00964341,-0.0412649,-0.0385144,0.030355,-0.0619765,-0.493398,0.0543397,0.0487262,538,1121,-35.9145,-1.98614
-679,-97,-35.8954,1.77783,0.00568161,-0.0308115,-0.032807,0.0249749,-0.0501048,-0.531611,0.0441492,0.0468437,545,1121,-35.8954,-1.77778
-672,-97,-35.9041,1.53699,0.00276577,-0.0219549,-0.0270954,0.020187,-0.0393761,-0.571408,0.0349786,0.0465894,552,1121,-35.9041,-1.53695
-665,-97,-36.5563,0.641846,0,0,0,0,0,0,0,-1,559,1121,-36.5563,-0.641881
-658,-97,-36.8942,1.23511,-0.00116059,-0.00861237,-0.0166741,0.0121989,-0.0219718,-0.675477,0.0199956,0.0409764,566,1121,-36.8941,-1.23512
-651,-97,-37.082,1.59473,-0.0021342,-0.00418066,-0.0123597,0.00924454,-0.0155594,-0.744098,0.0144744,0.0324088,573,1121,-37.0821,-1.59471
-644,-97,-37.1375,2.03589,-0.00236762,-0.00124815,-0.0088088,0.00701868,-0.0106344,-0.817127,0.0102631,0.0127064,580,1121,-37.1375,-2.03592
-637,-97,-37.1404,2.51379,-0.00252186,0.00139143,-0.00580061,0.00555651,-0.00668694,-0.948064,0.00707879,0.0134917,587,1121,-37.1404,-2.51376
-630,-97,-37.1699,2.92834,-0.00198346,0.00206589,-0.00349613,0.00408129,-0.00399887,-1.04786,0.00466516,0.0107963,594,1121,-37.1698,-2.92836
-623,-97,-37.2134,3.35547,-0.000469917,0.00154042,-0.00202956,0.00280008,-0.00172958,-1.01532,0.00263944,0.0117831,601,1121,-37.2134,-3.35551
-616,-97,-37.2712,3.81628,0.00100566,0.000246488,-0.00109074,0.00178098,-0.000528824,-0.617947,0.00139736,0.019404,608,1121,-37.2712,-3.81624
-609,-97,-37.3503,4.27246,0.00189546,-0.000483168,-0.000292782,0.00193097,-0.000518676,-0.120688,0.00149059,0.0276768,615,1121,-37.3503,-4.27249
-602,-97,-37.3928,4.61401,0.00224832,-0.00105478,0.000428694,0.00230305,-0.00110951,0.126983,0.00201001,0.0264997,622,1121,-37.3928,-4.61402
-595,-97,-37.2446,5.06445,0.00179893,-0.00147458,0.00109957,0.00213399,-0.00180963,0.295774,0.00227941,0.0203792,629,1121,-37.2446,-5.06444
-588,-97,-37.2811,5.50623,0,0,0,0,0,0,0,-1,636,1121,-37.2811,-5.5062
-581,-97,-39.563,2.73816,0,0,0,0,0,0,0,-1,643,1121,-39.563,-2.73817
-574,-97,-40.7761,0.9104,0,0,0,0,0,0,0,-1,650,1121,-40.7761,-0.910343
-567,-97,-40.877,1.03882,0.00210588,-0.00205338,0.00220556,0.00305765,-0.00300515,0.407389,0.0035004,0.0351266,657,1121,-40.877,-1.03883
-560,-97,-40.7642,1.03516,0.00203511,-0.00195111,0.00246204,0.00320967,-0.00312567,0.445134,0.00365782,0.0402048,664,1121,-40.7642,-1.03518
-553,-97,-40.6993,1.15027,0.00130693,-0.00175824,0.00233202,0.00256489,-0.0030162,0.494691,0.00322575,0.0441665,671,1121,-40.6993,-1.15027
-546,-97,-40.7432,1.36377,0.000562173,-0.00139324,0.00156755,0.00143193,-0.00226299,0.506561,0.00215118,0.0441663,678,1121,-40.7432,-1.36379
-539,-97,-40.8191,1.32739,0.00134858,-0.0013547,-0.00032947,0.00138815,-0.00139428,-0.119547,0.00160644,0.0412283,685,1121,-40.8191,-1.32739
-532,-97,-40.7089,1.20129,0.00286522,-0.00149059,-0.00263199,0.00410355,-0.00272892,-0.439762,0.00397125,0.0399327,692,1121,-40.7089,-1.20127
-525,-97,0,0,0,0,0,0,0,0,0,-1,699,1121,0,0
-518,-97,0,0,0,0,0,0,0,0,0,-1,706,1121,0,0
-511,-97,0,0,0,0,0,0,0,0,0,-1,713,1121,0,0
-504,-97,0,0,0,0,0,0,0,0,0,-1,720,1121,0,0
-497,-97,0,0,0,0,0,0,0,0,0,-1,727,1121,0,0
-490,-97,0,0,0,0,0,0,0,0,0,-1,734,1121,0,0
-483,-97,0,0,0,0,0,0,0,0,0,-1,741,1121,0,0
-476,-97,0,0,0,0,0,0,0,0,0,-1,748,1121,0,0
-469,-97,0,0,0,0,0,0,0,0,0,-1,755,1121,0,0
-462,-97,0,0,0,0,0,0,0,0,0,-1,762,1121,0,0
-455,-97,0,0,0,0,0,0,0,0,0,-1,769,1121,0,0
-448,-97,0,0,0,0,0,0,0,0,0,-1,776,1121,0,0
-441,-97,0,0,0,0,0,0,0,0,0,-1,783,1121,0,0
-434,-97,0,0,0,0,0,0,0,0,0,-1,790,1121,0,0
-427,-97,0,0,0,0,0,0,0,0,0,-1,797,1121,0,0
-420,-97,0,0,0,0,0,0,0,0,0,-1,804,1121,0,0
-413,-97,0,0,0,0,0,0,0,0,0,-1,811,1121,0,0
-406,-97,0,0,0,0,0,0,0,0,0,-1,818,1121,0,0
-399,-97,0,0,0,0,0,0,0,0,0,-1,825,1121,0,0
-392,-97,0,0,0,0,0,0,0,0,0,-1,832,1121,0,0
-385,-97,0,0,0,0,0,0,0,0,0,-1,839,1121,0,0
-378,-97,0,0,0,0,0,0,0,0,0,-1,846,1121,0,0
-371,-97,0,0,0,0,0,0,0,0,0,-1,853,1121,0,0
-364,-97,0,0,0,0,0,0,0,0,0,-1,860,1121,0,0
-357,-97,0,0,0,0,0,0,0,0,0,-1,867,1121,0,0
-350,-97,0,0,0,0,0,0,0,0,0,-1,874,1121,0,0
-343,-97,0,0,0,0,0,0,0,0,0,-1,881,1121,0,0
-336,-97,0,0,0,0,0,0,0,0,0,-1,888,1121,0,0
-329,-97,0,0,0,0,0,0,0,0,0,-1,895,1121,0,0
-322,-97,0,0,0,0,0,0,0,0,0,-1,902,1121,0,0
-315,-97,0,0,0,0,0,0,0,0,0,-1,909,1121,0,0
-308,-97,0,0,0,0,0,0,0,0,0,-1,916,1121,0,0
-301,-97,0,0,0,0,0,0,0,0,0,-1,923,1121,0,0
-294,-97,0,0,0,0,0,0,0,0,0,-1,930,1121,0,0
-287,-97,0,0,0,0,0,0,0,0,0,-1,937,1121,0,0
-280,-97,0,0,0,0,0,0,0,0,0,-1,944,1121,0,0
-273,-97,0,0,0,0,0,0,0,0,0,-1,951,1121,0,0
-266,-97,0,0,0,0,0,0,0,0,0,-1,958,1121,0,0
-259,-97,0,0,0,0,0,0,0,0,0,-1,965,1121,0,0
-252,-97,0,0,0,0,0,0,0,0,0,-1,972,1121,0,0
-245,-97,0,0,0,0,0,0,0,0,0,-1,979,1121,0,0
-238,-97,0,0,0,0,0,0,0,0,0,-1,986,1121,0,0
-231,-97,0,0,0,0,0,0,0,0,0,-1,993,1121,0,0
-224,-97,0,0,0,0,0,0,0,0,0,-1,1000,1121,0,0
-217,-97,0,0,0,0,0,0,0,0,0,-1,1007,1121,0,0
-210,-97,0,0,0,0,0,0,0,0,0,-1,1014,1121,0,0
-203,-97,0,0,0,0,0,0,0,0,0,-1,1021,1121,0,0
-196,-97,0,0,0,0,0,0,0,0,0,-1,1028,1121,0,0
-189,-97,0,0,0,0,0,0,0,0,0,-1,1035,1121,0,0
-182,-97,0,0,0,0,0,0,0,0,0,-1,1042,1121,0,0
-175,-97,0,0,0,0,0,0,0,0,0,-1,1049,1121,0,0
-168,-97,0,0,0,0,0,0,0,0,0,-1,1056,1121,0,0
-161,-97,0,0,0,0,0,0,0,0,0,-1,1063,1121,0,0
-154,-97,0,0,0,0,0,0,0,0,0,-1,1070,1121,0,0
-147,-97,0,0,0,0,0,0,0,0,0,-1,1077,1121,0,0
-140,-97,0,0,0,0,0,0,0,0,0,-1,1084,1121,0,0
-133,-97,0,0,0,0,0,0,0,0,0,-1,1091,1121,0,0
-126,-97,0,0,0,0,0,0,0,0,0,-1,1098,1121,0,0
-119,-97,0,0,0,0,0,0,0,0,0,-1,1105,1121,0,0
-112,-97,0,0,0,0,0,0,0,0,0,-1,1112,1121,0,0
-105,-97,0,0,0,0,0,0,0,0,0,-1,1119,1121,0,0
-98,-97,0,0,0,0,0,0,0,0,0,-1,1126,1121,0,0
-91,-97,0,0,0,0,0,0,0,0,0,-1,1133,1121,0,0
-84,-97,0,0,0,0,0,0,0,0,0,-1,1140,1121,0,0
-77,-97,0,0,0,0,0,0,0,0,0,-1,1147,1121,0,0
-70,-97,0,0,0,0,0,0,0,0,0,-1,1154,1121,0,0
-63,-97,0,0,0,0,0,0,0,0,0,-1,1161,1121,0,0
-56,-97,0,0,0,0,0,0,0,0,0,-1,1168,1121,0,0
-49,-97,0,0,0,0,0,0,0,0,0,-1,1175,1121,0,0
-42,-97,0,0,0,0,0,0,0,0,0,-1,1182,1121,0,0
-35,-97,0,0,0,0,0,0,0,0,0,-1,1189,1121,0,0
-28,-97,0,0,0,0,0,0,0,0,0,-1,1196,1121,0,0
-21,-97,0,0,0,0,0,0,0,0,0,-1,1203,1121,0,0
-14,-97,0,0,0,0,0,0,0,0,0,-1,1210,1121,0,0
-7,-97,0,0,0,0,0,0,0,0,0,-1,1217,1121,0,0
0,-97,0,0,0,0,0,0,0,0,0,-1,1224,1121,0,0
7,-97,0,0,0,0,0,0,0,0,0,-1,1231,1121,0,0
14,-97,0,0,0,0,0,0,0,0,0,-1,1238,1121,0,0
21,-97,0,0,0,0,0,0,0,0,0,-1,1245,1121,0,0
28,-97,0,0,0,0,0,0,0,0,0,-1,1252,1121,0,0
35,-97,0,0,0,0,0,0,0,0,0,-1,1259,1121,0,0
42,-97,0,0,0,0,0,0,0,0,0,-1,1266,1121,0,0
49,-97,0,0,0,0,0,0,0,0,0,-1,1273,1121,0,0
56,-97,0,0,0,0,0,0,0,0,0,-1,1280,1121,0,0
63,-97,0,0,0,0,0,0,0,0,0,-1,1287,1121,0,0
70,-97,0,0,0,0,0,0,0,0,0,-1,1294,1121,0,0
77,-97,0,0,0,0,0,0,0,0,0,-1,1301,1121,0,0
84,-97,0,0,0,0,0,0,0,0,0,-1,1308,1121,0,0
91,-97,0,0,0,0,0,0,0,0,0,-1,1315,1121,0,0
98,-97,0,0,0,0,0,0,0,0,0,-1,1322,1121,0,0
105,-97,0,0,0,0,0,0,0,0,0,-1,1329,1121,0,0
112,-97,0,0,0,0,0,0,0,0,0,-1,1336,1121,0,0
119,-97,0,0,0,0,0,0,0,0,0,-1,1343,1121,0,0
126,-97,0,0,0,0,0,0,0,0,0,-1,1350,1121,0,0
133,-97,0,0,0,0,0,0,0,0,0,-1,1357,1121,0,0
140,-97,0,0,0,0,0,0,0,0,0,-1,1364,1121,0,0
147,-97,0,0,0,0,0,0,0,0,0,-1,1371,1121,0,0
154,-97,0,0,0,0,0,0,0,0,0,-1,1378,1121,0,0
161,-97,0,0,0,0,0,0,0,0,0,-1,1385,1121,0,0
168,-97,0,0,0,0,0,0,0,0,0,-1,1392,1121,0,0
175,-97,0,0,0,0,0,0,0,0,0,-1,1399,1121,0,0
182,-97,0,0,0,0,0,0,0,0,0,-1,1406,1121,0,0
189,-97,0,0,0,0,0,0,0,0,0,-1,1413,1121,0,0
196,-97,0,0,0,0,0,0,0,0,0,-1,1420,1121,0,0
203,-97,0,0,0,0,0,0,0,0,0,-1,1427,1121,0,0
210,-97,0,0,0,0,0,0,0,0,0,-1,1434,1121,0,0
217,-97,0,0,0,0,0,0,0,0,0,-1,1441,1121,0,0
224,-97,0,0,0,0,0,0,0,0,0,-1,1448,1121,0,0
231,-97,0,0,0,0,0,0,0,0,0,-1,1455,1121,0,0
238,-97,0,0,0,0,0,0,0,0,0,-1,1462,1121,0,0
245,-97,0,0,0,0,0,0,0,0,0,-1,1469,1121,0,0
252,-97,0,0,0,0,0,0,0,0,0,-1,1476,1121,0,0
259,-97,0,0,0,0,0,0,0,0,0,-1,1483,1121,0,0
266,-97,0,0,0,0,0,0,0,0,0,-1,1490,1121,0,0
273,-97,0,0,0,0,0,0,0,0,0,-1,1497,1121,0,0
280,-97,0,0,0,0,0,0,0,0,0,-1,1504,1121,0,0
287,-97,0,0,0,0,0,0,0,0,0,-1,1511,1121,0,0
294,-97,0,0,0,0,0,0,0,0,0,-1,1518,1121,0,0
301,-97,0,0,0,0,0,0,0,0,0,-1,1525,1121,0,0
308,-97,0,0,0,0,0,0,0,0,0,-1,1532,1121,0,0
315,-97,0,0,0,0,0,0,0,0,0,-1,1539,1121,0,0
322,-97,0,0,0,0,0,0,0,0,0,-1,1546,1121,0,0
329,-97,0,0,0,0,0,0,0,0,0,-1,1553,1121,0,0
336,-97,0,0,0,0,0,0,0,0,0,-1,1560,1121,0,0
343,-97,0,0,0,0,0,0,0,0,0,-1,1567,1121,0,0
350,-97,0,0,0,0,0,0,0,0,0,-1,1574,1121,0,0
357,-97,0,0,0,0,0,0,0,0,0,-1,1581,1121,0,0
364,-97,0,0,0,0,0,0,0,0,0,-1,1588,1121,0,0
371,-97,0,0,0,0,0,0,0,0,0,-1,1595,1121,0,0
378,-97,0,0,0,0,0,0,0,0,0,-1,1602,1121,0,0
385,-97,0,0,0,0,0,0,0,0,0,-1,1609,1121,0,0
392,-97,0,0,0,0,0,0,0,0,0,-1,1616,1121,0,0
399,-97,0,0,0,0,0,0,0,0,0,-1,1623,1121,0,0
406,-97,0,0,0,0,0,0,0,0,0,-1,1630,1121,0,0
413,-97,0,0,0,0,0,0,0,0,0,-1,1637,1121,0,0
420,-97,0,0,0,0,0,0,0,0,0,-1,1644,1121,0,0
427,-97,0,0,0,0,0,0,0,0,0,-1,1651,1121,0,0
434,-97,0,0,0,0,0,0,0,0,0,-1,1658,1121,0,0
441,-97,0,0,0,0,0,0,0,0,0,-1,1665,1121,0,0
448,-97,0,0,0,0,0,0,0,0,0,-1,1672,1121,0,0
455,-97,0,0,0,0,0,0,0,0,0,-1,1679,1121,0,0
462,-97,0,0,0,0,0,0,0,0,0,-1,1686,1121,0,0
469,-97,0,0,0,0,0,0,0,0,0,-1,1693,1121,0,0
476,-97,0,0,0,0,0,0,0,0,0,-1,1700,1121,0,0
483,-97,0,0,0,0,0,0,0,0,0,-1,1707,1121,0,0
490,-97,0,0,0,0,0,0,0,0,0,-1,1714,1121,0,0
497,-97,0,0,0,0,0,0,0,0,0,-1,1721,1121,0,0
504,-97,0,0,0,0,0,0,0,0,0,-1,1728,1121,0,0
511,-97,0,0,0,0,0,0,0,0,0,-1,1735,1121,0,0
518,-97,0,0,0,0,0,0,0,0,0,-1,1742,1121,0,0
525,-97,0,0,0,0,0,0,0,0,0,-1,1749,1121,0,0
532,-97,0,0,0,0,0,0,0,0,0,-1,1756,1121,0,0
539,-97,0,0,0,0,0,0,0,0,0,-1,1763,1121,0,0
546,-97,0,0,0,0,0,0,0,0,0,-1,1770,1121,0,0
553,-97,0,0,0,0,0,0,0,0,0,-1,1777,1121,0,0
560,-97,0,0,0,0,0,0,0,0,0,-1,1784,1121,0,0
567,-97,0,0,0,0,0,0,0,0,0,-1,1791,1121,0,0
574,-97,0,0,0,0,0,0,0,0,0,-1,1798,1121,0,0
581,-97,0,0,0,0,0,0,0,0,0,-1,1805,1121,0,0
588,-97,0,0,0,0,0,0,0,0,0,-1,1812,1121,0,0
595,-97,0,0,0,0,0,0,0,0,0,-1,1819,1121,0,0
602,-97,0,0,0,0,0,0,0,0,0,-1,1826,1121,0,0
609,-97,0,0,0,0,0,0,0,0,0,-1,1833,1121,0,0
616,-97,0,0,0,0,0,0,0,0,0,-1,1840,1121,0,0
623,-97,0,0,0,0,0,0,0,0,0,-1,1847,1121,0,0
630,-97,0,0,0,0,0,0,0,0,0,-1,1854,1121,0,0
637,-97,0,0,0,0,0,0,0,0,0,-1,1861,1121,0,0
644,-97,54.7534,2.77698,0.0102774,-0.00134367,-0.00194629,0.0105947,-0.00166097,-0.161607,0.0076769,0.0378935,1868,1121,54.7534,-2.77701
651,-97,54.7845,2.84106,0.00716639,-0.00123776,-0.000837251,0.00724899,-0.00132036,-0.0983358,0.0053276,0.0366044,1875,1121,54.7846,-2.84104
658,-97,54.6942,2.82581,0.00510336,-0.00115084,-0.000385206,0.005127,-0.00117448,-0.0612829,0.00386937,0.0376372,1882,1121,54.6942,-2.82581
665,-97,54.686,2.95654,0.00354039,-0.00103686,-0.000106051,0.00354285,-0.00103932,-0.0231526,0.00277401,0.0396015,1889,1121,54.686,-2.95658
672,-97,54.7665,3.0802,0.00230858,-0.000892619,-1.12022e-05,0.00230862,-0.000892658,-0.00349932,0.00190757,0.0404739,1896,1121,54.7665,-3.0802
679,-97,54.7078,3.06311,0.00134232,-0.000783992,-9.27702e-05,0.00134636,-0.000788032,-0.0435194,0.00124627,0.0404314,1903,1121,54.7077,-3.06315
686,-97,54.6702,3.13147,0.000872828,-0.000812046,-0.000165774,0.000888984,-0.000828201,-0.0971482,0.000991624,0.036962,1910,1121,54.6701,-3.1315
693,-97,54.6587,3.01453,0.000678721,-0.000897713,-0.000116236,0.000687245,-0.000906237,-0.0732058,0.000922889,0.0333847,1917,1121,54.6587,-3.01448
700,-97,54.6586,2.78735,0.000450712,-0.000943455,-2.26486e-05,0.00045108,-0.000943823,-0.0162396,0.000821926,0.0261527,1924,1121,54.6585,-2.78732
707,-97,54.6691,2.80591,0.000210977,-0.000869274,0.000256756,0.000268897,-0.000927194,0.221873,0.000724589,0.0249374,1931,1121,54.669,-2.80595
714,-97,54.7045,2.79785,0,0,0,0,0,0,0,-1,1938,1121,54.7045,-2.79786
721,-97,51.076,7.84351,0,0,0,0,0,0,0,-1,1945,1121,51.076,-7.84356
728,-97,51.0037,7.60718,-0.000678802,-0.000132518,0.000830993,0.000469072,-0.00128039,0.944182,0.00104563,0.0287838,1952,1121,51.0037,-7.60722
735,-97,50.9406,7.1355,-0.000997634,0.000288955,0.00108608,0.000907962,-0.00161664,1.05277,0.0014766,0.0282358,1959,1121,50.9406,-7.1355
742,-97,50.7709,6.95569,0,0,0,0,0,0,0,-1,1966,1121,50.7709,-6.95571
749,-97,51.0254,6.33716,-0.00226064,0.00189464,0.0022202,0.0028577,-0.0032237,1.16152,0.00351322,0.0236076,1973,1121,51.0254,-6.33721
756,-97,51.0356,5.97241,-0.00317998,0.00322471,0.00218296,0.00389797,-0.00385324,1.27164,0.00447519,0.0168123,1980,1121,51.0357,-5.97243
763,-97,50.9493,5.65454,-0.00406848,0.00567481,0.00140349,0.00587295,-0.00426662,1.43055,0.00587852,0.012416,1987,1121,50.9494,-5.65448
770,-97,50.9021,5.32898,-0.00499964,0.00874312,0.000156932,0.00874491,-0.00500143,1.55938,0.00803395,0.0119382,1994,1121,50.9021,-5.32899
777,-97,50.8552,4.97986,-0.00574257,0.0124571,-0.0018075,0.0126349,-0.00592035,-1.47276,0.0109442,0.0172479,2001,1121,50.8552,-4.9799
784,-97,50.801,4.67908,-0.00628727,0.0168588,-0.0046589,0.0177613,-0.00718984,-1.37944,0.0148303,0.0374122,2008,1121,50.801,-4.67913
791,-97,50.9495,4.19775,-0.00640881,0.0222221,-0.00885701,0.0247405,-0.00892721,-1.29377,0.0201401,0.0433791,2015,1121,50.9496,-4.19774
798,-97,50.6152,4.41272,-0.00579167,0.0286878,-0.0147053,0.0341076,-0.0112115,-1.21768,0.0272554,0.0410615,2022,1121,50.6151,-4.4127
805,-97,50.0835,4.28516,0,0,0,0,0,0,0,-1,2029,1121,50.0835,-4.28514
812,-97,50.8418,2.4884,0,0,0,0,0,0,0,-1,2036,1121,50.8419,-2.48841
-700,-104,0,0,0,0,0,0,0,0,0,-1,524,1128,0,0
-693,-104,-35.8473,2.18945,0.022142,-0.050442,-0.0412518,0.0407938,-0.0690938,-0.424636,0.0641411,0.0490965,531,1128,-35.8473,-2.1895
-686,-104,-35.3547,1.74561,0.0161218,-0.0392418,-0.0362701,0.0340667,-0.0571868,-0.459446,0.0532459,0.0484492,538,1128,-35.3547,-1.74555
-679,-104,-35.2604,2.00256,0,0,0,0,0,0,0,-1,545,1128,-35.2604,-2.00251
-672,-104,-35.2556,1.65808,0,0,0,0,0,0,0,-1,552,1128,-35.2556,-1.65804
-665,-104,-36.3564,0.560669,0,0,0,0,0,0,0,-1,559,1128,-36.3564,-0.560686
-658,-104,-36.7402,1.46802,0,0,0,0,0,0,0,-1,566,1128,-36.7402,-1.46804
-651,-104,-36.6996,1.7262,-0.000100549,-0.00482963,-0.0121492,0.00991211,-0.0148423,-0.689287,0.0143861,0.0433105,573,1128,-36.6996,-1.72623
-644,-104,-36.6777,2.0094,-0.000943662,-0.00185465,-0.00875897,0.00737165,-0.01017,-0.75942,0.0101705,0.016479,580,1128,-36.6776,-2.00945
-637,-104,-36.6703,2.48901,-0.00156656,0.000840743,-0.00582859,0.00558867,-0.00631448,-0.887221,0.00687654,0.0120132,587,1128,-36.6703,-2.48904
-630,-104,-36.6938,2.86963,-0.00149573,0.00166928,-0.00352512,0.00395082,-0.00377727,-0.996377,0.00446219,0.0156888,594,1128,-36.6938,-2.86965
-623,-104,-36.7551,3.33875,-0.000250255,0.00136271,-0.00202079,0.00273201,-0.00161955,-0.97526,0.00253959,0.0170034,601,1128,-36.7551,-3.33878
-616,-104,-37.0276,3.88306,0.000969462,0.00017022,-0.00108619,0.00172721,-0.000587527,-0.609127,0.00138936,0.0252686,608,1128,-37.0276,-3.88309
-609,-104,-37.2014,4.19165,0.00173153,-0.000537718,-0.000259046,0.00176073,-0.000566914,-0.112231,0.00140155,0.0341901,615,1128,-37.2014,-4.19164
-602,-104,-36.9442,4.6571,0.00203547,-0.00100086,0.000515586,0.00212063,-0.00108602,0.163695,0.00188321,0.0292863,622,1128,-36.9442,-4.65706
-595,-104,-36.741,5.16174,0.00141948,-0.00129069,0.00116183,0.00184936,-0.00172057,0.354382,0.00206155,0.0197812,629,1128,-36.741,-5.16169
-588,-104,-36.6636,5.69287,0,0,0,0,0,0,0,-1,636,1128,-36.6636,-5.69288
-581,-104,-23.9373,2.85864,0,0,0,0,0,0,0,-1,643,1128,-23.9373,-2.85861
-574,-104,-40.7,0.944092,0,0,0,0,0,0,0,-1,650,1128,-40.7,-0.944098
-567,-104,-40.7333,0.914307,0.00195316,-0.00147145,0.00210159,0.00295169,-0.00246999,0.443558,0.00313432,0.0348996,657,1128,-40.7332,-0.914272
-560,-104,-40.7596,1.0083,0.00206893,-0.00129888,0.00239033,0.00330893,-0.00253888,0.47854,0.00338598,0.0405982,664,1128,-40.7596,-1.00828
-553,-104,-40.8658,1.30115,0.00144936,-0.00102416,0.00227074,0.0027983,-0.00237309,0.536034,0.00298906,0.0454753,671,1128,-40.8658,-1.3012
-546,-104,-40.7831,1.38184,0.000834655,-0.000463302,0.00150006,0.0018201,-0.00144875,0.581238,0.00189133,0.0447989,678,1128,-40.7831,-1.38182
-539,-104,-40.8525,1.41528,0.00183078,-9.68939e-05,-0.000380826,0.00190329,-0.000169402,-0.188144,0.00132893,0.0391002,685,1128,-40.8525,-1.41526
-532,-104,-40.8726,1.29858,0.0037179,4.87326e-05,-0.00269704,0.00514517,-0.00137854,-0.486734,0.00397022,0.0405786,692,1128,-40.8726,-1.29854
-525,-104,-40.8923,1.03149,0.00602697,1.67434e-05,-0.00515395,0.00898792,-0.00294421,-0.521459,0.00717754,0.0392426,699,1128,-40.8923,-1.03153
-518,-104,0,0,0,0,0,0,0,0,0,-1,706,1128,0,0
-511,-104,0,0,0,0,0,0,0,0,0,-1,713,1128,0,0
-504,-104,0,0,0,0,0,0,0,0,0,-1,720,1128,0,0
-497,-104,0,0,0,0,0,0,0,0,0,-1,727,1128,0,0
-490,-104,0,0,0,0,0,0,0,0,0,-1,734,1128,0,0
-483,-104,0,0,0,0,0,0,0,0,0,-1,741,1128,0,0
-476,-104,0,0,0,0,0,0,0,0,0,-1,748,1128,0,0
-469,-104,0,0,0,0,0,0,0,0,0,-1,755,1128,0,0
-462,-104,0,0,0,0,0,0,0,0,0,-1,762,1128,0,0
-455,-104,0,0,0,0,0,0,0,0,0,-1,769,1128,0,0
-448,-104,0,0,0,0,0,0,0,0,0,-1,776,1128,0,0
-441,-104,0,0,0,0,0,0,0,0,0,-1,783,1128,0,0
-434,-104,0,0,0,0,0,0,0,0,0,-1,790,1128,0,0
-427,-104,0,0,0,0,0,0,0,0,0,-1,797,1128,0,0
-420,-104,0,0,0,0,0,0,0,0,0,-1,804,1128,0,0
-413,-104,0,0,0,0,0,0,0,0,0,-1,811,1128,0,0
-406,-104,0,0,0,0,0,0,0,0,0,-1,818,1128,0,0
-399,-104,0,0,0,0,0,0,0,0,0,-1,825,1128,0,0
-392,-104,0,0,0,0,0,0,0,0,0,-1,832,1128,0,0
-385,-104,0,0,0,0,0,0,0,0,0,-1,839,1128,0,0
-378,-104,0,0,0,0,0,0,0,0,0,-1,846,1128,0,0
-371,-104,0,0,0,0,0,0,0,0,0,-1,853,1128,0,0
-364,-104,0,0,0,0,0,0,0,0,0,-1,860,1128,0,0
-357,-104,0,0,0,0,0,0,0,0,0,-1,867,1128,0,0
-350,-104,0,0,0,0,0,0,0,0,0,-1,874,1128,0,0
-343,-104,0,0,0,0,0,0,0,0,0,-1,881,1128,0,0
-336,-104,0,0,0,0,0,0,0,0,0,-1,888,1128,0,0
-329,-104,0,0,0,0,0,0,0,0,0,-1,895,1128,0,0
-322,-104,0,0,0,0,0,0,0,0,0,-1,902,1128,0,0
-315,-104,0,0,0,0,0,0,0,0,0,-1,909,1128,0,0
-308,-104,0,0,0,0,0,0,0,0,0,-1,916,1128,0,0
-301,-104,0,0,0,0,0,0,0,0,0,-1,923,1128,0,0
-294,-104,0,0,0,0,0,0,0,0,0,-1,930,1128,0,0
-287,-104,0,0,0,0,0,0,0,0,0,-1,937,1128,0,0
-280,-104,0,0,0,0,0,0,0,0,0,-1,944,1128,0,0
-273,-104,0,0,0,0,0,0,0,0,0,-1,951,1128,0,0
-266,-104,0,0,0,0,0,0,0,0,0,-1,958,1128,0,0
-259,-104,0,0,0,0,0,0,0,0,0,-1,965,1128,0,0
-252,-104,0,0,0,0,0,0,0,0,0,-1,972,1128,0,0
-245,-104,0,0,0,0,0,0,0,0,0,-1,979,1128,0,0
-238,-104,0,0,0,0,0,0,0,0,0,-1,986,1128,0,0
-231,-104,0,0,0,0,0,0,0,0,0,-1,993,1128,0,0
-224,-104,0,0,0,0,0,0,0,0,0,-1,1000,1128,0,0
-217,-104,0,0,0,0,0,0,0,0,0,-1,1007,1128,0,0
-210,-104,0,0,0,0,0,0,0,0,0,-1,1014,1128,0,0
-203,-104,0,0,0,0,0,0,0,0,0,-1,1021,1128,0,0
-196,-104,0,0,0,0,0,0,0,0,0,-1,1028,1128,0,0
-189,-104,0,0,0,0,0,0,0,0,0,-1,1035,1128,0,0
-182,-104,0,0,0,0,0,0,0,0,0,-1,1042,1128,0,0
-175,-104,0,0,0,0,0,0,0,0,0,-1,1049,1128,0,0
-168,-104,0,0,0,0,0,0,0,0,0,-1,1056,1128,0,0
-161,-104,0,0,0,0,0,0,0,0,0,-1,1063,1128,0,0
-154,-104,0,0,0,0,0,0,0,0,0,-1,1070,1128,0,0
-147,-104,0,0,0,0,0,0,0,0,0,-1,1077,1128,0,0
-140,-104,0,0,0,0,0,0,0,0,0,-1,1084,1128,0,0
-133,-104,0,0,0,0,0,0,0,0,0,-1,1091,1128,0,0
-126,-104,0,0,0,0,0,0,0,0,0,-1,1098,1128,0,0
-119,-104,0,0,0,0,0,0,0,0,0,-1,1105,1128,0,0
-112,-104,0,0,0,0,0,0,0,0,0,-1,1112,1128,0,0
-105,-104,0,0,0,0,0,0,0,0,0,-1,1119,1128,0,0
-98,-104,0,0,0,0,0,0,0,0,0,-1,1126,1128,0,0
-91,-104,0,0,0,0,0,0,0,0,0,-1,1133,1128,0,0
-84,-104,0,0,0,0,0,0,0,0,0,-1,1140,1128,0,0
-77,-104,0,0,0,0,0,0,0,0,0,-1,1147,1128,0,0
-70,-104,0,0,0,0,0,0,0,0,0,-1,1154,1128,0,0
-63,-104,0,0,0,0,0,0,0,0,0,-1,1161,1128,0,0
-56,-104,0,0,0,0,0,0,0,0,0,-1,1168,1128,0,0
-49,-104,0,0,0,0,0,0,0,0,0,-1,1175,1128,0,0
-42,-104,0,0,0,0,0,0,0,0,0,-1,1182,1128,0,0
-35,-104,0,0,0,0,0,0,0,0,0,-1,1189,1128,0,0
-28,-104,0,0,0,0,0,0,0,0,0,-1,1196,1128,0,0
-21,-104,0,0,0,0,0,0,0,0,0,-1,1203,1128,0,0
-14,-104,0,0,0,0,0,0,0,0,0,-1,1210,1128,0,0
-7,-104,0,0,0,0,0,0,0,0,0,-1,1217,1128,0,0
0,-104,0,0,0,0,0,0,0,0,0,-1,1224,1128,0,0
7,-104,0,0,0,0,0,0,0,0,0,-1,1231,1128,0,0
14,-104,0,0,0,0,0,0,0,0,0,-1,1238,1128,0,0
21,-104,0,0,0,0,0,0,0,0,0,-1,1245,1128,0,0
28,-104,0,0,0,0,0,0,0,0,0,-1,1252,1128,0,0
35,-104,0,0,0,0,0,0,0,0,0,-1,1259,1128,0,0
42,-104,0,0,0,0,0,0,0,0,0,-1,1266,1128,0,0
49,-104,0,0,0,0,0,0,0,0,0,-1,1273,1128,0,0
56,-104,0,0,0,0,0,0,0,0,0,-1,1280,1128,0,0
63,-104,0,0,0,0,0,0,0,0,0,-1,1287,1128,0,0
70,-104,0,0,0,0,0,0,0,0,0,-1,1294,1128,0,0
77,-104,0,0,0,0,0,0,0,0,0,-1,1301,1128,0,0
84,-104,0,0,0,0,0,0,0,0,0,-1,1308,1128,0,0
91,-104,0,0,0,0,0,0,0,0,0,-1,1315,1128,0,0
98,-104,0,0,0,0,0,0,0,0,0,-1,1322,1128,0,0
105,-104,0,0,0,0,0,0,0,0,0,-1,1329,1128,0,0
112,-104,0,0,0,0,0,0,0,0,0,-1,1336,1128,0,0
119,-104,0,0,0,0,0,0,0,0,0,-1,1343,1128,0,0
126,-104,0,0,0,0,0,0,0,0,0,-1,1350,1128,0,0
133,-104,0,0,0,0,0,0,0,0,0,-1,1357,1128,0,0
140,-104,0,0,0,0,0,0,0,0,0,-1,1364,1128,0,0
147,-104,0,0,0,0,0,0,0,0,0,-1,1371,1128,0,0
154,-104,0,0,0,0,0,0,0,0,0,-1,1378,1128,0,0
161,-104,0,0,0,0,0,0,0,0,0,-1,1385,1128,0,0
168,-104,0,0,0,0,0,0,0,0,0,-1,1392,1128,0,0
175,-104,0,0,0,0,0,0,0,0,0,-1,1399,1128,0,0
182,-104,0,0,0,0,0,0,0,0,0,-1,1406,1128,0,0
189,-104,0,0,0,0,0,0,0,0,0,-1,1413,1128,0,0
196,-104,0,0,0,0,0,0,0,0,0,-1,1420,1128,0,0
203,-104,0,0,0,0,0,0,0,0,0,-1,1427,1128,0,0
210,-104,0,0,0,0,0,0,0,0,0,-1,1434,1128,0,0
217,-104,0,0,0,0,0,0,0,0,0,-1,1441,1128,0,0
224,-104,0,0,0,0,0,0,0,0,0,-1,1448,1128,0,0
231,-104,0,0,0,0,0,0,0,0,0,-1,1455,1128,0,0
238,-104,0,0,0,0,0,0,0,0,0,-1,1462,1128,0,0
245,-104,0,0,0,0,0,0,0,0,0,-1,1469,1128,0,0
252,-104,0,0,0,0,0,0,0,0,0,-1,1476,1128,0,0
259,-104,0,0,0,0,0,0,0,0,0,-1,1483,1128,0,0
266,-104,0,0,0,0,0,0,0,0,0,-1,1490,1128,0,0
273,-104,0,0,0,0,0,0,0,0,0,-1,1497,1128,0,0
280,-104,0,0,0,0,0,0,0,0,0,-1,1504,1128,0,0
287,-104,0,0,0,0,0,0,0,0,0,-1,1511,1128,0,0
294,-104,0,0,0,0,0,0,0,0,0,-1,1518,1128,0,0
301,-104,0,0,0,0,0,0,0,0,0,-1,1525,1128,0,0
308,-104,0,0,0,0,0,0,0,0,0,-1,1532,1128,0,0
315,-104,0,0,0,0,0,0,0,0,0,-1,1539,1128,0,0
322,-104,0,0,0,0,0,0,0,0,0,-1,1546,1128,0,0
329,-104,0,0,0,0,0,0,0,0,0,-1,1553,1128,0,0
336,-104,0,0,0,0,0,0,0,0,0,-1,1560,1128,0,0
343,-104,0,0,0,0,0,0,0,0,0,-1,1567,1128,0,0
350,-104,0,0,0,0,0,0,0,0,0,-1,1574,1128,0,0
357,-104,0,0,0,0,0,0,0,0,0,-1,1581,1128,0,0
364,-104,0,0,0,0,0,0,0,0,0,-1,1588,1128,0,0
371,-104,0,0,0,0,0,0,0,0,0,-1,1595,1128,0,0
378,-104,0,0,0,0,0,0,0,0,0,-1,1602,1128,0,0
385,-104,0,0,0,0,0,0,0,0,0,-1,1609,1128,0,0
392,-104,0,0,0,0,0,0,0,0,0,-1,1616,1128,0,0
399,-104,0,0,0,0,0,0,0,0,0,-1,1623,1128,0,0
406,-104,0,0,0,0,0,0,0,0,0,-1,1630,1128,0,0
413,-104,0,0,0,0,0,0,0,0,0,-1,1637,1128,0,0
420,-104,0,0,0,0,0,0,0,0,0,-1,1644,1128,0,0
427,-104,0,0,0,0,0,0,0,0,0,-1,1651,1128,0,0
434,-104,0,0,0,0,0,0,0,0,0,-1,1658,1128,0,0
441,-104,0,0,0,0,0,0,0,0,0,-1,1665,1128,0,0
448,-104,0,0,0,0,0,0,0,0,0,-1,1672,1128,0,0
455,-104,0,0,0,0,0,0,0,0,0,-1,1679,1128,0,0
462,-104,0,0,0,0,0,0,0,0,0,-1,1686,1128,0,0
469,-104,0,0,0,0,0,0,0,0,0,-1,1693,1128,0,0
476,-104,0,0,0,0,0,0,0,0,0,-1,1700,1128,0,0
483,-104,0,0,0,0,0,0,0,0,0,-1,1707,1128,0,0
490,-104,0,0,0,0,0,0,0,0,0,-1,1714,1128,0,0
497,-104,0,0,0,0,0,0,0,0,0,-1,1721,1128,0,0
504,-104,0,0,0,0,0,0,0,0,0,-1,1728,1128,0,0
511,-104,0,0,0,0,0,0,0,0,0,-1,1735,1128,0,0
518,-104,0,0,0,0,0,0,0,0,0,-1,1742,1128,0,0
525,-104,0,0,0,0,0,0,0,0,0,-1,1749,1128,0,0
532,-104,0,0,0,0,0,0,0,0,0,-1,1756,1128,0,0
539,-104,0,0,0,0,0,0,0,0,0,-1,1763,1128,0,0
546,-104,0,0,0,0,0,0,0,0,0,-1,1770,1128,0,0
553,-104,0,0,0,0,0,0,0,0,0,-1,1777,1128,0,0
560,-104,0,0,0,0,0,0,0,0,0,-1,1784,1128,0,0
567,-104,0,0,0,0,0,0,0,0,0,-1,1791,1128,0,0
574,-104,0,0,0,0,0,0,0,0,0,-1,1798,1128,0,0
581,-104,0,0,0,0,0,0,0,0,0,-1,1805,1128,0,0
588,-104,0,0,0,0,0,0,0,0,0,-1,1812,1128,0,0
595,-104,0,0,0,0,0,0,0,0,0,-1,1819,1128,0,0
602,-104,0,0,0,0,0,0,0,0,0,-1,1826,1128,0,0
609,-104,0,0,0,0,0,0,0,0,0,-1,1833,1128,0,0
616,-104,0,0,0,0,0,0,0,0,0,-1,1840,1128,0,0
623,-104,0,0,0,0,0,0,0,0,0,-1,1847,1128,0,0
630,-104,0,0,0,0,0,0,0,0,0,-1,1854,1128,0,0
637,-104,0,0,0,0,0,0,0,0,0,-1,1861,1128,0,0
644,-104,54.6132,3.00073,0.0101182,-0.00168867,-0.000935434,0.0101919,-0.00176233,-0.0785746,0.00745181,0.0371126,1868,1128,54.6132,-3.0007
651,-104,54.8181,3.02905,0.00701344,-0.00127687,-0.000168272,0.00701685,-0.00128028,-0.0202863,0.0051579,0.0368524,1875,1128,54.8181,-3.02904
658,-104,54.8187,2.94897,0.00495664,-0.0010256,8.09523e-05,0.00495774,-0.0010267,0.0135288,0.00369524,0.0403797,1882,1128,54.8188,-2.94899
665,-104,54.714,2.72571,0.00337625,-0.000802322,0.000199541,0.00338576,-0.000811829,0.047609,0.00257087,0.0428617,1889,1128,54.714,-2.72572
672,-104,54.7324,2.87219,0.00213953,-0.000594169,0.000155495,0.00214834,-0.000602985,0.0566374,0.00166992,0.043094,1896,1128,54.7324,-2.87215
679,-104,54.6783,3.00708,0.00119723,-0.000504705,-1.15449e-05,0.0011973,-0.000504784,-0.00678299,0.00100945,0.042288,1903,1128,54.6784,-3.00712
686,-104,54.6193,3.14063,0.000769461,-0.000552095,-0.000145438,0.000785277,-0.000567911,-0.108323,0.000784616,0.038997,1910,1128,54.6192,-3.14064
693,-104,54.6255,2.96814,0.000602516,-0.000654495,-0.000124713,0.00061477,-0.000666749,-0.0979419,0.000740088,0.0337868,1917,1128,54.6255,-2.96811
700,-104,54.6733,2.78113,0.000361185,-0.000746247,-4.70883e-05,0.000363184,-0.000748245,-0.0424182,0.000654395,0.0259384,1924,1128,54.6733,-2.78118
707,-104,54.6825,2.8208,0,0,0,0,0,0,0,-1,1931,1128,54.6825,-2.82075
714,-104,45.5221,2.32166,0,0,0,0,0,0,0,-1,1938,1128,45.5221,-2.3216
721,-104,50.5834,8.00293,0,0,0,0,0,0,0,-1,1945,1128,50.5834,-8.0029
728,-104,50.707,7.52283,-0.000619921,-0.000128434,0.000766407,0.000430664,-0.00117902,0.940542,0.000962247,0.0269684,1952,1128,50.7071,-7.52286
735,-104,50.7576,7.09619,-0.000840002,0.000202911,0.00101155,0.000819499,-0.00145659,1.02338,0.00133115,0.0310034,1959,1128,50.7576,-7.09623
742,-104,50.6342,6.72632,-0.0012723,0.000715893,0.00161101,0.00161484,-0.00217124,1.06183,0.00219375,0.0209225,1966,1128,50.6342,-6.72635
749,-104,50.5592,6.36035,-0.00204055,0.00177223,0.00216465,0.00275029,-0.00301861,1.14642,0.00333188,0.0209982,1973,1128,50.5592,-6.3604
756,-104,50.5756,5.99304,-0.00291616,0.00327973,0.00207733,0.00391174,-0.00354816,1.27545,0.00430868,0.0175844,1980,1128,50.5756,-5.9931
763,-104,50.5385,5.6532,-0.00369464,0.00610469,0.00111301,0.00622951,-0.00381947,1.45911,0.00585714,0.0174706,1987,1128,50.5384,-5.65317
770,-104,50.4738,5.31921,-0.0045117,0.00962119,-0.00034756,0.00962973,-0.00452024,-1.54622,0.00834513,0.0155919,1994,1128,50.4738,-5.31919
777,-104,50.3848,4.92798,-0.00515772,0.0139396,-0.00259222,0.0142852,-0.00550333,-1.43825,0.011794,0.0234464,2001,1128,50.3848,-4.92796
784,-104,50.2742,4.49927,-0.00563799,0.0192223,-0.00584989,0.0205301,-0.00694574,-1.35086,0.0164968,0.0405905,2008,1128,50.2742,-4.49928
791,-104,50.3254,3.96289,-0.00571532,0.0258695,-0.0106343,0.0291162,-0.00896203,-1.27448,0.022988,0.045861,2015,1128,50.3254,-3.9629
798,-104,50.3215,3.26306,-0.00510925,0.0341364,-0.0172862,0.0406644,-0.0116373,-1.20971,0.0317087,0.0463921,2022,1128,50.3216,-3.26304
805,-104,50.2854,2.6261,-0.00354039,0.0445848,-0.026575,0.0563725,-0.015328,-1.15331,0.0435986,0.0468659,2029,1128,50.2853,-2.62604
812,-104,50.3525,1.94421,-0.000730746,0.0578103,-0.0391421,0.0774159,-0.0203363,-1.10644,0.0595581,0.0498168,2036,1128,50.3525,-1.94423
-700,-111,0,0,0,0,0,0,0,0,0,-1,524,1135,0,0
-693,-111,-35.085,1.64941,0,0,0,0,0,0,0,-1,531,1135,-35.085,-1.64939
-686,-111,-34.5976,1.30457,0,0,0,0,0,0,0,-1,538,1135,-34.5976,-1.30451
-679,-111,-42.3332,4.40393,0,0,0,0,0,0,0,-1,545,1135,-42.3332,-4.40392
-672,-111,-42.7211,5.01367,0,0,0,0,0,0,0,-1,552,1135,-42.7211,-5.01372
-665,-111,-36.9409,0.0944824,0,0,0,0,0,0,0,-1,559,1135,-36.9409,-0.0944408
-658,-111,-36.4259,2.27917,0,0,0,0,0,0,0,-1,566,1135,-36.4259,-2.2792
-651,-111,-36.2104,2.21899,0.00281537,-0.0045105,-0.0109162,0.0106668,-0.012362,-0.623527,0.0133077,0.0454775,573,1135,-36.2104,-2.21904
-644,-111,-36.1156,2.06543,0.0012263,-0.0016883,-0.00797654,0.00787756,-0.00833957,-0.695046,0.00936423,0.0285606,580,1135,-36.1156,-2.06544
-637,-111,-36.2112,2.48523,-4.55033e-05,0.000881312,-0.00537456,0.00581241,-0.0049766,-0.828403,0.00623526,0.0115787,587,1135,-36.2113,-2.48525
-630,-111,-36.2297,2.85999,-0.000634787,0.00170082,-0.00329666,0.00403041,-0.00296437,-0.955621,0.00405404,0.0217847,594,1135,-36.2297,-2.86
-623,-111,-36.2603,3.33704,2.11305e-05,0.0014495,-0.00190857,0.00277313,-0.0013025,-0.964433,0.00240358,0.0183747,601,1135,-36.2602,-3.33706
-616,-111,-36.5387,3.80188,0.000869026,0.000260932,-0.00103102,0.00163989,-0.000509936,-0.642012,0.0012971,0.0212741,608,1135,-36.5387,-3.80192
-609,-111,-36.7841,4.20081,0.00149579,-0.000481503,-0.00022176,0.00152036,-0.000506069,-0.110327,0.00121783,0.0328855,615,1135,-36.784,-4.20079
-602,-111,-36.6722,4.67078,0.0017413,-0.000863589,0.000504278,0.00183551,-0.000957804,0.184702,0.00163904,0.0389491,622,1135,-36.6722,-4.67074
-595,-111,-36.3741,5.18909,0.000964196,-0.00101806,0.00103935,0.00140924,-0.0014631,0.404571,0.00165844,0.0186549,629,1135,-36.3742,-5.18913
-588,-111,-36.0586,5.79785,0,0,0,0,0,0,0,-1,636,1135,-36.0586,-5.79791
-581,-111,-21.0555,3.14551,0,0,0,0,0,0,0,-1,643,1135,-21.0555,-3.14548
-574,-111,-40.7128,1.00879,0,0,0,0,0,0,0,-1,650,1135,-40.7127,-1.0088
-567,-111,-40.7144,1.11218,0.00178991,-0.000846375,0.00168052,0.00260757,-0.00166403,0.45283,0.00248618,0.0392271,657,1135,-40.7144,-1.11221
-560,-111,-40.7979,1.18408,0.00209668,-0.000637713,0.00197844,0.00313436,-0.0016754,0.483052,0.00281918,0.040642,664,1135,-40.7979,-1.1841
-553,-111,-40.7947,1.24316,0.00159617,-0.000310256,0.00187119,0.00274295,-0.00145704,0.549823,0.00246246,0.0443513,671,1135,-40.7947,-1.24316
-546,-111,-40.7931,1.36584,0.00109702,0.000393561,0.00115411,0.00195181,-0.000461229,0.637489,0.00147912,0.04086,678,1135,-40.7931,-1.36586
-539,-111,-40.926,1.47754,0.0021325,0.000979426,-0.000562057,0.00236114,0.000750791,-0.386341,0.00139299,0.0379438,685,1135,-40.926,-1.47754
-532,-111,-41.0615,1.40417,0.00417395,0.00126669,-0.00267379,0.0057637,-0.000323063,-0.536418,0.00395456,0.0393413,692,1135,-41.0615,-1.40421
-525,-111,-40.9809,1.23254,0.00663736,0.0012748,-0.00484914,0.00949714,-0.00158499,-0.532849,0.00692053,0.038076,699,1135,-40.9809,-1.23253
-518,-111,0,0,0,0,0,0,0,0,0,-1,706,1135,0,0
-511,-111,0,0,0,0,0,0,0,0,0,-1,713,1135,0,0
-504,-111,0,0,0,0,0,0,0,0,0,-1,720,1135,0,0
-497,-111,0,0,0,0,0,0,0,0,0,-1,727,1135,0,0
-490,-111,0,0,0,0,0,0,0,0,0,-1,734,1135,0,0
-483,-111,0,0,0,0,0,0,0,0,0,-1,741,1135,0,0
-476,-111,0,0,0,0,0,0,0,0,0,-1,748,1135,0,0
-469,-111,0,0,0,0,0,0,0,0,0,-1,755,1135,0,0
-462,-111,0,0,0,0,0,0,0,0,0,-1,762,1135,0,0
-455,-111,0,0,0,0,0,0,0,0,0,-1,769,1135,0,0
-448,-111,0,0,0,0,0,0,0,0,0,-1,776,1135,0,0
-441,-111,0,0,0,0,0,0,0,0,0,-1,783,1135,0,0
-434,-111,0,0,0,0,0,0,0,0,0,-1,790,1135,0,0
-427,-111,0,0,0,0,0,0,0,0,0,-1,797,1135,0,0
-420,-111,0,0,0,0,0,0,0,0,0,-1,804,1135,0,0
-413,-111,0,0,0,0,0,0,0,0,0,-1,811,1135,0,0
-406,-111,0,0,0,0,0,0,0,0,0,-1,818,1135,0,0
-399,-111,0,0,0,0,0,0,0,0,0,-1,825,1135,0,0
-392,-111,0,0,0,0,0,0,0,0,0,-1,832,1135,0,0
-385,-111,0,0,0,0,0,0,0,0,0,-1,839,1135,0,0
-378,-111,0,0,0,0,0,0,0,0,0,-1,846,1135,0,0
-371,-111,0,0,0,0,0,0,0,0,0,-1,853,1135,0,0
-364,-111,0,0,0,0,0,0,0,0,0,-1,860,1135,0,0
-357,-111,0,0,0,0,0,0,0,0,0,-1,867,1135,0,0
-350,-111,0,0,0,0,0,0,0,0,0,-1,874,1135,0,0
-343,-111,0,0,0,0,0,0,0,0,0,-1,881,1135,0,0
-336,-111,0,0,0,0,0,0,0,0,0,-1,888,1135,0,0
-329,-111,0,0,0,0,0,0,0,0,0,-1,895,1135,0,0
-322,-111,0,0,0,0,0,0,0,0,0,-1,902,1135,0,0
-315,-111,0,0,0,0,0,0,0,0,0,-1,909,1135,0,0
-308,-111,0,0,0,0,0,0,0,0,0,-1,916,1135,0,0
-301,-111,0,0,0,0,0,0,0,0,0,-1,923,1135,0,0
-294,-111,0,0,0,0,0,0,0,0,0,-1,930,1135,0,0
-287,-111,0,0,0,0,0,0,0,0,0,-1,937,1135,0,0
-280,-111,0,0,0,0,0,0,0,0,0,-1,944,1135,0,0
-273,-111,0,0,0,0,0,0,0,0,0,-1,951,1135,0,0
-266,-111,0,0,0,0,0,0,0,0,0,-1,958,1135,0,0
-259,-111,0,0,0,0,0,0,0,0,0,-1,965,1135,0,0
-252,-111,0,0,0,0,0,0,0,0,0,-1,972,1135,0,0
-245,-111,0,0,0,0,0,0,0,0,0,-1,979,1135,0,0
-238,-111,0,0,0,0,0,0,0,0,0,-1,986,1135,0,0
-231,-111,0,0,0,0,0,0,0,0,0,-1,993,1135,0,0
-224,-111,0,0,0,0,0,0,0,0,0,-1,1000,1135,0,0
-217,-111,0,0,0,0,0,0,0,0,0,-1,1007,1135,0,0
-210,-111,0,0,0,0,0,0,0,0,0,-1,1014,1135,0,0
-203,-111,0,0,0,0,0,0,0,0,0,-1,1021,1135,0,0
-196,-111,0,0,0,0,0,0,0,0,0,-1,1028,1135,0,0
-189,-111,0,0,0,0,0,0,0,0,0,-1,1035,1135,0,0
-182,-111,0,0,0,0,0,0,0,0,0,-1,1042,1135,0,0
-175,-111,0,0,0,0,0,0,0,0,0,-1,1049,1135,0,0
-168,-111,0,0,0,0,0,0,0,0,0,-1,1056,1135,0,0
-161,-111,0,0,0,0,0,0,0,0,0,-1,1063,1135,0,0
-154,-111,0,0,0,0,0,0,0,0,0,-1,1070,1135,0,0
-147,-111,0,0,0,0,0,0,0,0,0,-1,1077,1135,0,0
-140,-111,0,0,0,0,0,0,0,0,0,-1,1084,1135,0,0
-133,-111,0,0,0,0,0,0,0,0,0,-1,1091,1135,0,0
-126,-111,0,0,0,0,0,0,0,0,0,-1,1098,1135,0,0
-119,-111,0,0,0,0,0,0,0,0,0,-1,1105,1135,0,0
-112,-111,0,0,0,0,0,0,0,0,0,-1,1112,1135,0,0
-105,-111,0,0,0,0,0,0,0,0,0,-1,1119,1135,0,0
-98,-111,0,0,0,0,0,0,0,0,0,-1,1126,1135,0,0
-91,-111,0,0,0,0,0,0,0,0,0,-1,1133,1135,0,0
-84,-111,0,0,0,0,0,0,0,0,0,-1,1140,1135,0,0
-77,-111,0,0,0,0,0,0,0,0,0,-1,1147,1135,0,0
-70,-111,0,0,0,0,0,0,0,0,0,-1,1154,1135,0,0
-63,-111,0,0,0,0,0,0,0,0,0,-1,1161,1135,0,0
-56,-111,0,0,0,0,0,0,0,0,0,-1,1168,1135,0,0
-49,-111,0,0,0,0,0,0,0,0,0,-1,1175,1135,0,0
-42,-111,0,0,0,0,0,0,0,0,0,-1,1182,1135,0,0
-35,-111,0,0,0,0,0,0,0,0,0,-1,1189,1135,0,0
-28,-111,0,0,0,0,0,0,0,0,0,-1,1196,1135,0,0
-21,-111,0,0,0,0,0,0,0,0,0,-1,1203,1135,0,0
-14,-111,0,0,0,0,0,0,0,0,0,-1,1210,1135,0,0
-7,-111,0,0,0,0,0,0,0,0,0,-1,1217,1135,0,0
0,-111,0,0,0,0,0,0,0,0,0,-1,1224,1135,0,0
7,-111,0,0,0,0,0,0,0,0,0,-1,1231,1135,0,0
14,-111,0,0,0,0,0,0,0,0,0,-1,1238,1135,0,0
21,-111,0,0,0,0,0,0,0,0,0,-1,1245,1135,0,0
28,-111,0,0,0,0,0,0,0,0,0,-1,1252,1135,0,0
35,-111,0,0,0,0,0,0,0,0,0,-1,1259,1135,0,0
42,-111,0,0,0,0,0,0,0,0,0,-1,1266,1135,0,0
49,-111,0,0,0,0,0,0,0,0,0,-1,1273,1135,0,0
56,-111,0,0,0,0,0,0,0,0,0,-1,1280,1135,0,0
63,-111,0,0,0,0,0,0,0,0,0,-1,1287,1135,0,0
70,-111,0,0,0,0,0,0,0,0,0,-1,1294,1135,0,0
77,-111,0,0,0,0,0,0,0,0,0,-1,1301,1135,0,0
84,-111,0,0,0,0,0,0,0,0,0,-1,1308,1135,0,0
91,-111,0,0,0,0,0,0,0,0,0,-1,1315,1135,0,0
98,-111,0,0,0,0,0,0,0,0,0,-1,1322,1135,0,0
105,-111,0,0,0,0,0,0,0,0,0,-1,1329,1135,0,0
112,-111,0,0,0,0,0,0,0,0,0,-1,1336,1135,0,0
119,-111,0,0,0,0,0,0,0,0,0,-1,1343,1135,0,0
126,-111,0,0,0,0,0,0,0,0,0,-1,1350,1135,0,0
133,-111,0,0,0,0,0,0,0,0,0,-1,1357,1135,0,0
140,-111,0,0,0,0,0,0,0,0,0,-1,1364,1135,0,0
147,-111,0,0,0,0,0,0,0,0,0,-1,1371,1135,0,0
154,-111,0,0,0,0,0,0,0,0,0,-1,1378,1135,0,0
161,-111,0,0,0,0,0,0,0,0,0,-1,1385,1135,0,0
168,-111,0,0,0,0,0,0,0,0,0,-1,1392,1135,0,0
175,-111,0,0,0,0,0,0,0,0,0,-1,1399,1135,0,0
182,-111,0,0,0,0,0,0,0,0,0,-1,1406,1135,0,0
189,-111,0,0,0,0,0,0,0,0,0,-1,1413,1135,0,0
196,-111,0,0,0,0,0,0,0,0,0,-1,1420,1135,0,0
203,-111,0,0,0,0,0,0,0,0,0,-1,1427,1135,0,0
210,-111,0,0,0,0,0,0,0,0,0,-1,1434,1135,0,0
217,-111,0,0,0,0,0,0,0,0,0,-1,1441,1135,0,0
224,-111,0,0,0,0,0,0,0,0,0,-1,1448,1135,0,0
231,-111,0,0,0,0,0,0,0,0,0,-1,1455,1135,0,0
238,-111,0,0,0,0,0,0,0,0,0,-1,1462,1135,0,0
245,-111,0,0,0,0,0,0,0,0,0,-1,1469,1135,0,0
252,-111,0,0,0,0,0,0,0,0,0,-1,1476,1135,0,0
259,-111,0,0,0,0,0,0,0,0,0,-1,1483,1135,0,0
266,-111,0,0,0,0,0,0,0,0,0,-1,1490,1135,0,0
273,-111,0,0,0,0,0,0,0,0,0,-1,1497,1135,0,0
280,-111,0,0,0,0,0,0,0,0,0,-1,1504,1135,0,0
287,-111,0,0,0,0,0,0,0,0,0,-1,1511,1135,0,0
294,-111,0,0,0,0,0,0,0,0,0,-1,1518,1135,0,0
301,-111,0,0,0,0,0,0,0,0,0,-1,1525,1135,0,0
308,-111,0,0,0,0,0,0,0,0,0,-1,1532,1135,0,0
315,-111,0,0,0,0,0,0,0,0,0,-1,1539,1135,0,0
322,-111,0,0,0,0,0,0,0,0,0,-1,1546,1135,0,0
329,-111,0,0,0,0,0,0,0,0,0,-1,1553,1135,0,0
336,-111,0,0,0,0,0,0,0,0,0,-1,1560,1135,0,0
343,-111,0,0,0,0,0,0,0,0,0,-1,1567,1135,0,0
350,-111,0,0,0,0,0,0,0,0,0,-1,1574,1135,0,0
357,-111,0,0,0,0,0,0,0,0,0,-1,1581,1135,0,0
364,-111,0,0,0,0,0,0,0,0,0,-1,1588,1135,0,0
371,-111,0,0,0,0,0,0,0,0,0,-1,1595,1135,0,0
378,-111,0,0,0,0,0,0,0,0,0,-1,1602,1135,0,0
385,-111,0,0,0,0,0,0,0,0,0,-1,1609,1135,0,0
392,-111,0,0,0,0,0,0,0,0,0,-1,1616,1135,0,0
399,-111,0,0,0,0,0,0,0,0,0,-1,1623,1135,0,0
406,-111,0,0,0,0,0,0,0,0,0,-1,1630,1135,0,0
413,-111,0,0,0,0,0,0,0,0,0,-1,1637,1135,0,0
420,-111,0,0,0,0,0,0,0,0,0,-1,1644,1135,0,0
427,-111,0,0,0,0,0,0,0,0,0,-1,1651,1135,0,0
434,-111,0,0,0,0,0,0,0,0,0,-1,1658,1135,0,0
441,-111,0,0,0,0,0,0,0,0,0,-1,1665,1135,0,0
448,-111,0,0,0,0,0,0,0,0,0,-1,1672,1135,0,0
455,-111,0,0,0,0,0,0,0,0,0,-1,1679,1135,0,0
462,-111,0,0,0,0,0,0,0,0,0,-1,1686,1135,0,0
469,-111,0,0,0,0,0,0,0,0,0,-1,1693,1135,0,0
476,-111,0,0,0,0,0,0,0,0,0,-1,1700,1135,0,0
483,-111,0,0,0,0,0,0,0,0,0,-1,1707,1135,0,0
490,-111,0,0,0,0,0,0,0,0,0,-1,1714,1135,0,0
497,-111,0,0,0,0,0,0,0,0,0,-1,1721,1135,0,0
504,-111,0,0,0,0,0,0,0,0,0,-1,1728,1135,0,0
511,-111,0,0,0,0,0,0,0,0,0,-1,1735,1135,0,0
518,-111,0,0,0,0,0,0,0,0,0,-1,1742,1135,0,0
525,-111,0,0,0,0,0,0,0,0,0,-1,1749,1135,0,0
532,-111,0,0,0,0,0,0,0,0,0,-1,1756,1135,0,0
539,-111,0,0,0,0,0,0,0,0,0,-1,1763,1135,0,0
546,-111,0,0,0,0,0,0,0,0,0,-1,1770,1135,0,0
553,-111,0,0,0,0,0,0,0,0,0,-1,1777,1135,0,0
560,-111,0,0,0,0,0,0,0,0,0,-1,1784,1135,0,0
567,-111,0,0,0,0,0,0,0,0,0,-1,1791,1135,0,0
574,-111,0,0,0,0,0,0,0,0,0,-1,1798,1135,0,0
581,-111,0,0,0,0,0,0,0,0,0,-1,1805,1135,0,0
588,-111,0,0,0,0,0,0,0,0,0,-1,1812,1135,0,0
595,-111,0,0,0,0,0,0,0,0,0,-1,1819,1135,0,0
602,-111,0,0,0,0,0,0,0,0,0,-1,1826,1135,0,0
609,-111,0,0,0,0,0,0,0,0,0,-1,1833,1135,0,0
616,-111,0,0,0,0,0,0,0,0,0,-1,1840,1135,0,0
623,-111,0,0,0,0,0,0,0,0,0,-1,1847,1135,0,0
630,-111,0,0,0,0,0,0,0,0,0,-1,1854,1135,0,0
637,-111,0,0,0,0,0,0,0,0,0,-1,1861,1135,0,0
644,-111,54.3885,3.26819,0.00989785,-0.00148722,-4.92966e-05,0.00989807,-0.00148744,-0.00432982,0.00714631,0.039008,1868,1135,54.3886,-3.26818
651,-111,54.7654,3.25,0.00682223,-0.00100614,0.000449559,0.00684796,-0.00103187,0.0571764,0.00494528,0.0385358,1875,1135,54.7654,-3.25006
658,-111,54.958,2.82251,0.00478126,-0.000764473,0.00053714,0.0048328,-0.000816019,0.0956716,0.0035255,0.0439445,1882,1135,54.958,-2.82252
665,-111,54.8806,2.50916,0.00320131,-0.000572723,0.000507387,0.00326833,-0.000639746,0.131335,0.00242048,0.0453583,1889,1135,54.8807,-2.50911
672,-111,54.7644,2.81775,0.00197302,-0.000420252,0.000332938,0.00201848,-0.000465705,0.135682,0.00152478,0.0455521,1896,1135,54.7645,-2.81772
679,-111,54.6545,3.06165,0.00105972,-0.00042314,9.60681e-05,0.00106592,-0.000429338,0.0644266,0.000888984,0.0421888,1903,1135,54.6545,-3.06167
686,-111,54.6414,3.06189,0.000642106,-0.000555726,-7.33619e-05,0.000646582,-0.000560203,-0.060942,0.000697332,0.0389558,1910,1135,54.6414,-3.06183
693,-111,54.627,2.98511,0.000461219,-0.000684375,-7.05829e-05,0.000465552,-0.000688707,-0.0613035,0.00067055,0.0359517,1917,1135,54.627,-2.98507
700,-111,54.7047,2.84766,0.000188777,-0.000830303,7.99132e-06,0.00018884,-0.000830365,0.00784106,0.000626089,0.0259203,1924,1135,54.7047,-2.84762
707,-111,54.6903,2.80383,0,0,0,0,0,0,0,-1,1931,1135,54.6903,-2.80389
714,-111,45.1654,7.39746,0,0,0,0,0,0,0,-1,1938,1135,45.1654,-7.39745
721,-111,50.1351,8.1145,0,0,0,0,0,0,0,-1,1945,1135,50.1351,-8.11446
728,-111,50.2378,7.56848,-0.000697276,-0.000369408,0.000764349,0.00024839,-0.00131507,0.891036,0.00097017,0.0224326,1952,1135,50.2378,-7.56852
735,-111,50.2742,7.17712,-0.000814015,-7.20251e-05,0.000989804,0.000614027,-0.00150007,0.964703,0.0012558,0.0248671,1959,1135,50.2741,-7.1771
742,-111,50.1908,6.80908,-0.00119104,0.000397521,0.00158569,0.00137674,-0.00217025,1.01758,0.00206487,0.016641,1966,1135,50.1908,-6.80913
749,-111,50.1412,6.42188,-0.001919,0.00152754,0.0021396,0.00255155,-0.00294301,1.12442,0.00317497,0.0177852,1973,1135,50.1412,-6.42186
756,-111,50.1212,6.01917,-0.00269043,0.00331517,0.00198487,0.00391189,-0.00328714,1.27876,0.00416158,0.0176487,1980,1135,50.1212,-6.01917
763,-111,50.1157,5.65454,-0.00324964,0.00648129,0.000857785,0.00655632,-0.00332467,1.48354,0.00580561,0.0168267,1987,1135,50.1157,-5.65452
770,-111,50.0725,5.28003,-0.00382755,0.0104206,-0.000784312,0.0104637,-0.00387059,-1.51597,0.00856273,0.0141043,1994,1135,50.0726,-5.28002
777,-111,49.9221,4.87415,-0.00424988,0.0152433,-0.00323614,0.0157665,-0.00477308,-1.41051,0.0124118,0.0259278,2001,1135,49.9222,-4.87417
784,-111,49.7959,4.34741,-0.00452483,0.021204,-0.00676262,0.0228732,-0.00619404,-1.3288,0.0176789,0.0407989,2008,1135,49.796,-4.34742
791,-111,49.8159,3.77747,-0.00442016,0.0287393,-0.0118797,0.032556,-0.00823688,-1.25993,0.0249078,0.0462818,2015,1135,49.8158,-3.77748
798,-111,49.9397,2.98071,-0.00368813,0.0381451,-0.0189357,0.0454431,-0.0109861,-1.20293,0.0345447,0.0475804,2022,1135,49.9396,-2.98067
805,-111,49.9678,2.28918,-0.0020511,0.0500125,-0.0286887,0.0627195,-0.0147581,-1.15384,0.0475028,0.045764,2029,1135,49.9678,-2.28913
812,-111,49.8723,1.41211,0.000776835,0.0649272,-0.0418046,0.085544,-0.0198399,-1.11263,0.0646652,0.0462643,2036,1135,49.8722,-1.41206
-700,-118,0,0,0,0,0,0,0,0,0,-1,524,1142,0,0
-693,-118,-33.8345,0.569336,0,0,0,0,0,0,0,-1,531,1142,-33.8345,-0.569337
-686,-118,-33.8129,-0.207886,0,0,0,0,0,0,0,-1,538,1142,-33.8129,0.20783
-679,-118,-40.1547,3.34961,0,0,0,0,0,0,0,-1,545,1142,-40.1547,-3.34958
-672,-118,-40.8999,3.49731,0,0,0,0,0,0,0,-1,552,1142,-40.8999,-3.49729
-665,-118,-34.5362,1.39819,0,0,0,0,0,0,0,-1,559,1142,-34.5362,-1.39818
-658,-118,-35.0091,1.59094,0,0,0,0,0,0,0,-1,566,1142,-35.0091,-1.5909
-651,-118,-35.2104,1.63721,0.00546047,-0.00362172,-0.00877377,0.0107987,-0.00895992,-0.546593,0.0114241,0.0453555,573,1142,-35.2105,-1.63724
-644,-118,-35.5209,2.03992,0.00325669,-0.00104007,-0.00645376,0.00791026,-0.00569365,-0.624723,0.0078889,0.0327233,580,1142,-35.5209,-2.03996
-637,-118,-35.7358,2.51038,0.00140101,0.00130166,-0.00437207,0.00572369,-0.00302101,-0.779717,0.0051285,0.0174068,587,1142,-35.7358,-2.51035
-630,-118,-35.7615,2.91321,0.00014439,0.00200753,-0.00273111,0.00396158,-0.00180965,-0.949759,0.00340836,0.0232769,594,1142,-35.7615,-2.91316
-623,-118,-35.7542,3.36987,0.000177242,0.00160379,-0.00168096,0.00271655,-0.000935519,-0.986047,0.00219051,0.0188837,601,1142,-35.7542,-3.36986
-616,-118,-35.895,3.80933,0.000653217,0.000302359,-0.000975982,0.00146941,-0.000513835,-0.696475,0.00118851,0.0240069,608,1142,-35.8949,-3.80935
-609,-118,-36.1302,4.08655,0.00117039,-0.000500229,-0.000218462,0.00119848,-0.000528324,-0.127903,0.00102169,0.0381873,615,1142,-36.1303,-4.08653
-602,-118,-36.0048,4.81104,0.00138411,-0.000865484,0.000410472,0.00145666,-0.00093804,0.174957,0.00139335,0.0382923,622,1142,-36.0048,-4.81104
-595,-118,-36.2188,5.51965,0,0,0,0,0,0,0,-1,629,1142,-36.2188,-5.5196
-588,-118,-34.6521,5.64136,0,0,0,0,0,0,0,-1,636,1142,-34.6521,-5.64138
-581,-118,-24.6116,3.89648,0,0,0,0,0,0,0,-1,643,1142,-24.6116,-3.89645
-574,-118,-40.6673,0.937012,0,0,0,0,0,0,0,-1,650,1142,-40.6673,-0.936953
-567,-118,-40.7525,1.25574,0.00162734,-0.000514188,0.00114659,0.0021254,-0.00101225,0.409792,0.00184913,0.0445133,657,1142,-40.7525,-1.25577
-560,-118,-40.793,1.36096,0.00208639,-0.000302903,0.00145136,0.00277154,-0.000988053,0.441058,0.00225054,0.0390115,664,1142,-40.793,-1.36092
-553,-118,-40.5969,1.23743,0.0017045,5.03337e-05,0.00137504,0.00248204,-0.000727205,0.514639,0.001943,0.0408249,671,1142,-40.5969,-1.23747
-546,-118,-40.6428,1.33313,0.00133456,0.000917162,0.000781693,0.00193493,0.000316788,0.654949,0.0011984,0.0402344,678,1142,-40.6428,-1.33308
-539,-118,-40.8824,1.29651,0.00232692,0.00185091,-0.000655083,0.00278589,0.00139193,-0.611152,0.00160844,0.0395989,685,1142,-40.8824,-1.29648
-532,-118,-40.9788,1.23303,0.00433867,0.00248714,-0.00239555,0.00598112,0.000844694,-0.601011,0.0037378,0.0392611,692,1142,-40.9788,-1.23305
-525,-118,-40.835,1.33191,0.00671791,0.00279513,-0.00410618,0.0093071,0.000205939,-0.562587,0.00613724,0.0395077,699,1142,-40.835,-1.33185
-518,-118,0,0,0,0,0,0,0,0,0,-1,706,1142,0,0
-511,-118,0,0,0,0,0,0,0,0,0,-1,713,1142,0,0
-504,-118,0,0,0,0,0,0,0,0,0,-1,720,1142,0,0
-497,-118,0,0,0,0,0,0,0,0,0,-1,727,1142,0,0
-490,-118,0,0,0,0,0,0,0,0,0,-1,734,1142,0,0
-483,-118,0,0,0,0,0,0,0,0,0,-1,741,1142,0,0
-476,-118,0,0,0,0,0,0,0,0,0,-1,748,1142,0,0
-469,-118,0,0,0,0,0,0,0,0,0,-1,755,1142,0,0
-462,-118,0,0,0,0,0,0,0,0,0,-1,762,1142,0,0
-455,-118,0,0,0,0,0,0,0,0,0,-1,769,1142,0,0
-448,-118,0,0,0,0,0,0,0,0,0,-1,776,1142,0,0
-441,-118,0,0,0,0,0,0,0,0,0,-1,783,1142,0,0
-434,-118,0,0,0,0,0,0,0,0,0,-1,790,1142,0,0
-427,-118,0,0,0,0,0,0,0,0,0,-1,797,1142,0,0
-420,-118,0,0,0,0,0,0,0,0,0,-1,804,1142,0,0
-413,-118,0,0,0,0,0,0,0,0,0,-1,811,1142,0,0
-406,-118,0,0,0,0,0,0,0,0,0,-1,818,1142,0,0
-399,-118,0,0,0,0,0,0,0,0,0,-1,825,1142,0,0
-392,-118,0,0,0,0,0,0,0,0,0,-1,832,1142,0,0
-385,-118,0,0,0,0,0,0,0,0,0,-1,839,1142,0,0
-378,-118,0,0,0,0,0,0,0,0,0,-1,846,1142,0,0
-371,-118,0,0,0,0,0,0,0,0,0,-1,853,1142,0,0
-364,-118,0,0,0,0,0,0,0,0,0,-1,860,1142,0,0
-357,-118,0,0,0,0,0,0,0,0,0,-1,867,1142,0,0
-350,-118,0,0,0,0,0,0,0,0,0,-1,874,1142,0,0
-343,-118,0,0,0,0,0,0,0,0,0,-1,881,1142,0,0
-336,-118,0,0,0,0,0,0,0,0,0,-1,888,1142,0,0
-329,-118,0,0,0,0,0,0,0,0,0,-1,895,1142,0,0
-322,-118,0,0,0,0,0,0,0,0,0,-1,902,1142,0,0
-315,-118,0,0,0,0,0,0,0,0,0,-1,909,1142,0,0
-308,-118,0,0,0,0,0,0,0,0,0,-1,916,1142,0,0
-301,-118,0,0,0,0,0,0,0,0,0,-1,923,1142,0,0
-294,-118,0,0,0,0,0,0,0,0,0,-1,930,1142,0,0
-287,-118,0,0,0,0,0,0,0,0,0,-1,937,1142,0,0
-280,-118,0,0,0,0,0,0,0,0,0,-1,944,1142,0,0
-273,-118,0,0,0,0,0,0,0,0,0,-1,951,1142,0,0
-266,-118,0,0,0,0,0,0,0,0,0,-1,958,1142,0,0
-259,-118,0,0,0,0,0,0,0,0,0,-1,965,1142,0,0
-252,-118,0,0,0,0,0,0,0,0,0,-1,972,1142,0,0
-245,-118,0,0,0,0,0,0,0,0,0,-1,979,1142,0,0
-238,-118,0,0,0,0,0,0,0,0,0,-1,986,1142,0,0
-231,-118,0,0,0,0,0,0,0,0,0,-1,993,1142,0,0
-224,-118,0,0,0,0,0,0,0,0,0,-1,1000,1142,0,0
-217,-118,0,0,0,0,0,0,0,0,0,-1,1007,1142,0,0
-210,-118,0,0,0,0,0,0,0,0,0,-1,1014,1142,0,0
-203,-118,0,0,0,0,0,0,0,0,0,-1,1021,1142,0,0
-196,-118,0,0,0,0,0,0,0,0,0,-1,1028,1142,0,0
-189,-118,0,0,0,0,0,0,0,0,0,-1,1035,1142,0,0
-182,-118,0,0,0,0,0,0,0,0,0,-1,1042,1142,0,0
-175,-118,0,0,0,0,0,0,0,0,0,-1,1049,1142,0,0
-168,-118,0,0,0,0,0,0,0,0,0,-1,1056,1142,0,0
-161,-118,0,0,0,0,0,0,0,0,0,-1,1063,1142,0,0
-154,-118,0,0,0,0,0,0,0,0,0,-1,1070,1142,0,0
-147,-118,0,0,0,0,0,0,0,0,0,-1,1077,1142,0,0
-140,-118,0,0,0,0,0,0,0,0,0,-1,1084,1142,0,0
-133,-118,0,0,0,0,0,0,0,0,0,-1,1091,1142,0,0
-126,-118,0,0,0,0,0,0,0,0,0,-1,1098,1142,0,0
-119,-118,0,0,0,0,0,0,0,0,0,-1,1105,1142,0,0
-112,-118,0,0,0,0,0,0,0,0,0,-1,1112,1142,0,0
-105,-118,0,0,0,0,0,0,0,0,0,-1,1119,1142,0,0
-98,-118,0,0,0,0,0,0,0,0,0,-1,1126,1142,0,0
-91,-118,0,0,0,0,0,0,0,0,0,-1,1133,1142,0,0
-84,-118,0,0,0,0,0,0,0,0,0,-1,1140,1142,0,0
-77,-118,0,0,0,0,0,0,0,0,0,-1,1147,1142,0,0
-70,-118,0,0,0,0,0,0,0,0,0,-1,1154,1142,0,0
-63,-118,0,0,0,0,0,0,0,0,0,-1,1161,1142,0,0
-56,-118,0,0,0,0,0,0,0,0,0,-1,1168,1142,0,0
-49,-118,0,0,0,0,0,0,0,0,0,-1,1175,1142,0,0
-42,-118,0,0,0,0,0,0,0,0,0,-1,1182,1142,0,0
-35,-118,0,0,0,0,0,0,0,0,0,-1,1189,1142,0,0
-28,-118,0,0,0,0,0,0,0,0,0,-1,1196,1142,0,0
-21,-118,0,0,0,0,0,0,0,0,0,-1,1203,1142,0,0
-14,-118,0,0,0,0,0,0,0,0,0,-1,1210,1142,0,0
-7,-118,0,0,0,0,0,0,0,0,0,-1,1217,1142,0,0
0,-118,0,0,0,0,0,0,0,0,0,-1,1224,1142,0,0
7,-118,0,0,0,0,0,0,0,0,0,-1,1231,1142,0,0
14,-118,0,0,0,0,0,0,0,0,0,-1,1238,1142,0,0
21,-118,0,0,0,0,0,0,0,0,0,-1,1245,1142,0,0
28,-118,0,0,0,0,0,0,0,0,0,-1,1252,1142,0,0
35,-118,0,0,0,0,0,0,0,0,0,-1,1259,1142,0,0
42,-118,0,0,0,0,0,0,0,0,0,-1,1266,1142,0,0
49,-118,0,0,0,0,0,0,0,0,0,-1,1273,1142,0,0
56,-118,0,0,0,0,0,0,0,0,0,-1,1280,1142,0,0
63,-118,0,0,0,0,0,0,0,0,0,-1,1287,1142,0,0
70,-118,0,0,0,0,0,0,0,0,0,-1,1294,1142,0,0
77,-118,0,0,0,0,0,0,0,0,0,-1,1301,1142,0,0
84,-118,0,0,0,0,0,0,0,0,0,-1,1308,1142,0,0
91,-118,0,0,0,0,0,0,0,0,0,-1,1315,1142,0,0
98,-118,0,0,0,0,0,0,0,0,0,-1,1322,1142,0,0
105,-118,0,0,0,0,0,0,0,0,0,-1,1329,1142,0,0
112,-118,0,0,0,0,0,0,0,0,0,-1,1336,1142,0,0
119,-118,0,0,0,0,0,0,0,0,0,-1,1343,1142,0,0
126,-118,0,0,0,0,0,0,0,0,0,-1,1350,1142,0,0
133,-118,0,0,0,0,0,0,0,0,0,-1,1357,1142,0,0
140,-118,0,0,0,0,0,0,0,0,0,-1,1364,1142,0,0
147,-118,0,0,0,0,0,0,0,0,0,-1,1371,1142,0,0
154,-118,0,0,0,0,0,0,0,0,0,-1,1378,1142,0,0
161,-118,0,0,0,0,0,0,0,0,0,-1,1385,1142,0,0
168,-118,0,0,0,0,0,0,0,0,0,-1,1392,1142,0,0
175,-118,0,0,0,0,0,0,0,0,0,-1,1399,1142,0,0
182,-118,0,0,0,0,0,0,0,0,0,-1,1406,1142,0,0
189,-118,0,0,0,0,0,0,0,0,0,-1,1413,1142,0,0
196,-118,0,0,0,0,0,0,0,0,0,-1,1420,1142,0,0
203,-118,0,0,0,0,0,0,0,0,0,-1,1427,1142,0,0
210,-118,0,0,0,0,0,0,0,0,0,-1,1434,1142,0,0
217,-118,0,0,0,0,0,0,0,0,0,-1,1441,1142,0,0
224,-118,0,0,0,0,0,0,0,0,0,-1,1448,1142,0,0
231,-118,0,0,0,0,0,0,0,0,0,-1,1455,1142,0,0
238,-118,0,0,0,0,0,0,0,0,0,-1,1462,1142,0,0
245,-118,0,0,0,0,0,0,0,0,0,-1,1469,1142,0,0
252,-118,0,0,0,0,0,0,0,0,0,-1,1476,1142,0,0
259,-118,0,0,0,0,0,0,0,0,0,-1,1483,1142,0,0
266,-118,0,0,0,0,0,0,0,0,0,-1,1490,1142,0,0
273,-118,0,0,0,0,0,0,0,0,0,-1,1497,1142,0,0
280,-118,0,0,0,0,0,0,0,0,0,-1,1504,1142,0,0
287,-118,0,0,0,0,0,0,0,0,0,-1,1511,1142,0,0
294,-118,0,0,0,0,0,0,0,0,0,-1,1518,1142,0,0
301,-118,0,0,0,0,0,0,0,0,0,-1,1525,1142,0,0
308,-118,0,0,0,0,0,0,0,0,0,-1,1532,1142,0,0
315,-118,0,0,0,0,0,0,0,0,0,-1,1539,1142,0,0
322,-118,0,0,0,0,0,0,0,0,0,-1,1546,1142,0,0
329,-118,0,0,0,0,0,0,0,0,0,-1,1553,1142,0,0
336,-118,0,0,0,0,0,0,0,0,0,-1,1560,1142,0,0
343,-118,0,0,0,0,0,0,0,0,0,-1,1567,1142,0,0
350,-118,0,0,0,0,0,0,0,0,0,-1,1574,1142,0,0
357,-118,0,0,0,0,0,0,0,0,0,-1,1581,1142,0,0
364,-118,0,0,0,0,0,0,0,0,0,-1,1588,1142,0,0
371,-118,0,0,0,0,0,0,0,0,0,-1,1595,1142,0,0
378,-118,0,0,0,0,0,0,0,0,0,-1,1602,1142,0,0
385,-118,0,0,0,0,0,0,0,0,0,-1,1609,1142,0,0
392,-118,0,0,0,0,0,0,0,0,0,-1,1616,1142,0,0
399,-118,0,0,0,0,0,0,0,0,0,-1,1623,1142,0,0
406,-118,0,0,0,0,0,0,0,0,0,-1,1630,1142,0,0
413,-118,0,0,0,0,0,0,0,0,0,-1,1637,1142,0,0
420,-118,0,0,0,0,0,0,0,0,0,-1,1644,1142,0,0
427,-118,0,0,0,0,0,0,0,0,0,-1,1651,1142,0,0
434,-118,0,0,0,0,0,0,0,0,0,-1,1658,1142,0,0
441,-118,0,0,0,0,0,0,0,0,0,-1,1665,1142,0,0
448,-118,0,0,0,0,0,0,0,0,0,-1,1672,1142,0,0
455,-118,0,0,0,0,0,0,0,0,0,-1,1679,1142,0,0
462,-118,0,0,0,0,0,0,0,0,0,-1,1686,1142,0,0
469,-118,0,0,0,0,0,0,0,0,0,-1,1693,1142,0,0
476,-118,0,0,0,0,0,0,0,0,0,-1,1700,1142,0,0
483,-118,0,0,0,0,0,0,0,0,0,-1,1707,1142,0,0
490,-118,0,0,0,0,0,0,0,0,0,-1,1714,1142,0,0
497,-118,0,0,0,0,0,0,0,0,0,-1,1721,1142,0,0
504,-118,0,0,0,0,0,0,0,0,0,-1,1728,1142,0,0
511,-118,0,0,0,0,0,0,0,0,0,-1,1735,1142,0,0
518,-118,0,0,0,0,0,0,0,0,0,-1,1742,1142,0,0
525,-118,0,0,0,0,0,0,0,0,0,-1,1749,1142,0,0
532,-118,0,0,0,0,0,0,0,0,0,-1,1756,1142,0,0
539,-118,0,0,0,0,0,0,0,0,0,-1,1763,1142,0,0
546,-118,0,0,0,0,0,0,0,0,0,-1,1770,1142,0,0
553,-118,0,0,0,0,0,0,0,0,0,-1,1777,1142,0,0
560,-118,0,0,0,0,0,0,0,0,0,-1,1784,1142,0,0
567,-118,0,0,0,0,0,0,0,0,0,-1,1791,1142,0,0
574,-118,0,0,0,0,0,0,0,0,0,-1,1798,1142,0,0
581,-118,0,0,0,0,0,0,0,0,0,-1,1805,1142,0,0
588,-118,0,0,0,0,0,0,0,0,0,-1,1812,1142,0,0
595,-118,0,0,0,0,0,0,0,0,0,-1,1819,1142,0,0
602,-118,0,0,0,0,0,0,0,0,0,-1,1826,1142,0,0
609,-118,0,0,0,0,0,0,0,0,0,-1,1833,1142,0,0
616,-118,0,0,0,0,0,0,0,0,0,-1,1840,1142,0,0
623,-118,0,0,0,0,0,0,0,0,0,-1,1847,1142,0,0
630,-118,0,0,0,0,0,0,0,0,0,-1,1854,1142,0,0
637,-118,0,0,0,0,0,0,0,0,0,-1,1861,1142,0,0
644,-118,54.326,3.31311,0.00883633,-0.00112713,0.000842704,0.0089071,-0.00119791,0.0837862,0.00637499,0.0417296,1868,1142,54.326,-3.31309
651,-118,54.6528,2.99146,0.00604082,-0.000610416,0.00109022,0.00621497,-0.000784559,0.158393,0.00442806,0.0391531,1875,1142,54.6528,-2.99151
658,-118,54.9026,2.89612,0.00418467,-0.000373339,0.00100887,0.00439799,-0.00058666,0.208376,0.00314584,0.0429397,1882,1142,54.9025,-2.89614
665,-118,54.8936,2.57629,0.0027467,-0.000206629,0.000815653,0.00295699,-0.000416923,0.252328,0.00212399,0.0444902,1889,1142,54.8935,-2.57626
672,-118,54.7511,2.64734,0.00163498,-9.59306e-05,0.000505494,0.00177179,-0.000232742,0.264316,0.00126592,0.0479633,1896,1142,54.751,-2.64733
679,-118,54.6215,3.09778,0.000813999,-0.000172981,0.000207547,0.000855867,-0.000214849,0.199056,0.000654064,0.0423608,1903,1142,54.6215,-3.09772
686,-118,54.6311,3.02637,0.000450137,-0.000372118,6.32737e-06,0.000450185,-0.000372167,0.00769454,0.000475497,0.0367796,1910,1142,54.6311,-3.02637
693,-118,54.5957,2.93628,0.000287104,-0.0005232,-1.33489e-05,0.000287324,-0.00052342,-0.016468,0.000474653,0.0348572,1917,1142,54.5957,-2.93623
700,-118,54.6975,2.8783,3.81121e-05,-0.000723294,6.49877e-05,4.36191e-05,-0.000728801,0.0845374,0.00050104,0.0215206,1924,1142,54.6976,-2.87829
707,-118,54.7697,2.94824,0,0,0,0,0,0,0,-1,1931,1142,54.7696,-2.94823
714,-118,49.0527,8.45215,0,0,0,0,0,0,0,-1,1938,1142,49.0528,-8.45221
721,-118,49.7831,8.15308,0,0,0,0,0,0,0,-1,1945,1142,49.7831,-8.15307
728,-118,49.7844,7.67651,-0.000813076,-0.000437936,0.00072994,0.000128149,-0.00137916,0.91116,0.000964997,0.0197217,1952,1142,49.7844,-7.67652
735,-118,49.7551,7.26233,-0.000851967,-0.00020843,0.000958237,0.00048062,-0.00154102,0.947379,0.00121954,0.0201814,1959,1142,49.7552,-7.26236
742,-118,49.7598,6.84302,-0.00118994,0.000184848,0.00155372,0.00119644,-0.00220154,0.993664,0.00199023,0.0283611,1966,1142,49.7598,-6.84305
749,-118,49.7136,6.45032,-0.00188928,0.00131661,0.00210451,0.00235912,-0.00293178,1.11086,0.00306066,0.023131,1973,1142,49.7136,-6.45028
756,-118,49.6931,6.04736,-0.00258549,0.00333508,0.00191331,0.00389958,-0.00314998,1.2839,0.00407773,0.0190711,1980,1142,49.6931,-6.04733
763,-118,49.7019,5.62805,-0.00298344,0.00676937,0.000684603,0.00681719,-0.00303126,1.50106,0.00582437,0.0114632,1987,1142,49.7019,-5.62803
770,-118,49.6349,5.26624,-0.00339736,0.0110037,-0.00106313,0.0110818,-0.00347542,-1.4975,0.00877871,0.0144906,1994,1142,49.6349,-5.26621
777,-118,49.5056,4.91467,-0.00367826,0.0161775,-0.00363248,0.0168212,-0.00432193,-1.39542,0.0128984,0.0288509,2001,1142,49.5056,-4.91465
784,-118,49.4429,4.38989,-0.00383225,0.0226422,-0.00733296,0.0245376,-0.00572766,-1.31786,0.0185645,0.0441206,2008,1142,49.4429,-4.38984
791,-118,49.5833,4.1167,-0.00362765,0.0308485,-0.0126675,0.0350024,-0.00778154,-1.25393,0.0263151,0.0484504,2015,1142,49.5833,-4.11674
798,-118,49.7109,2.80798,0,0,0,0,0,0,0,-1,2022,1142,49.7109,-2.808
805,-118,50.0227,1.84924,-0.00124739,0.0540789,-0.0300712,0.0672756,-0.0144441,-1.15726,0.0503604,0.0489822,2029,1142,50.0227,-1.84927
812,-118,50.1841,0.688721,0.00146528,0.0703253,-0.0435681,0.0914255,-0.0196349,-1.11978,0.0684407,0.0491999,2036,1142,50.1842,-0.688735
-700,-125,0,0,0,0,0,0,0,0,0,-1,524,1149,0,0
-693,-125,-32.89,-0.343506,0,0,0,0,0,0,0,-1,531,1149,-32.89,0.343507
-686,-125,-37.8103,1.92932,0,0,0,0,0,0,0,-1,538,1149,-37.8103,-1.9293
-679,-125,-38.3563,2.32373,0,0,0,0,0,0,0,-1,545,1149,-38.3563,-2.32371
-672,-125,-38.9479,2.6405,0,0,0,0,0,0,0,-1,552,1149,-38.948,-2.64056
-665,-125,-39.5209,2.91394,0,0,0,0,0,0,0,-1,559,1149,-39.5209,-2.91393
-658,-125,-35.8434,0.68457,0,0,0,0,0,0,0,-1,566,1149,-35.8434,-0.684611
-651,-125,-35.4441,1.38367,0.00714702,-0.00269473,-0.00641752,0.0103131,-0.00586085,-0.458318,0.00945526,0.041432,573,1149,-35.4441,-1.38365
-644,-125,-35.0724,2.0636,0.00467323,-0.000426355,-0.00470402,0.00747407,-0.00322719,-0.53704,0.00633848,0.030185,580,1149,-35.0724,-2.06357
-637,-125,-35.2413,2.48767,0.00247855,0.0016435,-0.00317944,0.00526776,-0.00114571,-0.720112,0.00394953,0.0149549,587,1149,-35.2413,-2.48762
-630,-125,-35.2532,2.92969,0.000770562,0.0022248,-0.00199522,0.00362126,-0.000625902,-0.960134,0.00264759,0.0152708,594,1149,-35.2532,-2.92968
-623,-125,-35.2539,3.41406,0.000276871,0.00166795,-0.00138818,0.00252509,-0.00058027,-1.01764,0.00190648,0.0133574,601,1149,-35.2539,-3.41411
-616,-125,-35.3091,3.83569,0.00035911,0.000336444,-0.000923028,0.00127087,-0.000575321,-0.779259,0.00109083,0.0249194,608,1149,-35.3091,-3.8357
-609,-125,-35.4511,4.17969,0.000746588,-0.000469334,-0.000253781,0.00079743,-0.000520176,-0.19772,0.000766313,0.0447601,615,1149,-35.4511,-4.17967
-602,-125,-35.4283,4.81836,0.000997211,-0.000917315,0.000177562,0.00101354,-0.000933643,0.0917024,0.00112452,0.0365527,622,1149,-35.4283,-4.81831
-595,-125,-35.6373,5.41479,0,0,0,0,0,0,0,-1,629,1149,-35.6373,-5.41476
-588,-125,-35.4022,5.79309,0,0,0,0,0,0,0,-1,636,1149,-35.4022,-5.7931
-581,-125,-26.4055,4.83203,0,0,0,0,0,0,0,-1,643,1149,-26.4055,-4.83204
-574,-125,-37.674,0.655151,0,0,0,0,0,0,0,-1,650,1149,-37.674,-0.655195
-567,-125,-40.6849,1.01086,0,0,0,0,0,0,0,-1,657,1149,-40.6849,-1.01082
-560,-125,-40.7101,0.924805,0.00212626,-0.000285308,0.000651488,0.002291,-0.000450053,0.247684,0.00169736,0.0401151,664,1149,-40.7101,-0.9248
-553,-125,-40.6436,1.08545,0.0018793,7.49353e-05,0.000615387,0.0020692,-0.00011496,0.299308,0.00141934,0.0401775,671,1149,-40.6435,-1.08545
-546,-125,-40.8024,1.21899,0.00171392,0.001136,0.000222376,0.00178958,0.00106034,0.327959,0.00103909,0.0398811,678,1149,-40.8025,-1.21895
-539,-125,-40.9095,1.07727,0.00274255,0.00251434,-0.000772072,0.0034089,0.00184799,-0.712036,0.00197046,0.0422309,685,1149,-40.9095,-1.07723
-532,-125,-40.7561,0.865845,0.00475147,0.00365727,-0.00190818,0.00618943,0.00221931,-0.645787,0.00362081,0.0388485,692,1149,-40.7561,-0.865853
-525,-125,-40.5524,1.04163,0.00705826,0.00447212,-0.00292788,0.00896589,0.00256448,-0.577458,0.00533212,0.0409597,699,1149,-40.5524,-1.04164
-518,-125,0,0,0,0,0,0,0,0,0,-1,706,1149,0,0
-511,-125,0,0,0,0,0,0,0,0,0,-1,713,1149,0,0
-504,-125,0,0,0,0,0,0,0,0,0,-1,720,1149,0,0
-497,-125,0,0,0,0,0,0,0,0,0,-1,727,1149,0,0
-490,-125,0,0,0,0,0,0,0,0,0,-1,734,1149,0,0
-483,-125,0,0,0,0,0,0,0,0,0,-1,741,1149,0,0
-476,-125,0,0,0,0,0,0,0,0,0,-1,748,1149,0,0
-469,-125,0,0,0,0,0,0,0,0,0,-1,755,1149,0,0
-462,-125,0,0,0,0,0,0,0,0,0,-1,762,1149,0,0
-455,-125,0,0,0,0,0,0,0,0,0,-1,769,1149,0,0
-448,-125,0,0,0,0,0,0,0,0,0,-1,776,1149,0,0
-441,-125,0,0,0,0,0,0,0,0,0,-1,783,1149,0,0
-434,-125,0,0,0,0,0,0,0,0,0,-1,790,1149,0,0
-427,-125,0,0,0,0,0,0,0,0,0,-1,797,1149,0,0
-420,-125,0,0,0,0,0,0,0,0,0,-1,804,1149,0,0
-413,-125,0,0,0,0,0,0,0,0,0,-1,811,1149,0,0
-406,-125,0,0,0,0,0,0,0,0,0,-1,818,1149,0,0
-399,-125,0,0,0,0,0,0,0,0,0,-1,825,1149,0,0
-392,-125,0,0,0,0,0,0,0,0,0,-1,832,1149,0,0
-385,-125,0,0,0,0,0,0,0,0,0,-1,839,1149,0,0
-378,-125,0,0,0,0,0,0,0,0,0,-1,846,1149,0,0
-371,-125,0,0,0,0,0,0,0,0,0,-1,853,1149,0,0
-364,-125,0,0,0,0,0,0,0,0,0,-1,860,1149,0,0
-357,-125,0,0,0,0,0,0,0,0,0,-1,867,1149,0,0
-350,-125,0,0,0,0,0,0,0,0,0,-1,874,1149,0,0
-343,-125,0,0,0,0,0,0,0,0,0,-1,881,1149,0,0
-336,-125,0,0,0,0,0,0,0,0,0,-1,888,1149,0,0
-329,-125,0,0,0,0,0,0,0,0,0,-1,895,1149,0,0
-322,-125,0,0,0,0,0,0,0,0,0,-1,902,1149,0,0
-315,-125,0,0,0,0,0,0,0,0,0,-1,909,1149,0,0
-308,-125,0,0,0,0,0,0,0,0,0,-1,916,1149,0,0
-301,-125,0,0,0,0,0,0,0,0,0,-1,923,1149,0,0
-294,-125,0,0,0,0,0,0,0,0,0,-1,930,1149,0,0
-287,-125,0,0,0,0,0,0,0,0,0,-1,937,1149,0,0
-280,-125,0,0,0,0,0,0,0,0,0,-1,944,1149,0,0
-273,-125,0,0,0,0,0,0,0,0,0,-1,951,1149,0,0
-266,-125,0,0,0,0,0,0,0,0,0,-1,958,1149,0,0
-259,-125,0,0,0,0,0,0,0,0,0,-1,965,1149,0,0
-252,-125,0,0,0,0,0,0,0,0,0,-1,972,1149,0,0
-245,-125,0,0,0,0,0,0,0,0,0,-1,979,1149,0,0
-238,-125,0,0,0,0,0,0,0,0,0,-1,986,1149,0,0
-231,-125,0,0,0,0,0,0,0,0,0,-1,993,1149,0,0
-224,-125,0,0,0,0,0,0,0,0,0,-1,1000,1149,0,0
-217,-125,0,0,0,0,0,0,0,0,0,-1,1007,1149,0,0
-210,-125,0,0,0,0,0,0,0,0,0,-1,1014,1149,0,0
-203,-125,0,0,0,0,0,0,0,0,0,-1,1021,1149,0,0
-196,-125,0,0,0,0,0,0,0,0,0,-1,1028,1149,0,0
-189,-125,0,0,0,0,0,0,0,0,0,-1,1035,1149,0,0
-182,-125,0,0,0,0,0,0,0,0,0,-1,1042,1149,0,0
-175,-125,0,0,0,0,0,0,0,0,0,-1,1049,1149,0,0
-168,-125,0,0,0,0,0,0,0,0,0,-1,1056,1149,0,0
-161,-125,0,0,0,0,0,0,0,0,0,-1,1063,1149,0,0
-154,-125,0,0,0,0,0,0,0,0,0,-1,1070,1149,0,0
-147,-125,0,0,0,0,0,0,0,0,0,-1,1077,1149,0,0
-140,-125,0,0,0,0,0,0,0,0,0,-1,1084,1149,0,0
-133,-125,0,0,0,0,0,0,0,0,0,-1,1091,1149,0,0
-126,-125,0,0,0,0,0,0,0,0,0,-1,1098,1149,0,0
-119,-125,0,0,0,0,0,0,0,0,0,-1,1105,1149,0,0
-112,-125,0,0,0,0,0,0,0,0,0,-1,1112,1149,0,0
-105,-125,0,0,0,0,0,0,0,0,0,-1,1119,1149,0,0
-98,-125,0,0,0,0,0,0,0,0,0,-1,1126,1149,0,0
-91,-125,0,0,0,0,0,0,0,0,0,-1,1133,1149,0,0
-84,-125,0,0,0,0,0,0,0,0,0,-1,1140,1149,0,0
-77,-125,0,0,0,0,0,0,0,0,0,-1,1147,1149,0,0
-70,-125,0,0,0,0,0,0,0,0,0,-1,1154,1149,0,0
-63,-125,0,0,0,0,0,0,0,0,0,-1,1161,1149,0,0
-56,-125,0,0,0,0,0,0,0,0,0,-1,1168,1149,0,0
-49,-125,0,0,0,0,0,0,0,0,0,-1,1175,1149,0,0
-42,-125,0,0,0,0,0,0,0,0,0,-1,1182,1149,0,0
-35,-125,0,0,0,0,0,0,0,0,0,-1,1189,1149,0,0
-28,-125,0,0,0,0,0,0,0,0,0,-1,1196,1149,0,0
-21,-125,0,0,0,0,0,0,0,0,0,-1,1203,1149,0,0
-14,-125,0,0,0,0,0,0,0,0,0,-1,1210,1149,0,0
-7,-125,0,0,0,0,0,0,0,0,0,-1,1217,1149,0,0
0,-125,0,0,0,0,0,0,0,0,0,-1,1224,1149,0,0
7,-125,0,0,0,0,0,0,0,0,0,-1,1231,1149,0,0
14,-125,0,0,0,0,0,0,0,0,0,-1,1238,1149,0,0
21,-125,0,0,0,0,0,0,0,0,0,-1,1245,1149,0,0
28,-125,0,0,0,0,0,0,0,0,0,-1,1252,1149,0,0
35,-125,0,0,0,0,0,0,0,0,0,-1,1259,1149,0,0
42,-125,0,0,0,0,0,0,0,0,0,-1,1266,1149,0,0
49,-125,0,0,0,0,0,0,0,0,0,-1,1273,1149,0,0
56,-125,0,0,0,0,0,0,0,0,0,-1,1280,1149,0,0
63,-125,0,0,0,0,0,0,0,0,0,-1,1287,1149,0,0
70,-125,0,0,0,0,0,0,0,0,0,-1,1294,1149,0,0
77,-125,0,0,0,0,0,0,0,0,0,-1,1301,1149,0,0
84,-125,0,0,0,0,0,0,0,0,0,-1,1308,1149,0,0
91,-125,0,0,0,0,0,0,0,0,0,-1,1315,1149,0,0
98,-125,0,0,0,0,0,0,0,0,0,-1,1322,1149,0,0
105,-125,0,0,0,0,0,0,0,0,0,-1,1329,1149,0,0
112,-125,0,0,0,0,0,0,0,0,0,-1,1336,1149,0,0
119,-125,0,0,0,0,0,0,0,0,0,-1,1343,1149,0,0
126,-125,0,0,0,0,0,0,0,0,0,-1,1350,1149,0,0
133,-125,0,0,0,0,0,0,0,0,0,-1,1357,1149,0,0
140,-125,0,0,0,0,0,0,0,0,0,-1,1364,1149,0,0
147,-125,0,0,0,0,0,0,0,0,0,-1,1371,1149,0,0
154,-125,0,0,0,0,0,0,0,0,0,-1,1378,1149,0,0
161,-125,0,0,0,0,0,0,0,0,0,-1,1385,1149,0,0
168,-125,0,0,0,0,0,0,0,0,0,-1,1392,1149,0,0
175,-125,0,0,0,0,0,0,0,0,0,-1,1399,1149,0,0
182,-125,0,0,0,0,0,0,0,0,0,-1,1406,1149,0,0
189,-125,0,0,0,0,0,0,0,0,0,-1,1413,1149,0,0
196,-125,0,0,0,0,0,0,0,0,0,-1,1420,1149,0,0
203,-125,0,0,0,0,0,0,0,0,0,-1,1427,1149,0,0
210,-125,0,0,0,0,0,0,0,0,0,-1,1434,1149,0,0
217,-125,0,0,0,0,0,0,0,0,0,-1,1441,1149,0,0
224,-125,0,0,0,0,0,0,0,0,0,-1,1448,1149,0,0
231,-125,0,0,0,0,0,0,0,0,0,-1,1455,1149,0,0
238,-125,0,0,0,0,0,0,0,0,0,-1,1462,1149,0,0
245,-125,0,0,0,0,0,0,0,0,0,-1,1469,1149,0,0
252,-125,0,0,0,0,0,0,0,0,0,-1,1476,1149,0,0
259,-125,0,0,0,0,0,0,0,0,0,-1,1483,1149,0,0
266,-125,0,0,0,0,0,0,0,0,0,-1,1490,1149,0,0
273,-125,0,0,0,0,0,0,0,0,0,-1,1497,1149,0,0
280,-125,0,0,0,0,0,0,0,0,0,-1,1504,1149,0,0
287,-125,0,0,0,0,0,0,0,0,0,-1,1511,1149,0,0
294,-125,0,0,0,0,0,0,0,0,0,-1,1518,1149,0,0
301,-125,0,0,0,0,0,0,0,0,0,-1,1525,1149,0,0
308,-125,0,0,0,0,0,0,0,0,0,-1,1532,1149,0,0
315,-125,0,0,0,0,0,0,0,0,0,-1,1539,1149,0,0
322,-125,0,0,0,0,0,0,0,0,0,-1,1546,1149,0,0
329,-125,0,0,0,0,0,0,0,0,0,-1,1553,1149,0,0
336,-125,0,0,0,0,0,0,0,0,0,-1,1560,1149,0,0
343,-125,0,0,0,0,0,0,0,0,0,-1,1567,1149,0,0
350,-125,0,0,0,0,0,0,0,0,0,-1,1574,1149,0,0
357,-125,0,0,0,0,0,0,0,0,0,-1,1581,1149,0,0
364,-125,0,0,0,0,0,0,0,0,0,-1,1588,1149,0,0
371,-125,0,0,0,0,0,0,0,0,0,-1,1595,1149,0,0
378,-125,0,0,0,0,0,0,0,0,0,-1,1602,1149,0,0
385,-125,0,0,0,0,0,0,0,0,0,-1,1609,1149,0,0
392,-125,0,0,0,0,0,0,0,0,0,-1,1616,1149,0,0
399,-125,0,0,0,0,0,0,0,0,0,-1,1623,1149,0,0
406,-125,0,0,0,0,0,0,0,0,0,-1,1630,1149,0,0
413,-125,0,0,0,0,0,0,0,0,0,-1,1637,1149,0,0
420,-125,0,0,0,0,0,0,0,0,0,-1,1644,1149,0,0
427,-125,0,0,0,0,0,0,0,0,0,-1,1651,1149,0,0
434,-125,0,0,0,0,0,0,0,0,0,-1,1658,1149,0,0
441,-125,0,0,0,0,0,0,0,0,0,-1,1665,1149,0,0
448,-125,0,0,0,0,0,0,0,0,0,-1,1672,1149,0,0
455,-125,0,0,0,0,0,0,0,0,0,-1,1679,1149,0,0
462,-125,0,0,0,0,0,0,0,0,0,-1,1686,1149,0,0
469,-125,0,0,0,0,0,0,0,0,0,-1,1693,1149,0,0
476,-125,0,0,0,0,0,0,0,0,0,-1,1700,1149,0,0
483,-125,0,0,0,0,0,0,0,0,0,-1,1707,1149,0,0
490,-125,0,0,0,0,0,0,0,0,0,-1,1714,1149,0,0
497,-125,0,0,0,0,0,0,0,0,0,-1,1721,1149,0,0
504,-125,0,0,0,0,0,0,0,0,0,-1,1728,1149,0,0
511,-125,0,0,0,0,0,0,0,0,0,-1,1735,1149,0,0
518,-125,0,0,0,0,0,0,0,0,0,-1,1742,1149,0,0
525,-125,0,0,0,0,0,0,0,0,0,-1,1749,1149,0,0
532,-125,0,0,0,0,0,0,0,0,0,-1,1756,1149,0,0
539,-125,0,0,0,0,0,0,0,0,0,-1,1763,1149,0,0
546,-125,0,0,0,0,0,0,0,0,0,-1,1770,1149,0,0
553,-125,0,0,0,0,0,0,0,0,0,-1,1777,1149,0,0
560,-125,0,0,0,0,0,0,0,0,0,-1,1784,1149,0,0
567,-125,0,0,0,0,0,0,0,0,0,-1,1791,1149,0,0
574,-125,0,0,0,0,0,0,0,0,0,-1,1798,1149,0,0
581,-125,0,0,0,0,0,0,0,0,0,-1,1805,1149,0,0
588,-125,0,0,0,0,0,0,0,0,0,-1,1812,1149,0,0
595,-125,0,0,0,0,0,0,0,0,0,-1,1819,1149,0,0
602,-125,0,0,0,0,0,0,0,0,0,-1,1826,1149,0,0
609,-125,0,0,0,0,0,0,0,0,0,-1,1833,1149,0,0
616,-125,0,0,0,0,0,0,0,0,0,-1,1840,1149,0,0
623,-125,0,0,0,0,0,0,0,0,0,-1,1847,1149,0,0
630,-125,0,0,0,0,0,0,0,0,0,-1,1854,1149,0,0
637,-125,0,0,0,0,0,0,0,0,0,-1,1861,1149,0,0
644,-125,54.7893,2.71704,0.00750672,-0.00124587,0.00140447,0.00772656,-0.00146571,0.155272,0.00570275,0.0418488,1868,1149,54.7893,-2.71709
651,-125,54.7659,2.9231,0.00509906,-0.000608876,0.00153286,0.00548465,-0.000994472,0.246441,0.00402905,0.0397067,1875,1149,54.7659,-2.92306
658,-125,54.7631,3.06982,0.00349259,-0.000246589,0.00136243,0.00393635,-0.000690348,0.314875,0.00288204,0.0412313,1882,1149,54.7631,-3.06982
665,-125,54.6676,2.95203,0.00225382,3.42248e-05,0.00105665,0.00267639,-0.000388346,0.380435,0.0019268,0.0447941,1889,1149,54.6675,-2.95202
672,-125,54.6925,2.71741,0.00129376,0.000244195,0.000651578,0.00160561,-6.76522e-05,0.446384,0.00109366,0.0454479,1896,1149,54.6926,-2.71742
679,-125,54.6222,2.86719,0.000574032,0.000196537,0.000318916,0.00075587,1.46998e-05,0.518199,0.000499085,0.0388971,1903,1149,54.6222,-2.86721
686,-125,54.6107,3.00598,0.000271113,-3.05386e-07,9.74562e-05,0.00030248,-3.16731e-05,0.311394,0.000212998,0.0357997,1910,1149,54.6107,-3.00597
693,-125,54.5873,2.94055,0.000135547,-0.000151063,7.68942e-05,0.000154874,-0.000170389,0.24624,0.000187862,0.0319603,1917,1149,54.5873,-2.94051
700,-125,54.7029,2.93726,-8.1621e-05,-0.000375546,0.000167388,-5.83583e-06,-0.000451332,0.425141,0.000298961,0.0169061,1924,1149,54.7029,-2.93728
707,-125,54.8462,3.07849,0,0,0,0,0,0,0,-1,1931,1149,54.8461,-3.07853
714,-125,49.4496,8.65015,0,0,0,0,0,0,0,-1,1938,1149,49.4496,-8.65013
721,-125,49.3538,8.18237,-0.000790023,-0.000373137,0.000661929,0.000112392,-0.00127555,0.937934,0.000890201,0.0361878,1945,1149,49.3537,-8.1824
728,-125,49.293,7.7605,-0.000831492,-0.00024843,0.000665364,0.000186469,-0.00126639,0.991877,0.000912788,0.0210095,1952,1149,49.293,-7.76054
735,-125,49.2782,7.3429,-0.000803688,-9.67376e-05,0.000886724,0.000504368,-0.00140479,0.975061,0.00114239,0.0211047,1959,1149,49.2782,-7.34289
742,-125,49.309,6.90234,-0.00110288,0.000221568,0.00146425,0.00116638,-0.00204769,0.997765,0.00187875,0.0282714,1966,1149,49.3089,-6.90239
749,-125,49.2509,6.53259,-0.00175365,0.00131917,0.00199267,0.00229896,-0.00273345,1.11381,0.00290907,0.0277716,1973,1149,49.2508,-6.5326
756,-125,49.2545,6.04285,-0.00236053,0.00355292,0.00176978,0.00404212,-0.00284972,1.30112,0.00399881,0.0233071,1980,1149,49.2545,-6.04279
763,-125,49.256,5.62952,-0.00263786,0.00724444,0.000488903,0.00726857,-0.00266199,1.52148,0.00593547,0.0132839,1987,1149,49.256,-5.62947
770,-125,49.2081,5.20972,-0.00296044,0.0117747,-0.00130537,0.0118894,-0.00307519,-1.48312,0.00912572,0.0157831,1994,1149,49.2081,-5.20973
777,-125,49.1213,4.92017,-0.00320369,0.0173158,-0.00391245,0.0180365,-0.00392437,-1.38864,0.0135236,0.0304373,2001,1149,49.1214,-4.92021
784,-125,49.0774,4.63416,-0.00338023,0.0242937,-0.00766751,0.0262761,-0.00536263,-1.31779,0.0195517,0.0457999,2008,1149,49.0773,-4.63414
791,-125,49.1265,4.35437,0,0,0,0,0,0,0,-1,2015,1149,49.1264,-4.35432
798,-125,46.6726,3.92151,0,0,0,0,0,0,0,-1,2022,1149,46.6727,-3.92148
805,-125,49.8738,1.22241,0,0,0,0,0,0,0,-1,2029,1149,49.8739,-1.22243
812,-125,50.1238,-0.0614014,0,0,0,0,0,0,0,-1,2036,1149,50.1238,0.0614023
-700,-132,0,0,0,0,0,0,0,0,0,-1,524,1156,0,0
-693,-132,-36.5409,-3.85193,0,0,0,0,0,0,0,-1,531,1156,-36.5409,3.85187
-686,-132,-36.7745,-2.97595,0,0,0,0,0,0,0,-1,538,1156,-36.7745,2.976
-679,-132,-36.3766,1.44922,0,0,0,0,0,0,0,-1,545,1156,-36.3766,-1.44921
-672,-132,-36.7778,1.79126,0,0,0,0,0,0,0,-1,552,1156,-36.7778,-1.79124
-665,-132,-37.5911,2.17004,0,0,0,0,0,0,0,-1,559,1156,-37.591,-2.17001
-658,-132,-35.2498,0.910278,0,0,0,0,0,0,0,-1,566,1156,-35.2498,-0.910228
-651,-132,-34.9697,1.48083,0.0087085,-0.00212366,-0.00401103,0.010032,-0.00344719,-0.318722,0.00808584,0.0437019,573,1156,-34.9697,-1.48086
-644,-132,-34.7228,2.0116,0.00606102,-0.000115592,-0.00278379,0.00713049,-0.00118507,-0.366793,0.00519394,0.0245679,580,1156,-34.7228,-2.01157
-637,-132,-34.7581,2.4751,0.00361117,0.00172613,-0.00177766,0.00468072,0.000656582,-0.54164,0.00292627,0.013292,587,1156,-34.7581,-2.47506
-630,-132,-34.7495,2.93604,0.00158466,0.0022203,-0.00108923,0.00303713,0.000767827,-0.927349,0.00182352,0.0112352,594,1156,-34.7495,-2.936
-623,-132,-34.7891,3.43774,0.000596585,0.00164232,-0.00110033,0.00233769,-9.87898e-05,-1.0072,0.00159241,0.016129,601,1156,-34.7891,-3.4377
-616,-132,-34.8299,3.81226,0.000296634,0.000482743,-0.000996604,0.00139063,-0.00061125,-0.831949,0.00118462,0.0319011,608,1156,-34.8299,-3.81221
-609,-132,-34.8194,4.46912,0,0,0,0,0,0,0,-1,615,1156,-34.8194,-4.46908
-602,-132,-34.8159,4.79382,0.000925369,-0.000891887,-0.00018761,0.000944535,-0.000911053,-0.101807,0.00107138,0.0328345,622,1156,-34.8159,-4.79384
-595,-132,-34.9629,5.26428,0.000129727,-0.000782113,-0.000177886,0.0001632,-0.000815587,-0.186001,0.000605501,0.0466854,629,1156,-34.9629,-5.26423
-588,-132,-34.9762,5.79187,0,0,0,0,0,0,0,-1,636,1156,-34.9762,-5.79189
-581,-132,-34.8734,6.35156,0,0,0,0,0,0,0,-1,643,1156,-34.8733,-6.35152
-574,-132,-33.2071,2.86963,0,0,0,0,0,0,0,-1,650,1156,-33.2071,-2.86963
-567,-132,-40.6054,0.809814,0,0,0,0,0,0,0,-1,657,1156,-40.6054,-0.809787
-560,-132,-40.669,0.845947,0.00221033,-0.00040771,-0.000140371,0.00221784,-0.000415214,-0.0534126,0.00163464,0.0371781,664,1156,-40.669,-0.84597
-553,-132,-40.707,0.95459,0.00203125,-0.000120574,-0.000165975,0.00204397,-0.000133301,-0.0765291,0.00140919,0.0390664,671,1156,-40.707,-0.954649
-546,-132,-40.8697,1.151,0.00205146,0.00103282,-0.000333582,0.00215098,0.000933305,-0.289927,0.00124548,0.0416165,678,1156,-40.8697,-1.15096
-539,-132,-40.936,1.25085,0.00307299,0.00271533,-0.000791405,0.00370552,0.0020828,-0.674282,0.00214487,0.0425349,685,1156,-40.9361,-1.25083
-532,-132,-40.5663,0.754517,0.00503573,0.0042548,-0.00123585,0.00594133,0.0033492,-0.632386,0.0034395,0.0393764,692,1156,-40.5663,-0.754566
-525,-132,-40.5707,0.950928,0.00733111,0.00555052,-0.00154008,0.00821971,0.00466191,-0.523324,0.0047599,0.0404355,699,1156,-40.5708,-0.950963
-518,-132,0,0,0,0,0,0,0,0,0,-1,706,1156,0,0
-511,-132,0,0,0,0,0,0,0,0,0,-1,713,1156,0,0
-504,-132,0,0,0,0,0,0,0,0,0,-1,720,1156,0,0
-497,-132,0,0,0,0,0,0,0,0,0,-1,727,1156,0,0
-490,-132,0,0,0,0,0,0,0,0,0,-1,734,1156,0,0
-483,-132,0,0,0,0,0,0,0,0,0,-1,741,1156,0,0
-476,-132,0,0,0,0,0,0,0,0,0,-1,748,1156,0,0
-469,-132,0,0,0,0,0,0,0,0,0,-1,755,1156,0,0
-462,-132,0,0,0,0,0,0,0,0,0,-1,762,1156,0,0
-455,-132,0,0,0,0,0,0,0,0,0,-1,769,1156,0,0
-448,-132,0,0,0,0,0,0,0,0,0,-1,776,1156,0,0
-441,-132,0,0,0,0,0,0,0,0,0,-1,783,1156,0,0
-434,-132,0,0,0,0,0,0,0,0,0,-1,790,1156,0,0
-427,-132,0,0,0,0,0,0,0,0,0,-1,797,1156,0,0
-420,-132,0,0,0,0,0,0,0,0,0,-1,804,1156,0,0
-413,-132,0,0,0,0,0,0,0,0,0,-1,811,1156,0,0
-406,-132,0,0,0,0,0,0,0,0,0,-1,818,1156,0,0
-399,-132,0,0,0,0,0,0,0,0,0,-1,825,1156,0,0
-392,-132,0,0,0,0,0,0,0,0,0,-1,832,1156,0,0
-385,-132,0,0,0,0,0,0,0,0,0,-1,839,1156,0,0
-378,-132,0,0,0,0,0,0,0,0,0,-1,846,1156,0,0
-371,-132,0,0,0,0,0,0,0,0,0,-1,853,1156,0,0
-364,-132,0,0,0,0,0,0,0,0,0,-1,860,1156,0,0
-357,-132,0,0,0,0,0,0,0,0,0,-1,867,1156,0,0
-350,-132,0,0,0,0,0,0,0,0,0,-1,874,1156,0,0
-343,-132,0,0,0,0,0,0,0,0,0,-1,881,1156,0,0
-336,-132,0,0,0,0,0,0,0,0,0,-1,888,1156,0,0
-329,-132,0,0,0,0,0,0,0,0,0,-1,895,1156,0,0
-322,-132,0,0,0,0,0,0,0,0,0,-1,902,1156,0,0
-315,-132,0,0,0,0,0,0,0,0,0,-1,909,1156,0,0
-308,-132,0,0,0,0,0,0,0,0,0,-1,916,1156,0,0
-301,-132,0,0,0,0,0,0,0,0,0,-1,923,1156,0,0
-294,-132,0,0,0,0,0,0,0,0,0,-1,930,1156,0,0
-287,-132,0,0,0,0,0,0,0,0,0,-1,937,1156,0,0
-280,-132,0,0,0,0,0,0,0,0,0,-1,944,1156,0,0
-273,-132,0,0,0,0,0,0,0,0,0,-1,951,1156,0,0
-266,-132,0,0,0,0,0,0,0,0,0,-1,958,1156,0,0
-259,-132,0,0,0,0,0,0,0,0,0,-1,965,1156,0,0
-252,-132,0,0,0,0,0,0,0,0,0,-1,972,1156,0,0
-245,-132,0,0,0,0,0,0,0,0,0,-1,979,1156,0,0
-238,-132,0,0,0,0,0,0,0,0,0,-1,986,1156,0,0
-231,-132,0,0,0,0,0,0,0,0,0,-1,993,1156,0,0
-224,-132,0,0,0,0,0,0,0,0,0,-1,1000,1156,0,0
-217,-132,0,0,0,0,0,0,0,0,0,-1,1007,1156,0,0
-210,-132,0,0,0,0,0,0,0,0,0,-1,1014,1156,0,0
-203,-132,0,0,0,0,0,0,0,0,0,-1,1021,1156,0,0
-196,-132,0,0,0,0,0,0,0,0,0,-1,1028,1156,0,0
-189,-132,0,0,0,0,0,0,0,0,0,-1,1035,1156,0,0
-182,-132,0,0,0,0,0,0,0,0,0,-1,1042,1156,0,0
-175,-132,0,0,0,0,0,0,0,0,0,-1,1049,1156,0,0
-168,-132,0,0,0,0,0,0,0,0,0,-1,1056,1156,0,0
-161,-132,0,0,0,0,0,0,0,0,0,-1,1063,1156,0,0
-154,-132,0,0,0,0,0,0,0,0,0,-1,1070,1156,0,0
-147,-132,0,0,0,0,0,0,0,0,0,-1,1077,1156,0,0
-140,-132,0,0,0,0,0,0,0,0,0,-1,1084,1156,0,0
-133,-132,0,0,0,0,0,0,0,0,0,-1,1091,1156,0,0
-126,-132,0,0,0,0,0,0,0,0,0,-1,1098,1156,0,0
-119,-132,0,0,0,0,0,0,0,0,0,-1,1105,1156,0,0
-112,-132,0,0,0,0,0,0,0,0,0,-1,1112,1156,0,0
-105,-132,0,0,0,0,0,0,0,0,0,-1,1119,1156,0,0
-98,-132,0,0,0,0,0,0,0,0,0,-1,1126,1156,0,0
-91,-132,0,0,0,0,0,0,0,0,0,-1,1133,1156,0,0
-84,-132,0,0,0,0,0,0,0,0,0,-1,1140,1156,0,0
-77,-132,0,0,0,0,0,0,0,0,0,-1,1147,1156,0,0
-70,-132,0,0,0,0,0,0,0,0,0,-1,1154,1156,0,0
-63,-132,0,0,0,0,0,0,0,0,0,-1,1161,1156,0,0
-56,-132,0,0,0,0,0,0,0,0,0,-1,1168,1156,0,0
-49,-132,0,0,0,0,0,0,0,0,0,-1,1175,1156,0,0
-42,-132,0,0,0,0,0,0,0,0,0,-1,1182,1156,0,0
-35,-132,0,0,0,0,0,0,0,0,0,-1,1189,1156,0,0
-28,-132,0,0,0,0,0,0,0,0,0,-1,1196,1156,0,0
-21,-132,0,0,0,0,0,0,0,0,0,-1,1203,1156,0,0
-14,-132,0,0,0,0,0,0,0,0,0,-1,1210,1156,0,0
-7,-132,0,0,0,0,0,0,0,0,0,-1,1217,1156,0,0
0,-132,0,0,0,0,0,0,0,0,0,-1,1224,1156,0,0
7,-132,0,0,0,0,0,0,0,0,0,-1,1231,1156,0,0
14,-132,0,0,0,0,0,0,0,0,0,-1,1238,1156,0,0
21,-132,0,0,0,0,0,0,0,0,0,-1,1245,1156,0,0
28,-132,0,0,0,0,0,0,0,0,0,-1,1252,1156,0,0
35,-132,0,0,0,0,0,0,0,0,0,-1,1259,1156,0,0
42,-132,0,0,0,0,0,0,0,0,0,-1,1266,1156,0,0
49,-132,0,0,0,0,0,0,0,0,0,-1,1273,1156,0,0
56,-132,0,0,0,0,0,0,0,0,0,-1,1280,1156,0,0
63,-132,0,0,0,0,0,0,0,0,0,-1,1287,1156,0,0
70,-132,0,0,0,0,0,0,0,0,0,-1,1294,1156,0,0
77,-132,0,0,0,0,0,0,0,0,0,-1,1301,1156,0,0
84,-132,0,0,0,0,0,0,0,0,0,-1,1308,1156,0,0
91,-132,0,0,0,0,0,0,0,0,0,-1,1315,1156,0,0
98,-132,0,0,0,0,0,0,0,0,0,-1,1322,1156,0,0
105,-132,0,0,0,0,0,0,0,0,0,-1,1329,1156,0,0
112,-132,0,0,0,0,0,0,0,0,0,-1,1336,1156,0,0
119,-132,0,0,0,0,0,0,0,0,0,-1,1343,1156,0,0
126,-132,0,0,0,0,0,0,0,0,0,-1,1350,1156,0,0
133,-132,0,0,0,0,0,0,0,0,0,-1,1357,1156,0,0
140,-132,0,0,0,0,0,0,0,0,0,-1,1364,1156,0,0
147,-132,0,0,0,0,0,0,0,0,0,-1,1371,1156,0,0
154,-132,0,0,0,0,0,0,0,0,0,-1,1378,1156,0,0
161,-132,0,0,0,0,0,0,0,0,0,-1,1385,1156,0,0
168,-132,0,0,0,0,0,0,0,0,0,-1,1392,1156,0,0
175,-132,0,0,0,0,0,0,0,0,0,-1,1399,1156,0,0
182,-132,0,0,0,0,0,0,0,0,0,-1,1406,1156,0,0
189,-132,0,0,0,0,0,0,0,0,0,-1,1413,1156,0,0
196,-132,0,0,0,0,0,0,0,0,0,-1,1420,1156,0,0
203,-132,0,0,0,0,0,0,0,0,0,-1,1427,1156,0,0
210,-132,0,0,0,0,0,0,0,0,0,-1,1434,1156,0,0
217,-132,0,0,0,0,0,0,0,0,0,-1,1441,1156,0,0
224,-132,0,0,0,0,0,0,0,0,0,-1,1448,1156,0,0
231,-132,0,0,0,0,0,0,0,0,0,-1,1455,1156,0,0
238,-132,0,0,0,0,0,0,0,0,0,-1,1462,1156,0,0
245,-132,0,0,0,0,0,0,0,0,0,-1,1469,1156,0,0
252,-132,0,0,0,0,0,0,0,0,0,-1,1476,1156,0,0
259,-132,0,0,0,0,0,0,0,0,0,-1,1483,1156,0,0
266,-132,0,0,0,0,0,0,0,0,0,-1,1490,1156,0,0
273,-132,0,0,0,0,0,0,0,0,0,-1,1497,1156,0,0
280,-132,0,0,0,0,0,0,0,0,0,-1,1504,1156,0,0
287,-132,0,0,0,0,0,0,0,0,0,-1,1511,1156,0,0
294,-132,0,0,0,0,0,0,0,0,0,-1,1518,1156,0,0
301,-132,0,0,0,0,0,0,0,0,0,-1,1525,1156,0,0
308,-132,0,0,0,0,0,0,0,0,0,-1,1532,1156,0,0
315,-132,0,0,0,0,0,0,0,0,0,-1,1539,1156,0,0
322,-132,0,0,0,0,0,0,0,0,0,-1,1546,1156,0,0
329,-132,0,0,0,0,0,0,0,0,0,-1,1553,1156,0,0
336,-132,0,0,0,0,0,0,0,0,0,-1,1560,1156,0,0
343,-132,0,0,0,0,0,0,0,0,0,-1,1567,1156,0,0
350,-132,0,0,0,0,0,0,0,0,0,-1,1574,1156,0,0
357,-132,0,0,0,0,0,0,0,0,0,-1,1581,1156,0,0
364,-132,0,0,0,0,0,0,0,0,0,-1,1588,1156,0,0
371,-132,0,0,0,0,0,0,0,0,0,-1,1595,1156,0,0
378,-132,0,0,0,0,0,0,0,0,0,-1,1602,1156,0,0
385,-132,0,0,0,0,0,0,0,0,0,-1,1609,1156,0,0
392,-132,0,0,0,0,0,0,0,0,0,-1,1616,1156,0,0
399,-132,0,0,0,0,0,0,0,0,0,-1,1623,1156,0,0
406,-132,0,0,0,0,0,0,0,0,0,-1,1630,1156,0,0
413,-132,0,0,0,0,0,0,0,0,0,-1,1637,1156,0,0
420,-132,0,0,0,0,0,0,0,0,0,-1,1644,1156,0,0
427,-132,0,0,0,0,0,0,0,0,0,-1,1651,1156,0,0
434,-132,0,0,0,0,0,0,0,0,0,-1,1658,1156,0,0
441,-132,0,0,0,0,0,0,0,0,0,-1,1665,1156,0,0
448,-132,0,0,0,0,0,0,0,0,0,-1,1672,1156,0,0
455,-132,0,0,0,0,0,0,0,0,0,-1,1679,1156,0,0
462,-132,0,0,0,0,0,0,0,0,0,-1,1686,1156,0,0
469,-132,0,0,0,0,0,0,0,0,0,-1,1693,1156,0,0
476,-132,0,0,0,0,0,0,0,0,0,-1,1700,1156,0,0
483,-132,0,0,0,0,0,0,0,0,0,-1,1707,1156,0,0
490,-132,0,0,0,0,0,0,0,0,0,-1,1714,1156,0,0
497,-132,0,0,0,0,0,0,0,0,0,-1,1721,1156,0,0
504,-132,0,0,0,0,0,0,0,0,0,-1,1728,1156,0,0
511,-132,0,0,0,0,0,0,0,0,0,-1,1735,1156,0,0
518,-132,0,0,0,0,0,0,0,0,0,-1,1742,1156,0,0
525,-132,0,0,0,0,0,0,0,0,0,-1,1749,1156,0,0
532,-132,0,0,0,0,0,0,0,0,0,-1,1756,1156,0,0
539,-132,0,0,0,0,0,0,0,0,0,-1,1763,1156,0,0
546,-132,0,0,0,0,0,0,0,0,0,-1,1770,1156,0,0
553,-132,0,0,0,0,0,0,0,0,0,-1,1777,1156,0,0
560,-132,0,0,0,0,0,0,0,0,0,-1,1784,1156,0,0
567,-132,0,0,0,0,0,0,0,0,0,-1,1791,1156,0,0
574,-132,0,0,0,0,0,0,0,0,0,-1,1798,1156,0,0
581,-132,0,0,0,0,0,0,0,0,0,-1,1805,1156,0,0
588,-132,0,0,0,0,0,0,0,0,0,-1,1812,1156,0,0
595,-132,0,0,0,0,0,0,0,0,0,-1,1819,1156,0,0
602,-132,0,0,0,0,0,0,0,0,0,-1,1826,1156,0,0
609,-132,0,0,0,0,0,0,0,0,0,-1,1833,1156,0,0
616,-132,0,0,0,0,0,0,0,0,0,-1,1840,1156,0,0
623,-132,0,0,0,0,0,0,0,0,0,-1,1847,1156,0,0
630,-132,0,0,0,0,0,0,0,0,0,-1,1854,1156,0,0
637,-132,0,0,0,0,0,0,0,0,0,-1,1861,1156,0,0
644,-132,54.6576,2.61206,0.0060141,-0.00170711,0.00182156,0.00642226,-0.00211527,0.22043,0.00513396,0.0437175,1868,1156,54.6576,-2.61209
651,-132,54.5962,3.06921,0.00405587,-0.000937783,0.00188739,0.00468896,-0.00157087,0.323638,0.0037606,0.0429474,1875,1156,54.5963,-3.0692
658,-132,54.5991,2.9845,0.00275376,-0.000404143,0.00166421,0.00346886,-0.00111924,0.40584,0.0027623,0.04097,1882,1156,54.5991,-2.98448
665,-132,54.6666,3.00159,0.00178201,5.61642e-05,0.00127536,0.00245895,-0.000620774,0.48797,0.00188069,0.0412761,1889,1156,54.6667,-3.00155
672,-132,54.6791,2.9917,0.00103089,0.000434231,0.000804325,0.00159043,-0.000125309,0.60781,0.00110443,0.0407053,1896,1156,54.6791,-2.99167
679,-132,54.6539,3.03784,0.000480365,0.000459021,0.000451586,0.000921405,1.79808e-05,0.773584,0.000608365,0.038576,1903,1156,54.6539,-3.03788
686,-132,54.5916,3.06409,0.000229221,0.000266454,0.000246599,0.000495138,5.36849e-07,0.823073,0.000329913,0.0352008,1910,1156,54.5916,-3.06409
693,-132,54.6132,2.96326,9.82916e-05,0.000114138,0.000233048,0.000339398,-0.000126968,0.802391,0.000278412,0.0281478,1917,1156,54.6131,-2.96325
700,-132,54.6746,2.91223,-6.742e-05,-0.000113038,0.000330848,0.000241405,-0.000421862,0.750982,0.000387633,0.0451441,1924,1156,54.6745,-2.91219
707,-132,54.6963,2.83606,0,0,0,0,0,0,0,-1,1931,1156,54.6963,-2.83607
714,-132,48.9332,8.48828,0,0,0,0,0,0,0,-1,1938,1156,48.9332,-8.48825
721,-132,48.9984,8.16101,-0.000694037,-0.000162532,0.000642745,0.000267234,-0.0011238,0.981428,0.00085236,0.0392918,1945,1156,48.9984,-8.16096
728,-132,48.8804,7.81787,-0.000697903,-9.49997e-05,0.000641787,0.000312607,-0.00110551,1.00496,0.000860352,0.0296198,1952,1156,48.8804,-7.81789
735,-132,48.8087,7.41125,-0.00066036,-3.23828e-05,0.000856325,0.000565704,-0.00125845,0.961122,0.00107819,0.029894,1959,1156,48.8087,-7.4112
742,-132,48.7944,6.93298,-0.000963384,0.000226486,0.00141923,0.00117044,-0.00190733,0.98387,0.00179385,0.0237457,1966,1156,48.7944,-6.93293
749,-132,48.7738,6.52002,-0.00158683,0.00130423,0.00191583,0.00225869,-0.0025413,1.10859,0.00277287,0.0260867,1973,1156,48.7738,-6.52
756,-132,48.7865,6.026,-0.00210101,0.00378037,0.00163665,0.00420514,-0.00252578,1.31687,0.0039262,0.0247127,1980,1156,48.7865,-6.02605
763,-132,48.7949,5.64136,-0.00227142,0.00774329,0.000320574,0.00775354,-0.00228168,1.53883,0.00607415,0.0151002,1987,1156,48.7949,-5.64138
770,-132,48.7876,5.24194,-0.00253218,0.0125939,-0.00149732,0.0127407,-0.00267898,-1.47307,0.00951334,0.013979,1994,1156,48.7876,-5.24191
777,-132,48.729,4.86035,-0.0027896,0.0185608,-0.00411757,0.0193273,-0.00355618,-1.38673,0.0142193,0.0242531,2001,1156,48.7289,-4.8604
784,-132,48.679,4.64868,-0.00306531,0.0261114,-0.00787292,0.0281002,-0.00505414,-1.32336,0.0206256,0.0456567,2008,1156,48.6788,-4.64869
791,-132,48.696,4.43066,0,0,0,0,0,0,0,-1,2015,1156,48.6961,-4.4307
798,-132,46.2205,3.73474,0,0,0,0,0,0,0,-1,2022,1156,46.2204,-3.73475
805,-132,46.1509,3.56824,0,0,0,0,0,0,0,-1,2029,1156,46.151,-3.56825
812,-132,46.1008,3.56091,0,0,0,0,0,0,0,-1,2036,1156,46.1009,-3.56093
-700,-139,0,0,0,0,0,0,0,0,0,-1,524,1163,0,0
-693,-139,-36.2431,-3.34229,0.0314285,-0.0325166,-0.0212117,0.0378249,-0.038913,-0.292881,0.0443062,0.0440783,531,1163,-36.2431,3.34234
-686,-139,-36.1296,-2.86584,0.0279605,-0.0234427,-0.0147481,0.0318913,-0.0273735,-0.260473,0.0342497,0.0466195,538,1163,-36.1296,2.86585
-679,-139,-35.9069,-2.5575,0,0,0,0,0,0,0,-1,545,1163,-35.9069,2.55746
-672,-139,-35.3226,1.27368,0,0,0,0,0,0,0,-1,552,1163,-35.3226,-1.27373
-665,-139,-34.3317,0.297607,0,0,0,0,0,0,0,-1,559,1163,-34.3316,-0.29758
-658,-139,-34.9705,0.459839,0,0,0,0,0,0,0,-1,566,1163,-34.9705,-0.459879
-651,-139,-34.6074,1.20264,0.00997711,-0.00109869,-0.00140013,0.0101514,-0.00127295,-0.123819,0.00722934,0.043364,573,1163,-34.6074,-1.20267
-644,-139,-34.2175,1.97607,0.00713658,0.000493615,-0.000871534,0.00724902,0.000381176,-0.128304,0.00471076,0.0249287,580,1163,-34.2175,-1.97613
-637,-139,-34.2413,2.45081,0.00446796,0.00194442,-0.00054291,0.0045798,0.00183257,-0.203166,0.00266167,0.0140001,587,1163,-34.2412,-2.4508
-630,-139,-34.2596,2.93042,0.00213538,0.00230789,-0.000398126,0.002629,0.00181427,-0.892078,0.00155399,0.0112377,594,1163,-34.2596,-2.93038
-623,-139,-34.2736,3.41785,0.000683462,0.00167875,-0.000962317,0.00226448,9.77308e-05,-1.02403,0.00147816,0.017671,601,1163,-34.2735,-3.41782
-616,-139,-34.2952,3.88025,-7.61412e-05,0.000584407,-0.00117969,0.00147918,-0.000970914,-0.921888,0.00142467,0.0192295,608,1163,-34.2951,-3.88026
-609,-139,-34.2239,4.28076,0,0,0,0,0,0,0,-1,615,1163,-34.2239,-4.28074
-602,-139,-34.2751,4.88635,0.000575438,-0.000943126,-0.000802979,0.000921273,-0.00128896,-0.406681,0.00128195,0.0385627,622,1163,-34.2751,-4.8863
-595,-139,-34.4704,5.3678,-9.26795e-05,-0.000836552,-0.000950856,0.000556395,-0.00148563,-0.598967,0.00121897,0.0458125,629,1163,-34.4704,-5.36774
-588,-139,-34.7317,5.76672,0,0,0,0,0,0,0,-1,636,1163,-34.7317,-5.7667
-581,-139,-32.2208,6.02368,0,0,0,0,0,0,0,-1,643,1163,-32.2208,-6.02369
-574,-139,-23.0725,2.4043,0,0,0,0,0,0,0,-1,650,1163,-23.0725,-2.40433
-567,-139,-40.6597,1.03638,0,0,0,0,0,0,0,-1,657,1163,-40.6597,-1.03642
-560,-139,-40.7073,1.026,0.00197337,-0.000666847,-0.0011561,0.00240805,-0.00110152,-0.359631,0.00207252,0.0346743,664,1163,-40.7073,-1.02601
-553,-139,-40.7093,1.0061,0.00189818,-0.000498346,-0.0012359,0.00242133,-0.0010215,-0.400429,0.00204175,0.0393773,671,1163,-40.7093,-1.00608
-546,-139,-40.7809,1.01099,0.00219885,0.0006302,-0.00119148,0.00284099,-1.19384e-05,-0.494312,0.00189799,0.0427174,678,1163,-40.7809,-1.01095
-539,-139,-40.7418,1.04395,0.00319885,0.0024402,-0.000977161,0.00386773,0.00177132,-0.600255,0.00223566,0.0418483,685,1163,-40.7418,-1.04398
-532,-139,-40.5907,0.978516,0.00484519,0.00420076,-0.000484262,0.00510464,0.00394131,-0.491843,0.00308921,0.0395769,692,1163,-40.5907,-0.978524
-525,-139,-40.5192,0.94397,0.00683929,0.00584628,0.000186243,0.00687308,0.0058125,0.179432,0.00427263,0.0409801,699,1163,-40.5192,-0.943988
-518,-139,0,0,0,0,0,0,0,0,0,-1,706,1163,0,0
-511,-139,0,0,0,0,0,0,0,0,0,-1,713,1163,0,0
-504,-139,0,0,0,0,0,0,0,0,0,-1,720,1163,0,0
-497,-139,0,0,0,0,0,0,0,0,0,-1,727,1163,0,0
-490,-139,0,0,0,0,0,0,0,0,0,-1,734,1163,0,0
-483,-139,0,0,0,0,0,0,0,0,0,-1,741,1163,0,0
-476,-139,0,0,0,0,0,0,0,0,0,-1,748,1163,0,0
-469,-139,0,0,0,0,0,0,0,0,0,-1,755,1163,0,0
-462,-139,0,0,0,0,0,0,0,0,0,-1,762,1163,0,0
-455,-139,0,0,0,0,0,0,0,0,0,-1,769,1163,0,0
-448,-139,0,0,0,0,0,0,0,0,0,-1,776,1163,0,0
-441,-139,0,0,0,0,0,0,0,0,0,-1,783,1163,0,0
-434,-139,0,0,0,0,0,0,0,0,0,-1,790,1163,0,0
-427,-139,0,0,0,0,0,0,0,0,0,-1,797,1163,0,0
-420,-139,0,0,0,0,0,0,0,0,0,-1,804,1163,0,0
-413,-139,0,0,0,0,0,0,0,0,0,-1,811,1163,0,0
-406,-139,0,0,0,0,0,0,0,0,0,-1,818,1163,0,0
-399,-139,0,0,0,0,0,0,0,0,0,-1,825,1163,0,0
-392,-139,0,0,0,0,0,0,0,0,0,-1,832,1163,0,0
-385,-139,0,0,0,0,0,0,0,0,0,-1,839,1163,0,0
-378,-139,0,0,0,0,0,0,0,0,0,-1,846,1163,0,0
-371,-139,0,0,0,0,0,0,0,0,0,-1,853,1163,0,0
-364,-139,0,0,0,0,0,0,0,0,0,-1,860,1163,0,0
-357,-139,0,0,0,0,0,0,0,0,0,-1,867,1163,0,0
-350,-139,0,0,0,0,0,0,0,0,0,-1,874,1163,0,0
-343,-139,0,0,0,0,0,0,0,0,0,-1,881,1163,0,0
-336,-139,0,0,0,0,0,0,0,0,0,-1,888,1163,0,0
-329,-139,0,0,0,0,0,0,0,0,0,-1,895,1163,0,0
-322,-139,0,0,0,0,0,0,0,0,0,-1,902,1163,0,0
-315,-139,0,0,0,0,0,0,0,0,0,-1,909,1163,0,0
-308,-139,0,0,0,0,0,0,0,0,0,-1,916,1163,0,0
-301,-139,0,0,0,0,0,0,0,0,0,-1,923,1163,0,0
-294,-139,0,0,0,0,0,0,0,0,0,-1,930,1163,0,0
-287,-139,0,0,0,0,0,0,0,0,0,-1,937,1163,0,0
-280,-139,0,0,0,0,0,0,0,0,0,-1,944,1163,0,0
-273,-139,0,0,0,0,0,0,0,0,0,-1,951,1163,0,0
-266,-139,0,0,0,0,0,0,0,0,0,-1,958,1163,0,0
-259,-139,0,0,0,0,0,0,0,0,0,-1,965,1163,0,0
-252,-139,0,0,0,0,0,0,0,0,0,-1,972,1163,0,0
-245,-139,0,0,0,0,0,0,0,0,0,-1,979,1163,0,0
-238,-139,0,0,0,0,0,0,0,0,0,-1,986,1163,0,0
-231,-139,0,0,0,0,0,0,0,0,0,-1,993,1163,0,0
-224,-139,0,0,0,0,0,0,0,0,0,-1,1000,1163,0,0
-217,-139,0,0,0,0,0,0,0,0,0,-1,1007,1163,0,0
-210,-139,0,0,0,0,0,0,0,0,0,-1,1014,1163,0,0
-203,-139,0,0,0,0,0,0,0,0,0,-1,1021,1163,0,0
-196,-139,0,0,0,0,0,0,0,0,0,-1,1028,1163,0,0
-189,-139,0,0,0,0,0,0,0,0,0,-1,1035,1163,0,0
-182,-139,0,0,0,0,0,0,0,0,0,-1,1042,1163,0,0
-175,-139,0,0,0,0,0,0,0,0,0,-1,1049,1163,0,0
-168,-139,0,0,0,0,0,0,0,0,0,-1,1056,1163,0,0
-161,-139,0,0,0,0,0,0,0,0,0,-1,1063,1163,0,0
-154,-139,0,0,0,0,0,0,0,0,0,-1,1070,1163,0,0
-147,-139,0,0,0,0,0,0,0,0,0,-1,1077,1163,0,0
-140,-139,0,0,0,0,0,0,0,0,0,-1,1084,1163,0,0
-133,-139,0,0,0,0,0,0,0,0,0,-1,1091,1163,0,0
-126,-139,0,0,0,0,0,0,0,0,0,-1,1098,1163,0,0
-119,-139,0,0,0,0,0,0,0,0,0,-1,1105,1163,0,0
-112,-139,0,0,0,0,0,0,0,0,0,-1,1112,1163,0,0
-105,-139,0,0,0,0,0,0,0,0,0,-1,1119,1163,0,0
-98,-139,0,0,0,0,0,0,0,0,0,-1,1126,1163,0,0
-91,-139,0,0,0,0,0,0,0,0,0,-1,1133,1163,0,0
-84,-139,0,0,0,0,0,0,0,0,0,-1,1140,1163,0,0
-77,-139,0,0,0,0,0,0,0,0,0,-1,1147,1163,0,0
-70,-139,0,0,0,0,0,0,0,0,0,-1,1154,1163,0,0
-63,-139,0,0,0,0,0,0,0,0,0,-1,1161,1163,0,0
-56,-139,0,0,0,0,0,0,0,0,0,-1,1168,1163,0,0
-49,-139,0,0,0,0,0,0,0,0,0,-1,1175,1163,0,0
-42,-139,0,0,0,0,0,0,0,0,0,-1,1182,1163,0,0
-35,-139,0,0,0,0,0,0,0,0,0,-1,1189,1163,0,0
-28,-139,0,0,0,0,0,0,0,0,0,-1,1196,1163,0,0
-21,-139,0,0,0,0,0,0,0,0,0,-1,1203,1163,0,0
-14,-139,0,0,0,0,0,0,0,0,0,-1,1210,1163,0,0
-7,-139,0,0,0,0,0,0,0,0,0,-1,1217,1163,0,0
0,-139,0,0,0,0,0,0,0,0,0,-1,1224,1163,0,0
7,-139,0,0,0,0,0,0,0,0,0,-1,1231,1163,0,0
14,-139,0,0,0,0,0,0,0,0,0,-1,1238,1163,0,0
21,-139,0,0,0,0,0,0,0,0,0,-1,1245,1163,0,0
28,-139,0,0,0,0,0,0,0,0,0,-1,1252,1163,0,0
35,-139,0,0,0,0,0,0,0,0,0,-1,1259,1163,0,0
42,-139,0,0,0,0,0,0,0,0,0,-1,1266,1163,0,0
49,-139,0,0,0,0,0,0,0,0,0,-1,1273,1163,0,0
56,-139,0,0,0,0,0,0,0,0,0,-1,1280,1163,0,0
63,-139,0,0,0,0,0,0,0,0,0,-1,1287,1163,0,0
70,-139,0,0,0,0,0,0,0,0,0,-1,1294,1163,0,0
77,-139,0,0,0,0,0,0,0,0,0,-1,1301,1163,0,0
84,-139,0,0,0,0,0,0,0,0,0,-1,1308,1163,0,0
91,-139,0,0,0,0,0,0,0,0,0,-1,1315,1163,0,0
98,-139,0,0,0,0,0,0,0,0,0,-1,1322,1163,0,0
105,-139,0,0,0,0,0,0,0,0,0,-1,1329,1163,0,0
112,-139,0,0,0,0,0,0,0,0,0,-1,1336,1163,0,0
119,-139,0,0,0,0,0,0,0,0,0,-1,1343,1163,0,0
126,-139,0,0,0,0,0,0,0,0,0,-1,1350,1163,0,0
133,-139,0,0,0,0,0,0,0,0,0,-1,1357,1163,0,0
140,-139,0,0,0,0,0,0,0,0,0,-1,1364,1163,0,0
147,-139,0,0,0,0,0,0,0,0,0,-1,1371,1163,0,0
154,-139,0,0,0,0,0,0,0,0,0,-1,1378,1163,0,0
161,-139,0,0,0,0,0,0,0,0,0,-1,1385,1163,0,0
168,-139,0,0,0,0,0,0,0,0,0,-1,1392,1163,0,0
175,-139,0,0,0,0,0,0,0,0,0,-1,1399,1163,0,0
182,-139,0,0,0,0,0,0,0,0,0,-1,1406,1163,0,0
189,-139,0,0,0,0,0,0,0,0,0,-1,1413,1163,0,0
196,-139,0,0,0,0,0,0,0,0,0,-1,1420,1163,0,0
203,-139,0,0,0,0,0,0,0,0,0,-1,1427,1163,0,0
210,-139,0,0,0,0,0,0,0,0,0,-1,1434,1163,0,0
217,-139,0,0,0,0,0,0,0,0,0,-1,1441,1163,0,0
224,-139,0,0,0,0,0,0,0,0,0,-1,1448,1163,0,0
231,-139,0,0,0,0,0,0,0,0,0,-1,1455,1163,0,0
238,-139,0,0,0,0,0,0,0,0,0,-1,1462,1163,0,0
245,-139,0,0,0,0,0,0,0,0,0,-1,1469,1163,0,0
252,-139,0,0,0,0,0,0,0,0,0,-1,1476,1163,0,0
259,-139,0,0,0,0,0,0,0,0,0,-1,1483,1163,0,0
266,-139,0,0,0,0,0,0,0,0,0,-1,1490,1163,0,0
273,-139,0,0,0,0,0,0,0,0,0,-1,1497,1163,0,0
280,-139,0,0,0,0,0,0,0,0,0,-1,1504,1163,0,0
287,-139,0,0,0,0,0,0,0,0,0,-1,1511,1163,0,0
294,-139,0,0,0,0,0,0,0,0,0,-1,1518,1163,0,0
301,-139,0,0,0,0,0,0,0,0,0,-1,1525,1163,0,0
308,-139,0,0,0,0,0,0,0,0,0,-1,1532,1163,0,0
315,-139,0,0,0,0,0,0,0,0,0,-1,1539,1163,0,0
322,-139,0,0,0,0,0,0,0,0,0,-1,1546,1163,0,0
329,-139,0,0,0,0,0,0,0,0,0,-1,1553,1163,0,0
336,-139,0,0,0,0,0,0,0,0,0,-1,1560,1163,0,0
343,-139,0,0,0,0,0,0,0,0,0,-1,1567,1163,0,0
350,-139,0,0,0,0,0,0,0,0,0,-1,1574,1163,0,0
357,-139,0,0,0,0,0,0,0,0,0,-1,1581,1163,0,0
364,-139,0,0,0,0,0,0,0,0,0,-1,1588,1163,0,0
371,-139,0,0,0,0,0,0,0,0,0,-1,1595,1163,0,0
378,-139,0,0,0,0,0,0,0,0,0,-1,1602,1163,0,0
385,-139,0,0,0,0,0,0,0,0,0,-1,1609,1163,0,0
392,-139,0,0,0,0,0,0,0,0,0,-1,1616,1163,0,0
399,-139,0,0,0,0,0,0,0,0,0,-1,1623,1163,0,0
406,-139,0,0,0,0,0,0,0,0,0,-1,1630,1163,0,0
413,-139,0,0,0,0,0,0,0,0,0,-1,1637,1163,0,0
420,-139,0,0,0,0,0,0,0,0,0,-1,1644,1163,0,0
427,-139,0,0,0,0,0,0,0,0,0,-1,1651,1163,0,0
434,-139,0,0,0,0,0,0,0,0,0,-1,1658,1163,0,0
441,-139,0,0,0,0,0,0,0,0,0,-1,1665,1163,0,0
448,-139,0,0,0,0,0,0,0,0,0,-1,1672,1163,0,0
455,-139,0,0,0,0,0,0,0,0,0,-1,1679,1163,0,0
462,-139,0,0,0,0,0,0,0,0,0,-1,1686,1163,0,0
469,-139,0,0,0,0,0,0,0,0,0,-1,1693,1163,0,0
476,-139,0,0,0,0,0,0,0,0,0,-1,1700,1163,0,0
483,-139,0,0,0,0,0,0,0,0,0,-1,1707,1163,0,0
490,-139,0,0,0,0,0,0,0,0,0,-1,1714,1163,0,0
497,-139,0,0,0,0,0,0,0,0,0,-1,1721,1163,0,0
504,-139,0,0,0,0,0,0,0,0,0,-1,1728,1163,0,0
511,-139,0,0,0,0,0,0,0,0,0,-1,1735,1163,0,0
518,-139,0,0,0,0,0,0,0,0,0,-1,1742,1163,0,0
525,-139,0,0,0,0,0,0,0,0,0,-1,1749,1163,0,0
532,-139,0,0,0,0,0,0,0,0,0,-1,1756,1163,0,0
539,-139,0,0,0,0,0,0,0,0,0,-1,1763,1163,0,0
546,-139,0,0,0,0,0,0,0,0,0,-1,1770,1163,0,0
553,-139,0,0,0,0,0,0,0,0,0,-1,1777,1163,0,0
560,-139,0,0,0,0,0,0,0,0,0,-1,1784,1163,0,0
567,-139,0,0,0,0,0,0,0,0,0,-1,1791,1163,0,0
574,-139,0,0,0,0,0,0,0,0,0,-1,1798,1163,0,0
581,-139,0,0,0,0,0,0,0,0,0,-1,1805,1163,0,0
588,-139,0,0,0,0,0,0,0,0,0,-1,1812,1163,0,0
595,-139,0,0,0,0,0,0,0,0,0,-1,1819,1163,0,0
602,-139,0,0,0,0,0,0,0,0,0,-1,1826,1163,0,0
609,-139,0,0,0,0,0,0,0,0,0,-1,1833,1163,0,0
616,-139,0,0,0,0,0,0,0,0,0,-1,1840,1163,0,0
623,-139,0,0,0,0,0,0,0,0,0,-1,1847,1163,0,0
630,-139,0,0,0,0,0,0,0,0,0,-1,1854,1163,0,0
637,-139,0,0,0,0,0,0,0,0,0,-1,1861,1163,0,0
644,-139,54.6786,2.578,0.00459225,-0.00195979,0.00228255,0.00530901,-0.00267655,0.304269,0.00469323,0.0424119,1868,1163,54.6786,-2.57801
651,-139,54.7476,2.51489,0.00309262,-0.00101706,0.00222257,0.00406469,-0.00198913,0.412295,0.00356299,0.0429416,1875,1163,54.7475,-2.51484
658,-139,54.7621,2.66296,0.0020949,-0.000298762,0.00190024,0.00314381,-0.00134766,0.504365,0.00266137,0.0414915,1882,1163,54.7621,-2.66298
665,-139,54.7051,2.9386,0.00138592,0.000337038,0.00140227,0.00235861,-0.000635651,0.606454,0.00182164,0.0387366,1889,1163,54.705,-2.9386
672,-139,54.6902,3.1897,0.000798466,0.000853851,0.000869797,0.0016964,-4.40795e-05,0.801312,0.00114591,0.0387755,1896,1163,54.6902,-3.1897
679,-139,54.7633,3.19043,0.000337987,0.000899552,0.000496641,0.00118929,4.82512e-05,1.04268,0.000777274,0.0364847,1903,1163,54.7633,-3.19041
686,-139,54.6283,3.04285,0.000101536,0.000657388,0.000337945,0.000817012,-5.8088e-05,1.12952,0.000565034,0.0340503,1910,1163,54.6283,-3.04287
693,-139,54.6377,2.94495,-5.55651e-05,0.000485512,0.000344656,0.000653127,-0.00022318,1.11815,0.000525843,0.0244322,1917,1163,54.6377,-2.9449
700,-139,54.7103,2.82825,0,0,0,0,0,0,0,-1,1924,1163,54.7103,-2.82819
707,-139,32.116,6.54346,0,0,0,0,0,0,0,-1,1931,1163,32.116,-6.54343
714,-139,48.4396,8.68213,0,0,0,0,0,0,0,-1,1938,1163,48.4396,-8.68216
721,-139,48.5165,8.19861,-0.000782212,0.000137277,0.000621102,0.000450275,-0.00109521,1.104,0.000917819,0.035531,1945,1163,48.5165,-8.19858
728,-139,48.4014,7.901,-0.000769835,0.000109694,0.000628138,0.000436708,-0.00109685,1.0908,0.000912335,0.0464484,1952,1163,48.4013,-7.90097
735,-139,48.2721,7.52197,-0.00073571,5.01178e-05,0.000839132,0.00058377,-0.00126936,1.00436,0.00109404,0.0342733,1959,1163,48.2721,-7.52202
742,-139,48.3413,6.9137,-0.00103405,0.000242812,0.00140026,0.00114332,-0.00193456,0.999288,0.00179648,0.0262533,1966,1163,48.3413,-6.91369
749,-139,48.3192,6.47083,-0.0015567,0.00131416,0.0018722,0.00223788,-0.00248042,1.11245,0.00272532,0.0200778,1973,1163,48.3192,-6.47078
756,-139,48.3191,6.05371,-0.0018766,0.00406852,0.00153687,0.00444231,-0.0022504,1.33221,0.00393251,0.0108746,1980,1163,48.3191,-6.05367
763,-139,48.3079,5.63208,-0.00188184,0.00834905,0.000217535,0.00835367,-0.00188646,1.54955,0.0062929,0.011445,1987,1163,48.3079,-5.63204
770,-139,48.2974,5.22473,-0.00203667,0.0136083,-0.00159021,0.0137683,-0.00219667,-1.47052,0.00999191,0.0130096,1994,1163,48.2974,-5.2247
777,-139,48.3079,4.86902,-0.00227718,0.0201336,-0.00418637,0.0208901,-0.00303367,-1.39202,0.0150403,0.0261682,2001,1163,48.3077,-4.86902
784,-139,48.3569,4.61035,-0.00265036,0.0284317,-0.00789025,0.03032,-0.00453861,-1.3359,0.0218836,0.0440108,2008,1163,48.357,-4.61037
791,-139,48.4963,4.26917,-0.0030267,0.0389222,-0.0131174,0.0426863,-0.00679075,-1.29135,0.0309703,0.0493688,2015,1163,48.4963,-4.26914
798,-139,48.3303,3.93823,0,0,0,0,0,0,0,-1,2022,1163,48.3303,-3.93823
805,-139,46.5098,3.65137,0,0,0,0,0,0,0,-1,2029,1163,46.5098,-3.65132
812,-139,0,0,0,0,0,0,0,0,0,-1,2036,1163,0,0
-700,-146,0,0,0,0,0,0,0,0,0,-1,524,1170,0,0
-693,-146,-35.943,-2.79553,0.0358925,-0.0249644,-0.0119632,0.0381598,-0.0272316,-0.187297,0.0379291,0.0381505,531,1170,-35.943,2.79556
-686,-146,-35.6457,-2.40991,0.031819,-0.0172765,-0.00631156,0.0326175,-0.0180749,-0.125831,0.029666,0.0461293,538,1170,-35.6456,2.4099
-679,-146,-34.6857,-1.7533,0,0,0,0,0,0,0,-1,545,1170,-34.6857,1.75325
-672,-146,-33.9308,-0.321289,0,0,0,0,0,0,0,-1,552,1170,-33.9308,0.321326
-665,-146,-33.887,0.266724,0.018867,-0.00416596,0.000742042,0.0188909,-0.00418984,0.0321721,0.0141981,0.0482074,559,1170,-33.887,-0.266782
-658,-146,-34.1013,0.753296,0.0151074,-0.00171435,0.00126345,0.0152018,-0.00180871,0.0745508,0.0107881,0.046436,566,1170,-34.1013,-0.753331
-651,-146,-33.9403,1.23511,0.0117185,4.39122e-05,0.00127357,0.0118558,-9.34065e-05,0.107406,0.00793517,0.0396812,573,1170,-33.9403,-1.23511
-644,-146,-33.6594,1.9248,0.00859118,0.00117456,0.000948091,0.00871046,0.00105528,0.125152,0.00548913,0.0228279,580,1170,-33.6594,-1.92477
-637,-146,-33.7047,2.44458,0.00562395,0.0021791,0.000486777,0.00569141,0.00211164,0.137715,0.00332218,0.0118632,587,1170,-33.7047,-2.44455
-630,-146,-33.7433,2.93066,0.00298819,0.00245155,0.000147832,0.00302622,0.00241352,0.251788,0.00184743,0.0107999,594,1170,-33.7434,-2.9307
-623,-146,-33.7748,3.41101,0.0010928,0.00177248,-0.000854855,0.00235257,0.000512709,-0.974592,0.00142848,0.0142172,601,1170,-33.7748,-3.41106
-616,-146,-33.8478,3.9032,-0.000175247,0.000732636,-0.00133714,0.00169079,-0.0011334,-0.949037,0.0016411,0.0208062,608,1170,-33.8478,-3.90324
-609,-146,-33.693,4.5127,-0.000278105,-7.94834e-05,-0.00110955,0.000935188,-0.00129278,-0.830032,0.00129183,0.0296283,615,1170,-33.693,-4.51266
-602,-146,-33.7994,5.03137,0,0,0,0,0,0,0,-1,622,1170,-33.7994,-5.03142
-595,-146,-34.0118,5.42114,0,0,0,0,0,0,0,-1,629,1170,-34.0118,-5.4211
-588,-146,-34.2461,5.78516,0,0,0,0,0,0,0,-1,636,1170,-34.2461,-5.78512
-581,-146,-31.7815,6.30347,0,0,0,0,0,0,0,-1,643,1170,-31.7815,-6.3035
-574,-146,-17.9915,3.79114,0,0,0,0,0,0,0,-1,650,1170,-17.9915,-3.79118
-567,-146,-40.6342,1.00916,0,0,0,0,0,0,0,-1,657,1170,-40.6342,-1.00915
-560,-146,-40.737,1.10449,0.00180107,-0.000847536,-0.00197319,0.00285317,-0.00189963,-0.489849,0.00276237,0.0413908,664,1170,-40.737,-1.10448
-553,-146,-40.6608,1.05579,0.00177944,-0.000887568,-0.0021248,0.00295453,-0.00206265,-0.505168,0.00291189,0.0372571,671,1170,-40.6608,-1.05574
-546,-146,-40.5202,0.833496,0.00226631,1.18513e-05,-0.00192067,0.0033661,-0.00108794,-0.520034,0.00268132,0.0411316,678,1170,-40.5202,-0.833556
-539,-146,-40.6484,0.893311,0.00316731,0.00166307,-0.001114,0.00375932,0.00107106,-0.48847,0.00223638,0.0428537,685,1170,-40.6484,-0.893327
-532,-146,-40.5641,0.965942,0.0044191,0.00340595,0.000298062,0.00450028,0.00332477,0.265918,0.0026952,0.0403782,692,1170,-40.5642,-0.965967
-525,-146,-40.9451,1.18506,0,0,0,0,0,0,0,-1,699,1170,-40.9451,-1.18507
-518,-146,0,0,0,0,0,0,0,0,0,-1,706,1170,0,0
-511,-146,0,0,0,0,0,0,0,0,0,-1,713,1170,0,0
-504,-146,0,0,0,0,0,0,0,0,0,-1,720,1170,0,0
-497,-146,0,0,0,0,0,0,0,0,0,-1,727,1170,0,0
-490,-146,0,0,0,0,0,0,0,0,0,-1,734,1170,0,0
-483,-146,0,0,0,0,0,0,0,0,0,-1,741,1170,0,0
-476,-146,0,0,0,0,0,0,0,0,0,-1,748,1170,0,0
-469,-146,0,0,0,0,0,0,0,0,0,-1,755,1170,0,0
-462,-146,0,0,0,0,0,0,0,0,0,-1,762,1170,0,0
-455,-146,0,0,0,0,0,0,0,0,0,-1,769,1170,0,0
-448,-146,0,0,0,0,0,0,0,0,0,-1,776,1170,0,0
-441,-146,0,0,0,0,0,0,0,0,0,-1,783,1170,0,0
-434,-146,0,0,0,0,0,0,0,0,0,-1,790,1170,0,0
-427,-146,0,0,0,0,0,0,0,0,0,-1,797,1170,0,0
-420,-146,0,0,0,0,0,0,0,0,0,-1,804,1170,0,0
-413,-146,0,0,0,0,0,0,0,0,0,-1,811,1170,0,0
-406,-146,0,0,0,0,0,0,0,0,0,-1,818,1170,0,0
-399,-146,0,0,0,0,0,0,0,0,0,-1,825,1170,0,0
-392,-146,0,0,0,0,0,0,0,0,0,-1,832,1170,0,0
-385,-146,0,0,0,0,0,0,0,0,0,-1,839,1170,0,0
-378,-146,0,0,0,0,0,0,0,0,0,-1,846,1170,0,0
-371,-146,0,0,0,0,0,0,0,0,0,-1,853,1170,0,0
-364,-146,0,0,0,0,0,0,0,0,0,-1,860,1170,0,0
-357,-146,0,0,0,0,0,0,0,0,0,-1,867,1170,0,0
-350,-146,0,0,0,0,0,0,0,0,0,-1,874,1170,0,0
-343,-146,0,0,0,0,0,0,0,0,0,-1,881,1170,0,0
-336,-146,0,0,0,0,0,0,0,0,0,-1,888,1170,0,0
-329,-146,0,0,0,0,0,0,0,0,0,-1,895,1170,0,0
-322,-146,0,0,0,0,0,0,0,0,0,-1,902,1170,0,0
-315,-146,0,0,0,0,0,0,0,0,0,-1,909,1170,0,0
-308,-146,0,0,0,0,0,0,0,0,0,-1,916,1170,0,0
-301,-146,0,0,0,0,0,0,0,0,0,-1,923,1170,0,0
-294,-146,0,0,0,0,0,0,0,0,0,-1,930,1170,0,0
-287,-146,0,0,0,0,0,0,0,0,0,-1,937,1170,0,0
-280,-146,0,0,0,0,0,0,0,0,0,-1,944,1170,0,0
-273,-146,0,0,0,0,0,0,0,0,0,-1,951,1170,0,0
-266,-146,0,0,0,0,0,0,0,0,0,-1,958,1170,0,0
-259,-146,0,0,0,0,0,0,0,0,0,-1,965,1170,0,0
-252,-146,0,0,0,0,0,0,0,0,0,-1,972,1170,0,0
-245,-146,0,0,0,0,0,0,0,0,0,-1,979,1170,0,0
-238,-146,0,0,0,0,0,0,0,0,0,-1,986,1170,0,0
-231,-146,0,0,0,0,0,0,0,0,0,-1,993,1170,0,0
-224,-146,0,0,0,0,0,0,0,0,0,-1,1000,1170,0,0
-217,-146,0,0,0,0,0,0,0,0,0,-1,1007,1170,0,0
-210,-146,0,0,0,0,0,0,0,0,0,-1,1014,1170,0,0
-203,-146,0,0,0,0,0,0,0,0,0,-1,1021,1170,0,0
-196,-146,0,0,0,0,0,0,0,0,0,-1,1028,1170,0,0
-189,-146,0,0,0,0,0,0,0,0,0,-1,1035,1170,0,0
-182,-146,0,0,0,0,0,0,0,0,0,-1,1042,1170,0,0
-175,-146,0,0,0,0,0,0,0,0,0,-1,1049,1170,0,0
-168,-146,0,0,0,0,0,0,0,0,0,-1,1056,1170,0,0
-161,-146,0,0,0,0,0,0,0,0,0,-1,1063,1170,0,0
-154,-146,0,0,0,0,0,0,0,0,0,-1,1070,1170,0,0
-147,-146,0,0,0,0,0,0,0,0,0,-1,1077,1170,0,0
-140,-146,0,0,0,0,0,0,0,0,0,-1,1084,1170,0,0
-133,-146,0,0,0,0,0,0,0,0,0,-1,1091,1170,0,0
-126,-146,0,0,0,0,0,0,0,0,0,-1,1098,1170,0,0
-119,-146,0,0,0,0,0,0,0,0,0,-1,1105,1170,0,0
-112,-146,0,0,0,0,0,0,0,0,0,-1,1112,1170,0,0
-105,-146,0,0,0,0,0,0,0,0,0,-1,1119,1170,0,0
-98,-146,0,0,0,0,0,0,0,0,0,-1,1126,1170,0,0
-91,-146,0,0,0,0,0,0,0,0,0,-1,1133,1170,0,0
-84,-146,0,0,0,0,0,0,0,0,0,-1,1140,1170,0,0
-77,-146,0,0,0,0,0,0,0,0,0,-1,1147,1170,0,0
-70,-146,0,0,0,0,0,0,0,0,0,-1,1154,1170,0,0
-63,-146,0,0,0,0,0,0,0,0,0,-1,1161,1170,0,0
-56,-146,0,0,0,0,0,0,0,0,0,-1,1168,1170,0,0
-49,-146,0,0,0,0,0,0,0,0,0,-1,1175,1170,0,0
-42,-146,0,0,0,0,0,0,0,0,0,-1,1182,1170,0,0
-35,-146,0,0,0,0,0,0,0,0,0,-1,1189,1170,0,0
-28,-146,0,0,0,0,0,0,0,0,0,-1,1196,1170,0,0
-21,-146,0,0,0,0,0,0,0,0,0,-1,1203,1170,0,0
-14,-146,0,0,0,0,0,0,0,0,0,-1,1210,1170,0,0
-7,-146,0,0,0,0,0,0,0,0,0,-1,1217,1170,0,0
0,-146,0,0,0,0,0,0,0,0,0,-1,1224,1170,0,0
7,-146,0,0,0,0,0,0,0,0,0,-1,1231,1170,0,0
14,-146,0,0,0,0,0,0,0,0,0,-1,1238,1170,0,0
21,-146,0,0,0,0,0,0,0,0,0,-1,1245,1170,0,0
28,-146,0,0,0,0,0,0,0,0,0,-1,1252,1170,0,0
35,-146,0,0,0,0,0,0,0,0,0,-1,1259,1170,0,0
42,-146,0,0,0,0,0,0,0,0,0,-1,1266,1170,0,0
49,-146,0,0,0,0,0,0,0,0,0,-1,1273,1170,0,0
56,-146,0,0,0,0,0,0,0,0,0,-1,1280,1170,0,0
63,-146,0,0,0,0,0,0,0,0,0,-1,1287,1170,0,0
70,-146,0,0,0,0,0,0,0,0,0,-1,1294,1170,0,0
77,-146,0,0,0,0,0,0,0,0,0,-1,1301,1170,0,0
84,-146,0,0,0,0,0,0,0,0,0,-1,1308,1170,0,0
91,-146,0,0,0,0,0,0,0,0,0,-1,1315,1170,0,0
98,-146,0,0,0,0,0,0,0,0,0,-1,1322,1170,0,0
105,-146,0,0,0,0,0,0,0,0,0,-1,1329,1170,0,0
112,-146,0,0,0,0,0,0,0,0,0,-1,1336,1170,0,0
119,-146,0,0,0,0,0,0,0,0,0,-1,1343,1170,0,0
126,-146,0,0,0,0,0,0,0,0,0,-1,1350,1170,0,0
133,-146,0,0,0,0,0,0,0,0,0,-1,1357,1170,0,0
140,-146,0,0,0,0,0,0,0,0,0,-1,1364,1170,0,0
147,-146,0,0,0,0,0,0,0,0,0,-1,1371,1170,0,0
154,-146,0,0,0,0,0,0,0,0,0,-1,1378,1170,0,0
161,-146,0,0,0,0,0,0,0,0,0,-1,1385,1170,0,0
168,-146,0,0,0,0,0,0,0,0,0,-1,1392,1170,0,0
175,-146,0,0,0,0,0,0,0,0,0,-1,1399,1170,0,0
182,-146,0,0,0,0,0,0,0,0,0,-1,1406,1170,0,0
189,-146,0,0,0,0,0,0,0,0,0,-1,1413,1170,0,0
196,-146,0,0,0,0,0,0,0,0,0,-1,1420,1170,0,0
203,-146,0,0,0,0,0,0,0,0,0,-1,1427,1170,0,0
210,-146,0,0,0,0,0,0,0,0,0,-1,1434,1170,0,0
217,-146,0,0,0,0,0,0,0,0,0,-1,1441,1170,0,0
224,-146,0,0,0,0,0,0,0,0,0,-1,1448,1170,0,0
231,-146,0,0,0,0,0,0,0,0,0,-1,1455,1170,0,0
238,-146,0,0,0,0,0,0,0,0,0,-1,1462,1170,0,0
245,-146,0,0,0,0,0,0,0,0,0,-1,1469,1170,0,0
252,-146,0,0,0,0,0,0,0,0,0,-1,1476,1170,0,0
259,-146,0,0,0,0,0,0,0,0,0,-1,1483,1170,0,0
266,-146,0,0,0,0,0,0,0,0,0,-1,1490,1170,0,0
273,-146,0,0,0,0,0,0,0,0,0,-1,1497,1170,0,0
280,-146,0,0,0,0,0,0,0,0,0,-1,1504,1170,0,0
287,-146,0,0,0,0,0,0,0,0,0,-1,1511,1170,0,0
294,-146,0,0,0,0,0,0,0,0,0,-1,1518,1170,0,0
301,-146,0,0,0,0,0,0,0,0,0,-1,1525,1170,0,0
308,-146,0,0,0,0,0,0,0,0,0,-1,1532,1170,0,0
315,-146,0,0,0,0,0,0,0,0,0,-1,1539,1170,0,0
322,-146,0,0,0,0,0,0,0,0,0,-1,1546,1170,0,0
329,-146,0,0,0,0,0,0,0,0,0,-1,1553,1170,0,0
336,-146,0,0,0,0,0,0,0,0,0,-1,1560,1170,0,0
343,-146,0,0,0,0,0,0,0,0,0,-1,1567,1170,0,0
350,-146,0,0,0,0,0,0,0,0,0,-1,1574,1170,0,0
357,-146,0,0,0,0,0,0,0,0,0,-1,1581,1170,0,0
364,-146,0,0,0,0,0,0,0,0,0,-1,1588,1170,0,0
371,-146,0,0,0,0,0,0,0,0,0,-1,1595,1170,0,0
378,-146,0,0,0,0,0,0,0,0,0,-1,1602,1170,0,0
385,-146,0,0,0,0,0,0,0,0,0,-1,1609,1170,0,0
392,-146,0,0,0,0,0,0,0,0,0,-1,1616,1170,0,0
399,-146,0,0,0,0,0,0,0,0,0,-1,1623,1170,0,0
406,-146,0,0,0,0,0,0,0,0,0,-1,1630,1170,0,0
413,-146,0,0,0,0,0,0,0,0,0,-1,1637,1170,0,0
420,-146,0,0,0,0,0,0,0,0,0,-1,1644,1170,0,0
427,-146,0,0,0,0,0,0,0,0,0,-1,1651,1170,0,0
434,-146,0,0,0,0,0,0,0,0,0,-1,1658,1170,0,0
441,-146,0,0,0,0,0,0,0,0,0,-1,1665,1170,0,0
448,-146,0,0,0,0,0,0,0,0,0,-1,1672,1170,0,0
455,-146,0,0,0,0,0,0,0,0,0,-1,1679,1170,0,0
462,-146,0,0,0,0,0,0,0,0,0,-1,1686,1170,0,0
469,-146,0,0,0,0,0,0,0,0,0,-1,1693,1170,0,0
476,-146,0,0,0,0,0,0,0,0,0,-1,1700,1170,0,0
483,-146,0,0,0,0,0,0,0,0,0,-1,1707,1170,0,0
490,-146,0,0,0,0,0,0,0,0,0,-1,1714,1170,0,0
497,-146,0,0,0,0,0,0,0,0,0,-1,1721,1170,0,0
504,-146,0,0,0,0,0,0,0,0,0,-1,1728,1170,0,0
511,-146,0,0,0,0,0,0,0,0,0,-1,1735,1170,0,0
518,-146,0,0,0,0,0,0,0,0,0,-1,1742,1170,0,0
525,-146,0,0,0,0,0,0,0,0,0,-1,1749,1170,0,0
532,-146,0,0,0,0,0,0,0,0,0,-1,1756,1170,0,0
539,-146,0,0,0,0,0,0,0,0,0,-1,1763,1170,0,0
546,-146,0,0,0,0,0,0,0,0,0,-1,1770,1170,0,0
553,-146,0,0,0,0,0,0,0,0,0,-1,1777,1170,0,0
560,-146,0,0,0,0,0,0,0,0,0,-1,1784,1170,0,0
567,-146,0,0,0,0,0,0,0,0,0,-1,1791,1170,0,0
574,-146,0,0,0,0,0,0,0,0,0,-1,1798,1170,0,0
581,-146,0,0,0,0,0,0,0,0,0,-1,1805,1170,0,0
588,-146,0,0,0,0,0,0,0,0,0,-1,1812,1170,0,0
595,-146,0,0,0,0,0,0,0,0,0,-1,1819,1170,0,0
602,-146,0,0,0,0,0,0,0,0,0,-1,1826,1170,0,0
609,-146,0,0,0,0,0,0,0,0,0,-1,1833,1170,0,0
616,-146,0,0,0,0,0,0,0,0,0,-1,1840,1170,0,0
623,-146,0,0,0,0,0,0,0,0,0,-1,1847,1170,0,0
630,-146,0,0,0,0,0,0,0,0,0,-1,1854,1170,0,0
637,-146,54.7849,2.62476,0.00501133,-0.00268484,0.00234123,0.00566759,-0.0033411,0.273292,0.00525866,0.0396862,1861,1170,54.7849,-2.62479
644,-146,54.7134,2.6626,0.00331038,-0.00155489,0.00256524,0.00441302,-0.00265753,0.405961,0.00412391,0.0367785,1868,1170,54.7134,-2.66255
651,-146,54.725,2.73401,0.00219848,-0.000590775,0.00232187,0.00351237,-0.00190467,0.51495,0.00317311,0.03583,1875,1170,54.7249,-2.73404
658,-146,54.7454,2.79077,0.00148361,0.000165645,0.00187047,0.00280778,-0.00115853,0.616033,0.00235501,0.0395339,1882,1170,54.7454,-2.79075
665,-146,54.7408,3.02734,0.00103503,0.000833897,0.0012587,0.00219717,-0.000328245,0.745534,0.00158556,0.0393728,1889,1170,54.7409,-3.02729
672,-146,54.7245,3.13818,0.00063148,0.00134993,0.000691547,0.00176998,0.000211422,1.02494,0.00111621,0.0383852,1896,1170,54.7245,-3.13818
679,-146,54.697,3.00195,0.000338484,0.0013069,0.000325358,0.00140606,0.000239327,1.27498,0.000868658,0.0325431,1903,1170,54.6971,-3.0019
686,-146,54.5933,2.87134,0.000171082,0.00096646,0.000250349,0.0010387,9.88439e-05,1.28988,0.000661982,0.0250874,1910,1170,54.5933,-2.87133
693,-146,54.672,2.84924,1.02541e-07,0.000774679,0.000313556,0.000885697,-0.000110916,1.23051,0.000630696,0.0183235,1917,1170,54.672,-2.84921
700,-146,54.7778,2.70935,0,0,0,0,0,0,0,-1,1924,1170,54.7779,-2.70941
707,-146,29.9441,6.94653,0,0,0,0,0,0,0,-1,1931,1170,29.9441,-6.94652
714,-146,31.325,6.13245,0,0,0,0,0,0,0,-1,1938,1170,31.325,-6.1325
721,-146,47.9572,8.13843,0,0,0,0,0,0,0,-1,1945,1170,47.9572,-8.13847
728,-146,47.9137,8.03735,0,0,0,0,0,0,0,-1,1952,1170,47.9137,-8.03736
735,-146,47.847,7.38806,-0.000551274,8.38852e-05,0.000846948,0.000670837,-0.00113823,0.96477,0.00105602,0.0341457,1959,1170,47.847,-7.38808
742,-146,47.9091,6.90979,-0.000859597,0.000205372,0.00140741,0.00117766,-0.00183189,0.966247,0.0017512,0.0186941,1966,1170,47.909,-6.90979
749,-146,47.8759,6.52209,-0.00129901,0.00127986,0.00183787,0.00223551,-0.00225465,1.0913,0.00259241,0.0152343,1973,1170,47.8758,-6.52211
756,-146,47.8772,6.05908,-0.00149423,0.00428652,0.00142908,0.00462051,-0.00182822,1.34121,0.00383776,0.0112488,1980,1170,47.8772,-6.05903
763,-146,47.8414,5.61047,-0.00144809,0.00881732,0.000124057,0.00881882,-0.00144959,1.55871,0.00641722,0.010993,1987,1170,47.8414,-5.61051
770,-146,47.8086,5.19116,-0.00160516,0.0144148,-0.00164238,0.0145815,-0.0017718,-1.46968,0.0103622,0.0129797,1994,1170,47.8087,-5.19113
777,-146,47.8301,4.90015,-0.00194635,0.0214363,-0.00416659,0.0221565,-0.00266661,-1.39962,0.0157354,0.0249959,2001,1170,47.83,-4.90015
784,-146,47.7593,4.5614,-0.00251517,0.0303769,-0.00772931,0.0321027,-0.00424094,-1.35112,0.0229464,0.0432515,2008,1170,47.7592,-4.56138
791,-146,47.7883,4.13733,-0.00324581,0.0417111,-0.012735,0.0450679,-0.00660264,-1.31307,0.0324707,0.0460928,2015,1170,47.7884,-4.13728
798,-146,47.1184,3.62903,-0.00417072,0.0558141,-0.0194953,0.0615933,-0.00994996,-1.28261,0.0447491,0.0445776,2022,1170,47.1184,-3.62898
805,-146,46.9155,3.47034,-0.00514442,0.0733186,-0.0285173,0.0825881,-0.0144139,-1.25652,0.060439,0.0436496,2029,1170,46.9156,-3.47031
812,-146,0,0,0,0,0,0,0,0,0,-1,2036,1170,0,0
-700,-153,0,0,0,0,0,0,0,0,0,-1,524,1177,0,0
-693,-153,0,0,0,0,0,0,0,0,0,-1,531,1177,0,0
-686,-153,-35.0149,-2.2749,0.0297972,-0.0166224,-4.90472e-05,0.0297973,-0.0166225,-0.0010566,0.0271579,0.0459692,538,1177,-35.0149,2.27492
-679,-153,-34.2811,-1.61536,0.0257294,-0.0108706,0.00251801,0.0259018,-0.011043,0.0683687,0.0218976,0.0481388,545,1177,-34.2811,1.61539
-672,-153,-33.7144,-0.550171,0.021746,-0.00668672,0.00369793,0.0222191,-0.0071598,0.127239,0.0176891,0.0430996,552,1177,-33.7143,0.550158
-665,-153,-33.4418,0.23645,0.018053,-0.00359682,0.00400027,0.0187685,-0.00431231,0.176989,0.0141702,0.0462454,559,1177,-33.4418,-0.236461
-658,-153,-33.4031,0.812378,0.0147174,-0.0013259,0.00371396,0.0155354,-0.00214395,0.216803,0.0111406,0.0489328,566,1177,-33.4032,-0.812388
-651,-153,-33.3195,1.37585,0.0116434,0.000278515,0.00304647,0.0124086,-0.000486607,0.246061,0.00843926,0.0459786,573,1177,-33.3195,-1.37584
-644,-153,-33.1486,1.89221,0.00871962,0.00130114,0.00215815,0.00930178,0.000718982,0.263476,0.00597596,0.0298947,580,1177,-33.1486,-1.89218
-637,-153,-33.1832,2.44434,0.00592052,0.00225048,0.00122498,0.00629183,0.00187918,0.29431,0.00372946,0.0130855,587,1177,-33.1832,-2.44429
-630,-153,-33.2238,2.93835,0.00334504,0.00253213,0.000557565,0.00362858,0.0022486,0.470441,0.00211487,0.0109079,594,1177,-33.2237,-2.93833
-623,-153,-33.2687,3.42761,0.00136644,0.00182216,-0.000775355,0.00240245,0.00078616,-0.928313,0.00141438,0.0117723,601,1177,-33.2687,-3.42759
-616,-153,-33.3165,3.91736,-0.000193291,0.000820595,-0.00150431,0.00190108,-0.00127378,-0.947919,0.0018449,0.014982,608,1177,-33.3164,-3.91732
-609,-153,-33.2391,4.38916,-0.000574757,1.31901e-06,-0.00142971,0.00117172,-0.00174516,-0.8848,0.00169488,0.0260963,615,1177,-33.2391,-4.3891
-602,-153,-33.1121,4.81262,0,0,0,0,0,0,0,-1,622,1177,-33.1121,-4.81258
-595,-153,-33.5994,5.47327,0,0,0,0,0,0,0,-1,629,1177,-33.5994,-5.47329
-588,-153,-32.348,5.51038,0,0,0,0,0,0,0,-1,636,1177,-32.348,-5.51034
-581,-153,-31.3984,6.18799,0,0,0,0,0,0,0,-1,643,1177,-31.3985,-6.18796
-574,-153,-25.4814,5.16956,0,0,0,0,0,0,0,-1,650,1177,-25.4814,-5.16961
-567,-153,-35.3121,1.09485,0,0,0,0,0,0,0,-1,657,1177,-35.3121,-1.09482
-560,-153,-40.7126,1.11108,0,0,0,0,0,0,0,-1,664,1177,-40.7126,-1.11112
-553,-153,-40.6803,1.11438,0.00161534,-0.00146452,-0.002808,0.00327795,-0.00312713,-0.534588,0.00369831,0.0377469,671,1177,-40.6803,-1.11439
-546,-153,-40.4883,0.905762,0.00222134,-0.000873439,-0.00252674,0.00363686,-0.00228896,-0.510653,0.00345065,0.0397191,678,1177,-40.4884,-0.905819
-539,-153,-40.7623,0.869507,0.00301176,0.000562309,-0.00127517,0.00355508,1.89844e-05,-0.402787,0.00236375,0.0427627,685,1177,-40.7624,-0.869506
-532,-153,-40.9623,0.847778,0.00393089,0.00234337,0.000940845,0.00436808,0.00190618,0.434996,0.00252871,0.044944,692,1177,-40.9623,-0.847836
-525,-153,-40.7283,1.1106,0.0051838,0.00444141,0.00365856,0.00848994,0.00113526,0.734842,0.00532206,0.0401059,699,1177,-40.7283,-1.11065
-518,-153,0,0,0,0,0,0,0,0,0,-1,706,1177,0,0
-511,-153,0,0,0,0,0,0,0,0,0,-1,713,1177,0,0
-504,-153,0,0,0,0,0,0,0,0,0,-1,720,1177,0,0
-497,-153,0,0,0,0,0,0,0,0,0,-1,727,1177,0,0
-490,-153,0,0,0,0,0,0,0,0,0,-1,734,1177,0,0
-483,-153,0,0,0,0,0,0,0,0,0,-1,741,1177,0,0
-476,-153,0,0,0,0,0,0,0,0,0,-1,748,1177,0,0
-469,-153,0,0,0,0,0,0,0,0,0,-1,755,1177,0,0
-462,-153,0,0,0,0,0,0,0,0,0,-1,762,1177,0,0
-455,-153,0,0,0,0,0,0,0,0,0,-1,769,1177,0,0
-448,-153,0,0,0,0,0,0,0,0,0,-1,776,1177,0,0
-441,-153,0,0,0,0,0,0,0,0,0,-1,783,1177,0,0
-434,-153,0,0,0,0,0,0,0,0,0,-1,790,1177,0,0
-427,-153,0,0,0,0,0,0,0,0,0,-1,797,1177,0,0
-420,-153,0,0,0,0,0,0,0,0,0,-1,804,1177,0,0
-413,-153,0,0,0,0,0,0,0,0,0,-1,811,1177,0,0
-406,-153,0,0,0,0,0,0,0,0,0,-1,818,1177,0,0
-399,-153,0,0,0,0,0,0,0,0,0,-1,825,1177,0,0
-392,-153,0,0,0,0,0,0,0,0,0,-1,832,1177,0,0
-385,-153,0,0,0,0,0,0,0,0,0,-1,839,1177,0,0
-378,-153,0,0,0,0,0,0,0,0,0,-1,846,1177,0,0
-371,-153,0,0,0,0,0,0,0,0,0,-1,853,1177,0,0
-364,-153,0,0,0,0,0,0,0,0,0,-1,860,1177,0,0
-357,-153,0,0,0,0,0,0,0,0,0,-1,867,1177,0,0
-350,-153,0,0,0,0,0,0,0,0,0,-1,874,1177,0,0
-343,-153,0,0,0,0,0,0,0,0,0,-1,881,1177,0,0
-336,-153,0,0,0,0,0,0,0,0,0,-1,888,1177,0,0
-329,-153,0,0,0,0,0,0,0,0,0,-1,895,1177,0,0
-322,-153,0,0,0,0,0,0,0,0,0,-1,902,1177,0,0
-315,-153,0,0,0,0,0,0,0,0,0,-1,909,1177,0,0
-308,-153,0,0,0,0,0,0,0,0,0,-1,916,1177,0,0
-301,-153,0,0,0,0,0,0,0,0,0,-1,923,1177,0,0
-294,-153,0,0,0,0,0,0,0,0,0,-1,930,1177,0,0
-287,-153,0,0,0,0,0,0,0,0,0,-1,937,1177,0,0
-280,-153,0,0,0,0,0,0,0,0,0,-1,944,1177,0,0
-273,-153,0,0,0,0,0,0,0,0,0,-1,951,1177,0,0
-266,-153,0,0,0,0,0,0,0,0,0,-1,958,1177,0,0
-259,-153,0,0,0,0,0,0,0,0,0,-1,965,1177,0,0
-252,-153,0,0,0,0,0,0,0,0,0,-1,972,1177,0,0
-245,-153,0,0,0,0,0,0,0,0,0,-1,979,1177,0,0
-238,-153,0,0,0,0,0,0,0,0,0,-1,986,1177,0,0
-231,-153,0,0,0,0,0,0,0,0,0,-1,993,1177,0,0
-224,-153,0,0,0,0,0,0,0,0,0,-1,1000,1177,0,0
-217,-153,0,0,0,0,0,0,0,0,0,-1,1007,1177,0,0
-210,-153,0,0,0,0,0,0,0,0,0,-1,1014,1177,0,0
-203,-153,0,0,0,0,0,0,0,0,0,-1,1021,1177,0,0
-196,-153,0,0,0,0,0,0,0,0,0,-1,1028,1177,0,0
-189,-153,0,0,0,0,0,0,0,0,0,-1,1035,1177,0,0
-182,-153,0,0,0,0,0,0,0,0,0,-1,1042,1177,0,0
-175,-153,0,0,0,0,0,0,0,0,0,-1,1049,1177,0,0
-168,-153,0,0,0,0,0,0,0,0,0,-1,1056,1177,0,0
-161,-153,0,0,0,0,0,0,0,0,0,-1,1063,1177,0,0
-154,-153,0,0,0,0,0,0,0,0,0,-1,1070,1177,0,0
-147,-153,0,0,0,0,0,0,0,0,0,-1,1077,1177,0,0
-140,-153,0,0,0,0,0,0,0,0,0,-1,1084,1177,0,0
-133,-153,0,0,0,0,0,0,0,0,0,-1,1091,1177,0,0
-126,-153,0,0,0,0,0,0,0,0,0,-1,1098,1177,0,0
-119,-153,0,0,0,0,0,0,0,0,0,-1,1105,1177,0,0
-112,-153,0,0,0,0,0,0,0,0,0,-1,1112,1177,0,0
-105,-153,0,0,0,0,0,0,0,0,0,-1,1119,1177,0,0
-98,-153,0,0,0,0,0,0,0,0,0,-1,1126,1177,0,0
-91,-153,0,0,0,0,0,0,0,0,0,-1,1133,1177,0,0
-84,-153,0,0,0,0,0,0,0,0,0,-1,1140,1177,0,0
-77,-153,0,0,0,0,0,0,0,0,0,-1,1147,1177,0,0
-70,-153,0,0,0,0,0,0,0,0,0,-1,1154,1177,0,0
-63,-153,0,0,0,0,0,0,0,0,0,-1,1161,1177,0,0
-56,-153,0,0,0,0,0,0,0,0,0,-1,1168,1177,0,0
-49,-153,0,0,0,0,0,0,0,0,0,-1,1175,1177,0,0
-42,-153,0,0,0,0,0,0,0,0,0,-1,1182,1177,0,0
-35,-153,0,0,0,0,0,0,0,0,0,-1,1189,1177,0,0
-28,-153,0,0,0,0,0,0,0,0,0,-1,1196,1177,0,0
-21,-153,0,0,0,0,0,0,0,0,0,-1,1203,1177,0,0
-14,-153,0,0,0,0,0,0,0,0,0,-1,1210,1177,0,0
-7,-153,0,0,0,0,0,0,0,0,0,-1,1217,1177,0,0
0,-153,0,0,0,0,0,0,0,0,0,-1,1224,1177,0,0
7,-153,0,0,0,0,0,0,0,0,0,-1,1231,1177,0,0
14,-153,0,0,0,0,0,0,0,0,0,-1,1238,1177,0,0
21,-153,0,0,0,0,0,0,0,0,0,-1,1245,1177,0,0
28,-153,0,0,0,0,0,0,0,0,0,-1,1252,1177,0,0
35,-153,0,0,0,0,0,0,0,0,0,-1,1259,1177,0,0
42,-153,0,0,0,0,0,0,0,0,0,-1,1266,1177,0,0
49,-153,0,0,0,0,0,0,0,0,0,-1,1273,1177,0,0
56,-153,0,0,0,0,0,0,0,0,0,-1,1280,1177,0,0
63,-153,0,0,0,0,0,0,0,0,0,-1,1287,1177,0,0
70,-153,0,0,0,0,0,0,0,0,0,-1,1294,1177,0,0
77,-153,0,0,0,0,0,0,0,0,0,-1,1301,1177,0,0
84,-153,0,0,0,0,0,0,0,0,0,-1,1308,1177,0,0
91,-153,0,0,0,0,0,0,0,0,0,-1,1315,1177,0,0
98,-153,0,0,0,0,0,0,0,0,0,-1,1322,1177,0,0
105,-153,0,0,0,0,0,0,0,0,0,-1,1329,1177,0,0
112,-153,0,0,0,0,0,0,0,0,0,-1,1336,1177,0,0
119,-153,0,0,0,0,0,0,0,0,0,-1,1343,1177,0,0
126,-153,0,0,0,0,0,0,0,0,0,-1,1350,1177,0,0
133,-153,0,0,0,0,0,0,0,0,0,-1,1357,1177,0,0
140,-153,0,0,0,0,0,0,0,0,0,-1,1364,1177,0,0
147,-153,0,0,0,0,0,0,0,0,0,-1,1371,1177,0,0
154,-153,0,0,0,0,0,0,0,0,0,-1,1378,1177,0,0
161,-153,0,0,0,0,0,0,0,0,0,-1,1385,1177,0,0
168,-153,0,0,0,0,0,0,0,0,0,-1,1392,1177,0,0
175,-153,0,0,0,0,0,0,0,0,0,-1,1399,1177,0,0
182,-153,0,0,0,0,0,0,0,0,0,-1,1406,1177,0,0
189,-153,0,0,0,0,0,0,0,0,0,-1,1413,1177,0,0
196,-153,0,0,0,0,0,0,0,0,0,-1,1420,1177,0,0
203,-153,0,0,0,0,0,0,0,0,0,-1,1427,1177,0,0
210,-153,0,0,0,0,0,0,0,0,0,-1,1434,1177,0,0
217,-153,0,0,0,0,0,0,0,0,0,-1,1441,1177,0,0
224,-153,0,0,0,0,0,0,0,0,0,-1,1448,1177,0,0
231,-153,0,0,0,0,0,0,0,0,0,-1,1455,1177,0,0
238,-153,0,0,0,0,0,0,0,0,0,-1,1462,1177,0,0
245,-153,0,0,0,0,0,0,0,0,0,-1,1469,1177,0,0
252,-153,0,0,0,0,0,0,0,0,0,-1,1476,1177,0,0
259,-153,0,0,0,0,0,0,0,0,0,-1,1483,1177,0,0
266,-153,0,0,0,0,0,0,0,0,0,-1,1490,1177,0,0
273,-153,0,0,0,0,0,0,0,0,0,-1,1497,1177,0,0
280,-153,0,0,0,0,0,0,0,0,0,-1,1504,1177,0,0
287,-153,0,0,0,0,0,0,0,0,0,-1,1511,1177,0,0
294,-153,0,0,0,0,0,0,0,0,0,-1,1518,1177,0,0
301,-153,0,0,0,0,0,0,0,0,0,-1,1525,1177,0,0
308,-153,0,0,0,0,0,0,0,0,0,-1,1532,1177,0,0
315,-153,0,0,0,0,0,0,0,0,0,-1,1539,1177,0,0
322,-153,0,0,0,0,0,0,0,0,0,-1,1546,1177,0,0
329,-153,0,0,0,0,0,0,0,0,0,-1,1553,1177,0,0
336,-153,0,0,0,0,0,0,0,0,0,-1,1560,1177,0,0
343,-153,0,0,0,0,0,0,0,0,0,-1,1567,1177,0,0
350,-153,0,0,0,0,0,0,0,0,0,-1,1574,1177,0,0
357,-153,0,0,0,0,0,0,0,0,0,-1,1581,1177,0,0
364,-153,0,0,0,0,0,0,0,0,0,-1,1588,1177,0,0
371,-153,0,0,0,0,0,0,0,0,0,-1,1595,1177,0,0
378,-153,0,0,0,0,0,0,0,0,0,-1,1602,1177,0,0
385,-153,0,0,0,0,0,0,0,0,0,-1,1609,1177,0,0
392,-153,0,0,0,0,0,0,0,0,0,-1,1616,1177,0,0
399,-153,0,0,0,0,0,0,0,0,0,-1,1623,1177,0,0
406,-153,0,0,0,0,0,0,0,0,0,-1,1630,1177,0,0
413,-153,0,0,0,0,0,0,0,0,0,-1,1637,1177,0,0
420,-153,0,0,0,0,0,0,0,0,0,-1,1644,1177,0,0
427,-153,0,0,0,0,0,0,0,0,0,-1,1651,1177,0,0
434,-153,0,0,0,0,0,0,0,0,0,-1,1658,1177,0,0
441,-153,0,0,0,0,0,0,0,0,0,-1,1665,1177,0,0
448,-153,0,0,0,0,0,0,0,0,0,-1,1672,1177,0,0
455,-153,0,0,0,0,0,0,0,0,0,-1,1679,1177,0,0
462,-153,0,0,0,0,0,0,0,0,0,-1,1686,1177,0,0
469,-153,0,0,0,0,0,0,0,0,0,-1,1693,1177,0,0
476,-153,0,0,0,0,0,0,0,0,0,-1,1700,1177,0,0
483,-153,0,0,0,0,0,0,0,0,0,-1,1707,1177,0,0
490,-153,0,0,0,0,0,0,0,0,0,-1,1714,1177,0,0
497,-153,0,0,0,0,0,0,0,0,0,-1,1721,1177,0,0
504,-153,0,0,0,0,0,0,0,0,0,-1,1728,1177,0,0
511,-153,0,0,0,0,0,0,0,0,0,-1,1735,1177,0,0
518,-153,0,0,0,0,0,0,0,0,0,-1,1742,1177,0,0
525,-153,0,0,0,0,0,0,0,0,0,-1,1749,1177,0,0
532,-153,0,0,0,0,0,0,0,0,0,-1,1756,1177,0,0
539,-153,0,0,0,0,0,0,0,0,0,-1,1763,1177,0,0
546,-153,0,0,0,0,0,0,0,0,0,-1,1770,1177,0,0
553,-153,0,0,0,0,0,0,0,0,0,-1,1777,1177,0,0
560,-153,0,0,0,0,0,0,0,0,0,-1,1784,1177,0,0
567,-153,0,0,0,0,0,0,0,0,0,-1,1791,1177,0,0
574,-153,0,0,0,0,0,0,0,0,0,-1,1798,1177,0,0
581,-153,0,0,0,0,0,0,0,0,0,-1,1805,1177,0,0
588,-153,0,0,0,0,0,0,0,0,0,-1,1812,1177,0,0
595,-153,0,0,0,0,0,0,0,0,0,-1,1819,1177,0,0
602,-153,0,0,0,0,0,0,0,0,0,-1,1826,1177,0,0
609,-153,0,0,0,0,0,0,0,0,0,-1,1833,1177,0,0
616,-153,0,0,0,0,0,0,0,0,0,-1,1840,1177,0,0
623,-153,0,0,0,0,0,0,0,0,0,-1,1847,1177,0,0
630,-153,0,0,0,0,0,0,0,0,0,-1,1854,1177,0,0
637,-153,54.6732,2.86047,0.00381529,-0.00194932,0.00262614,0.00483225,-0.00296628,0.369463,0.00454524,0.0391921,1861,1177,54.6732,-2.86052
644,-153,54.6603,2.83215,0.00246076,-0.00102974,0.00258931,0.00383808,-0.00240706,0.488859,0.00363705,0.0373136,1868,1177,54.6602,-2.8322
651,-153,54.6143,2.90369,0.00162075,-0.000216642,0.00220856,0.00309407,-0.00168996,0.588299,0.00280143,0.0309414,1875,1177,54.6142,-2.90366
658,-153,54.6389,2.80872,0.00116922,0.00043946,0.00164038,0.00248481,-0.000876127,0.675961,0.00201317,0.0363949,1882,1177,54.6389,-2.80868
665,-153,54.7352,2.79468,0.000995291,0.000963441,0.000941113,0.00192061,3.81182e-05,0.776938,0.00126789,0.0389876,1889,1177,54.7353,-2.7947
672,-153,54.7169,2.88843,0.000795178,0.00133044,0.00037989,0.0015275,0.000598113,1.09227,0.000888792,0.0386117,1896,1177,54.7169,-2.88837
679,-153,54.5812,2.84534,0.000642194,0.00114829,4.67416e-05,0.00115257,0.000637913,1.47947,0.000666702,0.0308,1903,1177,54.5811,-2.84529
686,-153,54.6021,2.8562,0.000469429,0.000741665,5.70479e-05,0.000753136,0.000457958,1.37236,0.000438196,0.020071,1910,1177,54.602,-2.85618
693,-153,54.7137,2.83728,0.000260378,0.000559818,0.000157719,0.000627563,0.000192632,1.16509,0.000371217,0.038419,1917,1177,54.7138,-2.8373
700,-153,54.8362,2.79199,0,0,0,0,0,0,0,-1,1924,1177,54.8362,-2.79198
707,-153,29.6483,6.6842,0,0,0,0,0,0,0,-1,1931,1177,29.6483,-6.68415
714,-153,36.0046,6.78418,0,0,0,0,0,0,0,-1,1938,1177,36.0046,-6.78418
721,-153,36.4866,6.47595,0,0,0,0,0,0,0,-1,1945,1177,36.4866,-6.47593
728,-153,46.8535,7.25073,0,0,0,0,0,0,0,-1,1952,1177,46.8535,-7.25069
735,-153,47.3368,7.1416,0,0,0,0,0,0,0,-1,1959,1177,47.3368,-7.14162
742,-153,47.4425,6.96313,-0.000609449,6.29338e-05,0.00140897,0.00117527,-0.00172178,0.902512,0.00168251,0.0151022,1966,1177,47.4425,-6.96317
749,-153,47.4177,6.54871,-0.00093694,0.00129841,0.00173236,0.00224236,-0.00188088,1.07189,0.0023836,0.0152269,1973,1177,47.4177,-6.54873
756,-153,47.4166,6.07288,-0.00103475,0.00453586,0.00120624,0.00478584,-0.00128472,1.36645,0.00369403,0.010645,1980,1177,47.4166,-6.07282
763,-153,47.3905,5.61267,-0.0009758,0.00919454,-0.000103327,0.00919559,-0.000976849,-1.56064,0.0064806,0.0108621,1987,1177,47.3905,-5.61271
770,-153,47.3625,5.16943,-0.00116892,0.014975,-0.00185313,0.015185,-0.00137891,-1.45796,0.0106128,0.0120058,1994,1177,47.3626,-5.16943
777,-153,47.3357,4.72168,-0.00164264,0.0223267,-0.0043224,0.0230823,-0.00239828,-1.39773,0.0162467,0.0249943,2001,1177,47.3357,-4.72168
784,-153,47.4021,4.3374,-0.00243263,0.0317086,-0.00773251,0.0333783,-0.00410229,-1.35813,0.023738,0.0447345,2008,1177,47.402,-4.3374
791,-153,47.3728,3.88733,-0.00351448,0.0437168,-0.0124744,0.046809,-0.00660669,-1.32781,0.0336253,0.0459229,2015,1177,47.3728,-3.88736
798,-153,47.2019,3.40747,-0.0050141,0.0589033,-0.018896,0.0640716,-0.0101825,-1.30381,0.0464818,0.0457297,2022,1177,47.2019,-3.40752
805,-153,47.062,3.17517,-0.00683766,0.0776808,-0.027301,0.0857325,-0.0148893,-1.284,0.0627101,0.0454345,2029,1177,47.0621,-3.17516
812,-153,0,0,0,0,0,0,0,0,0,-1,2036,1177,0,0
-700,-160,0,0,0,0,0,0,0,0,0,-1,524,1184,0,0
-693,-160,0,0,0,0,0,0,0,0,0,-1,531,1184,0,0
-686,-160,-33.6942,-2.55444,0.0214805,-0.0173953,0.00520385,0.022165,-0.0180798,0.130791,0.0232752,0.0481675,538,1184,-33.6942,2.55447
-679,-160,-33.6746,-1.4281,0.0191652,-0.0111533,0.00670197,0.0205807,-0.0125687,0.208134,0.0193242,0.0455908,545,1184,-33.6746,1.42805
-672,-160,-33.3444,-0.405884,0.0168473,-0.00687775,0.00693801,0.0187272,-0.0087577,0.264609,0.0162127,0.0419961,552,1184,-33.3443,0.405914
-665,-160,-32.9329,0.122192,0.0146202,-0.00381518,0.00649799,0.0166804,-0.00587533,0.307019,0.0135114,0.047363,559,1184,-32.9328,-0.122189
-658,-160,-32.9703,0.812012,0,0,0,0,0,0,0,-1,566,1184,-32.9703,-0.81206
-651,-160,-32.7665,1.40918,0,0,0,0,0,0,0,-1,573,1184,-32.7666,-1.40913
-644,-160,-32.6726,1.92114,0.00796726,0.00106002,0.00319626,0.00921933,-0.000192062,0.373358,0.00621123,0.0393054,580,1184,-32.6726,-1.92115
-637,-160,-32.6586,2.43347,0.00568338,0.00207817,0.00186708,0.00647603,0.00128552,0.401483,0.00395904,0.0161767,587,1184,-32.6586,-2.43343
-630,-160,-32.7363,2.91382,0.00344288,0.00246477,0.00100315,0.00406984,0.00183781,0.558593,0.00235339,0.00975589,594,1184,-32.7363,-2.91385
-623,-160,-32.7971,3.38977,0.00157094,0.00179163,-0.000553264,0.00224545,0.00111713,-0.883827,0.00129641,0.0148235,601,1184,-32.797,-3.38978
-616,-160,-32.8286,3.89758,-0.000106568,0.000902646,-0.00158742,0.00206374,-0.00126766,-0.939287,0.0019416,0.0132842,608,1184,-32.8286,-3.89755
-609,-160,-32.8211,4.44434,-0.000726395,0.000113566,-0.00176972,0.00151246,-0.00212528,-0.9019,0.00211016,0.0161959,615,1184,-32.8211,-4.44437
-602,-160,-32.8187,5.00171,0,0,0,0,0,0,0,-1,622,1184,-32.8187,-5.00168
-595,-160,-29.6506,5.44702,0,0,0,0,0,0,0,-1,629,1184,-29.6506,-5.44707
-588,-160,-32.1693,5.48523,0,0,0,0,0,0,0,-1,636,1184,-32.1692,-5.48526
-581,-160,-25.2925,4.6272,0,0,0,0,0,0,0,-1,643,1184,-25.2925,-4.62719
-574,-160,-28.1793,4.33484,0,0,0,0,0,0,0,-1,650,1184,-28.1792,-4.33488
-567,-160,-29.5828,0.643921,0,0,0,0,0,0,0,-1,657,1184,-29.5828,-0.643968
-560,-160,-40.6716,1.1626,0,0,0,0,0,0,0,-1,664,1184,-40.6716,-1.16259
-553,-160,-40.6669,1.10254,0.0014584,-0.00172897,-0.00333932,0.00356483,-0.00383541,-0.562757,0.00427348,0.0403366,671,1184,-40.6668,-1.10251
-546,-160,-40.6281,0.930542,0.00209745,-0.00142185,-0.00299667,0.00381291,-0.00313732,-0.51992,0.00401903,0.0383414,678,1184,-40.628,-0.930508
-539,-160,-40.8264,0.801514,0.00269362,-0.000275408,-0.00142791,0.00326889,-0.000850681,-0.382984,0.00251132,0.0423588,685,1184,-40.8264,-0.801496
-532,-160,-40.7758,0.869019,0.00325123,0.00147381,0.00145435,0.0040669,0.000658129,0.511138,0.0025207,0.0454025,692,1184,-40.7758,-0.869069
-525,-160,-40.558,1.1283,0.00423255,0.00384018,0.0051556,0.00919569,-0.00112296,0.766381,0.00653701,0.0418336,699,1184,-40.558,-1.12828
-518,-160,-40.5743,1.17334,0.00509989,0.00572441,0.00909923,0.0145167,-0.00369244,0.80255,0.011115,0.0408655,706,1184,-40.5743,-1.17337
-511,-160,0,0,0,0,0,0,0,0,0,-1,713,1184,0,0
-504,-160,0,0,0,0,0,0,0,0,0,-1,720,1184,0,0
-497,-160,0,0,0,0,0,0,0,0,0,-1,727,1184,0,0
-490,-160,0,0,0,0,0,0,0,0,0,-1,734,1184,0,0
-483,-160,0,0,0,0,0,0,0,0,0,-1,741,1184,0,0
-476,-160,0,0,0,0,0,0,0,0,0,-1,748,1184,0,0
-469,-160,0,0,0,0,0,0,0,0,0,-1,755,1184,0,0
-462,-160,0,0,0,0,0,0,0,0,0,-1,762,1184,0,0
-455,-160,0,0,0,0,0,0,0,0,0,-1,769,1184,0,0
-448,-160,0,0,0,0,0,0,0,0,0,-1,776,1184,0,0
-441,-160,0,0,0,0,0,0,0,0,0,-1,783,1184,0,0
-434,-160,0,0,0,0,0,0,0,0,0,-1,790,1184,0,0
-427,-160,0,0,0,0,0,0,0,0,0,-1,797,1184,0,0
-420,-160,0,0,0,0,0,0,0,0,0,-1,804,1184,0,0
-413,-160,0,0,0,0,0,0,0,0,0,-1,811,1184,0,0
-406,-160,0,0,0,0,0,0,0,0,0,-1,818,1184,0,0
-399,-160,0,0,0,0,0,0,0,0,0,-1,825,1184,0,0
-392,-160,0,0,0,0,0,0,0,0,0,-1,832,1184,0,0
-385,-160,0,0,0,0,0,0,0,0,0,-1,839,1184,0,0
-378,-160,0,0,0,0,0,0,0,0,0,-1,846,1184,0,0
-371,-160,0,0,0,0,0,0,0,0,0,-1,853,1184,0,0
-364,-160,0,0,0,0,0,0,0,0,0,-1,860,1184,0,0
-357,-160,0,0,0,0,0,0,0,0,0,-1,867,1184,0,0
-350,-160,0,0,0,0,0,0,0,0,0,-1,874,1184,0,0
-343,-160,0,0,0,0,0,0,0,0,0,-1,881,1184,0,0
-336,-160,0,0,0,0,0,0,0,0,0,-1,888,1184,0,0
-329,-160,0,0,0,0,0,0,0,0,0,-1,895,1184,0,0
-322,-160,0,0,0,0,0,0,0,0,0,-1,902,1184,0,0
-315,-160,0,0,0,0,0,0,0,0,0,-1,909,1184,0,0
-308,-160,0,0,0,0,0,0,0,0,0,-1,916,1184,0,0
-301,-160,0,0,0,0,0,0,0,0,0,-1,923,1184,0,0
-294,-160,0,0,0,0,0,0,0,0,0,-1,930,1184,0,0
-287,-160,0,0,0,0,0,0,0,0,0,-1,937,1184,0,0
-280,-160,0,0,0,0,0,0,0,0,0,-1,944,1184,0,0
-273,-160,0,0,0,0,0,0,0,0,0,-1,951,1184,0,0
-266,-160,0,0,0,0,0,0,0,0,0,-1,958,1184,0,0
-259,-160,0,0,0,0,0,0,0,0,0,-1,965,1184,0,0
-252,-160,0,0,0,0,0,0,0,0,0,-1,972,1184,0,0
-245,-160,0,0,0,0,0,0,0,0,0,-1,979,1184,0,0
-238,-160,0,0,0,0,0,0,0,0,0,-1,986,1184,0,0
-231,-160,0,0,0,0,0,0,0,0,0,-1,993,1184,0,0
-224,-160,0,0,0,0,0,0,0,0,0,-1,1000,1184,0,0
-217,-160,0,0,0,0,0,0,0,0,0,-1,1007,1184,0,0
-210,-160,0,0,0,0,0,0,0,0,0,-1,1014,1184,0,0
-203,-160,0,0,0,0,0,0,0,0,0,-1,1021,1184,0,0
-196,-160,0,0,0,0,0,0,0,0,0,-1,1028,1184,0,0
-189,-160,0,0,0,0,0,0,0,0,0,-1,1035,1184,0,0
-182,-160,0,0,0,0,0,0,0,0,0,-1,1042,1184,0,0
-175,-160,0,0,0,0,0,0,0,0,0,-1,1049,1184,0,0
-168,-160,0,0,0,0,0,0,0,0,0,-1,1056,1184,0,0
-161,-160,0,0,0,0,0,0,0,0,0,-1,1063,1184,0,0
-154,-160,0,0,0,0,0,0,0,0,0,-1,1070,1184,0,0
-147,-160,0,0,0,0,0,0,0,0,0,-1,1077,1184,0,0
-140,-160,0,0,0,0,0,0,0,0,0,-1,1084,1184,0,0
-133,-160,0,0,0,0,0,0,0,0,0,-1,1091,1184,0,0
-126,-160,0,0,0,0,0,0,0,0,0,-1,1098,1184,0,0
-119,-160,0,0,0,0,0,0,0,0,0,-1,1105,1184,0,0
-112,-160,0,0,0,0,0,0,0,0,0,-1,1112,1184,0,0
-105,-160,0,0,0,0,0,0,0,0,0,-1,1119,1184,0,0
-98,-160,0,0,0,0,0,0,0,0,0,-1,1126,1184,0,0
-91,-160,0,0,0,0,0,0,0,0,0,-1,1133,1184,0,0
-84,-160,0,0,0,0,0,0,0,0,0,-1,1140,1184,0,0
-77,-160,0,0,0,0,0,0,0,0,0,-1,1147,1184,0,0
-70,-160,0,0,0,0,0,0,0,0,0,-1,1154,1184,0,0
-63,-160,0,0,0,0,0,0,0,0,0,-1,1161,1184,0,0
-56,-160,0,0,0,0,0,0,0,0,0,-1,1168,1184,0,0
-49,-160,0,0,0,0,0,0,0,0,0,-1,1175,1184,0,0
-42,-160,0,0,0,0,0,0,0,0,0,-1,1182,1184,0,0
-35,-160,0,0,0,0,0,0,0,0,0,-1,1189,1184,0,0
-28,-160,0,0,0,0,0,0,0,0,0,-1,1196,1184,0,0
-21,-160,0,0,0,0,0,0,0,0,0,-1,1203,1184,0,0
-14,-160,0,0,0,0,0,0,0,0,0,-1,1210,1184,0,0
-7,-160,0,0,0,0,0,0,0,0,0,-1,1217,1184,0,0
0,-160,0,0,0,0,0,0,0,0,0,-1,1224,1184,0,0
7,-160,0,0,0,0,0,0,0,0,0,-1,1231,1184,0,0
14,-160,0,0,0,0,0,0,0,0,0,-1,1238,1184,0,0
21,-160,0,0,0,0,0,0,0,0,0,-1,1245,1184,0,0
28,-160,0,0,0,0,0,0,0,0,0,-1,1252,1184,0,0
35,-160,0,0,0,0,0,0,0,0,0,-1,1259,1184,0,0
42,-160,0,0,0,0,0,0,0,0,0,-1,1266,1184,0,0
49,-160,0,0,0,0,0,0,0,0,0,-1,1273,1184,0,0
56,-160,0,0,0,0,0,0,0,0,0,-1,1280,1184,0,0
63,-160,0,0,0,0,0,0,0,0,0,-1,1287,1184,0,0
70,-160,0,0,0,0,0,0,0,0,0,-1,1294,1184,0,0
77,-160,0,0,0,0,0,0,0,0,0,-1,1301,1184,0,0
84,-160,0,0,0,0,0,0,0,0,0,-1,1308,1184,0,0
91,-160,0,0,0,0,0,0,0,0,0,-1,1315,1184,0,0
98,-160,0,0,0,0,0,0,0,0,0,-1,1322,1184,0,0
105,-160,0,0,0,0,0,0,0,0,0,-1,1329,1184,0,0
112,-160,0,0,0,0,0,0,0,0,0,-1,1336,1184,0,0
119,-160,0,0,0,0,0,0,0,0,0,-1,1343,1184,0,0
126,-160,0,0,0,0,0,0,0,0,0,-1,1350,1184,0,0
133,-160,0,0,0,0,0,0,0,0,0,-1,1357,1184,0,0
140,-160,0,0,0,0,0,0,0,0,0,-1,1364,1184,0,0
147,-160,0,0,0,0,0,0,0,0,0,-1,1371,1184,0,0
154,-160,0,0,0,0,0,0,0,0,0,-1,1378,1184,0,0
161,-160,0,0,0,0,0,0,0,0,0,-1,1385,1184,0,0
168,-160,0,0,0,0,0,0,0,0,0,-1,1392,1184,0,0
175,-160,0,0,0,0,0,0,0,0,0,-1,1399,1184,0,0
182,-160,0,0,0,0,0,0,0,0,0,-1,1406,1184,0,0
189,-160,0,0,0,0,0,0,0,0,0,-1,1413,1184,0,0
196,-160,0,0,0,0,0,0,0,0,0,-1,1420,1184,0,0
203,-160,0,0,0,0,0,0,0,0,0,-1,1427,1184,0,0
210,-160,0,0,0,0,0,0,0,0,0,-1,1434,1184,0,0
217,-160,0,0,0,0,0,0,0,0,0,-1,1441,1184,0,0
224,-160,0,0,0,0,0,0,0,0,0,-1,1448,1184,0,0
231,-160,0,0,0,0,0,0,0,0,0,-1,1455,1184,0,0
238,-160,0,0,0,0,0,0,0,0,0,-1,1462,1184,0,0
245,-160,0,0,0,0,0,0,0,0,0,-1,1469,1184,0,0
252,-160,0,0,0,0,0,0,0,0,0,-1,1476,1184,0,0
259,-160,0,0,0,0,0,0,0,0,0,-1,1483,1184,0,0
266,-160,0,0,0,0,0,0,0,0,0,-1,1490,1184,0,0
273,-160,0,0,0,0,0,0,0,0,0,-1,1497,1184,0,0
280,-160,0,0,0,0,0,0,0,0,0,-1,1504,1184,0,0
287,-160,0,0,0,0,0,0,0,0,0,-1,1511,1184,0,0
294,-160,0,0,0,0,0,0,0,0,0,-1,1518,1184,0,0
301,-160,0,0,0,0,0,0,0,0,0,-1,1525,1184,0,0
308,-160,0,0,0,0,0,0,0,0,0,-1,1532,1184,0,0
315,-160,0,0,0,0,0,0,0,0,0,-1,1539,1184,0,0
322,-160,0,0,0,0,0,0,0,0,0,-1,1546,1184,0,0
329,-160,0,0,0,0,0,0,0,0,0,-1,1553,1184,0,0
336,-160,0,0,0,0,0,0,0,0,0,-1,1560,1184,0,0
343,-160,0,0,0,0,0,0,0,0,0,-1,1567,1184,0,0
350,-160,0,0,0,0,0,0,0,0,0,-1,1574,1184,0,0
357,-160,0,0,0,0,0,0,0,0,0,-1,1581,1184,0,0
364,-160,0,0,0,0,0,0,0,0,0,-1,1588,1184,0,0
371,-160,0,0,0,0,0,0,0,0,0,-1,1595,1184,0,0
378,-160,0,0,0,0,0,0,0,0,0,-1,1602,1184,0,0
385,-160,0,0,0,0,0,0,0,0,0,-1,1609,1184,0,0
392,-160,0,0,0,0,0,0,0,0,0,-1,1616,1184,0,0
399,-160,0,0,0,0,0,0,0,0,0,-1,1623,1184,0,0
406,-160,0,0,0,0,0,0,0,0,0,-1,1630,1184,0,0
413,-160,0,0,0,0,0,0,0,0,0,-1,1637,1184,0,0
420,-160,0,0,0,0,0,0,0,0,0,-1,1644,1184,0,0
427,-160,0,0,0,0,0,0,0,0,0,-1,1651,1184,0,0
434,-160,0,0,0,0,0,0,0,0,0,-1,1658,1184,0,0
441,-160,0,0,0,0,0,0,0,0,0,-1,1665,1184,0,0
448,-160,0,0,0,0,0,0,0,0,0,-1,1672,1184,0,0
455,-160,0,0,0,0,0,0,0,0,0,-1,1679,1184,0,0
462,-160,0,0,0,0,0,0,0,0,0,-1,1686,1184,0,0
469,-160,0,0,0,0,0,0,0,0,0,-1,1693,1184,0,0
476,-160,0,0,0,0,0,0,0,0,0,-1,1700,1184,0,0
483,-160,0,0,0,0,0,0,0,0,0,-1,1707,1184,0,0
490,-160,0,0,0,0,0,0,0,0,0,-1,1714,1184,0,0
497,-160,0,0,0,0,0,0,0,0,0,-1,1721,1184,0,0
504,-160,0,0,0,0,0,0,0,0,0,-1,1728,1184,0,0
511,-160,0,0,0,0,0,0,0,0,0,-1,1735,1184,0,0
518,-160,0,0,0,0,0,0,0,0,0,-1,1742,1184,0,0
525,-160,0,0,0,0,0,0,0,0,0,-1,1749,1184,0,0
532,-160,0,0,0,0,0,0,0,0,0,-1,1756,1184,0,0
539,-160,0,0,0,0,0,0,0,0,0,-1,1763,1184,0,0
546,-160,0,0,0,0,0,0,0,0,0,-1,1770,1184,0,0
553,-160,0,0,0,0,0,0,0,0,0,-1,1777,1184,0,0
560,-160,0,0,0,0,0,0,0,0,0,-1,1784,1184,0,0
567,-160,0,0,0,0,0,0,0,0,0,-1,1791,1184,0,0
574,-160,0,0,0,0,0,0,0,0,0,-1,1798,1184,0,0
581,-160,0,0,0,0,0,0,0,0,0,-1,1805,1184,0,0
588,-160,0,0,0,0,0,0,0,0,0,-1,1812,1184,0,0
595,-160,0,0,0,0,0,0,0,0,0,-1,1819,1184,0,0
602,-160,0,0,0,0,0,0,0,0,0,-1,1826,1184,0,0
609,-160,0,0,0,0,0,0,0,0,0,-1,1833,1184,0,0
616,-160,0,0,0,0,0,0,0,0,0,-1,1840,1184,0,0
623,-160,0,0,0,0,0,0,0,0,0,-1,1847,1184,0,0
630,-160,0,0,0,0,0,0,0,0,0,-1,1854,1184,0,0
637,-160,54.4453,3.05554,0.00240997,-0.00154578,0.00251943,0.00363515,-0.00277095,0.452619,0.00370976,0.0431226,1861,1184,54.4453,-3.0555
644,-160,54.5112,2.95508,0.0015374,-0.000888836,0.00237005,0.00298676,-0.0023382,0.548856,0.00308195,0.044481,1868,1184,54.5112,-2.95514
651,-160,54.598,2.91235,0.00108772,-0.000259831,0.00192913,0.00245735,-0.00162946,0.617389,0.0023756,0.039549,1875,1184,54.598,-2.91239
658,-160,54.5433,2.74731,0.00100388,0.000281023,0.00131474,0.00200597,-0.000721058,0.651258,0.00163166,0.0388173,1882,1184,54.5434,-2.7473
665,-160,54.7057,2.72498,0.00117347,0.000667513,0.000610629,0.00158145,0.000259532,0.589016,0.000979318,0.0389894,1889,1184,54.7057,-2.72494
672,-160,54.7007,2.79773,0.00119647,0.000944321,0.000132123,0.00125302,0.000887772,0.404414,0.000744101,0.0352527,1896,1184,54.7007,-2.79774
679,-160,54.5879,2.85486,0.00114911,0.000734639,-0.000130766,0.00118692,0.000696831,-0.28145,0.000688725,0.0274126,1903,1184,54.5879,-2.85481
686,-160,54.6444,2.83716,0.000929934,0.000371334,-7.33369e-05,0.000939401,0.000361867,-0.128389,0.000547107,0.0180103,1910,1184,54.6444,-2.83714
693,-160,54.6969,2.8252,0,0,0,0,0,0,0,-1,1917,1184,54.6969,-2.82514
700,-160,42.8784,2.44617,0,0,0,0,0,0,0,-1,1924,1184,42.8785,-2.4462
707,-160,24.5115,6.27405,0,0,0,0,0,0,0,-1,1931,1184,24.5115,-6.27401
714,-160,35.6892,6.8905,0,0,0,0,0,0,0,-1,1938,1184,35.6892,-6.89048
721,-160,36.2388,6.37878,0,0,0,0,0,0,0,-1,1945,1184,36.2388,-6.37876
728,-160,46.9048,7.93616,0,0,0,0,0,0,0,-1,1952,1184,46.9048,-7.93619
735,-160,47.0975,7.36084,-0.000109921,-0.000272879,0.00084116,0.000653697,-0.0010365,0.737116,0.000984141,0.0392347,1959,1184,47.0975,-7.36082
742,-160,46.9856,6.93677,-0.000373811,5.74344e-05,0.00132942,0.0011886,-0.00150498,0.865795,0.00155871,0.0167123,1966,1184,46.9855,-6.93681
749,-160,46.96,6.4978,-0.000589576,0.00146228,0.00155886,0.00230252,-0.00142982,1.07643,0.00217441,0.0169412,1973,1184,46.9599,-6.4978
756,-160,46.9498,6.06213,-0.000626403,0.00485113,0.00100681,0.00503032,-0.0008056,1.39466,0.00365182,0.0109881,1980,1184,46.9498,-6.06212
763,-160,46.8986,5.64478,-0.000601634,0.00951883,-0.000180457,0.00952204,-0.000604851,-1.55297,0.00655895,0.0121192,1987,1184,46.8986,-5.64478
770,-160,46.8145,5.15149,-0.000872652,0.0154265,-0.00180283,0.0156235,-0.00106968,-1.46194,0.0107899,0.0253958,1994,1184,46.8144,-5.15154
777,-160,46.8552,4.62659,-0.00153569,0.0231153,-0.00413352,0.0237899,-0.00221034,-1.40901,0.0166457,0.0370816,2001,1184,46.8552,-4.62658
784,-160,46.9185,4.02771,-0.00261202,0.0329766,-0.00736888,0.034442,-0.00407746,-1.37449,0.0244341,0.0460951,2008,1184,46.9186,-4.02775
791,-160,46.8557,3.58862,0,0,0,0,0,0,0,-1,2015,1184,46.8556,-3.58862
798,-160,46.9353,2.71851,-0.00615753,0.0624117,-0.01817,0.066929,-0.0106747,-1.32713,0.0485702,0.0458951,2022,1184,46.9354,-2.71846
805,-160,46.9451,2.26831,-0.00876662,0.0829552,-0.0262177,0.0899203,-0.0157317,-1.31113,0.0658205,0.0457151,2029,1184,46.9451,-2.26828
812,-160,0,0,0,0,0,0,0,0,0,-1,2036,1184,0,0
-700,-167,0,0,0,0,0,0,0,0,0,-1,524,1191,0,0
-693,-167,0,0,0,0,0,0,0,0,0,-1,531,1191,0,0
-686,-167,-33.011,-2.15295,0.0108598,-0.0130779,0.00583732,0.0122074,-0.0144255,0.226884,0.0153942,0.0447674,538,1191,-33.0111,2.1529
-679,-167,-32.7795,-1.16455,0.011414,-0.00853729,0.0074909,0.0139134,-0.0110367,0.322044,0.0144369,0.0422417,545,1191,-32.7796,1.1645
-672,-167,-33.085,-0.476563,0.0113606,-0.00543171,0.00777684,0.0144089,-0.00847997,0.373562,0.0133618,0.0456907,552,1191,-33.085,0.476609
-665,-167,-32.5634,-0.0101318,0,0,0,0,0,0,0,-1,559,1191,-32.5634,0.0101012
-658,-167,-30.8992,-0.84375,0,0,0,0,0,0,0,-1,566,1191,-30.8992,0.843768
-651,-167,-32.0895,1.54993,0,0,0,0,0,0,0,-1,573,1191,-32.0895,-1.54989
-644,-167,-32.0784,1.99609,0.00709949,0.000882296,0.00395286,0.00901966,-0.00103788,0.452197,0.00638723,0.0431121,580,1191,-32.0784,-1.99606
-637,-167,-32.1332,2.44006,0.00531832,0.00179978,0.00255625,0.00666218,0.000455918,0.484009,0.00429755,0.0193689,587,1191,-32.1332,-2.44008
-630,-167,-32.223,2.90247,0.00345106,0.00227316,0.00169999,0.00466123,0.00106299,0.618646,0.00282073,0.0102215,594,1191,-32.223,-2.90252
-623,-167,-32.2628,3.37,0.00181249,0.00166618,-3.49105e-06,0.00181258,0.0016661,-0.0238422,0.00116264,0.0140769,601,1191,-32.2627,-3.37002
-616,-167,-32.2921,3.88708,0.000187424,0.000957517,-0.0013063,0.00193433,-0.000789393,-0.92872,0.00161819,0.0181344,608,1191,-32.292,-3.88712
-609,-167,-32.308,4.44714,-0.000663081,0.0003181,-0.00174359,0.0016388,-0.00198378,-0.922537,0.00209466,0.0150319,615,1191,-32.308,-4.44714
-602,-167,-32.3384,4.93677,-8.98494e-05,-0.000789299,-0.00236122,0.0019474,-0.00282655,-0.711877,0.00277178,0.01929,622,1191,-32.3384,-4.93675
-595,-167,-32.1989,5.35718,0,0,0,0,0,0,0,-1,629,1191,-32.1989,-5.35715
-588,-167,-32.4818,5.85864,0,0,0,0,0,0,0,-1,636,1191,-32.4817,-5.85865
-581,-167,-29.8755,5.31482,0,0,0,0,0,0,0,-1,643,1191,-29.8756,-5.31482
-574,-167,-24.1547,5.43677,0,0,0,0,0,0,0,-1,650,1191,-24.1547,-5.43682
-567,-167,-27.3643,2.55859,0,0,0,0,0,0,0,-1,657,1191,-27.3643,-2.55864
-560,-167,-40.5962,1.19873,0,0,0,0,0,0,0,-1,664,1191,-40.5962,-1.1987
-553,-167,-40.6398,1.07104,0.00162509,-0.00204879,-0.00349435,0.00373592,-0.00415961,-0.543405,0.00456067,0.0434699,671,1191,-40.6398,-1.07106
-546,-167,-40.6446,0.955933,0.00229817,-0.00206158,-0.00316744,0.00396336,-0.00372677,-0.484012,0.0044406,0.0358173,678,1191,-40.6446,-0.955982
-539,-167,-40.616,0.813721,0.00286991,-0.00137169,-0.00166319,0.00344429,-0.00194607,-0.332526,0.00315194,0.0401625,685,1191,-40.616,-0.813708
-532,-167,-40.4912,0.869751,0.00332877,6.28913e-05,0.00124705,0.00375049,-0.000358829,0.326101,0.00262811,0.0451225,692,1191,-40.4912,-0.869769
-525,-167,-40.4633,1.09363,0.00442752,0.00256885,0.00541094,0.00898835,-0.00199198,0.700353,0.00675485,0.0438499,699,1191,-40.4633,-1.09358
-518,-167,-40.6141,1.33777,0.00559377,0.00478597,0.00971197,0.0149102,-0.0045305,0.764616,0.0117453,0.0448176,706,1191,-40.6141,-1.33778
-511,-167,0,0,0,0,0,0,0,0,0,-1,713,1191,0,0
-504,-167,0,0,0,0,0,0,0,0,0,-1,720,1191,0,0
-497,-167,0,0,0,0,0,0,0,0,0,-1,727,1191,0,0
-490,-167,0,0,0,0,0,0,0,0,0,-1,734,1191,0,0
-483,-167,0,0,0,0,0,0,0,0,0,-1,741,1191,0,0
-476,-167,0,0,0,0,0,0,0,0,0,-1,748,1191,0,0
-469,-167,0,0,0,0,0,0,0,0,0,-1,755,1191,0,0
-462,-167,0,0,0,0,0,0,0,0,0,-1,762,1191,0,0
-455,-167,0,0,0,0,0,0,0,0,0,-1,769,1191,0,0
-448,-167,0,0,0,0,0,0,0,0,0,-1,776,1191,0,0
-441,-167,0,0,0,0,0,0,0,0,0,-1,783,1191,0,0
-434,-167,0,0,0,0,0,0,0,0,0,-1,790,1191,0,0
-427,-167,0,0,0,0,0,0,0,0,0,-1,797,1191,0,0
-420,-167,0,0,0,0,0,0,0,0,0,-1,804,1191,0,0
-413,-167,0,0,0,0,0,0,0,0,0,-1,811,1191,0,0
-406,-167,0,0,0,0,0,0,0,0,0,-1,818,1191,0,0
-399,-167,0,0,0,0,0,0,0,0,0,-1,825,1191,0,0
-392,-167,0,0,0,0,0,0,0,0,0,-1,832,1191,0,0
-385,-167,0,0,0,0,0,0,0,0,0,-1,839,1191,0,0
-378,-167,0,0,0,0,0,0,0,0,0,-1,846,1191,0,0
-371,-167,0,0,0,0,0,0,0,0,0,-1,853,1191,0,0
-364,-167,0,0,0,0,0,0,0,0,0,-1,860,1191,0,0
-357,-167,0,0,0,0,0,0,0,0,0,-1,867,1191,0,0
-350,-167,0,0,0,0,0,0,0,0,0,-1,874,1191,0,0
-343,-167,0,0,0,0,0,0,0,0,0,-1,881,1191,0,0
-336,-167,0,0,0,0,0,0,0,0,0,-1,888,1191,0,0
-329,-167,0,0,0,0,0,0,0,0,0,-1,895,1191,0,0
-322,-167,0,0,0,0,0,0,0,0,0,-1,902,1191,0,0
-315,-167,0,0,0,0,0,0,0,0,0,-1,909,1191,0,0
-308,-167,0,0,0,0,0,0,0,0,0,-1,916,1191,0,0
-301,-167,0,0,0,0,0,0,0,0,0,-1,923,1191,0,0
-294,-167,0,0,0,0,0,0,0,0,0,-1,930,1191,0,0
-287,-167,0,0,0,0,0,0,0,0,0,-1,937,1191,0,0
-280,-167,0,0,0,0,0,0,0,0,0,-1,944,1191,0,0
-273,-167,0,0,0,0,0,0,0,0,0,-1,951,1191,0,0
-266,-167,0,0,0,0,0,0,0,0,0,-1,958,1191,0,0
-259,-167,0,0,0,0,0,0,0,0,0,-1,965,1191,0,0
-252,-167,0,0,0,0,0,0,0,0,0,-1,972,1191,0,0
-245,-167,0,0,0,0,0,0,0,0,0,-1,979,1191,0,0
-238,-167,0,0,0,0,0,0,0,0,0,-1,986,1191,0,0
-231,-167,0,0,0,0,0,0,0,0,0,-1,993,1191,0,0
-224,-167,0,0,0,0,0,0,0,0,0,-1,1000,1191,0,0
-217,-167,0,0,0,0,0,0,0,0,0,-1,1007,1191,0,0
-210,-167,0,0,0,0,0,0,0,0,0,-1,1014,1191,0,0
-203,-167,0,0,0,0,0,0,0,0,0,-1,1021,1191,0,0
-196,-167,0,0,0,0,0,0,0,0,0,-1,1028,1191,0,0
-189,-167,0,0,0,0,0,0,0,0,0,-1,1035,1191,0,0
-182,-167,0,0,0,0,0,0,0,0,0,-1,1042,1191,0,0
-175,-167,0,0,0,0,0,0,0,0,0,-1,1049,1191,0,0
-168,-167,0,0,0,0,0,0,0,0,0,-1,1056,1191,0,0
-161,-167,0,0,0,0,0,0,0,0,0,-1,1063,1191,0,0
-154,-167,0,0,0,0,0,0,0,0,0,-1,1070,1191,0,0
-147,-167,0,0,0,0,0,0,0,0,0,-1,1077,1191,0,0
-140,-167,0,0,0,0,0,0,0,0,0,-1,1084,1191,0,0
-133,-167,0,0,0,0,0,0,0,0,0,-1,1091,1191,0,0
-126,-167,0,0,0,0,0,0,0,0,0,-1,1098,1191,0,0
-119,-167,0,0,0,0,0,0,0,0,0,-1,1105,1191,0,0
-112,-167,0,0,0,0,0,0,0,0,0,-1,1112,1191,0,0
-105,-167,0,0,0,0,0,0,0,0,0,-1,1119,1191,0,0
-98,-167,0,0,0,0,0,0,0,0,0,-1,1126,1191,0,0
-91,-167,0,0,0,0,0,0,0,0,0,-1,1133,1191,0,0
-84,-167,0,0,0,0,0,0,0,0,0,-1,1140,1191,0,0
-77,-167,0,0,0,0,0,0,0,0,0,-1,1147,1191,0,0
-70,-167,0,0,0,0,0,0,0,0,0,-1,1154,1191,0,0
-63,-167,0,0,0,0,0,0,0,0,0,-1,1161,1191,0,0
-56,-167,0,0,0,0,0,0,0,0,0,-1,1168,1191,0,0
-49,-167,0,0,0,0,0,0,0,0,0,-1,1175,1191,0,0
-42,-167,0,0,0,0,0,0,0,0,0,-1,1182,1191,0,0
-35,-167,0,0,0,0,0,0,0,0,0,-1,1189,1191,0,0
-28,-167,0,0,0,0,0,0,0,0,0,-1,1196,1191,0,0
-21,-167,0,0,0,0,0,0,0,0,0,-1,1203,1191,0,0
-14,-167,0,0,0,0,0,0,0,0,0,-1,1210,1191,0,0
-7,-167,0,0,0,0,0,0,0,0,0,-1,1217,1191,0,0
0,-167,0,0,0,0,0,0,0,0,0,-1,1224,1191,0,0
7,-167,0,0,0,0,0,0,0,0,0,-1,1231,1191,0,0
14,-167,0,0,0,0,0,0,0,0,0,-1,1238,1191,0,0
21,-167,0,0,0,0,0,0,0,0,0,-1,1245,1191,0,0
28,-167,0,0,0,0,0,0,0,0,0,-1,1252,1191,0,0
35,-167,0,0,0,0,0,0,0,0,0,-1,1259,1191,0,0
42,-167,0,0,0,0,0,0,0,0,0,-1,1266,1191,0,0
49,-167,0,0,0,0,0,0,0,0,0,-1,1273,1191,0,0
56,-167,0,0,0,0,0,0,0,0,0,-1,1280,1191,0,0
63,-167,0,0,0,0,0,0,0,0,0,-1,1287,1191,0,0
70,-167,0,0,0,0,0,0,0,0,0,-1,1294,1191,0,0
77,-167,0,0,0,0,0,0,0,0,0,-1,1301,1191,0,0
84,-167,0,0,0,0,0,0,0,0,0,-1,1308,1191,0,0
91,-167,0,0,0,0,0,0,0,0,0,-1,1315,1191,0,0
98,-167,0,0,0,0,0,0,0,0,0,-1,1322,1191,0,0
105,-167,0,0,0,0,0,0,0,0,0,-1,1329,1191,0,0
112,-167,0,0,0,0,0,0,0,0,0,-1,1336,1191,0,0
119,-167,0,0,0,0,0,0,0,0,0,-1,1343,1191,0,0
126,-167,0,0,0,0,0,0,0,0,0,-1,1350,1191,0,0
133,-167,0,0,0,0,0,0,0,0,0,-1,1357,1191,0,0
140,-167,0,0,0,0,0,0,0,0,0,-1,1364,1191,0,0
147,-167,0,0,0,0,0,0,0,0,0,-1,1371,1191,0,0
154,-167,0,0,0,0,0,0,0,0,0,-1,1378,1191,0,0
161,-167,0,0,0,0,0,0,0,0,0,-1,1385,1191,0,0
168,-167,0,0,0,0,0,0,0,0,0,-1,1392,1191,0,0
175,-167,0,0,0,0,0,0,0,0,0,-1,1399,1191,0,0
182,-167,0,0,0,0,0,0,0,0,0,-1,1406,1191,0,0
189,-167,0,0,0,0,0,0,0,0,0,-1,1413,1191,0,0
196,-167,0,0,0,0,0,0,0,0,0,-1,1420,1191,0,0
203,-167,0,0,0,0,0,0,0,0,0,-1,1427,1191,0,0
210,-167,0,0,0,0,0,0,0,0,0,-1,1434,1191,0,0
217,-167,0,0,0,0,0,0,0,0,0,-1,1441,1191,0,0
224,-167,0,0,0,0,0,0,0,0,0,-1,1448,1191,0,0
231,-167,0,0,0,0,0,0,0,0,0,-1,1455,1191,0,0
238,-167,0,0,0,0,0,0,0,0,0,-1,1462,1191,0,0
245,-167,0,0,0,0,0,0,0,0,0,-1,1469,1191,0,0
252,-167,0,0,0,0,0,0,0,0,0,-1,1476,1191,0,0
259,-167,0,0,0,0,0,0,0,0,0,-1,1483,1191,0,0
266,-167,0,0,0,0,0,0,0,0,0,-1,1490,1191,0,0
273,-167,0,0,0,0,0,0,0,0,0,-1,1497,1191,0,0
280,-167,0,0,0,0,0,0,0,0,0,-1,1504,1191,0,0
287,-167,0,0,0,0,0,0,0,0,0,-1,1511,1191,0,0
294,-167,0,0,0,0,0,0,0,0,0,-1,1518,1191,0,0
301,-167,0,0,0,0,0,0,0,0,0,-1,1525,1191,0,0
308,-167,0,0,0,0,0,0,0,0,0,-1,1532,1191,0,0
315,-167,0,0,0,0,0,0,0,0,0,-1,1539,1191,0,0
322,-167,0,0,0,0,0,0,0,0,0,-1,1546,1191,0,0
329,-167,0,0,0,0,0,0,0,0,0,-1,1553,1191,0,0
336,-167,0,0,0,0,0,0,0,0,0,-1,1560,1191,0,0
343,-167,0,0,0,0,0,0,0,0,0,-1,1567,1191,0,0
350,-167,0,0,0,0,0,0,0,0,0,-1,1574,1191,0,0
357,-167,0,0,0,0,0,0,0,0,0,-1,1581,1191,0,0
364,-167,0,0,0,0,0,0,0,0,0,-1,1588,1191,0,0
371,-167,0,0,0,0,0,0,0,0,0,-1,1595,1191,0,0
378,-167,0,0,0,0,0,0,0,0,0,-1,1602,1191,0,0
385,-167,0,0,0,0,0,0,0,0,0,-1,1609,1191,0,0
392,-167,0,0,0,0,0,0,0,0,0,-1,1616,1191,0,0
399,-167,0,0,0,0,0,0,0,0,0,-1,1623,1191,0,0
406,-167,0,0,0,0,0,0,0,0,0,-1,1630,1191,0,0
413,-167,0,0,0,0,0,0,0,0,0,-1,1637,1191,0,0
420,-167,0,0,0,0,0,0,0,0,0,-1,1644,1191,0,0
427,-167,0,0,0,0,0,0,0,0,0,-1,1651,1191,0,0
434,-167,0,0,0,0,0,0,0,0,0,-1,1658,1191,0,0
441,-167,0,0,0,0,0,0,0,0,0,-1,1665,1191,0,0
448,-167,0,0,0,0,0,0,0,0,0,-1,1672,1191,0,0
455,-167,0,0,0,0,0,0,0,0,0,-1,1679,1191,0,0
462,-167,0,0,0,0,0,0,0,0,0,-1,1686,1191,0,0
469,-167,0,0,0,0,0,0,0,0,0,-1,1693,1191,0,0
476,-167,0,0,0,0,0,0,0,0,0,-1,1700,1191,0,0
483,-167,0,0,0,0,0,0,0,0,0,-1,1707,1191,0,0
490,-167,0,0,0,0,0,0,0,0,0,-1,1714,1191,0,0
497,-167,0,0,0,0,0,0,0,0,0,-1,1721,1191,0,0
504,-167,0,0,0,0,0,0,0,0,0,-1,1728,1191,0,0
511,-167,0,0,0,0,0,0,0,0,0,-1,1735,1191,0,0
518,-167,0,0,0,0,0,0,0,0,0,-1,1742,1191,0,0
525,-167,0,0,0,0,0,0,0,0,0,-1,1749,1191,0,0
532,-167,0,0,0,0,0,0,0,0,0,-1,1756,1191,0,0
539,-167,0,0,0,0,0,0,0,0,0,-1,1763,1191,0,0
546,-167,0,0,0,0,0,0,0,0,0,-1,1770,1191,0,0
553,-167,0,0,0,0,0,0,0,0,0,-1,1777,1191,0,0
560,-167,0,0,0,0,0,0,0,0,0,-1,1784,1191,0,0
567,-167,0,0,0,0,0,0,0,0,0,-1,1791,1191,0,0
574,-167,0,0,0,0,0,0,0,0,0,-1,1798,1191,0,0
581,-167,0,0,0,0,0,0,0,0,0,-1,1805,1191,0,0
588,-167,0,0,0,0,0,0,0,0,0,-1,1812,1191,0,0
595,-167,0,0,0,0,0,0,0,0,0,-1,1819,1191,0,0
602,-167,0,0,0,0,0,0,0,0,0,-1,1826,1191,0,0
609,-167,0,0,0,0,0,0,0,0,0,-1,1833,1191,0,0
616,-167,0,0,0,0,0,0,0,0,0,-1,1840,1191,0,0
623,-167,0,0,0,0,0,0,0,0,0,-1,1847,1191,0,0
630,-167,0,0,0,0,0,0,0,0,0,-1,1854,1191,0,0
637,-167,54.8113,2.71802,0,0,0,0,0,0,0,-1,1861,1191,54.8113,-2.71801
644,-167,54.7572,2.60901,0.000841963,-0.00108207,0.0021575,0.00224221,-0.00248232,0.575681,0.00272888,0.0498887,1868,1191,54.7572,-2.60903
651,-167,54.506,2.51587,0.00089131,-0.000594335,0.00162352,0.00193387,-0.0016369,0.570846,0.00206396,0.0458265,1875,1191,54.506,-2.51584
658,-167,54.5748,2.78943,0.00123879,-0.000146377,0.000933105,0.00170825,-0.000615842,0.466141,0.00139035,0.0427229,1882,1191,54.5748,-2.78941
665,-167,54.7091,2.92053,0.00173659,0.000143011,0.000220092,0.00176642,0.000113173,0.134752,0.00114176,0.0385805,1889,1191,54.7091,-2.92048
672,-167,54.6444,2.90063,0.00188656,0.000395387,-0.000157823,0.00190308,0.000378867,-0.104298,0.00116319,0.0291082,1896,1191,54.6444,-2.90063
679,-167,54.6101,2.88745,0.00183572,0.000257924,-0.000338795,0.00190539,0.000188252,-0.202818,0.00121239,0.022419,1903,1191,54.6101,-2.88745
686,-167,54.655,2.87915,0.00149464,9.20399e-07,-0.000248145,0.00153478,-3.9224e-05,-0.160388,0.00103651,0.0310952,1910,1191,54.655,-2.87917
693,-167,54.6731,2.9342,0,0,0,0,0,0,0,-1,1917,1191,54.6731,-2.93414
700,-167,28.0459,2.70508,0,0,0,0,0,0,0,-1,1924,1191,28.0459,-2.70513
707,-167,29.4708,7.10168,0,0,0,0,0,0,0,-1,1931,1191,29.4708,-7.10172
714,-167,35.9202,6.84668,0,0,0,0,0,0,0,-1,1938,1191,35.9202,-6.84664
721,-167,36.2072,6.38892,0,0,0,0,0,0,0,-1,1945,1191,36.2072,-6.38891
728,-167,46.4137,8.00403,0,0,0,0,0,0,0,-1,1952,1191,46.4136,-8.004
735,-167,46.5636,7.57153,2.63701e-05,-0.000295773,0.00077744,0.000659249,-0.000928652,0.683252,0.000921163,0.02274,1959,1191,46.5636,-7.57156
742,-167,46.4949,6.98962,-0.000199316,0.000178245,0.00124411,0.00124781,-0.00126888,0.860694,0.00145303,0.0164471,1966,1191,46.4949,-6.98968
749,-167,46.469,6.51416,-0.000326199,0.00172691,0.00147001,0.00249332,-0.00109261,1.0902,0.00212234,0.0145691,1973,1191,46.469,-6.51421
756,-167,46.4902,6.0885,-0.000334364,0.00519906,0.00102614,0.00538322,-0.000518525,1.39322,0.00377355,0.0110645,1980,1191,46.4903,-6.08855
763,-167,46.4158,5.63879,-0.000348813,0.00978178,0.000125827,0.00978334,-0.000350377,1.55838,0.0066421,0.0135653,1987,1191,46.4158,-5.63875
770,-167,46.2279,5.33765,-0.000688288,0.0157349,-0.00122079,0.0158251,-0.000778538,-1.497,0.0108189,0.0323091,1994,1191,46.2279,-5.33764
777,-167,46.4246,4.6366,0,0,0,0,0,0,0,-1,2001,1191,46.4246,-4.63654
784,-167,46.616,3.73547,0,0,0,0,0,0,0,-1,2008,1191,46.6159,-3.73545
791,-167,47.1162,3.92725,0,0,0,0,0,0,0,-1,2015,1191,47.1162,-3.92719
798,-167,46.8193,2.02954,0,0,0,0,0,0,0,-1,2022,1191,46.8194,-2.02958
805,-167,47.0071,1.21692,0,0,0,0,0,0,0,-1,2029,1191,47.0071,-1.21688
812,-167,0,0,0,0,0,0,0,0,0,-1,2036,1191,0,0
-700,-174,0,0,0,0,0,0,0,0,0,-1,524,1198,0,0
-693,-174,0,0,0,0,0,0,0,0,0,-1,531,1198,0,0
-686,-174,-32.3046,-1.92224,-0.00265416,-0.00863131,0.00594274,0.00100916,-0.0122946,0.552417,0.00855267,0.0443408,538,1198,-32.3046,1.92224
-679,-174,-32.3712,-1.67981,0.00171166,-0.00583858,0.00772181,0.00653176,-0.0106587,0.558038,0.0100198,0.0419957,545,1198,-32.3712,1.67981
-672,-174,-32.9066,-0.783203,0.00465907,-0.00395384,0.00806865,0.00949859,-0.00879335,0.540267,0.0105635,0.046613,552,1198,-32.9066,0.783177
-665,-174,-33.4166,-0.0130615,0,0,0,0,0,0,0,-1,559,1198,-33.4166,0.0130704
-658,-174,-31.2646,-0.103027,0,0,0,0,0,0,0,-1,566,1198,-31.2646,0.103084
-651,-174,-31.6022,1.31274,0,0,0,0,0,0,0,-1,573,1198,-31.6022,-1.31276
-644,-174,-31.5834,1.83813,0.00616497,0.000689327,0.00423722,0.00847192,-0.00161762,0.498571,0.00625724,0.0468006,580,1198,-31.5834,-1.83812
-637,-174,-31.583,2.40955,0.00498501,0.00149194,0.00283826,0.00657106,-9.41069e-05,0.509581,0.00441241,0.0252476,587,1198,-31.583,-2.40949
-630,-174,-31.6845,2.91846,0.00356911,0.00203784,0.00207507,0.00501529,0.000591666,0.608662,0.0031648,0.0135198,594,1198,-31.6845,-2.9185
-623,-174,-31.7344,3.41516,0.0022575,0.00148128,0.000349371,0.00239159,0.00134719,0.366457,0.00138447,0.0147534,601,1198,-31.7344,-3.41522
-616,-174,-31.7228,3.94983,0.000821918,0.000913736,-0.00109329,0.00196208,-0.000226431,-0.806382,0.0013897,0.020829,608,1198,-31.7228,-3.94988
-609,-174,-31.7576,4.47485,-0.000262908,0.000334175,-0.00166892,0.00173104,-0.00165978,-0.873904,0.00195784,0.0221301,615,1198,-31.7576,-4.47488
-602,-174,-31.8314,4.93787,6.29742e-05,-0.00086422,-0.00240564,0.00204928,-0.00285053,-0.690209,0.00284149,0.0170895,622,1198,-31.8313,-4.93781
-595,-174,-31.5543,5.34595,0,0,0,0,0,0,0,-1,629,1198,-31.5543,-5.34599
-588,-174,-32.2233,5.84534,0,0,0,0,0,0,0,-1,636,1198,-32.2233,-5.84528
-581,-174,-32.327,6.4574,0,0,0,0,0,0,0,-1,643,1198,-32.327,-6.45743
-574,-174,-28.9177,6.23047,0,0,0,0,0,0,0,-1,650,1198,-28.9177,-6.23053
-567,-174,-26.6597,3.04041,0,0,0,0,0,0,0,-1,657,1198,-26.6597,-3.04039
-560,-174,-40.6286,1.90894,0,0,0,0,0,0,0,-1,664,1198,-40.6286,-1.90892
-553,-174,-40.6615,1.40466,0.00174696,-0.00267675,-0.00344507,0.0036291,-0.00455889,-0.50002,0.00473749,0.0493408,671,1198,-40.6615,-1.40464
-546,-174,-40.6371,0.973511,0.00239915,-0.00282833,-0.00311971,0.00385533,-0.00428451,-0.436709,0.00470172,0.031974,678,1198,-40.6371,-0.973471
-539,-174,-40.5991,0.886841,0.00293739,-0.00246672,-0.00186936,0.003521,-0.00305033,-0.30261,0.0037972,0.0374621,685,1198,-40.5991,-0.88686
-532,-174,-40.4031,0.841187,0.00338873,-0.00149822,0.000701232,0.00348736,-0.00159685,0.139735,0.00300225,0.0466117,692,1198,-40.4031,-0.841146
-525,-174,-40.4404,0.90271,0.00458735,0.000650903,0.00490889,0.0079079,-0.00266964,0.594735,0.00635166,0.0447714,699,1198,-40.4404,-0.902747
-518,-174,-40.4609,1.10974,0.00609923,0.00293447,0.00945542,0.0141038,-0.00507007,0.702491,0.0114723,0.0449314,706,1198,-40.4609,-1.10975
-511,-174,0,0,0,0,0,0,0,0,0,-1,713,1198,0,0
-504,-174,0,0,0,0,0,0,0,0,0,-1,720,1198,0,0
-497,-174,0,0,0,0,0,0,0,0,0,-1,727,1198,0,0
-490,-174,0,0,0,0,0,0,0,0,0,-1,734,1198,0,0
-483,-174,0,0,0,0,0,0,0,0,0,-1,741,1198,0,0
-476,-174,0,0,0,0,0,0,0,0,0,-1,748,1198,0,0
-469,-174,0,0,0,0,0,0,0,0,0,-1,755,1198,0,0
-462,-174,0,0,0,0,0,0,0,0,0,-1,762,1198,0,0
-455,-174,0,0,0,0,0,0,0,0,0,-1,769,1198,0,0
-448,-174,0,0,0,0,0,0,0,0,0,-1,776,1198,0,0
-441,-174,0,0,0,0,0,0,0,0,0,-1,783,1198,0,0
-434,-174,0,0,0,0,0,0,0,0,0,-1,790,1198,0,0
-427,-174,0,0,0,0,0,0,0,0,0,-1,797,1198,0,0
-420,-174,0,0,0,0,0,0,0,0,0,-1,804,1198,0,0
-413,-174,0,0,0,0,0,0,0,0,0,-1,811,1198,0,0
-406,-174,0,0,0,0,0,0,0,0,0,-1,818,1198,0,0
-399,-174,0,0,0,0,0,0,0,0,0,-1,825,1198,0,0
-392,-174,0,0,0,0,0,0,0,0,0,-1,832,1198,0,0
-385,-174,0,0,0,0,0,0,0,0,0,-1,839,1198,0,0
-378,-174,0,0,0,0,0,0,0,0,0,-1,846,1198,0,0
-371,-174,0,0,0,0,0,0,0,0,0,-1,853,1198,0,0
-364,-174,0,0,0,0,0,0,0,0,0,-1,860,1198,0,0
-357,-174,0,0,0,0,0,0,0,0,0,-1,867,1198,0,0
-350,-174,0,0,0,0,0,0,0,0,0,-1,874,1198,0,0
-343,-174,0,0,0,0,0,0,0,0,0,-1,881,1198,0,0
-336,-174,0,0,0,0,0,0,0,0,0,-1,888,1198,0,0
-329,-174,0,0,0,0,0,0,0,0,0,-1,895,1198,0,0
-322,-174,0,0,0,0,0,0,0,0,0,-1,902,1198,0,0
-315,-174,0,0,0,0,0,0,0,0,0,-1,909,1198,0,0
-308,-174,0,0,0,0,0,0,0,0,0,-1,916,1198,0,0
-301,-174,0,0,0,0,0,0,0,0,0,-1,923,1198,0,0
-294,-174,0,0,0,0,0,0,0,0,0,-1,930,1198,0,0
-287,-174,0,0,0,0,0,0,0,0,0,-1,937,1198,0,0
-280,-174,0,0,0,0,0,0,0,0,0,-1,944,1198,0,0
-273,-174,0,0,0,0,0,0,0,0,0,-1,951,1198,0,0
-266,-174,0,0,0,0,0,0,0,0,0,-1,958,1198,0,0
-259,-174,0,0,0,0,0,0,0,0,0,-1,965,1198,0,0
-252,-174,0,0,0,0,0,0,0,0,0,-1,972,1198,0,0
-245,-174,0,0,0,0,0,0,0,0,0,-1,979,1198,0,0
-238,-174,0,0,0,0,0,0,0,0,0,-1,986,1198,0,0
-231,-174,0,0,0,0,0,0,0,0,0,-1,993,1198,0,0
-224,-174,0,0,0,0,0,0,0,0,0,-1,1000,1198,0,0
-217,-174,0,0,0,0,0,0,0,0,0,-1,1007,1198,0,0
-210,-174,0,0,0,0,0,0,0,0,0,-1,1014,1198,0,0
-203,-174,0,0,0,0,0,0,0,0,0,-1,1021,1198,0,0
-196,-174,0,0,0,0,0,0,0,0,0,-1,1028,1198,0,0
-189,-174,0,0,0,0,0,0,0,0,0,-1,1035,1198,0,0
-182,-174,0,0,0,0,0,0,0,0,0,-1,1042,1198,0,0
-175,-174,0,0,0,0,0,0,0,0,0,-1,1049,1198,0,0
-168,-174,0,0,0,0,0,0,0,0,0,-1,1056,1198,0,0
-161,-174,0,0,0,0,0,0,0,0,0,-1,1063,1198,0,0
-154,-174,0,0,0,0,0,0,0,0,0,-1,1070,1198,0,0
-147,-174,0,0,0,0,0,0,0,0,0,-1,1077,1198,0,0
-140,-174,0,0,0,0,0,0,0,0,0,-1,1084,1198,0,0
-133,-174,0,0,0,0,0,0,0,0,0,-1,1091,1198,0,0
-126,-174,0,0,0,0,0,0,0,0,0,-1,1098,1198,0,0
-119,-174,0,0,0,0,0,0,0,0,0,-1,1105,1198,0,0
-112,-174,0,0,0,0,0,0,0,0,0,-1,1112,1198,0,0
-105,-174,0,0,0,0,0,0,0,0,0,-1,1119,1198,0,0
-98,-174,0,0,0,0,0,0,0,0,0,-1,1126,1198,0,0
-91,-174,0,0,0,0,0,0,0,0,0,-1,1133,1198,0,0
-84,-174,0,0,0,0,0,0,0,0,0,-1,1140,1198,0,0
-77,-174,0,0,0,0,0,0,0,0,0,-1,1147,1198,0,0
-70,-174,0,0,0,0,0,0,0,0,0,-1,1154,1198,0,0
-63,-174,0,0,0,0,0,0,0,0,0,-1,1161,1198,0,0
-56,-174,0,0,0,0,0,0,0,0,0,-1,1168,1198,0,0
-49,-174,0,0,0,0,0,0,0,0,0,-1,1175,1198,0,0
-42,-174,0,0,0,0,0,0,0,0,0,-1,1182,1198,0,0
-35,-174,0,0,0,0,0,0,0,0,0,-1,1189,1198,0,0
-28,-174,0,0,0,0,0,0,0,0,0,-1,1196,1198,0,0
-21,-174,0,0,0,0,0,0,0,0,0,-1,1203,1198,0,0
-14,-174,0,0,0,0,0,0,0,0,0,-1,1210,1198,0,0
-7,-174,0,0,0,0,0,0,0,0,0,-1,1217,1198,0,0
0,-174,0,0,0,0,0,0,0,0,0,-1,1224,1198,0,0
7,-174,0,0,0,0,0,0,0,0,0,-1,1231,1198,0,0
14,-174,0,0,0,0,0,0,0,0,0,-1,1238,1198,0,0
21,-174,0,0,0,0,0,0,0,0,0,-1,1245,1198,0,0
28,-174,0,0,0,0,0,0,0,0,0,-1,1252,1198,0,0
35,-174,0,0,0,0,0,0,0,0,0,-1,1259,1198,0,0
42,-174,0,0,0,0,0,0,0,0,0,-1,1266,1198,0,0
49,-174,0,0,0,0,0,0,0,0,0,-1,1273,1198,0,0
56,-174,0,0,0,0,0,0,0,0,0,-1,1280,1198,0,0
63,-174,0,0,0,0,0,0,0,0,0,-1,1287,1198,0,0
70,-174,0,0,0,0,0,0,0,0,0,-1,1294,1198,0,0
77,-174,0,0,0,0,0,0,0,0,0,-1,1301,1198,0,0
84,-174,0,0,0,0,0,0,0,0,0,-1,1308,1198,0,0
91,-174,0,0,0,0,0,0,0,0,0,-1,1315,1198,0,0
98,-174,0,0,0,0,0,0,0,0,0,-1,1322,1198,0,0
105,-174,0,0,0,0,0,0,0,0,0,-1,1329,1198,0,0
112,-174,0,0,0,0,0,0,0,0,0,-1,1336,1198,0,0
119,-174,0,0,0,0,0,0,0,0,0,-1,1343,1198,0,0
126,-174,0,0,0,0,0,0,0,0,0,-1,1350,1198,0,0
133,-174,0,0,0,0,0,0,0,0,0,-1,1357,1198,0,0
140,-174,0,0,0,0,0,0,0,0,0,-1,1364,1198,0,0
147,-174,0,0,0,0,0,0,0,0,0,-1,1371,1198,0,0
154,-174,0,0,0,0,0,0,0,0,0,-1,1378,1198,0,0
161,-174,0,0,0,0,0,0,0,0,0,-1,1385,1198,0,0
168,-174,0,0,0,0,0,0,0,0,0,-1,1392,1198,0,0
175,-174,0,0,0,0,0,0,0,0,0,-1,1399,1198,0,0
182,-174,0,0,0,0,0,0,0,0,0,-1,1406,1198,0,0
189,-174,0,0,0,0,0,0,0,0,0,-1,1413,1198,0,0
196,-174,0,0,0,0,0,0,0,0,0,-1,1420,1198,0,0
203,-174,0,0,0,0,0,0,0,0,0,-1,1427,1198,0,0
210,-174,0,0,0,0,0,0,0,0,0,-1,1434,1198,0,0
217,-174,0,0,0,0,0,0,0,0,0,-1,1441,1198,0,0
224,-174,0,0,0,0,0,0,0,0,0,-1,1448,1198,0,0
231,-174,0,0,0,0,0,0,0,0,0,-1,1455,1198,0,0
238,-174,0,0,0,0,0,0,0,0,0,-1,1462,1198,0,0
245,-174,0,0,0,0,0,0,0,0,0,-1,1469,1198,0,0
252,-174,0,0,0,0,0,0,0,0,0,-1,1476,1198,0,0
259,-174,0,0,0,0,0,0,0,0,0,-1,1483,1198,0,0
266,-174,0,0,0,0,0,0,0,0,0,-1,1490,1198,0,0
273,-174,0,0,0,0,0,0,0,0,0,-1,1497,1198,0,0
280,-174,0,0,0,0,0,0,0,0,0,-1,1504,1198,0,0
287,-174,0,0,0,0,0,0,0,0,0,-1,1511,1198,0,0
294,-174,0,0,0,0,0,0,0,0,0,-1,1518,1198,0,0
301,-174,0,0,0,0,0,0,0,0,0,-1,1525,1198,0,0
308,-174,0,0,0,0,0,0,0,0,0,-1,1532,1198,0,0
315,-174,0,0,0,0,0,0,0,0,0,-1,1539,1198,0,0
322,-174,0,0,0,0,0,0,0,0,0,-1,1546,1198,0,0
329,-174,0,0,0,0,0,0,0,0,0,-1,1553,1198,0,0
336,-174,0,0,0,0,0,0,0,0,0,-1,1560,1198,0,0
343,-174,0,0,0,0,0,0,0,0,0,-1,1567,1198,0,0
350,-174,0,0,0,0,0,0,0,0,0,-1,1574,1198,0,0
357,-174,0,0,0,0,0,0,0,0,0,-1,1581,1198,0,0
364,-174,0,0,0,0,0,0,0,0,0,-1,1588,1198,0,0
371,-174,0,0,0,0,0,0,0,0,0,-1,1595,1198,0,0
378,-174,0,0,0,0,0,0,0,0,0,-1,1602,1198,0,0
385,-174,0,0,0,0,0,0,0,0,0,-1,1609,1198,0,0
392,-174,0,0,0,0,0,0,0,0,0,-1,1616,1198,0,0
399,-174,0,0,0,0,0,0,0,0,0,-1,1623,1198,0,0
406,-174,0,0,0,0,0,0,0,0,0,-1,1630,1198,0,0
413,-174,0,0,0,0,0,0,0,0,0,-1,1637,1198,0,0
420,-174,0,0,0,0,0,0,0,0,0,-1,1644,1198,0,0
427,-174,0,0,0,0,0,0,0,0,0,-1,1651,1198,0,0
434,-174,0,0,0,0,0,0,0,0,0,-1,1658,1198,0,0
441,-174,0,0,0,0,0,0,0,0,0,-1,1665,1198,0,0
448,-174,0,0,0,0,0,0,0,0,0,-1,1672,1198,0,0
455,-174,0,0,0,0,0,0,0,0,0,-1,1679,1198,0,0
462,-174,0,0,0,0,0,0,0,0,0,-1,1686,1198,0,0
469,-174,0,0,0,0,0,0,0,0,0,-1,1693,1198,0,0
476,-174,0,0,0,0,0,0,0,0,0,-1,1700,1198,0,0
483,-174,0,0,0,0,0,0,0,0,0,-1,1707,1198,0,0
490,-174,0,0,0,0,0,0,0,0,0,-1,1714,1198,0,0
497,-174,0,0,0,0,0,0,0,0,0,-1,1721,1198,0,0
504,-174,0,0,0,0,0,0,0,0,0,-1,1728,1198,0,0
511,-174,0,0,0,0,0,0,0,0,0,-1,1735,1198,0,0
518,-174,0,0,0,0,0,0,0,0,0,-1,1742,1198,0,0
525,-174,0,0,0,0,0,0,0,0,0,-1,1749,1198,0,0
532,-174,0,0,0,0,0,0,0,0,0,-1,1756,1198,0,0
539,-174,0,0,0,0,0,0,0,0,0,-1,1763,1198,0,0
546,-174,0,0,0,0,0,0,0,0,0,-1,1770,1198,0,0
553,-174,0,0,0,0,0,0,0,0,0,-1,1777,1198,0,0
560,-174,0,0,0,0,0,0,0,0,0,-1,1784,1198,0,0
567,-174,0,0,0,0,0,0,0,0,0,-1,1791,1198,0,0
574,-174,0,0,0,0,0,0,0,0,0,-1,1798,1198,0,0
581,-174,0,0,0,0,0,0,0,0,0,-1,1805,1198,0,0
588,-174,0,0,0,0,0,0,0,0,0,-1,1812,1198,0,0
595,-174,0,0,0,0,0,0,0,0,0,-1,1819,1198,0,0
602,-174,0,0,0,0,0,0,0,0,0,-1,1826,1198,0,0
609,-174,0,0,0,0,0,0,0,0,0,-1,1833,1198,0,0
616,-174,0,0,0,0,0,0,0,0,0,-1,1840,1198,0,0
623,-174,0,0,0,0,0,0,0,0,0,-1,1847,1198,0,0
630,-174,0,0,0,0,0,0,0,0,0,-1,1854,1198,0,0
637,-174,54.6831,2.85352,0.00062567,-0.00198988,0.00234515,0.00200304,-0.00336725,0.531048,0.0031337,0.0401292,1861,1198,54.6831,-2.85346
644,-174,54.686,2.69934,0.000634748,-0.00147609,0.00191396,0.001765,-0.00260634,0.533428,0.00253933,0.0435883,1868,1198,54.6861,-2.69938
651,-174,54.6414,2.5542,0.00102024,-0.000929382,0.0012405,0.00162312,-0.00153226,0.45238,0.00182201,0.0442701,1875,1198,54.6414,-2.55418
658,-174,54.5454,2.72266,0.00157495,-0.000503449,0.000485783,0.00168289,-0.000611386,0.218638,0.00137191,0.0415362,1882,1198,54.5454,-2.72263
665,-174,54.5952,2.99536,0,0,0,0,0,0,0,-1,1889,1198,54.5952,-2.99538
672,-174,54.5511,2.8606,0.00218356,-0.000100774,-0.000387767,0.00224759,-0.000164803,-0.163646,0.00155624,0.0261749,1896,1198,54.5511,-2.86063
679,-174,54.6071,2.84302,0.00204257,-0.000190309,-0.000446328,0.00212848,-0.00027622,-0.190158,0.00151945,0.0227431,1903,1198,54.6071,-2.84306
686,-174,54.6965,2.80542,0,0,0,0,0,0,0,-1,1910,1198,54.6965,-2.8054
693,-174,51.1324,2.57349,0,0,0,0,0,0,0,-1,1917,1198,51.1325,-2.57343
700,-174,25.4004,6.11792,0,0,0,0,0,0,0,-1,1924,1198,25.4004,-6.11797
707,-174,34.7908,7.34473,0,0,0,0,0,0,0,-1,1931,1198,34.7908,-7.34475
714,-174,40.1135,7.79871,0,0,0,0,0,0,0,-1,1938,1198,40.1135,-7.79875
721,-174,40.8693,7.59863,0,0,0,0,0,0,0,-1,1945,1198,40.8693,-7.59859
728,-174,45.9323,7.93823,0,0,0,0,0,0,0,-1,1952,1198,45.9322,-7.93824
735,-174,46.0154,7.49646,4.72784e-05,-0.000324396,0.000801929,0.000684621,-0.000961739,0.671539,0.000955004,0.0147579,1959,1198,46.0154,-7.4965
742,-174,45.9998,6.99304,-9.08999e-05,0.000334267,0.00124584,0.00138553,-0.00114217,0.869901,0.00146162,0.0203207,1966,1198,45.9998,-6.99306
749,-174,45.9833,6.53809,-0.000102874,0.00203015,0.00147542,0.00278416,-0.000856886,1.09835,0.00219813,0.0182404,1973,1198,45.9833,-6.53813
756,-174,45.9918,6.08765,-8.22743e-05,0.00549152,0.00120556,0.0057411,-0.000331849,1.36666,0.00394267,0.0106282,1980,1198,45.9918,-6.08767
763,-174,45.9622,5.63513,-0.000171485,0.00986651,0.000710755,0.00991659,-0.000221561,1.50046,0.00668614,0.0148987,1987,1198,45.9621,-5.6351
770,-174,46.0863,5.13696,-0.00061231,0.0157134,-0.000219042,0.0157163,-0.000615249,-1.55738,0.0106885,0.0380717,1994,1198,46.0863,-5.13691
777,-174,46.3876,4.55005,0,0,0,0,0,0,0,-1,2001,1198,46.3876,-4.55002
784,-174,46.7341,3.90161,0,0,0,0,0,0,0,-1,2008,1198,46.734,-3.90159
791,-174,46.6765,3.69629,0,0,0,0,0,0,0,-1,2015,1198,46.6764,-3.69625
798,-174,46.5994,3.48999,0,0,0,0,0,0,0,-1,2022,1198,46.5995,-3.49001
805,-174,47.0898,0.322876,0,0,0,0,0,0,0,-1,2029,1198,47.0898,-0.322884
812,-174,0,0,0,0,0,0,0,0,0,-1,2036,1198,0,0
-700,-181,0,0,0,0,0,0,0,0,0,-1,524,1205,0,0
-693,-181,0,0,0,0,0,0,0,0,0,-1,531,1205,0,0
-686,-181,-31.5545,-1.72986,-0.0165815,-0.00498082,0.00581286,-0.00256938,-0.0189929,1.17756,0.0118983,0.0466741,538,1205,-31.5545,1.72986
-679,-181,-31.9362,-1.68555,-0.00823063,-0.00359376,0.00776542,0.00219193,-0.0140163,0.930465,0.010154,0.0469592,545,1205,-31.9361,1.68557
-672,-181,-32.5126,-0.878296,-0.00201287,-0.00268533,0.00819365,0.00585145,-0.0105496,0.764892,0.00959781,0.0490162,552,1205,-32.5126,0.878241
-665,-181,-33.0834,-0.111328,0,0,0,0,0,0,0,-1,559,1205,-33.0834,0.111326
-658,-181,-31.9075,0.509033,0.00378077,-0.000753726,0.00687167,0.00874956,-0.00572252,0.626051,0.00841616,0.0441817,566,1205,-31.9075,-0.509041
-651,-181,-31.4365,1.30249,0,0,0,0,0,0,0,-1,573,1205,-31.4365,-1.30243
-644,-181,-31.1556,1.72632,0.00489615,0.000770777,0.00429722,0.0076001,-0.00193317,0.561636,0.00581916,0.0458371,580,1205,-31.1556,-1.72632
-637,-181,-31.0788,2.40503,0.00424374,0.00146696,0.00289947,0.00607009,-0.000359386,0.562109,0.00417168,0.0262179,587,1205,-31.0788,-2.40504
-630,-181,-31.165,2.92896,0.0032558,0.00204198,0.00222906,0.00495909,0.000338687,0.652484,0.00319915,0.0136111,594,1205,-31.165,-2.92901
-623,-181,-31.2166,3.42712,0.00232867,0.00146339,0.000519703,0.00257225,0.00121981,0.438282,0.00148574,0.0157379,601,1205,-31.2166,-3.4271
-616,-181,-31.1999,3.95496,0.00125118,0.00088681,-0.000957964,0.00204413,9.38593e-05,-0.691431,0.00133257,0.0158829,608,1205,-31.1999,-3.95495
-609,-181,-31.1979,4.51672,0.000150334,0.000256292,-0.00157777,0.00178197,-0.00137535,-0.802181,0.00182791,0.0151684,615,1205,-31.1979,-4.51674
-602,-181,-31.2121,5.03589,0.000323849,-0.00101217,-0.00241396,0.00216052,-0.00284885,-0.650412,0.00290125,0.0157119,622,1205,-31.2121,-5.03587
-595,-181,-31.1194,5.51025,0,0,0,0,0,0,0,-1,629,1205,-31.1194,-5.51029
-588,-181,-31.7398,5.98889,0.000365403,-0.00175996,-0.00389817,0.00334314,-0.0047377,-0.652327,0.00468858,0.0359361,636,1205,-31.7398,-5.98893
-581,-181,-31.6656,6.59314,0.00103818,-0.00230579,-0.00408732,0.00378227,-0.00504988,-0.591249,0.00511672,0.0340594,643,1205,-31.6657,-6.59318
-574,-181,-31.1298,7.08362,0,0,0,0,0,0,0,-1,650,1205,-31.1298,-7.08359
-567,-181,-25.8839,3.34485,0,0,0,0,0,0,0,-1,657,1205,-25.8839,-3.3449
-560,-181,-31.7396,1.63306,0,0,0,0,0,0,0,-1,664,1205,-31.7396,-1.63303
-553,-181,-40.6116,1.66528,0,0,0,0,0,0,0,-1,671,1205,-40.6116,-1.66523
-546,-181,-40.5945,1.08752,0.00245287,-0.00343317,-0.0027962,0.00356942,-0.00454972,-0.379911,0.00469896,0.0369024,678,1205,-40.5945,-1.08754
-539,-181,-40.6702,1.05847,0.00291201,-0.00321437,-0.0017497,0.0033765,-0.00367887,-0.259487,0.00407467,0.0406977,685,1205,-40.6702,-1.0585
-532,-181,-40.4724,0.973633,0.0032498,-0.00259025,0.000343294,0.00326991,-0.00261036,0.0585142,0.00340208,0.0451891,692,1205,-40.4724,-0.973618
-525,-181,-40.526,0.880737,0.00424722,-0.000982768,0.00418541,0.00656738,-0.00330294,0.506175,0.00580159,0.0433341,699,1205,-40.526,-0.880778
-518,-181,-40.4893,0.998169,0.00580571,0.00111814,0.00886616,0.0126326,-0.00570879,0.656178,0.010838,0.0424614,706,1205,-40.4892,-0.998151
-511,-181,0,0,0,0,0,0,0,0,0,-1,713,1205,0,0
-504,-181,0,0,0,0,0,0,0,0,0,-1,720,1205,0,0
-497,-181,0,0,0,0,0,0,0,0,0,-1,727,1205,0,0
-490,-181,0,0,0,0,0,0,0,0,0,-1,734,1205,0,0
-483,-181,0,0,0,0,0,0,0,0,0,-1,741,1205,0,0
-476,-181,0,0,0,0,0,0,0,0,0,-1,748,1205,0,0
-469,-181,0,0,0,0,0,0,0,0,0,-1,755,1205,0,0
-462,-181,0,0,0,0,0,0,0,0,0,-1,762,1205,0,0
-455,-181,0,0,0,0,0,0,0,0,0,-1,769,1205,0,0
-448,-181,0,0,0,0,0,0,0,0,0,-1,776,1205,0,0
-441,-181,0,0,0,0,0,0,0,0,0,-1,783,1205,0,0
-434,-181,0,0,0,0,0,0,0,0,0,-1,790,1205,0,0
-427,-181,0,0,0,0,0,0,0,0,0,-1,797,1205,0,0
-420,-181,0,0,0,0,0,0,0,0,0,-1,804,1205,0,0
-413,-181,0,0,0,0,0,0,0,0,0,-1,811,1205,0,0
-406,-181,0,0,0,0,0,0,0,0,0,-1,818,1205,0,0
-399,-181,0,0,0,0,0,0,0,0,0,-1,825,1205,0,0
-392,-181,0,0,0,0,0,0,0,0,0,-1,832,1205,0,0
-385,-181,0,0,0,0,0,0,0,0,0,-1,839,1205,0,0
-378,-181,0,0,0,0,0,0,0,0,0,-1,846,1205,0,0
-371,-181,0,0,0,0,0,0,0,0,0,-1,853,1205,0,0
-364,-181,0,0,0,0,0,0,0,0,0,-1,860,1205,0,0
-357,-181,0,0,0,0,0,0,0,0,0,-1,867,1205,0,0
-350,-181,0,0,0,0,0,0,0,0,0,-1,874,1205,0,0
-343,-181,0,0,0,0,0,0,0,0,0,-1,881,1205,0,0
-336,-181,0,0,0,0,0,0,0,0,0,-1,888,1205,0,0
-329,-181,0,0,0,0,0,0,0,0,0,-1,895,1205,0,0
-322,-181,0,0,0,0,0,0,0,0,0,-1,902,1205,0,0
-315,-181,0,0,0,0,0,0,0,0,0,-1,909,1205,0,0
-308,-181,0,0,0,0,0,0,0,0,0,-1,916,1205,0,0
-301,-181,0,0,0,0,0,0,0,0,0,-1,923,1205,0,0
-294,-181,0,0,0,0,0,0,0,0,0,-1,930,1205,0,0
-287,-181,0,0,0,0,0,0,0,0,0,-1,937,1205,0,0
-280,-181,0,0,0,0,0,0,0,0,0,-1,944,1205,0,0
-273,-181,0,0,0,0,0,0,0,0,0,-1,951,1205,0,0
-266,-181,0,0,0,0,0,0,0,0,0,-1,958,1205,0,0
-259,-181,0,0,0,0,0,0,0,0,0,-1,965,1205,0,0
-252,-181,0,0,0,0,0,0,0,0,0,-1,972,1205,0,0
-245,-181,0,0,0,0,0,0,0,0,0,-1,979,1205,0,0
-238,-181,0,0,0,0,0,0,0,0,0,-1,986,1205,0,0
-231,-181,0,0,0,0,0,0,0,0,0,-1,993,1205,0,0
-224,-181,0,0,0,0,0,0,0,0,0,-1,1000,1205,0,0
-217,-181,0,0,0,0,0,0,0,0,0,-1,1007,1205,0,0
-210,-181,0,0,0,0,0,0,0,0,0,-1,1014,1205,0,0
-203,-181,0,0,0,0,0,0,0,0,0,-1,1021,1205,0,0
-196,-181,0,0,0,0,0,0,0,0,0,-1,1028,1205,0,0
-189,-181,0,0,0,0,0,0,0,0,0,-1,1035,1205,0,0
-182,-181,0,0,0,0,0,0,0,0,0,-1,1042,1205,0,0
-175,-181,0,0,0,0,0,0,0,0,0,-1,1049,1205,0,0
-168,-181,0,0,0,0,0,0,0,0,0,-1,1056,1205,0,0
-161,-181,0,0,0,0,0,0,0,0,0,-1,1063,1205,0,0
-154,-181,0,0,0,0,0,0,0,0,0,-1,1070,1205,0,0
-147,-181,0,0,0,0,0,0,0,0,0,-1,1077,1205,0,0
-140,-181,0,0,0,0,0,0,0,0,0,-1,1084,1205,0,0
-133,-181,0,0,0,0,0,0,0,0,0,-1,1091,1205,0,0
-126,-181,0,0,0,0,0,0,0,0,0,-1,1098,1205,0,0
-119,-181,0,0,0,0,0,0,0,0,0,-1,1105,1205,0,0
-112,-181,0,0,0,0,0,0,0,0,0,-1,1112,1205,0,0
-105,-181,0,0,0,0,0,0,0,0,0,-1,1119,1205,0,0
-98,-181,0,0,0,0,0,0,0,0,0,-1,1126,1205,0,0
-91,-181,0,0,0,0,0,0,0,0,0,-1,1133,1205,0,0
-84,-181,0,0,0,0,0,0,0,0,0,-1,1140,1205,0,0
-77,-181,0,0,0,0,0,0,0,0,0,-1,1147,1205,0,0
-70,-181,0,0,0,0,0,0,0,0,0,-1,1154,1205,0,0
-63,-181,0,0,0,0,0,0,0,0,0,-1,1161,1205,0,0
-56,-181,0,0,0,0,0,0,0,0,0,-1,1168,1205,0,0
-49,-181,0,0,0,0,0,0,0,0,0,-1,1175,1205,0,0
-42,-181,0,0,0,0,0,0,0,0,0,-1,1182,1205,0,0
-35,-181,0,0,0,0,0,0,0,0,0,-1,1189,1205,0,0
-28,-181,0,0,0,0,0,0,0,0,0,-1,1196,1205,0,0
-21,-181,0,0,0,0,0,0,0,0,0,-1,1203,1205,0,0
-14,-181,0,0,0,0,0,0,0,0,0,-1,1210,1205,0,0
-7,-181,0,0,0,0,0,0,0,0,0,-1,1217,1205,0,0
0,-181,0,0,0,0,0,0,0,0,0,-1,1224,1205,0,0
7,-181,0,0,0,0,0,0,0,0,0,-1,1231,1205,0,0
14,-181,0,0,0,0,0,0,0,0,0,-1,1238,1205,0,0
21,-181,0,0,0,0,0,0,0,0,0,-1,1245,1205,0,0
28,-181,0,0,0,0,0,0,0,0,0,-1,1252,1205,0,0
35,-181,0,0,0,0,0,0,0,0,0,-1,1259,1205,0,0
42,-181,0,0,0,0,0,0,0,0,0,-1,1266,1205,0,0
49,-181,0,0,0,0,0,0,0,0,0,-1,1273,1205,0,0
56,-181,0,0,0,0,0,0,0,0,0,-1,1280,1205,0,0
63,-181,0,0,0,0,0,0,0,0,0,-1,1287,1205,0,0
70,-181,0,0,0,0,0,0,0,0,0,-1,1294,1205,0,0
77,-181,0,0,0,0,0,0,0,0,0,-1,1301,1205,0,0
84,-181,0,0,0,0,0,0,0,0,0,-1,1308,1205,0,0
91,-181,0,0,0,0,0,0,0,0,0,-1,1315,1205,0,0
98,-181,0,0,0,0,0,0,0,0,0,-1,1322,1205,0,0
105,-181,0,0,0,0,0,0,0,0,0,-1,1329,1205,0,0
112,-181,0,0,0,0,0,0,0,0,0,-1,1336,1205,0,0
119,-181,0,0,0,0,0,0,0,0,0,-1,1343,1205,0,0
126,-181,0,0,0,0,0,0,0,0,0,-1,1350,1205,0,0
133,-181,0,0,0,0,0,0,0,0,0,-1,1357,1205,0,0
140,-181,0,0,0,0,0,0,0,0,0,-1,1364,1205,0,0
147,-181,0,0,0,0,0,0,0,0,0,-1,1371,1205,0,0
154,-181,0,0,0,0,0,0,0,0,0,-1,1378,1205,0,0
161,-181,0,0,0,0,0,0,0,0,0,-1,1385,1205,0,0
168,-181,0,0,0,0,0,0,0,0,0,-1,1392,1205,0,0
175,-181,0,0,0,0,0,0,0,0,0,-1,1399,1205,0,0
182,-181,0,0,0,0,0,0,0,0,0,-1,1406,1205,0,0
189,-181,0,0,0,0,0,0,0,0,0,-1,1413,1205,0,0
196,-181,0,0,0,0,0,0,0,0,0,-1,1420,1205,0,0
203,-181,0,0,0,0,0,0,0,0,0,-1,1427,1205,0,0
210,-181,0,0,0,0,0,0,0,0,0,-1,1434,1205,0,0
217,-181,0,0,0,0,0,0,0,0,0,-1,1441,1205,0,0
224,-181,0,0,0,0,0,0,0,0,0,-1,1448,1205,0,0
231,-181,0,0,0,0,0,0,0,0,0,-1,1455,1205,0,0
238,-181,0,0,0,0,0,0,0,0,0,-1,1462,1205,0,0
245,-181,0,0,0,0,0,0,0,0,0,-1,1469,1205,0,0
252,-181,0,0,0,0,0,0,0,0,0,-1,1476,1205,0,0
259,-181,0,0,0,0,0,0,0,0,0,-1,1483,1205,0,0
266,-181,0,0,0,0,0,0,0,0,0,-1,1490,1205,0,0
273,-181,0,0,0,0,0,0,0,0,0,-1,1497,1205,0,0
280,-181,0,0,0,0,0,0,0,0,0,-1,1504,1205,0,0
287,-181,0,0,0,0,0,0,0,0,0,-1,1511,1205,0,0
294,-181,0,0,0,0,0,0,0,0,0,-1,1518,1205,0,0
301,-181,0,0,0,0,0,0,0,0,0,-1,1525,1205,0,0
308,-181,0,0,0,0,0,0,0,0,0,-1,1532,1205,0,0
315,-181,0,0,0,0,0,0,0,0,0,-1,1539,1205,0,0
322,-181,0,0,0,0,0,0,0,0,0,-1,1546,1205,0,0
329,-181,0,0,0,0,0,0,0,0,0,-1,1553,1205,0,0
336,-181,0,0,0,0,0,0,0,0,0,-1,1560,1205,0,0
343,-181,0,0,0,0,0,0,0,0,0,-1,1567,1205,0,0
350,-181,0,0,0,0,0,0,0,0,0,-1,1574,1205,0,0
357,-181,0,0,0,0,0,0,0,0,0,-1,1581,1205,0,0
364,-181,0,0,0,0,0,0,0,0,0,-1,1588,1205,0,0
371,-181,0,0,0,0,0,0,0,0,0,-1,1595,1205,0,0
378,-181,0,0,0,0,0,0,0,0,0,-1,1602,1205,0,0
385,-181,0,0,0,0,0,0,0,0,0,-1,1609,1205,0,0
392,-181,0,0,0,0,0,0,0,0,0,-1,1616,1205,0,0
399,-181,0,0,0,0,0,0,0,0,0,-1,1623,1205,0,0
406,-181,0,0,0,0,0,0,0,0,0,-1,1630,1205,0,0
413,-181,0,0,0,0,0,0,0,0,0,-1,1637,1205,0,0
420,-181,0,0,0,0,0,0,0,0,0,-1,1644,1205,0,0
427,-181,0,0,0,0,0,0,0,0,0,-1,1651,1205,0,0
434,-181,0,0,0,0,0,0,0,0,0,-1,1658,1205,0,0
441,-181,0,0,0,0,0,0,0,0,0,-1,1665,1205,0,0
448,-181,0,0,0,0,0,0,0,0,0,-1,1672,1205,0,0
455,-181,0,0,0,0,0,0,0,0,0,-1,1679,1205,0,0
462,-181,0,0,0,0,0,0,0,0,0,-1,1686,1205,0,0
469,-181,0,0,0,0,0,0,0,0,0,-1,1693,1205,0,0
476,-181,0,0,0,0,0,0,0,0,0,-1,1700,1205,0,0
483,-181,0,0,0,0,0,0,0,0,0,-1,1707,1205,0,0
490,-181,0,0,0,0,0,0,0,0,0,-1,1714,1205,0,0
497,-181,0,0,0,0,0,0,0,0,0,-1,1721,1205,0,0
504,-181,0,0,0,0,0,0,0,0,0,-1,1728,1205,0,0
511,-181,0,0,0,0,0,0,0,0,0,-1,1735,1205,0,0
518,-181,0,0,0,0,0,0,0,0,0,-1,1742,1205,0,0
525,-181,0,0,0,0,0,0,0,0,0,-1,1749,1205,0,0
532,-181,0,0,0,0,0,0,0,0,0,-1,1756,1205,0,0
539,-181,0,0,0,0,0,0,0,0,0,-1,1763,1205,0,0
546,-181,0,0,0,0,0,0,0,0,0,-1,1770,1205,0,0
553,-181,0,0,0,0,0,0,0,0,0,-1,1777,1205,0,0
560,-181,0,0,0,0,0,0,0,0,0,-1,1784,1205,0,0
567,-181,0,0,0,0,0,0,0,0,0,-1,1791,1205,0,0
574,-181,0,0,0,0,0,0,0,0,0,-1,1798,1205,0,0
581,-181,0,0,0,0,0,0,0,0,0,-1,1805,1205,0,0
588,-181,0,0,0,0,0,0,0,0,0,-1,1812,1205,0,0
595,-181,0,0,0,0,0,0,0,0,0,-1,1819,1205,0,0
602,-181,0,0,0,0,0,0,0,0,0,-1,1826,1205,0,0
609,-181,0,0,0,0,0,0,0,0,0,-1,1833,1205,0,0
616,-181,0,0,0,0,0,0,0,0,0,-1,1840,1205,0,0
623,-181,0,0,0,0,0,0,0,0,0,-1,1847,1205,0,0
630,-181,54.6749,2.95276,0.00113791,-0.00192413,0.00152293,0.00176637,-0.00255259,0.391376,0.00250728,0.0367025,1854,1205,54.6749,-2.95277
637,-181,54.7367,2.71033,0.0009807,-0.00156096,0.00145834,0.00164423,-0.0022245,0.426998,0.00224197,0.0356511,1861,1205,54.7367,-2.71032
644,-181,54.6855,2.7627,0.00116238,-0.00114356,0.00111348,0.00161228,-0.00159345,0.38399,0.00185084,0.0386559,1868,1205,54.6856,-2.76265
651,-181,54.7235,2.80774,0.00165637,-0.000677929,0.000537525,0.0017742,-0.000795759,0.215794,0.00151919,0.038554,1875,1205,54.7236,-2.80772
658,-181,54.5747,2.85107,0.00218436,-0.000432361,-7.98536e-05,0.0021868,-0.000434795,-0.0304788,0.00162234,0.0344408,1882,1205,54.5747,-2.8511
665,-181,54.5249,2.91638,0.0025866,-0.000463216,-0.000540985,0.00267972,-0.000556335,-0.170457,0.00199791,0.0321711,1889,1205,54.5249,-2.91635
672,-181,54.5627,2.87463,0.00248615,-0.000388415,-0.00057236,0.00259592,-0.000498186,-0.189487,0.00191836,0.0235972,1896,1205,54.5627,-2.87467
679,-181,54.6705,2.8783,0.00225132,-0.000474572,-0.000536486,0.00235311,-0.000576358,-0.187498,0.00179202,0.0299599,1903,1205,54.6705,-2.87825
686,-181,54.7849,2.90613,0,0,0,0,0,0,0,-1,1910,1205,54.7849,-2.90616
693,-181,36.1301,2.91016,0,0,0,0,0,0,0,-1,1917,1205,36.1302,-2.9102
700,-181,29.5845,6.58398,0,0,0,0,0,0,0,-1,1924,1205,29.5844,-6.58395
707,-181,39.8232,8.03186,0,0,0,0,0,0,0,-1,1931,1205,39.8233,-8.0319
714,-181,40.174,7.73877,0,0,0,0,0,0,0,-1,1938,1205,40.174,-7.73878
721,-181,45.9573,8.51868,0,0,0,0,0,0,0,-1,1945,1205,45.9573,-8.51871
728,-181,45.493,7.95081,0.000327663,-0.000428529,0.000483944,0.000563699,-0.000664565,0.453788,0.000709935,0.0376678,1952,1205,45.493,-7.95078
735,-181,45.5715,7.50134,0.000119716,-0.000384429,0.000775963,0.000683523,-0.000948236,0.62835,0.00094622,0.0127498,1959,1205,45.5716,-7.50139
742,-181,45.519,7.06494,6.74705e-05,0.000415368,0.00122531,0.00147901,-0.000996173,0.855909,0.00143808,0.0172734,1966,1205,45.519,-7.06493
749,-181,45.516,6.55969,0.000151927,0.00216001,0.00148192,0.00294599,-0.000634057,1.08314,0.00220593,0.0165117,1973,1205,45.516,-6.55972
756,-181,45.5389,6.07227,0.00023528,0.00549168,0.00131897,0.00580408,-7.71198e-05,1.33823,0.00389535,0.0114771,1980,1205,45.5389,-6.07229
763,-181,45.554,5.62012,0.000214972,0.00962183,0.0009758,0.00972199,0.000114816,1.46851,0.00644339,0.0142872,1987,1205,45.554,-5.62007
770,-181,45.7102,5.05066,-0.000140794,0.0152544,0.000214032,0.0152574,-0.00014377,1.5569,0.0102199,0.0419888,1994,1205,45.7102,-5.0507
777,-181,45.9767,4.35327,0,0,0,0,0,0,0,-1,2001,1205,45.9767,-4.3533
784,-181,49.4673,-0.801392,0,0,0,0,0,0,0,-1,2008,1205,49.4674,0.801388
791,-181,46.0295,3.60669,0,0,0,0,0,0,0,-1,2015,1205,46.0296,-3.60674
798,-181,45.8975,3.37451,0,0,0,0,0,0,0,-1,2022,1205,45.8974,-3.37447
805,-181,0,0,0,0,0,0,0,0,0,-1,2029,1205,0,0
812,-181,0,0,0,0,0,0,0,0,0,-1,2036,1205,0,0
-700,-188,0,0,0,0,0,0,0,0,0,-1,524,1212,0,0
-693,-188,0,0,0,0,0,0,0,0,0,-1,531,1212,0,0
-686,-188,0,0,0,0,0,0,0,0,0,-1,538,1212,0,0
-679,-188,-31.5966,-1.79553,0,0,0,0,0,0,0,-1,545,1212,-31.5965,1.79554
-672,-188,-32.2785,-0.917358,0,0,0,0,0,0,0,-1,552,1212,-32.2785,0.917383
-665,-188,-32.6472,-0.243652,0,0,0,0,0,0,0,-1,559,1212,-32.6472,0.243639
-658,-188,-32.3054,1.00525,0,0,0,0,0,0,0,-1,566,1212,-32.3054,-1.00525
-651,-188,-31.525,1.87317,0,0,0,0,0,0,0,-1,573,1212,-31.525,-1.8732
-644,-188,-30.7098,1.84131,0,0,0,0,0,0,0,-1,580,1212,-30.7098,-1.84132
-637,-188,-30.6243,2.40125,0.00354807,0.00148967,0.00299074,0.00568175,-0.000644006,0.61968,0.00401973,0.025796,587,1212,-30.6243,-2.40121
-630,-188,-30.6436,2.93628,0.00293669,0.00205254,0.00241709,0.0049518,3.74329e-05,0.694949,0.00328879,0.0115984,594,1212,-30.6435,-2.93623
-623,-188,-30.657,3.46228,0.00235067,0.00143967,0.000735248,0.00276008,0.00103026,0.508075,0.00161051,0.0118389,601,1212,-30.657,-3.46228
-616,-188,-30.6469,3.98364,0.00160601,0.000859103,-0.000760867,0.00208013,0.000384978,-0.557258,0.00127791,0.0116181,608,1212,-30.6469,-3.9836
-609,-188,-30.6316,4.53235,0.000598977,0.000317046,-0.00139498,0.00186009,-0.000944071,-0.735043,0.00164753,0.014194,615,1212,-30.6316,-4.53231
-602,-188,-30.655,5.07715,0.000682819,-0.000826664,-0.00226949,0.00231977,-0.00246362,-0.624871,0.00276211,0.0181877,622,1212,-30.655,-5.07713
-595,-188,-30.7758,5.53674,0.000619342,-0.00171849,-0.00310463,0.00276782,-0.00386696,-0.605353,0.00384807,0.0279814,629,1212,-30.7758,-5.5368
-588,-188,-30.9898,6.06982,0.000771627,-0.00174838,-0.00385099,0.0035635,-0.00454025,-0.627293,0.00469002,0.0272208,636,1212,-30.9898,-6.06981
-581,-188,-30.9825,6.57263,0.00131259,-0.00235265,-0.00407953,0.00395223,-0.00499228,-0.574295,0.00517574,0.0283173,643,1212,-30.9825,-6.57262
-574,-188,-31.3023,6.9895,0,0,0,0,0,0,0,-1,650,1212,-31.3023,-6.98954
-567,-188,-19.5786,4.10388,0,0,0,0,0,0,0,-1,657,1212,-19.5785,-4.10383
-560,-188,-23.9507,0.416626,0,0,0,0,0,0,0,-1,664,1212,-23.9508,-0.416602
-553,-188,-40.5477,1.21265,0,0,0,0,0,0,0,-1,671,1212,-40.5477,-1.21261
-546,-188,-40.5768,1.17151,0.00259935,-0.00332745,-0.00224475,0.00335357,-0.00408166,-0.324139,0.00429959,0.0447129,678,1212,-40.5768,-1.1715
-539,-188,-40.6354,1.12878,0.0030883,-0.00318061,-0.00138329,0.00337996,-0.00347228,-0.207805,0.00395626,0.0378871,685,1212,-40.6355,-1.12879
-532,-188,-40.4757,1.06506,0,0,0,0,0,0,0,-1,692,1212,-40.4757,-1.06506
-525,-188,-40.4933,0.868896,0.00460814,-0.0016445,0.00316034,0.00592722,-0.00296358,0.395404,0.0052273,0.0417034,699,1212,-40.4933,-0.868942
-518,-188,-40.519,1.05518,0.00647721,0.000253693,0.00746477,0.0114528,-0.00472194,0.587921,0.00960426,0.0436355,706,1212,-40.519,-1.0552
-511,-188,-40.5571,1.30225,0.00890119,0.00215302,0.0123193,0.0183001,-0.00724589,0.651733,0.0152023,0.0392382,713,1212,-40.5571,-1.3023
-504,-188,0,0,0,0,0,0,0,0,0,-1,720,1212,0,0
-497,-188,0,0,0,0,0,0,0,0,0,-1,727,1212,0,0
-490,-188,0,0,0,0,0,0,0,0,0,-1,734,1212,0,0
-483,-188,0,0,0,0,0,0,0,0,0,-1,741,1212,0,0
-476,-188,0,0,0,0,0,0,0,0,0,-1,748,1212,0,0
-469,-188,0,0,0,0,0,0,0,0,0,-1,755,1212,0,0
-462,-188,0,0,0,0,0,0,0,0,0,-1,762,1212,0,0
-455,-188,0,0,0,0,0,0,0,0,0,-1,769,1212,0,0
-448,-188,0,0,0,0,0,0,0,0,0,-1,776,1212,0,0
-441,-188,0,0,0,0,0,0,0,0,0,-1,783,1212,0,0
-434,-188,0,0,0,0,0,0,0,0,0,-1,790,1212,0,0
-427,-188,0,0,0,0,0,0,0,0,0,-1,797,1212,0,0
-420,-188,0,0,0,0,0,0,0,0,0,-1,804,1212,0,0
-413,-188,0,0,0,0,0,0,0,0,0,-1,811,1212,0,0
-406,-188,0,0,0,0,0,0,0,0,0,-1,818,1212,0,0
-399,-188,0,0,0,0,0,0,0,0,0,-1,825,1212,0,0
-392,-188,0,0,0,0,0,0,0,0,0,-1,832,1212,0,0
-385,-188,0,0,0,0,0,0,0,0,0,-1,839,1212,0,0
-378,-188,0,0,0,0,0,0,0,0,0,-1,846,1212,0,0
-371,-188,0,0,0,0,0,0,0,0,0,-1,853,1212,0,0
-364,-188,0,0,0,0,0,0,0,0,0,-1,860,1212,0,0
-357,-188,0,0,0,0,0,0,0,0,0,-1,867,1212,0,0
-350,-188,0,0,0,0,0,0,0,0,0,-1,874,1212,0,0
-343,-188,0,0,0,0,0,0,0,0,0,-1,881,1212,0,0
-336,-188,0,0,0,0,0,0,0,0,0,-1,888,1212,0,0
-329,-188,0,0,0,0,0,0,0,0,0,-1,895,1212,0,0
-322,-188,0,0,0,0,0,0,0,0,0,-1,902,1212,0,0
-315,-188,0,0,0,0,0,0,0,0,0,-1,909,1212,0,0
-308,-188,0,0,0,0,0,0,0,0,0,-1,916,1212,0,0
-301,-188,0,0,0,0,0,0,0,0,0,-1,923,1212,0,0
-294,-188,0,0,0,0,0,0,0,0,0,-1,930,1212,0,0
-287,-188,0,0,0,0,0,0,0,0,0,-1,937,1212,0,0
-280,-188,0,0,0,0,0,0,0,0,0,-1,944,1212,0,0
-273,-188,0,0,0,0,0,0,0,0,0,-1,951,1212,0,0
-266,-188,0,0,0,0,0,0,0,0,0,-1,958,1212,0,0
-259,-188,0,0,0,0,0,0,0,0,0,-1,965,1212,0,0
-252,-188,0,0,0,0,0,0,0,0,0,-1,972,1212,0,0
-245,-188,0,0,0,0,0,0,0,0,0,-1,979,1212,0,0
-238,-188,0,0,0,0,0,0,0,0,0,-1,986,1212,0,0
-231,-188,0,0,0,0,0,0,0,0,0,-1,993,1212,0,0
-224,-188,0,0,0,0,0,0,0,0,0,-1,1000,1212,0,0
-217,-188,0,0,0,0,0,0,0,0,0,-1,1007,1212,0,0
-210,-188,0,0,0,0,0,0,0,0,0,-1,1014,1212,0,0
-203,-188,0,0,0,0,0,0,0,0,0,-1,1021,1212,0,0
-196,-188,0,0,0,0,0,0,0,0,0,-1,1028,1212,0,0
-189,-188,0,0,0,0,0,0,0,0,0,-1,1035,1212,0,0
-182,-188,0,0,0,0,0,0,0,0,0,-1,1042,1212,0,0
-175,-188,0,0,0,0,0,0,0,0,0,-1,1049,1212,0,0
-168,-188,0,0,0,0,0,0,0,0,0,-1,1056,1212,0,0
-161,-188,0,0,0,0,0,0,0,0,0,-1,1063,1212,0,0
-154,-188,0,0,0,0,0,0,0,0,0,-1,1070,1212,0,0
-147,-188,0,0,0,0,0,0,0,0,0,-1,1077,1212,0,0
-140,-188,0,0,0,0,0,0,0,0,0,-1,1084,1212,0,0
-133,-188,0,0,0,0,0,0,0,0,0,-1,1091,1212,0,0
-126,-188,0,0,0,0,0,0,0,0,0,-1,1098,1212,0,0
-119,-188,0,0,0,0,0,0,0,0,0,-1,1105,1212,0,0
-112,-188,0,0,0,0,0,0,0,0,0,-1,1112,1212,0,0
-105,-188,0,0,0,0,0,0,0,0,0,-1,1119,1212,0,0
-98,-188,0,0,0,0,0,0,0,0,0,-1,1126,1212,0,0
-91,-188,0,0,0,0,0,0,0,0,0,-1,1133,1212,0,0
-84,-188,0,0,0,0,0,0,0,0,0,-1,1140,1212,0,0
-77,-188,0,0,0,0,0,0,0,0,0,-1,1147,1212,0,0
-70,-188,0,0,0,0,0,0,0,0,0,-1,1154,1212,0,0
-63,-188,0,0,0,0,0,0,0,0,0,-1,1161,1212,0,0
-56,-188,0,0,0,0,0,0,0,0,0,-1,1168,1212,0,0
-49,-188,0,0,0,0,0,0,0,0,0,-1,1175,1212,0,0
-42,-188,0,0,0,0,0,0,0,0,0,-1,1182,1212,0,0
-35,-188,0,0,0,0,0,0,0,0,0,-1,1189,1212,0,0
-28,-188,0,0,0,0,0,0,0,0,0,-1,1196,1212,0,0
-21,-188,0,0,0,0,0,0,0,0,0,-1,1203,1212,0,0
-14,-188,0,0,0,0,0,0,0,0,0,-1,1210,1212,0,0
-7,-188,0,0,0,0,0,0,0,0,0,-1,1217,1212,0,0
0,-188,0,0,0,0,0,0,0,0,0,-1,1224,1212,0,0
7,-188,0,0,0,0,0,0,0,0,0,-1,1231,1212,0,0
14,-188,0,0,0,0,0,0,0,0,0,-1,1238,1212,0,0
21,-188,0,0,0,0,0,0,0,0,0,-1,1245,1212,0,0
28,-188,0,0,0,0,0,0,0,0,0,-1,1252,1212,0,0
35,-188,0,0,0,0,0,0,0,0,0,-1,1259,1212,0,0
42,-188,0,0,0,0,0,0,0,0,0,-1,1266,1212,0,0
49,-188,0,0,0,0,0,0,0,0,0,-1,1273,1212,0,0
56,-188,0,0,0,0,0,0,0,0,0,-1,1280,1212,0,0
63,-188,0,0,0,0,0,0,0,0,0,-1,1287,1212,0,0
70,-188,0,0,0,0,0,0,0,0,0,-1,1294,1212,0,0
77,-188,0,0,0,0,0,0,0,0,0,-1,1301,1212,0,0
84,-188,0,0,0,0,0,0,0,0,0,-1,1308,1212,0,0
91,-188,0,0,0,0,0,0,0,0,0,-1,1315,1212,0,0
98,-188,0,0,0,0,0,0,0,0,0,-1,1322,1212,0,0
105,-188,0,0,0,0,0,0,0,0,0,-1,1329,1212,0,0
112,-188,0,0,0,0,0,0,0,0,0,-1,1336,1212,0,0
119,-188,0,0,0,0,0,0,0,0,0,-1,1343,1212,0,0
126,-188,0,0,0,0,0,0,0,0,0,-1,1350,1212,0,0
133,-188,0,0,0,0,0,0,0,0,0,-1,1357,1212,0,0
140,-188,0,0,0,0,0,0,0,0,0,-1,1364,1212,0,0
147,-188,0,0,0,0,0,0,0,0,0,-1,1371,1212,0,0
154,-188,0,0,0,0,0,0,0,0,0,-1,1378,1212,0,0
161,-188,0,0,0,0,0,0,0,0,0,-1,1385,1212,0,0
168,-188,0,0,0,0,0,0,0,0,0,-1,1392,1212,0,0
175,-188,0,0,0,0,0,0,0,0,0,-1,1399,1212,0,0
182,-188,0,0,0,0,0,0,0,0,0,-1,1406,1212,0,0
189,-188,0,0,0,0,0,0,0,0,0,-1,1413,1212,0,0
196,-188,0,0,0,0,0,0,0,0,0,-1,1420,1212,0,0
203,-188,0,0,0,0,0,0,0,0,0,-1,1427,1212,0,0
210,-188,0,0,0,0,0,0,0,0,0,-1,1434,1212,0,0
217,-188,0,0,0,0,0,0,0,0,0,-1,1441,1212,0,0
224,-188,0,0,0,0,0,0,0,0,0,-1,1448,1212,0,0
231,-188,0,0,0,0,0,0,0,0,0,-1,1455,1212,0,0
238,-188,0,0,0,0,0,0,0,0,0,-1,1462,1212,0,0
245,-188,0,0,0,0,0,0,0,0,0,-1,1469,1212,0,0
252,-188,0,0,0,0,0,0,0,0,0,-1,1476,1212,0,0
259,-188,0,0,0,0,0,0,0,0,0,-1,1483,1212,0,0
266,-188,0,0,0,0,0,0,0,0,0,-1,1490,1212,0,0
273,-188,0,0,0,0,0,0,0,0,0,-1,1497,1212,0,0
280,-188,0,0,0,0,0,0,0,0,0,-1,1504,1212,0,0
287,-188,0,0,0,0,0,0,0,0,0,-1,1511,1212,0,0
294,-188,0,0,0,0,0,0,0,0,0,-1,1518,1212,0,0
301,-188,0,0,0,0,0,0,0,0,0,-1,1525,1212,0,0
308,-188,0,0,0,0,0,0,0,0,0,-1,1532,1212,0,0
315,-188,0,0,0,0,0,0,0,0,0,-1,1539,1212,0,0
322,-188,0,0,0,0,0,0,0,0,0,-1,1546,1212,0,0
329,-188,0,0,0,0,0,0,0,0,0,-1,1553,1212,0,0
336,-188,0,0,0,0,0,0,0,0,0,-1,1560,1212,0,0
343,-188,0,0,0,0,0,0,0,0,0,-1,1567,1212,0,0
350,-188,0,0,0,0,0,0,0,0,0,-1,1574,1212,0,0
357,-188,0,0,0,0,0,0,0,0,0,-1,1581,1212,0,0
364,-188,0,0,0,0,0,0,0,0,0,-1,1588,1212,0,0
371,-188,0,0,0,0,0,0,0,0,0,-1,1595,1212,0,0
378,-188,0,0,0,0,0,0,0,0,0,-1,1602,1212,0,0
385,-188,0,0,0,0,0,0,0,0,0,-1,1609,1212,0,0
392,-188,0,0,0,0,0,0,0,0,0,-1,1616,1212,0,0
399,-188,0,0,0,0,0,0,0,0,0,-1,1623,1212,0,0
406,-188,0,0,0,0,0,0,0,0,0,-1,1630,1212,0,0
413,-188,0,0,0,0,0,0,0,0,0,-1,1637,1212,0,0
420,-188,0,0,0,0,0,0,0,0,0,-1,1644,1212,0,0
427,-188,0,0,0,0,0,0,0,0,0,-1,1651,1212,0,0
434,-188,0,0,0,0,0,0,0,0,0,-1,1658,1212,0,0
441,-188,0,0,0,0,0,0,0,0,0,-1,1665,1212,0,0
448,-188,0,0,0,0,0,0,0,0,0,-1,1672,1212,0,0
455,-188,0,0,0,0,0,0,0,0,0,-1,1679,1212,0,0
462,-188,0,0,0,0,0,0,0,0,0,-1,1686,1212,0,0
469,-188,0,0,0,0,0,0,0,0,0,-1,1693,1212,0,0
476,-188,0,0,0,0,0,0,0,0,0,-1,1700,1212,0,0
483,-188,0,0,0,0,0,0,0,0,0,-1,1707,1212,0,0
490,-188,0,0,0,0,0,0,0,0,0,-1,1714,1212,0,0
497,-188,0,0,0,0,0,0,0,0,0,-1,1721,1212,0,0
504,-188,0,0,0,0,0,0,0,0,0,-1,1728,1212,0,0
511,-188,0,0,0,0,0,0,0,0,0,-1,1735,1212,0,0
518,-188,0,0,0,0,0,0,0,0,0,-1,1742,1212,0,0
525,-188,0,0,0,0,0,0,0,0,0,-1,1749,1212,0,0
532,-188,0,0,0,0,0,0,0,0,0,-1,1756,1212,0,0
539,-188,0,0,0,0,0,0,0,0,0,-1,1763,1212,0,0
546,-188,0,0,0,0,0,0,0,0,0,-1,1770,1212,0,0
553,-188,0,0,0,0,0,0,0,0,0,-1,1777,1212,0,0
560,-188,0,0,0,0,0,0,0,0,0,-1,1784,1212,0,0
567,-188,0,0,0,0,0,0,0,0,0,-1,1791,1212,0,0
574,-188,0,0,0,0,0,0,0,0,0,-1,1798,1212,0,0
581,-188,0,0,0,0,0,0,0,0,0,-1,1805,1212,0,0
588,-188,0,0,0,0,0,0,0,0,0,-1,1812,1212,0,0
595,-188,0,0,0,0,0,0,0,0,0,-1,1819,1212,0,0
602,-188,0,0,0,0,0,0,0,0,0,-1,1826,1212,0,0
609,-188,0,0,0,0,0,0,0,0,0,-1,1833,1212,0,0
616,-188,0,0,0,0,0,0,0,0,0,-1,1840,1212,0,0
623,-188,0,0,0,0,0,0,0,0,0,-1,1847,1212,0,0
630,-188,54.6715,2.90759,0.00135013,-0.00136527,0.000789482,0.00156298,-0.00157812,0.263347,0.00181352,0.039551,1854,1212,54.6715,-2.90765
637,-188,54.61,2.8053,0.00121437,-0.00104583,0.000699686,0.00141343,-0.00124489,0.277186,0.00153582,0.03854,1861,1212,54.61,-2.80526
644,-188,54.5499,2.81238,0.00144151,-0.000632358,0.000388184,0.00151179,-0.000702636,0.179103,0.00130664,0.0351032,1868,1212,54.5499,-2.8124
651,-188,54.5176,2.88806,0.00196079,-0.000218807,-0.00010079,0.00196544,-0.000223458,-0.0461113,0.00139078,0.0306803,1875,1212,54.5176,-2.88809
658,-188,54.5278,2.88184,0.0024533,-0.000184389,-0.000567543,0.00257023,-0.000301321,-0.203189,0.00182225,0.029655,1882,1212,54.5278,-2.8819
665,-188,54.5032,2.88806,0.00276192,-0.000474366,-0.000836429,0.00296532,-0.00067776,-0.23854,0.00223728,0.0297423,1889,1212,54.5032,-2.88806
672,-188,54.5621,2.82397,0.00262983,-0.000578733,-0.000738197,0.00279152,-0.000740423,-0.215628,0.00215073,0.0249678,1896,1212,54.5621,-2.82393
679,-188,54.5768,2.77881,0.00242964,-0.000712019,-0.000644125,0.00255657,-0.000838954,-0.194572,0.0020423,0.0470133,1903,1212,54.5768,-2.77879
686,-188,54.6265,2.79089,0,0,0,0,0,0,0,-1,1910,1212,54.6265,-2.79095
693,-188,35.9054,2.18042,0,0,0,0,0,0,0,-1,1917,1212,35.9054,-2.18038
700,-188,39.0826,8.68848,0,0,0,0,0,0,0,-1,1924,1212,39.0826,-8.68852
707,-188,45.2867,9.67419,0,0,0,0,0,0,0,-1,1931,1212,45.2868,-9.67417
714,-188,45.5093,9.20667,0,0,0,0,0,0,0,-1,1938,1212,45.5093,-9.20661
721,-188,45.255,8.54956,0.00081652,-0.000393131,8.34713e-05,0.000822253,-0.000398864,0.0685713,0.000718999,0.0494322,1945,1212,45.255,-8.54952
728,-188,45.0732,8.005,0.000576624,-0.000625439,0.000467938,0.000737305,-0.00078612,0.330765,0.0008797,0.0187437,1952,1212,45.0732,-8.00501
735,-188,45.0715,7.51807,0.000364134,-0.000495098,0.00074326,0.000793008,-0.000923972,0.523349,0.00099226,0.0139491,1959,1212,45.0715,-7.51801
742,-188,45.0377,7.04382,0.000308209,0.000383439,0.0012265,0.00157291,-0.000881258,0.800728,0.00143555,0.0154478,1966,1212,45.0378,-7.04384
749,-188,45.0342,6.55591,0.00036235,0.00204459,0.00157544,0.00298938,-0.000582446,1.0306,0.00221277,0.0151845,1973,1212,45.0341,-6.55589
756,-188,45.0387,6.06311,0.000411484,0.00506226,0.00158562,0.00555141,-7.7663e-05,1.27157,0.00372709,0.0134308,1980,1212,45.0387,-6.06317
763,-188,45.0549,5.60107,0.00040596,0.00876103,0.00145527,0.00900725,0.000159739,1.40319,0.0059523,0.0163446,1987,1212,45.0549,-5.60102
770,-188,45.0522,5.08923,0.000111612,0.0139612,0.000937291,0.0140244,4.84684e-05,1.50353,0.00933347,0.0356763,1994,1212,45.0522,-5.08927
777,-188,45.1555,4.5802,0,0,0,0,0,0,0,-1,2001,1212,45.1555,-4.58026
784,-188,50.2876,-0.510742,0,0,0,0,0,0,0,-1,2008,1212,50.2875,0.510762
791,-188,49.8389,1.40027,0,0,0,0,0,0,0,-1,2015,1212,49.8389,-1.40024
798,-188,49.3804,3.30933,0,0,0,0,0,0,0,-1,2022,1212,49.3803,-3.30931
805,-188,0,0,0,0,0,0,0,0,0,-1,2029,1212,0,0
812,-188,0,0,0,0,0,0,0,0,0,-1,2036,1212,0,0
-700,-195,0,0,0,0,0,0,0,0,0,-1,524,1219,0,0
-693,-195,0,0,0,0,0,0,0,0,0,-1,531,1219,0,0
-686,-195,0,0,0,0,0,0,0,0,0,-1,538,1219,0,0
-679,-195,-31.1188,-1.60168,0,0,0,0,0,0,0,-1,545,1219,-31.1188,1.60169
-672,-195,-31.4676,-0.703735,0,0,0,0,0,0,0,-1,552,1219,-31.4676,0.703676
-665,-195,-31.37,0.170532,0,0,0,0,0,0,0,-1,559,1219,-31.37,-0.170488
-658,-195,-30.9663,0.720581,0,0,0,0,0,0,0,-1,566,1219,-30.9663,-0.720608
-651,-195,-30.7372,1.2168,0,0,0,0,0,0,0,-1,573,1219,-30.7372,-1.21679
-644,-195,-30.3512,1.84998,0.00295752,0.00131609,0.00439666,0.00660941,-0.0023358,0.693126,0.00535738,0.0437731,580,1219,-30.3512,-1.84998
-637,-195,-29.9838,2.48413,0.0030869,0.00164868,0.00308053,0.00553114,-0.000795557,0.670733,0.00397921,0.0263588,587,1219,-29.9838,-2.48408
-630,-195,-30.0915,2.93506,0.00274148,0.00207204,0.00254378,0.00497247,-0.000158947,0.719983,0.00336921,0.00953292,594,1219,-30.0915,-2.93507
-623,-195,-30.116,3.46375,0.00239752,0.00143535,0.000901681,0.00293842,0.000894437,0.540338,0.00173924,0.00907378,601,1219,-30.1161,-3.46379
-616,-195,-30.1118,4.00659,0.00191202,0.000865772,-0.000584652,0.00217342,0.000604373,-0.420441,0.00129537,0.010767,608,1219,-30.1118,-4.00656
-609,-195,-30.0933,4.56055,0.00104693,0.00036891,-0.00120861,0.00196318,-0.00054734,-0.648665,0.00152435,0.0183304,615,1219,-30.0933,-4.56058
-602,-195,-30.152,5.08545,0.00106115,-0.000590897,-0.00204305,0.00243884,-0.00196859,-0.59329,0.00254945,0.0216186,622,1219,-30.152,-5.08549
-595,-195,-30.2255,5.60388,0.00107387,-0.00160873,-0.00280975,0.00284606,-0.00338092,-0.562707,0.00359956,0.0242826,629,1219,-30.2255,-5.60385
-588,-195,-30.2708,6.21448,0.00123093,-0.00172715,-0.00359124,0.00363578,-0.00413199,-0.59006,0.00448778,0.0261868,636,1219,-30.2708,-6.21443
-581,-195,-29.9933,6.81763,0,0,0,0,0,0,0,-1,643,1219,-29.9933,-6.81757
-574,-195,-29.8815,6.30896,0,0,0,0,0,0,0,-1,650,1219,-29.8815,-6.30895
-567,-195,-20.6388,3.78369,0,0,0,0,0,0,0,-1,657,1219,-20.6388,-3.78369
-560,-195,-20.878,2.10388,0,0,0,0,0,0,0,-1,664,1219,-20.878,-2.10385
-553,-195,-39.6884,1.13794,0,0,0,0,0,0,0,-1,671,1219,-39.6884,-1.13798
-546,-195,-40.5682,1.20776,0,0,0,0,0,0,0,-1,678,1219,-40.5682,-1.20776
-539,-195,-40.5518,1.09924,0.00363861,-0.00310542,-0.000908127,0.00375875,-0.00322556,-0.131536,0.00403631,0.0434518,685,1219,-40.5518,-1.09925
-532,-195,-40.4423,0.824097,0.00432558,-0.00273023,0.000154917,0.00432898,-0.00273363,0.0219419,0.00411213,0.0364438,692,1219,-40.4423,-0.824153
-525,-195,-40.4021,0.761353,0.00566632,-0.00182639,0.00217594,0.00625238,-0.00241245,0.263097,0.0051638,0.0412512,699,1219,-40.4021,-0.761383
-518,-195,-40.4977,1.07642,0.00784586,-0.000105405,0.00547408,0.0106357,-0.00289522,0.47133,0.00822712,0.0416484,706,1219,-40.4977,-1.07645
-511,-195,-40.498,1.4198,0.0108237,0.00181656,0.00989019,0.0171874,-0.00454715,0.571748,0.013237,0.0407611,713,1219,-40.4981,-1.41979
-504,-195,0,0,0,0,0,0,0,0,0,-1,720,1219,0,0
-497,-195,0,0,0,0,0,0,0,0,0,-1,727,1219,0,0
-490,-195,0,0,0,0,0,0,0,0,0,-1,734,1219,0,0
-483,-195,0,0,0,0,0,0,0,0,0,-1,741,1219,0,0
-476,-195,0,0,0,0,0,0,0,0,0,-1,748,1219,0,0
-469,-195,0,0,0,0,0,0,0,0,0,-1,755,1219,0,0
-462,-195,0,0,0,0,0,0,0,0,0,-1,762,1219,0,0
-455,-195,0,0,0,0,0,0,0,0,0,-1,769,1219,0,0
-448,-195,0,0,0,0,0,0,0,0,0,-1,776,1219,0,0
-441,-195,0,0,0,0,0,0,0,0,0,-1,783,1219,0,0
-434,-195,0,0,0,0,0,0,0,0,0,-1,790,1219,0,0
-427,-195,0,0,0,0,0,0,0,0,0,-1,797,1219,0,0
-420,-195,0,0,0,0,0,0,0,0,0,-1,804,1219,0,0
-413,-195,0,0,0,0,0,0,0,0,0,-1,811,1219,0,0
-406,-195,0,0,0,0,0,0,0,0,0,-1,818,1219,0,0
-399,-195,0,0,0,0,0,0,0,0,0,-1,825,1219,0,0
-392,-195,0,0,0,0,0,0,0,0,0,-1,832,1219,0,0
-385,-195,0,0,0,0,0,0,0,0,0,-1,839,1219,0,0
-378,-195,0,0,0,0,0,0,0,0,0,-1,846,1219,0,0
-371,-195,0,0,0,0,0,0,0,0,0,-1,853,1219,0,0
-364,-195,0,0,0,0,0,0,0,0,0,-1,860,1219,0,0
-357,-195,0,0,0,0,0,0,0,0,0,-1,867,1219,0,0
-350,-195,0,0,0,0,0,0,0,0,0,-1,874,1219,0,0
-343,-195,0,0,0,0,0,0,0,0,0,-1,881,1219,0,0
-336,-195,0,0,0,0,0,0,0,0,0,-1,888,1219,0,0
-329,-195,0,0,0,0,0,0,0,0,0,-1,895,1219,0,0
-322,-195,0,0,0,0,0,0,0,0,0,-1,902,1219,0,0
-315,-195,0,0,0,0,0,0,0,0,0,-1,909,1219,0,0
-308,-195,0,0,0,0,0,0,0,0,0,-1,916,1219,0,0
-301,-195,0,0,0,0,0,0,0,0,0,-1,923,1219,0,0
-294,-195,0,0,0,0,0,0,0,0,0,-1,930,1219,0,0
-287,-195,0,0,0,0,0,0,0,0,0,-1,937,1219,0,0
-280,-195,0,0,0,0,0,0,0,0,0,-1,944,1219,0,0
-273,-195,0,0,0,0,0,0,0,0,0,-1,951,1219,0,0
-266,-195,0,0,0,0,0,0,0,0,0,-1,958,1219,0,0
-259,-195,0,0,0,0,0,0,0,0,0,-1,965,1219,0,0
-252,-195,0,0,0,0,0,0,0,0,0,-1,972,1219,0,0
-245,-195,0,0,0,0,0,0,0,0,0,-1,979,1219,0,0
-238,-195,0,0,0,0,0,0,0,0,0,-1,986,1219,0,0
-231,-195,0,0,0,0,0,0,0,0,0,-1,993,1219,0,0
-224,-195,0,0,0,0,0,0,0,0,0,-1,1000,1219,0,0
-217,-195,0,0,0,0,0,0,0,0,0,-1,1007,1219,0,0
-210,-195,0,0,0,0,0,0,0,0,0,-1,1014,1219,0,0
-203,-195,0,0,0,0,0,0,0,0,0,-1,1021,1219,0,0
-196,-195,0,0,0,0,0,0,0,0,0,-1,1028,1219,0,0
-189,-195,0,0,0,0,0,0,0,0,0,-1,1035,1219,0,0
-182,-195,0,0,0,0,0,0,0,0,0,-1,1042,1219,0,0
-175,-195,0,0,0,0,0,0,0,0,0,-1,1049,1219,0,0
-168,-195,0,0,0,0,0,0,0,0,0,-1,1056,1219,0,0
-161,-195,0,0,0,0,0,0,0,0,0,-1,1063,1219,0,0
-154,-195,0,0,0,0,0,0,0,0,0,-1,1070,1219,0,0
-147,-195,0,0,0,0,0,0,0,0,0,-1,1077,1219,0,0
-140,-195,0,0,0,0,0,0,0,0,0,-1,1084,1219,0,0
-133,-195,0,0,0,0,0,0,0,0,0,-1,1091,1219,0,0
-126,-195,0,0,0,0,0,0,0,0,0,-1,1098,1219,0,0
-119,-195,0,0,0,0,0,0,0,0,0,-1,1105,1219,0,0
-112,-195,0,0,0,0,0,0,0,0,0,-1,1112,1219,0,0
-105,-195,0,0,0,0,0,0,0,0,0,-1,1119,1219,0,0
-98,-195,0,0,0,0,0,0,0,0,0,-1,1126,1219,0,0
-91,-195,0,0,0,0,0,0,0,0,0,-1,1133,1219,0,0
-84,-195,0,0,0,0,0,0,0,0,0,-1,1140,1219,0,0
-77,-195,0,0,0,0,0,0,0,0,0,-1,1147,1219,0,0
-70,-195,0,0,0,0,0,0,0,0,0,-1,1154,1219,0,0
-63,-195,0,0,0,0,0,0,0,0,0,-1,1161,1219,0,0
-56,-195,0,0,0,0,0,0,0,0,0,-1,1168,1219,0,0
-49,-195,0,0,0,0,0,0,0,0,0,-1,1175,1219,0,0
-42,-195,0,0,0,0,0,0,0,0,0,-1,1182,1219,0,0
-35,-195,0,0,0,0,0,0,0,0,0,-1,1189,1219,0,0
-28,-195,0,0,0,0,0,0,0,0,0,-1,1196,1219,0,0
-21,-195,0,0,0,0,0,0,0,0,0,-1,1203,1219,0,0
-14,-195,0,0,0,0,0,0,0,0,0,-1,1210,1219,0,0
-7,-195,0,0,0,0,0,0,0,0,0,-1,1217,1219,0,0
0,-195,0,0,0,0,0,0,0,0,0,-1,1224,1219,0,0
7,-195,0,0,0,0,0,0,0,0,0,-1,1231,1219,0,0
14,-195,0,0,0,0,0,0,0,0,0,-1,1238,1219,0,0
21,-195,0,0,0,0,0,0,0,0,0,-1,1245,1219,0,0
28,-195,0,0,0,0,0,0,0,0,0,-1,1252,1219,0,0
35,-195,0,0,0,0,0,0,0,0,0,-1,1259,1219,0,0
42,-195,0,0,0,0,0,0,0,0,0,-1,1266,1219,0,0
49,-195,0,0,0,0,0,0,0,0,0,-1,1273,1219,0,0
56,-195,0,0,0,0,0,0,0,0,0,-1,1280,1219,0,0
63,-195,0,0,0,0,0,0,0,0,0,-1,1287,1219,0,0
70,-195,0,0,0,0,0,0,0,0,0,-1,1294,1219,0,0
77,-195,0,0,0,0,0,0,0,0,0,-1,1301,1219,0,0
84,-195,0,0,0,0,0,0,0,0,0,-1,1308,1219,0,0
91,-195,0,0,0,0,0,0,0,0,0,-1,1315,1219,0,0
98,-195,0,0,0,0,0,0,0,0,0,-1,1322,1219,0,0
105,-195,0,0,0,0,0,0,0,0,0,-1,1329,1219,0,0
112,-195,0,0,0,0,0,0,0,0,0,-1,1336,1219,0,0
119,-195,0,0,0,0,0,0,0,0,0,-1,1343,1219,0,0
126,-195,0,0,0,0,0,0,0,0,0,-1,1350,1219,0,0
133,-195,0,0,0,0,0,0,0,0,0,-1,1357,1219,0,0
140,-195,0,0,0,0,0,0,0,0,0,-1,1364,1219,0,0
147,-195,0,0,0,0,0,0,0,0,0,-1,1371,1219,0,0
154,-195,0,0,0,0,0,0,0,0,0,-1,1378,1219,0,0
161,-195,0,0,0,0,0,0,0,0,0,-1,1385,1219,0,0
168,-195,0,0,0,0,0,0,0,0,0,-1,1392,1219,0,0
175,-195,0,0,0,0,0,0,0,0,0,-1,1399,1219,0,0
182,-195,0,0,0,0,0,0,0,0,0,-1,1406,1219,0,0
189,-195,0,0,0,0,0,0,0,0,0,-1,1413,1219,0,0
196,-195,0,0,0,0,0,0,0,0,0,-1,1420,1219,0,0
203,-195,0,0,0,0,0,0,0,0,0,-1,1427,1219,0,0
210,-195,0,0,0,0,0,0,0,0,0,-1,1434,1219,0,0
217,-195,0,0,0,0,0,0,0,0,0,-1,1441,1219,0,0
224,-195,0,0,0,0,0,0,0,0,0,-1,1448,1219,0,0
231,-195,0,0,0,0,0,0,0,0,0,-1,1455,1219,0,0
238,-195,0,0,0,0,0,0,0,0,0,-1,1462,1219,0,0
245,-195,0,0,0,0,0,0,0,0,0,-1,1469,1219,0,0
252,-195,0,0,0,0,0,0,0,0,0,-1,1476,1219,0,0
259,-195,0,0,0,0,0,0,0,0,0,-1,1483,1219,0,0
266,-195,0,0,0,0,0,0,0,0,0,-1,1490,1219,0,0
273,-195,0,0,0,0,0,0,0,0,0,-1,1497,1219,0,0
280,-195,0,0,0,0,0,0,0,0,0,-1,1504,1219,0,0
287,-195,0,0,0,0,0,0,0,0,0,-1,1511,1219,0,0
294,-195,0,0,0,0,0,0,0,0,0,-1,1518,1219,0,0
301,-195,0,0,0,0,0,0,0,0,0,-1,1525,1219,0,0
308,-195,0,0,0,0,0,0,0,0,0,-1,1532,1219,0,0
315,-195,0,0,0,0,0,0,0,0,0,-1,1539,1219,0,0
322,-195,0,0,0,0,0,0,0,0,0,-1,1546,1219,0,0
329,-195,0,0,0,0,0,0,0,0,0,-1,1553,1219,0,0
336,-195,0,0,0,0,0,0,0,0,0,-1,1560,1219,0,0
343,-195,0,0,0,0,0,0,0,0,0,-1,1567,1219,0,0
350,-195,0,0,0,0,0,0,0,0,0,-1,1574,1219,0,0
357,-195,0,0,0,0,0,0,0,0,0,-1,1581,1219,0,0
364,-195,0,0,0,0,0,0,0,0,0,-1,1588,1219,0,0
371,-195,0,0,0,0,0,0,0,0,0,-1,1595,1219,0,0
378,-195,0,0,0,0,0,0,0,0,0,-1,1602,1219,0,0
385,-195,0,0,0,0,0,0,0,0,0,-1,1609,1219,0,0
392,-195,0,0,0,0,0,0,0,0,0,-1,1616,1219,0,0
399,-195,0,0,0,0,0,0,0,0,0,-1,1623,1219,0,0
406,-195,0,0,0,0,0,0,0,0,0,-1,1630,1219,0,0
413,-195,0,0,0,0,0,0,0,0,0,-1,1637,1219,0,0
420,-195,0,0,0,0,0,0,0,0,0,-1,1644,1219,0,0
427,-195,0,0,0,0,0,0,0,0,0,-1,1651,1219,0,0
434,-195,0,0,0,0,0,0,0,0,0,-1,1658,1219,0,0
441,-195,0,0,0,0,0,0,0,0,0,-1,1665,1219,0,0
448,-195,0,0,0,0,0,0,0,0,0,-1,1672,1219,0,0
455,-195,0,0,0,0,0,0,0,0,0,-1,1679,1219,0,0
462,-195,0,0,0,0,0,0,0,0,0,-1,1686,1219,0,0
469,-195,0,0,0,0,0,0,0,0,0,-1,1693,1219,0,0
476,-195,0,0,0,0,0,0,0,0,0,-1,1700,1219,0,0
483,-195,0,0,0,0,0,0,0,0,0,-1,1707,1219,0,0
490,-195,0,0,0,0,0,0,0,0,0,-1,1714,1219,0,0
497,-195,0,0,0,0,0,0,0,0,0,-1,1721,1219,0,0
504,-195,0,0,0,0,0,0,0,0,0,-1,1728,1219,0,0
511,-195,0,0,0,0,0,0,0,0,0,-1,1735,1219,0,0
518,-195,0,0,0,0,0,0,0,0,0,-1,1742,1219,0,0
525,-195,0,0,0,0,0,0,0,0,0,-1,1749,1219,0,0
532,-195,0,0,0,0,0,0,0,0,0,-1,1756,1219,0,0
539,-195,0,0,0,0,0,0,0,0,0,-1,1763,1219,0,0
546,-195,0,0,0,0,0,0,0,0,0,-1,1770,1219,0,0
553,-195,0,0,0,0,0,0,0,0,0,-1,1777,1219,0,0
560,-195,0,0,0,0,0,0,0,0,0,-1,1784,1219,0,0
567,-195,0,0,0,0,0,0,0,0,0,-1,1791,1219,0,0
574,-195,0,0,0,0,0,0,0,0,0,-1,1798,1219,0,0
581,-195,0,0,0,0,0,0,0,0,0,-1,1805,1219,0,0
588,-195,0,0,0,0,0,0,0,0,0,-1,1812,1219,0,0
595,-195,0,0,0,0,0,0,0,0,0,-1,1819,1219,0,0
602,-195,0,0,0,0,0,0,0,0,0,-1,1826,1219,0,0
609,-195,0,0,0,0,0,0,0,0,0,-1,1833,1219,0,0
616,-195,0,0,0,0,0,0,0,0,0,-1,1840,1219,0,0
623,-195,0,0,0,0,0,0,0,0,0,-1,1847,1219,0,0
630,-195,54.5801,2.72607,0.00154331,-0.000886421,0.000725356,0.00174338,-0.00108649,0.26913,0.00164843,0.0401853,1854,1219,54.5801,-2.72607
637,-195,54.635,2.90112,0.00124624,-0.000520036,0.000332685,0.00130682,-0.00058062,0.180134,0.00111628,0.0377596,1861,1219,54.635,-2.90115
644,-195,54.6636,2.98657,0.00137903,-8.46394e-05,-0.000190589,0.00140344,-0.00010905,-0.127384,0.000974013,0.0328474,1868,1219,54.6635,-2.98659
651,-195,54.6136,2.86902,0.00185973,0.000201536,-0.000769709,0.00216194,-0.000100674,-0.374136,0.00147599,0.0260363,1875,1219,54.6136,-2.86903
658,-195,54.593,2.87781,0.00235521,-2.15911e-05,-0.00116632,0.00283192,-0.000498301,-0.38801,0.0020741,0.0240742,1882,1219,54.593,-2.87782
665,-195,54.5941,2.85596,0.00268236,-0.000556083,-0.00128357,0.0031294,-0.00100312,-0.33514,0.00248896,0.0236267,1889,1219,54.5941,-2.85599
672,-195,54.5775,2.66248,0.00265108,-0.000832013,-0.00109541,0.00296694,-0.00114787,-0.28073,0.00245185,0.0358342,1896,1219,54.5775,-2.66244
679,-195,54.4574,2.60254,0,0,0,0,0,0,0,-1,1903,1219,54.4573,-2.60253
686,-195,51.2117,1.94312,0,0,0,0,0,0,0,-1,1910,1219,51.2117,-1.9431
693,-195,24.4368,5.68298,0,0,0,0,0,0,0,-1,1917,1219,24.4368,-5.68293
700,-195,44.9556,10.0254,0,0,0,0,0,0,0,-1,1924,1219,44.9556,-10.0253
707,-195,44.7009,9.51538,0,0,0,0,0,0,0,-1,1931,1219,44.701,-9.51542
714,-195,44.7039,8.78357,0,0,0,0,0,0,0,-1,1938,1219,44.7038,-8.78355
721,-195,44.592,8.5321,0.00110659,-0.000855351,3.46257e-05,0.0011072,-0.000855962,0.0176414,0.00113652,0.0275915,1945,1219,44.592,-8.53206
728,-195,44.5974,8.05078,0.000829665,-0.000982625,0.000480462,0.000949163,-0.00110212,0.243768,0.00118541,0.0118622,1952,1219,44.5974,-8.05079
735,-195,44.5856,7.50696,0.00056441,-0.000692926,0.000795073,0.000949332,-0.00107785,0.450875,0.00117118,0.0135801,1959,1219,44.5855,-7.50694
742,-195,44.5729,7.04297,0.000441894,0.000167661,0.00133855,0.00165034,-0.00104078,0.734358,0.00156695,0.0149001,1966,1219,44.5728,-7.04291
749,-195,44.547,6.56433,0.000448711,0.00158854,0.0017959,0.00290278,-0.000865532,0.939044,0.00227916,0.0148237,1973,1219,44.547,-6.56427
756,-195,44.5178,6.07654,0.000504844,0.00413328,0.00195373,0.00498523,-0.000347104,1.15959,0.00344502,0.0148397,1980,1219,44.5179,-6.07654
763,-195,44.53,5.60181,0.00056831,0.00725912,0.00197069,0.00779642,3.10144e-05,1.30462,0.00518731,0.0198212,1987,1219,44.53,-5.60185
770,-195,44.5372,5.19336,0.000395464,0.0118634,0.00161041,0.0120852,0.000173609,1.4339,0.00799959,0.0387755,1994,1219,44.5372,-5.19331
777,-195,44.6191,4.87903,0,0,0,0,0,0,0,-1,2001,1219,44.6191,-4.87906
784,-195,51.2444,-0.069458,0,0,0,0,0,0,0,-1,2008,1219,51.2443,0.0694704
791,-195,50.6421,1.65222,0,0,0,0,0,0,0,-1,2015,1219,50.6422,-1.65218
798,-195,50.3787,3.47571,0,0,0,0,0,0,0,-1,2022,1219,50.3786,-3.47566
805,-195,0,0,0,0,0,0,0,0,0,-1,2029,1219,0,0
812,-195,0,0,0,0,0,0,0,0,0,-1,2036,1219,0,0
-700,-202,0,0,0,0,0,0,0,0,0,-1,524,1226,0,0
-693,-202,0,0,0,0,0,0,0,0,0,-1,531,1226,0,0
-686,-202,0,0,0,0,0,0,0,0,0,-1,538,1226,0,0
-679,-202,-30.7623,-1.38855,0,0,0,0,0,0,0,-1,545,1226,-30.7623,1.3885
-672,-202,-34.8987,-3.61438,0,0,0,0,0,0,0,-1,552,1226,-34.8987,3.61442
-665,-202,-35.5276,-2.83508,0,0,0,0,0,0,0,-1,559,1226,-35.5276,2.83509
-658,-202,-30.0077,0.754517,0,0,0,0,0,0,0,-1,566,1226,-30.0077,-0.754549
-651,-202,-29.3357,1.01831,0,0,0,0,0,0,0,-1,573,1226,-29.3357,-1.01837
-644,-202,-29.4785,1.84998,0.00307433,0.00201058,0.00462539,0.00719832,-0.00211342,0.728154,0.005637,0.0487861,580,1226,-29.4785,-1.84993
-637,-202,-29.4567,2.526,0.00344041,0.00206164,0.00329664,0.00611897,-0.000616933,0.682325,0.00429974,0.0435326,587,1226,-29.4567,-2.52594
-630,-202,-29.5557,2.93774,0.00320522,0.00231574,0.0027187,0.00551532,5.64544e-06,0.704324,0.003675,0.0188586,594,1226,-29.5556,-2.93772
-623,-202,-29.5595,3.47205,0.00281954,0.00159878,0.00109952,0.00346674,0.000951579,0.532009,0.00206827,0.00980527,601,1226,-29.5595,-3.472
-616,-202,-29.5674,4.00476,0.00227348,0.000956095,-0.000367838,0.00236923,0.000860347,-0.254648,0.00138485,0.0095952,608,1226,-29.5674,-4.00476
-609,-202,-29.5581,4.57397,0.00128642,0.000391974,-0.000954472,0.00189325,-0.000214854,-0.566309,0.00133954,0.0217881,615,1226,-29.5581,-4.57401
-602,-202,-29.6284,5.07727,0.00104604,-0.000457746,-0.00169135,0.0021451,-0.0015568,-0.576241,0.00214627,0.021031,622,1226,-29.6284,-5.07733
-595,-202,-29.6915,5.63928,0.00107021,-0.00151703,-0.0023125,0.00242634,-0.00287315,-0.530382,0.00306328,0.0168493,629,1226,-29.6914,-5.63924
-588,-202,-29.634,6.177,0.00131551,-0.00165611,-0.00309918,0.00326664,-0.00360723,-0.561874,0.00397026,0.0179304,636,1226,-29.634,-6.17703
-581,-202,-29.4576,6.7262,0,0,0,0,0,0,0,-1,643,1226,-29.4576,-6.72615
-574,-202,-26.922,5.99512,0,0,0,0,0,0,0,-1,650,1226,-26.922,-5.99512
-567,-202,-22.1768,4.56995,0,0,0,0,0,0,0,-1,657,1226,-22.1768,-4.56991
-560,-202,-10.929,2.73096,0,0,0,0,0,0,0,-1,664,1226,-10.929,-2.73092
-553,-202,-30.2701,1.474,0,0,0,0,0,0,0,-1,671,1226,-30.2701,-1.47395
-546,-202,-40.5972,1.25793,0,0,0,0,0,0,0,-1,678,1226,-40.5972,-1.25794
-539,-202,-40.5161,1.15881,0.00464467,-0.00269055,-0.000306621,0.00465747,-0.00270334,-0.0417042,0.00429939,0.0476967,685,1226,-40.5161,-1.15877
-532,-202,-40.5244,1.00964,0.00577965,-0.0022417,0.000365833,0.0057963,-0.00225835,0.0454815,0.00479756,0.0306222,692,1226,-40.5243,-1.00961
-525,-202,-40.4804,0.842529,0.00765442,-0.00139005,0.0013971,0.00786531,-0.00160094,0.149819,0.00585066,0.0355246,699,1226,-40.4804,-0.842521
-518,-202,-40.5477,1.19958,0.0103488,0.000116245,0.00316818,0.0112503,-0.000785258,0.277222,0.00777515,0.0413278,706,1226,-40.5477,-1.19961
-511,-202,-40.4517,1.41064,0.0139741,0.00189259,0.00611204,0.0165268,-0.000660132,0.395633,0.0112444,0.0427296,713,1226,-40.4517,-1.41061
-504,-202,0,0,0,0,0,0,0,0,0,-1,720,1226,0,0
-497,-202,0,0,0,0,0,0,0,0,0,-1,727,1226,0,0
-490,-202,0,0,0,0,0,0,0,0,0,-1,734,1226,0,0
-483,-202,0,0,0,0,0,0,0,0,0,-1,741,1226,0,0
-476,-202,0,0,0,0,0,0,0,0,0,-1,748,1226,0,0
-469,-202,0,0,0,0,0,0,0,0,0,-1,755,1226,0,0
-462,-202,0,0,0,0,0,0,0,0,0,-1,762,1226,0,0
-455,-202,0,0,0,0,0,0,0,0,0,-1,769,1226,0,0
-448,-202,0,0,0,0,0,0,0,0,0,-1,776,1226,0,0
-441,-202,0,0,0,0,0,0,0,0,0,-1,783,1226,0,0
-434,-202,0,0,0,0,0,0,0,0,0,-1,790,1226,0,0
-427,-202,0,0,0,0,0,0,0,0,0,-1,797,1226,0,0
-420,-202,0,0,0,0,0,0,0,0,0,-1,804,1226,0,0
-413,-202,0,0,0,0,0,0,0,0,0,-1,811,1226,0,0
-406,-202,0,0,0,0,0,0,0,0,0,-1,818,1226,0,0
-399,-202,0,0,0,0,0,0,0,0,0,-1,825,1226,0,0
-392,-202,0,0,0,0,0,0,0,0,0,-1,832,1226,0,0
-385,-202,0,0,0,0,0,0,0,0,0,-1,839,1226,0,0
-378,-202,0,0,0,0,0,0,0,0,0,-1,846,1226,0,0
-371,-202,0,0,0,0,0,0,0,0,0,-1,853,1226,0,0
-364,-202,0,0,0,0,0,0,0,0,0,-1,860,1226,0,0
-357,-202,0,0,0,0,0,0,0,0,0,-1,867,1226,0,0
-350,-202,0,0,0,0,0,0,0,0,0,-1,874,1226,0,0
-343,-202,0,0,0,0,0,0,0,0,0,-1,881,1226,0,0
-336,-202,0,0,0,0,0,0,0,0,0,-1,888,1226,0,0
-329,-202,0,0,0,0,0,0,0,0,0,-1,895,1226,0,0
-322,-202,0,0,0,0,0,0,0,0,0,-1,902,1226,0,0
-315,-202,0,0,0,0,0,0,0,0,0,-1,909,1226,0,0
-308,-202,0,0,0,0,0,0,0,0,0,-1,916,1226,0,0
-301,-202,0,0,0,0,0,0,0,0,0,-1,923,1226,0,0
-294,-202,0,0,0,0,0,0,0,0,0,-1,930,1226,0,0
-287,-202,0,0,0,0,0,0,0,0,0,-1,937,1226,0,0
-280,-202,0,0,0,0,0,0,0,0,0,-1,944,1226,0,0
-273,-202,0,0,0,0,0,0,0,0,0,-1,951,1226,0,0
-266,-202,0,0,0,0,0,0,0,0,0,-1,958,1226,0,0
-259,-202,0,0,0,0,0,0,0,0,0,-1,965,1226,0,0
-252,-202,0,0,0,0,0,0,0,0,0,-1,972,1226,0,0
-245,-202,0,0,0,0,0,0,0,0,0,-1,979,1226,0,0
-238,-202,0,0,0,0,0,0,0,0,0,-1,986,1226,0,0
-231,-202,0,0,0,0,0,0,0,0,0,-1,993,1226,0,0
-224,-202,0,0,0,0,0,0,0,0,0,-1,1000,1226,0,0
-217,-202,0,0,0,0,0,0,0,0,0,-1,1007,1226,0,0
-210,-202,0,0,0,0,0,0,0,0,0,-1,1014,1226,0,0
-203,-202,0,0,0,0,0,0,0,0,0,-1,1021,1226,0,0
-196,-202,0,0,0,0,0,0,0,0,0,-1,1028,1226,0,0
-189,-202,0,0,0,0,0,0,0,0,0,-1,1035,1226,0,0
-182,-202,0,0,0,0,0,0,0,0,0,-1,1042,1226,0,0
-175,-202,0,0,0,0,0,0,0,0,0,-1,1049,1226,0,0
-168,-202,0,0,0,0,0,0,0,0,0,-1,1056,1226,0,0
-161,-202,0,0,0,0,0,0,0,0,0,-1,1063,1226,0,0
-154,-202,0,0,0,0,0,0,0,0,0,-1,1070,1226,0,0
-147,-202,0,0,0,0,0,0,0,0,0,-1,1077,1226,0,0
-140,-202,0,0,0,0,0,0,0,0,0,-1,1084,1226,0,0
-133,-202,0,0,0,0,0,0,0,0,0,-1,1091,1226,0,0
-126,-202,0,0,0,0,0,0,0,0,0,-1,1098,1226,0,0
-119,-202,0,0,0,0,0,0,0,0,0,-1,1105,1226,0,0
-112,-202,0,0,0,0,0,0,0,0,0,-1,1112,1226,0,0
-105,-202,0,0,0,0,0,0,0,0,0,-1,1119,1226,0,0
-98,-202,0,0,0,0,0,0,0,0,0,-1,1126,1226,0,0
-91,-202,0,0,0,0,0,0,0,0,0,-1,1133,1226,0,0
-84,-202,0,0,0,0,0,0,0,0,0,-1,1140,1226,0,0
-77,-202,0,0,0,0,0,0,0,0,0,-1,1147,1226,0,0
-70,-202,0,0,0,0,0,0,0,0,0,-1,1154,1226,0,0
-63,-202,0,0,0,0,0,0,0,0,0,-1,1161,1226,0,0
-56,-202,0,0,0,0,0,0,0,0,0,-1,1168,1226,0,0
-49,-202,0,0,0,0,0,0,0,0,0,-1,1175,1226,0,0
-42,-202,0,0,0,0,0,0,0,0,0,-1,1182,1226,0,0
-35,-202,0,0,0,0,0,0,0,0,0,-1,1189,1226,0,0
-28,-202,0,0,0,0,0,0,0,0,0,-1,1196,1226,0,0
-21,-202,0,0,0,0,0,0,0,0,0,-1,1203,1226,0,0
-14,-202,0,0,0,0,0,0,0,0,0,-1,1210,1226,0,0
-7,-202,0,0,0,0,0,0,0,0,0,-1,1217,1226,0,0
0,-202,0,0,0,0,0,0,0,0,0,-1,1224,1226,0,0
7,-202,0,0,0,0,0,0,0,0,0,-1,1231,1226,0,0
14,-202,0,0,0,0,0,0,0,0,0,-1,1238,1226,0,0
21,-202,0,0,0,0,0,0,0,0,0,-1,1245,1226,0,0
28,-202,0,0,0,0,0,0,0,0,0,-1,1252,1226,0,0
35,-202,0,0,0,0,0,0,0,0,0,-1,1259,1226,0,0
42,-202,0,0,0,0,0,0,0,0,0,-1,1266,1226,0,0
49,-202,0,0,0,0,0,0,0,0,0,-1,1273,1226,0,0
56,-202,0,0,0,0,0,0,0,0,0,-1,1280,1226,0,0
63,-202,0,0,0,0,0,0,0,0,0,-1,1287,1226,0,0
70,-202,0,0,0,0,0,0,0,0,0,-1,1294,1226,0,0
77,-202,0,0,0,0,0,0,0,0,0,-1,1301,1226,0,0
84,-202,0,0,0,0,0,0,0,0,0,-1,1308,1226,0,0
91,-202,0,0,0,0,0,0,0,0,0,-1,1315,1226,0,0
98,-202,0,0,0,0,0,0,0,0,0,-1,1322,1226,0,0
105,-202,0,0,0,0,0,0,0,0,0,-1,1329,1226,0,0
112,-202,0,0,0,0,0,0,0,0,0,-1,1336,1226,0,0
119,-202,0,0,0,0,0,0,0,0,0,-1,1343,1226,0,0
126,-202,0,0,0,0,0,0,0,0,0,-1,1350,1226,0,0
133,-202,0,0,0,0,0,0,0,0,0,-1,1357,1226,0,0
140,-202,0,0,0,0,0,0,0,0,0,-1,1364,1226,0,0
147,-202,0,0,0,0,0,0,0,0,0,-1,1371,1226,0,0
154,-202,0,0,0,0,0,0,0,0,0,-1,1378,1226,0,0
161,-202,0,0,0,0,0,0,0,0,0,-1,1385,1226,0,0
168,-202,0,0,0,0,0,0,0,0,0,-1,1392,1226,0,0
175,-202,0,0,0,0,0,0,0,0,0,-1,1399,1226,0,0
182,-202,0,0,0,0,0,0,0,0,0,-1,1406,1226,0,0
189,-202,0,0,0,0,0,0,0,0,0,-1,1413,1226,0,0
196,-202,0,0,0,0,0,0,0,0,0,-1,1420,1226,0,0
203,-202,0,0,0,0,0,0,0,0,0,-1,1427,1226,0,0
210,-202,0,0,0,0,0,0,0,0,0,-1,1434,1226,0,0
217,-202,0,0,0,0,0,0,0,0,0,-1,1441,1226,0,0
224,-202,0,0,0,0,0,0,0,0,0,-1,1448,1226,0,0
231,-202,0,0,0,0,0,0,0,0,0,-1,1455,1226,0,0
238,-202,0,0,0,0,0,0,0,0,0,-1,1462,1226,0,0
245,-202,0,0,0,0,0,0,0,0,0,-1,1469,1226,0,0
252,-202,0,0,0,0,0,0,0,0,0,-1,1476,1226,0,0
259,-202,0,0,0,0,0,0,0,0,0,-1,1483,1226,0,0
266,-202,0,0,0,0,0,0,0,0,0,-1,1490,1226,0,0
273,-202,0,0,0,0,0,0,0,0,0,-1,1497,1226,0,0
280,-202,0,0,0,0,0,0,0,0,0,-1,1504,1226,0,0
287,-202,0,0,0,0,0,0,0,0,0,-1,1511,1226,0,0
294,-202,0,0,0,0,0,0,0,0,0,-1,1518,1226,0,0
301,-202,0,0,0,0,0,0,0,0,0,-1,1525,1226,0,0
308,-202,0,0,0,0,0,0,0,0,0,-1,1532,1226,0,0
315,-202,0,0,0,0,0,0,0,0,0,-1,1539,1226,0,0
322,-202,0,0,0,0,0,0,0,0,0,-1,1546,1226,0,0
329,-202,0,0,0,0,0,0,0,0,0,-1,1553,1226,0,0
336,-202,0,0,0,0,0,0,0,0,0,-1,1560,1226,0,0
343,-202,0,0,0,0,0,0,0,0,0,-1,1567,1226,0,0
350,-202,0,0,0,0,0,0,0,0,0,-1,1574,1226,0,0
357,-202,0,0,0,0,0,0,0,0,0,-1,1581,1226,0,0
364,-202,0,0,0,0,0,0,0,0,0,-1,1588,1226,0,0
371,-202,0,0,0,0,0,0,0,0,0,-1,1595,1226,0,0
378,-202,0,0,0,0,0,0,0,0,0,-1,1602,1226,0,0
385,-202,0,0,0,0,0,0,0,0,0,-1,1609,1226,0,0
392,-202,0,0,0,0,0,0,0,0,0,-1,1616,1226,0,0
399,-202,0,0,0,0,0,0,0,0,0,-1,1623,1226,0,0
406,-202,0,0,0,0,0,0,0,0,0,-1,1630,1226,0,0
413,-202,0,0,0,0,0,0,0,0,0,-1,1637,1226,0,0
420,-202,0,0,0,0,0,0,0,0,0,-1,1644,1226,0,0
427,-202,0,0,0,0,0,0,0,0,0,-1,1651,1226,0,0
434,-202,0,0,0,0,0,0,0,0,0,-1,1658,1226,0,0
441,-202,0,0,0,0,0,0,0,0,0,-1,1665,1226,0,0
448,-202,0,0,0,0,0,0,0,0,0,-1,1672,1226,0,0
455,-202,0,0,0,0,0,0,0,0,0,-1,1679,1226,0,0
462,-202,0,0,0,0,0,0,0,0,0,-1,1686,1226,0,0
469,-202,0,0,0,0,0,0,0,0,0,-1,1693,1226,0,0
476,-202,0,0,0,0,0,0,0,0,0,-1,1700,1226,0,0
483,-202,0,0,0,0,0,0,0,0,0,-1,1707,1226,0,0
490,-202,0,0,0,0,0,0,0,0,0,-1,1714,1226,0,0
497,-202,0,0,0,0,0,0,0,0,0,-1,1721,1226,0,0
504,-202,0,0,0,0,0,0,0,0,0,-1,1728,1226,0,0
511,-202,0,0,0,0,0,0,0,0,0,-1,1735,1226,0,0
518,-202,0,0,0,0,0,0,0,0,0,-1,1742,1226,0,0
525,-202,0,0,0,0,0,0,0,0,0,-1,1749,1226,0,0
532,-202,0,0,0,0,0,0,0,0,0,-1,1756,1226,0,0
539,-202,0,0,0,0,0,0,0,0,0,-1,1763,1226,0,0
546,-202,0,0,0,0,0,0,0,0,0,-1,1770,1226,0,0
553,-202,0,0,0,0,0,0,0,0,0,-1,1777,1226,0,0
560,-202,0,0,0,0,0,0,0,0,0,-1,1784,1226,0,0
567,-202,0,0,0,0,0,0,0,0,0,-1,1791,1226,0,0
574,-202,0,0,0,0,0,0,0,0,0,-1,1798,1226,0,0
581,-202,0,0,0,0,0,0,0,0,0,-1,1805,1226,0,0
588,-202,0,0,0,0,0,0,0,0,0,-1,1812,1226,0,0
595,-202,0,0,0,0,0,0,0,0,0,-1,1819,1226,0,0
602,-202,0,0,0,0,0,0,0,0,0,-1,1826,1226,0,0
609,-202,0,0,0,0,0,0,0,0,0,-1,1833,1226,0,0
616,-202,0,0,0,0,0,0,0,0,0,-1,1840,1226,0,0
623,-202,0,0,0,0,0,0,0,0,0,-1,1847,1226,0,0
630,-202,54.3905,2.72424,0.00178525,0.000299,0.000281766,0.00183687,0.000247376,0.181208,0.00115102,0.0383405,1854,1226,54.3905,-2.72422
637,-202,54.619,2.95984,0.001379,0.00043738,-0.00032604,0.00148087,0.000335508,-0.30284,0.000896586,0.0353885,1861,1226,54.619,-2.95978
644,-202,54.7159,2.92456,0.00142594,0.00060397,-0.000996801,0.00209316,-6.32476e-05,-0.589864,0.00141699,0.0313299,1868,1226,54.7159,-2.92462
651,-202,54.6823,2.83325,0.00184432,0.000525331,-0.00154333,0.00286316,-0.000493504,-0.583481,0.00209276,0.0258005,1875,1226,54.6822,-2.83326
658,-202,54.6312,2.84656,0.0022958,9.17955e-06,-0.00178854,0.00327523,-0.000970256,-0.501011,0.00256873,0.0227715,1882,1226,54.6313,-2.84652
665,-202,54.6627,2.83069,0.00258473,-0.000685343,-0.00173662,0.0033349,-0.00143551,-0.407759,0.00282603,0.0214074,1889,1226,54.6627,-2.83065
672,-202,54.715,2.74207,0.0025783,-0.00104735,-0.00146014,0.00309321,-0.00156227,-0.339028,0.00273586,0.0440525,1896,1226,54.715,-2.74207
679,-202,54.761,2.63184,0,0,0,0,0,0,0,-1,1903,1226,54.7609,-2.63188
686,-202,49.1708,2.15198,0,0,0,0,0,0,0,-1,1910,1226,49.1708,-2.15195
693,-202,43.9948,10.8729,0,0,0,0,0,0,0,-1,1917,1226,43.9947,-10.8729
700,-202,44.1094,10.1241,0.00205141,-0.00167732,-0.000582037,0.00214015,-0.00176607,-0.151301,0.0022587,0.0458496,1924,1226,44.1094,-10.1242
707,-202,44.1705,9.33533,0.00218136,-0.00211178,-0.000549355,0.00225054,-0.00218097,-0.125272,0.00255864,0.0329808,1931,1226,44.1705,-9.33529
714,-202,44.1064,8.86926,0.00176819,-0.00182647,-0.00039915,0.00181198,-0.00187026,-0.109267,0.00212603,0.0294199,1938,1226,44.1065,-8.86922
721,-202,44.1346,8.54248,0.0009724,-0.00145582,0.000142135,0.000980692,-0.00146412,0.0582695,0.00142068,0.0158246,1945,1226,44.1346,-8.54251
728,-202,44.1194,8.03589,0.000640318,-0.00138099,0.000669872,0.000842161,-0.00158284,0.292664,0.00142167,0.0116287,1952,1226,44.1193,-8.0359
735,-202,44.088,7.54077,0.000342893,-0.000918296,0.00108568,0.000967823,-0.00154323,0.522295,0.00146239,0.0115553,1959,1226,44.088,-7.54077
742,-202,44.0817,7.04883,0.000234378,-0.000108617,0.0017161,0.00178753,-0.00166177,0.735596,0.0019919,0.0122846,1966,1226,44.0817,-7.04888
749,-202,44.051,6.5542,0.000319448,0.0010595,0.00232637,0.00304509,-0.00166614,0.864266,0.00275859,0.0127475,1973,1226,44.051,-6.55421
756,-202,44.0482,6.09094,0.000571099,0.00308021,0.00273187,0.00483181,-0.00118051,1.00065,0.00367841,0.0124064,1980,1226,44.0483,-6.09097
763,-202,44.1117,5.66907,0.00101657,0.00555239,0.00305608,0.00709014,-0.000521182,1.10461,0.00490972,0.0219172,1987,1226,44.1117,-5.66906
770,-202,44.1923,5.27734,0,0,0,0,0,0,0,-1,1994,1226,44.1923,-5.27735
777,-202,53.3003,-4.00098,0,0,0,0,0,0,0,-1,2001,1226,53.3002,4.00099
784,-202,52.9231,-1.28162,0,0,0,0,0,0,0,-1,2008,1226,52.9232,1.28167
791,-202,52.2668,1.22656,0,0,0,0,0,0,0,-1,2015,1226,52.2668,-1.22651
798,-202,51.8999,3.58789,0,0,0,0,0,0,0,-1,2022,1226,51.9,-3.58791
805,-202,0,0,0,0,0,0,0,0,0,-1,2029,1226,0,0
812,-202,0,0,0,0,0,0,0,0,0,-1,2036,1226,0,0
-700,-209,0,0,0,0,0,0,0,0,0,-1,524,1233,0,0
-693,-209,0,0,0,0,0,0,0,0,0,-1,531,1233,0,0
-686,-209,0,0,0,0,0,0,0,0,0,-1,538,1233,0,0
-679,-209,-35.8372,-5.71228,0,0,0,0,0,0,0,-1,545,1233,-35.8373,5.7123
-672,-209,-35.5145,-4.03772,0,0,0,0,0,0,0,-1,552,1233,-35.5145,4.03778
-665,-209,-35.5546,-3.95667,0,0,0,0,0,0,0,-1,559,1233,-35.5546,3.95668
-658,-209,-36.4283,-3.29736,0,0,0,0,0,0,0,-1,566,1233,-36.4283,3.29739
-651,-209,-27.2171,0.730591,0,0,0,0,0,0,0,-1,573,1233,-27.2171,-0.730583
-644,-209,-29.2568,2.02795,0,0,0,0,0,0,0,-1,580,1233,-29.2568,-2.02799
-637,-209,-28.9547,2.38635,0,0,0,0,0,0,0,-1,587,1233,-28.9546,-2.38631
-630,-209,-28.9435,2.92383,0.00306888,0.00284221,0.00262823,0.00558621,0.000324873,0.76385,0.00362071,0.0306785,594,1233,-28.9435,-2.92389
-623,-209,-29.0111,3.49255,0.00300801,0.00196653,0.00113701,0.00373785,0.00123668,0.570658,0.00219883,0.0148621,601,1233,-29.0111,-3.4925
-616,-209,-29.0297,4.03955,0.00256993,0.00122398,-0.000168393,0.00259068,0.00120323,-0.122594,0.00149699,0.0126974,608,1233,-29.0297,-4.03952
-609,-209,-29.0502,4.58484,0.00163283,0.000591704,-0.000651933,0.00194654,0.000277999,-0.448488,0.00121567,0.0148477,615,1233,-29.0502,-4.58481
-602,-209,-29.0911,5.14368,0.00124562,-0.000215342,-0.00124626,0.0019597,-0.000929423,-0.520316,0.00170302,0.0172487,622,1233,-29.0911,-5.14373
-595,-209,-29.0824,5.66711,0.00125517,-0.00128486,-0.00171741,0.00212114,-0.00215083,-0.467026,0.00246645,0.0125696,629,1233,-29.0824,-5.66715
-588,-209,-29.0475,6.23401,0.00156392,-0.00148198,-0.00245079,0.0029264,-0.00284447,-0.50739,0.00333192,0.0204184,636,1233,-29.0476,-6.23405
-581,-209,-29.0042,6.79907,0,0,0,0,0,0,0,-1,643,1233,-29.0042,-6.79903
-574,-209,-26.2147,6.6123,0,0,0,0,0,0,0,-1,650,1233,-26.2147,-6.61234
-567,-209,-26.2951,6.92981,0,0,0,0,0,0,0,-1,657,1233,-26.2951,-6.92986
-560,-209,-13.9294,4.16626,0,0,0,0,0,0,0,-1,664,1233,-13.9294,-4.16621
-553,-209,-22.7542,0.748779,0,0,0,0,0,0,0,-1,671,1233,-22.7541,-0.748796
-546,-209,-40.2798,0.72522,0,0,0,0,0,0,0,-1,678,1233,-40.2798,-0.725178
-539,-209,-40.3185,0.848511,0.00590858,-0.00206306,0.000187419,0.00591298,-0.00206747,0.0234935,0.0047825,0.0437921,685,1233,-40.3185,-0.84855
-532,-209,-40.3854,1.00732,0.00768627,-0.00140839,0.000526235,0.00771662,-0.00143874,0.0576057,0.00568501,0.0341607,692,1233,-40.3854,-1.0073
-525,-209,-40.5682,1.125,0.0103488,-0.000390491,0.000766716,0.0104032,-0.000444954,0.0709144,0.00708846,0.0343373,699,1233,-40.5681,-1.12498
-518,-209,-40.6654,1.16602,0.0137575,0.00104412,0.001119,0.0138552,0.000946378,0.0871246,0.00893809,0.0446443,706,1233,-40.6654,-1.16596
-511,-209,-40.695,1.30603,0.0180094,0.00271422,0.00209138,0.0182902,0.00243341,0.133472,0.0114687,0.045259,713,1233,-40.695,-1.30608
-504,-209,0,0,0,0,0,0,0,0,0,-1,720,1233,0,0
-497,-209,0,0,0,0,0,0,0,0,0,-1,727,1233,0,0
-490,-209,0,0,0,0,0,0,0,0,0,-1,734,1233,0,0
-483,-209,0,0,0,0,0,0,0,0,0,-1,741,1233,0,0
-476,-209,0,0,0,0,0,0,0,0,0,-1,748,1233,0,0
-469,-209,0,0,0,0,0,0,0,0,0,-1,755,1233,0,0
-462,-209,0,0,0,0,0,0,0,0,0,-1,762,1233,0,0
-455,-209,0,0,0,0,0,0,0,0,0,-1,769,1233,0,0
-448,-209,0,0,0,0,0,0,0,0,0,-1,776,1233,0,0
-441,-209,0,0,0,0,0,0,0,0,0,-1,783,1233,0,0
-434,-209,0,0,0,0,0,0,0,0,0,-1,790,1233,0,0
-427,-209,0,0,0,0,0,0,0,0,0,-1,797,1233,0,0
-420,-209,0,0,0,0,0,0,0,0,0,-1,804,1233,0,0
-413,-209,0,0,0,0,0,0,0,0,0,-1,811,1233,0,0
-406,-209,0,0,0,0,0,0,0,0,0,-1,818,1233,0,0
-399,-209,0,0,0,0,0,0,0,0,0,-1,825,1233,0,0
-392,-209,0,0,0,0,0,0,0,0,0,-1,832,1233,0,0
-385,-209,0,0,0,0,0,0,0,0,0,-1,839,1233,0,0
-378,-209,0,0,0,0,0,0,0,0,0,-1,846,1233,0,0
-371,-209,0,0,0,0,0,0,0,0,0,-1,853,1233,0,0
-364,-209,0,0,0,0,0,0,0,0,0,-1,860,1233,0,0
-357,-209,0,0,0,0,0,0,0,0,0,-1,867,1233,0,0
-350,-209,0,0,0,0,0,0,0,0,0,-1,874,1233,0,0
-343,-209,0,0,0,0,0,0,0,0,0,-1,881,1233,0,0
-336,-209,0,0,0,0,0,0,0,0,0,-1,888,1233,0,0
-329,-209,0,0,0,0,0,0,0,0,0,-1,895,1233,0,0
-322,-209,0,0,0,0,0,0,0,0,0,-1,902,1233,0,0
-315,-209,0,0,0,0,0,0,0,0,0,-1,909,1233,0,0
-308,-209,0,0,0,0,0,0,0,0,0,-1,916,1233,0,0
-301,-209,0,0,0,0,0,0,0,0,0,-1,923,1233,0,0
-294,-209,0,0,0,0,0,0,0,0,0,-1,930,1233,0,0
-287,-209,0,0,0,0,0,0,0,0,0,-1,937,1233,0,0
-280,-209,0,0,0,0,0,0,0,0,0,-1,944,1233,0,0
-273,-209,0,0,0,0,0,0,0,0,0,-1,951,1233,0,0
-266,-209,0,0,0,0,0,0,0,0,0,-1,958,1233,0,0
-259,-209,0,0,0,0,0,0,0,0,0,-1,965,1233,0,0
-252,-209,0,0,0,0,0,0,0,0,0,-1,972,1233,0,0
-245,-209,0,0,0,0,0,0,0,0,0,-1,979,1233,0,0
-238,-209,0,0,0,0,0,0,0,0,0,-1,986,1233,0,0
-231,-209,0,0,0,0,0,0,0,0,0,-1,993,1233,0,0
-224,-209,0,0,0,0,0,0,0,0,0,-1,1000,1233,0,0
-217,-209,0,0,0,0,0,0,0,0,0,-1,1007,1233,0,0
-210,-209,0,0,0,0,0,0,0,0,0,-1,1014,1233,0,0
-203,-209,0,0,0,0,0,0,0,0,0,-1,1021,1233,0,0
-196,-209,0,0,0,0,0,0,0,0,0,-1,1028,1233,0,0
-189,-209,0,0,0,0,0,0,0,0,0,-1,1035,1233,0,0
-182,-209,0,0,0,0,0,0,0,0,0,-1,1042,1233,0,0
-175,-209,0,0,0,0,0,0,0,0,0,-1,1049,1233,0,0
-168,-209,0,0,0,0,0,0,0,0,0,-1,1056,1233,0,0
-161,-209,0,0,0,0,0,0,0,0,0,-1,1063,1233,0,0
-154,-209,0,0,0,0,0,0,0,0,0,-1,1070,1233,0,0
-147,-209,0,0,0,0,0,0,0,0,0,-1,1077,1233,0,0
-140,-209,0,0,0,0,0,0,0,0,0,-1,1084,1233,0,0
-133,-209,0,0,0,0,0,0,0,0,0,-1,1091,1233,0,0
-126,-209,0,0,0,0,0,0,0,0,0,-1,1098,1233,0,0
-119,-209,0,0,0,0,0,0,0,0,0,-1,1105,1233,0,0
-112,-209,0,0,0,0,0,0,0,0,0,-1,1112,1233,0,0
-105,-209,0,0,0,0,0,0,0,0,0,-1,1119,1233,0,0
-98,-209,0,0,0,0,0,0,0,0,0,-1,1126,1233,0,0
-91,-209,0,0,0,0,0,0,0,0,0,-1,1133,1233,0,0
-84,-209,0,0,0,0,0,0,0,0,0,-1,1140,1233,0,0
-77,-209,0,0,0,0,0,0,0,0,0,-1,1147,1233,0,0
-70,-209,0,0,0,0,0,0,0,0,0,-1,1154,1233,0,0
-63,-209,0,0,0,0,0,0,0,0,0,-1,1161,1233,0,0
-56,-209,0,0,0,0,0,0,0,0,0,-1,1168,1233,0,0
-49,-209,0,0,0,0,0,0,0,0,0,-1,1175,1233,0,0
-42,-209,0,0,0,0,0,0,0,0,0,-1,1182,1233,0,0
-35,-209,0,0,0,0,0,0,0,0,0,-1,1189,1233,0,0
-28,-209,0,0,0,0,0,0,0,0,0,-1,1196,1233,0,0
-21,-209,0,0,0,0,0,0,0,0,0,-1,1203,1233,0,0
-14,-209,0,0,0,0,0,0,0,0,0,-1,1210,1233,0,0
-7,-209,0,0,0,0,0,0,0,0,0,-1,1217,1233,0,0
0,-209,0,0,0,0,0,0,0,0,0,-1,1224,1233,0,0
7,-209,0,0,0,0,0,0,0,0,0,-1,1231,1233,0,0
14,-209,0,0,0,0,0,0,0,0,0,-1,1238,1233,0,0
21,-209,0,0,0,0,0,0,0,0,0,-1,1245,1233,0,0
28,-209,0,0,0,0,0,0,0,0,0,-1,1252,1233,0,0
35,-209,0,0,0,0,0,0,0,0,0,-1,1259,1233,0,0
42,-209,0,0,0,0,0,0,0,0,0,-1,1266,1233,0,0
49,-209,0,0,0,0,0,0,0,0,0,-1,1273,1233,0,0
56,-209,0,0,0,0,0,0,0,0,0,-1,1280,1233,0,0
63,-209,0,0,0,0,0,0,0,0,0,-1,1287,1233,0,0
70,-209,0,0,0,0,0,0,0,0,0,-1,1294,1233,0,0
77,-209,0,0,0,0,0,0,0,0,0,-1,1301,1233,0,0
84,-209,0,0,0,0,0,0,0,0,0,-1,1308,1233,0,0
91,-209,0,0,0,0,0,0,0,0,0,-1,1315,1233,0,0
98,-209,0,0,0,0,0,0,0,0,0,-1,1322,1233,0,0
105,-209,0,0,0,0,0,0,0,0,0,-1,1329,1233,0,0
112,-209,0,0,0,0,0,0,0,0,0,-1,1336,1233,0,0
119,-209,0,0,0,0,0,0,0,0,0,-1,1343,1233,0,0
126,-209,0,0,0,0,0,0,0,0,0,-1,1350,1233,0,0
133,-209,0,0,0,0,0,0,0,0,0,-1,1357,1233,0,0
140,-209,0,0,0,0,0,0,0,0,0,-1,1364,1233,0,0
147,-209,0,0,0,0,0,0,0,0,0,-1,1371,1233,0,0
154,-209,0,0,0,0,0,0,0,0,0,-1,1378,1233,0,0
161,-209,0,0,0,0,0,0,0,0,0,-1,1385,1233,0,0
168,-209,0,0,0,0,0,0,0,0,0,-1,1392,1233,0,0
175,-209,0,0,0,0,0,0,0,0,0,-1,1399,1233,0,0
182,-209,0,0,0,0,0,0,0,0,0,-1,1406,1233,0,0
189,-209,0,0,0,0,0,0,0,0,0,-1,1413,1233,0,0
196,-209,0,0,0,0,0,0,0,0,0,-1,1420,1233,0,0
203,-209,0,0,0,0,0,0,0,0,0,-1,1427,1233,0,0
210,-209,0,0,0,0,0,0,0,0,0,-1,1434,1233,0,0
217,-209,0,0,0,0,0,0,0,0,0,-1,1441,1233,0,0
224,-209,0,0,0,0,0,0,0,0,0,-1,1448,1233,0,0
231,-209,0,0,0,0,0,0,0,0,0,-1,1455,1233,0,0
238,-209,0,0,0,0,0,0,0,0,0,-1,1462,1233,0,0
245,-209,0,0,0,0,0,0,0,0,0,-1,1469,1233,0,0
252,-209,0,0,0,0,0,0,0,0,0,-1,1476,1233,0,0
259,-209,0,0,0,0,0,0,0,0,0,-1,1483,1233,0,0
266,-209,0,0,0,0,0,0,0,0,0,-1,1490,1233,0,0
273,-209,0,0,0,0,0,0,0,0,0,-1,1497,1233,0,0
280,-209,0,0,0,0,0,0,0,0,0,-1,1504,1233,0,0
287,-209,0,0,0,0,0,0,0,0,0,-1,1511,1233,0,0
294,-209,0,0,0,0,0,0,0,0,0,-1,1518,1233,0,0
301,-209,0,0,0,0,0,0,0,0,0,-1,1525,1233,0,0
308,-209,0,0,0,0,0,0,0,0,0,-1,1532,1233,0,0
315,-209,0,0,0,0,0,0,0,0,0,-1,1539,1233,0,0
322,-209,0,0,0,0,0,0,0,0,0,-1,1546,1233,0,0
329,-209,0,0,0,0,0,0,0,0,0,-1,1553,1233,0,0
336,-209,0,0,0,0,0,0,0,0,0,-1,1560,1233,0,0
343,-209,0,0,0,0,0,0,0,0,0,-1,1567,1233,0,0
350,-209,0,0,0,0,0,0,0,0,0,-1,1574,1233,0,0
357,-209,0,0,0,0,0,0,0,0,0,-1,1581,1233,0,0
364,-209,0,0,0,0,0,0,0,0,0,-1,1588,1233,0,0
371,-209,0,0,0,0,0,0,0,0,0,-1,1595,1233,0,0
378,-209,0,0,0,0,0,0,0,0,0,-1,1602,1233,0,0
385,-209,0,0,0,0,0,0,0,0,0,-1,1609,1233,0,0
392,-209,0,0,0,0,0,0,0,0,0,-1,1616,1233,0,0
399,-209,0,0,0,0,0,0,0,0,0,-1,1623,1233,0,0
406,-209,0,0,0,0,0,0,0,0,0,-1,1630,1233,0,0
413,-209,0,0,0,0,0,0,0,0,0,-1,1637,1233,0,0
420,-209,0,0,0,0,0,0,0,0,0,-1,1644,1233,0,0
427,-209,0,0,0,0,0,0,0,0,0,-1,1651,1233,0,0
434,-209,0,0,0,0,0,0,0,0,0,-1,1658,1233,0,0
441,-209,0,0,0,0,0,0,0,0,0,-1,1665,1233,0,0
448,-209,0,0,0,0,0,0,0,0,0,-1,1672,1233,0,0
455,-209,0,0,0,0,0,0,0,0,0,-1,1679,1233,0,0
462,-209,0,0,0,0,0,0,0,0,0,-1,1686,1233,0,0
469,-209,0,0,0,0,0,0,0,0,0,-1,1693,1233,0,0
476,-209,0,0,0,0,0,0,0,0,0,-1,1700,1233,0,0
483,-209,0,0,0,0,0,0,0,0,0,-1,1707,1233,0,0
490,-209,0,0,0,0,0,0,0,0,0,-1,1714,1233,0,0
497,-209,0,0,0,0,0,0,0,0,0,-1,1721,1233,0,0
504,-209,0,0,0,0,0,0,0,0,0,-1,1728,1233,0,0
511,-209,0,0,0,0,0,0,0,0,0,-1,1735,1233,0,0
518,-209,0,0,0,0,0,0,0,0,0,-1,1742,1233,0,0
525,-209,0,0,0,0,0,0,0,0,0,-1,1749,1233,0,0
532,-209,0,0,0,0,0,0,0,0,0,-1,1756,1233,0,0
539,-209,0,0,0,0,0,0,0,0,0,-1,1763,1233,0,0
546,-209,0,0,0,0,0,0,0,0,0,-1,1770,1233,0,0
553,-209,0,0,0,0,0,0,0,0,0,-1,1777,1233,0,0
560,-209,0,0,0,0,0,0,0,0,0,-1,1784,1233,0,0
567,-209,0,0,0,0,0,0,0,0,0,-1,1791,1233,0,0
574,-209,0,0,0,0,0,0,0,0,0,-1,1798,1233,0,0
581,-209,0,0,0,0,0,0,0,0,0,-1,1805,1233,0,0
588,-209,0,0,0,0,0,0,0,0,0,-1,1812,1233,0,0
595,-209,0,0,0,0,0,0,0,0,0,-1,1819,1233,0,0
602,-209,0,0,0,0,0,0,0,0,0,-1,1826,1233,0,0
609,-209,0,0,0,0,0,0,0,0,0,-1,1833,1233,0,0
616,-209,0,0,0,0,0,0,0,0,0,-1,1840,1233,0,0
623,-209,54.4452,2.87952,0.00293103,0.00135897,0.000807044,0.00327157,0.00101843,0.399294,0.00193316,0.0364377,1847,1233,54.4451,-2.87953
630,-209,54.4867,2.7926,0.00178844,0.00106914,-0.000113685,0.00180598,0.0010516,-0.15308,0.00104738,0.03776,1854,1233,54.4867,-2.79261
637,-209,54.5701,2.80884,0.00116156,0.00103471,-0.000915524,0.00201585,0.000180417,-0.750813,0.00128798,0.0352511,1861,1233,54.57,-2.80884
644,-209,54.6425,2.79077,0.00103067,0.00102996,-0.001715,0.00274531,-0.000684679,-0.785295,0.00209605,0.0295887,1868,1233,54.6425,-2.79079
651,-209,54.6687,2.77747,0.00137476,0.000726763,-0.00215631,0.00323128,-0.00112975,-0.710827,0.00261347,0.0244194,1875,1233,54.6687,-2.77746
658,-209,54.6725,2.84485,0.00182108,8.42255e-05,-0.00223834,0.00335356,-0.00144825,-0.600348,0.00284414,0.0223005,1882,1233,54.6724,-2.84482
665,-209,54.832,2.92493,0.00212441,-0.00064068,-0.00205894,0.00322192,-0.00173819,-0.489733,0.00290612,0.03565,1889,1233,54.832,-2.92487
672,-209,54.771,2.71619,0,0,0,0,0,0,0,-1,1896,1233,54.771,-2.71624
679,-209,53.9889,3.08728,0,0,0,0,0,0,0,-1,1903,1233,53.9889,-3.08724
686,-209,33.3711,3.89856,0,0,0,0,0,0,0,-1,1910,1233,33.3711,-3.89855
693,-209,43.4298,10.8552,0,0,0,0,0,0,0,-1,1917,1233,43.4298,-10.8553
700,-209,43.5374,10.1465,0.00201574,-0.00185759,-0.000666347,0.00212717,-0.00196902,-0.165691,0.00236552,0.0435479,1924,1233,43.5374,-10.1465
707,-209,43.6147,9.50403,0.00216456,-0.00255932,-0.000662761,0.00225578,-0.00265055,-0.136783,0.00283573,0.0354954,1931,1233,43.6148,-9.50404
714,-209,43.6099,9.04846,0.00163518,-0.00219142,-0.000418434,0.0016804,-0.00223664,-0.107654,0.00226909,0.0213757,1938,1233,43.6098,-9.04843
721,-209,43.6317,8.51929,0.000764314,-0.00167193,0.000236119,0.000786988,-0.0016946,0.0957323,0.00146434,0.0130007,1945,1233,43.6318,-8.51927
728,-209,43.6395,8.0542,0.00037339,-0.00142053,0.000870154,0.000726112,-0.00177326,0.385114,0.00148463,0.0127632,1952,1233,43.6396,-8.05425
735,-209,43.6156,7.57654,4.1174e-05,-0.000889988,0.00140784,0.00105843,-0.00190724,0.625707,0.00173545,0.0145848,1959,1233,43.6156,-7.57656
742,-209,43.5959,7.05725,-0.000104257,-0.000191177,0.00211765,0.00197038,-0.00226582,0.775138,0.00244775,0.0143336,1966,1233,43.596,-7.05726
749,-209,43.5599,6.55859,-5.56429e-05,0.00064893,0.00285015,0.00316848,-0.00257519,0.846888,0.003322,0.0130728,1973,1233,43.5599,-6.55865
756,-209,43.546,6.10779,0.000251433,0.00192549,0.00349567,0.00468294,-0.00250602,0.902909,0.0042135,0.0114636,1980,1233,43.5461,-6.10781
763,-209,43.5311,5.73096,0.000882628,0.00336807,0.00415155,0.00645891,-0.00220821,0.930824,0.0052007,0.0217535,1987,1233,43.5312,-5.73098
770,-209,43.3311,5.47644,0,0,0,0,0,0,0,-1,1994,1233,43.3311,-5.47643
777,-209,49.8105,-3.45435,0,0,0,0,0,0,0,-1,2001,1233,49.8106,3.45429
784,-209,53.6729,-0.603394,0,0,0,0,0,0,0,-1,2008,1233,53.6728,0.603386
791,-209,53.6887,1.53479,0,0,0,0,0,0,0,-1,2015,1233,53.6887,-1.53478
798,-209,53.6404,3.71179,0,0,0,0,0,0,0,-1,2022,1233,53.6404,-3.71185
805,-209,0,0,0,0,0,0,0,0,0,-1,2029,1233,0,0
812,-209,0,0,0,0,0,0,0,0,0,-1,2036,1233,0,0
-700,-216,0,0,0,0,0,0,0,0,0,-1,524,1240,0,0
-693,-216,0,0,0,0,0,0,0,0,0,-1,531,1240,0,0
-686,-216,0,0,0,0,0,0,0,0,0,-1,538,1240,0,0
-679,-216,-37.0311,-5.80054,0,0,0,0,0,0,0,-1,545,1240,-37.0311,5.80055
-672,-216,-35.5734,-5.69263,0,0,0,0,0,0,0,-1,552,1240,-35.5734,5.69266
-665,-216,-36.0257,-4.68896,0,0,0,0,0,0,0,-1,559,1240,-36.0257,4.68901
-658,-216,-36.8566,-3.87952,0,0,0,0,0,0,0,-1,566,1240,-36.8565,3.87955
-651,-216,-37.6235,-3.32495,0,0,0,0,0,0,0,-1,573,1240,-37.6235,3.3249
-644,-216,-27.3541,1.91699,0,0,0,0,0,0,0,-1,580,1240,-27.3541,-1.91702
-637,-216,-28.4113,2.27612,0,0,0,0,0,0,0,-1,587,1240,-28.4113,-2.27615
-630,-216,-28.3694,2.91736,0.00309852,0.00332566,0.00253191,0.00574655,0.000677634,0.807811,0.00362632,0.0387133,594,1240,-28.3694,-2.91732
-623,-216,-28.4275,3.54541,0.00318215,0.00233835,0.00121882,0.00405003,0.00147047,0.618775,0.00236733,0.0177316,601,1240,-28.4275,-3.54535
-616,-216,-28.5015,4.07117,0.00281019,0.00156438,8.6373e-05,0.00281615,0.00155842,0.0688915,0.00162899,0.0149324,608,1240,-28.5015,-4.07113
-609,-216,-28.5233,4.60913,0.00197318,0.000879042,-0.000337902,0.00206912,0.0007831,-0.276652,0.00120631,0.0144612,615,1240,-28.5233,-4.60909
-602,-216,-28.5314,5.13354,0.00153364,6.00458e-05,-0.00081703,0.00189703,-0.000303343,-0.418494,0.00137698,0.0139724,622,1240,-28.5314,-5.13356
-595,-216,-28.509,5.65442,0.00154681,-0.00104405,-0.00115402,0.00198629,-0.00148352,-0.363866,0.0020103,0.0190046,629,1240,-28.509,-5.65446
-588,-216,-28.533,6.21204,0.00183611,-0.00137344,-0.00175744,0.00261123,-0.00214856,-0.415386,0.00275239,0.0219902,636,1240,-28.533,-6.21205
-581,-216,-28.511,6.82983,0.00219418,-0.00215741,-0.00219081,0.00310606,-0.00306929,-0.394419,0.00356536,0.0394803,643,1240,-28.511,-6.82989
-574,-216,-28.8492,7.32288,0,0,0,0,0,0,0,-1,650,1240,-28.8492,-7.32285
-567,-216,-28.812,8.15308,0,0,0,0,0,0,0,-1,657,1240,-28.8119,-8.15308
-560,-216,-16.5087,5.4574,0,0,0,0,0,0,0,-1,664,1240,-16.5087,-5.45746
-553,-216,-16.2355,1.22351,0,0,0,0,0,0,0,-1,671,1240,-16.2356,-1.22356
-546,-216,-37.1617,-0.25415,0,0,0,0,0,0,0,-1,678,1240,-37.1618,0.254161
-539,-216,-40.2375,0.753296,0,0,0,0,0,0,0,-1,685,1240,-40.2375,-0.753354
-532,-216,-40.2941,0.994263,0,0,0,0,0,0,0,-1,692,1240,-40.2941,-0.994281
-525,-216,-40.4522,1.18262,0,0,0,0,0,0,0,-1,699,1240,-40.4522,-1.18262
-518,-216,-41.2772,2.05481,0,0,0,0,0,0,0,-1,706,1240,-41.2771,-2.05479
-511,-216,-40.9912,1.5293,0.0234463,0.00427191,-0.00232877,0.0237251,0.00399313,-0.119145,0.014668,0.0453926,713,1240,-40.9912,-1.52935
-504,-216,-40.606,1.13794,0.0296036,0.00594723,-0.00172557,0.0297288,0.00582203,-0.0724319,0.0181918,0.0422188,720,1240,-40.6059,-1.13793
-497,-216,0,0,0,0,0,0,0,0,0,-1,727,1240,0,0
-490,-216,0,0,0,0,0,0,0,0,0,-1,734,1240,0,0
-483,-216,0,0,0,0,0,0,0,0,0,-1,741,1240,0,0
-476,-216,0,0,0,0,0,0,0,0,0,-1,748,1240,0,0
-469,-216,0,0,0,0,0,0,0,0,0,-1,755,1240,0,0
-462,-216,0,0,0,0,0,0,0,0,0,-1,762,1240,0,0
-455,-216,0,0,0,0,0,0,0,0,0,-1,769,1240,0,0
-448,-216,0,0,0,0,0,0,0,0,0,-1,776,1240,0,0
-441,-216,0,0,0,0,0,0,0,0,0,-1,783,1240,0,0
-434,-216,0,0,0,0,0,0,0,0,0,-1,790,1240,0,0
-427,-216,0,0,0,0,0,0,0,0,0,-1,797,1240,0,0
-420,-216,0,0,0,0,0,0,0,0,0,-1,804,1240,0,0
-413,-216,0,0,0,0,0,0,0,0,0,-1,811,1240,0,0
-406,-216,0,0,0,0,0,0,0,0,0,-1,818,1240,0,0
-399,-216,0,0,0,0,0,0,0,0,0,-1,825,1240,0,0
-392,-216,0,0,0,0,0,0,0,0,0,-1,832,1240,0,0
-385,-216,0,0,0,0,0,0,0,0,0,-1,839,1240,0,0
-378,-216,0,0,0,0,0,0,0,0,0,-1,846,1240,0,0
-371,-216,0,0,0,0,0,0,0,0,0,-1,853,1240,0,0
-364,-216,0,0,0,0,0,0,0,0,0,-1,860,1240,0,0
-357,-216,0,0,0,0,0,0,0,0,0,-1,867,1240,0,0
-350,-216,0,0,0,0,0,0,0,0,0,-1,874,1240,0,0
-343,-216,0,0,0,0,0,0,0,0,0,-1,881,1240,0,0
-336,-216,0,0,0,0,0,0,0,0,0,-1,888,1240,0,0
-329,-216,0,0,0,0,0,0,0,0,0,-1,895,1240,0,0
-322,-216,0,0,0,0,0,0,0,0,0,-1,902,1240,0,0
-315,-216,0,0,0,0,0,0,0,0,0,-1,909,1240,0,0
-308,-216,0,0,0,0,0,0,0,0,0,-1,916,1240,0,0
-301,-216,0,0,0,0,0,0,0,0,0,-1,923,1240,0,0
-294,-216,0,0,0,0,0,0,0,0,0,-1,930,1240,0,0
-287,-216,0,0,0,0,0,0,0,0,0,-1,937,1240,0,0
-280,-216,0,0,0,0,0,0,0,0,0,-1,944,1240,0,0
-273,-216,0,0,0,0,0,0,0,0,0,-1,951,1240,0,0
-266,-216,0,0,0,0,0,0,0,0,0,-1,958,1240,0,0
-259,-216,0,0,0,0,0,0,0,0,0,-1,965,1240,0,0
-252,-216,0,0,0,0,0,0,0,0,0,-1,972,1240,0,0
-245,-216,0,0,0,0,0,0,0,0,0,-1,979,1240,0,0
-238,-216,0,0,0,0,0,0,0,0,0,-1,986,1240,0,0
-231,-216,0,0,0,0,0,0,0,0,0,-1,993,1240,0,0
-224,-216,0,0,0,0,0,0,0,0,0,-1,1000,1240,0,0
-217,-216,0,0,0,0,0,0,0,0,0,-1,1007,1240,0,0
-210,-216,0,0,0,0,0,0,0,0,0,-1,1014,1240,0,0
-203,-216,0,0,0,0,0,0,0,0,0,-1,1021,1240,0,0
-196,-216,0,0,0,0,0,0,0,0,0,-1,1028,1240,0,0
-189,-216,0,0,0,0,0,0,0,0,0,-1,1035,1240,0,0
-182,-216,0,0,0,0,0,0,0,0,0,-1,1042,1240,0,0
-175,-216,0,0,0,0,0,0,0,0,0,-1,1049,1240,0,0
-168,-216,0,0,0,0,0,0,0,0,0,-1,1056,1240,0,0
-161,-216,0,0,0,0,0,0,0,0,0,-1,1063,1240,0,0
-154,-216,0,0,0,0,0,0,0,0,0,-1,1070,1240,0,0
-147,-216,0,0,0,0,0,0,0,0,0,-1,1077,1240,0,0
-140,-216,0,0,0,0,0,0,0,0,0,-1,1084,1240,0,0
-133,-216,0,0,0,0,0,0,0,0,0,-1,1091,1240,0,0
-126,-216,0,0,0,0,0,0,0,0,0,-1,1098,1240,0,0
-119,-216,0,0,0,0,0,0,0,0,0,-1,1105,1240,0,0
-112,-216,0,0,0,0,0,0,0,0,0,-1,1112,1240,0,0
-105,-216,0,0,0,0,0,0,0,0,0,-1,1119,1240,0,0
-98,-216,0,0,0,0,0,0,0,0,0,-1,1126,1240,0,0
-91,-216,0,0,0,0,0,0,0,0,0,-1,1133,1240,0,0
-84,-216,0,0,0,0,0,0,0,0,0,-1,1140,1240,0,0
-77,-216,0,0,0,0,0,0,0,0,0,-1,1147,1240,0,0
-70,-216,0,0,0,0,0,0,0,0,0,-1,1154,1240,0,0
-63,-216,0,0,0,0,0,0,0,0,0,-1,1161,1240,0,0
-56,-216,0,0,0,0,0,0,0,0,0,-1,1168,1240,0,0
-49,-216,0,0,0,0,0,0,0,0,0,-1,1175,1240,0,0
-42,-216,0,0,0,0,0,0,0,0,0,-1,1182,1240,0,0
-35,-216,0,0,0,0,0,0,0,0,0,-1,1189,1240,0,0
-28,-216,0,0,0,0,0,0,0,0,0,-1,1196,1240,0,0
-21,-216,0,0,0,0,0,0,0,0,0,-1,1203,1240,0,0
-14,-216,0,0,0,0,0,0,0,0,0,-1,1210,1240,0,0
-7,-216,0,0,0,0,0,0,0,0,0,-1,1217,1240,0,0
0,-216,0,0,0,0,0,0,0,0,0,-1,1224,1240,0,0
7,-216,0,0,0,0,0,0,0,0,0,-1,1231,1240,0,0
14,-216,0,0,0,0,0,0,0,0,0,-1,1238,1240,0,0
21,-216,0,0,0,0,0,0,0,0,0,-1,1245,1240,0,0
28,-216,0,0,0,0,0,0,0,0,0,-1,1252,1240,0,0
35,-216,0,0,0,0,0,0,0,0,0,-1,1259,1240,0,0
42,-216,0,0,0,0,0,0,0,0,0,-1,1266,1240,0,0
49,-216,0,0,0,0,0,0,0,0,0,-1,1273,1240,0,0
56,-216,0,0,0,0,0,0,0,0,0,-1,1280,1240,0,0
63,-216,0,0,0,0,0,0,0,0,0,-1,1287,1240,0,0
70,-216,0,0,0,0,0,0,0,0,0,-1,1294,1240,0,0
77,-216,0,0,0,0,0,0,0,0,0,-1,1301,1240,0,0
84,-216,0,0,0,0,0,0,0,0,0,-1,1308,1240,0,0
91,-216,0,0,0,0,0,0,0,0,0,-1,1315,1240,0,0
98,-216,0,0,0,0,0,0,0,0,0,-1,1322,1240,0,0
105,-216,0,0,0,0,0,0,0,0,0,-1,1329,1240,0,0
112,-216,0,0,0,0,0,0,0,0,0,-1,1336,1240,0,0
119,-216,0,0,0,0,0,0,0,0,0,-1,1343,1240,0,0
126,-216,0,0,0,0,0,0,0,0,0,-1,1350,1240,0,0
133,-216,0,0,0,0,0,0,0,0,0,-1,1357,1240,0,0
140,-216,0,0,0,0,0,0,0,0,0,-1,1364,1240,0,0
147,-216,0,0,0,0,0,0,0,0,0,-1,1371,1240,0,0
154,-216,0,0,0,0,0,0,0,0,0,-1,1378,1240,0,0
161,-216,0,0,0,0,0,0,0,0,0,-1,1385,1240,0,0
168,-216,0,0,0,0,0,0,0,0,0,-1,1392,1240,0,0
175,-216,0,0,0,0,0,0,0,0,0,-1,1399,1240,0,0
182,-216,0,0,0,0,0,0,0,0,0,-1,1406,1240,0,0
189,-216,0,0,0,0,0,0,0,0,0,-1,1413,1240,0,0
196,-216,0,0,0,0,0,0,0,0,0,-1,1420,1240,0,0
203,-216,0,0,0,0,0,0,0,0,0,-1,1427,1240,0,0
210,-216,0,0,0,0,0,0,0,0,0,-1,1434,1240,0,0
217,-216,0,0,0,0,0,0,0,0,0,-1,1441,1240,0,0
224,-216,0,0,0,0,0,0,0,0,0,-1,1448,1240,0,0
231,-216,0,0,0,0,0,0,0,0,0,-1,1455,1240,0,0
238,-216,0,0,0,0,0,0,0,0,0,-1,1462,1240,0,0
245,-216,0,0,0,0,0,0,0,0,0,-1,1469,1240,0,0
252,-216,0,0,0,0,0,0,0,0,0,-1,1476,1240,0,0
259,-216,0,0,0,0,0,0,0,0,0,-1,1483,1240,0,0
266,-216,0,0,0,0,0,0,0,0,0,-1,1490,1240,0,0
273,-216,0,0,0,0,0,0,0,0,0,-1,1497,1240,0,0
280,-216,0,0,0,0,0,0,0,0,0,-1,1504,1240,0,0
287,-216,0,0,0,0,0,0,0,0,0,-1,1511,1240,0,0
294,-216,0,0,0,0,0,0,0,0,0,-1,1518,1240,0,0
301,-216,0,0,0,0,0,0,0,0,0,-1,1525,1240,0,0
308,-216,0,0,0,0,0,0,0,0,0,-1,1532,1240,0,0
315,-216,0,0,0,0,0,0,0,0,0,-1,1539,1240,0,0
322,-216,0,0,0,0,0,0,0,0,0,-1,1546,1240,0,0
329,-216,0,0,0,0,0,0,0,0,0,-1,1553,1240,0,0
336,-216,0,0,0,0,0,0,0,0,0,-1,1560,1240,0,0
343,-216,0,0,0,0,0,0,0,0,0,-1,1567,1240,0,0
350,-216,0,0,0,0,0,0,0,0,0,-1,1574,1240,0,0
357,-216,0,0,0,0,0,0,0,0,0,-1,1581,1240,0,0
364,-216,0,0,0,0,0,0,0,0,0,-1,1588,1240,0,0
371,-216,0,0,0,0,0,0,0,0,0,-1,1595,1240,0,0
378,-216,0,0,0,0,0,0,0,0,0,-1,1602,1240,0,0
385,-216,0,0,0,0,0,0,0,0,0,-1,1609,1240,0,0
392,-216,0,0,0,0,0,0,0,0,0,-1,1616,1240,0,0
399,-216,0,0,0,0,0,0,0,0,0,-1,1623,1240,0,0
406,-216,0,0,0,0,0,0,0,0,0,-1,1630,1240,0,0
413,-216,0,0,0,0,0,0,0,0,0,-1,1637,1240,0,0
420,-216,0,0,0,0,0,0,0,0,0,-1,1644,1240,0,0
427,-216,0,0,0,0,0,0,0,0,0,-1,1651,1240,0,0
434,-216,0,0,0,0,0,0,0,0,0,-1,1658,1240,0,0
441,-216,0,0,0,0,0,0,0,0,0,-1,1665,1240,0,0
448,-216,0,0,0,0,0,0,0,0,0,-1,1672,1240,0,0
455,-216,0,0,0,0,0,0,0,0,0,-1,1679,1240,0,0
462,-216,0,0,0,0,0,0,0,0,0,-1,1686,1240,0,0
469,-216,0,0,0,0,0,0,0,0,0,-1,1693,1240,0,0
476,-216,0,0,0,0,0,0,0,0,0,-1,1700,1240,0,0
483,-216,0,0,0,0,0,0,0,0,0,-1,1707,1240,0,0
490,-216,0,0,0,0,0,0,0,0,0,-1,1714,1240,0,0
497,-216,0,0,0,0,0,0,0,0,0,-1,1721,1240,0,0
504,-216,0,0,0,0,0,0,0,0,0,-1,1728,1240,0,0
511,-216,0,0,0,0,0,0,0,0,0,-1,1735,1240,0,0
518,-216,0,0,0,0,0,0,0,0,0,-1,1742,1240,0,0
525,-216,0,0,0,0,0,0,0,0,0,-1,1749,1240,0,0
532,-216,0,0,0,0,0,0,0,0,0,-1,1756,1240,0,0
539,-216,0,0,0,0,0,0,0,0,0,-1,1763,1240,0,0
546,-216,0,0,0,0,0,0,0,0,0,-1,1770,1240,0,0
553,-216,0,0,0,0,0,0,0,0,0,-1,1777,1240,0,0
560,-216,0,0,0,0,0,0,0,0,0,-1,1784,1240,0,0
567,-216,0,0,0,0,0,0,0,0,0,-1,1791,1240,0,0
574,-216,0,0,0,0,0,0,0,0,0,-1,1798,1240,0,0
581,-216,0,0,0,0,0,0,0,0,0,-1,1805,1240,0,0
588,-216,0,0,0,0,0,0,0,0,0,-1,1812,1240,0,0
595,-216,0,0,0,0,0,0,0,0,0,-1,1819,1240,0,0
602,-216,0,0,0,0,0,0,0,0,0,-1,1826,1240,0,0
609,-216,0,0,0,0,0,0,0,0,0,-1,1833,1240,0,0
616,-216,0,0,0,0,0,0,0,0,0,-1,1840,1240,0,0
623,-216,54.3904,2.93005,0.00281778,0.00170808,0.00100652,0.00341225,0.00111361,0.533493,0.00200928,0.0402989,1847,1240,54.3904,-2.93
630,-216,54.4943,2.89038,0.00138548,0.00148132,-0.000249124,0.00168709,0.00117971,-0.880414,0.000999493,0.0364496,1854,1240,54.4942,-2.89043
637,-216,54.6123,2.85291,0.000461134,0.00151195,-0.00135689,0.0024416,-0.00046852,-0.970116,0.0018043,0.0302664,1861,1240,54.6123,-2.85286
644,-216,54.6127,2.83081,0.000229805,0.00155392,-0.00229956,0.00328483,-0.00150111,-0.92556,0.00282641,0.0244764,1868,1240,54.6127,-2.83081
651,-216,54.6278,2.86938,0.000614707,0.0011504,-0.00259025,0.00348661,-0.00172151,-0.836918,0.00306393,0.0226944,1875,1240,54.6278,-2.86938
658,-216,54.7576,3.00232,0.00112966,0.000464012,-0.002526,0.00334467,-0.001751,-0.719896,0.00298956,0.0341397,1882,1240,54.7576,-3.00231
665,-216,55.0658,3.13171,0.0014848,-0.000252661,-0.0022626,0.00303971,-0.00180757,-0.6021,0.00282856,0.046538,1889,1240,55.0658,-3.13167
672,-216,55.3732,3.16101,0,0,0,0,0,0,0,-1,1896,1240,55.3732,-3.16098
679,-216,47.3159,3.82703,0,0,0,0,0,0,0,-1,1903,1240,47.316,-3.82708
686,-216,21.5172,6.19458,0,0,0,0,0,0,0,-1,1910,1240,21.5172,-6.19453
693,-216,43.0002,10.1904,0,0,0,0,0,0,0,-1,1917,1240,43.0002,-10.1904
700,-216,42.9988,9.93164,0,0,0,0,0,0,0,-1,1924,1240,42.9988,-9.93159
707,-216,43.1205,9.57166,0.00220071,-0.00256734,-0.000742424,0.00231363,-0.00268026,-0.150949,0.00288582,0.0368815,1931,1240,43.1204,-9.57164
714,-216,43.1453,9.05847,0.00154034,-0.00212687,-0.000403909,0.0015843,-0.00217083,-0.108409,0.00217682,0.0158052,1938,1240,43.1453,-9.05848
721,-216,43.1478,8.56079,0.000618659,-0.0015427,0.000330979,0.000668207,-0.00159224,0.1486,0.00134093,0.0133879,1945,1240,43.1478,-8.56084
728,-216,43.1738,8.07556,0.000145069,-0.00117792,0.00103018,0.000707852,-0.0017407,0.499993,0.00145499,0.0130987,1952,1240,43.1738,-8.0755
735,-216,43.1793,7.60388,-0.000272913,-0.00062689,0.00163253,0.0011922,-0.002092,0.731402,0.00191971,0.0144992,1959,1240,43.1793,-7.6039
742,-216,43.0989,7.11475,-0.000533739,4.64719e-06,0.00235752,0.00210829,-0.00263738,0.842244,0.00274559,0.0154201,1966,1240,43.0989,-7.11478
749,-216,43.0713,6.59045,-0.000611514,0.000548346,0.00315293,0.00317423,-0.0032374,0.876348,0.00370182,0.0117055,1973,1240,43.0712,-6.59043
756,-216,43.0416,6.10156,-0.000419413,0.000983876,0.00404189,0.00438457,-0.0038201,0.871338,0.0047407,0.0109206,1980,1240,43.0416,-6.10156
763,-216,43.0212,5.69165,0.000140494,0.00115992,0.0050845,0.00576019,-0.00445978,0.835355,0.00591641,0.0198352,1987,1240,43.0213,-5.69164
770,-216,42.927,5.49792,0.00108153,0.0010526,0.00642835,0.00749543,-0.00536131,0.784273,0.00745685,0.0413571,1994,1240,42.927,-5.49793
777,-216,42.8562,5.28906,0,0,0,0,0,0,0,-1,2001,1240,42.8562,-5.28901
784,-216,51.8208,-0.443726,0,0,0,0,0,0,0,-1,2008,1240,51.8208,0.443779
791,-216,55.1682,1.76636,0,0,0,0,0,0,0,-1,2015,1240,55.1682,-1.76635
798,-216,0,0,0,0,0,0,0,0,0,-1,2022,1240,0,0
805,-216,0,0,0,0,0,0,0,0,0,-1,2029,1240,0,0
812,-216,0,0,0,0,0,0,0,0,0,-1,2036,1240,0,0
-700,-223,0,0,0,0,0,0,0,0,0,-1,524,1247,0,0
-693,-223,0,0,0,0,0,0,0,0,0,-1,531,1247,0,0
-686,-223,0,0,0,0,0,0,0,0,0,-1,538,1247,0,0
-679,-223,0,0,0,0,0,0,0,0,0,-1,545,1247,0,0
-672,-223,-36.3121,-6.3241,0,0,0,0,0,0,0,-1,552,1247,-36.3121,6.32408
-665,-223,-36.6071,-5.38843,0,0,0,0,0,0,0,-1,559,1247,-36.6071,5.38841
-658,-223,-37.1027,-4.66931,0,0,0,0,0,0,0,-1,566,1247,-37.1027,4.66927
-651,-223,-37.8372,-3.80518,0,0,0,0,0,0,0,-1,573,1247,-37.8371,3.80516
-644,-223,-38.563,-3.12415,0,0,0,0,0,0,0,-1,580,1247,-38.563,3.12416
-637,-223,-37.1149,-1.51843,0,0,0,0,0,0,0,-1,587,1247,-37.1149,1.51847
-630,-223,-27.8289,2.93616,0,0,0,0,0,0,0,-1,594,1247,-27.8289,-2.93615
-623,-223,-27.9441,3.59558,0.00384971,0.00269189,0.00132715,0.00471872,0.00182289,0.579737,0.00274773,0.0283505,601,1247,-27.9441,-3.59559
-616,-223,-27.9595,4.06873,0.00311998,0.00197777,0.000384321,0.00323726,0.0018605,0.296168,0.00187597,0.0170346,608,1247,-27.9595,-4.06871
-609,-223,-27.9578,4.61182,0.00225313,0.0012438,-7.29222e-06,0.00225318,0.00124375,-0.00722432,0.00130322,0.012831,615,1247,-27.9578,-4.61183
-602,-223,-27.9821,5.13696,0.0018203,0.000421913,-0.000398659,0.00192597,0.000316246,-0.259098,0.00119262,0.0148545,622,1247,-27.9821,-5.13699
-595,-223,-28.0016,5.70166,0.00190208,-0.000622454,-0.000585805,0.00203139,-0.000751763,-0.217254,0.00166251,0.0209137,629,1247,-28.0016,-5.70168
-588,-223,-28.0146,6.26733,0.0021898,-0.00103663,-0.000998854,0.002474,-0.00132083,-0.277198,0.00222441,0.025245,636,1247,-28.0146,-6.26735
-581,-223,-28.0705,6.82642,0.00258462,-0.00177997,-0.00133362,0.00295986,-0.00215521,-0.274274,0.00296534,0.0246647,643,1247,-28.0705,-6.8264
-574,-223,-28.0762,7.29993,0.0025925,-0.00237484,-0.00106411,0.00281086,-0.00259319,-0.202392,0.00312088,0.0283261,650,1247,-28.0763,-7.29997
-567,-223,-27.883,7.56567,0,0,0,0,0,0,0,-1,657,1247,-27.883,-7.56562
-560,-223,-27.974,8.38428,0,0,0,0,0,0,0,-1,664,1247,-27.974,-8.38425
-553,-223,-11.4025,4.14722,0,0,0,0,0,0,0,-1,671,1247,-11.4025,-4.14719
-546,-223,-26.9034,-0.148682,0,0,0,0,0,0,0,-1,678,1247,-26.9034,0.14867
-539,-223,-36.7405,0.35376,0,0,0,0,0,0,0,-1,685,1247,-36.7405,-0.353807
-532,-223,-39.1525,0.761719,0,0,0,0,0,0,0,-1,692,1247,-39.1525,-0.761714
-525,-223,-40.3318,1.14624,0,0,0,0,0,0,0,-1,699,1247,-40.3319,-1.14624
-518,-223,-41.0373,1.80212,0,0,0,0,0,0,0,-1,706,1247,-41.0373,-1.80215
-511,-223,-40.8902,1.36377,0.0304954,0.0068456,-0.00505072,0.0315289,0.00581211,-0.201835,0.0193747,0.04114,713,1247,-40.8902,-1.3638
-504,-223,-40.577,1.02185,0.0378645,0.00902614,-0.0082862,0.0400758,0.0068148,-0.260791,0.0247602,0.0388847,720,1247,-40.577,-1.02185
-497,-223,0,0,0,0,0,0,0,0,0,-1,727,1247,0,0
-490,-223,0,0,0,0,0,0,0,0,0,-1,734,1247,0,0
-483,-223,0,0,0,0,0,0,0,0,0,-1,741,1247,0,0
-476,-223,0,0,0,0,0,0,0,0,0,-1,748,1247,0,0
-469,-223,0,0,0,0,0,0,0,0,0,-1,755,1247,0,0
-462,-223,0,0,0,0,0,0,0,0,0,-1,762,1247,0,0
-455,-223,0,0,0,0,0,0,0,0,0,-1,769,1247,0,0
-448,-223,0,0,0,0,0,0,0,0,0,-1,776,1247,0,0
-441,-223,0,0,0,0,0,0,0,0,0,-1,783,1247,0,0
-434,-223,0,0,0,0,0,0,0,0,0,-1,790,1247,0,0
-427,-223,0,0,0,0,0,0,0,0,0,-1,797,1247,0,0
-420,-223,0,0,0,0,0,0,0,0,0,-1,804,1247,0,0
-413,-223,0,0,0,0,0,0,0,0,0,-1,811,1247,0,0
-406,-223,0,0,0,0,0,0,0,0,0,-1,818,1247,0,0
-399,-223,0,0,0,0,0,0,0,0,0,-1,825,1247,0,0
-392,-223,0,0,0,0,0,0,0,0,0,-1,832,1247,0,0
-385,-223,0,0,0,0,0,0,0,0,0,-1,839,1247,0,0
-378,-223,0,0,0,0,0,0,0,0,0,-1,846,1247,0,0
-371,-223,0,0,0,0,0,0,0,0,0,-1,853,1247,0,0
-364,-223,0,0,0,0,0,0,0,0,0,-1,860,1247,0,0
-357,-223,0,0,0,0,0,0,0,0,0,-1,867,1247,0,0
-350,-223,0,0,0,0,0,0,0,0,0,-1,874,1247,0,0
-343,-223,0,0,0,0,0,0,0,0,0,-1,881,1247,0,0
-336,-223,0,0,0,0,0,0,0,0,0,-1,888,1247,0,0
-329,-223,0,0,0,0,0,0,0,0,0,-1,895,1247,0,0
-322,-223,0,0,0,0,0,0,0,0,0,-1,902,1247,0,0
-315,-223,0,0,0,0,0,0,0,0,0,-1,909,1247,0,0
-308,-223,0,0,0,0,0,0,0,0,0,-1,916,1247,0,0
-301,-223,0,0,0,0,0,0,0,0,0,-1,923,1247,0,0
-294,-223,0,0,0,0,0,0,0,0,0,-1,930,1247,0,0
-287,-223,0,0,0,0,0,0,0,0,0,-1,937,1247,0,0
-280,-223,0,0,0,0,0,0,0,0,0,-1,944,1247,0,0
-273,-223,0,0,0,0,0,0,0,0,0,-1,951,1247,0,0
-266,-223,0,0,0,0,0,0,0,0,0,-1,958,1247,0,0
-259,-223,0,0,0,0,0,0,0,0,0,-1,965,1247,0,0
-252,-223,0,0,0,0,0,0,0,0,0,-1,972,1247,0,0
-245,-223,0,0,0,0,0,0,0,0,0,-1,979,1247,0,0
-238,-223,0,0,0,0,0,0,0,0,0,-1,986,1247,0,0
-231,-223,0,0,0,0,0,0,0,0,0,-1,993,1247,0,0
-224,-223,0,0,0,0,0,0,0,0,0,-1,1000,1247,0,0
-217,-223,0,0,0,0,0,0,0,0,0,-1,1007,1247,0,0
-210,-223,0,0,0,0,0,0,0,0,0,-1,1014,1247,0,0
-203,-223,0,0,0,0,0,0,0,0,0,-1,1021,1247,0,0
-196,-223,0,0,0,0,0,0,0,0,0,-1,1028,1247,0,0
-189,-223,0,0,0,0,0,0,0,0,0,-1,1035,1247,0,0
-182,-223,0,0,0,0,0,0,0,0,0,-1,1042,1247,0,0
-175,-223,0,0,0,0,0,0,0,0,0,-1,1049,1247,0,0
-168,-223,0,0,0,0,0,0,0,0,0,-1,1056,1247,0,0
-161,-223,0,0,0,0,0,0,0,0,0,-1,1063,1247,0,0
-154,-223,0,0,0,0,0,0,0,0,0,-1,1070,1247,0,0
-147,-223,0,0,0,0,0,0,0,0,0,-1,1077,1247,0,0
-140,-223,0,0,0,0,0,0,0,0,0,-1,1084,1247,0,0
-133,-223,0,0,0,0,0,0,0,0,0,-1,1091,1247,0,0
-126,-223,0,0,0,0,0,0,0,0,0,-1,1098,1247,0,0
-119,-223,0,0,0,0,0,0,0,0,0,-1,1105,1247,0,0
-112,-223,0,0,0,0,0,0,0,0,0,-1,1112,1247,0,0
-105,-223,0,0,0,0,0,0,0,0,0,-1,1119,1247,0,0
-98,-223,0,0,0,0,0,0,0,0,0,-1,1126,1247,0,0
-91,-223,0,0,0,0,0,0,0,0,0,-1,1133,1247,0,0
-84,-223,0,0,0,0,0,0,0,0,0,-1,1140,1247,0,0
-77,-223,0,0,0,0,0,0,0,0,0,-1,1147,1247,0,0
-70,-223,0,0,0,0,0,0,0,0,0,-1,1154,1247,0,0
-63,-223,0,0,0,0,0,0,0,0,0,-1,1161,1247,0,0
-56,-223,0,0,0,0,0,0,0,0,0,-1,1168,1247,0,0
-49,-223,0,0,0,0,0,0,0,0,0,-1,1175,1247,0,0
-42,-223,0,0,0,0,0,0,0,0,0,-1,1182,1247,0,0
-35,-223,0,0,0,0,0,0,0,0,0,-1,1189,1247,0,0
-28,-223,0,0,0,0,0,0,0,0,0,-1,1196,1247,0,0
-21,-223,0,0,0,0,0,0,0,0,0,-1,1203,1247,0,0
-14,-223,0,0,0,0,0,0,0,0,0,-1,1210,1247,0,0
-7,-223,0,0,0,0,0,0,0,0,0,-1,1217,1247,0,0
0,-223,0,0,0,0,0,0,0,0,0,-1,1224,1247,0,0
7,-223,0,0,0,0,0,0,0,0,0,-1,1231,1247,0,0
14,-223,0,0,0,0,0,0,0,0,0,-1,1238,1247,0,0
21,-223,0,0,0,0,0,0,0,0,0,-1,1245,1247,0,0
28,-223,0,0,0,0,0,0,0,0,0,-1,1252,1247,0,0
35,-223,0,0,0,0,0,0,0,0,0,-1,1259,1247,0,0
42,-223,0,0,0,0,0,0,0,0,0,-1,1266,1247,0,0
49,-223,0,0,0,0,0,0,0,0,0,-1,1273,1247,0,0
56,-223,0,0,0,0,0,0,0,0,0,-1,1280,1247,0,0
63,-223,0,0,0,0,0,0,0,0,0,-1,1287,1247,0,0
70,-223,0,0,0,0,0,0,0,0,0,-1,1294,1247,0,0
77,-223,0,0,0,0,0,0,0,0,0,-1,1301,1247,0,0
84,-223,0,0,0,0,0,0,0,0,0,-1,1308,1247,0,0
91,-223,0,0,0,0,0,0,0,0,0,-1,1315,1247,0,0
98,-223,0,0,0,0,0,0,0,0,0,-1,1322,1247,0,0
105,-223,0,0,0,0,0,0,0,0,0,-1,1329,1247,0,0
112,-223,0,0,0,0,0,0,0,0,0,-1,1336,1247,0,0
119,-223,0,0,0,0,0,0,0,0,0,-1,1343,1247,0,0
126,-223,0,0,0,0,0,0,0,0,0,-1,1350,1247,0,0
133,-223,0,0,0,0,0,0,0,0,0,-1,1357,1247,0,0
140,-223,0,0,0,0,0,0,0,0,0,-1,1364,1247,0,0
147,-223,0,0,0,0,0,0,0,0,0,-1,1371,1247,0,0
154,-223,0,0,0,0,0,0,0,0,0,-1,1378,1247,0,0
161,-223,0,0,0,0,0,0,0,0,0,-1,1385,1247,0,0
168,-223,0,0,0,0,0,0,0,0,0,-1,1392,1247,0,0
175,-223,0,0,0,0,0,0,0,0,0,-1,1399,1247,0,0
182,-223,0,0,0,0,0,0,0,0,0,-1,1406,1247,0,0
189,-223,0,0,0,0,0,0,0,0,0,-1,1413,1247,0,0
196,-223,0,0,0,0,0,0,0,0,0,-1,1420,1247,0,0
203,-223,0,0,0,0,0,0,0,0,0,-1,1427,1247,0,0
210,-223,0,0,0,0,0,0,0,0,0,-1,1434,1247,0,0
217,-223,0,0,0,0,0,0,0,0,0,-1,1441,1247,0,0
224,-223,0,0,0,0,0,0,0,0,0,-1,1448,1247,0,0
231,-223,0,0,0,0,0,0,0,0,0,-1,1455,1247,0,0
238,-223,0,0,0,0,0,0,0,0,0,-1,1462,1247,0,0
245,-223,0,0,0,0,0,0,0,0,0,-1,1469,1247,0,0
252,-223,0,0,0,0,0,0,0,0,0,-1,1476,1247,0,0
259,-223,0,0,0,0,0,0,0,0,0,-1,1483,1247,0,0
266,-223,0,0,0,0,0,0,0,0,0,-1,1490,1247,0,0
273,-223,0,0,0,0,0,0,0,0,0,-1,1497,1247,0,0
280,-223,0,0,0,0,0,0,0,0,0,-1,1504,1247,0,0
287,-223,0,0,0,0,0,0,0,0,0,-1,1511,1247,0,0
294,-223,0,0,0,0,0,0,0,0,0,-1,1518,1247,0,0
301,-223,0,0,0,0,0,0,0,0,0,-1,1525,1247,0,0
308,-223,0,0,0,0,0,0,0,0,0,-1,1532,1247,0,0
315,-223,0,0,0,0,0,0,0,0,0,-1,1539,1247,0,0
322,-223,0,0,0,0,0,0,0,0,0,-1,1546,1247,0,0
329,-223,0,0,0,0,0,0,0,0,0,-1,1553,1247,0,0
336,-223,0,0,0,0,0,0,0,0,0,-1,1560,1247,0,0
343,-223,0,0,0,0,0,0,0,0,0,-1,1567,1247,0,0
350,-223,0,0,0,0,0,0,0,0,0,-1,1574,1247,0,0
357,-223,0,0,0,0,0,0,0,0,0,-1,1581,1247,0,0
364,-223,0,0,0,0,0,0,0,0,0,-1,1588,1247,0,0
371,-223,0,0,0,0,0,0,0,0,0,-1,1595,1247,0,0
378,-223,0,0,0,0,0,0,0,0,0,-1,1602,1247,0,0
385,-223,0,0,0,0,0,0,0,0,0,-1,1609,1247,0,0
392,-223,0,0,0,0,0,0,0,0,0,-1,1616,1247,0,0
399,-223,0,0,0,0,0,0,0,0,0,-1,1623,1247,0,0
406,-223,0,0,0,0,0,0,0,0,0,-1,1630,1247,0,0
413,-223,0,0,0,0,0,0,0,0,0,-1,1637,1247,0,0
420,-223,0,0,0,0,0,0,0,0,0,-1,1644,1247,0,0
427,-223,0,0,0,0,0,0,0,0,0,-1,1651,1247,0,0
434,-223,0,0,0,0,0,0,0,0,0,-1,1658,1247,0,0
441,-223,0,0,0,0,0,0,0,0,0,-1,1665,1247,0,0
448,-223,0,0,0,0,0,0,0,0,0,-1,1672,1247,0,0
455,-223,0,0,0,0,0,0,0,0,0,-1,1679,1247,0,0
462,-223,0,0,0,0,0,0,0,0,0,-1,1686,1247,0,0
469,-223,0,0,0,0,0,0,0,0,0,-1,1693,1247,0,0
476,-223,0,0,0,0,0,0,0,0,0,-1,1700,1247,0,0
483,-223,0,0,0,0,0,0,0,0,0,-1,1707,1247,0,0
490,-223,0,0,0,0,0,0,0,0,0,-1,1714,1247,0,0
497,-223,0,0,0,0,0,0,0,0,0,-1,1721,1247,0,0
504,-223,0,0,0,0,0,0,0,0,0,-1,1728,1247,0,0
511,-223,0,0,0,0,0,0,0,0,0,-1,1735,1247,0,0
518,-223,0,0,0,0,0,0,0,0,0,-1,1742,1247,0,0
525,-223,0,0,0,0,0,0,0,0,0,-1,1749,1247,0,0
532,-223,0,0,0,0,0,0,0,0,0,-1,1756,1247,0,0
539,-223,0,0,0,0,0,0,0,0,0,-1,1763,1247,0,0
546,-223,0,0,0,0,0,0,0,0,0,-1,1770,1247,0,0
553,-223,0,0,0,0,0,0,0,0,0,-1,1777,1247,0,0
560,-223,0,0,0,0,0,0,0,0,0,-1,1784,1247,0,0
567,-223,0,0,0,0,0,0,0,0,0,-1,1791,1247,0,0
574,-223,0,0,0,0,0,0,0,0,0,-1,1798,1247,0,0
581,-223,0,0,0,0,0,0,0,0,0,-1,1805,1247,0,0
588,-223,0,0,0,0,0,0,0,0,0,-1,1812,1247,0,0
595,-223,0,0,0,0,0,0,0,0,0,-1,1819,1247,0,0
602,-223,0,0,0,0,0,0,0,0,0,-1,1826,1247,0,0
609,-223,0,0,0,0,0,0,0,0,0,-1,1833,1247,0,0
616,-223,0,0,0,0,0,0,0,0,0,-1,1840,1247,0,0
623,-223,54.4939,3.00696,0.00250919,0.00255034,0.00106328,0.00359325,0.00146628,0.795071,0.00208622,0.0384548,1847,1247,54.4939,-3.0069
630,-223,54.4918,2.8927,0.000968091,0.00239492,-0.00052139,0.00256514,0.000797873,-1.25523,0.00151583,0.0340739,1854,1247,54.4918,-2.89269
637,-223,54.5806,2.8103,-0.000155983,0.00249618,-0.00190956,0.00349494,-0.00115475,-1.08889,0.00279554,0.0270259,1861,1247,54.5805,-2.81029
644,-223,54.5913,2.79578,-0.000380909,0.00249743,-0.00288851,0.00428544,-0.00216892,-1.01652,0.00379262,0.0215717,1868,1247,54.5914,-2.79583
651,-223,54.6113,2.86841,5.54506e-05,0.00189424,-0.00297054,0.00408441,-0.00213472,-0.935475,0.00364896,0.0290269,1875,1247,54.6113,-2.86842
658,-223,54.8763,3.15625,0,0,0,0,0,0,0,-1,1882,1247,54.8764,-3.15621
665,-223,55.2643,3.32996,0,0,0,0,0,0,0,-1,1889,1247,55.2643,-3.33001
672,-223,55.5718,3.36133,0,0,0,0,0,0,0,-1,1896,1247,55.5717,-3.36133
679,-223,43.2783,2.46973,0,0,0,0,0,0,0,-1,1903,1247,43.2784,-2.46978
686,-223,40.7926,10.0316,0,0,0,0,0,0,0,-1,1910,1247,40.7926,-10.0316
693,-223,43.1642,10.3107,0,0,0,0,0,0,0,-1,1917,1247,43.1642,-10.3107
700,-223,42.8085,9.98499,0.00197835,-0.0013335,-0.000735316,0.00213427,-0.00148942,-0.208948,0.00210315,0.0298729,1924,1247,42.8085,-9.98496
707,-223,42.6732,9.54736,0.00215001,-0.00249102,-0.000767941,0.00227378,-0.00261479,-0.159795,0.00282471,0.0253739,1931,1247,42.6732,-9.54742
714,-223,42.6545,9.08191,0.00133007,-0.00199845,-0.000289049,0.00135499,-0.00202337,-0.0859822,0.00196318,0.0124433,1938,1247,42.6546,-9.08191
721,-223,42.6373,8.58496,0.000343542,-0.00141149,0.000507347,0.000479651,-0.0015476,0.262104,0.00122337,0.0143264,1945,1247,42.6373,-8.585
728,-223,42.6204,8.0946,-0.000217874,-0.000976325,0.00123963,0.000699235,-0.00189343,0.636959,0.0015489,0.0185708,1952,1247,42.6204,-8.09456
735,-223,42.618,7.63013,-0.000700502,-0.000411982,0.00188053,0.00132981,-0.00244229,0.823679,0.00220917,0.0184768,1959,1247,42.618,-7.6301
742,-223,42.5581,7.17615,-0.00103296,0.000169176,0.00260322,0.00223981,-0.0031036,0.898857,0.00309843,0.0161808,1966,1247,42.5581,-7.17618
749,-223,42.5531,6.60938,-0.00116312,0.000677355,0.00338071,0.00326084,-0.0037466,0.91828,0.00404899,0.0126863,1973,1247,42.5531,-6.60936
756,-223,42.5048,6.0979,-0.00100105,0.0010677,0.00425795,0.00441512,-0.00434846,0.904554,0.0050597,0.0149626,1980,1247,42.5047,-6.09791
763,-223,42.4904,5.68604,-0.000415812,0.00119632,0.0052846,0.00573598,-0.00495547,0.86108,0.00617819,0.0218698,1987,1247,42.4904,-5.68608
770,-223,42.4865,5.50403,0.000633726,0.00103938,0.00662094,0.00746059,-0.00578749,0.80071,0.00766909,0.0458785,1994,1247,42.4865,-5.50406
777,-223,42.4672,5.29602,0,0,0,0,0,0,0,-1,2001,1247,42.4671,-5.29602
784,-223,54.1208,-0.293457,0,0,0,0,0,0,0,-1,2008,1247,54.1208,0.293477
791,-223,34.7136,2.92554,0,0,0,0,0,0,0,-1,2015,1247,34.7137,-2.92555
798,-223,0,0,0,0,0,0,0,0,0,-1,2022,1247,0,0
805,-223,0,0,0,0,0,0,0,0,0,-1,2029,1247,0,0
812,-223,0,0,0,0,0,0,0,0,0,-1,2036,1247,0,0
-700,-230,0,0,0,0,0,0,0,0,0,-1,524,1254,0,0
-693,-230,0,0,0,0,0,0,0,0,0,-1,531,1254,0,0
-686,-230,0,0,0,0,0,0,0,0,0,-1,538,1254,0,0
-679,-230,0,0,0,0,0,0,0,0,0,-1,545,1254,0,0
-672,-230,-36.7396,-6.88159,0,0,0,0,0,0,0,-1,552,1254,-36.7396,6.88156
-665,-230,-36.98,-5.95239,0,0,0,0,0,0,0,-1,559,1254,-36.98,5.95234
-658,-230,-37.2108,-4.99768,0,0,0,0,0,0,0,-1,566,1254,-37.2108,4.99765
-651,-230,-38.0474,-4.27551,0,0,0,0,0,0,0,-1,573,1254,-38.0474,4.27548
-644,-230,-38.1219,-3.04126,0,0,0,0,0,0,0,-1,580,1254,-38.1219,3.04128
-637,-230,-38.0911,-1.91528,0,0,0,0,0,0,0,-1,587,1254,-38.0911,1.91533
-630,-230,-27.5174,2.87866,0,0,0,0,0,0,0,-1,594,1254,-27.5174,-2.87862
-623,-230,-27.4394,3.52954,0.00531739,0.00329701,0.00169863,0.00628352,0.00233088,0.517139,0.00366785,0.0317844,601,1254,-27.4394,-3.52952
-616,-230,-27.3971,4.07043,0.00400146,0.0026326,0.00093168,0.00447309,0.00216097,0.468606,0.00258303,0.0176314,608,1254,-27.3971,-4.07048
-609,-230,-27.3981,4.61462,0.00295561,0.00183142,0.000503556,0.00314818,0.00163885,0.36526,0.00181812,0.0131559,615,1254,-27.3981,-4.61462
-602,-230,-27.409,5.14661,0.00237459,0.000945462,0.000125087,0.00238546,0.000934596,0.0866484,0.00138796,0.0122219,622,1254,-27.409,-5.14659
-595,-230,-27.4476,5.7251,0.00232213,-6.45466e-05,5.51043e-06,0.00232215,-6.45594e-05,0.00230881,0.00157006,0.0198229,629,1254,-27.4477,-5.72506
-588,-230,-27.4468,6.30286,0.00249195,-0.000563036,-0.000240726,0.00251081,-0.000581888,-0.0781549,0.00189781,0.0282678,636,1254,-27.4468,-6.30284
-581,-230,-27.4508,6.85889,0.00284245,-0.00122477,-0.00044977,0.00289159,-0.00127392,-0.108832,0.00246467,0.025768,643,1254,-27.4508,-6.85895
-574,-230,-27.4402,7.37683,0.00294217,-0.0018299,-0.000207663,0.00295119,-0.00183892,-0.0434068,0.00279032,0.0252896,650,1254,-27.4402,-7.37684
-567,-230,-27.3789,7.87085,0.00299494,-0.00207161,0.000706706,0.00309167,-0.00216834,0.136026,0.00305242,0.040625,657,1254,-27.3789,-7.87082
-560,-230,-27.4694,8.32507,0,0,0,0,0,0,0,-1,664,1254,-27.4694,-8.32507
-553,-230,-13.1939,4.9718,0,0,0,0,0,0,0,-1,671,1254,-13.1939,-4.97175
-546,-230,-15.23,0.453979,0,0,0,0,0,0,0,-1,678,1254,-15.23,-0.453996
-539,-230,-25.8232,0.512817,0,0,0,0,0,0,0,-1,685,1254,-25.8232,-0.512878
-532,-230,-21.1644,1.52966,0,0,0,0,0,0,0,-1,692,1254,-21.1644,-1.52969
-525,-230,-29.4775,0.731445,0,0,0,0,0,0,0,-1,699,1254,-29.4775,-0.731432
-518,-230,-39.8776,0.649902,0,0,0,0,0,0,0,-1,706,1254,-39.8776,-0.649959
-511,-230,-40.5534,0.950195,0,0,0,0,0,0,0,-1,713,1254,-40.5534,-0.950157
-504,-230,-40.5415,0.995972,0,0,0,0,0,0,0,-1,720,1254,-40.5415,-0.996019
-497,-230,0,0,0,0,0,0,0,0,0,-1,727,1254,0,0
-490,-230,0,0,0,0,0,0,0,0,0,-1,734,1254,0,0
-483,-230,0,0,0,0,0,0,0,0,0,-1,741,1254,0,0
-476,-230,0,0,0,0,0,0,0,0,0,-1,748,1254,0,0
-469,-230,0,0,0,0,0,0,0,0,0,-1,755,1254,0,0
-462,-230,0,0,0,0,0,0,0,0,0,-1,762,1254,0,0
-455,-230,0,0,0,0,0,0,0,0,0,-1,769,1254,0,0
-448,-230,0,0,0,0,0,0,0,0,0,-1,776,1254,0,0
-441,-230,0,0,0,0,0,0,0,0,0,-1,783,1254,0,0
-434,-230,0,0,0,0,0,0,0,0,0,-1,790,1254,0,0
-427,-230,0,0,0,0,0,0,0,0,0,-1,797,1254,0,0
-420,-230,0,0,0,0,0,0,0,0,0,-1,804,1254,0,0
-413,-230,0,0,0,0,0,0,0,0,0,-1,811,1254,0,0
-406,-230,0,0,0,0,0,0,0,0,0,-1,818,1254,0,0
-399,-230,0,0,0,0,0,0,0,0,0,-1,825,1254,0,0
-392,-230,0,0,0,0,0,0,0,0,0,-1,832,1254,0,0
-385,-230,0,0,0,0,0,0,0,0,0,-1,839,1254,0,0
-378,-230,0,0,0,0,0,0,0,0,0,-1,846,1254,0,0
-371,-230,0,0,0,0,0,0,0,0,0,-1,853,1254,0,0
-364,-230,0,0,0,0,0,0,0,0,0,-1,860,1254,0,0
-357,-230,0,0,0,0,0,0,0,0,0,-1,867,1254,0,0
-350,-230,0,0,0,0,0,0,0,0,0,-1,874,1254,0,0
-343,-230,0,0,0,0,0,0,0,0,0,-1,881,1254,0,0
-336,-230,0,0,0,0,0,0,0,0,0,-1,888,1254,0,0
-329,-230,0,0,0,0,0,0,0,0,0,-1,895,1254,0,0
-322,-230,0,0,0,0,0,0,0,0,0,-1,902,1254,0,0
-315,-230,0,0,0,0,0,0,0,0,0,-1,909,1254,0,0
-308,-230,0,0,0,0,0,0,0,0,0,-1,916,1254,0,0
-301,-230,0,0,0,0,0,0,0,0,0,-1,923,1254,0,0
-294,-230,0,0,0,0,0,0,0,0,0,-1,930,1254,0,0
-287,-230,0,0,0,0,0,0,0,0,0,-1,937,1254,0,0
-280,-230,0,0,0,0,0,0,0,0,0,-1,944,1254,0,0
-273,-230,0,0,0,0,0,0,0,0,0,-1,951,1254,0,0
-266,-230,0,0,0,0,0,0,0,0,0,-1,958,1254,0,0
-259,-230,0,0,0,0,0,0,0,0,0,-1,965,1254,0,0
-252,-230,0,0,0,0,0,0,0,0,0,-1,972,1254,0,0
-245,-230,0,0,0,0,0,0,0,0,0,-1,979,1254,0,0
-238,-230,0,0,0,0,0,0,0,0,0,-1,986,1254,0,0
-231,-230,0,0,0,0,0,0,0,0,0,-1,993,1254,0,0
-224,-230,0,0,0,0,0,0,0,0,0,-1,1000,1254,0,0
-217,-230,0,0,0,0,0,0,0,0,0,-1,1007,1254,0,0
-210,-230,0,0,0,0,0,0,0,0,0,-1,1014,1254,0,0
-203,-230,0,0,0,0,0,0,0,0,0,-1,1021,1254,0,0
-196,-230,0,0,0,0,0,0,0,0,0,-1,1028,1254,0,0
-189,-230,0,0,0,0,0,0,0,0,0,-1,1035,1254,0,0
-182,-230,0,0,0,0,0,0,0,0,0,-1,1042,1254,0,0
-175,-230,0,0,0,0,0,0,0,0,0,-1,1049,1254,0,0
-168,-230,0,0,0,0,0,0,0,0,0,-1,1056,1254,0,0
-161,-230,0,0,0,0,0,0,0,0,0,-1,1063,1254,0,0
-154,-230,0,0,0,0,0,0,0,0,0,-1,1070,1254,0,0
-147,-230,0,0,0,0,0,0,0,0,0,-1,1077,1254,0,0
-140,-230,0,0,0,0,0,0,0,0,0,-1,1084,1254,0,0
-133,-230,0,0,0,0,0,0,0,0,0,-1,1091,1254,0,0
-126,-230,0,0,0,0,0,0,0,0,0,-1,1098,1254,0,0
-119,-230,0,0,0,0,0,0,0,0,0,-1,1105,1254,0,0
-112,-230,0,0,0,0,0,0,0,0,0,-1,1112,1254,0,0
-105,-230,0,0,0,0,0,0,0,0,0,-1,1119,1254,0,0
-98,-230,0,0,0,0,0,0,0,0,0,-1,1126,1254,0,0
-91,-230,0,0,0,0,0,0,0,0,0,-1,1133,1254,0,0
-84,-230,0,0,0,0,0,0,0,0,0,-1,1140,1254,0,0
-77,-230,0,0,0,0,0,0,0,0,0,-1,1147,1254,0,0
-70,-230,0,0,0,0,0,0,0,0,0,-1,1154,1254,0,0
-63,-230,0,0,0,0,0,0,0,0,0,-1,1161,1254,0,0
-56,-230,0,0,0,0,0,0,0,0,0,-1,1168,1254,0,0
-49,-230,0,0,0,0,0,0,0,0,0,-1,1175,1254,0,0
-42,-230,0,0,0,0,0,0,0,0,0,-1,1182,1254,0,0
-35,-230,0,0,0,0,0,0,0,0,0,-1,1189,1254,0,0
-28,-230,0,0,0,0,0,0,0,0,0,-1,1196,1254,0,0
-21,-230,0,0,0,0,0,0,0,0,0,-1,1203,1254,0,0
-14,-230,0,0,0,0,0,0,0,0,0,-1,1210,1254,0,0
-7,-230,0,0,0,0,0,0,0,0,0,-1,1217,1254,0,0
0,-230,0,0,0,0,0,0,0,0,0,-1,1224,1254,0,0
7,-230,0,0,0,0,0,0,0,0,0,-1,1231,1254,0,0
14,-230,0,0,0,0,0,0,0,0,0,-1,1238,1254,0,0
21,-230,0,0,0,0,0,0,0,0,0,-1,1245,1254,0,0
28,-230,0,0,0,0,0,0,0,0,0,-1,1252,1254,0,0
35,-230,0,0,0,0,0,0,0,0,0,-1,1259,1254,0,0
42,-230,0,0,0,0,0,0,0,0,0,-1,1266,1254,0,0
49,-230,0,0,0,0,0,0,0,0,0,-1,1273,1254,0,0
56,-230,0,0,0,0,0,0,0,0,0,-1,1280,1254,0,0
63,-230,0,0,0,0,0,0,0,0,0,-1,1287,1254,0,0
70,-230,0,0,0,0,0,0,0,0,0,-1,1294,1254,0,0
77,-230,0,0,0,0,0,0,0,0,0,-1,1301,1254,0,0
84,-230,0,0,0,0,0,0,0,0,0,-1,1308,1254,0,0
91,-230,0,0,0,0,0,0,0,0,0,-1,1315,1254,0,0
98,-230,0,0,0,0,0,0,0,0,0,-1,1322,1254,0,0
105,-230,0,0,0,0,0,0,0,0,0,-1,1329,1254,0,0
112,-230,0,0,0,0,0,0,0,0,0,-1,1336,1254,0,0
119,-230,0,0,0,0,0,0,0,0,0,-1,1343,1254,0,0
126,-230,0,0,0,0,0,0,0,0,0,-1,1350,1254,0,0
133,-230,0,0,0,0,0,0,0,0,0,-1,1357,1254,0,0
140,-230,0,0,0,0,0,0,0,0,0,-1,1364,1254,0,0
147,-230,0,0,0,0,0,0,0,0,0,-1,1371,1254,0,0
154,-230,0,0,0,0,0,0,0,0,0,-1,1378,1254,0,0
161,-230,0,0,0,0,0,0,0,0,0,-1,1385,1254,0,0
168,-230,0,0,0,0,0,0,0,0,0,-1,1392,1254,0,0
175,-230,0,0,0,0,0,0,0,0,0,-1,1399,1254,0,0
182,-230,0,0,0,0,0,0,0,0,0,-1,1406,1254,0,0
189,-230,0,0,0,0,0,0,0,0,0,-1,1413,1254,0,0
196,-230,0,0,0,0,0,0,0,0,0,-1,1420,1254,0,0
203,-230,0,0,0,0,0,0,0,0,0,-1,1427,1254,0,0
210,-230,0,0,0,0,0,0,0,0,0,-1,1434,1254,0,0
217,-230,0,0,0,0,0,0,0,0,0,-1,1441,1254,0,0
224,-230,0,0,0,0,0,0,0,0,0,-1,1448,1254,0,0
231,-230,0,0,0,0,0,0,0,0,0,-1,1455,1254,0,0
238,-230,0,0,0,0,0,0,0,0,0,-1,1462,1254,0,0
245,-230,0,0,0,0,0,0,0,0,0,-1,1469,1254,0,0
252,-230,0,0,0,0,0,0,0,0,0,-1,1476,1254,0,0
259,-230,0,0,0,0,0,0,0,0,0,-1,1483,1254,0,0
266,-230,0,0,0,0,0,0,0,0,0,-1,1490,1254,0,0
273,-230,0,0,0,0,0,0,0,0,0,-1,1497,1254,0,0
280,-230,0,0,0,0,0,0,0,0,0,-1,1504,1254,0,0
287,-230,0,0,0,0,0,0,0,0,0,-1,1511,1254,0,0
294,-230,0,0,0,0,0,0,0,0,0,-1,1518,1254,0,0
301,-230,0,0,0,0,0,0,0,0,0,-1,1525,1254,0,0
308,-230,0,0,0,0,0,0,0,0,0,-1,1532,1254,0,0
315,-230,0,0,0,0,0,0,0,0,0,-1,1539,1254,0,0
322,-230,0,0,0,0,0,0,0,0,0,-1,1546,1254,0,0
329,-230,0,0,0,0,0,0,0,0,0,-1,1553,1254,0,0
336,-230,0,0,0,0,0,0,0,0,0,-1,1560,1254,0,0
343,-230,0,0,0,0,0,0,0,0,0,-1,1567,1254,0,0
350,-230,0,0,0,0,0,0,0,0,0,-1,1574,1254,0,0
357,-230,0,0,0,0,0,0,0,0,0,-1,1581,1254,0,0
364,-230,0,0,0,0,0,0,0,0,0,-1,1588,1254,0,0
371,-230,0,0,0,0,0,0,0,0,0,-1,1595,1254,0,0
378,-230,0,0,0,0,0,0,0,0,0,-1,1602,1254,0,0
385,-230,0,0,0,0,0,0,0,0,0,-1,1609,1254,0,0
392,-230,0,0,0,0,0,0,0,0,0,-1,1616,1254,0,0
399,-230,0,0,0,0,0,0,0,0,0,-1,1623,1254,0,0
406,-230,0,0,0,0,0,0,0,0,0,-1,1630,1254,0,0
413,-230,0,0,0,0,0,0,0,0,0,-1,1637,1254,0,0
420,-230,0,0,0,0,0,0,0,0,0,-1,1644,1254,0,0
427,-230,0,0,0,0,0,0,0,0,0,-1,1651,1254,0,0
434,-230,0,0,0,0,0,0,0,0,0,-1,1658,1254,0,0
441,-230,0,0,0,0,0,0,0,0,0,-1,1665,1254,0,0
448,-230,0,0,0,0,0,0,0,0,0,-1,1672,1254,0,0
455,-230,0,0,0,0,0,0,0,0,0,-1,1679,1254,0,0
462,-230,0,0,0,0,0,0,0,0,0,-1,1686,1254,0,0
469,-230,0,0,0,0,0,0,0,0,0,-1,1693,1254,0,0
476,-230,0,0,0,0,0,0,0,0,0,-1,1700,1254,0,0
483,-230,0,0,0,0,0,0,0,0,0,-1,1707,1254,0,0
490,-230,0,0,0,0,0,0,0,0,0,-1,1714,1254,0,0
497,-230,0,0,0,0,0,0,0,0,0,-1,1721,1254,0,0
504,-230,0,0,0,0,0,0,0,0,0,-1,1728,1254,0,0
511,-230,0,0,0,0,0,0,0,0,0,-1,1735,1254,0,0
518,-230,0,0,0,0,0,0,0,0,0,-1,1742,1254,0,0
525,-230,0,0,0,0,0,0,0,0,0,-1,1749,1254,0,0
532,-230,0,0,0,0,0,0,0,0,0,-1,1756,1254,0,0
539,-230,0,0,0,0,0,0,0,0,0,-1,1763,1254,0,0
546,-230,0,0,0,0,0,0,0,0,0,-1,1770,1254,0,0
553,-230,0,0,0,0,0,0,0,0,0,-1,1777,1254,0,0
560,-230,0,0,0,0,0,0,0,0,0,-1,1784,1254,0,0
567,-230,0,0,0,0,0,0,0,0,0,-1,1791,1254,0,0
574,-230,0,0,0,0,0,0,0,0,0,-1,1798,1254,0,0
581,-230,0,0,0,0,0,0,0,0,0,-1,1805,1254,0,0
588,-230,0,0,0,0,0,0,0,0,0,-1,1812,1254,0,0
595,-230,0,0,0,0,0,0,0,0,0,-1,1819,1254,0,0
602,-230,0,0,0,0,0,0,0,0,0,-1,1826,1254,0,0
609,-230,0,0,0,0,0,0,0,0,0,-1,1833,1254,0,0
616,-230,54.7482,3.10132,0.00337045,0.00421838,0.00231179,0.00614476,0.00144407,0.876088,0.00371004,0.036448,1840,1254,54.7482,-3.10126
623,-230,54.708,3.09998,0.00180026,0.00383532,0.000479773,0.00394275,0.00169283,1.3505,0.00228391,0.0360162,1847,1254,54.708,-3.10002
630,-230,54.6229,2.95105,0.000305852,0.00376536,-0.00132722,0.00421587,-0.000144658,-1.24356,0.00286002,0.0306004,1854,1254,54.6229,-2.95099
637,-230,54.5566,2.82825,-0.000855576,0.00385659,-0.00285401,0.00520139,-0.00220038,-1.13046,0.00438893,0.0257845,1861,1254,54.5566,-2.82828
644,-230,54.4854,2.75024,-0.00095647,0.00364659,-0.00364044,0.00565201,-0.00296189,-1.06728,0.00505343,0.0203173,1868,1254,54.4854,-2.7502
651,-230,54.4884,2.77893,-0.000480667,0.00279931,-0.00342712,0.00495863,-0.00263998,-1.00856,0.00445462,0.0442337,1875,1254,54.4884,-2.7789
658,-230,54.519,2.85645,0,0,0,0,0,0,0,-1,1882,1254,54.519,-2.85641
665,-230,55.4523,3.51868,0,0,0,0,0,0,0,-1,1889,1254,55.4522,-3.51863
672,-230,43.0962,2.78699,0,0,0,0,0,0,0,-1,1896,1254,43.0962,-2.78698
679,-230,27.9967,2.37708,0,0,0,0,0,0,0,-1,1903,1254,27.9967,-2.3771
686,-230,40.8854,10.1788,0,0,0,0,0,0,0,-1,1910,1254,40.8853,-10.1788
693,-230,42.3848,10.6437,0,0,0,0,0,0,0,-1,1917,1254,42.3847,-10.6437
700,-230,42.2449,10.127,0.00190486,-0.000998861,-0.000658743,0.00204732,-0.00114132,-0.212973,0.00186556,0.0285168,1924,1254,42.2449,-10.1269
707,-230,42.1575,9.62415,0.00202228,-0.00240681,-0.000684222,0.00212557,-0.0025101,-0.149832,0.00267948,0.0133827,1931,1254,42.1575,-9.62412
714,-230,42.1349,9.1178,0.000988361,-0.00185984,-0.000104048,0.000992157,-0.00186364,-0.0364664,0.00167419,0.0126416,1938,1254,42.1349,-9.11774
721,-230,42.1217,8.6123,-6.83634e-05,-0.00124683,0.00069783,0.000255728,-0.00157093,0.434787,0.00114211,0.0131892,1945,1254,42.1217,-8.61234
728,-230,42.0765,8.13208,-0.000756244,-0.000758881,0.00142643,0.000668867,-0.00218399,0.784936,0.00172279,0.0147091,1952,1254,42.0766,-8.1321
735,-230,42.0704,7.6543,-0.00137296,-0.000196496,0.00208357,0.00138028,-0.00294974,0.922978,0.00255409,0.0156671,1959,1254,42.0704,-7.65435
742,-230,42.0557,7.1438,-0.00185256,0.000351608,0.00279666,0.0022555,-0.00375645,0.97309,0.00350687,0.0127235,1966,1254,42.0557,-7.14375
749,-230,42.0435,6.60559,-0.0021187,0.000846958,0.00355067,0.00321199,-0.00448373,0.9832,0.0044633,0.0121071,1973,1254,42.0435,-6.60562
756,-230,41.9974,6.12024,-0.00209387,0.00121354,0.00441468,0.00427408,-0.00515441,0.964605,0.00545145,0.0162896,1980,1254,41.9974,-6.12028
763,-230,41.9902,5.62292,-0.00160893,0.00132518,0.00541483,0.00546817,-0.00575192,0.917689,0.00647861,0.0359468,1987,1254,41.9902,-5.62296
770,-230,42.2982,5.10657,0,0,0,0,0,0,0,-1,1994,1254,42.2982,-5.1066
777,-230,41.8693,3.74707,0,0,0,0,0,0,0,-1,2001,1254,41.8692,-3.74713
784,-230,35.8896,1.80334,0,0,0,0,0,0,0,-1,2008,1254,35.8897,-1.80338
791,-230,35.6028,2.20642,0,0,0,0,0,0,0,-1,2015,1254,35.6027,-2.2064
798,-230,0,0,0,0,0,0,0,0,0,-1,2022,1254,0,0
805,-230,0,0,0,0,0,0,0,0,0,-1,2029,1254,0,0
812,-230,0,0,0,0,0,0,0,0,0,-1,2036,1254,0,0
-700,-237,0,0,0,0,0,0,0,0,0,-1,524,1261,0,0
-693,-237,0,0,0,0,0,0,0,0,0,-1,531,1261,0,0
-686,-237,0,0,0,0,0,0,0,0,0,-1,538,1261,0,0
-679,-237,0,0,0,0,0,0,0,0,0,-1,545,1261,0,0
-672,-237,-37.1815,-7.53198,0,0,0,0,0,0,0,-1,552,1261,-37.1815,7.532
-665,-237,-37.3025,-6.58105,0,0,0,0,0,0,0,-1,559,1261,-37.3025,6.58104
-658,-237,-38.6523,-6.31287,0,0,0,0,0,0,0,-1,566,1261,-38.6523,6.31289
-651,-237,-38.6077,-4.49817,0,0,0,0,0,0,0,-1,573,1261,-38.6077,4.49816
-644,-237,-38.6448,-2.97876,0,0,0,0,0,0,0,-1,580,1261,-38.6449,2.97871
-637,-237,-38.7684,-2.22546,0,0,0,0,0,0,0,-1,587,1261,-38.7684,2.22548
-630,-237,-26.7466,2.83167,0,0,0,0,0,0,0,-1,594,1261,-26.7466,-2.83167
-623,-237,-26.7662,3.45581,0.00617986,0.00451993,0.00142807,0.00700163,0.00369816,0.522164,0.00404453,0.0323577,601,1261,-26.7663,-3.45578
-616,-237,-26.7766,4.05066,0.0043942,0.00358741,0.00105863,0.00512369,0.00285792,0.603365,0.00296474,0.0150241,608,1261,-26.7766,-4.05064
-609,-237,-26.8181,4.60828,0.00325338,0.00258634,0.000749074,0.00373983,0.00209989,0.575953,0.00216463,0.0176672,615,1261,-26.8181,-4.60828
-602,-237,-26.8378,5.16479,0.00264926,0.00147346,0.000523773,0.00284873,0.00127398,0.363889,0.00164777,0.012936,622,1261,-26.8379,-5.16474
-595,-237,-26.8849,5.74915,0.00249297,0.000401521,0.000425843,0.00257636,0.000318139,0.193358,0.00162196,0.0168106,629,1261,-26.8849,-5.7492
-588,-237,-26.8958,6.34338,0.00261402,-0.000282953,0.000297174,0.00264419,-0.000313123,0.101177,0.0018759,0.0283326,636,1261,-26.8958,-6.34344
-581,-237,-26.9049,6.88489,0.00298754,-0.00096691,0.000187097,0.00299637,-0.000975742,0.0471725,0.00239017,0.0250383,643,1261,-26.9049,-6.88487
-574,-237,-26.9001,7.41565,0.0032588,-0.00159119,0.000414227,0.00329392,-0.00162632,0.0845913,0.00289457,0.0189924,650,1261,-26.9001,-7.4156
-567,-237,-26.899,7.99854,0.00350812,-0.00183206,0.00122886,0.00377732,-0.00210127,0.215665,0.00343968,0.0320054,657,1261,-26.899,-7.99859
-560,-237,-26.729,8.27112,0,0,0,0,0,0,0,-1,664,1261,-26.729,-8.27114
-553,-237,-20.6102,6.92139,0,0,0,0,0,0,0,-1,671,1261,-20.6102,-6.92138
-546,-237,-11.192,1.14014,0,0,0,0,0,0,0,-1,678,1261,-11.192,-1.14011
-539,-237,-16.512,1.53455,0,0,0,0,0,0,0,-1,685,1261,-16.512,-1.53457
-532,-237,-29.7025,1.23621,0,0,0,0,0,0,0,-1,692,1261,-29.7025,-1.23618
-525,-237,-37.9338,0.75708,0,0,0,0,0,0,0,-1,699,1261,-37.9339,-0.757056
-518,-237,-39.676,0.662231,0,0,0,0,0,0,0,-1,706,1261,-39.6759,-0.662179
-511,-237,-40.0278,0.877808,0,0,0,0,0,0,0,-1,713,1261,-40.0278,-0.877781
-504,-237,-40.6232,1.21875,0,0,0,0,0,0,0,-1,720,1261,-40.6232,-1.21877
-497,-237,-40.428,1.22302,0,0,0,0,0,0,0,-1,727,1261,-40.4281,-1.22304
-490,-237,0,0,0,0,0,0,0,0,0,-1,734,1261,0,0
-483,-237,0,0,0,0,0,0,0,0,0,-1,741,1261,0,0
-476,-237,0,0,0,0,0,0,0,0,0,-1,748,1261,0,0
-469,-237,0,0,0,0,0,0,0,0,0,-1,755,1261,0,0
-462,-237,0,0,0,0,0,0,0,0,0,-1,762,1261,0,0
-455,-237,0,0,0,0,0,0,0,0,0,-1,769,1261,0,0
-448,-237,0,0,0,0,0,0,0,0,0,-1,776,1261,0,0
-441,-237,0,0,0,0,0,0,0,0,0,-1,783,1261,0,0
-434,-237,0,0,0,0,0,0,0,0,0,-1,790,1261,0,0
-427,-237,0,0,0,0,0,0,0,0,0,-1,797,1261,0,0
-420,-237,0,0,0,0,0,0,0,0,0,-1,804,1261,0,0
-413,-237,0,0,0,0,0,0,0,0,0,-1,811,1261,0,0
-406,-237,0,0,0,0,0,0,0,0,0,-1,818,1261,0,0
-399,-237,0,0,0,0,0,0,0,0,0,-1,825,1261,0,0
-392,-237,0,0,0,0,0,0,0,0,0,-1,832,1261,0,0
-385,-237,0,0,0,0,0,0,0,0,0,-1,839,1261,0,0
-378,-237,0,0,0,0,0,0,0,0,0,-1,846,1261,0,0
-371,-237,0,0,0,0,0,0,0,0,0,-1,853,1261,0,0
-364,-237,0,0,0,0,0,0,0,0,0,-1,860,1261,0,0
-357,-237,0,0,0,0,0,0,0,0,0,-1,867,1261,0,0
-350,-237,0,0,0,0,0,0,0,0,0,-1,874,1261,0,0
-343,-237,0,0,0,0,0,0,0,0,0,-1,881,1261,0,0
-336,-237,0,0,0,0,0,0,0,0,0,-1,888,1261,0,0
-329,-237,0,0,0,0,0,0,0,0,0,-1,895,1261,0,0
-322,-237,0,0,0,0,0,0,0,0,0,-1,902,1261,0,0
-315,-237,0,0,0,0,0,0,0,0,0,-1,909,1261,0,0
-308,-237,0,0,0,0,0,0,0,0,0,-1,916,1261,0,0
-301,-237,0,0,0,0,0,0,0,0,0,-1,923,1261,0,0
-294,-237,0,0,0,0,0,0,0,0,0,-1,930,1261,0,0
-287,-237,0,0,0,0,0,0,0,0,0,-1,937,1261,0,0
-280,-237,0,0,0,0,0,0,0,0,0,-1,944,1261,0,0
-273,-237,0,0,0,0,0,0,0,0,0,-1,951,1261,0,0
-266,-237,0,0,0,0,0,0,0,0,0,-1,958,1261,0,0
-259,-237,0,0,0,0,0,0,0,0,0,-1,965,1261,0,0
-252,-237,0,0,0,0,0,0,0,0,0,-1,972,1261,0,0
-245,-237,0,0,0,0,0,0,0,0,0,-1,979,1261,0,0
-238,-237,0,0,0,0,0,0,0,0,0,-1,986,1261,0,0
-231,-237,0,0,0,0,0,0,0,0,0,-1,993,1261,0,0
-224,-237,0,0,0,0,0,0,0,0,0,-1,1000,1261,0,0
-217,-237,0,0,0,0,0,0,0,0,0,-1,1007,1261,0,0
-210,-237,0,0,0,0,0,0,0,0,0,-1,1014,1261,0,0
-203,-237,0,0,0,0,0,0,0,0,0,-1,1021,1261,0,0
-196,-237,0,0,0,0,0,0,0,0,0,-1,1028,1261,0,0
-189,-237,0,0,0,0,0,0,0,0,0,-1,1035,1261,0,0
-182,-237,0,0,0,0,0,0,0,0,0,-1,1042,1261,0,0
-175,-237,0,0,0,0,0,0,0,0,0,-1,1049,1261,0,0
-168,-237,0,0,0,0,0,0,0,0,0,-1,1056,1261,0,0
-161,-237,0,0,0,0,0,0,0,0,0,-1,1063,1261,0,0
-154,-237,0,0,0,0,0,0,0,0,0,-1,1070,1261,0,0
-147,-237,0,0,0,0,0,0,0,0,0,-1,1077,1261,0,0
-140,-237,0,0,0,0,0,0,0,0,0,-1,1084,1261,0,0
-133,-237,0,0,0,0,0,0,0,0,0,-1,1091,1261,0,0
-126,-237,0,0,0,0,0,0,0,0,0,-1,1098,1261,0,0
-119,-237,0,0,0,0,0,0,0,0,0,-1,1105,1261,0,0
-112,-237,0,0,0,0,0,0,0,0,0,-1,1112,1261,0,0
-105,-237,0,0,0,0,0,0,0,0,0,-1,1119,1261,0,0
-98,-237,0,0,0,0,0,0,0,0,0,-1,1126,1261,0,0
-91,-237,0,0,0,0,0,0,0,0,0,-1,1133,1261,0,0
-84,-237,0,0,0,0,0,0,0,0,0,-1,1140,1261,0,0
-77,-237,0,0,0,0,0,0,0,0,0,-1,1147,1261,0,0
-70,-237,0,0,0,0,0,0,0,0,0,-1,1154,1261,0,0
-63,-237,0,0,0,0,0,0,0,0,0,-1,1161,1261,0,0
-56,-237,0,0,0,0,0,0,0,0,0,-1,1168,1261,0,0
-49,-237,0,0,0,0,0,0,0,0,0,-1,1175,1261,0,0
-42,-237,0,0,0,0,0,0,0,0,0,-1,1182,1261,0,0
-35,-237,0,0,0,0,0,0,0,0,0,-1,1189,1261,0,0
-28,-237,0,0,0,0,0,0,0,0,0,-1,1196,1261,0,0
-21,-237,0,0,0,0,0,0,0,0,0,-1,1203,1261,0,0
-14,-237,0,0,0,0,0,0,0,0,0,-1,1210,1261,0,0
-7,-237,0,0,0,0,0,0,0,0,0,-1,1217,1261,0,0
0,-237,0,0,0,0,0,0,0,0,0,-1,1224,1261,0,0
7,-237,0,0,0,0,0,0,0,0,0,-1,1231,1261,0,0
14,-237,0,0,0,0,0,0,0,0,0,-1,1238,1261,0,0
21,-237,0,0,0,0,0,0,0,0,0,-1,1245,1261,0,0
28,-237,0,0,0,0,0,0,0,0,0,-1,1252,1261,0,0
35,-237,0,0,0,0,0,0,0,0,0,-1,1259,1261,0,0
42,-237,0,0,0,0,0,0,0,0,0,-1,1266,1261,0,0
49,-237,0,0,0,0,0,0,0,0,0,-1,1273,1261,0,0
56,-237,0,0,0,0,0,0,0,0,0,-1,1280,1261,0,0
63,-237,0,0,0,0,0,0,0,0,0,-1,1287,1261,0,0
70,-237,0,0,0,0,0,0,0,0,0,-1,1294,1261,0,0
77,-237,0,0,0,0,0,0,0,0,0,-1,1301,1261,0,0
84,-237,0,0,0,0,0,0,0,0,0,-1,1308,1261,0,0
91,-237,0,0,0,0,0,0,0,0,0,-1,1315,1261,0,0
98,-237,0,0,0,0,0,0,0,0,0,-1,1322,1261,0,0
105,-237,0,0,0,0,0,0,0,0,0,-1,1329,1261,0,0
112,-237,0,0,0,0,0,0,0,0,0,-1,1336,1261,0,0
119,-237,0,0,0,0,0,0,0,0,0,-1,1343,1261,0,0
126,-237,0,0,0,0,0,0,0,0,0,-1,1350,1261,0,0
133,-237,0,0,0,0,0,0,0,0,0,-1,1357,1261,0,0
140,-237,0,0,0,0,0,0,0,0,0,-1,1364,1261,0,0
147,-237,0,0,0,0,0,0,0,0,0,-1,1371,1261,0,0
154,-237,0,0,0,0,0,0,0,0,0,-1,1378,1261,0,0
161,-237,0,0,0,0,0,0,0,0,0,-1,1385,1261,0,0
168,-237,0,0,0,0,0,0,0,0,0,-1,1392,1261,0,0
175,-237,0,0,0,0,0,0,0,0,0,-1,1399,1261,0,0
182,-237,0,0,0,0,0,0,0,0,0,-1,1406,1261,0,0
189,-237,0,0,0,0,0,0,0,0,0,-1,1413,1261,0,0
196,-237,0,0,0,0,0,0,0,0,0,-1,1420,1261,0,0
203,-237,0,0,0,0,0,0,0,0,0,-1,1427,1261,0,0
210,-237,0,0,0,0,0,0,0,0,0,-1,1434,1261,0,0
217,-237,0,0,0,0,0,0,0,0,0,-1,1441,1261,0,0
224,-237,0,0,0,0,0,0,0,0,0,-1,1448,1261,0,0
231,-237,0,0,0,0,0,0,0,0,0,-1,1455,1261,0,0
238,-237,0,0,0,0,0,0,0,0,0,-1,1462,1261,0,0
245,-237,0,0,0,0,0,0,0,0,0,-1,1469,1261,0,0
252,-237,0,0,0,0,0,0,0,0,0,-1,1476,1261,0,0
259,-237,0,0,0,0,0,0,0,0,0,-1,1483,1261,0,0
266,-237,0,0,0,0,0,0,0,0,0,-1,1490,1261,0,0
273,-237,0,0,0,0,0,0,0,0,0,-1,1497,1261,0,0
280,-237,0,0,0,0,0,0,0,0,0,-1,1504,1261,0,0
287,-237,0,0,0,0,0,0,0,0,0,-1,1511,1261,0,0
294,-237,0,0,0,0,0,0,0,0,0,-1,1518,1261,0,0
301,-237,0,0,0,0,0,0,0,0,0,-1,1525,1261,0,0
308,-237,0,0,0,0,0,0,0,0,0,-1,1532,1261,0,0
315,-237,0,0,0,0,0,0,0,0,0,-1,1539,1261,0,0
322,-237,0,0,0,0,0,0,0,0,0,-1,1546,1261,0,0
329,-237,0,0,0,0,0,0,0,0,0,-1,1553,1261,0,0
336,-237,0,0,0,0,0,0,0,0,0,-1,1560,1261,0,0
343,-237,0,0,0,0,0,0,0,0,0,-1,1567,1261,0,0
350,-237,0,0,0,0,0,0,0,0,0,-1,1574,1261,0,0
357,-237,0,0,0,0,0,0,0,0,0,-1,1581,1261,0,0
364,-237,0,0,0,0,0,0,0,0,0,-1,1588,1261,0,0
371,-237,0,0,0,0,0,0,0,0,0,-1,1595,1261,0,0
378,-237,0,0,0,0,0,0,0,0,0,-1,1602,1261,0,0
385,-237,0,0,0,0,0,0,0,0,0,-1,1609,1261,0,0
392,-237,0,0,0,0,0,0,0,0,0,-1,1616,1261,0,0
399,-237,0,0,0,0,0,0,0,0,0,-1,1623,1261,0,0
406,-237,0,0,0,0,0,0,0,0,0,-1,1630,1261,0,0
413,-237,0,0,0,0,0,0,0,0,0,-1,1637,1261,0,0
420,-237,0,0,0,0,0,0,0,0,0,-1,1644,1261,0,0
427,-237,0,0,0,0,0,0,0,0,0,-1,1651,1261,0,0
434,-237,0,0,0,0,0,0,0,0,0,-1,1658,1261,0,0
441,-237,0,0,0,0,0,0,0,0,0,-1,1665,1261,0,0
448,-237,0,0,0,0,0,0,0,0,0,-1,1672,1261,0,0
455,-237,0,0,0,0,0,0,0,0,0,-1,1679,1261,0,0
462,-237,0,0,0,0,0,0,0,0,0,-1,1686,1261,0,0
469,-237,0,0,0,0,0,0,0,0,0,-1,1693,1261,0,0
476,-237,0,0,0,0,0,0,0,0,0,-1,1700,1261,0,0
483,-237,0,0,0,0,0,0,0,0,0,-1,1707,1261,0,0
490,-237,0,0,0,0,0,0,0,0,0,-1,1714,1261,0,0
497,-237,0,0,0,0,0,0,0,0,0,-1,1721,1261,0,0
504,-237,0,0,0,0,0,0,0,0,0,-1,1728,1261,0,0
511,-237,0,0,0,0,0,0,0,0,0,-1,1735,1261,0,0
518,-237,0,0,0,0,0,0,0,0,0,-1,1742,1261,0,0
525,-237,0,0,0,0,0,0,0,0,0,-1,1749,1261,0,0
532,-237,0,0,0,0,0,0,0,0,0,-1,1756,1261,0,0
539,-237,0,0,0,0,0,0,0,0,0,-1,1763,1261,0,0
546,-237,0,0,0,0,0,0,0,0,0,-1,1770,1261,0,0
553,-237,0,0,0,0,0,0,0,0,0,-1,1777,1261,0,0
560,-237,0,0,0,0,0,0,0,0,0,-1,1784,1261,0,0
567,-237,0,0,0,0,0,0,0,0,0,-1,1791,1261,0,0
574,-237,0,0,0,0,0,0,0,0,0,-1,1798,1261,0,0
581,-237,0,0,0,0,0,0,0,0,0,-1,1805,1261,0,0
588,-237,0,0,0,0,0,0,0,0,0,-1,1812,1261,0,0
595,-237,0,0,0,0,0,0,0,0,0,-1,1819,1261,0,0
602,-237,0,0,0,0,0,0,0,0,0,-1,1826,1261,0,0
609,-237,0,0,0,0,0,0,0,0,0,-1,1833,1261,0,0
616,-237,54.7299,2.8269,0.00300975,0.00562953,0.00142344,0.00625406,0.00238522,1.15734,0.00364449,0.0390105,1840,1261,54.7299,-2.82686
623,-237,54.7188,2.96423,0.00147306,0.00514174,-0.000700943,0.0052711,0.0013437,-1.3883,0.00316279,0.0340628,1847,1261,54.7188,-2.96421
630,-237,54.6028,2.94067,-0.000224979,0.00500189,-0.00276943,0.00619631,-0.0014194,-1.16361,0.00467637,0.0254518,1854,1261,54.6027,-2.94073
637,-237,54.47,2.80701,-0.00148824,0.00488642,-0.00425047,0.00701187,-0.00361369,-1.10711,0.00623837,0.0204151,1861,1261,54.47,-2.80695
644,-237,54.2693,2.58154,-0.00149362,0.00440368,-0.00461085,0.0069281,-0.00401804,-1.06988,0.00639377,0.0390058,1868,1261,54.2692,-2.5815
651,-237,54.0946,2.26074,-0.000999651,0.00341686,-0.00406302,0.00583294,-0.00341574,-1.03432,0.00540018,0.0491933,1875,1261,54.0946,-2.2607
658,-237,53.9769,2.04419,0,0,0,0,0,0,0,-1,1882,1261,53.9769,-2.04421
665,-237,54.8519,3.0769,0,0,0,0,0,0,0,-1,1889,1261,54.8519,-3.07696
672,-237,45.3922,1.95618,0,0,0,0,0,0,0,-1,1896,1261,45.3922,-1.95623
679,-237,23.1501,7.37488,0,0,0,0,0,0,0,-1,1903,1261,23.1502,-7.37493
686,-237,36.8348,9.99426,0,0,0,0,0,0,0,-1,1910,1261,36.8349,-9.99424
693,-237,41.4528,10.8383,0,0,0,0,0,0,0,-1,1917,1261,41.4528,-10.8382
700,-237,41.6447,10.1738,0.00178096,-0.000653773,-0.000640153,0.00193901,-0.000811825,-0.242057,0.00163204,0.0156043,1924,1261,41.6447,-10.1739
707,-237,41.6434,9.67297,0.00182426,-0.00221787,-0.000606841,0.0019134,-0.00230701,-0.145847,0.00244018,0.0107228,1931,1261,41.6434,-9.67296
714,-237,41.6201,9.16101,0.000621604,-0.00160999,3.93911e-05,0.000622299,-0.00161069,0.0176442,0.00133065,0.0151188,1938,1261,41.6201,-9.16098
721,-237,41.5588,8.66235,-0.000489447,-0.000950535,0.000823782,0.000135443,-0.00157542,0.648959,0.00109822,0.0174178,1945,1261,41.5588,-8.66236
728,-237,41.5845,8.11816,-0.00127502,-0.000410134,0.00150794,0.000726147,-0.00241131,0.92504,0.00189651,0.0158693,1952,1261,41.5845,-8.11819
735,-237,41.5798,7.59033,-0.00199437,0.000168001,0.00213379,0.00147889,-0.00330526,1.01989,0.00282843,0.0202881,1959,1261,41.5799,-7.59036
742,-237,41.562,7.13794,-0.0025866,0.000722545,0.00278668,0.00230884,-0.00417289,1.0533,0.00379346,0.0159358,1966,1261,41.562,-7.13789
749,-237,41.5082,6.66113,-0.00296274,0.00125186,0.0034492,0.00318655,-0.00489743,1.05962,0.004702,0.0114607,1973,1261,41.5081,-6.66116
756,-237,41.4712,6.14771,-0.00305204,0.00164957,0.00421032,0.00412091,-0.00552337,1.04001,0.00558772,0.0183529,1980,1261,41.4712,-6.14776
763,-237,41.2953,5.57642,-0.00262375,0.0018244,0.00505011,0.00511849,-0.00591783,0.99282,0.00637739,0.0368324,1987,1261,41.2953,-5.57637
770,-237,41.5109,4.80408,0,0,0,0,0,0,0,-1,1994,1261,41.5108,-4.80404
777,-237,41.8568,3.93359,0,0,0,0,0,0,0,-1,2001,1261,41.8568,-3.93361
784,-237,36.3441,1.68591,0,0,0,0,0,0,0,-1,2008,1261,36.3441,-1.68592
791,-237,32.3025,6.03235,0,0,0,0,0,0,0,-1,2015,1261,32.3025,-6.03229
798,-237,0,0,0,0,0,0,0,0,0,-1,2022,1261,0,0
805,-237,0,0,0,0,0,0,0,0,0,-1,2029,1261,0,0
812,-237,0,0,0,0,0,0,0,0,0,-1,2036,1261,0,0
-700,-244,0,0,0,0,0,0,0,0,0,-1,524,1268,0,0
-693,-244,0,0,0,0,0,0,0,0,0,-1,531,1268,0,0
-686,-244,0,0,0,0,0,0,0,0,0,-1,538,1268,0,0
-679,-244,0,0,0,0,0,0,0,0,0,-1,545,1268,0,0
-672,-244,-37.6469,-8.20923,0,0,0,0,0,0,0,-1,552,1268,-37.6469,8.20919
-665,-244,-37.5716,-7.67517,0,0,0,0,0,0,0,-1,559,1268,-37.5716,7.67521
-658,-244,-39.0322,-6.03125,0,0,0,0,0,0,0,-1,566,1268,-39.0322,6.0312
-651,-244,-39.0362,-4.66296,0,0,0,0,0,0,0,-1,573,1268,-39.0362,4.6629
-644,-244,-38.9246,-3.11975,0,0,0,0,0,0,0,-1,580,1268,-38.9246,3.11979
-637,-244,-26.4436,2.1051,0,0,0,0,0,0,0,-1,587,1268,-26.4436,-2.10507
-630,-244,-26.4476,2.77588,0,0,0,0,0,0,0,-1,594,1268,-26.4477,-2.77584
-623,-244,-26.3302,3.47278,0.00693216,0.00567613,0.00247646,0.008859,0.00374929,0.661219,0.00513481,0.033364,601,1268,-26.3302,-3.47283
-616,-244,-26.2211,4.09631,0.00488518,0.00455932,0.00185866,0.00658804,0.00285646,0.741681,0.00381477,0.0177191,608,1268,-26.2211,-4.09635
-609,-244,-26.2514,4.65186,0.00357409,0.00342051,0.0013784,0.00487784,0.00211676,0.757572,0.0028244,0.0153562,615,1268,-26.2514,-4.65183
-602,-244,-26.2603,5.19116,0.00290062,0.00216999,0.00105735,0.00365399,0.00141663,0.619068,0.0021273,0.0153202,622,1268,-26.2603,-5.19116
-595,-244,-26.3212,5.78662,0.00272956,0.000994713,0.000903502,0.00311463,0.000609643,0.402884,0.00190599,0.0166148,629,1268,-26.3212,-5.78663
-588,-244,-26.308,6.38989,0.00291065,9.21658e-05,0.000823654,0.0031337,-0.000130881,0.264459,0.0021341,0.0216722,636,1268,-26.308,-6.38991
-581,-244,-26.3289,6.89612,0.00339983,-0.000704753,0.000802157,0.00355103,-0.000855948,0.186301,0.00269831,0.018841,643,1268,-26.3289,-6.89609
-574,-244,-26.3846,7.43982,0.00392203,-0.00143716,0.00102999,0.00411317,-0.00162829,0.183485,0.00341675,0.0140459,650,1268,-26.3846,-7.43979
-567,-244,-26.3591,8.02209,0.00448303,-0.00176695,0.00172209,0.00492611,-0.00221004,0.251832,0.00421836,0.0196065,657,1268,-26.3591,-8.02204
-560,-244,-26.2505,8.55042,0.00608812,-0.00132144,0.00200849,0.00659753,-0.00183085,0.248392,0.00511896,0.0409712,664,1268,-26.2505,-8.55043
-553,-244,-26.0969,9.07483,0,0,0,0,0,0,0,-1,671,1268,-26.0969,-9.07486
-546,-244,-11.2686,4.41772,0,0,0,0,0,0,0,-1,678,1268,-11.2686,-4.41767
-539,-244,-12.8706,0.3302,0,0,0,0,0,0,0,-1,685,1268,-12.8706,-0.330156
-532,-244,-18.1502,0.816528,0,0,0,0,0,0,0,-1,692,1268,-18.1502,-0.816514
-525,-244,-33.0835,0.693604,0,0,0,0,0,0,0,-1,699,1268,-33.0835,-0.69365
-518,-244,-38.1713,0.902832,0,0,0,0,0,0,0,-1,706,1268,-38.1713,-0.902888
-511,-244,-39.9412,0.963135,0,0,0,0,0,0,0,-1,713,1268,-39.9412,-0.963126
-504,-244,-40.2606,1.09473,0,0,0,0,0,0,0,-1,720,1268,-40.2606,-1.09475
-497,-244,-40.5762,1.43079,0,0,0,0,0,0,0,-1,727,1268,-40.5762,-1.4308
-490,-244,0,0,0,0,0,0,0,0,0,-1,734,1268,0,0
-483,-244,0,0,0,0,0,0,0,0,0,-1,741,1268,0,0
-476,-244,0,0,0,0,0,0,0,0,0,-1,748,1268,0,0
-469,-244,0,0,0,0,0,0,0,0,0,-1,755,1268,0,0
-462,-244,0,0,0,0,0,0,0,0,0,-1,762,1268,0,0
-455,-244,0,0,0,0,0,0,0,0,0,-1,769,1268,0,0
-448,-244,0,0,0,0,0,0,0,0,0,-1,776,1268,0,0
-441,-244,0,0,0,0,0,0,0,0,0,-1,783,1268,0,0
-434,-244,0,0,0,0,0,0,0,0,0,-1,790,1268,0,0
-427,-244,0,0,0,0,0,0,0,0,0,-1,797,1268,0,0
-420,-244,0,0,0,0,0,0,0,0,0,-1,804,1268,0,0
-413,-244,0,0,0,0,0,0,0,0,0,-1,811,1268,0,0
-406,-244,0,0,0,0,0,0,0,0,0,-1,818,1268,0,0
-399,-244,0,0,0,0,0,0,0,0,0,-1,825,1268,0,0
-392,-244,0,0,0,0,0,0,0,0,0,-1,832,1268,0,0
-385,-244,0,0,0,0,0,0,0,0,0,-1,839,1268,0,0
-378,-244,0,0,0,0,0,0,0,0,0,-1,846,1268,0,0
-371,-244,0,0,0,0,0,0,0,0,0,-1,853,1268,0,0
-364,-244,0,0,0,0,0,0,0,0,0,-1,860,1268,0,0
-357,-244,0,0,0,0,0,0,0,0,0,-1,867,1268,0,0
-350,-244,0,0,0,0,0,0,0,0,0,-1,874,1268,0,0
-343,-244,0,0,0,0,0,0,0,0,0,-1,881,1268,0,0
-336,-244,0,0,0,0,0,0,0,0,0,-1,888,1268,0,0
-329,-244,0,0,0,0,0,0,0,0,0,-1,895,1268,0,0
-322,-244,0,0,0,0,0,0,0,0,0,-1,902,1268,0,0
-315,-244,0,0,0,0,0,0,0,0,0,-1,909,1268,0,0
-308,-244,0,0,0,0,0,0,0,0,0,-1,916,1268,0,0
-301,-244,0,0,0,0,0,0,0,0,0,-1,923,1268,0,0
-294,-244,0,0,0,0,0,0,0,0,0,-1,930,1268,0,0
-287,-244,0,0,0,0,0,0,0,0,0,-1,937,1268,0,0
-280,-244,0,0,0,0,0,0,0,0,0,-1,944,1268,0,0
-273,-244,0,0,0,0,0,0,0,0,0,-1,951,1268,0,0
-266,-244,0,0,0,0,0,0,0,0,0,-1,958,1268,0,0
-259,-244,0,0,0,0,0,0,0,0,0,-1,965,1268,0,0
-252,-244,0,0,0,0,0,0,0,0,0,-1,972,1268,0,0
-245,-244,0,0,0,0,0,0,0,0,0,-1,979,1268,0,0
-238,-244,0,0,0,0,0,0,0,0,0,-1,986,1268,0,0
-231,-244,0,0,0,0,0,0,0,0,0,-1,993,1268,0,0
-224,-244,0,0,0,0,0,0,0,0,0,-1,1000,1268,0,0
-217,-244,0,0,0,0,0,0,0,0,0,-1,1007,1268,0,0
-210,-244,0,0,0,0,0,0,0,0,0,-1,1014,1268,0,0
-203,-244,0,0,0,0,0,0,0,0,0,-1,1021,1268,0,0
-196,-244,0,0,0,0,0,0,0,0,0,-1,1028,1268,0,0
-189,-244,0,0,0,0,0,0,0,0,0,-1,1035,1268,0,0
-182,-244,0,0,0,0,0,0,0,0,0,-1,1042,1268,0,0
-175,-244,0,0,0,0,0,0,0,0,0,-1,1049,1268,0,0
-168,-244,0,0,0,0,0,0,0,0,0,-1,1056,1268,0,0
-161,-244,0,0,0,0,0,0,0,0,0,-1,1063,1268,0,0
-154,-244,0,0,0,0,0,0,0,0,0,-1,1070,1268,0,0
-147,-244,0,0,0,0,0,0,0,0,0,-1,1077,1268,0,0
-140,-244,0,0,0,0,0,0,0,0,0,-1,1084,1268,0,0
-133,-244,0,0,0,0,0,0,0,0,0,-1,1091,1268,0,0
-126,-244,0,0,0,0,0,0,0,0,0,-1,1098,1268,0,0
-119,-244,0,0,0,0,0,0,0,0,0,-1,1105,1268,0,0
-112,-244,0,0,0,0,0,0,0,0,0,-1,1112,1268,0,0
-105,-244,0,0,0,0,0,0,0,0,0,-1,1119,1268,0,0
-98,-244,0,0,0,0,0,0,0,0,0,-1,1126,1268,0,0
-91,-244,0,0,0,0,0,0,0,0,0,-1,1133,1268,0,0
-84,-244,0,0,0,0,0,0,0,0,0,-1,1140,1268,0,0
-77,-244,0,0,0,0,0,0,0,0,0,-1,1147,1268,0,0
-70,-244,0,0,0,0,0,0,0,0,0,-1,1154,1268,0,0
-63,-244,0,0,0,0,0,0,0,0,0,-1,1161,1268,0,0
-56,-244,0,0,0,0,0,0,0,0,0,-1,1168,1268,0,0
-49,-244,0,0,0,0,0,0,0,0,0,-1,1175,1268,0,0
-42,-244,0,0,0,0,0,0,0,0,0,-1,1182,1268,0,0
-35,-244,0,0,0,0,0,0,0,0,0,-1,1189,1268,0,0
-28,-244,0,0,0,0,0,0,0,0,0,-1,1196,1268,0,0
-21,-244,0,0,0,0,0,0,0,0,0,-1,1203,1268,0,0
-14,-244,0,0,0,0,0,0,0,0,0,-1,1210,1268,0,0
-7,-244,0,0,0,0,0,0,0,0,0,-1,1217,1268,0,0
0,-244,0,0,0,0,0,0,0,0,0,-1,1224,1268,0,0
7,-244,0,0,0,0,0,0,0,0,0,-1,1231,1268,0,0
14,-244,0,0,0,0,0,0,0,0,0,-1,1238,1268,0,0
21,-244,0,0,0,0,0,0,0,0,0,-1,1245,1268,0,0
28,-244,0,0,0,0,0,0,0,0,0,-1,1252,1268,0,0
35,-244,0,0,0,0,0,0,0,0,0,-1,1259,1268,0,0
42,-244,0,0,0,0,0,0,0,0,0,-1,1266,1268,0,0
49,-244,0,0,0,0,0,0,0,0,0,-1,1273,1268,0,0
56,-244,0,0,0,0,0,0,0,0,0,-1,1280,1268,0,0
63,-244,0,0,0,0,0,0,0,0,0,-1,1287,1268,0,0
70,-244,0,0,0,0,0,0,0,0,0,-1,1294,1268,0,0
77,-244,0,0,0,0,0,0,0,0,0,-1,1301,1268,0,0
84,-244,0,0,0,0,0,0,0,0,0,-1,1308,1268,0,0
91,-244,0,0,0,0,0,0,0,0,0,-1,1315,1268,0,0
98,-244,0,0,0,0,0,0,0,0,0,-1,1322,1268,0,0
105,-244,0,0,0,0,0,0,0,0,0,-1,1329,1268,0,0
112,-244,0,0,0,0,0,0,0,0,0,-1,1336,1268,0,0
119,-244,0,0,0,0,0,0,0,0,0,-1,1343,1268,0,0
126,-244,0,0,0,0,0,0,0,0,0,-1,1350,1268,0,0
133,-244,0,0,0,0,0,0,0,0,0,-1,1357,1268,0,0
140,-244,0,0,0,0,0,0,0,0,0,-1,1364,1268,0,0
147,-244,0,0,0,0,0,0,0,0,0,-1,1371,1268,0,0
154,-244,0,0,0,0,0,0,0,0,0,-1,1378,1268,0,0
161,-244,0,0,0,0,0,0,0,0,0,-1,1385,1268,0,0
168,-244,0,0,0,0,0,0,0,0,0,-1,1392,1268,0,0
175,-244,0,0,0,0,0,0,0,0,0,-1,1399,1268,0,0
182,-244,0,0,0,0,0,0,0,0,0,-1,1406,1268,0,0
189,-244,0,0,0,0,0,0,0,0,0,-1,1413,1268,0,0
196,-244,0,0,0,0,0,0,0,0,0,-1,1420,1268,0,0
203,-244,0,0,0,0,0,0,0,0,0,-1,1427,1268,0,0
210,-244,0,0,0,0,0,0,0,0,0,-1,1434,1268,0,0
217,-244,0,0,0,0,0,0,0,0,0,-1,1441,1268,0,0
224,-244,0,0,0,0,0,0,0,0,0,-1,1448,1268,0,0
231,-244,0,0,0,0,0,0,0,0,0,-1,1455,1268,0,0
238,-244,0,0,0,0,0,0,0,0,0,-1,1462,1268,0,0
245,-244,0,0,0,0,0,0,0,0,0,-1,1469,1268,0,0
252,-244,0,0,0,0,0,0,0,0,0,-1,1476,1268,0,0
259,-244,0,0,0,0,0,0,0,0,0,-1,1483,1268,0,0
266,-244,0,0,0,0,0,0,0,0,0,-1,1490,1268,0,0
273,-244,0,0,0,0,0,0,0,0,0,-1,1497,1268,0,0
280,-244,0,0,0,0,0,0,0,0,0,-1,1504,1268,0,0
287,-244,0,0,0,0,0,0,0,0,0,-1,1511,1268,0,0
294,-244,0,0,0,0,0,0,0,0,0,-1,1518,1268,0,0
301,-244,0,0,0,0,0,0,0,0,0,-1,1525,1268,0,0
308,-244,0,0,0,0,0,0,0,0,0,-1,1532,1268,0,0
315,-244,0,0,0,0,0,0,0,0,0,-1,1539,1268,0,0
322,-244,0,0,0,0,0,0,0,0,0,-1,1546,1268,0,0
329,-244,0,0,0,0,0,0,0,0,0,-1,1553,1268,0,0
336,-244,0,0,0,0,0,0,0,0,0,-1,1560,1268,0,0
343,-244,0,0,0,0,0,0,0,0,0,-1,1567,1268,0,0
350,-244,0,0,0,0,0,0,0,0,0,-1,1574,1268,0,0
357,-244,0,0,0,0,0,0,0,0,0,-1,1581,1268,0,0
364,-244,0,0,0,0,0,0,0,0,0,-1,1588,1268,0,0
371,-244,0,0,0,0,0,0,0,0,0,-1,1595,1268,0,0
378,-244,0,0,0,0,0,0,0,0,0,-1,1602,1268,0,0
385,-244,0,0,0,0,0,0,0,0,0,-1,1609,1268,0,0
392,-244,0,0,0,0,0,0,0,0,0,-1,1616,1268,0,0
399,-244,0,0,0,0,0,0,0,0,0,-1,1623,1268,0,0
406,-244,0,0,0,0,0,0,0,0,0,-1,1630,1268,0,0
413,-244,0,0,0,0,0,0,0,0,0,-1,1637,1268,0,0
420,-244,0,0,0,0,0,0,0,0,0,-1,1644,1268,0,0
427,-244,0,0,0,0,0,0,0,0,0,-1,1651,1268,0,0
434,-244,0,0,0,0,0,0,0,0,0,-1,1658,1268,0,0
441,-244,0,0,0,0,0,0,0,0,0,-1,1665,1268,0,0
448,-244,0,0,0,0,0,0,0,0,0,-1,1672,1268,0,0
455,-244,0,0,0,0,0,0,0,0,0,-1,1679,1268,0,0
462,-244,0,0,0,0,0,0,0,0,0,-1,1686,1268,0,0
469,-244,0,0,0,0,0,0,0,0,0,-1,1693,1268,0,0
476,-244,0,0,0,0,0,0,0,0,0,-1,1700,1268,0,0
483,-244,0,0,0,0,0,0,0,0,0,-1,1707,1268,0,0
490,-244,0,0,0,0,0,0,0,0,0,-1,1714,1268,0,0
497,-244,0,0,0,0,0,0,0,0,0,-1,1721,1268,0,0
504,-244,0,0,0,0,0,0,0,0,0,-1,1728,1268,0,0
511,-244,0,0,0,0,0,0,0,0,0,-1,1735,1268,0,0
518,-244,0,0,0,0,0,0,0,0,0,-1,1742,1268,0,0
525,-244,0,0,0,0,0,0,0,0,0,-1,1749,1268,0,0
532,-244,0,0,0,0,0,0,0,0,0,-1,1756,1268,0,0
539,-244,0,0,0,0,0,0,0,0,0,-1,1763,1268,0,0
546,-244,0,0,0,0,0,0,0,0,0,-1,1770,1268,0,0
553,-244,0,0,0,0,0,0,0,0,0,-1,1777,1268,0,0
560,-244,0,0,0,0,0,0,0,0,0,-1,1784,1268,0,0
567,-244,0,0,0,0,0,0,0,0,0,-1,1791,1268,0,0
574,-244,0,0,0,0,0,0,0,0,0,-1,1798,1268,0,0
581,-244,0,0,0,0,0,0,0,0,0,-1,1805,1268,0,0
588,-244,0,0,0,0,0,0,0,0,0,-1,1812,1268,0,0
595,-244,0,0,0,0,0,0,0,0,0,-1,1819,1268,0,0
602,-244,0,0,0,0,0,0,0,0,0,-1,1826,1268,0,0
609,-244,0,0,0,0,0,0,0,0,0,-1,1833,1268,0,0
616,-244,54.6293,2.78479,0.00262299,0.00721152,0.000309724,0.00723233,0.00260217,1.5037,0.00422995,0.0362847,1840,1268,54.6292,-2.78485
623,-244,54.6302,2.94153,0.00111169,0.0066153,-0.00201861,0.00727629,0.000450696,-1.25435,0.00470783,0.0287306,1847,1268,54.6303,-2.94153
630,-244,54.5929,2.98242,-0.00078762,0.0063136,-0.00423952,0.00829294,-0.00276696,-1.134,0.00664581,0.0244425,1854,1268,54.5929,-2.98242
637,-244,54.498,2.8186,-0.00193079,0.00576565,-0.00527204,0.00844454,-0.00460968,-1.10066,0.00764449,0.0370436,1861,1268,54.4981,-2.81862
644,-244,54.0664,2.3136,-0.00180904,0.00495979,-0.00513843,0.00772824,-0.00457749,-1.07661,0.00718192,0.0453827,1868,1268,54.0664,-2.31363
651,-244,53.8226,1.94873,-0.00133674,0.00388472,-0.00439553,0.00638639,-0.00383841,-1.05338,0.00596407,0.04899,1875,1268,53.8226,-1.94877
658,-244,53.7137,1.72974,0,0,0,0,0,0,0,-1,1882,1268,53.7137,-1.72977
665,-244,50.7988,1.09888,0,0,0,0,0,0,0,-1,1889,1268,50.7989,-1.09893
672,-244,32.224,3.6123,0,0,0,0,0,0,0,-1,1896,1268,32.224,-3.6123
679,-244,27.2593,7.90649,0,0,0,0,0,0,0,-1,1903,1268,27.2592,-7.9065
686,-244,41.0612,11.3917,0,0,0,0,0,0,0,-1,1910,1268,41.0611,-11.3918
693,-244,41.0499,10.8192,0.00071731,7.91365e-05,-0.00134854,0.001784,-0.000987553,-0.669226,0.00162203,0.0283743,1917,1268,41.05,-10.8192
700,-244,41.0962,10.2217,0.0017216,-0.000508345,-0.000582093,0.0018644,-0.000651147,-0.240573,0.00150761,0.0105589,1924,1268,41.0962,-10.2216
707,-244,41.1337,9.69714,0.00171304,-0.00203789,-0.000483467,0.00177436,-0.0020992,-0.126146,0.00223902,0.0113155,1931,1268,41.1337,-9.6971
714,-244,41.1602,9.18359,0.00044766,-0.00134754,0.000165428,0.000462777,-0.00136266,0.0911273,0.00109577,0.0145101,1938,1268,41.1602,-9.18356
721,-244,41.0817,8.69934,-0.000693558,-0.000649196,0.000883938,0.000212839,-0.00155559,0.797942,0.0011148,0.0204028,1945,1268,41.0816,-8.69929
728,-244,41.0844,8.1355,-0.00159504,-5.27132e-05,0.00149958,0.000862368,-0.00251013,1.02289,0.0020231,0.0260116,1952,1268,41.0844,-8.13551
735,-244,41.0437,7.53894,-0.00243991,0.000553562,0.00206483,0.00160707,-0.00349342,1.09901,0.00301115,0.0275374,1959,1268,41.0437,-7.53896
742,-244,40.9799,7.17224,-0.00316403,0.00115024,0.0026332,0.00239707,-0.00441086,1.12857,0.00398747,0.017332,1966,1268,40.9798,-7.1723
749,-244,40.8418,6.78271,-0.00367565,0.00176888,0.00316379,0.00322037,-0.00512715,1.14066,0.00486118,0.0263133,1973,1268,40.8418,-6.78268
756,-244,40.6686,6.38123,-0.00391354,0.00227785,0.00376017,0.0040527,-0.0056884,1.12979,0.00565039,0.0370528,1980,1268,40.6686,-6.38128
763,-244,40.9099,5.60669,-0.003561,0.00264501,0.00433538,0.00487344,-0.00578943,1.096,0.00616378,0.0486696,1987,1268,40.91,-5.60667
770,-244,41.4612,4.73767,0,0,0,0,0,0,0,-1,1994,1268,41.4612,-4.73763
777,-244,40.9116,3.7749,0,0,0,0,0,0,0,-1,2001,1268,40.9116,-3.77485
784,-244,31.7908,5.20081,0,0,0,0,0,0,0,-1,2008,1268,31.7907,-5.20083
791,-244,0,0,0,0,0,0,0,0,0,-1,2015,1268,0,0
798,-244,0,0,0,0,0,0,0,0,0,-1,2022,1268,0,0
805,-244,0,0,0,0,0,0,0,0,0,-1,2029,1268,0,0
812,-244,0,0,0,0,0,0,0,0,0,-1,2036,1268,0,0
-700,-251,0,0,0,0,0,0,0,0,0,-1,524,1275,0,0
-693,-251,0,0,0,0,0,0,0,0,0,-1,531,1275,0,0
-686,-251,0,0,0,0,0,0,0,0,0,-1,538,1275,0,0
-679,-251,0,0,0,0,0,0,0,0,0,-1,545,1275,0,0
-672,-251,0,0,0,0,0,0,0,0,0,-1,552,1275,0,0
-665,-251,-39.3416,-7.43286,0,0,0,0,0,0,0,-1,559,1275,-39.3415,7.43292
-658,-251,-39.3706,-6.07568,0,0,0,0,0,0,0,-1,566,1275,-39.3706,6.07565
-651,-251,-39.4322,-4.77429,0,0,0,0,0,0,0,-1,573,1275,-39.4322,4.77433
-644,-251,-39.4733,-3.44775,0,0,0,0,0,0,0,-1,580,1275,-39.4733,3.44771
-637,-251,-25.7649,2.06409,0,0,0,0,0,0,0,-1,587,1275,-25.7649,-2.06411
-630,-251,-25.9064,2.6936,0,0,0,0,0,0,0,-1,594,1275,-25.9064,-2.69364
-623,-251,-25.8557,3.48645,0.00748767,0.00683136,0.00403709,0.0112099,0.00310911,0.744845,0.00668251,0.041778,601,1275,-25.8556,-3.48651
-616,-251,-25.6609,4.09985,0.00534276,0.00547418,0.0029376,0.00834681,0.00247013,0.796581,0.00495101,0.0228445,608,1275,-25.6609,-4.0998
-609,-251,-25.6829,4.63232,0.00389971,0.00418368,0.00213026,0.00617668,0.00190671,0.818676,0.00365208,0.0204434,615,1275,-25.6829,-4.63234
-602,-251,-25.7128,5.23071,0.00313065,0.00281568,0.00160577,0.00458664,0.00135969,0.736518,0.00272026,0.0142438,622,1275,-25.7128,-5.23069
-595,-251,-25.7325,5.79309,0.00286072,0.00156497,0.001297,0.00366266,0.000763034,0.553767,0.00223135,0.013404,629,1275,-25.7325,-5.79306
-588,-251,-25.7494,6.33899,0.00299876,0.000527398,0.00117782,0.00347017,5.59883e-05,0.380714,0.00229501,0.0163083,636,1275,-25.7494,-6.33899
-581,-251,-25.777,6.9054,0.0034485,-0.000321481,0.00120947,0.00380315,-0.000676135,0.285235,0.00278827,0.0151919,643,1275,-25.777,-6.90539
-574,-251,-25.8064,7.48962,0.00407783,-0.00108002,0.00148249,0.00447357,-0.00147576,0.260859,0.00357725,0.0132034,650,1275,-25.8064,-7.48958
-567,-251,-25.7892,8.07666,0.00489242,-0.00145221,0.00212717,0.00553959,-0.00209938,0.29534,0.004557,0.0158851,657,1275,-25.7892,-8.0767
-560,-251,-25.6781,8.84241,0.00667792,-0.000994088,0.00238705,0.00735999,-0.00167615,0.278319,0.00555039,0.0380403,664,1275,-25.6781,-8.84236
-553,-251,-25.48,9.49634,0,0,0,0,0,0,0,-1,671,1275,-25.48,-9.49632
-546,-251,-12.995,4.5675,0,0,0,0,0,0,0,-1,678,1275,-12.995,-4.56745
-539,-251,-10.7916,0.366333,0,0,0,0,0,0,0,-1,685,1275,-10.7916,-0.366282
-532,-251,-10.7391,-0.00769043,0,0,0,0,0,0,0,-1,692,1275,-10.7391,0.00773227
-525,-251,-29.4286,-0.250244,0,0,0,0,0,0,0,-1,699,1275,-29.4286,0.250266
-518,-251,-32.6981,0.678833,0,0,0,0,0,0,0,-1,706,1275,-32.6981,-0.678787
-511,-251,-29.4731,0.637085,0,0,0,0,0,0,0,-1,713,1275,-29.4731,-0.637025
-504,-251,-30.6428,0.792358,0,0,0,0,0,0,0,-1,720,1275,-30.6427,-0.792335
-497,-251,-40.731,1.61963,0,0,0,0,0,0,0,-1,727,1275,-40.731,-1.61959
-490,-251,0,0,0,0,0,0,0,0,0,-1,734,1275,0,0
-483,-251,0,0,0,0,0,0,0,0,0,-1,741,1275,0,0
-476,-251,0,0,0,0,0,0,0,0,0,-1,748,1275,0,0
-469,-251,0,0,0,0,0,0,0,0,0,-1,755,1275,0,0
-462,-251,0,0,0,0,0,0,0,0,0,-1,762,1275,0,0
-455,-251,0,0,0,0,0,0,0,0,0,-1,769,1275,0,0
-448,-251,0,0,0,0,0,0,0,0,0,-1,776,1275,0,0
-441,-251,0,0,0,0,0,0,0,0,0,-1,783,1275,0,0
-434,-251,0,0,0,0,0,0,0,0,0,-1,790,1275,0,0
-427,-251,0,0,0,0,0,0,0,0,0,-1,797,1275,0,0
-420,-251,0,0,0,0,0,0,0,0,0,-1,804,1275,0,0
-413,-251,0,0,0,0,0,0,0,0,0,-1,811,1275,0,0
-406,-251,0,0,0,0,0,0,0,0,0,-1,818,1275,0,0
-399,-251,0,0,0,0,0,0,0,0,0,-1,825,1275,0,0
-392,-251,0,0,0,0,0,0,0,0,0,-1,832,1275,0,0
-385,-251,0,0,0,0,0,0,0,0,0,-1,839,1275,0,0
-378,-251,0,0,0,0,0,0,0,0,0,-1,846,1275,0,0
-371,-251,0,0,0,0,0,0,0,0,0,-1,853,1275,0,0
-364,-251,0,0,0,0,0,0,0,0,0,-1,860,1275,0,0
-357,-251,0,0,0,0,0,0,0,0,0,-1,867,1275,0,0
-350,-251,0,0,0,0,0,0,0,0,0,-1,874,1275,0,0
-343,-251,0,0,0,0,0,0,0,0,0,-1,881,1275,0,0
-336,-251,0,0,0,0,0,0,0,0,0,-1,888,1275,0,0
-329,-251,0,0,0,0,0,0,0,0,0,-1,895,1275,0,0
-322,-251,0,0,0,0,0,0,0,0,0,-1,902,1275,0,0
-315,-251,0,0,0,0,0,0,0,0,0,-1,909,1275,0,0
-308,-251,0,0,0,0,0,0,0,0,0,-1,916,1275,0,0
-301,-251,0,0,0,0,0,0,0,0,0,-1,923,1275,0,0
-294,-251,0,0,0,0,0,0,0,0,0,-1,930,1275,0,0
-287,-251,0,0,0,0,0,0,0,0,0,-1,937,1275,0,0
-280,-251,0,0,0,0,0,0,0,0,0,-1,944,1275,0,0
-273,-251,0,0,0,0,0,0,0,0,0,-1,951,1275,0,0
-266,-251,0,0,0,0,0,0,0,0,0,-1,958,1275,0,0
-259,-251,0,0,0,0,0,0,0,0,0,-1,965,1275,0,0
-252,-251,0,0,0,0,0,0,0,0,0,-1,972,1275,0,0
-245,-251,0,0,0,0,0,0,0,0,0,-1,979,1275,0,0
-238,-251,0,0,0,0,0,0,0,0,0,-1,986,1275,0,0
-231,-251,0,0,0,0,0,0,0,0,0,-1,993,1275,0,0
-224,-251,0,0,0,0,0,0,0,0,0,-1,1000,1275,0,0
-217,-251,0,0,0,0,0,0,0,0,0,-1,1007,1275,0,0
-210,-251,0,0,0,0,0,0,0,0,0,-1,1014,1275,0,0
-203,-251,0,0,0,0,0,0,0,0,0,-1,1021,1275,0,0
-196,-251,0,0,0,0,0,0,0,0,0,-1,1028,1275,0,0
-189,-251,0,0,0,0,0,0,0,0,0,-1,1035,1275,0,0
-182,-251,0,0,0,0,0,0,0,0,0,-1,1042,1275,0,0
-175,-251,0,0,0,0,0,0,0,0,0,-1,1049,1275,0,0
-168,-251,0,0,0,0,0,0,0,0,0,-1,1056,1275,0,0
-161,-251,0,0,0,0,0,0,0,0,0,-1,1063,1275,0,0
-154,-251,0,0,0,0,0,0,0,0,0,-1,1070,1275,0,0
-147,-251,0,0,0,0,0,0,0,0,0,-1,1077,1275,0,0
-140,-251,0,0,0,0,0,0,0,0,0,-1,1084,1275,0,0
-133,-251,0,0,0,0,0,0,0,0,0,-1,1091,1275,0,0
-126,-251,0,0,0,0,0,0,0,0,0,-1,1098,1275,0,0
-119,-251,0,0,0,0,0,0,0,0,0,-1,1105,1275,0,0
-112,-251,0,0,0,0,0,0,0,0,0,-1,1112,1275,0,0
-105,-251,0,0,0,0,0,0,0,0,0,-1,1119,1275,0,0
-98,-251,0,0,0,0,0,0,0,0,0,-1,1126,1275,0,0
-91,-251,0,0,0,0,0,0,0,0,0,-1,1133,1275,0,0
-84,-251,0,0,0,0,0,0,0,0,0,-1,1140,1275,0,0
-77,-251,0,0,0,0,0,0,0,0,0,-1,1147,1275,0,0
-70,-251,0,0,0,0,0,0,0,0,0,-1,1154,1275,0,0
-63,-251,0,0,0,0,0,0,0,0,0,-1,1161,1275,0,0
-56,-251,0,0,0,0,0,0,0,0,0,-1,1168,1275,0,0
-49,-251,0,0,0,0,0,0,0,0,0,-1,1175,1275,0,0
-42,-251,0,0,0,0,0,0,0,0,0,-1,1182,1275,0,0
-35,-251,0,0,0,0,0,0,0,0,0,-1,1189,1275,0,0
-28,-251,0,0,0,0,0,0,0,0,0,-1,1196,1275,0,0
-21,-251,0,0,0,0,0,0,0,0,0,-1,1203,1275,0,0
-14,-251,0,0,0,0,0,0,0,0,0,-1,1210,1275,0,0
-7,-251,0,0,0,0,0,0,0,0,0,-1,1217,1275,0,0
0,-251,0,0,0,0,0,0,0,0,0,-1,1224,1275,0,0
7,-251,0,0,0,0,0,0,0,0,0,-1,1231,1275,0,0
14,-251,0,0,0,0,0,0,0,0,0,-1,1238,1275,0,0
21,-251,0,0,0,0,0,0,0,0,0,-1,1245,1275,0,0
28,-251,0,0,0,0,0,0,0,0,0,-1,1252,1275,0,0
35,-251,0,0,0,0,0,0,0,0,0,-1,1259,1275,0,0
42,-251,0,0,0,0,0,0,0,0,0,-1,1266,1275,0,0
49,-251,0,0,0,0,0,0,0,0,0,-1,1273,1275,0,0
56,-251,0,0,0,0,0,0,0,0,0,-1,1280,1275,0,0
63,-251,0,0,0,0,0,0,0,0,0,-1,1287,1275,0,0
70,-251,0,0,0,0,0,0,0,0,0,-1,1294,1275,0,0
77,-251,0,0,0,0,0,0,0,0,0,-1,1301,1275,0,0
84,-251,0,0,0,0,0,0,0,0,0,-1,1308,1275,0,0
91,-251,0,0,0,0,0,0,0,0,0,-1,1315,1275,0,0
98,-251,0,0,0,0,0,0,0,0,0,-1,1322,1275,0,0
105,-251,0,0,0,0,0,0,0,0,0,-1,1329,1275,0,0
112,-251,0,0,0,0,0,0,0,0,0,-1,1336,1275,0,0
119,-251,0,0,0,0,0,0,0,0,0,-1,1343,1275,0,0
126,-251,0,0,0,0,0,0,0,0,0,-1,1350,1275,0,0
133,-251,0,0,0,0,0,0,0,0,0,-1,1357,1275,0,0
140,-251,0,0,0,0,0,0,0,0,0,-1,1364,1275,0,0
147,-251,0,0,0,0,0,0,0,0,0,-1,1371,1275,0,0
154,-251,0,0,0,0,0,0,0,0,0,-1,1378,1275,0,0
161,-251,0,0,0,0,0,0,0,0,0,-1,1385,1275,0,0
168,-251,0,0,0,0,0,0,0,0,0,-1,1392,1275,0,0
175,-251,0,0,0,0,0,0,0,0,0,-1,1399,1275,0,0
182,-251,0,0,0,0,0,0,0,0,0,-1,1406,1275,0,0
189,-251,0,0,0,0,0,0,0,0,0,-1,1413,1275,0,0
196,-251,0,0,0,0,0,0,0,0,0,-1,1420,1275,0,0
203,-251,0,0,0,0,0,0,0,0,0,-1,1427,1275,0,0
210,-251,0,0,0,0,0,0,0,0,0,-1,1434,1275,0,0
217,-251,0,0,0,0,0,0,0,0,0,-1,1441,1275,0,0
224,-251,0,0,0,0,0,0,0,0,0,-1,1448,1275,0,0
231,-251,0,0,0,0,0,0,0,0,0,-1,1455,1275,0,0
238,-251,0,0,0,0,0,0,0,0,0,-1,1462,1275,0,0
245,-251,0,0,0,0,0,0,0,0,0,-1,1469,1275,0,0
252,-251,0,0,0,0,0,0,0,0,0,-1,1476,1275,0,0
259,-251,0,0,0,0,0,0,0,0,0,-1,1483,1275,0,0
266,-251,0,0,0,0,0,0,0,0,0,-1,1490,1275,0,0
273,-251,0,0,0,0,0,0,0,0,0,-1,1497,1275,0,0
280,-251,0,0,0,0,0,0,0,0,0,-1,1504,1275,0,0
287,-251,0,0,0,0,0,0,0,0,0,-1,1511,1275,0,0
294,-251,0,0,0,0,0,0,0,0,0,-1,1518,1275,0,0
301,-251,0,0,0,0,0,0,0,0,0,-1,1525,1275,0,0
308,-251,0,0,0,0,0,0,0,0,0,-1,1532,1275,0,0
315,-251,0,0,0,0,0,0,0,0,0,-1,1539,1275,0,0
322,-251,0,0,0,0,0,0,0,0,0,-1,1546,1275,0,0
329,-251,0,0,0,0,0,0,0,0,0,-1,1553,1275,0,0
336,-251,0,0,0,0,0,0,0,0,0,-1,1560,1275,0,0
343,-251,0,0,0,0,0,0,0,0,0,-1,1567,1275,0,0
350,-251,0,0,0,0,0,0,0,0,0,-1,1574,1275,0,0
357,-251,0,0,0,0,0,0,0,0,0,-1,1581,1275,0,0
364,-251,0,0,0,0,0,0,0,0,0,-1,1588,1275,0,0
371,-251,0,0,0,0,0,0,0,0,0,-1,1595,1275,0,0
378,-251,0,0,0,0,0,0,0,0,0,-1,1602,1275,0,0
385,-251,0,0,0,0,0,0,0,0,0,-1,1609,1275,0,0
392,-251,0,0,0,0,0,0,0,0,0,-1,1616,1275,0,0
399,-251,0,0,0,0,0,0,0,0,0,-1,1623,1275,0,0
406,-251,0,0,0,0,0,0,0,0,0,-1,1630,1275,0,0
413,-251,0,0,0,0,0,0,0,0,0,-1,1637,1275,0,0
420,-251,0,0,0,0,0,0,0,0,0,-1,1644,1275,0,0
427,-251,0,0,0,0,0,0,0,0,0,-1,1651,1275,0,0
434,-251,0,0,0,0,0,0,0,0,0,-1,1658,1275,0,0
441,-251,0,0,0,0,0,0,0,0,0,-1,1665,1275,0,0
448,-251,0,0,0,0,0,0,0,0,0,-1,1672,1275,0,0
455,-251,0,0,0,0,0,0,0,0,0,-1,1679,1275,0,0
462,-251,0,0,0,0,0,0,0,0,0,-1,1686,1275,0,0
469,-251,0,0,0,0,0,0,0,0,0,-1,1693,1275,0,0
476,-251,0,0,0,0,0,0,0,0,0,-1,1700,1275,0,0
483,-251,0,0,0,0,0,0,0,0,0,-1,1707,1275,0,0
490,-251,0,0,0,0,0,0,0,0,0,-1,1714,1275,0,0
497,-251,0,0,0,0,0,0,0,0,0,-1,1721,1275,0,0
504,-251,0,0,0,0,0,0,0,0,0,-1,1728,1275,0,0
511,-251,0,0,0,0,0,0,0,0,0,-1,1735,1275,0,0
518,-251,0,0,0,0,0,0,0,0,0,-1,1742,1275,0,0
525,-251,0,0,0,0,0,0,0,0,0,-1,1749,1275,0,0
532,-251,0,0,0,0,0,0,0,0,0,-1,1756,1275,0,0
539,-251,0,0,0,0,0,0,0,0,0,-1,1763,1275,0,0
546,-251,0,0,0,0,0,0,0,0,0,-1,1770,1275,0,0
553,-251,0,0,0,0,0,0,0,0,0,-1,1777,1275,0,0
560,-251,0,0,0,0,0,0,0,0,0,-1,1784,1275,0,0
567,-251,0,0,0,0,0,0,0,0,0,-1,1791,1275,0,0
574,-251,0,0,0,0,0,0,0,0,0,-1,1798,1275,0,0
581,-251,0,0,0,0,0,0,0,0,0,-1,1805,1275,0,0
588,-251,0,0,0,0,0,0,0,0,0,-1,1812,1275,0,0
595,-251,0,0,0,0,0,0,0,0,0,-1,1819,1275,0,0
602,-251,0,0,0,0,0,0,0,0,0,-1,1826,1275,0,0
609,-251,54.6437,2.9375,0.00336413,0.00991557,0.000878206,0.0100313,0.00324846,1.43983,0.00591016,0.0315474,1833,1275,54.6437,-2.93748
616,-251,54.6075,2.90796,0.00241553,0.00900534,-0.00147908,0.00932209,0.00209878,-1.35983,0.00564668,0.0292761,1840,1275,54.6075,-2.90797
623,-251,54.6112,2.95496,0.00103679,0.00823266,-0.00383934,0.00989644,-0.000626992,-1.16187,0.00681624,0.0261718,1847,1275,54.6112,-2.95492
630,-251,54.6112,2.98315,-0.000773429,0.0075716,-0.00571523,0.0104754,-0.00367719,-1.10071,0.00847938,0.0375821,1854,1275,54.6112,-2.98311
637,-251,54.5879,2.86584,-0.00165162,0.00650075,-0.00591946,0.00961173,-0.0047626,-1.08692,0.00845497,0.0415689,1861,1275,54.5879,-2.86583
644,-251,54.5488,2.62,-0.00157957,0.00545285,-0.00536797,0.00835371,-0.00448043,-1.07535,0.00752144,0.0454578,1868,1275,54.5488,-2.61997
651,-251,54.4471,2.229,0,0,0,0,0,0,0,-1,1875,1275,54.4471,-2.22896
658,-251,51.5793,1.25964,0,0,0,0,0,0,0,-1,1882,1275,51.5793,-1.2597
665,-251,32.9579,2.60229,0,0,0,0,0,0,0,-1,1889,1275,32.9579,-2.60231
672,-251,26.0721,4.53064,0,0,0,0,0,0,0,-1,1896,1275,26.0721,-4.53063
679,-251,29.1344,8.63782,0,0,0,0,0,0,0,-1,1903,1275,29.1344,-8.63778
686,-251,40.7073,11.3311,0,0,0,0,0,0,0,-1,1910,1275,40.7072,-11.3311
693,-251,40.6317,10.8094,0.000567838,0.000215133,-0.00119489,0.00159931,-0.000816344,-0.712132,0.00141889,0.0167044,1917,1275,40.6317,-10.8095
700,-251,40.5979,10.255,0.00162115,-0.000302315,-0.000360165,0.00168637,-0.000367543,-0.179165,0.00126469,0.00986659,1924,1275,40.5979,-10.2549
707,-251,40.6239,9.70447,0.00143717,-0.00165554,-0.000234,0.00145478,-0.00167315,-0.0750921,0.00180737,0.0119542,1931,1275,40.6238,-9.70447
714,-251,40.6189,9.18823,0.000122779,-0.00100272,0.000359834,0.000227987,-0.00110793,0.284451,0.000825182,0.0146556,1938,1275,40.6189,-9.18825
721,-251,40.5375,8.71094,-0.00106437,-0.000377525,0.000996889,0.000333437,-0.00177533,0.95128,0.00130894,0.0225787,1945,1275,40.5375,-8.71091
728,-251,40.5452,8.245,-0.00208277,0.000177554,0.00155926,0.000973156,-0.00287838,1.09899,0.00231259,0.0262415,1952,1275,40.5452,-8.24498
735,-251,40.5483,7.65747,-0.00304597,0.000765021,0.00208416,0.00168346,-0.00396441,1.15572,0.00334827,0.0210902,1959,1275,40.5484,-7.65751
742,-251,40.4366,7.24048,-0.00389128,0.00138581,0.00258896,0.00244384,-0.0049493,1.18284,0.00434937,0.0185301,1966,1275,40.4367,-7.24046
749,-251,40.1591,6.94482,-0.00452958,0.00210075,0.00299331,0.00325215,-0.00568098,1.20358,0.0052207,0.0388492,1973,1275,40.159,-6.94485
756,-251,39.8713,6.61475,0,0,0,0,0,0,0,-1,1980,1275,39.8713,-6.61473
763,-251,40.524,5.61914,0,0,0,0,0,0,0,-1,1987,1275,40.524,-5.61909
770,-251,40.5034,4.45117,0,0,0,0,0,0,0,-1,1994,1275,40.5034,-4.45113
777,-251,31.5731,4.33252,0,0,0,0,0,0,0,-1,2001,1275,31.5731,-4.33251
784,-251,32.0776,5.78247,0,0,0,0,0,0,0,-1,2008,1275,32.0776,-5.78247
791,-251,0,0,0,0,0,0,0,0,0,-1,2015,1275,0,0
798,-251,0,0,0,0,0,0,0,0,0,-1,2022,1275,0,0
805,-251,0,0,0,0,0,0,0,0,0,-1,2029,1275,0,0
812,-251,0,0,0,0,0,0,0,0,0,-1,2036,1275,0,0
-700,-258,0,0,0,0,0,0,0,0,0,-1,524,1282,0,0
-693,-258,0,0,0,0,0,0,0,0,0,-1,531,1282,0,0
-686,-258,0,0,0,0,0,0,0,0,0,-1,538,1282,0,0
-679,-258,0,0,0,0,0,0,0,0,0,-1,545,1282,0,0
-672,-258,0,0,0,0,0,0,0,0,0,-1,552,1282,0,0
-665,-258,-35.0007,-0.969238,0,0,0,0,0,0,0,-1,559,1282,-35.0008,0.969225
-658,-258,-39.6628,-6.20264,0,0,0,0,0,0,0,-1,566,1282,-39.6628,6.20262
-651,-258,-39.7765,-4.8811,0,0,0,0,0,0,0,-1,573,1282,-39.7765,4.88109
-644,-258,-39.832,-3.56323,0,0,0,0,0,0,0,-1,580,1282,-39.832,3.56317
-637,-258,-36.0912,-1.18311,0,0,0,0,0,0,0,-1,587,1282,-36.0912,1.18306
-630,-258,-25.3735,2.58899,0,0,0,0,0,0,0,-1,594,1282,-25.3736,-2.58905
-623,-258,-25.1585,3.45093,0,0,0,0,0,0,0,-1,601,1282,-25.1585,-3.45089
-616,-258,-25.1169,4.06689,0.00663028,0.00652597,0.00408914,0.0106676,0.00248865,0.779021,0.0064444,0.0365543,608,1282,-25.1169,-4.06687
-609,-258,-25.0661,4.67896,0.00472622,0.00503014,0.00293543,0.00781754,0.00193882,0.811258,0.00470064,0.0170503,615,1282,-25.0661,-4.67897
-602,-258,-25.1282,5.25867,0.00364689,0.00352061,0.00219873,0.00578338,0.00138412,0.771043,0.00348702,0.0129965,622,1282,-25.1282,-5.25868
-595,-258,-25.1639,5.80933,0.00311633,0.00216328,0.00171203,0.00441692,0.000862697,0.649665,0.00270333,0.0124208,629,1282,-25.1639,-5.80933
-588,-258,-25.1873,6.36096,0.00308472,0.00101962,0.00149896,0.00387235,0.000231995,0.483798,0.00250781,0.0143928,636,1282,-25.1873,-6.36099
-581,-258,-25.2108,6.92224,0.00343292,7.72431e-05,0.00152235,0.00402063,-0.000510461,0.368424,0.00286577,0.0150153,643,1282,-25.2108,-6.92226
-574,-258,-25.2098,7.49023,0.00410508,-0.000699583,0.00179571,0.00470205,-0.00129654,0.320945,0.00364458,0.0150884,650,1282,-25.2098,-7.49025
-567,-258,-25.2406,8.06726,0.00511556,-0.00116255,0.00239224,0.00592321,-0.0019702,0.325596,0.00474393,0.0157351,657,1282,-25.2406,-8.06728
-560,-258,-25.213,8.71545,0.00707086,-0.000864884,0.00270068,0.00790274,-0.00169677,0.298806,0.00591576,0.041357,664,1282,-25.213,-8.71542
-553,-258,-25.0595,9.38159,0,0,0,0,0,0,0,-1,671,1282,-25.0595,-9.38164
-546,-258,-14.2231,5.92029,0,0,0,0,0,0,0,-1,678,1282,-14.2231,-5.92028
-539,-258,-10.2228,4.05823,0,0,0,0,0,0,0,-1,685,1282,-10.2228,-4.05823
-532,-258,-10.2173,-0.353882,0,0,0,0,0,0,0,-1,692,1282,-10.2173,0.353836
-525,-258,-21.8661,-1.5929,0,0,0,0,0,0,0,-1,699,1282,-21.8661,1.59285
-518,-258,-29.2484,0.123169,0,0,0,0,0,0,0,-1,706,1282,-29.2484,-0.123186
-511,-258,-23.5061,1.16833,0,0,0,0,0,0,0,-1,713,1282,-23.5061,-1.16833
-504,-258,-22.9178,0.484131,0,0,0,0,0,0,0,-1,720,1282,-22.9178,-0.484106
-497,-258,-17.8047,0.730469,0,0,0,0,0,0,0,-1,727,1282,-17.8048,-0.730489
-490,-258,-15.4346,0.632935,0,0,0,0,0,0,0,-1,734,1282,-15.4346,-0.632917
-483,-258,0,0,0,0,0,0,0,0,0,-1,741,1282,0,0
-476,-258,0,0,0,0,0,0,0,0,0,-1,748,1282,0,0
-469,-258,0,0,0,0,0,0,0,0,0,-1,755,1282,0,0
-462,-258,0,0,0,0,0,0,0,0,0,-1,762,1282,0,0
-455,-258,0,0,0,0,0,0,0,0,0,-1,769,1282,0,0
-448,-258,0,0,0,0,0,0,0,0,0,-1,776,1282,0,0
-441,-258,0,0,0,0,0,0,0,0,0,-1,783,1282,0,0
-434,-258,0,0,0,0,0,0,0,0,0,-1,790,1282,0,0
-427,-258,0,0,0,0,0,0,0,0,0,-1,797,1282,0,0
-420,-258,0,0,0,0,0,0,0,0,0,-1,804,1282,0,0
-413,-258,0,0,0,0,0,0,0,0,0,-1,811,1282,0,0
-406,-258,0,0,0,0,0,0,0,0,0,-1,818,1282,0,0
-399,-258,0,0,0,0,0,0,0,0,0,-1,825,1282,0,0
-392,-258,0,0,0,0,0,0,0,0,0,-1,832,1282,0,0
-385,-258,0,0,0,0,0,0,0,0,0,-1,839,1282,0,0
-378,-258,0,0,0,0,0,0,0,0,0,-1,846,1282,0,0
-371,-258,0,0,0,0,0,0,0,0,0,-1,853,1282,0,0
-364,-258,0,0,0,0,0,0,0,0,0,-1,860,1282,0,0
-357,-258,0,0,0,0,0,0,0,0,0,-1,867,1282,0,0
-350,-258,0,0,0,0,0,0,0,0,0,-1,874,1282,0,0
-343,-258,0,0,0,0,0,0,0,0,0,-1,881,1282,0,0
-336,-258,0,0,0,0,0,0,0,0,0,-1,888,1282,0,0
-329,-258,0,0,0,0,0,0,0,0,0,-1,895,1282,0,0
-322,-258,0,0,0,0,0,0,0,0,0,-1,902,1282,0,0
-315,-258,0,0,0,0,0,0,0,0,0,-1,909,1282,0,0
-308,-258,0,0,0,0,0,0,0,0,0,-1,916,1282,0,0
-301,-258,0,0,0,0,0,0,0,0,0,-1,923,1282,0,0
-294,-258,0,0,0,0,0,0,0,0,0,-1,930,1282,0,0
-287,-258,0,0,0,0,0,0,0,0,0,-1,937,1282,0,0
-280,-258,0,0,0,0,0,0,0,0,0,-1,944,1282,0,0
-273,-258,0,0,0,0,0,0,0,0,0,-1,951,1282,0,0
-266,-258,0,0,0,0,0,0,0,0,0,-1,958,1282,0,0
-259,-258,0,0,0,0,0,0,0,0,0,-1,965,1282,0,0
-252,-258,0,0,0,0,0,0,0,0,0,-1,972,1282,0,0
-245,-258,0,0,0,0,0,0,0,0,0,-1,979,1282,0,0
-238,-258,0,0,0,0,0,0,0,0,0,-1,986,1282,0,0
-231,-258,0,0,0,0,0,0,0,0,0,-1,993,1282,0,0
-224,-258,0,0,0,0,0,0,0,0,0,-1,1000,1282,0,0
-217,-258,0,0,0,0,0,0,0,0,0,-1,1007,1282,0,0
-210,-258,0,0,0,0,0,0,0,0,0,-1,1014,1282,0,0
-203,-258,0,0,0,0,0,0,0,0,0,-1,1021,1282,0,0
-196,-258,0,0,0,0,0,0,0,0,0,-1,1028,1282,0,0
-189,-258,0,0,0,0,0,0,0,0,0,-1,1035,1282,0,0
-182,-258,0,0,0,0,0,0,0,0,0,-1,1042,1282,0,0
-175,-258,0,0,0,0,0,0,0,0,0,-1,1049,1282,0,0
-168,-258,0,0,0,0,0,0,0,0,0,-1,1056,1282,0,0
-161,-258,0,0,0,0,0,0,0,0,0,-1,1063,1282,0,0
-154,-258,0,0,0,0,0,0,0,0,0,-1,1070,1282,0,0
-147,-258,0,0,0,0,0,0,0,0,0,-1,1077,1282,0,0
-140,-258,0,0,0,0,0,0,0,0,0,-1,1084,1282,0,0
-133,-258,0,0,0,0,0,0,0,0,0,-1,1091,1282,0,0
-126,-258,0,0,0,0,0,0,0,0,0,-1,1098,1282,0,0
-119,-258,0,0,0,0,0,0,0,0,0,-1,1105,1282,0,0
-112,-258,0,0,0,0,0,0,0,0,0,-1,1112,1282,0,0
-105,-258,0,0,0,0,0,0,0,0,0,-1,1119,1282,0,0
-98,-258,0,0,0,0,0,0,0,0,0,-1,1126,1282,0,0
-91,-258,0,0,0,0,0,0,0,0,0,-1,1133,1282,0,0
-84,-258,0,0,0,0,0,0,0,0,0,-1,1140,1282,0,0
-77,-258,0,0,0,0,0,0,0,0,0,-1,1147,1282,0,0
-70,-258,0,0,0,0,0,0,0,0,0,-1,1154,1282,0,0
-63,-258,0,0,0,0,0,0,0,0,0,-1,1161,1282,0,0
-56,-258,0,0,0,0,0,0,0,0,0,-1,1168,1282,0,0
-49,-258,0,0,0,0,0,0,0,0,0,-1,1175,1282,0,0
-42,-258,0,0,0,0,0,0,0,0,0,-1,1182,1282,0,0
-35,-258,0,0,0,0,0,0,0,0,0,-1,1189,1282,0,0
-28,-258,0,0,0,0,0,0,0,0,0,-1,1196,1282,0,0
-21,-258,0,0,0,0,0,0,0,0,0,-1,1203,1282,0,0
-14,-258,0,0,0,0,0,0,0,0,0,-1,1210,1282,0,0
-7,-258,0,0,0,0,0,0,0,0,0,-1,1217,1282,0,0
0,-258,0,0,0,0,0,0,0,0,0,-1,1224,1282,0,0
7,-258,0,0,0,0,0,0,0,0,0,-1,1231,1282,0,0
14,-258,0,0,0,0,0,0,0,0,0,-1,1238,1282,0,0
21,-258,0,0,0,0,0,0,0,0,0,-1,1245,1282,0,0
28,-258,0,0,0,0,0,0,0,0,0,-1,1252,1282,0,0
35,-258,0,0,0,0,0,0,0,0,0,-1,1259,1282,0,0
42,-258,0,0,0,0,0,0,0,0,0,-1,1266,1282,0,0
49,-258,0,0,0,0,0,0,0,0,0,-1,1273,1282,0,0
56,-258,0,0,0,0,0,0,0,0,0,-1,1280,1282,0,0
63,-258,0,0,0,0,0,0,0,0,0,-1,1287,1282,0,0
70,-258,0,0,0,0,0,0,0,0,0,-1,1294,1282,0,0
77,-258,0,0,0,0,0,0,0,0,0,-1,1301,1282,0,0
84,-258,0,0,0,0,0,0,0,0,0,-1,1308,1282,0,0
91,-258,0,0,0,0,0,0,0,0,0,-1,1315,1282,0,0
98,-258,0,0,0,0,0,0,0,0,0,-1,1322,1282,0,0
105,-258,0,0,0,0,0,0,0,0,0,-1,1329,1282,0,0
112,-258,0,0,0,0,0,0,0,0,0,-1,1336,1282,0,0
119,-258,0,0,0,0,0,0,0,0,0,-1,1343,1282,0,0
126,-258,0,0,0,0,0,0,0,0,0,-1,1350,1282,0,0
133,-258,0,0,0,0,0,0,0,0,0,-1,1357,1282,0,0
140,-258,0,0,0,0,0,0,0,0,0,-1,1364,1282,0,0
147,-258,0,0,0,0,0,0,0,0,0,-1,1371,1282,0,0
154,-258,0,0,0,0,0,0,0,0,0,-1,1378,1282,0,0
161,-258,0,0,0,0,0,0,0,0,0,-1,1385,1282,0,0
168,-258,0,0,0,0,0,0,0,0,0,-1,1392,1282,0,0
175,-258,0,0,0,0,0,0,0,0,0,-1,1399,1282,0,0
182,-258,0,0,0,0,0,0,0,0,0,-1,1406,1282,0,0
189,-258,0,0,0,0,0,0,0,0,0,-1,1413,1282,0,0
196,-258,0,0,0,0,0,0,0,0,0,-1,1420,1282,0,0
203,-258,0,0,0,0,0,0,0,0,0,-1,1427,1282,0,0
210,-258,0,0,0,0,0,0,0,0,0,-1,1434,1282,0,0
217,-258,0,0,0,0,0,0,0,0,0,-1,1441,1282,0,0
224,-258,0,0,0,0,0,0,0,0,0,-1,1448,1282,0,0
231,-258,0,0,0,0,0,0,0,0,0,-1,1455,1282,0,0
238,-258,0,0,0,0,0,0,0,0,0,-1,1462,1282,0,0
245,-258,0,0,0,0,0,0,0,0,0,-1,1469,1282,0,0
252,-258,0,0,0,0,0,0,0,0,0,-1,1476,1282,0,0
259,-258,0,0,0,0,0,0,0,0,0,-1,1483,1282,0,0
266,-258,0,0,0,0,0,0,0,0,0,-1,1490,1282,0,0
273,-258,0,0,0,0,0,0,0,0,0,-1,1497,1282,0,0
280,-258,0,0,0,0,0,0,0,0,0,-1,1504,1282,0,0
287,-258,0,0,0,0,0,0,0,0,0,-1,1511,1282,0,0
294,-258,0,0,0,0,0,0,0,0,0,-1,1518,1282,0,0
301,-258,0,0,0,0,0,0,0,0,0,-1,1525,1282,0,0
308,-258,0,0,0,0,0,0,0,0,0,-1,1532,1282,0,0
315,-258,0,0,0,0,0,0,0,0,0,-1,1539,1282,0,0
322,-258,0,0,0,0,0,0,0,0,0,-1,1546,1282,0,0
329,-258,0,0,0,0,0,0,0,0,0,-1,1553,1282,0,0
336,-258,0,0,0,0,0,0,0,0,0,-1,1560,1282,0,0
343,-258,0,0,0,0,0,0,0,0,0,-1,1567,1282,0,0
350,-258,0,0,0,0,0,0,0,0,0,-1,1574,1282,0,0
357,-258,0,0,0,0,0,0,0,0,0,-1,1581,1282,0,0
364,-258,0,0,0,0,0,0,0,0,0,-1,1588,1282,0,0
371,-258,0,0,0,0,0,0,0,0,0,-1,1595,1282,0,0
378,-258,0,0,0,0,0,0,0,0,0,-1,1602,1282,0,0
385,-258,0,0,0,0,0,0,0,0,0,-1,1609,1282,0,0
392,-258,0,0,0,0,0,0,0,0,0,-1,1616,1282,0,0
399,-258,0,0,0,0,0,0,0,0,0,-1,1623,1282,0,0
406,-258,0,0,0,0,0,0,0,0,0,-1,1630,1282,0,0
413,-258,0,0,0,0,0,0,0,0,0,-1,1637,1282,0,0
420,-258,0,0,0,0,0,0,0,0,0,-1,1644,1282,0,0
427,-258,0,0,0,0,0,0,0,0,0,-1,1651,1282,0,0
434,-258,0,0,0,0,0,0,0,0,0,-1,1658,1282,0,0
441,-258,0,0,0,0,0,0,0,0,0,-1,1665,1282,0,0
448,-258,0,0,0,0,0,0,0,0,0,-1,1672,1282,0,0
455,-258,0,0,0,0,0,0,0,0,0,-1,1679,1282,0,0
462,-258,0,0,0,0,0,0,0,0,0,-1,1686,1282,0,0
469,-258,0,0,0,0,0,0,0,0,0,-1,1693,1282,0,0
476,-258,0,0,0,0,0,0,0,0,0,-1,1700,1282,0,0
483,-258,0,0,0,0,0,0,0,0,0,-1,1707,1282,0,0
490,-258,0,0,0,0,0,0,0,0,0,-1,1714,1282,0,0
497,-258,0,0,0,0,0,0,0,0,0,-1,1721,1282,0,0
504,-258,0,0,0,0,0,0,0,0,0,-1,1728,1282,0,0
511,-258,0,0,0,0,0,0,0,0,0,-1,1735,1282,0,0
518,-258,0,0,0,0,0,0,0,0,0,-1,1742,1282,0,0
525,-258,0,0,0,0,0,0,0,0,0,-1,1749,1282,0,0
532,-258,0,0,0,0,0,0,0,0,0,-1,1756,1282,0,0
539,-258,0,0,0,0,0,0,0,0,0,-1,1763,1282,0,0
546,-258,0,0,0,0,0,0,0,0,0,-1,1770,1282,0,0
553,-258,0,0,0,0,0,0,0,0,0,-1,1777,1282,0,0
560,-258,0,0,0,0,0,0,0,0,0,-1,1784,1282,0,0
567,-258,0,0,0,0,0,0,0,0,0,-1,1791,1282,0,0
574,-258,0,0,0,0,0,0,0,0,0,-1,1798,1282,0,0
581,-258,0,0,0,0,0,0,0,0,0,-1,1805,1282,0,0
588,-258,0,0,0,0,0,0,0,0,0,-1,1812,1282,0,0
595,-258,0,0,0,0,0,0,0,0,0,-1,1819,1282,0,0
602,-258,0,0,0,0,0,0,0,0,0,-1,1826,1282,0,0
609,-258,54.5876,2.91296,0.0033883,0.0122689,-0.00137337,0.0124764,0.00318076,-1.42081,0.0074861,0.0259614,1833,1282,54.5877,-2.91296
616,-258,54.5819,2.94043,0.00302913,0.0111223,-0.00377369,0.0126089,0.00154258,-1.19554,0.00794182,0.0257256,1840,1282,54.582,-2.94038
623,-258,54.6409,2.97888,0.00181819,0.00990935,-0.00573865,0.0128851,-0.00115754,-1.09243,0.00900075,0.0368146,1847,1282,54.6409,-2.97888
630,-258,54.7542,2.98145,9.33405e-06,0.00856923,-0.00671378,0.0122512,-0.00367268,-1.06916,0.00962811,0.0468698,1854,1282,54.7541,-2.98144
637,-258,54.6329,2.90356,-0.000951924,0.00699608,-0.00613367,0.0103306,-0.00428645,-1.07285,0.00867632,0.046228,1861,1282,54.633,-2.90353
644,-258,54.5405,2.82764,-0.00117099,0.00578174,-0.00536549,0.00869862,-0.00408788,-1.07285,0.00754058,0.0480908,1868,1282,54.5406,-2.8276
651,-258,54.3805,2.41248,0,0,0,0,0,0,0,-1,1875,1282,54.3804,-2.41245
658,-258,45.4424,3.1405,0,0,0,0,0,0,0,-1,1882,1282,45.4423,-3.14046
665,-258,35.4747,1.1864,0,0,0,0,0,0,0,-1,1889,1282,35.4747,-1.18637
672,-258,22.703,2.80957,0,0,0,0,0,0,0,-1,1896,1282,22.703,-2.80962
679,-258,26.8693,8.19543,0,0,0,0,0,0,0,-1,1903,1282,26.8692,-8.19548
686,-258,40.218,11.3914,0,0,0,0,0,0,0,-1,1910,1282,40.218,-11.3914
693,-258,40.1396,10.8184,0.000253864,0.000353222,-0.000930122,0.00123499,-0.000627905,-0.812078,0.00109441,0.0153079,1917,1282,40.1396,-10.8184
700,-258,40.0872,10.2516,0.00128771,1.56477e-05,-6.36386e-05,0.00129088,1.24718e-05,-0.049862,0.000856462,0.00980248,1924,1282,40.0872,-10.2516
707,-258,40.0981,9.7179,0.000993872,-0.00113614,8.96505e-05,0.000997638,-0.00113991,0.0419901,0.00123503,0.0110197,1931,1282,40.0981,-9.71795
714,-258,40.0867,9.21326,-0.00023986,-0.000618904,0.000602686,0.0002024,-0.00106116,0.633062,0.000783671,0.0117848,1938,1282,40.0867,-9.21323
721,-258,40.0524,8.70215,-0.00138884,-0.000142277,0.00114725,0.000540066,-0.00207118,1.03423,0.00159165,0.0206009,1945,1282,40.0524,-8.70218
728,-258,39.9875,8.21936,-0.00247152,0.000309618,0.00164999,0.00107686,-0.00323877,1.13554,0.00259375,0.0200569,1952,1282,39.9876,-8.21941
735,-258,40.0045,7.68054,-0.00353689,0.000833414,0.00211338,0.00168821,-0.00439168,1.18645,0.00362406,0.0180666,1959,1282,40.0045,-7.6806
742,-258,39.9589,7.20642,-0.00450547,0.00143607,0.00253161,0.00236844,-0.00543784,1.21792,0.00462164,0.0193087,1966,1282,39.9588,-7.20645
749,-258,39.7864,6.76807,-0.00529754,0.00221312,0.00277209,0.00312544,-0.00620986,1.25285,0.00548693,0.0410498,1973,1282,39.7863,-6.76803
756,-258,39.6318,6.18445,0,0,0,0,0,0,0,-1,1980,1282,39.6318,-6.18442
763,-258,39.3638,5.09753,0,0,0,0,0,0,0,-1,1987,1282,39.3638,-5.09751
770,-258,40.3713,4.08325,0,0,0,0,0,0,0,-1,1994,1282,40.3713,-4.08323
777,-258,31.912,4.83093,0,0,0,0,0,0,0,-1,2001,1282,31.912,-4.8309
784,-258,32.6525,6.43091,0,0,0,0,0,0,0,-1,2008,1282,32.6525,-6.43091
791,-258,0,0,0,0,0,0,0,0,0,-1,2015,1282,0,0
798,-258,0,0,0,0,0,0,0,0,0,-1,2022,1282,0,0
805,-258,0,0,0,0,0,0,0,0,0,-1,2029,1282,0,0
812,-258,0,0,0,0,0,0,0,0,0,-1,2036,1282,0,0
-700,-265,0,0,0,0,0,0,0,0,0,-1,524,1289,0,0
-693,-265,0,0,0,0,0,0,0,0,0,-1,531,1289,0,0
-686,-265,0,0,0,0,0,0,0,0,0,-1,538,1289,0,0
-679,-265,0,0,0,0,0,0,0,0,0,-1,545,1289,0,0
-672,-265,0,0,0,0,0,0,0,0,0,-1,552,1289,0,0
-665,-265,-35.2086,-0.556274,0,0,0,0,0,0,0,-1,559,1289,-35.2086,0.556237
-658,-265,-35.6984,-0.362793,0,0,0,0,0,0,0,-1,566,1289,-35.6984,0.362835
-651,-265,-36.0469,-0.512085,0,0,0,0,0,0,0,-1,573,1289,-36.0469,0.51209
-644,-265,-36.3206,-0.629395,0,0,0,0,0,0,0,-1,580,1289,-36.3206,0.629443
-637,-265,-36.59,-0.684814,0,0,0,0,0,0,0,-1,587,1289,-36.59,0.68479
-630,-265,-36.6934,-0.568481,0,0,0,0,0,0,0,-1,594,1289,-36.6934,0.568483
-623,-265,-24.4253,3.2959,0,0,0,0,0,0,0,-1,601,1289,-24.4253,-3.29589
-616,-265,-24.4712,3.94336,0.00793126,0.00777308,0.00519848,0.0130513,0.00265308,0.777792,0.00796514,0.047292,608,1289,-24.4712,-3.94335
-609,-265,-24.5085,4.65259,0.00555788,0.00601222,0.00372801,0.00951998,0.00205012,0.815828,0.00578565,0.0190516,615,1289,-24.5086,-4.65255
-602,-265,-24.563,5.2749,0.0041613,0.00432614,0.00278806,0.007033,0.00145444,0.800175,0.0042869,0.0140274,622,1289,-24.563,-5.27496
-595,-265,-24.5995,5.85266,0.00336224,0.0028178,0.00210848,0.00521599,0.000964039,0.7212,0.00320469,0.0130098,629,1289,-24.5995,-5.85267
-588,-265,-24.6149,6.41333,0.00315375,0.00158272,0.00177176,0.00430632,0.000430148,0.576743,0.00273878,0.0121062,636,1289,-24.615,-6.41329
-581,-265,-24.6331,6.974,0.00339924,0.000522901,0.00169347,0.00418282,-0.000260679,0.433371,0.00287938,0.0136241,643,1289,-24.6331,-6.97405
-574,-265,-24.6651,7.55078,0.00410782,-0.000350989,0.00188428,0.00479745,-0.00104062,0.350849,0.00359572,0.0147028,650,1289,-24.6651,-7.5508
-567,-265,-24.7296,8.1394,0.00534123,-0.00102804,0.00237971,0.00613213,-0.00181895,0.320868,0.00481044,0.021243,657,1289,-24.7296,-8.13943
-560,-265,-24.7566,8.73499,0.00767026,-0.00104999,0.00269871,0.00843787,-0.0018176,0.277119,0.00631886,0.0250119,664,1289,-24.7566,-8.73504
-553,-265,-24.7555,9.32947,0,0,0,0,0,0,0,-1,671,1289,-24.7555,-9.3295
-546,-265,-24.2283,10.2581,0,0,0,0,0,0,0,-1,678,1289,-24.2283,-10.258
-539,-265,-13.7668,6.39917,0,0,0,0,0,0,0,-1,685,1289,-13.7668,-6.39915
-532,-265,-8.53998,3.41467,0,0,0,0,0,0,0,-1,692,1289,-8.53996,-3.41473
-525,-265,-12.1317,0.514648,0,0,0,0,0,0,0,-1,699,1289,-12.1317,-0.514634
-518,-265,-24.1604,0.712402,0,0,0,0,0,0,0,-1,706,1289,-24.1604,-0.712425
-511,-265,-23.233,0.791626,0,0,0,0,0,0,0,-1,713,1289,-23.233,-0.791617
-504,-265,-22.3056,0.87085,0,0,0,0,0,0,0,-1,720,1289,-22.3056,-0.87081
-497,-265,-18.689,-0.278442,0,0,0,0,0,0,0,-1,727,1289,-18.689,0.278423
-490,-265,-15.1696,0.492676,0,0,0,0,0,0,0,-1,734,1289,-15.1696,-0.492688
-483,-265,0,0,0,0,0,0,0,0,0,-1,741,1289,0,0
-476,-265,0,0,0,0,0,0,0,0,0,-1,748,1289,0,0
-469,-265,0,0,0,0,0,0,0,0,0,-1,755,1289,0,0
-462,-265,0,0,0,0,0,0,0,0,0,-1,762,1289,0,0
-455,-265,0,0,0,0,0,0,0,0,0,-1,769,1289,0,0
-448,-265,0,0,0,0,0,0,0,0,0,-1,776,1289,0,0
-441,-265,0,0,0,0,0,0,0,0,0,-1,783,1289,0,0
-434,-265,0,0,0,0,0,0,0,0,0,-1,790,1289,0,0
-427,-265,0,0,0,0,0,0,0,0,0,-1,797,1289,0,0
-420,-265,0,0,0,0,0,0,0,0,0,-1,804,1289,0,0
-413,-265,0,0,0,0,0,0,0,0,0,-1,811,1289,0,0
-406,-265,0,0,0,0,0,0,0,0,0,-1,818,1289,0,0
-399,-265,0,0,0,0,0,0,0,0,0,-1,825,1289,0,0
-392,-265,0,0,0,0,0,0,0,0,0,-1,832,1289,0,0
-385,-265,0,0,0,0,0,0,0,0,0,-1,839,1289,0,0
-378,-265,0,0,0,0,0,0,0,0,0,-1,846,1289,0,0
-371,-265,0,0,0,0,0,0,0,0,0,-1,853,1289,0,0
-364,-265,0,0,0,0,0,0,0,0,0,-1,860,1289,0,0
-357,-265,0,0,0,0,0,0,0,0,0,-1,867,1289,0,0
-350,-265,0,0,0,0,0,0,0,0,0,-1,874,1289,0,0
-343,-265,0,0,0,0,0,0,0,0,0,-1,881,1289,0,0
-336,-265,0,0,0,0,0,0,0,0,0,-1,888,1289,0,0
-329,-265,0,0,0,0,0,0,0,0,0,-1,895,1289,0,0
-322,-265,0,0,0,0,0,0,0,0,0,-1,902,1289,0,0
-315,-265,0,0,0,0,0,0,0,0,0,-1,909,1289,0,0
-308,-265,0,0,0,0,0,0,0,0,0,-1,916,1289,0,0
-301,-265,0,0,0,0,0,0,0,0,0,-1,923,1289,0,0
-294,-265,0,0,0,0,0,0,0,0,0,-1,930,1289,0,0
-287,-265,0,0,0,0,0,0,0,0,0,-1,937,1289,0,0
-280,-265,0,0,0,0,0,0,0,0,0,-1,944,1289,0,0
-273,-265,0,0,0,0,0,0,0,0,0,-1,951,1289,0,0
-266,-265,0,0,0,0,0,0,0,0,0,-1,958,1289,0,0
-259,-265,0,0,0,0,0,0,0,0,0,-1,965,1289,0,0
-252,-265,0,0,0,0,0,0,0,0,0,-1,972,1289,0,0
-245,-265,0,0,0,0,0,0,0,0,0,-1,979,1289,0,0
-238,-265,0,0,0,0,0,0,0,0,0,-1,986,1289,0,0
-231,-265,0,0,0,0,0,0,0,0,0,-1,993,1289,0,0
-224,-265,0,0,0,0,0,0,0,0,0,-1,1000,1289,0,0
-217,-265,0,0,0,0,0,0,0,0,0,-1,1007,1289,0,0
-210,-265,0,0,0,0,0,0,0,0,0,-1,1014,1289,0,0
-203,-265,0,0,0,0,0,0,0,0,0,-1,1021,1289,0,0
-196,-265,0,0,0,0,0,0,0,0,0,-1,1028,1289,0,0
-189,-265,0,0,0,0,0,0,0,0,0,-1,1035,1289,0,0
-182,-265,0,0,0,0,0,0,0,0,0,-1,1042,1289,0,0
-175,-265,0,0,0,0,0,0,0,0,0,-1,1049,1289,0,0
-168,-265,0,0,0,0,0,0,0,0,0,-1,1056,1289,0,0
-161,-265,0,0,0,0,0,0,0,0,0,-1,1063,1289,0,0
-154,-265,0,0,0,0,0,0,0,0,0,-1,1070,1289,0,0
-147,-265,0,0,0,0,0,0,0,0,0,-1,1077,1289,0,0
-140,-265,0,0,0,0,0,0,0,0,0,-1,1084,1289,0,0
-133,-265,0,0,0,0,0,0,0,0,0,-1,1091,1289,0,0
-126,-265,0,0,0,0,0,0,0,0,0,-1,1098,1289,0,0
-119,-265,0,0,0,0,0,0,0,0,0,-1,1105,1289,0,0
-112,-265,0,0,0,0,0,0,0,0,0,-1,1112,1289,0,0
-105,-265,0,0,0,0,0,0,0,0,0,-1,1119,1289,0,0
-98,-265,0,0,0,0,0,0,0,0,0,-1,1126,1289,0,0
-91,-265,0,0,0,0,0,0,0,0,0,-1,1133,1289,0,0
-84,-265,0,0,0,0,0,0,0,0,0,-1,1140,1289,0,0
-77,-265,0,0,0,0,0,0,0,0,0,-1,1147,1289,0,0
-70,-265,0,0,0,0,0,0,0,0,0,-1,1154,1289,0,0
-63,-265,0,0,0,0,0,0,0,0,0,-1,1161,1289,0,0
-56,-265,0,0,0,0,0,0,0,0,0,-1,1168,1289,0,0
-49,-265,0,0,0,0,0,0,0,0,0,-1,1175,1289,0,0
-42,-265,0,0,0,0,0,0,0,0,0,-1,1182,1289,0,0
-35,-265,0,0,0,0,0,0,0,0,0,-1,1189,1289,0,0
-28,-265,0,0,0,0,0,0,0,0,0,-1,1196,1289,0,0
-21,-265,0,0,0,0,0,0,0,0,0,-1,1203,1289,0,0
-14,-265,0,0,0,0,0,0,0,0,0,-1,1210,1289,0,0
-7,-265,0,0,0,0,0,0,0,0,0,-1,1217,1289,0,0
0,-265,0,0,0,0,0,0,0,0,0,-1,1224,1289,0,0
7,-265,0,0,0,0,0,0,0,0,0,-1,1231,1289,0,0
14,-265,0,0,0,0,0,0,0,0,0,-1,1238,1289,0,0
21,-265,0,0,0,0,0,0,0,0,0,-1,1245,1289,0,0
28,-265,0,0,0,0,0,0,0,0,0,-1,1252,1289,0,0
35,-265,0,0,0,0,0,0,0,0,0,-1,1259,1289,0,0
42,-265,0,0,0,0,0,0,0,0,0,-1,1266,1289,0,0
49,-265,0,0,0,0,0,0,0,0,0,-1,1273,1289,0,0
56,-265,0,0,0,0,0,0,0,0,0,-1,1280,1289,0,0
63,-265,0,0,0,0,0,0,0,0,0,-1,1287,1289,0,0
70,-265,0,0,0,0,0,0,0,0,0,-1,1294,1289,0,0
77,-265,0,0,0,0,0,0,0,0,0,-1,1301,1289,0,0
84,-265,0,0,0,0,0,0,0,0,0,-1,1308,1289,0,0
91,-265,0,0,0,0,0,0,0,0,0,-1,1315,1289,0,0
98,-265,0,0,0,0,0,0,0,0,0,-1,1322,1289,0,0
105,-265,0,0,0,0,0,0,0,0,0,-1,1329,1289,0,0
112,-265,0,0,0,0,0,0,0,0,0,-1,1336,1289,0,0
119,-265,0,0,0,0,0,0,0,0,0,-1,1343,1289,0,0
126,-265,0,0,0,0,0,0,0,0,0,-1,1350,1289,0,0
133,-265,0,0,0,0,0,0,0,0,0,-1,1357,1289,0,0
140,-265,0,0,0,0,0,0,0,0,0,-1,1364,1289,0,0
147,-265,0,0,0,0,0,0,0,0,0,-1,1371,1289,0,0
154,-265,0,0,0,0,0,0,0,0,0,-1,1378,1289,0,0
161,-265,0,0,0,0,0,0,0,0,0,-1,1385,1289,0,0
168,-265,0,0,0,0,0,0,0,0,0,-1,1392,1289,0,0
175,-265,0,0,0,0,0,0,0,0,0,-1,1399,1289,0,0
182,-265,0,0,0,0,0,0,0,0,0,-1,1406,1289,0,0
189,-265,0,0,0,0,0,0,0,0,0,-1,1413,1289,0,0
196,-265,0,0,0,0,0,0,0,0,0,-1,1420,1289,0,0
203,-265,0,0,0,0,0,0,0,0,0,-1,1427,1289,0,0
210,-265,0,0,0,0,0,0,0,0,0,-1,1434,1289,0,0
217,-265,0,0,0,0,0,0,0,0,0,-1,1441,1289,0,0
224,-265,0,0,0,0,0,0,0,0,0,-1,1448,1289,0,0
231,-265,0,0,0,0,0,0,0,0,0,-1,1455,1289,0,0
238,-265,0,0,0,0,0,0,0,0,0,-1,1462,1289,0,0
245,-265,0,0,0,0,0,0,0,0,0,-1,1469,1289,0,0
252,-265,0,0,0,0,0,0,0,0,0,-1,1476,1289,0,0
259,-265,0,0,0,0,0,0,0,0,0,-1,1483,1289,0,0
266,-265,0,0,0,0,0,0,0,0,0,-1,1490,1289,0,0
273,-265,0,0,0,0,0,0,0,0,0,-1,1497,1289,0,0
280,-265,0,0,0,0,0,0,0,0,0,-1,1504,1289,0,0
287,-265,0,0,0,0,0,0,0,0,0,-1,1511,1289,0,0
294,-265,0,0,0,0,0,0,0,0,0,-1,1518,1289,0,0
301,-265,0,0,0,0,0,0,0,0,0,-1,1525,1289,0,0
308,-265,0,0,0,0,0,0,0,0,0,-1,1532,1289,0,0
315,-265,0,0,0,0,0,0,0,0,0,-1,1539,1289,0,0
322,-265,0,0,0,0,0,0,0,0,0,-1,1546,1289,0,0
329,-265,0,0,0,0,0,0,0,0,0,-1,1553,1289,0,0
336,-265,0,0,0,0,0,0,0,0,0,-1,1560,1289,0,0
343,-265,0,0,0,0,0,0,0,0,0,-1,1567,1289,0,0
350,-265,0,0,0,0,0,0,0,0,0,-1,1574,1289,0,0
357,-265,0,0,0,0,0,0,0,0,0,-1,1581,1289,0,0
364,-265,0,0,0,0,0,0,0,0,0,-1,1588,1289,0,0
371,-265,0,0,0,0,0,0,0,0,0,-1,1595,1289,0,0
378,-265,0,0,0,0,0,0,0,0,0,-1,1602,1289,0,0
385,-265,0,0,0,0,0,0,0,0,0,-1,1609,1289,0,0
392,-265,0,0,0,0,0,0,0,0,0,-1,1616,1289,0,0
399,-265,0,0,0,0,0,0,0,0,0,-1,1623,1289,0,0
406,-265,0,0,0,0,0,0,0,0,0,-1,1630,1289,0,0
413,-265,0,0,0,0,0,0,0,0,0,-1,1637,1289,0,0
420,-265,0,0,0,0,0,0,0,0,0,-1,1644,1289,0,0
427,-265,0,0,0,0,0,0,0,0,0,-1,1651,1289,0,0
434,-265,0,0,0,0,0,0,0,0,0,-1,1658,1289,0,0
441,-265,0,0,0,0,0,0,0,0,0,-1,1665,1289,0,0
448,-265,0,0,0,0,0,0,0,0,0,-1,1672,1289,0,0
455,-265,0,0,0,0,0,0,0,0,0,-1,1679,1289,0,0
462,-265,0,0,0,0,0,0,0,0,0,-1,1686,1289,0,0
469,-265,0,0,0,0,0,0,0,0,0,-1,1693,1289,0,0
476,-265,0,0,0,0,0,0,0,0,0,-1,1700,1289,0,0
483,-265,0,0,0,0,0,0,0,0,0,-1,1707,1289,0,0
490,-265,0,0,0,0,0,0,0,0,0,-1,1714,1289,0,0
497,-265,0,0,0,0,0,0,0,0,0,-1,1721,1289,0,0
504,-265,0,0,0,0,0,0,0,0,0,-1,1728,1289,0,0
511,-265,0,0,0,0,0,0,0,0,0,-1,1735,1289,0,0
518,-265,0,0,0,0,0,0,0,0,0,-1,1742,1289,0,0
525,-265,0,0,0,0,0,0,0,0,0,-1,1749,1289,0,0
532,-265,0,0,0,0,0,0,0,0,0,-1,1756,1289,0,0
539,-265,0,0,0,0,0,0,0,0,0,-1,1763,1289,0,0
546,-265,0,0,0,0,0,0,0,0,0,-1,1770,1289,0,0
553,-265,0,0,0,0,0,0,0,0,0,-1,1777,1289,0,0
560,-265,0,0,0,0,0,0,0,0,0,-1,1784,1289,0,0
567,-265,0,0,0,0,0,0,0,0,0,-1,1791,1289,0,0
574,-265,0,0,0,0,0,0,0,0,0,-1,1798,1289,0,0
581,-265,0,0,0,0,0,0,0,0,0,-1,1805,1289,0,0
588,-265,0,0,0,0,0,0,0,0,0,-1,1812,1289,0,0
595,-265,0,0,0,0,0,0,0,0,0,-1,1819,1289,0,0
602,-265,54.5315,2.85059,0.00332126,0.0166006,-0.00193083,0.0168756,0.00304621,-1.4293,0.010385,0.0268804,1826,1289,54.5316,-2.85064
609,-265,54.54,2.85828,0.00486828,0.0148882,-0.00404093,0.0163148,0.00344171,-1.23143,0.00993011,0.0283132,1833,1289,54.54,-2.85825
616,-265,54.5618,2.91833,0.0050047,0.0133825,-0.00629194,0.0167524,0.0016348,-1.07908,0.0106652,0.035246,1840,1289,54.5618,-2.91835
623,-265,54.7367,2.98755,0.0037282,0.0115395,-0.00746148,0.0160557,-0.000788015,-1.02651,0.0109759,0.0469255,1847,1289,54.7367,-2.98756
630,-265,54.882,2.99817,0.00166118,0.00949944,-0.00738573,0.0139414,-0.00278082,-1.02933,0.0103466,0.0464429,1854,1289,54.882,-2.99821
637,-265,54.6681,2.92175,0.00037037,0.00761557,-0.00629262,0.0112538,-0.0032679,-1.04657,0.00879658,0.0476357,1861,1289,54.6681,-2.92178
644,-265,54.6776,2.77002,0,0,0,0,0,0,0,-1,1868,1289,54.6776,-2.76998
651,-265,45.0878,3.73743,0,0,0,0,0,0,0,-1,1875,1289,45.0877,-3.73741
658,-265,41.7163,3.71619,0,0,0,0,0,0,0,-1,1882,1289,41.7163,-3.71624
665,-265,34.7902,1.43164,0,0,0,0,0,0,0,-1,1889,1289,34.7901,-1.43162
672,-265,20.0045,6.62671,0,0,0,0,0,0,0,-1,1896,1289,20.0045,-6.62668
679,-265,39.5081,11.9132,0,0,0,0,0,0,0,-1,1903,1289,39.508,-11.9132
686,-265,39.5529,11.3553,-0.00173949,0.000602968,-0.0018367,0.0016101,-0.00274662,-1.06923,0.00254372,0.0403653,1910,1289,39.5528,-11.3554
693,-265,39.592,10.8218,-7.98343e-05,0.000467018,-0.000839348,0.00107635,-0.000689169,-0.942858,0.00102746,0.0104279,1917,1289,39.5921,-10.8217
700,-265,39.5703,10.271,0.000846369,0.000237742,5.33267e-05,0.000851006,0.000233105,0.0867373,0.000507795,0.010496,1924,1289,39.5704,-10.271
707,-265,39.5688,9.73877,0.000493678,-0.000714499,0.000306347,0.000566916,-0.000787737,0.234664,0.000785566,0.00974248,1931,1289,39.5689,-9.73876
714,-265,39.5554,9.22314,-0.000576558,-0.000353918,0.000787336,0.000329929,-0.0012604,0.855627,0.00096915,0.0119996,1938,1289,39.5554,-9.22314
721,-265,39.4916,8.69275,-0.00165481,6.34458e-06,0.00128166,0.00070302,-0.00235149,1.0729,0.00184715,0.0137045,1945,1289,39.4916,-8.69275
728,-265,39.4486,8.20496,-0.00276659,0.000395154,0.00174388,0.00116806,-0.0035395,1.1536,0.00283053,0.0150647,1952,1289,39.4486,-8.20492
735,-265,39.4911,7.7085,-0.0039001,0.000878235,0.00214717,0.00170131,-0.00472317,1.20474,0.00384351,0.0167134,1959,1289,39.4911,-7.70844
742,-265,39.4655,7.19128,-0.00496646,0.00147628,0.00247177,0.00231531,-0.00580549,1.24355,0.00483073,0.0207271,1966,1289,39.4654,-7.19132
749,-265,39.3164,6.46033,-0.00590163,0.00231971,0.00252743,0.00303455,-0.00661647,1.29516,0.00569851,0.0475899,1973,1289,39.3164,-6.46029
756,-265,39.3134,5.72571,0,0,0,0,0,0,0,-1,1980,1289,39.3134,-5.72567
763,-265,39.1299,4.9679,0,0,0,0,0,0,0,-1,1987,1289,39.1299,-4.96791
770,-265,35.1674,5.07715,0,0,0,0,0,0,0,-1,1994,1289,35.1673,-5.07718
777,-265,32.1664,5.3457,0,0,0,0,0,0,0,-1,2001,1289,32.1664,-5.34568
784,-265,0,0,0,0,0,0,0,0,0,-1,2008,1289,0,0
791,-265,0,0,0,0,0,0,0,0,0,-1,2015,1289,0,0
798,-265,0,0,0,0,0,0,0,0,0,-1,2022,1289,0,0
805,-265,0,0,0,0,0,0,0,0,0,-1,2029,1289,0,0
812,-265,0,0,0,0,0,0,0,0,0,-1,2036,1289,0,0
-700,-272,0,0,0,0,0,0,0,0,0,-1,524,1296,0,0
-693,-272,0,0,0,0,0,0,0,0,0,-1,531,1296,0,0
-686,-272,0,0,0,0,0,0,0,0,0,-1,538,1296,0,0
-679,-272,0,0,0,0,0,0,0,0,0,-1,545,1296,0,0
-672,-272,0,0,0,0,0,0,0,0,0,-1,552,1296,0,0
-665,-272,0,0,0,0,0,0,0,0,0,-1,559,1296,0,0
-658,-272,-36.5144,0.088501,0,0,0,0,0,0,0,-1,566,1296,-36.5144,-0.0884768
-651,-272,-36.4545,-0.0233154,0,0,0,0,0,0,0,-1,573,1296,-36.4545,0.023367
-644,-272,-37.3553,-1.27917,0,0,0,0,0,0,0,-1,580,1296,-37.3553,1.27916
-637,-272,-37.7366,-2.38599,0,0,0,0,0,0,0,-1,587,1296,-37.7366,2.38599
-630,-272,-37.0609,-0.684937,0,0,0,0,0,0,0,-1,594,1296,-37.0609,0.684889
-623,-272,-37.1939,-0.816528,0,0,0,0,0,0,0,-1,601,1296,-37.1939,0.816479
-616,-272,-23.7867,3.9325,0,0,0,0,0,0,0,-1,608,1296,-23.7868,-3.93248
-609,-272,-23.9188,4.79749,0.00643621,0.00704807,0.00460689,0.0113592,0.0021251,0.818553,0.00697321,0.0272973,615,1296,-23.9188,-4.79744
-602,-272,-23.9769,5.27686,0.00469969,0.00513048,0.00340505,0.00832694,0.00150323,0.816985,0.00512425,0.0153585,622,1296,-23.9769,-5.27685
-595,-272,-24.0251,5.87,0.00361276,0.00342163,0.00247144,0.00599048,0.00104391,0.766073,0.00369517,0.0120929,629,1296,-24.0252,-5.86994
-588,-272,-24.0431,6.43713,0.00322587,0.00211861,0.00197375,0.00472217,0.000622318,0.648664,0.00296254,0.0113091,636,1296,-24.0431,-6.43707
-581,-272,-24.0822,6.99683,0.00332852,0.00103775,0.00176795,0.00428968,7.65906e-05,0.497962,0.0028346,0.0110287,643,1296,-24.0822,-6.9968
-574,-272,-24.1135,7.57178,0.00389164,0.000181764,0.00184455,0.00465265,-0.000579241,0.391295,0.00331177,0.0155503,650,1296,-24.1135,-7.57181
-567,-272,-24.1464,8.16565,0.00493589,-0.000447673,0.00221918,0.00573272,-0.00124451,0.34473,0.00429715,0.0206551,657,1296,-24.1464,-8.16566
-560,-272,-24.1859,8.77612,0.00671866,-0.000596471,0.00272493,0.00762213,-0.00149994,0.320151,0.00564818,0.0200406,664,1296,-24.1858,-8.77615
-553,-272,-24.0917,9.33167,0.00949179,-0.000226139,0.00348929,0.0106149,-0.0013492,0.31139,0.00756651,0.0252113,671,1296,-24.0917,-9.33167
-546,-272,-23.8459,10.1232,0.0127976,0.000838138,0.004246,0.0141517,-0.000516007,0.308725,0.00961111,0.0490818,678,1296,-23.8459,-10.1231
-539,-272,-24.1416,11.0325,0,0,0,0,0,0,0,-1,685,1296,-24.1416,-11.0324
-532,-272,-10.5572,4.53943,0,0,0,0,0,0,0,-1,692,1296,-10.5572,-4.53943
-525,-272,-11.9599,0.0393066,0,0,0,0,0,0,0,-1,699,1296,-11.9599,-0.0393577
-518,-272,-21.1357,-1.41382,0,0,0,0,0,0,0,-1,706,1296,-21.1357,1.41379
-511,-272,-23.2565,0.226318,0,0,0,0,0,0,0,-1,713,1296,-23.2565,-0.22626
-504,-272,-19.7397,0.114746,0,0,0,0,0,0,0,-1,720,1296,-19.7397,-0.114701
-497,-272,-19.2225,1.71301,0,0,0,0,0,0,0,-1,727,1296,-19.2225,-1.71302
-490,-272,-20.1948,2.4032,0,0,0,0,0,0,0,-1,734,1296,-20.1948,-2.40322
-483,-272,-15.3736,0.792603,0,0,0,0,0,0,0,-1,741,1296,-15.3736,-0.79263
-476,-272,0,0,0,0,0,0,0,0,0,-1,748,1296,0,0
-469,-272,0,0,0,0,0,0,0,0,0,-1,755,1296,0,0
-462,-272,0,0,0,0,0,0,0,0,0,-1,762,1296,0,0
-455,-272,0,0,0,0,0,0,0,0,0,-1,769,1296,0,0
-448,-272,0,0,0,0,0,0,0,0,0,-1,776,1296,0,0
-441,-272,0,0,0,0,0,0,0,0,0,-1,783,1296,0,0
-434,-272,0,0,0,0,0,0,0,0,0,-1,790,1296,0,0
-427,-272,0,0,0,0,0,0,0,0,0,-1,797,1296,0,0
-420,-272,0,0,0,0,0,0,0,0,0,-1,804,1296,0,0
-413,-272,0,0,0,0,0,0,0,0,0,-1,811,1296,0,0
-406,-272,0,0,0,0,0,0,0,0,0,-1,818,1296,0,0
-399,-272,0,0,0,0,0,0,0,0,0,-1,825,1296,0,0
-392,-272,0,0,0,0,0,0,0,0,0,-1,832,1296,0,0
-385,-272,0,0,0,0,0,0,0,0,0,-1,839,1296,0,0
-378,-272,0,0,0,0,0,0,0,0,0,-1,846,1296,0,0
-371,-272,0,0,0,0,0,0,0,0,0,-1,853,1296,0,0
-364,-272,0,0,0,0,0,0,0,0,0,-1,860,1296,0,0
-357,-272,0,0,0,0,0,0,0,0,0,-1,867,1296,0,0
-350,-272,0,0,0,0,0,0,0,0,0,-1,874,1296,0,0
-343,-272,0,0,0,0,0,0,0,0,0,-1,881,1296,0,0
-336,-272,0,0,0,0,0,0,0,0,0,-1,888,1296,0,0
-329,-272,0,0,0,0,0,0,0,0,0,-1,895,1296,0,0
-322,-272,0,0,0,0,0,0,0,0,0,-1,902,1296,0,0
-315,-272,0,0,0,0,0,0,0,0,0,-1,909,1296,0,0
-308,-272,0,0,0,0,0,0,0,0,0,-1,916,1296,0,0
-301,-272,0,0,0,0,0,0,0,0,0,-1,923,1296,0,0
-294,-272,0,0,0,0,0,0,0,0,0,-1,930,1296,0,0
-287,-272,0,0,0,0,0,0,0,0,0,-1,937,1296,0,0
-280,-272,0,0,0,0,0,0,0,0,0,-1,944,1296,0,0
-273,-272,0,0,0,0,0,0,0,0,0,-1,951,1296,0,0
-266,-272,0,0,0,0,0,0,0,0,0,-1,958,1296,0,0
-259,-272,0,0,0,0,0,0,0,0,0,-1,965,1296,0,0
-252,-272,0,0,0,0,0,0,0,0,0,-1,972,1296,0,0
-245,-272,0,0,0,0,0,0,0,0,0,-1,979,1296,0,0
-238,-272,0,0,0,0,0,0,0,0,0,-1,986,1296,0,0
-231,-272,0,0,0,0,0,0,0,0,0,-1,993,1296,0,0
-224,-272,0,0,0,0,0,0,0,0,0,-1,1000,1296,0,0
-217,-272,0,0,0,0,0,0,0,0,0,-1,1007,1296,0,0
-210,-272,0,0,0,0,0,0,0,0,0,-1,1014,1296,0,0
-203,-272,0,0,0,0,0,0,0,0,0,-1,1021,1296,0,0
-196,-272,0,0,0,0,0,0,0,0,0,-1,1028,1296,0,0
-189,-272,0,0,0,0,0,0,0,0,0,-1,1035,1296,0,0
-182,-272,0,0,0,0,0,0,0,0,0,-1,1042,1296,0,0
-175,-272,0,0,0,0,0,0,0,0,0,-1,1049,1296,0,0
-168,-272,0,0,0,0,0,0,0,0,0,-1,1056,1296,0,0
-161,-272,0,0,0,0,0,0,0,0,0,-1,1063,1296,0,0
-154,-272,0,0,0,0,0,0,0,0,0,-1,1070,1296,0,0
-147,-272,0,0,0,0,0,0,0,0,0,-1,1077,1296,0,0
-140,-272,0,0,0,0,0,0,0,0,0,-1,1084,1296,0,0
-133,-272,0,0,0,0,0,0,0,0,0,-1,1091,1296,0,0
-126,-272,0,0,0,0,0,0,0,0,0,-1,1098,1296,0,0
-119,-272,0,0,0,0,0,0,0,0,0,-1,1105,1296,0,0
-112,-272,0,0,0,0,0,0,0,0,0,-1,1112,1296,0,0
-105,-272,0,0,0,0,0,0,0,0,0,-1,1119,1296,0,0
-98,-272,0,0,0,0,0,0,0,0,0,-1,1126,1296,0,0
-91,-272,0,0,0,0,0,0,0,0,0,-1,1133,1296,0,0
-84,-272,0,0,0,0,0,0,0,0,0,-1,1140,1296,0,0
-77,-272,0,0,0,0,0,0,0,0,0,-1,1147,1296,0,0
-70,-272,0,0,0,0,0,0,0,0,0,-1,1154,1296,0,0
-63,-272,0,0,0,0,0,0,0,0,0,-1,1161,1296,0,0
-56,-272,0,0,0,0,0,0,0,0,0,-1,1168,1296,0,0
-49,-272,0,0,0,0,0,0,0,0,0,-1,1175,1296,0,0
-42,-272,0,0,0,0,0,0,0,0,0,-1,1182,1296,0,0
-35,-272,0,0,0,0,0,0,0,0,0,-1,1189,1296,0,0
-28,-272,0,0,0,0,0,0,0,0,0,-1,1196,1296,0,0
-21,-272,0,0,0,0,0,0,0,0,0,-1,1203,1296,0,0
-14,-272,0,0,0,0,0,0,0,0,0,-1,1210,1296,0,0
-7,-272,0,0,0,0,0,0,0,0,0,-1,1217,1296,0,0
0,-272,0,0,0,0,0,0,0,0,0,-1,1224,1296,0,0
7,-272,0,0,0,0,0,0,0,0,0,-1,1231,1296,0,0
14,-272,0,0,0,0,0,0,0,0,0,-1,1238,1296,0,0
21,-272,0,0,0,0,0,0,0,0,0,-1,1245,1296,0,0
28,-272,0,0,0,0,0,0,0,0,0,-1,1252,1296,0,0
35,-272,0,0,0,0,0,0,0,0,0,-1,1259,1296,0,0
42,-272,0,0,0,0,0,0,0,0,0,-1,1266,1296,0,0
49,-272,0,0,0,0,0,0,0,0,0,-1,1273,1296,0,0
56,-272,0,0,0,0,0,0,0,0,0,-1,1280,1296,0,0
63,-272,0,0,0,0,0,0,0,0,0,-1,1287,1296,0,0
70,-272,0,0,0,0,0,0,0,0,0,-1,1294,1296,0,0
77,-272,0,0,0,0,0,0,0,0,0,-1,1301,1296,0,0
84,-272,0,0,0,0,0,0,0,0,0,-1,1308,1296,0,0
91,-272,0,0,0,0,0,0,0,0,0,-1,1315,1296,0,0
98,-272,0,0,0,0,0,0,0,0,0,-1,1322,1296,0,0
105,-272,0,0,0,0,0,0,0,0,0,-1,1329,1296,0,0
112,-272,0,0,0,0,0,0,0,0,0,-1,1336,1296,0,0
119,-272,0,0,0,0,0,0,0,0,0,-1,1343,1296,0,0
126,-272,0,0,0,0,0,0,0,0,0,-1,1350,1296,0,0
133,-272,0,0,0,0,0,0,0,0,0,-1,1357,1296,0,0
140,-272,0,0,0,0,0,0,0,0,0,-1,1364,1296,0,0
147,-272,0,0,0,0,0,0,0,0,0,-1,1371,1296,0,0
154,-272,0,0,0,0,0,0,0,0,0,-1,1378,1296,0,0
161,-272,0,0,0,0,0,0,0,0,0,-1,1385,1296,0,0
168,-272,0,0,0,0,0,0,0,0,0,-1,1392,1296,0,0
175,-272,0,0,0,0,0,0,0,0,0,-1,1399,1296,0,0
182,-272,0,0,0,0,0,0,0,0,0,-1,1406,1296,0,0
189,-272,0,0,0,0,0,0,0,0,0,-1,1413,1296,0,0
196,-272,0,0,0,0,0,0,0,0,0,-1,1420,1296,0,0
203,-272,0,0,0,0,0,0,0,0,0,-1,1427,1296,0,0
210,-272,0,0,0,0,0,0,0,0,0,-1,1434,1296,0,0
217,-272,0,0,0,0,0,0,0,0,0,-1,1441,1296,0,0
224,-272,0,0,0,0,0,0,0,0,0,-1,1448,1296,0,0
231,-272,0,0,0,0,0,0,0,0,0,-1,1455,1296,0,0
238,-272,0,0,0,0,0,0,0,0,0,-1,1462,1296,0,0
245,-272,0,0,0,0,0,0,0,0,0,-1,1469,1296,0,0
252,-272,0,0,0,0,0,0,0,0,0,-1,1476,1296,0,0
259,-272,0,0,0,0,0,0,0,0,0,-1,1483,1296,0,0
266,-272,0,0,0,0,0,0,0,0,0,-1,1490,1296,0,0
273,-272,0,0,0,0,0,0,0,0,0,-1,1497,1296,0,0
280,-272,0,0,0,0,0,0,0,0,0,-1,1504,1296,0,0
287,-272,0,0,0,0,0,0,0,0,0,-1,1511,1296,0,0
294,-272,0,0,0,0,0,0,0,0,0,-1,1518,1296,0,0
301,-272,0,0,0,0,0,0,0,0,0,-1,1525,1296,0,0
308,-272,0,0,0,0,0,0,0,0,0,-1,1532,1296,0,0
315,-272,0,0,0,0,0,0,0,0,0,-1,1539,1296,0,0
322,-272,0,0,0,0,0,0,0,0,0,-1,1546,1296,0,0
329,-272,0,0,0,0,0,0,0,0,0,-1,1553,1296,0,0
336,-272,0,0,0,0,0,0,0,0,0,-1,1560,1296,0,0
343,-272,0,0,0,0,0,0,0,0,0,-1,1567,1296,0,0
350,-272,0,0,0,0,0,0,0,0,0,-1,1574,1296,0,0
357,-272,0,0,0,0,0,0,0,0,0,-1,1581,1296,0,0
364,-272,0,0,0,0,0,0,0,0,0,-1,1588,1296,0,0
371,-272,0,0,0,0,0,0,0,0,0,-1,1595,1296,0,0
378,-272,0,0,0,0,0,0,0,0,0,-1,1602,1296,0,0
385,-272,0,0,0,0,0,0,0,0,0,-1,1609,1296,0,0
392,-272,0,0,0,0,0,0,0,0,0,-1,1616,1296,0,0
399,-272,0,0,0,0,0,0,0,0,0,-1,1623,1296,0,0
406,-272,0,0,0,0,0,0,0,0,0,-1,1630,1296,0,0
413,-272,0,0,0,0,0,0,0,0,0,-1,1637,1296,0,0
420,-272,0,0,0,0,0,0,0,0,0,-1,1644,1296,0,0
427,-272,0,0,0,0,0,0,0,0,0,-1,1651,1296,0,0
434,-272,0,0,0,0,0,0,0,0,0,-1,1658,1296,0,0
441,-272,0,0,0,0,0,0,0,0,0,-1,1665,1296,0,0
448,-272,0,0,0,0,0,0,0,0,0,-1,1672,1296,0,0
455,-272,0,0,0,0,0,0,0,0,0,-1,1679,1296,0,0
462,-272,0,0,0,0,0,0,0,0,0,-1,1686,1296,0,0
469,-272,0,0,0,0,0,0,0,0,0,-1,1693,1296,0,0
476,-272,0,0,0,0,0,0,0,0,0,-1,1700,1296,0,0
483,-272,0,0,0,0,0,0,0,0,0,-1,1707,1296,0,0
490,-272,0,0,0,0,0,0,0,0,0,-1,1714,1296,0,0
497,-272,0,0,0,0,0,0,0,0,0,-1,1721,1296,0,0
504,-272,0,0,0,0,0,0,0,0,0,-1,1728,1296,0,0
511,-272,0,0,0,0,0,0,0,0,0,-1,1735,1296,0,0
518,-272,0,0,0,0,0,0,0,0,0,-1,1742,1296,0,0
525,-272,0,0,0,0,0,0,0,0,0,-1,1749,1296,0,0
532,-272,0,0,0,0,0,0,0,0,0,-1,1756,1296,0,0
539,-272,0,0,0,0,0,0,0,0,0,-1,1763,1296,0,0
546,-272,0,0,0,0,0,0,0,0,0,-1,1770,1296,0,0
553,-272,0,0,0,0,0,0,0,0,0,-1,1777,1296,0,0
560,-272,0,0,0,0,0,0,0,0,0,-1,1784,1296,0,0
567,-272,0,0,0,0,0,0,0,0,0,-1,1791,1296,0,0
574,-272,0,0,0,0,0,0,0,0,0,-1,1798,1296,0,0
581,-272,0,0,0,0,0,0,0,0,0,-1,1805,1296,0,0
588,-272,0,0,0,0,0,0,0,0,0,-1,1812,1296,0,0
595,-272,0,0,0,0,0,0,0,0,0,-1,1819,1296,0,0
602,-272,54.498,2.81543,0.00558121,0.019609,-0.00597225,0.0218072,0.00338303,-1.21812,0.013552,0.0301871,1826,1296,54.498,-2.81542
609,-272,54.4034,2.73682,0.00793936,0.0176256,-0.00781151,0.0219736,0.00359143,-1.0629,0.0136108,0.0370444,1833,1296,54.4034,-2.73677
616,-272,54.405,2.67896,0.00829729,0.0155242,-0.00922503,0.0218182,0.00200326,-0.972064,0.0139258,0.0458266,1840,1296,54.405,-2.67889
623,-272,54.6436,2.84302,0.00659895,0.0130016,-0.00906632,0.0194152,0.000185367,-0.955116,0.0128821,0.0461449,1847,1296,54.6435,-2.84308
630,-272,54.8308,2.93909,0.00401402,0.0104553,-0.00794958,0.0158119,-0.00134254,-0.97786,0.0110161,0.0461152,1854,1296,54.8308,-2.93908
637,-272,54.6622,2.93091,0,0,0,0,0,0,0,-1,1861,1296,54.6622,-2.93088
644,-272,48.4819,-0.241943,0,0,0,0,0,0,0,-1,1868,1296,48.4819,0.24191
651,-272,41.9225,4.27161,0,0,0,0,0,0,0,-1,1875,1296,41.9225,-4.27157
658,-272,35.1527,2.10571,0,0,0,0,0,0,0,-1,1882,1296,35.1527,-2.10573
665,-272,22.0238,4.14417,0,0,0,0,0,0,0,-1,1889,1296,22.0238,-4.14421
672,-272,22.661,7.21765,0,0,0,0,0,0,0,-1,1896,1296,22.661,-7.21761
679,-272,39.0443,11.9255,0,0,0,0,0,0,0,-1,1903,1296,39.0443,-11.9255
686,-272,39.0322,11.3866,-0.00207763,0.000676085,-0.00180013,0.00156555,-0.0029671,-1.11187,0.0026583,0.0265172,1910,1296,39.0322,-11.3865
693,-272,39.0564,10.8422,-0.000359365,0.000523527,-0.000782471,0.000980488,-0.000816326,-1.04223,0.00103883,0.012092,1917,1296,39.0564,-10.8422
700,-272,39.0493,10.3047,0.000441353,0.000313613,0.000106148,0.000501365,0.0002536,0.514563,0.00028947,0.0122918,1924,1296,39.0493,-10.3047
707,-272,39.0416,9.7699,9.7408e-05,-0.00045466,0.000463741,0.000361051,-0.000718303,0.516945,0.000634441,0.0106651,1931,1296,39.0416,-9.76996
714,-272,39.0155,9.2356,-0.000804202,-0.000240578,0.000925615,0.000445175,-0.00148995,0.933169,0.00117027,0.0125314,1938,1296,39.0155,-9.23565
721,-272,38.9922,8.72961,-0.00183698,3.18717e-05,0.00138615,0.000769142,-0.00257425,1.08197,0.00202191,0.0171377,1945,1296,38.9922,-8.72965
728,-272,38.9852,8.19165,-0.00298365,0.000370359,0.00181709,0.00116604,-0.00377932,1.15806,0.00298513,0.0187224,1952,1296,38.9852,-8.19169
735,-272,38.9761,7.7262,-0.00419098,0.00081791,0.00217246,0.00162886,-0.00500193,1.21353,0.00398998,0.016397,1959,1296,38.976,-7.72616
742,-272,38.8983,7.25415,-0.00536721,0.00141148,0.00241099,0.00218152,-0.00613726,1.26165,0.00498057,0.0275848,1966,1296,38.8983,-7.2541
749,-272,38.8683,6.72034,0,0,0,0,0,0,0,-1,1973,1296,38.8683,-6.7203
756,-272,38.5597,6.42175,0,0,0,0,0,0,0,-1,1980,1296,38.5597,-6.42171
763,-272,34.3995,5.88416,0,0,0,0,0,0,0,-1,1987,1296,34.3996,-5.88419
770,-272,25.9485,3.67749,0,0,0,0,0,0,0,-1,1994,1296,25.9485,-3.67744
777,-272,32.3619,6.13257,0,0,0,0,0,0,0,-1,2001,1296,32.362,-6.1326
784,-272,0,0,0,0,0,0,0,0,0,-1,2008,1296,0,0
791,-272,0,0,0,0,0,0,0,0,0,-1,2015,1296,0,0
798,-272,0,0,0,0,0,0,0,0,0,-1,2022,1296,0,0
805,-272,0,0,0,0,0,0,0,0,0,-1,2029,1296,0,0
812,-272,0,0,0,0,0,0,0,0,0,-1,2036,1296,0,0
-700,-279,0,0,0,0,0,0,0,0,0,-1,524,1303,0,0
-693,-279,0,0,0,0,0,0,0,0,0,-1,531,1303,0,0
-686,-279,0,0,0,0,0,0,0,0,0,-1,538,1303,0,0
-679,-279,0,0,0,0,0,0,0,0,0,-1,545,1303,0,0
-672,-279,0,0,0,0,0,0,0,0,0,-1,552,1303,0,0
-665,-279,0,0,0,0,0,0,0,0,0,-1,559,1303,0,0
-658,-279,-37.5104,0.649658,0,0,0,0,0,0,0,-1,566,1303,-37.5105,-0.649669
-651,-279,-37.7213,0.227173,0,0,0,0,0,0,0,-1,573,1303,-37.7213,-0.227215
-644,-279,-37.8957,-0.373413,0,0,0,0,0,0,0,-1,580,1303,-37.8957,0.373419
-637,-279,-37.8995,-1.21082,0,0,0,0,0,0,0,-1,587,1303,-37.8995,1.21076
-630,-279,-37.8927,-1.96741,0,0,0,0,0,0,0,-1,594,1303,-37.8927,1.96745
-623,-279,-22.2665,2.68457,0,0,0,0,0,0,0,-1,601,1303,-22.2665,-2.68451
-616,-279,-24.228,3.83252,0,0,0,0,0,0,0,-1,608,1303,-24.228,-3.83252
-609,-279,-23.7619,4.57996,0.00725196,0.00800278,0.0055146,0.0131547,0.00210001,0.819384,0.00816039,0.0499184,615,1303,-23.7619,-4.57994
-602,-279,-23.3881,5.29175,0.00523207,0.00586539,0.00404577,0.00960687,0.00149059,0.824454,0.00597007,0.015668,622,1303,-23.3881,-5.2918
-595,-279,-23.4354,5.88354,0.00388849,0.00395967,0.00285509,0.00677939,0.00106876,0.791631,0.00420882,0.0107857,629,1303,-23.4353,-5.88355
-588,-279,-23.4485,6.46106,0.00334263,0.00260463,0.00221259,0.00521677,0.000730485,0.702771,0.00326174,0.0116292,636,1303,-23.4486,-6.46103
-581,-279,-23.5099,6.99976,0.00329808,0.0015082,0.00189592,0.00449967,0.00030661,0.564886,0.00290298,0.0133473,643,1303,-23.5099,-6.9998
-574,-279,-23.5532,7.57544,0.00369597,0.00066076,0.00187098,0.00458745,-0.000230719,0.444653,0.00313804,0.0137484,650,1303,-23.5532,-7.57548
-567,-279,-23.552,8.16821,0.00451947,5.11426e-05,0.0021358,0.00537612,-0.000805505,0.381446,0.00388055,0.0173466,657,1303,-23.552,-8.16822
-560,-279,-23.5651,8.77539,0.00586492,-0.000282068,0.00272278,0.0068975,-0.00131465,0.362482,0.00509343,0.0168398,664,1303,-23.5651,-8.77539
-553,-279,-23.5662,9.35913,0.00792347,-0.000245857,0.00384037,0.00944532,-0.0017677,0.377291,0.00696133,0.0141342,671,1303,-23.5662,-9.35914
-546,-279,-23.5062,9.9469,0.0104077,0.000344732,0.00532729,0.012704,-0.00195153,0.406973,0.00918916,0.0284651,678,1303,-23.5062,-9.94695
-539,-279,-23.7166,10.6263,0,0,0,0,0,0,0,-1,685,1303,-23.7166,-10.6263
-532,-279,-14.9813,7.89917,0,0,0,0,0,0,0,-1,692,1303,-14.9813,-7.89918
-525,-279,-11.7063,-0.539185,0,0,0,0,0,0,0,-1,699,1303,-11.7063,0.539166
-518,-279,-16.8138,1.11963,0,0,0,0,0,0,0,-1,706,1303,-16.8138,-1.11968
-511,-279,-20.1063,-1.37915,0,0,0,0,0,0,0,-1,713,1303,-20.1062,1.37918
-504,-279,-18.3766,1.04578,0,0,0,0,0,0,0,-1,720,1303,-18.3767,-1.04577
-497,-279,-19.0046,2.08911,0,0,0,0,0,0,0,-1,727,1303,-19.0046,-2.08905
-490,-279,-20.0176,2.55188,0,0,0,0,0,0,0,-1,734,1303,-20.0176,-2.55183
-483,-279,-20.8064,2.99792,0,0,0,0,0,0,0,-1,741,1303,-20.8064,-2.99797
-476,-279,0,0,0,0,0,0,0,0,0,-1,748,1303,0,0
-469,-279,0,0,0,0,0,0,0,0,0,-1,755,1303,0,0
-462,-279,0,0,0,0,0,0,0,0,0,-1,762,1303,0,0
-455,-279,0,0,0,0,0,0,0,0,0,-1,769,1303,0,0
-448,-279,0,0,0,0,0,0,0,0,0,-1,776,1303,0,0
-441,-279,0,0,0,0,0,0,0,0,0,-1,783,1303,0,0
-434,-279,0,0,0,0,0,0,0,0,0,-1,790,1303,0,0
-427,-279,0,0,0,0,0,0,0,0,0,-1,797,1303,0,0
-420,-279,0,0,0,0,0,0,0,0,0,-1,804,1303,0,0
-413,-279,0,0,0,0,0,0,0,0,0,-1,811,1303,0,0
-406,-279,0,0,0,0,0,0,0,0,0,-1,818,1303,0,0
-399,-279,0,0,0,0,0,0,0,0,0,-1,825,1303,0,0
-392,-279,0,0,0,0,0,0,0,0,0,-1,832,1303,0,0
-385,-279,0,0,0,0,0,0,0,0,0,-1,839,1303,0,0
-378,-279,0,0,0,0,0,0,0,0,0,-1,846,1303,0,0
-371,-279,0,0,0,0,0,0,0,0,0,-1,853,1303,0,0
-364,-279,0,0,0,0,0,0,0,0,0,-1,860,1303,0,0
-357,-279,0,0,0,0,0,0,0,0,0,-1,867,1303,0,0
-350,-279,0,0,0,0,0,0,0,0,0,-1,874,1303,0,0
-343,-279,0,0,0,0,0,0,0,0,0,-1,881,1303,0,0
-336,-279,0,0,0,0,0,0,0,0,0,-1,888,1303,0,0
-329,-279,0,0,0,0,0,0,0,0,0,-1,895,1303,0,0
-322,-279,0,0,0,0,0,0,0,0,0,-1,902,1303,0,0
-315,-279,0,0,0,0,0,0,0,0,0,-1,909,1303,0,0
-308,-279,0,0,0,0,0,0,0,0,0,-1,916,1303,0,0
-301,-279,0,0,0,0,0,0,0,0,0,-1,923,1303,0,0
-294,-279,0,0,0,0,0,0,0,0,0,-1,930,1303,0,0
-287,-279,0,0,0,0,0,0,0,0,0,-1,937,1303,0,0
-280,-279,0,0,0,0,0,0,0,0,0,-1,944,1303,0,0
-273,-279,0,0,0,0,0,0,0,0,0,-1,951,1303,0,0
-266,-279,0,0,0,0,0,0,0,0,0,-1,958,1303,0,0
-259,-279,0,0,0,0,0,0,0,0,0,-1,965,1303,0,0
-252,-279,0,0,0,0,0,0,0,0,0,-1,972,1303,0,0
-245,-279,0,0,0,0,0,0,0,0,0,-1,979,1303,0,0
-238,-279,0,0,0,0,0,0,0,0,0,-1,986,1303,0,0
-231,-279,0,0,0,0,0,0,0,0,0,-1,993,1303,0,0
-224,-279,0,0,0,0,0,0,0,0,0,-1,1000,1303,0,0
-217,-279,0,0,0,0,0,0,0,0,0,-1,1007,1303,0,0
-210,-279,0,0,0,0,0,0,0,0,0,-1,1014,1303,0,0
-203,-279,0,0,0,0,0,0,0,0,0,-1,1021,1303,0,0
-196,-279,0,0,0,0,0,0,0,0,0,-1,1028,1303,0,0
-189,-279,0,0,0,0,0,0,0,0,0,-1,1035,1303,0,0
-182,-279,0,0,0,0,0,0,0,0,0,-1,1042,1303,0,0
-175,-279,0,0,0,0,0,0,0,0,0,-1,1049,1303,0,0
-168,-279,0,0,0,0,0,0,0,0,0,-1,1056,1303,0,0
-161,-279,0,0,0,0,0,0,0,0,0,-1,1063,1303,0,0
-154,-279,0,0,0,0,0,0,0,0,0,-1,1070,1303,0,0
-147,-279,0,0,0,0,0,0,0,0,0,-1,1077,1303,0,0
-140,-279,0,0,0,0,0,0,0,0,0,-1,1084,1303,0,0
-133,-279,0,0,0,0,0,0,0,0,0,-1,1091,1303,0,0
-126,-279,0,0,0,0,0,0,0,0,0,-1,1098,1303,0,0
-119,-279,0,0,0,0,0,0,0,0,0,-1,1105,1303,0,0
-112,-279,0,0,0,0,0,0,0,0,0,-1,1112,1303,0,0
-105,-279,0,0,0,0,0,0,0,0,0,-1,1119,1303,0,0
-98,-279,0,0,0,0,0,0,0,0,0,-1,1126,1303,0,0
-91,-279,0,0,0,0,0,0,0,0,0,-1,1133,1303,0,0
-84,-279,0,0,0,0,0,0,0,0,0,-1,1140,1303,0,0
-77,-279,0,0,0,0,0,0,0,0,0,-1,1147,1303,0,0
-70,-279,0,0,0,0,0,0,0,0,0,-1,1154,1303,0,0
-63,-279,0,0,0,0,0,0,0,0,0,-1,1161,1303,0,0
-56,-279,0,0,0,0,0,0,0,0,0,-1,1168,1303,0,0
-49,-279,0,0,0,0,0,0,0,0,0,-1,1175,1303,0,0
-42,-279,0,0,0,0,0,0,0,0,0,-1,1182,1303,0,0
-35,-279,0,0,0,0,0,0,0,0,0,-1,1189,1303,0,0
-28,-279,0,0,0,0,0,0,0,0,0,-1,1196,1303,0,0
-21,-279,0,0,0,0,0,0,0,0,0,-1,1203,1303,0,0
-14,-279,0,0,0,0,0,0,0,0,0,-1,1210,1303,0,0
-7,-279,0,0,0,0,0,0,0,0,0,-1,1217,1303,0,0
0,-279,0,0,0,0,0,0,0,0,0,-1,1224,1303,0,0
7,-279,0,0,0,0,0,0,0,0,0,-1,1231,1303,0,0
14,-279,0,0,0,0,0,0,0,0,0,-1,1238,1303,0,0
21,-279,0,0,0,0,0,0,0,0,0,-1,1245,1303,0,0
28,-279,0,0,0,0,0,0,0,0,0,-1,1252,1303,0,0
35,-279,0,0,0,0,0,0,0,0,0,-1,1259,1303,0,0
42,-279,0,0,0,0,0,0,0,0,0,-1,1266,1303,0,0
49,-279,0,0,0,0,0,0,0,0,0,-1,1273,1303,0,0
56,-279,0,0,0,0,0,0,0,0,0,-1,1280,1303,0,0
63,-279,0,0,0,0,0,0,0,0,0,-1,1287,1303,0,0
70,-279,0,0,0,0,0,0,0,0,0,-1,1294,1303,0,0
77,-279,0,0,0,0,0,0,0,0,0,-1,1301,1303,0,0
84,-279,0,0,0,0,0,0,0,0,0,-1,1308,1303,0,0
91,-279,0,0,0,0,0,0,0,0,0,-1,1315,1303,0,0
98,-279,0,0,0,0,0,0,0,0,0,-1,1322,1303,0,0
105,-279,0,0,0,0,0,0,0,0,0,-1,1329,1303,0,0
112,-279,0,0,0,0,0,0,0,0,0,-1,1336,1303,0,0
119,-279,0,0,0,0,0,0,0,0,0,-1,1343,1303,0,0
126,-279,0,0,0,0,0,0,0,0,0,-1,1350,1303,0,0
133,-279,0,0,0,0,0,0,0,0,0,-1,1357,1303,0,0
140,-279,0,0,0,0,0,0,0,0,0,-1,1364,1303,0,0
147,-279,0,0,0,0,0,0,0,0,0,-1,1371,1303,0,0
154,-279,0,0,0,0,0,0,0,0,0,-1,1378,1303,0,0
161,-279,0,0,0,0,0,0,0,0,0,-1,1385,1303,0,0
168,-279,0,0,0,0,0,0,0,0,0,-1,1392,1303,0,0
175,-279,0,0,0,0,0,0,0,0,0,-1,1399,1303,0,0
182,-279,0,0,0,0,0,0,0,0,0,-1,1406,1303,0,0
189,-279,0,0,0,0,0,0,0,0,0,-1,1413,1303,0,0
196,-279,0,0,0,0,0,0,0,0,0,-1,1420,1303,0,0
203,-279,0,0,0,0,0,0,0,0,0,-1,1427,1303,0,0
210,-279,0,0,0,0,0,0,0,0,0,-1,1434,1303,0,0
217,-279,0,0,0,0,0,0,0,0,0,-1,1441,1303,0,0
224,-279,0,0,0,0,0,0,0,0,0,-1,1448,1303,0,0
231,-279,0,0,0,0,0,0,0,0,0,-1,1455,1303,0,0
238,-279,0,0,0,0,0,0,0,0,0,-1,1462,1303,0,0
245,-279,0,0,0,0,0,0,0,0,0,-1,1469,1303,0,0
252,-279,0,0,0,0,0,0,0,0,0,-1,1476,1303,0,0
259,-279,0,0,0,0,0,0,0,0,0,-1,1483,1303,0,0
266,-279,0,0,0,0,0,0,0,0,0,-1,1490,1303,0,0
273,-279,0,0,0,0,0,0,0,0,0,-1,1497,1303,0,0
280,-279,0,0,0,0,0,0,0,0,0,-1,1504,1303,0,0
287,-279,0,0,0,0,0,0,0,0,0,-1,1511,1303,0,0
294,-279,0,0,0,0,0,0,0,0,0,-1,1518,1303,0,0
301,-279,0,0,0,0,0,0,0,0,0,-1,1525,1303,0,0
308,-279,0,0,0,0,0,0,0,0,0,-1,1532,1303,0,0
315,-279,0,0,0,0,0,0,0,0,0,-1,1539,1303,0,0
322,-279,0,0,0,0,0,0,0,0,0,-1,1546,1303,0,0
329,-279,0,0,0,0,0,0,0,0,0,-1,1553,1303,0,0
336,-279,0,0,0,0,0,0,0,0,0,-1,1560,1303,0,0
343,-279,0,0,0,0,0,0,0,0,0,-1,1567,1303,0,0
350,-279,0,0,0,0,0,0,0,0,0,-1,1574,1303,0,0
357,-279,0,0,0,0,0,0,0,0,0,-1,1581,1303,0,0
364,-279,0,0,0,0,0,0,0,0,0,-1,1588,1303,0,0
371,-279,0,0,0,0,0,0,0,0,0,-1,1595,1303,0,0
378,-279,0,0,0,0,0,0,0,0,0,-1,1602,1303,0,0
385,-279,0,0,0,0,0,0,0,0,0,-1,1609,1303,0,0
392,-279,0,0,0,0,0,0,0,0,0,-1,1616,1303,0,0
399,-279,0,0,0,0,0,0,0,0,0,-1,1623,1303,0,0
406,-279,0,0,0,0,0,0,0,0,0,-1,1630,1303,0,0
413,-279,0,0,0,0,0,0,0,0,0,-1,1637,1303,0,0
420,-279,0,0,0,0,0,0,0,0,0,-1,1644,1303,0,0
427,-279,0,0,0,0,0,0,0,0,0,-1,1651,1303,0,0
434,-279,0,0,0,0,0,0,0,0,0,-1,1658,1303,0,0
441,-279,0,0,0,0,0,0,0,0,0,-1,1665,1303,0,0
448,-279,0,0,0,0,0,0,0,0,0,-1,1672,1303,0,0
455,-279,0,0,0,0,0,0,0,0,0,-1,1679,1303,0,0
462,-279,0,0,0,0,0,0,0,0,0,-1,1686,1303,0,0
469,-279,0,0,0,0,0,0,0,0,0,-1,1693,1303,0,0
476,-279,0,0,0,0,0,0,0,0,0,-1,1700,1303,0,0
483,-279,0,0,0,0,0,0,0,0,0,-1,1707,1303,0,0
490,-279,0,0,0,0,0,0,0,0,0,-1,1714,1303,0,0
497,-279,0,0,0,0,0,0,0,0,0,-1,1721,1303,0,0
504,-279,0,0,0,0,0,0,0,0,0,-1,1728,1303,0,0
511,-279,0,0,0,0,0,0,0,0,0,-1,1735,1303,0,0
518,-279,0,0,0,0,0,0,0,0,0,-1,1742,1303,0,0
525,-279,0,0,0,0,0,0,0,0,0,-1,1749,1303,0,0
532,-279,0,0,0,0,0,0,0,0,0,-1,1756,1303,0,0
539,-279,0,0,0,0,0,0,0,0,0,-1,1763,1303,0,0
546,-279,0,0,0,0,0,0,0,0,0,-1,1770,1303,0,0
553,-279,0,0,0,0,0,0,0,0,0,-1,1777,1303,0,0
560,-279,0,0,0,0,0,0,0,0,0,-1,1784,1303,0,0
567,-279,0,0,0,0,0,0,0,0,0,-1,1791,1303,0,0
574,-279,0,0,0,0,0,0,0,0,0,-1,1798,1303,0,0
581,-279,0,0,0,0,0,0,0,0,0,-1,1805,1303,0,0
588,-279,0,0,0,0,0,0,0,0,0,-1,1812,1303,0,0
595,-279,0,0,0,0,0,0,0,0,0,-1,1819,1303,0,0
602,-279,54.4459,2.71228,0.00952392,0.0228526,-0.0114511,0.0294374,0.00293906,-1.04893,0.0187223,0.0423602,1826,1303,54.446,-2.71225
609,-279,54.0414,2.11523,0.0122936,0.0204885,-0.0127034,0.0297389,0.0030432,-0.941405,0.0188934,0.0493839,1833,1303,54.0414,-2.11518
616,-279,54.2267,2.47449,0.0118563,0.017376,-0.0120488,0.026977,0.00225536,-0.897984,0.017282,0.0496922,1840,1303,54.2267,-2.47453
623,-279,55.0541,2.68591,0.00957133,0.0141694,-0.0103018,0.0224256,0.00131512,-0.895182,0.0145319,0.0468329,1847,1303,55.0541,-2.68594
630,-279,54.9589,2.57861,0.00667326,0.0112159,-0.00837239,0.0176196,0.000269556,-0.917853,0.0116576,0.0469858,1854,1303,54.9589,-2.57855
637,-279,55.1598,2.46362,0,0,0,0,0,0,0,-1,1861,1303,55.1598,-2.46359
644,-279,33.5021,3.40234,0,0,0,0,0,0,0,-1,1868,1303,33.5021,-3.40237
651,-279,29.8456,2.3562,0,0,0,0,0,0,0,-1,1875,1303,29.8455,-2.35615
658,-279,21.5076,7.65649,0,0,0,0,0,0,0,-1,1882,1303,21.5076,-7.65648
665,-279,18.9794,6.09607,0,0,0,0,0,0,0,-1,1889,1303,18.9793,-6.09601
672,-279,23.5206,8.32507,0,0,0,0,0,0,0,-1,1896,1303,23.5206,-8.32512
679,-279,38.3751,11.9214,0,0,0,0,0,0,0,-1,1903,1303,38.3751,-11.9214
686,-279,38.4886,11.3955,-0.00147274,0.000273957,-0.00167235,0.00128728,-0.00248605,-1.02603,0.00221488,0.0276097,1910,1303,38.4887,-11.3955
693,-279,38.5135,10.8707,6.36139e-05,0.000200248,-0.000696565,0.000831839,-0.000567976,-0.83428,0.000812955,0.0161294,1917,1303,38.5135,-10.8707
700,-279,38.5153,10.3472,0.000528098,0.000133903,0.000135779,0.00057034,9.16615e-05,0.301615,0.000353655,0.0125352,1924,1303,38.5153,-10.3472
707,-279,38.4879,9.802,3.51049e-05,-0.000371429,0.00058009,0.00044651,-0.000782834,0.61688,0.000718561,0.00990481,1931,1303,38.4879,-9.80203
714,-279,38.4547,9.27393,-0.000864898,-0.000253569,0.00104736,0.000531816,-0.00165028,0.927377,0.00131384,0.0107572,1938,1303,38.4548,-9.27394
721,-279,38.4996,8.74817,-0.00194942,-9.3234e-05,0.00152209,0.000761397,-0.00280405,1.05918,0.00216819,0.0153712,1945,1303,38.4996,-8.74821
728,-279,38.5007,8.23438,-0.00319303,0.000134662,0.00197114,0.00105031,-0.00410868,1.13593,0.00314818,0.0169033,1952,1303,38.5008,-8.23433
735,-279,38.4325,7.75549,-0.00456787,0.000480854,0.00233682,0.00139643,-0.00548344,1.19738,0.00419922,0.0163334,1959,1303,38.4326,-7.75545
742,-279,38.3311,7.27075,-0.00600412,0.000998018,0.00255232,0.0018296,-0.0068357,1.25583,0.00527387,0.0319271,1966,1303,38.3311,-7.27081
749,-279,38.343,6.72974,0,0,0,0,0,0,0,-1,1973,1303,38.343,-6.72976
756,-279,23.2091,4.43433,0,0,0,0,0,0,0,-1,1980,1303,23.2092,-4.43432
763,-279,27.1613,3.46265,0,0,0,0,0,0,0,-1,1987,1303,27.1613,-3.4627
770,-279,21.5828,3.54199,0,0,0,0,0,0,0,-1,1994,1303,21.5827,-3.54198
777,-279,32.5369,6.99609,0,0,0,0,0,0,0,-1,2001,1303,32.5369,-6.99608
784,-279,0,0,0,0,0,0,0,0,0,-1,2008,1303,0,0
791,-279,0,0,0,0,0,0,0,0,0,-1,2015,1303,0,0
798,-279,0,0,0,0,0,0,0,0,0,-1,2022,1303,0,0
805,-279,0,0,0,0,0,0,0,0,0,-1,2029,1303,0,0
812,-279,0,0,0,0,0,0,0,0,0,-1,2036,1303,0,0
-700,-286,0,0,0,0,0,0,0,0,0,-1,524,1310,0,0
-693,-286,0,0,0,0,0,0,0,0,0,-1,531,1310,0,0
-686,-286,0,0,0,0,0,0,0,0,0,-1,538,1310,0,0
-679,-286,0,0,0,0,0,0,0,0,0,-1,545,1310,0,0
-672,-286,0,0,0,0,0,0,0,0,0,-1,552,1310,0,0
-665,-286,0,0,0,0,0,0,0,0,0,-1,559,1310,0,0
-658,-286,-38.3453,0.977295,0,0,0,0,0,0,0,-1,566,1310,-38.3453,-0.977338
-651,-286,-38.598,0.329712,0,0,0,0,0,0,0,-1,573,1310,-38.598,-0.329668
-644,-286,-38.4286,0.334717,0,0,0,0,0,0,0,-1,580,1310,-38.4286,-0.334716
-637,-286,-38.3278,-0.351196,0,0,0,0,0,0,0,-1,587,1310,-38.3278,0.351213
-630,-286,-38.5034,-1.13623,0,0,0,0,0,0,0,-1,594,1310,-38.5034,1.13617
-623,-286,-20.1415,-1.72998,0,0,0,0,0,0,0,-1,601,1310,-20.1415,1.72995
-616,-286,-22.0634,2.37744,0,0,0,0,0,0,0,-1,608,1310,-22.0633,-2.37746
-609,-286,-23.379,4.21753,0,0,0,0,0,0,0,-1,615,1310,-23.379,-4.21748
-602,-286,-22.8621,5.25378,0.00582276,0.00632218,0.00460157,0.0106808,0.00146414,0.812505,0.00668614,0.0217294,622,1310,-22.8621,-5.25376
-595,-286,-22.8636,5.90906,0.00416919,0.00424244,0.00313794,0.00734397,0.00106766,0.791234,0.00458175,0.0124278,629,1310,-22.8637,-5.90912
-588,-286,-22.8715,6.46436,0.00343017,0.00287819,0.00235603,0.00552632,0.000782039,0.727093,0.00345318,0.0127524,636,1310,-22.8715,-6.46436
-581,-286,-22.8879,7.01636,0.00321852,0.00181015,0.00193794,0.00457625,0.000452422,0.611131,0.00291176,0.0148233,643,1310,-22.8879,-7.0164
-574,-286,-22.9417,7.6051,0.00344367,0.00101007,0.00182449,0.00441989,3.38419e-05,0.491308,0.00293538,0.0154874,650,1310,-22.9417,-7.60505
-567,-286,-22.9623,8.21191,0.00405968,0.000453155,0.0019933,0.00494436,-0.000431518,0.417706,0.00344909,0.0147655,657,1310,-22.9623,-8.21185
-560,-286,-22.9797,8.79541,0.0051425,0.000128682,0.00246553,0.00615176,-0.000880576,0.388538,0.00442401,0.0142674,664,1310,-22.9797,-8.79536
-553,-286,-22.9827,9.37549,0.00680957,0.000120002,0.00336326,0.00820811,-0.00127854,0.394076,0.00594426,0.0104341,671,1310,-22.9827,-9.37547
-546,-286,-22.9624,9.98254,0.00885369,0.000565505,0.00459872,0.0109,-0.00148086,0.418676,0.00780727,0.0212837,678,1310,-22.9624,-9.98255
-539,-286,-23.0036,10.649,0,0,0,0,0,0,0,-1,685,1310,-23.0036,-10.649
-532,-286,-21.6771,10.4924,0,0,0,0,0,0,0,-1,692,1310,-21.6771,-10.4924
-525,-286,-11.4528,-1.11768,0,0,0,0,0,0,0,-1,699,1310,-11.4528,1.11769
-518,-286,-11.0701,1.37329,0,0,0,0,0,0,0,-1,706,1310,-11.0701,-1.37332
-511,-286,-17.7545,-0.0791016,0,0,0,0,0,0,0,-1,713,1310,-17.7544,0.0791606
-504,-286,-18.0455,1.29602,0,0,0,0,0,0,0,-1,720,1310,-18.0455,-1.29601
-497,-286,-18.3367,2.67114,0,0,0,0,0,0,0,-1,727,1310,-18.3366,-2.67118
-490,-286,-19.5795,2.47266,0,0,0,0,0,0,0,-1,734,1310,-19.5795,-2.4727
-483,-286,-19.7277,2.74744,0,0,0,0,0,0,0,-1,741,1310,-19.7277,-2.74747
-476,-286,-20.0391,3.06177,0,0,0,0,0,0,0,-1,748,1310,-20.0391,-3.06178
-469,-286,0,0,0,0,0,0,0,0,0,-1,755,1310,0,0
-462,-286,0,0,0,0,0,0,0,0,0,-1,762,1310,0,0
-455,-286,0,0,0,0,0,0,0,0,0,-1,769,1310,0,0
-448,-286,0,0,0,0,0,0,0,0,0,-1,776,1310,0,0
-441,-286,0,0,0,0,0,0,0,0,0,-1,783,1310,0,0
-434,-286,0,0,0,0,0,0,0,0,0,-1,790,1310,0,0
-427,-286,0,0,0,0,0,0,0,0,0,-1,797,1310,0,0
-420,-286,0,0,0,0,0,0,0,0,0,-1,804,1310,0,0
-413,-286,0,0,0,0,0,0,0,0,0,-1,811,1310,0,0
-406,-286,0,0,0,0,0,0,0,0,0,-1,818,1310,0,0
-399,-286,0,0,0,0,0,0,0,0,0,-1,825,1310,0,0
-392,-286,0,0,0,0,0,0,0,0,0,-1,832,1310,0,0
-385,-286,0,0,0,0,0,0,0,0,0,-1,839,1310,0,0
-378,-286,0,0,0,0,0,0,0,0,0,-1,846,1310,0,0
-371,-286,0,0,0,0,0,0,0,0,0,-1,853,1310,0,0
-364,-286,0,0,0,0,0,0,0,0,0,-1,860,1310,0,0
-357,-286,0,0,0,0,0,0,0,0,0,-1,867,1310,0,0
-350,-286,0,0,0,0,0,0,0,0,0,-1,874,1310,0,0
-343,-286,0,0,0,0,0,0,0,0,0,-1,881,1310,0,0
-336,-286,0,0,0,0,0,0,0,0,0,-1,888,1310,0,0
-329,-286,0,0,0,0,0,0,0,0,0,-1,895,1310,0,0
-322,-286,0,0,0,0,0,0,0,0,0,-1,902,1310,0,0
-315,-286,0,0,0,0,0,0,0,0,0,-1,909,1310,0,0
-308,-286,0,0,0,0,0,0,0,0,0,-1,916,1310,0,0
-301,-286,0,0,0,0,0,0,0,0,0,-1,923,1310,0,0
-294,-286,0,0,0,0,0,0,0,0,0,-1,930,1310,0,0
-287,-286,0,0,0,0,0,0,0,0,0,-1,937,1310,0,0
-280,-286,0,0,0,0,0,0,0,0,0,-1,944,1310,0,0
-273,-286,0,0,0,0,0,0,0,0,0,-1,951,1310,0,0
-266,-286,0,0,0,0,0,0,0,0,0,-1,958,1310,0,0
-259,-286,0,0,0,0,0,0,0,0,0,-1,965,1310,0,0
-252,-286,0,0,0,0,0,0,0,0,0,-1,972,1310,0,0
-245,-286,0,0,0,0,0,0,0,0,0,-1,979,1310,0,0
-238,-286,0,0,0,0,0,0,0,0,0,-1,986,1310,0,0
-231,-286,0,0,0,0,0,0,0,0,0,-1,993,1310,0,0
-224,-286,0,0,0,0,0,0,0,0,0,-1,1000,1310,0,0
-217,-286,0,0,0,0,0,0,0,0,0,-1,1007,1310,0,0
-210,-286,0,0,0,0,0,0,0,0,0,-1,1014,1310,0,0
-203,-286,0,0,0,0,0,0,0,0,0,-1,1021,1310,0,0
-196,-286,0,0,0,0,0,0,0,0,0,-1,1028,1310,0,0
-189,-286,0,0,0,0,0,0,0,0,0,-1,1035,1310,0,0
-182,-286,0,0,0,0,0,0,0,0,0,-1,1042,1310,0,0
-175,-286,0,0,0,0,0,0,0,0,0,-1,1049,1310,0,0
-168,-286,0,0,0,0,0,0,0,0,0,-1,1056,1310,0,0
-161,-286,0,0,0,0,0,0,0,0,0,-1,1063,1310,0,0
-154,-286,0,0,0,0,0,0,0,0,0,-1,1070,1310,0,0
-147,-286,0,0,0,0,0,0,0,0,0,-1,1077,1310,0,0
-140,-286,0,0,0,0,0,0,0,0,0,-1,1084,1310,0,0
-133,-286,0,0,0,0,0,0,0,0,0,-1,1091,1310,0,0
-126,-286,0,0,0,0,0,0,0,0,0,-1,1098,1310,0,0
-119,-286,0,0,0,0,0,0,0,0,0,-1,1105,1310,0,0
-112,-286,0,0,0,0,0,0,0,0,0,-1,1112,1310,0,0
-105,-286,0,0,0,0,0,0,0,0,0,-1,1119,1310,0,0
-98,-286,0,0,0,0,0,0,0,0,0,-1,1126,1310,0,0
-91,-286,0,0,0,0,0,0,0,0,0,-1,1133,1310,0,0
-84,-286,0,0,0,0,0,0,0,0,0,-1,1140,1310,0,0
-77,-286,0,0,0,0,0,0,0,0,0,-1,1147,1310,0,0
-70,-286,0,0,0,0,0,0,0,0,0,-1,1154,1310,0,0
-63,-286,0,0,0,0,0,0,0,0,0,-1,1161,1310,0,0
-56,-286,0,0,0,0,0,0,0,0,0,-1,1168,1310,0,0
-49,-286,0,0,0,0,0,0,0,0,0,-1,1175,1310,0,0
-42,-286,0,0,0,0,0,0,0,0,0,-1,1182,1310,0,0
-35,-286,0,0,0,0,0,0,0,0,0,-1,1189,1310,0,0
-28,-286,0,0,0,0,0,0,0,0,0,-1,1196,1310,0,0
-21,-286,0,0,0,0,0,0,0,0,0,-1,1203,1310,0,0
-14,-286,0,0,0,0,0,0,0,0,0,-1,1210,1310,0,0
-7,-286,0,0,0,0,0,0,0,0,0,-1,1217,1310,0,0
0,-286,0,0,0,0,0,0,0,0,0,-1,1224,1310,0,0
7,-286,0,0,0,0,0,0,0,0,0,-1,1231,1310,0,0
14,-286,0,0,0,0,0,0,0,0,0,-1,1238,1310,0,0
21,-286,0,0,0,0,0,0,0,0,0,-1,1245,1310,0,0
28,-286,0,0,0,0,0,0,0,0,0,-1,1252,1310,0,0
35,-286,0,0,0,0,0,0,0,0,0,-1,1259,1310,0,0
42,-286,0,0,0,0,0,0,0,0,0,-1,1266,1310,0,0
49,-286,0,0,0,0,0,0,0,0,0,-1,1273,1310,0,0
56,-286,0,0,0,0,0,0,0,0,0,-1,1280,1310,0,0
63,-286,0,0,0,0,0,0,0,0,0,-1,1287,1310,0,0
70,-286,0,0,0,0,0,0,0,0,0,-1,1294,1310,0,0
77,-286,0,0,0,0,0,0,0,0,0,-1,1301,1310,0,0
84,-286,0,0,0,0,0,0,0,0,0,-1,1308,1310,0,0
91,-286,0,0,0,0,0,0,0,0,0,-1,1315,1310,0,0
98,-286,0,0,0,0,0,0,0,0,0,-1,1322,1310,0,0
105,-286,0,0,0,0,0,0,0,0,0,-1,1329,1310,0,0
112,-286,0,0,0,0,0,0,0,0,0,-1,1336,1310,0,0
119,-286,0,0,0,0,0,0,0,0,0,-1,1343,1310,0,0
126,-286,0,0,0,0,0,0,0,0,0,-1,1350,1310,0,0
133,-286,0,0,0,0,0,0,0,0,0,-1,1357,1310,0,0
140,-286,0,0,0,0,0,0,0,0,0,-1,1364,1310,0,0
147,-286,0,0,0,0,0,0,0,0,0,-1,1371,1310,0,0
154,-286,0,0,0,0,0,0,0,0,0,-1,1378,1310,0,0
161,-286,0,0,0,0,0,0,0,0,0,-1,1385,1310,0,0
168,-286,0,0,0,0,0,0,0,0,0,-1,1392,1310,0,0
175,-286,0,0,0,0,0,0,0,0,0,-1,1399,1310,0,0
182,-286,0,0,0,0,0,0,0,0,0,-1,1406,1310,0,0
189,-286,0,0,0,0,0,0,0,0,0,-1,1413,1310,0,0
196,-286,0,0,0,0,0,0,0,0,0,-1,1420,1310,0,0
203,-286,0,0,0,0,0,0,0,0,0,-1,1427,1310,0,0
210,-286,0,0,0,0,0,0,0,0,0,-1,1434,1310,0,0
217,-286,0,0,0,0,0,0,0,0,0,-1,1441,1310,0,0
224,-286,0,0,0,0,0,0,0,0,0,-1,1448,1310,0,0
231,-286,0,0,0,0,0,0,0,0,0,-1,1455,1310,0,0
238,-286,0,0,0,0,0,0,0,0,0,-1,1462,1310,0,0
245,-286,0,0,0,0,0,0,0,0,0,-1,1469,1310,0,0
252,-286,0,0,0,0,0,0,0,0,0,-1,1476,1310,0,0
259,-286,0,0,0,0,0,0,0,0,0,-1,1483,1310,0,0
266,-286,0,0,0,0,0,0,0,0,0,-1,1490,1310,0,0
273,-286,0,0,0,0,0,0,0,0,0,-1,1497,1310,0,0
280,-286,0,0,0,0,0,0,0,0,0,-1,1504,1310,0,0
287,-286,0,0,0,0,0,0,0,0,0,-1,1511,1310,0,0
294,-286,0,0,0,0,0,0,0,0,0,-1,1518,1310,0,0
301,-286,0,0,0,0,0,0,0,0,0,-1,1525,1310,0,0
308,-286,0,0,0,0,0,0,0,0,0,-1,1532,1310,0,0
315,-286,0,0,0,0,0,0,0,0,0,-1,1539,1310,0,0
322,-286,0,0,0,0,0,0,0,0,0,-1,1546,1310,0,0
329,-286,0,0,0,0,0,0,0,0,0,-1,1553,1310,0,0
336,-286,0,0,0,0,0,0,0,0,0,-1,1560,1310,0,0
343,-286,0,0,0,0,0,0,0,0,0,-1,1567,1310,0,0
350,-286,0,0,0,0,0,0,0,0,0,-1,1574,1310,0,0
357,-286,0,0,0,0,0,0,0,0,0,-1,1581,1310,0,0
364,-286,0,0,0,0,0,0,0,0,0,-1,1588,1310,0,0
371,-286,0,0,0,0,0,0,0,0,0,-1,1595,1310,0,0
378,-286,0,0,0,0,0,0,0,0,0,-1,1602,1310,0,0
385,-286,0,0,0,0,0,0,0,0,0,-1,1609,1310,0,0
392,-286,0,0,0,0,0,0,0,0,0,-1,1616,1310,0,0
399,-286,0,0,0,0,0,0,0,0,0,-1,1623,1310,0,0
406,-286,0,0,0,0,0,0,0,0,0,-1,1630,1310,0,0
413,-286,0,0,0,0,0,0,0,0,0,-1,1637,1310,0,0
420,-286,0,0,0,0,0,0,0,0,0,-1,1644,1310,0,0
427,-286,0,0,0,0,0,0,0,0,0,-1,1651,1310,0,0
434,-286,0,0,0,0,0,0,0,0,0,-1,1658,1310,0,0
441,-286,0,0,0,0,0,0,0,0,0,-1,1665,1310,0,0
448,-286,0,0,0,0,0,0,0,0,0,-1,1672,1310,0,0
455,-286,0,0,0,0,0,0,0,0,0,-1,1679,1310,0,0
462,-286,0,0,0,0,0,0,0,0,0,-1,1686,1310,0,0
469,-286,0,0,0,0,0,0,0,0,0,-1,1693,1310,0,0
476,-286,0,0,0,0,0,0,0,0,0,-1,1700,1310,0,0
483,-286,0,0,0,0,0,0,0,0,0,-1,1707,1310,0,0
490,-286,0,0,0,0,0,0,0,0,0,-1,1714,1310,0,0
497,-286,0,0,0,0,0,0,0,0,0,-1,1721,1310,0,0
504,-286,0,0,0,0,0,0,0,0,0,-1,1728,1310,0,0
511,-286,0,0,0,0,0,0,0,0,0,-1,1735,1310,0,0
518,-286,0,0,0,0,0,0,0,0,0,-1,1742,1310,0,0
525,-286,0,0,0,0,0,0,0,0,0,-1,1749,1310,0,0
532,-286,0,0,0,0,0,0,0,0,0,-1,1756,1310,0,0
539,-286,0,0,0,0,0,0,0,0,0,-1,1763,1310,0,0
546,-286,0,0,0,0,0,0,0,0,0,-1,1770,1310,0,0
553,-286,0,0,0,0,0,0,0,0,0,-1,1777,1310,0,0
560,-286,0,0,0,0,0,0,0,0,0,-1,1784,1310,0,0
567,-286,0,0,0,0,0,0,0,0,0,-1,1791,1310,0,0
574,-286,0,0,0,0,0,0,0,0,0,-1,1798,1310,0,0
581,-286,0,0,0,0,0,0,0,0,0,-1,1805,1310,0,0
588,-286,0,0,0,0,0,0,0,0,0,-1,1812,1310,0,0
595,-286,54.5806,2.83618,0,0,0,0,0,0,0,-1,1819,1310,54.5806,-2.83617
602,-286,54.4935,2.50867,0.0144673,0.027033,-0.0188587,0.0406279,0.000872402,-0.946192,0.0267992,0.0473779,1826,1310,54.4936,-2.50872
609,-286,54.3221,1.87268,0.0166165,0.023834,-0.0180582,0.0386405,0.00180999,-0.884019,0.0251787,0.0450929,1833,1310,54.3221,-1.87272
616,-286,55.3636,2.87378,0.014857,0.0195569,-0.0145667,0.031962,0.00245192,-0.86537,0.0205396,0.0490967,1840,1310,55.3636,-2.87382
623,-286,55.0455,2.54919,0.0122483,0.0157393,-0.0114889,0.0256145,0.00237301,-0.860787,0.0163429,0.0483982,1847,1310,55.0456,-2.54917
630,-286,55.1019,2.17871,0,0,0,0,0,0,0,-1,1854,1310,55.1019,-2.17868
637,-286,47.8409,3.69824,0,0,0,0,0,0,0,-1,1861,1310,47.841,-3.69823
644,-286,25.6433,1.33862,0,0,0,0,0,0,0,-1,1868,1310,25.6433,-1.33858
651,-286,25.2507,1.88245,0,0,0,0,0,0,0,-1,1875,1310,25.2508,-1.88245
658,-286,25.9475,9.43689,0,0,0,0,0,0,0,-1,1882,1310,25.9475,-9.43693
665,-286,24.9838,8.03101,0,0,0,0,0,0,0,-1,1889,1310,24.9837,-8.03104
672,-286,37.5676,11.838,0,0,0,0,0,0,0,-1,1896,1310,37.5676,-11.838
679,-286,38.0056,11.9612,0,0,0,0,0,0,0,-1,1903,1310,38.0056,-11.9611
686,-286,37.9951,11.4258,-0.00078789,-0.000310975,-0.00146074,0.000930643,-0.00202951,-0.866307,0.00174786,0.0214482,1910,1310,37.9951,-11.4257
693,-286,37.969,10.899,0.000375059,-0.000241209,-0.000529689,0.00067972,-0.00054587,-0.521961,0.000709,0.0156594,1917,1310,37.9691,-10.899
700,-286,37.9615,10.3641,0.000512723,-0.000132418,0.000240256,0.000592365,-0.00021206,0.320088,0.000481425,0.0116828,1924,1310,37.9616,-10.3641
707,-286,37.9419,9.84863,-6.27039e-05,-0.000385533,0.000738585,0.0005319,-0.000980136,0.677817,0.000885668,0.0091611,1931,1310,37.9419,-9.84863
714,-286,37.9166,9.32263,-0.000932953,-0.000351913,0.00121214,0.000604036,-0.0018889,0.903017,0.00150167,0.00927253,1938,1310,37.9166,-9.3226
721,-286,37.9333,8.80029,-0.00201829,-0.000302894,0.00172291,0.000763999,-0.00308519,1.01635,0.00235317,0.0121981,1945,1310,37.9334,-8.80027
728,-286,37.9149,8.28931,-0.00331177,-0.000202304,0.00222264,0.000955403,-0.00446948,1.09059,0.00334393,0.0154195,1952,1310,37.915,-8.28934
735,-286,37.8954,7.75977,-0.00482074,-5.78425e-07,0.00266338,0.00118128,-0.00600261,1.15316,0.00444809,0.019164,1959,1310,37.8954,-7.75981
742,-286,37.8923,7.2467,-0.00650851,0.000356588,0.00297015,0.00146322,-0.00761515,1.21414,0.00562827,0.0428262,1966,1310,37.8924,-7.24671
749,-286,38.0225,6.67761,0,0,0,0,0,0,0,-1,1973,1310,38.0225,-6.67762
756,-286,24.8226,4.43481,0,0,0,0,0,0,0,-1,1980,1310,24.8227,-4.43479
763,-286,20.6671,3.99683,0,0,0,0,0,0,0,-1,1987,1310,20.6671,-3.99683
770,-286,23.9147,4.45679,0,0,0,0,0,0,0,-1,1994,1310,23.9146,-4.45675
777,-286,0,0,0,0,0,0,0,0,0,-1,2001,1310,0,0
784,-286,0,0,0,0,0,0,0,0,0,-1,2008,1310,0,0
791,-286,0,0,0,0,0,0,0,0,0,-1,2015,1310,0,0
798,-286,0,0,0,0,0,0,0,0,0,-1,2022,1310,0,0
805,-286,0,0,0,0,0,0,0,0,0,-1,2029,1310,0,0
812,-286,0,0,0,0,0,0,0,0,0,-1,2036,1310,0,0
-700,-293,0,0,0,0,0,0,0,0,0,-1,524,1317,0,0
-693,-293,0,0,0,0,0,0,0,0,0,-1,531,1317,0,0
-686,-293,0,0,0,0,0,0,0,0,0,-1,538,1317,0,0
-679,-293,0,0,0,0,0,0,0,0,0,-1,545,1317,0,0
-672,-293,0,0,0,0,0,0,0,0,0,-1,552,1317,0,0
-665,-293,0,0,0,0,0,0,0,0,0,-1,559,1317,0,0
-658,-293,0,0,0,0,0,0,0,0,0,-1,566,1317,0,0
-651,-293,-38.4809,1.63257,0,0,0,0,0,0,0,-1,573,1317,-38.4809,-1.63252
-644,-293,-38.8182,0.873047,0,0,0,0,0,0,0,-1,580,1317,-38.8183,-0.873024
-637,-293,-38.7209,0.0534668,0,0,0,0,0,0,0,-1,587,1317,-38.7209,-0.0534282
-630,-293,-24.5684,-3.7887,0,0,0,0,0,0,0,-1,594,1317,-24.5684,3.78869
-623,-293,-15.6058,0.229614,0,0,0,0,0,0,0,-1,601,1317,-15.6058,-0.229666
-616,-293,-15.5056,2.17737,0,0,0,0,0,0,0,-1,608,1317,-15.5055,-2.17742
-609,-293,-22.1621,4.20154,0,0,0,0,0,0,0,-1,615,1317,-22.1621,-4.20148
-602,-293,-22.1429,5.09082,0.00664155,0.00682496,0.00517468,0.0119088,0.00155776,0.794258,0.00747422,0.0498834,622,1317,-22.1429,-5.09078
-595,-293,-22.3242,5.90576,0.00464291,0.00451409,0.00341066,0.00798977,0.00116723,0.775957,0.00498322,0.0197909,629,1317,-22.3242,-5.90579
-588,-293,-22.2977,6.48352,0.00368201,0.00309956,0.00246919,0.00587709,0.000904476,0.726697,0.00365407,0.0158081,636,1317,-22.2978,-6.48354
-581,-293,-22.3016,7.04736,0.00328815,0.00202442,0.0019324,0.00468936,0.0006232,0.627385,0.0029406,0.018854,643,1317,-22.3017,-7.04734
-574,-293,-22.3284,7.6488,0.00333387,0.00123406,0.00171801,0.00429738,0.000270545,0.511123,0.00277913,0.0171017,650,1317,-22.3284,-7.64878
-567,-293,-22.3807,8.24902,0.00375344,0.000687041,0.00178689,0.00457475,-0.00013426,0.43083,0.00309555,0.0160392,657,1317,-22.3807,-8.24907
-560,-293,-22.4088,8.83826,0.00459791,0.00034414,0.00214126,0.00548907,-0.000547028,0.394383,0.00385469,0.0168597,664,1317,-22.4088,-8.83823
-553,-293,-22.4017,9.40564,0.00592614,0.000266956,0.00283981,0.00710543,-0.000912332,0.3936,0.00506851,0.0113495,671,1317,-22.4017,-9.40569
-546,-293,-22.4016,9.99573,0.00761746,0.000550169,0.00385893,0.00931621,-0.00114858,0.414686,0.00662693,0.0134697,678,1317,-22.4016,-9.99578
-539,-293,-22.3245,10.5696,0.0100413,0.000777926,0.00539149,0.0125174,-0.00169817,0.430528,0.00896478,0.0421448,685,1317,-22.3244,-10.5695
-532,-293,-22.1953,11.0941,0,0,0,0,0,0,0,-1,692,1317,-22.1953,-11.0941
-525,-293,-8.20642,3.62256,0,0,0,0,0,0,0,-1,699,1317,-8.20639,-3.6226
-518,-293,-10.1053,0.314209,0,0,0,0,0,0,0,-1,706,1317,-10.1053,-0.314234
-511,-293,-11.6276,0.235352,0,0,0,0,0,0,0,-1,713,1317,-11.6276,-0.235372
-504,-293,-17.9086,1.25427,0,0,0,0,0,0,0,-1,720,1317,-17.9086,-1.25423
-497,-293,-18.8006,1.62122,0,0,0,0,0,0,0,-1,727,1317,-18.8006,-1.62119
-490,-293,-18.8961,1.99255,0,0,0,0,0,0,0,-1,734,1317,-18.8961,-1.99251
-483,-293,-19.0831,2.35498,0,0,0,0,0,0,0,-1,741,1317,-19.0831,-2.35497
-476,-293,-19.5228,2.61243,0,0,0,0,0,0,0,-1,748,1317,-19.5228,-2.61237
-469,-293,0,0,0,0,0,0,0,0,0,-1,755,1317,0,0
-462,-293,0,0,0,0,0,0,0,0,0,-1,762,1317,0,0
-455,-293,0,0,0,0,0,0,0,0,0,-1,769,1317,0,0
-448,-293,0,0,0,0,0,0,0,0,0,-1,776,1317,0,0
-441,-293,0,0,0,0,0,0,0,0,0,-1,783,1317,0,0
-434,-293,0,0,0,0,0,0,0,0,0,-1,790,1317,0,0
-427,-293,0,0,0,0,0,0,0,0,0,-1,797,1317,0,0
-420,-293,0,0,0,0,0,0,0,0,0,-1,804,1317,0,0
-413,-293,0,0,0,0,0,0,0,0,0,-1,811,1317,0,0
-406,-293,0,0,0,0,0,0,0,0,0,-1,818,1317,0,0
-399,-293,0,0,0,0,0,0,0,0,0,-1,825,1317,0,0
-392,-293,0,0,0,0,0,0,0,0,0,-1,832,1317,0,0
-385,-293,0,0,0,0,0,0,0,0,0,-1,839,1317,0,0
-378,-293,0,0,0,0,0,0,0,0,0,-1,846,1317,0,0
-371,-293,0,0,0,0,0,0,0,0,0,-1,853,1317,0,0
-364,-293,0,0,0,0,0,0,0,0,0,-1,860,1317,0,0
-357,-293,0,0,0,0,0,0,0,0,0,-1,867,1317,0,0
-350,-293,0,0,0,0,0,0,0,0,0,-1,874,1317,0,0
-343,-293,0,0,0,0,0,0,0,0,0,-1,881,1317,0,0
-336,-293,0,0,0,0,0,0,0,0,0,-1,888,1317,0,0
-329,-293,0,0,0,0,0,0,0,0,0,-1,895,1317,0,0
-322,-293,0,0,0,0,0,0,0,0,0,-1,902,1317,0,0
-315,-293,0,0,0,0,0,0,0,0,0,-1,909,1317,0,0
-308,-293,0,0,0,0,0,0,0,0,0,-1,916,1317,0,0
-301,-293,0,0,0,0,0,0,0,0,0,-1,923,1317,0,0
-294,-293,0,0,0,0,0,0,0,0,0,-1,930,1317,0,0
-287,-293,0,0,0,0,0,0,0,0,0,-1,937,1317,0,0
-280,-293,0,0,0,0,0,0,0,0,0,-1,944,1317,0,0
-273,-293,0,0,0,0,0,0,0,0,0,-1,951,1317,0,0
-266,-293,0,0,0,0,0,0,0,0,0,-1,958,1317,0,0
-259,-293,0,0,0,0,0,0,0,0,0,-1,965,1317,0,0
-252,-293,0,0,0,0,0,0,0,0,0,-1,972,1317,0,0
-245,-293,0,0,0,0,0,0,0,0,0,-1,979,1317,0,0
-238,-293,0,0,0,0,0,0,0,0,0,-1,986,1317,0,0
-231,-293,0,0,0,0,0,0,0,0,0,-1,993,1317,0,0
-224,-293,0,0,0,0,0,0,0,0,0,-1,1000,1317,0,0
-217,-293,0,0,0,0,0,0,0,0,0,-1,1007,1317,0,0
-210,-293,0,0,0,0,0,0,0,0,0,-1,1014,1317,0,0
-203,-293,0,0,0,0,0,0,0,0,0,-1,1021,1317,0,0
-196,-293,0,0,0,0,0,0,0,0,0,-1,1028,1317,0,0
-189,-293,0,0,0,0,0,0,0,0,0,-1,1035,1317,0,0
-182,-293,0,0,0,0,0,0,0,0,0,-1,1042,1317,0,0
-175,-293,0,0,0,0,0,0,0,0,0,-1,1049,1317,0,0
-168,-293,0,0,0,0,0,0,0,0,0,-1,1056,1317,0,0
-161,-293,0,0,0,0,0,0,0,0,0,-1,1063,1317,0,0
-154,-293,0,0,0,0,0,0,0,0,0,-1,1070,1317,0,0
-147,-293,0,0,0,0,0,0,0,0,0,-1,1077,1317,0,0
-140,-293,0,0,0,0,0,0,0,0,0,-1,1084,1317,0,0
-133,-293,0,0,0,0,0,0,0,0,0,-1,1091,1317,0,0
-126,-293,0,0,0,0,0,0,0,0,0,-1,1098,1317,0,0
-119,-293,0,0,0,0,0,0,0,0,0,-1,1105,1317,0,0
-112,-293,0,0,0,0,0,0,0,0,0,-1,1112,1317,0,0
-105,-293,0,0,0,0,0,0,0,0,0,-1,1119,1317,0,0
-98,-293,0,0,0,0,0,0,0,0,0,-1,1126,1317,0,0
-91,-293,0,0,0,0,0,0,0,0,0,-1,1133,1317,0,0
-84,-293,0,0,0,0,0,0,0,0,0,-1,1140,1317,0,0
-77,-293,0,0,0,0,0,0,0,0,0,-1,1147,1317,0,0
-70,-293,0,0,0,0,0,0,0,0,0,-1,1154,1317,0,0
-63,-293,0,0,0,0,0,0,0,0,0,-1,1161,1317,0,0
-56,-293,0,0,0,0,0,0,0,0,0,-1,1168,1317,0,0
-49,-293,0,0,0,0,0,0,0,0,0,-1,1175,1317,0,0
-42,-293,0,0,0,0,0,0,0,0,0,-1,1182,1317,0,0
-35,-293,0,0,0,0,0,0,0,0,0,-1,1189,1317,0,0
-28,-293,0,0,0,0,0,0,0,0,0,-1,1196,1317,0,0
-21,-293,0,0,0,0,0,0,0,0,0,-1,1203,1317,0,0
-14,-293,0,0,0,0,0,0,0,0,0,-1,1210,1317,0,0
-7,-293,0,0,0,0,0,0,0,0,0,-1,1217,1317,0,0
0,-293,0,0,0,0,0,0,0,0,0,-1,1224,1317,0,0
7,-293,0,0,0,0,0,0,0,0,0,-1,1231,1317,0,0
14,-293,0,0,0,0,0,0,0,0,0,-1,1238,1317,0,0
21,-293,0,0,0,0,0,0,0,0,0,-1,1245,1317,0,0
28,-293,0,0,0,0,0,0,0,0,0,-1,1252,1317,0,0
35,-293,0,0,0,0,0,0,0,0,0,-1,1259,1317,0,0
42,-293,0,0,0,0,0,0,0,0,0,-1,1266,1317,0,0
49,-293,0,0,0,0,0,0,0,0,0,-1,1273,1317,0,0
56,-293,0,0,0,0,0,0,0,0,0,-1,1280,1317,0,0
63,-293,0,0,0,0,0,0,0,0,0,-1,1287,1317,0,0
70,-293,0,0,0,0,0,0,0,0,0,-1,1294,1317,0,0
77,-293,0,0,0,0,0,0,0,0,0,-1,1301,1317,0,0
84,-293,0,0,0,0,0,0,0,0,0,-1,1308,1317,0,0
91,-293,0,0,0,0,0,0,0,0,0,-1,1315,1317,0,0
98,-293,0,0,0,0,0,0,0,0,0,-1,1322,1317,0,0
105,-293,0,0,0,0,0,0,0,0,0,-1,1329,1317,0,0
112,-293,0,0,0,0,0,0,0,0,0,-1,1336,1317,0,0
119,-293,0,0,0,0,0,0,0,0,0,-1,1343,1317,0,0
126,-293,0,0,0,0,0,0,0,0,0,-1,1350,1317,0,0
133,-293,0,0,0,0,0,0,0,0,0,-1,1357,1317,0,0
140,-293,0,0,0,0,0,0,0,0,0,-1,1364,1317,0,0
147,-293,0,0,0,0,0,0,0,0,0,-1,1371,1317,0,0
154,-293,0,0,0,0,0,0,0,0,0,-1,1378,1317,0,0
161,-293,0,0,0,0,0,0,0,0,0,-1,1385,1317,0,0
168,-293,0,0,0,0,0,0,0,0,0,-1,1392,1317,0,0
175,-293,0,0,0,0,0,0,0,0,0,-1,1399,1317,0,0
182,-293,0,0,0,0,0,0,0,0,0,-1,1406,1317,0,0
189,-293,0,0,0,0,0,0,0,0,0,-1,1413,1317,0,0
196,-293,0,0,0,0,0,0,0,0,0,-1,1420,1317,0,0
203,-293,0,0,0,0,0,0,0,0,0,-1,1427,1317,0,0
210,-293,0,0,0,0,0,0,0,0,0,-1,1434,1317,0,0
217,-293,0,0,0,0,0,0,0,0,0,-1,1441,1317,0,0
224,-293,0,0,0,0,0,0,0,0,0,-1,1448,1317,0,0
231,-293,0,0,0,0,0,0,0,0,0,-1,1455,1317,0,0
238,-293,0,0,0,0,0,0,0,0,0,-1,1462,1317,0,0
245,-293,0,0,0,0,0,0,0,0,0,-1,1469,1317,0,0
252,-293,0,0,0,0,0,0,0,0,0,-1,1476,1317,0,0
259,-293,0,0,0,0,0,0,0,0,0,-1,1483,1317,0,0
266,-293,0,0,0,0,0,0,0,0,0,-1,1490,1317,0,0
273,-293,0,0,0,0,0,0,0,0,0,-1,1497,1317,0,0
280,-293,0,0,0,0,0,0,0,0,0,-1,1504,1317,0,0
287,-293,0,0,0,0,0,0,0,0,0,-1,1511,1317,0,0
294,-293,0,0,0,0,0,0,0,0,0,-1,1518,1317,0,0
301,-293,0,0,0,0,0,0,0,0,0,-1,1525,1317,0,0
308,-293,0,0,0,0,0,0,0,0,0,-1,1532,1317,0,0
315,-293,0,0,0,0,0,0,0,0,0,-1,1539,1317,0,0
322,-293,0,0,0,0,0,0,0,0,0,-1,1546,1317,0,0
329,-293,0,0,0,0,0,0,0,0,0,-1,1553,1317,0,0
336,-293,0,0,0,0,0,0,0,0,0,-1,1560,1317,0,0
343,-293,0,0,0,0,0,0,0,0,0,-1,1567,1317,0,0
350,-293,0,0,0,0,0,0,0,0,0,-1,1574,1317,0,0
357,-293,0,0,0,0,0,0,0,0,0,-1,1581,1317,0,0
364,-293,0,0,0,0,0,0,0,0,0,-1,1588,1317,0,0
371,-293,0,0,0,0,0,0,0,0,0,-1,1595,1317,0,0
378,-293,0,0,0,0,0,0,0,0,0,-1,1602,1317,0,0
385,-293,0,0,0,0,0,0,0,0,0,-1,1609,1317,0,0
392,-293,0,0,0,0,0,0,0,0,0,-1,1616,1317,0,0
399,-293,0,0,0,0,0,0,0,0,0,-1,1623,1317,0,0
406,-293,0,0,0,0,0,0,0,0,0,-1,1630,1317,0,0
413,-293,0,0,0,0,0,0,0,0,0,-1,1637,1317,0,0
420,-293,0,0,0,0,0,0,0,0,0,-1,1644,1317,0,0
427,-293,0,0,0,0,0,0,0,0,0,-1,1651,1317,0,0
434,-293,0,0,0,0,0,0,0,0,0,-1,1658,1317,0,0
441,-293,0,0,0,0,0,0,0,0,0,-1,1665,1317,0,0
448,-293,0,0,0,0,0,0,0,0,0,-1,1672,1317,0,0
455,-293,0,0,0,0,0,0,0,0,0,-1,1679,1317,0,0
462,-293,0,0,0,0,0,0,0,0,0,-1,1686,1317,0,0
469,-293,0,0,0,0,0,0,0,0,0,-1,1693,1317,0,0
476,-293,0,0,0,0,0,0,0,0,0,-1,1700,1317,0,0
483,-293,0,0,0,0,0,0,0,0,0,-1,1707,1317,0,0
490,-293,0,0,0,0,0,0,0,0,0,-1,1714,1317,0,0
497,-293,0,0,0,0,0,0,0,0,0,-1,1721,1317,0,0
504,-293,0,0,0,0,0,0,0,0,0,-1,1728,1317,0,0
511,-293,0,0,0,0,0,0,0,0,0,-1,1735,1317,0,0
518,-293,0,0,0,0,0,0,0,0,0,-1,1742,1317,0,0
525,-293,0,0,0,0,0,0,0,0,0,-1,1749,1317,0,0
532,-293,0,0,0,0,0,0,0,0,0,-1,1756,1317,0,0
539,-293,0,0,0,0,0,0,0,0,0,-1,1763,1317,0,0
546,-293,0,0,0,0,0,0,0,0,0,-1,1770,1317,0,0
553,-293,0,0,0,0,0,0,0,0,0,-1,1777,1317,0,0
560,-293,0,0,0,0,0,0,0,0,0,-1,1784,1317,0,0
567,-293,0,0,0,0,0,0,0,0,0,-1,1791,1317,0,0
574,-293,0,0,0,0,0,0,0,0,0,-1,1798,1317,0,0
581,-293,0,0,0,0,0,0,0,0,0,-1,1805,1317,0,0
588,-293,0,0,0,0,0,0,0,0,0,-1,1812,1317,0,0
595,-293,54.6973,2.67773,0,0,0,0,0,0,0,-1,1819,1317,54.6972,-2.67773
602,-293,54.6123,2.37769,0,0,0,0,0,0,0,-1,1826,1317,54.6123,-2.37764
609,-293,54.6632,1.86316,0,0,0,0,0,0,0,-1,1833,1317,54.6632,-1.86316
616,-293,55.359,2.67749,0,0,0,0,0,0,0,-1,1840,1317,55.3591,-2.67751
623,-293,55.0568,2.41028,0,0,0,0,0,0,0,-1,1847,1317,55.0568,-2.41033
630,-293,46.6716,3.21558,0,0,0,0,0,0,0,-1,1854,1317,46.6716,-3.2156
637,-293,42.7729,4.95544,0,0,0,0,0,0,0,-1,1861,1317,42.773,-4.95546
644,-293,24.4565,0.520752,0,0,0,0,0,0,0,-1,1868,1317,24.4566,-0.520709
651,-293,25.8926,9.51245,0,0,0,0,0,0,0,-1,1875,1317,25.8926,-9.51246
658,-293,25.4904,9.10205,0,0,0,0,0,0,0,-1,1882,1317,25.4904,-9.10209
665,-293,37.1918,12.2797,0,0,0,0,0,0,0,-1,1889,1317,37.1918,-12.2797
672,-293,37.5605,12.5161,0,0,0,0,0,0,0,-1,1896,1317,37.5605,-12.5162
679,-293,37.531,11.9829,-0.000603942,-5.82225e-05,-0.00166974,0.00136081,-0.00202297,-0.866389,0.00196606,0.01568,1903,1317,37.5311,-11.9829
686,-293,37.5016,11.4557,-4.75067e-05,-0.000875945,-0.000947597,0.000572448,-0.0014959,-0.57935,0.0012332,0.016676,1910,1317,37.5016,-11.4556
693,-293,37.4668,10.9215,0.000600606,-0.000638158,-0.000186992,0.000628217,-0.000665769,-0.1466,0.000747188,0.012099,1917,1317,37.4668,-10.9215
700,-293,37.4287,10.3809,0.000429642,-0.000387139,0.000427576,0.000612524,-0.000570021,0.404172,0.00068289,0.0104099,1924,1317,37.4287,-10.3809
707,-293,37.4075,9.86987,-0.000180196,-0.000477266,0.000903027,0.00058643,-0.00124389,0.703885,0.00107922,0.0109769,1931,1317,37.4074,-9.86987
714,-293,37.3961,9.34485,-0.000993896,-0.000508736,0.00139153,0.000661198,-0.00216383,0.871694,0.00170621,0.00756237,1938,1317,37.3962,-9.34482
721,-293,37.3959,8.8064,-0.00204382,-0.000551763,0.00194767,0.000787866,-0.00338345,0.968297,0.00255901,0.00917444,1945,1317,37.3959,-8.80634
728,-293,37.3855,8.27014,-0.00334736,-0.000553437,0.00251481,0.000926363,-0.00482716,1.03892,0.00356722,0.0125496,1952,1317,37.3854,-8.27015
735,-293,37.364,7.71826,-0.00496212,-0.000474615,0.00306895,0.00108333,-0.00652007,1.10105,0.00474919,0.0247858,1959,1317,37.364,-7.71828
742,-293,37.5078,7.20032,0,0,0,0,0,0,0,-1,1966,1317,37.5078,-7.20032
749,-293,29.439,5.35339,0,0,0,0,0,0,0,-1,1973,1317,29.4389,-5.35334
756,-293,24.978,3.9718,0,0,0,0,0,0,0,-1,1980,1317,24.978,-3.97186
763,-293,26.6713,4.74097,0,0,0,0,0,0,0,-1,1987,1317,26.6713,-4.74098
770,-293,24.1349,4.69153,0,0,0,0,0,0,0,-1,1994,1317,24.1348,-4.69159
777,-293,0,0,0,0,0,0,0,0,0,-1,2001,1317,0,0
784,-293,0,0,0,0,0,0,0,0,0,-1,2008,1317,0,0
791,-293,0,0,0,0,0,0,0,0,0,-1,2015,1317,0,0
798,-293,0,0,0,0,0,0,0,0,0,-1,2022,1317,0,0
805,-293,0,0,0,0,0,0,0,0,0,-1,2029,1317,0,0
812,-293,0,0,0,0,0,0,0,0,0,-1,2036,1317,0,0
-700,-300,0,0,0,0,0,0,0,0,0,-1,524,1324,0,0
-693,-300,0,0,0,0,0,0,0,0,0,-1,531,1324,0,0
-686,-300,0,0,0,0,0,0,0,0,0,-1,538,1324,0,0
-679,-300,0,0,0,0,0,0,0,0,0,-1,545,1324,0,0
-672,-300,0,0,0,0,0,0,0,0,0,-1,552,1324,0,0
-665,-300,0,0,0,0,0,0,0,0,0,-1,559,1324,0,0
-658,-300,0,0,0,0,0,0,0,0,0,-1,566,1324,0,0
-651,-300,-39.1017,2.25647,0,0,0,0,0,0,0,-1,573,1324,-39.1017,-2.25649
-644,-300,-39.5129,1.53003,0,0,0,0,0,0,0,-1,580,1324,-39.5129,-1.53009
-637,-300,-24.088,-5.12695,0,0,0,0,0,0,0,-1,587,1324,-24.088,5.12694
-630,-300,-21.1108,2.26306,0,0,0,0,0,0,0,-1,594,1324,-21.1109,-2.2631
-623,-300,-12.7067,1.48462,0,0,0,0,0,0,0,-1,601,1324,-12.7067,-1.48462
-616,-300,-14.9988,1.68628,0,0,0,0,0,0,0,-1,608,1324,-14.9988,-1.68627
-609,-300,-15.5027,3.29907,0,0,0,0,0,0,0,-1,615,1324,-15.5027,-3.29902
-602,-300,-21.5833,4.97021,0,0,0,0,0,0,0,-1,622,1324,-21.5832,-4.97016
-595,-300,-21.7808,5.90784,0.00501193,0.0047287,0.00361852,0.00849161,0.00124902,0.76584,0.00529407,0.0352592,629,1324,-21.7808,-5.90787
-588,-300,-21.7138,6.54041,0.0038374,0.00327314,0.00254832,0.00611916,0.000991385,0.730267,0.00379242,0.0200951,636,1324,-21.7138,-6.54045
-581,-300,-21.7314,7.11829,0.00327493,0.00220924,0.00191971,0.00473437,0.000749806,0.650023,0.00293838,0.0210142,643,1324,-21.7314,-7.11827
-574,-300,-21.7347,7.6897,0.00315894,0.00144621,0.00163803,0.00415095,0.000454193,0.544537,0.00262901,0.0161722,650,1324,-21.7348,-7.68964
-567,-300,-21.7709,8.25391,0.00341183,0.000925652,0.00164419,0.00422996,0.000107523,0.461717,0.00278482,0.0162086,657,1324,-21.771,-8.25389
-560,-300,-21.8168,8.85352,0.00404697,0.000589126,0.00191265,0.00489631,-0.000260211,0.417905,0.00335431,0.0157391,664,1324,-21.8168,-8.85355
-553,-300,-21.8214,9.43762,0.00508857,0.000470029,0.00246473,0.00615682,-0.000598222,0.408976,0.00431779,0.0111438,671,1324,-21.8214,-9.43764
-546,-300,-21.8344,10.01,0.00649559,0.00062428,0.00332575,0.007996,-0.000876131,0.42381,0.00564542,0.00985062,678,1324,-21.8344,-10.01
-539,-300,-21.7963,10.6293,0.00852061,0.000747777,0.00460905,0.0106631,-0.0013947,0.435127,0.00761631,0.0229545,685,1324,-21.7963,-10.6292
-532,-300,-21.7312,11.2218,0,0,0,0,0,0,0,-1,692,1324,-21.7312,-11.2218
-525,-300,-13.5115,6.27783,0,0,0,0,0,0,0,-1,699,1324,-13.5115,-6.2778
-518,-300,-9.8349,-0.537109,0,0,0,0,0,0,0,-1,706,1324,-9.83487,0.537068
-511,-300,-12.8644,0.081665,0,0,0,0,0,0,0,-1,713,1324,-12.8644,-0.0817016
-504,-300,-13.4829,-0.165527,0,0,0,0,0,0,0,-1,720,1324,-13.4829,0.165544
-497,-300,-18.1063,0.956543,0,0,0,0,0,0,0,-1,727,1324,-18.1063,-0.9565
-490,-300,-18.2293,1.53625,0,0,0,0,0,0,0,-1,734,1324,-18.2293,-1.53626
-483,-300,-18.3522,1.61084,0,0,0,0,0,0,0,-1,741,1324,-18.3522,-1.6108
-476,-300,-18.7489,1.96387,0,0,0,0,0,0,0,-1,748,1324,-18.7489,-1.96387
-469,-300,0,0,0,0,0,0,0,0,0,-1,755,1324,0,0
-462,-300,0,0,0,0,0,0,0,0,0,-1,762,1324,0,0
-455,-300,0,0,0,0,0,0,0,0,0,-1,769,1324,0,0
-448,-300,0,0,0,0,0,0,0,0,0,-1,776,1324,0,0
-441,-300,0,0,0,0,0,0,0,0,0,-1,783,1324,0,0
-434,-300,0,0,0,0,0,0,0,0,0,-1,790,1324,0,0
-427,-300,0,0,0,0,0,0,0,0,0,-1,797,1324,0,0
-420,-300,0,0,0,0,0,0,0,0,0,-1,804,1324,0,0
-413,-300,0,0,0,0,0,0,0,0,0,-1,811,1324,0,0
-406,-300,0,0,0,0,0,0,0,0,0,-1,818,1324,0,0
-399,-300,0,0,0,0,0,0,0,0,0,-1,825,1324,0,0
-392,-300,0,0,0,0,0,0,0,0,0,-1,832,1324,0,0
-385,-300,0,0,0,0,0,0,0,0,0,-1,839,1324,0,0
-378,-300,0,0,0,0,0,0,0,0,0,-1,846,1324,0,0
-371,-300,0,0,0,0,0,0,0,0,0,-1,853,1324,0,0
-364,-300,0,0,0,0,0,0,0,0,0,-1,860,1324,0,0
-357,-300,0,0,0,0,0,0,0,0,0,-1,867,1324,0,0
-350,-300,0,0,0,0,0,0,0,0,0,-1,874,1324,0,0
-343,-300,0,0,0,0,0,0,0,0,0,-1,881,1324,0,0
-336,-300,0,0,0,0,0,0,0,0,0,-1,888,1324,0,0
-329,-300,0,0,0,0,0,0,0,0,0,-1,895,1324,0,0
-322,-300,0,0,0,0,0,0,0,0,0,-1,902,1324,0,0
-315,-300,0,0,0,0,0,0,0,0,0,-1,909,1324,0,0
-308,-300,0,0,0,0,0,0,0,0,0,-1,916,1324,0,0
-301,-300,0,0,0,0,0,0,0,0,0,-1,923,1324,0,0
-294,-300,0,0,0,0,0,0,0,0,0,-1,930,1324,0,0
-287,-300,0,0,0,0,0,0,0,0,0,-1,937,1324,0,0
-280,-300,0,0,0,0,0,0,0,0,0,-1,944,1324,0,0
-273,-300,0,0,0,0,0,0,0,0,0,-1,951,1324,0,0
-266,-300,0,0,0,0,0,0,0,0,0,-1,958,1324,0,0
-259,-300,0,0,0,0,0,0,0,0,0,-1,965,1324,0,0
-252,-300,0,0,0,0,0,0,0,0,0,-1,972,1324,0,0
-245,-300,0,0,0,0,0,0,0,0,0,-1,979,1324,0,0
-238,-300,0,0,0,0,0,0,0,0,0,-1,986,1324,0,0
-231,-300,0,0,0,0,0,0,0,0,0,-1,993,1324,0,0
-224,-300,0,0,0,0,0,0,0,0,0,-1,1000,1324,0,0
-217,-300,0,0,0,0,0,0,0,0,0,-1,1007,1324,0,0
-210,-300,0,0,0,0,0,0,0,0,0,-1,1014,1324,0,0
-203,-300,0,0,0,0,0,0,0,0,0,-1,1021,1324,0,0
-196,-300,0,0,0,0,0,0,0,0,0,-1,1028,1324,0,0
-189,-300,0,0,0,0,0,0,0,0,0,-1,1035,1324,0,0
-182,-300,0,0,0,0,0,0,0,0,0,-1,1042,1324,0,0
-175,-300,0,0,0,0,0,0,0,0,0,-1,1049,1324,0,0
-168,-300,0,0,0,0,0,0,0,0,0,-1,1056,1324,0,0
-161,-300,0,0,0,0,0,0,0,0,0,-1,1063,1324,0,0
-154,-300,0,0,0,0,0,0,0,0,0,-1,1070,1324,0,0
-147,-300,0,0,0,0,0,0,0,0,0,-1,1077,1324,0,0
-140,-300,0,0,0,0,0,0,0,0,0,-1,1084,1324,0,0
-133,-300,0,0,0,0,0,0,0,0,0,-1,1091,1324,0,0
-126,-300,0,0,0,0,0,0,0,0,0,-1,1098,1324,0,0
-119,-300,0,0,0,0,0,0,0,0,0,-1,1105,1324,0,0
-112,-300,0,0,0,0,0,0,0,0,0,-1,1112,1324,0,0
-105,-300,0,0,0,0,0,0,0,0,0,-1,1119,1324,0,0
-98,-300,0,0,0,0,0,0,0,0,0,-1,1126,1324,0,0
-91,-300,0,0,0,0,0,0,0,0,0,-1,1133,1324,0,0
-84,-300,0,0,0,0,0,0,0,0,0,-1,1140,1324,0,0
-77,-300,0,0,0,0,0,0,0,0,0,-1,1147,1324,0,0
-70,-300,0,0,0,0,0,0,0,0,0,-1,1154,1324,0,0
-63,-300,0,0,0,0,0,0,0,0,0,-1,1161,1324,0,0
-56,-300,0,0,0,0,0,0,0,0,0,-1,1168,1324,0,0
-49,-300,0,0,0,0,0,0,0,0,0,-1,1175,1324,0,0
-42,-300,0,0,0,0,0,0,0,0,0,-1,1182,1324,0,0
-35,-300,0,0,0,0,0,0,0,0,0,-1,1189,1324,0,0
-28,-300,0,0,0,0,0,0,0,0,0,-1,1196,1324,0,0
-21,-300,0,0,0,0,0,0,0,0,0,-1,1203,1324,0,0
-14,-300,0,0,0,0,0,0,0,0,0,-1,1210,1324,0,0
-7,-300,0,0,0,0,0,0,0,0,0,-1,1217,1324,0,0
0,-300,0,0,0,0,0,0,0,0,0,-1,1224,1324,0,0
7,-300,0,0,0,0,0,0,0,0,0,-1,1231,1324,0,0
14,-300,0,0,0,0,0,0,0,0,0,-1,1238,1324,0,0
21,-300,0,0,0,0,0,0,0,0,0,-1,1245,1324,0,0
28,-300,0,0,0,0,0,0,0,0,0,-1,1252,1324,0,0
35,-300,0,0,0,0,0,0,0,0,0,-1,1259,1324,0,0
42,-300,0,0,0,0,0,0,0,0,0,-1,1266,1324,0,0
49,-300,0,0,0,0,0,0,0,0,0,-1,1273,1324,0,0
56,-300,0,0,0,0,0,0,0,0,0,-1,1280,1324,0,0
63,-300,0,0,0,0,0,0,0,0,0,-1,1287,1324,0,0
70,-300,0,0,0,0,0,0,0,0,0,-1,1294,1324,0,0
77,-300,0,0,0,0,0,0,0,0,0,-1,1301,1324,0,0
84,-300,0,0,0,0,0,0,0,0,0,-1,1308,1324,0,0
91,-300,0,0,0,0,0,0,0,0,0,-1,1315,1324,0,0
98,-300,0,0,0,0,0,0,0,0,0,-1,1322,1324,0,0
105,-300,0,0,0,0,0,0,0,0,0,-1,1329,1324,0,0
112,-300,0,0,0,0,0,0,0,0,0,-1,1336,1324,0,0
119,-300,0,0,0,0,0,0,0,0,0,-1,1343,1324,0,0
126,-300,0,0,0,0,0,0,0,0,0,-1,1350,1324,0,0
133,-300,0,0,0,0,0,0,0,0,0,-1,1357,1324,0,0
140,-300,0,0,0,0,0,0,0,0,0,-1,1364,1324,0,0
147,-300,0,0,0,0,0,0,0,0,0,-1,1371,1324,0,0
154,-300,0,0,0,0,0,0,0,0,0,-1,1378,1324,0,0
161,-300,0,0,0,0,0,0,0,0,0,-1,1385,1324,0,0
168,-300,0,0,0,0,0,0,0,0,0,-1,1392,1324,0,0
175,-300,0,0,0,0,0,0,0,0,0,-1,1399,1324,0,0
182,-300,0,0,0,0,0,0,0,0,0,-1,1406,1324,0,0
189,-300,0,0,0,0,0,0,0,0,0,-1,1413,1324,0,0
196,-300,0,0,0,0,0,0,0,0,0,-1,1420,1324,0,0
203,-300,0,0,0,0,0,0,0,0,0,-1,1427,1324,0,0
210,-300,0,0,0,0,0,0,0,0,0,-1,1434,1324,0,0
217,-300,0,0,0,0,0,0,0,0,0,-1,1441,1324,0,0
224,-300,0,0,0,0,0,0,0,0,0,-1,1448,1324,0,0
231,-300,0,0,0,0,0,0,0,0,0,-1,1455,1324,0,0
238,-300,0,0,0,0,0,0,0,0,0,-1,1462,1324,0,0
245,-300,0,0,0,0,0,0,0,0,0,-1,1469,1324,0,0
252,-300,0,0,0,0,0,0,0,0,0,-1,1476,1324,0,0
259,-300,0,0,0,0,0,0,0,0,0,-1,1483,1324,0,0
266,-300,0,0,0,0,0,0,0,0,0,-1,1490,1324,0,0
273,-300,0,0,0,0,0,0,0,0,0,-1,1497,1324,0,0
280,-300,0,0,0,0,0,0,0,0,0,-1,1504,1324,0,0
287,-300,0,0,0,0,0,0,0,0,0,-1,1511,1324,0,0
294,-300,0,0,0,0,0,0,0,0,0,-1,1518,1324,0,0
301,-300,0,0,0,0,0,0,0,0,0,-1,1525,1324,0,0
308,-300,0,0,0,0,0,0,0,0,0,-1,1532,1324,0,0
315,-300,0,0,0,0,0,0,0,0,0,-1,1539,1324,0,0
322,-300,0,0,0,0,0,0,0,0,0,-1,1546,1324,0,0
329,-300,0,0,0,0,0,0,0,0,0,-1,1553,1324,0,0
336,-300,0,0,0,0,0,0,0,0,0,-1,1560,1324,0,0
343,-300,0,0,0,0,0,0,0,0,0,-1,1567,1324,0,0
350,-300,0,0,0,0,0,0,0,0,0,-1,1574,1324,0,0
357,-300,0,0,0,0,0,0,0,0,0,-1,1581,1324,0,0
364,-300,0,0,0,0,0,0,0,0,0,-1,1588,1324,0,0
371,-300,0,0,0,0,0,0,0,0,0,-1,1595,1324,0,0
378,-300,0,0,0,0,0,0,0,0,0,-1,1602,1324,0,0
385,-300,0,0,0,0,0,0,0,0,0,-1,1609,1324,0,0
392,-300,0,0,0,0,0,0,0,0,0,-1,1616,1324,0,0
399,-300,0,0,0,0,0,0,0,0,0,-1,1623,1324,0,0
406,-300,0,0,0,0,0,0,0,0,0,-1,1630,1324,0,0
413,-300,0,0,0,0,0,0,0,0,0,-1,1637,1324,0,0
420,-300,0,0,0,0,0,0,0,0,0,-1,1644,1324,0,0
427,-300,0,0,0,0,0,0,0,0,0,-1,1651,1324,0,0
434,-300,0,0,0,0,0,0,0,0,0,-1,1658,1324,0,0
441,-300,0,0,0,0,0,0,0,0,0,-1,1665,1324,0,0
448,-300,0,0,0,0,0,0,0,0,0,-1,1672,1324,0,0
455,-300,0,0,0,0,0,0,0,0,0,-1,1679,1324,0,0
462,-300,0,0,0,0,0,0,0,0,0,-1,1686,1324,0,0
469,-300,0,0,0,0,0,0,0,0,0,-1,1693,1324,0,0
476,-300,0,0,0,0,0,0,0,0,0,-1,1700,1324,0,0
483,-300,0,0,0,0,0,0,0,0,0,-1,1707,1324,0,0
490,-300,0,0,0,0,0,0,0,0,0,-1,1714,1324,0,0
497,-300,0,0,0,0,0,0,0,0,0,-1,1721,1324,0,0
504,-300,0,0,0,0,0,0,0,0,0,-1,1728,1324,0,0
511,-300,0,0,0,0,0,0,0,0,0,-1,1735,1324,0,0
518,-300,0,0,0,0,0,0,0,0,0,-1,1742,1324,0,0
525,-300,0,0,0,0,0,0,0,0,0,-1,1749,1324,0,0
532,-300,0,0,0,0,0,0,0,0,0,-1,1756,1324,0,0
539,-300,0,0,0,0,0,0,0,0,0,-1,1763,1324,0,0
546,-300,0,0,0,0,0,0,0,0,0,-1,1770,1324,0,0
553,-300,0,0,0,0,0,0,0,0,0,-1,1777,1324,0,0
560,-300,0,0,0,0,0,0,0,0,0,-1,1784,1324,0,0
567,-300,0,0,0,0,0,0,0,0,0,-1,1791,1324,0,0
574,-300,0,0,0,0,0,0,0,0,0,-1,1798,1324,0,0
581,-300,0,0,0,0,0,0,0,0,0,-1,1805,1324,0,0
588,-300,54.0984,2.25806,0,0,0,0,0,0,0,-1,1812,1324,54.0984,-2.25804
595,-300,54.0885,1.7854,0,0,0,0,0,0,0,-1,1819,1324,54.0885,-1.78538
602,-300,54.2118,1.47949,0,0,0,0,0,0,0,-1,1826,1324,54.2117,-1.47949
609,-300,54.3003,1.17566,0,0,0,0,0,0,0,-1,1833,1324,54.3003,-1.1757
616,-300,52.51,3.68799,0,0,0,0,0,0,0,-1,1840,1324,52.51,-3.68802
623,-300,47.4474,2.43188,0,0,0,0,0,0,0,-1,1847,1324,47.4474,-2.43194
630,-300,42.4099,3.9165,0,0,0,0,0,0,0,-1,1854,1324,42.4099,-3.91649
637,-300,31.1719,4.6366,0,0,0,0,0,0,0,-1,1861,1324,31.1718,-4.63665
644,-300,22.9836,3.44934,0,0,0,0,0,0,0,-1,1868,1324,22.9836,-3.4493
651,-300,25.5004,9.11853,0,0,0,0,0,0,0,-1,1875,1324,25.5004,-9.11851
658,-300,25.4012,9.20032,0,0,0,0,0,0,0,-1,1882,1324,25.4012,-9.20036
665,-300,37.0837,13.0964,0,0,0,0,0,0,0,-1,1889,1324,37.0837,-13.0964
672,-300,36.9708,12.5825,0.000611384,0.000654885,-0.00143705,0.00207035,-0.000804078,-0.792965,0.00171239,0.0264942,1896,1324,36.9708,-12.5825
679,-300,36.9778,12.0013,0.000187136,-0.000396129,-0.000716707,0.000669272,-0.000878265,-0.592175,0.000896183,0.0133705,1903,1324,36.9777,-12.0013
686,-300,36.9492,11.4788,0.000450469,-0.00103827,-0.000193109,0.00047511,-0.00106291,-0.126915,0.000909338,0.0138398,1910,1324,36.9492,-11.4788
693,-300,36.9125,10.9552,0.000667671,-0.000769935,0.000239768,0.000706606,-0.00080887,0.16098,0.000875624,0.0109329,1917,1324,36.9125,-10.9552
700,-300,36.8896,10.3967,0.0003735,-0.000526341,0.000604992,0.000677531,-0.000830373,0.465676,0.000872078,0.0120817,1924,1324,36.8896,-10.3967
707,-300,36.8938,9.84521,-0.000134966,-0.000544932,0.00098402,0.000665194,-0.00134509,0.682711,0.00118256,0.00882351,1931,1324,36.8938,-9.84518
714,-300,36.8989,9.3418,-0.000866104,-0.0006026,0.00144902,0.000720646,-0.00218935,0.830736,0.00174996,0.0100849,1938,1324,36.8989,-9.34177
721,-300,36.8813,8.81274,-0.00187053,-0.000701819,0.00201664,0.00081342,-0.00338577,0.926419,0.00257156,0.011484,1945,1324,36.8813,-8.8127
728,-300,36.879,8.25403,-0.00322233,-0.00076198,0.0026284,0.00090988,-0.00489419,1.00427,0.00360457,0.0170833,1952,1324,36.8791,-8.25397
735,-300,36.7019,7.94446,-0.00507753,-0.000764329,0.00330638,0.00102661,-0.00686847,1.07438,0.00495675,0.0336065,1959,1324,36.7019,-7.9445
742,-300,36.6831,7.46887,0,0,0,0,0,0,0,-1,1966,1324,36.6831,-7.46892
749,-300,27.4065,5.9718,0,0,0,0,0,0,0,-1,1973,1324,27.4065,-5.97181
756,-300,22.1423,3.45642,0,0,0,0,0,0,0,-1,1980,1324,22.1423,-3.45638
763,-300,22.6136,5.1571,0,0,0,0,0,0,0,-1,1987,1324,22.6136,-5.15706
770,-300,24.859,4.77979,0,0,0,0,0,0,0,-1,1994,1324,24.859,-4.77972
777,-300,0,0,0,0,0,0,0,0,0,-1,2001,1324,0,0
784,-300,0,0,0,0,0,0,0,0,0,-1,2008,1324,0,0
791,-300,0,0,0,0,0,0,0,0,0,-1,2015,1324,0,0
798,-300,0,0,0,0,0,0,0,0,0,-1,2022,1324,0,0
805,-300,0,0,0,0,0,0,0,0,0,-1,2029,1324,0,0
812,-300,0,0,0,0,0,0,0,0,0,-1,2036,1324,0,0
-700,-307,0,0,0,0,0,0,0,0,0,-1,524,1331,0,0
-693,-307,0,0,0,0,0,0,0,0,0,-1,531,1331,0,0
-686,-307,0,0,0,0,0,0,0,0,0,-1,538,1331,0,0
-679,-307,0,0,0,0,0,0,0,0,0,-1,545,1331,0,0
-672,-307,0,0,0,0,0,0,0,0,0,-1,552,1331,0,0
-665,-307,0,0,0,0,0,0,0,0,0,-1,559,1331,0,0
-658,-307,0,0,0,0,0,0,0,0,0,-1,566,1331,0,0
-651,-307,-39.5316,2.82068,0,0,0,0,0,0,0,-1,573,1331,-39.5316,-2.82062
-644,-307,-39.322,2.05688,0,0,0,0,0,0,0,-1,580,1331,-39.3219,-2.05683
-637,-307,-21.0822,1.21277,0,0,0,0,0,0,0,-1,587,1331,-21.0821,-1.21273
-630,-307,-12.0005,0.767212,0,0,0,0,0,0,0,-1,594,1331,-12.0005,-0.767266
-623,-307,-12.2128,2.93811,0,0,0,0,0,0,0,-1,601,1331,-12.2128,-2.93813
-616,-307,-12.6612,2.08289,0,0,0,0,0,0,0,-1,608,1331,-12.6612,-2.08293
-609,-307,-12.2767,1.83228,0,0,0,0,0,0,0,-1,615,1331,-12.2768,-1.83224
-602,-307,-21.2289,5.23413,0,0,0,0,0,0,0,-1,622,1331,-21.2289,-5.23417
-595,-307,-21.2721,5.94714,0.00546825,0.00491961,0.00399352,0.00919686,0.001191,0.751106,0.00577532,0.0467665,629,1331,-21.2721,-5.94712
-588,-307,-21.1487,6.58496,0.00409325,0.00338868,0.00271865,0.00648235,0.000999587,0.720966,0.0040299,0.0214365,636,1331,-21.1487,-6.58496
-581,-307,-21.1351,7.1532,0.00336064,0.00230386,0.00193597,0.00483903,0.000825464,0.652175,0.00298911,0.0163462,643,1331,-21.1351,-7.15319
-574,-307,-21.1495,7.70227,0.00308042,0.00152707,0.0015418,0.00403012,0.00057737,0.552078,0.00251646,0.0135243,650,1331,-21.1496,-7.70225
-567,-307,-21.1859,8.27698,0.00317469,0.000990531,0.00144439,0.00389339,0.000271839,0.461706,0.00250989,0.0134394,657,1331,-21.1859,-8.27704
-560,-307,-21.2018,8.87256,0.00360272,0.00062229,0.00159581,0.00429593,-7.09177e-05,0.4098,0.00288788,0.0141707,664,1331,-21.2018,-8.87256
-553,-307,-21.2267,9.45544,0.00437688,0.000429785,0.00199235,0.00520768,-0.000401015,0.39507,0.00361289,0.0113177,671,1331,-21.2267,-9.45541
-546,-307,-21.2531,10.0327,0.00552207,0.000444778,0.00268791,0.00668067,-0.000713816,0.406975,0.00470978,0.0110438,678,1331,-21.2531,-10.0327
-539,-307,-21.2477,10.6542,0.0071886,0.000467476,0.00373708,0.00885389,-0.00119781,0.419198,0.0063397,0.0164111,685,1331,-21.2477,-10.6541
-532,-307,-21.2338,11.2817,0,0,0,0,0,0,0,-1,692,1331,-21.2338,-11.2817
-525,-307,-13.2009,6.91309,0,0,0,0,0,0,0,-1,699,1331,-13.2009,-6.9131
-518,-307,-9.77777,-1.56653,0,0,0,0,0,0,0,-1,706,1331,-9.77777,1.56651
-511,-307,-12.5226,0.26709,0,0,0,0,0,0,0,-1,713,1331,-12.5226,-0.267038
-504,-307,-12.5913,-0.308105,0,0,0,0,0,0,0,-1,720,1331,-12.5913,0.308124
-497,-307,-13.8586,-0.115845,0,0,0,0,0,0,0,-1,727,1331,-13.8587,0.115861
-490,-307,-17.9429,0.982178,0,0,0,0,0,0,0,-1,734,1331,-17.9429,-0.982198
-483,-307,-18.1066,0.927612,0,0,0,0,0,0,0,-1,741,1331,-18.1066,-0.927609
-476,-307,-18.1288,1.1228,0,0,0,0,0,0,0,-1,748,1331,-18.1289,-1.12286
-469,-307,-18.2028,0.798584,0,0,0,0,0,0,0,-1,755,1331,-18.2027,-0.798546
-462,-307,0,0,0,0,0,0,0,0,0,-1,762,1331,0,0
-455,-307,0,0,0,0,0,0,0,0,0,-1,769,1331,0,0
-448,-307,0,0,0,0,0,0,0,0,0,-1,776,1331,0,0
-441,-307,0,0,0,0,0,0,0,0,0,-1,783,1331,0,0
-434,-307,0,0,0,0,0,0,0,0,0,-1,790,1331,0,0
-427,-307,0,0,0,0,0,0,0,0,0,-1,797,1331,0,0
-420,-307,0,0,0,0,0,0,0,0,0,-1,804,1331,0,0
-413,-307,0,0,0,0,0,0,0,0,0,-1,811,1331,0,0
-406,-307,0,0,0,0,0,0,0,0,0,-1,818,1331,0,0
-399,-307,0,0,0,0,0,0,0,0,0,-1,825,1331,0,0
-392,-307,0,0,0,0,0,0,0,0,0,-1,832,1331,0,0
-385,-307,0,0,0,0,0,0,0,0,0,-1,839,1331,0,0
-378,-307,0,0,0,0,0,0,0,0,0,-1,846,1331,0,0
-371,-307,0,0,0,0,0,0,0,0,0,-1,853,1331,0,0
-364,-307,0,0,0,0,0,0,0,0,0,-1,860,1331,0,0
-357,-307,0,0,0,0,0,0,0,0,0,-1,867,1331,0,0
-350,-307,0,0,0,0,0,0,0,0,0,-1,874,1331,0,0
-343,-307,0,0,0,0,0,0,0,0,0,-1,881,1331,0,0
-336,-307,0,0,0,0,0,0,0,0,0,-1,888,1331,0,0
-329,-307,0,0,0,0,0,0,0,0,0,-1,895,1331,0,0
-322,-307,0,0,0,0,0,0,0,0,0,-1,902,1331,0,0
-315,-307,0,0,0,0,0,0,0,0,0,-1,909,1331,0,0
-308,-307,0,0,0,0,0,0,0,0,0,-1,916,1331,0,0
-301,-307,0,0,0,0,0,0,0,0,0,-1,923,1331,0,0
-294,-307,0,0,0,0,0,0,0,0,0,-1,930,1331,0,0
-287,-307,0,0,0,0,0,0,0,0,0,-1,937,1331,0,0
-280,-307,0,0,0,0,0,0,0,0,0,-1,944,1331,0,0
-273,-307,0,0,0,0,0,0,0,0,0,-1,951,1331,0,0
-266,-307,0,0,0,0,0,0,0,0,0,-1,958,1331,0,0
-259,-307,0,0,0,0,0,0,0,0,0,-1,965,1331,0,0
-252,-307,0,0,0,0,0,0,0,0,0,-1,972,1331,0,0
-245,-307,0,0,0,0,0,0,0,0,0,-1,979,1331,0,0
-238,-307,0,0,0,0,0,0,0,0,0,-1,986,1331,0,0
-231,-307,0,0,0,0,0,0,0,0,0,-1,993,1331,0,0
-224,-307,0,0,0,0,0,0,0,0,0,-1,1000,1331,0,0
-217,-307,0,0,0,0,0,0,0,0,0,-1,1007,1331,0,0
-210,-307,0,0,0,0,0,0,0,0,0,-1,1014,1331,0,0
-203,-307,0,0,0,0,0,0,0,0,0,-1,1021,1331,0,0
-196,-307,0,0,0,0,0,0,0,0,0,-1,1028,1331,0,0
-189,-307,0,0,0,0,0,0,0,0,0,-1,1035,1331,0,0
-182,-307,0,0,0,0,0,0,0,0,0,-1,1042,1331,0,0
-175,-307,0,0,0,0,0,0,0,0,0,-1,1049,1331,0,0
-168,-307,0,0,0,0,0,0,0,0,0,-1,1056,1331,0,0
-161,-307,0,0,0,0,0,0,0,0,0,-1,1063,1331,0,0
-154,-307,0,0,0,0,0,0,0,0,0,-1,1070,1331,0,0
-147,-307,0,0,0,0,0,0,0,0,0,-1,1077,1331,0,0
-140,-307,0,0,0,0,0,0,0,0,0,-1,1084,1331,0,0
-133,-307,0,0,0,0,0,0,0,0,0,-1,1091,1331,0,0
-126,-307,0,0,0,0,0,0,0,0,0,-1,1098,1331,0,0
-119,-307,0,0,0,0,0,0,0,0,0,-1,1105,1331,0,0
-112,-307,0,0,0,0,0,0,0,0,0,-1,1112,1331,0,0
-105,-307,0,0,0,0,0,0,0,0,0,-1,1119,1331,0,0
-98,-307,0,0,0,0,0,0,0,0,0,-1,1126,1331,0,0
-91,-307,0,0,0,0,0,0,0,0,0,-1,1133,1331,0,0
-84,-307,0,0,0,0,0,0,0,0,0,-1,1140,1331,0,0
-77,-307,0,0,0,0,0,0,0,0,0,-1,1147,1331,0,0
-70,-307,0,0,0,0,0,0,0,0,0,-1,1154,1331,0,0
-63,-307,0,0,0,0,0,0,0,0,0,-1,1161,1331,0,0
-56,-307,0,0,0,0,0,0,0,0,0,-1,1168,1331,0,0
-49,-307,0,0,0,0,0,0,0,0,0,-1,1175,1331,0,0
-42,-307,0,0,0,0,0,0,0,0,0,-1,1182,1331,0,0
-35,-307,0,0,0,0,0,0,0,0,0,-1,1189,1331,0,0
-28,-307,0,0,0,0,0,0,0,0,0,-1,1196,1331,0,0
-21,-307,0,0,0,0,0,0,0,0,0,-1,1203,1331,0,0
-14,-307,0,0,0,0,0,0,0,0,0,-1,1210,1331,0,0
-7,-307,0,0,0,0,0,0,0,0,0,-1,1217,1331,0,0
0,-307,0,0,0,0,0,0,0,0,0,-1,1224,1331,0,0
7,-307,0,0,0,0,0,0,0,0,0,-1,1231,1331,0,0
14,-307,0,0,0,0,0,0,0,0,0,-1,1238,1331,0,0
21,-307,0,0,0,0,0,0,0,0,0,-1,1245,1331,0,0
28,-307,0,0,0,0,0,0,0,0,0,-1,1252,1331,0,0
35,-307,0,0,0,0,0,0,0,0,0,-1,1259,1331,0,0
42,-307,0,0,0,0,0,0,0,0,0,-1,1266,1331,0,0
49,-307,0,0,0,0,0,0,0,0,0,-1,1273,1331,0,0
56,-307,0,0,0,0,0,0,0,0,0,-1,1280,1331,0,0
63,-307,0,0,0,0,0,0,0,0,0,-1,1287,1331,0,0
70,-307,0,0,0,0,0,0,0,0,0,-1,1294,1331,0,0
77,-307,0,0,0,0,0,0,0,0,0,-1,1301,1331,0,0
84,-307,0,0,0,0,0,0,0,0,0,-1,1308,1331,0,0
91,-307,0,0,0,0,0,0,0,0,0,-1,1315,1331,0,0
98,-307,0,0,0,0,0,0,0,0,0,-1,1322,1331,0,0
105,-307,0,0,0,0,0,0,0,0,0,-1,1329,1331,0,0
112,-307,0,0,0,0,0,0,0,0,0,-1,1336,1331,0,0
119,-307,0,0,0,0,0,0,0,0,0,-1,1343,1331,0,0
126,-307,0,0,0,0,0,0,0,0,0,-1,1350,1331,0,0
133,-307,0,0,0,0,0,0,0,0,0,-1,1357,1331,0,0
140,-307,0,0,0,0,0,0,0,0,0,-1,1364,1331,0,0
147,-307,0,0,0,0,0,0,0,0,0,-1,1371,1331,0,0
154,-307,0,0,0,0,0,0,0,0,0,-1,1378,1331,0,0
161,-307,0,0,0,0,0,0,0,0,0,-1,1385,1331,0,0
168,-307,0,0,0,0,0,0,0,0,0,-1,1392,1331,0,0
175,-307,0,0,0,0,0,0,0,0,0,-1,1399,1331,0,0
182,-307,0,0,0,0,0,0,0,0,0,-1,1406,1331,0,0
189,-307,0,0,0,0,0,0,0,0,0,-1,1413,1331,0,0
196,-307,0,0,0,0,0,0,0,0,0,-1,1420,1331,0,0
203,-307,0,0,0,0,0,0,0,0,0,-1,1427,1331,0,0
210,-307,0,0,0,0,0,0,0,0,0,-1,1434,1331,0,0
217,-307,0,0,0,0,0,0,0,0,0,-1,1441,1331,0,0
224,-307,0,0,0,0,0,0,0,0,0,-1,1448,1331,0,0
231,-307,0,0,0,0,0,0,0,0,0,-1,1455,1331,0,0
238,-307,0,0,0,0,0,0,0,0,0,-1,1462,1331,0,0
245,-307,0,0,0,0,0,0,0,0,0,-1,1469,1331,0,0
252,-307,0,0,0,0,0,0,0,0,0,-1,1476,1331,0,0
259,-307,0,0,0,0,0,0,0,0,0,-1,1483,1331,0,0
266,-307,0,0,0,0,0,0,0,0,0,-1,1490,1331,0,0
273,-307,0,0,0,0,0,0,0,0,0,-1,1497,1331,0,0
280,-307,0,0,0,0,0,0,0,0,0,-1,1504,1331,0,0
287,-307,0,0,0,0,0,0,0,0,0,-1,1511,1331,0,0
294,-307,0,0,0,0,0,0,0,0,0,-1,1518,1331,0,0
301,-307,0,0,0,0,0,0,0,0,0,-1,1525,1331,0,0
308,-307,0,0,0,0,0,0,0,0,0,-1,1532,1331,0,0
315,-307,0,0,0,0,0,0,0,0,0,-1,1539,1331,0,0
322,-307,0,0,0,0,0,0,0,0,0,-1,1546,1331,0,0
329,-307,0,0,0,0,0,0,0,0,0,-1,1553,1331,0,0
336,-307,0,0,0,0,0,0,0,0,0,-1,1560,1331,0,0
343,-307,0,0,0,0,0,0,0,0,0,-1,1567,1331,0,0
350,-307,0,0,0,0,0,0,0,0,0,-1,1574,1331,0,0
357,-307,0,0,0,0,0,0,0,0,0,-1,1581,1331,0,0
364,-307,0,0,0,0,0,0,0,0,0,-1,1588,1331,0,0
371,-307,0,0,0,0,0,0,0,0,0,-1,1595,1331,0,0
378,-307,0,0,0,0,0,0,0,0,0,-1,1602,1331,0,0
385,-307,0,0,0,0,0,0,0,0,0,-1,1609,1331,0,0
392,-307,0,0,0,0,0,0,0,0,0,-1,1616,1331,0,0
399,-307,0,0,0,0,0,0,0,0,0,-1,1623,1331,0,0
406,-307,0,0,0,0,0,0,0,0,0,-1,1630,1331,0,0
413,-307,0,0,0,0,0,0,0,0,0,-1,1637,1331,0,0
420,-307,0,0,0,0,0,0,0,0,0,-1,1644,1331,0,0
427,-307,0,0,0,0,0,0,0,0,0,-1,1651,1331,0,0
434,-307,0,0,0,0,0,0,0,0,0,-1,1658,1331,0,0
441,-307,0,0,0,0,0,0,0,0,0,-1,1665,1331,0,0
448,-307,0,0,0,0,0,0,0,0,0,-1,1672,1331,0,0
455,-307,0,0,0,0,0,0,0,0,0,-1,1679,1331,0,0
462,-307,0,0,0,0,0,0,0,0,0,-1,1686,1331,0,0
469,-307,0,0,0,0,0,0,0,0,0,-1,1693,1331,0,0
476,-307,0,0,0,0,0,0,0,0,0,-1,1700,1331,0,0
483,-307,0,0,0,0,0,0,0,0,0,-1,1707,1331,0,0
490,-307,0,0,0,0,0,0,0,0,0,-1,1714,1331,0,0
497,-307,0,0,0,0,0,0,0,0,0,-1,1721,1331,0,0
504,-307,0,0,0,0,0,0,0,0,0,-1,1728,1331,0,0
511,-307,0,0,0,0,0,0,0,0,0,-1,1735,1331,0,0
518,-307,0,0,0,0,0,0,0,0,0,-1,1742,1331,0,0
525,-307,0,0,0,0,0,0,0,0,0,-1,1749,1331,0,0
532,-307,0,0,0,0,0,0,0,0,0,-1,1756,1331,0,0
539,-307,0,0,0,0,0,0,0,0,0,-1,1763,1331,0,0
546,-307,0,0,0,0,0,0,0,0,0,-1,1770,1331,0,0
553,-307,0,0,0,0,0,0,0,0,0,-1,1777,1331,0,0
560,-307,0,0,0,0,0,0,0,0,0,-1,1784,1331,0,0
567,-307,0,0,0,0,0,0,0,0,0,-1,1791,1331,0,0
574,-307,0,0,0,0,0,0,0,0,0,-1,1798,1331,0,0
581,-307,0,0,0,0,0,0,0,0,0,-1,1805,1331,0,0
588,-307,54.2791,1.93567,0,0,0,0,0,0,0,-1,1812,1331,54.279,-1.93565
595,-307,54.1335,1.44006,0,0,0,0,0,0,0,-1,1819,1331,54.1335,-1.44002
602,-307,54.3329,1.16211,0,0,0,0,0,0,0,-1,1826,1331,54.3329,-1.16205
609,-307,54.498,0.907837,0,0,0,0,0,0,0,-1,1833,1331,54.498,-0.907866
616,-307,48.0499,2.52173,0,0,0,0,0,0,0,-1,1840,1331,48.05,-2.52169
623,-307,44.3966,2.84888,0,0,0,0,0,0,0,-1,1847,1331,44.3966,-2.84884
630,-307,29.8116,1.51184,0,0,0,0,0,0,0,-1,1854,1331,29.8116,-1.51188
637,-307,24.6407,4.09106,0,0,0,0,0,0,0,-1,1861,1331,24.6407,-4.09103
644,-307,22.6885,5.80408,0,0,0,0,0,0,0,-1,1868,1331,22.6884,-5.80408
651,-307,17.5013,5.80078,0,0,0,0,0,0,0,-1,1875,1331,17.5014,-5.80072
658,-307,36.8584,13.7155,0,0,0,0,0,0,0,-1,1882,1331,36.8584,-13.7155
665,-307,36.5366,13.0795,0.00276686,0.00127535,-0.00187682,0.00404066,1.54646e-06,-0.596288,0.00269326,0.0489795,1889,1331,36.5366,-13.0795
672,-307,36.4517,12.5847,0.000602768,0.000766514,-0.000681863,0.0013714,-2.11952e-06,-0.845149,0.000914975,0.0168686,1896,1331,36.4517,-12.5847
679,-307,36.4286,12.0479,0.000331458,-0.000262067,-8.33605e-05,0.000342944,-0.000273553,-0.136921,0.000356685,0.0113278,1903,1331,36.4286,-12.0478
686,-307,36.3922,11.5176,0.000548793,-0.000833306,0.000214504,0.000581319,-0.000865831,0.150487,0.000840878,0.0105563,1910,1331,36.3922,-11.5176
693,-307,36.3776,10.968,0.000674647,-0.000701315,0.000431117,0.000798565,-0.000825233,0.27989,0.000937542,0.0111686,1917,1331,36.3776,-10.968
700,-307,36.3804,10.3975,0.000456719,-0.000584481,0.00065801,0.000775167,-0.000902929,0.45073,0.000969785,0.0127477,1924,1331,36.3804,-10.3974
707,-307,36.3687,9.85034,7.85759e-05,-0.000623709,0.000988599,0.000776542,-0.00132168,0.614752,0.00122496,0.0145984,1931,1331,36.3687,-9.85029
714,-307,36.3583,9.36853,-0.000514826,-0.000730136,0.00142364,0.00080522,-0.00205018,0.74766,0.0017,0.0136424,1938,1331,36.3583,-9.3685
721,-307,36.3751,8.85315,-0.00138899,-0.000940651,0.00201344,0.000861063,-0.0031907,0.840838,0.00246481,0.0178811,1945,1331,36.3751,-8.85315
728,-307,36.3153,8.48645,-0.00261515,-0.00116537,0.00266997,0.000876368,-0.00465688,0.917951,0.00343419,0.0471591,1952,1331,36.3153,-8.48645
735,-307,36.3728,7.82629,0,0,0,0,0,0,0,-1,1959,1331,36.3728,-7.82633
742,-307,26.677,6.09192,0,0,0,0,0,0,0,-1,1966,1331,26.677,-6.0919
749,-307,26.7727,5.9032,0,0,0,0,0,0,0,-1,1973,1331,26.7727,-5.90323
756,-307,27.1556,5.74756,0,0,0,0,0,0,0,-1,1980,1331,27.1557,-5.7475
763,-307,18.7522,3.55298,0,0,0,0,0,0,0,-1,1987,1331,18.7522,-3.55301
770,-307,0,0,0,0,0,0,0,0,0,-1,1994,1331,0,0
777,-307,0,0,0,0,0,0,0,0,0,-1,2001,1331,0,0
784,-307,0,0,0,0,0,0,0,0,0,-1,2008,1331,0,0
791,-307,0,0,0,0,0,0,0,0,0,-1,2015,1331,0,0
798,-307,0,0,0,0,0,0,0,0,0,-1,2022,1331,0,0
805,-307,0,0,0,0,0,0,0,0,0,-1,2029,1331,0,0
812,-307,0,0,0,0,0,0,0,0,0,-1,2036,1331,0,0
-700,-314,0,0,0,0,0,0,0,0,0,-1,524,1338,0,0
-693,-314,0,0,0,0,0,0,0,0,0,-1,531,1338,0,0
-686,-314,0,0,0,0,0,0,0,0,0,-1,538,1338,0,0
-679,-314,0,0,0,0,0,0,0,0,0,-1,545,1338,0,0
-672,-314,0,0,0,0,0,0,0,0,0,-1,552,1338,0,0
-665,-314,0,0,0,0,0,0,0,0,0,-1,559,1338,0,0
-658,-314,0,0,0,0,0,0,0,0,0,-1,566,1338,0,0
-651,-314,0,0,0,0,0,0,0,0,0,-1,573,1338,0,0
-644,-314,-20.9896,-0.0299072,0,0,0,0,0,0,0,-1,580,1338,-20.9896,0.0299587
-637,-314,-18.8677,6.62646,0,0,0,0,0,0,0,-1,587,1338,-18.8677,-6.62651
-630,-314,-13.2771,2.98938,0,0,0,0,0,0,0,-1,594,1338,-13.2771,-2.98943
-623,-314,-13.3542,3.00903,0,0,0,0,0,0,0,-1,601,1338,-13.3542,-3.00907
-616,-314,-9.93311,1.15088,0,0,0,0,0,0,0,-1,608,1338,-9.93308,-1.15093
-609,-314,-9.4361,2.86292,0,0,0,0,0,0,0,-1,615,1338,-9.43612,-2.86286
-602,-314,-11.8027,2.42798,0,0,0,0,0,0,0,-1,622,1338,-11.8027,-2.42802
-595,-314,-20.6938,5.58264,0,0,0,0,0,0,0,-1,629,1338,-20.6938,-5.58258
-588,-314,-20.6052,6.51758,0.0044827,0.00335798,0.00283337,0.00680897,0.0010317,0.687433,0.00423749,0.0336501,636,1338,-20.6052,-6.5176
-581,-314,-20.5444,7.14209,0.00355433,0.00230007,0.00191763,0.00494477,0.000909625,0.627363,0.00303902,0.0128948,643,1338,-20.5444,-7.14205
-574,-314,-20.5991,7.70203,0.00311524,0.00153442,0.00144801,0.00397452,0.000675143,0.535569,0.00245576,0.0131058,650,1338,-20.5991,-7.70207
-567,-314,-20.615,8.30542,0.00306495,0.0010008,0.00128423,0.00368043,0.000385321,0.446917,0.0023358,0.0152232,657,1338,-20.615,-8.30548
-560,-314,-20.6046,8.91016,0.0033555,0.000629142,0.00137535,0.00392877,5.58718e-05,0.394921,0.00260075,0.016299,664,1338,-20.6046,-8.9102
-553,-314,-20.6335,9.4884,0.00394882,0.000392192,0.00168258,0.00461866,-0.000277651,0.378872,0.00317571,0.0181534,671,1338,-20.6335,-9.48838
-546,-314,-20.6672,10.0684,0.00491822,0.00031823,0.00227445,0.0058529,-0.000616443,0.389906,0.0041228,0.0182913,678,1338,-20.6672,-10.0684
-539,-314,-20.6558,10.6709,0.00633659,0.000301998,0.00316672,0.00769333,-0.00105474,0.404778,0.0055142,0.0176413,685,1338,-20.6558,-10.6709
-532,-314,-20.6229,11.2408,0,0,0,0,0,0,0,-1,692,1338,-20.6229,-11.2409
-525,-314,-13.3017,7.50671,0,0,0,0,0,0,0,-1,699,1338,-13.3017,-7.50669
-518,-314,-8.52753,4.70032,0,0,0,0,0,0,0,-1,706,1338,-8.52755,-4.70034
-511,-314,-11.8597,0.384888,0,0,0,0,0,0,0,-1,713,1338,-11.8597,-0.384927
-504,-314,-11.4322,-0.187378,0,0,0,0,0,0,0,-1,720,1338,-11.4322,0.187381
-497,-314,-11.0047,-0.759644,0,0,0,0,0,0,0,-1,727,1338,-11.0047,0.759689
-490,-314,-18.5143,0.471069,0,0,0,0,0,0,0,-1,734,1338,-18.5143,-0.47103
-483,-314,-17.8528,0.577271,0,0,0,0,0,0,0,-1,741,1338,-17.8528,-0.577327
-476,-314,-17.714,0.665405,0,0,0,0,0,0,0,-1,748,1338,-17.714,-0.665388
-469,-314,-17.7246,0.794678,0,0,0,0,0,0,0,-1,755,1338,-17.7246,-0.794645
-462,-314,0,0,0,0,0,0,0,0,0,-1,762,1338,0,0
-455,-314,0,0,0,0,0,0,0,0,0,-1,769,1338,0,0
-448,-314,0,0,0,0,0,0,0,0,0,-1,776,1338,0,0
-441,-314,0,0,0,0,0,0,0,0,0,-1,783,1338,0,0
-434,-314,0,0,0,0,0,0,0,0,0,-1,790,1338,0,0
-427,-314,0,0,0,0,0,0,0,0,0,-1,797,1338,0,0
-420,-314,0,0,0,0,0,0,0,0,0,-1,804,1338,0,0
-413,-314,0,0,0,0,0,0,0,0,0,-1,811,1338,0,0
-406,-314,0,0,0,0,0,0,0,0,0,-1,818,1338,0,0
-399,-314,0,0,0,0,0,0,0,0,0,-1,825,1338,0,0
-392,-314,0,0,0,0,0,0,0,0,0,-1,832,1338,0,0
-385,-314,0,0,0,0,0,0,0,0,0,-1,839,1338,0,0
-378,-314,0,0,0,0,0,0,0,0,0,-1,846,1338,0,0
-371,-314,0,0,0,0,0,0,0,0,0,-1,853,1338,0,0
-364,-314,0,0,0,0,0,0,0,0,0,-1,860,1338,0,0
-357,-314,0,0,0,0,0,0,0,0,0,-1,867,1338,0,0
-350,-314,0,0,0,0,0,0,0,0,0,-1,874,1338,0,0
-343,-314,0,0,0,0,0,0,0,0,0,-1,881,1338,0,0
-336,-314,0,0,0,0,0,0,0,0,0,-1,888,1338,0,0
-329,-314,0,0,0,0,0,0,0,0,0,-1,895,1338,0,0
-322,-314,0,0,0,0,0,0,0,0,0,-1,902,1338,0,0
-315,-314,0,0,0,0,0,0,0,0,0,-1,909,1338,0,0
-308,-314,0,0,0,0,0,0,0,0,0,-1,916,1338,0,0
-301,-314,0,0,0,0,0,0,0,0,0,-1,923,1338,0,0
-294,-314,0,0,0,0,0,0,0,0,0,-1,930,1338,0,0
-287,-314,0,0,0,0,0,0,0,0,0,-1,937,1338,0,0
-280,-314,0,0,0,0,0,0,0,0,0,-1,944,1338,0,0
-273,-314,0,0,0,0,0,0,0,0,0,-1,951,1338,0,0
-266,-314,0,0,0,0,0,0,0,0,0,-1,958,1338,0,0
-259,-314,0,0,0,0,0,0,0,0,0,-1,965,1338,0,0
-252,-314,0,0,0,0,0,0,0,0,0,-1,972,1338,0,0
-245,-314,0,0,0,0,0,0,0,0,0,-1,979,1338,0,0
-238,-314,0,0,0,0,0,0,0,0,0,-1,986,1338,0,0
-231,-314,0,0,0,0,0,0,0,0,0,-1,993,1338,0,0
-224,-314,0,0,0,0,0,0,0,0,0,-1,1000,1338,0,0
-217,-314,0,0,0,0,0,0,0,0,0,-1,1007,1338,0,0
-210,-314,0,0,0,0,0,0,0,0,0,-1,1014,1338,0,0
-203,-314,0,0,0,0,0,0,0,0,0,-1,1021,1338,0,0
-196,-314,0,0,0,0,0,0,0,0,0,-1,1028,1338,0,0
-189,-314,0,0,0,0,0,0,0,0,0,-1,1035,1338,0,0
-182,-314,0,0,0,0,0,0,0,0,0,-1,1042,1338,0,0
-175,-314,0,0,0,0,0,0,0,0,0,-1,1049,1338,0,0
-168,-314,0,0,0,0,0,0,0,0,0,-1,1056,1338,0,0
-161,-314,0,0,0,0,0,0,0,0,0,-1,1063,1338,0,0
-154,-314,0,0,0,0,0,0,0,0,0,-1,1070,1338,0,0
-147,-314,0,0,0,0,0,0,0,0,0,-1,1077,1338,0,0
-140,-314,0,0,0,0,0,0,0,0,0,-1,1084,1338,0,0
-133,-314,0,0,0,0,0,0,0,0,0,-1,1091,1338,0,0
-126,-314,0,0,0,0,0,0,0,0,0,-1,1098,1338,0,0
-119,-314,0,0,0,0,0,0,0,0,0,-1,1105,1338,0,0
-112,-314,0,0,0,0,0,0,0,0,0,-1,1112,1338,0,0
-105,-314,0,0,0,0,0,0,0,0,0,-1,1119,1338,0,0
-98,-314,0,0,0,0,0,0,0,0,0,-1,1126,1338,0,0
-91,-314,0,0,0,0,0,0,0,0,0,-1,1133,1338,0,0
-84,-314,0,0,0,0,0,0,0,0,0,-1,1140,1338,0,0
-77,-314,0,0,0,0,0,0,0,0,0,-1,1147,1338,0,0
-70,-314,0,0,0,0,0,0,0,0,0,-1,1154,1338,0,0
-63,-314,0,0,0,0,0,0,0,0,0,-1,1161,1338,0,0
-56,-314,0,0,0,0,0,0,0,0,0,-1,1168,1338,0,0
-49,-314,0,0,0,0,0,0,0,0,0,-1,1175,1338,0,0
-42,-314,0,0,0,0,0,0,0,0,0,-1,1182,1338,0,0
-35,-314,0,0,0,0,0,0,0,0,0,-1,1189,1338,0,0
-28,-314,0,0,0,0,0,0,0,0,0,-1,1196,1338,0,0
-21,-314,0,0,0,0,0,0,0,0,0,-1,1203,1338,0,0
-14,-314,0,0,0,0,0,0,0,0,0,-1,1210,1338,0,0
-7,-314,0,0,0,0,0,0,0,0,0,-1,1217,1338,0,0
0,-314,0,0,0,0,0,0,0,0,0,-1,1224,1338,0,0
7,-314,0,0,0,0,0,0,0,0,0,-1,1231,1338,0,0
14,-314,0,0,0,0,0,0,0,0,0,-1,1238,1338,0,0
21,-314,0,0,0,0,0,0,0,0,0,-1,1245,1338,0,0
28,-314,0,0,0,0,0,0,0,0,0,-1,1252,1338,0,0
35,-314,0,0,0,0,0,0,0,0,0,-1,1259,1338,0,0
42,-314,0,0,0,0,0,0,0,0,0,-1,1266,1338,0,0
49,-314,0,0,0,0,0,0,0,0,0,-1,1273,1338,0,0
56,-314,0,0,0,0,0,0,0,0,0,-1,1280,1338,0,0
63,-314,0,0,0,0,0,0,0,0,0,-1,1287,1338,0,0
70,-314,0,0,0,0,0,0,0,0,0,-1,1294,1338,0,0
77,-314,0,0,0,0,0,0,0,0,0,-1,1301,1338,0,0
84,-314,0,0,0,0,0,0,0,0,0,-1,1308,1338,0,0
91,-314,0,0,0,0,0,0,0,0,0,-1,1315,1338,0,0
98,-314,0,0,0,0,0,0,0,0,0,-1,1322,1338,0,0
105,-314,0,0,0,0,0,0,0,0,0,-1,1329,1338,0,0
112,-314,0,0,0,0,0,0,0,0,0,-1,1336,1338,0,0
119,-314,0,0,0,0,0,0,0,0,0,-1,1343,1338,0,0
126,-314,0,0,0,0,0,0,0,0,0,-1,1350,1338,0,0
133,-314,0,0,0,0,0,0,0,0,0,-1,1357,1338,0,0
140,-314,0,0,0,0,0,0,0,0,0,-1,1364,1338,0,0
147,-314,0,0,0,0,0,0,0,0,0,-1,1371,1338,0,0
154,-314,0,0,0,0,0,0,0,0,0,-1,1378,1338,0,0
161,-314,0,0,0,0,0,0,0,0,0,-1,1385,1338,0,0
168,-314,0,0,0,0,0,0,0,0,0,-1,1392,1338,0,0
175,-314,0,0,0,0,0,0,0,0,0,-1,1399,1338,0,0
182,-314,0,0,0,0,0,0,0,0,0,-1,1406,1338,0,0
189,-314,0,0,0,0,0,0,0,0,0,-1,1413,1338,0,0
196,-314,0,0,0,0,0,0,0,0,0,-1,1420,1338,0,0
203,-314,0,0,0,0,0,0,0,0,0,-1,1427,1338,0,0
210,-314,0,0,0,0,0,0,0,0,0,-1,1434,1338,0,0
217,-314,0,0,0,0,0,0,0,0,0,-1,1441,1338,0,0
224,-314,0,0,0,0,0,0,0,0,0,-1,1448,1338,0,0
231,-314,0,0,0,0,0,0,0,0,0,-1,1455,1338,0,0
238,-314,0,0,0,0,0,0,0,0,0,-1,1462,1338,0,0
245,-314,0,0,0,0,0,0,0,0,0,-1,1469,1338,0,0
252,-314,0,0,0,0,0,0,0,0,0,-1,1476,1338,0,0
259,-314,0,0,0,0,0,0,0,0,0,-1,1483,1338,0,0
266,-314,0,0,0,0,0,0,0,0,0,-1,1490,1338,0,0
273,-314,0,0,0,0,0,0,0,0,0,-1,1497,1338,0,0
280,-314,0,0,0,0,0,0,0,0,0,-1,1504,1338,0,0
287,-314,0,0,0,0,0,0,0,0,0,-1,1511,1338,0,0
294,-314,0,0,0,0,0,0,0,0,0,-1,1518,1338,0,0
301,-314,0,0,0,0,0,0,0,0,0,-1,1525,1338,0,0
308,-314,0,0,0,0,0,0,0,0,0,-1,1532,1338,0,0
315,-314,0,0,0,0,0,0,0,0,0,-1,1539,1338,0,0
322,-314,0,0,0,0,0,0,0,0,0,-1,1546,1338,0,0
329,-314,0,0,0,0,0,0,0,0,0,-1,1553,1338,0,0
336,-314,0,0,0,0,0,0,0,0,0,-1,1560,1338,0,0
343,-314,0,0,0,0,0,0,0,0,0,-1,1567,1338,0,0
350,-314,0,0,0,0,0,0,0,0,0,-1,1574,1338,0,0
357,-314,0,0,0,0,0,0,0,0,0,-1,1581,1338,0,0
364,-314,0,0,0,0,0,0,0,0,0,-1,1588,1338,0,0
371,-314,0,0,0,0,0,0,0,0,0,-1,1595,1338,0,0
378,-314,0,0,0,0,0,0,0,0,0,-1,1602,1338,0,0
385,-314,0,0,0,0,0,0,0,0,0,-1,1609,1338,0,0
392,-314,0,0,0,0,0,0,0,0,0,-1,1616,1338,0,0
399,-314,0,0,0,0,0,0,0,0,0,-1,1623,1338,0,0
406,-314,0,0,0,0,0,0,0,0,0,-1,1630,1338,0,0
413,-314,0,0,0,0,0,0,0,0,0,-1,1637,1338,0,0
420,-314,0,0,0,0,0,0,0,0,0,-1,1644,1338,0,0
427,-314,0,0,0,0,0,0,0,0,0,-1,1651,1338,0,0
434,-314,0,0,0,0,0,0,0,0,0,-1,1658,1338,0,0
441,-314,0,0,0,0,0,0,0,0,0,-1,1665,1338,0,0
448,-314,0,0,0,0,0,0,0,0,0,-1,1672,1338,0,0
455,-314,0,0,0,0,0,0,0,0,0,-1,1679,1338,0,0
462,-314,0,0,0,0,0,0,0,0,0,-1,1686,1338,0,0
469,-314,0,0,0,0,0,0,0,0,0,-1,1693,1338,0,0
476,-314,0,0,0,0,0,0,0,0,0,-1,1700,1338,0,0
483,-314,0,0,0,0,0,0,0,0,0,-1,1707,1338,0,0
490,-314,0,0,0,0,0,0,0,0,0,-1,1714,1338,0,0
497,-314,0,0,0,0,0,0,0,0,0,-1,1721,1338,0,0
504,-314,0,0,0,0,0,0,0,0,0,-1,1728,1338,0,0
511,-314,0,0,0,0,0,0,0,0,0,-1,1735,1338,0,0
518,-314,0,0,0,0,0,0,0,0,0,-1,1742,1338,0,0
525,-314,0,0,0,0,0,0,0,0,0,-1,1749,1338,0,0
532,-314,0,0,0,0,0,0,0,0,0,-1,1756,1338,0,0
539,-314,0,0,0,0,0,0,0,0,0,-1,1763,1338,0,0
546,-314,0,0,0,0,0,0,0,0,0,-1,1770,1338,0,0
553,-314,0,0,0,0,0,0,0,0,0,-1,1777,1338,0,0
560,-314,0,0,0,0,0,0,0,0,0,-1,1784,1338,0,0
567,-314,0,0,0,0,0,0,0,0,0,-1,1791,1338,0,0
574,-314,0,0,0,0,0,0,0,0,0,-1,1798,1338,0,0
581,-314,49.7633,3.98621,0,0,0,0,0,0,0,-1,1805,1338,49.7633,-3.9862
588,-314,49.3467,3.4939,0,0,0,0,0,0,0,-1,1812,1338,49.3467,-3.49392
595,-314,51.6008,1.35242,0,0,0,0,0,0,0,-1,1819,1338,51.6008,-1.35246
602,-314,54.6401,0.747314,0,0,0,0,0,0,0,-1,1826,1338,54.6401,-0.747355
609,-314,51.2183,0.76062,0,0,0,0,0,0,0,-1,1833,1338,51.2183,-0.760615
616,-314,48.1149,3.005,0,0,0,0,0,0,0,-1,1840,1338,48.1149,-3.00505
623,-314,38.7728,2.71741,0,0,0,0,0,0,0,-1,1847,1338,38.7728,-2.71737
630,-314,29.4308,6.23206,0,0,0,0,0,0,0,-1,1854,1338,29.4308,-6.23202
637,-314,22.1349,5.16418,0,0,0,0,0,0,0,-1,1861,1338,22.1349,-5.16414
644,-314,18.7517,6.2605,0,0,0,0,0,0,0,-1,1868,1338,18.7517,-6.26053
651,-314,23.1317,8.005,0,0,0,0,0,0,0,-1,1875,1338,23.1317,-8.00506
658,-314,35.994,13.7609,0,0,0,0,0,0,0,-1,1882,1338,35.994,-13.7608
665,-314,35.9054,13.1627,0.00262915,0.00126917,-0.00147159,0.00357026,0.000328062,-0.568972,0.0022787,0.0301171,1889,1338,35.9055,-13.1628
672,-314,35.8969,12.6456,0.000692138,0.000655895,-0.000307651,0.000982201,0.000365832,-0.755981,0.00057319,0.0141411,1896,1338,35.8969,-12.6456
679,-314,35.8729,12.0874,0.000587196,-0.000268428,0.000136823,0.000608543,-0.000289775,0.15477,0.000529417,0.0117025,1903,1338,35.873,-12.0874
686,-314,35.8162,11.5253,0.000772019,-0.000712342,0.000295723,0.000828765,-0.000769089,0.189585,0.000922736,0.013251,1910,1338,35.8162,-11.5252
693,-314,35.8077,10.9728,0.000873777,-0.000635138,0.000419524,0.000982573,-0.000743933,0.253742,0.000999968,0.0120023,1917,1338,35.8078,-10.9728
700,-314,35.8202,10.4222,0.000774644,-0.000586684,0.000600338,0.00100156,-0.000813604,0.361387,0.00104986,0.013555,1924,1338,35.8203,-10.4222
707,-314,35.8213,9.89636,0.000535859,-0.000638987,0.000891456,0.00101603,-0.00111916,0.494078,0.00123323,0.0138843,1931,1338,35.8213,-9.89641
714,-314,35.7946,9.38977,8.58286e-05,-0.000796412,0.00130649,0.00102365,-0.00173424,0.622588,0.00160979,0.0121698,1938,1338,35.7945,-9.38978
721,-314,35.7688,8.90149,-0.000670966,-0.0011465,0.00194779,0.00105352,-0.00287099,0.724663,0.00234541,0.0261933,1945,1338,35.7688,-8.90152
728,-314,36.0259,8.69666,0,0,0,0,0,0,0,-1,1952,1338,36.0259,-8.69665
735,-314,26.3665,6.21582,0,0,0,0,0,0,0,-1,1959,1338,26.3664,-6.21581
742,-314,26.2235,6.0166,0,0,0,0,0,0,0,-1,1966,1338,26.2235,-6.01662
749,-314,26.2223,5.47046,0,0,0,0,0,0,0,-1,1973,1338,26.2223,-5.47041
756,-314,24.2521,5.93408,0,0,0,0,0,0,0,-1,1980,1338,24.252,-5.93413
763,-314,19.2207,4.07239,0,0,0,0,0,0,0,-1,1987,1338,19.2206,-4.07239
770,-314,0,0,0,0,0,0,0,0,0,-1,1994,1338,0,0
777,-314,0,0,0,0,0,0,0,0,0,-1,2001,1338,0,0
784,-314,0,0,0,0,0,0,0,0,0,-1,2008,1338,0,0
791,-314,0,0,0,0,0,0,0,0,0,-1,2015,1338,0,0
798,-314,0,0,0,0,0,0,0,0,0,-1,2022,1338,0,0
805,-314,0,0,0,0,0,0,0,0,0,-1,2029,1338,0,0
812,-314,0,0,0,0,0,0,0,0,0,-1,2036,1338,0,0
-700,-321,0,0,0,0,0,0,0,0,0,-1,524,1345,0,0
-693,-321,0,0,0,0,0,0,0,0,0,-1,531,1345,0,0
-686,-321,0,0,0,0,0,0,0,0,0,-1,538,1345,0,0
-679,-321,0,0,0,0,0,0,0,0,0,-1,545,1345,0,0
-672,-321,0,0,0,0,0,0,0,0,0,-1,552,1345,0,0
-665,-321,0,0,0,0,0,0,0,0,0,-1,559,1345,0,0
-658,-321,0,0,0,0,0,0,0,0,0,-1,566,1345,0,0
-651,-321,0,0,0,0,0,0,0,0,0,-1,573,1345,0,0
-644,-321,-17.2769,5.65454,0,0,0,0,0,0,0,-1,580,1345,-17.2768,-5.65454
-637,-321,-13.3991,3.59241,0,0,0,0,0,0,0,-1,587,1345,-13.3991,-3.59236
-630,-321,-13.2958,3.65039,0,0,0,0,0,0,0,-1,594,1345,-13.2958,-3.65042
-623,-321,-13.2242,3.14148,0,0,0,0,0,0,0,-1,601,1345,-13.2243,-3.14146
-616,-321,-11.6754,3.13794,0,0,0,0,0,0,0,-1,608,1345,-11.6754,-3.13789
-609,-321,-7.95209,1.14758,0,0,0,0,0,0,0,-1,615,1345,-7.95208,-1.14757
-602,-321,-8.85791,2.50049,0,0,0,0,0,0,0,-1,622,1345,-8.85791,-2.50048
-595,-321,-19.8463,5.36584,0,0,0,0,0,0,0,-1,629,1345,-19.8462,-5.36589
-588,-321,-20.0165,6.5321,0,0,0,0,0,0,0,-1,636,1345,-20.0166,-6.5321
-581,-321,-20.0056,7.17371,0.00386588,0.00231302,0.00191687,0.0051576,0.0010213,0.592972,0.00315358,0.0142389,643,1345,-20.0056,-7.1737
-574,-321,-20.0327,7.75769,0.00325888,0.00158539,0.00140951,0.00406131,0.000782969,0.517533,0.00248796,0.0154487,650,1345,-20.0327,-7.75771
-567,-321,-20.0394,8.33386,0.00306639,0.00107515,0.00120574,0.00363444,0.000507101,0.44028,0.00227286,0.0234912,657,1345,-20.0394,-8.33392
-560,-321,-19.9865,8.97144,0.0032158,0.000719159,0.00125538,0.00373787,0.000197085,0.39411,0.00242889,0.0274181,664,1345,-19.9865,-8.97138
-553,-321,-20.0333,9.5166,0.00364485,0.000453507,0.00149239,0.00423398,-0.000135628,0.375982,0.00286893,0.0282982,671,1345,-20.0333,-9.51666
-546,-321,-20.0744,10.0759,0.00443713,0.000317615,0.00198325,0.00523672,-0.000481977,0.383238,0.0036624,0.0269127,678,1345,-20.0744,-10.0759
-539,-321,-20.0692,10.6757,0.00560317,0.000266941,0.00272276,0.00674718,-0.000877067,0.397768,0.00481716,0.0236389,685,1345,-20.0691,-10.6757
-532,-321,-19.9116,11.2784,0.00722621,0.000319725,0.00368837,0.00882559,-0.00127965,0.409155,0.00635338,0.033954,692,1345,-19.9116,-11.2784
-525,-321,-19.9733,11.9076,0,0,0,0,0,0,0,-1,699,1345,-19.9733,-11.9076
-518,-321,-10.3564,6.75696,0,0,0,0,0,0,0,-1,706,1345,-10.3564,-6.75694
-511,-321,-9.3302,5.29297,0,0,0,0,0,0,0,-1,713,1345,-9.33023,-5.29294
-504,-321,-10.4713,0.0145264,0,0,0,0,0,0,0,-1,720,1345,-10.4713,-0.0145296
-497,-321,-9.96771,0.313599,0,0,0,0,0,0,0,-1,727,1345,-9.96769,-0.313618
-490,-321,-10.7631,0.973511,0,0,0,0,0,0,0,-1,734,1345,-10.7631,-0.97353
-483,-321,-17.5908,0.2323,0,0,0,0,0,0,0,-1,741,1345,-17.5908,-0.232355
-476,-321,-17.2915,0.297363,0,0,0,0,0,0,0,-1,748,1345,-17.2915,-0.297342
-469,-321,-17.2441,0.478027,0,0,0,0,0,0,0,-1,755,1345,-17.2441,-0.477994
-462,-321,-17.1672,0.526489,0,0,0,0,0,0,0,-1,762,1345,-17.1672,-0.526533
-455,-321,0,0,0,0,0,0,0,0,0,-1,769,1345,0,0
-448,-321,0,0,0,0,0,0,0,0,0,-1,776,1345,0,0
-441,-321,0,0,0,0,0,0,0,0,0,-1,783,1345,0,0
-434,-321,0,0,0,0,0,0,0,0,0,-1,790,1345,0,0
-427,-321,0,0,0,0,0,0,0,0,0,-1,797,1345,0,0
-420,-321,0,0,0,0,0,0,0,0,0,-1,804,1345,0,0
-413,-321,0,0,0,0,0,0,0,0,0,-1,811,1345,0,0
-406,-321,0,0,0,0,0,0,0,0,0,-1,818,1345,0,0
-399,-321,0,0,0,0,0,0,0,0,0,-1,825,1345,0,0
-392,-321,0,0,0,0,0,0,0,0,0,-1,832,1345,0,0
-385,-321,0,0,0,0,0,0,0,0,0,-1,839,1345,0,0
-378,-321,0,0,0,0,0,0,0,0,0,-1,846,1345,0,0
-371,-321,0,0,0,0,0,0,0,0,0,-1,853,1345,0,0
-364,-321,0,0,0,0,0,0,0,0,0,-1,860,1345,0,0
-357,-321,0,0,0,0,0,0,0,0,0,-1,867,1345,0,0
-350,-321,0,0,0,0,0,0,0,0,0,-1,874,1345,0,0
-343,-321,0,0,0,0,0,0,0,0,0,-1,881,1345,0,0
-336,-321,0,0,0,0,0,0,0,0,0,-1,888,1345,0,0
-329,-321,0,0,0,0,0,0,0,0,0,-1,895,1345,0,0
-322,-321,0,0,0,0,0,0,0,0,0,-1,902,1345,0,0
-315,-321,0,0,0,0,0,0,0,0,0,-1,909,1345,0,0
-308,-321,0,0,0,0,0,0,0,0,0,-1,916,1345,0,0
-301,-321,0,0,0,0,0,0,0,0,0,-1,923,1345,0,0
-294,-321,0,0,0,0,0,0,0,0,0,-1,930,1345,0,0
-287,-321,0,0,0,0,0,0,0,0,0,-1,937,1345,0,0
-280,-321,0,0,0,0,0,0,0,0,0,-1,944,1345,0,0
-273,-321,0,0,0,0,0,0,0,0,0,-1,951,1345,0,0
-266,-321,0,0,0,0,0,0,0,0,0,-1,958,1345,0,0
-259,-321,0,0,0,0,0,0,0,0,0,-1,965,1345,0,0
-252,-321,0,0,0,0,0,0,0,0,0,-1,972,1345,0,0
-245,-321,0,0,0,0,0,0,0,0,0,-1,979,1345,0,0
-238,-321,0,0,0,0,0,0,0,0,0,-1,986,1345,0,0
-231,-321,0,0,0,0,0,0,0,0,0,-1,993,1345,0,0
-224,-321,0,0,0,0,0,0,0,0,0,-1,1000,1345,0,0
-217,-321,0,0,0,0,0,0,0,0,0,-1,1007,1345,0,0
-210,-321,0,0,0,0,0,0,0,0,0,-1,1014,1345,0,0
-203,-321,0,0,0,0,0,0,0,0,0,-1,1021,1345,0,0
-196,-321,0,0,0,0,0,0,0,0,0,-1,1028,1345,0,0
-189,-321,0,0,0,0,0,0,0,0,0,-1,1035,1345,0,0
-182,-321,0,0,0,0,0,0,0,0,0,-1,1042,1345,0,0
-175,-321,0,0,0,0,0,0,0,0,0,-1,1049,1345,0,0
-168,-321,0,0,0,0,0,0,0,0,0,-1,1056,1345,0,0
-161,-321,0,0,0,0,0,0,0,0,0,-1,1063,1345,0,0
-154,-321,0,0,0,0,0,0,0,0,0,-1,1070,1345,0,0
-147,-321,0,0,0,0,0,0,0,0,0,-1,1077,1345,0,0
-140,-321,0,0,0,0,0,0,0,0,0,-1,1084,1345,0,0
-133,-321,0,0,0,0,0,0,0,0,0,-1,1091,1345,0,0
-126,-321,0,0,0,0,0,0,0,0,0,-1,1098,1345,0,0
-119,-321,0,0,0,0,0,0,0,0,0,-1,1105,1345,0,0
-112,-321,0,0,0,0,0,0,0,0,0,-1,1112,1345,0,0
-105,-321,0,0,0,0,0,0,0,0,0,-1,1119,1345,0,0
-98,-321,0,0,0,0,0,0,0,0,0,-1,1126,1345,0,0
-91,-321,0,0,0,0,0,0,0,0,0,-1,1133,1345,0,0
-84,-321,0,0,0,0,0,0,0,0,0,-1,1140,1345,0,0
-77,-321,0,0,0,0,0,0,0,0,0,-1,1147,1345,0,0
-70,-321,0,0,0,0,0,0,0,0,0,-1,1154,1345,0,0
-63,-321,0,0,0,0,0,0,0,0,0,-1,1161,1345,0,0
-56,-321,0,0,0,0,0,0,0,0,0,-1,1168,1345,0,0
-49,-321,0,0,0,0,0,0,0,0,0,-1,1175,1345,0,0
-42,-321,0,0,0,0,0,0,0,0,0,-1,1182,1345,0,0
-35,-321,0,0,0,0,0,0,0,0,0,-1,1189,1345,0,0
-28,-321,0,0,0,0,0,0,0,0,0,-1,1196,1345,0,0
-21,-321,0,0,0,0,0,0,0,0,0,-1,1203,1345,0,0
-14,-321,0,0,0,0,0,0,0,0,0,-1,1210,1345,0,0
-7,-321,0,0,0,0,0,0,0,0,0,-1,1217,1345,0,0
0,-321,0,0,0,0,0,0,0,0,0,-1,1224,1345,0,0
7,-321,0,0,0,0,0,0,0,0,0,-1,1231,1345,0,0
14,-321,0,0,0,0,0,0,0,0,0,-1,1238,1345,0,0
21,-321,0,0,0,0,0,0,0,0,0,-1,1245,1345,0,0
28,-321,0,0,0,0,0,0,0,0,0,-1,1252,1345,0,0
35,-321,0,0,0,0,0,0,0,0,0,-1,1259,1345,0,0
42,-321,0,0,0,0,0,0,0,0,0,-1,1266,1345,0,0
49,-321,0,0,0,0,0,0,0,0,0,-1,1273,1345,0,0
56,-321,0,0,0,0,0,0,0,0,0,-1,1280,1345,0,0
63,-321,0,0,0,0,0,0,0,0,0,-1,1287,1345,0,0
70,-321,0,0,0,0,0,0,0,0,0,-1,1294,1345,0,0
77,-321,0,0,0,0,0,0,0,0,0,-1,1301,1345,0,0
84,-321,0,0,0,0,0,0,0,0,0,-1,1308,1345,0,0
91,-321,0,0,0,0,0,0,0,0,0,-1,1315,1345,0,0
98,-321,0,0,0,0,0,0,0,0,0,-1,1322,1345,0,0
105,-321,0,0,0,0,0,0,0,0,0,-1,1329,1345,0,0
112,-321,0,0,0,0,0,0,0,0,0,-1,1336,1345,0,0
119,-321,0,0,0,0,0,0,0,0,0,-1,1343,1345,0,0
126,-321,0,0,0,0,0,0,0,0,0,-1,1350,1345,0,0
133,-321,0,0,0,0,0,0,0,0,0,-1,1357,1345,0,0
140,-321,0,0,0,0,0,0,0,0,0,-1,1364,1345,0,0
147,-321,0,0,0,0,0,0,0,0,0,-1,1371,1345,0,0
154,-321,0,0,0,0,0,0,0,0,0,-1,1378,1345,0,0
161,-321,0,0,0,0,0,0,0,0,0,-1,1385,1345,0,0
168,-321,0,0,0,0,0,0,0,0,0,-1,1392,1345,0,0
175,-321,0,0,0,0,0,0,0,0,0,-1,1399,1345,0,0
182,-321,0,0,0,0,0,0,0,0,0,-1,1406,1345,0,0
189,-321,0,0,0,0,0,0,0,0,0,-1,1413,1345,0,0
196,-321,0,0,0,0,0,0,0,0,0,-1,1420,1345,0,0
203,-321,0,0,0,0,0,0,0,0,0,-1,1427,1345,0,0
210,-321,0,0,0,0,0,0,0,0,0,-1,1434,1345,0,0
217,-321,0,0,0,0,0,0,0,0,0,-1,1441,1345,0,0
224,-321,0,0,0,0,0,0,0,0,0,-1,1448,1345,0,0
231,-321,0,0,0,0,0,0,0,0,0,-1,1455,1345,0,0
238,-321,0,0,0,0,0,0,0,0,0,-1,1462,1345,0,0
245,-321,0,0,0,0,0,0,0,0,0,-1,1469,1345,0,0
252,-321,0,0,0,0,0,0,0,0,0,-1,1476,1345,0,0
259,-321,0,0,0,0,0,0,0,0,0,-1,1483,1345,0,0
266,-321,0,0,0,0,0,0,0,0,0,-1,1490,1345,0,0
273,-321,0,0,0,0,0,0,0,0,0,-1,1497,1345,0,0
280,-321,0,0,0,0,0,0,0,0,0,-1,1504,1345,0,0
287,-321,0,0,0,0,0,0,0,0,0,-1,1511,1345,0,0
294,-321,0,0,0,0,0,0,0,0,0,-1,1518,1345,0,0
301,-321,0,0,0,0,0,0,0,0,0,-1,1525,1345,0,0
308,-321,0,0,0,0,0,0,0,0,0,-1,1532,1345,0,0
315,-321,0,0,0,0,0,0,0,0,0,-1,1539,1345,0,0
322,-321,0,0,0,0,0,0,0,0,0,-1,1546,1345,0,0
329,-321,0,0,0,0,0,0,0,0,0,-1,1553,1345,0,0
336,-321,0,0,0,0,0,0,0,0,0,-1,1560,1345,0,0
343,-321,0,0,0,0,0,0,0,0,0,-1,1567,1345,0,0
350,-321,0,0,0,0,0,0,0,0,0,-1,1574,1345,0,0
357,-321,0,0,0,0,0,0,0,0,0,-1,1581,1345,0,0
364,-321,0,0,0,0,0,0,0,0,0,-1,1588,1345,0,0
371,-321,0,0,0,0,0,0,0,0,0,-1,1595,1345,0,0
378,-321,0,0,0,0,0,0,0,0,0,-1,1602,1345,0,0
385,-321,0,0,0,0,0,0,0,0,0,-1,1609,1345,0,0
392,-321,0,0,0,0,0,0,0,0,0,-1,1616,1345,0,0
399,-321,0,0,0,0,0,0,0,0,0,-1,1623,1345,0,0
406,-321,0,0,0,0,0,0,0,0,0,-1,1630,1345,0,0
413,-321,0,0,0,0,0,0,0,0,0,-1,1637,1345,0,0
420,-321,0,0,0,0,0,0,0,0,0,-1,1644,1345,0,0
427,-321,0,0,0,0,0,0,0,0,0,-1,1651,1345,0,0
434,-321,0,0,0,0,0,0,0,0,0,-1,1658,1345,0,0
441,-321,0,0,0,0,0,0,0,0,0,-1,1665,1345,0,0
448,-321,0,0,0,0,0,0,0,0,0,-1,1672,1345,0,0
455,-321,0,0,0,0,0,0,0,0,0,-1,1679,1345,0,0
462,-321,0,0,0,0,0,0,0,0,0,-1,1686,1345,0,0
469,-321,0,0,0,0,0,0,0,0,0,-1,1693,1345,0,0
476,-321,0,0,0,0,0,0,0,0,0,-1,1700,1345,0,0
483,-321,0,0,0,0,0,0,0,0,0,-1,1707,1345,0,0
490,-321,0,0,0,0,0,0,0,0,0,-1,1714,1345,0,0
497,-321,0,0,0,0,0,0,0,0,0,-1,1721,1345,0,0
504,-321,0,0,0,0,0,0,0,0,0,-1,1728,1345,0,0
511,-321,0,0,0,0,0,0,0,0,0,-1,1735,1345,0,0
518,-321,0,0,0,0,0,0,0,0,0,-1,1742,1345,0,0
525,-321,0,0,0,0,0,0,0,0,0,-1,1749,1345,0,0
532,-321,0,0,0,0,0,0,0,0,0,-1,1756,1345,0,0
539,-321,0,0,0,0,0,0,0,0,0,-1,1763,1345,0,0
546,-321,0,0,0,0,0,0,0,0,0,-1,1770,1345,0,0
553,-321,0,0,0,0,0,0,0,0,0,-1,1777,1345,0,0
560,-321,0,0,0,0,0,0,0,0,0,-1,1784,1345,0,0
567,-321,0,0,0,0,0,0,0,0,0,-1,1791,1345,0,0
574,-321,0,0,0,0,0,0,0,0,0,-1,1798,1345,0,0
581,-321,49.9773,4.13696,0,0,0,0,0,0,0,-1,1805,1345,49.9772,-4.13692
588,-321,49.5574,3.74097,0,0,0,0,0,0,0,-1,1812,1345,49.5574,-3.74092
595,-321,49.1759,3.42566,0,0,0,0,0,0,0,-1,1819,1345,49.1759,-3.42565
602,-321,51.0474,0.421875,0,0,0,0,0,0,0,-1,1826,1345,51.0473,-0.421858
609,-321,48.311,3.39575,0,0,0,0,0,0,0,-1,1833,1345,48.311,-3.39571
616,-321,37.8107,2.58704,0,0,0,0,0,0,0,-1,1840,1345,37.8106,-2.58705
623,-321,37.6854,3.68933,0,0,0,0,0,0,0,-1,1847,1345,37.6854,-3.68931
630,-321,23.6674,4.34106,0,0,0,0,0,0,0,-1,1854,1345,23.6674,-4.34112
637,-321,21.7925,6.79224,0,0,0,0,0,0,0,-1,1861,1345,21.7925,-6.7922
644,-321,16.8844,6.71973,0,0,0,0,0,0,0,-1,1868,1345,16.8844,-6.71971
651,-321,27.4924,10.0319,0,0,0,0,0,0,0,-1,1875,1345,27.4924,-10.0319
658,-321,35.2528,13.7546,0,0,0,0,0,0,0,-1,1882,1345,35.2528,-13.7547
665,-321,35.3245,13.2329,0.00201332,0.000658515,-0.00108581,0.0026157,5.61326e-05,-0.506505,0.0017254,0.0233757,1889,1345,35.3245,-13.2329
672,-321,35.3651,12.6475,0.000583332,0.000226567,-6.93284e-05,0.00059633,0.000213568,-0.185342,0.00034888,0.0141247,1896,1345,35.3652,-12.6474
679,-321,35.3262,12.1013,0.000721772,-0.000372918,0.00020479,0.000758829,-0.000409974,0.179013,0.000684755,0.0121427,1903,1345,35.3262,-12.1014
686,-321,35.2725,11.5514,0.000988471,-0.000590351,0.00025229,0.00102781,-0.000629686,0.154667,0.000966111,0.0130987,1910,1345,35.2724,-11.5514
693,-321,35.2546,11.0182,0.00121721,-0.000472898,0.000291745,0.00126615,-0.000521841,0.166213,0.0010617,0.0128269,1917,1345,35.2547,-11.0182
700,-321,35.2701,10.4559,0.00134432,-0.00042816,0.000428852,0.00144263,-0.000526469,0.225342,0.00117716,0.0131598,1924,1345,35.2701,-10.4559
707,-321,35.2765,9.91663,0.0013169,-0.000469575,0.000677301,0.00154465,-0.000697324,0.324382,0.00132486,0.0153111,1931,1345,35.2765,-9.91666
714,-321,35.2562,9.38525,0.00108952,-0.000655232,0.00107815,0.00160403,-0.00116974,0.445254,0.00160797,0.0139796,1938,1345,35.2562,-9.38528
721,-321,35.2043,8.84595,0.000540538,-0.00113391,0.00180482,0.00169287,-0.00228624,0.568229,0.00230584,0.0407411,1945,1345,35.2043,-8.84593
728,-321,35.2261,8.35608,0,0,0,0,0,0,0,-1,1952,1345,35.226,-8.35604
735,-321,22.0081,5.65479,0,0,0,0,0,0,0,-1,1959,1345,22.008,-5.65481
742,-321,24.5398,5.05725,0,0,0,0,0,0,0,-1,1966,1345,24.5398,-5.05729
749,-321,24.0675,5.4458,0,0,0,0,0,0,0,-1,1973,1345,24.0675,-5.44581
756,-321,19.6251,4.98315,0,0,0,0,0,0,0,-1,1980,1345,19.6251,-4.98311
763,-321,19.6747,4.61438,0,0,0,0,0,0,0,-1,1987,1345,19.6747,-4.61436
770,-321,0,0,0,0,0,0,0,0,0,-1,1994,1345,0,0
777,-321,0,0,0,0,0,0,0,0,0,-1,2001,1345,0,0
784,-321,0,0,0,0,0,0,0,0,0,-1,2008,1345,0,0
791,-321,0,0,0,0,0,0,0,0,0,-1,2015,1345,0,0
798,-321,0,0,0,0,0,0,0,0,0,-1,2022,1345,0,0
805,-321,0,0,0,0,0,0,0,0,0,-1,2029,1345,0,0
812,-321,0,0,0,0,0,0,0,0,0,-1,2036,1345,0,0
-700,-328,0,0,0,0,0,0,0,0,0,-1,524,1352,0,0
-693,-328,0,0,0,0,0,0,0,0,0,-1,531,1352,0,0
-686,-328,0,0,0,0,0,0,0,0,0,-1,538,1352,0,0
-679,-328,0,0,0,0,0,0,0,0,0,-1,545,1352,0,0
-672,-328,0,0,0,0,0,0,0,0,0,-1,552,1352,0,0
-665,-328,0,0,0,0,0,0,0,0,0,-1,559,1352,0,0
-658,-328,0,0,0,0,0,0,0,0,0,-1,566,1352,0,0
-651,-328,0,0,0,0,0,0,0,0,0,-1,573,1352,0,0
-644,-328,0,0,0,0,0,0,0,0,0,-1,580,1352,0,0
-637,-328,-12.0695,1.02014,0,0,0,0,0,0,0,-1,587,1352,-12.0694,-1.02017
-630,-328,-13.3971,4.54578,0,0,0,0,0,0,0,-1,594,1352,-13.3971,-4.54572
-623,-328,-10.7739,4.55042,0,0,0,0,0,0,0,-1,601,1352,-10.7739,-4.55041
-616,-328,-8.22198,-0.25708,0,0,0,0,0,0,0,-1,608,1352,-8.22201,0.257067
-609,-328,-7.87439,0.192871,0,0,0,0,0,0,0,-1,615,1352,-7.87441,-0.192822
-602,-328,-7.63062,1.31665,0,0,0,0,0,0,0,-1,622,1352,-7.63064,-1.3166
-595,-328,-9.42639,2.93494,0,0,0,0,0,0,0,-1,629,1352,-9.42638,-2.93499
-588,-328,-19.5557,6.3042,0,0,0,0,0,0,0,-1,636,1352,-19.5557,-6.30416
-581,-328,-19.4342,7.12329,0.00448803,0.0023993,0.00206827,0.00576065,0.00112668,0.551601,0.00352541,0.0279744,643,1352,-19.4342,-7.12333
-574,-328,-19.4378,7.76611,0.00356039,0.00164833,0.00147525,0.0043623,0.000846419,0.497898,0.00267114,0.015448,650,1352,-19.4378,-7.76609
-567,-328,-19.4377,8.35046,0.00310379,0.00111497,0.00118341,0.00365513,0.000563641,0.435983,0.00227229,0.0209752,657,1352,-19.4377,-8.35048
-560,-328,-19.3777,9.02014,0.00301303,0.000723466,0.00114129,0.00348475,0.000251747,0.391936,0.00224396,0.0287914,664,1352,-19.3777,-9.02016
-553,-328,-19.4084,9.56628,0.00319582,0.000412966,0.00127314,0.00369038,-8.15936e-05,0.370517,0.0024879,0.0312578,671,1352,-19.4085,-9.56625
-546,-328,-19.4559,10.1132,0.00373822,0.000200077,0.00162579,0.00437181,-0.000433522,0.37161,0.00306927,0.0292618,678,1352,-19.4559,-10.1132
-539,-328,-19.51,10.6859,0.00460627,8.82596e-05,0.00218978,0.00549341,-0.000798883,0.38492,0.00395555,0.0236094,685,1352,-19.51,-10.686
-532,-328,-19.5314,11.2933,0.00587598,6.27889e-05,0.00296893,0.00712424,-0.00118548,0.398004,0.00518998,0.0181735,692,1352,-19.5314,-11.2933
-525,-328,-19.5175,11.9451,0.00751578,1.83216e-06,0.00392832,0.00919448,-0.00167687,0.403845,0.00675831,0.0321259,699,1352,-19.5175,-11.945
-518,-328,-19.5786,12.5974,0,0,0,0,0,0,0,-1,706,1352,-19.5786,-12.5974
-511,-328,-9.39868,7.16113,0,0,0,0,0,0,0,-1,713,1352,-9.39869,-7.16113
-504,-328,-8.60626,-0.905762,0,0,0,0,0,0,0,-1,720,1352,-8.60623,0.905787
-497,-328,-9.29102,-0.0517578,0,0,0,0,0,0,0,-1,727,1352,-9.29104,0.0518175
-490,-328,-10.0663,0.882813,0,0,0,0,0,0,0,-1,734,1352,-10.0663,-0.882795
-483,-328,-10.8181,1.72375,0,0,0,0,0,0,0,-1,741,1352,-10.8181,-1.72374
-476,-328,-16.8951,-0.150757,0,0,0,0,0,0,0,-1,748,1352,-16.8951,0.150795
-469,-328,-16.8412,0.00158691,0,0,0,0,0,0,0,-1,755,1352,-16.8412,-0.00161515
-462,-328,-16.3546,-0.203491,0,0,0,0,0,0,0,-1,762,1352,-16.3545,0.203532
-455,-328,0,0,0,0,0,0,0,0,0,-1,769,1352,0,0
-448,-328,0,0,0,0,0,0,0,0,0,-1,776,1352,0,0
-441,-328,0,0,0,0,0,0,0,0,0,-1,783,1352,0,0
-434,-328,0,0,0,0,0,0,0,0,0,-1,790,1352,0,0
-427,-328,0,0,0,0,0,0,0,0,0,-1,797,1352,0,0
-420,-328,0,0,0,0,0,0,0,0,0,-1,804,1352,0,0
-413,-328,0,0,0,0,0,0,0,0,0,-1,811,1352,0,0
-406,-328,0,0,0,0,0,0,0,0,0,-1,818,1352,0,0
-399,-328,0,0,0,0,0,0,0,0,0,-1,825,1352,0,0
-392,-328,0,0,0,0,0,0,0,0,0,-1,832,1352,0,0
-385,-328,0,0,0,0,0,0,0,0,0,-1,839,1352,0,0
-378,-328,0,0,0,0,0,0,0,0,0,-1,846,1352,0,0
-371,-328,0,0,0,0,0,0,0,0,0,-1,853,1352,0,0
-364,-328,0,0,0,0,0,0,0,0,0,-1,860,1352,0,0
-357,-328,0,0,0,0,0,0,0,0,0,-1,867,1352,0,0
-350,-328,0,0,0,0,0,0,0,0,0,-1,874,1352,0,0
-343,-328,0,0,0,0,0,0,0,0,0,-1,881,1352,0,0
-336,-328,0,0,0,0,0,0,0,0,0,-1,888,1352,0,0
-329,-328,0,0,0,0,0,0,0,0,0,-1,895,1352,0,0
-322,-328,0,0,0,0,0,0,0,0,0,-1,902,1352,0,0
-315,-328,0,0,0,0,0,0,0,0,0,-1,909,1352,0,0
-308,-328,0,0,0,0,0,0,0,0,0,-1,916,1352,0,0
-301,-328,0,0,0,0,0,0,0,0,0,-1,923,1352,0,0
-294,-328,0,0,0,0,0,0,0,0,0,-1,930,1352,0,0
-287,-328,0,0,0,0,0,0,0,0,0,-1,937,1352,0,0
-280,-328,0,0,0,0,0,0,0,0,0,-1,944,1352,0,0
-273,-328,0,0,0,0,0,0,0,0,0,-1,951,1352,0,0
-266,-328,0,0,0,0,0,0,0,0,0,-1,958,1352,0,0
-259,-328,0,0,0,0,0,0,0,0,0,-1,965,1352,0,0
-252,-328,0,0,0,0,0,0,0,0,0,-1,972,1352,0,0
-245,-328,0,0,0,0,0,0,0,0,0,-1,979,1352,0,0
-238,-328,0,0,0,0,0,0,0,0,0,-1,986,1352,0,0
-231,-328,0,0,0,0,0,0,0,0,0,-1,993,1352,0,0
-224,-328,0,0,0,0,0,0,0,0,0,-1,1000,1352,0,0
-217,-328,0,0,0,0,0,0,0,0,0,-1,1007,1352,0,0
-210,-328,0,0,0,0,0,0,0,0,0,-1,1014,1352,0,0
-203,-328,0,0,0,0,0,0,0,0,0,-1,1021,1352,0,0
-196,-328,0,0,0,0,0,0,0,0,0,-1,1028,1352,0,0
-189,-328,0,0,0,0,0,0,0,0,0,-1,1035,1352,0,0
-182,-328,0,0,0,0,0,0,0,0,0,-1,1042,1352,0,0
-175,-328,0,0,0,0,0,0,0,0,0,-1,1049,1352,0,0
-168,-328,0,0,0,0,0,0,0,0,0,-1,1056,1352,0,0
-161,-328,0,0,0,0,0,0,0,0,0,-1,1063,1352,0,0
-154,-328,0,0,0,0,0,0,0,0,0,-1,1070,1352,0,0
-147,-328,0,0,0,0,0,0,0,0,0,-1,1077,1352,0,0
-140,-328,0,0,0,0,0,0,0,0,0,-1,1084,1352,0,0
-133,-328,0,0,0,0,0,0,0,0,0,-1,1091,1352,0,0
-126,-328,0,0,0,0,0,0,0,0,0,-1,1098,1352,0,0
-119,-328,0,0,0,0,0,0,0,0,0,-1,1105,1352,0,0
-112,-328,0,0,0,0,0,0,0,0,0,-1,1112,1352,0,0
-105,-328,0,0,0,0,0,0,0,0,0,-1,1119,1352,0,0
-98,-328,0,0,0,0,0,0,0,0,0,-1,1126,1352,0,0
-91,-328,0,0,0,0,0,0,0,0,0,-1,1133,1352,0,0
-84,-328,0,0,0,0,0,0,0,0,0,-1,1140,1352,0,0
-77,-328,0,0,0,0,0,0,0,0,0,-1,1147,1352,0,0
-70,-328,0,0,0,0,0,0,0,0,0,-1,1154,1352,0,0
-63,-328,0,0,0,0,0,0,0,0,0,-1,1161,1352,0,0
-56,-328,0,0,0,0,0,0,0,0,0,-1,1168,1352,0,0
-49,-328,0,0,0,0,0,0,0,0,0,-1,1175,1352,0,0
-42,-328,0,0,0,0,0,0,0,0,0,-1,1182,1352,0,0
-35,-328,0,0,0,0,0,0,0,0,0,-1,1189,1352,0,0
-28,-328,0,0,0,0,0,0,0,0,0,-1,1196,1352,0,0
-21,-328,0,0,0,0,0,0,0,0,0,-1,1203,1352,0,0
-14,-328,0,0,0,0,0,0,0,0,0,-1,1210,1352,0,0
-7,-328,0,0,0,0,0,0,0,0,0,-1,1217,1352,0,0
0,-328,0,0,0,0,0,0,0,0,0,-1,1224,1352,0,0
7,-328,0,0,0,0,0,0,0,0,0,-1,1231,1352,0,0
14,-328,0,0,0,0,0,0,0,0,0,-1,1238,1352,0,0
21,-328,0,0,0,0,0,0,0,0,0,-1,1245,1352,0,0
28,-328,0,0,0,0,0,0,0,0,0,-1,1252,1352,0,0
35,-328,0,0,0,0,0,0,0,0,0,-1,1259,1352,0,0
42,-328,0,0,0,0,0,0,0,0,0,-1,1266,1352,0,0
49,-328,0,0,0,0,0,0,0,0,0,-1,1273,1352,0,0
56,-328,0,0,0,0,0,0,0,0,0,-1,1280,1352,0,0
63,-328,0,0,0,0,0,0,0,0,0,-1,1287,1352,0,0
70,-328,0,0,0,0,0,0,0,0,0,-1,1294,1352,0,0
77,-328,0,0,0,0,0,0,0,0,0,-1,1301,1352,0,0
84,-328,0,0,0,0,0,0,0,0,0,-1,1308,1352,0,0
91,-328,0,0,0,0,0,0,0,0,0,-1,1315,1352,0,0
98,-328,0,0,0,0,0,0,0,0,0,-1,1322,1352,0,0
105,-328,0,0,0,0,0,0,0,0,0,-1,1329,1352,0,0
112,-328,0,0,0,0,0,0,0,0,0,-1,1336,1352,0,0
119,-328,0,0,0,0,0,0,0,0,0,-1,1343,1352,0,0
126,-328,0,0,0,0,0,0,0,0,0,-1,1350,1352,0,0
133,-328,0,0,0,0,0,0,0,0,0,-1,1357,1352,0,0
140,-328,0,0,0,0,0,0,0,0,0,-1,1364,1352,0,0
147,-328,0,0,0,0,0,0,0,0,0,-1,1371,1352,0,0
154,-328,0,0,0,0,0,0,0,0,0,-1,1378,1352,0,0
161,-328,0,0,0,0,0,0,0,0,0,-1,1385,1352,0,0
168,-328,0,0,0,0,0,0,0,0,0,-1,1392,1352,0,0
175,-328,0,0,0,0,0,0,0,0,0,-1,1399,1352,0,0
182,-328,0,0,0,0,0,0,0,0,0,-1,1406,1352,0,0
189,-328,0,0,0,0,0,0,0,0,0,-1,1413,1352,0,0
196,-328,0,0,0,0,0,0,0,0,0,-1,1420,1352,0,0
203,-328,0,0,0,0,0,0,0,0,0,-1,1427,1352,0,0
210,-328,0,0,0,0,0,0,0,0,0,-1,1434,1352,0,0
217,-328,0,0,0,0,0,0,0,0,0,-1,1441,1352,0,0
224,-328,0,0,0,0,0,0,0,0,0,-1,1448,1352,0,0
231,-328,0,0,0,0,0,0,0,0,0,-1,1455,1352,0,0
238,-328,0,0,0,0,0,0,0,0,0,-1,1462,1352,0,0
245,-328,0,0,0,0,0,0,0,0,0,-1,1469,1352,0,0
252,-328,0,0,0,0,0,0,0,0,0,-1,1476,1352,0,0
259,-328,0,0,0,0,0,0,0,0,0,-1,1483,1352,0,0
266,-328,0,0,0,0,0,0,0,0,0,-1,1490,1352,0,0
273,-328,0,0,0,0,0,0,0,0,0,-1,1497,1352,0,0
280,-328,0,0,0,0,0,0,0,0,0,-1,1504,1352,0,0
287,-328,0,0,0,0,0,0,0,0,0,-1,1511,1352,0,0
294,-328,0,0,0,0,0,0,0,0,0,-1,1518,1352,0,0
301,-328,0,0,0,0,0,0,0,0,0,-1,1525,1352,0,0
308,-328,0,0,0,0,0,0,0,0,0,-1,1532,1352,0,0
315,-328,0,0,0,0,0,0,0,0,0,-1,1539,1352,0,0
322,-328,0,0,0,0,0,0,0,0,0,-1,1546,1352,0,0
329,-328,0,0,0,0,0,0,0,0,0,-1,1553,1352,0,0
336,-328,0,0,0,0,0,0,0,0,0,-1,1560,1352,0,0
343,-328,0,0,0,0,0,0,0,0,0,-1,1567,1352,0,0
350,-328,0,0,0,0,0,0,0,0,0,-1,1574,1352,0,0
357,-328,0,0,0,0,0,0,0,0,0,-1,1581,1352,0,0
364,-328,0,0,0,0,0,0,0,0,0,-1,1588,1352,0,0
371,-328,0,0,0,0,0,0,0,0,0,-1,1595,1352,0,0
378,-328,0,0,0,0,0,0,0,0,0,-1,1602,1352,0,0
385,-328,0,0,0,0,0,0,0,0,0,-1,1609,1352,0,0
392,-328,0,0,0,0,0,0,0,0,0,-1,1616,1352,0,0
399,-328,0,0,0,0,0,0,0,0,0,-1,1623,1352,0,0
406,-328,0,0,0,0,0,0,0,0,0,-1,1630,1352,0,0
413,-328,0,0,0,0,0,0,0,0,0,-1,1637,1352,0,0
420,-328,0,0,0,0,0,0,0,0,0,-1,1644,1352,0,0
427,-328,0,0,0,0,0,0,0,0,0,-1,1651,1352,0,0
434,-328,0,0,0,0,0,0,0,0,0,-1,1658,1352,0,0
441,-328,0,0,0,0,0,0,0,0,0,-1,1665,1352,0,0
448,-328,0,0,0,0,0,0,0,0,0,-1,1672,1352,0,0
455,-328,0,0,0,0,0,0,0,0,0,-1,1679,1352,0,0
462,-328,0,0,0,0,0,0,0,0,0,-1,1686,1352,0,0
469,-328,0,0,0,0,0,0,0,0,0,-1,1693,1352,0,0
476,-328,0,0,0,0,0,0,0,0,0,-1,1700,1352,0,0
483,-328,0,0,0,0,0,0,0,0,0,-1,1707,1352,0,0
490,-328,0,0,0,0,0,0,0,0,0,-1,1714,1352,0,0
497,-328,0,0,0,0,0,0,0,0,0,-1,1721,1352,0,0
504,-328,0,0,0,0,0,0,0,0,0,-1,1728,1352,0,0
511,-328,0,0,0,0,0,0,0,0,0,-1,1735,1352,0,0
518,-328,0,0,0,0,0,0,0,0,0,-1,1742,1352,0,0
525,-328,0,0,0,0,0,0,0,0,0,-1,1749,1352,0,0
532,-328,0,0,0,0,0,0,0,0,0,-1,1756,1352,0,0
539,-328,0,0,0,0,0,0,0,0,0,-1,1763,1352,0,0
546,-328,0,0,0,0,0,0,0,0,0,-1,1770,1352,0,0
553,-328,0,0,0,0,0,0,0,0,0,-1,1777,1352,0,0
560,-328,0,0,0,0,0,0,0,0,0,-1,1784,1352,0,0
567,-328,0,0,0,0,0,0,0,0,0,-1,1791,1352,0,0
574,-328,44.8926,5.11475,0,0,0,0,0,0,0,-1,1798,1352,44.8926,-5.11469
581,-328,50.5533,4.3905,0,0,0,0,0,0,0,-1,1805,1352,50.5533,-4.39048
588,-328,50.1937,4.06274,0,0,0,0,0,0,0,-1,1812,1352,50.1937,-4.06278
595,-328,49.592,3.59802,0,0,0,0,0,0,0,-1,1819,1352,49.5921,-3.59798
602,-328,48.7734,3.66785,0,0,0,0,0,0,0,-1,1826,1352,48.7734,-3.66782
609,-328,37.0468,1.17407,0,0,0,0,0,0,0,-1,1833,1352,37.0468,-1.17407
616,-328,36.999,2.42859,0,0,0,0,0,0,0,-1,1840,1352,36.999,-2.42862
623,-328,34.345,5.14722,0,0,0,0,0,0,0,-1,1847,1352,34.3449,-5.14718
630,-328,22.0211,5.026,0,0,0,0,0,0,0,-1,1854,1352,22.0212,-5.02603
637,-328,21.15,5.53699,0,0,0,0,0,0,0,-1,1861,1352,21.15,-5.53704
644,-328,16.9579,6.3396,0,0,0,0,0,0,0,-1,1868,1352,16.9579,-6.33959
651,-328,35.0352,14.2997,0,0,0,0,0,0,0,-1,1875,1352,35.0352,-14.2996
658,-328,34.8168,13.7815,0.00234839,0.00129986,-0.00196634,0.00385916,-0.000210908,-0.65512,0.00264588,0.0476831,1882,1352,34.8167,-13.7815
665,-328,34.8317,13.2094,0.00100569,-0.00013306,-0.000867305,0.00147381,-0.000601186,-0.494938,0.00123281,0.0151626,1889,1352,34.8317,-13.2094
672,-328,34.8152,12.6764,0.000402976,-0.000151914,-3.62413e-05,0.000405333,-0.000154271,-0.0649449,0.00033375,0.0127766,1896,1352,34.8152,-12.6764
679,-328,34.7955,12.1241,0.000871596,-0.000369356,0.000116861,0.000882505,-0.000380265,0.0930803,0.000748035,0.0148404,1903,1352,34.7955,-12.1242
686,-328,34.7476,11.5692,0.00131591,-0.000382084,0.000120692,0.00132445,-0.00039062,0.070606,0.00103797,0.015044,1910,1352,34.7475,-11.5692
693,-328,34.7352,11.0319,0.00168998,-0.00024729,0.000103096,0.00169545,-0.000252762,0.0530178,0.00122329,0.0103785,1917,1352,34.7352,-11.0318
700,-328,34.7362,10.4958,0.00200121,-0.000157364,0.000150497,0.00201165,-0.000167806,0.0692742,0.00140039,0.0143731,1924,1352,34.7362,-10.4958
707,-328,34.7404,9.9436,0.00215905,-0.000136145,0.000298936,0.00219735,-0.00017444,0.127413,0.00152637,0.0168681,1931,1352,34.7404,-9.94365
714,-328,34.7288,9.39734,0.00215686,-0.000248767,0.000584264,0.00229125,-0.000383162,0.226091,0.00166994,0.0171235,1938,1352,34.7287,-9.39734
721,-328,34.7363,8.77625,0,0,0,0,0,0,0,-1,1945,1352,34.7364,-8.77629
728,-328,29.2787,6.74695,0,0,0,0,0,0,0,-1,1952,1352,29.2787,-6.74693
735,-328,20.8927,5.23523,0,0,0,0,0,0,0,-1,1959,1352,20.8927,-5.23528
742,-328,20.3547,4.11316,0,0,0,0,0,0,0,-1,1966,1352,20.3547,-4.11321
749,-328,20.0669,5.66321,0,0,0,0,0,0,0,-1,1973,1352,20.0669,-5.66319
756,-328,19.9543,5.50464,0,0,0,0,0,0,0,-1,1980,1352,19.9543,-5.50463
763,-328,0,0,0,0,0,0,0,0,0,-1,1987,1352,0,0
770,-328,0,0,0,0,0,0,0,0,0,-1,1994,1352,0,0
777,-328,0,0,0,0,0,0,0,0,0,-1,2001,1352,0,0
784,-328,0,0,0,0,0,0,0,0,0,-1,2008,1352,0,0
791,-328,0,0,0,0,0,0,0,0,0,-1,2015,1352,0,0
798,-328,0,0,0,0,0,0,0,0,0,-1,2022,1352,0,0
805,-328,0,0,0,0,0,0,0,0,0,-1,2029,1352,0,0
812,-328,0,0,0,0,0,0,0,0,0,-1,2036,1352,0,0
-700,-335,0,0,0,0,0,0,0,0,0,-1,524,1359,0,0
-693,-335,0,0,0,0,0,0,0,0,0,-1,531,1359,0,0
-686,-335,0,0,0,0,0,0,0,0,0,-1,538,1359,0,0
-679,-335,0,0,0,0,0,0,0,0,0,-1,545,1359,0,0
-672,-335,0,0,0,0,0,0,0,0,0,-1,552,1359,0,0
-665,-335,0,0,0,0,0,0,0,0,0,-1,559,1359,0,0
-658,-335,0,0,0,0,0,0,0,0,0,-1,566,1359,0,0
-651,-335,0,0,0,0,0,0,0,0,0,-1,573,1359,0,0
-644,-335,0,0,0,0,0,0,0,0,0,-1,580,1359,0,0
-637,-335,-9.64746,3.53809,0,0,0,0,0,0,0,-1,587,1359,-9.64744,-3.53803
-630,-335,-6.07397,-2.99902,0,0,0,0,0,0,0,-1,594,1359,-6.07397,2.99902
-623,-335,-8.43304,1.09509,0,0,0,0,0,0,0,-1,601,1359,-8.43301,-1.09507
-616,-335,-7.80927,-0.485352,0,0,0,0,0,0,0,-1,608,1359,-7.80926,0.485291
-609,-335,-7.12256,-2.03601,0,0,0,0,0,0,0,-1,615,1359,-7.12253,2.03601
-602,-335,-9.39935,2.25146,0,0,0,0,0,0,0,-1,622,1359,-9.39935,-2.25145
-595,-335,-9.54767,3.01917,0,0,0,0,0,0,0,-1,629,1359,-9.54768,-3.01911
-588,-335,-19.01,6.30286,0,0,0,0,0,0,0,-1,636,1359,-19.01,-6.30283
-581,-335,-18.8232,7.21375,0.00433734,0.00225777,0.00186748,0.00543499,0.00116012,0.53138,0.0033052,0.0450112,643,1359,-18.8232,-7.2138
-574,-335,-18.8369,7.73401,0.0034552,0.00158994,0.00137554,0.00418447,0.000860676,0.48749,0.00255161,0.0141449,650,1359,-18.8369,-7.73403
-567,-335,-18.8262,8.36731,0.0030012,0.00110909,0.00112318,0.00352367,0.000586628,0.435394,0.00218004,0.0176034,657,1359,-18.8262,-8.36731
-560,-335,-18.8088,8.97095,0.00288284,0.000740304,0.00108813,0.00333854,0.000284599,0.396604,0.00213715,0.0261575,664,1359,-18.8088,-8.97098
-553,-335,-18.8426,9.56995,0.00303075,0.000455354,0.00121977,0.00351674,-3.06438e-05,0.379157,0.00235478,0.0299223,671,1359,-18.8426,-9.56998
-546,-335,-18.8787,10.1676,0.00345519,0.000222079,0.00150588,0.00404791,-0.000370645,0.374983,0.00283026,0.0267431,678,1359,-18.8786,-10.1676
-539,-335,-18.9346,10.7399,0.00414322,9.57084e-05,0.00196951,0.00494339,-0.000704462,0.385907,0.00355377,0.0205104,685,1359,-18.9346,-10.7399
-532,-335,-18.9766,11.3455,0.00518124,4.64292e-05,0.00263248,0.006291,-0.00106333,0.398956,0.00458968,0.0145021,692,1359,-18.9766,-11.3455
-525,-335,-18.9259,11.9734,0.00654529,5.09413e-06,0.00346023,0.00803615,-0.00148577,0.406821,0.00591522,0.0120831,699,1359,-18.9259,-11.9734
-518,-335,-19.0007,12.5479,0,0,0,0,0,0,0,-1,706,1359,-19.0007,-12.5478
-511,-335,-17.3098,11.6718,0,0,0,0,0,0,0,-1,713,1359,-17.3097,-11.6717
-504,-335,-9.35767,5.99695,0,0,0,0,0,0,0,-1,720,1359,-9.35767,-5.99694
-497,-335,-8.75024,-0.650513,0,0,0,0,0,0,0,-1,727,1359,-8.75024,0.650521
-490,-335,-9.51971,0.417603,0,0,0,0,0,0,0,-1,734,1359,-9.51974,-0.41765
-483,-335,-10.2883,1.29224,0,0,0,0,0,0,0,-1,741,1359,-10.2883,-1.2922
-476,-335,-11.9938,-0.173462,0,0,0,0,0,0,0,-1,748,1359,-11.9938,0.173429
-469,-335,-12.8704,-0.204102,0,0,0,0,0,0,0,-1,755,1359,-12.8704,0.204117
-462,-335,-13.486,0.0218506,0,0,0,0,0,0,0,-1,762,1359,-13.4859,-0.0217908
-455,-335,-14.1504,0.549561,0,0,0,0,0,0,0,-1,769,1359,-14.1504,-0.549583
-448,-335,0,0,0,0,0,0,0,0,0,-1,776,1359,0,0
-441,-335,0,0,0,0,0,0,0,0,0,-1,783,1359,0,0
-434,-335,0,0,0,0,0,0,0,0,0,-1,790,1359,0,0
-427,-335,0,0,0,0,0,0,0,0,0,-1,797,1359,0,0
-420,-335,0,0,0,0,0,0,0,0,0,-1,804,1359,0,0
-413,-335,0,0,0,0,0,0,0,0,0,-1,811,1359,0,0
-406,-335,0,0,0,0,0,0,0,0,0,-1,818,1359,0,0
-399,-335,0,0,0,0,0,0,0,0,0,-1,825,1359,0,0
-392,-335,0,0,0,0,0,0,0,0,0,-1,832,1359,0,0
-385,-335,0,0,0,0,0,0,0,0,0,-1,839,1359,0,0
-378,-335,0,0,0,0,0,0,0,0,0,-1,846,1359,0,0
-371,-335,0,0,0,0,0,0,0,0,0,-1,853,1359,0,0
-364,-335,0,0,0,0,0,0,0,0,0,-1,860,1359,0,0
-357,-335,0,0,0,0,0,0,0,0,0,-1,867,1359,0,0
-350,-335,0,0,0,0,0,0,0,0,0,-1,874,1359,0,0
-343,-335,0,0,0,0,0,0,0,0,0,-1,881,1359,0,0
-336,-335,0,0,0,0,0,0,0,0,0,-1,888,1359,0,0
-329,-335,0,0,0,0,0,0,0,0,0,-1,895,1359,0,0
-322,-335,0,0,0,0,0,0,0,0,0,-1,902,1359,0,0
-315,-335,0,0,0,0,0,0,0,0,0,-1,909,1359,0,0
-308,-335,0,0,0,0,0,0,0,0,0,-1,916,1359,0,0
-301,-335,0,0,0,0,0,0,0,0,0,-1,923,1359,0,0
-294,-335,0,0,0,0,0,0,0,0,0,-1,930,1359,0,0
-287,-335,0,0,0,0,0,0,0,0,0,-1,937,1359,0,0
-280,-335,0,0,0,0,0,0,0,0,0,-1,944,1359,0,0
-273,-335,0,0,0,0,0,0,0,0,0,-1,951,1359,0,0
-266,-335,0,0,0,0,0,0,0,0,0,-1,958,1359,0,0
-259,-335,0,0,0,0,0,0,0,0,0,-1,965,1359,0,0
-252,-335,0,0,0,0,0,0,0,0,0,-1,972,1359,0,0
-245,-335,0,0,0,0,0,0,0,0,0,-1,979,1359,0,0
-238,-335,0,0,0,0,0,0,0,0,0,-1,986,1359,0,0
-231,-335,0,0,0,0,0,0,0,0,0,-1,993,1359,0,0
-224,-335,0,0,0,0,0,0,0,0,0,-1,1000,1359,0,0
-217,-335,0,0,0,0,0,0,0,0,0,-1,1007,1359,0,0
-210,-335,0,0,0,0,0,0,0,0,0,-1,1014,1359,0,0
-203,-335,0,0,0,0,0,0,0,0,0,-1,1021,1359,0,0
-196,-335,0,0,0,0,0,0,0,0,0,-1,1028,1359,0,0
-189,-335,0,0,0,0,0,0,0,0,0,-1,1035,1359,0,0
-182,-335,0,0,0,0,0,0,0,0,0,-1,1042,1359,0,0
-175,-335,0,0,0,0,0,0,0,0,0,-1,1049,1359,0,0
-168,-335,0,0,0,0,0,0,0,0,0,-1,1056,1359,0,0
-161,-335,0,0,0,0,0,0,0,0,0,-1,1063,1359,0,0
-154,-335,0,0,0,0,0,0,0,0,0,-1,1070,1359,0,0
-147,-335,0,0,0,0,0,0,0,0,0,-1,1077,1359,0,0
-140,-335,0,0,0,0,0,0,0,0,0,-1,1084,1359,0,0
-133,-335,0,0,0,0,0,0,0,0,0,-1,1091,1359,0,0
-126,-335,0,0,0,0,0,0,0,0,0,-1,1098,1359,0,0
-119,-335,0,0,0,0,0,0,0,0,0,-1,1105,1359,0,0
-112,-335,0,0,0,0,0,0,0,0,0,-1,1112,1359,0,0
-105,-335,0,0,0,0,0,0,0,0,0,-1,1119,1359,0,0
-98,-335,0,0,0,0,0,0,0,0,0,-1,1126,1359,0,0
-91,-335,0,0,0,0,0,0,0,0,0,-1,1133,1359,0,0
-84,-335,0,0,0,0,0,0,0,0,0,-1,1140,1359,0,0
-77,-335,0,0,0,0,0,0,0,0,0,-1,1147,1359,0,0
-70,-335,0,0,0,0,0,0,0,0,0,-1,1154,1359,0,0
-63,-335,0,0,0,0,0,0,0,0,0,-1,1161,1359,0,0
-56,-335,0,0,0,0,0,0,0,0,0,-1,1168,1359,0,0
-49,-335,0,0,0,0,0,0,0,0,0,-1,1175,1359,0,0
-42,-335,0,0,0,0,0,0,0,0,0,-1,1182,1359,0,0
-35,-335,0,0,0,0,0,0,0,0,0,-1,1189,1359,0,0
-28,-335,0,0,0,0,0,0,0,0,0,-1,1196,1359,0,0
-21,-335,0,0,0,0,0,0,0,0,0,-1,1203,1359,0,0
-14,-335,0,0,0,0,0,0,0,0,0,-1,1210,1359,0,0
-7,-335,0,0,0,0,0,0,0,0,0,-1,1217,1359,0,0
0,-335,0,0,0,0,0,0,0,0,0,-1,1224,1359,0,0
7,-335,0,0,0,0,0,0,0,0,0,-1,1231,1359,0,0
14,-335,0,0,0,0,0,0,0,0,0,-1,1238,1359,0,0
21,-335,0,0,0,0,0,0,0,0,0,-1,1245,1359,0,0
28,-335,0,0,0,0,0,0,0,0,0,-1,1252,1359,0,0
35,-335,0,0,0,0,0,0,0,0,0,-1,1259,1359,0,0
42,-335,0,0,0,0,0,0,0,0,0,-1,1266,1359,0,0
49,-335,0,0,0,0,0,0,0,0,0,-1,1273,1359,0,0
56,-335,0,0,0,0,0,0,0,0,0,-1,1280,1359,0,0
63,-335,0,0,0,0,0,0,0,0,0,-1,1287,1359,0,0
70,-335,0,0,0,0,0,0,0,0,0,-1,1294,1359,0,0
77,-335,0,0,0,0,0,0,0,0,0,-1,1301,1359,0,0
84,-335,0,0,0,0,0,0,0,0,0,-1,1308,1359,0,0
91,-335,0,0,0,0,0,0,0,0,0,-1,1315,1359,0,0
98,-335,0,0,0,0,0,0,0,0,0,-1,1322,1359,0,0
105,-335,0,0,0,0,0,0,0,0,0,-1,1329,1359,0,0
112,-335,0,0,0,0,0,0,0,0,0,-1,1336,1359,0,0
119,-335,0,0,0,0,0,0,0,0,0,-1,1343,1359,0,0
126,-335,0,0,0,0,0,0,0,0,0,-1,1350,1359,0,0
133,-335,0,0,0,0,0,0,0,0,0,-1,1357,1359,0,0
140,-335,0,0,0,0,0,0,0,0,0,-1,1364,1359,0,0
147,-335,0,0,0,0,0,0,0,0,0,-1,1371,1359,0,0
154,-335,0,0,0,0,0,0,0,0,0,-1,1378,1359,0,0
161,-335,0,0,0,0,0,0,0,0,0,-1,1385,1359,0,0
168,-335,0,0,0,0,0,0,0,0,0,-1,1392,1359,0,0
175,-335,0,0,0,0,0,0,0,0,0,-1,1399,1359,0,0
182,-335,0,0,0,0,0,0,0,0,0,-1,1406,1359,0,0
189,-335,0,0,0,0,0,0,0,0,0,-1,1413,1359,0,0
196,-335,0,0,0,0,0,0,0,0,0,-1,1420,1359,0,0
203,-335,0,0,0,0,0,0,0,0,0,-1,1427,1359,0,0
210,-335,0,0,0,0,0,0,0,0,0,-1,1434,1359,0,0
217,-335,0,0,0,0,0,0,0,0,0,-1,1441,1359,0,0
224,-335,0,0,0,0,0,0,0,0,0,-1,1448,1359,0,0
231,-335,0,0,0,0,0,0,0,0,0,-1,1455,1359,0,0
238,-335,0,0,0,0,0,0,0,0,0,-1,1462,1359,0,0
245,-335,0,0,0,0,0,0,0,0,0,-1,1469,1359,0,0
252,-335,0,0,0,0,0,0,0,0,0,-1,1476,1359,0,0
259,-335,0,0,0,0,0,0,0,0,0,-1,1483,1359,0,0
266,-335,0,0,0,0,0,0,0,0,0,-1,1490,1359,0,0
273,-335,0,0,0,0,0,0,0,0,0,-1,1497,1359,0,0
280,-335,0,0,0,0,0,0,0,0,0,-1,1504,1359,0,0
287,-335,0,0,0,0,0,0,0,0,0,-1,1511,1359,0,0
294,-335,0,0,0,0,0,0,0,0,0,-1,1518,1359,0,0
301,-335,0,0,0,0,0,0,0,0,0,-1,1525,1359,0,0
308,-335,0,0,0,0,0,0,0,0,0,-1,1532,1359,0,0
315,-335,0,0,0,0,0,0,0,0,0,-1,1539,1359,0,0
322,-335,0,0,0,0,0,0,0,0,0,-1,1546,1359,0,0
329,-335,0,0,0,0,0,0,0,0,0,-1,1553,1359,0,0
336,-335,0,0,0,0,0,0,0,0,0,-1,1560,1359,0,0
343,-335,0,0,0,0,0,0,0,0,0,-1,1567,1359,0,0
350,-335,0,0,0,0,0,0,0,0,0,-1,1574,1359,0,0
357,-335,0,0,0,0,0,0,0,0,0,-1,1581,1359,0,0
364,-335,0,0,0,0,0,0,0,0,0,-1,1588,1359,0,0
371,-335,0,0,0,0,0,0,0,0,0,-1,1595,1359,0,0
378,-335,0,0,0,0,0,0,0,0,0,-1,1602,1359,0,0
385,-335,0,0,0,0,0,0,0,0,0,-1,1609,1359,0,0
392,-335,0,0,0,0,0,0,0,0,0,-1,1616,1359,0,0
399,-335,0,0,0,0,0,0,0,0,0,-1,1623,1359,0,0
406,-335,0,0,0,0,0,0,0,0,0,-1,1630,1359,0,0
413,-335,0,0,0,0,0,0,0,0,0,-1,1637,1359,0,0
420,-335,0,0,0,0,0,0,0,0,0,-1,1644,1359,0,0
427,-335,0,0,0,0,0,0,0,0,0,-1,1651,1359,0,0
434,-335,0,0,0,0,0,0,0,0,0,-1,1658,1359,0,0
441,-335,0,0,0,0,0,0,0,0,0,-1,1665,1359,0,0
448,-335,0,0,0,0,0,0,0,0,0,-1,1672,1359,0,0
455,-335,0,0,0,0,0,0,0,0,0,-1,1679,1359,0,0
462,-335,0,0,0,0,0,0,0,0,0,-1,1686,1359,0,0
469,-335,0,0,0,0,0,0,0,0,0,-1,1693,1359,0,0
476,-335,0,0,0,0,0,0,0,0,0,-1,1700,1359,0,0
483,-335,0,0,0,0,0,0,0,0,0,-1,1707,1359,0,0
490,-335,0,0,0,0,0,0,0,0,0,-1,1714,1359,0,0
497,-335,0,0,0,0,0,0,0,0,0,-1,1721,1359,0,0
504,-335,0,0,0,0,0,0,0,0,0,-1,1728,1359,0,0
511,-335,0,0,0,0,0,0,0,0,0,-1,1735,1359,0,0
518,-335,0,0,0,0,0,0,0,0,0,-1,1742,1359,0,0
525,-335,0,0,0,0,0,0,0,0,0,-1,1749,1359,0,0
532,-335,0,0,0,0,0,0,0,0,0,-1,1756,1359,0,0
539,-335,0,0,0,0,0,0,0,0,0,-1,1763,1359,0,0
546,-335,0,0,0,0,0,0,0,0,0,-1,1770,1359,0,0
553,-335,0,0,0,0,0,0,0,0,0,-1,1777,1359,0,0
560,-335,0,0,0,0,0,0,0,0,0,-1,1784,1359,0,0
567,-335,0,0,0,0,0,0,0,0,0,-1,1791,1359,0,0
574,-335,44.5405,5.74219,0,0,0,0,0,0,0,-1,1798,1359,44.5406,-5.74224
581,-335,44.1571,6.41992,0,0,0,0,0,0,0,-1,1805,1359,44.1571,-6.41989
588,-335,50.7247,4.16223,0,0,0,0,0,0,0,-1,1812,1359,50.7247,-4.16227
595,-335,49.984,3.76465,0,0,0,0,0,0,0,-1,1819,1359,49.984,-3.76467
602,-335,36.5643,0.0861816,0,0,0,0,0,0,0,-1,1826,1359,36.5643,-0.0862283
609,-335,36.2933,0.993896,0,0,0,0,0,0,0,-1,1833,1359,36.2934,-0.993911
616,-335,34.6969,4.82666,0,0,0,0,0,0,0,-1,1840,1359,34.6969,-4.82667
623,-335,26.6051,6.54333,0,0,0,0,0,0,0,-1,1847,1359,26.6051,-6.54339
630,-335,19.1707,1.00952,0,0,0,0,0,0,0,-1,1854,1359,19.1707,-1.00953
637,-335,18.2009,6.65454,0,0,0,0,0,0,0,-1,1861,1359,18.2009,-6.6546
644,-335,28.1042,12.067,0,0,0,0,0,0,0,-1,1868,1359,28.1042,-12.067
651,-335,34.1573,14.5137,0,0,0,0,0,0,0,-1,1875,1359,34.1573,-14.5137
658,-335,34.2441,13.8488,0.000472256,-0.000224912,-0.00104416,0.00122448,-0.000977134,-0.624294,0.00127377,0.0300625,1882,1359,34.2441,-13.8487
665,-335,34.2924,13.2467,0.000127284,-0.000583984,-0.000357856,0.000276166,-0.000732866,-0.394256,0.000602126,0.0150932,1889,1359,34.2924,-13.2467
672,-335,34.2676,12.697,0.000464021,-0.000384428,3.91744e-05,0.000465826,-0.000386233,0.0460412,0.000492651,0.0177624,1896,1359,34.2676,-12.697
679,-335,34.2533,12.1649,0.00119328,-0.000334321,3.75758e-05,0.0011942,-0.000335244,0.0245781,0.000928286,0.0156862,1903,1359,34.2533,-12.1649
686,-335,34.2385,11.6024,0.00176948,-0.000226654,-2.91955e-05,0.0017699,-0.000227081,-0.0146219,0.00126246,0.013585,1910,1359,34.2385,-11.6024
693,-335,34.1984,11.0392,0.00234571,-9.2378e-05,-0.000100496,0.00234984,-9.65135e-05,-0.0411264,0.0015997,0.0112545,1917,1359,34.1984,-11.0392
700,-335,34.171,10.5438,0.00288706,3.05041e-05,-0.000140148,0.00289392,2.36447e-05,-0.0489052,0.00192145,0.0110019,1924,1359,34.171,-10.5438
707,-335,34.1661,10.0061,0.00327117,0.000108113,-8.86702e-05,0.00327365,0.000105629,-0.0280038,0.00214809,0.0142006,1931,1359,34.1661,-10.0061
714,-335,34.1826,9.3457,0.00357595,7.34352e-05,7.02722e-05,0.00357736,7.20259e-05,0.0200526,0.00236127,0.0362797,1938,1359,34.1826,-9.34575
721,-335,34.1295,8.60449,0,0,0,0,0,0,0,-1,1945,1359,34.1296,-8.60454
728,-335,20.8126,5.21167,0,0,0,0,0,0,0,-1,1952,1359,20.8127,-5.21172
735,-335,20.2725,5.34729,0,0,0,0,0,0,0,-1,1959,1359,20.2724,-5.34734
742,-335,19.8624,4.72229,0,0,0,0,0,0,0,-1,1966,1359,19.8624,-4.72225
749,-335,20.5887,6.05322,0,0,0,0,0,0,0,-1,1973,1359,20.5887,-6.05322
756,-335,20.7832,6.00452,0,0,0,0,0,0,0,-1,1980,1359,20.7832,-6.00447
763,-335,0,0,0,0,0,0,0,0,0,-1,1987,1359,0,0
770,-335,0,0,0,0,0,0,0,0,0,-1,1994,1359,0,0
777,-335,0,0,0,0,0,0,0,0,0,-1,2001,1359,0,0
784,-335,0,0,0,0,0,0,0,0,0,-1,2008,1359,0,0
791,-335,0,0,0,0,0,0,0,0,0,-1,2015,1359,0,0
798,-335,0,0,0,0,0,0,0,0,0,-1,2022,1359,0,0
805,-335,0,0,0,0,0,0,0,0,0,-1,2029,1359,0,0
812,-335,0,0,0,0,0,0,0,0,0,-1,2036,1359,0,0
-700,-342,0,0,0,0,0,0,0,0,0,-1,524,1366,0,0
-693,-342,0,0,0,0,0,0,0,0,0,-1,531,1366,0,0
-686,-342,0,0,0,0,0,0,0,0,0,-1,538,1366,0,0
-679,-342,0,0,0,0,0,0,0,0,0,-1,545,1366,0,0
-672,-342,0,0,0,0,0,0,0,0,0,-1,552,1366,0,0
-665,-342,0,0,0,0,0,0,0,0,0,-1,559,1366,0,0
-658,-342,0,0,0,0,0,0,0,0,0,-1,566,1366,0,0
-651,-342,0,0,0,0,0,0,0,0,0,-1,573,1366,0,0
-644,-342,0,0,0,0,0,0,0,0,0,-1,580,1366,0,0
-637,-342,-8.67786,-4.58557,0,0,0,0,0,0,0,-1,587,1366,-8.67788,4.5856
-630,-342,-8.60132,2.71777,0,0,0,0,0,0,0,-1,594,1366,-8.60135,-2.71779
-623,-342,-8.41168,0.662476,0,0,0,0,0,0,0,-1,601,1366,-8.41168,-0.662442
-616,-342,-6.625,-1.28015,0,0,0,0,0,0,0,-1,608,1366,-6.62499,1.28011
-609,-342,-7.83154,0.674561,0,0,0,0,0,0,0,-1,615,1366,-7.83155,-0.674598
-602,-342,-9.65765,2.25195,0,0,0,0,0,0,0,-1,622,1366,-9.65767,-2.25192
-595,-342,-9.47687,3.00671,0,0,0,0,0,0,0,-1,629,1366,-9.47686,-3.00668
-588,-342,-9.78467,3.57727,0,0,0,0,0,0,0,-1,636,1366,-9.78468,-3.57723
-581,-342,-18.3889,7.26721,0,0,0,0,0,0,0,-1,643,1366,-18.3889,-7.26724
-574,-342,-18.2897,7.80396,0.00379252,0.00156982,0.00146825,0.0045226,0.000839738,0.46144,0.00277779,0.0161771,650,1366,-18.2897,-7.8039
-567,-342,-18.2169,8.41467,0.0031735,0.00113543,0.0011693,0.00370549,0.000603432,0.426979,0.00229577,0.0184444,657,1366,-18.2169,-8.41469
-560,-342,-18.2532,9.01782,0.00293276,0.000791323,0.0010911,0.00339074,0.000333338,0.397413,0.00215798,0.0265455,664,1366,-18.2532,-9.01776
-553,-342,-18.3145,9.54797,0.00296364,0.000530687,0.00117853,0.0034409,5.34273e-05,0.384778,0.00227633,0.0287533,671,1366,-18.3145,-9.54799
-546,-342,-18.3588,10.1111,0.00325514,0.000324376,0.00140629,0.00382077,-0.000241251,0.382412,0.00263128,0.0271253,678,1366,-18.3588,-10.1111
-539,-342,-18.3727,10.7587,0.00377647,0.000211163,0.00178673,0.00451775,-0.000530119,0.39327,0.0032032,0.0222822,685,1366,-18.3727,-10.7587
-532,-342,-18.3971,11.3798,0.00459873,0.000172716,0.00234417,0.00560947,-0.000838026,0.407087,0.00404801,0.0167622,692,1366,-18.3971,-11.3797
-525,-342,-18.3387,11.9945,0.0057021,0.000182341,0.0030489,0.00705473,-0.00117028,0.417556,0.00513787,0.0121898,699,1366,-18.3387,-11.9945
-518,-342,-18.2858,12.6078,0.00721467,0.000454037,0.0039886,0.00906269,-0.00139398,0.433879,0.00655604,0.034438,706,1366,-18.2859,-12.6078
-511,-342,-18.2603,13.2075,0,0,0,0,0,0,0,-1,713,1366,-18.2603,-13.2075
-504,-342,-8.95709,6.5719,0,0,0,0,0,0,0,-1,720,1366,-8.95707,-6.57192
-497,-342,-8.26587,-0.943604,0,0,0,0,0,0,0,-1,727,1366,-8.26586,0.943543
-490,-342,-9.07153,-0.0227051,0,0,0,0,0,0,0,-1,734,1366,-9.07155,0.0227087
-483,-342,-9.87726,0.898071,0,0,0,0,0,0,0,-1,741,1366,-9.87724,-0.898125
-476,-342,-11.6371,-0.736328,0,0,0,0,0,0,0,-1,748,1366,-11.6371,0.736281
-469,-342,-12.6245,-0.987549,0,0,0,0,0,0,0,-1,755,1366,-12.6245,0.987553
-462,-342,-13.0912,-0.533203,0,0,0,0,0,0,0,-1,762,1366,-13.0912,0.533224
-455,-342,-13.7612,0.122925,0,0,0,0,0,0,0,-1,769,1366,-13.7612,-0.122896
-448,-342,-14.5278,0.826904,0,0,0,0,0,0,0,-1,776,1366,-14.5277,-0.826861
-441,-342,0,0,0,0,0,0,0,0,0,-1,783,1366,0,0
-434,-342,0,0,0,0,0,0,0,0,0,-1,790,1366,0,0
-427,-342,0,0,0,0,0,0,0,0,0,-1,797,1366,0,0
-420,-342,0,0,0,0,0,0,0,0,0,-1,804,1366,0,0
-413,-342,0,0,0,0,0,0,0,0,0,-1,811,1366,0,0
-406,-342,0,0,0,0,0,0,0,0,0,-1,818,1366,0,0
-399,-342,0,0,0,0,0,0,0,0,0,-1,825,1366,0,0
-392,-342,0,0,0,0,0,0,0,0,0,-1,832,1366,0,0
-385,-342,0,0,0,0,0,0,0,0,0,-1,839,1366,0,0
-378,-342,0,0,0,0,0,0,0,0,0,-1,846,1366,0,0
-371,-342,0,0,0,0,0,0,0,0,0,-1,853,1366,0,0
-364,-342,0,0,0,0,0,0,0,0,0,-1,860,1366,0,0
-357,-342,0,0,0,0,0,0,0,0,0,-1,867,1366,0,0
-350,-342,0,0,0,0,0,0,0,0,0,-1,874,1366,0,0
-343,-342,0,0,0,0,0,0,0,0,0,-1,881,1366,0,0
-336,-342,0,0,0,0,0,0,0,0,0,-1,888,1366,0,0
-329,-342,0,0,0,0,0,0,0,0,0,-1,895,1366,0,0
-322,-342,0,0,0,0,0,0,0,0,0,-1,902,1366,0,0
-315,-342,0,0,0,0,0,0,0,0,0,-1,909,1366,0,0
-308,-342,0,0,0,0,0,0,0,0,0,-1,916,1366,0,0
-301,-342,0,0,0,0,0,0,0,0,0,-1,923,1366,0,0
-294,-342,0,0,0,0,0,0,0,0,0,-1,930,1366,0,0
-287,-342,0,0,0,0,0,0,0,0,0,-1,937,1366,0,0
-280,-342,0,0,0,0,0,0,0,0,0,-1,944,1366,0,0
-273,-342,0,0,0,0,0,0,0,0,0,-1,951,1366,0,0
-266,-342,0,0,0,0,0,0,0,0,0,-1,958,1366,0,0
-259,-342,0,0,0,0,0,0,0,0,0,-1,965,1366,0,0
-252,-342,0,0,0,0,0,0,0,0,0,-1,972,1366,0,0
-245,-342,0,0,0,0,0,0,0,0,0,-1,979,1366,0,0
-238,-342,0,0,0,0,0,0,0,0,0,-1,986,1366,0,0
-231,-342,0,0,0,0,0,0,0,0,0,-1,993,1366,0,0
-224,-342,0,0,0,0,0,0,0,0,0,-1,1000,1366,0,0
-217,-342,0,0,0,0,0,0,0,0,0,-1,1007,1366,0,0
-210,-342,0,0,0,0,0,0,0,0,0,-1,1014,1366,0,0
-203,-342,0,0,0,0,0,0,0,0,0,-1,1021,1366,0,0
-196,-342,0,0,0,0,0,0,0,0,0,-1,1028,1366,0,0
-189,-342,0,0,0,0,0,0,0,0,0,-1,1035,1366,0,0
-182,-342,0,0,0,0,0,0,0,0,0,-1,1042,1366,0,0
-175,-342,0,0,0,0,0,0,0,0,0,-1,1049,1366,0,0
-168,-342,0,0,0,0,0,0,0,0,0,-1,1056,1366,0,0
-161,-342,0,0,0,0,0,0,0,0,0,-1,1063,1366,0,0
-154,-342,0,0,0,0,0,0,0,0,0,-1,1070,1366,0,0
-147,-342,0,0,0,0,0,0,0,0,0,-1,1077,1366,0,0
-140,-342,0,0,0,0,0,0,0,0,0,-1,1084,1366,0,0
-133,-342,0,0,0,0,0,0,0,0,0,-1,1091,1366,0,0
-126,-342,0,0,0,0,0,0,0,0,0,-1,1098,1366,0,0
-119,-342,0,0,0,0,0,0,0,0,0,-1,1105,1366,0,0
-112,-342,0,0,0,0,0,0,0,0,0,-1,1112,1366,0,0
-105,-342,0,0,0,0,0,0,0,0,0,-1,1119,1366,0,0
-98,-342,0,0,0,0,0,0,0,0,0,-1,1126,1366,0,0
-91,-342,0,0,0,0,0,0,0,0,0,-1,1133,1366,0,0
-84,-342,0,0,0,0,0,0,0,0,0,-1,1140,1366,0,0
-77,-342,0,0,0,0,0,0,0,0,0,-1,1147,1366,0,0
-70,-342,0,0,0,0,0,0,0,0,0,-1,1154,1366,0,0
-63,-342,0,0,0,0,0,0,0,0,0,-1,1161,1366,0,0
-56,-342,0,0,0,0,0,0,0,0,0,-1,1168,1366,0,0
-49,-342,0,0,0,0,0,0,0,0,0,-1,1175,1366,0,0
-42,-342,0,0,0,0,0,0,0,0,0,-1,1182,1366,0,0
-35,-342,0,0,0,0,0,0,0,0,0,-1,1189,1366,0,0
-28,-342,0,0,0,0,0,0,0,0,0,-1,1196,1366,0,0
-21,-342,0,0,0,0,0,0,0,0,0,-1,1203,1366,0,0
-14,-342,0,0,0,0,0,0,0,0,0,-1,1210,1366,0,0
-7,-342,0,0,0,0,0,0,0,0,0,-1,1217,1366,0,0
0,-342,0,0,0,0,0,0,0,0,0,-1,1224,1366,0,0
7,-342,0,0,0,0,0,0,0,0,0,-1,1231,1366,0,0
14,-342,0,0,0,0,0,0,0,0,0,-1,1238,1366,0,0
21,-342,0,0,0,0,0,0,0,0,0,-1,1245,1366,0,0
28,-342,0,0,0,0,0,0,0,0,0,-1,1252,1366,0,0
35,-342,0,0,0,0,0,0,0,0,0,-1,1259,1366,0,0
42,-342,0,0,0,0,0,0,0,0,0,-1,1266,1366,0,0
49,-342,0,0,0,0,0,0,0,0,0,-1,1273,1366,0,0
56,-342,0,0,0,0,0,0,0,0,0,-1,1280,1366,0,0
63,-342,0,0,0,0,0,0,0,0,0,-1,1287,1366,0,0
70,-342,0,0,0,0,0,0,0,0,0,-1,1294,1366,0,0
77,-342,0,0,0,0,0,0,0,0,0,-1,1301,1366,0,0
84,-342,0,0,0,0,0,0,0,0,0,-1,1308,1366,0,0
91,-342,0,0,0,0,0,0,0,0,0,-1,1315,1366,0,0
98,-342,0,0,0,0,0,0,0,0,0,-1,1322,1366,0,0
105,-342,0,0,0,0,0,0,0,0,0,-1,1329,1366,0,0
112,-342,0,0,0,0,0,0,0,0,0,-1,1336,1366,0,0
119,-342,0,0,0,0,0,0,0,0,0,-1,1343,1366,0,0
126,-342,0,0,0,0,0,0,0,0,0,-1,1350,1366,0,0
133,-342,0,0,0,0,0,0,0,0,0,-1,1357,1366,0,0
140,-342,0,0,0,0,0,0,0,0,0,-1,1364,1366,0,0
147,-342,0,0,0,0,0,0,0,0,0,-1,1371,1366,0,0
154,-342,0,0,0,0,0,0,0,0,0,-1,1378,1366,0,0
161,-342,0,0,0,0,0,0,0,0,0,-1,1385,1366,0,0
168,-342,0,0,0,0,0,0,0,0,0,-1,1392,1366,0,0
175,-342,0,0,0,0,0,0,0,0,0,-1,1399,1366,0,0
182,-342,0,0,0,0,0,0,0,0,0,-1,1406,1366,0,0
189,-342,0,0,0,0,0,0,0,0,0,-1,1413,1366,0,0
196,-342,0,0,0,0,0,0,0,0,0,-1,1420,1366,0,0
203,-342,0,0,0,0,0,0,0,0,0,-1,1427,1366,0,0
210,-342,0,0,0,0,0,0,0,0,0,-1,1434,1366,0,0
217,-342,0,0,0,0,0,0,0,0,0,-1,1441,1366,0,0
224,-342,0,0,0,0,0,0,0,0,0,-1,1448,1366,0,0
231,-342,0,0,0,0,0,0,0,0,0,-1,1455,1366,0,0
238,-342,0,0,0,0,0,0,0,0,0,-1,1462,1366,0,0
245,-342,0,0,0,0,0,0,0,0,0,-1,1469,1366,0,0
252,-342,0,0,0,0,0,0,0,0,0,-1,1476,1366,0,0
259,-342,0,0,0,0,0,0,0,0,0,-1,1483,1366,0,0
266,-342,0,0,0,0,0,0,0,0,0,-1,1490,1366,0,0
273,-342,0,0,0,0,0,0,0,0,0,-1,1497,1366,0,0
280,-342,0,0,0,0,0,0,0,0,0,-1,1504,1366,0,0
287,-342,0,0,0,0,0,0,0,0,0,-1,1511,1366,0,0
294,-342,0,0,0,0,0,0,0,0,0,-1,1518,1366,0,0
301,-342,0,0,0,0,0,0,0,0,0,-1,1525,1366,0,0
308,-342,0,0,0,0,0,0,0,0,0,-1,1532,1366,0,0
315,-342,0,0,0,0,0,0,0,0,0,-1,1539,1366,0,0
322,-342,0,0,0,0,0,0,0,0,0,-1,1546,1366,0,0
329,-342,0,0,0,0,0,0,0,0,0,-1,1553,1366,0,0
336,-342,0,0,0,0,0,0,0,0,0,-1,1560,1366,0,0
343,-342,0,0,0,0,0,0,0,0,0,-1,1567,1366,0,0
350,-342,0,0,0,0,0,0,0,0,0,-1,1574,1366,0,0
357,-342,0,0,0,0,0,0,0,0,0,-1,1581,1366,0,0
364,-342,0,0,0,0,0,0,0,0,0,-1,1588,1366,0,0
371,-342,0,0,0,0,0,0,0,0,0,-1,1595,1366,0,0
378,-342,0,0,0,0,0,0,0,0,0,-1,1602,1366,0,0
385,-342,0,0,0,0,0,0,0,0,0,-1,1609,1366,0,0
392,-342,0,0,0,0,0,0,0,0,0,-1,1616,1366,0,0
399,-342,0,0,0,0,0,0,0,0,0,-1,1623,1366,0,0
406,-342,0,0,0,0,0,0,0,0,0,-1,1630,1366,0,0
413,-342,0,0,0,0,0,0,0,0,0,-1,1637,1366,0,0
420,-342,0,0,0,0,0,0,0,0,0,-1,1644,1366,0,0
427,-342,0,0,0,0,0,0,0,0,0,-1,1651,1366,0,0
434,-342,0,0,0,0,0,0,0,0,0,-1,1658,1366,0,0
441,-342,0,0,0,0,0,0,0,0,0,-1,1665,1366,0,0
448,-342,0,0,0,0,0,0,0,0,0,-1,1672,1366,0,0
455,-342,0,0,0,0,0,0,0,0,0,-1,1679,1366,0,0
462,-342,0,0,0,0,0,0,0,0,0,-1,1686,1366,0,0
469,-342,0,0,0,0,0,0,0,0,0,-1,1693,1366,0,0
476,-342,0,0,0,0,0,0,0,0,0,-1,1700,1366,0,0
483,-342,0,0,0,0,0,0,0,0,0,-1,1707,1366,0,0
490,-342,0,0,0,0,0,0,0,0,0,-1,1714,1366,0,0
497,-342,0,0,0,0,0,0,0,0,0,-1,1721,1366,0,0
504,-342,0,0,0,0,0,0,0,0,0,-1,1728,1366,0,0
511,-342,0,0,0,0,0,0,0,0,0,-1,1735,1366,0,0
518,-342,0,0,0,0,0,0,0,0,0,-1,1742,1366,0,0
525,-342,0,0,0,0,0,0,0,0,0,-1,1749,1366,0,0
532,-342,0,0,0,0,0,0,0,0,0,-1,1756,1366,0,0
539,-342,0,0,0,0,0,0,0,0,0,-1,1763,1366,0,0
546,-342,0,0,0,0,0,0,0,0,0,-1,1770,1366,0,0
553,-342,0,0,0,0,0,0,0,0,0,-1,1777,1366,0,0
560,-342,0,0,0,0,0,0,0,0,0,-1,1784,1366,0,0
567,-342,42.6652,5.53748,0,0,0,0,0,0,0,-1,1791,1366,42.6652,-5.53752
574,-342,43.0466,5.95728,0,0,0,0,0,0,0,-1,1798,1366,43.0466,-5.9573
581,-342,43.4904,6.59937,0,0,0,0,0,0,0,-1,1805,1366,43.4903,-6.59938
588,-342,43.9108,7.22559,0,0,0,0,0,0,0,-1,1812,1366,43.9107,-7.22554
595,-342,35.7993,0.709961,0,0,0,0,0,0,0,-1,1819,1366,35.7993,-0.709913
602,-342,36.3618,3.28723,0,0,0,0,0,0,0,-1,1826,1366,36.3619,-3.28719
609,-342,35.3777,4.14978,0,0,0,0,0,0,0,-1,1833,1366,35.3777,-4.14976
616,-342,34.199,5.8158,0,0,0,0,0,0,0,-1,1840,1366,34.199,-5.81579
623,-342,26.0299,6.86865,0,0,0,0,0,0,0,-1,1847,1366,26.0299,-6.86863
630,-342,17.3431,0.773071,0,0,0,0,0,0,0,-1,1854,1366,17.3432,-0.773095
637,-342,16.196,6.76172,0,0,0,0,0,0,0,-1,1861,1366,16.1961,-6.76174
644,-342,31.8916,14.0614,0,0,0,0,0,0,0,-1,1868,1366,31.8916,-14.0613
651,-342,33.8564,14.4009,0,0,0,0,0,0,0,-1,1875,1366,33.8564,-14.4009
658,-342,33.7172,13.8329,-0.00049359,-0.000234808,3.08157e-06,-0.000234771,-0.000493627,1.55889,0.000285109,0.0209716,1882,1366,33.7171,-13.8329
665,-342,33.7299,13.251,0.000146107,-0.00037862,9.53233e-05,0.000162887,-0.0003954,0.174248,0.000331514,0.0164854,1889,1366,33.7299,-13.251
672,-342,33.7114,12.7242,0.000841177,-0.000362595,7.23504e-05,0.000845509,-0.000366928,0.0598161,0.000717949,0.0130023,1896,1366,33.7115,-12.7243
679,-342,33.6843,12.2069,0.00155971,-0.000297417,1.30664e-05,0.0015598,-0.000297509,0.00703538,0.00115191,0.0131687,1903,1366,33.6844,-12.2069
686,-342,33.7123,11.6718,0.00228478,-0.000224384,-5.55633e-05,0.00228601,-0.000225614,-0.0221297,0.00160451,0.0125607,1910,1366,33.7123,-11.6718
693,-342,33.6516,11.0898,0.00302302,-0.000116134,-0.000138103,0.00302908,-0.000122198,-0.0438807,0.00206133,0.0122295,1917,1366,33.6516,-11.0898
700,-342,33.6133,10.5592,0.00375239,1.3825e-05,-0.000225965,0.003766,2.16765e-07,-0.0601499,0.00251059,0.0137396,1924,1366,33.6133,-10.5593
707,-342,33.6188,9.9845,0.00429793,0.00012012,-0.000231913,0.00431077,0.000107286,-0.0552842,0.00283876,0.0137726,1931,1366,33.6188,-9.9845
714,-342,33.697,9.26709,0,0,0,0,0,0,0,-1,1938,1366,33.697,-9.26713
721,-342,22.4666,6.08679,0,0,0,0,0,0,0,-1,1945,1366,22.4666,-6.08678
728,-342,19.8912,5.26636,0,0,0,0,0,0,0,-1,1952,1366,19.8913,-5.26636
735,-342,19.481,4.41968,0,0,0,0,0,0,0,-1,1959,1366,19.4809,-4.41962
742,-342,19.309,2.66943,0,0,0,0,0,0,0,-1,1966,1366,19.3089,-2.66948
749,-342,21.0934,6.47729,0,0,0,0,0,0,0,-1,1973,1366,21.0934,-6.4773
756,-342,0,0,0,0,0,0,0,0,0,-1,1980,1366,0,0
763,-342,0,0,0,0,0,0,0,0,0,-1,1987,1366,0,0
770,-342,0,0,0,0,0,0,0,0,0,-1,1994,1366,0,0
777,-342,0,0,0,0,0,0,0,0,0,-1,2001,1366,0,0
784,-342,0,0,0,0,0,0,0,0,0,-1,2008,1366,0,0
791,-342,0,0,0,0,0,0,0,0,0,-1,2015,1366,0,0
798,-342,0,0,0,0,0,0,0,0,0,-1,2022,1366,0,0
805,-342,0,0,0,0,0,0,0,0,0,-1,2029,1366,0,0
812,-342,0,0,0,0,0,0,0,0,0,-1,2036,1366,0,0
-700,-349,0,0,0,0,0,0,0,0,0,-1,524,1373,0,0
-693,-349,0,0,0,0,0,0,0,0,0,-1,531,1373,0,0
-686,-349,0,0,0,0,0,0,0,0,0,-1,538,1373,0,0
-679,-349,0,0,0,0,0,0,0,0,0,-1,545,1373,0,0
-672,-349,0,0,0,0,0,0,0,0,0,-1,552,1373,0,0
-665,-349,0,0,0,0,0,0,0,0,0,-1,559,1373,0,0
-658,-349,0,0,0,0,0,0,0,0,0,-1,566,1373,0,0
-651,-349,0,0,0,0,0,0,0,0,0,-1,573,1373,0,0
-644,-349,0,0,0,0,0,0,0,0,0,-1,580,1373,0,0
-637,-349,0,0,0,0,0,0,0,0,0,-1,587,1373,0,0
-630,-349,-7.64117,-5.06177,0,0,0,0,0,0,0,-1,594,1373,-7.64118,5.0618
-623,-349,-8.63507,0.51123,0,0,0,0,0,0,0,-1,601,1373,-8.63505,-0.511275
-616,-349,-5.2066,-0.188232,0,0,0,0,0,0,0,-1,608,1373,-5.20659,0.188211
-609,-349,-7.12073,1.37048,0,0,0,0,0,0,0,-1,615,1373,-7.12072,-1.37044
-602,-349,-9.00623,3.39587,0,0,0,0,0,0,0,-1,622,1373,-9.0062,-3.39591
-595,-349,-9.50568,2.96912,0,0,0,0,0,0,0,-1,629,1373,-9.50569,-2.96906
-588,-349,-8.60046,3.56042,0,0,0,0,0,0,0,-1,636,1373,-8.60046,-3.56047
-581,-349,-17.587,7.2146,0,0,0,0,0,0,0,-1,643,1373,-17.587,-7.21457
-574,-349,-17.6349,7.7572,0.00458668,0.00153145,0.00154264,0.00523009,0.000888036,0.395146,0.00323164,0.0352638,650,1373,-17.6349,-7.75717
-567,-349,-17.6711,8.4458,0.00365435,0.0011698,0.00122027,0.00415342,0.00067072,0.388231,0.00257466,0.0188211,657,1373,-17.6712,-8.44583
-560,-349,-17.689,9.08093,0.00319394,0.000856781,0.00110439,0.00363323,0.000417489,0.378582,0.00229568,0.0215377,664,1373,-17.6891,-9.08089
-553,-349,-17.7324,9.61426,0.00303849,0.00062663,0.00115302,0.00350101,0.000164111,0.381486,0.00228127,0.026256,671,1373,-17.7324,-9.61427
-546,-349,-17.7708,10.1362,0.00312393,0.000454092,0.0013243,0.00366938,-9.13577e-05,0.390703,0.00247726,0.0282305,678,1373,-17.7708,-10.1362
-539,-349,-17.8019,10.7369,0.00342956,0.000349052,0.00161869,0.0041237,-0.000345091,0.405111,0.00287109,0.0237183,685,1373,-17.8019,-10.7369
-532,-349,-17.8065,11.3607,0.00399945,0.000312953,0.00206103,0.00492124,-0.000608834,0.420561,0.00350146,0.0177813,692,1373,-17.8064,-11.3607
-525,-349,-17.7684,12.0034,0.00480472,0.000349218,0.00263331,0.0060262,-0.00087226,0.434317,0.00433755,0.0133401,699,1373,-17.7684,-12.0034
-518,-349,-17.7482,12.66,0.00590504,0.000597451,0.00338085,0.00754925,-0.00104675,0.45265,0.00541558,0.02155,706,1373,-17.7482,-12.6601
-511,-349,-17.7071,13.3157,0,0,0,0,0,0,0,-1,713,1373,-17.7071,-13.3157
-504,-349,-9.60516,7.88831,0,0,0,0,0,0,0,-1,720,1373,-9.60519,-7.88825
-497,-349,-7.9339,5.58789,0,0,0,0,0,0,0,-1,727,1373,-7.93388,-5.58785
-490,-349,-8.73969,-0.503784,0,0,0,0,0,0,0,-1,734,1373,-8.73966,0.503752
-483,-349,-5.66974,3.7395,0,0,0,0,0,0,0,-1,741,1373,-5.66975,-3.73949
-476,-349,-10.8496,1.15759,0,0,0,0,0,0,0,-1,748,1373,-10.8496,-1.15756
-469,-349,-12.3314,-1.74878,0,0,0,0,0,0,0,-1,755,1373,-12.3314,1.74882
-462,-349,-12.6559,-0.995361,0,0,0,0,0,0,0,-1,762,1373,-12.656,0.995351
-455,-349,-13.2897,-0.234253,0,0,0,0,0,0,0,-1,769,1373,-13.2897,0.234261
-448,-349,-14.045,0.712891,0,0,0,0,0,0,0,-1,776,1373,-14.045,-0.712838
-441,-349,0,0,0,0,0,0,0,0,0,-1,783,1373,0,0
-434,-349,0,0,0,0,0,0,0,0,0,-1,790,1373,0,0
-427,-349,0,0,0,0,0,0,0,0,0,-1,797,1373,0,0
-420,-349,0,0,0,0,0,0,0,0,0,-1,804,1373,0,0
-413,-349,0,0,0,0,0,0,0,0,0,-1,811,1373,0,0
-406,-349,0,0,0,0,0,0,0,0,0,-1,818,1373,0,0
-399,-349,0,0,0,0,0,0,0,0,0,-1,825,1373,0,0
-392,-349,0,0,0,0,0,0,0,0,0,-1,832,1373,0,0
-385,-349,0,0,0,0,0,0,0,0,0,-1,839,1373,0,0
-378,-349,0,0,0,0,0,0,0,0,0,-1,846,1373,0,0
-371,-349,0,0,0,0,0,0,0,0,0,-1,853,1373,0,0
-364,-349,0,0,0,0,0,0,0,0,0,-1,860,1373,0,0
-357,-349,0,0,0,0,0,0,0,0,0,-1,867,1373,0,0
-350,-349,0,0,0,0,0,0,0,0,0,-1,874,1373,0,0
-343,-349,0,0,0,0,0,0,0,0,0,-1,881,1373,0,0
-336,-349,0,0,0,0,0,0,0,0,0,-1,888,1373,0,0
-329,-349,0,0,0,0,0,0,0,0,0,-1,895,1373,0,0
-322,-349,0,0,0,0,0,0,0,0,0,-1,902,1373,0,0
-315,-349,0,0,0,0,0,0,0,0,0,-1,909,1373,0,0
-308,-349,0,0,0,0,0,0,0,0,0,-1,916,1373,0,0
-301,-349,0,0,0,0,0,0,0,0,0,-1,923,1373,0,0
-294,-349,0,0,0,0,0,0,0,0,0,-1,930,1373,0,0
-287,-349,0,0,0,0,0,0,0,0,0,-1,937,1373,0,0
-280,-349,0,0,0,0,0,0,0,0,0,-1,944,1373,0,0
-273,-349,0,0,0,0,0,0,0,0,0,-1,951,1373,0,0
-266,-349,0,0,0,0,0,0,0,0,0,-1,958,1373,0,0
-259,-349,0,0,0,0,0,0,0,0,0,-1,965,1373,0,0
-252,-349,0,0,0,0,0,0,0,0,0,-1,972,1373,0,0
-245,-349,0,0,0,0,0,0,0,0,0,-1,979,1373,0,0
-238,-349,0,0,0,0,0,0,0,0,0,-1,986,1373,0,0
-231,-349,0,0,0,0,0,0,0,0,0,-1,993,1373,0,0
-224,-349,0,0,0,0,0,0,0,0,0,-1,1000,1373,0,0
-217,-349,0,0,0,0,0,0,0,0,0,-1,1007,1373,0,0
-210,-349,0,0,0,0,0,0,0,0,0,-1,1014,1373,0,0
-203,-349,0,0,0,0,0,0,0,0,0,-1,1021,1373,0,0
-196,-349,0,0,0,0,0,0,0,0,0,-1,1028,1373,0,0
-189,-349,0,0,0,0,0,0,0,0,0,-1,1035,1373,0,0
-182,-349,0,0,0,0,0,0,0,0,0,-1,1042,1373,0,0
-175,-349,0,0,0,0,0,0,0,0,0,-1,1049,1373,0,0
-168,-349,0,0,0,0,0,0,0,0,0,-1,1056,1373,0,0
-161,-349,0,0,0,0,0,0,0,0,0,-1,1063,1373,0,0
-154,-349,0,0,0,0,0,0,0,0,0,-1,1070,1373,0,0
-147,-349,0,0,0,0,0,0,0,0,0,-1,1077,1373,0,0
-140,-349,0,0,0,0,0,0,0,0,0,-1,1084,1373,0,0
-133,-349,0,0,0,0,0,0,0,0,0,-1,1091,1373,0,0
-126,-349,0,0,0,0,0,0,0,0,0,-1,1098,1373,0,0
-119,-349,0,0,0,0,0,0,0,0,0,-1,1105,1373,0,0
-112,-349,0,0,0,0,0,0,0,0,0,-1,1112,1373,0,0
-105,-349,0,0,0,0,0,0,0,0,0,-1,1119,1373,0,0
-98,-349,0,0,0,0,0,0,0,0,0,-1,1126,1373,0,0
-91,-349,0,0,0,0,0,0,0,0,0,-1,1133,1373,0,0
-84,-349,0,0,0,0,0,0,0,0,0,-1,1140,1373,0,0
-77,-349,0,0,0,0,0,0,0,0,0,-1,1147,1373,0,0
-70,-349,0,0,0,0,0,0,0,0,0,-1,1154,1373,0,0
-63,-349,0,0,0,0,0,0,0,0,0,-1,1161,1373,0,0
-56,-349,0,0,0,0,0,0,0,0,0,-1,1168,1373,0,0
-49,-349,0,0,0,0,0,0,0,0,0,-1,1175,1373,0,0
-42,-349,0,0,0,0,0,0,0,0,0,-1,1182,1373,0,0
-35,-349,0,0,0,0,0,0,0,0,0,-1,1189,1373,0,0
-28,-349,0,0,0,0,0,0,0,0,0,-1,1196,1373,0,0
-21,-349,0,0,0,0,0,0,0,0,0,-1,1203,1373,0,0
-14,-349,0,0,0,0,0,0,0,0,0,-1,1210,1373,0,0
-7,-349,0,0,0,0,0,0,0,0,0,-1,1217,1373,0,0
0,-349,0,0,0,0,0,0,0,0,0,-1,1224,1373,0,0
7,-349,0,0,0,0,0,0,0,0,0,-1,1231,1373,0,0
14,-349,0,0,0,0,0,0,0,0,0,-1,1238,1373,0,0
21,-349,0,0,0,0,0,0,0,0,0,-1,1245,1373,0,0
28,-349,0,0,0,0,0,0,0,0,0,-1,1252,1373,0,0
35,-349,0,0,0,0,0,0,0,0,0,-1,1259,1373,0,0
42,-349,0,0,0,0,0,0,0,0,0,-1,1266,1373,0,0
49,-349,0,0,0,0,0,0,0,0,0,-1,1273,1373,0,0
56,-349,0,0,0,0,0,0,0,0,0,-1,1280,1373,0,0
63,-349,0,0,0,0,0,0,0,0,0,-1,1287,1373,0,0
70,-349,0,0,0,0,0,0,0,0,0,-1,1294,1373,0,0
77,-349,0,0,0,0,0,0,0,0,0,-1,1301,1373,0,0
84,-349,0,0,0,0,0,0,0,0,0,-1,1308,1373,0,0
91,-349,0,0,0,0,0,0,0,0,0,-1,1315,1373,0,0
98,-349,0,0,0,0,0,0,0,0,0,-1,1322,1373,0,0
105,-349,0,0,0,0,0,0,0,0,0,-1,1329,1373,0,0
112,-349,0,0,0,0,0,0,0,0,0,-1,1336,1373,0,0
119,-349,0,0,0,0,0,0,0,0,0,-1,1343,1373,0,0
126,-349,0,0,0,0,0,0,0,0,0,-1,1350,1373,0,0
133,-349,0,0,0,0,0,0,0,0,0,-1,1357,1373,0,0
140,-349,0,0,0,0,0,0,0,0,0,-1,1364,1373,0,0
147,-349,0,0,0,0,0,0,0,0,0,-1,1371,1373,0,0
154,-349,0,0,0,0,0,0,0,0,0,-1,1378,1373,0,0
161,-349,0,0,0,0,0,0,0,0,0,-1,1385,1373,0,0
168,-349,0,0,0,0,0,0,0,0,0,-1,1392,1373,0,0
175,-349,0,0,0,0,0,0,0,0,0,-1,1399,1373,0,0
182,-349,0,0,0,0,0,0,0,0,0,-1,1406,1373,0,0
189,-349,0,0,0,0,0,0,0,0,0,-1,1413,1373,0,0
196,-349,0,0,0,0,0,0,0,0,0,-1,1420,1373,0,0
203,-349,0,0,0,0,0,0,0,0,0,-1,1427,1373,0,0
210,-349,0,0,0,0,0,0,0,0,0,-1,1434,1373,0,0
217,-349,0,0,0,0,0,0,0,0,0,-1,1441,1373,0,0
224,-349,0,0,0,0,0,0,0,0,0,-1,1448,1373,0,0
231,-349,0,0,0,0,0,0,0,0,0,-1,1455,1373,0,0
238,-349,0,0,0,0,0,0,0,0,0,-1,1462,1373,0,0
245,-349,0,0,0,0,0,0,0,0,0,-1,1469,1373,0,0
252,-349,0,0,0,0,0,0,0,0,0,-1,1476,1373,0,0
259,-349,0,0,0,0,0,0,0,0,0,-1,1483,1373,0,0
266,-349,0,0,0,0,0,0,0,0,0,-1,1490,1373,0,0
273,-349,0,0,0,0,0,0,0,0,0,-1,1497,1373,0,0
280,-349,0,0,0,0,0,0,0,0,0,-1,1504,1373,0,0
287,-349,0,0,0,0,0,0,0,0,0,-1,1511,1373,0,0
294,-349,0,0,0,0,0,0,0,0,0,-1,1518,1373,0,0
301,-349,0,0,0,0,0,0,0,0,0,-1,1525,1373,0,0
308,-349,0,0,0,0,0,0,0,0,0,-1,1532,1373,0,0
315,-349,0,0,0,0,0,0,0,0,0,-1,1539,1373,0,0
322,-349,0,0,0,0,0,0,0,0,0,-1,1546,1373,0,0
329,-349,0,0,0,0,0,0,0,0,0,-1,1553,1373,0,0
336,-349,0,0,0,0,0,0,0,0,0,-1,1560,1373,0,0
343,-349,0,0,0,0,0,0,0,0,0,-1,1567,1373,0,0
350,-349,0,0,0,0,0,0,0,0,0,-1,1574,1373,0,0
357,-349,0,0,0,0,0,0,0,0,0,-1,1581,1373,0,0
364,-349,0,0,0,0,0,0,0,0,0,-1,1588,1373,0,0
371,-349,0,0,0,0,0,0,0,0,0,-1,1595,1373,0,0
378,-349,0,0,0,0,0,0,0,0,0,-1,1602,1373,0,0
385,-349,0,0,0,0,0,0,0,0,0,-1,1609,1373,0,0
392,-349,0,0,0,0,0,0,0,0,0,-1,1616,1373,0,0
399,-349,0,0,0,0,0,0,0,0,0,-1,1623,1373,0,0
406,-349,0,0,0,0,0,0,0,0,0,-1,1630,1373,0,0
413,-349,0,0,0,0,0,0,0,0,0,-1,1637,1373,0,0
420,-349,0,0,0,0,0,0,0,0,0,-1,1644,1373,0,0
427,-349,0,0,0,0,0,0,0,0,0,-1,1651,1373,0,0
434,-349,0,0,0,0,0,0,0,0,0,-1,1658,1373,0,0
441,-349,0,0,0,0,0,0,0,0,0,-1,1665,1373,0,0
448,-349,0,0,0,0,0,0,0,0,0,-1,1672,1373,0,0
455,-349,0,0,0,0,0,0,0,0,0,-1,1679,1373,0,0
462,-349,0,0,0,0,0,0,0,0,0,-1,1686,1373,0,0
469,-349,0,0,0,0,0,0,0,0,0,-1,1693,1373,0,0
476,-349,0,0,0,0,0,0,0,0,0,-1,1700,1373,0,0
483,-349,0,0,0,0,0,0,0,0,0,-1,1707,1373,0,0
490,-349,0,0,0,0,0,0,0,0,0,-1,1714,1373,0,0
497,-349,0,0,0,0,0,0,0,0,0,-1,1721,1373,0,0
504,-349,0,0,0,0,0,0,0,0,0,-1,1728,1373,0,0
511,-349,0,0,0,0,0,0,0,0,0,-1,1735,1373,0,0
518,-349,0,0,0,0,0,0,0,0,0,-1,1742,1373,0,0
525,-349,0,0,0,0,0,0,0,0,0,-1,1749,1373,0,0
532,-349,0,0,0,0,0,0,0,0,0,-1,1756,1373,0,0
539,-349,0,0,0,0,0,0,0,0,0,-1,1763,1373,0,0
546,-349,0,0,0,0,0,0,0,0,0,-1,1770,1373,0,0
553,-349,0,0,0,0,0,0,0,0,0,-1,1777,1373,0,0
560,-349,45.6893,3.53845,0,0,0,0,0,0,0,-1,1784,1373,45.6893,-3.5385
567,-349,41.9424,6.03833,0,0,0,0,0,0,0,-1,1791,1373,41.9423,-6.03834
574,-349,42.4165,6.17078,0,0,0,0,0,0,0,-1,1798,1373,42.4165,-6.17072
581,-349,42.8947,6.78381,0,0,0,0,0,0,0,-1,1805,1373,42.8946,-6.78376
588,-349,44.8121,5.06213,0,0,0,0,0,0,0,-1,1812,1373,44.8121,-5.06215
595,-349,44.4338,6.14099,0,0,0,0,0,0,0,-1,1819,1373,44.4338,-6.14095
602,-349,35.6641,3.26465,0,0,0,0,0,0,0,-1,1826,1373,35.6641,-3.26468
609,-349,34.7175,4.401,0,0,0,0,0,0,0,-1,1833,1373,34.7175,-4.40096
616,-349,27.1451,6.68274,0,0,0,0,0,0,0,-1,1840,1373,27.1451,-6.6828
623,-349,18.8478,2.75769,0,0,0,0,0,0,0,-1,1847,1373,18.8478,-2.75774
630,-349,15.4948,6.47644,0,0,0,0,0,0,0,-1,1854,1373,15.4947,-6.4765
637,-349,16.5161,6.92639,0,0,0,0,0,0,0,-1,1861,1373,16.5161,-6.92636
644,-349,33.3073,14.9355,0,0,0,0,0,0,0,-1,1868,1373,33.3072,-14.9355
651,-349,33.3002,14.3655,-0.000662839,7.11004e-05,-0.000415487,0.000258474,-0.000850212,-1.14713,0.000669802,0.0393856,1875,1373,33.3002,-14.3655
658,-349,33.1558,13.8271,-0.000194436,-0.00013941,-0.000101895,-6.13789e-05,-0.000272467,-0.917261,0.000165035,0.0265988,1882,1373,33.1557,-13.8272
665,-349,33.1404,13.2714,0.000437606,-0.000305466,4.08732e-05,0.000439848,-0.000307707,0.0547853,0.000433843,0.020313,1889,1373,33.1404,-13.2714
672,-349,33.1366,12.7319,0.00113774,-0.00034803,9.60674e-05,0.00114392,-0.000354216,0.0643015,0.000904121,0.0142353,1896,1373,33.1366,-12.7319
679,-349,33.1188,12.2162,0.00189146,-0.00035716,0.000109664,0.0018968,-0.000362495,0.0486156,0.00140108,0.0146593,1903,1373,33.1188,-12.2162
686,-349,33.1771,11.6995,0.00268548,-0.000325249,9.15299e-05,0.00268826,-0.000328029,0.0303638,0.00191093,0.0160076,1910,1373,33.1772,-11.6995
693,-349,33.1132,11.1313,0.00352712,-0.000243565,4.08161e-05,0.00352757,-0.000244007,0.0108229,0.00243712,0.0179199,1917,1373,33.1132,-11.1313
700,-349,33.084,10.6013,0.00440571,-9.75884e-05,-5.39573e-05,0.00440636,-9.8235e-05,-0.0119794,0.00297086,0.0171555,1924,1373,33.084,-10.6014
707,-349,33.1631,10.0118,0.00508779,6.25071e-05,-8.2794e-05,0.00508916,6.11434e-05,-0.0164695,0.00337257,0.0357098,1931,1373,33.163,-10.0118
714,-349,33.2904,9.29993,0,0,0,0,0,0,0,-1,1938,1373,33.2904,-9.29989
721,-349,19.6688,5.93604,0,0,0,0,0,0,0,-1,1945,1373,19.6688,-5.93606
728,-349,18.6333,3.73218,0,0,0,0,0,0,0,-1,1952,1373,18.6333,-3.73214
735,-349,18.1918,3.39954,0,0,0,0,0,0,0,-1,1959,1373,18.1918,-3.3995
742,-349,20.7345,2.07483,0,0,0,0,0,0,0,-1,1966,1373,20.7345,-2.07485
749,-349,21.9037,1.45789,0,0,0,0,0,0,0,-1,1973,1373,21.9037,-1.45788
756,-349,0,0,0,0,0,0,0,0,0,-1,1980,1373,0,0
763,-349,0,0,0,0,0,0,0,0,0,-1,1987,1373,0,0
770,-349,0,0,0,0,0,0,0,0,0,-1,1994,1373,0,0
777,-349,0,0,0,0,0,0,0,0,0,-1,2001,1373,0,0
784,-349,0,0,0,0,0,0,0,0,0,-1,2008,1373,0,0
791,-349,0,0,0,0,0,0,0,0,0,-1,2015,1373,0,0
798,-349,0,0,0,0,0,0,0,0,0,-1,2022,1373,0,0
805,-349,0,0,0,0,0,0,0,0,0,-1,2029,1373,0,0
812,-349,0,0,0,0,0,0,0,0,0,-1,2036,1373,0,0
-700,-356,0,0,0,0,0,0,0,0,0,-1,524,1380,0,0
-693,-356,0,0,0,0,0,0,0,0,0,-1,531,1380,0,0
-686,-356,0,0,0,0,0,0,0,0,0,-1,538,1380,0,0
-679,-356,0,0,0,0,0,0,0,0,0,-1,545,1380,0,0
-672,-356,0,0,0,0,0,0,0,0,0,-1,552,1380,0,0
-665,-356,0,0,0,0,0,0,0,0,0,-1,559,1380,0,0
-658,-356,0,0,0,0,0,0,0,0,0,-1,566,1380,0,0
-651,-356,0,0,0,0,0,0,0,0,0,-1,573,1380,0,0
-644,-356,0,0,0,0,0,0,0,0,0,-1,580,1380,0,0
-637,-356,0,0,0,0,0,0,0,0,0,-1,587,1380,0,0
-630,-356,-8.23126,-5.01917,0,0,0,0,0,0,0,-1,594,1380,-8.23124,5.0192
-623,-356,-0.263855,-0.675781,0,0,0,0,0,0,0,-1,601,1380,-0.263835,0.675841
-616,-356,-8.26532,-3.43945,0,0,0,0,0,0,0,-1,608,1380,-8.2653,3.43948
-609,-356,-4.88483,0.734497,0,0,0,0,0,0,0,-1,615,1380,-4.88485,-0.734532
-602,-356,-9.06635,2.4021,0,0,0,0,0,0,0,-1,622,1380,-9.06634,-2.40206
-595,-356,-8.45703,3.61853,0,0,0,0,0,0,0,-1,629,1380,-8.45706,-3.61848
-588,-356,-9.31738,4.14258,0,0,0,0,0,0,0,-1,636,1380,-9.31736,-4.14255
-581,-356,-16.5185,7.32312,0,0,0,0,0,0,0,-1,643,1380,-16.5185,-7.32306
-574,-356,-17.1376,7.75061,0,0,0,0,0,0,0,-1,650,1380,-17.1376,-7.75062
-567,-356,-17.1271,8.38831,0.00392451,0.00145896,0.00138423,0.00454533,0.000838132,0.421604,0.00279308,0.0216323,657,1380,-17.1271,-8.38833
-560,-356,-17.0895,9.04199,0.00335268,0.00107717,0.00117904,0.00385341,0.000576439,0.401609,0.00239998,0.0181034,664,1380,-17.0895,-9.04201
-553,-356,-17.1124,9.63354,0.00309591,0.00081218,0.00116005,0.0035818,0.000326294,0.396649,0.00228687,0.0208457,671,1380,-17.1125,-9.63359
-546,-356,-17.1601,10.2133,0.00305155,0.000605258,0.00124923,0.00357674,8.0073e-05,0.397974,0.00235825,0.0226832,678,1380,-17.1601,-10.2133
-539,-356,-17.1565,10.8037,0.00320722,0.000470024,0.00145231,0.00383418,-0.000156939,0.407533,0.00261001,0.0162912,685,1380,-17.1565,-10.8037
-532,-356,-17.2071,11.4077,0.00360665,0.000428071,0.00180405,0.00442161,-0.000386891,0.424301,0.0030848,0.015458,692,1380,-17.2071,-11.4077
-525,-356,-17.2313,12.0105,0.00421285,0.000467645,0.00227599,0.00528758,-0.000607085,0.441164,0.00374386,0.0133046,699,1380,-17.2313,-12.0105
-518,-356,-17.1935,12.6444,0.00506403,0.00068363,0.00290291,0.00651029,-0.00076263,0.462215,0.00461545,0.0136408,706,1380,-17.1935,-12.6444
-511,-356,-17.0065,13.3578,0,0,0,0,0,0,0,-1,713,1380,-17.0065,-13.3577
-504,-356,-14.3925,12.3971,0,0,0,0,0,0,0,-1,720,1380,-14.3925,-12.3971
-497,-356,-5.68604,4.96387,0,0,0,0,0,0,0,-1,727,1380,-5.68605,-4.96385
-490,-356,-7.95288,5.5625,0,0,0,0,0,0,0,-1,734,1380,-7.95285,-5.56246
-483,-356,-7.2627,4.07446,0,0,0,0,0,0,0,-1,741,1380,-7.2627,-4.07441
-476,-356,-5.1936,4.16016,0,0,0,0,0,0,0,-1,748,1380,-5.1936,-4.16012
-469,-356,-10.0883,0.536011,0,0,0,0,0,0,0,-1,755,1380,-10.0883,-0.535989
-462,-356,-12.3481,-0.215698,0,0,0,0,0,0,0,-1,762,1380,-12.3481,0.215641
-455,-356,-13.1367,-0.264648,0,0,0,0,0,0,0,-1,769,1380,-13.1367,0.264647
-448,-356,-13.9116,-0.310181,0,0,0,0,0,0,0,-1,776,1380,-13.9115,0.310207
-441,-356,-13.1602,3.05603,0,0,0,0,0,0,0,-1,783,1380,-13.1602,-3.05609
-434,-356,0,0,0,0,0,0,0,0,0,-1,790,1380,0,0
-427,-356,0,0,0,0,0,0,0,0,0,-1,797,1380,0,0
-420,-356,0,0,0,0,0,0,0,0,0,-1,804,1380,0,0
-413,-356,0,0,0,0,0,0,0,0,0,-1,811,1380,0,0
-406,-356,0,0,0,0,0,0,0,0,0,-1,818,1380,0,0
-399,-356,0,0,0,0,0,0,0,0,0,-1,825,1380,0,0
-392,-356,0,0,0,0,0,0,0,0,0,-1,832,1380,0,0
-385,-356,0,0,0,0,0,0,0,0,0,-1,839,1380,0,0
-378,-356,0,0,0,0,0,0,0,0,0,-1,846,1380,0,0
-371,-356,0,0,0,0,0,0,0,0,0,-1,853,1380,0,0
-364,-356,0,0,0,0,0,0,0,0,0,-1,860,1380,0,0
-357,-356,0,0,0,0,0,0,0,0,0,-1,867,1380,0,0
-350,-356,0,0,0,0,0,0,0,0,0,-1,874,1380,0,0
-343,-356,0,0,0,0,0,0,0,0,0,-1,881,1380,0,0
-336,-356,0,0,0,0,0,0,0,0,0,-1,888,1380,0,0
-329,-356,0,0,0,0,0,0,0,0,0,-1,895,1380,0,0
-322,-356,0,0,0,0,0,0,0,0,0,-1,902,1380,0,0
-315,-356,0,0,0,0,0,0,0,0,0,-1,909,1380,0,0
-308,-356,0,0,0,0,0,0,0,0,0,-1,916,1380,0,0
-301,-356,0,0,0,0,0,0,0,0,0,-1,923,1380,0,0
-294,-356,0,0,0,0,0,0,0,0,0,-1,930,1380,0,0
-287,-356,0,0,0,0,0,0,0,0,0,-1,937,1380,0,0
-280,-356,0,0,0,0,0,0,0,0,0,-1,944,1380,0,0
-273,-356,0,0,0,0,0,0,0,0,0,-1,951,1380,0,0
-266,-356,0,0,0,0,0,0,0,0,0,-1,958,1380,0,0
-259,-356,0,0,0,0,0,0,0,0,0,-1,965,1380,0,0
-252,-356,0,0,0,0,0,0,0,0,0,-1,972,1380,0,0
-245,-356,0,0,0,0,0,0,0,0,0,-1,979,1380,0,0
-238,-356,0,0,0,0,0,0,0,0,0,-1,986,1380,0,0
-231,-356,0,0,0,0,0,0,0,0,0,-1,993,1380,0,0
-224,-356,0,0,0,0,0,0,0,0,0,-1,1000,1380,0,0
-217,-356,0,0,0,0,0,0,0,0,0,-1,1007,1380,0,0
-210,-356,0,0,0,0,0,0,0,0,0,-1,1014,1380,0,0
-203,-356,0,0,0,0,0,0,0,0,0,-1,1021,1380,0,0
-196,-356,0,0,0,0,0,0,0,0,0,-1,1028,1380,0,0
-189,-356,0,0,0,0,0,0,0,0,0,-1,1035,1380,0,0
-182,-356,0,0,0,0,0,0,0,0,0,-1,1042,1380,0,0
-175,-356,0,0,0,0,0,0,0,0,0,-1,1049,1380,0,0
-168,-356,0,0,0,0,0,0,0,0,0,-1,1056,1380,0,0
-161,-356,0,0,0,0,0,0,0,0,0,-1,1063,1380,0,0
-154,-356,0,0,0,0,0,0,0,0,0,-1,1070,1380,0,0
-147,-356,0,0,0,0,0,0,0,0,0,-1,1077,1380,0,0
-140,-356,0,0,0,0,0,0,0,0,0,-1,1084,1380,0,0
-133,-356,0,0,0,0,0,0,0,0,0,-1,1091,1380,0,0
-126,-356,0,0,0,0,0,0,0,0,0,-1,1098,1380,0,0
-119,-356,0,0,0,0,0,0,0,0,0,-1,1105,1380,0,0
-112,-356,0,0,0,0,0,0,0,0,0,-1,1112,1380,0,0
-105,-356,0,0,0,0,0,0,0,0,0,-1,1119,1380,0,0
-98,-356,0,0,0,0,0,0,0,0,0,-1,1126,1380,0,0
-91,-356,0,0,0,0,0,0,0,0,0,-1,1133,1380,0,0
-84,-356,0,0,0,0,0,0,0,0,0,-1,1140,1380,0,0
-77,-356,0,0,0,0,0,0,0,0,0,-1,1147,1380,0,0
-70,-356,0,0,0,0,0,0,0,0,0,-1,1154,1380,0,0
-63,-356,0,0,0,0,0,0,0,0,0,-1,1161,1380,0,0
-56,-356,0,0,0,0,0,0,0,0,0,-1,1168,1380,0,0
-49,-356,0,0,0,0,0,0,0,0,0,-1,1175,1380,0,0
-42,-356,0,0,0,0,0,0,0,0,0,-1,1182,1380,0,0
-35,-356,0,0,0,0,0,0,0,0,0,-1,1189,1380,0,0
-28,-356,0,0,0,0,0,0,0,0,0,-1,1196,1380,0,0
-21,-356,0,0,0,0,0,0,0,0,0,-1,1203,1380,0,0
-14,-356,0,0,0,0,0,0,0,0,0,-1,1210,1380,0,0
-7,-356,0,0,0,0,0,0,0,0,0,-1,1217,1380,0,0
0,-356,0,0,0,0,0,0,0,0,0,-1,1224,1380,0,0
7,-356,0,0,0,0,0,0,0,0,0,-1,1231,1380,0,0
14,-356,0,0,0,0,0,0,0,0,0,-1,1238,1380,0,0
21,-356,0,0,0,0,0,0,0,0,0,-1,1245,1380,0,0
28,-356,0,0,0,0,0,0,0,0,0,-1,1252,1380,0,0
35,-356,0,0,0,0,0,0,0,0,0,-1,1259,1380,0,0
42,-356,0,0,0,0,0,0,0,0,0,-1,1266,1380,0,0
49,-356,0,0,0,0,0,0,0,0,0,-1,1273,1380,0,0
56,-356,0,0,0,0,0,0,0,0,0,-1,1280,1380,0,0
63,-356,0,0,0,0,0,0,0,0,0,-1,1287,1380,0,0
70,-356,0,0,0,0,0,0,0,0,0,-1,1294,1380,0,0
77,-356,0,0,0,0,0,0,0,0,0,-1,1301,1380,0,0
84,-356,0,0,0,0,0,0,0,0,0,-1,1308,1380,0,0
91,-356,0,0,0,0,0,0,0,0,0,-1,1315,1380,0,0
98,-356,0,0,0,0,0,0,0,0,0,-1,1322,1380,0,0
105,-356,0,0,0,0,0,0,0,0,0,-1,1329,1380,0,0
112,-356,0,0,0,0,0,0,0,0,0,-1,1336,1380,0,0
119,-356,0,0,0,0,0,0,0,0,0,-1,1343,1380,0,0
126,-356,0,0,0,0,0,0,0,0,0,-1,1350,1380,0,0
133,-356,0,0,0,0,0,0,0,0,0,-1,1357,1380,0,0
140,-356,0,0,0,0,0,0,0,0,0,-1,1364,1380,0,0
147,-356,0,0,0,0,0,0,0,0,0,-1,1371,1380,0,0
154,-356,0,0,0,0,0,0,0,0,0,-1,1378,1380,0,0
161,-356,0,0,0,0,0,0,0,0,0,-1,1385,1380,0,0
168,-356,0,0,0,0,0,0,0,0,0,-1,1392,1380,0,0
175,-356,0,0,0,0,0,0,0,0,0,-1,1399,1380,0,0
182,-356,0,0,0,0,0,0,0,0,0,-1,1406,1380,0,0
189,-356,0,0,0,0,0,0,0,0,0,-1,1413,1380,0,0
196,-356,0,0,0,0,0,0,0,0,0,-1,1420,1380,0,0
203,-356,0,0,0,0,0,0,0,0,0,-1,1427,1380,0,0
210,-356,0,0,0,0,0,0,0,0,0,-1,1434,1380,0,0
217,-356,0,0,0,0,0,0,0,0,0,-1,1441,1380,0,0
224,-356,0,0,0,0,0,0,0,0,0,-1,1448,1380,0,0
231,-356,0,0,0,0,0,0,0,0,0,-1,1455,1380,0,0
238,-356,0,0,0,0,0,0,0,0,0,-1,1462,1380,0,0
245,-356,0,0,0,0,0,0,0,0,0,-1,1469,1380,0,0
252,-356,0,0,0,0,0,0,0,0,0,-1,1476,1380,0,0
259,-356,0,0,0,0,0,0,0,0,0,-1,1483,1380,0,0
266,-356,0,0,0,0,0,0,0,0,0,-1,1490,1380,0,0
273,-356,0,0,0,0,0,0,0,0,0,-1,1497,1380,0,0
280,-356,0,0,0,0,0,0,0,0,0,-1,1504,1380,0,0
287,-356,0,0,0,0,0,0,0,0,0,-1,1511,1380,0,0
294,-356,0,0,0,0,0,0,0,0,0,-1,1518,1380,0,0
301,-356,0,0,0,0,0,0,0,0,0,-1,1525,1380,0,0
308,-356,0,0,0,0,0,0,0,0,0,-1,1532,1380,0,0
315,-356,0,0,0,0,0,0,0,0,0,-1,1539,1380,0,0
322,-356,0,0,0,0,0,0,0,0,0,-1,1546,1380,0,0
329,-356,0,0,0,0,0,0,0,0,0,-1,1553,1380,0,0
336,-356,0,0,0,0,0,0,0,0,0,-1,1560,1380,0,0
343,-356,0,0,0,0,0,0,0,0,0,-1,1567,1380,0,0
350,-356,0,0,0,0,0,0,0,0,0,-1,1574,1380,0,0
357,-356,0,0,0,0,0,0,0,0,0,-1,1581,1380,0,0
364,-356,0,0,0,0,0,0,0,0,0,-1,1588,1380,0,0
371,-356,0,0,0,0,0,0,0,0,0,-1,1595,1380,0,0
378,-356,0,0,0,0,0,0,0,0,0,-1,1602,1380,0,0
385,-356,0,0,0,0,0,0,0,0,0,-1,1609,1380,0,0
392,-356,0,0,0,0,0,0,0,0,0,-1,1616,1380,0,0
399,-356,0,0,0,0,0,0,0,0,0,-1,1623,1380,0,0
406,-356,0,0,0,0,0,0,0,0,0,-1,1630,1380,0,0
413,-356,0,0,0,0,0,0,0,0,0,-1,1637,1380,0,0
420,-356,0,0,0,0,0,0,0,0,0,-1,1644,1380,0,0
427,-356,0,0,0,0,0,0,0,0,0,-1,1651,1380,0,0
434,-356,0,0,0,0,0,0,0,0,0,-1,1658,1380,0,0
441,-356,0,0,0,0,0,0,0,0,0,-1,1665,1380,0,0
448,-356,0,0,0,0,0,0,0,0,0,-1,1672,1380,0,0
455,-356,0,0,0,0,0,0,0,0,0,-1,1679,1380,0,0
462,-356,0,0,0,0,0,0,0,0,0,-1,1686,1380,0,0
469,-356,0,0,0,0,0,0,0,0,0,-1,1693,1380,0,0
476,-356,0,0,0,0,0,0,0,0,0,-1,1700,1380,0,0
483,-356,0,0,0,0,0,0,0,0,0,-1,1707,1380,0,0
490,-356,0,0,0,0,0,0,0,0,0,-1,1714,1380,0,0
497,-356,0,0,0,0,0,0,0,0,0,-1,1721,1380,0,0
504,-356,0,0,0,0,0,0,0,0,0,-1,1728,1380,0,0
511,-356,0,0,0,0,0,0,0,0,0,-1,1735,1380,0,0
518,-356,0,0,0,0,0,0,0,0,0,-1,1742,1380,0,0
525,-356,0,0,0,0,0,0,0,0,0,-1,1749,1380,0,0
532,-356,0,0,0,0,0,0,0,0,0,-1,1756,1380,0,0
539,-356,0,0,0,0,0,0,0,0,0,-1,1763,1380,0,0
546,-356,0,0,0,0,0,0,0,0,0,-1,1770,1380,0,0
553,-356,0,0,0,0,0,0,0,0,0,-1,1777,1380,0,0
560,-356,45.7938,3.65295,0,0,0,0,0,0,0,-1,1784,1380,45.7938,-3.65294
567,-356,45.6788,3.51428,0,0,0,0,0,0,0,-1,1791,1380,45.6788,-3.51422
574,-356,45.5742,3.39575,0,0,0,0,0,0,0,-1,1798,1380,45.5742,-3.39574
581,-356,45.6708,3.64172,0,0,0,0,0,0,0,-1,1805,1380,45.6707,-3.64175
588,-356,44.4739,4.87085,0,0,0,0,0,0,0,-1,1812,1380,44.4739,-4.87086
595,-356,32.0834,5.86084,0,0,0,0,0,0,0,-1,1819,1380,32.0834,-5.86079
602,-356,30.1604,6.07104,0,0,0,0,0,0,0,-1,1826,1380,30.1604,-6.07104
609,-356,28.3435,6.48901,0,0,0,0,0,0,0,-1,1833,1380,28.3435,-6.48899
616,-356,26.9358,6.80872,0,0,0,0,0,0,0,-1,1840,1380,26.9358,-6.80877
623,-356,16.1803,1.07532,0,0,0,0,0,0,0,-1,1847,1380,16.1803,-1.07529
630,-356,16.4138,6.91553,0,0,0,0,0,0,0,-1,1854,1380,16.4138,-6.9155
637,-356,24.8021,12.0151,0,0,0,0,0,0,0,-1,1861,1380,24.8022,-12.0151
644,-356,32.7417,14.9994,0,0,0,0,0,0,0,-1,1868,1380,32.7417,-14.9994
651,-356,32.715,14.3743,-0.000244202,0.000414194,-0.000602971,0.000771979,-0.000601987,-1.03527,0.000795281,0.0189013,1875,1380,32.7149,-14.3743
658,-356,32.6448,13.8129,0.0001534,8.28874e-05,-0.000212125,0.000333179,-9.68918e-05,-0.703049,0.000260494,0.0146016,1882,1380,32.6448,-13.8128
665,-356,32.6063,13.316,0.000720061,-0.00016411,1.80685e-05,0.00072043,-0.000164479,0.0204242,0.000543473,0.0139461,1889,1380,32.6063,-13.316
672,-356,32.5801,12.7936,0.00137513,-0.000322023,0.000177944,0.00139359,-0.00034048,0.103351,0.00106092,0.0147592,1896,1380,32.5801,-12.7936
679,-356,32.5856,12.2412,0.00215188,-0.000400855,0.000249123,0.00217597,-0.00042494,0.096379,0.00161108,0.0168897,1903,1380,32.5856,-12.2412
686,-356,32.5814,11.6805,0.00304667,-0.000392027,0.000239265,0.00306324,-0.000408595,0.0691361,0.00219109,0.0177872,1910,1380,32.5814,-11.6805
693,-356,32.5858,11.1691,0.00404815,-0.000306534,0.000163005,0.00405424,-0.000312627,0.0373625,0.00281283,0.0157747,1917,1380,32.5859,-11.1691
700,-356,32.593,10.6495,0.00519631,-8.13663e-05,-2.79836e-05,0.00519646,-8.15147e-05,-0.00530205,0.0034918,0.0221193,1924,1380,32.593,-10.6495
707,-356,32.6626,10.1332,0,0,0,0,0,0,0,-1,1931,1380,32.6626,-10.1332
714,-356,19.6907,5.82129,0,0,0,0,0,0,0,-1,1938,1380,19.6907,-5.82132
721,-356,17.2948,4.1958,0,0,0,0,0,0,0,-1,1945,1380,17.2948,-4.19584
728,-356,19.1846,2.31519,0,0,0,0,0,0,0,-1,1952,1380,19.1846,-2.31514
735,-356,20.0731,2.50842,0,0,0,0,0,0,0,-1,1959,1380,20.0731,-2.50844
742,-356,21.0111,2.43762,0,0,0,0,0,0,0,-1,1966,1380,21.0112,-2.43762
749,-356,22.1411,1.83276,0,0,0,0,0,0,0,-1,1973,1380,22.1411,-1.83275
756,-356,0,0,0,0,0,0,0,0,0,-1,1980,1380,0,0
763,-356,0,0,0,0,0,0,0,0,0,-1,1987,1380,0,0
770,-356,0,0,0,0,0,0,0,0,0,-1,1994,1380,0,0
777,-356,0,0,0,0,0,0,0,0,0,-1,2001,1380,0,0
784,-356,0,0,0,0,0,0,0,0,0,-1,2008,1380,0,0
791,-356,0,0,0,0,0,0,0,0,0,-1,2015,1380,0,0
798,-356,0,0,0,0,0,0,0,0,0,-1,2022,1380,0,0
805,-356,0,0,0,0,0,0,0,0,0,-1,2029,1380,0,0
812,-356,0,0,0,0,0,0,0,0,0,-1,2036,1380,0,0
-700,-363,0,0,0,0,0,0,0,0,0,-1,524,1387,0,0
-693,-363,0,0,0,0,0,0,0,0,0,-1,531,1387,0,0
-686,-363,0,0,0,0,0,0,0,0,0,-1,538,1387,0,0
-679,-363,0,0,0,0,0,0,0,0,0,-1,545,1387,0,0
-672,-363,0,0,0,0,0,0,0,0,0,-1,552,1387,0,0
-665,-363,0,0,0,0,0,0,0,0,0,-1,559,1387,0,0
-658,-363,0,0,0,0,0,0,0,0,0,-1,566,1387,0,0
-651,-363,0,0,0,0,0,0,0,0,0,-1,573,1387,0,0
-644,-363,0,0,0,0,0,0,0,0,0,-1,580,1387,0,0
-637,-363,0,0,0,0,0,0,0,0,0,-1,587,1387,0,0
-630,-363,0,0,0,0,0,0,0,0,0,-1,594,1387,0,0
-623,-363,-9.67566,-5.91846,0,0,0,0,0,0,0,-1,601,1387,-9.67563,5.91847
-616,-363,-9.02985,-2.98083,0,0,0,0,0,0,0,-1,608,1387,-9.02987,2.98079
-609,-363,-4.90265,0.195679,0,0,0,0,0,0,0,-1,615,1387,-4.90263,-0.195721
-602,-363,-9.65009,3.5321,0,0,0,0,0,0,0,-1,622,1387,-9.65007,-3.53211
-595,-363,-8.00256,3.48853,0,0,0,0,0,0,0,-1,629,1387,-8.00256,-3.48855
-588,-363,-10.8846,4.49768,0,0,0,0,0,0,0,-1,636,1387,-10.8846,-4.49773
-581,-363,-11.7469,5.15161,0,0,0,0,0,0,0,-1,643,1387,-11.747,-5.15167
-574,-363,-16.4527,7.74109,0,0,0,0,0,0,0,-1,650,1387,-16.4527,-7.74103
-567,-363,-16.5339,8.48181,0.00409877,0.00173057,0.00163053,0.00492979,0.00089955,0.471349,0.0030315,0.0467255,657,1387,-16.5339,-8.48184
-560,-363,-16.5216,9.02637,0.00345024,0.00127575,0.00131049,0.00406578,0.000660214,0.439118,0.00251945,0.0136233,664,1387,-16.5216,-9.0264
-553,-363,-16.5202,9.64648,0.00312441,0.000977449,0.00121227,0.00367017,0.000431687,0.423021,0.00231633,0.0140173,671,1387,-16.5202,-9.64649
-546,-363,-16.5294,10.2366,0.00298134,0.000733133,0.00121068,0.00350931,0.000205164,0.41123,0.00227424,0.0143804,678,1387,-16.5294,-10.2366
-539,-363,-16.5187,10.8304,0.00301969,0.00056019,0.00131251,0.00358854,-8.6634e-06,0.408971,0.00239525,0.0155295,685,1387,-16.5187,-10.8304
-532,-363,-16.5921,11.4316,0.00329099,0.000499359,0.00156676,0.00399352,-0.000203167,0.421518,0.00273259,0.0129191,692,1387,-16.5921,-11.4316
-525,-363,-16.6291,12.0265,0.00382732,0.00060178,0.00201358,0.00479437,-0.00036528,0.447739,0.0033247,0.0119483,699,1387,-16.6291,-12.0265
-518,-363,-16.5977,12.6473,0.0045854,0.000849513,0.00260539,0.00592327,-0.000488357,0.474391,0.00412129,0.0105518,706,1387,-16.5977,-12.6474
-511,-363,-16.4971,13.3042,0.00572419,0.00123464,0.00346731,0.00760994,-0.000651114,0.498121,0.00530367,0.0270743,713,1387,-16.4971,-13.3041
-504,-363,-16.3615,14.0068,0,0,0,0,0,0,0,-1,720,1387,-16.3615,-14.0069
-497,-363,-7.18842,7.29944,0,0,0,0,0,0,0,-1,727,1387,-7.18839,-7.29945
-490,-363,-5.42413,4.6958,0,0,0,0,0,0,0,-1,734,1387,-5.42412,-4.69583
-483,-363,-6.28375,4.1394,0,0,0,0,0,0,0,-1,741,1387,-6.28374,-4.13944
-476,-363,-5.83807,4.31018,0,0,0,0,0,0,0,-1,748,1387,-5.8381,-4.31013
-469,-363,-10.7125,0.697754,0,0,0,0,0,0,0,-1,755,1387,-10.7125,-0.697811
-462,-363,-9.55951,-0.0830078,0,0,0,0,0,0,0,-1,762,1387,-9.55949,0.0830163
-455,-363,-13.1008,-0.290894,0,0,0,0,0,0,0,-1,769,1387,-13.1008,0.290921
-448,-363,-11.7324,2.46606,0,0,0,0,0,0,0,-1,776,1387,-11.7324,-2.46605
-441,-363,-12.4464,2.5354,0,0,0,0,0,0,0,-1,783,1387,-12.4463,-2.53537
-434,-363,-13.6918,2.14661,0,0,0,0,0,0,0,-1,790,1387,-13.6918,-2.14662
-427,-363,0,0,0,0,0,0,0,0,0,-1,797,1387,0,0
-420,-363,0,0,0,0,0,0,0,0,0,-1,804,1387,0,0
-413,-363,0,0,0,0,0,0,0,0,0,-1,811,1387,0,0
-406,-363,0,0,0,0,0,0,0,0,0,-1,818,1387,0,0
-399,-363,0,0,0,0,0,0,0,0,0,-1,825,1387,0,0
-392,-363,0,0,0,0,0,0,0,0,0,-1,832,1387,0,0
-385,-363,0,0,0,0,0,0,0,0,0,-1,839,1387,0,0
-378,-363,0,0,0,0,0,0,0,0,0,-1,846,1387,0,0
-371,-363,0,0,0,0,0,0,0,0,0,-1,853,1387,0,0
-364,-363,0,0,0,0,0,0,0,0,0,-1,860,1387,0,0
-357,-363,0,0,0,0,0,0,0,0,0,-1,867,1387,0,0
-350,-363,0,0,0,0,0,0,0,0,0,-1,874,1387,0,0
-343,-363,0,0,0,0,0,0,0,0,0,-1,881,1387,0,0
-336,-363,0,0,0,0,0,0,0,0,0,-1,888,1387,0,0
-329,-363,0,0,0,0,0,0,0,0,0,-1,895,1387,0,0
-322,-363,0,0,0,0,0,0,0,0,0,-1,902,1387,0,0
-315,-363,0,0,0,0,0,0,0,0,0,-1,909,1387,0,0
-308,-363,0,0,0,0,0,0,0,0,0,-1,916,1387,0,0
-301,-363,0,0,0,0,0,0,0,0,0,-1,923,1387,0,0
-294,-363,0,0,0,0,0,0,0,0,0,-1,930,1387,0,0
-287,-363,0,0,0,0,0,0,0,0,0,-1,937,1387,0,0
-280,-363,0,0,0,0,0,0,0,0,0,-1,944,1387,0,0
-273,-363,0,0,0,0,0,0,0,0,0,-1,951,1387,0,0
-266,-363,0,0,0,0,0,0,0,0,0,-1,958,1387,0,0
-259,-363,0,0,0,0,0,0,0,0,0,-1,965,1387,0,0
-252,-363,0,0,0,0,0,0,0,0,0,-1,972,1387,0,0
-245,-363,0,0,0,0,0,0,0,0,0,-1,979,1387,0,0
-238,-363,0,0,0,0,0,0,0,0,0,-1,986,1387,0,0
-231,-363,0,0,0,0,0,0,0,0,0,-1,993,1387,0,0
-224,-363,0,0,0,0,0,0,0,0,0,-1,1000,1387,0,0
-217,-363,0,0,0,0,0,0,0,0,0,-1,1007,1387,0,0
-210,-363,0,0,0,0,0,0,0,0,0,-1,1014,1387,0,0
-203,-363,0,0,0,0,0,0,0,0,0,-1,1021,1387,0,0
-196,-363,0,0,0,0,0,0,0,0,0,-1,1028,1387,0,0
-189,-363,0,0,0,0,0,0,0,0,0,-1,1035,1387,0,0
-182,-363,0,0,0,0,0,0,0,0,0,-1,1042,1387,0,0
-175,-363,0,0,0,0,0,0,0,0,0,-1,1049,1387,0,0
-168,-363,0,0,0,0,0,0,0,0,0,-1,1056,1387,0,0
-161,-363,0,0,0,0,0,0,0,0,0,-1,1063,1387,0,0
-154,-363,0,0,0,0,0,0,0,0,0,-1,1070,1387,0,0
-147,-363,0,0,0,0,0,0,0,0,0,-1,1077,1387,0,0
-140,-363,0,0,0,0,0,0,0,0,0,-1,1084,1387,0,0
-133,-363,0,0,0,0,0,0,0,0,0,-1,1091,1387,0,0
-126,-363,0,0,0,0,0,0,0,0,0,-1,1098,1387,0,0
-119,-363,0,0,0,0,0,0,0,0,0,-1,1105,1387,0,0
-112,-363,0,0,0,0,0,0,0,0,0,-1,1112,1387,0,0
-105,-363,0,0,0,0,0,0,0,0,0,-1,1119,1387,0,0
-98,-363,0,0,0,0,0,0,0,0,0,-1,1126,1387,0,0
-91,-363,0,0,0,0,0,0,0,0,0,-1,1133,1387,0,0
-84,-363,0,0,0,0,0,0,0,0,0,-1,1140,1387,0,0
-77,-363,0,0,0,0,0,0,0,0,0,-1,1147,1387,0,0
-70,-363,0,0,0,0,0,0,0,0,0,-1,1154,1387,0,0
-63,-363,0,0,0,0,0,0,0,0,0,-1,1161,1387,0,0
-56,-363,0,0,0,0,0,0,0,0,0,-1,1168,1387,0,0
-49,-363,0,0,0,0,0,0,0,0,0,-1,1175,1387,0,0
-42,-363,0,0,0,0,0,0,0,0,0,-1,1182,1387,0,0
-35,-363,0,0,0,0,0,0,0,0,0,-1,1189,1387,0,0
-28,-363,0,0,0,0,0,0,0,0,0,-1,1196,1387,0,0
-21,-363,0,0,0,0,0,0,0,0,0,-1,1203,1387,0,0
-14,-363,0,0,0,0,0,0,0,0,0,-1,1210,1387,0,0
-7,-363,0,0,0,0,0,0,0,0,0,-1,1217,1387,0,0
0,-363,0,0,0,0,0,0,0,0,0,-1,1224,1387,0,0
7,-363,0,0,0,0,0,0,0,0,0,-1,1231,1387,0,0
14,-363,0,0,0,0,0,0,0,0,0,-1,1238,1387,0,0
21,-363,0,0,0,0,0,0,0,0,0,-1,1245,1387,0,0
28,-363,0,0,0,0,0,0,0,0,0,-1,1252,1387,0,0
35,-363,0,0,0,0,0,0,0,0,0,-1,1259,1387,0,0
42,-363,0,0,0,0,0,0,0,0,0,-1,1266,1387,0,0
49,-363,0,0,0,0,0,0,0,0,0,-1,1273,1387,0,0
56,-363,0,0,0,0,0,0,0,0,0,-1,1280,1387,0,0
63,-363,0,0,0,0,0,0,0,0,0,-1,1287,1387,0,0
70,-363,0,0,0,0,0,0,0,0,0,-1,1294,1387,0,0
77,-363,0,0,0,0,0,0,0,0,0,-1,1301,1387,0,0
84,-363,0,0,0,0,0,0,0,0,0,-1,1308,1387,0,0
91,-363,0,0,0,0,0,0,0,0,0,-1,1315,1387,0,0
98,-363,0,0,0,0,0,0,0,0,0,-1,1322,1387,0,0
105,-363,0,0,0,0,0,0,0,0,0,-1,1329,1387,0,0
112,-363,0,0,0,0,0,0,0,0,0,-1,1336,1387,0,0
119,-363,0,0,0,0,0,0,0,0,0,-1,1343,1387,0,0
126,-363,0,0,0,0,0,0,0,0,0,-1,1350,1387,0,0
133,-363,0,0,0,0,0,0,0,0,0,-1,1357,1387,0,0
140,-363,0,0,0,0,0,0,0,0,0,-1,1364,1387,0,0
147,-363,0,0,0,0,0,0,0,0,0,-1,1371,1387,0,0
154,-363,0,0,0,0,0,0,0,0,0,-1,1378,1387,0,0
161,-363,0,0,0,0,0,0,0,0,0,-1,1385,1387,0,0
168,-363,0,0,0,0,0,0,0,0,0,-1,1392,1387,0,0
175,-363,0,0,0,0,0,0,0,0,0,-1,1399,1387,0,0
182,-363,0,0,0,0,0,0,0,0,0,-1,1406,1387,0,0
189,-363,0,0,0,0,0,0,0,0,0,-1,1413,1387,0,0
196,-363,0,0,0,0,0,0,0,0,0,-1,1420,1387,0,0
203,-363,0,0,0,0,0,0,0,0,0,-1,1427,1387,0,0
210,-363,0,0,0,0,0,0,0,0,0,-1,1434,1387,0,0
217,-363,0,0,0,0,0,0,0,0,0,-1,1441,1387,0,0
224,-363,0,0,0,0,0,0,0,0,0,-1,1448,1387,0,0
231,-363,0,0,0,0,0,0,0,0,0,-1,1455,1387,0,0
238,-363,0,0,0,0,0,0,0,0,0,-1,1462,1387,0,0
245,-363,0,0,0,0,0,0,0,0,0,-1,1469,1387,0,0
252,-363,0,0,0,0,0,0,0,0,0,-1,1476,1387,0,0
259,-363,0,0,0,0,0,0,0,0,0,-1,1483,1387,0,0
266,-363,0,0,0,0,0,0,0,0,0,-1,1490,1387,0,0
273,-363,0,0,0,0,0,0,0,0,0,-1,1497,1387,0,0
280,-363,0,0,0,0,0,0,0,0,0,-1,1504,1387,0,0
287,-363,0,0,0,0,0,0,0,0,0,-1,1511,1387,0,0
294,-363,0,0,0,0,0,0,0,0,0,-1,1518,1387,0,0
301,-363,0,0,0,0,0,0,0,0,0,-1,1525,1387,0,0
308,-363,0,0,0,0,0,0,0,0,0,-1,1532,1387,0,0
315,-363,0,0,0,0,0,0,0,0,0,-1,1539,1387,0,0
322,-363,0,0,0,0,0,0,0,0,0,-1,1546,1387,0,0
329,-363,0,0,0,0,0,0,0,0,0,-1,1553,1387,0,0
336,-363,0,0,0,0,0,0,0,0,0,-1,1560,1387,0,0
343,-363,0,0,0,0,0,0,0,0,0,-1,1567,1387,0,0
350,-363,0,0,0,0,0,0,0,0,0,-1,1574,1387,0,0
357,-363,0,0,0,0,0,0,0,0,0,-1,1581,1387,0,0
364,-363,0,0,0,0,0,0,0,0,0,-1,1588,1387,0,0
371,-363,0,0,0,0,0,0,0,0,0,-1,1595,1387,0,0
378,-363,0,0,0,0,0,0,0,0,0,-1,1602,1387,0,0
385,-363,0,0,0,0,0,0,0,0,0,-1,1609,1387,0,0
392,-363,0,0,0,0,0,0,0,0,0,-1,1616,1387,0,0
399,-363,0,0,0,0,0,0,0,0,0,-1,1623,1387,0,0
406,-363,0,0,0,0,0,0,0,0,0,-1,1630,1387,0,0
413,-363,0,0,0,0,0,0,0,0,0,-1,1637,1387,0,0
420,-363,0,0,0,0,0,0,0,0,0,-1,1644,1387,0,0
427,-363,0,0,0,0,0,0,0,0,0,-1,1651,1387,0,0
434,-363,0,0,0,0,0,0,0,0,0,-1,1658,1387,0,0
441,-363,0,0,0,0,0,0,0,0,0,-1,1665,1387,0,0
448,-363,0,0,0,0,0,0,0,0,0,-1,1672,1387,0,0
455,-363,0,0,0,0,0,0,0,0,0,-1,1679,1387,0,0
462,-363,0,0,0,0,0,0,0,0,0,-1,1686,1387,0,0
469,-363,0,0,0,0,0,0,0,0,0,-1,1693,1387,0,0
476,-363,0,0,0,0,0,0,0,0,0,-1,1700,1387,0,0
483,-363,0,0,0,0,0,0,0,0,0,-1,1707,1387,0,0
490,-363,0,0,0,0,0,0,0,0,0,-1,1714,1387,0,0
497,-363,0,0,0,0,0,0,0,0,0,-1,1721,1387,0,0
504,-363,0,0,0,0,0,0,0,0,0,-1,1728,1387,0,0
511,-363,0,0,0,0,0,0,0,0,0,-1,1735,1387,0,0
518,-363,0,0,0,0,0,0,0,0,0,-1,1742,1387,0,0
525,-363,0,0,0,0,0,0,0,0,0,-1,1749,1387,0,0
532,-363,0,0,0,0,0,0,0,0,0,-1,1756,1387,0,0
539,-363,0,0,0,0,0,0,0,0,0,-1,1763,1387,0,0
546,-363,0,0,0,0,0,0,0,0,0,-1,1770,1387,0,0
553,-363,45.9076,3.64331,0,0,0,0,0,0,0,-1,1777,1387,45.9076,-3.64336
560,-363,45.9459,3.6875,0,0,0,0,0,0,0,-1,1784,1387,45.9459,-3.68756
567,-363,45.9266,3.32825,0,0,0,0,0,0,0,-1,1791,1387,45.9266,-3.32824
574,-363,45.7261,2.8075,0,0,0,0,0,0,0,-1,1798,1387,45.7261,-2.80754
581,-363,39.2413,1.97632,0,0,0,0,0,0,0,-1,1805,1387,39.2413,-1.97636
588,-363,32.5608,6.72131,0,0,0,0,0,0,0,-1,1812,1387,32.5608,-6.72131
595,-363,31.4688,6.95435,0,0,0,0,0,0,0,-1,1819,1387,31.4688,-6.95431
602,-363,25.7437,5.33667,0,0,0,0,0,0,0,-1,1826,1387,25.7437,-5.33667
609,-363,27.7048,7.06885,0,0,0,0,0,0,0,-1,1833,1387,27.7048,-7.06882
616,-363,16.229,1.08704,0,0,0,0,0,0,0,-1,1840,1387,16.229,-1.08706
623,-363,15.7283,7.16663,0,0,0,0,0,0,0,-1,1847,1387,15.7282,-7.16665
630,-363,18.3192,9.27844,0,0,0,0,0,0,0,-1,1854,1387,18.3192,-9.27843
637,-363,32.0707,15.7236,0,0,0,0,0,0,0,-1,1861,1387,32.0707,-15.7236
644,-363,32.116,15.0293,0.000299377,0.00125437,-0.00145948,0.00231248,-0.000758727,-0.943495,0.00184725,0.0162049,1868,1387,32.116,-15.0293
651,-363,32.1282,14.4006,0.000172108,0.000598424,-0.000764926,0.00117934,-0.000408805,-0.921283,0.000952208,0.0113812,1875,1387,32.1281,-14.4006
658,-363,32.1036,13.8501,0.000546983,0.000213945,-0.000326023,0.000746551,1.43771e-05,-0.54929,0.000492978,0.0115313,1882,1387,32.1037,-13.8501
665,-363,32.0592,13.3489,0.00106406,-8.6321e-05,-5.50411e-06,0.00106409,-8.63473e-05,-0.00478444,0.000739856,0.0114033,1889,1387,32.0592,-13.3489
672,-363,32.0444,12.8242,0.00171691,-0.000317741,0.000241609,0.0017452,-0.000346038,0.116587,0.00129433,0.0138355,1896,1387,32.0445,-12.8242
679,-363,32.0409,12.27,0.00253386,-0.000434505,0.000377286,0.00258107,-0.000481708,0.124466,0.00190173,0.0145576,1903,1387,32.0409,-12.27
686,-363,32.0273,11.724,0.00348203,-0.000479369,0.000438427,0.00352997,-0.000527311,0.108919,0.00254734,0.0142317,1910,1387,32.0273,-11.724
693,-363,32.0198,11.1708,0.00459589,-0.000413545,0.000389363,0.00462597,-0.000443628,0.0771088,0.00324199,0.0142093,1917,1387,32.0198,-11.1708
700,-363,32.1718,10.6039,0.00594361,-0.00015489,0.000171559,0.00594843,-0.000159713,0.0281018,0.00401991,0.0269319,1924,1387,32.1717,-10.6038
707,-363,32.4504,10.0942,0,0,0,0,0,0,0,-1,1931,1387,32.4504,-10.0943
714,-363,16.5782,5.3147,0,0,0,0,0,0,0,-1,1938,1387,16.5783,-5.31472
721,-363,14.4045,4.51685,0,0,0,0,0,0,0,-1,1945,1387,14.4045,-4.51685
728,-363,19.9756,0.853027,0,0,0,0,0,0,0,-1,1952,1387,19.9756,-0.853059
735,-363,21.4297,1.2981,0,0,0,0,0,0,0,-1,1959,1387,21.4297,-1.29811
742,-363,21.3621,2.79663,0,0,0,0,0,0,0,-1,1966,1387,21.362,-2.7966
749,-363,0,0,0,0,0,0,0,0,0,-1,1973,1387,0,0
756,-363,0,0,0,0,0,0,0,0,0,-1,1980,1387,0,0
763,-363,0,0,0,0,0,0,0,0,0,-1,1987,1387,0,0
770,-363,0,0,0,0,0,0,0,0,0,-1,1994,1387,0,0
777,-363,0,0,0,0,0,0,0,0,0,-1,2001,1387,0,0
784,-363,0,0,0,0,0,0,0,0,0,-1,2008,1387,0,0
791,-363,0,0,0,0,0,0,0,0,0,-1,2015,1387,0,0
798,-363,0,0,0,0,0,0,0,0,0,-1,2022,1387,0,0
805,-363,0,0,0,0,0,0,0,0,0,-1,2029,1387,0,0
812,-363,0,0,0,0,0,0,0,0,0,-1,2036,1387,0,0
-700,-370,0,0,0,0,0,0,0,0,0,-1,524,1394,0,0
-693,-370,0,0,0,0,0,0,0,0,0,-1,531,1394,0,0
-686,-370,0,0,0,0,0,0,0,0,0,-1,538,1394,0,0
-679,-370,0,0,0,0,0,0,0,0,0,-1,545,1394,0,0
-672,-370,0,0,0,0,0,0,0,0,0,-1,552,1394,0,0
-665,-370,0,0,0,0,0,0,0,0,0,-1,559,1394,0,0
-658,-370,0,0,0,0,0,0,0,0,0,-1,566,1394,0,0
-651,-370,0,0,0,0,0,0,0,0,0,-1,573,1394,0,0
-644,-370,0,0,0,0,0,0,0,0,0,-1,580,1394,0,0
-637,-370,0,0,0,0,0,0,0,0,0,-1,587,1394,0,0
-630,-370,0,0,0,0,0,0,0,0,0,-1,594,1394,0,0
-623,-370,-10.1758,-7.10486,0,0,0,0,0,0,0,-1,601,1394,-10.1758,7.10483
-616,-370,-8.85925,-1.61475,0,0,0,0,0,0,0,-1,608,1394,-8.85925,1.61476
-609,-370,-5.39325,0.0421143,0,0,0,0,0,0,0,-1,615,1394,-5.39328,-0.0421372
-602,-370,-12.3151,3.44592,0,0,0,0,0,0,0,-1,622,1394,-12.3151,-3.44595
-595,-370,-7.53284,5.44214,0,0,0,0,0,0,0,-1,629,1394,-7.53284,-5.44216
-588,-370,-11.2422,4.50598,0,0,0,0,0,0,0,-1,636,1394,-11.2422,-4.50596
-581,-370,-13.1575,5.84888,0,0,0,0,0,0,0,-1,643,1394,-13.1575,-5.84887
-574,-370,-13.0107,6.69861,0,0,0,0,0,0,0,-1,650,1394,-13.0108,-6.69866
-567,-370,-15.9147,8.25684,0,0,0,0,0,0,0,-1,657,1394,-15.9147,-8.25685
-560,-370,-15.9816,9.00537,0.00381829,0.00147853,0.00149804,0.00454913,0.000747689,0.453893,0.0028168,0.0288614,664,1394,-15.9816,-9.00543
-553,-370,-15.9532,9.66541,0.00335132,0.00115688,0.00131278,0.00396504,0.000543165,0.437303,0.00248219,0.0116696,671,1394,-15.9533,-9.66539
-546,-370,-15.9289,10.2661,0.00305884,0.000874394,0.00121912,0.00360344,0.000329788,0.420123,0.00230026,0.0159533,678,1394,-15.9289,-10.2661
-539,-370,-15.9126,10.8887,0.0029307,0.000660836,0.00121723,0.00346002,0.000131517,0.410188,0.00226411,0.0200336,685,1394,-15.9126,-10.8886
-532,-370,-15.9936,11.4917,0.00303119,0.000566484,0.00136664,0.00363906,-4.13803e-05,0.41851,0.00243995,0.0205974,692,1394,-15.9936,-11.4917
-525,-370,-16.0064,12.0393,0.00342282,0.000685843,0.00175135,0.00427694,-0.000168275,0.453753,0.00290901,0.0178339,699,1394,-16.0064,-12.0393
-518,-370,-16.0103,12.6338,0.00407406,0.00104433,0.00235531,0.00535961,-0.00024122,0.499619,0.00365613,0.0127461,706,1394,-16.0103,-12.6338
-511,-370,-16.0004,13.2623,0.00506809,0.00160305,0.00321716,0.00698958,-0.00031843,0.538403,0.0047694,0.014627,713,1394,-16.0004,-13.2624
-504,-370,-15.9792,13.901,0,0,0,0,0,0,0,-1,720,1394,-15.9792,-13.901
-497,-370,-12.3546,11.7982,0,0,0,0,0,0,0,-1,727,1394,-12.3546,-11.7983
-490,-370,-5.30695,4.5271,0,0,0,0,0,0,0,-1,734,1394,-5.30698,-4.52704
-483,-370,-6.02997,4.59253,0,0,0,0,0,0,0,-1,741,1394,-6.02994,-4.5925
-476,-370,-6.75293,4.65796,0,0,0,0,0,0,0,-1,748,1394,-6.7529,-4.65795
-469,-370,-10.584,1.14294,0,0,0,0,0,0,0,-1,755,1394,-10.584,-1.14293
-462,-370,-9.54462,0.387207,0,0,0,0,0,0,0,-1,762,1394,-9.5446,-0.387176
-455,-370,-8.50525,-0.36853,0,0,0,0,0,0,0,-1,769,1394,-8.50523,0.368582
-448,-370,-10.9543,2.28833,0,0,0,0,0,0,0,-1,776,1394,-10.9543,-2.28835
-441,-370,-11.8699,1.8313,0,0,0,0,0,0,0,-1,783,1394,-11.8699,-1.83127
-434,-370,-12.7855,1.37415,0,0,0,0,0,0,0,-1,790,1394,-12.7855,-1.37419
-427,-370,0,0,0,0,0,0,0,0,0,-1,797,1394,0,0
-420,-370,0,0,0,0,0,0,0,0,0,-1,804,1394,0,0
-413,-370,0,0,0,0,0,0,0,0,0,-1,811,1394,0,0
-406,-370,0,0,0,0,0,0,0,0,0,-1,818,1394,0,0
-399,-370,0,0,0,0,0,0,0,0,0,-1,825,1394,0,0
-392,-370,0,0,0,0,0,0,0,0,0,-1,832,1394,0,0
-385,-370,0,0,0,0,0,0,0,0,0,-1,839,1394,0,0
-378,-370,0,0,0,0,0,0,0,0,0,-1,846,1394,0,0
-371,-370,0,0,0,0,0,0,0,0,0,-1,853,1394,0,0
-364,-370,0,0,0,0,0,0,0,0,0,-1,860,1394,0,0
-357,-370,0,0,0,0,0,0,0,0,0,-1,867,1394,0,0
-350,-370,0,0,0,0,0,0,0,0,0,-1,874,1394,0,0
-343,-370,0,0,0,0,0,0,0,0,0,-1,881,1394,0,0
-336,-370,0,0,0,0,0,0,0,0,0,-1,888,1394,0,0
-329,-370,0,0,0,0,0,0,0,0,0,-1,895,1394,0,0
-322,-370,0,0,0,0,0,0,0,0,0,-1,902,1394,0,0
-315,-370,0,0,0,0,0,0,0,0,0,-1,909,1394,0,0
-308,-370,0,0,0,0,0,0,0,0,0,-1,916,1394,0,0
-301,-370,0,0,0,0,0,0,0,0,0,-1,923,1394,0,0
-294,-370,0,0,0,0,0,0,0,0,0,-1,930,1394,0,0
-287,-370,0,0,0,0,0,0,0,0,0,-1,937,1394,0,0
-280,-370,0,0,0,0,0,0,0,0,0,-1,944,1394,0,0
-273,-370,0,0,0,0,0,0,0,0,0,-1,951,1394,0,0
-266,-370,0,0,0,0,0,0,0,0,0,-1,958,1394,0,0
-259,-370,0,0,0,0,0,0,0,0,0,-1,965,1394,0,0
-252,-370,0,0,0,0,0,0,0,0,0,-1,972,1394,0,0
-245,-370,0,0,0,0,0,0,0,0,0,-1,979,1394,0,0
-238,-370,0,0,0,0,0,0,0,0,0,-1,986,1394,0,0
-231,-370,0,0,0,0,0,0,0,0,0,-1,993,1394,0,0
-224,-370,0,0,0,0,0,0,0,0,0,-1,1000,1394,0,0
-217,-370,0,0,0,0,0,0,0,0,0,-1,1007,1394,0,0
-210,-370,0,0,0,0,0,0,0,0,0,-1,1014,1394,0,0
-203,-370,0,0,0,0,0,0,0,0,0,-1,1021,1394,0,0
-196,-370,0,0,0,0,0,0,0,0,0,-1,1028,1394,0,0
-189,-370,0,0,0,0,0,0,0,0,0,-1,1035,1394,0,0
-182,-370,0,0,0,0,0,0,0,0,0,-1,1042,1394,0,0
-175,-370,0,0,0,0,0,0,0,0,0,-1,1049,1394,0,0
-168,-370,0,0,0,0,0,0,0,0,0,-1,1056,1394,0,0
-161,-370,0,0,0,0,0,0,0,0,0,-1,1063,1394,0,0
-154,-370,0,0,0,0,0,0,0,0,0,-1,1070,1394,0,0
-147,-370,0,0,0,0,0,0,0,0,0,-1,1077,1394,0,0
-140,-370,0,0,0,0,0,0,0,0,0,-1,1084,1394,0,0
-133,-370,0,0,0,0,0,0,0,0,0,-1,1091,1394,0,0
-126,-370,0,0,0,0,0,0,0,0,0,-1,1098,1394,0,0
-119,-370,0,0,0,0,0,0,0,0,0,-1,1105,1394,0,0
-112,-370,0,0,0,0,0,0,0,0,0,-1,1112,1394,0,0
-105,-370,0,0,0,0,0,0,0,0,0,-1,1119,1394,0,0
-98,-370,0,0,0,0,0,0,0,0,0,-1,1126,1394,0,0
-91,-370,0,0,0,0,0,0,0,0,0,-1,1133,1394,0,0
-84,-370,0,0,0,0,0,0,0,0,0,-1,1140,1394,0,0
-77,-370,0,0,0,0,0,0,0,0,0,-1,1147,1394,0,0
-70,-370,0,0,0,0,0,0,0,0,0,-1,1154,1394,0,0
-63,-370,0,0,0,0,0,0,0,0,0,-1,1161,1394,0,0
-56,-370,0,0,0,0,0,0,0,0,0,-1,1168,1394,0,0
-49,-370,0,0,0,0,0,0,0,0,0,-1,1175,1394,0,0
-42,-370,0,0,0,0,0,0,0,0,0,-1,1182,1394,0,0
-35,-370,0,0,0,0,0,0,0,0,0,-1,1189,1394,0,0
-28,-370,0,0,0,0,0,0,0,0,0,-1,1196,1394,0,0
-21,-370,0,0,0,0,0,0,0,0,0,-1,1203,1394,0,0
-14,-370,0,0,0,0,0,0,0,0,0,-1,1210,1394,0,0
-7,-370,0,0,0,0,0,0,0,0,0,-1,1217,1394,0,0
0,-370,0,0,0,0,0,0,0,0,0,-1,1224,1394,0,0
7,-370,0,0,0,0,0,0,0,0,0,-1,1231,1394,0,0
14,-370,0,0,0,0,0,0,0,0,0,-1,1238,1394,0,0
21,-370,0,0,0,0,0,0,0,0,0,-1,1245,1394,0,0
28,-370,0,0,0,0,0,0,0,0,0,-1,1252,1394,0,0
35,-370,0,0,0,0,0,0,0,0,0,-1,1259,1394,0,0
42,-370,0,0,0,0,0,0,0,0,0,-1,1266,1394,0,0
49,-370,0,0,0,0,0,0,0,0,0,-1,1273,1394,0,0
56,-370,0,0,0,0,0,0,0,0,0,-1,1280,1394,0,0
63,-370,0,0,0,0,0,0,0,0,0,-1,1287,1394,0,0
70,-370,0,0,0,0,0,0,0,0,0,-1,1294,1394,0,0
77,-370,0,0,0,0,0,0,0,0,0,-1,1301,1394,0,0
84,-370,0,0,0,0,0,0,0,0,0,-1,1308,1394,0,0
91,-370,0,0,0,0,0,0,0,0,0,-1,1315,1394,0,0
98,-370,0,0,0,0,0,0,0,0,0,-1,1322,1394,0,0
105,-370,0,0,0,0,0,0,0,0,0,-1,1329,1394,0,0
112,-370,0,0,0,0,0,0,0,0,0,-1,1336,1394,0,0
119,-370,0,0,0,0,0,0,0,0,0,-1,1343,1394,0,0
126,-370,0,0,0,0,0,0,0,0,0,-1,1350,1394,0,0
133,-370,0,0,0,0,0,0,0,0,0,-1,1357,1394,0,0
140,-370,0,0,0,0,0,0,0,0,0,-1,1364,1394,0,0
147,-370,0,0,0,0,0,0,0,0,0,-1,1371,1394,0,0
154,-370,0,0,0,0,0,0,0,0,0,-1,1378,1394,0,0
161,-370,0,0,0,0,0,0,0,0,0,-1,1385,1394,0,0
168,-370,0,0,0,0,0,0,0,0,0,-1,1392,1394,0,0
175,-370,0,0,0,0,0,0,0,0,0,-1,1399,1394,0,0
182,-370,0,0,0,0,0,0,0,0,0,-1,1406,1394,0,0
189,-370,0,0,0,0,0,0,0,0,0,-1,1413,1394,0,0
196,-370,0,0,0,0,0,0,0,0,0,-1,1420,1394,0,0
203,-370,0,0,0,0,0,0,0,0,0,-1,1427,1394,0,0
210,-370,0,0,0,0,0,0,0,0,0,-1,1434,1394,0,0
217,-370,0,0,0,0,0,0,0,0,0,-1,1441,1394,0,0
224,-370,0,0,0,0,0,0,0,0,0,-1,1448,1394,0,0
231,-370,0,0,0,0,0,0,0,0,0,-1,1455,1394,0,0
238,-370,0,0,0,0,0,0,0,0,0,-1,1462,1394,0,0
245,-370,0,0,0,0,0,0,0,0,0,-1,1469,1394,0,0
252,-370,0,0,0,0,0,0,0,0,0,-1,1476,1394,0,0
259,-370,0,0,0,0,0,0,0,0,0,-1,1483,1394,0,0
266,-370,0,0,0,0,0,0,0,0,0,-1,1490,1394,0,0
273,-370,0,0,0,0,0,0,0,0,0,-1,1497,1394,0,0
280,-370,0,0,0,0,0,0,0,0,0,-1,1504,1394,0,0
287,-370,0,0,0,0,0,0,0,0,0,-1,1511,1394,0,0
294,-370,0,0,0,0,0,0,0,0,0,-1,1518,1394,0,0
301,-370,0,0,0,0,0,0,0,0,0,-1,1525,1394,0,0
308,-370,0,0,0,0,0,0,0,0,0,-1,1532,1394,0,0
315,-370,0,0,0,0,0,0,0,0,0,-1,1539,1394,0,0
322,-370,0,0,0,0,0,0,0,0,0,-1,1546,1394,0,0
329,-370,0,0,0,0,0,0,0,0,0,-1,1553,1394,0,0
336,-370,0,0,0,0,0,0,0,0,0,-1,1560,1394,0,0
343,-370,0,0,0,0,0,0,0,0,0,-1,1567,1394,0,0
350,-370,0,0,0,0,0,0,0,0,0,-1,1574,1394,0,0
357,-370,0,0,0,0,0,0,0,0,0,-1,1581,1394,0,0
364,-370,0,0,0,0,0,0,0,0,0,-1,1588,1394,0,0
371,-370,0,0,0,0,0,0,0,0,0,-1,1595,1394,0,0
378,-370,0,0,0,0,0,0,0,0,0,-1,1602,1394,0,0
385,-370,0,0,0,0,0,0,0,0,0,-1,1609,1394,0,0
392,-370,0,0,0,0,0,0,0,0,0,-1,1616,1394,0,0
399,-370,0,0,0,0,0,0,0,0,0,-1,1623,1394,0,0
406,-370,0,0,0,0,0,0,0,0,0,-1,1630,1394,0,0
413,-370,0,0,0,0,0,0,0,0,0,-1,1637,1394,0,0
420,-370,0,0,0,0,0,0,0,0,0,-1,1644,1394,0,0
427,-370,0,0,0,0,0,0,0,0,0,-1,1651,1394,0,0
434,-370,0,0,0,0,0,0,0,0,0,-1,1658,1394,0,0
441,-370,0,0,0,0,0,0,0,0,0,-1,1665,1394,0,0
448,-370,0,0,0,0,0,0,0,0,0,-1,1672,1394,0,0
455,-370,0,0,0,0,0,0,0,0,0,-1,1679,1394,0,0
462,-370,0,0,0,0,0,0,0,0,0,-1,1686,1394,0,0
469,-370,0,0,0,0,0,0,0,0,0,-1,1693,1394,0,0
476,-370,0,0,0,0,0,0,0,0,0,-1,1700,1394,0,0
483,-370,0,0,0,0,0,0,0,0,0,-1,1707,1394,0,0
490,-370,0,0,0,0,0,0,0,0,0,-1,1714,1394,0,0
497,-370,0,0,0,0,0,0,0,0,0,-1,1721,1394,0,0
504,-370,0,0,0,0,0,0,0,0,0,-1,1728,1394,0,0
511,-370,0,0,0,0,0,0,0,0,0,-1,1735,1394,0,0
518,-370,0,0,0,0,0,0,0,0,0,-1,1742,1394,0,0
525,-370,0,0,0,0,0,0,0,0,0,-1,1749,1394,0,0
532,-370,0,0,0,0,0,0,0,0,0,-1,1756,1394,0,0
539,-370,0,0,0,0,0,0,0,0,0,-1,1763,1394,0,0
546,-370,27.4949,2.81201,0,0,0,0,0,0,0,-1,1770,1394,27.4948,-2.81198
553,-370,26.5985,1.99329,0,0,0,0,0,0,0,-1,1777,1394,26.5985,-1.99327
560,-370,46.0132,3.65686,0,0,0,0,0,0,0,-1,1784,1394,46.0132,-3.65689
567,-370,46.1089,3.11719,0,0,0,0,0,0,0,-1,1791,1394,46.1089,-3.1172
574,-370,38.8953,1.49353,0,0,0,0,0,0,0,-1,1798,1394,38.8952,-1.49348
581,-370,39.178,2.86145,0,0,0,0,0,0,0,-1,1805,1394,39.1779,-2.86145
588,-370,39.2102,4.27661,0,0,0,0,0,0,0,-1,1812,1394,39.2102,-4.27657
595,-370,25.793,4.5271,0,0,0,0,0,0,0,-1,1819,1394,25.793,-4.52711
602,-370,25.1077,5.34937,0,0,0,0,0,0,0,-1,1826,1394,25.1077,-5.34932
609,-370,16.712,0.993286,0,0,0,0,0,0,0,-1,1833,1394,16.7121,-0.99323
616,-370,16.7764,7.23315,0,0,0,0,0,0,0,-1,1840,1394,16.7764,-7.23313
623,-370,17.6625,8.94263,0,0,0,0,0,0,0,-1,1847,1394,17.6624,-8.94258
630,-370,20.9681,11.1785,0,0,0,0,0,0,0,-1,1854,1394,20.9681,-11.1784
637,-370,31.5872,15.574,0,0,0,0,0,0,0,-1,1861,1394,31.5872,-15.574
644,-370,31.5975,15.0056,0.000410542,0.00111784,-0.00131011,0.00212119,-0.000592809,-0.917225,0.00164767,0.0143854,1868,1394,31.5975,-15.0057
651,-370,31.5786,14.446,0.000413696,0.000544928,-0.000698351,0.00118074,-0.000222115,-0.83224,0.000870693,0.0130369,1875,1394,31.5786,-14.446
658,-370,31.5593,13.9213,0.000796471,0.000172154,-0.000268985,0.000896376,7.22489e-05,-0.355622,0.000575016,0.0128045,1882,1394,31.5594,-13.9213
665,-370,31.5176,13.3901,0.00129706,-0.000135508,8.94175e-05,0.00130262,-0.000141068,0.0620963,0.000919052,0.0142412,1889,1394,31.5175,-13.3901
672,-370,31.4963,12.8433,0.00194802,-0.000401477,0.000394346,0.00201244,-0.000465899,0.161933,0.0015209,0.0156327,1896,1394,31.4964,-12.8432
679,-370,31.5151,12.2765,0.00277408,-0.000573471,0.000608798,0.00288136,-0.000680751,0.174426,0.00218349,0.0140181,1903,1394,31.5152,-12.2765
686,-370,31.4843,11.7393,0.00373954,-0.000718208,0.000779476,0.0038719,-0.000850576,0.168212,0.00290658,0.0135566,1910,1394,31.4842,-11.7393
693,-370,31.4541,11.1576,0.00492332,-0.000764111,0.000822691,0.00503993,-0.000880723,0.140807,0.00368874,0.0127648,1917,1394,31.4541,-11.1576
700,-370,31.661,10.5354,0.0064195,-0.000649872,0.00069489,0.00648716,-0.000717529,0.0970581,0.00458271,0.0381769,1924,1394,31.661,-10.5354
707,-370,32.0618,9.83984,0,0,0,0,0,0,0,-1,1931,1394,32.0618,-9.83982
714,-370,16.9116,5.93018,0,0,0,0,0,0,0,-1,1938,1394,16.9116,-5.93014
721,-370,17.2007,4.69153,0,0,0,0,0,0,0,-1,1945,1394,17.2007,-4.69158
728,-370,20.5315,-0.313354,0,0,0,0,0,0,0,-1,1952,1394,20.5315,0.313332
735,-370,22.3652,0.233398,0,0,0,0,0,0,0,-1,1959,1394,22.3652,-0.233355
742,-370,24.1989,0.780029,0,0,0,0,0,0,0,-1,1966,1394,24.1989,-0.780041
749,-370,0,0,0,0,0,0,0,0,0,-1,1973,1394,0,0
756,-370,0,0,0,0,0,0,0,0,0,-1,1980,1394,0,0
763,-370,0,0,0,0,0,0,0,0,0,-1,1987,1394,0,0
770,-370,0,0,0,0,0,0,0,0,0,-1,1994,1394,0,0
777,-370,0,0,0,0,0,0,0,0,0,-1,2001,1394,0,0
784,-370,0,0,0,0,0,0,0,0,0,-1,2008,1394,0,0
791,-370,0,0,0,0,0,0,0,0,0,-1,2015,1394,0,0
798,-370,0,0,0,0,0,0,0,0,0,-1,2022,1394,0,0
805,-370,0,0,0,0,0,0,0,0,0,-1,2029,1394,0,0
812,-370,0,0,0,0,0,0,0,0,0,-1,2036,1394,0,0
-700,-377,0,0,0,0,0,0,0,0,0,-1,524,1401,0,0
-693,-377,0,0,0,0,0,0,0,0,0,-1,531,1401,0,0
-686,-377,0,0,0,0,0,0,0,0,0,-1,538,1401,0,0
-679,-377,0,0,0,0,0,0,0,0,0,-1,545,1401,0,0
-672,-377,0,0,0,0,0,0,0,0,0,-1,552,1401,0,0
-665,-377,0,0,0,0,0,0,0,0,0,-1,559,1401,0,0
-658,-377,0,0,0,0,0,0,0,0,0,-1,566,1401,0,0
-651,-377,0,0,0,0,0,0,0,0,0,-1,573,1401,0,0
-644,-377,0,0,0,0,0,0,0,0,0,-1,580,1401,0,0
-637,-377,0,0,0,0,0,0,0,0,0,-1,587,1401,0,0
-630,-377,0,0,0,0,0,0,0,0,0,-1,594,1401,0,0
-623,-377,0,0,0,0,0,0,0,0,0,-1,601,1401,0,0
-616,-377,-9.43915,-2.4906,0,0,0,0,0,0,0,-1,608,1401,-9.43915,2.49062
-609,-377,-7.2821,-1.35278,0,0,0,0,0,0,0,-1,615,1401,-7.28208,1.35279
-602,-377,-14.9736,3.98279,0,0,0,0,0,0,0,-1,622,1401,-14.9737,-3.98276
-595,-377,-6.9082,1.18201,0,0,0,0,0,0,0,-1,629,1401,-6.90822,-1.18204
-588,-377,-12.8003,3.44751,0,0,0,0,0,0,0,-1,636,1401,-12.8003,-3.44754
-581,-377,-11.8243,6.21521,0,0,0,0,0,0,0,-1,643,1401,-11.8244,-6.21519
-574,-377,-12.2761,6.60547,0,0,0,0,0,0,0,-1,650,1401,-12.2761,-6.60552
-567,-377,-13.4844,7.41931,0,0,0,0,0,0,0,-1,657,1401,-13.4845,-7.41926
-560,-377,-15.4586,8.953,0,0,0,0,0,0,0,-1,664,1401,-15.4585,-8.95306
-553,-377,-15.3607,9.65955,0.00382013,0.00149192,0.00158944,0.00462617,0.000685885,0.469326,0.00288281,0.0160815,671,1401,-15.3606,-9.65952
-546,-377,-15.3585,10.3325,0.00328681,0.00113503,0.00136608,0.0039498,0.000472039,0.451839,0.00249081,0.0176211,678,1401,-15.3585,-10.3326
-539,-377,-15.3167,10.9241,0.00292508,0.000852089,0.00122979,0.00349691,0.000280264,0.435241,0.00224369,0.0231334,685,1401,-15.3167,-10.924
-532,-377,-15.3853,11.4755,0.00279681,0.000687395,0.00124072,0.00337054,0.000113667,0.433129,0.00221011,0.0210515,692,1401,-15.3853,-11.4755
-525,-377,-15.3538,12.0839,0.00298973,0.000765422,0.00151097,0.00375372,1.43051e-06,0.468141,0.00250201,0.0222249,699,1401,-15.3537,-12.0838
-518,-377,-15.4131,12.6737,0.00345464,0.00112906,0.00202715,0.00462882,-4.51137e-05,0.525004,0.00310103,0.014722,706,1401,-15.4131,-12.6737
-511,-377,-15.4484,13.2764,0.00423899,0.00171575,0.00278264,0.00603266,-7.79168e-05,0.572564,0.004048,0.0122197,713,1401,-15.4484,-13.2764
-504,-377,-15.4631,13.9036,0.0054559,0.0027792,0.00396051,0.00829807,-6.2976e-05,0.62246,0.00555316,0.0154435,720,1401,-15.4631,-13.9035
-497,-377,-15.4523,14.5115,0,0,0,0,0,0,0,-1,727,1401,-15.4524,-14.5114
-490,-377,-8.88409,10.1245,0,0,0,0,0,0,0,-1,734,1401,-8.8841,-10.1245
-483,-377,-5.6524,5.07324,0,0,0,0,0,0,0,-1,741,1401,-5.6524,-5.07325
-476,-377,-6.11682,5.10535,0,0,0,0,0,0,0,-1,748,1401,-6.11681,-5.10537
-469,-377,-10.3211,1.9281,0,0,0,0,0,0,0,-1,755,1401,-10.3211,-1.92808
-462,-377,-9.2204,1.0022,0,0,0,0,0,0,0,-1,762,1401,-9.22039,-1.00218
-455,-377,-8.11969,0.0762939,0,0,0,0,0,0,0,-1,769,1401,-8.11968,-0.0762759
-448,-377,-9.05334,0.877319,0,0,0,0,0,0,0,-1,776,1401,-9.05332,-0.877324
-441,-377,-11.212,0.763428,0,0,0,0,0,0,0,-1,783,1401,-11.212,-0.763415
-434,-377,-11.0984,0.996216,0,0,0,0,0,0,0,-1,790,1401,-11.0984,-0.996265
-427,-377,-11.1733,1.25732,0,0,0,0,0,0,0,-1,797,1401,-11.1733,-1.25732
-420,-377,0,0,0,0,0,0,0,0,0,-1,804,1401,0,0
-413,-377,0,0,0,0,0,0,0,0,0,-1,811,1401,0,0
-406,-377,0,0,0,0,0,0,0,0,0,-1,818,1401,0,0
-399,-377,0,0,0,0,0,0,0,0,0,-1,825,1401,0,0
-392,-377,0,0,0,0,0,0,0,0,0,-1,832,1401,0,0
-385,-377,0,0,0,0,0,0,0,0,0,-1,839,1401,0,0
-378,-377,0,0,0,0,0,0,0,0,0,-1,846,1401,0,0
-371,-377,0,0,0,0,0,0,0,0,0,-1,853,1401,0,0
-364,-377,0,0,0,0,0,0,0,0,0,-1,860,1401,0,0
-357,-377,0,0,0,0,0,0,0,0,0,-1,867,1401,0,0
-350,-377,0,0,0,0,0,0,0,0,0,-1,874,1401,0,0
-343,-377,0,0,0,0,0,0,0,0,0,-1,881,1401,0,0
-336,-377,0,0,0,0,0,0,0,0,0,-1,888,1401,0,0
-329,-377,0,0,0,0,0,0,0,0,0,-1,895,1401,0,0
-322,-377,0,0,0,0,0,0,0,0,0,-1,902,1401,0,0
-315,-377,0,0,0,0,0,0,0,0,0,-1,909,1401,0,0
-308,-377,0,0,0,0,0,0,0,0,0,-1,916,1401,0,0
-301,-377,0,0,0,0,0,0,0,0,0,-1,923,1401,0,0
-294,-377,0,0,0,0,0,0,0,0,0,-1,930,1401,0,0
-287,-377,0,0,0,0,0,0,0,0,0,-1,937,1401,0,0
-280,-377,0,0,0,0,0,0,0,0,0,-1,944,1401,0,0
-273,-377,0,0,0,0,0,0,0,0,0,-1,951,1401,0,0
-266,-377,0,0,0,0,0,0,0,0,0,-1,958,1401,0,0
-259,-377,0,0,0,0,0,0,0,0,0,-1,965,1401,0,0
-252,-377,0,0,0,0,0,0,0,0,0,-1,972,1401,0,0
-245,-377,0,0,0,0,0,0,0,0,0,-1,979,1401,0,0
-238,-377,0,0,0,0,0,0,0,0,0,-1,986,1401,0,0
-231,-377,0,0,0,0,0,0,0,0,0,-1,993,1401,0,0
-224,-377,0,0,0,0,0,0,0,0,0,-1,1000,1401,0,0
-217,-377,0,0,0,0,0,0,0,0,0,-1,1007,1401,0,0
-210,-377,0,0,0,0,0,0,0,0,0,-1,1014,1401,0,0
-203,-377,0,0,0,0,0,0,0,0,0,-1,1021,1401,0,0
-196,-377,0,0,0,0,0,0,0,0,0,-1,1028,1401,0,0
-189,-377,0,0,0,0,0,0,0,0,0,-1,1035,1401,0,0
-182,-377,0,0,0,0,0,0,0,0,0,-1,1042,1401,0,0
-175,-377,0,0,0,0,0,0,0,0,0,-1,1049,1401,0,0
-168,-377,0,0,0,0,0,0,0,0,0,-1,1056,1401,0,0
-161,-377,0,0,0,0,0,0,0,0,0,-1,1063,1401,0,0
-154,-377,0,0,0,0,0,0,0,0,0,-1,1070,1401,0,0
-147,-377,0,0,0,0,0,0,0,0,0,-1,1077,1401,0,0
-140,-377,0,0,0,0,0,0,0,0,0,-1,1084,1401,0,0
-133,-377,0,0,0,0,0,0,0,0,0,-1,1091,1401,0,0
-126,-377,0,0,0,0,0,0,0,0,0,-1,1098,1401,0,0
-119,-377,0,0,0,0,0,0,0,0,0,-1,1105,1401,0,0
-112,-377,0,0,0,0,0,0,0,0,0,-1,1112,1401,0,0
-105,-377,0,0,0,0,0,0,0,0,0,-1,1119,1401,0,0
-98,-377,0,0,0,0,0,0,0,0,0,-1,1126,1401,0,0
-91,-377,0,0,0,0,0,0,0,0,0,-1,1133,1401,0,0
-84,-377,0,0,0,0,0,0,0,0,0,-1,1140,1401,0,0
-77,-377,0,0,0,0,0,0,0,0,0,-1,1147,1401,0,0
-70,-377,0,0,0,0,0,0,0,0,0,-1,1154,1401,0,0
-63,-377,0,0,0,0,0,0,0,0,0,-1,1161,1401,0,0
-56,-377,0,0,0,0,0,0,0,0,0,-1,1168,1401,0,0
-49,-377,0,0,0,0,0,0,0,0,0,-1,1175,1401,0,0
-42,-377,0,0,0,0,0,0,0,0,0,-1,1182,1401,0,0
-35,-377,0,0,0,0,0,0,0,0,0,-1,1189,1401,0,0
-28,-377,0,0,0,0,0,0,0,0,0,-1,1196,1401,0,0
-21,-377,0,0,0,0,0,0,0,0,0,-1,1203,1401,0,0
-14,-377,0,0,0,0,0,0,0,0,0,-1,1210,1401,0,0
-7,-377,0,0,0,0,0,0,0,0,0,-1,1217,1401,0,0
0,-377,0,0,0,0,0,0,0,0,0,-1,1224,1401,0,0
7,-377,0,0,0,0,0,0,0,0,0,-1,1231,1401,0,0
14,-377,0,0,0,0,0,0,0,0,0,-1,1238,1401,0,0
21,-377,0,0,0,0,0,0,0,0,0,-1,1245,1401,0,0
28,-377,0,0,0,0,0,0,0,0,0,-1,1252,1401,0,0
35,-377,0,0,0,0,0,0,0,0,0,-1,1259,1401,0,0
42,-377,0,0,0,0,0,0,0,0,0,-1,1266,1401,0,0
49,-377,0,0,0,0,0,0,0,0,0,-1,1273,1401,0,0
56,-377,0,0,0,0,0,0,0,0,0,-1,1280,1401,0,0
63,-377,0,0,0,0,0,0,0,0,0,-1,1287,1401,0,0
70,-377,0,0,0,0,0,0,0,0,0,-1,1294,1401,0,0
77,-377,0,0,0,0,0,0,0,0,0,-1,1301,1401,0,0
84,-377,0,0,0,0,0,0,0,0,0,-1,1308,1401,0,0
91,-377,0,0,0,0,0,0,0,0,0,-1,1315,1401,0,0
98,-377,0,0,0,0,0,0,0,0,0,-1,1322,1401,0,0
105,-377,0,0,0,0,0,0,0,0,0,-1,1329,1401,0,0
112,-377,0,0,0,0,0,0,0,0,0,-1,1336,1401,0,0
119,-377,0,0,0,0,0,0,0,0,0,-1,1343,1401,0,0
126,-377,0,0,0,0,0,0,0,0,0,-1,1350,1401,0,0
133,-377,0,0,0,0,0,0,0,0,0,-1,1357,1401,0,0
140,-377,0,0,0,0,0,0,0,0,0,-1,1364,1401,0,0
147,-377,0,0,0,0,0,0,0,0,0,-1,1371,1401,0,0
154,-377,0,0,0,0,0,0,0,0,0,-1,1378,1401,0,0
161,-377,0,0,0,0,0,0,0,0,0,-1,1385,1401,0,0
168,-377,0,0,0,0,0,0,0,0,0,-1,1392,1401,0,0
175,-377,0,0,0,0,0,0,0,0,0,-1,1399,1401,0,0
182,-377,0,0,0,0,0,0,0,0,0,-1,1406,1401,0,0
189,-377,0,0,0,0,0,0,0,0,0,-1,1413,1401,0,0
196,-377,0,0,0,0,0,0,0,0,0,-1,1420,1401,0,0
203,-377,0,0,0,0,0,0,0,0,0,-1,1427,1401,0,0
210,-377,0,0,0,0,0,0,0,0,0,-1,1434,1401,0,0
217,-377,0,0,0,0,0,0,0,0,0,-1,1441,1401,0,0
224,-377,0,0,0,0,0,0,0,0,0,-1,1448,1401,0,0
231,-377,0,0,0,0,0,0,0,0,0,-1,1455,1401,0,0
238,-377,0,0,0,0,0,0,0,0,0,-1,1462,1401,0,0
245,-377,0,0,0,0,0,0,0,0,0,-1,1469,1401,0,0
252,-377,0,0,0,0,0,0,0,0,0,-1,1476,1401,0,0
259,-377,0,0,0,0,0,0,0,0,0,-1,1483,1401,0,0
266,-377,0,0,0,0,0,0,0,0,0,-1,1490,1401,0,0
273,-377,0,0,0,0,0,0,0,0,0,-1,1497,1401,0,0
280,-377,0,0,0,0,0,0,0,0,0,-1,1504,1401,0,0
287,-377,0,0,0,0,0,0,0,0,0,-1,1511,1401,0,0
294,-377,0,0,0,0,0,0,0,0,0,-1,1518,1401,0,0
301,-377,0,0,0,0,0,0,0,0,0,-1,1525,1401,0,0
308,-377,0,0,0,0,0,0,0,0,0,-1,1532,1401,0,0
315,-377,0,0,0,0,0,0,0,0,0,-1,1539,1401,0,0
322,-377,0,0,0,0,0,0,0,0,0,-1,1546,1401,0,0
329,-377,0,0,0,0,0,0,0,0,0,-1,1553,1401,0,0
336,-377,0,0,0,0,0,0,0,0,0,-1,1560,1401,0,0
343,-377,0,0,0,0,0,0,0,0,0,-1,1567,1401,0,0
350,-377,0,0,0,0,0,0,0,0,0,-1,1574,1401,0,0
357,-377,0,0,0,0,0,0,0,0,0,-1,1581,1401,0,0
364,-377,0,0,0,0,0,0,0,0,0,-1,1588,1401,0,0
371,-377,0,0,0,0,0,0,0,0,0,-1,1595,1401,0,0
378,-377,0,0,0,0,0,0,0,0,0,-1,1602,1401,0,0
385,-377,0,0,0,0,0,0,0,0,0,-1,1609,1401,0,0
392,-377,0,0,0,0,0,0,0,0,0,-1,1616,1401,0,0
399,-377,0,0,0,0,0,0,0,0,0,-1,1623,1401,0,0
406,-377,0,0,0,0,0,0,0,0,0,-1,1630,1401,0,0
413,-377,0,0,0,0,0,0,0,0,0,-1,1637,1401,0,0
420,-377,0,0,0,0,0,0,0,0,0,-1,1644,1401,0,0
427,-377,0,0,0,0,0,0,0,0,0,-1,1651,1401,0,0
434,-377,0,0,0,0,0,0,0,0,0,-1,1658,1401,0,0
441,-377,0,0,0,0,0,0,0,0,0,-1,1665,1401,0,0
448,-377,0,0,0,0,0,0,0,0,0,-1,1672,1401,0,0
455,-377,0,0,0,0,0,0,0,0,0,-1,1679,1401,0,0
462,-377,0,0,0,0,0,0,0,0,0,-1,1686,1401,0,0
469,-377,0,0,0,0,0,0,0,0,0,-1,1693,1401,0,0
476,-377,0,0,0,0,0,0,0,0,0,-1,1700,1401,0,0
483,-377,0,0,0,0,0,0,0,0,0,-1,1707,1401,0,0
490,-377,0,0,0,0,0,0,0,0,0,-1,1714,1401,0,0
497,-377,0,0,0,0,0,0,0,0,0,-1,1721,1401,0,0
504,-377,0,0,0,0,0,0,0,0,0,-1,1728,1401,0,0
511,-377,0,0,0,0,0,0,0,0,0,-1,1735,1401,0,0
518,-377,0,0,0,0,0,0,0,0,0,-1,1742,1401,0,0
525,-377,0,0,0,0,0,0,0,0,0,-1,1749,1401,0,0
532,-377,0,0,0,0,0,0,0,0,0,-1,1756,1401,0,0
539,-377,0,0,0,0,0,0,0,0,0,-1,1763,1401,0,0
546,-377,27.8485,2.34094,0,0,0,0,0,0,0,-1,1770,1401,27.8486,-2.34091
553,-377,27.2189,2.42493,0,0,0,0,0,0,0,-1,1777,1401,27.2188,-2.42498
560,-377,38.3577,-2.15015,0,0,0,0,0,0,0,-1,1784,1401,38.3576,2.1501
567,-377,38.4889,-0.285645,0,0,0,0,0,0,0,-1,1791,1401,38.4889,0.2857
574,-377,38.6221,1.61694,0,0,0,0,0,0,0,-1,1798,1401,38.6221,-1.61689
581,-377,39.1818,3.76367,0,0,0,0,0,0,0,-1,1805,1401,39.1818,-3.76366
588,-377,25.882,4.35217,0,0,0,0,0,0,0,-1,1812,1401,25.8819,-4.3522
595,-377,25.5392,5.11804,0,0,0,0,0,0,0,-1,1819,1401,25.5392,-5.11808
602,-377,24.816,5.79126,0,0,0,0,0,0,0,-1,1826,1401,24.816,-5.79124
609,-377,15.0223,4.76135,0,0,0,0,0,0,0,-1,1833,1401,15.0224,-4.76129
616,-377,14.1842,5.78992,0,0,0,0,0,0,0,-1,1840,1401,14.1842,-5.78987
623,-377,15.8248,8.76721,0,0,0,0,0,0,0,-1,1847,1401,15.8248,-8.76725
630,-377,30.598,16.4994,0,0,0,0,0,0,0,-1,1854,1401,30.5981,-16.4994
637,-377,30.9368,15.6438,0.000763078,0.00122604,-0.00144861,0.00246155,-0.000472432,-0.864626,0.00181907,0.0367943,1861,1401,30.9367,-15.6438
644,-377,31.0448,15.0332,0.000617153,0.000885944,-0.00106018,0.00182021,-0.000317111,-0.848446,0.00133182,0.0136612,1868,1401,31.0448,-15.0332
651,-377,31.0111,14.4606,0.000674147,0.000419872,-0.000529978,0.00109202,1.99501e-06,-0.667677,0.000727352,0.014332,1875,1401,31.0111,-14.4605
658,-377,30.996,13.924,0.00100464,8.60955e-05,-0.000112723,0.00101827,7.24646e-05,-0.12034,0.00065603,0.0155489,1882,1401,30.996,-13.9239
665,-377,30.9875,13.3547,0.00146745,-0.00021069,0.000268902,0.00150949,-0.000252726,0.155067,0.00110028,0.0189972,1889,1401,30.9876,-13.3547
672,-377,30.9603,12.8103,0.00209943,-0.000500978,0.000628125,0.00224321,-0.000644751,0.225017,0.00175043,0.019173,1896,1401,30.9604,-12.8103
679,-377,30.9397,12.2876,0.00290502,-0.00072831,0.000933306,0.00313074,-0.000954028,0.237292,0.00246743,0.0174514,1903,1401,30.9398,-12.2876
686,-377,30.9159,11.7627,0.00384839,-0.000996275,0.00125537,0.00415436,-0.00130225,0.23907,0.0032907,0.0144282,1910,1401,30.9159,-11.7626
693,-377,30.9574,11.1895,0.00506053,-0.00119609,0.00145656,0.00538301,-0.00151856,0.217878,0.00418767,0.0166073,1917,1401,30.9574,-11.1895
700,-377,31.3013,10.6222,0,0,0,0,0,0,0,-1,1924,1401,31.3013,-10.6222
707,-377,28.6234,9.18152,0,0,0,0,0,0,0,-1,1931,1401,28.6234,-9.18151
714,-377,16.5369,5.45959,0,0,0,0,0,0,0,-1,1938,1401,16.5369,-5.4596
721,-377,17.0913,5.42529,0,0,0,0,0,0,0,-1,1945,1401,17.0914,-5.42529
728,-377,14.5396,2.79724,0,0,0,0,0,0,0,-1,1952,1401,14.5396,-2.7972
735,-377,23.2977,-0.991089,0,0,0,0,0,0,0,-1,1959,1401,23.2978,0.991076
742,-377,0,0,0,0,0,0,0,0,0,-1,1966,1401,0,0
749,-377,0,0,0,0,0,0,0,0,0,-1,1973,1401,0,0
756,-377,0,0,0,0,0,0,0,0,0,-1,1980,1401,0,0
763,-377,0,0,0,0,0,0,0,0,0,-1,1987,1401,0,0
770,-377,0,0,0,0,0,0,0,0,0,-1,1994,1401,0,0
777,-377,0,0,0,0,0,0,0,0,0,-1,2001,1401,0,0
784,-377,0,0,0,0,0,0,0,0,0,-1,2008,1401,0,0
791,-377,0,0,0,0,0,0,0,0,0,-1,2015,1401,0,0
798,-377,0,0,0,0,0,0,0,0,0,-1,2022,1401,0,0
805,-377,0,0,0,0,0,0,0,0,0,-1,2029,1401,0,0
812,-377,0,0,0,0,0,0,0,0,0,-1,2036,1401,0,0
-700,-384,0,0,0,0,0,0,0,0,0,-1,524,1408,0,0
-693,-384,0,0,0,0,0,0,0,0,0,-1,531,1408,0,0
-686,-384,0,0,0,0,0,0,0,0,0,-1,538,1408,0,0
-679,-384,0,0,0,0,0,0,0,0,0,-1,545,1408,0,0
-672,-384,0,0,0,0,0,0,0,0,0,-1,552,1408,0,0
-665,-384,0,0,0,0,0,0,0,0,0,-1,559,1408,0,0
-658,-384,0,0,0,0,0,0,0,0,0,-1,566,1408,0,0
-651,-384,0,0,0,0,0,0,0,0,0,-1,573,1408,0,0
-644,-384,0,0,0,0,0,0,0,0,0,-1,580,1408,0,0
-637,-384,0,0,0,0,0,0,0,0,0,-1,587,1408,0,0
-630,-384,0,0,0,0,0,0,0,0,0,-1,594,1408,0,0
-623,-384,0,0,0,0,0,0,0,0,0,-1,601,1408,0,0
-616,-384,-10.019,-3.36646,0,0,0,0,0,0,0,-1,608,1408,-10.019,3.36648
-609,-384,-7.72357,-2.3418,0,0,0,0,0,0,0,-1,615,1408,-7.72358,2.34182
-602,-384,-11.7632,-2.85156,0,0,0,0,0,0,0,-1,622,1408,-11.7632,2.85157
-595,-384,-10.2217,2.8855,0,0,0,0,0,0,0,-1,629,1408,-10.2218,-2.88548
-588,-384,-12.1653,2.29041,0,0,0,0,0,0,0,-1,636,1408,-12.1654,-2.29038
-581,-384,-11.9297,3.60376,0,0,0,0,0,0,0,-1,643,1408,-11.9298,-3.6038
-574,-384,-11.8677,6.02722,0,0,0,0,0,0,0,-1,650,1408,-11.8677,-6.02722
-567,-384,-12.0743,7.04639,0,0,0,0,0,0,0,-1,657,1408,-12.0743,-7.04641
-560,-384,-14.931,8.9375,0,0,0,0,0,0,0,-1,664,1408,-14.931,-8.93749
-553,-384,-14.7703,9.68164,0.00418983,0.00188704,0.0019256,0.00528201,0.000794856,0.515945,0.00328857,0.0404399,671,1408,-14.7703,-9.68166
-546,-384,-14.7559,10.366,0.00350918,0.00144903,0.00157563,0.00436157,0.000596643,0.495893,0.00273065,0.0153013,678,1408,-14.7559,-10.366
-539,-384,-14.7725,10.9579,0.00300016,0.00109611,0.00131315,0.00367008,0.000426181,0.471747,0.00231776,0.0170047,685,1408,-14.7724,-10.9579
-532,-384,-14.7582,11.4965,0.0027158,0.000853941,0.00119174,0.00329711,0.00027263,0.453827,0.00211307,0.0221346,692,1408,-14.7582,-11.4965
-525,-384,-14.7616,12.1022,0.00278106,0.000871937,0.00135178,0.00348133,0.000171659,0.477977,0.00226584,0.0223752,699,1408,-14.7616,-12.1022
-518,-384,-14.819,12.7052,0.0031413,0.00120189,0.00178301,0.00420123,0.000141953,0.53634,0.00275472,0.014159,706,1408,-14.819,-12.7052
-511,-384,-14.8649,13.3224,0.00381095,0.00177352,0.00245284,0.00544821,0.000136262,0.588577,0.00358758,0.0114945,713,1408,-14.8649,-13.3223
-504,-384,-14.8682,13.9454,0.00489729,0.00276765,0.00351472,0.00750495,0.000159988,0.638314,0.00495083,0.0122787,720,1408,-14.8682,-13.9455
-497,-384,-14.8654,14.5635,0,0,0,0,0,0,0,-1,727,1408,-14.8653,-14.5634
-490,-384,-14.6195,14.9689,0,0,0,0,0,0,0,-1,734,1408,-14.6195,-14.9689
-483,-384,-6.26471,7.61194,0,0,0,0,0,0,0,-1,741,1408,-6.26469,-7.61191
-476,-384,-6.02734,5.67761,0,0,0,0,0,0,0,-1,748,1408,-6.02736,-5.6776
-469,-384,-10.206,2.63721,0,0,0,0,0,0,0,-1,755,1408,-10.206,-2.6372
-462,-384,-9.04291,1.43542,0,0,0,0,0,0,0,-1,762,1408,-9.04293,-1.43545
-455,-384,-7.87988,0.233765,0,0,0,0,0,0,0,-1,769,1408,-7.87986,-0.233709
-448,-384,-9.35529,7.19226,0,0,0,0,0,0,0,-1,776,1408,-9.35531,-7.19226
-441,-384,-10.4697,1.79004,0,0,0,0,0,0,0,-1,783,1408,-10.4697,-1.79003
-434,-384,-10.6449,0.552246,0,0,0,0,0,0,0,-1,790,1408,-10.6449,-0.552216
-427,-384,-10.968,1.10583,0,0,0,0,0,0,0,-1,797,1408,-10.968,-1.10588
-420,-384,-12.5607,4.54858,0,0,0,0,0,0,0,-1,804,1408,-12.5607,-4.54859
-413,-384,0,0,0,0,0,0,0,0,0,-1,811,1408,0,0
-406,-384,0,0,0,0,0,0,0,0,0,-1,818,1408,0,0
-399,-384,0,0,0,0,0,0,0,0,0,-1,825,1408,0,0
-392,-384,0,0,0,0,0,0,0,0,0,-1,832,1408,0,0
-385,-384,0,0,0,0,0,0,0,0,0,-1,839,1408,0,0
-378,-384,0,0,0,0,0,0,0,0,0,-1,846,1408,0,0
-371,-384,0,0,0,0,0,0,0,0,0,-1,853,1408,0,0
-364,-384,0,0,0,0,0,0,0,0,0,-1,860,1408,0,0
-357,-384,0,0,0,0,0,0,0,0,0,-1,867,1408,0,0
-350,-384,0,0,0,0,0,0,0,0,0,-1,874,1408,0,0
-343,-384,0,0,0,0,0,0,0,0,0,-1,881,1408,0,0
-336,-384,0,0,0,0,0,0,0,0,0,-1,888,1408,0,0
-329,-384,0,0,0,0,0,0,0,0,0,-1,895,1408,0,0
-322,-384,0,0,0,0,0,0,0,0,0,-1,902,1408,0,0
-315,-384,0,0,0,0,0,0,0,0,0,-1,909,1408,0,0
-308,-384,0,0,0,0,0,0,0,0,0,-1,916,1408,0,0
-301,-384,0,0,0,0,0,0,0,0,0,-1,923,1408,0,0
-294,-384,0,0,0,0,0,0,0,0,0,-1,930,1408,0,0
-287,-384,0,0,0,0,0,0,0,0,0,-1,937,1408,0,0
-280,-384,0,0,0,0,0,0,0,0,0,-1,944,1408,0,0
-273,-384,0,0,0,0,0,0,0,0,0,-1,951,1408,0,0
-266,-384,0,0,0,0,0,0,0,0,0,-1,958,1408,0,0
-259,-384,0,0,0,0,0,0,0,0,0,-1,965,1408,0,0
-252,-384,0,0,0,0,0,0,0,0,0,-1,972,1408,0,0
-245,-384,0,0,0,0,0,0,0,0,0,-1,979,1408,0,0
-238,-384,0,0,0,0,0,0,0,0,0,-1,986,1408,0,0
-231,-384,0,0,0,0,0,0,0,0,0,-1,993,1408,0,0
-224,-384,0,0,0,0,0,0,0,0,0,-1,1000,1408,0,0
-217,-384,0,0,0,0,0,0,0,0,0,-1,1007,1408,0,0
-210,-384,0,0,0,0,0,0,0,0,0,-1,1014,1408,0,0
-203,-384,0,0,0,0,0,0,0,0,0,-1,1021,1408,0,0
-196,-384,0,0,0,0,0,0,0,0,0,-1,1028,1408,0,0
-189,-384,0,0,0,0,0,0,0,0,0,-1,1035,1408,0,0
-182,-384,0,0,0,0,0,0,0,0,0,-1,1042,1408,0,0
-175,-384,0,0,0,0,0,0,0,0,0,-1,1049,1408,0,0
-168,-384,0,0,0,0,0,0,0,0,0,-1,1056,1408,0,0
-161,-384,0,0,0,0,0,0,0,0,0,-1,1063,1408,0,0
-154,-384,0,0,0,0,0,0,0,0,0,-1,1070,1408,0,0
-147,-384,0,0,0,0,0,0,0,0,0,-1,1077,1408,0,0
-140,-384,0,0,0,0,0,0,0,0,0,-1,1084,1408,0,0
-133,-384,0,0,0,0,0,0,0,0,0,-1,1091,1408,0,0
-126,-384,0,0,0,0,0,0,0,0,0,-1,1098,1408,0,0
-119,-384,0,0,0,0,0,0,0,0,0,-1,1105,1408,0,0
-112,-384,0,0,0,0,0,0,0,0,0,-1,1112,1408,0,0
-105,-384,0,0,0,0,0,0,0,0,0,-1,1119,1408,0,0
-98,-384,0,0,0,0,0,0,0,0,0,-1,1126,1408,0,0
-91,-384,0,0,0,0,0,0,0,0,0,-1,1133,1408,0,0
-84,-384,0,0,0,0,0,0,0,0,0,-1,1140,1408,0,0
-77,-384,0,0,0,0,0,0,0,0,0,-1,1147,1408,0,0
-70,-384,0,0,0,0,0,0,0,0,0,-1,1154,1408,0,0
-63,-384,0,0,0,0,0,0,0,0,0,-1,1161,1408,0,0
-56,-384,0,0,0,0,0,0,0,0,0,-1,1168,1408,0,0
-49,-384,0,0,0,0,0,0,0,0,0,-1,1175,1408,0,0
-42,-384,0,0,0,0,0,0,0,0,0,-1,1182,1408,0,0
-35,-384,0,0,0,0,0,0,0,0,0,-1,1189,1408,0,0
-28,-384,0,0,0,0,0,0,0,0,0,-1,1196,1408,0,0
-21,-384,0,0,0,0,0,0,0,0,0,-1,1203,1408,0,0
-14,-384,0,0,0,0,0,0,0,0,0,-1,1210,1408,0,0
-7,-384,0,0,0,0,0,0,0,0,0,-1,1217,1408,0,0
0,-384,0,0,0,0,0,0,0,0,0,-1,1224,1408,0,0
7,-384,0,0,0,0,0,0,0,0,0,-1,1231,1408,0,0
14,-384,0,0,0,0,0,0,0,0,0,-1,1238,1408,0,0
21,-384,0,0,0,0,0,0,0,0,0,-1,1245,1408,0,0
28,-384,0,0,0,0,0,0,0,0,0,-1,1252,1408,0,0
35,-384,0,0,0,0,0,0,0,0,0,-1,1259,1408,0,0
42,-384,0,0,0,0,0,0,0,0,0,-1,1266,1408,0,0
49,-384,0,0,0,0,0,0,0,0,0,-1,1273,1408,0,0
56,-384,0,0,0,0,0,0,0,0,0,-1,1280,1408,0,0
63,-384,0,0,0,0,0,0,0,0,0,-1,1287,1408,0,0
70,-384,0,0,0,0,0,0,0,0,0,-1,1294,1408,0,0
77,-384,0,0,0,0,0,0,0,0,0,-1,1301,1408,0,0
84,-384,0,0,0,0,0,0,0,0,0,-1,1308,1408,0,0
91,-384,0,0,0,0,0,0,0,0,0,-1,1315,1408,0,0
98,-384,0,0,0,0,0,0,0,0,0,-1,1322,1408,0,0
105,-384,0,0,0,0,0,0,0,0,0,-1,1329,1408,0,0
112,-384,0,0,0,0,0,0,0,0,0,-1,1336,1408,0,0
119,-384,0,0,0,0,0,0,0,0,0,-1,1343,1408,0,0
126,-384,0,0,0,0,0,0,0,0,0,-1,1350,1408,0,0
133,-384,0,0,0,0,0,0,0,0,0,-1,1357,1408,0,0
140,-384,0,0,0,0,0,0,0,0,0,-1,1364,1408,0,0
147,-384,0,0,0,0,0,0,0,0,0,-1,1371,1408,0,0
154,-384,0,0,0,0,0,0,0,0,0,-1,1378,1408,0,0
161,-384,0,0,0,0,0,0,0,0,0,-1,1385,1408,0,0
168,-384,0,0,0,0,0,0,0,0,0,-1,1392,1408,0,0
175,-384,0,0,0,0,0,0,0,0,0,-1,1399,1408,0,0
182,-384,0,0,0,0,0,0,0,0,0,-1,1406,1408,0,0
189,-384,0,0,0,0,0,0,0,0,0,-1,1413,1408,0,0
196,-384,0,0,0,0,0,0,0,0,0,-1,1420,1408,0,0
203,-384,0,0,0,0,0,0,0,0,0,-1,1427,1408,0,0
210,-384,0,0,0,0,0,0,0,0,0,-1,1434,1408,0,0
217,-384,0,0,0,0,0,0,0,0,0,-1,1441,1408,0,0
224,-384,0,0,0,0,0,0,0,0,0,-1,1448,1408,0,0
231,-384,0,0,0,0,0,0,0,0,0,-1,1455,1408,0,0
238,-384,0,0,0,0,0,0,0,0,0,-1,1462,1408,0,0
245,-384,0,0,0,0,0,0,0,0,0,-1,1469,1408,0,0
252,-384,0,0,0,0,0,0,0,0,0,-1,1476,1408,0,0
259,-384,0,0,0,0,0,0,0,0,0,-1,1483,1408,0,0
266,-384,0,0,0,0,0,0,0,0,0,-1,1490,1408,0,0
273,-384,0,0,0,0,0,0,0,0,0,-1,1497,1408,0,0
280,-384,0,0,0,0,0,0,0,0,0,-1,1504,1408,0,0
287,-384,0,0,0,0,0,0,0,0,0,-1,1511,1408,0,0
294,-384,0,0,0,0,0,0,0,0,0,-1,1518,1408,0,0
301,-384,0,0,0,0,0,0,0,0,0,-1,1525,1408,0,0
308,-384,0,0,0,0,0,0,0,0,0,-1,1532,1408,0,0
315,-384,0,0,0,0,0,0,0,0,0,-1,1539,1408,0,0
322,-384,0,0,0,0,0,0,0,0,0,-1,1546,1408,0,0
329,-384,0,0,0,0,0,0,0,0,0,-1,1553,1408,0,0
336,-384,0,0,0,0,0,0,0,0,0,-1,1560,1408,0,0
343,-384,0,0,0,0,0,0,0,0,0,-1,1567,1408,0,0
350,-384,0,0,0,0,0,0,0,0,0,-1,1574,1408,0,0
357,-384,0,0,0,0,0,0,0,0,0,-1,1581,1408,0,0
364,-384,0,0,0,0,0,0,0,0,0,-1,1588,1408,0,0
371,-384,0,0,0,0,0,0,0,0,0,-1,1595,1408,0,0
378,-384,0,0,0,0,0,0,0,0,0,-1,1602,1408,0,0
385,-384,0,0,0,0,0,0,0,0,0,-1,1609,1408,0,0
392,-384,0,0,0,0,0,0,0,0,0,-1,1616,1408,0,0
399,-384,0,0,0,0,0,0,0,0,0,-1,1623,1408,0,0
406,-384,0,0,0,0,0,0,0,0,0,-1,1630,1408,0,0
413,-384,0,0,0,0,0,0,0,0,0,-1,1637,1408,0,0
420,-384,0,0,0,0,0,0,0,0,0,-1,1644,1408,0,0
427,-384,0,0,0,0,0,0,0,0,0,-1,1651,1408,0,0
434,-384,0,0,0,0,0,0,0,0,0,-1,1658,1408,0,0
441,-384,0,0,0,0,0,0,0,0,0,-1,1665,1408,0,0
448,-384,0,0,0,0,0,0,0,0,0,-1,1672,1408,0,0
455,-384,0,0,0,0,0,0,0,0,0,-1,1679,1408,0,0
462,-384,0,0,0,0,0,0,0,0,0,-1,1686,1408,0,0
469,-384,0,0,0,0,0,0,0,0,0,-1,1693,1408,0,0
476,-384,0,0,0,0,0,0,0,0,0,-1,1700,1408,0,0
483,-384,0,0,0,0,0,0,0,0,0,-1,1707,1408,0,0
490,-384,0,0,0,0,0,0,0,0,0,-1,1714,1408,0,0
497,-384,0,0,0,0,0,0,0,0,0,-1,1721,1408,0,0
504,-384,0,0,0,0,0,0,0,0,0,-1,1728,1408,0,0
511,-384,0,0,0,0,0,0,0,0,0,-1,1735,1408,0,0
518,-384,0,0,0,0,0,0,0,0,0,-1,1742,1408,0,0
525,-384,0,0,0,0,0,0,0,0,0,-1,1749,1408,0,0
532,-384,0,0,0,0,0,0,0,0,0,-1,1756,1408,0,0
539,-384,27.6886,2.85803,0,0,0,0,0,0,0,-1,1763,1408,27.6886,-2.85807
546,-384,27.5044,2.9425,0,0,0,0,0,0,0,-1,1770,1408,27.5044,-2.94255
553,-384,27.3052,2.78394,0,0,0,0,0,0,0,-1,1777,1408,27.3051,-2.78394
560,-384,26.833,3.19812,0,0,0,0,0,0,0,-1,1784,1408,26.833,-3.19816
567,-384,38.2566,0.109985,0,0,0,0,0,0,0,-1,1791,1408,38.2566,-0.110044
574,-384,38.4003,2.05945,0,0,0,0,0,0,0,-1,1798,1408,38.4003,-2.05949
581,-384,25.819,3.91846,0,0,0,0,0,0,0,-1,1805,1408,25.8189,-3.91848
588,-384,23.3721,4.25439,0,0,0,0,0,0,0,-1,1812,1408,23.3721,-4.25442
595,-384,24.981,5.59595,0,0,0,0,0,0,0,-1,1819,1408,24.981,-5.59598
602,-384,20.6605,4.17261,0,0,0,0,0,0,0,-1,1826,1408,20.6606,-4.17265
609,-384,14.158,5.49475,0,0,0,0,0,0,0,-1,1833,1408,14.158,-5.49474
616,-384,14.7997,7.6908,0,0,0,0,0,0,0,-1,1840,1408,14.7996,-7.69079
623,-384,16.4293,9.58899,0,0,0,0,0,0,0,-1,1847,1408,16.4294,-9.58901
630,-384,30.4426,16.2152,0,0,0,0,0,0,0,-1,1854,1408,30.4427,-16.2152
637,-384,30.5127,15.6089,0.00097036,0.00110537,-0.00126334,0.00230301,-0.000227281,-0.81209,0.00161644,0.0222903,1861,1408,30.5127,-15.6089
644,-384,30.4631,15.0781,0.000820631,0.00074911,-0.000869332,0.00165494,-8.51969e-05,-0.764842,0.00113276,0.0167679,1868,1408,30.4632,-15.0781
651,-384,30.4404,14.4655,0.000899319,0.000346636,-0.000388419,0.00109967,0.000146287,-0.476213,0.000689542,0.0160957,1875,1408,30.4404,-14.4655
658,-384,30.4307,13.9164,0.00116631,2.54619e-05,3.42417e-05,0.00116734,2.44351e-05,0.0299782,0.000770212,0.0160566,1882,1408,30.4307,-13.9164
665,-384,30.4382,13.3778,0.00157027,-0.000282273,0.000451062,0.00167426,-0.000386261,0.226582,0.00126474,0.0174279,1889,1408,30.4382,-13.3778
672,-384,30.421,12.8188,0.00214304,-0.000597748,0.00087624,0.00239923,-0.000853938,0.284446,0.00194757,0.016016,1896,1408,30.421,-12.8188
679,-384,30.3835,12.2802,0.00286977,-0.000892697,0.00129725,0.00327368,-0.00129661,0.301848,0.00271971,0.0156321,1903,1408,30.3836,-12.2801
686,-384,30.3563,11.7755,0.00370025,-0.00130438,0.00182237,0.00429352,-0.00189765,0.314725,0.0036626,0.0124023,1910,1408,30.3563,-11.7755
693,-384,30.4198,11.2537,0.00480637,-0.00167544,0.00226242,0.00551794,-0.00238701,0.304719,0.00468173,0.0256962,1917,1408,30.4198,-11.2537
700,-384,30.5231,10.7463,0,0,0,0,0,0,0,-1,1924,1408,30.5231,-10.7463
707,-384,17.0566,6.62842,0,0,0,0,0,0,0,-1,1931,1408,17.0567,-6.62848
714,-384,16.038,5.0282,0,0,0,0,0,0,0,-1,1938,1408,16.038,-5.02819
721,-384,13.8843,2.8717,0,0,0,0,0,0,0,-1,1945,1408,13.8843,-2.87171
728,-384,15.4409,6.25745,0,0,0,0,0,0,0,-1,1952,1408,15.4409,-6.2574
735,-384,16.7598,6.71289,0,0,0,0,0,0,0,-1,1959,1408,16.7598,-6.71287
742,-384,0,0,0,0,0,0,0,0,0,-1,1966,1408,0,0
749,-384,0,0,0,0,0,0,0,0,0,-1,1973,1408,0,0
756,-384,0,0,0,0,0,0,0,0,0,-1,1980,1408,0,0
763,-384,0,0,0,0,0,0,0,0,0,-1,1987,1408,0,0
770,-384,0,0,0,0,0,0,0,0,0,-1,1994,1408,0,0
777,-384,0,0,0,0,0,0,0,0,0,-1,2001,1408,0,0
784,-384,0,0,0,0,0,0,0,0,0,-1,2008,1408,0,0
791,-384,0,0,0,0,0,0,0,0,0,-1,2015,1408,0,0
798,-384,0,0,0,0,0,0,0,0,0,-1,2022,1408,0,0
805,-384,0,0,0,0,0,0,0,0,0,-1,2029,1408,0,0
812,-384,0,0,0,0,0,0,0,0,0,-1,2036,1408,0,0
-700,-391,0,0,0,0,0,0,0,0,0,-1,524,1415,0,0
-693,-391,0,0,0,0,0,0,0,0,0,-1,531,1415,0,0
-686,-391,0,0,0,0,0,0,0,0,0,-1,538,1415,0,0
-679,-391,0,0,0,0,0,0,0,0,0,-1,545,1415,0,0
-672,-391,0,0,0,0,0,0,0,0,0,-1,552,1415,0,0
-665,-391,0,0,0,0,0,0,0,0,0,-1,559,1415,0,0
-658,-391,0,0,0,0,0,0,0,0,0,-1,566,1415,0,0
-651,-391,0,0,0,0,0,0,0,0,0,-1,573,1415,0,0
-644,-391,0,0,0,0,0,0,0,0,0,-1,580,1415,0,0
-637,-391,0,0,0,0,0,0,0,0,0,-1,587,1415,0,0
-630,-391,0,0,0,0,0,0,0,0,0,-1,594,1415,0,0
-623,-391,0,0,0,0,0,0,0,0,0,-1,601,1415,0,0
-616,-391,0,0,0,0,0,0,0,0,0,-1,608,1415,0,0
-609,-391,-7.71753,-3.69763,0,0,0,0,0,0,0,-1,615,1415,-7.71751,3.69759
-602,-391,-13.9493,-4.12805,0,0,0,0,0,0,0,-1,622,1415,-13.9493,4.12803
-595,-391,-10.8315,1.76172,0,0,0,0,0,0,0,-1,629,1415,-10.8315,-1.76171
-588,-391,-10.265,2.16431,0,0,0,0,0,0,0,-1,636,1415,-10.265,-2.16431
-581,-391,-11.3325,2.44836,0,0,0,0,0,0,0,-1,643,1415,-11.3325,-2.44842
-574,-391,-11.1471,6.19983,0,0,0,0,0,0,0,-1,650,1415,-11.1471,-6.19981
-567,-391,-11.5172,6.82458,0,0,0,0,0,0,0,-1,657,1415,-11.5171,-6.82454
-560,-391,-11.2459,7.37195,0,0,0,0,0,0,0,-1,664,1415,-11.2459,-7.37191
-553,-391,-14.226,9.57581,0,0,0,0,0,0,0,-1,671,1415,-14.226,-9.57579
-546,-391,-14.1858,10.3538,0.00388608,0.00198534,0.00193979,0.0050958,0.000775619,0.557617,0.00317045,0.015846,678,1415,-14.1858,-10.3537
-539,-391,-14.1364,10.9843,0.00320236,0.00149891,0.00153737,0.00410817,0.000593094,0.532438,0.00256405,0.0142928,685,1415,-14.1364,-10.9843
-532,-391,-14.1335,11.5682,0.00272582,0.00112384,0.00126661,0.00342346,0.000426201,0.503451,0.00215434,0.0241388,692,1415,-14.1336,-11.5683
-525,-391,-14.1679,12.1738,0.00262582,0.00102273,0.00128844,0.00334169,0.00030686,0.507141,0.00213288,0.0238003,699,1415,-14.1679,-12.1738
-518,-391,-14.2552,12.7482,0.00285599,0.00128291,0.00162245,0.0038725,0.000266402,0.559696,0.00249761,0.0155435,706,1415,-14.2552,-12.7482
-511,-391,-14.264,13.351,0.0034116,0.00180208,0.00219529,0.00494498,0.00026869,0.609711,0.00321084,0.0137613,713,1415,-14.264,-13.351
-504,-391,-14.2603,13.9631,0.00442789,0.00272537,0.00317179,0.00686067,0.000292593,0.654296,0.00447943,0.0125589,720,1415,-14.2602,-13.9631
-497,-391,-14.2662,14.5571,0.00591509,0.00415736,0.00461711,0.00973624,0.000336216,0.691348,0.00638171,0.0135701,727,1415,-14.2662,-14.5572
-490,-391,-14.2502,15.181,0,0,0,0,0,0,0,-1,734,1415,-14.2503,-15.1811
-483,-391,-11.1018,12.9382,0,0,0,0,0,0,0,-1,741,1415,-11.1018,-12.9382
-476,-391,-6.05731,6.85303,0,0,0,0,0,0,0,-1,748,1415,-6.05728,-6.85304
-469,-391,-3.88953,5.0979,0,0,0,0,0,0,0,-1,755,1415,-3.88955,-5.09794
-462,-391,-8.67688,2.03125,0,0,0,0,0,0,0,-1,762,1415,-8.67685,-2.03121
-455,-391,-8.65576,6.46997,0,0,0,0,0,0,0,-1,769,1415,-8.65579,-6.46999
-448,-391,-8.39618,4.38403,0,0,0,0,0,0,0,-1,776,1415,-8.39617,-4.38405
-441,-391,-9.77704,2.5946,0,0,0,0,0,0,0,-1,783,1415,-9.77702,-2.5946
-434,-391,-11.5403,2.12878,0,0,0,0,0,0,0,-1,790,1415,-11.5403,-2.12881
-427,-391,-10.5311,2.50403,0,0,0,0,0,0,0,-1,797,1415,-10.5311,-2.504
-420,-391,-14.7087,1.24365,0,0,0,0,0,0,0,-1,804,1415,-14.7088,-1.24365
-413,-391,0,0,0,0,0,0,0,0,0,-1,811,1415,0,0
-406,-391,0,0,0,0,0,0,0,0,0,-1,818,1415,0,0
-399,-391,0,0,0,0,0,0,0,0,0,-1,825,1415,0,0
-392,-391,0,0,0,0,0,0,0,0,0,-1,832,1415,0,0
-385,-391,0,0,0,0,0,0,0,0,0,-1,839,1415,0,0
-378,-391,0,0,0,0,0,0,0,0,0,-1,846,1415,0,0
-371,-391,0,0,0,0,0,0,0,0,0,-1,853,1415,0,0
-364,-391,0,0,0,0,0,0,0,0,0,-1,860,1415,0,0
-357,-391,0,0,0,0,0,0,0,0,0,-1,867,1415,0,0
-350,-391,0,0,0,0,0,0,0,0,0,-1,874,1415,0,0
-343,-391,0,0,0,0,0,0,0,0,0,-1,881,1415,0,0
-336,-391,0,0,0,0,0,0,0,0,0,-1,888,1415,0,0
-329,-391,0,0,0,0,0,0,0,0,0,-1,895,1415,0,0
-322,-391,0,0,0,0,0,0,0,0,0,-1,902,1415,0,0
-315,-391,0,0,0,0,0,0,0,0,0,-1,909,1415,0,0
-308,-391,0,0,0,0,0,0,0,0,0,-1,916,1415,0,0
-301,-391,0,0,0,0,0,0,0,0,0,-1,923,1415,0,0
-294,-391,0,0,0,0,0,0,0,0,0,-1,930,1415,0,0
-287,-391,0,0,0,0,0,0,0,0,0,-1,937,1415,0,0
-280,-391,0,0,0,0,0,0,0,0,0,-1,944,1415,0,0
-273,-391,0,0,0,0,0,0,0,0,0,-1,951,1415,0,0
-266,-391,0,0,0,0,0,0,0,0,0,-1,958,1415,0,0
-259,-391,0,0,0,0,0,0,0,0,0,-1,965,1415,0,0
-252,-391,0,0,0,0,0,0,0,0,0,-1,972,1415,0,0
-245,-391,0,0,0,0,0,0,0,0,0,-1,979,1415,0,0
-238,-391,0,0,0,0,0,0,0,0,0,-1,986,1415,0,0
-231,-391,0,0,0,0,0,0,0,0,0,-1,993,1415,0,0
-224,-391,0,0,0,0,0,0,0,0,0,-1,1000,1415,0,0
-217,-391,0,0,0,0,0,0,0,0,0,-1,1007,1415,0,0
-210,-391,0,0,0,0,0,0,0,0,0,-1,1014,1415,0,0
-203,-391,0,0,0,0,0,0,0,0,0,-1,1021,1415,0,0
-196,-391,0,0,0,0,0,0,0,0,0,-1,1028,1415,0,0
-189,-391,0,0,0,0,0,0,0,0,0,-1,1035,1415,0,0
-182,-391,0,0,0,0,0,0,0,0,0,-1,1042,1415,0,0
-175,-391,0,0,0,0,0,0,0,0,0,-1,1049,1415,0,0
-168,-391,0,0,0,0,0,0,0,0,0,-1,1056,1415,0,0
-161,-391,0,0,0,0,0,0,0,0,0,-1,1063,1415,0,0
-154,-391,0,0,0,0,0,0,0,0,0,-1,1070,1415,0,0
-147,-391,0,0,0,0,0,0,0,0,0,-1,1077,1415,0,0
-140,-391,0,0,0,0,0,0,0,0,0,-1,1084,1415,0,0
-133,-391,0,0,0,0,0,0,0,0,0,-1,1091,1415,0,0
-126,-391,0,0,0,0,0,0,0,0,0,-1,1098,1415,0,0
-119,-391,0,0,0,0,0,0,0,0,0,-1,1105,1415,0,0
-112,-391,0,0,0,0,0,0,0,0,0,-1,1112,1415,0,0
-105,-391,0,0,0,0,0,0,0,0,0,-1,1119,1415,0,0
-98,-391,0,0,0,0,0,0,0,0,0,-1,1126,1415,0,0
-91,-391,0,0,0,0,0,0,0,0,0,-1,1133,1415,0,0
-84,-391,0,0,0,0,0,0,0,0,0,-1,1140,1415,0,0
-77,-391,0,0,0,0,0,0,0,0,0,-1,1147,1415,0,0
-70,-391,0,0,0,0,0,0,0,0,0,-1,1154,1415,0,0
-63,-391,0,0,0,0,0,0,0,0,0,-1,1161,1415,0,0
-56,-391,0,0,0,0,0,0,0,0,0,-1,1168,1415,0,0
-49,-391,0,0,0,0,0,0,0,0,0,-1,1175,1415,0,0
-42,-391,0,0,0,0,0,0,0,0,0,-1,1182,1415,0,0
-35,-391,0,0,0,0,0,0,0,0,0,-1,1189,1415,0,0
-28,-391,0,0,0,0,0,0,0,0,0,-1,1196,1415,0,0
-21,-391,0,0,0,0,0,0,0,0,0,-1,1203,1415,0,0
-14,-391,0,0,0,0,0,0,0,0,0,-1,1210,1415,0,0
-7,-391,0,0,0,0,0,0,0,0,0,-1,1217,1415,0,0
0,-391,0,0,0,0,0,0,0,0,0,-1,1224,1415,0,0
7,-391,0,0,0,0,0,0,0,0,0,-1,1231,1415,0,0
14,-391,0,0,0,0,0,0,0,0,0,-1,1238,1415,0,0
21,-391,0,0,0,0,0,0,0,0,0,-1,1245,1415,0,0
28,-391,0,0,0,0,0,0,0,0,0,-1,1252,1415,0,0
35,-391,0,0,0,0,0,0,0,0,0,-1,1259,1415,0,0
42,-391,0,0,0,0,0,0,0,0,0,-1,1266,1415,0,0
49,-391,0,0,0,0,0,0,0,0,0,-1,1273,1415,0,0
56,-391,0,0,0,0,0,0,0,0,0,-1,1280,1415,0,0
63,-391,0,0,0,0,0,0,0,0,0,-1,1287,1415,0,0
70,-391,0,0,0,0,0,0,0,0,0,-1,1294,1415,0,0
77,-391,0,0,0,0,0,0,0,0,0,-1,1301,1415,0,0
84,-391,0,0,0,0,0,0,0,0,0,-1,1308,1415,0,0
91,-391,0,0,0,0,0,0,0,0,0,-1,1315,1415,0,0
98,-391,0,0,0,0,0,0,0,0,0,-1,1322,1415,0,0
105,-391,0,0,0,0,0,0,0,0,0,-1,1329,1415,0,0
112,-391,0,0,0,0,0,0,0,0,0,-1,1336,1415,0,0
119,-391,0,0,0,0,0,0,0,0,0,-1,1343,1415,0,0
126,-391,0,0,0,0,0,0,0,0,0,-1,1350,1415,0,0
133,-391,0,0,0,0,0,0,0,0,0,-1,1357,1415,0,0
140,-391,0,0,0,0,0,0,0,0,0,-1,1364,1415,0,0
147,-391,0,0,0,0,0,0,0,0,0,-1,1371,1415,0,0
154,-391,0,0,0,0,0,0,0,0,0,-1,1378,1415,0,0
161,-391,0,0,0,0,0,0,0,0,0,-1,1385,1415,0,0
168,-391,0,0,0,0,0,0,0,0,0,-1,1392,1415,0,0
175,-391,0,0,0,0,0,0,0,0,0,-1,1399,1415,0,0
182,-391,0,0,0,0,0,0,0,0,0,-1,1406,1415,0,0
189,-391,0,0,0,0,0,0,0,0,0,-1,1413,1415,0,0
196,-391,0,0,0,0,0,0,0,0,0,-1,1420,1415,0,0
203,-391,0,0,0,0,0,0,0,0,0,-1,1427,1415,0,0
210,-391,0,0,0,0,0,0,0,0,0,-1,1434,1415,0,0
217,-391,0,0,0,0,0,0,0,0,0,-1,1441,1415,0,0
224,-391,0,0,0,0,0,0,0,0,0,-1,1448,1415,0,0
231,-391,0,0,0,0,0,0,0,0,0,-1,1455,1415,0,0
238,-391,0,0,0,0,0,0,0,0,0,-1,1462,1415,0,0
245,-391,0,0,0,0,0,0,0,0,0,-1,1469,1415,0,0
252,-391,0,0,0,0,0,0,0,0,0,-1,1476,1415,0,0
259,-391,0,0,0,0,0,0,0,0,0,-1,1483,1415,0,0
266,-391,0,0,0,0,0,0,0,0,0,-1,1490,1415,0,0
273,-391,0,0,0,0,0,0,0,0,0,-1,1497,1415,0,0
280,-391,0,0,0,0,0,0,0,0,0,-1,1504,1415,0,0
287,-391,0,0,0,0,0,0,0,0,0,-1,1511,1415,0,0
294,-391,0,0,0,0,0,0,0,0,0,-1,1518,1415,0,0
301,-391,0,0,0,0,0,0,0,0,0,-1,1525,1415,0,0
308,-391,0,0,0,0,0,0,0,0,0,-1,1532,1415,0,0
315,-391,0,0,0,0,0,0,0,0,0,-1,1539,1415,0,0
322,-391,0,0,0,0,0,0,0,0,0,-1,1546,1415,0,0
329,-391,0,0,0,0,0,0,0,0,0,-1,1553,1415,0,0
336,-391,0,0,0,0,0,0,0,0,0,-1,1560,1415,0,0
343,-391,0,0,0,0,0,0,0,0,0,-1,1567,1415,0,0
350,-391,0,0,0,0,0,0,0,0,0,-1,1574,1415,0,0
357,-391,0,0,0,0,0,0,0,0,0,-1,1581,1415,0,0
364,-391,0,0,0,0,0,0,0,0,0,-1,1588,1415,0,0
371,-391,0,0,0,0,0,0,0,0,0,-1,1595,1415,0,0
378,-391,0,0,0,0,0,0,0,0,0,-1,1602,1415,0,0
385,-391,0,0,0,0,0,0,0,0,0,-1,1609,1415,0,0
392,-391,0,0,0,0,0,0,0,0,0,-1,1616,1415,0,0
399,-391,0,0,0,0,0,0,0,0,0,-1,1623,1415,0,0
406,-391,0,0,0,0,0,0,0,0,0,-1,1630,1415,0,0
413,-391,0,0,0,0,0,0,0,0,0,-1,1637,1415,0,0
420,-391,0,0,0,0,0,0,0,0,0,-1,1644,1415,0,0
427,-391,0,0,0,0,0,0,0,0,0,-1,1651,1415,0,0
434,-391,0,0,0,0,0,0,0,0,0,-1,1658,1415,0,0
441,-391,0,0,0,0,0,0,0,0,0,-1,1665,1415,0,0
448,-391,0,0,0,0,0,0,0,0,0,-1,1672,1415,0,0
455,-391,0,0,0,0,0,0,0,0,0,-1,1679,1415,0,0
462,-391,0,0,0,0,0,0,0,0,0,-1,1686,1415,0,0
469,-391,0,0,0,0,0,0,0,0,0,-1,1693,1415,0,0
476,-391,0,0,0,0,0,0,0,0,0,-1,1700,1415,0,0
483,-391,0,0,0,0,0,0,0,0,0,-1,1707,1415,0,0
490,-391,0,0,0,0,0,0,0,0,0,-1,1714,1415,0,0
497,-391,0,0,0,0,0,0,0,0,0,-1,1721,1415,0,0
504,-391,0,0,0,0,0,0,0,0,0,-1,1728,1415,0,0
511,-391,0,0,0,0,0,0,0,0,0,-1,1735,1415,0,0
518,-391,0,0,0,0,0,0,0,0,0,-1,1742,1415,0,0
525,-391,0,0,0,0,0,0,0,0,0,-1,1749,1415,0,0
532,-391,28.5959,3.02356,0,0,0,0,0,0,0,-1,1756,1415,28.596,-3.02358
539,-391,27.5881,3.25012,0,0,0,0,0,0,0,-1,1763,1415,27.5882,-3.25016
546,-391,27.2837,3.28064,0,0,0,0,0,0,0,-1,1770,1415,27.2837,-3.28064
553,-391,32.5952,5.04553,0,0,0,0,0,0,0,-1,1777,1415,32.5952,-5.04551
560,-391,31.2947,5.67017,0,0,0,0,0,0,0,-1,1784,1415,31.2947,-5.67011
567,-391,30.1473,6.17603,0,0,0,0,0,0,0,-1,1791,1415,30.1473,-6.17602
574,-391,27.5656,5.6842,0,0,0,0,0,0,0,-1,1798,1415,27.5655,-5.68422
581,-391,25.8883,5.76123,0,0,0,0,0,0,0,-1,1805,1415,25.8883,-5.76124
588,-391,24.2717,5.47986,0,0,0,0,0,0,0,-1,1812,1415,24.2717,-5.47982
595,-391,22.8827,6.1991,0,0,0,0,0,0,0,-1,1819,1415,22.8827,-6.19909
602,-391,15.1635,5.69849,0,0,0,0,0,0,0,-1,1826,1415,15.1635,-5.69847
609,-391,14.8285,7.50476,0,0,0,0,0,0,0,-1,1833,1415,14.8285,-7.50479
616,-391,20.7952,12.0503,0,0,0,0,0,0,0,-1,1840,1415,20.7952,-12.0503
623,-391,29.9446,16.6461,0,0,0,0,0,0,0,-1,1847,1415,29.9446,-16.6462
630,-391,30.0856,16.0817,0.00142026,0.00151962,-0.00159394,0.00306466,-0.000124772,-0.800977,0.00208594,0.0437213,1854,1415,30.0856,-16.0817
637,-391,29.9531,15.6385,0.00114236,0.00101052,-0.00111273,0.00219112,-3.82374e-05,-0.755812,0.00147366,0.0167253,1861,1415,29.9531,-15.6385
644,-391,29.9197,15.0819,0.00099812,0.000639234,-0.000706521,0.00154763,8.97248e-05,-0.661037,0.00100318,0.0172186,1868,1415,29.9197,-15.0819
651,-391,29.9119,14.5187,0.00108207,0.000289981,-0.000265331,0.00116274,0.000209316,-0.295136,0.000715662,0.0175419,1875,1415,29.9119,-14.5187
658,-391,29.8875,13.9734,0.00130778,-5.88969e-06,0.000148157,0.00132428,-2.23917e-05,0.110925,0.000890411,0.0174181,1882,1415,29.8875,-13.9733
665,-391,29.8822,13.4232,0.00166732,-0.000312319,0.00058864,0.00182912,-0.000474125,0.268255,0.00140439,0.0138032,1889,1415,29.8821,-13.4232
672,-391,29.8713,12.8683,0.00217762,-0.000635526,0.00107238,0.00253978,-0.000997692,0.325696,0.00210605,0.0120435,1896,1415,29.8713,-12.8682
679,-391,29.8391,12.3289,0.0027981,-0.000997649,0.00162184,0.00339668,-0.00159623,0.353566,0.00294447,0.0121348,1903,1415,29.8391,-12.3288
686,-391,29.8273,11.804,0.00345525,-0.00158321,0.00239779,0.00441394,-0.0025419,0.380353,0.00406415,0.0132244,1910,1415,29.8273,-11.804
693,-391,29.8195,11.4526,0.00434782,-0.0021837,0.00316726,0.00563142,-0.0034673,0.385044,0.00530245,0.0353127,1917,1415,29.8195,-11.4526
700,-391,29.9017,11.1077,0,0,0,0,0,0,0,-1,1924,1415,29.9017,-11.1076
707,-391,12.9524,5.96851,0,0,0,0,0,0,0,-1,1931,1415,12.9524,-5.96849
714,-391,15.6875,7.67896,0,0,0,0,0,0,0,-1,1938,1415,15.6875,-7.67893
721,-391,14.1808,8.08435,0,0,0,0,0,0,0,-1,1945,1415,14.1808,-8.08439
728,-391,13.8102,7.28174,0,0,0,0,0,0,0,-1,1952,1415,13.8102,-7.28174
735,-391,0,0,0,0,0,0,0,0,0,-1,1959,1415,0,0
742,-391,0,0,0,0,0,0,0,0,0,-1,1966,1415,0,0
749,-391,0,0,0,0,0,0,0,0,0,-1,1973,1415,0,0
756,-391,0,0,0,0,0,0,0,0,0,-1,1980,1415,0,0
763,-391,0,0,0,0,0,0,0,0,0,-1,1987,1415,0,0
770,-391,0,0,0,0,0,0,0,0,0,-1,1994,1415,0,0
777,-391,0,0,0,0,0,0,0,0,0,-1,2001,1415,0,0
784,-391,0,0,0,0,0,0,0,0,0,-1,2008,1415,0,0
791,-391,0,0,0,0,0,0,0,0,0,-1,2015,1415,0,0
798,-391,0,0,0,0,0,0,0,0,0,-1,2022,1415,0,0
805,-391,0,0,0,0,0,0,0,0,0,-1,2029,1415,0,0
812,-391,0,0,0,0,0,0,0,0,0,-1,2036,1415,0,0
-700,-398,0,0,0,0,0,0,0,0,0,-1,524,1422,0,0
-693,-398,0,0,0,0,0,0,0,0,0,-1,531,1422,0,0
-686,-398,0,0,0,0,0,0,0,0,0,-1,538,1422,0,0
-679,-398,0,0,0,0,0,0,0,0,0,-1,545,1422,0,0
-672,-398,0,0,0,0,0,0,0,0,0,-1,552,1422,0,0
-665,-398,0,0,0,0,0,0,0,0,0,-1,559,1422,0,0
-658,-398,0,0,0,0,0,0,0,0,0,-1,566,1422,0,0
-651,-398,0,0,0,0,0,0,0,0,0,-1,573,1422,0,0
-644,-398,0,0,0,0,0,0,0,0,0,-1,580,1422,0,0
-637,-398,0,0,0,0,0,0,0,0,0,-1,587,1422,0,0
-630,-398,0,0,0,0,0,0,0,0,0,-1,594,1422,0,0
-623,-398,0,0,0,0,0,0,0,0,0,-1,601,1422,0,0
-616,-398,0,0,0,0,0,0,0,0,0,-1,608,1422,0,0
-609,-398,-7.47125,-4.05322,0,0,0,0,0,0,0,-1,615,1422,-7.47128,4.05317
-602,-398,-4.58868,-2.77026,0,0,0,0,0,0,0,-1,622,1422,-4.58869,2.77023
-595,-398,-12.2224,-1.82007,0,0,0,0,0,0,0,-1,629,1422,-12.2224,1.82006
-588,-398,-10.6939,1.32336,0,0,0,0,0,0,0,-1,636,1422,-10.6939,-1.32337
-581,-398,-10.433,3.1123,0,0,0,0,0,0,0,-1,643,1422,-10.433,-3.11233
-574,-398,-10.4475,5.89807,0,0,0,0,0,0,0,-1,650,1422,-10.4475,-5.89802
-567,-398,-10.4904,6.80115,0,0,0,0,0,0,0,-1,657,1422,-10.4904,-6.80115
-560,-398,-10.5333,7.70435,0,0,0,0,0,0,0,-1,664,1422,-10.5333,-7.70429
-553,-398,-13.6766,9.64502,0,0,0,0,0,0,0,-1,671,1422,-13.6766,-9.64503
-546,-398,-13.6237,10.3484,0.00429991,0.00269146,0.00241812,0.00604403,0.000947333,0.624861,0.00375364,0.0278947,678,1422,-13.6236,-10.3484
-539,-398,-13.5393,11.0131,0.00343129,0.00203874,0.0018781,0.00473803,0.000732002,0.607887,0.00294517,0.0127817,685,1422,-13.5393,-11.0131
-532,-398,-13.5464,11.6285,0.00273946,0.0014906,0.00143892,0.00368359,0.000546461,0.580682,0.00229536,0.0204516,692,1422,-13.5464,-11.6286
-525,-398,-13.6151,12.2085,0.00245548,0.00122586,0.00129701,0.00327602,0.000405327,0.564072,0.00206222,0.0196412,699,1422,-13.615,-12.2085
-518,-398,-13.6418,12.7917,0.00256358,0.00137303,0.00151189,0.00359316,0.000343451,0.597853,0.00228956,0.0180027,706,1422,-13.6419,-12.7918
-511,-398,-13.666,13.3558,0.00300202,0.00181429,0.00198219,0.0044774,0.000338909,0.639853,0.00287862,0.014395,713,1422,-13.666,-13.3559
-504,-398,-13.6685,13.9705,0.00388485,0.00264967,0.00284846,0.00618191,0.000352615,0.678643,0.00400891,0.0148707,720,1422,-13.6685,-13.9705
-497,-398,-13.6807,14.5543,0.00519367,0.0039637,0.00412992,0.00875414,0.000403232,0.711487,0.00570643,0.0103856,727,1422,-13.6806,-14.5543
-490,-398,-13.7138,15.1643,0.00722528,0.00598093,0.00601056,0.0126458,0.000560431,0.733825,0.00825006,0.0187796,734,1422,-13.7138,-15.1643
-483,-398,-13.5432,15.9929,0,0,0,0,0,0,0,-1,741,1422,-13.5432,-15.9929
-476,-398,-8.64392,11.9448,0,0,0,0,0,0,0,-1,748,1422,-8.6439,-11.9448
-469,-398,-8.91699,10.6276,0,0,0,0,0,0,0,-1,755,1422,-8.91697,-10.6275
-462,-398,-9.59753,9.32532,0,0,0,0,0,0,0,-1,762,1422,-9.59753,-9.32531
-455,-398,-8.08331,6.75024,0,0,0,0,0,0,0,-1,769,1422,-8.08333,-6.75022
-448,-398,-7.4505,5.25293,0,0,0,0,0,0,0,-1,776,1422,-7.4505,-5.25291
-441,-398,-7.61639,3.32141,0,0,0,0,0,0,0,-1,783,1422,-7.61637,-3.32145
-434,-398,-10.7618,3.297,0,0,0,0,0,0,0,-1,790,1422,-10.7618,-3.29704
-427,-398,-11.9061,2.24939,0,0,0,0,0,0,0,-1,797,1422,-11.9061,-2.24941
-420,-398,-13.467,2.32788,0,0,0,0,0,0,0,-1,804,1422,-13.467,-2.32787
-413,-398,-14.7983,2.15515,0,0,0,0,0,0,0,-1,811,1422,-14.7983,-2.15516
-406,-398,0,0,0,0,0,0,0,0,0,-1,818,1422,0,0
-399,-398,0,0,0,0,0,0,0,0,0,-1,825,1422,0,0
-392,-398,0,0,0,0,0,0,0,0,0,-1,832,1422,0,0
-385,-398,0,0,0,0,0,0,0,0,0,-1,839,1422,0,0
-378,-398,0,0,0,0,0,0,0,0,0,-1,846,1422,0,0
-371,-398,0,0,0,0,0,0,0,0,0,-1,853,1422,0,0
-364,-398,0,0,0,0,0,0,0,0,0,-1,860,1422,0,0
-357,-398,0,0,0,0,0,0,0,0,0,-1,867,1422,0,0
-350,-398,0,0,0,0,0,0,0,0,0,-1,874,1422,0,0
-343,-398,0,0,0,0,0,0,0,0,0,-1,881,1422,0,0
-336,-398,0,0,0,0,0,0,0,0,0,-1,888,1422,0,0
-329,-398,0,0,0,0,0,0,0,0,0,-1,895,1422,0,0
-322,-398,0,0,0,0,0,0,0,0,0,-1,902,1422,0,0
-315,-398,0,0,0,0,0,0,0,0,0,-1,909,1422,0,0
-308,-398,0,0,0,0,0,0,0,0,0,-1,916,1422,0,0
-301,-398,0,0,0,0,0,0,0,0,0,-1,923,1422,0,0
-294,-398,0,0,0,0,0,0,0,0,0,-1,930,1422,0,0
-287,-398,0,0,0,0,0,0,0,0,0,-1,937,1422,0,0
-280,-398,0,0,0,0,0,0,0,0,0,-1,944,1422,0,0
-273,-398,0,0,0,0,0,0,0,0,0,-1,951,1422,0,0
-266,-398,0,0,0,0,0,0,0,0,0,-1,958,1422,0,0
-259,-398,0,0,0,0,0,0,0,0,0,-1,965,1422,0,0
-252,-398,0,0,0,0,0,0,0,0,0,-1,972,1422,0,0
-245,-398,0,0,0,0,0,0,0,0,0,-1,979,1422,0,0
-238,-398,0,0,0,0,0,0,0,0,0,-1,986,1422,0,0
-231,-398,0,0,0,0,0,0,0,0,0,-1,993,1422,0,0
-224,-398,0,0,0,0,0,0,0,0,0,-1,1000,1422,0,0
-217,-398,0,0,0,0,0,0,0,0,0,-1,1007,1422,0,0
-210,-398,0,0,0,0,0,0,0,0,0,-1,1014,1422,0,0
-203,-398,0,0,0,0,0,0,0,0,0,-1,1021,1422,0,0
-196,-398,0,0,0,0,0,0,0,0,0,-1,1028,1422,0,0
-189,-398,0,0,0,0,0,0,0,0,0,-1,1035,1422,0,0
-182,-398,0,0,0,0,0,0,0,0,0,-1,1042,1422,0,0
-175,-398,0,0,0,0,0,0,0,0,0,-1,1049,1422,0,0
-168,-398,0,0,0,0,0,0,0,0,0,-1,1056,1422,0,0
-161,-398,0,0,0,0,0,0,0,0,0,-1,1063,1422,0,0
-154,-398,0,0,0,0,0,0,0,0,0,-1,1070,1422,0,0
-147,-398,0,0,0,0,0,0,0,0,0,-1,1077,1422,0,0
-140,-398,0,0,0,0,0,0,0,0,0,-1,1084,1422,0,0
-133,-398,0,0,0,0,0,0,0,0,0,-1,1091,1422,0,0
-126,-398,0,0,0,0,0,0,0,0,0,-1,1098,1422,0,0
-119,-398,0,0,0,0,0,0,0,0,0,-1,1105,1422,0,0
-112,-398,0,0,0,0,0,0,0,0,0,-1,1112,1422,0,0
-105,-398,0,0,0,0,0,0,0,0,0,-1,1119,1422,0,0
-98,-398,0,0,0,0,0,0,0,0,0,-1,1126,1422,0,0
-91,-398,0,0,0,0,0,0,0,0,0,-1,1133,1422,0,0
-84,-398,0,0,0,0,0,0,0,0,0,-1,1140,1422,0,0
-77,-398,0,0,0,0,0,0,0,0,0,-1,1147,1422,0,0
-70,-398,0,0,0,0,0,0,0,0,0,-1,1154,1422,0,0
-63,-398,0,0,0,0,0,0,0,0,0,-1,1161,1422,0,0
-56,-398,0,0,0,0,0,0,0,0,0,-1,1168,1422,0,0
-49,-398,0,0,0,0,0,0,0,0,0,-1,1175,1422,0,0
-42,-398,0,0,0,0,0,0,0,0,0,-1,1182,1422,0,0
-35,-398,0,0,0,0,0,0,0,0,0,-1,1189,1422,0,0
-28,-398,0,0,0,0,0,0,0,0,0,-1,1196,1422,0,0
-21,-398,0,0,0,0,0,0,0,0,0,-1,1203,1422,0,0
-14,-398,0,0,0,0,0,0,0,0,0,-1,1210,1422,0,0
-7,-398,0,0,0,0,0,0,0,0,0,-1,1217,1422,0,0
0,-398,0,0,0,0,0,0,0,0,0,-1,1224,1422,0,0
7,-398,0,0,0,0,0,0,0,0,0,-1,1231,1422,0,0
14,-398,0,0,0,0,0,0,0,0,0,-1,1238,1422,0,0
21,-398,0,0,0,0,0,0,0,0,0,-1,1245,1422,0,0
28,-398,0,0,0,0,0,0,0,0,0,-1,1252,1422,0,0
35,-398,0,0,0,0,0,0,0,0,0,-1,1259,1422,0,0
42,-398,0,0,0,0,0,0,0,0,0,-1,1266,1422,0,0
49,-398,0,0,0,0,0,0,0,0,0,-1,1273,1422,0,0
56,-398,0,0,0,0,0,0,0,0,0,-1,1280,1422,0,0
63,-398,0,0,0,0,0,0,0,0,0,-1,1287,1422,0,0
70,-398,0,0,0,0,0,0,0,0,0,-1,1294,1422,0,0
77,-398,0,0,0,0,0,0,0,0,0,-1,1301,1422,0,0
84,-398,0,0,0,0,0,0,0,0,0,-1,1308,1422,0,0
91,-398,0,0,0,0,0,0,0,0,0,-1,1315,1422,0,0
98,-398,0,0,0,0,0,0,0,0,0,-1,1322,1422,0,0
105,-398,0,0,0,0,0,0,0,0,0,-1,1329,1422,0,0
112,-398,0,0,0,0,0,0,0,0,0,-1,1336,1422,0,0
119,-398,0,0,0,0,0,0,0,0,0,-1,1343,1422,0,0
126,-398,0,0,0,0,0,0,0,0,0,-1,1350,1422,0,0
133,-398,0,0,0,0,0,0,0,0,0,-1,1357,1422,0,0
140,-398,0,0,0,0,0,0,0,0,0,-1,1364,1422,0,0
147,-398,0,0,0,0,0,0,0,0,0,-1,1371,1422,0,0
154,-398,0,0,0,0,0,0,0,0,0,-1,1378,1422,0,0
161,-398,0,0,0,0,0,0,0,0,0,-1,1385,1422,0,0
168,-398,0,0,0,0,0,0,0,0,0,-1,1392,1422,0,0
175,-398,0,0,0,0,0,0,0,0,0,-1,1399,1422,0,0
182,-398,0,0,0,0,0,0,0,0,0,-1,1406,1422,0,0
189,-398,0,0,0,0,0,0,0,0,0,-1,1413,1422,0,0
196,-398,0,0,0,0,0,0,0,0,0,-1,1420,1422,0,0
203,-398,0,0,0,0,0,0,0,0,0,-1,1427,1422,0,0
210,-398,0,0,0,0,0,0,0,0,0,-1,1434,1422,0,0
217,-398,0,0,0,0,0,0,0,0,0,-1,1441,1422,0,0
224,-398,0,0,0,0,0,0,0,0,0,-1,1448,1422,0,0
231,-398,0,0,0,0,0,0,0,0,0,-1,1455,1422,0,0
238,-398,0,0,0,0,0,0,0,0,0,-1,1462,1422,0,0
245,-398,0,0,0,0,0,0,0,0,0,-1,1469,1422,0,0
252,-398,0,0,0,0,0,0,0,0,0,-1,1476,1422,0,0
259,-398,0,0,0,0,0,0,0,0,0,-1,1483,1422,0,0
266,-398,0,0,0,0,0,0,0,0,0,-1,1490,1422,0,0
273,-398,0,0,0,0,0,0,0,0,0,-1,1497,1422,0,0
280,-398,0,0,0,0,0,0,0,0,0,-1,1504,1422,0,0
287,-398,0,0,0,0,0,0,0,0,0,-1,1511,1422,0,0
294,-398,0,0,0,0,0,0,0,0,0,-1,1518,1422,0,0
301,-398,0,0,0,0,0,0,0,0,0,-1,1525,1422,0,0
308,-398,0,0,0,0,0,0,0,0,0,-1,1532,1422,0,0
315,-398,0,0,0,0,0,0,0,0,0,-1,1539,1422,0,0
322,-398,0,0,0,0,0,0,0,0,0,-1,1546,1422,0,0
329,-398,0,0,0,0,0,0,0,0,0,-1,1553,1422,0,0
336,-398,0,0,0,0,0,0,0,0,0,-1,1560,1422,0,0
343,-398,0,0,0,0,0,0,0,0,0,-1,1567,1422,0,0
350,-398,0,0,0,0,0,0,0,0,0,-1,1574,1422,0,0
357,-398,0,0,0,0,0,0,0,0,0,-1,1581,1422,0,0
364,-398,0,0,0,0,0,0,0,0,0,-1,1588,1422,0,0
371,-398,0,0,0,0,0,0,0,0,0,-1,1595,1422,0,0
378,-398,0,0,0,0,0,0,0,0,0,-1,1602,1422,0,0
385,-398,0,0,0,0,0,0,0,0,0,-1,1609,1422,0,0
392,-398,0,0,0,0,0,0,0,0,0,-1,1616,1422,0,0
399,-398,0,0,0,0,0,0,0,0,0,-1,1623,1422,0,0
406,-398,0,0,0,0,0,0,0,0,0,-1,1630,1422,0,0
413,-398,0,0,0,0,0,0,0,0,0,-1,1637,1422,0,0
420,-398,0,0,0,0,0,0,0,0,0,-1,1644,1422,0,0
427,-398,0,0,0,0,0,0,0,0,0,-1,1651,1422,0,0
434,-398,0,0,0,0,0,0,0,0,0,-1,1658,1422,0,0
441,-398,0,0,0,0,0,0,0,0,0,-1,1665,1422,0,0
448,-398,0,0,0,0,0,0,0,0,0,-1,1672,1422,0,0
455,-398,0,0,0,0,0,0,0,0,0,-1,1679,1422,0,0
462,-398,0,0,0,0,0,0,0,0,0,-1,1686,1422,0,0
469,-398,0,0,0,0,0,0,0,0,0,-1,1693,1422,0,0
476,-398,0,0,0,0,0,0,0,0,0,-1,1700,1422,0,0
483,-398,0,0,0,0,0,0,0,0,0,-1,1707,1422,0,0
490,-398,0,0,0,0,0,0,0,0,0,-1,1714,1422,0,0
497,-398,0,0,0,0,0,0,0,0,0,-1,1721,1422,0,0
504,-398,0,0,0,0,0,0,0,0,0,-1,1728,1422,0,0
511,-398,0,0,0,0,0,0,0,0,0,-1,1735,1422,0,0
518,-398,0,0,0,0,0,0,0,0,0,-1,1742,1422,0,0
525,-398,0,0,0,0,0,0,0,0,0,-1,1749,1422,0,0
532,-398,28.4558,3.84094,0,0,0,0,0,0,0,-1,1756,1422,28.4558,-3.8409
539,-398,27.0594,3.33887,0,0,0,0,0,0,0,-1,1763,1422,27.0595,-3.3389
546,-398,31.6873,5.58582,0,0,0,0,0,0,0,-1,1770,1422,31.6872,-5.58585
553,-398,30.4392,5.92383,0,0,0,0,0,0,0,-1,1777,1422,30.4392,-5.92386
560,-398,29.1621,6.30469,0,0,0,0,0,0,0,-1,1784,1422,29.1621,-6.30469
567,-398,27.8411,6.55029,0,0,0,0,0,0,0,-1,1791,1422,27.8411,-6.55033
574,-398,26.411,6.8916,0,0,0,0,0,0,0,-1,1798,1422,26.411,-6.8916
581,-398,24.75,7.11145,0,0,0,0,0,0,0,-1,1805,1422,24.7499,-7.11142
588,-398,23.1649,7.67969,0,0,0,0,0,0,0,-1,1812,1422,23.1649,-7.67975
595,-398,21.4253,7.86023,0,0,0,0,0,0,0,-1,1819,1422,21.4253,-7.86029
602,-398,19.6857,8.04077,0,0,0,0,0,0,0,-1,1826,1422,19.6856,-8.04083
609,-398,21.1835,13.2628,0,0,0,0,0,0,0,-1,1833,1422,21.1835,-13.2628
616,-398,28.9855,17.8162,0,0,0,0,0,0,0,-1,1840,1422,28.9855,-17.8161
623,-398,29.4424,16.7367,0,0,0,0,0,0,0,-1,1847,1422,29.4424,-16.7368
630,-398,29.427,16.1932,0.00173083,0.00153676,-0.00163607,0.00327273,-5.14777e-06,-0.755777,0.00218354,0.0136415,1854,1422,29.427,-16.1932
637,-398,29.4092,15.663,0.00134679,0.000923324,-0.00106511,0.00222101,4.91024e-05,-0.687283,0.00146458,0.0143613,1861,1422,29.4091,-15.663
644,-398,29.3151,15.1033,0.00120647,0.000534436,-0.000629336,0.00158387,0.000157029,-0.540191,0.00100766,0.020591,1868,1422,29.3151,-15.1033
651,-398,29.3568,14.6237,0.00130803,0.000243105,-0.000229332,0.00135532,0.000195818,-0.203344,0.000845863,0.028918,1875,1422,29.3568,-14.6237
658,-398,29.3875,14.0747,0.00150819,-5.50855e-06,0.000169365,0.00152691,-2.42271e-05,0.110075,0.00102611,0.0239386,1882,1422,29.3875,-14.0747
665,-398,29.3357,13.4744,0.00183177,-0.000268428,0.000615684,0.00199896,-0.00043561,0.265146,0.00149909,0.0155864,1889,1422,29.3357,-13.4744
672,-398,29.3137,12.9264,0.0022731,-0.000545491,0.00114019,0.00267658,-0.000948971,0.340118,0.00217099,0.0129731,1896,1422,29.3137,-12.9264
679,-398,29.2943,12.3915,0.00275925,-0.000921781,0.00180877,0.00349927,-0.0016618,0.38835,0.00304204,0.0121275,1903,1422,29.2943,-12.3915
686,-398,29.2905,11.8577,0.00317852,-0.00163278,0.0028492,0.00450182,-0.00295608,0.434804,0.00433654,0.0185124,1910,1422,29.2905,-11.8577
693,-398,29.1617,11.55,0.00372962,-0.00240567,0.0039823,0.00568882,-0.00436487,0.457208,0.00582125,0.0461791,1917,1422,29.1618,-11.5501
700,-398,29.0771,11.2958,0,0,0,0,0,0,0,-1,1924,1422,29.0772,-11.2957
707,-398,10.9731,5.479,0,0,0,0,0,0,0,-1,1931,1422,10.9732,-5.47896
714,-398,11.7313,6.17346,0,0,0,0,0,0,0,-1,1938,1422,11.7313,-6.17348
721,-398,13.9371,8.05103,0,0,0,0,0,0,0,-1,1945,1422,13.9372,-8.05102
728,-398,14.786,7.0282,0,0,0,0,0,0,0,-1,1952,1422,14.786,-7.0282
735,-398,0,0,0,0,0,0,0,0,0,-1,1959,1422,0,0
742,-398,0,0,0,0,0,0,0,0,0,-1,1966,1422,0,0
749,-398,0,0,0,0,0,0,0,0,0,-1,1973,1422,0,0
756,-398,0,0,0,0,0,0,0,0,0,-1,1980,1422,0,0
763,-398,0,0,0,0,0,0,0,0,0,-1,1987,1422,0,0
770,-398,0,0,0,0,0,0,0,0,0,-1,1994,1422,0,0
777,-398,0,0,0,0,0,0,0,0,0,-1,2001,1422,0,0
784,-398,0,0,0,0,0,0,0,0,0,-1,2008,1422,0,0
791,-398,0,0,0,0,0,0,0,0,0,-1,2015,1422,0,0
798,-398,0,0,0,0,0,0,0,0,0,-1,2022,1422,0,0
805,-398,0,0,0,0,0,0,0,0,0,-1,2029,1422,0,0
812,-398,0,0,0,0,0,0,0,0,0,-1,2036,1422,0,0
-700,-405,0,0,0,0,0,0,0,0,0,-1,524,1429,0,0
-693,-405,0,0,0,0,0,0,0,0,0,-1,531,1429,0,0
-686,-405,0,0,0,0,0,0,0,0,0,-1,538,1429,0,0
-679,-405,0,0,0,0,0,0,0,0,0,-1,545,1429,0,0
-672,-405,0,0,0,0,0,0,0,0,0,-1,552,1429,0,0
-665,-405,0,0,0,0,0,0,0,0,0,-1,559,1429,0,0
-658,-405,0,0,0,0,0,0,0,0,0,-1,566,1429,0,0
-651,-405,0,0,0,0,0,0,0,0,0,-1,573,1429,0,0
-644,-405,0,0,0,0,0,0,0,0,0,-1,580,1429,0,0
-637,-405,0,0,0,0,0,0,0,0,0,-1,587,1429,0,0
-630,-405,0,0,0,0,0,0,0,0,0,-1,594,1429,0,0
-623,-405,0,0,0,0,0,0,0,0,0,-1,601,1429,0,0
-616,-405,0,0,0,0,0,0,0,0,0,-1,608,1429,0,0
-609,-405,0,0,0,0,0,0,0,0,0,-1,615,1429,0,0
-602,-405,-5.80988,-3.46594,0,0,0,0,0,0,0,-1,622,1429,-5.80987,3.46592
-595,-405,-9.35413,2.01477,0,0,0,0,0,0,0,-1,629,1429,-9.35411,-2.01476
-588,-405,-7.35693,0.507202,0,0,0,0,0,0,0,-1,636,1429,-7.35696,-0.507187
-581,-405,-10.1284,1.62927,0,0,0,0,0,0,0,-1,643,1429,-10.1284,-1.62922
-574,-405,-9.32074,3.05896,0,0,0,0,0,0,0,-1,650,1429,-9.32077,-3.0589
-567,-405,-9.68781,6.92163,0,0,0,0,0,0,0,-1,657,1429,-9.68782,-6.92166
-560,-405,-9.28674,7.20886,0,0,0,0,0,0,0,-1,664,1429,-9.28675,-7.20885
-553,-405,-12.9874,9.69971,0,0,0,0,0,0,0,-1,671,1429,-12.9874,-9.69973
-546,-405,-12.9823,10.3401,0.00497289,0.00352788,0.00313048,0.00746316,0.00103761,0.671986,0.00466817,0.0420765,678,1429,-12.9823,-10.3401
-539,-405,-12.9811,10.9752,0.00388385,0.00273575,0.00246874,0.0058444,0.000775202,0.671165,0.0036653,0.0128745,685,1429,-12.9811,-10.9753
-532,-405,-12.9971,11.592,0.00294201,0.00200587,0.00183832,0.00437091,0.000576962,0.660737,0.00274193,0.0166485,692,1429,-12.9971,-11.592
-525,-405,-13.0203,12.2095,0.00244026,0.00153191,0.00148404,0.00353807,0.000434111,0.636904,0.00222815,0.0152289,699,1429,-13.0203,-12.2095
-518,-405,-13.0298,12.8124,0.00239999,0.00151486,0.00153421,0.00355419,0.000360657,0.644977,0.00225886,0.0158513,706,1429,-13.0298,-12.8124
-511,-405,-13.0765,13.3737,0.00270322,0.00183285,0.00186296,0.00418115,0.000354918,0.670657,0.00267698,0.0166464,713,1429,-13.0765,-13.3736
-504,-405,-13.0905,13.986,0.0034325,0.00252733,0.00256164,0.00558122,0.000378603,0.697962,0.00360125,0.0180252,720,1429,-13.0905,-13.986
-497,-405,-13.0803,14.5861,0.00454069,0.00365675,0.0036225,0.00774808,0.000449364,0.724695,0.0050223,0.0138208,727,1429,-13.0803,-14.5861
-490,-405,-13.1202,15.1709,0.00620151,0.00536473,0.00518229,0.0109823,0.000583976,0.745118,0.00713483,0.0117567,734,1429,-13.1202,-15.1709
-483,-405,-13.0325,15.8871,0.00840657,0.00779185,0.00732422,0.0154299,0.000768543,0.764428,0.0100402,0.0264937,741,1429,-13.0324,-15.8871
-476,-405,-12.8036,16.776,0,0,0,0,0,0,0,-1,748,1429,-12.8036,-16.776
-469,-405,-9.65692,12.8171,0,0,0,0,0,0,0,-1,755,1429,-9.65691,-12.8172
-462,-405,-9.14862,11.3597,0,0,0,0,0,0,0,-1,762,1429,-9.14865,-11.3597
-455,-405,-9.021,9.51111,0,0,0,0,0,0,0,-1,769,1429,-9.021,-9.51109
-448,-405,-8.4649,6.82813,0,0,0,0,0,0,0,-1,776,1429,-8.46492,-6.82817
-441,-405,-6.6712,4.23767,0,0,0,0,0,0,0,-1,783,1429,-6.67121,-4.23764
-434,-405,-9.62549,3.94189,0,0,0,0,0,0,0,-1,790,1429,-9.62546,-3.94191
-427,-405,-10.9764,3.73926,0,0,0,0,0,0,0,-1,797,1429,-10.9764,-3.73923
-420,-405,-12.1187,3.68506,0,0,0,0,0,0,0,-1,804,1429,-12.1187,-3.68512
-413,-405,-13.5353,3.75659,0,0,0,0,0,0,0,-1,811,1429,-13.5353,-3.75655
-406,-405,-14.7374,3.99817,0,0,0,0,0,0,0,-1,818,1429,-14.7374,-3.99814
-399,-405,0,0,0,0,0,0,0,0,0,-1,825,1429,0,0
-392,-405,0,0,0,0,0,0,0,0,0,-1,832,1429,0,0
-385,-405,0,0,0,0,0,0,0,0,0,-1,839,1429,0,0
-378,-405,0,0,0,0,0,0,0,0,0,-1,846,1429,0,0
-371,-405,0,0,0,0,0,0,0,0,0,-1,853,1429,0,0
-364,-405,0,0,0,0,0,0,0,0,0,-1,860,1429,0,0
-357,-405,0,0,0,0,0,0,0,0,0,-1,867,1429,0,0
-350,-405,0,0,0,0,0,0,0,0,0,-1,874,1429,0,0
-343,-405,0,0,0,0,0,0,0,0,0,-1,881,1429,0,0
-336,-405,0,0,0,0,0,0,0,0,0,-1,888,1429,0,0
-329,-405,0,0,0,0,0,0,0,0,0,-1,895,1429,0,0
-322,-405,0,0,0,0,0,0,0,0,0,-1,902,1429,0,0
-315,-405,0,0,0,0,0,0,0,0,0,-1,909,1429,0,0
-308,-405,0,0,0,0,0,0,0,0,0,-1,916,1429,0,0
-301,-405,0,0,0,0,0,0,0,0,0,-1,923,1429,0,0
-294,-405,0,0,0,0,0,0,0,0,0,-1,930,1429,0,0
-287,-405,0,0,0,0,0,0,0,0,0,-1,937,1429,0,0
-280,-405,0,0,0,0,0,0,0,0,0,-1,944,1429,0,0
-273,-405,0,0,0,0,0,0,0,0,0,-1,951,1429,0,0
-266,-405,0,0,0,0,0,0,0,0,0,-1,958,1429,0,0
-259,-405,0,0,0,0,0,0,0,0,0,-1,965,1429,0,0
-252,-405,0,0,0,0,0,0,0,0,0,-1,972,1429,0,0
-245,-405,0,0,0,0,0,0,0,0,0,-1,979,1429,0,0
-238,-405,0,0,0,0,0,0,0,0,0,-1,986,1429,0,0
-231,-405,0,0,0,0,0,0,0,0,0,-1,993,1429,0,0
-224,-405,0,0,0,0,0,0,0,0,0,-1,1000,1429,0,0
-217,-405,0,0,0,0,0,0,0,0,0,-1,1007,1429,0,0
-210,-405,0,0,0,0,0,0,0,0,0,-1,1014,1429,0,0
-203,-405,0,0,0,0,0,0,0,0,0,-1,1021,1429,0,0
-196,-405,0,0,0,0,0,0,0,0,0,-1,1028,1429,0,0
-189,-405,0,0,0,0,0,0,0,0,0,-1,1035,1429,0,0
-182,-405,0,0,0,0,0,0,0,0,0,-1,1042,1429,0,0
-175,-405,0,0,0,0,0,0,0,0,0,-1,1049,1429,0,0
-168,-405,0,0,0,0,0,0,0,0,0,-1,1056,1429,0,0
-161,-405,0,0,0,0,0,0,0,0,0,-1,1063,1429,0,0
-154,-405,0,0,0,0,0,0,0,0,0,-1,1070,1429,0,0
-147,-405,0,0,0,0,0,0,0,0,0,-1,1077,1429,0,0
-140,-405,0,0,0,0,0,0,0,0,0,-1,1084,1429,0,0
-133,-405,0,0,0,0,0,0,0,0,0,-1,1091,1429,0,0
-126,-405,0,0,0,0,0,0,0,0,0,-1,1098,1429,0,0
-119,-405,0,0,0,0,0,0,0,0,0,-1,1105,1429,0,0
-112,-405,0,0,0,0,0,0,0,0,0,-1,1112,1429,0,0
-105,-405,0,0,0,0,0,0,0,0,0,-1,1119,1429,0,0
-98,-405,0,0,0,0,0,0,0,0,0,-1,1126,1429,0,0
-91,-405,0,0,0,0,0,0,0,0,0,-1,1133,1429,0,0
-84,-405,0,0,0,0,0,0,0,0,0,-1,1140,1429,0,0
-77,-405,0,0,0,0,0,0,0,0,0,-1,1147,1429,0,0
-70,-405,0,0,0,0,0,0,0,0,0,-1,1154,1429,0,0
-63,-405,0,0,0,0,0,0,0,0,0,-1,1161,1429,0,0
-56,-405,0,0,0,0,0,0,0,0,0,-1,1168,1429,0,0
-49,-405,0,0,0,0,0,0,0,0,0,-1,1175,1429,0,0
-42,-405,0,0,0,0,0,0,0,0,0,-1,1182,1429,0,0
-35,-405,0,0,0,0,0,0,0,0,0,-1,1189,1429,0,0
-28,-405,0,0,0,0,0,0,0,0,0,-1,1196,1429,0,0
-21,-405,0,0,0,0,0,0,0,0,0,-1,1203,1429,0,0
-14,-405,0,0,0,0,0,0,0,0,0,-1,1210,1429,0,0
-7,-405,0,0,0,0,0,0,0,0,0,-1,1217,1429,0,0
0,-405,0,0,0,0,0,0,0,0,0,-1,1224,1429,0,0
7,-405,0,0,0,0,0,0,0,0,0,-1,1231,1429,0,0
14,-405,0,0,0,0,0,0,0,0,0,-1,1238,1429,0,0
21,-405,0,0,0,0,0,0,0,0,0,-1,1245,1429,0,0
28,-405,0,0,0,0,0,0,0,0,0,-1,1252,1429,0,0
35,-405,0,0,0,0,0,0,0,0,0,-1,1259,1429,0,0
42,-405,0,0,0,0,0,0,0,0,0,-1,1266,1429,0,0
49,-405,0,0,0,0,0,0,0,0,0,-1,1273,1429,0,0
56,-405,0,0,0,0,0,0,0,0,0,-1,1280,1429,0,0
63,-405,0,0,0,0,0,0,0,0,0,-1,1287,1429,0,0
70,-405,0,0,0,0,0,0,0,0,0,-1,1294,1429,0,0
77,-405,0,0,0,0,0,0,0,0,0,-1,1301,1429,0,0
84,-405,0,0,0,0,0,0,0,0,0,-1,1308,1429,0,0
91,-405,0,0,0,0,0,0,0,0,0,-1,1315,1429,0,0
98,-405,0,0,0,0,0,0,0,0,0,-1,1322,1429,0,0
105,-405,0,0,0,0,0,0,0,0,0,-1,1329,1429,0,0
112,-405,0,0,0,0,0,0,0,0,0,-1,1336,1429,0,0
119,-405,0,0,0,0,0,0,0,0,0,-1,1343,1429,0,0
126,-405,0,0,0,0,0,0,0,0,0,-1,1350,1429,0,0
133,-405,0,0,0,0,0,0,0,0,0,-1,1357,1429,0,0
140,-405,0,0,0,0,0,0,0,0,0,-1,1364,1429,0,0
147,-405,0,0,0,0,0,0,0,0,0,-1,1371,1429,0,0
154,-405,0,0,0,0,0,0,0,0,0,-1,1378,1429,0,0
161,-405,0,0,0,0,0,0,0,0,0,-1,1385,1429,0,0
168,-405,0,0,0,0,0,0,0,0,0,-1,1392,1429,0,0
175,-405,0,0,0,0,0,0,0,0,0,-1,1399,1429,0,0
182,-405,0,0,0,0,0,0,0,0,0,-1,1406,1429,0,0
189,-405,0,0,0,0,0,0,0,0,0,-1,1413,1429,0,0
196,-405,0,0,0,0,0,0,0,0,0,-1,1420,1429,0,0
203,-405,0,0,0,0,0,0,0,0,0,-1,1427,1429,0,0
210,-405,0,0,0,0,0,0,0,0,0,-1,1434,1429,0,0
217,-405,0,0,0,0,0,0,0,0,0,-1,1441,1429,0,0
224,-405,0,0,0,0,0,0,0,0,0,-1,1448,1429,0,0
231,-405,0,0,0,0,0,0,0,0,0,-1,1455,1429,0,0
238,-405,0,0,0,0,0,0,0,0,0,-1,1462,1429,0,0
245,-405,0,0,0,0,0,0,0,0,0,-1,1469,1429,0,0
252,-405,0,0,0,0,0,0,0,0,0,-1,1476,1429,0,0
259,-405,0,0,0,0,0,0,0,0,0,-1,1483,1429,0,0
266,-405,0,0,0,0,0,0,0,0,0,-1,1490,1429,0,0
273,-405,0,0,0,0,0,0,0,0,0,-1,1497,1429,0,0
280,-405,0,0,0,0,0,0,0,0,0,-1,1504,1429,0,0
287,-405,0,0,0,0,0,0,0,0,0,-1,1511,1429,0,0
294,-405,0,0,0,0,0,0,0,0,0,-1,1518,1429,0,0
301,-405,0,0,0,0,0,0,0,0,0,-1,1525,1429,0,0
308,-405,0,0,0,0,0,0,0,0,0,-1,1532,1429,0,0
315,-405,0,0,0,0,0,0,0,0,0,-1,1539,1429,0,0
322,-405,0,0,0,0,0,0,0,0,0,-1,1546,1429,0,0
329,-405,0,0,0,0,0,0,0,0,0,-1,1553,1429,0,0
336,-405,0,0,0,0,0,0,0,0,0,-1,1560,1429,0,0
343,-405,0,0,0,0,0,0,0,0,0,-1,1567,1429,0,0
350,-405,0,0,0,0,0,0,0,0,0,-1,1574,1429,0,0
357,-405,0,0,0,0,0,0,0,0,0,-1,1581,1429,0,0
364,-405,0,0,0,0,0,0,0,0,0,-1,1588,1429,0,0
371,-405,0,0,0,0,0,0,0,0,0,-1,1595,1429,0,0
378,-405,0,0,0,0,0,0,0,0,0,-1,1602,1429,0,0
385,-405,0,0,0,0,0,0,0,0,0,-1,1609,1429,0,0
392,-405,0,0,0,0,0,0,0,0,0,-1,1616,1429,0,0
399,-405,0,0,0,0,0,0,0,0,0,-1,1623,1429,0,0
406,-405,0,0,0,0,0,0,0,0,0,-1,1630,1429,0,0
413,-405,0,0,0,0,0,0,0,0,0,-1,1637,1429,0,0
420,-405,0,0,0,0,0,0,0,0,0,-1,1644,1429,0,0
427,-405,0,0,0,0,0,0,0,0,0,-1,1651,1429,0,0
434,-405,0,0,0,0,0,0,0,0,0,-1,1658,1429,0,0
441,-405,0,0,0,0,0,0,0,0,0,-1,1665,1429,0,0
448,-405,0,0,0,0,0,0,0,0,0,-1,1672,1429,0,0
455,-405,0,0,0,0,0,0,0,0,0,-1,1679,1429,0,0
462,-405,0,0,0,0,0,0,0,0,0,-1,1686,1429,0,0
469,-405,0,0,0,0,0,0,0,0,0,-1,1693,1429,0,0
476,-405,0,0,0,0,0,0,0,0,0,-1,1700,1429,0,0
483,-405,0,0,0,0,0,0,0,0,0,-1,1707,1429,0,0
490,-405,0,0,0,0,0,0,0,0,0,-1,1714,1429,0,0
497,-405,0,0,0,0,0,0,0,0,0,-1,1721,1429,0,0
504,-405,0,0,0,0,0,0,0,0,0,-1,1728,1429,0,0
511,-405,0,0,0,0,0,0,0,0,0,-1,1735,1429,0,0
518,-405,0,0,0,0,0,0,0,0,0,-1,1742,1429,0,0
525,-405,31.1563,-1.40942,0,0,0,0,0,0,0,-1,1749,1429,31.1563,1.40937
532,-405,28.156,4.8783,0,0,0,0,0,0,0,-1,1756,1429,28.1561,-4.87833
539,-405,26.5133,3.02454,0,0,0,0,0,0,0,-1,1763,1429,26.5133,-3.0246
546,-405,29.5735,6.53052,0,0,0,0,0,0,0,-1,1770,1429,29.5735,-6.53049
553,-405,28.2911,6.70654,0,0,0,0,0,0,0,-1,1777,1429,28.2912,-6.70656
560,-405,26.9299,7.08472,0,0,0,0,0,0,0,-1,1784,1429,26.9299,-7.08469
567,-405,25.804,7.14661,0,0,0,0,0,0,0,-1,1791,1429,25.8039,-7.14665
574,-405,25.1151,8.07971,0,0,0,0,0,0,0,-1,1798,1429,25.1151,-8.07965
581,-405,23.5055,8.505,0,0,0,0,0,0,0,-1,1805,1429,23.5054,-8.50501
588,-405,21.7491,8.98254,0,0,0,0,0,0,0,-1,1812,1429,21.7491,-8.98254
595,-405,21.6327,10.7795,0,0,0,0,0,0,0,-1,1819,1429,21.6327,-10.7796
602,-405,21.6461,13.9199,0,0,0,0,0,0,0,-1,1826,1429,21.6461,-13.92
609,-405,28.4312,18.2855,0,0,0,0,0,0,0,-1,1833,1429,28.4311,-18.2856
616,-405,28.7915,17.5261,0.00418695,0.00399503,-0.00372735,0.00781958,0.000362404,-0.772529,0.00509655,0.047986,1840,1429,28.7915,-17.5261
623,-405,28.8412,16.8402,0.00284534,0.00248713,-0.00247515,0.00514786,0.000184612,-0.749281,0.00337205,0.0137325,1847,1429,28.8412,-16.8402
630,-405,28.8402,16.2472,0.00208012,0.00152103,-0.00163572,0.00346001,0.000141146,-0.700766,0.00226109,0.0104945,1854,1429,28.8402,-16.2472
637,-405,28.8351,15.6705,0.00165229,0.000838195,-0.0010501,0.00237147,0.000119017,-0.600499,0.00154284,0.0111735,1861,1429,28.835,-15.6705
644,-405,28.7748,15.1439,0.001501,0.000436908,-0.000612332,0.00178014,0.000157767,-0.427721,0.00113782,0.0295694,1868,1429,28.7748,-15.1439
651,-405,28.7178,14.627,0.0015783,0.000196112,-0.000255544,0.00162403,0.000150379,-0.177087,0.00103621,0.0348332,1875,1429,28.7178,-14.627
658,-405,28.7522,14.0629,0.00171803,6.74852e-06,0.000120014,0.0017264,-1.6272e-06,0.0696764,0.00115148,0.026041,1882,1429,28.7522,-14.0629
665,-405,28.7659,13.4974,0.00197418,-0.00018376,0.000556251,0.00210913,-0.000318705,0.238,0.00152347,0.0200592,1889,1429,28.7659,-13.4974
672,-405,28.7795,12.9597,0.00230298,-0.000360655,0.00109844,0.00269752,-0.000755194,0.344831,0.00209593,0.0239117,1896,1429,28.7795,-12.9597
679,-405,28.8251,12.4336,0.00258839,-0.000699593,0.00187269,0.00343632,-0.00154753,0.42517,0.0029455,0.0234713,1903,1429,28.825,-12.4336
686,-405,28.6658,11.9504,0.00266065,-0.00149268,0.0031967,0.004396,-0.00322803,0.497341,0.00441892,0.0413398,1910,1429,28.6658,-11.9504
693,-405,28.5592,11.6788,0,0,0,0,0,0,0,-1,1917,1429,28.5592,-11.6788
700,-405,9.1958,4.02026,0,0,0,0,0,0,0,-1,1924,1429,9.19579,-4.02025
707,-405,7.40308,3.83191,0,0,0,0,0,0,0,-1,1931,1429,7.40311,-3.83194
714,-405,7.33252,3.47388,0,0,0,0,0,0,0,-1,1938,1429,7.33255,-3.47383
721,-405,9.23523,0.993896,0,0,0,0,0,0,0,-1,1945,1429,9.23523,-0.993884
728,-405,0,0,0,0,0,0,0,0,0,-1,1952,1429,0,0
735,-405,0,0,0,0,0,0,0,0,0,-1,1959,1429,0,0
742,-405,0,0,0,0,0,0,0,0,0,-1,1966,1429,0,0
749,-405,0,0,0,0,0,0,0,0,0,-1,1973,1429,0,0
756,-405,0,0,0,0,0,0,0,0,0,-1,1980,1429,0,0
763,-405,0,0,0,0,0,0,0,0,0,-1,1987,1429,0,0
770,-405,0,0,0,0,0,0,0,0,0,-1,1994,1429,0,0
777,-405,0,0,0,0,0,0,0,0,0,-1,2001,1429,0,0
784,-405,0,0,0,0,0,0,0,0,0,-1,2008,1429,0,0
791,-405,0,0,0,0,0,0,0,0,0,-1,2015,1429,0,0
798,-405,0,0,0,0,0,0,0,0,0,-1,2022,1429,0,0
805,-405,0,0,0,0,0,0,0,0,0,-1,2029,1429,0,0
812,-405,0,0,0,0,0,0,0,0,0,-1,2036,1429,0,0
-700,-412,0,0,0,0,0,0,0,0,0,-1,524,1436,0,0
-693,-412,0,0,0,0,0,0,0,0,0,-1,531,1436,0,0
-686,-412,0,0,0,0,0,0,0,0,0,-1,538,1436,0,0
-679,-412,0,0,0,0,0,0,0,0,0,-1,545,1436,0,0
-672,-412,0,0,0,0,0,0,0,0,0,-1,552,1436,0,0
-665,-412,0,0,0,0,0,0,0,0,0,-1,559,1436,0,0
-658,-412,0,0,0,0,0,0,0,0,0,-1,566,1436,0,0
-651,-412,0,0,0,0,0,0,0,0,0,-1,573,1436,0,0
-644,-412,0,0,0,0,0,0,0,0,0,-1,580,1436,0,0
-637,-412,0,0,0,0,0,0,0,0,0,-1,587,1436,0,0
-630,-412,0,0,0,0,0,0,0,0,0,-1,594,1436,0,0
-623,-412,0,0,0,0,0,0,0,0,0,-1,601,1436,0,0
-616,-412,0,0,0,0,0,0,0,0,0,-1,608,1436,0,0
-609,-412,0,0,0,0,0,0,0,0,0,-1,615,1436,0,0
-602,-412,-3.72766,-3.50012,0,0,0,0,0,0,0,-1,622,1436,-3.72764,3.50017
-595,-412,-10.3706,0.65564,0,0,0,0,0,0,0,-1,629,1436,-10.3706,-0.655672
-588,-412,-8.17957,1.94934,0,0,0,0,0,0,0,-1,636,1436,-8.17956,-1.94939
-581,-412,-6.60065,-0.0554199,0,0,0,0,0,0,0,-1,643,1436,-6.60063,0.0554733
-574,-412,-8.34131,5.25012,0,0,0,0,0,0,0,-1,650,1436,-8.34129,-5.25012
-567,-412,-7.50354,3.65454,0,0,0,0,0,0,0,-1,657,1436,-7.50356,-3.65452
-560,-412,-8.52448,7.39014,0,0,0,0,0,0,0,-1,664,1436,-8.52447,-7.39019
-553,-412,-7.36761,6.54651,0,0,0,0,0,0,0,-1,671,1436,-7.36763,-6.54654
-546,-412,-12.3421,10.3965,0,0,0,0,0,0,0,-1,678,1436,-12.3421,-10.3965
-539,-412,-12.3386,10.9441,0.0043191,0.00359285,0.00311822,0.00709527,0.00081669,0.727433,0.00448282,0.025434,685,1436,-12.3386,-10.9441
-532,-412,-12.4011,11.614,0.00318048,0.00263027,0.00229607,0.00521786,0.000592887,0.725775,0.00329876,0.0150494,692,1436,-12.4011,-11.614
-525,-412,-12.4327,12.2205,0.0024789,0.00189413,0.00171659,0.00392783,0.000445195,0.701044,0.00248349,0.0159757,699,1436,-12.4327,-12.2205
-518,-412,-12.4347,12.8281,0.00230819,0.00165914,0.00159814,0.00361442,0.000352902,0.685229,0.00230102,0.0165008,706,1436,-12.4347,-12.8281
-511,-412,-12.4514,13.3975,0.00248567,0.00184142,0.00179997,0.00399211,0.000334981,0.696855,0.00255707,0.0195685,713,1436,-12.4513,-13.3974
-504,-412,-12.4856,14.0205,0.00305107,0.00239051,0.00234512,0.00508905,0.000352531,0.71544,0.00328151,0.0187714,720,1436,-12.4856,-14.0205
-497,-412,-12.4973,14.6207,0.00396233,0.00333445,0.0032165,0.00688017,0.000416606,0.736751,0.00445441,0.0139842,727,1436,-12.4972,-14.6207
-490,-412,-12.5178,15.1995,0.0053198,0.00477409,0.00451789,0.00957307,0.000520816,0.755238,0.00621572,0.0127305,734,1436,-12.5178,-15.1995
-483,-412,-12.5252,15.7885,0.00714522,0.00678632,0.00629779,0.0132661,0.00066542,0.771155,0.00863082,0.0106433,741,1436,-12.5252,-15.7884
-476,-412,-12.3043,16.694,0.00946093,0.00933544,0.00863476,0.0180332,0.000763199,0.781765,0.011776,0.0454197,748,1436,-12.3043,-16.694
-469,-412,-12.0873,17.7285,0,0,0,0,0,0,0,-1,755,1436,-12.0873,-17.7285
-462,-412,-8.94659,13.3385,0,0,0,0,0,0,0,-1,762,1436,-8.94657,-13.3385
-455,-412,-8.25006,11.2572,0,0,0,0,0,0,0,-1,769,1436,-8.25007,-11.2572
-448,-412,-7.38086,8.78186,0,0,0,0,0,0,0,-1,776,1436,-7.38088,-8.78183
-441,-412,-8.79523,9.05286,0,0,0,0,0,0,0,-1,783,1436,-8.79521,-9.0529
-434,-412,-10.6305,8.03577,0,0,0,0,0,0,0,-1,790,1436,-10.6305,-8.0358
-427,-412,-10.0004,5.15271,0,0,0,0,0,0,0,-1,797,1436,-10.0004,-5.15266
-420,-412,-10.4468,4.9043,0,0,0,0,0,0,0,-1,804,1436,-10.4468,-4.90429
-413,-412,-11.5704,4.97766,0,0,0,0,0,0,0,-1,811,1436,-11.5704,-4.97771
-406,-412,-13.1968,5.70093,0,0,0,0,0,0,0,-1,818,1436,-13.1968,-5.70096
-399,-412,-10.5506,0.771973,0,0,0,0,0,0,0,-1,825,1436,-10.5506,-0.771954
-392,-412,0,0,0,0,0,0,0,0,0,-1,832,1436,0,0
-385,-412,0,0,0,0,0,0,0,0,0,-1,839,1436,0,0
-378,-412,0,0,0,0,0,0,0,0,0,-1,846,1436,0,0
-371,-412,0,0,0,0,0,0,0,0,0,-1,853,1436,0,0
-364,-412,0,0,0,0,0,0,0,0,0,-1,860,1436,0,0
-357,-412,0,0,0,0,0,0,0,0,0,-1,867,1436,0,0
-350,-412,0,0,0,0,0,0,0,0,0,-1,874,1436,0,0
-343,-412,0,0,0,0,0,0,0,0,0,-1,881,1436,0,0
-336,-412,0,0,0,0,0,0,0,0,0,-1,888,1436,0,0
-329,-412,0,0,0,0,0,0,0,0,0,-1,895,1436,0,0
-322,-412,0,0,0,0,0,0,0,0,0,-1,902,1436,0,0
-315,-412,0,0,0,0,0,0,0,0,0,-1,909,1436,0,0
-308,-412,0,0,0,0,0,0,0,0,0,-1,916,1436,0,0
-301,-412,0,0,0,0,0,0,0,0,0,-1,923,1436,0,0
-294,-412,0,0,0,0,0,0,0,0,0,-1,930,1436,0,0
-287,-412,0,0,0,0,0,0,0,0,0,-1,937,1436,0,0
-280,-412,0,0,0,0,0,0,0,0,0,-1,944,1436,0,0
-273,-412,0,0,0,0,0,0,0,0,0,-1,951,1436,0,0
-266,-412,0,0,0,0,0,0,0,0,0,-1,958,1436,0,0
-259,-412,0,0,0,0,0,0,0,0,0,-1,965,1436,0,0
-252,-412,0,0,0,0,0,0,0,0,0,-1,972,1436,0,0
-245,-412,0,0,0,0,0,0,0,0,0,-1,979,1436,0,0
-238,-412,0,0,0,0,0,0,0,0,0,-1,986,1436,0,0
-231,-412,0,0,0,0,0,0,0,0,0,-1,993,1436,0,0
-224,-412,0,0,0,0,0,0,0,0,0,-1,1000,1436,0,0
-217,-412,0,0,0,0,0,0,0,0,0,-1,1007,1436,0,0
-210,-412,0,0,0,0,0,0,0,0,0,-1,1014,1436,0,0
-203,-412,0,0,0,0,0,0,0,0,0,-1,1021,1436,0,0
-196,-412,0,0,0,0,0,0,0,0,0,-1,1028,1436,0,0
-189,-412,0,0,0,0,0,0,0,0,0,-1,1035,1436,0,0
-182,-412,0,0,0,0,0,0,0,0,0,-1,1042,1436,0,0
-175,-412,0,0,0,0,0,0,0,0,0,-1,1049,1436,0,0
-168,-412,0,0,0,0,0,0,0,0,0,-1,1056,1436,0,0
-161,-412,0,0,0,0,0,0,0,0,0,-1,1063,1436,0,0
-154,-412,0,0,0,0,0,0,0,0,0,-1,1070,1436,0,0
-147,-412,0,0,0,0,0,0,0,0,0,-1,1077,1436,0,0
-140,-412,0,0,0,0,0,0,0,0,0,-1,1084,1436,0,0
-133,-412,0,0,0,0,0,0,0,0,0,-1,1091,1436,0,0
-126,-412,0,0,0,0,0,0,0,0,0,-1,1098,1436,0,0
-119,-412,0,0,0,0,0,0,0,0,0,-1,1105,1436,0,0
-112,-412,0,0,0,0,0,0,0,0,0,-1,1112,1436,0,0
-105,-412,0,0,0,0,0,0,0,0,0,-1,1119,1436,0,0
-98,-412,0,0,0,0,0,0,0,0,0,-1,1126,1436,0,0
-91,-412,0,0,0,0,0,0,0,0,0,-1,1133,1436,0,0
-84,-412,0,0,0,0,0,0,0,0,0,-1,1140,1436,0,0
-77,-412,0,0,0,0,0,0,0,0,0,-1,1147,1436,0,0
-70,-412,0,0,0,0,0,0,0,0,0,-1,1154,1436,0,0
-63,-412,0,0,0,0,0,0,0,0,0,-1,1161,1436,0,0
-56,-412,0,0,0,0,0,0,0,0,0,-1,1168,1436,0,0
-49,-412,0,0,0,0,0,0,0,0,0,-1,1175,1436,0,0
-42,-412,0,0,0,0,0,0,0,0,0,-1,1182,1436,0,0
-35,-412,0,0,0,0,0,0,0,0,0,-1,1189,1436,0,0
-28,-412,0,0,0,0,0,0,0,0,0,-1,1196,1436,0,0
-21,-412,0,0,0,0,0,0,0,0,0,-1,1203,1436,0,0
-14,-412,0,0,0,0,0,0,0,0,0,-1,1210,1436,0,0
-7,-412,0,0,0,0,0,0,0,0,0,-1,1217,1436,0,0
0,-412,0,0,0,0,0,0,0,0,0,-1,1224,1436,0,0
7,-412,0,0,0,0,0,0,0,0,0,-1,1231,1436,0,0
14,-412,0,0,0,0,0,0,0,0,0,-1,1238,1436,0,0
21,-412,0,0,0,0,0,0,0,0,0,-1,1245,1436,0,0
28,-412,0,0,0,0,0,0,0,0,0,-1,1252,1436,0,0
35,-412,0,0,0,0,0,0,0,0,0,-1,1259,1436,0,0
42,-412,0,0,0,0,0,0,0,0,0,-1,1266,1436,0,0
49,-412,0,0,0,0,0,0,0,0,0,-1,1273,1436,0,0
56,-412,0,0,0,0,0,0,0,0,0,-1,1280,1436,0,0
63,-412,0,0,0,0,0,0,0,0,0,-1,1287,1436,0,0
70,-412,0,0,0,0,0,0,0,0,0,-1,1294,1436,0,0
77,-412,0,0,0,0,0,0,0,0,0,-1,1301,1436,0,0
84,-412,0,0,0,0,0,0,0,0,0,-1,1308,1436,0,0
91,-412,0,0,0,0,0,0,0,0,0,-1,1315,1436,0,0
98,-412,0,0,0,0,0,0,0,0,0,-1,1322,1436,0,0
105,-412,0,0,0,0,0,0,0,0,0,-1,1329,1436,0,0
112,-412,0,0,0,0,0,0,0,0,0,-1,1336,1436,0,0
119,-412,0,0,0,0,0,0,0,0,0,-1,1343,1436,0,0
126,-412,0,0,0,0,0,0,0,0,0,-1,1350,1436,0,0
133,-412,0,0,0,0,0,0,0,0,0,-1,1357,1436,0,0
140,-412,0,0,0,0,0,0,0,0,0,-1,1364,1436,0,0
147,-412,0,0,0,0,0,0,0,0,0,-1,1371,1436,0,0
154,-412,0,0,0,0,0,0,0,0,0,-1,1378,1436,0,0
161,-412,0,0,0,0,0,0,0,0,0,-1,1385,1436,0,0
168,-412,0,0,0,0,0,0,0,0,0,-1,1392,1436,0,0
175,-412,0,0,0,0,0,0,0,0,0,-1,1399,1436,0,0
182,-412,0,0,0,0,0,0,0,0,0,-1,1406,1436,0,0
189,-412,0,0,0,0,0,0,0,0,0,-1,1413,1436,0,0
196,-412,0,0,0,0,0,0,0,0,0,-1,1420,1436,0,0
203,-412,0,0,0,0,0,0,0,0,0,-1,1427,1436,0,0
210,-412,0,0,0,0,0,0,0,0,0,-1,1434,1436,0,0
217,-412,0,0,0,0,0,0,0,0,0,-1,1441,1436,0,0
224,-412,0,0,0,0,0,0,0,0,0,-1,1448,1436,0,0
231,-412,0,0,0,0,0,0,0,0,0,-1,1455,1436,0,0
238,-412,0,0,0,0,0,0,0,0,0,-1,1462,1436,0,0
245,-412,0,0,0,0,0,0,0,0,0,-1,1469,1436,0,0
252,-412,0,0,0,0,0,0,0,0,0,-1,1476,1436,0,0
259,-412,0,0,0,0,0,0,0,0,0,-1,1483,1436,0,0
266,-412,0,0,0,0,0,0,0,0,0,-1,1490,1436,0,0
273,-412,0,0,0,0,0,0,0,0,0,-1,1497,1436,0,0
280,-412,0,0,0,0,0,0,0,0,0,-1,1504,1436,0,0
287,-412,0,0,0,0,0,0,0,0,0,-1,1511,1436,0,0
294,-412,0,0,0,0,0,0,0,0,0,-1,1518,1436,0,0
301,-412,0,0,0,0,0,0,0,0,0,-1,1525,1436,0,0
308,-412,0,0,0,0,0,0,0,0,0,-1,1532,1436,0,0
315,-412,0,0,0,0,0,0,0,0,0,-1,1539,1436,0,0
322,-412,0,0,0,0,0,0,0,0,0,-1,1546,1436,0,0
329,-412,0,0,0,0,0,0,0,0,0,-1,1553,1436,0,0
336,-412,0,0,0,0,0,0,0,0,0,-1,1560,1436,0,0
343,-412,0,0,0,0,0,0,0,0,0,-1,1567,1436,0,0
350,-412,0,0,0,0,0,0,0,0,0,-1,1574,1436,0,0
357,-412,0,0,0,0,0,0,0,0,0,-1,1581,1436,0,0
364,-412,0,0,0,0,0,0,0,0,0,-1,1588,1436,0,0
371,-412,0,0,0,0,0,0,0,0,0,-1,1595,1436,0,0
378,-412,0,0,0,0,0,0,0,0,0,-1,1602,1436,0,0
385,-412,0,0,0,0,0,0,0,0,0,-1,1609,1436,0,0
392,-412,0,0,0,0,0,0,0,0,0,-1,1616,1436,0,0
399,-412,0,0,0,0,0,0,0,0,0,-1,1623,1436,0,0
406,-412,0,0,0,0,0,0,0,0,0,-1,1630,1436,0,0
413,-412,0,0,0,0,0,0,0,0,0,-1,1637,1436,0,0
420,-412,0,0,0,0,0,0,0,0,0,-1,1644,1436,0,0
427,-412,0,0,0,0,0,0,0,0,0,-1,1651,1436,0,0
434,-412,0,0,0,0,0,0,0,0,0,-1,1658,1436,0,0
441,-412,0,0,0,0,0,0,0,0,0,-1,1665,1436,0,0
448,-412,0,0,0,0,0,0,0,0,0,-1,1672,1436,0,0
455,-412,0,0,0,0,0,0,0,0,0,-1,1679,1436,0,0
462,-412,0,0,0,0,0,0,0,0,0,-1,1686,1436,0,0
469,-412,0,0,0,0,0,0,0,0,0,-1,1693,1436,0,0
476,-412,0,0,0,0,0,0,0,0,0,-1,1700,1436,0,0
483,-412,0,0,0,0,0,0,0,0,0,-1,1707,1436,0,0
490,-412,0,0,0,0,0,0,0,0,0,-1,1714,1436,0,0
497,-412,0,0,0,0,0,0,0,0,0,-1,1721,1436,0,0
504,-412,0,0,0,0,0,0,0,0,0,-1,1728,1436,0,0
511,-412,0,0,0,0,0,0,0,0,0,-1,1735,1436,0,0
518,-412,30.1038,-2.43384,0,0,0,0,0,0,0,-1,1742,1436,30.1038,2.43383
525,-412,29.5283,-1.42493,0,0,0,0,0,0,0,-1,1749,1436,29.5283,1.42495
532,-412,28.8533,-0.386597,0,0,0,0,0,0,0,-1,1756,1436,28.8533,0.386632
539,-412,25.8654,2.74683,0,0,0,0,0,0,0,-1,1763,1436,25.8654,-2.74685
546,-412,25.4265,2.4342,0,0,0,0,0,0,0,-1,1770,1436,25.4265,-2.4342
553,-412,26.3595,7.49255,0,0,0,0,0,0,0,-1,1777,1436,26.3595,-7.4925
560,-412,24.9116,7.94324,0,0,0,0,0,0,0,-1,1784,1436,24.9116,-7.94327
567,-412,23.668,7.94531,0,0,0,0,0,0,0,-1,1791,1436,23.6679,-7.94534
574,-412,23.0142,9.17236,0,0,0,0,0,0,0,-1,1798,1436,23.0141,-9.17235
581,-412,22.2615,10.0349,0,0,0,0,0,0,0,-1,1805,1436,22.2615,-10.0349
588,-412,21.6893,10.8069,0,0,0,0,0,0,0,-1,1812,1436,21.6893,-10.8069
595,-412,21.5137,14.3157,0,0,0,0,0,0,0,-1,1819,1436,21.5137,-14.3157
602,-412,28.0736,18.8387,0,0,0,0,0,0,0,-1,1826,1436,28.0736,-18.8387
609,-412,28.2704,18.0007,0.00551732,0.00554864,-0.00497885,0.0105119,0.000554101,-0.786971,0.0068307,0.0394059,1833,1436,28.2704,-18.0007
616,-412,28.3533,17.3694,0.00395861,0.00361086,-0.00343117,0.00722031,0.000349161,-0.760082,0.00470148,0.0125168,1840,1436,28.3533,-17.3694
623,-412,28.3088,16.8228,0.00287657,0.00233941,-0.00236441,0.00498761,0.000228382,-0.728844,0.00325162,0.00912382,1847,1436,28.3089,-16.8227
630,-412,28.2878,16.2576,0.00223201,0.00143609,-0.00159865,0.00348149,0.000186613,-0.66341,0.00226136,0.0110218,1854,1436,28.2879,-16.2576
637,-412,28.2893,15.645,0.00182577,0.00077409,-0.00101598,0.00244392,0.000155939,-0.546595,0.00157987,0.013199,1861,1436,28.2893,-15.645
644,-412,28.2572,15.1249,0.00170574,0.000402218,-0.000590984,0.00193378,0.000174175,-0.368266,0.00123523,0.0148966,1868,1436,28.2571,-15.1249
651,-412,28.2214,14.5573,0.00180125,0.000218088,-0.000281454,0.00184979,0.00016954,-0.17081,0.00118075,0.0264168,1875,1436,28.2214,-14.5572
658,-412,28.1952,14.0409,0.00195571,9.53971e-05,3.86561e-05,0.00195651,9.45941e-05,0.0207674,0.00127398,0.0195249,1882,1436,28.1952,-14.0409
665,-412,28.2279,13.5215,0.00222076,-9.3319e-06,0.000420141,0.00229729,-8.5859e-05,0.180171,0.00156093,0.0239713,1889,1436,28.2279,-13.5215
672,-412,28.2499,12.9539,0.00251238,-5.62533e-05,0.000909851,0.00280201,-0.00034588,0.308181,0.00199333,0.0298077,1896,1436,28.2499,-12.9539
679,-412,28.3335,12.4208,0.00266931,-0.000333089,0.0017039,0.00343899,-0.00110276,0.424278,0.00273537,0.0434081,1903,1436,28.3335,-12.4208
686,-412,28.2345,11.7772,0,0,0,0,0,0,0,-1,1910,1436,28.2345,-11.7773
693,-412,11.9346,6.02344,0,0,0,0,0,0,0,-1,1917,1436,11.9346,-6.02343
700,-412,8.82764,5.8844,0,0,0,0,0,0,0,-1,1924,1436,8.82761,-5.88444
707,-412,6.59998,1.68994,0,0,0,0,0,0,0,-1,1931,1436,6.60002,-1.68995
714,-412,4.77283,-2.39832,0,0,0,0,0,0,0,-1,1938,1436,4.77288,2.39835
721,-412,0,0,0,0,0,0,0,0,0,-1,1945,1436,0,0
728,-412,0,0,0,0,0,0,0,0,0,-1,1952,1436,0,0
735,-412,0,0,0,0,0,0,0,0,0,-1,1959,1436,0,0
742,-412,0,0,0,0,0,0,0,0,0,-1,1966,1436,0,0
749,-412,0,0,0,0,0,0,0,0,0,-1,1973,1436,0,0
756,-412,0,0,0,0,0,0,0,0,0,-1,1980,1436,0,0
763,-412,0,0,0,0,0,0,0,0,0,-1,1987,1436,0,0
770,-412,0,0,0,0,0,0,0,0,0,-1,1994,1436,0,0
777,-412,0,0,0,0,0,0,0,0,0,-1,2001,1436,0,0
784,-412,0,0,0,0,0,0,0,0,0,-1,2008,1436,0,0
791,-412,0,0,0,0,0,0,0,0,0,-1,2015,1436,0,0
798,-412,0,0,0,0,0,0,0,0,0,-1,2022,1436,0,0
805,-412,0,0,0,0,0,0,0,0,0,-1,2029,1436,0,0
812,-412,0,0,0,0,0,0,0,0,0,-1,2036,1436,0,0
-700,-419,0,0,0,0,0,0,0,0,0,-1,524,1443,0,0
-693,-419,0,0,0,0,0,0,0,0,0,-1,531,1443,0,0
-686,-419,0,0,0,0,0,0,0,0,0,-1,538,1443,0,0
-679,-419,0,0,0,0,0,0,0,0,0,-1,545,1443,0,0
-672,-419,0,0,0,0,0,0,0,0,0,-1,552,1443,0,0
-665,-419,0,0,0,0,0,0,0,0,0,-1,559,1443,0,0
-658,-419,0,0,0,0,0,0,0,0,0,-1,566,1443,0,0
-651,-419,0,0,0,0,0,0,0,0,0,-1,573,1443,0,0
-644,-419,0,0,0,0,0,0,0,0,0,-1,580,1443,0,0
-637,-419,0,0,0,0,0,0,0,0,0,-1,587,1443,0,0
-630,-419,0,0,0,0,0,0,0,0,0,-1,594,1443,0,0
-623,-419,0,0,0,0,0,0,0,0,0,-1,601,1443,0,0
-616,-419,0,0,0,0,0,0,0,0,0,-1,608,1443,0,0
-609,-419,0,0,0,0,0,0,0,0,0,-1,615,1443,0,0
-602,-419,0,0,0,0,0,0,0,0,0,-1,622,1443,0,0
-595,-419,-11.4904,-0.622681,0,0,0,0,0,0,0,-1,629,1443,-11.4903,0.622714
-588,-419,-9.09369,0.742432,0,0,0,0,0,0,0,-1,636,1443,-9.09366,-0.742482
-581,-419,-6.39172,2.14673,0,0,0,0,0,0,0,-1,643,1443,-6.39175,-2.14668
-574,-419,-4.09772,3.54773,0,0,0,0,0,0,0,-1,650,1443,-4.09772,-3.54767
-567,-419,-6.14038,3.22498,0,0,0,0,0,0,0,-1,657,1443,-6.14037,-3.22497
-560,-419,-4.52814,5.22253,0,0,0,0,0,0,0,-1,664,1443,-4.52816,-5.22251
-553,-419,-5.08331,6.11829,0,0,0,0,0,0,0,-1,671,1443,-5.08331,-6.1183
-546,-419,-10.3732,9.23279,0,0,0,0,0,0,0,-1,678,1443,-10.3732,-9.23275
-539,-419,-11.7321,10.8582,0,0,0,0,0,0,0,-1,685,1443,-11.7321,-10.8582
-532,-419,-11.8134,11.6255,0.00340271,0.00338346,0.00286465,0.00625775,0.000528421,0.783719,0.00400733,0.0251703,692,1443,-11.8134,-11.6255
-525,-419,-11.8146,12.2726,0.00242236,0.00228435,0.00198003,0.00433459,0.000372126,0.767979,0.00277402,0.0133732,699,1443,-11.8146,-12.2726
-518,-419,-11.7968,12.8682,0.00210043,0.00176456,0.00165283,0.00359383,0.000271161,0.73477,0.00231081,0.0170521,706,1443,-11.7968,-12.8682
-511,-419,-11.802,13.4633,0.00215655,0.00178624,0.0017122,0.00369357,0.000249216,0.731537,0.00238366,0.0197877,713,1443,-11.802,-13.4633
-504,-419,-11.861,14.0499,0.00257844,0.00217751,0.00209494,0.00448248,0.000273467,0.737698,0.00290146,0.0190561,720,1443,-11.861,-14.05
-497,-419,-11.9004,14.6349,0.00333451,0.0029371,0.00278261,0.0059255,0.000346104,0.749754,0.00384017,0.0127543,727,1443,-11.9004,-14.6349
-490,-419,-11.9066,15.2228,0.00446087,0.00412641,0.00384121,0.00813849,0.000448799,0.763644,0.00528242,0.0117426,734,1443,-11.9065,-15.2228
-483,-419,-11.9332,15.814,0.00599632,0.00578832,0.00529049,0.0111838,0.000600813,0.77557,0.0072639,0.0105029,741,1443,-11.9332,-15.814
-476,-419,-11.9113,16.4575,0.00793079,0.00788957,0.00716796,0.0150782,0.000742197,0.78396,0.00981407,0.0166143,748,1443,-11.9113,-16.4575
-469,-419,-11.7759,17.3101,0.0103639,0.0105246,0.00949599,0.0199406,0.000947919,0.789626,0.0129893,0.0488956,755,1443,-11.7759,-17.3101
-462,-419,-11.5347,18.1563,0,0,0,0,0,0,0,-1,762,1443,-11.5347,-18.1562
-455,-419,-7.35645,11.9451,0,0,0,0,0,0,0,-1,769,1443,-7.35646,-11.9451
-448,-419,-7.49109,9.92444,0,0,0,0,0,0,0,-1,776,1443,-7.49109,-9.92442
-441,-419,-7.65527,8.75574,0,0,0,0,0,0,0,-1,783,1443,-7.65525,-8.75568
-434,-419,-11.3724,12.3643,0,0,0,0,0,0,0,-1,790,1443,-11.3724,-12.3643
-427,-419,-8.23193,7.89404,0,0,0,0,0,0,0,-1,797,1443,-8.23193,-7.89404
-420,-419,-8.74091,6.36597,0,0,0,0,0,0,0,-1,804,1443,-8.74089,-6.366
-413,-419,-9.88391,6.53955,0,0,0,0,0,0,0,-1,811,1443,-9.8839,-6.53955
-406,-419,-10.3372,2.75195,0,0,0,0,0,0,0,-1,818,1443,-10.3372,-2.75201
-399,-419,-11.5999,1.40002,0,0,0,0,0,0,0,-1,825,1443,-11.5999,-1.39998
-392,-419,0,0,0,0,0,0,0,0,0,-1,832,1443,0,0
-385,-419,0,0,0,0,0,0,0,0,0,-1,839,1443,0,0
-378,-419,0,0,0,0,0,0,0,0,0,-1,846,1443,0,0
-371,-419,0,0,0,0,0,0,0,0,0,-1,853,1443,0,0
-364,-419,0,0,0,0,0,0,0,0,0,-1,860,1443,0,0
-357,-419,0,0,0,0,0,0,0,0,0,-1,867,1443,0,0
-350,-419,0,0,0,0,0,0,0,0,0,-1,874,1443,0,0
-343,-419,0,0,0,0,0,0,0,0,0,-1,881,1443,0,0
-336,-419,0,0,0,0,0,0,0,0,0,-1,888,1443,0,0
-329,-419,0,0,0,0,0,0,0,0,0,-1,895,1443,0,0
-322,-419,0,0,0,0,0,0,0,0,0,-1,902,1443,0,0
-315,-419,0,0,0,0,0,0,0,0,0,-1,909,1443,0,0
-308,-419,0,0,0,0,0,0,0,0,0,-1,916,1443,0,0
-301,-419,0,0,0,0,0,0,0,0,0,-1,923,1443,0,0
-294,-419,0,0,0,0,0,0,0,0,0,-1,930,1443,0,0
-287,-419,0,0,0,0,0,0,0,0,0,-1,937,1443,0,0
-280,-419,0,0,0,0,0,0,0,0,0,-1,944,1443,0,0
-273,-419,0,0,0,0,0,0,0,0,0,-1,951,1443,0,0
-266,-419,0,0,0,0,0,0,0,0,0,-1,958,1443,0,0
-259,-419,0,0,0,0,0,0,0,0,0,-1,965,1443,0,0
-252,-419,0,0,0,0,0,0,0,0,0,-1,972,1443,0,0
-245,-419,0,0,0,0,0,0,0,0,0,-1,979,1443,0,0
-238,-419,0,0,0,0,0,0,0,0,0,-1,986,1443,0,0
-231,-419,0,0,0,0,0,0,0,0,0,-1,993,1443,0,0
-224,-419,0,0,0,0,0,0,0,0,0,-1,1000,1443,0,0
-217,-419,0,0,0,0,0,0,0,0,0,-1,1007,1443,0,0
-210,-419,0,0,0,0,0,0,0,0,0,-1,1014,1443,0,0
-203,-419,0,0,0,0,0,0,0,0,0,-1,1021,1443,0,0
-196,-419,0,0,0,0,0,0,0,0,0,-1,1028,1443,0,0
-189,-419,0,0,0,0,0,0,0,0,0,-1,1035,1443,0,0
-182,-419,0,0,0,0,0,0,0,0,0,-1,1042,1443,0,0
-175,-419,0,0,0,0,0,0,0,0,0,-1,1049,1443,0,0
-168,-419,0,0,0,0,0,0,0,0,0,-1,1056,1443,0,0
-161,-419,0,0,0,0,0,0,0,0,0,-1,1063,1443,0,0
-154,-419,0,0,0,0,0,0,0,0,0,-1,1070,1443,0,0
-147,-419,0,0,0,0,0,0,0,0,0,-1,1077,1443,0,0
-140,-419,0,0,0,0,0,0,0,0,0,-1,1084,1443,0,0
-133,-419,0,0,0,0,0,0,0,0,0,-1,1091,1443,0,0
-126,-419,0,0,0,0,0,0,0,0,0,-1,1098,1443,0,0
-119,-419,0,0,0,0,0,0,0,0,0,-1,1105,1443,0,0
-112,-419,0,0,0,0,0,0,0,0,0,-1,1112,1443,0,0
-105,-419,0,0,0,0,0,0,0,0,0,-1,1119,1443,0,0
-98,-419,0,0,0,0,0,0,0,0,0,-1,1126,1443,0,0
-91,-419,0,0,0,0,0,0,0,0,0,-1,1133,1443,0,0
-84,-419,0,0,0,0,0,0,0,0,0,-1,1140,1443,0,0
-77,-419,0,0,0,0,0,0,0,0,0,-1,1147,1443,0,0
-70,-419,0,0,0,0,0,0,0,0,0,-1,1154,1443,0,0
-63,-419,0,0,0,0,0,0,0,0,0,-1,1161,1443,0,0
-56,-419,0,0,0,0,0,0,0,0,0,-1,1168,1443,0,0
-49,-419,0,0,0,0,0,0,0,0,0,-1,1175,1443,0,0
-42,-419,0,0,0,0,0,0,0,0,0,-1,1182,1443,0,0
-35,-419,0,0,0,0,0,0,0,0,0,-1,1189,1443,0,0
-28,-419,0,0,0,0,0,0,0,0,0,-1,1196,1443,0,0
-21,-419,0,0,0,0,0,0,0,0,0,-1,1203,1443,0,0
-14,-419,0,0,0,0,0,0,0,0,0,-1,1210,1443,0,0
-7,-419,0,0,0,0,0,0,0,0,0,-1,1217,1443,0,0
0,-419,0,0,0,0,0,0,0,0,0,-1,1224,1443,0,0
7,-419,0,0,0,0,0,0,0,0,0,-1,1231,1443,0,0
14,-419,0,0,0,0,0,0,0,0,0,-1,1238,1443,0,0
21,-419,0,0,0,0,0,0,0,0,0,-1,1245,1443,0,0
28,-419,0,0,0,0,0,0,0,0,0,-1,1252,1443,0,0
35,-419,0,0,0,0,0,0,0,0,0,-1,1259,1443,0,0
42,-419,0,0,0,0,0,0,0,0,0,-1,1266,1443,0,0
49,-419,0,0,0,0,0,0,0,0,0,-1,1273,1443,0,0
56,-419,0,0,0,0,0,0,0,0,0,-1,1280,1443,0,0
63,-419,0,0,0,0,0,0,0,0,0,-1,1287,1443,0,0
70,-419,0,0,0,0,0,0,0,0,0,-1,1294,1443,0,0
77,-419,0,0,0,0,0,0,0,0,0,-1,1301,1443,0,0
84,-419,0,0,0,0,0,0,0,0,0,-1,1308,1443,0,0
91,-419,0,0,0,0,0,0,0,0,0,-1,1315,1443,0,0
98,-419,0,0,0,0,0,0,0,0,0,-1,1322,1443,0,0
105,-419,0,0,0,0,0,0,0,0,0,-1,1329,1443,0,0
112,-419,0,0,0,0,0,0,0,0,0,-1,1336,1443,0,0
119,-419,0,0,0,0,0,0,0,0,0,-1,1343,1443,0,0
126,-419,0,0,0,0,0,0,0,0,0,-1,1350,1443,0,0
133,-419,0,0,0,0,0,0,0,0,0,-1,1357,1443,0,0
140,-419,0,0,0,0,0,0,0,0,0,-1,1364,1443,0,0
147,-419,0,0,0,0,0,0,0,0,0,-1,1371,1443,0,0
154,-419,0,0,0,0,0,0,0,0,0,-1,1378,1443,0,0
161,-419,0,0,0,0,0,0,0,0,0,-1,1385,1443,0,0
168,-419,0,0,0,0,0,0,0,0,0,-1,1392,1443,0,0
175,-419,0,0,0,0,0,0,0,0,0,-1,1399,1443,0,0
182,-419,0,0,0,0,0,0,0,0,0,-1,1406,1443,0,0
189,-419,0,0,0,0,0,0,0,0,0,-1,1413,1443,0,0
196,-419,0,0,0,0,0,0,0,0,0,-1,1420,1443,0,0
203,-419,0,0,0,0,0,0,0,0,0,-1,1427,1443,0,0
210,-419,0,0,0,0,0,0,0,0,0,-1,1434,1443,0,0
217,-419,0,0,0,0,0,0,0,0,0,-1,1441,1443,0,0
224,-419,0,0,0,0,0,0,0,0,0,-1,1448,1443,0,0
231,-419,0,0,0,0,0,0,0,0,0,-1,1455,1443,0,0
238,-419,0,0,0,0,0,0,0,0,0,-1,1462,1443,0,0
245,-419,0,0,0,0,0,0,0,0,0,-1,1469,1443,0,0
252,-419,0,0,0,0,0,0,0,0,0,-1,1476,1443,0,0
259,-419,0,0,0,0,0,0,0,0,0,-1,1483,1443,0,0
266,-419,0,0,0,0,0,0,0,0,0,-1,1490,1443,0,0
273,-419,0,0,0,0,0,0,0,0,0,-1,1497,1443,0,0
280,-419,0,0,0,0,0,0,0,0,0,-1,1504,1443,0,0
287,-419,0,0,0,0,0,0,0,0,0,-1,1511,1443,0,0
294,-419,0,0,0,0,0,0,0,0,0,-1,1518,1443,0,0
301,-419,0,0,0,0,0,0,0,0,0,-1,1525,1443,0,0
308,-419,0,0,0,0,0,0,0,0,0,-1,1532,1443,0,0
315,-419,0,0,0,0,0,0,0,0,0,-1,1539,1443,0,0
322,-419,0,0,0,0,0,0,0,0,0,-1,1546,1443,0,0
329,-419,0,0,0,0,0,0,0,0,0,-1,1553,1443,0,0
336,-419,0,0,0,0,0,0,0,0,0,-1,1560,1443,0,0
343,-419,0,0,0,0,0,0,0,0,0,-1,1567,1443,0,0
350,-419,0,0,0,0,0,0,0,0,0,-1,1574,1443,0,0
357,-419,0,0,0,0,0,0,0,0,0,-1,1581,1443,0,0
364,-419,0,0,0,0,0,0,0,0,0,-1,1588,1443,0,0
371,-419,0,0,0,0,0,0,0,0,0,-1,1595,1443,0,0
378,-419,0,0,0,0,0,0,0,0,0,-1,1602,1443,0,0
385,-419,0,0,0,0,0,0,0,0,0,-1,1609,1443,0,0
392,-419,0,0,0,0,0,0,0,0,0,-1,1616,1443,0,0
399,-419,0,0,0,0,0,0,0,0,0,-1,1623,1443,0,0
406,-419,0,0,0,0,0,0,0,0,0,-1,1630,1443,0,0
413,-419,0,0,0,0,0,0,0,0,0,-1,1637,1443,0,0
420,-419,0,0,0,0,0,0,0,0,0,-1,1644,1443,0,0
427,-419,0,0,0,0,0,0,0,0,0,-1,1651,1443,0,0
434,-419,0,0,0,0,0,0,0,0,0,-1,1658,1443,0,0
441,-419,0,0,0,0,0,0,0,0,0,-1,1665,1443,0,0
448,-419,0,0,0,0,0,0,0,0,0,-1,1672,1443,0,0
455,-419,0,0,0,0,0,0,0,0,0,-1,1679,1443,0,0
462,-419,0,0,0,0,0,0,0,0,0,-1,1686,1443,0,0
469,-419,0,0,0,0,0,0,0,0,0,-1,1693,1443,0,0
476,-419,0,0,0,0,0,0,0,0,0,-1,1700,1443,0,0
483,-419,0,0,0,0,0,0,0,0,0,-1,1707,1443,0,0
490,-419,0,0,0,0,0,0,0,0,0,-1,1714,1443,0,0
497,-419,0,0,0,0,0,0,0,0,0,-1,1721,1443,0,0
504,-419,0,0,0,0,0,0,0,0,0,-1,1728,1443,0,0
511,-419,20.3005,3.7959,0,0,0,0,0,0,0,-1,1735,1443,20.3005,-3.79584
518,-419,21.3154,2.03027,0,0,0,0,0,0,0,-1,1742,1443,21.3155,-2.03029
525,-419,28.3439,-1.24475,0,0,0,0,0,0,0,-1,1749,1443,28.3438,1.24471
532,-419,27.5902,-0.272583,0,0,0,0,0,0,0,-1,1756,1443,27.5902,0.272526
539,-419,26.5278,1.60583,0,0,0,0,0,0,0,-1,1763,1443,26.5279,-1.60579
546,-419,24.9509,2.77539,0,0,0,0,0,0,0,-1,1770,1443,24.9509,-2.77537
553,-419,24.118,3.75525,0,0,0,0,0,0,0,-1,1777,1443,24.1181,-3.75526
560,-419,11.8199,8.26343,0,0,0,0,0,0,0,-1,1784,1443,11.82,-8.26341
567,-419,21.5143,8.74719,0,0,0,0,0,0,0,-1,1791,1443,21.5143,-8.74722
574,-419,19.5886,6.46155,0,0,0,0,0,0,0,-1,1798,1443,19.5886,-6.46157
581,-419,20.7926,11.4265,0,0,0,0,0,0,0,-1,1805,1443,20.7926,-11.4265
588,-419,19.4242,12.5363,0,0,0,0,0,0,0,-1,1812,1443,19.4242,-12.5362
595,-419,22.9375,16.0151,0,0,0,0,0,0,0,-1,1819,1443,22.9375,-16.0152
602,-419,27.7809,18.5734,0,0,0,0,0,0,0,-1,1826,1443,27.7809,-18.5733
609,-419,27.7927,17.9637,0.00487779,0.0046209,-0.00433111,0.00908236,0.000416325,-0.770575,0.00592101,0.0218775,1833,1443,27.7927,-17.9637
616,-419,27.7814,17.4125,0.00364705,0.00314968,-0.00309076,0.00649911,0.000297622,-0.745254,0.00423702,0.0124609,1840,1443,27.7814,-17.4125
623,-419,27.766,16.8501,0.00278503,0.00210495,-0.00216933,0.00464081,0.000249174,-0.707657,0.00301425,0.00999173,1847,1443,27.766,-16.8502
630,-419,27.7604,16.2775,0.00227433,0.00131272,-0.00148317,0.00335268,0.000234366,-0.628657,0.00216124,0.0121123,1854,1443,27.7604,-16.2775
637,-419,27.7485,15.7075,0.00193921,0.000726439,-0.00093191,0.00244465,0.000220997,-0.496968,0.00156132,0.0130205,1861,1443,27.7485,-15.7075
644,-419,27.7202,15.17,0.00188648,0.000426747,-0.000543078,0.00206636,0.000246866,-0.319851,0.0013031,0.011768,1868,1443,27.7202,-15.17
651,-419,27.6835,14.6511,0.00202692,0.000320084,-0.000294633,0.00207634,0.000270656,-0.166214,0.00130341,0.0118553,1875,1443,27.6835,-14.6511
658,-419,27.6693,14.0848,0.00225196,0.000285123,-5.59557e-05,0.00225356,0.000283532,-0.0284189,0.00141734,0.0142765,1882,1443,27.6693,-14.0849
665,-419,27.683,13.5304,0.00258741,0.000293062,0.000235514,0.00261133,0.000269136,0.101243,0.00165847,0.0211671,1889,1443,27.6829,-13.5304
672,-419,27.7207,12.9039,0.00289568,0.000419404,0.000618142,0.0030414,0.000273676,0.231525,0.00194281,0.0309021,1896,1443,27.7206,-12.904
679,-419,27.8969,12.4031,0,0,0,0,0,0,0,-1,1903,1443,27.8968,-12.4031
686,-419,17.4127,8.03076,0,0,0,0,0,0,0,-1,1910,1443,17.4127,-8.03071
693,-419,8.76086,5.60535,0,0,0,0,0,0,0,-1,1917,1443,8.76091,-5.6054
700,-419,11.0498,4.85156,0,0,0,0,0,0,0,-1,1924,1443,11.0498,-4.85153
707,-419,9.5752,1.80042,0,0,0,0,0,0,0,-1,1931,1443,9.57523,-1.80037
714,-419,5.77576,-1.25061,0,0,0,0,0,0,0,-1,1938,1443,5.7757,1.25056
721,-419,0,0,0,0,0,0,0,0,0,-1,1945,1443,0,0
728,-419,0,0,0,0,0,0,0,0,0,-1,1952,1443,0,0
735,-419,0,0,0,0,0,0,0,0,0,-1,1959,1443,0,0
742,-419,0,0,0,0,0,0,0,0,0,-1,1966,1443,0,0
749,-419,0,0,0,0,0,0,0,0,0,-1,1973,1443,0,0
756,-419,0,0,0,0,0,0,0,0,0,-1,1980,1443,0,0
763,-419,0,0,0,0,0,0,0,0,0,-1,1987,1443,0,0
770,-419,0,0,0,0,0,0,0,0,0,-1,1994,1443,0,0
777,-419,0,0,0,0,0,0,0,0,0,-1,2001,1443,0,0
784,-419,0,0,0,0,0,0,0,0,0,-1,2008,1443,0,0
791,-419,0,0,0,0,0,0,0,0,0,-1,2015,1443,0,0
798,-419,0,0,0,0,0,0,0,0,0,-1,2022,1443,0,0
805,-419,0,0,0,0,0,0,0,0,0,-1,2029,1443,0,0
812,-419,0,0,0,0,0,0,0,0,0,-1,2036,1443,0,0
-700,-426,0,0,0,0,0,0,0,0,0,-1,524,1450,0,0
-693,-426,0,0,0,0,0,0,0,0,0,-1,531,1450,0,0
-686,-426,0,0,0,0,0,0,0,0,0,-1,538,1450,0,0
-679,-426,0,0,0,0,0,0,0,0,0,-1,545,1450,0,0
-672,-426,0,0,0,0,0,0,0,0,0,-1,552,1450,0,0
-665,-426,0,0,0,0,0,0,0,0,0,-1,559,1450,0,0
-658,-426,0,0,0,0,0,0,0,0,0,-1,566,1450,0,0
-651,-426,0,0,0,0,0,0,0,0,0,-1,573,1450,0,0
-644,-426,0,0,0,0,0,0,0,0,0,-1,580,1450,0,0
-637,-426,0,0,0,0,0,0,0,0,0,-1,587,1450,0,0
-630,-426,0,0,0,0,0,0,0,0,0,-1,594,1450,0,0
-623,-426,0,0,0,0,0,0,0,0,0,-1,601,1450,0,0
-616,-426,0,0,0,0,0,0,0,0,0,-1,608,1450,0,0
-609,-426,0,0,0,0,0,0,0,0,0,-1,615,1450,0,0
-602,-426,0,0,0,0,0,0,0,0,0,-1,622,1450,0,0
-595,-426,0,0,0,0,0,0,0,0,0,-1,629,1450,0,0
-588,-426,-10.184,-0.554321,0,0,0,0,0,0,0,-1,636,1450,-10.184,0.554321
-581,-426,-7.3349,1.48157,0,0,0,0,0,0,0,-1,643,1450,-7.33491,-1.48152
-574,-426,-5.02856,2.89319,0,0,0,0,0,0,0,-1,650,1450,-5.02858,-2.89319
-567,-426,-3.04797,1.72644,0,0,0,0,0,0,0,-1,657,1450,-3.04797,-1.72639
-560,-426,-5.55682,3.44397,0,0,0,0,0,0,0,-1,664,1450,-5.55684,-3.44399
-553,-426,-4.67017,6.66614,0,0,0,0,0,0,0,-1,671,1450,-4.67015,-6.66619
-546,-426,-7.58752,8.28882,0,0,0,0,0,0,0,-1,678,1450,-7.58752,-8.28878
-539,-426,-10.436,10.7441,0,0,0,0,0,0,0,-1,685,1450,-10.436,-10.7441
-532,-426,-11.2595,11.5833,0,0,0,0,0,0,0,-1,692,1450,-11.2595,-11.5832
-525,-426,-11.2392,12.2328,0.00241953,0.00254409,0.00223043,0.00471311,0.000250504,0.799356,0.00306199,0.0196691,699,1450,-11.2392,-12.2327
-518,-426,-11.2131,12.8998,0.00199874,0.00174399,0.00170878,0.00358489,0.000157846,0.748197,0.00233908,0.0164793,706,1450,-11.2131,-12.8997
-511,-426,-11.2239,13.5181,0.00196046,0.00164021,0.00164964,0.00345772,0.000142943,0.737017,0.00225901,0.0165338,713,1450,-11.2239,-13.5181
-504,-426,-11.2731,14.0806,0.00224001,0.00188659,0.00187176,0.00394338,0.000183218,0.738332,0.00257003,0.0161074,720,1450,-11.2731,-14.0806
-497,-426,-11.2919,14.6475,0.00283258,0.00248473,0.00238264,0.00504763,0.000269678,0.748965,0.00327889,0.0129001,727,1450,-11.2919,-14.6474
-490,-426,-11.3069,15.2531,0.00372966,0.00345817,0.0032132,0.00680998,0.000377848,0.764287,0.00441943,0.012604,734,1450,-11.3069,-15.2531
-483,-426,-11.3414,15.8302,0.00497918,0.00482811,0.0043644,0.0092687,0.000538591,0.776745,0.00600766,0.0123837,741,1450,-11.3414,-15.8301
-476,-426,-11.361,16.4202,0.00655947,0.00656002,0.00586106,0.0124208,0.000698688,0.785421,0.00805774,0.00996184,748,1450,-11.361,-16.4202
-469,-426,-11.3855,17.0134,0.00851512,0.00868913,0.00769312,0.0162957,0.000908513,0.791053,0.010574,0.0113562,755,1450,-11.3855,-17.0134
-462,-426,-11.3221,17.6528,0,0,0,0,0,0,0,-1,762,1450,-11.3221,-17.6528
-455,-426,-10.215,17.7007,0,0,0,0,0,0,0,-1,769,1450,-10.215,-17.7007
-448,-426,-6.46545,10.1322,0,0,0,0,0,0,0,-1,776,1450,-6.46543,-10.1322
-441,-426,-10.9547,11.4747,0,0,0,0,0,0,0,-1,783,1450,-10.9546,-11.4748
-434,-426,-10.4998,13.6189,0,0,0,0,0,0,0,-1,790,1450,-10.4997,-13.6189
-427,-426,-9.36627,13.7396,0,0,0,0,0,0,0,-1,797,1450,-9.36628,-13.7396
-420,-426,-5.33765,7.95044,0,0,0,0,0,0,0,-1,804,1450,-5.33766,-7.95041
-413,-426,-10.1148,5.0415,0,0,0,0,0,0,0,-1,811,1450,-10.1148,-5.04152
-406,-426,-11.4199,3.6438,0,0,0,0,0,0,0,-1,818,1450,-11.4198,-3.64382
-399,-426,-12.7595,2.29004,0,0,0,0,0,0,0,-1,825,1450,-12.7595,-2.29003
-392,-426,-12.4147,0.537354,0,0,0,0,0,0,0,-1,832,1450,-12.4147,-0.53731
-385,-426,0,0,0,0,0,0,0,0,0,-1,839,1450,0,0
-378,-426,0,0,0,0,0,0,0,0,0,-1,846,1450,0,0
-371,-426,0,0,0,0,0,0,0,0,0,-1,853,1450,0,0
-364,-426,0,0,0,0,0,0,0,0,0,-1,860,1450,0,0
-357,-426,0,0,0,0,0,0,0,0,0,-1,867,1450,0,0
-350,-426,0,0,0,0,0,0,0,0,0,-1,874,1450,0,0
-343,-426,0,0,0,0,0,0,0,0,0,-1,881,1450,0,0
-336,-426,0,0,0,0,0,0,0,0,0,-1,888,1450,0,0
-329,-426,0,0,0,0,0,0,0,0,0,-1,895,1450,0,0
-322,-426,0,0,0,0,0,0,0,0,0,-1,902,1450,0,0
-315,-426,0,0,0,0,0,0,0,0,0,-1,909,1450,0,0
-308,-426,0,0,0,0,0,0,0,0,0,-1,916,1450,0,0
-301,-426,0,0,0,0,0,0,0,0,0,-1,923,1450,0,0
-294,-426,0,0,0,0,0,0,0,0,0,-1,930,1450,0,0
-287,-426,0,0,0,0,0,0,0,0,0,-1,937,1450,0,0
-280,-426,0,0,0,0,0,0,0,0,0,-1,944,1450,0,0
-273,-426,0,0,0,0,0,0,0,0,0,-1,951,1450,0,0
-266,-426,0,0,0,0,0,0,0,0,0,-1,958,1450,0,0
-259,-426,0,0,0,0,0,0,0,0,0,-1,965,1450,0,0
-252,-426,0,0,0,0,0,0,0,0,0,-1,972,1450,0,0
-245,-426,0,0,0,0,0,0,0,0,0,-1,979,1450,0,0
-238,-426,0,0,0,0,0,0,0,0,0,-1,986,1450,0,0
-231,-426,0,0,0,0,0,0,0,0,0,-1,993,1450,0,0
-224,-426,0,0,0,0,0,0,0,0,0,-1,1000,1450,0,0
-217,-426,0,0,0,0,0,0,0,0,0,-1,1007,1450,0,0
-210,-426,0,0,0,0,0,0,0,0,0,-1,1014,1450,0,0
-203,-426,0,0,0,0,0,0,0,0,0,-1,1021,1450,0,0
-196,-426,0,0,0,0,0,0,0,0,0,-1,1028,1450,0,0
-189,-426,0,0,0,0,0,0,0,0,0,-1,1035,1450,0,0
-182,-426,0,0,0,0,0,0,0,0,0,-1,1042,1450,0,0
-175,-426,0,0,0,0,0,0,0,0,0,-1,1049,1450,0,0
-168,-426,0,0,0,0,0,0,0,0,0,-1,1056,1450,0,0
-161,-426,0,0,0,0,0,0,0,0,0,-1,1063,1450,0,0
-154,-426,0,0,0,0,0,0,0,0,0,-1,1070,1450,0,0
-147,-426,0,0,0,0,0,0,0,0,0,-1,1077,1450,0,0
-140,-426,0,0,0,0,0,0,0,0,0,-1,1084,1450,0,0
-133,-426,0,0,0,0,0,0,0,0,0,-1,1091,1450,0,0
-126,-426,0,0,0,0,0,0,0,0,0,-1,1098,1450,0,0
-119,-426,0,0,0,0,0,0,0,0,0,-1,1105,1450,0,0
-112,-426,0,0,0,0,0,0,0,0,0,-1,1112,1450,0,0
-105,-426,0,0,0,0,0,0,0,0,0,-1,1119,1450,0,0
-98,-426,0,0,0,0,0,0,0,0,0,-1,1126,1450,0,0
-91,-426,0,0,0,0,0,0,0,0,0,-1,1133,1450,0,0
-84,-426,0,0,0,0,0,0,0,0,0,-1,1140,1450,0,0
-77,-426,0,0,0,0,0,0,0,0,0,-1,1147,1450,0,0
-70,-426,0,0,0,0,0,0,0,0,0,-1,1154,1450,0,0
-63,-426,0,0,0,0,0,0,0,0,0,-1,1161,1450,0,0
-56,-426,0,0,0,0,0,0,0,0,0,-1,1168,1450,0,0
-49,-426,0,0,0,0,0,0,0,0,0,-1,1175,1450,0,0
-42,-426,0,0,0,0,0,0,0,0,0,-1,1182,1450,0,0
-35,-426,0,0,0,0,0,0,0,0,0,-1,1189,1450,0,0
-28,-426,0,0,0,0,0,0,0,0,0,-1,1196,1450,0,0
-21,-426,0,0,0,0,0,0,0,0,0,-1,1203,1450,0,0
-14,-426,0,0,0,0,0,0,0,0,0,-1,1210,1450,0,0
-7,-426,0,0,0,0,0,0,0,0,0,-1,1217,1450,0,0
0,-426,0,0,0,0,0,0,0,0,0,-1,1224,1450,0,0
7,-426,0,0,0,0,0,0,0,0,0,-1,1231,1450,0,0
14,-426,0,0,0,0,0,0,0,0,0,-1,1238,1450,0,0
21,-426,0,0,0,0,0,0,0,0,0,-1,1245,1450,0,0
28,-426,0,0,0,0,0,0,0,0,0,-1,1252,1450,0,0
35,-426,0,0,0,0,0,0,0,0,0,-1,1259,1450,0,0
42,-426,0,0,0,0,0,0,0,0,0,-1,1266,1450,0,0
49,-426,0,0,0,0,0,0,0,0,0,-1,1273,1450,0,0
56,-426,0,0,0,0,0,0,0,0,0,-1,1280,1450,0,0
63,-426,0,0,0,0,0,0,0,0,0,-1,1287,1450,0,0
70,-426,0,0,0,0,0,0,0,0,0,-1,1294,1450,0,0
77,-426,0,0,0,0,0,0,0,0,0,-1,1301,1450,0,0
84,-426,0,0,0,0,0,0,0,0,0,-1,1308,1450,0,0
91,-426,0,0,0,0,0,0,0,0,0,-1,1315,1450,0,0
98,-426,0,0,0,0,0,0,0,0,0,-1,1322,1450,0,0
105,-426,0,0,0,0,0,0,0,0,0,-1,1329,1450,0,0
112,-426,0,0,0,0,0,0,0,0,0,-1,1336,1450,0,0
119,-426,0,0,0,0,0,0,0,0,0,-1,1343,1450,0,0
126,-426,0,0,0,0,0,0,0,0,0,-1,1350,1450,0,0
133,-426,0,0,0,0,0,0,0,0,0,-1,1357,1450,0,0
140,-426,0,0,0,0,0,0,0,0,0,-1,1364,1450,0,0
147,-426,0,0,0,0,0,0,0,0,0,-1,1371,1450,0,0
154,-426,0,0,0,0,0,0,0,0,0,-1,1378,1450,0,0
161,-426,0,0,0,0,0,0,0,0,0,-1,1385,1450,0,0
168,-426,0,0,0,0,0,0,0,0,0,-1,1392,1450,0,0
175,-426,0,0,0,0,0,0,0,0,0,-1,1399,1450,0,0
182,-426,0,0,0,0,0,0,0,0,0,-1,1406,1450,0,0
189,-426,0,0,0,0,0,0,0,0,0,-1,1413,1450,0,0
196,-426,0,0,0,0,0,0,0,0,0,-1,1420,1450,0,0
203,-426,0,0,0,0,0,0,0,0,0,-1,1427,1450,0,0
210,-426,0,0,0,0,0,0,0,0,0,-1,1434,1450,0,0
217,-426,0,0,0,0,0,0,0,0,0,-1,1441,1450,0,0
224,-426,0,0,0,0,0,0,0,0,0,-1,1448,1450,0,0
231,-426,0,0,0,0,0,0,0,0,0,-1,1455,1450,0,0
238,-426,0,0,0,0,0,0,0,0,0,-1,1462,1450,0,0
245,-426,0,0,0,0,0,0,0,0,0,-1,1469,1450,0,0
252,-426,0,0,0,0,0,0,0,0,0,-1,1476,1450,0,0
259,-426,0,0,0,0,0,0,0,0,0,-1,1483,1450,0,0
266,-426,0,0,0,0,0,0,0,0,0,-1,1490,1450,0,0
273,-426,0,0,0,0,0,0,0,0,0,-1,1497,1450,0,0
280,-426,0,0,0,0,0,0,0,0,0,-1,1504,1450,0,0
287,-426,0,0,0,0,0,0,0,0,0,-1,1511,1450,0,0
294,-426,0,0,0,0,0,0,0,0,0,-1,1518,1450,0,0
301,-426,0,0,0,0,0,0,0,0,0,-1,1525,1450,0,0
308,-426,0,0,0,0,0,0,0,0,0,-1,1532,1450,0,0
315,-426,0,0,0,0,0,0,0,0,0,-1,1539,1450,0,0
322,-426,0,0,0,0,0,0,0,0,0,-1,1546,1450,0,0
329,-426,0,0,0,0,0,0,0,0,0,-1,1553,1450,0,0
336,-426,0,0,0,0,0,0,0,0,0,-1,1560,1450,0,0
343,-426,0,0,0,0,0,0,0,0,0,-1,1567,1450,0,0
350,-426,0,0,0,0,0,0,0,0,0,-1,1574,1450,0,0
357,-426,0,0,0,0,0,0,0,0,0,-1,1581,1450,0,0
364,-426,0,0,0,0,0,0,0,0,0,-1,1588,1450,0,0
371,-426,0,0,0,0,0,0,0,0,0,-1,1595,1450,0,0
378,-426,0,0,0,0,0,0,0,0,0,-1,1602,1450,0,0
385,-426,0,0,0,0,0,0,0,0,0,-1,1609,1450,0,0
392,-426,0,0,0,0,0,0,0,0,0,-1,1616,1450,0,0
399,-426,0,0,0,0,0,0,0,0,0,-1,1623,1450,0,0
406,-426,0,0,0,0,0,0,0,0,0,-1,1630,1450,0,0
413,-426,0,0,0,0,0,0,0,0,0,-1,1637,1450,0,0
420,-426,0,0,0,0,0,0,0,0,0,-1,1644,1450,0,0
427,-426,0,0,0,0,0,0,0,0,0,-1,1651,1450,0,0
434,-426,0,0,0,0,0,0,0,0,0,-1,1658,1450,0,0
441,-426,0,0,0,0,0,0,0,0,0,-1,1665,1450,0,0
448,-426,0,0,0,0,0,0,0,0,0,-1,1672,1450,0,0
455,-426,0,0,0,0,0,0,0,0,0,-1,1679,1450,0,0
462,-426,0,0,0,0,0,0,0,0,0,-1,1686,1450,0,0
469,-426,0,0,0,0,0,0,0,0,0,-1,1693,1450,0,0
476,-426,0,0,0,0,0,0,0,0,0,-1,1700,1450,0,0
483,-426,0,0,0,0,0,0,0,0,0,-1,1707,1450,0,0
490,-426,0,0,0,0,0,0,0,0,0,-1,1714,1450,0,0
497,-426,0,0,0,0,0,0,0,0,0,-1,1721,1450,0,0
504,-426,20.6873,3.38367,0,0,0,0,0,0,0,-1,1728,1450,20.6873,-3.38361
511,-426,19.6676,3.53748,0,0,0,0,0,0,0,-1,1735,1450,19.6676,-3.53749
518,-426,18.6853,3.32288,0,0,0,0,0,0,0,-1,1742,1450,18.6853,-3.3229
525,-426,18.9552,2.71033,0,0,0,0,0,0,0,-1,1749,1450,18.9552,-2.71034
532,-426,19.4333,2.70764,0,0,0,0,0,0,0,-1,1756,1450,19.4334,-2.70764
539,-426,25.1482,2.56287,0,0,0,0,0,0,0,-1,1763,1450,25.1482,-2.56286
546,-426,24.1136,3.75659,0,0,0,0,0,0,0,-1,1770,1450,24.1136,-3.7566
553,-426,23.0791,4.95032,0,0,0,0,0,0,0,-1,1777,1450,23.0791,-4.95034
560,-426,12.9688,11.8289,0,0,0,0,0,0,0,-1,1784,1450,12.9688,-11.8288
567,-426,13.6388,11.5623,0,0,0,0,0,0,0,-1,1791,1450,13.6388,-11.5623
574,-426,14.3943,11.0286,0,0,0,0,0,0,0,-1,1798,1450,14.3942,-11.0285
581,-426,16.3879,11.4653,0,0,0,0,0,0,0,-1,1805,1450,16.3879,-11.4653
588,-426,18.1212,12.5547,0,0,0,0,0,0,0,-1,1812,1450,18.1212,-12.5547
595,-426,27.0012,19.1298,0,0,0,0,0,0,0,-1,1819,1450,27.0012,-19.1297
602,-426,27.1537,18.5548,0.00586384,0.00551762,-0.00510945,0.0108031,0.000578348,-0.768465,0.00701724,0.0418515,1826,1450,27.1537,-18.5548
609,-426,27.236,17.9662,0.00452757,0.0039886,-0.00378409,0.00805176,0.000464408,-0.749851,0.00521993,0.0139529,1833,1450,27.2359,-17.9661
616,-426,27.2279,17.4077,0.00344217,0.00277691,-0.00274106,0.0058707,0.000348371,-0.725018,0.003803,0.0154201,1840,1450,27.2279,-17.4077
623,-426,27.2167,16.8615,0.00271877,0.00186338,-0.0019488,0.00428626,0.000295893,-0.677378,0.00276416,0.0121604,1847,1450,27.2167,-16.8614
630,-426,27.225,16.3131,0.00230633,0.00113781,-0.00135252,0.00319539,0.000248753,-0.581514,0.00205237,0.0130214,1854,1450,27.225,-16.3131
637,-426,27.2108,15.7726,0.00202904,0.000610033,-0.000863634,0.00243724,0.000201835,-0.441531,0.0015619,0.0133546,1861,1450,27.2108,-15.7725
644,-426,27.1641,15.2217,0.00201986,0.000372405,-0.000528935,0.00217506,0.000217204,-0.28541,0.00138333,0.0131638,1868,1450,27.1641,-15.2217
651,-426,27.1273,14.6835,0.00217978,0.000334561,-0.000346805,0.00224281,0.000271533,-0.179778,0.00141342,0.0122999,1875,1450,27.1273,-14.6835
658,-426,27.1265,14.0791,0.0024746,0.000392713,-0.000193517,0.00249243,0.000374878,-0.0919033,0.00155183,0.0121659,1882,1450,27.1264,-14.0791
665,-426,27.1366,13.4155,0.002884,0.000545286,6.65209e-06,0.00288402,0.000545267,0.00284431,0.00176916,0.0259556,1889,1450,27.1366,-13.4155
672,-426,27.2676,12.8958,0,0,0,0,0,0,0,-1,1896,1450,27.2675,-12.8957
679,-426,17.1522,8.15784,0,0,0,0,0,0,0,-1,1903,1450,17.1522,-8.15784
686,-426,13.5326,8.03711,0,0,0,0,0,0,0,-1,1910,1450,13.5326,-8.03717
693,-426,11.8607,6.45215,0,0,0,0,0,0,0,-1,1917,1450,11.8607,-6.45215
700,-426,9.24304,2.95447,0,0,0,0,0,0,0,-1,1924,1450,9.24305,-2.95442
707,-426,8.44519,-1.21448,0,0,0,0,0,0,0,-1,1931,1450,8.44514,1.21454
714,-426,0,0,0,0,0,0,0,0,0,-1,1938,1450,0,0
721,-426,0,0,0,0,0,0,0,0,0,-1,1945,1450,0,0
728,-426,0,0,0,0,0,0,0,0,0,-1,1952,1450,0,0
735,-426,0,0,0,0,0,0,0,0,0,-1,1959,1450,0,0
742,-426,0,0,0,0,0,0,0,0,0,-1,1966,1450,0,0
749,-426,0,0,0,0,0,0,0,0,0,-1,1973,1450,0,0
756,-426,0,0,0,0,0,0,0,0,0,-1,1980,1450,0,0
763,-426,0,0,0,0,0,0,0,0,0,-1,1987,1450,0,0
770,-426,0,0,0,0,0,0,0,0,0,-1,1994,1450,0,0
777,-426,0,0,0,0,0,0,0,0,0,-1,2001,1450,0,0
784,-426,0,0,0,0,0,0,0,0,0,-1,2008,1450,0,0
791,-426,0,0,0,0,0,0,0,0,0,-1,2015,1450,0,0
798,-426,0,0,0,0,0,0,0,0,0,-1,2022,1450,0,0
805,-426,0,0,0,0,0,0,0,0,0,-1,2029,1450,0,0
812,-426,0,0,0,0,0,0,0,0,0,-1,2036,1450,0,0
-700,-433,0,0,0,0,0,0,0,0,0,-1,524,1457,0,0
-693,-433,0,0,0,0,0,0,0,0,0,-1,531,1457,0,0
-686,-433,0,0,0,0,0,0,0,0,0,-1,538,1457,0,0
-679,-433,0,0,0,0,0,0,0,0,0,-1,545,1457,0,0
-672,-433,0,0,0,0,0,0,0,0,0,-1,552,1457,0,0
-665,-433,0,0,0,0,0,0,0,0,0,-1,559,1457,0,0
-658,-433,0,0,0,0,0,0,0,0,0,-1,566,1457,0,0
-651,-433,0,0,0,0,0,0,0,0,0,-1,573,1457,0,0
-644,-433,0,0,0,0,0,0,0,0,0,-1,580,1457,0,0
-637,-433,0,0,0,0,0,0,0,0,0,-1,587,1457,0,0
-630,-433,0,0,0,0,0,0,0,0,0,-1,594,1457,0,0
-623,-433,0,0,0,0,0,0,0,0,0,-1,601,1457,0,0
-616,-433,0,0,0,0,0,0,0,0,0,-1,608,1457,0,0
-609,-433,0,0,0,0,0,0,0,0,0,-1,615,1457,0,0
-602,-433,0,0,0,0,0,0,0,0,0,-1,622,1457,0,0
-595,-433,0,0,0,0,0,0,0,0,0,-1,629,1457,0,0
-588,-433,-10.3756,-0.467041,0,0,0,0,0,0,0,-1,636,1457,-10.3756,0.467081
-581,-433,-8.12201,0.884033,0,0,0,0,0,0,0,-1,643,1457,-8.12204,-0.884056
-574,-433,-5.86847,2.23523,0,0,0,0,0,0,0,-1,650,1457,-5.86844,-2.23519
-567,-433,-5.42255,1.16833,0,0,0,0,0,0,0,-1,657,1457,-5.42254,-1.1683
-560,-433,-6.84027,1.86414,0,0,0,0,0,0,0,-1,664,1457,-6.84026,-1.86412
-553,-433,-5.74017,1.79163,0,0,0,0,0,0,0,-1,671,1457,-5.74015,-1.79166
-546,-433,-6.9668,8.25073,0,0,0,0,0,0,0,-1,678,1457,-6.96679,-8.25074
-539,-433,-7.3136,8.75659,0,0,0,0,0,0,0,-1,685,1457,-7.31362,-8.75659
-532,-433,-10.5116,11.2261,0,0,0,0,0,0,0,-1,692,1457,-10.5116,-11.2261
-525,-433,-10.6568,12.2327,0,0,0,0,0,0,0,-1,699,1457,-10.6568,-12.2327
-518,-433,-10.6419,12.9136,0.00202126,0.00183407,0.00191337,0.00384332,1.20082e-05,0.760959,0.00255822,0.0172612,706,1457,-10.6419,-12.9136
-511,-433,-10.6704,13.5364,0.00189269,0.00160485,0.00172457,0.00347933,1.82033e-05,0.743768,0.00231351,0.0169565,713,1457,-10.6704,-13.5364
-504,-433,-10.6885,14.1095,0.002016,0.00168111,0.00175339,0.00360993,8.71854e-05,0.737793,0.00237809,0.0135355,720,1457,-10.6885,-14.1095
-497,-433,-10.7023,14.6741,0.00244483,0.00210086,0.00207814,0.00435809,0.000187603,0.744113,0.00284492,0.0146342,727,1457,-10.7023,-14.674
-490,-433,-10.7518,15.2684,0.0031276,0.00284679,0.00267717,0.00566805,0.000306347,0.7592,0.00368084,0.0167206,734,1457,-10.7518,-15.2685
-483,-433,-10.7784,15.8789,0.00410648,0.0039198,0.0035429,0.00755727,0.000469013,0.772229,0.00488934,0.016855,741,1457,-10.7784,-15.8789
-476,-433,-10.7856,16.4777,0.00536701,0.00529229,0.00470913,0.0100389,0.000620379,0.781432,0.00649571,0.0110192,748,1457,-10.7856,-16.4776
-469,-433,-10.8048,17.056,0.00694473,0.00697897,0.00620773,0.0131696,0.000754095,0.786777,0.00853948,0.0109326,755,1457,-10.8048,-17.056
-462,-433,-10.8319,17.6411,0,0,0,0,0,0,0,-1,762,1457,-10.8319,-17.6411
-455,-433,-10.3182,18.5469,0,0,0,0,0,0,0,-1,769,1457,-10.3182,-18.5469
-448,-433,-6.94812,14.5563,0,0,0,0,0,0,0,-1,776,1457,-6.94809,-14.5562
-441,-433,-9.97485,14.0258,0,0,0,0,0,0,0,-1,783,1457,-9.97488,-14.0257
-434,-433,-9.41205,14.2297,0,0,0,0,0,0,0,-1,790,1457,-9.41205,-14.2297
-427,-433,-8.67419,13.6827,0,0,0,0,0,0,0,-1,797,1457,-8.67422,-13.6827
-420,-433,-5.74658,9.49121,0,0,0,0,0,0,0,-1,804,1457,-5.7466,-9.49119
-413,-433,-3.63074,5.5813,0,0,0,0,0,0,0,-1,811,1457,-3.63072,-5.58129
-406,-433,-12.3472,4.69373,0,0,0,0,0,0,0,-1,818,1457,-12.3472,-4.69374
-399,-433,-12.055,2.83594,0,0,0,0,0,0,0,-1,825,1457,-12.055,-2.83594
-392,-433,-12.9772,1.6228,0,0,0,0,0,0,0,-1,832,1457,-12.9772,-1.62282
-385,-433,-13.7999,0.514771,0,0,0,0,0,0,0,-1,839,1457,-13.7999,-0.514788
-378,-433,0,0,0,0,0,0,0,0,0,-1,846,1457,0,0
-371,-433,0,0,0,0,0,0,0,0,0,-1,853,1457,0,0
-364,-433,0,0,0,0,0,0,0,0,0,-1,860,1457,0,0
-357,-433,0,0,0,0,0,0,0,0,0,-1,867,1457,0,0
-350,-433,0,0,0,0,0,0,0,0,0,-1,874,1457,0,0
-343,-433,0,0,0,0,0,0,0,0,0,-1,881,1457,0,0
-336,-433,0,0,0,0,0,0,0,0,0,-1,888,1457,0,0
-329,-433,0,0,0,0,0,0,0,0,0,-1,895,1457,0,0
-322,-433,0,0,0,0,0,0,0,0,0,-1,902,1457,0,0
-315,-433,0,0,0,0,0,0,0,0,0,-1,909,1457,0,0
-308,-433,0,0,0,0,0,0,0,0,0,-1,916,1457,0,0
-301,-433,0,0,0,0,0,0,0,0,0,-1,923,1457,0,0
-294,-433,0,0,0,0,0,0,0,0,0,-1,930,1457,0,0
-287,-433,0,0,0,0,0,0,0,0,0,-1,937,1457,0,0
-280,-433,0,0,0,0,0,0,0,0,0,-1,944,1457,0,0
-273,-433,0,0,0,0,0,0,0,0,0,-1,951,1457,0,0
-266,-433,0,0,0,0,0,0,0,0,0,-1,958,1457,0,0
-259,-433,0,0,0,0,0,0,0,0,0,-1,965,1457,0,0
-252,-433,0,0,0,0,0,0,0,0,0,-1,972,1457,0,0
-245,-433,0,0,0,0,0,0,0,0,0,-1,979,1457,0,0
-238,-433,0,0,0,0,0,0,0,0,0,-1,986,1457,0,0
-231,-433,0,0,0,0,0,0,0,0,0,-1,993,1457,0,0
-224,-433,0,0,0,0,0,0,0,0,0,-1,1000,1457,0,0
-217,-433,0,0,0,0,0,0,0,0,0,-1,1007,1457,0,0
-210,-433,0,0,0,0,0,0,0,0,0,-1,1014,1457,0,0
-203,-433,0,0,0,0,0,0,0,0,0,-1,1021,1457,0,0
-196,-433,0,0,0,0,0,0,0,0,0,-1,1028,1457,0,0
-189,-433,0,0,0,0,0,0,0,0,0,-1,1035,1457,0,0
-182,-433,0,0,0,0,0,0,0,0,0,-1,1042,1457,0,0
-175,-433,0,0,0,0,0,0,0,0,0,-1,1049,1457,0,0
-168,-433,0,0,0,0,0,0,0,0,0,-1,1056,1457,0,0
-161,-433,0,0,0,0,0,0,0,0,0,-1,1063,1457,0,0
-154,-433,0,0,0,0,0,0,0,0,0,-1,1070,1457,0,0
-147,-433,0,0,0,0,0,0,0,0,0,-1,1077,1457,0,0
-140,-433,0,0,0,0,0,0,0,0,0,-1,1084,1457,0,0
-133,-433,0,0,0,0,0,0,0,0,0,-1,1091,1457,0,0
-126,-433,0,0,0,0,0,0,0,0,0,-1,1098,1457,0,0
-119,-433,0,0,0,0,0,0,0,0,0,-1,1105,1457,0,0
-112,-433,0,0,0,0,0,0,0,0,0,-1,1112,1457,0,0
-105,-433,0,0,0,0,0,0,0,0,0,-1,1119,1457,0,0
-98,-433,0,0,0,0,0,0,0,0,0,-1,1126,1457,0,0
-91,-433,0,0,0,0,0,0,0,0,0,-1,1133,1457,0,0
-84,-433,0,0,0,0,0,0,0,0,0,-1,1140,1457,0,0
-77,-433,0,0,0,0,0,0,0,0,0,-1,1147,1457,0,0
-70,-433,0,0,0,0,0,0,0,0,0,-1,1154,1457,0,0
-63,-433,0,0,0,0,0,0,0,0,0,-1,1161,1457,0,0
-56,-433,0,0,0,0,0,0,0,0,0,-1,1168,1457,0,0
-49,-433,0,0,0,0,0,0,0,0,0,-1,1175,1457,0,0
-42,-433,0,0,0,0,0,0,0,0,0,-1,1182,1457,0,0
-35,-433,0,0,0,0,0,0,0,0,0,-1,1189,1457,0,0
-28,-433,0,0,0,0,0,0,0,0,0,-1,1196,1457,0,0
-21,-433,0,0,0,0,0,0,0,0,0,-1,1203,1457,0,0
-14,-433,0,0,0,0,0,0,0,0,0,-1,1210,1457,0,0
-7,-433,0,0,0,0,0,0,0,0,0,-1,1217,1457,0,0
0,-433,0,0,0,0,0,0,0,0,0,-1,1224,1457,0,0
7,-433,0,0,0,0,0,0,0,0,0,-1,1231,1457,0,0
14,-433,0,0,0,0,0,0,0,0,0,-1,1238,1457,0,0
21,-433,0,0,0,0,0,0,0,0,0,-1,1245,1457,0,0
28,-433,0,0,0,0,0,0,0,0,0,-1,1252,1457,0,0
35,-433,0,0,0,0,0,0,0,0,0,-1,1259,1457,0,0
42,-433,0,0,0,0,0,0,0,0,0,-1,1266,1457,0,0
49,-433,0,0,0,0,0,0,0,0,0,-1,1273,1457,0,0
56,-433,0,0,0,0,0,0,0,0,0,-1,1280,1457,0,0
63,-433,0,0,0,0,0,0,0,0,0,-1,1287,1457,0,0
70,-433,0,0,0,0,0,0,0,0,0,-1,1294,1457,0,0
77,-433,0,0,0,0,0,0,0,0,0,-1,1301,1457,0,0
84,-433,0,0,0,0,0,0,0,0,0,-1,1308,1457,0,0
91,-433,0,0,0,0,0,0,0,0,0,-1,1315,1457,0,0
98,-433,0,0,0,0,0,0,0,0,0,-1,1322,1457,0,0
105,-433,0,0,0,0,0,0,0,0,0,-1,1329,1457,0,0
112,-433,0,0,0,0,0,0,0,0,0,-1,1336,1457,0,0
119,-433,0,0,0,0,0,0,0,0,0,-1,1343,1457,0,0
126,-433,0,0,0,0,0,0,0,0,0,-1,1350,1457,0,0
133,-433,0,0,0,0,0,0,0,0,0,-1,1357,1457,0,0
140,-433,0,0,0,0,0,0,0,0,0,-1,1364,1457,0,0
147,-433,0,0,0,0,0,0,0,0,0,-1,1371,1457,0,0
154,-433,0,0,0,0,0,0,0,0,0,-1,1378,1457,0,0
161,-433,0,0,0,0,0,0,0,0,0,-1,1385,1457,0,0
168,-433,0,0,0,0,0,0,0,0,0,-1,1392,1457,0,0
175,-433,0,0,0,0,0,0,0,0,0,-1,1399,1457,0,0
182,-433,0,0,0,0,0,0,0,0,0,-1,1406,1457,0,0
189,-433,0,0,0,0,0,0,0,0,0,-1,1413,1457,0,0
196,-433,0,0,0,0,0,0,0,0,0,-1,1420,1457,0,0
203,-433,0,0,0,0,0,0,0,0,0,-1,1427,1457,0,0
210,-433,0,0,0,0,0,0,0,0,0,-1,1434,1457,0,0
217,-433,0,0,0,0,0,0,0,0,0,-1,1441,1457,0,0
224,-433,0,0,0,0,0,0,0,0,0,-1,1448,1457,0,0
231,-433,0,0,0,0,0,0,0,0,0,-1,1455,1457,0,0
238,-433,0,0,0,0,0,0,0,0,0,-1,1462,1457,0,0
245,-433,0,0,0,0,0,0,0,0,0,-1,1469,1457,0,0
252,-433,0,0,0,0,0,0,0,0,0,-1,1476,1457,0,0
259,-433,0,0,0,0,0,0,0,0,0,-1,1483,1457,0,0
266,-433,0,0,0,0,0,0,0,0,0,-1,1490,1457,0,0
273,-433,0,0,0,0,0,0,0,0,0,-1,1497,1457,0,0
280,-433,0,0,0,0,0,0,0,0,0,-1,1504,1457,0,0
287,-433,0,0,0,0,0,0,0,0,0,-1,1511,1457,0,0
294,-433,0,0,0,0,0,0,0,0,0,-1,1518,1457,0,0
301,-433,0,0,0,0,0,0,0,0,0,-1,1525,1457,0,0
308,-433,0,0,0,0,0,0,0,0,0,-1,1532,1457,0,0
315,-433,0,0,0,0,0,0,0,0,0,-1,1539,1457,0,0
322,-433,0,0,0,0,0,0,0,0,0,-1,1546,1457,0,0
329,-433,0,0,0,0,0,0,0,0,0,-1,1553,1457,0,0
336,-433,0,0,0,0,0,0,0,0,0,-1,1560,1457,0,0
343,-433,0,0,0,0,0,0,0,0,0,-1,1567,1457,0,0
350,-433,0,0,0,0,0,0,0,0,0,-1,1574,1457,0,0
357,-433,0,0,0,0,0,0,0,0,0,-1,1581,1457,0,0
364,-433,0,0,0,0,0,0,0,0,0,-1,1588,1457,0,0
371,-433,0,0,0,0,0,0,0,0,0,-1,1595,1457,0,0
378,-433,0,0,0,0,0,0,0,0,0,-1,1602,1457,0,0
385,-433,0,0,0,0,0,0,0,0,0,-1,1609,1457,0,0
392,-433,0,0,0,0,0,0,0,0,0,-1,1616,1457,0,0
399,-433,0,0,0,0,0,0,0,0,0,-1,1623,1457,0,0
406,-433,0,0,0,0,0,0,0,0,0,-1,1630,1457,0,0
413,-433,0,0,0,0,0,0,0,0,0,-1,1637,1457,0,0
420,-433,0,0,0,0,0,0,0,0,0,-1,1644,1457,0,0
427,-433,0,0,0,0,0,0,0,0,0,-1,1651,1457,0,0
434,-433,0,0,0,0,0,0,0,0,0,-1,1658,1457,0,0
441,-433,0,0,0,0,0,0,0,0,0,-1,1665,1457,0,0
448,-433,0,0,0,0,0,0,0,0,0,-1,1672,1457,0,0
455,-433,0,0,0,0,0,0,0,0,0,-1,1679,1457,0,0
462,-433,0,0,0,0,0,0,0,0,0,-1,1686,1457,0,0
469,-433,0,0,0,0,0,0,0,0,0,-1,1693,1457,0,0
476,-433,0,0,0,0,0,0,0,0,0,-1,1700,1457,0,0
483,-433,0,0,0,0,0,0,0,0,0,-1,1707,1457,0,0
490,-433,0,0,0,0,0,0,0,0,0,-1,1714,1457,0,0
497,-433,0,0,0,0,0,0,0,0,0,-1,1721,1457,0,0
504,-433,19.9058,3.03662,0,0,0,0,0,0,0,-1,1728,1457,19.9058,-3.03656
511,-433,19.0145,3.07837,0,0,0,0,0,0,0,-1,1735,1457,19.0146,-3.07834
518,-433,18.071,3.06433,0,0,0,0,0,0,0,-1,1742,1457,18.071,-3.06432
525,-433,17.2048,3.37085,0,0,0,0,0,0,0,-1,1749,1457,17.2049,-3.37083
532,-433,16.5637,3.36646,0,0,0,0,0,0,0,-1,1756,1457,16.5637,-3.36643
539,-433,15.9193,3.30396,0,0,0,0,0,0,0,-1,1763,1457,15.9193,-3.30394
546,-433,23.1903,4.81775,0,0,0,0,0,0,0,-1,1770,1457,23.1903,-4.81775
553,-433,13.9674,11.5781,0,0,0,0,0,0,0,-1,1777,1457,13.9674,-11.5781
560,-433,13.9855,11.7341,0,0,0,0,0,0,0,-1,1784,1457,13.9855,-11.7341
567,-433,13.9264,11.3364,0,0,0,0,0,0,0,-1,1791,1457,13.9263,-11.3364
574,-433,15.5305,12.3673,0,0,0,0,0,0,0,-1,1798,1457,15.5305,-12.3673
581,-433,16.6405,12.1898,0,0,0,0,0,0,0,-1,1805,1457,16.6405,-12.1898
588,-433,26.4386,19.7478,0,0,0,0,0,0,0,-1,1812,1457,26.4386,-19.7478
595,-433,26.5282,19.2372,0,0,0,0,0,0,0,-1,1819,1457,26.5282,-19.2372
602,-433,26.6689,18.5708,0.00512128,0.00474074,-0.00436512,0.00930027,0.000561739,-0.763617,0.00602168,0.0253449,1826,1457,26.669,-18.5708
609,-433,26.7162,17.98,0.00398645,0.00338504,-0.00321843,0.00691819,0.000453297,-0.738818,0.0044687,0.0171116,1833,1457,26.7161,-17.98
616,-433,26.7191,17.4304,0.0030732,0.00232414,-0.00230727,0.00503614,0.000361199,-0.704937,0.00324374,0.0147139,1840,1457,26.7191,-17.4304
623,-433,26.6677,16.8699,0.00250961,0.00149176,-0.00160656,0.00368593,0.00031544,-0.632008,0.00235918,0.0112184,1847,1457,26.6677,-16.8699
630,-433,26.6624,16.3329,0.00223382,0.000807662,-0.00107752,0.00281284,0.000228641,-0.493093,0.00180385,0.0145166,1854,1457,26.6624,-16.3328
637,-433,26.6481,15.7985,0.00208434,0.000340474,-0.000664434,0.00230865,0.000116169,-0.325576,0.00150187,0.0156485,1861,1457,26.6481,-15.7985
644,-433,26.61,15.2694,0.00219743,0.000167234,-0.000407244,0.00227608,8.85898e-05,-0.190765,0.00148873,0.0162814,1868,1457,26.6099,-15.2695
651,-433,26.5878,14.698,0.00250457,0.000223691,-0.000331385,0.00255174,0.000176521,-0.141394,0.00164548,0.0122733,1875,1457,26.5878,-14.698
658,-433,26.5386,14.0845,0.00301825,0.000413254,-0.00031549,0.00305591,0.00037559,-0.118821,0.00192434,0.0298668,1882,1457,26.5386,-14.0844
665,-433,26.6265,13.3304,0,0,0,0,0,0,0,-1,1889,1457,26.6265,-13.3305
672,-433,18.115,8.7207,0,0,0,0,0,0,0,-1,1896,1457,18.115,-8.72074
679,-433,17.2969,9.6355,0,0,0,0,0,0,0,-1,1903,1457,17.2968,-9.63548
686,-433,13.6356,8.61694,0,0,0,0,0,0,0,-1,1910,1457,13.6356,-8.61694
693,-433,13.4081,8.39624,0,0,0,0,0,0,0,-1,1917,1457,13.4081,-8.39624
700,-433,7.16809,-1.5166,0,0,0,0,0,0,0,-1,1924,1457,7.16806,1.51656
707,-433,8.68359,-2.82202,0,0,0,0,0,0,0,-1,1931,1457,8.68359,2.82197
714,-433,0,0,0,0,0,0,0,0,0,-1,1938,1457,0,0
721,-433,0,0,0,0,0,0,0,0,0,-1,1945,1457,0,0
728,-433,0,0,0,0,0,0,0,0,0,-1,1952,1457,0,0
735,-433,0,0,0,0,0,0,0,0,0,-1,1959,1457,0,0
742,-433,0,0,0,0,0,0,0,0,0,-1,1966,1457,0,0
749,-433,0,0,0,0,0,0,0,0,0,-1,1973,1457,0,0
756,-433,0,0,0,0,0,0,0,0,0,-1,1980,1457,0,0
763,-433,0,0,0,0,0,0,0,0,0,-1,1987,1457,0,0
770,-433,0,0,0,0,0,0,0,0,0,-1,1994,1457,0,0
777,-433,0,0,0,0,0,0,0,0,0,-1,2001,1457,0,0
784,-433,0,0,0,0,0,0,0,0,0,-1,2008,1457,0,0
791,-433,0,0,0,0,0,0,0,0,0,-1,2015,1457,0,0
798,-433,0,0,0,0,0,0,0,0,0,-1,2022,1457,0,0
805,-433,0,0,0,0,0,0,0,0,0,-1,2029,1457,0,0
812,-433,0,0,0,0,0,0,0,0,0,-1,2036,1457,0,0
-700,-440,0,0,0,0,0,0,0,0,0,-1,524,1464,0,0
-693,-440,0,0,0,0,0,0,0,0,0,-1,531,1464,0,0
-686,-440,0,0,0,0,0,0,0,0,0,-1,538,1464,0,0
-679,-440,0,0,0,0,0,0,0,0,0,-1,545,1464,0,0
-672,-440,0,0,0,0,0,0,0,0,0,-1,552,1464,0,0
-665,-440,0,0,0,0,0,0,0,0,0,-1,559,1464,0,0
-658,-440,0,0,0,0,0,0,0,0,0,-1,566,1464,0,0
-651,-440,0,0,0,0,0,0,0,0,0,-1,573,1464,0,0
-644,-440,0,0,0,0,0,0,0,0,0,-1,580,1464,0,0
-637,-440,0,0,0,0,0,0,0,0,0,-1,587,1464,0,0
-630,-440,0,0,0,0,0,0,0,0,0,-1,594,1464,0,0
-623,-440,0,0,0,0,0,0,0,0,0,-1,601,1464,0,0
-616,-440,0,0,0,0,0,0,0,0,0,-1,608,1464,0,0
-609,-440,0,0,0,0,0,0,0,0,0,-1,615,1464,0,0
-602,-440,0,0,0,0,0,0,0,0,0,-1,622,1464,0,0
-595,-440,0,0,0,0,0,0,0,0,0,-1,629,1464,0,0
-588,-440,0,0,0,0,0,0,0,0,0,-1,636,1464,0,0
-581,-440,-8.97278,0.254517,0,0,0,0,0,0,0,-1,643,1464,-8.97276,-0.254526
-574,-440,-7.00818,-0.918579,0,0,0,0,0,0,0,-1,650,1464,-7.00817,0.918538
-567,-440,-6.12152,-0.0766602,0,0,0,0,0,0,0,-1,657,1464,-6.12151,0.0767097
-560,-440,-5.46747,0.82251,0,0,0,0,0,0,0,-1,664,1464,-5.46748,-0.822551
-553,-440,-6.84729,0.0831299,0,0,0,0,0,0,0,-1,671,1464,-6.84732,-0.083136
-546,-440,-5.63446,-0.153198,0,0,0,0,0,0,0,-1,678,1464,-5.63447,0.153147
-539,-440,-6.80017,8.58252,0,0,0,0,0,0,0,-1,685,1464,-6.80015,-8.58257
-532,-440,-9.69647,11.3262,0,0,0,0,0,0,0,-1,692,1464,-9.69649,-11.3262
-525,-440,-10.1506,12.1873,0,0,0,0,0,0,0,-1,699,1464,-10.1506,-12.1872
-518,-440,-10.1032,12.8633,0.00211766,0.00188325,0.00216511,0.00416874,-0.000167827,0.758357,0.00283675,0.0232472,706,1464,-10.1032,-12.8633
-511,-440,-10.0712,13.5363,0.00189413,0.00152448,0.00185201,0.00357051,-0.000151901,0.735665,0.00243256,0.0165097,713,1464,-10.0713,-13.5362
-504,-440,-10.1028,14.1566,0.0018487,0.0014161,0.0016786,0.00332488,-6.00802e-05,0.721322,0.00223689,0.0191894,720,1464,-10.1028,-14.1566
-497,-440,-10.1342,14.7301,0.00211608,0.00166021,0.00182618,0.0037285,4.77921e-05,0.723311,0.00246989,0.0231981,727,1464,-10.1342,-14.7301
-490,-440,-10.1467,15.2461,0.00259981,0.00220437,0.00221598,0.00462688,0.0001773,0.740903,0.00302722,0.0244309,734,1464,-10.1467,-15.2461
-483,-440,-10.1966,15.8855,0.00334001,0.00303721,0.00283848,0.00603113,0.000346097,0.758755,0.00391049,0.0207695,741,1464,-10.1966,-15.8855
-476,-440,-10.1901,16.4921,0.00432293,0.00413057,0.00373133,0.00795931,0.000494181,0.772513,0.00514939,0.0136601,748,1464,-10.1902,-16.4921
-469,-440,-10.2147,17.0836,0.00556242,0.00552078,0.00494489,0.0104865,0.000596669,0.783293,0.00680086,0.0125758,755,1464,-10.2147,-17.0836
-462,-440,-10.274,17.653,0.00708015,0.00717885,0.00643067,0.0135604,0.000698637,0.789235,0.0088166,0.0168629,762,1464,-10.274,-17.6529
-455,-440,-10.0715,18.3665,0.00902675,0.00929083,0.00842521,0.017585,0.000732541,0.793234,0.011487,0.0410836,769,1464,-10.0715,-18.3665
-448,-440,-9.44476,19.2422,0,0,0,0,0,0,0,-1,776,1464,-9.44475,-19.2422
-441,-440,-7.28583,14.7465,0,0,0,0,0,0,0,-1,783,1464,-7.28584,-14.7464
-434,-440,-8.33636,14.5024,0,0,0,0,0,0,0,-1,790,1464,-8.33638,-14.5025
-427,-440,-8.28094,14.2512,0,0,0,0,0,0,0,-1,797,1464,-8.28094,-14.2512
-420,-440,-6.86603,8.09216,0,0,0,0,0,0,0,-1,804,1464,-6.86602,-8.09222
-413,-440,-3.46796,5.72278,0,0,0,0,0,0,0,-1,811,1464,-3.46797,-5.72276
-406,-440,-5.2887,5.20264,0,0,0,0,0,0,0,-1,818,1464,-5.2887,-5.20261
-399,-440,-12.7318,3.94421,0,0,0,0,0,0,0,-1,825,1464,-12.7318,-3.94419
-392,-440,-13.5565,2.51855,0,0,0,0,0,0,0,-1,832,1464,-13.5565,-2.51861
-385,-440,-14.6741,1.39795,0,0,0,0,0,0,0,-1,839,1464,-14.6741,-1.39801
-378,-440,-15.8063,0.293457,0,0,0,0,0,0,0,-1,846,1464,-15.8063,-0.293412
-371,-440,0,0,0,0,0,0,0,0,0,-1,853,1464,0,0
-364,-440,0,0,0,0,0,0,0,0,0,-1,860,1464,0,0
-357,-440,0,0,0,0,0,0,0,0,0,-1,867,1464,0,0
-350,-440,0,0,0,0,0,0,0,0,0,-1,874,1464,0,0
-343,-440,0,0,0,0,0,0,0,0,0,-1,881,1464,0,0
-336,-440,0,0,0,0,0,0,0,0,0,-1,888,1464,0,0
-329,-440,0,0,0,0,0,0,0,0,0,-1,895,1464,0,0
-322,-440,0,0,0,0,0,0,0,0,0,-1,902,1464,0,0
-315,-440,0,0,0,0,0,0,0,0,0,-1,909,1464,0,0
-308,-440,0,0,0,0,0,0,0,0,0,-1,916,1464,0,0
-301,-440,0,0,0,0,0,0,0,0,0,-1,923,1464,0,0
-294,-440,0,0,0,0,0,0,0,0,0,-1,930,1464,0,0
-287,-440,0,0,0,0,0,0,0,0,0,-1,937,1464,0,0
-280,-440,0,0,0,0,0,0,0,0,0,-1,944,1464,0,0
-273,-440,0,0,0,0,0,0,0,0,0,-1,951,1464,0,0
-266,-440,0,0,0,0,0,0,0,0,0,-1,958,1464,0,0
-259,-440,0,0,0,0,0,0,0,0,0,-1,965,1464,0,0
-252,-440,0,0,0,0,0,0,0,0,0,-1,972,1464,0,0
-245,-440,0,0,0,0,0,0,0,0,0,-1,979,1464,0,0
-238,-440,0,0,0,0,0,0,0,0,0,-1,986,1464,0,0
-231,-440,0,0,0,0,0,0,0,0,0,-1,993,1464,0,0
-224,-440,0,0,0,0,0,0,0,0,0,-1,1000,1464,0,0
-217,-440,0,0,0,0,0,0,0,0,0,-1,1007,1464,0,0
-210,-440,0,0,0,0,0,0,0,0,0,-1,1014,1464,0,0
-203,-440,0,0,0,0,0,0,0,0,0,-1,1021,1464,0,0
-196,-440,0,0,0,0,0,0,0,0,0,-1,1028,1464,0,0
-189,-440,0,0,0,0,0,0,0,0,0,-1,1035,1464,0,0
-182,-440,0,0,0,0,0,0,0,0,0,-1,1042,1464,0,0
-175,-440,0,0,0,0,0,0,0,0,0,-1,1049,1464,0,0
-168,-440,0,0,0,0,0,0,0,0,0,-1,1056,1464,0,0
-161,-440,0,0,0,0,0,0,0,0,0,-1,1063,1464,0,0
-154,-440,0,0,0,0,0,0,0,0,0,-1,1070,1464,0,0
-147,-440,0,0,0,0,0,0,0,0,0,-1,1077,1464,0,0
-140,-440,0,0,0,0,0,0,0,0,0,-1,1084,1464,0,0
-133,-440,0,0,0,0,0,0,0,0,0,-1,1091,1464,0,0
-126,-440,0,0,0,0,0,0,0,0,0,-1,1098,1464,0,0
-119,-440,0,0,0,0,0,0,0,0,0,-1,1105,1464,0,0
-112,-440,0,0,0,0,0,0,0,0,0,-1,1112,1464,0,0
-105,-440,0,0,0,0,0,0,0,0,0,-1,1119,1464,0,0
-98,-440,0,0,0,0,0,0,0,0,0,-1,1126,1464,0,0
-91,-440,0,0,0,0,0,0,0,0,0,-1,1133,1464,0,0
-84,-440,0,0,0,0,0,0,0,0,0,-1,1140,1464,0,0
-77,-440,0,0,0,0,0,0,0,0,0,-1,1147,1464,0,0
-70,-440,0,0,0,0,0,0,0,0,0,-1,1154,1464,0,0
-63,-440,0,0,0,0,0,0,0,0,0,-1,1161,1464,0,0
-56,-440,0,0,0,0,0,0,0,0,0,-1,1168,1464,0,0
-49,-440,0,0,0,0,0,0,0,0,0,-1,1175,1464,0,0
-42,-440,0,0,0,0,0,0,0,0,0,-1,1182,1464,0,0
-35,-440,0,0,0,0,0,0,0,0,0,-1,1189,1464,0,0
-28,-440,0,0,0,0,0,0,0,0,0,-1,1196,1464,0,0
-21,-440,0,0,0,0,0,0,0,0,0,-1,1203,1464,0,0
-14,-440,0,0,0,0,0,0,0,0,0,-1,1210,1464,0,0
-7,-440,0,0,0,0,0,0,0,0,0,-1,1217,1464,0,0
0,-440,0,0,0,0,0,0,0,0,0,-1,1224,1464,0,0
7,-440,0,0,0,0,0,0,0,0,0,-1,1231,1464,0,0
14,-440,0,0,0,0,0,0,0,0,0,-1,1238,1464,0,0
21,-440,0,0,0,0,0,0,0,0,0,-1,1245,1464,0,0
28,-440,0,0,0,0,0,0,0,0,0,-1,1252,1464,0,0
35,-440,0,0,0,0,0,0,0,0,0,-1,1259,1464,0,0
42,-440,0,0,0,0,0,0,0,0,0,-1,1266,1464,0,0
49,-440,0,0,0,0,0,0,0,0,0,-1,1273,1464,0,0
56,-440,0,0,0,0,0,0,0,0,0,-1,1280,1464,0,0
63,-440,0,0,0,0,0,0,0,0,0,-1,1287,1464,0,0
70,-440,0,0,0,0,0,0,0,0,0,-1,1294,1464,0,0
77,-440,0,0,0,0,0,0,0,0,0,-1,1301,1464,0,0
84,-440,0,0,0,0,0,0,0,0,0,-1,1308,1464,0,0
91,-440,0,0,0,0,0,0,0,0,0,-1,1315,1464,0,0
98,-440,0,0,0,0,0,0,0,0,0,-1,1322,1464,0,0
105,-440,0,0,0,0,0,0,0,0,0,-1,1329,1464,0,0
112,-440,0,0,0,0,0,0,0,0,0,-1,1336,1464,0,0
119,-440,0,0,0,0,0,0,0,0,0,-1,1343,1464,0,0
126,-440,0,0,0,0,0,0,0,0,0,-1,1350,1464,0,0
133,-440,0,0,0,0,0,0,0,0,0,-1,1357,1464,0,0
140,-440,0,0,0,0,0,0,0,0,0,-1,1364,1464,0,0
147,-440,0,0,0,0,0,0,0,0,0,-1,1371,1464,0,0
154,-440,0,0,0,0,0,0,0,0,0,-1,1378,1464,0,0
161,-440,0,0,0,0,0,0,0,0,0,-1,1385,1464,0,0
168,-440,0,0,0,0,0,0,0,0,0,-1,1392,1464,0,0
175,-440,0,0,0,0,0,0,0,0,0,-1,1399,1464,0,0
182,-440,0,0,0,0,0,0,0,0,0,-1,1406,1464,0,0
189,-440,0,0,0,0,0,0,0,0,0,-1,1413,1464,0,0
196,-440,0,0,0,0,0,0,0,0,0,-1,1420,1464,0,0
203,-440,0,0,0,0,0,0,0,0,0,-1,1427,1464,0,0
210,-440,0,0,0,0,0,0,0,0,0,-1,1434,1464,0,0
217,-440,0,0,0,0,0,0,0,0,0,-1,1441,1464,0,0
224,-440,0,0,0,0,0,0,0,0,0,-1,1448,1464,0,0
231,-440,0,0,0,0,0,0,0,0,0,-1,1455,1464,0,0
238,-440,0,0,0,0,0,0,0,0,0,-1,1462,1464,0,0
245,-440,0,0,0,0,0,0,0,0,0,-1,1469,1464,0,0
252,-440,0,0,0,0,0,0,0,0,0,-1,1476,1464,0,0
259,-440,0,0,0,0,0,0,0,0,0,-1,1483,1464,0,0
266,-440,0,0,0,0,0,0,0,0,0,-1,1490,1464,0,0
273,-440,0,0,0,0,0,0,0,0,0,-1,1497,1464,0,0
280,-440,0,0,0,0,0,0,0,0,0,-1,1504,1464,0,0
287,-440,0,0,0,0,0,0,0,0,0,-1,1511,1464,0,0
294,-440,0,0,0,0,0,0,0,0,0,-1,1518,1464,0,0
301,-440,0,0,0,0,0,0,0,0,0,-1,1525,1464,0,0
308,-440,0,0,0,0,0,0,0,0,0,-1,1532,1464,0,0
315,-440,0,0,0,0,0,0,0,0,0,-1,1539,1464,0,0
322,-440,0,0,0,0,0,0,0,0,0,-1,1546,1464,0,0
329,-440,0,0,0,0,0,0,0,0,0,-1,1553,1464,0,0
336,-440,0,0,0,0,0,0,0,0,0,-1,1560,1464,0,0
343,-440,0,0,0,0,0,0,0,0,0,-1,1567,1464,0,0
350,-440,0,0,0,0,0,0,0,0,0,-1,1574,1464,0,0
357,-440,0,0,0,0,0,0,0,0,0,-1,1581,1464,0,0
364,-440,0,0,0,0,0,0,0,0,0,-1,1588,1464,0,0
371,-440,0,0,0,0,0,0,0,0,0,-1,1595,1464,0,0
378,-440,0,0,0,0,0,0,0,0,0,-1,1602,1464,0,0
385,-440,0,0,0,0,0,0,0,0,0,-1,1609,1464,0,0
392,-440,0,0,0,0,0,0,0,0,0,-1,1616,1464,0,0
399,-440,0,0,0,0,0,0,0,0,0,-1,1623,1464,0,0
406,-440,0,0,0,0,0,0,0,0,0,-1,1630,1464,0,0
413,-440,0,0,0,0,0,0,0,0,0,-1,1637,1464,0,0
420,-440,0,0,0,0,0,0,0,0,0,-1,1644,1464,0,0
427,-440,0,0,0,0,0,0,0,0,0,-1,1651,1464,0,0
434,-440,0,0,0,0,0,0,0,0,0,-1,1658,1464,0,0
441,-440,0,0,0,0,0,0,0,0,0,-1,1665,1464,0,0
448,-440,0,0,0,0,0,0,0,0,0,-1,1672,1464,0,0
455,-440,0,0,0,0,0,0,0,0,0,-1,1679,1464,0,0
462,-440,0,0,0,0,0,0,0,0,0,-1,1686,1464,0,0
469,-440,0,0,0,0,0,0,0,0,0,-1,1693,1464,0,0
476,-440,0,0,0,0,0,0,0,0,0,-1,1700,1464,0,0
483,-440,0,0,0,0,0,0,0,0,0,-1,1707,1464,0,0
490,-440,0,0,0,0,0,0,0,0,0,-1,1714,1464,0,0
497,-440,16.965,-0.528442,0,0,0,0,0,0,0,-1,1721,1464,16.965,0.528492
504,-440,15.8052,0.670166,0,0,0,0,0,0,0,-1,1728,1464,15.8052,-0.670145
511,-440,17.5754,2.77832,0,0,0,0,0,0,0,-1,1735,1464,17.5754,-2.77826
518,-440,16.9017,3.07861,0,0,0,0,0,0,0,-1,1742,1464,16.9018,-3.07859
525,-440,18.4495,12.0867,0,0,0,0,0,0,0,-1,1749,1464,18.4495,-12.0867
532,-440,15.4319,3.64392,0,0,0,0,0,0,0,-1,1756,1464,15.4318,-3.64391
539,-440,14.8214,3.41321,0,0,0,0,0,0,0,-1,1763,1464,14.8214,-3.4132
546,-440,14.8651,10.7683,0,0,0,0,0,0,0,-1,1770,1464,14.8651,-10.7683
553,-440,15.1213,11.4121,0,0,0,0,0,0,0,-1,1777,1464,15.1213,-11.4121
560,-440,17.4325,12.5394,0,0,0,0,0,0,0,-1,1784,1464,17.4325,-12.5394
567,-440,16.9025,12.4249,0,0,0,0,0,0,0,-1,1791,1464,16.9025,-12.425
574,-440,19.2841,14.8679,0,0,0,0,0,0,0,-1,1798,1464,19.2841,-14.868
581,-440,25.8342,20.9955,0,0,0,0,0,0,0,-1,1805,1464,25.8342,-20.9955
588,-440,26.0558,19.8251,0,0,0,0,0,0,0,-1,1812,1464,26.0558,-19.8251
595,-440,26.0869,19.1729,0.00576193,0.00527986,-0.00477558,0.0103026,0.000739234,-0.760183,0.0066357,0.0263675,1819,1464,26.0869,-19.1729
602,-440,26.1616,18.5416,0.00452481,0.00391173,-0.00360976,0.00784103,0.000595521,-0.74304,0.00504059,0.0189815,1826,1464,26.1616,-18.5416
609,-440,26.166,18.0081,0.00357564,0.00273142,-0.00263334,0.00582049,0.000486567,-0.705927,0.00372873,0.0168253,1833,1464,26.166,-18.008
616,-440,26.1442,17.494,0.00281725,0.00183013,-0.00185792,0.00424605,0.000401332,-0.655571,0.00270686,0.0184101,1840,1464,26.1441,-17.494
623,-440,26.1213,16.9055,0.00239117,0.00109682,-0.00125257,0.00315387,0.000334117,-0.546948,0.00200053,0.0133988,1847,1464,26.1213,-16.9056
630,-440,26.092,16.3243,0.00222923,0.00048757,-0.000794762,0.00253738,0.000179421,-0.369879,0.00163506,0.0111146,1854,1464,26.092,-16.3243
637,-440,26.0784,15.8336,0.00219626,0.000130051,-0.000476146,0.0023007,2.56053e-05,-0.215936,0.00152534,0.0154958,1861,1464,26.0784,-15.8336
644,-440,26.067,15.3063,0.00239566,5.61703e-05,-0.000311735,0.00243649,1.53445e-05,-0.130222,0.00161923,0.0144208,1868,1464,26.067,-15.3063
651,-440,26.079,14.6881,0.00279896,0.000224602,-0.000344409,0.00284424,0.000179322,-0.130722,0.0018393,0.0198973,1875,1464,26.079,-14.6881
658,-440,26.1332,13.984,0,0,0,0,0,0,0,-1,1882,1464,26.1331,-13.984
665,-440,24.2067,12.5813,0,0,0,0,0,0,0,-1,1889,1464,24.2067,-12.5813
672,-440,18.9385,9.6394,0,0,0,0,0,0,0,-1,1896,1464,18.9384,-9.63939
679,-440,16.9508,10.2336,0,0,0,0,0,0,0,-1,1903,1464,16.9508,-10.2337
686,-440,15.2556,8.44177,0,0,0,0,0,0,0,-1,1910,1464,15.2556,-8.44177
693,-440,9.88635,2.89795,0,0,0,0,0,0,0,-1,1917,1464,9.88638,-2.89798
700,-440,7.07825,-2.62061,0,0,0,0,0,0,0,-1,1924,1464,7.07829,2.62057
707,-440,0,0,0,0,0,0,0,0,0,-1,1931,1464,0,0
714,-440,0,0,0,0,0,0,0,0,0,-1,1938,1464,0,0
721,-440,0,0,0,0,0,0,0,0,0,-1,1945,1464,0,0
728,-440,0,0,0,0,0,0,0,0,0,-1,1952,1464,0,0
735,-440,0,0,0,0,0,0,0,0,0,-1,1959,1464,0,0
742,-440,0,0,0,0,0,0,0,0,0,-1,1966,1464,0,0
749,-440,0,0,0,0,0,0,0,0,0,-1,1973,1464,0,0
756,-440,0,0,0,0,0,0,0,0,0,-1,1980,1464,0,0
763,-440,0,0,0,0,0,0,0,0,0,-1,1987,1464,0,0
770,-440,0,0,0,0,0,0,0,0,0,-1,1994,1464,0,0
777,-440,0,0,0,0,0,0,0,0,0,-1,2001,1464,0,0
784,-440,0,0,0,0,0,0,0,0,0,-1,2008,1464,0,0
791,-440,0,0,0,0,0,0,0,0,0,-1,2015,1464,0,0
798,-440,0,0,0,0,0,0,0,0,0,-1,2022,1464,0,0
805,-440,0,0,0,0,0,0,0,0,0,-1,2029,1464,0,0
812,-440,0,0,0,0,0,0,0,0,0,-1,2036,1464,0,0
-700,-447,0,0,0,0,0,0,0,0,0,-1,524,1471,0,0
-693,-447,0,0,0,0,0,0,0,0,0,-1,531,1471,0,0
-686,-447,0,0,0,0,0,0,0,0,0,-1,538,1471,0,0
-679,-447,0,0,0,0,0,0,0,0,0,-1,545,1471,0,0
-672,-447,0,0,0,0,0,0,0,0,0,-1,552,1471,0,0
-665,-447,0,0,0,0,0,0,0,0,0,-1,559,1471,0,0
-658,-447,0,0,0,0,0,0,0,0,0,-1,566,1471,0,0
-651,-447,0,0,0,0,0,0,0,0,0,-1,573,1471,0,0
-644,-447,0,0,0,0,0,0,0,0,0,-1,580,1471,0,0
-637,-447,0,0,0,0,0,0,0,0,0,-1,587,1471,0,0
-630,-447,0,0,0,0,0,0,0,0,0,-1,594,1471,0,0
-623,-447,0,0,0,0,0,0,0,0,0,-1,601,1471,0,0
-616,-447,0,0,0,0,0,0,0,0,0,-1,608,1471,0,0
-609,-447,0,0,0,0,0,0,0,0,0,-1,615,1471,0,0
-602,-447,0,0,0,0,0,0,0,0,0,-1,622,1471,0,0
-595,-447,0,0,0,0,0,0,0,0,0,-1,629,1471,0,0
-588,-447,0,0,0,0,0,0,0,0,0,-1,636,1471,0,0
-581,-447,-7.06482,-1.50476,0,0,0,0,0,0,0,-1,643,1471,-7.0648,1.50474
-574,-447,-6.88092,-0.00585938,0,0,0,0,0,0,0,-1,650,1471,-6.88095,0.00589852
-567,-447,-6.8205,-1.32178,0,0,0,0,0,0,0,-1,657,1471,-6.82047,1.32172
-560,-447,-8.85748,2.80774,0,0,0,0,0,0,0,-1,664,1471,-8.85748,-2.80775
-553,-447,-7.60486,3.26794,0,0,0,0,0,0,0,-1,671,1471,-7.60487,-3.26799
-546,-447,-3.94501,1.8656,0,0,0,0,0,0,0,-1,678,1471,-3.945,-1.86554
-539,-447,-5.35492,4.50024,0,0,0,0,0,0,0,-1,685,1471,-5.35492,-4.50018
-532,-447,-6.12781,8.81091,0,0,0,0,0,0,0,-1,692,1471,-6.12781,-8.81094
-525,-447,-9.44501,12.098,0,0,0,0,0,0,0,-1,699,1471,-9.44502,-12.098
-518,-447,-9.54688,12.735,0,0,0,0,0,0,0,-1,706,1471,-9.54688,-12.735
-511,-447,-9.49872,13.5082,0.00181561,0.00128064,0.00190176,0.0034686,-0.000372352,0.715531,0.00244598,0.0230808,713,1471,-9.49869,-13.5082
-504,-447,-9.51459,14.176,0.00161046,0.000983888,0.00153279,0.00286165,-0.000267304,0.684592,0.00200283,0.021035,720,1471,-9.51458,-14.176
-497,-447,-9.56104,14.7736,0.00173856,0.00107722,0.001528,0.00297126,-0.000155482,0.678839,0.00203465,0.0259311,727,1471,-9.56101,-14.7735
-490,-447,-9.5509,15.2858,0.00207542,0.00146325,0.00175393,0.00354977,-1.11003e-05,0.699011,0.00237022,0.0258005,734,1471,-9.55092,-15.2858
-483,-447,-9.59784,15.8829,0.00264726,0.00213077,0.00219757,0.0046017,0.000176331,0.72691,0.00301075,0.0227365,741,1471,-9.59784,-15.883
-476,-447,-9.60065,16.4807,0.00344362,0.00304847,0.00289339,0.00614617,0.00034592,0.751309,0.00398715,0.0142636,748,1471,-9.60063,-16.4807
-469,-447,-9.61755,17.0898,0.0044752,0.00426775,0.00389154,0.0082644,0.000478548,0.772074,0.00535721,0.0130949,755,1471,-9.61754,-17.0898
-462,-447,-9.64978,17.687,0.00574363,0.00572093,0.00510676,0.0108391,0.000625507,0.784287,0.00702682,0.0139238,762,1471,-9.64981,-17.6871
-455,-447,-9.68054,18.2858,0.00736094,0.00753648,0.00671637,0.0141657,0.000731764,0.791932,0.00920955,0.0225278,769,1471,-9.68055,-18.2858
-448,-447,-9.61511,18.947,0,0,0,0,0,0,0,-1,776,1471,-9.61513,-18.9471
-441,-447,-8.68506,19.0931,0,0,0,0,0,0,0,-1,783,1471,-8.68504,-19.0932
-434,-447,-7.43402,15.6273,0,0,0,0,0,0,0,-1,790,1471,-7.43404,-15.6274
-427,-447,-7.21832,14.691,0,0,0,0,0,0,0,-1,797,1471,-7.21834,-14.6911
-420,-447,-8.0545,12.8055,0,0,0,0,0,0,0,-1,804,1471,-8.05452,-12.8055
-413,-447,-4.27393,6.59705,0,0,0,0,0,0,0,-1,811,1471,-4.27392,-6.59707
-406,-447,-1.04279,6.18591,0,0,0,0,0,0,0,-1,818,1471,-1.04276,-6.18586
-399,-447,0.0134888,0.687622,0,0,0,0,0,0,0,-1,825,1471,0.0134841,-0.68767
-392,-447,-14.0646,3.76147,0,0,0,0,0,0,0,-1,832,1471,-14.0646,-3.7615
-385,-447,-15.1695,2.61865,0,0,0,0,0,0,0,-1,839,1471,-15.1695,-2.61871
-378,-447,-15.9424,1.49316,0,0,0,0,0,0,0,-1,846,1471,-15.9424,-1.49313
-371,-447,-17.3655,0.73291,0,0,0,0,0,0,0,-1,853,1471,-17.3655,-0.732946
-364,-447,0,0,0,0,0,0,0,0,0,-1,860,1471,0,0
-357,-447,0,0,0,0,0,0,0,0,0,-1,867,1471,0,0
-350,-447,0,0,0,0,0,0,0,0,0,-1,874,1471,0,0
-343,-447,0,0,0,0,0,0,0,0,0,-1,881,1471,0,0
-336,-447,0,0,0,0,0,0,0,0,0,-1,888,1471,0,0
-329,-447,0,0,0,0,0,0,0,0,0,-1,895,1471,0,0
-322,-447,0,0,0,0,0,0,0,0,0,-1,902,1471,0,0
-315,-447,0,0,0,0,0,0,0,0,0,-1,909,1471,0,0
-308,-447,0,0,0,0,0,0,0,0,0,-1,916,1471,0,0
-301,-447,0,0,0,0,0,0,0,0,0,-1,923,1471,0,0
-294,-447,0,0,0,0,0,0,0,0,0,-1,930,1471,0,0
-287,-447,0,0,0,0,0,0,0,0,0,-1,937,1471,0,0
-280,-447,0,0,0,0,0,0,0,0,0,-1,944,1471,0,0
-273,-447,0,0,0,0,0,0,0,0,0,-1,951,1471,0,0
-266,-447,0,0,0,0,0,0,0,0,0,-1,958,1471,0,0
-259,-447,0,0,0,0,0,0,0,0,0,-1,965,1471,0,0
-252,-447,0,0,0,0,0,0,0,0,0,-1,972,1471,0,0
-245,-447,0,0,0,0,0,0,0,0,0,-1,979,1471,0,0
-238,-447,0,0,0,0,0,0,0,0,0,-1,986,1471,0,0
-231,-447,0,0,0,0,0,0,0,0,0,-1,993,1471,0,0
-224,-447,0,0,0,0,0,0,0,0,0,-1,1000,1471,0,0
-217,-447,0,0,0,0,0,0,0,0,0,-1,1007,1471,0,0
-210,-447,0,0,0,0,0,0,0,0,0,-1,1014,1471,0,0
-203,-447,0,0,0,0,0,0,0,0,0,-1,1021,1471,0,0
-196,-447,0,0,0,0,0,0,0,0,0,-1,1028,1471,0,0
-189,-447,0,0,0,0,0,0,0,0,0,-1,1035,1471,0,0
-182,-447,0,0,0,0,0,0,0,0,0,-1,1042,1471,0,0
-175,-447,0,0,0,0,0,0,0,0,0,-1,1049,1471,0,0
-168,-447,0,0,0,0,0,0,0,0,0,-1,1056,1471,0,0
-161,-447,0,0,0,0,0,0,0,0,0,-1,1063,1471,0,0
-154,-447,0,0,0,0,0,0,0,0,0,-1,1070,1471,0,0
-147,-447,0,0,0,0,0,0,0,0,0,-1,1077,1471,0,0
-140,-447,0,0,0,0,0,0,0,0,0,-1,1084,1471,0,0
-133,-447,0,0,0,0,0,0,0,0,0,-1,1091,1471,0,0
-126,-447,0,0,0,0,0,0,0,0,0,-1,1098,1471,0,0
-119,-447,0,0,0,0,0,0,0,0,0,-1,1105,1471,0,0
-112,-447,0,0,0,0,0,0,0,0,0,-1,1112,1471,0,0
-105,-447,0,0,0,0,0,0,0,0,0,-1,1119,1471,0,0
-98,-447,0,0,0,0,0,0,0,0,0,-1,1126,1471,0,0
-91,-447,0,0,0,0,0,0,0,0,0,-1,1133,1471,0,0
-84,-447,0,0,0,0,0,0,0,0,0,-1,1140,1471,0,0
-77,-447,0,0,0,0,0,0,0,0,0,-1,1147,1471,0,0
-70,-447,0,0,0,0,0,0,0,0,0,-1,1154,1471,0,0
-63,-447,0,0,0,0,0,0,0,0,0,-1,1161,1471,0,0
-56,-447,0,0,0,0,0,0,0,0,0,-1,1168,1471,0,0
-49,-447,0,0,0,0,0,0,0,0,0,-1,1175,1471,0,0
-42,-447,0,0,0,0,0,0,0,0,0,-1,1182,1471,0,0
-35,-447,0,0,0,0,0,0,0,0,0,-1,1189,1471,0,0
-28,-447,0,0,0,0,0,0,0,0,0,-1,1196,1471,0,0
-21,-447,0,0,0,0,0,0,0,0,0,-1,1203,1471,0,0
-14,-447,0,0,0,0,0,0,0,0,0,-1,1210,1471,0,0
-7,-447,0,0,0,0,0,0,0,0,0,-1,1217,1471,0,0
0,-447,0,0,0,0,0,0,0,0,0,-1,1224,1471,0,0
7,-447,0,0,0,0,0,0,0,0,0,-1,1231,1471,0,0
14,-447,0,0,0,0,0,0,0,0,0,-1,1238,1471,0,0
21,-447,0,0,0,0,0,0,0,0,0,-1,1245,1471,0,0
28,-447,0,0,0,0,0,0,0,0,0,-1,1252,1471,0,0
35,-447,0,0,0,0,0,0,0,0,0,-1,1259,1471,0,0
42,-447,0,0,0,0,0,0,0,0,0,-1,1266,1471,0,0
49,-447,0,0,0,0,0,0,0,0,0,-1,1273,1471,0,0
56,-447,0,0,0,0,0,0,0,0,0,-1,1280,1471,0,0
63,-447,0,0,0,0,0,0,0,0,0,-1,1287,1471,0,0
70,-447,0,0,0,0,0,0,0,0,0,-1,1294,1471,0,0
77,-447,0,0,0,0,0,0,0,0,0,-1,1301,1471,0,0
84,-447,0,0,0,0,0,0,0,0,0,-1,1308,1471,0,0
91,-447,0,0,0,0,0,0,0,0,0,-1,1315,1471,0,0
98,-447,0,0,0,0,0,0,0,0,0,-1,1322,1471,0,0
105,-447,0,0,0,0,0,0,0,0,0,-1,1329,1471,0,0
112,-447,0,0,0,0,0,0,0,0,0,-1,1336,1471,0,0
119,-447,0,0,0,0,0,0,0,0,0,-1,1343,1471,0,0
126,-447,0,0,0,0,0,0,0,0,0,-1,1350,1471,0,0
133,-447,0,0,0,0,0,0,0,0,0,-1,1357,1471,0,0
140,-447,0,0,0,0,0,0,0,0,0,-1,1364,1471,0,0
147,-447,0,0,0,0,0,0,0,0,0,-1,1371,1471,0,0
154,-447,0,0,0,0,0,0,0,0,0,-1,1378,1471,0,0
161,-447,0,0,0,0,0,0,0,0,0,-1,1385,1471,0,0
168,-447,0,0,0,0,0,0,0,0,0,-1,1392,1471,0,0
175,-447,0,0,0,0,0,0,0,0,0,-1,1399,1471,0,0
182,-447,0,0,0,0,0,0,0,0,0,-1,1406,1471,0,0
189,-447,0,0,0,0,0,0,0,0,0,-1,1413,1471,0,0
196,-447,0,0,0,0,0,0,0,0,0,-1,1420,1471,0,0
203,-447,0,0,0,0,0,0,0,0,0,-1,1427,1471,0,0
210,-447,0,0,0,0,0,0,0,0,0,-1,1434,1471,0,0
217,-447,0,0,0,0,0,0,0,0,0,-1,1441,1471,0,0
224,-447,0,0,0,0,0,0,0,0,0,-1,1448,1471,0,0
231,-447,0,0,0,0,0,0,0,0,0,-1,1455,1471,0,0
238,-447,0,0,0,0,0,0,0,0,0,-1,1462,1471,0,0
245,-447,0,0,0,0,0,0,0,0,0,-1,1469,1471,0,0
252,-447,0,0,0,0,0,0,0,0,0,-1,1476,1471,0,0
259,-447,0,0,0,0,0,0,0,0,0,-1,1483,1471,0,0
266,-447,0,0,0,0,0,0,0,0,0,-1,1490,1471,0,0
273,-447,0,0,0,0,0,0,0,0,0,-1,1497,1471,0,0
280,-447,0,0,0,0,0,0,0,0,0,-1,1504,1471,0,0
287,-447,0,0,0,0,0,0,0,0,0,-1,1511,1471,0,0
294,-447,0,0,0,0,0,0,0,0,0,-1,1518,1471,0,0
301,-447,0,0,0,0,0,0,0,0,0,-1,1525,1471,0,0
308,-447,0,0,0,0,0,0,0,0,0,-1,1532,1471,0,0
315,-447,0,0,0,0,0,0,0,0,0,-1,1539,1471,0,0
322,-447,0,0,0,0,0,0,0,0,0,-1,1546,1471,0,0
329,-447,0,0,0,0,0,0,0,0,0,-1,1553,1471,0,0
336,-447,0,0,0,0,0,0,0,0,0,-1,1560,1471,0,0
343,-447,0,0,0,0,0,0,0,0,0,-1,1567,1471,0,0
350,-447,0,0,0,0,0,0,0,0,0,-1,1574,1471,0,0
357,-447,0,0,0,0,0,0,0,0,0,-1,1581,1471,0,0
364,-447,0,0,0,0,0,0,0,0,0,-1,1588,1471,0,0
371,-447,0,0,0,0,0,0,0,0,0,-1,1595,1471,0,0
378,-447,0,0,0,0,0,0,0,0,0,-1,1602,1471,0,0
385,-447,0,0,0,0,0,0,0,0,0,-1,1609,1471,0,0
392,-447,0,0,0,0,0,0,0,0,0,-1,1616,1471,0,0
399,-447,0,0,0,0,0,0,0,0,0,-1,1623,1471,0,0
406,-447,0,0,0,0,0,0,0,0,0,-1,1630,1471,0,0
413,-447,0,0,0,0,0,0,0,0,0,-1,1637,1471,0,0
420,-447,0,0,0,0,0,0,0,0,0,-1,1644,1471,0,0
427,-447,0,0,0,0,0,0,0,0,0,-1,1651,1471,0,0
434,-447,0,0,0,0,0,0,0,0,0,-1,1658,1471,0,0
441,-447,0,0,0,0,0,0,0,0,0,-1,1665,1471,0,0
448,-447,0,0,0,0,0,0,0,0,0,-1,1672,1471,0,0
455,-447,0,0,0,0,0,0,0,0,0,-1,1679,1471,0,0
462,-447,0,0,0,0,0,0,0,0,0,-1,1686,1471,0,0
469,-447,0,0,0,0,0,0,0,0,0,-1,1693,1471,0,0
476,-447,0,0,0,0,0,0,0,0,0,-1,1700,1471,0,0
483,-447,0,0,0,0,0,0,0,0,0,-1,1707,1471,0,0
490,-447,18.2214,-0.810303,0,0,0,0,0,0,0,-1,1714,1471,18.2215,0.810307
497,-447,17.0237,0.352417,0,0,0,0,0,0,0,-1,1721,1471,17.0237,-0.352442
504,-447,15.8998,1.53479,0,0,0,0,0,0,0,-1,1728,1471,15.8997,-1.53478
511,-447,14.7201,2.76111,0,0,0,0,0,0,0,-1,1735,1471,14.7201,-2.76107
518,-447,17.7618,13.2864,0,0,0,0,0,0,0,-1,1742,1471,17.7619,-13.2863
525,-447,17.1191,11.9014,0,0,0,0,0,0,0,-1,1749,1471,17.1191,-11.9013
532,-447,16.3959,10.0455,0,0,0,0,0,0,0,-1,1756,1471,16.3959,-10.0456
539,-447,14.1699,10.0204,0,0,0,0,0,0,0,-1,1763,1471,14.1699,-10.0204
546,-447,16.3715,11.8046,0,0,0,0,0,0,0,-1,1770,1471,16.3714,-11.8046
553,-447,17.5106,13.4012,0,0,0,0,0,0,0,-1,1777,1471,17.5107,-13.4012
560,-447,17.0187,13.168,0,0,0,0,0,0,0,-1,1784,1471,17.0187,-13.168
567,-447,18.9286,15.1703,0,0,0,0,0,0,0,-1,1791,1471,18.9286,-15.1703
574,-447,25.0313,21.277,0,0,0,0,0,0,0,-1,1798,1471,25.0313,-21.2769
581,-447,25.4801,20.5552,0.00776452,0.00694725,-0.00581006,0.0131803,0.00153147,-0.75029,0.00832348,0.0486122,1805,1471,25.4801,-20.5552
588,-447,25.6298,19.7286,0.00626732,0.00555135,-0.00480071,0.0107234,0.0010953,-0.748183,0.00681323,0.0264388,1812,1471,25.6298,-19.7286
595,-447,25.6295,19.1306,0.00494405,0.00430809,-0.00383124,0.00847048,0.000781656,-0.743995,0.00540531,0.0132357,1819,1471,25.6296,-19.1306
602,-447,25.6156,18.5525,0.00397253,0.00316273,-0.00292538,0.0065209,0.000614358,-0.71663,0.00415764,0.0114678,1826,1471,25.6156,-18.5525
609,-447,25.6024,18.0076,0.00321991,0.00217139,-0.00213049,0.0048897,0.000501608,-0.664758,0.00310613,0.012684,1833,1471,25.6024,-18.0076
616,-447,25.5922,17.4749,0.00263385,0.00141562,-0.00149063,0.00363501,0.00041446,-0.591436,0.00229768,0.0142806,1840,1471,25.5922,-17.4748
623,-447,25.5718,16.9226,0.00235033,0.00076723,-0.000969041,0.00281002,0.000307544,-0.442935,0.00177971,0.015379,1847,1471,25.5718,-16.9226
630,-447,25.5402,16.3654,0.00229774,0.000228208,-0.000561032,0.00244004,8.59024e-05,-0.248411,0.00159883,0.00920687,1854,1471,25.5402,-16.3654
637,-447,25.5398,15.8229,0.00238962,-1.49995e-05,-0.00032241,0.0024321,-5.74776e-05,-0.130998,0.0016409,0.0100189,1861,1471,25.5398,-15.8229
644,-447,25.5354,15.2869,0.00268036,-8.34384e-06,-0.000242139,0.002702,-2.99764e-05,-0.0891024,0.00181141,0.0113002,1868,1471,25.5354,-15.2869
651,-447,25.5919,14.7026,0.00316868,0.000242571,-0.000362668,0.00321296,0.000198291,-0.121493,0.00207903,0.0488593,1875,1471,25.5919,-14.7026
658,-447,25.8036,14.0095,0,0,0,0,0,0,0,-1,1882,1471,25.8036,-14.0096
665,-447,18.4946,9.79919,0,0,0,0,0,0,0,-1,1889,1471,18.4946,-9.79922
672,-447,18.9784,9.66077,0,0,0,0,0,0,0,-1,1896,1471,18.9784,-9.66081
679,-447,14.844,7.4248,0,0,0,0,0,0,0,-1,1903,1471,14.844,-7.42477
686,-447,9.81079,4.30859,0,0,0,0,0,0,0,-1,1910,1471,9.8108,-4.30864
693,-447,10.48,2.08643,0,0,0,0,0,0,0,-1,1917,1471,10.48,-2.08642
700,-447,0,0,0,0,0,0,0,0,0,-1,1924,1471,0,0
707,-447,0,0,0,0,0,0,0,0,0,-1,1931,1471,0,0
714,-447,0,0,0,0,0,0,0,0,0,-1,1938,1471,0,0
721,-447,0,0,0,0,0,0,0,0,0,-1,1945,1471,0,0
728,-447,0,0,0,0,0,0,0,0,0,-1,1952,1471,0,0
735,-447,0,0,0,0,0,0,0,0,0,-1,1959,1471,0,0
742,-447,0,0,0,0,0,0,0,0,0,-1,1966,1471,0,0
749,-447,0,0,0,0,0,0,0,0,0,-1,1973,1471,0,0
756,-447,0,0,0,0,0,0,0,0,0,-1,1980,1471,0,0
763,-447,0,0,0,0,0,0,0,0,0,-1,1987,1471,0,0
770,-447,0,0,0,0,0,0,0,0,0,-1,1994,1471,0,0
777,-447,0,0,0,0,0,0,0,0,0,-1,2001,1471,0,0
784,-447,0,0,0,0,0,0,0,0,0,-1,2008,1471,0,0
791,-447,0,0,0,0,0,0,0,0,0,-1,2015,1471,0,0
798,-447,0,0,0,0,0,0,0,0,0,-1,2022,1471,0,0
805,-447,0,0,0,0,0,0,0,0,0,-1,2029,1471,0,0
812,-447,0,0,0,0,0,0,0,0,0,-1,2036,1471,0,0
-700,-454,0,0,0,0,0,0,0,0,0,-1,524,1478,0,0
-693,-454,0,0,0,0,0,0,0,0,0,-1,531,1478,0,0
-686,-454,0,0,0,0,0,0,0,0,0,-1,538,1478,0,0
-679,-454,0,0,0,0,0,0,0,0,0,-1,545,1478,0,0
-672,-454,0,0,0,0,0,0,0,0,0,-1,552,1478,0,0
-665,-454,0,0,0,0,0,0,0,0,0,-1,559,1478,0,0
-658,-454,0,0,0,0,0,0,0,0,0,-1,566,1478,0,0
-651,-454,0,0,0,0,0,0,0,0,0,-1,573,1478,0,0
-644,-454,0,0,0,0,0,0,0,0,0,-1,580,1478,0,0
-637,-454,0,0,0,0,0,0,0,0,0,-1,587,1478,0,0
-630,-454,0,0,0,0,0,0,0,0,0,-1,594,1478,0,0
-623,-454,0,0,0,0,0,0,0,0,0,-1,601,1478,0,0
-616,-454,0,0,0,0,0,0,0,0,0,-1,608,1478,0,0
-609,-454,0,0,0,0,0,0,0,0,0,-1,615,1478,0,0
-602,-454,0,0,0,0,0,0,0,0,0,-1,622,1478,0,0
-595,-454,0,0,0,0,0,0,0,0,0,-1,629,1478,0,0
-588,-454,0,0,0,0,0,0,0,0,0,-1,636,1478,0,0
-581,-454,0,0,0,0,0,0,0,0,0,-1,643,1478,0,0
-574,-454,-8.4881,-0.465942,0,0,0,0,0,0,0,-1,650,1478,-8.4881,0.465885
-567,-454,-8.10046,0.922974,0,0,0,0,0,0,0,-1,657,1478,-8.10047,-0.923034
-560,-454,-10.656,3.51172,0,0,0,0,0,0,0,-1,664,1478,-10.656,-3.51176
-553,-454,-9.01129,3.95251,0,0,0,0,0,0,0,-1,671,1478,-9.0113,-3.95256
-546,-454,-9.61896,6.05237,0,0,0,0,0,0,0,-1,678,1478,-9.61897,-6.05239
-539,-454,-7.72589,4.96533,0,0,0,0,0,0,0,-1,685,1478,-7.72592,-4.96532
-532,-454,-7.03931,7.59985,0,0,0,0,0,0,0,-1,692,1478,-7.03929,-7.59981
-525,-454,-5.78723,9.677,0,0,0,0,0,0,0,-1,699,1478,-5.78722,-9.67703
-518,-454,-8.79547,12.8668,0,0,0,0,0,0,0,-1,706,1478,-8.79546,-12.8668
-511,-454,-8.99109,13.4351,0.00173647,0.00103413,0.00192992,0.00334691,-0.000576312,0.695402,0.00244612,0.0479494,713,1478,-8.99109,-13.4351
-504,-454,-8.93414,14.1421,0.00139788,0.000567527,0.00136615,0.00241055,-0.000445146,0.637883,0.00177413,0.019309,720,1478,-8.93413,-14.1421
-497,-454,-8.96509,14.7941,0.00140634,0.000537407,0.00122232,0.00226912,-0.000325367,0.61464,0.00163205,0.0200437,727,1478,-8.96509,-14.7941
-490,-454,-8.98969,15.3586,0.00161925,0.000784251,0.00130291,0.00256992,-0.000166422,0.63035,0.00177136,0.0184976,734,1478,-8.98968,-15.3587
-483,-454,-9.00812,15.9316,0.00204715,0.00131305,0.00160385,0.00332541,3.47877e-05,0.672906,0.00220544,0.0164044,741,1478,-9.00809,-15.9317
-476,-454,-9.03229,16.5062,0.00268474,0.00208443,0.00214699,0.00455246,0.000216709,0.715947,0.00296538,0.012964,748,1478,-9.03229,-16.5063
-469,-454,-9.03491,17.1063,0.00354718,0.00314383,0.00298612,0.00633842,0.000352584,0.751681,0.00411313,0.00990781,755,1478,-9.03491,-17.1063
-462,-454,-9.0791,17.6953,0.00461109,0.00440065,0.00401091,0.00851816,0.000493584,0.772285,0.0055216,0.010914,762,1478,-9.07911,-17.6953
-455,-454,-9.12323,18.2822,0.00597781,0.00592925,0.00536916,0.0113227,0.000584318,0.783137,0.00736146,0.0123342,769,1478,-9.12321,-18.2823
-448,-454,-9.09406,18.9197,0.00770717,0.00787784,0.00712612,0.0149191,0.000665876,0.791385,0.00973173,0.0203933,776,1478,-9.09407,-18.9197
-441,-454,-8.8667,19.927,0,0,0,0,0,0,0,-1,783,1478,-8.8667,-19.927
-434,-454,-7.55743,19.4857,0,0,0,0,0,0,0,-1,790,1478,-7.55746,-19.4858
-427,-454,-6.00183,15.8636,0,0,0,0,0,0,0,-1,797,1478,-6.00184,-15.8637
-420,-454,-6.28088,15.2135,0,0,0,0,0,0,0,-1,804,1478,-6.28087,-15.2135
-413,-454,-5.4408,13.674,0,0,0,0,0,0,0,-1,811,1478,-5.44079,-13.6739
-406,-454,-2.38208,10.0308,0,0,0,0,0,0,0,-1,818,1478,-2.38209,-10.0308
-399,-454,-1.21033,6.95447,0,0,0,0,0,0,0,-1,825,1478,-1.21035,-6.95452
-392,-454,0.0967407,0.985474,0,0,0,0,0,0,0,-1,832,1478,0.0967364,-0.985529
-385,-454,2.38629,3.297,0,0,0,0,0,0,0,-1,839,1478,2.38629,-3.29702
-378,-454,-15.9756,2.83997,0,0,0,0,0,0,0,-1,846,1478,-15.9756,-2.83994
-371,-454,-17.2753,2.01453,0,0,0,0,0,0,0,-1,853,1478,-17.2753,-2.01455
-364,-454,1.08124,0.819458,0,0,0,0,0,0,0,-1,860,1478,1.08124,-0.819513
-357,-454,0,0,0,0,0,0,0,0,0,-1,867,1478,0,0
-350,-454,0,0,0,0,0,0,0,0,0,-1,874,1478,0,0
-343,-454,0,0,0,0,0,0,0,0,0,-1,881,1478,0,0
-336,-454,0,0,0,0,0,0,0,0,0,-1,888,1478,0,0
-329,-454,0,0,0,0,0,0,0,0,0,-1,895,1478,0,0
-322,-454,0,0,0,0,0,0,0,0,0,-1,902,1478,0,0
-315,-454,0,0,0,0,0,0,0,0,0,-1,909,1478,0,0
-308,-454,0,0,0,0,0,0,0,0,0,-1,916,1478,0,0
-301,-454,0,0,0,0,0,0,0,0,0,-1,923,1478,0,0
-294,-454,0,0,0,0,0,0,0,0,0,-1,930,1478,0,0
-287,-454,0,0,0,0,0,0,0,0,0,-1,937,1478,0,0
-280,-454,0,0,0,0,0,0,0,0,0,-1,944,1478,0,0
-273,-454,0,0,0,0,0,0,0,0,0,-1,951,1478,0,0
-266,-454,0,0,0,0,0,0,0,0,0,-1,958,1478,0,0
-259,-454,0,0,0,0,0,0,0,0,0,-1,965,1478,0,0
-252,-454,0,0,0,0,0,0,0,0,0,-1,972,1478,0,0
-245,-454,0,0,0,0,0,0,0,0,0,-1,979,1478,0,0
-238,-454,0,0,0,0,0,0,0,0,0,-1,986,1478,0,0
-231,-454,0,0,0,0,0,0,0,0,0,-1,993,1478,0,0
-224,-454,0,0,0,0,0,0,0,0,0,-1,1000,1478,0,0
-217,-454,0,0,0,0,0,0,0,0,0,-1,1007,1478,0,0
-210,-454,0,0,0,0,0,0,0,0,0,-1,1014,1478,0,0
-203,-454,0,0,0,0,0,0,0,0,0,-1,1021,1478,0,0
-196,-454,0,0,0,0,0,0,0,0,0,-1,1028,1478,0,0
-189,-454,0,0,0,0,0,0,0,0,0,-1,1035,1478,0,0
-182,-454,0,0,0,0,0,0,0,0,0,-1,1042,1478,0,0
-175,-454,0,0,0,0,0,0,0,0,0,-1,1049,1478,0,0
-168,-454,0,0,0,0,0,0,0,0,0,-1,1056,1478,0,0
-161,-454,0,0,0,0,0,0,0,0,0,-1,1063,1478,0,0
-154,-454,0,0,0,0,0,0,0,0,0,-1,1070,1478,0,0
-147,-454,0,0,0,0,0,0,0,0,0,-1,1077,1478,0,0
-140,-454,0,0,0,0,0,0,0,0,0,-1,1084,1478,0,0
-133,-454,0,0,0,0,0,0,0,0,0,-1,1091,1478,0,0
-126,-454,0,0,0,0,0,0,0,0,0,-1,1098,1478,0,0
-119,-454,0,0,0,0,0,0,0,0,0,-1,1105,1478,0,0
-112,-454,0,0,0,0,0,0,0,0,0,-1,1112,1478,0,0
-105,-454,0,0,0,0,0,0,0,0,0,-1,1119,1478,0,0
-98,-454,0,0,0,0,0,0,0,0,0,-1,1126,1478,0,0
-91,-454,0,0,0,0,0,0,0,0,0,-1,1133,1478,0,0
-84,-454,0,0,0,0,0,0,0,0,0,-1,1140,1478,0,0
-77,-454,0,0,0,0,0,0,0,0,0,-1,1147,1478,0,0
-70,-454,0,0,0,0,0,0,0,0,0,-1,1154,1478,0,0
-63,-454,0,0,0,0,0,0,0,0,0,-1,1161,1478,0,0
-56,-454,0,0,0,0,0,0,0,0,0,-1,1168,1478,0,0
-49,-454,0,0,0,0,0,0,0,0,0,-1,1175,1478,0,0
-42,-454,0,0,0,0,0,0,0,0,0,-1,1182,1478,0,0
-35,-454,0,0,0,0,0,0,0,0,0,-1,1189,1478,0,0
-28,-454,0,0,0,0,0,0,0,0,0,-1,1196,1478,0,0
-21,-454,0,0,0,0,0,0,0,0,0,-1,1203,1478,0,0
-14,-454,0,0,0,0,0,0,0,0,0,-1,1210,1478,0,0
-7,-454,0,0,0,0,0,0,0,0,0,-1,1217,1478,0,0
0,-454,0,0,0,0,0,0,0,0,0,-1,1224,1478,0,0
7,-454,0,0,0,0,0,0,0,0,0,-1,1231,1478,0,0
14,-454,0,0,0,0,0,0,0,0,0,-1,1238,1478,0,0
21,-454,0,0,0,0,0,0,0,0,0,-1,1245,1478,0,0
28,-454,0,0,0,0,0,0,0,0,0,-1,1252,1478,0,0
35,-454,0,0,0,0,0,0,0,0,0,-1,1259,1478,0,0
42,-454,0,0,0,0,0,0,0,0,0,-1,1266,1478,0,0
49,-454,0,0,0,0,0,0,0,0,0,-1,1273,1478,0,0
56,-454,0,0,0,0,0,0,0,0,0,-1,1280,1478,0,0
63,-454,0,0,0,0,0,0,0,0,0,-1,1287,1478,0,0
70,-454,0,0,0,0,0,0,0,0,0,-1,1294,1478,0,0
77,-454,0,0,0,0,0,0,0,0,0,-1,1301,1478,0,0
84,-454,0,0,0,0,0,0,0,0,0,-1,1308,1478,0,0
91,-454,0,0,0,0,0,0,0,0,0,-1,1315,1478,0,0
98,-454,0,0,0,0,0,0,0,0,0,-1,1322,1478,0,0
105,-454,0,0,0,0,0,0,0,0,0,-1,1329,1478,0,0
112,-454,0,0,0,0,0,0,0,0,0,-1,1336,1478,0,0
119,-454,0,0,0,0,0,0,0,0,0,-1,1343,1478,0,0
126,-454,0,0,0,0,0,0,0,0,0,-1,1350,1478,0,0
133,-454,0,0,0,0,0,0,0,0,0,-1,1357,1478,0,0
140,-454,0,0,0,0,0,0,0,0,0,-1,1364,1478,0,0
147,-454,0,0,0,0,0,0,0,0,0,-1,1371,1478,0,0
154,-454,0,0,0,0,0,0,0,0,0,-1,1378,1478,0,0
161,-454,0,0,0,0,0,0,0,0,0,-1,1385,1478,0,0
168,-454,0,0,0,0,0,0,0,0,0,-1,1392,1478,0,0
175,-454,0,0,0,0,0,0,0,0,0,-1,1399,1478,0,0
182,-454,0,0,0,0,0,0,0,0,0,-1,1406,1478,0,0
189,-454,0,0,0,0,0,0,0,0,0,-1,1413,1478,0,0
196,-454,0,0,0,0,0,0,0,0,0,-1,1420,1478,0,0
203,-454,0,0,0,0,0,0,0,0,0,-1,1427,1478,0,0
210,-454,0,0,0,0,0,0,0,0,0,-1,1434,1478,0,0
217,-454,0,0,0,0,0,0,0,0,0,-1,1441,1478,0,0
224,-454,0,0,0,0,0,0,0,0,0,-1,1448,1478,0,0
231,-454,0,0,0,0,0,0,0,0,0,-1,1455,1478,0,0
238,-454,0,0,0,0,0,0,0,0,0,-1,1462,1478,0,0
245,-454,0,0,0,0,0,0,0,0,0,-1,1469,1478,0,0
252,-454,0,0,0,0,0,0,0,0,0,-1,1476,1478,0,0
259,-454,0,0,0,0,0,0,0,0,0,-1,1483,1478,0,0
266,-454,0,0,0,0,0,0,0,0,0,-1,1490,1478,0,0
273,-454,0,0,0,0,0,0,0,0,0,-1,1497,1478,0,0
280,-454,0,0,0,0,0,0,0,0,0,-1,1504,1478,0,0
287,-454,0,0,0,0,0,0,0,0,0,-1,1511,1478,0,0
294,-454,0,0,0,0,0,0,0,0,0,-1,1518,1478,0,0
301,-454,0,0,0,0,0,0,0,0,0,-1,1525,1478,0,0
308,-454,0,0,0,0,0,0,0,0,0,-1,1532,1478,0,0
315,-454,0,0,0,0,0,0,0,0,0,-1,1539,1478,0,0
322,-454,0,0,0,0,0,0,0,0,0,-1,1546,1478,0,0
329,-454,0,0,0,0,0,0,0,0,0,-1,1553,1478,0,0
336,-454,0,0,0,0,0,0,0,0,0,-1,1560,1478,0,0
343,-454,0,0,0,0,0,0,0,0,0,-1,1567,1478,0,0
350,-454,0,0,0,0,0,0,0,0,0,-1,1574,1478,0,0
357,-454,0,0,0,0,0,0,0,0,0,-1,1581,1478,0,0
364,-454,0,0,0,0,0,0,0,0,0,-1,1588,1478,0,0
371,-454,0,0,0,0,0,0,0,0,0,-1,1595,1478,0,0
378,-454,0,0,0,0,0,0,0,0,0,-1,1602,1478,0,0
385,-454,0,0,0,0,0,0,0,0,0,-1,1609,1478,0,0
392,-454,0,0,0,0,0,0,0,0,0,-1,1616,1478,0,0
399,-454,0,0,0,0,0,0,0,0,0,-1,1623,1478,0,0
406,-454,0,0,0,0,0,0,0,0,0,-1,1630,1478,0,0
413,-454,0,0,0,0,0,0,0,0,0,-1,1637,1478,0,0
420,-454,0,0,0,0,0,0,0,0,0,-1,1644,1478,0,0
427,-454,0,0,0,0,0,0,0,0,0,-1,1651,1478,0,0
434,-454,0,0,0,0,0,0,0,0,0,-1,1658,1478,0,0
441,-454,0,0,0,0,0,0,0,0,0,-1,1665,1478,0,0
448,-454,0,0,0,0,0,0,0,0,0,-1,1672,1478,0,0
455,-454,0,0,0,0,0,0,0,0,0,-1,1679,1478,0,0
462,-454,0,0,0,0,0,0,0,0,0,-1,1686,1478,0,0
469,-454,0,0,0,0,0,0,0,0,0,-1,1693,1478,0,0
476,-454,0,0,0,0,0,0,0,0,0,-1,1700,1478,0,0
483,-454,14.2399,3.97498,0,0,0,0,0,0,0,-1,1707,1478,14.2399,-3.97502
490,-454,18.1821,-0.175781,0,0,0,0,0,0,0,-1,1714,1478,18.1821,0.175822
497,-454,16.8854,1.01208,0,0,0,0,0,0,0,-1,1721,1478,16.8854,-1.01209
504,-454,15.587,2.05994,0,0,0,0,0,0,0,-1,1728,1478,15.5871,-2.05998
511,-454,17.0273,14.5258,0,0,0,0,0,0,0,-1,1735,1478,17.0273,-14.5258
518,-454,16.4158,13.1039,0,0,0,0,0,0,0,-1,1742,1478,16.4157,-13.1038
525,-454,15.7842,11.6628,0,0,0,0,0,0,0,-1,1749,1478,15.7841,-11.6629
532,-454,15.1094,10.2476,0,0,0,0,0,0,0,-1,1756,1478,15.1094,-10.2475
539,-454,13.7905,10.9373,0,0,0,0,0,0,0,-1,1763,1478,13.7906,-10.9372
546,-454,16.2002,13.2458,0,0,0,0,0,0,0,-1,1770,1478,16.2002,-13.2459
553,-454,15.6747,12.1868,0,0,0,0,0,0,0,-1,1777,1478,15.6747,-12.1868
560,-454,16.3895,14.0527,0,0,0,0,0,0,0,-1,1784,1478,16.3895,-14.0528
567,-454,25.2472,21.6582,0,0,0,0,0,0,0,-1,1791,1478,25.2472,-21.6583
574,-454,25.1006,20.8909,0.00798367,0.0066529,-0.00538362,0.0127429,0.0018937,-0.723913,0.00793965,0.0407871,1798,1478,25.1006,-20.8908
581,-454,25.0865,20.2611,0.006489,0.00562996,-0.00457094,0.0106506,0.00146841,-0.738552,0.00666504,0.0246165,1805,1478,25.0865,-20.2612
588,-454,25.1426,19.6644,0.00520778,0.00445612,-0.00373872,0.00858951,0.0010744,-0.735305,0.00540393,0.014198,1812,1478,25.1426,-19.6644
595,-454,25.0804,19.125,0.0041622,0.00340664,-0.00298086,0.00678912,0.000779714,-0.722367,0.00428986,0.0122125,1819,1478,25.0804,-19.125
602,-454,25.0609,18.5774,0.00338606,0.00244159,-0.00227405,0.00523639,0.000591261,-0.683022,0.00331148,0.00926374,1826,1478,25.0609,-18.5774
609,-454,25.0723,18.0426,0.00279954,0.00160226,-0.00162817,0.00393563,0.000466165,-0.60923,0.002483,0.0118623,1833,1478,25.0723,-18.0426
616,-454,25.0503,17.5013,0.00237293,0.000947913,-0.00109189,0.00296422,0.000356619,-0.496317,0.00186865,0.0144941,1840,1478,25.0503,-17.5014
623,-454,25.0333,16.9628,0.00222977,0.000354649,-0.000631082,0.00242238,0.00016204,-0.296225,0.00156371,0.0137302,1847,1478,25.0333,-16.9628
630,-454,25.0276,16.4253,0.00230218,-0.000123126,-0.000258305,0.00232939,-0.000150331,-0.104936,0.00160538,0.0132308,1854,1478,25.0275,-16.4253
637,-454,24.9729,15.8815,0.00258068,-0.000239473,-0.000106755,0.00258472,-0.000243509,-0.0377821,0.00180978,0.011791,1861,1478,24.9729,-15.8815
644,-454,25.0175,15.3142,0.00307739,-0.000161798,-0.000127285,0.00308239,-0.000166792,-0.0392148,0.00211272,0.0227074,1868,1478,25.0175,-15.3143
651,-454,25.1686,14.6018,0,0,0,0,0,0,0,-1,1875,1478,25.1686,-14.6018
658,-454,17.2583,10.0765,0,0,0,0,0,0,0,-1,1882,1478,17.2583,-10.0765
665,-454,17.683,9.67566,0,0,0,0,0,0,0,-1,1889,1478,17.683,-9.67572
672,-454,16.5476,6.41931,0,0,0,0,0,0,0,-1,1896,1478,16.5476,-6.41929
679,-454,14.2161,5.45007,0,0,0,0,0,0,0,-1,1903,1478,14.2161,-5.45013
686,-454,10.3767,2.12842,0,0,0,0,0,0,0,-1,1910,1478,10.3767,-2.12839
693,-454,11.1857,1.48486,0,0,0,0,0,0,0,-1,1917,1478,11.1857,-1.48487
700,-454,0,0,0,0,0,0,0,0,0,-1,1924,1478,0,0
707,-454,0,0,0,0,0,0,0,0,0,-1,1931,1478,0,0
714,-454,0,0,0,0,0,0,0,0,0,-1,1938,1478,0,0
721,-454,0,0,0,0,0,0,0,0,0,-1,1945,1478,0,0
728,-454,0,0,0,0,0,0,0,0,0,-1,1952,1478,0,0
735,-454,0,0,0,0,0,0,0,0,0,-1,1959,1478,0,0
742,-454,0,0,0,0,0,0,0,0,0,-1,1966,1478,0,0
749,-454,0,0,0,0,0,0,0,0,0,-1,1973,1478,0,0
756,-454,0,0,0,0,0,0,0,0,0,-1,1980,1478,0,0
763,-454,0,0,0,0,0,0,0,0,0,-1,1987,1478,0,0
770,-454,0,0,0,0,0,0,0,0,0,-1,1994,1478,0,0
777,-454,0,0,0,0,0,0,0,0,0,-1,2001,1478,0,0
784,-454,0,0,0,0,0,0,0,0,0,-1,2008,1478,0,0
791,-454,0,0,0,0,0,0,0,0,0,-1,2015,1478,0,0
798,-454,0,0,0,0,0,0,0,0,0,-1,2022,1478,0,0
805,-454,0,0,0,0,0,0,0,0,0,-1,2029,1478,0,0
812,-454,0,0,0,0,0,0,0,0,0,-1,2036,1478,0,0
-700,-461,0,0,0,0,0,0,0,0,0,-1,524,1485,0,0
-693,-461,0,0,0,0,0,0,0,0,0,-1,531,1485,0,0
-686,-461,0,0,0,0,0,0,0,0,0,-1,538,1485,0,0
-679,-461,0,0,0,0,0,0,0,0,0,-1,545,1485,0,0
-672,-461,0,0,0,0,0,0,0,0,0,-1,552,1485,0,0
-665,-461,0,0,0,0,0,0,0,0,0,-1,559,1485,0,0
-658,-461,0,0,0,0,0,0,0,0,0,-1,566,1485,0,0
-651,-461,0,0,0,0,0,0,0,0,0,-1,573,1485,0,0
-644,-461,0,0,0,0,0,0,0,0,0,-1,580,1485,0,0
-637,-461,0,0,0,0,0,0,0,0,0,-1,587,1485,0,0
-630,-461,0,0,0,0,0,0,0,0,0,-1,594,1485,0,0
-623,-461,0,0,0,0,0,0,0,0,0,-1,601,1485,0,0
-616,-461,0,0,0,0,0,0,0,0,0,-1,608,1485,0,0
-609,-461,0,0,0,0,0,0,0,0,0,-1,615,1485,0,0
-602,-461,0,0,0,0,0,0,0,0,0,-1,622,1485,0,0
-595,-461,0,0,0,0,0,0,0,0,0,-1,629,1485,0,0
-588,-461,0,0,0,0,0,0,0,0,0,-1,636,1485,0,0
-581,-461,0,0,0,0,0,0,0,0,0,-1,643,1485,0,0
-574,-461,0,0,0,0,0,0,0,0,0,-1,650,1485,0,0
-567,-461,-9.69031,0.513306,0,0,0,0,0,0,0,-1,657,1485,-9.69032,-0.513305
-560,-461,-7.28815,1.54004,0,0,0,0,0,0,0,-1,664,1485,-7.28817,-1.54005
-553,-461,-11.9607,5.27783,0,0,0,0,0,0,0,-1,671,1485,-11.9607,-5.27778
-546,-461,-11.4215,4.44666,0,0,0,0,0,0,0,-1,678,1485,-11.4215,-4.4467
-539,-461,-9.36493,5.23438,0,0,0,0,0,0,0,-1,685,1485,-9.3649,-5.23432
-532,-461,-7.82898,6.78357,0,0,0,0,0,0,0,-1,692,1485,-7.829,-6.78363
-525,-461,-6.37878,8.75659,0,0,0,0,0,0,0,-1,699,1485,-6.3788,-8.75659
-518,-461,-6.49695,10.886,0,0,0,0,0,0,0,-1,706,1485,-6.49696,-10.8859
-511,-461,-8.61646,13.4537,0,0,0,0,0,0,0,-1,713,1485,-8.61646,-13.4538
-504,-461,-8.42981,14.1075,0.00157785,0.00107522,0.000601513,0.00197844,0.000674636,0.587517,0.00116135,0.0305108,720,1485,-8.42978,-14.1075
-497,-461,-8.36108,14.8038,0.00135884,0.000823557,0.000388493,0.00156296,0.000619438,0.48377,0.000908821,0.0109223,727,1485,-8.36106,-14.8038
-490,-461,-8.38794,15.3873,0.00135289,0.000801413,0.000423675,0.00158266,0.000571651,0.496919,0.000925408,0.0121753,734,1485,-8.38797,-15.3874
-483,-461,-8.42023,15.9615,0.00157744,0.00104925,0.000711204,0.002072,0.000554688,0.60762,0.00123856,0.0122966,741,1485,-8.42025,-15.9615
-476,-461,-8.45581,16.548,0.0020152,0.00151877,0.00124151,0.00303306,0.000500905,0.686734,0.00187748,0.0105376,748,1485,-8.45581,-16.548
-469,-461,-8.46259,17.1279,0.00268344,0.00225296,0.00206473,0.00454412,0.000392282,0.733462,0.00290749,0.012242,755,1485,-8.46259,-17.128
-462,-461,-8.49323,17.7081,0.00353586,0.00316184,0.00304973,0.00640431,0.000293389,0.754776,0.00417518,0.018995,762,1485,-8.49323,-17.7081
-455,-461,-8.55084,18.275,0.00464215,0.00428169,0.00429182,0.00875752,0.00016632,0.764414,0.0057837,0.0238089,769,1485,-8.55085,-18.275
-448,-461,-8.53925,18.9004,0.00610773,0.00581778,0.00591949,0.011884,4.149e-05,0.773155,0.00790889,0.0199619,776,1485,-8.53927,-18.9004
-441,-461,-8.44354,19.5913,0.00794197,0.00752035,0.00790802,0.015642,-0.000179667,0.772073,0.0104884,0.0301145,783,1485,-8.44353,-19.5913
-434,-461,-8.26874,20.4575,0,0,0,0,0,0,0,-1,790,1485,-8.26874,-20.4575
-427,-461,-7.73358,20.3715,0,0,0,0,0,0,0,-1,797,1485,-7.7336,-20.3715
-420,-461,-5.70355,16.6116,0,0,0,0,0,0,0,-1,804,1485,-5.70353,-16.6115
-413,-461,-5.98798,16.0605,0,0,0,0,0,0,0,-1,811,1485,-5.98796,-16.0605
-406,-461,-5.52667,14.839,0,0,0,0,0,0,0,-1,818,1485,-5.52666,-14.839
-399,-461,-1.93439,9.82849,0,0,0,0,0,0,0,-1,825,1485,-1.9344,-9.82846
-392,-461,-0.357544,5.55225,0,0,0,0,0,0,0,-1,832,1485,-0.357536,-5.55228
-385,-461,1.71509,3.35254,0,0,0,0,0,0,0,-1,839,1485,1.71511,-3.35255
-378,-461,1.95996,3.01111,0,0,0,0,0,0,0,-1,846,1485,1.95993,-3.01111
-371,-461,0.702881,2.33459,0,0,0,0,0,0,0,-1,853,1485,0.702859,-2.33459
-364,-461,-1.93097,2.56458,0,0,0,0,0,0,0,-1,860,1485,-1.93095,-2.56456
-357,-461,-2.41516,3.49487,0,0,0,0,0,0,0,-1,867,1485,-2.41517,-3.49487
-350,-461,0,0,0,0,0,0,0,0,0,-1,874,1485,0,0
-343,-461,0,0,0,0,0,0,0,0,0,-1,881,1485,0,0
-336,-461,0,0,0,0,0,0,0,0,0,-1,888,1485,0,0
-329,-461,0,0,0,0,0,0,0,0,0,-1,895,1485,0,0
-322,-461,0,0,0,0,0,0,0,0,0,-1,902,1485,0,0
-315,-461,0,0,0,0,0,0,0,0,0,-1,909,1485,0,0
-308,-461,0,0,0,0,0,0,0,0,0,-1,916,1485,0,0
-301,-461,0,0,0,0,0,0,0,0,0,-1,923,1485,0,0
-294,-461,0,0,0,0,0,0,0,0,0,-1,930,1485,0,0
-287,-461,0,0,0,0,0,0,0,0,0,-1,937,1485,0,0
-280,-461,0,0,0,0,0,0,0,0,0,-1,944,1485,0,0
-273,-461,0,0,0,0,0,0,0,0,0,-1,951,1485,0,0
-266,-461,0,0,0,0,0,0,0,0,0,-1,958,1485,0,0
-259,-461,0,0,0,0,0,0,0,0,0,-1,965,1485,0,0
-252,-461,0,0,0,0,0,0,0,0,0,-1,972,1485,0,0
-245,-461,0,0,0,0,0,0,0,0,0,-1,979,1485,0,0
-238,-461,0,0,0,0,0,0,0,0,0,-1,986,1485,0,0
-231,-461,0,0,0,0,0,0,0,0,0,-1,993,1485,0,0
-224,-461,0,0,0,0,0,0,0,0,0,-1,1000,1485,0,0
-217,-461,0,0,0,0,0,0,0,0,0,-1,1007,1485,0,0
-210,-461,0,0,0,0,0,0,0,0,0,-1,1014,1485,0,0
-203,-461,0,0,0,0,0,0,0,0,0,-1,1021,1485,0,0
-196,-461,0,0,0,0,0,0,0,0,0,-1,1028,1485,0,0
-189,-461,0,0,0,0,0,0,0,0,0,-1,1035,1485,0,0
-182,-461,0,0,0,0,0,0,0,0,0,-1,1042,1485,0,0
-175,-461,0,0,0,0,0,0,0,0,0,-1,1049,1485,0,0
-168,-461,0,0,0,0,0,0,0,0,0,-1,1056,1485,0,0
-161,-461,0,0,0,0,0,0,0,0,0,-1,1063,1485,0,0
-154,-461,0,0,0,0,0,0,0,0,0,-1,1070,1485,0,0
-147,-461,0,0,0,0,0,0,0,0,0,-1,1077,1485,0,0
-140,-461,0,0,0,0,0,0,0,0,0,-1,1084,1485,0,0
-133,-461,0,0,0,0,0,0,0,0,0,-1,1091,1485,0,0
-126,-461,0,0,0,0,0,0,0,0,0,-1,1098,1485,0,0
-119,-461,0,0,0,0,0,0,0,0,0,-1,1105,1485,0,0
-112,-461,0,0,0,0,0,0,0,0,0,-1,1112,1485,0,0
-105,-461,0,0,0,0,0,0,0,0,0,-1,1119,1485,0,0
-98,-461,0,0,0,0,0,0,0,0,0,-1,1126,1485,0,0
-91,-461,0,0,0,0,0,0,0,0,0,-1,1133,1485,0,0
-84,-461,0,0,0,0,0,0,0,0,0,-1,1140,1485,0,0
-77,-461,0,0,0,0,0,0,0,0,0,-1,1147,1485,0,0
-70,-461,0,0,0,0,0,0,0,0,0,-1,1154,1485,0,0
-63,-461,0,0,0,0,0,0,0,0,0,-1,1161,1485,0,0
-56,-461,0,0,0,0,0,0,0,0,0,-1,1168,1485,0,0
-49,-461,0,0,0,0,0,0,0,0,0,-1,1175,1485,0,0
-42,-461,0,0,0,0,0,0,0,0,0,-1,1182,1485,0,0
-35,-461,0,0,0,0,0,0,0,0,0,-1,1189,1485,0,0
-28,-461,0,0,0,0,0,0,0,0,0,-1,1196,1485,0,0
-21,-461,0,0,0,0,0,0,0,0,0,-1,1203,1485,0,0
-14,-461,0,0,0,0,0,0,0,0,0,-1,1210,1485,0,0
-7,-461,0,0,0,0,0,0,0,0,0,-1,1217,1485,0,0
0,-461,0,0,0,0,0,0,0,0,0,-1,1224,1485,0,0
7,-461,0,0,0,0,0,0,0,0,0,-1,1231,1485,0,0
14,-461,0,0,0,0,0,0,0,0,0,-1,1238,1485,0,0
21,-461,0,0,0,0,0,0,0,0,0,-1,1245,1485,0,0
28,-461,0,0,0,0,0,0,0,0,0,-1,1252,1485,0,0
35,-461,0,0,0,0,0,0,0,0,0,-1,1259,1485,0,0
42,-461,0,0,0,0,0,0,0,0,0,-1,1266,1485,0,0
49,-461,0,0,0,0,0,0,0,0,0,-1,1273,1485,0,0
56,-461,0,0,0,0,0,0,0,0,0,-1,1280,1485,0,0
63,-461,0,0,0,0,0,0,0,0,0,-1,1287,1485,0,0
70,-461,0,0,0,0,0,0,0,0,0,-1,1294,1485,0,0
77,-461,0,0,0,0,0,0,0,0,0,-1,1301,1485,0,0
84,-461,0,0,0,0,0,0,0,0,0,-1,1308,1485,0,0
91,-461,0,0,0,0,0,0,0,0,0,-1,1315,1485,0,0
98,-461,0,0,0,0,0,0,0,0,0,-1,1322,1485,0,0
105,-461,0,0,0,0,0,0,0,0,0,-1,1329,1485,0,0
112,-461,0,0,0,0,0,0,0,0,0,-1,1336,1485,0,0
119,-461,0,0,0,0,0,0,0,0,0,-1,1343,1485,0,0
126,-461,0,0,0,0,0,0,0,0,0,-1,1350,1485,0,0
133,-461,0,0,0,0,0,0,0,0,0,-1,1357,1485,0,0
140,-461,0,0,0,0,0,0,0,0,0,-1,1364,1485,0,0
147,-461,0,0,0,0,0,0,0,0,0,-1,1371,1485,0,0
154,-461,0,0,0,0,0,0,0,0,0,-1,1378,1485,0,0
161,-461,0,0,0,0,0,0,0,0,0,-1,1385,1485,0,0
168,-461,0,0,0,0,0,0,0,0,0,-1,1392,1485,0,0
175,-461,0,0,0,0,0,0,0,0,0,-1,1399,1485,0,0
182,-461,0,0,0,0,0,0,0,0,0,-1,1406,1485,0,0
189,-461,0,0,0,0,0,0,0,0,0,-1,1413,1485,0,0
196,-461,0,0,0,0,0,0,0,0,0,-1,1420,1485,0,0
203,-461,0,0,0,0,0,0,0,0,0,-1,1427,1485,0,0
210,-461,0,0,0,0,0,0,0,0,0,-1,1434,1485,0,0
217,-461,0,0,0,0,0,0,0,0,0,-1,1441,1485,0,0
224,-461,0,0,0,0,0,0,0,0,0,-1,1448,1485,0,0
231,-461,0,0,0,0,0,0,0,0,0,-1,1455,1485,0,0
238,-461,0,0,0,0,0,0,0,0,0,-1,1462,1485,0,0
245,-461,0,0,0,0,0,0,0,0,0,-1,1469,1485,0,0
252,-461,0,0,0,0,0,0,0,0,0,-1,1476,1485,0,0
259,-461,0,0,0,0,0,0,0,0,0,-1,1483,1485,0,0
266,-461,0,0,0,0,0,0,0,0,0,-1,1490,1485,0,0
273,-461,0,0,0,0,0,0,0,0,0,-1,1497,1485,0,0
280,-461,0,0,0,0,0,0,0,0,0,-1,1504,1485,0,0
287,-461,0,0,0,0,0,0,0,0,0,-1,1511,1485,0,0
294,-461,0,0,0,0,0,0,0,0,0,-1,1518,1485,0,0
301,-461,0,0,0,0,0,0,0,0,0,-1,1525,1485,0,0
308,-461,0,0,0,0,0,0,0,0,0,-1,1532,1485,0,0
315,-461,0,0,0,0,0,0,0,0,0,-1,1539,1485,0,0
322,-461,0,0,0,0,0,0,0,0,0,-1,1546,1485,0,0
329,-461,0,0,0,0,0,0,0,0,0,-1,1553,1485,0,0
336,-461,0,0,0,0,0,0,0,0,0,-1,1560,1485,0,0
343,-461,0,0,0,0,0,0,0,0,0,-1,1567,1485,0,0
350,-461,0,0,0,0,0,0,0,0,0,-1,1574,1485,0,0
357,-461,0,0,0,0,0,0,0,0,0,-1,1581,1485,0,0
364,-461,0,0,0,0,0,0,0,0,0,-1,1588,1485,0,0
371,-461,0,0,0,0,0,0,0,0,0,-1,1595,1485,0,0
378,-461,0,0,0,0,0,0,0,0,0,-1,1602,1485,0,0
385,-461,0,0,0,0,0,0,0,0,0,-1,1609,1485,0,0
392,-461,0,0,0,0,0,0,0,0,0,-1,1616,1485,0,0
399,-461,0,0,0,0,0,0,0,0,0,-1,1623,1485,0,0
406,-461,0,0,0,0,0,0,0,0,0,-1,1630,1485,0,0
413,-461,0,0,0,0,0,0,0,0,0,-1,1637,1485,0,0
420,-461,0,0,0,0,0,0,0,0,0,-1,1644,1485,0,0
427,-461,0,0,0,0,0,0,0,0,0,-1,1651,1485,0,0
434,-461,0,0,0,0,0,0,0,0,0,-1,1658,1485,0,0
441,-461,0,0,0,0,0,0,0,0,0,-1,1665,1485,0,0
448,-461,0,0,0,0,0,0,0,0,0,-1,1672,1485,0,0
455,-461,0,0,0,0,0,0,0,0,0,-1,1679,1485,0,0
462,-461,0,0,0,0,0,0,0,0,0,-1,1686,1485,0,0
469,-461,0,0,0,0,0,0,0,0,0,-1,1693,1485,0,0
476,-461,14.1906,0.690552,0,0,0,0,0,0,0,-1,1700,1485,14.1906,-0.690525
483,-461,10.6361,3.09106,0,0,0,0,0,0,0,-1,1707,1485,10.6361,-3.091
490,-461,17.9972,0.665894,0,0,0,0,0,0,0,-1,1714,1485,17.9972,-0.665876
497,-461,16.6829,1.87732,0,0,0,0,0,0,0,-1,1721,1485,16.6828,-1.87736
504,-461,15.3884,3.09216,0,0,0,0,0,0,0,-1,1728,1485,15.3885,-3.09212
511,-461,15.4292,14.3512,0,0,0,0,0,0,0,-1,1735,1485,15.4292,-14.3512
518,-461,14.8081,10.0085,0,0,0,0,0,0,0,-1,1742,1485,14.8081,-10.0086
525,-461,14.0022,10.8033,0,0,0,0,0,0,0,-1,1749,1485,14.0022,-10.8033
532,-461,17.1704,14.077,0,0,0,0,0,0,0,-1,1756,1485,17.1704,-14.077
539,-461,17.0229,14.7386,0,0,0,0,0,0,0,-1,1763,1485,17.0229,-14.7387
546,-461,16.2106,14.1372,0,0,0,0,0,0,0,-1,1770,1485,16.2106,-14.1372
553,-461,23.8392,22.2223,0,0,0,0,0,0,0,-1,1777,1485,23.8392,-22.2223
560,-461,24.5914,21.8483,0,0,0,0,0,0,0,-1,1784,1485,24.5915,-21.8483
567,-461,24.6187,21.2505,0.0079386,0.00629474,-0.00476214,0.0119492,0.00228412,-0.699942,0.00732447,0.0340811,1791,1485,24.6187,-21.2505
574,-461,24.6249,20.7969,0.00647303,0.00529377,-0.00410971,0.0100352,0.00173161,-0.714148,0.00619413,0.0295227,1798,1485,24.6249,-20.7968
581,-461,24.625,20.2267,0.00527678,0.00440653,-0.00347757,0.00834635,0.00133696,-0.72316,0.00517645,0.0182389,1805,1485,24.625,-20.2267
588,-461,24.5923,19.6885,0.00424948,0.00341057,-0.00280678,0.00666797,0.000992083,-0.711225,0.0041543,0.0119929,1812,1485,24.5923,-19.6885
595,-461,24.53,19.1604,0.00349093,0.00252845,-0.00222648,0.00528759,0.00073179,-0.678964,0.00330822,0.0096665,1819,1485,24.53,-19.1604
602,-461,24.5282,18.6086,0.00292434,0.00172362,-0.00169258,0.00411988,0.000528081,-0.614969,0.00258858,0.0101415,1826,1485,24.5282,-18.6087
609,-461,24.5238,18.0581,0.00250793,0.00102288,-0.00118643,0.00316503,0.00036578,-0.505794,0.00199928,0.0124827,1833,1485,24.5239,-18.0581
616,-461,24.5039,17.5148,0.00224497,0.00045987,-0.000749918,0.00251819,0.00018665,-0.349387,0.00162017,0.0144971,1840,1485,24.504,-17.5147
623,-461,24.4939,16.9976,0.002238,-7.73707e-05,-0.000352143,0.00229038,-0.000129743,-0.147643,0.00157195,0.0159166,1847,1485,24.4939,-16.9976
630,-461,24.4724,16.4841,0.00244001,-0.000478868,-2.69655e-05,0.00244026,-0.000479117,-0.00923726,0.00180783,0.0159289,1854,1485,24.4724,-16.4841
637,-461,24.4365,15.9304,0.00294851,-0.000430094,1.31371e-05,0.00294857,-0.000430145,0.00388824,0.00212366,0.0153371,1861,1485,24.4366,-15.9304
644,-461,24.5001,15.4514,0.00363262,-0.000275574,-6.19884e-05,0.0036336,-0.000276557,-0.0158558,0.00251965,0.0302619,1868,1485,24.5001,-15.4514
651,-461,24.6061,14.9347,0,0,0,0,0,0,0,-1,1875,1485,24.6061,-14.9347
658,-461,16.8987,10.1084,0,0,0,0,0,0,0,-1,1882,1485,16.8986,-10.1084
665,-461,17.2638,9.81384,0,0,0,0,0,0,0,-1,1889,1485,17.2638,-9.81385
672,-461,14.4877,6.89429,0,0,0,0,0,0,0,-1,1896,1485,14.4876,-6.89431
679,-461,10.0535,2.16321,0,0,0,0,0,0,0,-1,1903,1485,10.0535,-2.16317
686,-461,10.8195,1.84192,0,0,0,0,0,0,0,-1,1910,1485,10.8194,-1.84195
693,-461,0,0,0,0,0,0,0,0,0,-1,1917,1485,0,0
700,-461,0,0,0,0,0,0,0,0,0,-1,1924,1485,0,0
707,-461,0,0,0,0,0,0,0,0,0,-1,1931,1485,0,0
714,-461,0,0,0,0,0,0,0,0,0,-1,1938,1485,0,0
721,-461,0,0,0,0,0,0,0,0,0,-1,1945,1485,0,0
728,-461,0,0,0,0,0,0,0,0,0,-1,1952,1485,0,0
735,-461,0,0,0,0,0,0,0,0,0,-1,1959,1485,0,0
742,-461,0,0,0,0,0,0,0,0,0,-1,1966,1485,0,0
749,-461,0,0,0,0,0,0,0,0,0,-1,1973,1485,0,0
756,-461,0,0,0,0,0,0,0,0,0,-1,1980,1485,0,0
763,-461,0,0,0,0,0,0,0,0,0,-1,1987,1485,0,0
770,-461,0,0,0,0,0,0,0,0,0,-1,1994,1485,0,0
777,-461,0,0,0,0,0,0,0,0,0,-1,2001,1485,0,0
784,-461,0,0,0,0,0,0,0,0,0,-1,2008,1485,0,0
791,-461,0,0,0,0,0,0,0,0,0,-1,2015,1485,0,0
798,-461,0,0,0,0,0,0,0,0,0,-1,2022,1485,0,0
805,-461,0,0,0,0,0,0,0,0,0,-1,2029,1485,0,0
812,-461,0,0,0,0,0,0,0,0,0,-1,2036,1485,0,0
-700,-468,0,0,0,0,0,0,0,0,0,-1,524,1492,0,0
-693,-468,0,0,0,0,0,0,0,0,0,-1,531,1492,0,0
-686,-468,0,0,0,0,0,0,0,0,0,-1,538,1492,0,0
-679,-468,0,0,0,0,0,0,0,0,0,-1,545,1492,0,0
-672,-468,0,0,0,0,0,0,0,0,0,-1,552,1492,0,0
-665,-468,0,0,0,0,0,0,0,0,0,-1,559,1492,0,0
-658,-468,0,0,0,0,0,0,0,0,0,-1,566,1492,0,0
-651,-468,0,0,0,0,0,0,0,0,0,-1,573,1492,0,0
-644,-468,0,0,0,0,0,0,0,0,0,-1,580,1492,0,0
-637,-468,0,0,0,0,0,0,0,0,0,-1,587,1492,0,0
-630,-468,0,0,0,0,0,0,0,0,0,-1,594,1492,0,0
-623,-468,0,0,0,0,0,0,0,0,0,-1,601,1492,0,0
-616,-468,0,0,0,0,0,0,0,0,0,-1,608,1492,0,0
-609,-468,0,0,0,0,0,0,0,0,0,-1,615,1492,0,0
-602,-468,0,0,0,0,0,0,0,0,0,-1,622,1492,0,0
-595,-468,0,0,0,0,0,0,0,0,0,-1,629,1492,0,0
-588,-468,0,0,0,0,0,0,0,0,0,-1,636,1492,0,0
-581,-468,0,0,0,0,0,0,0,0,0,-1,643,1492,0,0
-574,-468,0,0,0,0,0,0,0,0,0,-1,650,1492,0,0
-567,-468,-11.2603,1.8042,0,0,0,0,0,0,0,-1,657,1492,-11.2603,-1.80424
-560,-468,-8.77441,2.23694,0,0,0,0,0,0,0,-1,664,1492,-8.77443,-2.23692
-553,-468,-5.94061,9.26318,0,0,0,0,0,0,0,-1,671,1492,-5.94062,-9.26322
-546,-468,-10.47,5.43237,0,0,0,0,0,0,0,-1,678,1492,-10.47,-5.4324
-539,-468,-10.2468,5.45203,0,0,0,0,0,0,0,-1,685,1492,-10.2468,-5.45197
-532,-468,-8.39795,6.02783,0,0,0,0,0,0,0,-1,692,1492,-8.39793,-6.02789
-525,-468,-6.59332,7.15405,0,0,0,0,0,0,0,-1,699,1492,-6.59331,-7.15411
-518,-468,-6.33588,8.65393,0,0,0,0,0,0,0,-1,706,1492,-6.33588,-8.65397
-511,-468,-7.75732,13.5543,0,0,0,0,0,0,0,-1,713,1492,-7.75731,-13.5543
-504,-468,-7.68427,14.1409,0.00126189,0.00205021,0.000297703,0.00215001,0.0011621,1.24736,0.00124266,0.0476955,720,1492,-7.68425,-14.1409
-497,-468,-7.78644,14.7488,0.000792557,0.00139854,-2.5134e-05,0.00139958,0.000791516,-1.52941,0.000810361,0.020553,727,1492,-7.78646,-14.7488
-490,-468,-7.78418,15.4172,0.000612243,0.000980252,-8.70118e-05,0.000999788,0.000592707,-1.34994,0.000580535,0.00785366,734,1492,-7.78416,-15.4172
-483,-468,-7.83063,15.9885,0.000725266,0.000885946,0.000109767,0.000941633,0.000669579,1.10131,0.000559568,0.00884305,741,1492,-7.8306,-15.9885
-476,-468,-7.85651,16.5674,0.0010818,0.00104722,0.000530273,0.00159506,0.000533953,0.7691,0.000937525,0.00909738,748,1492,-7.85648,-16.5674
-469,-468,-7.85651,17.1639,0.00169307,0.00149791,0.00122534,0.0028247,0.000366273,0.745664,0.0017737,0.0125296,755,1492,-7.85652,-17.164
-462,-468,-7.85468,17.7494,0.00249179,0.00215933,0.00206724,0.00439947,0.000251647,0.745278,0.0028528,0.0240042,762,1492,-7.85466,-17.7494
-455,-468,-7.90863,18.2788,0.00350794,0.00302566,0.00310408,0.00638023,0.000153364,0.746634,0.0042033,0.0256417,769,1492,-7.90865,-18.2788
-448,-468,-7.93207,18.8948,0.0048577,0.00432137,0.00449084,0.00908838,9.06931e-05,0.755577,0.00602891,0.014686,776,1492,-7.93208,-18.8948
-441,-468,-7.93915,19.4814,0.0065455,0.00587619,0.00620738,0.0124272,-5.55208e-06,0.758468,0.00828668,0.014155,783,1492,-7.93917,-19.4815
-434,-468,-7.89789,20.1528,0.0086353,0.00795828,0.00838964,0.0166933,-9.96804e-05,0.765235,0.0111622,0.0248089,790,1492,-7.89789,-20.1528
-427,-468,-7.8902,20.8304,0,0,0,0,0,0,0,-1,797,1492,-7.8902,-20.8305
-420,-468,-7.06097,20.8763,0,0,0,0,0,0,0,-1,804,1492,-7.06098,-20.8764
-413,-468,-5.30328,17.3519,0,0,0,0,0,0,0,-1,811,1492,-5.30329,-17.352
-406,-468,-2.2356,9.396,0,0,0,0,0,0,0,-1,818,1492,-2.2356,-9.396
-399,-468,-0.940369,8.1936,0,0,0,0,0,0,0,-1,825,1492,-0.940365,-8.19357
-392,-468,-0.35144,8.14673,0,0,0,0,0,0,0,-1,832,1492,-0.351449,-8.14674
-385,-468,0.465759,5.35864,0,0,0,0,0,0,0,-1,839,1492,0.465732,-5.35864
-378,-468,1.99835,3.25391,0,0,0,0,0,0,0,-1,846,1492,1.99837,-3.2539
-371,-468,-0.31842,3.1532,0,0,0,0,0,0,0,-1,853,1492,-0.318441,-3.15324
-364,-468,-0.966736,2.14563,0,0,0,0,0,0,0,-1,860,1492,-0.966735,-2.14557
-357,-468,-3.06787,3.22742,0,0,0,0,0,0,0,-1,867,1492,-3.06784,-3.2274
-350,-468,-3.18658,4.12659,0,0,0,0,0,0,0,-1,874,1492,-3.18659,-4.12658
-343,-468,0,0,0,0,0,0,0,0,0,-1,881,1492,0,0
-336,-468,0,0,0,0,0,0,0,0,0,-1,888,1492,0,0
-329,-468,0,0,0,0,0,0,0,0,0,-1,895,1492,0,0
-322,-468,0,0,0,0,0,0,0,0,0,-1,902,1492,0,0
-315,-468,0,0,0,0,0,0,0,0,0,-1,909,1492,0,0
-308,-468,0,0,0,0,0,0,0,0,0,-1,916,1492,0,0
-301,-468,0,0,0,0,0,0,0,0,0,-1,923,1492,0,0
-294,-468,0,0,0,0,0,0,0,0,0,-1,930,1492,0,0
-287,-468,0,0,0,0,0,0,0,0,0,-1,937,1492,0,0
-280,-468,0,0,0,0,0,0,0,0,0,-1,944,1492,0,0
-273,-468,0,0,0,0,0,0,0,0,0,-1,951,1492,0,0
-266,-468,0,0,0,0,0,0,0,0,0,-1,958,1492,0,0
-259,-468,0,0,0,0,0,0,0,0,0,-1,965,1492,0,0
-252,-468,0,0,0,0,0,0,0,0,0,-1,972,1492,0,0
-245,-468,0,0,0,0,0,0,0,0,0,-1,979,1492,0,0
-238,-468,0,0,0,0,0,0,0,0,0,-1,986,1492,0,0
-231,-468,0,0,0,0,0,0,0,0,0,-1,993,1492,0,0
-224,-468,0,0,0,0,0,0,0,0,0,-1,1000,1492,0,0
-217,-468,0,0,0,0,0,0,0,0,0,-1,1007,1492,0,0
-210,-468,0,0,0,0,0,0,0,0,0,-1,1014,1492,0,0
-203,-468,0,0,0,0,0,0,0,0,0,-1,1021,1492,0,0
-196,-468,0,0,0,0,0,0,0,0,0,-1,1028,1492,0,0
-189,-468,0,0,0,0,0,0,0,0,0,-1,1035,1492,0,0
-182,-468,0,0,0,0,0,0,0,0,0,-1,1042,1492,0,0
-175,-468,0,0,0,0,0,0,0,0,0,-1,1049,1492,0,0
-168,-468,0,0,0,0,0,0,0,0,0,-1,1056,1492,0,0
-161,-468,0,0,0,0,0,0,0,0,0,-1,1063,1492,0,0
-154,-468,0,0,0,0,0,0,0,0,0,-1,1070,1492,0,0
-147,-468,0,0,0,0,0,0,0,0,0,-1,1077,1492,0,0
-140,-468,0,0,0,0,0,0,0,0,0,-1,1084,1492,0,0
-133,-468,0,0,0,0,0,0,0,0,0,-1,1091,1492,0,0
-126,-468,0,0,0,0,0,0,0,0,0,-1,1098,1492,0,0
-119,-468,0,0,0,0,0,0,0,0,0,-1,1105,1492,0,0
-112,-468,0,0,0,0,0,0,0,0,0,-1,1112,1492,0,0
-105,-468,0,0,0,0,0,0,0,0,0,-1,1119,1492,0,0
-98,-468,0,0,0,0,0,0,0,0,0,-1,1126,1492,0,0
-91,-468,0,0,0,0,0,0,0,0,0,-1,1133,1492,0,0
-84,-468,0,0,0,0,0,0,0,0,0,-1,1140,1492,0,0
-77,-468,0,0,0,0,0,0,0,0,0,-1,1147,1492,0,0
-70,-468,0,0,0,0,0,0,0,0,0,-1,1154,1492,0,0
-63,-468,0,0,0,0,0,0,0,0,0,-1,1161,1492,0,0
-56,-468,0,0,0,0,0,0,0,0,0,-1,1168,1492,0,0
-49,-468,0,0,0,0,0,0,0,0,0,-1,1175,1492,0,0
-42,-468,0,0,0,0,0,0,0,0,0,-1,1182,1492,0,0
-35,-468,0,0,0,0,0,0,0,0,0,-1,1189,1492,0,0
-28,-468,0,0,0,0,0,0,0,0,0,-1,1196,1492,0,0
-21,-468,0,0,0,0,0,0,0,0,0,-1,1203,1492,0,0
-14,-468,0,0,0,0,0,0,0,0,0,-1,1210,1492,0,0
-7,-468,0,0,0,0,0,0,0,0,0,-1,1217,1492,0,0
0,-468,0,0,0,0,0,0,0,0,0,-1,1224,1492,0,0
7,-468,0,0,0,0,0,0,0,0,0,-1,1231,1492,0,0
14,-468,0,0,0,0,0,0,0,0,0,-1,1238,1492,0,0
21,-468,0,0,0,0,0,0,0,0,0,-1,1245,1492,0,0
28,-468,0,0,0,0,0,0,0,0,0,-1,1252,1492,0,0
35,-468,0,0,0,0,0,0,0,0,0,-1,1259,1492,0,0
42,-468,0,0,0,0,0,0,0,0,0,-1,1266,1492,0,0
49,-468,0,0,0,0,0,0,0,0,0,-1,1273,1492,0,0
56,-468,0,0,0,0,0,0,0,0,0,-1,1280,1492,0,0
63,-468,0,0,0,0,0,0,0,0,0,-1,1287,1492,0,0
70,-468,0,0,0,0,0,0,0,0,0,-1,1294,1492,0,0
77,-468,0,0,0,0,0,0,0,0,0,-1,1301,1492,0,0
84,-468,0,0,0,0,0,0,0,0,0,-1,1308,1492,0,0
91,-468,0,0,0,0,0,0,0,0,0,-1,1315,1492,0,0
98,-468,0,0,0,0,0,0,0,0,0,-1,1322,1492,0,0
105,-468,0,0,0,0,0,0,0,0,0,-1,1329,1492,0,0
112,-468,0,0,0,0,0,0,0,0,0,-1,1336,1492,0,0
119,-468,0,0,0,0,0,0,0,0,0,-1,1343,1492,0,0
126,-468,0,0,0,0,0,0,0,0,0,-1,1350,1492,0,0
133,-468,0,0,0,0,0,0,0,0,0,-1,1357,1492,0,0
140,-468,0,0,0,0,0,0,0,0,0,-1,1364,1492,0,0
147,-468,0,0,0,0,0,0,0,0,0,-1,1371,1492,0,0
154,-468,0,0,0,0,0,0,0,0,0,-1,1378,1492,0,0
161,-468,0,0,0,0,0,0,0,0,0,-1,1385,1492,0,0
168,-468,0,0,0,0,0,0,0,0,0,-1,1392,1492,0,0
175,-468,0,0,0,0,0,0,0,0,0,-1,1399,1492,0,0
182,-468,0,0,0,0,0,0,0,0,0,-1,1406,1492,0,0
189,-468,0,0,0,0,0,0,0,0,0,-1,1413,1492,0,0
196,-468,0,0,0,0,0,0,0,0,0,-1,1420,1492,0,0
203,-468,0,0,0,0,0,0,0,0,0,-1,1427,1492,0,0
210,-468,0,0,0,0,0,0,0,0,0,-1,1434,1492,0,0
217,-468,0,0,0,0,0,0,0,0,0,-1,1441,1492,0,0
224,-468,0,0,0,0,0,0,0,0,0,-1,1448,1492,0,0
231,-468,0,0,0,0,0,0,0,0,0,-1,1455,1492,0,0
238,-468,0,0,0,0,0,0,0,0,0,-1,1462,1492,0,0
245,-468,0,0,0,0,0,0,0,0,0,-1,1469,1492,0,0
252,-468,0,0,0,0,0,0,0,0,0,-1,1476,1492,0,0
259,-468,0,0,0,0,0,0,0,0,0,-1,1483,1492,0,0
266,-468,0,0,0,0,0,0,0,0,0,-1,1490,1492,0,0
273,-468,0,0,0,0,0,0,0,0,0,-1,1497,1492,0,0
280,-468,0,0,0,0,0,0,0,0,0,-1,1504,1492,0,0
287,-468,0,0,0,0,0,0,0,0,0,-1,1511,1492,0,0
294,-468,0,0,0,0,0,0,0,0,0,-1,1518,1492,0,0
301,-468,0,0,0,0,0,0,0,0,0,-1,1525,1492,0,0
308,-468,0,0,0,0,0,0,0,0,0,-1,1532,1492,0,0
315,-468,0,0,0,0,0,0,0,0,0,-1,1539,1492,0,0
322,-468,0,0,0,0,0,0,0,0,0,-1,1546,1492,0,0
329,-468,0,0,0,0,0,0,0,0,0,-1,1553,1492,0,0
336,-468,0,0,0,0,0,0,0,0,0,-1,1560,1492,0,0
343,-468,0,0,0,0,0,0,0,0,0,-1,1567,1492,0,0
350,-468,0,0,0,0,0,0,0,0,0,-1,1574,1492,0,0
357,-468,0,0,0,0,0,0,0,0,0,-1,1581,1492,0,0
364,-468,0,0,0,0,0,0,0,0,0,-1,1588,1492,0,0
371,-468,0,0,0,0,0,0,0,0,0,-1,1595,1492,0,0
378,-468,0,0,0,0,0,0,0,0,0,-1,1602,1492,0,0
385,-468,0,0,0,0,0,0,0,0,0,-1,1609,1492,0,0
392,-468,0,0,0,0,0,0,0,0,0,-1,1616,1492,0,0
399,-468,0,0,0,0,0,0,0,0,0,-1,1623,1492,0,0
406,-468,0,0,0,0,0,0,0,0,0,-1,1630,1492,0,0
413,-468,0,0,0,0,0,0,0,0,0,-1,1637,1492,0,0
420,-468,0,0,0,0,0,0,0,0,0,-1,1644,1492,0,0
427,-468,0,0,0,0,0,0,0,0,0,-1,1651,1492,0,0
434,-468,0,0,0,0,0,0,0,0,0,-1,1658,1492,0,0
441,-468,0,0,0,0,0,0,0,0,0,-1,1665,1492,0,0
448,-468,0,0,0,0,0,0,0,0,0,-1,1672,1492,0,0
455,-468,0,0,0,0,0,0,0,0,0,-1,1679,1492,0,0
462,-468,0,0,0,0,0,0,0,0,0,-1,1686,1492,0,0
469,-468,15.6879,1.2677,0,0,0,0,0,0,0,-1,1693,1492,15.6879,-1.26772
476,-468,14.9318,1.61865,0,0,0,0,0,0,0,-1,1700,1492,14.9318,-1.61869
483,-468,11.265,4.64795,0,0,0,0,0,0,0,-1,1707,1492,11.265,-4.64798
490,-468,12.1316,3.51624,0,0,0,0,0,0,0,-1,1714,1492,12.1316,-3.51628
497,-468,16.5355,3.14587,0,0,0,0,0,0,0,-1,1721,1492,16.5356,-3.14583
504,-468,15.0642,4.10437,0,0,0,0,0,0,0,-1,1728,1492,15.0643,-4.10431
511,-468,15.6877,9.4801,0,0,0,0,0,0,0,-1,1735,1492,15.6878,-9.48007
518,-468,13.759,11.0887,0,0,0,0,0,0,0,-1,1742,1492,13.759,-11.0887
525,-468,16.6531,14.2238,0,0,0,0,0,0,0,-1,1749,1492,16.653,-14.2237
532,-468,16.9696,15.9641,0,0,0,0,0,0,0,-1,1756,1492,16.9696,-15.9641
539,-468,21.5308,20.7551,0,0,0,0,0,0,0,-1,1763,1492,21.5308,-20.7551
546,-468,23.4225,22.9191,0,0,0,0,0,0,0,-1,1770,1492,23.4225,-22.919
553,-468,23.874,22.3052,0,0,0,0,0,0,0,-1,1777,1492,23.874,-22.3052
560,-468,24.0276,21.8694,0.00844887,0.00662835,-0.00485824,0.0124814,0.00259583,-0.69279,0.00760479,0.0402748,1784,1492,24.0276,-21.8694
567,-468,24.0444,21.3524,0.00676522,0.00524032,-0.00389809,0.00997473,0.00203081,-0.68882,0.00608687,0.0219028,1791,1492,24.0444,-21.3524
574,-468,24.0895,20.785,0.00546384,0.00429415,-0.00329082,0.00822138,0.00153661,-0.697457,0.0050473,0.0162823,1798,1492,24.0894,-20.785
581,-468,24.0941,20.2715,0.00439409,0.00347362,-0.0027318,0.00670415,0.00116355,-0.701945,0.0041365,0.016579,1805,1492,24.0941,-20.2714
588,-468,24.0387,19.7383,0.00351658,0.00261583,-0.00217186,0.00528426,0.000848142,-0.683163,0.00327692,0.0137633,1812,1492,24.0387,-19.7383
595,-468,23.9882,19.1865,0.00296275,0.00186274,-0.00171576,0.0042145,0.000610988,-0.630291,0.00262977,0.0116934,1819,1492,23.9882,-19.1865
602,-468,23.9788,18.6298,0.00256232,0.00119,-0.00130398,0.00334965,0.000402672,-0.543202,0.00211171,0.00972237,1826,1492,23.9788,-18.6297
609,-468,23.9526,18.0752,0.00229802,0.000607779,-0.000902142,0.00268906,0.000216741,-0.409011,0.001725,0.00999969,1833,1492,23.9526,-18.0752
616,-468,23.9268,17.5229,0.00219975,0.000109089,-0.000532739,0.00232768,-1.88346e-05,-0.235663,0.0015581,0.0102306,1840,1492,23.9268,-17.5229
623,-468,23.9283,16.9973,0.00233204,-0.000400979,-0.000164642,0.00234192,-0.000410862,-0.059953,0.00171472,0.0113943,1847,1492,23.9283,-16.9973
630,-468,23.9363,16.4575,0.00263362,-0.00075436,0.000149264,0.00264018,-0.000760923,0.0439436,0.00206113,0.0122087,1854,1492,23.9363,-16.4575
637,-468,23.9059,15.9014,0.00328853,-0.000603302,0.000141236,0.00329365,-0.00060842,0.036227,0.00242416,0.0147569,1861,1492,23.9059,-15.9014
644,-468,23.9613,15.4451,0.00403929,-0.000480065,9.63949e-05,0.00404134,-0.00048212,0.0213164,0.00286847,0.0379829,1868,1492,23.9614,-15.445
651,-468,24.1493,14.9695,0,0,0,0,0,0,0,-1,1875,1492,24.1493,-14.9695
658,-468,16.4969,10.0774,0,0,0,0,0,0,0,-1,1882,1492,16.497,-10.0774
665,-468,15.4673,8.59546,0,0,0,0,0,0,0,-1,1889,1492,15.4672,-8.59548
672,-468,9.96814,3.61133,0,0,0,0,0,0,0,-1,1896,1492,9.96817,-3.61139
679,-468,11.2191,1.91968,0,0,0,0,0,0,0,-1,1903,1492,11.2191,-1.91965
686,-468,11.9252,1.42285,0,0,0,0,0,0,0,-1,1910,1492,11.9252,-1.42291
693,-468,0,0,0,0,0,0,0,0,0,-1,1917,1492,0,0
700,-468,0,0,0,0,0,0,0,0,0,-1,1924,1492,0,0
707,-468,0,0,0,0,0,0,0,0,0,-1,1931,1492,0,0
714,-468,0,0,0,0,0,0,0,0,0,-1,1938,1492,0,0
721,-468,0,0,0,0,0,0,0,0,0,-1,1945,1492,0,0
728,-468,0,0,0,0,0,0,0,0,0,-1,1952,1492,0,0
735,-468,0,0,0,0,0,0,0,0,0,-1,1959,1492,0,0
742,-468,0,0,0,0,0,0,0,0,0,-1,1966,1492,0,0
749,-468,0,0,0,0,0,0,0,0,0,-1,1973,1492,0,0
756,-468,0,0,0,0,0,0,0,0,0,-1,1980,1492,0,0
763,-468,0,0,0,0,0,0,0,0,0,-1,1987,1492,0,0
770,-468,0,0,0,0,0,0,0,0,0,-1,1994,1492,0,0
777,-468,0,0,0,0,0,0,0,0,0,-1,2001,1492,0,0
784,-468,0,0,0,0,0,0,0,0,0,-1,2008,1492,0,0
791,-468,0,0,0,0,0,0,0,0,0,-1,2015,1492,0,0
798,-468,0,0,0,0,0,0,0,0,0,-1,2022,1492,0,0
805,-468,0,0,0,0,0,0,0,0,0,-1,2029,1492,0,0
812,-468,0,0,0,0,0,0,0,0,0,-1,2036,1492,0,0
-700,-475,0,0,0,0,0,0,0,0,0,-1,524,1499,0,0
-693,-475,0,0,0,0,0,0,0,0,0,-1,531,1499,0,0
-686,-475,0,0,0,0,0,0,0,0,0,-1,538,1499,0,0
-679,-475,0,0,0,0,0,0,0,0,0,-1,545,1499,0,0
-672,-475,0,0,0,0,0,0,0,0,0,-1,552,1499,0,0
-665,-475,0,0,0,0,0,0,0,0,0,-1,559,1499,0,0
-658,-475,0,0,0,0,0,0,0,0,0,-1,566,1499,0,0
-651,-475,0,0,0,0,0,0,0,0,0,-1,573,1499,0,0
-644,-475,0,0,0,0,0,0,0,0,0,-1,580,1499,0,0
-637,-475,0,0,0,0,0,0,0,0,0,-1,587,1499,0,0
-630,-475,0,0,0,0,0,0,0,0,0,-1,594,1499,0,0
-623,-475,0,0,0,0,0,0,0,0,0,-1,601,1499,0,0
-616,-475,0,0,0,0,0,0,0,0,0,-1,608,1499,0,0
-609,-475,0,0,0,0,0,0,0,0,0,-1,615,1499,0,0
-602,-475,0,0,0,0,0,0,0,0,0,-1,622,1499,0,0
-595,-475,0,0,0,0,0,0,0,0,0,-1,629,1499,0,0
-588,-475,0,0,0,0,0,0,0,0,0,-1,636,1499,0,0
-581,-475,0,0,0,0,0,0,0,0,0,-1,643,1499,0,0
-574,-475,0,0,0,0,0,0,0,0,0,-1,650,1499,0,0
-567,-475,0,0,0,0,0,0,0,0,0,-1,657,1499,0,0
-560,-475,-9.42731,9.29517,0,0,0,0,0,0,0,-1,664,1499,-9.42731,-9.29519
-553,-475,-8.15131,8.78369,0,0,0,0,0,0,0,-1,671,1499,-8.15131,-8.78367
-546,-475,-8.41254,8.20654,0,0,0,0,0,0,0,-1,678,1499,-8.41251,-8.20655
-539,-475,-4.7345,4.17419,0,0,0,0,0,0,0,-1,685,1499,-4.73449,-4.17418
-532,-475,-7.07379,4.25024,0,0,0,0,0,0,0,-1,692,1499,-7.07378,-4.2503
-525,-475,-6.13147,5.82166,0,0,0,0,0,0,0,-1,699,1499,-6.1315,-5.8216
-518,-475,-7.28784,9.31506,0,0,0,0,0,0,0,-1,706,1499,-7.28782,-9.315
-511,-475,-6.84851,12.4244,0,0,0,0,0,0,0,-1,713,1499,-6.84851,-12.4244
-504,-475,-7.11047,14.0714,0,0,0,0,0,0,0,-1,720,1499,-7.11046,-14.0714
-497,-475,-7.22589,14.9222,0.000591719,0.00157563,-0.000403799,0.00172013,0.000447221,-1.22715,0.00103055,0.040104,727,1499,-7.2259,-14.9222
-490,-475,-7.22485,15.4104,0.000300425,0.000813556,-0.000550004,0.00116389,-4.99115e-05,-1.00363,0.000793089,0.0133925,734,1499,-7.22484,-15.4104
-483,-475,-7.24121,16.0328,0.000326295,0.000463086,-0.00043131,0.000831389,-4.20088e-05,-0.864032,0.00056878,0.00963308,741,1499,-7.24122,-16.0329
-476,-475,-7.26099,16.5972,0.000571129,0.000436332,-0.000106855,0.000630066,0.000377395,-0.504036,0.000366137,0.0105476,748,1499,-7.26096,-16.5972
-469,-475,-7.26965,17.1805,0.00105792,0.000725705,0.00047772,0.00139759,0.000386038,0.618082,0.000833401,0.0124099,755,1499,-7.26968,-17.1806
-462,-475,-7.25146,17.7734,0.00171983,0.00126477,0.0012167,0.00273009,0.000254511,0.692961,0.00174143,0.0184039,762,1499,-7.25146,-17.7735
-455,-475,-7.29156,18.3425,0.00255468,0.0020049,0.00211477,0.00441235,0.000147221,0.720768,0.00289374,0.0165825,769,1499,-7.29157,-18.3425
-448,-475,-7.34857,18.9197,0.00368737,0.00317254,0.00333897,0.00677883,8.10805e-05,0.746927,0.00449243,0.0137233,776,1499,-7.34856,-18.9196
-441,-475,-7.37573,19.4985,0.00511304,0.00463329,0.00485485,0.00973394,1.23945e-05,0.760713,0.00648516,0.0154619,783,1499,-7.37575,-19.4985
-434,-475,-7.34821,20.0554,0.00684459,0.00657068,0.00675733,0.0134664,-5.10742e-05,0.775266,0.00899464,0.0110693,790,1499,-7.3482,-20.0554
-427,-475,-7.28265,20.7269,0.00900989,0.00951633,0.00876617,0.0180329,0.000493282,0.799837,0.0118609,0.0300723,797,1499,-7.28266,-20.7269
-420,-475,-7.18921,21.382,0,0,0,0,0,0,0,-1,804,1499,-7.18919,-21.3819
-413,-475,-6.46777,20.8481,0,0,0,0,0,0,0,-1,811,1499,-6.46776,-20.8481
-406,-475,-2.56116,12.4956,0,0,0,0,0,0,0,-1,818,1499,-2.56116,-12.4956
-399,-475,-1.39667,6.1615,0,0,0,0,0,0,0,-1,825,1499,-1.39664,-6.16155
-392,-475,0.217163,8.61389,0,0,0,0,0,0,0,-1,832,1499,0.217167,-8.6139
-385,-475,1.18372,2.73999,0,0,0,0,0,0,0,-1,839,1499,1.18372,-2.73995
-378,-475,1.31409,2.90149,0,0,0,0,0,0,0,-1,846,1499,1.31411,-2.90151
-371,-475,2.3476,3.31116,0,0,0,0,0,0,0,-1,853,1499,2.34761,-3.31121
-364,-475,1.04462,9.05823,0,0,0,0,0,0,0,-1,860,1499,1.04461,-9.05825
-357,-475,-0.262756,7.97205,0,0,0,0,0,0,0,-1,867,1499,-0.262784,-7.97205
-350,-475,-2.77173,4.35486,0,0,0,0,0,0,0,-1,874,1499,-2.77175,-4.35491
-343,-475,-6.81641,-1.95203,0,0,0,0,0,0,0,-1,881,1499,-6.81643,1.95198
-336,-475,0,0,0,0,0,0,0,0,0,-1,888,1499,0,0
-329,-475,0,0,0,0,0,0,0,0,0,-1,895,1499,0,0
-322,-475,0,0,0,0,0,0,0,0,0,-1,902,1499,0,0
-315,-475,0,0,0,0,0,0,0,0,0,-1,909,1499,0,0
-308,-475,0,0,0,0,0,0,0,0,0,-1,916,1499,0,0
-301,-475,0,0,0,0,0,0,0,0,0,-1,923,1499,0,0
-294,-475,0,0,0,0,0,0,0,0,0,-1,930,1499,0,0
-287,-475,0,0,0,0,0,0,0,0,0,-1,937,1499,0,0
-280,-475,0,0,0,0,0,0,0,0,0,-1,944,1499,0,0
-273,-475,0,0,0,0,0,0,0,0,0,-1,951,1499,0,0
-266,-475,0,0,0,0,0,0,0,0,0,-1,958,1499,0,0
-259,-475,0,0,0,0,0,0,0,0,0,-1,965,1499,0,0
-252,-475,0,0,0,0,0,0,0,0,0,-1,972,1499,0,0
-245,-475,0,0,0,0,0,0,0,0,0,-1,979,1499,0,0
-238,-475,0,0,0,0,0,0,0,0,0,-1,986,1499,0,0
-231,-475,0,0,0,0,0,0,0,0,0,-1,993,1499,0,0
-224,-475,0,0,0,0,0,0,0,0,0,-1,1000,1499,0,0
-217,-475,0,0,0,0,0,0,0,0,0,-1,1007,1499,0,0
-210,-475,0,0,0,0,0,0,0,0,0,-1,1014,1499,0,0
-203,-475,0,0,0,0,0,0,0,0,0,-1,1021,1499,0,0
-196,-475,0,0,0,0,0,0,0,0,0,-1,1028,1499,0,0
-189,-475,0,0,0,0,0,0,0,0,0,-1,1035,1499,0,0
-182,-475,0,0,0,0,0,0,0,0,0,-1,1042,1499,0,0
-175,-475,0,0,0,0,0,0,0,0,0,-1,1049,1499,0,0
-168,-475,0,0,0,0,0,0,0,0,0,-1,1056,1499,0,0
-161,-475,0,0,0,0,0,0,0,0,0,-1,1063,1499,0,0
-154,-475,0,0,0,0,0,0,0,0,0,-1,1070,1499,0,0
-147,-475,0,0,0,0,0,0,0,0,0,-1,1077,1499,0,0
-140,-475,0,0,0,0,0,0,0,0,0,-1,1084,1499,0,0
-133,-475,0,0,0,0,0,0,0,0,0,-1,1091,1499,0,0
-126,-475,0,0,0,0,0,0,0,0,0,-1,1098,1499,0,0
-119,-475,0,0,0,0,0,0,0,0,0,-1,1105,1499,0,0
-112,-475,0,0,0,0,0,0,0,0,0,-1,1112,1499,0,0
-105,-475,0,0,0,0,0,0,0,0,0,-1,1119,1499,0,0
-98,-475,0,0,0,0,0,0,0,0,0,-1,1126,1499,0,0
-91,-475,0,0,0,0,0,0,0,0,0,-1,1133,1499,0,0
-84,-475,0,0,0,0,0,0,0,0,0,-1,1140,1499,0,0
-77,-475,0,0,0,0,0,0,0,0,0,-1,1147,1499,0,0
-70,-475,0,0,0,0,0,0,0,0,0,-1,1154,1499,0,0
-63,-475,0,0,0,0,0,0,0,0,0,-1,1161,1499,0,0
-56,-475,0,0,0,0,0,0,0,0,0,-1,1168,1499,0,0
-49,-475,0,0,0,0,0,0,0,0,0,-1,1175,1499,0,0
-42,-475,0,0,0,0,0,0,0,0,0,-1,1182,1499,0,0
-35,-475,0,0,0,0,0,0,0,0,0,-1,1189,1499,0,0
-28,-475,0,0,0,0,0,0,0,0,0,-1,1196,1499,0,0
-21,-475,0,0,0,0,0,0,0,0,0,-1,1203,1499,0,0
-14,-475,0,0,0,0,0,0,0,0,0,-1,1210,1499,0,0
-7,-475,0,0,0,0,0,0,0,0,0,-1,1217,1499,0,0
0,-475,0,0,0,0,0,0,0,0,0,-1,1224,1499,0,0
7,-475,0,0,0,0,0,0,0,0,0,-1,1231,1499,0,0
14,-475,0,0,0,0,0,0,0,0,0,-1,1238,1499,0,0
21,-475,0,0,0,0,0,0,0,0,0,-1,1245,1499,0,0
28,-475,0,0,0,0,0,0,0,0,0,-1,1252,1499,0,0
35,-475,0,0,0,0,0,0,0,0,0,-1,1259,1499,0,0
42,-475,0,0,0,0,0,0,0,0,0,-1,1266,1499,0,0
49,-475,0,0,0,0,0,0,0,0,0,-1,1273,1499,0,0
56,-475,0,0,0,0,0,0,0,0,0,-1,1280,1499,0,0
63,-475,0,0,0,0,0,0,0,0,0,-1,1287,1499,0,0
70,-475,0,0,0,0,0,0,0,0,0,-1,1294,1499,0,0
77,-475,0,0,0,0,0,0,0,0,0,-1,1301,1499,0,0
84,-475,0,0,0,0,0,0,0,0,0,-1,1308,1499,0,0
91,-475,0,0,0,0,0,0,0,0,0,-1,1315,1499,0,0
98,-475,0,0,0,0,0,0,0,0,0,-1,1322,1499,0,0
105,-475,0,0,0,0,0,0,0,0,0,-1,1329,1499,0,0
112,-475,0,0,0,0,0,0,0,0,0,-1,1336,1499,0,0
119,-475,0,0,0,0,0,0,0,0,0,-1,1343,1499,0,0
126,-475,0,0,0,0,0,0,0,0,0,-1,1350,1499,0,0
133,-475,0,0,0,0,0,0,0,0,0,-1,1357,1499,0,0
140,-475,0,0,0,0,0,0,0,0,0,-1,1364,1499,0,0
147,-475,0,0,0,0,0,0,0,0,0,-1,1371,1499,0,0
154,-475,0,0,0,0,0,0,0,0,0,-1,1378,1499,0,0
161,-475,0,0,0,0,0,0,0,0,0,-1,1385,1499,0,0
168,-475,0,0,0,0,0,0,0,0,0,-1,1392,1499,0,0
175,-475,0,0,0,0,0,0,0,0,0,-1,1399,1499,0,0
182,-475,0,0,0,0,0,0,0,0,0,-1,1406,1499,0,0
189,-475,0,0,0,0,0,0,0,0,0,-1,1413,1499,0,0
196,-475,0,0,0,0,0,0,0,0,0,-1,1420,1499,0,0
203,-475,0,0,0,0,0,0,0,0,0,-1,1427,1499,0,0
210,-475,0,0,0,0,0,0,0,0,0,-1,1434,1499,0,0
217,-475,0,0,0,0,0,0,0,0,0,-1,1441,1499,0,0
224,-475,0,0,0,0,0,0,0,0,0,-1,1448,1499,0,0
231,-475,0,0,0,0,0,0,0,0,0,-1,1455,1499,0,0
238,-475,0,0,0,0,0,0,0,0,0,-1,1462,1499,0,0
245,-475,0,0,0,0,0,0,0,0,0,-1,1469,1499,0,0
252,-475,0,0,0,0,0,0,0,0,0,-1,1476,1499,0,0
259,-475,0,0,0,0,0,0,0,0,0,-1,1483,1499,0,0
266,-475,0,0,0,0,0,0,0,0,0,-1,1490,1499,0,0
273,-475,0,0,0,0,0,0,0,0,0,-1,1497,1499,0,0
280,-475,0,0,0,0,0,0,0,0,0,-1,1504,1499,0,0
287,-475,0,0,0,0,0,0,0,0,0,-1,1511,1499,0,0
294,-475,0,0,0,0,0,0,0,0,0,-1,1518,1499,0,0
301,-475,0,0,0,0,0,0,0,0,0,-1,1525,1499,0,0
308,-475,0,0,0,0,0,0,0,0,0,-1,1532,1499,0,0
315,-475,0,0,0,0,0,0,0,0,0,-1,1539,1499,0,0
322,-475,0,0,0,0,0,0,0,0,0,-1,1546,1499,0,0
329,-475,0,0,0,0,0,0,0,0,0,-1,1553,1499,0,0
336,-475,0,0,0,0,0,0,0,0,0,-1,1560,1499,0,0
343,-475,0,0,0,0,0,0,0,0,0,-1,1567,1499,0,0
350,-475,0,0,0,0,0,0,0,0,0,-1,1574,1499,0,0
357,-475,0,0,0,0,0,0,0,0,0,-1,1581,1499,0,0
364,-475,0,0,0,0,0,0,0,0,0,-1,1588,1499,0,0
371,-475,0,0,0,0,0,0,0,0,0,-1,1595,1499,0,0
378,-475,0,0,0,0,0,0,0,0,0,-1,1602,1499,0,0
385,-475,0,0,0,0,0,0,0,0,0,-1,1609,1499,0,0
392,-475,0,0,0,0,0,0,0,0,0,-1,1616,1499,0,0
399,-475,0,0,0,0,0,0,0,0,0,-1,1623,1499,0,0
406,-475,0,0,0,0,0,0,0,0,0,-1,1630,1499,0,0
413,-475,0,0,0,0,0,0,0,0,0,-1,1637,1499,0,0
420,-475,0,0,0,0,0,0,0,0,0,-1,1644,1499,0,0
427,-475,0,0,0,0,0,0,0,0,0,-1,1651,1499,0,0
434,-475,0,0,0,0,0,0,0,0,0,-1,1658,1499,0,0
441,-475,0,0,0,0,0,0,0,0,0,-1,1665,1499,0,0
448,-475,0,0,0,0,0,0,0,0,0,-1,1672,1499,0,0
455,-475,0,0,0,0,0,0,0,0,0,-1,1679,1499,0,0
462,-475,12.6372,0.275391,0,0,0,0,0,0,0,-1,1686,1499,12.6372,-0.27536
469,-475,15.6437,2.28296,0,0,0,0,0,0,0,-1,1693,1499,15.6437,-2.28293
476,-475,15.3302,2.71436,0,0,0,0,0,0,0,-1,1700,1499,15.3303,-2.7143
483,-475,10.7461,5.91479,0,0,0,0,0,0,0,-1,1707,1499,10.7461,-5.91476
490,-475,11.9305,4.4364,0,0,0,0,0,0,0,-1,1714,1499,11.9305,-4.43644
497,-475,15.3451,4.3479,0,0,0,0,0,0,0,-1,1721,1499,15.3451,-4.34789
504,-475,16.9646,7.71265,0,0,0,0,0,0,0,-1,1728,1499,16.9646,-7.71265
511,-475,18.941,12.7572,0,0,0,0,0,0,0,-1,1735,1499,18.941,-12.7572
518,-475,17.0021,13.8564,0,0,0,0,0,0,0,-1,1742,1499,17.0021,-13.8564
525,-475,17.5637,15.2103,0,0,0,0,0,0,0,-1,1749,1499,17.5637,-15.2103
532,-475,20.8623,20.8413,0,0,0,0,0,0,0,-1,1756,1499,20.8623,-20.8413
539,-475,20.5494,20.8519,0,0,0,0,0,0,0,-1,1763,1499,20.5494,-20.852
546,-475,20.4524,19.8799,0,0,0,0,0,0,0,-1,1770,1499,20.4524,-19.8798
553,-475,23.2273,22.6584,0,0,0,0,0,0,0,-1,1777,1499,23.2273,-22.6585
560,-475,23.3635,22.0264,0.00711644,0.00560094,-0.00414622,0.0105736,0.0021438,-0.695017,0.00645425,0.0287974,1784,1499,23.3636,-22.0263
567,-475,23.5466,21.3298,0.00570666,0.00435716,-0.0032726,0.00837334,0.00169047,-0.683732,0.00511276,0.015828,1791,1499,23.5466,-21.3298
574,-475,23.5172,20.786,0.00463076,0.00349894,-0.00272157,0.00684463,0.00128506,-0.682892,0.00420077,0.0153286,1798,1499,23.5172,-20.786
581,-475,23.5099,20.2888,0.00374529,0.00275253,-0.00223864,0.00554192,0.000955899,-0.676297,0.00342079,0.0120759,1805,1499,23.5098,-20.2889
588,-475,23.496,19.7389,0.00303109,0.0020313,-0.00178216,0.00438214,0.000680249,-0.648663,0.00272314,0.0108811,1812,1499,23.496,-19.7389
595,-475,23.4736,19.1865,0.0026602,0.0014033,-0.00143816,0.00360122,0.000462278,-0.57941,0.00226252,0.0119268,1819,1499,23.4736,-19.1865
602,-475,23.4375,18.6335,0.00240982,0.000857178,-0.00113873,0.00301168,0.000255323,-0.486214,0.00192832,0.0124373,1826,1499,23.4375,-18.6336
609,-475,23.4136,18.0908,0.00227777,0.000380748,-0.000828026,0.00258835,7.01727e-05,-0.358841,0.00170266,0.0111529,1833,1499,23.4136,-18.0908
616,-475,23.3872,17.5647,0.00233841,-8.60527e-05,-0.000506082,0.0024398,-0.000187452,-0.197742,0.00169248,0.0110922,1840,1499,23.3872,-17.5647
623,-475,23.4034,17.0104,0.00259417,-0.000612502,-0.00013129,0.00259954,-0.000617868,-0.0408517,0.00197152,0.0113833,1847,1499,23.4035,-17.0104
630,-475,23.4194,16.4561,0.0029761,-0.000952327,0.000217863,0.00298815,-0.000964372,0.0552324,0.00237961,0.013996,1854,1499,23.4194,-16.4561
637,-475,23.3439,15.8954,0.00374268,-0.000777637,0.000244273,0.00375584,-0.000790799,0.0538299,0.0028049,0.0256812,1861,1499,23.3439,-15.8954
644,-475,23.2524,15.3662,0,0,0,0,0,0,0,-1,1868,1499,23.2525,-15.3663
651,-475,11.7965,7.57593,0,0,0,0,0,0,0,-1,1875,1499,11.7965,-7.5759
658,-475,14.6708,8.80322,0,0,0,0,0,0,0,-1,1882,1499,14.6708,-8.8032
665,-475,9.33435,5.43335,0,0,0,0,0,0,0,-1,1889,1499,9.33439,-5.43332
672,-475,9.38635,1.10474,0,0,0,0,0,0,0,-1,1896,1499,9.38629,-1.10475
679,-475,12.2594,1.31079,0,0,0,0,0,0,0,-1,1903,1499,12.2594,-1.31077
686,-475,0,0,0,0,0,0,0,0,0,-1,1910,1499,0,0
693,-475,0,0,0,0,0,0,0,0,0,-1,1917,1499,0,0
700,-475,0,0,0,0,0,0,0,0,0,-1,1924,1499,0,0
707,-475,0,0,0,0,0,0,0,0,0,-1,1931,1499,0,0
714,-475,0,0,0,0,0,0,0,0,0,-1,1938,1499,0,0
721,-475,0,0,0,0,0,0,0,0,0,-1,1945,1499,0,0
728,-475,0,0,0,0,0,0,0,0,0,-1,1952,1499,0,0
735,-475,0,0,0,0,0,0,0,0,0,-1,1959,1499,0,0
742,-475,0,0,0,0,0,0,0,0,0,-1,1966,1499,0,0
749,-475,0,0,0,0,0,0,0,0,0,-1,1973,1499,0,0
756,-475,0,0,0,0,0,0,0,0,0,-1,1980,1499,0,0
763,-475,0,0,0,0,0,0,0,0,0,-1,1987,1499,0,0
770,-475,0,0,0,0,0,0,0,0,0,-1,1994,1499,0,0
777,-475,0,0,0,0,0,0,0,0,0,-1,2001,1499,0,0
784,-475,0,0,0,0,0,0,0,0,0,-1,2008,1499,0,0
791,-475,0,0,0,0,0,0,0,0,0,-1,2015,1499,0,0
798,-475,0,0,0,0,0,0,0,0,0,-1,2022,1499,0,0
805,-475,0,0,0,0,0,0,0,0,0,-1,2029,1499,0,0
812,-475,0,0,0,0,0,0,0,0,0,-1,2036,1499,0,0
-700,-482,0,0,0,0,0,0,0,0,0,-1,524,1506,0,0
-693,-482,0,0,0,0,0,0,0,0,0,-1,531,1506,0,0
-686,-482,0,0,0,0,0,0,0,0,0,-1,538,1506,0,0
-679,-482,0,0,0,0,0,0,0,0,0,-1,545,1506,0,0
-672,-482,0,0,0,0,0,0,0,0,0,-1,552,1506,0,0
-665,-482,0,0,0,0,0,0,0,0,0,-1,559,1506,0,0
-658,-482,0,0,0,0,0,0,0,0,0,-1,566,1506,0,0
-651,-482,0,0,0,0,0,0,0,0,0,-1,573,1506,0,0
-644,-482,0,0,0,0,0,0,0,0,0,-1,580,1506,0,0
-637,-482,0,0,0,0,0,0,0,0,0,-1,587,1506,0,0
-630,-482,0,0,0,0,0,0,0,0,0,-1,594,1506,0,0
-623,-482,0,0,0,0,0,0,0,0,0,-1,601,1506,0,0
-616,-482,0,0,0,0,0,0,0,0,0,-1,608,1506,0,0
-609,-482,0,0,0,0,0,0,0,0,0,-1,615,1506,0,0
-602,-482,0,0,0,0,0,0,0,0,0,-1,622,1506,0,0
-595,-482,0,0,0,0,0,0,0,0,0,-1,629,1506,0,0
-588,-482,0,0,0,0,0,0,0,0,0,-1,636,1506,0,0
-581,-482,0,0,0,0,0,0,0,0,0,-1,643,1506,0,0
-574,-482,0,0,0,0,0,0,0,0,0,-1,650,1506,0,0
-567,-482,0,0,0,0,0,0,0,0,0,-1,657,1506,0,0
-560,-482,0,0,0,0,0,0,0,0,0,-1,664,1506,0,0
-553,-482,-9.06055,9.34314,0,0,0,0,0,0,0,-1,671,1506,-9.06056,-9.34312
-546,-482,-4.08624,8.34241,0,0,0,0,0,0,0,-1,678,1506,-4.08624,-8.3424
-539,-482,-4.29877,2.73499,0,0,0,0,0,0,0,-1,685,1506,-4.29879,-2.73494
-532,-482,-3.63611,4.23987,0,0,0,0,0,0,0,-1,692,1506,-3.63609,-4.23983
-525,-482,-6.19116,5.24927,0,0,0,0,0,0,0,-1,699,1506,-6.19117,-5.24927
-518,-482,-5.92957,6.39807,0,0,0,0,0,0,0,-1,706,1506,-5.92958,-6.39806
-511,-482,-7.74634,11.9137,0,0,0,0,0,0,0,-1,713,1506,-7.74633,-11.9137
-504,-482,-6.42358,13.4211,0,0,0,0,0,0,0,-1,720,1506,-6.42356,-13.4212
-497,-482,-6.72345,15.1066,0,0,0,0,0,0,0,-1,727,1506,-6.72342,-15.1065
-490,-482,-6.72125,15.4011,-0.000509634,0.00187907,-0.00125879,0.00241995,-0.00105051,-1.16497,0.00205501,0.0394099,734,1506,-6.72125,-15.4011
-483,-482,-6.6828,16.0369,-0.000412716,0.00115765,-0.00103092,0.00166835,-0.000923415,-1.11085,0.00151682,0.0106461,741,1506,-6.68278,-16.0368
-476,-482,-6.67633,16.6278,-0.000143886,0.00079451,-0.000665662,0.00113971,-0.000489091,-1.09239,0.000965076,0.00999495,748,1506,-6.67632,-16.6278
-469,-482,-6.69501,17.2209,0.000348818,0.000748303,-9.03675e-05,0.000767794,0.000329327,-1.35836,0.000444776,0.0118968,755,1506,-6.69502,-17.2209
-462,-482,-6.70288,17.7866,0.00100448,0.000984228,0.00062267,0.00161711,0.000371601,0.777268,0.000978025,0.0131779,762,1506,-6.70285,-17.7866
-455,-482,-6.72461,18.3369,0.0017941,0.00142809,0.00143947,0.00306215,0.000160043,0.722171,0.00199023,0.0131181,769,1506,-6.7246,-18.337
-448,-482,-6.75677,18.9603,0.00284552,0.00229891,0.0025293,0.00511624,2.81862e-05,0.731579,0.00340147,0.013686,776,1506,-6.75679,-18.9604
-441,-482,-6.77881,19.5242,0.00414488,0.00349808,0.00386068,0.00769568,-5.27229e-05,0.743612,0.00514812,0.0131226,783,1506,-6.77881,-19.5242
-434,-482,-6.78607,20.0889,0.00566367,0.00513805,0.00549397,0.0109011,-9.93987e-05,0.761498,0.00730076,0.0157142,790,1506,-6.78606,-20.0889
-427,-482,-6.79663,20.6907,0.00751086,0.00754042,0.00719689,0.0147225,0.000328733,0.786425,0.00970731,0.0187435,797,1506,-6.79665,-20.6907
-420,-482,-6.69495,21.5184,0.00967274,0.00989443,0.00982208,0.0196063,-3.91155e-05,0.791041,0.0130839,0.0495765,804,1506,-6.69496,-21.5184
-413,-482,-6.40137,22.2908,0,0,0,0,0,0,0,-1,811,1506,-6.40139,-22.2908
-406,-482,-2.51373,12.7556,0,0,0,0,0,0,0,-1,818,1506,-2.51376,-12.7556
-399,-482,-1.3822,9.22595,0,0,0,0,0,0,0,-1,825,1506,-1.38221,-9.22598
-392,-482,-1.06836,9.22729,0,0,0,0,0,0,0,-1,832,1506,-1.06835,-9.2273
-385,-482,0.0647583,8.90649,0,0,0,0,0,0,0,-1,839,1506,0.0647778,-8.90644
-378,-482,0.215698,5.96948,0,0,0,0,0,0,0,-1,846,1506,0.215681,-5.9695
-371,-482,-0.10907,8.10437,0,0,0,0,0,0,0,-1,853,1506,-0.109063,-8.10433
-364,-482,-0.154968,10.5032,0,0,0,0,0,0,0,-1,860,1506,-0.154976,-10.5032
-357,-482,2.14807,4.60144,0,0,0,0,0,0,0,-1,867,1506,2.14807,-4.60144
-350,-482,-7.5813,-1.45935,0,0,0,0,0,0,0,-1,874,1506,-7.58133,1.45937
-343,-482,-7.19983,-1.26416,0,0,0,0,0,0,0,-1,881,1506,-7.19981,1.26414
-336,-482,-5.21637,-0.0332031,0,0,0,0,0,0,0,-1,888,1506,-5.21639,0.0331993
-329,-482,0,0,0,0,0,0,0,0,0,-1,895,1506,0,0
-322,-482,0,0,0,0,0,0,0,0,0,-1,902,1506,0,0
-315,-482,0,0,0,0,0,0,0,0,0,-1,909,1506,0,0
-308,-482,0,0,0,0,0,0,0,0,0,-1,916,1506,0,0
-301,-482,0,0,0,0,0,0,0,0,0,-1,923,1506,0,0
-294,-482,0,0,0,0,0,0,0,0,0,-1,930,1506,0,0
-287,-482,0,0,0,0,0,0,0,0,0,-1,937,1506,0,0
-280,-482,0,0,0,0,0,0,0,0,0,-1,944,1506,0,0
-273,-482,0,0,0,0,0,0,0,0,0,-1,951,1506,0,0
-266,-482,0,0,0,0,0,0,0,0,0,-1,958,1506,0,0
-259,-482,0,0,0,0,0,0,0,0,0,-1,965,1506,0,0
-252,-482,0,0,0,0,0,0,0,0,0,-1,972,1506,0,0
-245,-482,0,0,0,0,0,0,0,0,0,-1,979,1506,0,0
-238,-482,0,0,0,0,0,0,0,0,0,-1,986,1506,0,0
-231,-482,0,0,0,0,0,0,0,0,0,-1,993,1506,0,0
-224,-482,0,0,0,0,0,0,0,0,0,-1,1000,1506,0,0
-217,-482,0,0,0,0,0,0,0,0,0,-1,1007,1506,0,0
-210,-482,0,0,0,0,0,0,0,0,0,-1,1014,1506,0,0
-203,-482,0,0,0,0,0,0,0,0,0,-1,1021,1506,0,0
-196,-482,0,0,0,0,0,0,0,0,0,-1,1028,1506,0,0
-189,-482,0,0,0,0,0,0,0,0,0,-1,1035,1506,0,0
-182,-482,0,0,0,0,0,0,0,0,0,-1,1042,1506,0,0
-175,-482,0,0,0,0,0,0,0,0,0,-1,1049,1506,0,0
-168,-482,0,0,0,0,0,0,0,0,0,-1,1056,1506,0,0
-161,-482,0,0,0,0,0,0,0,0,0,-1,1063,1506,0,0
-154,-482,0,0,0,0,0,0,0,0,0,-1,1070,1506,0,0
-147,-482,0,0,0,0,0,0,0,0,0,-1,1077,1506,0,0
-140,-482,0,0,0,0,0,0,0,0,0,-1,1084,1506,0,0
-133,-482,0,0,0,0,0,0,0,0,0,-1,1091,1506,0,0
-126,-482,0,0,0,0,0,0,0,0,0,-1,1098,1506,0,0
-119,-482,0,0,0,0,0,0,0,0,0,-1,1105,1506,0,0
-112,-482,0,0,0,0,0,0,0,0,0,-1,1112,1506,0,0
-105,-482,0,0,0,0,0,0,0,0,0,-1,1119,1506,0,0
-98,-482,0,0,0,0,0,0,0,0,0,-1,1126,1506,0,0
-91,-482,0,0,0,0,0,0,0,0,0,-1,1133,1506,0,0
-84,-482,0,0,0,0,0,0,0,0,0,-1,1140,1506,0,0
-77,-482,0,0,0,0,0,0,0,0,0,-1,1147,1506,0,0
-70,-482,0,0,0,0,0,0,0,0,0,-1,1154,1506,0,0
-63,-482,0,0,0,0,0,0,0,0,0,-1,1161,1506,0,0
-56,-482,0,0,0,0,0,0,0,0,0,-1,1168,1506,0,0
-49,-482,0,0,0,0,0,0,0,0,0,-1,1175,1506,0,0
-42,-482,0,0,0,0,0,0,0,0,0,-1,1182,1506,0,0
-35,-482,0,0,0,0,0,0,0,0,0,-1,1189,1506,0,0
-28,-482,0,0,0,0,0,0,0,0,0,-1,1196,1506,0,0
-21,-482,0,0,0,0,0,0,0,0,0,-1,1203,1506,0,0
-14,-482,0,0,0,0,0,0,0,0,0,-1,1210,1506,0,0
-7,-482,0,0,0,0,0,0,0,0,0,-1,1217,1506,0,0
0,-482,0,0,0,0,0,0,0,0,0,-1,1224,1506,0,0
7,-482,0,0,0,0,0,0,0,0,0,-1,1231,1506,0,0
14,-482,0,0,0,0,0,0,0,0,0,-1,1238,1506,0,0
21,-482,0,0,0,0,0,0,0,0,0,-1,1245,1506,0,0
28,-482,0,0,0,0,0,0,0,0,0,-1,1252,1506,0,0
35,-482,0,0,0,0,0,0,0,0,0,-1,1259,1506,0,0
42,-482,0,0,0,0,0,0,0,0,0,-1,1266,1506,0,0
49,-482,0,0,0,0,0,0,0,0,0,-1,1273,1506,0,0
56,-482,0,0,0,0,0,0,0,0,0,-1,1280,1506,0,0
63,-482,0,0,0,0,0,0,0,0,0,-1,1287,1506,0,0
70,-482,0,0,0,0,0,0,0,0,0,-1,1294,1506,0,0
77,-482,0,0,0,0,0,0,0,0,0,-1,1301,1506,0,0
84,-482,0,0,0,0,0,0,0,0,0,-1,1308,1506,0,0
91,-482,0,0,0,0,0,0,0,0,0,-1,1315,1506,0,0
98,-482,0,0,0,0,0,0,0,0,0,-1,1322,1506,0,0
105,-482,0,0,0,0,0,0,0,0,0,-1,1329,1506,0,0
112,-482,0,0,0,0,0,0,0,0,0,-1,1336,1506,0,0
119,-482,0,0,0,0,0,0,0,0,0,-1,1343,1506,0,0
126,-482,0,0,0,0,0,0,0,0,0,-1,1350,1506,0,0
133,-482,0,0,0,0,0,0,0,0,0,-1,1357,1506,0,0
140,-482,0,0,0,0,0,0,0,0,0,-1,1364,1506,0,0
147,-482,0,0,0,0,0,0,0,0,0,-1,1371,1506,0,0
154,-482,0,0,0,0,0,0,0,0,0,-1,1378,1506,0,0
161,-482,0,0,0,0,0,0,0,0,0,-1,1385,1506,0,0
168,-482,0,0,0,0,0,0,0,0,0,-1,1392,1506,0,0
175,-482,0,0,0,0,0,0,0,0,0,-1,1399,1506,0,0
182,-482,0,0,0,0,0,0,0,0,0,-1,1406,1506,0,0
189,-482,0,0,0,0,0,0,0,0,0,-1,1413,1506,0,0
196,-482,0,0,0,0,0,0,0,0,0,-1,1420,1506,0,0
203,-482,0,0,0,0,0,0,0,0,0,-1,1427,1506,0,0
210,-482,0,0,0,0,0,0,0,0,0,-1,1434,1506,0,0
217,-482,0,0,0,0,0,0,0,0,0,-1,1441,1506,0,0
224,-482,0,0,0,0,0,0,0,0,0,-1,1448,1506,0,0
231,-482,0,0,0,0,0,0,0,0,0,-1,1455,1506,0,0
238,-482,0,0,0,0,0,0,0,0,0,-1,1462,1506,0,0
245,-482,0,0,0,0,0,0,0,0,0,-1,1469,1506,0,0
252,-482,0,0,0,0,0,0,0,0,0,-1,1476,1506,0,0
259,-482,0,0,0,0,0,0,0,0,0,-1,1483,1506,0,0
266,-482,0,0,0,0,0,0,0,0,0,-1,1490,1506,0,0
273,-482,0,0,0,0,0,0,0,0,0,-1,1497,1506,0,0
280,-482,0,0,0,0,0,0,0,0,0,-1,1504,1506,0,0
287,-482,0,0,0,0,0,0,0,0,0,-1,1511,1506,0,0
294,-482,0,0,0,0,0,0,0,0,0,-1,1518,1506,0,0
301,-482,0,0,0,0,0,0,0,0,0,-1,1525,1506,0,0
308,-482,0,0,0,0,0,0,0,0,0,-1,1532,1506,0,0
315,-482,0,0,0,0,0,0,0,0,0,-1,1539,1506,0,0
322,-482,0,0,0,0,0,0,0,0,0,-1,1546,1506,0,0
329,-482,0,0,0,0,0,0,0,0,0,-1,1553,1506,0,0
336,-482,0,0,0,0,0,0,0,0,0,-1,1560,1506,0,0
343,-482,0,0,0,0,0,0,0,0,0,-1,1567,1506,0,0
350,-482,0,0,0,0,0,0,0,0,0,-1,1574,1506,0,0
357,-482,0,0,0,0,0,0,0,0,0,-1,1581,1506,0,0
364,-482,0,0,0,0,0,0,0,0,0,-1,1588,1506,0,0
371,-482,0,0,0,0,0,0,0,0,0,-1,1595,1506,0,0
378,-482,0,0,0,0,0,0,0,0,0,-1,1602,1506,0,0
385,-482,0,0,0,0,0,0,0,0,0,-1,1609,1506,0,0
392,-482,0,0,0,0,0,0,0,0,0,-1,1616,1506,0,0
399,-482,0,0,0,0,0,0,0,0,0,-1,1623,1506,0,0
406,-482,0,0,0,0,0,0,0,0,0,-1,1630,1506,0,0
413,-482,0,0,0,0,0,0,0,0,0,-1,1637,1506,0,0
420,-482,0,0,0,0,0,0,0,0,0,-1,1644,1506,0,0
427,-482,0,0,0,0,0,0,0,0,0,-1,1651,1506,0,0
434,-482,0,0,0,0,0,0,0,0,0,-1,1658,1506,0,0
441,-482,0,0,0,0,0,0,0,0,0,-1,1665,1506,0,0
448,-482,4.24146,1.55383,0,0,0,0,0,0,0,-1,1672,1506,4.24149,-1.55381
455,-482,12.4122,1.09729,0,0,0,0,0,0,0,-1,1679,1506,12.4122,-1.09734
462,-482,15.0673,3.13135,0,0,0,0,0,0,0,-1,1686,1506,15.0672,-3.13134
469,-482,15.3793,3.46301,0,0,0,0,0,0,0,-1,1693,1506,15.3793,-3.46307
476,-482,8.69751,9.18738,0,0,0,0,0,0,0,-1,1700,1506,8.69753,-9.18739
483,-482,10.0902,7.17432,0,0,0,0,0,0,0,-1,1707,1506,10.0902,-7.1743
490,-482,11.6289,5.4928,0,0,0,0,0,0,0,-1,1714,1506,11.6289,-5.49283
497,-482,15.9539,7.40222,0,0,0,0,0,0,0,-1,1721,1506,15.9538,-7.40219
504,-482,20.4233,12.006,0,0,0,0,0,0,0,-1,1728,1506,20.4233,-12.006
511,-482,18.4937,12.9175,0,0,0,0,0,0,0,-1,1735,1506,18.4936,-12.9174
518,-482,16.6002,13.9679,0,0,0,0,0,0,0,-1,1742,1506,16.6003,-13.9679
525,-482,18.495,15.9618,0,0,0,0,0,0,0,-1,1749,1506,18.495,-15.9618
532,-482,19.9375,21.0775,0,0,0,0,0,0,0,-1,1756,1506,19.9375,-21.0775
539,-482,20.2291,20.5577,0,0,0,0,0,0,0,-1,1763,1506,20.2291,-20.5578
546,-482,22.9166,23.2703,0,0,0,0,0,0,0,-1,1770,1506,22.9166,-23.2703
553,-482,22.8097,22.5306,0,0,0,0,0,0,0,-1,1777,1506,22.8097,-22.5307
560,-482,22.9243,21.9252,0.00594134,0.00477463,-0.00358175,0.00898692,0.00172904,-0.704673,0.00550618,0.0161459,1784,1506,22.9244,-21.9252
567,-482,22.9987,21.3573,0.00477876,0.00366595,-0.00279438,0.0070716,0.00137312,-0.687125,0.00432989,0.0159879,1791,1506,22.9986,-21.3573
574,-482,22.9843,20.8279,0.00392366,0.00288964,-0.00230359,0.00576754,0.00104576,-0.675009,0.00354819,0.0148405,1798,1506,22.9842,-20.8279
581,-482,22.9519,20.2975,0.00323553,0.0022133,-0.00190262,0.00469449,0.000754344,-0.654178,0.00291098,0.0107254,1805,1506,22.9519,-20.2975
588,-482,22.9486,19.7357,0.00270821,0.00161487,-0.00155707,0.00381178,0.000511291,-0.616575,0.00238907,0.0116668,1812,1506,22.9486,-19.7357
595,-482,22.9369,19.1821,0.00253269,0.00111122,-0.00133163,0.00333138,0.000312524,-0.540263,0.00212442,0.0171757,1819,1506,22.9369,-19.1821
602,-482,22.9174,18.6155,0.00245835,0.000687654,-0.00115735,0.00303016,0.000115848,-0.458889,0.00198262,0.0199445,1826,1506,22.9173,-18.6155
609,-482,22.8892,18.0986,0.00249023,0.000305624,-0.000957605,0.00285056,-5.47019e-05,-0.359891,0.00191887,0.0151574,1833,1506,22.8891,-18.0986
616,-482,22.8486,17.5933,0.00277604,-0.000148554,-0.000703053,0.00293627,-0.000308785,-0.22408,0.00206814,0.0118306,1840,1506,22.8487,-17.5933
623,-482,22.8296,17.0703,0.00323223,-0.000693058,-0.000346252,0.00326254,-0.000723367,-0.0873121,0.00245198,0.0169684,1847,1506,22.8295,-17.0703
630,-482,22.8572,16.5989,0.00374193,-0.00102345,2.59862e-05,0.00374207,-0.0010236,0.00545291,0.00289684,0.0369524,1854,1506,22.8572,-16.5989
637,-482,22.9208,16.1538,0,0,0,0,0,0,0,-1,1861,1506,22.9208,-16.1538
644,-482,17.5909,11.6163,0,0,0,0,0,0,0,-1,1868,1506,17.5909,-11.6163
651,-482,4.03845,7.05273,0,0,0,0,0,0,0,-1,1875,1506,4.03843,-7.05279
658,-482,10.0278,5.87903,0,0,0,0,0,0,0,-1,1882,1506,10.0279,-5.87902
665,-482,8.15198,3.22229,0,0,0,0,0,0,0,-1,1889,1506,8.15199,-3.22232
672,-482,9.87415,1.3147,0,0,0,0,0,0,0,-1,1896,1506,9.87416,-1.31473
679,-482,0,0,0,0,0,0,0,0,0,-1,1903,1506,0,0
686,-482,0,0,0,0,0,0,0,0,0,-1,1910,1506,0,0
693,-482,0,0,0,0,0,0,0,0,0,-1,1917,1506,0,0
700,-482,0,0,0,0,0,0,0,0,0,-1,1924,1506,0,0
707,-482,0,0,0,0,0,0,0,0,0,-1,1931,1506,0,0
714,-482,0,0,0,0,0,0,0,0,0,-1,1938,1506,0,0
721,-482,0,0,0,0,0,0,0,0,0,-1,1945,1506,0,0
728,-482,0,0,0,0,0,0,0,0,0,-1,1952,1506,0,0
735,-482,0,0,0,0,0,0,0,0,0,-1,1959,1506,0,0
742,-482,0,0,0,0,0,0,0,0,0,-1,1966,1506,0,0
749,-482,0,0,0,0,0,0,0,0,0,-1,1973,1506,0,0
756,-482,0,0,0,0,0,0,0,0,0,-1,1980,1506,0,0
763,-482,0,0,0,0,0,0,0,0,0,-1,1987,1506,0,0
770,-482,0,0,0,0,0,0,0,0,0,-1,1994,1506,0,0
777,-482,0,0,0,0,0,0,0,0,0,-1,2001,1506,0,0
784,-482,0,0,0,0,0,0,0,0,0,-1,2008,1506,0,0
791,-482,0,0,0,0,0,0,0,0,0,-1,2015,1506,0,0
798,-482,0,0,0,0,0,0,0,0,0,-1,2022,1506,0,0
805,-482,0,0,0,0,0,0,0,0,0,-1,2029,1506,0,0
812,-482,0,0,0,0,0,0,0,0,0,-1,2036,1506,0,0
-700,-489,0,0,0,0,0,0,0,0,0,-1,524,1513,0,0
-693,-489,0,0,0,0,0,0,0,0,0,-1,531,1513,0,0
-686,-489,0,0,0,0,0,0,0,0,0,-1,538,1513,0,0
-679,-489,0,0,0,0,0,0,0,0,0,-1,545,1513,0,0
-672,-489,0,0,0,0,0,0,0,0,0,-1,552,1513,0,0
-665,-489,0,0,0,0,0,0,0,0,0,-1,559,1513,0,0
-658,-489,0,0,0,0,0,0,0,0,0,-1,566,1513,0,0
-651,-489,0,0,0,0,0,0,0,0,0,-1,573,1513,0,0
-644,-489,0,0,0,0,0,0,0,0,0,-1,580,1513,0,0
-637,-489,0,0,0,0,0,0,0,0,0,-1,587,1513,0,0
-630,-489,0,0,0,0,0,0,0,0,0,-1,594,1513,0,0
-623,-489,0,0,0,0,0,0,0,0,0,-1,601,1513,0,0
-616,-489,0,0,0,0,0,0,0,0,0,-1,608,1513,0,0
-609,-489,0,0,0,0,0,0,0,0,0,-1,615,1513,0,0
-602,-489,0,0,0,0,0,0,0,0,0,-1,622,1513,0,0
-595,-489,0,0,0,0,0,0,0,0,0,-1,629,1513,0,0
-588,-489,0,0,0,0,0,0,0,0,0,-1,636,1513,0,0
-581,-489,0,0,0,0,0,0,0,0,0,-1,643,1513,0,0
-574,-489,0,0,0,0,0,0,0,0,0,-1,650,1513,0,0
-567,-489,0,0,0,0,0,0,0,0,0,-1,657,1513,0,0
-560,-489,0,0,0,0,0,0,0,0,0,-1,664,1513,0,0
-553,-489,-9.42206,8.5116,0,0,0,0,0,0,0,-1,671,1513,-9.42205,-8.51158
-546,-489,-7.80951,8.18506,0,0,0,0,0,0,0,-1,678,1513,-7.8095,-8.18503
-539,-489,-3.06879,2.82349,0,0,0,0,0,0,0,-1,685,1513,-3.06881,-2.82354
-532,-489,-3.14215,2.5835,0,0,0,0,0,0,0,-1,692,1513,-3.14213,-2.58353
-525,-489,-2.604,4.06274,0,0,0,0,0,0,0,-1,699,1513,-2.60399,-4.06274
-518,-489,-5.43774,7.48059,0,0,0,0,0,0,0,-1,706,1513,-5.43777,-7.48058
-511,-489,-7.52856,10.951,0,0,0,0,0,0,0,-1,713,1513,-7.52857,-10.951
-504,-489,-7.17352,12.8508,0,0,0,0,0,0,0,-1,720,1513,-7.17352,-12.8508
-497,-489,-5.51678,14.9254,0,0,0,0,0,0,0,-1,727,1513,-5.51681,-14.9254
-490,-489,-6.19421,15.3495,0,0,0,0,0,0,0,-1,734,1513,-6.1942,-15.3494
-483,-489,-6.12311,15.9833,-0.00140357,0.00180536,-0.00154957,0.00243147,-0.00202968,-1.1868,0.00257913,0.0216192,741,1513,-6.1231,-15.9833
-476,-489,-6.11212,16.6366,-0.00108487,0.00114061,-0.00110939,0.00159915,-0.00154342,-1.17885,0.00181446,0.0100538,748,1513,-6.1121,-16.6366
-469,-489,-6.12317,17.2338,-0.000562282,0.000804404,-0.00053991,0.000991957,-0.000749836,-1.23646,0.00100886,0.0112526,755,1513,-6.1232,-17.2338
-462,-489,-6.13916,17.814,0.00012596,0.000818622,0.000149656,0.000849573,9.50082e-05,1.36685,0.000537519,0.0159139,762,1513,-6.13919,-17.814
-455,-489,-6.17053,18.3878,0.000924311,0.00105947,0.000885639,0.0018801,0.000103676,0.823476,0.00122031,0.0200209,769,1513,-6.17055,-18.3879
-448,-489,-6.20526,18.9647,0.00194785,0.0017175,0.00183494,0.00367122,-5.87187e-06,0.754056,0.00244944,0.0184307,776,1513,-6.20524,-18.9647
-441,-489,-6.20355,19.5465,0.00317708,0.00272461,0.00298431,0.00594372,-4.20236e-05,0.747566,0.00397656,0.0158566,783,1513,-6.20354,-19.5465
-434,-489,-6.27332,20.1256,0.00455858,0.00414946,0.00437476,0.00873356,-2.55164e-05,0.762035,0.00583089,0.0186179,790,1513,-6.27331,-20.1256
-427,-489,-6.30591,20.7136,0.00617356,0.00611021,0.00583153,0.0119735,0.000310268,0.782682,0.00788095,0.0192447,797,1513,-6.30588,-20.7137
-420,-489,-6.3139,21.424,0.00804041,0.00814289,0.00797138,0.0160632,0.0001201,0.788612,0.010669,0.0242882,804,1513,-6.31391,-21.424
-413,-489,-6.28021,22.1984,0,0,0,0,0,0,0,-1,811,1513,-6.28022,-22.1983
-406,-489,-3.10559,15.8143,0,0,0,0,0,0,0,-1,818,1513,-3.10556,-15.8143
-399,-489,-1.41241,9.10718,0,0,0,0,0,0,0,-1,825,1513,-1.41244,-9.10722
-392,-489,-1.0368,9.30469,0,0,0,0,0,0,0,-1,832,1513,-1.03682,-9.30466
-385,-489,-1.75165,10.6559,0,0,0,0,0,0,0,-1,839,1513,-1.75165,-10.6559
-378,-489,-0.401428,9.87048,0,0,0,0,0,0,0,-1,846,1513,-0.401415,-9.87047
-371,-489,-1.11633,10.6606,0,0,0,0,0,0,0,-1,853,1513,-1.11633,-10.6606
-364,-489,-0.503113,8.98486,0,0,0,0,0,0,0,-1,860,1513,-0.503097,-8.98482
-357,-489,-0.609924,10.9606,0,0,0,0,0,0,0,-1,867,1513,-0.609947,-10.9605
-350,-489,-7.94659,-0.358887,0,0,0,0,0,0,0,-1,874,1513,-7.94657,0.358912
-343,-489,-7.49323,-0.437866,0,0,0,0,0,0,0,-1,881,1513,-7.49322,0.437823
-336,-489,-7.02332,-0.53125,0,0,0,0,0,0,0,-1,888,1513,-7.0233,0.531295
-329,-489,-12.9825,5.06604,0,0,0,0,0,0,0,-1,895,1513,-12.9825,-5.06602
-322,-489,0,0,0,0,0,0,0,0,0,-1,902,1513,0,0
-315,-489,0,0,0,0,0,0,0,0,0,-1,909,1513,0,0
-308,-489,0,0,0,0,0,0,0,0,0,-1,916,1513,0,0
-301,-489,0,0,0,0,0,0,0,0,0,-1,923,1513,0,0
-294,-489,0,0,0,0,0,0,0,0,0,-1,930,1513,0,0
-287,-489,0,0,0,0,0,0,0,0,0,-1,937,1513,0,0
-280,-489,0,0,0,0,0,0,0,0,0,-1,944,1513,0,0
-273,-489,0,0,0,0,0,0,0,0,0,-1,951,1513,0,0
-266,-489,0,0,0,0,0,0,0,0,0,-1,958,1513,0,0
-259,-489,0,0,0,0,0,0,0,0,0,-1,965,1513,0,0
-252,-489,0,0,0,0,0,0,0,0,0,-1,972,1513,0,0
-245,-489,0,0,0,0,0,0,0,0,0,-1,979,1513,0,0
-238,-489,0,0,0,0,0,0,0,0,0,-1,986,1513,0,0
-231,-489,0,0,0,0,0,0,0,0,0,-1,993,1513,0,0
-224,-489,0,0,0,0,0,0,0,0,0,-1,1000,1513,0,0
-217,-489,0,0,0,0,0,0,0,0,0,-1,1007,1513,0,0
-210,-489,0,0,0,0,0,0,0,0,0,-1,1014,1513,0,0
-203,-489,0,0,0,0,0,0,0,0,0,-1,1021,1513,0,0
-196,-489,0,0,0,0,0,0,0,0,0,-1,1028,1513,0,0
-189,-489,0,0,0,0,0,0,0,0,0,-1,1035,1513,0,0
-182,-489,0,0,0,0,0,0,0,0,0,-1,1042,1513,0,0
-175,-489,0,0,0,0,0,0,0,0,0,-1,1049,1513,0,0
-168,-489,0,0,0,0,0,0,0,0,0,-1,1056,1513,0,0
-161,-489,0,0,0,0,0,0,0,0,0,-1,1063,1513,0,0
-154,-489,0,0,0,0,0,0,0,0,0,-1,1070,1513,0,0
-147,-489,0,0,0,0,0,0,0,0,0,-1,1077,1513,0,0
-140,-489,0,0,0,0,0,0,0,0,0,-1,1084,1513,0,0
-133,-489,0,0,0,0,0,0,0,0,0,-1,1091,1513,0,0
-126,-489,0,0,0,0,0,0,0,0,0,-1,1098,1513,0,0
-119,-489,0,0,0,0,0,0,0,0,0,-1,1105,1513,0,0
-112,-489,0,0,0,0,0,0,0,0,0,-1,1112,1513,0,0
-105,-489,0,0,0,0,0,0,0,0,0,-1,1119,1513,0,0
-98,-489,0,0,0,0,0,0,0,0,0,-1,1126,1513,0,0
-91,-489,0,0,0,0,0,0,0,0,0,-1,1133,1513,0,0
-84,-489,0,0,0,0,0,0,0,0,0,-1,1140,1513,0,0
-77,-489,0,0,0,0,0,0,0,0,0,-1,1147,1513,0,0
-70,-489,0,0,0,0,0,0,0,0,0,-1,1154,1513,0,0
-63,-489,0,0,0,0,0,0,0,0,0,-1,1161,1513,0,0
-56,-489,0,0,0,0,0,0,0,0,0,-1,1168,1513,0,0
-49,-489,0,0,0,0,0,0,0,0,0,-1,1175,1513,0,0
-42,-489,0,0,0,0,0,0,0,0,0,-1,1182,1513,0,0
-35,-489,0,0,0,0,0,0,0,0,0,-1,1189,1513,0,0
-28,-489,0,0,0,0,0,0,0,0,0,-1,1196,1513,0,0
-21,-489,0,0,0,0,0,0,0,0,0,-1,1203,1513,0,0
-14,-489,0,0,0,0,0,0,0,0,0,-1,1210,1513,0,0
-7,-489,0,0,0,0,0,0,0,0,0,-1,1217,1513,0,0
0,-489,0,0,0,0,0,0,0,0,0,-1,1224,1513,0,0
7,-489,0,0,0,0,0,0,0,0,0,-1,1231,1513,0,0
14,-489,0,0,0,0,0,0,0,0,0,-1,1238,1513,0,0
21,-489,0,0,0,0,0,0,0,0,0,-1,1245,1513,0,0
28,-489,0,0,0,0,0,0,0,0,0,-1,1252,1513,0,0
35,-489,0,0,0,0,0,0,0,0,0,-1,1259,1513,0,0
42,-489,0,0,0,0,0,0,0,0,0,-1,1266,1513,0,0
49,-489,0,0,0,0,0,0,0,0,0,-1,1273,1513,0,0
56,-489,0,0,0,0,0,0,0,0,0,-1,1280,1513,0,0
63,-489,0,0,0,0,0,0,0,0,0,-1,1287,1513,0,0
70,-489,0,0,0,0,0,0,0,0,0,-1,1294,1513,0,0
77,-489,0,0,0,0,0,0,0,0,0,-1,1301,1513,0,0
84,-489,0,0,0,0,0,0,0,0,0,-1,1308,1513,0,0
91,-489,0,0,0,0,0,0,0,0,0,-1,1315,1513,0,0
98,-489,0,0,0,0,0,0,0,0,0,-1,1322,1513,0,0
105,-489,0,0,0,0,0,0,0,0,0,-1,1329,1513,0,0
112,-489,0,0,0,0,0,0,0,0,0,-1,1336,1513,0,0
119,-489,0,0,0,0,0,0,0,0,0,-1,1343,1513,0,0
126,-489,0,0,0,0,0,0,0,0,0,-1,1350,1513,0,0
133,-489,0,0,0,0,0,0,0,0,0,-1,1357,1513,0,0
140,-489,0,0,0,0,0,0,0,0,0,-1,1364,1513,0,0
147,-489,0,0,0,0,0,0,0,0,0,-1,1371,1513,0,0
154,-489,0,0,0,0,0,0,0,0,0,-1,1378,1513,0,0
161,-489,0,0,0,0,0,0,0,0,0,-1,1385,1513,0,0
168,-489,0,0,0,0,0,0,0,0,0,-1,1392,1513,0,0
175,-489,0,0,0,0,0,0,0,0,0,-1,1399,1513,0,0
182,-489,0,0,0,0,0,0,0,0,0,-1,1406,1513,0,0
189,-489,0,0,0,0,0,0,0,0,0,-1,1413,1513,0,0
196,-489,0,0,0,0,0,0,0,0,0,-1,1420,1513,0,0
203,-489,0,0,0,0,0,0,0,0,0,-1,1427,1513,0,0
210,-489,0,0,0,0,0,0,0,0,0,-1,1434,1513,0,0
217,-489,0,0,0,0,0,0,0,0,0,-1,1441,1513,0,0
224,-489,0,0,0,0,0,0,0,0,0,-1,1448,1513,0,0
231,-489,0,0,0,0,0,0,0,0,0,-1,1455,1513,0,0
238,-489,0,0,0,0,0,0,0,0,0,-1,1462,1513,0,0
245,-489,0,0,0,0,0,0,0,0,0,-1,1469,1513,0,0
252,-489,0,0,0,0,0,0,0,0,0,-1,1476,1513,0,0
259,-489,0,0,0,0,0,0,0,0,0,-1,1483,1513,0,0
266,-489,0,0,0,0,0,0,0,0,0,-1,1490,1513,0,0
273,-489,0,0,0,0,0,0,0,0,0,-1,1497,1513,0,0
280,-489,0,0,0,0,0,0,0,0,0,-1,1504,1513,0,0
287,-489,0,0,0,0,0,0,0,0,0,-1,1511,1513,0,0
294,-489,0,0,0,0,0,0,0,0,0,-1,1518,1513,0,0
301,-489,0,0,0,0,0,0,0,0,0,-1,1525,1513,0,0
308,-489,0,0,0,0,0,0,0,0,0,-1,1532,1513,0,0
315,-489,0,0,0,0,0,0,0,0,0,-1,1539,1513,0,0
322,-489,0,0,0,0,0,0,0,0,0,-1,1546,1513,0,0
329,-489,0,0,0,0,0,0,0,0,0,-1,1553,1513,0,0
336,-489,0,0,0,0,0,0,0,0,0,-1,1560,1513,0,0
343,-489,0,0,0,0,0,0,0,0,0,-1,1567,1513,0,0
350,-489,0,0,0,0,0,0,0,0,0,-1,1574,1513,0,0
357,-489,0,0,0,0,0,0,0,0,0,-1,1581,1513,0,0
364,-489,0,0,0,0,0,0,0,0,0,-1,1588,1513,0,0
371,-489,0,0,0,0,0,0,0,0,0,-1,1595,1513,0,0
378,-489,0,0,0,0,0,0,0,0,0,-1,1602,1513,0,0
385,-489,0,0,0,0,0,0,0,0,0,-1,1609,1513,0,0
392,-489,0,0,0,0,0,0,0,0,0,-1,1616,1513,0,0
399,-489,0,0,0,0,0,0,0,0,0,-1,1623,1513,0,0
406,-489,0,0,0,0,0,0,0,0,0,-1,1630,1513,0,0
413,-489,0,0,0,0,0,0,0,0,0,-1,1637,1513,0,0
420,-489,0,0,0,0,0,0,0,0,0,-1,1644,1513,0,0
427,-489,0,0,0,0,0,0,0,0,0,-1,1651,1513,0,0
434,-489,0,0,0,0,0,0,0,0,0,-1,1658,1513,0,0
441,-489,11.4602,2.56787,0,0,0,0,0,0,0,-1,1665,1513,11.4602,-2.56786
448,-489,12.4425,1.72351,0,0,0,0,0,0,0,-1,1672,1513,12.4425,-1.72349
455,-489,12.5575,1.37463,0,0,0,0,0,0,0,-1,1679,1513,12.5575,-1.37469
462,-489,14.9784,3.84888,0,0,0,0,0,0,0,-1,1686,1513,14.9784,-3.84892
469,-489,15.1367,4.53101,0,0,0,0,0,0,0,-1,1693,1513,15.1368,-4.531
476,-489,15.5536,5.09338,0,0,0,0,0,0,0,-1,1700,1513,15.5536,-5.09339
483,-489,8.96912,8.37805,0,0,0,0,0,0,0,-1,1707,1513,8.96909,-8.37809
490,-489,10.5366,7.49561,0,0,0,0,0,0,0,-1,1714,1513,10.5367,-7.49558
497,-489,14.6051,11.8397,0,0,0,0,0,0,0,-1,1721,1513,14.6051,-11.8397
504,-489,16.7527,14.1735,0,0,0,0,0,0,0,-1,1728,1513,16.7527,-14.1735
511,-489,17.83,17.7993,0,0,0,0,0,0,0,-1,1735,1513,17.83,-17.7993
518,-489,16.4751,14.3682,0,0,0,0,0,0,0,-1,1742,1513,16.4751,-14.3682
525,-489,17.2606,17.4949,0,0,0,0,0,0,0,-1,1749,1513,17.2606,-17.4949
532,-489,19.397,21.0182,0,0,0,0,0,0,0,-1,1756,1513,19.397,-21.0182
539,-489,22.1429,23.839,0,0,0,0,0,0,0,-1,1763,1513,22.1429,-23.839
546,-489,22.4561,23.1744,0.00787094,0.00714364,-0.00561673,0.0131358,0.0018788,-0.753071,0.00820296,0.0289225,1770,1513,22.456,-23.1745
553,-489,22.4498,22.4873,0.00626516,0.00545199,-0.00418617,0.0100645,0.0016527,-0.736987,0.00623221,0.019033,1777,1513,22.4499,-22.4873
560,-489,22.4524,21.9183,0.00501622,0.00412693,-0.00313604,0.00773898,0.00140417,-0.714974,0.0047608,0.013595,1784,1513,22.4524,-21.9184
567,-489,22.474,21.3937,0.00408206,0.00313529,-0.00244016,0.00609433,0.00112302,-0.68959,0.0037451,0.0150442,1791,1513,22.474,-21.3937
574,-489,22.4292,20.8798,0.00342686,0.00242071,-0.00200588,0.00499179,0.000855779,-0.662533,0.00308246,0.0156032,1798,1513,22.4292,-20.8797
581,-489,22.4127,20.3335,0.00292786,0.00179441,-0.0016811,0.00413519,0.000587085,-0.622823,0.00258343,0.0111528,1805,1513,22.4127,-20.3335
588,-489,22.4064,19.7673,0.0025918,0.00130055,-0.0014522,0.00353543,0.000356924,-0.576228,0.00224744,0.0132339,1812,1513,22.4064,-19.7673
595,-489,22.3813,19.2538,0.00260037,0.000914199,-0.00134577,0.00334533,0.000169243,-0.505569,0.002176,0.0200068,1819,1513,22.3813,-19.2538
602,-489,22.3741,18.6962,0.00270562,0.000613085,-0.00130035,0.00332836,-9.65688e-06,-0.446627,0.00222214,0.025529,1826,1513,22.3741,-18.6962
609,-489,22.3557,18.1407,0.00291716,0.000322102,-0.00123,0.0034075,-0.00016824,-0.379344,0.00232977,0.0176196,1833,1513,22.3557,-18.1407
616,-489,22.3373,17.609,0.00346731,-9.23117e-05,-0.00109106,0.00377511,-0.000400118,-0.27497,0.00266016,0.018869,1840,1513,22.3372,-17.6091
623,-489,22.4138,17.0643,0,0,0,0,0,0,0,-1,1847,1513,22.4138,-17.0644
630,-489,22.4672,16.5679,0,0,0,0,0,0,0,-1,1854,1513,22.4672,-16.5678
637,-489,17.2048,11.8091,0,0,0,0,0,0,0,-1,1861,1513,17.2048,-11.8091
644,-489,9.67578,8.45874,0,0,0,0,0,0,0,-1,1868,1513,9.67576,-8.45879
651,-489,6.13818,6.85095,0,0,0,0,0,0,0,-1,1875,1513,6.13823,-6.85097
658,-489,5.43848,7.75513,0,0,0,0,0,0,0,-1,1882,1513,5.43844,-7.75509
665,-489,5.48438,8.59912,0,0,0,0,0,0,0,-1,1889,1513,5.48434,-8.59907
672,-489,0,0,0,0,0,0,0,0,0,-1,1896,1513,0,0
679,-489,0,0,0,0,0,0,0,0,0,-1,1903,1513,0,0
686,-489,0,0,0,0,0,0,0,0,0,-1,1910,1513,0,0
693,-489,0,0,0,0,0,0,0,0,0,-1,1917,1513,0,0
700,-489,0,0,0,0,0,0,0,0,0,-1,1924,1513,0,0
707,-489,0,0,0,0,0,0,0,0,0,-1,1931,1513,0,0
714,-489,0,0,0,0,0,0,0,0,0,-1,1938,1513,0,0
721,-489,0,0,0,0,0,0,0,0,0,-1,1945,1513,0,0
728,-489,0,0,0,0,0,0,0,0,0,-1,1952,1513,0,0
735,-489,0,0,0,0,0,0,0,0,0,-1,1959,1513,0,0
742,-489,0,0,0,0,0,0,0,0,0,-1,1966,1513,0,0
749,-489,0,0,0,0,0,0,0,0,0,-1,1973,1513,0,0
756,-489,0,0,0,0,0,0,0,0,0,-1,1980,1513,0,0
763,-489,0,0,0,0,0,0,0,0,0,-1,1987,1513,0,0
770,-489,0,0,0,0,0,0,0,0,0,-1,1994,1513,0,0
777,-489,0,0,0,0,0,0,0,0,0,-1,2001,1513,0,0
784,-489,0,0,0,0,0,0,0,0,0,-1,2008,1513,0,0
791,-489,0,0,0,0,0,0,0,0,0,-1,2015,1513,0,0
798,-489,0,0,0,0,0,0,0,0,0,-1,2022,1513,0,0
805,-489,0,0,0,0,0,0,0,0,0,-1,2029,1513,0,0
812,-489,0,0,0,0,0,0,0,0,0,-1,2036,1513,0,0
-700,-496,0,0,0,0,0,0,0,0,0,-1,524,1520,0,0
-693,-496,0,0,0,0,0,0,0,0,0,-1,531,1520,0,0
-686,-496,0,0,0,0,0,0,0,0,0,-1,538,1520,0,0
-679,-496,0,0,0,0,0,0,0,0,0,-1,545,1520,0,0
-672,-496,0,0,0,0,0,0,0,0,0,-1,552,1520,0,0
-665,-496,0,0,0,0,0,0,0,0,0,-1,559,1520,0,0
-658,-496,0,0,0,0,0,0,0,0,0,-1,566,1520,0,0
-651,-496,0,0,0,0,0,0,0,0,0,-1,573,1520,0,0
-644,-496,0,0,0,0,0,0,0,0,0,-1,580,1520,0,0
-637,-496,0,0,0,0,0,0,0,0,0,-1,587,1520,0,0
-630,-496,0,0,0,0,0,0,0,0,0,-1,594,1520,0,0
-623,-496,0,0,0,0,0,0,0,0,0,-1,601,1520,0,0
-616,-496,0,0,0,0,0,0,0,0,0,-1,608,1520,0,0
-609,-496,0,0,0,0,0,0,0,0,0,-1,615,1520,0,0
-602,-496,0,0,0,0,0,0,0,0,0,-1,622,1520,0,0
-595,-496,0,0,0,0,0,0,0,0,0,-1,629,1520,0,0
-588,-496,0,0,0,0,0,0,0,0,0,-1,636,1520,0,0
-581,-496,0,0,0,0,0,0,0,0,0,-1,643,1520,0,0
-574,-496,0,0,0,0,0,0,0,0,0,-1,650,1520,0,0
-567,-496,0,0,0,0,0,0,0,0,0,-1,657,1520,0,0
-560,-496,0,0,0,0,0,0,0,0,0,-1,664,1520,0,0
-553,-496,0,0,0,0,0,0,0,0,0,-1,671,1520,0,0
-546,-496,-8.09711,7.94836,0,0,0,0,0,0,0,-1,678,1520,-8.09712,-7.94842
-539,-496,-3.20129,1.16052,0,0,0,0,0,0,0,-1,685,1520,-3.20131,-1.16054
-532,-496,-2.98279,2.62146,0,0,0,0,0,0,0,-1,692,1520,-2.98278,-2.62151
-525,-496,-2.75201,4.08032,0,0,0,0,0,0,0,-1,699,1520,-2.75201,-4.08031
-518,-496,-2.6333,5.36072,0,0,0,0,0,0,0,-1,706,1520,-2.63328,-5.36077
-511,-496,-7.92126,9.68604,0,0,0,0,0,0,0,-1,713,1520,-7.92127,-9.68598
-504,-496,-7.51044,11.6274,0,0,0,0,0,0,0,-1,720,1520,-7.51042,-11.6275
-497,-496,-5.30933,14.4291,0,0,0,0,0,0,0,-1,727,1520,-5.30932,-14.4291
-490,-496,-5.37048,15.4487,0,0,0,0,0,0,0,-1,734,1520,-5.37048,-15.4487
-483,-496,-5.44336,16.179,-0.00234852,0.00286978,-0.00211661,0.00362035,-0.00309909,-1.23002,0.00388336,0.0359577,741,1520,-5.44334,-16.1789
-476,-496,-5.57288,16.6591,-0.00199066,0.00179464,-0.00156562,0.00235827,-0.00255429,-1.22524,0.00283702,0.0164974,748,1520,-5.57286,-16.6591
-469,-496,-5.57788,17.2561,-0.00146042,0.00109547,-0.000988608,0.00143322,-0.00179817,-1.24158,0.00186961,0.0114538,755,1520,-5.57788,-17.2561
-462,-496,-5.60339,17.8542,-0.00076172,0.000846239,-0.000313045,0.000905034,-0.000820515,-1.38514,0.000996644,0.0160051,762,1520,-5.60338,-17.8543
-455,-496,-5.6239,18.4363,1.68832e-05,0.000861348,0.000353143,0.000989561,-0.00011133,1.22253,0.000699776,0.0219588,769,1520,-5.62393,-18.4363
-448,-496,-5.62848,19.0154,0.000978862,0.00128472,0.00117299,0.0023147,-5.11233e-05,0.85022,0.00156046,0.0206418,776,1520,-5.62849,-19.0153
-441,-496,-5.61603,19.5844,0.00211588,0.00207499,0.00216304,0.00425857,-6.76997e-05,0.780672,0.00286188,0.0155588,783,1520,-5.61602,-19.5844
-434,-496,-5.6853,20.1489,0.0033609,0.00326925,0.00335634,0.00667173,-4.15805e-05,0.778572,0.00446174,0.0146347,790,1520,-5.68531,-20.149
-427,-496,-5.71222,20.7351,0.00477458,0.00480514,0.00464458,0.00943446,0.000145259,0.787043,0.00624178,0.017974,797,1520,-5.71222,-20.735
-420,-496,-5.69641,21.2842,0.00640908,0.00655316,0.00641379,0.0128953,6.69272e-05,0.791014,0.00857466,0.0174953,804,1520,-5.6964,-21.2842
-413,-496,-5.6416,21.9115,0.00836276,0.0091682,0.00856019,0.0173351,0.000195821,0.808904,0.011492,0.0302122,811,1520,-5.6416,-21.9115
-406,-496,-5.5022,22.7426,0,0,0,0,0,0,0,-1,818,1520,-5.50221,-22.7425
-399,-496,-5.16388,23.6127,0,0,0,0,0,0,0,-1,825,1520,-5.1639,-23.6127
-392,-496,-1.49786,12.387,0,0,0,0,0,0,0,-1,832,1520,-1.49788,-12.387
-385,-496,-1.72437,11.4985,0,0,0,0,0,0,0,-1,839,1520,-1.72436,-11.4985
-378,-496,-1.45532,14.0719,0,0,0,0,0,0,0,-1,846,1520,-1.45533,-14.0719
-371,-496,0.0877075,12.5299,0,0,0,0,0,0,0,-1,853,1520,0.0876896,-12.5299
-364,-496,0.0881348,10.6422,0,0,0,0,0,0,0,-1,860,1520,0.0881368,-10.6423
-357,-496,0.323792,7.56812,0,0,0,0,0,0,0,-1,867,1520,0.323782,-7.56806
-350,-496,2.1535,7.18945,0,0,0,0,0,0,0,-1,874,1520,2.15348,-7.1894
-343,-496,-7.56244,0.335327,0,0,0,0,0,0,0,-1,881,1520,-7.56242,-0.335322
-336,-496,-3.99249,6.02222,0,0,0,0,0,0,0,-1,888,1520,-3.99246,-6.0222
-329,-496,-6.93689,-0.100342,0,0,0,0,0,0,0,-1,895,1520,-6.93686,0.1003
-322,-496,-6.17505,0.494385,0,0,0,0,0,0,0,-1,902,1520,-6.17507,-0.49437
-315,-496,-7.539,5.78638,0,0,0,0,0,0,0,-1,909,1520,-7.53898,-5.78633
-308,-496,0,0,0,0,0,0,0,0,0,-1,916,1520,0,0
-301,-496,0,0,0,0,0,0,0,0,0,-1,923,1520,0,0
-294,-496,0,0,0,0,0,0,0,0,0,-1,930,1520,0,0
-287,-496,0,0,0,0,0,0,0,0,0,-1,937,1520,0,0
-280,-496,0,0,0,0,0,0,0,0,0,-1,944,1520,0,0
-273,-496,0,0,0,0,0,0,0,0,0,-1,951,1520,0,0
-266,-496,0,0,0,0,0,0,0,0,0,-1,958,1520,0,0
-259,-496,0,0,0,0,0,0,0,0,0,-1,965,1520,0,0
-252,-496,0,0,0,0,0,0,0,0,0,-1,972,1520,0,0
-245,-496,0,0,0,0,0,0,0,0,0,-1,979,1520,0,0
-238,-496,0,0,0,0,0,0,0,0,0,-1,986,1520,0,0
-231,-496,0,0,0,0,0,0,0,0,0,-1,993,1520,0,0
-224,-496,0,0,0,0,0,0,0,0,0,-1,1000,1520,0,0
-217,-496,0,0,0,0,0,0,0,0,0,-1,1007,1520,0,0
-210,-496,0,0,0,0,0,0,0,0,0,-1,1014,1520,0,0
-203,-496,0,0,0,0,0,0,0,0,0,-1,1021,1520,0,0
-196,-496,0,0,0,0,0,0,0,0,0,-1,1028,1520,0,0
-189,-496,0,0,0,0,0,0,0,0,0,-1,1035,1520,0,0
-182,-496,0,0,0,0,0,0,0,0,0,-1,1042,1520,0,0
-175,-496,0,0,0,0,0,0,0,0,0,-1,1049,1520,0,0
-168,-496,0,0,0,0,0,0,0,0,0,-1,1056,1520,0,0
-161,-496,0,0,0,0,0,0,0,0,0,-1,1063,1520,0,0
-154,-496,0,0,0,0,0,0,0,0,0,-1,1070,1520,0,0
-147,-496,0,0,0,0,0,0,0,0,0,-1,1077,1520,0,0
-140,-496,0,0,0,0,0,0,0,0,0,-1,1084,1520,0,0
-133,-496,0,0,0,0,0,0,0,0,0,-1,1091,1520,0,0
-126,-496,0,0,0,0,0,0,0,0,0,-1,1098,1520,0,0
-119,-496,0,0,0,0,0,0,0,0,0,-1,1105,1520,0,0
-112,-496,0,0,0,0,0,0,0,0,0,-1,1112,1520,0,0
-105,-496,0,0,0,0,0,0,0,0,0,-1,1119,1520,0,0
-98,-496,0,0,0,0,0,0,0,0,0,-1,1126,1520,0,0
-91,-496,0,0,0,0,0,0,0,0,0,-1,1133,1520,0,0
-84,-496,0,0,0,0,0,0,0,0,0,-1,1140,1520,0,0
-77,-496,0,0,0,0,0,0,0,0,0,-1,1147,1520,0,0
-70,-496,0,0,0,0,0,0,0,0,0,-1,1154,1520,0,0
-63,-496,0,0,0,0,0,0,0,0,0,-1,1161,1520,0,0
-56,-496,0,0,0,0,0,0,0,0,0,-1,1168,1520,0,0
-49,-496,0,0,0,0,0,0,0,0,0,-1,1175,1520,0,0
-42,-496,0,0,0,0,0,0,0,0,0,-1,1182,1520,0,0
-35,-496,0,0,0,0,0,0,0,0,0,-1,1189,1520,0,0
-28,-496,0,0,0,0,0,0,0,0,0,-1,1196,1520,0,0
-21,-496,0,0,0,0,0,0,0,0,0,-1,1203,1520,0,0
-14,-496,0,0,0,0,0,0,0,0,0,-1,1210,1520,0,0
-7,-496,0,0,0,0,0,0,0,0,0,-1,1217,1520,0,0
0,-496,0,0,0,0,0,0,0,0,0,-1,1224,1520,0,0
7,-496,0,0,0,0,0,0,0,0,0,-1,1231,1520,0,0
14,-496,0,0,0,0,0,0,0,0,0,-1,1238,1520,0,0
21,-496,0,0,0,0,0,0,0,0,0,-1,1245,1520,0,0
28,-496,0,0,0,0,0,0,0,0,0,-1,1252,1520,0,0
35,-496,0,0,0,0,0,0,0,0,0,-1,1259,1520,0,0
42,-496,0,0,0,0,0,0,0,0,0,-1,1266,1520,0,0
49,-496,0,0,0,0,0,0,0,0,0,-1,1273,1520,0,0
56,-496,0,0,0,0,0,0,0,0,0,-1,1280,1520,0,0
63,-496,0,0,0,0,0,0,0,0,0,-1,1287,1520,0,0
70,-496,0,0,0,0,0,0,0,0,0,-1,1294,1520,0,0
77,-496,0,0,0,0,0,0,0,0,0,-1,1301,1520,0,0
84,-496,0,0,0,0,0,0,0,0,0,-1,1308,1520,0,0
91,-496,0,0,0,0,0,0,0,0,0,-1,1315,1520,0,0
98,-496,0,0,0,0,0,0,0,0,0,-1,1322,1520,0,0
105,-496,0,0,0,0,0,0,0,0,0,-1,1329,1520,0,0
112,-496,0,0,0,0,0,0,0,0,0,-1,1336,1520,0,0
119,-496,0,0,0,0,0,0,0,0,0,-1,1343,1520,0,0
126,-496,0,0,0,0,0,0,0,0,0,-1,1350,1520,0,0
133,-496,0,0,0,0,0,0,0,0,0,-1,1357,1520,0,0
140,-496,0,0,0,0,0,0,0,0,0,-1,1364,1520,0,0
147,-496,0,0,0,0,0,0,0,0,0,-1,1371,1520,0,0
154,-496,0,0,0,0,0,0,0,0,0,-1,1378,1520,0,0
161,-496,0,0,0,0,0,0,0,0,0,-1,1385,1520,0,0
168,-496,0,0,0,0,0,0,0,0,0,-1,1392,1520,0,0
175,-496,0,0,0,0,0,0,0,0,0,-1,1399,1520,0,0
182,-496,0,0,0,0,0,0,0,0,0,-1,1406,1520,0,0
189,-496,0,0,0,0,0,0,0,0,0,-1,1413,1520,0,0
196,-496,0,0,0,0,0,0,0,0,0,-1,1420,1520,0,0
203,-496,0,0,0,0,0,0,0,0,0,-1,1427,1520,0,0
210,-496,0,0,0,0,0,0,0,0,0,-1,1434,1520,0,0
217,-496,0,0,0,0,0,0,0,0,0,-1,1441,1520,0,0
224,-496,0,0,0,0,0,0,0,0,0,-1,1448,1520,0,0
231,-496,0,0,0,0,0,0,0,0,0,-1,1455,1520,0,0
238,-496,0,0,0,0,0,0,0,0,0,-1,1462,1520,0,0
245,-496,0,0,0,0,0,0,0,0,0,-1,1469,1520,0,0
252,-496,0,0,0,0,0,0,0,0,0,-1,1476,1520,0,0
259,-496,0,0,0,0,0,0,0,0,0,-1,1483,1520,0,0
266,-496,0,0,0,0,0,0,0,0,0,-1,1490,1520,0,0
273,-496,0,0,0,0,0,0,0,0,0,-1,1497,1520,0,0
280,-496,0,0,0,0,0,0,0,0,0,-1,1504,1520,0,0
287,-496,0,0,0,0,0,0,0,0,0,-1,1511,1520,0,0
294,-496,0,0,0,0,0,0,0,0,0,-1,1518,1520,0,0
301,-496,0,0,0,0,0,0,0,0,0,-1,1525,1520,0,0
308,-496,0,0,0,0,0,0,0,0,0,-1,1532,1520,0,0
315,-496,0,0,0,0,0,0,0,0,0,-1,1539,1520,0,0
322,-496,0,0,0,0,0,0,0,0,0,-1,1546,1520,0,0
329,-496,0,0,0,0,0,0,0,0,0,-1,1553,1520,0,0
336,-496,0,0,0,0,0,0,0,0,0,-1,1560,1520,0,0
343,-496,0,0,0,0,0,0,0,0,0,-1,1567,1520,0,0
350,-496,0,0,0,0,0,0,0,0,0,-1,1574,1520,0,0
357,-496,0,0,0,0,0,0,0,0,0,-1,1581,1520,0,0
364,-496,0,0,0,0,0,0,0,0,0,-1,1588,1520,0,0
371,-496,0,0,0,0,0,0,0,0,0,-1,1595,1520,0,0
378,-496,0,0,0,0,0,0,0,0,0,-1,1602,1520,0,0
385,-496,0,0,0,0,0,0,0,0,0,-1,1609,1520,0,0
392,-496,0,0,0,0,0,0,0,0,0,-1,1616,1520,0,0
399,-496,0,0,0,0,0,0,0,0,0,-1,1623,1520,0,0
406,-496,0,0,0,0,0,0,0,0,0,-1,1630,1520,0,0
413,-496,0,0,0,0,0,0,0,0,0,-1,1637,1520,0,0
420,-496,0,0,0,0,0,0,0,0,0,-1,1644,1520,0,0
427,-496,0,0,0,0,0,0,0,0,0,-1,1651,1520,0,0
434,-496,11.0457,3.37732,0,0,0,0,0,0,0,-1,1658,1520,11.0456,-3.37736
441,-496,11.788,2.75488,0,0,0,0,0,0,0,-1,1665,1520,11.7879,-2.75485
448,-496,12.2146,2.18494,0,0,0,0,0,0,0,-1,1672,1520,12.2146,-2.18489
455,-496,12.3489,1.65173,0,0,0,0,0,0,0,-1,1679,1520,12.3489,-1.65178
462,-496,12.1912,1.32361,0,0,0,0,0,0,0,-1,1686,1520,12.1911,-1.32357
469,-496,14.8138,5.77954,0,0,0,0,0,0,0,-1,1693,1520,14.8138,-5.77958
476,-496,15.2449,6.27942,0,0,0,0,0,0,0,-1,1700,1520,15.2449,-6.27936
483,-496,9.19812,6.88367,0,0,0,0,0,0,0,-1,1707,1520,9.19812,-6.88361
490,-496,10.2123,7.97144,0,0,0,0,0,0,0,-1,1714,1520,10.2122,-7.97145
497,-496,13.9297,12.2981,0,0,0,0,0,0,0,-1,1721,1520,13.9297,-12.2982
504,-496,16.3271,16.6501,0,0,0,0,0,0,0,-1,1728,1520,16.3272,-16.6502
511,-496,17.6753,18.0685,0,0,0,0,0,0,0,-1,1735,1520,17.6753,-18.0685
518,-496,17.0537,17.3118,0,0,0,0,0,0,0,-1,1742,1520,17.0538,-17.3118
525,-496,18.2721,19.3259,0,0,0,0,0,0,0,-1,1749,1520,18.2721,-19.3259
532,-496,21.4797,24.6661,0,0,0,0,0,0,0,-1,1756,1520,21.4797,-24.6662
539,-496,21.9402,23.7074,0.00862577,0.00821046,-0.00668956,0.0151109,0.00172533,-0.769882,0.0095509,0.0426056,1763,1520,21.9402,-23.7074
546,-496,21.8524,23.0846,0.00673324,0.00624948,-0.00493313,0.0114304,0.00155231,-0.760902,0.00715916,0.0172446,1770,1520,21.8524,-23.0846
553,-496,21.9469,22.4376,0.00530718,0.00471101,-0.00365536,0.00867659,0.00134159,-0.744714,0.00539311,0.0155773,1777,1520,21.9469,-22.4376
560,-496,21.942,21.9313,0.00423835,0.00349302,-0.00271635,0.00660748,0.00112388,-0.717227,0.00408226,0.0149221,1784,1520,21.942,-21.9312
567,-496,21.9215,21.4033,0.0035119,0.00262693,-0.00214321,0.00525783,0.000881005,-0.683599,0.00325158,0.0117132,1791,1520,21.9216,-21.4034
574,-496,21.8953,20.8604,0.00304878,0.0019947,-0.00179731,0.00439473,0.00064875,-0.642776,0.0027393,0.0126341,1798,1520,21.8952,-20.8603
581,-496,21.8677,20.3436,0.0027492,0.00144923,-0.00157904,0.00380681,0.000391627,-0.590151,0.00241792,0.0134283,1805,1520,21.8677,-20.3437
588,-496,21.8623,19.7915,0.00263132,0.00109149,-0.00150441,0.00355138,0.000171433,-0.548888,0.00231256,0.0155257,1812,1520,21.8623,-19.7915
595,-496,21.8409,19.2693,0.00283868,0.000856988,-0.00154633,0.00368439,1.1281e-05,-0.500468,0.00245251,0.017674,1819,1520,21.8409,-19.2692
602,-496,21.8197,18.7344,0.00314817,0.000724172,-0.00166098,0.00399233,-0.000119991,-0.470211,0.00270244,0.0192958,1826,1520,21.8197,-18.7344
609,-496,21.8273,18.1726,0.00356823,0.000571957,-0.00175446,0.00437716,-0.000236967,-0.43202,0.00300022,0.0179304,1833,1520,21.8273,-18.1727
616,-496,21.8943,17.5223,0.00445015,0.000261871,-0.00178183,0.00510562,-0.000393594,-0.352497,0.00354224,0.0384148,1840,1520,21.8943,-17.5223
623,-496,21.8774,16.9348,0,0,0,0,0,0,0,-1,1847,1520,21.8775,-16.9348
630,-496,18.5656,13.8966,0,0,0,0,0,0,0,-1,1854,1520,18.5655,-13.8967
637,-496,14.6411,10.1016,0,0,0,0,0,0,0,-1,1861,1520,14.6411,-10.1016
644,-496,12.4537,10.087,0,0,0,0,0,0,0,-1,1868,1520,12.4537,-10.0871
651,-496,8.18506,5.47803,0,0,0,0,0,0,0,-1,1875,1520,8.18505,-5.47806
658,-496,7.79993,4.02563,0,0,0,0,0,0,0,-1,1882,1520,7.79997,-4.02568
665,-496,5.47583,7.90625,0,0,0,0,0,0,0,-1,1889,1520,5.47581,-7.90628
672,-496,0,0,0,0,0,0,0,0,0,-1,1896,1520,0,0
679,-496,0,0,0,0,0,0,0,0,0,-1,1903,1520,0,0
686,-496,0,0,0,0,0,0,0,0,0,-1,1910,1520,0,0
693,-496,0,0,0,0,0,0,0,0,0,-1,1917,1520,0,0
700,-496,0,0,0,0,0,0,0,0,0,-1,1924,1520,0,0
707,-496,0,0,0,0,0,0,0,0,0,-1,1931,1520,0,0
714,-496,0,0,0,0,0,0,0,0,0,-1,1938,1520,0,0
721,-496,0,0,0,0,0,0,0,0,0,-1,1945,1520,0,0
728,-496,0,0,0,0,0,0,0,0,0,-1,1952,1520,0,0
735,-496,0,0,0,0,0,0,0,0,0,-1,1959,1520,0,0
742,-496,0,0,0,0,0,0,0,0,0,-1,1966,1520,0,0
749,-496,0,0,0,0,0,0,0,0,0,-1,1973,1520,0,0
756,-496,0,0,0,0,0,0,0,0,0,-1,1980,1520,0,0
763,-496,0,0,0,0,0,0,0,0,0,-1,1987,1520,0,0
770,-496,0,0,0,0,0,0,0,0,0,-1,1994,1520,0,0
777,-496,0,0,0,0,0,0,0,0,0,-1,2001,1520,0,0
784,-496,0,0,0,0,0,0,0,0,0,-1,2008,1520,0,0
791,-496,0,0,0,0,0,0,0,0,0,-1,2015,1520,0,0
798,-496,0,0,0,0,0,0,0,0,0,-1,2022,1520,0,0
805,-496,0,0,0,0,0,0,0,0,0,-1,2029,1520,0,0
812,-496,0,0,0,0,0,0,0,0,0,-1,2036,1520,0,0
-700,-503,0,0,0,0,0,0,0,0,0,-1,524,1527,0,0
-693,-503,0,0,0,0,0,0,0,0,0,-1,531,1527,0,0
-686,-503,0,0,0,0,0,0,0,0,0,-1,538,1527,0,0
-679,-503,0,0,0,0,0,0,0,0,0,-1,545,1527,0,0
-672,-503,0,0,0,0,0,0,0,0,0,-1,552,1527,0,0
-665,-503,0,0,0,0,0,0,0,0,0,-1,559,1527,0,0
-658,-503,0,0,0,0,0,0,0,0,0,-1,566,1527,0,0
-651,-503,0,0,0,0,0,0,0,0,0,-1,573,1527,0,0
-644,-503,0,0,0,0,0,0,0,0,0,-1,580,1527,0,0
-637,-503,0,0,0,0,0,0,0,0,0,-1,587,1527,0,0
-630,-503,0,0,0,0,0,0,0,0,0,-1,594,1527,0,0
-623,-503,0,0,0,0,0,0,0,0,0,-1,601,1527,0,0
-616,-503,0,0,0,0,0,0,0,0,0,-1,608,1527,0,0
-609,-503,0,0,0,0,0,0,0,0,0,-1,615,1527,0,0
-602,-503,0,0,0,0,0,0,0,0,0,-1,622,1527,0,0
-595,-503,0,0,0,0,0,0,0,0,0,-1,629,1527,0,0
-588,-503,0,0,0,0,0,0,0,0,0,-1,636,1527,0,0
-581,-503,0,0,0,0,0,0,0,0,0,-1,643,1527,0,0
-574,-503,0,0,0,0,0,0,0,0,0,-1,650,1527,0,0
-567,-503,0,0,0,0,0,0,0,0,0,-1,657,1527,0,0
-560,-503,0,0,0,0,0,0,0,0,0,-1,664,1527,0,0
-553,-503,0,0,0,0,0,0,0,0,0,-1,671,1527,0,0
-546,-503,0,0,0,0,0,0,0,0,0,-1,678,1527,0,0
-539,-503,3.50177,4.26428,0,0,0,0,0,0,0,-1,685,1527,3.50177,-4.26424
-532,-503,-3.13196,1.05298,0,0,0,0,0,0,0,-1,692,1527,-3.13194,-1.05299
-525,-503,-2.94293,2.59314,0,0,0,0,0,0,0,-1,699,1527,-2.94296,-2.59314
-518,-503,-2.7395,4.05872,0,0,0,0,0,0,0,-1,706,1527,-2.73948,-4.05871
-511,-503,-1.60022,7.23877,0,0,0,0,0,0,0,-1,713,1527,-1.60023,-7.23872
-504,-503,-8.1402,10.1541,0,0,0,0,0,0,0,-1,720,1527,-8.14017,-10.1541
-497,-503,-4.51758,14.0781,0,0,0,0,0,0,0,-1,727,1527,-4.5176,-14.0782
-490,-503,-4.28577,15.8732,0,0,0,0,0,0,0,-1,734,1527,-4.28578,-15.8731
-483,-503,-4.8988,16.5022,0,0,0,0,0,0,0,-1,741,1527,-4.89878,-16.5022
-476,-503,-4.90381,16.7954,-0.00318011,0.00277433,-0.00194834,0.00335518,-0.00376096,-1.28106,0.00411073,0.0284337,748,1527,-4.90378,-16.7954
-469,-503,-5.00232,17.2854,-0.00256503,0.00163453,-0.00135042,0.00203129,-0.0029618,-1.28503,0.0028994,0.0120834,755,1527,-5.00233,-17.2854
-462,-503,-5.02893,17.8833,-0.00179614,0.00106019,-0.000693534,0.00121968,-0.00195563,-1.34476,0.00184961,0.0120829,762,1527,-5.02893,-17.8833
-455,-503,-5.03497,18.4717,-0.000968204,0.00082276,-8.10229e-05,0.000826418,-0.000971862,-1.52568,0.00103937,0.0187059,769,1527,-5.03496,-18.4717
-448,-503,-5.0246,19.0464,-2.59967e-07,0.000988152,0.000620221,0.00128699,-0.000299095,1.1218,0.000973133,0.0173853,776,1527,-5.02458,-19.0464
-441,-503,-5.01575,19.6041,0.00111689,0.00154485,0.0014666,0.00281299,-0.000151257,0.857839,0.00192773,0.0136559,783,1527,-5.01577,-19.6042
-434,-503,-5.07813,20.1682,0.00231598,0.00250753,0.00249057,0.00490417,-8.06563e-05,0.804616,0.00329666,0.0115452,790,1527,-5.07815,-20.1682
-427,-503,-5.13403,20.7026,0.00363951,0.00365762,0.00364115,0.00728973,7.40308e-06,0.786642,0.00485735,0.0178662,797,1527,-5.13406,-20.7026
-420,-503,-5.11597,21.2404,0.00517449,0.00521089,0.00509598,0.0102887,9.66736e-05,0.787184,0.00682714,0.0181936,804,1527,-5.11597,-21.2404
-413,-503,-5.13336,21.8224,0.0069294,0.00735265,0.00684177,0.0139861,0.000295982,0.800859,0.00922697,0.0159065,811,1527,-5.13339,-21.8223
-406,-503,-5.12695,22.4259,0.0088814,0.00984456,0.00907163,0.0184474,0.000278576,0.811916,0.0122065,0.0250466,818,1527,-5.12698,-22.426
-399,-503,-4.98883,23.203,0.0112745,0.0124822,0.0117095,0.0236034,0.000153255,0.81116,0.0156848,0.0408396,825,1527,-4.98881,-23.203
-392,-503,-4.67792,24.132,0,0,0,0,0,0,0,-1,832,1527,-4.67794,-24.1319
-385,-503,-2.00403,14.1218,0,0,0,0,0,0,0,-1,839,1527,-2.00403,-14.1218
-378,-503,-2.07043,13.8632,0,0,0,0,0,0,0,-1,846,1527,-2.07043,-13.8631
-371,-503,-1.67285,13.8081,0,0,0,0,0,0,0,-1,853,1527,-1.67285,-13.8081
-364,-503,0.181396,12.3768,0,0,0,0,0,0,0,-1,860,1527,0.18138,-12.3768
-357,-503,0.558533,9.25452,0,0,0,0,0,0,0,-1,867,1527,0.558542,-9.25446
-350,-503,0.219971,6.84827,0,0,0,0,0,0,0,-1,874,1527,0.21996,-6.84831
-343,-503,-3.5802,4.43274,0,0,0,0,0,0,0,-1,881,1527,-3.58018,-4.43276
-336,-503,-3.2384,6.40637,0,0,0,0,0,0,0,-1,888,1527,-3.2384,-6.40643
-329,-503,-1.70691,11.886,0,0,0,0,0,0,0,-1,895,1527,-1.70689,-11.886
-322,-503,-3.31317,8.81519,0,0,0,0,0,0,0,-1,902,1527,-3.31315,-8.81524
-315,-503,-3.90265,7.73853,0,0,0,0,0,0,0,-1,909,1527,-3.90264,-7.73854
-308,-503,-1.70264,7.35413,0,0,0,0,0,0,0,-1,916,1527,-1.70262,-7.35416
-301,-503,0,0,0,0,0,0,0,0,0,-1,923,1527,0,0
-294,-503,0,0,0,0,0,0,0,0,0,-1,930,1527,0,0
-287,-503,0,0,0,0,0,0,0,0,0,-1,937,1527,0,0
-280,-503,0,0,0,0,0,0,0,0,0,-1,944,1527,0,0
-273,-503,0,0,0,0,0,0,0,0,0,-1,951,1527,0,0
-266,-503,0,0,0,0,0,0,0,0,0,-1,958,1527,0,0
-259,-503,0,0,0,0,0,0,0,0,0,-1,965,1527,0,0
-252,-503,0,0,0,0,0,0,0,0,0,-1,972,1527,0,0
-245,-503,0,0,0,0,0,0,0,0,0,-1,979,1527,0,0
-238,-503,0,0,0,0,0,0,0,0,0,-1,986,1527,0,0
-231,-503,0,0,0,0,0,0,0,0,0,-1,993,1527,0,0
-224,-503,0,0,0,0,0,0,0,0,0,-1,1000,1527,0,0
-217,-503,0,0,0,0,0,0,0,0,0,-1,1007,1527,0,0
-210,-503,0,0,0,0,0,0,0,0,0,-1,1014,1527,0,0
-203,-503,0,0,0,0,0,0,0,0,0,-1,1021,1527,0,0
-196,-503,0,0,0,0,0,0,0,0,0,-1,1028,1527,0,0
-189,-503,0,0,0,0,0,0,0,0,0,-1,1035,1527,0,0
-182,-503,0,0,0,0,0,0,0,0,0,-1,1042,1527,0,0
-175,-503,0,0,0,0,0,0,0,0,0,-1,1049,1527,0,0
-168,-503,0,0,0,0,0,0,0,0,0,-1,1056,1527,0,0
-161,-503,0,0,0,0,0,0,0,0,0,-1,1063,1527,0,0
-154,-503,0,0,0,0,0,0,0,0,0,-1,1070,1527,0,0
-147,-503,0,0,0,0,0,0,0,0,0,-1,1077,1527,0,0
-140,-503,0,0,0,0,0,0,0,0,0,-1,1084,1527,0,0
-133,-503,0,0,0,0,0,0,0,0,0,-1,1091,1527,0,0
-126,-503,0,0,0,0,0,0,0,0,0,-1,1098,1527,0,0
-119,-503,0,0,0,0,0,0,0,0,0,-1,1105,1527,0,0
-112,-503,0,0,0,0,0,0,0,0,0,-1,1112,1527,0,0
-105,-503,0,0,0,0,0,0,0,0,0,-1,1119,1527,0,0
-98,-503,0,0,0,0,0,0,0,0,0,-1,1126,1527,0,0
-91,-503,0,0,0,0,0,0,0,0,0,-1,1133,1527,0,0
-84,-503,0,0,0,0,0,0,0,0,0,-1,1140,1527,0,0
-77,-503,0,0,0,0,0,0,0,0,0,-1,1147,1527,0,0
-70,-503,0,0,0,0,0,0,0,0,0,-1,1154,1527,0,0
-63,-503,0,0,0,0,0,0,0,0,0,-1,1161,1527,0,0
-56,-503,0,0,0,0,0,0,0,0,0,-1,1168,1527,0,0
-49,-503,0,0,0,0,0,0,0,0,0,-1,1175,1527,0,0
-42,-503,0,0,0,0,0,0,0,0,0,-1,1182,1527,0,0
-35,-503,0,0,0,0,0,0,0,0,0,-1,1189,1527,0,0
-28,-503,0,0,0,0,0,0,0,0,0,-1,1196,1527,0,0
-21,-503,0,0,0,0,0,0,0,0,0,-1,1203,1527,0,0
-14,-503,0,0,0,0,0,0,0,0,0,-1,1210,1527,0,0
-7,-503,0,0,0,0,0,0,0,0,0,-1,1217,1527,0,0
0,-503,0,0,0,0,0,0,0,0,0,-1,1224,1527,0,0
7,-503,0,0,0,0,0,0,0,0,0,-1,1231,1527,0,0
14,-503,0,0,0,0,0,0,0,0,0,-1,1238,1527,0,0
21,-503,0,0,0,0,0,0,0,0,0,-1,1245,1527,0,0
28,-503,0,0,0,0,0,0,0,0,0,-1,1252,1527,0,0
35,-503,0,0,0,0,0,0,0,0,0,-1,1259,1527,0,0
42,-503,0,0,0,0,0,0,0,0,0,-1,1266,1527,0,0
49,-503,0,0,0,0,0,0,0,0,0,-1,1273,1527,0,0
56,-503,0,0,0,0,0,0,0,0,0,-1,1280,1527,0,0
63,-503,0,0,0,0,0,0,0,0,0,-1,1287,1527,0,0
70,-503,0,0,0,0,0,0,0,0,0,-1,1294,1527,0,0
77,-503,0,0,0,0,0,0,0,0,0,-1,1301,1527,0,0
84,-503,0,0,0,0,0,0,0,0,0,-1,1308,1527,0,0
91,-503,0,0,0,0,0,0,0,0,0,-1,1315,1527,0,0
98,-503,0,0,0,0,0,0,0,0,0,-1,1322,1527,0,0
105,-503,0,0,0,0,0,0,0,0,0,-1,1329,1527,0,0
112,-503,0,0,0,0,0,0,0,0,0,-1,1336,1527,0,0
119,-503,0,0,0,0,0,0,0,0,0,-1,1343,1527,0,0
126,-503,0,0,0,0,0,0,0,0,0,-1,1350,1527,0,0
133,-503,0,0,0,0,0,0,0,0,0,-1,1357,1527,0,0
140,-503,0,0,0,0,0,0,0,0,0,-1,1364,1527,0,0
147,-503,0,0,0,0,0,0,0,0,0,-1,1371,1527,0,0
154,-503,0,0,0,0,0,0,0,0,0,-1,1378,1527,0,0
161,-503,0,0,0,0,0,0,0,0,0,-1,1385,1527,0,0
168,-503,0,0,0,0,0,0,0,0,0,-1,1392,1527,0,0
175,-503,0,0,0,0,0,0,0,0,0,-1,1399,1527,0,0
182,-503,0,0,0,0,0,0,0,0,0,-1,1406,1527,0,0
189,-503,0,0,0,0,0,0,0,0,0,-1,1413,1527,0,0
196,-503,0,0,0,0,0,0,0,0,0,-1,1420,1527,0,0
203,-503,0,0,0,0,0,0,0,0,0,-1,1427,1527,0,0
210,-503,0,0,0,0,0,0,0,0,0,-1,1434,1527,0,0
217,-503,0,0,0,0,0,0,0,0,0,-1,1441,1527,0,0
224,-503,0,0,0,0,0,0,0,0,0,-1,1448,1527,0,0
231,-503,0,0,0,0,0,0,0,0,0,-1,1455,1527,0,0
238,-503,0,0,0,0,0,0,0,0,0,-1,1462,1527,0,0
245,-503,0,0,0,0,0,0,0,0,0,-1,1469,1527,0,0
252,-503,0,0,0,0,0,0,0,0,0,-1,1476,1527,0,0
259,-503,0,0,0,0,0,0,0,0,0,-1,1483,1527,0,0
266,-503,0,0,0,0,0,0,0,0,0,-1,1490,1527,0,0
273,-503,0,0,0,0,0,0,0,0,0,-1,1497,1527,0,0
280,-503,0,0,0,0,0,0,0,0,0,-1,1504,1527,0,0
287,-503,0,0,0,0,0,0,0,0,0,-1,1511,1527,0,0
294,-503,0,0,0,0,0,0,0,0,0,-1,1518,1527,0,0
301,-503,0,0,0,0,0,0,0,0,0,-1,1525,1527,0,0
308,-503,0,0,0,0,0,0,0,0,0,-1,1532,1527,0,0
315,-503,0,0,0,0,0,0,0,0,0,-1,1539,1527,0,0
322,-503,0,0,0,0,0,0,0,0,0,-1,1546,1527,0,0
329,-503,0,0,0,0,0,0,0,0,0,-1,1553,1527,0,0
336,-503,0,0,0,0,0,0,0,0,0,-1,1560,1527,0,0
343,-503,0,0,0,0,0,0,0,0,0,-1,1567,1527,0,0
350,-503,0,0,0,0,0,0,0,0,0,-1,1574,1527,0,0
357,-503,0,0,0,0,0,0,0,0,0,-1,1581,1527,0,0
364,-503,0,0,0,0,0,0,0,0,0,-1,1588,1527,0,0
371,-503,0,0,0,0,0,0,0,0,0,-1,1595,1527,0,0
378,-503,0,0,0,0,0,0,0,0,0,-1,1602,1527,0,0
385,-503,0,0,0,0,0,0,0,0,0,-1,1609,1527,0,0
392,-503,0,0,0,0,0,0,0,0,0,-1,1616,1527,0,0
399,-503,0,0,0,0,0,0,0,0,0,-1,1623,1527,0,0
406,-503,0,0,0,0,0,0,0,0,0,-1,1630,1527,0,0
413,-503,0,0,0,0,0,0,0,0,0,-1,1637,1527,0,0
420,-503,0,0,0,0,0,0,0,0,0,-1,1644,1527,0,0
427,-503,10.5968,4.9856,0,0,0,0,0,0,0,-1,1651,1527,10.5969,-4.98563
434,-503,11.4329,3.97217,0,0,0,0,0,0,0,-1,1658,1527,11.4328,-3.97222
441,-503,12.0957,2.96509,0,0,0,0,0,0,0,-1,1665,1527,12.0957,-2.96512
448,-503,12.3259,2.53894,0,0,0,0,0,0,0,-1,1672,1527,12.326,-2.53895
455,-503,12.1669,2.18762,0,0,0,0,0,0,0,-1,1679,1527,12.1668,-2.18767
462,-503,11.59,2.60791,0,0,0,0,0,0,0,-1,1686,1527,11.5899,-2.60794
469,-503,11.1625,1.61853,0,0,0,0,0,0,0,-1,1693,1527,11.1625,-1.61856
476,-503,9.07703,5.81042,0,0,0,0,0,0,0,-1,1700,1527,9.07699,-5.81047
483,-503,9.74414,6.92432,0,0,0,0,0,0,0,-1,1707,1527,9.74417,-6.9243
490,-503,10.5033,10.1071,0,0,0,0,0,0,0,-1,1714,1527,10.5032,-10.107
497,-503,15.0057,17.9476,0,0,0,0,0,0,0,-1,1721,1527,15.0058,-17.9476
504,-503,16.4764,18.4486,0,0,0,0,0,0,0,-1,1728,1527,16.4764,-18.4486
511,-503,16.8276,18.3271,0,0,0,0,0,0,0,-1,1735,1527,16.8276,-18.3272
518,-503,17.2533,18.2738,0,0,0,0,0,0,0,-1,1742,1527,17.2533,-18.2738
525,-503,20.5131,25.0313,0,0,0,0,0,0,0,-1,1749,1527,20.513,-25.0312
532,-503,21.2057,24.2925,0.00931702,0.00915417,-0.00748145,0.0167175,0.00175371,-0.779957,0.0106088,0.0460285,1756,1527,21.2057,-24.2924
539,-503,21.3619,23.6165,0.00720292,0.00697917,-0.0056097,0.0127019,0.00148023,-0.775428,0.00802016,0.0230768,1763,1527,21.3619,-23.6165
546,-503,21.4056,22.9886,0.00561533,0.00523238,-0.00414042,0.0095687,0.00127901,-0.762293,0.00599842,0.0126242,1770,1527,21.4056,-22.9887
553,-503,21.433,22.4631,0.00438596,0.00383802,-0.00302987,0.00715422,0.00106976,-0.740309,0.00445591,0.0146755,1777,1527,21.433,-22.4632
560,-503,21.3931,21.957,0.00350821,0.00272731,-0.00221773,0.0053696,0.000865923,-0.698262,0.00332885,0.0144485,1784,1527,21.3931,-21.957
567,-503,21.3727,21.408,0.00299403,0.00199565,-0.00178245,0.00434587,0.000643808,-0.648868,0.00270827,0.0125329,1791,1527,21.3727,-21.408
574,-503,21.3781,20.8685,0.00274345,0.00148294,-0.00155971,0.00379543,0.000430955,-0.593386,0.00239957,0.0130441,1798,1527,21.378,-20.8685
581,-503,21.34,20.3687,0.00268546,0.00108537,-0.00149951,0.003585,0.000185823,-0.540341,0.00233053,0.0140061,1805,1527,21.34,-20.3686
588,-503,21.3212,19.8494,0.00285508,0.000957155,-0.00165582,0.00381459,-2.35462e-06,-0.525193,0.00254384,0.0170365,1812,1527,21.3211,-19.8494
595,-503,21.3086,19.2837,0.00332308,0.000991075,-0.00193521,0.00441641,-0.000102258,-0.514263,0.00297895,0.0131942,1819,1527,21.3085,-19.2837
602,-503,21.3436,18.7006,0.00390589,0.00117259,-0.00232371,0.00523505,-0.000156563,-0.519575,0.00354337,0.0261829,1826,1527,21.3437,-18.7006
609,-503,21.3546,18.1394,0,0,0,0,0,0,0,-1,1833,1527,21.3546,-18.1394
616,-503,21.4478,17.5576,0,0,0,0,0,0,0,-1,1840,1527,21.4477,-17.5576
623,-503,18.7351,15.5999,0,0,0,0,0,0,0,-1,1847,1527,18.7351,-15.5999
630,-503,20.6721,13.9077,0,0,0,0,0,0,0,-1,1854,1527,20.6721,-13.9077
637,-503,14.5564,9.20496,0,0,0,0,0,0,0,-1,1861,1527,14.5564,-9.2049
644,-503,11.4802,7.57214,0,0,0,0,0,0,0,-1,1868,1527,11.4802,-7.57215
651,-503,11.5718,6.5448,0,0,0,0,0,0,0,-1,1875,1527,11.5718,-6.54476
658,-503,8.25635,3.10498,0,0,0,0,0,0,0,-1,1882,1527,8.2563,-3.10493
665,-503,0,0,0,0,0,0,0,0,0,-1,1889,1527,0,0
672,-503,0,0,0,0,0,0,0,0,0,-1,1896,1527,0,0
679,-503,0,0,0,0,0,0,0,0,0,-1,1903,1527,0,0
686,-503,0,0,0,0,0,0,0,0,0,-1,1910,1527,0,0
693,-503,0,0,0,0,0,0,0,0,0,-1,1917,1527,0,0
700,-503,0,0,0,0,0,0,0,0,0,-1,1924,1527,0,0
707,-503,0,0,0,0,0,0,0,0,0,-1,1931,1527,0,0
714,-503,0,0,0,0,0,0,0,0,0,-1,1938,1527,0,0
721,-503,0,0,0,0,0,0,0,0,0,-1,1945,1527,0,0
728,-503,0,0,0,0,0,0,0,0,0,-1,1952,1527,0,0
735,-503,0,0,0,0,0,0,0,0,0,-1,1959,1527,0,0
742,-503,0,0,0,0,0,0,0,0,0,-1,1966,1527,0,0
749,-503,0,0,0,0,0,0,0,0,0,-1,1973,1527,0,0
756,-503,0,0,0,0,0,0,0,0,0,-1,1980,1527,0,0
763,-503,0,0,0,0,0,0,0,0,0,-1,1987,1527,0,0
770,-503,0,0,0,0,0,0,0,0,0,-1,1994,1527,0,0
777,-503,0,0,0,0,0,0,0,0,0,-1,2001,1527,0,0
784,-503,0,0,0,0,0,0,0,0,0,-1,2008,1527,0,0
791,-503,0,0,0,0,0,0,0,0,0,-1,2015,1527,0,0
798,-503,0,0,0,0,0,0,0,0,0,-1,2022,1527,0,0
805,-503,0,0,0,0,0,0,0,0,0,-1,2029,1527,0,0
812,-503,0,0,0,0,0,0,0,0,0,-1,2036,1527,0,0
-700,-510,0,0,0,0,0,0,0,0,0,-1,524,1534,0,0
-693,-510,0,0,0,0,0,0,0,0,0,-1,531,1534,0,0
-686,-510,0,0,0,0,0,0,0,0,0,-1,538,1534,0,0
-679,-510,0,0,0,0,0,0,0,0,0,-1,545,1534,0,0
-672,-510,0,0,0,0,0,0,0,0,0,-1,552,1534,0,0
-665,-510,0,0,0,0,0,0,0,0,0,-1,559,1534,0,0
-658,-510,0,0,0,0,0,0,0,0,0,-1,566,1534,0,0
-651,-510,0,0,0,0,0,0,0,0,0,-1,573,1534,0,0
-644,-510,0,0,0,0,0,0,0,0,0,-1,580,1534,0,0
-637,-510,0,0,0,0,0,0,0,0,0,-1,587,1534,0,0
-630,-510,0,0,0,0,0,0,0,0,0,-1,594,1534,0,0
-623,-510,0,0,0,0,0,0,0,0,0,-1,601,1534,0,0
-616,-510,0,0,0,0,0,0,0,0,0,-1,608,1534,0,0
-609,-510,0,0,0,0,0,0,0,0,0,-1,615,1534,0,0
-602,-510,0,0,0,0,0,0,0,0,0,-1,622,1534,0,0
-595,-510,0,0,0,0,0,0,0,0,0,-1,629,1534,0,0
-588,-510,0,0,0,0,0,0,0,0,0,-1,636,1534,0,0
-581,-510,0,0,0,0,0,0,0,0,0,-1,643,1534,0,0
-574,-510,0,0,0,0,0,0,0,0,0,-1,650,1534,0,0
-567,-510,0,0,0,0,0,0,0,0,0,-1,657,1534,0,0
-560,-510,0,0,0,0,0,0,0,0,0,-1,664,1534,0,0
-553,-510,0,0,0,0,0,0,0,0,0,-1,671,1534,0,0
-546,-510,0,0,0,0,0,0,0,0,0,-1,678,1534,0,0
-539,-510,0,0,0,0,0,0,0,0,0,-1,685,1534,0,0
-532,-510,-3.95129,4.52014,0,0,0,0,0,0,0,-1,692,1534,-3.95131,-4.5202
-525,-510,-2.77411,0.316772,0,0,0,0,0,0,0,-1,699,1534,-2.77409,-0.3168
-518,-510,-2.86847,2.71423,0,0,0,0,0,0,0,-1,706,1534,-2.86849,-2.71424
-511,-510,-2.28571,4.48083,0,0,0,0,0,0,0,-1,713,1534,-2.28571,-4.48086
-504,-510,-4.86731,10.8224,0,0,0,0,0,0,0,-1,720,1534,-4.8673,-10.8224
-497,-510,-3.57507,15.3401,0,0,0,0,0,0,0,-1,727,1534,-3.57509,-15.3401
-490,-510,-4.68121,16.2902,0,0,0,0,0,0,0,-1,734,1534,-4.68123,-16.2901
-483,-510,-4.33191,16.4863,-0.0053118,0.00632338,-0.00308726,0.0070918,-0.00608022,-1.32685,0.00761234,0.0438952,741,1534,-4.33189,-16.4863
-476,-510,-4.18262,16.7411,-0.00461651,0.00405157,-0.00221049,0.00458273,-0.00514767,-1.33498,0.005621,0.0395927,748,1534,-4.18263,-16.7411
-469,-510,-4.41284,17.3348,-0.00387785,0.0023759,-0.00158913,0.00275654,-0.00425849,-1.3357,0.00408096,0.0160556,755,1534,-4.41286,-17.3348
-462,-510,-4.44373,17.9084,-0.00301331,0.00141697,-0.000962539,0.00161706,-0.0032134,-1.36584,0.00283918,0.0113533,762,1534,-4.44371,-17.9085
-455,-510,-4.46301,18.4984,-0.00211494,0.000895561,-0.000413815,0.000951407,-0.00217078,-1.43665,0.00184786,0.0145435,769,1534,-4.46303,-18.4985
-448,-510,-4.45551,19.0693,-0.00113404,0.000782875,0.000158084,0.000795824,-0.00114698,1.48906,0.00112777,0.0137827,776,1534,-4.45548,-19.0693
-441,-510,-4.47687,19.6084,-3.27039e-05,0.00109953,0.000855463,0.00155923,-0.000492406,1.0777,0.00123674,0.0141514,783,1534,-4.47687,-19.6084
-434,-510,-4.56024,20.1606,0.00113733,0.00183777,0.0017144,0.00323736,-0.000262257,0.886152,0.00225076,0.0153619,790,1534,-4.56025,-20.1607
-427,-510,-4.60217,20.6888,0.00240062,0.00264656,0.00273526,0.00526161,-0.000214433,0.807861,0.00358136,0.0229497,797,1534,-4.60216,-20.6888
-420,-510,-4.58301,21.2562,0.00386482,0.00404415,0.00390743,0.00786295,4.60222e-05,0.796869,0.00522669,0.0208563,804,1534,-4.583,-21.2563
-413,-510,-4.5791,21.8644,0.00547279,0.00576825,0.00532419,0.0109468,0.000294279,0.799268,0.00720175,0.0108966,811,1534,-4.57913,-21.8644
-406,-510,-4.61163,22.42,0.00720426,0.007851,0.00709024,0.0146252,0.000430016,0.808186,0.00961003,0.0109477,818,1534,-4.61164,-22.4201
-399,-510,-4.62305,22.969,0.00919742,0.0100661,0.00911275,0.0187548,0.00050866,0.809211,0.0123372,0.0143808,825,1534,-4.62302,-22.969
-392,-510,-4.44379,23.7531,0.0120753,0.01307,0.0113116,0.0238952,0.00125017,0.807367,0.0155302,0.0456925,832,1534,-4.44381,-23.7531
-385,-510,-4.1283,24.6316,0,0,0,0,0,0,0,-1,839,1534,-4.12829,-24.6316
-378,-510,-1.78308,13.8044,0,0,0,0,0,0,0,-1,846,1534,-1.78309,-13.8044
-371,-510,-1.74982,13.8027,0,0,0,0,0,0,0,-1,853,1534,-1.74981,-13.8028
-364,-510,-1.3479,13.7771,0,0,0,0,0,0,0,-1,860,1534,-1.34791,-13.7771
-357,-510,-0.254395,8.89575,0,0,0,0,0,0,0,-1,867,1534,-0.254397,-8.89569
-350,-510,0.471191,6.06458,0,0,0,0,0,0,0,-1,874,1534,0.47118,-6.06453
-343,-510,-6.96869,26.3074,0,0,0,0,0,0,0,-1,881,1534,-6.9687,-26.3074
-336,-510,-5.76508,28.7972,0,0,0,0,0,0,0,-1,888,1534,-5.76506,-28.7972
-329,-510,-4.87781,20.6893,0,0,0,0,0,0,0,-1,895,1534,-4.87782,-20.6894
-322,-510,-0.251526,11.973,0,0,0,0,0,0,0,-1,902,1534,-0.251497,-11.9731
-315,-510,-1.73047,10.9796,0,0,0,0,0,0,0,-1,909,1534,-1.73049,-10.9796
-308,-510,-2.05328,9.72034,0,0,0,0,0,0,0,-1,916,1534,-2.05327,-9.72036
-301,-510,-1.85437,11.5869,0,0,0,0,0,0,0,-1,923,1534,-1.85437,-11.5869
-294,-510,0,0,0,0,0,0,0,0,0,-1,930,1534,0,0
-287,-510,0,0,0,0,0,0,0,0,0,-1,937,1534,0,0
-280,-510,0,0,0,0,0,0,0,0,0,-1,944,1534,0,0
-273,-510,0,0,0,0,0,0,0,0,0,-1,951,1534,0,0
-266,-510,0,0,0,0,0,0,0,0,0,-1,958,1534,0,0
-259,-510,0,0,0,0,0,0,0,0,0,-1,965,1534,0,0
-252,-510,0,0,0,0,0,0,0,0,0,-1,972,1534,0,0
-245,-510,0,0,0,0,0,0,0,0,0,-1,979,1534,0,0
-238,-510,0,0,0,0,0,0,0,0,0,-1,986,1534,0,0
-231,-510,0,0,0,0,0,0,0,0,0,-1,993,1534,0,0
-224,-510,0,0,0,0,0,0,0,0,0,-1,1000,1534,0,0
-217,-510,0,0,0,0,0,0,0,0,0,-1,1007,1534,0,0
-210,-510,0,0,0,0,0,0,0,0,0,-1,1014,1534,0,0
-203,-510,0,0,0,0,0,0,0,0,0,-1,1021,1534,0,0
-196,-510,0,0,0,0,0,0,0,0,0,-1,1028,1534,0,0
-189,-510,0,0,0,0,0,0,0,0,0,-1,1035,1534,0,0
-182,-510,0,0,0,0,0,0,0,0,0,-1,1042,1534,0,0
-175,-510,0,0,0,0,0,0,0,0,0,-1,1049,1534,0,0
-168,-510,0,0,0,0,0,0,0,0,0,-1,1056,1534,0,0
-161,-510,0,0,0,0,0,0,0,0,0,-1,1063,1534,0,0
-154,-510,0,0,0,0,0,0,0,0,0,-1,1070,1534,0,0
-147,-510,0,0,0,0,0,0,0,0,0,-1,1077,1534,0,0
-140,-510,0,0,0,0,0,0,0,0,0,-1,1084,1534,0,0
-133,-510,0,0,0,0,0,0,0,0,0,-1,1091,1534,0,0
-126,-510,0,0,0,0,0,0,0,0,0,-1,1098,1534,0,0
-119,-510,0,0,0,0,0,0,0,0,0,-1,1105,1534,0,0
-112,-510,0,0,0,0,0,0,0,0,0,-1,1112,1534,0,0
-105,-510,0,0,0,0,0,0,0,0,0,-1,1119,1534,0,0
-98,-510,0,0,0,0,0,0,0,0,0,-1,1126,1534,0,0
-91,-510,0,0,0,0,0,0,0,0,0,-1,1133,1534,0,0
-84,-510,0,0,0,0,0,0,0,0,0,-1,1140,1534,0,0
-77,-510,0,0,0,0,0,0,0,0,0,-1,1147,1534,0,0
-70,-510,0,0,0,0,0,0,0,0,0,-1,1154,1534,0,0
-63,-510,0,0,0,0,0,0,0,0,0,-1,1161,1534,0,0
-56,-510,0,0,0,0,0,0,0,0,0,-1,1168,1534,0,0
-49,-510,0,0,0,0,0,0,0,0,0,-1,1175,1534,0,0
-42,-510,0,0,0,0,0,0,0,0,0,-1,1182,1534,0,0
-35,-510,0,0,0,0,0,0,0,0,0,-1,1189,1534,0,0
-28,-510,0,0,0,0,0,0,0,0,0,-1,1196,1534,0,0
-21,-510,0,0,0,0,0,0,0,0,0,-1,1203,1534,0,0
-14,-510,0,0,0,0,0,0,0,0,0,-1,1210,1534,0,0
-7,-510,0,0,0,0,0,0,0,0,0,-1,1217,1534,0,0
0,-510,0,0,0,0,0,0,0,0,0,-1,1224,1534,0,0
7,-510,0,0,0,0,0,0,0,0,0,-1,1231,1534,0,0
14,-510,0,0,0,0,0,0,0,0,0,-1,1238,1534,0,0
21,-510,0,0,0,0,0,0,0,0,0,-1,1245,1534,0,0
28,-510,0,0,0,0,0,0,0,0,0,-1,1252,1534,0,0
35,-510,0,0,0,0,0,0,0,0,0,-1,1259,1534,0,0
42,-510,0,0,0,0,0,0,0,0,0,-1,1266,1534,0,0
49,-510,0,0,0,0,0,0,0,0,0,-1,1273,1534,0,0
56,-510,0,0,0,0,0,0,0,0,0,-1,1280,1534,0,0
63,-510,0,0,0,0,0,0,0,0,0,-1,1287,1534,0,0
70,-510,0,0,0,0,0,0,0,0,0,-1,1294,1534,0,0
77,-510,0,0,0,0,0,0,0,0,0,-1,1301,1534,0,0
84,-510,0,0,0,0,0,0,0,0,0,-1,1308,1534,0,0
91,-510,0,0,0,0,0,0,0,0,0,-1,1315,1534,0,0
98,-510,0,0,0,0,0,0,0,0,0,-1,1322,1534,0,0
105,-510,0,0,0,0,0,0,0,0,0,-1,1329,1534,0,0
112,-510,0,0,0,0,0,0,0,0,0,-1,1336,1534,0,0
119,-510,0,0,0,0,0,0,0,0,0,-1,1343,1534,0,0
126,-510,0,0,0,0,0,0,0,0,0,-1,1350,1534,0,0
133,-510,0,0,0,0,0,0,0,0,0,-1,1357,1534,0,0
140,-510,0,0,0,0,0,0,0,0,0,-1,1364,1534,0,0
147,-510,0,0,0,0,0,0,0,0,0,-1,1371,1534,0,0
154,-510,0,0,0,0,0,0,0,0,0,-1,1378,1534,0,0
161,-510,0,0,0,0,0,0,0,0,0,-1,1385,1534,0,0
168,-510,0,0,0,0,0,0,0,0,0,-1,1392,1534,0,0
175,-510,0,0,0,0,0,0,0,0,0,-1,1399,1534,0,0
182,-510,0,0,0,0,0,0,0,0,0,-1,1406,1534,0,0
189,-510,0,0,0,0,0,0,0,0,0,-1,1413,1534,0,0
196,-510,0,0,0,0,0,0,0,0,0,-1,1420,1534,0,0
203,-510,0,0,0,0,0,0,0,0,0,-1,1427,1534,0,0
210,-510,0,0,0,0,0,0,0,0,0,-1,1434,1534,0,0
217,-510,0,0,0,0,0,0,0,0,0,-1,1441,1534,0,0
224,-510,0,0,0,0,0,0,0,0,0,-1,1448,1534,0,0
231,-510,0,0,0,0,0,0,0,0,0,-1,1455,1534,0,0
238,-510,0,0,0,0,0,0,0,0,0,-1,1462,1534,0,0
245,-510,0,0,0,0,0,0,0,0,0,-1,1469,1534,0,0
252,-510,0,0,0,0,0,0,0,0,0,-1,1476,1534,0,0
259,-510,0,0,0,0,0,0,0,0,0,-1,1483,1534,0,0
266,-510,0,0,0,0,0,0,0,0,0,-1,1490,1534,0,0
273,-510,0,0,0,0,0,0,0,0,0,-1,1497,1534,0,0
280,-510,0,0,0,0,0,0,0,0,0,-1,1504,1534,0,0
287,-510,0,0,0,0,0,0,0,0,0,-1,1511,1534,0,0
294,-510,0,0,0,0,0,0,0,0,0,-1,1518,1534,0,0
301,-510,0,0,0,0,0,0,0,0,0,-1,1525,1534,0,0
308,-510,0,0,0,0,0,0,0,0,0,-1,1532,1534,0,0
315,-510,0,0,0,0,0,0,0,0,0,-1,1539,1534,0,0
322,-510,0,0,0,0,0,0,0,0,0,-1,1546,1534,0,0
329,-510,0,0,0,0,0,0,0,0,0,-1,1553,1534,0,0
336,-510,0,0,0,0,0,0,0,0,0,-1,1560,1534,0,0
343,-510,0,0,0,0,0,0,0,0,0,-1,1567,1534,0,0
350,-510,0,0,0,0,0,0,0,0,0,-1,1574,1534,0,0
357,-510,0,0,0,0,0,0,0,0,0,-1,1581,1534,0,0
364,-510,0,0,0,0,0,0,0,0,0,-1,1588,1534,0,0
371,-510,0,0,0,0,0,0,0,0,0,-1,1595,1534,0,0
378,-510,0,0,0,0,0,0,0,0,0,-1,1602,1534,0,0
385,-510,0,0,0,0,0,0,0,0,0,-1,1609,1534,0,0
392,-510,0,0,0,0,0,0,0,0,0,-1,1616,1534,0,0
399,-510,0,0,0,0,0,0,0,0,0,-1,1623,1534,0,0
406,-510,0,0,0,0,0,0,0,0,0,-1,1630,1534,0,0
413,-510,0,0,0,0,0,0,0,0,0,-1,1637,1534,0,0
420,-510,14.1888,6.71936,0,0,0,0,0,0,0,-1,1644,1534,14.1889,-6.71939
427,-510,10.2134,5.59485,0,0,0,0,0,0,0,-1,1651,1534,10.2134,-5.59485
434,-510,11.8219,4.07898,0,0,0,0,0,0,0,-1,1658,1534,11.8219,-4.07895
441,-510,12.6812,3.02991,0,0,0,0,0,0,0,-1,1665,1534,12.6811,-3.0299
448,-510,13.2379,2.2804,0,0,0,0,0,0,0,-1,1672,1534,13.2379,-2.28037
455,-510,9.76892,2.20642,0,0,0,0,0,0,0,-1,1679,1534,9.76894,-2.20647
462,-510,9.84692,2.49182,0,0,0,0,0,0,0,-1,1686,1534,9.84695,-2.49185
469,-510,16.6072,7.26941,0,0,0,0,0,0,0,-1,1693,1534,16.6072,-7.26945
476,-510,15.9199,7.8645,0,0,0,0,0,0,0,-1,1700,1534,15.9199,-7.86455
483,-510,13.0833,8.10938,0,0,0,0,0,0,0,-1,1707,1534,13.0833,-8.10932
490,-510,13.0841,15.3286,0,0,0,0,0,0,0,-1,1714,1534,13.0841,-15.3286
497,-510,15.5652,18.823,0,0,0,0,0,0,0,-1,1721,1534,15.5652,-18.823
504,-510,15.998,18.7478,0,0,0,0,0,0,0,-1,1728,1534,15.998,-18.7478
511,-510,15.9443,18.0476,0,0,0,0,0,0,0,-1,1735,1534,15.9443,-18.0476
518,-510,20.5758,25.4731,0,0,0,0,0,0,0,-1,1742,1534,20.5758,-25.4731
525,-510,20.5894,24.8673,0,0,0,0,0,0,0,-1,1749,1534,20.5893,-24.8673
532,-510,20.8743,24.1315,0.0076954,0.00770458,-0.0062052,0.0139052,0.00149479,-0.785768,0.00881421,0.0250843,1756,1534,20.8742,-24.1315
539,-510,20.9419,23.5123,0.00600327,0.00584426,-0.00468077,0.0106052,0.00124232,-0.776906,0.00669456,0.0136834,1763,1534,20.9419,-23.5124
546,-510,20.9141,23.0293,0.00471055,0.00429325,-0.00346072,0.00796891,0.00103489,-0.755289,0.00500344,0.0126941,1770,1534,20.914,-23.0293
553,-510,20.8958,22.4954,0.00368331,0.00302031,-0.00249785,0.00587156,0.000832056,-0.719426,0.00366861,0.0141301,1777,1534,20.8957,-22.4954
560,-510,20.8491,21.9449,0.00299408,0.00200061,-0.00179673,0.00436148,0.00063321,-0.650534,0.00272125,0.0142207,1784,1534,20.8491,-21.9449
567,-510,20.8237,21.4044,0.00266893,0.00137494,-0.00147238,0.00363019,0.000413676,-0.578387,0.0022947,0.0136695,1791,1534,20.8238,-21.4044
574,-510,20.8362,20.8854,0.00260017,0.000961207,-0.00135068,0.00336052,0.000200853,-0.512726,0.00217649,0.0145021,1798,1534,20.8362,-20.8854
581,-510,20.8102,20.4136,0.0027627,0.000699098,-0.00143146,0.00349546,-3.36656e-05,-0.473122,0.00234161,0.0124104,1805,1534,20.8101,-20.4136
588,-510,20.8083,19.8845,0.0032115,0.000807524,-0.00180868,0.00418117,-0.000162144,-0.492124,0.00284304,0.013455,1812,1534,20.8084,-19.8845
595,-510,20.9397,19.1985,0.00390378,0.00114456,-0.00230615,0.00521148,-0.000163147,-0.515839,0.00352996,0.0230128,1819,1534,20.9396,-19.1985
602,-510,20.9856,18.5574,0,0,0,0,0,0,0,-1,1826,1534,20.9856,-18.5573
609,-510,20.1014,17.7726,0,0,0,0,0,0,0,-1,1833,1534,20.1014,-17.7726
616,-510,18.7024,16.2474,0,0,0,0,0,0,0,-1,1840,1534,18.7024,-16.2474
623,-510,19.6013,14.6211,0,0,0,0,0,0,0,-1,1847,1534,19.6013,-14.6211
630,-510,13.7461,9.30334,0,0,0,0,0,0,0,-1,1854,1534,13.7461,-9.30335
637,-510,11.0155,7.38464,0,0,0,0,0,0,0,-1,1861,1534,11.0155,-7.38463
644,-510,11.5809,7.17126,0,0,0,0,0,0,0,-1,1868,1534,11.5809,-7.17123
651,-510,8.70471,3.5061,0,0,0,0,0,0,0,-1,1875,1534,8.70475,-3.50611
658,-510,0,0,0,0,0,0,0,0,0,-1,1882,1534,0,0
665,-510,0,0,0,0,0,0,0,0,0,-1,1889,1534,0,0
672,-510,0,0,0,0,0,0,0,0,0,-1,1896,1534,0,0
679,-510,0,0,0,0,0,0,0,0,0,-1,1903,1534,0,0
686,-510,0,0,0,0,0,0,0,0,0,-1,1910,1534,0,0
693,-510,0,0,0,0,0,0,0,0,0,-1,1917,1534,0,0
700,-510,0,0,0,0,0,0,0,0,0,-1,1924,1534,0,0
707,-510,0,0,0,0,0,0,0,0,0,-1,1931,1534,0,0
714,-510,0,0,0,0,0,0,0,0,0,-1,1938,1534,0,0
721,-510,0,0,0,0,0,0,0,0,0,-1,1945,1534,0,0
728,-510,0,0,0,0,0,0,0,0,0,-1,1952,1534,0,0
735,-510,0,0,0,0,0,0,0,0,0,-1,1959,1534,0,0
742,-510,0,0,0,0,0,0,0,0,0,-1,1966,1534,0,0
749,-510,0,0,0,0,0,0,0,0,0,-1,1973,1534,0,0
756,-510,0,0,0,0,0,0,0,0,0,-1,1980,1534,0,0
763,-510,0,0,0,0,0,0,0,0,0,-1,1987,1534,0,0
770,-510,0,0,0,0,0,0,0,0,0,-1,1994,1534,0,0
777,-510,0,0,0,0,0,0,0,0,0,-1,2001,1534,0,0
784,-510,0,0,0,0,0,0,0,0,0,-1,2008,1534,0,0
791,-510,0,0,0,0,0,0,0,0,0,-1,2015,1534,0,0
798,-510,0,0,0,0,0,0,0,0,0,-1,2022,1534,0,0
805,-510,0,0,0,0,0,0,0,0,0,-1,2029,1534,0,0
812,-510,0,0,0,0,0,0,0,0,0,-1,2036,1534,0,0
-700,-517,0,0,0,0,0,0,0,0,0,-1,524,1541,0,0
-693,-517,0,0,0,0,0,0,0,0,0,-1,531,1541,0,0
-686,-517,0,0,0,0,0,0,0,0,0,-1,538,1541,0,0
-679,-517,0,0,0,0,0,0,0,0,0,-1,545,1541,0,0
-672,-517,0,0,0,0,0,0,0,0,0,-1,552,1541,0,0
-665,-517,0,0,0,0,0,0,0,0,0,-1,559,1541,0,0
-658,-517,0,0,0,0,0,0,0,0,0,-1,566,1541,0,0
-651,-517,0,0,0,0,0,0,0,0,0,-1,573,1541,0,0
-644,-517,0,0,0,0,0,0,0,0,0,-1,580,1541,0,0
-637,-517,0,0,0,0,0,0,0,0,0,-1,587,1541,0,0
-630,-517,0,0,0,0,0,0,0,0,0,-1,594,1541,0,0
-623,-517,0,0,0,0,0,0,0,0,0,-1,601,1541,0,0
-616,-517,0,0,0,0,0,0,0,0,0,-1,608,1541,0,0
-609,-517,0,0,0,0,0,0,0,0,0,-1,615,1541,0,0
-602,-517,0,0,0,0,0,0,0,0,0,-1,622,1541,0,0
-595,-517,0,0,0,0,0,0,0,0,0,-1,629,1541,0,0
-588,-517,0,0,0,0,0,0,0,0,0,-1,636,1541,0,0
-581,-517,0,0,0,0,0,0,0,0,0,-1,643,1541,0,0
-574,-517,0,0,0,0,0,0,0,0,0,-1,650,1541,0,0
-567,-517,0,0,0,0,0,0,0,0,0,-1,657,1541,0,0
-560,-517,0,0,0,0,0,0,0,0,0,-1,664,1541,0,0
-553,-517,0,0,0,0,0,0,0,0,0,-1,671,1541,0,0
-546,-517,0,0,0,0,0,0,0,0,0,-1,678,1541,0,0
-539,-517,0,0,0,0,0,0,0,0,0,-1,685,1541,0,0
-532,-517,0,0,0,0,0,0,0,0,0,-1,692,1541,0,0
-525,-517,-3.62903,4.3606,0,0,0,0,0,0,0,-1,699,1541,-3.62904,-4.36056
-518,-517,-1.664,2.27209,0,0,0,0,0,0,0,-1,706,1541,-1.66399,-2.27207
-511,-517,-0.999146,5.52063,0,0,0,0,0,0,0,-1,713,1541,-0.999126,-5.52059
-504,-517,-1.06946,8.67432,0,0,0,0,0,0,0,-1,720,1541,-1.06947,-8.6743
-497,-517,-2.65582,14.3612,0,0,0,0,0,0,0,-1,727,1541,-2.6558,-14.3611
-490,-517,-3.22736,15.5328,0,0,0,0,0,0,0,-1,734,1541,-3.22737,-15.5329
-483,-517,-3.35583,16.0696,-0.00712288,0.0090403,-0.00296688,0.00956768,-0.00765027,-1.39488,0.00996132,0.0452807,741,1541,-3.35582,-16.0696
-476,-517,-3.55798,16.726,-0.00617095,0.00585823,-0.00203224,0.00619228,-0.00650501,-1.40788,0.00733153,0.045458,748,1541,-3.55799,-16.726
-469,-517,-3.7865,17.3766,-0.00527684,0.00349865,-0.00149385,0.00374598,-0.00552416,-1.40672,0.00538484,0.0210304,755,1541,-3.78649,-17.3766
-462,-517,-3.88702,17.9249,-0.0042897,0.00206064,-0.000981358,0.00220884,-0.0044379,-1.42092,0.00390877,0.0200227,762,1541,-3.887,-17.9249
-455,-517,-3.88794,18.5215,-0.00331079,0.0011901,-0.000569987,0.00126116,-0.00338185,-1.44677,0.00277229,0.0155536,769,1541,-3.88797,-18.5215
-448,-517,-3.89911,19.1017,-0.00230135,0.000749745,-0.000172839,0.000759505,-0.00231111,-1.51439,0.00184672,0.0151012,776,1541,-3.89912,-19.1016
-441,-517,-3.96759,19.6509,-0.00121163,0.000789092,0.000345555,0.000847093,-0.00126963,1.4045,0.00123018,0.0123521,783,1541,-3.96756,-19.6509
-434,-517,-3.97968,20.2111,-7.42166e-05,0.00126992,0.0010216,0.00182069,-0.000624994,1.07634,0.00146719,0.0147432,790,1541,-3.97966,-20.211
-427,-517,-4.00299,20.7477,0.00112181,0.00174905,0.00190394,0.00336503,-0.000494173,0.867026,0.00242492,0.0146086,797,1541,-4.00297,-20.7477
-420,-517,-4.04773,21.3328,0.00249578,0.00298788,0.00281375,0.00556632,-8.2657e-05,0.82901,0.00373874,0.0202196,804,1541,-4.04772,-21.3328
-413,-517,-4.03699,21.8977,0.00395013,0.00431589,0.0039624,0.00809962,0.000166399,0.808459,0.00534515,0.0105592,811,1541,-4.037,-21.8977
-406,-517,-4.05579,22.4541,0.00548905,0.00604889,0.00536728,0.0111435,0.000394399,0.811451,0.00730111,0.0106821,818,1541,-4.05576,-22.4542
-399,-517,-4.06378,23.0052,0.00714474,0.00792665,0.00694509,0.0144918,0.00057961,0.813515,0.00947389,0.0106181,825,1541,-4.06378,-23.0053
-392,-517,-4.04742,23.5778,0.00947089,0.0103701,0.00865359,0.0185858,0.00125526,0.811354,0.011994,0.0162733,832,1541,-4.04745,-23.5778
-385,-517,-3.92535,24.4529,0.0116326,0.0130837,0.0104856,0.0228688,0.00184749,0.819942,0.0146688,0.0399613,839,1541,-3.92537,-24.4529
-378,-517,-3.7511,25.4713,0,0,0,0,0,0,0,-1,846,1541,-3.75108,-25.4713
-371,-517,-1.37585,13.2646,0,0,0,0,0,0,0,-1,853,1541,-1.37586,-13.2647
-364,-517,-1.26245,12.6289,0,0,0,0,0,0,0,-1,860,1541,-1.26243,-12.6289
-357,-517,-1.23889,12.979,0,0,0,0,0,0,0,-1,867,1541,-1.23891,-12.979
-350,-517,-5.40198,23.8954,0,0,0,0,0,0,0,-1,874,1541,-5.40196,-23.8954
-343,-517,-5.68799,28.3315,0,0,0,0,0,0,0,-1,881,1541,-5.68797,-28.3315
-336,-517,-4.8252,28.7935,0,0,0,0,0,0,0,-1,888,1541,-4.82519,-28.7934
-329,-517,-3.9624,29.2552,0,0,0,0,0,0,0,-1,895,1541,-3.96241,-29.2553
-322,-517,-4.21246,19.5819,0,0,0,0,0,0,0,-1,902,1541,-4.21244,-19.5819
-315,-517,-0.987976,7.29749,0,0,0,0,0,0,0,-1,909,1541,-0.987993,-7.29743
-308,-517,3.27911,17.621,0,0,0,0,0,0,0,-1,916,1541,3.27913,-17.621
-301,-517,-1.69141,8.87488,0,0,0,0,0,0,0,-1,923,1541,-1.69141,-8.87485
-294,-517,-1.72583,9.92566,0,0,0,0,0,0,0,-1,930,1541,-1.72584,-9.92571
-287,-517,-3.09045,12.1472,0,0,0,0,0,0,0,-1,937,1541,-3.09043,-12.1472
-280,-517,0,0,0,0,0,0,0,0,0,-1,944,1541,0,0
-273,-517,0,0,0,0,0,0,0,0,0,-1,951,1541,0,0
-266,-517,0,0,0,0,0,0,0,0,0,-1,958,1541,0,0
-259,-517,0,0,0,0,0,0,0,0,0,-1,965,1541,0,0
-252,-517,0,0,0,0,0,0,0,0,0,-1,972,1541,0,0
-245,-517,0,0,0,0,0,0,0,0,0,-1,979,1541,0,0
-238,-517,0,0,0,0,0,0,0,0,0,-1,986,1541,0,0
-231,-517,0,0,0,0,0,0,0,0,0,-1,993,1541,0,0
-224,-517,0,0,0,0,0,0,0,0,0,-1,1000,1541,0,0
-217,-517,0,0,0,0,0,0,0,0,0,-1,1007,1541,0,0
-210,-517,0,0,0,0,0,0,0,0,0,-1,1014,1541,0,0
-203,-517,0,0,0,0,0,0,0,0,0,-1,1021,1541,0,0
-196,-517,0,0,0,0,0,0,0,0,0,-1,1028,1541,0,0
-189,-517,0,0,0,0,0,0,0,0,0,-1,1035,1541,0,0
-182,-517,0,0,0,0,0,0,0,0,0,-1,1042,1541,0,0
-175,-517,0,0,0,0,0,0,0,0,0,-1,1049,1541,0,0
-168,-517,0,0,0,0,0,0,0,0,0,-1,1056,1541,0,0
-161,-517,0,0,0,0,0,0,0,0,0,-1,1063,1541,0,0
-154,-517,0,0,0,0,0,0,0,0,0,-1,1070,1541,0,0
-147,-517,0,0,0,0,0,0,0,0,0,-1,1077,1541,0,0
-140,-517,0,0,0,0,0,0,0,0,0,-1,1084,1541,0,0
-133,-517,0,0,0,0,0,0,0,0,0,-1,1091,1541,0,0
-126,-517,0,0,0,0,0,0,0,0,0,-1,1098,1541,0,0
-119,-517,0,0,0,0,0,0,0,0,0,-1,1105,1541,0,0
-112,-517,0,0,0,0,0,0,0,0,0,-1,1112,1541,0,0
-105,-517,0,0,0,0,0,0,0,0,0,-1,1119,1541,0,0
-98,-517,0,0,0,0,0,0,0,0,0,-1,1126,1541,0,0
-91,-517,0,0,0,0,0,0,0,0,0,-1,1133,1541,0,0
-84,-517,0,0,0,0,0,0,0,0,0,-1,1140,1541,0,0
-77,-517,0,0,0,0,0,0,0,0,0,-1,1147,1541,0,0
-70,-517,0,0,0,0,0,0,0,0,0,-1,1154,1541,0,0
-63,-517,0,0,0,0,0,0,0,0,0,-1,1161,1541,0,0
-56,-517,0,0,0,0,0,0,0,0,0,-1,1168,1541,0,0
-49,-517,0,0,0,0,0,0,0,0,0,-1,1175,1541,0,0
-42,-517,0,0,0,0,0,0,0,0,0,-1,1182,1541,0,0
-35,-517,0,0,0,0,0,0,0,0,0,-1,1189,1541,0,0
-28,-517,0,0,0,0,0,0,0,0,0,-1,1196,1541,0,0
-21,-517,0,0,0,0,0,0,0,0,0,-1,1203,1541,0,0
-14,-517,0,0,0,0,0,0,0,0,0,-1,1210,1541,0,0
-7,-517,0,0,0,0,0,0,0,0,0,-1,1217,1541,0,0
0,-517,0,0,0,0,0,0,0,0,0,-1,1224,1541,0,0
7,-517,0,0,0,0,0,0,0,0,0,-1,1231,1541,0,0
14,-517,0,0,0,0,0,0,0,0,0,-1,1238,1541,0,0
21,-517,0,0,0,0,0,0,0,0,0,-1,1245,1541,0,0
28,-517,0,0,0,0,0,0,0,0,0,-1,1252,1541,0,0
35,-517,0,0,0,0,0,0,0,0,0,-1,1259,1541,0,0
42,-517,0,0,0,0,0,0,0,0,0,-1,1266,1541,0,0
49,-517,0,0,0,0,0,0,0,0,0,-1,1273,1541,0,0
56,-517,0,0,0,0,0,0,0,0,0,-1,1280,1541,0,0
63,-517,0,0,0,0,0,0,0,0,0,-1,1287,1541,0,0
70,-517,0,0,0,0,0,0,0,0,0,-1,1294,1541,0,0
77,-517,0,0,0,0,0,0,0,0,0,-1,1301,1541,0,0
84,-517,0,0,0,0,0,0,0,0,0,-1,1308,1541,0,0
91,-517,0,0,0,0,0,0,0,0,0,-1,1315,1541,0,0
98,-517,0,0,0,0,0,0,0,0,0,-1,1322,1541,0,0
105,-517,0,0,0,0,0,0,0,0,0,-1,1329,1541,0,0
112,-517,0,0,0,0,0,0,0,0,0,-1,1336,1541,0,0
119,-517,0,0,0,0,0,0,0,0,0,-1,1343,1541,0,0
126,-517,0,0,0,0,0,0,0,0,0,-1,1350,1541,0,0
133,-517,0,0,0,0,0,0,0,0,0,-1,1357,1541,0,0
140,-517,0,0,0,0,0,0,0,0,0,-1,1364,1541,0,0
147,-517,0,0,0,0,0,0,0,0,0,-1,1371,1541,0,0
154,-517,0,0,0,0,0,0,0,0,0,-1,1378,1541,0,0
161,-517,0,0,0,0,0,0,0,0,0,-1,1385,1541,0,0
168,-517,0,0,0,0,0,0,0,0,0,-1,1392,1541,0,0
175,-517,0,0,0,0,0,0,0,0,0,-1,1399,1541,0,0
182,-517,0,0,0,0,0,0,0,0,0,-1,1406,1541,0,0
189,-517,0,0,0,0,0,0,0,0,0,-1,1413,1541,0,0
196,-517,0,0,0,0,0,0,0,0,0,-1,1420,1541,0,0
203,-517,0,0,0,0,0,0,0,0,0,-1,1427,1541,0,0
210,-517,0,0,0,0,0,0,0,0,0,-1,1434,1541,0,0
217,-517,0,0,0,0,0,0,0,0,0,-1,1441,1541,0,0
224,-517,0,0,0,0,0,0,0,0,0,-1,1448,1541,0,0
231,-517,0,0,0,0,0,0,0,0,0,-1,1455,1541,0,0
238,-517,0,0,0,0,0,0,0,0,0,-1,1462,1541,0,0
245,-517,0,0,0,0,0,0,0,0,0,-1,1469,1541,0,0
252,-517,0,0,0,0,0,0,0,0,0,-1,1476,1541,0,0
259,-517,0,0,0,0,0,0,0,0,0,-1,1483,1541,0,0
266,-517,0,0,0,0,0,0,0,0,0,-1,1490,1541,0,0
273,-517,0,0,0,0,0,0,0,0,0,-1,1497,1541,0,0
280,-517,0,0,0,0,0,0,0,0,0,-1,1504,1541,0,0
287,-517,0,0,0,0,0,0,0,0,0,-1,1511,1541,0,0
294,-517,0,0,0,0,0,0,0,0,0,-1,1518,1541,0,0
301,-517,0,0,0,0,0,0,0,0,0,-1,1525,1541,0,0
308,-517,0,0,0,0,0,0,0,0,0,-1,1532,1541,0,0
315,-517,0,0,0,0,0,0,0,0,0,-1,1539,1541,0,0
322,-517,0,0,0,0,0,0,0,0,0,-1,1546,1541,0,0
329,-517,0,0,0,0,0,0,0,0,0,-1,1553,1541,0,0
336,-517,0,0,0,0,0,0,0,0,0,-1,1560,1541,0,0
343,-517,0,0,0,0,0,0,0,0,0,-1,1567,1541,0,0
350,-517,0,0,0,0,0,0,0,0,0,-1,1574,1541,0,0
357,-517,0,0,0,0,0,0,0,0,0,-1,1581,1541,0,0
364,-517,0,0,0,0,0,0,0,0,0,-1,1588,1541,0,0
371,-517,0,0,0,0,0,0,0,0,0,-1,1595,1541,0,0
378,-517,0,0,0,0,0,0,0,0,0,-1,1602,1541,0,0
385,-517,0,0,0,0,0,0,0,0,0,-1,1609,1541,0,0
392,-517,0,0,0,0,0,0,0,0,0,-1,1616,1541,0,0
399,-517,0,0,0,0,0,0,0,0,0,-1,1623,1541,0,0
406,-517,13.1395,7.01978,0,0,0,0,0,0,0,-1,1630,1541,13.1396,-7.01981
413,-517,12.8859,6.31592,0,0,0,0,0,0,0,-1,1637,1541,12.8858,-6.31588
420,-517,12.4789,6.20337,0,0,0,0,0,0,0,-1,1644,1541,12.4789,-6.20333
427,-517,11.647,4.66516,0,0,0,0,0,0,0,-1,1651,1541,11.647,-4.66519
434,-517,12.3719,3.92773,0,0,0,0,0,0,0,-1,1658,1541,12.3719,-3.92776
441,-517,13.146,3.14124,0,0,0,0,0,0,0,-1,1665,1541,13.146,-3.14121
448,-517,13.8861,2.36682,0,0,0,0,0,0,0,-1,1672,1541,13.8861,-2.36684
455,-517,13.6012,4.06335,0,0,0,0,0,0,0,-1,1679,1541,13.6012,-4.06335
462,-517,14.8956,7.0752,0,0,0,0,0,0,0,-1,1686,1541,14.8956,-7.07525
469,-517,13.6292,6.87744,0,0,0,0,0,0,0,-1,1693,1541,13.6292,-6.87739
476,-517,17.1632,14.1487,0,0,0,0,0,0,0,-1,1700,1541,17.1632,-14.1487
483,-517,16.5157,15.0776,0,0,0,0,0,0,0,-1,1707,1541,16.5157,-15.0777
490,-517,15.5439,18.0258,0,0,0,0,0,0,0,-1,1714,1541,15.5439,-18.0258
497,-517,16.0292,18.7786,0,0,0,0,0,0,0,-1,1721,1541,16.0291,-18.7786
504,-517,17.3815,22.3873,0,0,0,0,0,0,0,-1,1728,1541,17.3814,-22.3873
511,-517,16.9674,21.8491,0,0,0,0,0,0,0,-1,1735,1541,16.9674,-21.8491
518,-517,20.3887,25.1307,0,0,0,0,0,0,0,-1,1742,1541,20.3887,-25.1307
525,-517,20.2455,24.6521,0.00820982,0.0081866,-0.00694723,0.0151454,0.00125097,-0.784563,0.00970688,0.0235859,1749,1541,20.2455,-24.652
532,-517,20.4198,24.0234,0.00637232,0.00636754,-0.00533619,0.0117061,0.00103374,-0.785174,0.00748334,0.0125943,1756,1541,20.4199,-24.0234
539,-517,20.4352,23.5112,0.00497068,0.00479355,-0.00396267,0.00884578,0.000918458,-0.774225,0.00561612,0.0130315,1763,1541,20.4352,-23.5112
546,-517,20.4166,23.0442,0.00384998,0.00341356,-0.00280543,0.00644567,0.000817869,-0.746586,0.0040521,0.0135162,1770,1541,20.4166,-23.0442
553,-517,20.3823,22.5094,0.00293071,0.00223968,-0.00183057,0.00444809,0.000722297,-0.692123,0.00275636,0.0179232,1777,1541,20.3824,-22.5094
560,-517,20.3496,21.9901,0.00234886,0.00128796,-0.00110025,0.00303985,0.000596967,-0.560777,0.00185979,0.0175533,1784,1541,20.3496,-21.9901
567,-517,20.3319,21.472,0.00213599,0.000714267,-0.00074824,0.00245721,0.000393049,-0.405505,0.00152411,0.0143814,1791,1541,20.3319,-21.472
574,-517,20.3158,20.9197,0.0021917,0.000335935,-0.000613168,0.002376,0.00015164,-0.291973,0.00153595,0.0155168,1798,1541,20.3158,-20.9197
581,-517,20.2885,20.3965,0.00254882,0.000133942,-0.000749708,0.00276264,-7.9876e-05,-0.277825,0.00186895,0.0163815,1805,1541,20.2884,-20.3965
588,-517,20.2891,19.8651,0.00328764,0.000395381,-0.00129,0.0037794,-9.6375e-05,-0.3642,0.00255233,0.0173256,1812,1541,20.2891,-19.8651
595,-517,20.3046,19.2833,0,0,0,0,0,0,0,-1,1819,1541,20.3046,-19.2833
602,-517,15.8027,13.5498,0,0,0,0,0,0,0,-1,1826,1541,15.8027,-13.5498
609,-517,12.6417,10.8751,0,0,0,0,0,0,0,-1,1833,1541,12.6417,-10.8751
616,-517,14.205,10.3193,0,0,0,0,0,0,0,-1,1840,1541,14.205,-10.3194
623,-517,12.578,10.0779,0,0,0,0,0,0,0,-1,1847,1541,12.578,-10.0779
630,-517,11.7035,7.47815,0,0,0,0,0,0,0,-1,1854,1541,11.7035,-7.47812
637,-517,11.5172,5.79822,0,0,0,0,0,0,0,-1,1861,1541,11.5173,-5.79825
644,-517,11.4232,3.30579,0,0,0,0,0,0,0,-1,1868,1541,11.4232,-3.30574
651,-517,0,0,0,0,0,0,0,0,0,-1,1875,1541,0,0
658,-517,0,0,0,0,0,0,0,0,0,-1,1882,1541,0,0
665,-517,0,0,0,0,0,0,0,0,0,-1,1889,1541,0,0
672,-517,0,0,0,0,0,0,0,0,0,-1,1896,1541,0,0
679,-517,0,0,0,0,0,0,0,0,0,-1,1903,1541,0,0
686,-517,0,0,0,0,0,0,0,0,0,-1,1910,1541,0,0
693,-517,0,0,0,0,0,0,0,0,0,-1,1917,1541,0,0
700,-517,0,0,0,0,0,0,0,0,0,-1,1924,1541,0,0
707,-517,0,0,0,0,0,0,0,0,0,-1,1931,1541,0,0
714,-517,0,0,0,0,0,0,0,0,0,-1,1938,1541,0,0
721,-517,0,0,0,0,0,0,0,0,0,-1,1945,1541,0,0
728,-517,0,0,0,0,0,0,0,0,0,-1,1952,1541,0,0
735,-517,0,0,0,0,0,0,0,0,0,-1,1959,1541,0,0
742,-517,0,0,0,0,0,0,0,0,0,-1,1966,1541,0,0
749,-517,0,0,0,0,0,0,0,0,0,-1,1973,1541,0,0
756,-517,0,0,0,0,0,0,0,0,0,-1,1980,1541,0,0
763,-517,0,0,0,0,0,0,0,0,0,-1,1987,1541,0,0
770,-517,0,0,0,0,0,0,0,0,0,-1,1994,1541,0,0
777,-517,0,0,0,0,0,0,0,0,0,-1,2001,1541,0,0
784,-517,0,0,0,0,0,0,0,0,0,-1,2008,1541,0,0
791,-517,0,0,0,0,0,0,0,0,0,-1,2015,1541,0,0
798,-517,0,0,0,0,0,0,0,0,0,-1,2022,1541,0,0
805,-517,0,0,0,0,0,0,0,0,0,-1,2029,1541,0,0
812,-517,0,0,0,0,0,0,0,0,0,-1,2036,1541,0,0
-700,-524,0,0,0,0,0,0,0,0,0,-1,524,1548,0,0
-693,-524,0,0,0,0,0,0,0,0,0,-1,531,1548,0,0
-686,-524,0,0,0,0,0,0,0,0,0,-1,538,1548,0,0
-679,-524,0,0,0,0,0,0,0,0,0,-1,545,1548,0,0
-672,-524,0,0,0,0,0,0,0,0,0,-1,552,1548,0,0
-665,-524,0,0,0,0,0,0,0,0,0,-1,559,1548,0,0
-658,-524,0,0,0,0,0,0,0,0,0,-1,566,1548,0,0
-651,-524,0,0,0,0,0,0,0,0,0,-1,573,1548,0,0
-644,-524,0,0,0,0,0,0,0,0,0,-1,580,1548,0,0
-637,-524,0,0,0,0,0,0,0,0,0,-1,587,1548,0,0
-630,-524,0,0,0,0,0,0,0,0,0,-1,594,1548,0,0
-623,-524,0,0,0,0,0,0,0,0,0,-1,601,1548,0,0
-616,-524,0,0,0,0,0,0,0,0,0,-1,608,1548,0,0
-609,-524,0,0,0,0,0,0,0,0,0,-1,615,1548,0,0
-602,-524,0,0,0,0,0,0,0,0,0,-1,622,1548,0,0
-595,-524,0,0,0,0,0,0,0,0,0,-1,629,1548,0,0
-588,-524,0,0,0,0,0,0,0,0,0,-1,636,1548,0,0
-581,-524,0,0,0,0,0,0,0,0,0,-1,643,1548,0,0
-574,-524,0,0,0,0,0,0,0,0,0,-1,650,1548,0,0
-567,-524,0,0,0,0,0,0,0,0,0,-1,657,1548,0,0
-560,-524,0,0,0,0,0,0,0,0,0,-1,664,1548,0,0
-553,-524,0,0,0,0,0,0,0,0,0,-1,671,1548,0,0
-546,-524,0,0,0,0,0,0,0,0,0,-1,678,1548,0,0
-539,-524,0,0,0,0,0,0,0,0,0,-1,685,1548,0,0
-532,-524,0,0,0,0,0,0,0,0,0,-1,692,1548,0,0
-525,-524,-0.215515,3.97131,0,0,0,0,0,0,0,-1,699,1548,-0.215501,-3.97136
-518,-524,-0.806274,4.35632,0,0,0,0,0,0,0,-1,706,1548,-0.806259,-4.35633
-511,-524,-1.08301,4.29004,0,0,0,0,0,0,0,-1,713,1548,-1.08301,-4.29006
-504,-524,-1.28821,3.98145,0,0,0,0,0,0,0,-1,720,1548,-1.28822,-3.98151
-497,-524,-0.328491,8.63416,0,0,0,0,0,0,0,-1,727,1548,-0.328487,-8.63411
-490,-524,-2.87793,16.5732,0,0,0,0,0,0,0,-1,734,1548,-2.87794,-16.5733
-483,-524,-3.18658,16.2516,0,0,0,0,0,0,0,-1,741,1548,-3.18658,-16.2516
-476,-524,-3.48108,17.1881,-0.00785462,0.00826545,-0.00145154,0.00839511,-0.00798428,-1.48171,0.00945764,0.0427539,748,1548,-3.48106,-17.1881
-469,-524,-3.52319,17.7734,-0.00683273,0.005044,-0.00110669,0.00514625,-0.00693497,-1.47867,0.00700053,0.0375762,755,1548,-3.52321,-17.7734
-462,-524,-3.24646,18.1102,-0.00572069,0.00301804,-0.00078785,0.0030885,-0.00579115,-1.4816,0.00520523,0.0338052,762,1548,-3.24646,-18.1102
-455,-524,-3.36566,18.5532,-0.00464133,0.001747,-0.000556041,0.00179504,-0.00468937,-1.48462,0.00386609,0.0269677,769,1548,-3.36564,-18.5532
-448,-524,-3.36353,19.1248,-0.00359138,0.000928209,-0.000367917,0.000957964,-0.00362114,-1.4901,0.00278881,0.0149239,776,1548,-3.3635,-19.1248
-441,-524,-3.40649,19.6975,-0.00248141,0.000651859,-4.07178e-05,0.000652388,-0.00248193,-1.5578,0.0019096,0.0111898,783,1548,-3.40652,-19.6975
-434,-524,-3.38501,20.2412,-0.00133473,0.000849684,0.000452627,0.000939758,-0.0014248,1.37436,0.00137472,0.0134822,790,1548,-3.385,-20.2412
-427,-524,-3.39569,20.7871,-0.000159075,0.00102832,0.00119804,0.0017717,-0.000902455,1.01544,0.00157087,0.0140252,797,1548,-3.39569,-20.7871
-420,-524,-3.44867,21.3547,0.00116293,0.00210221,0.00187286,0.00356341,-0.000298277,0.908246,0.00248102,0.0114009,804,1548,-3.44865,-21.3547
-413,-524,-3.45996,21.9248,0.00251365,0.00305841,0.0027984,0.00559765,-2.55911e-05,0.833912,0.00374033,0.0106544,811,1548,-3.45999,-21.9248
-406,-524,-3.48132,22.483,0.00393947,0.00448158,0.00390123,0.00812116,0.000299888,0.820082,0.00531696,0.0111404,818,1548,-3.48134,-22.4831
-399,-524,-3.50903,23.0227,0.00535524,0.00607556,0.00512683,0.0108549,0.000575932,0.820466,0.00705245,0.00923713,825,1548,-3.50904,-23.0227
-392,-524,-3.51617,23.5708,0.00724803,0.00804525,0.00645112,0.0141101,0.00118321,0.816253,0.00903816,0.0102321,832,1548,-3.51616,-23.5708
-385,-524,-3.5199,24.1656,0.00904249,0.0101766,0.00780013,0.0174303,0.00178884,0.821684,0.0110722,0.0148362,839,1548,-3.51991,-24.1656
-378,-524,-3.50513,24.7791,0,0,0,0,0,0,0,-1,846,1548,-3.50514,-24.779
-371,-524,-3.09894,25.838,0,0,0,0,0,0,0,-1,853,1548,-3.09894,-25.838
-364,-524,-0.712097,14.9871,0,0,0,0,0,0,0,-1,860,1548,-0.712116,-14.9871
-357,-524,-1.34052,14.7448,0,0,0,0,0,0,0,-1,867,1548,-1.34054,-14.7447
-350,-524,-4.31909,25.032,0,0,0,0,0,0,0,-1,874,1548,-4.31906,-25.0319
-343,-524,-5.0224,28.7482,0,0,0,0,0,0,0,-1,881,1548,-5.02239,-28.7481
-336,-524,-3.70892,28.6487,0,0,0,0,0,0,0,-1,888,1548,-3.70894,-28.6487
-329,-524,-2.99182,29.0154,0,0,0,0,0,0,0,-1,895,1548,-2.99184,-29.0154
-322,-524,-4.31378,25.6389,0,0,0,0,0,0,0,-1,902,1548,-4.31379,-25.639
-315,-524,-1.90839,19.4824,0,0,0,0,0,0,0,-1,909,1548,-1.90838,-19.4824
-308,-524,-2.36938,19.3059,0,0,0,0,0,0,0,-1,916,1548,-2.3694,-19.3058
-301,-524,2.72394,17.7618,0,0,0,0,0,0,0,-1,923,1548,2.72396,-17.7619
-294,-524,-1.52515,9.05408,0,0,0,0,0,0,0,-1,930,1548,-1.52512,-9.05411
-287,-524,-0.962219,10.3199,0,0,0,0,0,0,0,-1,937,1548,-0.962241,-10.32
-280,-524,-1.36255,10.3859,0,0,0,0,0,0,0,-1,944,1548,-1.36253,-10.3859
-273,-524,0,0,0,0,0,0,0,0,0,-1,951,1548,0,0
-266,-524,0,0,0,0,0,0,0,0,0,-1,958,1548,0,0
-259,-524,0,0,0,0,0,0,0,0,0,-1,965,1548,0,0
-252,-524,0,0,0,0,0,0,0,0,0,-1,972,1548,0,0
-245,-524,0,0,0,0,0,0,0,0,0,-1,979,1548,0,0
-238,-524,0,0,0,0,0,0,0,0,0,-1,986,1548,0,0
-231,-524,0,0,0,0,0,0,0,0,0,-1,993,1548,0,0
-224,-524,0,0,0,0,0,0,0,0,0,-1,1000,1548,0,0
-217,-524,0,0,0,0,0,0,0,0,0,-1,1007,1548,0,0
-210,-524,0,0,0,0,0,0,0,0,0,-1,1014,1548,0,0
-203,-524,0,0,0,0,0,0,0,0,0,-1,1021,1548,0,0
-196,-524,0,0,0,0,0,0,0,0,0,-1,1028,1548,0,0
-189,-524,0,0,0,0,0,0,0,0,0,-1,1035,1548,0,0
-182,-524,0,0,0,0,0,0,0,0,0,-1,1042,1548,0,0
-175,-524,0,0,0,0,0,0,0,0,0,-1,1049,1548,0,0
-168,-524,0,0,0,0,0,0,0,0,0,-1,1056,1548,0,0
-161,-524,0,0,0,0,0,0,0,0,0,-1,1063,1548,0,0
-154,-524,0,0,0,0,0,0,0,0,0,-1,1070,1548,0,0
-147,-524,0,0,0,0,0,0,0,0,0,-1,1077,1548,0,0
-140,-524,0,0,0,0,0,0,0,0,0,-1,1084,1548,0,0
-133,-524,0,0,0,0,0,0,0,0,0,-1,1091,1548,0,0
-126,-524,0,0,0,0,0,0,0,0,0,-1,1098,1548,0,0
-119,-524,0,0,0,0,0,0,0,0,0,-1,1105,1548,0,0
-112,-524,0,0,0,0,0,0,0,0,0,-1,1112,1548,0,0
-105,-524,0,0,0,0,0,0,0,0,0,-1,1119,1548,0,0
-98,-524,0,0,0,0,0,0,0,0,0,-1,1126,1548,0,0
-91,-524,0,0,0,0,0,0,0,0,0,-1,1133,1548,0,0
-84,-524,0,0,0,0,0,0,0,0,0,-1,1140,1548,0,0
-77,-524,0,0,0,0,0,0,0,0,0,-1,1147,1548,0,0
-70,-524,0,0,0,0,0,0,0,0,0,-1,1154,1548,0,0
-63,-524,0,0,0,0,0,0,0,0,0,-1,1161,1548,0,0
-56,-524,0,0,0,0,0,0,0,0,0,-1,1168,1548,0,0
-49,-524,0,0,0,0,0,0,0,0,0,-1,1175,1548,0,0
-42,-524,0,0,0,0,0,0,0,0,0,-1,1182,1548,0,0
-35,-524,0,0,0,0,0,0,0,0,0,-1,1189,1548,0,0
-28,-524,0,0,0,0,0,0,0,0,0,-1,1196,1548,0,0
-21,-524,0,0,0,0,0,0,0,0,0,-1,1203,1548,0,0
-14,-524,0,0,0,0,0,0,0,0,0,-1,1210,1548,0,0
-7,-524,0,0,0,0,0,0,0,0,0,-1,1217,1548,0,0
0,-524,0,0,0,0,0,0,0,0,0,-1,1224,1548,0,0
7,-524,0,0,0,0,0,0,0,0,0,-1,1231,1548,0,0
14,-524,0,0,0,0,0,0,0,0,0,-1,1238,1548,0,0
21,-524,0,0,0,0,0,0,0,0,0,-1,1245,1548,0,0
28,-524,0,0,0,0,0,0,0,0,0,-1,1252,1548,0,0
35,-524,0,0,0,0,0,0,0,0,0,-1,1259,1548,0,0
42,-524,0,0,0,0,0,0,0,0,0,-1,1266,1548,0,0
49,-524,0,0,0,0,0,0,0,0,0,-1,1273,1548,0,0
56,-524,0,0,0,0,0,0,0,0,0,-1,1280,1548,0,0
63,-524,0,0,0,0,0,0,0,0,0,-1,1287,1548,0,0
70,-524,0,0,0,0,0,0,0,0,0,-1,1294,1548,0,0
77,-524,0,0,0,0,0,0,0,0,0,-1,1301,1548,0,0
84,-524,0,0,0,0,0,0,0,0,0,-1,1308,1548,0,0
91,-524,0,0,0,0,0,0,0,0,0,-1,1315,1548,0,0
98,-524,0,0,0,0,0,0,0,0,0,-1,1322,1548,0,0
105,-524,0,0,0,0,0,0,0,0,0,-1,1329,1548,0,0
112,-524,0,0,0,0,0,0,0,0,0,-1,1336,1548,0,0
119,-524,0,0,0,0,0,0,0,0,0,-1,1343,1548,0,0
126,-524,0,0,0,0,0,0,0,0,0,-1,1350,1548,0,0
133,-524,0,0,0,0,0,0,0,0,0,-1,1357,1548,0,0
140,-524,0,0,0,0,0,0,0,0,0,-1,1364,1548,0,0
147,-524,0,0,0,0,0,0,0,0,0,-1,1371,1548,0,0
154,-524,0,0,0,0,0,0,0,0,0,-1,1378,1548,0,0
161,-524,0,0,0,0,0,0,0,0,0,-1,1385,1548,0,0
168,-524,0,0,0,0,0,0,0,0,0,-1,1392,1548,0,0
175,-524,0,0,0,0,0,0,0,0,0,-1,1399,1548,0,0
182,-524,0,0,0,0,0,0,0,0,0,-1,1406,1548,0,0
189,-524,0,0,0,0,0,0,0,0,0,-1,1413,1548,0,0
196,-524,0,0,0,0,0,0,0,0,0,-1,1420,1548,0,0
203,-524,0,0,0,0,0,0,0,0,0,-1,1427,1548,0,0
210,-524,0,0,0,0,0,0,0,0,0,-1,1434,1548,0,0
217,-524,0,0,0,0,0,0,0,0,0,-1,1441,1548,0,0
224,-524,0,0,0,0,0,0,0,0,0,-1,1448,1548,0,0
231,-524,0,0,0,0,0,0,0,0,0,-1,1455,1548,0,0
238,-524,0,0,0,0,0,0,0,0,0,-1,1462,1548,0,0
245,-524,0,0,0,0,0,0,0,0,0,-1,1469,1548,0,0
252,-524,0,0,0,0,0,0,0,0,0,-1,1476,1548,0,0
259,-524,0,0,0,0,0,0,0,0,0,-1,1483,1548,0,0
266,-524,0,0,0,0,0,0,0,0,0,-1,1490,1548,0,0
273,-524,0,0,0,0,0,0,0,0,0,-1,1497,1548,0,0
280,-524,0,0,0,0,0,0,0,0,0,-1,1504,1548,0,0
287,-524,0,0,0,0,0,0,0,0,0,-1,1511,1548,0,0
294,-524,0,0,0,0,0,0,0,0,0,-1,1518,1548,0,0
301,-524,0,0,0,0,0,0,0,0,0,-1,1525,1548,0,0
308,-524,0,0,0,0,0,0,0,0,0,-1,1532,1548,0,0
315,-524,0,0,0,0,0,0,0,0,0,-1,1539,1548,0,0
322,-524,0,0,0,0,0,0,0,0,0,-1,1546,1548,0,0
329,-524,0,0,0,0,0,0,0,0,0,-1,1553,1548,0,0
336,-524,0,0,0,0,0,0,0,0,0,-1,1560,1548,0,0
343,-524,0,0,0,0,0,0,0,0,0,-1,1567,1548,0,0
350,-524,0,0,0,0,0,0,0,0,0,-1,1574,1548,0,0
357,-524,0,0,0,0,0,0,0,0,0,-1,1581,1548,0,0
364,-524,0,0,0,0,0,0,0,0,0,-1,1588,1548,0,0
371,-524,0,0,0,0,0,0,0,0,0,-1,1595,1548,0,0
378,-524,0,0,0,0,0,0,0,0,0,-1,1602,1548,0,0
385,-524,0,0,0,0,0,0,0,0,0,-1,1609,1548,0,0
392,-524,0,0,0,0,0,0,0,0,0,-1,1616,1548,0,0
399,-524,8.81848,5.05774,0,0,0,0,0,0,0,-1,1623,1548,8.81843,-5.05769
406,-524,8.64294,6.06799,0,0,0,0,0,0,0,-1,1630,1548,8.6429,-6.06805
413,-524,11.677,6.41858,0,0,0,0,0,0,0,-1,1637,1548,11.677,-6.41864
420,-524,11.4913,6.36401,0,0,0,0,0,0,0,-1,1644,1548,11.4913,-6.36402
427,-524,7.68335,6.17249,0,0,0,0,0,0,0,-1,1651,1548,7.68341,-6.17245
434,-524,10.432,11.6801,0,0,0,0,0,0,0,-1,1658,1548,10.432,-11.68
441,-524,8.78552,4.12305,0,0,0,0,0,0,0,-1,1665,1548,8.78553,-4.12301
448,-524,14.1854,4.78674,0,0,0,0,0,0,0,-1,1672,1548,14.1854,-4.78674
455,-524,12.4784,3.65576,0,0,0,0,0,0,0,-1,1679,1548,12.4784,-3.65572
462,-524,14.7551,9.29395,0,0,0,0,0,0,0,-1,1686,1548,14.7552,-9.29397
469,-524,16.3314,14.3779,0,0,0,0,0,0,0,-1,1693,1548,16.3314,-14.3779
476,-524,15.9106,15.1875,0,0,0,0,0,0,0,-1,1700,1548,15.9107,-15.1876
483,-524,15.2776,16.2268,0,0,0,0,0,0,0,-1,1707,1548,15.2776,-16.2269
490,-524,15.2563,18.5848,0,0,0,0,0,0,0,-1,1714,1548,15.2564,-18.5848
497,-524,17.5173,22.6123,0,0,0,0,0,0,0,-1,1721,1548,17.5174,-22.6123
504,-524,19.4976,26.5858,0,0,0,0,0,0,0,-1,1728,1548,19.4976,-26.5858
511,-524,19.8911,25.7019,0,0,0,0,0,0,0,-1,1735,1548,19.8911,-25.7019
518,-524,19.8987,25.1205,0.00884948,0.00841507,-0.00745477,0.0160902,0.00117434,-0.770834,0.0103576,0.0257656,1742,1548,19.8987,-25.1205
525,-524,19.9019,24.6053,0.00691777,0.0065701,-0.00582305,0.0125696,0.000918291,-0.770476,0.00809101,0.0137806,1749,1548,19.9019,-24.6054
532,-524,19.9021,24.0587,0.00519686,0.00501877,-0.00432635,0.00943508,0.000780546,-0.775108,0.00604669,0.010299,1756,1548,19.902,-24.0587
539,-524,19.8933,23.52,0.00383326,0.00368241,-0.00299701,0.0067558,0.000759874,-0.772817,0.00427316,0.0110093,1763,1548,19.8933,-23.52
546,-524,19.8715,23.05,0.00265811,0.00245263,-0.00178703,0.00434536,0.000765388,-0.756683,0.00267848,0.0145402,1770,1548,19.8715,-23.05
553,-524,19.8608,22.52,0.00165607,0.00137886,-0.000696936,0.00222805,0.000806876,-0.68724,0.00130256,0.0249596,1777,1548,19.8608,-22.52
560,-524,19.9001,22.001,0.00101356,0.000502799,0.000168422,0.0010641,0.000452262,0.291512,0.000616654,0.0330921,1784,1548,19.9001,-22.001
567,-524,19.8182,21.499,0.00076787,-2.87295e-05,0.000669662,0.00114873,-0.000409589,0.517113,0.000932822,0.0192026,1791,1548,19.8182,-21.4991
574,-524,19.8,20.9434,0.000843442,-0.000385318,0.000933824,0.00134687,-0.000888744,0.494437,0.00129973,0.014082,1798,1548,19.8,-20.9433
581,-524,19.7902,20.3967,0.00134325,-0.000543811,0.000836732,0.00166082,-0.000861379,0.36274,0.00148037,0.0148443,1805,1548,19.7901,-20.3967
588,-524,19.8317,19.8679,0.00238342,-0.000150373,0.000204305,0.00239979,-0.000166741,0.0799438,0.00165824,0.0283932,1812,1548,19.8317,-19.8679
595,-524,19.8866,19.1406,0,0,0,0,0,0,0,-1,1819,1548,19.8866,-19.1406
602,-524,13.837,12.0682,0,0,0,0,0,0,0,-1,1826,1548,13.837,-12.0683
609,-524,13.0056,10.5138,0,0,0,0,0,0,0,-1,1833,1548,13.0056,-10.5138
616,-524,11.6941,8.65515,0,0,0,0,0,0,0,-1,1840,1548,11.6941,-8.65514
623,-524,9.38452,5.15356,0,0,0,0,0,0,0,-1,1847,1548,9.38456,-5.15359
630,-524,11.0541,3.57434,0,0,0,0,0,0,0,-1,1854,1548,11.0541,-3.57438
637,-524,11.6067,3.20728,0,0,0,0,0,0,0,-1,1861,1548,11.6067,-3.20724
644,-524,12.2134,0.727173,0,0,0,0,0,0,0,-1,1868,1548,12.2134,-0.727222
651,-524,0,0,0,0,0,0,0,0,0,-1,1875,1548,0,0
658,-524,0,0,0,0,0,0,0,0,0,-1,1882,1548,0,0
665,-524,0,0,0,0,0,0,0,0,0,-1,1889,1548,0,0
672,-524,0,0,0,0,0,0,0,0,0,-1,1896,1548,0,0
679,-524,0,0,0,0,0,0,0,0,0,-1,1903,1548,0,0
686,-524,0,0,0,0,0,0,0,0,0,-1,1910,1548,0,0
693,-524,0,0,0,0,0,0,0,0,0,-1,1917,1548,0,0
700,-524,0,0,0,0,0,0,0,0,0,-1,1924,1548,0,0
707,-524,0,0,0,0,0,0,0,0,0,-1,1931,1548,0,0
714,-524,0,0,0,0,0,0,0,0,0,-1,1938,1548,0,0
721,-524,0,0,0,0,0,0,0,0,0,-1,1945,1548,0,0
728,-524,0,0,0,0,0,0,0,0,0,-1,1952,1548,0,0
735,-524,0,0,0,0,0,0,0,0,0,-1,1959,1548,0,0
742,-524,0,0,0,0,0,0,0,0,0,-1,1966,1548,0,0
749,-524,0,0,0,0,0,0,0,0,0,-1,1973,1548,0,0
756,-524,0,0,0,0,0,0,0,0,0,-1,1980,1548,0,0
763,-524,0,0,0,0,0,0,0,0,0,-1,1987,1548,0,0
770,-524,0,0,0,0,0,0,0,0,0,-1,1994,1548,0,0
777,-524,0,0,0,0,0,0,0,0,0,-1,2001,1548,0,0
784,-524,0,0,0,0,0,0,0,0,0,-1,2008,1548,0,0
791,-524,0,0,0,0,0,0,0,0,0,-1,2015,1548,0,0
798,-524,0,0,0,0,0,0,0,0,0,-1,2022,1548,0,0
805,-524,0,0,0,0,0,0,0,0,0,-1,2029,1548,0,0
812,-524,0,0,0,0,0,0,0,0,0,-1,2036,1548,0,0
-700,-531,0,0,0,0,0,0,0,0,0,-1,524,1555,0,0
-693,-531,0,0,0,0,0,0,0,0,0,-1,531,1555,0,0
-686,-531,0,0,0,0,0,0,0,0,0,-1,538,1555,0,0
-679,-531,0,0,0,0,0,0,0,0,0,-1,545,1555,0,0
-672,-531,0,0,0,0,0,0,0,0,0,-1,552,1555,0,0
-665,-531,0,0,0,0,0,0,0,0,0,-1,559,1555,0,0
-658,-531,0,0,0,0,0,0,0,0,0,-1,566,1555,0,0
-651,-531,0,0,0,0,0,0,0,0,0,-1,573,1555,0,0
-644,-531,0,0,0,0,0,0,0,0,0,-1,580,1555,0,0
-637,-531,0,0,0,0,0,0,0,0,0,-1,587,1555,0,0
-630,-531,0,0,0,0,0,0,0,0,0,-1,594,1555,0,0
-623,-531,0,0,0,0,0,0,0,0,0,-1,601,1555,0,0
-616,-531,0,0,0,0,0,0,0,0,0,-1,608,1555,0,0
-609,-531,0,0,0,0,0,0,0,0,0,-1,615,1555,0,0
-602,-531,0,0,0,0,0,0,0,0,0,-1,622,1555,0,0
-595,-531,0,0,0,0,0,0,0,0,0,-1,629,1555,0,0
-588,-531,0,0,0,0,0,0,0,0,0,-1,636,1555,0,0
-581,-531,0,0,0,0,0,0,0,0,0,-1,643,1555,0,0
-574,-531,0,0,0,0,0,0,0,0,0,-1,650,1555,0,0
-567,-531,0,0,0,0,0,0,0,0,0,-1,657,1555,0,0
-560,-531,0,0,0,0,0,0,0,0,0,-1,664,1555,0,0
-553,-531,0,0,0,0,0,0,0,0,0,-1,671,1555,0,0
-546,-531,0,0,0,0,0,0,0,0,0,-1,678,1555,0,0
-539,-531,0,0,0,0,0,0,0,0,0,-1,685,1555,0,0
-532,-531,0,0,0,0,0,0,0,0,0,-1,692,1555,0,0
-525,-531,0,0,0,0,0,0,0,0,0,-1,699,1555,0,0
-518,-531,-1.63983,4.03821,0,0,0,0,0,0,0,-1,706,1555,-1.63982,-4.03821
-511,-531,-2.9682,8.07483,0,0,0,0,0,0,0,-1,713,1555,-2.9682,-8.07479
-504,-531,-2.95978,0.557861,0,0,0,0,0,0,0,-1,720,1555,-2.95978,-0.557917
-497,-531,-2.46039,8.07422,0,0,0,0,0,0,0,-1,727,1555,-2.46039,-8.07423
-490,-531,-0.423462,7.92065,0,0,0,0,0,0,0,-1,734,1555,-0.42344,-7.92066
-483,-531,-2.4892,16.4528,0,0,0,0,0,0,0,-1,741,1555,-2.48919,-16.4527
-476,-531,-3.46124,17.79,0,0,0,0,0,0,0,-1,748,1555,-3.46127,-17.79
-469,-531,-2.51105,17.2029,-0.00879315,0.00697873,-0.000370983,0.00698745,-0.00880188,-1.54729,0.00913602,0.0447986,755,1555,-2.51107,-17.2029
-462,-531,-2.64069,18.1447,-0.00746844,0.004255,-0.00036883,0.00426659,-0.00748003,-1.53938,0.00686598,0.0439621,762,1555,-2.64067,-18.1447
-455,-531,-2.86865,18.7803,-0.00622555,0.0025238,-0.00039169,0.0025413,-0.00624305,-1.52615,0.00521959,0.0398684,769,1555,-2.86865,-18.7803
-448,-531,-2.75073,19.1244,-0.00507327,0.0012785,-0.000453974,0.00131078,-0.00510555,-1.49981,0.00391448,0.0193081,776,1555,-2.75073,-19.1244
-441,-531,-2.84979,19.6858,-0.00389691,0.00066109,-0.000356747,0.000688843,-0.00392467,-1.49316,0.00287371,0.0123297,783,1555,-2.8498,-19.6858
-434,-531,-2.85742,20.2714,-0.00269582,0.000560054,-5.31281e-05,0.000560921,-0.00269669,-1.55448,0.00201101,0.0119643,790,1555,-2.8574,-20.2714
-427,-531,-2.85468,20.8243,-0.00149467,0.000480457,0.000558592,0.000627489,-0.0016417,1.31342,0.00135303,0.012853,797,1555,-2.85468,-20.8243
-420,-531,-2.88422,21.3914,-0.000193605,0.00138353,0.00103267,0.00189429,-0.000704362,1.11148,0.00155188,0.0121471,804,1555,-2.88422,-21.3914
-413,-531,-2.90186,21.9523,0.00109486,0.00200435,0.00178302,0.0033897,-0.000290494,0.910257,0.00236259,0.010942,811,1555,-2.90185,-21.9523
-406,-531,-2.93164,22.5026,0.00246617,0.00316103,0.00265223,0.00548848,0.000138714,0.850525,0.00361364,0.0118865,818,1555,-2.93166,-22.5025
-399,-531,-2.94287,23.0286,0.00371694,0.00452599,0.00362557,0.00776954,0.000473394,0.840956,0.00502932,0.0131282,825,1555,-2.94287,-23.0286
-392,-531,-2.94653,23.574,0.00527145,0.00611179,0.00467569,0.0103862,0.00099709,0.830209,0.00661683,0.0169368,832,1555,-2.94652,-23.5739
-385,-531,-2.98773,24.1268,0.0068086,0.00779162,0.00569361,0.0130149,0.00158532,0.828455,0.0081994,0.0144607,839,1555,-2.98771,-24.1268
-378,-531,-3.02417,24.6365,0.00842058,0.00945437,0.006644,0.0156016,0.00227341,0.824219,0.00973215,0.0167669,846,1555,-3.02414,-24.6364
-371,-531,-2.91687,25.347,0.0102924,0.0114105,0.00775888,0.0186304,0.00307243,0.821361,0.0115334,0.0356878,853,1555,-2.91685,-25.3471
-364,-531,-2.84314,25.9951,0,0,0,0,0,0,0,-1,860,1555,-2.84312,-25.9951
-357,-531,-2.87537,26.6499,0,0,0,0,0,0,0,-1,867,1555,-2.87536,-26.6499
-350,-531,-3.80219,27.2609,0,0,0,0,0,0,0,-1,874,1555,-3.80218,-27.2609
-343,-531,-2.51416,28.1543,0,0,0,0,0,0,0,-1,881,1555,-2.51417,-28.1543
-336,-531,-1.78955,28.7963,0,0,0,0,0,0,0,-1,888,1555,-1.78957,-28.7963
-329,-531,-1.61566,29.6801,0,0,0,0,0,0,0,-1,895,1555,-1.61566,-29.6801
-322,-531,-0.655029,28.5603,0,0,0,0,0,0,0,-1,902,1555,-0.655029,-28.5602
-315,-531,-3.92139,28.7059,0,0,0,0,0,0,0,-1,909,1555,-3.92138,-28.706
-308,-531,-1.66455,19.0624,0,0,0,0,0,0,0,-1,916,1555,-1.66455,-19.0623
-301,-531,-2.02405,18.8912,0,0,0,0,0,0,0,-1,923,1555,-2.02407,-18.8913
-294,-531,-1.3244,8.1825,0,0,0,0,0,0,0,-1,930,1555,-1.3244,-8.18251
-287,-531,-1.78192,10.1661,0,0,0,0,0,0,0,-1,937,1555,-1.78192,-10.1661
-280,-531,-2.14508,10.3945,0,0,0,0,0,0,0,-1,944,1555,-2.14506,-10.3945
-273,-531,-2.50818,10.6229,0,0,0,0,0,0,0,-1,951,1555,-2.5082,-10.6229
-266,-531,-4.97742,17.9215,0,0,0,0,0,0,0,-1,958,1555,-4.97744,-17.9215
-259,-531,0,0,0,0,0,0,0,0,0,-1,965,1555,0,0
-252,-531,0,0,0,0,0,0,0,0,0,-1,972,1555,0,0
-245,-531,0,0,0,0,0,0,0,0,0,-1,979,1555,0,0
-238,-531,0,0,0,0,0,0,0,0,0,-1,986,1555,0,0
-231,-531,0,0,0,0,0,0,0,0,0,-1,993,1555,0,0
-224,-531,0,0,0,0,0,0,0,0,0,-1,1000,1555,0,0
-217,-531,0,0,0,0,0,0,0,0,0,-1,1007,1555,0,0
-210,-531,0,0,0,0,0,0,0,0,0,-1,1014,1555,0,0
-203,-531,0,0,0,0,0,0,0,0,0,-1,1021,1555,0,0
-196,-531,0,0,0,0,0,0,0,0,0,-1,1028,1555,0,0
-189,-531,0,0,0,0,0,0,0,0,0,-1,1035,1555,0,0
-182,-531,0,0,0,0,0,0,0,0,0,-1,1042,1555,0,0
-175,-531,0,0,0,0,0,0,0,0,0,-1,1049,1555,0,0
-168,-531,0,0,0,0,0,0,0,0,0,-1,1056,1555,0,0
-161,-531,0,0,0,0,0,0,0,0,0,-1,1063,1555,0,0
-154,-531,0,0,0,0,0,0,0,0,0,-1,1070,1555,0,0
-147,-531,0,0,0,0,0,0,0,0,0,-1,1077,1555,0,0
-140,-531,0,0,0,0,0,0,0,0,0,-1,1084,1555,0,0
-133,-531,0,0,0,0,0,0,0,0,0,-1,1091,1555,0,0
-126,-531,0,0,0,0,0,0,0,0,0,-1,1098,1555,0,0
-119,-531,0,0,0,0,0,0,0,0,0,-1,1105,1555,0,0
-112,-531,0,0,0,0,0,0,0,0,0,-1,1112,1555,0,0
-105,-531,0,0,0,0,0,0,0,0,0,-1,1119,1555,0,0
-98,-531,0,0,0,0,0,0,0,0,0,-1,1126,1555,0,0
-91,-531,0,0,0,0,0,0,0,0,0,-1,1133,1555,0,0
-84,-531,0,0,0,0,0,0,0,0,0,-1,1140,1555,0,0
-77,-531,0,0,0,0,0,0,0,0,0,-1,1147,1555,0,0
-70,-531,0,0,0,0,0,0,0,0,0,-1,1154,1555,0,0
-63,-531,0,0,0,0,0,0,0,0,0,-1,1161,1555,0,0
-56,-531,0,0,0,0,0,0,0,0,0,-1,1168,1555,0,0
-49,-531,0,0,0,0,0,0,0,0,0,-1,1175,1555,0,0
-42,-531,0,0,0,0,0,0,0,0,0,-1,1182,1555,0,0
-35,-531,0,0,0,0,0,0,0,0,0,-1,1189,1555,0,0
-28,-531,0,0,0,0,0,0,0,0,0,-1,1196,1555,0,0
-21,-531,0,0,0,0,0,0,0,0,0,-1,1203,1555,0,0
-14,-531,0,0,0,0,0,0,0,0,0,-1,1210,1555,0,0
-7,-531,0,0,0,0,0,0,0,0,0,-1,1217,1555,0,0
0,-531,0,0,0,0,0,0,0,0,0,-1,1224,1555,0,0
7,-531,0,0,0,0,0,0,0,0,0,-1,1231,1555,0,0
14,-531,0,0,0,0,0,0,0,0,0,-1,1238,1555,0,0
21,-531,0,0,0,0,0,0,0,0,0,-1,1245,1555,0,0
28,-531,0,0,0,0,0,0,0,0,0,-1,1252,1555,0,0
35,-531,0,0,0,0,0,0,0,0,0,-1,1259,1555,0,0
42,-531,0,0,0,0,0,0,0,0,0,-1,1266,1555,0,0
49,-531,0,0,0,0,0,0,0,0,0,-1,1273,1555,0,0
56,-531,0,0,0,0,0,0,0,0,0,-1,1280,1555,0,0
63,-531,0,0,0,0,0,0,0,0,0,-1,1287,1555,0,0
70,-531,0,0,0,0,0,0,0,0,0,-1,1294,1555,0,0
77,-531,0,0,0,0,0,0,0,0,0,-1,1301,1555,0,0
84,-531,0,0,0,0,0,0,0,0,0,-1,1308,1555,0,0
91,-531,0,0,0,0,0,0,0,0,0,-1,1315,1555,0,0
98,-531,0,0,0,0,0,0,0,0,0,-1,1322,1555,0,0
105,-531,0,0,0,0,0,0,0,0,0,-1,1329,1555,0,0
112,-531,0,0,0,0,0,0,0,0,0,-1,1336,1555,0,0
119,-531,0,0,0,0,0,0,0,0,0,-1,1343,1555,0,0
126,-531,0,0,0,0,0,0,0,0,0,-1,1350,1555,0,0
133,-531,0,0,0,0,0,0,0,0,0,-1,1357,1555,0,0
140,-531,0,0,0,0,0,0,0,0,0,-1,1364,1555,0,0
147,-531,0,0,0,0,0,0,0,0,0,-1,1371,1555,0,0
154,-531,0,0,0,0,0,0,0,0,0,-1,1378,1555,0,0
161,-531,0,0,0,0,0,0,0,0,0,-1,1385,1555,0,0
168,-531,0,0,0,0,0,0,0,0,0,-1,1392,1555,0,0
175,-531,0,0,0,0,0,0,0,0,0,-1,1399,1555,0,0
182,-531,0,0,0,0,0,0,0,0,0,-1,1406,1555,0,0
189,-531,0,0,0,0,0,0,0,0,0,-1,1413,1555,0,0
196,-531,0,0,0,0,0,0,0,0,0,-1,1420,1555,0,0
203,-531,0,0,0,0,0,0,0,0,0,-1,1427,1555,0,0
210,-531,0,0,0,0,0,0,0,0,0,-1,1434,1555,0,0
217,-531,0,0,0,0,0,0,0,0,0,-1,1441,1555,0,0
224,-531,0,0,0,0,0,0,0,0,0,-1,1448,1555,0,0
231,-531,0,0,0,0,0,0,0,0,0,-1,1455,1555,0,0
238,-531,0,0,0,0,0,0,0,0,0,-1,1462,1555,0,0
245,-531,0,0,0,0,0,0,0,0,0,-1,1469,1555,0,0
252,-531,0,0,0,0,0,0,0,0,0,-1,1476,1555,0,0
259,-531,0,0,0,0,0,0,0,0,0,-1,1483,1555,0,0
266,-531,0,0,0,0,0,0,0,0,0,-1,1490,1555,0,0
273,-531,0,0,0,0,0,0,0,0,0,-1,1497,1555,0,0
280,-531,0,0,0,0,0,0,0,0,0,-1,1504,1555,0,0
287,-531,0,0,0,0,0,0,0,0,0,-1,1511,1555,0,0
294,-531,0,0,0,0,0,0,0,0,0,-1,1518,1555,0,0
301,-531,0,0,0,0,0,0,0,0,0,-1,1525,1555,0,0
308,-531,0,0,0,0,0,0,0,0,0,-1,1532,1555,0,0
315,-531,0,0,0,0,0,0,0,0,0,-1,1539,1555,0,0
322,-531,0,0,0,0,0,0,0,0,0,-1,1546,1555,0,0
329,-531,0,0,0,0,0,0,0,0,0,-1,1553,1555,0,0
336,-531,0,0,0,0,0,0,0,0,0,-1,1560,1555,0,0
343,-531,0,0,0,0,0,0,0,0,0,-1,1567,1555,0,0
350,-531,0,0,0,0,0,0,0,0,0,-1,1574,1555,0,0
357,-531,0,0,0,0,0,0,0,0,0,-1,1581,1555,0,0
364,-531,0,0,0,0,0,0,0,0,0,-1,1588,1555,0,0
371,-531,0,0,0,0,0,0,0,0,0,-1,1595,1555,0,0
378,-531,0,0,0,0,0,0,0,0,0,-1,1602,1555,0,0
385,-531,3.48169,1.78625,0,0,0,0,0,0,0,-1,1609,1555,3.48165,-1.78624
392,-531,10.8781,9.09204,0,0,0,0,0,0,0,-1,1616,1555,10.8781,-9.09205
399,-531,8.26306,5.29602,0,0,0,0,0,0,0,-1,1623,1555,8.26302,-5.29607
406,-531,8.26147,5.42712,0,0,0,0,0,0,0,-1,1630,1555,8.26145,-5.42716
413,-531,8.20618,5.75012,0,0,0,0,0,0,0,-1,1637,1555,8.20619,-5.75017
420,-531,7.64868,7.09558,0,0,0,0,0,0,0,-1,1644,1555,7.64867,-7.09564
427,-531,9.93054,11.8412,0,0,0,0,0,0,0,-1,1651,1555,9.93059,-11.8412
434,-531,10.244,11.7072,0,0,0,0,0,0,0,-1,1658,1555,10.244,-11.7071
441,-531,11.4528,12.9397,0,0,0,0,0,0,0,-1,1665,1555,11.4528,-12.9397
448,-531,11.928,18.8029,0,0,0,0,0,0,0,-1,1672,1555,11.928,-18.8028
455,-531,14.4877,9.67065,0,0,0,0,0,0,0,-1,1679,1555,14.4876,-9.67066
462,-531,13.5253,12.2002,0,0,0,0,0,0,0,-1,1686,1555,13.5252,-12.2002
469,-531,15.5087,15.7894,0,0,0,0,0,0,0,-1,1693,1555,15.5086,-15.7895
476,-531,14.6582,16.2264,0,0,0,0,0,0,0,-1,1700,1555,14.6582,-16.2264
483,-531,14.755,18.5994,0,0,0,0,0,0,0,-1,1707,1555,14.7551,-18.5994
490,-531,16.9362,25.4943,0,0,0,0,0,0,0,-1,1714,1555,16.9362,-25.4942
497,-531,19.1183,27.0964,0,0,0,0,0,0,0,-1,1721,1555,19.1182,-27.0964
504,-531,19.2631,26.3002,0.0100308,0.0108463,-0.00849026,0.0189386,0.00193848,-0.809392,0.0120317,0.0403384,1728,1555,19.2631,-26.3002
511,-531,19.37,25.6824,0.0084693,0.0086606,-0.00725234,0.0158179,0.00131198,-0.791992,0.0101363,0.0162787,1735,1555,19.37,-25.6824
518,-531,19.3953,25.1405,0.00674749,0.00667378,-0.0056626,0.0123734,0.00104792,-0.782144,0.00792274,0.0136657,1742,1555,19.3953,-25.1404
525,-531,19.4055,24.6439,0.005072,0.00499268,-0.0042201,0.00925263,0.000812051,-0.780699,0.00591634,0.013459,1749,1555,19.4055,-24.6439
532,-531,19.3972,24.1045,0.00357692,0.00359125,-0.00287584,0.00645993,0.000708236,-0.786643,0.00409103,0.0112393,1756,1555,19.3973,-24.1044
539,-531,19.3718,23.5732,0.00236932,0.00239884,-0.00164443,0.00402858,0.000739581,-0.789886,0.00247629,0.0129601,1763,1555,19.3718,-23.5732
546,-531,19.303,23.0588,0.0012771,0.00126538,-0.00045222,0.0017235,0.000818982,-0.778924,0.000995471,0.0163739,1770,1555,19.303,-23.0589
553,-531,19.3354,22.5404,0.000340023,0.000269647,0.000665691,0.000971455,-0.000361785,0.758993,0.000796122,0.0324989,1777,1555,19.3354,-22.5404
560,-531,19.3488,22.0536,-0.000233987,-0.000529155,0.00158045,0.00120575,-0.0019689,0.738843,0.00185045,0.0344809,1784,1555,19.3487,-22.0536
567,-531,19.2358,21.5137,-0.000410659,-0.00101121,0.00216726,0.00147703,-0.0028989,0.716561,0.00257051,0.0189801,1791,1555,19.2358,-21.5137
574,-531,19.2356,20.9673,-0.000229089,-0.00131764,0.00251344,0.00179833,-0.00334506,0.678771,0.00301396,0.0137752,1798,1555,19.2355,-20.9673
581,-531,19.2889,20.3959,0.000517232,-0.00135307,0.00240815,0.00216543,-0.00300127,0.600197,0.00299598,0.0205467,1805,1555,19.2889,-20.3958
588,-531,19.3386,19.8076,0.0020322,-0.000729041,0.00164439,0.0027987,-0.00149554,0.436188,0.00251705,0.0378605,1812,1555,19.3386,-19.8076
595,-531,19.3235,19.1832,0,0,0,0,0,0,0,-1,1819,1555,19.3235,-19.1832
602,-531,13.701,11.8346,0,0,0,0,0,0,0,-1,1826,1555,13.701,-11.8347
609,-531,10.9072,8.50903,0,0,0,0,0,0,0,-1,1833,1555,10.9073,-8.50902
616,-531,10.5723,7.17859,0,0,0,0,0,0,0,-1,1840,1555,10.5723,-7.17855
623,-531,10.0674,5.08984,0,0,0,0,0,0,0,-1,1847,1555,10.0674,-5.08981
630,-531,11.672,3.18909,0,0,0,0,0,0,0,-1,1854,1555,11.672,-3.18904
637,-531,13.2546,1.38965,0,0,0,0,0,0,0,-1,1861,1555,13.2547,-1.3896
644,-531,0,0,0,0,0,0,0,0,0,-1,1868,1555,0,0
651,-531,0,0,0,0,0,0,0,0,0,-1,1875,1555,0,0
658,-531,0,0,0,0,0,0,0,0,0,-1,1882,1555,0,0
665,-531,0,0,0,0,0,0,0,0,0,-1,1889,1555,0,0
672,-531,0,0,0,0,0,0,0,0,0,-1,1896,1555,0,0
679,-531,0,0,0,0,0,0,0,0,0,-1,1903,1555,0,0
686,-531,0,0,0,0,0,0,0,0,0,-1,1910,1555,0,0
693,-531,0,0,0,0,0,0,0,0,0,-1,1917,1555,0,0
700,-531,0,0,0,0,0,0,0,0,0,-1,1924,1555,0,0
707,-531,0,0,0,0,0,0,0,0,0,-1,1931,1555,0,0
714,-531,0,0,0,0,0,0,0,0,0,-1,1938,1555,0,0
721,-531,0,0,0,0,0,0,0,0,0,-1,1945,1555,0,0
728,-531,0,0,0,0,0,0,0,0,0,-1,1952,1555,0,0
735,-531,0,0,0,0,0,0,0,0,0,-1,1959,1555,0,0
742,-531,0,0,0,0,0,0,0,0,0,-1,1966,1555,0,0
749,-531,0,0,0,0,0,0,0,0,0,-1,1973,1555,0,0
756,-531,0,0,0,0,0,0,0,0,0,-1,1980,1555,0,0
763,-531,0,0,0,0,0,0,0,0,0,-1,1987,1555,0,0
770,-531,0,0,0,0,0,0,0,0,0,-1,1994,1555,0,0
777,-531,0,0,0,0,0,0,0,0,0,-1,2001,1555,0,0
784,-531,0,0,0,0,0,0,0,0,0,-1,2008,1555,0,0
791,-531,0,0,0,0,0,0,0,0,0,-1,2015,1555,0,0
798,-531,0,0,0,0,0,0,0,0,0,-1,2022,1555,0,0
805,-531,0,0,0,0,0,0,0,0,0,-1,2029,1555,0,0
812,-531,0,0,0,0,0,0,0,0,0,-1,2036,1555,0,0
-700,-538,0,0,0,0,0,0,0,0,0,-1,524,1562,0,0
-693,-538,0,0,0,0,0,0,0,0,0,-1,531,1562,0,0
-686,-538,0,0,0,0,0,0,0,0,0,-1,538,1562,0,0
-679,-538,0,0,0,0,0,0,0,0,0,-1,545,1562,0,0
-672,-538,0,0,0,0,0,0,0,0,0,-1,552,1562,0,0
-665,-538,0,0,0,0,0,0,0,0,0,-1,559,1562,0,0
-658,-538,0,0,0,0,0,0,0,0,0,-1,566,1562,0,0
-651,-538,0,0,0,0,0,0,0,0,0,-1,573,1562,0,0
-644,-538,0,0,0,0,0,0,0,0,0,-1,580,1562,0,0
-637,-538,0,0,0,0,0,0,0,0,0,-1,587,1562,0,0
-630,-538,0,0,0,0,0,0,0,0,0,-1,594,1562,0,0
-623,-538,0,0,0,0,0,0,0,0,0,-1,601,1562,0,0
-616,-538,0,0,0,0,0,0,0,0,0,-1,608,1562,0,0
-609,-538,0,0,0,0,0,0,0,0,0,-1,615,1562,0,0
-602,-538,0,0,0,0,0,0,0,0,0,-1,622,1562,0,0
-595,-538,0,0,0,0,0,0,0,0,0,-1,629,1562,0,0
-588,-538,0,0,0,0,0,0,0,0,0,-1,636,1562,0,0
-581,-538,0,0,0,0,0,0,0,0,0,-1,643,1562,0,0
-574,-538,0,0,0,0,0,0,0,0,0,-1,650,1562,0,0
-567,-538,0,0,0,0,0,0,0,0,0,-1,657,1562,0,0
-560,-538,0,0,0,0,0,0,0,0,0,-1,664,1562,0,0
-553,-538,0,0,0,0,0,0,0,0,0,-1,671,1562,0,0
-546,-538,0,0,0,0,0,0,0,0,0,-1,678,1562,0,0
-539,-538,0,0,0,0,0,0,0,0,0,-1,685,1562,0,0
-532,-538,0,0,0,0,0,0,0,0,0,-1,692,1562,0,0
-525,-538,0,0,0,0,0,0,0,0,0,-1,699,1562,0,0
-518,-538,0,0,0,0,0,0,0,0,0,-1,706,1562,0,0
-511,-538,-2.6582,-1.54321,0,0,0,0,0,0,0,-1,713,1562,-2.65821,1.54327
-504,-538,-2.66455,-0.71167,0,0,0,0,0,0,0,-1,720,1562,-2.66456,0.711667
-497,-538,-0.763855,6.77747,0,0,0,0,0,0,0,-1,727,1562,-0.76385,-6.77743
-490,-538,-2.70453,8.01465,0,0,0,0,0,0,0,-1,734,1562,-2.70451,-8.0147
-483,-538,-0.933533,7.84644,0,0,0,0,0,0,0,-1,741,1562,-0.933548,-7.84638
-476,-538,-3.29962,15.8307,0,0,0,0,0,0,0,-1,748,1562,-3.29962,-15.8306
-469,-538,-1.84924,17.1953,0,0,0,0,0,0,0,-1,755,1562,-1.84925,-17.1953
-462,-538,-2.05066,18.0208,-0.00957041,0.00575668,0.000472424,0.00577123,-0.00958496,1.54001,0.00895658,0.0487159,762,1562,-2.05063,-18.0208
-455,-538,-2.45038,18.8705,-0.00809757,0.00351307,7.85008e-05,0.0035136,-0.0080981,1.56404,0.00687598,0.0407609,769,1562,-2.45038,-18.8704
-448,-538,-2.14355,19.2515,-0.00678752,0.0017874,-0.000319219,0.00179927,-0.00679939,-1.53364,0.00523675,0.0201554,776,1562,-2.14356,-19.2515
-441,-538,-2.24121,19.8291,-0.0055367,0.000834199,-0.000516215,0.000875756,-0.00557825,-1.49047,0.0040425,0.0232874,783,1562,-2.24118,-19.8291
-434,-538,-2.32916,20.2815,-0.0042434,0.000379961,-0.000436211,0.000420758,-0.0042842,-1.47754,0.00300621,0.0132179,790,1562,-2.32919,-20.2815
-427,-538,-2.33936,20.8644,-0.00296949,7.47435e-05,2.25629e-05,7.49108e-05,-0.00296966,1.56339,0.00200521,0.013047,797,1562,-2.33934,-20.8643
-420,-538,-2.35931,21.403,-0.00165722,0.000786682,0.000304865,0.000824138,-0.00169468,1.44855,0.00148291,0.0177445,804,1562,-2.35929,-21.4029
-413,-538,-2.37744,21.9558,-0.000387803,0.00110392,0.000894642,0.00152283,-0.000806713,1.13288,0.00136598,0.0184551,811,1562,-2.37746,-21.9558
-406,-538,-2.38922,22.5138,0.000986025,0.00201679,0.00156267,0.00314687,-0.000144059,0.944686,0.00214755,0.0145444,818,1562,-2.38922,-22.5138
-399,-538,-2.3924,23.0692,0.00215944,0.00318144,0.00234134,0.00506689,0.00027399,0.892839,0.0032904,0.0133801,825,1562,-2.3924,-23.0692
-392,-538,-2.39124,23.6112,0.00349256,0.00444413,0.00318371,0.00718741,0.000749287,0.859571,0.0045624,0.0149637,832,1562,-2.39125,-23.6112
-385,-538,-2.43866,24.1479,0.00490011,0.00576642,0.00397074,0.00932756,0.00133897,0.839727,0.00582359,0.0129908,839,1562,-2.43867,-24.148
-378,-538,-2.46021,24.6832,0.00634233,0.00709999,0.00470077,0.0114372,0.00200515,0.825605,0.00705207,0.0107611,846,1562,-2.4602,-24.6832
-371,-538,-2.50391,25.2015,0.00792958,0.00860341,0.00553023,0.013807,0.00272602,0.815822,0.00844395,0.0143176,853,1562,-2.5039,-25.2016
-364,-538,-2.43512,25.8334,0.00979252,0.0103983,0.006453,0.0165555,0.00363528,0.808848,0.0100469,0.01851,860,1562,-2.43512,-25.8334
-357,-538,-2.38232,26.5044,0.0120009,0.0124142,0.00741988,0.0196303,0.00478477,0.79932,0.0118193,0.0415084,867,1562,-2.38233,-26.5044
-350,-538,-2.17505,27.3235,0,0,0,0,0,0,0,-1,874,1562,-2.17507,-27.3235
-343,-538,-2.17896,27.6536,0.0174859,0.017164,0.0098012,0.0271275,0.00752243,0.777189,0.0161716,0.0454453,881,1562,-2.17893,-27.6535
-336,-538,-1.76166,28.2788,0,0,0,0,0,0,0,-1,888,1562,-1.76169,-28.2788
-329,-538,-1.75354,28.733,0,0,0,0,0,0,0,-1,895,1562,-1.75357,-28.733
-322,-538,-1.93585,28.8976,0,0,0,0,0,0,0,-1,902,1562,-1.93587,-28.8976
-315,-538,-3.11243,27.4591,0,0,0,0,0,0,0,-1,909,1562,-3.11243,-27.4591
-308,-538,-3.32458,27.5726,0,0,0,0,0,0,0,-1,916,1562,-3.32458,-27.5727
-301,-538,-0.452393,18.5101,0,0,0,0,0,0,0,-1,923,1562,-0.452367,-18.5102
-294,-538,1.23138,14.0757,0,0,0,0,0,0,0,-1,930,1562,1.23137,-14.0757
-287,-538,-2.60419,10.2361,0,0,0,0,0,0,0,-1,937,1562,-2.6042,-10.2361
-280,-538,-2.93475,10.5106,0,0,0,0,0,0,0,-1,944,1562,-2.93475,-10.5106
-273,-538,-3.26532,10.785,0,0,0,0,0,0,0,-1,951,1562,-3.26531,-10.785
-266,-538,-5.03412,15.9951,0,0,0,0,0,0,0,-1,958,1562,-5.03409,-15.9951
-259,-538,-5.89642,16.5184,0,0,0,0,0,0,0,-1,965,1562,-5.89644,-16.5184
-252,-538,0,0,0,0,0,0,0,0,0,-1,972,1562,0,0
-245,-538,0,0,0,0,0,0,0,0,0,-1,979,1562,0,0
-238,-538,0,0,0,0,0,0,0,0,0,-1,986,1562,0,0
-231,-538,0,0,0,0,0,0,0,0,0,-1,993,1562,0,0
-224,-538,0,0,0,0,0,0,0,0,0,-1,1000,1562,0,0
-217,-538,0,0,0,0,0,0,0,0,0,-1,1007,1562,0,0
-210,-538,0,0,0,0,0,0,0,0,0,-1,1014,1562,0,0
-203,-538,0,0,0,0,0,0,0,0,0,-1,1021,1562,0,0
-196,-538,0,0,0,0,0,0,0,0,0,-1,1028,1562,0,0
-189,-538,0,0,0,0,0,0,0,0,0,-1,1035,1562,0,0
-182,-538,0,0,0,0,0,0,0,0,0,-1,1042,1562,0,0
-175,-538,0,0,0,0,0,0,0,0,0,-1,1049,1562,0,0
-168,-538,0,0,0,0,0,0,0,0,0,-1,1056,1562,0,0
-161,-538,0,0,0,0,0,0,0,0,0,-1,1063,1562,0,0
-154,-538,0,0,0,0,0,0,0,0,0,-1,1070,1562,0,0
-147,-538,0,0,0,0,0,0,0,0,0,-1,1077,1562,0,0
-140,-538,0,0,0,0,0,0,0,0,0,-1,1084,1562,0,0
-133,-538,0,0,0,0,0,0,0,0,0,-1,1091,1562,0,0
-126,-538,0,0,0,0,0,0,0,0,0,-1,1098,1562,0,0
-119,-538,0,0,0,0,0,0,0,0,0,-1,1105,1562,0,0
-112,-538,0,0,0,0,0,0,0,0,0,-1,1112,1562,0,0
-105,-538,0,0,0,0,0,0,0,0,0,-1,1119,1562,0,0
-98,-538,0,0,0,0,0,0,0,0,0,-1,1126,1562,0,0
-91,-538,0,0,0,0,0,0,0,0,0,-1,1133,1562,0,0
-84,-538,0,0,0,0,0,0,0,0,0,-1,1140,1562,0,0
-77,-538,0,0,0,0,0,0,0,0,0,-1,1147,1562,0,0
-70,-538,0,0,0,0,0,0,0,0,0,-1,1154,1562,0,0
-63,-538,0,0,0,0,0,0,0,0,0,-1,1161,1562,0,0
-56,-538,0,0,0,0,0,0,0,0,0,-1,1168,1562,0,0
-49,-538,0,0,0,0,0,0,0,0,0,-1,1175,1562,0,0
-42,-538,0,0,0,0,0,0,0,0,0,-1,1182,1562,0,0
-35,-538,0,0,0,0,0,0,0,0,0,-1,1189,1562,0,0
-28,-538,0,0,0,0,0,0,0,0,0,-1,1196,1562,0,0
-21,-538,0,0,0,0,0,0,0,0,0,-1,1203,1562,0,0
-14,-538,0,0,0,0,0,0,0,0,0,-1,1210,1562,0,0
-7,-538,0,0,0,0,0,0,0,0,0,-1,1217,1562,0,0
0,-538,0,0,0,0,0,0,0,0,0,-1,1224,1562,0,0
7,-538,0,0,0,0,0,0,0,0,0,-1,1231,1562,0,0
14,-538,0,0,0,0,0,0,0,0,0,-1,1238,1562,0,0
21,-538,0,0,0,0,0,0,0,0,0,-1,1245,1562,0,0
28,-538,0,0,0,0,0,0,0,0,0,-1,1252,1562,0,0
35,-538,0,0,0,0,0,0,0,0,0,-1,1259,1562,0,0
42,-538,0,0,0,0,0,0,0,0,0,-1,1266,1562,0,0
49,-538,0,0,0,0,0,0,0,0,0,-1,1273,1562,0,0
56,-538,0,0,0,0,0,0,0,0,0,-1,1280,1562,0,0
63,-538,0,0,0,0,0,0,0,0,0,-1,1287,1562,0,0
70,-538,0,0,0,0,0,0,0,0,0,-1,1294,1562,0,0
77,-538,0,0,0,0,0,0,0,0,0,-1,1301,1562,0,0
84,-538,0,0,0,0,0,0,0,0,0,-1,1308,1562,0,0
91,-538,0,0,0,0,0,0,0,0,0,-1,1315,1562,0,0
98,-538,0,0,0,0,0,0,0,0,0,-1,1322,1562,0,0
105,-538,0,0,0,0,0,0,0,0,0,-1,1329,1562,0,0
112,-538,0,0,0,0,0,0,0,0,0,-1,1336,1562,0,0
119,-538,0,0,0,0,0,0,0,0,0,-1,1343,1562,0,0
126,-538,0,0,0,0,0,0,0,0,0,-1,1350,1562,0,0
133,-538,0,0,0,0,0,0,0,0,0,-1,1357,1562,0,0
140,-538,0,0,0,0,0,0,0,0,0,-1,1364,1562,0,0
147,-538,0,0,0,0,0,0,0,0,0,-1,1371,1562,0,0
154,-538,0,0,0,0,0,0,0,0,0,-1,1378,1562,0,0
161,-538,0,0,0,0,0,0,0,0,0,-1,1385,1562,0,0
168,-538,0,0,0,0,0,0,0,0,0,-1,1392,1562,0,0
175,-538,0,0,0,0,0,0,0,0,0,-1,1399,1562,0,0
182,-538,0,0,0,0,0,0,0,0,0,-1,1406,1562,0,0
189,-538,0,0,0,0,0,0,0,0,0,-1,1413,1562,0,0
196,-538,0,0,0,0,0,0,0,0,0,-1,1420,1562,0,0
203,-538,0,0,0,0,0,0,0,0,0,-1,1427,1562,0,0
210,-538,0,0,0,0,0,0,0,0,0,-1,1434,1562,0,0
217,-538,0,0,0,0,0,0,0,0,0,-1,1441,1562,0,0
224,-538,0,0,0,0,0,0,0,0,0,-1,1448,1562,0,0
231,-538,0,0,0,0,0,0,0,0,0,-1,1455,1562,0,0
238,-538,0,0,0,0,0,0,0,0,0,-1,1462,1562,0,0
245,-538,0,0,0,0,0,0,0,0,0,-1,1469,1562,0,0
252,-538,0,0,0,0,0,0,0,0,0,-1,1476,1562,0,0
259,-538,0,0,0,0,0,0,0,0,0,-1,1483,1562,0,0
266,-538,0,0,0,0,0,0,0,0,0,-1,1490,1562,0,0
273,-538,0,0,0,0,0,0,0,0,0,-1,1497,1562,0,0
280,-538,0,0,0,0,0,0,0,0,0,-1,1504,1562,0,0
287,-538,0,0,0,0,0,0,0,0,0,-1,1511,1562,0,0
294,-538,0,0,0,0,0,0,0,0,0,-1,1518,1562,0,0
301,-538,0,0,0,0,0,0,0,0,0,-1,1525,1562,0,0
308,-538,0,0,0,0,0,0,0,0,0,-1,1532,1562,0,0
315,-538,0,0,0,0,0,0,0,0,0,-1,1539,1562,0,0
322,-538,0,0,0,0,0,0,0,0,0,-1,1546,1562,0,0
329,-538,0,0,0,0,0,0,0,0,0,-1,1553,1562,0,0
336,-538,0,0,0,0,0,0,0,0,0,-1,1560,1562,0,0
343,-538,0,0,0,0,0,0,0,0,0,-1,1567,1562,0,0
350,-538,0,0,0,0,0,0,0,0,0,-1,1574,1562,0,0
357,-538,0,0,0,0,0,0,0,0,0,-1,1581,1562,0,0
364,-538,0,0,0,0,0,0,0,0,0,-1,1588,1562,0,0
371,-538,0,0,0,0,0,0,0,0,0,-1,1595,1562,0,0
378,-538,9.65479,5.82434,0,0,0,0,0,0,0,-1,1602,1562,9.6548,-5.82439
385,-538,10.5449,7.9502,0,0,0,0,0,0,0,-1,1609,1562,10.5449,-7.95014
392,-538,8.20361,7.07214,0,0,0,0,0,0,0,-1,1616,1562,8.20362,-7.07211
399,-538,7.85425,4.70508,0,0,0,0,0,0,0,-1,1623,1562,7.85425,-4.70512
406,-538,7.77734,4.96094,0,0,0,0,0,0,0,-1,1630,1562,7.77729,-4.96097
413,-538,13.0446,13.1765,0,0,0,0,0,0,0,-1,1637,1562,13.0446,-13.1765
420,-538,9.96216,12.7653,0,0,0,0,0,0,0,-1,1644,1562,9.96221,-12.7653
427,-538,10.1732,14.5863,0,0,0,0,0,0,0,-1,1651,1562,10.1732,-14.5863
434,-538,9.64331,14.7745,0,0,0,0,0,0,0,-1,1658,1562,9.64326,-14.7746
441,-538,11.5039,20.5195,0,0,0,0,0,0,0,-1,1665,1562,11.5039,-20.5195
448,-538,12.8766,22.4932,0,0,0,0,0,0,0,-1,1672,1562,12.8766,-22.4932
455,-538,12.5693,17.4128,0,0,0,0,0,0,0,-1,1679,1562,12.5694,-17.4128
462,-538,12.1389,17.017,0,0,0,0,0,0,0,-1,1686,1562,12.1389,-17.017
469,-538,14.3802,16.6945,0,0,0,0,0,0,0,-1,1693,1562,14.3803,-16.6945
476,-538,13.724,19.0608,0,0,0,0,0,0,0,-1,1700,1562,13.724,-19.0608
483,-538,17.088,25.2936,0,0,0,0,0,0,0,-1,1707,1562,17.088,-25.2936
490,-538,18.662,27.4053,0,0,0,0,0,0,0,-1,1714,1562,18.662,-27.4053
497,-538,18.7883,26.8092,0.00917176,0.0113945,-0.00788561,0.0182467,0.0023196,-0.855407,0.0114697,0.0399894,1721,1562,18.7883,-26.8092
504,-538,18.9109,26.1334,0.00781438,0.00873064,-0.00654138,0.0148299,0.00171511,-0.820359,0.00936739,0.0165749,1728,1562,18.9108,-26.1335
511,-538,18.88,25.645,0.0064633,0.00679946,-0.00542996,0.0120639,0.00119882,-0.80087,0.00767429,0.00990696,1735,1562,18.88,-25.645
518,-538,18.8801,25.1475,0.00492858,0.00500978,-0.00402051,0.00898989,0.000948463,-0.790447,0.00570346,0.0111791,1742,1562,18.8801,-25.1475
525,-538,18.8752,24.6248,0.00343926,0.00350506,-0.00271158,0.00618393,0.000760383,-0.791464,0.00389399,0.0122407,1749,1562,18.8752,-24.6247
532,-538,18.8741,24.111,0.00209118,0.00224539,-0.00145139,0.00362172,0.000714848,-0.811937,0.00221499,0.0142833,1756,1562,18.8742,-24.111
539,-538,18.8405,23.6165,0.000948204,0.00117232,-0.000239065,0.00132428,0.000796236,-1.00456,0.000769784,0.0169966,1763,1562,18.8404,-23.6164
546,-538,18.7844,23.0754,-0.000151423,0.00011853,0.00101744,0.00100991,-0.0010428,0.851345,0.00118518,0.0170222,1770,1562,18.7844,-23.0754
553,-538,18.7795,22.5338,-0.00111509,-0.000810884,0.00224955,0.0012917,-0.00321768,0.819154,0.00268148,0.0272401,1777,1562,18.7796,-22.5338
560,-538,18.7474,22.083,-0.00173259,-0.00154437,0.00331298,0.00167584,-0.0049528,0.799597,0.00397988,0.0308203,1784,1562,18.7475,-22.083
567,-538,18.6946,21.5675,-0.0019701,-0.00200149,0.00410308,0.00211731,-0.0060889,0.783486,0.00491935,0.0229273,1791,1562,18.6945,-21.5675
574,-538,18.6471,21.0083,-0.00181491,-0.00227276,0.00464201,0.00260381,-0.00669148,0.76076,0.00553691,0.0266785,1798,1562,18.6471,-21.0083
581,-538,18.7113,20.4482,-0.000950985,-0.0021585,0.00460157,0.00308627,-0.00619575,0.720167,0.00545829,0.0376478,1805,1562,18.7113,-20.4483
588,-538,18.7909,19.8621,0,0,0,0,0,0,0,-1,1812,1562,18.7909,-19.862
595,-538,15.9808,16.0894,0,0,0,0,0,0,0,-1,1819,1562,15.9808,-16.0893
602,-538,10.314,8.94238,0,0,0,0,0,0,0,-1,1826,1562,10.314,-8.94238
609,-538,10.1046,7.05713,0,0,0,0,0,0,0,-1,1833,1562,10.1046,-7.05719
616,-538,9.92249,5.43506,0,0,0,0,0,0,0,-1,1840,1562,9.92254,-5.43507
623,-538,11.1711,4.31604,0,0,0,0,0,0,0,-1,1847,1562,11.1711,-4.316
630,-538,12.6112,2.61633,0,0,0,0,0,0,0,-1,1854,1562,12.6112,-2.61637
637,-538,0,0,0,0,0,0,0,0,0,-1,1861,1562,0,0
644,-538,0,0,0,0,0,0,0,0,0,-1,1868,1562,0,0
651,-538,0,0,0,0,0,0,0,0,0,-1,1875,1562,0,0
658,-538,0,0,0,0,0,0,0,0,0,-1,1882,1562,0,0
665,-538,0,0,0,0,0,0,0,0,0,-1,1889,1562,0,0
672,-538,0,0,0,0,0,0,0,0,0,-1,1896,1562,0,0
679,-538,0,0,0,0,0,0,0,0,0,-1,1903,1562,0,0
686,-538,0,0,0,0,0,0,0,0,0,-1,1910,1562,0,0
693,-538,0,0,0,0,0,0,0,0,0,-1,1917,1562,0,0
700,-538,0,0,0,0,0,0,0,0,0,-1,1924,1562,0,0
707,-538,0,0,0,0,0,0,0,0,0,-1,1931,1562,0,0
714,-538,0,0,0,0,0,0,0,0,0,-1,1938,1562,0,0
721,-538,0,0,0,0,0,0,0,0,0,-1,1945,1562,0,0
728,-538,0,0,0,0,0,0,0,0,0,-1,1952,1562,0,0
735,-538,0,0,0,0,0,0,0,0,0,-1,1959,1562,0,0
742,-538,0,0,0,0,0,0,0,0,0,-1,1966,1562,0,0
749,-538,0,0,0,0,0,0,0,0,0,-1,1973,1562,0,0
756,-538,0,0,0,0,0,0,0,0,0,-1,1980,1562,0,0
763,-538,0,0,0,0,0,0,0,0,0,-1,1987,1562,0,0
770,-538,0,0,0,0,0,0,0,0,0,-1,1994,1562,0,0
777,-538,0,0,0,0,0,0,0,0,0,-1,2001,1562,0,0
784,-538,0,0,0,0,0,0,0,0,0,-1,2008,1562,0,0
791,-538,0,0,0,0,0,0,0,0,0,-1,2015,1562,0,0
798,-538,0,0,0,0,0,0,0,0,0,-1,2022,1562,0,0
805,-538,0,0,0,0,0,0,0,0,0,-1,2029,1562,0,0
812,-538,0,0,0,0,0,0,0,0,0,-1,2036,1562,0,0
-700,-545,0,0,0,0,0,0,0,0,0,-1,524,1569,0,0
-693,-545,0,0,0,0,0,0,0,0,0,-1,531,1569,0,0
-686,-545,0,0,0,0,0,0,0,0,0,-1,538,1569,0,0
-679,-545,0,0,0,0,0,0,0,0,0,-1,545,1569,0,0
-672,-545,0,0,0,0,0,0,0,0,0,-1,552,1569,0,0
-665,-545,0,0,0,0,0,0,0,0,0,-1,559,1569,0,0
-658,-545,0,0,0,0,0,0,0,0,0,-1,566,1569,0,0
-651,-545,0,0,0,0,0,0,0,0,0,-1,573,1569,0,0
-644,-545,0,0,0,0,0,0,0,0,0,-1,580,1569,0,0
-637,-545,0,0,0,0,0,0,0,0,0,-1,587,1569,0,0
-630,-545,0,0,0,0,0,0,0,0,0,-1,594,1569,0,0
-623,-545,0,0,0,0,0,0,0,0,0,-1,601,1569,0,0
-616,-545,0,0,0,0,0,0,0,0,0,-1,608,1569,0,0
-609,-545,0,0,0,0,0,0,0,0,0,-1,615,1569,0,0
-602,-545,0,0,0,0,0,0,0,0,0,-1,622,1569,0,0
-595,-545,0,0,0,0,0,0,0,0,0,-1,629,1569,0,0
-588,-545,0,0,0,0,0,0,0,0,0,-1,636,1569,0,0
-581,-545,0,0,0,0,0,0,0,0,0,-1,643,1569,0,0
-574,-545,0,0,0,0,0,0,0,0,0,-1,650,1569,0,0
-567,-545,0,0,0,0,0,0,0,0,0,-1,657,1569,0,0
-560,-545,0,0,0,0,0,0,0,0,0,-1,664,1569,0,0
-553,-545,0,0,0,0,0,0,0,0,0,-1,671,1569,0,0
-546,-545,0,0,0,0,0,0,0,0,0,-1,678,1569,0,0
-539,-545,0,0,0,0,0,0,0,0,0,-1,685,1569,0,0
-532,-545,0,0,0,0,0,0,0,0,0,-1,692,1569,0,0
-525,-545,0,0,0,0,0,0,0,0,0,-1,699,1569,0,0
-518,-545,0,0,0,0,0,0,0,0,0,-1,706,1569,0,0
-511,-545,0,0,0,0,0,0,0,0,0,-1,713,1569,0,0
-504,-545,-3.55237,-2.5354,0,0,0,0,0,0,0,-1,720,1569,-3.55236,2.53545
-497,-545,2.26575,5.69214,0,0,0,0,0,0,0,-1,727,1569,2.26573,-5.6922
-490,-545,-2.17334,7.81396,0,0,0,0,0,0,0,-1,734,1569,-2.17334,-7.81399
-483,-545,-1.88336,5.8446,0,0,0,0,0,0,0,-1,741,1569,-1.88334,-5.84466
-476,-545,-1.13147,6.5741,0,0,0,0,0,0,0,-1,748,1569,-1.13149,-6.57405
-469,-545,-1.03412,15.8353,0,0,0,0,0,0,0,-1,755,1569,-1.03414,-15.8353
-462,-545,-1.39764,17.8739,0,0,0,0,0,0,0,-1,762,1569,-1.39763,-17.8739
-455,-545,-1.66278,18.3691,0,0,0,0,0,0,0,-1,769,1569,-1.66276,-18.3691
-448,-545,-1.62567,19.131,-0.00895027,0.00249716,-7.19184e-05,0.00249761,-0.00895072,-1.56451,0.0069509,0.0325412,776,1569,-1.6257,-19.131
-441,-545,-1.56451,19.9052,-0.00748407,0.00116579,-0.000574306,0.00120376,-0.00752204,-1.50479,0.00546035,0.0284,783,1569,-1.5645,-19.9052
-434,-545,-1.82324,20.3571,-0.00598232,0.000244338,-0.000747809,0.000332889,-0.00607087,-1.45293,0.00416265,0.0264765,790,1569,-1.82322,-20.3571
-427,-545,-1.77789,20.8829,-0.00452613,-0.000294019,-0.000429271,-0.000250916,-0.00456923,-1.47072,0.00296605,0.0204848,797,1569,-1.77786,-20.8829
-420,-545,-1.7616,21.4001,-0.00310967,0.000201893,-0.000292711,0.000227567,-0.00313534,-1.48331,0.00217006,0.0249168,804,1569,-1.76161,-21.4002
-413,-545,-1.80859,21.9321,-0.00178302,0.000247903,0.000178206,0.000263421,-0.00179854,1.48393,0.00129579,0.0247527,811,1569,-1.80858,-21.9322
-406,-545,-1.82648,22.5178,-0.000354252,0.000936117,0.000695522,0.00123962,-0.000657758,1.15933,0.00111249,0.0169583,818,1569,-1.82645,-22.5178
-399,-545,-1.83289,23.061,0.00079237,0.00192747,0.00134155,0.00281658,-9.67412e-05,0.98551,0.00191079,0.0117252,825,1569,-1.8329,-23.061
-392,-545,-1.85925,23.6019,0.00195368,0.00292695,0.00204098,0.00453851,0.000342123,0.90243,0.00291832,0.0121113,832,1569,-1.85922,-23.6019
-385,-545,-1.8902,24.1447,0.00325861,0.00398583,0.00268859,0.00633528,0.000909157,0.852612,0.00395545,0.0106674,839,1569,-1.8902,-24.1447
-378,-545,-1.92462,24.698,0.00456448,0.00511479,0.00330374,0.00815482,0.00152445,0.826945,0.00500637,0.0126561,846,1569,-1.92462,-24.698
-371,-545,-1.93573,25.2773,0.00591268,0.00632405,0.00395644,0.0100801,0.00215658,0.811369,0.00612904,0.0158844,853,1569,-1.93571,-25.2774
-364,-545,-1.94446,25.7747,0.00742663,0.00781008,0.00468081,0.0123031,0.00293362,0.805867,0.00742008,0.0111102,860,1569,-1.94446,-25.7746
-357,-545,-1.86127,26.4193,0.00917496,0.0094426,0.00542438,0.0147348,0.00388275,0.797731,0.00881863,0.0187625,867,1569,-1.86127,-26.4193
-350,-545,-1.79437,26.9792,0.0111997,0.0112985,0.00630817,0.0175575,0.00494073,0.789317,0.0104547,0.0295893,874,1569,-1.79437,-26.9792
-343,-545,-1.83289,27.4286,0.0134127,0.0132279,0.0073349,0.0206558,0.00598481,0.7791,0.0122721,0.0497353,881,1569,-1.8329,-27.4285
-336,-545,-1.7594,27.8575,0,0,0,0,0,0,0,-1,888,1569,-1.75939,-27.8575
-329,-545,-1.89148,27.7859,0,0,0,0,0,0,0,-1,895,1569,-1.89147,-27.7859
-322,-545,-2.08643,26.1931,0,0,0,0,0,0,0,-1,902,1569,-2.08642,-26.1931
-315,-545,-2.30347,26.2123,0,0,0,0,0,0,0,-1,909,1569,-2.30348,-26.2122
-308,-545,-1.54358,21.4457,0,0,0,0,0,0,0,-1,916,1569,-1.54357,-21.4457
-301,-545,1.52191,17.5009,0,0,0,0,0,0,0,-1,923,1569,1.52192,-17.5008
-294,-545,-2.69287,8.42102,0,0,0,0,0,0,0,-1,930,1569,-2.69287,-8.42097
-287,-545,-3.47784,9.96021,0,0,0,0,0,0,0,-1,937,1569,-3.47785,-9.96021
-280,-545,-3.7879,10.5448,0,0,0,0,0,0,0,-1,944,1569,-3.78793,-10.5448
-273,-545,-5.10333,12.864,0,0,0,0,0,0,0,-1,951,1569,-5.10331,-12.864
-266,-545,-5.78955,13.3704,0,0,0,0,0,0,0,-1,958,1569,-5.78952,-13.3703
-259,-545,-6.32184,13.8101,0,0,0,0,0,0,0,-1,965,1569,-6.32182,-13.81
-252,-545,0.369263,7.54053,0,0,0,0,0,0,0,-1,972,1569,0.369276,-7.54056
-245,-545,-0.236633,6.65564,0,0,0,0,0,0,0,-1,979,1569,-0.236605,-6.65566
-238,-545,0,0,0,0,0,0,0,0,0,-1,986,1569,0,0
-231,-545,0,0,0,0,0,0,0,0,0,-1,993,1569,0,0
-224,-545,0,0,0,0,0,0,0,0,0,-1,1000,1569,0,0
-217,-545,0,0,0,0,0,0,0,0,0,-1,1007,1569,0,0
-210,-545,0,0,0,0,0,0,0,0,0,-1,1014,1569,0,0
-203,-545,0,0,0,0,0,0,0,0,0,-1,1021,1569,0,0
-196,-545,0,0,0,0,0,0,0,0,0,-1,1028,1569,0,0
-189,-545,0,0,0,0,0,0,0,0,0,-1,1035,1569,0,0
-182,-545,0,0,0,0,0,0,0,0,0,-1,1042,1569,0,0
-175,-545,0,0,0,0,0,0,0,0,0,-1,1049,1569,0,0
-168,-545,0,0,0,0,0,0,0,0,0,-1,1056,1569,0,0
-161,-545,0,0,0,0,0,0,0,0,0,-1,1063,1569,0,0
-154,-545,0,0,0,0,0,0,0,0,0,-1,1070,1569,0,0
-147,-545,0,0,0,0,0,0,0,0,0,-1,1077,1569,0,0
-140,-545,0,0,0,0,0,0,0,0,0,-1,1084,1569,0,0
-133,-545,0,0,0,0,0,0,0,0,0,-1,1091,1569,0,0
-126,-545,0,0,0,0,0,0,0,0,0,-1,1098,1569,0,0
-119,-545,0,0,0,0,0,0,0,0,0,-1,1105,1569,0,0
-112,-545,0,0,0,0,0,0,0,0,0,-1,1112,1569,0,0
-105,-545,0,0,0,0,0,0,0,0,0,-1,1119,1569,0,0
-98,-545,0,0,0,0,0,0,0,0,0,-1,1126,1569,0,0
-91,-545,0,0,0,0,0,0,0,0,0,-1,1133,1569,0,0
-84,-545,0,0,0,0,0,0,0,0,0,-1,1140,1569,0,0
-77,-545,0,0,0,0,0,0,0,0,0,-1,1147,1569,0,0
-70,-545,0,0,0,0,0,0,0,0,0,-1,1154,1569,0,0
-63,-545,0,0,0,0,0,0,0,0,0,-1,1161,1569,0,0
-56,-545,0,0,0,0,0,0,0,0,0,-1,1168,1569,0,0
-49,-545,0,0,0,0,0,0,0,0,0,-1,1175,1569,0,0
-42,-545,0,0,0,0,0,0,0,0,0,-1,1182,1569,0,0
-35,-545,0,0,0,0,0,0,0,0,0,-1,1189,1569,0,0
-28,-545,0,0,0,0,0,0,0,0,0,-1,1196,1569,0,0
-21,-545,0,0,0,0,0,0,0,0,0,-1,1203,1569,0,0
-14,-545,0,0,0,0,0,0,0,0,0,-1,1210,1569,0,0
-7,-545,0,0,0,0,0,0,0,0,0,-1,1217,1569,0,0
0,-545,0,0,0,0,0,0,0,0,0,-1,1224,1569,0,0
7,-545,0,0,0,0,0,0,0,0,0,-1,1231,1569,0,0
14,-545,0,0,0,0,0,0,0,0,0,-1,1238,1569,0,0
21,-545,0,0,0,0,0,0,0,0,0,-1,1245,1569,0,0
28,-545,0,0,0,0,0,0,0,0,0,-1,1252,1569,0,0
35,-545,0,0,0,0,0,0,0,0,0,-1,1259,1569,0,0
42,-545,0,0,0,0,0,0,0,0,0,-1,1266,1569,0,0
49,-545,0,0,0,0,0,0,0,0,0,-1,1273,1569,0,0
56,-545,0,0,0,0,0,0,0,0,0,-1,1280,1569,0,0
63,-545,0,0,0,0,0,0,0,0,0,-1,1287,1569,0,0
70,-545,0,0,0,0,0,0,0,0,0,-1,1294,1569,0,0
77,-545,0,0,0,0,0,0,0,0,0,-1,1301,1569,0,0
84,-545,0,0,0,0,0,0,0,0,0,-1,1308,1569,0,0
91,-545,0,0,0,0,0,0,0,0,0,-1,1315,1569,0,0
98,-545,0,0,0,0,0,0,0,0,0,-1,1322,1569,0,0
105,-545,0,0,0,0,0,0,0,0,0,-1,1329,1569,0,0
112,-545,0,0,0,0,0,0,0,0,0,-1,1336,1569,0,0
119,-545,0,0,0,0,0,0,0,0,0,-1,1343,1569,0,0
126,-545,0,0,0,0,0,0,0,0,0,-1,1350,1569,0,0
133,-545,0,0,0,0,0,0,0,0,0,-1,1357,1569,0,0
140,-545,0,0,0,0,0,0,0,0,0,-1,1364,1569,0,0
147,-545,0,0,0,0,0,0,0,0,0,-1,1371,1569,0,0
154,-545,0,0,0,0,0,0,0,0,0,-1,1378,1569,0,0
161,-545,0,0,0,0,0,0,0,0,0,-1,1385,1569,0,0
168,-545,0,0,0,0,0,0,0,0,0,-1,1392,1569,0,0
175,-545,0,0,0,0,0,0,0,0,0,-1,1399,1569,0,0
182,-545,0,0,0,0,0,0,0,0,0,-1,1406,1569,0,0
189,-545,0,0,0,0,0,0,0,0,0,-1,1413,1569,0,0
196,-545,0,0,0,0,0,0,0,0,0,-1,1420,1569,0,0
203,-545,0,0,0,0,0,0,0,0,0,-1,1427,1569,0,0
210,-545,0,0,0,0,0,0,0,0,0,-1,1434,1569,0,0
217,-545,0,0,0,0,0,0,0,0,0,-1,1441,1569,0,0
224,-545,0,0,0,0,0,0,0,0,0,-1,1448,1569,0,0
231,-545,0,0,0,0,0,0,0,0,0,-1,1455,1569,0,0
238,-545,0,0,0,0,0,0,0,0,0,-1,1462,1569,0,0
245,-545,0,0,0,0,0,0,0,0,0,-1,1469,1569,0,0
252,-545,0,0,0,0,0,0,0,0,0,-1,1476,1569,0,0
259,-545,0,0,0,0,0,0,0,0,0,-1,1483,1569,0,0
266,-545,0,0,0,0,0,0,0,0,0,-1,1490,1569,0,0
273,-545,0,0,0,0,0,0,0,0,0,-1,1497,1569,0,0
280,-545,0,0,0,0,0,0,0,0,0,-1,1504,1569,0,0
287,-545,0,0,0,0,0,0,0,0,0,-1,1511,1569,0,0
294,-545,0,0,0,0,0,0,0,0,0,-1,1518,1569,0,0
301,-545,0,0,0,0,0,0,0,0,0,-1,1525,1569,0,0
308,-545,0,0,0,0,0,0,0,0,0,-1,1532,1569,0,0
315,-545,0,0,0,0,0,0,0,0,0,-1,1539,1569,0,0
322,-545,0,0,0,0,0,0,0,0,0,-1,1546,1569,0,0
329,-545,0,0,0,0,0,0,0,0,0,-1,1553,1569,0,0
336,-545,0,0,0,0,0,0,0,0,0,-1,1560,1569,0,0
343,-545,0,0,0,0,0,0,0,0,0,-1,1567,1569,0,0
350,-545,0,0,0,0,0,0,0,0,0,-1,1574,1569,0,0
357,-545,0,0,0,0,0,0,0,0,0,-1,1581,1569,0,0
364,-545,7.19495,4.88098,0,0,0,0,0,0,0,-1,1588,1569,7.19497,-4.88095
371,-545,7.82324,3.84302,0,0,0,0,0,0,0,-1,1595,1569,7.82324,-3.84307
378,-545,7.65674,5.52673,0,0,0,0,0,0,0,-1,1602,1569,7.6567,-5.52667
385,-545,8.58447,1.16125,0,0,0,0,0,0,0,-1,1609,1569,8.5845,-1.1612
392,-545,12.5654,3.89526,0,0,0,0,0,0,0,-1,1616,1569,12.5655,-3.89532
399,-545,11.5869,5.6333,0,0,0,0,0,0,0,-1,1623,1569,11.5869,-5.63326
406,-545,11.234,6.36414,0,0,0,0,0,0,0,-1,1630,1569,11.234,-6.3641
413,-545,12.1521,13.4817,0,0,0,0,0,0,0,-1,1637,1569,12.1521,-13.4817
420,-545,11.1954,13.6047,0,0,0,0,0,0,0,-1,1644,1569,11.1954,-13.6047
427,-545,9.61072,14.9135,0,0,0,0,0,0,0,-1,1651,1569,9.61076,-14.9134
434,-545,13.1598,23.9921,0,0,0,0,0,0,0,-1,1658,1569,13.1598,-23.992
441,-545,12.2833,22.2238,0,0,0,0,0,0,0,-1,1665,1569,12.2833,-22.2237
448,-545,13.0082,21.941,0,0,0,0,0,0,0,-1,1672,1569,13.0082,-21.941
455,-545,13.733,21.6583,0,0,0,0,0,0,0,-1,1679,1569,13.733,-21.6583
462,-545,12.449,20.7413,0,0,0,0,0,0,0,-1,1686,1569,12.4489,-20.7413
469,-545,12.7837,17.7919,0,0,0,0,0,0,0,-1,1693,1569,12.7837,-17.7919
476,-545,15.7562,24.8708,0,0,0,0,0,0,0,-1,1700,1569,15.7563,-24.8709
483,-545,18.2845,27.8491,0,0,0,0,0,0,0,-1,1707,1569,18.2846,-27.8491
490,-545,18.326,27.2382,0.00858859,0.0118567,-0.00785998,0.0182507,0.00219462,-0.887888,0.0115056,0.0293341,1714,1569,18.3261,-27.2382
497,-545,18.3557,26.7019,0.00720139,0.0092022,-0.00613337,0.0144162,0.00198738,-0.866241,0.00902162,0.0218309,1721,1569,18.3557,-26.7019
504,-545,18.4534,26.1626,0.00602921,0.00686014,-0.00494811,0.0114102,0.00147915,-0.827282,0.00716482,0.0154067,1728,1569,18.4534,-26.1625
511,-545,18.418,25.6554,0.00477127,0.0051501,-0.00388182,0.00884712,0.00107424,-0.809776,0.00557461,0.0118784,1735,1569,18.418,-25.6554
518,-545,18.3918,25.1415,0.00334207,0.00353908,-0.00258705,0.0060295,0.000851649,-0.804428,0.003768,0.0141073,1742,1569,18.3919,-25.1415
525,-545,18.3575,24.6256,0.00194131,0.00218673,-0.00133631,0.00340595,0.000722091,-0.831184,0.00207231,0.0143379,1749,1569,18.3575,-24.6256
532,-545,18.334,24.1138,0.000637765,0.00103971,-7.09265e-05,0.00105186,0.000625617,-1.40116,0.000610917,0.0147421,1756,1569,18.334,-24.1138
539,-545,18.3082,23.6134,-0.000549286,4.82701e-05,0.00122572,0.0010111,-0.00151211,0.904946,0.00146632,0.0178598,1763,1569,18.3083,-23.6134
546,-545,18.2638,23.0812,-0.00176695,-0.000952411,0.00265833,0.00132966,-0.00404902,0.86141,0.00323498,0.0193856,1770,1569,18.2638,-23.0812
553,-545,18.2682,22.5483,-0.00287538,-0.00183825,0.0041333,0.00180889,-0.00652252,0.847802,0.00506025,0.027355,1777,1569,18.2682,-22.5484
560,-545,18.2505,22.0085,-0.00368683,-0.00253258,0.00550489,0.00242535,-0.00864476,0.837627,0.00671915,0.0286076,1784,1569,18.2505,-22.0086
567,-545,18.1954,21.395,0,0,0,0,0,0,0,-1,1791,1569,18.1955,-21.395
574,-545,18.2767,20.8755,0,0,0,0,0,0,0,-1,1798,1569,18.2767,-20.8754
581,-545,18.2522,20.3479,0,0,0,0,0,0,0,-1,1805,1569,18.2522,-20.3479
588,-545,15.4786,16.7035,0,0,0,0,0,0,0,-1,1812,1569,15.4786,-16.7035
595,-545,10.2859,9.11218,0,0,0,0,0,0,0,-1,1819,1569,10.2858,-9.11215
602,-545,8.82117,6.32214,0,0,0,0,0,0,0,-1,1826,1569,8.82121,-6.32217
609,-545,10.2406,5.22351,0,0,0,0,0,0,0,-1,1833,1569,10.2406,-5.22353
616,-545,11.701,3.93188,0,0,0,0,0,0,0,-1,1840,1569,11.701,-3.93191
623,-545,13.2139,2.32043,0,0,0,0,0,0,0,-1,1847,1569,13.2139,-2.32042
630,-545,0,0,0,0,0,0,0,0,0,-1,1854,1569,0,0
637,-545,0,0,0,0,0,0,0,0,0,-1,1861,1569,0,0
644,-545,0,0,0,0,0,0,0,0,0,-1,1868,1569,0,0
651,-545,0,0,0,0,0,0,0,0,0,-1,1875,1569,0,0
658,-545,0,0,0,0,0,0,0,0,0,-1,1882,1569,0,0
665,-545,0,0,0,0,0,0,0,0,0,-1,1889,1569,0,0
672,-545,0,0,0,0,0,0,0,0,0,-1,1896,1569,0,0
679,-545,0,0,0,0,0,0,0,0,0,-1,1903,1569,0,0
686,-545,0,0,0,0,0,0,0,0,0,-1,1910,1569,0,0
693,-545,0,0,0,0,0,0,0,0,0,-1,1917,1569,0,0
700,-545,0,0,0,0,0,0,0,0,0,-1,1924,1569,0,0
707,-545,0,0,0,0,0,0,0,0,0,-1,1931,1569,0,0
714,-545,0,0,0,0,0,0,0,0,0,-1,1938,1569,0,0
721,-545,0,0,0,0,0,0,0,0,0,-1,1945,1569,0,0
728,-545,0,0,0,0,0,0,0,0,0,-1,1952,1569,0,0
735,-545,0,0,0,0,0,0,0,0,0,-1,1959,1569,0,0
742,-545,0,0,0,0,0,0,0,0,0,-1,1966,1569,0,0
749,-545,0,0,0,0,0,0,0,0,0,-1,1973,1569,0,0
756,-545,0,0,0,0,0,0,0,0,0,-1,1980,1569,0,0
763,-545,0,0,0,0,0,0,0,0,0,-1,1987,1569,0,0
770,-545,0,0,0,0,0,0,0,0,0,-1,1994,1569,0,0
777,-545,0,0,0,0,0,0,0,0,0,-1,2001,1569,0,0
784,-545,0,0,0,0,0,0,0,0,0,-1,2008,1569,0,0
791,-545,0,0,0,0,0,0,0,0,0,-1,2015,1569,0,0
798,-545,0,0,0,0,0,0,0,0,0,-1,2022,1569,0,0
805,-545,0,0,0,0,0,0,0,0,0,-1,2029,1569,0,0
812,-545,0,0,0,0,0,0,0,0,0,-1,2036,1569,0,0
-700,-552,0,0,0,0,0,0,0,0,0,-1,524,1576,0,0
-693,-552,0,0,0,0,0,0,0,0,0,-1,531,1576,0,0
-686,-552,0,0,0,0,0,0,0,0,0,-1,538,1576,0,0
-679,-552,0,0,0,0,0,0,0,0,0,-1,545,1576,0,0
-672,-552,0,0,0,0,0,0,0,0,0,-1,552,1576,0,0
-665,-552,0,0,0,0,0,0,0,0,0,-1,559,1576,0,0
-658,-552,0,0,0,0,0,0,0,0,0,-1,566,1576,0,0
-651,-552,0,0,0,0,0,0,0,0,0,-1,573,1576,0,0
-644,-552,0,0,0,0,0,0,0,0,0,-1,580,1576,0,0
-637,-552,0,0,0,0,0,0,0,0,0,-1,587,1576,0,0
-630,-552,0,0,0,0,0,0,0,0,0,-1,594,1576,0,0
-623,-552,0,0,0,0,0,0,0,0,0,-1,601,1576,0,0
-616,-552,0,0,0,0,0,0,0,0,0,-1,608,1576,0,0
-609,-552,0,0,0,0,0,0,0,0,0,-1,615,1576,0,0
-602,-552,0,0,0,0,0,0,0,0,0,-1,622,1576,0,0
-595,-552,0,0,0,0,0,0,0,0,0,-1,629,1576,0,0
-588,-552,0,0,0,0,0,0,0,0,0,-1,636,1576,0,0
-581,-552,0,0,0,0,0,0,0,0,0,-1,643,1576,0,0
-574,-552,0,0,0,0,0,0,0,0,0,-1,650,1576,0,0
-567,-552,0,0,0,0,0,0,0,0,0,-1,657,1576,0,0
-560,-552,0,0,0,0,0,0,0,0,0,-1,664,1576,0,0
-553,-552,0,0,0,0,0,0,0,0,0,-1,671,1576,0,0
-546,-552,0,0,0,0,0,0,0,0,0,-1,678,1576,0,0
-539,-552,0,0,0,0,0,0,0,0,0,-1,685,1576,0,0
-532,-552,0,0,0,0,0,0,0,0,0,-1,692,1576,0,0
-525,-552,0,0,0,0,0,0,0,0,0,-1,699,1576,0,0
-518,-552,0,0,0,0,0,0,0,0,0,-1,706,1576,0,0
-511,-552,0,0,0,0,0,0,0,0,0,-1,713,1576,0,0
-504,-552,0,0,0,0,0,0,0,0,0,-1,720,1576,0,0
-497,-552,1.51282,3.96924,0,0,0,0,0,0,0,-1,727,1576,1.5128,-3.96924
-490,-552,-3.82312,6.32104,0,0,0,0,0,0,0,-1,734,1576,-3.82314,-6.3211
-483,-552,-3.50586,6.47986,0,0,0,0,0,0,0,-1,741,1576,-3.50587,-6.47983
-476,-552,-1.95129,4.43054,0,0,0,0,0,0,0,-1,748,1576,-1.95128,-4.43054
-469,-552,-1.40491,7.9895,0,0,0,0,0,0,0,-1,755,1576,-1.40491,-7.98947
-462,-552,0.0459595,16.3469,0,0,0,0,0,0,0,-1,762,1576,0.0459611,-16.3469
-455,-552,-0.856689,17.3298,0,0,0,0,0,0,0,-1,769,1576,-0.85666,-17.3299
-448,-552,-1.17773,18.9324,0,0,0,0,0,0,0,-1,776,1576,-1.17774,-18.9323
-441,-552,-0.815979,19.7711,-0.009668,0.00180575,-0.000661244,0.00184374,-0.00970598,-1.51342,0.00716475,0.0482644,783,1576,-0.815962,-19.7711
-434,-552,-1.02026,20.5046,-0.00787473,0.000337348,-0.00103379,0.000465488,-0.00800287,-1.44747,0.00549698,0.0390131,790,1576,-1.02027,-20.5047
-427,-552,-1.26569,20.7997,-0.00618406,-0.000486155,-0.000843132,-0.000364013,-0.0063062,-1.42693,0.0040882,0.0333372,797,1576,-1.26567,-20.7997
-420,-552,-1.21698,21.4458,-0.00462241,-0.000229713,-0.000803612,-8.73145e-05,-0.00476481,-1.39542,0.00314784,0.024316,804,1576,-1.21697,-21.4457
-413,-552,-1.24036,21.9751,-0.00319576,-0.000413511,-0.000406081,-0.000355453,-0.00325382,-1.42879,0.00206097,0.0178965,811,1576,-1.24033,-21.975
-406,-552,-1.28198,22.5269,-0.00167999,6.45087e-05,6.45581e-06,6.45326e-05,-0.00168001,1.5671,0.00114213,0.0127847,818,1576,-1.28201,-22.5268
-399,-552,-1.2981,23.0667,-0.000511597,0.000890413,0.000562779,0.00108837,-0.000709552,1.23257,0.00104568,0.0135256,825,1576,-1.29809,-23.0666
-392,-552,-1.32391,23.616,0.00053977,0.00165062,0.00115336,0.00237533,-0.000184936,1.0098,0.00164866,0.0155512,832,1576,-1.32394,-23.616
-385,-552,-1.35522,24.1755,0.00179112,0.00248178,0.00170135,0.0038725,0.000400406,0.885525,0.00245909,0.0146305,839,1576,-1.35525,-24.1756
-378,-552,-1.36719,24.7108,0.0030211,0.00343448,0.00223646,0.00547378,0.000981802,0.831477,0.00336993,0.0164433,846,1576,-1.36719,-24.7108
-371,-552,-1.3728,25.2584,0.00420899,0.00438396,0.00274989,0.00704775,0.00154519,0.8013,0.0042775,0.0201241,853,1576,-1.3728,-25.2584
-364,-552,-1.38379,25.7781,0.00548206,0.00556625,0.00331361,0.00883803,0.00221027,0.791749,0.00531086,0.0153619,860,1576,-1.3838,-25.7781
-357,-552,-1.37842,26.303,0.00690612,0.0068442,0.00390164,0.0107769,0.0029734,0.781431,0.00642699,0.0105685,867,1576,-1.37841,-26.303
-350,-552,-1.35852,26.865,0.00854408,0.00822345,0.00460056,0.0129871,0.00378042,0.767982,0.00771319,0.013142,874,1576,-1.35851,-26.865
-343,-552,-1.35687,27.3783,0.0102843,0.0097161,0.00546341,0.015471,0.00452942,0.759421,0.00918435,0.0202317,881,1576,-1.35688,-27.3783
-336,-552,-1.32373,27.795,0,0,0,0,0,0,0,-1,888,1576,-1.32372,-27.7951
-329,-552,-1.04291,28.9835,0,0,0,0,0,0,0,-1,895,1576,-1.04293,-28.9836
-322,-552,-1.31458,25.5044,0,0,0,0,0,0,0,-1,902,1576,-1.31457,-25.5044
-315,-552,-0.605347,28.994,0,0,0,0,0,0,0,-1,909,1576,-0.605331,-28.9941
-308,-552,-1.01624,30.3169,0,0,0,0,0,0,0,-1,916,1576,-1.01624,-30.3169
-301,-552,1.39453,18.4995,0,0,0,0,0,0,0,-1,923,1576,1.3945,-18.4995
-294,-552,0.842163,13.7863,0,0,0,0,0,0,0,-1,930,1576,0.842149,-13.7863
-287,-552,-0.663757,13.3474,0,0,0,0,0,0,0,-1,937,1576,-0.663744,-13.3474
-280,-552,-5.47241,8.96765,0,0,0,0,0,0,0,-1,944,1576,-5.47239,-8.96766
-273,-552,1.64587,10.6685,0,0,0,0,0,0,0,-1,951,1576,1.6459,-10.6685
-266,-552,-1.32678,8.05688,0,0,0,0,0,0,0,-1,958,1576,-1.32677,-8.05683
-259,-552,-5.54321,8.31213,0,0,0,0,0,0,0,-1,965,1576,-5.54324,-8.31214
-252,-552,-1.93445,7.81543,0,0,0,0,0,0,0,-1,972,1576,-1.93445,-7.81546
-245,-552,-2.53613,6.92212,0,0,0,0,0,0,0,-1,979,1576,-2.53614,-6.92216
-238,-552,-6.5365,2.81885,0,0,0,0,0,0,0,-1,986,1576,-6.53649,-2.8188
-231,-552,-4.32239,4.34583,0,0,0,0,0,0,0,-1,993,1576,-4.32239,-4.34587
-224,-552,0,0,0,0,0,0,0,0,0,-1,1000,1576,0,0
-217,-552,0,0,0,0,0,0,0,0,0,-1,1007,1576,0,0
-210,-552,0,0,0,0,0,0,0,0,0,-1,1014,1576,0,0
-203,-552,0,0,0,0,0,0,0,0,0,-1,1021,1576,0,0
-196,-552,0,0,0,0,0,0,0,0,0,-1,1028,1576,0,0
-189,-552,0,0,0,0,0,0,0,0,0,-1,1035,1576,0,0
-182,-552,0,0,0,0,0,0,0,0,0,-1,1042,1576,0,0
-175,-552,0,0,0,0,0,0,0,0,0,-1,1049,1576,0,0
-168,-552,0,0,0,0,0,0,0,0,0,-1,1056,1576,0,0
-161,-552,0,0,0,0,0,0,0,0,0,-1,1063,1576,0,0
-154,-552,0,0,0,0,0,0,0,0,0,-1,1070,1576,0,0
-147,-552,0,0,0,0,0,0,0,0,0,-1,1077,1576,0,0
-140,-552,0,0,0,0,0,0,0,0,0,-1,1084,1576,0,0
-133,-552,0,0,0,0,0,0,0,0,0,-1,1091,1576,0,0
-126,-552,0,0,0,0,0,0,0,0,0,-1,1098,1576,0,0
-119,-552,0,0,0,0,0,0,0,0,0,-1,1105,1576,0,0
-112,-552,0,0,0,0,0,0,0,0,0,-1,1112,1576,0,0
-105,-552,0,0,0,0,0,0,0,0,0,-1,1119,1576,0,0
-98,-552,0,0,0,0,0,0,0,0,0,-1,1126,1576,0,0
-91,-552,0,0,0,0,0,0,0,0,0,-1,1133,1576,0,0
-84,-552,0,0,0,0,0,0,0,0,0,-1,1140,1576,0,0
-77,-552,0,0,0,0,0,0,0,0,0,-1,1147,1576,0,0
-70,-552,0,0,0,0,0,0,0,0,0,-1,1154,1576,0,0
-63,-552,0,0,0,0,0,0,0,0,0,-1,1161,1576,0,0
-56,-552,0,0,0,0,0,0,0,0,0,-1,1168,1576,0,0
-49,-552,0,0,0,0,0,0,0,0,0,-1,1175,1576,0,0
-42,-552,0,0,0,0,0,0,0,0,0,-1,1182,1576,0,0
-35,-552,0,0,0,0,0,0,0,0,0,-1,1189,1576,0,0
-28,-552,0,0,0,0,0,0,0,0,0,-1,1196,1576,0,0
-21,-552,0,0,0,0,0,0,0,0,0,-1,1203,1576,0,0
-14,-552,0,0,0,0,0,0,0,0,0,-1,1210,1576,0,0
-7,-552,0,0,0,0,0,0,0,0,0,-1,1217,1576,0,0
0,-552,0,0,0,0,0,0,0,0,0,-1,1224,1576,0,0
7,-552,0,0,0,0,0,0,0,0,0,-1,1231,1576,0,0
14,-552,0,0,0,0,0,0,0,0,0,-1,1238,1576,0,0
21,-552,0,0,0,0,0,0,0,0,0,-1,1245,1576,0,0
28,-552,0,0,0,0,0,0,0,0,0,-1,1252,1576,0,0
35,-552,0,0,0,0,0,0,0,0,0,-1,1259,1576,0,0
42,-552,0,0,0,0,0,0,0,0,0,-1,1266,1576,0,0
49,-552,0,0,0,0,0,0,0,0,0,-1,1273,1576,0,0
56,-552,0,0,0,0,0,0,0,0,0,-1,1280,1576,0,0
63,-552,0,0,0,0,0,0,0,0,0,-1,1287,1576,0,0
70,-552,0,0,0,0,0,0,0,0,0,-1,1294,1576,0,0
77,-552,0,0,0,0,0,0,0,0,0,-1,1301,1576,0,0
84,-552,0,0,0,0,0,0,0,0,0,-1,1308,1576,0,0
91,-552,0,0,0,0,0,0,0,0,0,-1,1315,1576,0,0
98,-552,0,0,0,0,0,0,0,0,0,-1,1322,1576,0,0
105,-552,0,0,0,0,0,0,0,0,0,-1,1329,1576,0,0
112,-552,0,0,0,0,0,0,0,0,0,-1,1336,1576,0,0
119,-552,0,0,0,0,0,0,0,0,0,-1,1343,1576,0,0
126,-552,0,0,0,0,0,0,0,0,0,-1,1350,1576,0,0
133,-552,0,0,0,0,0,0,0,0,0,-1,1357,1576,0,0
140,-552,0,0,0,0,0,0,0,0,0,-1,1364,1576,0,0
147,-552,0,0,0,0,0,0,0,0,0,-1,1371,1576,0,0
154,-552,0,0,0,0,0,0,0,0,0,-1,1378,1576,0,0
161,-552,0,0,0,0,0,0,0,0,0,-1,1385,1576,0,0
168,-552,0,0,0,0,0,0,0,0,0,-1,1392,1576,0,0
175,-552,0,0,0,0,0,0,0,0,0,-1,1399,1576,0,0
182,-552,0,0,0,0,0,0,0,0,0,-1,1406,1576,0,0
189,-552,0,0,0,0,0,0,0,0,0,-1,1413,1576,0,0
196,-552,0,0,0,0,0,0,0,0,0,-1,1420,1576,0,0
203,-552,0,0,0,0,0,0,0,0,0,-1,1427,1576,0,0
210,-552,0,0,0,0,0,0,0,0,0,-1,1434,1576,0,0
217,-552,0,0,0,0,0,0,0,0,0,-1,1441,1576,0,0
224,-552,0,0,0,0,0,0,0,0,0,-1,1448,1576,0,0
231,-552,0,0,0,0,0,0,0,0,0,-1,1455,1576,0,0
238,-552,0,0,0,0,0,0,0,0,0,-1,1462,1576,0,0
245,-552,0,0,0,0,0,0,0,0,0,-1,1469,1576,0,0
252,-552,0,0,0,0,0,0,0,0,0,-1,1476,1576,0,0
259,-552,0,0,0,0,0,0,0,0,0,-1,1483,1576,0,0
266,-552,0,0,0,0,0,0,0,0,0,-1,1490,1576,0,0
273,-552,0,0,0,0,0,0,0,0,0,-1,1497,1576,0,0
280,-552,0,0,0,0,0,0,0,0,0,-1,1504,1576,0,0
287,-552,0,0,0,0,0,0,0,0,0,-1,1511,1576,0,0
294,-552,0,0,0,0,0,0,0,0,0,-1,1518,1576,0,0
301,-552,0,0,0,0,0,0,0,0,0,-1,1525,1576,0,0
308,-552,0,0,0,0,0,0,0,0,0,-1,1532,1576,0,0
315,-552,0,0,0,0,0,0,0,0,0,-1,1539,1576,0,0
322,-552,0,0,0,0,0,0,0,0,0,-1,1546,1576,0,0
329,-552,0,0,0,0,0,0,0,0,0,-1,1553,1576,0,0
336,-552,0,0,0,0,0,0,0,0,0,-1,1560,1576,0,0
343,-552,0,0,0,0,0,0,0,0,0,-1,1567,1576,0,0
350,-552,4.97876,4.09888,0,0,0,0,0,0,0,-1,1574,1576,4.97875,-4.09883
357,-552,5.18469,4.10706,0,0,0,0,0,0,0,-1,1581,1576,5.1847,-4.10702
364,-552,5.80872,5.07031,0,0,0,0,0,0,0,-1,1588,1576,5.80874,-5.07037
371,-552,7.10657,5.64783,0,0,0,0,0,0,0,-1,1595,1576,7.10651,-5.64786
378,-552,6.44446,4.91492,0,0,0,0,0,0,0,-1,1602,1576,6.44448,-4.91496
385,-552,12.8276,3.16504,0,0,0,0,0,0,0,-1,1609,1576,12.8276,-3.16503
392,-552,12.1301,4.3363,0,0,0,0,0,0,0,-1,1616,1576,12.1302,-4.33631
399,-552,11.3486,5.6012,0,0,0,0,0,0,0,-1,1623,1576,11.3486,-5.60115
406,-552,10.7863,6.42542,0,0,0,0,0,0,0,-1,1630,1576,10.7863,-6.42536
413,-552,8.39307,10.365,0,0,0,0,0,0,0,-1,1637,1576,8.3931,-10.365
420,-552,10.2306,12.7225,0,0,0,0,0,0,0,-1,1644,1576,10.2305,-12.7226
427,-552,9.73267,14.783,0,0,0,0,0,0,0,-1,1651,1576,9.73269,-14.783
434,-552,12.0377,20.1364,0,0,0,0,0,0,0,-1,1658,1576,12.0377,-20.1364
441,-552,12.4963,21.5277,0,0,0,0,0,0,0,-1,1665,1576,12.4964,-21.5277
448,-552,12.9141,21.5482,0,0,0,0,0,0,0,-1,1672,1576,12.9141,-21.5482
455,-552,13.3318,21.5687,0,0,0,0,0,0,0,-1,1679,1576,13.3317,-21.5687
462,-552,12.745,20.5947,0,0,0,0,0,0,0,-1,1686,1576,12.745,-20.5947
469,-552,17.3148,29.0583,0,0,0,0,0,0,0,-1,1693,1576,17.3148,-29.0583
476,-552,17.7549,28.4082,0,0,0,0,0,0,0,-1,1700,1576,17.7548,-28.4082
483,-552,17.9741,27.6117,0.0074798,0.0124451,-0.00762984,0.0179861,0.00193886,-0.942689,0.0113995,0.0345779,1707,1576,17.9741,-27.6117
490,-552,17.8882,27.149,0.00676432,0.00980703,-0.00620289,0.0146724,0.00189893,-0.905657,0.00921409,0.0148777,1714,1576,17.8882,-27.149
497,-552,17.9316,26.6654,0.00560798,0.00744035,-0.00477057,0.0113819,0.00166641,-0.880268,0.00709798,0.021832,1721,1576,17.9317,-26.6654
504,-552,17.9524,26.1796,0.00451439,0.00530143,-0.00365874,0.00858775,0.00122807,-0.83897,0.00536289,0.0229734,1728,1576,17.9524,-26.1796
511,-552,17.9263,25.6475,0.00327258,0.00370598,-0.00255431,0.00605276,0.000925791,-0.827715,0.00376472,0.0174945,1735,1576,17.9262,-25.6474
518,-552,17.9049,25.1294,0.00188894,0.00219553,-0.00130657,0.00335777,0.000726704,-0.843794,0.00203989,0.0157792,1742,1576,17.9049,-25.1294
525,-552,17.8507,24.6449,0.000499161,0.000927999,-4.4768e-05,0.000932623,0.000494537,-1.46788,0.000538779,0.015155,1749,1576,17.8507,-24.6449
532,-552,17.83,24.1479,-0.000851683,-0.000164044,0.00130474,0.000841421,-0.00185715,0.914227,0.00159438,0.0153906,1756,1576,17.83,-24.1479
539,-552,17.8015,23.6344,-0.00219512,-0.00112626,0.00278587,0.00117598,-0.00449735,0.880165,0.00345754,0.0195215,1763,1576,17.8015,-23.6344
546,-552,17.767,23.1174,-0.00365636,-0.00210446,0.0045129,0.00169871,-0.00745953,0.870536,0.00562541,0.0239338,1770,1576,17.767,-23.1175
553,-552,17.8021,22.5845,-0.00505696,-0.00297329,0.00638571,0.00245502,-0.0104853,0.866261,0.00793612,0.0267109,1777,1576,17.8021,-22.5844
560,-552,17.769,22.125,-0.00626259,-0.0036486,0.00827491,0.0034219,-0.0133331,0.863725,0.0102221,0.0419885,1784,1576,17.769,-22.125
567,-552,17.7759,21.3837,0,0,0,0,0,0,0,-1,1791,1576,17.7759,-21.3836
574,-552,12.8835,14.8463,0,0,0,0,0,0,0,-1,1798,1576,12.8836,-14.8463
581,-552,9.74841,9.98645,0,0,0,0,0,0,0,-1,1805,1576,9.74847,-9.9864
588,-552,10.5619,9.34924,0,0,0,0,0,0,0,-1,1812,1576,10.5619,-9.34921
595,-552,5.36194,6.62744,0,0,0,0,0,0,0,-1,1819,1576,5.36193,-6.62742
602,-552,10.6863,4.31616,0,0,0,0,0,0,0,-1,1826,1576,10.6862,-4.31619
609,-552,12.146,3.18286,0,0,0,0,0,0,0,-1,1833,1576,12.1459,-3.18281
616,-552,13.8762,2.08167,0,0,0,0,0,0,0,-1,1840,1576,13.8763,-2.08167
623,-552,0,0,0,0,0,0,0,0,0,-1,1847,1576,0,0
630,-552,0,0,0,0,0,0,0,0,0,-1,1854,1576,0,0
637,-552,0,0,0,0,0,0,0,0,0,-1,1861,1576,0,0
644,-552,0,0,0,0,0,0,0,0,0,-1,1868,1576,0,0
651,-552,0,0,0,0,0,0,0,0,0,-1,1875,1576,0,0
658,-552,0,0,0,0,0,0,0,0,0,-1,1882,1576,0,0
665,-552,0,0,0,0,0,0,0,0,0,-1,1889,1576,0,0
672,-552,0,0,0,0,0,0,0,0,0,-1,1896,1576,0,0
679,-552,0,0,0,0,0,0,0,0,0,-1,1903,1576,0,0
686,-552,0,0,0,0,0,0,0,0,0,-1,1910,1576,0,0
693,-552,0,0,0,0,0,0,0,0,0,-1,1917,1576,0,0
700,-552,0,0,0,0,0,0,0,0,0,-1,1924,1576,0,0
707,-552,0,0,0,0,0,0,0,0,0,-1,1931,1576,0,0
714,-552,0,0,0,0,0,0,0,0,0,-1,1938,1576,0,0
721,-552,0,0,0,0,0,0,0,0,0,-1,1945,1576,0,0
728,-552,0,0,0,0,0,0,0,0,0,-1,1952,1576,0,0
735,-552,0,0,0,0,0,0,0,0,0,-1,1959,1576,0,0
742,-552,0,0,0,0,0,0,0,0,0,-1,1966,1576,0,0
749,-552,0,0,0,0,0,0,0,0,0,-1,1973,1576,0,0
756,-552,0,0,0,0,0,0,0,0,0,-1,1980,1576,0,0
763,-552,0,0,0,0,0,0,0,0,0,-1,1987,1576,0,0
770,-552,0,0,0,0,0,0,0,0,0,-1,1994,1576,0,0
777,-552,0,0,0,0,0,0,0,0,0,-1,2001,1576,0,0
784,-552,0,0,0,0,0,0,0,0,0,-1,2008,1576,0,0
791,-552,0,0,0,0,0,0,0,0,0,-1,2015,1576,0,0
798,-552,0,0,0,0,0,0,0,0,0,-1,2022,1576,0,0
805,-552,0,0,0,0,0,0,0,0,0,-1,2029,1576,0,0
812,-552,0,0,0,0,0,0,0,0,0,-1,2036,1576,0,0
-700,-559,0,0,0,0,0,0,0,0,0,-1,524,1583,0,0
-693,-559,0,0,0,0,0,0,0,0,0,-1,531,1583,0,0
-686,-559,0,0,0,0,0,0,0,0,0,-1,538,1583,0,0
-679,-559,0,0,0,0,0,0,0,0,0,-1,545,1583,0,0
-672,-559,0,0,0,0,0,0,0,0,0,-1,552,1583,0,0
-665,-559,0,0,0,0,0,0,0,0,0,-1,559,1583,0,0
-658,-559,0,0,0,0,0,0,0,0,0,-1,566,1583,0,0
-651,-559,0,0,0,0,0,0,0,0,0,-1,573,1583,0,0
-644,-559,0,0,0,0,0,0,0,0,0,-1,580,1583,0,0
-637,-559,0,0,0,0,0,0,0,0,0,-1,587,1583,0,0
-630,-559,0,0,0,0,0,0,0,0,0,-1,594,1583,0,0
-623,-559,0,0,0,0,0,0,0,0,0,-1,601,1583,0,0
-616,-559,0,0,0,0,0,0,0,0,0,-1,608,1583,0,0
-609,-559,0,0,0,0,0,0,0,0,0,-1,615,1583,0,0
-602,-559,0,0,0,0,0,0,0,0,0,-1,622,1583,0,0
-595,-559,0,0,0,0,0,0,0,0,0,-1,629,1583,0,0
-588,-559,0,0,0,0,0,0,0,0,0,-1,636,1583,0,0
-581,-559,0,0,0,0,0,0,0,0,0,-1,643,1583,0,0
-574,-559,0,0,0,0,0,0,0,0,0,-1,650,1583,0,0
-567,-559,0,0,0,0,0,0,0,0,0,-1,657,1583,0,0
-560,-559,0,0,0,0,0,0,0,0,0,-1,664,1583,0,0
-553,-559,0,0,0,0,0,0,0,0,0,-1,671,1583,0,0
-546,-559,0,0,0,0,0,0,0,0,0,-1,678,1583,0,0
-539,-559,0,0,0,0,0,0,0,0,0,-1,685,1583,0,0
-532,-559,0,0,0,0,0,0,0,0,0,-1,692,1583,0,0
-525,-559,0,0,0,0,0,0,0,0,0,-1,699,1583,0,0
-518,-559,0,0,0,0,0,0,0,0,0,-1,706,1583,0,0
-511,-559,0,0,0,0,0,0,0,0,0,-1,713,1583,0,0
-504,-559,0,0,0,0,0,0,0,0,0,-1,720,1583,0,0
-497,-559,0,0,0,0,0,0,0,0,0,-1,727,1583,0,0
-490,-559,-5.49835,4.47424,0,0,0,0,0,0,0,-1,734,1583,-5.49833,-4.4743
-483,-559,-5.24078,4.74561,0,0,0,0,0,0,0,-1,741,1583,-5.24079,-4.74563
-476,-559,-4.98022,4.99316,0,0,0,0,0,0,0,-1,748,1583,-4.98024,-4.99321
-469,-559,-4.6424,5.38062,0,0,0,0,0,0,0,-1,755,1583,-4.64237,-5.38058
-462,-559,-0.161865,6.49438,0,0,0,0,0,0,0,-1,762,1583,-0.161835,-6.49444
-455,-559,1.08826,7.02527,0,0,0,0,0,0,0,-1,769,1583,1.08823,-7.02529
-448,-559,-1.20264,17.3962,0,0,0,0,0,0,0,-1,776,1583,-1.20264,-17.3963
-441,-559,0.0883789,20.3408,0,0,0,0,0,0,0,-1,783,1583,0.088366,-20.3408
-434,-559,-0.377686,20.6469,-0.00994503,0.000691629,-0.00107838,0.000799858,-0.0100533,-1.47077,0.00698408,0.0468995,790,1583,-0.377715,-20.6469
-427,-559,-0.59729,21.0411,-0.00788822,-0.000431762,-0.00102068,-0.00029457,-0.00802541,-1.43718,0.00525483,0.0426887,797,1583,-0.597304,-21.0412
-420,-559,-0.78833,21.4354,-0.00611677,-0.000465627,-0.00110001,-0.000259059,-0.00632333,-1.38517,0.00413191,0.0469457,804,1583,-0.788355,-21.4354
-413,-559,-0.731567,22.0184,-0.00457243,-0.000828687,-0.000791501,-0.000668226,-0.00473289,-1.37078,0.00295779,0.0174438,811,1583,-0.731567,-22.0185
-406,-559,-0.744385,22.5698,-0.00296656,-0.000555709,-0.000488629,-0.00046044,-0.00306183,-1.37824,0.00190637,0.00962549,818,1583,-0.744361,-22.5698
-399,-559,-0.762817,23.1035,-0.00175738,9.50654e-05,-2.3014e-05,9.53512e-05,-0.00175767,-1.55838,0.00120482,0.013264,825,1583,-0.76283,-23.1035
-392,-559,-0.783752,23.6431,-0.000778711,0.000636509,0.000464654,0.000775431,-0.000917632,1.28028,0.000978639,0.016715,832,1583,-0.783737,-23.6431
-385,-559,-0.821899,24.2086,0.000442178,0.00128474,0.000931662,0.00188594,-0.000159024,0.997731,0.00131351,0.0167691,839,1583,-0.821913,-24.2087
-378,-559,-0.823364,24.7456,0.00162695,0.00210819,0.00140503,0.00329305,0.000442086,0.870203,0.00206385,0.0157764,846,1583,-0.823361,-24.7456
-371,-559,-0.853027,25.287,0.00270853,0.00285589,0.00180368,0.0045874,0.000977027,0.805812,0.0027902,0.02306,853,1583,-0.853015,-25.287
-364,-559,-0.852539,25.7736,0.00382099,0.00378065,0.00223852,0.00603943,0.00156221,0.780894,0.00361972,0.0203773,860,1583,-0.852533,-25.7735
-357,-559,-0.861389,26.3136,0.00503303,0.00477427,0.00269933,0.00760607,0.00220123,0.761452,0.00451934,0.01262,867,1583,-0.861376,-26.3136
-350,-559,-0.860901,26.829,0.0064359,0.00578324,0.00324977,0.00937569,0.00284346,0.735358,0.00555095,0.0104081,874,1583,-0.860887,-26.829
-343,-559,-0.864624,27.3451,0.00789656,0.00695766,0.00398148,0.0114362,0.00341805,0.726714,0.00677838,0.0112727,881,1583,-0.86462,-27.3452
-336,-559,-0.899353,27.8668,0,0,0,0,0,0,0,-1,888,1583,-0.899365,-27.8669
-329,-559,-0.786072,28.5997,0,0,0,0,0,0,0,-1,895,1583,-0.786056,-28.5998
-322,-559,-0.35498,29.4565,0,0,0,0,0,0,0,-1,902,1583,-0.355001,-29.4565
-315,-559,-0.659607,29.1698,0,0,0,0,0,0,0,-1,909,1583,-0.659577,-29.1698
-308,-559,-0.755493,30.4624,0,0,0,0,0,0,0,-1,916,1583,-0.755509,-30.4625
-301,-559,-1.22174,31.0372,0,0,0,0,0,0,0,-1,923,1583,-1.22176,-31.0372
-294,-559,0.945129,18.5165,0,0,0,0,0,0,0,-1,930,1583,0.945117,-18.5165
-287,-559,-0.11792,15.4912,0,0,0,0,0,0,0,-1,937,1583,-0.117939,-15.4912
-280,-559,0.191467,13.5093,0,0,0,0,0,0,0,-1,944,1583,0.191441,-13.5093
-273,-559,2.12836,10.3059,0,0,0,0,0,0,0,-1,951,1583,2.12839,-10.3059
-266,-559,-0.597046,6.68933,0,0,0,0,0,0,0,-1,958,1583,-0.597031,-6.68937
-259,-559,-7.00311,8.62756,0,0,0,0,0,0,0,-1,965,1583,-7.00312,-8.6275
-252,-559,-9.4483,2.87805,0,0,0,0,0,0,0,-1,972,1583,-9.44829,-2.87805
-245,-559,-4.80804,7.1803,0,0,0,0,0,0,0,-1,979,1583,-4.80804,-7.18027
-238,-559,-8.45764,2.54858,0,0,0,0,0,0,0,-1,986,1583,-8.45763,-2.54862
-231,-559,-5.86914,4.34021,0,0,0,0,0,0,0,-1,993,1583,-5.86914,-4.34019
-224,-559,-3.30505,6.22864,0,0,0,0,0,0,0,-1,1000,1583,-3.30505,-6.22859
-217,-559,0,0,0,0,0,0,0,0,0,-1,1007,1583,0,0
-210,-559,0,0,0,0,0,0,0,0,0,-1,1014,1583,0,0
-203,-559,0,0,0,0,0,0,0,0,0,-1,1021,1583,0,0
-196,-559,0,0,0,0,0,0,0,0,0,-1,1028,1583,0,0
-189,-559,0,0,0,0,0,0,0,0,0,-1,1035,1583,0,0
-182,-559,0,0,0,0,0,0,0,0,0,-1,1042,1583,0,0
-175,-559,0,0,0,0,0,0,0,0,0,-1,1049,1583,0,0
-168,-559,0,0,0,0,0,0,0,0,0,-1,1056,1583,0,0
-161,-559,0,0,0,0,0,0,0,0,0,-1,1063,1583,0,0
-154,-559,0,0,0,0,0,0,0,0,0,-1,1070,1583,0,0
-147,-559,0,0,0,0,0,0,0,0,0,-1,1077,1583,0,0
-140,-559,0,0,0,0,0,0,0,0,0,-1,1084,1583,0,0
-133,-559,0,0,0,0,0,0,0,0,0,-1,1091,1583,0,0
-126,-559,0,0,0,0,0,0,0,0,0,-1,1098,1583,0,0
-119,-559,0,0,0,0,0,0,0,0,0,-1,1105,1583,0,0
-112,-559,0,0,0,0,0,0,0,0,0,-1,1112,1583,0,0
-105,-559,0,0,0,0,0,0,0,0,0,-1,1119,1583,0,0
-98,-559,0,0,0,0,0,0,0,0,0,-1,1126,1583,0,0
-91,-559,0,0,0,0,0,0,0,0,0,-1,1133,1583,0,0
-84,-559,0,0,0,0,0,0,0,0,0,-1,1140,1583,0,0
-77,-559,0,0,0,0,0,0,0,0,0,-1,1147,1583,0,0
-70,-559,0,0,0,0,0,0,0,0,0,-1,1154,1583,0,0
-63,-559,0,0,0,0,0,0,0,0,0,-1,1161,1583,0,0
-56,-559,0,0,0,0,0,0,0,0,0,-1,1168,1583,0,0
-49,-559,0,0,0,0,0,0,0,0,0,-1,1175,1583,0,0
-42,-559,0,0,0,0,0,0,0,0,0,-1,1182,1583,0,0
-35,-559,0,0,0,0,0,0,0,0,0,-1,1189,1583,0,0
-28,-559,0,0,0,0,0,0,0,0,0,-1,1196,1583,0,0
-21,-559,0,0,0,0,0,0,0,0,0,-1,1203,1583,0,0
-14,-559,0,0,0,0,0,0,0,0,0,-1,1210,1583,0,0
-7,-559,0,0,0,0,0,0,0,0,0,-1,1217,1583,0,0
0,-559,0,0,0,0,0,0,0,0,0,-1,1224,1583,0,0
7,-559,0,0,0,0,0,0,0,0,0,-1,1231,1583,0,0
14,-559,0,0,0,0,0,0,0,0,0,-1,1238,1583,0,0
21,-559,0,0,0,0,0,0,0,0,0,-1,1245,1583,0,0
28,-559,0,0,0,0,0,0,0,0,0,-1,1252,1583,0,0
35,-559,0,0,0,0,0,0,0,0,0,-1,1259,1583,0,0
42,-559,0,0,0,0,0,0,0,0,0,-1,1266,1583,0,0
49,-559,0,0,0,0,0,0,0,0,0,-1,1273,1583,0,0
56,-559,0,0,0,0,0,0,0,0,0,-1,1280,1583,0,0
63,-559,0,0,0,0,0,0,0,0,0,-1,1287,1583,0,0
70,-559,0,0,0,0,0,0,0,0,0,-1,1294,1583,0,0
77,-559,0,0,0,0,0,0,0,0,0,-1,1301,1583,0,0
84,-559,0,0,0,0,0,0,0,0,0,-1,1308,1583,0,0
91,-559,0,0,0,0,0,0,0,0,0,-1,1315,1583,0,0
98,-559,0,0,0,0,0,0,0,0,0,-1,1322,1583,0,0
105,-559,0,0,0,0,0,0,0,0,0,-1,1329,1583,0,0
112,-559,0,0,0,0,0,0,0,0,0,-1,1336,1583,0,0
119,-559,0,0,0,0,0,0,0,0,0,-1,1343,1583,0,0
126,-559,0,0,0,0,0,0,0,0,0,-1,1350,1583,0,0
133,-559,0,0,0,0,0,0,0,0,0,-1,1357,1583,0,0
140,-559,0,0,0,0,0,0,0,0,0,-1,1364,1583,0,0
147,-559,0,0,0,0,0,0,0,0,0,-1,1371,1583,0,0
154,-559,0,0,0,0,0,0,0,0,0,-1,1378,1583,0,0
161,-559,0,0,0,0,0,0,0,0,0,-1,1385,1583,0,0
168,-559,0,0,0,0,0,0,0,0,0,-1,1392,1583,0,0
175,-559,0,0,0,0,0,0,0,0,0,-1,1399,1583,0,0
182,-559,0,0,0,0,0,0,0,0,0,-1,1406,1583,0,0
189,-559,0,0,0,0,0,0,0,0,0,-1,1413,1583,0,0
196,-559,0,0,0,0,0,0,0,0,0,-1,1420,1583,0,0
203,-559,0,0,0,0,0,0,0,0,0,-1,1427,1583,0,0
210,-559,0,0,0,0,0,0,0,0,0,-1,1434,1583,0,0
217,-559,0,0,0,0,0,0,0,0,0,-1,1441,1583,0,0
224,-559,0,0,0,0,0,0,0,0,0,-1,1448,1583,0,0
231,-559,0,0,0,0,0,0,0,0,0,-1,1455,1583,0,0
238,-559,0,0,0,0,0,0,0,0,0,-1,1462,1583,0,0
245,-559,0,0,0,0,0,0,0,0,0,-1,1469,1583,0,0
252,-559,0,0,0,0,0,0,0,0,0,-1,1476,1583,0,0
259,-559,0,0,0,0,0,0,0,0,0,-1,1483,1583,0,0
266,-559,0,0,0,0,0,0,0,0,0,-1,1490,1583,0,0
273,-559,0,0,0,0,0,0,0,0,0,-1,1497,1583,0,0
280,-559,0,0,0,0,0,0,0,0,0,-1,1504,1583,0,0
287,-559,0,0,0,0,0,0,0,0,0,-1,1511,1583,0,0
294,-559,0,0,0,0,0,0,0,0,0,-1,1518,1583,0,0
301,-559,0,0,0,0,0,0,0,0,0,-1,1525,1583,0,0
308,-559,0,0,0,0,0,0,0,0,0,-1,1532,1583,0,0
315,-559,0,0,0,0,0,0,0,0,0,-1,1539,1583,0,0
322,-559,0,0,0,0,0,0,0,0,0,-1,1546,1583,0,0
329,-559,0,0,0,0,0,0,0,0,0,-1,1553,1583,0,0
336,-559,5.97668,3.09827,0,0,0,0,0,0,0,-1,1560,1583,5.97667,-3.09824
343,-559,5.44824,2.88696,0,0,0,0,0,0,0,-1,1567,1583,5.44819,-2.88693
350,-559,4.69775,3.27051,0,0,0,0,0,0,0,-1,1574,1583,4.69771,-3.27048
357,-559,3.88025,3.60999,0,0,0,0,0,0,0,-1,1581,1583,3.88027,-3.60998
364,-559,5.00928,5.32605,0,0,0,0,0,0,0,-1,1588,1583,5.00928,-5.32607
371,-559,1.84436,2.52441,0,0,0,0,0,0,0,-1,1595,1583,1.84441,-2.52447
378,-559,6.34753,1.53137,0,0,0,0,0,0,0,-1,1602,1583,6.34752,-1.53139
385,-559,6.95911,1.48181,0,0,0,0,0,0,0,-1,1609,1583,6.95916,-1.48175
392,-559,11.6949,4.77734,0,0,0,0,0,0,0,-1,1616,1583,11.6949,-4.77731
399,-559,11.1104,5.56909,0,0,0,0,0,0,0,-1,1623,1583,11.1103,-5.56905
406,-559,10.3385,6.48657,0,0,0,0,0,0,0,-1,1630,1583,10.3385,-6.48661
413,-559,9.76147,6.97571,0,0,0,0,0,0,0,-1,1637,1583,9.76143,-6.97574
420,-559,7.77124,10.5851,0,0,0,0,0,0,0,-1,1644,1583,7.77128,-10.585
427,-559,10.1022,12.5565,0,0,0,0,0,0,0,-1,1651,1583,10.1021,-12.5565
434,-559,9.62769,14.6309,0,0,0,0,0,0,0,-1,1658,1583,9.62771,-14.6309
441,-559,12.6149,21.3678,0,0,0,0,0,0,0,-1,1665,1583,12.6149,-21.3678
448,-559,13.7046,22.6677,0,0,0,0,0,0,0,-1,1672,1583,13.7046,-22.6677
455,-559,13.9427,23.0509,0,0,0,0,0,0,0,-1,1679,1583,13.9427,-23.0509
462,-559,17.0953,29.605,0,0,0,0,0,0,0,-1,1686,1583,17.0954,-29.6049
469,-559,17.2268,28.8843,0.00572029,0.0157191,-0.00797882,0.0201354,0.001304,-1.06527,0.0130108,0.0471732,1693,1583,17.2268,-28.8843
476,-559,17.3676,28.2349,0.00579684,0.0127909,-0.00689413,0.0170242,0.00156353,-1.02011,0.0108659,0.0212988,1700,1583,17.3676,-28.2349
483,-559,17.4445,27.6339,0.00577212,0.0101501,-0.00603806,0.0143837,0.00153852,-0.959297,0.00911968,0.0136998,1707,1583,17.4444,-27.6339
490,-559,17.4094,27.12,0.00515625,0.00783056,-0.00483641,0.0115113,0.00147555,-0.920267,0.00723267,0.0156835,1714,1583,17.4094,-27.12
497,-559,17.4285,26.6648,0.00411651,0.00573262,-0.0035957,0.00860994,0.00123919,-0.895926,0.00537473,0.0186241,1721,1583,17.4285,-26.6648
504,-559,17.4183,26.1801,0.00302765,0.00379169,-0.00249067,0.00592947,0.000889872,-0.861495,0.00369227,0.0230987,1728,1583,17.4184,-26.1801
511,-559,17.3872,25.6621,0.00174661,0.00230927,-0.00128662,0.00334496,0.000710916,-0.893032,0.00203483,0.0213645,1735,1583,17.3872,-25.6621
518,-559,17.4089,25.1564,0.000372956,0.000910406,-3.31531e-05,0.000912443,0.000370919,-1.50942,0.00052986,0.0145102,1742,1583,17.4089,-25.1564
525,-559,17.3712,24.6732,-0.00104124,-0.000264117,0.00128726,0.00069195,-0.00199731,0.931975,0.00161246,0.0129087,1749,1583,17.3712,-24.6732
532,-559,17.3359,24.1705,-0.00247682,-0.00129921,0.00277377,0.000947568,-0.00472359,0.889984,0.00350784,0.0139769,1756,1583,17.336,-24.1705
539,-559,17.2927,23.6423,-0.00402507,-0.00224445,0.00451131,0.00146356,-0.00773308,0.882822,0.00570615,0.0192083,1763,1583,17.2927,-23.6423
546,-559,17.2701,23.1243,-0.00579343,-0.0032075,0.00663054,0.00225497,-0.0112559,0.881691,0.00835761,0.0174648,1770,1583,17.2702,-23.1242
553,-559,17.3505,22.605,-0.00757644,-0.00406567,0.00904454,0.00339226,-0.0150344,0.881248,0.0113243,0.0204563,1777,1583,17.3504,-22.6049
560,-559,17.3038,22.2219,-0.00929955,-0.00474835,0.0116444,0.00484072,-0.0188886,0.881894,0.0144783,0.0385175,1784,1583,17.3038,-22.2219
567,-559,17.1997,21.7065,0,0,0,0,0,0,0,-1,1791,1583,17.1996,-21.7066
574,-559,10.5109,10.7317,0,0,0,0,0,0,0,-1,1798,1583,10.5108,-10.7317
581,-559,5.97095,5.96179,0,0,0,0,0,0,0,-1,1805,1583,5.97093,-5.96181
588,-559,5.79102,5.89954,0,0,0,0,0,0,0,-1,1812,1583,5.79098,-5.89949
595,-559,5.79089,6.24231,0,0,0,0,0,0,0,-1,1819,1583,5.7909,-6.24227
602,-559,12.478,2.35669,0,0,0,0,0,0,0,-1,1826,1583,12.4781,-2.35675
609,-559,14.0479,1.22681,0,0,0,0,0,0,0,-1,1833,1583,14.0479,-1.22681
616,-559,0,0,0,0,0,0,0,0,0,-1,1840,1583,0,0
623,-559,0,0,0,0,0,0,0,0,0,-1,1847,1583,0,0
630,-559,0,0,0,0,0,0,0,0,0,-1,1854,1583,0,0
637,-559,0,0,0,0,0,0,0,0,0,-1,1861,1583,0,0
644,-559,0,0,0,0,0,0,0,0,0,-1,1868,1583,0,0
651,-559,0,0,0,0,0,0,0,0,0,-1,1875,1583,0,0
658,-559,0,0,0,0,0,0,0,0,0,-1,1882,1583,0,0
665,-559,0,0,0,0,0,0,0,0,0,-1,1889,1583,0,0
672,-559,0,0,0,0,0,0,0,0,0,-1,1896,1583,0,0
679,-559,0,0,0,0,0,0,0,0,0,-1,1903,1583,0,0
686,-559,0,0,0,0,0,0,0,0,0,-1,1910,1583,0,0
693,-559,0,0,0,0,0,0,0,0,0,-1,1917,1583,0,0
700,-559,0,0,0,0,0,0,0,0,0,-1,1924,1583,0,0
707,-559,0,0,0,0,0,0,0,0,0,-1,1931,1583,0,0
714,-559,0,0,0,0,0,0,0,0,0,-1,1938,1583,0,0
721,-559,0,0,0,0,0,0,0,0,0,-1,1945,1583,0,0
728,-559,0,0,0,0,0,0,0,0,0,-1,1952,1583,0,0
735,-559,0,0,0,0,0,0,0,0,0,-1,1959,1583,0,0
742,-559,0,0,0,0,0,0,0,0,0,-1,1966,1583,0,0
749,-559,0,0,0,0,0,0,0,0,0,-1,1973,1583,0,0
756,-559,0,0,0,0,0,0,0,0,0,-1,1980,1583,0,0
763,-559,0,0,0,0,0,0,0,0,0,-1,1987,1583,0,0
770,-559,0,0,0,0,0,0,0,0,0,-1,1994,1583,0,0
777,-559,0,0,0,0,0,0,0,0,0,-1,2001,1583,0,0
784,-559,0,0,0,0,0,0,0,0,0,-1,2008,1583,0,0
791,-559,0,0,0,0,0,0,0,0,0,-1,2015,1583,0,0
798,-559,0,0,0,0,0,0,0,0,0,-1,2022,1583,0,0
805,-559,0,0,0,0,0,0,0,0,0,-1,2029,1583,0,0
812,-559,0,0,0,0,0,0,0,0,0,-1,2036,1583,0,0
-700,-566,0,0,0,0,0,0,0,0,0,-1,524,1590,0,0
-693,-566,0,0,0,0,0,0,0,0,0,-1,531,1590,0,0
-686,-566,0,0,0,0,0,0,0,0,0,-1,538,1590,0,0
-679,-566,0,0,0,0,0,0,0,0,0,-1,545,1590,0,0
-672,-566,0,0,0,0,0,0,0,0,0,-1,552,1590,0,0
-665,-566,0,0,0,0,0,0,0,0,0,-1,559,1590,0,0
-658,-566,0,0,0,0,0,0,0,0,0,-1,566,1590,0,0
-651,-566,0,0,0,0,0,0,0,0,0,-1,573,1590,0,0
-644,-566,0,0,0,0,0,0,0,0,0,-1,580,1590,0,0
-637,-566,0,0,0,0,0,0,0,0,0,-1,587,1590,0,0
-630,-566,0,0,0,0,0,0,0,0,0,-1,594,1590,0,0
-623,-566,0,0,0,0,0,0,0,0,0,-1,601,1590,0,0
-616,-566,0,0,0,0,0,0,0,0,0,-1,608,1590,0,0
-609,-566,0,0,0,0,0,0,0,0,0,-1,615,1590,0,0
-602,-566,0,0,0,0,0,0,0,0,0,-1,622,1590,0,0
-595,-566,0,0,0,0,0,0,0,0,0,-1,629,1590,0,0
-588,-566,0,0,0,0,0,0,0,0,0,-1,636,1590,0,0
-581,-566,0,0,0,0,0,0,0,0,0,-1,643,1590,0,0
-574,-566,0,0,0,0,0,0,0,0,0,-1,650,1590,0,0
-567,-566,0,0,0,0,0,0,0,0,0,-1,657,1590,0,0
-560,-566,0,0,0,0,0,0,0,0,0,-1,664,1590,0,0
-553,-566,0,0,0,0,0,0,0,0,0,-1,671,1590,0,0
-546,-566,0,0,0,0,0,0,0,0,0,-1,678,1590,0,0
-539,-566,0,0,0,0,0,0,0,0,0,-1,685,1590,0,0
-532,-566,0,0,0,0,0,0,0,0,0,-1,692,1590,0,0
-525,-566,0,0,0,0,0,0,0,0,0,-1,699,1590,0,0
-518,-566,0,0,0,0,0,0,0,0,0,-1,706,1590,0,0
-511,-566,0,0,0,0,0,0,0,0,0,-1,713,1590,0,0
-504,-566,0,0,0,0,0,0,0,0,0,-1,720,1590,0,0
-497,-566,0,0,0,0,0,0,0,0,0,-1,727,1590,0,0
-490,-566,0,0,0,0,0,0,0,0,0,-1,734,1590,0,0
-483,-566,-7.17084,2.78613,0,0,0,0,0,0,0,-1,741,1590,-7.17083,-2.78618
-476,-566,-7.13971,2.87183,0,0,0,0,0,0,0,-1,748,1590,-7.13971,-2.87184
-469,-566,-6.43829,3.2998,0,0,0,0,0,0,0,-1,755,1590,-6.43829,-3.2998
-462,-566,-0.459106,3.89343,0,0,0,0,0,0,0,-1,762,1590,-0.459095,-3.89341
-455,-566,0.280212,4.74023,0,0,0,0,0,0,0,-1,769,1590,0.280207,-4.74023
-448,-566,0.436951,5.51306,0,0,0,0,0,0,0,-1,776,1590,0.436971,-5.51301
-441,-566,-0.440735,12.4063,0,0,0,0,0,0,0,-1,783,1590,-0.440753,-12.4062
-434,-566,0.0227661,20.891,0,0,0,0,0,0,0,-1,790,1590,0.0227786,-20.891
-427,-566,-0.482483,20.8762,0,0,0,0,0,0,0,-1,797,1590,-0.482506,-20.8763
-420,-566,-0.342957,21.386,0,0,0,0,0,0,0,-1,804,1590,-0.342961,-21.386
-413,-566,-0.20459,22.0273,-0.00586225,-0.00113368,-0.00101899,-0.000923442,-0.0060725,-1.36733,0.00377832,0.029497,811,1590,-0.20462,-22.0274
-406,-566,-0.207886,22.5793,-0.00414827,-0.00104305,-0.000817701,-0.000840889,-0.00435043,-1.32842,0.00266459,0.012603,818,1590,-0.207884,-22.5793
-399,-566,-0.240356,23.126,-0.00288535,-0.00056403,-0.000435986,-0.000484845,-0.00296454,-1.39113,0.00183621,0.0111529,825,1590,-0.240335,-23.1259
-392,-566,-0.265991,23.6632,-0.00194741,-0.000220612,-4.16453e-05,-0.000219608,-0.00194842,-1.5467,0.00123228,0.0138774,832,1590,-0.26602,-23.6632
-385,-566,-0.264221,24.2333,-0.000747228,0.000286833,0.000364765,0.000402554,-0.000862949,1.26359,0.000746581,0.0156036,839,1590,-0.264203,-24.2333
-378,-566,-0.288818,24.7982,0.000397529,0.0010233,0.000794574,0.00156437,-0.000143545,0.972962,0.00109391,0.0155505,846,1590,-0.288833,-24.7982
-371,-566,-0.341248,25.3156,0.00139186,0.00163,0.00110788,0.00262519,0.000396663,0.838931,0.00163403,0.0217603,853,1590,-0.341234,-25.3156
-364,-566,-0.328308,25.8201,0.00237663,0.00237326,0.00145611,0.00383106,0.000918836,0.784819,0.00230951,0.0226059,860,1590,-0.328302,-25.8201
-357,-566,-0.322876,26.3417,0.00342887,0.00319153,0.00183913,0.00515315,0.00146725,0.753181,0.00306571,0.0190119,867,1590,-0.322903,-26.3417
-350,-566,-0.337402,26.8582,0.00465089,0.00399409,0.00229347,0.00663936,0.00200563,0.714287,0.00393206,0.0211845,874,1590,-0.337387,-26.8582
-343,-566,-0.364075,27.3292,0.00590083,0.00498124,0.00292333,0.00840031,0.00248177,0.707395,0.00498338,0.0255006,881,1590,-0.364102,-27.3292
-336,-566,-0.496338,27.8251,0.00713697,0.00648454,0.00374263,0.0105676,0.00305393,0.741927,0.00627969,0.0279241,888,1590,-0.496336,-27.825
-329,-566,-0.380188,28.3013,0.00859443,0.00772835,0.00466409,0.0128455,0.00347724,0.739108,0.00767194,0.024907,895,1590,-0.38017,-28.3013
-322,-566,-0.269775,28.9717,0.0101371,0.00959532,0.00588806,0.0157605,0.00397194,0.76241,0.00946503,0.0330717,902,1590,-0.269803,-28.9717
-315,-566,-0.156189,29.7975,0,0,0,0,0,0,0,-1,909,1590,-0.156163,-29.7974
-308,-566,-0.127258,29.7607,0,0,0,0,0,0,0,-1,916,1590,-0.12725,-29.7608
-301,-566,0.424011,30.6545,0,0,0,0,0,0,0,-1,923,1590,0.424036,-30.6546
-294,-566,0.741455,25.3229,0,0,0,0,0,0,0,-1,930,1590,0.741475,-25.3229
-287,-566,1.25391,23.4589,0,0,0,0,0,0,0,-1,937,1590,1.2539,-23.4589
-280,-566,1.59406,17.8762,0,0,0,0,0,0,0,-1,944,1590,1.59405,-17.8762
-273,-566,0.49762,11.2427,0,0,0,0,0,0,0,-1,951,1590,0.497591,-11.2426
-266,-566,0.392151,6.90295,0,0,0,0,0,0,0,-1,958,1590,0.392151,-6.90294
-259,-566,0.343628,6.47437,0,0,0,0,0,0,0,-1,965,1590,0.34363,-6.47438
-252,-566,-7.68311,1.01343,0,0,0,0,0,0,0,-1,972,1590,-7.68308,-1.01348
-245,-566,-11.1835,1.97522,0,0,0,0,0,0,0,-1,979,1590,-11.1835,-1.97527
-238,-566,-10.4883,2.40491,0,0,0,0,0,0,0,-1,986,1590,-10.4883,-2.40487
-231,-566,-7.41827,4.22803,0,0,0,0,0,0,0,-1,993,1590,-7.41827,-4.22803
-224,-566,-4.67188,6.30859,0,0,0,0,0,0,0,-1,1000,1590,-4.67185,-6.30853
-217,-566,-2.82867,7.52527,0,0,0,0,0,0,0,-1,1007,1590,-2.82869,-7.52531
-210,-566,-1.03436,8.67737,0,0,0,0,0,0,0,-1,1014,1590,-1.03439,-8.67733
-203,-566,0,0,0,0,0,0,0,0,0,-1,1021,1590,0,0
-196,-566,0,0,0,0,0,0,0,0,0,-1,1028,1590,0,0
-189,-566,0,0,0,0,0,0,0,0,0,-1,1035,1590,0,0
-182,-566,0,0,0,0,0,0,0,0,0,-1,1042,1590,0,0
-175,-566,0,0,0,0,0,0,0,0,0,-1,1049,1590,0,0
-168,-566,0,0,0,0,0,0,0,0,0,-1,1056,1590,0,0
-161,-566,0,0,0,0,0,0,0,0,0,-1,1063,1590,0,0
-154,-566,0,0,0,0,0,0,0,0,0,-1,1070,1590,0,0
-147,-566,0,0,0,0,0,0,0,0,0,-1,1077,1590,0,0
-140,-566,0,0,0,0,0,0,0,0,0,-1,1084,1590,0,0
-133,-566,0,0,0,0,0,0,0,0,0,-1,1091,1590,0,0
-126,-566,0,0,0,0,0,0,0,0,0,-1,1098,1590,0,0
-119,-566,0,0,0,0,0,0,0,0,0,-1,1105,1590,0,0
-112,-566,0,0,0,0,0,0,0,0,0,-1,1112,1590,0,0
-105,-566,0,0,0,0,0,0,0,0,0,-1,1119,1590,0,0
-98,-566,0,0,0,0,0,0,0,0,0,-1,1126,1590,0,0
-91,-566,0,0,0,0,0,0,0,0,0,-1,1133,1590,0,0
-84,-566,0,0,0,0,0,0,0,0,0,-1,1140,1590,0,0
-77,-566,0,0,0,0,0,0,0,0,0,-1,1147,1590,0,0
-70,-566,0,0,0,0,0,0,0,0,0,-1,1154,1590,0,0
-63,-566,0,0,0,0,0,0,0,0,0,-1,1161,1590,0,0
-56,-566,0,0,0,0,0,0,0,0,0,-1,1168,1590,0,0
-49,-566,0,0,0,0,0,0,0,0,0,-1,1175,1590,0,0
-42,-566,0,0,0,0,0,0,0,0,0,-1,1182,1590,0,0
-35,-566,0,0,0,0,0,0,0,0,0,-1,1189,1590,0,0
-28,-566,0,0,0,0,0,0,0,0,0,-1,1196,1590,0,0
-21,-566,0,0,0,0,0,0,0,0,0,-1,1203,1590,0,0
-14,-566,0,0,0,0,0,0,0,0,0,-1,1210,1590,0,0
-7,-566,0,0,0,0,0,0,0,0,0,-1,1217,1590,0,0
0,-566,0,0,0,0,0,0,0,0,0,-1,1224,1590,0,0
7,-566,0,0,0,0,0,0,0,0,0,-1,1231,1590,0,0
14,-566,0,0,0,0,0,0,0,0,0,-1,1238,1590,0,0
21,-566,0,0,0,0,0,0,0,0,0,-1,1245,1590,0,0
28,-566,0,0,0,0,0,0,0,0,0,-1,1252,1590,0,0
35,-566,0,0,0,0,0,0,0,0,0,-1,1259,1590,0,0
42,-566,0,0,0,0,0,0,0,0,0,-1,1266,1590,0,0
49,-566,0,0,0,0,0,0,0,0,0,-1,1273,1590,0,0
56,-566,0,0,0,0,0,0,0,0,0,-1,1280,1590,0,0
63,-566,0,0,0,0,0,0,0,0,0,-1,1287,1590,0,0
70,-566,0,0,0,0,0,0,0,0,0,-1,1294,1590,0,0
77,-566,0,0,0,0,0,0,0,0,0,-1,1301,1590,0,0
84,-566,0,0,0,0,0,0,0,0,0,-1,1308,1590,0,0
91,-566,0,0,0,0,0,0,0,0,0,-1,1315,1590,0,0
98,-566,0,0,0,0,0,0,0,0,0,-1,1322,1590,0,0
105,-566,0,0,0,0,0,0,0,0,0,-1,1329,1590,0,0
112,-566,0,0,0,0,0,0,0,0,0,-1,1336,1590,0,0
119,-566,0,0,0,0,0,0,0,0,0,-1,1343,1590,0,0
126,-566,0,0,0,0,0,0,0,0,0,-1,1350,1590,0,0
133,-566,0,0,0,0,0,0,0,0,0,-1,1357,1590,0,0
140,-566,0,0,0,0,0,0,0,0,0,-1,1364,1590,0,0
147,-566,0,0,0,0,0,0,0,0,0,-1,1371,1590,0,0
154,-566,0,0,0,0,0,0,0,0,0,-1,1378,1590,0,0
161,-566,0,0,0,0,0,0,0,0,0,-1,1385,1590,0,0
168,-566,0,0,0,0,0,0,0,0,0,-1,1392,1590,0,0
175,-566,0,0,0,0,0,0,0,0,0,-1,1399,1590,0,0
182,-566,0,0,0,0,0,0,0,0,0,-1,1406,1590,0,0
189,-566,0,0,0,0,0,0,0,0,0,-1,1413,1590,0,0
196,-566,0,0,0,0,0,0,0,0,0,-1,1420,1590,0,0
203,-566,0,0,0,0,0,0,0,0,0,-1,1427,1590,0,0
210,-566,0,0,0,0,0,0,0,0,0,-1,1434,1590,0,0
217,-566,0,0,0,0,0,0,0,0,0,-1,1441,1590,0,0
224,-566,0,0,0,0,0,0,0,0,0,-1,1448,1590,0,0
231,-566,0,0,0,0,0,0,0,0,0,-1,1455,1590,0,0
238,-566,0,0,0,0,0,0,0,0,0,-1,1462,1590,0,0
245,-566,0,0,0,0,0,0,0,0,0,-1,1469,1590,0,0
252,-566,0,0,0,0,0,0,0,0,0,-1,1476,1590,0,0
259,-566,0,0,0,0,0,0,0,0,0,-1,1483,1590,0,0
266,-566,0,0,0,0,0,0,0,0,0,-1,1490,1590,0,0
273,-566,0,0,0,0,0,0,0,0,0,-1,1497,1590,0,0
280,-566,0,0,0,0,0,0,0,0,0,-1,1504,1590,0,0
287,-566,0,0,0,0,0,0,0,0,0,-1,1511,1590,0,0
294,-566,0,0,0,0,0,0,0,0,0,-1,1518,1590,0,0
301,-566,0,0,0,0,0,0,0,0,0,-1,1525,1590,0,0
308,-566,0,0,0,0,0,0,0,0,0,-1,1532,1590,0,0
315,-566,0,0,0,0,0,0,0,0,0,-1,1539,1590,0,0
322,-566,6.07983,4.44873,0,0,0,0,0,0,0,-1,1546,1590,6.07983,-4.44873
329,-566,5.77026,3.47534,0,0,0,0,0,0,0,-1,1553,1590,5.77026,-3.47535
336,-566,5.41138,2.62915,0,0,0,0,0,0,0,-1,1560,1590,5.41138,-2.62909
343,-566,4.81873,1.79089,0,0,0,0,0,0,0,-1,1567,1590,4.81878,-1.79095
350,-566,4.41663,2.44214,0,0,0,0,0,0,0,-1,1574,1590,4.41666,-2.44214
357,-566,6.34058,5.18579,0,0,0,0,0,0,0,-1,1581,1590,6.34059,-5.1858
364,-566,6.06262,4.20251,0,0,0,0,0,0,0,-1,1588,1590,6.06259,-4.20246
371,-566,5.78455,3.21912,0,0,0,0,0,0,0,-1,1595,1590,5.7846,-3.21912
378,-566,5.7439,0.695557,0,0,0,0,0,0,0,-1,1602,1590,5.74392,-0.695531
385,-566,5.67615,-0.573975,0,0,0,0,0,0,0,-1,1609,1590,5.67612,0.573956
392,-566,5.78638,1.82434,0,0,0,0,0,0,0,-1,1616,1590,5.78637,-1.82439
399,-566,12.8856,32.293,0,0,0,0,0,0,0,-1,1623,1590,12.8856,-32.293
406,-566,4.30359,5.26868,0,0,0,0,0,0,0,-1,1630,1590,4.30364,-5.26867
413,-566,4.27124,5.79492,0,0,0,0,0,0,0,-1,1637,1590,4.27123,-5.7949
420,-566,7.19812,8.25146,0,0,0,0,0,0,0,-1,1644,1590,7.19817,-8.25149
427,-566,17.5154,32.0566,0,0,0,0,0,0,0,-1,1651,1590,17.5154,-32.0566
434,-566,17.396,31.655,0,0,0,0,0,0,0,-1,1658,1590,17.396,-31.6551
441,-566,15.5841,27.5869,0,0,0,0,0,0,0,-1,1665,1590,15.5842,-27.587
448,-566,16.9812,31.0416,0,0,0,0,0,0,0,-1,1672,1590,16.9812,-31.0417
455,-566,16.5017,30.1206,0,0,0,0,0,0,0,-1,1679,1590,16.5018,-30.1206
462,-566,16.7242,29.4078,0.00380522,0.0152746,-0.00686731,0.0184868,0.000593034,-1.13328,0.0121317,0.039256,1686,1590,16.7242,-29.4079
469,-566,16.8601,28.6444,0.00432615,0.0127125,-0.00619732,0.016002,0.00103672,-1.08283,0.0103397,0.0166788,1693,1590,16.8601,-28.6444
476,-566,16.9281,28.1238,0.00437209,0.0102952,-0.0053368,0.0134371,0.00123018,-1.03871,0.00857745,0.0102544,1700,1590,16.9281,-28.1238
483,-566,16.9298,27.6284,0.00431192,0.0079828,-0.00463948,0.0111367,0.001158,-0.973758,0.00707016,0.0106102,1707,1590,16.9298,-27.6284
490,-566,16.9086,27.1317,0.00377632,0.00594104,-0.00362966,0.00864629,0.00107107,-0.9303,0.00544241,0.0118932,1714,1590,16.9086,-27.1317
497,-566,16.9363,26.658,0.00283374,0.00408466,-0.00257026,0.00610447,0.00081393,-0.904751,0.0038273,0.0153499,1721,1590,16.9363,-26.658
504,-566,16.9281,26.1935,0.0017406,0.00234288,-0.00148734,0.00355926,0.000524217,-0.885283,0.00221884,0.0200174,1728,1590,16.9281,-26.1935
511,-566,16.8926,25.6982,0.000410617,0.000985678,-0.000196441,0.00104638,0.000349919,-1.27111,0.00061507,0.0199174,1735,1590,16.8926,-25.6983
518,-566,16.8757,25.2042,-0.000969961,-0.00027743,0.00106911,0.000500089,-0.00174748,0.942009,0.00136262,0.0118744,1742,1590,16.8758,-25.2042
525,-566,16.8547,24.679,-0.00245064,-0.00134647,0.00247688,0.000639108,-0.00443621,0.895054,0.00319191,0.0108798,1749,1590,16.8547,-24.6789
532,-566,16.8395,24.1598,-0.00405172,-0.0023309,0.00416326,0.00105993,-0.00744255,0.887298,0.00535013,0.013255,1756,1590,16.8394,-24.1598
539,-566,16.8048,23.6311,-0.00593988,-0.00328305,0.00626037,0.0017883,-0.0110112,0.889945,0.00800379,0.0178212,1763,1590,16.8048,-23.6311
546,-566,16.8448,23.0784,-0.00820916,-0.00427349,0.00892766,0.00290064,-0.0153833,0.893874,0.0113467,0.0199727,1770,1590,16.8449,-23.0784
553,-566,16.8586,22.757,-0.0106158,-0.00513401,0.0120696,0.00450202,-0.0202519,0.89705,0.0152254,0.0327067,1777,1590,16.8587,-22.757
560,-566,16.5959,22.567,-0.0132525,-0.00590089,0.0157052,0.00655298,-0.0257063,0.900353,0.0196888,0.0390009,1784,1590,16.596,-22.5671
567,-566,16.3861,22.2393,0,0,0,0,0,0,0,-1,1791,1590,16.3862,-22.2393
574,-566,7.99548,3.14514,0,0,0,0,0,0,0,-1,1798,1590,7.99543,-3.14511
581,-566,2.54102,5.1311,0,0,0,0,0,0,0,-1,1805,1590,2.54099,-5.13111
588,-566,-1.91321,8.39197,0,0,0,0,0,0,0,-1,1812,1590,-1.91316,-8.39199
595,-566,9.0271,4.66467,0,0,0,0,0,0,0,-1,1819,1590,9.02705,-4.66468
602,-566,9.953,3.54895,0,0,0,0,0,0,0,-1,1826,1590,9.953,-3.54898
609,-566,0,0,0,0,0,0,0,0,0,-1,1833,1590,0,0
616,-566,0,0,0,0,0,0,0,0,0,-1,1840,1590,0,0
623,-566,0,0,0,0,0,0,0,0,0,-1,1847,1590,0,0
630,-566,0,0,0,0,0,0,0,0,0,-1,1854,1590,0,0
637,-566,0,0,0,0,0,0,0,0,0,-1,1861,1590,0,0
644,-566,0,0,0,0,0,0,0,0,0,-1,1868,1590,0,0
651,-566,0,0,0,0,0,0,0,0,0,-1,1875,1590,0,0
658,-566,0,0,0,0,0,0,0,0,0,-1,1882,1590,0,0
665,-566,0,0,0,0,0,0,0,0,0,-1,1889,1590,0,0
672,-566,0,0,0,0,0,0,0,0,0,-1,1896,1590,0,0
679,-566,0,0,0,0,0,0,0,0,0,-1,1903,1590,0,0
686,-566,0,0,0,0,0,0,0,0,0,-1,1910,1590,0,0
693,-566,0,0,0,0,0,0,0,0,0,-1,1917,1590,0,0
700,-566,0,0,0,0,0,0,0,0,0,-1,1924,1590,0,0
707,-566,0,0,0,0,0,0,0,0,0,-1,1931,1590,0,0
714,-566,0,0,0,0,0,0,0,0,0,-1,1938,1590,0,0
721,-566,0,0,0,0,0,0,0,0,0,-1,1945,1590,0,0
728,-566,0,0,0,0,0,0,0,0,0,-1,1952,1590,0,0
735,-566,0,0,0,0,0,0,0,0,0,-1,1959,1590,0,0
742,-566,0,0,0,0,0,0,0,0,0,-1,1966,1590,0,0
749,-566,0,0,0,0,0,0,0,0,0,-1,1973,1590,0,0
756,-566,0,0,0,0,0,0,0,0,0,-1,1980,1590,0,0
763,-566,0,0,0,0,0,0,0,0,0,-1,1987,1590,0,0
770,-566,0,0,0,0,0,0,0,0,0,-1,1994,1590,0,0
777,-566,0,0,0,0,0,0,0,0,0,-1,2001,1590,0,0
784,-566,0,0,0,0,0,0,0,0,0,-1,2008,1590,0,0
791,-566,0,0,0,0,0,0,0,0,0,-1,2015,1590,0,0
798,-566,0,0,0,0,0,0,0,0,0,-1,2022,1590,0,0
805,-566,0,0,0,0,0,0,0,0,0,-1,2029,1590,0,0
812,-566,0,0,0,0,0,0,0,0,0,-1,2036,1590,0,0
-700,-573,0,0,0,0,0,0,0,0,0,-1,524,1597,0,0
-693,-573,0,0,0,0,0,0,0,0,0,-1,531,1597,0,0
-686,-573,0,0,0,0,0,0,0,0,0,-1,538,1597,0,0
-679,-573,0,0,0,0,0,0,0,0,0,-1,545,1597,0,0
-672,-573,0,0,0,0,0,0,0,0,0,-1,552,1597,0,0
-665,-573,0,0,0,0,0,0,0,0,0,-1,559,1597,0,0
-658,-573,0,0,0,0,0,0,0,0,0,-1,566,1597,0,0
-651,-573,0,0,0,0,0,0,0,0,0,-1,573,1597,0,0
-644,-573,0,0,0,0,0,0,0,0,0,-1,580,1597,0,0
-637,-573,0,0,0,0,0,0,0,0,0,-1,587,1597,0,0
-630,-573,0,0,0,0,0,0,0,0,0,-1,594,1597,0,0
-623,-573,0,0,0,0,0,0,0,0,0,-1,601,1597,0,0
-616,-573,0,0,0,0,0,0,0,0,0,-1,608,1597,0,0
-609,-573,0,0,0,0,0,0,0,0,0,-1,615,1597,0,0
-602,-573,0,0,0,0,0,0,0,0,0,-1,622,1597,0,0
-595,-573,0,0,0,0,0,0,0,0,0,-1,629,1597,0,0
-588,-573,0,0,0,0,0,0,0,0,0,-1,636,1597,0,0
-581,-573,0,0,0,0,0,0,0,0,0,-1,643,1597,0,0
-574,-573,0,0,0,0,0,0,0,0,0,-1,650,1597,0,0
-567,-573,0,0,0,0,0,0,0,0,0,-1,657,1597,0,0
-560,-573,0,0,0,0,0,0,0,0,0,-1,664,1597,0,0
-553,-573,0,0,0,0,0,0,0,0,0,-1,671,1597,0,0
-546,-573,0,0,0,0,0,0,0,0,0,-1,678,1597,0,0
-539,-573,0,0,0,0,0,0,0,0,0,-1,685,1597,0,0
-532,-573,0,0,0,0,0,0,0,0,0,-1,692,1597,0,0
-525,-573,0,0,0,0,0,0,0,0,0,-1,699,1597,0,0
-518,-573,0,0,0,0,0,0,0,0,0,-1,706,1597,0,0
-511,-573,0,0,0,0,0,0,0,0,0,-1,713,1597,0,0
-504,-573,0,0,0,0,0,0,0,0,0,-1,720,1597,0,0
-497,-573,0,0,0,0,0,0,0,0,0,-1,727,1597,0,0
-490,-573,0,0,0,0,0,0,0,0,0,-1,734,1597,0,0
-483,-573,0,0,0,0,0,0,0,0,0,-1,741,1597,0,0
-476,-573,-9.3327,0.972778,0,0,0,0,0,0,0,-1,748,1597,-9.33268,-0.972776
-469,-573,-1.41681,1.13379,0,0,0,0,0,0,0,-1,755,1597,-1.41681,-1.13382
-462,-573,-0.748535,2.02588,0,0,0,0,0,0,0,-1,762,1597,-0.748533,-2.02584
-455,-573,-0.112976,2.70703,0,0,0,0,0,0,0,-1,769,1597,-0.112988,-2.70697
-448,-573,-1.26172,3.33252,0,0,0,0,0,0,0,-1,776,1597,-1.26173,-3.33248
-441,-573,0.108582,5.06726,0,0,0,0,0,0,0,-1,783,1597,0.108584,-5.06721
-434,-573,1.61768,7.05444,0,0,0,0,0,0,0,-1,790,1597,1.61767,-7.05446
-427,-573,-0.534973,20.728,0,0,0,0,0,0,0,-1,797,1597,-0.534995,-20.7281
-420,-573,0.768616,20.683,0,0,0,0,0,0,0,-1,804,1597,0.768625,-20.683
-413,-573,0.269409,21.7834,0,0,0,0,0,0,0,-1,811,1597,0.269432,-21.7835
-406,-573,0.340027,22.515,-0.00530123,-0.001332,-0.000966171,-0.00110931,-0.00552392,-1.34427,0.00337418,0.0322043,818,1597,0.340009,-22.515
-399,-573,0.280457,23.1466,-0.00396673,-0.00102223,-0.000657227,-0.000882194,-0.00410677,-1.36086,0.00249629,0.0141825,825,1597,0.28043,-23.1466
-392,-573,0.287781,23.7075,-0.00302495,-0.000865136,-0.000345321,-0.000811268,-0.00307881,-1.41605,0.00184264,0.012546,832,1597,0.287751,-23.7075
-385,-573,0.266052,24.2467,-0.00181982,-0.000472997,1.34246e-05,-0.000472863,-0.00181995,1.56083,0.00109041,0.0147109,839,1597,0.266022,-24.2468
-378,-573,0.239075,24.7784,-0.000703595,0.000192106,0.000397679,0.000343187,-0.000854676,1.20773,0.000712292,0.0154089,846,1597,0.239074,-24.7785
-371,-573,0.213928,25.3196,0.000218734,0.000683757,0.000629108,0.00112195,-0.000219455,0.962407,0.000830833,0.0159753,853,1597,0.213936,-25.3195
-364,-573,0.19989,25.8301,0.00110393,0.00127179,0.000896257,0.00208804,0.000287682,0.832085,0.00130673,0.0190565,860,1597,0.19988,-25.8301
-357,-573,0.202332,26.3492,0.00204204,0.0019469,0.00121043,0.00320584,0.000783099,0.765758,0.0019299,0.0227,867,1597,0.202337,-26.3493
-350,-573,0.208923,26.9008,0.0031342,0.00258998,0.00158232,0.00446764,0.00125654,0.700248,0.0026604,0.0178214,874,1597,0.208893,-26.9007
-343,-573,0.167969,27.4038,0.00422246,0.00341689,0.00210552,0.00596338,0.00167597,0.69089,0.00355129,0.0212852,881,1597,0.167942,-27.4038
-336,-573,0.131653,27.9243,0.00530553,0.00469407,0.00281064,0.00782701,0.00217258,0.731223,0.00466559,0.0174416,888,1597,0.131623,-27.9243
-329,-573,0.136536,28.4131,0.00654914,0.00584994,0.00361525,0.00983165,0.00256743,0.737197,0.00588826,0.0192873,895,1597,0.136545,-28.413
-322,-573,0.154663,28.9358,0.00778533,0.00739363,0.00457051,0.0121642,0.00301477,0.763986,0.00731464,0.0162178,902,1597,0.154638,-28.9358
-315,-573,0.275208,29.6489,0.00908256,0.00927303,0.00569443,0.014873,0.00348257,0.79376,0.00898242,0.037395,909,1597,0.275188,-29.6489
-308,-573,0.584656,30.4315,0,0,0,0,0,0,0,-1,916,1597,0.584653,-30.4316
-301,-573,0.47583,30.7045,0,0,0,0,0,0,0,-1,923,1597,0.475816,-30.7044
-294,-573,1.00702,24.802,0,0,0,0,0,0,0,-1,930,1597,1.00701,-24.802
-287,-573,1.27222,30.7164,0,0,0,0,0,0,0,-1,937,1597,1.27222,-30.7164
-280,-573,1.19684,26.4906,0,0,0,0,0,0,0,-1,944,1597,1.19685,-26.4906
-273,-573,2.24805,25.4375,0,0,0,0,0,0,0,-1,951,1597,2.24803,-25.4374
-266,-573,1.31116,7.1814,0,0,0,0,0,0,0,-1,958,1597,1.31118,-7.18142
-259,-573,1.2514,6.70959,0,0,0,0,0,0,0,-1,965,1597,1.25137,-6.70965
-252,-573,2.07874,5.27161,0,0,0,0,0,0,0,-1,972,1597,2.07875,-5.27157
-245,-573,-10.2592,1.09827,0,0,0,0,0,0,0,-1,979,1597,-10.2592,-1.09823
-238,-573,-11.5463,4.44141,0,0,0,0,0,0,0,-1,986,1597,-11.5463,-4.44146
-231,-573,-9.23431,4.14539,0,0,0,0,0,0,0,-1,993,1597,-9.23431,-4.14534
-224,-573,-6.70044,7.40857,0,0,0,0,0,0,0,-1,1000,1597,-6.70045,-7.40851
-217,-573,-4.25824,8.59119,0,0,0,0,0,0,0,-1,1007,1597,-4.25824,-8.59122
-210,-573,-2.39661,9.73914,0,0,0,0,0,0,0,-1,1014,1597,-2.39658,-9.73915
-203,-573,-0.557373,10.9005,0,0,0,0,0,0,0,-1,1021,1597,-0.557387,-10.9006
-196,-573,-1.65344,9.02246,0,0,0,0,0,0,0,-1,1028,1597,-1.65349,-9.02241
-189,-573,-6.12915,6.66882,0,0,0,0,0,0,0,-1,1035,1597,-6.12913,-6.66884
-182,-573,0,0,0,0,0,0,0,0,0,-1,1042,1597,0,0
-175,-573,0,0,0,0,0,0,0,0,0,-1,1049,1597,0,0
-168,-573,0,0,0,0,0,0,0,0,0,-1,1056,1597,0,0
-161,-573,0,0,0,0,0,0,0,0,0,-1,1063,1597,0,0
-154,-573,0,0,0,0,0,0,0,0,0,-1,1070,1597,0,0
-147,-573,0,0,0,0,0,0,0,0,0,-1,1077,1597,0,0
-140,-573,0,0,0,0,0,0,0,0,0,-1,1084,1597,0,0
-133,-573,0,0,0,0,0,0,0,0,0,-1,1091,1597,0,0
-126,-573,0,0,0,0,0,0,0,0,0,-1,1098,1597,0,0
-119,-573,0,0,0,0,0,0,0,0,0,-1,1105,1597,0,0
-112,-573,0,0,0,0,0,0,0,0,0,-1,1112,1597,0,0
-105,-573,0,0,0,0,0,0,0,0,0,-1,1119,1597,0,0
-98,-573,0,0,0,0,0,0,0,0,0,-1,1126,1597,0,0
-91,-573,0,0,0,0,0,0,0,0,0,-1,1133,1597,0,0
-84,-573,0,0,0,0,0,0,0,0,0,-1,1140,1597,0,0
-77,-573,0,0,0,0,0,0,0,0,0,-1,1147,1597,0,0
-70,-573,0,0,0,0,0,0,0,0,0,-1,1154,1597,0,0
-63,-573,0,0,0,0,0,0,0,0,0,-1,1161,1597,0,0
-56,-573,0,0,0,0,0,0,0,0,0,-1,1168,1597,0,0
-49,-573,0,0,0,0,0,0,0,0,0,-1,1175,1597,0,0
-42,-573,0,0,0,0,0,0,0,0,0,-1,1182,1597,0,0
-35,-573,0,0,0,0,0,0,0,0,0,-1,1189,1597,0,0
-28,-573,0,0,0,0,0,0,0,0,0,-1,1196,1597,0,0
-21,-573,0,0,0,0,0,0,0,0,0,-1,1203,1597,0,0
-14,-573,0,0,0,0,0,0,0,0,0,-1,1210,1597,0,0
-7,-573,0,0,0,0,0,0,0,0,0,-1,1217,1597,0,0
0,-573,0,0,0,0,0,0,0,0,0,-1,1224,1597,0,0
7,-573,0,0,0,0,0,0,0,0,0,-1,1231,1597,0,0
14,-573,0,0,0,0,0,0,0,0,0,-1,1238,1597,0,0
21,-573,0,0,0,0,0,0,0,0,0,-1,1245,1597,0,0
28,-573,0,0,0,0,0,0,0,0,0,-1,1252,1597,0,0
35,-573,0,0,0,0,0,0,0,0,0,-1,1259,1597,0,0
42,-573,0,0,0,0,0,0,0,0,0,-1,1266,1597,0,0
49,-573,0,0,0,0,0,0,0,0,0,-1,1273,1597,0,0
56,-573,0,0,0,0,0,0,0,0,0,-1,1280,1597,0,0
63,-573,0,0,0,0,0,0,0,0,0,-1,1287,1597,0,0
70,-573,0,0,0,0,0,0,0,0,0,-1,1294,1597,0,0
77,-573,0,0,0,0,0,0,0,0,0,-1,1301,1597,0,0
84,-573,0,0,0,0,0,0,0,0,0,-1,1308,1597,0,0
91,-573,0,0,0,0,0,0,0,0,0,-1,1315,1597,0,0
98,-573,0,0,0,0,0,0,0,0,0,-1,1322,1597,0,0
105,-573,0,0,0,0,0,0,0,0,0,-1,1329,1597,0,0
112,-573,0,0,0,0,0,0,0,0,0,-1,1336,1597,0,0
119,-573,0,0,0,0,0,0,0,0,0,-1,1343,1597,0,0
126,-573,0,0,0,0,0,0,0,0,0,-1,1350,1597,0,0
133,-573,0,0,0,0,0,0,0,0,0,-1,1357,1597,0,0
140,-573,0,0,0,0,0,0,0,0,0,-1,1364,1597,0,0
147,-573,0,0,0,0,0,0,0,0,0,-1,1371,1597,0,0
154,-573,0,0,0,0,0,0,0,0,0,-1,1378,1597,0,0
161,-573,0,0,0,0,0,0,0,0,0,-1,1385,1597,0,0
168,-573,0,0,0,0,0,0,0,0,0,-1,1392,1597,0,0
175,-573,0,0,0,0,0,0,0,0,0,-1,1399,1597,0,0
182,-573,0,0,0,0,0,0,0,0,0,-1,1406,1597,0,0
189,-573,0,0,0,0,0,0,0,0,0,-1,1413,1597,0,0
196,-573,0,0,0,0,0,0,0,0,0,-1,1420,1597,0,0
203,-573,0,0,0,0,0,0,0,0,0,-1,1427,1597,0,0
210,-573,0,0,0,0,0,0,0,0,0,-1,1434,1597,0,0
217,-573,0,0,0,0,0,0,0,0,0,-1,1441,1597,0,0
224,-573,0,0,0,0,0,0,0,0,0,-1,1448,1597,0,0
231,-573,0,0,0,0,0,0,0,0,0,-1,1455,1597,0,0
238,-573,0,0,0,0,0,0,0,0,0,-1,1462,1597,0,0
245,-573,0,0,0,0,0,0,0,0,0,-1,1469,1597,0,0
252,-573,0,0,0,0,0,0,0,0,0,-1,1476,1597,0,0
259,-573,0,0,0,0,0,0,0,0,0,-1,1483,1597,0,0
266,-573,0,0,0,0,0,0,0,0,0,-1,1490,1597,0,0
273,-573,0,0,0,0,0,0,0,0,0,-1,1497,1597,0,0
280,-573,0,0,0,0,0,0,0,0,0,-1,1504,1597,0,0
287,-573,0,0,0,0,0,0,0,0,0,-1,1511,1597,0,0
294,-573,0,0,0,0,0,0,0,0,0,-1,1518,1597,0,0
301,-573,0,0,0,0,0,0,0,0,0,-1,1525,1597,0,0
308,-573,5.93042,9.71143,0,0,0,0,0,0,0,-1,1532,1597,5.93046,-9.71144
315,-573,4.34204,11.719,0,0,0,0,0,0,0,-1,1539,1597,4.34205,-11.719
322,-573,10.3269,7.77563,0,0,0,0,0,0,0,-1,1546,1597,10.327,-7.77565
329,-573,4.99573,3.80273,0,0,0,0,0,0,0,-1,1553,1597,4.9957,-3.80273
336,-573,4.85693,2.53455,0,0,0,0,0,0,0,-1,1560,1597,4.8569,-2.53459
343,-573,5.5946,2.15894,0,0,0,0,0,0,0,-1,1567,1597,5.59456,-2.1589
350,-573,2.53748,1.56433,0,0,0,0,0,0,0,-1,1574,1597,2.53753,-1.5643
357,-573,7.40247,4.03613,0,0,0,0,0,0,0,-1,1581,1597,7.40244,-4.03614
364,-573,7.14551,3.02087,0,0,0,0,0,0,0,-1,1588,1597,7.14556,-3.02084
371,-573,6.88867,2.00549,0,0,0,0,0,0,0,-1,1595,1597,6.88868,-2.00553
378,-573,8.62012,6.09106,0,0,0,0,0,0,0,-1,1602,1597,8.62012,-6.09103
385,-573,6.54346,-0.951904,0,0,0,0,0,0,0,-1,1609,1597,6.54349,0.951901
392,-573,14.558,33.3009,0,0,0,0,0,0,0,-1,1616,1597,14.558,-33.3009
399,-573,13.819,32.2833,0,0,0,0,0,0,0,-1,1623,1597,13.8189,-32.2833
406,-573,13.7181,31.6494,0,0,0,0,0,0,0,-1,1630,1597,13.7182,-31.6494
413,-573,8.90552,13.1737,0,0,0,0,0,0,0,-1,1637,1597,8.90553,-13.1737
420,-573,17.1818,32.2341,0,0,0,0,0,0,0,-1,1644,1597,17.1817,-32.2341
427,-573,16.9473,31.8406,-0.004418,0.0217566,-0.00258419,0.0220093,-0.0046707,-1.47332,0.0164523,0.0456395,1651,1597,16.9473,-31.8406
434,-573,16.7135,31.3724,-0.00267345,0.0198937,-0.00352674,0.020432,-0.00321176,-1.41933,0.0148085,0.0461683,1658,1597,16.7135,-31.3724
441,-573,16.5426,31.0394,0,0,0,0,0,0,0,-1,1665,1597,16.5426,-31.0395
448,-573,16.3619,30.4215,0.000788802,0.0165458,-0.00512255,0.0180647,-0.000730107,-1.28254,0.0122937,0.0458203,1672,1597,16.3619,-30.4215
455,-573,16.3542,29.7227,0.00193636,0.0143394,-0.00535635,0.0163324,-5.65918e-05,-1.2146,0.0109072,0.0334914,1679,1597,16.3543,-29.7226
462,-573,16.5005,29.0623,0.00267024,0.0120856,-0.00516202,0.0143642,0.000391591,-1.1551,0.00944833,0.0225615,1686,1597,16.5005,-29.0622
469,-573,16.4882,28.5929,0.00309235,0.00993567,-0.00468129,0.0123125,0.000715536,-1.10099,0.00798051,0.0154818,1693,1597,16.4881,-28.5929
476,-573,16.474,28.1289,0.00307824,0.00791503,-0.00397225,0.0101472,0.00084611,-1.05884,0.00650112,0.0138008,1700,1597,16.474,-28.1289
483,-573,16.4777,27.6606,0.00296129,0.00588822,-0.00339382,0.00812067,0.000728846,-0.988959,0.00518792,0.0121785,1707,1597,16.4776,-27.6606
490,-573,16.4498,27.166,0.00247026,0.00408142,-0.00253827,0.00593888,0.000612797,-0.939058,0.00377162,0.0130847,1714,1597,16.4499,-27.166
497,-573,16.4579,26.6528,0.0016015,0.00243406,-0.00163596,0.00370587,0.000329689,-0.909982,0.00236835,0.0199392,1721,1597,16.4579,-26.6529
504,-573,16.4214,26.1816,0.000502146,0.000890121,-0.00058401,0.00131152,8.07481e-05,-0.945747,0.000848711,0.017751,1728,1597,16.4214,-26.1817
511,-573,16.4071,25.6844,-0.000873512,-0.000338131,0.000776322,0.000215357,-0.001427,0.951424,0.00103065,0.0182005,1735,1597,16.4071,-25.6844
518,-573,16.3608,25.1903,-0.00225992,-0.00145108,0.00205093,0.000234923,-0.00394592,0.882744,0.00271231,0.0138221,1742,1597,16.3609,-25.1903
525,-573,16.3518,24.686,-0.00381444,-0.00240716,0.0035609,0.000518952,-0.00674055,0.882943,0.00467629,0.0160261,1749,1597,16.3518,-24.6861
532,-573,16.3591,24.1824,-0.00559852,-0.00333451,0.0054918,0.00114074,-0.0100738,0.887038,0.0071266,0.0156797,1756,1597,16.3591,-24.1824
539,-573,16.311,23.6923,-0.00785153,-0.0042956,0.00801687,0.00213809,-0.0142852,0.894521,0.0103103,0.0221883,1763,1597,16.3111,-23.6923
546,-573,16.3629,23.2086,-0.0106535,-0.00531125,0.0113082,0.00363701,-0.0196018,0.901378,0.0144337,0.0380476,1770,1597,16.3629,-23.2086
553,-573,15.7506,22.8759,-0.0137877,-0.00618643,0.0153594,0.00583554,-0.0258096,0.906685,0.0194457,0.045634,1777,1597,15.7506,-22.8759
560,-573,15.3528,22.5925,-0.0175349,-0.00705203,0.0203288,0.00870021,-0.0332871,0.911567,0.0255893,0.0465534,1784,1597,15.3528,-22.5925
567,-573,15.0151,22.3376,0,0,0,0,0,0,0,-1,1791,1597,15.0151,-22.3376
574,-573,0.83374,5.7041,0,0,0,0,0,0,0,-1,1798,1597,0.833718,-5.70405
581,-573,-0.224854,7.41602,0,0,0,0,0,0,0,-1,1805,1597,-0.224904,-7.41596
588,-573,-0.134033,7.67065,0,0,0,0,0,0,0,-1,1812,1597,-0.134037,-7.67063
595,-573,-0.0825195,8.35083,0,0,0,0,0,0,0,-1,1819,1597,-0.0824684,-8.35088
602,-573,0,0,0,0,0,0,0,0,0,-1,1826,1597,0,0
609,-573,0,0,0,0,0,0,0,0,0,-1,1833,1597,0,0
616,-573,0,0,0,0,0,0,0,0,0,-1,1840,1597,0,0
623,-573,0,0,0,0,0,0,0,0,0,-1,1847,1597,0,0
630,-573,0,0,0,0,0,0,0,0,0,-1,1854,1597,0,0
637,-573,0,0,0,0,0,0,0,0,0,-1,1861,1597,0,0
644,-573,0,0,0,0,0,0,0,0,0,-1,1868,1597,0,0
651,-573,0,0,0,0,0,0,0,0,0,-1,1875,1597,0,0
658,-573,0,0,0,0,0,0,0,0,0,-1,1882,1597,0,0
665,-573,0,0,0,0,0,0,0,0,0,-1,1889,1597,0,0
672,-573,0,0,0,0,0,0,0,0,0,-1,1896,1597,0,0
679,-573,0,0,0,0,0,0,0,0,0,-1,1903,1597,0,0
686,-573,0,0,0,0,0,0,0,0,0,-1,1910,1597,0,0
693,-573,0,0,0,0,0,0,0,0,0,-1,1917,1597,0,0
700,-573,0,0,0,0,0,0,0,0,0,-1,1924,1597,0,0
707,-573,0,0,0,0,0,0,0,0,0,-1,1931,1597,0,0
714,-573,0,0,0,0,0,0,0,0,0,-1,1938,1597,0,0
721,-573,0,0,0,0,0,0,0,0,0,-1,1945,1597,0,0
728,-573,0,0,0,0,0,0,0,0,0,-1,1952,1597,0,0
735,-573,0,0,0,0,0,0,0,0,0,-1,1959,1597,0,0
742,-573,0,0,0,0,0,0,0,0,0,-1,1966,1597,0,0
749,-573,0,0,0,0,0,0,0,0,0,-1,1973,1597,0,0
756,-573,0,0,0,0,0,0,0,0,0,-1,1980,1597,0,0
763,-573,0,0,0,0,0,0,0,0,0,-1,1987,1597,0,0
770,-573,0,0,0,0,0,0,0,0,0,-1,1994,1597,0,0
777,-573,0,0,0,0,0,0,0,0,0,-1,2001,1597,0,0
784,-573,0,0,0,0,0,0,0,0,0,-1,2008,1597,0,0
791,-573,0,0,0,0,0,0,0,0,0,-1,2015,1597,0,0
798,-573,0,0,0,0,0,0,0,0,0,-1,2022,1597,0,0
805,-573,0,0,0,0,0,0,0,0,0,-1,2029,1597,0,0
812,-573,0,0,0,0,0,0,0,0,0,-1,2036,1597,0,0
-700,-580,0,0,0,0,0,0,0,0,0,-1,524,1604,0,0
-693,-580,0,0,0,0,0,0,0,0,0,-1,531,1604,0,0
-686,-580,0,0,0,0,0,0,0,0,0,-1,538,1604,0,0
-679,-580,0,0,0,0,0,0,0,0,0,-1,545,1604,0,0
-672,-580,0,0,0,0,0,0,0,0,0,-1,552,1604,0,0
-665,-580,0,0,0,0,0,0,0,0,0,-1,559,1604,0,0
-658,-580,0,0,0,0,0,0,0,0,0,-1,566,1604,0,0
-651,-580,0,0,0,0,0,0,0,0,0,-1,573,1604,0,0
-644,-580,0,0,0,0,0,0,0,0,0,-1,580,1604,0,0
-637,-580,0,0,0,0,0,0,0,0,0,-1,587,1604,0,0
-630,-580,0,0,0,0,0,0,0,0,0,-1,594,1604,0,0
-623,-580,0,0,0,0,0,0,0,0,0,-1,601,1604,0,0
-616,-580,0,0,0,0,0,0,0,0,0,-1,608,1604,0,0
-609,-580,0,0,0,0,0,0,0,0,0,-1,615,1604,0,0
-602,-580,0,0,0,0,0,0,0,0,0,-1,622,1604,0,0
-595,-580,0,0,0,0,0,0,0,0,0,-1,629,1604,0,0
-588,-580,0,0,0,0,0,0,0,0,0,-1,636,1604,0,0
-581,-580,0,0,0,0,0,0,0,0,0,-1,643,1604,0,0
-574,-580,0,0,0,0,0,0,0,0,0,-1,650,1604,0,0
-567,-580,0,0,0,0,0,0,0,0,0,-1,657,1604,0,0
-560,-580,0,0,0,0,0,0,0,0,0,-1,664,1604,0,0
-553,-580,0,0,0,0,0,0,0,0,0,-1,671,1604,0,0
-546,-580,0,0,0,0,0,0,0,0,0,-1,678,1604,0,0
-539,-580,0,0,0,0,0,0,0,0,0,-1,685,1604,0,0
-532,-580,0,0,0,0,0,0,0,0,0,-1,692,1604,0,0
-525,-580,0,0,0,0,0,0,0,0,0,-1,699,1604,0,0
-518,-580,0,0,0,0,0,0,0,0,0,-1,706,1604,0,0
-511,-580,0,0,0,0,0,0,0,0,0,-1,713,1604,0,0
-504,-580,0,0,0,0,0,0,0,0,0,-1,720,1604,0,0
-497,-580,0,0,0,0,0,0,0,0,0,-1,727,1604,0,0
-490,-580,0,0,0,0,0,0,0,0,0,-1,734,1604,0,0
-483,-580,0,0,0,0,0,0,0,0,0,-1,741,1604,0,0
-476,-580,0,0,0,0,0,0,0,0,0,-1,748,1604,0,0
-469,-580,-1.69189,-0.38916,0,0,0,0,0,0,0,-1,755,1604,-1.69192,0.389188
-462,-580,-0.859863,0.675293,0,0,0,0,0,0,0,-1,762,1604,-0.859834,-0.675245
-455,-580,-0.730164,0.651978,0,0,0,0,0,0,0,-1,769,1604,-0.730153,-0.651957
-448,-580,-3.31891,2.07544,0,0,0,0,0,0,0,-1,776,1604,-3.3189,-2.07539
-441,-580,-1.63843,3.9469,0,0,0,0,0,0,0,-1,783,1604,-1.63842,-3.94695
-434,-580,0.23291,5.97876,0,0,0,0,0,0,0,-1,790,1604,0.232901,-5.97878
-427,-580,1.62756,8.05493,0,0,0,0,0,0,0,-1,797,1604,1.62758,-8.05488
-420,-580,0.986572,11.2383,0,0,0,0,0,0,0,-1,804,1604,0.986544,-11.2382
-413,-580,0.953796,21.127,0,0,0,0,0,0,0,-1,811,1604,0.953818,-21.1269
-406,-580,0.868713,22.4922,0,0,0,0,0,0,0,-1,818,1604,0.868715,-22.4922
-399,-580,0.828491,23.1791,-0.00521858,-0.00146813,-0.000996427,-0.00121984,-0.00546687,-1.32658,0.00331368,0.0342233,825,1604,0.828516,-23.1791
-392,-580,0.806824,23.736,-0.00409631,-0.00143764,-0.00064237,-0.00129057,-0.00424338,-1.34573,0.00251179,0.0161913,832,1604,0.806809,-23.736
-385,-580,0.799438,24.2729,-0.00277704,-0.00106545,-0.000216356,-0.00103853,-0.00280397,-1.44698,0.0016369,0.0120162,839,1604,0.799457,-24.273
-378,-580,0.772949,24.7997,-0.00162141,-0.000407223,0.000193367,-0.000377171,-0.00165146,1.41662,0.000999265,0.0146801,846,1604,0.772974,-24.7996
-371,-580,0.748108,25.348,-0.000722713,2.62822e-05,0.000394503,0.000195734,-0.000892165,1.16509,0.000669626,0.0136855,853,1604,0.74811,-25.348
-364,-580,0.689575,25.8599,9.97622e-05,0.000498708,0.000614606,0.0009454,-0.00034693,0.942312,0.000772336,0.0191134,860,1604,0.689602,-25.8599
-357,-580,0.714233,26.35,0.000953633,0.00105969,0.000881496,0.00188975,0.000123572,0.815441,0.00122073,0.0135498,867,1604,0.714204,-26.3499
-350,-580,0.712402,26.9152,0.00193008,0.001583,0.00118136,0.00295058,0.000562502,0.712469,0.00180894,0.0104254,874,1604,0.71243,-26.9152
-343,-580,0.708252,27.4536,0.00286765,0.0022803,0.00159728,0.00419803,0.00094992,0.694484,0.00254192,0.0111348,881,1604,0.708241,-27.4536
-336,-580,0.699951,27.9432,0.0037945,0.00333942,0.00216146,0.00574037,0.00139356,0.732955,0.00345731,0.0194644,888,1604,0.699973,-27.9432
-329,-580,0.677734,28.4202,0.00481289,0.00437911,0.00280169,0.00740607,0.00178592,0.746768,0.00446282,0.018997,895,1604,0.677734,-28.4201
-322,-580,0.664368,28.9442,0.005784,0.00566602,0.00352665,0.00925215,0.00219787,0.777036,0.00558163,0.0206573,902,1604,0.664381,-28.9442
-315,-580,0.681519,29.439,0.0068095,0.00719775,0.00437892,0.0113869,0.0026204,0.807549,0.00688602,0.0216569,909,1604,0.681533,-29.439
-308,-580,0.760132,30.0708,0.00803687,0.00894338,0.00546573,0.0139746,0.00300564,0.826767,0.00849369,0.0314901,916,1604,0.76013,-30.0707
-301,-580,0.864319,30.4478,0.00975418,0.0113443,0.00720315,0.0177961,0.00330234,0.840364,0.0109309,0.0302741,923,1604,0.864326,-30.4478
-294,-580,0.835266,30.9619,0,0,0,0,0,0,0,-1,930,1604,0.835242,-30.9619
-287,-580,0.974915,32.3168,0,0,0,0,0,0,0,-1,937,1604,0.974905,-32.3167
-280,-580,1.71606,31.5383,0,0,0,0,0,0,0,-1,944,1604,1.71604,-31.5383
-273,-580,1.39575,28.6672,0,0,0,0,0,0,0,-1,951,1604,1.39577,-28.6672
-266,-580,1.71777,25.6515,0,0,0,0,0,0,0,-1,958,1604,1.71775,-25.6515
-259,-580,1.31091,9.11536,0,0,0,0,0,0,0,-1,965,1604,1.31092,-9.11539
-252,-580,1.07629,7.74097,0,0,0,0,0,0,0,-1,972,1604,1.07627,-7.74101
-245,-580,3.80304,9.16028,0,0,0,0,0,0,0,-1,979,1604,3.80306,-9.16034
-238,-580,-10.3588,1.57556,0,0,0,0,0,0,0,-1,986,1604,-10.3588,-1.5755
-231,-580,-10.576,6.43787,0,0,0,0,0,0,0,-1,993,1604,-10.576,-6.43783
-224,-580,-8.27435,7.58972,0,0,0,0,0,0,0,-1,1000,1604,-8.27435,-7.5897
-217,-580,-5.85632,9.51221,0,0,0,0,0,0,0,-1,1007,1604,-5.85632,-9.5122
-210,-580,-3.6684,11.1569,0,0,0,0,0,0,0,-1,1014,1604,-3.66839,-11.1569
-203,-580,-1.92474,12.7845,0,0,0,0,0,0,0,-1,1021,1604,-1.92477,-12.7845
-196,-580,-2.28552,10.3289,0,0,0,0,0,0,0,-1,1028,1604,-2.28552,-10.3288
-189,-580,-4.58252,7.59058,0,0,0,0,0,0,0,-1,1035,1604,-4.58256,-7.59057
-182,-580,-5.45874,7.65942,0,0,0,0,0,0,0,-1,1042,1604,-5.45876,-7.65939
-175,-580,-6.38977,7.55005,0,0,0,0,0,0,0,-1,1049,1604,-6.38981,-7.5501
-168,-580,0,0,0,0,0,0,0,0,0,-1,1056,1604,0,0
-161,-580,0,0,0,0,0,0,0,0,0,-1,1063,1604,0,0
-154,-580,0,0,0,0,0,0,0,0,0,-1,1070,1604,0,0
-147,-580,0,0,0,0,0,0,0,0,0,-1,1077,1604,0,0
-140,-580,0,0,0,0,0,0,0,0,0,-1,1084,1604,0,0
-133,-580,0,0,0,0,0,0,0,0,0,-1,1091,1604,0,0
-126,-580,0,0,0,0,0,0,0,0,0,-1,1098,1604,0,0
-119,-580,0,0,0,0,0,0,0,0,0,-1,1105,1604,0,0
-112,-580,0,0,0,0,0,0,0,0,0,-1,1112,1604,0,0
-105,-580,0,0,0,0,0,0,0,0,0,-1,1119,1604,0,0
-98,-580,0,0,0,0,0,0,0,0,0,-1,1126,1604,0,0
-91,-580,0,0,0,0,0,0,0,0,0,-1,1133,1604,0,0
-84,-580,0,0,0,0,0,0,0,0,0,-1,1140,1604,0,0
-77,-580,0,0,0,0,0,0,0,0,0,-1,1147,1604,0,0
-70,-580,0,0,0,0,0,0,0,0,0,-1,1154,1604,0,0
-63,-580,0,0,0,0,0,0,0,0,0,-1,1161,1604,0,0
-56,-580,0,0,0,0,0,0,0,0,0,-1,1168,1604,0,0
-49,-580,0,0,0,0,0,0,0,0,0,-1,1175,1604,0,0
-42,-580,0,0,0,0,0,0,0,0,0,-1,1182,1604,0,0
-35,-580,0,0,0,0,0,0,0,0,0,-1,1189,1604,0,0
-28,-580,0,0,0,0,0,0,0,0,0,-1,1196,1604,0,0
-21,-580,0,0,0,0,0,0,0,0,0,-1,1203,1604,0,0
-14,-580,0,0,0,0,0,0,0,0,0,-1,1210,1604,0,0
-7,-580,0,0,0,0,0,0,0,0,0,-1,1217,1604,0,0
0,-580,0,0,0,0,0,0,0,0,0,-1,1224,1604,0,0
7,-580,0,0,0,0,0,0,0,0,0,-1,1231,1604,0,0
14,-580,0,0,0,0,0,0,0,0,0,-1,1238,1604,0,0
21,-580,0,0,0,0,0,0,0,0,0,-1,1245,1604,0,0
28,-580,0,0,0,0,0,0,0,0,0,-1,1252,1604,0,0
35,-580,0,0,0,0,0,0,0,0,0,-1,1259,1604,0,0
42,-580,0,0,0,0,0,0,0,0,0,-1,1266,1604,0,0
49,-580,0,0,0,0,0,0,0,0,0,-1,1273,1604,0,0
56,-580,0,0,0,0,0,0,0,0,0,-1,1280,1604,0,0
63,-580,0,0,0,0,0,0,0,0,0,-1,1287,1604,0,0
70,-580,0,0,0,0,0,0,0,0,0,-1,1294,1604,0,0
77,-580,0,0,0,0,0,0,0,0,0,-1,1301,1604,0,0
84,-580,0,0,0,0,0,0,0,0,0,-1,1308,1604,0,0
91,-580,0,0,0,0,0,0,0,0,0,-1,1315,1604,0,0
98,-580,0,0,0,0,0,0,0,0,0,-1,1322,1604,0,0
105,-580,0,0,0,0,0,0,0,0,0,-1,1329,1604,0,0
112,-580,0,0,0,0,0,0,0,0,0,-1,1336,1604,0,0
119,-580,0,0,0,0,0,0,0,0,0,-1,1343,1604,0,0
126,-580,0,0,0,0,0,0,0,0,0,-1,1350,1604,0,0
133,-580,0,0,0,0,0,0,0,0,0,-1,1357,1604,0,0
140,-580,0,0,0,0,0,0,0,0,0,-1,1364,1604,0,0
147,-580,0,0,0,0,0,0,0,0,0,-1,1371,1604,0,0
154,-580,0,0,0,0,0,0,0,0,0,-1,1378,1604,0,0
161,-580,0,0,0,0,0,0,0,0,0,-1,1385,1604,0,0
168,-580,0,0,0,0,0,0,0,0,0,-1,1392,1604,0,0
175,-580,0,0,0,0,0,0,0,0,0,-1,1399,1604,0,0
182,-580,0,0,0,0,0,0,0,0,0,-1,1406,1604,0,0
189,-580,0,0,0,0,0,0,0,0,0,-1,1413,1604,0,0
196,-580,0,0,0,0,0,0,0,0,0,-1,1420,1604,0,0
203,-580,0,0,0,0,0,0,0,0,0,-1,1427,1604,0,0
210,-580,0,0,0,0,0,0,0,0,0,-1,1434,1604,0,0
217,-580,0,0,0,0,0,0,0,0,0,-1,1441,1604,0,0
224,-580,0,0,0,0,0,0,0,0,0,-1,1448,1604,0,0
231,-580,0,0,0,0,0,0,0,0,0,-1,1455,1604,0,0
238,-580,0,0,0,0,0,0,0,0,0,-1,1462,1604,0,0
245,-580,0,0,0,0,0,0,0,0,0,-1,1469,1604,0,0
252,-580,0,0,0,0,0,0,0,0,0,-1,1476,1604,0,0
259,-580,0,0,0,0,0,0,0,0,0,-1,1483,1604,0,0
266,-580,0,0,0,0,0,0,0,0,0,-1,1490,1604,0,0
273,-580,0,0,0,0,0,0,0,0,0,-1,1497,1604,0,0
280,-580,0,0,0,0,0,0,0,0,0,-1,1504,1604,0,0
287,-580,0,0,0,0,0,0,0,0,0,-1,1511,1604,0,0
294,-580,4.0437,0.177368,0,0,0,0,0,0,0,-1,1518,1604,4.04369,-0.177371
301,-580,7.55164,8.05798,0,0,0,0,0,0,0,-1,1525,1604,7.55158,-8.05802
308,-580,5.9126,9.99341,0,0,0,0,0,0,0,-1,1532,1604,5.91255,-9.99337
315,-580,4.27356,11.9287,0,0,0,0,0,0,0,-1,1539,1604,4.27352,-11.9287
322,-580,10.2366,7.50281,0,0,0,0,0,0,0,-1,1546,1604,10.2366,-7.50282
329,-580,10.5962,8.69641,0,0,0,0,0,0,0,-1,1553,1604,10.5962,-8.69642
336,-580,3.66431,1.58862,0,0,0,0,0,0,0,-1,1560,1604,3.6643,-1.58864
343,-580,3.32227,1.39636,0,0,0,0,0,0,0,-1,1567,1604,3.32222,-1.39633
350,-580,8.71277,4.0564,0,0,0,0,0,0,0,-1,1574,1604,8.71271,-4.05638
357,-580,8.52332,3.08154,0,0,0,0,0,0,0,-1,1581,1604,8.52332,-3.08157
364,-580,8.25818,2.07605,0,0,0,0,0,0,0,-1,1588,1604,8.25812,-2.07608
371,-580,7.42114,7.14282,0,0,0,0,0,0,0,-1,1595,1604,7.42119,-7.14281
378,-580,7.9718,6.6731,0,0,0,0,0,0,0,-1,1602,1604,7.9718,-6.67307
385,-580,8.52246,6.20337,0,0,0,0,0,0,0,-1,1609,1604,8.52241,-6.20334
392,-580,15.1675,33.2534,0,0,0,0,0,0,0,-1,1616,1604,15.1675,-33.2535
399,-580,14.5144,32.5269,0,0,0,0,0,0,0,-1,1623,1604,14.5144,-32.5268
406,-580,16.236,33.2972,0,0,0,0,0,0,0,-1,1630,1604,16.2359,-33.2972
413,-580,16.2991,32.6012,0,0,0,0,0,0,0,-1,1637,1604,16.2991,-32.6012
420,-580,16.256,32.4648,0,0,0,0,0,0,0,-1,1644,1604,16.256,-32.4648
427,-580,16.236,31.9226,-0.00308271,0.0172404,-0.00155939,0.0173594,-0.00320167,-1.49466,0.0127746,0.0415173,1651,1604,16.236,-31.9226
434,-580,16.0802,31.3341,-0.00204564,0.0156214,-0.00224904,0.0159032,-0.00232745,-1.44614,0.011457,0.034078,1658,1604,16.0802,-31.3342
441,-580,15.9059,30.5851,-0.000811269,0.0142688,-0.00296643,0.0148313,-0.00137382,-1.38338,0.0103759,0.0204121,1665,1604,15.9058,-30.5851
448,-580,15.9642,30.0159,0.000350036,0.0128886,-0.00367204,0.0138849,-0.000646199,-1.30587,0.00947933,0.0158234,1672,1604,15.9643,-30.0159
455,-580,16.0195,29.5624,0.00117636,0.0110509,-0.00390529,0.0124087,-0.000181436,-1.23619,0.00833363,0.0194894,1679,1604,16.0196,-29.5624
462,-580,15.9921,29.0792,0.00173087,0.00912163,-0.00377001,0.0107053,0.000147157,-1.1731,0.00708835,0.0238189,1686,1604,15.992,-29.0792
469,-580,15.9952,28.5873,0.00207624,0.00730167,-0.00341449,0.00898837,0.000389528,-1.11197,0.00586672,0.0205034,1693,1604,15.9952,-28.5872
476,-580,15.9872,28.1312,0.00205739,0.00559965,-0.00282724,0.00716471,0.000492322,-1.06522,0.00462112,0.0152912,1700,1604,15.9872,-28.1312
483,-580,15.9768,27.6779,0.00190904,0.0038291,-0.00232251,0.00538218,0.000355964,-0.981383,0.00347555,0.0141934,1707,1604,15.9767,-27.6779
490,-580,15.9559,27.2036,0.00144985,0.00222945,-0.00157804,0.00346512,0.000214171,-0.906482,0.0022421,0.0178988,1714,1604,15.9559,-27.2036
497,-580,15.9178,26.703,0.000638053,0.000770214,-0.000800159,0.00150702,-9.87497e-05,-0.826597,0.00103916,0.0145957,1721,1604,15.9178,-26.703
504,-580,15.9054,26.1907,-0.000481874,-0.000579016,0.000224332,-0.000300915,-0.000759974,0.678787,0.000441927,0.0176754,1728,1604,15.9054,-26.1906
511,-580,15.8821,25.7141,-0.00192849,-0.00168496,0.00164326,-0.000158964,-0.00345449,0.822381,0.00225188,0.0173475,1735,1604,15.882,-25.7141
518,-580,15.8593,25.217,-0.00337179,-0.00265364,0.00293433,-5.65012e-05,-0.00596893,0.84628,0.00396059,0.0160162,1742,1604,15.8593,-25.217
525,-580,15.8459,24.7125,-0.00508932,-0.00351665,0.00456534,0.000329582,-0.00893555,0.870681,0.00606988,0.0188162,1749,1604,15.846,-24.7125
532,-580,15.8254,24.2449,-0.00720262,-0.00438598,0.0067918,0.00114197,-0.0127306,0.887627,0.00889218,0.0239073,1756,1604,15.8255,-24.2448
539,-580,15.8309,23.8086,-0.00997567,-0.00540197,0.00984376,0.00241708,-0.0177947,0.899531,0.0127455,0.0281829,1763,1604,15.831,-23.8087
546,-580,15.9633,23.3032,0,0,0,0,0,0,0,-1,1770,1604,15.9633,-23.3033
553,-580,14.5503,22.8806,0,0,0,0,0,0,0,-1,1777,1604,14.5503,-22.8807
560,-580,14.1427,22.5472,0,0,0,0,0,0,0,-1,1784,1604,14.1427,-22.5472
567,-580,3.87708,4.0647,0,0,0,0,0,0,0,-1,1791,1604,3.87711,-4.06471
574,-580,2.31653,5.62952,0,0,0,0,0,0,0,-1,1798,1604,2.31654,-5.62947
581,-580,1.60876,6.67664,0,0,0,0,0,0,0,-1,1805,1604,1.60873,-6.67667
588,-580,1.38684,7.14441,0,0,0,0,0,0,0,-1,1812,1604,1.38689,-7.14443
595,-580,0,0,0,0,0,0,0,0,0,-1,1819,1604,0,0
602,-580,0,0,0,0,0,0,0,0,0,-1,1826,1604,0,0
609,-580,0,0,0,0,0,0,0,0,0,-1,1833,1604,0,0
616,-580,0,0,0,0,0,0,0,0,0,-1,1840,1604,0,0
623,-580,0,0,0,0,0,0,0,0,0,-1,1847,1604,0,0
630,-580,0,0,0,0,0,0,0,0,0,-1,1854,1604,0,0
637,-580,0,0,0,0,0,0,0,0,0,-1,1861,1604,0,0
644,-580,0,0,0,0,0,0,0,0,0,-1,1868,1604,0,0
651,-580,0,0,0,0,0,0,0,0,0,-1,1875,1604,0,0
658,-580,0,0,0,0,0,0,0,0,0,-1,1882,1604,0,0
665,-580,0,0,0,0,0,0,0,0,0,-1,1889,1604,0,0
672,-580,0,0,0,0,0,0,0,0,0,-1,1896,1604,0,0
679,-580,0,0,0,0,0,0,0,0,0,-1,1903,1604,0,0
686,-580,0,0,0,0,0,0,0,0,0,-1,1910,1604,0,0
693,-580,0,0,0,0,0,0,0,0,0,-1,1917,1604,0,0
700,-580,0,0,0,0,0,0,0,0,0,-1,1924,1604,0,0
707,-580,0,0,0,0,0,0,0,0,0,-1,1931,1604,0,0
714,-580,0,0,0,0,0,0,0,0,0,-1,1938,1604,0,0
721,-580,0,0,0,0,0,0,0,0,0,-1,1945,1604,0,0
728,-580,0,0,0,0,0,0,0,0,0,-1,1952,1604,0,0
735,-580,0,0,0,0,0,0,0,0,0,-1,1959,1604,0,0
742,-580,0,0,0,0,0,0,0,0,0,-1,1966,1604,0,0
749,-580,0,0,0,0,0,0,0,0,0,-1,1973,1604,0,0
756,-580,0,0,0,0,0,0,0,0,0,-1,1980,1604,0,0
763,-580,0,0,0,0,0,0,0,0,0,-1,1987,1604,0,0
770,-580,0,0,0,0,0,0,0,0,0,-1,1994,1604,0,0
777,-580,0,0,0,0,0,0,0,0,0,-1,2001,1604,0,0
784,-580,0,0,0,0,0,0,0,0,0,-1,2008,1604,0,0
791,-580,0,0,0,0,0,0,0,0,0,-1,2015,1604,0,0
798,-580,0,0,0,0,0,0,0,0,0,-1,2022,1604,0,0
805,-580,0,0,0,0,0,0,0,0,0,-1,2029,1604,0,0
812,-580,0,0,0,0,0,0,0,0,0,-1,2036,1604,0,0
-700,-587,0,0,0,0,0,0,0,0,0,-1,524,1611,0,0
-693,-587,0,0,0,0,0,0,0,0,0,-1,531,1611,0,0
-686,-587,0,0,0,0,0,0,0,0,0,-1,538,1611,0,0
-679,-587,0,0,0,0,0,0,0,0,0,-1,545,1611,0,0
-672,-587,0,0,0,0,0,0,0,0,0,-1,552,1611,0,0
-665,-587,0,0,0,0,0,0,0,0,0,-1,559,1611,0,0
-658,-587,0,0,0,0,0,0,0,0,0,-1,566,1611,0,0
-651,-587,0,0,0,0,0,0,0,0,0,-1,573,1611,0,0
-644,-587,0,0,0,0,0,0,0,0,0,-1,580,1611,0,0
-637,-587,0,0,0,0,0,0,0,0,0,-1,587,1611,0,0
-630,-587,0,0,0,0,0,0,0,0,0,-1,594,1611,0,0
-623,-587,0,0,0,0,0,0,0,0,0,-1,601,1611,0,0
-616,-587,0,0,0,0,0,0,0,0,0,-1,608,1611,0,0
-609,-587,0,0,0,0,0,0,0,0,0,-1,615,1611,0,0
-602,-587,0,0,0,0,0,0,0,0,0,-1,622,1611,0,0
-595,-587,0,0,0,0,0,0,0,0,0,-1,629,1611,0,0
-588,-587,0,0,0,0,0,0,0,0,0,-1,636,1611,0,0
-581,-587,0,0,0,0,0,0,0,0,0,-1,643,1611,0,0
-574,-587,0,0,0,0,0,0,0,0,0,-1,650,1611,0,0
-567,-587,0,0,0,0,0,0,0,0,0,-1,657,1611,0,0
-560,-587,0,0,0,0,0,0,0,0,0,-1,664,1611,0,0
-553,-587,0,0,0,0,0,0,0,0,0,-1,671,1611,0,0
-546,-587,0,0,0,0,0,0,0,0,0,-1,678,1611,0,0
-539,-587,0,0,0,0,0,0,0,0,0,-1,685,1611,0,0
-532,-587,0,0,0,0,0,0,0,0,0,-1,692,1611,0,0
-525,-587,0,0,0,0,0,0,0,0,0,-1,699,1611,0,0
-518,-587,0,0,0,0,0,0,0,0,0,-1,706,1611,0,0
-511,-587,0,0,0,0,0,0,0,0,0,-1,713,1611,0,0
-504,-587,0,0,0,0,0,0,0,0,0,-1,720,1611,0,0
-497,-587,0,0,0,0,0,0,0,0,0,-1,727,1611,0,0
-490,-587,0,0,0,0,0,0,0,0,0,-1,734,1611,0,0
-483,-587,0,0,0,0,0,0,0,0,0,-1,741,1611,0,0
-476,-587,0,0,0,0,0,0,0,0,0,-1,748,1611,0,0
-469,-587,0,0,0,0,0,0,0,0,0,-1,755,1611,0,0
-462,-587,-0.714355,-0.418457,0,0,0,0,0,0,0,-1,762,1611,-0.714359,0.418483
-455,-587,-0.619812,-0.522461,0,0,0,0,0,0,0,-1,769,1611,-0.619802,0.522515
-448,-587,-0.461731,-0.686523,0,0,0,0,0,0,0,-1,776,1611,-0.461739,0.686559
-441,-587,-3.56555,2.72253,0,0,0,0,0,0,0,-1,783,1611,-3.56555,-2.72259
-434,-587,-1.77319,4.76318,0,0,0,0,0,0,0,-1,790,1611,-1.77318,-4.76323
-427,-587,0.0346069,6.92944,0,0,0,0,0,0,0,-1,797,1611,0.034587,-6.92941
-420,-587,-0.647156,10.1157,0,0,0,0,0,0,0,-1,804,1611,-0.647128,-10.1158
-413,-587,2.13971,10.3901,0,0,0,0,0,0,0,-1,811,1611,2.13971,-10.3902
-406,-587,2.2525,19.7814,0,0,0,0,0,0,0,-1,818,1611,2.25253,-19.7814
-399,-587,1.52325,23.1563,0,0,0,0,0,0,0,-1,825,1611,1.52324,-23.1562
-392,-587,1.44751,23.6732,-0.0051855,-0.00200697,-0.000956746,-0.00174121,-0.00545126,-1.29985,0.00321498,0.0456902,832,1611,1.44753,-23.6732
-385,-587,1.24402,24.2466,-0.00371387,-0.00155398,-0.000407428,-0.00147968,-0.00378817,-1.39042,0.00220448,0.0217169,839,1611,1.24403,-24.2466
-378,-587,1.27802,24.83,-0.00247998,-0.000825649,7.25675e-05,-0.000822472,-0.00248316,1.52704,0.00146062,0.0127743,846,1611,1.27804,-24.8299
-371,-587,1.24762,25.397,-0.00158311,-0.000411558,0.000266338,-0.000353852,-0.00164082,1.35743,0.000997081,0.0137018,853,1611,1.24763,-25.3969
-364,-587,1.21832,25.9104,-0.000791482,-3.3283e-05,0.000460467,0.000184062,-0.00100883,1.12979,0.000741559,0.0176741,860,1611,1.21835,-25.9104
-357,-587,1.21991,26.3567,2.07063e-05,0.000434218,0.000700331,0.000957676,-0.000502751,0.928934,0.000856705,0.0169179,867,1611,1.21989,-26.3567
-350,-587,1.20251,26.9115,0.000923478,0.000869924,0.000950837,0.00184792,-5.45129e-05,0.771321,0.00125051,0.00961405,874,1611,1.2025,-26.9115
-343,-587,1.17932,27.4086,0.0017669,0.00145676,0.00128105,0.00290223,0.000321433,0.725166,0.00183707,0.0123594,881,1611,1.1793,-27.4086
-336,-587,1.18958,27.9032,0.0025945,0.00230978,0.00172162,0.00417964,0.000724642,0.744148,0.00257904,0.0137295,888,1611,1.18957,-27.9032
-329,-587,1.15833,28.402,0.00344817,0.00321935,0.00221126,0.00554798,0.00111954,0.759552,0.0033877,0.016563,895,1611,1.15832,-28.4019
-322,-587,1.14801,28.9354,0.0042229,0.0042731,0.00274117,0.00698929,0.00150671,0.789976,0.00424733,0.0195534,902,1611,1.14803,-28.9354
-315,-587,1.13647,29.4196,0.00504301,0.0054977,0.00336272,0.00864075,0.00189996,0.819151,0.00524321,0.0153244,909,1611,1.1365,-29.4195
-308,-587,1.12634,29.9098,0.00602787,0.00681939,0.00413646,0.010579,0.00226828,0.833091,0.00643131,0.0142703,916,1611,1.12637,-29.9098
-301,-587,1.19073,30.4237,0.00743348,0.00875136,0.00544484,0.013577,0.00260785,0.845616,0.00831942,0.0161688,923,1611,1.19071,-30.4237
-294,-587,1.28455,30.9728,0.00936055,0.0120161,0.00746662,0.0182721,0.00310456,0.873392,0.0112897,0.0299735,930,1611,1.28453,-30.9728
-287,-587,1.22375,31.6707,0.0114055,0.0153941,0.00969969,0.0233024,0.00349717,0.886788,0.0145103,0.048296,937,1611,1.22373,-31.6706
-280,-587,1.54138,32.7993,0,0,0,0,0,0,0,-1,944,1611,1.5414,-32.7993
-273,-587,1.51239,32.5442,0,0,0,0,0,0,0,-1,951,1611,1.51238,-32.5442
-266,-587,2.23218,33.8391,0,0,0,0,0,0,0,-1,958,1611,2.23219,-33.8392
-259,-587,1.76306,28.5784,0,0,0,0,0,0,0,-1,965,1611,1.76307,-28.5784
-252,-587,1.30188,10.3103,0,0,0,0,0,0,0,-1,972,1611,1.30188,-10.3104
-245,-587,1.52075,27.4791,0,0,0,0,0,0,0,-1,979,1611,1.52076,-27.4791
-238,-587,2.87799,9.53821,0,0,0,0,0,0,0,-1,986,1611,2.87797,-9.53823
-231,-587,2.49548,9.14465,0,0,0,0,0,0,0,-1,993,1611,2.49551,-9.14468
-224,-587,-9.72528,9.21069,0,0,0,0,0,0,0,-1,1000,1611,-9.72529,-9.21072
-217,-587,-7.07495,10.7847,0,0,0,0,0,0,0,-1,1007,1611,-7.07495,-10.7847
-210,-587,-4.72308,12.5889,0,0,0,0,0,0,0,-1,1014,1611,-4.72307,-12.5888
-203,-587,-3.2583,13.7289,0,0,0,0,0,0,0,-1,1021,1611,-3.25828,-13.7289
-196,-587,-1.953,14.8145,0,0,0,0,0,0,0,-1,1028,1611,-1.95302,-14.8144
-189,-587,-3.04138,8.66638,0,0,0,0,0,0,0,-1,1035,1611,-3.04136,-8.66635
-182,-587,-3.97095,9.7146,0,0,0,0,0,0,0,-1,1042,1611,-3.97093,-9.71461
-175,-587,-4.80969,8.37878,0,0,0,0,0,0,0,-1,1049,1611,-4.80964,-8.37883
-168,-587,-5.91394,8.72546,0,0,0,0,0,0,0,-1,1056,1611,-5.91398,-8.72542
-161,-587,-7.06946,8.88501,0,0,0,0,0,0,0,-1,1063,1611,-7.06947,-8.885
-154,-587,-2.24731,6.56519,0,0,0,0,0,0,0,-1,1070,1611,-2.24728,-6.56517
-147,-587,0,0,0,0,0,0,0,0,0,-1,1077,1611,0,0
-140,-587,0,0,0,0,0,0,0,0,0,-1,1084,1611,0,0
-133,-587,0,0,0,0,0,0,0,0,0,-1,1091,1611,0,0
-126,-587,0,0,0,0,0,0,0,0,0,-1,1098,1611,0,0
-119,-587,0,0,0,0,0,0,0,0,0,-1,1105,1611,0,0
-112,-587,0,0,0,0,0,0,0,0,0,-1,1112,1611,0,0
-105,-587,0,0,0,0,0,0,0,0,0,-1,1119,1611,0,0
-98,-587,0,0,0,0,0,0,0,0,0,-1,1126,1611,0,0
-91,-587,0,0,0,0,0,0,0,0,0,-1,1133,1611,0,0
-84,-587,0,0,0,0,0,0,0,0,0,-1,1140,1611,0,0
-77,-587,0,0,0,0,0,0,0,0,0,-1,1147,1611,0,0
-70,-587,0,0,0,0,0,0,0,0,0,-1,1154,1611,0,0
-63,-587,0,0,0,0,0,0,0,0,0,-1,1161,1611,0,0
-56,-587,0,0,0,0,0,0,0,0,0,-1,1168,1611,0,0
-49,-587,0,0,0,0,0,0,0,0,0,-1,1175,1611,0,0
-42,-587,0,0,0,0,0,0,0,0,0,-1,1182,1611,0,0
-35,-587,0,0,0,0,0,0,0,0,0,-1,1189,1611,0,0
-28,-587,0,0,0,0,0,0,0,0,0,-1,1196,1611,0,0
-21,-587,0,0,0,0,0,0,0,0,0,-1,1203,1611,0,0
-14,-587,0,0,0,0,0,0,0,0,0,-1,1210,1611,0,0
-7,-587,0,0,0,0,0,0,0,0,0,-1,1217,1611,0,0
0,-587,0,0,0,0,0,0,0,0,0,-1,1224,1611,0,0
7,-587,0,0,0,0,0,0,0,0,0,-1,1231,1611,0,0
14,-587,0,0,0,0,0,0,0,0,0,-1,1238,1611,0,0
21,-587,0,0,0,0,0,0,0,0,0,-1,1245,1611,0,0
28,-587,0,0,0,0,0,0,0,0,0,-1,1252,1611,0,0
35,-587,0,0,0,0,0,0,0,0,0,-1,1259,1611,0,0
42,-587,0,0,0,0,0,0,0,0,0,-1,1266,1611,0,0
49,-587,0,0,0,0,0,0,0,0,0,-1,1273,1611,0,0
56,-587,0,0,0,0,0,0,0,0,0,-1,1280,1611,0,0
63,-587,0,0,0,0,0,0,0,0,0,-1,1287,1611,0,0
70,-587,0,0,0,0,0,0,0,0,0,-1,1294,1611,0,0
77,-587,0,0,0,0,0,0,0,0,0,-1,1301,1611,0,0
84,-587,0,0,0,0,0,0,0,0,0,-1,1308,1611,0,0
91,-587,0,0,0,0,0,0,0,0,0,-1,1315,1611,0,0
98,-587,0,0,0,0,0,0,0,0,0,-1,1322,1611,0,0
105,-587,0,0,0,0,0,0,0,0,0,-1,1329,1611,0,0
112,-587,0,0,0,0,0,0,0,0,0,-1,1336,1611,0,0
119,-587,0,0,0,0,0,0,0,0,0,-1,1343,1611,0,0
126,-587,0,0,0,0,0,0,0,0,0,-1,1350,1611,0,0
133,-587,0,0,0,0,0,0,0,0,0,-1,1357,1611,0,0
140,-587,0,0,0,0,0,0,0,0,0,-1,1364,1611,0,0
147,-587,0,0,0,0,0,0,0,0,0,-1,1371,1611,0,0
154,-587,0,0,0,0,0,0,0,0,0,-1,1378,1611,0,0
161,-587,0,0,0,0,0,0,0,0,0,-1,1385,1611,0,0
168,-587,0,0,0,0,0,0,0,0,0,-1,1392,1611,0,0
175,-587,0,0,0,0,0,0,0,0,0,-1,1399,1611,0,0
182,-587,0,0,0,0,0,0,0,0,0,-1,1406,1611,0,0
189,-587,0,0,0,0,0,0,0,0,0,-1,1413,1611,0,0
196,-587,0,0,0,0,0,0,0,0,0,-1,1420,1611,0,0
203,-587,0,0,0,0,0,0,0,0,0,-1,1427,1611,0,0
210,-587,0,0,0,0,0,0,0,0,0,-1,1434,1611,0,0
217,-587,0,0,0,0,0,0,0,0,0,-1,1441,1611,0,0
224,-587,0,0,0,0,0,0,0,0,0,-1,1448,1611,0,0
231,-587,0,0,0,0,0,0,0,0,0,-1,1455,1611,0,0
238,-587,0,0,0,0,0,0,0,0,0,-1,1462,1611,0,0
245,-587,0,0,0,0,0,0,0,0,0,-1,1469,1611,0,0
252,-587,0,0,0,0,0,0,0,0,0,-1,1476,1611,0,0
259,-587,0,0,0,0,0,0,0,0,0,-1,1483,1611,0,0
266,-587,0,0,0,0,0,0,0,0,0,-1,1490,1611,0,0
273,-587,10.2936,6.35083,0,0,0,0,0,0,0,-1,1497,1611,10.2936,-6.35087
280,-587,2.09204,1.1217,0,0,0,0,0,0,0,-1,1504,1611,2.092,-1.12176
287,-587,3.2865,0.671509,0,0,0,0,0,0,0,-1,1511,1611,3.28656,-0.671538
294,-587,4.24646,1.58765,0,0,0,0,0,0,0,-1,1518,1611,4.24648,-1.58761
301,-587,7.60474,8.37085,0,0,0,0,0,0,0,-1,1525,1611,7.60478,-8.37084
308,-587,5.99316,10.2291,0,0,0,0,0,0,0,-1,1532,1611,5.99315,-10.2291
315,-587,4.34558,12.3289,0,0,0,0,0,0,0,-1,1539,1611,4.34556,-12.3288
322,-587,10.4526,6.38245,0,0,0,0,0,0,0,-1,1546,1611,10.4526,-6.38245
329,-587,10.7738,8.42444,0,0,0,0,0,0,0,-1,1553,1611,10.7738,-8.42438
336,-587,7.5531,5.96619,0,0,0,0,0,0,0,-1,1560,1611,7.55311,-5.96617
343,-587,9.57495,4.38391,0,0,0,0,0,0,0,-1,1567,1611,9.57494,-4.38397
350,-587,9.50378,3.45093,0,0,0,0,0,0,0,-1,1574,1611,9.50376,-3.4509
357,-587,9.40027,2.50806,0,0,0,0,0,0,0,-1,1581,1611,9.40022,-2.50803
364,-587,9.26477,1.34131,0,0,0,0,0,0,0,-1,1588,1611,9.26479,-1.34126
371,-587,6.98926,7.87561,0,0,0,0,0,0,0,-1,1595,1611,6.98928,-7.87564
378,-587,9.25146,13.8358,0,0,0,0,0,0,0,-1,1602,1611,9.2515,-13.8359
385,-587,17.0917,35.9944,0,0,0,0,0,0,0,-1,1609,1611,17.0917,-35.9944
392,-587,15.9075,33.9827,0,0,0,0,0,0,0,-1,1616,1611,15.9074,-33.9827
399,-587,15.8888,33.6354,0,0,0,0,0,0,0,-1,1623,1611,15.8888,-33.6354
406,-587,15.7457,33.078,-0.00149486,0.0197364,-0.000123635,0.0197371,-0.00149558,-1.56497,0.0136839,0.0443274,1630,1611,15.7457,-33.078
413,-587,15.7574,32.4773,-0.00209012,0.0173222,-0.00016272,0.0173235,-0.00209149,-1.56241,0.0123056,0.0386119,1637,1611,15.7574,-32.4773
420,-587,15.5446,31.9055,-0.00200897,0.0154974,-0.000679324,0.0155237,-0.00203529,-1.53207,0.01109,0.0381716,1644,1611,15.5445,-31.9055
427,-587,15.5255,31.5142,-0.00188111,0.0133725,-0.000904838,0.013426,-0.00193459,-1.51175,0.00966034,0.0295554,1651,1611,15.5255,-31.5142
434,-587,15.5302,31.0585,0,0,0,0,0,0,0,-1,1658,1611,15.5301,-31.0584
441,-587,15.556,30.3951,-0.000509625,0.0108041,-0.00197685,0.0111396,-0.000845095,-1.4027,0.00772351,0.0225184,1665,1611,15.5561,-30.3951
448,-587,15.5342,30.0397,0.00025852,0.00963498,-0.00257296,0.0102946,-0.000401111,-1.31983,0.00700061,0.0154442,1672,1611,15.5342,-30.0397
455,-587,15.5294,29.5714,0.000782501,0.00808484,-0.00276368,0.00901286,-0.000145518,-1.24684,0.00605766,0.014098,1679,1611,15.5294,-29.5714
462,-587,15.4968,29.0853,0.00112029,0.0064248,-0.00263923,0.0075142,3.08892e-05,-1.17933,0.0049992,0.0180626,1686,1611,15.4968,-29.0853
469,-587,15.4854,28.6287,0.00131323,0.00485308,-0.00234387,0.00602022,0.000146094,-1.10879,0.00396568,0.016391,1693,1611,15.4854,-28.6286
476,-587,15.4723,28.1743,0.00120911,0.00339975,-0.00183661,0.00444285,0.000166002,-1.05428,0.00290815,0.0112785,1700,1611,15.4723,-28.1743
483,-587,15.4778,27.6866,0.000960536,0.0018418,-0.00136344,0.00283404,-3.17092e-05,-0.941688,0.00190002,0.0141373,1707,1611,15.4778,-27.6866
490,-587,15.4573,27.1981,0.000466515,0.000407761,-0.000692807,0.00113057,-0.000256292,-0.764209,0.000852088,0.0159711,1714,1611,15.4573,-27.1981
497,-587,15.4026,26.7142,-0.000332535,-0.000897888,-9.1805e-06,-0.000332386,-0.000898037,-0.0162328,0.00052428,0.013433,1721,1611,15.4025,-26.7142
504,-587,15.3859,26.2527,-0.00147411,-0.0020669,0.000979756,-0.0007469,-0.00279411,0.638516,0.0016704,0.0130337,1728,1611,15.3858,-26.2527
511,-587,15.3608,25.7841,-0.00297276,-0.00306019,0.00242541,-0.000590671,-0.00544228,0.776387,0.0034482,0.0149401,1735,1611,15.3608,-25.7841
518,-587,15.3905,25.278,-0.00446383,-0.00387953,0.00372621,-0.00043404,-0.00790933,0.82452,0.00513432,0.0150908,1742,1611,15.3905,-25.278
525,-587,15.4067,24.8214,-0.00633798,-0.0046284,0.00548062,6.36866e-05,-0.0110301,0.862758,0.0073747,0.0211932,1749,1611,15.4067,-24.8214
532,-587,15.3971,24.2596,-0.0087925,-0.00539562,0.0080233,0.00110704,-0.0152952,0.889703,0.0105851,0.0322043,1756,1611,15.3971,-24.2596
539,-587,15.4207,23.5726,0,0,0,0,0,0,0,-1,1763,1611,15.4207,-23.5726
546,-587,16.0444,22.3002,0,0,0,0,0,0,0,-1,1770,1611,16.0444,-22.3002
553,-587,7.5813,8.45068,0,0,0,0,0,0,0,-1,1777,1611,7.58125,-8.45068
560,-587,4.21179,5.23547,0,0,0,0,0,0,0,-1,1784,1611,4.21185,-5.23553
567,-587,4.03711,5.46387,0,0,0,0,0,0,0,-1,1791,1611,4.03715,-5.46382
574,-587,3.83142,5.68884,0,0,0,0,0,0,0,-1,1798,1611,3.83141,-5.68881
581,-587,3.47168,6.00977,0,0,0,0,0,0,0,-1,1805,1611,3.47167,-6.00983
588,-587,0,0,0,0,0,0,0,0,0,-1,1812,1611,0,0
595,-587,0,0,0,0,0,0,0,0,0,-1,1819,1611,0,0
602,-587,0,0,0,0,0,0,0,0,0,-1,1826,1611,0,0
609,-587,0,0,0,0,0,0,0,0,0,-1,1833,1611,0,0
616,-587,0,0,0,0,0,0,0,0,0,-1,1840,1611,0,0
623,-587,0,0,0,0,0,0,0,0,0,-1,1847,1611,0,0
630,-587,0,0,0,0,0,0,0,0,0,-1,1854,1611,0,0
637,-587,0,0,0,0,0,0,0,0,0,-1,1861,1611,0,0
644,-587,0,0,0,0,0,0,0,0,0,-1,1868,1611,0,0
651,-587,0,0,0,0,0,0,0,0,0,-1,1875,1611,0,0
658,-587,0,0,0,0,0,0,0,0,0,-1,1882,1611,0,0
665,-587,0,0,0,0,0,0,0,0,0,-1,1889,1611,0,0
672,-587,0,0,0,0,0,0,0,0,0,-1,1896,1611,0,0
679,-587,0,0,0,0,0,0,0,0,0,-1,1903,1611,0,0
686,-587,0,0,0,0,0,0,0,0,0,-1,1910,1611,0,0
693,-587,0,0,0,0,0,0,0,0,0,-1,1917,1611,0,0
700,-587,0,0,0,0,0,0,0,0,0,-1,1924,1611,0,0
707,-587,0,0,0,0,0,0,0,0,0,-1,1931,1611,0,0
714,-587,0,0,0,0,0,0,0,0,0,-1,1938,1611,0,0
721,-587,0,0,0,0,0,0,0,0,0,-1,1945,1611,0,0
728,-587,0,0,0,0,0,0,0,0,0,-1,1952,1611,0,0
735,-587,0,0,0,0,0,0,0,0,0,-1,1959,1611,0,0
742,-587,0,0,0,0,0,0,0,0,0,-1,1966,1611,0,0
749,-587,0,0,0,0,0,0,0,0,0,-1,1973,1611,0,0
756,-587,0,0,0,0,0,0,0,0,0,-1,1980,1611,0,0
763,-587,0,0,0,0,0,0,0,0,0,-1,1987,1611,0,0
770,-587,0,0,0,0,0,0,0,0,0,-1,1994,1611,0,0
777,-587,0,0,0,0,0,0,0,0,0,-1,2001,1611,0,0
784,-587,0,0,0,0,0,0,0,0,0,-1,2008,1611,0,0
791,-587,0,0,0,0,0,0,0,0,0,-1,2015,1611,0,0
798,-587,0,0,0,0,0,0,0,0,0,-1,2022,1611,0,0
805,-587,0,0,0,0,0,0,0,0,0,-1,2029,1611,0,0
812,-587,0,0,0,0,0,0,0,0,0,-1,2036,1611,0,0
-700,-594,0,0,0,0,0,0,0,0,0,-1,524,1618,0,0
-693,-594,0,0,0,0,0,0,0,0,0,-1,531,1618,0,0
-686,-594,0,0,0,0,0,0,0,0,0,-1,538,1618,0,0
-679,-594,0,0,0,0,0,0,0,0,0,-1,545,1618,0,0
-672,-594,0,0,0,0,0,0,0,0,0,-1,552,1618,0,0
-665,-594,0,0,0,0,0,0,0,0,0,-1,559,1618,0,0
-658,-594,0,0,0,0,0,0,0,0,0,-1,566,1618,0,0
-651,-594,0,0,0,0,0,0,0,0,0,-1,573,1618,0,0
-644,-594,0,0,0,0,0,0,0,0,0,-1,580,1618,0,0
-637,-594,0,0,0,0,0,0,0,0,0,-1,587,1618,0,0
-630,-594,0,0,0,0,0,0,0,0,0,-1,594,1618,0,0
-623,-594,0,0,0,0,0,0,0,0,0,-1,601,1618,0,0
-616,-594,0,0,0,0,0,0,0,0,0,-1,608,1618,0,0
-609,-594,0,0,0,0,0,0,0,0,0,-1,615,1618,0,0
-602,-594,0,0,0,0,0,0,0,0,0,-1,622,1618,0,0
-595,-594,0,0,0,0,0,0,0,0,0,-1,629,1618,0,0
-588,-594,0,0,0,0,0,0,0,0,0,-1,636,1618,0,0
-581,-594,0,0,0,0,0,0,0,0,0,-1,643,1618,0,0
-574,-594,0,0,0,0,0,0,0,0,0,-1,650,1618,0,0
-567,-594,0,0,0,0,0,0,0,0,0,-1,657,1618,0,0
-560,-594,0,0,0,0,0,0,0,0,0,-1,664,1618,0,0
-553,-594,0,0,0,0,0,0,0,0,0,-1,671,1618,0,0
-546,-594,0,0,0,0,0,0,0,0,0,-1,678,1618,0,0
-539,-594,0,0,0,0,0,0,0,0,0,-1,685,1618,0,0
-532,-594,0,0,0,0,0,0,0,0,0,-1,692,1618,0,0
-525,-594,0,0,0,0,0,0,0,0,0,-1,699,1618,0,0
-518,-594,0,0,0,0,0,0,0,0,0,-1,706,1618,0,0
-511,-594,0,0,0,0,0,0,0,0,0,-1,713,1618,0,0
-504,-594,0,0,0,0,0,0,0,0,0,-1,720,1618,0,0
-497,-594,0,0,0,0,0,0,0,0,0,-1,727,1618,0,0
-490,-594,0,0,0,0,0,0,0,0,0,-1,734,1618,0,0
-483,-594,0,0,0,0,0,0,0,0,0,-1,741,1618,0,0
-476,-594,0,0,0,0,0,0,0,0,0,-1,748,1618,0,0
-469,-594,0,0,0,0,0,0,0,0,0,-1,755,1618,0,0
-462,-594,0,0,0,0,0,0,0,0,0,-1,762,1618,0,0
-455,-594,-0.509216,-1.58411,0,0,0,0,0,0,0,-1,769,1618,-0.509245,1.58415
-448,-594,-7.71887,-0.0559082,0,0,0,0,0,0,0,-1,776,1618,-7.71885,0.055939
-441,-594,-5.78473,1.18298,0,0,0,0,0,0,0,-1,783,1618,-5.78474,-1.18295
-434,-594,-3.93628,3.06213,0,0,0,0,0,0,0,-1,790,1618,-3.93631,-3.06208
-427,-594,-3.97693,6.77759,0,0,0,0,0,0,0,-1,797,1618,-3.97695,-6.77764
-420,-594,-2.53046,7.71606,0,0,0,0,0,0,0,-1,804,1618,-2.53047,-7.71609
-413,-594,-0.860413,8.00391,0,0,0,0,0,0,0,-1,811,1618,-0.860423,-8.00389
-406,-594,2.45746,13.6218,0,0,0,0,0,0,0,-1,818,1618,2.45747,-13.6218
-399,-594,2.51508,22.5181,0,0,0,0,0,0,0,-1,825,1618,2.51507,-22.518
-392,-594,2.20465,23.6328,0,0,0,0,0,0,0,-1,832,1618,2.20464,-23.6329
-385,-594,1.8114,24.5046,-0.00441456,-0.0017394,-0.000455931,-0.00166383,-0.00449013,-1.40654,0.00262118,0.0360867,839,1618,1.81138,-24.5047
-378,-594,1.73724,24.8439,-0.00298479,-0.000874071,0.00021681,-0.000852031,-0.00300683,1.46949,0.00178948,0.0167345,846,1618,1.73724,-24.8438
-371,-594,1.75012,25.4128,-0.00204901,-0.000475351,0.000459,-0.000351257,-0.00217311,1.30675,0.00134701,0.012799,853,1618,1.75009,-25.4128
-364,-594,1.74445,25.9135,-0.0012858,-0.000211553,0.000640294,8.70745e-05,-0.00158442,1.1344,0.00108647,0.011192,860,1618,1.74443,-25.9135
-357,-594,1.73102,26.4125,-0.000526596,0.000145011,0.000850859,0.000723934,-0.00110552,0.973347,0.00106387,0.0110553,867,1618,1.731,-26.4125
-350,-594,1.7002,26.9387,0.000270618,0.000472605,0.00104097,0.00141747,-0.000674244,0.833756,0.0012328,0.0149865,874,1618,1.70017,-26.9387
-343,-594,1.67206,27.4597,0.000994539,0.000925714,0.00126773,0.00222833,-0.000308072,0.771829,0.00159817,0.0169386,881,1618,1.67205,-27.4598
-336,-594,1.66638,27.9489,0.00170022,0.00155583,0.00156525,0.00319494,6.11069e-05,0.762352,0.00210989,0.015668,888,1618,1.66639,-27.9489
-329,-594,1.65625,28.4492,0.00237693,0.00232173,0.00189097,0.00424051,0.000458156,0.7781,0.00268734,0.0158395,895,1618,1.65626,-28.4492
-322,-594,1.65094,28.9674,0.00294998,0.0031571,0.00222255,0.0052785,0.000828577,0.808679,0.0032779,0.017623,902,1618,1.65094,-28.9674
-315,-594,1.65082,29.4357,0.00355472,0.00408295,0.00259985,0.00643206,0.00120561,0.836018,0.00394802,0.0177747,909,1618,1.65084,-29.4357
-308,-594,1.61621,29.9089,0.00432242,0.0050547,0.00309899,0.0078091,0.00156801,0.8442,0.00477009,0.0158276,916,1618,1.6162,-29.9089
-301,-594,1.60333,30.3739,0.00545538,0.0065864,0.00403947,0.0100998,0.00194202,0.854944,0.00618825,0.0129614,923,1618,1.60335,-30.3739
-294,-594,1.65106,30.8463,0.00703315,0.00921155,0.00556418,0.0137921,0.00245256,0.882052,0.00849607,0.0143365,930,1618,1.65106,-30.8464
-287,-594,1.60901,31.3215,0.00876847,0.0119265,0.0072032,0.0177217,0.00297324,0.893296,0.0109587,0.0258696,937,1618,1.609,-31.3216
-280,-594,1.72864,31.8624,0.0109045,0.0152503,0.00932255,0.0226498,0.00350496,0.899895,0.0140778,0.0326134,944,1618,1.72866,-31.8624
-273,-594,1.67352,32.4946,0,0,0,0,0,0,0,-1,951,1618,1.67352,-32.4946
-266,-594,2.13147,33.2194,0,0,0,0,0,0,0,-1,958,1618,2.1315,-33.2193
-259,-594,1.80908,33.2405,0,0,0,0,0,0,0,-1,965,1618,1.80909,-33.2405
-252,-594,2.20337,34.2767,0,0,0,0,0,0,0,-1,972,1618,2.20336,-34.2767
-245,-594,2.30096,35.2712,0,0,0,0,0,0,0,-1,979,1618,2.30097,-35.2713
-238,-594,2.09015,28.0121,0,0,0,0,0,0,0,-1,986,1618,2.09012,-28.0121
-231,-594,1.93774,9.35388,0,0,0,0,0,0,0,-1,993,1618,1.93776,-9.35393
-224,-594,1.81824,8.62744,0,0,0,0,0,0,0,-1,1000,1618,1.81822,-8.62745
-217,-594,-8.24066,12.0752,0,0,0,0,0,0,0,-1,1007,1618,-8.24068,-12.0751
-210,-594,-5.61438,14.2119,0,0,0,0,0,0,0,-1,1014,1618,-5.6144,-14.212
-203,-594,-3.94507,15.5768,0,0,0,0,0,0,0,-1,1021,1618,-3.94506,-15.5768
-196,-594,2.78613,10.5815,0,0,0,0,0,0,0,-1,1028,1618,2.78612,-10.5815
-189,-594,2.60913,9.48865,0,0,0,0,0,0,0,-1,1035,1618,2.6091,-9.48871
-182,-594,1.2395,9.38806,0,0,0,0,0,0,0,-1,1042,1618,1.23951,-9.38804
-175,-594,0.234863,8.73792,0,0,0,0,0,0,0,-1,1049,1618,0.234812,-8.73786
-168,-594,-0.495483,8.46289,0,0,0,0,0,0,0,-1,1056,1618,-0.495513,-8.46285
-161,-594,-1.39734,8.28699,0,0,0,0,0,0,0,-1,1063,1618,-1.39729,-8.28699
-154,-594,-0.000854492,7.68445,0,0,0,0,0,0,0,-1,1070,1618,-0.000805755,-7.6845
-147,-594,0.348267,9.3385,0,0,0,0,0,0,0,-1,1077,1618,0.348237,-9.33849
-140,-594,0.675171,11.5884,0,0,0,0,0,0,0,-1,1084,1618,0.675204,-11.5884
-133,-594,0,0,0,0,0,0,0,0,0,-1,1091,1618,0,0
-126,-594,0,0,0,0,0,0,0,0,0,-1,1098,1618,0,0
-119,-594,0,0,0,0,0,0,0,0,0,-1,1105,1618,0,0
-112,-594,0,0,0,0,0,0,0,0,0,-1,1112,1618,0,0
-105,-594,0,0,0,0,0,0,0,0,0,-1,1119,1618,0,0
-98,-594,0,0,0,0,0,0,0,0,0,-1,1126,1618,0,0
-91,-594,0,0,0,0,0,0,0,0,0,-1,1133,1618,0,0
-84,-594,0,0,0,0,0,0,0,0,0,-1,1140,1618,0,0
-77,-594,0,0,0,0,0,0,0,0,0,-1,1147,1618,0,0
-70,-594,0,0,0,0,0,0,0,0,0,-1,1154,1618,0,0
-63,-594,0,0,0,0,0,0,0,0,0,-1,1161,1618,0,0
-56,-594,0,0,0,0,0,0,0,0,0,-1,1168,1618,0,0
-49,-594,0,0,0,0,0,0,0,0,0,-1,1175,1618,0,0
-42,-594,0,0,0,0,0,0,0,0,0,-1,1182,1618,0,0
-35,-594,0,0,0,0,0,0,0,0,0,-1,1189,1618,0,0
-28,-594,0,0,0,0,0,0,0,0,0,-1,1196,1618,0,0
-21,-594,0,0,0,0,0,0,0,0,0,-1,1203,1618,0,0
-14,-594,0,0,0,0,0,0,0,0,0,-1,1210,1618,0,0
-7,-594,0,0,0,0,0,0,0,0,0,-1,1217,1618,0,0
0,-594,0,0,0,0,0,0,0,0,0,-1,1224,1618,0,0
7,-594,0,0,0,0,0,0,0,0,0,-1,1231,1618,0,0
14,-594,0,0,0,0,0,0,0,0,0,-1,1238,1618,0,0
21,-594,0,0,0,0,0,0,0,0,0,-1,1245,1618,0,0
28,-594,0,0,0,0,0,0,0,0,0,-1,1252,1618,0,0
35,-594,0,0,0,0,0,0,0,0,0,-1,1259,1618,0,0
42,-594,0,0,0,0,0,0,0,0,0,-1,1266,1618,0,0
49,-594,0,0,0,0,0,0,0,0,0,-1,1273,1618,0,0
56,-594,0,0,0,0,0,0,0,0,0,-1,1280,1618,0,0
63,-594,0,0,0,0,0,0,0,0,0,-1,1287,1618,0,0
70,-594,0,0,0,0,0,0,0,0,0,-1,1294,1618,0,0
77,-594,0,0,0,0,0,0,0,0,0,-1,1301,1618,0,0
84,-594,0,0,0,0,0,0,0,0,0,-1,1308,1618,0,0
91,-594,0,0,0,0,0,0,0,0,0,-1,1315,1618,0,0
98,-594,0,0,0,0,0,0,0,0,0,-1,1322,1618,0,0
105,-594,0,0,0,0,0,0,0,0,0,-1,1329,1618,0,0
112,-594,0,0,0,0,0,0,0,0,0,-1,1336,1618,0,0
119,-594,0,0,0,0,0,0,0,0,0,-1,1343,1618,0,0
126,-594,0,0,0,0,0,0,0,0,0,-1,1350,1618,0,0
133,-594,0,0,0,0,0,0,0,0,0,-1,1357,1618,0,0
140,-594,0,0,0,0,0,0,0,0,0,-1,1364,1618,0,0
147,-594,0,0,0,0,0,0,0,0,0,-1,1371,1618,0,0
154,-594,0,0,0,0,0,0,0,0,0,-1,1378,1618,0,0
161,-594,0,0,0,0,0,0,0,0,0,-1,1385,1618,0,0
168,-594,0,0,0,0,0,0,0,0,0,-1,1392,1618,0,0
175,-594,0,0,0,0,0,0,0,0,0,-1,1399,1618,0,0
182,-594,0,0,0,0,0,0,0,0,0,-1,1406,1618,0,0
189,-594,0,0,0,0,0,0,0,0,0,-1,1413,1618,0,0
196,-594,0,0,0,0,0,0,0,0,0,-1,1420,1618,0,0
203,-594,0,0,0,0,0,0,0,0,0,-1,1427,1618,0,0
210,-594,0,0,0,0,0,0,0,0,0,-1,1434,1618,0,0
217,-594,0,0,0,0,0,0,0,0,0,-1,1441,1618,0,0
224,-594,0,0,0,0,0,0,0,0,0,-1,1448,1618,0,0
231,-594,0,0,0,0,0,0,0,0,0,-1,1455,1618,0,0
238,-594,0,0,0,0,0,0,0,0,0,-1,1462,1618,0,0
245,-594,0,0,0,0,0,0,0,0,0,-1,1469,1618,0,0
252,-594,3.03674,1.20996,0,0,0,0,0,0,0,-1,1476,1618,3.0368,-1.20999
259,-594,4.79834,1.53113,0,0,0,0,0,0,0,-1,1483,1618,4.79837,-1.53118
266,-594,3.71606,2.68152,0,0,0,0,0,0,0,-1,1490,1618,3.71609,-2.68149
273,-594,9.7655,6.33557,0,0,0,0,0,0,0,-1,1497,1618,9.76555,-6.33554
280,-594,3.13281,0.911255,0,0,0,0,0,0,0,-1,1504,1618,3.13277,-0.911207
287,-594,4.42749,1.51563,0,0,0,0,0,0,0,-1,1511,1618,4.42747,-1.51564
294,-594,5.36475,3.34937,0,0,0,0,0,0,0,-1,1518,1618,5.36475,-3.3494
301,-594,7.97144,9.04333,0,0,0,0,0,0,0,-1,1525,1618,7.9714,-9.04328
308,-594,6.30347,10.4633,0,0,0,0,0,0,0,-1,1532,1618,6.30351,-10.4633
315,-594,4.62012,11.934,0,0,0,0,0,0,0,-1,1539,1618,4.62006,-11.934
322,-594,2.91528,13.3134,0,0,0,0,0,0,0,-1,1546,1618,2.91523,-13.3133
329,-594,4.19861,9.77258,0,0,0,0,0,0,0,-1,1553,1618,4.19865,-9.77264
336,-594,10.1353,4.66528,0,0,0,0,0,0,0,-1,1560,1618,10.1353,-4.66533
343,-594,10.5729,3.71228,0,0,0,0,0,0,0,-1,1567,1618,10.5729,-3.71232
350,-594,10.219,2.98792,0,0,0,0,0,0,0,-1,1574,1618,10.219,-2.98797
357,-594,9.83154,1.96326,0,0,0,0,0,0,0,-1,1581,1618,9.8315,-1.96321
364,-594,9.74939,0.700562,0,0,0,0,0,0,0,-1,1588,1618,9.74939,-0.700615
371,-594,8.54297,14.3988,0,0,0,0,0,0,0,-1,1595,1618,8.54296,-14.3989
378,-594,15.4661,35.5759,0,0,0,0,0,0,0,-1,1602,1618,15.4661,-35.576
385,-594,15.036,34.1277,0,0,0,0,0,0,0,-1,1609,1618,15.036,-34.1277
392,-594,15.2135,33.6261,0.00430897,0.0241973,-0.00382205,0.0249065,0.00359975,-1.38732,0.015544,0.0491887,1616,1618,15.2136,-33.6261
399,-594,15.2124,33.389,0.00206672,0.0199809,-0.00183334,0.0201666,0.00188102,-1.46985,0.0128633,0.0418829,1623,1618,15.2125,-33.389
406,-594,15.1997,32.9,0.000467951,0.0166276,-0.000796888,0.0166668,0.000428748,-1.52164,0.0109711,0.0262727,1630,1618,15.1997,-32.9
413,-594,15.1488,32.4166,-0.000449144,0.0141212,-0.000410894,0.0141327,-0.000460722,-1.54263,0.0095791,0.0177053,1637,1618,15.1488,-32.4167
420,-594,15.1062,31.973,-0.000758977,0.0122882,-0.00053923,0.0123104,-0.000781225,-1.52956,0.00847936,0.0165223,1644,1618,15.1061,-31.973
427,-594,15.1085,31.4851,-0.000982407,0.0102055,-0.000516935,0.0102293,-0.00100624,-1.52472,0.00717849,0.0132982,1651,1618,15.1085,-31.4851
434,-594,15.1025,31.0118,-0.000748295,0.00889983,-0.000819116,0.00896888,-0.000817342,-1.4867,0.00626949,0.0179579,1658,1618,15.1025,-31.0119
441,-594,15.0779,30.5212,-0.000214463,0.00793402,-0.00130784,0.00813879,-0.000419228,-1.41549,0.00557086,0.0162988,1665,1618,15.0779,-30.5212
448,-594,15.0763,30.0616,0.000262236,0.00690013,-0.00177431,0.00734464,-0.00018227,-1.32532,0.0049583,0.0167711,1672,1618,15.0763,-30.0616
455,-594,15.0455,29.5729,0.000581496,0.00557076,-0.00191048,0.00621827,-6.60224e-05,-1.24402,0.0041677,0.012751,1679,1618,15.0456,-29.5729
462,-594,15.036,29.1077,0.00075699,0.00410474,-0.00176231,0.00486141,3.13157e-07,-1.16523,0.00324084,0.013888,1686,1618,15.036,-29.1077
469,-594,15.0148,28.6655,0.000817912,0.00270114,-0.00148065,0.00351423,4.82704e-06,-1.06861,0.00234121,0.0128813,1693,1618,15.0148,-28.6656
476,-594,15.0087,28.2036,0.000629445,0.00141548,-0.0010104,0.00210661,-6.1686e-05,-0.970879,0.00142541,0.0130639,1700,1618,15.0087,-28.2037
483,-594,14.9929,27.7118,0.000269396,1.529e-05,-0.000530658,0.000687999,-0.000403313,-0.667897,0.000637175,0.0152735,1707,1618,14.9929,-27.7118
490,-594,14.9872,27.2129,-0.00029514,-0.00131282,0.000103651,-0.00028469,-0.00132327,0.100476,0.000804258,0.0132354,1714,1618,14.9872,-27.2129
497,-594,14.9612,26.7281,-0.00111473,-0.00251917,0.000728521,-0.000805094,-0.00282881,0.40189,0.00168297,0.0102922,1721,1618,14.9612,-26.7281
504,-594,14.9398,26.2504,-0.00229046,-0.00354828,0.00168428,-0.0011215,-0.00471724,0.606715,0.00284564,0.0105366,1728,1618,14.9398,-26.2504
511,-594,14.928,25.7489,-0.00388038,-0.00448183,0.00313633,-0.00103039,-0.00733182,0.737603,0.00458319,0.016474,1735,1618,14.928,-25.7489
518,-594,14.8826,25.2434,-0.00551214,-0.00519024,0.00445798,-0.000890308,-0.00981207,0.803443,0.00626573,0.0229028,1742,1618,14.8825,-25.2434
525,-594,14.8392,24.689,-0.00759819,-0.00581531,0.00634152,-0.000302881,-0.0131106,0.855227,0.00864122,0.036469,1749,1618,14.8392,-24.689
532,-594,14.8523,24.1511,0,0,0,0,0,0,0,-1,1756,1618,14.8523,-24.1511
539,-594,15.9656,22.989,0,0,0,0,0,0,0,-1,1763,1618,15.9656,-22.989
546,-594,7.48645,8.54785,0,0,0,0,0,0,0,-1,1770,1618,7.48639,-8.54789
553,-594,3.69714,5.68762,0,0,0,0,0,0,0,-1,1777,1618,3.69715,-5.68764
560,-594,6.06616,4.44482,0,0,0,0,0,0,0,-1,1784,1618,6.06621,-4.44477
567,-594,5.97266,4.73303,0,0,0,0,0,0,0,-1,1791,1618,5.97271,-4.73309
574,-594,5.9906,4.96326,0,0,0,0,0,0,0,-1,1798,1618,5.99065,-4.96326
581,-594,0,0,0,0,0,0,0,0,0,-1,1805,1618,0,0
588,-594,0,0,0,0,0,0,0,0,0,-1,1812,1618,0,0
595,-594,0,0,0,0,0,0,0,0,0,-1,1819,1618,0,0
602,-594,0,0,0,0,0,0,0,0,0,-1,1826,1618,0,0
609,-594,0,0,0,0,0,0,0,0,0,-1,1833,1618,0,0
616,-594,0,0,0,0,0,0,0,0,0,-1,1840,1618,0,0
623,-594,0,0,0,0,0,0,0,0,0,-1,1847,1618,0,0
630,-594,0,0,0,0,0,0,0,0,0,-1,1854,1618,0,0
637,-594,0,0,0,0,0,0,0,0,0,-1,1861,1618,0,0
644,-594,0,0,0,0,0,0,0,0,0,-1,1868,1618,0,0
651,-594,0,0,0,0,0,0,0,0,0,-1,1875,1618,0,0
658,-594,0,0,0,0,0,0,0,0,0,-1,1882,1618,0,0
665,-594,0,0,0,0,0,0,0,0,0,-1,1889,1618,0,0
672,-594,0,0,0,0,0,0,0,0,0,-1,1896,1618,0,0
679,-594,0,0,0,0,0,0,0,0,0,-1,1903,1618,0,0
686,-594,0,0,0,0,0,0,0,0,0,-1,1910,1618,0,0
693,-594,0,0,0,0,0,0,0,0,0,-1,1917,1618,0,0
700,-594,0,0,0,0,0,0,0,0,0,-1,1924,1618,0,0
707,-594,0,0,0,0,0,0,0,0,0,-1,1931,1618,0,0
714,-594,0,0,0,0,0,0,0,0,0,-1,1938,1618,0,0
721,-594,0,0,0,0,0,0,0,0,0,-1,1945,1618,0,0
728,-594,0,0,0,0,0,0,0,0,0,-1,1952,1618,0,0
735,-594,0,0,0,0,0,0,0,0,0,-1,1959,1618,0,0
742,-594,0,0,0,0,0,0,0,0,0,-1,1966,1618,0,0
749,-594,0,0,0,0,0,0,0,0,0,-1,1973,1618,0,0
756,-594,0,0,0,0,0,0,0,0,0,-1,1980,1618,0,0
763,-594,0,0,0,0,0,0,0,0,0,-1,1987,1618,0,0
770,-594,0,0,0,0,0,0,0,0,0,-1,1994,1618,0,0
777,-594,0,0,0,0,0,0,0,0,0,-1,2001,1618,0,0
784,-594,0,0,0,0,0,0,0,0,0,-1,2008,1618,0,0
791,-594,0,0,0,0,0,0,0,0,0,-1,2015,1618,0,0
798,-594,0,0,0,0,0,0,0,0,0,-1,2022,1618,0,0
805,-594,0,0,0,0,0,0,0,0,0,-1,2029,1618,0,0
812,-594,0,0,0,0,0,0,0,0,0,-1,2036,1618,0,0
-700,-601,0,0,0,0,0,0,0,0,0,-1,524,1625,0,0
-693,-601,0,0,0,0,0,0,0,0,0,-1,531,1625,0,0
-686,-601,0,0,0,0,0,0,0,0,0,-1,538,1625,0,0
-679,-601,0,0,0,0,0,0,0,0,0,-1,545,1625,0,0
-672,-601,0,0,0,0,0,0,0,0,0,-1,552,1625,0,0
-665,-601,0,0,0,0,0,0,0,0,0,-1,559,1625,0,0
-658,-601,0,0,0,0,0,0,0,0,0,-1,566,1625,0,0
-651,-601,0,0,0,0,0,0,0,0,0,-1,573,1625,0,0
-644,-601,0,0,0,0,0,0,0,0,0,-1,580,1625,0,0
-637,-601,0,0,0,0,0,0,0,0,0,-1,587,1625,0,0
-630,-601,0,0,0,0,0,0,0,0,0,-1,594,1625,0,0
-623,-601,0,0,0,0,0,0,0,0,0,-1,601,1625,0,0
-616,-601,0,0,0,0,0,0,0,0,0,-1,608,1625,0,0
-609,-601,0,0,0,0,0,0,0,0,0,-1,615,1625,0,0
-602,-601,0,0,0,0,0,0,0,0,0,-1,622,1625,0,0
-595,-601,0,0,0,0,0,0,0,0,0,-1,629,1625,0,0
-588,-601,0,0,0,0,0,0,0,0,0,-1,636,1625,0,0
-581,-601,0,0,0,0,0,0,0,0,0,-1,643,1625,0,0
-574,-601,0,0,0,0,0,0,0,0,0,-1,650,1625,0,0
-567,-601,0,0,0,0,0,0,0,0,0,-1,657,1625,0,0
-560,-601,0,0,0,0,0,0,0,0,0,-1,664,1625,0,0
-553,-601,0,0,0,0,0,0,0,0,0,-1,671,1625,0,0
-546,-601,0,0,0,0,0,0,0,0,0,-1,678,1625,0,0
-539,-601,0,0,0,0,0,0,0,0,0,-1,685,1625,0,0
-532,-601,0,0,0,0,0,0,0,0,0,-1,692,1625,0,0
-525,-601,0,0,0,0,0,0,0,0,0,-1,699,1625,0,0
-518,-601,0,0,0,0,0,0,0,0,0,-1,706,1625,0,0
-511,-601,0,0,0,0,0,0,0,0,0,-1,713,1625,0,0
-504,-601,0,0,0,0,0,0,0,0,0,-1,720,1625,0,0
-497,-601,0,0,0,0,0,0,0,0,0,-1,727,1625,0,0
-490,-601,0,0,0,0,0,0,0,0,0,-1,734,1625,0,0
-483,-601,0,0,0,0,0,0,0,0,0,-1,741,1625,0,0
-476,-601,0,0,0,0,0,0,0,0,0,-1,748,1625,0,0
-469,-601,0,0,0,0,0,0,0,0,0,-1,755,1625,0,0
-462,-601,0,0,0,0,0,0,0,0,0,-1,762,1625,0,0
-455,-601,0,0,0,0,0,0,0,0,0,-1,769,1625,0,0
-448,-601,-7.07623,2.7616,0,0,0,0,0,0,0,-1,776,1625,-7.07626,-2.76161
-441,-601,-6.06689,3.33447,0,0,0,0,0,0,0,-1,783,1625,-6.06691,-3.33448
-434,-601,-5.02655,3.8468,0,0,0,0,0,0,0,-1,790,1625,-5.02657,-3.84674
-427,-601,-5.78601,4.2406,0,0,0,0,0,0,0,-1,797,1625,-5.786,-4.24058
-420,-601,-5.5191,5.60364,0,0,0,0,0,0,0,-1,804,1625,-5.51907,-5.60368
-413,-601,-4.30756,5.86047,0,0,0,0,0,0,0,-1,811,1625,-4.30757,-5.86046
-406,-601,-1.67493,7.20422,0,0,0,0,0,0,0,-1,818,1625,-1.67493,-7.20428
-399,-601,1.40094,15.3108,0,0,0,0,0,0,0,-1,825,1625,1.40096,-15.3107
-392,-601,2.86151,23.2306,0,0,0,0,0,0,0,-1,832,1625,2.86149,-23.2306
-385,-601,2.40967,24.8788,0,0,0,0,0,0,0,-1,839,1625,2.40968,-24.8787
-378,-601,2.29315,24.9952,-0.00372423,-0.000670911,0.00031871,-0.000637999,-0.00375714,1.46789,0.0023215,0.0450239,846,1625,2.29316,-24.9952
-371,-601,2.23944,25.3501,-0.00251888,-0.000243085,0.000718812,-3.50625e-05,-0.00272691,1.28909,0.00180636,0.0254274,853,1625,2.23945,-25.3501
-364,-601,2.24182,25.9025,-0.00159735,-8.54721e-05,0.000947643,0.000370807,-0.00205363,1.12207,0.00150796,0.0143437,860,1625,2.24181,-25.9025
-357,-601,2.21271,26.4456,-0.000739382,0.000182571,0.00118293,0.000991173,-0.00154798,0.971191,0.00147769,0.0112741,867,1625,2.2127,-26.4456
-350,-601,2.22345,26.9983,7.38136e-05,0.000423454,0.001364,0.00162379,-0.00112653,0.849134,0.00159653,0.0220894,874,1625,2.22348,-26.9983
-343,-601,2.16864,27.537,0.000794422,0.000756331,0.00152908,0.00230457,-0.000753817,0.779171,0.00183987,0.0235494,881,1625,2.16862,-27.5369
-336,-601,2.12549,28.0472,0.00147071,0.00118143,0.0017243,0.00305642,-0.000404281,0.743554,0.00218488,0.0199837,888,1625,2.1255,-28.0472
-329,-601,2.13245,28.5181,0.00204105,0.00182116,0.00193144,0.00386568,-3.46499e-06,0.756967,0.00257827,0.0162337,895,1625,2.13246,-28.518
-322,-601,2.1319,28.9855,0.00246772,0.00246937,0.00211841,0.00458695,0.000350134,0.785593,0.00294819,0.012824,902,1625,2.13187,-28.9855
-315,-601,2.13092,29.4342,0.00287972,0.00313467,0.00229946,0.00531018,0.000704198,0.813088,0.0033303,0.0137963,909,1625,2.13092,-29.4342
-308,-601,2.1048,29.8966,0.00342724,0.00381693,0.0025692,0.00619867,0.00104551,0.823245,0.00383179,0.0129925,916,1625,2.10477,-29.8965
-301,-601,2.10815,30.3789,0.00427577,0.00500253,0.00319233,0.0078521,0.0014262,0.842068,0.00483004,0.0108453,923,1625,2.10816,-30.3789
-294,-601,2.0932,30.87,0.00550338,0.00709167,0.00429961,0.0106699,0.00192519,0.87672,0.00656627,0.0105712,930,1625,2.09321,-30.87
-287,-601,2.07397,31.3685,0.00678272,0.00924227,0.00544846,0.013598,0.00242697,0.896394,0.00837441,0.01099,937,1625,2.07397,-31.3685
-280,-601,2.09814,31.8495,0.0084154,0.0117598,0.00696622,0.0172517,0.0029235,0.903192,0.0106611,0.0154408,944,1625,2.09814,-31.8495
-273,-601,2.08466,32.3578,0.0103947,0.0146781,0.00877851,0.0215724,0.00350044,0.905045,0.0133684,0.017611,951,1625,2.08468,-32.3578
-266,-601,2.15363,32.849,0.0126655,0.0181586,0.0108485,0.0266029,0.00422131,0.90938,0.016509,0.019544,958,1625,2.15362,-32.849
-259,-601,2.22284,33.25,0.0152481,0.0219644,0.013201,0.0322277,0.00498475,0.909948,0.0200314,0.0281546,965,1625,2.22284,-33.2501
-252,-601,2.4762,34.0536,0.018075,0.0264084,0.0157929,0.038575,0.00590845,0.914376,0.0239909,0.0429527,972,1625,2.47621,-34.0535
-245,-601,2.67303,34.9796,0.0208066,0.0311746,0.0185389,0.0452407,0.00674051,0.921729,0.0281836,0.0483191,979,1625,2.67302,-34.9796
-238,-601,2.97003,35.9097,0,0,0,0,0,0,0,-1,986,1625,2.97002,-35.9097
-231,-601,2.66772,13.7051,0,0,0,0,0,0,0,-1,993,1625,2.6677,-13.7051
-224,-601,-0.0305176,9.13684,0,0,0,0,0,0,0,-1,1000,1625,-0.030498,-9.13681
-217,-601,3.39429,10.3898,0,0,0,0,0,0,0,-1,1007,1625,3.39431,-10.3898
-210,-601,-6.53699,15.7931,0,0,0,0,0,0,0,-1,1014,1625,-6.53697,-15.7931
-203,-601,2.69348,15.9099,0,0,0,0,0,0,0,-1,1021,1625,2.69351,-15.91
-196,-601,2.66992,16.1815,0,0,0,0,0,0,0,-1,1028,1625,2.66995,-16.1815
-189,-601,2.849,16.6105,0,0,0,0,0,0,0,-1,1035,1625,2.84902,-16.6104
-182,-601,1.82153,13.9752,0,0,0,0,0,0,0,-1,1042,1625,1.82155,-13.9752
-175,-601,0.544922,9.28687,0,0,0,0,0,0,0,-1,1049,1625,0.544879,-9.28685
-168,-601,-0.247559,8.97461,0,0,0,0,0,0,0,-1,1056,1625,-0.247598,-8.97466
-161,-601,-1.16833,8.80078,0,0,0,0,0,0,0,-1,1063,1625,-1.16837,-8.80081
-154,-601,1.12756,7.94861,0,0,0,0,0,0,0,-1,1070,1625,1.12762,-7.94855
-147,-601,1.35352,9.55432,0,0,0,0,0,0,0,-1,1077,1625,1.35351,-9.55429
-140,-601,1.72437,11.1498,0,0,0,0,0,0,0,-1,1084,1625,1.72432,-11.1498
-133,-601,2.13281,12.8347,0,0,0,0,0,0,0,-1,1091,1625,2.13287,-12.8348
-126,-601,3.09534,15.427,0,0,0,0,0,0,0,-1,1098,1625,3.0953,-15.4271
-119,-601,1.22485,9.43457,0,0,0,0,0,0,0,-1,1105,1625,1.22489,-9.43456
-112,-601,0,0,0,0,0,0,0,0,0,-1,1112,1625,0,0
-105,-601,0,0,0,0,0,0,0,0,0,-1,1119,1625,0,0
-98,-601,0,0,0,0,0,0,0,0,0,-1,1126,1625,0,0
-91,-601,0,0,0,0,0,0,0,0,0,-1,1133,1625,0,0
-84,-601,0,0,0,0,0,0,0,0,0,-1,1140,1625,0,0
-77,-601,0,0,0,0,0,0,0,0,0,-1,1147,1625,0,0
-70,-601,0,0,0,0,0,0,0,0,0,-1,1154,1625,0,0
-63,-601,0,0,0,0,0,0,0,0,0,-1,1161,1625,0,0
-56,-601,0,0,0,0,0,0,0,0,0,-1,1168,1625,0,0
-49,-601,0,0,0,0,0,0,0,0,0,-1,1175,1625,0,0
-42,-601,0,0,0,0,0,0,0,0,0,-1,1182,1625,0,0
-35,-601,0,0,0,0,0,0,0,0,0,-1,1189,1625,0,0
-28,-601,0,0,0,0,0,0,0,0,0,-1,1196,1625,0,0
-21,-601,0,0,0,0,0,0,0,0,0,-1,1203,1625,0,0
-14,-601,0,0,0,0,0,0,0,0,0,-1,1210,1625,0,0
-7,-601,0,0,0,0,0,0,0,0,0,-1,1217,1625,0,0
0,-601,0,0,0,0,0,0,0,0,0,-1,1224,1625,0,0
7,-601,0,0,0,0,0,0,0,0,0,-1,1231,1625,0,0
14,-601,0,0,0,0,0,0,0,0,0,-1,1238,1625,0,0
21,-601,0,0,0,0,0,0,0,0,0,-1,1245,1625,0,0
28,-601,0,0,0,0,0,0,0,0,0,-1,1252,1625,0,0
35,-601,0,0,0,0,0,0,0,0,0,-1,1259,1625,0,0
42,-601,0,0,0,0,0,0,0,0,0,-1,1266,1625,0,0
49,-601,0,0,0,0,0,0,0,0,0,-1,1273,1625,0,0
56,-601,0,0,0,0,0,0,0,0,0,-1,1280,1625,0,0
63,-601,0,0,0,0,0,0,0,0,0,-1,1287,1625,0,0
70,-601,0,0,0,0,0,0,0,0,0,-1,1294,1625,0,0
77,-601,0,0,0,0,0,0,0,0,0,-1,1301,1625,0,0
84,-601,0,0,0,0,0,0,0,0,0,-1,1308,1625,0,0
91,-601,0,0,0,0,0,0,0,0,0,-1,1315,1625,0,0
98,-601,0,0,0,0,0,0,0,0,0,-1,1322,1625,0,0
105,-601,0,0,0,0,0,0,0,0,0,-1,1329,1625,0,0
112,-601,0,0,0,0,0,0,0,0,0,-1,1336,1625,0,0
119,-601,0,0,0,0,0,0,0,0,0,-1,1343,1625,0,0
126,-601,0,0,0,0,0,0,0,0,0,-1,1350,1625,0,0
133,-601,0,0,0,0,0,0,0,0,0,-1,1357,1625,0,0
140,-601,0,0,0,0,0,0,0,0,0,-1,1364,1625,0,0
147,-601,0,0,0,0,0,0,0,0,0,-1,1371,1625,0,0
154,-601,0,0,0,0,0,0,0,0,0,-1,1378,1625,0,0
161,-601,0,0,0,0,0,0,0,0,0,-1,1385,1625,0,0
168,-601,0,0,0,0,0,0,0,0,0,-1,1392,1625,0,0
175,-601,0,0,0,0,0,0,0,0,0,-1,1399,1625,0,0
182,-601,0,0,0,0,0,0,0,0,0,-1,1406,1625,0,0
189,-601,0,0,0,0,0,0,0,0,0,-1,1413,1625,0,0
196,-601,0,0,0,0,0,0,0,0,0,-1,1420,1625,0,0
203,-601,0,0,0,0,0,0,0,0,0,-1,1427,1625,0,0
210,-601,0,0,0,0,0,0,0,0,0,-1,1434,1625,0,0
217,-601,0,0,0,0,0,0,0,0,0,-1,1441,1625,0,0
224,-601,0,0,0,0,0,0,0,0,0,-1,1448,1625,0,0
231,-601,-0.0371094,0.525879,0,0,0,0,0,0,0,-1,1455,1625,-0.0371518,-0.525824
238,-601,2.03369,-1.32861,0,0,0,0,0,0,0,-1,1462,1625,2.03364,1.32858
245,-601,2.71375,2.44983,0,0,0,0,0,0,0,-1,1469,1625,2.71371,-2.44979
252,-601,4.66943,2.28381,0,0,0,0,0,0,0,-1,1476,1625,4.66947,-2.28376
259,-601,6.42712,2.61987,0,0,0,0,0,0,0,-1,1483,1625,6.42711,-2.61985
266,-601,6.75317,1.68701,0,0,0,0,0,0,0,-1,1490,1625,6.75323,-1.687
273,-601,5.4314,2.92053,0,0,0,0,0,0,0,-1,1497,1625,5.43144,-2.92051
280,-601,4.64722,1.17786,0,0,0,0,0,0,0,-1,1504,1625,4.64722,-1.1779
287,-601,5.32532,2.6217,0,0,0,0,0,0,0,-1,1511,1625,5.32535,-2.62171
294,-601,5.97693,4.22693,0,0,0,0,0,0,0,-1,1518,1625,5.97697,-4.22694
301,-601,7.28162,9.50024,0,0,0,0,0,0,0,-1,1525,1625,7.28162,-9.50025
308,-601,6.53528,10.3927,0,0,0,0,0,0,0,-1,1532,1625,6.53529,-10.3927
315,-601,4.88013,11.7184,0,0,0,0,0,0,0,-1,1539,1625,4.88015,-11.7184
322,-601,3.38098,12.7864,0,0,0,0,0,0,0,-1,1546,1625,3.38104,-12.7864
329,-601,1.8772,13.8768,0,0,0,0,0,0,0,-1,1553,1625,1.87716,-13.8768
336,-601,4.67847,9.53308,0,0,0,0,0,0,0,-1,1560,1625,4.67848,-9.53309
343,-601,11.1404,3.14575,0,0,0,0,0,0,0,-1,1567,1625,11.1404,-3.1458
350,-601,10.9462,2.37769,0,0,0,0,0,0,0,-1,1574,1625,10.9461,-2.37764
357,-601,10.7518,1.6095,0,0,0,0,0,0,0,-1,1581,1625,10.7518,-1.60948
364,-601,5.33643,9.74426,0,0,0,0,0,0,0,-1,1588,1625,5.33637,-9.74429
371,-601,14.2025,36.3397,0,0,0,0,0,0,0,-1,1595,1625,14.2026,-36.3397
378,-601,14.5518,34.2914,0,0,0,0,0,0,0,-1,1602,1625,14.5518,-34.2914
385,-601,14.6041,34.1084,0.00771022,0.0251877,-0.00663954,0.0274238,0.00547403,-1.24593,0.0167586,0.0459033,1609,1625,14.6041,-34.1084
392,-601,14.5065,33.734,0.00514542,0.0204303,-0.00409878,0.0214601,0.00411567,-1.32466,0.0131513,0.0403335,1616,1625,14.5065,-33.734
399,-601,14.595,33.2733,0.00315606,0.0166616,-0.00222743,0.0170195,0.00279818,-1.41149,0.0105382,0.0212396,1623,1625,14.595,-33.2733
406,-601,14.6716,32.7844,0.00161323,0.0136733,-0.00115629,0.0137831,0.00150336,-1.47607,0.00873087,0.013283,1630,1625,14.6717,-32.7845
413,-601,14.6266,32.3309,0.000564606,0.0113053,-0.000562364,0.0113346,0.000535242,-1.51863,0.00738447,0.0124832,1637,1625,14.6266,-32.3309
420,-601,14.6157,31.859,7.28327e-05,0.00958161,-0.000466128,0.00960441,5.00381e-05,-1.52193,0.00638632,0.0114046,1644,1625,14.6158,-31.859
427,-601,14.637,31.4209,-0.000317544,0.00762499,-0.000304871,0.00763668,-0.00032923,-1.53249,0.00520434,0.014833,1651,1625,14.6369,-31.4209
434,-601,14.6255,30.9642,-0.000265522,0.00644725,-0.000487981,0.00648254,-0.00030081,-1.49861,0.00442537,0.0156111,1658,1625,14.6255,-30.9642
441,-601,14.635,30.4943,8.97066e-05,0.00560132,-0.000879709,0.00573832,-4.72984e-05,-1.4163,0.00384141,0.0170639,1665,1625,14.635,-30.4942
448,-601,14.6014,30.0463,0.000409337,0.00465574,-0.00123627,0.00498944,7.56399e-05,-1.30716,0.00330137,0.0143671,1672,1625,14.6014,-30.0462
455,-601,14.5968,29.5668,0.000625303,0.00349167,-0.00132411,0.00400971,0.000107262,-1.19787,0.00263811,0.0135192,1679,1625,14.5968,-29.5668
462,-601,14.5817,29.1169,0.00071165,0.00216343,-0.00114167,0.00279043,8.46433e-05,-1.06857,0.00183273,0.0125614,1686,1625,14.5816,-29.117
469,-601,14.5659,28.6805,0.000693148,0.000864554,-0.000851855,0.00163501,-7.73043e-05,-0.835533,0.00111666,0.0125646,1693,1625,14.5659,-28.6805
476,-601,14.537,28.205,0.000452084,-0.000326144,-0.000389874,0.000613797,-0.000487858,-0.393187,0.000637425,0.0140643,1700,1625,14.537,-28.205
483,-601,14.4977,27.7233,-7.19851e-06,-0.00162443,0.000132584,3.59898e-06,-0.00163522,0.0812594,0.00109135,0.0162529,1707,1625,14.4977,-27.7233
490,-601,14.4878,27.2456,-0.000669075,-0.00291042,0.000778432,-0.000425247,-0.00315425,0.30355,0.0019764,0.0132546,1714,1625,14.4879,-27.2457
497,-601,14.5038,26.7561,-0.00154969,-0.00407249,0.00140205,-0.000925121,-0.00469706,0.419078,0.00287308,0.0110599,1721,1625,14.5038,-26.7561
504,-601,14.5385,26.2452,-0.00279881,-0.00502028,0.0023665,-0.00129535,-0.00652375,0.565981,0.00398813,0.0199921,1728,1625,14.5384,-26.2453
511,-601,14.4673,25.8761,-0.00460248,-0.00597315,0.00384612,-0.00138112,-0.00919451,0.697229,0.0057251,0.0351421,1735,1625,14.4673,-25.876
518,-601,14.3676,25.3519,-0.00663367,-0.00667126,0.00524208,-0.00141035,-0.0118946,0.783605,0.00750391,0.0460957,1742,1625,14.3675,-25.352
525,-601,14.2341,24.475,0,0,0,0,0,0,0,-1,1749,1625,14.2341,-24.475
532,-601,15.9272,20.312,0,0,0,0,0,0,0,-1,1756,1625,15.9273,-20.312
539,-601,7.77112,11.4299,0,0,0,0,0,0,0,-1,1763,1625,7.77116,-11.4299
546,-601,6.56873,3.62354,0,0,0,0,0,0,0,-1,1770,1625,6.56867,-3.62352
553,-601,7.03015,4.25049,0,0,0,0,0,0,0,-1,1777,1625,7.03011,-4.25048
560,-601,7.50745,4.83374,0,0,0,0,0,0,0,-1,1784,1625,7.50744,-4.83376
567,-601,7.82043,3.83301,0,0,0,0,0,0,0,-1,1791,1625,7.82041,-3.83303
574,-601,0,0,0,0,0,0,0,0,0,-1,1798,1625,0,0
581,-601,0,0,0,0,0,0,0,0,0,-1,1805,1625,0,0
588,-601,0,0,0,0,0,0,0,0,0,-1,1812,1625,0,0
595,-601,0,0,0,0,0,0,0,0,0,-1,1819,1625,0,0
602,-601,0,0,0,0,0,0,0,0,0,-1,1826,1625,0,0
609,-601,0,0,0,0,0,0,0,0,0,-1,1833,1625,0,0
616,-601,0,0,0,0,0,0,0,0,0,-1,1840,1625,0,0
623,-601,0,0,0,0,0,0,0,0,0,-1,1847,1625,0,0
630,-601,0,0,0,0,0,0,0,0,0,-1,1854,1625,0,0
637,-601,0,0,0,0,0,0,0,0,0,-1,1861,1625,0,0
644,-601,0,0,0,0,0,0,0,0,0,-1,1868,1625,0,0
651,-601,0,0,0,0,0,0,0,0,0,-1,1875,1625,0,0
658,-601,0,0,0,0,0,0,0,0,0,-1,1882,1625,0,0
665,-601,0,0,0,0,0,0,0,0,0,-1,1889,1625,0,0
672,-601,0,0,0,0,0,0,0,0,0,-1,1896,1625,0,0
679,-601,0,0,0,0,0,0,0,0,0,-1,1903,1625,0,0
686,-601,0,0,0,0,0,0,0,0,0,-1,1910,1625,0,0
693,-601,0,0,0,0,0,0,0,0,0,-1,1917,1625,0,0
700,-601,0,0,0,0,0,0,0,0,0,-1,1924,1625,0,0
707,-601,0,0,0,0,0,0,0,0,0,-1,1931,1625,0,0
714,-601,0,0,0,0,0,0,0,0,0,-1,1938,1625,0,0
721,-601,0,0,0,0,0,0,0,0,0,-1,1945,1625,0,0
728,-601,0,0,0,0,0,0,0,0,0,-1,1952,1625,0,0
735,-601,0,0,0,0,0,0,0,0,0,-1,1959,1625,0,0
742,-601,0,0,0,0,0,0,0,0,0,-1,1966,1625,0,0
749,-601,0,0,0,0,0,0,0,0,0,-1,1973,1625,0,0
756,-601,0,0,0,0,0,0,0,0,0,-1,1980,1625,0,0
763,-601,0,0,0,0,0,0,0,0,0,-1,1987,1625,0,0
770,-601,0,0,0,0,0,0,0,0,0,-1,1994,1625,0,0
777,-601,0,0,0,0,0,0,0,0,0,-1,2001,1625,0,0
784,-601,0,0,0,0,0,0,0,0,0,-1,2008,1625,0,0
791,-601,0,0,0,0,0,0,0,0,0,-1,2015,1625,0,0
798,-601,0,0,0,0,0,0,0,0,0,-1,2022,1625,0,0
805,-601,0,0,0,0,0,0,0,0,0,-1,2029,1625,0,0
812,-601,0,0,0,0,0,0,0,0,0,-1,2036,1625,0,0
-700,-608,0,0,0,0,0,0,0,0,0,-1,524,1632,0,0
-693,-608,0,0,0,0,0,0,0,0,0,-1,531,1632,0,0
-686,-608,0,0,0,0,0,0,0,0,0,-1,538,1632,0,0
-679,-608,0,0,0,0,0,0,0,0,0,-1,545,1632,0,0
-672,-608,0,0,0,0,0,0,0,0,0,-1,552,1632,0,0
-665,-608,0,0,0,0,0,0,0,0,0,-1,559,1632,0,0
-658,-608,0,0,0,0,0,0,0,0,0,-1,566,1632,0,0
-651,-608,0,0,0,0,0,0,0,0,0,-1,573,1632,0,0
-644,-608,0,0,0,0,0,0,0,0,0,-1,580,1632,0,0
-637,-608,0,0,0,0,0,0,0,0,0,-1,587,1632,0,0
-630,-608,0,0,0,0,0,0,0,0,0,-1,594,1632,0,0
-623,-608,0,0,0,0,0,0,0,0,0,-1,601,1632,0,0
-616,-608,0,0,0,0,0,0,0,0,0,-1,608,1632,0,0
-609,-608,0,0,0,0,0,0,0,0,0,-1,615,1632,0,0
-602,-608,0,0,0,0,0,0,0,0,0,-1,622,1632,0,0
-595,-608,0,0,0,0,0,0,0,0,0,-1,629,1632,0,0
-588,-608,0,0,0,0,0,0,0,0,0,-1,636,1632,0,0
-581,-608,0,0,0,0,0,0,0,0,0,-1,643,1632,0,0
-574,-608,0,0,0,0,0,0,0,0,0,-1,650,1632,0,0
-567,-608,0,0,0,0,0,0,0,0,0,-1,657,1632,0,0
-560,-608,0,0,0,0,0,0,0,0,0,-1,664,1632,0,0
-553,-608,0,0,0,0,0,0,0,0,0,-1,671,1632,0,0
-546,-608,0,0,0,0,0,0,0,0,0,-1,678,1632,0,0
-539,-608,0,0,0,0,0,0,0,0,0,-1,685,1632,0,0
-532,-608,0,0,0,0,0,0,0,0,0,-1,692,1632,0,0
-525,-608,0,0,0,0,0,0,0,0,0,-1,699,1632,0,0
-518,-608,0,0,0,0,0,0,0,0,0,-1,706,1632,0,0
-511,-608,0,0,0,0,0,0,0,0,0,-1,713,1632,0,0
-504,-608,0,0,0,0,0,0,0,0,0,-1,720,1632,0,0
-497,-608,0,0,0,0,0,0,0,0,0,-1,727,1632,0,0
-490,-608,0,0,0,0,0,0,0,0,0,-1,734,1632,0,0
-483,-608,0,0,0,0,0,0,0,0,0,-1,741,1632,0,0
-476,-608,0,0,0,0,0,0,0,0,0,-1,748,1632,0,0
-469,-608,0,0,0,0,0,0,0,0,0,-1,755,1632,0,0
-462,-608,0,0,0,0,0,0,0,0,0,-1,762,1632,0,0
-455,-608,0,0,0,0,0,0,0,0,0,-1,769,1632,0,0
-448,-608,0,0,0,0,0,0,0,0,0,-1,776,1632,0,0
-441,-608,-7.34601,2.78052,0,0,0,0,0,0,0,-1,783,1632,-7.346,-2.78056
-434,-608,-6.34558,3.27405,0,0,0,0,0,0,0,-1,790,1632,-6.34555,-3.27406
-427,-608,-7.74335,4.17688,0,0,0,0,0,0,0,-1,797,1632,-7.74334,-4.17693
-420,-608,-6.82794,4.34839,0,0,0,0,0,0,0,-1,804,1632,-6.82794,-4.34838
-413,-608,-5.41919,5.66138,0,0,0,0,0,0,0,-1,811,1632,-5.41917,-5.66133
-406,-608,-4.79681,4.98999,0,0,0,0,0,0,0,-1,818,1632,-4.79684,-4.98997
-399,-608,-2.60645,6.34167,0,0,0,0,0,0,0,-1,825,1632,-2.60643,-6.34169
-392,-608,2.08356,15.437,0,0,0,0,0,0,0,-1,832,1632,2.08354,-15.437
-385,-608,3.29675,23.8809,0,0,0,0,0,0,0,-1,839,1632,3.29677,-23.8808
-378,-608,2.8407,25.0438,0,0,0,0,0,0,0,-1,846,1632,2.84072,-25.0439
-371,-608,2.71082,25.123,0,0,0,0,0,0,0,-1,853,1632,2.71084,-25.123
-364,-608,2.81812,25.7657,-0.00175934,0.000155096,0.00137553,0.000873689,-0.00247794,1.08938,0.00200759,0.0314097,860,1632,2.81812,-25.7657
-357,-608,2.71198,26.3914,-0.000793808,0.000396836,0.00170476,0.00160723,-0.0020042,0.953384,0.00208926,0.0215537,867,1632,2.71195,-26.3914
-350,-608,2.70392,26.9573,2.40137e-05,0.000587946,0.00192397,0.0022505,-0.00163854,0.858157,0.00225459,0.0213755,874,1632,2.70394,-26.9572
-343,-608,2.67181,27.4984,0.000744229,0.00081926,0.00205399,0.00283607,-0.00127258,0.794529,0.00242871,0.0250845,881,1632,2.6718,-27.4985
-336,-608,2.65448,28.0544,0.00139774,0.00106072,0.00216056,0.00339635,-0.000937887,0.746479,0.00263314,0.016954,888,1632,2.65451,-28.0545
-329,-608,2.64227,28.5367,0.00188151,0.00158792,0.00226301,0.00400248,-0.000533052,0.75301,0.00286259,0.0147793,895,1632,2.64226,-28.5367
-322,-608,2.60822,28.9965,0.00220301,0.00207548,0.00232171,0.00446184,-0.000183343,0.771669,0.00303752,0.0152712,902,1632,2.6082,-28.9965
-315,-608,2.61682,29.4534,0.00247519,0.00252877,0.00232952,0.00483165,0.000172307,0.791148,0.00316523,0.0152044,909,1632,2.6168,-29.4534
-308,-608,2.61127,29.9297,0.00285836,0.00298342,0.00239218,0.00531388,0.000527896,0.798464,0.00338039,0.0156357,916,1632,2.61128,-29.9297
-301,-608,2.59277,30.4071,0.00348233,0.00387262,0.00272754,0.00641199,0.000942968,0.82111,0.00399758,0.0112062,923,1632,2.5928,-30.4071
-294,-608,2.58356,30.877,0.00444469,0.00550161,0.00347526,0.00848836,0.00145794,0.860852,0.00524096,0.0109901,930,1632,2.58356,-30.8769
-287,-608,2.5564,31.3538,0.005414,0.00720091,0.00424149,0.010642,0.00197288,0.889204,0.00653706,0.0102628,937,1632,2.55639,-31.3538
-280,-608,2.57373,31.8152,0.00665418,0.00911151,0.00528786,0.0133116,0.00245412,0.89955,0.00817999,0.00841884,944,1632,2.57374,-31.8152
-273,-608,2.55621,32.2874,0.00815744,0.0112656,0.00654148,0.0164351,0.00298797,0.902024,0.010109,0.00938728,951,1632,2.5562,-32.2874
-266,-608,2.57538,32.7935,0.00986365,0.0138384,0.00798343,0.0200781,0.00362395,0.907388,0.0123559,0.0100846,958,1632,2.57538,-32.7935
-259,-608,2.6554,33.257,0.0117933,0.0166668,0.00964862,0.0241816,0.00427845,0.909086,0.0149011,0.0143028,965,1632,2.65542,-33.257
-252,-608,2.79694,33.7278,0.0138806,0.0200053,0.0114974,0.0288412,0.00504468,0.915551,0.017786,0.0283611,972,1632,2.79692,-33.7278
-245,-608,3.00305,34.3573,0.0158302,0.0233621,0.0133862,0.033502,0.00569025,0.922519,0.0207003,0.0433355,979,1632,3.00305,-34.3573
-238,-608,3.23535,35.01,0,0,0,0,0,0,0,-1,986,1632,3.23535,-35.01
-231,-608,3.26025,27.5262,0,0,0,0,0,0,0,-1,993,1632,3.26023,-27.5263
-224,-608,2.51642,15.3452,0,0,0,0,0,0,0,-1,1000,1632,2.5164,-15.3452
-217,-608,1.04419,12.8451,0,0,0,0,0,0,0,-1,1007,1632,1.04418,-12.8451
-210,-608,2.75903,15.9414,0,0,0,0,0,0,0,-1,1014,1632,2.75903,-15.9414
-203,-608,2.76776,16.217,0,0,0,0,0,0,0,-1,1021,1632,2.76773,-16.217
-196,-608,1.53955,18.6058,0,0,0,0,0,0,0,-1,1028,1632,1.53959,-18.6058
-189,-608,1.37634,19.119,0,0,0,0,0,0,0,-1,1035,1632,1.37634,-19.1191
-182,-608,2.89221,16.7092,0,0,0,0,0,0,0,-1,1042,1632,2.89224,-16.7093
-175,-608,0.219116,15.1643,0,0,0,0,0,0,0,-1,1049,1632,0.219173,-15.1644
-168,-608,0.000366211,9.48645,0,0,0,0,0,0,0,-1,1056,1632,0.000317105,-9.48648
-161,-608,2.27832,15.4423,0,0,0,0,0,0,0,-1,1063,1632,2.27826,-15.4423
-154,-608,1.3999,16.4037,0,0,0,0,0,0,0,-1,1070,1632,1.39987,-16.4037
-147,-608,2.4386,9.50317,0,0,0,0,0,0,0,-1,1077,1632,2.43858,-9.50313
-140,-608,2.60132,10.8401,0,0,0,0,0,0,0,-1,1084,1632,2.60134,-10.8401
-133,-608,3.2312,12.4738,0,0,0,0,0,0,0,-1,1091,1632,3.23116,-12.4738
-126,-608,3.76465,13.9644,0,0,0,0,0,0,0,-1,1098,1632,3.76466,-13.9644
-119,-608,4.28906,15.4196,0,0,0,0,0,0,0,-1,1105,1632,4.28911,-15.4195
-112,-608,0.745117,10.5587,0,0,0,0,0,0,0,-1,1112,1632,0.745145,-10.5587
-105,-608,-0.252319,1.42419,0,0,0,0,0,0,0,-1,1119,1632,-0.252331,-1.42418
-98,-608,-2.8595,3.0863,0,0,0,0,0,0,0,-1,1126,1632,-2.85948,-3.08625
-91,-608,-3.71948,1.73608,0,0,0,0,0,0,0,-1,1133,1632,-3.7195,-1.73607
-84,-608,0,0,0,0,0,0,0,0,0,-1,1140,1632,0,0
-77,-608,0,0,0,0,0,0,0,0,0,-1,1147,1632,0,0
-70,-608,0,0,0,0,0,0,0,0,0,-1,1154,1632,0,0
-63,-608,0,0,0,0,0,0,0,0,0,-1,1161,1632,0,0
-56,-608,0,0,0,0,0,0,0,0,0,-1,1168,1632,0,0
-49,-608,0,0,0,0,0,0,0,0,0,-1,1175,1632,0,0
-42,-608,0,0,0,0,0,0,0,0,0,-1,1182,1632,0,0
-35,-608,0,0,0,0,0,0,0,0,0,-1,1189,1632,0,0
-28,-608,0,0,0,0,0,0,0,0,0,-1,1196,1632,0,0
-21,-608,0,0,0,0,0,0,0,0,0,-1,1203,1632,0,0
-14,-608,0,0,0,0,0,0,0,0,0,-1,1210,1632,0,0
-7,-608,0,0,0,0,0,0,0,0,0,-1,1217,1632,0,0
0,-608,0,0,0,0,0,0,0,0,0,-1,1224,1632,0,0
7,-608,0,0,0,0,0,0,0,0,0,-1,1231,1632,0,0
14,-608,0,0,0,0,0,0,0,0,0,-1,1238,1632,0,0
21,-608,0,0,0,0,0,0,0,0,0,-1,1245,1632,0,0
28,-608,0,0,0,0,0,0,0,0,0,-1,1252,1632,0,0
35,-608,0,0,0,0,0,0,0,0,0,-1,1259,1632,0,0
42,-608,0,0,0,0,0,0,0,0,0,-1,1266,1632,0,0
49,-608,0,0,0,0,0,0,0,0,0,-1,1273,1632,0,0
56,-608,0,0,0,0,0,0,0,0,0,-1,1280,1632,0,0
63,-608,0,0,0,0,0,0,0,0,0,-1,1287,1632,0,0
70,-608,0,0,0,0,0,0,0,0,0,-1,1294,1632,0,0
77,-608,0,0,0,0,0,0,0,0,0,-1,1301,1632,0,0
84,-608,0,0,0,0,0,0,0,0,0,-1,1308,1632,0,0
91,-608,0,0,0,0,0,0,0,0,0,-1,1315,1632,0,0
98,-608,0,0,0,0,0,0,0,0,0,-1,1322,1632,0,0
105,-608,0,0,0,0,0,0,0,0,0,-1,1329,1632,0,0
112,-608,0,0,0,0,0,0,0,0,0,-1,1336,1632,0,0
119,-608,0,0,0,0,0,0,0,0,0,-1,1343,1632,0,0
126,-608,0,0,0,0,0,0,0,0,0,-1,1350,1632,0,0
133,-608,0,0,0,0,0,0,0,0,0,-1,1357,1632,0,0
140,-608,0,0,0,0,0,0,0,0,0,-1,1364,1632,0,0
147,-608,0,0,0,0,0,0,0,0,0,-1,1371,1632,0,0
154,-608,0,0,0,0,0,0,0,0,0,-1,1378,1632,0,0
161,-608,0,0,0,0,0,0,0,0,0,-1,1385,1632,0,0
168,-608,0,0,0,0,0,0,0,0,0,-1,1392,1632,0,0
175,-608,0,0,0,0,0,0,0,0,0,-1,1399,1632,0,0
182,-608,0,0,0,0,0,0,0,0,0,-1,1406,1632,0,0
189,-608,0,0,0,0,0,0,0,0,0,-1,1413,1632,0,0
196,-608,0,0,0,0,0,0,0,0,0,-1,1420,1632,0,0
203,-608,0,0,0,0,0,0,0,0,0,-1,1427,1632,0,0
210,-608,5.7157,-0.333008,0,0,0,0,0,0,0,-1,1434,1632,5.71566,0.333004
217,-608,4.49402,-0.831787,0,0,0,0,0,0,0,-1,1441,1632,4.49396,0.831738
224,-608,4.18018,-1.11792,0,0,0,0,0,0,0,-1,1448,1632,4.1802,1.11796
231,-608,0.361816,0.825195,0,0,0,0,0,0,0,-1,1455,1632,0.36185,-0.825226
238,-608,2.85388,-0.28833,0,0,0,0,0,0,0,-1,1462,1632,2.85391,0.288282
245,-608,3.87537,4.02173,0,0,0,0,0,0,0,-1,1469,1632,3.87538,-4.02168
252,-608,5.66956,3.5282,0,0,0,0,0,0,0,-1,1476,1632,5.6696,-3.52815
259,-608,7.47437,3.07178,0,0,0,0,0,0,0,-1,1483,1632,7.4744,-3.07172
266,-608,9.46936,2.34766,0,0,0,0,0,0,0,-1,1490,1632,9.46932,-2.34764
273,-608,6.03003,3.34241,0,0,0,0,0,0,0,-1,1497,1632,6.02997,-3.34245
280,-608,5.72461,2.0769,0,0,0,0,0,0,0,-1,1504,1632,5.72457,-2.07688
287,-608,6.20581,3.59338,0,0,0,0,0,0,0,-1,1511,1632,6.20585,-3.59341
294,-608,6.94922,5.17151,0,0,0,0,0,0,0,-1,1518,1632,6.94925,-5.17151
301,-608,7.60083,6.68018,0,0,0,0,0,0,0,-1,1525,1632,7.60086,-6.68013
308,-608,7.64746,9.93848,0,0,0,0,0,0,0,-1,1532,1632,7.64745,-9.93842
315,-608,5.30688,11.2054,0,0,0,0,0,0,0,-1,1539,1632,5.30694,-11.2054
322,-608,5.32617,13.7581,0,0,0,0,0,0,0,-1,1546,1632,5.32613,-13.758
329,-608,7.12231,13.9607,0,0,0,0,0,0,0,-1,1553,1632,7.12231,-13.9607
336,-608,5.48633,7.82446,0,0,0,0,0,0,0,-1,1560,1632,5.48634,-7.82446
343,-608,5.47192,5.61047,0,0,0,0,0,0,0,-1,1567,1632,5.47192,-5.61045
350,-608,11.6957,1.71387,0,0,0,0,0,0,0,-1,1574,1632,11.6957,-1.71388
357,-608,3.77002,5.10046,0,0,0,0,0,0,0,-1,1581,1632,3.77002,-5.10043
364,-608,14.1484,37.1194,0,0,0,0,0,0,0,-1,1588,1632,14.1485,-37.1194
371,-608,14.022,36.0089,0.0129245,0.0301837,-0.0119183,0.0362686,0.00683965,-1.09875,0.0222523,0.0494447,1595,1632,14.0219,-36.0089
378,-608,14.1063,34.8079,0.00991516,0.0253237,-0.00867208,0.0292195,0.00601941,-1.14858,0.0178155,0.036449,1602,1632,14.1063,-34.8078
385,-608,14.1862,34.1772,0.00734051,0.0207426,-0.00608094,0.0230904,0.00499269,-1.20233,0.0140287,0.0327154,1609,1632,14.1862,-34.1772
392,-608,14.13,33.6549,0.00524025,0.0168559,-0.0040123,0.0181071,0.00398908,-1.26852,0.0109858,0.0235133,1616,1632,14.13,-33.6549
399,-608,14.1713,33.1755,0.00350198,0.013605,-0.00235997,0.0141291,0.0029779,-1.35227,0.00860038,0.0109492,1623,1632,14.1713,-33.1756
406,-608,14.1952,32.7236,0.00212144,0.0110304,-0.00133966,0.0112274,0.00192435,-1.42473,0.00693311,0.00960649,1630,1632,14.1952,-32.7237
413,-608,14.187,32.2885,0.00113337,0.00888493,-0.000668398,0.00894214,0.00107616,-1.48541,0.00563705,0.0108878,1637,1632,14.1871,-32.2885
420,-608,14.1709,31.8402,0.000593424,0.00729726,-0.000444956,0.00732666,0.00056402,-1.50481,0.00470771,0.0184777,1644,1632,14.1709,-31.8402
427,-608,14.1732,31.4001,0.000163907,0.00549432,-0.00021123,0.00550267,0.00015555,-1.53125,0.00361771,0.0195876,1651,1632,14.1732,-31.4001
434,-608,14.1678,30.9764,0.000138869,0.0044283,-0.000311765,0.00445084,0.000116328,-1.49862,0.00292922,0.0159643,1658,1632,14.1679,-30.9764
441,-608,14.1517,30.5435,0.000401418,0.00365831,-0.000616978,0.00377127,0.000288457,-1.38971,0.00242375,0.0136299,1665,1632,14.1517,-30.5434
448,-608,14.155,30.0837,0.000636224,0.00276213,-0.000867971,0.00307149,0.000326864,-1.22842,0.00194787,0.0147635,1672,1632,14.1551,-30.0837
455,-608,14.1765,29.5901,0.000800034,0.00170761,-0.000898767,0.00226065,0.000246993,-1.01918,0.00143189,0.0119767,1679,1632,14.1766,-29.5901
462,-608,14.144,29.1162,0.000824905,0.000470064,-0.00066944,0.00134004,-4.50679e-05,-0.655862,0.000908753,0.0120796,1686,1632,14.144,-29.1162
469,-608,14.1042,28.6821,0.000734865,-0.000775515,-0.000349724,0.000811912,-0.000852562,-0.216845,0.00096108,0.00932103,1693,1632,14.1042,-28.6822
476,-608,14.0759,28.2233,0.000434309,-0.00193606,0.000133511,0.000441805,-0.00194356,0.0560885,0.00146534,0.00893198,1700,1632,14.0759,-28.2233
483,-608,14.0542,27.7445,-0.000142219,-0.00317171,0.000736345,2.72733e-05,-0.00334121,0.22624,0.00223662,0.00830494,1707,1632,14.0542,-27.7446
490,-608,14.0535,27.2649,-0.000949267,-0.00449575,0.00144624,-0.000434278,-0.00501074,0.342088,0.00320556,0.00963912,1714,1632,14.0535,-27.2649
497,-608,14.0601,26.7604,-0.00195333,-0.00567628,0.00212822,-0.000987361,-0.00664224,0.426079,0.00413849,0.0210345,1721,1632,14.0601,-26.7604
504,-608,13.9841,26.324,-0.00334886,-0.0066287,0.00317431,-0.00141588,-0.00856167,0.546969,0.00529925,0.0482262,1728,1632,13.9842,-26.3239
511,-608,13.8588,26.0359,-0.00545946,-0.00769306,0.00473927,-0.00170718,-0.0114453,0.669685,0.00712962,0.0473984,1735,1632,13.8587,-26.0359
518,-608,13.7477,25.657,0,0,0,0,0,0,0,-1,1742,1632,13.7476,-25.657
525,-608,11.2109,16.2579,0,0,0,0,0,0,0,-1,1749,1632,11.2109,-16.2579
532,-608,8.27917,11.6693,0,0,0,0,0,0,0,-1,1756,1632,8.27919,-11.6694
539,-608,9.40796,1.43457,0,0,0,0,0,0,0,-1,1763,1632,9.40801,-1.43463
546,-608,9.94031,2.1134,0,0,0,0,0,0,0,-1,1770,1632,9.94031,-2.11346
553,-608,10.363,2.81335,0,0,0,0,0,0,0,-1,1777,1632,10.3631,-2.81333
560,-608,9.23999,4.5636,0,0,0,0,0,0,0,-1,1784,1632,9.24,-4.56354
567,-608,0,0,0,0,0,0,0,0,0,-1,1791,1632,0,0
574,-608,0,0,0,0,0,0,0,0,0,-1,1798,1632,0,0
581,-608,0,0,0,0,0,0,0,0,0,-1,1805,1632,0,0
588,-608,0,0,0,0,0,0,0,0,0,-1,1812,1632,0,0
595,-608,0,0,0,0,0,0,0,0,0,-1,1819,1632,0,0
602,-608,0,0,0,0,0,0,0,0,0,-1,1826,1632,0,0
609,-608,0,0,0,0,0,0,0,0,0,-1,1833,1632,0,0
616,-608,0,0,0,0,0,0,0,0,0,-1,1840,1632,0,0
623,-608,0,0,0,0,0,0,0,0,0,-1,1847,1632,0,0
630,-608,0,0,0,0,0,0,0,0,0,-1,1854,1632,0,0
637,-608,0,0,0,0,0,0,0,0,0,-1,1861,1632,0,0
644,-608,0,0,0,0,0,0,0,0,0,-1,1868,1632,0,0
651,-608,0,0,0,0,0,0,0,0,0,-1,1875,1632,0,0
658,-608,0,0,0,0,0,0,0,0,0,-1,1882,1632,0,0
665,-608,0,0,0,0,0,0,0,0,0,-1,1889,1632,0,0
672,-608,0,0,0,0,0,0,0,0,0,-1,1896,1632,0,0
679,-608,0,0,0,0,0,0,0,0,0,-1,1903,1632,0,0
686,-608,0,0,0,0,0,0,0,0,0,-1,1910,1632,0,0
693,-608,0,0,0,0,0,0,0,0,0,-1,1917,1632,0,0
700,-608,0,0,0,0,0,0,0,0,0,-1,1924,1632,0,0
707,-608,0,0,0,0,0,0,0,0,0,-1,1931,1632,0,0
714,-608,0,0,0,0,0,0,0,0,0,-1,1938,1632,0,0
721,-608,0,0,0,0,0,0,0,0,0,-1,1945,1632,0,0
728,-608,0,0,0,0,0,0,0,0,0,-1,1952,1632,0,0
735,-608,0,0,0,0,0,0,0,0,0,-1,1959,1632,0,0
742,-608,0,0,0,0,0,0,0,0,0,-1,1966,1632,0,0
749,-608,0,0,0,0,0,0,0,0,0,-1,1973,1632,0,0
756,-608,0,0,0,0,0,0,0,0,0,-1,1980,1632,0,0
763,-608,0,0,0,0,0,0,0,0,0,-1,1987,1632,0,0
770,-608,0,0,0,0,0,0,0,0,0,-1,1994,1632,0,0
777,-608,0,0,0,0,0,0,0,0,0,-1,2001,1632,0,0
784,-608,0,0,0,0,0,0,0,0,0,-1,2008,1632,0,0
791,-608,0,0,0,0,0,0,0,0,0,-1,2015,1632,0,0
798,-608,0,0,0,0,0,0,0,0,0,-1,2022,1632,0,0
805,-608,0,0,0,0,0,0,0,0,0,-1,2029,1632,0,0
812,-608,0,0,0,0,0,0,0,0,0,-1,2036,1632,0,0
-700,-615,0,0,0,0,0,0,0,0,0,-1,524,1639,0,0
-693,-615,0,0,0,0,0,0,0,0,0,-1,531,1639,0,0
-686,-615,0,0,0,0,0,0,0,0,0,-1,538,1639,0,0
-679,-615,0,0,0,0,0,0,0,0,0,-1,545,1639,0,0
-672,-615,0,0,0,0,0,0,0,0,0,-1,552,1639,0,0
-665,-615,0,0,0,0,0,0,0,0,0,-1,559,1639,0,0
-658,-615,0,0,0,0,0,0,0,0,0,-1,566,1639,0,0
-651,-615,0,0,0,0,0,0,0,0,0,-1,573,1639,0,0
-644,-615,0,0,0,0,0,0,0,0,0,-1,580,1639,0,0
-637,-615,0,0,0,0,0,0,0,0,0,-1,587,1639,0,0
-630,-615,0,0,0,0,0,0,0,0,0,-1,594,1639,0,0
-623,-615,0,0,0,0,0,0,0,0,0,-1,601,1639,0,0
-616,-615,0,0,0,0,0,0,0,0,0,-1,608,1639,0,0
-609,-615,0,0,0,0,0,0,0,0,0,-1,615,1639,0,0
-602,-615,0,0,0,0,0,0,0,0,0,-1,622,1639,0,0
-595,-615,0,0,0,0,0,0,0,0,0,-1,629,1639,0,0
-588,-615,0,0,0,0,0,0,0,0,0,-1,636,1639,0,0
-581,-615,0,0,0,0,0,0,0,0,0,-1,643,1639,0,0
-574,-615,0,0,0,0,0,0,0,0,0,-1,650,1639,0,0
-567,-615,0,0,0,0,0,0,0,0,0,-1,657,1639,0,0
-560,-615,0,0,0,0,0,0,0,0,0,-1,664,1639,0,0
-553,-615,0,0,0,0,0,0,0,0,0,-1,671,1639,0,0
-546,-615,0,0,0,0,0,0,0,0,0,-1,678,1639,0,0
-539,-615,0,0,0,0,0,0,0,0,0,-1,685,1639,0,0
-532,-615,0,0,0,0,0,0,0,0,0,-1,692,1639,0,0
-525,-615,0,0,0,0,0,0,0,0,0,-1,699,1639,0,0
-518,-615,0,0,0,0,0,0,0,0,0,-1,706,1639,0,0
-511,-615,0,0,0,0,0,0,0,0,0,-1,713,1639,0,0
-504,-615,0,0,0,0,0,0,0,0,0,-1,720,1639,0,0
-497,-615,0,0,0,0,0,0,0,0,0,-1,727,1639,0,0
-490,-615,0,0,0,0,0,0,0,0,0,-1,734,1639,0,0
-483,-615,0,0,0,0,0,0,0,0,0,-1,741,1639,0,0
-476,-615,0,0,0,0,0,0,0,0,0,-1,748,1639,0,0
-469,-615,0,0,0,0,0,0,0,0,0,-1,755,1639,0,0
-462,-615,0,0,0,0,0,0,0,0,0,-1,762,1639,0,0
-455,-615,0,0,0,0,0,0,0,0,0,-1,769,1639,0,0
-448,-615,0,0,0,0,0,0,0,0,0,-1,776,1639,0,0
-441,-615,0,0,0,0,0,0,0,0,0,-1,783,1639,0,0
-434,-615,-7.64508,2.98596,0,0,0,0,0,0,0,-1,790,1639,-7.64505,-2.98594
-427,-615,-9.0011,2.89404,0,0,0,0,0,0,0,-1,797,1639,-9.00107,-2.89399
-420,-615,-8.07568,3.0752,0,0,0,0,0,0,0,-1,804,1639,-8.07569,-3.07514
-413,-615,-7.09149,3.396,0,0,0,0,0,0,0,-1,811,1639,-7.09147,-3.39599
-406,-615,-6.21368,3.7312,0,0,0,0,0,0,0,-1,818,1639,-6.21366,-3.73114
-399,-615,-4.84875,3.91907,0,0,0,0,0,0,0,-1,825,1639,-4.84877,-3.91901
-392,-615,1.7395,13.3127,0,0,0,0,0,0,0,-1,832,1639,1.73953,-13.3128
-385,-615,3.42297,14.9401,0,0,0,0,0,0,0,-1,839,1639,3.42296,-14.94
-378,-615,2.54102,17.2609,0,0,0,0,0,0,0,-1,846,1639,2.54099,-17.2608
-371,-615,3.07678,24.972,0,0,0,0,0,0,0,-1,853,1639,3.07677,-24.9721
-364,-615,3.17078,25.931,0,0,0,0,0,0,0,-1,860,1639,3.17078,-25.931
-357,-615,3.14423,26.412,0,0,0,0,0,0,0,-1,867,1639,3.1442,-26.412
-350,-615,3.2038,27.0464,0.000318982,0.00117474,0.0025355,0.00331821,-0.00182449,0.868988,0.0030106,0.0326742,874,1639,3.20381,-27.0464
-343,-615,3.12909,27.5232,0.00104219,0.00135838,0.00259133,0.00379643,-0.00139586,0.815865,0.00310273,0.0205985,881,1639,3.12909,-27.5232
-336,-615,3.15576,28.0059,0.00165357,0.00147579,0.00256982,0.00413604,-0.00100667,0.76811,0.00314705,0.0111959,888,1639,3.15576,-28.0058
-329,-615,3.12952,28.4991,0.00202644,0.00192224,0.0025351,0.00450997,-0.000561291,0.775125,0.00321014,0.0109639,895,1639,3.12953,-28.4992
-322,-615,3.10284,29.021,0.00222442,0.00226393,0.00245344,0.00469769,-0.000209352,0.789424,0.00320386,0.0118844,902,1639,3.10282,-29.021
-315,-615,3.10449,29.5249,0.00233187,0.00250246,0.00230292,0.00472166,0.000112667,0.803908,0.0031109,0.0143983,909,1639,3.10449,-29.5249
-308,-615,3.06781,29.9845,0.00252528,0.00271424,0.00220683,0.00482861,0.000410906,0.806792,0.00309122,0.0209744,916,1639,3.06783,-29.9846
-301,-615,3.07593,30.4263,0.00290647,0.00325937,0.00233195,0.00542153,0.000744305,0.823159,0.00339357,0.0123787,923,1639,3.07591,-30.4262
-294,-615,3.08301,30.9038,0.00359973,0.00438818,0.00282444,0.00684577,0.00114213,0.854739,0.00423479,0.0103969,930,1639,3.08299,-30.9038
-287,-615,3.03333,31.3704,0.00429299,0.00562316,0.00336332,0.00838652,0.00152963,0.883012,0.00515731,0.00765645,937,1639,3.03335,-31.3704
-280,-615,3.02698,31.8256,0.00519581,0.00696368,0.00411377,0.0102874,0.00187207,0.891225,0.00632725,0.00844423,944,1639,3.02695,-31.8256
-273,-615,3.00366,32.2972,0.0063007,0.00846598,0.00500399,0.0125031,0.00226358,0.891934,0.0076927,0.0101145,951,1639,3.00365,-32.2972
-266,-615,2.98627,32.7598,0.00755826,0.0103035,0.00602869,0.0151138,0.00274789,0.897329,0.0092963,0.0108572,958,1639,2.98624,-32.7598
-259,-615,3.03131,33.1967,0.00899317,0.0123598,0.00723006,0.0180999,0.00325303,0.89977,0.0111417,0.0125312,965,1639,3.03132,-33.1967
-252,-615,3.04559,33.6858,0.0105046,0.0147696,0.00850028,0.0214008,0.00387341,0.9083,0.0131674,0.0169587,972,1639,3.04561,-33.6857
-245,-615,3.18622,34.2683,0.0119027,0.0173563,0.00963151,0.0246396,0.00461942,0.923346,0.0151236,0.026583,979,1639,3.18622,-34.2683
-238,-615,3.2052,34.8365,0.0132895,0.019156,0.0105545,0.0271773,0.00526821,0.920935,0.0166424,0.0394494,986,1639,3.20518,-34.8365
-231,-615,3.47607,35.2469,0,0,0,0,0,0,0,-1,993,1639,3.47605,-35.2469
-224,-615,3.43805,35.4448,0,0,0,0,0,0,0,-1,1000,1639,3.43808,-35.4448
-217,-615,3.99097,27.3737,0,0,0,0,0,0,0,-1,1007,1639,3.99096,-27.3736
-210,-615,2.48901,18.9324,0,0,0,0,0,0,0,-1,1014,1639,2.48902,-18.9323
-203,-615,2.13684,18.6173,0,0,0,0,0,0,0,-1,1021,1639,2.13683,-18.6173
-196,-615,4.27161,21.3264,0,0,0,0,0,0,0,-1,1028,1639,4.27165,-21.3264
-189,-615,1.8269,19.6761,0,0,0,0,0,0,0,-1,1035,1639,1.82691,-19.6761
-182,-615,1.63489,20.2278,0,0,0,0,0,0,0,-1,1042,1639,1.63492,-20.2277
-175,-615,-0.609985,13.8434,0,0,0,0,0,0,0,-1,1049,1639,-0.610016,-13.8434
-168,-615,3.85754,15.472,0,0,0,0,0,0,0,-1,1056,1639,3.85757,-15.472
-161,-615,5.38062,36.9541,0,0,0,0,0,0,0,-1,1063,1639,5.38058,-36.9541
-154,-615,6.04199,37.49,0,0,0,0,0,0,0,-1,1070,1639,6.04202,-37.49
-147,-615,1.52502,17.3442,0,0,0,0,0,0,0,-1,1077,1639,1.52501,-17.3442
-140,-615,3.73401,10.2349,0,0,0,0,0,0,0,-1,1084,1639,3.73402,-10.2348
-133,-615,2.6178,17.45,0,0,0,0,0,0,0,-1,1091,1639,2.61776,-17.4499
-126,-615,4.43408,12.5017,0,0,0,0,0,0,0,-1,1098,1639,4.43403,-12.5018
-119,-615,4.82983,13.9279,0,0,0,0,0,0,0,-1,1105,1639,4.82986,-13.9278
-112,-615,3.65698,14.4874,0,0,0,0,0,0,0,-1,1112,1639,3.65695,-14.4875
-105,-615,0.958496,2.45398,0,0,0,0,0,0,0,-1,1119,1639,0.958452,-2.45398
-98,-615,-0.647705,2.12109,0,0,0,0,0,0,0,-1,1126,1639,-0.647756,-2.12105
-91,-615,-3.07983,2.97375,0,0,0,0,0,0,0,-1,1133,1639,-3.07989,-2.97376
-84,-615,-2.46509,0.703247,0,0,0,0,0,0,0,-1,1140,1639,-2.46505,-0.703273
-77,-615,-3.17859,1.23755,0,0,0,0,0,0,0,-1,1147,1639,-3.17865,-1.23752
-70,-615,-4.03943,1.43335,0,0,0,0,0,0,0,-1,1154,1639,-4.03942,-1.43339
-63,-615,-4.8877,1.45544,0,0,0,0,0,0,0,-1,1161,1639,-4.88766,-1.45549
-56,-615,0,0,0,0,0,0,0,0,0,-1,1168,1639,0,0
-49,-615,0,0,0,0,0,0,0,0,0,-1,1175,1639,0,0
-42,-615,0,0,0,0,0,0,0,0,0,-1,1182,1639,0,0
-35,-615,0,0,0,0,0,0,0,0,0,-1,1189,1639,0,0
-28,-615,0,0,0,0,0,0,0,0,0,-1,1196,1639,0,0
-21,-615,0,0,0,0,0,0,0,0,0,-1,1203,1639,0,0
-14,-615,0,0,0,0,0,0,0,0,0,-1,1210,1639,0,0
-7,-615,0,0,0,0,0,0,0,0,0,-1,1217,1639,0,0
0,-615,0,0,0,0,0,0,0,0,0,-1,1224,1639,0,0
7,-615,0,0,0,0,0,0,0,0,0,-1,1231,1639,0,0
14,-615,0,0,0,0,0,0,0,0,0,-1,1238,1639,0,0
21,-615,0,0,0,0,0,0,0,0,0,-1,1245,1639,0,0
28,-615,0,0,0,0,0,0,0,0,0,-1,1252,1639,0,0
35,-615,0,0,0,0,0,0,0,0,0,-1,1259,1639,0,0
42,-615,0,0,0,0,0,0,0,0,0,-1,1266,1639,0,0
49,-615,0,0,0,0,0,0,0,0,0,-1,1273,1639,0,0
56,-615,0,0,0,0,0,0,0,0,0,-1,1280,1639,0,0
63,-615,0,0,0,0,0,0,0,0,0,-1,1287,1639,0,0
70,-615,0,0,0,0,0,0,0,0,0,-1,1294,1639,0,0
77,-615,0,0,0,0,0,0,0,0,0,-1,1301,1639,0,0
84,-615,0,0,0,0,0,0,0,0,0,-1,1308,1639,0,0
91,-615,0,0,0,0,0,0,0,0,0,-1,1315,1639,0,0
98,-615,0,0,0,0,0,0,0,0,0,-1,1322,1639,0,0
105,-615,0,0,0,0,0,0,0,0,0,-1,1329,1639,0,0
112,-615,0,0,0,0,0,0,0,0,0,-1,1336,1639,0,0
119,-615,0,0,0,0,0,0,0,0,0,-1,1343,1639,0,0
126,-615,0,0,0,0,0,0,0,0,0,-1,1350,1639,0,0
133,-615,0,0,0,0,0,0,0,0,0,-1,1357,1639,0,0
140,-615,0,0,0,0,0,0,0,0,0,-1,1364,1639,0,0
147,-615,0,0,0,0,0,0,0,0,0,-1,1371,1639,0,0
154,-615,0,0,0,0,0,0,0,0,0,-1,1378,1639,0,0
161,-615,0,0,0,0,0,0,0,0,0,-1,1385,1639,0,0
168,-615,0,0,0,0,0,0,0,0,0,-1,1392,1639,0,0
175,-615,5.39648,-2.00879,0,0,0,0,0,0,0,-1,1399,1639,5.3965,2.00881
182,-615,5.65393,-1.51025,0,0,0,0,0,0,0,-1,1406,1639,5.65388,1.51028
189,-615,5.58972,-1.35608,0,0,0,0,0,0,0,-1,1413,1639,5.58967,1.35607
196,-615,5.49915,-0.693604,0,0,0,0,0,0,0,-1,1420,1639,5.4991,0.693602
203,-615,5.33411,-0.226685,0,0,0,0,0,0,0,-1,1427,1639,5.33414,0.226689
210,-615,5.60278,0.108276,0,0,0,0,0,0,0,-1,1434,1639,5.60284,-0.10831
217,-615,6.26331,-0.307373,0,0,0,0,0,0,0,-1,1441,1639,6.26331,0.307372
224,-615,5.45422,-0.333984,0,0,0,0,0,0,0,-1,1448,1639,5.45422,0.333992
231,-615,4.92542,1.80298,0,0,0,0,0,0,0,-1,1455,1639,4.92537,-1.80297
238,-615,4.76355,1.96729,0,0,0,0,0,0,0,-1,1462,1639,4.76357,-1.96734
245,-615,4.08643,3.15906,0,0,0,0,0,0,0,-1,1469,1639,4.08638,-3.159
252,-615,6.37805,3.73889,0,0,0,0,0,0,0,-1,1476,1639,6.37806,-3.73891
259,-615,8.35974,3.16443,0,0,0,0,0,0,0,-1,1483,1639,8.35975,-3.16444
266,-615,10.3414,2.58997,0,0,0,0,0,0,0,-1,1490,1639,10.3414,-2.58996
273,-615,6.57043,1.84766,0,0,0,0,0,0,0,-1,1497,1639,6.5704,-1.84771
280,-615,7.10449,3.23438,0,0,0,0,0,0,0,-1,1504,1639,7.10447,-3.23435
287,-615,7.35779,4.68542,0,0,0,0,0,0,0,-1,1511,1639,7.35776,-4.68546
294,-615,7.63733,6.29114,0,0,0,0,0,0,0,-1,1518,1639,7.63735,-6.29109
301,-615,8.47925,11.452,0,0,0,0,0,0,0,-1,1525,1639,8.47922,-11.452
308,-615,6.8114,10.9059,0,0,0,0,0,0,0,-1,1532,1639,6.81137,-10.9058
315,-615,5.1427,14.7251,0,0,0,0,0,0,0,-1,1539,1639,5.14269,-14.7251
322,-615,7.17981,17.6864,0,0,0,0,0,0,0,-1,1546,1639,7.17985,-17.6864
329,-615,7.62134,20.4354,0,0,0,0,0,0,0,-1,1553,1639,7.62139,-20.4354
336,-615,6.45007,14.1138,0,0,0,0,0,0,0,-1,1560,1639,6.45011,-14.1138
343,-615,2.40491,6.50134,0,0,0,0,0,0,0,-1,1567,1639,2.40489,-6.50137
350,-615,12.8768,37.0074,0,0,0,0,0,0,0,-1,1574,1639,12.8768,-37.0074
357,-615,12.6719,36.2888,0,0,0,0,0,0,0,-1,1581,1639,12.6719,-36.2889
364,-615,12.972,35.8828,0,0,0,0,0,0,0,-1,1588,1639,12.972,-35.8829
371,-615,13.4138,35.2902,0.0108502,0.0237976,-0.00969976,0.0289856,0.00566222,-1.07966,0.0177401,0.0442133,1595,1639,13.4138,-35.2902
378,-615,13.7458,34.3981,0.00861071,0.0202398,-0.00735039,0.0237974,0.00505311,-1.12003,0.0144775,0.0208921,1602,1639,13.7459,-34.398
385,-615,13.7274,33.9459,0.00663313,0.0167145,-0.0053793,0.0190457,0.00430188,-1.16185,0.0115338,0.0122683,1609,1639,13.7274,-33.946
392,-615,13.7549,33.5498,0.00492591,0.0135747,-0.00371958,0.0149543,0.00354631,-1.21562,0.00902282,0.0106629,1616,1639,13.7549,-33.5499
399,-615,13.7418,33.15,0.00341617,0.0107918,-0.00228948,0.0114447,0.00276328,-1.293,0.00689581,0.0120512,1623,1639,13.7418,-33.15
406,-615,13.7375,32.7374,0.00220478,0.00858613,-0.00134799,0.00885919,0.00193171,-1.37093,0.00537911,0.0119547,1630,1639,13.7375,-32.7374
413,-615,13.7399,32.3184,0.00133339,0.00667632,-0.000669475,0.00675893,0.00125078,-1.44802,0.0041523,0.0128316,1637,1639,13.7399,-32.3184
420,-615,13.7592,31.8595,0.000798207,0.00521687,-0.000365538,0.00524691,0.000768171,-1.48881,0.00327208,0.0145501,1644,1639,13.7592,-31.8595
427,-615,13.755,31.4182,0.000394002,0.00358459,-9.82254e-05,0.00358761,0.000390981,-1.54005,0.00227265,0.0166104,1651,1639,13.7551,-31.4182
434,-615,13.7296,31.0037,0.00034255,0.00260557,-0.000131238,0.00261316,0.000334965,-1.51306,0.00164188,0.0153446,1658,1639,13.7296,-31.0037
441,-615,13.7174,30.5624,0.000565899,0.00189051,-0.000355772,0.00198002,0.000476392,-1.32433,0.00119334,0.0144589,1665,1639,13.7175,-30.5623
448,-615,13.7097,30.1127,0.000780323,0.00103518,-0.000511356,0.00143475,0.000380758,-0.90751,0.000858211,0.0146544,1672,1639,13.7097,-30.1127
455,-615,13.7101,29.6333,0.000962759,8.62085e-05,-0.000495849,0.00118626,-0.000137295,-0.423477,0.000840353,0.0143249,1679,1639,13.71,-29.6333
462,-615,13.6832,29.1671,0.00101102,-0.0010476,-0.000239348,0.00103848,-0.00107506,-0.114236,0.00122032,0.015385,1686,1639,13.6832,-29.1672
469,-615,13.6577,28.6967,0.000948699,-0.00221916,8.48976e-05,0.000950972,-0.00222144,0.026774,0.00187991,0.0125731,1693,1639,13.6578,-28.6967
476,-615,13.6345,28.2279,0.000707231,-0.0033412,0.000552667,0.000781322,-0.00341529,0.133266,0.00257709,0.0112838,1700,1639,13.6345,-28.2279
483,-615,13.6515,27.7183,0.000158926,-0.00444989,0.0011826,0.000444664,-0.00473562,0.237073,0.00331526,0.0208408,1707,1639,13.6515,-27.7182
490,-615,13.6239,27.2628,-0.000695444,-0.00581194,0.00195373,-3.47337e-05,-0.00647265,0.326106,0.00430357,0.0302699,1714,1639,13.6239,-27.2628
497,-615,13.495,26.9231,-0.0017395,-0.00704074,0.00271277,-0.000597372,-0.00818287,0.398493,0.00526743,0.0406693,1721,1639,13.495,-26.923
504,-615,13.4471,26.4933,0,0,0,0,0,0,0,-1,1728,1639,13.4471,-26.4933
511,-615,13.2526,26.1056,0,0,0,0,0,0,0,-1,1735,1639,13.2525,-26.1056
518,-615,13.2416,9.81812,0,0,0,0,0,0,0,-1,1742,1639,13.2416,-9.81813
525,-615,4.37524,3.90491,0,0,0,0,0,0,0,-1,1749,1639,4.37518,-3.90495
532,-615,7.3645,0.848145,0,0,0,0,0,0,0,-1,1756,1639,7.36451,-0.848093
539,-615,12.8112,-0.0476074,0,0,0,0,0,0,0,-1,1763,1639,12.8111,0.0475553
546,-615,8.33813,2.94556,0,0,0,0,0,0,0,-1,1770,1639,8.33813,-2.9455
553,-615,5.82532,-2.04199,0,0,0,0,0,0,0,-1,1777,1639,5.82534,2.04195
560,-615,0,0,0,0,0,0,0,0,0,-1,1784,1639,0,0
567,-615,0,0,0,0,0,0,0,0,0,-1,1791,1639,0,0
574,-615,0,0,0,0,0,0,0,0,0,-1,1798,1639,0,0
581,-615,0,0,0,0,0,0,0,0,0,-1,1805,1639,0,0
588,-615,0,0,0,0,0,0,0,0,0,-1,1812,1639,0,0
595,-615,0,0,0,0,0,0,0,0,0,-1,1819,1639,0,0
602,-615,0,0,0,0,0,0,0,0,0,-1,1826,1639,0,0
609,-615,0,0,0,0,0,0,0,0,0,-1,1833,1639,0,0
616,-615,0,0,0,0,0,0,0,0,0,-1,1840,1639,0,0
623,-615,0,0,0,0,0,0,0,0,0,-1,1847,1639,0,0
630,-615,0,0,0,0,0,0,0,0,0,-1,1854,1639,0,0
637,-615,0,0,0,0,0,0,0,0,0,-1,1861,1639,0,0
644,-615,0,0,0,0,0,0,0,0,0,-1,1868,1639,0,0
651,-615,0,0,0,0,0,0,0,0,0,-1,1875,1639,0,0
658,-615,0,0,0,0,0,0,0,0,0,-1,1882,1639,0,0
665,-615,0,0,0,0,0,0,0,0,0,-1,1889,1639,0,0
672,-615,0,0,0,0,0,0,0,0,0,-1,1896,1639,0,0
679,-615,0,0,0,0,0,0,0,0,0,-1,1903,1639,0,0
686,-615,0,0,0,0,0,0,0,0,0,-1,1910,1639,0,0
693,-615,0,0,0,0,0,0,0,0,0,-1,1917,1639,0,0
700,-615,0,0,0,0,0,0,0,0,0,-1,1924,1639,0,0
707,-615,0,0,0,0,0,0,0,0,0,-1,1931,1639,0,0
714,-615,0,0,0,0,0,0,0,0,0,-1,1938,1639,0,0
721,-615,0,0,0,0,0,0,0,0,0,-1,1945,1639,0,0
728,-615,0,0,0,0,0,0,0,0,0,-1,1952,1639,0,0
735,-615,0,0,0,0,0,0,0,0,0,-1,1959,1639,0,0
742,-615,0,0,0,0,0,0,0,0,0,-1,1966,1639,0,0
749,-615,0,0,0,0,0,0,0,0,0,-1,1973,1639,0,0
756,-615,0,0,0,0,0,0,0,0,0,-1,1980,1639,0,0
763,-615,0,0,0,0,0,0,0,0,0,-1,1987,1639,0,0
770,-615,0,0,0,0,0,0,0,0,0,-1,1994,1639,0,0
777,-615,0,0,0,0,0,0,0,0,0,-1,2001,1639,0,0
784,-615,0,0,0,0,0,0,0,0,0,-1,2008,1639,0,0
791,-615,0,0,0,0,0,0,0,0,0,-1,2015,1639,0,0
798,-615,0,0,0,0,0,0,0,0,0,-1,2022,1639,0,0
805,-615,0,0,0,0,0,0,0,0,0,-1,2029,1639,0,0
812,-615,0,0,0,0,0,0,0,0,0,-1,2036,1639,0,0
-700,-622,0,0,0,0,0,0,0,0,0,-1,524,1646,0,0
-693,-622,0,0,0,0,0,0,0,0,0,-1,531,1646,0,0
-686,-622,0,0,0,0,0,0,0,0,0,-1,538,1646,0,0
-679,-622,0,0,0,0,0,0,0,0,0,-1,545,1646,0,0
-672,-622,0,0,0,0,0,0,0,0,0,-1,552,1646,0,0
-665,-622,0,0,0,0,0,0,0,0,0,-1,559,1646,0,0
-658,-622,0,0,0,0,0,0,0,0,0,-1,566,1646,0,0
-651,-622,0,0,0,0,0,0,0,0,0,-1,573,1646,0,0
-644,-622,0,0,0,0,0,0,0,0,0,-1,580,1646,0,0
-637,-622,0,0,0,0,0,0,0,0,0,-1,587,1646,0,0
-630,-622,0,0,0,0,0,0,0,0,0,-1,594,1646,0,0
-623,-622,0,0,0,0,0,0,0,0,0,-1,601,1646,0,0
-616,-622,0,0,0,0,0,0,0,0,0,-1,608,1646,0,0
-609,-622,0,0,0,0,0,0,0,0,0,-1,615,1646,0,0
-602,-622,0,0,0,0,0,0,0,0,0,-1,622,1646,0,0
-595,-622,0,0,0,0,0,0,0,0,0,-1,629,1646,0,0
-588,-622,0,0,0,0,0,0,0,0,0,-1,636,1646,0,0
-581,-622,0,0,0,0,0,0,0,0,0,-1,643,1646,0,0
-574,-622,0,0,0,0,0,0,0,0,0,-1,650,1646,0,0
-567,-622,0,0,0,0,0,0,0,0,0,-1,657,1646,0,0
-560,-622,0,0,0,0,0,0,0,0,0,-1,664,1646,0,0
-553,-622,0,0,0,0,0,0,0,0,0,-1,671,1646,0,0
-546,-622,0,0,0,0,0,0,0,0,0,-1,678,1646,0,0
-539,-622,0,0,0,0,0,0,0,0,0,-1,685,1646,0,0
-532,-622,0,0,0,0,0,0,0,0,0,-1,692,1646,0,0
-525,-622,0,0,0,0,0,0,0,0,0,-1,699,1646,0,0
-518,-622,0,0,0,0,0,0,0,0,0,-1,706,1646,0,0
-511,-622,0,0,0,0,0,0,0,0,0,-1,713,1646,0,0
-504,-622,0,0,0,0,0,0,0,0,0,-1,720,1646,0,0
-497,-622,0,0,0,0,0,0,0,0,0,-1,727,1646,0,0
-490,-622,0,0,0,0,0,0,0,0,0,-1,734,1646,0,0
-483,-622,0,0,0,0,0,0,0,0,0,-1,741,1646,0,0
-476,-622,0,0,0,0,0,0,0,0,0,-1,748,1646,0,0
-469,-622,0,0,0,0,0,0,0,0,0,-1,755,1646,0,0
-462,-622,0,0,0,0,0,0,0,0,0,-1,762,1646,0,0
-455,-622,0,0,0,0,0,0,0,0,0,-1,769,1646,0,0
-448,-622,0,0,0,0,0,0,0,0,0,-1,776,1646,0,0
-441,-622,0,0,0,0,0,0,0,0,0,-1,783,1646,0,0
-434,-622,0,0,0,0,0,0,0,0,0,-1,790,1646,0,0
-427,-622,-7.62891,3.48096,0,0,0,0,0,0,0,-1,797,1646,-7.62892,-3.48092
-420,-622,-9.35791,1.77185,0,0,0,0,0,0,0,-1,804,1646,-9.35789,-1.77183
-413,-622,-8.46075,1.96777,0,0,0,0,0,0,0,-1,811,1646,-8.46074,-1.96774
-406,-622,-4.44318,2.16858,0,0,0,0,0,0,0,-1,818,1646,-4.44315,-2.16859
-399,-622,-7.06976,1.51001,0,0,0,0,0,0,0,-1,825,1646,-7.06976,-1.51005
-392,-622,3.89551,5.85376,0,0,0,0,0,0,0,-1,832,1646,3.8955,-5.85379
-385,-622,2.00543,14.0448,0,0,0,0,0,0,0,-1,839,1646,2.00544,-14.0448
-378,-622,1.49036,15.3436,0,0,0,0,0,0,0,-1,846,1646,1.49033,-15.3436
-371,-622,3.23883,20.4496,0,0,0,0,0,0,0,-1,853,1646,3.23886,-20.4496
-364,-622,3.13812,25.6898,0,0,0,0,0,0,0,-1,860,1646,3.13812,-25.6898
-357,-622,3.73688,26.4402,0,0,0,0,0,0,0,-1,867,1646,3.7369,-26.4402
-350,-622,3.71265,27.0691,0.000382891,0.00203435,0.00376303,0.00506118,-0.00264394,0.893403,0.00452093,0.0491692,874,1646,3.71267,-27.0691
-343,-622,3.59552,27.5675,0.000393902,0.00237425,0.00397426,0.00547983,-0.00271168,0.907486,0.00481854,0.0249499,881,1646,3.5955,-27.5675
-336,-622,3.6261,28.0288,0.000708136,0.00248222,0.00388371,0.0055789,-0.00238854,0.897673,0.00472133,0.00984591,888,1646,3.62611,-28.0288
-329,-622,3.59406,28.5061,0.000753978,0.00291781,0.0037492,0.00573808,-0.00206629,0.925868,0.00466913,0.00888785,895,1646,3.59406,-28.5061
-322,-622,3.56573,29.0233,0.000690332,0.00316528,0.00353494,0.00567309,-0.00181748,0.953766,0.00451161,0.0101622,902,1646,3.56576,-29.0234
-315,-622,3.55054,29.5367,0.000592267,0.00322496,0.00320121,0.0053699,-0.00155267,0.980462,0.0041944,0.0139575,909,1646,3.55054,-29.5367
-308,-622,3.53412,29.974,0.000669057,0.00320443,0.00288168,0.00508493,-0.00121145,0.992614,0.00385771,0.0143878,916,1646,3.53409,-29.974
-301,-622,3.54742,30.4258,0.000998612,0.00339694,0.00269903,0.0051512,-0.000755655,0.994447,0.00371175,0.0132347,923,1646,3.54743,-30.4258
-294,-622,3.53326,30.9154,0.0016866,0.0040172,0.00282173,0.00590478,-0.000200976,0.981219,0.00400519,0.0101236,930,1646,3.53325,-30.9154
-287,-622,3.50372,31.3746,0.00243806,0.00477983,0.00301302,0.00684147,0.000376417,0.970722,0.00444083,0.00764229,937,1646,3.50374,-31.3747
-280,-622,3.47565,31.8202,0.0033884,0.00555961,0.00335018,0.00799569,0.00095232,0.942082,0.00504308,0.00840692,944,1646,3.47562,-31.8202
-273,-622,3.4693,32.2688,0.0044876,0.00646144,0.00380077,0.00940133,0.00154771,0.912425,0.00582065,0.0127659,951,1646,3.46927,-32.2688
-266,-622,3.44049,32.7349,0.00568392,0.00765892,0.00438162,0.0111629,0.0021799,0.896233,0.00683225,0.0133476,958,1646,3.44048,-32.7349
-259,-622,3.4776,33.2169,0.00698227,0.00905939,0.00513511,0.0132599,0.00278175,0.885176,0.00807404,0.0125627,965,1646,3.47759,-33.2169
-252,-622,3.47388,33.6243,0.00824998,0.0107345,0.00592561,0.0155467,0.00343781,0.888722,0.00942975,0.0125686,972,1646,3.47387,-33.6243
-245,-622,3.52924,34.0442,0.00914642,0.012604,0.00669204,0.017787,0.00396348,0.911803,0.0107824,0.0108727,979,1646,3.52924,-34.0442
-238,-622,3.5473,34.4839,0.00988602,0.0138935,0.00735571,0.0195135,0.00426601,0.918374,0.0118459,0.0154141,986,1646,3.54732,-34.4839
-231,-622,3.64587,35.0212,0.0113697,0.0143721,0.00779635,0.0208105,0.00493135,0.880511,0.0125569,0.0297178,993,1646,3.64585,-35.0212
-224,-622,3.69629,35.3444,0.0122262,0.0143645,0.00877254,0.0221328,0.00445792,0.846036,0.0135165,0.0459442,1000,1646,3.69628,-35.3444
-217,-622,3.76587,35.6696,0,0,0,0,0,0,0,-1,1007,1646,3.76585,-35.6695
-210,-622,3.87927,28.0903,0,0,0,0,0,0,0,-1,1014,1646,3.87925,-28.0903
-203,-622,4.21375,20.9574,0,0,0,0,0,0,0,-1,1021,1646,4.21375,-20.9574
-196,-622,4.18518,21.2491,0,0,0,0,0,0,0,-1,1028,1646,4.18521,-21.2491
-189,-622,4.98254,25.8979,0,0,0,0,0,0,0,-1,1035,1646,4.98255,-25.8979
-182,-622,2.21411,20.6752,0,0,0,0,0,0,0,-1,1042,1646,2.21416,-20.6751
-175,-622,2.56091,11.0195,0,0,0,0,0,0,0,-1,1049,1646,2.56095,-11.0195
-168,-622,5.58191,36.0128,0,0,0,0,0,0,0,-1,1056,1646,5.58189,-36.0128
-161,-622,5.81848,37.2841,0,0,0,0,0,0,0,-1,1063,1646,5.81853,-37.284
-154,-622,6.2561,37.6737,0,0,0,0,0,0,0,-1,1070,1646,6.25613,-37.6737
-147,-622,6.5719,37.891,0,0,0,0,0,0,0,-1,1077,1646,6.57185,-37.891
-140,-622,3.27515,16.0353,0,0,0,0,0,0,0,-1,1084,1646,3.27519,-16.0353
-133,-622,3.09644,17.677,0,0,0,0,0,0,0,-1,1091,1646,3.09638,-17.677
-126,-622,3.5061,19.5251,0,0,0,0,0,0,0,-1,1098,1646,3.50616,-19.5252
-119,-622,4.06384,13.1715,0,0,0,0,0,0,0,-1,1105,1646,4.06379,-13.1716
-112,-622,4.33276,14.6605,0,0,0,0,0,0,0,-1,1112,1646,4.33281,-14.6605
-105,-622,0.306519,4.38159,0,0,0,0,0,0,0,-1,1119,1646,0.306536,-4.38159
-98,-622,-0.510376,3.5033,0,0,0,0,0,0,0,-1,1126,1646,-0.510393,-3.50324
-91,-622,-1.146,0.975952,0,0,0,0,0,0,0,-1,1133,1646,-1.14599,-0.97597
-84,-622,-2.04895,1.31787,0,0,0,0,0,0,0,-1,1140,1646,-2.0489,-1.31781
-77,-622,-1.80627,0.332275,0,0,0,0,0,0,0,-1,1147,1646,-1.80622,-0.33223
-70,-622,-3.65588,2.28149,0,0,0,0,0,0,0,-1,1154,1646,-3.65589,-2.28155
-63,-622,-2.49683,1.27087,0,0,0,0,0,0,0,-1,1161,1646,-2.49679,-1.27093
-56,-622,-2.44238,-0.575562,0,0,0,0,0,0,0,-1,1168,1646,-2.44242,0.575508
-49,-622,-2.41089,1.38818,0,0,0,0,0,0,0,-1,1175,1646,-2.41088,-1.38815
-42,-622,-2.71497,2.85242,0,0,0,0,0,0,0,-1,1182,1646,-2.71491,-2.85247
-35,-622,-3.0177,4.25842,0,0,0,0,0,0,0,-1,1189,1646,-3.01773,-4.25838
-28,-622,-0.896606,0.678833,0,0,0,0,0,0,0,-1,1196,1646,-0.89661,-0.678835
-21,-622,16.4141,36.2849,0,0,0,0,0,0,0,-1,1203,1646,16.4141,-36.285
-14,-622,12.7726,35.3608,0,0,0,0,0,0,0,-1,1210,1646,12.7726,-35.3609
-7,-622,13.2388,35.5912,0,0,0,0,0,0,0,-1,1217,1646,13.2388,-35.5912
0,-622,0,0,0,0,0,0,0,0,0,-1,1224,1646,0,0
7,-622,0,0,0,0,0,0,0,0,0,-1,1231,1646,0,0
14,-622,0,0,0,0,0,0,0,0,0,-1,1238,1646,0,0
21,-622,0,0,0,0,0,0,0,0,0,-1,1245,1646,0,0
28,-622,0,0,0,0,0,0,0,0,0,-1,1252,1646,0,0
35,-622,0,0,0,0,0,0,0,0,0,-1,1259,1646,0,0
42,-622,0,0,0,0,0,0,0,0,0,-1,1266,1646,0,0
49,-622,0,0,0,0,0,0,0,0,0,-1,1273,1646,0,0
56,-622,0,0,0,0,0,0,0,0,0,-1,1280,1646,0,0
63,-622,0,0,0,0,0,0,0,0,0,-1,1287,1646,0,0
70,-622,0,0,0,0,0,0,0,0,0,-1,1294,1646,0,0
77,-622,0,0,0,0,0,0,0,0,0,-1,1301,1646,0,0
84,-622,0,0,0,0,0,0,0,0,0,-1,1308,1646,0,0
91,-622,0,0,0,0,0,0,0,0,0,-1,1315,1646,0,0
98,-622,0,0,0,0,0,0,0,0,0,-1,1322,1646,0,0
105,-622,0,0,0,0,0,0,0,0,0,-1,1329,1646,0,0
112,-622,0,0,0,0,0,0,0,0,0,-1,1336,1646,0,0
119,-622,0,0,0,0,0,0,0,0,0,-1,1343,1646,0,0
126,-622,3.93164,48.0083,0,0,0,0,0,0,0,-1,1350,1646,3.93169,-48.0083
133,-622,3.1062,48.9863,0,0,0,0,0,0,0,-1,1357,1646,3.10626,-48.9864
140,-622,1.20105,48.7673,0,0,0,0,0,0,0,-1,1364,1646,1.20099,-48.7673
147,-622,0.778931,50.4702,0,0,0,0,0,0,0,-1,1371,1646,0.778959,-50.4703
154,-622,17.2712,25.0475,0,0,0,0,0,0,0,-1,1378,1646,17.2712,-25.0474
161,-622,10.6884,6.46448,0,0,0,0,0,0,0,-1,1385,1646,10.6883,-6.46442
168,-622,12.2402,5.18091,0,0,0,0,0,0,0,-1,1392,1646,12.2403,-5.1809
175,-622,5.64355,-1.77075,0,0,0,0,0,0,0,-1,1399,1646,5.64351,1.77077
182,-622,5.88586,-1.32251,0,0,0,0,0,0,0,-1,1406,1646,5.88587,1.32256
189,-622,5.97986,-1.18005,0,0,0,0,0,0,0,-1,1413,1646,5.97986,1.18003
196,-622,5.85022,-0.244507,0,0,0,0,0,0,0,-1,1420,1646,5.85026,0.244478
203,-622,5.25159,0.138794,0,0,0,0,0,0,0,-1,1427,1646,5.25162,-0.138822
210,-622,6.66833,0.0397949,0,0,0,0,0,0,0,-1,1434,1646,6.6684,-0.0398278
217,-622,6.12061,0.0506592,0,0,0,0,0,0,0,-1,1441,1646,6.12058,-0.0507181
224,-622,5.57275,0.0616455,0,0,0,0,0,0,0,-1,1448,1646,5.57276,-0.0616084
231,-622,5.31348,1.3949,0,0,0,0,0,0,0,-1,1455,1646,5.31342,-1.39495
238,-622,3.76477,2.90686,0,0,0,0,0,0,0,-1,1462,1646,3.7648,-2.90686
245,-622,5.13794,2.67993,0,0,0,0,0,0,0,-1,1469,1646,5.13796,-2.67992
252,-622,6.66528,2.53992,0,0,0,0,0,0,0,-1,1476,1646,6.66522,-2.53991
259,-622,8.93787,3.31458,0,0,0,0,0,0,0,-1,1483,1646,8.93791,-3.31454
266,-622,5.72644,3.11926,0,0,0,0,0,0,0,-1,1490,1646,5.72647,-3.1192
273,-622,7.28076,3.61218,0,0,0,0,0,0,0,-1,1497,1646,7.28071,-3.61212
280,-622,8.43127,4.4447,0,0,0,0,0,0,0,-1,1504,1646,8.43123,-4.44467
287,-622,8.60315,5.94617,0,0,0,0,0,0,0,-1,1511,1646,8.60319,-5.94622
294,-622,7.62756,11.5143,0,0,0,0,0,0,0,-1,1518,1646,7.62762,-11.5143
301,-622,7.36548,11.6569,0,0,0,0,0,0,0,-1,1525,1646,7.36549,-11.6569
308,-622,7.10339,11.7994,0,0,0,0,0,0,0,-1,1532,1646,7.10335,-11.7995
315,-622,8.28687,16.5842,0,0,0,0,0,0,0,-1,1539,1646,8.28689,-16.5843
322,-622,7.43689,20.5786,0,0,0,0,0,0,0,-1,1546,1646,7.43685,-20.5786
329,-622,9.76477,26.4202,0,0,0,0,0,0,0,-1,1553,1646,9.7648,-26.4202
336,-622,10.4526,28.8552,0,0,0,0,0,0,0,-1,1560,1646,10.4526,-28.8552
343,-622,12.8284,36.9976,0,0,0,0,0,0,0,-1,1567,1646,12.8284,-36.9976
350,-622,13.1967,36.1414,0,0,0,0,0,0,0,-1,1574,1646,13.1966,-36.1414
357,-622,12.8337,35.9817,0.011779,0.0243157,-0.0107866,0.0305231,0.00557161,-1.04861,0.0187692,0.0481042,1581,1646,12.8337,-35.9817
364,-622,13.0421,35.4481,0.010384,0.0214016,-0.00926128,0.0266686,0.00511698,-1.0537,0.0163427,0.0393353,1588,1646,13.0421,-35.4481
371,-622,13.2954,34.866,0.00885979,0.0184433,-0.00763957,0.0226696,0.00463357,-1.0655,0.0138297,0.0236649,1595,1646,13.2954,-34.8659
378,-622,13.316,34.3964,0.0071907,0.0157874,-0.00597608,0.0188504,0.00412771,-1.09717,0.011442,0.0108234,1602,1646,13.316,-34.3963
385,-622,13.3258,33.9575,0.00567295,0.0130398,-0.0045173,0.015185,0.00352768,-1.12743,0.00917635,0.0087361,1609,1646,13.3258,-33.9575
392,-622,13.3127,33.5676,0.00428624,0.0104758,-0.00322634,0.0118517,0.00291035,-1.16769,0.00713179,0.010215,1616,1646,13.3127,-33.5677
399,-622,13.2858,33.1616,0.0029852,0.0080962,-0.00203893,0.00880992,0.00227147,-1.23408,0.00528153,0.0116884,1623,1646,13.2858,-33.1616
406,-622,13.2887,32.7444,0.0019541,0.00622151,-0.00121951,0.00654543,0.00163019,-1.31118,0.00393446,0.0149181,1630,1646,13.2887,-32.7444
413,-622,13.2904,32.3242,0.00123348,0.00454716,-0.000581491,0.00464624,0.0011344,-1.40203,0.00279712,0.016298,1637,1646,13.2905,-32.3243
420,-622,13.3053,31.8914,0.000773921,0.00325649,-0.00026324,0.00328409,0.000746315,-1.46631,0.00198788,0.0168315,1644,1646,13.3054,-31.8913
427,-622,13.3123,31.4354,0.000478396,0.00184714,-1.68715e-05,0.00184734,0.000478188,-1.55847,0.00110714,0.014206,1651,1646,13.3122,-31.4354
434,-622,13.2891,31.0013,0.000476261,0.000981314,-1.5171e-05,0.000981769,0.000475805,-1.54079,0.000566914,0.0144825,1658,1646,13.2891,-31.0013
441,-622,13.2736,30.5684,0.000731292,0.000344883,-0.000176452,0.000799742,0.000276433,-0.370055,0.000469007,0.0159596,1665,1646,13.2735,-30.5683
448,-622,13.2513,30.1296,0.00100468,-0.000431598,-0.000256909,0.00104925,-0.000476169,-0.171777,0.000901182,0.014773,1672,1646,13.2513,-30.1297
455,-622,13.2178,29.6379,0.00129383,-0.00123155,-0.000216167,0.0013122,-0.00124992,-0.0847757,0.00147939,0.0164701,1679,1646,13.2178,-29.638
462,-622,13.2158,29.1796,0.00147128,-0.00221765,2.98485e-05,0.00147152,-0.00221789,0.00809067,0.00214456,0.0177892,1686,1646,13.2158,-29.1796
469,-622,13.2085,28.7299,0.00155297,-0.00327706,0.000315026,0.00157343,-0.00329752,0.0648561,0.00287036,0.0190365,1693,1646,13.2085,-28.7298
476,-622,13.2706,28.2576,0.00146505,-0.00434128,0.000727661,0.00155486,-0.00443109,0.122792,0.00358651,0.0282012,1700,1646,13.2706,-28.2575
483,-622,13.1896,27.8807,0.00104502,-0.00529818,0.00134268,0.00131752,-0.00557068,0.200233,0.00422205,0.0436919,1707,1646,13.1895,-27.8807
490,-622,13.2079,27.3225,0,0,0,0,0,0,0,-1,1714,1646,13.2079,-27.3225
497,-622,13.0721,27.2573,0,0,0,0,0,0,0,-1,1721,1646,13.0721,-27.2574
504,-622,10.8306,19.8021,0,0,0,0,0,0,0,-1,1728,1646,10.8306,-19.8022
511,-622,5.29004,4.14587,0,0,0,0,0,0,0,-1,1735,1646,5.29008,-4.14589
518,-622,5.6001,1.55359,0,0,0,0,0,0,0,-1,1742,1646,5.60015,-1.5536
525,-622,5.83093,2.01807,0,0,0,0,0,0,0,-1,1749,1646,5.83097,-2.01802
532,-622,5.44202,0.57373,0,0,0,0,0,0,0,-1,1756,1646,5.44196,-0.573705
539,-622,9.32129,1.06116,0,0,0,0,0,0,0,-1,1763,1646,9.32131,-1.0612
546,-622,6.50977,-3.45618,0,0,0,0,0,0,0,-1,1770,1646,6.50981,3.4562
553,-622,0,0,0,0,0,0,0,0,0,-1,1777,1646,0,0
560,-622,0,0,0,0,0,0,0,0,0,-1,1784,1646,0,0
567,-622,0,0,0,0,0,0,0,0,0,-1,1791,1646,0,0
574,-622,0,0,0,0,0,0,0,0,0,-1,1798,1646,0,0
581,-622,0,0,0,0,0,0,0,0,0,-1,1805,1646,0,0
588,-622,0,0,0,0,0,0,0,0,0,-1,1812,1646,0,0
595,-622,0,0,0,0,0,0,0,0,0,-1,1819,1646,0,0
602,-622,0,0,0,0,0,0,0,0,0,-1,1826,1646,0,0
609,-622,0,0,0,0,0,0,0,0,0,-1,1833,1646,0,0
616,-622,0,0,0,0,0,0,0,0,0,-1,1840,1646,0,0
623,-622,0,0,0,0,0,0,0,0,0,-1,1847,1646,0,0
630,-622,0,0,0,0,0,0,0,0,0,-1,1854,1646,0,0
637,-622,0,0,0,0,0,0,0,0,0,-1,1861,1646,0,0
644,-622,0,0,0,0,0,0,0,0,0,-1,1868,1646,0,0
651,-622,0,0,0,0,0,0,0,0,0,-1,1875,1646,0,0
658,-622,0,0,0,0,0,0,0,0,0,-1,1882,1646,0,0
665,-622,0,0,0,0,0,0,0,0,0,-1,1889,1646,0,0
672,-622,0,0,0,0,0,0,0,0,0,-1,1896,1646,0,0
679,-622,0,0,0,0,0,0,0,0,0,-1,1903,1646,0,0
686,-622,0,0,0,0,0,0,0,0,0,-1,1910,1646,0,0
693,-622,0,0,0,0,0,0,0,0,0,-1,1917,1646,0,0
700,-622,0,0,0,0,0,0,0,0,0,-1,1924,1646,0,0
707,-622,0,0,0,0,0,0,0,0,0,-1,1931,1646,0,0
714,-622,0,0,0,0,0,0,0,0,0,-1,1938,1646,0,0
721,-622,0,0,0,0,0,0,0,0,0,-1,1945,1646,0,0
728,-622,0,0,0,0,0,0,0,0,0,-1,1952,1646,0,0
735,-622,0,0,0,0,0,0,0,0,0,-1,1959,1646,0,0
742,-622,0,0,0,0,0,0,0,0,0,-1,1966,1646,0,0
749,-622,0,0,0,0,0,0,0,0,0,-1,1973,1646,0,0
756,-622,0,0,0,0,0,0,0,0,0,-1,1980,1646,0,0
763,-622,0,0,0,0,0,0,0,0,0,-1,1987,1646,0,0
770,-622,0,0,0,0,0,0,0,0,0,-1,1994,1646,0,0
777,-622,0,0,0,0,0,0,0,0,0,-1,2001,1646,0,0
784,-622,0,0,0,0,0,0,0,0,0,-1,2008,1646,0,0
791,-622,0,0,0,0,0,0,0,0,0,-1,2015,1646,0,0
798,-622,0,0,0,0,0,0,0,0,0,-1,2022,1646,0,0
805,-622,0,0,0,0,0,0,0,0,0,-1,2029,1646,0,0
812,-622,0,0,0,0,0,0,0,0,0,-1,2036,1646,0,0
-700,-629,0,0,0,0,0,0,0,0,0,-1,524,1653,0,0
-693,-629,0,0,0,0,0,0,0,0,0,-1,531,1653,0,0
-686,-629,0,0,0,0,0,0,0,0,0,-1,538,1653,0,0
-679,-629,0,0,0,0,0,0,0,0,0,-1,545,1653,0,0
-672,-629,0,0,0,0,0,0,0,0,0,-1,552,1653,0,0
-665,-629,0,0,0,0,0,0,0,0,0,-1,559,1653,0,0
-658,-629,0,0,0,0,0,0,0,0,0,-1,566,1653,0,0
-651,-629,0,0,0,0,0,0,0,0,0,-1,573,1653,0,0
-644,-629,0,0,0,0,0,0,0,0,0,-1,580,1653,0,0
-637,-629,0,0,0,0,0,0,0,0,0,-1,587,1653,0,0
-630,-629,0,0,0,0,0,0,0,0,0,-1,594,1653,0,0
-623,-629,0,0,0,0,0,0,0,0,0,-1,601,1653,0,0
-616,-629,0,0,0,0,0,0,0,0,0,-1,608,1653,0,0
-609,-629,0,0,0,0,0,0,0,0,0,-1,615,1653,0,0
-602,-629,0,0,0,0,0,0,0,0,0,-1,622,1653,0,0
-595,-629,0,0,0,0,0,0,0,0,0,-1,629,1653,0,0
-588,-629,0,0,0,0,0,0,0,0,0,-1,636,1653,0,0
-581,-629,0,0,0,0,0,0,0,0,0,-1,643,1653,0,0
-574,-629,0,0,0,0,0,0,0,0,0,-1,650,1653,0,0
-567,-629,0,0,0,0,0,0,0,0,0,-1,657,1653,0,0
-560,-629,0,0,0,0,0,0,0,0,0,-1,664,1653,0,0
-553,-629,0,0,0,0,0,0,0,0,0,-1,671,1653,0,0
-546,-629,0,0,0,0,0,0,0,0,0,-1,678,1653,0,0
-539,-629,0,0,0,0,0,0,0,0,0,-1,685,1653,0,0
-532,-629,0,0,0,0,0,0,0,0,0,-1,692,1653,0,0
-525,-629,0,0,0,0,0,0,0,0,0,-1,699,1653,0,0
-518,-629,0,0,0,0,0,0,0,0,0,-1,706,1653,0,0
-511,-629,0,0,0,0,0,0,0,0,0,-1,713,1653,0,0
-504,-629,0,0,0,0,0,0,0,0,0,-1,720,1653,0,0
-497,-629,0,0,0,0,0,0,0,0,0,-1,727,1653,0,0
-490,-629,0,0,0,0,0,0,0,0,0,-1,734,1653,0,0
-483,-629,0,0,0,0,0,0,0,0,0,-1,741,1653,0,0
-476,-629,0,0,0,0,0,0,0,0,0,-1,748,1653,0,0
-469,-629,0,0,0,0,0,0,0,0,0,-1,755,1653,0,0
-462,-629,0,0,0,0,0,0,0,0,0,-1,762,1653,0,0
-455,-629,0,0,0,0,0,0,0,0,0,-1,769,1653,0,0
-448,-629,0,0,0,0,0,0,0,0,0,-1,776,1653,0,0
-441,-629,0,0,0,0,0,0,0,0,0,-1,783,1653,0,0
-434,-629,0,0,0,0,0,0,0,0,0,-1,790,1653,0,0
-427,-629,0,0,0,0,0,0,0,0,0,-1,797,1653,0,0
-420,-629,-3.87103,3.37634,0,0,0,0,0,0,0,-1,804,1653,-3.87101,-3.37633
-413,-629,-5.69751,1.33582,0,0,0,0,0,0,0,-1,811,1653,-5.69754,-1.3358
-406,-629,2.85406,6.01501,0,0,0,0,0,0,0,-1,818,1653,2.85405,-6.01507
-399,-629,-0.455627,10.8687,0,0,0,0,0,0,0,-1,825,1653,-0.455625,-10.8687
-392,-629,1.15369,11.1295,0,0,0,0,0,0,0,-1,832,1653,1.1537,-11.1295
-385,-629,1.81976,11.6935,0,0,0,0,0,0,0,-1,839,1653,1.81975,-11.6935
-378,-629,2.19452,14.7941,0,0,0,0,0,0,0,-1,846,1653,2.19451,-14.7941
-371,-629,3.60114,14.7299,0,0,0,0,0,0,0,-1,853,1653,3.60113,-14.7299
-364,-629,3.26898,21.0801,0,0,0,0,0,0,0,-1,860,1653,3.26895,-21.08
-357,-629,4.38782,16.3444,0,0,0,0,0,0,0,-1,867,1653,4.38783,-16.3443
-350,-629,4.25415,27.1035,0,0,0,0,0,0,0,-1,874,1653,4.25416,-27.1035
-343,-629,3.9978,27.597,-0.000281556,0.00375795,0.00572062,0.0078049,-0.00432851,0.9551,0.00710043,0.037662,881,1653,3.99782,-27.5971
-336,-629,4.05756,28.0577,-0.000568378,0.00364867,0.00552276,0.00745172,-0.00437143,0.967753,0.00690289,0.0184484,888,1653,4.05754,-28.0577
-329,-629,4.08612,28.5361,-0.00110984,0.00399462,0.00522373,0.00725627,-0.00437149,1.01263,0.00678181,0.01188,895,1653,4.08614,-28.5362
-322,-629,4.05792,29.0072,-0.00155692,0.00410474,0.00482889,0.00687139,-0.00432357,1.05051,0.00651897,0.0122825,902,1653,4.05795,-29.0072
-315,-629,4.00995,29.5167,-0.00197888,0.00397843,0.00429434,0.00622603,-0.00422648,1.08861,0.00607146,0.0157221,909,1653,4.00992,-29.5167
-308,-629,3.98041,30.0068,-0.00211712,0.00374339,0.00375449,0.00557576,-0.00394949,1.11676,0.00552606,0.0131193,916,1653,3.98043,-30.0068
-301,-629,4.01141,30.4982,-0.00190504,0.00364231,0.00329809,0.00517801,-0.00344073,1.13502,0.00500962,0.0114553,923,1653,4.01142,-30.4982
-294,-629,4.00574,30.9468,-0.00124697,0.00384873,0.00310734,0.00531923,-0.00271746,1.12879,0.00472034,0.0121719,930,1653,4.00571,-30.9468
-287,-629,3.95703,31.3978,-0.000422393,0.00424213,0.00302697,0.00573112,-0.00191138,1.11364,0.00459243,0.00953055,937,1653,3.95701,-31.3978
-280,-629,3.93933,31.8535,0.000641375,0.00460672,0.00305106,0.00626272,-0.00101463,1.07353,0.00455121,0.0100686,944,1653,3.93931,-31.8535
-273,-629,3.93866,32.2744,0.00184645,0.00507596,0.003163,0.00701255,-9.01341e-05,1.02141,0.00470537,0.013873,951,1653,3.93869,-32.2744
-266,-629,3.91571,32.7438,0.00315175,0.00579753,0.00340303,0.00812576,0.000823518,0.970779,0.0051646,0.0144807,958,1653,3.91574,-32.7438
-259,-629,3.9162,33.2329,0.00454748,0.00670685,0.00382697,0.00960353,0.00165081,0.922887,0.00592919,0.0151936,965,1653,3.91621,-33.2329
-252,-629,3.93066,33.6293,0.0058349,0.0078188,0.00426143,0.0112022,0.0024515,0.899749,0.0067999,0.0111752,972,1653,3.93067,-33.6293
-245,-629,3.95233,34.0585,0.00678709,0.0089936,0.00471589,0.0127336,0.00304712,0.900303,0.00767761,0.00793498,979,1653,3.95233,-34.0584
-238,-629,3.95593,34.4895,0.00748388,0.00995407,0.00504717,0.0139151,0.00352288,0.905395,0.00835381,0.0103661,986,1653,3.95591,-34.4894
-231,-629,3.92639,34.9047,0.00859382,0.0101696,0.00534286,0.0147823,0.00398107,0.858603,0.00883219,0.0175079,993,1653,3.92642,-34.9047
-224,-629,4.01453,35.4443,0.0091355,0.0100444,0.00606249,0.0156695,0.00351047,0.82281,0.00949499,0.0229008,1000,1653,4.01455,-35.4443
-217,-629,3.96136,35.782,0.00858456,0.00911058,0.00665538,0.0155081,0.002187,0.805147,0.00969237,0.0376275,1007,1653,3.96136,-35.782
-210,-629,4.21777,36.3063,0,0,0,0,0,0,0,-1,1014,1653,4.21775,-36.3062
-203,-629,4.146,37.4899,0,0,0,0,0,0,0,-1,1021,1653,4.14599,-37.4898
-196,-629,4.52905,37.2091,0,0,0,0,0,0,0,-1,1028,1653,4.52901,-37.2091
-189,-629,4.37085,37.2596,0,0,0,0,0,0,0,-1,1035,1653,4.37085,-37.2596
-182,-629,4.59192,37.5778,0,0,0,0,0,0,0,-1,1042,1653,4.59187,-37.5777
-175,-629,5.42114,37.6913,0,0,0,0,0,0,0,-1,1049,1653,5.42116,-37.6912
-168,-629,4.67834,37.9139,0,0,0,0,0,0,0,-1,1056,1653,4.67831,-37.914
-161,-629,6.27295,37.527,0,0,0,0,0,0,0,-1,1063,1653,6.27297,-37.527
-154,-629,6.43225,37.8851,0,0,0,0,0,0,0,-1,1070,1653,6.43231,-37.8851
-147,-629,6.60645,38.0795,0,0,0,0,0,0,0,-1,1077,1653,6.60649,-38.0795
-140,-629,2.34851,19.2911,0,0,0,0,0,0,0,-1,1084,1653,2.34853,-19.2911
-133,-629,3.41248,17.6686,0,0,0,0,0,0,0,-1,1091,1653,3.41243,-17.6686
-126,-629,4.01025,19.5328,0,0,0,0,0,0,0,-1,1098,1653,4.01022,-19.5328
-119,-629,4.94177,13.5525,0,0,0,0,0,0,0,-1,1105,1653,4.94172,-13.5525
-112,-629,5.63123,15.9187,0,0,0,0,0,0,0,-1,1112,1653,5.63118,-15.9187
-105,-629,2.15881,4.38342,0,0,0,0,0,0,0,-1,1119,1653,2.15878,-4.38347
-98,-629,0.825806,4.19385,0,0,0,0,0,0,0,-1,1126,1653,0.825779,-4.1939
-91,-629,-0.452271,3.64465,0,0,0,0,0,0,0,-1,1133,1653,-0.452278,-3.6446
-84,-629,-2.6084,0.466797,0,0,0,0,0,0,0,-1,1140,1653,-2.6084,-0.466786
-77,-629,-3.50903,2.10706,0,0,0,0,0,0,0,-1,1147,1653,-3.509,-2.10707
-70,-629,-1.20886,2.52502,0,0,0,0,0,0,0,-1,1154,1653,-1.20886,-2.525
-63,-629,-0.960693,4.30212,0,0,0,0,0,0,0,-1,1161,1653,-0.960691,-4.30215
-56,-629,-1.31934,5.64343,0,0,0,0,0,0,0,-1,1168,1653,-1.31928,-5.6434
-49,-629,-2.15662,2.57458,0,0,0,0,0,0,0,-1,1175,1653,-2.15656,-2.57459
-42,-629,-2.46326,3.91467,0,0,0,0,0,0,0,-1,1182,1653,-2.4633,-3.91466
-35,-629,-2.67261,5.24292,0,0,0,0,0,0,0,-1,1189,1653,-2.67257,-5.24298
-28,-629,-0.402954,-0.866577,0,0,0,0,0,0,0,-1,1196,1653,-0.402943,0.866612
-21,-629,3.45508,27.0596,0,0,0,0,0,0,0,-1,1203,1653,3.45508,-27.0596
-14,-629,12.2919,36.3945,0,0,0,0,0,0,0,-1,1210,1653,12.2919,-36.3945
-7,-629,4.03076,42.9125,0,0,0,0,0,0,0,-1,1217,1653,4.03077,-42.9124
0,-629,2.68933,37.6178,0,0,0,0,0,0,0,-1,1224,1653,2.68934,-37.6178
7,-629,7.63696,52.5306,0,0,0,0,0,0,0,-1,1231,1653,7.63693,-52.5307
14,-629,8.19678,53.2651,0,0,0,0,0,0,0,-1,1238,1653,8.19677,-53.2651
21,-629,9.10034,53.6714,0.17058,0.174119,0.0932559,0.265622,0.0790768,0.794882,0.157485,0.0469155,1245,1653,9.10035,-53.6714
28,-629,10.2299,54.0223,0.163825,0.171781,0.0646775,0.232602,0.103003,0.816112,0.134585,0.0492933,1252,1653,10.2299,-54.0223
35,-629,11.085,54.5248,0,0,0,0,0,0,0,-1,1259,1653,11.085,-54.5248
42,-629,8.56519,42.8887,0,0,0,0,0,0,0,-1,1266,1653,8.56522,-42.8887
49,-629,9.56848,53.9941,0,0,0,0,0,0,0,-1,1273,1653,9.56846,-53.9941
56,-629,10.1829,54.0167,0.132364,0.162251,-0.0364536,0.186705,0.10791,-0.979918,0.10823,0.0494447,1280,1653,10.1829,-54.0167
63,-629,10.8832,53.9095,0.124018,0.156767,-0.0561573,0.198889,0.0818968,-0.927257,0.115423,0.0467239,1287,1653,10.8832,-53.9095
70,-629,11.7148,53.769,0.114778,0.158831,-0.0705317,0.210695,0.0629133,-0.936746,0.124891,0.0448255,1294,1653,11.7149,-53.7691
77,-629,12.6532,53.7197,0,0,0,0,0,0,0,-1,1301,1653,12.6532,-53.7197
84,-629,11.076,53.3422,0.0968452,0.137989,-0.0860348,0.205877,0.0289569,-0.90275,0.12869,0.0423844,1308,1653,11.0761,-53.3421
91,-629,11.5017,53.3156,0,0,0,0,0,0,0,-1,1315,1653,11.5017,-53.3155
98,-629,11.8031,53.3275,0.113989,0.0636585,-0.0795456,0.172255,0.00539231,-0.632199,0.113082,0.04577,1322,1653,11.8031,-53.3276
105,-629,12.6532,53.1847,0,0,0,0,0,0,0,-1,1329,1653,12.6532,-53.1847
112,-629,13.6373,52.9319,0,0,0,0,0,0,0,-1,1336,1653,13.6373,-52.9319
119,-629,5.1908,46.7245,0,0,0,0,0,0,0,-1,1343,1653,5.1908,-46.7245
126,-629,4.23792,47.6956,0,0,0,0,0,0,0,-1,1350,1653,4.23788,-47.6955
133,-629,3.37854,48.5093,0,0,0,0,0,0,0,-1,1357,1653,3.37854,-48.5093
140,-629,1.88013,49.0641,0,0,0,0,0,0,0,-1,1364,1653,1.88007,-49.064
147,-629,1.70068,50.7614,0,0,0,0,0,0,0,-1,1371,1653,1.70063,-50.7613
154,-629,1.58569,52.5651,0,0,0,0,0,0,0,-1,1378,1653,1.58564,-52.5651
161,-629,10.5461,6.83752,0,0,0,0,0,0,0,-1,1385,1653,10.5461,-6.83758
168,-629,12.0059,5.56348,0,0,0,0,0,0,0,-1,1392,1653,12.0059,-5.56352
175,-629,5.84485,-1.78845,0,0,0,0,0,0,0,-1,1399,1653,5.84479,1.7884
182,-629,5.99036,-1.27783,0,0,0,0,0,0,0,-1,1406,1653,5.99041,1.27778
189,-629,5.97668,-0.748535,0,0,0,0,0,0,0,-1,1413,1653,5.97671,0.748544
196,-629,4.52869,9.24695,0,0,0,0,0,0,0,-1,1420,1653,4.52869,-9.2469
203,-629,3.75085,6.88037,0,0,0,0,0,0,0,-1,1427,1653,3.75087,-6.88032
210,-629,3.5907,6.52637,0,0,0,0,0,0,0,-1,1434,1653,3.59067,-6.52642
217,-629,2.4585,4.84448,0,0,0,0,0,0,0,-1,1441,1653,2.45855,-4.84448
224,-629,1.31982,3.68481,0,0,0,0,0,0,0,-1,1448,1653,1.31986,-3.68487
231,-629,3.63025,1.73499,0,0,0,0,0,0,0,-1,1455,1653,3.6303,-1.735
238,-629,4.26428,2.11255,0,0,0,0,0,0,0,-1,1462,1653,4.26429,-2.11253
245,-629,5.61816,1.95361,0,0,0,0,0,0,0,-1,1469,1653,5.61815,-1.95359
252,-629,7.27136,2.18982,0,0,0,0,0,0,0,-1,1476,1653,7.27131,-2.18985
259,-629,8.67334,2.18628,0,0,0,0,0,0,0,-1,1483,1653,8.6733,-2.18633
266,-629,6.86475,3.72058,0,0,0,0,0,0,0,-1,1490,1653,6.86479,-3.72063
273,-629,7.9021,3.8717,0,0,0,0,0,0,0,-1,1497,1653,7.90205,-3.87171
280,-629,9.70837,4.39087,0,0,0,0,0,0,0,-1,1504,1653,9.7084,-4.39082
287,-629,9.82947,7.19348,0,0,0,0,0,0,0,-1,1511,1653,9.8295,-7.19347
294,-629,6.56555,11.6359,0,0,0,0,0,0,0,-1,1518,1653,6.5656,-11.6358
301,-629,6.93835,15.6102,0,0,0,0,0,0,0,-1,1525,1653,6.93835,-15.6103
308,-629,6.08264,12.1423,0,0,0,0,0,0,0,-1,1532,1653,6.08263,-12.1423
315,-629,6.82043,18.2764,0,0,0,0,0,0,0,-1,1539,1653,6.82049,-18.2764
322,-629,10.3922,29.9829,0,0,0,0,0,0,0,-1,1546,1653,10.3922,-29.9829
329,-629,12.9434,37.3372,0,0,0,0,0,0,0,-1,1553,1653,12.9433,-37.3372
336,-629,12.5667,37.2869,0,0,0,0,0,0,0,-1,1560,1653,12.5666,-37.2868
343,-629,12.6343,36.712,0.0103482,0.0208119,-0.00840892,0.0254837,0.00567638,-1.06368,0.0154486,0.0450168,1567,1653,12.6343,-36.712
350,-629,12.7987,36.0747,0.00978962,0.0199265,-0.00850925,0.0247624,0.0049537,-1.054,0.0151298,0.0276988,1574,1653,12.7987,-36.0747
357,-629,12.8983,35.5769,0.00908565,0.0181624,-0.00791863,0.022751,0.00449706,-1.04561,0.0139127,0.016543,1581,1653,12.8983,-35.5768
364,-629,12.8699,35.1838,0.00812096,0.016064,-0.00696322,0.0201087,0.00407629,-1.04457,0.0122747,0.0136515,1588,1653,12.8699,-35.1838
371,-629,12.87,34.8046,0.00700584,0.0138705,-0.00586907,0.0172372,0.00363913,-1.04999,0.010491,0.0116983,1595,1653,12.87,-34.8045
378,-629,12.8817,34.3854,0.00579782,0.0118506,-0.00473141,0.0144407,0.00320769,-1.06993,0.00875602,0.0106286,1602,1653,12.8817,-34.3854
385,-629,12.8983,33.9813,0.0046655,0.00967529,-0.0036832,0.0116247,0.00271613,-1.08402,0.00702174,0.0115438,1609,1653,12.8984,-33.9813
392,-629,12.8795,33.5812,0.00354322,0.00754566,-0.00270336,0.00890793,0.00218095,-1.10402,0.00536159,0.0103055,1616,1653,12.8795,-33.5811
399,-629,12.8682,33.1718,0.00242467,0.00547866,-0.00173642,0.006264,0.00163933,-1.14605,0.00375093,0.0110136,1623,1653,12.8682,-33.1717
406,-629,12.8627,32.7402,0.00155521,0.00387275,-0.00103267,0.00426612,0.00116183,-1.20684,0.00254673,0.0143348,1630,1653,12.8627,-32.7402
413,-629,12.8491,32.332,0.0010124,0.00245152,-0.000490676,0.00260289,0.000861024,-1.27155,0.0015312,0.0226712,1637,1653,12.8492,-32.332
420,-629,12.8474,31.9205,0.000655052,0.00134475,-0.000199899,0.0013985,0.000601303,-1.30813,0.000810061,0.0212159,1644,1653,12.8474,-31.9205
427,-629,12.8633,31.4629,0.000494869,0.000188879,-1.03488e-06,0.000494872,0.000188876,-0.00338202,0.000288369,0.0140142,1651,1653,12.8633,-31.4629
434,-629,12.8555,31.0249,0.000566761,-0.000534637,1.56691e-05,0.000566984,-0.000534859,0.0142227,0.00063624,0.0114578,1658,1653,12.8555,-31.0249
441,-629,12.8538,30.5911,0.000877583,-0.0010509,-9.79794e-05,0.000882548,-0.00105586,-0.0506328,0.00112063,0.0160599,1665,1653,12.8538,-30.591
448,-629,12.8252,30.1262,0.00123874,-0.00167727,-0.000126254,0.0012442,-0.00168273,-0.043189,0.00169617,0.0164951,1672,1653,12.8252,-30.1262
455,-629,12.7706,29.6343,0.00169537,-0.00224546,-6.334e-05,0.00169639,-0.00224648,-0.0160672,0.00228379,0.015497,1679,1653,12.7706,-29.6343
462,-629,12.7759,29.198,0.00210786,-0.00299033,0.000169507,0.00211349,-0.00299595,0.0331996,0.00296457,0.0180754,1686,1653,12.7759,-29.198
469,-629,12.7728,28.7415,0.00240272,-0.00387395,0.000409809,0.00242936,-0.00390059,0.0649236,0.00368736,0.0236555,1693,1653,12.7728,-28.7414
476,-629,12.9573,28.4182,0.00254774,-0.0048438,0.000766771,0.00262645,-0.00492251,0.102285,0.00442508,0.0456303,1700,1653,12.9573,-28.4182
483,-629,12.7675,28.0631,0,0,0,0,0,0,0,-1,1707,1653,12.7675,-28.0631
490,-629,13.3649,26.5394,0,0,0,0,0,0,0,-1,1714,1653,13.3649,-26.5395
497,-629,10.3662,19.8605,0,0,0,0,0,0,0,-1,1721,1653,10.3662,-19.8605
504,-629,7.89453,15.5316,0,0,0,0,0,0,0,-1,1728,1653,7.89447,-15.5316
511,-629,6.29138,3.40295,0,0,0,0,0,0,0,-1,1735,1653,6.29137,-3.403
518,-629,5.84387,1.41858,0,0,0,0,0,0,0,-1,1742,1653,5.84391,-1.4186
525,-629,6.4729,1.02319,0,0,0,0,0,0,0,-1,1749,1653,6.47284,-1.02316
532,-629,6.86511,0.903687,0,0,0,0,0,0,0,-1,1756,1653,6.86514,-0.903691
539,-629,6.60803,0.746704,0,0,0,0,0,0,0,-1,1763,1653,6.60809,-0.746691
546,-629,0,0,0,0,0,0,0,0,0,-1,1770,1653,0,0
553,-629,0,0,0,0,0,0,0,0,0,-1,1777,1653,0,0
560,-629,0,0,0,0,0,0,0,0,0,-1,1784,1653,0,0
567,-629,0,0,0,0,0,0,0,0,0,-1,1791,1653,0,0
574,-629,0,0,0,0,0,0,0,0,0,-1,1798,1653,0,0
581,-629,0,0,0,0,0,0,0,0,0,-1,1805,1653,0,0
588,-629,0,0,0,0,0,0,0,0,0,-1,1812,1653,0,0
595,-629,0,0,0,0,0,0,0,0,0,-1,1819,1653,0,0
602,-629,0,0,0,0,0,0,0,0,0,-1,1826,1653,0,0
609,-629,0,0,0,0,0,0,0,0,0,-1,1833,1653,0,0
616,-629,0,0,0,0,0,0,0,0,0,-1,1840,1653,0,0
623,-629,0,0,0,0,0,0,0,0,0,-1,1847,1653,0,0
630,-629,0,0,0,0,0,0,0,0,0,-1,1854,1653,0,0
637,-629,0,0,0,0,0,0,0,0,0,-1,1861,1653,0,0
644,-629,0,0,0,0,0,0,0,0,0,-1,1868,1653,0,0
651,-629,0,0,0,0,0,0,0,0,0,-1,1875,1653,0,0
658,-629,0,0,0,0,0,0,0,0,0,-1,1882,1653,0,0
665,-629,0,0,0,0,0,0,0,0,0,-1,1889,1653,0,0
672,-629,0,0,0,0,0,0,0,0,0,-1,1896,1653,0,0
679,-629,0,0,0,0,0,0,0,0,0,-1,1903,1653,0,0
686,-629,0,0,0,0,0,0,0,0,0,-1,1910,1653,0,0
693,-629,0,0,0,0,0,0,0,0,0,-1,1917,1653,0,0
700,-629,0,0,0,0,0,0,0,0,0,-1,1924,1653,0,0
707,-629,0,0,0,0,0,0,0,0,0,-1,1931,1653,0,0
714,-629,0,0,0,0,0,0,0,0,0,-1,1938,1653,0,0
721,-629,0,0,0,0,0,0,0,0,0,-1,1945,1653,0,0
728,-629,0,0,0,0,0,0,0,0,0,-1,1952,1653,0,0
735,-629,0,0,0,0,0,0,0,0,0,-1,1959,1653,0,0
742,-629,0,0,0,0,0,0,0,0,0,-1,1966,1653,0,0
749,-629,0,0,0,0,0,0,0,0,0,-1,1973,1653,0,0
756,-629,0,0,0,0,0,0,0,0,0,-1,1980,1653,0,0
763,-629,0,0,0,0,0,0,0,0,0,-1,1987,1653,0,0
770,-629,0,0,0,0,0,0,0,0,0,-1,1994,1653,0,0
777,-629,0,0,0,0,0,0,0,0,0,-1,2001,1653,0,0
784,-629,0,0,0,0,0,0,0,0,0,-1,2008,1653,0,0
791,-629,0,0,0,0,0,0,0,0,0,-1,2015,1653,0,0
798,-629,0,0,0,0,0,0,0,0,0,-1,2022,1653,0,0
805,-629,0,0,0,0,0,0,0,0,0,-1,2029,1653,0,0
812,-629,0,0,0,0,0,0,0,0,0,-1,2036,1653,0,0
-700,-636,0,0,0,0,0,0,0,0,0,-1,524,1660,0,0
-693,-636,0,0,0,0,0,0,0,0,0,-1,531,1660,0,0
-686,-636,0,0,0,0,0,0,0,0,0,-1,538,1660,0,0
-679,-636,0,0,0,0,0,0,0,0,0,-1,545,1660,0,0
-672,-636,0,0,0,0,0,0,0,0,0,-1,552,1660,0,0
-665,-636,0,0,0,0,0,0,0,0,0,-1,559,1660,0,0
-658,-636,0,0,0,0,0,0,0,0,0,-1,566,1660,0,0
-651,-636,0,0,0,0,0,0,0,0,0,-1,573,1660,0,0
-644,-636,0,0,0,0,0,0,0,0,0,-1,580,1660,0,0
-637,-636,0,0,0,0,0,0,0,0,0,-1,587,1660,0,0
-630,-636,0,0,0,0,0,0,0,0,0,-1,594,1660,0,0
-623,-636,0,0,0,0,0,0,0,0,0,-1,601,1660,0,0
-616,-636,0,0,0,0,0,0,0,0,0,-1,608,1660,0,0
-609,-636,0,0,0,0,0,0,0,0,0,-1,615,1660,0,0
-602,-636,0,0,0,0,0,0,0,0,0,-1,622,1660,0,0
-595,-636,0,0,0,0,0,0,0,0,0,-1,629,1660,0,0
-588,-636,0,0,0,0,0,0,0,0,0,-1,636,1660,0,0
-581,-636,0,0,0,0,0,0,0,0,0,-1,643,1660,0,0
-574,-636,0,0,0,0,0,0,0,0,0,-1,650,1660,0,0
-567,-636,0,0,0,0,0,0,0,0,0,-1,657,1660,0,0
-560,-636,0,0,0,0,0,0,0,0,0,-1,664,1660,0,0
-553,-636,0,0,0,0,0,0,0,0,0,-1,671,1660,0,0
-546,-636,0,0,0,0,0,0,0,0,0,-1,678,1660,0,0
-539,-636,0,0,0,0,0,0,0,0,0,-1,685,1660,0,0
-532,-636,0,0,0,0,0,0,0,0,0,-1,692,1660,0,0
-525,-636,0,0,0,0,0,0,0,0,0,-1,699,1660,0,0
-518,-636,0,0,0,0,0,0,0,0,0,-1,706,1660,0,0
-511,-636,0,0,0,0,0,0,0,0,0,-1,713,1660,0,0
-504,-636,0,0,0,0,0,0,0,0,0,-1,720,1660,0,0
-497,-636,0,0,0,0,0,0,0,0,0,-1,727,1660,0,0
-490,-636,0,0,0,0,0,0,0,0,0,-1,734,1660,0,0
-483,-636,0,0,0,0,0,0,0,0,0,-1,741,1660,0,0
-476,-636,0,0,0,0,0,0,0,0,0,-1,748,1660,0,0
-469,-636,0,0,0,0,0,0,0,0,0,-1,755,1660,0,0
-462,-636,0,0,0,0,0,0,0,0,0,-1,762,1660,0,0
-455,-636,0,0,0,0,0,0,0,0,0,-1,769,1660,0,0
-448,-636,0,0,0,0,0,0,0,0,0,-1,776,1660,0,0
-441,-636,0,0,0,0,0,0,0,0,0,-1,783,1660,0,0
-434,-636,0,0,0,0,0,0,0,0,0,-1,790,1660,0,0
-427,-636,0,0,0,0,0,0,0,0,0,-1,797,1660,0,0
-420,-636,0,0,0,0,0,0,0,0,0,-1,804,1660,0,0
-413,-636,0,0,0,0,0,0,0,0,0,-1,811,1660,0,0
-406,-636,-0.591125,10.6943,0,0,0,0,0,0,0,-1,818,1660,-0.59115,-10.6943
-399,-636,0.0766602,11.2408,0,0,0,0,0,0,0,-1,825,1660,0.076685,-11.2409
-392,-636,0.75946,11.9233,0,0,0,0,0,0,0,-1,832,1660,0.759481,-11.9233
-385,-636,1.68878,12.517,0,0,0,0,0,0,0,-1,839,1660,1.6888,-12.5169
-378,-636,2.22107,13.0013,0,0,0,0,0,0,0,-1,846,1660,2.22107,-13.0014
-371,-636,2.52185,11.9684,0,0,0,0,0,0,0,-1,853,1660,2.52184,-11.9684
-364,-636,4.51947,14.8503,0,0,0,0,0,0,0,-1,860,1660,4.51949,-14.8504
-357,-636,4.55682,15.8809,0,0,0,0,0,0,0,-1,867,1660,4.55681,-15.8808
-350,-636,4.30096,27.4242,0,0,0,0,0,0,0,-1,874,1660,4.30095,-27.4242
-343,-636,4.37946,27.7512,-0.001039,0.00614409,0.00807413,0.0113894,-0.00628436,0.994668,0.0103449,0.0490702,881,1660,4.37945,-27.7512
-336,-636,4.29919,27.99,-0.00200073,0.00577762,0.00769142,0.0105072,-0.00673035,1.01948,0.0100314,0.0335639,888,1660,4.29919,-27.99
-329,-636,4.49908,28.53,-0.00316002,0.0059383,0.00716377,0.00987527,-0.007097,1.06829,0.00984261,0.0196866,895,1660,4.4991,-28.5301
-322,-636,4.52069,29.0132,-0.00403881,0.00581895,0.00653122,0.00907241,-0.00729227,1.10864,0.00946677,0.0125083,902,1660,4.52068,-29.0132
-315,-636,4.47693,29.5081,-0.00480725,0.00541788,0.00574493,0.00799574,-0.0073851,1.14901,0.00888247,0.0131031,909,1660,4.47692,-29.5081
-308,-636,4.45905,30.0215,-0.00513703,0.00487786,0.00491281,0.00688542,-0.00714459,1.18287,0.00810069,0.0117644,916,1660,4.45906,-30.0215
-301,-636,4.474,30.5092,-0.00501374,0.00441919,0.00413512,0.00597523,-0.00656978,1.21089,0.00724557,0.0118611,923,1660,4.47399,-30.5092
-294,-636,4.44952,30.9781,-0.00436099,0.00419415,0.00360511,0.00551073,-0.00567756,1.22065,0.0064598,0.0149058,930,1660,4.44954,-30.9782
-287,-636,4.42273,31.4255,-0.00345289,0.00420253,0.00324314,0.00539172,-0.00464208,1.21934,0.00579841,0.0134175,937,1660,4.42274,-31.4255
-280,-636,4.40021,31.8777,-0.00227705,0.00416559,0.00296586,0.00532299,-0.00343445,1.19873,0.00509515,0.0126674,944,1660,4.40019,-31.8777
-273,-636,4.39539,32.303,-0.000965014,0.00425135,0.00277646,0.00545255,-0.00216621,1.16248,0.00453304,0.0125022,951,1660,4.39538,-32.303
-266,-636,4.38123,32.7545,0.000445718,0.00457158,0.00273863,0.00593732,-0.000920022,1.10819,0.00429784,0.0136453,958,1660,4.38125,-32.7545
-259,-636,4.37225,33.2211,0.00193971,0.00507368,0.00291475,0.00681596,0.000197437,1.03204,0.00447961,0.0150201,965,1660,4.37226,-33.221
-252,-636,4.37726,33.6238,0.00328254,0.00574939,0.00311717,0.00786829,0.00116365,0.97379,0.00490388,0.0115911,972,1660,4.37729,-33.6237
-245,-636,4.38281,34.0688,0.00441764,0.00640219,0.00334446,0.00889847,0.00192136,0.929608,0.00540688,0.0102119,979,1660,4.38281,-34.0689
-238,-636,4.39178,34.4998,0.00524569,0.00699856,0.00351091,0.00974077,0.00250347,0.907714,0.00584101,0.0119801,986,1660,4.39178,-34.4998
-231,-636,4.39752,34.9094,0.00622711,0.00710496,0.00370803,0.0103999,0.00293212,0.84431,0.00619183,0.0115737,993,1660,4.39753,-34.9094
-224,-636,4.40021,35.3184,0.00673799,0.00689538,0.0042409,0.0110583,0.00257506,0.794675,0.00668136,0.00970376,1000,1660,4.40021,-35.3184
-217,-636,4.37787,35.7789,0.00637722,0.00615321,0.00467128,0.0109378,0.00159259,0.773412,0.00682327,0.0186062,1007,1660,4.37785,-35.779
-210,-636,4.39569,36.1813,0.00617291,0.00549919,0.00485202,0.0106998,0.000972352,0.75074,0.00683215,0.0331151,1014,1660,4.39568,-36.1813
-203,-636,4.41418,36.7314,0.00593091,0.00467374,0.00513751,0.0104781,0.000126507,0.724525,0.00694365,0.0372924,1021,1660,4.4142,-36.7314
-196,-636,4.60168,36.9681,0.00517527,0.00320046,0.00529758,0.00957668,-0.00120095,0.693261,0.00682011,0.0359939,1028,1660,4.60164,-36.9681
-189,-636,4.59473,37.2368,0.00400402,0.000852924,0.00540269,0.00805621,-0.00319927,0.643521,0.00669699,0.0326121,1035,1660,4.5947,-37.2368
-182,-636,4.79016,37.5375,0.00293679,-0.000626715,0.00616014,0.00756768,-0.00525761,0.644621,0.00744461,0.0450558,1042,1660,4.79012,-37.5374
-175,-636,5.33667,37.8575,0.00139051,-0.00137601,0.00704246,0.00718427,-0.00716977,0.688424,0.00828732,0.0490565,1049,1660,5.33671,-37.8576
-168,-636,4.84216,38.1906,0.000447163,-0.00121745,0.00798922,0.00764731,-0.0084176,0.733496,0.00927863,0.0460057,1056,1660,4.84211,-38.1906
-161,-636,4.27063,38.8218,0,0,0,0,0,0,0,-1,1063,1660,4.27066,-38.8218
-154,-636,6.10632,37.8668,0,0,0,0,0,0,0,-1,1070,1660,6.10634,-37.8668
-147,-636,4.32129,31.4845,0,0,0,0,0,0,0,-1,1077,1660,4.32127,-31.4845
-140,-636,3.4729,27.1271,0,0,0,0,0,0,0,-1,1084,1660,3.47287,-27.1271
-133,-636,4.68311,18.0922,0,0,0,0,0,0,0,-1,1091,1660,4.68316,-18.0921
-126,-636,3.79028,18.2225,0,0,0,0,0,0,0,-1,1098,1660,3.79025,-18.2226
-119,-636,1.8667,13.8916,0,0,0,0,0,0,0,-1,1105,1660,1.86668,-13.8916
-112,-636,-1.24963,9.7998,0,0,0,0,0,0,0,-1,1112,1660,-1.24968,-9.79978
-105,-636,3.51624,4.72791,0,0,0,0,0,0,0,-1,1119,1660,3.51618,-4.7279
-98,-636,1.54504,5.11914,0,0,0,0,0,0,0,-1,1126,1660,1.54503,-5.11912
-91,-636,-1.87964,-2.25012,0,0,0,0,0,0,0,-1,1133,1660,-1.87966,2.25016
-84,-636,-2.84143,0.133667,0,0,0,0,0,0,0,-1,1140,1660,-2.84144,-0.133701
-77,-636,-3.57349,2.45935,0,0,0,0,0,0,0,-1,1147,1660,-3.57345,-2.45939
-70,-636,-4.23682,4.82312,0,0,0,0,0,0,0,-1,1154,1660,-4.23681,-4.82307
-63,-636,-2.21033,6.97168,0,0,0,0,0,0,0,-1,1161,1660,-2.21034,-6.97165
-56,-636,-2.51917,8.80359,0,0,0,0,0,0,0,-1,1168,1660,-2.51916,-8.80361
-49,-636,-3.13,10.4113,0,0,0,0,0,0,0,-1,1175,1660,-3.12996,-10.4112
-42,-636,-2.27771,4.90173,0,0,0,0,0,0,0,-1,1182,1660,-2.27775,-4.90173
-35,-636,-2.27698,5.89685,0,0,0,0,0,0,0,-1,1189,1660,-2.27695,-5.89686
-28,-636,-1.70654,4.83936,0,0,0,0,0,0,0,-1,1196,1660,-1.70656,-4.8393
-21,-636,4.24683,27.7834,0,0,0,0,0,0,0,-1,1203,1660,4.24687,-27.7835
-14,-636,3.43628,43.1117,0,0,0,0,0,0,0,-1,1210,1660,3.43629,-43.1117
-7,-636,4.34399,43.0748,0,0,0,0,0,0,0,-1,1217,1660,4.34395,-43.0749
0,-636,8.55017,42.6051,0,0,0,0,0,0,0,-1,1224,1660,8.55015,-42.6051
7,-636,7.73792,51.4534,0.154293,0.155169,0.140809,0.295541,0.0139215,0.786954,0.192554,0.0467794,1231,1660,7.73792,-51.4534
14,-636,8.31396,52.1675,0.15064,0.162729,0.117934,0.274773,0.0385958,0.811002,0.171769,0.0443038,1238,1660,8.31398,-52.1675
21,-636,9.14465,52.6128,0.146311,0.163386,0.0925287,0.24777,0.0619269,0.831404,0.148894,0.046466,1245,1660,9.1446,-52.6127
28,-636,9.92065,52.9742,0.14121,0.170628,0.0672339,0.224743,0.0870948,0.893089,0.130845,0.0474542,1252,1660,9.92067,-52.9743
35,-636,10.8794,53.4613,0,0,0,0,0,0,0,-1,1259,1660,10.8794,-53.4613
42,-636,11.8724,53.9447,0,0,0,0,0,0,0,-1,1266,1660,11.8724,-53.9446
49,-636,9.85938,53.059,0.122436,0.181045,-0.00355131,0.181259,0.122222,-1.5105,0.106748,0.0498572,1273,1660,9.85938,-53.059
56,-636,10.8533,53.1504,0.113026,0.185975,-0.0262036,0.194412,0.104589,-1.25931,0.112352,0.0480345,1280,1660,10.8533,-53.1504
63,-636,11.6246,52.9376,0.104652,0.184481,-0.0454706,0.20507,0.0840624,-1.14561,0.119036,0.047242,1287,1660,11.6247,-52.9376
70,-636,12.6117,52.8549,0.0959086,0.186448,-0.0594191,0.215878,0.0664792,-1.11093,0.127665,0.0467383,1294,1660,12.6117,-52.8549
77,-636,13.5962,52.8795,0,0,0,0,0,0,0,-1,1301,1660,13.5961,-52.8795
84,-636,12.1809,53.012,0,0,0,0,0,0,0,-1,1308,1660,12.181,-53.012
91,-636,12.4464,53.0714,0,0,0,0,0,0,0,-1,1315,1660,12.4464,-53.0714
98,-636,13.0924,52.6638,0,0,0,0,0,0,0,-1,1322,1660,13.0923,-52.6639
105,-636,13.5337,52.5938,0,0,0,0,0,0,0,-1,1329,1660,13.5337,-52.5938
112,-636,7.45569,46.5249,0,0,0,0,0,0,0,-1,1336,1660,7.45564,-46.5249
119,-636,5.90918,46.3513,0,0,0,0,0,0,0,-1,1343,1660,5.90914,-46.3513
126,-636,4.896,47.318,0,0,0,0,0,0,0,-1,1350,1660,4.89598,-47.318
133,-636,3.89307,48.2704,0,0,0,0,0,0,0,-1,1357,1660,3.89304,-48.2704
140,-636,3.00146,49.0588,0,0,0,0,0,0,0,-1,1364,1660,3.00152,-49.0589
147,-636,2.2655,49.9382,0,0,0,0,0,0,0,-1,1371,1660,2.26548,-49.9383
154,-636,1.45361,50.7744,0,0,0,0,0,0,0,-1,1378,1660,1.45361,-50.7745
161,-636,10.2961,7.13025,0,0,0,0,0,0,0,-1,1385,1660,10.2961,-7.13021
168,-636,11.7659,5.83899,0,0,0,0,0,0,0,-1,1392,1660,11.7658,-5.83899
175,-636,5.94592,-1.72888,0,0,0,0,0,0,0,-1,1399,1660,5.94598,1.72886
182,-636,5.93994,-1.11938,0,0,0,0,0,0,0,-1,1406,1660,5.93998,1.11936
189,-636,5.32544,11.9595,0,0,0,0,0,0,0,-1,1413,1660,5.32542,-11.9595
196,-636,5.3623,9.38025,0,0,0,0,0,0,0,-1,1420,1660,5.36225,-9.38027
203,-636,5.18542,9.02429,0,0,0,0,0,0,0,-1,1427,1660,5.18547,-9.0243
210,-636,4.09167,7.17041,0,0,0,0,0,0,0,-1,1434,1660,4.09173,-7.17041
217,-636,2.94897,5.28992,0,0,0,0,0,0,0,-1,1441,1660,2.94899,-5.28991
224,-636,1.49194,3.63916,0,0,0,0,0,0,0,-1,1448,1660,1.49197,-3.63918
231,-636,0.17749,2.24854,0,0,0,0,0,0,0,-1,1455,1660,0.177501,-2.24855
238,-636,-0.764648,1.00598,0,0,0,0,0,0,0,-1,1462,1660,-0.764704,-1.00595
245,-636,6.21204,1.18005,0,0,0,0,0,0,0,-1,1469,1660,6.21206,-1.18001
252,-636,7.70251,0.865723,0,0,0,0,0,0,0,-1,1476,1660,7.7025,-0.865692
259,-636,9.03601,0.787231,0,0,0,0,0,0,0,-1,1483,1660,9.03598,-0.787243
266,-636,10.1071,3.24109,0,0,0,0,0,0,0,-1,1490,1660,10.1071,-3.24103
273,-636,8.48535,5.02466,0,0,0,0,0,0,0,-1,1497,1660,8.48533,-5.02472
280,-636,11.908,32.0698,0,0,0,0,0,0,0,-1,1504,1660,11.9079,-32.0698
287,-636,12.1218,36.4158,0,0,0,0,0,0,0,-1,1511,1660,12.1218,-36.4158
294,-636,12.568,38.5645,0,0,0,0,0,0,0,-1,1518,1660,12.568,-38.5645
301,-636,12.3976,38.71,0,0,0,0,0,0,0,-1,1525,1660,12.3975,-38.71
308,-636,12.3595,38.6804,0,0,0,0,0,0,0,-1,1532,1660,12.3595,-38.6805
315,-636,12.3641,38.2472,0,0,0,0,0,0,0,-1,1539,1660,12.3641,-38.2472
322,-636,12.559,37.5342,0,0,0,0,0,0,0,-1,1546,1660,12.559,-37.5341
329,-636,12.49,37.0997,0.00913866,0.0130906,-0.004242,0.0157943,0.006435,-1.00336,0.00917078,0.0360842,1553,1660,12.49,-37.0997
336,-636,12.4806,36.7375,0.00840847,0.015166,-0.00496709,0.0177945,0.0057799,-1.08406,0.0104818,0.0249835,1560,1660,12.4806,-36.7376
343,-636,12.4309,36.4459,0.00770172,0.0149469,-0.00565017,0.018036,0.00461256,-1.07046,0.0108194,0.0203663,1567,1660,12.4309,-36.4459
350,-636,12.4177,36.0039,0.00724941,0.014406,-0.0059701,0.017788,0.00386735,-1.05537,0.0108028,0.0123476,1574,1660,12.4177,-36.0039
357,-636,12.4783,35.5618,0.00678227,0.0131372,-0.00572379,0.0165064,0.00341314,-1.03879,0.0100614,0.0110075,1581,1660,12.4783,-35.5618
364,-636,12.4718,35.1818,0.00612129,0.0115759,-0.00514372,0.0146706,0.00302656,-1.02916,0.0089439,0.0111539,1588,1660,12.4718,-35.1817
371,-636,12.455,34.8059,0.00532374,0.0099048,-0.00440924,0.012583,0.00264557,-1.02495,0.0076606,0.00994708,1595,1660,12.455,-34.8059
378,-636,12.4845,34.4003,0.00445799,0.00826863,-0.00361436,0.0104491,0.00227749,-1.02796,0.00634467,0.0101746,1602,1660,12.4844,-34.4003
385,-636,12.4871,33.9791,0.0036273,0.00649578,-0.00284248,0.00824536,0.00187771,-1.01905,0.00499019,0.0146998,1609,1660,12.4871,-33.9791
392,-636,12.4634,33.5692,0.00274167,0.00467626,-0.00207264,0.00599621,0.00142172,-1.00372,0.00361791,0.015802,1616,1660,12.4633,-33.5692
399,-636,12.4482,33.181,0.00179332,0.00289116,-0.00129325,0.00374717,0.000937313,-0.986101,0.00225167,0.0118871,1623,1660,12.4483,-33.181
406,-636,12.45,32.7729,0.00108622,0.00152578,-0.000703286,0.00204283,0.000569173,-0.936842,0.00121735,0.0135896,1630,1660,12.4499,-32.773
413,-636,12.4301,32.3516,0.000731079,0.000370787,-0.000278245,0.000882404,0.000219462,-0.498112,0.00053047,0.0211295,1637,1660,12.43,-32.3515
420,-636,12.4116,31.9172,0.000476656,-0.000534313,-4.04006e-05,0.000478268,-0.000535925,-0.0398775,0.00058586,0.0219996,1644,1660,12.4116,-31.9173
427,-636,12.426,31.4585,0.000458409,-0.00138893,8.04115e-05,0.000461902,-0.00139243,0.0434188,0.00111462,0.0140359,1651,1660,12.426,-31.4585
434,-636,12.4041,31.0328,0.00062832,-0.00190691,7.42539e-05,0.000630492,-0.00190909,0.0292553,0.00152691,0.0124104,1658,1660,12.404,-31.0328
441,-636,12.4092,30.6012,0.0010275,-0.0022495,-3.33996e-05,0.00102784,-0.00224984,-0.0101907,0.00193571,0.0127504,1665,1660,12.4092,-30.6011
448,-636,12.4083,30.1498,0.00150318,-0.00266433,-5.66371e-05,0.00150395,-0.0026651,-0.0135868,0.00243792,0.0152901,1672,1660,12.4083,-30.1498
455,-636,12.3369,29.7065,0.00215952,-0.002917,2.73263e-05,0.00215967,-0.00291714,0.00538268,0.00294195,0.0158445,1679,1660,12.337,-29.7066
462,-636,12.3608,29.2571,0.002929,-0.00337653,0.000248361,0.00293877,-0.0033863,0.0393066,0.00365482,0.0202225,1686,1660,12.3608,-29.2571
469,-636,12.3545,28.7614,0.00359249,-0.00405361,0.000475385,0.00362193,-0.00408306,0.061856,0.00445113,0.0349475,1693,1660,12.3545,-28.7614
476,-636,12.5725,28.5437,0,0,0,0,0,0,0,-1,1700,1660,12.5725,-28.5437
483,-636,11.3833,24.3958,0,0,0,0,0,0,0,-1,1707,1660,11.3833,-24.3957
490,-636,10.8951,23.9569,0,0,0,0,0,0,0,-1,1714,1660,10.8951,-23.9569
497,-636,9.55579,18.0111,0,0,0,0,0,0,0,-1,1721,1660,9.55574,-18.0111
504,-636,6.26428,19.4268,0,0,0,0,0,0,0,-1,1728,1660,6.26433,-19.4268
511,-636,5.65466,9.23218,0,0,0,0,0,0,0,-1,1735,1660,5.65461,-9.23216
518,-636,6.72791,1.07605,0,0,0,0,0,0,0,-1,1742,1660,6.7279,-1.0761
525,-636,7.04309,0.93335,0,0,0,0,0,0,0,-1,1749,1660,7.04308,-0.933298
532,-636,0,0,0,0,0,0,0,0,0,-1,1756,1660,0,0
539,-636,0,0,0,0,0,0,0,0,0,-1,1763,1660,0,0
546,-636,0,0,0,0,0,0,0,0,0,-1,1770,1660,0,0
553,-636,0,0,0,0,0,0,0,0,0,-1,1777,1660,0,0
560,-636,0,0,0,0,0,0,0,0,0,-1,1784,1660,0,0
567,-636,0,0,0,0,0,0,0,0,0,-1,1791,1660,0,0
574,-636,0,0,0,0,0,0,0,0,0,-1,1798,1660,0,0
581,-636,0,0,0,0,0,0,0,0,0,-1,1805,1660,0,0
588,-636,0,0,0,0,0,0,0,0,0,-1,1812,1660,0,0
595,-636,0,0,0,0,0,0,0,0,0,-1,1819,1660,0,0
602,-636,0,0,0,0,0,0,0,0,0,-1,1826,1660,0,0
609,-636,0,0,0,0,0,0,0,0,0,-1,1833,1660,0,0
616,-636,0,0,0,0,0,0,0,0,0,-1,1840,1660,0,0
623,-636,0,0,0,0,0,0,0,0,0,-1,1847,1660,0,0
630,-636,0,0,0,0,0,0,0,0,0,-1,1854,1660,0,0
637,-636,0,0,0,0,0,0,0,0,0,-1,1861,1660,0,0
644,-636,0,0,0,0,0,0,0,0,0,-1,1868,1660,0,0
651,-636,0,0,0,0,0,0,0,0,0,-1,1875,1660,0,0
658,-636,0,0,0,0,0,0,0,0,0,-1,1882,1660,0,0
665,-636,0,0,0,0,0,0,0,0,0,-1,1889,1660,0,0
672,-636,0,0,0,0,0,0,0,0,0,-1,1896,1660,0,0
679,-636,0,0,0,0,0,0,0,0,0,-1,1903,1660,0,0
686,-636,0,0,0,0,0,0,0,0,0,-1,1910,1660,0,0
693,-636,0,0,0,0,0,0,0,0,0,-1,1917,1660,0,0
700,-636,0,0,0,0,0,0,0,0,0,-1,1924,1660,0,0
707,-636,0,0,0,0,0,0,0,0,0,-1,1931,1660,0,0
714,-636,0,0,0,0,0,0,0,0,0,-1,1938,1660,0,0
721,-636,0,0,0,0,0,0,0,0,0,-1,1945,1660,0,0
728,-636,0,0,0,0,0,0,0,0,0,-1,1952,1660,0,0
735,-636,0,0,0,0,0,0,0,0,0,-1,1959,1660,0,0
742,-636,0,0,0,0,0,0,0,0,0,-1,1966,1660,0,0
749,-636,0,0,0,0,0,0,0,0,0,-1,1973,1660,0,0
756,-636,0,0,0,0,0,0,0,0,0,-1,1980,1660,0,0
763,-636,0,0,0,0,0,0,0,0,0,-1,1987,1660,0,0
770,-636,0,0,0,0,0,0,0,0,0,-1,1994,1660,0,0
777,-636,0,0,0,0,0,0,0,0,0,-1,2001,1660,0,0
784,-636,0,0,0,0,0,0,0,0,0,-1,2008,1660,0,0
791,-636,0,0,0,0,0,0,0,0,0,-1,2015,1660,0,0
798,-636,0,0,0,0,0,0,0,0,0,-1,2022,1660,0,0
805,-636,0,0,0,0,0,0,0,0,0,-1,2029,1660,0,0
812,-636,0,0,0,0,0,0,0,0,0,-1,2036,1660,0,0
-700,-643,0,0,0,0,0,0,0,0,0,-1,524,1667,0,0
-693,-643,0,0,0,0,0,0,0,0,0,-1,531,1667,0,0
-686,-643,0,0,0,0,0,0,0,0,0,-1,538,1667,0,0
-679,-643,0,0,0,0,0,0,0,0,0,-1,545,1667,0,0
-672,-643,0,0,0,0,0,0,0,0,0,-1,552,1667,0,0
-665,-643,0,0,0,0,0,0,0,0,0,-1,559,1667,0,0
-658,-643,0,0,0,0,0,0,0,0,0,-1,566,1667,0,0
-651,-643,0,0,0,0,0,0,0,0,0,-1,573,1667,0,0
-644,-643,0,0,0,0,0,0,0,0,0,-1,580,1667,0,0
-637,-643,0,0,0,0,0,0,0,0,0,-1,587,1667,0,0
-630,-643,0,0,0,0,0,0,0,0,0,-1,594,1667,0,0
-623,-643,0,0,0,0,0,0,0,0,0,-1,601,1667,0,0
-616,-643,0,0,0,0,0,0,0,0,0,-1,608,1667,0,0
-609,-643,0,0,0,0,0,0,0,0,0,-1,615,1667,0,0
-602,-643,0,0,0,0,0,0,0,0,0,-1,622,1667,0,0
-595,-643,0,0,0,0,0,0,0,0,0,-1,629,1667,0,0
-588,-643,0,0,0,0,0,0,0,0,0,-1,636,1667,0,0
-581,-643,0,0,0,0,0,0,0,0,0,-1,643,1667,0,0
-574,-643,0,0,0,0,0,0,0,0,0,-1,650,1667,0,0
-567,-643,0,0,0,0,0,0,0,0,0,-1,657,1667,0,0
-560,-643,0,0,0,0,0,0,0,0,0,-1,664,1667,0,0
-553,-643,0,0,0,0,0,0,0,0,0,-1,671,1667,0,0
-546,-643,0,0,0,0,0,0,0,0,0,-1,678,1667,0,0
-539,-643,0,0,0,0,0,0,0,0,0,-1,685,1667,0,0
-532,-643,0,0,0,0,0,0,0,0,0,-1,692,1667,0,0
-525,-643,0,0,0,0,0,0,0,0,0,-1,699,1667,0,0
-518,-643,0,0,0,0,0,0,0,0,0,-1,706,1667,0,0
-511,-643,0,0,0,0,0,0,0,0,0,-1,713,1667,0,0
-504,-643,0,0,0,0,0,0,0,0,0,-1,720,1667,0,0
-497,-643,0,0,0,0,0,0,0,0,0,-1,727,1667,0,0
-490,-643,0,0,0,0,0,0,0,0,0,-1,734,1667,0,0
-483,-643,0,0,0,0,0,0,0,0,0,-1,741,1667,0,0
-476,-643,0,0,0,0,0,0,0,0,0,-1,748,1667,0,0
-469,-643,0,0,0,0,0,0,0,0,0,-1,755,1667,0,0
-462,-643,0,0,0,0,0,0,0,0,0,-1,762,1667,0,0
-455,-643,0,0,0,0,0,0,0,0,0,-1,769,1667,0,0
-448,-643,0,0,0,0,0,0,0,0,0,-1,776,1667,0,0
-441,-643,0,0,0,0,0,0,0,0,0,-1,783,1667,0,0
-434,-643,0,0,0,0,0,0,0,0,0,-1,790,1667,0,0
-427,-643,0,0,0,0,0,0,0,0,0,-1,797,1667,0,0
-420,-643,0,0,0,0,0,0,0,0,0,-1,804,1667,0,0
-413,-643,0,0,0,0,0,0,0,0,0,-1,811,1667,0,0
-406,-643,0,0,0,0,0,0,0,0,0,-1,818,1667,0,0
-399,-643,0.589417,11.6465,0,0,0,0,0,0,0,-1,825,1667,0.58939,-11.6465
-392,-643,0.865295,12.6523,0,0,0,0,0,0,0,-1,832,1667,0.865315,-12.6523
-385,-643,1.72968,13.2692,0,0,0,0,0,0,0,-1,839,1667,1.72967,-13.2692
-378,-643,2.66522,13.8193,0,0,0,0,0,0,0,-1,846,1667,2.66524,-13.8193
-371,-643,0.466125,3.35095,0,0,0,0,0,0,0,-1,853,1667,0.466148,-3.351
-364,-643,1.69513,9.922,0,0,0,0,0,0,0,-1,860,1667,1.69511,-9.92205
-357,-643,1.14227,10.8429,0,0,0,0,0,0,0,-1,867,1667,1.14228,-10.8429
-350,-643,2.50061,9.96948,0,0,0,0,0,0,0,-1,874,1667,2.50059,-9.96954
-343,-643,4.82129,27.7598,0,0,0,0,0,0,0,-1,881,1667,4.82131,-27.7598
-336,-643,4.48846,27.9254,0,0,0,0,0,0,0,-1,888,1667,4.48845,-27.9254
-329,-643,4.64294,28.3931,-0.00702456,0.00902145,0.0100298,0.0138423,-0.0118455,1.12274,0.0148458,0.0409683,895,1667,4.64297,-28.3931
-322,-643,4.87183,29.0303,-0.00834926,0.0085726,0.00902815,0.0124848,-0.0122615,1.16189,0.0142875,0.0282747,902,1667,4.8718,-29.0302
-315,-643,4.8902,29.5288,-0.00939079,0.00776306,0.00785725,0.010818,-0.0124457,1.19998,0.0134423,0.0181654,909,1667,4.89018,-29.5288
-308,-643,4.94116,30.0027,-0.00976996,0.00676765,0.00661849,0.00909024,-0.0120925,1.2333,0.0122708,0.0133447,916,1667,4.94113,-30.0027
-301,-643,4.94781,30.4873,-0.00954297,0.00580679,0.00543155,0.00753433,-0.0112705,1.26286,0.0109282,0.0145611,923,1667,4.94784,-30.4873
-294,-643,4.91107,30.9613,-0.00864876,0.00509805,0.00451585,0.00644879,-0.0099995,1.28016,0.0095699,0.0127777,930,1667,4.9111,-30.9613
-287,-643,4.88947,31.4313,-0.00741697,0.00466334,0.00384078,0.00578105,-0.00853468,1.28761,0.008316,0.0114069,937,1667,4.88949,-31.4312
-280,-643,4.86591,31.887,-0.00589903,0.00420049,0.0032461,0.00515383,-0.00685237,1.28514,0.00695487,0.01464,944,1667,4.86588,-31.8869
-273,-643,4.83417,32.3203,-0.00426504,0.00395188,0.0027529,0.00478891,-0.00510207,1.27562,0.00571152,0.0122156,951,1667,4.83416,-32.3204
-266,-643,4.81488,32.7582,-0.00255823,0.00393651,0.00245121,0.00475778,-0.0033795,1.2475,0.00472047,0.0123977,958,1667,4.8149,-32.7582
-259,-643,4.82336,33.1998,-0.000798361,0.00411024,0.00239101,0.00508238,-0.0017705,1.18463,0.00410765,0.0126316,965,1667,4.82334,-33.1999
-252,-643,4.82599,33.6487,0.000750528,0.00444712,0.00237994,0.00561217,-0.000414529,1.11556,0.003887,0.0133905,972,1667,4.82598,-33.6487
-245,-643,4.79968,34.0822,0.00223636,0.0047061,0.00240013,0.0061704,0.000772065,1.02299,0.00388192,0.011518,979,1667,4.79966,-34.0821
-238,-643,4.82928,34.5024,0.00332707,0.00503147,0.00241995,0.00674489,0.00161365,0.954696,0.00406686,0.0151701,986,1667,4.82931,-34.5025
-231,-643,4.80829,34.9418,0.00426882,0.00510916,0.0025286,0.00725226,0.00212572,0.867729,0.00430492,0.0115139,993,1667,4.80827,-34.9418
-224,-643,4.80499,35.3159,0.00482323,0.00482781,0.00289426,0.00771978,0.00193126,0.785794,0.00463877,0.0100256,1000,1667,4.80502,-35.316
-217,-643,4.79187,35.6798,0.00465155,0.00419148,0.00320039,0.00763016,0.00121287,0.749521,0.00473456,0.00954303,1007,1667,4.79187,-35.6798
-210,-643,4.80469,36.1115,0.00461867,0.00365726,0.00329963,0.00747243,0.000803498,0.713065,0.00473656,0.0124556,1014,1667,4.8047,-36.1114
-203,-643,4.80774,36.5867,0.00457645,0.00304906,0.0034971,0.00739227,0.000233239,0.677896,0.0048523,0.0169766,1021,1667,4.80776,-36.5867
-196,-643,4.80627,36.9684,0.00418304,0.00210629,0.00365529,0.00694458,-0.000655254,0.647006,0.00486287,0.0168548,1028,1667,4.80625,-36.9684
-189,-643,4.91394,37.2915,0.00351984,0.00085217,0.00384339,0.00625427,-0.00188226,0.618378,0.00491849,0.0156633,1035,1667,4.914,-37.2915
-182,-643,4.97595,37.6731,0.00284972,0.000174533,0.00437392,0.00608601,-0.00306175,0.637008,0.00537681,0.0225483,1042,1667,4.97596,-37.673
-175,-643,5.14648,38.0555,0.00189898,-7.24025e-05,0.00497326,0.00598329,-0.00415672,0.687567,0.00588591,0.0352499,1049,1667,5.14645,-38.0555
-168,-643,4.9126,38.4381,0.0015984,0.000547532,0.00562448,0.00672193,-0.004576,0.738824,0.00656197,0.0400466,1056,1667,4.91262,-38.4382
-161,-643,4.69409,38.8002,0.00118811,0.00137933,0.0062749,0.00755935,-0.00499191,0.793016,0.00729683,0.0435309,1063,1667,4.69415,-38.8002
-154,-643,4.94824,39.3243,0,0,0,0,0,0,0,-1,1070,1667,4.9482,-39.3244
-147,-643,5.9364,38.2205,0,0,0,0,0,0,0,-1,1077,1667,5.93634,-38.2205
-140,-643,4.30322,22.9166,0,0,0,0,0,0,0,-1,1084,1667,4.30327,-22.9167
-133,-643,3.66748,21.6034,0,0,0,0,0,0,0,-1,1091,1667,3.66743,-21.6034
-126,-643,3.13904,17.689,0,0,0,0,0,0,0,-1,1098,1667,3.13909,-17.689
-119,-643,3.76282,14.1458,0,0,0,0,0,0,0,-1,1105,1667,3.76283,-14.1458
-112,-643,3.81458,16.2069,0,0,0,0,0,0,0,-1,1112,1667,3.81463,-16.2069
-105,-643,-2.23413,10.0996,0,0,0,0,0,0,0,-1,1119,1667,-2.23415,-10.0996
-98,-643,3.11035,4.68066,0,0,0,0,0,0,0,-1,1126,1667,3.11041,-4.68071
-91,-643,-1.74146,-2.5885,0,0,0,0,0,0,0,-1,1133,1667,-1.74146,2.58856
-84,-643,-3.07446,-0.199341,0,0,0,0,0,0,0,-1,1140,1667,-3.07449,0.199383
-77,-643,-3.63794,2.81165,0,0,0,0,0,0,0,-1,1147,1667,-3.63791,-2.8117
-70,-643,-3.36938,4.45203,0,0,0,0,0,0,0,-1,1154,1667,-3.36941,-4.452
-63,-643,-3.67822,6.26855,0,0,0,0,0,0,0,-1,1161,1667,-3.67823,-6.26856
-56,-643,-3.95142,8.1073,0,0,0,0,0,0,0,-1,1168,1667,-3.95139,-8.10732
-49,-643,-4.23535,9.90552,0,0,0,0,0,0,0,-1,1175,1667,-4.23537,-9.90557
-42,-643,-4.25195,10.7059,0,0,0,0,0,0,0,-1,1182,1667,-4.25192,-10.706
-35,-643,-4.10986,11.6588,0,0,0,0,0,0,0,-1,1189,1667,-4.10982,-11.6589
-28,-643,-1.38513,5.604,0,0,0,0,0,0,0,-1,1196,1667,-1.3851,-5.60403
-21,-643,1.61011,23.1276,0,0,0,0,0,0,0,-1,1203,1667,1.61011,-23.1275
-14,-643,4.11682,43.7566,0,0,0,0,0,0,0,-1,1210,1667,4.11685,-43.7567
-7,-643,9.36011,42.042,0,0,0,0,0,0,0,-1,1217,1667,9.36009,-42.042
0,-643,9.17664,42.7836,0.129345,0.112318,0.143243,0.264327,-0.0226641,0.755715,0.184238,0.0435281,1224,1667,9.17666,-42.7835
7,-643,7.87805,50.5063,0.126327,0.133728,0.128433,0.258514,0.00154102,0.7998,0.171831,0.0422478,1231,1667,7.878,-50.5064
14,-643,8.45044,50.8519,0.124829,0.145975,0.109397,0.245309,0.0254953,0.833572,0.155738,0.0423497,1238,1667,8.45048,-50.8519
21,-643,8.92517,51.2656,0.122149,0.154365,0.0868694,0.226608,0.0499071,0.877071,0.137489,0.0425936,1245,1667,8.9252,-51.2656
28,-643,9.20068,49.04,0,0,0,0,0,0,0,-1,1252,1667,9.20074,-49.04
35,-643,10.7694,52.1884,0,0,0,0,0,0,0,-1,1259,1667,10.7694,-52.1884
42,-643,9.83862,51.8519,0,0,0,0,0,0,0,-1,1266,1667,9.83858,-51.8519
49,-643,10.2948,51.9437,0,0,0,0,0,0,0,-1,1273,1667,10.2948,-51.9437
56,-643,11.274,52.1993,0,0,0,0,0,0,0,-1,1280,1667,11.2741,-52.1993
63,-643,12.6935,52.2427,0.0868234,0.198971,-0.0346756,0.208827,0.076968,-1.29388,0.121947,0.045697,1287,1667,12.6935,-52.2427
70,-643,12.9686,52.5553,0.0793186,0.200233,-0.0475647,0.216701,0.0628507,-1.23749,0.128737,0.0459538,1294,1667,12.9686,-52.5553
77,-643,13.0815,52.7771,0.0716902,0.195361,-0.0561763,0.217068,0.0499828,-1.20206,0.131263,0.0454958,1301,1667,13.0815,-52.7772
84,-643,13.1525,52.7983,0,0,0,0,0,0,0,-1,1308,1667,13.1524,-52.7983
91,-643,13.0649,52.959,0,0,0,0,0,0,0,-1,1315,1667,13.065,-52.959
98,-643,14.7734,52.0508,0,0,0,0,0,0,0,-1,1322,1667,14.7734,-52.0507
105,-643,15.1862,51.9247,0,0,0,0,0,0,0,-1,1329,1667,15.1861,-51.9247
112,-643,6.48767,45.983,0,0,0,0,0,0,0,-1,1336,1667,6.48762,-45.983
119,-643,6.59546,46.0856,0,0,0,0,0,0,0,-1,1343,1667,6.59549,-46.0855
126,-643,5.97046,46.8611,0,0,0,0,0,0,0,-1,1350,1667,5.97052,-46.8611
133,-643,5.41138,47.6335,0,0,0,0,0,0,0,-1,1357,1667,5.41139,-47.6336
140,-643,4.40601,48.6918,0,0,0,0,0,0,0,-1,1364,1667,4.40605,-48.6917
147,-643,3.27393,49.5568,0,0,0,0,0,0,0,-1,1371,1667,3.27388,-49.5568
154,-643,2.42419,50.2106,0,0,0,0,0,0,0,-1,1378,1667,2.42423,-50.2106
161,-643,5.57935,26.2754,0,0,0,0,0,0,0,-1,1385,1667,5.57931,-26.2754
168,-643,10.5563,10.9818,0,0,0,0,0,0,0,-1,1392,1667,10.5562,-10.9819
175,-643,5.88525,-1.1698,0,0,0,0,0,0,0,-1,1399,1667,5.88526,1.16977
182,-643,5.80945,-0.418701,0,0,0,0,0,0,0,-1,1406,1667,5.80949,0.418712
189,-643,5.42297,12.9208,0,0,0,0,0,0,0,-1,1413,1667,5.42298,-12.9208
196,-643,5.51953,11.2415,0,0,0,0,0,0,0,-1,1420,1667,5.51948,-11.2414
203,-643,5.60828,9.82153,0,0,0,0,0,0,0,-1,1427,1667,5.60833,-9.82148
210,-643,4.73218,7.58728,0,0,0,0,0,0,0,-1,1434,1667,4.73222,-7.58728
217,-643,3.8031,5.28955,0,0,0,0,0,0,0,-1,1441,1667,3.80305,-5.28955
224,-643,2.96436,2.97095,0,0,0,0,0,0,0,-1,1448,1667,2.96432,-2.97095
231,-643,2.13403,1.08472,0,0,0,0,0,0,0,-1,1455,1667,2.13403,-1.08467
238,-643,1.18152,-0.261963,0,0,0,0,0,0,0,-1,1462,1667,1.18152,0.26192
245,-643,-0.157471,-1.79016,0,0,0,0,0,0,0,-1,1469,1667,-0.157517,1.7901
252,-643,8.08789,0.0202637,0,0,0,0,0,0,0,-1,1476,1667,8.08791,-0.0203056
259,-643,9.02979,-0.46936,0,0,0,0,0,0,0,-1,1483,1667,9.02974,0.46933
266,-643,4.55066,5.17554,0,0,0,0,0,0,0,-1,1490,1667,4.55063,-5.17556
273,-643,10.74,31.432,0,0,0,0,0,0,0,-1,1497,1667,10.7399,-31.4319
280,-643,11.291,37.8925,0,0,0,0,0,0,0,-1,1504,1667,11.291,-37.8925
287,-643,11.8859,38.7958,0,0,0,0,0,0,0,-1,1511,1667,11.8859,-38.7958
294,-643,12.0389,38.7438,0.0101309,-0.00883601,0.0052915,0.0115073,-0.0102124,0.254471,0.0125473,0.0463608,1518,1667,12.0389,-38.7438
301,-643,12.0034,38.6858,0.00867452,-0.00378513,0.00406785,0.00988499,-0.0049956,0.289228,0.00874454,0.0405903,1525,1667,12.0034,-38.6858
308,-643,12.0023,38.3746,0.00772059,0.000678423,0.00231135,0.00841143,-1.24238e-05,0.290442,0.00561177,0.0393244,1532,1667,12.0023,-38.3747
315,-643,11.9877,37.9395,0.00699748,0.00383001,0.000811807,0.00719342,0.00363407,0.236834,0.0041532,0.0326649,1539,1667,11.9877,-37.9394
322,-643,12.0598,37.3699,0.00690185,0.00709156,-0.00100051,0.0080017,0.00599171,-0.832661,0.00480666,0.0216085,1546,1667,12.0598,-37.3699
329,-643,12.0645,37.0234,0.00673772,0.00886936,-0.00237816,0.0104096,0.00519747,-0.996064,0.00600999,0.0157165,1553,1667,12.0644,-37.0234
336,-643,12.0027,36.7358,0.00620189,0.0105984,-0.00300239,0.0121213,0.00467904,-1.10139,0.00705856,0.0132307,1560,1667,12.0027,-36.7359
343,-643,12.0253,36.3888,0.00556567,0.0105037,-0.00372543,0.012504,0.00356536,-1.07804,0.00743806,0.0130873,1567,1667,12.0253,-36.3888
350,-643,12.0624,35.9564,0.00517166,0.0100772,-0.00412652,0.0124249,0.002824,-1.05354,0.0075208,0.0125407,1574,1667,12.0624,-35.9564
357,-643,12.0698,35.5692,0.00491759,0.00906255,-0.00406818,0.0115557,0.00242441,-1.02098,0.00703631,0.0110778,1581,1667,12.0698,-35.5692
364,-643,12.0646,35.1945,0.00458464,0.00782459,-0.0037112,0.010254,0.00215526,-0.991188,0.00624283,0.00998164,1588,1667,12.0646,-35.1945
371,-643,12.061,34.824,0.00417294,0.00649747,-0.00319239,0.00873259,0.00193782,-0.959977,0.00529533,0.008447,1595,1667,12.0611,-34.8239
378,-643,12.067,34.4318,0.00370544,0.00509091,-0.00259838,0.00708731,0.00170904,-0.91567,0.00427074,0.0102926,1602,1667,12.067,-34.4317
385,-643,12.0786,34.016,0.00324184,0.00359039,-0.00199793,0.00542163,0.0014106,-0.828902,0.00324798,0.0158844,1609,1667,12.0786,-34.016
392,-643,12.0514,33.6006,0.00266558,0.00200278,-0.00138168,0.00375505,0.000913316,-0.667694,0.00226127,0.0165126,1616,1667,12.0514,-33.6006
399,-643,12.025,33.2194,0.00195447,0.00045894,-0.000754497,0.00226898,0.000144434,-0.39494,0.00146688,0.0137266,1623,1667,12.025,-33.2194
406,-643,12.0342,32.7904,0.00143057,-0.00070888,-0.000262881,0.00146239,-0.000740707,-0.120486,0.00129451,0.0127469,1630,1667,12.0342,-32.7904
413,-643,12.0267,32.3665,0.00123901,-0.00162643,5.24973e-05,0.00123997,-0.0016274,0.0183127,0.0016605,0.0183427,1637,1667,12.0267,-32.3664
420,-643,11.9857,31.9402,0.00103657,-0.00234918,0.000234587,0.00105275,-0.00236535,0.068848,0.00202136,0.0178131,1644,1667,11.9857,-31.9402
427,-643,11.9865,31.4996,0.00108772,-0.00291925,0.00027086,0.00110594,-0.00293747,0.0671898,0.00241298,0.0150604,1651,1667,11.9865,-31.4996
434,-643,11.9862,31.0656,0.00127938,-0.00321397,0.000235479,0.00129169,-0.00322628,0.0522155,0.00268698,0.0163967,1658,1667,11.9862,-31.0655
441,-643,11.9736,30.6176,0.00168646,-0.00340388,0.000162231,0.00169162,-0.00340904,0.0318273,0.003,0.0161897,1665,1667,11.9737,-30.6176
448,-643,11.891,30.1488,0.00202269,-0.00366738,0.000131131,0.00202571,-0.0036704,0.0230294,0.00333403,0.0201952,1672,1667,11.891,-30.1488
455,-643,11.8071,29.6299,0.00266074,-0.00355142,0.000329963,0.00267822,-0.0035689,0.0529172,0.00361897,0.02785,1679,1667,11.8071,-29.6299
462,-643,11.9485,29.1577,0.00394199,-0.00381569,0.000641239,0.00399464,-0.00386834,0.0819177,0.00453989,0.041783,1686,1667,11.9485,-29.1577
469,-643,11.9333,28.8202,0,0,0,0,0,0,0,-1,1693,1667,11.9334,-28.8202
476,-643,10.5598,24.5066,0,0,0,0,0,0,0,-1,1700,1667,10.5598,-24.5065
483,-643,10.4502,24.3062,0,0,0,0,0,0,0,-1,1707,1667,10.4502,-24.3062
490,-643,10.6885,24.1522,0,0,0,0,0,0,0,-1,1714,1667,10.6884,-24.1522
497,-643,10.9073,23.9465,0,0,0,0,0,0,0,-1,1721,1667,10.9074,-23.9465
504,-643,8.05591,19.0656,0,0,0,0,0,0,0,-1,1728,1667,8.0559,-19.0655
511,-643,7.74719,18.1564,0,0,0,0,0,0,0,-1,1735,1667,7.74724,-18.1563
518,-643,7.40564,0.922607,0,0,0,0,0,0,0,-1,1742,1667,7.4057,-0.922598
525,-643,0,0,0,0,0,0,0,0,0,-1,1749,1667,0,0
532,-643,0,0,0,0,0,0,0,0,0,-1,1756,1667,0,0
539,-643,0,0,0,0,0,0,0,0,0,-1,1763,1667,0,0
546,-643,0,0,0,0,0,0,0,0,0,-1,1770,1667,0,0
553,-643,0,0,0,0,0,0,0,0,0,-1,1777,1667,0,0
560,-643,0,0,0,0,0,0,0,0,0,-1,1784,1667,0,0
567,-643,0,0,0,0,0,0,0,0,0,-1,1791,1667,0,0
574,-643,0,0,0,0,0,0,0,0,0,-1,1798,1667,0,0
581,-643,0,0,0,0,0,0,0,0,0,-1,1805,1667,0,0
588,-643,0,0,0,0,0,0,0,0,0,-1,1812,1667,0,0
595,-643,0,0,0,0,0,0,0,0,0,-1,1819,1667,0,0
602,-643,0,0,0,0,0,0,0,0,0,-1,1826,1667,0,0
609,-643,0,0,0,0,0,0,0,0,0,-1,1833,1667,0,0
616,-643,0,0,0,0,0,0,0,0,0,-1,1840,1667,0,0
623,-643,0,0,0,0,0,0,0,0,0,-1,1847,1667,0,0
630,-643,0,0,0,0,0,0,0,0,0,-1,1854,1667,0,0
637,-643,0,0,0,0,0,0,0,0,0,-1,1861,1667,0,0
644,-643,0,0,0,0,0,0,0,0,0,-1,1868,1667,0,0
651,-643,0,0,0,0,0,0,0,0,0,-1,1875,1667,0,0
658,-643,0,0,0,0,0,0,0,0,0,-1,1882,1667,0,0
665,-643,0,0,0,0,0,0,0,0,0,-1,1889,1667,0,0
672,-643,0,0,0,0,0,0,0,0,0,-1,1896,1667,0,0
679,-643,0,0,0,0,0,0,0,0,0,-1,1903,1667,0,0
686,-643,0,0,0,0,0,0,0,0,0,-1,1910,1667,0,0
693,-643,0,0,0,0,0,0,0,0,0,-1,1917,1667,0,0
700,-643,0,0,0,0,0,0,0,0,0,-1,1924,1667,0,0
707,-643,0,0,0,0,0,0,0,0,0,-1,1931,1667,0,0
714,-643,0,0,0,0,0,0,0,0,0,-1,1938,1667,0,0
721,-643,0,0,0,0,0,0,0,0,0,-1,1945,1667,0,0
728,-643,0,0,0,0,0,0,0,0,0,-1,1952,1667,0,0
735,-643,0,0,0,0,0,0,0,0,0,-1,1959,1667,0,0
742,-643,0,0,0,0,0,0,0,0,0,-1,1966,1667,0,0
749,-643,0,0,0,0,0,0,0,0,0,-1,1973,1667,0,0
756,-643,0,0,0,0,0,0,0,0,0,-1,1980,1667,0,0
763,-643,0,0,0,0,0,0,0,0,0,-1,1987,1667,0,0
770,-643,0,0,0,0,0,0,0,0,0,-1,1994,1667,0,0
777,-643,0,0,0,0,0,0,0,0,0,-1,2001,1667,0,0
784,-643,0,0,0,0,0,0,0,0,0,-1,2008,1667,0,0
791,-643,0,0,0,0,0,0,0,0,0,-1,2015,1667,0,0
798,-643,0,0,0,0,0,0,0,0,0,-1,2022,1667,0,0
805,-643,0,0,0,0,0,0,0,0,0,-1,2029,1667,0,0
812,-643,0,0,0,0,0,0,0,0,0,-1,2036,1667,0,0
-700,-650,0,0,0,0,0,0,0,0,0,-1,524,1674,0,0
-693,-650,0,0,0,0,0,0,0,0,0,-1,531,1674,0,0
-686,-650,0,0,0,0,0,0,0,0,0,-1,538,1674,0,0
-679,-650,0,0,0,0,0,0,0,0,0,-1,545,1674,0,0
-672,-650,0,0,0,0,0,0,0,0,0,-1,552,1674,0,0
-665,-650,0,0,0,0,0,0,0,0,0,-1,559,1674,0,0
-658,-650,0,0,0,0,0,0,0,0,0,-1,566,1674,0,0
-651,-650,0,0,0,0,0,0,0,0,0,-1,573,1674,0,0
-644,-650,0,0,0,0,0,0,0,0,0,-1,580,1674,0,0
-637,-650,0,0,0,0,0,0,0,0,0,-1,587,1674,0,0
-630,-650,0,0,0,0,0,0,0,0,0,-1,594,1674,0,0
-623,-650,0,0,0,0,0,0,0,0,0,-1,601,1674,0,0
-616,-650,0,0,0,0,0,0,0,0,0,-1,608,1674,0,0
-609,-650,0,0,0,0,0,0,0,0,0,-1,615,1674,0,0
-602,-650,0,0,0,0,0,0,0,0,0,-1,622,1674,0,0
-595,-650,0,0,0,0,0,0,0,0,0,-1,629,1674,0,0
-588,-650,0,0,0,0,0,0,0,0,0,-1,636,1674,0,0
-581,-650,0,0,0,0,0,0,0,0,0,-1,643,1674,0,0
-574,-650,0,0,0,0,0,0,0,0,0,-1,650,1674,0,0
-567,-650,0,0,0,0,0,0,0,0,0,-1,657,1674,0,0
-560,-650,0,0,0,0,0,0,0,0,0,-1,664,1674,0,0
-553,-650,0,0,0,0,0,0,0,0,0,-1,671,1674,0,0
-546,-650,0,0,0,0,0,0,0,0,0,-1,678,1674,0,0
-539,-650,0,0,0,0,0,0,0,0,0,-1,685,1674,0,0
-532,-650,0,0,0,0,0,0,0,0,0,-1,692,1674,0,0
-525,-650,0,0,0,0,0,0,0,0,0,-1,699,1674,0,0
-518,-650,0,0,0,0,0,0,0,0,0,-1,706,1674,0,0
-511,-650,0,0,0,0,0,0,0,0,0,-1,713,1674,0,0
-504,-650,0,0,0,0,0,0,0,0,0,-1,720,1674,0,0
-497,-650,0,0,0,0,0,0,0,0,0,-1,727,1674,0,0
-490,-650,0,0,0,0,0,0,0,0,0,-1,734,1674,0,0
-483,-650,0,0,0,0,0,0,0,0,0,-1,741,1674,0,0
-476,-650,0,0,0,0,0,0,0,0,0,-1,748,1674,0,0
-469,-650,0,0,0,0,0,0,0,0,0,-1,755,1674,0,0
-462,-650,0,0,0,0,0,0,0,0,0,-1,762,1674,0,0
-455,-650,0,0,0,0,0,0,0,0,0,-1,769,1674,0,0
-448,-650,0,0,0,0,0,0,0,0,0,-1,776,1674,0,0
-441,-650,0,0,0,0,0,0,0,0,0,-1,783,1674,0,0
-434,-650,0,0,0,0,0,0,0,0,0,-1,790,1674,0,0
-427,-650,0,0,0,0,0,0,0,0,0,-1,797,1674,0,0
-420,-650,0,0,0,0,0,0,0,0,0,-1,804,1674,0,0
-413,-650,0,0,0,0,0,0,0,0,0,-1,811,1674,0,0
-406,-650,0,0,0,0,0,0,0,0,0,-1,818,1674,0,0
-399,-650,0,0,0,0,0,0,0,0,0,-1,825,1674,0,0
-392,-650,5.44415,6.85669,0,0,0,0,0,0,0,-1,832,1674,5.44414,-6.85674
-385,-650,1.74451,14.0183,0,0,0,0,0,0,0,-1,839,1674,1.74453,-14.0183
-378,-650,0.997986,4.11108,0,0,0,0,0,0,0,-1,846,1674,0.998006,-4.11113
-371,-650,-1.80096,3.78625,0,0,0,0,0,0,0,-1,853,1674,-1.80094,-3.78625
-364,-650,-2.95679,2.57507,0,0,0,0,0,0,0,-1,860,1674,-2.95681,-2.57506
-357,-650,1.97833,10.8362,0,0,0,0,0,0,0,-1,867,1674,1.97835,-10.8362
-350,-650,-5.30243,0.159912,0,0,0,0,0,0,0,-1,874,1674,-5.30244,-0.159866
-343,-650,-6.21338,-1.4425,0,0,0,0,0,0,0,-1,881,1674,-6.21341,1.44248
-336,-650,4.74084,25.8169,0,0,0,0,0,0,0,-1,888,1674,4.74087,-25.8168
-329,-650,4.77728,28.2604,0,0,0,0,0,0,0,-1,895,1674,4.77729,-28.2603
-322,-650,5.02295,28.9268,-0.0154519,0.0121952,0.0122244,0.016825,-0.0200817,1.20876,0.0213357,0.0476069,902,1674,5.02293,-28.9268
-315,-650,5.26208,29.4404,-0.016589,0.01093,0.0106139,0.014548,-0.020207,1.24227,0.0201543,0.0410752,909,1674,5.26206,-29.4405
-308,-650,5.39551,29.8649,-0.016738,0.00939446,0.00890502,0.0121404,-0.0194839,1.27169,0.0184217,0.0254626,916,1674,5.39551,-29.8649
-301,-650,5.40399,30.515,-0.0160812,0.00785939,0.00725603,0.00988688,-0.0181087,1.29832,0.016394,0.0145719,923,1674,5.40399,-30.515
-294,-650,5.34387,30.9678,-0.0145966,0.00660388,0.0058993,0.00813487,-0.0161276,1.31688,0.014259,0.0116867,930,1674,5.34385,-30.9678
-287,-650,5.33844,31.4377,-0.0127104,0.00566499,0.00485784,0.0068702,-0.0139156,1.32761,0.0122283,0.0131033,937,1674,5.33846,-31.4377
-280,-650,5.31757,31.891,-0.0105355,0.00474525,0.00390623,0.00568589,-0.0114762,1.33449,0.0100948,0.0146778,944,1674,5.31758,-31.891
-273,-650,5.28589,32.3558,-0.00828516,0.00422246,0.00310784,0.00495212,-0.00901482,1.34019,0.00817674,0.0146061,951,1674,5.28586,-32.3559
-266,-650,5.23706,32.788,-0.00604199,0.00392148,0.00254987,0.00453613,-0.00665664,1.33426,0.00650069,0.0124728,958,1674,5.23706,-32.7879
-259,-650,5.25391,33.2141,-0.00382028,0.00381119,0.00226663,0.00443364,-0.00444273,1.30279,0.00512477,0.0151331,965,1674,5.25389,-33.2141
-252,-650,5.25323,33.6586,-0.00190942,0.00386641,0.0020651,0.0045288,-0.00257182,1.26041,0.00415112,0.0136572,972,1674,5.25326,-33.6586
-245,-650,5.23389,34.0806,8.02022e-05,0.00381788,0.0018993,0.0046136,-0.000715522,1.17406,0.00333989,0.0128142,979,1674,5.23389,-34.0805
-238,-650,5.21051,34.5254,0.00154148,0.00394152,0.00181022,0.00491336,0.00056965,1.0781,0.00310316,0.0132304,986,1674,5.21048,-34.5254
-231,-650,5.18011,34.9757,0.00251093,0.00405354,0.00185103,0.00528753,0.00127694,0.982804,0.00318585,0.0179733,993,1674,5.18012,-34.9757
-224,-650,5.17981,35.3646,0.00314361,0.0037561,0.00208639,0.0055586,0.00134111,0.858269,0.00334942,0.0153977,1000,1674,5.17982,-35.3647
-217,-650,5.19482,35.7089,0.00314073,0.00320256,0.00228576,0.00545761,0.000885675,0.79216,0.00338206,0.0106812,1007,1674,5.1948,-35.7089
-210,-650,5.21539,36.1089,0.0032535,0.00273452,0.00231049,0.00531903,0.000668991,0.729478,0.0033454,0.00962978,1014,1674,5.21538,-36.1089
-203,-650,5.23938,36.5128,0.00335834,0.00225101,0.00242193,0.00528909,0.000320263,0.673027,0.0034243,0.0144558,1021,1674,5.23936,-36.5128
-196,-650,5.22803,36.8918,0.00321494,0.00159425,0.00252345,0.00505497,-0.000245777,0.630036,0.00345482,0.0132924,1028,1674,5.22807,-36.8918
-189,-650,5.23523,37.2491,0.00290645,0.000837001,0.00264634,0.00471317,-0.000969709,0.599035,0.00351028,0.0105659,1035,1674,5.23523,-37.2492
-182,-650,5.29272,37.6553,0.00256316,0.000570931,0.00296291,0.00469292,-0.00155883,0.623237,0.00375759,0.0108124,1042,1674,5.29267,-37.6553
-175,-650,5.30347,37.9761,0.00207494,0.000588759,0.00335063,0.00476389,-0.00210019,0.676276,0.00406123,0.0169354,1049,1674,5.30348,-37.976
-168,-650,5.26501,38.3262,0.00216666,0.00142485,0.00385025,0.00566383,-0.00207232,0.73738,0.00462413,0.0213957,1056,1674,5.26507,-38.3262
-161,-650,5.23584,38.7592,0.0021358,0.00236097,0.00434637,0.00659622,-0.00209944,0.798347,0.00523943,0.0291326,1063,1674,5.23581,-38.7592
-154,-650,5.33728,39.1497,0.00244599,0.00367719,0.00473102,0.00783249,-0.00170931,0.850095,0.00587491,0.0362502,1070,1674,5.33726,-39.1496
-147,-650,5.4823,39.5687,0,0,0,0,0,0,0,-1,1077,1674,5.48233,-39.5688
-140,-650,4.9696,36.0964,0,0,0,0,0,0,0,-1,1084,1674,4.96957,-36.0964
-133,-650,4.69751,37.2125,0,0,0,0,0,0,0,-1,1091,1674,4.69756,-37.2125
-126,-650,4.56946,39.0813,0,0,0,0,0,0,0,-1,1098,1674,4.5695,-39.0813
-119,-650,5.16663,20.6232,0,0,0,0,0,0,0,-1,1105,1674,5.16665,-20.6232
-112,-650,3.86292,14.4513,0,0,0,0,0,0,0,-1,1112,1674,3.8629,-14.4513
-105,-650,7.92102,38.1313,0,0,0,0,0,0,0,-1,1119,1674,7.92104,-38.1314
-98,-650,3.3761,6.78003,0,0,0,0,0,0,0,-1,1126,1674,3.37611,-6.78009
-91,-650,3.66809,7.04443,0,0,0,0,0,0,0,-1,1133,1674,3.66806,-7.04439
-84,-650,-3.82666,-1.59521,0,0,0,0,0,0,0,-1,1140,1674,-3.82661,1.59517
-77,-650,-4.70557,1.90198,0,0,0,0,0,0,0,-1,1147,1674,-4.7056,-1.90194
-70,-650,-4.88171,3.81653,0,0,0,0,0,0,0,-1,1154,1674,-4.88176,-3.81651
-63,-650,-5.14612,5.56543,0,0,0,0,0,0,0,-1,1161,1674,-5.14612,-5.56547
-56,-650,-5.38367,7.41101,0,0,0,0,0,0,0,-1,1168,1674,-5.38361,-7.41102
-49,-650,-5.11316,8.23706,0,0,0,0,0,0,0,-1,1175,1674,-5.11317,-8.23708
-42,-650,-4.99487,9.6792,0,0,0,0,0,0,0,-1,1182,1674,-4.99484,-9.67921
-35,-650,-4.77771,11.3369,0,0,0,0,0,0,0,-1,1189,1674,-4.77769,-11.3369
-28,-650,-4.1936,13.1501,0,0,0,0,0,0,0,-1,1196,1674,-4.19358,-13.1501
-21,-650,7.49512,36.2162,0,0,0,0,0,0,0,-1,1203,1674,7.49515,-36.2162
-14,-650,9.0116,41.4067,0,0,0,0,0,0,0,-1,1210,1674,9.01156,-41.4068
-7,-650,9.46741,42.3528,0.107082,0.072727,0.13107,0.222095,-0.0422864,0.720242,0.163987,0.0478913,1217,1674,9.46737,-42.3527
0,-650,9.87292,43.219,0.103183,0.0952091,0.123734,0.222994,-0.0246017,0.769292,0.157505,0.0407116,1224,1674,9.87296,-43.219
7,-650,10.5576,44.146,0.101916,0.114994,0.112714,0.221358,-0.004448,0.814372,0.149077,0.0417073,1231,1674,10.5576,-44.146
14,-650,8.48975,49.699,0.101704,0.129331,0.0976873,0.214176,0.0168582,0.855635,0.13751,0.0413106,1238,1674,8.48974,-49.6989
21,-650,9.10059,49.9128,0,0,0,0,0,0,0,-1,1245,1674,9.10057,-49.9129
28,-650,8.99329,49.1311,0.097618,0.158792,0.0605236,0.196018,0.0603915,1.01937,0.115917,0.0459626,1252,1674,8.99333,-49.1312
35,-650,9.33008,50.646,0.0938169,0.168549,0.0425589,0.187817,0.0745482,1.14566,0.109202,0.0463902,1259,1674,9.3301,-50.646
42,-650,10.0491,50.8779,0,0,0,0,0,0,0,-1,1266,1674,10.0491,-50.878
49,-650,10.7003,50.9683,0.084987,0.187496,0.00804572,0.188124,0.0843593,1.49294,0.108806,0.0456811,1273,1674,10.7004,-50.9683
56,-650,11.88,51.1525,0.0776609,0.196399,-0.00958092,0.197167,0.0768928,-1.4908,0.114749,0.0476982,1280,1674,11.8801,-51.1525
63,-650,12.8621,51.381,0,0,0,0,0,0,0,-1,1287,1674,12.8621,-51.381
70,-650,13.9182,52.3275,0.0649306,0.198579,-0.0369357,0.208107,0.0554022,-1.31833,0.124451,0.0488434,1294,1674,13.9182,-52.3275
77,-650,14.2406,52.9058,0.0588333,0.193585,-0.0442203,0.2068,0.045618,-1.28039,0.125457,0.0483988,1301,1674,14.2406,-52.9057
84,-650,14.2584,52.5879,0,0,0,0,0,0,0,-1,1308,1674,14.2584,-52.5879
91,-650,7.32568,44.4365,0,0,0,0,0,0,0,-1,1315,1674,7.32566,-44.4365
98,-650,16.3438,51.5046,0,0,0,0,0,0,0,-1,1322,1674,16.3438,-51.5046
105,-650,6.99854,45.1705,0,0,0,0,0,0,0,-1,1329,1674,6.99856,-45.1705
112,-650,6.93762,45.5836,0,0,0,0,0,0,0,-1,1336,1674,6.93762,-45.5836
119,-650,6.91797,45.8518,0,0,0,0,0,0,0,-1,1343,1674,6.91798,-45.8518
126,-650,6.81873,46.1387,0,0,0,0,0,0,0,-1,1350,1674,6.81869,-46.1386
133,-650,6.72852,46.4659,0,0,0,0,0,0,0,-1,1357,1674,6.72857,-46.4659
140,-650,6.60437,46.8488,0,0,0,0,0,0,0,-1,1364,1674,6.60436,-46.8488
147,-650,4.08398,49.2408,0,0,0,0,0,0,0,-1,1371,1674,4.08403,-49.2408
154,-650,3.22974,49.8604,0,0,0,0,0,0,0,-1,1378,1674,3.22975,-49.8603
161,-650,4.09106,30.3021,0,0,0,0,0,0,0,-1,1385,1674,4.09104,-30.3021
168,-650,11.2113,7.87231,0,0,0,0,0,0,0,-1,1392,1674,11.2113,-7.87236
175,-650,5.62537,-0.230713,0,0,0,0,0,0,0,-1,1399,1674,5.62538,0.230745
182,-650,5.56006,0.421631,0,0,0,0,0,0,0,-1,1406,1674,5.56,-0.421652
189,-650,4.81543,11.0654,0,0,0,0,0,0,0,-1,1413,1674,4.81542,-11.0654
196,-650,5.39575,11.9077,0,0,0,0,0,0,0,-1,1420,1674,5.39575,-11.9078
203,-650,3.93628,11.8215,0,0,0,0,0,0,0,-1,1427,1674,3.93624,-11.8216
210,-650,5.40955,8.08594,0,0,0,0,0,0,0,-1,1434,1674,5.40958,-8.086
217,-650,5.12451,4.69739,0,0,0,0,0,0,0,-1,1441,1674,5.12451,-4.69738
224,-650,4.79041,1.45813,0,0,0,0,0,0,0,-1,1448,1674,4.79046,-1.45816
231,-650,4.04102,-0.642212,0,0,0,0,0,0,0,-1,1455,1674,4.04101,0.642209
238,-650,3.23022,-1.43396,0,0,0,0,0,0,0,-1,1462,1674,3.23023,1.43394
245,-650,1.65894,-2.55042,0,0,0,0,0,0,0,-1,1469,1674,1.65889,2.55036
252,-650,8.75342,0.355103,0,0,0,0,0,0,0,-1,1476,1674,8.75337,-0.355147
259,-650,5.61255,3.17566,0,0,0,0,0,0,0,-1,1483,1674,5.61257,-3.17572
266,-650,4.00403,6.10229,0,0,0,0,0,0,0,-1,1490,1674,4.00401,-6.10225
273,-650,10.4366,38.2324,0,0,0,0,0,0,0,-1,1497,1674,10.4366,-38.2324
280,-650,10.9186,38.4808,0.0111593,-0.0156901,0.00462393,0.0119333,-0.0164642,0.165854,0.0164647,0.0481987,1504,1674,10.9186,-38.4808
287,-650,11.4526,38.8828,0.00941475,-0.0111859,0.00449965,0.0103547,-0.0121259,0.20593,0.0129926,0.043315,1511,1674,11.4526,-38.8828
294,-650,11.5801,38.8898,0.00806388,-0.00659216,0.00371716,0.00895275,-0.00748103,0.234716,0.00950072,0.0415801,1518,1674,11.5801,-38.8898
301,-650,11.5996,38.5743,0.00694675,-0.00301011,0.00291845,0.00773912,-0.00380248,0.265113,0.00679152,0.0336927,1525,1674,11.5996,-38.5744
308,-650,11.6302,38.1742,0.00612099,0.000139332,0.00180722,0.0066246,-0.00036428,0.271771,0.0045427,0.01812,1532,1674,11.6302,-38.1742
315,-650,11.6343,37.801,0.00545806,0.00242491,0.000827626,0.00566919,0.00221378,0.249776,0.00329917,0.0130789,1539,1674,11.6342,-37.8011
322,-650,11.6342,37.4515,0.00519691,0.00460871,-0.000345166,0.00535628,0.00444934,-0.432555,0.00331022,0.0118838,1546,1674,11.6341,-37.4515
329,-650,11.6512,37.056,0.0049636,0.00583472,-0.00130876,0.00677849,0.00401983,-0.946035,0.00393608,0.0158139,1553,1674,11.6512,-37.0561
336,-650,11.652,36.7197,0.004538,0.00718096,-0.00178145,0.00807756,0.0036414,-1.10451,0.0046711,0.0140925,1560,1674,11.652,-36.7198
343,-650,11.668,36.3588,0.00411568,0.0071477,-0.00241817,0.00848578,0.00277761,-1.06539,0.00499571,0.014016,1567,1674,11.6679,-36.3587
350,-650,11.6899,35.9791,0.00390837,0.00671451,-0.0028384,0.00847768,0.00214519,-1.01494,0.00508972,0.016055,1574,1674,11.6899,-35.9792
357,-650,11.6718,35.5911,0.00378569,0.00581169,-0.00287968,0.00785135,0.00174603,-0.954525,0.00476018,0.0127863,1581,1674,11.6718,-35.5911
364,-650,11.6715,35.2118,0.00363664,0.00472995,-0.00266664,0.00690539,0.0014612,-0.886497,0.00420208,0.00909605,1588,1674,11.6715,-35.2118
371,-650,11.6665,34.818,0.00343455,0.00356917,-0.00230299,0.00580583,0.00119789,-0.800008,0.00353948,0.011792,1595,1674,11.6665,-34.818
378,-650,11.6482,34.4149,0.0031861,0.00226932,-0.00184259,0.00462646,0.000828962,-0.663486,0.00284848,0.0129035,1602,1674,11.6482,-34.4149
385,-650,11.6556,34.01,0.00293112,0.000922194,-0.00136349,0.00362019,0.000233125,-0.467936,0.00233963,0.0141645,1609,1674,11.6556,-34.01
392,-650,11.6519,33.6217,0.00252237,-0.000539645,-0.000845005,0.00274008,-0.000757356,-0.252161,0.00212465,0.0178833,1616,1674,11.6519,-33.6217
399,-650,11.6431,33.2214,0.00195273,-0.00192373,-0.000314303,0.00197805,-0.00194905,-0.0803803,0.00226733,0.0156543,1623,1674,11.6431,-33.2214
406,-650,11.6193,32.799,0.00155194,-0.00295779,0.00013761,0.00155613,-0.00296199,0.0304761,0.0026503,0.0147989,1630,1674,11.6192,-32.799
413,-650,11.6228,32.365,0.00150228,-0.00368011,0.000410327,0.00153457,-0.00371239,0.0785253,0.0031151,0.0152892,1637,1674,11.6228,-32.3649
420,-650,11.589,31.9578,0.00136151,-0.00425133,0.000608677,0.00142676,-0.00431658,0.10679,0.003453,0.0151579,1644,1674,11.5889,-31.9577
427,-650,11.5642,31.5393,0.00151561,-0.00456753,0.000622798,0.00157872,-0.00463064,0.100985,0.00372652,0.0142859,1651,1674,11.5642,-31.5393
434,-650,11.562,31.1088,0.00179527,-0.00466312,0.000605876,0.00185162,-0.00471946,0.0927341,0.0039124,0.0172801,1658,1674,11.562,-31.1088
441,-650,11.5142,30.7023,0.00229116,-0.00470871,0.000595442,0.00234145,-0.004759,0.084258,0.0041779,0.0274118,1665,1674,11.5141,-30.7023
448,-650,11.3301,30.2075,0.00256752,-0.00477509,0.000493002,0.00260047,-0.00480805,0.0667433,0.00434014,0.0415365,1672,1674,11.3301,-30.2075
455,-650,11.2336,29.6191,0.00326271,-0.00425237,0.000783158,0.00334346,-0.00433312,0.102741,0.00444433,0.045134,1679,1674,11.2337,-29.6192
462,-650,11.5449,29.1328,0.00535674,-0.00425154,0.00114963,0.00549238,-0.00438718,0.117442,0.00571585,0.0477929,1686,1674,11.5449,-29.1328
469,-650,12.004,28.7467,0,0,0,0,0,0,0,-1,1693,1674,12.004,-28.7467
476,-650,10.9189,27.1289,0,0,0,0,0,0,0,-1,1700,1674,10.919,-27.1289
483,-650,10.2426,24.5127,0,0,0,0,0,0,0,-1,1707,1674,10.2425,-24.5127
490,-650,10.4818,24.3475,0,0,0,0,0,0,0,-1,1714,1674,10.4818,-24.3475
497,-650,10.4985,20.1362,0,0,0,0,0,0,0,-1,1721,1674,10.4986,-20.1362
504,-650,9.69458,18.7721,0,0,0,0,0,0,0,-1,1728,1674,9.6946,-18.772
511,-650,9.37158,17.7506,0,0,0,0,0,0,0,-1,1735,1674,9.37159,-17.7506
518,-650,0,0,0,0,0,0,0,0,0,-1,1742,1674,0,0
525,-650,0,0,0,0,0,0,0,0,0,-1,1749,1674,0,0
532,-650,0,0,0,0,0,0,0,0,0,-1,1756,1674,0,0
539,-650,0,0,0,0,0,0,0,0,0,-1,1763,1674,0,0
546,-650,0,0,0,0,0,0,0,0,0,-1,1770,1674,0,0
553,-650,0,0,0,0,0,0,0,0,0,-1,1777,1674,0,0
560,-650,0,0,0,0,0,0,0,0,0,-1,1784,1674,0,0
567,-650,0,0,0,0,0,0,0,0,0,-1,1791,1674,0,0
574,-650,0,0,0,0,0,0,0,0,0,-1,1798,1674,0,0
581,-650,0,0,0,0,0,0,0,0,0,-1,1805,1674,0,0
588,-650,0,0,0,0,0,0,0,0,0,-1,1812,1674,0,0
595,-650,0,0,0,0,0,0,0,0,0,-1,1819,1674,0,0
602,-650,0,0,0,0,0,0,0,0,0,-1,1826,1674,0,0
609,-650,0,0,0,0,0,0,0,0,0,-1,1833,1674,0,0
616,-650,0,0,0,0,0,0,0,0,0,-1,1840,1674,0,0
623,-650,0,0,0,0,0,0,0,0,0,-1,1847,1674,0,0
630,-650,0,0,0,0,0,0,0,0,0,-1,1854,1674,0,0
637,-650,0,0,0,0,0,0,0,0,0,-1,1861,1674,0,0
644,-650,0,0,0,0,0,0,0,0,0,-1,1868,1674,0,0
651,-650,0,0,0,0,0,0,0,0,0,-1,1875,1674,0,0
658,-650,0,0,0,0,0,0,0,0,0,-1,1882,1674,0,0
665,-650,0,0,0,0,0,0,0,0,0,-1,1889,1674,0,0
672,-650,0,0,0,0,0,0,0,0,0,-1,1896,1674,0,0
679,-650,0,0,0,0,0,0,0,0,0,-1,1903,1674,0,0
686,-650,0,0,0,0,0,0,0,0,0,-1,1910,1674,0,0
693,-650,0,0,0,0,0,0,0,0,0,-1,1917,1674,0,0
700,-650,0,0,0,0,0,0,0,0,0,-1,1924,1674,0,0
707,-650,0,0,0,0,0,0,0,0,0,-1,1931,1674,0,0
714,-650,0,0,0,0,0,0,0,0,0,-1,1938,1674,0,0
721,-650,0,0,0,0,0,0,0,0,0,-1,1945,1674,0,0
728,-650,0,0,0,0,0,0,0,0,0,-1,1952,1674,0,0
735,-650,0,0,0,0,0,0,0,0,0,-1,1959,1674,0,0
742,-650,0,0,0,0,0,0,0,0,0,-1,1966,1674,0,0
749,-650,0,0,0,0,0,0,0,0,0,-1,1973,1674,0,0
756,-650,0,0,0,0,0,0,0,0,0,-1,1980,1674,0,0
763,-650,0,0,0,0,0,0,0,0,0,-1,1987,1674,0,0
770,-650,0,0,0,0,0,0,0,0,0,-1,1994,1674,0,0
777,-650,0,0,0,0,0,0,0,0,0,-1,2001,1674,0,0
784,-650,0,0,0,0,0,0,0,0,0,-1,2008,1674,0,0
791,-650,0,0,0,0,0,0,0,0,0,-1,2015,1674,0,0
798,-650,0,0,0,0,0,0,0,0,0,-1,2022,1674,0,0
805,-650,0,0,0,0,0,0,0,0,0,-1,2029,1674,0,0
812,-650,0,0,0,0,0,0,0,0,0,-1,2036,1674,0,0
-700,-657,0,0,0,0,0,0,0,0,0,-1,524,1681,0,0
-693,-657,0,0,0,0,0,0,0,0,0,-1,531,1681,0,0
-686,-657,0,0,0,0,0,0,0,0,0,-1,538,1681,0,0
-679,-657,0,0,0,0,0,0,0,0,0,-1,545,1681,0,0
-672,-657,0,0,0,0,0,0,0,0,0,-1,552,1681,0,0
-665,-657,0,0,0,0,0,0,0,0,0,-1,559,1681,0,0
-658,-657,0,0,0,0,0,0,0,0,0,-1,566,1681,0,0
-651,-657,0,0,0,0,0,0,0,0,0,-1,573,1681,0,0
-644,-657,0,0,0,0,0,0,0,0,0,-1,580,1681,0,0
-637,-657,0,0,0,0,0,0,0,0,0,-1,587,1681,0,0
-630,-657,0,0,0,0,0,0,0,0,0,-1,594,1681,0,0
-623,-657,0,0,0,0,0,0,0,0,0,-1,601,1681,0,0
-616,-657,0,0,0,0,0,0,0,0,0,-1,608,1681,0,0
-609,-657,0,0,0,0,0,0,0,0,0,-1,615,1681,0,0
-602,-657,0,0,0,0,0,0,0,0,0,-1,622,1681,0,0
-595,-657,0,0,0,0,0,0,0,0,0,-1,629,1681,0,0
-588,-657,0,0,0,0,0,0,0,0,0,-1,636,1681,0,0
-581,-657,0,0,0,0,0,0,0,0,0,-1,643,1681,0,0
-574,-657,0,0,0,0,0,0,0,0,0,-1,650,1681,0,0
-567,-657,0,0,0,0,0,0,0,0,0,-1,657,1681,0,0
-560,-657,0,0,0,0,0,0,0,0,0,-1,664,1681,0,0
-553,-657,0,0,0,0,0,0,0,0,0,-1,671,1681,0,0
-546,-657,0,0,0,0,0,0,0,0,0,-1,678,1681,0,0
-539,-657,0,0,0,0,0,0,0,0,0,-1,685,1681,0,0
-532,-657,0,0,0,0,0,0,0,0,0,-1,692,1681,0,0
-525,-657,0,0,0,0,0,0,0,0,0,-1,699,1681,0,0
-518,-657,0,0,0,0,0,0,0,0,0,-1,706,1681,0,0
-511,-657,0,0,0,0,0,0,0,0,0,-1,713,1681,0,0
-504,-657,0,0,0,0,0,0,0,0,0,-1,720,1681,0,0
-497,-657,0,0,0,0,0,0,0,0,0,-1,727,1681,0,0
-490,-657,0,0,0,0,0,0,0,0,0,-1,734,1681,0,0
-483,-657,0,0,0,0,0,0,0,0,0,-1,741,1681,0,0
-476,-657,0,0,0,0,0,0,0,0,0,-1,748,1681,0,0
-469,-657,0,0,0,0,0,0,0,0,0,-1,755,1681,0,0
-462,-657,0,0,0,0,0,0,0,0,0,-1,762,1681,0,0
-455,-657,0,0,0,0,0,0,0,0,0,-1,769,1681,0,0
-448,-657,0,0,0,0,0,0,0,0,0,-1,776,1681,0,0
-441,-657,0,0,0,0,0,0,0,0,0,-1,783,1681,0,0
-434,-657,0,0,0,0,0,0,0,0,0,-1,790,1681,0,0
-427,-657,0,0,0,0,0,0,0,0,0,-1,797,1681,0,0
-420,-657,0,0,0,0,0,0,0,0,0,-1,804,1681,0,0
-413,-657,0,0,0,0,0,0,0,0,0,-1,811,1681,0,0
-406,-657,0,0,0,0,0,0,0,0,0,-1,818,1681,0,0
-399,-657,0,0,0,0,0,0,0,0,0,-1,825,1681,0,0
-392,-657,0,0,0,0,0,0,0,0,0,-1,832,1681,0,0
-385,-657,1.09814,6.18896,0,0,0,0,0,0,0,-1,839,1681,1.09814,-6.18894
-378,-657,0.31488,4.46753,0,0,0,0,0,0,0,-1,846,1681,0.31487,-4.46755
-371,-657,-0.519043,2.69421,0,0,0,0,0,0,0,-1,853,1681,-0.519064,-2.69422
-364,-657,-3.42017,4.18323,0,0,0,0,0,0,0,-1,860,1681,-3.42019,-4.18319
-357,-657,-4.41913,2.97168,0,0,0,0,0,0,0,-1,867,1681,-4.41913,-2.97165
-350,-657,-5.42291,1.70276,0,0,0,0,0,0,0,-1,874,1681,-5.42291,-1.70277
-343,-657,-6.51294,0.397339,0,0,0,0,0,0,0,-1,881,1681,-6.51295,-0.397335
-336,-657,3.08527,26.0612,0,0,0,0,0,0,0,-1,888,1681,3.08528,-26.0611
-329,-657,4.77148,28.1678,0,0,0,0,0,0,0,-1,895,1681,4.77148,-28.1678
-322,-657,5.32111,28.801,0,0,0,0,0,0,0,-1,902,1681,5.32113,-28.8011
-315,-657,5.87079,29.4343,0,0,0,0,0,0,0,-1,909,1681,5.87078,-29.4343
-308,-657,5.87292,29.7362,-0.027182,0.0127922,0.0119417,0.0160879,-0.0304777,1.30152,0.0273092,0.041018,916,1681,5.87293,-29.7362
-301,-657,5.84344,30.4707,-0.0255163,0.0106523,0.0097781,0.0131266,-0.0279905,1.32296,0.0242505,0.0314437,923,1681,5.84347,-30.4707
-294,-657,5.74835,31.0612,-0.0228316,0.00887904,0.0079169,0.0107457,-0.0246983,1.33924,0.0209854,0.0206582,930,1681,5.74838,-31.0612
-287,-657,5.73999,31.5029,-0.0197295,0.00733048,0.00638687,0.0087622,-0.0211612,1.35028,0.0177638,0.0137733,937,1681,5.74002,-31.5029
-280,-657,5.72534,31.9109,-0.0164062,0.00587293,0.00497375,0.00693288,-0.0174662,1.36083,0.0145178,0.0146978,944,1681,5.72533,-31.9109
-273,-657,5.7063,32.3739,-0.0131272,0.00501006,0.00378511,0.00576829,-0.0138854,1.37309,0.0116652,0.0110239,951,1681,5.7063,-32.3739
-266,-657,5.66272,32.8105,-0.0100689,0.00440808,0.00294616,0.00498468,-0.0106455,1.37753,0.00921923,0.0155318,958,1681,5.6627,-32.8106
-259,-657,5.65424,33.2218,-0.00719805,0.00395222,0.00242471,0.00445667,-0.0077025,1.36568,0.00710299,0.0185068,965,1681,5.65421,-33.2218
-252,-657,5.63849,33.6429,-0.00479433,0.00367631,0.00201499,0.00413121,-0.00524922,1.34876,0.0054286,0.0131548,972,1681,5.63848,-33.6429
-245,-657,5.64355,34.068,-0.00220079,0.00330603,0.00164841,0.00376176,-0.00265651,1.30107,0.00372386,0.0159117,979,1681,5.64359,-34.068
-238,-657,5.63422,34.4984,-0.000312048,0.00320118,0.00146468,0.0037317,-0.000842566,1.22329,0.00281107,0.020224,986,1681,5.63421,-34.4984
-231,-657,5.60425,34.9698,0.000719213,0.00336575,0.00145416,0.0040086,7.63617e-05,1.15455,0.00264731,0.0220742,993,1681,5.60425,-34.9698
-224,-657,5.59222,35.3929,0.00145268,0.0030857,0.00159356,0.00405976,0.000478621,1.02215,0.00256191,0.0175035,1000,1681,5.59223,-35.393
-217,-657,5.60455,35.7572,0.00161984,0.00263062,0.00172673,0.0039244,0.000326052,0.927765,0.00251464,0.0105789,1007,1681,5.60456,-35.7572
-210,-657,5.61041,36.145,0.001887,0.00223711,0.00171876,0.00378971,0.000334398,0.836148,0.00242271,0.0108932,1014,1681,5.61044,-36.1451
-203,-657,5.6189,36.5481,0.00213983,0.00185941,0.00179224,0.00379733,0.000201907,0.746361,0.00246701,0.0132892,1021,1681,5.61886,-36.548
-196,-657,5.62244,36.9083,0.00222068,0.00140736,0.00186617,0.00372398,-9.59438e-05,0.67812,0.00251525,0.0140859,1028,1681,5.62243,-36.9083
-189,-657,5.62854,37.2595,0.00219956,0.00095718,0.0019301,0.00360597,-0.000449228,0.629711,0.00256686,0.00976774,1035,1681,5.62856,-37.2595
-182,-657,5.63342,37.6359,0.00210952,0.000870881,0.00206725,0.00364822,-0.000667822,0.639859,0.00268261,0.00789249,1042,1681,5.63338,-37.6358
-175,-657,5.64758,37.9878,0.00194844,0.000977798,0.00228352,0.00379765,-0.000871405,0.68069,0.00286673,0.0103509,1049,1681,5.64752,-37.9878
-168,-657,5.62671,38.3425,0.00228517,0.00170515,0.0026121,0.00462331,-0.000632986,0.730111,0.00331341,0.0129449,1056,1681,5.62673,-38.3426
-161,-657,5.64929,38.7271,0.00244454,0.00257409,0.00297674,0.00548676,-0.000468138,0.796277,0.00382345,0.0130637,1063,1681,5.64934,-38.727
-154,-657,5.73718,39.0486,0.00290764,0.00364651,0.00330166,0.00659934,-4.51857e-05,0.841113,0.0044147,0.0156468,1070,1681,5.73721,-39.0486
-147,-657,5.72998,39.4032,0.00380025,0.00492087,0.00361689,0.00802059,0.00070053,0.862245,0.00512952,0.0342803,1077,1681,5.73004,-39.4032
-140,-657,5.81165,39.9495,0,0,0,0,0,0,0,-1,1084,1681,5.8116,-39.9495
-133,-657,5.63196,40.9442,0,0,0,0,0,0,0,-1,1091,1681,5.63199,-40.9442
-126,-657,5.59253,40.3773,0,0,0,0,0,0,0,-1,1098,1681,5.59251,-40.3773
-119,-657,5.78052,41.2823,0,0,0,0,0,0,0,-1,1105,1681,5.78046,-41.2824
-112,-657,6.50195,41.2075,0,0,0,0,0,0,0,-1,1112,1681,6.50199,-41.2075
-105,-657,7.37256,41.0361,0,0,0,0,0,0,0,-1,1119,1681,7.37254,-41.0362
-98,-657,8.14404,38.4435,0,0,0,0,0,0,0,-1,1126,1681,8.14405,-38.4435
-91,-657,3.6521,16.6017,0,0,0,0,0,0,0,-1,1133,1681,3.65215,-16.6017
-84,-657,4.08008,10.4579,0,0,0,0,0,0,0,-1,1140,1681,4.08006,-10.4579
-77,-657,-5.29846,0.396606,0,0,0,0,0,0,0,-1,1147,1681,-5.29842,-0.396573
-70,-657,-4.14893,2.14575,0,0,0,0,0,0,0,-1,1154,1681,-4.14893,-2.1458
-63,-657,-4.1239,3.177,0,0,0,0,0,0,0,-1,1161,1681,-4.12391,-3.17698
-56,-657,-6.40576,5.73987,0,0,0,0,0,0,0,-1,1168,1681,-6.40577,-5.7399
-49,-657,-5.98462,7.54053,0,0,0,0,0,0,0,-1,1175,1681,-5.98466,-7.5405
-42,-657,-5.71948,9.28955,0,0,0,0,0,0,0,-1,1182,1681,-5.71951,-9.2895
-35,-657,-5.44556,11.015,0,0,0,0,0,0,0,-1,1189,1681,-5.44555,-11.015
-28,-657,-1.3446,8.92847,0,0,0,0,0,0,0,-1,1196,1681,-1.34459,-8.92848
-21,-657,8.28564,40.6237,0,0,0,0,0,0,0,-1,1203,1681,8.28569,-40.6237
-14,-657,9.52637,42.0237,0,0,0,0,0,0,0,-1,1210,1681,9.52633,-42.0237
-7,-657,9.59106,42.7189,0,0,0,0,0,0,0,-1,1217,1681,9.59101,-42.7188
0,-657,10.057,43.4568,0,0,0,0,0,0,0,-1,1224,1681,10.0571,-43.4568
7,-657,8.01526,48.1484,0.0808791,0.0979071,0.0960766,0.185846,-0.00706001,0.829591,0.126317,0.0463916,1231,1681,8.01521,-48.1484
14,-657,8.54041,48.5345,0.08144,0.112826,0.0845489,0.183126,0.0111401,0.877159,0.118545,0.0431104,1238,1681,8.54042,-48.5345
21,-657,8.70593,49.0485,0,0,0,0,0,0,0,-1,1245,1681,8.70598,-49.0485
28,-657,8.86121,49.0433,0.0790412,0.145437,0.0541082,0.17572,0.0487583,1.06056,0.104747,0.0444118,1252,1681,8.86123,-49.0433
35,-657,9.39832,49.5764,0.0761109,0.156221,0.039463,0.172395,0.0599367,1.18182,0.101061,0.0406814,1259,1681,9.39836,-49.5765
42,-657,10.0497,50.0363,0,0,0,0,0,0,0,-1,1266,1681,10.0496,-50.0363
49,-657,11.0806,49.9695,0.0690283,0.176056,0.0107344,0.177122,0.0679623,1.47181,0.103179,0.0455712,1273,1681,11.0806,-49.9695
56,-657,12.0367,50.0884,0.0628955,0.184877,-0.00409574,0.185014,0.0627581,-1.53727,0.108644,0.04703,1280,1681,12.0368,-50.0883
63,-657,12.9657,50.2772,0,0,0,0,0,0,0,-1,1287,1681,12.9656,-50.2772
70,-657,14.9076,52.1937,0.0524095,0.186799,-0.0277019,0.192285,0.0469233,-1.37528,0.115764,0.0498379,1294,1681,14.9075,-52.1938
77,-657,8.62781,45.5557,0.047583,0.181855,-0.0337511,0.189862,0.0395766,-1.33788,0.115662,0.0444977,1301,1681,8.62775,-45.5557
84,-657,8.42896,46.722,0.0466092,0.170898,-0.0364966,0.180822,0.0366847,-1.30529,0.110371,0.0442402,1308,1681,8.42891,-46.7221
91,-657,7.90137,45.9122,0,0,0,0,0,0,0,-1,1315,1681,7.90141,-45.9122
98,-657,7.72595,44.3893,0,0,0,0,0,0,0,-1,1322,1681,7.72601,-44.3893
105,-657,7.50598,44.6477,0,0,0,0,0,0,0,-1,1329,1681,7.50603,-44.6477
112,-657,7.60242,44.8333,0,0,0,0,0,0,0,-1,1336,1681,7.60236,-44.8332
119,-657,7.53149,45.1028,0,0,0,0,0,0,0,-1,1343,1681,7.53147,-45.1028
126,-657,7.17908,45.7505,0,0,0,0,0,0,0,-1,1350,1681,7.17903,-45.7505
133,-657,12.7233,41.8104,0,0,0,0,0,0,0,-1,1357,1681,12.7233,-41.8104
140,-657,7.0946,46.6741,0,0,0,0,0,0,0,-1,1364,1681,7.09457,-46.6741
147,-657,4.90796,48.9424,0,0,0,0,0,0,0,-1,1371,1681,4.90791,-48.9424
154,-657,10.5236,41.9224,0,0,0,0,0,0,0,-1,1378,1681,10.5236,-41.9224
161,-657,4.2926,24.9226,0,0,0,0,0,0,0,-1,1385,1681,4.29264,-24.9226
168,-657,5.21643,0.70105,0,0,0,0,0,0,0,-1,1392,1681,5.21648,-0.7011
175,-657,5.52771,0.649048,0,0,0,0,0,0,0,-1,1399,1681,5.52774,-0.649019
182,-657,5.73999,1.02612,0,0,0,0,0,0,0,-1,1406,1681,5.73995,-1.02611
189,-657,5.92126,1.44116,0,0,0,0,0,0,0,-1,1413,1681,5.92126,-1.44115
196,-657,4.92834,9.59021,0,0,0,0,0,0,0,-1,1420,1681,4.9284,-9.59018
203,-657,6.26343,5.16492,0,0,0,0,0,0,0,-1,1427,1681,6.26345,-5.16488
210,-657,3.9856,5.28088,0,0,0,0,0,0,0,-1,1434,1681,3.98555,-5.28084
217,-657,3.95178,5.2843,0,0,0,0,0,0,0,-1,1441,1681,3.95174,-5.28431
224,-657,6.66736,-0.250244,0,0,0,0,0,0,0,-1,1448,1681,6.66737,0.250229
231,-657,6.85498,-1.70752,0,0,0,0,0,0,0,-1,1455,1681,6.855,1.70758
238,-657,5.34143,-2.89819,0,0,0,0,0,0,0,-1,1462,1681,5.34143,2.89813
245,-657,8.66003,-0.102783,0,0,0,0,0,0,0,-1,1469,1681,8.66,0.102824
252,-657,4.78955,0.623779,0,0,0,0,0,0,0,-1,1476,1681,4.7895,-0.623826
259,-657,2.61523,4.31909,0,0,0,0,0,0,0,-1,1483,1681,2.61523,-4.31908
266,-657,5.35437,11.4742,0,0,0,0,0,0,0,-1,1490,1681,5.35441,-11.4742
273,-657,11.8522,39.9437,0,0,0,0,0,0,0,-1,1497,1681,11.8522,-39.9437
280,-657,11.3809,39.6066,0.00851553,-0.0108634,0.00314163,0.00901212,-0.01136,0.156768,0.0117878,0.0417892,1504,1681,11.3809,-39.6065
287,-657,11.0247,39.1477,0.00732513,-0.00807774,0.00309631,0.00792425,-0.00867686,0.191133,0.00958794,0.0355536,1511,1681,11.0246,-39.1477
294,-657,11.1847,38.8054,0.00635621,-0.00501378,0.00256098,0.00690642,-0.00556399,0.211627,0.00721369,0.0308681,1518,1681,11.1847,-38.8055
301,-657,11.2615,38.5052,0.00551075,-0.00247102,0.00200192,0.00598471,-0.00294498,0.232473,0.00525418,0.0215128,1525,1681,11.2614,-38.5053
308,-657,11.2574,38.1581,0.00482967,-0.000265237,0.00129032,0.00513781,-0.000573382,0.234422,0.00363145,0.0137664,1532,1681,11.2574,-38.158
315,-657,11.2639,37.7864,0.00424783,0.00138473,0.000653074,0.00438976,0.0012428,0.213999,0.0026127,0.0114536,1539,1681,11.2639,-37.7864
322,-657,11.2896,37.4182,0.00390623,0.00289886,-9.43725e-05,0.00391499,0.0028901,-0.092609,0.00234427,0.0137469,1546,1681,11.2895,-37.4182
329,-657,11.2903,37.0808,0.00362156,0.003746,-0.000742155,0.00442854,0.00293902,-0.827216,0.00260207,0.0196041,1553,1681,11.2903,-37.0808
336,-657,11.2966,36.7129,0.00326796,0.00476999,-0.00106763,0.00532429,0.00271365,-1.09191,0.00307417,0.0177581,1560,1681,11.2966,-36.7129
343,-657,11.3196,36.3514,0.00301401,0.00470556,-0.00149152,0.00557442,0.00214515,-1.04332,0.00324673,0.0140056,1567,1681,11.3196,-36.3514
350,-657,11.3199,35.9993,0.00297619,0.00419333,-0.00180934,0.00549371,0.00167581,-0.947629,0.00325117,0.0153909,1574,1681,11.32,-35.9992
357,-657,11.3009,35.5983,0.00295849,0.00331095,-0.0018383,0.00498144,0.001288,-0.833184,0.00298572,0.0136189,1581,1681,11.3009,-35.5983
364,-657,11.3031,35.2114,0.00297886,0.00226948,-0.0016602,0.00432184,0.000926505,-0.680158,0.00262742,0.0103188,1588,1681,11.303,-35.2114
371,-657,11.2972,34.8337,0.00299178,0.00114261,-0.00136557,0.00371633,0.000418065,-0.487813,0.00235062,0.0159818,1595,1681,11.2972,-34.8337
378,-657,11.2668,34.4388,0.00298029,-0.000199684,-0.00096611,0.00325079,-0.000470189,-0.273003,0.00233972,0.0160584,1602,1681,11.2669,-34.4388
385,-657,11.2487,34.0271,0.00297092,-0.00151587,-0.000550734,0.00303753,-0.00158248,-0.120365,0.0027111,0.013326,1609,1681,11.2486,-34.0271
392,-657,11.2461,33.629,0.00278034,-0.00299194,-0.000103235,0.00278219,-0.00299379,-0.017877,0.00333551,0.0138872,1616,1681,11.2462,-33.6291
399,-657,11.2552,33.2168,0.00240797,-0.00432848,0.000322604,0.00242338,-0.0043439,0.0477437,0.00395919,0.013692,1623,1681,11.2552,-33.2168
406,-657,11.2355,32.8066,0.00217773,-0.00531152,0.000715112,0.0022454,-0.00537919,0.0943491,0.0045243,0.0152071,1630,1681,11.2354,-32.8067
413,-657,11.222,32.3813,0.00229933,-0.00590914,0.000946878,0.00240714,-0.00601695,0.11337,0.00501028,0.0144609,1637,1681,11.222,-32.3813
420,-657,11.2031,31.9542,0.00224946,-0.00638656,0.00115936,0.00240239,-0.00653949,0.131153,0.00534361,0.0151155,1644,1681,11.2031,-31.9542
427,-657,11.1533,31.5042,0.00253276,-0.00648734,0.00115419,0.0026781,-0.00663268,0.125269,0.00553485,0.0184891,1651,1681,11.1534,-31.5042
434,-657,11.1782,31.0752,0.0029368,-0.0063765,0.00115512,0.00307793,-0.00651763,0.121575,0.0056574,0.0264286,1658,1681,11.1782,-31.0753
441,-657,11.1332,30.8354,0.00356143,-0.00623313,0.00120585,0.00370771,-0.00637941,0.120713,0.0058915,0.0441239,1665,1681,11.1332,-30.8355
448,-657,11.083,30.5729,0,0,0,0,0,0,0,-1,1672,1681,11.083,-30.5729
455,-657,10.6951,29.605,0,0,0,0,0,0,0,-1,1679,1681,10.6951,-29.605
462,-657,10.9337,29.0739,0,0,0,0,0,0,0,-1,1686,1681,10.9337,-29.0739
469,-657,9.22205,26.4175,0,0,0,0,0,0,0,-1,1693,1681,9.2221,-26.4175
476,-657,8.9519,20.5712,0,0,0,0,0,0,0,-1,1700,1681,8.95194,-20.5712
483,-657,10.0663,21.8628,0,0,0,0,0,0,0,-1,1707,1681,10.0663,-21.8628
490,-657,11.6039,21.2185,0,0,0,0,0,0,0,-1,1714,1681,11.6038,-21.2185
497,-657,9.20862,17.8127,0,0,0,0,0,0,0,-1,1721,1681,9.2086,-17.8127
504,-657,0,0,0,0,0,0,0,0,0,-1,1728,1681,0,0
511,-657,0,0,0,0,0,0,0,0,0,-1,1735,1681,0,0
518,-657,0,0,0,0,0,0,0,0,0,-1,1742,1681,0,0
525,-657,0,0,0,0,0,0,0,0,0,-1,1749,1681,0,0
532,-657,0,0,0,0,0,0,0,0,0,-1,1756,1681,0,0
539,-657,0,0,0,0,0,0,0,0,0,-1,1763,1681,0,0
546,-657,0,0,0,0,0,0,0,0,0,-1,1770,1681,0,0
553,-657,0,0,0,0,0,0,0,0,0,-1,1777,1681,0,0
560,-657,0,0,0,0,0,0,0,0,0,-1,1784,1681,0,0
567,-657,0,0,0,0,0,0,0,0,0,-1,1791,1681,0,0
574,-657,0,0,0,0,0,0,0,0,0,-1,1798,1681,0,0
581,-657,0,0,0,0,0,0,0,0,0,-1,1805,1681,0,0
588,-657,0,0,0,0,0,0,0,0,0,-1,1812,1681,0,0
595,-657,0,0,0,0,0,0,0,0,0,-1,1819,1681,0,0
602,-657,0,0,0,0,0,0,0,0,0,-1,1826,1681,0,0
609,-657,0,0,0,0,0,0,0,0,0,-1,1833,1681,0,0
616,-657,0,0,0,0,0,0,0,0,0,-1,1840,1681,0,0
623,-657,0,0,0,0,0,0,0,0,0,-1,1847,1681,0,0
630,-657,0,0,0,0,0,0,0,0,0,-1,1854,1681,0,0
637,-657,0,0,0,0,0,0,0,0,0,-1,1861,1681,0,0
644,-657,0,0,0,0,0,0,0,0,0,-1,1868,1681,0,0
651,-657,0,0,0,0,0,0,0,0,0,-1,1875,1681,0,0
658,-657,0,0,0,0,0,0,0,0,0,-1,1882,1681,0,0
665,-657,0,0,0,0,0,0,0,0,0,-1,1889,1681,0,0
672,-657,0,0,0,0,0,0,0,0,0,-1,1896,1681,0,0
679,-657,0,0,0,0,0,0,0,0,0,-1,1903,1681,0,0
686,-657,0,0,0,0,0,0,0,0,0,-1,1910,1681,0,0
693,-657,0,0,0,0,0,0,0,0,0,-1,1917,1681,0,0
700,-657,0,0,0,0,0,0,0,0,0,-1,1924,1681,0,0
707,-657,0,0,0,0,0,0,0,0,0,-1,1931,1681,0,0
714,-657,0,0,0,0,0,0,0,0,0,-1,1938,1681,0,0
721,-657,0,0,0,0,0,0,0,0,0,-1,1945,1681,0,0
728,-657,0,0,0,0,0,0,0,0,0,-1,1952,1681,0,0
735,-657,0,0,0,0,0,0,0,0,0,-1,1959,1681,0,0
742,-657,0,0,0,0,0,0,0,0,0,-1,1966,1681,0,0
749,-657,0,0,0,0,0,0,0,0,0,-1,1973,1681,0,0
756,-657,0,0,0,0,0,0,0,0,0,-1,1980,1681,0,0
763,-657,0,0,0,0,0,0,0,0,0,-1,1987,1681,0,0
770,-657,0,0,0,0,0,0,0,0,0,-1,1994,1681,0,0
777,-657,0,0,0,0,0,0,0,0,0,-1,2001,1681,0,0
784,-657,0,0,0,0,0,0,0,0,0,-1,2008,1681,0,0
791,-657,0,0,0,0,0,0,0,0,0,-1,2015,1681,0,0
798,-657,0,0,0,0,0,0,0,0,0,-1,2022,1681,0,0
805,-657,0,0,0,0,0,0,0,0,0,-1,2029,1681,0,0
812,-657,0,0,0,0,0,0,0,0,0,-1,2036,1681,0,0
-700,-664,0,0,0,0,0,0,0,0,0,-1,524,1688,0,0
-693,-664,0,0,0,0,0,0,0,0,0,-1,531,1688,0,0
-686,-664,0,0,0,0,0,0,0,0,0,-1,538,1688,0,0
-679,-664,0,0,0,0,0,0,0,0,0,-1,545,1688,0,0
-672,-664,0,0,0,0,0,0,0,0,0,-1,552,1688,0,0
-665,-664,0,0,0,0,0,0,0,0,0,-1,559,1688,0,0
-658,-664,0,0,0,0,0,0,0,0,0,-1,566,1688,0,0
-651,-664,0,0,0,0,0,0,0,0,0,-1,573,1688,0,0
-644,-664,0,0,0,0,0,0,0,0,0,-1,580,1688,0,0
-637,-664,0,0,0,0,0,0,0,0,0,-1,587,1688,0,0
-630,-664,0,0,0,0,0,0,0,0,0,-1,594,1688,0,0
-623,-664,0,0,0,0,0,0,0,0,0,-1,601,1688,0,0
-616,-664,0,0,0,0,0,0,0,0,0,-1,608,1688,0,0
-609,-664,0,0,0,0,0,0,0,0,0,-1,615,1688,0,0
-602,-664,0,0,0,0,0,0,0,0,0,-1,622,1688,0,0
-595,-664,0,0,0,0,0,0,0,0,0,-1,629,1688,0,0
-588,-664,0,0,0,0,0,0,0,0,0,-1,636,1688,0,0
-581,-664,0,0,0,0,0,0,0,0,0,-1,643,1688,0,0
-574,-664,0,0,0,0,0,0,0,0,0,-1,650,1688,0,0
-567,-664,0,0,0,0,0,0,0,0,0,-1,657,1688,0,0
-560,-664,0,0,0,0,0,0,0,0,0,-1,664,1688,0,0
-553,-664,0,0,0,0,0,0,0,0,0,-1,671,1688,0,0
-546,-664,0,0,0,0,0,0,0,0,0,-1,678,1688,0,0
-539,-664,0,0,0,0,0,0,0,0,0,-1,685,1688,0,0
-532,-664,0,0,0,0,0,0,0,0,0,-1,692,1688,0,0
-525,-664,0,0,0,0,0,0,0,0,0,-1,699,1688,0,0
-518,-664,0,0,0,0,0,0,0,0,0,-1,706,1688,0,0
-511,-664,0,0,0,0,0,0,0,0,0,-1,713,1688,0,0
-504,-664,0,0,0,0,0,0,0,0,0,-1,720,1688,0,0
-497,-664,0,0,0,0,0,0,0,0,0,-1,727,1688,0,0
-490,-664,0,0,0,0,0,0,0,0,0,-1,734,1688,0,0
-483,-664,0,0,0,0,0,0,0,0,0,-1,741,1688,0,0
-476,-664,0,0,0,0,0,0,0,0,0,-1,748,1688,0,0
-469,-664,0,0,0,0,0,0,0,0,0,-1,755,1688,0,0
-462,-664,0,0,0,0,0,0,0,0,0,-1,762,1688,0,0
-455,-664,0,0,0,0,0,0,0,0,0,-1,769,1688,0,0
-448,-664,0,0,0,0,0,0,0,0,0,-1,776,1688,0,0
-441,-664,0,0,0,0,0,0,0,0,0,-1,783,1688,0,0
-434,-664,0,0,0,0,0,0,0,0,0,-1,790,1688,0,0
-427,-664,0,0,0,0,0,0,0,0,0,-1,797,1688,0,0
-420,-664,0,0,0,0,0,0,0,0,0,-1,804,1688,0,0
-413,-664,0,0,0,0,0,0,0,0,0,-1,811,1688,0,0
-406,-664,0,0,0,0,0,0,0,0,0,-1,818,1688,0,0
-399,-664,0,0,0,0,0,0,0,0,0,-1,825,1688,0,0
-392,-664,0,0,0,0,0,0,0,0,0,-1,832,1688,0,0
-385,-664,0,0,0,0,0,0,0,0,0,-1,839,1688,0,0
-378,-664,0,0,0,0,0,0,0,0,0,-1,846,1688,0,0
-371,-664,-1.61676,5.92737,0,0,0,0,0,0,0,-1,853,1688,-1.61675,-5.92735
-364,-664,-3.901,5.87024,0,0,0,0,0,0,0,-1,860,1688,-3.90097,-5.87027
-357,-664,-4.81012,4.53479,0,0,0,0,0,0,0,-1,867,1688,-4.81012,-4.5348
-350,-664,-5.7193,3.19934,0,0,0,0,0,0,0,-1,874,1688,-5.71927,-3.19932
-343,-664,2.13544,25.5537,0,0,0,0,0,0,0,-1,881,1688,2.13546,-25.5537
-336,-664,3.50238,26.167,0,0,0,0,0,0,0,-1,888,1688,3.50241,-26.167
-329,-664,4.95923,28.0596,0,0,0,0,0,0,0,-1,895,1688,4.95923,-28.0596
-322,-664,5.8551,28.5238,0,0,0,0,0,0,0,-1,902,1688,5.85508,-28.5238
-315,-664,6.92297,28.9655,0,0,0,0,0,0,0,-1,909,1688,6.92298,-28.9654
-308,-664,6.27008,29.5262,0,0,0,0,0,0,0,-1,916,1688,6.27008,-29.5263
-301,-664,6.27209,30.528,-0.0388491,0.0141155,0.0129777,0.0171245,-0.041858,1.34297,0.0350374,0.0443537,923,1688,6.27213,-30.5279
-294,-664,6.20099,31.1544,-0.0341506,0.0118364,0.0105369,0.0141357,-0.03645,1.35595,0.030138,0.0428938,930,1688,6.201,-31.1544
-287,-664,6.21454,31.5653,-0.0290584,0.00963512,0.00842234,0.0113889,-0.0308121,1.3655,0.0252103,0.0338603,937,1688,6.21451,-31.5653
-280,-664,6.10437,31.9556,-0.0239269,0.00763774,0.00648183,0.00891695,-0.0252061,1.37595,0.0204355,0.0222224,944,1688,6.10439,-31.9556
-273,-664,6.11829,32.3774,-0.0190575,0.00652226,0.00488091,0.00742195,-0.0199572,1.38851,0.0163503,0.0161043,951,1688,6.1183,-32.3775
-266,-664,6.09485,32.8064,-0.0147484,0.00567247,0.00375506,0.00634107,-0.015417,1.39459,0.0129212,0.0212855,958,1688,6.09487,-32.8064
-259,-664,6.05731,33.2383,-0.0109083,0.00492247,0.00299359,0.00546964,-0.0114554,1.39001,0.00997332,0.0169026,965,1688,6.0573,-33.2383
-252,-664,6.06372,33.6592,-0.00778395,0.0043602,0.0023835,0.00481125,-0.008235,1.38377,0.00761822,0.0151398,972,1688,6.06373,-33.6592
-245,-664,6.05359,34.1056,-0.00441119,0.0037058,0.00180821,0.00409039,-0.00479579,1.36123,0.00513582,0.0191212,979,1688,6.05358,-34.1056
-238,-664,6.05237,34.5315,-0.00199962,0.00334976,0.00154535,0.0037641,-0.00241396,1.30884,0.00359518,0.0230324,986,1688,6.05234,-34.5315
-231,-664,6.02979,34.9366,-0.000875858,0.00356124,0.0014805,0.00400987,-0.00132449,1.27657,0.00320724,0.0213233,993,1688,6.02981,-34.9367
-224,-664,6.00958,35.3842,-4.14773e-05,0.00324088,0.00153156,0.00384451,-0.000645102,1.19537,0.0028029,0.0151317,1000,1688,6.00959,-35.3842
-217,-664,6.01666,35.7734,0.000243043,0.00278056,0.0016102,0.0035618,-0.000538196,1.11907,0.00257277,0.0113456,1007,1688,6.01667,-35.7734
-210,-664,6.01147,36.1595,0.000611113,0.00235462,0.00158463,0.00329146,-0.000325726,1.03687,0.00231055,0.0117755,1014,1688,6.01146,-36.1595
-203,-664,5.99658,36.5458,0.000945117,0.00196793,0.00162363,0.00315879,-0.000245742,0.937968,0.00219237,0.0136532,1021,1688,5.99655,-36.5458
-196,-664,5.99219,36.8954,0.00116771,0.00152487,0.00163705,0.00299305,-0.000300472,0.839726,0.00210269,0.0143507,1028,1688,5.99216,-36.8954
-189,-664,5.99426,37.2671,0.00134437,0.00109813,0.0016054,0.00283136,-0.000388864,0.747128,0.00202965,0.0100234,1035,1688,5.99431,-37.267
-182,-664,5.99841,37.6432,0.00145642,0.00104882,0.00161223,0.00287768,-0.000372437,0.722527,0.00205389,0.00948826,1042,1688,5.99841,-37.6432
-175,-664,6.00049,37.967,0.00154011,0.00115054,0.00170357,0.00306,-0.000369346,0.728474,0.0021736,0.0121241,1049,1688,6.00053,-37.967
-168,-664,6.00928,38.2983,0.00203284,0.00171153,0.00189657,0.00377554,-3.11714e-05,0.743144,0.00252748,0.0127664,1056,1688,6.00932,-38.2983
-161,-664,6.00842,38.6554,0.00237085,0.00241789,0.00210003,0.00449453,0.000294205,0.790998,0.00290326,0.0100851,1063,1688,6.00839,-38.6554
-154,-664,6.06921,38.9843,0.00295838,0.00331285,0.00230078,0.00544321,0.000828014,0.823838,0.00338671,0.0113162,1070,1688,6.06918,-38.9843
-147,-664,6.07507,39.3185,0.00386286,0.00433349,0.0025087,0.00661789,0.00157846,0.832161,0.00399121,0.0205496,1077,1688,6.0751,-39.3185
-140,-664,6.07874,39.7062,0.00503997,0.00551444,0.00270269,0.00799029,0.00256412,0.829174,0.00471081,0.0272395,1084,1688,6.07878,-39.7062
-133,-664,6.03601,40.1927,0.00652853,0.00687321,0.0030058,0.0097116,0.00369014,0.814035,0.00566059,0.0280663,1091,1688,6.036,-40.1928
-126,-664,6.17102,40.4192,0,0,0,0,0,0,0,-1,1098,1688,6.17099,-40.4192
-119,-664,6.24451,40.938,0.0103401,0.00965966,0.00281669,0.012837,0.00716271,0.725298,0.00742805,0.0416924,1105,1688,6.24447,-40.938
-112,-664,6.72913,41.1726,0,0,0,0,0,0,0,-1,1112,1688,6.72913,-41.1726
-105,-664,7.35254,41.189,0,0,0,0,0,0,0,-1,1119,1688,7.3525,-41.189
-98,-664,7.69324,41.3359,0,0,0,0,0,0,0,-1,1126,1688,7.69321,-41.3359
-91,-664,5.41931,25.6302,0,0,0,0,0,0,0,-1,1133,1688,5.41932,-25.6302
-84,-664,3.48389,16.6913,0,0,0,0,0,0,0,-1,1140,1688,3.4839,-16.6913
-77,-664,4.52014,11.2122,0,0,0,0,0,0,0,-1,1147,1688,4.5202,-11.2122
-70,-664,4.20374,8.24524,0,0,0,0,0,0,0,-1,1154,1688,4.20379,-8.24519
-63,-664,-4.677,2.40503,0,0,0,0,0,0,0,-1,1161,1688,-4.67702,-2.40498
-56,-664,-4.66504,3.32727,0,0,0,0,0,0,0,-1,1168,1688,-4.6651,-3.32724
-49,-664,-2.54297,3.31848,0,0,0,0,0,0,0,-1,1175,1688,-2.54297,-3.31852
-42,-664,-0.359253,4.38684,0,0,0,0,0,0,0,-1,1182,1688,-0.359261,-4.38685
-35,-664,-0.705566,3.55017,0,0,0,0,0,0,0,-1,1189,1688,-0.705567,-3.55023
-28,-664,-1.54236,10.2538,0,0,0,0,0,0,0,-1,1196,1688,-1.54236,-10.2538
-21,-664,9.0376,42.3876,0,0,0,0,0,0,0,-1,1203,1688,9.03754,-42.3875
-14,-664,9.34863,42.722,0.0644213,0.041476,0.0910835,0.144752,-0.0388545,0.722749,0.111728,0.0432896,1210,1688,9.34861,-42.722
-7,-664,9.59167,43.2797,0.0629521,0.0524294,0.0895157,0.147361,-0.0319795,0.756044,0.110455,0.0448111,1217,1688,9.59169,-43.2796
0,-664,9.65796,43.4777,0.0622885,0.0668629,0.0858359,0.150442,-0.0212907,0.798718,0.108093,0.0490923,1224,1688,9.65797,-43.4776
7,-664,9.71814,43.5974,0,0,0,0,0,0,0,-1,1231,1688,9.71813,-43.5975
14,-664,8.3783,47.3533,0.063995,0.0968146,0.0711714,0.153443,0.00736607,0.898702,0.0999308,0.0473286,1238,1688,8.37831,-47.3533
21,-664,8.60925,47.9226,0.0638885,0.112481,0.0585775,0.151601,0.0247683,0.981984,0.0939063,0.0483514,1245,1688,8.6092,-47.9226
28,-664,8.86877,48.3967,0.0627855,0.129316,0.046935,0.153579,0.0385229,1.09369,0.0922659,0.0447352,1252,1688,8.86881,-48.3967
35,-664,9.37134,49.0719,0.0605659,0.140046,0.035289,0.153453,0.047159,1.20772,0.0907622,0.0453874,1259,1688,9.37132,-49.0719
42,-664,9.84497,49.7867,0,0,0,0,0,0,0,-1,1266,1688,9.84501,-49.7867
49,-664,11.3702,48.9022,0.0550094,0.158999,0.0119334,0.160351,0.0536575,1.45799,0.0942517,0.0447789,1273,1688,11.3703,-48.9022
56,-664,12.1544,48.9783,0.0500188,0.167033,-0.000195078,0.167034,0.0500185,-1.56913,0.0989889,0.0486809,1280,1688,12.1544,-48.9783
63,-664,13.0879,49.2144,0,0,0,0,0,0,0,-1,1287,1688,13.0879,-49.2144
70,-664,8.46704,45.3545,0.0415788,0.168205,-0.0199925,0.171286,0.0384973,-1.41786,0.103767,0.0468736,1294,1688,8.46702,-45.3545
77,-664,8.82153,45.4409,0.0377948,0.163175,-0.0249313,0.167951,0.0330192,-1.38154,0.102745,0.0441018,1301,1688,8.82148,-45.4409
84,-664,8.71912,46.3468,0.0371482,0.153876,-0.0273882,0.159983,0.0310415,-1.35142,0.0979613,0.0450073,1308,1688,8.71915,-46.3468
91,-664,8.07642,45.4924,0.0409875,0.138547,-0.0263923,0.145229,0.0343054,-1.32282,0.0876515,0.047889,1315,1688,8.07636,-45.4925
98,-664,8.23682,45.6086,0,0,0,0,0,0,0,-1,1322,1688,8.23682,-45.6086
105,-664,8.17847,44.9425,0,0,0,0,0,0,0,-1,1329,1688,8.17842,-44.9425
112,-664,7.99097,44.1146,0,0,0,0,0,0,0,-1,1336,1688,7.99102,-44.1146
119,-664,7.84668,44.6355,0,0,0,0,0,0,0,-1,1343,1688,7.84668,-44.6355
126,-664,10.964,42.6226,0,0,0,0,0,0,0,-1,1350,1688,10.964,-42.6225
133,-664,11.9397,42.235,0,0,0,0,0,0,0,-1,1357,1688,11.9397,-42.235
140,-664,12.9154,41.8474,0,0,0,0,0,0,0,-1,1364,1688,12.9154,-41.8474
147,-664,6.97046,40.6996,0,0,0,0,0,0,0,-1,1371,1688,6.97047,-40.6996
154,-664,11.5098,42.1732,0,0,0,0,0,0,0,-1,1378,1688,11.5097,-42.1732
161,-664,4.60132,1.56238,0,0,0,0,0,0,0,-1,1385,1688,4.60134,-1.56233
168,-664,5.172,1.25488,0,0,0,0,0,0,0,-1,1392,1688,5.17203,-1.25484
175,-664,5.58313,1.16467,0,0,0,0,0,0,0,-1,1399,1688,5.58317,-1.16466
182,-664,5.74268,1.41113,0,0,0,0,0,0,0,-1,1406,1688,5.74263,-1.41115
189,-664,5.87744,1.87061,0,0,0,0,0,0,0,-1,1413,1688,5.87745,-1.87065
196,-664,6.7594,5.97473,0,0,0,0,0,0,0,-1,1420,1688,6.75943,-5.97478
203,-664,5.38452,5.22034,0,0,0,0,0,0,0,-1,1427,1688,5.38453,-5.2203
210,-664,5.25549,6.45715,0,0,0,0,0,0,0,-1,1434,1688,5.25549,-6.45721
217,-664,5.72009,6.73975,0,0,0,0,0,0,0,-1,1441,1688,5.72014,-6.73972
224,-664,5.05725,7.42908,0,0,0,0,0,0,0,-1,1448,1688,5.05723,-7.42912
231,-664,5.13318,7.60864,0,0,0,0,0,0,0,-1,1455,1688,5.13313,-7.60862
238,-664,4.23193,6.45471,0,0,0,0,0,0,0,-1,1462,1688,4.23197,-6.45476
245,-664,4.42004,6.80896,0,0,0,0,0,0,0,-1,1469,1688,4.4201,-6.80901
252,-664,3.67346,6.85461,0,0,0,0,0,0,0,-1,1476,1688,3.6734,-6.85462
259,-664,4.55823,11.7435,0,0,0,0,0,0,0,-1,1483,1688,4.55826,-11.7435
266,-664,10.5795,39.6968,0,0,0,0,0,0,0,-1,1490,1688,10.5795,-39.6968
273,-664,10.8109,39.6521,0,0,0,0,0,0,0,-1,1497,1688,10.811,-39.6521
280,-664,10.7771,39.4769,0.00629176,-0.00766149,0.0022042,0.00663168,-0.00800141,0.153008,0.00846075,0.0265133,1504,1688,10.7771,-39.4769
287,-664,10.745,39.1039,0.00547094,-0.00583203,0.00216139,0.00587015,-0.00623124,0.182642,0.00698777,0.0254595,1511,1688,10.7451,-39.1039
294,-664,10.8461,38.7782,0.00479311,-0.00368287,0.0017728,0.00514896,-0.00403872,0.198096,0.0053174,0.0197866,1518,1688,10.846,-38.7782
301,-664,10.9153,38.4454,0.0041739,-0.00181477,0.00135658,0.00446687,-0.00210773,0.212693,0.00387645,0.0127475,1525,1688,10.9153,-38.4454
308,-664,10.9254,38.098,0.00363997,-0.000203061,0.000848395,0.00381893,-0.00038202,0.207891,0.00268238,0.0117398,1532,1688,10.9254,-38.0981
315,-664,10.918,37.7567,0.00316504,0.00101542,0.000397482,0.00323618,0.000944278,0.177109,0.00192165,0.0121841,1539,1688,10.9179,-37.7567
322,-664,10.9327,37.4395,0.00281343,0.00199102,-5.74686e-05,0.00281743,0.00198702,-0.0694283,0.00167171,0.0152097,1546,1688,10.9327,-37.4395
329,-664,10.9281,37.12,0.00251718,0.00244579,-0.000452832,0.00293572,0.00202725,-0.746066,0.00173548,0.0174926,1553,1688,10.9281,-37.12
336,-664,10.9329,36.7334,0.0022028,0.00303115,-0.000630464,0.00337132,0.00186264,-1.07602,0.00195,0.0147629,1560,1688,10.9329,-36.7334
343,-664,10.9396,36.3623,0.00213136,0.00277495,-0.000802525,0.00331779,0.00158852,-0.976074,0.0019161,0.0117561,1567,1688,10.9396,-36.3624
350,-664,10.9253,36.0044,0.00231353,0.00203184,-0.00096721,0.0031501,0.00119527,-0.713096,0.00183625,0.0135543,1574,1688,10.9253,-36.0044
357,-664,10.9226,35.599,0.00242639,0.00103932,-0.000926254,0.00288998,0.000575732,-0.464048,0.0017663,0.0127711,1581,1688,10.9226,-35.599
364,-664,10.9261,35.2084,0.00265275,-5.51767e-05,-0.000733388,0.00283862,-0.000241043,-0.248209,0.00197766,0.0110456,1588,1688,10.9262,-35.2083
371,-664,10.9226,34.8427,0.00293524,-0.0012195,-0.000455469,0.00298458,-0.00126885,-0.107919,0.00252144,0.0147668,1595,1688,10.9226,-34.8426
378,-664,10.9097,34.4597,0.00322779,-0.00267026,-6.63939e-05,0.00322854,-0.00267101,-0.011255,0.00341117,0.0143955,1602,1688,10.9097,-34.4597
385,-664,10.8818,34.0548,0.00356808,-0.00393784,0.000277917,0.00357836,-0.00394812,0.0369589,0.00434716,0.0140669,1609,1688,10.8819,-34.0548
392,-664,10.8151,33.6646,0.00371542,-0.00539146,0.000638051,0.0037599,-0.00543595,0.0696093,0.00533854,0.0170531,1616,1688,10.815,-33.6645
399,-664,10.8387,33.2427,0.00367604,-0.00664689,0.000933251,0.00375974,-0.00673058,0.0894394,0.00613701,0.0146426,1623,1688,10.8388,-33.2427
406,-664,10.8507,32.8258,0.0037338,-0.00757801,0.00123146,0.00386631,-0.00771052,0.107192,0.00680561,0.0127969,1630,1688,10.8507,-32.8259
413,-664,10.834,32.3837,0.00412209,-0.00807695,0.00139651,0.00427992,-0.00823478,0.112538,0.00734464,0.0124532,1637,1688,10.834,-32.3837
420,-664,10.799,31.9758,0.00424581,-0.00851341,0.0016103,0.0044459,-0.0087135,0.123624,0.00772961,0.0297791,1644,1688,10.799,-31.9759
427,-664,10.6946,31.8073,0.00465118,-0.00870107,0.00167652,0.00485846,-0.00890836,0.123017,0.00806211,0.0496498,1651,1688,10.6945,-31.8073
434,-664,10.5627,31.3936,0,0,0,0,0,0,0,-1,1658,1688,10.5627,-31.3936
441,-664,10.6973,30.8784,0,0,0,0,0,0,0,-1,1665,1688,10.6972,-30.8784
448,-664,7.27502,19.7417,0,0,0,0,0,0,0,-1,1672,1688,7.27505,-19.7417
455,-664,7.53198,11.3838,0,0,0,0,0,0,0,-1,1679,1688,7.53195,-11.3838
462,-664,4.3147,4.25439,0,0,0,0,0,0,0,-1,1686,1688,4.31467,-4.25435
469,-664,6.05469,7.49341,0,0,0,0,0,0,0,-1,1693,1688,6.05474,-7.49339
476,-664,10.2377,22.7128,0,0,0,0,0,0,0,-1,1700,1688,10.2377,-22.7128
483,-664,8.41895,10.9768,0,0,0,0,0,0,0,-1,1707,1688,8.41897,-10.9769
490,-664,3.90771,13.2842,0,0,0,0,0,0,0,-1,1714,1688,3.90776,-13.2841
497,-664,0,0,0,0,0,0,0,0,0,-1,1721,1688,0,0
504,-664,0,0,0,0,0,0,0,0,0,-1,1728,1688,0,0
511,-664,0,0,0,0,0,0,0,0,0,-1,1735,1688,0,0
518,-664,0,0,0,0,0,0,0,0,0,-1,1742,1688,0,0
525,-664,0,0,0,0,0,0,0,0,0,-1,1749,1688,0,0
532,-664,0,0,0,0,0,0,0,0,0,-1,1756,1688,0,0
539,-664,0,0,0,0,0,0,0,0,0,-1,1763,1688,0,0
546,-664,0,0,0,0,0,0,0,0,0,-1,1770,1688,0,0
553,-664,0,0,0,0,0,0,0,0,0,-1,1777,1688,0,0
560,-664,0,0,0,0,0,0,0,0,0,-1,1784,1688,0,0
567,-664,0,0,0,0,0,0,0,0,0,-1,1791,1688,0,0
574,-664,0,0,0,0,0,0,0,0,0,-1,1798,1688,0,0
581,-664,0,0,0,0,0,0,0,0,0,-1,1805,1688,0,0
588,-664,0,0,0,0,0,0,0,0,0,-1,1812,1688,0,0
595,-664,0,0,0,0,0,0,0,0,0,-1,1819,1688,0,0
602,-664,0,0,0,0,0,0,0,0,0,-1,1826,1688,0,0
609,-664,0,0,0,0,0,0,0,0,0,-1,1833,1688,0,0
616,-664,0,0,0,0,0,0,0,0,0,-1,1840,1688,0,0
623,-664,0,0,0,0,0,0,0,0,0,-1,1847,1688,0,0
630,-664,0,0,0,0,0,0,0,0,0,-1,1854,1688,0,0
637,-664,0,0,0,0,0,0,0,0,0,-1,1861,1688,0,0
644,-664,0,0,0,0,0,0,0,0,0,-1,1868,1688,0,0
651,-664,0,0,0,0,0,0,0,0,0,-1,1875,1688,0,0
658,-664,0,0,0,0,0,0,0,0,0,-1,1882,1688,0,0
665,-664,0,0,0,0,0,0,0,0,0,-1,1889,1688,0,0
672,-664,0,0,0,0,0,0,0,0,0,-1,1896,1688,0,0
679,-664,0,0,0,0,0,0,0,0,0,-1,1903,1688,0,0
686,-664,0,0,0,0,0,0,0,0,0,-1,1910,1688,0,0
693,-664,0,0,0,0,0,0,0,0,0,-1,1917,1688,0,0
700,-664,0,0,0,0,0,0,0,0,0,-1,1924,1688,0,0
707,-664,0,0,0,0,0,0,0,0,0,-1,1931,1688,0,0
714,-664,0,0,0,0,0,0,0,0,0,-1,1938,1688,0,0
721,-664,0,0,0,0,0,0,0,0,0,-1,1945,1688,0,0
728,-664,0,0,0,0,0,0,0,0,0,-1,1952,1688,0,0
735,-664,0,0,0,0,0,0,0,0,0,-1,1959,1688,0,0
742,-664,0,0,0,0,0,0,0,0,0,-1,1966,1688,0,0
749,-664,0,0,0,0,0,0,0,0,0,-1,1973,1688,0,0
756,-664,0,0,0,0,0,0,0,0,0,-1,1980,1688,0,0
763,-664,0,0,0,0,0,0,0,0,0,-1,1987,1688,0,0
770,-664,0,0,0,0,0,0,0,0,0,-1,1994,1688,0,0
777,-664,0,0,0,0,0,0,0,0,0,-1,2001,1688,0,0
784,-664,0,0,0,0,0,0,0,0,0,-1,2008,1688,0,0
791,-664,0,0,0,0,0,0,0,0,0,-1,2015,1688,0,0
798,-664,0,0,0,0,0,0,0,0,0,-1,2022,1688,0,0
805,-664,0,0,0,0,0,0,0,0,0,-1,2029,1688,0,0
812,-664,0,0,0,0,0,0,0,0,0,-1,2036,1688,0,0
-700,-671,0,0,0,0,0,0,0,0,0,-1,524,1695,0,0
-693,-671,0,0,0,0,0,0,0,0,0,-1,531,1695,0,0
-686,-671,0,0,0,0,0,0,0,0,0,-1,538,1695,0,0
-679,-671,0,0,0,0,0,0,0,0,0,-1,545,1695,0,0
-672,-671,0,0,0,0,0,0,0,0,0,-1,552,1695,0,0
-665,-671,0,0,0,0,0,0,0,0,0,-1,559,1695,0,0
-658,-671,0,0,0,0,0,0,0,0,0,-1,566,1695,0,0
-651,-671,0,0,0,0,0,0,0,0,0,-1,573,1695,0,0
-644,-671,0,0,0,0,0,0,0,0,0,-1,580,1695,0,0
-637,-671,0,0,0,0,0,0,0,0,0,-1,587,1695,0,0
-630,-671,0,0,0,0,0,0,0,0,0,-1,594,1695,0,0
-623,-671,0,0,0,0,0,0,0,0,0,-1,601,1695,0,0
-616,-671,0,0,0,0,0,0,0,0,0,-1,608,1695,0,0
-609,-671,0,0,0,0,0,0,0,0,0,-1,615,1695,0,0
-602,-671,0,0,0,0,0,0,0,0,0,-1,622,1695,0,0
-595,-671,0,0,0,0,0,0,0,0,0,-1,629,1695,0,0
-588,-671,0,0,0,0,0,0,0,0,0,-1,636,1695,0,0
-581,-671,0,0,0,0,0,0,0,0,0,-1,643,1695,0,0
-574,-671,0,0,0,0,0,0,0,0,0,-1,650,1695,0,0
-567,-671,0,0,0,0,0,0,0,0,0,-1,657,1695,0,0
-560,-671,0,0,0,0,0,0,0,0,0,-1,664,1695,0,0
-553,-671,0,0,0,0,0,0,0,0,0,-1,671,1695,0,0
-546,-671,0,0,0,0,0,0,0,0,0,-1,678,1695,0,0
-539,-671,0,0,0,0,0,0,0,0,0,-1,685,1695,0,0
-532,-671,0,0,0,0,0,0,0,0,0,-1,692,1695,0,0
-525,-671,0,0,0,0,0,0,0,0,0,-1,699,1695,0,0
-518,-671,0,0,0,0,0,0,0,0,0,-1,706,1695,0,0
-511,-671,0,0,0,0,0,0,0,0,0,-1,713,1695,0,0
-504,-671,0,0,0,0,0,0,0,0,0,-1,720,1695,0,0
-497,-671,0,0,0,0,0,0,0,0,0,-1,727,1695,0,0
-490,-671,0,0,0,0,0,0,0,0,0,-1,734,1695,0,0
-483,-671,0,0,0,0,0,0,0,0,0,-1,741,1695,0,0
-476,-671,0,0,0,0,0,0,0,0,0,-1,748,1695,0,0
-469,-671,0,0,0,0,0,0,0,0,0,-1,755,1695,0,0
-462,-671,0,0,0,0,0,0,0,0,0,-1,762,1695,0,0
-455,-671,0,0,0,0,0,0,0,0,0,-1,769,1695,0,0
-448,-671,0,0,0,0,0,0,0,0,0,-1,776,1695,0,0
-441,-671,0,0,0,0,0,0,0,0,0,-1,783,1695,0,0
-434,-671,0,0,0,0,0,0,0,0,0,-1,790,1695,0,0
-427,-671,0,0,0,0,0,0,0,0,0,-1,797,1695,0,0
-420,-671,0,0,0,0,0,0,0,0,0,-1,804,1695,0,0
-413,-671,0,0,0,0,0,0,0,0,0,-1,811,1695,0,0
-406,-671,0,0,0,0,0,0,0,0,0,-1,818,1695,0,0
-399,-671,0,0,0,0,0,0,0,0,0,-1,825,1695,0,0
-392,-671,0,0,0,0,0,0,0,0,0,-1,832,1695,0,0
-385,-671,0,0,0,0,0,0,0,0,0,-1,839,1695,0,0
-378,-671,0,0,0,0,0,0,0,0,0,-1,846,1695,0,0
-371,-671,0,0,0,0,0,0,0,0,0,-1,853,1695,0,0
-364,-671,-4.18738,7.51416,0,0,0,0,0,0,0,-1,860,1695,-4.18739,-7.51419
-357,-671,-5.02393,6.07129,0,0,0,0,0,0,0,-1,867,1695,-5.0239,-6.07135
-350,-671,-5.72333,4.58386,0,0,0,0,0,0,0,-1,874,1695,-5.72333,-4.58386
-343,-671,2.99432,25.8125,0,0,0,0,0,0,0,-1,881,1695,2.9943,-25.8125
-336,-671,4.1355,26.2717,0,0,0,0,0,0,0,-1,888,1695,4.13547,-26.2718
-329,-671,5.27954,26.6194,0,0,0,0,0,0,0,-1,895,1695,5.27955,-26.6194
-322,-671,6.25574,28.0647,0,0,0,0,0,0,0,-1,902,1695,6.25574,-28.0647
-315,-671,7.37061,28.2288,0,0,0,0,0,0,0,-1,909,1695,7.37061,-28.2287
-308,-671,9.79431,29.1393,0,0,0,0,0,0,0,-1,916,1695,9.79433,-29.1393
-301,-671,9.15289,29.4552,-0.0572876,0.0181876,0.0170269,0.021851,-0.060951,1.35887,0.0495506,0.0444644,923,1695,9.15291,-29.4552
-294,-671,6.82166,31.4092,-0.0495299,0.015404,0.0138805,0.0182467,-0.0523726,1.36879,0.0423292,0.0472758,930,1695,6.82163,-31.4092
-287,-671,6.51917,31.4866,0,0,0,0,0,0,0,-1,937,1695,6.51919,-31.4866
-280,-671,6.58588,31.92,-0.0336774,0.0101008,0.00849554,0.0116917,-0.0352682,1.38569,0.0282283,0.0404151,944,1695,6.5859,-31.92
-273,-671,6.57361,32.3651,-0.0264699,0.00883038,0.00641071,0.00995855,-0.0275981,1.3966,0.0224664,0.0327209,951,1695,6.57362,-32.3652
-266,-671,6.58472,32.8855,-0.0203689,0.00779277,0.00497721,0.00864654,-0.0212227,1.40091,0.0177472,0.0241537,958,1695,6.58473,-32.8855
-259,-671,6.46051,33.2742,-0.0151759,0.00673785,0.00395805,0.00743084,-0.0158689,1.39747,0.013743,0.0222395,965,1695,6.4605,-33.2741
-252,-671,6.4776,33.6837,-0.011057,0.00586513,0.00312961,0.00642538,-0.0116173,1.39366,0.0105597,0.0171188,972,1695,6.47758,-33.6838
-245,-671,6.45508,34.139,-0.00671703,0.00491144,0.00231076,0.00535379,-0.00715939,1.38165,0.00724952,0.0201675,979,1695,6.45506,-34.1391
-238,-671,6.45502,34.5608,-0.00368528,0.00421386,0.00196768,0.00467687,-0.00414829,1.33969,0.00509826,0.0205829,986,1695,6.45503,-34.5608
-231,-671,6.43866,34.9644,-0.00241557,0.00440147,0.00183056,0.00486192,-0.00287603,1.32437,0.00451628,0.0156585,993,1695,6.43863,-34.9644
-224,-671,6.39771,35.3615,-0.0014581,0.00394306,0.00178663,0.00448056,-0.0019956,1.27856,0.00382966,0.0126068,1000,1695,6.3977,-35.3614
-217,-671,6.40045,35.7585,-0.0011109,0.00333105,0.00179059,0.00396296,-0.00174281,1.23154,0.00337633,0.0118148,1007,1695,6.40046,-35.7586
-210,-671,6.40112,36.173,-0.000677882,0.00274925,0.00174089,0.00347843,-0.00140706,1.17414,0.00290392,0.0110067,1014,1695,6.40112,-36.173
-203,-671,6.35596,36.5359,-0.000293173,0.00224251,0.00174082,0.00312824,-0.0011789,1.10013,0.00257022,0.0179308,1021,1695,6.35594,-36.5358
-196,-671,6.3584,36.9076,2.3404e-05,0.00167834,0.00168259,0.00272592,-0.00102417,1.01392,0.00223819,0.0155255,1028,1695,6.35844,-36.9076
-189,-671,6.37561,37.3135,0.000335742,0.0011393,0.00154617,0.00233505,-0.000860002,0.912514,0.00190907,0.0119417,1035,1695,6.37566,-37.3134
-182,-671,6.36523,37.6635,0.000605656,0.00106745,0.00145146,0.00230627,-0.000633159,0.864277,0.00178637,0.0100181,1042,1695,6.36522,-37.6635
-175,-671,6.36804,37.9835,0.000866618,0.00111892,0.00144241,0.00244068,-0.000455147,0.829016,0.00179814,0.0131624,1049,1695,6.36805,-37.9835
-168,-671,6.37402,38.3062,0.00143546,0.00148865,0.0015208,0.00298309,-5.89831e-05,0.794142,0.00200867,0.0137898,1056,1695,6.37402,-38.3061
-161,-671,6.37341,38.6642,0.00188408,0.00205066,0.00158811,0.00355767,0.00037707,0.811597,0.00225661,0.00939361,1063,1695,6.3734,-38.6642
-154,-671,6.38599,38.9922,0.00252823,0.00283091,0.0016828,0.00436916,0.000989975,0.830245,0.00264527,0.00902346,1070,1695,6.38594,-38.9922
-147,-671,6.39099,39.3274,0.00339915,0.00368483,0.0018,0.00534765,0.00173633,0.824993,0.00315009,0.0107606,1077,1695,6.39099,-39.3275
-140,-671,6.41602,39.6447,0.00443978,0.00459246,0.00189274,0.0064104,0.00262184,0.805554,0.00372142,0.0133134,1084,1695,6.41603,-39.6446
-133,-671,6.41797,39.9502,0.00566426,0.00559053,0.00206152,0.00768924,0.00356555,0.776459,0.00444328,0.0179063,1091,1695,6.41796,-39.9502
-126,-671,6.49072,40.3395,0.00688369,0.00655583,0.00214524,0.00887125,0.00456827,0.747265,0.00512258,0.0261194,1098,1695,6.49078,-40.3394
-119,-671,6.54309,40.8667,0.00853969,0.00738093,0.00193463,0.00997984,0.00594079,0.639909,0.00579663,0.045022,1105,1695,6.54315,-40.8667
-112,-671,6.54211,41.5291,0,0,0,0,0,0,0,-1,1112,1695,6.54217,-41.5291
-105,-671,7.33252,41.3418,0,0,0,0,0,0,0,-1,1119,1695,7.33247,-41.3418
-98,-671,6.42639,41.9779,0,0,0,0,0,0,0,-1,1126,1695,6.42641,-41.9779
-91,-671,6.40063,38.2443,0,0,0,0,0,0,0,-1,1133,1695,6.40059,-38.2442
-84,-671,5.4209,26.2415,0,0,0,0,0,0,0,-1,1140,1695,5.42096,-26.2414
-77,-671,4.31763,16.489,0,0,0,0,0,0,0,-1,1147,1695,4.31757,-16.489
-70,-671,3.06067,10.7737,0,0,0,0,0,0,0,-1,1154,1695,3.0607,-10.7737
-63,-671,2.94592,6.90198,0,0,0,0,0,0,0,-1,1161,1695,2.94594,-6.90198
-56,-671,-3.07678,2.87976,0,0,0,0,0,0,0,-1,1168,1695,-3.07675,-2.87979
-49,-671,-1.05957,4.76917,0,0,0,0,0,0,0,-1,1175,1695,-1.05958,-4.76921
-42,-671,0.539307,3.7865,0,0,0,0,0,0,0,-1,1182,1695,0.539266,-3.78648
-35,-671,-0.272461,0.347534,0,0,0,0,0,0,0,-1,1189,1695,-0.272434,-0.347569
-28,-671,-10.4878,17.2009,0,0,0,0,0,0,0,-1,1196,1695,-10.4878,-17.2009
-21,-671,9.09998,42.9845,0,0,0,0,0,0,0,-1,1203,1695,9.09992,-42.9845
-14,-671,9.18176,43.1387,0.0471676,0.034211,0.0721921,0.113172,-0.0317929,0.74065,0.0879814,0.0441751,1210,1695,9.18171,-43.1387
-7,-671,9.24377,43.353,0.0466571,0.0431438,0.07132,0.116242,-0.0264412,0.773085,0.0876482,0.0460052,1217,1695,9.24376,-43.353
0,-671,9.26453,43.4983,0.046952,0.0550909,0.0688163,0.119958,-0.017915,0.814931,0.0865638,0.0483333,1224,1695,9.26449,-43.4983
7,-671,9.22485,43.6598,0.0481998,0.0682992,0.0644849,0.123513,-0.00701387,0.862699,0.0847766,0.0491569,1231,1695,9.22483,-43.6598
14,-671,8.27075,45.2903,0,0,0,0,0,0,0,-1,1238,1695,8.27081,-45.2903
21,-671,8.52905,46.8499,0.0494792,0.0964466,0.0485913,0.126931,0.0189944,1.01049,0.0790538,0.0470387,1245,1695,8.52909,-46.8499
28,-671,8.80884,47.4026,0.0488508,0.111652,0.0395868,0.13078,0.029723,1.12069,0.0791612,0.0470022,1252,1695,8.80883,-47.4026
35,-671,8.5,47.6683,0.0472071,0.121584,0.0305538,0.132526,0.0362654,1.22691,0.0790843,0.0440342,1259,1695,8.49998,-47.6683
42,-671,8.51135,47.772,0.0452123,0.130633,0.0212573,0.13563,0.0402147,1.33989,0.080439,0.0472102,1266,1695,8.5114,-47.7719
49,-671,8.88062,48.3013,0.0429386,0.138544,0.0119926,0.140025,0.0414572,1.44789,0.0830547,0.0484414,1273,1695,8.88059,-48.3013
56,-671,9.65759,48.344,0,0,0,0,0,0,0,-1,1280,1695,9.65757,-48.344
63,-671,10.174,48.3541,0,0,0,0,0,0,0,-1,1287,1695,10.174,-48.3541
70,-671,8.50415,45.0446,0.0323491,0.145456,-0.0137996,0.147115,0.0306898,-1.45113,0.0896158,0.0470105,1294,1695,8.50418,-45.0446
77,-671,8.86853,44.995,0.029436,0.140221,-0.0177649,0.143,0.026657,-1.41562,0.087807,0.0449464,1301,1695,8.86859,-44.995
84,-671,8.99585,45.9124,0.029022,0.131842,-0.0198823,0.135553,0.0253113,-1.38628,0.0832244,0.0466399,1308,1695,8.99587,-45.9124
91,-671,8.29822,45.1718,0.0320446,0.118403,-0.0193876,0.122556,0.0278917,-1.35978,0.0741759,0.0488056,1315,1695,8.29816,-45.1718
98,-671,8.42419,45.3104,0,0,0,0,0,0,0,-1,1322,1695,8.42421,-45.3105
105,-671,8.73022,44.4098,0,0,0,0,0,0,0,-1,1329,1695,8.73026,-44.4098
112,-671,8.73584,44.3792,0,0,0,0,0,0,0,-1,1336,1695,8.73579,-44.3791
119,-671,9.67664,43.5876,0,0,0,0,0,0,0,-1,1343,1695,9.67659,-43.5877
126,-671,10.2761,43.1165,0,0,0,0,0,0,0,-1,1350,1695,10.2762,-43.1165
133,-671,11.0942,42.6757,0.0797511,-0.0128078,0.00914482,0.080646,-0.0137026,0.0975434,0.0588656,0.0492572,1357,1695,11.0942,-42.6756
140,-671,12.1941,42.1444,0.095587,-0.0251,0.0141055,0.0972137,-0.0267267,0.114815,0.0753157,0.0481553,1364,1695,12.194,-42.1444
147,-671,13.4257,41.3623,0,0,0,0,0,0,0,-1,1371,1695,13.4256,-41.3623
154,-671,7.26892,40.2678,0,0,0,0,0,0,0,-1,1378,1695,7.26896,-40.2678
161,-671,4.49292,4.91272,0,0,0,0,0,0,0,-1,1385,1695,4.49297,-4.91273
168,-671,5.17639,6.1416,0,0,0,0,0,0,0,-1,1392,1695,5.1764,-6.14164
175,-671,5.6731,1.64685,0,0,0,0,0,0,0,-1,1399,1695,5.67313,-1.64691
182,-671,5.56812,1.71692,0,0,0,0,0,0,0,-1,1406,1695,5.56809,-1.71686
189,-671,6.98315,6.36169,0,0,0,0,0,0,0,-1,1413,1695,6.98312,-6.36175
196,-671,5.38123,5.69775,0,0,0,0,0,0,0,-1,1420,1695,5.38125,-5.69769
203,-671,5.95117,8.11658,0,0,0,0,0,0,0,-1,1427,1695,5.9512,-8.11662
210,-671,4.73596,8.39624,0,0,0,0,0,0,0,-1,1434,1695,4.736,-8.39618
217,-671,5.37097,11.863,0,0,0,0,0,0,0,-1,1441,1695,5.37094,-11.863
224,-671,5.08167,13.6694,0,0,0,0,0,0,0,-1,1448,1695,5.08165,-13.6695
231,-671,5.66663,15.3348,0,0,0,0,0,0,0,-1,1455,1695,5.66667,-15.3349
238,-671,6.32959,16.2036,0,0,0,0,0,0,0,-1,1462,1695,6.32961,-16.2037
245,-671,10.468,39.5925,0,0,0,0,0,0,0,-1,1469,1695,10.468,-39.5926
252,-671,10.4255,40.3815,0,0,0,0,0,0,0,-1,1476,1695,10.4255,-40.3815
259,-671,10.3475,40.0565,0,0,0,0,0,0,0,-1,1483,1695,10.3475,-40.0565
266,-671,10.4529,39.9637,0.00563439,-0.00721323,0.00137472,0.00577984,-0.00735868,0.105412,0.00760376,0.0334038,1490,1695,10.4529,-39.9638
273,-671,10.5199,39.7091,0.00514187,-0.00642444,0.00141826,0.00531324,-0.00659581,0.120247,0.00688897,0.010177,1497,1695,10.5199,-39.7091
280,-671,10.5247,39.4047,0.0046045,-0.00513817,0.00136637,0.0047925,-0.00532617,0.136733,0.00584473,0.00919428,1504,1695,10.5246,-39.4047
287,-671,10.5266,39.0183,0.00401078,-0.00386942,0.00129327,0.0042176,-0.00407624,0.158577,0.00478868,0.0114334,1511,1695,10.5266,-39.0183
294,-671,10.5284,38.6986,0.00351802,-0.0023041,0.00098924,0.00368151,-0.00246759,0.163789,0.00357317,0.0119299,1518,1695,10.5284,-38.6986
301,-671,10.5552,38.4207,0.00304976,-0.000903641,0.00067222,0.00316093,-0.00101482,0.163901,0.00251477,0.0119921,1525,1695,10.5551,-38.4207
308,-671,10.5682,38.1002,0.00262383,0.0002815,0.000298027,0.00266116,0.000244176,0.124591,0.00169857,0.0127501,1532,1695,10.5682,-38.1003
315,-671,10.5808,37.7693,0.00223518,0.00115692,-1.72995e-05,0.00223545,0.00115664,-0.0160385,0.0012909,0.0132877,1539,1695,10.5808,-37.7693
322,-671,10.5802,37.4615,0.00188674,0.00178073,-0.000280517,0.00211921,0.00154825,-0.692025,0.00126615,0.0149907,1546,1695,10.5802,-37.4616
329,-671,10.5493,37.1381,0.00159081,0.00193597,-0.000496015,0.00228857,0.00123821,-0.952816,0.00132279,0.0141799,1553,1695,10.5493,-37.1381
336,-671,10.5563,36.7524,0.0013099,0.00211142,-0.00055609,0.00239611,0.00102521,-1.09763,0.00138819,0.0108715,1560,1695,10.5562,-36.7524
343,-671,10.5917,36.3582,0.00144338,0.0016607,-0.000492934,0.00205681,0.00104727,-0.893882,0.00118756,0.0114459,1567,1695,10.5917,-36.3581
350,-671,10.5807,36.0203,0.00191088,0.000657827,-0.000503299,0.002088,0.000480709,-0.338379,0.00126264,0.012103,1574,1695,10.5807,-36.0202
357,-671,10.5507,35.614,0.00223487,-0.000489285,-0.000378164,0.00228639,-0.000540807,-0.135408,0.00173289,0.0110407,1581,1695,10.5506,-35.614
364,-671,10.5326,35.2159,0.00275714,-0.00168958,-0.000145156,0.00276187,-0.00169431,-0.0325971,0.00259727,0.0124344,1588,1695,10.5326,-35.2159
371,-671,10.5122,34.8527,0.0034081,-0.00300323,0.000178463,0.00341307,-0.0030082,0.0278068,0.00370977,0.0146498,1595,1695,10.5123,-34.8527
378,-671,10.5187,34.4636,0.00414571,-0.00465478,0.000608824,0.00418763,-0.00469669,0.0687442,0.00513217,0.0123519,1602,1695,10.5186,-34.4636
385,-671,10.4916,34.0513,0.00500119,-0.0060109,0.000959745,0.00508421,-0.00609392,0.0862868,0.00646247,0.01412,1609,1695,10.4915,-34.0512
392,-671,10.4471,33.6616,0.00567922,-0.00759927,0.00131259,0.00580773,-0.00772778,0.0975927,0.00784089,0.01919,1616,1695,10.4472,-33.6616
399,-671,10.4417,33.2714,0.00619177,-0.00893345,0.00155643,0.00635027,-0.00909195,0.101486,0.00896229,0.0149812,1623,1695,10.4417,-33.2714
406,-671,10.4564,32.8658,0.00674404,-0.00996886,0.00183473,0.00694309,-0.0101679,0.108065,0.00993734,0.019578,1630,1695,10.4564,-32.8658
413,-671,10.381,32.4626,0.00756797,-0.0105259,0.00203099,0.00779314,-0.0107511,0.110417,0.0107518,0.0323799,1637,1695,10.381,-32.4627
420,-671,10.3776,32.0945,0,0,0,0,0,0,0,-1,1644,1695,10.3776,-32.0944
427,-671,10.2881,32.2854,0,0,0,0,0,0,0,-1,1651,1695,10.2881,-32.2854
434,-671,9.66528,26.177,0,0,0,0,0,0,0,-1,1658,1695,9.66528,-26.177
441,-671,8.34961,20.6522,0,0,0,0,0,0,0,-1,1665,1695,8.34964,-20.6522
448,-671,7.44873,20.2306,0,0,0,0,0,0,0,-1,1672,1695,7.44872,-20.2306
455,-671,6.62805,19.8612,0,0,0,0,0,0,0,-1,1679,1695,6.62811,-19.8612
462,-671,5.86255,4.47961,0,0,0,0,0,0,0,-1,1686,1695,5.8625,-4.4796
469,-671,3.71301,3.76978,0,0,0,0,0,0,0,-1,1693,1695,3.71297,-3.76974
476,-671,3.75574,3.18848,0,0,0,0,0,0,0,-1,1700,1695,3.7558,-3.18847
483,-671,7.81824,12.1041,0,0,0,0,0,0,0,-1,1707,1695,7.81826,-12.1041
490,-671,0,0,0,0,0,0,0,0,0,-1,1714,1695,0,0
497,-671,0,0,0,0,0,0,0,0,0,-1,1721,1695,0,0
504,-671,0,0,0,0,0,0,0,0,0,-1,1728,1695,0,0
511,-671,0,0,0,0,0,0,0,0,0,-1,1735,1695,0,0
518,-671,0,0,0,0,0,0,0,0,0,-1,1742,1695,0,0
525,-671,0,0,0,0,0,0,0,0,0,-1,1749,1695,0,0
532,-671,0,0,0,0,0,0,0,0,0,-1,1756,1695,0,0
539,-671,0,0,0,0,0,0,0,0,0,-1,1763,1695,0,0
546,-671,0,0,0,0,0,0,0,0,0,-1,1770,1695,0,0
553,-671,0,0,0,0,0,0,0,0,0,-1,1777,1695,0,0
560,-671,0,0,0,0,0,0,0,0,0,-1,1784,1695,0,0
567,-671,0,0,0,0,0,0,0,0,0,-1,1791,1695,0,0
574,-671,0,0,0,0,0,0,0,0,0,-1,1798,1695,0,0
581,-671,0,0,0,0,0,0,0,0,0,-1,1805,1695,0,0
588,-671,0,0,0,0,0,0,0,0,0,-1,1812,1695,0,0
595,-671,0,0,0,0,0,0,0,0,0,-1,1819,1695,0,0
602,-671,0,0,0,0,0,0,0,0,0,-1,1826,1695,0,0
609,-671,0,0,0,0,0,0,0,0,0,-1,1833,1695,0,0
616,-671,0,0,0,0,0,0,0,0,0,-1,1840,1695,0,0
623,-671,0,0,0,0,0,0,0,0,0,-1,1847,1695,0,0
630,-671,0,0,0,0,0,0,0,0,0,-1,1854,1695,0,0
637,-671,0,0,0,0,0,0,0,0,0,-1,1861,1695,0,0
644,-671,0,0,0,0,0,0,0,0,0,-1,1868,1695,0,0
651,-671,0,0,0,0,0,0,0,0,0,-1,1875,1695,0,0
658,-671,0,0,0,0,0,0,0,0,0,-1,1882,1695,0,0
665,-671,0,0,0,0,0,0,0,0,0,-1,1889,1695,0,0
672,-671,0,0,0,0,0,0,0,0,0,-1,1896,1695,0,0
679,-671,0,0,0,0,0,0,0,0,0,-1,1903,1695,0,0
686,-671,0,0,0,0,0,0,0,0,0,-1,1910,1695,0,0
693,-671,0,0,0,0,0,0,0,0,0,-1,1917,1695,0,0
700,-671,0,0,0,0,0,0,0,0,0,-1,1924,1695,0,0
707,-671,0,0,0,0,0,0,0,0,0,-1,1931,1695,0,0
714,-671,0,0,0,0,0,0,0,0,0,-1,1938,1695,0,0
721,-671,0,0,0,0,0,0,0,0,0,-1,1945,1695,0,0
728,-671,0,0,0,0,0,0,0,0,0,-1,1952,1695,0,0
735,-671,0,0,0,0,0,0,0,0,0,-1,1959,1695,0,0
742,-671,0,0,0,0,0,0,0,0,0,-1,1966,1695,0,0
749,-671,0,0,0,0,0,0,0,0,0,-1,1973,1695,0,0
756,-671,0,0,0,0,0,0,0,0,0,-1,1980,1695,0,0
763,-671,0,0,0,0,0,0,0,0,0,-1,1987,1695,0,0
770,-671,0,0,0,0,0,0,0,0,0,-1,1994,1695,0,0
777,-671,0,0,0,0,0,0,0,0,0,-1,2001,1695,0,0
784,-671,0,0,0,0,0,0,0,0,0,-1,2008,1695,0,0
791,-671,0,0,0,0,0,0,0,0,0,-1,2015,1695,0,0
798,-671,0,0,0,0,0,0,0,0,0,-1,2022,1695,0,0
805,-671,0,0,0,0,0,0,0,0,0,-1,2029,1695,0,0
812,-671,0,0,0,0,0,0,0,0,0,-1,2036,1695,0,0
-700,-678,0,0,0,0,0,0,0,0,0,-1,524,1702,0,0
-693,-678,0,0,0,0,0,0,0,0,0,-1,531,1702,0,0
-686,-678,0,0,0,0,0,0,0,0,0,-1,538,1702,0,0
-679,-678,0,0,0,0,0,0,0,0,0,-1,545,1702,0,0
-672,-678,0,0,0,0,0,0,0,0,0,-1,552,1702,0,0
-665,-678,0,0,0,0,0,0,0,0,0,-1,559,1702,0,0
-658,-678,0,0,0,0,0,0,0,0,0,-1,566,1702,0,0
-651,-678,0,0,0,0,0,0,0,0,0,-1,573,1702,0,0
-644,-678,0,0,0,0,0,0,0,0,0,-1,580,1702,0,0
-637,-678,0,0,0,0,0,0,0,0,0,-1,587,1702,0,0
-630,-678,0,0,0,0,0,0,0,0,0,-1,594,1702,0,0
-623,-678,0,0,0,0,0,0,0,0,0,-1,601,1702,0,0
-616,-678,0,0,0,0,0,0,0,0,0,-1,608,1702,0,0
-609,-678,0,0,0,0,0,0,0,0,0,-1,615,1702,0,0
-602,-678,0,0,0,0,0,0,0,0,0,-1,622,1702,0,0
-595,-678,0,0,0,0,0,0,0,0,0,-1,629,1702,0,0
-588,-678,0,0,0,0,0,0,0,0,0,-1,636,1702,0,0
-581,-678,0,0,0,0,0,0,0,0,0,-1,643,1702,0,0
-574,-678,0,0,0,0,0,0,0,0,0,-1,650,1702,0,0
-567,-678,0,0,0,0,0,0,0,0,0,-1,657,1702,0,0
-560,-678,0,0,0,0,0,0,0,0,0,-1,664,1702,0,0
-553,-678,0,0,0,0,0,0,0,0,0,-1,671,1702,0,0
-546,-678,0,0,0,0,0,0,0,0,0,-1,678,1702,0,0
-539,-678,0,0,0,0,0,0,0,0,0,-1,685,1702,0,0
-532,-678,0,0,0,0,0,0,0,0,0,-1,692,1702,0,0
-525,-678,0,0,0,0,0,0,0,0,0,-1,699,1702,0,0
-518,-678,0,0,0,0,0,0,0,0,0,-1,706,1702,0,0
-511,-678,0,0,0,0,0,0,0,0,0,-1,713,1702,0,0
-504,-678,0,0,0,0,0,0,0,0,0,-1,720,1702,0,0
-497,-678,0,0,0,0,0,0,0,0,0,-1,727,1702,0,0
-490,-678,0,0,0,0,0,0,0,0,0,-1,734,1702,0,0
-483,-678,0,0,0,0,0,0,0,0,0,-1,741,1702,0,0
-476,-678,0,0,0,0,0,0,0,0,0,-1,748,1702,0,0
-469,-678,0,0,0,0,0,0,0,0,0,-1,755,1702,0,0
-462,-678,0,0,0,0,0,0,0,0,0,-1,762,1702,0,0
-455,-678,0,0,0,0,0,0,0,0,0,-1,769,1702,0,0
-448,-678,0,0,0,0,0,0,0,0,0,-1,776,1702,0,0
-441,-678,0,0,0,0,0,0,0,0,0,-1,783,1702,0,0
-434,-678,0,0,0,0,0,0,0,0,0,-1,790,1702,0,0
-427,-678,0,0,0,0,0,0,0,0,0,-1,797,1702,0,0
-420,-678,0,0,0,0,0,0,0,0,0,-1,804,1702,0,0
-413,-678,0,0,0,0,0,0,0,0,0,-1,811,1702,0,0
-406,-678,0,0,0,0,0,0,0,0,0,-1,818,1702,0,0
-399,-678,0,0,0,0,0,0,0,0,0,-1,825,1702,0,0
-392,-678,0,0,0,0,0,0,0,0,0,-1,832,1702,0,0
-385,-678,0,0,0,0,0,0,0,0,0,-1,839,1702,0,0
-378,-678,0,0,0,0,0,0,0,0,0,-1,846,1702,0,0
-371,-678,0,0,0,0,0,0,0,0,0,-1,853,1702,0,0
-364,-678,0,0,0,0,0,0,0,0,0,-1,860,1702,0,0
-357,-678,0,0,0,0,0,0,0,0,0,-1,867,1702,0,0
-350,-678,-5.79944,6.11865,0,0,0,0,0,0,0,-1,874,1702,-5.79942,-6.11864
-343,-678,-6.44891,4.52759,0,0,0,0,0,0,0,-1,881,1702,-6.4489,-4.52758
-336,-678,4.8537,26.4368,0,0,0,0,0,0,0,-1,888,1702,4.85368,-26.4368
-329,-678,5.70953,26.5249,0,0,0,0,0,0,0,-1,895,1702,5.70955,-26.5249
-322,-678,3.78455,20.3917,0,0,0,0,0,0,0,-1,902,1702,3.78457,-20.3917
-315,-678,4.74176,22.3245,0,0,0,0,0,0,0,-1,909,1702,4.74178,-22.3244
-308,-678,9.65527,29.2684,0,0,0,0,0,0,0,-1,916,1702,9.65525,-29.2684
-301,-678,9.16663,29.9214,-0.0820187,0.0227032,0.0219312,0.0271106,-0.086426,1.37247,0.0684674,0.0467645,923,1702,9.16663,-29.9213
-294,-678,8.40411,30.7877,-0.0698398,0.0195581,0.017868,0.0229971,-0.0732788,1.38065,0.0580568,0.0451525,930,1702,8.40414,-30.7877
-287,-678,7.59247,31.5183,-0.0576839,0.0163278,0.0142582,0.0189796,-0.0603357,1.38691,0.0478226,0.0474346,937,1702,7.59248,-31.5183
-280,-678,6.77686,31.9059,-0.0461792,0.0133108,0.0109172,0.0152509,-0.0481194,1.39491,0.0381921,0.04979,944,1702,6.77687,-31.9059
-273,-678,6.15167,32.3979,0,0,0,0,0,0,0,-1,951,1702,6.15168,-32.398
-266,-678,6.95752,32.8114,-0.0272668,0.0109009,0.00656096,0.0119973,-0.0283632,1.40523,0.0239322,0.0377608,958,1702,6.9575,-32.8115
-259,-678,6.84619,33.3416,-0.0202558,0.0094948,0.00528702,0.0104064,-0.0211674,1.40005,0.0185787,0.0241191,965,1702,6.84618,-33.3416
-252,-678,6.87213,33.7032,-0.014813,0.0082542,0.00424169,0.00900945,-0.0155682,1.39459,0.0143574,0.0189249,972,1702,6.87215,-33.7032
-245,-678,6.86462,34.1555,-0.0092939,0.00696735,0.0031615,0.00756038,-0.00988693,1.38537,0.010103,0.0193461,979,1702,6.86463,-34.1555
-238,-678,6.85272,34.5596,-0.00554247,0.00582216,0.00275989,0.00645694,-0.00617725,1.34473,0.00729495,0.0156848,986,1702,6.8527,-34.5595
-231,-678,6.79614,34.9736,-0.00406845,0.00591052,0.00254138,0.00652046,-0.00467839,1.33525,0.00649475,0.0131626,993,1702,6.79615,-34.9736
-224,-678,6.7627,35.3508,-0.00295715,0.0052163,0.0023974,0.0058676,-0.00360845,1.30553,0.00552258,0.013469,1000,1702,6.76268,-35.3508
-217,-678,6.77295,35.7643,-0.00263928,0.00428773,0.00228927,0.00497593,-0.00332747,1.27877,0.00482536,0.0137593,1007,1702,6.77294,-35.7642
-210,-678,6.77478,36.2,-0.00225871,0.00340628,0.00218934,0.00415376,-0.00300619,1.24179,0.00415146,0.0142303,1014,1702,6.77476,-36.1999
-203,-678,6.75366,36.5574,-0.00188558,0.00266626,0.0021243,0.00350362,-0.00272294,1.19532,0.00360431,0.0177523,1021,1702,6.75367,-36.5574
-196,-678,6.73352,36.9252,-0.00154392,0.0018738,0.00196747,0.00277092,-0.00244104,1.14298,0.00301113,0.0173045,1028,1702,6.73351,-36.9251
-189,-678,6.71997,37.3136,-0.00115323,0.00111338,0.00170068,0.00202377,-0.00206363,1.0793,0.0023599,0.0105538,1035,1702,6.71998,-37.3136
-182,-678,6.72498,37.6842,-0.000772057,0.000907312,0.00149634,0.00178346,-0.00164821,1.04108,0.00198179,0.0100623,1042,1702,6.72496,-37.6842
-175,-678,6.71277,38.0251,-0.000373567,0.000874759,0.0014053,0.00178827,-0.00128708,0.994387,0.0017834,0.0111051,1049,1702,6.71279,-38.0252
-168,-678,6.70056,38.3685,0.000260796,0.00101381,0.00138595,0.00207348,-0.000798874,0.918028,0.00171191,0.0108677,1056,1702,6.70056,-38.3685
-161,-678,6.70679,38.6931,0.000851457,0.00142642,0.00134077,0.00251018,-0.000232305,0.891006,0.00175602,0.00949971,1063,1702,6.70684,-38.6931
-154,-678,6.71216,39.0201,0.00161172,0.0021184,0.00135758,0.00324608,0.000484039,0.877642,0.00202211,0.00876249,1070,1702,6.71218,-39.0202
-147,-678,6.71643,39.338,0.0025446,0.00284412,0.00142131,0.00412354,0.00126518,0.837888,0.00243924,0.0105657,1077,1702,6.71648,-39.338
-140,-678,6.73218,39.6619,0.00357971,0.00354181,0.00144981,0.0050107,0.00211082,0.778863,0.00290486,0.0114438,1084,1702,6.73213,-39.6618
-133,-678,6.74451,39.9575,0.0047022,0.00427053,0.00152258,0.00602417,0.00294856,0.71499,0.00347831,0.0122394,1091,1702,6.74447,-39.9576
-126,-678,6.76672,40.2744,0.00576743,0.00490512,0.00153116,0.00692699,0.00374556,0.648158,0.00400372,0.0124151,1098,1702,6.76669,-40.2744
-119,-678,6.82263,40.8157,0.00700017,0.00537548,0.00137147,0.00778183,0.00459383,0.518023,0.00451721,0.0345559,1105,1702,6.82264,-40.8157
-112,-678,6.88293,41.3254,0,0,0,0,0,0,0,-1,1112,1702,6.88288,-41.3255
-105,-678,6.82874,41.1315,0,0,0,0,0,0,0,-1,1119,1702,6.82872,-41.1314
-98,-678,6.83228,41.5759,0,0,0,0,0,0,0,-1,1126,1702,6.83226,-41.576
-91,-678,6.92627,41.5552,0,0,0,0,0,0,0,-1,1133,1702,6.92632,-41.5552
-84,-678,6.58545,36.5073,0,0,0,0,0,0,0,-1,1140,1702,6.58544,-36.5073
-77,-678,5.95154,29.1879,0,0,0,0,0,0,0,-1,1147,1702,5.95156,-29.1878
-70,-678,4.75891,19.6552,0,0,0,0,0,0,0,-1,1154,1702,4.75895,-19.6551
-63,-678,3.41687,11.0365,0,0,0,0,0,0,0,-1,1161,1702,3.41682,-11.0365
-56,-678,1.72388,6.13159,0,0,0,0,0,0,0,-1,1168,1702,1.72388,-6.13157
-49,-678,-0.241699,5.29895,0,0,0,0,0,0,0,-1,1175,1702,-0.241682,-5.29897
-42,-678,0.297119,3.90649,0,0,0,0,0,0,0,-1,1182,1702,0.297139,-3.90655
-35,-678,0.498413,3.64038,0,0,0,0,0,0,0,-1,1189,1702,0.498471,-3.64038
-28,-678,0.132446,3.55994,0,0,0,0,0,0,0,-1,1196,1702,0.132432,-3.55993
-21,-678,8.22559,43.3126,0,0,0,0,0,0,0,-1,1203,1702,8.22555,-43.3127
-14,-678,8.69177,43.3484,0.033605,0.0273648,0.055468,0.0860406,-0.0250707,0.757303,0.0672925,0.0409106,1210,1702,8.69181,-43.3484
-7,-678,8.021,43.7202,0.0337581,0.034748,0.0551703,0.0894256,-0.0209195,0.789884,0.0676767,0.0451695,1217,1702,8.02097,-43.7202
0,-678,8.66211,43.7017,0.0346386,0.044649,0.0536442,0.093521,-0.0142334,0.831916,0.0675932,0.0445834,1224,1702,8.66208,-43.7017
7,-678,8.50708,44.1123,0.0361018,0.0556021,0.0507363,0.0975166,-0.0058127,0.880328,0.0670327,0.0446042,1231,1702,8.50707,-44.1123
14,-678,8.25403,44.7924,0.0371021,0.0671998,0.046454,0.100982,0.00332022,0.94204,0.0662421,0.0476514,1238,1702,8.25404,-44.7924
21,-678,8.48865,45.6239,0.0374747,0.0804419,0.039221,0.103678,0.0142388,1.03596,0.0648951,0.0441963,1245,1702,8.4887,-45.6239
28,-678,8.7196,45.9456,0.0371735,0.0934339,0.0324623,0.108258,0.0223489,1.14241,0.0659963,0.0441562,1252,1702,8.7196,-45.9456
35,-678,8.70544,46.296,0.0359924,0.102117,0.0256356,0.110892,0.0272182,1.24103,0.0667316,0.0449097,1259,1702,8.7055,-46.296
42,-678,8.73303,46.6,0.0345149,0.109861,0.0183853,0.114108,0.030268,1.34379,0.0682573,0.0480244,1266,1702,8.73304,-46.6
49,-678,9.11145,46.7153,0.0327843,0.116466,0.0112203,0.117945,0.031306,1.4398,0.070549,0.0474261,1273,1702,9.11141,-46.7153
56,-678,9.52075,46.7415,0,0,0,0,0,0,0,-1,1280,1702,9.5207,-46.7414
63,-678,9.87781,46.8269,0.0271246,0.12287,-0.00359648,0.123005,0.0269896,-1.5333,0.0746513,0.04902,1287,1702,9.87783,-46.8269
70,-678,8.5575,44.7954,0.0246608,0.12076,-0.00903351,0.121602,0.023819,-1.47788,0.0744103,0.0453905,1294,1702,8.55753,-44.7954
77,-678,8.61194,44.7097,0.0224858,0.115354,-0.0121595,0.11692,0.0209201,-1.44274,0.0719935,0.0435831,1301,1702,8.61193,-44.7097
84,-678,8.46448,44.6354,0.0222674,0.107553,-0.0139104,0.109765,0.0200559,-1.41313,0.0674919,0.0437227,1308,1702,8.4645,-44.6353
91,-678,8.49939,44.7925,0.0246468,0.0956693,-0.013727,0.0982301,0.022086,-1.38637,0.059507,0.0441987,1315,1702,8.49944,-44.7925
98,-678,9.02551,44.1821,0,0,0,0,0,0,0,-1,1322,1702,9.02547,-44.1821
105,-678,8.52698,44.1006,0,0,0,0,0,0,0,-1,1329,1702,8.52699,-44.1005
112,-678,8.71936,44.1639,0.0347492,0.0549139,-0.00729089,0.0572738,0.0323892,-1.25775,0.0331615,0.041629,1336,1702,8.71935,-44.1639
119,-678,9.27637,43.6665,0.0423132,0.0390015,-0.00260488,0.0437439,0.0375707,-0.502284,0.0273382,0.0458183,1343,1702,9.27639,-43.6665
126,-678,9.81348,43.2321,0.0504032,0.0150667,0.00521612,0.051157,0.0143128,0.143536,0.0304755,0.0482495,1350,1702,9.81343,-43.232
133,-678,10.2439,43.0886,0.0598629,-0.0112912,0.00824483,0.0608058,-0.012234,0.113863,0.0451709,0.0486157,1357,1702,10.2439,-43.0887
140,-678,11.2175,42.7131,0.0694878,-0.0196609,0.0114139,0.070926,-0.0210991,0.125339,0.0556662,0.0479719,1364,1702,11.2176,-42.7131
147,-678,12.5059,42.1718,0,0,0,0,0,0,0,-1,1371,1702,12.5059,-42.1717
154,-678,13.7267,41.666,0,0,0,0,0,0,0,-1,1378,1702,13.7266,-41.666
161,-678,8.81226,34.8624,0,0,0,0,0,0,0,-1,1385,1702,8.81229,-34.8624
168,-678,4.21863,5.25781,0,0,0,0,0,0,0,-1,1392,1702,4.21865,-5.25781
175,-678,5.21899,5.9635,0,0,0,0,0,0,0,-1,1399,1702,5.21894,-5.96346
182,-678,7.31262,6.75122,0,0,0,0,0,0,0,-1,1406,1702,7.3126,-6.75123
189,-678,5.96021,6.36853,0,0,0,0,0,0,0,-1,1413,1702,5.96018,-6.36851
196,-678,5.01599,8.15771,0,0,0,0,0,0,0,-1,1420,1702,5.01596,-8.15767
203,-678,4.64771,13.0559,0,0,0,0,0,0,0,-1,1427,1702,4.64766,-13.0559
210,-678,5.6532,18.5957,0,0,0,0,0,0,0,-1,1434,1702,5.65318,-18.5958
217,-678,6.88049,23.4835,0,0,0,0,0,0,0,-1,1441,1702,6.88047,-23.4835
224,-678,8.521,32.0977,0,0,0,0,0,0,0,-1,1448,1702,8.52098,-32.0977
231,-678,9.91479,41.4397,0,0,0,0,0,0,0,-1,1455,1702,9.91484,-41.4397
238,-678,10.0498,41.1683,0,0,0,0,0,0,0,-1,1462,1702,10.0498,-41.1683
245,-678,10.1475,40.8131,0,0,0,0,0,0,0,-1,1469,1702,10.1474,-40.8131
252,-678,10.1748,40.58,0.0048594,-0.00540556,0.00115266,0.00498724,-0.0055334,0.110458,0.00607682,0.0280618,1476,1702,10.1748,-40.58
259,-678,10.1752,40.3341,0.00443177,-0.00495393,0.000950603,0.00452708,-0.00504924,0.0999301,0.00553163,0.0173209,1483,1702,10.1752,-40.3342
266,-678,10.2102,40.0194,0.0040051,-0.00450213,0.000813038,0.0040821,-0.00457914,0.0944313,0.00500331,0.0120452,1490,1702,10.2102,-40.0195
273,-678,10.2209,39.7345,0.00365368,-0.00399823,0.000761161,0.00372866,-0.00407321,0.0981913,0.00450588,0.0111358,1497,1702,10.221,-39.7346
280,-678,10.2073,39.446,0.00325805,-0.00312385,0.000636298,0.00332088,-0.00318667,0.0984126,0.0037574,0.0115237,1504,1702,10.2073,-39.446
287,-678,10.2273,39.0977,0.00281215,-0.00217954,0.000514574,0.00286464,-0.00223203,0.101662,0.00295011,0.0112787,1511,1702,10.2272,-39.0976
294,-678,10.2415,38.7571,0.0024405,-0.00099099,0.000253063,0.00245906,-0.00100955,0.0732195,0.00206007,0.0121074,1518,1702,10.2414,-38.7571
301,-678,10.2267,38.4412,0.00207579,8.02304e-05,5.31828e-06,0.00207581,8.02162e-05,0.00266503,0.00135792,0.0126002,1525,1702,10.2266,-38.4411
308,-678,10.2316,38.1173,0.00171679,0.000926844,-0.000255683,0.00179233,0.000851309,-0.287252,0.00103523,0.0139439,1532,1702,10.2316,-38.1173
315,-678,10.2323,37.7893,0.00137911,0.00151795,-0.000453918,0.00190772,0.000989331,-0.861276,0.00110168,0.0143319,1539,1702,10.2322,-37.7893
322,-678,10.2228,37.4828,0.00107174,0.00192385,-0.000585043,0.00222153,0.000774056,-1.10011,0.0013021,0.0170448,1546,1702,10.2228,-37.4828
329,-678,10.2048,37.1305,0.000805043,0.00186368,-0.000659004,0.00217962,0.000489101,-1.12374,0.00132059,0.015282,1553,1702,10.2048,-37.1305
336,-678,10.1885,36.752,0.000574348,0.00170374,-0.000623778,0.00198046,0.000297629,-1.15326,0.00123313,0.0127149,1560,1702,10.1885,-36.7519
343,-678,10.2047,36.3762,0.000971134,0.00110007,-0.000348187,0.00138971,0.000681497,-0.876939,0.000802398,0.0134648,1567,1702,10.2047,-36.3763
350,-678,10.2128,36.0125,0.00181686,-0.000139185,-0.000219728,0.00184124,-0.000163564,-0.110498,0.00128549,0.0133095,1574,1702,10.2127,-36.0125
357,-678,10.1924,35.6334,0.00244502,-0.00144147,-8.47674e-06,0.00244504,-0.00144148,-0.00218106,0.00226869,0.00987431,1581,1702,10.1924,-35.6335
364,-678,10.1666,35.2546,0.00338504,-0.00278075,0.000275811,0.00339735,-0.00279306,0.0446136,0.00357971,0.0107087,1588,1702,10.1666,-35.2547
371,-678,10.14,34.8818,0.00456248,-0.00431669,0.000669719,0.00461271,-0.00436692,0.0748614,0.00518504,0.0118092,1595,1702,10.14,-34.8818
378,-678,10.1243,34.4799,0.00593157,-0.00630637,0.00119494,0.00604715,-0.00642195,0.0964291,0.00720013,0.0121484,1602,1702,10.1242,-34.4799
385,-678,10.1228,34.0817,0.00754132,-0.00788787,0.00160043,0.00770558,-0.00805213,0.102277,0.00909845,0.0124462,1609,1702,10.1227,-34.0817
392,-678,10.1589,33.7677,0.00903311,-0.00978951,0.00199361,0.00924194,-0.00999835,0.104373,0.0111112,0.0232235,1616,1702,10.1589,-33.7676
399,-678,10.2767,33.5439,0.0104227,-0.0113986,0.00223672,0.0106496,-0.0116255,0.101101,0.0128647,0.0338937,1623,1702,10.2767,-33.5439
406,-678,10.0691,33.0313,0.0117978,-0.0127337,0.00255072,0.0120602,-0.0129961,0.102516,0.0144696,0.0417088,1630,1702,10.0691,-33.0312
413,-678,9.93298,32.4999,0,0,0,0,0,0,0,-1,1637,1702,9.93298,-32.4999
420,-678,9.6665,28.3398,0,0,0,0,0,0,0,-1,1644,1702,9.66649,-28.3398
427,-678,4.57483,10.1555,0,0,0,0,0,0,0,-1,1651,1702,4.57485,-10.1555
434,-678,9.48169,21.6665,0,0,0,0,0,0,0,-1,1658,1702,9.48169,-21.6665
441,-678,8.64539,21.1864,0,0,0,0,0,0,0,-1,1665,1702,8.64536,-21.1865
448,-678,7.62244,20.7195,0,0,0,0,0,0,0,-1,1672,1702,7.6224,-20.7195
455,-678,5.44678,5.54297,0,0,0,0,0,0,0,-1,1679,1702,5.44676,-5.54294
462,-678,3.86792,2.87402,0,0,0,0,0,0,0,-1,1686,1702,3.86796,-2.87406
469,-678,2.26587,1.98755,0,0,0,0,0,0,0,-1,1693,1702,2.26592,-1.98755
476,-678,0,0,0,0,0,0,0,0,0,-1,1700,1702,0,0
483,-678,0,0,0,0,0,0,0,0,0,-1,1707,1702,0,0
490,-678,0,0,0,0,0,0,0,0,0,-1,1714,1702,0,0
497,-678,0,0,0,0,0,0,0,0,0,-1,1721,1702,0,0
504,-678,0,0,0,0,0,0,0,0,0,-1,1728,1702,0,0
511,-678,0,0,0,0,0,0,0,0,0,-1,1735,1702,0,0
518,-678,0,0,0,0,0,0,0,0,0,-1,1742,1702,0,0
525,-678,0,0,0,0,0,0,0,0,0,-1,1749,1702,0,0
532,-678,0,0,0,0,0,0,0,0,0,-1,1756,1702,0,0
539,-678,0,0,0,0,0,0,0,0,0,-1,1763,1702,0,0
546,-678,0,0,0,0,0,0,0,0,0,-1,1770,1702,0,0
553,-678,0,0,0,0,0,0,0,0,0,-1,1777,1702,0,0
560,-678,0,0,0,0,0,0,0,0,0,-1,1784,1702,0,0
567,-678,0,0,0,0,0,0,0,0,0,-1,1791,1702,0,0
574,-678,0,0,0,0,0,0,0,0,0,-1,1798,1702,0,0
581,-678,0,0,0,0,0,0,0,0,0,-1,1805,1702,0,0
588,-678,0,0,0,0,0,0,0,0,0,-1,1812,1702,0,0
595,-678,0,0,0,0,0,0,0,0,0,-1,1819,1702,0,0
602,-678,0,0,0,0,0,0,0,0,0,-1,1826,1702,0,0
609,-678,0,0,0,0,0,0,0,0,0,-1,1833,1702,0,0
616,-678,0,0,0,0,0,0,0,0,0,-1,1840,1702,0,0
623,-678,0,0,0,0,0,0,0,0,0,-1,1847,1702,0,0
630,-678,0,0,0,0,0,0,0,0,0,-1,1854,1702,0,0
637,-678,0,0,0,0,0,0,0,0,0,-1,1861,1702,0,0
644,-678,0,0,0,0,0,0,0,0,0,-1,1868,1702,0,0
651,-678,0,0,0,0,0,0,0,0,0,-1,1875,1702,0,0
658,-678,0,0,0,0,0,0,0,0,0,-1,1882,1702,0,0
665,-678,0,0,0,0,0,0,0,0,0,-1,1889,1702,0,0
672,-678,0,0,0,0,0,0,0,0,0,-1,1896,1702,0,0
679,-678,0,0,0,0,0,0,0,0,0,-1,1903,1702,0,0
686,-678,0,0,0,0,0,0,0,0,0,-1,1910,1702,0,0
693,-678,0,0,0,0,0,0,0,0,0,-1,1917,1702,0,0
700,-678,0,0,0,0,0,0,0,0,0,-1,1924,1702,0,0
707,-678,0,0,0,0,0,0,0,0,0,-1,1931,1702,0,0
714,-678,0,0,0,0,0,0,0,0,0,-1,1938,1702,0,0
721,-678,0,0,0,0,0,0,0,0,0,-1,1945,1702,0,0
728,-678,0,0,0,0,0,0,0,0,0,-1,1952,1702,0,0
735,-678,0,0,0,0,0,0,0,0,0,-1,1959,1702,0,0
742,-678,0,0,0,0,0,0,0,0,0,-1,1966,1702,0,0
749,-678,0,0,0,0,0,0,0,0,0,-1,1973,1702,0,0
756,-678,0,0,0,0,0,0,0,0,0,-1,1980,1702,0,0
763,-678,0,0,0,0,0,0,0,0,0,-1,1987,1702,0,0
770,-678,0,0,0,0,0,0,0,0,0,-1,1994,1702,0,0
777,-678,0,0,0,0,0,0,0,0,0,-1,2001,1702,0,0
784,-678,0,0,0,0,0,0,0,0,0,-1,2008,1702,0,0
791,-678,0,0,0,0,0,0,0,0,0,-1,2015,1702,0,0
798,-678,0,0,0,0,0,0,0,0,0,-1,2022,1702,0,0
805,-678,0,0,0,0,0,0,0,0,0,-1,2029,1702,0,0
812,-678,0,0,0,0,0,0,0,0,0,-1,2036,1702,0,0
-700,-685,0,0,0,0,0,0,0,0,0,-1,524,1709,0,0
-693,-685,0,0,0,0,0,0,0,0,0,-1,531,1709,0,0
-686,-685,0,0,0,0,0,0,0,0,0,-1,538,1709,0,0
-679,-685,0,0,0,0,0,0,0,0,0,-1,545,1709,0,0
-672,-685,0,0,0,0,0,0,0,0,0,-1,552,1709,0,0
-665,-685,0,0,0,0,0,0,0,0,0,-1,559,1709,0,0
-658,-685,0,0,0,0,0,0,0,0,0,-1,566,1709,0,0
-651,-685,0,0,0,0,0,0,0,0,0,-1,573,1709,0,0
-644,-685,0,0,0,0,0,0,0,0,0,-1,580,1709,0,0
-637,-685,0,0,0,0,0,0,0,0,0,-1,587,1709,0,0
-630,-685,0,0,0,0,0,0,0,0,0,-1,594,1709,0,0
-623,-685,0,0,0,0,0,0,0,0,0,-1,601,1709,0,0
-616,-685,0,0,0,0,0,0,0,0,0,-1,608,1709,0,0
-609,-685,0,0,0,0,0,0,0,0,0,-1,615,1709,0,0
-602,-685,0,0,0,0,0,0,0,0,0,-1,622,1709,0,0
-595,-685,0,0,0,0,0,0,0,0,0,-1,629,1709,0,0
-588,-685,0,0,0,0,0,0,0,0,0,-1,636,1709,0,0
-581,-685,0,0,0,0,0,0,0,0,0,-1,643,1709,0,0
-574,-685,0,0,0,0,0,0,0,0,0,-1,650,1709,0,0
-567,-685,0,0,0,0,0,0,0,0,0,-1,657,1709,0,0
-560,-685,0,0,0,0,0,0,0,0,0,-1,664,1709,0,0
-553,-685,0,0,0,0,0,0,0,0,0,-1,671,1709,0,0
-546,-685,0,0,0,0,0,0,0,0,0,-1,678,1709,0,0
-539,-685,0,0,0,0,0,0,0,0,0,-1,685,1709,0,0
-532,-685,0,0,0,0,0,0,0,0,0,-1,692,1709,0,0
-525,-685,0,0,0,0,0,0,0,0,0,-1,699,1709,0,0
-518,-685,0,0,0,0,0,0,0,0,0,-1,706,1709,0,0
-511,-685,0,0,0,0,0,0,0,0,0,-1,713,1709,0,0
-504,-685,0,0,0,0,0,0,0,0,0,-1,720,1709,0,0
-497,-685,0,0,0,0,0,0,0,0,0,-1,727,1709,0,0
-490,-685,0,0,0,0,0,0,0,0,0,-1,734,1709,0,0
-483,-685,0,0,0,0,0,0,0,0,0,-1,741,1709,0,0
-476,-685,0,0,0,0,0,0,0,0,0,-1,748,1709,0,0
-469,-685,0,0,0,0,0,0,0,0,0,-1,755,1709,0,0
-462,-685,0,0,0,0,0,0,0,0,0,-1,762,1709,0,0
-455,-685,0,0,0,0,0,0,0,0,0,-1,769,1709,0,0
-448,-685,0,0,0,0,0,0,0,0,0,-1,776,1709,0,0
-441,-685,0,0,0,0,0,0,0,0,0,-1,783,1709,0,0
-434,-685,0,0,0,0,0,0,0,0,0,-1,790,1709,0,0
-427,-685,0,0,0,0,0,0,0,0,0,-1,797,1709,0,0
-420,-685,0,0,0,0,0,0,0,0,0,-1,804,1709,0,0
-413,-685,0,0,0,0,0,0,0,0,0,-1,811,1709,0,0
-406,-685,0,0,0,0,0,0,0,0,0,-1,818,1709,0,0
-399,-685,0,0,0,0,0,0,0,0,0,-1,825,1709,0,0
-392,-685,0,0,0,0,0,0,0,0,0,-1,832,1709,0,0
-385,-685,0,0,0,0,0,0,0,0,0,-1,839,1709,0,0
-378,-685,0,0,0,0,0,0,0,0,0,-1,846,1709,0,0
-371,-685,0,0,0,0,0,0,0,0,0,-1,853,1709,0,0
-364,-685,0,0,0,0,0,0,0,0,0,-1,860,1709,0,0
-357,-685,0,0,0,0,0,0,0,0,0,-1,867,1709,0,0
-350,-685,0,0,0,0,0,0,0,0,0,-1,874,1709,0,0
-343,-685,-5.98505,6.56335,0,0,0,0,0,0,0,-1,881,1709,-5.98505,-6.56329
-336,-685,-6.51312,5.10571,0,0,0,0,0,0,0,-1,888,1709,-6.51311,-5.10575
-329,-685,-6.81384,3.34106,0,0,0,0,0,0,0,-1,895,1709,-6.81385,-3.341
-322,-685,3.83191,16.7219,0,0,0,0,0,0,0,-1,902,1709,3.8319,-16.7219
-315,-685,5.15784,21.4388,0,0,0,0,0,0,0,-1,909,1709,5.15783,-21.4389
-308,-685,6.36969,21.0303,0,0,0,0,0,0,0,-1,916,1709,6.36968,-21.0302
-301,-685,9.30634,30.3523,0,0,0,0,0,0,0,-1,923,1709,9.30631,-30.3523
-294,-685,8.4433,31.2916,0,0,0,0,0,0,0,-1,930,1709,8.44332,-31.2916
-287,-685,7.63013,32.0233,0,0,0,0,0,0,0,-1,937,1709,7.6301,-32.0233
-280,-685,6.79639,31.8198,0,0,0,0,0,0,0,-1,944,1709,6.79637,-31.8198
-273,-685,7.37439,31.8427,0,0,0,0,0,0,0,-1,951,1709,7.37442,-31.8426
-266,-685,7.32635,32.7491,0,0,0,0,0,0,0,-1,958,1709,7.32633,-32.7491
-259,-685,7.37201,33.3469,-0.0265002,0.0132433,0.00702302,0.0144478,-0.0277047,1.40094,0.0247347,0.0447422,965,1709,7.372,-33.347
-252,-685,7.4162,33.5911,-0.0193233,0.011552,0.00573963,0.0125845,-0.0203557,1.39282,0.0191936,0.0406833,972,1709,7.41618,-33.5911
-245,-685,7.37976,34.0919,-0.0123547,0.00988668,0.0043541,0.0107087,-0.0131768,1.3842,0.0138148,0.0364011,979,1709,7.37974,-34.092
-238,-685,7.27637,34.615,-0.0077373,0.00816192,0.00390468,0.0090691,-0.00864448,1.34251,0.0102279,0.027627,986,1709,7.27636,-34.615
-231,-685,7.18542,35.021,-0.00595491,0.00805493,0.00358599,0.00891945,-0.00681944,1.33423,0.00911377,0.0180902,993,1709,7.18541,-35.0211
-224,-685,7.15601,35.3798,-0.00462232,0.00701028,0.00333454,0.00789835,-0.00551039,1.31052,0.00778235,0.0158328,1000,1709,7.156,-35.3797
-217,-685,7.16156,35.7988,-0.00430289,0.00563352,0.00308918,0.00651563,-0.00518499,1.29265,0.0067699,0.0116925,1007,1709,7.16157,-35.7988
-210,-685,7.13373,36.213,-0.00393769,0.00435216,0.00292004,0.00527745,-0.00486297,1.26393,0.00585621,0.0161523,1014,1709,7.13372,-36.213
-203,-685,7.12427,36.5808,-0.00354886,0.00329275,0.00276933,0.0042732,-0.00452931,1.23053,0.00508285,0.0151863,1021,1709,7.12431,-36.5809
-196,-685,7.10242,36.9509,-0.00316947,0.00219324,0.00249685,0.00317575,-0.00415198,1.19591,0.00424316,0.0129951,1028,1709,7.10243,-36.9509
-189,-685,7.08105,37.3163,-0.00269481,0.00110668,0.00204128,0.00199514,-0.00358327,1.16028,0.00326391,0.0092879,1035,1709,7.08107,-37.3163
-182,-685,7.06848,37.6838,-0.00224834,0.000688792,0.00168108,0.00145243,-0.00301197,1.14441,0.00262942,0.0131662,1042,1709,7.06846,-37.6839
-175,-685,7.05347,38.0265,-0.00180209,0.000528283,0.00148607,0.0012515,-0.00252531,1.11788,0.00222149,0.0133127,1049,1709,7.05345,-38.0265
-168,-685,7.03455,38.3732,-0.00117635,0.000405161,0.00136533,0.0011922,-0.00196338,1.04788,0.00183992,0.011023,1056,1709,7.0346,-38.3732
-161,-685,7.05151,38.7131,-0.000522831,0.000642502,0.00120067,0.00139442,-0.00127475,1.0113,0.00154156,0.0120547,1063,1709,7.05152,-38.7132
-154,-685,7.05896,39.0494,0.000254016,0.00125225,0.00114729,0.00200429,-0.000498023,0.99057,0.00152947,0.0108056,1070,1709,7.05899,-39.0494
-147,-685,7.05151,39.3556,0.00115772,0.00187922,0.00118609,0.00275821,0.000278732,0.933028,0.0017533,0.00928568,1077,1709,7.0515,-39.3556
-140,-685,7.05688,39.6442,0.00213867,0.00243537,0.00119969,0.00349585,0.00107819,0.846916,0.00206713,0.0117657,1084,1709,7.05691,-39.6441
-133,-685,7.0658,39.9508,0.00316848,0.00300119,0.00124644,0.00433408,0.00183559,0.751895,0.00251202,0.0121606,1091,1709,7.06574,-39.9508
-126,-685,7.07739,40.2614,0.00413027,0.0034568,0.00125109,0.00508915,0.00249792,0.653937,0.00293839,0.00956471,1098,1709,7.07738,-40.2614
-119,-685,7.10486,40.5509,0.00511727,0.00376678,0.00115918,0.00578353,0.00310052,0.521665,0.00334202,0.0124623,1105,1709,7.1048,-40.551
-112,-685,7.11877,40.8113,0.00596967,0.00377977,0.00106138,0.00639966,0.00334979,0.384915,0.0036962,0.0131512,1112,1709,7.11875,-40.8113
-105,-685,7.11584,41.0773,0.00639986,0.00340888,0.00109777,0.00675952,0.00304922,0.316609,0.00390883,0.0141238,1119,1709,7.1159,-41.0773
-98,-685,7.16956,41.3333,0.00677611,0.00292542,0.000913661,0.0069819,0.00271963,0.221538,0.00406366,0.0192629,1126,1709,7.16955,-41.3332
-91,-685,7.19824,41.4856,0.00719965,0.00247916,0.000605938,0.00727618,0.00240262,0.12565,0.00428089,0.0340159,1133,1709,7.19827,-41.4856
-84,-685,7.17358,41.7557,0,0,0,0,0,0,0,-1,1140,1709,7.17361,-41.7558
-77,-685,7.20361,42.0918,0,0,0,0,0,0,0,-1,1147,1709,7.20365,-42.0917
-70,-685,7.354,42.5895,0,0,0,0,0,0,0,-1,1154,1709,7.35398,-42.5894
-63,-685,6.03015,29.7728,0,0,0,0,0,0,0,-1,1161,1709,6.0302,-29.7728
-56,-685,3.93909,15.8704,0,0,0,0,0,0,0,-1,1168,1709,3.93905,-15.8704
-49,-685,3.07471,9.86011,0,0,0,0,0,0,0,-1,1175,1709,3.07467,-9.86009
-42,-685,2.70618,7.54504,0,0,0,0,0,0,0,-1,1182,1709,2.7062,-7.54504
-35,-685,2.95264,7.91516,0,0,0,0,0,0,0,-1,1189,1709,2.95262,-7.91517
-28,-685,7.52161,42.4318,0,0,0,0,0,0,0,-1,1196,1709,7.52166,-42.4318
-21,-685,7.78882,43.392,0,0,0,0,0,0,0,-1,1203,1709,7.78885,-43.392
-14,-685,7.89087,43.5421,0.0229077,0.0209655,0.0416437,0.0635916,-0.0197185,0.77374,0.0502732,0.0310843,1210,1709,7.89087,-43.5422
-7,-685,7.9259,43.7455,0.0233777,0.0270927,0.0418012,0.0670776,-0.0166072,0.807602,0.0511607,0.0458077,1217,1709,7.9259,-43.7454
0,-685,8.25818,43.7344,0.0245166,0.0353056,0.0410573,0.0713212,-0.0114991,0.850718,0.0518077,0.0479186,1224,1709,8.25815,-43.7343
7,-685,8.2356,43.976,0.025977,0.0442564,0.0393703,0.075534,-0.00530058,0.899451,0.0522126,0.0431805,1231,1709,8.23556,-43.976
14,-685,8.21069,44.4294,0.0267939,0.0541565,0.0366486,0.0795942,0.0013562,0.964042,0.0526166,0.0449577,1238,1709,8.21072,-44.4295
21,-685,8.41345,44.7096,0.027188,0.0656002,0.0315365,0.0833187,0.00946955,1.05891,0.0526738,0.0427161,1245,1709,8.41349,-44.7096
28,-685,8.40588,44.9581,0.027081,0.0764639,0.0266304,0.0880884,0.0154565,1.15922,0.0543116,0.0459401,1252,1709,8.40589,-44.9581
35,-685,8.51123,44.973,0.0262587,0.0840711,0.0216852,0.091301,0.0190289,1.24898,0.0556202,0.0472068,1259,1709,8.51128,-44.973
42,-685,8.53162,44.6964,0,0,0,0,0,0,0,-1,1266,1709,8.53159,-44.6965
49,-685,9.03625,45.1139,0,0,0,0,0,0,0,-1,1273,1709,9.03621,-45.1139
56,-685,9.38379,45.1389,0,0,0,0,0,0,0,-1,1280,1709,9.38383,-45.1389
63,-685,8.61816,44.4821,0.0193606,0.101595,-0.000500702,0.101598,0.0193575,-1.56471,0.0622901,0.0455143,1287,1709,8.6182,-44.482
70,-685,8.60486,44.4923,0.0174133,0.0993127,-0.00469968,0.0995815,0.0171445,-1.51366,0.061475,0.0456956,1294,1709,8.60487,-44.4924
77,-685,8.58923,44.4451,0.015796,0.0939762,-0.00704094,0.0946052,0.015167,-1.48169,0.0586716,0.0479256,1301,1709,8.58922,-44.4451
84,-685,8.50928,44.2178,0.0157322,0.0866896,-0.00832935,0.0876542,0.0147676,-1.4555,0.0541886,0.0483902,1308,1709,8.50931,-44.2178
91,-685,8.65747,44.288,0.0175973,0.0761163,-0.00826344,0.0772608,0.0164528,-1.43317,0.046993,0.0437591,1315,1709,8.65748,-44.2879
98,-685,8.98547,44.0593,0.0198129,0.0646068,-0.00697464,0.0656677,0.018752,-1.41985,0.0390583,0.0402125,1322,1709,8.98542,-44.0593
105,-685,8.96497,44.071,0,0,0,0,0,0,0,-1,1329,1709,8.96493,-44.071
112,-685,8.72559,43.9374,0.0254403,0.0396479,-0.00310898,0.0402984,0.0247898,-1.36453,0.0234711,0.0432749,1336,1709,8.72564,-43.9374
119,-685,9.00891,43.8368,0.0315637,0.0257575,0.000374695,0.0315878,0.0257334,0.064179,0.0194037,0.0438377,1343,1709,9.00894,-43.8368
126,-685,9.20007,43.6603,0.0376154,0.00714882,0.00576636,0.0386703,0.00609395,0.180934,0.0240081,0.0464586,1350,1709,9.20006,-43.6602
133,-685,9.35889,43.5396,0,0,0,0,0,0,0,-1,1357,1709,9.35889,-43.5396
140,-685,9.28491,43.7561,0,0,0,0,0,0,0,-1,1364,1709,9.28495,-43.7561
147,-685,9.35986,43.8224,0,0,0,0,0,0,0,-1,1371,1709,9.35984,-43.8224
154,-685,9.33728,43.6781,0,0,0,0,0,0,0,-1,1378,1709,9.33722,-43.6782
161,-685,9.66296,43.4636,0,0,0,0,0,0,0,-1,1385,1709,9.66291,-43.4637
168,-685,4.37524,10.8778,0,0,0,0,0,0,0,-1,1392,1709,4.37525,-10.8778
175,-685,3.97522,8.94324,0,0,0,0,0,0,0,-1,1399,1709,3.97519,-8.94328
182,-685,3.98218,9.19739,0,0,0,0,0,0,0,-1,1406,1709,3.98221,-9.1974
189,-685,4.53479,15.2343,0,0,0,0,0,0,0,-1,1413,1709,4.53474,-15.2343
196,-685,9.64514,42.7035,0,0,0,0,0,0,0,-1,1420,1709,9.64508,-42.7034
203,-685,9.70422,42.3901,0,0,0,0,0,0,0,-1,1427,1709,9.70417,-42.3902
210,-685,9.91516,42.063,0,0,0,0,0,0,0,-1,1434,1709,9.91515,-42.0629
217,-685,9.80615,41.745,0,0,0,0,0,0,0,-1,1441,1709,9.80618,-41.745
224,-685,9.81311,41.6237,0,0,0,0,0,0,0,-1,1448,1709,9.81306,-41.6236
231,-685,9.78784,41.3827,0.00379555,-0.00258261,0.000906321,0.00392184,-0.00270889,0.138447,0.00384955,0.0454366,1455,1709,9.78785,-41.3827
238,-685,9.86938,41.0505,0.00373736,-0.00308184,0.000751558,0.00381921,-0.00316369,0.108477,0.0040375,0.0210661,1462,1709,9.86942,-41.0505
245,-685,9.86572,40.7828,0.00357681,-0.00324931,0.000779497,0.00366469,-0.00333719,0.112268,0.00404401,0.0195158,1469,1709,9.86569,-40.7829
252,-685,9.88306,40.5754,0.00335018,-0.00312274,0.000657575,0.00341631,-0.00318886,0.100224,0.00381425,0.0141962,1476,1709,9.88306,-40.5755
259,-685,9.90295,40.3181,0.00305065,-0.00284468,0.000461204,0.00308651,-0.00288054,0.0776028,0.00344576,0.0109723,1483,1709,9.90301,-40.3181
266,-685,9.92493,40.0233,0.00274141,-0.00255432,0.000298921,0.00275823,-0.00257114,0.0562077,0.00307754,0.0124761,1490,1709,9.92495,-40.0233
273,-685,9.922,39.7196,0.002483,-0.00212871,0.000164433,0.00248886,-0.00213457,0.0355951,0.00267195,0.0150424,1497,1709,9.92194,-39.7196
280,-685,9.91016,39.4265,0.00217205,-0.00147473,-2.59455e-05,0.00217223,-0.00147492,-0.00711416,0.00211847,0.0165558,1504,1709,9.9102,-39.4265
287,-685,9.91577,39.1272,0.00181807,-0.000678764,-0.000198375,0.00183373,-0.000694427,-0.0787919,0.00150823,0.0116908,1511,1709,9.91577,-39.1272
294,-685,9.9165,38.801,0.00150625,0.000274136,-0.000424365,0.00163826,0.000142121,-0.301599,0.00104802,0.0099609,1518,1709,9.91645,-38.801
301,-685,9.91028,38.4655,0.0011982,0.0011309,-0.000611294,0.00177677,0.000552329,-0.757903,0.00105,0.0128234,1525,1709,9.91025,-38.4655
308,-685,9.91858,38.1323,0.000907204,0.00178757,-0.00082536,0.00228279,0.000411981,-1.03037,0.00140481,0.0143879,1532,1709,9.91854,-38.1323
315,-685,9.8999,37.8083,0.000643379,0.00223245,-0.000981569,0.00270076,0.000175076,-1.12564,0.00174508,0.0130386,1539,1709,9.89991,-37.8083
322,-685,9.87463,37.4634,0.000404144,0.00255249,-0.00104869,0.00297951,-2.2884e-05,-1.1841,0.00199401,0.0202071,1546,1709,9.87463,-37.4634
329,-685,9.87048,37.1205,0.000193412,0.00235897,-0.00102858,0.00276964,-0.000217254,-1.19093,0.00192294,0.0174918,1553,1709,9.87048,-37.1205
336,-685,9.85315,36.7472,3.41099e-05,0.00193957,-0.000935389,0.002322,-0.000348318,-1.18269,0.00167621,0.0129279,1560,1709,9.85321,-36.7472
343,-685,9.82983,36.3848,0.000735944,0.00121056,-0.000471429,0.00150104,0.000445465,-1.01857,0.00089017,0.0124856,1567,1709,9.82978,-36.3848
350,-685,9.83313,36.017,0.00203718,-0.000275114,-0.000199807,0.00205431,-0.000292252,-0.0855656,0.00147663,0.0125353,1574,1709,9.83311,-36.017
357,-685,9.82593,35.6611,0.0030665,-0.0017769,0.00013125,0.00307005,-0.00178045,0.0270723,0.00283324,0.0101209,1581,1709,9.82597,-35.6611
364,-685,9.79431,35.3131,0.00455085,-0.00332961,0.000521983,0.00458527,-0.00336404,0.0658542,0.00460756,0.0104089,1588,1709,9.79431,-35.3131
371,-685,9.79822,34.9265,0.00641778,-0.00524386,0.00109179,0.00651912,-0.0053452,0.0925506,0.00686103,0.0169737,1595,1709,9.79827,-34.9265
378,-685,9.80762,34.5111,0.00864971,-0.00778533,0.00184254,0.00885375,-0.00798936,0.110287,0.00972864,0.0202744,1602,1709,9.8076,-34.5112
385,-685,9.71191,34.1741,0.0113382,-0.00977242,0.00241845,0.0116117,-0.0100459,0.112617,0.0125149,0.0332149,1609,1709,9.71192,-34.1741
392,-685,9.73779,33.9058,0.0140572,-0.0122063,0.00295902,0.0143865,-0.0125356,0.110816,0.0155557,0.0376303,1616,1709,9.73785,-33.9057
399,-685,9.96277,33.6732,0.0166937,-0.0143672,0.00336957,0.017055,-0.0147285,0.106827,0.0183666,0.0433531,1623,1709,9.96275,-33.6732
406,-685,10.119,33.4359,0,0,0,0,0,0,0,-1,1630,1709,10.1191,-33.4359
413,-685,8.40112,31.3749,0,0,0,0,0,0,0,-1,1637,1709,8.40117,-31.3749
420,-685,4.84631,10.3781,0,0,0,0,0,0,0,-1,1644,1709,4.84634,-10.378
427,-685,6.05151,9.21155,0,0,0,0,0,0,0,-1,1651,1709,6.05156,-9.21156
434,-685,4.87769,8.91418,0,0,0,0,0,0,0,-1,1658,1709,4.87768,-8.91413
441,-685,5.62,8.75549,0,0,0,0,0,0,0,-1,1665,1709,5.61996,-8.75545
448,-685,6.4043,8.58972,0,0,0,0,0,0,0,-1,1672,1709,6.40435,-8.58971
455,-685,2.31958,4.09802,0,0,0,0,0,0,0,-1,1679,1709,2.31957,-4.09803
462,-685,0,0,0,0,0,0,0,0,0,-1,1686,1709,0,0
469,-685,0,0,0,0,0,0,0,0,0,-1,1693,1709,0,0
476,-685,0,0,0,0,0,0,0,0,0,-1,1700,1709,0,0
483,-685,0,0,0,0,0,0,0,0,0,-1,1707,1709,0,0
490,-685,0,0,0,0,0,0,0,0,0,-1,1714,1709,0,0
497,-685,0,0,0,0,0,0,0,0,0,-1,1721,1709,0,0
504,-685,0,0,0,0,0,0,0,0,0,-1,1728,1709,0,0
511,-685,0,0,0,0,0,0,0,0,0,-1,1735,1709,0,0
518,-685,0,0,0,0,0,0,0,0,0,-1,1742,1709,0,0
525,-685,0,0,0,0,0,0,0,0,0,-1,1749,1709,0,0
532,-685,0,0,0,0,0,0,0,0,0,-1,1756,1709,0,0
539,-685,0,0,0,0,0,0,0,0,0,-1,1763,1709,0,0
546,-685,0,0,0,0,0,0,0,0,0,-1,1770,1709,0,0
553,-685,0,0,0,0,0,0,0,0,0,-1,1777,1709,0,0
560,-685,0,0,0,0,0,0,0,0,0,-1,1784,1709,0,0
567,-685,0,0,0,0,0,0,0,0,0,-1,1791,1709,0,0
574,-685,0,0,0,0,0,0,0,0,0,-1,1798,1709,0,0
581,-685,0,0,0,0,0,0,0,0,0,-1,1805,1709,0,0
588,-685,0,0,0,0,0,0,0,0,0,-1,1812,1709,0,0
595,-685,0,0,0,0,0,0,0,0,0,-1,1819,1709,0,0
602,-685,0,0,0,0,0,0,0,0,0,-1,1826,1709,0,0
609,-685,0,0,0,0,0,0,0,0,0,-1,1833,1709,0,0
616,-685,0,0,0,0,0,0,0,0,0,-1,1840,1709,0,0
623,-685,0,0,0,0,0,0,0,0,0,-1,1847,1709,0,0
630,-685,0,0,0,0,0,0,0,0,0,-1,1854,1709,0,0
637,-685,0,0,0,0,0,0,0,0,0,-1,1861,1709,0,0
644,-685,0,0,0,0,0,0,0,0,0,-1,1868,1709,0,0
651,-685,0,0,0,0,0,0,0,0,0,-1,1875,1709,0,0
658,-685,0,0,0,0,0,0,0,0,0,-1,1882,1709,0,0
665,-685,0,0,0,0,0,0,0,0,0,-1,1889,1709,0,0
672,-685,0,0,0,0,0,0,0,0,0,-1,1896,1709,0,0
679,-685,0,0,0,0,0,0,0,0,0,-1,1903,1709,0,0
686,-685,0,0,0,0,0,0,0,0,0,-1,1910,1709,0,0
693,-685,0,0,0,0,0,0,0,0,0,-1,1917,1709,0,0
700,-685,0,0,0,0,0,0,0,0,0,-1,1924,1709,0,0
707,-685,0,0,0,0,0,0,0,0,0,-1,1931,1709,0,0
714,-685,0,0,0,0,0,0,0,0,0,-1,1938,1709,0,0
721,-685,0,0,0,0,0,0,0,0,0,-1,1945,1709,0,0
728,-685,0,0,0,0,0,0,0,0,0,-1,1952,1709,0,0
735,-685,0,0,0,0,0,0,0,0,0,-1,1959,1709,0,0
742,-685,0,0,0,0,0,0,0,0,0,-1,1966,1709,0,0
749,-685,0,0,0,0,0,0,0,0,0,-1,1973,1709,0,0
756,-685,0,0,0,0,0,0,0,0,0,-1,1980,1709,0,0
763,-685,0,0,0,0,0,0,0,0,0,-1,1987,1709,0,0
770,-685,0,0,0,0,0,0,0,0,0,-1,1994,1709,0,0
777,-685,0,0,0,0,0,0,0,0,0,-1,2001,1709,0,0
784,-685,0,0,0,0,0,0,0,0,0,-1,2008,1709,0,0
791,-685,0,0,0,0,0,0,0,0,0,-1,2015,1709,0,0
798,-685,0,0,0,0,0,0,0,0,0,-1,2022,1709,0,0
805,-685,0,0,0,0,0,0,0,0,0,-1,2029,1709,0,0
812,-685,0,0,0,0,0,0,0,0,0,-1,2036,1709,0,0
-700,-692,0,0,0,0,0,0,0,0,0,-1,524,1716,0,0
-693,-692,0,0,0,0,0,0,0,0,0,-1,531,1716,0,0
-686,-692,0,0,0,0,0,0,0,0,0,-1,538,1716,0,0
-679,-692,0,0,0,0,0,0,0,0,0,-1,545,1716,0,0
-672,-692,0,0,0,0,0,0,0,0,0,-1,552,1716,0,0
-665,-692,0,0,0,0,0,0,0,0,0,-1,559,1716,0,0
-658,-692,0,0,0,0,0,0,0,0,0,-1,566,1716,0,0
-651,-692,0,0,0,0,0,0,0,0,0,-1,573,1716,0,0
-644,-692,0,0,0,0,0,0,0,0,0,-1,580,1716,0,0
-637,-692,0,0,0,0,0,0,0,0,0,-1,587,1716,0,0
-630,-692,0,0,0,0,0,0,0,0,0,-1,594,1716,0,0
-623,-692,0,0,0,0,0,0,0,0,0,-1,601,1716,0,0
-616,-692,0,0,0,0,0,0,0,0,0,-1,608,1716,0,0
-609,-692,0,0,0,0,0,0,0,0,0,-1,615,1716,0,0
-602,-692,0,0,0,0,0,0,0,0,0,-1,622,1716,0,0
-595,-692,0,0,0,0,0,0,0,0,0,-1,629,1716,0,0
-588,-692,0,0,0,0,0,0,0,0,0,-1,636,1716,0,0
-581,-692,0,0,0,0,0,0,0,0,0,-1,643,1716,0,0
-574,-692,0,0,0,0,0,0,0,0,0,-1,650,1716,0,0
-567,-692,0,0,0,0,0,0,0,0,0,-1,657,1716,0,0
-560,-692,0,0,0,0,0,0,0,0,0,-1,664,1716,0,0
-553,-692,0,0,0,0,0,0,0,0,0,-1,671,1716,0,0
-546,-692,0,0,0,0,0,0,0,0,0,-1,678,1716,0,0
-539,-692,0,0,0,0,0,0,0,0,0,-1,685,1716,0,0
-532,-692,0,0,0,0,0,0,0,0,0,-1,692,1716,0,0
-525,-692,0,0,0,0,0,0,0,0,0,-1,699,1716,0,0
-518,-692,0,0,0,0,0,0,0,0,0,-1,706,1716,0,0
-511,-692,0,0,0,0,0,0,0,0,0,-1,713,1716,0,0
-504,-692,0,0,0,0,0,0,0,0,0,-1,720,1716,0,0
-497,-692,0,0,0,0,0,0,0,0,0,-1,727,1716,0,0
-490,-692,0,0,0,0,0,0,0,0,0,-1,734,1716,0,0
-483,-692,0,0,0,0,0,0,0,0,0,-1,741,1716,0,0
-476,-692,0,0,0,0,0,0,0,0,0,-1,748,1716,0,0
-469,-692,0,0,0,0,0,0,0,0,0,-1,755,1716,0,0
-462,-692,0,0,0,0,0,0,0,0,0,-1,762,1716,0,0
-455,-692,0,0,0,0,0,0,0,0,0,-1,769,1716,0,0
-448,-692,0,0,0,0,0,0,0,0,0,-1,776,1716,0,0
-441,-692,0,0,0,0,0,0,0,0,0,-1,783,1716,0,0
-434,-692,0,0,0,0,0,0,0,0,0,-1,790,1716,0,0
-427,-692,0,0,0,0,0,0,0,0,0,-1,797,1716,0,0
-420,-692,0,0,0,0,0,0,0,0,0,-1,804,1716,0,0
-413,-692,0,0,0,0,0,0,0,0,0,-1,811,1716,0,0
-406,-692,0,0,0,0,0,0,0,0,0,-1,818,1716,0,0
-399,-692,0,0,0,0,0,0,0,0,0,-1,825,1716,0,0
-392,-692,0,0,0,0,0,0,0,0,0,-1,832,1716,0,0
-385,-692,0,0,0,0,0,0,0,0,0,-1,839,1716,0,0
-378,-692,0,0,0,0,0,0,0,0,0,-1,846,1716,0,0
-371,-692,0,0,0,0,0,0,0,0,0,-1,853,1716,0,0
-364,-692,0,0,0,0,0,0,0,0,0,-1,860,1716,0,0
-357,-692,0,0,0,0,0,0,0,0,0,-1,867,1716,0,0
-350,-692,0,0,0,0,0,0,0,0,0,-1,874,1716,0,0
-343,-692,0,0,0,0,0,0,0,0,0,-1,881,1716,0,0
-336,-692,0,0,0,0,0,0,0,0,0,-1,888,1716,0,0
-329,-692,3.03107,4.10266,0,0,0,0,0,0,0,-1,895,1716,3.03105,-4.10267
-322,-692,4.43713,18.5242,0,0,0,0,0,0,0,-1,902,1716,4.43711,-18.5241
-315,-692,5.38965,17.975,0,0,0,0,0,0,0,-1,909,1716,5.38963,-17.975
-308,-692,5.86938,17.4392,0,0,0,0,0,0,0,-1,916,1716,5.86937,-17.4392
-301,-692,8.65558,20.7662,0,0,0,0,0,0,0,-1,923,1716,8.65556,-20.7663
-294,-692,7.04529,27.412,0,0,0,0,0,0,0,-1,930,1716,7.04529,-27.412
-287,-692,7.63824,32.4249,0,0,0,0,0,0,0,-1,937,1716,7.63826,-32.425
-280,-692,9.16382,29.8428,0,0,0,0,0,0,0,-1,944,1716,9.16379,-29.8427
-273,-692,8.92554,30.3801,0,0,0,0,0,0,0,-1,951,1716,8.92552,-30.3801
-266,-692,7.84357,32.5835,0,0,0,0,0,0,0,-1,958,1716,7.84354,-32.5835
-259,-692,7.96594,33.3291,0,0,0,0,0,0,0,-1,965,1716,7.96592,-33.3291
-252,-692,7.95612,33.468,0,0,0,0,0,0,0,-1,972,1716,7.9561,-33.468
-245,-692,7.93152,33.6737,-0.0160515,0.0142192,0.00607518,0.015393,-0.0172252,1.37994,0.018842,0.0485152,979,1716,7.93152,-33.6737
-238,-692,7.80829,34.5236,-0.0103409,0.0116567,0.00557252,0.0129878,-0.011672,1.33632,0.0142441,0.0455673,986,1716,7.80827,-34.5236
-231,-692,7.66675,35.0674,-0.0080361,0.0111484,0.00512321,0.0124308,-0.00931852,1.32552,0.0125998,0.0395475,993,1716,7.66674,-35.0674
-224,-692,7.55829,35.3947,-0.00640906,0.00950803,0.00478472,0.0108356,-0.00773663,1.30014,0.0107723,0.0199944,1000,1716,7.55832,-35.3947
-217,-692,7.52582,35.8004,-0.00624591,0.00736417,0.00434337,0.00863214,-0.00751387,1.28676,0.00932935,0.0130443,1007,1716,7.52581,-35.8004
-210,-692,7.50555,36.2021,-0.00596103,0.00546933,0.00405065,0.00675922,-0.00725092,1.26251,0.00809042,0.014646,1014,1716,7.50553,-36.2022
-203,-692,7.49573,36.5725,-0.00557378,0.00395049,0.00375176,0.00525083,-0.00687412,1.23716,0.00702123,0.0161265,1021,1716,7.49574,-36.5725
-196,-692,7.45398,36.965,-0.00517527,0.00245231,0.0033057,0.00368557,-0.00640853,1.21372,0.00589808,0.017352,1028,1716,7.45397,-36.965
-189,-692,7.41785,37.3055,-0.00462816,0.00101154,0.00261704,0.00203882,-0.00565544,1.19674,0.00460296,0.00927841,1035,1716,7.4178,-37.3056
-182,-692,7.40393,37.6855,-0.00411908,0.000381623,0.00206287,0.00118406,-0.00492152,1.19982,0.00373873,0.0134479,1042,1716,7.40399,-37.6855
-175,-692,7.37366,38.0564,-0.00361818,0.000107869,0.00172504,0.000783865,-0.00429417,1.19732,0.00315668,0.014614,1049,1716,7.37368,-38.0564
-168,-692,7.37988,38.3647,-0.0029748,-0.000249546,0.00146548,0.00038892,-0.00361326,1.15992,0.00254839,0.0117499,1056,1716,7.37991,-38.3647
-161,-692,7.39966,38.7253,-0.00221903,-0.000148708,0.00115837,0.000369637,-0.00273738,1.15004,0.00195978,0.0138689,1063,1716,7.39971,-38.7253
-154,-692,7.38232,39.0853,-0.0013877,0.000428013,0.00100936,0.000877731,-0.00183742,1.15165,0.0015999,0.0147894,1070,1716,7.38235,-39.0854
-147,-692,7.37427,39.3774,-0.000465457,0.00100217,0.00100195,0.00151028,-0.000973572,1.10146,0.00144517,0.014341,1077,1716,7.37424,-39.3775
-140,-692,7.36487,39.6635,0.000515224,0.00146169,0.000985338,0.00208154,-0.000104631,1.00927,0.00142385,0.0112252,1084,1716,7.36486,-39.6635
-133,-692,7.37292,39.9664,0.00151678,0.00192746,0.000997931,0.00274096,0.000703281,0.886864,0.00164381,0.0106622,1091,1716,7.37298,-39.9665
-126,-692,7.3739,40.2599,0.0024592,0.00228976,0.00100544,0.00338348,0.00136548,0.743366,0.00196552,0.00821492,1098,1716,7.37396,-40.2599
-119,-692,7.36353,40.5446,0.00331027,0.00253891,0.000991557,0.00398851,0.00186066,0.599921,0.00230449,0.0108657,1105,1716,7.36347,-40.5445
-112,-692,7.37549,40.8104,0.00394999,0.00257095,0.000957031,0.00444002,0.00208092,0.47323,0.00256513,0.0110021,1112,1716,7.37553,-40.8104
-105,-692,7.41833,41.073,0.0043352,0.00233984,0.000918561,0.00469366,0.00198137,0.372066,0.00272082,0.0160295,1119,1716,7.41838,-41.073
-98,-692,7.45703,41.3439,0.00466196,0.00202115,0.000757224,0.00486368,0.00181943,0.260345,0.00283757,0.0173874,1126,1716,7.457,-41.3439
-91,-692,7.43896,41.5701,0.0050133,0.00174212,0.000515266,0.00509254,0.00166288,0.152596,0.00299858,0.0194635,1133,1716,7.43897,-41.5701
-84,-692,7.48145,41.7758,0.00534092,0.00145253,4.50762e-05,0.00534144,0.001452,0.0115904,0.00318911,0.0234616,1140,1716,7.48141,-41.7758
-77,-692,7.47961,42.058,0.00547149,0.00101579,-0.000416733,0.00551013,0.000977144,-0.0924595,0.00339491,0.0190425,1147,1716,7.47967,-42.058
-70,-692,7.54785,42.3369,0.00522985,0.000771159,-0.000722579,0.00534403,0.000656981,-0.156718,0.00336514,0.0357659,1154,1716,7.54789,-42.337
-63,-692,7.63806,42.6094,0,0,0,0,0,0,0,-1,1161,1716,7.63801,-42.6093
-56,-692,7.54602,42.6521,0,0,0,0,0,0,0,-1,1168,1716,7.54598,-42.6521
-49,-692,7.53174,42.8939,0,0,0,0,0,0,0,-1,1175,1716,7.53173,-42.8939
-42,-692,7.60535,43.2471,0,0,0,0,0,0,0,-1,1182,1716,7.6053,-43.247
-35,-692,7.69592,43.4028,0,0,0,0,0,0,0,-1,1189,1716,7.6959,-43.4029
-28,-692,7.8053,43.4613,0,0,0,0,0,0,0,-1,1196,1716,7.80525,-43.4613
-21,-692,7.85693,43.4248,0.0140697,0.0100133,0.0287971,0.04091,-0.016827,0.750242,0.0342874,0.0350512,1203,1716,7.85699,-43.4248
-14,-692,7.89941,43.5393,0.0149099,0.0143951,0.0301163,0.0447699,-0.0154649,0.781124,0.0361224,0.0173692,1210,1716,7.89943,-43.5394
-7,-692,7.92188,43.719,0.0155397,0.0194757,0.0306595,0.0482303,-0.013215,0.817449,0.0373462,0.0164274,1217,1716,7.92186,-43.719
0,-692,7.94299,43.84,0.0166995,0.0262805,0.0306316,0.0524939,-0.00951387,0.862966,0.0385605,0.0205005,1224,1716,7.94298,-43.8399
7,-692,7.99756,43.9286,0.018,0.0335101,0.0298528,0.0565987,-0.00508857,0.912478,0.0395379,0.0244192,1231,1716,7.9976,-43.9286
14,-692,8.15918,44.1508,0.0185674,0.0417481,0.0282491,0.0606921,-0.000376573,0.980072,0.0405875,0.0272404,1238,1716,8.1592,-44.1507
21,-692,8.29724,44.245,0.018837,0.0512354,0.0247489,0.0646152,0.00545712,1.07518,0.0413779,0.0297316,1245,1716,8.29721,-44.245
28,-692,8.30591,44.2513,0.0187766,0.0599976,0.021283,0.0690141,0.00976005,1.17007,0.0431258,0.0319646,1252,1716,8.30591,-44.2513
35,-692,8.35156,44.3379,0.0181383,0.0662268,0.0177139,0.0720473,0.0123177,1.25332,0.0444976,0.0298305,1259,1716,8.35154,-44.3378
42,-692,8.43225,44.4349,0.0172943,0.0716241,0.0135323,0.0748081,0.0141103,1.33971,0.0458974,0.0263046,1266,1716,8.43222,-44.4349
49,-692,8.50146,44.4348,0.0161937,0.0759936,0.00957384,0.0774889,0.0146983,1.41586,0.0475237,0.031341,1273,1716,8.50143,-44.4348
56,-692,8.51611,44.4242,0.014341,0.0792103,0.0054069,0.0796579,0.0138935,1.48821,0.0491333,0.0392187,1280,1716,8.51606,-44.4242
63,-692,8.51843,44.4133,0.0129048,0.0792128,0.00106171,0.0792298,0.0128878,1.55479,0.0490911,0.0393584,1287,1716,8.51844,-44.4134
70,-692,8.61719,44.5013,0.0115621,0.0764538,-0.00213929,0.0765242,0.0114916,-1.53788,0.0476498,0.0350109,1294,1716,8.61715,-44.5014
77,-692,8.70044,44.4907,0.010573,0.07113,-0.00395477,0.0713872,0.0103158,-1.50586,0.0445527,0.0397808,1301,1716,8.7005,-44.4908
84,-692,8.6864,44.2887,0.010806,0.0642946,-0.00498884,0.0647559,0.0103447,-1.47859,0.0401689,0.0481693,1308,1716,8.68646,-44.2887
91,-692,8.92737,44.2279,0.0124183,0.0551513,-0.00510991,0.0557538,0.0118157,-1.45342,0.0339236,0.0450365,1315,1716,8.92736,-44.2279
98,-692,8.89563,44.1609,0.0142623,0.0456651,-0.00426673,0.0462345,0.0136929,-1.43813,0.027423,0.0354186,1322,1716,8.89564,-44.1609
105,-692,8.87939,44.1188,0.0160646,0.035499,-0.00349538,0.0361086,0.015455,-1.39815,0.0209192,0.0408443,1329,1716,8.87941,-44.1188
112,-692,8.89734,44.0376,0.0189332,0.0257012,-0.00167565,0.0260933,0.018541,-1.34091,0.0155039,0.0408973,1336,1716,8.89735,-44.0376
119,-692,8.98499,43.8989,0.0234472,0.0153633,0.000598181,0.0234912,0.0153193,0.0734637,0.0137703,0.0341403,1343,1716,8.98499,-43.899
126,-692,9.0675,43.7876,0.027559,0.00290441,0.00395919,0.0281792,0.00228422,0.155383,0.0180729,0.0348307,1350,1716,9.06746,-43.7875
133,-692,9.16125,43.7563,0.0311954,-0.00750377,0.00534747,0.0319207,-0.00822909,0.134816,0.0244888,0.0265092,1357,1716,9.16128,-43.7563
140,-692,9.11108,43.7695,0.0342643,-0.0107736,0.00636606,0.0351469,-0.0116561,0.137754,0.0281334,0.0317669,1364,1716,9.11105,-43.7695
147,-692,9.20752,43.6975,0.03576,-0.0119552,0.00812551,0.0371057,-0.0133009,0.164131,0.0301647,0.0397107,1371,1716,9.20754,-43.6975
154,-692,9.19934,43.5443,0.0338645,-0.0106709,0.00817349,0.0353172,-0.0121235,0.175894,0.0284601,0.0338356,1378,1716,9.19938,-43.5443
161,-692,9.36743,43.3928,0.0311184,-0.00910893,0.00788512,0.0326087,-0.0105993,0.186808,0.0260026,0.0430779,1385,1716,9.3674,-43.3928
168,-692,9.32056,43.2229,0,0,0,0,0,0,0,-1,1392,1716,9.32058,-43.2229
175,-692,9.43823,43.0441,0,0,0,0,0,0,0,-1,1399,1716,9.43818,-43.0441
182,-692,9.40796,42.83,0,0,0,0,0,0,0,-1,1406,1716,9.40799,-42.83
189,-692,9.54956,42.7297,0,0,0,0,0,0,0,-1,1413,1716,9.54951,-42.7297
196,-692,9.44873,42.4744,0.00529644,0.00131734,0.00209032,0.00619268,0.000421107,0.405047,0.00399549,0.0372769,1420,1716,9.44879,-42.4743
203,-692,9.4856,42.2861,0.00471834,0.000404338,0.00194124,0.00546325,-0.00034057,0.3664,0.00376083,0.024631,1427,1716,9.48562,-42.2862
210,-692,9.578,42.0602,0.00418348,-2.02062e-05,0.00165814,0.00475879,-0.000595524,0.333968,0.00338853,0.0193181,1434,1716,9.57799,-42.0601
217,-692,9.55896,41.8088,0.00356096,-0.000402341,0.00120244,0.00389724,-0.000738619,0.272697,0.00287615,0.017114,1441,1716,9.559,-41.8088
224,-692,9.56677,41.5963,0.00317473,-0.000377874,0.000968331,0.00342153,-0.000624666,0.249551,0.00251523,0.0138674,1448,1716,9.56678,-41.5963
231,-692,9.56555,41.3569,0.00285666,-0.00131472,0.000453818,0.00290546,-0.00136352,0.107124,0.00251772,0.0123439,1455,1716,9.5655,-41.3569
238,-692,9.57983,41.0662,0.00270898,-0.00153807,0.000301919,0.00273034,-0.00155943,0.0706157,0.00250726,0.0190455,1462,1716,9.57989,-41.0661
245,-692,9.57874,40.8003,0.00252387,-0.00158408,0.000268546,0.00254135,-0.00160156,0.0650034,0.00241234,0.0208241,1469,1716,9.57875,-40.8002
252,-692,9.60193,40.5715,0.00226793,-0.00146848,0.000167273,0.0022754,-0.00147596,0.0446493,0.00218218,0.0184065,1476,1716,9.60191,-40.5715
259,-692,9.60596,40.3088,0.00196227,-0.00129972,4.18107e-05,0.0019628,-0.00130025,0.0128148,0.00189683,0.0102591,1483,1716,9.60598,-40.3088
266,-692,9.60217,40.0261,0.0016792,-0.00107718,-0.00010984,0.00168357,-0.00108155,-0.0397652,0.00160901,0.0101358,1490,1716,9.60214,-40.0261
273,-692,9.60376,39.7096,0.00145483,-0.000623064,-0.000313266,0.00150103,-0.000669265,-0.146427,0.00128333,0.0147699,1497,1716,9.60379,-39.7096
280,-692,9.61072,39.4115,0.0011901,-7.94076e-05,-0.00057061,0.00140887,-0.000298181,-0.366117,0.00105281,0.0144895,1504,1716,9.61068,-39.4115
287,-692,9.6012,39.1277,0.000906283,0.000690906,-0.000813772,0.00161946,-2.22721e-05,-0.719614,0.00108714,0.0108724,1511,1716,9.60125,-39.1277
294,-692,9.5929,38.8158,0.000665942,0.00157235,-0.0010625,0.00227427,-3.5978e-05,-0.986986,0.00152831,0.010049,1518,1716,9.59292,-38.8158
301,-692,9.61523,38.4919,0.000429283,0.00234297,-0.00123834,0.00295107,-0.000178813,-1.11433,0.00202961,0.0134966,1525,1716,9.61528,-38.4919
308,-692,9.57813,38.1843,0.000228804,0.00292989,-0.0014823,0.00358464,-0.000425939,-1.15486,0.00254365,0.0169958,1532,1716,9.57818,-38.1844
315,-692,9.56995,37.8423,5.2209e-05,0.00336479,-0.00167048,0.0040609,-0.000643904,-1.17596,0.00294546,0.0157866,1539,1716,9.56989,-37.8422
322,-692,9.51953,37.4597,-0.000127087,0.00370172,-0.00169961,0.00434732,-0.000772689,-1.20778,0.00318716,0.0202466,1546,1716,9.5195,-37.4597
329,-692,9.51477,37.103,-0.000295117,0.00345864,-0.00159099,0.00404223,-0.000878712,-1.21922,0.00303049,0.016884,1553,1716,9.51483,-37.103
336,-692,9.50598,36.7571,-0.000404852,0.00284134,-0.00142707,0.00337949,-0.000942998,-1.21019,0.00262442,0.0118641,1560,1716,9.50594,-36.7571
343,-692,9.48853,36.422,0.000596105,0.00198899,-0.000737452,0.00230688,0.000278217,-1.1638,0.00145408,0.0135771,1567,1716,9.48852,-36.422
350,-692,9.49048,36.0719,0.00240191,0.000204792,-0.000248295,0.00242962,0.000177082,-0.111142,0.00156406,0.0168216,1574,1716,9.49053,-36.0719
357,-692,9.47583,35.6521,0.00392917,-0.00159198,0.000307462,0.00394624,-0.00160905,0.0554595,0.00330061,0.0237452,1581,1716,9.47582,-35.6521
364,-692,9.47595,35.2223,0.00611923,-0.00348122,0.00092155,0.00620689,-0.00356888,0.0948364,0.00571213,0.0294059,1588,1716,9.47594,-35.2223
371,-692,9.49011,34.9238,0.0089122,-0.00600387,0.00183993,0.00913581,-0.00622748,0.120937,0.00892281,0.0367352,1595,1716,9.49016,-34.9238
378,-692,9.47485,34.7639,0.0123801,-0.00940497,0.00300043,0.0127858,-0.00981066,0.134395,0.0130837,0.0441915,1602,1716,9.47485,-34.7639
385,-692,9.2804,34.307,0,0,0,0,0,0,0,-1,1609,1716,9.28039,-34.307
392,-692,9.17163,33.9335,0.0211959,-0.0152202,0.00459307,0.0217663,-0.0157906,0.12355,0.0217748,0.0495785,1616,1716,9.17167,-33.9335
399,-692,9.97913,33.9312,0.0259042,-0.0181982,0.00518925,0.0265065,-0.0188006,0.115561,0.0262839,0.0445184,1623,1716,9.97909,-33.9312
406,-692,10.6412,34.1552,0,0,0,0,0,0,0,-1,1630,1716,10.6412,-34.1551
413,-692,7.80396,32.5498,0,0,0,0,0,0,0,-1,1637,1716,7.80392,-32.5498
420,-692,5.48901,10.4845,0,0,0,0,0,0,0,-1,1644,1716,5.48906,-10.4845
427,-692,3.79578,8.60339,0,0,0,0,0,0,0,-1,1651,1716,3.79577,-8.6034
434,-692,4.78516,8.64636,0,0,0,0,0,0,0,-1,1658,1716,4.78512,-8.64634
441,-692,5.8208,8.74036,0,0,0,0,0,0,0,-1,1665,1716,5.82084,-8.7404
448,-692,6.73792,8.51013,0,0,0,0,0,0,0,-1,1672,1716,6.73793,-8.5101
455,-692,0,0,0,0,0,0,0,0,0,-1,1679,1716,0,0
462,-692,0,0,0,0,0,0,0,0,0,-1,1686,1716,0,0
469,-692,0,0,0,0,0,0,0,0,0,-1,1693,1716,0,0
476,-692,0,0,0,0,0,0,0,0,0,-1,1700,1716,0,0
483,-692,0,0,0,0,0,0,0,0,0,-1,1707,1716,0,0
490,-692,0,0,0,0,0,0,0,0,0,-1,1714,1716,0,0
497,-692,0,0,0,0,0,0,0,0,0,-1,1721,1716,0,0
504,-692,0,0,0,0,0,0,0,0,0,-1,1728,1716,0,0
511,-692,0,0,0,0,0,0,0,0,0,-1,1735,1716,0,0
518,-692,0,0,0,0,0,0,0,0,0,-1,1742,1716,0,0
525,-692,0,0,0,0,0,0,0,0,0,-1,1749,1716,0,0
532,-692,0,0,0,0,0,0,0,0,0,-1,1756,1716,0,0
539,-692,0,0,0,0,0,0,0,0,0,-1,1763,1716,0,0
546,-692,0,0,0,0,0,0,0,0,0,-1,1770,1716,0,0
553,-692,0,0,0,0,0,0,0,0,0,-1,1777,1716,0,0
560,-692,0,0,0,0,0,0,0,0,0,-1,1784,1716,0,0
567,-692,0,0,0,0,0,0,0,0,0,-1,1791,1716,0,0
574,-692,0,0,0,0,0,0,0,0,0,-1,1798,1716,0,0
581,-692,0,0,0,0,0,0,0,0,0,-1,1805,1716,0,0
588,-692,0,0,0,0,0,0,0,0,0,-1,1812,1716,0,0
595,-692,0,0,0,0,0,0,0,0,0,-1,1819,1716,0,0
602,-692,0,0,0,0,0,0,0,0,0,-1,1826,1716,0,0
609,-692,0,0,0,0,0,0,0,0,0,-1,1833,1716,0,0
616,-692,0,0,0,0,0,0,0,0,0,-1,1840,1716,0,0
623,-692,0,0,0,0,0,0,0,0,0,-1,1847,1716,0,0
630,-692,0,0,0,0,0,0,0,0,0,-1,1854,1716,0,0
637,-692,0,0,0,0,0,0,0,0,0,-1,1861,1716,0,0
644,-692,0,0,0,0,0,0,0,0,0,-1,1868,1716,0,0
651,-692,0,0,0,0,0,0,0,0,0,-1,1875,1716,0,0
658,-692,0,0,0,0,0,0,0,0,0,-1,1882,1716,0,0
665,-692,0,0,0,0,0,0,0,0,0,-1,1889,1716,0,0
672,-692,0,0,0,0,0,0,0,0,0,-1,1896,1716,0,0
679,-692,0,0,0,0,0,0,0,0,0,-1,1903,1716,0,0
686,-692,0,0,0,0,0,0,0,0,0,-1,1910,1716,0,0
693,-692,0,0,0,0,0,0,0,0,0,-1,1917,1716,0,0
700,-692,0,0,0,0,0,0,0,0,0,-1,1924,1716,0,0
707,-692,0,0,0,0,0,0,0,0,0,-1,1931,1716,0,0
714,-692,0,0,0,0,0,0,0,0,0,-1,1938,1716,0,0
721,-692,0,0,0,0,0,0,0,0,0,-1,1945,1716,0,0
728,-692,0,0,0,0,0,0,0,0,0,-1,1952,1716,0,0
735,-692,0,0,0,0,0,0,0,0,0,-1,1959,1716,0,0
742,-692,0,0,0,0,0,0,0,0,0,-1,1966,1716,0,0
749,-692,0,0,0,0,0,0,0,0,0,-1,1973,1716,0,0
756,-692,0,0,0,0,0,0,0,0,0,-1,1980,1716,0,0
763,-692,0,0,0,0,0,0,0,0,0,-1,1987,1716,0,0
770,-692,0,0,0,0,0,0,0,0,0,-1,1994,1716,0,0
777,-692,0,0,0,0,0,0,0,0,0,-1,2001,1716,0,0
784,-692,0,0,0,0,0,0,0,0,0,-1,2008,1716,0,0
791,-692,0,0,0,0,0,0,0,0,0,-1,2015,1716,0,0
798,-692,0,0,0,0,0,0,0,0,0,-1,2022,1716,0,0
805,-692,0,0,0,0,0,0,0,0,0,-1,2029,1716,0,0
812,-692,0,0,0,0,0,0,0,0,0,-1,2036,1716,0,0
-700,-699,0,0,0,0,0,0,0,0,0,-1,524,1723,0,0
-693,-699,0,0,0,0,0,0,0,0,0,-1,531,1723,0,0
-686,-699,0,0,0,0,0,0,0,0,0,-1,538,1723,0,0
-679,-699,0,0,0,0,0,0,0,0,0,-1,545,1723,0,0
-672,-699,0,0,0,0,0,0,0,0,0,-1,552,1723,0,0
-665,-699,0,0,0,0,0,0,0,0,0,-1,559,1723,0,0
-658,-699,0,0,0,0,0,0,0,0,0,-1,566,1723,0,0
-651,-699,0,0,0,0,0,0,0,0,0,-1,573,1723,0,0
-644,-699,0,0,0,0,0,0,0,0,0,-1,580,1723,0,0
-637,-699,0,0,0,0,0,0,0,0,0,-1,587,1723,0,0
-630,-699,0,0,0,0,0,0,0,0,0,-1,594,1723,0,0
-623,-699,0,0,0,0,0,0,0,0,0,-1,601,1723,0,0
-616,-699,0,0,0,0,0,0,0,0,0,-1,608,1723,0,0
-609,-699,0,0,0,0,0,0,0,0,0,-1,615,1723,0,0
-602,-699,0,0,0,0,0,0,0,0,0,-1,622,1723,0,0
-595,-699,0,0,0,0,0,0,0,0,0,-1,629,1723,0,0
-588,-699,0,0,0,0,0,0,0,0,0,-1,636,1723,0,0
-581,-699,0,0,0,0,0,0,0,0,0,-1,643,1723,0,0
-574,-699,0,0,0,0,0,0,0,0,0,-1,650,1723,0,0
-567,-699,0,0,0,0,0,0,0,0,0,-1,657,1723,0,0
-560,-699,0,0,0,0,0,0,0,0,0,-1,664,1723,0,0
-553,-699,0,0,0,0,0,0,0,0,0,-1,671,1723,0,0
-546,-699,0,0,0,0,0,0,0,0,0,-1,678,1723,0,0
-539,-699,0,0,0,0,0,0,0,0,0,-1,685,1723,0,0
-532,-699,0,0,0,0,0,0,0,0,0,-1,692,1723,0,0
-525,-699,0,0,0,0,0,0,0,0,0,-1,699,1723,0,0
-518,-699,0,0,0,0,0,0,0,0,0,-1,706,1723,0,0
-511,-699,0,0,0,0,0,0,0,0,0,-1,713,1723,0,0
-504,-699,0,0,0,0,0,0,0,0,0,-1,720,1723,0,0
-497,-699,0,0,0,0,0,0,0,0,0,-1,727,1723,0,0
-490,-699,0,0,0,0,0,0,0,0,0,-1,734,1723,0,0
-483,-699,0,0,0,0,0,0,0,0,0,-1,741,1723,0,0
-476,-699,0,0,0,0,0,0,0,0,0,-1,748,1723,0,0
-469,-699,0,0,0,0,0,0,0,0,0,-1,755,1723,0,0
-462,-699,0,0,0,0,0,0,0,0,0,-1,762,1723,0,0
-455,-699,0,0,0,0,0,0,0,0,0,-1,769,1723,0,0
-448,-699,0,0,0,0,0,0,0,0,0,-1,776,1723,0,0
-441,-699,0,0,0,0,0,0,0,0,0,-1,783,1723,0,0
-434,-699,0,0,0,0,0,0,0,0,0,-1,790,1723,0,0
-427,-699,0,0,0,0,0,0,0,0,0,-1,797,1723,0,0
-420,-699,0,0,0,0,0,0,0,0,0,-1,804,1723,0,0
-413,-699,0,0,0,0,0,0,0,0,0,-1,811,1723,0,0
-406,-699,0,0,0,0,0,0,0,0,0,-1,818,1723,0,0
-399,-699,0,0,0,0,0,0,0,0,0,-1,825,1723,0,0
-392,-699,0,0,0,0,0,0,0,0,0,-1,832,1723,0,0
-385,-699,0,0,0,0,0,0,0,0,0,-1,839,1723,0,0
-378,-699,0,0,0,0,0,0,0,0,0,-1,846,1723,0,0
-371,-699,0,0,0,0,0,0,0,0,0,-1,853,1723,0,0
-364,-699,0,0,0,0,0,0,0,0,0,-1,860,1723,0,0
-357,-699,0,0,0,0,0,0,0,0,0,-1,867,1723,0,0
-350,-699,0,0,0,0,0,0,0,0,0,-1,874,1723,0,0
-343,-699,0,0,0,0,0,0,0,0,0,-1,881,1723,0,0
-336,-699,0,0,0,0,0,0,0,0,0,-1,888,1723,0,0
-329,-699,0,0,0,0,0,0,0,0,0,-1,895,1723,0,0
-322,-699,0,0,0,0,0,0,0,0,0,-1,902,1723,0,0
-315,-699,6.20001,19.5193,0,0,0,0,0,0,0,-1,909,1723,6.20001,-19.5193
-308,-699,6.98151,18.9218,0,0,0,0,0,0,0,-1,916,1723,6.98151,-18.9217
-301,-699,4.72729,12.8752,0,0,0,0,0,0,0,-1,923,1723,4.72732,-12.8752
-294,-699,6.90332,19.8601,0,0,0,0,0,0,0,-1,930,1723,6.90332,-19.8601
-287,-699,7.71405,27.0637,0,0,0,0,0,0,0,-1,937,1723,7.71407,-27.0637
-280,-699,10.1707,29.3217,0,0,0,0,0,0,0,-1,944,1723,10.1707,-29.3216
-273,-699,7.89496,31.2267,0,0,0,0,0,0,0,-1,951,1723,7.89495,-31.2267
-266,-699,6.81915,20.8951,0,0,0,0,0,0,0,-1,958,1723,6.81914,-20.8952
-259,-699,5.39758,14.5466,0,0,0,0,0,0,0,-1,965,1723,5.39759,-14.5466
-252,-699,8.3866,31.6284,0,0,0,0,0,0,0,-1,972,1723,8.38657,-31.6284
-245,-699,8.58258,33.3793,0,0,0,0,0,0,0,-1,979,1723,8.5826,-33.3792
-238,-699,8.25885,34.5206,0,0,0,0,0,0,0,-1,986,1723,8.25887,-34.5207
-231,-699,8.2254,34.2489,0,0,0,0,0,0,0,-1,993,1723,8.22543,-34.249
-224,-699,8.11102,34.8665,-0.00865375,0.0128583,0.00689347,0.0148777,-0.0106732,1.28582,0.0148182,0.0412192,1000,1723,8.11105,-34.8664
-217,-699,7.94904,35.7081,-0.00875171,0.00963606,0.00615593,0.0115067,-0.0106223,1.27579,0.0127796,0.0284995,1007,1723,7.94903,-35.7081
-210,-699,7.87488,36.2114,-0.00866244,0.00690937,0.00567244,0.00875658,-0.0105096,1.25598,0.0111387,0.0183642,1014,1723,7.8749,-36.2114
-203,-699,7.85962,36.5669,-0.00825432,0.00473826,0.00516234,0.00653966,-0.0100557,1.23506,0.00965276,0.0206139,1021,1723,7.85963,-36.5669
-196,-699,7.82605,36.9585,-0.00782422,0.00267461,0.00449291,0.0043348,-0.0094844,1.21685,0.00816108,0.0167111,1028,1723,7.82601,-36.9585
-189,-699,7.78357,37.3262,-0.0071654,0.000746682,0.0035023,0.00207423,-0.00849295,1.20848,0.00646526,0.00942036,1035,1723,7.78351,-37.3262
-182,-699,7.74609,37.6943,-0.00657493,-0.00018602,0.00270638,0.000806294,-0.00756725,1.21936,0.00533395,0.0131971,1042,1723,7.74615,-37.6943
-175,-699,7.72473,38.0618,-0.00600904,-0.000625001,0.00220496,0.000162753,-0.00679679,1.22766,0.00458641,0.0145296,1049,1723,7.72477,-38.0618
-168,-699,7.74609,38.3945,-0.00530301,-0.0012458,0.0017901,-0.000568915,-0.0059799,1.20929,0.00381114,0.0144998,1056,1723,7.74605,-38.3945
-161,-699,7.73999,38.7268,-0.00439143,-0.00127652,0.0013309,-0.00078532,-0.00488262,1.21724,0.00302745,0.0125477,1063,1723,7.73999,-38.7268
-154,-699,7.69995,39.0765,-0.003454,-0.000695726,0.00108021,-0.000323041,-0.00382669,1.23857,0.00245055,0.0130528,1070,1723,7.6999,-39.0766
-147,-699,7.67285,39.3761,-0.00245903,-0.000120447,0.00102517,0.000265321,-0.00284479,1.21089,0.00199087,0.0159686,1077,1723,7.67285,-39.3761
-140,-699,7.66199,39.6649,-0.0014083,0.000328852,0.000974843,0.000765934,-0.00184538,1.14931,0.00154999,0.0109614,1084,1723,7.66193,-39.6649
-133,-699,7.66174,39.9938,-0.000354747,0.000797522,0.000955867,0.00133746,-0.000894682,1.05661,0.00129715,0.0097075,1091,1723,7.66176,-39.9938
-126,-699,7.66418,40.2751,0.000611012,0.00118143,0.000958696,0.00189644,-0.000104001,0.929977,0.00130035,0.0115687,1098,1723,7.66421,-40.2752
-119,-699,7.66553,40.5519,0.00143428,0.00148664,0.00097216,0.00243297,0.000487949,0.798859,0.00148628,0.0158414,1105,1723,7.66552,-40.5518
-112,-699,7.64575,40.8267,0.00213346,0.00169289,0.0009833,0.00292085,0.000905503,0.675204,0.00172645,0.0112266,1112,1723,7.64569,-40.8266
-105,-699,7.66516,41.0874,0.00254257,0.00163497,0.000888086,0.00308608,0.00109146,0.5492,0.00180701,0.0120119,1119,1723,7.66511,-41.0874
-98,-699,7.71509,41.3586,0.00284331,0.00147879,0.000764314,0.00318557,0.00113652,0.42103,0.00186418,0.014368,1126,1723,7.71506,-41.3587
-91,-699,7.72375,41.5764,0.00315988,0.00136393,0.000589358,0.00333601,0.0011878,0.290401,0.00195247,0.0207527,1133,1723,7.72374,-41.5764
-84,-699,7.72461,41.8035,0.00345552,0.00122423,0.000265664,0.00348671,0.00119304,0.116886,0.00204621,0.0246958,1140,1723,7.72466,-41.8035
-77,-699,7.75122,42.0476,0.00363259,0.000994203,-7.44623e-05,0.00363469,0.000992104,-0.0281927,0.00216941,0.0164184,1147,1723,7.75118,-42.0476
-70,-699,7.77246,42.2661,0.00358428,0.000857382,-0.000329659,0.00362356,0.000818096,-0.118615,0.00219444,0.0171472,1154,1723,7.77244,-42.2661
-63,-699,7.77649,42.5043,0.00236601,-0.00108361,0.00196806,0.00325811,-0.00197571,0.425587,0.00305183,0.0152249,1161,1723,7.77648,-42.5042
-56,-699,7.75146,42.6876,0.00300618,-0.00181771,0.00454229,0.00573718,-0.00454871,0.54133,0.00595176,0.0112125,1168,1723,7.75149,-42.6876
-49,-699,7.74841,42.9043,0.0037337,-0.00246179,0.00659957,0.00792638,-0.00665447,0.565969,0.00842893,0.02398,1175,1723,7.74843,-42.9043
-42,-699,7.79822,43.1405,0.0042347,-0.00272288,0.0101114,0.011449,-0.00993722,0.619718,0.0123576,0.028336,1182,1723,7.79825,-43.1406
-35,-699,7.83167,43.2833,0.00511553,-0.000593767,0.0131166,0.0156845,-0.0111628,0.678251,0.0155734,0.0260517,1189,1723,7.83164,-43.2833
-28,-699,7.92273,43.3964,0.00587889,0.00166266,0.0149541,0.0188727,-0.0113312,0.715373,0.0176185,0.0213272,1196,1723,7.92278,-43.3964
-21,-699,7.95081,43.4478,0.00662729,0.00422278,0.0166127,0.0220812,-0.0112311,0.749276,0.0195699,0.0145879,1203,1723,7.95084,-43.4478
-14,-699,7.96191,43.5826,0.0073822,0.00779463,0.0179797,0.0255693,-0.0103925,0.791133,0.02137,0.0120577,1210,1723,7.96195,-43.5826
-7,-699,7.99561,43.7277,0.00809831,0.0117261,0.0188118,0.0288113,-0.00898687,0.833462,0.0228014,0.00880511,1217,1723,7.99559,-43.7277
0,-699,8.04041,43.84,0.00933865,0.0171622,0.0193599,0.0330016,-0.00650075,0.885084,0.0244577,0.0110184,1224,1723,8.04038,-43.84
7,-699,8.0918,43.9446,0.010659,0.0228324,0.0193346,0.0370157,-0.00352439,0.937892,0.0259319,0.0165486,1231,1723,8.0918,-43.9445
14,-699,8.16833,44.051,0.0113545,0.02946,0.0187005,0.0411837,-0.00036916,1.01082,0.0275797,0.01838,1238,1723,8.16832,-44.0511
21,-699,8.2251,44.1069,0.0119216,0.0370107,0.0167264,0.045374,0.0035583,1.10715,0.0291357,0.0190012,1245,1723,8.22512,-44.107
28,-699,8.26965,44.1239,0.0122581,0.0439297,0.0147445,0.0497313,0.00645661,1.19593,0.0312253,0.0173555,1252,1723,8.2696,-44.1239
35,-699,8.30139,44.2122,0.0121169,0.048968,0.0125522,0.0528373,0.00824768,1.27178,0.0328229,0.0141785,1259,1723,8.30138,-44.2122
42,-699,8.35791,44.2753,0.0117729,0.0532909,0.00975674,0.0554694,0.00959438,1.35112,0.0342326,0.0136309,1266,1723,8.35793,-44.2753
49,-699,8.39929,44.3,0.0111754,0.0565588,0.00713833,0.0576551,0.0100791,1.41841,0.0355565,0.0155478,1273,1723,8.39932,-44.3001
56,-699,8.46277,44.334,0.010195,0.0586844,0.00455561,0.0591087,0.00977075,1.47793,0.0365864,0.0154351,1280,1723,8.46274,-44.334
63,-699,8.54517,44.3369,0.00940669,0.058705,0.00163704,0.0587593,0.00935239,1.53764,0.0364575,0.013727,1287,1723,8.5452,-44.337
70,-699,8.56934,44.3153,0.00855154,0.0560197,-0.000660222,0.0560289,0.00854236,-1.55689,0.0348558,0.0124423,1294,1723,8.56936,-44.3153
77,-699,8.59021,44.3046,0.00797314,0.0513466,-0.00198051,0.0514368,0.0078829,-1.52526,0.031989,0.0124753,1301,1723,8.5902,-44.3046
84,-699,8.6344,44.2528,0.00826162,0.0455619,-0.00277504,0.0457672,0.0080563,-1.49694,0.0282121,0.0146729,1308,1723,8.63438,-44.2528
91,-699,8.70178,44.2299,0.00952634,0.0381895,-0.00293747,0.0384874,0.0092284,-1.46971,0.0232022,0.0143111,1315,1723,8.70176,-44.2299
98,-699,8.75464,44.2201,0.0108779,0.0309018,-0.0024078,0.0311872,0.0105925,-1.45279,0.018312,0.0120394,1322,1723,8.75465,-44.2201
105,-699,8.78748,44.1754,0.0121691,0.0231443,-0.00193768,0.0234763,0.0118371,-1.40108,0.0135542,0.0167174,1329,1723,8.78747,-44.1754
112,-699,8.85339,44.0833,0.0141711,0.0160942,-0.000723049,0.0163358,0.0139296,-1.24843,0.0101836,0.0230151,1336,1723,8.85344,-44.0832
119,-699,8.84961,44.0054,0.017196,0.00877025,0.000720524,0.0172572,0.00870908,0.0846947,0.00996359,0.0169553,1343,1723,8.84965,-44.0054
126,-699,8.92249,43.9242,0.0197209,0.000750903,0.00277808,0.0201193,0.000352433,0.142462,0.013297,0.0178775,1350,1723,8.92246,-43.9242
133,-699,9.01501,43.835,0.0216801,-0.00523781,0.00357208,0.022146,-0.00570377,0.129712,0.0169875,0.0150031,1357,1723,9.01496,-43.8349
140,-699,9.01697,43.7244,0.0232076,-0.00715907,0.00422187,0.0237837,-0.0077351,0.135604,0.0189674,0.0161543,1364,1723,9.01699,-43.7244
147,-699,9.06909,43.6226,0.0237133,-0.00770681,0.00525847,0.02457,-0.00856351,0.161499,0.0198598,0.0148587,1371,1723,9.0691,-43.6226
154,-699,9.07495,43.4808,0.0222491,-0.00666423,0.0052317,0.0231666,-0.00758176,0.173613,0.0184971,0.0146642,1378,1723,9.07494,-43.4808
161,-699,9.08765,43.3169,0.0203108,-0.00548247,0.005002,0.0212468,-0.00641852,0.184996,0.0167199,0.0108648,1385,1723,9.08761,-43.3169
168,-699,9.14551,43.187,0.0177629,-0.0046801,0.00506997,0.018855,-0.00577228,0.212179,0.0148723,0.0120408,1392,1723,9.14551,-43.187
175,-699,9.21826,43.0488,0.0149992,-0.00328224,0.00472827,0.0161497,-0.00443275,0.238687,0.0125086,0.0143888,1399,1723,9.2183,-43.0488
182,-699,9.22375,42.8513,0.0122076,-0.00145931,0.00373001,0.0131594,-0.00241104,0.249823,0.00967723,0.0150741,1406,1723,9.2238,-42.8513
189,-699,9.21777,42.6672,0.00813406,-1.45733e-05,0.00246704,0.00882276,-0.000703273,0.27223,0.00612973,0.015759,1413,1723,9.21773,-42.6673
196,-699,9.22925,42.4695,0.00382851,0.00117158,0.00136235,0.00440289,0.000597203,0.398994,0.00275783,0.0155685,1420,1723,9.22928,-42.4695
203,-699,9.24646,42.2727,0.00337165,0.000574542,0.00123123,0.00383639,0.000109799,0.360928,0.00252179,0.0131851,1427,1723,9.24651,-42.2727
210,-699,9.27771,42.0641,0.0029493,0.000314865,0.00101809,0.00329689,-3.27216e-05,0.329002,0.00220891,0.012869,1434,1723,9.27773,-42.0641
217,-699,9.29846,41.847,0.00246765,9.82798e-05,0.000683875,0.00265087,-8.49402e-05,0.261767,0.00179623,0.0138009,1441,1723,9.2984,-41.847
224,-699,9.30481,41.6151,0.00214782,0.000144576,0.0004836,0.00225845,3.39411e-05,0.224904,0.00149445,0.0157095,1448,1723,9.30479,-41.6152
231,-699,9.32288,41.3638,0.00184412,-0.000248775,0.000161833,0.00185656,-0.000261215,0.076717,0.00133333,0.0126933,1455,1723,9.32286,-41.3638
238,-699,9.3092,41.0979,0.00168035,-0.000314352,3.04606e-05,0.00168082,-0.000314817,0.015266,0.00123889,0.0110427,1462,1723,9.30923,-41.0979
245,-699,9.3064,40.8362,0.00152941,-0.000272958,-8.33491e-05,0.00153325,-0.000276804,-0.0461131,0.00112584,0.0123994,1469,1723,9.30634,-40.8361
252,-699,9.31055,40.5875,0.00128732,-0.000182599,-0.000214657,0.00131802,-0.000213305,-0.142082,0.000957733,0.0107748,1476,1723,9.31058,-40.5875
259,-699,9.30078,40.3126,0.00101111,-0.000129494,-0.000319799,0.00109466,-0.000213038,-0.25553,0.000810177,0.0110949,1483,1723,9.30079,-40.3126
266,-699,9.29529,40.0253,0.000787205,4.85312e-05,-0.000504411,0.00104304,-0.000207304,-0.469388,0.000773774,0.0125755,1490,1723,9.29535,-40.0253
273,-699,9.30579,39.7227,0.000614611,0.000587989,-0.000811318,0.00141273,-0.000210127,-0.777196,0.00101911,0.0118393,1497,1723,9.3058,-39.7227
280,-699,9.3175,39.4182,0.000390263,0.00111403,-0.00115183,0.00195949,-0.00045519,-0.937607,0.00148155,0.0124936,1504,1723,9.31747,-39.4182
287,-699,9.29138,39.1237,0.000155099,0.00196647,-0.00146863,0.00278623,-0.000664653,-1.0617,0.00211415,0.0105237,1511,1723,9.29134,-39.1237
294,-699,9.28979,38.8091,-4.87218e-05,0.00291595,-0.00174471,0.00372301,-0.000855781,-1.13753,0.00281103,0.0105131,1518,1723,9.28975,-38.8091
301,-699,9.29858,38.4995,-0.000246278,0.00373875,-0.00190843,0.00450526,-0.00101279,-1.18887,0.00339188,0.0125349,1525,1723,9.29861,-38.4995
308,-699,9.27063,38.1797,-0.000384272,0.00440401,-0.00218097,0.00524847,-0.00122873,-1.20138,0.00397241,0.0172357,1532,1723,9.2706,-38.1797
315,-699,9.26404,37.8307,-0.000498127,0.00497787,-0.00241186,0.00588867,-0.00140892,-1.20972,0.00447006,0.0196607,1539,1723,9.26405,-37.8307
322,-699,9.22107,37.4849,-0.000631838,0.00547158,-0.00241453,0.00631126,-0.00147152,-1.23612,0.00477421,0.0205618,1546,1723,9.22105,-37.4848
329,-699,9.1748,37.1414,-0.000761287,0.00528192,-0.00221288,0.00600558,-0.00148494,-1.25474,0.00457966,0.0177288,1553,1723,9.17486,-37.1414
336,-699,9.15601,36.8181,-0.00082207,0.0045197,-0.00196581,0.00516514,-0.00146751,-1.25355,0.00402284,0.0219592,1560,1723,9.15604,-36.8181
343,-699,9.19751,36.4703,0.000531904,0.00353116,-0.00100717,0.00383799,0.000225078,-1.27509,0.00248703,0.031642,1567,1723,9.19747,-36.4703
350,-699,9.14563,36.0697,0.00299093,0.00138914,-0.000267436,0.0030344,0.00134567,-0.16114,0.00175564,0.0437281,1574,1723,9.14563,-36.0698
357,-699,9.20569,35.7738,0.00520571,-0.000837616,0.000582981,0.00526144,-0.000893341,0.095296,0.0038402,0.0469677,1581,1723,9.20563,-35.7738
364,-699,9.20654,35.3973,0.00835161,-0.00321916,0.00152266,0.00854863,-0.00341618,0.128678,0.00711658,0.0456457,1588,1723,9.2065,-35.3974
371,-699,9.09949,35.1466,0,0,0,0,0,0,0,-1,1595,1723,9.09951,-35.1467
378,-699,9.10364,35.1044,0,0,0,0,0,0,0,-1,1602,1723,9.10367,-35.1044
385,-699,8.52649,33.9635,0,0,0,0,0,0,0,-1,1609,1723,8.52643,-33.9635
392,-699,8.77649,33.7261,0,0,0,0,0,0,0,-1,1616,1723,8.77653,-33.7261
399,-699,9.02661,33.4886,0,0,0,0,0,0,0,-1,1623,1723,9.02662,-33.4886
406,-699,7.58911,33.0302,0,0,0,0,0,0,0,-1,1630,1723,7.58912,-33.0301
413,-699,9.31396,23.2781,0,0,0,0,0,0,0,-1,1637,1723,9.31396,-23.278
420,-699,2.15076,7.65527,0,0,0,0,0,0,0,-1,1644,1723,2.15079,-7.65522
427,-699,3.36328,8.2428,0,0,0,0,0,0,0,-1,1651,1723,3.36332,-8.24283
434,-699,4.66455,8.90222,0,0,0,0,0,0,0,-1,1658,1723,4.66456,-8.90223
441,-699,0,0,0,0,0,0,0,0,0,-1,1665,1723,0,0
448,-699,0,0,0,0,0,0,0,0,0,-1,1672,1723,0,0
455,-699,0,0,0,0,0,0,0,0,0,-1,1679,1723,0,0
462,-699,0,0,0,0,0,0,0,0,0,-1,1686,1723,0,0
469,-699,0,0,0,0,0,0,0,0,0,-1,1693,1723,0,0
476,-699,0,0,0,0,0,0,0,0,0,-1,1700,1723,0,0
483,-699,0,0,0,0,0,0,0,0,0,-1,1707,1723,0,0
490,-699,0,0,0,0,0,0,0,0,0,-1,1714,1723,0,0
497,-699,0,0,0,0,0,0,0,0,0,-1,1721,1723,0,0
504,-699,0,0,0,0,0,0,0,0,0,-1,1728,1723,0,0
511,-699,0,0,0,0,0,0,0,0,0,-1,1735,1723,0,0
518,-699,0,0,0,0,0,0,0,0,0,-1,1742,1723,0,0
525,-699,0,0,0,0,0,0,0,0,0,-1,1749,1723,0,0
532,-699,0,0,0,0,0,0,0,0,0,-1,1756,1723,0,0
539,-699,0,0,0,0,0,0,0,0,0,-1,1763,1723,0,0
546,-699,0,0,0,0,0,0,0,0,0,-1,1770,1723,0,0
553,-699,0,0,0,0,0,0,0,0,0,-1,1777,1723,0,0
560,-699,0,0,0,0,0,0,0,0,0,-1,1784,1723,0,0
567,-699,0,0,0,0,0,0,0,0,0,-1,1791,1723,0,0
574,-699,0,0,0,0,0,0,0,0,0,-1,1798,1723,0,0
581,-699,0,0,0,0,0,0,0,0,0,-1,1805,1723,0,0
588,-699,0,0,0,0,0,0,0,0,0,-1,1812,1723,0,0
595,-699,0,0,0,0,0,0,0,0,0,-1,1819,1723,0,0
602,-699,0,0,0,0,0,0,0,0,0,-1,1826,1723,0,0
609,-699,0,0,0,0,0,0,0,0,0,-1,1833,1723,0,0
616,-699,0,0,0,0,0,0,0,0,0,-1,1840,1723,0,0
623,-699,0,0,0,0,0,0,0,0,0,-1,1847,1723,0,0
630,-699,0,0,0,0,0,0,0,0,0,-1,1854,1723,0,0
637,-699,0,0,0,0,0,0,0,0,0,-1,1861,1723,0,0
644,-699,0,0,0,0,0,0,0,0,0,-1,1868,1723,0,0
651,-699,0,0,0,0,0,0,0,0,0,-1,1875,1723,0,0
658,-699,0,0,0,0,0,0,0,0,0,-1,1882,1723,0,0
665,-699,0,0,0,0,0,0,0,0,0,-1,1889,1723,0,0
672,-699,0,0,0,0,0,0,0,0,0,-1,1896,1723,0,0
679,-699,0,0,0,0,0,0,0,0,0,-1,1903,1723,0,0
686,-699,0,0,0,0,0,0,0,0,0,-1,1910,1723,0,0
693,-699,0,0,0,0,0,0,0,0,0,-1,1917,1723,0,0
700,-699,0,0,0,0,0,0,0,0,0,-1,1924,1723,0,0
707,-699,0,0,0,0,0,0,0,0,0,-1,1931,1723,0,0
714,-699,0,0,0,0,0,0,0,0,0,-1,1938,1723,0,0
721,-699,0,0,0,0,0,0,0,0,0,-1,1945,1723,0,0
728,-699,0,0,0,0,0,0,0,0,0,-1,1952,1723,0,0
735,-699,0,0,0,0,0,0,0,0,0,-1,1959,1723,0,0
742,-699,0,0,0,0,0,0,0,0,0,-1,1966,1723,0,0
749,-699,0,0,0,0,0,0,0,0,0,-1,1973,1723,0,0
756,-699,0,0,0,0,0,0,0,0,0,-1,1980,1723,0,0
763,-699,0,0,0,0,0,0,0,0,0,-1,1987,1723,0,0
770,-699,0,0,0,0,0,0,0,0,0,-1,1994,1723,0,0
777,-699,0,0,0,0,0,0,0,0,0,-1,2001,1723,0,0
784,-699,0,0,0,0,0,0,0,0,0,-1,2008,1723,0,0
791,-699,0,0,0,0,0,0,0,0,0,-1,2015,1723,0,0
798,-699,0,0,0,0,0,0,0,0,0,-1,2022,1723,0,0
805,-699,0,0,0,0,0,0,0,0,0,-1,2029,1723,0,0
812,-699,0,0,0,0,0,0,0,0,0,-1,2036,1723,0,0
-700,-706,0,0,0,0,0,0,0,0,0,-1,524,1730,0,0
-693,-706,0,0,0,0,0,0,0,0,0,-1,531,1730,0,0
-686,-706,0,0,0,0,0,0,0,0,0,-1,538,1730,0,0
-679,-706,0,0,0,0,0,0,0,0,0,-1,545,1730,0,0
-672,-706,0,0,0,0,0,0,0,0,0,-1,552,1730,0,0
-665,-706,0,0,0,0,0,0,0,0,0,-1,559,1730,0,0
-658,-706,0,0,0,0,0,0,0,0,0,-1,566,1730,0,0
-651,-706,0,0,0,0,0,0,0,0,0,-1,573,1730,0,0
-644,-706,0,0,0,0,0,0,0,0,0,-1,580,1730,0,0
-637,-706,0,0,0,0,0,0,0,0,0,-1,587,1730,0,0
-630,-706,0,0,0,0,0,0,0,0,0,-1,594,1730,0,0
-623,-706,0,0,0,0,0,0,0,0,0,-1,601,1730,0,0
-616,-706,0,0,0,0,0,0,0,0,0,-1,608,1730,0,0
-609,-706,0,0,0,0,0,0,0,0,0,-1,615,1730,0,0
-602,-706,0,0,0,0,0,0,0,0,0,-1,622,1730,0,0
-595,-706,0,0,0,0,0,0,0,0,0,-1,629,1730,0,0
-588,-706,0,0,0,0,0,0,0,0,0,-1,636,1730,0,0
-581,-706,0,0,0,0,0,0,0,0,0,-1,643,1730,0,0
-574,-706,0,0,0,0,0,0,0,0,0,-1,650,1730,0,0
-567,-706,0,0,0,0,0,0,0,0,0,-1,657,1730,0,0
-560,-706,0,0,0,0,0,0,0,0,0,-1,664,1730,0,0
-553,-706,0,0,0,0,0,0,0,0,0,-1,671,1730,0,0
-546,-706,0,0,0,0,0,0,0,0,0,-1,678,1730,0,0
-539,-706,0,0,0,0,0,0,0,0,0,-1,685,1730,0,0
-532,-706,0,0,0,0,0,0,0,0,0,-1,692,1730,0,0
-525,-706,0,0,0,0,0,0,0,0,0,-1,699,1730,0,0
-518,-706,0,0,0,0,0,0,0,0,0,-1,706,1730,0,0
-511,-706,0,0,0,0,0,0,0,0,0,-1,713,1730,0,0
-504,-706,0,0,0,0,0,0,0,0,0,-1,720,1730,0,0
-497,-706,0,0,0,0,0,0,0,0,0,-1,727,1730,0,0
-490,-706,0,0,0,0,0,0,0,0,0,-1,734,1730,0,0
-483,-706,0,0,0,0,0,0,0,0,0,-1,741,1730,0,0
-476,-706,0,0,0,0,0,0,0,0,0,-1,748,1730,0,0
-469,-706,0,0,0,0,0,0,0,0,0,-1,755,1730,0,0
-462,-706,0,0,0,0,0,0,0,0,0,-1,762,1730,0,0
-455,-706,0,0,0,0,0,0,0,0,0,-1,769,1730,0,0
-448,-706,0,0,0,0,0,0,0,0,0,-1,776,1730,0,0
-441,-706,0,0,0,0,0,0,0,0,0,-1,783,1730,0,0
-434,-706,0,0,0,0,0,0,0,0,0,-1,790,1730,0,0
-427,-706,0,0,0,0,0,0,0,0,0,-1,797,1730,0,0
-420,-706,0,0,0,0,0,0,0,0,0,-1,804,1730,0,0
-413,-706,0,0,0,0,0,0,0,0,0,-1,811,1730,0,0
-406,-706,0,0,0,0,0,0,0,0,0,-1,818,1730,0,0
-399,-706,0,0,0,0,0,0,0,0,0,-1,825,1730,0,0
-392,-706,0,0,0,0,0,0,0,0,0,-1,832,1730,0,0
-385,-706,0,0,0,0,0,0,0,0,0,-1,839,1730,0,0
-378,-706,0,0,0,0,0,0,0,0,0,-1,846,1730,0,0
-371,-706,0,0,0,0,0,0,0,0,0,-1,853,1730,0,0
-364,-706,0,0,0,0,0,0,0,0,0,-1,860,1730,0,0
-357,-706,0,0,0,0,0,0,0,0,0,-1,867,1730,0,0
-350,-706,0,0,0,0,0,0,0,0,0,-1,874,1730,0,0
-343,-706,0,0,0,0,0,0,0,0,0,-1,881,1730,0,0
-336,-706,0,0,0,0,0,0,0,0,0,-1,888,1730,0,0
-329,-706,0,0,0,0,0,0,0,0,0,-1,895,1730,0,0
-322,-706,0,0,0,0,0,0,0,0,0,-1,902,1730,0,0
-315,-706,0,0,0,0,0,0,0,0,0,-1,909,1730,0,0
-308,-706,5.08191,14.6245,0,0,0,0,0,0,0,-1,916,1730,5.08188,-14.6245
-301,-706,7.45007,21.1975,0,0,0,0,0,0,0,-1,923,1730,7.45005,-21.1976
-294,-706,11.8603,21.026,0,0,0,0,0,0,0,-1,930,1730,11.8603,-21.026
-287,-706,10.3292,20.8425,0,0,0,0,0,0,0,-1,937,1730,10.3292,-20.8425
-280,-706,7.9162,21.8951,0,0,0,0,0,0,0,-1,944,1730,7.9162,-21.8952
-273,-706,7.38953,20.6355,0,0,0,0,0,0,0,-1,951,1730,7.38955,-20.6355
-266,-706,9.66724,22.8231,0,0,0,0,0,0,0,-1,958,1730,9.66722,-22.8231
-259,-706,3.47852,20.7363,0,0,0,0,0,0,0,-1,965,1730,3.47851,-20.7364
-252,-706,3.84259,20.1979,0,0,0,0,0,0,0,-1,972,1730,3.84256,-20.1979
-245,-706,4.698,19.2992,0,0,0,0,0,0,0,-1,979,1730,4.69799,-19.2991
-238,-706,7.70691,32.0442,0,0,0,0,0,0,0,-1,986,1730,7.70689,-32.0442
-231,-706,8.44849,34.424,0,0,0,0,0,0,0,-1,993,1730,8.44847,-34.424
-224,-706,8.6239,34.9922,0,0,0,0,0,0,0,-1,1000,1730,8.62388,-34.9922
-217,-706,8.44928,35.4602,-0.0120317,0.0124007,0.00841297,0.0150173,-0.0146484,1.26925,0.0171279,0.0464822,1007,1730,8.44928,-35.4602
-210,-706,8.12122,36.3649,-0.0122198,0.00860739,0.00767027,0.0111273,-0.0147398,1.25337,0.0149828,0.0378509,1014,1730,8.12119,-36.3649
-203,-706,8.12122,36.6803,-0.0117671,0.00566725,0.00688472,0.00805811,-0.014158,1.23656,0.0129866,0.0311268,1021,1730,8.12118,-36.6802
-196,-706,8.14441,36.9469,-0.0113062,0.00289088,0.00593599,0.00504573,-0.0134611,1.22257,0.011047,0.0236187,1028,1730,8.14442,-36.9469
-189,-706,8.08521,37.3198,-0.0104808,0.00037363,0.00455838,0.00203397,-0.0121411,1.22149,0.00885033,0.019352,1035,1730,8.08524,-37.3198
-182,-706,8.03967,37.704,-0.00979018,-0.00091288,0.00346775,0.000281136,-0.0109842,1.23919,0.00741828,0.016597,1042,1730,8.03963,-37.7039
-175,-706,8.06189,38.0757,-0.00915184,-0.00153123,0.00278718,-0.000620646,-0.0100624,1.25502,0.00651127,0.0162668,1049,1730,8.06195,-38.0757
-168,-706,8.07715,38.4094,-0.00832494,-0.00241121,0.00221367,-0.00167438,-0.00906177,1.24948,0.00556762,0.0161317,1056,1730,8.07716,-38.4094
-161,-706,8.06738,38.7375,-0.00719305,-0.00255136,0.00159877,-0.00205399,-0.00769043,1.26919,0.00459785,0.0129515,1063,1730,8.06742,-38.7375
-154,-706,8.02075,39.0837,-0.00608512,-0.00192564,0.00124521,-0.00158136,-0.0064294,1.30105,0.00386843,0.0132791,1070,1730,8.02076,-39.0838
-147,-706,7.97583,39.3855,-0.00493711,-0.00129993,0.00114294,-0.000970592,-0.00526644,1.29025,0.00323632,0.0131169,1077,1730,7.97579,-39.3855
-140,-706,7.97595,39.6898,-0.00372624,-0.000791481,0.00106116,-0.00044799,-0.00406974,1.25775,0.00257684,0.0113291,1084,1730,7.976,-39.6898
-133,-706,7.95959,39.9877,-0.00252442,-0.00024125,0.00101794,0.00014668,-0.00291235,1.20669,0.00199226,0.00836821,1091,1730,7.95962,-39.9877
-126,-706,7.96472,40.2761,-0.00143792,0.000243206,0.00102147,0.000725502,-0.00192021,1.12967,0.00157856,0.0125847,1098,1730,7.96473,-40.2761
-119,-706,7.93469,40.5554,-0.000527262,0.000666645,0.00104665,0.00127461,-0.00113523,1.04456,0.0013921,0.017799,1105,1730,7.93465,-40.5555
-112,-706,7.92188,40.8546,0.000392827,0.00112679,0.00111299,0.00193175,-0.000412125,0.944648,0.00144493,0.0125701,1112,1730,7.92182,-40.8547
-105,-706,7.92029,41.1124,0.000962771,0.00126733,0.00100219,0.00212875,0.000101353,0.860795,0.00138662,0.00862739,1119,1730,7.92031,-41.1125
-98,-706,7.94897,41.3567,0.00125814,0.00127653,0.000928283,0.00219567,0.00033901,0.79035,0.00136488,0.0110399,1126,1730,7.94899,-41.3567
-91,-706,7.95984,41.6042,0.00156895,0.00131792,0.000820113,0.0022731,0.000613774,0.709463,0.00135786,0.0152505,1133,1730,7.95985,-41.6043
-84,-706,7.95044,41.8512,0.0018476,0.00132719,0.000648117,0.0022858,0.000888997,0.594508,0.00133052,0.0183039,1140,1730,7.95046,-41.8512
-77,-706,7.95972,42.0591,0.00210014,0.00121183,0.000417651,0.00226566,0.00104631,0.377325,0.00130935,0.0165312,1147,1730,7.95973,-42.0591
-70,-706,7.95276,42.2921,0.00221951,0.00108561,0.000164319,0.00224284,0.00106228,0.14105,0.0012955,0.0182521,1154,1730,7.95282,-42.2921
-63,-706,7.93164,42.51,0.00169107,0.000118028,0.00120934,0.00234715,-0.000538057,0.497079,0.00177157,0.0141983,1161,1730,7.93159,-42.51
-56,-706,7.9408,42.6903,0.00193376,-0.000200609,0.00249592,0.00358107,-0.00184792,0.583375,0.00318723,0.0129781,1168,1730,7.9408,-42.6903
-49,-706,7.94714,42.8879,0.00222079,-0.000548736,0.00380272,0.00488304,-0.00321098,0.610786,0.0047062,0.0123645,1175,1730,7.94719,-42.8879
-42,-706,7.97852,43.0718,0.00236663,-0.00164363,0.00559621,0.00630608,-0.00558309,0.613373,0.00686844,0.0170947,1182,1730,7.97857,-43.0717
-35,-706,8.00867,43.226,0.00283474,-0.000887906,0.00700984,0.00822617,-0.00627933,0.655628,0.00839986,0.0169451,1189,1730,8.00865,-43.2259
-28,-706,8.05127,43.3593,0.00333995,0.000434902,0.00826527,0.0102794,-0.0065045,0.698417,0.00977152,0.0106181,1196,1730,8.05125,-43.3593
-21,-706,8.07178,43.4796,0.00379703,0.00216007,0.00942396,0.012438,-0.00648089,0.742082,0.0111018,0.0109184,1203,1730,8.07179,-43.4796
-14,-706,8.08875,43.6127,0.00429074,0.00465762,0.010479,0.0149548,-0.00600642,0.79415,0.0124641,0.0102785,1210,1730,8.08869,-43.6127
-7,-706,8.11658,43.7504,0.00482361,0.00743577,0.0111488,0.0173547,-0.00509537,0.843707,0.0135905,0.00877312,1217,1730,8.11663,-43.7504
0,-706,8.16541,43.8569,0.0056763,0.0114199,0.0117497,0.0206436,-0.00354743,0.905256,0.0150846,0.0124515,1224,1730,8.1654,-43.857
7,-706,8.20422,43.9564,0.00653949,0.0155601,0.0119467,0.0238196,-0.00171997,0.965894,0.016483,0.014022,1231,1730,8.20428,-43.9565
14,-706,8.22632,44.0573,0.0069522,0.0205794,0.0116641,0.0272742,0.000257434,1.04974,0.0180976,0.0146256,1238,1730,8.22627,-44.0572
21,-706,8.27563,44.1091,0.00731097,0.0262212,0.0105495,0.0309326,0.00259956,1.15077,0.0198122,0.0128592,1245,1730,8.27563,-44.1091
28,-706,8.30652,44.1719,0.00751626,0.030812,0.00927235,0.034052,0.00427624,1.23463,0.0214187,0.0124378,1252,1730,8.30652,-44.1719
35,-706,8.33276,44.2515,0.00740454,0.0343893,0.00788893,0.0365263,0.00526747,1.30625,0.0227988,0.0138104,1259,1730,8.33275,-44.2515
42,-706,8.37,44.3134,0.00715888,0.0372955,0.00598048,0.0384389,0.00601547,1.38188,0.0238747,0.0123245,1266,1730,8.36998,-44.3134
49,-706,8.40784,44.3239,0.00672543,0.0390788,0.00421641,0.0396193,0.00618496,1.44331,0.0246116,0.0141892,1273,1730,8.40789,-44.3239
56,-706,8.46631,44.3317,0.00606096,0.0399143,0.00246021,0.0400922,0.0058831,1.49863,0.0249989,0.0135624,1280,1730,8.46626,-44.3316
63,-706,8.51672,44.3412,0.00563315,0.0394452,0.000557335,0.0394544,0.00562396,1.55432,0.0246431,0.0118286,1287,1730,8.51667,-44.3411
70,-706,8.52869,44.3105,0.00519187,0.036787,-0.000843734,0.0368095,0.00516936,-1.54412,0.0230109,0.012701,1294,1730,8.52866,-44.3105
77,-706,8.5625,44.3059,0.00497408,0.0327627,-0.0018166,0.0328809,0.00485583,-1.50579,0.0204947,0.0110197,1301,1730,8.56256,-44.3059
84,-706,8.60681,44.3058,0.00539959,0.0280226,-0.00232364,0.0282588,0.00516339,-1.46949,0.0173757,0.00912247,1308,1730,8.60678,-44.3058
91,-706,8.64417,44.2773,0.00650954,0.0225536,-0.00240203,0.0229055,0.00615764,-1.42533,0.0136875,0.0104685,1315,1730,8.64416,-44.2774
98,-706,8.66455,44.2394,0.00758423,0.0175522,-0.00201318,0.0179435,0.007193,-1.37885,0.0104273,0.0146387,1322,1730,8.66452,-44.2394
105,-706,8.70349,44.2035,0.00865189,0.0123474,-0.00164949,0.0129765,0.00802274,-1.20641,0.00756151,0.0178372,1329,1730,8.7035,-44.2035
112,-706,8.71289,44.1465,0.0101219,0.00799177,-0.000755277,0.0103625,0.00775115,-0.308418,0.00622327,0.0163403,1336,1730,8.71293,-44.1464
119,-706,8.74011,44.0825,0.0120637,0.00340254,0.000262304,0.0120716,0.0033946,0.0302483,0.00718852,0.0136264,1343,1730,8.74008,-44.0825
126,-706,8.8053,43.9865,0.0135617,-0.00119374,0.00157131,0.0137272,-0.00135921,0.104922,0.00963654,0.0145266,1350,1730,8.80528,-43.9864
133,-706,8.85864,43.868,0.0145524,-0.00360283,0.00229558,0.0148382,-0.00388859,0.123845,0.0114114,0.0111818,1357,1730,8.85862,-43.8681
140,-706,8.88428,43.7305,0.0151508,-0.00463586,0.00269201,0.0155105,-0.00499557,0.132836,0.0123471,0.011241,1364,1730,8.88422,-43.7305
147,-706,8.93518,43.5959,0.0150804,-0.00478961,0.00325376,0.0155996,-0.00530885,0.158248,0.0125494,0.0213204,1371,1730,8.93516,-43.5959
154,-706,8.95056,43.4803,0.013911,-0.00395992,0.00317015,0.0144567,-0.00450561,0.170464,0.0114394,0.0209752,1378,1730,8.95056,-43.4804
161,-706,8.94714,43.3344,0.0124979,-0.00306611,0.00296177,0.0130425,-0.00361067,0.181832,0.0101157,0.0109164,1385,1730,8.94714,-43.3343
168,-706,8.9751,43.1847,0.0107018,-0.00243317,0.00294399,0.0113315,-0.00306283,0.210706,0.00875569,0.0106337,1392,1730,8.97508,-43.1847
175,-706,9.02026,43.0281,0.00883289,-0.00146924,0.00266162,0.0094799,-0.00211625,0.238464,0.00713081,0.010593,1399,1730,9.02027,-43.0281
182,-706,9.01147,42.8325,0.00702192,-0.000337044,0.00200344,0.007532,-0.000847115,0.249301,0.00532621,0.0108831,1406,1730,9.01144,-42.8325
189,-706,9.00452,42.6458,0.00471165,0.0004813,0.00126013,0.00505857,0.000134381,0.268648,0.00332849,0.013941,1413,1730,9.00449,-42.6457
196,-706,9.02075,42.4497,0.00242658,0.00106666,0.00065198,0.00268866,0.000804593,0.382197,0.00159345,0.0122973,1420,1730,9.02072,-42.4497
203,-706,9.03015,42.2584,0.00208991,0.000828397,0.000532576,0.00228468,0.000633629,0.350601,0.00136196,0.0127888,1427,1730,9.03015,-42.2585
210,-706,9.04456,42.0557,0.00177966,0.000763734,0.000393003,0.00191394,0.000629452,0.329244,0.00112638,0.0121556,1434,1730,9.0446,-42.0557
217,-706,9.05054,41.8602,0.00144242,0.000711254,0.000162493,0.0014769,0.000676768,0.209127,0.000853681,0.0136155,1441,1730,9.05056,-41.8602
224,-706,9.01892,41.6284,0.00118476,0.000791567,7.21028e-06,0.00118489,0.000791435,0.0183296,0.000696841,0.0191991,1448,1730,9.01894,-41.6284
231,-706,9.05322,41.3583,0.000839671,0.00082892,-0.000157579,0.000991966,0.000676625,-0.768348,0.000585237,0.0141401,1455,1730,9.05319,-41.3583
238,-706,9.0564,41.0928,0.000642871,0.000896537,-0.00026849,0.00106664,0.000472764,-1.00606,0.000617149,0.00911747,1462,1730,9.0564,-41.0928
245,-706,9.05286,40.8341,0.000494854,0.000999899,-0.000387278,0.00120971,0.000285043,-1.0743,0.000730245,0.0118422,1469,1730,9.05287,-40.8342
252,-706,9.04626,40.5887,0.000238247,0.00110161,-0.000506788,0.00133565,4.2076e-06,-1.13817,0.000889031,0.0112393,1476,1730,9.04632,-40.5888
259,-706,9.04834,40.3195,-2.17673e-05,0.00107441,-0.000575753,0.00132124,-0.000268596,-1.16579,0.00098267,0.0118451,1483,1730,9.0483,-40.3194
266,-706,9.02991,40.0414,-0.000163199,0.00122589,-0.000795734,0.00158756,-0.000524867,-1.1442,0.00127001,0.0123322,1490,1730,9.0299,-40.0414
273,-706,9.02783,39.7379,-0.000237096,0.00183553,-0.00120827,0.00239103,-0.000792594,-1.13987,0.00191373,0.012456,1497,1730,9.02787,-39.7379
280,-706,9.00916,39.4152,-0.00035913,0.00233409,-0.00163222,0.0031035,-0.00112853,-1.1303,0.0025305,0.0104217,1504,1730,9.00916,-39.4152
287,-706,8.97559,39.1309,-0.000470302,0.00326831,-0.00203499,0.00416224,-0.00136424,-1.15689,0.00332423,0.010646,1511,1730,8.97556,-39.1309
294,-706,8.98254,38.8409,-0.000558966,0.00430528,-0.00235852,0.00526106,-0.00151474,-1.18578,0.00410649,0.0106265,1518,1730,8.98258,-38.8409
301,-706,8.97058,38.5028,-0.000649563,0.00522469,-0.00252824,0.00616296,-0.00158784,-1.21543,0.00472765,0.0105189,1525,1730,8.97054,-38.5028
308,-706,8.95154,38.1636,-0.000653102,0.00602762,-0.0028603,0.00708491,-0.00171039,-1.21673,0.00538473,0.012272,1532,1730,8.95151,-38.1636
315,-706,8.96216,37.8534,-0.000657095,0.00687291,-0.00318822,0.00804146,-0.00182565,-1.21948,0.00606187,0.0194248,1539,1730,8.96214,-37.8534
322,-706,8.9082,37.5767,-0.000733543,0.00766579,-0.00318987,0.00873988,-0.00180763,-1.246,0.00651329,0.0285257,1546,1730,8.90824,-37.5767
329,-706,8.90161,37.1088,-0.000833449,0.00765619,-0.00289907,0.00855171,-0.00172897,-1.2712,0.00635634,0.0306864,1553,1730,8.90162,-37.1088
336,-706,8.73047,36.5372,-0.000985822,0.00705795,-0.00254515,0.00779562,-0.00172349,-1.28869,0.00585672,0.0462345,1560,1730,8.73051,-36.5373
343,-706,8.6991,36.302,0.000655735,0.00601136,-0.00138346,0.00634763,0.000319472,-1.33236,0.00412938,0.043747,1567,1730,8.69908,-36.302
350,-706,8.6615,36.1521,0.00386639,0.00343632,-0.000347185,0.00405974,0.00324297,-0.508125,0.00247949,0.0493439,1574,1730,8.66152,-36.1521
357,-706,8.92078,36.1093,0,0,0,0,0,0,0,-1,1581,1730,8.92074,-36.1093
364,-706,8.81421,35.6302,0,0,0,0,0,0,0,-1,1588,1730,8.81416,-35.6302
371,-706,6.27881,24.0759,0,0,0,0,0,0,0,-1,1595,1730,6.27883,-24.0759
378,-706,4.80444,25.0989,0,0,0,0,0,0,0,-1,1602,1730,4.80445,-25.0989
385,-706,5.55212,24.9753,0,0,0,0,0,0,0,-1,1609,1730,5.55214,-24.9753
392,-706,8.1698,33.7717,0,0,0,0,0,0,0,-1,1616,1730,8.16977,-33.7718
399,-706,3.9502,25.5428,0,0,0,0,0,0,0,-1,1623,1730,3.95019,-25.5428
406,-706,6.04211,18.8085,0,0,0,0,0,0,0,-1,1630,1730,6.04216,-18.8085
413,-706,6.23413,20.7725,0,0,0,0,0,0,0,-1,1637,1730,6.23413,-20.7725
420,-706,6.51294,21.9171,0,0,0,0,0,0,0,-1,1644,1730,6.51292,-21.9171
427,-706,0,0,0,0,0,0,0,0,0,-1,1651,1730,0,0
434,-706,0,0,0,0,0,0,0,0,0,-1,1658,1730,0,0
441,-706,0,0,0,0,0,0,0,0,0,-1,1665,1730,0,0
448,-706,0,0,0,0,0,0,0,0,0,-1,1672,1730,0,0
455,-706,0,0,0,0,0,0,0,0,0,-1,1679,1730,0,0
462,-706,0,0,0,0,0,0,0,0,0,-1,1686,1730,0,0
469,-706,0,0,0,0,0,0,0,0,0,-1,1693,1730,0,0
476,-706,0,0,0,0,0,0,0,0,0,-1,1700,1730,0,0
483,-706,0,0,0,0,0,0,0,0,0,-1,1707,1730,0,0
490,-706,0,0,0,0,0,0,0,0,0,-1,1714,1730,0,0
497,-706,0,0,0,0,0,0,0,0,0,-1,1721,1730,0,0
504,-706,0,0,0,0,0,0,0,0,0,-1,1728,1730,0,0
511,-706,0,0,0,0,0,0,0,0,0,-1,1735,1730,0,0
518,-706,0,0,0,0,0,0,0,0,0,-1,1742,1730,0,0
525,-706,0,0,0,0,0,0,0,0,0,-1,1749,1730,0,0
532,-706,0,0,0,0,0,0,0,0,0,-1,1756,1730,0,0
539,-706,0,0,0,0,0,0,0,0,0,-1,1763,1730,0,0
546,-706,0,0,0,0,0,0,0,0,0,-1,1770,1730,0,0
553,-706,0,0,0,0,0,0,0,0,0,-1,1777,1730,0,0
560,-706,0,0,0,0,0,0,0,0,0,-1,1784,1730,0,0
567,-706,0,0,0,0,0,0,0,0,0,-1,1791,1730,0,0
574,-706,0,0,0,0,0,0,0,0,0,-1,1798,1730,0,0
581,-706,0,0,0,0,0,0,0,0,0,-1,1805,1730,0,0
588,-706,0,0,0,0,0,0,0,0,0,-1,1812,1730,0,0
595,-706,0,0,0,0,0,0,0,0,0,-1,1819,1730,0,0
602,-706,0,0,0,0,0,0,0,0,0,-1,1826,1730,0,0
609,-706,0,0,0,0,0,0,0,0,0,-1,1833,1730,0,0
616,-706,0,0,0,0,0,0,0,0,0,-1,1840,1730,0,0
623,-706,0,0,0,0,0,0,0,0,0,-1,1847,1730,0,0
630,-706,0,0,0,0,0,0,0,0,0,-1,1854,1730,0,0
637,-706,0,0,0,0,0,0,0,0,0,-1,1861,1730,0,0
644,-706,0,0,0,0,0,0,0,0,0,-1,1868,1730,0,0
651,-706,0,0,0,0,0,0,0,0,0,-1,1875,1730,0,0
658,-706,0,0,0,0,0,0,0,0,0,-1,1882,1730,0,0
665,-706,0,0,0,0,0,0,0,0,0,-1,1889,1730,0,0
672,-706,0,0,0,0,0,0,0,0,0,-1,1896,1730,0,0
679,-706,0,0,0,0,0,0,0,0,0,-1,1903,1730,0,0
686,-706,0,0,0,0,0,0,0,0,0,-1,1910,1730,0,0
693,-706,0,0,0,0,0,0,0,0,0,-1,1917,1730,0,0
700,-706,0,0,0,0,0,0,0,0,0,-1,1924,1730,0,0
707,-706,0,0,0,0,0,0,0,0,0,-1,1931,1730,0,0
714,-706,0,0,0,0,0,0,0,0,0,-1,1938,1730,0,0
721,-706,0,0,0,0,0,0,0,0,0,-1,1945,1730,0,0
728,-706,0,0,0,0,0,0,0,0,0,-1,1952,1730,0,0
735,-706,0,0,0,0,0,0,0,0,0,-1,1959,1730,0,0
742,-706,0,0,0,0,0,0,0,0,0,-1,1966,1730,0,0
749,-706,0,0,0,0,0,0,0,0,0,-1,1973,1730,0,0
756,-706,0,0,0,0,0,0,0,0,0,-1,1980,1730,0,0
763,-706,0,0,0,0,0,0,0,0,0,-1,1987,1730,0,0
770,-706,0,0,0,0,0,0,0,0,0,-1,1994,1730,0,0
777,-706,0,0,0,0,0,0,0,0,0,-1,2001,1730,0,0
784,-706,0,0,0,0,0,0,0,0,0,-1,2008,1730,0,0
791,-706,0,0,0,0,0,0,0,0,0,-1,2015,1730,0,0
798,-706,0,0,0,0,0,0,0,0,0,-1,2022,1730,0,0
805,-706,0,0,0,0,0,0,0,0,0,-1,2029,1730,0,0
812,-706,0,0,0,0,0,0,0,0,0,-1,2036,1730,0,0
-700,-713,0,0,0,0,0,0,0,0,0,-1,524,1737,0,0
-693,-713,0,0,0,0,0,0,0,0,0,-1,531,1737,0,0
-686,-713,0,0,0,0,0,0,0,0,0,-1,538,1737,0,0
-679,-713,0,0,0,0,0,0,0,0,0,-1,545,1737,0,0
-672,-713,0,0,0,0,0,0,0,0,0,-1,552,1737,0,0
-665,-713,0,0,0,0,0,0,0,0,0,-1,559,1737,0,0
-658,-713,0,0,0,0,0,0,0,0,0,-1,566,1737,0,0
-651,-713,0,0,0,0,0,0,0,0,0,-1,573,1737,0,0
-644,-713,0,0,0,0,0,0,0,0,0,-1,580,1737,0,0
-637,-713,0,0,0,0,0,0,0,0,0,-1,587,1737,0,0
-630,-713,0,0,0,0,0,0,0,0,0,-1,594,1737,0,0
-623,-713,0,0,0,0,0,0,0,0,0,-1,601,1737,0,0
-616,-713,0,0,0,0,0,0,0,0,0,-1,608,1737,0,0
-609,-713,0,0,0,0,0,0,0,0,0,-1,615,1737,0,0
-602,-713,0,0,0,0,0,0,0,0,0,-1,622,1737,0,0
-595,-713,0,0,0,0,0,0,0,0,0,-1,629,1737,0,0
-588,-713,0,0,0,0,0,0,0,0,0,-1,636,1737,0,0
-581,-713,0,0,0,0,0,0,0,0,0,-1,643,1737,0,0
-574,-713,0,0,0,0,0,0,0,0,0,-1,650,1737,0,0
-567,-713,0,0,0,0,0,0,0,0,0,-1,657,1737,0,0
-560,-713,0,0,0,0,0,0,0,0,0,-1,664,1737,0,0
-553,-713,0,0,0,0,0,0,0,0,0,-1,671,1737,0,0
-546,-713,0,0,0,0,0,0,0,0,0,-1,678,1737,0,0
-539,-713,0,0,0,0,0,0,0,0,0,-1,685,1737,0,0
-532,-713,0,0,0,0,0,0,0,0,0,-1,692,1737,0,0
-525,-713,0,0,0,0,0,0,0,0,0,-1,699,1737,0,0
-518,-713,0,0,0,0,0,0,0,0,0,-1,706,1737,0,0
-511,-713,0,0,0,0,0,0,0,0,0,-1,713,1737,0,0
-504,-713,0,0,0,0,0,0,0,0,0,-1,720,1737,0,0
-497,-713,0,0,0,0,0,0,0,0,0,-1,727,1737,0,0
-490,-713,0,0,0,0,0,0,0,0,0,-1,734,1737,0,0
-483,-713,0,0,0,0,0,0,0,0,0,-1,741,1737,0,0
-476,-713,0,0,0,0,0,0,0,0,0,-1,748,1737,0,0
-469,-713,0,0,0,0,0,0,0,0,0,-1,755,1737,0,0
-462,-713,0,0,0,0,0,0,0,0,0,-1,762,1737,0,0
-455,-713,0,0,0,0,0,0,0,0,0,-1,769,1737,0,0
-448,-713,0,0,0,0,0,0,0,0,0,-1,776,1737,0,0
-441,-713,0,0,0,0,0,0,0,0,0,-1,783,1737,0,0
-434,-713,0,0,0,0,0,0,0,0,0,-1,790,1737,0,0
-427,-713,0,0,0,0,0,0,0,0,0,-1,797,1737,0,0
-420,-713,0,0,0,0,0,0,0,0,0,-1,804,1737,0,0
-413,-713,0,0,0,0,0,0,0,0,0,-1,811,1737,0,0
-406,-713,0,0,0,0,0,0,0,0,0,-1,818,1737,0,0
-399,-713,0,0,0,0,0,0,0,0,0,-1,825,1737,0,0
-392,-713,0,0,0,0,0,0,0,0,0,-1,832,1737,0,0
-385,-713,0,0,0,0,0,0,0,0,0,-1,839,1737,0,0
-378,-713,0,0,0,0,0,0,0,0,0,-1,846,1737,0,0
-371,-713,0,0,0,0,0,0,0,0,0,-1,853,1737,0,0
-364,-713,0,0,0,0,0,0,0,0,0,-1,860,1737,0,0
-357,-713,0,0,0,0,0,0,0,0,0,-1,867,1737,0,0
-350,-713,0,0,0,0,0,0,0,0,0,-1,874,1737,0,0
-343,-713,0,0,0,0,0,0,0,0,0,-1,881,1737,0,0
-336,-713,0,0,0,0,0,0,0,0,0,-1,888,1737,0,0
-329,-713,0,0,0,0,0,0,0,0,0,-1,895,1737,0,0
-322,-713,0,0,0,0,0,0,0,0,0,-1,902,1737,0,0
-315,-713,0,0,0,0,0,0,0,0,0,-1,909,1737,0,0
-308,-713,0,0,0,0,0,0,0,0,0,-1,916,1737,0,0
-301,-713,0,0,0,0,0,0,0,0,0,-1,923,1737,0,0
-294,-713,7.17883,22.0453,0,0,0,0,0,0,0,-1,930,1737,7.17881,-22.0453
-287,-713,11.8916,21.5834,0,0,0,0,0,0,0,-1,937,1737,11.8916,-21.5833
-280,-713,10.2786,21.3551,0,0,0,0,0,0,0,-1,944,1737,10.2787,-21.3551
-273,-713,11.1981,23.8683,0,0,0,0,0,0,0,-1,951,1737,11.198,-23.8683
-266,-713,3.17981,19.8851,0,0,0,0,0,0,0,-1,958,1737,3.17983,-19.8851
-259,-713,3.5921,19.6868,0,0,0,0,0,0,0,-1,965,1737,3.59207,-19.6868
-252,-713,4.55469,20.5758,0,0,0,0,0,0,0,-1,972,1737,4.55466,-20.5758
-245,-713,3.89014,25.9825,0,0,0,0,0,0,0,-1,979,1737,3.89013,-25.9826
-238,-713,6.62506,30.5463,0,0,0,0,0,0,0,-1,986,1737,6.62509,-30.5462
-231,-713,8.23462,31.5148,0,0,0,0,0,0,0,-1,993,1737,8.23462,-31.5148
-224,-713,7.59491,25.9907,0,0,0,0,0,0,0,-1,1000,1737,7.59488,-25.9908
-217,-713,8.9295,35.1735,0,0,0,0,0,0,0,-1,1007,1737,8.92953,-35.1735
-210,-713,8.35614,36.5376,0,0,0,0,0,0,0,-1,1014,1737,8.35614,-36.5376
-203,-713,8.32129,36.8733,0,0,0,0,0,0,0,-1,1021,1737,8.32125,-36.8733
-196,-713,8.43945,36.9036,-0.0161344,0.00280662,0.00761808,0.00549036,-0.0188181,1.23209,0.0147209,0.0487865,1028,1737,8.43943,-36.9036
-189,-713,8.36047,37.2622,-0.0149967,-0.000369223,0.00570191,0.0015908,-0.0169567,1.2397,0.0118703,0.0414958,1035,1737,8.36046,-37.2622
-182,-713,8.30115,37.553,-0.0141028,-0.00199316,0.00422708,-0.000663597,-0.0154323,1.26606,0.0100743,0.028657,1042,1737,8.30111,-37.553
-175,-713,8.40405,38.1233,0,0,0,0,0,0,0,-1,1049,1737,8.4041,-38.1232
-168,-713,8.53381,38.2686,-0.0121873,-0.00378992,0.00261037,-0.00304462,-0.0129326,1.29268,0.00780731,0.037943,1056,1737,8.53385,-38.2685
-161,-713,8.40759,38.7133,-0.0106772,-0.00395427,0.00184268,-0.00348234,-0.0111491,1.32007,0.00658631,0.0170186,1063,1737,8.40757,-38.7132
-154,-713,8.30688,39.0839,-0.00925184,-0.00320098,0.00139761,-0.00289376,-0.00955906,1.35442,0.0056603,0.0126841,1070,1737,8.30687,-39.0838
-147,-713,8.2854,39.4218,-0.00780595,-0.00244811,0.00126282,-0.00216539,-0.00808867,1.35055,0.00483508,0.0198542,1077,1737,8.28536,-39.4217
-140,-713,8.30286,39.7335,-0.00630202,-0.00180325,0.00116969,-0.0015173,-0.00658797,1.33103,0.00398372,0.0180822,1084,1737,8.3029,-39.7336
-133,-713,8.25159,40.0009,-0.00483793,-0.0010989,0.00112498,-0.000786522,-0.00515031,1.29994,0.00320371,0.0105652,1091,1737,8.25159,-40.0009
-126,-713,8.23438,40.2634,-0.00353247,-0.000454634,0.00115364,-7.02306e-05,-0.00391687,1.24916,0.00258815,0.0161891,1098,1737,8.23441,-40.2635
-119,-713,8.20569,40.5194,-0.00244788,0.000122254,0.00120763,0.000600637,-0.00292626,1.19363,0.00217883,0.0259134,1105,1737,8.20567,-40.5195
-112,-713,8.18506,40.8632,-0.00122135,0.000883028,0.00135287,0.00154471,-0.00188303,1.11591,0.00198221,0.0132212,1112,1737,8.18501,-40.8632
-105,-713,8.18872,41.1174,-0.000440926,0.00123797,0.00125338,0.00190704,-0.00111,1.08047,0.00176203,0.0102268,1119,1737,8.18868,-41.1175
-98,-713,8.18457,41.3578,-0.000140344,0.00139329,0.00124065,0.00208497,-0.000832026,1.0622,0.00173514,0.0101897,1126,1737,8.18458,-41.3577
-91,-713,8.17749,41.6068,0.000188483,0.00157828,0.00119843,0.0022687,-0.00050194,1.04813,0.0017046,0.0106852,1133,1737,8.17744,-41.6068
-84,-713,8.17627,41.8492,0.000460941,0.0017331,0.00118507,0.002442,-0.000247966,1.0317,0.00171664,0.010629,1140,1737,8.17631,-41.8492
-77,-713,8.17554,42.0865,0.000808654,0.0016541,0.00105219,0.0023653,9.74479e-05,0.976407,0.00154541,0.0133164,1147,1737,8.17558,-42.0866
-70,-713,8.16235,42.3046,0.00107885,0.0014647,0.00075701,0.00205298,0.000490569,0.910167,0.00123797,0.0146122,1154,1737,8.16241,-42.3045
-63,-713,8.15112,42.5135,0.000950671,0.00106781,0.000878836,0.00189003,0.000128454,0.818671,0.00121946,0.0134672,1161,1737,8.15113,-42.5136
-56,-713,8.15564,42.6976,0.00108048,0.000845159,0.00133483,0.00230283,-0.000377191,0.741439,0.00167517,0.0130615,1168,1737,8.15561,-42.6977
-49,-713,8.13074,42.8719,0.00127645,0.000559935,0.00194827,0.00289913,-0.00106275,0.694471,0.00236788,0.0147555,1175,1737,8.13074,-42.8719
-42,-713,8.15552,43.047,0.00136026,0.000217729,0.00276068,0.00360817,-0.00203017,0.683373,0.00329752,0.0174188,1182,1737,8.15555,-43.047
-35,-713,8.19922,43.1986,0.00160403,0.00033254,0.00365366,0.00467684,-0.00274027,0.699259,0.00433065,0.0148926,1189,1737,8.19925,-43.1986
-28,-713,8.21045,43.364,0.0019161,0.000947779,0.00454256,0.00600023,-0.00313634,0.732307,0.00536068,0.0126202,1196,1737,8.21049,-43.364
-21,-713,8.20325,43.5074,0.00217232,0.00192641,0.00544309,0.00749385,-0.00339512,0.774105,0.00643349,0.00895912,1203,1737,8.20319,-43.5074
-14,-713,8.21716,43.6289,0.00246908,0.00350845,0.00632014,0.00933024,-0.0033527,0.826419,0.00758875,0.00974616,1210,1737,8.2171,-43.6289
-7,-713,8.25,43.7639,0.00280695,0.00535854,0.00692995,0.0111292,-0.00296367,0.876428,0.00857968,0.00925539,1217,1737,8.25002,-43.7639
0,-713,8.28992,43.8655,0.00329473,0.00810437,0.00752602,0.0136004,-0.00220135,0.940039,0.00988281,0.0143673,1224,1737,8.28992,-43.8655
7,-713,8.31995,43.9501,0.00375229,0.0109461,0.00783199,0.0159677,-0.00126925,1.00066,0.0110924,0.0174958,1231,1737,8.3199,-43.9501
14,-713,8.3269,44.0547,0.00392374,0.0144714,0.00775294,0.0185742,-0.000179073,1.08407,0.0124429,0.0133253,1238,1737,8.32685,-44.0547
21,-713,8.32813,44.1217,0.00412306,0.0178221,0.00748171,0.0211162,0.000829013,1.15606,0.0138094,0.0113777,1245,1737,8.32808,-44.1217
28,-713,8.34204,44.189,0.00425274,0.0202533,0.00697984,0.0228701,0.00163593,1.21211,0.0147318,0.0113427,1252,1737,8.34206,-44.189
35,-713,8.37756,44.2571,0.00421655,0.0222909,0.00630002,0.0242701,0.00223734,1.2664,0.0154883,0.0112711,1259,1737,8.37754,-44.2571
42,-713,8.42053,44.3246,0.00410396,0.0237574,0.00522448,0.0250599,0.00280146,1.32647,0.0158555,0.0108784,1266,1737,8.42057,-44.3246
49,-713,8.44666,44.3262,0.00385944,0.024245,0.00427231,0.0251042,0.00300028,1.37234,0.0158311,0.0113948,1273,1737,8.44664,-44.3261
56,-713,8.47546,44.3214,0.00349413,0.0240394,0.00330941,0.0245593,0.00297421,1.41497,0.015477,0.0122847,1280,1737,8.47544,-44.3214
63,-713,8.48425,44.3517,0.00337135,0.0228751,0.00221625,0.0231238,0.00312268,1.45906,0.0144876,0.0123795,1287,1737,8.48421,-44.3517
70,-713,8.51111,44.3417,0.00325604,0.0205734,0.00129161,0.0206692,0.00316023,1.49676,0.0128562,0.0115798,1294,1737,8.51112,-44.3416
77,-713,8.54993,44.3413,0.00327144,0.0174132,0.000578603,0.0174369,0.00324781,1.52997,0.0107074,0.0118444,1301,1737,8.54992,-44.3413
84,-713,8.58167,44.3514,0.00372676,0.0139776,0.000119844,0.013979,0.00372536,1.55911,0.008359,0.0118481,1308,1737,8.58167,-44.3514
91,-713,8.57996,44.3175,0.00462058,0.0104069,-0.000131588,0.0104099,0.00461759,-1.54807,0.00602287,0.0120461,1315,1737,8.57992,-44.3175
98,-713,8.59448,44.2567,0.00539707,0.00745215,-0.000144269,0.00746223,0.00538699,-1.50105,0.0044475,0.0122123,1322,1737,8.59452,-44.2567
105,-713,8.6377,44.2142,0.00615244,0.00451144,-0.000165736,0.00616901,0.00449487,-0.0996564,0.00368369,0.0148335,1329,1737,8.6377,-44.2142
112,-713,8.65771,44.1682,0.00709026,0.00235528,0.000149482,0.00709498,0.00235056,0.0315277,0.00417328,0.0141651,1336,1737,8.65775,-44.1682
119,-713,8.6615,44.1064,0.0082021,-9.47239e-05,0.00057475,0.00824173,-0.000134349,0.0688353,0.00553981,0.014656,1343,1737,8.66154,-44.1064
126,-713,8.6814,44.0291,0.00892986,-0.00189701,0.00089576,0.00900347,-0.00197062,0.081992,0.00675568,0.0141319,1350,1737,8.68141,-44.0291
133,-713,8.69604,43.9032,0.00927243,-0.00253336,0.00121585,0.00939635,-0.00265728,0.101567,0.00731274,0.0118462,1357,1737,8.69603,-43.9032
140,-713,8.74023,43.749,0.00929446,-0.002971,0.00150379,0.00947614,-0.00315268,0.120232,0.00758981,0.0126117,1364,1737,8.74021,-43.7491
147,-713,8.76208,43.6086,0.00891509,-0.00291212,0.00178549,0.00917876,-0.00317578,0.146613,0.00740825,0.0138423,1371,1737,8.76206,-43.6087
154,-713,8.75256,43.5073,0.00795162,-0.00227374,0.00167447,0.00821884,-0.00254096,0.158252,0.00649409,0.0144135,1378,1737,8.75257,-43.5074
161,-713,8.79309,43.3512,0.00687524,-0.00160444,0.00147962,0.007126,-0.0018552,0.167883,0.00547486,0.010604,1385,1737,8.79304,-43.3512
168,-713,8.81409,43.1902,0.00559613,-0.00112214,0.00138259,0.00586954,-0.00139554,0.19523,0.00445173,0.0101953,1392,1737,8.81413,-43.1902
175,-713,8.83301,43.0236,0.00434816,-0.000496112,0.00112142,0.00459517,-0.000743117,0.2168,0.00333883,0.0136457,1399,1737,8.83298,-43.0236
182,-713,8.81885,42.8459,0.00323232,0.000155086,0.00067617,0.00337434,1.30637e-05,0.20703,0.00224522,0.0124569,1406,1737,8.81879,-42.8459
189,-713,8.81128,42.6456,0.00212195,0.000625757,0.000259353,0.00216563,0.000582075,0.166859,0.00129412,0.0117617,1413,1737,8.81123,-42.6457
196,-713,8.83191,42.457,0.00113572,0.000959265,-5.79921e-05,0.00115307,0.000941912,-0.290747,0.000708889,0.012245,1420,1737,8.83187,-42.4571
203,-713,8.83569,42.2773,0.000871186,0.0011545,-0.00015759,0.00122474,0.000800944,-1.1515,0.000718195,0.0152345,1427,1737,8.83569,-42.2774
210,-713,8.83398,42.0459,0.000672788,0.00133406,-0.000212398,0.0013964,0.000610444,-1.28529,0.000808333,0.0129731,1434,1737,8.834,-42.0459
217,-713,8.85266,41.8357,0.000475747,0.00144501,-0.000346147,0.00155594,0.000364824,-1.26068,0.000939596,0.011163,1441,1737,8.85265,-41.8357
224,-713,8.83521,41.6184,0.000274933,0.0015778,-0.000442038,0.00171362,0.000139116,-1.2727,0.00109898,0.0123544,1448,1737,8.83518,-41.6184
231,-713,8.81995,41.3685,2.31829e-05,0.00168252,-0.000493641,0.00181827,-0.000112566,-1.30243,0.00125139,0.0112862,1455,1737,8.81994,-41.3686
238,-713,8.80786,41.0956,-0.000109046,0.00175812,-0.000505559,0.00188622,-0.000237144,-1.32264,0.00134352,0.00869239,1462,1737,8.80789,-41.0956
245,-713,8.80566,40.8414,-0.00020995,0.00186002,-0.000580006,0.00201146,-0.000361388,-1.3154,0.00147625,0.0116262,1469,1737,8.80566,-40.8415
252,-713,8.7959,40.5873,-0.000461563,0.00193959,-0.00066747,0.00211266,-0.000634631,-1.31709,0.0016609,0.0114606,1476,1737,8.79594,-40.5873
259,-713,8.79675,40.3108,-0.000713473,0.00182208,-0.000692455,0.00199887,-0.000890256,-1.32084,0.00170848,0.0113215,1483,1737,8.79677,-40.3108
266,-713,8.76721,40.0513,-0.000804629,0.00196847,-0.000955936,0.00226606,-0.00110222,-1.269,0.001983,0.0109989,1490,1737,8.76722,-40.0512
273,-713,8.73621,39.7643,-0.000841753,0.00270117,-0.00150375,0.00325335,-0.00139394,-1.21888,0.00275377,0.00931211,1497,1737,8.73616,-39.7643
280,-713,8.70361,39.4543,-0.000953504,0.00327768,-0.00206515,0.00411853,-0.00179436,-1.18413,0.00350061,0.00982712,1504,1737,8.70365,-39.4544
287,-713,8.68091,39.1622,-0.00104427,0.00443477,-0.00263571,0.00549682,-0.00210632,-1.18775,0.00453283,0.0105966,1511,1737,8.68097,-39.1622
294,-713,8.68408,38.8746,-0.00112411,0.00572583,-0.00309915,0.00691986,-0.00231813,-1.20305,0.00554975,0.0164894,1518,1737,8.68405,-38.8747
301,-713,8.66968,38.5294,-0.00118849,0.00691863,-0.00335425,0.00812647,-0.00239634,-1.22516,0.00636853,0.0188061,1525,1737,8.66965,-38.5295
308,-713,8.67114,38.1709,-0.00109103,0.00803228,-0.00384081,0.00943389,-0.00249264,-1.22089,0.00726412,0.0195746,1532,1737,8.67112,-38.1709
315,-713,8.6178,37.8036,-0.000976959,0.00940489,-0.00437819,0.0110047,-0.00257678,-1.22046,0.00832934,0.0282271,1539,1737,8.61778,-37.8036
322,-713,8.7063,37.0739,-0.000995291,0.0107459,-0.0044255,0.0122271,-0.00247649,-1.24782,0.00909003,0.0440014,1546,1737,8.70635,-37.0739
329,-713,8.69556,36.916,0,0,0,0,0,0,0,-1,1553,1737,8.69557,-36.916
336,-713,8.48962,36.3564,0,0,0,0,0,0,0,-1,1560,1737,8.48958,-36.3564
343,-713,7.94531,36.4326,0,0,0,0,0,0,0,-1,1567,1737,7.94525,-36.4326
350,-713,8.01782,36.3704,0,0,0,0,0,0,0,-1,1574,1737,8.01778,-36.3703
357,-713,8.06165,35.0448,0,0,0,0,0,0,0,-1,1581,1737,8.06159,-35.0448
364,-713,7.35474,20.9537,0,0,0,0,0,0,0,-1,1588,1737,7.35472,-20.9537
371,-713,3.07507,25.4108,0,0,0,0,0,0,0,-1,1595,1737,3.07502,-25.4107
378,-713,4.21838,25.306,0,0,0,0,0,0,0,-1,1602,1737,4.21837,-25.306
385,-713,5.078,25.3104,0,0,0,0,0,0,0,-1,1609,1737,5.07795,-25.3104
392,-713,5.92114,25.3118,0,0,0,0,0,0,0,-1,1616,1737,5.92112,-25.3118
399,-713,3.14368,25.2808,0,0,0,0,0,0,0,-1,1623,1737,3.14369,-25.2808
406,-713,1.82678,26.7354,0,0,0,0,0,0,0,-1,1630,1737,1.82679,-26.7354
413,-713,3.24731,18.2787,0,0,0,0,0,0,0,-1,1637,1737,3.24726,-18.2787
420,-713,0,0,0,0,0,0,0,0,0,-1,1644,1737,0,0
427,-713,0,0,0,0,0,0,0,0,0,-1,1651,1737,0,0
434,-713,0,0,0,0,0,0,0,0,0,-1,1658,1737,0,0
441,-713,0,0,0,0,0,0,0,0,0,-1,1665,1737,0,0
448,-713,0,0,0,0,0,0,0,0,0,-1,1672,1737,0,0
455,-713,0,0,0,0,0,0,0,0,0,-1,1679,1737,0,0
462,-713,0,0,0,0,0,0,0,0,0,-1,1686,1737,0,0
469,-713,0,0,0,0,0,0,0,0,0,-1,1693,1737,0,0
476,-713,0,0,0,0,0,0,0,0,0,-1,1700,1737,0,0
483,-713,0,0,0,0,0,0,0,0,0,-1,1707,1737,0,0
490,-713,0,0,0,0,0,0,0,0,0,-1,1714,1737,0,0
497,-713,0,0,0,0,0,0,0,0,0,-1,1721,1737,0,0
504,-713,0,0,0,0,0,0,0,0,0,-1,1728,1737,0,0
511,-713,0,0,0,0,0,0,0,0,0,-1,1735,1737,0,0
518,-713,0,0,0,0,0,0,0,0,0,-1,1742,1737,0,0
525,-713,0,0,0,0,0,0,0,0,0,-1,1749,1737,0,0
532,-713,0,0,0,0,0,0,0,0,0,-1,1756,1737,0,0
539,-713,0,0,0,0,0,0,0,0,0,-1,1763,1737,0,0
546,-713,0,0,0,0,0,0,0,0,0,-1,1770,1737,0,0
553,-713,0,0,0,0,0,0,0,0,0,-1,1777,1737,0,0
560,-713,0,0,0,0,0,0,0,0,0,-1,1784,1737,0,0
567,-713,0,0,0,0,0,0,0,0,0,-1,1791,1737,0,0
574,-713,0,0,0,0,0,0,0,0,0,-1,1798,1737,0,0
581,-713,0,0,0,0,0,0,0,0,0,-1,1805,1737,0,0
588,-713,0,0,0,0,0,0,0,0,0,-1,1812,1737,0,0
595,-713,0,0,0,0,0,0,0,0,0,-1,1819,1737,0,0
602,-713,0,0,0,0,0,0,0,0,0,-1,1826,1737,0,0
609,-713,0,0,0,0,0,0,0,0,0,-1,1833,1737,0,0
616,-713,0,0,0,0,0,0,0,0,0,-1,1840,1737,0,0
623,-713,0,0,0,0,0,0,0,0,0,-1,1847,1737,0,0
630,-713,0,0,0,0,0,0,0,0,0,-1,1854,1737,0,0
637,-713,0,0,0,0,0,0,0,0,0,-1,1861,1737,0,0
644,-713,0,0,0,0,0,0,0,0,0,-1,1868,1737,0,0
651,-713,0,0,0,0,0,0,0,0,0,-1,1875,1737,0,0
658,-713,0,0,0,0,0,0,0,0,0,-1,1882,1737,0,0
665,-713,0,0,0,0,0,0,0,0,0,-1,1889,1737,0,0
672,-713,0,0,0,0,0,0,0,0,0,-1,1896,1737,0,0
679,-713,0,0,0,0,0,0,0,0,0,-1,1903,1737,0,0
686,-713,0,0,0,0,0,0,0,0,0,-1,1910,1737,0,0
693,-713,0,0,0,0,0,0,0,0,0,-1,1917,1737,0,0
700,-713,0,0,0,0,0,0,0,0,0,-1,1924,1737,0,0
707,-713,0,0,0,0,0,0,0,0,0,-1,1931,1737,0,0
714,-713,0,0,0,0,0,0,0,0,0,-1,1938,1737,0,0
721,-713,0,0,0,0,0,0,0,0,0,-1,1945,1737,0,0
728,-713,0,0,0,0,0,0,0,0,0,-1,1952,1737,0,0
735,-713,0,0,0,0,0,0,0,0,0,-1,1959,1737,0,0
742,-713,0,0,0,0,0,0,0,0,0,-1,1966,1737,0,0
749,-713,0,0,0,0,0,0,0,0,0,-1,1973,1737,0,0
756,-713,0,0,0,0,0,0,0,0,0,-1,1980,1737,0,0
763,-713,0,0,0,0,0,0,0,0,0,-1,1987,1737,0,0
770,-713,0,0,0,0,0,0,0,0,0,-1,1994,1737,0,0
777,-713,0,0,0,0,0,0,0,0,0,-1,2001,1737,0,0
784,-713,0,0,0,0,0,0,0,0,0,-1,2008,1737,0,0
791,-713,0,0,0,0,0,0,0,0,0,-1,2015,1737,0,0
798,-713,0,0,0,0,0,0,0,0,0,-1,2022,1737,0,0
805,-713,0,0,0,0,0,0,0,0,0,-1,2029,1737,0,0
812,-713,0,0,0,0,0,0,0,0,0,-1,2036,1737,0,0
-700,-720,0,0,0,0,0,0,0,0,0,-1,524,1744,0,0
-693,-720,0,0,0,0,0,0,0,0,0,-1,531,1744,0,0
-686,-720,0,0,0,0,0,0,0,0,0,-1,538,1744,0,0
-679,-720,0,0,0,0,0,0,0,0,0,-1,545,1744,0,0
-672,-720,0,0,0,0,0,0,0,0,0,-1,552,1744,0,0
-665,-720,0,0,0,0,0,0,0,0,0,-1,559,1744,0,0
-658,-720,0,0,0,0,0,0,0,0,0,-1,566,1744,0,0
-651,-720,0,0,0,0,0,0,0,0,0,-1,573,1744,0,0
-644,-720,0,0,0,0,0,0,0,0,0,-1,580,1744,0,0
-637,-720,0,0,0,0,0,0,0,0,0,-1,587,1744,0,0
-630,-720,0,0,0,0,0,0,0,0,0,-1,594,1744,0,0
-623,-720,0,0,0,0,0,0,0,0,0,-1,601,1744,0,0
-616,-720,0,0,0,0,0,0,0,0,0,-1,608,1744,0,0
-609,-720,0,0,0,0,0,0,0,0,0,-1,615,1744,0,0
-602,-720,0,0,0,0,0,0,0,0,0,-1,622,1744,0,0
-595,-720,0,0,0,0,0,0,0,0,0,-1,629,1744,0,0
-588,-720,0,0,0,0,0,0,0,0,0,-1,636,1744,0,0
-581,-720,0,0,0,0,0,0,0,0,0,-1,643,1744,0,0
-574,-720,0,0,0,0,0,0,0,0,0,-1,650,1744,0,0
-567,-720,0,0,0,0,0,0,0,0,0,-1,657,1744,0,0
-560,-720,0,0,0,0,0,0,0,0,0,-1,664,1744,0,0
-553,-720,0,0,0,0,0,0,0,0,0,-1,671,1744,0,0
-546,-720,0,0,0,0,0,0,0,0,0,-1,678,1744,0,0
-539,-720,0,0,0,0,0,0,0,0,0,-1,685,1744,0,0
-532,-720,0,0,0,0,0,0,0,0,0,-1,692,1744,0,0
-525,-720,0,0,0,0,0,0,0,0,0,-1,699,1744,0,0
-518,-720,0,0,0,0,0,0,0,0,0,-1,706,1744,0,0
-511,-720,0,0,0,0,0,0,0,0,0,-1,713,1744,0,0
-504,-720,0,0,0,0,0,0,0,0,0,-1,720,1744,0,0
-497,-720,0,0,0,0,0,0,0,0,0,-1,727,1744,0,0
-490,-720,0,0,0,0,0,0,0,0,0,-1,734,1744,0,0
-483,-720,0,0,0,0,0,0,0,0,0,-1,741,1744,0,0
-476,-720,0,0,0,0,0,0,0,0,0,-1,748,1744,0,0
-469,-720,0,0,0,0,0,0,0,0,0,-1,755,1744,0,0
-462,-720,0,0,0,0,0,0,0,0,0,-1,762,1744,0,0
-455,-720,0,0,0,0,0,0,0,0,0,-1,769,1744,0,0
-448,-720,0,0,0,0,0,0,0,0,0,-1,776,1744,0,0
-441,-720,0,0,0,0,0,0,0,0,0,-1,783,1744,0,0
-434,-720,0,0,0,0,0,0,0,0,0,-1,790,1744,0,0
-427,-720,0,0,0,0,0,0,0,0,0,-1,797,1744,0,0
-420,-720,0,0,0,0,0,0,0,0,0,-1,804,1744,0,0
-413,-720,0,0,0,0,0,0,0,0,0,-1,811,1744,0,0
-406,-720,0,0,0,0,0,0,0,0,0,-1,818,1744,0,0
-399,-720,0,0,0,0,0,0,0,0,0,-1,825,1744,0,0
-392,-720,0,0,0,0,0,0,0,0,0,-1,832,1744,0,0
-385,-720,0,0,0,0,0,0,0,0,0,-1,839,1744,0,0
-378,-720,0,0,0,0,0,0,0,0,0,-1,846,1744,0,0
-371,-720,0,0,0,0,0,0,0,0,0,-1,853,1744,0,0
-364,-720,0,0,0,0,0,0,0,0,0,-1,860,1744,0,0
-357,-720,0,0,0,0,0,0,0,0,0,-1,867,1744,0,0
-350,-720,0,0,0,0,0,0,0,0,0,-1,874,1744,0,0
-343,-720,0,0,0,0,0,0,0,0,0,-1,881,1744,0,0
-336,-720,0,0,0,0,0,0,0,0,0,-1,888,1744,0,0
-329,-720,0,0,0,0,0,0,0,0,0,-1,895,1744,0,0
-322,-720,0,0,0,0,0,0,0,0,0,-1,902,1744,0,0
-315,-720,0,0,0,0,0,0,0,0,0,-1,909,1744,0,0
-308,-720,0,0,0,0,0,0,0,0,0,-1,916,1744,0,0
-301,-720,0,0,0,0,0,0,0,0,0,-1,923,1744,0,0
-294,-720,0,0,0,0,0,0,0,0,0,-1,930,1744,0,0
-287,-720,0,0,0,0,0,0,0,0,0,-1,937,1744,0,0
-280,-720,6.46796,22.6417,0,0,0,0,0,0,0,-1,944,1744,6.46793,-22.6417
-273,-720,8.54633,13.262,0,0,0,0,0,0,0,-1,951,1744,8.54636,-13.2619
-266,-720,7.28027,13.3165,0,0,0,0,0,0,0,-1,958,1744,7.28026,-13.3166
-259,-720,3.70563,18.6372,0,0,0,0,0,0,0,-1,965,1744,3.70564,-18.6372
-252,-720,4.00989,18.5059,0,0,0,0,0,0,0,-1,972,1744,4.00988,-18.5058
-245,-720,7.05634,33.8489,0,0,0,0,0,0,0,-1,979,1744,7.05634,-33.8489
-238,-720,5.02216,24.1455,0,0,0,0,0,0,0,-1,986,1744,5.02217,-24.1455
-231,-720,7.35455,28.3225,0,0,0,0,0,0,0,-1,993,1744,7.35453,-28.3225
-224,-720,7.65991,19.4061,0,0,0,0,0,0,0,-1,1000,1744,7.6599,-19.4061
-217,-720,4.77637,30.7196,0,0,0,0,0,0,0,-1,1007,1744,4.77636,-30.7197
-210,-720,8.31781,34.7283,0,0,0,0,0,0,0,-1,1014,1744,8.31781,-34.7282
-203,-720,7.89978,34.8447,0,0,0,0,0,0,0,-1,1021,1744,7.89975,-34.8447
-196,-720,8.7345,36.9528,0,0,0,0,0,0,0,-1,1028,1744,8.73444,-36.9528
-189,-720,8.69128,37.3835,0,0,0,0,0,0,0,-1,1035,1744,8.69123,-37.3836
-182,-720,8.68579,37.6179,0,0,0,0,0,0,0,-1,1042,1744,8.68575,-37.6179
-175,-720,8.59973,38.1931,0,0,0,0,0,0,0,-1,1049,1744,8.59976,-38.1932
-168,-720,8.8302,38.4369,-0.0171888,-0.00544424,0.00298774,-0.00472787,-0.0179052,1.33547,0.0107144,0.0439796,1056,1744,8.83018,-38.4369
-161,-720,8.48096,38.7158,-0.0150366,-0.00550918,0.00206206,-0.00508203,-0.0154638,1.36654,0.00910111,0.0356324,1063,1744,8.48102,-38.7159
-154,-720,8.63428,39.153,-0.013056,-0.00450308,0.00153258,-0.00423675,-0.0133223,1.39874,0.00785964,0.0275328,1070,1744,8.63427,-39.1529
-147,-720,8.58289,39.5361,-0.0110922,-0.00351074,0.00137758,-0.00326818,-0.0113348,1.39651,0.00673675,0.0247103,1077,1744,8.58289,-39.5361
-140,-720,8.59253,39.8176,-0.00910546,-0.00262303,0.00129402,-0.00237427,-0.00935422,1.38087,0.00561463,0.0193974,1084,1744,8.59253,-39.8176
-133,-720,8.53174,40.0215,-0.0072293,-0.00167512,0.00127515,-0.00139636,-0.00750807,1.35557,0.00461095,0.0131471,1091,1744,8.53175,-40.0215
-126,-720,8.50159,40.3005,-0.00558788,-0.000805705,0.00135958,-0.000446199,-0.00594738,1.31229,0.00382487,0.0129348,1098,1744,8.50157,-40.3006
-119,-720,8.47534,40.5721,-0.00423884,-4.28763e-05,0.00146779,0.000419597,-0.00470131,1.26556,0.00328302,0.0150183,1105,1744,8.47534,-40.5722
-112,-720,8.44434,40.8459,-0.00262992,0.00106192,0.00172017,0.00173918,-0.00330718,1.19572,0.00296003,0.0130025,1112,1744,8.44436,-40.8459
-105,-720,8.42847,41.1061,-0.00159825,0.00163403,0.00165691,0.00233247,-0.00229668,1.17187,0.00267267,0.0124991,1119,1744,8.42848,-41.1061
-98,-720,8.42664,41.3445,-0.00128162,0.00190854,0.00171078,0.00265248,-0.00202557,1.16061,0.00270895,0.0100855,1126,1744,8.42665,-41.3445
-91,-720,8.41394,41.6022,-0.000920592,0.00219228,0.00172631,0.0029602,-0.00168851,1.15225,0.0027172,0.0096462,1133,1744,8.41389,-41.6022
-84,-720,8.39819,41.8495,-0.000664362,0.00246218,0.00187287,0.00333848,-0.00154066,1.13317,0.00288001,0.0112199,1140,1744,8.39824,-41.8495
-77,-720,8.38464,42.0948,-0.000233367,0.00231092,0.00182252,0.00326137,-0.00118382,1.09009,0.00265822,0.0135166,1147,1744,8.38467,-42.0948
-70,-720,8.38123,42.3134,0.000147416,0.00197488,0.00144878,0.002774,-0.000651703,1.06674,0.00210054,0.0120582,1154,1744,8.38128,-42.3133
-63,-720,8.34448,42.5015,0.000189775,0.0018279,0.000915513,0.00223726,-0.000219587,1.15032,0.00156983,0.0122503,1161,1744,8.34447,-42.5015
-56,-720,8.35315,42.7036,0.000221344,0.00151908,0.000878156,0.00196209,-0.000221661,1.10358,0.00138786,0.0135042,1168,1744,8.35316,-42.7036
-49,-720,8.32007,42.8728,0.000389049,0.00119292,0.0010216,0.00188881,-0.000306845,0.972815,0.00137297,0.0183446,1175,1744,8.3201,-42.8728
-42,-720,8.34668,43.0311,0.000580417,0.000830238,0.00136975,0.00208076,-0.000670106,0.830868,0.00165636,0.0206036,1182,1744,8.34668,-43.0311
-35,-720,8.3855,43.1849,0.000750269,0.000534322,0.00189312,0.00253849,-0.0012539,0.756912,0.00223101,0.0185284,1189,1744,8.3855,-43.185
-28,-720,8.37646,43.3579,0.00101403,0.000501186,0.00252405,0.00329465,-0.00177943,0.734776,0.00297274,0.0109569,1196,1744,8.37652,-43.3579
-21,-720,8.36633,43.5166,0.00129065,0.000801611,0.00320577,0.00426121,-0.00216895,0.747335,0.00377739,0.00866339,1203,1744,8.3663,-43.5166
-14,-720,8.36194,43.6306,0.00163971,0.00160441,0.00390274,0.00552484,-0.00228071,0.783137,0.00463446,0.0104985,1210,1744,8.36197,-43.6306
-7,-720,8.37048,43.7655,0.00203663,0.00275101,0.0044309,0.0068391,-0.00205145,0.825618,0.00537533,0.0120443,1217,1744,8.37054,-43.7655
0,-720,8.39099,43.8783,0.00250104,0.00468208,0.00488914,0.00860085,-0.00141773,0.895127,0.00626022,0.0125596,1224,1744,8.39104,-43.8783
7,-720,8.40784,43.9568,0.00289018,0.00669517,0.0051354,0.0102691,-0.000683799,0.962793,0.00708504,0.0151063,1231,1744,8.40786,-43.9567
14,-720,8.42322,44.0524,0.00306814,0.00925203,0.00505684,0.0120873,0.00023288,1.05979,0.0079817,0.0144976,1238,1744,8.42316,-44.0523
21,-720,8.41345,44.1359,0.0032009,0.0112501,0.00469148,0.0134067,0.00104428,1.13991,0.00861082,0.0117288,1245,1744,8.41339,-44.1358
28,-720,8.41406,44.183,0.00324345,0.0128716,0.00420316,0.0144483,0.00166676,1.21192,0.00912746,0.0118223,1252,1744,8.41409,-44.183
35,-720,8.43616,44.2634,0.00327493,0.0141381,0.00358777,0.0152161,0.00219697,1.27892,0.00949681,0.0112446,1259,1744,8.43618,-44.2635
42,-720,8.44897,44.3239,0.00319778,0.0149254,0.00269615,0.0155156,0.00260764,1.35531,0.00959338,0.0109187,1266,1744,8.44898,-44.3239
49,-720,8.45447,44.3215,0.00286363,0.0149245,0.00192618,0.0152247,0.00256348,1.41621,0.00941238,0.011793,1273,1744,8.4545,-44.3216
56,-720,8.48706,44.3469,0.00250682,0.0144218,0.00116309,0.0145343,0.00239434,1.47439,0.00899824,0.0108863,1280,1744,8.48704,-44.3469
63,-720,8.49585,44.3704,0.00234151,0.0134054,0.000358077,0.013417,0.00232994,1.53848,0.00827804,0.0122938,1287,1744,8.49583,-44.3704
70,-720,8.52136,44.3617,0.00225655,0.0117252,-0.00024004,0.0117313,0.00225047,-1.54547,0.00718912,0.0129353,1294,1744,8.52134,-44.3617
77,-720,8.53723,44.349,0.00222314,0.0094632,-0.00066364,0.00952353,0.00216281,-1.48014,0.00576494,0.0153941,1301,1744,8.53718,-44.349
84,-720,8.54834,44.3188,0.00246114,0.00715039,-0.000848964,0.00729936,0.00231218,-1.39709,0.00430758,0.0140535,1308,1744,8.54837,-44.3189
91,-720,8.5531,44.3003,0.00299446,0.00490957,-0.000885928,0.00525654,0.00264749,-1.19752,0.00303489,0.013041,1315,1744,8.55308,-44.3004
98,-720,8.54517,44.2646,0.00343031,0.0031324,-0.0008134,0.00410828,0.00245443,-0.69484,0.00238688,0.0122767,1322,1744,8.54522,-44.2647
105,-720,8.56335,44.2189,0.00384746,0.00145491,-0.000687336,0.00403086,0.00127151,-0.260753,0.00237948,0.0114689,1329,1744,8.56332,-44.2189
112,-720,8.58374,44.1497,0.00435285,0.000418433,-0.000423871,0.004398,0.000373285,-0.106112,0.00281583,0.0108207,1336,1744,8.58375,-44.1497
119,-720,8.5885,44.0759,0.00488031,-0.00089826,-0.000109467,0.00488238,-0.000900333,-0.0189345,0.00359283,0.011472,1343,1744,8.58852,-44.0759
126,-720,8.59949,43.9994,0.00515549,-0.00143762,0.000227761,0.00516335,-0.00144548,0.0344905,0.00401183,0.0120707,1350,1744,8.59944,-43.9993
133,-720,8.60193,43.8984,0.00513749,-0.00175181,0.000418673,0.00516284,-0.00177716,0.0604748,0.00416271,0.0132152,1357,1744,8.60195,-43.8985
140,-720,8.62415,43.7782,0.0047906,-0.00186704,0.000561387,0.00483761,-0.00191405,0.0835361,0.00401804,0.0185682,1364,1744,8.62415,-43.7783
147,-720,8.62463,43.6276,0.00427217,-0.00173178,0.000671749,0.00434641,-0.00180602,0.110071,0.00365164,0.0177857,1371,1744,8.62459,-43.6276
154,-720,8.63281,43.5012,0.00358032,-0.00126189,0.000523989,0.00363637,-0.00131795,0.106569,0.00296294,0.0119521,1378,1744,8.63283,-43.5012
161,-720,8.64905,43.3469,0.00276693,-0.000769061,0.000339524,0.00279924,-0.000801367,0.0948645,0.00218288,0.00952209,1385,1744,8.64907,-43.347
168,-720,8.64453,43.1875,0.00189208,-0.00042513,0.000180766,0.0019061,-0.000439147,0.0773861,0.00143962,0.00953742,1392,1744,8.64459,-43.1875
175,-720,8.65894,43.0155,0.00110145,-6.19102e-05,-7.71361e-05,0.00110654,-6.70024e-05,-0.0659199,0.000761013,0.0148405,1399,1744,8.65898,-43.0155
182,-720,8.66089,42.8538,0.000479484,0.000258628,-0.000390051,0.000774437,-3.63255e-05,-0.647452,0.000528816,0.015218,1406,1744,8.66087,-42.8538
189,-720,8.65662,42.6709,0.000161116,0.000574554,-0.000608921,0.00101089,-0.000275219,-0.949036,0.000781979,0.0130937,1413,1744,8.65665,-42.6709
196,-720,8.65698,42.4673,-3.9141e-05,0.000885246,-0.00076854,0.00131987,-0.000473762,-1.05612,0.00107327,0.0134949,1420,1744,8.65694,-42.4673
203,-720,8.62354,42.2577,-0.000289762,0.00157236,-0.000832396,0.0018902,-0.000607603,-1.20604,0.00150415,0.0154336,1427,1744,8.62358,-42.2576
210,-720,8.5979,42.0664,-0.000382742,0.00202823,-0.000783652,0.00226055,-0.000615069,-1.28258,0.0017485,0.013567,1434,1744,8.59784,-42.0664
217,-720,8.60938,41.8348,-0.00044291,0.0023081,-0.000825295,0.00253669,-0.000671502,-1.30059,0.00195381,0.0130042,1441,1744,8.60932,-41.8348
224,-720,8.60913,41.5885,-0.000593879,0.00251815,-0.000843328,0.00273199,-0.000807718,-1.32246,0.00214195,0.0104115,1448,1744,8.60907,-41.5885
231,-720,8.59204,41.3456,-0.000839469,0.00265776,-0.000803319,0.00283346,-0.00101517,-1.35547,0.00230318,0.0106349,1455,1744,8.59208,-41.3456
238,-720,8.56689,41.0918,-0.000948931,0.00273943,-0.000724518,0.00287664,-0.00108615,-1.38363,0.00236448,0.00895736,1462,1744,8.56691,-41.0918
245,-720,8.55127,40.8591,-0.00101122,0.00284749,-0.000743735,0.00298588,-0.00114961,-1.38683,0.00246483,0.0107634,1469,1744,8.55133,-40.8591
252,-720,8.53503,40.5975,-0.00126726,0.00291371,-0.000790374,0.00305814,-0.00141169,-1.39006,0.00263837,0.0107586,1476,1744,8.53502,-40.5976
259,-720,8.52173,40.3184,-0.00151574,0.00272425,-0.000766289,0.00285849,-0.00164998,-1.39737,0.00263396,0.0102948,1483,1744,8.52175,-40.3183
266,-720,8.49414,40.0527,-0.00153999,0.00289535,-0.0010661,0.0031383,-0.00178294,-1.34674,0.00287697,0.00912529,1490,1744,8.49412,-40.0528
273,-720,8.46606,39.7535,-0.00150407,0.00379751,-0.00174367,0.00431958,-0.00202614,-1.27988,0.00374261,0.0140074,1497,1744,8.46601,-39.7535
280,-720,8.39038,39.4641,-0.00154605,0.00455162,-0.00244617,0.00541164,-0.00240607,-1.23272,0.00462341,0.0191427,1504,1744,8.39033,-39.4642
287,-720,8.34265,39.1161,-0.00154124,0.00605973,-0.00320722,0.00723216,-0.00271367,-1.22033,0.00593648,0.033473,1511,1744,8.34268,-39.1161
294,-720,8.47131,38.7106,-0.00153882,0.00775563,-0.00384408,0.00913946,-0.00292265,-1.22525,0.00726585,0.0373298,1518,1744,8.47129,-38.7106
301,-720,8.43896,38.406,-0.00150844,0.0093858,-0.00421835,0.0108282,-0.00295085,-1.24132,0.00837748,0.0408119,1525,1744,8.43891,-38.406
308,-720,8.18933,38.2428,-0.00120512,0.0109683,-0.00493069,0.0127149,-0.00295165,-1.23037,0.00961271,0.0395466,1532,1744,8.18931,-38.2428
315,-720,8.26599,37.6229,-0.000873524,0.0131784,-0.00581595,0.0152732,-0.00296838,-1.22507,0.0113023,0.0433943,1539,1744,8.26599,-37.6229
322,-720,8.57849,36.4414,0,0,0,0,0,0,0,-1,1546,1744,8.57849,-36.4414
329,-720,9.15906,34.7668,0,0,0,0,0,0,0,-1,1553,1744,9.1591,-34.7669
336,-720,6.14148,26.5682,0,0,0,0,0,0,0,-1,1560,1744,6.14151,-26.5683
343,-720,6.78552,21.3625,0,0,0,0,0,0,0,-1,1567,1744,6.78551,-21.3625
350,-720,4.0741,11.1836,0,0,0,0,0,0,0,-1,1574,1744,4.07412,-11.1836
357,-720,6.90833,21.4504,0,0,0,0,0,0,0,-1,1581,1744,6.90827,-21.4505
364,-720,5.83777,24.1599,0,0,0,0,0,0,0,-1,1588,1744,5.83773,-24.1599
371,-720,5.46997,23.6176,0,0,0,0,0,0,0,-1,1595,1744,5.47001,-23.6176
378,-720,3.88257,25.5404,0,0,0,0,0,0,0,-1,1602,1744,3.88262,-25.5404
385,-720,4.63611,25.6746,0,0,0,0,0,0,0,-1,1609,1744,4.63612,-25.6746
392,-720,3.49377,23.5042,0,0,0,0,0,0,0,-1,1616,1744,3.4938,-23.5042
399,-720,2.37317,24.7166,0,0,0,0,0,0,0,-1,1623,1744,2.37317,-24.7166
406,-720,0,0,0,0,0,0,0,0,0,-1,1630,1744,0,0
413,-720,0,0,0,0,0,0,0,0,0,-1,1637,1744,0,0
420,-720,0,0,0,0,0,0,0,0,0,-1,1644,1744,0,0
427,-720,0,0,0,0,0,0,0,0,0,-1,1651,1744,0,0
434,-720,0,0,0,0,0,0,0,0,0,-1,1658,1744,0,0
441,-720,0,0,0,0,0,0,0,0,0,-1,1665,1744,0,0
448,-720,0,0,0,0,0,0,0,0,0,-1,1672,1744,0,0
455,-720,0,0,0,0,0,0,0,0,0,-1,1679,1744,0,0
462,-720,0,0,0,0,0,0,0,0,0,-1,1686,1744,0,0
469,-720,0,0,0,0,0,0,0,0,0,-1,1693,1744,0,0
476,-720,0,0,0,0,0,0,0,0,0,-1,1700,1744,0,0
483,-720,0,0,0,0,0,0,0,0,0,-1,1707,1744,0,0
490,-720,0,0,0,0,0,0,0,0,0,-1,1714,1744,0,0
497,-720,0,0,0,0,0,0,0,0,0,-1,1721,1744,0,0
504,-720,0,0,0,0,0,0,0,0,0,-1,1728,1744,0,0
511,-720,0,0,0,0,0,0,0,0,0,-1,1735,1744,0,0
518,-720,0,0,0,0,0,0,0,0,0,-1,1742,1744,0,0
525,-720,0,0,0,0,0,0,0,0,0,-1,1749,1744,0,0
532,-720,0,0,0,0,0,0,0,0,0,-1,1756,1744,0,0
539,-720,0,0,0,0,0,0,0,0,0,-1,1763,1744,0,0
546,-720,0,0,0,0,0,0,0,0,0,-1,1770,1744,0,0
553,-720,0,0,0,0,0,0,0,0,0,-1,1777,1744,0,0
560,-720,0,0,0,0,0,0,0,0,0,-1,1784,1744,0,0
567,-720,0,0,0,0,0,0,0,0,0,-1,1791,1744,0,0
574,-720,0,0,0,0,0,0,0,0,0,-1,1798,1744,0,0
581,-720,0,0,0,0,0,0,0,0,0,-1,1805,1744,0,0
588,-720,0,0,0,0,0,0,0,0,0,-1,1812,1744,0,0
595,-720,0,0,0,0,0,0,0,0,0,-1,1819,1744,0,0
602,-720,0,0,0,0,0,0,0,0,0,-1,1826,1744,0,0
609,-720,0,0,0,0,0,0,0,0,0,-1,1833,1744,0,0
616,-720,0,0,0,0,0,0,0,0,0,-1,1840,1744,0,0
623,-720,0,0,0,0,0,0,0,0,0,-1,1847,1744,0,0
630,-720,0,0,0,0,0,0,0,0,0,-1,1854,1744,0,0
637,-720,0,0,0,0,0,0,0,0,0,-1,1861,1744,0,0
644,-720,0,0,0,0,0,0,0,0,0,-1,1868,1744,0,0
651,-720,0,0,0,0,0,0,0,0,0,-1,1875,1744,0,0
658,-720,0,0,0,0,0,0,0,0,0,-1,1882,1744,0,0
665,-720,0,0,0,0,0,0,0,0,0,-1,1889,1744,0,0
672,-720,0,0,0,0,0,0,0,0,0,-1,1896,1744,0,0
679,-720,0,0,0,0,0,0,0,0,0,-1,1903,1744,0,0
686,-720,0,0,0,0,0,0,0,0,0,-1,1910,1744,0,0
693,-720,0,0,0,0,0,0,0,0,0,-1,1917,1744,0,0
700,-720,0,0,0,0,0,0,0,0,0,-1,1924,1744,0,0
707,-720,0,0,0,0,0,0,0,0,0,-1,1931,1744,0,0
714,-720,0,0,0,0,0,0,0,0,0,-1,1938,1744,0,0
721,-720,0,0,0,0,0,0,0,0,0,-1,1945,1744,0,0
728,-720,0,0,0,0,0,0,0,0,0,-1,1952,1744,0,0
735,-720,0,0,0,0,0,0,0,0,0,-1,1959,1744,0,0
742,-720,0,0,0,0,0,0,0,0,0,-1,1966,1744,0,0
749,-720,0,0,0,0,0,0,0,0,0,-1,1973,1744,0,0
756,-720,0,0,0,0,0,0,0,0,0,-1,1980,1744,0,0
763,-720,0,0,0,0,0,0,0,0,0,-1,1987,1744,0,0
770,-720,0,0,0,0,0,0,0,0,0,-1,1994,1744,0,0
777,-720,0,0,0,0,0,0,0,0,0,-1,2001,1744,0,0
784,-720,0,0,0,0,0,0,0,0,0,-1,2008,1744,0,0
791,-720,0,0,0,0,0,0,0,0,0,-1,2015,1744,0,0
798,-720,0,0,0,0,0,0,0,0,0,-1,2022,1744,0,0
805,-720,0,0,0,0,0,0,0,0,0,-1,2029,1744,0,0
812,-720,0,0,0,0,0,0,0,0,0,-1,2036,1744,0,0
-700,-727,0,0,0,0,0,0,0,0,0,-1,524,1751,0,0
-693,-727,0,0,0,0,0,0,0,0,0,-1,531,1751,0,0
-686,-727,0,0,0,0,0,0,0,0,0,-1,538,1751,0,0
-679,-727,0,0,0,0,0,0,0,0,0,-1,545,1751,0,0
-672,-727,0,0,0,0,0,0,0,0,0,-1,552,1751,0,0
-665,-727,0,0,0,0,0,0,0,0,0,-1,559,1751,0,0
-658,-727,0,0,0,0,0,0,0,0,0,-1,566,1751,0,0
-651,-727,0,0,0,0,0,0,0,0,0,-1,573,1751,0,0
-644,-727,0,0,0,0,0,0,0,0,0,-1,580,1751,0,0
-637,-727,0,0,0,0,0,0,0,0,0,-1,587,1751,0,0
-630,-727,0,0,0,0,0,0,0,0,0,-1,594,1751,0,0
-623,-727,0,0,0,0,0,0,0,0,0,-1,601,1751,0,0
-616,-727,0,0,0,0,0,0,0,0,0,-1,608,1751,0,0
-609,-727,0,0,0,0,0,0,0,0,0,-1,615,1751,0,0
-602,-727,0,0,0,0,0,0,0,0,0,-1,622,1751,0,0
-595,-727,0,0,0,0,0,0,0,0,0,-1,629,1751,0,0
-588,-727,0,0,0,0,0,0,0,0,0,-1,636,1751,0,0
-581,-727,0,0,0,0,0,0,0,0,0,-1,643,1751,0,0
-574,-727,0,0,0,0,0,0,0,0,0,-1,650,1751,0,0
-567,-727,0,0,0,0,0,0,0,0,0,-1,657,1751,0,0
-560,-727,0,0,0,0,0,0,0,0,0,-1,664,1751,0,0
-553,-727,0,0,0,0,0,0,0,0,0,-1,671,1751,0,0
-546,-727,0,0,0,0,0,0,0,0,0,-1,678,1751,0,0
-539,-727,0,0,0,0,0,0,0,0,0,-1,685,1751,0,0
-532,-727,0,0,0,0,0,0,0,0,0,-1,692,1751,0,0
-525,-727,0,0,0,0,0,0,0,0,0,-1,699,1751,0,0
-518,-727,0,0,0,0,0,0,0,0,0,-1,706,1751,0,0
-511,-727,0,0,0,0,0,0,0,0,0,-1,713,1751,0,0
-504,-727,0,0,0,0,0,0,0,0,0,-1,720,1751,0,0
-497,-727,0,0,0,0,0,0,0,0,0,-1,727,1751,0,0
-490,-727,0,0,0,0,0,0,0,0,0,-1,734,1751,0,0
-483,-727,0,0,0,0,0,0,0,0,0,-1,741,1751,0,0
-476,-727,0,0,0,0,0,0,0,0,0,-1,748,1751,0,0
-469,-727,0,0,0,0,0,0,0,0,0,-1,755,1751,0,0
-462,-727,0,0,0,0,0,0,0,0,0,-1,762,1751,0,0
-455,-727,0,0,0,0,0,0,0,0,0,-1,769,1751,0,0
-448,-727,0,0,0,0,0,0,0,0,0,-1,776,1751,0,0
-441,-727,0,0,0,0,0,0,0,0,0,-1,783,1751,0,0
-434,-727,0,0,0,0,0,0,0,0,0,-1,790,1751,0,0
-427,-727,0,0,0,0,0,0,0,0,0,-1,797,1751,0,0
-420,-727,0,0,0,0,0,0,0,0,0,-1,804,1751,0,0
-413,-727,0,0,0,0,0,0,0,0,0,-1,811,1751,0,0
-406,-727,0,0,0,0,0,0,0,0,0,-1,818,1751,0,0
-399,-727,0,0,0,0,0,0,0,0,0,-1,825,1751,0,0
-392,-727,0,0,0,0,0,0,0,0,0,-1,832,1751,0,0
-385,-727,0,0,0,0,0,0,0,0,0,-1,839,1751,0,0
-378,-727,0,0,0,0,0,0,0,0,0,-1,846,1751,0,0
-371,-727,0,0,0,0,0,0,0,0,0,-1,853,1751,0,0
-364,-727,0,0,0,0,0,0,0,0,0,-1,860,1751,0,0
-357,-727,0,0,0,0,0,0,0,0,0,-1,867,1751,0,0
-350,-727,0,0,0,0,0,0,0,0,0,-1,874,1751,0,0
-343,-727,0,0,0,0,0,0,0,0,0,-1,881,1751,0,0
-336,-727,0,0,0,0,0,0,0,0,0,-1,888,1751,0,0
-329,-727,0,0,0,0,0,0,0,0,0,-1,895,1751,0,0
-322,-727,0,0,0,0,0,0,0,0,0,-1,902,1751,0,0
-315,-727,0,0,0,0,0,0,0,0,0,-1,909,1751,0,0
-308,-727,0,0,0,0,0,0,0,0,0,-1,916,1751,0,0
-301,-727,0,0,0,0,0,0,0,0,0,-1,923,1751,0,0
-294,-727,0,0,0,0,0,0,0,0,0,-1,930,1751,0,0
-287,-727,0,0,0,0,0,0,0,0,0,-1,937,1751,0,0
-280,-727,0,0,0,0,0,0,0,0,0,-1,944,1751,0,0
-273,-727,0,0,0,0,0,0,0,0,0,-1,951,1751,0,0
-266,-727,4.24805,7.61145,0,0,0,0,0,0,0,-1,958,1751,4.24802,-7.6115
-259,-727,3.65228,5.4082,0,0,0,0,0,0,0,-1,965,1751,3.65229,-5.40818
-252,-727,5.8797,32.9292,0,0,0,0,0,0,0,-1,972,1751,5.87972,-32.9292
-245,-727,6.59198,32.2588,0,0,0,0,0,0,0,-1,979,1751,6.59195,-32.2587
-238,-727,6.6189,30.4597,0,0,0,0,0,0,0,-1,986,1751,6.61889,-30.4598
-231,-727,6.70105,28.9473,0,0,0,0,0,0,0,-1,993,1751,6.70103,-28.9472
-224,-727,7.0614,27.79,0,0,0,0,0,0,0,-1,1000,1751,7.06139,-27.79
-217,-727,4.72937,32.0111,0,0,0,0,0,0,0,-1,1007,1751,4.72935,-32.0111
-210,-727,5.0921,32.4524,0,0,0,0,0,0,0,-1,1014,1751,5.09209,-32.4523
-203,-727,10.5354,32.1929,0,0,0,0,0,0,0,-1,1021,1751,10.5354,-32.1928
-196,-727,10.1326,33.5536,0,0,0,0,0,0,0,-1,1028,1751,10.1326,-33.5536
-189,-727,9.11694,37.0548,0,0,0,0,0,0,0,-1,1035,1751,9.11699,-37.0547
-182,-727,9.0625,37.9088,0,0,0,0,0,0,0,-1,1042,1751,9.06251,-37.9088
-175,-727,9.03857,38.7433,0,0,0,0,0,0,0,-1,1049,1751,9.03853,-38.7433
-168,-727,9.11731,38.7308,-0.0239532,-0.00805237,0.00326998,-0.00740617,-0.0245994,1.37569,0.0145723,0.0441547,1056,1751,9.11731,-38.7309
-161,-727,8.49573,38.899,-0.0207927,-0.00775818,0.00221341,-0.00739257,-0.0211583,1.4071,0.0123991,0.0476676,1063,1751,8.49569,-38.899
-154,-727,8.97034,39.1089,0,0,0,0,0,0,0,-1,1070,1751,8.97031,-39.1089
-147,-727,8.63538,39.4614,0,0,0,0,0,0,0,-1,1077,1751,8.63535,-39.4615
-140,-727,8.77356,39.6151,-0.0124009,-0.00343584,0.00149629,-0.0031927,-0.012644,1.40971,0.00759228,0.0307171,1084,1751,8.77352,-39.6152
-133,-727,8.82544,39.9077,-0.00989888,-0.00207191,0.00155668,-0.00177367,-0.0101971,1.3815,0.00629076,0.0226315,1091,1751,8.82538,-39.9077
-126,-727,8.73669,40.2595,-0.00775291,-0.000852316,0.00174957,-0.000434081,-0.00817114,1.33615,0.00530866,0.0162025,1098,1751,8.73668,-40.2595
-119,-727,8.69849,40.5848,-0.0060184,0.000162423,0.00195248,0.00072753,-0.0065835,1.28906,0.00465052,0.0126466,1105,1751,8.69843,-40.5849
-112,-727,8.69263,40.8257,-0.0039561,0.00168347,0.00235234,0.00253583,-0.00480846,1.22316,0.00430737,0.0133811,1112,1751,8.69265,-40.8257
-105,-727,8.64722,41.0864,-0.00263282,0.00249061,0.0023573,0.00341017,-0.00355238,1.19886,0.00402011,0.0127288,1119,1751,8.64726,-41.0864
-98,-727,8.6394,41.3651,-0.00227673,0.00286694,0.00247118,0.00386176,-0.00327156,1.18808,0.00412312,0.010791,1126,1751,8.63937,-41.3651
-91,-727,8.6499,41.6097,-0.00186428,0.00320685,0.00252015,0.00424623,-0.00290367,1.17962,0.00415218,0.0109734,1133,1751,8.64992,-41.6097
-84,-727,8.61938,41.8263,-0.00161509,0.00354903,0.00280706,0.00478097,-0.00284703,1.15723,0.00445096,0.0119889,1140,1751,8.61936,-41.8263
-77,-727,8.58118,42.0645,-0.00108722,0.00319702,0.00279409,0.00457565,-0.00246584,1.11244,0.00412579,0.0132409,1147,1751,8.58113,-42.0644
-70,-727,8.57544,42.2994,-0.000603814,0.00260439,0.00226742,0.00377776,-0.00177718,1.09325,0.00327574,0.0138167,1154,1751,8.57548,-42.2994
-63,-727,8.54712,42.5111,-0.000718266,0.00193426,0.00131658,0.00247678,-0.00126079,1.17993,0.00219562,0.0111699,1161,1751,8.54714,-42.5111
-56,-727,8.52795,42.7058,-0.00086732,0.00113259,0.00124698,0.00173103,-0.00146576,1.12335,0.00184779,0.0109454,1168,1751,8.528,-42.7059
-49,-727,8.52356,42.8723,-0.000711845,0.000575655,0.00133537,0.00141435,-0.00155054,1.01,0.00171238,0.0134409,1175,1751,8.52352,-42.8723
-42,-727,8.54565,43.0505,-0.000346307,-5.62336e-05,0.00158592,0.00139127,-0.00179381,0.830998,0.00184379,0.0167605,1182,1751,8.54564,-43.0506
-35,-727,8.52991,43.2053,-0.000280103,-0.000322499,0.001687,0.00138583,-0.00198844,0.779116,0.00195846,0.0148056,1189,1751,8.52995,-43.2053
-28,-727,8.52124,43.3416,2.32638e-05,-0.000507329,0.00196845,0.00174421,-0.00222828,0.718414,0.00229919,0.00885449,1196,1751,8.52129,-43.3415
-21,-727,8.50183,43.4928,0.000478565,-0.000386554,0.0023302,0.00241602,-0.00232401,0.693627,0.00273683,0.00969932,1203,1751,8.50178,-43.4927
-14,-727,8.49695,43.6296,0.000989214,0.000165393,0.00272814,0.00333636,-0.00218175,0.710471,0.00320905,0.0115211,1210,1751,8.49697,-43.6297
-7,-727,8.50391,43.7823,0.00155358,0.00107509,0.00299883,0.0043227,-0.00169402,0.745593,0.00358256,0.0156862,1217,1751,8.50388,-43.7824
0,-727,8.50134,43.9077,0.00213781,0.00270276,0.00317718,0.00561,-0.000769425,0.829735,0.00402109,0.0145872,1224,1751,8.50129,-43.9077
7,-727,8.49438,43.9564,0.00263281,0.00436791,0.00321797,0.00683323,0.000167493,0.917065,0.00450069,0.0131012,1231,1751,8.49442,-43.9564
14,-727,8.49487,44.0522,0.00296327,0.00638719,0.00302804,0.00815372,0.00119674,1.04268,0.00508407,0.0129618,1238,1751,8.49488,-44.0523
21,-727,8.49402,44.1582,0.00314834,0.00805393,0.00265414,0.00921508,0.00198718,1.15839,0.00559979,0.0121168,1245,1751,8.49399,-44.1582
28,-727,8.49426,44.1991,0.00321267,0.00939601,0.002201,0.0100994,0.00250923,1.26146,0.00607191,0.0116133,1252,1751,8.49426,-44.1991
35,-727,8.50647,44.2648,0.00329557,0.0103509,0.00168548,0.0107329,0.00291359,1.34794,0.00640875,0.011739,1259,1751,8.50651,-44.2648
42,-727,8.48352,44.3019,0.00322965,0.0109505,0.00100741,0.0110798,0.00310037,1.44316,0.00660042,0.0112844,1266,1751,8.48349,-44.3018
49,-727,8.46265,44.3074,0.00279277,0.0109073,0.000488756,0.0109366,0.00276344,1.51085,0.00656671,0.01039,1273,1751,8.46259,-44.3074
56,-727,8.47815,44.3622,0.00234541,0.0104253,-4.45637e-05,0.0104256,0.00234516,-1.56528,0.00631552,0.00973603,1280,1751,8.47816,-44.3621
63,-727,8.48071,44.3754,0.00197829,0.00960854,-0.000583149,0.00965285,0.00193398,-1.49496,0.00589724,0.0120823,1287,1751,8.48075,-44.3754
70,-727,8.51013,44.3568,0.00173206,0.00823344,-0.000820544,0.0083354,0.0016301,-1.44717,0.00510114,0.0142198,1294,1751,8.51013,-44.3569
77,-727,8.52881,44.3578,0.00142623,0.00651201,-0.000945455,0.00668208,0.00125616,-1.39281,0.00410064,0.0165176,1301,1751,8.52878,-44.3577
84,-727,8.5321,44.3044,0.00114844,0.00481171,-0.00097346,0.00505432,0.000905823,-1.32654,0.00311187,0.015926,1308,1751,8.5321,-44.3045
91,-727,8.53967,44.2561,0.00113269,0.00322855,-0.000949614,0.0035948,0.000766432,-1.20269,0.00218631,0.0167269,1315,1751,8.53964,-44.2561
98,-727,8.53271,44.2433,0.0011453,0.00192289,-0.000886723,0.00250231,0.000565881,-0.992008,0.00151522,0.0141784,1322,1751,8.53274,-44.2433
105,-727,8.52466,44.1929,0.00117514,0.00069091,-0.000754974,0.00172587,0.000140177,-0.630233,0.00110682,0.0126599,1329,1751,8.5246,-44.1928
112,-727,8.52063,44.1289,0.00129374,9.03544e-07,-0.000611261,0.00153698,-0.000242339,-0.378726,0.00111425,0.0113272,1336,1751,8.52059,-44.1289
119,-727,8.52209,44.0631,0.00139044,-0.000825383,-0.000435366,0.00147291,-0.000907854,-0.187212,0.00138738,0.00962362,1343,1751,8.52205,-44.0631
126,-727,8.54492,43.9741,0.00139215,-0.00118968,-0.00022733,0.00141201,-0.00120954,-0.0871563,0.00151506,0.0113383,1350,1751,8.54493,-43.9742
133,-727,8.55103,43.8928,0.00121315,-0.0013527,-0.000112243,0.00121805,-0.0013576,-0.0436337,0.00148778,0.0160999,1357,1751,8.55098,-43.8928
140,-727,8.52844,43.7806,0.000756179,-0.00134126,-3.32035e-05,0.000756705,-0.00134179,-0.0158252,0.00122716,0.0216091,1364,1751,8.52848,-43.7806
147,-727,8.53052,43.6366,0.000388264,-0.00127661,4.82512e-05,0.000389661,-0.001278,0.0289495,0.00100733,0.0175442,1371,1751,8.53056,-43.6366
154,-727,8.53406,43.4916,0.00010553,-0.000993117,-0.000155376,0.000127081,-0.00101467,-0.137824,0.000722541,0.0111024,1378,1751,8.53401,-43.4916
161,-727,8.49939,43.3422,-0.000355558,-0.000647739,-0.000333369,-0.000137674,-0.000865623,-0.578889,0.000537105,0.00954506,1385,1751,8.49935,-43.3421
168,-727,8.47522,43.1848,-0.000772365,-0.000441858,-0.000538662,-4.36703e-05,-0.00117055,-0.934233,0.000766226,0.0119248,1392,1751,8.47527,-43.1848
175,-727,8.50061,43.0226,-0.00106161,-0.000244866,-0.0008667,0.000304851,-0.00161133,-1.00556,0.00118894,0.0166227,1399,1751,8.50064,-43.0225
182,-727,8.52942,42.8677,-0.00119702,-6.2559e-05,-0.00118853,0.000687158,-0.00194674,-1.00804,0.00157758,0.0191715,1406,1751,8.52937,-42.8677
189,-727,8.47571,42.6781,-0.00114278,0.000294632,-0.00133045,0.00108809,-0.00193624,-1.03304,0.00176884,0.0118935,1413,1751,8.47569,-42.6781
196,-727,8.45593,42.4845,-0.00110443,0.000829125,-0.00147406,0.00162516,-0.00190047,-1.07564,0.00203759,0.0134166,1420,1751,8.45592,-42.4845
203,-727,8.43225,42.266,-0.00140782,0.00207649,-0.00147987,0.00262019,-0.00195152,-1.21871,0.00264887,0.0168308,1427,1751,8.43231,-42.266
210,-727,8.4054,42.0613,-0.00139997,0.00284939,-0.00130414,0.00321771,-0.00176829,-1.29554,0.00291893,0.0162608,1434,1751,8.40538,-42.0612
217,-727,8.38696,41.8459,-0.00131827,0.00330264,-0.00126021,0.00362397,-0.00163961,-1.32113,0.00311008,0.012071,1441,1751,8.38699,-41.846
224,-727,8.37537,41.5696,-0.00142283,0.00362179,-0.00117757,0.00388313,-0.00168417,-1.3524,0.0032968,0.0128853,1448,1751,8.37532,-41.5695
231,-727,8.35071,41.3394,-0.00167574,0.00383856,-0.00103362,0.00402594,-0.00186312,-1.39146,0.00347564,0.0108897,1455,1751,8.35065,-41.3394
238,-727,8.33105,41.0995,-0.00177591,0.00395122,-0.00085784,0.00407695,-0.00190164,-1.42526,0.00352708,0.0106735,1462,1751,8.3311,-41.0995
245,-727,8.31116,40.8618,-0.00181009,0.00407343,-0.000799253,0.00418007,-0.00191673,-1.43815,0.00359994,0.00961136,1469,1751,8.31116,-40.8618
252,-727,8.2887,40.5983,-0.00207306,0.00412201,-0.000784249,0.00421975,-0.0021708,-1.44681,0.00375227,0.011324,1476,1751,8.28865,-40.5983
259,-727,8.29236,40.3201,-0.00232147,0.00384845,-0.000700805,0.00392705,-0.00240007,-1.45911,0.00368825,0.0154115,1483,1751,8.29232,-40.3201
266,-727,8.29517,40.0812,-0.00227725,0.00400758,-0.00102818,0.00417151,-0.00244118,-1.41269,0.00386116,0.0205868,1490,1751,8.29513,-40.0811
273,-727,8.33032,39.8314,-0.00216005,0.00502835,-0.0018385,0.00547127,-0.00260297,-1.33439,0.0047587,0.034556,1497,1751,8.33031,-39.8314
280,-727,8.03296,39.4897,0,0,0,0,0,0,0,-1,1504,1751,8.03295,-39.4898
287,-727,8.0144,39.0748,0,0,0,0,0,0,0,-1,1511,1751,8.01446,-39.0748
294,-727,8.17712,38.5648,0,0,0,0,0,0,0,-1,1518,1751,8.17708,-38.5648
301,-727,8.14331,38.4729,0,0,0,0,0,0,0,-1,1525,1751,8.14327,-38.473
308,-727,7.67737,38.5533,0,0,0,0,0,0,0,-1,1532,1751,7.67739,-38.5533
315,-727,7.93701,37.6067,0,0,0,0,0,0,0,-1,1539,1751,7.93706,-37.6067
322,-727,8.0835,36.4369,0,0,0,0,0,0,0,-1,1546,1751,8.08349,-36.4369
329,-727,5.54419,31.0325,0,0,0,0,0,0,0,-1,1553,1751,5.54425,-31.0325
336,-727,5.55823,20.2439,0,0,0,0,0,0,0,-1,1560,1751,5.55829,-20.2438
343,-727,2.41699,8.72095,0,0,0,0,0,0,0,-1,1567,1751,2.41702,-8.72098
350,-727,3.89783,7.50195,0,0,0,0,0,0,0,-1,1574,1751,3.89782,-7.50193
357,-727,4.48462,10.2948,0,0,0,0,0,0,0,-1,1581,1751,4.48464,-10.2948
364,-727,6.96729,17.2365,0,0,0,0,0,0,0,-1,1588,1751,6.96732,-17.2365
371,-727,5.04565,23.2227,0,0,0,0,0,0,0,-1,1595,1751,5.04564,-23.2227
378,-727,4.56726,23.0574,0,0,0,0,0,0,0,-1,1602,1751,4.56727,-23.0574
385,-727,3.52307,22.6431,0,0,0,0,0,0,0,-1,1609,1751,3.52303,-22.643
392,-727,0,0,0,0,0,0,0,0,0,-1,1616,1751,0,0
399,-727,0,0,0,0,0,0,0,0,0,-1,1623,1751,0,0
406,-727,0,0,0,0,0,0,0,0,0,-1,1630,1751,0,0
413,-727,0,0,0,0,0,0,0,0,0,-1,1637,1751,0,0
420,-727,0,0,0,0,0,0,0,0,0,-1,1644,1751,0,0
427,-727,0,0,0,0,0,0,0,0,0,-1,1651,1751,0,0
434,-727,0,0,0,0,0,0,0,0,0,-1,1658,1751,0,0
441,-727,0,0,0,0,0,0,0,0,0,-1,1665,1751,0,0
448,-727,0,0,0,0,0,0,0,0,0,-1,1672,1751,0,0
455,-727,0,0,0,0,0,0,0,0,0,-1,1679,1751,0,0
462,-727,0,0,0,0,0,0,0,0,0,-1,1686,1751,0,0
469,-727,0,0,0,0,0,0,0,0,0,-1,1693,1751,0,0
476,-727,0,0,0,0,0,0,0,0,0,-1,1700,1751,0,0
483,-727,0,0,0,0,0,0,0,0,0,-1,1707,1751,0,0
490,-727,0,0,0,0,0,0,0,0,0,-1,1714,1751,0,0
497,-727,0,0,0,0,0,0,0,0,0,-1,1721,1751,0,0
504,-727,0,0,0,0,0,0,0,0,0,-1,1728,1751,0,0
511,-727,0,0,0,0,0,0,0,0,0,-1,1735,1751,0,0
518,-727,0,0,0,0,0,0,0,0,0,-1,1742,1751,0,0
525,-727,0,0,0,0,0,0,0,0,0,-1,1749,1751,0,0
532,-727,0,0,0,0,0,0,0,0,0,-1,1756,1751,0,0
539,-727,0,0,0,0,0,0,0,0,0,-1,1763,1751,0,0
546,-727,0,0,0,0,0,0,0,0,0,-1,1770,1751,0,0
553,-727,0,0,0,0,0,0,0,0,0,-1,1777,1751,0,0
560,-727,0,0,0,0,0,0,0,0,0,-1,1784,1751,0,0
567,-727,0,0,0,0,0,0,0,0,0,-1,1791,1751,0,0
574,-727,0,0,0,0,0,0,0,0,0,-1,1798,1751,0,0
581,-727,0,0,0,0,0,0,0,0,0,-1,1805,1751,0,0
588,-727,0,0,0,0,0,0,0,0,0,-1,1812,1751,0,0
595,-727,0,0,0,0,0,0,0,0,0,-1,1819,1751,0,0
602,-727,0,0,0,0,0,0,0,0,0,-1,1826,1751,0,0
609,-727,0,0,0,0,0,0,0,0,0,-1,1833,1751,0,0
616,-727,0,0,0,0,0,0,0,0,0,-1,1840,1751,0,0
623,-727,0,0,0,0,0,0,0,0,0,-1,1847,1751,0,0
630,-727,0,0,0,0,0,0,0,0,0,-1,1854,1751,0,0
637,-727,0,0,0,0,0,0,0,0,0,-1,1861,1751,0,0
644,-727,0,0,0,0,0,0,0,0,0,-1,1868,1751,0,0
651,-727,0,0,0,0,0,0,0,0,0,-1,1875,1751,0,0
658,-727,0,0,0,0,0,0,0,0,0,-1,1882,1751,0,0
665,-727,0,0,0,0,0,0,0,0,0,-1,1889,1751,0,0
672,-727,0,0,0,0,0,0,0,0,0,-1,1896,1751,0,0
679,-727,0,0,0,0,0,0,0,0,0,-1,1903,1751,0,0
686,-727,0,0,0,0,0,0,0,0,0,-1,1910,1751,0,0
693,-727,0,0,0,0,0,0,0,0,0,-1,1917,1751,0,0
700,-727,0,0,0,0,0,0,0,0,0,-1,1924,1751,0,0
707,-727,0,0,0,0,0,0,0,0,0,-1,1931,1751,0,0
714,-727,0,0,0,0,0,0,0,0,0,-1,1938,1751,0,0
721,-727,0,0,0,0,0,0,0,0,0,-1,1945,1751,0,0
728,-727,0,0,0,0,0,0,0,0,0,-1,1952,1751,0,0
735,-727,0,0,0,0,0,0,0,0,0,-1,1959,1751,0,0
742,-727,0,0,0,0,0,0,0,0,0,-1,1966,1751,0,0
749,-727,0,0,0,0,0,0,0,0,0,-1,1973,1751,0,0
756,-727,0,0,0,0,0,0,0,0,0,-1,1980,1751,0,0
763,-727,0,0,0,0,0,0,0,0,0,-1,1987,1751,0,0
770,-727,0,0,0,0,0,0,0,0,0,-1,1994,1751,0,0
777,-727,0,0,0,0,0,0,0,0,0,-1,2001,1751,0,0
784,-727,0,0,0,0,0,0,0,0,0,-1,2008,1751,0,0
791,-727,0,0,0,0,0,0,0,0,0,-1,2015,1751,0,0
798,-727,0,0,0,0,0,0,0,0,0,-1,2022,1751,0,0
805,-727,0,0,0,0,0,0,0,0,0,-1,2029,1751,0,0
812,-727,0,0,0,0,0,0,0,0,0,-1,2036,1751,0,0
-700,-734,0,0,0,0,0,0,0,0,0,-1,524,1758,0,0
-693,-734,0,0,0,0,0,0,0,0,0,-1,531,1758,0,0
-686,-734,0,0,0,0,0,0,0,0,0,-1,538,1758,0,0
-679,-734,0,0,0,0,0,0,0,0,0,-1,545,1758,0,0
-672,-734,0,0,0,0,0,0,0,0,0,-1,552,1758,0,0
-665,-734,0,0,0,0,0,0,0,0,0,-1,559,1758,0,0
-658,-734,0,0,0,0,0,0,0,0,0,-1,566,1758,0,0
-651,-734,0,0,0,0,0,0,0,0,0,-1,573,1758,0,0
-644,-734,0,0,0,0,0,0,0,0,0,-1,580,1758,0,0
-637,-734,0,0,0,0,0,0,0,0,0,-1,587,1758,0,0
-630,-734,0,0,0,0,0,0,0,0,0,-1,594,1758,0,0
-623,-734,0,0,0,0,0,0,0,0,0,-1,601,1758,0,0
-616,-734,0,0,0,0,0,0,0,0,0,-1,608,1758,0,0
-609,-734,0,0,0,0,0,0,0,0,0,-1,615,1758,0,0
-602,-734,0,0,0,0,0,0,0,0,0,-1,622,1758,0,0
-595,-734,0,0,0,0,0,0,0,0,0,-1,629,1758,0,0
-588,-734,0,0,0,0,0,0,0,0,0,-1,636,1758,0,0
-581,-734,0,0,0,0,0,0,0,0,0,-1,643,1758,0,0
-574,-734,0,0,0,0,0,0,0,0,0,-1,650,1758,0,0
-567,-734,0,0,0,0,0,0,0,0,0,-1,657,1758,0,0
-560,-734,0,0,0,0,0,0,0,0,0,-1,664,1758,0,0
-553,-734,0,0,0,0,0,0,0,0,0,-1,671,1758,0,0
-546,-734,0,0,0,0,0,0,0,0,0,-1,678,1758,0,0
-539,-734,0,0,0,0,0,0,0,0,0,-1,685,1758,0,0
-532,-734,0,0,0,0,0,0,0,0,0,-1,692,1758,0,0
-525,-734,0,0,0,0,0,0,0,0,0,-1,699,1758,0,0
-518,-734,0,0,0,0,0,0,0,0,0,-1,706,1758,0,0
-511,-734,0,0,0,0,0,0,0,0,0,-1,713,1758,0,0
-504,-734,0,0,0,0,0,0,0,0,0,-1,720,1758,0,0
-497,-734,0,0,0,0,0,0,0,0,0,-1,727,1758,0,0
-490,-734,0,0,0,0,0,0,0,0,0,-1,734,1758,0,0
-483,-734,0,0,0,0,0,0,0,0,0,-1,741,1758,0,0
-476,-734,0,0,0,0,0,0,0,0,0,-1,748,1758,0,0
-469,-734,0,0,0,0,0,0,0,0,0,-1,755,1758,0,0
-462,-734,0,0,0,0,0,0,0,0,0,-1,762,1758,0,0
-455,-734,0,0,0,0,0,0,0,0,0,-1,769,1758,0,0
-448,-734,0,0,0,0,0,0,0,0,0,-1,776,1758,0,0
-441,-734,0,0,0,0,0,0,0,0,0,-1,783,1758,0,0
-434,-734,0,0,0,0,0,0,0,0,0,-1,790,1758,0,0
-427,-734,0,0,0,0,0,0,0,0,0,-1,797,1758,0,0
-420,-734,0,0,0,0,0,0,0,0,0,-1,804,1758,0,0
-413,-734,0,0,0,0,0,0,0,0,0,-1,811,1758,0,0
-406,-734,0,0,0,0,0,0,0,0,0,-1,818,1758,0,0
-399,-734,0,0,0,0,0,0,0,0,0,-1,825,1758,0,0
-392,-734,0,0,0,0,0,0,0,0,0,-1,832,1758,0,0
-385,-734,0,0,0,0,0,0,0,0,0,-1,839,1758,0,0
-378,-734,0,0,0,0,0,0,0,0,0,-1,846,1758,0,0
-371,-734,0,0,0,0,0,0,0,0,0,-1,853,1758,0,0
-364,-734,0,0,0,0,0,0,0,0,0,-1,860,1758,0,0
-357,-734,0,0,0,0,0,0,0,0,0,-1,867,1758,0,0
-350,-734,0,0,0,0,0,0,0,0,0,-1,874,1758,0,0
-343,-734,0,0,0,0,0,0,0,0,0,-1,881,1758,0,0
-336,-734,0,0,0,0,0,0,0,0,0,-1,888,1758,0,0
-329,-734,0,0,0,0,0,0,0,0,0,-1,895,1758,0,0
-322,-734,0,0,0,0,0,0,0,0,0,-1,902,1758,0,0
-315,-734,0,0,0,0,0,0,0,0,0,-1,909,1758,0,0
-308,-734,0,0,0,0,0,0,0,0,0,-1,916,1758,0,0
-301,-734,0,0,0,0,0,0,0,0,0,-1,923,1758,0,0
-294,-734,0,0,0,0,0,0,0,0,0,-1,930,1758,0,0
-287,-734,0,0,0,0,0,0,0,0,0,-1,937,1758,0,0
-280,-734,0,0,0,0,0,0,0,0,0,-1,944,1758,0,0
-273,-734,0,0,0,0,0,0,0,0,0,-1,951,1758,0,0
-266,-734,0,0,0,0,0,0,0,0,0,-1,958,1758,0,0
-259,-734,0,0,0,0,0,0,0,0,0,-1,965,1758,0,0
-252,-734,5.73883,31.5245,0,0,0,0,0,0,0,-1,972,1758,5.73884,-31.5246
-245,-734,6.32513,30.9761,0,0,0,0,0,0,0,-1,979,1758,6.32511,-30.9761
-238,-734,6.82385,30.0449,0,0,0,0,0,0,0,-1,986,1758,6.82387,-30.0449
-231,-734,7.1958,29.1666,0,0,0,0,0,0,0,-1,993,1758,7.19578,-29.1666
-224,-734,7.36169,28.5652,0,0,0,0,0,0,0,-1,1000,1758,7.36172,-28.5651
-217,-734,7.45984,28.4386,0,0,0,0,0,0,0,-1,1007,1758,7.45986,-28.4386
-210,-734,7.45483,28.4388,0,0,0,0,0,0,0,-1,1014,1758,7.45482,-28.4388
-203,-734,7.93079,29.6151,0,0,0,0,0,0,0,-1,1021,1758,7.93076,-29.6151
-196,-734,11.3601,34.9989,0,0,0,0,0,0,0,-1,1028,1758,11.3601,-34.9989
-189,-734,10.1284,35.7189,0,0,0,0,0,0,0,-1,1035,1758,10.1284,-35.7189
-182,-734,9.26428,38.1007,0,0,0,0,0,0,0,-1,1042,1758,9.26424,-38.1007
-175,-734,9.66602,39.0813,0,0,0,0,0,0,0,-1,1049,1758,9.66602,-39.0813
-168,-734,9.69153,39.0907,0,0,0,0,0,0,0,-1,1056,1758,9.69148,-39.0907
-161,-734,8.61804,39.2853,0,0,0,0,0,0,0,-1,1063,1758,8.61799,-39.2852
-154,-734,9.14697,39.9302,0,0,0,0,0,0,0,-1,1070,1758,9.14699,-39.9302
-147,-734,9.12878,39.7622,0,0,0,0,0,0,0,-1,1077,1758,9.1288,-39.7621
-140,-734,9.22095,39.7925,-0.0161432,-0.00426134,0.00167959,-0.00402848,-0.0163761,1.43303,0.00985299,0.0488867,1084,1758,9.22095,-39.7925
-133,-734,9.23901,39.9081,-0.0127723,-0.00228158,0.00190349,-0.00194688,-0.013107,1.39674,0.00816679,0.0441267,1091,1758,9.23896,-39.9081
-126,-734,8.86523,40.1282,-0.00995401,-0.000572594,0.00228276,-4.66229e-05,-0.01048,1.34434,0.00697117,0.041133,1098,1758,8.86521,-40.1281
-119,-734,8.6803,40.5266,-0.00772702,0.000759324,0.00263756,0.00151227,-0.00847997,1.29272,0.006219,0.0412339,1105,1758,8.68027,-40.5266
-112,-734,8.90466,40.8041,-0.0051835,0.00276311,0.00323648,0.00391444,-0.00633483,1.22902,0.00597217,0.0361822,1112,1758,8.9047,-40.8041
-105,-734,8.90112,41.0719,-0.00355844,0.00381491,0.00335369,0.00511209,-0.00485562,1.20173,0.0057555,0.0298664,1119,1758,8.90115,-41.0719
-98,-734,8.88562,41.182,0,0,0,0,0,0,0,-1,1126,1758,8.88567,-41.182
-91,-734,8.8905,41.6064,0,0,0,0,0,0,0,-1,1133,1758,8.89056,-41.6065
-84,-734,8.84827,41.7955,0,0,0,0,0,0,0,-1,1140,1758,8.84831,-41.7955
-77,-734,8.79089,42.0659,0,0,0,0,0,0,0,-1,1147,1758,8.79089,-42.0659
-70,-734,8.79211,42.3015,0,0,0,0,0,0,0,-1,1154,1758,8.79209,-42.3016
-63,-734,8.68201,42.2872,-0.00220365,0.00132957,0.00207433,0.00228762,-0.0031617,1.13813,0.00315963,0.0346062,1161,1758,8.68204,-42.2872
-56,-734,8.72156,42.6512,-0.0028402,-0.00045527,0.00220911,0.00086267,-0.00415814,1.03289,0.00309992,0.0174033,1168,1758,8.72152,-42.6512
-49,-734,8.71411,42.8833,-0.00282359,-0.00132064,0.00250302,0.000541281,-0.00468551,0.931231,0.00331885,0.0135431,1175,1758,8.71407,-42.8833
-42,-734,8.68652,43.0654,-0.00227118,-0.0022482,0.00282219,0.000562522,-0.0050819,0.787434,0.00359016,0.0139134,1182,1758,8.68655,-43.0654
-35,-734,8.68347,43.214,-0.0025091,-0.00216192,0.00238702,5.78142e-05,-0.00472883,0.821696,0.003172,0.0135329,1189,1758,8.68345,-43.214
-28,-734,8.68018,43.344,-0.00211977,-0.00217755,0.00211992,-2.85385e-05,-0.00426878,0.778585,0.00283639,0.00941469,1196,1758,8.68022,-43.3439
-21,-734,8.69263,43.4855,-0.00139691,-0.00181588,0.00200187,0.000406401,-0.00361919,0.733265,0.00255904,0.0143762,1203,1758,8.69265,-43.4855
-14,-734,8.63232,43.6664,-0.000652379,-0.00110243,0.00192217,0.00105789,-0.0028127,0.727129,0.00230997,0.0152694,1210,1758,8.63231,-43.6663
-7,-734,8.61633,43.772,0.000125093,-7.20835e-05,0.00176298,0.00179224,-0.00173923,0.757467,0.00203897,0.0176914,1217,1758,8.61631,-43.772
0,-734,8.5918,43.902,0.000896495,0.00157455,0.00159521,0.00286636,-0.000395312,0.890105,0.00205539,0.0168779,1224,1758,8.59182,-43.902
7,-734,8.55908,43.9912,0.00159278,0.00317805,0.00138288,0.00397935,0.000791481,1.04563,0.00243238,0.0121051,1231,1758,8.5591,-43.9912
14,-734,8.5625,44.0813,0.00221093,0.0048443,0.00111949,0.00525588,0.00179935,1.21848,0.00308435,0.0123689,1238,1758,8.56253,-44.0813
21,-734,8.54553,44.1539,0.00264994,0.00632113,0.000809946,0.00649188,0.00247919,1.36302,0.00378278,0.01164,1245,1758,8.5455,-44.1539
28,-734,8.55103,44.2106,0.00296084,0.00748675,0.00051178,0.0075439,0.00290369,1.45959,0.00439377,0.0115656,1252,1758,8.55097,-44.2106
35,-734,8.55737,44.2809,0.00332195,0.00820751,0.000217635,0.00821718,0.00331228,1.52637,0.0047738,0.0138457,1259,1758,8.55739,-44.2809
42,-734,8.54395,44.2975,0.0034278,0.00872842,-0.000202145,0.00873611,0.0034201,-1.53273,0.00508324,0.0115771,1266,1758,8.54399,-44.2975
49,-734,8.50977,44.3071,0.00308509,0.00868547,-0.000442616,0.00872024,0.00305033,-1.49241,0.00510979,0.00958116,1273,1758,8.50982,-44.3071
56,-734,8.48865,44.353,0.00271874,0.00822632,-0.000751421,0.008327,0.00261806,-1.43761,0.00491676,0.00940692,1280,1758,8.48867,-44.3531
63,-734,8.47546,44.3619,0.00217331,0.00753298,-0.00105721,0.00773398,0.00197231,-1.38292,0.00464044,0.0123911,1287,1758,8.4754,-44.3619
70,-734,8.48279,44.374,0.00175131,0.0062791,-0.000960107,0.00647427,0.00155614,-1.37024,0.0039023,0.0127323,1294,1758,8.48282,-44.374
77,-734,8.49878,44.3944,0.00100514,0.0048707,-0.000840259,0.00504544,0.000830389,-1.36575,0.00312384,0.0170702,1301,1758,8.49882,-44.3944
84,-734,8.49316,44.3419,0.000114734,0.00349346,-0.000798326,0.0036726,-6.43976e-05,-1.35007,0.00247014,0.0163288,1308,1758,8.4932,-44.342
91,-734,8.4895,44.3093,-0.000529708,0.0022457,-0.000766043,0.0024431,-0.000727104,-1.3186,0.00191761,0.0189954,1315,1758,8.48955,-44.3093
98,-734,8.48938,44.2782,-0.00101013,0.00114864,-0.000733693,0.00137439,-0.00123588,-1.2723,0.00150775,0.0136706,1322,1758,8.48933,-44.2782
105,-734,8.49011,44.2015,-0.00140428,0.000109483,-0.000642733,0.000345565,-0.00164036,-1.21879,0.00122512,0.0136495,1329,1758,8.49014,-44.2015
112,-734,8.47681,44.1172,-0.00164119,-0.000430657,-0.000532038,-0.000230062,-0.00184178,-1.21025,0.0011588,0.0126512,1336,1758,8.47676,-44.1172
119,-734,8.46252,44.0364,-0.001849,-0.00100083,-0.000399332,-0.000842405,-0.00200742,-1.19312,0.00116396,0.0140225,1343,1758,8.46253,-44.0364
126,-734,8.4679,43.9569,-0.00193145,-0.00145716,-0.00019022,-0.0013903,-0.00199831,-1.23278,0.00118283,0.0166104,1350,1758,8.46795,-43.957
133,-734,8.4541,43.8615,-0.00203317,-0.00167446,-6.44322e-05,-0.00166324,-0.00204439,-1.39835,0.00125531,0.0150848,1357,1758,8.45412,-43.8615
140,-734,8.43628,43.7671,-0.00236233,-0.00176418,3.79741e-05,-0.00176178,-0.00236473,1.50765,0.00141887,0.0192644,1364,1758,8.43629,-43.7671
147,-734,8.41943,43.6166,-0.0023512,-0.00191015,0.00019457,-0.00183659,-0.00242477,1.20932,0.00146048,0.0143729,1371,1758,8.41942,-43.6165
154,-734,8.39465,43.4982,-0.00209323,-0.00182695,-6.2548e-05,-0.00181299,-0.00210719,-1.3512,0.00131772,0.010538,1378,1758,8.39465,-43.4981
161,-734,8.36963,43.353,-0.00218126,-0.00158452,-0.000265675,-0.00148338,-0.0022824,-1.20705,0.00133734,0.00944513,1385,1758,8.36961,-43.3531
168,-734,8.32068,43.1851,-0.0022299,-0.00149347,-0.000514782,-0.00122877,-0.0024946,-1.09586,0.00144031,0.0144824,1392,1758,8.32064,-43.185
175,-734,8.31848,43.0247,-0.00207646,-0.0012716,-0.0010629,-0.000537494,-0.00281057,-0.966367,0.00172273,0.0176667,1399,1758,8.31852,-43.0246
182,-734,8.34583,42.8521,-0.00181917,-0.000853826,-0.00168007,0.000411534,-0.00308453,-0.925277,0.00220636,0.015819,1406,1758,8.34587,-42.8521
189,-734,8.29492,42.6781,-0.00178252,-0.000222534,-0.00190768,0.00105845,-0.00306351,-0.979463,0.00247188,0.0112868,1413,1758,8.29488,-42.6781
196,-734,8.25244,42.4995,-0.00204866,0.000769396,-0.00217357,0.00195069,-0.00322996,-1.07297,0.0030213,0.0139018,1420,1758,8.25241,-42.4995
203,-734,8.29443,42.2478,-0.00250877,0.0026581,-0.00208419,0.003394,-0.00324467,-1.23137,0.00383316,0.0201563,1427,1758,8.29447,-42.2478
210,-734,8.30078,41.9796,-0.00240887,0.00381327,-0.00175655,0.0042749,-0.0028705,-1.3138,0.00415188,0.0315704,1434,1758,8.30079,-41.9796
217,-734,8.29614,41.7279,0,0,0,0,0,0,0,-1,1441,1758,8.2962,-41.7279
224,-734,8.1604,41.6305,0,0,0,0,0,0,0,-1,1448,1758,8.16041,-41.6305
231,-734,8.15247,41.0332,0,0,0,0,0,0,0,-1,1455,1758,8.1525,-41.0331
238,-734,8.07922,40.979,-0.00267457,0.00550569,-0.000834284,0.00558991,-0.00275879,-1.47019,0.00491164,0.0400014,1462,1758,8.0792,-40.979
245,-734,8.12622,40.765,-0.00270935,0.00563907,-0.000652332,0.00568974,-0.00276001,-1.49328,0.00497525,0.0292531,1469,1758,8.12618,-40.765
252,-734,8.14539,40.4677,-0.00299947,0.00565249,-0.000534207,0.00568535,-0.00303233,-1.50936,0.00511026,0.0322407,1476,1758,8.14535,-40.4676
259,-734,8.12903,40.3123,-0.00326971,0.0052705,-0.000361612,0.00528578,-0.00328499,-1.52855,0.00499308,0.0393572,1483,1758,8.12902,-40.3122
266,-734,8.14368,40.1387,-0.0031783,0.00535728,-0.000685368,0.00541196,-0.00323298,-1.49118,0.00504373,0.0483167,1490,1758,8.14364,-40.1387
273,-734,8.20093,40.0018,0,0,0,0,0,0,0,-1,1497,1758,8.20096,-40.0019
280,-734,8.82654,40.1428,0,0,0,0,0,0,0,-1,1504,1758,8.82648,-40.1428
287,-734,7.20337,38.5437,0,0,0,0,0,0,0,-1,1511,1758,7.20342,-38.5437
294,-734,7.03406,36.0077,0,0,0,0,0,0,0,-1,1518,1758,7.03407,-36.0077
301,-734,6.88904,37.8728,0,0,0,0,0,0,0,-1,1525,1758,6.88907,-37.8729
308,-734,7.32117,36.5299,0,0,0,0,0,0,0,-1,1532,1758,7.32111,-36.5299
315,-734,7.57275,36.9519,0,0,0,0,0,0,0,-1,1539,1758,7.57281,-36.9519
322,-734,6.86511,33.9312,0,0,0,0,0,0,0,-1,1546,1758,6.86512,-33.9312
329,-734,5.73267,19.656,0,0,0,0,0,0,0,-1,1553,1758,5.73262,-19.656
336,-734,6.71375,23.7469,0,0,0,0,0,0,0,-1,1560,1758,6.71372,-23.7469
343,-734,5.54968,5.14221,0,0,0,0,0,0,0,-1,1567,1758,5.54973,-5.14225
350,-734,5.07397,6.73242,0,0,0,0,0,0,0,-1,1574,1758,5.07402,-6.73243
357,-734,5.05542,7.19189,0,0,0,0,0,0,0,-1,1581,1758,5.05541,-7.19184
364,-734,4.43896,10.4904,0,0,0,0,0,0,0,-1,1588,1758,4.43893,-10.4904
371,-734,7.36975,17.4751,0,0,0,0,0,0,0,-1,1595,1758,7.36972,-17.4752
378,-734,0,0,0,0,0,0,0,0,0,-1,1602,1758,0,0
385,-734,0,0,0,0,0,0,0,0,0,-1,1609,1758,0,0
392,-734,0,0,0,0,0,0,0,0,0,-1,1616,1758,0,0
399,-734,0,0,0,0,0,0,0,0,0,-1,1623,1758,0,0
406,-734,0,0,0,0,0,0,0,0,0,-1,1630,1758,0,0
413,-734,0,0,0,0,0,0,0,0,0,-1,1637,1758,0,0
420,-734,0,0,0,0,0,0,0,0,0,-1,1644,1758,0,0
427,-734,0,0,0,0,0,0,0,0,0,-1,1651,1758,0,0
434,-734,0,0,0,0,0,0,0,0,0,-1,1658,1758,0,0
441,-734,0,0,0,0,0,0,0,0,0,-1,1665,1758,0,0
448,-734,0,0,0,0,0,0,0,0,0,-1,1672,1758,0,0
455,-734,0,0,0,0,0,0,0,0,0,-1,1679,1758,0,0
462,-734,0,0,0,0,0,0,0,0,0,-1,1686,1758,0,0
469,-734,0,0,0,0,0,0,0,0,0,-1,1693,1758,0,0
476,-734,0,0,0,0,0,0,0,0,0,-1,1700,1758,0,0
483,-734,0,0,0,0,0,0,0,0,0,-1,1707,1758,0,0
490,-734,0,0,0,0,0,0,0,0,0,-1,1714,1758,0,0
497,-734,0,0,0,0,0,0,0,0,0,-1,1721,1758,0,0
504,-734,0,0,0,0,0,0,0,0,0,-1,1728,1758,0,0
511,-734,0,0,0,0,0,0,0,0,0,-1,1735,1758,0,0
518,-734,0,0,0,0,0,0,0,0,0,-1,1742,1758,0,0
525,-734,0,0,0,0,0,0,0,0,0,-1,1749,1758,0,0
532,-734,0,0,0,0,0,0,0,0,0,-1,1756,1758,0,0
539,-734,0,0,0,0,0,0,0,0,0,-1,1763,1758,0,0
546,-734,0,0,0,0,0,0,0,0,0,-1,1770,1758,0,0
553,-734,0,0,0,0,0,0,0,0,0,-1,1777,1758,0,0
560,-734,0,0,0,0,0,0,0,0,0,-1,1784,1758,0,0
567,-734,0,0,0,0,0,0,0,0,0,-1,1791,1758,0,0
574,-734,0,0,0,0,0,0,0,0,0,-1,1798,1758,0,0
581,-734,0,0,0,0,0,0,0,0,0,-1,1805,1758,0,0
588,-734,0,0,0,0,0,0,0,0,0,-1,1812,1758,0,0
595,-734,0,0,0,0,0,0,0,0,0,-1,1819,1758,0,0
602,-734,0,0,0,0,0,0,0,0,0,-1,1826,1758,0,0
609,-734,0,0,0,0,0,0,0,0,0,-1,1833,1758,0,0
616,-734,0,0,0,0,0,0,0,0,0,-1,1840,1758,0,0
623,-734,0,0,0,0,0,0,0,0,0,-1,1847,1758,0,0
630,-734,0,0,0,0,0,0,0,0,0,-1,1854,1758,0,0
637,-734,0,0,0,0,0,0,0,0,0,-1,1861,1758,0,0
644,-734,0,0,0,0,0,0,0,0,0,-1,1868,1758,0,0
651,-734,0,0,0,0,0,0,0,0,0,-1,1875,1758,0,0
658,-734,0,0,0,0,0,0,0,0,0,-1,1882,1758,0,0
665,-734,0,0,0,0,0,0,0,0,0,-1,1889,1758,0,0
672,-734,0,0,0,0,0,0,0,0,0,-1,1896,1758,0,0
679,-734,0,0,0,0,0,0,0,0,0,-1,1903,1758,0,0
686,-734,0,0,0,0,0,0,0,0,0,-1,1910,1758,0,0
693,-734,0,0,0,0,0,0,0,0,0,-1,1917,1758,0,0
700,-734,0,0,0,0,0,0,0,0,0,-1,1924,1758,0,0
707,-734,0,0,0,0,0,0,0,0,0,-1,1931,1758,0,0
714,-734,0,0,0,0,0,0,0,0,0,-1,1938,1758,0,0
721,-734,0,0,0,0,0,0,0,0,0,-1,1945,1758,0,0
728,-734,0,0,0,0,0,0,0,0,0,-1,1952,1758,0,0
735,-734,0,0,0,0,0,0,0,0,0,-1,1959,1758,0,0
742,-734,0,0,0,0,0,0,0,0,0,-1,1966,1758,0,0
749,-734,0,0,0,0,0,0,0,0,0,-1,1973,1758,0,0
756,-734,0,0,0,0,0,0,0,0,0,-1,1980,1758,0,0
763,-734,0,0,0,0,0,0,0,0,0,-1,1987,1758,0,0
770,-734,0,0,0,0,0,0,0,0,0,-1,1994,1758,0,0
777,-734,0,0,0,0,0,0,0,0,0,-1,2001,1758,0,0
784,-734,0,0,0,0,0,0,0,0,0,-1,2008,1758,0,0
791,-734,0,0,0,0,0,0,0,0,0,-1,2015,1758,0,0
798,-734,0,0,0,0,0,0,0,0,0,-1,2022,1758,0,0
805,-734,0,0,0,0,0,0,0,0,0,-1,2029,1758,0,0
812,-734,0,0,0,0,0,0,0,0,0,-1,2036,1758,0,0
-700,-741,0,0,0,0,0,0,0,0,0,-1,524,1765,0,0
-693,-741,0,0,0,0,0,0,0,0,0,-1,531,1765,0,0
-686,-741,0,0,0,0,0,0,0,0,0,-1,538,1765,0,0
-679,-741,0,0,0,0,0,0,0,0,0,-1,545,1765,0,0
-672,-741,0,0,0,0,0,0,0,0,0,-1,552,1765,0,0
-665,-741,0,0,0,0,0,0,0,0,0,-1,559,1765,0,0
-658,-741,0,0,0,0,0,0,0,0,0,-1,566,1765,0,0
-651,-741,0,0,0,0,0,0,0,0,0,-1,573,1765,0,0
-644,-741,0,0,0,0,0,0,0,0,0,-1,580,1765,0,0
-637,-741,0,0,0,0,0,0,0,0,0,-1,587,1765,0,0
-630,-741,0,0,0,0,0,0,0,0,0,-1,594,1765,0,0
-623,-741,0,0,0,0,0,0,0,0,0,-1,601,1765,0,0
-616,-741,0,0,0,0,0,0,0,0,0,-1,608,1765,0,0
-609,-741,0,0,0,0,0,0,0,0,0,-1,615,1765,0,0
-602,-741,0,0,0,0,0,0,0,0,0,-1,622,1765,0,0
-595,-741,0,0,0,0,0,0,0,0,0,-1,629,1765,0,0
-588,-741,0,0,0,0,0,0,0,0,0,-1,636,1765,0,0
-581,-741,0,0,0,0,0,0,0,0,0,-1,643,1765,0,0
-574,-741,0,0,0,0,0,0,0,0,0,-1,650,1765,0,0
-567,-741,0,0,0,0,0,0,0,0,0,-1,657,1765,0,0
-560,-741,0,0,0,0,0,0,0,0,0,-1,664,1765,0,0
-553,-741,0,0,0,0,0,0,0,0,0,-1,671,1765,0,0
-546,-741,0,0,0,0,0,0,0,0,0,-1,678,1765,0,0
-539,-741,0,0,0,0,0,0,0,0,0,-1,685,1765,0,0
-532,-741,0,0,0,0,0,0,0,0,0,-1,692,1765,0,0
-525,-741,0,0,0,0,0,0,0,0,0,-1,699,1765,0,0
-518,-741,0,0,0,0,0,0,0,0,0,-1,706,1765,0,0
-511,-741,0,0,0,0,0,0,0,0,0,-1,713,1765,0,0
-504,-741,0,0,0,0,0,0,0,0,0,-1,720,1765,0,0
-497,-741,0,0,0,0,0,0,0,0,0,-1,727,1765,0,0
-490,-741,0,0,0,0,0,0,0,0,0,-1,734,1765,0,0
-483,-741,0,0,0,0,0,0,0,0,0,-1,741,1765,0,0
-476,-741,0,0,0,0,0,0,0,0,0,-1,748,1765,0,0
-469,-741,0,0,0,0,0,0,0,0,0,-1,755,1765,0,0
-462,-741,0,0,0,0,0,0,0,0,0,-1,762,1765,0,0
-455,-741,0,0,0,0,0,0,0,0,0,-1,769,1765,0,0
-448,-741,0,0,0,0,0,0,0,0,0,-1,776,1765,0,0
-441,-741,0,0,0,0,0,0,0,0,0,-1,783,1765,0,0
-434,-741,0,0,0,0,0,0,0,0,0,-1,790,1765,0,0
-427,-741,0,0,0,0,0,0,0,0,0,-1,797,1765,0,0
-420,-741,0,0,0,0,0,0,0,0,0,-1,804,1765,0,0
-413,-741,0,0,0,0,0,0,0,0,0,-1,811,1765,0,0
-406,-741,0,0,0,0,0,0,0,0,0,-1,818,1765,0,0
-399,-741,0,0,0,0,0,0,0,0,0,-1,825,1765,0,0
-392,-741,0,0,0,0,0,0,0,0,0,-1,832,1765,0,0
-385,-741,0,0,0,0,0,0,0,0,0,-1,839,1765,0,0
-378,-741,0,0,0,0,0,0,0,0,0,-1,846,1765,0,0
-371,-741,0,0,0,0,0,0,0,0,0,-1,853,1765,0,0
-364,-741,0,0,0,0,0,0,0,0,0,-1,860,1765,0,0
-357,-741,0,0,0,0,0,0,0,0,0,-1,867,1765,0,0
-350,-741,0,0,0,0,0,0,0,0,0,-1,874,1765,0,0
-343,-741,0,0,0,0,0,0,0,0,0,-1,881,1765,0,0
-336,-741,0,0,0,0,0,0,0,0,0,-1,888,1765,0,0
-329,-741,0,0,0,0,0,0,0,0,0,-1,895,1765,0,0
-322,-741,0,0,0,0,0,0,0,0,0,-1,902,1765,0,0
-315,-741,0,0,0,0,0,0,0,0,0,-1,909,1765,0,0
-308,-741,0,0,0,0,0,0,0,0,0,-1,916,1765,0,0
-301,-741,0,0,0,0,0,0,0,0,0,-1,923,1765,0,0
-294,-741,0,0,0,0,0,0,0,0,0,-1,930,1765,0,0
-287,-741,0,0,0,0,0,0,0,0,0,-1,937,1765,0,0
-280,-741,0,0,0,0,0,0,0,0,0,-1,944,1765,0,0
-273,-741,0,0,0,0,0,0,0,0,0,-1,951,1765,0,0
-266,-741,0,0,0,0,0,0,0,0,0,-1,958,1765,0,0
-259,-741,0,0,0,0,0,0,0,0,0,-1,965,1765,0,0
-252,-741,0,0,0,0,0,0,0,0,0,-1,972,1765,0,0
-245,-741,0,0,0,0,0,0,0,0,0,-1,979,1765,0,0
-238,-741,7.13855,29.8348,0,0,0,0,0,0,0,-1,986,1765,7.13856,-29.8348
-231,-741,7.74182,29.3066,0,0,0,0,0,0,0,-1,993,1765,7.74183,-29.3066
-224,-741,7.80078,29.0964,0,0,0,0,0,0,0,-1,1000,1765,7.80079,-29.0964
-217,-741,8.15863,29.113,0,0,0,0,0,0,0,-1,1007,1765,8.15863,-29.1131
-210,-741,8.37024,29.3896,0,0,0,0,0,0,0,-1,1014,1765,8.37022,-29.3896
-203,-741,8.33801,29.8871,0,0,0,0,0,0,0,-1,1021,1765,8.33805,-29.8871
-196,-741,8.75513,30.84,0,0,0,0,0,0,0,-1,1028,1765,8.75516,-30.8399
-189,-741,9.16321,31.9888,0,0,0,0,0,0,0,-1,1035,1765,9.16327,-31.9888
-182,-741,9.71594,33.2998,0,0,0,0,0,0,0,-1,1042,1765,9.71593,-33.2998
-175,-741,9.8988,37.3856,0,0,0,0,0,0,0,-1,1049,1765,9.89882,-37.3856
-168,-741,11.0741,37.8002,0,0,0,0,0,0,0,-1,1056,1765,11.074,-37.8001
-161,-741,9.60486,39.6904,0,0,0,0,0,0,0,-1,1063,1765,9.60487,-39.6904
-154,-741,9.98682,41.594,0,0,0,0,0,0,0,-1,1070,1765,9.98681,-41.594
-147,-741,9.84766,40.9125,0,0,0,0,0,0,0,-1,1077,1765,9.8477,-40.9125
-140,-741,9.97595,40.1284,0,0,0,0,0,0,0,-1,1084,1765,9.97598,-40.1284
-133,-741,9.75342,40.1078,0,0,0,0,0,0,0,-1,1091,1765,9.75336,-40.1077
-126,-741,9.00549,40.1315,0,0,0,0,0,0,0,-1,1098,1765,9.00544,-40.1315
-119,-741,8.64233,40.5012,0,0,0,0,0,0,0,-1,1105,1765,8.64233,-40.5012
-112,-741,9.09363,40.7692,0,0,0,0,0,0,0,-1,1112,1765,9.09362,-40.7692
-105,-741,9.21655,40.9916,0,0,0,0,0,0,0,-1,1119,1765,9.21651,-40.9916
-98,-741,9.19971,40.25,0,0,0,0,0,0,0,-1,1126,1765,9.19971,-40.25
-91,-741,8.40002,36.3687,0,0,0,0,0,0,0,-1,1133,1765,8.40002,-36.3687
-84,-741,7.8877,35.0892,0,0,0,0,0,0,0,-1,1140,1765,7.88776,-35.0892
-77,-741,7.73303,34.1174,0,0,0,0,0,0,0,-1,1147,1765,7.73304,-34.1174
-70,-741,7.5437,32.0275,0,0,0,0,0,0,0,-1,1154,1765,7.5437,-32.0275
-63,-741,8.66418,41.9114,0,0,0,0,0,0,0,-1,1161,1765,8.6642,-41.9114
-56,-741,8.93604,42.549,0,0,0,0,0,0,0,-1,1168,1765,8.93609,-42.5489
-49,-741,8.89441,42.9354,0,0,0,0,0,0,0,-1,1175,1765,8.89435,-42.9354
-42,-741,8.80908,43.1052,0,0,0,0,0,0,0,-1,1182,1765,8.80902,-43.1053
-35,-741,8.82214,43.217,-0.00356738,-0.00447121,0.0037353,-0.00025675,-0.00778183,0.725198,0.00510446,0.024388,1189,1765,8.8221,-43.217
-28,-741,8.81677,43.3604,-0.00312643,-0.00416627,0.00299391,-0.000607627,-0.00668507,0.699426,0.00426861,0.0147824,1196,1765,8.8168,-43.3603
-21,-741,8.80334,43.4989,-0.002276,-0.00344506,0.00252643,-0.000267359,-0.0054537,0.671715,0.00355003,0.017347,1203,1765,8.80336,-43.4989
-14,-741,8.7522,43.6415,-0.00136094,-0.00229656,0.00207093,0.000294365,-0.00395186,0.674316,0.00273797,0.0169559,1210,1765,8.75216,-43.6415
-7,-741,8.72095,43.7339,-0.00036125,-0.000914987,0.00155491,0.000941244,-0.00221748,0.697291,0.00187265,0.015,1217,1765,8.72091,-43.7339
0,-741,8.6814,43.8562,0.000667345,0.00111087,0.001055,0.00196716,-0.000188944,0.888991,0.00137874,0.0149894,1224,1765,8.68135,-43.8561
7,-741,8.64258,43.964,0.00162644,0.00305439,0.00057529,0.00325732,0.00142351,1.23168,0.00188558,0.0164564,1231,1765,8.64253,-43.9639
14,-741,8.63696,44.0903,0.00250549,0.00496378,0.000103541,0.00496814,0.00250113,1.52878,0.00286838,0.0159195,1238,1765,8.63697,-44.0903
21,-741,8.61926,44.1479,0.00315664,0.00668184,-0.000324846,0.00671153,0.00312696,-1.47967,0.0038779,0.0126252,1245,1765,8.61927,-44.148
28,-741,8.59473,44.2166,0.00367065,0.00804151,-0.000667766,0.00814125,0.00357091,-1.42252,0.00471214,0.0130585,1252,1765,8.59469,-44.2166
35,-741,8.59937,44.2676,0.00422053,0.00890968,-0.000934771,0.00908916,0.00404106,-1.38111,0.00525835,0.0145403,1259,1765,8.59932,-44.2676
42,-741,8.5979,44.2966,0.00441363,0.009632,-0.00131863,0.00994627,0.00409935,-1.33683,0.00577195,0.0153019,1266,1765,8.5979,-44.2967
49,-741,8.552,44.3192,0.00394522,0.00976063,-0.0015037,0.0101264,0.00357942,-1.33216,0.00592959,0.0102494,1273,1765,8.55201,-44.3192
56,-741,8.51648,44.3624,0.00342923,0.00937639,-0.00177758,0.00986719,0.00293842,-1.3014,0.00585004,0.0100058,1280,1765,8.51652,-44.3625
63,-741,8.49463,44.3647,0.00257271,0.00882278,-0.0020581,0.00943962,0.00195587,-1.2796,0.00575304,0.0139983,1287,1765,8.49462,-44.3647
70,-741,8.47864,44.3977,0.00184067,0.00751514,-0.00182116,0.00804933,0.00130647,-1.28547,0.00498809,0.01606,1294,1765,8.47865,-44.3977
77,-741,8.4541,44.3794,0.000595916,0.00614251,-0.00157071,0.00655642,0.000182005,-1.31313,0.00431156,0.0138523,1301,1765,8.45416,-44.3794
84,-741,8.42334,44.3699,-0.000833466,0.00479667,-0.00151561,0.00517874,-0.00121553,-1.32385,0.00392098,0.0157658,1308,1765,8.42336,-44.3699
91,-741,8.40198,44.3424,-0.00194136,0.00352392,-0.00148608,0.00390187,-0.0023193,-1.32175,0.00363033,0.0134271,1315,1765,8.40193,-44.3424
98,-741,8.39722,44.2562,-0.00282197,0.00234766,-0.00147537,0.00273908,-0.00321339,-1.31147,0.0034403,0.00989028,1322,1765,8.39718,-44.2563
105,-741,8.40405,44.1653,-0.00354842,0.00119247,-0.00136386,0.00155682,-0.00391277,-1.30974,0.00325406,0.010286,1329,1765,8.40407,-44.1652
112,-741,8.40771,44.0889,-0.00400482,0.000574026,-0.0012083,0.000873316,-0.00430411,-1.32799,0.00320048,0.0105765,1336,1765,8.40775,-44.0888
119,-741,8.37952,43.9961,-0.00435703,-0.000161248,-0.000981143,5.68463e-05,-0.00457512,-1.35207,0.00306921,0.0129466,1343,1765,8.37955,-43.9961
126,-741,8.35767,43.9174,-0.00446702,-0.000925727,-0.000643934,-0.000812272,-0.00458048,-1.3964,0.00282213,0.0174431,1350,1765,8.35768,-43.9173
133,-741,8.33826,43.8257,-0.00452201,-0.00142689,-0.000368247,-0.00138368,-0.00456522,-1.45399,0.002703,0.0142943,1357,1765,8.33831,-43.8257
140,-741,8.31104,43.7125,-0.00479092,-0.00183936,-0.000146751,-0.00183208,-0.0047982,-1.52124,0.00279591,0.0115703,1364,1765,8.31104,-43.7125
147,-741,8.28735,43.5981,-0.00455225,-0.00235428,0.000168298,-0.00234147,-0.00456506,1.49482,0.00263593,0.0110452,1371,1765,8.28732,-43.5981
154,-741,8.25696,43.4999,-0.00390968,-0.00263173,-4.19576e-05,-0.00263035,-0.00391106,-1.53801,0.00230243,0.0095162,1378,1765,8.25692,-43.4998
161,-741,8.22876,43.3551,-0.00378413,-0.00264404,-0.000202426,-0.00260917,-0.003819,-1.40019,0.0022537,0.0109404,1385,1765,8.22876,-43.3551
168,-741,8.20374,43.1981,-0.00366053,-0.00286648,-0.000388737,-0.00270786,-0.00381916,-1.18337,0.00226831,0.025059,1392,1765,8.20372,-43.1981
175,-741,8.18481,43.0721,0,0,0,0,0,0,0,-1,1399,1765,8.18486,-43.0721
182,-741,8.15332,42.8411,0,0,0,0,0,0,0,-1,1406,1765,8.15335,-42.8411
189,-741,8.09631,42.6987,0,0,0,0,0,0,0,-1,1413,1765,8.09626,-42.6987
196,-741,8.05164,42.517,0,0,0,0,0,0,0,-1,1420,1765,8.05162,-42.5169
203,-741,8.07861,42.1785,0,0,0,0,0,0,0,-1,1427,1765,8.07857,-42.1784
210,-741,8.09619,41.8345,0,0,0,0,0,0,0,-1,1434,1765,8.09613,-41.8345
217,-741,8.4032,40.1213,0,0,0,0,0,0,0,-1,1441,1765,8.40325,-40.1214
224,-741,8.0719,38.4249,0,0,0,0,0,0,0,-1,1448,1765,8.07187,-38.4249
231,-741,7.95923,39.0671,0,0,0,0,0,0,0,-1,1455,1765,7.9592,-39.0671
238,-741,7.85376,40.7935,0,0,0,0,0,0,0,-1,1462,1765,7.8537,-40.7934
245,-741,7.96729,40.5297,0,0,0,0,0,0,0,-1,1469,1765,7.96726,-40.5296
252,-741,8.03333,40.2754,-0.00393122,0.00783663,0.000162352,0.00783887,-0.00393346,1.557,0.0069203,0.0483275,1476,1765,8.03332,-40.2754
259,-741,7.89795,40.3479,-0.00426193,0.00731834,0.000502993,0.00734015,-0.00428374,1.52747,0.00678794,0.0487562,1483,1765,7.89789,-40.3479
266,-741,7.75842,40.2996,0,0,0,0,0,0,0,-1,1490,1765,7.75836,-40.2995
273,-741,8.81555,40.4974,0,0,0,0,0,0,0,-1,1497,1765,8.81559,-40.4975
280,-741,8.22986,40.8604,0,0,0,0,0,0,0,-1,1504,1765,8.22988,-40.8604
287,-741,7.92236,41.7656,0,0,0,0,0,0,0,-1,1511,1765,7.92231,-41.7656
294,-741,6.55676,41.248,0,0,0,0,0,0,0,-1,1518,1765,6.55675,-41.248
301,-741,6.20667,38.5165,0,0,0,0,0,0,0,-1,1525,1765,6.20667,-38.5165
308,-741,6.65088,37.1075,0,0,0,0,0,0,0,-1,1532,1765,6.65087,-37.1076
315,-741,7.18262,35.4949,0,0,0,0,0,0,0,-1,1539,1765,7.1826,-35.4949
322,-741,9.33398,28.4247,0,0,0,0,0,0,0,-1,1546,1765,9.33399,-28.4247
329,-741,4.74414,17.928,0,0,0,0,0,0,0,-1,1553,1765,4.74414,-17.928
336,-741,5.74304,22.0945,0,0,0,0,0,0,0,-1,1560,1765,5.74306,-22.0945
343,-741,7.09888,26.501,0,0,0,0,0,0,0,-1,1567,1765,7.09885,-26.501
350,-741,4.90369,5.44666,0,0,0,0,0,0,0,-1,1574,1765,4.90368,-5.44664
357,-741,4.02063,5.16626,0,0,0,0,0,0,0,-1,1581,1765,4.02058,-5.1662
364,-741,0,0,0,0,0,0,0,0,0,-1,1588,1765,0,0
371,-741,0,0,0,0,0,0,0,0,0,-1,1595,1765,0,0
378,-741,0,0,0,0,0,0,0,0,0,-1,1602,1765,0,0
385,-741,0,0,0,0,0,0,0,0,0,-1,1609,1765,0,0
392,-741,0,0,0,0,0,0,0,0,0,-1,1616,1765,0,0
399,-741,0,0,0,0,0,0,0,0,0,-1,1623,1765,0,0
406,-741,0,0,0,0,0,0,0,0,0,-1,1630,1765,0,0
413,-741,0,0,0,0,0,0,0,0,0,-1,1637,1765,0,0
420,-741,0,0,0,0,0,0,0,0,0,-1,1644,1765,0,0
427,-741,0,0,0,0,0,0,0,0,0,-1,1651,1765,0,0
434,-741,0,0,0,0,0,0,0,0,0,-1,1658,1765,0,0
441,-741,0,0,0,0,0,0,0,0,0,-1,1665,1765,0,0
448,-741,0,0,0,0,0,0,0,0,0,-1,1672,1765,0,0
455,-741,0,0,0,0,0,0,0,0,0,-1,1679,1765,0,0
462,-741,0,0,0,0,0,0,0,0,0,-1,1686,1765,0,0
469,-741,0,0,0,0,0,0,0,0,0,-1,1693,1765,0,0
476,-741,0,0,0,0,0,0,0,0,0,-1,1700,1765,0,0
483,-741,0,0,0,0,0,0,0,0,0,-1,1707,1765,0,0
490,-741,0,0,0,0,0,0,0,0,0,-1,1714,1765,0,0
497,-741,0,0,0,0,0,0,0,0,0,-1,1721,1765,0,0
504,-741,0,0,0,0,0,0,0,0,0,-1,1728,1765,0,0
511,-741,0,0,0,0,0,0,0,0,0,-1,1735,1765,0,0
518,-741,0,0,0,0,0,0,0,0,0,-1,1742,1765,0,0
525,-741,0,0,0,0,0,0,0,0,0,-1,1749,1765,0,0
532,-741,0,0,0,0,0,0,0,0,0,-1,1756,1765,0,0
539,-741,0,0,0,0,0,0,0,0,0,-1,1763,1765,0,0
546,-741,0,0,0,0,0,0,0,0,0,-1,1770,1765,0,0
553,-741,0,0,0,0,0,0,0,0,0,-1,1777,1765,0,0
560,-741,0,0,0,0,0,0,0,0,0,-1,1784,1765,0,0
567,-741,0,0,0,0,0,0,0,0,0,-1,1791,1765,0,0
574,-741,0,0,0,0,0,0,0,0,0,-1,1798,1765,0,0
581,-741,0,0,0,0,0,0,0,0,0,-1,1805,1765,0,0
588,-741,0,0,0,0,0,0,0,0,0,-1,1812,1765,0,0
595,-741,0,0,0,0,0,0,0,0,0,-1,1819,1765,0,0
602,-741,0,0,0,0,0,0,0,0,0,-1,1826,1765,0,0
609,-741,0,0,0,0,0,0,0,0,0,-1,1833,1765,0,0
616,-741,0,0,0,0,0,0,0,0,0,-1,1840,1765,0,0
623,-741,0,0,0,0,0,0,0,0,0,-1,1847,1765,0,0
630,-741,0,0,0,0,0,0,0,0,0,-1,1854,1765,0,0
637,-741,0,0,0,0,0,0,0,0,0,-1,1861,1765,0,0
644,-741,0,0,0,0,0,0,0,0,0,-1,1868,1765,0,0
651,-741,0,0,0,0,0,0,0,0,0,-1,1875,1765,0,0
658,-741,0,0,0,0,0,0,0,0,0,-1,1882,1765,0,0
665,-741,0,0,0,0,0,0,0,0,0,-1,1889,1765,0,0
672,-741,0,0,0,0,0,0,0,0,0,-1,1896,1765,0,0
679,-741,0,0,0,0,0,0,0,0,0,-1,1903,1765,0,0
686,-741,0,0,0,0,0,0,0,0,0,-1,1910,1765,0,0
693,-741,0,0,0,0,0,0,0,0,0,-1,1917,1765,0,0
700,-741,0,0,0,0,0,0,0,0,0,-1,1924,1765,0,0
707,-741,0,0,0,0,0,0,0,0,0,-1,1931,1765,0,0
714,-741,0,0,0,0,0,0,0,0,0,-1,1938,1765,0,0
721,-741,0,0,0,0,0,0,0,0,0,-1,1945,1765,0,0
728,-741,0,0,0,0,0,0,0,0,0,-1,1952,1765,0,0
735,-741,0,0,0,0,0,0,0,0,0,-1,1959,1765,0,0
742,-741,0,0,0,0,0,0,0,0,0,-1,1966,1765,0,0
749,-741,0,0,0,0,0,0,0,0,0,-1,1973,1765,0,0
756,-741,0,0,0,0,0,0,0,0,0,-1,1980,1765,0,0
763,-741,0,0,0,0,0,0,0,0,0,-1,1987,1765,0,0
770,-741,0,0,0,0,0,0,0,0,0,-1,1994,1765,0,0
777,-741,0,0,0,0,0,0,0,0,0,-1,2001,1765,0,0
784,-741,0,0,0,0,0,0,0,0,0,-1,2008,1765,0,0
791,-741,0,0,0,0,0,0,0,0,0,-1,2015,1765,0,0
798,-741,0,0,0,0,0,0,0,0,0,-1,2022,1765,0,0
805,-741,0,0,0,0,0,0,0,0,0,-1,2029,1765,0,0
812,-741,0,0,0,0,0,0,0,0,0,-1,2036,1765,0,0
-700,-748,0,0,0,0,0,0,0,0,0,-1,524,1772,0,0
-693,-748,0,0,0,0,0,0,0,0,0,-1,531,1772,0,0
-686,-748,0,0,0,0,0,0,0,0,0,-1,538,1772,0,0
-679,-748,0,0,0,0,0,0,0,0,0,-1,545,1772,0,0
-672,-748,0,0,0,0,0,0,0,0,0,-1,552,1772,0,0
-665,-748,0,0,0,0,0,0,0,0,0,-1,559,1772,0,0
-658,-748,0,0,0,0,0,0,0,0,0,-1,566,1772,0,0
-651,-748,0,0,0,0,0,0,0,0,0,-1,573,1772,0,0
-644,-748,0,0,0,0,0,0,0,0,0,-1,580,1772,0,0
-637,-748,0,0,0,0,0,0,0,0,0,-1,587,1772,0,0
-630,-748,0,0,0,0,0,0,0,0,0,-1,594,1772,0,0
-623,-748,0,0,0,0,0,0,0,0,0,-1,601,1772,0,0
-616,-748,0,0,0,0,0,0,0,0,0,-1,608,1772,0,0
-609,-748,0,0,0,0,0,0,0,0,0,-1,615,1772,0,0
-602,-748,0,0,0,0,0,0,0,0,0,-1,622,1772,0,0
-595,-748,0,0,0,0,0,0,0,0,0,-1,629,1772,0,0
-588,-748,0,0,0,0,0,0,0,0,0,-1,636,1772,0,0
-581,-748,0,0,0,0,0,0,0,0,0,-1,643,1772,0,0
-574,-748,0,0,0,0,0,0,0,0,0,-1,650,1772,0,0
-567,-748,0,0,0,0,0,0,0,0,0,-1,657,1772,0,0
-560,-748,0,0,0,0,0,0,0,0,0,-1,664,1772,0,0
-553,-748,0,0,0,0,0,0,0,0,0,-1,671,1772,0,0
-546,-748,0,0,0,0,0,0,0,0,0,-1,678,1772,0,0
-539,-748,0,0,0,0,0,0,0,0,0,-1,685,1772,0,0
-532,-748,0,0,0,0,0,0,0,0,0,-1,692,1772,0,0
-525,-748,0,0,0,0,0,0,0,0,0,-1,699,1772,0,0
-518,-748,0,0,0,0,0,0,0,0,0,-1,706,1772,0,0
-511,-748,0,0,0,0,0,0,0,0,0,-1,713,1772,0,0
-504,-748,0,0,0,0,0,0,0,0,0,-1,720,1772,0,0
-497,-748,0,0,0,0,0,0,0,0,0,-1,727,1772,0,0
-490,-748,0,0,0,0,0,0,0,0,0,-1,734,1772,0,0
-483,-748,0,0,0,0,0,0,0,0,0,-1,741,1772,0,0
-476,-748,0,0,0,0,0,0,0,0,0,-1,748,1772,0,0
-469,-748,0,0,0,0,0,0,0,0,0,-1,755,1772,0,0
-462,-748,0,0,0,0,0,0,0,0,0,-1,762,1772,0,0
-455,-748,0,0,0,0,0,0,0,0,0,-1,769,1772,0,0
-448,-748,0,0,0,0,0,0,0,0,0,-1,776,1772,0,0
-441,-748,0,0,0,0,0,0,0,0,0,-1,783,1772,0,0
-434,-748,0,0,0,0,0,0,0,0,0,-1,790,1772,0,0
-427,-748,0,0,0,0,0,0,0,0,0,-1,797,1772,0,0
-420,-748,0,0,0,0,0,0,0,0,0,-1,804,1772,0,0
-413,-748,0,0,0,0,0,0,0,0,0,-1,811,1772,0,0
-406,-748,0,0,0,0,0,0,0,0,0,-1,818,1772,0,0
-399,-748,0,0,0,0,0,0,0,0,0,-1,825,1772,0,0
-392,-748,0,0,0,0,0,0,0,0,0,-1,832,1772,0,0
-385,-748,0,0,0,0,0,0,0,0,0,-1,839,1772,0,0
-378,-748,0,0,0,0,0,0,0,0,0,-1,846,1772,0,0
-371,-748,0,0,0,0,0,0,0,0,0,-1,853,1772,0,0
-364,-748,0,0,0,0,0,0,0,0,0,-1,860,1772,0,0
-357,-748,0,0,0,0,0,0,0,0,0,-1,867,1772,0,0
-350,-748,0,0,0,0,0,0,0,0,0,-1,874,1772,0,0
-343,-748,0,0,0,0,0,0,0,0,0,-1,881,1772,0,0
-336,-748,0,0,0,0,0,0,0,0,0,-1,888,1772,0,0
-329,-748,0,0,0,0,0,0,0,0,0,-1,895,1772,0,0
-322,-748,0,0,0,0,0,0,0,0,0,-1,902,1772,0,0
-315,-748,0,0,0,0,0,0,0,0,0,-1,909,1772,0,0
-308,-748,0,0,0,0,0,0,0,0,0,-1,916,1772,0,0
-301,-748,0,0,0,0,0,0,0,0,0,-1,923,1772,0,0
-294,-748,0,0,0,0,0,0,0,0,0,-1,930,1772,0,0
-287,-748,0,0,0,0,0,0,0,0,0,-1,937,1772,0,0
-280,-748,0,0,0,0,0,0,0,0,0,-1,944,1772,0,0
-273,-748,0,0,0,0,0,0,0,0,0,-1,951,1772,0,0
-266,-748,0,0,0,0,0,0,0,0,0,-1,958,1772,0,0
-259,-748,0,0,0,0,0,0,0,0,0,-1,965,1772,0,0
-252,-748,0,0,0,0,0,0,0,0,0,-1,972,1772,0,0
-245,-748,0,0,0,0,0,0,0,0,0,-1,979,1772,0,0
-238,-748,0,0,0,0,0,0,0,0,0,-1,986,1772,0,0
-231,-748,0,0,0,0,0,0,0,0,0,-1,993,1772,0,0
-224,-748,0,0,0,0,0,0,0,0,0,-1,1000,1772,0,0
-217,-748,8.97742,29.9884,0,0,0,0,0,0,0,-1,1007,1772,8.97744,-29.9884
-210,-748,8.8941,30.14,0,0,0,0,0,0,0,-1,1014,1772,8.8941,-30.14
-203,-748,8.57703,30.2961,0,0,0,0,0,0,0,-1,1021,1772,8.57706,-30.2962
-196,-748,8.01953,29.9611,0,0,0,0,0,0,0,-1,1028,1772,8.01957,-29.9611
-189,-748,9.63245,31.4406,0,0,0,0,0,0,0,-1,1035,1772,9.6325,-31.4406
-182,-748,3.94958,20.8662,0,0,0,0,0,0,0,-1,1042,1772,3.94959,-20.8662
-175,-748,3.56726,19.4518,0,0,0,0,0,0,0,-1,1049,1772,3.5673,-19.4518
-168,-748,3.04858,18.0109,0,0,0,0,0,0,0,-1,1056,1772,3.04853,-18.0108
-161,-748,3.50562,13.2729,0,0,0,0,0,0,0,-1,1063,1772,3.5056,-13.2729
-154,-748,-3.38562,10.6989,0,0,0,0,0,0,0,-1,1070,1772,-3.38564,-10.6989
-147,-748,10.0063,40.6635,0,0,0,0,0,0,0,-1,1077,1772,10.0064,-40.6634
-140,-748,10.5353,40.1616,0,0,0,0,0,0,0,-1,1084,1772,10.5353,-40.1616
-133,-748,7.44727,22.0308,0,0,0,0,0,0,0,-1,1091,1772,7.44728,-22.0308
-126,-748,5.98035,22.6067,0,0,0,0,0,0,0,-1,1098,1772,5.9803,-22.6067
-119,-748,6.63342,26.309,0,0,0,0,0,0,0,-1,1105,1772,6.6334,-26.3089
-112,-748,6.91333,24.923,0,0,0,0,0,0,0,-1,1112,1772,6.91339,-24.923
-105,-748,6.83313,25.0537,0,0,0,0,0,0,0,-1,1119,1772,6.83311,-25.0537
-98,-748,8.13623,30.8743,0,0,0,0,0,0,0,-1,1126,1772,8.13628,-30.8742
-91,-748,4.85352,15.3033,0,0,0,0,0,0,0,-1,1133,1772,4.85351,-15.3033
-84,-748,-0.192017,7.26196,0,0,0,0,0,0,0,-1,1140,1772,-0.192047,-7.26201
-77,-748,4.42615,13.5537,0,0,0,0,0,0,0,-1,1147,1772,4.4261,-13.5538
-70,-748,4.46191,13.7446,0,0,0,0,0,0,0,-1,1154,1772,4.4619,-13.7446
-63,-748,4.49768,13.9355,0,0,0,0,0,0,0,-1,1161,1772,4.49769,-13.9355
-56,-748,3.05762,7.87817,0,0,0,0,0,0,0,-1,1168,1772,3.05768,-7.87822
-49,-748,3.04102,7.82471,0,0,0,0,0,0,0,-1,1175,1772,3.04096,-7.82468
-42,-748,0.793457,14.9474,0,0,0,0,0,0,0,-1,1182,1772,0.793413,-14.9474
-35,-748,8.89343,43.2588,0,0,0,0,0,0,0,-1,1189,1772,8.89348,-43.2588
-28,-748,8.93347,43.3921,-0.00343261,-0.00650278,0.00433345,-0.000370383,-0.00956501,0.615175,0.00625687,0.0497194,1196,1772,8.93342,-43.3921
-21,-748,8.89648,43.5502,-0.00258948,-0.00536281,0.00359676,-0.00012134,-0.00783096,0.601412,0.00518066,0.0229771,1203,1772,8.89646,-43.5502
-14,-748,8.83606,43.6202,-0.00160436,-0.00363335,0.00281033,0.000368979,-0.0056067,0.612184,0.00386666,0.0170857,1210,1772,8.83606,-43.6202
-7,-748,8.81287,43.7253,-0.000405872,-0.00165989,0.0019344,0.0010006,-0.00306637,0.628673,0.00244695,0.0163712,1217,1772,8.81293,-43.7253
0,-748,8.77783,43.8289,0.000903752,0.00101731,0.00106232,0.00202437,-0.000103311,0.812096,0.0013853,0.0156302,1224,1772,8.77782,-43.8289
7,-748,8.74915,43.9279,0.00218539,0.00356432,0.000255571,0.00361017,0.00213955,1.39331,0.00209622,0.0139549,1231,1772,8.74914,-43.9279
14,-748,8.71191,44.0576,0.00335637,0.00604933,-0.000445656,0.00612117,0.00328453,-1.41098,0.00353721,0.0154726,1238,1772,8.71196,-44.0576
21,-748,8.6969,44.1371,0.00423807,0.00816865,-0.0010159,0.00841569,0.00399102,-1.33225,0.00486095,0.0117032,1245,1772,8.69688,-44.1371
28,-748,8.63306,44.2014,0.00498803,0.00979568,-0.00145293,0.0102007,0.00458305,-1.29896,0.00589944,0.0122564,1252,1772,8.63303,-44.2014
35,-748,8.6167,44.2334,0.00572861,0.0108791,-0.00175249,0.0114188,0.00518887,-1.27203,0.0066018,0.0133551,1259,1772,8.61676,-44.2334
42,-748,8.61414,44.2555,0.00604349,0.0118191,-0.00217078,0.012544,0.00531858,-1.2485,0.00727011,0.0141551,1266,1772,8.61416,-44.2554
49,-748,8.58569,44.3038,0.00543519,0.0120901,-0.00237391,0.0128502,0.00467518,-1.26096,0.0075102,0.0108516,1273,1772,8.58571,-44.3039
56,-748,8.54236,44.3503,0.00476831,0.0117174,-0.00269356,0.0126392,0.00384652,-1.24107,0.00748116,0.0103742,1280,1772,8.54241,-44.3504
63,-748,8.50793,44.3519,0.003674,0.0112552,-0.00306279,0.0123379,0.00259126,-1.231,0.007512,0.0116725,1287,1772,8.50798,-44.3519
70,-748,8.48157,44.3448,0.00267034,0.00983887,-0.00278336,0.0107927,0.00171654,-1.24066,0.00669668,0.0140894,1294,1772,8.48163,-44.3448
77,-748,8.45129,44.3378,0.000952222,0.0084274,-0.00251564,0.00919514,0.000184481,-1.27459,0.00606953,0.0133404,1301,1772,8.45127,-44.3377
84,-748,8.39697,44.3402,-0.000988828,0.00708255,-0.00256752,0.00783006,-0.00173633,-1.28749,0.00588483,0.0146316,1308,1772,8.39698,-44.3402
91,-748,8.35986,44.3115,-0.00253585,0.00578577,-0.00263591,0.00655045,-0.00330052,-1.28845,0.00578971,0.0117806,1315,1772,8.35984,-44.3116
98,-748,8.33704,44.2404,-0.00384602,0.00457902,-0.00272007,0.00538089,-0.00464789,-1.28412,0.00579528,0.0104331,1322,1772,8.33705,-44.2403
105,-748,8.32312,44.1505,-0.00497953,0.00334203,-0.00263611,0.00410681,-0.00574431,-1.28843,0.00571368,0.0123186,1329,1772,8.3231,-44.1505
112,-748,8.32642,44.0913,-0.00578932,0.00262005,-0.00245092,0.00328223,-0.0064515,-1.30692,0.00571821,0.0152528,1336,1772,8.3264,-44.0913
119,-748,8.30359,44.0049,-0.00639751,0.00156847,-0.00213835,0.00210618,-0.00693522,-1.32444,0.0054626,0.0119765,1343,1772,8.30363,-44.0049
126,-748,8.27148,43.9294,-0.00669521,0.000460188,-0.00162276,0.000811009,-0.00704604,-1.35788,0.00498971,0.0136129,1350,1772,8.27149,-43.9294
133,-748,8.21411,43.8361,-0.0069103,-0.000440231,-0.001037,-0.000278087,-0.00707245,-1.41569,0.00462506,0.00894157,1357,1772,8.21413,-43.8361
140,-748,8.19727,43.7189,-0.00723154,-0.00141881,-0.000515212,-0.0013735,-0.00727685,-1.48307,0.00446439,0.0124204,1364,1772,8.19724,-43.7189
147,-748,8.19519,43.5896,-0.00681799,-0.00240444,3.80122e-05,-0.00240411,-0.00681832,1.56218,0.00399318,0.0145615,1371,1772,8.19517,-43.5896
154,-748,8.13745,43.4747,-0.00571591,-0.00327459,5.52365e-05,-0.00327334,-0.00571716,1.54819,0.00331236,0.012447,1378,1772,8.13744,-43.4748
161,-748,8.07471,43.3654,-0.00534364,-0.00381266,0.00012567,-0.00380241,-0.00535389,1.48944,0.00318083,0.0177607,1385,1772,8.07466,-43.3653
168,-748,8.01746,43.2717,0,0,0,0,0,0,0,-1,1392,1772,8.01752,-43.2718
175,-748,11.6235,16.8242,0,0,0,0,0,0,0,-1,1399,1772,11.6236,-16.8242
182,-748,7.62476,10.3058,0,0,0,0,0,0,0,-1,1406,1772,7.62476,-10.3058
189,-748,6.15857,6.95898,0,0,0,0,0,0,0,-1,1413,1772,6.15862,-6.95896
196,-748,3.9425,8.46021,0,0,0,0,0,0,0,-1,1420,1772,3.9425,-8.46026
203,-748,3.9668,12.9835,0,0,0,0,0,0,0,-1,1427,1772,3.96678,-12.9836
210,-748,4.71472,16.8318,0,0,0,0,0,0,0,-1,1434,1772,4.71471,-16.8317
217,-748,5.38452,21.5551,0,0,0,0,0,0,0,-1,1441,1772,5.38455,-21.555
224,-748,6.14258,25.2345,0,0,0,0,0,0,0,-1,1448,1772,6.14263,-25.2345
231,-748,6.46045,29.7867,0,0,0,0,0,0,0,-1,1455,1772,6.46049,-29.7867
238,-748,7.41565,32.8574,0,0,0,0,0,0,0,-1,1462,1772,7.41562,-32.8574
245,-748,7.84912,32.0914,0,0,0,0,0,0,0,-1,1469,1772,7.84914,-32.0914
252,-748,7.91919,40.0792,0,0,0,0,0,0,0,-1,1476,1772,7.91913,-40.0793
259,-748,7.69348,40.3716,0,0,0,0,0,0,0,-1,1483,1772,7.69353,-40.3716
266,-748,8.25952,39.3665,0,0,0,0,0,0,0,-1,1490,1772,8.25952,-39.3664
273,-748,8.50684,39.9956,0,0,0,0,0,0,0,-1,1497,1772,8.50682,-39.9957
280,-748,8.76538,40.4501,0,0,0,0,0,0,0,-1,1504,1772,8.76537,-40.45
287,-748,14.161,8.32813,0,0,0,0,0,0,0,-1,1511,1772,14.161,-8.32808
294,-748,6.38525,32.4724,0,0,0,0,0,0,0,-1,1518,1772,6.38521,-32.4725
301,-748,5.40393,38.9807,0,0,0,0,0,0,0,-1,1525,1772,5.40397,-38.9807
308,-748,5.95227,37.1827,0,0,0,0,0,0,0,-1,1532,1772,5.95229,-37.1827
315,-748,6.50061,35.3848,0,0,0,0,0,0,0,-1,1539,1772,6.50062,-35.3847
322,-748,3.94556,28.3459,0,0,0,0,0,0,0,-1,1546,1772,3.94558,-28.3459
329,-748,3.87256,16.1473,0,0,0,0,0,0,0,-1,1553,1772,3.87259,-16.1474
336,-748,4.81006,19.6141,0,0,0,0,0,0,0,-1,1560,1772,4.81011,-19.6141
343,-748,0,0,0,0,0,0,0,0,0,-1,1567,1772,0,0
350,-748,0,0,0,0,0,0,0,0,0,-1,1574,1772,0,0
357,-748,0,0,0,0,0,0,0,0,0,-1,1581,1772,0,0
364,-748,0,0,0,0,0,0,0,0,0,-1,1588,1772,0,0
371,-748,0,0,0,0,0,0,0,0,0,-1,1595,1772,0,0
378,-748,0,0,0,0,0,0,0,0,0,-1,1602,1772,0,0
385,-748,0,0,0,0,0,0,0,0,0,-1,1609,1772,0,0
392,-748,0,0,0,0,0,0,0,0,0,-1,1616,1772,0,0
399,-748,0,0,0,0,0,0,0,0,0,-1,1623,1772,0,0
406,-748,0,0,0,0,0,0,0,0,0,-1,1630,1772,0,0
413,-748,0,0,0,0,0,0,0,0,0,-1,1637,1772,0,0
420,-748,0,0,0,0,0,0,0,0,0,-1,1644,1772,0,0
427,-748,0,0,0,0,0,0,0,0,0,-1,1651,1772,0,0
434,-748,0,0,0,0,0,0,0,0,0,-1,1658,1772,0,0
441,-748,0,0,0,0,0,0,0,0,0,-1,1665,1772,0,0
448,-748,0,0,0,0,0,0,0,0,0,-1,1672,1772,0,0
455,-748,0,0,0,0,0,0,0,0,0,-1,1679,1772,0,0
462,-748,0,0,0,0,0,0,0,0,0,-1,1686,1772,0,0
469,-748,0,0,0,0,0,0,0,0,0,-1,1693,1772,0,0
476,-748,0,0,0,0,0,0,0,0,0,-1,1700,1772,0,0
483,-748,0,0,0,0,0,0,0,0,0,-1,1707,1772,0,0
490,-748,0,0,0,0,0,0,0,0,0,-1,1714,1772,0,0
497,-748,0,0,0,0,0,0,0,0,0,-1,1721,1772,0,0
504,-748,0,0,0,0,0,0,0,0,0,-1,1728,1772,0,0
511,-748,0,0,0,0,0,0,0,0,0,-1,1735,1772,0,0
518,-748,0,0,0,0,0,0,0,0,0,-1,1742,1772,0,0
525,-748,0,0,0,0,0,0,0,0,0,-1,1749,1772,0,0
532,-748,0,0,0,0,0,0,0,0,0,-1,1756,1772,0,0
539,-748,0,0,0,0,0,0,0,0,0,-1,1763,1772,0,0
546,-748,0,0,0,0,0,0,0,0,0,-1,1770,1772,0,0
553,-748,0,0,0,0,0,0,0,0,0,-1,1777,1772,0,0
560,-748,0,0,0,0,0,0,0,0,0,-1,1784,1772,0,0
567,-748,0,0,0,0,0,0,0,0,0,-1,1791,1772,0,0
574,-748,0,0,0,0,0,0,0,0,0,-1,1798,1772,0,0
581,-748,0,0,0,0,0,0,0,0,0,-1,1805,1772,0,0
588,-748,0,0,0,0,0,0,0,0,0,-1,1812,1772,0,0
595,-748,0,0,0,0,0,0,0,0,0,-1,1819,1772,0,0
602,-748,0,0,0,0,0,0,0,0,0,-1,1826,1772,0,0
609,-748,0,0,0,0,0,0,0,0,0,-1,1833,1772,0,0
616,-748,0,0,0,0,0,0,0,0,0,-1,1840,1772,0,0
623,-748,0,0,0,0,0,0,0,0,0,-1,1847,1772,0,0
630,-748,0,0,0,0,0,0,0,0,0,-1,1854,1772,0,0
637,-748,0,0,0,0,0,0,0,0,0,-1,1861,1772,0,0
644,-748,0,0,0,0,0,0,0,0,0,-1,1868,1772,0,0
651,-748,0,0,0,0,0,0,0,0,0,-1,1875,1772,0,0
658,-748,0,0,0,0,0,0,0,0,0,-1,1882,1772,0,0
665,-748,0,0,0,0,0,0,0,0,0,-1,1889,1772,0,0
672,-748,0,0,0,0,0,0,0,0,0,-1,1896,1772,0,0
679,-748,0,0,0,0,0,0,0,0,0,-1,1903,1772,0,0
686,-748,0,0,0,0,0,0,0,0,0,-1,1910,1772,0,0
693,-748,0,0,0,0,0,0,0,0,0,-1,1917,1772,0,0
700,-748,0,0,0,0,0,0,0,0,0,-1,1924,1772,0,0
707,-748,0,0,0,0,0,0,0,0,0,-1,1931,1772,0,0
714,-748,0,0,0,0,0,0,0,0,0,-1,1938,1772,0,0
721,-748,0,0,0,0,0,0,0,0,0,-1,1945,1772,0,0
728,-748,0,0,0,0,0,0,0,0,0,-1,1952,1772,0,0
735,-748,0,0,0,0,0,0,0,0,0,-1,1959,1772,0,0
742,-748,0,0,0,0,0,0,0,0,0,-1,1966,1772,0,0
749,-748,0,0,0,0,0,0,0,0,0,-1,1973,1772,0,0
756,-748,0,0,0,0,0,0,0,0,0,-1,1980,1772,0,0
763,-748,0,0,0,0,0,0,0,0,0,-1,1987,1772,0,0
770,-748,0,0,0,0,0,0,0,0,0,-1,1994,1772,0,0
777,-748,0,0,0,0,0,0,0,0,0,-1,2001,1772,0,0
784,-748,0,0,0,0,0,0,0,0,0,-1,2008,1772,0,0
791,-748,0,0,0,0,0,0,0,0,0,-1,2015,1772,0,0
798,-748,0,0,0,0,0,0,0,0,0,-1,2022,1772,0,0
805,-748,0,0,0,0,0,0,0,0,0,-1,2029,1772,0,0
812,-748,0,0,0,0,0,0,0,0,0,-1,2036,1772,0,0
-700,-755,0,0,0,0,0,0,0,0,0,-1,524,1779,0,0
-693,-755,0,0,0,0,0,0,0,0,0,-1,531,1779,0,0
-686,-755,0,0,0,0,0,0,0,0,0,-1,538,1779,0,0
-679,-755,0,0,0,0,0,0,0,0,0,-1,545,1779,0,0
-672,-755,0,0,0,0,0,0,0,0,0,-1,552,1779,0,0
-665,-755,0,0,0,0,0,0,0,0,0,-1,559,1779,0,0
-658,-755,0,0,0,0,0,0,0,0,0,-1,566,1779,0,0
-651,-755,0,0,0,0,0,0,0,0,0,-1,573,1779,0,0
-644,-755,0,0,0,0,0,0,0,0,0,-1,580,1779,0,0
-637,-755,0,0,0,0,0,0,0,0,0,-1,587,1779,0,0
-630,-755,0,0,0,0,0,0,0,0,0,-1,594,1779,0,0
-623,-755,0,0,0,0,0,0,0,0,0,-1,601,1779,0,0
-616,-755,0,0,0,0,0,0,0,0,0,-1,608,1779,0,0
-609,-755,0,0,0,0,0,0,0,0,0,-1,615,1779,0,0
-602,-755,0,0,0,0,0,0,0,0,0,-1,622,1779,0,0
-595,-755,0,0,0,0,0,0,0,0,0,-1,629,1779,0,0
-588,-755,0,0,0,0,0,0,0,0,0,-1,636,1779,0,0
-581,-755,0,0,0,0,0,0,0,0,0,-1,643,1779,0,0
-574,-755,0,0,0,0,0,0,0,0,0,-1,650,1779,0,0
-567,-755,0,0,0,0,0,0,0,0,0,-1,657,1779,0,0
-560,-755,0,0,0,0,0,0,0,0,0,-1,664,1779,0,0
-553,-755,0,0,0,0,0,0,0,0,0,-1,671,1779,0,0
-546,-755,0,0,0,0,0,0,0,0,0,-1,678,1779,0,0
-539,-755,0,0,0,0,0,0,0,0,0,-1,685,1779,0,0
-532,-755,0,0,0,0,0,0,0,0,0,-1,692,1779,0,0
-525,-755,0,0,0,0,0,0,0,0,0,-1,699,1779,0,0
-518,-755,0,0,0,0,0,0,0,0,0,-1,706,1779,0,0
-511,-755,0,0,0,0,0,0,0,0,0,-1,713,1779,0,0
-504,-755,0,0,0,0,0,0,0,0,0,-1,720,1779,0,0
-497,-755,0,0,0,0,0,0,0,0,0,-1,727,1779,0,0
-490,-755,0,0,0,0,0,0,0,0,0,-1,734,1779,0,0
-483,-755,0,0,0,0,0,0,0,0,0,-1,741,1779,0,0
-476,-755,0,0,0,0,0,0,0,0,0,-1,748,1779,0,0
-469,-755,0,0,0,0,0,0,0,0,0,-1,755,1779,0,0
-462,-755,0,0,0,0,0,0,0,0,0,-1,762,1779,0,0
-455,-755,0,0,0,0,0,0,0,0,0,-1,769,1779,0,0
-448,-755,0,0,0,0,0,0,0,0,0,-1,776,1779,0,0
-441,-755,0,0,0,0,0,0,0,0,0,-1,783,1779,0,0
-434,-755,0,0,0,0,0,0,0,0,0,-1,790,1779,0,0
-427,-755,0,0,0,0,0,0,0,0,0,-1,797,1779,0,0
-420,-755,0,0,0,0,0,0,0,0,0,-1,804,1779,0,0
-413,-755,0,0,0,0,0,0,0,0,0,-1,811,1779,0,0
-406,-755,0,0,0,0,0,0,0,0,0,-1,818,1779,0,0
-399,-755,0,0,0,0,0,0,0,0,0,-1,825,1779,0,0
-392,-755,0,0,0,0,0,0,0,0,0,-1,832,1779,0,0
-385,-755,0,0,0,0,0,0,0,0,0,-1,839,1779,0,0
-378,-755,0,0,0,0,0,0,0,0,0,-1,846,1779,0,0
-371,-755,0,0,0,0,0,0,0,0,0,-1,853,1779,0,0
-364,-755,0,0,0,0,0,0,0,0,0,-1,860,1779,0,0
-357,-755,0,0,0,0,0,0,0,0,0,-1,867,1779,0,0
-350,-755,0,0,0,0,0,0,0,0,0,-1,874,1779,0,0
-343,-755,0,0,0,0,0,0,0,0,0,-1,881,1779,0,0
-336,-755,0,0,0,0,0,0,0,0,0,-1,888,1779,0,0
-329,-755,0,0,0,0,0,0,0,0,0,-1,895,1779,0,0
-322,-755,0,0,0,0,0,0,0,0,0,-1,902,1779,0,0
-315,-755,0,0,0,0,0,0,0,0,0,-1,909,1779,0,0
-308,-755,0,0,0,0,0,0,0,0,0,-1,916,1779,0,0
-301,-755,0,0,0,0,0,0,0,0,0,-1,923,1779,0,0
-294,-755,0,0,0,0,0,0,0,0,0,-1,930,1779,0,0
-287,-755,0,0,0,0,0,0,0,0,0,-1,937,1779,0,0
-280,-755,0,0,0,0,0,0,0,0,0,-1,944,1779,0,0
-273,-755,0,0,0,0,0,0,0,0,0,-1,951,1779,0,0
-266,-755,0,0,0,0,0,0,0,0,0,-1,958,1779,0,0
-259,-755,0,0,0,0,0,0,0,0,0,-1,965,1779,0,0
-252,-755,0,0,0,0,0,0,0,0,0,-1,972,1779,0,0
-245,-755,0,0,0,0,0,0,0,0,0,-1,979,1779,0,0
-238,-755,0,0,0,0,0,0,0,0,0,-1,986,1779,0,0
-231,-755,0,0,0,0,0,0,0,0,0,-1,993,1779,0,0
-224,-755,0,0,0,0,0,0,0,0,0,-1,1000,1779,0,0
-217,-755,0,0,0,0,0,0,0,0,0,-1,1007,1779,0,0
-210,-755,0,0,0,0,0,0,0,0,0,-1,1014,1779,0,0
-203,-755,8.97363,30.5414,0,0,0,0,0,0,0,-1,1021,1779,8.97362,-30.5414
-196,-755,8.34436,29.0909,0,0,0,0,0,0,0,-1,1028,1779,8.3443,-29.091
-189,-755,4.8175,22.4788,0,0,0,0,0,0,0,-1,1035,1779,4.81745,-22.4788
-182,-755,4.021,20.8032,0,0,0,0,0,0,0,-1,1042,1779,4.02094,-20.8032
-175,-755,3.79993,18.8242,0,0,0,0,0,0,0,-1,1049,1779,3.79995,-18.8242
-168,-755,3.14294,16.9865,0,0,0,0,0,0,0,-1,1056,1779,3.14291,-16.9864
-161,-755,-2.85889,11.5868,0,0,0,0,0,0,0,-1,1063,1779,-2.85887,-11.5868
-154,-755,-5.39026,8.51416,0,0,0,0,0,0,0,-1,1070,1779,-5.3903,-8.51417
-147,-755,-6.45593,10.2422,0,0,0,0,0,0,0,-1,1077,1779,-6.45594,-10.2422
-140,-755,1.33521,21.3856,0,0,0,0,0,0,0,-1,1084,1779,1.33522,-21.3857
-133,-755,2.89417,21.0964,0,0,0,0,0,0,0,-1,1091,1779,2.89422,-21.0964
-126,-755,3.26404,20.9304,0,0,0,0,0,0,0,-1,1098,1779,3.26399,-20.9305
-119,-755,5.17761,21.9325,0,0,0,0,0,0,0,-1,1105,1779,5.17761,-21.9325
-112,-755,5.40247,24.5646,0,0,0,0,0,0,0,-1,1112,1779,5.40244,-24.5646
-105,-755,7.01294,20.1539,0,0,0,0,0,0,0,-1,1119,1779,7.01295,-20.154
-98,-755,5.50708,16.9628,0,0,0,0,0,0,0,-1,1126,1779,5.5071,-16.9628
-91,-755,5.51025,12.0438,0,0,0,0,0,0,0,-1,1133,1779,5.51022,-12.0439
-84,-755,0.169312,8.66443,0,0,0,0,0,0,0,-1,1140,1779,0.16932,-8.66446
-77,-755,-0.0491943,6.87439,0,0,0,0,0,0,0,-1,1147,1779,-0.0491385,-6.87443
-70,-755,4.5686,13.2169,0,0,0,0,0,0,0,-1,1154,1779,4.56865,-13.2169
-63,-755,-1.36316,7.3147,0,0,0,0,0,0,0,-1,1161,1779,-1.36312,-7.31473
-56,-755,0.0483398,5.06079,0,0,0,0,0,0,0,-1,1168,1779,0.0483138,-5.06084
-49,-755,-1.32263,5.33716,0,0,0,0,0,0,0,-1,1175,1779,-1.32264,-5.33718
-42,-755,-2.03613,4.01672,0,0,0,0,0,0,0,-1,1182,1779,-2.0361,-4.01671
-35,-755,-2.72498,2.37476,0,0,0,0,0,0,0,-1,1189,1779,-2.72502,-2.37473
-28,-755,8.93188,43.464,0,0,0,0,0,0,0,-1,1196,1779,8.93192,-43.464
-21,-755,8.9281,43.6691,0,0,0,0,0,0,0,-1,1203,1779,8.92813,-43.6691
-14,-755,8.95447,43.6091,-0.00245201,-0.00596014,0.00362405,-0.00017985,-0.0082323,0.560013,0.00542925,0.0363597,1210,1779,8.95448,-43.6091
-7,-755,8.84534,43.7194,-0.000912574,-0.00306925,0.00240749,0.000647045,-0.00462887,0.574841,0.00332266,0.0250842,1217,1779,8.84531,-43.7194
0,-755,8.84229,43.8176,0.000876102,0.000605402,0.00114748,0.00189619,-0.000414681,0.726692,0.00142264,0.0143072,1224,1779,8.84228,-43.8176
7,-755,8.8479,43.9082,0.00268209,0.00408383,-1.38845e-05,0.00408397,0.00268195,-1.56089,0.00239617,0.0113163,1231,1779,8.84784,-43.9082
14,-755,8.80957,44.021,0.00434141,0.00742419,-0.00097969,0.00770918,0.00405641,-1.28771,0.00445293,0.0105642,1238,1779,8.80962,-44.021
21,-755,8.72522,44.1001,0.00560448,0.0101543,-0.00170879,0.0107246,0.00503418,-1.24868,0.0061957,0.015781,1245,1779,8.72518,-44.1001
28,-755,8.65088,44.1362,0.0067072,0.0121063,-0.0023039,0.0129557,0.00585772,-1.21755,0.00749141,0.0195705,1252,1779,8.65082,-44.1362
35,-755,8.66321,44.2495,0.00773689,0.0134146,-0.00273222,0.0145158,0.00663567,-1.18767,0.00839096,0.0205447,1259,1779,8.66325,-44.2496
42,-755,8.63782,44.2527,0.00825485,0.0145299,-0.00325708,0.0159149,0.00686992,-1.16875,0.009217,0.0147156,1266,1779,8.63781,-44.2527
49,-755,8.60828,44.2694,0.0075866,0.0148527,-0.00354489,0.0162956,0.00614369,-1.18424,0.00950265,0.00998731,1273,1779,8.60823,-44.2694
56,-755,8.55481,44.319,0.0067959,0.0143831,-0.00399541,0.016099,0.00508,-1.16515,0.00950327,0.00933258,1280,1779,8.55477,-44.3189
63,-755,8.51904,44.3491,0.005457,0.0138915,-0.0045428,0.0158728,0.00347568,-1.15952,0.00963461,0.00955997,1287,1779,8.51909,-44.3492
70,-755,8.49817,44.3134,0.00416087,0.0122633,-0.00430143,0.0141209,0.00230322,-1.16312,0.00874786,0.0133801,1294,1779,8.49813,-44.3134
77,-755,8.44922,44.2711,0.00195072,0.0107341,-0.00405793,0.0123218,0.000362965,-1.19784,0.00809628,0.0125295,1301,1779,8.44922,-44.2711
84,-755,8.39844,44.2769,-0.000557353,0.00932653,-0.00423669,0.010894,-0.00212481,-1.21644,0.00806478,0.0128593,1308,1779,8.39845,-44.2768
91,-755,8.35974,44.2377,-0.00261882,0.00796479,-0.00437676,0.00954024,-0.00419427,-1.22528,0.00812738,0.0126839,1315,1779,8.35969,-44.2377
98,-755,8.31323,44.2067,-0.00449096,0.00672719,-0.00451412,0.00831805,-0.00608182,-1.23197,0.00834711,0.0134372,1322,1779,8.31321,-44.2067
105,-755,8.31348,44.1753,-0.00617386,0.00543978,-0.00436706,0.00689866,-0.00763274,-1.24839,0.00839327,0.0175514,1329,1779,8.3135,-44.1753
112,-755,8.29419,44.0739,-0.00749652,0.00463395,-0.00401291,0.0058413,-0.00870387,-1.27854,0.00845169,0.0232092,1336,1779,8.29423,-44.0738
119,-755,8.26782,43.9641,-0.00857267,0.00316508,-0.00343127,0.00409454,-0.00950212,-1.30627,0.00805433,0.0224865,1343,1779,8.26777,-43.9641
126,-755,8.2373,43.9626,-0.00916717,0.00161964,-0.00256927,0.00220034,-0.00974787,-1.34851,0.00734276,0.0250944,1350,1779,8.23735,-43.9627
133,-755,8.08716,43.8815,-0.00975453,0.000306114,-0.00141483,0.000501296,-0.00994971,-1.43371,0.00680639,0.0259348,1357,1779,8.0871,-43.8814
140,-755,7.97986,43.8031,-0.01029,-0.00142214,-0.000347941,-0.00140851,-0.0103037,-1.53164,0.00645106,0.0341701,1364,1779,7.97992,-43.8031
147,-755,8.14722,43.6899,-0.00965461,-0.00290968,0.000424262,-0.0028831,-0.00968119,1.50822,0.00573976,0.0385208,1371,1779,8.14723,-43.6899
154,-755,8.05933,43.6178,-0.00809139,-0.00448431,0.000704358,-0.00435165,-0.00822405,1.38463,0.00475085,0.0380861,1378,1779,8.05927,-43.6179
161,-755,7.95154,43.4048,0,0,0,0,0,0,0,-1,1385,1779,7.95158,-43.4048
168,-755,3.98181,7.35901,0,0,0,0,0,0,0,-1,1392,1779,3.98184,-7.35904
175,-755,8.17065,1.34363,0,0,0,0,0,0,0,-1,1399,1779,8.1706,-1.34368
182,-755,8.09216,2.96924,0,0,0,0,0,0,0,-1,1406,1779,8.09213,-2.9693
189,-755,8.04419,4.68042,0,0,0,0,0,0,0,-1,1413,1779,8.04419,-4.68046
196,-755,7.74841,7.4541,0,0,0,0,0,0,0,-1,1420,1779,7.74842,-7.45405
203,-755,4.80554,6.88696,0,0,0,0,0,0,0,-1,1427,1779,4.80554,-6.88697
210,-755,25.1694,7.35693,0,0,0,0,0,0,0,-1,1434,1779,25.1694,-7.35688
217,-755,5.01648,16.411,0,0,0,0,0,0,0,-1,1441,1779,5.01646,-16.411
224,-755,5.18103,22.6283,0,0,0,0,0,0,0,-1,1448,1779,5.18101,-22.6283
231,-755,5.7489,30.15,0,0,0,0,0,0,0,-1,1455,1779,5.74885,-30.15
238,-755,6.56323,29.2726,0,0,0,0,0,0,0,-1,1462,1779,6.56327,-29.2726
245,-755,5.76453,29.2085,0,0,0,0,0,0,0,-1,1469,1779,5.76455,-29.2085
252,-755,5.57678,29.0841,0,0,0,0,0,0,0,-1,1476,1779,5.57682,-29.0841
259,-755,5.37292,29.1577,0,0,0,0,0,0,0,-1,1483,1779,5.37293,-29.1577
266,-755,17.255,7.86096,0,0,0,0,0,0,0,-1,1490,1779,17.255,-7.86092
273,-755,15.7932,7.59778,0,0,0,0,0,0,0,-1,1497,1779,15.7932,-7.59777
280,-755,14.6255,7.34802,0,0,0,0,0,0,0,-1,1504,1779,14.6254,-7.34806
287,-755,13.8279,7.83105,0,0,0,0,0,0,0,-1,1511,1779,13.8279,-7.83104
294,-755,12.5695,7.96814,0,0,0,0,0,0,0,-1,1518,1779,12.5694,-7.9682
301,-755,11.2659,8.27087,0,0,0,0,0,0,0,-1,1525,1779,11.2658,-8.27087
308,-755,5.17737,37.2896,0,0,0,0,0,0,0,-1,1532,1779,5.17742,-37.2896
315,-755,0.828613,31.032,0,0,0,0,0,0,0,-1,1539,1779,0.828668,-31.032
322,-755,0,0,0,0,0,0,0,0,0,-1,1546,1779,0,0
329,-755,0,0,0,0,0,0,0,0,0,-1,1553,1779,0,0
336,-755,0,0,0,0,0,0,0,0,0,-1,1560,1779,0,0
343,-755,0,0,0,0,0,0,0,0,0,-1,1567,1779,0,0
350,-755,0,0,0,0,0,0,0,0,0,-1,1574,1779,0,0
357,-755,0,0,0,0,0,0,0,0,0,-1,1581,1779,0,0
364,-755,0,0,0,0,0,0,0,0,0,-1,1588,1779,0,0
371,-755,0,0,0,0,0,0,0,0,0,-1,1595,1779,0,0
378,-755,0,0,0,0,0,0,0,0,0,-1,1602,1779,0,0
385,-755,0,0,0,0,0,0,0,0,0,-1,1609,1779,0,0
392,-755,0,0,0,0,0,0,0,0,0,-1,1616,1779,0,0
399,-755,0,0,0,0,0,0,0,0,0,-1,1623,1779,0,0
406,-755,0,0,0,0,0,0,0,0,0,-1,1630,1779,0,0
413,-755,0,0,0,0,0,0,0,0,0,-1,1637,1779,0,0
420,-755,0,0,0,0,0,0,0,0,0,-1,1644,1779,0,0
427,-755,0,0,0,0,0,0,0,0,0,-1,1651,1779,0,0
434,-755,0,0,0,0,0,0,0,0,0,-1,1658,1779,0,0
441,-755,0,0,0,0,0,0,0,0,0,-1,1665,1779,0,0
448,-755,0,0,0,0,0,0,0,0,0,-1,1672,1779,0,0
455,-755,0,0,0,0,0,0,0,0,0,-1,1679,1779,0,0
462,-755,0,0,0,0,0,0,0,0,0,-1,1686,1779,0,0
469,-755,0,0,0,0,0,0,0,0,0,-1,1693,1779,0,0
476,-755,0,0,0,0,0,0,0,0,0,-1,1700,1779,0,0
483,-755,0,0,0,0,0,0,0,0,0,-1,1707,1779,0,0
490,-755,0,0,0,0,0,0,0,0,0,-1,1714,1779,0,0
497,-755,0,0,0,0,0,0,0,0,0,-1,1721,1779,0,0
504,-755,0,0,0,0,0,0,0,0,0,-1,1728,1779,0,0
511,-755,0,0,0,0,0,0,0,0,0,-1,1735,1779,0,0
518,-755,0,0,0,0,0,0,0,0,0,-1,1742,1779,0,0
525,-755,0,0,0,0,0,0,0,0,0,-1,1749,1779,0,0
532,-755,0,0,0,0,0,0,0,0,0,-1,1756,1779,0,0
539,-755,0,0,0,0,0,0,0,0,0,-1,1763,1779,0,0
546,-755,0,0,0,0,0,0,0,0,0,-1,1770,1779,0,0
553,-755,0,0,0,0,0,0,0,0,0,-1,1777,1779,0,0
560,-755,0,0,0,0,0,0,0,0,0,-1,1784,1779,0,0
567,-755,0,0,0,0,0,0,0,0,0,-1,1791,1779,0,0
574,-755,0,0,0,0,0,0,0,0,0,-1,1798,1779,0,0
581,-755,0,0,0,0,0,0,0,0,0,-1,1805,1779,0,0
588,-755,0,0,0,0,0,0,0,0,0,-1,1812,1779,0,0
595,-755,0,0,0,0,0,0,0,0,0,-1,1819,1779,0,0
602,-755,0,0,0,0,0,0,0,0,0,-1,1826,1779,0,0
609,-755,0,0,0,0,0,0,0,0,0,-1,1833,1779,0,0
616,-755,0,0,0,0,0,0,0,0,0,-1,1840,1779,0,0
623,-755,0,0,0,0,0,0,0,0,0,-1,1847,1779,0,0
630,-755,0,0,0,0,0,0,0,0,0,-1,1854,1779,0,0
637,-755,0,0,0,0,0,0,0,0,0,-1,1861,1779,0,0
644,-755,0,0,0,0,0,0,0,0,0,-1,1868,1779,0,0
651,-755,0,0,0,0,0,0,0,0,0,-1,1875,1779,0,0
658,-755,0,0,0,0,0,0,0,0,0,-1,1882,1779,0,0
665,-755,0,0,0,0,0,0,0,0,0,-1,1889,1779,0,0
672,-755,0,0,0,0,0,0,0,0,0,-1,1896,1779,0,0
679,-755,0,0,0,0,0,0,0,0,0,-1,1903,1779,0,0
686,-755,0,0,0,0,0,0,0,0,0,-1,1910,1779,0,0
693,-755,0,0,0,0,0,0,0,0,0,-1,1917,1779,0,0
700,-755,0,0,0,0,0,0,0,0,0,-1,1924,1779,0,0
707,-755,0,0,0,0,0,0,0,0,0,-1,1931,1779,0,0
714,-755,0,0,0,0,0,0,0,0,0,-1,1938,1779,0,0
721,-755,0,0,0,0,0,0,0,0,0,-1,1945,1779,0,0
728,-755,0,0,0,0,0,0,0,0,0,-1,1952,1779,0,0
735,-755,0,0,0,0,0,0,0,0,0,-1,1959,1779,0,0
742,-755,0,0,0,0,0,0,0,0,0,-1,1966,1779,0,0
749,-755,0,0,0,0,0,0,0,0,0,-1,1973,1779,0,0
756,-755,0,0,0,0,0,0,0,0,0,-1,1980,1779,0,0
763,-755,0,0,0,0,0,0,0,0,0,-1,1987,1779,0,0
770,-755,0,0,0,0,0,0,0,0,0,-1,1994,1779,0,0
777,-755,0,0,0,0,0,0,0,0,0,-1,2001,1779,0,0
784,-755,0,0,0,0,0,0,0,0,0,-1,2008,1779,0,0
791,-755,0,0,0,0,0,0,0,0,0,-1,2015,1779,0,0
798,-755,0,0,0,0,0,0,0,0,0,-1,2022,1779,0,0
805,-755,0,0,0,0,0,0,0,0,0,-1,2029,1779,0,0
812,-755,0,0,0,0,0,0,0,0,0,-1,2036,1779,0,0
-700,-762,0,0,0,0,0,0,0,0,0,-1,524,1786,0,0
-693,-762,0,0,0,0,0,0,0,0,0,-1,531,1786,0,0
-686,-762,0,0,0,0,0,0,0,0,0,-1,538,1786,0,0
-679,-762,0,0,0,0,0,0,0,0,0,-1,545,1786,0,0
-672,-762,0,0,0,0,0,0,0,0,0,-1,552,1786,0,0
-665,-762,0,0,0,0,0,0,0,0,0,-1,559,1786,0,0
-658,-762,0,0,0,0,0,0,0,0,0,-1,566,1786,0,0
-651,-762,0,0,0,0,0,0,0,0,0,-1,573,1786,0,0
-644,-762,0,0,0,0,0,0,0,0,0,-1,580,1786,0,0
-637,-762,0,0,0,0,0,0,0,0,0,-1,587,1786,0,0
-630,-762,0,0,0,0,0,0,0,0,0,-1,594,1786,0,0
-623,-762,0,0,0,0,0,0,0,0,0,-1,601,1786,0,0
-616,-762,0,0,0,0,0,0,0,0,0,-1,608,1786,0,0
-609,-762,0,0,0,0,0,0,0,0,0,-1,615,1786,0,0
-602,-762,0,0,0,0,0,0,0,0,0,-1,622,1786,0,0
-595,-762,0,0,0,0,0,0,0,0,0,-1,629,1786,0,0
-588,-762,0,0,0,0,0,0,0,0,0,-1,636,1786,0,0
-581,-762,0,0,0,0,0,0,0,0,0,-1,643,1786,0,0
-574,-762,0,0,0,0,0,0,0,0,0,-1,650,1786,0,0
-567,-762,0,0,0,0,0,0,0,0,0,-1,657,1786,0,0
-560,-762,0,0,0,0,0,0,0,0,0,-1,664,1786,0,0
-553,-762,0,0,0,0,0,0,0,0,0,-1,671,1786,0,0
-546,-762,0,0,0,0,0,0,0,0,0,-1,678,1786,0,0
-539,-762,0,0,0,0,0,0,0,0,0,-1,685,1786,0,0
-532,-762,0,0,0,0,0,0,0,0,0,-1,692,1786,0,0
-525,-762,0,0,0,0,0,0,0,0,0,-1,699,1786,0,0
-518,-762,0,0,0,0,0,0,0,0,0,-1,706,1786,0,0
-511,-762,0,0,0,0,0,0,0,0,0,-1,713,1786,0,0
-504,-762,0,0,0,0,0,0,0,0,0,-1,720,1786,0,0
-497,-762,0,0,0,0,0,0,0,0,0,-1,727,1786,0,0
-490,-762,0,0,0,0,0,0,0,0,0,-1,734,1786,0,0
-483,-762,0,0,0,0,0,0,0,0,0,-1,741,1786,0,0
-476,-762,0,0,0,0,0,0,0,0,0,-1,748,1786,0,0
-469,-762,0,0,0,0,0,0,0,0,0,-1,755,1786,0,0
-462,-762,0,0,0,0,0,0,0,0,0,-1,762,1786,0,0
-455,-762,0,0,0,0,0,0,0,0,0,-1,769,1786,0,0
-448,-762,0,0,0,0,0,0,0,0,0,-1,776,1786,0,0
-441,-762,0,0,0,0,0,0,0,0,0,-1,783,1786,0,0
-434,-762,0,0,0,0,0,0,0,0,0,-1,790,1786,0,0
-427,-762,0,0,0,0,0,0,0,0,0,-1,797,1786,0,0
-420,-762,0,0,0,0,0,0,0,0,0,-1,804,1786,0,0
-413,-762,0,0,0,0,0,0,0,0,0,-1,811,1786,0,0
-406,-762,0,0,0,0,0,0,0,0,0,-1,818,1786,0,0
-399,-762,0,0,0,0,0,0,0,0,0,-1,825,1786,0,0
-392,-762,0,0,0,0,0,0,0,0,0,-1,832,1786,0,0
-385,-762,0,0,0,0,0,0,0,0,0,-1,839,1786,0,0
-378,-762,0,0,0,0,0,0,0,0,0,-1,846,1786,0,0
-371,-762,0,0,0,0,0,0,0,0,0,-1,853,1786,0,0
-364,-762,0,0,0,0,0,0,0,0,0,-1,860,1786,0,0
-357,-762,0,0,0,0,0,0,0,0,0,-1,867,1786,0,0
-350,-762,0,0,0,0,0,0,0,0,0,-1,874,1786,0,0
-343,-762,0,0,0,0,0,0,0,0,0,-1,881,1786,0,0
-336,-762,0,0,0,0,0,0,0,0,0,-1,888,1786,0,0
-329,-762,0,0,0,0,0,0,0,0,0,-1,895,1786,0,0
-322,-762,0,0,0,0,0,0,0,0,0,-1,902,1786,0,0
-315,-762,0,0,0,0,0,0,0,0,0,-1,909,1786,0,0
-308,-762,0,0,0,0,0,0,0,0,0,-1,916,1786,0,0
-301,-762,0,0,0,0,0,0,0,0,0,-1,923,1786,0,0
-294,-762,0,0,0,0,0,0,0,0,0,-1,930,1786,0,0
-287,-762,0,0,0,0,0,0,0,0,0,-1,937,1786,0,0
-280,-762,0,0,0,0,0,0,0,0,0,-1,944,1786,0,0
-273,-762,0,0,0,0,0,0,0,0,0,-1,951,1786,0,0
-266,-762,0,0,0,0,0,0,0,0,0,-1,958,1786,0,0
-259,-762,0,0,0,0,0,0,0,0,0,-1,965,1786,0,0
-252,-762,0,0,0,0,0,0,0,0,0,-1,972,1786,0,0
-245,-762,0,0,0,0,0,0,0,0,0,-1,979,1786,0,0
-238,-762,0,0,0,0,0,0,0,0,0,-1,986,1786,0,0
-231,-762,0,0,0,0,0,0,0,0,0,-1,993,1786,0,0
-224,-762,0,0,0,0,0,0,0,0,0,-1,1000,1786,0,0
-217,-762,0,0,0,0,0,0,0,0,0,-1,1007,1786,0,0
-210,-762,0,0,0,0,0,0,0,0,0,-1,1014,1786,0,0
-203,-762,0,0,0,0,0,0,0,0,0,-1,1021,1786,0,0
-196,-762,0,0,0,0,0,0,0,0,0,-1,1028,1786,0,0
-189,-762,0,0,0,0,0,0,0,0,0,-1,1035,1786,0,0
-182,-762,4.44226,13.2462,0,0,0,0,0,0,0,-1,1042,1786,4.44227,-13.2462
-175,-762,4.3219,18.3975,0,0,0,0,0,0,0,-1,1049,1786,4.32192,-18.3974
-168,-762,-2.08618,13.0768,0,0,0,0,0,0,0,-1,1056,1786,-2.08623,-13.0768
-161,-762,-3.29077,11.9508,0,0,0,0,0,0,0,-1,1063,1786,-3.29076,-11.9508
-154,-762,-4.55823,11.1176,0,0,0,0,0,0,0,-1,1070,1786,-4.55828,-11.1175
-147,-762,-6.52454,9.41418,0,0,0,0,0,0,0,-1,1077,1786,-6.52458,-9.41419
-140,-762,4.99792,5.28589,0,0,0,0,0,0,0,-1,1084,1786,4.99793,-5.28587
-133,-762,0.689819,19.2172,0,0,0,0,0,0,0,-1,1091,1786,0.689867,-19.2171
-126,-762,1.48743,19.9288,0,0,0,0,0,0,0,-1,1098,1786,1.48738,-19.9289
-119,-762,2.65637,20.208,0,0,0,0,0,0,0,-1,1105,1786,2.65632,-20.208
-112,-762,6.84705,25.5554,0,0,0,0,0,0,0,-1,1112,1786,6.84706,-25.5554
-105,-762,5.57947,21.618,0,0,0,0,0,0,0,-1,1119,1786,5.57948,-21.618
-98,-762,5.0636,17.9901,0,0,0,0,0,0,0,-1,1126,1786,5.06361,-17.9901
-91,-762,4.54773,14.3622,0,0,0,0,0,0,0,-1,1133,1786,4.54774,-14.3622
-84,-762,3.96375,10.4547,0,0,0,0,0,0,0,-1,1140,1786,3.96371,-10.4548
-77,-762,0.305054,8.49365,0,0,0,0,0,0,0,-1,1147,1786,0.305008,-8.49362
-70,-762,0.183716,6.74622,0,0,0,0,0,0,0,-1,1154,1786,0.183696,-6.74621
-63,-762,-0.883057,9.08813,0,0,0,0,0,0,0,-1,1161,1786,-0.88311,-9.08808
-56,-762,-0.578979,5.10254,0,0,0,0,0,0,0,-1,1168,1786,-0.578951,-5.10249
-49,-762,-2.04541,3.66321,0,0,0,0,0,0,0,-1,1175,1786,-2.0454,-3.66319
-42,-762,-2.23462,3.474,0,0,0,0,0,0,0,-1,1182,1786,-2.23459,-3.47399
-35,-762,-3.28992,1.68164,0,0,0,0,0,0,0,-1,1189,1786,-3.28998,-1.68164
-28,-762,-3.75378,1.37769,0,0,0,0,0,0,0,-1,1196,1786,-3.75373,-1.37767
-21,-762,9.91016,43.1476,0,0,0,0,0,0,0,-1,1203,1786,9.91015,-43.1475
-14,-762,9.08264,43.5652,0,0,0,0,0,0,0,-1,1210,1786,9.08261,-43.5652
-7,-762,8.73889,43.7784,-0.00157985,-0.00516928,0.00290994,4.43221e-05,-0.00679345,0.509074,0.00454381,0.0493698,1217,1786,8.73886,-43.7784
0,-762,8.79883,43.8691,0.000783689,-0.000166723,0.00112769,0.00153221,-0.000915247,0.585991,0.00142793,0.0336885,1224,1786,8.79882,-43.8691
7,-762,8.89099,43.9064,0.00323411,0.0045743,-0.000478186,0.00472743,0.00308098,-1.2609,0.00277095,0.01965,1231,1786,8.89104,-43.9064
14,-762,8.85645,44.196,0.00547673,0.00900772,-0.00173824,0.00971982,0.00476464,-1.18199,0.0056121,0.0332867,1238,1786,8.85647,-44.1961
21,-762,6.98889,44.1605,0,0,0,0,0,0,0,-1,1245,1786,6.98888,-44.1605
28,-762,7.02515,44.5571,0,0,0,0,0,0,0,-1,1252,1786,7.0251,-44.5571
35,-762,7.75049,44.451,0,0,0,0,0,0,0,-1,1259,1786,7.75051,-44.4511
42,-762,8.72266,44.3185,0.010866,0.0179105,-0.00439258,0.0200186,0.00875787,-1.12334,0.0115878,0.0471096,1266,1786,8.72261,-44.3185
49,-762,8.66614,44.3175,0.0101108,0.0183149,-0.00470988,0.0204587,0.00796707,-1.14366,0.0119077,0.0382869,1273,1786,8.66609,-44.3176
56,-762,8.61084,44.3286,0.00914007,0.0177216,-0.005243,0.0202058,0.0066559,-1.12832,0.01189,0.0288607,1280,1786,8.61085,-44.3286
63,-762,8.52454,44.3398,0.00747541,0.0171963,-0.00595339,0.0200214,0.00465037,-1.12773,0.0120991,0.0264882,1287,1786,8.5245,-44.3398
70,-762,8.50806,44.3027,0.00578295,0.0152897,-0.00572167,0.0179749,0.00309777,-1.13201,0.0110958,0.0275725,1294,1786,8.50809,-44.3028
77,-762,8.42859,44.1841,0.00295984,0.0136039,-0.00547925,0.0159203,0.000643398,-1.17082,0.0104057,0.0341774,1301,1786,8.42863,-44.184
84,-762,8.49146,44.2778,-0.000244157,0.0121173,-0.00582495,0.0144296,-0.00255646,-1.19291,0.0105754,0.0403123,1308,1786,8.49144,-44.2778
91,-762,8.52197,44.3678,-0.00292538,0.0106973,-0.0060853,0.0130197,-0.00524778,-1.20622,0.0108603,0.0477621,1315,1786,8.52191,-44.3678
98,-762,8.42065,44.3761,-0.00542363,0.00947165,-0.00630847,0.0117843,-0.00773632,-1.21941,0.0113508,0.0477551,1322,1786,8.42063,-44.3761
105,-762,8.396,44.3,-0.00773014,0.00819573,-0.00613646,0.0102859,-0.00982029,-1.24251,0.0116093,0.0452459,1329,1786,8.39599,-44.3001
112,-762,8.27966,44.1095,-0.00964786,0.00731932,-0.00563562,0.0090206,-0.0113491,-1.27762,0.0117861,0.0461923,1336,1786,8.27972,-44.1095
119,-762,8.02014,43.8883,0,0,0,0,0,0,0,-1,1343,1786,8.02016,-43.8883
126,-762,8.19043,43.9764,0,0,0,0,0,0,0,-1,1350,1786,8.19038,-43.9765
133,-762,7.97949,43.9397,0,0,0,0,0,0,0,-1,1357,1786,7.97949,-43.9397
140,-762,7.99902,43.8611,-0.0138663,-0.00082625,-0.000112651,-0.000825277,-0.0138672,-1.56216,0.00898238,0.0473973,1364,1786,7.99903,-43.8611
147,-762,8.14746,43.7266,-0.0129778,-0.00292599,0.000898378,-0.00284633,-0.0130575,1.48236,0.00792839,0.0462755,1371,1786,8.14742,-43.7265
154,-762,7.90857,43.8336,0,0,0,0,0,0,0,-1,1378,1786,7.90857,-43.8336
161,-762,8.65051,34.8102,0,0,0,0,0,0,0,-1,1385,1786,8.65054,-34.8101
168,-762,8.19287,0.880615,0,0,0,0,0,0,0,-1,1392,1786,8.19291,-0.880603
175,-762,8.33997,1.95947,0,0,0,0,0,0,0,-1,1399,1786,8.33997,-1.95942
182,-762,8.28418,3.56482,0,0,0,0,0,0,0,-1,1406,1786,8.28415,-3.56485
189,-762,8.21179,5.23389,0,0,0,0,0,0,0,-1,1413,1786,8.21183,-5.23383
196,-762,8.05969,6.95483,0,0,0,0,0,0,0,-1,1420,1786,8.05972,-6.9548
203,-762,24.0077,7.10425,0,0,0,0,0,0,0,-1,1427,1786,24.0077,-7.10426
210,-762,23.8073,7.6499,0,0,0,0,0,0,0,-1,1434,1786,23.8073,-7.64987
217,-762,23.3193,8.24426,0,0,0,0,0,0,0,-1,1441,1786,23.3194,-8.2442
224,-762,2.65149,20.6106,0,0,0,0,0,0,0,-1,1448,1786,2.65153,-20.6106
231,-762,5.46655,23.521,0,0,0,0,0,0,0,-1,1455,1786,5.46653,-23.521
238,-762,5.35632,29.7203,0,0,0,0,0,0,0,-1,1462,1786,5.35629,-29.7203
245,-762,5.84509,28.6954,0,0,0,0,0,0,0,-1,1469,1786,5.84509,-28.6954
252,-762,5.82837,27.7246,0,0,0,0,0,0,0,-1,1476,1786,5.82839,-27.7247
259,-762,10.7311,18.3031,0,0,0,0,0,0,0,-1,1483,1786,10.7311,-18.3031
266,-762,16.451,7.67773,0,0,0,0,0,0,0,-1,1490,1786,16.4511,-7.67773
273,-762,15.287,7.5304,0,0,0,0,0,0,0,-1,1497,1786,15.2869,-7.53044
280,-762,14.1501,7.38379,0,0,0,0,0,0,0,-1,1504,1786,14.1502,-7.38376
287,-762,12.6891,7.99133,0,0,0,0,0,0,0,-1,1511,1786,12.6891,-7.99135
294,-762,12.6959,8.30371,0,0,0,0,0,0,0,-1,1518,1786,12.6959,-8.30368
301,-762,11.4222,8.84143,0,0,0,0,0,0,0,-1,1525,1786,11.4223,-8.84149
308,-762,0,0,0,0,0,0,0,0,0,-1,1532,1786,0,0
315,-762,0,0,0,0,0,0,0,0,0,-1,1539,1786,0,0
322,-762,0,0,0,0,0,0,0,0,0,-1,1546,1786,0,0
329,-762,0,0,0,0,0,0,0,0,0,-1,1553,1786,0,0
336,-762,0,0,0,0,0,0,0,0,0,-1,1560,1786,0,0
343,-762,0,0,0,0,0,0,0,0,0,-1,1567,1786,0,0
350,-762,0,0,0,0,0,0,0,0,0,-1,1574,1786,0,0
357,-762,0,0,0,0,0,0,0,0,0,-1,1581,1786,0,0
364,-762,0,0,0,0,0,0,0,0,0,-1,1588,1786,0,0
371,-762,0,0,0,0,0,0,0,0,0,-1,1595,1786,0,0
378,-762,0,0,0,0,0,0,0,0,0,-1,1602,1786,0,0
385,-762,0,0,0,0,0,0,0,0,0,-1,1609,1786,0,0
392,-762,0,0,0,0,0,0,0,0,0,-1,1616,1786,0,0
399,-762,0,0,0,0,0,0,0,0,0,-1,1623,1786,0,0
406,-762,0,0,0,0,0,0,0,0,0,-1,1630,1786,0,0
413,-762,0,0,0,0,0,0,0,0,0,-1,1637,1786,0,0
420,-762,0,0,0,0,0,0,0,0,0,-1,1644,1786,0,0
427,-762,0,0,0,0,0,0,0,0,0,-1,1651,1786,0,0
434,-762,0,0,0,0,0,0,0,0,0,-1,1658,1786,0,0
441,-762,0,0,0,0,0,0,0,0,0,-1,1665,1786,0,0
448,-762,0,0,0,0,0,0,0,0,0,-1,1672,1786,0,0
455,-762,0,0,0,0,0,0,0,0,0,-1,1679,1786,0,0
462,-762,0,0,0,0,0,0,0,0,0,-1,1686,1786,0,0
469,-762,0,0,0,0,0,0,0,0,0,-1,1693,1786,0,0
476,-762,0,0,0,0,0,0,0,0,0,-1,1700,1786,0,0
483,-762,0,0,0,0,0,0,0,0,0,-1,1707,1786,0,0
490,-762,0,0,0,0,0,0,0,0,0,-1,1714,1786,0,0
497,-762,0,0,0,0,0,0,0,0,0,-1,1721,1786,0,0
504,-762,0,0,0,0,0,0,0,0,0,-1,1728,1786,0,0
511,-762,0,0,0,0,0,0,0,0,0,-1,1735,1786,0,0
518,-762,0,0,0,0,0,0,0,0,0,-1,1742,1786,0,0
525,-762,0,0,0,0,0,0,0,0,0,-1,1749,1786,0,0
532,-762,0,0,0,0,0,0,0,0,0,-1,1756,1786,0,0
539,-762,0,0,0,0,0,0,0,0,0,-1,1763,1786,0,0
546,-762,0,0,0,0,0,0,0,0,0,-1,1770,1786,0,0
553,-762,0,0,0,0,0,0,0,0,0,-1,1777,1786,0,0
560,-762,0,0,0,0,0,0,0,0,0,-1,1784,1786,0,0
567,-762,0,0,0,0,0,0,0,0,0,-1,1791,1786,0,0
574,-762,0,0,0,0,0,0,0,0,0,-1,1798,1786,0,0
581,-762,0,0,0,0,0,0,0,0,0,-1,1805,1786,0,0
588,-762,0,0,0,0,0,0,0,0,0,-1,1812,1786,0,0
595,-762,0,0,0,0,0,0,0,0,0,-1,1819,1786,0,0
602,-762,0,0,0,0,0,0,0,0,0,-1,1826,1786,0,0
609,-762,0,0,0,0,0,0,0,0,0,-1,1833,1786,0,0
616,-762,0,0,0,0,0,0,0,0,0,-1,1840,1786,0,0
623,-762,0,0,0,0,0,0,0,0,0,-1,1847,1786,0,0
630,-762,0,0,0,0,0,0,0,0,0,-1,1854,1786,0,0
637,-762,0,0,0,0,0,0,0,0,0,-1,1861,1786,0,0
644,-762,0,0,0,0,0,0,0,0,0,-1,1868,1786,0,0
651,-762,0,0,0,0,0,0,0,0,0,-1,1875,1786,0,0
658,-762,0,0,0,0,0,0,0,0,0,-1,1882,1786,0,0
665,-762,0,0,0,0,0,0,0,0,0,-1,1889,1786,0,0
672,-762,0,0,0,0,0,0,0,0,0,-1,1896,1786,0,0
679,-762,0,0,0,0,0,0,0,0,0,-1,1903,1786,0,0
686,-762,0,0,0,0,0,0,0,0,0,-1,1910,1786,0,0
693,-762,0,0,0,0,0,0,0,0,0,-1,1917,1786,0,0
700,-762,0,0,0,0,0,0,0,0,0,-1,1924,1786,0,0
707,-762,0,0,0,0,0,0,0,0,0,-1,1931,1786,0,0
714,-762,0,0,0,0,0,0,0,0,0,-1,1938,1786,0,0
721,-762,0,0,0,0,0,0,0,0,0,-1,1945,1786,0,0
728,-762,0,0,0,0,0,0,0,0,0,-1,1952,1786,0,0
735,-762,0,0,0,0,0,0,0,0,0,-1,1959,1786,0,0
742,-762,0,0,0,0,0,0,0,0,0,-1,1966,1786,0,0
749,-762,0,0,0,0,0,0,0,0,0,-1,1973,1786,0,0
756,-762,0,0,0,0,0,0,0,0,0,-1,1980,1786,0,0
763,-762,0,0,0,0,0,0,0,0,0,-1,1987,1786,0,0
770,-762,0,0,0,0,0,0,0,0,0,-1,1994,1786,0,0
777,-762,0,0,0,0,0,0,0,0,0,-1,2001,1786,0,0
784,-762,0,0,0,0,0,0,0,0,0,-1,2008,1786,0,0
791,-762,0,0,0,0,0,0,0,0,0,-1,2015,1786,0,0
798,-762,0,0,0,0,0,0,0,0,0,-1,2022,1786,0,0
805,-762,0,0,0,0,0,0,0,0,0,-1,2029,1786,0,0
812,-762,0,0,0,0,0,0,0,0,0,-1,2036,1786,0,0
-700,-769,0,0,0,0,0,0,0,0,0,-1,524,1793,0,0
-693,-769,0,0,0,0,0,0,0,0,0,-1,531,1793,0,0
-686,-769,0,0,0,0,0,0,0,0,0,-1,538,1793,0,0
-679,-769,0,0,0,0,0,0,0,0,0,-1,545,1793,0,0
-672,-769,0,0,0,0,0,0,0,0,0,-1,552,1793,0,0
-665,-769,0,0,0,0,0,0,0,0,0,-1,559,1793,0,0
-658,-769,0,0,0,0,0,0,0,0,0,-1,566,1793,0,0
-651,-769,0,0,0,0,0,0,0,0,0,-1,573,1793,0,0
-644,-769,0,0,0,0,0,0,0,0,0,-1,580,1793,0,0
-637,-769,0,0,0,0,0,0,0,0,0,-1,587,1793,0,0
-630,-769,0,0,0,0,0,0,0,0,0,-1,594,1793,0,0
-623,-769,0,0,0,0,0,0,0,0,0,-1,601,1793,0,0
-616,-769,0,0,0,0,0,0,0,0,0,-1,608,1793,0,0
-609,-769,0,0,0,0,0,0,0,0,0,-1,615,1793,0,0
-602,-769,0,0,0,0,0,0,0,0,0,-1,622,1793,0,0
-595,-769,0,0,0,0,0,0,0,0,0,-1,629,1793,0,0
-588,-769,0,0,0,0,0,0,0,0,0,-1,636,1793,0,0
-581,-769,0,0,0,0,0,0,0,0,0,-1,643,1793,0,0
-574,-769,0,0,0,0,0,0,0,0,0,-1,650,1793,0,0
-567,-769,0,0,0,0,0,0,0,0,0,-1,657,1793,0,0
-560,-769,0,0,0,0,0,0,0,0,0,-1,664,1793,0,0
-553,-769,0,0,0,0,0,0,0,0,0,-1,671,1793,0,0
-546,-769,0,0,0,0,0,0,0,0,0,-1,678,1793,0,0
-539,-769,0,0,0,0,0,0,0,0,0,-1,685,1793,0,0
-532,-769,0,0,0,0,0,0,0,0,0,-1,692,1793,0,0
-525,-769,0,0,0,0,0,0,0,0,0,-1,699,1793,0,0
-518,-769,0,0,0,0,0,0,0,0,0,-1,706,1793,0,0
-511,-769,0,0,0,0,0,0,0,0,0,-1,713,1793,0,0
-504,-769,0,0,0,0,0,0,0,0,0,-1,720,1793,0,0
-497,-769,0,0,0,0,0,0,0,0,0,-1,727,1793,0,0
-490,-769,0,0,0,0,0,0,0,0,0,-1,734,1793,0,0
-483,-769,0,0,0,0,0,0,0,0,0,-1,741,1793,0,0
-476,-769,0,0,0,0,0,0,0,0,0,-1,748,1793,0,0
-469,-769,0,0,0,0,0,0,0,0,0,-1,755,1793,0,0
-462,-769,0,0,0,0,0,0,0,0,0,-1,762,1793,0,0
-455,-769,0,0,0,0,0,0,0,0,0,-1,769,1793,0,0
-448,-769,0,0,0,0,0,0,0,0,0,-1,776,1793,0,0
-441,-769,0,0,0,0,0,0,0,0,0,-1,783,1793,0,0
-434,-769,0,0,0,0,0,0,0,0,0,-1,790,1793,0,0
-427,-769,0,0,0,0,0,0,0,0,0,-1,797,1793,0,0
-420,-769,0,0,0,0,0,0,0,0,0,-1,804,1793,0,0
-413,-769,0,0,0,0,0,0,0,0,0,-1,811,1793,0,0
-406,-769,0,0,0,0,0,0,0,0,0,-1,818,1793,0,0
-399,-769,0,0,0,0,0,0,0,0,0,-1,825,1793,0,0
-392,-769,0,0,0,0,0,0,0,0,0,-1,832,1793,0,0
-385,-769,0,0,0,0,0,0,0,0,0,-1,839,1793,0,0
-378,-769,0,0,0,0,0,0,0,0,0,-1,846,1793,0,0
-371,-769,0,0,0,0,0,0,0,0,0,-1,853,1793,0,0
-364,-769,0,0,0,0,0,0,0,0,0,-1,860,1793,0,0
-357,-769,0,0,0,0,0,0,0,0,0,-1,867,1793,0,0
-350,-769,0,0,0,0,0,0,0,0,0,-1,874,1793,0,0
-343,-769,0,0,0,0,0,0,0,0,0,-1,881,1793,0,0
-336,-769,0,0,0,0,0,0,0,0,0,-1,888,1793,0,0
-329,-769,0,0,0,0,0,0,0,0,0,-1,895,1793,0,0
-322,-769,0,0,0,0,0,0,0,0,0,-1,902,1793,0,0
-315,-769,0,0,0,0,0,0,0,0,0,-1,909,1793,0,0
-308,-769,0,0,0,0,0,0,0,0,0,-1,916,1793,0,0
-301,-769,0,0,0,0,0,0,0,0,0,-1,923,1793,0,0
-294,-769,0,0,0,0,0,0,0,0,0,-1,930,1793,0,0
-287,-769,0,0,0,0,0,0,0,0,0,-1,937,1793,0,0
-280,-769,0,0,0,0,0,0,0,0,0,-1,944,1793,0,0
-273,-769,0,0,0,0,0,0,0,0,0,-1,951,1793,0,0
-266,-769,0,0,0,0,0,0,0,0,0,-1,958,1793,0,0
-259,-769,0,0,0,0,0,0,0,0,0,-1,965,1793,0,0
-252,-769,0,0,0,0,0,0,0,0,0,-1,972,1793,0,0
-245,-769,0,0,0,0,0,0,0,0,0,-1,979,1793,0,0
-238,-769,0,0,0,0,0,0,0,0,0,-1,986,1793,0,0
-231,-769,0,0,0,0,0,0,0,0,0,-1,993,1793,0,0
-224,-769,0,0,0,0,0,0,0,0,0,-1,1000,1793,0,0
-217,-769,0,0,0,0,0,0,0,0,0,-1,1007,1793,0,0
-210,-769,0,0,0,0,0,0,0,0,0,-1,1014,1793,0,0
-203,-769,0,0,0,0,0,0,0,0,0,-1,1021,1793,0,0
-196,-769,0,0,0,0,0,0,0,0,0,-1,1028,1793,0,0
-189,-769,0,0,0,0,0,0,0,0,0,-1,1035,1793,0,0
-182,-769,0,0,0,0,0,0,0,0,0,-1,1042,1793,0,0
-175,-769,0,0,0,0,0,0,0,0,0,-1,1049,1793,0,0
-168,-769,0,0,0,0,0,0,0,0,0,-1,1056,1793,0,0
-161,-769,-3.61145,12.4761,0,0,0,0,0,0,0,-1,1063,1793,-3.6114,-12.476
-154,-769,-0.813232,5.32874,0,0,0,0,0,0,0,-1,1070,1793,-0.813269,-5.32872
-147,-769,4.26587,4.7002,0,0,0,0,0,0,0,-1,1077,1793,4.26593,-4.70022
-140,-769,4.10376,5.28589,0,0,0,0,0,0,0,-1,1084,1793,4.10371,-5.28584
-133,-769,6.422,8.21777,0,0,0,0,0,0,0,-1,1091,1793,6.42198,-8.21773
-126,-769,-0.352295,19.326,0,0,0,0,0,0,0,-1,1098,1793,-0.352235,-19.326
-119,-769,6.01685,16.2577,0,0,0,0,0,0,0,-1,1105,1793,6.01689,-16.2576
-112,-769,5.76416,27.2615,0,0,0,0,0,0,0,-1,1112,1793,5.7642,-27.2615
-105,-769,4.97009,22.8479,0,0,0,0,0,0,0,-1,1119,1793,4.97006,-22.8479
-98,-769,4.69373,18.9142,0,0,0,0,0,0,0,-1,1126,1793,4.69376,-18.9142
-91,-769,4.41748,14.9805,0,0,0,0,0,0,0,-1,1133,1793,4.41746,-14.9805
-84,-769,3.2207,12.4565,0,0,0,0,0,0,0,-1,1140,1793,3.22066,-12.4565
-77,-769,2.48816,8.98486,0,0,0,0,0,0,0,-1,1147,1793,2.48815,-8.98489
-70,-769,1.04944,11.9852,0,0,0,0,0,0,0,-1,1154,1793,1.04947,-11.9852
-63,-769,-2.39709,9.60339,0,0,0,0,0,0,0,-1,1161,1793,-2.39706,-9.6034
-56,-769,-5.84363,7.22156,0,0,0,0,0,0,0,-1,1168,1793,-5.84359,-7.22157
-49,-769,-2.41443,3.95471,0,0,0,0,0,0,0,-1,1175,1793,-2.41446,-3.95471
-42,-769,-3.1991,2.64941,0,0,0,0,0,0,0,-1,1182,1793,-3.19914,-2.64944
-35,-769,-3.50183,1.73389,0,0,0,0,0,0,0,-1,1189,1793,-3.50189,-1.7339
-28,-769,-3.96985,1.14075,0,0,0,0,0,0,0,-1,1196,1793,-3.96985,-1.14078
-21,-769,8.47876,36.2402,0,0,0,0,0,0,0,-1,1203,1793,8.47874,-36.2402
-14,-769,8.63196,43.8213,0,0,0,0,0,0,0,-1,1210,1793,8.6319,-43.8213
-7,-769,8.45911,43.9807,-0.0023845,-0.00798201,0.0034588,-0.000733946,-0.00963256,0.445244,0.00619158,0.0488787,1217,1793,8.45915,-43.9808
0,-769,8.50281,44.0343,0.000649052,-0.00140007,0.000992766,0.00105113,-0.00180216,0.384819,0.00166626,0.0450787,1224,1793,8.50276,-44.0344
7,-769,8.90002,44.0638,0.00384748,0.00475172,-0.00113627,0.00552252,0.00307669,-0.974745,0.00319535,0.0436788,1231,1793,8.90003,-44.0638
14,-769,6.17615,43.2498,0,0,0,0,0,0,0,-1,1238,1793,6.17612,-43.2498
21,-769,6.69153,43.8055,0.00906295,0.0146588,-0.00371352,0.0165104,0.0072113,-1.10825,0.00955768,0.0447385,1245,1793,6.69159,-43.8055
28,-769,7.28137,44.0066,0.0111158,0.0174976,-0.00452899,0.0198469,0.00876653,-1.09228,0.0114845,0.0398302,1252,1793,7.28135,-44.0066
35,-769,7.93164,43.7699,0.0128637,0.019426,-0.00506533,0.02218,0.0101096,-1.0728,0.0128223,0.0420337,1259,1793,7.93169,-43.7699
42,-769,8.60913,43.5807,0.0139501,0.0209965,-0.00565151,0.0241331,0.0108136,-1.06412,0.0139583,0.0447866,1266,1793,8.60908,-43.5806
49,-769,8.92847,43.6478,0.0131566,0.0214916,-0.00600048,0.0246299,0.0100184,-1.08892,0.0143022,0.0436534,1273,1793,8.9285,-43.6478
56,-769,8.56958,43.0576,0,0,0,0,0,0,0,-1,1280,1793,8.56962,-43.0576
63,-769,8.29016,43.8721,0,0,0,0,0,0,0,-1,1287,1793,8.29022,-43.872
70,-769,7.74182,44.3568,0,0,0,0,0,0,0,-1,1294,1793,7.74182,-44.3568
77,-769,8.40247,44.0516,0,0,0,0,0,0,0,-1,1301,1793,8.40247,-44.0517
84,-769,8.6261,44.2529,0.00042398,0.0150946,-0.00784763,0.0185014,-0.00298278,-1.16123,0.0134393,0.0460483,1308,1793,8.62609,-44.2529
91,-769,9.59924,44.0404,-0.00293779,0.0138145,-0.00830385,0.017233,-0.00635629,-1.18026,0.0140936,0.0444797,1315,1793,9.59928,-44.0405
98,-769,8.40796,44.5221,-0.00613308,0.0128193,-0.00866088,0.0161809,-0.00949468,-1.20056,0.0149904,0.0466313,1322,1793,8.40797,-44.5221
105,-769,8.40051,44.2817,0,0,0,0,0,0,0,-1,1329,1793,8.40052,-44.2818
112,-769,8.35754,44.0405,0,0,0,0,0,0,0,-1,1336,1793,8.35749,-44.0405
119,-769,8.06714,45.6566,0,0,0,0,0,0,0,-1,1343,1793,8.06714,-45.6566
126,-769,7.71179,46.3038,0,0,0,0,0,0,0,-1,1350,1793,7.71176,-46.3039
133,-769,7.84521,42.8517,0,0,0,0,0,0,0,-1,1357,1793,7.84521,-42.8516
140,-769,7.98047,43.8921,0,0,0,0,0,0,0,-1,1364,1793,7.98046,-43.8921
147,-769,8.11877,43.698,0,0,0,0,0,0,0,-1,1371,1793,8.11874,-43.698
154,-769,7.76904,34.4832,0,0,0,0,0,0,0,-1,1378,1793,7.7691,-34.4832
161,-769,6.57019,1.53223,0,0,0,0,0,0,0,-1,1385,1793,6.57019,-1.53226
168,-769,8.27637,0.756958,0,0,0,0,0,0,0,-1,1392,1793,8.27639,-0.756944
175,-769,8.47144,2.41174,0,0,0,0,0,0,0,-1,1399,1793,8.47147,-2.4118
182,-769,8.41479,4.05994,0,0,0,0,0,0,0,-1,1406,1793,8.41479,-4.05997
189,-769,8.25049,5.68433,0,0,0,0,0,0,0,-1,1413,1793,8.25054,-5.68428
196,-769,7.97729,7.42847,0,0,0,0,0,0,0,-1,1420,1793,7.9773,-7.42848
203,-769,22.0977,6.73889,0,0,0,0,0,0,0,-1,1427,1793,22.0977,-6.7389
210,-769,22.1115,7.77246,0,0,0,0,0,0,0,-1,1434,1793,22.1115,-7.77248
217,-769,22.4723,8.79102,0,0,0,0,0,0,0,-1,1441,1793,22.4723,-8.79099
224,-769,22.1348,9.35278,0,0,0,0,0,0,0,-1,1448,1793,22.1348,-9.35283
231,-769,3.13318,19.7184,0,0,0,0,0,0,0,-1,1455,1793,3.13323,-19.7184
238,-769,5.74512,18.6597,0,0,0,0,0,0,0,-1,1462,1793,5.74512,-18.6596
245,-769,5.80798,22.87,0,0,0,0,0,0,0,-1,1469,1793,5.80796,-22.87
252,-769,8.39099,20.3199,0,0,0,0,0,0,0,-1,1476,1793,8.39098,-20.3199
259,-769,10.974,17.7698,0,0,0,0,0,0,0,-1,1483,1793,10.974,-17.7698
266,-769,15.8488,7.3905,0,0,0,0,0,0,0,-1,1490,1793,15.8488,-7.39046
273,-769,14.8075,7.56152,0,0,0,0,0,0,0,-1,1497,1793,14.8075,-7.56152
280,-769,13.6519,7.43054,0,0,0,0,0,0,0,-1,1504,1793,13.6518,-7.43058
287,-769,0,0,0,0,0,0,0,0,0,-1,1511,1793,0,0
294,-769,0,0,0,0,0,0,0,0,0,-1,1518,1793,0,0
301,-769,0,0,0,0,0,0,0,0,0,-1,1525,1793,0,0
308,-769,0,0,0,0,0,0,0,0,0,-1,1532,1793,0,0
315,-769,0,0,0,0,0,0,0,0,0,-1,1539,1793,0,0
322,-769,0,0,0,0,0,0,0,0,0,-1,1546,1793,0,0
329,-769,0,0,0,0,0,0,0,0,0,-1,1553,1793,0,0
336,-769,0,0,0,0,0,0,0,0,0,-1,1560,1793,0,0
343,-769,0,0,0,0,0,0,0,0,0,-1,1567,1793,0,0
350,-769,0,0,0,0,0,0,0,0,0,-1,1574,1793,0,0
357,-769,0,0,0,0,0,0,0,0,0,-1,1581,1793,0,0
364,-769,0,0,0,0,0,0,0,0,0,-1,1588,1793,0,0
371,-769,0,0,0,0,0,0,0,0,0,-1,1595,1793,0,0
378,-769,0,0,0,0,0,0,0,0,0,-1,1602,1793,0,0
385,-769,0,0,0,0,0,0,0,0,0,-1,1609,1793,0,0
392,-769,0,0,0,0,0,0,0,0,0,-1,1616,1793,0,0
399,-769,0,0,0,0,0,0,0,0,0,-1,1623,1793,0,0
406,-769,0,0,0,0,0,0,0,0,0,-1,1630,1793,0,0
413,-769,0,0,0,0,0,0,0,0,0,-1,1637,1793,0,0
420,-769,0,0,0,0,0,0,0,0,0,-1,1644,1793,0,0
427,-769,0,0,0,0,0,0,0,0,0,-1,1651,1793,0,0
434,-769,0,0,0,0,0,0,0,0,0,-1,1658,1793,0,0
441,-769,0,0,0,0,0,0,0,0,0,-1,1665,1793,0,0
448,-769,0,0,0,0,0,0,0,0,0,-1,1672,1793,0,0
455,-769,0,0,0,0,0,0,0,0,0,-1,1679,1793,0,0
462,-769,0,0,0,0,0,0,0,0,0,-1,1686,1793,0,0
469,-769,0,0,0,0,0,0,0,0,0,-1,1693,1793,0,0
476,-769,0,0,0,0,0,0,0,0,0,-1,1700,1793,0,0
483,-769,0,0,0,0,0,0,0,0,0,-1,1707,1793,0,0
490,-769,0,0,0,0,0,0,0,0,0,-1,1714,1793,0,0
497,-769,0,0,0,0,0,0,0,0,0,-1,1721,1793,0,0
504,-769,0,0,0,0,0,0,0,0,0,-1,1728,1793,0,0
511,-769,0,0,0,0,0,0,0,0,0,-1,1735,1793,0,0
518,-769,0,0,0,0,0,0,0,0,0,-1,1742,1793,0,0
525,-769,0,0,0,0,0,0,0,0,0,-1,1749,1793,0,0
532,-769,0,0,0,0,0,0,0,0,0,-1,1756,1793,0,0
539,-769,0,0,0,0,0,0,0,0,0,-1,1763,1793,0,0
546,-769,0,0,0,0,0,0,0,0,0,-1,1770,1793,0,0
553,-769,0,0,0,0,0,0,0,0,0,-1,1777,1793,0,0
560,-769,0,0,0,0,0,0,0,0,0,-1,1784,1793,0,0
567,-769,0,0,0,0,0,0,0,0,0,-1,1791,1793,0,0
574,-769,0,0,0,0,0,0,0,0,0,-1,1798,1793,0,0
581,-769,0,0,0,0,0,0,0,0,0,-1,1805,1793,0,0
588,-769,0,0,0,0,0,0,0,0,0,-1,1812,1793,0,0
595,-769,0,0,0,0,0,0,0,0,0,-1,1819,1793,0,0
602,-769,0,0,0,0,0,0,0,0,0,-1,1826,1793,0,0
609,-769,0,0,0,0,0,0,0,0,0,-1,1833,1793,0,0
616,-769,0,0,0,0,0,0,0,0,0,-1,1840,1793,0,0
623,-769,0,0,0,0,0,0,0,0,0,-1,1847,1793,0,0
630,-769,0,0,0,0,0,0,0,0,0,-1,1854,1793,0,0
637,-769,0,0,0,0,0,0,0,0,0,-1,1861,1793,0,0
644,-769,0,0,0,0,0,0,0,0,0,-1,1868,1793,0,0
651,-769,0,0,0,0,0,0,0,0,0,-1,1875,1793,0,0
658,-769,0,0,0,0,0,0,0,0,0,-1,1882,1793,0,0
665,-769,0,0,0,0,0,0,0,0,0,-1,1889,1793,0,0
672,-769,0,0,0,0,0,0,0,0,0,-1,1896,1793,0,0
679,-769,0,0,0,0,0,0,0,0,0,-1,1903,1793,0,0
686,-769,0,0,0,0,0,0,0,0,0,-1,1910,1793,0,0
693,-769,0,0,0,0,0,0,0,0,0,-1,1917,1793,0,0
700,-769,0,0,0,0,0,0,0,0,0,-1,1924,1793,0,0
707,-769,0,0,0,0,0,0,0,0,0,-1,1931,1793,0,0
714,-769,0,0,0,0,0,0,0,0,0,-1,1938,1793,0,0
721,-769,0,0,0,0,0,0,0,0,0,-1,1945,1793,0,0
728,-769,0,0,0,0,0,0,0,0,0,-1,1952,1793,0,0
735,-769,0,0,0,0,0,0,0,0,0,-1,1959,1793,0,0
742,-769,0,0,0,0,0,0,0,0,0,-1,1966,1793,0,0
749,-769,0,0,0,0,0,0,0,0,0,-1,1973,1793,0,0
756,-769,0,0,0,0,0,0,0,0,0,-1,1980,1793,0,0
763,-769,0,0,0,0,0,0,0,0,0,-1,1987,1793,0,0
770,-769,0,0,0,0,0,0,0,0,0,-1,1994,1793,0,0
777,-769,0,0,0,0,0,0,0,0,0,-1,2001,1793,0,0
784,-769,0,0,0,0,0,0,0,0,0,-1,2008,1793,0,0
791,-769,0,0,0,0,0,0,0,0,0,-1,2015,1793,0,0
798,-769,0,0,0,0,0,0,0,0,0,-1,2022,1793,0,0
805,-769,0,0,0,0,0,0,0,0,0,-1,2029,1793,0,0
812,-769,0,0,0,0,0,0,0,0,0,-1,2036,1793,0,0
-700,-776,0,0,0,0,0,0,0,0,0,-1,524,1800,0,0
-693,-776,0,0,0,0,0,0,0,0,0,-1,531,1800,0,0
-686,-776,0,0,0,0,0,0,0,0,0,-1,538,1800,0,0
-679,-776,0,0,0,0,0,0,0,0,0,-1,545,1800,0,0
-672,-776,0,0,0,0,0,0,0,0,0,-1,552,1800,0,0
-665,-776,0,0,0,0,0,0,0,0,0,-1,559,1800,0,0
-658,-776,0,0,0,0,0,0,0,0,0,-1,566,1800,0,0
-651,-776,0,0,0,0,0,0,0,0,0,-1,573,1800,0,0
-644,-776,0,0,0,0,0,0,0,0,0,-1,580,1800,0,0
-637,-776,0,0,0,0,0,0,0,0,0,-1,587,1800,0,0
-630,-776,0,0,0,0,0,0,0,0,0,-1,594,1800,0,0
-623,-776,0,0,0,0,0,0,0,0,0,-1,601,1800,0,0
-616,-776,0,0,0,0,0,0,0,0,0,-1,608,1800,0,0
-609,-776,0,0,0,0,0,0,0,0,0,-1,615,1800,0,0
-602,-776,0,0,0,0,0,0,0,0,0,-1,622,1800,0,0
-595,-776,0,0,0,0,0,0,0,0,0,-1,629,1800,0,0
-588,-776,0,0,0,0,0,0,0,0,0,-1,636,1800,0,0
-581,-776,0,0,0,0,0,0,0,0,0,-1,643,1800,0,0
-574,-776,0,0,0,0,0,0,0,0,0,-1,650,1800,0,0
-567,-776,0,0,0,0,0,0,0,0,0,-1,657,1800,0,0
-560,-776,0,0,0,0,0,0,0,0,0,-1,664,1800,0,0
-553,-776,0,0,0,0,0,0,0,0,0,-1,671,1800,0,0
-546,-776,0,0,0,0,0,0,0,0,0,-1,678,1800,0,0
-539,-776,0,0,0,0,0,0,0,0,0,-1,685,1800,0,0
-532,-776,0,0,0,0,0,0,0,0,0,-1,692,1800,0,0
-525,-776,0,0,0,0,0,0,0,0,0,-1,699,1800,0,0
-518,-776,0,0,0,0,0,0,0,0,0,-1,706,1800,0,0
-511,-776,0,0,0,0,0,0,0,0,0,-1,713,1800,0,0
-504,-776,0,0,0,0,0,0,0,0,0,-1,720,1800,0,0
-497,-776,0,0,0,0,0,0,0,0,0,-1,727,1800,0,0
-490,-776,0,0,0,0,0,0,0,0,0,-1,734,1800,0,0
-483,-776,0,0,0,0,0,0,0,0,0,-1,741,1800,0,0
-476,-776,0,0,0,0,0,0,0,0,0,-1,748,1800,0,0
-469,-776,0,0,0,0,0,0,0,0,0,-1,755,1800,0,0
-462,-776,0,0,0,0,0,0,0,0,0,-1,762,1800,0,0
-455,-776,0,0,0,0,0,0,0,0,0,-1,769,1800,0,0
-448,-776,0,0,0,0,0,0,0,0,0,-1,776,1800,0,0
-441,-776,0,0,0,0,0,0,0,0,0,-1,783,1800,0,0
-434,-776,0,0,0,0,0,0,0,0,0,-1,790,1800,0,0
-427,-776,0,0,0,0,0,0,0,0,0,-1,797,1800,0,0
-420,-776,0,0,0,0,0,0,0,0,0,-1,804,1800,0,0
-413,-776,0,0,0,0,0,0,0,0,0,-1,811,1800,0,0
-406,-776,0,0,0,0,0,0,0,0,0,-1,818,1800,0,0
-399,-776,0,0,0,0,0,0,0,0,0,-1,825,1800,0,0
-392,-776,0,0,0,0,0,0,0,0,0,-1,832,1800,0,0
-385,-776,0,0,0,0,0,0,0,0,0,-1,839,1800,0,0
-378,-776,0,0,0,0,0,0,0,0,0,-1,846,1800,0,0
-371,-776,0,0,0,0,0,0,0,0,0,-1,853,1800,0,0
-364,-776,0,0,0,0,0,0,0,0,0,-1,860,1800,0,0
-357,-776,0,0,0,0,0,0,0,0,0,-1,867,1800,0,0
-350,-776,0,0,0,0,0,0,0,0,0,-1,874,1800,0,0
-343,-776,0,0,0,0,0,0,0,0,0,-1,881,1800,0,0
-336,-776,0,0,0,0,0,0,0,0,0,-1,888,1800,0,0
-329,-776,0,0,0,0,0,0,0,0,0,-1,895,1800,0,0
-322,-776,0,0,0,0,0,0,0,0,0,-1,902,1800,0,0
-315,-776,0,0,0,0,0,0,0,0,0,-1,909,1800,0,0
-308,-776,0,0,0,0,0,0,0,0,0,-1,916,1800,0,0
-301,-776,0,0,0,0,0,0,0,0,0,-1,923,1800,0,0
-294,-776,0,0,0,0,0,0,0,0,0,-1,930,1800,0,0
-287,-776,0,0,0,0,0,0,0,0,0,-1,937,1800,0,0
-280,-776,0,0,0,0,0,0,0,0,0,-1,944,1800,0,0
-273,-776,0,0,0,0,0,0,0,0,0,-1,951,1800,0,0
-266,-776,0,0,0,0,0,0,0,0,0,-1,958,1800,0,0
-259,-776,0,0,0,0,0,0,0,0,0,-1,965,1800,0,0
-252,-776,0,0,0,0,0,0,0,0,0,-1,972,1800,0,0
-245,-776,0,0,0,0,0,0,0,0,0,-1,979,1800,0,0
-238,-776,0,0,0,0,0,0,0,0,0,-1,986,1800,0,0
-231,-776,0,0,0,0,0,0,0,0,0,-1,993,1800,0,0
-224,-776,0,0,0,0,0,0,0,0,0,-1,1000,1800,0,0
-217,-776,0,0,0,0,0,0,0,0,0,-1,1007,1800,0,0
-210,-776,0,0,0,0,0,0,0,0,0,-1,1014,1800,0,0
-203,-776,0,0,0,0,0,0,0,0,0,-1,1021,1800,0,0
-196,-776,0,0,0,0,0,0,0,0,0,-1,1028,1800,0,0
-189,-776,0,0,0,0,0,0,0,0,0,-1,1035,1800,0,0
-182,-776,0,0,0,0,0,0,0,0,0,-1,1042,1800,0,0
-175,-776,0,0,0,0,0,0,0,0,0,-1,1049,1800,0,0
-168,-776,0,0,0,0,0,0,0,0,0,-1,1056,1800,0,0
-161,-776,0,0,0,0,0,0,0,0,0,-1,1063,1800,0,0
-154,-776,0,0,0,0,0,0,0,0,0,-1,1070,1800,0,0
-147,-776,0,0,0,0,0,0,0,0,0,-1,1077,1800,0,0
-140,-776,2.98499,5.20911,0,0,0,0,0,0,0,-1,1084,1800,2.98493,-5.2091
-133,-776,6.72363,9.35828,0,0,0,0,0,0,0,-1,1091,1800,6.72358,-9.35824
-126,-776,6.55029,13.7832,0,0,0,0,0,0,0,-1,1098,1800,6.55029,-13.7832
-119,-776,5.72107,13.7787,0,0,0,0,0,0,0,-1,1105,1800,5.72106,-13.7787
-112,-776,6.84998,20.4421,0,0,0,0,0,0,0,-1,1112,1800,6.84993,-20.4421
-105,-776,4.46863,24.6742,0,0,0,0,0,0,0,-1,1119,1800,4.46868,-24.6742
-98,-776,4.31616,19.7659,0,0,0,0,0,0,0,-1,1126,1800,4.31619,-19.7659
-91,-776,3.30225,18.134,0,0,0,0,0,0,0,-1,1133,1800,3.30222,-18.134
-84,-776,2.67932,14.3162,0,0,0,0,0,0,0,-1,1140,1800,2.67926,-14.3161
-77,-776,0.580078,11.1272,0,0,0,0,0,0,0,-1,1147,1800,0.58002,-11.1272
-70,-776,-0.562866,12.3163,0,0,0,0,0,0,0,-1,1154,1800,-0.562897,-12.3163
-63,-776,-3.96106,9.97656,0,0,0,0,0,0,0,-1,1161,1800,-3.961,-9.97654
-56,-776,-7.35913,7.63672,0,0,0,0,0,0,0,-1,1168,1800,-7.3591,-7.63676
-49,-776,-7.62952,3.1908,0,0,0,0,0,0,0,-1,1175,1800,-7.62955,-3.19076
-42,-776,-3.41272,3.0249,0,0,0,0,0,0,0,-1,1182,1800,-3.41269,-3.02488
-35,-776,-3.71753,1.63635,0,0,0,0,0,0,0,-1,1189,1800,-3.71755,-1.63631
-28,-776,-4.03979,0.716064,0,0,0,0,0,0,0,-1,1196,1800,-4.03977,-0.716055
-21,-776,8.32678,44.1613,0,0,0,0,0,0,0,-1,1203,1800,8.32676,-44.1612
-14,-776,8.28638,44.2256,-0.00576352,-0.0191594,0.00748771,-0.00241517,-0.0225078,0.420507,0.0142684,0.0462631,1210,1800,8.28636,-44.2256
-7,-776,8.04272,44.2179,-0.00324362,-0.0114147,0.00401513,-0.0016009,-0.0130574,0.388354,0.0082234,0.0438512,1217,1800,8.04275,-44.2178
0,-776,7.91272,44.3531,0.000521231,-0.00304606,0.000698404,0.00065309,-0.00317792,0.186605,0.00236654,0.0419439,1224,1800,7.91272,-44.3531
7,-776,7.87903,44.719,0.00451098,0.00452527,-0.00199709,0.00651523,0.00252102,-0.787187,0.00379349,0.0443746,1231,1800,7.87905,-44.7189
14,-776,8.2395,45.1079,0.00811855,0.0112481,-0.00385503,0.0138438,0.00552283,-0.978192,0.00804698,0.0448926,1238,1800,8.23956,-45.108
21,-776,6.43726,43.3331,0.0110614,0.0162632,-0.00494069,0.0192458,0.00807883,-1.02768,0.0111591,0.042121,1245,1800,6.43722,-43.3331
28,-776,7.76514,43.5436,0.013725,0.0194269,-0.00584312,0.0230775,0.0100744,-1.01237,0.0133595,0.0403815,1252,1800,7.76509,-43.5435
35,-776,8.05518,43.2578,0.0158986,0.0216458,-0.00642248,0.0258083,0.0117362,-0.995756,0.0149207,0.040856,1259,1800,8.05515,-43.2578
42,-776,8.47278,43.1263,0.0173842,0.0233995,-0.00699381,0.028005,0.0127788,-0.988467,0.0161893,0.0424933,1266,1800,8.47272,-43.1263
49,-776,9.25964,42.6083,0.0166377,0.0240145,-0.00739362,0.0285887,0.0120636,-1.01677,0.0165725,0.0434199,1273,1800,9.25967,-42.6083
56,-776,8.56384,43.006,0.0153121,0.0231998,-0.00811981,0.0282829,0.010229,-1.01147,0.0165361,0.0437171,1280,1800,8.56382,-43.0059
63,-776,8.6272,43.6512,0.0129717,0.0228172,-0.00929626,0.0284137,0.00737522,-1.0289,0.0170251,0.0461241,1287,1800,8.6272,-43.6513
70,-776,8.38306,44.2051,0.0103116,0.0207364,-0.00938327,0.0262578,0.0047902,-1.03892,0.0161471,0.0451626,1294,1800,8.38302,-44.2051
77,-776,7.92261,44.6866,0,0,0,0,0,0,0,-1,1301,1800,7.92259,-44.6866
84,-776,8.75049,44.099,0,0,0,0,0,0,0,-1,1308,1800,8.75053,-44.099
91,-776,8.62659,43.9717,0,0,0,0,0,0,0,-1,1315,1800,8.62661,-43.9717
98,-776,8.49243,44.4243,-0.00656948,0.016885,-0.0117463,0.021756,-0.0114405,-1.17769,0.019472,0.0450339,1322,1800,8.49243,-44.4243
105,-776,8.41589,44.8563,0,0,0,0,0,0,0,-1,1329,1800,8.41592,-44.8564
112,-776,8.4884,45.2637,0,0,0,0,0,0,0,-1,1336,1800,8.4884,-45.2637
119,-776,8.34583,45.5941,-0.0169045,0.0135393,-0.00916508,0.0160855,-0.0194507,-1.29982,0.0205475,0.047,1343,1800,8.34581,-45.5942
126,-776,7.97925,46.1289,-0.0190488,0.01113,-0.00691435,0.0126388,-0.0205575,-1.35596,0.0193468,0.0483343,1350,1800,7.97929,-46.129
133,-776,7.67456,46.6274,0,0,0,0,0,0,0,-1,1357,1800,7.67459,-46.6275
140,-776,7.59167,44.3367,0,0,0,0,0,0,0,-1,1364,1800,7.59164,-44.3367
147,-776,4.38184,33.3923,0,0,0,0,0,0,0,-1,1371,1800,4.38185,-33.3923
154,-776,38.4338,21.854,0,0,0,0,0,0,0,-1,1378,1800,38.4339,-21.854
161,-776,6.50293,1.1731,0,0,0,0,0,0,0,-1,1385,1800,6.5029,-1.17313
168,-776,8.44971,1.22913,0,0,0,0,0,0,0,-1,1392,1800,8.44974,-1.22915
175,-776,8.61523,2.87061,0,0,0,0,0,0,0,-1,1399,1800,8.6152,-2.87063
182,-776,8.54065,4.60645,0,0,0,0,0,0,0,-1,1406,1800,8.5407,-4.60643
189,-776,8.35303,6.28223,0,0,0,0,0,0,0,-1,1413,1800,8.35297,-6.28225
196,-776,8.0387,8.21704,0,0,0,0,0,0,0,-1,1420,1800,8.03865,-8.217
203,-776,7.91736,9.79919,0,0,0,0,0,0,0,-1,1427,1800,7.91735,-9.79922
210,-776,20.2479,7.85718,0,0,0,0,0,0,0,-1,1434,1800,20.248,-7.85719
217,-776,21.5171,9.3418,0,0,0,0,0,0,0,-1,1441,1800,21.5171,-9.34182
224,-776,3.09253,14.9313,0,0,0,0,0,0,0,-1,1448,1800,3.09254,-14.9313
231,-776,20.8671,9.21057,0,0,0,0,0,0,0,-1,1455,1800,20.867,-9.21054
238,-776,20.7511,9.05847,0,0,0,0,0,0,0,-1,1462,1800,20.7511,-9.05848
245,-776,3.80823,15.4108,0,0,0,0,0,0,0,-1,1469,1800,3.80826,-15.4108
252,-776,8.57837,20.2009,0,0,0,0,0,0,0,-1,1476,1800,8.57841,-20.2009
259,-776,14.1882,7.69055,0,0,0,0,0,0,0,-1,1483,1800,14.1882,-7.69061
266,-776,0,0,0,0,0,0,0,0,0,-1,1490,1800,0,0
273,-776,0,0,0,0,0,0,0,0,0,-1,1497,1800,0,0
280,-776,0,0,0,0,0,0,0,0,0,-1,1504,1800,0,0
287,-776,0,0,0,0,0,0,0,0,0,-1,1511,1800,0,0
294,-776,0,0,0,0,0,0,0,0,0,-1,1518,1800,0,0
301,-776,0,0,0,0,0,0,0,0,0,-1,1525,1800,0,0
308,-776,0,0,0,0,0,0,0,0,0,-1,1532,1800,0,0
315,-776,0,0,0,0,0,0,0,0,0,-1,1539,1800,0,0
322,-776,0,0,0,0,0,0,0,0,0,-1,1546,1800,0,0
329,-776,0,0,0,0,0,0,0,0,0,-1,1553,1800,0,0
336,-776,0,0,0,0,0,0,0,0,0,-1,1560,1800,0,0
343,-776,0,0,0,0,0,0,0,0,0,-1,1567,1800,0,0
350,-776,0,0,0,0,0,0,0,0,0,-1,1574,1800,0,0
357,-776,0,0,0,0,0,0,0,0,0,-1,1581,1800,0,0
364,-776,0,0,0,0,0,0,0,0,0,-1,1588,1800,0,0
371,-776,0,0,0,0,0,0,0,0,0,-1,1595,1800,0,0
378,-776,0,0,0,0,0,0,0,0,0,-1,1602,1800,0,0
385,-776,0,0,0,0,0,0,0,0,0,-1,1609,1800,0,0
392,-776,0,0,0,0,0,0,0,0,0,-1,1616,1800,0,0
399,-776,0,0,0,0,0,0,0,0,0,-1,1623,1800,0,0
406,-776,0,0,0,0,0,0,0,0,0,-1,1630,1800,0,0
413,-776,0,0,0,0,0,0,0,0,0,-1,1637,1800,0,0
420,-776,0,0,0,0,0,0,0,0,0,-1,1644,1800,0,0
427,-776,0,0,0,0,0,0,0,0,0,-1,1651,1800,0,0
434,-776,0,0,0,0,0,0,0,0,0,-1,1658,1800,0,0
441,-776,0,0,0,0,0,0,0,0,0,-1,1665,1800,0,0
448,-776,0,0,0,0,0,0,0,0,0,-1,1672,1800,0,0
455,-776,0,0,0,0,0,0,0,0,0,-1,1679,1800,0,0
462,-776,0,0,0,0,0,0,0,0,0,-1,1686,1800,0,0
469,-776,0,0,0,0,0,0,0,0,0,-1,1693,1800,0,0
476,-776,0,0,0,0,0,0,0,0,0,-1,1700,1800,0,0
483,-776,0,0,0,0,0,0,0,0,0,-1,1707,1800,0,0
490,-776,0,0,0,0,0,0,0,0,0,-1,1714,1800,0,0
497,-776,0,0,0,0,0,0,0,0,0,-1,1721,1800,0,0
504,-776,0,0,0,0,0,0,0,0,0,-1,1728,1800,0,0
511,-776,0,0,0,0,0,0,0,0,0,-1,1735,1800,0,0
518,-776,0,0,0,0,0,0,0,0,0,-1,1742,1800,0,0
525,-776,0,0,0,0,0,0,0,0,0,-1,1749,1800,0,0
532,-776,0,0,0,0,0,0,0,0,0,-1,1756,1800,0,0
539,-776,0,0,0,0,0,0,0,0,0,-1,1763,1800,0,0
546,-776,0,0,0,0,0,0,0,0,0,-1,1770,1800,0,0
553,-776,0,0,0,0,0,0,0,0,0,-1,1777,1800,0,0
560,-776,0,0,0,0,0,0,0,0,0,-1,1784,1800,0,0
567,-776,0,0,0,0,0,0,0,0,0,-1,1791,1800,0,0
574,-776,0,0,0,0,0,0,0,0,0,-1,1798,1800,0,0
581,-776,0,0,0,0,0,0,0,0,0,-1,1805,1800,0,0
588,-776,0,0,0,0,0,0,0,0,0,-1,1812,1800,0,0
595,-776,0,0,0,0,0,0,0,0,0,-1,1819,1800,0,0
602,-776,0,0,0,0,0,0,0,0,0,-1,1826,1800,0,0
609,-776,0,0,0,0,0,0,0,0,0,-1,1833,1800,0,0
616,-776,0,0,0,0,0,0,0,0,0,-1,1840,1800,0,0
623,-776,0,0,0,0,0,0,0,0,0,-1,1847,1800,0,0
630,-776,0,0,0,0,0,0,0,0,0,-1,1854,1800,0,0
637,-776,0,0,0,0,0,0,0,0,0,-1,1861,1800,0,0
644,-776,0,0,0,0,0,0,0,0,0,-1,1868,1800,0,0
651,-776,0,0,0,0,0,0,0,0,0,-1,1875,1800,0,0
658,-776,0,0,0,0,0,0,0,0,0,-1,1882,1800,0,0
665,-776,0,0,0,0,0,0,0,0,0,-1,1889,1800,0,0
672,-776,0,0,0,0,0,0,0,0,0,-1,1896,1800,0,0
679,-776,0,0,0,0,0,0,0,0,0,-1,1903,1800,0,0
686,-776,0,0,0,0,0,0,0,0,0,-1,1910,1800,0,0
693,-776,0,0,0,0,0,0,0,0,0,-1,1917,1800,0,0
700,-776,0,0,0,0,0,0,0,0,0,-1,1924,1800,0,0
707,-776,0,0,0,0,0,0,0,0,0,-1,1931,1800,0,0
714,-776,0,0,0,0,0,0,0,0,0,-1,1938,1800,0,0
721,-776,0,0,0,0,0,0,0,0,0,-1,1945,1800,0,0
728,-776,0,0,0,0,0,0,0,0,0,-1,1952,1800,0,0
735,-776,0,0,0,0,0,0,0,0,0,-1,1959,1800,0,0
742,-776,0,0,0,0,0,0,0,0,0,-1,1966,1800,0,0
749,-776,0,0,0,0,0,0,0,0,0,-1,1973,1800,0,0
756,-776,0,0,0,0,0,0,0,0,0,-1,1980,1800,0,0
763,-776,0,0,0,0,0,0,0,0,0,-1,1987,1800,0,0
770,-776,0,0,0,0,0,0,0,0,0,-1,1994,1800,0,0
777,-776,0,0,0,0,0,0,0,0,0,-1,2001,1800,0,0
784,-776,0,0,0,0,0,0,0,0,0,-1,2008,1800,0,0
791,-776,0,0,0,0,0,0,0,0,0,-1,2015,1800,0,0
798,-776,0,0,0,0,0,0,0,0,0,-1,2022,1800,0,0
805,-776,0,0,0,0,0,0,0,0,0,-1,2029,1800,0,0
812,-776,0,0,0,0,0,0,0,0,0,-1,2036,1800,0,0
-700,-783,0,0,0,0,0,0,0,0,0,-1,524,1807,0,0
-693,-783,0,0,0,0,0,0,0,0,0,-1,531,1807,0,0
-686,-783,0,0,0,0,0,0,0,0,0,-1,538,1807,0,0
-679,-783,0,0,0,0,0,0,0,0,0,-1,545,1807,0,0
-672,-783,0,0,0,0,0,0,0,0,0,-1,552,1807,0,0
-665,-783,0,0,0,0,0,0,0,0,0,-1,559,1807,0,0
-658,-783,0,0,0,0,0,0,0,0,0,-1,566,1807,0,0
-651,-783,0,0,0,0,0,0,0,0,0,-1,573,1807,0,0
-644,-783,0,0,0,0,0,0,0,0,0,-1,580,1807,0,0
-637,-783,0,0,0,0,0,0,0,0,0,-1,587,1807,0,0
-630,-783,0,0,0,0,0,0,0,0,0,-1,594,1807,0,0
-623,-783,0,0,0,0,0,0,0,0,0,-1,601,1807,0,0
-616,-783,0,0,0,0,0,0,0,0,0,-1,608,1807,0,0
-609,-783,0,0,0,0,0,0,0,0,0,-1,615,1807,0,0
-602,-783,0,0,0,0,0,0,0,0,0,-1,622,1807,0,0
-595,-783,0,0,0,0,0,0,0,0,0,-1,629,1807,0,0
-588,-783,0,0,0,0,0,0,0,0,0,-1,636,1807,0,0
-581,-783,0,0,0,0,0,0,0,0,0,-1,643,1807,0,0
-574,-783,0,0,0,0,0,0,0,0,0,-1,650,1807,0,0
-567,-783,0,0,0,0,0,0,0,0,0,-1,657,1807,0,0
-560,-783,0,0,0,0,0,0,0,0,0,-1,664,1807,0,0
-553,-783,0,0,0,0,0,0,0,0,0,-1,671,1807,0,0
-546,-783,0,0,0,0,0,0,0,0,0,-1,678,1807,0,0
-539,-783,0,0,0,0,0,0,0,0,0,-1,685,1807,0,0
-532,-783,0,0,0,0,0,0,0,0,0,-1,692,1807,0,0
-525,-783,0,0,0,0,0,0,0,0,0,-1,699,1807,0,0
-518,-783,0,0,0,0,0,0,0,0,0,-1,706,1807,0,0
-511,-783,0,0,0,0,0,0,0,0,0,-1,713,1807,0,0
-504,-783,0,0,0,0,0,0,0,0,0,-1,720,1807,0,0
-497,-783,0,0,0,0,0,0,0,0,0,-1,727,1807,0,0
-490,-783,0,0,0,0,0,0,0,0,0,-1,734,1807,0,0
-483,-783,0,0,0,0,0,0,0,0,0,-1,741,1807,0,0
-476,-783,0,0,0,0,0,0,0,0,0,-1,748,1807,0,0
-469,-783,0,0,0,0,0,0,0,0,0,-1,755,1807,0,0
-462,-783,0,0,0,0,0,0,0,0,0,-1,762,1807,0,0
-455,-783,0,0,0,0,0,0,0,0,0,-1,769,1807,0,0
-448,-783,0,0,0,0,0,0,0,0,0,-1,776,1807,0,0
-441,-783,0,0,0,0,0,0,0,0,0,-1,783,1807,0,0
-434,-783,0,0,0,0,0,0,0,0,0,-1,790,1807,0,0
-427,-783,0,0,0,0,0,0,0,0,0,-1,797,1807,0,0
-420,-783,0,0,0,0,0,0,0,0,0,-1,804,1807,0,0
-413,-783,0,0,0,0,0,0,0,0,0,-1,811,1807,0,0
-406,-783,0,0,0,0,0,0,0,0,0,-1,818,1807,0,0
-399,-783,0,0,0,0,0,0,0,0,0,-1,825,1807,0,0
-392,-783,0,0,0,0,0,0,0,0,0,-1,832,1807,0,0
-385,-783,0,0,0,0,0,0,0,0,0,-1,839,1807,0,0
-378,-783,0,0,0,0,0,0,0,0,0,-1,846,1807,0,0
-371,-783,0,0,0,0,0,0,0,0,0,-1,853,1807,0,0
-364,-783,0,0,0,0,0,0,0,0,0,-1,860,1807,0,0
-357,-783,0,0,0,0,0,0,0,0,0,-1,867,1807,0,0
-350,-783,0,0,0,0,0,0,0,0,0,-1,874,1807,0,0
-343,-783,0,0,0,0,0,0,0,0,0,-1,881,1807,0,0
-336,-783,0,0,0,0,0,0,0,0,0,-1,888,1807,0,0
-329,-783,0,0,0,0,0,0,0,0,0,-1,895,1807,0,0
-322,-783,0,0,0,0,0,0,0,0,0,-1,902,1807,0,0
-315,-783,0,0,0,0,0,0,0,0,0,-1,909,1807,0,0
-308,-783,0,0,0,0,0,0,0,0,0,-1,916,1807,0,0
-301,-783,0,0,0,0,0,0,0,0,0,-1,923,1807,0,0
-294,-783,0,0,0,0,0,0,0,0,0,-1,930,1807,0,0
-287,-783,0,0,0,0,0,0,0,0,0,-1,937,1807,0,0
-280,-783,0,0,0,0,0,0,0,0,0,-1,944,1807,0,0
-273,-783,0,0,0,0,0,0,0,0,0,-1,951,1807,0,0
-266,-783,0,0,0,0,0,0,0,0,0,-1,958,1807,0,0
-259,-783,0,0,0,0,0,0,0,0,0,-1,965,1807,0,0
-252,-783,0,0,0,0,0,0,0,0,0,-1,972,1807,0,0
-245,-783,0,0,0,0,0,0,0,0,0,-1,979,1807,0,0
-238,-783,0,0,0,0,0,0,0,0,0,-1,986,1807,0,0
-231,-783,0,0,0,0,0,0,0,0,0,-1,993,1807,0,0
-224,-783,0,0,0,0,0,0,0,0,0,-1,1000,1807,0,0
-217,-783,0,0,0,0,0,0,0,0,0,-1,1007,1807,0,0
-210,-783,0,0,0,0,0,0,0,0,0,-1,1014,1807,0,0
-203,-783,0,0,0,0,0,0,0,0,0,-1,1021,1807,0,0
-196,-783,0,0,0,0,0,0,0,0,0,-1,1028,1807,0,0
-189,-783,0,0,0,0,0,0,0,0,0,-1,1035,1807,0,0
-182,-783,0,0,0,0,0,0,0,0,0,-1,1042,1807,0,0
-175,-783,0,0,0,0,0,0,0,0,0,-1,1049,1807,0,0
-168,-783,0,0,0,0,0,0,0,0,0,-1,1056,1807,0,0
-161,-783,0,0,0,0,0,0,0,0,0,-1,1063,1807,0,0
-154,-783,0,0,0,0,0,0,0,0,0,-1,1070,1807,0,0
-147,-783,0,0,0,0,0,0,0,0,0,-1,1077,1807,0,0
-140,-783,0,0,0,0,0,0,0,0,0,-1,1084,1807,0,0
-133,-783,0,0,0,0,0,0,0,0,0,-1,1091,1807,0,0
-126,-783,0,0,0,0,0,0,0,0,0,-1,1098,1807,0,0
-119,-783,0,0,0,0,0,0,0,0,0,-1,1105,1807,0,0
-112,-783,5.33936,14.7699,0,0,0,0,0,0,0,-1,1112,1807,5.33931,-14.7699
-105,-783,6.44263,21.2224,0,0,0,0,0,0,0,-1,1119,1807,6.44263,-21.2224
-98,-783,5.54773,20.5695,0,0,0,0,0,0,0,-1,1126,1807,5.54772,-20.5695
-91,-783,2.6106,20.2491,0,0,0,0,0,0,0,-1,1133,1807,2.61056,-20.2492
-84,-783,-0.0491943,14.5743,0,0,0,0,0,0,0,-1,1140,1807,-0.0491562,-14.5743
-77,-783,0.332764,12.7788,0,0,0,0,0,0,0,-1,1147,1807,0.332743,-12.7788
-70,-783,-1.93176,5.12817,0,0,0,0,0,0,0,-1,1154,1807,-1.93171,-5.12813
-63,-783,-5.31702,10.54,0,0,0,0,0,0,0,-1,1161,1807,-5.31703,-10.54
-56,-783,-6.26135,6.9679,0,0,0,0,0,0,0,-1,1168,1807,-6.26136,-6.96785
-49,-783,-3.17688,4.59705,0,0,0,0,0,0,0,-1,1175,1807,-3.17685,-4.5971
-42,-783,-3.72876,3.1405,0,0,0,0,0,0,0,-1,1182,1807,-3.72874,-3.14055
-35,-783,-3.97046,1.59399,0,0,0,0,0,0,0,-1,1189,1807,-3.97041,-1.59401
-28,-783,-4.12195,0.270386,0,0,0,0,0,0,0,-1,1196,1807,-4.12197,-0.270408
-21,-783,8.24231,44.88,0,0,0,0,0,0,0,-1,1203,1807,8.24227,-44.8799
-14,-783,8.20557,44.9076,-0.00676417,-0.02572,0.00948877,-0.00283061,-0.0296536,0.392985,0.0188963,0.0442551,1210,1807,8.20562,-44.9075
-7,-783,7.948,44.6672,-0.00391472,-0.0151661,0.00448271,-0.00234714,-0.0167337,0.336401,0.0104616,0.0427173,1217,1807,7.94795,-44.6672
0,-783,7.43677,44.3827,0.000558565,-0.00498396,0.000192988,0.000565276,-0.00499067,0.0347634,0.00353066,0.0428099,1224,1807,7.43679,-44.3827
7,-783,7.22327,44.6876,0,0,0,0,0,0,0,-1,1231,1807,7.2233,-44.6876
14,-783,9.08191,44.0815,0.00950213,0.0113726,-0.00510005,0.0156225,0.00525228,-0.876079,0.00917955,0.0493451,1238,1807,9.08197,-44.0815
21,-783,7.77173,43.08,0.0131094,0.0168775,-0.00618458,0.0214586,0.00852825,-0.933252,0.0124757,0.0493677,1245,1807,7.77174,-43.0799
28,-783,7.99219,42.9208,0.0164419,0.02019,-0.00716659,0.0257236,0.0109084,-0.913284,0.0149085,0.0459788,1252,1807,7.99213,-42.9208
35,-783,8.23145,42.7317,0.0190571,0.022679,-0.00780635,0.0288817,0.0128544,-0.899373,0.0167084,0.045648,1259,1807,8.23144,-42.7317
42,-783,8.54907,42.7646,0.0210266,0.0245989,-0.00834858,0.0313503,0.0142752,-0.890785,0.0181241,0.0450185,1266,1807,8.54909,-42.7646
49,-783,8.42529,42.599,0.0204644,0.0254112,-0.00884579,0.0321229,0.0137527,-0.921722,0.0186099,0.0479057,1273,1807,8.42529,-42.599
56,-783,8.70813,42.9958,0.0190191,0.0245949,-0.00971792,0.0319169,0.0116971,-0.925088,0.0186449,0.0472748,1280,1807,8.70816,-42.9958
63,-783,8.99097,43.4078,0.0163864,0.0245076,-0.0112401,0.032398,0.00849589,-0.958734,0.0193972,0.0459789,1287,1807,8.99101,-43.4078
70,-783,8.96387,43.7097,0.0131907,0.0227176,-0.0117416,0.0306252,0.00528302,-0.978099,0.0189035,0.0437518,1294,1807,8.96384,-43.7097
77,-783,8.71973,43.1113,0,0,0,0,0,0,0,-1,1301,1807,8.71978,-43.1113
84,-783,8.59998,43.4204,0,0,0,0,0,0,0,-1,1308,1807,8.60002,-43.4204
91,-783,8.58801,43.7919,0,0,0,0,0,0,0,-1,1315,1807,8.58806,-43.7919
98,-783,8.59387,44.1923,0,0,0,0,0,0,0,-1,1322,1807,8.59389,-44.1923
105,-783,8.5896,44.5801,0,0,0,0,0,0,0,-1,1329,1807,8.58961,-44.5801
112,-783,8.7251,45.1234,0,0,0,0,0,0,0,-1,1336,1807,8.72512,-45.1234
119,-783,8.40527,45.8047,-0.0197,0.0196742,-0.0124368,0.0232734,-0.0232993,-1.28909,0.0268888,0.0446404,1343,1807,8.40528,-45.8046
126,-783,7.95178,46.4674,-0.0226433,0.0172248,-0.00940856,0.0193336,-0.0247521,-1.3503,0.0255169,0.0472758,1350,1807,7.95178,-46.4674
133,-783,7.53882,47.101,0,0,0,0,0,0,0,-1,1357,1807,7.53881,-47.1009
140,-783,8.14697,45.29,0,0,0,0,0,0,0,-1,1364,1807,8.14693,-45.2901
147,-783,9.69092,45.6047,0,0,0,0,0,0,0,-1,1371,1807,9.69091,-45.6048
154,-783,38.2109,17.545,0,0,0,0,0,0,0,-1,1378,1807,38.2109,-17.545
161,-783,39.5087,17.5449,0,0,0,0,0,0,0,-1,1385,1807,39.5087,-17.545
168,-783,8.62561,1.79944,0,0,0,0,0,0,0,-1,1392,1807,8.62561,-1.79946
175,-783,8.78699,3.40857,0,0,0,0,0,0,0,-1,1399,1807,8.78697,-3.40854
182,-783,8.70984,5.14661,0,0,0,0,0,0,0,-1,1406,1807,8.70989,-5.14666
189,-783,8.55762,6.79871,0,0,0,0,0,0,0,-1,1413,1807,8.55766,-6.79872
196,-783,8.25488,8.66626,0,0,0,0,0,0,0,-1,1420,1807,8.25492,-8.66628
203,-783,7.86755,10.5735,0,0,0,0,0,0,0,-1,1427,1807,7.8676,-10.5734
210,-783,5.6969,8.99231,0,0,0,0,0,0,0,-1,1434,1807,5.69693,-8.99234
217,-783,5.28503,3.80872,0,0,0,0,0,0,0,-1,1441,1807,5.285,-3.80868
224,-783,3.22571,6.62903,0,0,0,0,0,0,0,-1,1448,1807,3.2257,-6.62907
231,-783,4.27942,4.56262,0,0,0,0,0,0,0,-1,1455,1807,4.27948,-4.56267
238,-783,0,0,0,0,0,0,0,0,0,-1,1462,1807,0,0
245,-783,0,0,0,0,0,0,0,0,0,-1,1469,1807,0,0
252,-783,0,0,0,0,0,0,0,0,0,-1,1476,1807,0,0
259,-783,0,0,0,0,0,0,0,0,0,-1,1483,1807,0,0
266,-783,0,0,0,0,0,0,0,0,0,-1,1490,1807,0,0
273,-783,0,0,0,0,0,0,0,0,0,-1,1497,1807,0,0
280,-783,0,0,0,0,0,0,0,0,0,-1,1504,1807,0,0
287,-783,0,0,0,0,0,0,0,0,0,-1,1511,1807,0,0
294,-783,0,0,0,0,0,0,0,0,0,-1,1518,1807,0,0
301,-783,0,0,0,0,0,0,0,0,0,-1,1525,1807,0,0
308,-783,0,0,0,0,0,0,0,0,0,-1,1532,1807,0,0
315,-783,0,0,0,0,0,0,0,0,0,-1,1539,1807,0,0
322,-783,0,0,0,0,0,0,0,0,0,-1,1546,1807,0,0
329,-783,0,0,0,0,0,0,0,0,0,-1,1553,1807,0,0
336,-783,0,0,0,0,0,0,0,0,0,-1,1560,1807,0,0
343,-783,0,0,0,0,0,0,0,0,0,-1,1567,1807,0,0
350,-783,0,0,0,0,0,0,0,0,0,-1,1574,1807,0,0
357,-783,0,0,0,0,0,0,0,0,0,-1,1581,1807,0,0
364,-783,0,0,0,0,0,0,0,0,0,-1,1588,1807,0,0
371,-783,0,0,0,0,0,0,0,0,0,-1,1595,1807,0,0
378,-783,0,0,0,0,0,0,0,0,0,-1,1602,1807,0,0
385,-783,0,0,0,0,0,0,0,0,0,-1,1609,1807,0,0
392,-783,0,0,0,0,0,0,0,0,0,-1,1616,1807,0,0
399,-783,0,0,0,0,0,0,0,0,0,-1,1623,1807,0,0
406,-783,0,0,0,0,0,0,0,0,0,-1,1630,1807,0,0
413,-783,0,0,0,0,0,0,0,0,0,-1,1637,1807,0,0
420,-783,0,0,0,0,0,0,0,0,0,-1,1644,1807,0,0
427,-783,0,0,0,0,0,0,0,0,0,-1,1651,1807,0,0
434,-783,0,0,0,0,0,0,0,0,0,-1,1658,1807,0,0
441,-783,0,0,0,0,0,0,0,0,0,-1,1665,1807,0,0
448,-783,0,0,0,0,0,0,0,0,0,-1,1672,1807,0,0
455,-783,0,0,0,0,0,0,0,0,0,-1,1679,1807,0,0
462,-783,0,0,0,0,0,0,0,0,0,-1,1686,1807,0,0
469,-783,0,0,0,0,0,0,0,0,0,-1,1693,1807,0,0
476,-783,0,0,0,0,0,0,0,0,0,-1,1700,1807,0,0
483,-783,0,0,0,0,0,0,0,0,0,-1,1707,1807,0,0
490,-783,0,0,0,0,0,0,0,0,0,-1,1714,1807,0,0
497,-783,0,0,0,0,0,0,0,0,0,-1,1721,1807,0,0
504,-783,0,0,0,0,0,0,0,0,0,-1,1728,1807,0,0
511,-783,0,0,0,0,0,0,0,0,0,-1,1735,1807,0,0
518,-783,0,0,0,0,0,0,0,0,0,-1,1742,1807,0,0
525,-783,0,0,0,0,0,0,0,0,0,-1,1749,1807,0,0
532,-783,0,0,0,0,0,0,0,0,0,-1,1756,1807,0,0
539,-783,0,0,0,0,0,0,0,0,0,-1,1763,1807,0,0
546,-783,0,0,0,0,0,0,0,0,0,-1,1770,1807,0,0
553,-783,0,0,0,0,0,0,0,0,0,-1,1777,1807,0,0
560,-783,0,0,0,0,0,0,0,0,0,-1,1784,1807,0,0
567,-783,0,0,0,0,0,0,0,0,0,-1,1791,1807,0,0
574,-783,0,0,0,0,0,0,0,0,0,-1,1798,1807,0,0
581,-783,0,0,0,0,0,0,0,0,0,-1,1805,1807,0,0
588,-783,0,0,0,0,0,0,0,0,0,-1,1812,1807,0,0
595,-783,0,0,0,0,0,0,0,0,0,-1,1819,1807,0,0
602,-783,0,0,0,0,0,0,0,0,0,-1,1826,1807,0,0
609,-783,0,0,0,0,0,0,0,0,0,-1,1833,1807,0,0
616,-783,0,0,0,0,0,0,0,0,0,-1,1840,1807,0,0
623,-783,0,0,0,0,0,0,0,0,0,-1,1847,1807,0,0
630,-783,0,0,0,0,0,0,0,0,0,-1,1854,1807,0,0
637,-783,0,0,0,0,0,0,0,0,0,-1,1861,1807,0,0
644,-783,0,0,0,0,0,0,0,0,0,-1,1868,1807,0,0
651,-783,0,0,0,0,0,0,0,0,0,-1,1875,1807,0,0
658,-783,0,0,0,0,0,0,0,0,0,-1,1882,1807,0,0
665,-783,0,0,0,0,0,0,0,0,0,-1,1889,1807,0,0
672,-783,0,0,0,0,0,0,0,0,0,-1,1896,1807,0,0
679,-783,0,0,0,0,0,0,0,0,0,-1,1903,1807,0,0
686,-783,0,0,0,0,0,0,0,0,0,-1,1910,1807,0,0
693,-783,0,0,0,0,0,0,0,0,0,-1,1917,1807,0,0
700,-783,0,0,0,0,0,0,0,0,0,-1,1924,1807,0,0
707,-783,0,0,0,0,0,0,0,0,0,-1,1931,1807,0,0
714,-783,0,0,0,0,0,0,0,0,0,-1,1938,1807,0,0
721,-783,0,0,0,0,0,0,0,0,0,-1,1945,1807,0,0
728,-783,0,0,0,0,0,0,0,0,0,-1,1952,1807,0,0
735,-783,0,0,0,0,0,0,0,0,0,-1,1959,1807,0,0
742,-783,0,0,0,0,0,0,0,0,0,-1,1966,1807,0,0
749,-783,0,0,0,0,0,0,0,0,0,-1,1973,1807,0,0
756,-783,0,0,0,0,0,0,0,0,0,-1,1980,1807,0,0
763,-783,0,0,0,0,0,0,0,0,0,-1,1987,1807,0,0
770,-783,0,0,0,0,0,0,0,0,0,-1,1994,1807,0,0
777,-783,0,0,0,0,0,0,0,0,0,-1,2001,1807,0,0
784,-783,0,0,0,0,0,0,0,0,0,-1,2008,1807,0,0
791,-783,0,0,0,0,0,0,0,0,0,-1,2015,1807,0,0
798,-783,0,0,0,0,0,0,0,0,0,-1,2022,1807,0,0
805,-783,0,0,0,0,0,0,0,0,0,-1,2029,1807,0,0
812,-783,0,0,0,0,0,0,0,0,0,-1,2036,1807,0,0
-700,-790,0,0,0,0,0,0,0,0,0,-1,524,1814,0,0
-693,-790,0,0,0,0,0,0,0,0,0,-1,531,1814,0,0
-686,-790,0,0,0,0,0,0,0,0,0,-1,538,1814,0,0
-679,-790,0,0,0,0,0,0,0,0,0,-1,545,1814,0,0
-672,-790,0,0,0,0,0,0,0,0,0,-1,552,1814,0,0
-665,-790,0,0,0,0,0,0,0,0,0,-1,559,1814,0,0
-658,-790,0,0,0,0,0,0,0,0,0,-1,566,1814,0,0
-651,-790,0,0,0,0,0,0,0,0,0,-1,573,1814,0,0
-644,-790,0,0,0,0,0,0,0,0,0,-1,580,1814,0,0
-637,-790,0,0,0,0,0,0,0,0,0,-1,587,1814,0,0
-630,-790,0,0,0,0,0,0,0,0,0,-1,594,1814,0,0
-623,-790,0,0,0,0,0,0,0,0,0,-1,601,1814,0,0
-616,-790,0,0,0,0,0,0,0,0,0,-1,608,1814,0,0
-609,-790,0,0,0,0,0,0,0,0,0,-1,615,1814,0,0
-602,-790,0,0,0,0,0,0,0,0,0,-1,622,1814,0,0
-595,-790,0,0,0,0,0,0,0,0,0,-1,629,1814,0,0
-588,-790,0,0,0,0,0,0,0,0,0,-1,636,1814,0,0
-581,-790,0,0,0,0,0,0,0,0,0,-1,643,1814,0,0
-574,-790,0,0,0,0,0,0,0,0,0,-1,650,1814,0,0
-567,-790,0,0,0,0,0,0,0,0,0,-1,657,1814,0,0
-560,-790,0,0,0,0,0,0,0,0,0,-1,664,1814,0,0
-553,-790,0,0,0,0,0,0,0,0,0,-1,671,1814,0,0
-546,-790,0,0,0,0,0,0,0,0,0,-1,678,1814,0,0
-539,-790,0,0,0,0,0,0,0,0,0,-1,685,1814,0,0
-532,-790,0,0,0,0,0,0,0,0,0,-1,692,1814,0,0
-525,-790,0,0,0,0,0,0,0,0,0,-1,699,1814,0,0
-518,-790,0,0,0,0,0,0,0,0,0,-1,706,1814,0,0
-511,-790,0,0,0,0,0,0,0,0,0,-1,713,1814,0,0
-504,-790,0,0,0,0,0,0,0,0,0,-1,720,1814,0,0
-497,-790,0,0,0,0,0,0,0,0,0,-1,727,1814,0,0
-490,-790,0,0,0,0,0,0,0,0,0,-1,734,1814,0,0
-483,-790,0,0,0,0,0,0,0,0,0,-1,741,1814,0,0
-476,-790,0,0,0,0,0,0,0,0,0,-1,748,1814,0,0
-469,-790,0,0,0,0,0,0,0,0,0,-1,755,1814,0,0
-462,-790,0,0,0,0,0,0,0,0,0,-1,762,1814,0,0
-455,-790,0,0,0,0,0,0,0,0,0,-1,769,1814,0,0
-448,-790,0,0,0,0,0,0,0,0,0,-1,776,1814,0,0
-441,-790,0,0,0,0,0,0,0,0,0,-1,783,1814,0,0
-434,-790,0,0,0,0,0,0,0,0,0,-1,790,1814,0,0
-427,-790,0,0,0,0,0,0,0,0,0,-1,797,1814,0,0
-420,-790,0,0,0,0,0,0,0,0,0,-1,804,1814,0,0
-413,-790,0,0,0,0,0,0,0,0,0,-1,811,1814,0,0
-406,-790,0,0,0,0,0,0,0,0,0,-1,818,1814,0,0
-399,-790,0,0,0,0,0,0,0,0,0,-1,825,1814,0,0
-392,-790,0,0,0,0,0,0,0,0,0,-1,832,1814,0,0
-385,-790,0,0,0,0,0,0,0,0,0,-1,839,1814,0,0
-378,-790,0,0,0,0,0,0,0,0,0,-1,846,1814,0,0
-371,-790,0,0,0,0,0,0,0,0,0,-1,853,1814,0,0
-364,-790,0,0,0,0,0,0,0,0,0,-1,860,1814,0,0
-357,-790,0,0,0,0,0,0,0,0,0,-1,867,1814,0,0
-350,-790,0,0,0,0,0,0,0,0,0,-1,874,1814,0,0
-343,-790,0,0,0,0,0,0,0,0,0,-1,881,1814,0,0
-336,-790,0,0,0,0,0,0,0,0,0,-1,888,1814,0,0
-329,-790,0,0,0,0,0,0,0,0,0,-1,895,1814,0,0
-322,-790,0,0,0,0,0,0,0,0,0,-1,902,1814,0,0
-315,-790,0,0,0,0,0,0,0,0,0,-1,909,1814,0,0
-308,-790,0,0,0,0,0,0,0,0,0,-1,916,1814,0,0
-301,-790,0,0,0,0,0,0,0,0,0,-1,923,1814,0,0
-294,-790,0,0,0,0,0,0,0,0,0,-1,930,1814,0,0
-287,-790,0,0,0,0,0,0,0,0,0,-1,937,1814,0,0
-280,-790,0,0,0,0,0,0,0,0,0,-1,944,1814,0,0
-273,-790,0,0,0,0,0,0,0,0,0,-1,951,1814,0,0
-266,-790,0,0,0,0,0,0,0,0,0,-1,958,1814,0,0
-259,-790,0,0,0,0,0,0,0,0,0,-1,965,1814,0,0
-252,-790,0,0,0,0,0,0,0,0,0,-1,972,1814,0,0
-245,-790,0,0,0,0,0,0,0,0,0,-1,979,1814,0,0
-238,-790,0,0,0,0,0,0,0,0,0,-1,986,1814,0,0
-231,-790,0,0,0,0,0,0,0,0,0,-1,993,1814,0,0
-224,-790,0,0,0,0,0,0,0,0,0,-1,1000,1814,0,0
-217,-790,0,0,0,0,0,0,0,0,0,-1,1007,1814,0,0
-210,-790,0,0,0,0,0,0,0,0,0,-1,1014,1814,0,0
-203,-790,0,0,0,0,0,0,0,0,0,-1,1021,1814,0,0
-196,-790,0,0,0,0,0,0,0,0,0,-1,1028,1814,0,0
-189,-790,0,0,0,0,0,0,0,0,0,-1,1035,1814,0,0
-182,-790,0,0,0,0,0,0,0,0,0,-1,1042,1814,0,0
-175,-790,0,0,0,0,0,0,0,0,0,-1,1049,1814,0,0
-168,-790,0,0,0,0,0,0,0,0,0,-1,1056,1814,0,0
-161,-790,0,0,0,0,0,0,0,0,0,-1,1063,1814,0,0
-154,-790,0,0,0,0,0,0,0,0,0,-1,1070,1814,0,0
-147,-790,0,0,0,0,0,0,0,0,0,-1,1077,1814,0,0
-140,-790,0,0,0,0,0,0,0,0,0,-1,1084,1814,0,0
-133,-790,0,0,0,0,0,0,0,0,0,-1,1091,1814,0,0
-126,-790,0,0,0,0,0,0,0,0,0,-1,1098,1814,0,0
-119,-790,0,0,0,0,0,0,0,0,0,-1,1105,1814,0,0
-112,-790,0,0,0,0,0,0,0,0,0,-1,1112,1814,0,0
-105,-790,0,0,0,0,0,0,0,0,0,-1,1119,1814,0,0
-98,-790,0,0,0,0,0,0,0,0,0,-1,1126,1814,0,0
-91,-790,0,0,0,0,0,0,0,0,0,-1,1133,1814,0,0
-84,-790,0,0,0,0,0,0,0,0,0,-1,1140,1814,0,0
-77,-790,-0.969238,5.30847,0,0,0,0,0,0,0,-1,1147,1814,-0.969277,-5.3085
-70,-790,-1.23169,4.98914,0,0,0,0,0,0,0,-1,1154,1814,-1.23163,-4.98916
-63,-790,-1.69128,4.32263,0,0,0,0,0,0,0,-1,1161,1814,-1.69128,-4.32258
-56,-790,-2.24756,3.75305,0,0,0,0,0,0,0,-1,1168,1814,-2.24758,-3.75302
-49,-790,-3.11011,3.35779,0,0,0,0,0,0,0,-1,1175,1814,-3.11006,-3.35781
-42,-790,0.593262,1.19165,0,0,0,0,0,0,0,-1,1182,1814,0.593225,-1.19165
-35,-790,0.307129,-0.20105,0,0,0,0,0,0,0,-1,1189,1814,0.307178,0.201006
-28,-790,-2.78467,0.785156,0,0,0,0,0,0,0,-1,1196,1814,-2.78471,-0.785183
-21,-790,7.54578,45.2943,0,0,0,0,0,0,0,-1,1203,1814,7.54576,-45.2943
-14,-790,7.68787,45.2806,-0.00729672,-0.0328313,0.0116525,-0.00277864,-0.0373494,0.369889,0.024027,0.0454371,1210,1814,7.68788,-45.2806
-7,-790,7.82996,45.0397,-0.00395048,-0.0184889,0.00459159,-0.00262178,-0.0198177,0.281683,0.0124303,0.0464659,1217,1814,7.83,-45.0397
0,-790,7.04187,44.3251,0,0,0,0,0,0,0,-1,1224,1814,7.04191,-44.3251
7,-790,8.56104,44.3645,0.00623997,0.00218652,-0.00412479,0.00880906,-0.000382573,-0.557045,0.00600429,0.046271,1231,1814,8.561,-44.3644
14,-790,8.57373,43.7975,0.0108791,0.010215,-0.00626303,0.0168189,0.00427526,-0.758915,0.010094,0.0459976,1238,1814,8.57373,-43.7975
21,-790,8.6875,43.4635,0.015103,0.0158029,-0.00723419,0.0226956,0.00821031,-0.809566,0.0132692,0.045864,1245,1814,8.6875,-43.4635
28,-790,8.19873,41.99,0,0,0,0,0,0,0,-1,1252,1814,8.19877,-41.9899
35,-790,8.41589,42.2377,0.0221452,0.0217447,-0.00907108,0.0310183,0.0128717,-0.77436,0.0179945,0.0444761,1259,1814,8.4159,-42.2377
42,-790,8.59595,42.4937,0.0246889,0.0238381,-0.00960183,0.0338748,0.0146523,-0.76326,0.0196169,0.0448741,1266,1814,8.5959,-42.4937
49,-790,8.8324,42.7231,0.0245277,0.024988,-0.0102799,0.0350403,0.0144754,-0.796591,0.0203321,0.0493662,1273,1814,8.8324,-42.7232
56,-790,9.1261,42.9105,0.0230707,0.0243371,-0.0113707,0.0350922,0.0123157,-0.813213,0.0205584,0.0477026,1280,1814,9.12612,-42.9105
63,-790,9.15466,43.3325,0.0202424,0.0247921,-0.0133519,0.0360616,0.00897291,-0.869775,0.0216782,0.0442978,1287,1814,9.1547,-43.3325
70,-790,9.25952,43.5344,0.0165276,0.0237015,-0.0145336,0.0350842,0.00514487,-0.906383,0.0218771,0.0419124,1294,1814,9.25951,-43.5344
77,-790,9.44067,43.6322,0.0111605,0.0236063,-0.0156309,0.0342075,0.000559321,-0.974838,0.0226209,0.0409261,1301,1814,9.44067,-43.6322
84,-790,8.70654,43.5837,0,0,0,0,0,0,0,-1,1308,1814,8.70652,-43.5838
91,-790,8.76013,43.8247,0,0,0,0,0,0,0,-1,1315,1814,8.76013,-43.8247
98,-790,9.13867,43.6992,-0.00612325,0.0274699,-0.0210386,0.0375944,-0.0162478,-1.12227,0.0318898,0.0458004,1322,1814,9.13863,-43.6992
105,-790,8.82117,43.3865,-0.0118634,0.0292562,-0.0209403,0.0380426,-0.0206499,-1.17351,0.0343785,0.049608,1329,1814,8.82121,-43.3865
112,-790,8.604,43.3324,-0.017461,0.029661,-0.0194483,0.0366509,-0.0244509,-1.22576,0.0355108,0.049898,1336,1814,8.60402,-43.3324
119,-790,8.34314,43.2574,0,0,0,0,0,0,0,-1,1343,1814,8.34316,-43.2575
126,-790,9.28564,43.8069,0,0,0,0,0,0,0,-1,1350,1814,9.28564,-43.8068
133,-790,9.01843,44.1283,0,0,0,0,0,0,0,-1,1357,1814,9.01848,-44.1283
140,-790,8.91504,44.317,0,0,0,0,0,0,0,-1,1364,1814,8.91499,-44.317
147,-790,8.99646,44.3473,0,0,0,0,0,0,0,-1,1371,1814,8.99652,-44.3472
154,-790,40.215,13.2396,0,0,0,0,0,0,0,-1,1378,1814,40.2149,-13.2396
161,-790,39.3429,13.0336,0,0,0,0,0,0,0,-1,1385,1814,39.3429,-13.0336
168,-790,7.04077,2.23279,0,0,0,0,0,0,0,-1,1392,1814,7.04082,-2.23275
175,-790,9.03918,3.98535,0,0,0,0,0,0,0,-1,1399,1814,9.0392,-3.98535
182,-790,8.96997,5.67896,0,0,0,0,0,0,0,-1,1406,1814,8.97001,-5.6789
189,-790,8.59729,6.86975,0,0,0,0,0,0,0,-1,1413,1814,8.59728,-6.86972
196,-790,8.21924,9.29053,0,0,0,0,0,0,0,-1,1420,1814,8.21924,-9.29048
203,-790,0,0,0,0,0,0,0,0,0,-1,1427,1814,0,0
210,-790,0,0,0,0,0,0,0,0,0,-1,1434,1814,0,0
217,-790,0,0,0,0,0,0,0,0,0,-1,1441,1814,0,0
224,-790,0,0,0,0,0,0,0,0,0,-1,1448,1814,0,0
231,-790,0,0,0,0,0,0,0,0,0,-1,1455,1814,0,0
238,-790,0,0,0,0,0,0,0,0,0,-1,1462,1814,0,0
245,-790,0,0,0,0,0,0,0,0,0,-1,1469,1814,0,0
252,-790,0,0,0,0,0,0,0,0,0,-1,1476,1814,0,0
259,-790,0,0,0,0,0,0,0,0,0,-1,1483,1814,0,0
266,-790,0,0,0,0,0,0,0,0,0,-1,1490,1814,0,0
273,-790,0,0,0,0,0,0,0,0,0,-1,1497,1814,0,0
280,-790,0,0,0,0,0,0,0,0,0,-1,1504,1814,0,0
287,-790,0,0,0,0,0,0,0,0,0,-1,1511,1814,0,0
294,-790,0,0,0,0,0,0,0,0,0,-1,1518,1814,0,0
301,-790,0,0,0,0,0,0,0,0,0,-1,1525,1814,0,0
308,-790,0,0,0,0,0,0,0,0,0,-1,1532,1814,0,0
315,-790,0,0,0,0,0,0,0,0,0,-1,1539,1814,0,0
322,-790,0,0,0,0,0,0,0,0,0,-1,1546,1814,0,0
329,-790,0,0,0,0,0,0,0,0,0,-1,1553,1814,0,0
336,-790,0,0,0,0,0,0,0,0,0,-1,1560,1814,0,0
343,-790,0,0,0,0,0,0,0,0,0,-1,1567,1814,0,0
350,-790,0,0,0,0,0,0,0,0,0,-1,1574,1814,0,0
357,-790,0,0,0,0,0,0,0,0,0,-1,1581,1814,0,0
364,-790,0,0,0,0,0,0,0,0,0,-1,1588,1814,0,0
371,-790,0,0,0,0,0,0,0,0,0,-1,1595,1814,0,0
378,-790,0,0,0,0,0,0,0,0,0,-1,1602,1814,0,0
385,-790,0,0,0,0,0,0,0,0,0,-1,1609,1814,0,0
392,-790,0,0,0,0,0,0,0,0,0,-1,1616,1814,0,0
399,-790,0,0,0,0,0,0,0,0,0,-1,1623,1814,0,0
406,-790,0,0,0,0,0,0,0,0,0,-1,1630,1814,0,0
413,-790,0,0,0,0,0,0,0,0,0,-1,1637,1814,0,0
420,-790,0,0,0,0,0,0,0,0,0,-1,1644,1814,0,0
427,-790,0,0,0,0,0,0,0,0,0,-1,1651,1814,0,0
434,-790,0,0,0,0,0,0,0,0,0,-1,1658,1814,0,0
441,-790,0,0,0,0,0,0,0,0,0,-1,1665,1814,0,0
448,-790,0,0,0,0,0,0,0,0,0,-1,1672,1814,0,0
455,-790,0,0,0,0,0,0,0,0,0,-1,1679,1814,0,0
462,-790,0,0,0,0,0,0,0,0,0,-1,1686,1814,0,0
469,-790,0,0,0,0,0,0,0,0,0,-1,1693,1814,0,0
476,-790,0,0,0,0,0,0,0,0,0,-1,1700,1814,0,0
483,-790,0,0,0,0,0,0,0,0,0,-1,1707,1814,0,0
490,-790,0,0,0,0,0,0,0,0,0,-1,1714,1814,0,0
497,-790,0,0,0,0,0,0,0,0,0,-1,1721,1814,0,0
504,-790,0,0,0,0,0,0,0,0,0,-1,1728,1814,0,0
511,-790,0,0,0,0,0,0,0,0,0,-1,1735,1814,0,0
518,-790,0,0,0,0,0,0,0,0,0,-1,1742,1814,0,0
525,-790,0,0,0,0,0,0,0,0,0,-1,1749,1814,0,0
532,-790,0,0,0,0,0,0,0,0,0,-1,1756,1814,0,0
539,-790,0,0,0,0,0,0,0,0,0,-1,1763,1814,0,0
546,-790,0,0,0,0,0,0,0,0,0,-1,1770,1814,0,0
553,-790,0,0,0,0,0,0,0,0,0,-1,1777,1814,0,0
560,-790,0,0,0,0,0,0,0,0,0,-1,1784,1814,0,0
567,-790,0,0,0,0,0,0,0,0,0,-1,1791,1814,0,0
574,-790,0,0,0,0,0,0,0,0,0,-1,1798,1814,0,0
581,-790,0,0,0,0,0,0,0,0,0,-1,1805,1814,0,0
588,-790,0,0,0,0,0,0,0,0,0,-1,1812,1814,0,0
595,-790,0,0,0,0,0,0,0,0,0,-1,1819,1814,0,0
602,-790,0,0,0,0,0,0,0,0,0,-1,1826,1814,0,0
609,-790,0,0,0,0,0,0,0,0,0,-1,1833,1814,0,0
616,-790,0,0,0,0,0,0,0,0,0,-1,1840,1814,0,0
623,-790,0,0,0,0,0,0,0,0,0,-1,1847,1814,0,0
630,-790,0,0,0,0,0,0,0,0,0,-1,1854,1814,0,0
637,-790,0,0,0,0,0,0,0,0,0,-1,1861,1814,0,0
644,-790,0,0,0,0,0,0,0,0,0,-1,1868,1814,0,0
651,-790,0,0,0,0,0,0,0,0,0,-1,1875,1814,0,0
658,-790,0,0,0,0,0,0,0,0,0,-1,1882,1814,0,0
665,-790,0,0,0,0,0,0,0,0,0,-1,1889,1814,0,0
672,-790,0,0,0,0,0,0,0,0,0,-1,1896,1814,0,0
679,-790,0,0,0,0,0,0,0,0,0,-1,1903,1814,0,0
686,-790,0,0,0,0,0,0,0,0,0,-1,1910,1814,0,0
693,-790,0,0,0,0,0,0,0,0,0,-1,1917,1814,0,0
700,-790,0,0,0,0,0,0,0,0,0,-1,1924,1814,0,0
707,-790,0,0,0,0,0,0,0,0,0,-1,1931,1814,0,0
714,-790,0,0,0,0,0,0,0,0,0,-1,1938,1814,0,0
721,-790,0,0,0,0,0,0,0,0,0,-1,1945,1814,0,0
728,-790,0,0,0,0,0,0,0,0,0,-1,1952,1814,0,0
735,-790,0,0,0,0,0,0,0,0,0,-1,1959,1814,0,0
742,-790,0,0,0,0,0,0,0,0,0,-1,1966,1814,0,0
749,-790,0,0,0,0,0,0,0,0,0,-1,1973,1814,0,0
756,-790,0,0,0,0,0,0,0,0,0,-1,1980,1814,0,0
763,-790,0,0,0,0,0,0,0,0,0,-1,1987,1814,0,0
770,-790,0,0,0,0,0,0,0,0,0,-1,1994,1814,0,0
777,-790,0,0,0,0,0,0,0,0,0,-1,2001,1814,0,0
784,-790,0,0,0,0,0,0,0,0,0,-1,2008,1814,0,0
791,-790,0,0,0,0,0,0,0,0,0,-1,2015,1814,0,0
798,-790,0,0,0,0,0,0,0,0,0,-1,2022,1814,0,0
805,-790,0,0,0,0,0,0,0,0,0,-1,2029,1814,0,0
812,-790,0,0,0,0,0,0,0,0,0,-1,2036,1814,0,0
-700,-797,0,0,0,0,0,0,0,0,0,-1,524,1821,0,0
-693,-797,0,0,0,0,0,0,0,0,0,-1,531,1821,0,0
-686,-797,0,0,0,0,0,0,0,0,0,-1,538,1821,0,0
-679,-797,0,0,0,0,0,0,0,0,0,-1,545,1821,0,0
-672,-797,0,0,0,0,0,0,0,0,0,-1,552,1821,0,0
-665,-797,0,0,0,0,0,0,0,0,0,-1,559,1821,0,0
-658,-797,0,0,0,0,0,0,0,0,0,-1,566,1821,0,0
-651,-797,0,0,0,0,0,0,0,0,0,-1,573,1821,0,0
-644,-797,0,0,0,0,0,0,0,0,0,-1,580,1821,0,0
-637,-797,0,0,0,0,0,0,0,0,0,-1,587,1821,0,0
-630,-797,0,0,0,0,0,0,0,0,0,-1,594,1821,0,0
-623,-797,0,0,0,0,0,0,0,0,0,-1,601,1821,0,0
-616,-797,0,0,0,0,0,0,0,0,0,-1,608,1821,0,0
-609,-797,0,0,0,0,0,0,0,0,0,-1,615,1821,0,0
-602,-797,0,0,0,0,0,0,0,0,0,-1,622,1821,0,0
-595,-797,0,0,0,0,0,0,0,0,0,-1,629,1821,0,0
-588,-797,0,0,0,0,0,0,0,0,0,-1,636,1821,0,0
-581,-797,0,0,0,0,0,0,0,0,0,-1,643,1821,0,0
-574,-797,0,0,0,0,0,0,0,0,0,-1,650,1821,0,0
-567,-797,0,0,0,0,0,0,0,0,0,-1,657,1821,0,0
-560,-797,0,0,0,0,0,0,0,0,0,-1,664,1821,0,0
-553,-797,0,0,0,0,0,0,0,0,0,-1,671,1821,0,0
-546,-797,0,0,0,0,0,0,0,0,0,-1,678,1821,0,0
-539,-797,0,0,0,0,0,0,0,0,0,-1,685,1821,0,0
-532,-797,0,0,0,0,0,0,0,0,0,-1,692,1821,0,0
-525,-797,0,0,0,0,0,0,0,0,0,-1,699,1821,0,0
-518,-797,0,0,0,0,0,0,0,0,0,-1,706,1821,0,0
-511,-797,0,0,0,0,0,0,0,0,0,-1,713,1821,0,0
-504,-797,0,0,0,0,0,0,0,0,0,-1,720,1821,0,0
-497,-797,0,0,0,0,0,0,0,0,0,-1,727,1821,0,0
-490,-797,0,0,0,0,0,0,0,0,0,-1,734,1821,0,0
-483,-797,0,0,0,0,0,0,0,0,0,-1,741,1821,0,0
-476,-797,0,0,0,0,0,0,0,0,0,-1,748,1821,0,0
-469,-797,0,0,0,0,0,0,0,0,0,-1,755,1821,0,0
-462,-797,0,0,0,0,0,0,0,0,0,-1,762,1821,0,0
-455,-797,0,0,0,0,0,0,0,0,0,-1,769,1821,0,0
-448,-797,0,0,0,0,0,0,0,0,0,-1,776,1821,0,0
-441,-797,0,0,0,0,0,0,0,0,0,-1,783,1821,0,0
-434,-797,0,0,0,0,0,0,0,0,0,-1,790,1821,0,0
-427,-797,0,0,0,0,0,0,0,0,0,-1,797,1821,0,0
-420,-797,0,0,0,0,0,0,0,0,0,-1,804,1821,0,0
-413,-797,0,0,0,0,0,0,0,0,0,-1,811,1821,0,0
-406,-797,0,0,0,0,0,0,0,0,0,-1,818,1821,0,0
-399,-797,0,0,0,0,0,0,0,0,0,-1,825,1821,0,0
-392,-797,0,0,0,0,0,0,0,0,0,-1,832,1821,0,0
-385,-797,0,0,0,0,0,0,0,0,0,-1,839,1821,0,0
-378,-797,0,0,0,0,0,0,0,0,0,-1,846,1821,0,0
-371,-797,0,0,0,0,0,0,0,0,0,-1,853,1821,0,0
-364,-797,0,0,0,0,0,0,0,0,0,-1,860,1821,0,0
-357,-797,0,0,0,0,0,0,0,0,0,-1,867,1821,0,0
-350,-797,0,0,0,0,0,0,0,0,0,-1,874,1821,0,0
-343,-797,0,0,0,0,0,0,0,0,0,-1,881,1821,0,0
-336,-797,0,0,0,0,0,0,0,0,0,-1,888,1821,0,0
-329,-797,0,0,0,0,0,0,0,0,0,-1,895,1821,0,0
-322,-797,0,0,0,0,0,0,0,0,0,-1,902,1821,0,0
-315,-797,0,0,0,0,0,0,0,0,0,-1,909,1821,0,0
-308,-797,0,0,0,0,0,0,0,0,0,-1,916,1821,0,0
-301,-797,0,0,0,0,0,0,0,0,0,-1,923,1821,0,0
-294,-797,0,0,0,0,0,0,0,0,0,-1,930,1821,0,0
-287,-797,0,0,0,0,0,0,0,0,0,-1,937,1821,0,0
-280,-797,0,0,0,0,0,0,0,0,0,-1,944,1821,0,0
-273,-797,0,0,0,0,0,0,0,0,0,-1,951,1821,0,0
-266,-797,0,0,0,0,0,0,0,0,0,-1,958,1821,0,0
-259,-797,0,0,0,0,0,0,0,0,0,-1,965,1821,0,0
-252,-797,0,0,0,0,0,0,0,0,0,-1,972,1821,0,0
-245,-797,0,0,0,0,0,0,0,0,0,-1,979,1821,0,0
-238,-797,0,0,0,0,0,0,0,0,0,-1,986,1821,0,0
-231,-797,0,0,0,0,0,0,0,0,0,-1,993,1821,0,0
-224,-797,0,0,0,0,0,0,0,0,0,-1,1000,1821,0,0
-217,-797,0,0,0,0,0,0,0,0,0,-1,1007,1821,0,0
-210,-797,0,0,0,0,0,0,0,0,0,-1,1014,1821,0,0
-203,-797,0,0,0,0,0,0,0,0,0,-1,1021,1821,0,0
-196,-797,0,0,0,0,0,0,0,0,0,-1,1028,1821,0,0
-189,-797,0,0,0,0,0,0,0,0,0,-1,1035,1821,0,0
-182,-797,0,0,0,0,0,0,0,0,0,-1,1042,1821,0,0
-175,-797,0,0,0,0,0,0,0,0,0,-1,1049,1821,0,0
-168,-797,0,0,0,0,0,0,0,0,0,-1,1056,1821,0,0
-161,-797,0,0,0,0,0,0,0,0,0,-1,1063,1821,0,0
-154,-797,0,0,0,0,0,0,0,0,0,-1,1070,1821,0,0
-147,-797,0,0,0,0,0,0,0,0,0,-1,1077,1821,0,0
-140,-797,0,0,0,0,0,0,0,0,0,-1,1084,1821,0,0
-133,-797,0,0,0,0,0,0,0,0,0,-1,1091,1821,0,0
-126,-797,0,0,0,0,0,0,0,0,0,-1,1098,1821,0,0
-119,-797,0,0,0,0,0,0,0,0,0,-1,1105,1821,0,0
-112,-797,0,0,0,0,0,0,0,0,0,-1,1112,1821,0,0
-105,-797,0,0,0,0,0,0,0,0,0,-1,1119,1821,0,0
-98,-797,0,0,0,0,0,0,0,0,0,-1,1126,1821,0,0
-91,-797,0,0,0,0,0,0,0,0,0,-1,1133,1821,0,0
-84,-797,0,0,0,0,0,0,0,0,0,-1,1140,1821,0,0
-77,-797,0,0,0,0,0,0,0,0,0,-1,1147,1821,0,0
-70,-797,0,0,0,0,0,0,0,0,0,-1,1154,1821,0,0
-63,-797,0,0,0,0,0,0,0,0,0,-1,1161,1821,0,0
-56,-797,0,0,0,0,0,0,0,0,0,-1,1168,1821,0,0
-49,-797,0,0,0,0,0,0,0,0,0,-1,1175,1821,0,0
-42,-797,0.579834,0.692871,0,0,0,0,0,0,0,-1,1182,1821,0.579856,-0.692816
-35,-797,-0.185425,5.55396,0,0,0,0,0,0,0,-1,1189,1821,-0.18542,-5.55396
-28,-797,-0.310181,4.71509,0,0,0,0,0,0,0,-1,1196,1821,-0.310228,-4.71503
-21,-797,7.16956,45.5265,0,0,0,0,0,0,0,-1,1203,1821,7.1696,-45.5265
-14,-797,7.30762,45.2208,-0.00541818,-0.0346733,0.0115018,-0.00143779,-0.0386537,0.333168,0.0253035,0.048657,1210,1821,7.30757,-45.2208
-7,-797,7.45386,45.1659,-0.00230182,-0.0192604,0.00362432,-0.00155972,-0.0200025,0.201964,0.0128467,0.0486991,1217,1821,7.45387,-45.1659
0,-797,8.03186,44.8048,0,0,0,0,0,0,0,-1,1224,1821,8.03185,-44.8048
7,-797,8.33496,44.3785,0,0,0,0,0,0,0,-1,1231,1821,8.335,-44.3786
14,-797,8.32739,44.0237,0,0,0,0,0,0,0,-1,1238,1821,8.32739,-44.0237
21,-797,8.4624,43.1475,0.0168718,0.012003,-0.00767586,0.02249,0.00638471,-0.63184,0.0133828,0.0456308,1245,1821,8.46241,-43.1475
28,-797,8.71985,42.7078,0,0,0,0,0,0,0,-1,1252,1821,8.71989,-42.7077
35,-797,8.52124,42.17,0,0,0,0,0,0,0,-1,1259,1821,8.52128,-42.17
42,-797,8.70422,42.4711,0.0280391,0.020065,-0.0105549,0.0353349,0.0127692,-0.604812,0.0206603,0.0480454,1266,1821,8.70427,-42.471
49,-797,8.9259,42.7235,0.0286177,0.0217949,-0.0115605,0.0372596,0.013153,-0.641923,0.0218195,0.0477936,1273,1821,8.92592,-42.7235
56,-797,9.25916,42.8359,0.0273559,0.0215664,-0.0129827,0.0377627,0.0111596,-0.675709,0.0224018,0.0441181,1280,1821,9.25917,-42.8359
63,-797,9.578,43.0392,0.024521,0.0228912,-0.0155704,0.0392979,0.0081144,-0.759254,0.0239563,0.0426169,1287,1821,9.57798,-43.0392
70,-797,9.3252,43.7849,0.0203721,0.0230908,-0.017815,0.0395983,0.00386471,-0.823476,0.0252095,0.0419075,1294,1821,9.32519,-43.7849
77,-797,9.89111,43.7202,0.0145932,0.0245153,-0.0199674,0.0401287,-0.00102025,-0.907161,0.027099,0.0407384,1301,1821,9.89115,-43.7202
84,-797,10.1055,43.6292,0.00809393,0.0273628,-0.0234104,0.0430437,-0.007587,-0.980608,0.0315306,0.0422674,1308,1821,10.1054,-43.6292
91,-797,9.90234,43.5503,0,0,0,0,0,0,0,-1,1315,1821,9.90232,-43.5503
98,-797,9.51038,43.2806,-0.00471778,0.034342,-0.0279706,0.0489262,-0.019302,-1.09017,0.0406104,0.0426845,1322,1821,9.51039,-43.2806
105,-797,9.1532,42.917,-0.0115532,0.0382125,-0.0280126,0.0507978,-0.0241385,-1.14855,0.0441677,0.0436584,1329,1821,9.15315,-42.917
112,-797,9.24548,42.7367,-0.0184612,0.0395781,-0.026038,0.0495471,-0.0284303,-1.20515,0.0455672,0.043702,1336,1821,9.24543,-42.7367
119,-797,9.56689,42.9636,0,0,0,0,0,0,0,-1,1343,1821,9.56691,-42.9637
126,-797,9.849,43.0991,0,0,0,0,0,0,0,-1,1350,1821,9.84899,-43.0991
133,-797,9.76843,43.2072,0,0,0,0,0,0,0,-1,1357,1821,9.76848,-43.2071
140,-797,9.7334,43.3182,0,0,0,0,0,0,0,-1,1364,1821,9.73335,-43.3182
147,-797,9.77393,43.4021,0,0,0,0,0,0,0,-1,1371,1821,9.77388,-43.4021
154,-797,40.2623,8.88733,0,0,0,0,0,0,0,-1,1378,1821,40.2623,-8.88731
161,-797,42.2798,8.17371,0,0,0,0,0,0,0,-1,1385,1821,42.2798,-8.17367
168,-797,0,0,0,0,0,0,0,0,0,-1,1392,1821,0,0
175,-797,0,0,0,0,0,0,0,0,0,-1,1399,1821,0,0
182,-797,0,0,0,0,0,0,0,0,0,-1,1406,1821,0,0
189,-797,0,0,0,0,0,0,0,0,0,-1,1413,1821,0,0
196,-797,0,0,0,0,0,0,0,0,0,-1,1420,1821,0,0
203,-797,0,0,0,0,0,0,0,0,0,-1,1427,1821,0,0
210,-797,0,0,0,0,0,0,0,0,0,-1,1434,1821,0,0
217,-797,0,0,0,0,0,0,0,0,0,-1,1441,1821,0,0
224,-797,0,0,0,0,0,0,0,0,0,-1,1448,1821,0,0
231,-797,0,0,0,0,0,0,0,0,0,-1,1455,1821,0,0
238,-797,0,0,0,0,0,0,0,0,0,-1,1462,1821,0,0
245,-797,0,0,0,0,0,0,0,0,0,-1,1469,1821,0,0
252,-797,0,0,0,0,0,0,0,0,0,-1,1476,1821,0,0
259,-797,0,0,0,0,0,0,0,0,0,-1,1483,1821,0,0
266,-797,0,0,0,0,0,0,0,0,0,-1,1490,1821,0,0
273,-797,0,0,0,0,0,0,0,0,0,-1,1497,1821,0,0
280,-797,0,0,0,0,0,0,0,0,0,-1,1504,1821,0,0
287,-797,0,0,0,0,0,0,0,0,0,-1,1511,1821,0,0
294,-797,0,0,0,0,0,0,0,0,0,-1,1518,1821,0,0
301,-797,0,0,0,0,0,0,0,0,0,-1,1525,1821,0,0
308,-797,0,0,0,0,0,0,0,0,0,-1,1532,1821,0,0
315,-797,0,0,0,0,0,0,0,0,0,-1,1539,1821,0,0
322,-797,0,0,0,0,0,0,0,0,0,-1,1546,1821,0,0
329,-797,0,0,0,0,0,0,0,0,0,-1,1553,1821,0,0
336,-797,0,0,0,0,0,0,0,0,0,-1,1560,1821,0,0
343,-797,0,0,0,0,0,0,0,0,0,-1,1567,1821,0,0
350,-797,0,0,0,0,0,0,0,0,0,-1,1574,1821,0,0
357,-797,0,0,0,0,0,0,0,0,0,-1,1581,1821,0,0
364,-797,0,0,0,0,0,0,0,0,0,-1,1588,1821,0,0
371,-797,0,0,0,0,0,0,0,0,0,-1,1595,1821,0,0
378,-797,0,0,0,0,0,0,0,0,0,-1,1602,1821,0,0
385,-797,0,0,0,0,0,0,0,0,0,-1,1609,1821,0,0
392,-797,0,0,0,0,0,0,0,0,0,-1,1616,1821,0,0
399,-797,0,0,0,0,0,0,0,0,0,-1,1623,1821,0,0
406,-797,0,0,0,0,0,0,0,0,0,-1,1630,1821,0,0
413,-797,0,0,0,0,0,0,0,0,0,-1,1637,1821,0,0
420,-797,0,0,0,0,0,0,0,0,0,-1,1644,1821,0,0
427,-797,0,0,0,0,0,0,0,0,0,-1,1651,1821,0,0
434,-797,0,0,0,0,0,0,0,0,0,-1,1658,1821,0,0
441,-797,0,0,0,0,0,0,0,0,0,-1,1665,1821,0,0
448,-797,0,0,0,0,0,0,0,0,0,-1,1672,1821,0,0
455,-797,0,0,0,0,0,0,0,0,0,-1,1679,1821,0,0
462,-797,0,0,0,0,0,0,0,0,0,-1,1686,1821,0,0
469,-797,0,0,0,0,0,0,0,0,0,-1,1693,1821,0,0
476,-797,0,0,0,0,0,0,0,0,0,-1,1700,1821,0,0
483,-797,0,0,0,0,0,0,0,0,0,-1,1707,1821,0,0
490,-797,0,0,0,0,0,0,0,0,0,-1,1714,1821,0,0
497,-797,0,0,0,0,0,0,0,0,0,-1,1721,1821,0,0
504,-797,0,0,0,0,0,0,0,0,0,-1,1728,1821,0,0
511,-797,0,0,0,0,0,0,0,0,0,-1,1735,1821,0,0
518,-797,0,0,0,0,0,0,0,0,0,-1,1742,1821,0,0
525,-797,0,0,0,0,0,0,0,0,0,-1,1749,1821,0,0
532,-797,0,0,0,0,0,0,0,0,0,-1,1756,1821,0,0
539,-797,0,0,0,0,0,0,0,0,0,-1,1763,1821,0,0
546,-797,0,0,0,0,0,0,0,0,0,-1,1770,1821,0,0
553,-797,0,0,0,0,0,0,0,0,0,-1,1777,1821,0,0
560,-797,0,0,0,0,0,0,0,0,0,-1,1784,1821,0,0
567,-797,0,0,0,0,0,0,0,0,0,-1,1791,1821,0,0
574,-797,0,0,0,0,0,0,0,0,0,-1,1798,1821,0,0
581,-797,0,0,0,0,0,0,0,0,0,-1,1805,1821,0,0
588,-797,0,0,0,0,0,0,0,0,0,-1,1812,1821,0,0
595,-797,0,0,0,0,0,0,0,0,0,-1,1819,1821,0,0
602,-797,0,0,0,0,0,0,0,0,0,-1,1826,1821,0,0
609,-797,0,0,0,0,0,0,0,0,0,-1,1833,1821,0,0
616,-797,0,0,0,0,0,0,0,0,0,-1,1840,1821,0,0
623,-797,0,0,0,0,0,0,0,0,0,-1,1847,1821,0,0
630,-797,0,0,0,0,0,0,0,0,0,-1,1854,1821,0,0
637,-797,0,0,0,0,0,0,0,0,0,-1,1861,1821,0,0
644,-797,0,0,0,0,0,0,0,0,0,-1,1868,1821,0,0
651,-797,0,0,0,0,0,0,0,0,0,-1,1875,1821,0,0
658,-797,0,0,0,0,0,0,0,0,0,-1,1882,1821,0,0
665,-797,0,0,0,0,0,0,0,0,0,-1,1889,1821,0,0
672,-797,0,0,0,0,0,0,0,0,0,-1,1896,1821,0,0
679,-797,0,0,0,0,0,0,0,0,0,-1,1903,1821,0,0
686,-797,0,0,0,0,0,0,0,0,0,-1,1910,1821,0,0
693,-797,0,0,0,0,0,0,0,0,0,-1,1917,1821,0,0
700,-797,0,0,0,0,0,0,0,0,0,-1,1924,1821,0,0
707,-797,0,0,0,0,0,0,0,0,0,-1,1931,1821,0,0
714,-797,0,0,0,0,0,0,0,0,0,-1,1938,1821,0,0
721,-797,0,0,0,0,0,0,0,0,0,-1,1945,1821,0,0
728,-797,0,0,0,0,0,0,0,0,0,-1,1952,1821,0,0
735,-797,0,0,0,0,0,0,0,0,0,-1,1959,1821,0,0
742,-797,0,0,0,0,0,0,0,0,0,-1,1966,1821,0,0
749,-797,0,0,0,0,0,0,0,0,0,-1,1973,1821,0,0
756,-797,0,0,0,0,0,0,0,0,0,-1,1980,1821,0,0
763,-797,0,0,0,0,0,0,0,0,0,-1,1987,1821,0,0
770,-797,0,0,0,0,0,0,0,0,0,-1,1994,1821,0,0
777,-797,0,0,0,0,0,0,0,0,0,-1,2001,1821,0,0
784,-797,0,0,0,0,0,0,0,0,0,-1,2008,1821,0,0
791,-797,0,0,0,0,0,0,0,0,0,-1,2015,1821,0,0
798,-797,0,0,0,0,0,0,0,0,0,-1,2022,1821,0,0
805,-797,0,0,0,0,0,0,0,0,0,-1,2029,1821,0,0
812,-797,0,0,0,0,0,0,0,0,0,-1,2036,1821,0,0
-700,-804,0,0,0,0,0,0,0,0,0,-1,524,1828,0,0
-693,-804,0,0,0,0,0,0,0,0,0,-1,531,1828,0,0
-686,-804,0,0,0,0,0,0,0,0,0,-1,538,1828,0,0
-679,-804,0,0,0,0,0,0,0,0,0,-1,545,1828,0,0
-672,-804,0,0,0,0,0,0,0,0,0,-1,552,1828,0,0
-665,-804,0,0,0,0,0,0,0,0,0,-1,559,1828,0,0
-658,-804,0,0,0,0,0,0,0,0,0,-1,566,1828,0,0
-651,-804,0,0,0,0,0,0,0,0,0,-1,573,1828,0,0
-644,-804,0,0,0,0,0,0,0,0,0,-1,580,1828,0,0
-637,-804,0,0,0,0,0,0,0,0,0,-1,587,1828,0,0
-630,-804,0,0,0,0,0,0,0,0,0,-1,594,1828,0,0
-623,-804,0,0,0,0,0,0,0,0,0,-1,601,1828,0,0
-616,-804,0,0,0,0,0,0,0,0,0,-1,608,1828,0,0
-609,-804,0,0,0,0,0,0,0,0,0,-1,615,1828,0,0
-602,-804,0,0,0,0,0,0,0,0,0,-1,622,1828,0,0
-595,-804,0,0,0,0,0,0,0,0,0,-1,629,1828,0,0
-588,-804,0,0,0,0,0,0,0,0,0,-1,636,1828,0,0
-581,-804,0,0,0,0,0,0,0,0,0,-1,643,1828,0,0
-574,-804,0,0,0,0,0,0,0,0,0,-1,650,1828,0,0
-567,-804,0,0,0,0,0,0,0,0,0,-1,657,1828,0,0
-560,-804,0,0,0,0,0,0,0,0,0,-1,664,1828,0,0
-553,-804,0,0,0,0,0,0,0,0,0,-1,671,1828,0,0
-546,-804,0,0,0,0,0,0,0,0,0,-1,678,1828,0,0
-539,-804,0,0,0,0,0,0,0,0,0,-1,685,1828,0,0
-532,-804,0,0,0,0,0,0,0,0,0,-1,692,1828,0,0
-525,-804,0,0,0,0,0,0,0,0,0,-1,699,1828,0,0
-518,-804,0,0,0,0,0,0,0,0,0,-1,706,1828,0,0
-511,-804,0,0,0,0,0,0,0,0,0,-1,713,1828,0,0
-504,-804,0,0,0,0,0,0,0,0,0,-1,720,1828,0,0
-497,-804,0,0,0,0,0,0,0,0,0,-1,727,1828,0,0
-490,-804,0,0,0,0,0,0,0,0,0,-1,734,1828,0,0
-483,-804,0,0,0,0,0,0,0,0,0,-1,741,1828,0,0
-476,-804,0,0,0,0,0,0,0,0,0,-1,748,1828,0,0
-469,-804,0,0,0,0,0,0,0,0,0,-1,755,1828,0,0
-462,-804,0,0,0,0,0,0,0,0,0,-1,762,1828,0,0
-455,-804,0,0,0,0,0,0,0,0,0,-1,769,1828,0,0
-448,-804,0,0,0,0,0,0,0,0,0,-1,776,1828,0,0
-441,-804,0,0,0,0,0,0,0,0,0,-1,783,1828,0,0
-434,-804,0,0,0,0,0,0,0,0,0,-1,790,1828,0,0
-427,-804,0,0,0,0,0,0,0,0,0,-1,797,1828,0,0
-420,-804,0,0,0,0,0,0,0,0,0,-1,804,1828,0,0
-413,-804,0,0,0,0,0,0,0,0,0,-1,811,1828,0,0
-406,-804,0,0,0,0,0,0,0,0,0,-1,818,1828,0,0
-399,-804,0,0,0,0,0,0,0,0,0,-1,825,1828,0,0
-392,-804,0,0,0,0,0,0,0,0,0,-1,832,1828,0,0
-385,-804,0,0,0,0,0,0,0,0,0,-1,839,1828,0,0
-378,-804,0,0,0,0,0,0,0,0,0,-1,846,1828,0,0
-371,-804,0,0,0,0,0,0,0,0,0,-1,853,1828,0,0
-364,-804,0,0,0,0,0,0,0,0,0,-1,860,1828,0,0
-357,-804,0,0,0,0,0,0,0,0,0,-1,867,1828,0,0
-350,-804,0,0,0,0,0,0,0,0,0,-1,874,1828,0,0
-343,-804,0,0,0,0,0,0,0,0,0,-1,881,1828,0,0
-336,-804,0,0,0,0,0,0,0,0,0,-1,888,1828,0,0
-329,-804,0,0,0,0,0,0,0,0,0,-1,895,1828,0,0
-322,-804,0,0,0,0,0,0,0,0,0,-1,902,1828,0,0
-315,-804,0,0,0,0,0,0,0,0,0,-1,909,1828,0,0
-308,-804,0,0,0,0,0,0,0,0,0,-1,916,1828,0,0
-301,-804,0,0,0,0,0,0,0,0,0,-1,923,1828,0,0
-294,-804,0,0,0,0,0,0,0,0,0,-1,930,1828,0,0
-287,-804,0,0,0,0,0,0,0,0,0,-1,937,1828,0,0
-280,-804,0,0,0,0,0,0,0,0,0,-1,944,1828,0,0
-273,-804,0,0,0,0,0,0,0,0,0,-1,951,1828,0,0
-266,-804,0,0,0,0,0,0,0,0,0,-1,958,1828,0,0
-259,-804,0,0,0,0,0,0,0,0,0,-1,965,1828,0,0
-252,-804,0,0,0,0,0,0,0,0,0,-1,972,1828,0,0
-245,-804,0,0,0,0,0,0,0,0,0,-1,979,1828,0,0
-238,-804,0,0,0,0,0,0,0,0,0,-1,986,1828,0,0
-231,-804,0,0,0,0,0,0,0,0,0,-1,993,1828,0,0
-224,-804,0,0,0,0,0,0,0,0,0,-1,1000,1828,0,0
-217,-804,0,0,0,0,0,0,0,0,0,-1,1007,1828,0,0
-210,-804,0,0,0,0,0,0,0,0,0,-1,1014,1828,0,0
-203,-804,0,0,0,0,0,0,0,0,0,-1,1021,1828,0,0
-196,-804,0,0,0,0,0,0,0,0,0,-1,1028,1828,0,0
-189,-804,0,0,0,0,0,0,0,0,0,-1,1035,1828,0,0
-182,-804,0,0,0,0,0,0,0,0,0,-1,1042,1828,0,0
-175,-804,0,0,0,0,0,0,0,0,0,-1,1049,1828,0,0
-168,-804,0,0,0,0,0,0,0,0,0,-1,1056,1828,0,0
-161,-804,0,0,0,0,0,0,0,0,0,-1,1063,1828,0,0
-154,-804,0,0,0,0,0,0,0,0,0,-1,1070,1828,0,0
-147,-804,0,0,0,0,0,0,0,0,0,-1,1077,1828,0,0
-140,-804,0,0,0,0,0,0,0,0,0,-1,1084,1828,0,0
-133,-804,0,0,0,0,0,0,0,0,0,-1,1091,1828,0,0
-126,-804,0,0,0,0,0,0,0,0,0,-1,1098,1828,0,0
-119,-804,0,0,0,0,0,0,0,0,0,-1,1105,1828,0,0
-112,-804,0,0,0,0,0,0,0,0,0,-1,1112,1828,0,0
-105,-804,0,0,0,0,0,0,0,0,0,-1,1119,1828,0,0
-98,-804,0,0,0,0,0,0,0,0,0,-1,1126,1828,0,0
-91,-804,0,0,0,0,0,0,0,0,0,-1,1133,1828,0,0
-84,-804,0,0,0,0,0,0,0,0,0,-1,1140,1828,0,0
-77,-804,0,0,0,0,0,0,0,0,0,-1,1147,1828,0,0
-70,-804,0,0,0,0,0,0,0,0,0,-1,1154,1828,0,0
-63,-804,0,0,0,0,0,0,0,0,0,-1,1161,1828,0,0
-56,-804,0,0,0,0,0,0,0,0,0,-1,1168,1828,0,0
-49,-804,0,0,0,0,0,0,0,0,0,-1,1175,1828,0,0
-42,-804,0,0,0,0,0,0,0,0,0,-1,1182,1828,0,0
-35,-804,0,0,0,0,0,0,0,0,0,-1,1189,1828,0,0
-28,-804,0,0,0,0,0,0,0,0,0,-1,1196,1828,0,0
-21,-804,0,0,0,0,0,0,0,0,0,-1,1203,1828,0,0
-14,-804,0,0,0,0,0,0,0,0,0,-1,1210,1828,0,0
-7,-804,0,0,0,0,0,0,0,0,0,-1,1217,1828,0,0
0,-804,0,0,0,0,0,0,0,0,0,-1,1224,1828,0,0
7,-804,0,0,0,0,0,0,0,0,0,-1,1231,1828,0,0
14,-804,0,0,0,0,0,0,0,0,0,-1,1238,1828,0,0
21,-804,0,0,0,0,0,0,0,0,0,-1,1245,1828,0,0
28,-804,0,0,0,0,0,0,0,0,0,-1,1252,1828,0,0
35,-804,8.76062,41.7587,0,0,0,0,0,0,0,-1,1259,1828,8.76063,-41.7587
42,-804,8.85706,42.4193,0.0303879,0.0113593,-0.0108129,0.0352764,0.00647085,-0.424598,0.0216849,0.0476493,1266,1828,8.85703,-42.4193
49,-804,9.24719,42.9314,0.0322666,0.0141179,-0.0124182,0.0385726,0.0078119,-0.469871,0.0235471,0.0439412,1273,1828,9.24715,-42.9314
56,-804,9.24939,43.1709,0.0315795,0.0147092,-0.0143627,0.0398008,0.00648786,-0.519884,0.0246574,0.0440532,1280,1828,9.24943,-43.1709
63,-804,9.45227,42.7172,0.0291088,0.0173427,-0.0177629,0.0419375,0.00451393,-0.625484,0.0265817,0.0438534,1287,1828,9.45227,-42.7172
70,-804,10.0552,43.8965,0,0,0,0,0,0,0,-1,1294,1828,10.0552,-43.8965
77,-804,10.3013,43.827,0.0189227,0.0235765,-0.025547,0.0469024,-0.00440316,-0.830815,0.0328346,0.0468728,1301,1828,10.3013,-43.8271
84,-804,10.6017,43.1857,0.0124565,0.0292998,-0.0305365,0.0525546,-0.0107983,-0.919948,0.0391356,0.045068,1308,1828,10.6017,-43.1857
91,-804,0,0,0,0,0,0,0,0,0,-1,1315,1828,0,0
98,-804,0,0,0,0,0,0,0,0,0,-1,1322,1828,0,0
105,-804,0,0,0,0,0,0,0,0,0,-1,1329,1828,0,0
112,-804,0,0,0,0,0,0,0,0,0,-1,1336,1828,0,0
119,-804,0,0,0,0,0,0,0,0,0,-1,1343,1828,0,0
126,-804,0,0,0,0,0,0,0,0,0,-1,1350,1828,0,0
133,-804,0,0,0,0,0,0,0,0,0,-1,1357,1828,0,0
140,-804,0,0,0,0,0,0,0,0,0,-1,1364,1828,0,0
147,-804,0,0,0,0,0,0,0,0,0,-1,1371,1828,0,0
154,-804,0,0,0,0,0,0,0,0,0,-1,1378,1828,0,0
161,-804,0,0,0,0,0,0,0,0,0,-1,1385,1828,0,0
168,-804,0,0,0,0,0,0,0,0,0,-1,1392,1828,0,0
175,-804,0,0,0,0,0,0,0,0,0,-1,1399,1828,0,0
182,-804,0,0,0,0,0,0,0,0,0,-1,1406,1828,0,0
189,-804,0,0,0,0,0,0,0,0,0,-1,1413,1828,0,0
196,-804,0,0,0,0,0,0,0,0,0,-1,1420,1828,0,0
203,-804,0,0,0,0,0,0,0,0,0,-1,1427,1828,0,0
210,-804,0,0,0,0,0,0,0,0,0,-1,1434,1828,0,0
217,-804,0,0,0,0,0,0,0,0,0,-1,1441,1828,0,0
224,-804,0,0,0,0,0,0,0,0,0,-1,1448,1828,0,0
231,-804,0,0,0,0,0,0,0,0,0,-1,1455,1828,0,0
238,-804,0,0,0,0,0,0,0,0,0,-1,1462,1828,0,0
245,-804,0,0,0,0,0,0,0,0,0,-1,1469,1828,0,0
252,-804,0,0,0,0,0,0,0,0,0,-1,1476,1828,0,0
259,-804,0,0,0,0,0,0,0,0,0,-1,1483,1828,0,0
266,-804,0,0,0,0,0,0,0,0,0,-1,1490,1828,0,0
273,-804,0,0,0,0,0,0,0,0,0,-1,1497,1828,0,0
280,-804,0,0,0,0,0,0,0,0,0,-1,1504,1828,0,0
287,-804,0,0,0,0,0,0,0,0,0,-1,1511,1828,0,0
294,-804,0,0,0,0,0,0,0,0,0,-1,1518,1828,0,0
301,-804,0,0,0,0,0,0,0,0,0,-1,1525,1828,0,0
308,-804,0,0,0,0,0,0,0,0,0,-1,1532,1828,0,0
315,-804,0,0,0,0,0,0,0,0,0,-1,1539,1828,0,0
322,-804,0,0,0,0,0,0,0,0,0,-1,1546,1828,0,0
329,-804,0,0,0,0,0,0,0,0,0,-1,1553,1828,0,0
336,-804,0,0,0,0,0,0,0,0,0,-1,1560,1828,0,0
343,-804,0,0,0,0,0,0,0,0,0,-1,1567,1828,0,0
350,-804,0,0,0,0,0,0,0,0,0,-1,1574,1828,0,0
357,-804,0,0,0,0,0,0,0,0,0,-1,1581,1828,0,0
364,-804,0,0,0,0,0,0,0,0,0,-1,1588,1828,0,0
371,-804,0,0,0,0,0,0,0,0,0,-1,1595,1828,0,0
378,-804,0,0,0,0,0,0,0,0,0,-1,1602,1828,0,0
385,-804,0,0,0,0,0,0,0,0,0,-1,1609,1828,0,0
392,-804,0,0,0,0,0,0,0,0,0,-1,1616,1828,0,0
399,-804,0,0,0,0,0,0,0,0,0,-1,1623,1828,0,0
406,-804,0,0,0,0,0,0,0,0,0,-1,1630,1828,0,0
413,-804,0,0,0,0,0,0,0,0,0,-1,1637,1828,0,0
420,-804,0,0,0,0,0,0,0,0,0,-1,1644,1828,0,0
427,-804,0,0,0,0,0,0,0,0,0,-1,1651,1828,0,0
434,-804,0,0,0,0,0,0,0,0,0,-1,1658,1828,0,0
441,-804,0,0,0,0,0,0,0,0,0,-1,1665,1828,0,0
448,-804,0,0,0,0,0,0,0,0,0,-1,1672,1828,0,0
455,-804,0,0,0,0,0,0,0,0,0,-1,1679,1828,0,0
462,-804,0,0,0,0,0,0,0,0,0,-1,1686,1828,0,0
469,-804,0,0,0,0,0,0,0,0,0,-1,1693,1828,0,0
476,-804,0,0,0,0,0,0,0,0,0,-1,1700,1828,0,0
483,-804,0,0,0,0,0,0,0,0,0,-1,1707,1828,0,0
490,-804,0,0,0,0,0,0,0,0,0,-1,1714,1828,0,0
497,-804,0,0,0,0,0,0,0,0,0,-1,1721,1828,0,0
504,-804,0,0,0,0,0,0,0,0,0,-1,1728,1828,0,0
511,-804,0,0,0,0,0,0,0,0,0,-1,1735,1828,0,0
518,-804,0,0,0,0,0,0,0,0,0,-1,1742,1828,0,0
525,-804,0,0,0,0,0,0,0,0,0,-1,1749,1828,0,0
532,-804,0,0,0,0,0,0,0,0,0,-1,1756,1828,0,0
539,-804,0,0,0,0,0,0,0,0,0,-1,1763,1828,0,0
546,-804,0,0,0,0,0,0,0,0,0,-1,1770,1828,0,0
553,-804,0,0,0,0,0,0,0,0,0,-1,1777,1828,0,0
560,-804,0,0,0,0,0,0,0,0,0,-1,1784,1828,0,0
567,-804,0,0,0,0,0,0,0,0,0,-1,1791,1828,0,0
574,-804,0,0,0,0,0,0,0,0,0,-1,1798,1828,0,0
581,-804,0,0,0,0,0,0,0,0,0,-1,1805,1828,0,0
588,-804,0,0,0,0,0,0,0,0,0,-1,1812,1828,0,0
595,-804,0,0,0,0,0,0,0,0,0,-1,1819,1828,0,0
602,-804,0,0,0,0,0,0,0,0,0,-1,1826,1828,0,0
609,-804,0,0,0,0,0,0,0,0,0,-1,1833,1828,0,0
616,-804,0,0,0,0,0,0,0,0,0,-1,1840,1828,0,0
623,-804,0,0,0,0,0,0,0,0,0,-1,1847,1828,0,0
630,-804,0,0,0,0,0,0,0,0,0,-1,1854,1828,0,0
637,-804,0,0,0,0,0,0,0,0,0,-1,1861,1828,0,0
644,-804,0,0,0,0,0,0,0,0,0,-1,1868,1828,0,0
651,-804,0,0,0,0,0,0,0,0,0,-1,1875,1828,0,0
658,-804,0,0,0,0,0,0,0,0,0,-1,1882,1828,0,0
665,-804,0,0,0,0,0,0,0,0,0,-1,1889,1828,0,0
672,-804,0,0,0,0,0,0,0,0,0,-1,1896,1828,0,0
679,-804,0,0,0,0,0,0,0,0,0,-1,1903,1828,0,0
686,-804,0,0,0,0,0,0,0,0,0,-1,1910,1828,0,0
693,-804,0,0,0,0,0,0,0,0,0,-1,1917,1828,0,0
700,-804,0,0,0,0,0,0,0,0,0,-1,1924,1828,0,0
707,-804,0,0,0,0,0,0,0,0,0,-1,1931,1828,0,0
714,-804,0,0,0,0,0,0,0,0,0,-1,1938,1828,0,0
721,-804,0,0,0,0,0,0,0,0,0,-1,1945,1828,0,0
728,-804,0,0,0,0,0,0,0,0,0,-1,1952,1828,0,0
735,-804,0,0,0,0,0,0,0,0,0,-1,1959,1828,0,0
742,-804,0,0,0,0,0,0,0,0,0,-1,1966,1828,0,0
749,-804,0,0,0,0,0,0,0,0,0,-1,1973,1828,0,0
756,-804,0,0,0,0,0,0,0,0,0,-1,1980,1828,0,0
763,-804,0,0,0,0,0,0,0,0,0,-1,1987,1828,0,0
770,-804,0,0,0,0,0,0,0,0,0,-1,1994,1828,0,0
777,-804,0,0,0,0,0,0,0,0,0,-1,2001,1828,0,0
784,-804,0,0,0,0,0,0,0,0,0,-1,2008,1828,0,0
791,-804,0,0,0,0,0,0,0,0,0,-1,2015,1828,0,0
798,-804,0,0,0,0,0,0,0,0,0,-1,2022,1828,0,0
805,-804,0,0,0,0,0,0,0,0,0,-1,2029,1828,0,0
812,-804,0,0,0,0,0,0,0,0,0,-1,2036,1828,0,0

