 "x_c",  "y_c",  "u_c",  "v_c",  "exx",  "eyy",  "exy",  "e1",  "e2",  "gamma",  "e_vonmises",  "sigma",  "x",  "y",  "u",  "v"
-700,715,0,0,0,0,0,0,0,0,0,-1,524,309,0,0
-693,715,0,0,0,0,0,0,0,0,0,-1,531,309,0,0
-686,715,0,0,0,0,0,0,0,0,0,-1,538,309,0,0
-679,715,0,0,0,0,0,0,0,0,0,-1,545,309,0,0
-672,715,0,0,0,0,0,0,0,0,0,-1,552,309,0,0
-665,715,0,0,0,0,0,0,0,0,0,-1,559,309,0,0
-658,715,0,0,0,0,0,0,0,0,0,-1,566,309,0,0
-651,715,0,0,0,0,0,0,0,0,0,-1,573,309,0,0
-644,715,0,0,0,0,0,0,0,0,0,-1,580,309,0,0
-637,715,0,0,0,0,0,0,0,0,0,-1,587,309,0,0
-630,715,0,0,0,0,0,0,0,0,0,-1,594,309,0,0
-623,715,0,0,0,0,0,0,0,0,0,-1,601,309,0,0
-616,715,0,0,0,0,0,0,0,0,0,-1,608,309,0,0
-609,715,0,0,0,0,0,0,0,0,0,-1,615,309,0,0
-602,715,0,0,0,0,0,0,0,0,0,-1,622,309,0,0
-595,715,0,0,0,0,0,0,0,0,0,-1,629,309,0,0
-588,715,0,0,0,0,0,0,0,0,0,-1,636,309,0,0
-581,715,0,0,0,0,0,0,0,0,0,-1,643,309,0,0
-574,715,0,0,0,0,0,0,0,0,0,-1,650,309,0,0
-567,715,0,0,0,0,0,0,0,0,0,-1,657,309,0,0
-560,715,0,0,0,0,0,0,0,0,0,-1,664,309,0,0
-553,715,0,0,0,0,0,0,0,0,0,-1,671,309,0,0
-546,715,0,0,0,0,0,0,0,0,0,-1,678,309,0,0
-539,715,0,0,0,0,0,0,0,0,0,-1,685,309,0,0
-532,715,0,0,0,0,0,0,0,0,0,-1,692,309,0,0
-525,715,0,0,0,0,0,0,0,0,0,-1,699,309,0,0
-518,715,0,0,0,0,0,0,0,0,0,-1,706,309,0,0
-511,715,0,0,0,0,0,0,0,0,0,-1,713,309,0,0
-504,715,0,0,0,0,0,0,0,0,0,-1,720,309,0,0
-497,715,0,0,0,0,0,0,0,0,0,-1,727,309,0,0
-490,715,0,0,0,0,0,0,0,0,0,-1,734,309,0,0
-483,715,0,0,0,0,0,0,0,0,0,-1,741,309,0,0
-476,715,0,0,0,0,0,0,0,0,0,-1,748,309,0,0
-469,715,0,0,0,0,0,0,0,0,0,-1,755,309,0,0
-462,715,0,0,0,0,0,0,0,0,0,-1,762,309,0,0
-455,715,0,0,0,0,0,0,0,0,0,-1,769,309,0,0
-448,715,0,0,0,0,0,0,0,0,0,-1,776,309,0,0
-441,715,0,0,0,0,0,0,0,0,0,-1,783,309,0,0
-434,715,0,0,0,0,0,0,0,0,0,-1,790,309,0,0
-427,715,0,0,0,0,0,0,0,0,0,-1,797,309,0,0
-420,715,0,0,0,0,0,0,0,0,0,-1,804,309,0,0
-413,715,0,0,0,0,0,0,0,0,0,-1,811,309,0,0
-406,715,0,0,0,0,0,0,0,0,0,-1,818,309,0,0
-399,715,0,0,0,0,0,0,0,0,0,-1,825,309,0,0
-392,715,0,0,0,0,0,0,0,0,0,-1,832,309,0,0
-385,715,0,0,0,0,0,0,0,0,0,-1,839,309,0,0
-378,715,0,0,0,0,0,0,0,0,0,-1,846,309,0,0
-371,715,0,0,0,0,0,0,0,0,0,-1,853,309,0,0
-364,715,0,0,0,0,0,0,0,0,0,-1,860,309,0,0
-357,715,0,0,0,0,0,0,0,0,0,-1,867,309,0,0
-350,715,0,0,0,0,0,0,0,0,0,-1,874,309,0,0
-343,715,0,0,0,0,0,0,0,0,0,-1,881,309,0,0
-336,715,0,0,0,0,0,0,0,0,0,-1,888,309,0,0
-329,715,0,0,0,0,0,0,0,0,0,-1,895,309,0,0
-322,715,0,0,0,0,0,0,0,0,0,-1,902,309,0,0
-315,715,0,0,0,0,0,0,0,0,0,-1,909,309,0,0
-308,715,0,0,0,0,0,0,0,0,0,-1,916,309,0,0
-301,715,0,0,0,0,0,0,0,0,0,-1,923,309,0,0
-294,715,0,0,0,0,0,0,0,0,0,-1,930,309,0,0
-287,715,0,0,0,0,0,0,0,0,0,-1,937,309,0,0
-280,715,0,0,0,0,0,0,0,0,0,-1,944,309,0,0
-273,715,0,0,0,0,0,0,0,0,0,-1,951,309,0,0
-266,715,0,0,0,0,0,0,0,0,0,-1,958,309,0,0
-259,715,0,0,0,0,0,0,0,0,0,-1,965,309,0,0
-252,715,0,0,0,0,0,0,0,0,0,-1,972,309,0,0
-245,715,0,0,0,0,0,0,0,0,0,-1,979,309,0,0
-238,715,0,0,0,0,0,0,0,0,0,-1,986,309,0,0
-231,715,0,0,0,0,0,0,0,0,0,-1,993,309,0,0
-224,715,0,0,0,0,0,0,0,0,0,-1,1000,309,0,0
-217,715,0,0,0,0,0,0,0,0,0,-1,1007,309,0,0
-210,715,0,0,0,0,0,0,0,0,0,-1,1014,309,0,0
-203,715,0,0,0,0,0,0,0,0,0,-1,1021,309,0,0
-196,715,0,0,0,0,0,0,0,0,0,-1,1028,309,0,0
-189,715,0,0,0,0,0,0,0,0,0,-1,1035,309,0,0
-182,715,0,0,0,0,0,0,0,0,0,-1,1042,309,0,0
-175,715,0,0,0,0,0,0,0,0,0,-1,1049,309,0,0
-168,715,0,0,0,0,0,0,0,0,0,-1,1056,309,0,0
-161,715,0,0,0,0,0,0,0,0,0,-1,1063,309,0,0
-154,715,0,0,0,0,0,0,0,0,0,-1,1070,309,0,0
-147,715,0,0,0,0,0,0,0,0,0,-1,1077,309,0,0
-140,715,0,0,0,0,0,0,0,0,0,-1,1084,309,0,0
-133,715,0,0,0,0,0,0,0,0,0,-1,1091,309,0,0
-126,715,0,0,0,0,0,0,0,0,0,-1,1098,309,0,0
-119,715,0,0,0,0,0,0,0,0,0,-1,1105,309,0,0
-112,715,0,0,0,0,0,0,0,0,0,-1,1112,309,0,0
-105,715,0,0,0,0,0,0,0,0,0,-1,1119,309,0,0
-98,715,0,0,0,0,0,0,0,0,0,-1,1126,309,0,0
-91,715,0,0,0,0,0,0,0,0,0,-1,1133,309,0,0
-84,715,0,0,0,0,0,0,0,0,0,-1,1140,309,0,0
-77,715,0,0,0,0,0,0,0,0,0,-1,1147,309,0,0
-70,715,0,0,0,0,0,0,0,0,0,-1,1154,309,0,0
-63,715,0,0,0,0,0,0,0,0,0,-1,1161,309,0,0
-56,715,0,0,0,0,0,0,0,0,0,-1,1168,309,0,0
-49,715,0,0,0,0,0,0,0,0,0,-1,1175,309,0,0
-42,715,0,0,0,0,0,0,0,0,0,-1,1182,309,0,0
-35,715,0,0,0,0,0,0,0,0,0,-1,1189,309,0,0
-28,715,0,0,0,0,0,0,0,0,0,-1,1196,309,0,0
-21,715,0,0,0,0,0,0,0,0,0,-1,1203,309,0,0
-14,715,0,0,0,0,0,0,0,0,0,-1,1210,309,0,0
-7,715,0,0,0,0,0,0,0,0,0,-1,1217,309,0,0
0,715,0,0,0,0,0,0,0,0,0,-1,1224,309,0,0
7,715,0,0,0,0,0,0,0,0,0,-1,1231,309,0,0
14,715,0,0,0,0,0,0,0,0,0,-1,1238,309,0,0
21,715,0,0,0,0,0,0,0,0,0,-1,1245,309,0,0
28,715,0,0,0,0,0,0,0,0,0,-1,1252,309,0,0
35,715,0,0,0,0,0,0,0,0,0,-1,1259,309,0,0
42,715,0,0,0,0,0,0,0,0,0,-1,1266,309,0,0
49,715,0,0,0,0,0,0,0,0,0,-1,1273,309,0,0
56,715,0,0,0,0,0,0,0,0,0,-1,1280,309,0,0
63,715,4.14795,-22.0207,0,0,0,0,0,0,0,-1,1287,309,4.1479,22.0207
70,715,-0.0875244,-23.2944,0,0,0,0,0,0,0,-1,1294,309,-0.0875828,23.2944
77,715,0,0,0,0,0,0,0,0,0,-1,1301,309,0,0
84,715,0,0,0,0,0,0,0,0,0,-1,1308,309,0,0
91,715,0,0,0,0,0,0,0,0,0,-1,1315,309,0,0
98,715,0,0,0,0,0,0,0,0,0,-1,1322,309,0,0
105,715,0,0,0,0,0,0,0,0,0,-1,1329,309,0,0
112,715,0,0,0,0,0,0,0,0,0,-1,1336,309,0,0
119,715,0,0,0,0,0,0,0,0,0,-1,1343,309,0,0
126,715,0,0,0,0,0,0,0,0,0,-1,1350,309,0,0
133,715,0,0,0,0,0,0,0,0,0,-1,1357,309,0,0
140,715,0,0,0,0,0,0,0,0,0,-1,1364,309,0,0
147,715,0,0,0,0,0,0,0,0,0,-1,1371,309,0,0
154,715,0,0,0,0,0,0,0,0,0,-1,1378,309,0,0
161,715,0,0,0,0,0,0,0,0,0,-1,1385,309,0,0
168,715,0,0,0,0,0,0,0,0,0,-1,1392,309,0,0
175,715,0,0,0,0,0,0,0,0,0,-1,1399,309,0,0
182,715,0,0,0,0,0,0,0,0,0,-1,1406,309,0,0
189,715,0,0,0,0,0,0,0,0,0,-1,1413,309,0,0
196,715,0,0,0,0,0,0,0,0,0,-1,1420,309,0,0
203,715,0,0,0,0,0,0,0,0,0,-1,1427,309,0,0
210,715,0,0,0,0,0,0,0,0,0,-1,1434,309,0,0
217,715,0,0,0,0,0,0,0,0,0,-1,1441,309,0,0
224,715,0,0,0,0,0,0,0,0,0,-1,1448,309,0,0
231,715,0,0,0,0,0,0,0,0,0,-1,1455,309,0,0
238,715,0,0,0,0,0,0,0,0,0,-1,1462,309,0,0
245,715,0,0,0,0,0,0,0,0,0,-1,1469,309,0,0
252,715,0,0,0,0,0,0,0,0,0,-1,1476,309,0,0
259,715,0,0,0,0,0,0,0,0,0,-1,1483,309,0,0
266,715,0,0,0,0,0,0,0,0,0,-1,1490,309,0,0
273,715,0,0,0,0,0,0,0,0,0,-1,1497,309,0,0
280,715,0,0,0,0,0,0,0,0,0,-1,1504,309,0,0
287,715,0,0,0,0,0,0,0,0,0,-1,1511,309,0,0
294,715,0,0,0,0,0,0,0,0,0,-1,1518,309,0,0
301,715,0,0,0,0,0,0,0,0,0,-1,1525,309,0,0
308,715,0,0,0,0,0,0,0,0,0,-1,1532,309,0,0
315,715,0,0,0,0,0,0,0,0,0,-1,1539,309,0,0
322,715,0,0,0,0,0,0,0,0,0,-1,1546,309,0,0
329,715,0,0,0,0,0,0,0,0,0,-1,1553,309,0,0
336,715,0,0,0,0,0,0,0,0,0,-1,1560,309,0,0
343,715,0,0,0,0,0,0,0,0,0,-1,1567,309,0,0
350,715,0,0,0,0,0,0,0,0,0,-1,1574,309,0,0
357,715,0,0,0,0,0,0,0,0,0,-1,1581,309,0,0
364,715,0,0,0,0,0,0,0,0,0,-1,1588,309,0,0
371,715,0,0,0,0,0,0,0,0,0,-1,1595,309,0,0
378,715,0,0,0,0,0,0,0,0,0,-1,1602,309,0,0
385,715,0,0,0,0,0,0,0,0,0,-1,1609,309,0,0
392,715,0,0,0,0,0,0,0,0,0,-1,1616,309,0,0
399,715,0,0,0,0,0,0,0,0,0,-1,1623,309,0,0
406,715,0,0,0,0,0,0,0,0,0,-1,1630,309,0,0
413,715,0,0,0,0,0,0,0,0,0,-1,1637,309,0,0
420,715,0,0,0,0,0,0,0,0,0,-1,1644,309,0,0
427,715,0,0,0,0,0,0,0,0,0,-1,1651,309,0,0
434,715,0,0,0,0,0,0,0,0,0,-1,1658,309,0,0
441,715,0,0,0,0,0,0,0,0,0,-1,1665,309,0,0
448,715,0,0,0,0,0,0,0,0,0,-1,1672,309,0,0
455,715,0,0,0,0,0,0,0,0,0,-1,1679,309,0,0
462,715,0,0,0,0,0,0,0,0,0,-1,1686,309,0,0
469,715,0,0,0,0,0,0,0,0,0,-1,1693,309,0,0
476,715,0,0,0,0,0,0,0,0,0,-1,1700,309,0,0
483,715,0,0,0,0,0,0,0,0,0,-1,1707,309,0,0
490,715,0,0,0,0,0,0,0,0,0,-1,1714,309,0,0
497,715,0,0,0,0,0,0,0,0,0,-1,1721,309,0,0
504,715,0,0,0,0,0,0,0,0,0,-1,1728,309,0,0
511,715,0,0,0,0,0,0,0,0,0,-1,1735,309,0,0
518,715,0,0,0,0,0,0,0,0,0,-1,1742,309,0,0
525,715,0,0,0,0,0,0,0,0,0,-1,1749,309,0,0
532,715,0,0,0,0,0,0,0,0,0,-1,1756,309,0,0
539,715,0,0,0,0,0,0,0,0,0,-1,1763,309,0,0
546,715,0,0,0,0,0,0,0,0,0,-1,1770,309,0,0
553,715,0,0,0,0,0,0,0,0,0,-1,1777,309,0,0
560,715,0,0,0,0,0,0,0,0,0,-1,1784,309,0,0
567,715,0,0,0,0,0,0,0,0,0,-1,1791,309,0,0
574,715,0,0,0,0,0,0,0,0,0,-1,1798,309,0,0
581,715,0,0,0,0,0,0,0,0,0,-1,1805,309,0,0
588,715,0,0,0,0,0,0,0,0,0,-1,1812,309,0,0
595,715,0,0,0,0,0,0,0,0,0,-1,1819,309,0,0
602,715,0,0,0,0,0,0,0,0,0,-1,1826,309,0,0
609,715,0,0,0,0,0,0,0,0,0,-1,1833,309,0,0
616,715,0,0,0,0,0,0,0,0,0,-1,1840,309,0,0
623,715,0,0,0,0,0,0,0,0,0,-1,1847,309,0,0
630,715,0,0,0,0,0,0,0,0,0,-1,1854,309,0,0
637,715,0,0,0,0,0,0,0,0,0,-1,1861,309,0,0
644,715,0,0,0,0,0,0,0,0,0,-1,1868,309,0,0
651,715,0,0,0,0,0,0,0,0,0,-1,1875,309,0,0
658,715,0,0,0,0,0,0,0,0,0,-1,1882,309,0,0
665,715,0,0,0,0,0,0,0,0,0,-1,1889,309,0,0
672,715,0,0,0,0,0,0,0,0,0,-1,1896,309,0,0
679,715,0,0,0,0,0,0,0,0,0,-1,1903,309,0,0
686,715,0,0,0,0,0,0,0,0,0,-1,1910,309,0,0
693,715,0,0,0,0,0,0,0,0,0,-1,1917,309,0,0
700,715,0,0,0,0,0,0,0,0,0,-1,1924,309,0,0
707,715,0,0,0,0,0,0,0,0,0,-1,1931,309,0,0
714,715,0,0,0,0,0,0,0,0,0,-1,1938,309,0,0
721,715,0,0,0,0,0,0,0,0,0,-1,1945,309,0,0
728,715,0,0,0,0,0,0,0,0,0,-1,1952,309,0,0
735,715,0,0,0,0,0,0,0,0,0,-1,1959,309,0,0
742,715,0,0,0,0,0,0,0,0,0,-1,1966,309,0,0
749,715,0,0,0,0,0,0,0,0,0,-1,1973,309,0,0
756,715,0,0,0,0,0,0,0,0,0,-1,1980,309,0,0
763,715,0,0,0,0,0,0,0,0,0,-1,1987,309,0,0
770,715,0,0,0,0,0,0,0,0,0,-1,1994,309,0,0
777,715,0,0,0,0,0,0,0,0,0,-1,2001,309,0,0
784,715,0,0,0,0,0,0,0,0,0,-1,2008,309,0,0
791,715,0,0,0,0,0,0,0,0,0,-1,2015,309,0,0
798,715,0,0,0,0,0,0,0,0,0,-1,2022,309,0,0
805,715,0,0,0,0,0,0,0,0,0,-1,2029,309,0,0
812,715,0,0,0,0,0,0,0,0,0,-1,2036,309,0,0
-700,708,0,0,0,0,0,0,0,0,0,-1,524,316,0,0
-693,708,0,0,0,0,0,0,0,0,0,-1,531,316,0,0
-686,708,0,0,0,0,0,0,0,0,0,-1,538,316,0,0
-679,708,0,0,0,0,0,0,0,0,0,-1,545,316,0,0
-672,708,0,0,0,0,0,0,0,0,0,-1,552,316,0,0
-665,708,0,0,0,0,0,0,0,0,0,-1,559,316,0,0
-658,708,0,0,0,0,0,0,0,0,0,-1,566,316,0,0
-651,708,0,0,0,0,0,0,0,0,0,-1,573,316,0,0
-644,708,0,0,0,0,0,0,0,0,0,-1,580,316,0,0
-637,708,0,0,0,0,0,0,0,0,0,-1,587,316,0,0
-630,708,0,0,0,0,0,0,0,0,0,-1,594,316,0,0
-623,708,0,0,0,0,0,0,0,0,0,-1,601,316,0,0
-616,708,0,0,0,0,0,0,0,0,0,-1,608,316,0,0
-609,708,0,0,0,0,0,0,0,0,0,-1,615,316,0,0
-602,708,0,0,0,0,0,0,0,0,0,-1,622,316,0,0
-595,708,0,0,0,0,0,0,0,0,0,-1,629,316,0,0
-588,708,0,0,0,0,0,0,0,0,0,-1,636,316,0,0
-581,708,0,0,0,0,0,0,0,0,0,-1,643,316,0,0
-574,708,0,0,0,0,0,0,0,0,0,-1,650,316,0,0
-567,708,0,0,0,0,0,0,0,0,0,-1,657,316,0,0
-560,708,0,0,0,0,0,0,0,0,0,-1,664,316,0,0
-553,708,0,0,0,0,0,0,0,0,0,-1,671,316,0,0
-546,708,0,0,0,0,0,0,0,0,0,-1,678,316,0,0
-539,708,0,0,0,0,0,0,0,0,0,-1,685,316,0,0
-532,708,0,0,0,0,0,0,0,0,0,-1,692,316,0,0
-525,708,0,0,0,0,0,0,0,0,0,-1,699,316,0,0
-518,708,0,0,0,0,0,0,0,0,0,-1,706,316,0,0
-511,708,0,0,0,0,0,0,0,0,0,-1,713,316,0,0
-504,708,0,0,0,0,0,0,0,0,0,-1,720,316,0,0
-497,708,0,0,0,0,0,0,0,0,0,-1,727,316,0,0
-490,708,0,0,0,0,0,0,0,0,0,-1,734,316,0,0
-483,708,0,0,0,0,0,0,0,0,0,-1,741,316,0,0
-476,708,0,0,0,0,0,0,0,0,0,-1,748,316,0,0
-469,708,0,0,0,0,0,0,0,0,0,-1,755,316,0,0
-462,708,0,0,0,0,0,0,0,0,0,-1,762,316,0,0
-455,708,0,0,0,0,0,0,0,0,0,-1,769,316,0,0
-448,708,0,0,0,0,0,0,0,0,0,-1,776,316,0,0
-441,708,0,0,0,0,0,0,0,0,0,-1,783,316,0,0
-434,708,0,0,0,0,0,0,0,0,0,-1,790,316,0,0
-427,708,0,0,0,0,0,0,0,0,0,-1,797,316,0,0
-420,708,0,0,0,0,0,0,0,0,0,-1,804,316,0,0
-413,708,0,0,0,0,0,0,0,0,0,-1,811,316,0,0
-406,708,0,0,0,0,0,0,0,0,0,-1,818,316,0,0
-399,708,0,0,0,0,0,0,0,0,0,-1,825,316,0,0
-392,708,0,0,0,0,0,0,0,0,0,-1,832,316,0,0
-385,708,0,0,0,0,0,0,0,0,0,-1,839,316,0,0
-378,708,0,0,0,0,0,0,0,0,0,-1,846,316,0,0
-371,708,0,0,0,0,0,0,0,0,0,-1,853,316,0,0
-364,708,0,0,0,0,0,0,0,0,0,-1,860,316,0,0
-357,708,0,0,0,0,0,0,0,0,0,-1,867,316,0,0
-350,708,0,0,0,0,0,0,0,0,0,-1,874,316,0,0
-343,708,0,0,0,0,0,0,0,0,0,-1,881,316,0,0
-336,708,0,0,0,0,0,0,0,0,0,-1,888,316,0,0
-329,708,0,0,0,0,0,0,0,0,0,-1,895,316,0,0
-322,708,0,0,0,0,0,0,0,0,0,-1,902,316,0,0
-315,708,0,0,0,0,0,0,0,0,0,-1,909,316,0,0
-308,708,0,0,0,0,0,0,0,0,0,-1,916,316,0,0
-301,708,0,0,0,0,0,0,0,0,0,-1,923,316,0,0
-294,708,0,0,0,0,0,0,0,0,0,-1,930,316,0,0
-287,708,0,0,0,0,0,0,0,0,0,-1,937,316,0,0
-280,708,0,0,0,0,0,0,0,0,0,-1,944,316,0,0
-273,708,0,0,0,0,0,0,0,0,0,-1,951,316,0,0
-266,708,0,0,0,0,0,0,0,0,0,-1,958,316,0,0
-259,708,0,0,0,0,0,0,0,0,0,-1,965,316,0,0
-252,708,0,0,0,0,0,0,0,0,0,-1,972,316,0,0
-245,708,0,0,0,0,0,0,0,0,0,-1,979,316,0,0
-238,708,0,0,0,0,0,0,0,0,0,-1,986,316,0,0
-231,708,0,0,0,0,0,0,0,0,0,-1,993,316,0,0
-224,708,0,0,0,0,0,0,0,0,0,-1,1000,316,0,0
-217,708,0,0,0,0,0,0,0,0,0,-1,1007,316,0,0
-210,708,0,0,0,0,0,0,0,0,0,-1,1014,316,0,0
-203,708,0,0,0,0,0,0,0,0,0,-1,1021,316,0,0
-196,708,0,0,0,0,0,0,0,0,0,-1,1028,316,0,0
-189,708,0,0,0,0,0,0,0,0,0,-1,1035,316,0,0
-182,708,0,0,0,0,0,0,0,0,0,-1,1042,316,0,0
-175,708,0,0,0,0,0,0,0,0,0,-1,1049,316,0,0
-168,708,0,0,0,0,0,0,0,0,0,-1,1056,316,0,0
-161,708,0,0,0,0,0,0,0,0,0,-1,1063,316,0,0
-154,708,0,0,0,0,0,0,0,0,0,-1,1070,316,0,0
-147,708,0,0,0,0,0,0,0,0,0,-1,1077,316,0,0
-140,708,0,0,0,0,0,0,0,0,0,-1,1084,316,0,0
-133,708,0,0,0,0,0,0,0,0,0,-1,1091,316,0,0
-126,708,0,0,0,0,0,0,0,0,0,-1,1098,316,0,0
-119,708,0,0,0,0,0,0,0,0,0,-1,1105,316,0,0
-112,708,0,0,0,0,0,0,0,0,0,-1,1112,316,0,0
-105,708,0,0,0,0,0,0,0,0,0,-1,1119,316,0,0
-98,708,0,0,0,0,0,0,0,0,0,-1,1126,316,0,0
-91,708,0,0,0,0,0,0,0,0,0,-1,1133,316,0,0
-84,708,0,0,0,0,0,0,0,0,0,-1,1140,316,0,0
-77,708,0,0,0,0,0,0,0,0,0,-1,1147,316,0,0
-70,708,0,0,0,0,0,0,0,0,0,-1,1154,316,0,0
-63,708,0,0,0,0,0,0,0,0,0,-1,1161,316,0,0
-56,708,0,0,0,0,0,0,0,0,0,-1,1168,316,0,0
-49,708,0,0,0,0,0,0,0,0,0,-1,1175,316,0,0
-42,708,0,0,0,0,0,0,0,0,0,-1,1182,316,0,0
-35,708,-2.71204,-6.31558,0,0,0,0,0,0,0,-1,1189,316,-2.712,6.3156
-28,708,-2.92371,-5.53253,0,0,0,0,0,0,0,-1,1196,316,-2.92375,5.53254
-21,708,-19.7781,-6.86209,0,0,0,0,0,0,0,-1,1203,316,-19.7781,6.86209
-14,708,4.25586,-20.4009,0,0,0,0,0,0,0,-1,1210,316,4.25585,20.4009
-7,708,4.25366,-26.8398,0,0,0,0,0,0,0,-1,1217,316,4.25364,26.8398
0,708,2.6001,-26.0878,0,0,0,0,0,0,0,-1,1224,316,2.60008,26.0878
7,708,3.06885,-25.2347,0,0,0,0,0,0,0,-1,1231,316,3.06888,25.2347
14,708,2.99158,-23.5483,0,0,0,0,0,0,0,-1,1238,316,2.9916,23.5483
21,708,0.678223,-23.5404,0,0,0,0,0,0,0,-1,1245,316,0.678168,23.5404
28,708,4.19434,-22.0472,0,0,0,0,0,0,0,-1,1252,316,4.19432,22.0472
35,708,4.44568,-22.3613,-0.00840221,-0.000618106,0.018297,0.0141962,-0.0232165,0.890194,0.0218085,0.0477399,1259,316,4.44568,22.3613
42,708,4.27087,-22.1936,-0.00629539,-0.00391073,0.0114665,0.00642523,-0.0166314,0.837204,0.0137396,0.043098,1266,316,4.27086,22.1936
49,708,4.27039,-22.2585,-0.0024946,-0.00674681,0.00595044,0.00169816,-0.0109396,0.613816,0.00792002,0.0422241,1273,316,4.27042,22.2585
56,708,4.09741,-22.2916,0.0064062,-0.0118766,0.00386079,0.00718804,-0.0126585,0.199808,0.0116026,0.0418136,1280,316,4.09737,22.2916
63,708,4.12952,-22.0689,0.0155749,-0.0164391,-0.000396475,0.0155798,-0.016444,-0.0123819,0.0184912,0.0437972,1287,316,4.12949,22.0689
70,708,4.04468,-21.9693,0,0,0,0,0,0,0,-1,1294,316,4.04468,21.9693
77,708,1.44177,-24.7541,0,0,0,0,0,0,0,-1,1301,316,1.44182,24.7541
84,708,1.62122,-25.0989,0,0,0,0,0,0,0,-1,1308,316,1.6212,25.0989
91,708,-0.200562,-20.5715,0,0,0,0,0,0,0,-1,1315,316,-0.200556,20.5715
98,708,0.457397,-20.9612,0,0,0,0,0,0,0,-1,1322,316,0.45745,20.9613
105,708,1.13708,-21.3058,0.0810008,-0.0294738,0.0121311,0.0823172,-0.0307902,0.108093,0.0675236,0.0488711,1329,316,1.13707,21.3058
112,708,1.82678,-21.6831,0.0886977,-0.0303056,0.013912,0.0903024,-0.0319104,0.114841,0.073195,0.0478374,1336,316,1.82676,21.6831
119,708,2.35278,-22.0945,0.0924883,-0.0316424,0.0154034,0.0943711,-0.0335252,0.121632,0.0765758,0.0458602,1343,316,2.35278,22.0945
126,708,3.24329,-22.5973,0.0884772,-0.0286835,0.0188484,0.0914348,-0.0316411,0.155646,0.0738003,0.046072,1350,316,3.24324,22.5973
133,708,4.12,-23.0745,0.0823991,-0.0268615,0.0233595,0.0871837,-0.0316461,0.202032,0.0710603,0.0474501,1357,316,4.12004,23.0745
140,708,3.43933,-22.5738,0.0731256,-0.0258684,0.029175,0.0810841,-0.0338268,0.266305,0.0681883,0.0483112,1364,316,3.43934,22.5738
147,708,3.87048,-22.7777,0.0602291,-0.0273366,0.0369198,0.0737177,-0.0408252,0.35028,0.0670341,0.0463594,1371,316,3.87044,22.7777
154,708,0,0,0,0,0,0,0,0,0,-1,1378,316,0,0
161,708,0,0,0,0,0,0,0,0,0,-1,1385,316,0,0
168,708,0,0,0,0,0,0,0,0,0,-1,1392,316,0,0
175,708,0,0,0,0,0,0,0,0,0,-1,1399,316,0,0
182,708,0,0,0,0,0,0,0,0,0,-1,1406,316,0,0
189,708,0,0,0,0,0,0,0,0,0,-1,1413,316,0,0
196,708,0,0,0,0,0,0,0,0,0,-1,1420,316,0,0
203,708,0,0,0,0,0,0,0,0,0,-1,1427,316,0,0
210,708,0,0,0,0,0,0,0,0,0,-1,1434,316,0,0
217,708,0,0,0,0,0,0,0,0,0,-1,1441,316,0,0
224,708,0,0,0,0,0,0,0,0,0,-1,1448,316,0,0
231,708,0,0,0,0,0,0,0,0,0,-1,1455,316,0,0
238,708,0,0,0,0,0,0,0,0,0,-1,1462,316,0,0
245,708,0,0,0,0,0,0,0,0,0,-1,1469,316,0,0
252,708,0,0,0,0,0,0,0,0,0,-1,1476,316,0,0
259,708,0,0,0,0,0,0,0,0,0,-1,1483,316,0,0
266,708,0,0,0,0,0,0,0,0,0,-1,1490,316,0,0
273,708,0,0,0,0,0,0,0,0,0,-1,1497,316,0,0
280,708,0,0,0,0,0,0,0,0,0,-1,1504,316,0,0
287,708,0,0,0,0,0,0,0,0,0,-1,1511,316,0,0
294,708,0,0,0,0,0,0,0,0,0,-1,1518,316,0,0
301,708,0,0,0,0,0,0,0,0,0,-1,1525,316,0,0
308,708,0,0,0,0,0,0,0,0,0,-1,1532,316,0,0
315,708,0,0,0,0,0,0,0,0,0,-1,1539,316,0,0
322,708,0,0,0,0,0,0,0,0,0,-1,1546,316,0,0
329,708,0,0,0,0,0,0,0,0,0,-1,1553,316,0,0
336,708,0,0,0,0,0,0,0,0,0,-1,1560,316,0,0
343,708,0,0,0,0,0,0,0,0,0,-1,1567,316,0,0
350,708,0,0,0,0,0,0,0,0,0,-1,1574,316,0,0
357,708,0,0,0,0,0,0,0,0,0,-1,1581,316,0,0
364,708,0,0,0,0,0,0,0,0,0,-1,1588,316,0,0
371,708,0,0,0,0,0,0,0,0,0,-1,1595,316,0,0
378,708,0,0,0,0,0,0,0,0,0,-1,1602,316,0,0
385,708,0,0,0,0,0,0,0,0,0,-1,1609,316,0,0
392,708,0,0,0,0,0,0,0,0,0,-1,1616,316,0,0
399,708,0,0,0,0,0,0,0,0,0,-1,1623,316,0,0
406,708,0,0,0,0,0,0,0,0,0,-1,1630,316,0,0
413,708,0,0,0,0,0,0,0,0,0,-1,1637,316,0,0
420,708,0,0,0,0,0,0,0,0,0,-1,1644,316,0,0
427,708,0,0,0,0,0,0,0,0,0,-1,1651,316,0,0
434,708,0,0,0,0,0,0,0,0,0,-1,1658,316,0,0
441,708,0,0,0,0,0,0,0,0,0,-1,1665,316,0,0
448,708,0,0,0,0,0,0,0,0,0,-1,1672,316,0,0
455,708,0,0,0,0,0,0,0,0,0,-1,1679,316,0,0
462,708,0,0,0,0,0,0,0,0,0,-1,1686,316,0,0
469,708,0,0,0,0,0,0,0,0,0,-1,1693,316,0,0
476,708,0,0,0,0,0,0,0,0,0,-1,1700,316,0,0
483,708,0,0,0,0,0,0,0,0,0,-1,1707,316,0,0
490,708,0,0,0,0,0,0,0,0,0,-1,1714,316,0,0
497,708,0,0,0,0,0,0,0,0,0,-1,1721,316,0,0
504,708,0,0,0,0,0,0,0,0,0,-1,1728,316,0,0
511,708,0,0,0,0,0,0,0,0,0,-1,1735,316,0,0
518,708,0,0,0,0,0,0,0,0,0,-1,1742,316,0,0
525,708,0,0,0,0,0,0,0,0,0,-1,1749,316,0,0
532,708,0,0,0,0,0,0,0,0,0,-1,1756,316,0,0
539,708,0,0,0,0,0,0,0,0,0,-1,1763,316,0,0
546,708,0,0,0,0,0,0,0,0,0,-1,1770,316,0,0
553,708,0,0,0,0,0,0,0,0,0,-1,1777,316,0,0
560,708,0,0,0,0,0,0,0,0,0,-1,1784,316,0,0
567,708,0,0,0,0,0,0,0,0,0,-1,1791,316,0,0
574,708,0,0,0,0,0,0,0,0,0,-1,1798,316,0,0
581,708,0,0,0,0,0,0,0,0,0,-1,1805,316,0,0
588,708,0,0,0,0,0,0,0,0,0,-1,1812,316,0,0
595,708,0,0,0,0,0,0,0,0,0,-1,1819,316,0,0
602,708,0,0,0,0,0,0,0,0,0,-1,1826,316,0,0
609,708,0,0,0,0,0,0,0,0,0,-1,1833,316,0,0
616,708,0,0,0,0,0,0,0,0,0,-1,1840,316,0,0
623,708,0,0,0,0,0,0,0,0,0,-1,1847,316,0,0
630,708,0,0,0,0,0,0,0,0,0,-1,1854,316,0,0
637,708,0,0,0,0,0,0,0,0,0,-1,1861,316,0,0
644,708,0,0,0,0,0,0,0,0,0,-1,1868,316,0,0
651,708,0,0,0,0,0,0,0,0,0,-1,1875,316,0,0
658,708,0,0,0,0,0,0,0,0,0,-1,1882,316,0,0
665,708,0,0,0,0,0,0,0,0,0,-1,1889,316,0,0
672,708,0,0,0,0,0,0,0,0,0,-1,1896,316,0,0
679,708,0,0,0,0,0,0,0,0,0,-1,1903,316,0,0
686,708,0,0,0,0,0,0,0,0,0,-1,1910,316,0,0
693,708,0,0,0,0,0,0,0,0,0,-1,1917,316,0,0
700,708,0,0,0,0,0,0,0,0,0,-1,1924,316,0,0
707,708,0,0,0,0,0,0,0,0,0,-1,1931,316,0,0
714,708,0,0,0,0,0,0,0,0,0,-1,1938,316,0,0
721,708,0,0,0,0,0,0,0,0,0,-1,1945,316,0,0
728,708,0,0,0,0,0,0,0,0,0,-1,1952,316,0,0
735,708,0,0,0,0,0,0,0,0,0,-1,1959,316,0,0
742,708,0,0,0,0,0,0,0,0,0,-1,1966,316,0,0
749,708,0,0,0,0,0,0,0,0,0,-1,1973,316,0,0
756,708,0,0,0,0,0,0,0,0,0,-1,1980,316,0,0
763,708,0,0,0,0,0,0,0,0,0,-1,1987,316,0,0
770,708,0,0,0,0,0,0,0,0,0,-1,1994,316,0,0
777,708,0,0,0,0,0,0,0,0,0,-1,2001,316,0,0
784,708,0,0,0,0,0,0,0,0,0,-1,2008,316,0,0
791,708,0,0,0,0,0,0,0,0,0,-1,2015,316,0,0
798,708,0,0,0,0,0,0,0,0,0,-1,2022,316,0,0
805,708,0,0,0,0,0,0,0,0,0,-1,2029,316,0,0
812,708,0,0,0,0,0,0,0,0,0,-1,2036,316,0,0
-700,701,0,0,0,0,0,0,0,0,0,-1,524,323,0,0
-693,701,0,0,0,0,0,0,0,0,0,-1,531,323,0,0
-686,701,0,0,0,0,0,0,0,0,0,-1,538,323,0,0
-679,701,0,0,0,0,0,0,0,0,0,-1,545,323,0,0
-672,701,0,0,0,0,0,0,0,0,0,-1,552,323,0,0
-665,701,0,0,0,0,0,0,0,0,0,-1,559,323,0,0
-658,701,0,0,0,0,0,0,0,0,0,-1,566,323,0,0
-651,701,0,0,0,0,0,0,0,0,0,-1,573,323,0,0
-644,701,0,0,0,0,0,0,0,0,0,-1,580,323,0,0
-637,701,0,0,0,0,0,0,0,0,0,-1,587,323,0,0
-630,701,0,0,0,0,0,0,0,0,0,-1,594,323,0,0
-623,701,0,0,0,0,0,0,0,0,0,-1,601,323,0,0
-616,701,0,0,0,0,0,0,0,0,0,-1,608,323,0,0
-609,701,0,0,0,0,0,0,0,0,0,-1,615,323,0,0
-602,701,0,0,0,0,0,0,0,0,0,-1,622,323,0,0
-595,701,0,0,0,0,0,0,0,0,0,-1,629,323,0,0
-588,701,0,0,0,0,0,0,0,0,0,-1,636,323,0,0
-581,701,0,0,0,0,0,0,0,0,0,-1,643,323,0,0
-574,701,0,0,0,0,0,0,0,0,0,-1,650,323,0,0
-567,701,0,0,0,0,0,0,0,0,0,-1,657,323,0,0
-560,701,0,0,0,0,0,0,0,0,0,-1,664,323,0,0
-553,701,0,0,0,0,0,0,0,0,0,-1,671,323,0,0
-546,701,0,0,0,0,0,0,0,0,0,-1,678,323,0,0
-539,701,0,0,0,0,0,0,0,0,0,-1,685,323,0,0
-532,701,0,0,0,0,0,0,0,0,0,-1,692,323,0,0
-525,701,0,0,0,0,0,0,0,0,0,-1,699,323,0,0
-518,701,0,0,0,0,0,0,0,0,0,-1,706,323,0,0
-511,701,0,0,0,0,0,0,0,0,0,-1,713,323,0,0
-504,701,0,0,0,0,0,0,0,0,0,-1,720,323,0,0
-497,701,0,0,0,0,0,0,0,0,0,-1,727,323,0,0
-490,701,0,0,0,0,0,0,0,0,0,-1,734,323,0,0
-483,701,0,0,0,0,0,0,0,0,0,-1,741,323,0,0
-476,701,0,0,0,0,0,0,0,0,0,-1,748,323,0,0
-469,701,0,0,0,0,0,0,0,0,0,-1,755,323,0,0
-462,701,0,0,0,0,0,0,0,0,0,-1,762,323,0,0
-455,701,0,0,0,0,0,0,0,0,0,-1,769,323,0,0
-448,701,0,0,0,0,0,0,0,0,0,-1,776,323,0,0
-441,701,0,0,0,0,0,0,0,0,0,-1,783,323,0,0
-434,701,0,0,0,0,0,0,0,0,0,-1,790,323,0,0
-427,701,0,0,0,0,0,0,0,0,0,-1,797,323,0,0
-420,701,0,0,0,0,0,0,0,0,0,-1,804,323,0,0
-413,701,0,0,0,0,0,0,0,0,0,-1,811,323,0,0
-406,701,0,0,0,0,0,0,0,0,0,-1,818,323,0,0
-399,701,0,0,0,0,0,0,0,0,0,-1,825,323,0,0
-392,701,0,0,0,0,0,0,0,0,0,-1,832,323,0,0
-385,701,0,0,0,0,0,0,0,0,0,-1,839,323,0,0
-378,701,0,0,0,0,0,0,0,0,0,-1,846,323,0,0
-371,701,0,0,0,0,0,0,0,0,0,-1,853,323,0,0
-364,701,0,0,0,0,0,0,0,0,0,-1,860,323,0,0
-357,701,0,0,0,0,0,0,0,0,0,-1,867,323,0,0
-350,701,0,0,0,0,0,0,0,0,0,-1,874,323,0,0
-343,701,0,0,0,0,0,0,0,0,0,-1,881,323,0,0
-336,701,0,0,0,0,0,0,0,0,0,-1,888,323,0,0
-329,701,0,0,0,0,0,0,0,0,0,-1,895,323,0,0
-322,701,0,0,0,0,0,0,0,0,0,-1,902,323,0,0
-315,701,0,0,0,0,0,0,0,0,0,-1,909,323,0,0
-308,701,0,0,0,0,0,0,0,0,0,-1,916,323,0,0
-301,701,0,0,0,0,0,0,0,0,0,-1,923,323,0,0
-294,701,0,0,0,0,0,0,0,0,0,-1,930,323,0,0
-287,701,0,0,0,0,0,0,0,0,0,-1,937,323,0,0
-280,701,0,0,0,0,0,0,0,0,0,-1,944,323,0,0
-273,701,0,0,0,0,0,0,0,0,0,-1,951,323,0,0
-266,701,0,0,0,0,0,0,0,0,0,-1,958,323,0,0
-259,701,0,0,0,0,0,0,0,0,0,-1,965,323,0,0
-252,701,0,0,0,0,0,0,0,0,0,-1,972,323,0,0
-245,701,0,0,0,0,0,0,0,0,0,-1,979,323,0,0
-238,701,0,0,0,0,0,0,0,0,0,-1,986,323,0,0
-231,701,0,0,0,0,0,0,0,0,0,-1,993,323,0,0
-224,701,0,0,0,0,0,0,0,0,0,-1,1000,323,0,0
-217,701,0,0,0,0,0,0,0,0,0,-1,1007,323,0,0
-210,701,0,0,0,0,0,0,0,0,0,-1,1014,323,0,0
-203,701,0,0,0,0,0,0,0,0,0,-1,1021,323,0,0
-196,701,0,0,0,0,0,0,0,0,0,-1,1028,323,0,0
-189,701,0,0,0,0,0,0,0,0,0,-1,1035,323,0,0
-182,701,0,0,0,0,0,0,0,0,0,-1,1042,323,0,0
-175,701,0,0,0,0,0,0,0,0,0,-1,1049,323,0,0
-168,701,0,0,0,0,0,0,0,0,0,-1,1056,323,0,0
-161,701,0,0,0,0,0,0,0,0,0,-1,1063,323,0,0
-154,701,0,0,0,0,0,0,0,0,0,-1,1070,323,0,0
-147,701,0,0,0,0,0,0,0,0,0,-1,1077,323,0,0
-140,701,0,0,0,0,0,0,0,0,0,-1,1084,323,0,0
-133,701,0,0,0,0,0,0,0,0,0,-1,1091,323,0,0
-126,701,0,0,0,0,0,0,0,0,0,-1,1098,323,0,0
-119,701,0,0,0,0,0,0,0,0,0,-1,1105,323,0,0
-112,701,0,0,0,0,0,0,0,0,0,-1,1112,323,0,0
-105,701,0,0,0,0,0,0,0,0,0,-1,1119,323,0,0
-98,701,0,0,0,0,0,0,0,0,0,-1,1126,323,0,0
-91,701,0,0,0,0,0,0,0,0,0,-1,1133,323,0,0
-84,701,0,0,0,0,0,0,0,0,0,-1,1140,323,0,0
-77,701,0,0,0,0,0,0,0,0,0,-1,1147,323,0,0
-70,701,-10.1991,-16.2457,0,0,0,0,0,0,0,-1,1154,323,-10.1991,16.2457
-63,701,-2.479,-0.295959,0,0,0,0,0,0,0,-1,1161,323,-2.47895,0.295961
-56,701,-0.420166,-0.101776,0,0,0,0,0,0,0,-1,1168,323,-0.420119,0.101777
-49,701,-1.09021,-0.155762,0,0,0,0,0,0,0,-1,1175,323,-1.09024,0.155768
-42,701,-0.210327,-0.299133,0,0,0,0,0,0,0,-1,1182,323,-0.210379,0.29914
-35,701,-2.9635,-7.98676,0,0,0,0,0,0,0,-1,1189,323,-2.9635,7.98676
-28,701,-6.64417,-5.4917,0,0,0,0,0,0,0,-1,1196,323,-6.64411,5.4917
-21,701,0.563477,-18.3431,0,0,0,0,0,0,0,-1,1203,323,0.5635,18.3431
-14,701,4.14233,-27.4141,0,0,0,0,0,0,0,-1,1210,323,4.1423,27.414
-7,701,4.05273,-26.5939,-0.0152589,0.047739,0.0661139,0.0894742,-0.0569941,1.00771,0.0852537,0.0473809,1217,323,4.05272,26.5939
0,701,3.74316,-25.8903,-0.014013,0.0398474,0.0567931,0.0757717,-0.0499373,1.00679,0.0730873,0.0457595,1224,323,3.74314,25.8903
7,701,3.22632,-25.1129,-0.0129856,0.0311895,0.0471944,0.0612093,-0.0430053,1.00426,0.0604735,0.0439541,1231,323,3.22637,25.1129
14,701,3.13892,-24.0901,-0.0117154,0.0232688,0.03789,0.0475095,-0.035956,1.00165,0.0483425,0.0486488,1238,323,3.13886,24.0901
21,701,3.13635,-23.2455,0,0,0,0,0,0,0,-1,1245,323,3.1364,23.2455
28,701,4.20068,-21.8911,0,0,0,0,0,0,0,-1,1252,323,4.20063,21.8911
35,701,4.26453,-22.0216,-0.00653462,0.00574863,0.0144713,0.0153276,-0.0161136,0.98608,0.0181545,0.0471948,1259,323,4.26453,22.0216
42,701,4.37659,-22.1238,-0.00466091,0.00330795,0.009247,0.00939242,-0.0107454,0.988822,0.0116353,0.045673,1266,323,4.37653,22.1238
49,701,4.35754,-22.131,-0.00133363,0.000975223,0.00473789,0.0046973,-0.0050557,0.904899,0.00563217,0.045627,1273,323,4.35755,22.131
56,701,4.21582,-22.1282,0.00583943,-0.00304734,0.00282021,0.00665887,-0.00386678,0.282772,0.00614784,0.0444351,1280,323,4.21581,22.1283
63,701,4.10754,-22.07,0.0130102,-0.00583148,-0.00159486,0.0131442,-0.00596552,-0.0838503,0.0112895,0.0449564,1287,323,4.10756,22.07
70,701,4.04041,-21.983,0,0,0,0,0,0,0,-1,1294,323,4.04041,21.983
77,701,4.02209,-21.9485,0,0,0,0,0,0,0,-1,1301,323,4.02213,21.9485
84,701,-1.31604,-18.7767,0,0,0,0,0,0,0,-1,1308,323,-1.31608,18.7767
91,701,-0.608398,-19.4076,0,0,0,0,0,0,0,-1,1315,323,-0.608451,19.4076
98,701,-0.0682373,-20.2574,0,0,0,0,0,0,0,-1,1322,323,-0.0681854,20.2574
105,701,0.805298,-20.8593,0.0690957,-0.0124274,0.00532967,0.0694427,-0.0127743,0.0650074,0.0510884,0.0481904,1329,323,0.805328,20.8593
112,701,1.26367,-21.0575,0.0752613,-0.0129216,0.00663523,0.0757577,-0.0134181,0.0746836,0.055521,0.0464836,1336,323,1.2637,21.0575
119,701,1.57898,-21.8366,0.0782315,-0.0140385,0.00793436,0.0789088,-0.0147158,0.0851576,0.0581353,0.0445808,1343,323,1.57895,21.8366
126,701,2.38953,-22.2521,0.0756929,-0.0125731,0.01098,0.0770383,-0.0139184,0.121922,0.056572,0.048945,1350,323,2.38948,22.2521
133,701,3.22351,-22.6837,0.0714601,-0.0120663,0.0149827,0.0740663,-0.0146725,0.172226,0.0549256,0.0473516,1357,323,3.22348,22.6837
140,701,3.35828,-22.6787,0.0649679,-0.0126125,0.0199993,0.06982,-0.0174646,0.238015,0.0533301,0.0461473,1364,323,3.35825,22.6787
147,701,3.8761,-22.516,0.0557862,-0.0150174,0.0264892,0.0645994,-0.0238306,0.321188,0.0528327,0.0468012,1371,323,3.87608,22.516
154,701,4.37585,-22.5164,0,0,0,0,0,0,0,-1,1378,323,4.37584,22.5164
161,701,9.51721,-19.9935,0,0,0,0,0,0,0,-1,1385,323,9.51726,19.9935
168,701,30.7272,1.76184,0,0,0,0,0,0,0,-1,1392,323,30.7272,-1.76184
175,701,31.5035,2.25711,0,0,0,0,0,0,0,-1,1399,323,31.5036,-2.25712
182,701,8.80652,5.42807,0,0,0,0,0,0,0,-1,1406,323,8.8065,-5.42808
189,701,8.58081,4.24493,0,0,0,0,0,0,0,-1,1413,323,8.58082,-4.24494
196,701,0,0,0,0,0,0,0,0,0,-1,1420,323,0,0
203,701,0,0,0,0,0,0,0,0,0,-1,1427,323,0,0
210,701,0,0,0,0,0,0,0,0,0,-1,1434,323,0,0
217,701,0,0,0,0,0,0,0,0,0,-1,1441,323,0,0
224,701,0,0,0,0,0,0,0,0,0,-1,1448,323,0,0
231,701,0,0,0,0,0,0,0,0,0,-1,1455,323,0,0
238,701,0,0,0,0,0,0,0,0,0,-1,1462,323,0,0
245,701,0,0,0,0,0,0,0,0,0,-1,1469,323,0,0
252,701,0,0,0,0,0,0,0,0,0,-1,1476,323,0,0
259,701,0,0,0,0,0,0,0,0,0,-1,1483,323,0,0
266,701,0,0,0,0,0,0,0,0,0,-1,1490,323,0,0
273,701,0,0,0,0,0,0,0,0,0,-1,1497,323,0,0
280,701,0,0,0,0,0,0,0,0,0,-1,1504,323,0,0
287,701,0,0,0,0,0,0,0,0,0,-1,1511,323,0,0
294,701,0,0,0,0,0,0,0,0,0,-1,1518,323,0,0
301,701,0,0,0,0,0,0,0,0,0,-1,1525,323,0,0
308,701,0,0,0,0,0,0,0,0,0,-1,1532,323,0,0
315,701,0,0,0,0,0,0,0,0,0,-1,1539,323,0,0
322,701,0,0,0,0,0,0,0,0,0,-1,1546,323,0,0
329,701,0,0,0,0,0,0,0,0,0,-1,1553,323,0,0
336,701,0,0,0,0,0,0,0,0,0,-1,1560,323,0,0
343,701,0,0,0,0,0,0,0,0,0,-1,1567,323,0,0
350,701,0,0,0,0,0,0,0,0,0,-1,1574,323,0,0
357,701,0,0,0,0,0,0,0,0,0,-1,1581,323,0,0
364,701,0,0,0,0,0,0,0,0,0,-1,1588,323,0,0
371,701,0,0,0,0,0,0,0,0,0,-1,1595,323,0,0
378,701,0,0,0,0,0,0,0,0,0,-1,1602,323,0,0
385,701,0,0,0,0,0,0,0,0,0,-1,1609,323,0,0
392,701,0,0,0,0,0,0,0,0,0,-1,1616,323,0,0
399,701,0,0,0,0,0,0,0,0,0,-1,1623,323,0,0
406,701,0,0,0,0,0,0,0,0,0,-1,1630,323,0,0
413,701,0,0,0,0,0,0,0,0,0,-1,1637,323,0,0
420,701,0,0,0,0,0,0,0,0,0,-1,1644,323,0,0
427,701,0,0,0,0,0,0,0,0,0,-1,1651,323,0,0
434,701,0,0,0,0,0,0,0,0,0,-1,1658,323,0,0
441,701,0,0,0,0,0,0,0,0,0,-1,1665,323,0,0
448,701,0,0,0,0,0,0,0,0,0,-1,1672,323,0,0
455,701,0,0,0,0,0,0,0,0,0,-1,1679,323,0,0
462,701,0,0,0,0,0,0,0,0,0,-1,1686,323,0,0
469,701,0,0,0,0,0,0,0,0,0,-1,1693,323,0,0
476,701,0,0,0,0,0,0,0,0,0,-1,1700,323,0,0
483,701,0,0,0,0,0,0,0,0,0,-1,1707,323,0,0
490,701,0,0,0,0,0,0,0,0,0,-1,1714,323,0,0
497,701,0,0,0,0,0,0,0,0,0,-1,1721,323,0,0
504,701,0,0,0,0,0,0,0,0,0,-1,1728,323,0,0
511,701,0,0,0,0,0,0,0,0,0,-1,1735,323,0,0
518,701,0,0,0,0,0,0,0,0,0,-1,1742,323,0,0
525,701,0,0,0,0,0,0,0,0,0,-1,1749,323,0,0
532,701,0,0,0,0,0,0,0,0,0,-1,1756,323,0,0
539,701,0,0,0,0,0,0,0,0,0,-1,1763,323,0,0
546,701,0,0,0,0,0,0,0,0,0,-1,1770,323,0,0
553,701,0,0,0,0,0,0,0,0,0,-1,1777,323,0,0
560,701,0,0,0,0,0,0,0,0,0,-1,1784,323,0,0
567,701,0,0,0,0,0,0,0,0,0,-1,1791,323,0,0
574,701,0,0,0,0,0,0,0,0,0,-1,1798,323,0,0
581,701,0,0,0,0,0,0,0,0,0,-1,1805,323,0,0
588,701,0,0,0,0,0,0,0,0,0,-1,1812,323,0,0
595,701,0,0,0,0,0,0,0,0,0,-1,1819,323,0,0
602,701,0,0,0,0,0,0,0,0,0,-1,1826,323,0,0
609,701,0,0,0,0,0,0,0,0,0,-1,1833,323,0,0
616,701,0,0,0,0,0,0,0,0,0,-1,1840,323,0,0
623,701,0,0,0,0,0,0,0,0,0,-1,1847,323,0,0
630,701,0,0,0,0,0,0,0,0,0,-1,1854,323,0,0
637,701,0,0,0,0,0,0,0,0,0,-1,1861,323,0,0
644,701,0,0,0,0,0,0,0,0,0,-1,1868,323,0,0
651,701,0,0,0,0,0,0,0,0,0,-1,1875,323,0,0
658,701,0,0,0,0,0,0,0,0,0,-1,1882,323,0,0
665,701,0,0,0,0,0,0,0,0,0,-1,1889,323,0,0
672,701,0,0,0,0,0,0,0,0,0,-1,1896,323,0,0
679,701,0,0,0,0,0,0,0,0,0,-1,1903,323,0,0
686,701,0,0,0,0,0,0,0,0,0,-1,1910,323,0,0
693,701,0,0,0,0,0,0,0,0,0,-1,1917,323,0,0
700,701,0,0,0,0,0,0,0,0,0,-1,1924,323,0,0
707,701,0,0,0,0,0,0,0,0,0,-1,1931,323,0,0
714,701,0,0,0,0,0,0,0,0,0,-1,1938,323,0,0
721,701,0,0,0,0,0,0,0,0,0,-1,1945,323,0,0
728,701,0,0,0,0,0,0,0,0,0,-1,1952,323,0,0
735,701,0,0,0,0,0,0,0,0,0,-1,1959,323,0,0
742,701,0,0,0,0,0,0,0,0,0,-1,1966,323,0,0
749,701,0,0,0,0,0,0,0,0,0,-1,1973,323,0,0
756,701,0,0,0,0,0,0,0,0,0,-1,1980,323,0,0
763,701,0,0,0,0,0,0,0,0,0,-1,1987,323,0,0
770,701,0,0,0,0,0,0,0,0,0,-1,1994,323,0,0
777,701,0,0,0,0,0,0,0,0,0,-1,2001,323,0,0
784,701,0,0,0,0,0,0,0,0,0,-1,2008,323,0,0
791,701,0,0,0,0,0,0,0,0,0,-1,2015,323,0,0
798,701,0,0,0,0,0,0,0,0,0,-1,2022,323,0,0
805,701,0,0,0,0,0,0,0,0,0,-1,2029,323,0,0
812,701,0,0,0,0,0,0,0,0,0,-1,2036,323,0,0
-700,694,0,0,0,0,0,0,0,0,0,-1,524,330,0,0
-693,694,0,0,0,0,0,0,0,0,0,-1,531,330,0,0
-686,694,0,0,0,0,0,0,0,0,0,-1,538,330,0,0
-679,694,0,0,0,0,0,0,0,0,0,-1,545,330,0,0
-672,694,0,0,0,0,0,0,0,0,0,-1,552,330,0,0
-665,694,0,0,0,0,0,0,0,0,0,-1,559,330,0,0
-658,694,0,0,0,0,0,0,0,0,0,-1,566,330,0,0
-651,694,0,0,0,0,0,0,0,0,0,-1,573,330,0,0
-644,694,0,0,0,0,0,0,0,0,0,-1,580,330,0,0
-637,694,0,0,0,0,0,0,0,0,0,-1,587,330,0,0
-630,694,0,0,0,0,0,0,0,0,0,-1,594,330,0,0
-623,694,0,0,0,0,0,0,0,0,0,-1,601,330,0,0
-616,694,0,0,0,0,0,0,0,0,0,-1,608,330,0,0
-609,694,0,0,0,0,0,0,0,0,0,-1,615,330,0,0
-602,694,0,0,0,0,0,0,0,0,0,-1,622,330,0,0
-595,694,0,0,0,0,0,0,0,0,0,-1,629,330,0,0
-588,694,0,0,0,0,0,0,0,0,0,-1,636,330,0,0
-581,694,0,0,0,0,0,0,0,0,0,-1,643,330,0,0
-574,694,0,0,0,0,0,0,0,0,0,-1,650,330,0,0
-567,694,0,0,0,0,0,0,0,0,0,-1,657,330,0,0
-560,694,0,0,0,0,0,0,0,0,0,-1,664,330,0,0
-553,694,0,0,0,0,0,0,0,0,0,-1,671,330,0,0
-546,694,0,0,0,0,0,0,0,0,0,-1,678,330,0,0
-539,694,0,0,0,0,0,0,0,0,0,-1,685,330,0,0
-532,694,0,0,0,0,0,0,0,0,0,-1,692,330,0,0
-525,694,0,0,0,0,0,0,0,0,0,-1,699,330,0,0
-518,694,0,0,0,0,0,0,0,0,0,-1,706,330,0,0
-511,694,0,0,0,0,0,0,0,0,0,-1,713,330,0,0
-504,694,0,0,0,0,0,0,0,0,0,-1,720,330,0,0
-497,694,0,0,0,0,0,0,0,0,0,-1,727,330,0,0
-490,694,0,0,0,0,0,0,0,0,0,-1,734,330,0,0
-483,694,0,0,0,0,0,0,0,0,0,-1,741,330,0,0
-476,694,0,0,0,0,0,0,0,0,0,-1,748,330,0,0
-469,694,0,0,0,0,0,0,0,0,0,-1,755,330,0,0
-462,694,0,0,0,0,0,0,0,0,0,-1,762,330,0,0
-455,694,0,0,0,0,0,0,0,0,0,-1,769,330,0,0
-448,694,0,0,0,0,0,0,0,0,0,-1,776,330,0,0
-441,694,0,0,0,0,0,0,0,0,0,-1,783,330,0,0
-434,694,0,0,0,0,0,0,0,0,0,-1,790,330,0,0
-427,694,0,0,0,0,0,0,0,0,0,-1,797,330,0,0
-420,694,0,0,0,0,0,0,0,0,0,-1,804,330,0,0
-413,694,0,0,0,0,0,0,0,0,0,-1,811,330,0,0
-406,694,0,0,0,0,0,0,0,0,0,-1,818,330,0,0
-399,694,0,0,0,0,0,0,0,0,0,-1,825,330,0,0
-392,694,0,0,0,0,0,0,0,0,0,-1,832,330,0,0
-385,694,0,0,0,0,0,0,0,0,0,-1,839,330,0,0
-378,694,0,0,0,0,0,0,0,0,0,-1,846,330,0,0
-371,694,0,0,0,0,0,0,0,0,0,-1,853,330,0,0
-364,694,0,0,0,0,0,0,0,0,0,-1,860,330,0,0
-357,694,0,0,0,0,0,0,0,0,0,-1,867,330,0,0
-350,694,0,0,0,0,0,0,0,0,0,-1,874,330,0,0
-343,694,0,0,0,0,0,0,0,0,0,-1,881,330,0,0
-336,694,0,0,0,0,0,0,0,0,0,-1,888,330,0,0
-329,694,0,0,0,0,0,0,0,0,0,-1,895,330,0,0
-322,694,0,0,0,0,0,0,0,0,0,-1,902,330,0,0
-315,694,0,0,0,0,0,0,0,0,0,-1,909,330,0,0
-308,694,0,0,0,0,0,0,0,0,0,-1,916,330,0,0
-301,694,0,0,0,0,0,0,0,0,0,-1,923,330,0,0
-294,694,0,0,0,0,0,0,0,0,0,-1,930,330,0,0
-287,694,0,0,0,0,0,0,0,0,0,-1,937,330,0,0
-280,694,0,0,0,0,0,0,0,0,0,-1,944,330,0,0
-273,694,0,0,0,0,0,0,0,0,0,-1,951,330,0,0
-266,694,0,0,0,0,0,0,0,0,0,-1,958,330,0,0
-259,694,0,0,0,0,0,0,0,0,0,-1,965,330,0,0
-252,694,0,0,0,0,0,0,0,0,0,-1,972,330,0,0
-245,694,0,0,0,0,0,0,0,0,0,-1,979,330,0,0
-238,694,0,0,0,0,0,0,0,0,0,-1,986,330,0,0
-231,694,0,0,0,0,0,0,0,0,0,-1,993,330,0,0
-224,694,0,0,0,0,0,0,0,0,0,-1,1000,330,0,0
-217,694,0,0,0,0,0,0,0,0,0,-1,1007,330,0,0
-210,694,0,0,0,0,0,0,0,0,0,-1,1014,330,0,0
-203,694,0,0,0,0,0,0,0,0,0,-1,1021,330,0,0
-196,694,0,0,0,0,0,0,0,0,0,-1,1028,330,0,0
-189,694,0,0,0,0,0,0,0,0,0,-1,1035,330,0,0
-182,694,0,0,0,0,0,0,0,0,0,-1,1042,330,0,0
-175,694,0,0,0,0,0,0,0,0,0,-1,1049,330,0,0
-168,694,0,0,0,0,0,0,0,0,0,-1,1056,330,0,0
-161,694,0,0,0,0,0,0,0,0,0,-1,1063,330,0,0
-154,694,0,0,0,0,0,0,0,0,0,-1,1070,330,0,0
-147,694,0,0,0,0,0,0,0,0,0,-1,1077,330,0,0
-140,694,0,0,0,0,0,0,0,0,0,-1,1084,330,0,0
-133,694,0,0,0,0,0,0,0,0,0,-1,1091,330,0,0
-126,694,0,0,0,0,0,0,0,0,0,-1,1098,330,0,0
-119,694,0,0,0,0,0,0,0,0,0,-1,1105,330,0,0
-112,694,0,0,0,0,0,0,0,0,0,-1,1112,330,0,0
-105,694,2.5188,-19.3963,0,0,0,0,0,0,0,-1,1119,330,2.51882,19.3963
-98,694,1.34875,-10.1051,0,0,0,0,0,0,0,-1,1126,330,1.34874,10.1051
-91,694,1.35474,-9.22229,0,0,0,0,0,0,0,-1,1133,330,1.35476,9.22229
-84,694,1.90283,-23.2704,0,0,0,0,0,0,0,-1,1140,330,1.90283,23.2704
-77,694,-3.97034,-23.5838,0,0,0,0,0,0,0,-1,1147,330,-3.97029,23.5838
-70,694,-8.84351,-15.3281,0,0,0,0,0,0,0,-1,1154,330,-8.84354,15.3281
-63,694,-13.4351,-6.00711,0,0,0,0,0,0,0,-1,1161,330,-13.4351,6.00713
-56,694,-6.50623,-0.649139,0,0,0,0,0,0,0,-1,1168,330,-6.5062,0.649126
-49,694,-1.11426,0.0341797,0,0,0,0,0,0,0,-1,1175,330,-1.11424,-0.0341846
-42,694,-0.346313,-0.709595,0,0,0,0,0,0,0,-1,1182,330,-0.346298,0.709581
-35,694,-0.459106,-1.24713,0,0,0,0,0,0,0,-1,1189,330,-0.459142,1.24714
-28,694,-6.48413,-3.95972,0,0,0,0,0,0,0,-1,1196,330,-6.48414,3.9597
-21,694,2.63269,-20.663,0,0,0,0,0,0,0,-1,1203,330,2.63273,20.663
-14,694,3.68628,-27.1388,0,0,0,0,0,0,0,-1,1210,330,3.68628,27.1388
-7,694,3.51074,-26.5157,-0.0123642,0.0409383,0.0508652,0.0717114,-0.0431373,1.02671,0.0669886,0.0466771,1217,330,3.5107,26.5157
0,694,3.66174,-25.5375,-0.0115933,0.0350884,0.0438737,0.0614436,-0.0379485,1.02986,0.057916,0.0440961,1224,330,3.6618,25.5375
7,694,3.38098,-25.243,-0.0108404,0.0284927,0.0365401,0.0503225,-0.0326703,1.03227,0.0482759,0.0436971,1231,330,3.38097,25.243
14,694,3.31042,-24.6406,-0.00978725,0.022483,0.0293771,0.0398644,-0.0271687,1.03653,0.0389323,0.0463311,1238,330,3.31037,24.6406
21,694,3.41907,-24.3098,0,0,0,0,0,0,0,-1,1245,330,3.41902,24.3097
28,694,3.11475,-24.4012,0,0,0,0,0,0,0,-1,1252,330,3.11479,24.4012
35,694,4.3512,-21.7919,-0.00527071,0.00946847,0.0111699,0.0154808,-0.0112831,1.07701,0.0155154,0.0477193,1259,330,4.3512,21.7919
42,694,4.5033,-21.8452,-0.00365055,0.00776934,0.00726403,0.011299,-0.00718017,1.11849,0.0107569,0.0480737,1266,330,4.50333,21.8452
49,694,3.84241,-21.9166,0,0,0,0,0,0,0,-1,1273,330,3.84238,21.9166
56,694,3.94885,-22.073,0.0048064,0.00297479,0.0020189,0.0061075,0.00167369,0.572471,0.00364422,0.0448566,1280,330,3.94889,22.073
63,694,3.91443,-22.4051,0.010278,0.00148218,-0.00210805,0.0107571,0.00100305,-0.223488,0.00686155,0.045198,1287,330,3.91446,22.4051
70,694,3.84985,-22.274,0,0,0,0,0,0,0,-1,1294,330,3.8498,22.274
77,694,3.42847,-23.4782,0,0,0,0,0,0,0,-1,1301,330,3.42845,23.4782
84,694,3.52734,-23.4293,0,0,0,0,0,0,0,-1,1308,330,3.52734,23.4293
91,694,-1.35193,-18.7027,0,0,0,0,0,0,0,-1,1315,330,-1.35193,18.7027
98,694,-0.583374,-19.3874,0.0504754,8.14574e-05,0.000137304,0.0504758,8.10828e-05,0.00272457,0.0336236,0.0433533,1322,330,-0.58338,19.3874
105,694,0.18042,-20.0716,0.0569105,-0.00096385,0.00115132,0.0569334,-0.000986747,0.019883,0.0382888,0.0429921,1329,330,0.180368,20.0716
112,694,-0.0720215,-22.5043,0,0,0,0,0,0,0,-1,1336,330,-0.0720755,22.5043
119,694,0.425171,-22.7372,0,0,0,0,0,0,0,-1,1343,330,0.425203,22.7372
126,694,1.66138,-22.6577,0,0,0,0,0,0,0,-1,1350,330,1.66137,22.6576
133,694,2.49561,-22.4218,0.0601209,-0.00208142,0.00907873,0.0614189,-0.00337942,0.142009,0.0421176,0.0455689,1357,330,2.49565,22.4218
140,694,2.89624,-22.5287,0.0557691,-0.00333675,0.0131743,0.0585726,-0.00614023,0.209672,0.0412478,0.0458757,1364,330,2.89628,22.5287
147,694,2.74609,-22.5901,0.0495546,-0.00586618,0.0182474,0.055023,-0.0113346,0.291166,0.040986,0.0474326,1371,330,2.74606,22.5901
154,694,3.03784,-22.4639,0,0,0,0,0,0,0,-1,1378,330,3.0379,22.4639
161,694,8.71729,-20.1926,0,0,0,0,0,0,0,-1,1385,330,8.71733,20.1926
168,694,30.451,0.196686,0,0,0,0,0,0,0,-1,1392,330,30.4511,-0.196674
175,694,31.0701,0.869873,0,0,0,0,0,0,0,-1,1399,330,31.07,-0.869874
182,694,8.29028,5.75238,0,0,0,0,0,0,0,-1,1406,330,8.29034,-5.75237
189,694,7.9801,4.46118,0,0,0,0,0,0,0,-1,1413,330,7.9801,-4.46118
196,694,7.39331,3.32632,0,0,0,0,0,0,0,-1,1420,330,7.39329,-3.32633
203,694,7.04492,2.20529,0,0,0,0,0,0,0,-1,1427,330,7.04496,-2.20529
210,694,6.44714,0.646912,0,0,0,0,0,0,0,-1,1434,330,6.44717,-0.646903
217,694,7.12061,-0.644958,0,0,0,0,0,0,0,-1,1441,330,7.12059,0.644961
224,694,6.74011,-1.70544,0,0,0,0,0,0,0,-1,1448,330,6.74013,1.70546
231,694,0,0,0,0,0,0,0,0,0,-1,1455,330,0,0
238,694,0,0,0,0,0,0,0,0,0,-1,1462,330,0,0
245,694,0,0,0,0,0,0,0,0,0,-1,1469,330,0,0
252,694,0,0,0,0,0,0,0,0,0,-1,1476,330,0,0
259,694,0,0,0,0,0,0,0,0,0,-1,1483,330,0,0
266,694,0,0,0,0,0,0,0,0,0,-1,1490,330,0,0
273,694,0,0,0,0,0,0,0,0,0,-1,1497,330,0,0
280,694,0,0,0,0,0,0,0,0,0,-1,1504,330,0,0
287,694,0,0,0,0,0,0,0,0,0,-1,1511,330,0,0
294,694,0,0,0,0,0,0,0,0,0,-1,1518,330,0,0
301,694,0,0,0,0,0,0,0,0,0,-1,1525,330,0,0
308,694,0,0,0,0,0,0,0,0,0,-1,1532,330,0,0
315,694,0,0,0,0,0,0,0,0,0,-1,1539,330,0,0
322,694,0,0,0,0,0,0,0,0,0,-1,1546,330,0,0
329,694,0,0,0,0,0,0,0,0,0,-1,1553,330,0,0
336,694,0,0,0,0,0,0,0,0,0,-1,1560,330,0,0
343,694,0,0,0,0,0,0,0,0,0,-1,1567,330,0,0
350,694,0,0,0,0,0,0,0,0,0,-1,1574,330,0,0
357,694,0,0,0,0,0,0,0,0,0,-1,1581,330,0,0
364,694,0,0,0,0,0,0,0,0,0,-1,1588,330,0,0
371,694,0,0,0,0,0,0,0,0,0,-1,1595,330,0,0
378,694,0,0,0,0,0,0,0,0,0,-1,1602,330,0,0
385,694,0,0,0,0,0,0,0,0,0,-1,1609,330,0,0
392,694,0,0,0,0,0,0,0,0,0,-1,1616,330,0,0
399,694,0,0,0,0,0,0,0,0,0,-1,1623,330,0,0
406,694,0,0,0,0,0,0,0,0,0,-1,1630,330,0,0
413,694,0,0,0,0,0,0,0,0,0,-1,1637,330,0,0
420,694,0,0,0,0,0,0,0,0,0,-1,1644,330,0,0
427,694,0,0,0,0,0,0,0,0,0,-1,1651,330,0,0
434,694,0,0,0,0,0,0,0,0,0,-1,1658,330,0,0
441,694,0,0,0,0,0,0,0,0,0,-1,1665,330,0,0
448,694,0,0,0,0,0,0,0,0,0,-1,1672,330,0,0
455,694,0,0,0,0,0,0,0,0,0,-1,1679,330,0,0
462,694,0,0,0,0,0,0,0,0,0,-1,1686,330,0,0
469,694,0,0,0,0,0,0,0,0,0,-1,1693,330,0,0
476,694,0,0,0,0,0,0,0,0,0,-1,1700,330,0,0
483,694,0,0,0,0,0,0,0,0,0,-1,1707,330,0,0
490,694,0,0,0,0,0,0,0,0,0,-1,1714,330,0,0
497,694,0,0,0,0,0,0,0,0,0,-1,1721,330,0,0
504,694,0,0,0,0,0,0,0,0,0,-1,1728,330,0,0
511,694,0,0,0,0,0,0,0,0,0,-1,1735,330,0,0
518,694,0,0,0,0,0,0,0,0,0,-1,1742,330,0,0
525,694,0,0,0,0,0,0,0,0,0,-1,1749,330,0,0
532,694,0,0,0,0,0,0,0,0,0,-1,1756,330,0,0
539,694,0,0,0,0,0,0,0,0,0,-1,1763,330,0,0
546,694,0,0,0,0,0,0,0,0,0,-1,1770,330,0,0
553,694,0,0,0,0,0,0,0,0,0,-1,1777,330,0,0
560,694,0,0,0,0,0,0,0,0,0,-1,1784,330,0,0
567,694,0,0,0,0,0,0,0,0,0,-1,1791,330,0,0
574,694,0,0,0,0,0,0,0,0,0,-1,1798,330,0,0
581,694,0,0,0,0,0,0,0,0,0,-1,1805,330,0,0
588,694,0,0,0,0,0,0,0,0,0,-1,1812,330,0,0
595,694,0,0,0,0,0,0,0,0,0,-1,1819,330,0,0
602,694,0,0,0,0,0,0,0,0,0,-1,1826,330,0,0
609,694,0,0,0,0,0,0,0,0,0,-1,1833,330,0,0
616,694,0,0,0,0,0,0,0,0,0,-1,1840,330,0,0
623,694,0,0,0,0,0,0,0,0,0,-1,1847,330,0,0
630,694,0,0,0,0,0,0,0,0,0,-1,1854,330,0,0
637,694,0,0,0,0,0,0,0,0,0,-1,1861,330,0,0
644,694,0,0,0,0,0,0,0,0,0,-1,1868,330,0,0
651,694,0,0,0,0,0,0,0,0,0,-1,1875,330,0,0
658,694,0,0,0,0,0,0,0,0,0,-1,1882,330,0,0
665,694,0,0,0,0,0,0,0,0,0,-1,1889,330,0,0
672,694,0,0,0,0,0,0,0,0,0,-1,1896,330,0,0
679,694,0,0,0,0,0,0,0,0,0,-1,1903,330,0,0
686,694,0,0,0,0,0,0,0,0,0,-1,1910,330,0,0
693,694,0,0,0,0,0,0,0,0,0,-1,1917,330,0,0
700,694,0,0,0,0,0,0,0,0,0,-1,1924,330,0,0
707,694,0,0,0,0,0,0,0,0,0,-1,1931,330,0,0
714,694,0,0,0,0,0,0,0,0,0,-1,1938,330,0,0
721,694,0,0,0,0,0,0,0,0,0,-1,1945,330,0,0
728,694,0,0,0,0,0,0,0,0,0,-1,1952,330,0,0
735,694,0,0,0,0,0,0,0,0,0,-1,1959,330,0,0
742,694,0,0,0,0,0,0,0,0,0,-1,1966,330,0,0
749,694,0,0,0,0,0,0,0,0,0,-1,1973,330,0,0
756,694,0,0,0,0,0,0,0,0,0,-1,1980,330,0,0
763,694,0,0,0,0,0,0,0,0,0,-1,1987,330,0,0
770,694,0,0,0,0,0,0,0,0,0,-1,1994,330,0,0
777,694,0,0,0,0,0,0,0,0,0,-1,2001,330,0,0
784,694,0,0,0,0,0,0,0,0,0,-1,2008,330,0,0
791,694,0,0,0,0,0,0,0,0,0,-1,2015,330,0,0
798,694,0,0,0,0,0,0,0,0,0,-1,2022,330,0,0
805,694,0,0,0,0,0,0,0,0,0,-1,2029,330,0,0
812,694,0,0,0,0,0,0,0,0,0,-1,2036,330,0,0
-700,687,0,0,0,0,0,0,0,0,0,-1,524,337,0,0
-693,687,0,0,0,0,0,0,0,0,0,-1,531,337,0,0
-686,687,0,0,0,0,0,0,0,0,0,-1,538,337,0,0
-679,687,0,0,0,0,0,0,0,0,0,-1,545,337,0,0
-672,687,0,0,0,0,0,0,0,0,0,-1,552,337,0,0
-665,687,0,0,0,0,0,0,0,0,0,-1,559,337,0,0
-658,687,0,0,0,0,0,0,0,0,0,-1,566,337,0,0
-651,687,0,0,0,0,0,0,0,0,0,-1,573,337,0,0
-644,687,0,0,0,0,0,0,0,0,0,-1,580,337,0,0
-637,687,0,0,0,0,0,0,0,0,0,-1,587,337,0,0
-630,687,0,0,0,0,0,0,0,0,0,-1,594,337,0,0
-623,687,0,0,0,0,0,0,0,0,0,-1,601,337,0,0
-616,687,0,0,0,0,0,0,0,0,0,-1,608,337,0,0
-609,687,0,0,0,0,0,0,0,0,0,-1,615,337,0,0
-602,687,0,0,0,0,0,0,0,0,0,-1,622,337,0,0
-595,687,0,0,0,0,0,0,0,0,0,-1,629,337,0,0
-588,687,0,0,0,0,0,0,0,0,0,-1,636,337,0,0
-581,687,0,0,0,0,0,0,0,0,0,-1,643,337,0,0
-574,687,0,0,0,0,0,0,0,0,0,-1,650,337,0,0
-567,687,0,0,0,0,0,0,0,0,0,-1,657,337,0,0
-560,687,0,0,0,0,0,0,0,0,0,-1,664,337,0,0
-553,687,0,0,0,0,0,0,0,0,0,-1,671,337,0,0
-546,687,0,0,0,0,0,0,0,0,0,-1,678,337,0,0
-539,687,0,0,0,0,0,0,0,0,0,-1,685,337,0,0
-532,687,0,0,0,0,0,0,0,0,0,-1,692,337,0,0
-525,687,0,0,0,0,0,0,0,0,0,-1,699,337,0,0
-518,687,0,0,0,0,0,0,0,0,0,-1,706,337,0,0
-511,687,0,0,0,0,0,0,0,0,0,-1,713,337,0,0
-504,687,0,0,0,0,0,0,0,0,0,-1,720,337,0,0
-497,687,0,0,0,0,0,0,0,0,0,-1,727,337,0,0
-490,687,0,0,0,0,0,0,0,0,0,-1,734,337,0,0
-483,687,0,0,0,0,0,0,0,0,0,-1,741,337,0,0
-476,687,0,0,0,0,0,0,0,0,0,-1,748,337,0,0
-469,687,0,0,0,0,0,0,0,0,0,-1,755,337,0,0
-462,687,0,0,0,0,0,0,0,0,0,-1,762,337,0,0
-455,687,0,0,0,0,0,0,0,0,0,-1,769,337,0,0
-448,687,0,0,0,0,0,0,0,0,0,-1,776,337,0,0
-441,687,0,0,0,0,0,0,0,0,0,-1,783,337,0,0
-434,687,0,0,0,0,0,0,0,0,0,-1,790,337,0,0
-427,687,0,0,0,0,0,0,0,0,0,-1,797,337,0,0
-420,687,0,0,0,0,0,0,0,0,0,-1,804,337,0,0
-413,687,0,0,0,0,0,0,0,0,0,-1,811,337,0,0
-406,687,0,0,0,0,0,0,0,0,0,-1,818,337,0,0
-399,687,0,0,0,0,0,0,0,0,0,-1,825,337,0,0
-392,687,0,0,0,0,0,0,0,0,0,-1,832,337,0,0
-385,687,0,0,0,0,0,0,0,0,0,-1,839,337,0,0
-378,687,0,0,0,0,0,0,0,0,0,-1,846,337,0,0
-371,687,0,0,0,0,0,0,0,0,0,-1,853,337,0,0
-364,687,0,0,0,0,0,0,0,0,0,-1,860,337,0,0
-357,687,0,0,0,0,0,0,0,0,0,-1,867,337,0,0
-350,687,0,0,0,0,0,0,0,0,0,-1,874,337,0,0
-343,687,0,0,0,0,0,0,0,0,0,-1,881,337,0,0
-336,687,0,0,0,0,0,0,0,0,0,-1,888,337,0,0
-329,687,0,0,0,0,0,0,0,0,0,-1,895,337,0,0
-322,687,0,0,0,0,0,0,0,0,0,-1,902,337,0,0
-315,687,0,0,0,0,0,0,0,0,0,-1,909,337,0,0
-308,687,0,0,0,0,0,0,0,0,0,-1,916,337,0,0
-301,687,0,0,0,0,0,0,0,0,0,-1,923,337,0,0
-294,687,0,0,0,0,0,0,0,0,0,-1,930,337,0,0
-287,687,0,0,0,0,0,0,0,0,0,-1,937,337,0,0
-280,687,0,0,0,0,0,0,0,0,0,-1,944,337,0,0
-273,687,0,0,0,0,0,0,0,0,0,-1,951,337,0,0
-266,687,0,0,0,0,0,0,0,0,0,-1,958,337,0,0
-259,687,0,0,0,0,0,0,0,0,0,-1,965,337,0,0
-252,687,0,0,0,0,0,0,0,0,0,-1,972,337,0,0
-245,687,0,0,0,0,0,0,0,0,0,-1,979,337,0,0
-238,687,0,0,0,0,0,0,0,0,0,-1,986,337,0,0
-231,687,0,0,0,0,0,0,0,0,0,-1,993,337,0,0
-224,687,0,0,0,0,0,0,0,0,0,-1,1000,337,0,0
-217,687,0,0,0,0,0,0,0,0,0,-1,1007,337,0,0
-210,687,0,0,0,0,0,0,0,0,0,-1,1014,337,0,0
-203,687,0,0,0,0,0,0,0,0,0,-1,1021,337,0,0
-196,687,0,0,0,0,0,0,0,0,0,-1,1028,337,0,0
-189,687,0,0,0,0,0,0,0,0,0,-1,1035,337,0,0
-182,687,0,0,0,0,0,0,0,0,0,-1,1042,337,0,0
-175,687,0,0,0,0,0,0,0,0,0,-1,1049,337,0,0
-168,687,0,0,0,0,0,0,0,0,0,-1,1056,337,0,0
-161,687,0,0,0,0,0,0,0,0,0,-1,1063,337,0,0
-154,687,0,0,0,0,0,0,0,0,0,-1,1070,337,0,0
-147,687,0,0,0,0,0,0,0,0,0,-1,1077,337,0,0
-140,687,0,0,0,0,0,0,0,0,0,-1,1084,337,0,0
-133,687,6.28271,-21.7387,0,0,0,0,0,0,0,-1,1091,337,6.28275,21.7388
-126,687,7.14612,-22.3354,0,0,0,0,0,0,0,-1,1098,337,7.14608,22.3354
-119,687,6.41846,-21.2928,0,0,0,0,0,0,0,-1,1105,337,6.41843,21.2928
-112,687,6.94678,-20.2408,0,0,0,0,0,0,0,-1,1112,337,6.9468,20.2408
-105,687,7.40222,-19.2547,0,0,0,0,0,0,0,-1,1119,337,7.40217,19.2547
-98,687,3.33679,-15.4141,0,0,0,0,0,0,0,-1,1126,337,3.33683,15.4141
-91,687,2.28162,-7.72437,0,0,0,0,0,0,0,-1,1133,337,2.28167,7.72437
-84,687,3.02051,-23.8021,0,0,0,0,0,0,0,-1,1140,337,3.02057,23.8021
-77,687,-2.90393,-23.0662,0,0,0,0,0,0,0,-1,1147,337,-2.90398,23.0662
-70,687,-7.77222,-14.7563,0,0,0,0,0,0,0,-1,1154,337,-7.77227,14.7563
-63,687,-12.6154,-4.68893,0,0,0,0,0,0,0,-1,1161,337,-12.6153,4.68892
-56,687,-17.2266,1.87033,0,0,0,0,0,0,0,-1,1168,337,-17.2266,-1.87034
-49,687,-15.6449,-9.94391,0,0,0,0,0,0,0,-1,1175,337,-15.6449,9.94392
-42,687,-4.2019,-0.405609,0,0,0,0,0,0,0,-1,1182,337,-4.20192,0.405614
-35,687,-4.42273,-0.688171,0,0,0,0,0,0,0,-1,1189,337,-4.42276,0.688178
-28,687,-1.14038,-1.39072,0,0,0,0,0,0,0,-1,1196,337,-1.14035,1.3907
-21,687,3.69238,-28.4209,0,0,0,0,0,0,0,-1,1203,337,3.69236,28.4209
-14,687,3.70508,-27.9121,0,0,0,0,0,0,0,-1,1210,337,3.7051,27.9121
-7,687,3.49707,-27.2729,-0.0100527,0.033913,0.0379937,0.0558252,-0.0319648,1.04766,0.0513058,0.0459937,1217,337,3.49711,27.2728
0,687,3.35754,-26.6548,-0.00959136,0.0296957,0.0328832,0.0483559,-0.0282515,1.05464,0.0447341,0.0478421,1224,337,3.35758,26.6548
7,687,3.34363,-26.0067,-0.00903164,0.0248525,0.0274425,0.0401614,-0.0243405,1.06194,0.0376117,0.0467959,1231,337,3.34366,26.0066
14,687,3.45386,-25.3213,-0.00816921,0.0205113,0.0221193,0.0325321,-0.02019,1.07299,0.0307159,0.0469356,1238,337,3.4538,25.3213
21,687,3.64795,-24.6733,-0.00731965,0.0163749,0.0170879,0.0253207,-0.0162655,1.08851,0.0241988,0.0492296,1245,337,3.648,24.6733
28,687,3.28735,-24.4082,-0.00591812,0.0130232,0.0124036,0.0191584,-0.0120533,1.11145,0.0181751,0.0480543,1252,337,3.28733,24.4082
35,687,3.29578,-23.8789,0,0,0,0,0,0,0,-1,1259,337,3.29583,23.8789
42,687,3.11047,-23.3661,0,0,0,0,0,0,0,-1,1266,337,3.11044,23.3661
49,687,2.95911,-23.2811,0,0,0,0,0,0,0,-1,1273,337,2.95916,23.2811
56,687,2.89587,-23.4648,0,0,0,0,0,0,0,-1,1280,337,2.89585,23.4648
63,687,3.81238,-22.9186,0,0,0,0,0,0,0,-1,1287,337,3.81235,22.9186
70,687,3.77856,-22.771,0,0,0,0,0,0,0,-1,1294,337,3.77853,22.771
77,687,3.46631,-23.5855,0.0230299,0.00776516,-0.00408068,0.0240523,0.00674276,-0.245493,0.0143263,0.0478179,1301,337,3.46635,23.5855
84,687,3.55969,-23.4698,0.0297933,0.00751198,-0.00314302,0.0302282,0.00707711,-0.137488,0.0182562,0.0493043,1308,337,3.55972,23.4697
91,687,4.37683,-24.1357,0,0,0,0,0,0,0,-1,1315,337,4.37684,24.1357
98,687,-1.3252,-18.6835,0,0,0,0,0,0,0,-1,1322,337,-1.32518,18.6835
105,687,3.06409,-23.0141,0,0,0,0,0,0,0,-1,1329,337,3.06407,23.0141
112,687,0.0872803,-22.9998,0.0492034,0.00617593,-0.000584637,0.0492113,0.00616799,-0.0135842,0.030957,0.0465857,1336,337,0.0873232,22.9999
119,687,0.885742,-22.9608,0.051289,0.00522741,0.000241008,0.0512903,0.00522615,0.00523211,0.0325915,0.0452972,1343,337,0.885688,22.9608
126,687,1.49512,-22.7181,0.0507046,0.00521017,0.00224862,0.0508155,0.0050993,0.0492662,0.0323116,0.0463652,1350,337,1.49515,22.7181
133,687,2.17896,-22.5365,0.0490234,0.00462034,0.00493054,0.0495643,0.00407944,0.109267,0.0317705,0.0470584,1357,337,2.17892,22.5365
140,687,2.604,-22.4686,0.0462283,0.00315188,0.00812498,0.0477099,0.00167033,0.180365,0.0312647,0.0470785,1364,337,2.604,22.4686
147,687,2.78613,-22.3185,0.0421261,0.000926595,0.0118987,0.0453156,-0.00226289,0.261897,0.0309922,0.0459372,1371,337,2.78609,22.3185
154,687,2.55627,-22.1016,0,0,0,0,0,0,0,-1,1378,337,2.55629,22.1016
161,687,29.3895,-1.90628,0,0,0,0,0,0,0,-1,1385,337,29.3895,1.90628
168,687,29.8564,-1.19434,0,0,0,0,0,0,0,-1,1392,337,29.8564,1.19434
175,687,30.3419,-0.453583,0,0,0,0,0,0,0,-1,1399,337,30.3419,0.45357
182,687,6.67249,0.289917,0,0,0,0,0,0,0,-1,1406,337,6.67247,-0.289916
189,687,7.76062,4.53635,0,0,0,0,0,0,0,-1,1413,337,7.76064,-4.53636
196,687,6.99048,3.2966,0,0,0,0,0,0,0,-1,1420,337,6.99046,-3.2966
203,687,6.36499,2.1445,0,0,0,0,0,0,0,-1,1427,337,6.36499,-2.14451
210,687,6.68066,0.674652,0,0,0,0,0,0,0,-1,1434,337,6.68062,-0.674655
217,687,5.99683,-0.630493,0,0,0,0,0,0,0,-1,1441,337,5.99684,0.630497
224,687,5.52917,0.524902,0,0,0,0,0,0,0,-1,1448,337,5.5292,-0.524915
231,687,5.85583,-1.73651,0,0,0,0,0,0,0,-1,1455,337,5.85577,1.73651
238,687,5.96582,-2.96774,0,0,0,0,0,0,0,-1,1462,337,5.96577,2.96773
245,687,1.28259,2.32211,0,0,0,0,0,0,0,-1,1469,337,1.28258,-2.32211
252,687,1.97278,3.88422,0,0,0,0,0,0,0,-1,1476,337,1.97281,-3.88421
259,687,0,0,0,0,0,0,0,0,0,-1,1483,337,0,0
266,687,0,0,0,0,0,0,0,0,0,-1,1490,337,0,0
273,687,0,0,0,0,0,0,0,0,0,-1,1497,337,0,0
280,687,0,0,0,0,0,0,0,0,0,-1,1504,337,0,0
287,687,0,0,0,0,0,0,0,0,0,-1,1511,337,0,0
294,687,0,0,0,0,0,0,0,0,0,-1,1518,337,0,0
301,687,0,0,0,0,0,0,0,0,0,-1,1525,337,0,0
308,687,0,0,0,0,0,0,0,0,0,-1,1532,337,0,0
315,687,0,0,0,0,0,0,0,0,0,-1,1539,337,0,0
322,687,0,0,0,0,0,0,0,0,0,-1,1546,337,0,0
329,687,0,0,0,0,0,0,0,0,0,-1,1553,337,0,0
336,687,0,0,0,0,0,0,0,0,0,-1,1560,337,0,0
343,687,0,0,0,0,0,0,0,0,0,-1,1567,337,0,0
350,687,0,0,0,0,0,0,0,0,0,-1,1574,337,0,0
357,687,0,0,0,0,0,0,0,0,0,-1,1581,337,0,0
364,687,0,0,0,0,0,0,0,0,0,-1,1588,337,0,0
371,687,0,0,0,0,0,0,0,0,0,-1,1595,337,0,0
378,687,0,0,0,0,0,0,0,0,0,-1,1602,337,0,0
385,687,0,0,0,0,0,0,0,0,0,-1,1609,337,0,0
392,687,0,0,0,0,0,0,0,0,0,-1,1616,337,0,0
399,687,0,0,0,0,0,0,0,0,0,-1,1623,337,0,0
406,687,0,0,0,0,0,0,0,0,0,-1,1630,337,0,0
413,687,0,0,0,0,0,0,0,0,0,-1,1637,337,0,0
420,687,0,0,0,0,0,0,0,0,0,-1,1644,337,0,0
427,687,0,0,0,0,0,0,0,0,0,-1,1651,337,0,0
434,687,0,0,0,0,0,0,0,0,0,-1,1658,337,0,0
441,687,0,0,0,0,0,0,0,0,0,-1,1665,337,0,0
448,687,0,0,0,0,0,0,0,0,0,-1,1672,337,0,0
455,687,0,0,0,0,0,0,0,0,0,-1,1679,337,0,0
462,687,0,0,0,0,0,0,0,0,0,-1,1686,337,0,0
469,687,0,0,0,0,0,0,0,0,0,-1,1693,337,0,0
476,687,0,0,0,0,0,0,0,0,0,-1,1700,337,0,0
483,687,0,0,0,0,0,0,0,0,0,-1,1707,337,0,0
490,687,0,0,0,0,0,0,0,0,0,-1,1714,337,0,0
497,687,0,0,0,0,0,0,0,0,0,-1,1721,337,0,0
504,687,0,0,0,0,0,0,0,0,0,-1,1728,337,0,0
511,687,0,0,0,0,0,0,0,0,0,-1,1735,337,0,0
518,687,0,0,0,0,0,0,0,0,0,-1,1742,337,0,0
525,687,0,0,0,0,0,0,0,0,0,-1,1749,337,0,0
532,687,0,0,0,0,0,0,0,0,0,-1,1756,337,0,0
539,687,0,0,0,0,0,0,0,0,0,-1,1763,337,0,0
546,687,0,0,0,0,0,0,0,0,0,-1,1770,337,0,0
553,687,0,0,0,0,0,0,0,0,0,-1,1777,337,0,0
560,687,0,0,0,0,0,0,0,0,0,-1,1784,337,0,0
567,687,0,0,0,0,0,0,0,0,0,-1,1791,337,0,0
574,687,0,0,0,0,0,0,0,0,0,-1,1798,337,0,0
581,687,0,0,0,0,0,0,0,0,0,-1,1805,337,0,0
588,687,0,0,0,0,0,0,0,0,0,-1,1812,337,0,0
595,687,0,0,0,0,0,0,0,0,0,-1,1819,337,0,0
602,687,0,0,0,0,0,0,0,0,0,-1,1826,337,0,0
609,687,0,0,0,0,0,0,0,0,0,-1,1833,337,0,0
616,687,0,0,0,0,0,0,0,0,0,-1,1840,337,0,0
623,687,0,0,0,0,0,0,0,0,0,-1,1847,337,0,0
630,687,0,0,0,0,0,0,0,0,0,-1,1854,337,0,0
637,687,0,0,0,0,0,0,0,0,0,-1,1861,337,0,0
644,687,0,0,0,0,0,0,0,0,0,-1,1868,337,0,0
651,687,0,0,0,0,0,0,0,0,0,-1,1875,337,0,0
658,687,0,0,0,0,0,0,0,0,0,-1,1882,337,0,0
665,687,0,0,0,0,0,0,0,0,0,-1,1889,337,0,0
672,687,0,0,0,0,0,0,0,0,0,-1,1896,337,0,0
679,687,0,0,0,0,0,0,0,0,0,-1,1903,337,0,0
686,687,0,0,0,0,0,0,0,0,0,-1,1910,337,0,0
693,687,0,0,0,0,0,0,0,0,0,-1,1917,337,0,0
700,687,0,0,0,0,0,0,0,0,0,-1,1924,337,0,0
707,687,0,0,0,0,0,0,0,0,0,-1,1931,337,0,0
714,687,0,0,0,0,0,0,0,0,0,-1,1938,337,0,0
721,687,0,0,0,0,0,0,0,0,0,-1,1945,337,0,0
728,687,0,0,0,0,0,0,0,0,0,-1,1952,337,0,0
735,687,0,0,0,0,0,0,0,0,0,-1,1959,337,0,0
742,687,0,0,0,0,0,0,0,0,0,-1,1966,337,0,0
749,687,0,0,0,0,0,0,0,0,0,-1,1973,337,0,0
756,687,0,0,0,0,0,0,0,0,0,-1,1980,337,0,0
763,687,0,0,0,0,0,0,0,0,0,-1,1987,337,0,0
770,687,0,0,0,0,0,0,0,0,0,-1,1994,337,0,0
777,687,0,0,0,0,0,0,0,0,0,-1,2001,337,0,0
784,687,0,0,0,0,0,0,0,0,0,-1,2008,337,0,0
791,687,0,0,0,0,0,0,0,0,0,-1,2015,337,0,0
798,687,0,0,0,0,0,0,0,0,0,-1,2022,337,0,0
805,687,0,0,0,0,0,0,0,0,0,-1,2029,337,0,0
812,687,0,0,0,0,0,0,0,0,0,-1,2036,337,0,0
-700,680,0,0,0,0,0,0,0,0,0,-1,524,344,0,0
-693,680,0,0,0,0,0,0,0,0,0,-1,531,344,0,0
-686,680,0,0,0,0,0,0,0,0,0,-1,538,344,0,0
-679,680,0,0,0,0,0,0,0,0,0,-1,545,344,0,0
-672,680,0,0,0,0,0,0,0,0,0,-1,552,344,0,0
-665,680,0,0,0,0,0,0,0,0,0,-1,559,344,0,0
-658,680,0,0,0,0,0,0,0,0,0,-1,566,344,0,0
-651,680,0,0,0,0,0,0,0,0,0,-1,573,344,0,0
-644,680,0,0,0,0,0,0,0,0,0,-1,580,344,0,0
-637,680,0,0,0,0,0,0,0,0,0,-1,587,344,0,0
-630,680,0,0,0,0,0,0,0,0,0,-1,594,344,0,0
-623,680,0,0,0,0,0,0,0,0,0,-1,601,344,0,0
-616,680,0,0,0,0,0,0,0,0,0,-1,608,344,0,0
-609,680,0,0,0,0,0,0,0,0,0,-1,615,344,0,0
-602,680,0,0,0,0,0,0,0,0,0,-1,622,344,0,0
-595,680,0,0,0,0,0,0,0,0,0,-1,629,344,0,0
-588,680,0,0,0,0,0,0,0,0,0,-1,636,344,0,0
-581,680,0,0,0,0,0,0,0,0,0,-1,643,344,0,0
-574,680,0,0,0,0,0,0,0,0,0,-1,650,344,0,0
-567,680,0,0,0,0,0,0,0,0,0,-1,657,344,0,0
-560,680,0,0,0,0,0,0,0,0,0,-1,664,344,0,0
-553,680,0,0,0,0,0,0,0,0,0,-1,671,344,0,0
-546,680,0,0,0,0,0,0,0,0,0,-1,678,344,0,0
-539,680,0,0,0,0,0,0,0,0,0,-1,685,344,0,0
-532,680,0,0,0,0,0,0,0,0,0,-1,692,344,0,0
-525,680,0,0,0,0,0,0,0,0,0,-1,699,344,0,0
-518,680,0,0,0,0,0,0,0,0,0,-1,706,344,0,0
-511,680,0,0,0,0,0,0,0,0,0,-1,713,344,0,0
-504,680,0,0,0,0,0,0,0,0,0,-1,720,344,0,0
-497,680,0,0,0,0,0,0,0,0,0,-1,727,344,0,0
-490,680,0,0,0,0,0,0,0,0,0,-1,734,344,0,0
-483,680,0,0,0,0,0,0,0,0,0,-1,741,344,0,0
-476,680,0,0,0,0,0,0,0,0,0,-1,748,344,0,0
-469,680,0,0,0,0,0,0,0,0,0,-1,755,344,0,0
-462,680,0,0,0,0,0,0,0,0,0,-1,762,344,0,0
-455,680,0,0,0,0,0,0,0,0,0,-1,769,344,0,0
-448,680,0,0,0,0,0,0,0,0,0,-1,776,344,0,0
-441,680,0,0,0,0,0,0,0,0,0,-1,783,344,0,0
-434,680,0,0,0,0,0,0,0,0,0,-1,790,344,0,0
-427,680,0,0,0,0,0,0,0,0,0,-1,797,344,0,0
-420,680,0,0,0,0,0,0,0,0,0,-1,804,344,0,0
-413,680,0,0,0,0,0,0,0,0,0,-1,811,344,0,0
-406,680,0,0,0,0,0,0,0,0,0,-1,818,344,0,0
-399,680,0,0,0,0,0,0,0,0,0,-1,825,344,0,0
-392,680,0,0,0,0,0,0,0,0,0,-1,832,344,0,0
-385,680,0,0,0,0,0,0,0,0,0,-1,839,344,0,0
-378,680,0,0,0,0,0,0,0,0,0,-1,846,344,0,0
-371,680,0,0,0,0,0,0,0,0,0,-1,853,344,0,0
-364,680,0,0,0,0,0,0,0,0,0,-1,860,344,0,0
-357,680,0,0,0,0,0,0,0,0,0,-1,867,344,0,0
-350,680,0,0,0,0,0,0,0,0,0,-1,874,344,0,0
-343,680,0,0,0,0,0,0,0,0,0,-1,881,344,0,0
-336,680,0,0,0,0,0,0,0,0,0,-1,888,344,0,0
-329,680,0,0,0,0,0,0,0,0,0,-1,895,344,0,0
-322,680,0,0,0,0,0,0,0,0,0,-1,902,344,0,0
-315,680,0,0,0,0,0,0,0,0,0,-1,909,344,0,0
-308,680,0,0,0,0,0,0,0,0,0,-1,916,344,0,0
-301,680,0,0,0,0,0,0,0,0,0,-1,923,344,0,0
-294,680,0,0,0,0,0,0,0,0,0,-1,930,344,0,0
-287,680,0,0,0,0,0,0,0,0,0,-1,937,344,0,0
-280,680,0,0,0,0,0,0,0,0,0,-1,944,344,0,0
-273,680,0,0,0,0,0,0,0,0,0,-1,951,344,0,0
-266,680,0,0,0,0,0,0,0,0,0,-1,958,344,0,0
-259,680,0,0,0,0,0,0,0,0,0,-1,965,344,0,0
-252,680,0,0,0,0,0,0,0,0,0,-1,972,344,0,0
-245,680,0,0,0,0,0,0,0,0,0,-1,979,344,0,0
-238,680,0,0,0,0,0,0,0,0,0,-1,986,344,0,0
-231,680,0,0,0,0,0,0,0,0,0,-1,993,344,0,0
-224,680,0,0,0,0,0,0,0,0,0,-1,1000,344,0,0
-217,680,0,0,0,0,0,0,0,0,0,-1,1007,344,0,0
-210,680,0,0,0,0,0,0,0,0,0,-1,1014,344,0,0
-203,680,0,0,0,0,0,0,0,0,0,-1,1021,344,0,0
-196,680,0,0,0,0,0,0,0,0,0,-1,1028,344,0,0
-189,680,0,0,0,0,0,0,0,0,0,-1,1035,344,0,0
-182,680,0,0,0,0,0,0,0,0,0,-1,1042,344,0,0
-175,680,0,0,0,0,0,0,0,0,0,-1,1049,344,0,0
-168,680,0,0,0,0,0,0,0,0,0,-1,1056,344,0,0
-161,680,0,0,0,0,0,0,0,0,0,-1,1063,344,0,0
-154,680,5.78296,-24.9158,0,0,0,0,0,0,0,-1,1070,344,5.78297,24.9158
-147,680,5.91821,-24.4474,0.0580014,-0.0769821,0.103073,0.113714,-0.132694,0.495529,0.142404,0.0430867,1077,344,5.91822,24.4475
-140,680,6.18262,-23.6859,0.0570359,-0.0681134,0.0979554,0.110697,-0.121775,0.501165,0.134269,0.0457619,1084,344,6.18264,23.6859
-133,680,6.42993,-22.8046,0,0,0,0,0,0,0,-1,1091,344,6.42996,22.8046
-126,680,6.73779,-21.9109,0,0,0,0,0,0,0,-1,1098,344,6.73785,21.9108
-119,680,6.85864,-21.3227,0,0,0,0,0,0,0,-1,1105,344,6.85864,21.3227
-112,680,6.97913,-20.3635,0,0,0,0,0,0,0,-1,1112,344,6.97918,20.3635
-105,680,7.21936,-19.6638,0,0,0,0,0,0,0,-1,1119,344,7.21933,19.6638
-98,680,3.32776,-19.4174,0,0,0,0,0,0,0,-1,1126,344,3.32772,19.4174
-91,680,8.72412,-27.7066,0,0,0,0,0,0,0,-1,1133,344,8.72408,27.7066
-84,680,3.77551,-23.3849,0,0,0,0,0,0,0,-1,1140,344,3.77554,23.385
-77,680,-1.28748,-18.6711,0,0,0,0,0,0,0,-1,1147,344,-1.28748,18.671
-70,680,-6.60596,-14.4461,0,0,0,0,0,0,0,-1,1154,344,-6.60593,14.4461
-63,680,-11.7976,-5.49332,0,0,0,0,0,0,0,-1,1161,344,-11.7976,5.49332
-56,680,-6.96912,-8.83356,0,0,0,0,0,0,0,-1,1168,344,-6.96907,8.83354
-49,680,-6.7677,-2.24063,0,0,0,0,0,0,0,-1,1175,344,-6.76772,2.24063
-42,680,-1.02368,0.618805,0,0,0,0,0,0,0,-1,1182,344,-1.0237,-0.618797
-35,680,-0.947876,-0.942719,0,0,0,0,0,0,0,-1,1189,344,-0.947842,0.942731
-28,680,-1.46118,-1.10574,0,0,0,0,0,0,0,-1,1196,344,-1.4612,1.10575
-21,680,4.71082,-21.7811,0,0,0,0,0,0,0,-1,1203,344,4.71083,21.7811
-14,680,3.9292,-23.6772,0,0,0,0,0,0,0,-1,1210,344,3.92918,23.6772
-7,680,3.84607,-23.7281,0,0,0,0,0,0,0,-1,1217,344,3.84612,23.7281
0,680,3.32727,-27.638,0,0,0,0,0,0,0,-1,1224,344,3.32723,27.638
7,680,3.62671,-23.6959,0,0,0,0,0,0,0,-1,1231,344,3.62667,23.6959
14,680,3.70129,-23.6522,0,0,0,0,0,0,0,-1,1238,344,3.70126,23.6521
21,680,3.84985,-23.8694,-0.00615296,0.0151037,0.0125187,0.0208973,-0.0119466,1.13735,0.0191957,0.0450631,1245,344,3.84985,23.8695
28,680,3.49695,-24.1915,-0.0049621,0.0128323,0.00905087,0.0166268,-0.00875656,1.17382,0.014888,0.0406757,1252,344,3.49692,24.1915
35,680,3.47852,-23.9428,-0.00364755,0.0118272,0.00607479,0.013927,-0.00574736,1.23799,0.0116816,0.0436711,1259,344,3.47852,23.9429
42,680,3.34827,-23.6632,-0.0025454,0.0111632,0.00407933,0.0122852,-0.00366746,1.30237,0.00964786,0.0446782,1266,344,3.34828,23.6632
49,680,3.24084,-23.6288,-0.00074166,0.010263,0.00200909,0.0106183,-0.00109698,1.39575,0.00747144,0.0427507,1273,344,3.24091,23.6287
56,680,3.19873,-23.7459,0.0024843,0.00887309,0.00100229,0.00902664,0.00233075,1.41878,0.00541084,0.0427981,1280,344,3.19875,23.7459
63,680,3.6748,-23.4685,0.00539936,0.00886416,-0.00193293,0.00972742,0.0045361,-1.15077,0.00562037,0.0428074,1287,344,3.67481,23.4685
70,680,3.69556,-23.3493,0,0,0,0,0,0,0,-1,1294,344,3.69557,23.3493
77,680,3.5542,-23.7326,0.0171936,0.0109345,-0.00372886,0.0189322,0.00919596,-0.436278,0.010932,0.04634,1301,344,3.55419,23.7326
84,680,4.06323,-24.2676,0.0225325,0.0110992,-0.00325192,0.0233927,0.010239,-0.2586,0.0135407,0.0455004,1308,344,4.06324,24.2676
91,680,3.93323,-24.0056,0.0268047,0.0116355,-0.00319078,0.0274486,0.0109917,-0.199108,0.0159518,0.0482931,1315,344,3.93327,24.0056
98,680,3.08838,-23.4045,0,0,0,0,0,0,0,-1,1322,344,3.08844,23.4045
105,680,3.13928,-23.3298,0.0347413,0.0106549,-0.00237048,0.0349724,0.0104238,-0.0971735,0.020733,0.0429463,1329,344,3.13924,23.3298
112,680,3.21997,-23.2132,0.0378057,0.010543,-0.00195337,0.0379449,0.0104038,-0.0711655,0.02264,0.0443329,1336,344,3.22001,23.2132
119,680,0.778931,-23.3706,0.0395719,0.00974663,-0.00138227,0.0396358,0.00968271,-0.0462137,0.0238604,0.0422877,1343,344,0.778922,23.3706
126,680,3.41846,-23.4382,0.0395158,0.00949182,0.000114771,0.0395162,0.00949138,0.00382256,0.0238193,0.0423817,1350,344,3.41844,23.4382
133,680,3.09485,-23.0483,0,0,0,0,0,0,0,-1,1357,344,3.09481,23.0483
140,680,2.82703,-22.7835,0,0,0,0,0,0,0,-1,1364,344,2.82697,22.7835
147,680,2.74329,-22.9446,0,0,0,0,0,0,0,-1,1371,344,2.74335,22.9447
154,680,2.62622,-22.4516,0,0,0,0,0,0,0,-1,1378,344,2.62627,22.4516
161,680,2.4314,-22.6935,0,0,0,0,0,0,0,-1,1385,344,2.43141,22.6935
168,680,29.4142,-2.51651,0,0,0,0,0,0,0,-1,1392,344,29.4142,2.51652
175,680,6.66541,0.942078,0,0,0,0,0,0,0,-1,1399,344,6.66538,-0.942088
182,680,6.52917,0.532379,0,0,0,0,0,0,0,-1,1406,344,6.52922,-0.532385
189,680,7.55884,4.77695,0,0,0,0,0,0,0,-1,1413,344,7.55886,-4.77694
196,680,6.55627,3.35254,0,0,0,0,0,0,0,-1,1420,344,6.55622,-3.35255
203,680,5.7334,1.90753,0,0,0,0,0,0,0,-1,1427,344,5.73341,-1.90754
210,680,5.27515,0.493622,0,0,0,0,0,0,0,-1,1434,344,5.27514,-0.493632
217,680,6.56384,-0.374176,0,0,0,0,0,0,0,-1,1441,344,6.56379,0.374176
224,680,3.9491,-0.640228,0,0,0,0,0,0,0,-1,1448,344,3.94908,0.64024
231,680,4.24866,-1.96881,0,0,0,0,0,0,0,-1,1455,344,4.2486,1.96882
238,680,4.29333,-3.23984,0,0,0,0,0,0,0,-1,1462,344,4.29332,3.23984
245,680,2.44397,0.985382,0,0,0,0,0,0,0,-1,1469,344,2.44402,-0.985394
252,680,3.07349,2.18951,0,0,0,0,0,0,0,-1,1476,344,3.0735,-2.18952
259,680,2.82971,1.30682,0,0,0,0,0,0,0,-1,1483,344,2.82972,-1.30684
266,680,2.67554,1.44067,0,0,0,0,0,0,0,-1,1490,344,2.67551,-1.44066
273,680,2.46411,1.54666,0,0,0,0,0,0,0,-1,1497,344,2.46407,-1.54666
280,680,0,0,0,0,0,0,0,0,0,-1,1504,344,0,0
287,680,0,0,0,0,0,0,0,0,0,-1,1511,344,0,0
294,680,0,0,0,0,0,0,0,0,0,-1,1518,344,0,0
301,680,0,0,0,0,0,0,0,0,0,-1,1525,344,0,0
308,680,0,0,0,0,0,0,0,0,0,-1,1532,344,0,0
315,680,0,0,0,0,0,0,0,0,0,-1,1539,344,0,0
322,680,0,0,0,0,0,0,0,0,0,-1,1546,344,0,0
329,680,0,0,0,0,0,0,0,0,0,-1,1553,344,0,0
336,680,0,0,0,0,0,0,0,0,0,-1,1560,344,0,0
343,680,0,0,0,0,0,0,0,0,0,-1,1567,344,0,0
350,680,0,0,0,0,0,0,0,0,0,-1,1574,344,0,0
357,680,0,0,0,0,0,0,0,0,0,-1,1581,344,0,0
364,680,0,0,0,0,0,0,0,0,0,-1,1588,344,0,0
371,680,0,0,0,0,0,0,0,0,0,-1,1595,344,0,0
378,680,0,0,0,0,0,0,0,0,0,-1,1602,344,0,0
385,680,0,0,0,0,0,0,0,0,0,-1,1609,344,0,0
392,680,0,0,0,0,0,0,0,0,0,-1,1616,344,0,0
399,680,0,0,0,0,0,0,0,0,0,-1,1623,344,0,0
406,680,0,0,0,0,0,0,0,0,0,-1,1630,344,0,0
413,680,0,0,0,0,0,0,0,0,0,-1,1637,344,0,0
420,680,0,0,0,0,0,0,0,0,0,-1,1644,344,0,0
427,680,0,0,0,0,0,0,0,0,0,-1,1651,344,0,0
434,680,0,0,0,0,0,0,0,0,0,-1,1658,344,0,0
441,680,0,0,0,0,0,0,0,0,0,-1,1665,344,0,0
448,680,0,0,0,0,0,0,0,0,0,-1,1672,344,0,0
455,680,0,0,0,0,0,0,0,0,0,-1,1679,344,0,0
462,680,0,0,0,0,0,0,0,0,0,-1,1686,344,0,0
469,680,0,0,0,0,0,0,0,0,0,-1,1693,344,0,0
476,680,0,0,0,0,0,0,0,0,0,-1,1700,344,0,0
483,680,0,0,0,0,0,0,0,0,0,-1,1707,344,0,0
490,680,0,0,0,0,0,0,0,0,0,-1,1714,344,0,0
497,680,0,0,0,0,0,0,0,0,0,-1,1721,344,0,0
504,680,0,0,0,0,0,0,0,0,0,-1,1728,344,0,0
511,680,0,0,0,0,0,0,0,0,0,-1,1735,344,0,0
518,680,0,0,0,0,0,0,0,0,0,-1,1742,344,0,0
525,680,0,0,0,0,0,0,0,0,0,-1,1749,344,0,0
532,680,0,0,0,0,0,0,0,0,0,-1,1756,344,0,0
539,680,0,0,0,0,0,0,0,0,0,-1,1763,344,0,0
546,680,0,0,0,0,0,0,0,0,0,-1,1770,344,0,0
553,680,0,0,0,0,0,0,0,0,0,-1,1777,344,0,0
560,680,0,0,0,0,0,0,0,0,0,-1,1784,344,0,0
567,680,0,0,0,0,0,0,0,0,0,-1,1791,344,0,0
574,680,0,0,0,0,0,0,0,0,0,-1,1798,344,0,0
581,680,0,0,0,0,0,0,0,0,0,-1,1805,344,0,0
588,680,0,0,0,0,0,0,0,0,0,-1,1812,344,0,0
595,680,0,0,0,0,0,0,0,0,0,-1,1819,344,0,0
602,680,0,0,0,0,0,0,0,0,0,-1,1826,344,0,0
609,680,0,0,0,0,0,0,0,0,0,-1,1833,344,0,0
616,680,0,0,0,0,0,0,0,0,0,-1,1840,344,0,0
623,680,0,0,0,0,0,0,0,0,0,-1,1847,344,0,0
630,680,0,0,0,0,0,0,0,0,0,-1,1854,344,0,0
637,680,0,0,0,0,0,0,0,0,0,-1,1861,344,0,0
644,680,0,0,0,0,0,0,0,0,0,-1,1868,344,0,0
651,680,0,0,0,0,0,0,0,0,0,-1,1875,344,0,0
658,680,0,0,0,0,0,0,0,0,0,-1,1882,344,0,0
665,680,0,0,0,0,0,0,0,0,0,-1,1889,344,0,0
672,680,0,0,0,0,0,0,0,0,0,-1,1896,344,0,0
679,680,0,0,0,0,0,0,0,0,0,-1,1903,344,0,0
686,680,0,0,0,0,0,0,0,0,0,-1,1910,344,0,0
693,680,0,0,0,0,0,0,0,0,0,-1,1917,344,0,0
700,680,0,0,0,0,0,0,0,0,0,-1,1924,344,0,0
707,680,0,0,0,0,0,0,0,0,0,-1,1931,344,0,0
714,680,0,0,0,0,0,0,0,0,0,-1,1938,344,0,0
721,680,0,0,0,0,0,0,0,0,0,-1,1945,344,0,0
728,680,0,0,0,0,0,0,0,0,0,-1,1952,344,0,0
735,680,0,0,0,0,0,0,0,0,0,-1,1959,344,0,0
742,680,0,0,0,0,0,0,0,0,0,-1,1966,344,0,0
749,680,0,0,0,0,0,0,0,0,0,-1,1973,344,0,0
756,680,0,0,0,0,0,0,0,0,0,-1,1980,344,0,0
763,680,0,0,0,0,0,0,0,0,0,-1,1987,344,0,0
770,680,0,0,0,0,0,0,0,0,0,-1,1994,344,0,0
777,680,0,0,0,0,0,0,0,0,0,-1,2001,344,0,0
784,680,0,0,0,0,0,0,0,0,0,-1,2008,344,0,0
791,680,0,0,0,0,0,0,0,0,0,-1,2015,344,0,0
798,680,0,0,0,0,0,0,0,0,0,-1,2022,344,0,0
805,680,0,0,0,0,0,0,0,0,0,-1,2029,344,0,0
812,680,0,0,0,0,0,0,0,0,0,-1,2036,344,0,0
-700,673,0,0,0,0,0,0,0,0,0,-1,524,351,0,0
-693,673,0,0,0,0,0,0,0,0,0,-1,531,351,0,0
-686,673,0,0,0,0,0,0,0,0,0,-1,538,351,0,0
-679,673,0,0,0,0,0,0,0,0,0,-1,545,351,0,0
-672,673,0,0,0,0,0,0,0,0,0,-1,552,351,0,0
-665,673,0,0,0,0,0,0,0,0,0,-1,559,351,0,0
-658,673,0,0,0,0,0,0,0,0,0,-1,566,351,0,0
-651,673,0,0,0,0,0,0,0,0,0,-1,573,351,0,0
-644,673,0,0,0,0,0,0,0,0,0,-1,580,351,0,0
-637,673,0,0,0,0,0,0,0,0,0,-1,587,351,0,0
-630,673,0,0,0,0,0,0,0,0,0,-1,594,351,0,0
-623,673,0,0,0,0,0,0,0,0,0,-1,601,351,0,0
-616,673,0,0,0,0,0,0,0,0,0,-1,608,351,0,0
-609,673,0,0,0,0,0,0,0,0,0,-1,615,351,0,0
-602,673,0,0,0,0,0,0,0,0,0,-1,622,351,0,0
-595,673,0,0,0,0,0,0,0,0,0,-1,629,351,0,0
-588,673,0,0,0,0,0,0,0,0,0,-1,636,351,0,0
-581,673,0,0,0,0,0,0,0,0,0,-1,643,351,0,0
-574,673,0,0,0,0,0,0,0,0,0,-1,650,351,0,0
-567,673,0,0,0,0,0,0,0,0,0,-1,657,351,0,0
-560,673,0,0,0,0,0,0,0,0,0,-1,664,351,0,0
-553,673,0,0,0,0,0,0,0,0,0,-1,671,351,0,0
-546,673,0,0,0,0,0,0,0,0,0,-1,678,351,0,0
-539,673,0,0,0,0,0,0,0,0,0,-1,685,351,0,0
-532,673,0,0,0,0,0,0,0,0,0,-1,692,351,0,0
-525,673,0,0,0,0,0,0,0,0,0,-1,699,351,0,0
-518,673,0,0,0,0,0,0,0,0,0,-1,706,351,0,0
-511,673,0,0,0,0,0,0,0,0,0,-1,713,351,0,0
-504,673,0,0,0,0,0,0,0,0,0,-1,720,351,0,0
-497,673,0,0,0,0,0,0,0,0,0,-1,727,351,0,0
-490,673,0,0,0,0,0,0,0,0,0,-1,734,351,0,0
-483,673,0,0,0,0,0,0,0,0,0,-1,741,351,0,0
-476,673,0,0,0,0,0,0,0,0,0,-1,748,351,0,0
-469,673,0,0,0,0,0,0,0,0,0,-1,755,351,0,0
-462,673,0,0,0,0,0,0,0,0,0,-1,762,351,0,0
-455,673,0,0,0,0,0,0,0,0,0,-1,769,351,0,0
-448,673,0,0,0,0,0,0,0,0,0,-1,776,351,0,0
-441,673,0,0,0,0,0,0,0,0,0,-1,783,351,0,0
-434,673,0,0,0,0,0,0,0,0,0,-1,790,351,0,0
-427,673,0,0,0,0,0,0,0,0,0,-1,797,351,0,0
-420,673,0,0,0,0,0,0,0,0,0,-1,804,351,0,0
-413,673,0,0,0,0,0,0,0,0,0,-1,811,351,0,0
-406,673,0,0,0,0,0,0,0,0,0,-1,818,351,0,0
-399,673,0,0,0,0,0,0,0,0,0,-1,825,351,0,0
-392,673,0,0,0,0,0,0,0,0,0,-1,832,351,0,0
-385,673,0,0,0,0,0,0,0,0,0,-1,839,351,0,0
-378,673,0,0,0,0,0,0,0,0,0,-1,846,351,0,0
-371,673,0,0,0,0,0,0,0,0,0,-1,853,351,0,0
-364,673,0,0,0,0,0,0,0,0,0,-1,860,351,0,0
-357,673,0,0,0,0,0,0,0,0,0,-1,867,351,0,0
-350,673,0,0,0,0,0,0,0,0,0,-1,874,351,0,0
-343,673,0,0,0,0,0,0,0,0,0,-1,881,351,0,0
-336,673,0,0,0,0,0,0,0,0,0,-1,888,351,0,0
-329,673,0,0,0,0,0,0,0,0,0,-1,895,351,0,0
-322,673,0,0,0,0,0,0,0,0,0,-1,902,351,0,0
-315,673,0,0,0,0,0,0,0,0,0,-1,909,351,0,0
-308,673,0,0,0,0,0,0,0,0,0,-1,916,351,0,0
-301,673,0,0,0,0,0,0,0,0,0,-1,923,351,0,0
-294,673,0,0,0,0,0,0,0,0,0,-1,930,351,0,0
-287,673,0,0,0,0,0,0,0,0,0,-1,937,351,0,0
-280,673,0,0,0,0,0,0,0,0,0,-1,944,351,0,0
-273,673,0,0,0,0,0,0,0,0,0,-1,951,351,0,0
-266,673,0,0,0,0,0,0,0,0,0,-1,958,351,0,0
-259,673,0,0,0,0,0,0,0,0,0,-1,965,351,0,0
-252,673,0,0,0,0,0,0,0,0,0,-1,972,351,0,0
-245,673,0,0,0,0,0,0,0,0,0,-1,979,351,0,0
-238,673,0,0,0,0,0,0,0,0,0,-1,986,351,0,0
-231,673,0,0,0,0,0,0,0,0,0,-1,993,351,0,0
-224,673,0,0,0,0,0,0,0,0,0,-1,1000,351,0,0
-217,673,0,0,0,0,0,0,0,0,0,-1,1007,351,0,0
-210,673,0,0,0,0,0,0,0,0,0,-1,1014,351,0,0
-203,673,0,0,0,0,0,0,0,0,0,-1,1021,351,0,0
-196,673,0,0,0,0,0,0,0,0,0,-1,1028,351,0,0
-189,673,0,0,0,0,0,0,0,0,0,-1,1035,351,0,0
-182,673,0,0,0,0,0,0,0,0,0,-1,1042,351,0,0
-175,673,4.49194,-22.1735,0,0,0,0,0,0,0,-1,1049,351,4.4919,22.1735
-168,673,3.04211,-24.996,0,0,0,0,0,0,0,-1,1056,351,3.04214,24.996
-161,673,2.21057,-25.5725,0,0,0,0,0,0,0,-1,1063,351,2.21056,25.5725
-154,673,5.51123,-24.7143,0,0,0,0,0,0,0,-1,1070,351,5.51119,24.7143
-147,673,5.6084,-24.1315,0.0508322,-0.0639382,0.0832403,0.094551,-0.107657,0.483613,0.116827,0.0424373,1077,351,5.6084,24.1315
-140,673,5.75562,-23.2592,0.0494748,-0.0569545,0.0792388,0.0917095,-0.0991893,0.489702,0.110244,0.0444407,1084,351,5.75562,23.2592
-133,673,6.0387,-22.3722,0,0,0,0,0,0,0,-1,1091,351,6.03873,22.3722
-126,673,6.31458,-21.5312,0.0441073,-0.0398001,0.0688586,0.0827862,-0.078479,0.511793,0.0931176,0.0470447,1098,351,6.3146,21.5312
-119,673,6.60876,-20.9843,0.0405803,-0.0309768,0.0630999,0.0773393,-0.0677359,0.527492,0.0838203,0.0426811,1105,351,6.6088,20.9844
-112,673,7.02832,-20.4686,0,0,0,0,0,0,0,-1,1112,351,7.02836,20.4686
-105,673,7.23914,-19.6969,0,0,0,0,0,0,0,-1,1119,351,7.23916,19.6969
-98,673,4.56433,-18.6721,0,0,0,0,0,0,0,-1,1126,351,4.56439,18.6721
-91,673,9.3949,-25.8218,0,0,0,0,0,0,0,-1,1133,351,9.39491,25.8218
-84,673,4.54175,-21.8352,0,0,0,0,0,0,0,-1,1140,351,4.54177,21.8352
-77,673,-0.469849,-17.7731,0,0,0,0,0,0,0,-1,1147,351,-0.469892,17.7731
-70,673,-5.71082,-14.1129,0,0,0,0,0,0,0,-1,1154,351,-5.7108,14.1129
-63,673,1.11719,-2.95016,0,0,0,0,0,0,0,-1,1161,351,1.11724,2.95016
-56,673,-6.18872,-9.52338,0,0,0,0,0,0,0,-1,1168,351,-6.18874,9.52336
-49,673,-0.926758,-0.115448,0,0,0,0,0,0,0,-1,1175,351,-0.926732,0.115444
-42,673,-1.15015,0.289917,0,0,0,0,0,0,0,-1,1182,351,-1.15017,-0.289932
-35,673,-0.919556,-1.00711,0,0,0,0,0,0,0,-1,1189,351,-0.919514,1.00711
-28,673,1.03564,-2.58228,0,0,0,0,0,0,0,-1,1196,351,1.0356,2.58229
-21,673,4.09644,-23.6449,0,0,0,0,0,0,0,-1,1203,351,4.09638,23.6449
-14,673,3.87756,-23.7605,-0.0069038,0.0226086,0.0212144,0.0336941,-0.0179893,1.08927,0.0302952,0.0438911,1210,351,3.87752,23.7605
-7,673,3.81152,-23.7998,-0.00659901,0.0210817,0.0191227,0.0308471,-0.0163644,1.09865,0.0276818,0.0424966,1217,351,3.81157,23.7998
0,673,3.78552,-23.8641,0,0,0,0,0,0,0,-1,1224,351,3.78554,23.8641
7,673,3.68469,-23.8333,-0.00609847,0.0169871,0.013982,0.0235753,-0.0126867,1.13046,0.0212482,0.0492801,1231,351,3.68471,23.8333
14,673,3.71924,-23.8356,-0.00553038,0.0150993,0.0113631,0.020131,-0.0105621,1.15394,0.0180054,0.0408711,1238,351,3.71919,23.8356
21,673,3.75342,-23.9702,-0.00507514,0.0133116,0.00885568,0.016883,-0.00864662,1.18745,0.0149931,0.0238634,1245,351,3.75339,23.9702
28,673,3.74097,-23.9978,-0.00409507,0.0118732,0.00636788,0.0141016,-0.00632349,1.23417,0.0120741,0.0173184,1252,351,3.74093,23.9978
35,673,3.69202,-23.9853,-0.00302349,0.0113524,0.00424031,0.0125099,-0.00418101,1.30431,0.0100285,0.0271113,1259,351,3.69197,23.9853
42,673,3.58826,-23.9395,-0.00215866,0.0110039,0.00289542,0.0116126,-0.00276743,1.36356,0.00881032,0.0301806,1266,351,3.58828,23.9395
49,673,3.51611,-23.9701,-0.000794816,0.0104323,0.00141991,0.0106091,-0.000971609,1.44692,0.00741785,0.019104,1273,351,3.51606,23.9701
56,673,3.50598,-23.9697,0.00153078,0.00958112,0.000707588,0.00964284,0.00146906,1.48379,0.00599913,0.0155216,1280,351,3.50599,23.9697
63,673,3.57007,-23.8666,0.00355205,0.00989753,-0.00156047,0.0102605,0.00318906,-1.34225,0.00606362,0.0186558,1287,351,3.57006,23.8666
70,673,3.55542,-23.8445,0.00667314,0.0103296,-0.00208843,0.011277,0.00572577,-1.14493,0.00651102,0.02949,1294,351,3.55543,23.8445
77,673,3.56384,-23.8749,0.0122794,0.0120762,-0.00305939,0.0152389,0.00911672,-0.768801,0.00885461,0.0396021,1301,351,3.5638,23.8749
84,673,3.61768,-24.0071,0.0163116,0.0124825,-0.00287001,0.017847,0.010947,-0.49125,0.0103919,0.041469,1308,351,3.61763,24.0071
91,673,3.58875,-24.0231,0.0195874,0.0130363,-0.00299552,0.0207506,0.0118731,-0.370385,0.0120219,0.0452416,1315,351,3.58876,24.0231
98,673,3.34192,-23.8503,0.0226697,0.0126779,-0.0027608,0.0233818,0.0119658,-0.252423,0.0135007,0.0471862,1322,351,3.3419,23.8504
105,673,3.20935,-23.671,0.0255984,0.0125205,-0.00264147,0.0261118,0.0120071,-0.191957,0.0150919,0.0431714,1329,351,3.20938,23.671
112,673,3.34229,-23.3556,0,0,0,0,0,0,0,-1,1336,351,3.34233,23.3556
119,673,3.41675,-23.5382,0,0,0,0,0,0,0,-1,1343,351,3.41678,23.5382
126,673,3.2959,-23.4681,0.0296168,0.0116066,-0.00100857,0.0296731,0.0115503,-0.0557678,0.0172713,0.0397355,1350,351,3.29584,23.4681
133,673,3.15161,-23.264,0.0291328,0.0110119,0.000480487,0.0291455,0.0109992,0.0264908,0.016995,0.0396122,1357,351,3.15158,23.2641
140,673,3.05139,-23.173,0.0280817,0.00985288,0.0021963,0.0283426,0.009592,0.118231,0.016646,0.0431397,1364,351,3.05143,23.173
147,673,2.901,-23.1415,0.0263777,0.00856751,0.00401221,0.0272398,0.00770539,0.211657,0.0162137,0.0434211,1371,351,2.90101,23.1415
154,673,2.90112,-22.8951,0.0241696,0.0070396,0.00589154,0.0260003,0.00520896,0.301266,0.0158845,0.0393542,1378,351,2.90111,22.8951
161,673,2.8739,-22.6848,0,0,0,0,0,0,0,-1,1385,351,2.87386,22.6847
168,673,6.87061,1.83954,0,0,0,0,0,0,0,-1,1392,351,6.87063,-1.83953
175,673,6.6228,1.1459,0,0,0,0,0,0,0,-1,1399,351,6.62276,-1.14591
182,673,6.37244,0.796112,0,0,0,0,0,0,0,-1,1406,351,6.3724,-0.796102
189,673,6.12097,0.265472,0,0,0,0,0,0,0,-1,1413,351,6.121,-0.265482
196,673,6.02173,3.12717,0,0,0,0,0,0,0,-1,1420,351,6.02176,-3.12717
203,673,5.04456,1.6351,0,0,0,0,0,0,0,-1,1427,351,5.04455,-1.63509
210,673,4.79224,0.447479,0,0,0,0,0,0,0,-1,1434,351,4.79229,-0.447469
217,673,2.01648,0.972687,0,0,0,0,0,0,0,-1,1441,351,2.01644,-0.972691
224,673,2.3689,-1.80539,0,0,0,0,0,0,0,-1,1448,351,2.36896,1.80539
231,673,2.65857,-2.18497,0,0,0,0,0,0,0,-1,1455,351,2.65852,2.18496
238,673,3.77844,-2.06088,0,0,0,0,0,0,0,-1,1462,351,3.77839,2.06088
245,673,3.5376,-0.190399,0,0,0,0,0,0,0,-1,1469,351,3.53759,0.1904
252,673,3.80518,0.55603,0,0,0,0,0,0,0,-1,1476,351,3.80519,-0.556022
259,673,3.88562,1.29617,0,0,0,0,0,0,0,-1,1483,351,3.88562,-1.29618
266,673,4.22424,2.04834,0,0,0,0,0,0,0,-1,1490,351,4.22429,-2.04834
273,673,6.07886,0.385895,0,0,0,0,0,0,0,-1,1497,351,6.0789,-0.385906
280,673,6.97534,-0.0820007,0,0,0,0,0,0,0,-1,1504,351,6.97536,0.0820122
287,673,7.66968,-0.348541,0,0,0,0,0,0,0,-1,1511,351,7.66969,0.348534
294,673,8.20996,0.28537,0,0,0,0,0,0,0,-1,1518,351,8.20993,-0.28536
301,673,0,0,0,0,0,0,0,0,0,-1,1525,351,0,0
308,673,0,0,0,0,0,0,0,0,0,-1,1532,351,0,0
315,673,0,0,0,0,0,0,0,0,0,-1,1539,351,0,0
322,673,0,0,0,0,0,0,0,0,0,-1,1546,351,0,0
329,673,0,0,0,0,0,0,0,0,0,-1,1553,351,0,0
336,673,0,0,0,0,0,0,0,0,0,-1,1560,351,0,0
343,673,0,0,0,0,0,0,0,0,0,-1,1567,351,0,0
350,673,0,0,0,0,0,0,0,0,0,-1,1574,351,0,0
357,673,0,0,0,0,0,0,0,0,0,-1,1581,351,0,0
364,673,0,0,0,0,0,0,0,0,0,-1,1588,351,0,0
371,673,0,0,0,0,0,0,0,0,0,-1,1595,351,0,0
378,673,0,0,0,0,0,0,0,0,0,-1,1602,351,0,0
385,673,0,0,0,0,0,0,0,0,0,-1,1609,351,0,0
392,673,0,0,0,0,0,0,0,0,0,-1,1616,351,0,0
399,673,0,0,0,0,0,0,0,0,0,-1,1623,351,0,0
406,673,0,0,0,0,0,0,0,0,0,-1,1630,351,0,0
413,673,0,0,0,0,0,0,0,0,0,-1,1637,351,0,0
420,673,0,0,0,0,0,0,0,0,0,-1,1644,351,0,0
427,673,0,0,0,0,0,0,0,0,0,-1,1651,351,0,0
434,673,0,0,0,0,0,0,0,0,0,-1,1658,351,0,0
441,673,0,0,0,0,0,0,0,0,0,-1,1665,351,0,0
448,673,0,0,0,0,0,0,0,0,0,-1,1672,351,0,0
455,673,0,0,0,0,0,0,0,0,0,-1,1679,351,0,0
462,673,0,0,0,0,0,0,0,0,0,-1,1686,351,0,0
469,673,0,0,0,0,0,0,0,0,0,-1,1693,351,0,0
476,673,0,0,0,0,0,0,0,0,0,-1,1700,351,0,0
483,673,0,0,0,0,0,0,0,0,0,-1,1707,351,0,0
490,673,0,0,0,0,0,0,0,0,0,-1,1714,351,0,0
497,673,0,0,0,0,0,0,0,0,0,-1,1721,351,0,0
504,673,0,0,0,0,0,0,0,0,0,-1,1728,351,0,0
511,673,0,0,0,0,0,0,0,0,0,-1,1735,351,0,0
518,673,0,0,0,0,0,0,0,0,0,-1,1742,351,0,0
525,673,0,0,0,0,0,0,0,0,0,-1,1749,351,0,0
532,673,0,0,0,0,0,0,0,0,0,-1,1756,351,0,0
539,673,0,0,0,0,0,0,0,0,0,-1,1763,351,0,0
546,673,0,0,0,0,0,0,0,0,0,-1,1770,351,0,0
553,673,0,0,0,0,0,0,0,0,0,-1,1777,351,0,0
560,673,0,0,0,0,0,0,0,0,0,-1,1784,351,0,0
567,673,0,0,0,0,0,0,0,0,0,-1,1791,351,0,0
574,673,0,0,0,0,0,0,0,0,0,-1,1798,351,0,0
581,673,0,0,0,0,0,0,0,0,0,-1,1805,351,0,0
588,673,0,0,0,0,0,0,0,0,0,-1,1812,351,0,0
595,673,0,0,0,0,0,0,0,0,0,-1,1819,351,0,0
602,673,0,0,0,0,0,0,0,0,0,-1,1826,351,0,0
609,673,0,0,0,0,0,0,0,0,0,-1,1833,351,0,0
616,673,0,0,0,0,0,0,0,0,0,-1,1840,351,0,0
623,673,0,0,0,0,0,0,0,0,0,-1,1847,351,0,0
630,673,0,0,0,0,0,0,0,0,0,-1,1854,351,0,0
637,673,0,0,0,0,0,0,0,0,0,-1,1861,351,0,0
644,673,0,0,0,0,0,0,0,0,0,-1,1868,351,0,0
651,673,0,0,0,0,0,0,0,0,0,-1,1875,351,0,0
658,673,0,0,0,0,0,0,0,0,0,-1,1882,351,0,0
665,673,0,0,0,0,0,0,0,0,0,-1,1889,351,0,0
672,673,0,0,0,0,0,0,0,0,0,-1,1896,351,0,0
679,673,0,0,0,0,0,0,0,0,0,-1,1903,351,0,0
686,673,0,0,0,0,0,0,0,0,0,-1,1910,351,0,0
693,673,0,0,0,0,0,0,0,0,0,-1,1917,351,0,0
700,673,0,0,0,0,0,0,0,0,0,-1,1924,351,0,0
707,673,0,0,0,0,0,0,0,0,0,-1,1931,351,0,0
714,673,0,0,0,0,0,0,0,0,0,-1,1938,351,0,0
721,673,0,0,0,0,0,0,0,0,0,-1,1945,351,0,0
728,673,0,0,0,0,0,0,0,0,0,-1,1952,351,0,0
735,673,0,0,0,0,0,0,0,0,0,-1,1959,351,0,0
742,673,0,0,0,0,0,0,0,0,0,-1,1966,351,0,0
749,673,0,0,0,0,0,0,0,0,0,-1,1973,351,0,0
756,673,0,0,0,0,0,0,0,0,0,-1,1980,351,0,0
763,673,0,0,0,0,0,0,0,0,0,-1,1987,351,0,0
770,673,0,0,0,0,0,0,0,0,0,-1,1994,351,0,0
777,673,0,0,0,0,0,0,0,0,0,-1,2001,351,0,0
784,673,0,0,0,0,0,0,0,0,0,-1,2008,351,0,0
791,673,0,0,0,0,0,0,0,0,0,-1,2015,351,0,0
798,673,0,0,0,0,0,0,0,0,0,-1,2022,351,0,0
805,673,0,0,0,0,0,0,0,0,0,-1,2029,351,0,0
812,673,0,0,0,0,0,0,0,0,0,-1,2036,351,0,0
-700,666,0,0,0,0,0,0,0,0,0,-1,524,358,0,0
-693,666,0,0,0,0,0,0,0,0,0,-1,531,358,0,0
-686,666,0,0,0,0,0,0,0,0,0,-1,538,358,0,0
-679,666,0,0,0,0,0,0,0,0,0,-1,545,358,0,0
-672,666,0,0,0,0,0,0,0,0,0,-1,552,358,0,0
-665,666,0,0,0,0,0,0,0,0,0,-1,559,358,0,0
-658,666,0,0,0,0,0,0,0,0,0,-1,566,358,0,0
-651,666,0,0,0,0,0,0,0,0,0,-1,573,358,0,0
-644,666,0,0,0,0,0,0,0,0,0,-1,580,358,0,0
-637,666,0,0,0,0,0,0,0,0,0,-1,587,358,0,0
-630,666,0,0,0,0,0,0,0,0,0,-1,594,358,0,0
-623,666,0,0,0,0,0,0,0,0,0,-1,601,358,0,0
-616,666,0,0,0,0,0,0,0,0,0,-1,608,358,0,0
-609,666,0,0,0,0,0,0,0,0,0,-1,615,358,0,0
-602,666,0,0,0,0,0,0,0,0,0,-1,622,358,0,0
-595,666,0,0,0,0,0,0,0,0,0,-1,629,358,0,0
-588,666,0,0,0,0,0,0,0,0,0,-1,636,358,0,0
-581,666,0,0,0,0,0,0,0,0,0,-1,643,358,0,0
-574,666,0,0,0,0,0,0,0,0,0,-1,650,358,0,0
-567,666,0,0,0,0,0,0,0,0,0,-1,657,358,0,0
-560,666,0,0,0,0,0,0,0,0,0,-1,664,358,0,0
-553,666,0,0,0,0,0,0,0,0,0,-1,671,358,0,0
-546,666,0,0,0,0,0,0,0,0,0,-1,678,358,0,0
-539,666,0,0,0,0,0,0,0,0,0,-1,685,358,0,0
-532,666,0,0,0,0,0,0,0,0,0,-1,692,358,0,0
-525,666,0,0,0,0,0,0,0,0,0,-1,699,358,0,0
-518,666,0,0,0,0,0,0,0,0,0,-1,706,358,0,0
-511,666,0,0,0,0,0,0,0,0,0,-1,713,358,0,0
-504,666,0,0,0,0,0,0,0,0,0,-1,720,358,0,0
-497,666,0,0,0,0,0,0,0,0,0,-1,727,358,0,0
-490,666,0,0,0,0,0,0,0,0,0,-1,734,358,0,0
-483,666,0,0,0,0,0,0,0,0,0,-1,741,358,0,0
-476,666,0,0,0,0,0,0,0,0,0,-1,748,358,0,0
-469,666,0,0,0,0,0,0,0,0,0,-1,755,358,0,0
-462,666,0,0,0,0,0,0,0,0,0,-1,762,358,0,0
-455,666,0,0,0,0,0,0,0,0,0,-1,769,358,0,0
-448,666,0,0,0,0,0,0,0,0,0,-1,776,358,0,0
-441,666,0,0,0,0,0,0,0,0,0,-1,783,358,0,0
-434,666,0,0,0,0,0,0,0,0,0,-1,790,358,0,0
-427,666,0,0,0,0,0,0,0,0,0,-1,797,358,0,0
-420,666,0,0,0,0,0,0,0,0,0,-1,804,358,0,0
-413,666,0,0,0,0,0,0,0,0,0,-1,811,358,0,0
-406,666,0,0,0,0,0,0,0,0,0,-1,818,358,0,0
-399,666,0,0,0,0,0,0,0,0,0,-1,825,358,0,0
-392,666,0,0,0,0,0,0,0,0,0,-1,832,358,0,0
-385,666,0,0,0,0,0,0,0,0,0,-1,839,358,0,0
-378,666,0,0,0,0,0,0,0,0,0,-1,846,358,0,0
-371,666,0,0,0,0,0,0,0,0,0,-1,853,358,0,0
-364,666,0,0,0,0,0,0,0,0,0,-1,860,358,0,0
-357,666,0,0,0,0,0,0,0,0,0,-1,867,358,0,0
-350,666,0,0,0,0,0,0,0,0,0,-1,874,358,0,0
-343,666,0,0,0,0,0,0,0,0,0,-1,881,358,0,0
-336,666,0,0,0,0,0,0,0,0,0,-1,888,358,0,0
-329,666,0,0,0,0,0,0,0,0,0,-1,895,358,0,0
-322,666,0,0,0,0,0,0,0,0,0,-1,902,358,0,0
-315,666,0,0,0,0,0,0,0,0,0,-1,909,358,0,0
-308,666,0,0,0,0,0,0,0,0,0,-1,916,358,0,0
-301,666,0,0,0,0,0,0,0,0,0,-1,923,358,0,0
-294,666,0,0,0,0,0,0,0,0,0,-1,930,358,0,0
-287,666,0,0,0,0,0,0,0,0,0,-1,937,358,0,0
-280,666,0,0,0,0,0,0,0,0,0,-1,944,358,0,0
-273,666,0,0,0,0,0,0,0,0,0,-1,951,358,0,0
-266,666,0,0,0,0,0,0,0,0,0,-1,958,358,0,0
-259,666,0,0,0,0,0,0,0,0,0,-1,965,358,0,0
-252,666,0,0,0,0,0,0,0,0,0,-1,972,358,0,0
-245,666,0,0,0,0,0,0,0,0,0,-1,979,358,0,0
-238,666,0,0,0,0,0,0,0,0,0,-1,986,358,0,0
-231,666,0,0,0,0,0,0,0,0,0,-1,993,358,0,0
-224,666,0,0,0,0,0,0,0,0,0,-1,1000,358,0,0
-217,666,0,0,0,0,0,0,0,0,0,-1,1007,358,0,0
-210,666,0,0,0,0,0,0,0,0,0,-1,1014,358,0,0
-203,666,0,0,0,0,0,0,0,0,0,-1,1021,358,0,0
-196,666,8.33582,-20.8501,0,0,0,0,0,0,0,-1,1028,358,8.3358,20.8501
-189,666,6.60144,-21.3325,0,0,0,0,0,0,0,-1,1035,358,6.60149,21.3325
-182,666,5.74255,-21.3522,0,0,0,0,0,0,0,-1,1042,358,5.7425,21.3522
-175,666,3.62329,-23.1089,0,0,0,0,0,0,0,-1,1049,358,3.62323,23.1088
-168,666,3.12537,-23.8811,0,0,0,0,0,0,0,-1,1056,358,3.1254,23.8811
-161,666,2.6051,-24.6397,0,0,0,0,0,0,0,-1,1063,358,2.60505,24.6397
-154,666,4.83569,-23.8045,0,0,0,0,0,0,0,-1,1070,358,4.83567,23.8045
-147,666,5.099,-23.3702,0.0426748,-0.0507962,0.0647918,0.0758279,-0.0839493,0.472953,0.0922871,0.0457314,1077,358,5.099,23.3702
-140,666,5.06421,-22.7001,0.0411781,-0.0454475,0.0618015,0.0733333,-0.0776027,0.479754,0.0871546,0.0465877,1084,358,5.06415,22.7001
-133,666,4.91089,-22.2874,0,0,0,0,0,0,0,-1,1091,358,4.91085,22.2874
-126,666,5.84192,-21.161,0.0358755,-0.0317983,0.0536251,0.0654467,-0.0613695,0.503951,0.07323,0.0481023,1098,358,5.84194,21.161
-119,666,6.41101,-21.0745,0.0324646,-0.0246287,0.0488286,0.0604789,-0.052643,0.520878,0.0653632,0.0484092,1105,358,6.41105,21.0745
-112,666,4.60339,-21.8946,0,0,0,0,0,0,0,-1,1112,358,4.60337,21.8946
-105,666,4.47278,-21.6908,0,0,0,0,0,0,0,-1,1119,358,4.47274,21.6908
-98,666,4.59204,-19.3409,0,0,0,0,0,0,0,-1,1126,358,4.59206,19.3409
-91,666,4.18652,-17.1649,0,0,0,0,0,0,0,-1,1133,358,4.18652,17.165
-84,666,5.09656,-19.9682,0,0,0,0,0,0,0,-1,1140,358,5.09655,19.9682
-77,666,0.964722,-10.3601,0,0,0,0,0,0,0,-1,1147,358,0.964669,10.3601
-70,666,2.05957,-6.51086,0,0,0,0,0,0,0,-1,1154,358,2.05959,6.51088
-63,666,1.47485,-3.79593,0,0,0,0,0,0,0,-1,1161,358,1.47481,3.79593
-56,666,0.424683,-2.04132,0,0,0,0,0,0,0,-1,1168,358,0.424665,2.04132
-49,666,0.754395,-2.23169,0,0,0,0,0,0,0,-1,1175,358,0.754383,2.23169
-42,666,1.34473,-3.53897,0,0,0,0,0,0,0,-1,1182,358,1.34476,3.53896
-35,666,3.65308,-23.7909,0,0,0,0,0,0,0,-1,1189,358,3.65311,23.7909
-28,666,3.89136,-23.7178,0,0,0,0,0,0,0,-1,1196,358,3.89139,23.7178
-21,666,3.93127,-23.7288,-0.0056872,0.0173563,0.014906,0.0246744,-0.0130052,1.11442,0.0220994,0.0326291,1203,358,3.93128,23.7288
-14,666,3.85608,-23.8107,-0.00540737,0.016712,0.0140641,0.0235441,-0.0122395,1.11859,0.0210005,0.0255364,1210,358,3.85606,23.8107
-7,666,3.76465,-23.8573,-0.00520248,0.0158381,0.0127808,0.0218715,-0.0112359,1.12974,0.0194405,0.0171475,1217,358,3.76461,23.8573
0,666,3.76001,-23.8894,-0.00509433,0.0147562,0.0112026,0.0197979,-0.010136,1.1479,0.0175799,0.0119094,1224,358,3.76001,23.8894
7,666,3.72803,-23.9303,-0.00482015,0.0133803,0.00941039,0.0173709,-0.00881074,1.16972,0.0153829,0.0164482,1231,358,3.72803,23.9303
14,666,3.70435,-23.9804,-0.00436465,0.0122746,0.00768805,0.0152829,-0.00737296,1.19781,0.0133435,0.0167316,1238,358,3.70439,23.9804
21,666,3.67065,-24.0421,-0.00403638,0.0112344,0.00601949,0.0133218,-0.00612382,1.23699,0.0114805,0.0114842,1245,358,3.67069,24.0421
28,666,3.64429,-24.0734,-0.00325405,0.0103944,0.00429609,0.0116341,-0.00449372,1.28987,0.00961078,0.0125022,1252,358,3.64427,24.0734
35,666,3.62268,-24.0579,-0.00241052,0.0101841,0.00282866,0.0107902,-0.00301664,1.35971,0.00838198,0.0121179,1259,358,3.62266,24.0579
42,666,3.57532,-24.0834,-0.00175612,0.0100389,0.00196608,0.010358,-0.00207521,1.4099,0.00769098,0.012886,1266,358,3.57536,24.0834
49,666,3.54236,-24.0956,-0.000767409,0.00970889,0.0009664,0.0097973,-0.000855811,1.47958,0.00683468,0.0113432,1273,358,3.54239,24.0956
56,666,3.53149,-24.1043,0.000850298,0.00923557,0.000500632,0.00926536,0.000820514,1.51137,0.00592238,0.012706,1280,358,3.5315,24.1043
63,666,3.48523,-24.1401,0.0022015,0.00968743,-0.00115533,0.00986168,0.00202725,-1.4211,0.0060137,0.0141891,1287,358,3.48527,24.1401
70,666,3.49268,-24.1232,0.0043399,0.0101904,-0.00151912,0.0105613,0.00396897,-1.33131,0.00615995,0.0147602,1294,358,3.49273,24.1232
77,666,3.48584,-24.0698,0.00840503,0.0117002,-0.00228756,0.0128717,0.00723349,-1.09749,0.0074505,0.0194413,1301,358,3.48587,24.0698
84,666,3.48779,-24.0878,0.0113072,0.0122096,-0.00225317,0.0140563,0.0094605,-0.884208,0.00827582,0.0251444,1308,358,3.48784,24.0878
91,666,3.448,-24.0593,0.0136943,0.0127373,-0.00245738,0.0157193,0.0107123,-0.689249,0.00927267,0.0224052,1315,358,3.44802,24.0593
98,666,3.33813,-23.9832,0.015957,0.0125685,-0.00239258,0.0171944,0.011331,-0.477319,0.0100931,0.0197945,1322,358,3.33811,23.9833
105,666,3.28625,-23.8913,0.018081,0.0125792,-0.00238435,0.0189705,0.0116896,-0.357069,0.0110508,0.0214634,1329,358,3.28631,23.8913
112,666,3.35718,-23.6806,0.0198095,0.0126771,-0.00227647,0.0204742,0.0120124,-0.284067,0.0118799,0.0397735,1336,358,3.35719,23.6806
119,666,3.33179,-23.5215,0.0209348,0.0122722,-0.00210008,0.0214171,0.0117899,-0.225731,0.0123861,0.0422419,1343,358,3.33178,23.5215
126,666,3.23071,-23.5466,0.0212593,0.0120209,-0.00140957,0.0214696,0.0118106,-0.148089,0.0124162,0.0259966,1350,358,3.23069,23.5466
133,666,3.1991,-23.4805,0.021016,0.0115695,-0.000376875,0.021031,0.0115545,-0.0398113,0.012162,0.0233283,1357,358,3.19911,23.4805
140,666,3.12036,-23.4599,0.0203657,0.0106801,0.000805964,0.0204323,0.0106135,0.0824566,0.0117996,0.0225811,1364,358,3.12034,23.4599
147,666,3.0708,-23.3508,0.0192555,0.00977939,0.00198077,0.0196528,0.00938201,0.197987,0.0113504,0.0216394,1371,358,3.07079,23.3508
154,666,3.099,-23.14,0.0176297,0.00875755,0.00323705,0.0186851,0.00770206,0.315195,0.0108432,0.0191382,1378,358,3.09896,23.14
161,666,3.12646,-23.0288,0.015851,0.0081107,0.00429163,0.0177598,0.0062019,0.418497,0.0104079,0.0264634,1385,358,3.12642,23.0288
168,666,3.12195,-22.9135,0,0,0,0,0,0,0,-1,1392,358,3.12195,22.9135
175,666,3.23413,-23.0876,0,0,0,0,0,0,0,-1,1399,358,3.23412,23.0877
182,666,2.60876,-5.17068,0,0,0,0,0,0,0,-1,1406,358,2.6088,5.17068
189,666,2.46973,-5.49979,0,0,0,0,0,0,0,-1,1413,358,2.46975,5.49979
196,666,2.32458,-5.23651,0,0,0,0,0,0,0,-1,1420,358,2.32461,5.23653
203,666,2.28064,-3.88004,0,0,0,0,0,0,0,-1,1427,358,2.28059,3.88003
210,666,3.02576,-5.83548,0,0,0,0,0,0,0,-1,1434,358,3.02581,5.83547
217,666,2.30444,-5.36011,0,0,0,0,0,0,0,-1,1441,358,2.30447,5.3601
224,666,1.82324,-6.03101,0,0,0,0,0,0,0,-1,1448,358,1.82322,6.031
231,666,2.29797,-10.1093,0,0,0,0,0,0,0,-1,1455,358,2.29801,10.1093
238,666,2.52429,-6.10568,0,0,0,0,0,0,0,-1,1462,358,2.52423,6.10567
245,666,4.53345,-1.38205,0,0,0,0,0,0,0,-1,1469,358,4.53349,1.38204
252,666,4.77405,-0.246979,0,0,0,0,0,0,0,-1,1476,358,4.77405,0.246993
259,666,4.83655,1.14087,0,0,0,0,0,0,0,-1,1483,358,4.83652,-1.14087
266,666,6.14148,0.749512,0,0,0,0,0,0,0,-1,1490,358,6.14144,-0.749519
273,666,2.61304,-1.53772,0,0,0,0,0,0,0,-1,1497,358,2.613,1.53773
280,666,8.70898,-0.836975,0,0,0,0,0,0,0,-1,1504,358,8.70894,0.836988
287,666,2.27039,-4.09058,0,0,0,0,0,0,0,-1,1511,358,2.27042,4.09059
294,666,5.04211,-6.10623,0,0,0,0,0,0,0,-1,1518,358,5.04208,6.10623
301,666,-6.16052,-22.2927,0,0,0,0,0,0,0,-1,1525,358,-6.16053,22.2927
308,666,1.08496,-1.87576,0,0,0,0,0,0,0,-1,1532,358,1.08491,1.87575
315,666,1.76294,-0.284027,0,0,0,0,0,0,0,-1,1539,358,1.76291,0.284016
322,666,0,0,0,0,0,0,0,0,0,-1,1546,358,0,0
329,666,0,0,0,0,0,0,0,0,0,-1,1553,358,0,0
336,666,0,0,0,0,0,0,0,0,0,-1,1560,358,0,0
343,666,0,0,0,0,0,0,0,0,0,-1,1567,358,0,0
350,666,0,0,0,0,0,0,0,0,0,-1,1574,358,0,0
357,666,0,0,0,0,0,0,0,0,0,-1,1581,358,0,0
364,666,0,0,0,0,0,0,0,0,0,-1,1588,358,0,0
371,666,0,0,0,0,0,0,0,0,0,-1,1595,358,0,0
378,666,0,0,0,0,0,0,0,0,0,-1,1602,358,0,0
385,666,0,0,0,0,0,0,0,0,0,-1,1609,358,0,0
392,666,0,0,0,0,0,0,0,0,0,-1,1616,358,0,0
399,666,0,0,0,0,0,0,0,0,0,-1,1623,358,0,0
406,666,0,0,0,0,0,0,0,0,0,-1,1630,358,0,0
413,666,0,0,0,0,0,0,0,0,0,-1,1637,358,0,0
420,666,0,0,0,0,0,0,0,0,0,-1,1644,358,0,0
427,666,0,0,0,0,0,0,0,0,0,-1,1651,358,0,0
434,666,0,0,0,0,0,0,0,0,0,-1,1658,358,0,0
441,666,0,0,0,0,0,0,0,0,0,-1,1665,358,0,0
448,666,0,0,0,0,0,0,0,0,0,-1,1672,358,0,0
455,666,0,0,0,0,0,0,0,0,0,-1,1679,358,0,0
462,666,0,0,0,0,0,0,0,0,0,-1,1686,358,0,0
469,666,0,0,0,0,0,0,0,0,0,-1,1693,358,0,0
476,666,0,0,0,0,0,0,0,0,0,-1,1700,358,0,0
483,666,0,0,0,0,0,0,0,0,0,-1,1707,358,0,0
490,666,0,0,0,0,0,0,0,0,0,-1,1714,358,0,0
497,666,0,0,0,0,0,0,0,0,0,-1,1721,358,0,0
504,666,0,0,0,0,0,0,0,0,0,-1,1728,358,0,0
511,666,0,0,0,0,0,0,0,0,0,-1,1735,358,0,0
518,666,0,0,0,0,0,0,0,0,0,-1,1742,358,0,0
525,666,0,0,0,0,0,0,0,0,0,-1,1749,358,0,0
532,666,0,0,0,0,0,0,0,0,0,-1,1756,358,0,0
539,666,0,0,0,0,0,0,0,0,0,-1,1763,358,0,0
546,666,0,0,0,0,0,0,0,0,0,-1,1770,358,0,0
553,666,0,0,0,0,0,0,0,0,0,-1,1777,358,0,0
560,666,0,0,0,0,0,0,0,0,0,-1,1784,358,0,0
567,666,0,0,0,0,0,0,0,0,0,-1,1791,358,0,0
574,666,0,0,0,0,0,0,0,0,0,-1,1798,358,0,0
581,666,0,0,0,0,0,0,0,0,0,-1,1805,358,0,0
588,666,0,0,0,0,0,0,0,0,0,-1,1812,358,0,0
595,666,0,0,0,0,0,0,0,0,0,-1,1819,358,0,0
602,666,0,0,0,0,0,0,0,0,0,-1,1826,358,0,0
609,666,0,0,0,0,0,0,0,0,0,-1,1833,358,0,0
616,666,0,0,0,0,0,0,0,0,0,-1,1840,358,0,0
623,666,0,0,0,0,0,0,0,0,0,-1,1847,358,0,0
630,666,0,0,0,0,0,0,0,0,0,-1,1854,358,0,0
637,666,0,0,0,0,0,0,0,0,0,-1,1861,358,0,0
644,666,0,0,0,0,0,0,0,0,0,-1,1868,358,0,0
651,666,0,0,0,0,0,0,0,0,0,-1,1875,358,0,0
658,666,0,0,0,0,0,0,0,0,0,-1,1882,358,0,0
665,666,0,0,0,0,0,0,0,0,0,-1,1889,358,0,0
672,666,0,0,0,0,0,0,0,0,0,-1,1896,358,0,0
679,666,0,0,0,0,0,0,0,0,0,-1,1903,358,0,0
686,666,0,0,0,0,0,0,0,0,0,-1,1910,358,0,0
693,666,0,0,0,0,0,0,0,0,0,-1,1917,358,0,0
700,666,0,0,0,0,0,0,0,0,0,-1,1924,358,0,0
707,666,0,0,0,0,0,0,0,0,0,-1,1931,358,0,0
714,666,0,0,0,0,0,0,0,0,0,-1,1938,358,0,0
721,666,0,0,0,0,0,0,0,0,0,-1,1945,358,0,0
728,666,0,0,0,0,0,0,0,0,0,-1,1952,358,0,0
735,666,0,0,0,0,0,0,0,0,0,-1,1959,358,0,0
742,666,0,0,0,0,0,0,0,0,0,-1,1966,358,0,0
749,666,0,0,0,0,0,0,0,0,0,-1,1973,358,0,0
756,666,0,0,0,0,0,0,0,0,0,-1,1980,358,0,0
763,666,0,0,0,0,0,0,0,0,0,-1,1987,358,0,0
770,666,0,0,0,0,0,0,0,0,0,-1,1994,358,0,0
777,666,0,0,0,0,0,0,0,0,0,-1,2001,358,0,0
784,666,0,0,0,0,0,0,0,0,0,-1,2008,358,0,0
791,666,0,0,0,0,0,0,0,0,0,-1,2015,358,0,0
798,666,0,0,0,0,0,0,0,0,0,-1,2022,358,0,0
805,666,0,0,0,0,0,0,0,0,0,-1,2029,358,0,0
812,666,0,0,0,0,0,0,0,0,0,-1,2036,358,0,0
-700,659,0,0,0,0,0,0,0,0,0,-1,524,365,0,0
-693,659,0,0,0,0,0,0,0,0,0,-1,531,365,0,0
-686,659,0,0,0,0,0,0,0,0,0,-1,538,365,0,0
-679,659,0,0,0,0,0,0,0,0,0,-1,545,365,0,0
-672,659,0,0,0,0,0,0,0,0,0,-1,552,365,0,0
-665,659,0,0,0,0,0,0,0,0,0,-1,559,365,0,0
-658,659,0,0,0,0,0,0,0,0,0,-1,566,365,0,0
-651,659,0,0,0,0,0,0,0,0,0,-1,573,365,0,0
-644,659,0,0,0,0,0,0,0,0,0,-1,580,365,0,0
-637,659,0,0,0,0,0,0,0,0,0,-1,587,365,0,0
-630,659,0,0,0,0,0,0,0,0,0,-1,594,365,0,0
-623,659,0,0,0,0,0,0,0,0,0,-1,601,365,0,0
-616,659,0,0,0,0,0,0,0,0,0,-1,608,365,0,0
-609,659,0,0,0,0,0,0,0,0,0,-1,615,365,0,0
-602,659,0,0,0,0,0,0,0,0,0,-1,622,365,0,0
-595,659,0,0,0,0,0,0,0,0,0,-1,629,365,0,0
-588,659,0,0,0,0,0,0,0,0,0,-1,636,365,0,0
-581,659,0,0,0,0,0,0,0,0,0,-1,643,365,0,0
-574,659,0,0,0,0,0,0,0,0,0,-1,650,365,0,0
-567,659,0,0,0,0,0,0,0,0,0,-1,657,365,0,0
-560,659,0,0,0,0,0,0,0,0,0,-1,664,365,0,0
-553,659,0,0,0,0,0,0,0,0,0,-1,671,365,0,0
-546,659,0,0,0,0,0,0,0,0,0,-1,678,365,0,0
-539,659,0,0,0,0,0,0,0,0,0,-1,685,365,0,0
-532,659,0,0,0,0,0,0,0,0,0,-1,692,365,0,0
-525,659,0,0,0,0,0,0,0,0,0,-1,699,365,0,0
-518,659,0,0,0,0,0,0,0,0,0,-1,706,365,0,0
-511,659,0,0,0,0,0,0,0,0,0,-1,713,365,0,0
-504,659,0,0,0,0,0,0,0,0,0,-1,720,365,0,0
-497,659,0,0,0,0,0,0,0,0,0,-1,727,365,0,0
-490,659,0,0,0,0,0,0,0,0,0,-1,734,365,0,0
-483,659,0,0,0,0,0,0,0,0,0,-1,741,365,0,0
-476,659,0,0,0,0,0,0,0,0,0,-1,748,365,0,0
-469,659,0,0,0,0,0,0,0,0,0,-1,755,365,0,0
-462,659,0,0,0,0,0,0,0,0,0,-1,762,365,0,0
-455,659,0,0,0,0,0,0,0,0,0,-1,769,365,0,0
-448,659,0,0,0,0,0,0,0,0,0,-1,776,365,0,0
-441,659,0,0,0,0,0,0,0,0,0,-1,783,365,0,0
-434,659,0,0,0,0,0,0,0,0,0,-1,790,365,0,0
-427,659,0,0,0,0,0,0,0,0,0,-1,797,365,0,0
-420,659,0,0,0,0,0,0,0,0,0,-1,804,365,0,0
-413,659,0,0,0,0,0,0,0,0,0,-1,811,365,0,0
-406,659,0,0,0,0,0,0,0,0,0,-1,818,365,0,0
-399,659,0,0,0,0,0,0,0,0,0,-1,825,365,0,0
-392,659,0,0,0,0,0,0,0,0,0,-1,832,365,0,0
-385,659,0,0,0,0,0,0,0,0,0,-1,839,365,0,0
-378,659,0,0,0,0,0,0,0,0,0,-1,846,365,0,0
-371,659,0,0,0,0,0,0,0,0,0,-1,853,365,0,0
-364,659,0,0,0,0,0,0,0,0,0,-1,860,365,0,0
-357,659,0,0,0,0,0,0,0,0,0,-1,867,365,0,0
-350,659,0,0,0,0,0,0,0,0,0,-1,874,365,0,0
-343,659,0,0,0,0,0,0,0,0,0,-1,881,365,0,0
-336,659,0,0,0,0,0,0,0,0,0,-1,888,365,0,0
-329,659,0,0,0,0,0,0,0,0,0,-1,895,365,0,0
-322,659,0,0,0,0,0,0,0,0,0,-1,902,365,0,0
-315,659,0,0,0,0,0,0,0,0,0,-1,909,365,0,0
-308,659,0,0,0,0,0,0,0,0,0,-1,916,365,0,0
-301,659,0,0,0,0,0,0,0,0,0,-1,923,365,0,0
-294,659,0,0,0,0,0,0,0,0,0,-1,930,365,0,0
-287,659,0,0,0,0,0,0,0,0,0,-1,937,365,0,0
-280,659,0,0,0,0,0,0,0,0,0,-1,944,365,0,0
-273,659,0,0,0,0,0,0,0,0,0,-1,951,365,0,0
-266,659,0,0,0,0,0,0,0,0,0,-1,958,365,0,0
-259,659,0,0,0,0,0,0,0,0,0,-1,965,365,0,0
-252,659,0,0,0,0,0,0,0,0,0,-1,972,365,0,0
-245,659,0,0,0,0,0,0,0,0,0,-1,979,365,0,0
-238,659,0,0,0,0,0,0,0,0,0,-1,986,365,0,0
-231,659,0,0,0,0,0,0,0,0,0,-1,993,365,0,0
-224,659,0,0,0,0,0,0,0,0,0,-1,1000,365,0,0
-217,659,3.57001,-16.8541,0,0,0,0,0,0,0,-1,1007,365,3.57003,16.8541
-210,659,3.20129,-17.9641,0,0,0,0,0,0,0,-1,1014,365,3.2013,17.9641
-203,659,9.59375,-19.847,0,0,0,0,0,0,0,-1,1021,365,9.59378,19.8469
-196,659,6.40063,-20.0431,0,0,0,0,0,0,0,-1,1028,365,6.40064,20.0431
-189,659,5.94824,-20.1241,0,0,0,0,0,0,0,-1,1035,365,5.94828,20.1241
-182,659,5.44128,-20.2914,0,0,0,0,0,0,0,-1,1042,365,5.44132,20.2914
-175,659,3.54321,-22.1127,0,0,0,0,0,0,0,-1,1049,365,3.54317,22.1127
-168,659,3.5415,-22.8195,0,0,0,0,0,0,0,-1,1056,365,3.54145,22.8195
-161,659,3.53967,-23.5263,0,0,0,0,0,0,0,-1,1063,365,3.53972,23.5263
-154,659,3.38098,-22.731,0,0,0,0,0,0,0,-1,1070,365,3.38098,22.731
-147,659,3.73547,-22.6675,0.0344348,-0.0386537,0.0484835,0.058604,-0.0628229,0.462451,0.07012,0.0481989,1077,365,3.73545,22.6675
-140,659,4.34351,-22.0434,0.0330036,-0.0347348,0.0464434,0.0566158,-0.058347,0.470351,0.0663763,0.0465824,1084,365,4.34347,22.0434
-133,659,4.76929,-21.7199,0.0308579,-0.0297312,0.0437221,0.0537552,-0.0526286,0.48243,0.0614219,0.042183,1091,365,4.76928,21.7199
-126,659,4.78174,-21.6378,0,0,0,0,0,0,0,-1,1098,365,4.78169,21.6378
-119,659,4.31421,-21.8631,0,0,0,0,0,0,0,-1,1105,365,4.31415,21.8631
-112,659,4.31921,-21.9036,0.0217549,-0.0133283,0.0325351,0.0411759,-0.0327494,0.538157,0.0427731,0.0419422,1112,365,4.31922,21.9036
-105,659,4.2207,-21.7825,0.0184839,-0.00881276,0.0285961,0.0365217,-0.0268506,0.562745,0.0367298,0.0437187,1119,365,4.22068,21.7825
-98,659,4.15381,-21.6046,0,0,0,0,0,0,0,-1,1126,365,4.15377,21.6045
-91,659,4.20776,-20.8654,0,0,0,0,0,0,0,-1,1133,365,4.20777,20.8654
-84,659,2.8584,-17.8303,0,0,0,0,0,0,0,-1,1140,365,2.85836,17.8303
-77,659,2.80139,-15.3457,0,0,0,0,0,0,0,-1,1147,365,2.80139,15.3457
-70,659,2.9353,-12.7028,0,0,0,0,0,0,0,-1,1154,365,2.93533,12.7028
-63,659,2.11267,-9.7796,0,0,0,0,0,0,0,-1,1161,365,2.11266,9.7796
-56,659,2.11182,-9.91541,0,0,0,0,0,0,0,-1,1168,365,2.11178,9.91541
-49,659,3.83142,-23.3574,0,0,0,0,0,0,0,-1,1175,365,3.83138,23.3574
-42,659,3.83899,-23.4919,0,0,0,0,0,0,0,-1,1182,365,3.83896,23.4918
-35,659,3.7804,-23.6644,-0.00436015,0.0121182,0.00916722,0.0162046,-0.00844664,1.15146,0.0144655,0.0445714,1189,365,3.78037,23.6644
-28,659,3.82581,-23.6836,-0.00429553,0.012098,0.00934934,0.016335,-0.00853247,1.1453,0.0145909,0.0158705,1196,365,3.82582,23.6836
-21,659,3.78662,-23.7644,-0.00427897,0.0122871,0.00927746,0.0164411,-0.00843298,1.14981,0.014607,0.0112212,1203,365,3.7866,23.7644
-14,659,3.7395,-23.8717,-0.00407219,0.0119712,0.00890494,0.0159347,-0.00803572,1.15203,0.0140876,0.00861295,1210,365,3.73953,23.8717
-7,659,3.70923,-23.911,-0.00391839,0.0115007,0.00818096,0.0150324,-0.00745008,1.16327,0.013224,0.00854531,1217,365,3.70923,23.911
0,659,3.71167,-23.9579,-0.00382951,0.0108914,0.00721319,0.0138366,-0.0067747,1.18315,0.0121305,0.00822811,1224,365,3.71173,23.9579
7,659,3.68958,-24.0226,-0.00360258,0.0100776,0.00607488,0.0123858,-0.00591077,1.20769,0.0107818,0.0079626,1231,365,3.6896,24.0226
14,659,3.65259,-24.0656,-0.00324411,0.00945683,0.00499776,0.0111876,-0.00497486,1.23742,0.00955843,0.0104824,1238,365,3.65263,24.0656
21,659,3.64282,-24.0973,-0.00300836,0.00888813,0.00393415,0.0100715,-0.00419168,1.27862,0.00846484,0.0113168,1245,365,3.64285,24.0973
28,659,3.62329,-24.1086,-0.00240194,0.00843064,0.00278365,0.00910409,-0.00307538,1.33343,0.00731334,0.0111306,1252,365,3.62331,24.1086
35,659,3.59387,-24.1233,-0.00176004,0.00839094,0.00181138,0.00870449,-0.00207359,1.3994,0.00660361,0.0117118,1259,365,3.59392,24.1233
42,659,3.57214,-24.1567,-0.00128055,0.00834486,0.00129779,0.00851678,-0.00145246,1.4391,0.0062188,0.0118696,1266,365,3.57217,24.1567
49,659,3.54236,-24.1926,-0.000593474,0.00818092,0.000658762,0.0082301,-0.000642657,1.49628,0.00571301,0.0115317,1273,365,3.54242,24.1926
56,659,3.51953,-24.1838,0.000490992,0.00794956,0.000377836,0.00796865,0.0004719,1.52031,0.00516233,0.0144643,1280,365,3.51948,24.1838
63,659,3.50085,-24.1916,0.0013616,0.0084148,-0.00077017,0.00849792,0.00127848,-1.46329,0.00529086,0.0156712,1287,365,3.50088,24.1916
70,659,3.4834,-24.1825,0.00276481,0.00890171,-0.000994288,0.00905878,0.00260774,-1.41412,0.00538471,0.0179373,1294,365,3.48339,24.1825
77,659,3.44849,-24.1421,0.00559081,0.0101176,-0.00155713,0.0106015,0.00510692,-1.2695,0.00612216,0.0181482,1301,365,3.44853,24.1421
84,659,3.42139,-24.1482,0.0075757,0.0106312,-0.00159601,0.0113128,0.00689409,-1.16717,0.00658336,0.0126327,1308,365,3.42133,24.1482
91,659,3.38818,-24.11,0.0092188,0.011107,-0.00181667,0.0122102,0.00811555,-1.02503,0.00717585,0.0109133,1315,365,3.38814,24.11
98,659,3.38,-24.041,0.0107995,0.0110756,-0.00184916,0.0127919,0.00908325,-0.822661,0.00759957,0.00813044,1322,365,3.38006,24.041
105,659,3.37659,-23.9649,0.0122753,0.0111974,-0.00190348,0.0137147,0.00975806,-0.647436,0.0081509,0.00942724,1329,365,3.37653,23.9649
112,659,3.37097,-23.9004,0.0134937,0.0113751,-0.00188173,0.0145938,0.010275,-0.529035,0.00865647,0.012665,1336,365,3.37091,23.9004
119,659,3.35022,-23.8174,0.0143105,0.0111683,-0.00182928,0.0151507,0.010328,-0.430592,0.0089377,0.0139274,1343,365,3.3502,23.8173
126,659,3.29688,-23.7236,0.014613,0.0110275,-0.00141102,0.0151017,0.0105389,-0.333404,0.00894363,0.0128793,1350,365,3.29691,23.7236
133,659,3.23657,-23.6349,0.0144691,0.0107568,-0.000725384,0.0146059,0.0106201,-0.186272,0.00871784,0.0117442,1357,365,3.23654,23.6349
140,659,3.21191,-23.5587,0.0140409,0.0101622,6.86426e-05,0.0140421,0.0101609,0.0176896,0.00837311,0.00935267,1364,365,3.21189,23.5587
147,659,3.20276,-23.4557,0.0132975,0.00958908,0.000817506,0.0134697,0.00941687,0.207626,0.00797966,0.00843043,1371,365,3.20275,23.4557
154,659,3.18152,-23.3254,0.0120815,0.00894057,0.00165946,0.0127958,0.00822627,0.40647,0.00748755,0.00911,1378,365,3.18155,23.3254
161,659,3.1604,-23.2004,0.0106489,0.0085203,0.00238099,0.0121927,0.00697656,0.575219,0.00706385,0.0111148,1385,365,3.16044,23.2004
168,659,3.16919,-23.0738,0.00931443,0.00759006,0.00389881,0.0124453,0.00445924,0.676579,0.0072808,0.0184388,1392,365,3.16923,23.0738
175,659,3.1637,-22.9666,0.00713888,0.00658793,0.0039832,0.0108561,0.00287069,0.750874,0.00649552,0.0419942,1399,365,3.16369,22.9666
182,659,3.05334,-22.8249,0,0,0,0,0,0,0,-1,1406,365,3.05334,22.8249
189,659,3.14673,-22.5452,0,0,0,0,0,0,0,-1,1413,365,3.14677,22.5452
196,659,2.41248,-13.4371,0,0,0,0,0,0,0,-1,1420,365,2.41243,13.4371
203,659,2.38623,-12.2163,0,0,0,0,0,0,0,-1,1427,365,2.38617,12.2163
210,659,2.20789,-13.9792,0,0,0,0,0,0,0,-1,1434,365,2.20794,13.9792
217,659,2.24121,-13.487,0,0,0,0,0,0,0,-1,1441,365,2.24116,13.487
224,659,2.3479,-15.2926,0,0,0,0,0,0,0,-1,1448,365,2.34793,15.2926
231,659,2.47974,-17.8629,0,0,0,0,0,0,0,-1,1455,365,2.47976,17.8628
238,659,3.57886,-21.1258,0,0,0,0,0,0,0,-1,1462,365,3.57889,21.1258
245,659,3.19043,-21.6474,0,0,0,0,0,0,0,-1,1469,365,3.19042,21.6474
252,659,2.45972,-18.7531,0,0,0,0,0,0,0,-1,1476,365,2.45976,18.7531
259,659,2.33069,-3.36703,0,0,0,0,0,0,0,-1,1483,365,2.33073,3.36702
266,659,1.72681,-17.183,0,0,0,0,0,0,0,-1,1490,365,1.72683,17.183
273,659,2.4375,-14.5841,0,0,0,0,0,0,0,-1,1497,365,2.43748,14.5841
280,659,1.70947,-9.4129,0,0,0,0,0,0,0,-1,1504,365,1.70952,9.4129
287,659,5.63684,-10.0938,0,0,0,0,0,0,0,-1,1511,365,5.63681,10.0938
294,659,-4.42212,-20.9467,0,0,0,0,0,0,0,-1,1518,365,-4.42212,20.9467
301,659,-4.06885,-21.6602,0,0,0,0,0,0,0,-1,1525,365,-4.0689,21.6602
308,659,-4.50159,-21.5151,0,0,0,0,0,0,0,-1,1532,365,-4.50162,21.5151
315,659,2.17102,-2.98474,0,0,0,0,0,0,0,-1,1539,365,2.171,2.98473
322,659,0.382813,-2.2424,0,0,0,0,0,0,0,-1,1546,365,0.382801,2.2424
329,659,0.604004,-1.75998,0,0,0,0,0,0,0,-1,1553,365,0.603966,1.75998
336,659,2.09851,-1.17941,0,0,0,0,0,0,0,-1,1560,365,2.09857,1.17942
343,659,0,0,0,0,0,0,0,0,0,-1,1567,365,0,0
350,659,0,0,0,0,0,0,0,0,0,-1,1574,365,0,0
357,659,0,0,0,0,0,0,0,0,0,-1,1581,365,0,0
364,659,0,0,0,0,0,0,0,0,0,-1,1588,365,0,0
371,659,0,0,0,0,0,0,0,0,0,-1,1595,365,0,0
378,659,0,0,0,0,0,0,0,0,0,-1,1602,365,0,0
385,659,0,0,0,0,0,0,0,0,0,-1,1609,365,0,0
392,659,0,0,0,0,0,0,0,0,0,-1,1616,365,0,0
399,659,0,0,0,0,0,0,0,0,0,-1,1623,365,0,0
406,659,0,0,0,0,0,0,0,0,0,-1,1630,365,0,0
413,659,0,0,0,0,0,0,0,0,0,-1,1637,365,0,0
420,659,0,0,0,0,0,0,0,0,0,-1,1644,365,0,0
427,659,0,0,0,0,0,0,0,0,0,-1,1651,365,0,0
434,659,0,0,0,0,0,0,0,0,0,-1,1658,365,0,0
441,659,0,0,0,0,0,0,0,0,0,-1,1665,365,0,0
448,659,0,0,0,0,0,0,0,0,0,-1,1672,365,0,0
455,659,0,0,0,0,0,0,0,0,0,-1,1679,365,0,0
462,659,0,0,0,0,0,0,0,0,0,-1,1686,365,0,0
469,659,0,0,0,0,0,0,0,0,0,-1,1693,365,0,0
476,659,0,0,0,0,0,0,0,0,0,-1,1700,365,0,0
483,659,0,0,0,0,0,0,0,0,0,-1,1707,365,0,0
490,659,0,0,0,0,0,0,0,0,0,-1,1714,365,0,0
497,659,0,0,0,0,0,0,0,0,0,-1,1721,365,0,0
504,659,0,0,0,0,0,0,0,0,0,-1,1728,365,0,0
511,659,0,0,0,0,0,0,0,0,0,-1,1735,365,0,0
518,659,0,0,0,0,0,0,0,0,0,-1,1742,365,0,0
525,659,0,0,0,0,0,0,0,0,0,-1,1749,365,0,0
532,659,0,0,0,0,0,0,0,0,0,-1,1756,365,0,0
539,659,0,0,0,0,0,0,0,0,0,-1,1763,365,0,0
546,659,0,0,0,0,0,0,0,0,0,-1,1770,365,0,0
553,659,0,0,0,0,0,0,0,0,0,-1,1777,365,0,0
560,659,0,0,0,0,0,0,0,0,0,-1,1784,365,0,0
567,659,0,0,0,0,0,0,0,0,0,-1,1791,365,0,0
574,659,0,0,0,0,0,0,0,0,0,-1,1798,365,0,0
581,659,0,0,0,0,0,0,0,0,0,-1,1805,365,0,0
588,659,0,0,0,0,0,0,0,0,0,-1,1812,365,0,0
595,659,0,0,0,0,0,0,0,0,0,-1,1819,365,0,0
602,659,0,0,0,0,0,0,0,0,0,-1,1826,365,0,0
609,659,0,0,0,0,0,0,0,0,0,-1,1833,365,0,0
616,659,0,0,0,0,0,0,0,0,0,-1,1840,365,0,0
623,659,0,0,0,0,0,0,0,0,0,-1,1847,365,0,0
630,659,0,0,0,0,0,0,0,0,0,-1,1854,365,0,0
637,659,0,0,0,0,0,0,0,0,0,-1,1861,365,0,0
644,659,0,0,0,0,0,0,0,0,0,-1,1868,365,0,0
651,659,0,0,0,0,0,0,0,0,0,-1,1875,365,0,0
658,659,0,0,0,0,0,0,0,0,0,-1,1882,365,0,0
665,659,0,0,0,0,0,0,0,0,0,-1,1889,365,0,0
672,659,0,0,0,0,0,0,0,0,0,-1,1896,365,0,0
679,659,0,0,0,0,0,0,0,0,0,-1,1903,365,0,0
686,659,0,0,0,0,0,0,0,0,0,-1,1910,365,0,0
693,659,0,0,0,0,0,0,0,0,0,-1,1917,365,0,0
700,659,0,0,0,0,0,0,0,0,0,-1,1924,365,0,0
707,659,0,0,0,0,0,0,0,0,0,-1,1931,365,0,0
714,659,0,0,0,0,0,0,0,0,0,-1,1938,365,0,0
721,659,0,0,0,0,0,0,0,0,0,-1,1945,365,0,0
728,659,0,0,0,0,0,0,0,0,0,-1,1952,365,0,0
735,659,0,0,0,0,0,0,0,0,0,-1,1959,365,0,0
742,659,0,0,0,0,0,0,0,0,0,-1,1966,365,0,0
749,659,0,0,0,0,0,0,0,0,0,-1,1973,365,0,0
756,659,0,0,0,0,0,0,0,0,0,-1,1980,365,0,0
763,659,0,0,0,0,0,0,0,0,0,-1,1987,365,0,0
770,659,0,0,0,0,0,0,0,0,0,-1,1994,365,0,0
777,659,0,0,0,0,0,0,0,0,0,-1,2001,365,0,0
784,659,0,0,0,0,0,0,0,0,0,-1,2008,365,0,0
791,659,0,0,0,0,0,0,0,0,0,-1,2015,365,0,0
798,659,0,0,0,0,0,0,0,0,0,-1,2022,365,0,0
805,659,0,0,0,0,0,0,0,0,0,-1,2029,365,0,0
812,659,0,0,0,0,0,0,0,0,0,-1,2036,365,0,0
-700,652,0,0,0,0,0,0,0,0,0,-1,524,372,0,0
-693,652,0,0,0,0,0,0,0,0,0,-1,531,372,0,0
-686,652,0,0,0,0,0,0,0,0,0,-1,538,372,0,0
-679,652,0,0,0,0,0,0,0,0,0,-1,545,372,0,0
-672,652,0,0,0,0,0,0,0,0,0,-1,552,372,0,0
-665,652,0,0,0,0,0,0,0,0,0,-1,559,372,0,0
-658,652,0,0,0,0,0,0,0,0,0,-1,566,372,0,0
-651,652,0,0,0,0,0,0,0,0,0,-1,573,372,0,0
-644,652,0,0,0,0,0,0,0,0,0,-1,580,372,0,0
-637,652,0,0,0,0,0,0,0,0,0,-1,587,372,0,0
-630,652,0,0,0,0,0,0,0,0,0,-1,594,372,0,0
-623,652,0,0,0,0,0,0,0,0,0,-1,601,372,0,0
-616,652,0,0,0,0,0,0,0,0,0,-1,608,372,0,0
-609,652,0,0,0,0,0,0,0,0,0,-1,615,372,0,0
-602,652,0,0,0,0,0,0,0,0,0,-1,622,372,0,0
-595,652,0,0,0,0,0,0,0,0,0,-1,629,372,0,0
-588,652,0,0,0,0,0,0,0,0,0,-1,636,372,0,0
-581,652,0,0,0,0,0,0,0,0,0,-1,643,372,0,0
-574,652,0,0,0,0,0,0,0,0,0,-1,650,372,0,0
-567,652,0,0,0,0,0,0,0,0,0,-1,657,372,0,0
-560,652,0,0,0,0,0,0,0,0,0,-1,664,372,0,0
-553,652,0,0,0,0,0,0,0,0,0,-1,671,372,0,0
-546,652,0,0,0,0,0,0,0,0,0,-1,678,372,0,0
-539,652,0,0,0,0,0,0,0,0,0,-1,685,372,0,0
-532,652,0,0,0,0,0,0,0,0,0,-1,692,372,0,0
-525,652,0,0,0,0,0,0,0,0,0,-1,699,372,0,0
-518,652,0,0,0,0,0,0,0,0,0,-1,706,372,0,0
-511,652,0,0,0,0,0,0,0,0,0,-1,713,372,0,0
-504,652,0,0,0,0,0,0,0,0,0,-1,720,372,0,0
-497,652,0,0,0,0,0,0,0,0,0,-1,727,372,0,0
-490,652,0,0,0,0,0,0,0,0,0,-1,734,372,0,0
-483,652,0,0,0,0,0,0,0,0,0,-1,741,372,0,0
-476,652,0,0,0,0,0,0,0,0,0,-1,748,372,0,0
-469,652,0,0,0,0,0,0,0,0,0,-1,755,372,0,0
-462,652,0,0,0,0,0,0,0,0,0,-1,762,372,0,0
-455,652,0,0,0,0,0,0,0,0,0,-1,769,372,0,0
-448,652,0,0,0,0,0,0,0,0,0,-1,776,372,0,0
-441,652,0,0,0,0,0,0,0,0,0,-1,783,372,0,0
-434,652,0,0,0,0,0,0,0,0,0,-1,790,372,0,0
-427,652,0,0,0,0,0,0,0,0,0,-1,797,372,0,0
-420,652,0,0,0,0,0,0,0,0,0,-1,804,372,0,0
-413,652,0,0,0,0,0,0,0,0,0,-1,811,372,0,0
-406,652,0,0,0,0,0,0,0,0,0,-1,818,372,0,0
-399,652,0,0,0,0,0,0,0,0,0,-1,825,372,0,0
-392,652,0,0,0,0,0,0,0,0,0,-1,832,372,0,0
-385,652,0,0,0,0,0,0,0,0,0,-1,839,372,0,0
-378,652,0,0,0,0,0,0,0,0,0,-1,846,372,0,0
-371,652,0,0,0,0,0,0,0,0,0,-1,853,372,0,0
-364,652,0,0,0,0,0,0,0,0,0,-1,860,372,0,0
-357,652,0,0,0,0,0,0,0,0,0,-1,867,372,0,0
-350,652,0,0,0,0,0,0,0,0,0,-1,874,372,0,0
-343,652,0,0,0,0,0,0,0,0,0,-1,881,372,0,0
-336,652,0,0,0,0,0,0,0,0,0,-1,888,372,0,0
-329,652,0,0,0,0,0,0,0,0,0,-1,895,372,0,0
-322,652,0,0,0,0,0,0,0,0,0,-1,902,372,0,0
-315,652,0,0,0,0,0,0,0,0,0,-1,909,372,0,0
-308,652,0,0,0,0,0,0,0,0,0,-1,916,372,0,0
-301,652,0,0,0,0,0,0,0,0,0,-1,923,372,0,0
-294,652,0,0,0,0,0,0,0,0,0,-1,930,372,0,0
-287,652,0,0,0,0,0,0,0,0,0,-1,937,372,0,0
-280,652,0,0,0,0,0,0,0,0,0,-1,944,372,0,0
-273,652,0,0,0,0,0,0,0,0,0,-1,951,372,0,0
-266,652,0,0,0,0,0,0,0,0,0,-1,958,372,0,0
-259,652,0,0,0,0,0,0,0,0,0,-1,965,372,0,0
-252,652,0,0,0,0,0,0,0,0,0,-1,972,372,0,0
-245,652,0,0,0,0,0,0,0,0,0,-1,979,372,0,0
-238,652,0,0,0,0,0,0,0,0,0,-1,986,372,0,0
-231,652,5.28143,-16.9447,0,0,0,0,0,0,0,-1,993,372,5.28146,16.9447
-224,652,9.47449,-18.002,0,0,0,0,0,0,0,-1,1000,372,9.47449,18.002
-217,652,2.88489,-16.6299,0,0,0,0,0,0,0,-1,1007,372,2.88488,16.6299
-210,652,2.83881,-19.5396,0,0,0,0,0,0,0,-1,1014,372,2.83878,19.5396
-203,652,9.54285,-19.3427,0,0,0,0,0,0,0,-1,1021,372,9.54282,19.3427
-196,652,6.32019,-19.0461,0,0,0,0,0,0,0,-1,1028,372,6.32022,19.0461
-189,652,5.60425,-18.965,0,0,0,0,0,0,0,-1,1035,372,5.60422,18.965
-182,652,5.03015,-19.1372,0,0,0,0,0,0,0,-1,1042,372,5.03021,19.1372
-175,652,3.60461,-20.9647,0,0,0,0,0,0,0,-1,1049,372,3.60467,20.9647
-168,652,3.85181,-21.8062,0,0,0,0,0,0,0,-1,1056,372,3.85183,21.8062
-161,652,4.07703,-21.1295,0,0,0,0,0,0,0,-1,1063,372,4.07706,21.1294
-154,652,2.76245,-21.9741,0,0,0,0,0,0,0,-1,1070,372,2.76251,21.9741
-147,652,3.12549,-21.9456,0.0266897,-0.0280663,0.034749,0.0435503,-0.0449269,0.451745,0.0510844,0.0452421,1077,372,3.12553,21.9456
-140,652,3.68738,-21.6244,0.0254629,-0.0253812,0.0335258,0.0421153,-0.0420335,0.461007,0.0485833,0.046058,1084,372,3.68738,21.6244
-133,652,4.31006,-21.3737,0.023635,-0.0217151,0.0317144,0.0399466,-0.0380267,0.475045,0.0450225,0.0431373,1091,372,4.31004,21.3737
-126,652,4.44421,-21.4743,0.0213065,-0.0176284,0.0292841,0.0370035,-0.0333254,0.492052,0.040623,0.0416323,1098,372,4.44416,21.4743
-119,652,4.09473,-21.7566,0.0186775,-0.0133417,0.0263829,0.0335284,-0.0281925,0.51269,0.0356789,0.0373394,1105,372,4.09469,21.7566
-112,652,4.03857,-21.8967,0.015889,-0.00923844,0.0232498,0.0297525,-0.023102,0.537684,0.030596,0.026868,1112,372,4.03854,21.8967
-105,652,4.00366,-21.9632,0.0131276,-0.00564048,0.0201573,0.0259782,-0.018491,0.567547,0.0257953,0.0238445,1119,372,4.0037,21.9632
-98,652,3.98108,-22.1608,0.0103424,-0.00297866,0.0171848,0.0221123,-0.0147486,0.60052,0.0214227,0.029088,1126,372,3.98107,22.1608
-91,652,3.99805,-22.2781,0,0,0,0,0,0,0,-1,1133,372,3.998,22.2781
-84,652,3.96106,-22.4843,0,0,0,0,0,0,0,-1,1140,372,3.96106,22.4843
-77,652,3.87488,-22.757,0,0,0,0,0,0,0,-1,1147,372,3.87493,22.7571
-70,652,3.83496,-22.9623,0,0,0,0,0,0,0,-1,1154,372,3.83502,22.9623
-63,652,3.80859,-23.1243,0,0,0,0,0,0,0,-1,1161,372,3.80861,23.1243
-56,652,3.78064,-23.2847,0,0,0,0,0,0,0,-1,1168,372,3.78062,23.2847
-49,652,3.80347,-23.4019,-0.00381185,0.00601659,0.00352341,0.00714918,-0.00494445,1.25978,0.00702083,0.0378853,1175,372,3.80342,23.4019
-42,652,3.74036,-23.4711,-0.00354835,0.00701564,0.00440287,0.00861004,-0.00514274,1.22336,0.00802385,0.0116752,1182,372,3.74039,23.4711
-35,652,3.72742,-23.5706,-0.00314752,0.00834059,0.00511811,0.01029,-0.00509692,1.20688,0.00905072,0.00911609,1189,372,3.72737,23.5706
-28,652,3.71863,-23.6773,-0.00302916,0.00827907,0.0053498,0.0104089,-0.00515896,1.19192,0.00915687,0.00739882,1196,372,3.71865,23.6773
-21,652,3.68774,-23.7722,-0.00297062,0.00831674,0.00543758,0.01051,-0.00516393,1.1874,0.00922317,0.00757291,1203,372,3.68778,23.7722
-14,652,3.67053,-23.8546,-0.00279901,0.00812871,0.005373,0.0103279,-0.00499824,1.18229,0.00902515,0.00905292,1210,372,3.67051,23.8546
-7,652,3.65698,-23.9277,-0.00266354,0.00786088,0.00505388,0.00989474,-0.0046974,1.18819,0.00860106,0.0120811,1217,372,3.65704,23.9277
0,652,3.64807,-23.975,-0.00257336,0.00753215,0.00453422,0.00926832,-0.00430953,1.20511,0.00801155,0.0129788,1224,372,3.64812,23.975
7,652,3.63489,-24.0202,-0.00238469,0.00709208,0.00386835,0.00847059,-0.0037632,1.22847,0.00723538,0.0135429,1231,372,3.63483,24.0202
14,652,3.61475,-24.0807,-0.00211473,0.00678394,0.00323875,0.00783788,-0.00316868,1.25619,0.00654246,0.0100441,1238,372,3.61478,24.0807
21,652,3.60303,-24.1292,-0.00194553,0.006538,0.00258041,0.00726122,-0.00266875,1.29753,0.00593393,0.00945768,1245,372,3.60303,24.1292
28,652,3.58875,-24.1508,-0.00148011,0.00635846,0.00182048,0.00676062,-0.00188228,1.35338,0.00524825,0.00955486,1252,372,3.58877,24.1508
35,652,3.55664,-24.1723,-0.00100133,0.00646409,0.00118063,0.00664635,-0.00118359,1.41763,0.00487357,0.0104032,1259,372,3.55664,24.1723
42,652,3.53796,-24.1932,-0.000663137,0.00651513,0.000893877,0.00662476,-0.000772773,1.44875,0.00469535,0.0113926,1266,372,3.53799,24.1932
49,652,3.55139,-24.2158,-0.000199908,0.00648561,0.000497355,0.00652241,-0.000236705,1.49695,0.00442928,0.0130946,1273,372,3.55135,24.2158
56,652,3.5365,-24.219,0.000436276,0.00644459,0.000327224,0.00646236,0.000418507,1.51655,0.00417574,0.0141995,1280,372,3.53653,24.219
63,652,3.5072,-24.2056,0.000872246,0.00695181,-0.000498602,0.00699243,0.000831626,-1.48951,0.00441062,0.0177693,1287,372,3.50721,24.2056
70,652,3.49768,-24.1759,0.00161775,0.00743332,-0.000668909,0.00750927,0.0015418,-1.45774,0.00457959,0.0175619,1294,372,3.49765,24.1759
77,652,3.46387,-24.1492,0.00334983,0.00844294,-0.00112503,0.00868039,0.00311239,-1.3628,0.00507803,0.0167898,1301,372,3.46387,24.1492
84,652,3.45142,-24.1607,0.00450729,0.00898846,-0.00128331,0.00932995,0.0041658,-1.31072,0.00539692,0.0137004,1308,372,3.45139,24.1607
91,652,3.4126,-24.1572,0.00545011,0.00943031,-0.00156342,0.00997098,0.00490944,-1.23785,0.00575697,0.016167,1315,372,3.41263,24.1572
98,652,3.43311,-24.0666,0.00637138,0.00954272,-0.0017119,0.0102905,0.00562361,-1.15897,0.00594977,0.0129224,1322,372,3.43305,24.0666
105,652,3.43408,-23.9734,0.00728836,0.00974438,-0.00186889,0.0107526,0.00628013,-1.07607,0.00623719,0.010694,1329,372,3.43404,23.9735
112,652,3.4231,-23.9141,0.00809761,0.0100073,-0.00197052,0.0112421,0.00686278,-1.01101,0.00654322,0.008726,1336,372,3.42306,23.9141
119,652,3.40527,-23.8458,0.00868953,0.0099959,-0.00204052,0.0114852,0.0072002,-0.940298,0.00670182,0.00953287,1343,372,3.40527,23.8458
126,652,3.36633,-23.7585,0.00901019,0.00997663,-0.00182175,0.0113782,0.00760867,-0.915039,0.00669267,0.0121171,1350,372,3.36628,23.7584
133,652,3.32642,-23.6733,0.00897103,0.00989348,-0.00136436,0.0108725,0.00799204,-0.948395,0.00650436,0.0126958,1357,372,3.32636,23.6733
140,652,3.30005,-23.5934,0.00873044,0.00957254,-0.00079499,0.0100511,0.00825188,-1.02893,0.00618879,0.00997377,1364,372,3.30004,23.5934
147,652,3.28418,-23.4769,0.00826861,0.0093097,-0.000268636,0.00937494,0.00820338,-1.33259,0.00589835,0.00898053,1371,372,3.28417,23.4769
154,652,3.27393,-23.3648,0.00738304,0.00899282,0.000370225,0.00907389,0.00730198,1.35524,0.00555366,0.00904618,1378,372,3.27394,23.3648
161,652,3.26074,-23.2349,0.00629963,0.00874868,0.000943611,0.00907007,0.00597823,1.24252,0.00532426,0.0110114,1385,372,3.2607,23.2349
168,652,3.23828,-23.0838,0.00527241,0.00793742,0.00228872,0.00925328,0.00395655,1.04901,0.00536103,0.0120906,1392,372,3.2383,23.0838
175,652,3.23083,-22.9385,0.00360584,0.0070873,0.0024299,0.00833564,0.00235749,1.09622,0.00496161,0.0118565,1399,372,3.23081,22.9385
182,652,3.20154,-22.8375,0.000629701,0.00624388,0.00333377,0.00779497,-0.000921393,1.13532,0.00552943,0.0176073,1406,372,3.20156,22.8375
189,652,3.21655,-22.6803,-0.000841154,0.00668304,0.00309293,0.00779122,-0.00194933,1.22675,0.00595131,0.0295746,1413,372,3.2165,22.6803
196,652,3.16101,-22.4836,0,0,0,0,0,0,0,-1,1420,372,3.16105,22.4836
203,652,3.15588,-22.3138,0,0,0,0,0,0,0,-1,1427,372,3.1559,22.3138
210,652,3.20654,-22.0865,0,0,0,0,0,0,0,-1,1434,372,3.20654,22.0866
217,652,3.16785,-21.9384,0,0,0,0,0,0,0,-1,1441,372,3.16782,21.9384
224,652,3.02673,-21.752,0,0,0,0,0,0,0,-1,1448,372,3.02668,21.752
231,652,2.99353,-21.4442,0,0,0,0,0,0,0,-1,1455,372,2.99359,21.4442
238,652,3.32336,-21.1203,-0.00599024,0.0094432,0.00296503,0.00999323,-0.00654027,1.38738,0.00961476,0.0484936,1462,372,3.32338,21.1203
245,652,3.15259,-21.2414,-0.00647866,0.0102617,0.0029387,0.0107626,-0.00697955,1.40197,0.0103208,0.0454693,1469,372,3.15256,21.2414
252,652,3.10486,-20.8619,0,0,0,0,0,0,0,-1,1476,372,3.10487,20.8619
259,652,2.82861,-20.487,0,0,0,0,0,0,0,-1,1483,372,2.82857,20.487
266,652,2.72339,-20.2162,0,0,0,0,0,0,0,-1,1490,372,2.72345,20.2162
273,652,2.83521,-20.1992,0,0,0,0,0,0,0,-1,1497,372,2.83525,20.1992
280,652,2.73975,-20.1335,0,0,0,0,0,0,0,-1,1504,372,2.73974,20.1335
287,652,-3.88074,-18.5464,0,0,0,0,0,0,0,-1,1511,372,-3.88072,18.5464
294,652,-2.47388,-19.9854,0,0,0,0,0,0,0,-1,1518,372,-2.47392,19.9854
301,652,-1.06714,-21.4244,0,0,0,0,0,0,0,-1,1525,372,-1.06712,21.4244
308,652,-0.746094,-21.639,0,0,0,0,0,0,0,-1,1532,372,-0.746081,21.639
315,652,2.33008,-15.3782,0,0,0,0,0,0,0,-1,1539,372,2.33012,15.3782
322,652,1.95398,-18.5313,0,0,0,0,0,0,0,-1,1546,372,1.95404,18.5313
329,652,2.76392,-18.8169,0,0,0,0,0,0,0,-1,1553,372,2.76392,18.8169
336,652,1.76904,-14.9183,0,0,0,0,0,0,0,-1,1560,372,1.7691,14.9183
343,652,4.18225,-6.7092,0,0,0,0,0,0,0,-1,1567,372,4.18231,6.70921
350,652,4.64563,-7.2074,0,0,0,0,0,0,0,-1,1574,372,4.6456,7.2074
357,652,0,0,0,0,0,0,0,0,0,-1,1581,372,0,0
364,652,0,0,0,0,0,0,0,0,0,-1,1588,372,0,0
371,652,0,0,0,0,0,0,0,0,0,-1,1595,372,0,0
378,652,0,0,0,0,0,0,0,0,0,-1,1602,372,0,0
385,652,0,0,0,0,0,0,0,0,0,-1,1609,372,0,0
392,652,0,0,0,0,0,0,0,0,0,-1,1616,372,0,0
399,652,0,0,0,0,0,0,0,0,0,-1,1623,372,0,0
406,652,0,0,0,0,0,0,0,0,0,-1,1630,372,0,0
413,652,0,0,0,0,0,0,0,0,0,-1,1637,372,0,0
420,652,0,0,0,0,0,0,0,0,0,-1,1644,372,0,0
427,652,0,0,0,0,0,0,0,0,0,-1,1651,372,0,0
434,652,0,0,0,0,0,0,0,0,0,-1,1658,372,0,0
441,652,0,0,0,0,0,0,0,0,0,-1,1665,372,0,0
448,652,0,0,0,0,0,0,0,0,0,-1,1672,372,0,0
455,652,0,0,0,0,0,0,0,0,0,-1,1679,372,0,0
462,652,0,0,0,0,0,0,0,0,0,-1,1686,372,0,0
469,652,0,0,0,0,0,0,0,0,0,-1,1693,372,0,0
476,652,0,0,0,0,0,0,0,0,0,-1,1700,372,0,0
483,652,0,0,0,0,0,0,0,0,0,-1,1707,372,0,0
490,652,0,0,0,0,0,0,0,0,0,-1,1714,372,0,0
497,652,0,0,0,0,0,0,0,0,0,-1,1721,372,0,0
504,652,0,0,0,0,0,0,0,0,0,-1,1728,372,0,0
511,652,0,0,0,0,0,0,0,0,0,-1,1735,372,0,0
518,652,0,0,0,0,0,0,0,0,0,-1,1742,372,0,0
525,652,0,0,0,0,0,0,0,0,0,-1,1749,372,0,0
532,652,0,0,0,0,0,0,0,0,0,-1,1756,372,0,0
539,652,0,0,0,0,0,0,0,0,0,-1,1763,372,0,0
546,652,0,0,0,0,0,0,0,0,0,-1,1770,372,0,0
553,652,0,0,0,0,0,0,0,0,0,-1,1777,372,0,0
560,652,0,0,0,0,0,0,0,0,0,-1,1784,372,0,0
567,652,0,0,0,0,0,0,0,0,0,-1,1791,372,0,0
574,652,0,0,0,0,0,0,0,0,0,-1,1798,372,0,0
581,652,0,0,0,0,0,0,0,0,0,-1,1805,372,0,0
588,652,0,0,0,0,0,0,0,0,0,-1,1812,372,0,0
595,652,0,0,0,0,0,0,0,0,0,-1,1819,372,0,0
602,652,0,0,0,0,0,0,0,0,0,-1,1826,372,0,0
609,652,0,0,0,0,0,0,0,0,0,-1,1833,372,0,0
616,652,0,0,0,0,0,0,0,0,0,-1,1840,372,0,0
623,652,0,0,0,0,0,0,0,0,0,-1,1847,372,0,0
630,652,0,0,0,0,0,0,0,0,0,-1,1854,372,0,0
637,652,0,0,0,0,0,0,0,0,0,-1,1861,372,0,0
644,652,0,0,0,0,0,0,0,0,0,-1,1868,372,0,0
651,652,0,0,0,0,0,0,0,0,0,-1,1875,372,0,0
658,652,0,0,0,0,0,0,0,0,0,-1,1882,372,0,0
665,652,0,0,0,0,0,0,0,0,0,-1,1889,372,0,0
672,652,0,0,0,0,0,0,0,0,0,-1,1896,372,0,0
679,652,0,0,0,0,0,0,0,0,0,-1,1903,372,0,0
686,652,0,0,0,0,0,0,0,0,0,-1,1910,372,0,0
693,652,0,0,0,0,0,0,0,0,0,-1,1917,372,0,0
700,652,0,0,0,0,0,0,0,0,0,-1,1924,372,0,0
707,652,0,0,0,0,0,0,0,0,0,-1,1931,372,0,0
714,652,0,0,0,0,0,0,0,0,0,-1,1938,372,0,0
721,652,0,0,0,0,0,0,0,0,0,-1,1945,372,0,0
728,652,0,0,0,0,0,0,0,0,0,-1,1952,372,0,0
735,652,0,0,0,0,0,0,0,0,0,-1,1959,372,0,0
742,652,0,0,0,0,0,0,0,0,0,-1,1966,372,0,0
749,652,0,0,0,0,0,0,0,0,0,-1,1973,372,0,0
756,652,0,0,0,0,0,0,0,0,0,-1,1980,372,0,0
763,652,0,0,0,0,0,0,0,0,0,-1,1987,372,0,0
770,652,0,0,0,0,0,0,0,0,0,-1,1994,372,0,0
777,652,0,0,0,0,0,0,0,0,0,-1,2001,372,0,0
784,652,0,0,0,0,0,0,0,0,0,-1,2008,372,0,0
791,652,0,0,0,0,0,0,0,0,0,-1,2015,372,0,0
798,652,0,0,0,0,0,0,0,0,0,-1,2022,372,0,0
805,652,0,0,0,0,0,0,0,0,0,-1,2029,372,0,0
812,652,0,0,0,0,0,0,0,0,0,-1,2036,372,0,0
-700,645,0,0,0,0,0,0,0,0,0,-1,524,379,0,0
-693,645,0,0,0,0,0,0,0,0,0,-1,531,379,0,0
-686,645,0,0,0,0,0,0,0,0,0,-1,538,379,0,0
-679,645,0,0,0,0,0,0,0,0,0,-1,545,379,0,0
-672,645,0,0,0,0,0,0,0,0,0,-1,552,379,0,0
-665,645,0,0,0,0,0,0,0,0,0,-1,559,379,0,0
-658,645,0,0,0,0,0,0,0,0,0,-1,566,379,0,0
-651,645,0,0,0,0,0,0,0,0,0,-1,573,379,0,0
-644,645,0,0,0,0,0,0,0,0,0,-1,580,379,0,0
-637,645,0,0,0,0,0,0,0,0,0,-1,587,379,0,0
-630,645,0,0,0,0,0,0,0,0,0,-1,594,379,0,0
-623,645,0,0,0,0,0,0,0,0,0,-1,601,379,0,0
-616,645,0,0,0,0,0,0,0,0,0,-1,608,379,0,0
-609,645,0,0,0,0,0,0,0,0,0,-1,615,379,0,0
-602,645,0,0,0,0,0,0,0,0,0,-1,622,379,0,0
-595,645,0,0,0,0,0,0,0,0,0,-1,629,379,0,0
-588,645,0,0,0,0,0,0,0,0,0,-1,636,379,0,0
-581,645,0,0,0,0,0,0,0,0,0,-1,643,379,0,0
-574,645,0,0,0,0,0,0,0,0,0,-1,650,379,0,0
-567,645,0,0,0,0,0,0,0,0,0,-1,657,379,0,0
-560,645,0,0,0,0,0,0,0,0,0,-1,664,379,0,0
-553,645,0,0,0,0,0,0,0,0,0,-1,671,379,0,0
-546,645,0,0,0,0,0,0,0,0,0,-1,678,379,0,0
-539,645,0,0,0,0,0,0,0,0,0,-1,685,379,0,0
-532,645,0,0,0,0,0,0,0,0,0,-1,692,379,0,0
-525,645,0,0,0,0,0,0,0,0,0,-1,699,379,0,0
-518,645,0,0,0,0,0,0,0,0,0,-1,706,379,0,0
-511,645,0,0,0,0,0,0,0,0,0,-1,713,379,0,0
-504,645,0,0,0,0,0,0,0,0,0,-1,720,379,0,0
-497,645,0,0,0,0,0,0,0,0,0,-1,727,379,0,0
-490,645,0,0,0,0,0,0,0,0,0,-1,734,379,0,0
-483,645,0,0,0,0,0,0,0,0,0,-1,741,379,0,0
-476,645,0,0,0,0,0,0,0,0,0,-1,748,379,0,0
-469,645,0,0,0,0,0,0,0,0,0,-1,755,379,0,0
-462,645,0,0,0,0,0,0,0,0,0,-1,762,379,0,0
-455,645,0,0,0,0,0,0,0,0,0,-1,769,379,0,0
-448,645,0,0,0,0,0,0,0,0,0,-1,776,379,0,0
-441,645,0,0,0,0,0,0,0,0,0,-1,783,379,0,0
-434,645,0,0,0,0,0,0,0,0,0,-1,790,379,0,0
-427,645,0,0,0,0,0,0,0,0,0,-1,797,379,0,0
-420,645,0,0,0,0,0,0,0,0,0,-1,804,379,0,0
-413,645,0,0,0,0,0,0,0,0,0,-1,811,379,0,0
-406,645,0,0,0,0,0,0,0,0,0,-1,818,379,0,0
-399,645,0,0,0,0,0,0,0,0,0,-1,825,379,0,0
-392,645,0,0,0,0,0,0,0,0,0,-1,832,379,0,0
-385,645,0,0,0,0,0,0,0,0,0,-1,839,379,0,0
-378,645,0,0,0,0,0,0,0,0,0,-1,846,379,0,0
-371,645,0,0,0,0,0,0,0,0,0,-1,853,379,0,0
-364,645,0,0,0,0,0,0,0,0,0,-1,860,379,0,0
-357,645,0,0,0,0,0,0,0,0,0,-1,867,379,0,0
-350,645,0,0,0,0,0,0,0,0,0,-1,874,379,0,0
-343,645,0,0,0,0,0,0,0,0,0,-1,881,379,0,0
-336,645,0,0,0,0,0,0,0,0,0,-1,888,379,0,0
-329,645,0,0,0,0,0,0,0,0,0,-1,895,379,0,0
-322,645,0,0,0,0,0,0,0,0,0,-1,902,379,0,0
-315,645,0,0,0,0,0,0,0,0,0,-1,909,379,0,0
-308,645,0,0,0,0,0,0,0,0,0,-1,916,379,0,0
-301,645,0,0,0,0,0,0,0,0,0,-1,923,379,0,0
-294,645,0,0,0,0,0,0,0,0,0,-1,930,379,0,0
-287,645,0,0,0,0,0,0,0,0,0,-1,937,379,0,0
-280,645,0,0,0,0,0,0,0,0,0,-1,944,379,0,0
-273,645,0,0,0,0,0,0,0,0,0,-1,951,379,0,0
-266,645,0,0,0,0,0,0,0,0,0,-1,958,379,0,0
-259,645,0,0,0,0,0,0,0,0,0,-1,965,379,0,0
-252,645,2.6051,-18.1004,0,0,0,0,0,0,0,-1,972,379,2.60507,18.1004
-245,645,2.60535,-18.1753,0,0,0,0,0,0,0,-1,979,379,2.60534,18.1753
-238,645,2.73907,-18.5026,0,0,0,0,0,0,0,-1,986,379,2.73909,18.5026
-231,645,7.82458,-17.8101,0,0,0,0,0,0,0,-1,993,379,7.82458,17.8101
-224,645,7.9621,-18.4546,0,0,0,0,0,0,0,-1,1000,379,7.96209,18.4546
-217,645,8.09961,-19.0991,0,0,0,0,0,0,0,-1,1007,379,8.0996,19.0991
-210,645,10.6344,-19.6549,0,0,0,0,0,0,0,-1,1014,379,10.6344,19.6549
-203,645,10.1741,-18.3227,0,0,0,0,0,0,0,-1,1021,379,10.1741,18.3227
-196,645,4.84814,-19.7113,0,0,0,0,0,0,0,-1,1028,379,4.84817,19.7113
-189,645,5.15369,-18.0082,0,0,0,0,0,0,0,-1,1035,379,5.15363,18.0082
-182,645,4.08423,-19.5258,0,0,0,0,0,0,0,-1,1042,379,4.08428,19.5258
-175,645,4.38464,-19.7014,0,0,0,0,0,0,0,-1,1049,379,4.38466,19.7014
-168,645,4.17102,-20.3131,0,0,0,0,0,0,0,-1,1056,379,4.17099,20.3131
-161,645,3.97009,-20.8073,0.0205113,-0.019796,0.0230161,0.0309503,-0.0302351,0.425804,0.0353262,0.047324,1063,379,3.97015,20.8073
-154,645,3.94971,-21.1675,0.0203763,-0.0199492,0.0237215,0.0313462,-0.0309192,0.433157,0.0359492,0.042351,1070,379,3.94976,21.1675
-147,645,2.54578,-21.2332,0,0,0,0,0,0,0,-1,1077,379,2.54578,21.2332
-140,645,3.48877,-21.2397,0.0189036,-0.0176376,0.0231503,0.0301245,-0.0288586,0.451332,0.0340565,0.0381542,1084,379,3.48881,21.2397
-133,645,3.88062,-21.2899,0.0174631,-0.015099,0.0220821,0.0286173,-0.0262532,0.467738,0.0316893,0.0379196,1091,379,3.88062,21.2899
-126,645,3.97974,-21.4909,0.0155849,-0.0121816,0.0204385,0.0264095,-0.0230062,0.487059,0.0285527,0.0291965,1098,379,3.97972,21.4909
-119,645,3.89685,-21.7626,0.0134836,-0.00902049,0.0183293,0.0237391,-0.0192759,0.510115,0.0248792,0.0179993,1105,379,3.89681,21.7626
-112,645,3.87,-21.983,0.0112696,-0.00592081,0.0159695,0.0208101,-0.0154613,0.538519,0.0210171,0.0118143,1112,379,3.87005,21.983
-105,645,3.85291,-22.155,0.00910371,-0.00314978,0.0136463,0.0179356,-0.0119816,0.574401,0.0173863,0.0116362,1119,379,3.85291,22.155
-98,645,3.81238,-22.311,0.00693285,-0.00104673,0.0114216,0.0150415,-0.00915539,0.617365,0.0141072,0.0128367,1126,379,3.81241,22.311
-91,645,3.80371,-22.4815,0.00434495,0.001687,0.00803464,0.0111598,-0.00512783,0.703437,0.00961621,0.016365,1133,379,3.80376,22.4815
-84,645,3.82019,-22.6664,0.00168852,0.00378374,0.00492781,0.00777407,-0.00230181,0.890135,0.00609659,0.0201766,1140,379,3.82019,22.6663
-77,645,3.75378,-22.884,-0.000263825,0.00395434,0.00344368,0.00588347,-0.00219295,1.06016,0.00482247,0.0159944,1147,379,3.75383,22.884
-70,645,3.70728,-23.0165,-0.00200565,0.0043043,0.00184402,0.00480367,-0.00250502,1.30633,0.00428868,0.0111409,1154,379,3.70732,23.0165
-63,645,3.68933,-23.1298,-0.0033855,0.00375219,0.000904111,0.00386493,-0.00349824,1.44674,0.00425288,0.0111058,1161,379,3.68936,23.1298
-56,645,3.68079,-23.2374,-0.00297408,0.00416184,0.00101345,0.00430298,-0.00311522,1.43242,0.00430116,0.0119868,1168,379,3.6808,23.2374
-49,645,3.68066,-23.359,-0.00258303,0.00447146,0.00137615,0.0047304,-0.00284197,1.3848,0.004417,0.00983825,1175,379,3.68071,23.359
-42,645,3.64722,-23.4659,-0.00230765,0.00499632,0.00172772,0.00538439,-0.00269572,1.34985,0.00475036,0.00986767,1182,379,3.64716,23.4658
-35,645,3.63232,-23.5893,-0.00191006,0.00560834,0.00209787,0.0061541,-0.00245582,1.31629,0.00512152,0.0104384,1189,379,3.63237,23.5893
-28,645,3.61694,-23.7211,-0.00162367,0.00539344,0.00227578,0.00606689,-0.00229712,1.28309,0.00498978,0.00848284,1196,379,3.61695,23.7211
-21,645,3.59351,-23.7937,-0.00138769,0.00520928,0.00240196,0.00599116,-0.00216957,1.2561,0.00488077,0.00974755,1203,379,3.59352,23.7937
-14,645,3.59656,-23.8732,-0.00114519,0.00491593,0.00249911,0.00581346,-0.00204271,1.226,0.00470669,0.00966038,1210,379,3.59657,23.8732
-7,645,3.60913,-23.9773,-0.000946667,0.0046432,0.00242551,0.00554891,-0.00185238,1.21342,0.00444724,0.0139501,1217,379,3.60919,23.9773
0,645,3.63257,-24.0112,-0.000823196,0.00439776,0.00221187,0.00520883,-0.00163426,1.21933,0.00412662,0.0265864,1224,379,3.63259,24.0112
7,645,3.60596,-24.0472,-0.000687597,0.00410806,0.00191765,0.00478057,-0.0013601,1.2335,0.00372414,0.016997,1231,379,3.60596,24.0472
14,645,3.5791,-24.0931,-0.000526,0.00390223,0.00166559,0.00445876,-0.00108253,1.24832,0.00339144,0.01441,1238,379,3.57905,24.0931
21,645,3.55908,-24.1526,-0.000472568,0.00380909,0.00137235,0.00421119,-0.00087467,1.28577,0.00313989,0.00968896,1245,379,3.55903,24.1526
28,645,3.54407,-24.1891,-0.000203542,0.00376678,0.000982689,0.00399669,-0.000433452,1.34097,0.00282007,0.00908188,1252,379,3.5441,24.1891
35,645,3.52454,-24.1974,4.78305e-05,0.003938,0.000668861,0.00404979,-6.39588e-05,1.40519,0.00272143,0.00847036,1259,379,3.52458,24.1974
42,645,3.51111,-24.226,0.000200518,0.00402284,0.000619966,0.00412088,0.000102477,1.41396,0.00271374,0.00823036,1266,379,3.51115,24.226
49,645,3.55579,-24.2365,0.000438979,0.00404672,0.000487718,0.00411149,0.000374209,1.43877,0.00262517,0.0116056,1273,379,3.55583,24.2364
56,645,3.5531,-24.2257,0.000744411,0.00410016,0.000438343,0.00415647,0.000688098,1.44303,0.00257247,0.0115817,1280,379,3.55313,24.2257
63,645,3.52649,-24.2289,0.000889294,0.00459851,-0.000118921,0.00460232,0.000885485,-1.53878,0.00281978,0.011297,1287,379,3.52643,24.2289
70,645,3.5033,-24.1995,0.00122141,0.00497215,-0.000247977,0.00498847,0.00120509,-1.50506,0.00300559,0.015391,1294,379,3.50334,24.1995
77,645,3.49268,-24.1814,0.00218149,0.00569559,-0.000646392,0.00581071,0.00206636,-1.39454,0.00340112,0.0185741,1301,379,3.49265,24.1814
84,645,3.49292,-24.1668,0.00271871,0.00612339,-0.000907922,0.00635037,0.00249173,-1.32582,0.00369459,0.0137788,1308,379,3.49288,24.1668
91,645,3.46582,-24.1544,0.0031122,0.00645754,-0.00126535,0.00688224,0.00268751,-1.24698,0.0040051,0.0146739,1315,379,3.46587,24.1544
98,645,3.47681,-24.0811,0.00345383,0.00653722,-0.00154335,0.00717698,0.00281407,-1.17783,0.00417567,0.0129021,1322,379,3.47678,24.0811
105,645,3.47986,-23.9912,0.00389264,0.00665569,-0.0017991,0.00754251,0.00300583,-1.11283,0.00438446,0.00990365,1329,379,3.47984,23.9912
112,645,3.47083,-23.9178,0.00432564,0.0068914,-0.00204055,0.00801884,0.0031982,-1.06602,0.00466116,0.00814594,1336,379,3.47082,23.9177
119,645,3.47058,-23.8456,0.00460437,0.00699007,-0.00223026,0.00832644,0.00326799,-1.03097,0.00484418,0.0082992,1343,379,3.47059,23.8456
126,645,3.44604,-23.766,0.00477753,0.00702903,-0.00218017,0.00835694,0.00344962,-1.02372,0.00484929,0.0109298,1350,379,3.44606,23.7659
133,645,3.42346,-23.6903,0.00470525,0.00706363,-0.00190268,0.00812289,0.00364598,-1.06281,0.00469793,0.0121588,1357,379,3.42346,23.6903
140,645,3.40808,-23.6016,0.00453004,0.00695209,-0.00150268,0.007671,0.00381113,-1.12456,0.00442888,0.0120849,1364,379,3.40803,23.6016
147,645,3.38367,-23.4857,0.0042376,0.00692993,-0.0011213,0.00733576,0.00383177,-1.22354,0.00423671,0.0128954,1371,379,3.38369,23.4857
154,645,3.38293,-23.3809,0.00365689,0.00687296,-0.000626411,0.00699066,0.00353919,-1.38506,0.00403617,0.0116593,1378,379,3.3829,23.3809
161,645,3.38342,-23.2469,0.00295158,0.00683286,-0.000145873,0.00683834,0.00294611,-1.53328,0.00396069,0.0140202,1385,379,3.38346,23.2469
168,645,3.36243,-23.1089,0.00231548,0.00641098,0.000886107,0.00659448,0.00213199,1.3666,0.00388577,0.0166916,1392,379,3.36242,23.1089
175,645,3.37927,-22.974,0.00126285,0.00603495,0.00106235,0.00626076,0.00103704,1.36135,0.0038747,0.0138789,1399,379,3.37924,22.974
182,645,3.35474,-22.8387,-0.000569103,0.0054994,0.00174989,0.00596783,-0.00103754,1.30924,0.00436569,0.00998263,1406,379,3.35473,22.8387
189,645,3.32556,-22.6637,-0.0013482,0.00564992,0.00178409,0.0060785,-0.00177679,1.33504,0.00475653,0.0110365,1413,379,3.32557,22.6637
196,645,3.29858,-22.5083,-0.00200441,0.00514378,0.00180628,0.00557428,-0.00243491,1.33682,0.00474104,0.01151,1420,379,3.29861,22.5083
203,645,3.2666,-22.3299,-0.00252995,0.00515558,0.00193691,0.00561613,-0.00299049,1.33736,0.00504552,0.0110542,1427,379,3.26655,22.3299
210,645,3.28882,-22.1175,-0.00318136,0.00489472,0.00206286,0.00539112,-0.00367776,1.33465,0.00526698,0.0166736,1434,379,3.28878,22.1175
217,645,3.27429,-21.986,-0.00372545,0.00513863,0.00199779,0.00556808,-0.00415491,1.35905,0.0056333,0.0197846,1441,379,3.27425,21.986
224,645,3.22937,-21.8562,-0.00410231,0.00583508,0.00206235,0.00624609,-0.00451332,1.37408,0.00623874,0.0180891,1448,379,3.22937,21.8562
231,645,3.19043,-21.592,-0.00423334,0.00644163,0.00225111,0.00689692,-0.00468863,1.37124,0.0067293,0.017519,1455,379,3.19048,21.592
238,645,3.198,-21.3354,-0.00436848,0.00742464,0.00257648,0.00796296,-0.00490679,1.36482,0.00749986,0.013097,1462,379,3.198,21.3354
245,645,3.18762,-21.1372,-0.00473553,0.00809987,0.00263191,0.00861858,-0.00525424,1.3762,0.0080876,0.0136731,1469,379,3.1876,21.1372
252,645,3.20752,-20.8532,-0.00468375,0.00890411,0.00286832,0.00948478,-0.00526442,1.37105,0.00863088,0.01995,1476,379,3.20756,20.8532
259,645,3.11365,-20.5979,-0.00443142,0.0099408,0.00312826,0.0105922,-0.00508279,1.36551,0.0092344,0.0350871,1483,379,3.11368,20.5979
266,645,3.00879,-20.3816,-0.00427597,0.0107451,0.00346453,0.0115057,-0.00503653,1.3547,0.00979107,0.0288053,1490,379,3.0088,20.3816
273,645,3.06934,-20.2225,-0.00512211,0.00992718,0.0045807,0.0112118,-0.00640673,1.29738,0.0102974,0.0280325,1497,379,3.06936,20.2225
280,645,3.08496,-19.9874,-0.00552712,0.00989775,0.00550904,0.0116632,-0.00729261,1.26066,0.0110407,0.0493482,1504,379,3.08493,19.9874
287,645,3.08838,-19.857,0,0,0,0,0,0,0,-1,1511,379,3.08844,19.857
294,645,2.94409,-19.7682,0,0,0,0,0,0,0,-1,1518,379,2.94407,19.7682
301,645,0.732422,-19.9609,0,0,0,0,0,0,0,-1,1525,379,0.7324,19.9609
308,645,2.23987,-18.3287,0,0,0,0,0,0,0,-1,1532,379,2.23985,18.3287
315,645,3.07629,-17.7949,0,0,0,0,0,0,0,-1,1539,379,3.07629,17.7949
322,645,3.25293,-19.3416,0,0,0,0,0,0,0,-1,1546,379,3.25297,19.3416
329,645,2.80652,-18.474,0,0,0,0,0,0,0,-1,1553,379,2.80657,18.474
336,645,2.34009,-17.6476,0,0,0,0,0,0,0,-1,1560,379,2.34013,17.6476
343,645,0.977295,-13.792,0,0,0,0,0,0,0,-1,1567,379,0.977251,13.792
350,645,3.93213,-5.72198,0,0,0,0,0,0,0,-1,1574,379,3.9321,5.72198
357,645,1.63928,-6.465,0,0,0,0,0,0,0,-1,1581,379,1.63926,6.46499
364,645,-0.0794678,-3.22021,0,0,0,0,0,0,0,-1,1588,379,-0.0794987,3.22021
371,645,0,0,0,0,0,0,0,0,0,-1,1595,379,0,0
378,645,0,0,0,0,0,0,0,0,0,-1,1602,379,0,0
385,645,0,0,0,0,0,0,0,0,0,-1,1609,379,0,0
392,645,0,0,0,0,0,0,0,0,0,-1,1616,379,0,0
399,645,0,0,0,0,0,0,0,0,0,-1,1623,379,0,0
406,645,0,0,0,0,0,0,0,0,0,-1,1630,379,0,0
413,645,0,0,0,0,0,0,0,0,0,-1,1637,379,0,0
420,645,0,0,0,0,0,0,0,0,0,-1,1644,379,0,0
427,645,0,0,0,0,0,0,0,0,0,-1,1651,379,0,0
434,645,0,0,0,0,0,0,0,0,0,-1,1658,379,0,0
441,645,0,0,0,0,0,0,0,0,0,-1,1665,379,0,0
448,645,0,0,0,0,0,0,0,0,0,-1,1672,379,0,0
455,645,0,0,0,0,0,0,0,0,0,-1,1679,379,0,0
462,645,0,0,0,0,0,0,0,0,0,-1,1686,379,0,0
469,645,0,0,0,0,0,0,0,0,0,-1,1693,379,0,0
476,645,0,0,0,0,0,0,0,0,0,-1,1700,379,0,0
483,645,0,0,0,0,0,0,0,0,0,-1,1707,379,0,0
490,645,0,0,0,0,0,0,0,0,0,-1,1714,379,0,0
497,645,0,0,0,0,0,0,0,0,0,-1,1721,379,0,0
504,645,0,0,0,0,0,0,0,0,0,-1,1728,379,0,0
511,645,0,0,0,0,0,0,0,0,0,-1,1735,379,0,0
518,645,0,0,0,0,0,0,0,0,0,-1,1742,379,0,0
525,645,0,0,0,0,0,0,0,0,0,-1,1749,379,0,0
532,645,0,0,0,0,0,0,0,0,0,-1,1756,379,0,0
539,645,0,0,0,0,0,0,0,0,0,-1,1763,379,0,0
546,645,0,0,0,0,0,0,0,0,0,-1,1770,379,0,0
553,645,0,0,0,0,0,0,0,0,0,-1,1777,379,0,0
560,645,0,0,0,0,0,0,0,0,0,-1,1784,379,0,0
567,645,0,0,0,0,0,0,0,0,0,-1,1791,379,0,0
574,645,0,0,0,0,0,0,0,0,0,-1,1798,379,0,0
581,645,0,0,0,0,0,0,0,0,0,-1,1805,379,0,0
588,645,0,0,0,0,0,0,0,0,0,-1,1812,379,0,0
595,645,0,0,0,0,0,0,0,0,0,-1,1819,379,0,0
602,645,0,0,0,0,0,0,0,0,0,-1,1826,379,0,0
609,645,0,0,0,0,0,0,0,0,0,-1,1833,379,0,0
616,645,0,0,0,0,0,0,0,0,0,-1,1840,379,0,0
623,645,0,0,0,0,0,0,0,0,0,-1,1847,379,0,0
630,645,0,0,0,0,0,0,0,0,0,-1,1854,379,0,0
637,645,0,0,0,0,0,0,0,0,0,-1,1861,379,0,0
644,645,0,0,0,0,0,0,0,0,0,-1,1868,379,0,0
651,645,0,0,0,0,0,0,0,0,0,-1,1875,379,0,0
658,645,0,0,0,0,0,0,0,0,0,-1,1882,379,0,0
665,645,0,0,0,0,0,0,0,0,0,-1,1889,379,0,0
672,645,0,0,0,0,0,0,0,0,0,-1,1896,379,0,0
679,645,0,0,0,0,0,0,0,0,0,-1,1903,379,0,0
686,645,0,0,0,0,0,0,0,0,0,-1,1910,379,0,0
693,645,0,0,0,0,0,0,0,0,0,-1,1917,379,0,0
700,645,0,0,0,0,0,0,0,0,0,-1,1924,379,0,0
707,645,0,0,0,0,0,0,0,0,0,-1,1931,379,0,0
714,645,0,0,0,0,0,0,0,0,0,-1,1938,379,0,0
721,645,0,0,0,0,0,0,0,0,0,-1,1945,379,0,0
728,645,0,0,0,0,0,0,0,0,0,-1,1952,379,0,0
735,645,0,0,0,0,0,0,0,0,0,-1,1959,379,0,0
742,645,0,0,0,0,0,0,0,0,0,-1,1966,379,0,0
749,645,0,0,0,0,0,0,0,0,0,-1,1973,379,0,0
756,645,0,0,0,0,0,0,0,0,0,-1,1980,379,0,0
763,645,0,0,0,0,0,0,0,0,0,-1,1987,379,0,0
770,645,0,0,0,0,0,0,0,0,0,-1,1994,379,0,0
777,645,0,0,0,0,0,0,0,0,0,-1,2001,379,0,0
784,645,0,0,0,0,0,0,0,0,0,-1,2008,379,0,0
791,645,0,0,0,0,0,0,0,0,0,-1,2015,379,0,0
798,645,0,0,0,0,0,0,0,0,0,-1,2022,379,0,0
805,645,0,0,0,0,0,0,0,0,0,-1,2029,379,0,0
812,645,0,0,0,0,0,0,0,0,0,-1,2036,379,0,0
-700,638,0,0,0,0,0,0,0,0,0,-1,524,386,0,0
-693,638,0,0,0,0,0,0,0,0,0,-1,531,386,0,0
-686,638,0,0,0,0,0,0,0,0,0,-1,538,386,0,0
-679,638,0,0,0,0,0,0,0,0,0,-1,545,386,0,0
-672,638,0,0,0,0,0,0,0,0,0,-1,552,386,0,0
-665,638,0,0,0,0,0,0,0,0,0,-1,559,386,0,0
-658,638,0,0,0,0,0,0,0,0,0,-1,566,386,0,0
-651,638,0,0,0,0,0,0,0,0,0,-1,573,386,0,0
-644,638,0,0,0,0,0,0,0,0,0,-1,580,386,0,0
-637,638,0,0,0,0,0,0,0,0,0,-1,587,386,0,0
-630,638,0,0,0,0,0,0,0,0,0,-1,594,386,0,0
-623,638,0,0,0,0,0,0,0,0,0,-1,601,386,0,0
-616,638,0,0,0,0,0,0,0,0,0,-1,608,386,0,0
-609,638,0,0,0,0,0,0,0,0,0,-1,615,386,0,0
-602,638,0,0,0,0,0,0,0,0,0,-1,622,386,0,0
-595,638,0,0,0,0,0,0,0,0,0,-1,629,386,0,0
-588,638,0,0,0,0,0,0,0,0,0,-1,636,386,0,0
-581,638,0,0,0,0,0,0,0,0,0,-1,643,386,0,0
-574,638,0,0,0,0,0,0,0,0,0,-1,650,386,0,0
-567,638,0,0,0,0,0,0,0,0,0,-1,657,386,0,0
-560,638,0,0,0,0,0,0,0,0,0,-1,664,386,0,0
-553,638,0,0,0,0,0,0,0,0,0,-1,671,386,0,0
-546,638,0,0,0,0,0,0,0,0,0,-1,678,386,0,0
-539,638,0,0,0,0,0,0,0,0,0,-1,685,386,0,0
-532,638,0,0,0,0,0,0,0,0,0,-1,692,386,0,0
-525,638,0,0,0,0,0,0,0,0,0,-1,699,386,0,0
-518,638,0,0,0,0,0,0,0,0,0,-1,706,386,0,0
-511,638,0,0,0,0,0,0,0,0,0,-1,713,386,0,0
-504,638,0,0,0,0,0,0,0,0,0,-1,720,386,0,0
-497,638,0,0,0,0,0,0,0,0,0,-1,727,386,0,0
-490,638,0,0,0,0,0,0,0,0,0,-1,734,386,0,0
-483,638,0,0,0,0,0,0,0,0,0,-1,741,386,0,0
-476,638,0,0,0,0,0,0,0,0,0,-1,748,386,0,0
-469,638,0,0,0,0,0,0,0,0,0,-1,755,386,0,0
-462,638,0,0,0,0,0,0,0,0,0,-1,762,386,0,0
-455,638,0,0,0,0,0,0,0,0,0,-1,769,386,0,0
-448,638,0,0,0,0,0,0,0,0,0,-1,776,386,0,0
-441,638,0,0,0,0,0,0,0,0,0,-1,783,386,0,0
-434,638,0,0,0,0,0,0,0,0,0,-1,790,386,0,0
-427,638,0,0,0,0,0,0,0,0,0,-1,797,386,0,0
-420,638,0,0,0,0,0,0,0,0,0,-1,804,386,0,0
-413,638,0,0,0,0,0,0,0,0,0,-1,811,386,0,0
-406,638,0,0,0,0,0,0,0,0,0,-1,818,386,0,0
-399,638,0,0,0,0,0,0,0,0,0,-1,825,386,0,0
-392,638,0,0,0,0,0,0,0,0,0,-1,832,386,0,0
-385,638,0,0,0,0,0,0,0,0,0,-1,839,386,0,0
-378,638,0,0,0,0,0,0,0,0,0,-1,846,386,0,0
-371,638,0,0,0,0,0,0,0,0,0,-1,853,386,0,0
-364,638,0,0,0,0,0,0,0,0,0,-1,860,386,0,0
-357,638,0,0,0,0,0,0,0,0,0,-1,867,386,0,0
-350,638,0,0,0,0,0,0,0,0,0,-1,874,386,0,0
-343,638,0,0,0,0,0,0,0,0,0,-1,881,386,0,0
-336,638,0,0,0,0,0,0,0,0,0,-1,888,386,0,0
-329,638,0,0,0,0,0,0,0,0,0,-1,895,386,0,0
-322,638,0,0,0,0,0,0,0,0,0,-1,902,386,0,0
-315,638,0,0,0,0,0,0,0,0,0,-1,909,386,0,0
-308,638,0,0,0,0,0,0,0,0,0,-1,916,386,0,0
-301,638,0,0,0,0,0,0,0,0,0,-1,923,386,0,0
-294,638,0,0,0,0,0,0,0,0,0,-1,930,386,0,0
-287,638,0,0,0,0,0,0,0,0,0,-1,937,386,0,0
-280,638,0,0,0,0,0,0,0,0,0,-1,944,386,0,0
-273,638,0,0,0,0,0,0,0,0,0,-1,951,386,0,0
-266,638,5.203,-11.6631,0,0,0,0,0,0,0,-1,958,386,5.203,11.6631
-259,638,1.21844,-16.8574,0,0,0,0,0,0,0,-1,965,386,1.21842,16.8574
-252,638,1.5874,-17.3302,0,0,0,0,0,0,0,-1,972,386,1.58738,17.3302
-245,638,2.48798,-17.8381,0,0,0,0,0,0,0,-1,979,386,2.48797,17.8381
-238,638,2.6925,-18.2179,0,0,0,0,0,0,0,-1,986,386,2.69249,18.2179
-231,638,2.86945,-18.6092,0,0,0,0,0,0,0,-1,993,386,2.86942,18.6092
-224,638,6.44049,-18.5715,0,0,0,0,0,0,0,-1,1000,386,6.44048,18.5715
-217,638,6.53162,-18.8751,0,0,0,0,0,0,0,-1,1007,386,6.5316,18.8751
-210,638,10.8154,-19.396,0,0,0,0,0,0,0,-1,1014,386,10.8154,19.396
-203,638,10.7463,-17.7428,0,0,0,0,0,0,0,-1,1021,386,10.7463,17.7428
-196,638,4.36646,-19.408,0,0,0,0,0,0,0,-1,1028,386,4.36643,19.408
-189,638,3.72778,-19.4538,0,0,0,0,0,0,0,-1,1035,386,3.72781,19.4538
-182,638,3.72888,-19.5873,0.0128844,-0.00431946,0.00873475,0.0165417,-0.00797678,0.39653,0.0144408,0.0463644,1042,386,3.72888,19.5873
-175,638,3.86475,-19.8576,0.0137295,-0.00809856,0.0110596,0.0183535,-0.0127225,0.39601,0.0180397,0.0449287,1049,386,3.86479,19.8576
-168,638,3.89966,-20.2772,0.0143922,-0.0103571,0.0127902,0.0198142,-0.015779,0.400955,0.0205937,0.0349467,1056,386,3.89963,20.2772
-161,638,3.80774,-20.5524,0.0146075,-0.0120772,0.0141732,0.0207304,-0.0182001,0.407792,0.0224923,0.0300328,1063,386,3.80775,20.5524
-154,638,3.81702,-20.7341,0.0145572,-0.0125712,0.0150484,0.0212523,-0.0192663,0.418612,0.0234028,0.0228845,1070,386,3.81697,20.7341
-147,638,3.78723,-20.9452,0.0141978,-0.0124925,0.0153771,0.0212131,-0.0195079,0.428012,0.0235172,0.0190487,1077,386,3.78724,20.9451
-140,638,3.75391,-21.1607,0.0135294,-0.0115969,0.0152336,0.020712,-0.0187795,0.440588,0.0228095,0.0163192,1084,386,3.75386,21.1607
-133,638,3.74768,-21.4124,0.0124559,-0.00993112,0.0146916,0.0197323,-0.0172075,0.459862,0.0213438,0.014715,1091,386,3.74766,21.4124
-126,638,3.74561,-21.6235,0.0110097,-0.0079209,0.013636,0.0181436,-0.0150547,0.482006,0.0191947,0.0155906,1098,386,3.74561,21.6235
-119,638,3.73218,-21.8203,0.00941134,-0.00563899,0.0121462,0.0161746,-0.0124022,0.508063,0.0165466,0.0162563,1105,386,3.73218,21.8203
-112,638,3.7251,-22.0225,0.00773719,-0.00335,0.0104196,0.0139961,-0.00960896,0.540926,0.0137066,0.0142161,1112,386,3.72514,22.0225
-105,638,3.70117,-22.2221,0.00611755,-0.0012689,0.00871176,0.0118866,-0.00703795,0.584914,0.011045,0.0150256,1119,386,3.70114,22.2221
-98,638,3.66895,-22.4016,0.00450759,0.000320476,0.00707763,0.0097948,-0.00496674,0.641599,0.0086732,0.0149561,1126,386,3.66889,22.4015
-91,638,3.63098,-22.5804,0.00260176,0.00219023,0.00467866,0.00707918,-0.00228719,0.763423,0.00563865,0.0123838,1133,386,3.63098,22.5804
-84,638,3.60547,-22.7459,0.000778945,0.00347371,0.00271406,0.00515644,-0.000903781,1.0158,0.00377512,0.0147714,1140,386,3.60541,22.7459
-77,638,3.58923,-22.8907,-0.000451555,0.00347263,0.0017584,0.00414526,-0.00112419,1.20544,0.00320465,0.012162,1147,386,3.58922,22.8907
-70,638,3.58508,-23.0249,-0.00133244,0.00341705,0.000843146,0.00356229,-0.00147768,1.40021,0.00299164,0.0105068,1154,386,3.58511,23.0249
-63,638,3.57349,-23.1543,-0.00195009,0.00289136,0.000340255,0.00291515,-0.00197389,1.50097,0.00284007,0.0110867,1161,386,3.57343,23.1543
-56,638,3.57324,-23.2593,-0.00170009,0.00276533,0.000173605,0.00277207,-0.00170682,1.532,0.00261015,0.0143537,1168,386,3.5733,23.2593
-49,638,3.56592,-23.3716,-0.00138352,0.00252559,0.000226636,0.00253869,-0.00139662,1.51308,0.00230372,0.0116619,1175,386,3.56598,23.3716
-42,638,3.54297,-23.4973,-0.00115592,0.00242724,0.000427088,0.00247744,-0.00120612,1.45379,0.00216852,0.0109307,1182,386,3.54299,23.4973
-35,638,3.54895,-23.6192,-0.000756797,0.00239265,0.000617028,0.00250923,-0.000873368,1.38407,0.00202764,0.0110678,1189,386,3.549,23.6192
-28,638,3.5647,-23.7389,-0.000280432,0.00198877,0.000727967,0.00220223,-0.000493887,1.28557,0.00165749,0.0105306,1196,386,3.56468,23.7389
-21,638,3.53052,-23.7928,0.000227651,0.00161858,0.000823401,0.00200092,-0.000154688,1.13608,0.00138838,0.0112423,1203,386,3.5305,23.7928
-14,638,3.5177,-23.8743,0.000744817,0.00121194,0.000925917,0.0019333,2.34594e-05,0.908946,0.00128112,0.0113113,1210,386,3.51775,23.8743
-7,638,3.52698,-24.0124,0.00125255,0.000956491,0.000889965,0.00200671,0.000202328,0.702987,0.00127572,0.0177244,1217,386,3.52694,24.0124
0,638,3.59033,-24.012,0.00156202,0.000826353,0.000809908,0.00208371,0.000304662,0.572242,0.00129954,0.0319808,1224,386,3.5903,24.012
7,638,3.54028,-24.0543,0.00172157,0.000692387,0.000764512,0.00212854,0.000285413,0.489177,0.00133411,0.0226967,1231,386,3.54029,24.0543
14,638,3.51733,-24.0998,0.0018061,0.000576403,0.00078734,0.00219022,0.00019228,0.4539,0.00140046,0.0124496,1238,386,3.51736,24.0998
21,638,3.51074,-24.1485,0.00172971,0.000632442,0.000773026,0.00212901,0.000233148,0.476787,0.00134836,0.0113832,1245,386,3.51072,24.1485
28,638,3.51123,-24.1938,0.00171124,0.00073568,0.000705019,0.00208077,0.000366149,0.482776,0.00128267,0.00933747,1252,386,3.5112,24.1938
35,638,3.50867,-24.2138,0.00161281,0.000993434,0.00069185,0.00206112,0.000545122,0.574961,0.00123321,0.0104598,1259,386,3.50863,24.2138
42,638,3.5105,-24.2399,0.00175698,0.00128991,0.000646144,0.0022105,0.000836395,0.611989,0.00128876,0.00890822,1266,386,3.51055,24.2399
49,638,3.53271,-24.2472,0.0017805,0.00153434,0.000621021,0.00229052,0.00102432,0.68757,0.00132489,0.00833923,1273,386,3.53267,24.2472
56,638,3.52893,-24.2303,0.00188129,0.00180803,0.000525418,0.00237135,0.00131797,0.750596,0.00137194,0.0114408,1280,386,3.52896,24.2303
63,638,3.50269,-24.2195,0.00184439,0.00234831,3.2964e-05,0.00235046,0.00184224,1.50575,0.00142804,0.012796,1287,386,3.50271,24.2194
70,638,3.50269,-24.2238,0.00202589,0.00269607,-0.000240192,0.00277327,0.0019487,-1.25984,0.00164441,0.0166657,1294,386,3.50267,24.2238
77,638,3.52087,-24.1943,0.00274976,0.00322122,-0.000730568,0.00375315,0.00221783,-0.941459,0.00217879,0.0174903,1301,386,3.52082,24.1943
84,638,3.547,-24.1503,0.00317276,0.00349783,-0.0011998,0.00454606,0.00212453,-0.85272,0.00262653,0.012747,1308,386,3.54696,24.1503
91,638,3.53589,-24.1214,0.00346497,0.00367542,-0.00172031,0.00529372,0.00184667,-0.815943,0.00310253,0.0131065,1315,386,3.53588,24.1214
98,638,3.52002,-24.0833,0.00359649,0.0035916,-0.00208749,0.00568154,0.00150655,-0.784812,0.0033987,0.0123931,1322,386,3.51997,24.0833
105,638,3.52502,-24.0154,0.003844,0.00344535,-0.0024005,0.00605344,0.00123591,-0.743977,0.00369324,0.00945697,1329,386,3.52502,24.0154
112,638,3.52625,-23.944,0.00402864,0.00343576,-0.00266804,0.00641666,0.00104774,-0.730071,0.00397482,0.00909424,1336,386,3.5262,23.944
119,638,3.5304,-23.8747,0.00399853,0.0034184,-0.00280244,0.00652588,0.00089105,-0.733829,0.00408608,0.011514,1343,386,3.53039,23.8747
126,638,3.52539,-23.7773,0.00389898,0.00329497,-0.00269459,0.00630843,0.000885519,-0.729591,0.00394373,0.0148075,1350,386,3.52542,23.7774
133,638,3.51367,-23.6732,0.00366241,0.00324609,-0.00238638,0.00584969,0.00105881,-0.741894,0.00359915,0.0146143,1357,386,3.51371,23.6731
140,638,3.49585,-23.5955,0.00338362,0.00317751,-0.00198026,0.0052635,0.00129763,-0.7594,0.00316637,0.0156109,1364,386,3.49583,23.5955
147,638,3.4917,-23.5023,0.00293398,0.00320345,-0.00151484,0.00458954,0.0015479,-0.829753,0.00269615,0.0180271,1371,386,3.49166,23.5024
154,638,3.51282,-23.3935,0.00254354,0.00328905,-0.00108733,0.00406575,0.00176685,-0.95053,0.00235405,0.0165304,1378,386,3.51281,23.3935
161,638,3.51208,-23.2593,0.00204235,0.00346997,-0.000655301,0.00372515,0.00178717,-1.19945,0.00215131,0.0183476,1385,386,3.51208,23.2593
168,638,3.52319,-23.1069,0.00150332,0.00354438,0.000102487,0.00354951,0.00149819,1.52075,0.00205759,0.0237495,1392,386,3.52316,23.1069
175,638,3.53223,-22.9984,0.000758926,0.00362461,0.000349457,0.00366661,0.000716927,1.45119,0.00224394,0.0197931,1399,386,3.53228,22.9984
182,638,3.47778,-22.853,-0.000391275,0.00359936,0.000852239,0.00377374,-0.000565658,1.36896,0.00272403,0.0133802,1406,386,3.47775,22.853
189,638,3.46362,-22.6851,-0.000788757,0.00385933,0.00101685,0.00407205,-0.00100147,1.36458,0.00310287,0.0117505,1413,386,3.46364,22.6851
196,638,3.4502,-22.5154,-0.00116103,0.00361619,0.00112223,0.00386668,-0.00141153,1.35119,0.00315535,0.0140904,1420,386,3.45025,22.5154
203,638,3.42554,-22.3479,-0.00158965,0.00373339,0.00135029,0.00405633,-0.00191259,1.33605,0.00351946,0.0200079,1427,386,3.42555,22.3479
210,638,3.41345,-22.211,-0.00207985,0.00376284,0.00150138,0.00412607,-0.00244308,1.33343,0.00383396,0.0162723,1434,386,3.41349,22.211
217,638,3.42017,-22.0272,-0.00248871,0.00407371,0.00152723,0.00441172,-0.00282672,1.35298,0.00421238,0.0118964,1441,386,3.4202,22.0272
224,638,3.40552,-21.8186,-0.00276279,0.00460425,0.00165095,0.00495731,-0.00311585,1.36012,0.00470128,0.0101108,1448,386,3.40557,21.8186
231,638,3.37732,-21.6065,-0.00283335,0.00507239,0.00186976,0.0054923,-0.00325326,1.34988,0.00510411,0.0107936,1455,386,3.37728,21.6065
238,638,3.37048,-21.3956,-0.00293095,0.00587768,0.00219444,0.00639409,-0.00344736,1.33967,0.00576624,0.0118438,1462,386,3.3705,21.3956
245,638,3.34546,-21.1744,-0.00323027,0.00641879,0.00229196,0.00693553,-0.00374701,1.34905,0.00625847,0.0139307,1469,386,3.34545,21.1744
252,638,3.34692,-20.9555,-0.00322829,0.0071087,0.00252034,0.00769046,-0.00381005,1.34394,0.00676464,0.0168691,1476,386,3.34693,20.9556
259,638,3.33191,-20.7558,-0.00308888,0.00798602,0.00277732,0.00864347,-0.00374634,1.33835,0.00733715,0.0163485,1483,386,3.33193,20.7558
266,638,3.2771,-20.5052,-0.00305701,0.00863237,0.00309265,0.00940016,-0.0038248,1.32745,0.00785835,0.0123322,1490,386,3.27708,20.5051
273,638,3.26636,-20.285,-0.00376447,0.00805157,0.00394773,0.00924912,-0.00496203,1.27627,0.00832833,0.0110088,1497,386,3.2664,20.285
280,638,3.2998,-19.9689,-0.00410732,0.00811296,0.00467746,0.00969778,-0.00569214,1.24411,0.00898514,0.0216497,1504,386,3.29978,19.9689
287,638,3.4668,-19.499,-0.00475155,0.00778231,0.00546231,0.0098287,-0.00679794,1.21234,0.00965241,0.0413041,1511,386,3.46679,19.499
294,638,3.22437,-19.4864,-0.00553718,0.00668685,0.00644874,0.00945982,-0.00831014,1.1647,0.0102666,0.0490199,1518,386,3.22434,19.4864
301,638,2.89368,-19.1801,0,0,0,0,0,0,0,-1,1525,386,2.89367,19.1802
308,638,3.30225,-18.5667,0,0,0,0,0,0,0,-1,1532,386,3.30228,18.5667
315,638,3.5791,-18.7377,0,0,0,0,0,0,0,-1,1539,386,3.57906,18.7377
322,638,3.33752,-19.0318,-0.0118344,-0.00124895,0.0123641,0.00690762,-0.019991,0.987634,0.0161307,0.0439797,1546,386,3.33757,19.0318
329,638,2.90051,-18.1638,0,0,0,0,0,0,0,-1,1553,386,2.90049,18.1638
336,638,2.45764,-17.3206,0,0,0,0,0,0,0,-1,1560,386,2.4576,17.3206
343,638,-0.128174,-12.1073,0,0,0,0,0,0,0,-1,1567,386,-0.128176,12.1073
350,638,2.3783,-11.33,0,0,0,0,0,0,0,-1,1574,386,2.37831,11.33
357,638,0.130371,-3.02618,0,0,0,0,0,0,0,-1,1581,386,0.130345,3.0262
364,638,3.78149,-6.45215,0,0,0,0,0,0,0,-1,1588,386,3.78155,6.45216
371,638,4.18604,-6.71164,0,0,0,0,0,0,0,-1,1595,386,4.18598,6.71164
378,638,4.59045,-6.97113,0,0,0,0,0,0,0,-1,1602,386,4.5904,6.97112
385,638,0,0,0,0,0,0,0,0,0,-1,1609,386,0,0
392,638,0,0,0,0,0,0,0,0,0,-1,1616,386,0,0
399,638,0,0,0,0,0,0,0,0,0,-1,1623,386,0,0
406,638,0,0,0,0,0,0,0,0,0,-1,1630,386,0,0
413,638,0,0,0,0,0,0,0,0,0,-1,1637,386,0,0
420,638,0,0,0,0,0,0,0,0,0,-1,1644,386,0,0
427,638,0,0,0,0,0,0,0,0,0,-1,1651,386,0,0
434,638,0,0,0,0,0,0,0,0,0,-1,1658,386,0,0
441,638,0,0,0,0,0,0,0,0,0,-1,1665,386,0,0
448,638,0,0,0,0,0,0,0,0,0,-1,1672,386,0,0
455,638,0,0,0,0,0,0,0,0,0,-1,1679,386,0,0
462,638,0,0,0,0,0,0,0,0,0,-1,1686,386,0,0
469,638,0,0,0,0,0,0,0,0,0,-1,1693,386,0,0
476,638,0,0,0,0,0,0,0,0,0,-1,1700,386,0,0
483,638,0,0,0,0,0,0,0,0,0,-1,1707,386,0,0
490,638,0,0,0,0,0,0,0,0,0,-1,1714,386,0,0
497,638,0,0,0,0,0,0,0,0,0,-1,1721,386,0,0
504,638,0,0,0,0,0,0,0,0,0,-1,1728,386,0,0
511,638,0,0,0,0,0,0,0,0,0,-1,1735,386,0,0
518,638,0,0,0,0,0,0,0,0,0,-1,1742,386,0,0
525,638,0,0,0,0,0,0,0,0,0,-1,1749,386,0,0
532,638,0,0,0,0,0,0,0,0,0,-1,1756,386,0,0
539,638,0,0,0,0,0,0,0,0,0,-1,1763,386,0,0
546,638,0,0,0,0,0,0,0,0,0,-1,1770,386,0,0
553,638,0,0,0,0,0,0,0,0,0,-1,1777,386,0,0
560,638,0,0,0,0,0,0,0,0,0,-1,1784,386,0,0
567,638,0,0,0,0,0,0,0,0,0,-1,1791,386,0,0
574,638,0,0,0,0,0,0,0,0,0,-1,1798,386,0,0
581,638,0,0,0,0,0,0,0,0,0,-1,1805,386,0,0
588,638,0,0,0,0,0,0,0,0,0,-1,1812,386,0,0
595,638,0,0,0,0,0,0,0,0,0,-1,1819,386,0,0
602,638,0,0,0,0,0,0,0,0,0,-1,1826,386,0,0
609,638,0,0,0,0,0,0,0,0,0,-1,1833,386,0,0
616,638,0,0,0,0,0,0,0,0,0,-1,1840,386,0,0
623,638,0,0,0,0,0,0,0,0,0,-1,1847,386,0,0
630,638,0,0,0,0,0,0,0,0,0,-1,1854,386,0,0
637,638,0,0,0,0,0,0,0,0,0,-1,1861,386,0,0
644,638,0,0,0,0,0,0,0,0,0,-1,1868,386,0,0
651,638,0,0,0,0,0,0,0,0,0,-1,1875,386,0,0
658,638,0,0,0,0,0,0,0,0,0,-1,1882,386,0,0
665,638,0,0,0,0,0,0,0,0,0,-1,1889,386,0,0
672,638,0,0,0,0,0,0,0,0,0,-1,1896,386,0,0
679,638,0,0,0,0,0,0,0,0,0,-1,1903,386,0,0
686,638,0,0,0,0,0,0,0,0,0,-1,1910,386,0,0
693,638,0,0,0,0,0,0,0,0,0,-1,1917,386,0,0
700,638,0,0,0,0,0,0,0,0,0,-1,1924,386,0,0
707,638,0,0,0,0,0,0,0,0,0,-1,1931,386,0,0
714,638,0,0,0,0,0,0,0,0,0,-1,1938,386,0,0
721,638,0,0,0,0,0,0,0,0,0,-1,1945,386,0,0
728,638,0,0,0,0,0,0,0,0,0,-1,1952,386,0,0
735,638,0,0,0,0,0,0,0,0,0,-1,1959,386,0,0
742,638,0,0,0,0,0,0,0,0,0,-1,1966,386,0,0
749,638,0,0,0,0,0,0,0,0,0,-1,1973,386,0,0
756,638,0,0,0,0,0,0,0,0,0,-1,1980,386,0,0
763,638,0,0,0,0,0,0,0,0,0,-1,1987,386,0,0
770,638,0,0,0,0,0,0,0,0,0,-1,1994,386,0,0
777,638,0,0,0,0,0,0,0,0,0,-1,2001,386,0,0
784,638,0,0,0,0,0,0,0,0,0,-1,2008,386,0,0
791,638,0,0,0,0,0,0,0,0,0,-1,2015,386,0,0
798,638,0,0,0,0,0,0,0,0,0,-1,2022,386,0,0
805,638,0,0,0,0,0,0,0,0,0,-1,2029,386,0,0
812,638,0,0,0,0,0,0,0,0,0,-1,2036,386,0,0
-700,631,0,0,0,0,0,0,0,0,0,-1,524,393,0,0
-693,631,0,0,0,0,0,0,0,0,0,-1,531,393,0,0
-686,631,0,0,0,0,0,0,0,0,0,-1,538,393,0,0
-679,631,0,0,0,0,0,0,0,0,0,-1,545,393,0,0
-672,631,0,0,0,0,0,0,0,0,0,-1,552,393,0,0
-665,631,0,0,0,0,0,0,0,0,0,-1,559,393,0,0
-658,631,0,0,0,0,0,0,0,0,0,-1,566,393,0,0
-651,631,0,0,0,0,0,0,0,0,0,-1,573,393,0,0
-644,631,0,0,0,0,0,0,0,0,0,-1,580,393,0,0
-637,631,0,0,0,0,0,0,0,0,0,-1,587,393,0,0
-630,631,0,0,0,0,0,0,0,0,0,-1,594,393,0,0
-623,631,0,0,0,0,0,0,0,0,0,-1,601,393,0,0
-616,631,0,0,0,0,0,0,0,0,0,-1,608,393,0,0
-609,631,0,0,0,0,0,0,0,0,0,-1,615,393,0,0
-602,631,0,0,0,0,0,0,0,0,0,-1,622,393,0,0
-595,631,0,0,0,0,0,0,0,0,0,-1,629,393,0,0
-588,631,0,0,0,0,0,0,0,0,0,-1,636,393,0,0
-581,631,0,0,0,0,0,0,0,0,0,-1,643,393,0,0
-574,631,0,0,0,0,0,0,0,0,0,-1,650,393,0,0
-567,631,0,0,0,0,0,0,0,0,0,-1,657,393,0,0
-560,631,0,0,0,0,0,0,0,0,0,-1,664,393,0,0
-553,631,0,0,0,0,0,0,0,0,0,-1,671,393,0,0
-546,631,0,0,0,0,0,0,0,0,0,-1,678,393,0,0
-539,631,0,0,0,0,0,0,0,0,0,-1,685,393,0,0
-532,631,0,0,0,0,0,0,0,0,0,-1,692,393,0,0
-525,631,0,0,0,0,0,0,0,0,0,-1,699,393,0,0
-518,631,0,0,0,0,0,0,0,0,0,-1,706,393,0,0
-511,631,0,0,0,0,0,0,0,0,0,-1,713,393,0,0
-504,631,0,0,0,0,0,0,0,0,0,-1,720,393,0,0
-497,631,0,0,0,0,0,0,0,0,0,-1,727,393,0,0
-490,631,0,0,0,0,0,0,0,0,0,-1,734,393,0,0
-483,631,0,0,0,0,0,0,0,0,0,-1,741,393,0,0
-476,631,0,0,0,0,0,0,0,0,0,-1,748,393,0,0
-469,631,0,0,0,0,0,0,0,0,0,-1,755,393,0,0
-462,631,0,0,0,0,0,0,0,0,0,-1,762,393,0,0
-455,631,0,0,0,0,0,0,0,0,0,-1,769,393,0,0
-448,631,0,0,0,0,0,0,0,0,0,-1,776,393,0,0
-441,631,0,0,0,0,0,0,0,0,0,-1,783,393,0,0
-434,631,0,0,0,0,0,0,0,0,0,-1,790,393,0,0
-427,631,0,0,0,0,0,0,0,0,0,-1,797,393,0,0
-420,631,0,0,0,0,0,0,0,0,0,-1,804,393,0,0
-413,631,0,0,0,0,0,0,0,0,0,-1,811,393,0,0
-406,631,0,0,0,0,0,0,0,0,0,-1,818,393,0,0
-399,631,0,0,0,0,0,0,0,0,0,-1,825,393,0,0
-392,631,0,0,0,0,0,0,0,0,0,-1,832,393,0,0
-385,631,0,0,0,0,0,0,0,0,0,-1,839,393,0,0
-378,631,0,0,0,0,0,0,0,0,0,-1,846,393,0,0
-371,631,0,0,0,0,0,0,0,0,0,-1,853,393,0,0
-364,631,0,0,0,0,0,0,0,0,0,-1,860,393,0,0
-357,631,0,0,0,0,0,0,0,0,0,-1,867,393,0,0
-350,631,0,0,0,0,0,0,0,0,0,-1,874,393,0,0
-343,631,0,0,0,0,0,0,0,0,0,-1,881,393,0,0
-336,631,0,0,0,0,0,0,0,0,0,-1,888,393,0,0
-329,631,0,0,0,0,0,0,0,0,0,-1,895,393,0,0
-322,631,0,0,0,0,0,0,0,0,0,-1,902,393,0,0
-315,631,0,0,0,0,0,0,0,0,0,-1,909,393,0,0
-308,631,0,0,0,0,0,0,0,0,0,-1,916,393,0,0
-301,631,0,0,0,0,0,0,0,0,0,-1,923,393,0,0
-294,631,0,0,0,0,0,0,0,0,0,-1,930,393,0,0
-287,631,0,0,0,0,0,0,0,0,0,-1,937,393,0,0
-280,631,1.55042,-14.0146,0,0,0,0,0,0,0,-1,944,393,1.55041,14.0146
-273,631,2.41461,-11.6467,0,0,0,0,0,0,0,-1,951,393,2.41461,11.6467
-266,631,1.18927,-15.6338,0,0,0,0,0,0,0,-1,958,393,1.18924,15.6338
-259,631,1.46075,-16.2269,0,0,0,0,0,0,0,-1,965,393,1.46073,16.2269
-252,631,1.83551,-16.9416,0,0,0,0,0,0,0,-1,972,393,1.83554,16.9416
-245,631,2.29022,-17.5462,0,0,0,0,0,0,0,-1,979,393,2.29022,17.5462
-238,631,2.534,-17.8409,0,0,0,0,0,0,0,-1,986,393,2.534,17.8409
-231,631,2.58472,-18.1731,0,0,0,0,0,0,0,-1,993,393,2.58472,18.1731
-224,631,5.24615,-18.3286,0,0,0,0,0,0,0,-1,1000,393,5.24613,18.3286
-217,631,5.05188,-18.3867,0,0,0,0,0,0,0,-1,1007,393,5.0519,18.3866
-210,631,3.94629,-18.0287,0,0,0,0,0,0,0,-1,1014,393,3.94627,18.0286
-203,631,3.79211,-18.6068,0,0,0,0,0,0,0,-1,1021,393,3.79207,18.6068
-196,631,3.77759,-18.705,0,0,0,0,0,0,0,-1,1028,393,3.77753,18.705
-189,631,3.41406,-19.3501,0.00708371,0.00333726,0.00132905,0.0075073,0.00291368,0.308536,0.00437037,0.0477373,1035,393,3.41412,19.3501
-182,631,3.55212,-19.6262,0.00845411,0.000468109,0.00335136,0.00967414,-0.00075192,0.349127,0.00671411,0.0449244,1042,393,3.55211,19.6262
-175,631,3.65686,-19.959,0.00915569,-0.00271709,0.00526077,0.0111513,-0.00471268,0.362566,0.00940716,0.0342159,1049,393,3.65688,19.959
-168,631,3.65649,-20.3243,0.00971393,-0.00482776,0.00679077,0.0123919,-0.00750577,0.375635,0.0116028,0.0182209,1056,393,3.65645,20.3244
-161,631,3.63,-20.5863,0.00996723,-0.00649025,0.00806232,0.0132586,-0.00978163,0.387592,0.0133527,0.00910652,1063,393,3.63003,20.5863
-154,631,3.62183,-20.8334,0.010013,-0.00723911,0.00894321,0.0138123,-0.0110384,0.401724,0.0143774,0.00859084,1070,393,3.62179,20.8334
-147,631,3.61206,-21.0553,0.00980805,-0.00758688,0.00940732,0.0139224,-0.0117013,0.412293,0.0148124,0.0096883,1077,393,3.61205,21.0553
-140,631,3.58972,-21.2683,0.00938521,-0.00729232,0.00950691,0.0136923,-0.0115994,0.425382,0.0146188,0.00914244,1084,393,3.58976,21.2683
-133,631,3.55811,-21.4713,0.00863888,-0.00631888,0.00929671,0.0130916,-0.0107716,0.446669,0.0137991,0.00843467,1091,393,3.5581,21.4713
-126,631,3.55298,-21.6589,0.00758569,-0.00501242,0.00864675,0.0119845,-0.00941123,0.470603,0.0123826,0.0129918,1098,393,3.55293,21.6589
-119,631,3.55371,-21.8406,0.00643879,-0.00339047,0.007609,0.0105823,-0.00753401,0.498656,0.0105087,0.0165156,1105,393,3.5537,21.8406
-112,631,3.54419,-22.0377,0.00523936,-0.00170803,0.00636921,0.00902055,-0.00548921,0.53575,0.00845951,0.0150558,1112,393,3.54421,22.0376
-105,631,3.55273,-22.23,0.00409015,-0.000141191,0.00512298,0.00751714,-0.00356817,0.589577,0.00653407,0.0184248,1119,393,3.55278,22.23
-98,631,3.52405,-22.4049,0.00296167,0.00105077,0.0039258,0.00604661,-0.00203417,0.666031,0.00485337,0.0160698,1126,393,3.52401,22.4049
-91,631,3.47607,-22.5819,0.00168414,0.00226774,0.00230364,0.00429799,-0.000346104,0.848397,0.00298738,0.0174767,1133,393,3.47607,22.5819
-84,631,3.46045,-22.7443,0.000588596,0.00296997,0.00113978,0.00342757,0.000131002,1.18902,0.00224265,0.0170556,1140,393,3.46048,22.7443
-77,631,3.45642,-22.8846,-5.64055e-05,0.00286838,0.000568626,0.00297504,-0.000163066,1.38537,0.00203989,0.0115537,1147,393,3.45643,22.8846
-70,631,3.46216,-23.0143,-0.00031671,0.00255571,0.000119068,0.00256064,-0.000321637,1.52944,0.00182378,0.0118583,1154,393,3.4621,23.0143
-63,631,3.4552,-23.1524,-0.000401131,0.00202377,-0.000119799,0.00202967,-0.000407035,-1.52155,0.00150723,0.0117949,1161,393,3.45523,23.1524
-56,631,3.44275,-23.2798,-0.000119749,0.00157722,-0.000237911,0.00160995,-0.000152473,-1.43411,0.00112756,0.0127581,1168,393,3.44275,23.2797
-49,631,3.43933,-23.4006,0.000187164,0.000923285,-0.000255138,0.00100307,0.000107381,-1.26772,0.000635948,0.0103379,1175,393,3.43939,23.4006
-42,631,3.43616,-23.5117,0.000754607,0.000374634,-0.000159634,0.000812769,0.000316472,-0.349399,0.000473065,0.00872554,1182,393,3.43621,23.5117
-35,631,3.45667,-23.6242,0.00145553,-0.000161097,-0.000111971,0.00146325,-0.000168815,-0.0688244,0.00103636,0.0101934,1189,393,3.45661,23.6242
-28,631,3.46631,-23.7149,0.00206127,-0.000758383,-7.43349e-05,0.00206323,-0.000760341,-0.0263387,0.00168705,0.0130115,1196,393,3.46631,23.7149
-21,631,3.43604,-23.7878,0.00269914,-0.00132851,-4.04816e-05,0.00269955,-0.00132892,-0.0100496,0.00237029,0.0119121,1203,393,3.43599,23.7878
-14,631,3.42493,-23.867,0.00332448,-0.00193327,-4.62163e-06,0.00332448,-0.00193327,-0.000879012,0.00307078,0.0138664,1210,393,3.4249,23.867
-7,631,3.43896,-23.9919,0.0039537,-0.00227043,-0.00011627,0.00395587,-0.0022726,-0.0186718,0.00363952,0.0211985,1217,393,3.43894,23.9919
0,631,3.4624,-24.0621,0.00411453,-0.00230634,-0.000119856,0.00411677,-0.00230858,-0.0186579,0.00375832,0.023083,1224,393,3.46243,24.0621
7,631,3.45337,-24.0768,0.00402802,-0.00235352,3.34959e-05,0.0040282,-0.0023537,0.00524868,0.00372663,0.0168008,1231,393,3.45343,24.0768
14,631,3.44971,-24.1134,0.00388703,-0.00241973,0.000267346,0.00389834,-0.00243104,0.0422894,0.00368685,0.00968986,1238,393,3.44967,24.1134
21,631,3.47168,-24.1628,0.00359916,-0.00225812,0.000482139,0.00363858,-0.00229754,0.0815828,0.00345625,0.0136596,1245,393,3.47164,24.1628
28,631,3.47681,-24.1965,0.00323052,-0.00203864,0.000710773,0.00332472,-0.00213283,0.131756,0.00317587,0.0155851,1252,393,3.47678,24.1965
35,631,3.49658,-24.2143,0.00276899,-0.00171294,0.00103458,0.00299628,-0.00194024,0.216257,0.00287175,0.0141457,1259,393,3.49655,24.2143
42,631,3.5155,-24.2393,0.00283222,-0.00108203,0.00104119,0.00309194,-0.00134175,0.244459,0.00262543,0.0118444,1266,393,3.51553,24.2393
49,631,3.52319,-24.2492,0.00273542,-0.000645457,0.00114888,0.00308887,-0.000998913,0.298463,0.00246076,0.0107317,1273,393,3.52318,24.2492
56,631,3.52063,-24.2508,0.00279087,-0.000196853,0.0010343,0.00311398,-0.000519968,0.302793,0.00226926,0.0124587,1280,393,3.52065,24.2508
63,631,3.50159,-24.2489,0.00273532,0.000381416,0.00072145,0.00293884,0.000177894,0.274956,0.0019027,0.013741,1287,393,3.50154,24.2489
70,631,3.5271,-24.2326,0.00300353,0.000635747,0.000359397,0.00305688,0.000582397,0.147365,0.0018742,0.0136844,1294,393,3.52711,24.2326
77,631,3.55322,-24.1975,0.0036894,0.000933547,-0.000192856,0.00370283,0.000920117,-0.069529,0.00222616,0.0142496,1301,393,3.55321,24.1975
84,631,3.56982,-24.1516,0.00424351,0.000948755,-0.000868243,0.00445831,0.000733957,-0.242525,0.00276027,0.0122944,1308,393,3.56977,24.1516
91,631,3.57654,-24.1146,0.0046641,0.000840772,-0.00156757,0.00522463,0.000280243,-0.34341,0.00339353,0.0148065,1315,393,3.57656,24.1146
98,631,3.58264,-24.0817,0.0047428,0.000445095,-0.00201354,0.00553876,-0.000350866,-0.376451,0.00381484,0.0128295,1322,393,3.58259,24.0817
105,631,3.57458,-24.0254,0.00504941,-0.000168591,-0.00245237,0.00602105,-0.00114023,-0.377231,0.00444315,0.010516,1329,393,3.57454,24.0254
112,631,3.58435,-23.9695,0.00516101,-0.000599273,-0.00282236,0.00631335,-0.00175161,-0.387633,0.0048983,0.0114346,1336,393,3.58434,23.9695
119,631,3.5824,-23.8993,0.00488927,-0.000914575,-0.00297252,0.00614151,-0.00216681,-0.398708,0.00497642,0.0126135,1343,393,3.58241,23.8993
126,631,3.58276,-23.7827,0.00452636,-0.00132258,-0.00287548,0.00570322,-0.00249945,-0.388476,0.00485473,0.0160422,1350,393,3.58276,23.7827
133,631,3.61523,-23.6873,0.00410229,-0.00153751,-0.00259606,0.00511533,-0.00255054,-0.372046,0.00450771,0.0163019,1357,393,3.61524,23.6872
140,631,3.59827,-23.6286,0.00366879,-0.00159102,-0.00228797,0.00452475,-0.00244697,-0.357991,0.00408428,0.0181306,1364,393,3.59829,23.6286
147,631,3.59131,-23.5202,0.00295241,-0.00163111,-0.00174862,0.00354333,-0.00222203,-0.325885,0.00335764,0.0222198,1371,393,3.59133,23.5202
154,631,3.60962,-23.3759,0.00255815,-0.00125522,-0.00144104,0.00304145,-0.00173852,-0.323595,0.00279368,0.0209808,1378,393,3.60965,23.3759
161,631,3.64575,-23.2288,0.00209431,-0.000720883,-0.00109001,0.00246701,-0.00109358,-0.32946,0.00210607,0.0223206,1385,393,3.6457,23.2288
168,631,3.68311,-23.0799,0.00158089,-0.000145404,-0.000651021,0.00179888,-0.000363391,-0.323105,0.00133695,0.0273175,1392,393,3.68314,23.0799
175,631,3.65955,-22.9896,0.00099938,0.000541846,-0.000322006,0.00116561,0.000375617,-0.476548,0.000686994,0.0214064,1399,393,3.65952,22.9895
182,631,3.62427,-22.8711,0.000331553,0.00115976,3.01551e-05,0.00116086,0.000330456,1.53445,0.000690628,0.0117852,1406,393,3.62432,22.8711
189,631,3.62695,-22.6976,-2.38717e-05,0.00180932,0.000344584,0.00187195,-8.65032e-05,1.391,0.00127778,0.0112398,1413,393,3.62701,22.6976
196,631,3.6189,-22.5335,-0.000349551,0.00202966,0.000572439,0.00216022,-0.000480115,1.34655,0.00162402,0.0119489,1420,393,3.61894,22.5335
203,631,3.61707,-22.3833,-0.000645894,0.00240932,0.000797139,0.0026048,-0.000841369,1.33032,0.00207466,0.0137751,1427,393,3.61712,22.3833
210,631,3.60645,-22.2347,-0.00104131,0.00273236,0.00098335,0.00297323,-0.00128218,1.33058,0.0025207,0.0153447,1434,393,3.60649,22.2347
217,631,3.6095,-22.0725,-0.00138963,0.00314094,0.00109923,0.00339356,-0.00164224,1.34491,0.00296545,0.0163273,1441,393,3.60944,22.0725
224,631,3.58887,-21.8641,-0.00161555,0.00356281,0.00127705,0.00386062,-0.00191335,1.34169,0.00339621,0.0133574,1448,393,3.58887,21.8642
231,631,3.5675,-21.633,-0.00167679,0.00395277,0.00151878,0.00433637,-0.00206039,1.3234,0.00377029,0.0110184,1455,393,3.56751,21.633
238,631,3.55945,-21.4044,-0.00176564,0.00461334,0.00182933,0.00510071,-0.00225301,1.31042,0.00435049,0.0164724,1462,393,3.55947,21.4044
245,631,3.55701,-21.2136,-0.0020124,0.00506207,0.00195119,0.00556454,-0.00251487,1.31876,0.00477413,0.0184897,1469,393,3.55701,21.2136
252,631,3.51978,-21.0158,-0.00205169,0.00564756,0.00215763,0.00621098,-0.00261511,1.31537,0.00523482,0.0185176,1476,393,3.51982,21.0158
259,631,3.51318,-20.778,-0.00200314,0.00637052,0.00239141,0.00700535,-0.00263797,1.31132,0.00575476,0.0127687,1483,393,3.5132,20.7779
266,631,3.51843,-20.5352,-0.00205297,0.00687836,0.0026655,0.00761337,-0.00278798,1.30173,0.0062169,0.0109367,1490,393,3.5184,20.5352
273,631,3.49915,-20.2956,-0.00264615,0.00645967,0.00330668,0.00753376,-0.00372024,1.25672,0.00662068,0.0131072,1497,393,3.4991,20.2956
280,631,3.47485,-20.0418,-0.00295151,0.0065437,0.00387151,0.00792214,-0.00432995,1.22875,0.00717437,0.0116978,1504,393,3.4749,20.0418
287,631,3.46289,-19.7907,-0.00345091,0.00636763,0.00445911,0.00809044,-0.00517373,1.2021,0.00771954,0.0136905,1511,393,3.46283,19.7907
294,631,3.43054,-19.4728,-0.00403489,0.00568938,0.00517472,0.00792782,-0.00627333,1.16253,0.00821756,0.0177448,1518,393,3.43057,19.4728
301,631,3.37708,-19.1053,-0.00481303,0.00507389,0.00611684,0.00799513,-0.00773428,1.12525,0.00908179,0.0265344,1525,393,3.37708,19.1053
308,631,3.49219,-18.7399,-0.00586911,0.00395678,0.00705522,0.00764112,-0.00955344,1.08954,0.00994773,0.0324621,1532,393,3.49223,18.7399
315,631,3.62646,-18.6967,-0.00697029,0.00253242,0.00815709,0.00722106,-0.0116589,1.04912,0.0110003,0.0373699,1539,393,3.62641,18.6967
322,631,3.39343,-18.593,-0.0081902,0.00101881,0.00936465,0.00684973,-0.0140211,1.01389,0.0122846,0.0431323,1546,393,3.39341,18.593
329,631,3.02429,-18.2207,0,0,0,0,0,0,0,-1,1553,393,3.0243,18.2207
336,631,3.11658,-17.9638,0,0,0,0,0,0,0,-1,1560,393,3.11652,17.9638
343,631,2.45703,-11.5554,0,0,0,0,0,0,0,-1,1567,393,2.45703,11.5554
350,631,2.1344,-9.23401,0,0,0,0,0,0,0,-1,1574,393,2.13439,9.23401
357,631,2.6449,-9.60303,0,0,0,0,0,0,0,-1,1581,393,2.64491,9.60304
364,631,3.39136,-5.7594,0,0,0,0,0,0,0,-1,1588,393,3.39137,5.75939
371,631,3.72839,-6.0574,0,0,0,0,0,0,0,-1,1595,393,3.72845,6.05742
378,631,4.06555,-6.35544,0,0,0,0,0,0,0,-1,1602,393,4.06553,6.35544
385,631,3.90442,-3.58298,0,0,0,0,0,0,0,-1,1609,393,3.90437,3.58299
392,631,0.352295,-2.21301,0,0,0,0,0,0,0,-1,1616,393,0.352345,2.213
399,631,0,0,0,0,0,0,0,0,0,-1,1623,393,0,0
406,631,0,0,0,0,0,0,0,0,0,-1,1630,393,0,0
413,631,0,0,0,0,0,0,0,0,0,-1,1637,393,0,0
420,631,0,0,0,0,0,0,0,0,0,-1,1644,393,0,0
427,631,0,0,0,0,0,0,0,0,0,-1,1651,393,0,0
434,631,0,0,0,0,0,0,0,0,0,-1,1658,393,0,0
441,631,0,0,0,0,0,0,0,0,0,-1,1665,393,0,0
448,631,0,0,0,0,0,0,0,0,0,-1,1672,393,0,0
455,631,0,0,0,0,0,0,0,0,0,-1,1679,393,0,0
462,631,0,0,0,0,0,0,0,0,0,-1,1686,393,0,0
469,631,0,0,0,0,0,0,0,0,0,-1,1693,393,0,0
476,631,0,0,0,0,0,0,0,0,0,-1,1700,393,0,0
483,631,0,0,0,0,0,0,0,0,0,-1,1707,393,0,0
490,631,0,0,0,0,0,0,0,0,0,-1,1714,393,0,0
497,631,0,0,0,0,0,0,0,0,0,-1,1721,393,0,0
504,631,0,0,0,0,0,0,0,0,0,-1,1728,393,0,0
511,631,0,0,0,0,0,0,0,0,0,-1,1735,393,0,0
518,631,0,0,0,0,0,0,0,0,0,-1,1742,393,0,0
525,631,0,0,0,0,0,0,0,0,0,-1,1749,393,0,0
532,631,0,0,0,0,0,0,0,0,0,-1,1756,393,0,0
539,631,0,0,0,0,0,0,0,0,0,-1,1763,393,0,0
546,631,0,0,0,0,0,0,0,0,0,-1,1770,393,0,0
553,631,0,0,0,0,0,0,0,0,0,-1,1777,393,0,0
560,631,0,0,0,0,0,0,0,0,0,-1,1784,393,0,0
567,631,0,0,0,0,0,0,0,0,0,-1,1791,393,0,0
574,631,0,0,0,0,0,0,0,0,0,-1,1798,393,0,0
581,631,0,0,0,0,0,0,0,0,0,-1,1805,393,0,0
588,631,0,0,0,0,0,0,0,0,0,-1,1812,393,0,0
595,631,0,0,0,0,0,0,0,0,0,-1,1819,393,0,0
602,631,0,0,0,0,0,0,0,0,0,-1,1826,393,0,0
609,631,0,0,0,0,0,0,0,0,0,-1,1833,393,0,0
616,631,0,0,0,0,0,0,0,0,0,-1,1840,393,0,0
623,631,0,0,0,0,0,0,0,0,0,-1,1847,393,0,0
630,631,0,0,0,0,0,0,0,0,0,-1,1854,393,0,0
637,631,0,0,0,0,0,0,0,0,0,-1,1861,393,0,0
644,631,0,0,0,0,0,0,0,0,0,-1,1868,393,0,0
651,631,0,0,0,0,0,0,0,0,0,-1,1875,393,0,0
658,631,0,0,0,0,0,0,0,0,0,-1,1882,393,0,0
665,631,0,0,0,0,0,0,0,0,0,-1,1889,393,0,0
672,631,0,0,0,0,0,0,0,0,0,-1,1896,393,0,0
679,631,0,0,0,0,0,0,0,0,0,-1,1903,393,0,0
686,631,0,0,0,0,0,0,0,0,0,-1,1910,393,0,0
693,631,0,0,0,0,0,0,0,0,0,-1,1917,393,0,0
700,631,0,0,0,0,0,0,0,0,0,-1,1924,393,0,0
707,631,0,0,0,0,0,0,0,0,0,-1,1931,393,0,0
714,631,0,0,0,0,0,0,0,0,0,-1,1938,393,0,0
721,631,0,0,0,0,0,0,0,0,0,-1,1945,393,0,0
728,631,0,0,0,0,0,0,0,0,0,-1,1952,393,0,0
735,631,0,0,0,0,0,0,0,0,0,-1,1959,393,0,0
742,631,0,0,0,0,0,0,0,0,0,-1,1966,393,0,0
749,631,0,0,0,0,0,0,0,0,0,-1,1973,393,0,0
756,631,0,0,0,0,0,0,0,0,0,-1,1980,393,0,0
763,631,0,0,0,0,0,0,0,0,0,-1,1987,393,0,0
770,631,0,0,0,0,0,0,0,0,0,-1,1994,393,0,0
777,631,0,0,0,0,0,0,0,0,0,-1,2001,393,0,0
784,631,0,0,0,0,0,0,0,0,0,-1,2008,393,0,0
791,631,0,0,0,0,0,0,0,0,0,-1,2015,393,0,0
798,631,0,0,0,0,0,0,0,0,0,-1,2022,393,0,0
805,631,0,0,0,0,0,0,0,0,0,-1,2029,393,0,0
812,631,0,0,0,0,0,0,0,0,0,-1,2036,393,0,0
-700,624,0,0,0,0,0,0,0,0,0,-1,524,400,0,0
-693,624,0,0,0,0,0,0,0,0,0,-1,531,400,0,0
-686,624,0,0,0,0,0,0,0,0,0,-1,538,400,0,0
-679,624,0,0,0,0,0,0,0,0,0,-1,545,400,0,0
-672,624,0,0,0,0,0,0,0,0,0,-1,552,400,0,0
-665,624,0,0,0,0,0,0,0,0,0,-1,559,400,0,0
-658,624,0,0,0,0,0,0,0,0,0,-1,566,400,0,0
-651,624,0,0,0,0,0,0,0,0,0,-1,573,400,0,0
-644,624,0,0,0,0,0,0,0,0,0,-1,580,400,0,0
-637,624,0,0,0,0,0,0,0,0,0,-1,587,400,0,0
-630,624,0,0,0,0,0,0,0,0,0,-1,594,400,0,0
-623,624,0,0,0,0,0,0,0,0,0,-1,601,400,0,0
-616,624,0,0,0,0,0,0,0,0,0,-1,608,400,0,0
-609,624,0,0,0,0,0,0,0,0,0,-1,615,400,0,0
-602,624,0,0,0,0,0,0,0,0,0,-1,622,400,0,0
-595,624,0,0,0,0,0,0,0,0,0,-1,629,400,0,0
-588,624,0,0,0,0,0,0,0,0,0,-1,636,400,0,0
-581,624,0,0,0,0,0,0,0,0,0,-1,643,400,0,0
-574,624,0,0,0,0,0,0,0,0,0,-1,650,400,0,0
-567,624,0,0,0,0,0,0,0,0,0,-1,657,400,0,0
-560,624,0,0,0,0,0,0,0,0,0,-1,664,400,0,0
-553,624,0,0,0,0,0,0,0,0,0,-1,671,400,0,0
-546,624,0,0,0,0,0,0,0,0,0,-1,678,400,0,0
-539,624,0,0,0,0,0,0,0,0,0,-1,685,400,0,0
-532,624,0,0,0,0,0,0,0,0,0,-1,692,400,0,0
-525,624,0,0,0,0,0,0,0,0,0,-1,699,400,0,0
-518,624,0,0,0,0,0,0,0,0,0,-1,706,400,0,0
-511,624,0,0,0,0,0,0,0,0,0,-1,713,400,0,0
-504,624,0,0,0,0,0,0,0,0,0,-1,720,400,0,0
-497,624,0,0,0,0,0,0,0,0,0,-1,727,400,0,0
-490,624,0,0,0,0,0,0,0,0,0,-1,734,400,0,0
-483,624,0,0,0,0,0,0,0,0,0,-1,741,400,0,0
-476,624,0,0,0,0,0,0,0,0,0,-1,748,400,0,0
-469,624,0,0,0,0,0,0,0,0,0,-1,755,400,0,0
-462,624,0,0,0,0,0,0,0,0,0,-1,762,400,0,0
-455,624,0,0,0,0,0,0,0,0,0,-1,769,400,0,0
-448,624,0,0,0,0,0,0,0,0,0,-1,776,400,0,0
-441,624,0,0,0,0,0,0,0,0,0,-1,783,400,0,0
-434,624,0,0,0,0,0,0,0,0,0,-1,790,400,0,0
-427,624,0,0,0,0,0,0,0,0,0,-1,797,400,0,0
-420,624,0,0,0,0,0,0,0,0,0,-1,804,400,0,0
-413,624,0,0,0,0,0,0,0,0,0,-1,811,400,0,0
-406,624,0,0,0,0,0,0,0,0,0,-1,818,400,0,0
-399,624,0,0,0,0,0,0,0,0,0,-1,825,400,0,0
-392,624,0,0,0,0,0,0,0,0,0,-1,832,400,0,0
-385,624,0,0,0,0,0,0,0,0,0,-1,839,400,0,0
-378,624,0,0,0,0,0,0,0,0,0,-1,846,400,0,0
-371,624,0,0,0,0,0,0,0,0,0,-1,853,400,0,0
-364,624,0,0,0,0,0,0,0,0,0,-1,860,400,0,0
-357,624,0,0,0,0,0,0,0,0,0,-1,867,400,0,0
-350,624,0,0,0,0,0,0,0,0,0,-1,874,400,0,0
-343,624,0,0,0,0,0,0,0,0,0,-1,881,400,0,0
-336,624,0,0,0,0,0,0,0,0,0,-1,888,400,0,0
-329,624,0,0,0,0,0,0,0,0,0,-1,895,400,0,0
-322,624,0,0,0,0,0,0,0,0,0,-1,902,400,0,0
-315,624,0,0,0,0,0,0,0,0,0,-1,909,400,0,0
-308,624,0,0,0,0,0,0,0,0,0,-1,916,400,0,0
-301,624,0,0,0,0,0,0,0,0,0,-1,923,400,0,0
-294,624,-0.912903,-12.9461,0,0,0,0,0,0,0,-1,930,400,-0.912926,12.9461
-287,624,0.12146,-15.0862,0,0,0,0,0,0,0,-1,937,400,0.121451,15.0862
-280,624,1.51831,-12.2324,0,0,0,0,0,0,0,-1,944,400,1.51834,12.2324
-273,624,2.42194,-10.4277,0,0,0,0,0,0,0,-1,951,400,2.42196,10.4277
-266,624,1.09729,-14.7566,0,0,0,0,0,0,0,-1,958,400,1.09731,14.7566
-259,624,1.5235,-15.5336,0,0,0,0,0,0,0,-1,965,400,1.52352,15.5336
-252,624,2.13629,-16.571,0,0,0,0,0,0,0,-1,972,400,2.13626,16.571
-245,624,3.10236,-18.6902,0,0,0,0,0,0,0,-1,979,400,3.10237,18.6902
-238,624,2.62347,-17.5465,0,0,0,0,0,0,0,-1,986,400,2.62347,17.5465
-231,624,2.60809,-17.6419,0,0,0,0,0,0,0,-1,993,400,2.60809,17.6419
-224,624,3.73438,-18.0777,0,0,0,0,0,0,0,-1,1000,400,3.73437,18.0777
-217,624,3.85492,-18.3699,0,0,0,0,0,0,0,-1,1007,400,3.85494,18.3699
-210,624,3.67328,-18.8419,0,0,0,0,0,0,0,-1,1014,400,3.67328,18.8419
-203,624,3.53186,-18.8474,0.00036023,0.0111338,-0.00538495,0.0133638,-0.00186975,-1.17818,0.00959337,0.0437693,1021,400,3.53183,18.8474
-196,624,3.53845,-19.0321,0.0020542,0.00789724,-0.00308013,0.00922102,0.000730428,-1.16489,0.00591891,0.0380858,1028,400,3.53849,19.0321
-189,624,3.38525,-19.369,0.0040932,0.00538835,-0.00144141,0.00632097,0.00316058,-0.996518,0.00364942,0.0357937,1035,400,3.38521,19.369
-182,624,3.39502,-19.7603,0.0051464,0.00318636,-2.38979e-05,0.0051467,0.00318607,-0.0121901,0.00299939,0.0293752,1042,400,3.39506,19.7603
-175,624,3.50647,-20.0885,0.00568849,0.000628594,0.00139787,0.00604899,0.000268098,0.252391,0.00394633,0.0189034,1049,400,3.50651,20.0885
-168,624,3.4718,-20.3683,0.00614106,-0.00122349,0.00263069,0.00698423,-0.00206666,0.31017,0.0054766,0.0126611,1056,400,3.47174,20.3683
-161,624,3.44519,-20.6111,0.00641961,-0.00277339,0.00371376,0.00773241,-0.00408619,0.339786,0.00693087,0.0103056,1063,400,3.44525,20.6111
-154,624,3.42639,-20.8321,0.00658425,-0.00367703,0.00453369,0.00830035,-0.00539312,0.361854,0.0079651,0.0100182,1070,400,3.42645,20.8321
-147,624,3.41052,-21.0699,0.00655276,-0.00433667,0.00504652,0.00853181,-0.00631572,0.37373,0.00860399,0.0111041,1077,400,3.41054,21.07
-140,624,3.38623,-21.281,0.00635844,-0.00450551,0.00527739,0.00849991,-0.00664699,0.385482,0.00876685,0.00950895,1084,400,3.38621,21.281
-133,624,3.37292,-21.4768,0.00591333,-0.00410188,0.00527572,0.00817961,-0.00636815,0.405732,0.00842083,0.0105788,1091,400,3.37288,21.4769
-126,624,3.35852,-21.6577,0.00521891,-0.00338077,0.00490477,0.00744175,-0.00560361,0.425512,0.00755662,0.0122525,1098,400,3.35847,21.6577
-119,624,3.33655,-21.8564,0.00447311,-0.00230419,0.00419449,0.00647674,-0.00430782,0.445634,0.0062683,0.0145463,1105,400,3.33657,21.8564
-112,624,3.34717,-22.0425,0.00368644,-0.00112879,0.00332876,0.00538702,-0.00282937,0.472309,0.00481973,0.0175527,1112,400,3.34717,22.0425
-105,624,3.38928,-22.2229,0.00294127,1.30859e-05,0.00243637,0.00431962,-0.00136526,0.514846,0.00342672,0.0132004,1119,400,3.38928,22.2229
-98,624,3.35254,-22.4039,0.00222542,0.0008778,0.00157554,0.00326518,-0.000161965,0.583333,0.00223274,0.0135245,1126,400,3.3525,22.4039
-91,624,3.33936,-22.5652,0.0015138,0.00161967,0.000571223,0.00214041,0.000993066,0.831601,0.00123683,0.0189266,1133,400,3.3394,22.5652
-84,624,3.37073,-22.7357,0.00104046,0.00194756,-1.78256e-05,0.00194791,0.00104011,-1.55116,0.00112549,0.0180845,1140,400,3.37077,22.7357
-77,624,3.35132,-22.9032,0.000849133,0.00186733,-0.000313138,0.00195593,0.000760539,-1.29508,0.00113852,0.0136215,1147,400,3.35138,22.9032
-70,624,3.32275,-23.004,0.0010391,0.00148996,-0.000446752,0.00176494,0.000764129,-1.01906,0.00102204,0.0135984,1154,400,3.32274,23.004
-63,624,3.30054,-23.1186,0.00133607,0.00124221,-0.000619816,0.00191073,0.000667552,-0.747613,0.00111972,0.0135613,1161,400,3.30051,23.1186
-56,624,3.31726,-23.2735,0.00163097,0.00124846,-0.000700685,0.00216603,0.000713398,-0.652168,0.0012746,0.011318,1168,400,3.31723,23.2735
-49,624,3.33923,-23.4081,0.00194629,0.0007842,-0.000738729,0.0023051,0.000425387,-0.452156,0.0014164,0.00983308,1175,400,3.33924,23.408
-42,624,3.3335,-23.5094,0.00306395,0.000373199,-0.000768656,0.00326805,0.000169102,-0.259537,0.00212458,0.00957366,1182,400,3.33353,23.5094
-35,624,3.34045,-23.6149,0.00427208,-0.000166345,-0.000849582,0.00442915,-0.00032341,-0.182809,0.00306626,0.0141719,1189,400,3.34044,23.6149
-28,624,3.31372,-23.7268,0.00503435,-0.000679417,-0.000828353,0.00515201,-0.000797085,-0.141106,0.00372888,0.0193175,1196,400,3.31369,23.7268
-21,624,3.32324,-23.8055,0.00575751,-0.00115577,-0.000774172,0.00584314,-0.0012414,-0.110165,0.00436843,0.0145138,1203,400,3.3233,23.8055
-14,624,3.37573,-23.8788,0.00641153,-0.00171907,-0.000709712,0.00647302,-0.00178055,-0.086418,0.00501535,0.0151608,1210,400,3.37579,23.8787
-7,624,3.34436,-23.9274,0.00701531,-0.00199482,-0.000803529,0.00708641,-0.00206592,-0.0882526,0.00554277,0.018709,1217,400,3.3444,23.9274
0,624,3.40112,-24.0037,0.00689726,-0.00200233,-0.000625583,0.00694102,-0.00204609,-0.0698358,0.0054392,0.0192867,1224,400,3.40109,24.0037
7,624,3.39575,-24.0757,0.00641994,-0.00215686,-0.000193875,0.00642432,-0.00216123,-0.0225892,0.00515654,0.0139451,1231,400,3.39581,24.0757
14,624,3.41492,-24.1542,0.00589096,-0.0024603,0.000282007,0.00590047,-0.00246981,0.033717,0.00496605,0.0117914,1238,400,3.41496,24.1542
21,624,3.44092,-24.1816,0.0052414,-0.00250872,0.000713966,0.00530662,-0.00257394,0.0911016,0.00464013,0.0137018,1245,400,3.44092,24.1816
28,624,3.45056,-24.1987,0.00438423,-0.002509,0.0011915,0.00458437,-0.00270914,0.16642,0.00425706,0.0122924,1252,400,3.4506,24.1987
35,624,3.46204,-24.215,0.00346695,-0.0023961,0.0017515,0.00395033,-0.00287948,0.269279,0.00395932,0.0155434,1259,400,3.46198,24.215
42,624,3.49597,-24.2482,0.00347579,-0.00187583,0.00171823,0.00397997,-0.00238,0.285413,0.00371046,0.0179916,1266,400,3.49594,24.2482
49,624,3.52271,-24.2516,0.00325311,-0.00155486,0.00175542,0.0038258,-0.00212756,0.315358,0.00348348,0.0184224,1273,400,3.52274,24.2516
56,624,3.5282,-24.2644,0.00329382,-0.00106477,0.00137269,0.0036901,-0.00146106,0.28105,0.00306543,0.0174819,1280,400,3.52823,24.2644
63,624,3.54248,-24.2472,0.00336733,-0.000469093,0.000908166,0.00357145,-0.000673215,0.221089,0.00263421,0.0138066,1287,400,3.54251,24.2472
70,624,3.56677,-24.245,0.00383663,-0.000327536,0.00025583,0.00385229,-0.000343194,0.0611297,0.0026899,0.0125477,1294,400,3.56671,24.245
77,624,3.57837,-24.2094,0.00463883,-0.000169351,-0.000633417,0.00472087,-0.000251395,-0.12881,0.0032343,0.013267,1301,400,3.57841,24.2094
84,624,3.60266,-24.1651,0.00555338,-0.000417568,-0.0016787,0.00599297,-0.00085716,-0.256114,0.00430954,0.0119339,1308,400,3.60271,24.1651
91,624,3.61646,-24.1166,0.00630416,-0.000808706,-0.00268829,0.00720588,-0.00171043,-0.323632,0.00546404,0.0122685,1315,400,3.61644,24.1166
98,624,3.62866,-24.0794,0.00651518,-0.00157051,-0.00331175,0.00769845,-0.00275378,-0.343158,0.00625564,0.0120872,1322,400,3.62865,24.0794
105,624,3.63184,-24.0562,0.00698296,-0.00263502,-0.00395927,0.00840311,-0.00405517,-0.344396,0.00733736,0.0131338,1329,400,3.63181,24.0562
112,624,3.65369,-24.0016,0.00714834,-0.00352049,-0.00447287,0.00877543,-0.00514758,-0.348888,0.0081289,0.0139877,1336,400,3.65374,24.0016
119,624,3.68079,-23.9384,0.0067644,-0.00423634,-0.00460885,0.00844007,-0.00591201,-0.348719,0.00832892,0.0142519,1343,400,3.68077,23.9384
126,624,3.70142,-23.7927,0.006239,-0.00512566,-0.0044268,0.00775983,-0.00664649,-0.330916,0.00832576,0.0165692,1350,400,3.70139,23.7927
133,624,3.71863,-23.6922,0.00575108,-0.00572815,-0.0040479,0.00703491,-0.00701197,-0.307123,0.00810997,0.0178741,1357,400,3.71864,23.6922
140,624,3.70081,-23.607,0.00526715,-0.006024,-0.00367928,0.00636024,-0.00711709,-0.288788,0.00778523,0.0175821,1364,400,3.70079,23.607
147,624,3.6803,-23.4749,0.00428632,-0.006368,-0.0028662,0.00500843,-0.00709012,-0.246805,0.00701948,0.0217951,1371,400,3.68027,23.4749
154,624,3.73108,-23.3634,0.00396658,-0.00593771,-0.00251738,0.0045697,-0.00654083,-0.235149,0.00644823,0.0233697,1378,400,3.73105,23.3634
161,624,3.76929,-23.2477,0.00357428,-0.0051853,-0.0021285,0.0040641,-0.00567512,-0.226186,0.00564852,0.0221538,1385,400,3.76924,23.2477
168,624,3.78381,-23.118,0.00290636,-0.00423985,-0.00175175,0.00331266,-0.00464615,-0.227913,0.00461647,0.0223701,1392,400,3.78378,23.1179
175,624,3.78918,-23.0186,0.00224697,-0.00290523,-0.00132447,0.00256751,-0.00322577,-0.237447,0.00335194,0.0170811,1399,400,3.78917,23.0186
182,624,3.7843,-22.8862,0.00181647,-0.00170908,-0.000904836,0.00203513,-0.00192775,-0.237116,0.00228825,0.0107573,1406,400,3.78424,22.8862
189,624,3.78442,-22.7287,0.00115581,-0.000503572,-0.000402295,0.00124819,-0.000595959,-0.225737,0.00108669,0.0108689,1413,400,3.78447,22.7287
196,624,3.77148,-22.5684,0.000579332,0.000274038,4.14227e-05,0.000584853,0.000268518,0.132491,0.000338041,0.0115981,1420,400,3.77143,22.5684
203,624,3.78125,-22.3936,0.000311316,0.00111878,0.000256322,0.00119328,0.000236822,1.28796,0.000729504,0.0144774,1427,400,3.78127,22.3936
210,624,3.79578,-22.2335,-4.9944e-05,0.00178795,0.000476954,0.00190435,-0.000166347,1.33142,0.00132849,0.0177904,1434,400,3.79576,22.2335
217,624,3.78772,-22.0526,-0.000399097,0.00236755,0.000680812,0.00252601,-0.000557555,1.34212,0.00189736,0.0207415,1441,400,3.78774,22.0526
224,624,3.75427,-21.8457,-0.000615655,0.00274254,0.000910788,0.00297366,-0.000846767,1.32229,0.00231686,0.0166105,1448,400,3.75432,21.8457
231,624,3.75647,-21.6549,-0.000700743,0.00311245,0.00117585,0.00344589,-0.00103418,1.29448,0.00270861,0.0118056,1455,400,3.75643,21.6549
238,624,3.75793,-21.4505,-0.000795304,0.00366922,0.00147426,0.00411211,-0.0012382,1.27896,0.00323413,0.016843,1462,400,3.75795,21.4505
245,624,3.75146,-21.253,-0.000998316,0.00406978,0.00161626,0.00454134,-0.00146988,1.28691,0.00361845,0.0181987,1469,400,3.75142,21.253
252,624,3.73462,-21.0385,-0.00107524,0.00457623,0.00179991,0.00510078,-0.0015998,1.28722,0.00404077,0.0136231,1476,400,3.73458,21.0385
259,624,3.73376,-20.7908,-0.00110832,0.00516991,0.0020087,0.00575758,-0.00169599,1.28618,0.00451126,0.00898348,1483,400,3.73373,20.7908
266,624,3.76172,-20.5411,-0.00121966,0.00557947,0.00224153,0.00625195,-0.00189213,1.27933,0.00492145,0.0122297,1490,400,3.76173,20.5411
273,624,3.73047,-20.307,-0.00171432,0.00530899,0.00271204,0.00623433,-0.00263965,1.24199,0.00526165,0.0149626,1497,400,3.73045,20.307
280,624,3.70801,-20.0649,-0.00200106,0.00540872,0.00315088,0.0065674,-0.00315974,1.21841,0.00572969,0.0136268,1504,400,3.70797,20.0649
287,624,3.69055,-19.8214,-0.00240691,0.00533187,0.00359902,0.0067469,-0.00382194,1.19619,0.00617932,0.0109996,1511,400,3.69056,19.8214
294,624,3.65747,-19.5666,-0.00286289,0.00492366,0.00412679,0.00670383,-0.00464306,1.16354,0.00658705,0.00941397,1518,400,3.65741,19.5666
301,624,3.62793,-19.2867,-0.00343368,0.00453758,0.00480259,0.00679296,-0.00568905,1.13175,0.00721588,0.0104896,1525,400,3.62791,19.2867
308,624,3.63794,-18.9813,-0.00415455,0.00387653,0.00548926,0.00666221,-0.00694023,1.10118,0.00785392,0.0140174,1532,400,3.63798,18.9813
315,624,3.63525,-18.7023,-0.00489583,0.00303508,0.0062583,0.00647848,-0.00833923,1.06779,0.00857747,0.0172967,1539,400,3.63529,18.7023
322,624,3.61768,-18.4491,-0.00567536,0.00219396,0.00707862,0.00635797,-0.00983937,1.03906,0.00942326,0.0275748,1546,400,3.61767,18.4491
329,624,3.63159,-18.1456,-0.00652738,0.0013776,0.00778253,0.0061538,-0.0113036,1.02036,0.0102242,0.042448,1553,400,3.63157,18.1456
336,624,3.50879,-17.8102,-0.0074524,0.000800827,0.00834383,0.00598273,-0.0126343,1.01505,0.0109748,0.0446977,1560,400,3.50884,17.8102
343,624,3.58875,-17.2297,0,0,0,0,0,0,0,-1,1567,400,3.58877,17.2297
350,624,1.99194,-7.29742,0,0,0,0,0,0,0,-1,1574,400,1.99198,7.29741
357,624,2.64075,-3.13092,0,0,0,0,0,0,0,-1,1581,400,2.64076,3.13091
364,624,3.16565,-4.9458,0,0,0,0,0,0,0,-1,1588,400,3.16564,4.94579
371,624,3.37561,-5.23529,0,0,0,0,0,0,0,-1,1595,400,3.37563,5.23529
378,624,1.50439,-5.22165,0,0,0,0,0,0,0,-1,1602,400,1.50438,5.22164
385,624,1.2301,-10.5866,0,0,0,0,0,0,0,-1,1609,400,1.2301,10.5866
392,624,4.26819,-5.14236,0,0,0,0,0,0,0,-1,1616,400,4.26818,5.14236
399,624,3.86841,-2.36917,0,0,0,0,0,0,0,-1,1623,400,3.86838,2.36916
406,624,4.35376,-2.6962,0,0,0,0,0,0,0,-1,1630,400,4.35373,2.69619
413,624,0,0,0,0,0,0,0,0,0,-1,1637,400,0,0
420,624,0,0,0,0,0,0,0,0,0,-1,1644,400,0,0
427,624,0,0,0,0,0,0,0,0,0,-1,1651,400,0,0
434,624,0,0,0,0,0,0,0,0,0,-1,1658,400,0,0
441,624,0,0,0,0,0,0,0,0,0,-1,1665,400,0,0
448,624,0,0,0,0,0,0,0,0,0,-1,1672,400,0,0
455,624,0,0,0,0,0,0,0,0,0,-1,1679,400,0,0
462,624,0,0,0,0,0,0,0,0,0,-1,1686,400,0,0
469,624,0,0,0,0,0,0,0,0,0,-1,1693,400,0,0
476,624,0,0,0,0,0,0,0,0,0,-1,1700,400,0,0
483,624,0,0,0,0,0,0,0,0,0,-1,1707,400,0,0
490,624,0,0,0,0,0,0,0,0,0,-1,1714,400,0,0
497,624,0,0,0,0,0,0,0,0,0,-1,1721,400,0,0
504,624,0,0,0,0,0,0,0,0,0,-1,1728,400,0,0
511,624,0,0,0,0,0,0,0,0,0,-1,1735,400,0,0
518,624,0,0,0,0,0,0,0,0,0,-1,1742,400,0,0
525,624,0,0,0,0,0,0,0,0,0,-1,1749,400,0,0
532,624,0,0,0,0,0,0,0,0,0,-1,1756,400,0,0
539,624,0,0,0,0,0,0,0,0,0,-1,1763,400,0,0
546,624,0,0,0,0,0,0,0,0,0,-1,1770,400,0,0
553,624,0,0,0,0,0,0,0,0,0,-1,1777,400,0,0
560,624,0,0,0,0,0,0,0,0,0,-1,1784,400,0,0
567,624,0,0,0,0,0,0,0,0,0,-1,1791,400,0,0
574,624,0,0,0,0,0,0,0,0,0,-1,1798,400,0,0
581,624,0,0,0,0,0,0,0,0,0,-1,1805,400,0,0
588,624,0,0,0,0,0,0,0,0,0,-1,1812,400,0,0
595,624,0,0,0,0,0,0,0,0,0,-1,1819,400,0,0
602,624,0,0,0,0,0,0,0,0,0,-1,1826,400,0,0
609,624,0,0,0,0,0,0,0,0,0,-1,1833,400,0,0
616,624,0,0,0,0,0,0,0,0,0,-1,1840,400,0,0
623,624,0,0,0,0,0,0,0,0,0,-1,1847,400,0,0
630,624,0,0,0,0,0,0,0,0,0,-1,1854,400,0,0
637,624,0,0,0,0,0,0,0,0,0,-1,1861,400,0,0
644,624,0,0,0,0,0,0,0,0,0,-1,1868,400,0,0
651,624,0,0,0,0,0,0,0,0,0,-1,1875,400,0,0
658,624,0,0,0,0,0,0,0,0,0,-1,1882,400,0,0
665,624,0,0,0,0,0,0,0,0,0,-1,1889,400,0,0
672,624,0,0,0,0,0,0,0,0,0,-1,1896,400,0,0
679,624,0,0,0,0,0,0,0,0,0,-1,1903,400,0,0
686,624,0,0,0,0,0,0,0,0,0,-1,1910,400,0,0
693,624,0,0,0,0,0,0,0,0,0,-1,1917,400,0,0
700,624,0,0,0,0,0,0,0,0,0,-1,1924,400,0,0
707,624,0,0,0,0,0,0,0,0,0,-1,1931,400,0,0
714,624,0,0,0,0,0,0,0,0,0,-1,1938,400,0,0
721,624,0,0,0,0,0,0,0,0,0,-1,1945,400,0,0
728,624,0,0,0,0,0,0,0,0,0,-1,1952,400,0,0
735,624,0,0,0,0,0,0,0,0,0,-1,1959,400,0,0
742,624,0,0,0,0,0,0,0,0,0,-1,1966,400,0,0
749,624,0,0,0,0,0,0,0,0,0,-1,1973,400,0,0
756,624,0,0,0,0,0,0,0,0,0,-1,1980,400,0,0
763,624,0,0,0,0,0,0,0,0,0,-1,1987,400,0,0
770,624,0,0,0,0,0,0,0,0,0,-1,1994,400,0,0
777,624,0,0,0,0,0,0,0,0,0,-1,2001,400,0,0
784,624,0,0,0,0,0,0,0,0,0,-1,2008,400,0,0
791,624,0,0,0,0,0,0,0,0,0,-1,2015,400,0,0
798,624,0,0,0,0,0,0,0,0,0,-1,2022,400,0,0
805,624,0,0,0,0,0,0,0,0,0,-1,2029,400,0,0
812,624,0,0,0,0,0,0,0,0,0,-1,2036,400,0,0
-700,617,0,0,0,0,0,0,0,0,0,-1,524,407,0,0
-693,617,0,0,0,0,0,0,0,0,0,-1,531,407,0,0
-686,617,0,0,0,0,0,0,0,0,0,-1,538,407,0,0
-679,617,0,0,0,0,0,0,0,0,0,-1,545,407,0,0
-672,617,0,0,0,0,0,0,0,0,0,-1,552,407,0,0
-665,617,0,0,0,0,0,0,0,0,0,-1,559,407,0,0
-658,617,0,0,0,0,0,0,0,0,0,-1,566,407,0,0
-651,617,0,0,0,0,0,0,0,0,0,-1,573,407,0,0
-644,617,0,0,0,0,0,0,0,0,0,-1,580,407,0,0
-637,617,0,0,0,0,0,0,0,0,0,-1,587,407,0,0
-630,617,0,0,0,0,0,0,0,0,0,-1,594,407,0,0
-623,617,0,0,0,0,0,0,0,0,0,-1,601,407,0,0
-616,617,0,0,0,0,0,0,0,0,0,-1,608,407,0,0
-609,617,0,0,0,0,0,0,0,0,0,-1,615,407,0,0
-602,617,0,0,0,0,0,0,0,0,0,-1,622,407,0,0
-595,617,0,0,0,0,0,0,0,0,0,-1,629,407,0,0
-588,617,0,0,0,0,0,0,0,0,0,-1,636,407,0,0
-581,617,0,0,0,0,0,0,0,0,0,-1,643,407,0,0
-574,617,0,0,0,0,0,0,0,0,0,-1,650,407,0,0
-567,617,0,0,0,0,0,0,0,0,0,-1,657,407,0,0
-560,617,0,0,0,0,0,0,0,0,0,-1,664,407,0,0
-553,617,0,0,0,0,0,0,0,0,0,-1,671,407,0,0
-546,617,0,0,0,0,0,0,0,0,0,-1,678,407,0,0
-539,617,0,0,0,0,0,0,0,0,0,-1,685,407,0,0
-532,617,0,0,0,0,0,0,0,0,0,-1,692,407,0,0
-525,617,0,0,0,0,0,0,0,0,0,-1,699,407,0,0
-518,617,0,0,0,0,0,0,0,0,0,-1,706,407,0,0
-511,617,0,0,0,0,0,0,0,0,0,-1,713,407,0,0
-504,617,0,0,0,0,0,0,0,0,0,-1,720,407,0,0
-497,617,0,0,0,0,0,0,0,0,0,-1,727,407,0,0
-490,617,0,0,0,0,0,0,0,0,0,-1,734,407,0,0
-483,617,0,0,0,0,0,0,0,0,0,-1,741,407,0,0
-476,617,0,0,0,0,0,0,0,0,0,-1,748,407,0,0
-469,617,0,0,0,0,0,0,0,0,0,-1,755,407,0,0
-462,617,0,0,0,0,0,0,0,0,0,-1,762,407,0,0
-455,617,0,0,0,0,0,0,0,0,0,-1,769,407,0,0
-448,617,0,0,0,0,0,0,0,0,0,-1,776,407,0,0
-441,617,0,0,0,0,0,0,0,0,0,-1,783,407,0,0
-434,617,0,0,0,0,0,0,0,0,0,-1,790,407,0,0
-427,617,0,0,0,0,0,0,0,0,0,-1,797,407,0,0
-420,617,0,0,0,0,0,0,0,0,0,-1,804,407,0,0
-413,617,0,0,0,0,0,0,0,0,0,-1,811,407,0,0
-406,617,0,0,0,0,0,0,0,0,0,-1,818,407,0,0
-399,617,0,0,0,0,0,0,0,0,0,-1,825,407,0,0
-392,617,0,0,0,0,0,0,0,0,0,-1,832,407,0,0
-385,617,0,0,0,0,0,0,0,0,0,-1,839,407,0,0
-378,617,0,0,0,0,0,0,0,0,0,-1,846,407,0,0
-371,617,0,0,0,0,0,0,0,0,0,-1,853,407,0,0
-364,617,0,0,0,0,0,0,0,0,0,-1,860,407,0,0
-357,617,0,0,0,0,0,0,0,0,0,-1,867,407,0,0
-350,617,0,0,0,0,0,0,0,0,0,-1,874,407,0,0
-343,617,0,0,0,0,0,0,0,0,0,-1,881,407,0,0
-336,617,0,0,0,0,0,0,0,0,0,-1,888,407,0,0
-329,617,0,0,0,0,0,0,0,0,0,-1,895,407,0,0
-322,617,0,0,0,0,0,0,0,0,0,-1,902,407,0,0
-315,617,0,0,0,0,0,0,0,0,0,-1,909,407,0,0
-308,617,0,0,0,0,0,0,0,0,0,-1,916,407,0,0
-301,617,3.0321,-13.8866,0,0,0,0,0,0,0,-1,923,407,3.03209,13.8866
-294,617,-0.867493,-11.1655,0,0,0,0,0,0,0,-1,930,407,-0.867487,11.1655
-287,617,-0.212524,-10.7744,0,0,0,0,0,0,0,-1,937,407,-0.212541,10.7743
-280,617,2.19739,-11.6377,0,0,0,0,0,0,0,-1,944,407,2.19737,11.6377
-273,617,2.42114,-9.26978,0,0,0,0,0,0,0,-1,951,407,2.42112,9.26979
-266,617,1.62323,-14.1301,0,0,0,0,0,0,0,-1,958,407,1.62322,14.1301
-259,617,2.11719,-14.8356,0,0,0,0,0,0,0,-1,965,407,2.11717,14.8356
-252,617,2.6358,-17.8688,0,0,0,0,0,0,0,-1,972,407,2.63582,17.8688
-245,617,3.61279,-18.3194,0,0,0,0,0,0,0,-1,979,407,3.61276,18.3194
-238,617,2.6134,-18.2661,0,0,0,0,0,0,0,-1,986,407,2.61342,18.2661
-231,617,3.27887,-17.5673,0,0,0,0,0,0,0,-1,993,407,3.27885,17.5673
-224,617,3.41315,-18.1264,-0.00343296,0.00831758,-0.00401326,0.00955744,-0.00467282,-1.27116,0.00837563,0.0463169,1000,407,3.41318,18.1264
-217,617,3.47528,-18.4469,-0.00193919,0.00949569,-0.00395749,0.0107317,-0.00317522,-1.26807,0.008415,0.038302,1007,407,3.4753,18.4469
-210,617,3.38519,-18.8757,-0.000856345,0.00974695,-0.00388055,0.0110154,-0.00212479,-1.25487,0.00814478,0.0275884,1014,407,3.38522,18.8757
-203,617,3.32764,-19.153,-0.000234819,0.0089424,-0.00413307,0.0105294,-0.00182178,-1.20419,0.00769902,0.0206317,1021,407,3.32759,19.153
-196,617,3.29199,-19.3663,0.000864291,0.00721085,-0.00317715,0.008528,-0.00045286,-1.17779,0.00584214,0.014946,1028,407,3.29195,19.3663
-189,617,3.25964,-19.6174,0.00230376,0.00575909,-0.00248469,0.00705773,0.00100512,-1.08919,0.00440847,0.012992,1035,407,3.25968,19.6174
-182,617,3.25378,-19.8824,0.0030922,0.0042117,-0.00156293,0.00531209,0.00199181,-0.957354,0.00309874,0.0145377,1042,407,3.25377,19.8824
-175,617,3.26111,-20.1232,0.00347046,0.00228309,-0.00066119,0.00376539,0.00198816,-0.419571,0.00217508,0.0128722,1049,407,3.26112,20.1232
-168,617,3.24316,-20.3925,0.00379506,0.000735584,0.000193481,0.00380724,0.000723397,0.062906,0.00233469,0.00973007,1056,407,3.24322,20.3925
-161,617,3.22461,-20.6452,0.00406613,-0.000618043,0.000989743,0.00426667,-0.000818585,0.199914,0.00315293,0.0106634,1063,407,3.22458,20.6452
-154,617,3.19824,-20.8562,0.00425938,-0.00148228,0.00164173,0.00469566,-0.00191856,0.259739,0.00392932,0.0114346,1070,407,3.19824,20.8562
-147,617,3.20154,-21.0602,0.00430105,-0.00223305,0.00207927,0.00490659,-0.00283859,0.283391,0.0045245,0.0151794,1077,407,3.20153,21.0602
-140,617,3.20117,-21.2935,0.00422388,-0.00264427,0.00231358,0.00493052,-0.0033509,0.296432,0.00481019,0.011396,1084,407,3.20118,21.2934
-133,617,3.18628,-21.484,0.00397829,-0.00263181,0.00239069,0.0047523,-0.00340582,0.313111,0.00473143,0.0132593,1091,407,3.18631,21.484
-126,617,3.16931,-21.6488,0.00356539,-0.00236939,0.00218432,0.00428265,-0.00308665,0.317275,0.0042733,0.0126047,1098,407,3.16934,21.6488
-119,617,3.14893,-21.8623,0.00316544,-0.00175536,0.0016986,0.00369482,-0.00228475,0.302119,0.00348416,0.0130218,1105,407,3.14889,21.8623
-112,617,3.17065,-22.0383,0.00275587,-0.0010569,0.00112305,0.00306208,-0.00136311,0.266183,0.0026169,0.0147846,1112,407,3.17069,22.0383
-105,617,3.21252,-22.1961,0.00239638,-0.000348799,0.00051693,0.0024905,-0.000442913,0.18009,0.00182596,0.0155112,1119,407,3.2125,22.1961
-98,617,3.18665,-22.4033,0.00208178,0.000169238,-7.67011e-05,0.00208486,0.000166167,-0.0400185,0.00133796,0.0126252,1126,407,3.18667,22.4033
-91,617,3.17725,-22.5549,0.00189246,0.000540075,-0.000645579,0.00215115,0.000281383,-0.381121,0.00135012,0.0176415,1133,407,3.17724,22.5549
-84,617,3.18762,-22.7437,0.00194332,0.000668873,-0.000880598,0.00239307,0.000219126,-0.472194,0.00152759,0.0173098,1140,407,3.18758,22.7437
-77,617,3.18896,-22.9091,0.00213384,0.000671996,-0.00095575,0.00260612,0.000199711,-0.458957,0.00167482,0.013227,1147,407,3.18891,22.9091
-70,617,3.18384,-23.0189,0.00267357,0.000318044,-0.000880534,0.00296634,2.52748e-05,-0.320992,0.00196919,0.0140753,1154,407,3.18378,23.0189
-63,617,3.1803,-23.1289,0.00324302,0.00104255,-0.00126878,0.00382217,0.000463403,-0.428213,0.00240855,0.015189,1161,407,3.18031,23.1289
-56,617,3.20923,-23.2723,0.00355076,0.00256409,-0.00165271,0.00478219,0.00133265,-0.640358,0.00284974,0.0116139,1168,407,3.20925,23.2723
-49,617,3.22168,-23.4081,0.00387871,0.00278864,-0.0019266,0.00533588,0.00133146,-0.64755,0.00320693,0.00977803,1175,407,3.22167,23.4081
-42,617,3.22949,-23.5389,0.00567028,0.0029299,-0.00227392,0.00695492,0.00164525,-0.514245,0.0041971,0.0110328,1182,407,3.22953,23.5389
-35,617,3.24524,-23.6401,0.00747148,0.0026129,-0.00257311,0.00858088,0.0015035,-0.40707,0.00529111,0.0155549,1189,407,3.24521,23.6401
-28,617,3.21655,-23.7341,0.00827977,0.00231961,-0.00257669,0.00923926,0.00136012,-0.356466,0.00575991,0.0189612,1196,407,3.2165,23.7341
-21,617,3.25232,-23.8087,0.00898372,0.00196242,-0.0024808,0.0097718,0.00117434,-0.307588,0.00616051,0.0141379,1203,407,3.25227,23.8087
-14,617,3.28613,-23.8657,0.00956965,0.00136815,-0.00234371,0.0101922,0.000745645,-0.259612,0.00656036,0.0150914,1210,407,3.28619,23.8657
-7,617,3.27856,-23.9081,0.0100646,0.000980329,-0.00235658,0.0106396,0.000405389,-0.239297,0.00696185,0.0175355,1217,407,3.2786,23.9081
0,617,3.33032,-23.9631,0.00955962,0.00073642,-0.00187763,0.00994257,0.000353469,-0.201195,0.00651375,0.0155013,1224,407,3.33036,23.9631
7,617,3.36792,-24.0729,0.00860955,0.000222646,-0.00106044,0.00874156,9.06414e-05,-0.123844,0.00579773,0.0112112,1231,407,3.36792,24.0729
14,617,3.37036,-24.1303,0.00768961,-0.000551134,-0.000223187,0.00769565,-0.000557174,-0.0270569,0.00532588,0.0130098,1238,407,3.37031,24.1303
21,617,3.39612,-24.1598,0.0066526,-0.00102037,0.000535227,0.00668975,-0.00105752,0.0693075,0.00485092,0.0125758,1245,407,3.39614,24.1598
28,617,3.4408,-24.2101,0.00533379,-0.00139034,0.00135412,0.00559624,-0.00165279,0.191444,0.0043868,0.0109024,1252,407,3.44083,24.2101
35,617,3.44141,-24.2426,0.0040025,-0.00157663,0.00224249,0.0047921,-0.00236623,0.338553,0.00421123,0.0132603,1259,407,3.44145,24.2427
42,617,3.50098,-24.2366,0.0040282,-0.00128182,0.00227065,0.00486675,-0.00212037,0.353762,0.00413658,0.0200398,1266,407,3.50104,24.2366
49,617,3.54285,-24.2351,0.00372696,-0.00108097,0.00229271,0.00464498,-0.00199899,0.380858,0.00393599,0.0191658,1273,407,3.54287,24.2351
56,617,3.54626,-24.243,0.00381232,-0.0004446,0.00160677,0.00435071,-0.000982986,0.323315,0.00327764,0.0130918,1280,407,3.54623,24.243
63,617,3.56274,-24.2505,0.00400435,0.000313909,0.000867246,0.00419799,0.000120269,0.219679,0.00275945,0.00991343,1287,407,3.56278,24.2506
70,617,3.56042,-24.2357,0.00474654,0.000420843,-0.000142689,0.00475124,0.000416142,-0.0329386,0.0030383,0.0152072,1294,407,3.56048,24.2356
77,617,3.61011,-24.1966,0.00597476,0.000552975,-0.00151426,0.00636901,0.000158726,-0.254704,0.0041941,0.0137757,1301,407,3.61006,24.1966
84,617,3.65454,-24.1725,0.00739902,5.2794e-05,-0.00306104,0.0085073,-0.00105549,-0.347378,0.00605411,0.010799,1308,407,3.65459,24.1725
91,617,3.65723,-24.1278,0.00866086,-0.000640753,-0.00454646,0.0105139,-0.00249381,-0.387027,0.00797165,0.00994213,1315,407,3.65723,24.1278
98,617,3.67456,-24.0873,0.0091765,-0.00181815,-0.00549155,0.0114495,-0.00409113,-0.392436,0.0093016,0.0108942,1322,407,3.67461,24.0873
105,617,3.69629,-24.0462,0.0100509,-0.00341783,-0.00652215,0.0126915,-0.00605845,-0.384696,0.0110488,0.0128472,1329,407,3.69627,24.0462
112,617,3.7312,-23.9784,0.0104932,-0.00490444,-0.00730916,0.0134102,-0.00782145,-0.379721,0.0123988,0.01596,1336,407,3.73116,23.9784
119,617,3.76965,-23.8835,0.0100842,-0.00620272,-0.0074706,0.0129918,-0.00911032,-0.371166,0.0128261,0.0185342,1343,407,3.76965,23.8835
126,617,3.7782,-23.7986,0.00950083,-0.00782008,-0.00716418,0.01208,-0.0103992,-0.345563,0.0129905,0.0215098,1350,407,3.7782,23.7985
133,617,3.79492,-23.695,0.00896915,-0.00908884,-0.0065729,0.0111082,-0.0112279,-0.314628,0.0128958,0.0196834,1357,407,3.79497,23.695
140,617,3.802,-23.5888,0.00839636,-0.0098939,-0.00603556,0.0102085,-0.011706,-0.291678,0.0126622,0.0159741,1364,407,3.80201,23.5888
147,617,3.79797,-23.4778,0.00701868,-0.0108294,-0.00480012,0.00822773,-0.0120385,-0.246748,0.0117694,0.0187846,1371,407,3.79792,23.4779
154,617,3.83154,-23.3793,0.0067158,-0.0106407,-0.00427118,0.00770993,-0.0116349,-0.228682,0.0112451,0.0210418,1378,407,3.8316,23.3793
161,617,3.8634,-23.2622,0.00629928,-0.009913,-0.00372665,0.00711488,-0.0107286,-0.215459,0.0103721,0.0232036,1385,407,3.86337,23.2622
168,617,3.90283,-23.1698,0.00532222,-0.00870181,-0.00324504,0.00603669,-0.00941629,-0.216717,0.00899262,0.0221545,1392,407,3.90284,23.1698
175,617,3.9126,-23.0447,0.00429894,-0.00666731,-0.00266443,0.00491203,-0.0072804,-0.226165,0.00708343,0.016785,1399,407,3.91257,23.0447
182,617,3.9292,-22.9093,0.00366418,-0.00485146,-0.00203286,0.00412458,-0.00531185,-0.22272,0.00546248,0.0110101,1406,407,3.92917,22.9093
189,617,3.92273,-22.7473,0.00254067,-0.00297056,-0.00124187,0.00280758,-0.00323747,-0.211706,0.00349305,0.01105,1413,407,3.92269,22.7473
196,617,3.91968,-22.5742,0.00154816,-0.00156863,-0.000475323,0.00161903,-0.0016395,-0.148023,0.00188133,0.0143774,1420,407,3.91966,22.5742
203,617,3.92419,-22.4052,0.00128606,-0.000166362,-0.000268556,0.00133413,-0.000214428,-0.177103,0.000968839,0.0153926,1427,407,3.92425,22.4052
210,617,3.95007,-22.227,0.000910513,0.000920897,-1.29257e-05,0.000929634,0.000901775,-0.976372,0.000610682,0.0152595,1434,407,3.95011,22.227
217,617,3.94128,-22.0181,0.000512298,0.00173977,0.000278344,0.00179994,0.000452129,1.35791,0.00108123,0.0197421,1441,407,3.94127,22.0181
224,617,3.92603,-21.8369,0.000283878,0.00210042,0.000559335,0.00225883,0.000125467,1.29481,0.00146586,0.0184908,1448,407,3.92601,21.8369
231,617,3.95166,-21.6737,0.000163077,0.00247311,0.000847901,0.00275092,-0.000114736,1.25417,0.00187336,0.0133045,1455,407,3.95171,21.6737
238,617,3.95813,-21.4755,6.47173e-05,0.0029415,0.00113644,0.00333627,-0.000330048,1.23647,0.00234196,0.0143698,1462,407,3.95813,21.4755
245,617,3.95801,-21.2794,-9.7585e-05,0.00329828,0.00129048,0.00373302,-0.000532328,1.24585,0.00268378,0.0127393,1469,407,3.95801,21.2794
252,617,3.93921,-21.0404,-0.00020636,0.00371164,0.00145391,0.00419221,-0.000686936,1.25156,0.00304968,0.01388,1476,407,3.93915,21.0404
259,617,3.95288,-20.803,-0.000307981,0.00415873,0.0016356,0.00469359,-0.000842849,1.25474,0.00344456,0.0116313,1483,407,3.95293,20.803
266,617,3.9613,-20.5495,-0.000459783,0.00446278,0.001825,0.00506557,-0.00106257,1.25178,0.00378133,0.0135777,1490,407,3.96127,20.5495
273,617,3.94421,-20.3032,-0.000858591,0.00430467,0.00215153,0.00508368,-0.0016376,1.22341,0.00404697,0.0139532,1497,407,3.94425,20.3032
280,617,3.91394,-20.0648,-0.00112587,0.00439926,0.00248671,0.00535361,-0.00208022,1.20435,0.00442846,0.0123395,1504,407,3.91399,20.0648
287,617,3.88892,-19.8154,-0.00145097,0.00438301,0.00282875,0.00552935,-0.00259731,1.18577,0.00479264,0.0118544,1511,407,3.88886,19.8154
294,617,3.8855,-19.5682,-0.00179749,0.00416693,0.00321722,0.00557153,-0.00320208,1.15915,0.00512665,0.00975041,1518,407,3.88552,19.5682
301,617,3.88049,-19.3183,-0.0022127,0.00395263,0.00370438,0.00568922,-0.00394929,1.13242,0.00559494,0.0074496,1525,407,3.88044,19.3183
308,617,3.86304,-19.0474,-0.00270261,0.00359426,0.00421816,0.00570943,-0.00481777,1.10599,0.00608514,0.00789614,1532,407,3.8631,19.0474
315,617,3.8313,-18.7715,-0.00320851,0.00313545,0.00476187,0.00568508,-0.00575814,1.07921,0.00660679,0.009504,1539,407,3.83125,18.7715
322,617,3.79895,-18.4819,-0.00372098,0.00271706,0.00532931,0.00572408,-0.00672801,1.05708,0.007197,0.0130878,1546,407,3.79892,18.4819
329,617,3.80713,-18.2006,-0.00426975,0.00231873,0.00581183,0.00570502,-0.00765604,1.04323,0.00774137,0.0136295,1553,407,3.80714,18.2006
336,617,3.87024,-17.8577,-0.00486652,0.00210711,0.00617992,0.00571601,-0.00847543,1.04224,0.0082449,0.0254365,1560,407,3.87023,17.8577
343,617,3.96875,-17.4626,0,0,0,0,0,0,0,-1,1567,407,3.96872,17.4626
350,617,2.88098,-10.0063,0,0,0,0,0,0,0,-1,1574,407,2.88098,10.0063
357,617,2.1748,-7.16504,0,0,0,0,0,0,0,-1,1581,407,2.1748,7.16505
364,617,2.30127,-7.60257,0,0,0,0,0,0,0,-1,1588,407,2.30125,7.60258
371,617,2.60266,-6.20667,0,0,0,0,0,0,0,-1,1595,407,2.60261,6.20668
378,617,1.56921,-10.3601,0,0,0,0,0,0,0,-1,1602,407,1.56918,10.3601
385,617,1.74146,-10.3561,0,0,0,0,0,0,0,-1,1609,407,1.7414,10.3561
392,617,1.91357,-10.3521,0,0,0,0,0,0,0,-1,1616,407,1.91362,10.3521
399,617,3.25,-2.14835,0,0,0,0,0,0,0,-1,1623,407,3.25006,2.14836
406,617,3.02429,-3.19577,0,0,0,0,0,0,0,-1,1630,407,3.02431,3.19577
413,617,2.92786,-3.80649,0,0,0,0,0,0,0,-1,1637,407,2.92788,3.8065
420,617,3.42737,-4.47391,0,0,0,0,0,0,0,-1,1644,407,3.42737,4.47391
427,617,0,0,0,0,0,0,0,0,0,-1,1651,407,0,0
434,617,0,0,0,0,0,0,0,0,0,-1,1658,407,0,0
441,617,0,0,0,0,0,0,0,0,0,-1,1665,407,0,0
448,617,0,0,0,0,0,0,0,0,0,-1,1672,407,0,0
455,617,0,0,0,0,0,0,0,0,0,-1,1679,407,0,0
462,617,0,0,0,0,0,0,0,0,0,-1,1686,407,0,0
469,617,0,0,0,0,0,0,0,0,0,-1,1693,407,0,0
476,617,0,0,0,0,0,0,0,0,0,-1,1700,407,0,0
483,617,0,0,0,0,0,0,0,0,0,-1,1707,407,0,0
490,617,0,0,0,0,0,0,0,0,0,-1,1714,407,0,0
497,617,0,0,0,0,0,0,0,0,0,-1,1721,407,0,0
504,617,0,0,0,0,0,0,0,0,0,-1,1728,407,0,0
511,617,0,0,0,0,0,0,0,0,0,-1,1735,407,0,0
518,617,0,0,0,0,0,0,0,0,0,-1,1742,407,0,0
525,617,0,0,0,0,0,0,0,0,0,-1,1749,407,0,0
532,617,0,0,0,0,0,0,0,0,0,-1,1756,407,0,0
539,617,0,0,0,0,0,0,0,0,0,-1,1763,407,0,0
546,617,0,0,0,0,0,0,0,0,0,-1,1770,407,0,0
553,617,0,0,0,0,0,0,0,0,0,-1,1777,407,0,0
560,617,0,0,0,0,0,0,0,0,0,-1,1784,407,0,0
567,617,0,0,0,0,0,0,0,0,0,-1,1791,407,0,0
574,617,0,0,0,0,0,0,0,0,0,-1,1798,407,0,0
581,617,0,0,0,0,0,0,0,0,0,-1,1805,407,0,0
588,617,0,0,0,0,0,0,0,0,0,-1,1812,407,0,0
595,617,0,0,0,0,0,0,0,0,0,-1,1819,407,0,0
602,617,0,0,0,0,0,0,0,0,0,-1,1826,407,0,0
609,617,0,0,0,0,0,0,0,0,0,-1,1833,407,0,0
616,617,0,0,0,0,0,0,0,0,0,-1,1840,407,0,0
623,617,0,0,0,0,0,0,0,0,0,-1,1847,407,0,0
630,617,0,0,0,0,0,0,0,0,0,-1,1854,407,0,0
637,617,0,0,0,0,0,0,0,0,0,-1,1861,407,0,0
644,617,0,0,0,0,0,0,0,0,0,-1,1868,407,0,0
651,617,0,0,0,0,0,0,0,0,0,-1,1875,407,0,0
658,617,0,0,0,0,0,0,0,0,0,-1,1882,407,0,0
665,617,0,0,0,0,0,0,0,0,0,-1,1889,407,0,0
672,617,0,0,0,0,0,0,0,0,0,-1,1896,407,0,0
679,617,0,0,0,0,0,0,0,0,0,-1,1903,407,0,0
686,617,0,0,0,0,0,0,0,0,0,-1,1910,407,0,0
693,617,0,0,0,0,0,0,0,0,0,-1,1917,407,0,0
700,617,0,0,0,0,0,0,0,0,0,-1,1924,407,0,0
707,617,0,0,0,0,0,0,0,0,0,-1,1931,407,0,0
714,617,0,0,0,0,0,0,0,0,0,-1,1938,407,0,0
721,617,0,0,0,0,0,0,0,0,0,-1,1945,407,0,0
728,617,0,0,0,0,0,0,0,0,0,-1,1952,407,0,0
735,617,0,0,0,0,0,0,0,0,0,-1,1959,407,0,0
742,617,0,0,0,0,0,0,0,0,0,-1,1966,407,0,0
749,617,0,0,0,0,0,0,0,0,0,-1,1973,407,0,0
756,617,0,0,0,0,0,0,0,0,0,-1,1980,407,0,0
763,617,0,0,0,0,0,0,0,0,0,-1,1987,407,0,0
770,617,0,0,0,0,0,0,0,0,0,-1,1994,407,0,0
777,617,0,0,0,0,0,0,0,0,0,-1,2001,407,0,0
784,617,0,0,0,0,0,0,0,0,0,-1,2008,407,0,0
791,617,0,0,0,0,0,0,0,0,0,-1,2015,407,0,0
798,617,0,0,0,0,0,0,0,0,0,-1,2022,407,0,0
805,617,0,0,0,0,0,0,0,0,0,-1,2029,407,0,0
812,617,0,0,0,0,0,0,0,0,0,-1,2036,407,0,0
-700,610,0,0,0,0,0,0,0,0,0,-1,524,414,0,0
-693,610,0,0,0,0,0,0,0,0,0,-1,531,414,0,0
-686,610,0,0,0,0,0,0,0,0,0,-1,538,414,0,0
-679,610,0,0,0,0,0,0,0,0,0,-1,545,414,0,0
-672,610,0,0,0,0,0,0,0,0,0,-1,552,414,0,0
-665,610,0,0,0,0,0,0,0,0,0,-1,559,414,0,0
-658,610,0,0,0,0,0,0,0,0,0,-1,566,414,0,0
-651,610,0,0,0,0,0,0,0,0,0,-1,573,414,0,0
-644,610,0,0,0,0,0,0,0,0,0,-1,580,414,0,0
-637,610,0,0,0,0,0,0,0,0,0,-1,587,414,0,0
-630,610,0,0,0,0,0,0,0,0,0,-1,594,414,0,0
-623,610,0,0,0,0,0,0,0,0,0,-1,601,414,0,0
-616,610,0,0,0,0,0,0,0,0,0,-1,608,414,0,0
-609,610,0,0,0,0,0,0,0,0,0,-1,615,414,0,0
-602,610,0,0,0,0,0,0,0,0,0,-1,622,414,0,0
-595,610,0,0,0,0,0,0,0,0,0,-1,629,414,0,0
-588,610,0,0,0,0,0,0,0,0,0,-1,636,414,0,0
-581,610,0,0,0,0,0,0,0,0,0,-1,643,414,0,0
-574,610,0,0,0,0,0,0,0,0,0,-1,650,414,0,0
-567,610,0,0,0,0,0,0,0,0,0,-1,657,414,0,0
-560,610,0,0,0,0,0,0,0,0,0,-1,664,414,0,0
-553,610,0,0,0,0,0,0,0,0,0,-1,671,414,0,0
-546,610,0,0,0,0,0,0,0,0,0,-1,678,414,0,0
-539,610,0,0,0,0,0,0,0,0,0,-1,685,414,0,0
-532,610,0,0,0,0,0,0,0,0,0,-1,692,414,0,0
-525,610,0,0,0,0,0,0,0,0,0,-1,699,414,0,0
-518,610,0,0,0,0,0,0,0,0,0,-1,706,414,0,0
-511,610,0,0,0,0,0,0,0,0,0,-1,713,414,0,0
-504,610,0,0,0,0,0,0,0,0,0,-1,720,414,0,0
-497,610,0,0,0,0,0,0,0,0,0,-1,727,414,0,0
-490,610,0,0,0,0,0,0,0,0,0,-1,734,414,0,0
-483,610,0,0,0,0,0,0,0,0,0,-1,741,414,0,0
-476,610,0,0,0,0,0,0,0,0,0,-1,748,414,0,0
-469,610,0,0,0,0,0,0,0,0,0,-1,755,414,0,0
-462,610,0,0,0,0,0,0,0,0,0,-1,762,414,0,0
-455,610,0,0,0,0,0,0,0,0,0,-1,769,414,0,0
-448,610,0,0,0,0,0,0,0,0,0,-1,776,414,0,0
-441,610,0,0,0,0,0,0,0,0,0,-1,783,414,0,0
-434,610,0,0,0,0,0,0,0,0,0,-1,790,414,0,0
-427,610,0,0,0,0,0,0,0,0,0,-1,797,414,0,0
-420,610,0,0,0,0,0,0,0,0,0,-1,804,414,0,0
-413,610,0,0,0,0,0,0,0,0,0,-1,811,414,0,0
-406,610,0,0,0,0,0,0,0,0,0,-1,818,414,0,0
-399,610,0,0,0,0,0,0,0,0,0,-1,825,414,0,0
-392,610,0,0,0,0,0,0,0,0,0,-1,832,414,0,0
-385,610,0,0,0,0,0,0,0,0,0,-1,839,414,0,0
-378,610,0,0,0,0,0,0,0,0,0,-1,846,414,0,0
-371,610,0,0,0,0,0,0,0,0,0,-1,853,414,0,0
-364,610,0,0,0,0,0,0,0,0,0,-1,860,414,0,0
-357,610,0,0,0,0,0,0,0,0,0,-1,867,414,0,0
-350,610,0,0,0,0,0,0,0,0,0,-1,874,414,0,0
-343,610,0,0,0,0,0,0,0,0,0,-1,881,414,0,0
-336,610,0,0,0,0,0,0,0,0,0,-1,888,414,0,0
-329,610,0,0,0,0,0,0,0,0,0,-1,895,414,0,0
-322,610,0,0,0,0,0,0,0,0,0,-1,902,414,0,0
-315,610,6.6438,-13.537,0,0,0,0,0,0,0,-1,909,414,6.64383,13.537
-308,610,6.20703,-13.9936,0,0,0,0,0,0,0,-1,916,414,6.20702,13.9936
-301,610,5.73285,-14.3911,0,0,0,0,0,0,0,-1,923,414,5.73285,14.3911
-294,610,2.37964,-12.4347,0,0,0,0,0,0,0,-1,930,414,2.37964,12.4347
-287,610,2.08557,-11.9136,0,0,0,0,0,0,0,-1,937,414,2.08555,11.9136
-280,610,2.25854,-11.0924,0,0,0,0,0,0,0,-1,944,414,2.25856,11.0924
-273,610,2.98663,-16.4648,0,0,0,0,0,0,0,-1,951,414,2.98664,16.4648
-266,610,2.8598,-16.7662,0,0,0,0,0,0,0,-1,958,414,2.85979,16.7662
-259,610,2.52606,-13.8111,0,0,0,0,0,0,0,-1,965,414,2.52605,13.8111
-252,610,3.27039,-17.6154,0,0,0,0,0,0,0,-1,972,414,3.27038,17.6153
-245,610,3.3421,-17.8815,-0.00937818,-0.00257056,-0.00530071,0.000325115,-0.0122739,-1.07081,0.00829306,0.0434937,979,414,3.34212,17.8815
-238,610,2.87201,-17.9974,-0.00660555,0.00152779,-0.00429319,0.00337461,-0.00845237,-1.16455,0.00703496,0.0433373,986,414,2.87202,17.9974
-231,610,3.07404,-17.7845,-0.00431488,0.00487566,-0.00332158,0.00595044,-0.00538965,-1.25786,0.00654987,0.0373697,993,414,3.07401,17.7845
-224,610,3.07318,-18.1641,-0.00294658,0.00635431,-0.00323302,0.0073677,-0.00395997,-1.26705,0.00663795,0.0245568,1000,414,3.07319,18.1641
-217,610,3.12311,-18.5562,-0.00179631,0.00724298,-0.00309839,0.00820304,-0.00275637,-1.27032,0.00658274,0.015578,1007,414,3.12308,18.5562
-210,610,3.09631,-18.8863,-0.000905853,0.007476,-0.00294332,0.00840631,-0.00183616,-1.26466,0.00630601,0.0116465,1014,414,3.0963,18.8863
-203,610,3.073,-19.1489,-0.000357556,0.00694615,-0.00309327,0.00808015,-0.00149155,-1.21941,0.00594663,0.0141857,1021,414,3.07298,19.1489
-196,610,3.07336,-19.4154,0.000413643,0.00604263,-0.00275949,0.00716973,-0.000713458,-1.18303,0.00503452,0.0130548,1028,414,3.0734,19.4154
-189,610,3.06738,-19.6644,0.00146127,0.00529119,-0.00253781,0.00655547,0.000196988,-1.10861,0.00430615,0.0103655,1035,414,3.06735,19.6644
-182,610,3.03931,-19.9146,0.00202563,0.00427119,-0.00196451,0.00541114,0.000885684,-1.04501,0.00335144,0.0113653,1042,414,3.03929,19.9145
-175,610,3.01819,-20.1471,0.00223638,0.00286989,-0.00141291,0.00400112,0.00110515,-0.895667,0.00238593,0.0119383,1049,414,3.01823,20.1471
-168,610,3.00439,-20.3829,0.00241829,0.00164683,-0.000843242,0.00295984,0.00110528,-0.570889,0.00172702,0.0106635,1056,414,3.00436,20.3829
-161,610,2.99573,-20.6737,0.00264165,0.000495156,-0.00030906,0.00268526,0.000451543,-0.140191,0.00166026,0.0105012,1063,414,2.99573,20.6737
-154,610,2.98242,-20.8921,0.00281975,-0.000294003,0.000180378,0.00283016,-0.000304418,0.0576724,0.001996,0.0133066,1070,414,2.98239,20.8921
-147,610,2.98999,-21.0598,0.00290417,-0.00109318,0.000532562,0.0029739,-0.00116291,0.130204,0.0024635,0.0145436,1077,414,2.98999,21.0599
-140,610,3.00061,-21.2707,0.00291584,-0.00169464,0.000744548,0.00303309,-0.0018119,0.156202,0.00282672,0.011547,1084,414,3.00065,21.2707
-133,610,2.98474,-21.4711,0.00284841,-0.00202697,0.000852692,0.00299324,-0.0021718,0.168246,0.00299458,0.0131255,1091,414,2.98475,21.4711
-126,610,2.97498,-21.6591,0.00270644,-0.00219254,0.000746458,0.00281765,-0.00230375,0.1479,0.0029618,0.0121424,1098,414,2.97494,21.6591
-119,610,2.974,-21.8564,0.00264353,-0.00200246,0.000389792,0.00267601,-0.00203494,0.0831241,0.00272825,0.0104705,1105,414,2.97396,21.8564
-112,610,2.98755,-22.0187,0.00259767,-0.001752,-8.40698e-06,0.00259769,-0.00175201,-0.00193278,0.00252707,0.0171661,1112,414,2.98754,22.0187
-105,610,2.99219,-22.2068,0.00262895,-0.00146986,-0.000443773,0.00267645,-0.00151736,-0.106622,0.00245193,0.0166256,1119,414,2.99224,22.2068
-98,610,2.99731,-22.3979,0.00272098,-0.00126836,-0.000915446,0.00292102,-0.00146839,-0.215134,0.00258008,0.0124295,1126,414,2.99732,22.3979
-91,610,3.00745,-22.56,0.00301592,-0.00113071,-0.00131923,0.00340004,-0.00151484,-0.283338,0.00290635,0.0138964,1133,414,3.0075,22.56
-84,610,3.02185,-22.7443,0.00349603,-0.00100941,-0.00142825,0.00391064,-0.00142402,-0.282526,0.00318955,0.0135727,1140,414,3.02189,22.7443
-77,610,3.01501,-22.9012,0.00395995,-0.000849257,-0.0013738,0.00432472,-0.00121403,-0.259532,0.00336171,0.00994689,1147,414,3.015,22.9012
-70,610,3.03845,-23.0411,0.00467547,-0.00107778,-0.00121323,0.00492085,-0.00132316,-0.199559,0.00379921,0.0125546,1154,414,3.03848,23.0411
-63,610,3.07288,-23.1783,0.00585685,0.00206845,-0.00206484,0.00676471,0.00116059,-0.414236,0.00417704,0.0122947,1161,414,3.07286,23.1783
-56,610,3.09265,-23.2726,0.00682273,0.00698987,-0.00321674,0.0101241,0.00368848,-0.798386,0.00591646,0.0100753,1168,414,3.09262,23.2726
-49,610,3.10486,-23.3915,0.00758461,0.00884199,-0.00396629,0.0122291,0.00419749,-0.863998,0.00717522,0.0106688,1175,414,3.10481,23.3915
-42,610,3.11865,-23.544,0.0103899,0.0102646,-0.00485659,0.0151842,0.00547023,-0.778949,0.00888001,0.0146938,1182,414,3.11862,23.544
-35,610,3.14197,-23.6585,0.0129735,0.0105418,-0.00545369,0.0173453,0.0061701,-0.675721,0.0101523,0.0144741,1189,414,3.14192,23.6585
-28,610,3.15796,-23.7263,0.0137651,0.0105139,-0.00543893,0.0178162,0.00646283,-0.640181,0.0104145,0.0126398,1196,414,3.15801,23.7263
-21,610,3.18994,-23.7904,0.0143369,0.0101039,-0.00523353,0.0178657,0.00657515,-0.593247,0.0104339,0.0112533,1203,414,3.19,23.7904
-14,610,3.21655,-23.8637,0.0146734,0.00913397,-0.00495062,0.0175764,0.00623095,-0.530357,0.01029,0.0123271,1210,414,3.21659,23.8637
-7,610,3.24036,-23.9157,0.0147371,0.00808777,-0.00477424,0.0172302,0.00559463,-0.481255,0.0101496,0.013774,1217,414,3.24034,23.9157
0,610,3.26746,-23.9893,0.013527,0.00698437,-0.00386872,0.0153221,0.00518927,-0.434438,0.00899837,0.0107221,1224,414,3.26745,23.9893
7,610,3.2876,-24.0526,0.0118433,0.00555259,-0.00259849,0.0127778,0.00461806,-0.345239,0.00747114,0.0110203,1231,414,3.28762,24.0526
14,610,3.34167,-24.0795,0.0102798,0.00383076,-0.00133607,0.0105456,0.00356492,-0.196407,0.00619407,0.0137249,1238,414,3.34169,24.0795
21,610,3.38611,-24.1032,0.0086094,0.00254597,-0.000181187,0.00861481,0.00254056,-0.0298464,0.00511133,0.013209,1245,414,3.38611,24.1032
28,610,3.40112,-24.1712,0.00662573,0.00157036,0.00100196,0.00681707,0.00137901,0.188698,0.00416191,0.0136994,1252,414,3.40108,24.1712
35,610,3.49036,-24.1993,0.00474959,0.000971659,0.00220771,0.00576617,-4.49186e-05,0.431524,0.00385917,0.016299,1259,414,3.49041,24.1994
42,610,3.49878,-24.1838,0.00457123,0.000881446,0.00232045,0.00569082,-0.000238138,0.449538,0.0038757,0.0149472,1266,414,3.49872,24.1838
49,610,3.51489,-24.2311,0.00411663,0.0008861,0.00239356,0.00538896,-0.000386234,0.48858,0.00372806,0.0138397,1273,414,3.51484,24.2311
56,610,3.55408,-24.234,0.00434107,0.00173519,0.00142941,0.00497227,0.001104,0.415826,0.00301499,0.012306,1280,414,3.55405,24.234
63,610,3.54382,-24.1935,0.00476096,0.00272665,0.000429182,0.0048478,0.00263982,0.19964,0.00280258,0.0170402,1287,414,3.54379,24.1936
70,610,3.5752,-24.1455,0.0058665,0.0028283,-0.000906534,0.00611643,0.00257837,-0.269016,0.00354578,0.0257846,1294,414,3.57524,24.1455
77,610,3.64014,-24.153,0.00753827,0.00297092,-0.00269787,0.00878923,0.00171996,-0.434176,0.00537863,0.0313352,1301,414,3.64014,24.1529
84,610,3.66479,-24.1199,0.00949965,0.00219433,-0.00468168,0.011785,-9.10284e-05,-0.454122,0.00788719,0.031341,1308,414,3.6648,24.1199
91,610,3.72937,-24.0822,0.0113467,0.0011058,-0.00660961,0.0145872,-0.00213473,-0.455838,0.0105089,0.025823,1315,414,3.72939,24.0822
98,610,3.79211,-24.0731,0.0122967,-0.000591828,-0.00788285,0.0160342,-0.00432931,-0.442736,0.0123874,0.023816,1322,414,3.79215,24.0731
105,610,3.79895,-24.0235,0.0137118,-0.00286155,-0.00936213,0.0179278,-0.00707762,-0.42313,0.014883,0.019545,1329,414,3.79896,24.0235
112,610,3.80701,-23.9535,0.014505,-0.00518204,-0.010474,0.0190351,-0.00971208,-0.408209,0.0168856,0.0131748,1336,414,3.807,23.9535
119,610,3.80847,-23.8663,0.0141248,-0.00733893,-0.0107291,0.0185681,-0.0117823,-0.392635,0.0176682,0.0191049,1343,414,3.80844,23.8663
126,610,3.83167,-23.7844,0.0135415,-0.00997624,-0.0103208,0.0174284,-0.0138632,-0.360181,0.0181052,0.0277158,1350,414,3.83169,23.7844
133,610,3.90088,-23.6978,0.0130563,-0.0123074,-0.00953569,0.0162413,-0.0154925,-0.322363,0.0183232,0.0215116,1357,414,3.90084,23.6978
140,610,3.93579,-23.6089,0.0124627,-0.0139187,-0.0088673,0.0151662,-0.0166221,-0.295925,0.0183594,0.0158114,1364,414,3.93581,23.6089
147,610,3.92078,-23.4854,0.0106251,-0.0156268,-0.00715516,0.0124487,-0.0174503,-0.249542,0.0173425,0.0163874,1371,414,3.92077,23.4854
154,610,3.92163,-23.374,0.0103642,-0.0157461,-0.00644689,0.0118693,-0.0172511,-0.229346,0.0169081,0.0209777,1378,414,3.92161,23.374
161,610,4.00183,-23.2777,0.00993732,-0.0151224,-0.0057374,0.0111884,-0.0163735,-0.214702,0.0160065,0.0279148,1385,414,4.00181,23.2777
168,610,4.0614,-23.1677,0.00853202,-0.0136594,-0.00514341,0.00966617,-0.0147935,-0.217032,0.0142249,0.0278074,1392,414,4.06146,23.1677
175,610,4.06812,-23.0258,0.00698344,-0.0108113,-0.00437322,0.00800011,-0.011828,-0.228419,0.0115186,0.0197781,1399,414,4.06808,23.0258
182,610,4.0824,-22.881,0.00604175,-0.008251,-0.0034312,0.00682279,-0.00903204,-0.223813,0.00918336,0.014049,1406,414,4.08242,22.881
189,610,4.08582,-22.7236,0.00422165,-0.005565,-0.00220883,0.00469708,-0.00604044,-0.212007,0.00621546,0.0129956,1413,414,4.08587,22.7236
196,610,4.10083,-22.5575,0.00257579,-0.00346756,-0.000965709,0.00272635,-0.00361813,-0.154667,0.00367503,0.0127803,1420,414,4.10084,22.5575
203,610,4.09949,-22.3859,0.00228791,-0.00141652,-0.000769803,0.00244151,-0.00157012,-0.196946,0.00233426,0.0134965,1427,414,4.09953,22.3859
210,610,4.099,-22.2364,0.0018414,0.000154271,-0.000481096,0.00196894,2.67258e-05,-0.259153,0.00130381,0.0107508,1434,414,4.09897,22.2364
217,610,4.08936,-21.9971,0.00134495,0.00129223,-0.000101446,0.0014234,0.00121377,-0.658298,0.000887351,0.0163049,1441,414,4.08936,21.9971
224,610,4.10681,-21.8274,0.00108749,0.00166824,0.000231053,0.00174895,0.00100679,1.23474,0.0010136,0.0191813,1448,414,4.10676,21.8274
231,610,4.14453,-21.6842,0.000924982,0.00206205,0.00054493,0.00228103,0.000706001,1.18869,0.00134843,0.0145821,1455,414,4.14458,21.6842
238,610,4.16113,-21.4645,0.000828034,0.00245616,0.000827127,0.00280263,0.000481564,1.17412,0.00173038,0.0108673,1462,414,4.16118,21.4646
245,610,4.17285,-21.2452,0.000707555,0.0027707,0.000986988,0.00316681,0.000311441,1.18914,0.00201543,0.0125012,1469,414,4.17284,21.2452
252,610,4.14941,-21.0306,0.000614748,0.00305038,0.00114171,0.00350187,0.000163258,1.19422,0.00228211,0.0141818,1476,414,4.14946,21.0306
259,610,4.1499,-20.8093,0.000489402,0.003318,0.00128891,0.00381722,-9.8137e-06,1.20127,0.00254809,0.0127582,1483,414,4.14985,20.8093
266,610,4.16028,-20.5718,0.000330198,0.00349525,0.00142694,0.00404358,-0.000218131,1.20392,0.00277129,0.0128061,1490,414,4.16028,20.5718
273,610,4.15137,-20.3259,2.63849e-05,0.00340323,0.00162995,0.00406161,-0.000632001,1.18691,0.00294113,0.0106254,1497,414,4.15139,20.3259
280,610,4.13599,-20.0697,-0.000225357,0.00345135,0.00187706,0.00424033,-0.00101434,1.17289,0.00321873,0.0100148,1504,414,4.13599,20.0697
287,610,4.10718,-19.8034,-0.000495585,0.00344806,0.00213677,0.00438379,-0.00143131,1.15803,0.00349862,0.0130187,1511,414,4.10721,19.8034
294,610,4.12561,-19.5511,-0.00078106,0.00335353,0.00242209,0.00447061,-0.00189814,1.13866,0.00377566,0.0110938,1518,414,4.12566,19.5511
301,610,4.14783,-19.3226,-0.0011257,0.00325644,0.0027769,0.0046026,-0.00247186,1.11941,0.00414573,0.0102445,1525,414,4.14778,19.3226
308,610,4.13464,-19.0643,-0.0015116,0.0030858,0.00317446,0.00470644,-0.00313223,1.09877,0.00455598,0.0123713,1532,414,4.13469,19.0643
315,610,4.09827,-18.8045,-0.00193034,0.00287387,0.00357144,0.00477587,-0.00383234,1.08144,0.00497989,0.0134044,1539,414,4.09828,18.8045
322,610,4.06299,-18.5127,-0.00235439,0.00272568,0.00398391,0.0049104,-0.00453911,1.06919,0.00545708,0.013612,1546,414,4.063,18.5127
329,610,4.04736,-18.2121,-0.00279456,0.00258729,0.00434181,0.00500444,-0.00521171,1.06281,0.0058987,0.0121372,1553,414,4.0474,18.2121
336,610,4.07837,-17.8964,-0.00325442,0.00258096,0.00461215,0.00512081,-0.00579428,1.06742,0.00630583,0.0113105,1560,414,4.07839,17.8964
343,610,4.06604,-17.5822,-0.00356952,0.00240609,0.00468617,0.00497591,-0.00613934,1.06919,0.0064291,0.0215784,1567,414,4.06598,17.5822
350,610,4.07031,-17.2607,0,0,0,0,0,0,0,-1,1574,414,4.07028,17.2607
357,610,4.12817,-16.6537,0,0,0,0,0,0,0,-1,1581,414,4.12811,16.6536
364,610,4.34302,-15.9496,0,0,0,0,0,0,0,-1,1588,414,4.34299,15.9496
371,610,3.54138,-13.3788,0,0,0,0,0,0,0,-1,1595,414,3.54137,13.3788
378,610,3.5752,-12.1958,0,0,0,0,0,0,0,-1,1602,414,3.57517,12.1958
385,610,2.57104,-10.3878,0,0,0,0,0,0,0,-1,1609,414,2.57109,10.3878
392,610,2.35229,-10.3207,0,0,0,0,0,0,0,-1,1616,414,2.35227,10.3207
399,610,3.03833,-2.82547,0,0,0,0,0,0,0,-1,1623,414,3.03827,2.82546
406,610,2.91687,-2.9166,0,0,0,0,0,0,0,-1,1630,414,2.91688,2.91659
413,610,3.01929,-3.20306,0,0,0,0,0,0,0,-1,1637,414,3.01929,3.20306
420,610,4.78149,-3.64041,0,0,0,0,0,0,0,-1,1644,414,4.78152,3.64042
427,610,5.20764,-4.67545,0,0,0,0,0,0,0,-1,1651,414,5.20759,4.67545
434,610,5.39233,-5.45441,0,0,0,0,0,0,0,-1,1658,414,5.39228,5.4544
441,610,0,0,0,0,0,0,0,0,0,-1,1665,414,0,0
448,610,0,0,0,0,0,0,0,0,0,-1,1672,414,0,0
455,610,0,0,0,0,0,0,0,0,0,-1,1679,414,0,0
462,610,0,0,0,0,0,0,0,0,0,-1,1686,414,0,0
469,610,0,0,0,0,0,0,0,0,0,-1,1693,414,0,0
476,610,0,0,0,0,0,0,0,0,0,-1,1700,414,0,0
483,610,0,0,0,0,0,0,0,0,0,-1,1707,414,0,0
490,610,0,0,0,0,0,0,0,0,0,-1,1714,414,0,0
497,610,0,0,0,0,0,0,0,0,0,-1,1721,414,0,0
504,610,0,0,0,0,0,0,0,0,0,-1,1728,414,0,0
511,610,0,0,0,0,0,0,0,0,0,-1,1735,414,0,0
518,610,0,0,0,0,0,0,0,0,0,-1,1742,414,0,0
525,610,0,0,0,0,0,0,0,0,0,-1,1749,414,0,0
532,610,0,0,0,0,0,0,0,0,0,-1,1756,414,0,0
539,610,0,0,0,0,0,0,0,0,0,-1,1763,414,0,0
546,610,0,0,0,0,0,0,0,0,0,-1,1770,414,0,0
553,610,0,0,0,0,0,0,0,0,0,-1,1777,414,0,0
560,610,0,0,0,0,0,0,0,0,0,-1,1784,414,0,0
567,610,0,0,0,0,0,0,0,0,0,-1,1791,414,0,0
574,610,0,0,0,0,0,0,0,0,0,-1,1798,414,0,0
581,610,0,0,0,0,0,0,0,0,0,-1,1805,414,0,0
588,610,0,0,0,0,0,0,0,0,0,-1,1812,414,0,0
595,610,0,0,0,0,0,0,0,0,0,-1,1819,414,0,0
602,610,0,0,0,0,0,0,0,0,0,-1,1826,414,0,0
609,610,0,0,0,0,0,0,0,0,0,-1,1833,414,0,0
616,610,0,0,0,0,0,0,0,0,0,-1,1840,414,0,0
623,610,0,0,0,0,0,0,0,0,0,-1,1847,414,0,0
630,610,0,0,0,0,0,0,0,0,0,-1,1854,414,0,0
637,610,0,0,0,0,0,0,0,0,0,-1,1861,414,0,0
644,610,0,0,0,0,0,0,0,0,0,-1,1868,414,0,0
651,610,0,0,0,0,0,0,0,0,0,-1,1875,414,0,0
658,610,0,0,0,0,0,0,0,0,0,-1,1882,414,0,0
665,610,0,0,0,0,0,0,0,0,0,-1,1889,414,0,0
672,610,0,0,0,0,0,0,0,0,0,-1,1896,414,0,0
679,610,0,0,0,0,0,0,0,0,0,-1,1903,414,0,0
686,610,0,0,0,0,0,0,0,0,0,-1,1910,414,0,0
693,610,0,0,0,0,0,0,0,0,0,-1,1917,414,0,0
700,610,0,0,0,0,0,0,0,0,0,-1,1924,414,0,0
707,610,0,0,0,0,0,0,0,0,0,-1,1931,414,0,0
714,610,0,0,0,0,0,0,0,0,0,-1,1938,414,0,0
721,610,0,0,0,0,0,0,0,0,0,-1,1945,414,0,0
728,610,0,0,0,0,0,0,0,0,0,-1,1952,414,0,0
735,610,0,0,0,0,0,0,0,0,0,-1,1959,414,0,0
742,610,0,0,0,0,0,0,0,0,0,-1,1966,414,0,0
749,610,0,0,0,0,0,0,0,0,0,-1,1973,414,0,0
756,610,0,0,0,0,0,0,0,0,0,-1,1980,414,0,0
763,610,0,0,0,0,0,0,0,0,0,-1,1987,414,0,0
770,610,0,0,0,0,0,0,0,0,0,-1,1994,414,0,0
777,610,0,0,0,0,0,0,0,0,0,-1,2001,414,0,0
784,610,0,0,0,0,0,0,0,0,0,-1,2008,414,0,0
791,610,0,0,0,0,0,0,0,0,0,-1,2015,414,0,0
798,610,0,0,0,0,0,0,0,0,0,-1,2022,414,0,0
805,610,0,0,0,0,0,0,0,0,0,-1,2029,414,0,0
812,610,0,0,0,0,0,0,0,0,0,-1,2036,414,0,0
-700,603,0,0,0,0,0,0,0,0,0,-1,524,421,0,0
-693,603,0,0,0,0,0,0,0,0,0,-1,531,421,0,0
-686,603,0,0,0,0,0,0,0,0,0,-1,538,421,0,0
-679,603,0,0,0,0,0,0,0,0,0,-1,545,421,0,0
-672,603,0,0,0,0,0,0,0,0,0,-1,552,421,0,0
-665,603,0,0,0,0,0,0,0,0,0,-1,559,421,0,0
-658,603,0,0,0,0,0,0,0,0,0,-1,566,421,0,0
-651,603,0,0,0,0,0,0,0,0,0,-1,573,421,0,0
-644,603,0,0,0,0,0,0,0,0,0,-1,580,421,0,0
-637,603,0,0,0,0,0,0,0,0,0,-1,587,421,0,0
-630,603,0,0,0,0,0,0,0,0,0,-1,594,421,0,0
-623,603,0,0,0,0,0,0,0,0,0,-1,601,421,0,0
-616,603,0,0,0,0,0,0,0,0,0,-1,608,421,0,0
-609,603,0,0,0,0,0,0,0,0,0,-1,615,421,0,0
-602,603,0,0,0,0,0,0,0,0,0,-1,622,421,0,0
-595,603,0,0,0,0,0,0,0,0,0,-1,629,421,0,0
-588,603,0,0,0,0,0,0,0,0,0,-1,636,421,0,0
-581,603,0,0,0,0,0,0,0,0,0,-1,643,421,0,0
-574,603,0,0,0,0,0,0,0,0,0,-1,650,421,0,0
-567,603,0,0,0,0,0,0,0,0,0,-1,657,421,0,0
-560,603,0,0,0,0,0,0,0,0,0,-1,664,421,0,0
-553,603,0,0,0,0,0,0,0,0,0,-1,671,421,0,0
-546,603,0,0,0,0,0,0,0,0,0,-1,678,421,0,0
-539,603,0,0,0,0,0,0,0,0,0,-1,685,421,0,0
-532,603,0,0,0,0,0,0,0,0,0,-1,692,421,0,0
-525,603,0,0,0,0,0,0,0,0,0,-1,699,421,0,0
-518,603,0,0,0,0,0,0,0,0,0,-1,706,421,0,0
-511,603,0,0,0,0,0,0,0,0,0,-1,713,421,0,0
-504,603,0,0,0,0,0,0,0,0,0,-1,720,421,0,0
-497,603,0,0,0,0,0,0,0,0,0,-1,727,421,0,0
-490,603,0,0,0,0,0,0,0,0,0,-1,734,421,0,0
-483,603,0,0,0,0,0,0,0,0,0,-1,741,421,0,0
-476,603,0,0,0,0,0,0,0,0,0,-1,748,421,0,0
-469,603,0,0,0,0,0,0,0,0,0,-1,755,421,0,0
-462,603,0,0,0,0,0,0,0,0,0,-1,762,421,0,0
-455,603,0,0,0,0,0,0,0,0,0,-1,769,421,0,0
-448,603,0,0,0,0,0,0,0,0,0,-1,776,421,0,0
-441,603,0,0,0,0,0,0,0,0,0,-1,783,421,0,0
-434,603,0,0,0,0,0,0,0,0,0,-1,790,421,0,0
-427,603,0,0,0,0,0,0,0,0,0,-1,797,421,0,0
-420,603,0,0,0,0,0,0,0,0,0,-1,804,421,0,0
-413,603,0,0,0,0,0,0,0,0,0,-1,811,421,0,0
-406,603,0,0,0,0,0,0,0,0,0,-1,818,421,0,0
-399,603,0,0,0,0,0,0,0,0,0,-1,825,421,0,0
-392,603,0,0,0,0,0,0,0,0,0,-1,832,421,0,0
-385,603,0,0,0,0,0,0,0,0,0,-1,839,421,0,0
-378,603,0,0,0,0,0,0,0,0,0,-1,846,421,0,0
-371,603,0,0,0,0,0,0,0,0,0,-1,853,421,0,0
-364,603,0,0,0,0,0,0,0,0,0,-1,860,421,0,0
-357,603,0,0,0,0,0,0,0,0,0,-1,867,421,0,0
-350,603,0,0,0,0,0,0,0,0,0,-1,874,421,0,0
-343,603,0,0,0,0,0,0,0,0,0,-1,881,421,0,0
-336,603,0,0,0,0,0,0,0,0,0,-1,888,421,0,0
-329,603,0.191833,-18.5754,0,0,0,0,0,0,0,-1,895,421,0.191843,18.5754
-322,603,0.93042,-16.6873,0,0,0,0,0,0,0,-1,902,421,0.930445,16.6873
-315,603,5.52008,-13.3285,0,0,0,0,0,0,0,-1,909,421,5.52009,13.3285
-308,603,5.18152,-13.3872,0,0,0,0,0,0,0,-1,916,421,5.18154,13.3872
-301,603,4.70502,-13.6409,0,0,0,0,0,0,0,-1,923,421,4.70499,13.6409
-294,603,3.18243,-16.3761,0,0,0,0,0,0,0,-1,930,421,3.18246,16.3761
-287,603,2.36078,-16.7728,0,0,0,0,0,0,0,-1,937,421,2.36079,16.7728
-280,603,2.90149,-15.9375,0,0,0,0,0,0,0,-1,944,421,2.90147,15.9375
-273,603,2.72357,-16.2799,-0.0135874,-0.0156551,-0.012879,-0.00170079,-0.0275417,-0.745346,0.0178213,0.0479729,951,421,2.72358,16.2799
-266,603,2.53802,-16.6208,-0.0117513,-0.0116295,-0.0102147,-0.00147556,-0.0219053,-0.788381,0.0141374,0.0480629,958,421,2.53805,16.6208
-259,603,2.98511,-16.7061,0,0,0,0,0,0,0,-1,965,421,2.98511,16.7062
-252,603,2.95642,-17.3714,0,0,0,0,0,0,0,-1,972,421,2.95639,17.3714
-245,603,2.97083,-17.5363,-0.0069765,-0.00181894,-0.00455155,0.000833602,-0.00962904,-1.04314,0.0067145,0.0317947,979,421,2.97081,17.5363
-238,603,2.93237,-17.7037,-0.0049491,0.00129676,-0.00365041,0.00297781,-0.00663015,-1.13924,0.00567918,0.0212237,986,421,2.9324,17.7037
-231,603,2.89282,-18.0242,-0.0033286,0.00382829,-0.0027712,0.00477586,-0.00427617,-1.24132,0.00522885,0.0130032,993,421,2.8928,18.0242
-224,603,2.85535,-18.3319,-0.00235233,0.00481735,-0.00260194,0.00566209,-0.00319707,-1.25687,0.00518042,0.0123227,1000,421,2.85535,18.3319
-217,603,2.84747,-18.598,-0.00146394,0.0053991,-0.00241299,0.00616257,-0.0022274,-1.26437,0.00501841,0.0117851,1007,421,2.8475,18.598
-210,603,2.83392,-18.877,-0.000750933,0.00555185,-0.00221881,0.0062546,-0.00145368,-1.26407,0.00472936,0.0108479,1014,421,2.83394,18.8771
-203,603,2.82794,-19.1633,-0.000288639,0.00515577,-0.00225931,0.0059712,-0.00110407,-1.22443,0.00439529,0.0167099,1021,421,2.82796,19.1633
-196,603,2.86609,-19.4566,0.000182255,0.00466863,-0.00212879,0.00551796,-0.000667074,-1.19118,0.00391996,0.0174546,1028,421,2.86604,19.4566
-189,603,2.86792,-19.6799,0.000852491,0.00427745,-0.00207531,0.0052556,-0.000125663,-1.13035,0.00354636,0.0143072,1035,421,2.86795,19.6799
-182,603,2.81616,-19.9284,0.00117335,0.00363257,-0.00173128,0.00452647,0.000279458,-1.09418,0.00292894,0.0106133,1042,421,2.81618,19.9284
-175,603,2.78101,-20.165,0.0012885,0.0025699,-0.00136993,0.00344155,0.000416845,-1.00413,0.00216881,0.0107588,1049,421,2.78106,20.165
-168,603,2.771,-20.3806,0.00141259,0.00159211,-0.000989171,0.00249559,0.000509116,-0.830644,0.00152266,0.0129328,1056,421,2.771,20.3806
-161,603,2.76526,-20.639,0.00163454,0.000570387,-0.00068939,0.00197331,0.000231624,-0.456741,0.00124553,0.0126119,1063,421,2.76525,20.639
-154,603,2.76099,-20.8917,0.00186326,-0.000179097,-0.000361106,0.00192523,-0.000241063,-0.169946,0.00137092,0.0123215,1070,421,2.76093,20.8917
-147,603,2.76282,-21.0747,0.00208086,-0.00102589,-0.000109991,0.00208475,-0.00102978,-0.035345,0.00183224,0.0129237,1077,421,2.76284,21.0747
-140,603,2.81042,-21.2449,0.00228046,-0.0018163,4.36982e-05,0.00228092,-0.00181677,0.0106649,0.00237086,0.0110302,1084,421,2.81044,21.2449
-133,603,2.7793,-21.4497,0.0024848,-0.0024761,0.000137593,0.00248861,-0.00247991,0.0277072,0.00286858,0.0122889,1091,421,2.77928,21.4497
-126,603,2.76819,-21.6599,0.00270255,-0.0030658,8.90318e-05,0.00270392,-0.00306718,0.0154296,0.00333415,0.0112714,1098,421,2.76824,21.66
-119,603,2.78943,-21.8528,0.00302966,-0.00326864,-0.00018756,0.00303524,-0.00327422,-0.0297442,0.00364364,0.0110365,1105,421,2.7894,21.8528
-112,603,2.79248,-22.0357,0.00335425,-0.00341066,-0.000466981,0.00338633,-0.00344275,-0.0685962,0.00394282,0.0153601,1112,421,2.79244,22.0357
-105,603,2.80164,-22.2373,0.00373288,-0.00348014,-0.0007844,0.00381719,-0.00356445,-0.10708,0.00426263,0.0144287,1119,421,2.80161,22.2373
-98,603,2.8103,-22.3902,0.0041398,-0.00350802,-0.00118526,0.00431928,-0.0036875,-0.150285,0.00462751,0.0126443,1126,421,2.81027,22.3902
-91,603,2.83008,-22.5465,0.00469663,-0.0034016,-0.00160001,0.00500129,-0.00370626,-0.188159,0.00504581,0.00968627,1133,421,2.8301,22.5465
-84,603,2.86926,-22.7343,0.00535814,-0.00311266,-0.00171277,0.00569135,-0.00344587,-0.192144,0.00532821,0.00958254,1140,421,2.86924,22.7343
-77,603,2.89246,-22.9291,0.0058861,-0.00266993,-0.00162975,0.00618602,-0.00296985,-0.181992,0.00539376,0.014201,1147,421,2.89243,22.9291
-70,603,3.06543,-23.2775,0.00686811,-0.00284192,-0.00137709,0.00705963,-0.00303344,-0.138192,0.00597979,0.0433984,1154,421,3.06544,23.2775
-63,603,2.95813,-23.1892,0,0,0,0,0,0,0,-1,1161,421,2.95814,23.1892
-56,603,2.97998,-23.265,0,0,0,0,0,0,0,-1,1168,421,2.98002,23.265
-49,603,3.00989,-23.3773,0,0,0,0,0,0,0,-1,1175,421,3.00994,23.3773
-42,603,3.0199,-23.5222,0,0,0,0,0,0,0,-1,1182,421,3.01984,23.5222
-35,603,2.96448,-23.5999,0.0188668,0.0214449,-0.00944749,0.0296909,0.0106208,-0.853201,0.0173719,0.0428791,1189,421,2.96451,23.5999
-28,603,3.00732,-23.6437,0.01947,0.0215472,-0.00931894,0.0298852,0.011132,-0.840895,0.0174403,0.0248981,1196,421,3.00734,23.6437
-21,603,3.10303,-23.7099,0.0197616,0.0207189,-0.0088392,0.0290924,0.0113881,-0.812448,0.0169279,0.0206843,1203,421,3.10301,23.7099
-14,603,3.17639,-23.7973,0.0197186,0.0189701,-0.00826446,0.0276172,0.0110714,-0.76277,0.0160489,0.0209976,1210,421,3.17637,23.7973
-7,603,3.21729,-23.8793,0.0191545,0.0168347,-0.00775309,0.025834,0.0101552,-0.711149,0.0150285,0.0230217,1217,421,3.21729,23.8793
0,603,3.17981,-23.9392,0.01715,0.0145133,-0.00628888,0.0222572,0.00940606,-0.682077,0.0129014,0.0265091,1224,421,3.17976,23.9392
7,603,3.14941,-23.9163,0.0147588,0.0119556,-0.00448598,0.018057,0.00865734,-0.633984,0.0104281,0.0316107,1231,421,3.14938,23.9163
14,603,3.34802,-23.869,0.0125553,0.00914698,-0.00271301,0.014055,0.00764731,-0.504967,0.00812517,0.0309161,1238,421,3.34804,23.869
21,603,3.34827,-23.9051,0.0102337,0.00697439,-0.00109606,0.010568,0.00664008,-0.296042,0.00616803,0.0261081,1245,421,3.34827,23.9051
28,603,3.38794,-23.9423,0.00758349,0.0053572,0.000494193,0.00768826,0.00525243,0.20891,0.00453702,0.0298951,1252,421,3.38794,23.9423
35,603,3.40271,-23.8724,0.00518269,0.00435354,0.00202375,0.00683389,0.00270233,0.684369,0.00397421,0.036582,1259,421,3.40272,23.8724
42,603,3.47009,-24.0439,0.00478293,0.00396396,0.00227651,0.00668649,0.0020604,0.696413,0.00395405,0.0317106,1266,421,3.47008,24.0439
49,603,3.53247,-24.1573,0.00420617,0.00392322,0.00235864,0.00642757,0.00170182,0.755443,0.00384542,0.0155792,1273,421,3.53251,24.1573
56,603,3.49878,-24.1055,0.00450255,0.00514657,0.00102042,0.00589459,0.00375454,0.938237,0.00344553,0.0295242,1280,421,3.49878,24.1055
63,603,3.4845,-23.9077,0.00507622,0.00647857,-0.000371676,0.00657099,0.0049838,-1.32709,0.00395911,0.0457099,1287,421,3.48453,23.9078
70,603,3.5835,-24.0407,0,0,0,0,0,0,0,-1,1294,421,3.58353,24.0407
77,603,3.66833,-24.1214,0,0,0,0,0,0,0,-1,1301,421,3.66833,24.1214
84,603,3.37915,-23.0802,0,0,0,0,0,0,0,-1,1308,421,3.37913,23.0802
91,603,3.35352,-23.4399,0,0,0,0,0,0,0,-1,1315,421,3.35349,23.4399
98,603,4.13525,-23.9064,0,0,0,0,0,0,0,-1,1322,421,4.13526,23.9064
105,603,4.08752,-23.8302,0.0163576,0.000418626,-0.0130135,0.023648,-0.0068718,-0.510655,0.0184867,0.043989,1329,421,4.08753,23.8302
112,603,4.04773,-23.7752,0.0175391,-0.00267216,-0.0145364,0.0251374,-0.0102705,-0.481652,0.0210349,0.0344526,1336,421,4.04775,23.7752
119,603,4.05127,-23.7191,0.0173728,-0.00578346,-0.0149963,0.0247404,-0.0131511,-0.456661,0.0222151,0.0377428,1343,421,4.05133,23.7191
126,603,4.10327,-23.5973,0.0170487,-0.00970284,-0.0145029,0.0234023,-0.0160564,-0.412903,0.0229127,0.0468038,1350,421,4.10322,23.5973
133,603,4.10071,-23.5273,0.0169802,-0.0135728,-0.0135722,0.0221384,-0.018731,-0.363195,0.0236233,0.0378149,1357,421,4.10076,23.5273
140,603,4.15857,-23.4382,0.0167239,-0.016529,-0.012796,0.0210778,-0.020883,-0.32797,0.0242262,0.0237308,1364,421,4.15861,23.4382
147,603,4.07544,-23.374,0.0147102,-0.0194428,-0.010578,0.017721,-0.0224536,-0.2773,0.0232484,0.018588,1371,421,4.07542,23.374
154,603,4.06006,-23.3312,0.0147397,-0.0204159,-0.00959296,0.0171869,-0.0228631,-0.249785,0.0232002,0.0263179,1378,421,4.06002,23.3312
161,603,4.11279,-23.2628,0.0147002,-0.0208532,-0.0085097,0.0166321,-0.022785,-0.223231,0.0228497,0.0317191,1385,421,4.11282,23.2628
168,603,4.23999,-23.1663,0.0129817,-0.0196224,-0.0076022,0.0146672,-0.0213078,-0.218177,0.0208878,0.0297461,1392,421,4.23999,23.1663
175,603,4.34741,-23.0135,0.0106445,-0.0158016,-0.00660305,0.0122015,-0.0173585,-0.231568,0.0171528,0.0314538,1399,421,4.3474,23.0135
182,603,4.39307,-22.8475,0.0092,-0.0122727,-0.00519606,0.0103913,-0.013464,-0.22537,0.0138109,0.0390389,1406,421,4.39303,22.8475
189,603,4.36157,-22.6657,0.00632628,-0.00854535,-0.00333931,0.00704168,-0.00926075,-0.211046,0.00944123,0.0349656,1413,421,4.36161,22.6657
196,603,4.28394,-22.4506,0.00367126,-0.00556458,-0.00140094,0.00387908,-0.0057724,-0.147273,0.00560791,0.0268141,1420,421,4.28391,22.4506
203,603,4.27832,-22.3376,0.00331793,-0.00268117,-0.00123183,0.00356102,-0.00292426,-0.194837,0.00375029,0.0152878,1427,421,4.2783,22.3377
210,603,4.28674,-22.2457,0.00274726,-0.000494919,-0.000915106,0.00298771,-0.000735375,-0.256954,0.00227687,0.0119768,1434,421,4.2868,22.2457
217,603,4.28076,-22.0212,0.00209939,0.00105717,-0.000448928,0.00226609,0.000890461,-0.355563,0.00131829,0.0130502,1441,421,4.28079,22.0212
224,603,4.3175,-21.8333,0.00179597,0.00147729,-6.57554e-05,0.001809,0.00146426,-0.195694,0.00110909,0.0167813,1448,421,4.31755,21.8333
231,603,4.34229,-21.6498,0.0015894,0.00190798,0.000275818,0.0020672,0.00143018,1.04727,0.00122243,0.0144518,1455,421,4.34223,21.6498
238,603,4.36572,-21.4536,0.00150369,0.00224013,0.000557456,0.00254,0.00120382,1.07727,0.00146713,0.0107896,1462,421,4.36578,21.4536
245,603,4.37292,-21.2596,0.00142536,0.00250558,0.000716291,0.00286257,0.00106837,1.10844,0.00167032,0.0122734,1469,421,4.37296,21.2596
252,603,4.37793,-21.0345,0.00136129,0.0026299,0.000866107,0.00306914,0.000922057,1.10146,0.00181841,0.0111027,1476,421,4.37793,21.0345
259,603,4.38367,-20.8043,0.00123098,0.00269663,0.000977327,0.00318536,0.000742246,1.10709,0.00192448,0.0109274,1483,421,4.38367,20.8043
266,603,4.39087,-20.5709,0.00108401,0.00272715,0.00106285,0.00324894,0.000562217,1.11442,0.00200501,0.0123571,1490,421,4.3909,20.5709
273,603,4.3877,-20.3335,0.000871847,0.00264816,0.00116138,0.00322207,0.000297937,1.11183,0.00205594,0.0116183,1497,421,4.38765,20.3335
280,603,4.39099,-20.0791,0.000630572,0.0025847,0.00131462,0.00324559,-3.03149e-05,1.10497,0.0021739,0.0128678,1504,421,4.39103,20.0791
287,603,4.38123,-19.8181,0.000407195,0.00253939,0.00149575,0.00331009,-0.000363503,1.09502,0.00233734,0.0118276,1511,421,4.38126,19.8181
294,603,4.3811,-19.5599,0.000178703,0.00250431,0.00168991,0.00339282,-0.000709813,1.08674,0.00253187,0.00984975,1518,421,4.38104,19.5599
301,603,4.38843,-19.3172,-0.000109457,0.00247117,0.00193891,0.00350986,-0.00114815,1.07899,0.00280216,0.0117314,1525,421,4.38839,19.3172
308,603,4.3761,-19.0536,-0.000419331,0.00239511,0.00224821,0.0036402,-0.00166441,1.06503,0.00313263,0.0173261,1532,421,4.37607,19.0535
315,603,4.36646,-18.7972,-0.000778742,0.00232611,0.00254486,0.00375468,-0.00220731,1.05928,0.00348059,0.0156363,1539,421,4.36646,18.7972
322,603,4.34326,-18.5089,-0.00114776,0.00234008,0.00286873,0.00395336,-0.00276105,1.0585,0.00389689,0.0154178,1546,421,4.34325,18.5089
329,603,4.32227,-18.2034,-0.00151941,0.00236417,0.00317543,0.00414446,-0.0032997,1.05982,0.00430711,0.0111671,1553,421,4.32221,18.2034
336,603,4.33264,-17.9104,-0.00189487,0.00248156,0.00342735,0.00435968,-0.00377299,1.06951,0.00469947,0.00948371,1560,421,4.33261,17.9104
343,603,4.33887,-17.6217,-0.00217057,0.00247446,0.00353562,0.00438216,-0.00407826,1.076,0.00488568,0.0117241,1567,421,4.33882,17.6217
350,603,4.31567,-17.3146,-0.00225623,0.00298795,0.00389214,0.00505884,-0.00432713,1.08182,0.00542448,0.0246422,1574,421,4.3157,17.3146
357,603,4.32996,-16.8991,-0.00253629,0.00324636,0.00414854,0.00541174,-0.00470166,1.08974,0.00584377,0.0361262,1581,421,4.33001,16.8991
364,603,4.38757,-16.4213,0,0,0,0,0,0,0,-1,1588,421,4.38754,16.4213
371,603,4.24402,-16.1399,0,0,0,0,0,0,0,-1,1595,421,4.24404,16.1399
378,603,4.18628,-16.0781,0,0,0,0,0,0,0,-1,1602,421,4.18622,16.0781
385,603,4.01917,-15.65,0,0,0,0,0,0,0,-1,1609,421,4.01921,15.6499
392,603,3.86169,-15.3976,0,0,0,0,0,0,0,-1,1616,421,3.86164,15.3976
399,603,2.38013,-5.37076,0,0,0,0,0,0,0,-1,1623,421,2.38016,5.37075
406,603,3.01917,-2.37219,0,0,0,0,0,0,0,-1,1630,421,3.01915,2.37219
413,603,2.38928,-2.41275,0,0,0,0,0,0,0,-1,1637,421,2.38926,2.41274
420,603,2.74866,-2.30066,0,0,0,0,0,0,0,-1,1644,421,2.74867,2.30065
427,603,7.11548,-3.35352,0,0,0,0,0,0,0,-1,1651,421,7.11549,3.35351
434,603,7.32153,-4.50525,0,0,0,0,0,0,0,-1,1658,421,7.32149,4.50525
441,603,3.18213,-0.250946,0,0,0,0,0,0,0,-1,1665,421,3.18212,0.250944
448,603,2.95667,-0.066925,0,0,0,0,0,0,0,-1,1672,421,2.95662,0.0669226
455,603,0,0,0,0,0,0,0,0,0,-1,1679,421,0,0
462,603,0,0,0,0,0,0,0,0,0,-1,1686,421,0,0
469,603,0,0,0,0,0,0,0,0,0,-1,1693,421,0,0
476,603,0,0,0,0,0,0,0,0,0,-1,1700,421,0,0
483,603,0,0,0,0,0,0,0,0,0,-1,1707,421,0,0
490,603,0,0,0,0,0,0,0,0,0,-1,1714,421,0,0
497,603,0,0,0,0,0,0,0,0,0,-1,1721,421,0,0
504,603,0,0,0,0,0,0,0,0,0,-1,1728,421,0,0
511,603,0,0,0,0,0,0,0,0,0,-1,1735,421,0,0
518,603,0,0,0,0,0,0,0,0,0,-1,1742,421,0,0
525,603,0,0,0,0,0,0,0,0,0,-1,1749,421,0,0
532,603,0,0,0,0,0,0,0,0,0,-1,1756,421,0,0
539,603,0,0,0,0,0,0,0,0,0,-1,1763,421,0,0
546,603,0,0,0,0,0,0,0,0,0,-1,1770,421,0,0
553,603,0,0,0,0,0,0,0,0,0,-1,1777,421,0,0
560,603,0,0,0,0,0,0,0,0,0,-1,1784,421,0,0
567,603,0,0,0,0,0,0,0,0,0,-1,1791,421,0,0
574,603,0,0,0,0,0,0,0,0,0,-1,1798,421,0,0
581,603,0,0,0,0,0,0,0,0,0,-1,1805,421,0,0
588,603,0,0,0,0,0,0,0,0,0,-1,1812,421,0,0
595,603,0,0,0,0,0,0,0,0,0,-1,1819,421,0,0
602,603,0,0,0,0,0,0,0,0,0,-1,1826,421,0,0
609,603,0,0,0,0,0,0,0,0,0,-1,1833,421,0,0
616,603,0,0,0,0,0,0,0,0,0,-1,1840,421,0,0
623,603,0,0,0,0,0,0,0,0,0,-1,1847,421,0,0
630,603,0,0,0,0,0,0,0,0,0,-1,1854,421,0,0
637,603,0,0,0,0,0,0,0,0,0,-1,1861,421,0,0
644,603,0,0,0,0,0,0,0,0,0,-1,1868,421,0,0
651,603,0,0,0,0,0,0,0,0,0,-1,1875,421,0,0
658,603,0,0,0,0,0,0,0,0,0,-1,1882,421,0,0
665,603,0,0,0,0,0,0,0,0,0,-1,1889,421,0,0
672,603,0,0,0,0,0,0,0,0,0,-1,1896,421,0,0
679,603,0,0,0,0,0,0,0,0,0,-1,1903,421,0,0
686,603,0,0,0,0,0,0,0,0,0,-1,1910,421,0,0
693,603,0,0,0,0,0,0,0,0,0,-1,1917,421,0,0
700,603,0,0,0,0,0,0,0,0,0,-1,1924,421,0,0
707,603,0,0,0,0,0,0,0,0,0,-1,1931,421,0,0
714,603,0,0,0,0,0,0,0,0,0,-1,1938,421,0,0
721,603,0,0,0,0,0,0,0,0,0,-1,1945,421,0,0
728,603,0,0,0,0,0,0,0,0,0,-1,1952,421,0,0
735,603,0,0,0,0,0,0,0,0,0,-1,1959,421,0,0
742,603,0,0,0,0,0,0,0,0,0,-1,1966,421,0,0
749,603,0,0,0,0,0,0,0,0,0,-1,1973,421,0,0
756,603,0,0,0,0,0,0,0,0,0,-1,1980,421,0,0
763,603,0,0,0,0,0,0,0,0,0,-1,1987,421,0,0
770,603,0,0,0,0,0,0,0,0,0,-1,1994,421,0,0
777,603,0,0,0,0,0,0,0,0,0,-1,2001,421,0,0
784,603,0,0,0,0,0,0,0,0,0,-1,2008,421,0,0
791,603,0,0,0,0,0,0,0,0,0,-1,2015,421,0,0
798,603,0,0,0,0,0,0,0,0,0,-1,2022,421,0,0
805,603,0,0,0,0,0,0,0,0,0,-1,2029,421,0,0
812,603,0,0,0,0,0,0,0,0,0,-1,2036,421,0,0
-700,596,0,0,0,0,0,0,0,0,0,-1,524,428,0,0
-693,596,0,0,0,0,0,0,0,0,0,-1,531,428,0,0
-686,596,0,0,0,0,0,0,0,0,0,-1,538,428,0,0
-679,596,0,0,0,0,0,0,0,0,0,-1,545,428,0,0
-672,596,0,0,0,0,0,0,0,0,0,-1,552,428,0,0
-665,596,0,0,0,0,0,0,0,0,0,-1,559,428,0,0
-658,596,0,0,0,0,0,0,0,0,0,-1,566,428,0,0
-651,596,0,0,0,0,0,0,0,0,0,-1,573,428,0,0
-644,596,0,0,0,0,0,0,0,0,0,-1,580,428,0,0
-637,596,0,0,0,0,0,0,0,0,0,-1,587,428,0,0
-630,596,0,0,0,0,0,0,0,0,0,-1,594,428,0,0
-623,596,0,0,0,0,0,0,0,0,0,-1,601,428,0,0
-616,596,0,0,0,0,0,0,0,0,0,-1,608,428,0,0
-609,596,0,0,0,0,0,0,0,0,0,-1,615,428,0,0
-602,596,0,0,0,0,0,0,0,0,0,-1,622,428,0,0
-595,596,0,0,0,0,0,0,0,0,0,-1,629,428,0,0
-588,596,0,0,0,0,0,0,0,0,0,-1,636,428,0,0
-581,596,0,0,0,0,0,0,0,0,0,-1,643,428,0,0
-574,596,0,0,0,0,0,0,0,0,0,-1,650,428,0,0
-567,596,0,0,0,0,0,0,0,0,0,-1,657,428,0,0
-560,596,0,0,0,0,0,0,0,0,0,-1,664,428,0,0
-553,596,0,0,0,0,0,0,0,0,0,-1,671,428,0,0
-546,596,0,0,0,0,0,0,0,0,0,-1,678,428,0,0
-539,596,0,0,0,0,0,0,0,0,0,-1,685,428,0,0
-532,596,0,0,0,0,0,0,0,0,0,-1,692,428,0,0
-525,596,0,0,0,0,0,0,0,0,0,-1,699,428,0,0
-518,596,0,0,0,0,0,0,0,0,0,-1,706,428,0,0
-511,596,0,0,0,0,0,0,0,0,0,-1,713,428,0,0
-504,596,0,0,0,0,0,0,0,0,0,-1,720,428,0,0
-497,596,0,0,0,0,0,0,0,0,0,-1,727,428,0,0
-490,596,0,0,0,0,0,0,0,0,0,-1,734,428,0,0
-483,596,0,0,0,0,0,0,0,0,0,-1,741,428,0,0
-476,596,0,0,0,0,0,0,0,0,0,-1,748,428,0,0
-469,596,0,0,0,0,0,0,0,0,0,-1,755,428,0,0
-462,596,0,0,0,0,0,0,0,0,0,-1,762,428,0,0
-455,596,0,0,0,0,0,0,0,0,0,-1,769,428,0,0
-448,596,0,0,0,0,0,0,0,0,0,-1,776,428,0,0
-441,596,0,0,0,0,0,0,0,0,0,-1,783,428,0,0
-434,596,0,0,0,0,0,0,0,0,0,-1,790,428,0,0
-427,596,0,0,0,0,0,0,0,0,0,-1,797,428,0,0
-420,596,0,0,0,0,0,0,0,0,0,-1,804,428,0,0
-413,596,0,0,0,0,0,0,0,0,0,-1,811,428,0,0
-406,596,0,0,0,0,0,0,0,0,0,-1,818,428,0,0
-399,596,0,0,0,0,0,0,0,0,0,-1,825,428,0,0
-392,596,0,0,0,0,0,0,0,0,0,-1,832,428,0,0
-385,596,0,0,0,0,0,0,0,0,0,-1,839,428,0,0
-378,596,0,0,0,0,0,0,0,0,0,-1,846,428,0,0
-371,596,0,0,0,0,0,0,0,0,0,-1,853,428,0,0
-364,596,0,0,0,0,0,0,0,0,0,-1,860,428,0,0
-357,596,0,0,0,0,0,0,0,0,0,-1,867,428,0,0
-350,596,0,0,0,0,0,0,0,0,0,-1,874,428,0,0
-343,596,0,0,0,0,0,0,0,0,0,-1,881,428,0,0
-336,596,-0.315308,-18.9491,0,0,0,0,0,0,0,-1,888,428,-0.315329,18.9491
-329,596,0.0933228,-17.6538,0,0,0,0,0,0,0,-1,895,428,0.0933086,17.6539
-322,596,0.433533,-16.0376,0,0,0,0,0,0,0,-1,902,428,0.433533,16.0376
-315,596,4.39758,-13.4543,0,0,0,0,0,0,0,-1,909,428,4.3976,13.4543
-308,596,3.96692,-13.1268,0,0,0,0,0,0,0,-1,916,428,3.9669,13.1268
-301,596,2.80731,-14.8412,0,0,0,0,0,0,0,-1,923,428,2.80732,14.8412
-294,596,2.69263,-15.7666,-0.0105174,-0.0184929,-0.0170953,0.00304906,-0.0320594,-0.670814,0.0224584,0.0467926,930,428,2.69265,15.7666
-287,596,2.1723,-16.3982,-0.0106777,-0.01666,-0.0148338,0.00146357,-0.0288012,-0.68591,0.0197068,0.0488655,937,428,2.17232,16.3982
-280,596,2.73199,-15.9827,0,0,0,0,0,0,0,-1,944,428,2.732,15.9827
-273,596,2.65869,-16.3299,-0.00919357,-0.011006,-0.0101895,0.000129946,-0.0203296,-0.741046,0.0135966,0.0433217,951,428,2.65871,16.3299
-266,596,2.67639,-16.501,-0.0081903,-0.008205,-0.00818663,-1.10185e-05,-0.0163843,-0.784949,0.0109192,0.0397927,958,428,2.67637,16.501
-259,596,2.67212,-16.7797,-0.00724252,-0.00554299,-0.00641793,8.11843e-05,-0.0128667,-0.851218,0.00860498,0.0340179,965,428,2.67211,16.7797
-252,596,2.70502,-17.1658,-0.00629455,-0.00356173,-0.00495285,0.000209739,-0.010066,-0.919992,0.00678167,0.0174385,972,428,2.70504,17.1658
-245,596,2.67218,-17.4915,-0.00507526,-0.00137188,-0.0038171,0.00101896,-0.00746609,-1.01123,0.00534949,0.013303,979,428,2.67219,17.4916
-238,596,2.6615,-17.7861,-0.00356083,0.000845009,-0.00300767,0.00237022,-0.00508604,-1.10148,0.00439903,0.0115838,986,428,2.66152,17.7861
-231,596,2.61877,-18.0773,-0.00239017,0.00267958,-0.00220963,0.00350745,-0.00321804,-1.21232,0.00388416,0.0130353,993,428,2.61875,18.0773
-224,596,2.60876,-18.3763,-0.00168064,0.00326297,-0.00196809,0.00395078,-0.00236845,-1.23458,0.00368634,0.0137615,1000,428,2.60878,18.3762
-217,596,2.59875,-18.6588,-0.000991519,0.00357261,-0.00172337,0.00415024,-0.00156915,-1.24739,0.00341233,0.0145867,1007,428,2.59875,18.6588
-210,596,2.60095,-18.9167,-0.000429325,0.00362631,-0.00149875,0.00412006,-0.000923074,-1.25255,0.00310055,0.0124711,1014,428,2.60098,18.9167
-203,596,2.57538,-19.1346,-5.21892e-05,0.0033274,-0.0014475,0.00386262,-0.000587405,-1.21664,0.00279156,0.0149353,1021,428,2.5754,19.1345
-196,596,2.6062,-19.4217,0.000253758,0.00311297,-0.00131458,0.00362551,-0.000258775,-1.19904,0.00250772,0.0148483,1028,428,2.60624,19.4217
-189,596,2.59436,-19.6926,0.000672521,0.00295387,-0.00126691,0.00351796,0.000108434,-1.1519,0.00231001,0.012328,1035,428,2.59435,19.6926
-182,596,2.56055,-19.9251,0.000858543,0.00259461,-0.00100803,0.00305685,0.000396307,-1.14085,0.00191948,0.0112078,1042,428,2.56052,19.9251
-175,596,2.55676,-20.169,0.000947142,0.00181954,-0.000747302,0.00224863,0.000518049,-1.04957,0.00135971,0.0128612,1049,428,2.55675,20.169
-168,596,2.55298,-20.3973,0.00108711,0.001027,-0.000470812,0.00152882,0.000585285,-0.753522,0.000890709,0.0154152,1056,428,2.55294,20.3973
-161,596,2.55994,-20.6238,0.00135428,7.79027e-05,-0.000322819,0.00143128,9.01404e-07,-0.234152,0.000953889,0.0149656,1063,428,2.55988,20.6238
-154,596,2.55139,-20.8764,0.00166174,-0.00065335,-9.50765e-05,0.00166564,-0.000657248,-0.0409761,0.0013826,0.0128789,1070,428,2.55143,20.8764
-147,596,2.59241,-21.0719,0.00204394,-0.0016001,7.83821e-05,0.00204563,-0.00160178,0.0214964,0.00211102,0.0131623,1077,428,2.59245,21.0719
-140,596,2.60999,-21.2411,0.0024363,-0.00261719,0.000179125,0.00244264,-0.00262353,0.0353867,0.00292557,0.013822,1084,428,2.60998,21.2411
-133,596,2.58826,-21.4678,0.00290065,-0.0036387,0.000229434,0.00290869,-0.00364674,0.0350277,0.00379276,0.0147612,1091,428,2.58826,21.4678
-126,596,2.56421,-21.6683,0.00345041,-0.00468909,0.000176935,0.00345426,-0.00469294,0.0217242,0.00472187,0.011922,1098,428,2.56418,21.6683
-119,596,2.58899,-21.8654,0.0041341,-0.00531543,-0.000104453,0.00413526,-0.00531659,-0.011052,0.00547121,0.0142871,1105,428,2.58901,21.8654
-112,596,2.58887,-22.0542,0.00479346,-0.00586967,-0.000372173,0.00480643,-0.00588265,-0.0348462,0.00618176,0.0154916,1112,428,2.58886,22.0542
-105,596,2.61475,-22.2226,0.00549198,-0.00630245,-0.000678742,0.00553091,-0.00634138,-0.0572956,0.00685979,0.0154383,1119,428,2.61469,22.2226
-98,596,2.65686,-22.3723,0.00619497,-0.00652939,-0.00113375,0.0062952,-0.00662962,-0.0881753,0.00746298,0.0105672,1126,428,2.65686,22.3723
-91,596,2.68445,-22.5717,0.00689315,-0.0062889,-0.00175656,0.0071232,-0.00651895,-0.130227,0.00787888,0.0149841,1133,428,2.6844,22.5718
-84,596,2.79626,-22.8881,0,0,0,0,0,0,0,-1,1140,428,2.79627,22.8881
-77,596,2.77734,-22.9956,0,0,0,0,0,0,0,-1,1147,428,2.77739,22.9956
-70,596,2.92297,-23.4383,0,0,0,0,0,0,0,-1,1154,428,2.92298,23.4383
-63,596,1.95569,-12.2758,0,0,0,0,0,0,0,-1,1161,428,1.95563,12.2759
-56,596,1.60107,-10.5827,0,0,0,0,0,0,0,-1,1168,428,1.60108,10.5827
-49,596,1.59473,-10.0393,0,0,0,0,0,0,0,-1,1175,428,1.59472,10.0393
-42,596,1.99585,-6.6246,0,0,0,0,0,0,0,-1,1182,428,1.99586,6.62459
-35,596,2.60657,-23.4234,0,0,0,0,0,0,0,-1,1189,428,2.60662,23.4234
-28,596,2.84668,-23.5149,0,0,0,0,0,0,0,-1,1196,428,2.84673,23.5149
-21,596,2.92139,-23.3271,0.0258687,0.0373662,-0.0139354,0.046692,0.0165429,-0.981027,0.0273365,0.0461919,1203,428,2.92133,23.3271
-14,596,3.2489,-23.5009,0.0252659,0.0341392,-0.0128577,0.0433041,0.0161009,-0.951531,0.0252741,0.0477624,1210,428,3.24896,23.5009
-7,596,3.18872,-23.7911,0,0,0,0,0,0,0,-1,1217,428,3.18873,23.7911
0,596,2.33972,-23.5844,0,0,0,0,0,0,0,-1,1224,428,2.33975,23.5844
7,596,2.68555,-23.5173,0.0179203,0.021628,-0.00710539,0.0271174,0.0124309,-0.913007,0.0156743,0.0422802,1231,428,2.68555,23.5173
14,596,3.32874,-23.5519,0.0149058,0.0172068,-0.00465125,0.0208477,0.0112649,-0.906641,0.0120495,0.0443853,1238,428,3.32877,23.5519
21,596,3.29077,-23.604,0.011762,0.013679,-0.00239728,0.0153023,0.0101387,-0.97558,0.00898907,0.047576,1245,428,3.29071,23.604
28,596,3.2146,-23.6431,0.00831192,0.0109647,-0.000227033,0.010984,0.00829263,-1.48604,0.00661076,0.0470616,1252,428,3.21465,23.6431
35,596,3.26721,-23.6969,0,0,0,0,0,0,0,-1,1259,428,3.26717,23.6969
42,596,3.34863,-23.9302,0.00462926,0.00814342,0.00227221,0.00925867,0.00351401,1.11452,0.00539696,0.0471931,1266,428,3.34867,23.9302
49,596,3.73059,-24.3446,0.00392125,0.00784251,0.00240427,0.00898423,0.00277952,1.12745,0.00531121,0.0432212,1273,428,3.73065,24.3446
56,596,3.25562,-23.7505,0.00431848,0.00945867,0.000608612,0.00952975,0.0042474,1.45454,0.00551281,0.0393561,1280,428,3.25566,23.7505
63,596,3.33374,-23.5827,0.00507289,0.0110988,-0.00125849,0.0113511,0.00482062,-1.37296,0.00657828,0.042156,1287,428,3.33373,23.5827
70,596,3.63977,-23.6262,0.00677969,0.0115543,-0.00345562,0.013367,0.00496692,-1.08768,0.00780186,0.0451694,1294,428,3.63976,23.6262
77,596,3.51965,-23.3452,0,0,0,0,0,0,0,-1,1301,428,3.5197,23.3452
84,596,3.2998,-23.029,0,0,0,0,0,0,0,-1,1308,428,3.29985,23.029
91,596,3.02991,-22.8126,0,0,0,0,0,0,0,-1,1315,428,3.02988,22.8126
98,596,2.98181,-22.64,0,0,0,0,0,0,0,-1,1322,428,2.98182,22.64
105,596,4.33496,-23.6689,0,0,0,0,0,0,0,-1,1329,428,4.33492,23.6689
112,596,4.40271,-23.45,0.0198436,0.00150836,-0.0189864,0.0317598,-0.0104079,-0.56048,0.0253646,0.0440895,1336,428,4.40273,23.45
119,596,4.64282,-23.0577,0.0198808,-0.00251202,-0.0196226,0.0312765,-0.0139077,-0.526142,0.0267219,0.0453444,1343,428,4.64286,23.0577
126,596,4.35339,-23.2487,0.0199553,-0.00773063,-0.0190966,0.0296985,-0.0174738,-0.471779,0.0275381,0.0494006,1350,428,4.35344,23.2487
133,596,4.21362,-23.2204,0.0205015,-0.0131193,-0.0181584,0.0284361,-0.021054,-0.411964,0.0286789,0.048009,1357,428,4.21361,23.2204
140,596,4.42651,-23.176,0,0,0,0,0,0,0,-1,1364,428,4.42648,23.176
147,596,4.04456,-22.8605,0.0191424,-0.0218755,-0.0149238,0.0239975,-0.0267306,-0.314529,0.029302,0.0424656,1371,428,4.04461,22.8605
154,596,4.0293,-22.8535,0.0198102,-0.0242855,-0.0137239,0.0237326,-0.0282079,-0.278385,0.0300249,0.0449892,1378,428,4.02925,22.8535
161,596,4.21436,-22.8157,0.0209501,-0.0272887,-0.0123227,0.0239156,-0.0302543,-0.236167,0.0313463,0.0483685,1385,428,4.21432,22.8157
168,596,4.39795,-22.9425,0,0,0,0,0,0,0,-1,1392,428,4.3979,22.9425
175,596,4.56531,-22.7979,0,0,0,0,0,0,0,-1,1399,428,4.56533,22.798
182,596,4.6665,-22.7805,0,0,0,0,0,0,0,-1,1406,428,4.66646,22.7806
189,596,4.59521,-22.624,0,0,0,0,0,0,0,-1,1413,428,4.59522,22.624
196,596,4.48633,-22.2803,0,0,0,0,0,0,0,-1,1420,428,4.48627,22.2803
203,596,4.42273,-22.3208,0,0,0,0,0,0,0,-1,1427,428,4.42275,22.3208
210,596,4.6123,-22.3606,0,0,0,0,0,0,0,-1,1434,428,4.61225,22.3606
217,596,4.43567,-22.1406,0.00255261,0.00113393,-0.000847347,0.00294833,0.000738207,-0.436911,0.00177152,0.0482395,1441,428,4.43566,22.1406
224,596,4.48596,-21.9234,0.00219409,0.00161542,-0.000407443,0.00240448,0.00140503,-0.476653,0.0013948,0.0215334,1448,428,4.48595,21.9234
231,596,4.57263,-21.6447,0.00196635,0.00208523,-2.47218e-05,0.00209017,0.00196142,-1.37373,0.00135257,0.0137557,1455,428,4.57264,21.6447
238,596,4.57104,-21.4374,0.0019425,0.00234901,0.000277141,0.00248944,0.00180207,1.10179,0.00148453,0.014949,1462,428,4.57099,21.4374
245,596,4.5813,-21.2346,0.00194974,0.00253647,0.000442708,0.00277419,0.00171202,1.07801,0.00161626,0.0138183,1469,428,4.58125,21.2346
252,596,4.59753,-21.0162,0.00199323,0.00244259,0.000616356,0.00287394,0.00156188,0.960177,0.00166136,0.0106663,1476,428,4.59748,21.0162
259,596,4.61365,-20.796,0.00192836,0.00226458,0.000700592,0.00281695,0.00137599,0.90315,0.00162651,0.0089121,1483,428,4.61362,20.7959
266,596,4.62292,-20.5705,0.00184371,0.00211946,0.000739731,0.00273405,0.00122911,0.877535,0.00158118,0.0102722,1490,428,4.62293,20.5704
273,596,4.62512,-20.348,0.0017371,0.00200441,0.00075717,0.00263963,0.00110188,0.872757,0.0015309,0.0122222,1497,428,4.62513,20.348
280,596,4.64001,-20.1069,0.00151852,0.00179641,0.000831381,0.00250038,0.000814557,0.868195,0.00147252,0.0130437,1504,428,4.64007,20.1069
287,596,4.62903,-19.846,0.00133802,0.00166978,0.000945427,0.00246377,0.000544031,0.87224,0.00149455,0.0118702,1511,428,4.62906,19.846
294,596,4.61084,-19.5795,0.00113226,0.00167109,0.00105479,0.00249033,0.000313021,0.910435,0.00156634,0.00896116,1518,428,4.61086,19.5795
301,596,4.62964,-19.3173,0.00085266,0.0016716,0.00120917,0.00253875,-1.44893e-05,0.948657,0.00169735,0.0100731,1525,428,4.62958,19.3173
308,596,4.62903,-19.0626,0.000567776,0.00162592,0.00143954,0.00263053,-0.000436834,0.961501,0.00191597,0.0160509,1532,428,4.629,19.0626
315,596,4.61096,-18.7801,0.000213899,0.00163349,0.00165081,0.00272063,-0.000873241,0.988434,0.00216438,0.0163211,1539,428,4.61096,18.7801
322,596,4.61731,-18.4991,-0.000156604,0.00173978,0.00190177,0.00291663,-0.00133345,1.01666,0.00250989,0.0140454,1546,428,4.61729,18.4991
329,596,4.60242,-18.2064,-0.00051469,0.00186111,0.00216335,0.00314124,-0.00179483,1.03647,0.00288496,0.0101334,1553,428,4.60238,18.2064
336,596,4.5835,-17.9332,-0.000859315,0.00204148,0.00239333,0.0033896,-0.00220743,1.05781,0.00325539,0.00833221,1560,428,4.58347,17.9332
343,596,4.5946,-17.6456,-0.00113173,0.00212937,0.00251884,0.00349936,-0.00250172,1.07265,0.00348065,0.0108755,1567,428,4.59457,17.6456
350,596,4.60217,-17.3338,-0.00125007,0.00261525,0.00284577,0.00412259,-0.00275741,1.08369,0.00399815,0.0112843,1574,428,4.60212,17.3338
357,596,4.58203,-17.0238,-0.00150726,0.00293037,0.00310024,0.00452398,-0.00310087,1.09599,0.0044277,0.00928821,1581,428,4.58207,17.0238
364,596,4.55859,-16.6675,-0.00195544,0.00329543,0.00314075,0.00476355,-0.00342356,1.13353,0.00474789,0.0133572,1588,428,4.55859,16.6675
371,596,4.55139,-16.365,-0.00226929,0.00389925,0.00314488,0.00521986,-0.00358991,1.17323,0.00511525,0.0180097,1595,428,4.55143,16.365
378,596,4.51526,-16.1234,-0.0023669,0.00525362,0.00292695,0.00624806,-0.00336134,1.24328,0.00563082,0.0229668,1602,428,4.51526,16.1234
385,596,4.43359,-15.7405,-0.00321407,0.00553377,0.00261597,0.00625637,-0.00393666,1.30129,0.00593553,0.0316303,1609,428,4.43364,15.7405
392,596,4.34399,-15.3839,-0.00402179,0.00599065,0.00246029,0.00656254,-0.00459367,1.34241,0.00647439,0.0441569,1616,428,4.34395,15.3839
399,596,4.55029,-14.6595,0,0,0,0,0,0,0,-1,1623,428,4.55031,14.6595
406,596,3.60034,-10.1525,0,0,0,0,0,0,0,-1,1630,428,3.60028,10.1525
413,596,3.39124,-2.63528,0,0,0,0,0,0,0,-1,1637,428,3.39122,2.6353
420,596,2.6344,-3.06308,0,0,0,0,0,0,0,-1,1644,428,2.63439,3.06308
427,596,2.99329,-1.90512,0,0,0,0,0,0,0,-1,1651,428,2.99327,1.90512
434,596,3.80896,-0.253998,0,0,0,0,0,0,0,-1,1658,428,3.80902,0.254004
441,596,3.86401,-0.131622,0,0,0,0,0,0,0,-1,1665,428,3.86406,0.131613
448,596,1.0769,0.0083313,0,0,0,0,0,0,0,-1,1672,428,1.07684,-0.00832231
455,596,2.00769,-1.43329,0,0,0,0,0,0,0,-1,1679,428,2.00765,1.4333
462,596,0,0,0,0,0,0,0,0,0,-1,1686,428,0,0
469,596,0,0,0,0,0,0,0,0,0,-1,1693,428,0,0
476,596,0,0,0,0,0,0,0,0,0,-1,1700,428,0,0
483,596,0,0,0,0,0,0,0,0,0,-1,1707,428,0,0
490,596,0,0,0,0,0,0,0,0,0,-1,1714,428,0,0
497,596,0,0,0,0,0,0,0,0,0,-1,1721,428,0,0
504,596,0,0,0,0,0,0,0,0,0,-1,1728,428,0,0
511,596,0,0,0,0,0,0,0,0,0,-1,1735,428,0,0
518,596,0,0,0,0,0,0,0,0,0,-1,1742,428,0,0
525,596,0,0,0,0,0,0,0,0,0,-1,1749,428,0,0
532,596,0,0,0,0,0,0,0,0,0,-1,1756,428,0,0
539,596,0,0,0,0,0,0,0,0,0,-1,1763,428,0,0
546,596,0,0,0,0,0,0,0,0,0,-1,1770,428,0,0
553,596,0,0,0,0,0,0,0,0,0,-1,1777,428,0,0
560,596,0,0,0,0,0,0,0,0,0,-1,1784,428,0,0
567,596,0,0,0,0,0,0,0,0,0,-1,1791,428,0,0
574,596,0,0,0,0,0,0,0,0,0,-1,1798,428,0,0
581,596,0,0,0,0,0,0,0,0,0,-1,1805,428,0,0
588,596,0,0,0,0,0,0,0,0,0,-1,1812,428,0,0
595,596,0,0,0,0,0,0,0,0,0,-1,1819,428,0,0
602,596,0,0,0,0,0,0,0,0,0,-1,1826,428,0,0
609,596,0,0,0,0,0,0,0,0,0,-1,1833,428,0,0
616,596,0,0,0,0,0,0,0,0,0,-1,1840,428,0,0
623,596,0,0,0,0,0,0,0,0,0,-1,1847,428,0,0
630,596,0,0,0,0,0,0,0,0,0,-1,1854,428,0,0
637,596,0,0,0,0,0,0,0,0,0,-1,1861,428,0,0
644,596,0,0,0,0,0,0,0,0,0,-1,1868,428,0,0
651,596,0,0,0,0,0,0,0,0,0,-1,1875,428,0,0
658,596,0,0,0,0,0,0,0,0,0,-1,1882,428,0,0
665,596,0,0,0,0,0,0,0,0,0,-1,1889,428,0,0
672,596,0,0,0,0,0,0,0,0,0,-1,1896,428,0,0
679,596,0,0,0,0,0,0,0,0,0,-1,1903,428,0,0
686,596,0,0,0,0,0,0,0,0,0,-1,1910,428,0,0
693,596,0,0,0,0,0,0,0,0,0,-1,1917,428,0,0
700,596,0,0,0,0,0,0,0,0,0,-1,1924,428,0,0
707,596,0,0,0,0,0,0,0,0,0,-1,1931,428,0,0
714,596,0,0,0,0,0,0,0,0,0,-1,1938,428,0,0
721,596,0,0,0,0,0,0,0,0,0,-1,1945,428,0,0
728,596,0,0,0,0,0,0,0,0,0,-1,1952,428,0,0
735,596,0,0,0,0,0,0,0,0,0,-1,1959,428,0,0
742,596,0,0,0,0,0,0,0,0,0,-1,1966,428,0,0
749,596,0,0,0,0,0,0,0,0,0,-1,1973,428,0,0
756,596,0,0,0,0,0,0,0,0,0,-1,1980,428,0,0
763,596,0,0,0,0,0,0,0,0,0,-1,1987,428,0,0
770,596,0,0,0,0,0,0,0,0,0,-1,1994,428,0,0
777,596,0,0,0,0,0,0,0,0,0,-1,2001,428,0,0
784,596,0,0,0,0,0,0,0,0,0,-1,2008,428,0,0
791,596,0,0,0,0,0,0,0,0,0,-1,2015,428,0,0
798,596,0,0,0,0,0,0,0,0,0,-1,2022,428,0,0
805,596,0,0,0,0,0,0,0,0,0,-1,2029,428,0,0
812,596,0,0,0,0,0,0,0,0,0,-1,2036,428,0,0
-700,589,0,0,0,0,0,0,0,0,0,-1,524,435,0,0
-693,589,0,0,0,0,0,0,0,0,0,-1,531,435,0,0
-686,589,0,0,0,0,0,0,0,0,0,-1,538,435,0,0
-679,589,0,0,0,0,0,0,0,0,0,-1,545,435,0,0
-672,589,0,0,0,0,0,0,0,0,0,-1,552,435,0,0
-665,589,0,0,0,0,0,0,0,0,0,-1,559,435,0,0
-658,589,0,0,0,0,0,0,0,0,0,-1,566,435,0,0
-651,589,0,0,0,0,0,0,0,0,0,-1,573,435,0,0
-644,589,0,0,0,0,0,0,0,0,0,-1,580,435,0,0
-637,589,0,0,0,0,0,0,0,0,0,-1,587,435,0,0
-630,589,0,0,0,0,0,0,0,0,0,-1,594,435,0,0
-623,589,0,0,0,0,0,0,0,0,0,-1,601,435,0,0
-616,589,0,0,0,0,0,0,0,0,0,-1,608,435,0,0
-609,589,0,0,0,0,0,0,0,0,0,-1,615,435,0,0
-602,589,0,0,0,0,0,0,0,0,0,-1,622,435,0,0
-595,589,0,0,0,0,0,0,0,0,0,-1,629,435,0,0
-588,589,0,0,0,0,0,0,0,0,0,-1,636,435,0,0
-581,589,0,0,0,0,0,0,0,0,0,-1,643,435,0,0
-574,589,0,0,0,0,0,0,0,0,0,-1,650,435,0,0
-567,589,0,0,0,0,0,0,0,0,0,-1,657,435,0,0
-560,589,0,0,0,0,0,0,0,0,0,-1,664,435,0,0
-553,589,0,0,0,0,0,0,0,0,0,-1,671,435,0,0
-546,589,0,0,0,0,0,0,0,0,0,-1,678,435,0,0
-539,589,0,0,0,0,0,0,0,0,0,-1,685,435,0,0
-532,589,0,0,0,0,0,0,0,0,0,-1,692,435,0,0
-525,589,0,0,0,0,0,0,0,0,0,-1,699,435,0,0
-518,589,0,0,0,0,0,0,0,0,0,-1,706,435,0,0
-511,589,0,0,0,0,0,0,0,0,0,-1,713,435,0,0
-504,589,0,0,0,0,0,0,0,0,0,-1,720,435,0,0
-497,589,0,0,0,0,0,0,0,0,0,-1,727,435,0,0
-490,589,0,0,0,0,0,0,0,0,0,-1,734,435,0,0
-483,589,0,0,0,0,0,0,0,0,0,-1,741,435,0,0
-476,589,0,0,0,0,0,0,0,0,0,-1,748,435,0,0
-469,589,0,0,0,0,0,0,0,0,0,-1,755,435,0,0
-462,589,0,0,0,0,0,0,0,0,0,-1,762,435,0,0
-455,589,0,0,0,0,0,0,0,0,0,-1,769,435,0,0
-448,589,0,0,0,0,0,0,0,0,0,-1,776,435,0,0
-441,589,0,0,0,0,0,0,0,0,0,-1,783,435,0,0
-434,589,0,0,0,0,0,0,0,0,0,-1,790,435,0,0
-427,589,0,0,0,0,0,0,0,0,0,-1,797,435,0,0
-420,589,0,0,0,0,0,0,0,0,0,-1,804,435,0,0
-413,589,0,0,0,0,0,0,0,0,0,-1,811,435,0,0
-406,589,0,0,0,0,0,0,0,0,0,-1,818,435,0,0
-399,589,0,0,0,0,0,0,0,0,0,-1,825,435,0,0
-392,589,0,0,0,0,0,0,0,0,0,-1,832,435,0,0
-385,589,0,0,0,0,0,0,0,0,0,-1,839,435,0,0
-378,589,0,0,0,0,0,0,0,0,0,-1,846,435,0,0
-371,589,0,0,0,0,0,0,0,0,0,-1,853,435,0,0
-364,589,0,0,0,0,0,0,0,0,0,-1,860,435,0,0
-357,589,0,0,0,0,0,0,0,0,0,-1,867,435,0,0
-350,589,-0.799927,-20.664,0,0,0,0,0,0,0,-1,874,435,-0.799952,20.664
-343,589,-0.370911,-19.1543,0,0,0,0,0,0,0,-1,881,435,-0.370922,19.1543
-336,589,0.0728149,-17.6812,0,0,0,0,0,0,0,-1,888,435,0.0727911,17.6812
-329,589,0.491028,-16.2322,0,0,0,0,0,0,0,-1,895,435,0.491054,16.2322
-322,589,2.10931,-14.0623,0,0,0,0,0,0,0,-1,902,435,2.10934,14.0623
-315,589,2.31042,-14.3635,0,0,0,0,0,0,0,-1,909,435,2.31042,14.3635
-308,589,2.60828,-14.3005,0,0,0,0,0,0,0,-1,916,435,2.6083,14.3005
-301,589,2.53857,-14.8855,-0.00518561,-0.0131938,-0.0150056,0.00634089,-0.0247203,-0.655015,0.0189508,0.0467791,923,435,2.53857,14.8855
-294,589,2.36859,-15.306,-0.00629122,-0.012399,-0.0130579,0.00406513,-0.0227553,-0.670526,0.0166911,0.0469645,930,435,2.36862,15.306
-287,589,2.37939,-15.6245,-0.00661264,-0.0111871,-0.0114377,0.00276427,-0.020564,-0.686714,0.0147175,0.0433602,937,435,2.3794,15.6245
-280,589,2.45776,-15.9449,-0.00649627,-0.00929537,-0.00966812,0.00187308,-0.0176647,-0.713518,0.0124479,0.0333941,944,435,2.45777,15.9449
-273,589,2.45093,-16.2935,-0.00608092,-0.00747504,-0.00796558,0.00121804,-0.014774,-0.741755,0.0102794,0.0207336,951,435,2.45091,16.2935
-266,589,2.41632,-16.5711,-0.00558408,-0.00558119,-0.00646905,0.000886417,-0.0120517,-0.78551,0.00834564,0.0174415,958,435,2.41633,16.5711
-259,589,2.39343,-16.8544,-0.00506222,-0.00368614,-0.0050938,0.000765875,-0.00951424,-0.852529,0.00661292,0.0145428,965,435,2.39344,16.8544
-252,589,2.40924,-17.2103,-0.00447174,-0.00253471,-0.00392501,0.000539516,-0.00754596,-0.906359,0.00521978,0.00993595,972,435,2.40927,17.2103
-245,589,2.41077,-17.515,-0.00356279,-0.00113889,-0.00301161,0.00089549,-0.00559717,-0.976696,0.00406297,0.010074,979,435,2.41074,17.515
-238,589,2.38123,-17.7999,-0.0024051,0.000307129,-0.00229118,0.00161345,-0.00371142,-1.05261,0.00315285,0.0140514,986,435,2.38124,17.7999
-231,589,2.36218,-18.0701,-0.00152926,0.00151375,-0.00158491,0.00218927,-0.00220478,-1.16789,0.00253691,0.0148743,993,435,2.36215,18.0701
-224,589,2.3457,-18.3779,-0.000979048,0.00173937,-0.00131206,0.00226933,-0.001509,-1.18692,0.0021961,0.0151095,1000,435,2.34573,18.3779
-217,589,2.34369,-18.6893,-0.000420974,0.00180052,-0.00105061,0.00221868,-0.000839131,-1.192,0.00182433,0.0159988,1007,435,2.3437,18.6893
-210,589,2.3374,-18.9434,3.70594e-05,0.00178699,-0.000837657,0.00212331,-0.00029927,-1.18899,0.00152512,0.014708,1014,435,2.33738,18.9434
-203,589,2.32001,-19.1487,0.000355585,0.00162385,-0.00073681,0.00196184,1.75998e-05,-1.14072,0.00130206,0.0104353,1021,435,2.32001,19.1487
-196,589,2.31897,-19.4189,0.000612922,0.00157944,-0.00053035,0.00181369,0.000378679,-1.15489,0.00110475,0.0124974,1028,435,2.31901,19.4188
-189,589,2.33276,-19.704,0.00089785,0.00158064,-0.000409706,0.00177255,0.000705945,-1.13275,0.00103042,0.0167093,1035,435,2.33278,19.704
-182,589,2.31348,-19.902,0.00104044,0.00144017,-0.000145734,0.00148766,0.00099295,-1.25578,0.000874811,0.0118355,1042,435,2.31352,19.902
-175,589,2.33203,-20.1358,0.00114131,0.00090386,0.0001073,0.00118261,0.000862557,0.36745,0.000706321,0.0150687,1049,435,2.33205,20.1358
-168,589,2.3429,-20.3923,0.00131786,0.000246822,0.000349775,0.00142197,0.000142713,0.289294,0.000904169,0.0133837,1056,435,2.34294,20.3923
-161,589,2.34473,-20.6214,0.0016456,-0.000676935,0.000410856,0.00171614,-0.000747473,0.170028,0.00145856,0.0127628,1063,435,2.34476,20.6214
-154,589,2.33411,-20.8514,0.00202326,-0.00142176,0.000601796,0.00212535,-0.00152386,0.168058,0.00211639,0.0124052,1070,435,2.33416,20.8514
-147,589,2.36243,-21.0585,0.00257178,-0.00256232,0.000733166,0.00267443,-0.00266497,0.1391,0.0030827,0.0124078,1077,435,2.36245,21.0585
-140,589,2.37817,-21.2362,0.00314474,-0.00384152,0.000735477,0.00322132,-0.00391811,0.103759,0.00412849,0.0142401,1084,435,2.37823,21.2362
-133,589,2.37366,-21.4459,0.00384362,-0.00525985,0.000661035,0.00389137,-0.0053076,0.0721093,0.00533197,0.0142384,1091,435,2.37367,21.4459
-126,589,2.38574,-21.6724,0.00470409,-0.00684141,0.000496031,0.00472536,-0.00686268,0.0428579,0.00672818,0.0115252,1098,435,2.38577,21.6724
-119,589,2.38782,-21.88,0.00573646,-0.00795308,7.70734e-05,0.00573689,-0.00795351,0.00562986,0.00793862,0.0174526,1105,435,2.38779,21.88
-112,589,2.41675,-22.0602,0.0067394,-0.00896877,-0.000328288,0.00674626,-0.00897563,-0.0208871,0.0091074,0.0178929,1112,435,2.4167,22.0602
-105,589,2.44263,-22.2104,0.00778251,-0.00974736,-0.000735431,0.00781331,-0.00977816,-0.041855,0.0101775,0.0181408,1119,435,2.44267,22.2104
-98,589,2.51526,-22.353,0.00883436,-0.0100944,-0.00133084,0.00892747,-0.0101875,-0.0698499,0.011044,0.0209196,1126,435,2.51522,22.353
-91,589,2.52881,-22.5353,0,0,0,0,0,0,0,-1,1133,435,2.52887,22.5353
-84,589,2.76538,-22.6013,0,0,0,0,0,0,0,-1,1140,435,2.76539,22.6014
-77,589,2.18152,-14.8023,0,0,0,0,0,0,0,-1,1147,435,2.18155,14.8023
-70,589,1.48267,-9.90961,0,0,0,0,0,0,0,-1,1154,435,1.48264,9.9096
-63,589,0.880127,-5.50586,0,0,0,0,0,0,0,-1,1161,435,0.880186,5.50587
-56,589,-2.78052,-7.28082,0,0,0,0,0,0,0,-1,1168,435,-2.78053,7.28082
-49,589,-0.525757,-2.76703,0,0,0,0,0,0,0,-1,1175,435,-0.525771,2.76702
-42,589,-2.7738,-2.87921,0,0,0,0,0,0,0,-1,1182,435,-2.77383,2.87922
-35,589,-2.55225,-3.27551,0,0,0,0,0,0,0,-1,1189,435,-2.55223,3.27552
-28,589,-0.0632324,-3.42938,0,0,0,0,0,0,0,-1,1196,435,-0.063241,3.42938
-21,589,2.77747,-22.9339,0,0,0,0,0,0,0,-1,1203,435,2.77742,22.9339
-14,589,3.31384,-23.2296,0,0,0,0,0,0,0,-1,1210,435,3.31389,23.2297
-7,589,1.89783,-22.4024,0,0,0,0,0,0,0,-1,1217,435,1.89779,22.4024
0,589,0.401245,-22.8902,0,0,0,0,0,0,0,-1,1224,435,0.40129,22.8902
7,589,1.81042,-23.2296,0.021127,0.034715,-0.0105551,0.0404736,0.0153683,-1.07135,0.0235918,0.0471481,1231,435,1.81045,23.2296
14,589,3.41907,-23.448,0.0171568,0.0280758,-0.00728119,0.031717,0.0135156,-1.10709,0.0183783,0.0481057,1238,435,3.41905,23.448
21,589,3.17896,-23.4391,0,0,0,0,0,0,0,-1,1245,435,3.17901,23.439
28,589,3.06152,-23.4919,0,0,0,0,0,0,0,-1,1252,435,3.06154,23.4919
35,589,3.75098,-23.0107,0,0,0,0,0,0,0,-1,1259,435,3.75099,23.0107
42,589,3.26575,-24.0132,0,0,0,0,0,0,0,-1,1266,435,3.26569,24.0132
49,589,3.86938,-24.5822,0.00320048,0.0128498,0.00219171,0.0133243,0.00272599,1.3576,0.00812802,0.0471429,1273,435,3.86944,24.5822
56,589,3.06738,-23.5392,0.00374134,0.0148138,-6.09833e-05,0.0148142,0.00374101,-1.56529,0.00889531,0.0430829,1280,435,3.0674,23.5392
63,589,3.12244,-23.27,0.00475619,0.0167341,-0.00240242,0.017198,0.0042923,-1.38005,0.010336,0.0415155,1287,435,3.12244,23.27
70,589,3.49255,-23.5849,0.00683046,0.0174089,-0.00508459,0.0194565,0.00478286,-1.18796,0.011707,0.04389,1294,435,3.49256,23.5849
77,589,3.63782,-23.4828,0,0,0,0,0,0,0,-1,1301,435,3.63779,23.4828
84,589,3.22058,-22.9778,0,0,0,0,0,0,0,-1,1308,435,3.22057,22.9778
91,589,2.8501,-22.4553,0.0151805,0.0165015,-0.0156444,0.0314994,0.000182619,-0.806494,0.020939,0.0454516,1315,435,2.85012,22.4553
98,589,5.05237,-24.9858,0,0,0,0,0,0,0,-1,1322,435,5.0524,24.9858
105,589,5.17358,-24.2066,0.0200448,0.0112627,-0.0215233,0.0376204,-0.0063129,-0.684772,0.0274278,0.0455985,1329,435,5.17356,24.2066
112,589,5.22205,-23.5941,0.0217482,0.00690349,-0.0238163,0.0392719,-0.0106203,-0.634343,0.0303473,0.0417457,1336,435,5.22199,23.5941
119,589,5.43555,-22.7183,0.0220723,0.00185389,-0.0246602,0.038615,-0.0146888,-0.590875,0.0317915,0.0424262,1343,435,5.43559,22.7183
126,589,4.07971,-22.7309,0,0,0,0,0,0,0,-1,1350,435,4.07969,22.7309
133,589,4.68652,-22.7021,0.0241125,-0.0117338,-0.0233618,0.0356345,-0.0232557,-0.45819,0.0342498,0.0463364,1357,435,4.68656,22.7021
140,589,5.32397,-22.6601,0.0253927,-0.0176663,-0.0228437,0.0352535,-0.0275271,-0.407503,0.0363378,0.0435528,1364,435,5.32402,22.6601
147,589,4.01392,-22.3046,0,0,0,0,0,0,0,-1,1371,435,4.01391,22.3046
154,589,4.01672,-22.4087,0,0,0,0,0,0,0,-1,1378,435,4.01669,22.4087
161,589,4.01062,-22.3732,0,0,0,0,0,0,0,-1,1385,435,4.01064,22.3732
168,589,5.38757,-21.4948,0,0,0,0,0,0,0,-1,1392,435,5.38761,21.4948
175,589,8.66992,-7.65527,0,0,0,0,0,0,0,-1,1399,435,8.66994,7.65528
182,589,3.8136,-2.45389,0,0,0,0,0,0,0,-1,1406,435,3.81363,2.4539
189,589,3.69983,-3.68149,0,0,0,0,0,0,0,-1,1413,435,3.69987,3.68147
196,589,3.31055,-5.31677,0,0,0,0,0,0,0,-1,1420,435,3.31059,5.31678
203,589,2.72559,-8.84338,0,0,0,0,0,0,0,-1,1427,435,2.72558,8.84338
210,589,3.62378,-14.4032,0,0,0,0,0,0,0,-1,1434,435,3.62378,14.4032
217,589,4.65601,-22.3745,0,0,0,0,0,0,0,-1,1441,435,4.65607,22.3745
224,589,4.74353,-22.0652,0,0,0,0,0,0,0,-1,1448,435,4.74354,22.0652
231,589,4.80823,-21.7408,0.00231512,0.00307116,-1.903e-05,0.00307164,0.00231465,-1.54565,0.00184786,0.0285377,1455,435,4.8082,21.7408
238,589,4.79993,-21.4809,0.002363,0.00319698,0.000242627,0.00326243,0.00229755,1.30731,0.00193524,0.0240221,1462,435,4.79994,21.4809
245,589,4.7843,-21.1866,0.00244498,0.00319933,0.000339017,0.0033293,0.00231502,1.20471,0.00197046,0.020469,1469,435,4.78432,21.1866
252,589,4.81348,-20.9791,0.00263797,0.00269926,0.000502558,0.00317211,0.00216513,0.815848,0.00187166,0.0134339,1476,435,4.81352,20.9791
259,589,4.83752,-20.7914,0.00266864,0.00212969,0.000506236,0.00297265,0.00182567,0.540816,0.00173111,0.00900082,1483,435,4.83749,20.7914
266,589,4.85059,-20.5531,0.00266159,0.00171064,0.000463239,0.00284994,0.00152229,0.386183,0.00164669,0.00975812,1490,435,4.85057,20.5531
273,589,4.8634,-20.3476,0.00265284,0.00147542,0.000398397,0.00277498,0.00135329,0.297468,0.0016023,0.0119403,1497,435,4.86341,20.3476
280,589,4.87183,-20.1288,0.00244434,0.00104038,0.000389889,0.00254535,0.000939368,0.253495,0.00148626,0.0124048,1504,435,4.87188,20.1288
287,589,4.87952,-19.8699,0.00229105,0.000780332,0.000444488,0.00241212,0.000659257,0.265941,0.00143956,0.0117996,1511,435,4.87951,19.8699
294,589,4.87695,-19.5834,0.00209981,0.00076953,0.000487421,0.00225929,0.000610055,0.316204,0.00134961,0.0095203,1518,435,4.87692,19.5834
301,589,4.89417,-19.3069,0.00181359,0.000786652,0.000571854,0.00206867,0.000531571,0.419571,0.00124049,0.00955214,1525,435,4.89411,19.307
308,589,4.8877,-19.0561,0.00149301,0.000707643,0.000717033,0.00191784,0.000282808,0.53488,0.0011955,0.00972052,1532,435,4.88765,19.0561
315,589,4.875,-18.8038,0.0010862,0.000748978,0.000842068,0.00177637,5.88043e-05,0.686589,0.00116514,0.010441,1539,435,4.87503,18.8038
322,589,4.89478,-18.5218,0.000668366,0.000917355,0.00102621,0.00182659,-0.000240872,0.845761,0.00130545,0.0121545,1546,435,4.8948,18.5218
329,589,4.88928,-18.2326,0.000284565,0.00112202,0.00125207,0.00202352,-0.000616939,0.946766,0.00159494,0.0105771,1553,435,4.88932,18.2326
336,589,4.87622,-17.9558,-7.27467e-05,0.00136753,0.00147005,0.00228435,-0.00098957,1.01316,0.00193885,0.00961387,1560,435,4.87621,17.9558
343,589,4.87463,-17.6572,-0.000376254,0.00155825,0.00162554,0.00248254,-0.00130055,1.05378,0.00221942,0.0107955,1567,435,4.87458,17.6572
350,589,4.86755,-17.3537,-0.000536321,0.00205285,0.00195045,0.00309925,-0.00158272,1.07838,0.00275,0.0156756,1574,435,4.86753,17.3537
357,589,4.86328,-17.0241,-0.000791283,0.00245814,0.00222349,0.00358727,-0.0019204,1.10092,0.00322803,0.0127535,1581,435,4.8633,17.0241
364,589,4.87317,-16.7052,-0.0011652,0.00289064,0.00235042,0.00396706,-0.00224162,1.14133,0.00363043,0.0106055,1588,435,4.87322,16.7052
371,589,4.85583,-16.3915,-0.00144076,0.00343557,0.00245045,0.00445419,-0.00245938,1.17684,0.00404656,0.0111383,1595,435,4.85578,16.3915
378,589,4.823,-16.0715,-0.001662,0.00435419,0.00240978,0.0052004,-0.00250821,1.23309,0.00454014,0.0121741,1602,435,4.823,16.0715
385,589,4.81665,-15.7308,-0.00232078,0.00465948,0.00222357,0.00530761,-0.00296892,1.28717,0.00484163,0.0143695,1609,435,4.81668,15.7308
392,589,4.81763,-15.3364,-0.00296394,0.00503163,0.00211825,0.00555814,-0.00349045,1.32717,0.00526948,0.0184017,1616,435,4.81767,15.3364
399,589,4.85095,-14.8722,-0.00360486,0.0053864,0.00196367,0.00579655,-0.00401501,1.36489,0.00569575,0.030754,1623,435,4.85093,14.8722
406,589,4.79321,-14.5445,0,0,0,0,0,0,0,-1,1630,435,4.79324,14.5445
413,589,4.35168,-14.3634,0,0,0,0,0,0,0,-1,1637,435,4.35168,14.3634
420,589,2.79724,-5.79956,0,0,0,0,0,0,0,-1,1644,435,2.7973,5.79955
427,589,2.87976,-5.28177,0,0,0,0,0,0,0,-1,1651,435,2.87972,5.28177
434,589,2.52734,-2.73029,0,0,0,0,0,0,0,-1,1658,435,2.52736,2.73029
441,589,3.17639,-2.02435,0,0,0,0,0,0,0,-1,1665,435,3.17643,2.02435
448,589,0.453735,-3.2868,0,0,0,0,0,0,0,-1,1672,435,0.453701,3.28681
455,589,0.664307,-3.46848,0,0,0,0,0,0,0,-1,1679,435,0.66425,3.46846
462,589,3.46716,-4.41891,0,0,0,0,0,0,0,-1,1686,435,3.4672,4.41891
469,589,0.0238037,-3.81497,0,0,0,0,0,0,0,-1,1693,435,0.0237965,3.81498
476,589,0,0,0,0,0,0,0,0,0,-1,1700,435,0,0
483,589,0,0,0,0,0,0,0,0,0,-1,1707,435,0,0
490,589,0,0,0,0,0,0,0,0,0,-1,1714,435,0,0
497,589,0,0,0,0,0,0,0,0,0,-1,1721,435,0,0
504,589,0,0,0,0,0,0,0,0,0,-1,1728,435,0,0
511,589,0,0,0,0,0,0,0,0,0,-1,1735,435,0,0
518,589,0,0,0,0,0,0,0,0,0,-1,1742,435,0,0
525,589,0,0,0,0,0,0,0,0,0,-1,1749,435,0,0
532,589,0,0,0,0,0,0,0,0,0,-1,1756,435,0,0
539,589,0,0,0,0,0,0,0,0,0,-1,1763,435,0,0
546,589,0,0,0,0,0,0,0,0,0,-1,1770,435,0,0
553,589,0,0,0,0,0,0,0,0,0,-1,1777,435,0,0
560,589,0,0,0,0,0,0,0,0,0,-1,1784,435,0,0
567,589,0,0,0,0,0,0,0,0,0,-1,1791,435,0,0
574,589,0,0,0,0,0,0,0,0,0,-1,1798,435,0,0
581,589,0,0,0,0,0,0,0,0,0,-1,1805,435,0,0
588,589,0,0,0,0,0,0,0,0,0,-1,1812,435,0,0
595,589,0,0,0,0,0,0,0,0,0,-1,1819,435,0,0
602,589,0,0,0,0,0,0,0,0,0,-1,1826,435,0,0
609,589,0,0,0,0,0,0,0,0,0,-1,1833,435,0,0
616,589,0,0,0,0,0,0,0,0,0,-1,1840,435,0,0
623,589,0,0,0,0,0,0,0,0,0,-1,1847,435,0,0
630,589,0,0,0,0,0,0,0,0,0,-1,1854,435,0,0
637,589,0,0,0,0,0,0,0,0,0,-1,1861,435,0,0
644,589,0,0,0,0,0,0,0,0,0,-1,1868,435,0,0
651,589,0,0,0,0,0,0,0,0,0,-1,1875,435,0,0
658,589,0,0,0,0,0,0,0,0,0,-1,1882,435,0,0
665,589,0,0,0,0,0,0,0,0,0,-1,1889,435,0,0
672,589,0,0,0,0,0,0,0,0,0,-1,1896,435,0,0
679,589,0,0,0,0,0,0,0,0,0,-1,1903,435,0,0
686,589,0,0,0,0,0,0,0,0,0,-1,1910,435,0,0
693,589,0,0,0,0,0,0,0,0,0,-1,1917,435,0,0
700,589,0,0,0,0,0,0,0,0,0,-1,1924,435,0,0
707,589,0,0,0,0,0,0,0,0,0,-1,1931,435,0,0
714,589,0,0,0,0,0,0,0,0,0,-1,1938,435,0,0
721,589,0,0,0,0,0,0,0,0,0,-1,1945,435,0,0
728,589,0,0,0,0,0,0,0,0,0,-1,1952,435,0,0
735,589,0,0,0,0,0,0,0,0,0,-1,1959,435,0,0
742,589,0,0,0,0,0,0,0,0,0,-1,1966,435,0,0
749,589,0,0,0,0,0,0,0,0,0,-1,1973,435,0,0
756,589,0,0,0,0,0,0,0,0,0,-1,1980,435,0,0
763,589,0,0,0,0,0,0,0,0,0,-1,1987,435,0,0
770,589,0,0,0,0,0,0,0,0,0,-1,1994,435,0,0
777,589,0,0,0,0,0,0,0,0,0,-1,2001,435,0,0
784,589,0,0,0,0,0,0,0,0,0,-1,2008,435,0,0
791,589,0,0,0,0,0,0,0,0,0,-1,2015,435,0,0
798,589,0,0,0,0,0,0,0,0,0,-1,2022,435,0,0
805,589,0,0,0,0,0,0,0,0,0,-1,2029,435,0,0
812,589,0,0,0,0,0,0,0,0,0,-1,2036,435,0,0
-700,582,0,0,0,0,0,0,0,0,0,-1,524,442,0,0
-693,582,0,0,0,0,0,0,0,0,0,-1,531,442,0,0
-686,582,0,0,0,0,0,0,0,0,0,-1,538,442,0,0
-679,582,0,0,0,0,0,0,0,0,0,-1,545,442,0,0
-672,582,0,0,0,0,0,0,0,0,0,-1,552,442,0,0
-665,582,0,0,0,0,0,0,0,0,0,-1,559,442,0,0
-658,582,0,0,0,0,0,0,0,0,0,-1,566,442,0,0
-651,582,0,0,0,0,0,0,0,0,0,-1,573,442,0,0
-644,582,0,0,0,0,0,0,0,0,0,-1,580,442,0,0
-637,582,0,0,0,0,0,0,0,0,0,-1,587,442,0,0
-630,582,0,0,0,0,0,0,0,0,0,-1,594,442,0,0
-623,582,0,0,0,0,0,0,0,0,0,-1,601,442,0,0
-616,582,0,0,0,0,0,0,0,0,0,-1,608,442,0,0
-609,582,0,0,0,0,0,0,0,0,0,-1,615,442,0,0
-602,582,0,0,0,0,0,0,0,0,0,-1,622,442,0,0
-595,582,0,0,0,0,0,0,0,0,0,-1,629,442,0,0
-588,582,0,0,0,0,0,0,0,0,0,-1,636,442,0,0
-581,582,0,0,0,0,0,0,0,0,0,-1,643,442,0,0
-574,582,0,0,0,0,0,0,0,0,0,-1,650,442,0,0
-567,582,0,0,0,0,0,0,0,0,0,-1,657,442,0,0
-560,582,0,0,0,0,0,0,0,0,0,-1,664,442,0,0
-553,582,0,0,0,0,0,0,0,0,0,-1,671,442,0,0
-546,582,0,0,0,0,0,0,0,0,0,-1,678,442,0,0
-539,582,0,0,0,0,0,0,0,0,0,-1,685,442,0,0
-532,582,0,0,0,0,0,0,0,0,0,-1,692,442,0,0
-525,582,0,0,0,0,0,0,0,0,0,-1,699,442,0,0
-518,582,0,0,0,0,0,0,0,0,0,-1,706,442,0,0
-511,582,0,0,0,0,0,0,0,0,0,-1,713,442,0,0
-504,582,0,0,0,0,0,0,0,0,0,-1,720,442,0,0
-497,582,0,0,0,0,0,0,0,0,0,-1,727,442,0,0
-490,582,0,0,0,0,0,0,0,0,0,-1,734,442,0,0
-483,582,0,0,0,0,0,0,0,0,0,-1,741,442,0,0
-476,582,0,0,0,0,0,0,0,0,0,-1,748,442,0,0
-469,582,0,0,0,0,0,0,0,0,0,-1,755,442,0,0
-462,582,0,0,0,0,0,0,0,0,0,-1,762,442,0,0
-455,582,0,0,0,0,0,0,0,0,0,-1,769,442,0,0
-448,582,0,0,0,0,0,0,0,0,0,-1,776,442,0,0
-441,582,0,0,0,0,0,0,0,0,0,-1,783,442,0,0
-434,582,0,0,0,0,0,0,0,0,0,-1,790,442,0,0
-427,582,0,0,0,0,0,0,0,0,0,-1,797,442,0,0
-420,582,0,0,0,0,0,0,0,0,0,-1,804,442,0,0
-413,582,0,0,0,0,0,0,0,0,0,-1,811,442,0,0
-406,582,0,0,0,0,0,0,0,0,0,-1,818,442,0,0
-399,582,0,0,0,0,0,0,0,0,0,-1,825,442,0,0
-392,582,0,0,0,0,0,0,0,0,0,-1,832,442,0,0
-385,582,0,0,0,0,0,0,0,0,0,-1,839,442,0,0
-378,582,0,0,0,0,0,0,0,0,0,-1,846,442,0,0
-371,582,0,0,0,0,0,0,0,0,0,-1,853,442,0,0
-364,582,0,0,0,0,0,0,0,0,0,-1,860,442,0,0
-357,582,-1.4903,-21.5295,0,0,0,0,0,0,0,-1,867,442,-1.49031,21.5295
-350,582,-0.880859,-19.7966,0,0,0,0,0,0,0,-1,874,442,-0.880885,19.7966
-343,582,-0.208557,-18.0078,0,0,0,0,0,0,0,-1,881,442,-0.208576,18.0078
-336,582,0.219543,-16.4952,0,0,0,0,0,0,0,-1,888,442,0.219519,16.4952
-329,582,2.12323,-13.3377,0,0,0,0,0,0,0,-1,895,442,2.12325,13.3377
-322,582,2.11774,-13.7749,0,0,0,0,0,0,0,-1,902,442,2.11772,13.7749
-315,582,1.82898,-14.5451,0,0,0,0,0,0,0,-1,909,442,1.82901,14.5451
-308,582,2.02393,-14.3466,-0.00206765,-0.00881948,-0.0122931,0.00730467,-0.0181918,-0.651393,0.0151611,0.0495593,916,442,2.02391,14.3465
-301,582,2.34863,-14.8123,-0.00280881,-0.00839487,-0.0113156,0.00605339,-0.0172571,-0.664402,0.0139668,0.0475577,923,442,2.34865,14.8123
-294,582,2.16602,-15.2775,-0.00366767,-0.00798904,-0.00992517,0.00432928,-0.015986,-0.678222,0.0123559,0.0450572,930,442,2.16601,15.2775
-287,582,2.1228,-15.6212,-0.00397497,-0.0071584,-0.00875026,0.00332716,-0.0144605,-0.69543,0.0109197,0.035154,937,442,2.12278,15.6211
-280,582,2.22675,-15.8849,-0.0040195,-0.00599321,-0.0074346,0.00249346,-0.0125062,-0.719415,0.00928092,0.016597,944,442,2.22672,15.8849
-273,582,2.17993,-16.2278,-0.00387601,-0.00490353,-0.00613707,0.00176877,-0.0105483,-0.743638,0.0076899,0.0106656,951,442,2.17994,16.2278
-266,582,2.15936,-16.5714,-0.00366048,-0.00377787,-0.00499803,0.0012792,-0.00871755,-0.779527,0.00628167,0.00987217,958,442,2.15936,16.5714
-259,582,2.14355,-16.8917,-0.00337455,-0.00259856,-0.0039276,0.000960165,-0.00693328,-0.834632,0.00497323,0.00840508,965,442,2.14355,16.8917
-252,582,2.12714,-17.208,-0.0029997,-0.00207723,-0.00299737,0.000494188,-0.00557111,-0.861739,0.00388928,0.00799573,972,442,2.12713,17.208
-245,582,2.1217,-17.5002,-0.0023017,-0.00135144,-0.0022386,0.000461898,-0.00411504,-0.889968,0.00290957,0.0116229,979,442,2.12168,17.5003
-238,582,2.09564,-17.77,-0.00139897,-0.000595618,-0.00158444,0.000637274,-0.00263186,-0.909538,0.00200111,0.0166638,986,442,2.09566,17.77
-231,582,2.0946,-18.0572,-0.000743126,2.09743e-05,-0.000943662,0.000656991,-0.00137914,-0.977742,0.00119996,0.0131479,993,442,2.09459,18.0572
-224,582,2.09363,-18.3531,-0.000314366,-9.82733e-05,-0.000623557,0.000426529,-0.000839168,-0.871184,0.000743582,0.0111385,1000,442,2.09363,18.3531
-217,582,2.06635,-18.6618,0.000134732,-0.000277132,-0.000328737,0.000316712,-0.000459112,-0.505583,0.00045043,0.0130725,1007,442,2.06634,18.6618
-210,582,2.06061,-18.9117,0.000498483,-0.000393287,-0.000125586,0.000515832,-0.000410636,-0.137272,0.000536044,0.0131882,1014,442,2.0606,18.9117
-203,582,2.06677,-19.1602,0.000759429,-0.000479757,1.54914e-05,0.000759622,-0.000479951,0.0124987,0.000721714,0.010153,1021,442,2.06677,19.1602
-196,582,2.07654,-19.4326,0.000972079,-0.000344707,0.000293494,0.00103453,-0.00040716,0.209667,0.00085823,0.0158199,1028,442,2.07658,19.4326
-189,582,2.08862,-19.6837,0.001186,-0.000190682,0.000476534,0.00133486,-0.000339538,0.302767,0.00102206,0.0219503,1035,442,2.08868,19.6837
-182,582,2.08154,-19.8952,0.00133426,-6.13649e-05,0.00076329,0.00167064,-0.000397745,0.415091,0.00126732,0.0139633,1042,442,2.08158,19.8952
-175,582,2.09875,-20.1168,0.0014923,-0.000311604,0.00100879,0.00194355,-0.000762858,0.420626,0.00161135,0.0121906,1049,442,2.0987,20.1168
-168,582,2.11633,-20.3742,0.00173942,-0.000749681,0.0011963,0.00222115,-0.00123141,0.382815,0.00202045,0.0112079,1056,442,2.11637,20.3742
-161,582,2.10681,-20.604,0.00213348,-0.00155468,0.00115611,0.00246592,-0.00188711,0.279993,0.00252062,0.013029,1063,442,2.10683,20.604
-154,582,2.10339,-20.8207,0.00259684,-0.00225556,0.00131265,0.00292917,-0.00258789,0.247966,0.00318731,0.0123151,1070,442,2.10344,20.8207
-147,582,2.12793,-21.0439,0.00332609,-0.00352967,0.00139445,0.00359886,-0.00380245,0.193176,0.00427369,0.0110723,1077,442,2.12788,21.0439
-140,582,2.12524,-21.2222,0.0040916,-0.00505819,0.00128501,0.00426864,-0.00523523,0.136913,0.00549652,0.0123613,1084,442,2.12528,21.2222
-133,582,2.16907,-21.4152,0.00502409,-0.00689138,0.00106106,0.00511784,-0.00698513,0.0881249,0.00701532,0.0148581,1091,442,2.16908,21.4152
-126,582,2.19653,-21.5841,0.0061701,-0.00911624,0.000752315,0.00620704,-0.00915318,0.0490568,0.00892243,0.013047,1098,442,2.19651,21.5841
-119,582,2.20471,-21.745,0.00753021,-0.0108791,0.000155008,0.00753152,-0.0108804,0.00841926,0.0106886,0.0169258,1105,442,2.20466,21.745
-112,582,2.22278,-21.9918,0.00888404,-0.0125493,-0.000446488,0.00889334,-0.0125586,-0.0208195,0.0124454,0.0254183,1112,442,2.22278,21.9918
-105,582,2.20288,-22.2816,0.0103118,-0.0139191,-0.00102495,0.0103551,-0.0139624,-0.0421987,0.0140911,0.0363171,1119,442,2.20288,22.2816
-98,582,2.35059,-22.3008,0.0117865,-0.0146633,-0.00186506,0.0119174,-0.0147942,-0.0700514,0.0154517,0.0458682,1126,442,2.3506,22.3008
-91,582,2.41504,-22.563,0,0,0,0,0,0,0,-1,1133,442,2.41504,22.563
-84,582,2.10278,-16.7533,0,0,0,0,0,0,0,-1,1140,442,2.10279,16.7533
-77,582,2.30212,-11.4907,0,0,0,0,0,0,0,-1,1147,442,2.30207,11.4907
-70,582,1.49255,-6.36548,0,0,0,0,0,0,0,-1,1154,442,1.49251,6.36549
-63,582,-4.62915,-4.0347,0,0,0,0,0,0,0,-1,1161,442,-4.6292,4.03471
-56,582,-5.81714,-5.24149,0,0,0,0,0,0,0,-1,1168,442,-5.81718,5.24149
-49,582,-3.88672,-10.1064,0,0,0,0,0,0,0,-1,1175,442,-3.88678,10.1064
-42,582,-0.948975,1.13968,0,0,0,0,0,0,0,-1,1182,442,-0.949003,-1.13969
-35,582,-2.58435,-3.86911,0,0,0,0,0,0,0,-1,1189,442,-2.58437,3.86912
-28,582,-0.825317,-3.45941,0,0,0,0,0,0,0,-1,1196,442,-0.825377,3.45942
-21,582,3.65991,-19.26,0,0,0,0,0,0,0,-1,1203,442,3.65996,19.26
-14,582,3.68042,-20.2758,0,0,0,0,0,0,0,-1,1210,442,3.6804,20.2758
-7,582,3.75635,-21.2404,0,0,0,0,0,0,0,-1,1217,442,3.7563,21.2404
0,582,3.46826,-23.3004,0,0,0,0,0,0,0,-1,1224,442,3.46822,23.3004
7,582,3.72986,-23.5176,0.0244137,0.05133,-0.0148867,0.0579401,0.0178036,-1.15292,0.03427,0.0483671,1231,442,3.72985,23.5177
14,582,3.76233,-23.5244,0.019324,0.041787,-0.0106611,0.0460412,0.0150698,-1.19112,0.0271052,0.048325,1238,442,3.76228,23.5245
21,582,3.92822,-23.6302,0,0,0,0,0,0,0,-1,1245,442,3.92821,23.6302
28,582,3.75195,-23.6705,0,0,0,0,0,0,0,-1,1252,442,3.75192,23.6705
35,582,3.20605,-23.6582,0,0,0,0,0,0,0,-1,1259,442,3.20602,23.6582
42,582,4.06946,-24.5253,0,0,0,0,0,0,0,-1,1266,442,4.0695,24.5253
49,582,3.95361,-24.7158,0.00207196,0.0187708,0.00166305,0.0189348,0.00190795,1.47249,0.0120377,0.0468152,1273,442,3.95358,24.7158
56,582,2.94788,-23.7086,0.00274175,0.021119,-0.0010538,0.0211792,0.00268152,-1.5137,0.013316,0.0456527,1280,442,2.94787,23.7086
63,582,2.78223,-23.1872,0.00400127,0.0233042,-0.00391905,0.0240695,0.00323593,-1.37794,0.0150838,0.0428101,1287,442,2.78225,23.1872
70,582,3.30615,-23.5545,0.00639154,0.0243074,-0.00712302,0.0267942,0.00390474,-1.2349,0.016714,0.0433602,1294,442,3.30616,23.5545
77,582,3.33337,-23.4595,0,0,0,0,0,0,0,-1,1301,442,3.33337,23.4595
84,582,3.479,-23.5481,0.0118512,0.0253532,-0.0152894,0.0353157,0.00188863,-0.993299,0.0229402,0.0456984,1308,442,3.47904,23.5481
91,582,3.73401,-23.6748,0.0150083,0.0242769,-0.0193577,0.0395473,-0.000262162,-0.902888,0.0264527,0.0480398,1315,442,3.73396,23.6748
98,582,4.00745,-23.6182,0,0,0,0,0,0,0,-1,1322,442,4.00741,23.6182
105,582,5.84351,-24.0264,0.0202022,0.0191579,-0.0263745,0.0460597,-0.00669959,-0.775501,0.033166,0.0449526,1329,442,5.84347,24.0264
112,582,5.8053,-23.8137,0.0218973,0.0142022,-0.0289591,0.0472633,-0.0111638,-0.719354,0.0358149,0.0415675,1336,442,5.80525,23.8137
119,582,6.349,-22.1389,0.0224912,0.00809341,-0.0299675,0.0461123,-0.0155277,-0.66752,0.0370193,0.0444593,1343,442,6.34899,22.1389
126,582,4.51599,-22.2684,0,0,0,0,0,0,0,-1,1350,442,4.51594,22.2684
133,582,5.4209,-22.2266,0.0262363,-0.00802725,-0.0290602,0.0428387,-0.0246297,-0.519057,0.0394229,0.0475958,1357,442,5.42096,22.2266
140,582,6.13062,-22.2593,0.0287066,-0.0151234,-0.0289688,0.0431159,-0.0295327,-0.461573,0.0421874,0.0469307,1364,442,6.13058,22.2593
147,582,6.67871,-22.2751,0,0,0,0,0,0,0,-1,1371,442,6.67874,22.2751
154,582,3.98425,-21.9935,0,0,0,0,0,0,0,-1,1378,442,3.9842,21.9935
161,582,5.15942,-21.0309,0,0,0,0,0,0,0,-1,1385,442,5.15937,21.0309
168,582,4.49744,-21.4881,0,0,0,0,0,0,0,-1,1392,442,4.49742,21.4881
175,582,6.50549,-2.00424,0,0,0,0,0,0,0,-1,1399,442,6.50546,2.00425
182,582,5.18958,-2.18652,0,0,0,0,0,0,0,-1,1406,442,5.1896,2.18652
189,582,6.19751,-0.880951,0,0,0,0,0,0,0,-1,1413,442,6.19754,0.88096
196,582,4.87354,-2.22327,0,0,0,0,0,0,0,-1,1420,442,4.87348,2.22325
203,582,3.11401,-4.48257,0,0,0,0,0,0,0,-1,1427,442,3.11404,4.48259
210,582,2.93115,-11.0731,0,0,0,0,0,0,0,-1,1434,442,2.93113,11.0731
217,582,4.94092,-16.5476,0,0,0,0,0,0,0,-1,1441,442,4.94087,16.5476
224,582,5.21008,-20.9908,0,0,0,0,0,0,0,-1,1448,442,5.21006,20.9908
231,582,5.1366,-21.907,0,0,0,0,0,0,0,-1,1455,442,5.13664,21.9069
238,582,5.00793,-21.3483,0,0,0,0,0,0,0,-1,1462,442,5.00792,21.3483
245,582,4.6333,-21.1479,0,0,0,0,0,0,0,-1,1469,442,4.63326,21.1479
252,582,5.09558,-21.1032,0.00326628,0.00360482,0.000601976,0.00406087,0.00281023,0.922452,0.00240149,0.0343195,1476,442,5.09562,21.1032
259,582,5.00964,-20.9102,0.00346196,0.00244763,0.00050245,0.00366871,0.00224088,0.390363,0.0021354,0.0267445,1483,442,5.00967,20.9102
266,582,5.04871,-20.6407,0.00356243,0.00162384,0.000343259,0.00362141,0.00156486,0.170176,0.00209724,0.0198407,1490,442,5.0487,20.6407
273,582,5.1073,-20.3691,0.0035702,0.00105129,0.000269373,0.00359869,0.0010228,0.105353,0.00214123,0.01661,1497,442,5.1073,20.3691
280,582,5.11084,-20.1365,0.00335868,0.000256114,0.000145223,0.00336547,0.000249331,0.0466713,0.00216532,0.0123725,1504,442,5.11084,20.1365
287,582,5.14331,-19.8582,0.00322461,-0.000217585,0.000111006,0.00322819,-0.000221161,0.0322039,0.00222951,0.0107882,1511,442,5.14332,19.8582
294,582,5.15845,-19.5815,0.00303705,-0.000276845,5.1614e-05,0.00303785,-0.000277649,0.01557,0.00212384,0.00851377,1518,442,5.15842,19.5815
301,582,5.17065,-19.3162,0.00273963,-0.000245977,3.67123e-05,0.00274008,-0.000246429,0.012294,0.00191416,0.00893693,1525,442,5.1706,19.3162
308,582,5.18054,-19.0625,0.00239131,-0.000359834,6.80399e-05,0.00239299,-0.000361515,0.0247114,0.00172848,0.0112,1532,442,5.18059,19.0625
315,582,5.16895,-18.7912,0.00191749,-0.000272166,8.06239e-05,0.00192046,-0.00027513,0.036754,0.00138118,0.0126712,1539,442,5.16895,18.7912
322,582,5.17017,-18.5127,0.00144096,-1.21244e-05,0.000187509,0.00146476,-3.59309e-05,0.126287,0.000988704,0.0105646,1546,442,5.17016,18.5127
329,582,5.16699,-18.2372,0.00103118,0.000310499,0.000369022,0.00118661,0.000155066,0.39865,0.000744788,0.0105781,1553,442,5.16699,18.2372
336,582,5.16235,-17.9476,0.000656062,0.000652899,0.000564314,0.0012188,9.01647e-05,0.783997,0.000784206,0.0114895,1560,442,5.1623,17.9476
343,582,5.17432,-17.638,0.000301658,0.000960259,0.000734142,0.00143557,-0.000173655,0.996222,0.00101987,0.013932,1567,442,5.17427,17.638
350,582,5.17249,-17.3347,6.99551e-05,0.00144503,0.00104095,0.002005,-0.000490016,1.07726,0.00152645,0.0169262,1574,442,5.17248,17.3347
357,582,5.16394,-17.0074,-0.000216402,0.00189566,0.00132243,0.00253198,-0.000852715,1.12233,0.00203274,0.0135793,1581,442,5.16396,17.0073
364,582,5.16443,-16.7013,-0.000559726,0.00232723,0.00153313,0.00298948,-0.00122198,1.16304,0.00250185,0.0106805,1588,442,5.16444,16.7013
371,582,5.13721,-16.3847,-0.000821778,0.0027827,0.0017214,0.0034727,-0.00151178,1.18957,0.00295109,0.0151238,1595,442,5.13721,16.3847
378,582,5.09753,-16.0766,-0.00114798,0.00334072,0.00185647,0.00400903,-0.00181629,1.22525,0.00344175,0.0150518,1602,442,5.09751,16.0766
385,582,5.08423,-15.7456,-0.00166126,0.0036581,0.00177577,0.00419642,-0.00219959,1.27645,0.00375225,0.0104539,1609,442,5.08417,15.7457
392,582,5.09314,-15.4034,-0.00217675,0.00395653,0.00173,0.00441086,-0.00263107,1.31398,0.00410872,0.00944526,1616,442,5.09316,15.4035
399,582,5.09375,-15.084,-0.00267932,0.00418382,0.00166089,0.00456463,-0.00306013,1.34541,0.00443063,0.0163276,1623,442,5.09376,15.084
406,582,5.0946,-14.6473,-0.00327417,0.00436404,0.00150553,0.00465007,-0.0035602,1.38304,0.00475411,0.0283956,1630,442,5.09466,14.6473
413,582,4.9104,-14.2914,-0.00409931,0.00417979,0.00111376,0.004327,-0.00424652,1.43938,0.00495,0.045005,1637,442,4.91037,14.2914
420,582,4.94897,-14.0093,0,0,0,0,0,0,0,-1,1644,442,4.94897,14.0093
427,582,4.88525,-13.6404,0,0,0,0,0,0,0,-1,1651,442,4.88528,13.6404
434,582,4.61548,-13.3394,0,0,0,0,0,0,0,-1,1658,442,4.61543,13.3394
441,582,4.53979,-12.7726,0,0,0,0,0,0,0,-1,1665,442,4.53983,12.7726
448,582,6.12402,-12.6808,0,0,0,0,0,0,0,-1,1672,442,6.12406,12.6808
455,582,3.6698,-4.4032,0,0,0,0,0,0,0,-1,1679,442,3.66983,4.40319
462,582,1.38074,-3.94418,0,0,0,0,0,0,0,-1,1686,442,1.38074,3.94419
469,582,4.77759,-10.3864,0,0,0,0,0,0,0,-1,1693,442,4.77756,10.3864
476,582,1.93579,-8.53891,0,0,0,0,0,0,0,-1,1700,442,1.93579,8.53892
483,582,0,0,0,0,0,0,0,0,0,-1,1707,442,0,0
490,582,0,0,0,0,0,0,0,0,0,-1,1714,442,0,0
497,582,0,0,0,0,0,0,0,0,0,-1,1721,442,0,0
504,582,0,0,0,0,0,0,0,0,0,-1,1728,442,0,0
511,582,0,0,0,0,0,0,0,0,0,-1,1735,442,0,0
518,582,0,0,0,0,0,0,0,0,0,-1,1742,442,0,0
525,582,0,0,0,0,0,0,0,0,0,-1,1749,442,0,0
532,582,0,0,0,0,0,0,0,0,0,-1,1756,442,0,0
539,582,0,0,0,0,0,0,0,0,0,-1,1763,442,0,0
546,582,0,0,0,0,0,0,0,0,0,-1,1770,442,0,0
553,582,0,0,0,0,0,0,0,0,0,-1,1777,442,0,0
560,582,0,0,0,0,0,0,0,0,0,-1,1784,442,0,0
567,582,0,0,0,0,0,0,0,0,0,-1,1791,442,0,0
574,582,0,0,0,0,0,0,0,0,0,-1,1798,442,0,0
581,582,0,0,0,0,0,0,0,0,0,-1,1805,442,0,0
588,582,0,0,0,0,0,0,0,0,0,-1,1812,442,0,0
595,582,0,0,0,0,0,0,0,0,0,-1,1819,442,0,0
602,582,0,0,0,0,0,0,0,0,0,-1,1826,442,0,0
609,582,0,0,0,0,0,0,0,0,0,-1,1833,442,0,0
616,582,0,0,0,0,0,0,0,0,0,-1,1840,442,0,0
623,582,0,0,0,0,0,0,0,0,0,-1,1847,442,0,0
630,582,0,0,0,0,0,0,0,0,0,-1,1854,442,0,0
637,582,0,0,0,0,0,0,0,0,0,-1,1861,442,0,0
644,582,0,0,0,0,0,0,0,0,0,-1,1868,442,0,0
651,582,0,0,0,0,0,0,0,0,0,-1,1875,442,0,0
658,582,0,0,0,0,0,0,0,0,0,-1,1882,442,0,0
665,582,0,0,0,0,0,0,0,0,0,-1,1889,442,0,0
672,582,0,0,0,0,0,0,0,0,0,-1,1896,442,0,0
679,582,0,0,0,0,0,0,0,0,0,-1,1903,442,0,0
686,582,0,0,0,0,0,0,0,0,0,-1,1910,442,0,0
693,582,0,0,0,0,0,0,0,0,0,-1,1917,442,0,0
700,582,0,0,0,0,0,0,0,0,0,-1,1924,442,0,0
707,582,0,0,0,0,0,0,0,0,0,-1,1931,442,0,0
714,582,0,0,0,0,0,0,0,0,0,-1,1938,442,0,0
721,582,0,0,0,0,0,0,0,0,0,-1,1945,442,0,0
728,582,0,0,0,0,0,0,0,0,0,-1,1952,442,0,0
735,582,0,0,0,0,0,0,0,0,0,-1,1959,442,0,0
742,582,0,0,0,0,0,0,0,0,0,-1,1966,442,0,0
749,582,0,0,0,0,0,0,0,0,0,-1,1973,442,0,0
756,582,0,0,0,0,0,0,0,0,0,-1,1980,442,0,0
763,582,0,0,0,0,0,0,0,0,0,-1,1987,442,0,0
770,582,0,0,0,0,0,0,0,0,0,-1,1994,442,0,0
777,582,0,0,0,0,0,0,0,0,0,-1,2001,442,0,0
784,582,0,0,0,0,0,0,0,0,0,-1,2008,442,0,0
791,582,0,0,0,0,0,0,0,0,0,-1,2015,442,0,0
798,582,0,0,0,0,0,0,0,0,0,-1,2022,442,0,0
805,582,0,0,0,0,0,0,0,0,0,-1,2029,442,0,0
812,582,0,0,0,0,0,0,0,0,0,-1,2036,442,0,0
-700,575,0,0,0,0,0,0,0,0,0,-1,524,449,0,0
-693,575,0,0,0,0,0,0,0,0,0,-1,531,449,0,0
-686,575,0,0,0,0,0,0,0,0,0,-1,538,449,0,0
-679,575,0,0,0,0,0,0,0,0,0,-1,545,449,0,0
-672,575,0,0,0,0,0,0,0,0,0,-1,552,449,0,0
-665,575,0,0,0,0,0,0,0,0,0,-1,559,449,0,0
-658,575,0,0,0,0,0,0,0,0,0,-1,566,449,0,0
-651,575,0,0,0,0,0,0,0,0,0,-1,573,449,0,0
-644,575,0,0,0,0,0,0,0,0,0,-1,580,449,0,0
-637,575,0,0,0,0,0,0,0,0,0,-1,587,449,0,0
-630,575,0,0,0,0,0,0,0,0,0,-1,594,449,0,0
-623,575,0,0,0,0,0,0,0,0,0,-1,601,449,0,0
-616,575,0,0,0,0,0,0,0,0,0,-1,608,449,0,0
-609,575,0,0,0,0,0,0,0,0,0,-1,615,449,0,0
-602,575,0,0,0,0,0,0,0,0,0,-1,622,449,0,0
-595,575,0,0,0,0,0,0,0,0,0,-1,629,449,0,0
-588,575,0,0,0,0,0,0,0,0,0,-1,636,449,0,0
-581,575,0,0,0,0,0,0,0,0,0,-1,643,449,0,0
-574,575,0,0,0,0,0,0,0,0,0,-1,650,449,0,0
-567,575,0,0,0,0,0,0,0,0,0,-1,657,449,0,0
-560,575,0,0,0,0,0,0,0,0,0,-1,664,449,0,0
-553,575,0,0,0,0,0,0,0,0,0,-1,671,449,0,0
-546,575,0,0,0,0,0,0,0,0,0,-1,678,449,0,0
-539,575,0,0,0,0,0,0,0,0,0,-1,685,449,0,0
-532,575,0,0,0,0,0,0,0,0,0,-1,692,449,0,0
-525,575,0,0,0,0,0,0,0,0,0,-1,699,449,0,0
-518,575,0,0,0,0,0,0,0,0,0,-1,706,449,0,0
-511,575,0,0,0,0,0,0,0,0,0,-1,713,449,0,0
-504,575,0,0,0,0,0,0,0,0,0,-1,720,449,0,0
-497,575,0,0,0,0,0,0,0,0,0,-1,727,449,0,0
-490,575,0,0,0,0,0,0,0,0,0,-1,734,449,0,0
-483,575,0,0,0,0,0,0,0,0,0,-1,741,449,0,0
-476,575,0,0,0,0,0,0,0,0,0,-1,748,449,0,0
-469,575,0,0,0,0,0,0,0,0,0,-1,755,449,0,0
-462,575,0,0,0,0,0,0,0,0,0,-1,762,449,0,0
-455,575,0,0,0,0,0,0,0,0,0,-1,769,449,0,0
-448,575,0,0,0,0,0,0,0,0,0,-1,776,449,0,0
-441,575,0,0,0,0,0,0,0,0,0,-1,783,449,0,0
-434,575,0,0,0,0,0,0,0,0,0,-1,790,449,0,0
-427,575,0,0,0,0,0,0,0,0,0,-1,797,449,0,0
-420,575,0,0,0,0,0,0,0,0,0,-1,804,449,0,0
-413,575,0,0,0,0,0,0,0,0,0,-1,811,449,0,0
-406,575,0,0,0,0,0,0,0,0,0,-1,818,449,0,0
-399,575,0,0,0,0,0,0,0,0,0,-1,825,449,0,0
-392,575,0,0,0,0,0,0,0,0,0,-1,832,449,0,0
-385,575,0,0,0,0,0,0,0,0,0,-1,839,449,0,0
-378,575,0,0,0,0,0,0,0,0,0,-1,846,449,0,0
-371,575,0.56897,-3.52304,0,0,0,0,0,0,0,-1,853,449,0.568955,3.52306
-364,575,1.49805,-4.67191,0,0,0,0,0,0,0,-1,860,449,1.49803,4.6719
-357,575,3.15521,-8.29892,0,0,0,0,0,0,0,-1,867,449,3.15521,8.29891
-350,575,-0.825928,-18.5347,0,0,0,0,0,0,0,-1,874,449,-0.825948,18.5347
-343,575,0.465393,-16.3569,0,0,0,0,0,0,0,-1,881,449,0.465397,16.3569
-336,575,0.479309,-15.4891,0,0,0,0,0,0,0,-1,888,449,0.479336,15.4891
-329,575,1.30243,-13.5379,0,0,0,0,0,0,0,-1,895,449,1.3024,13.5379
-322,575,1.487,-14.4264,0,0,0,0,0,0,0,-1,902,449,1.48697,14.4264
-315,575,1.64032,-14.6189,-0.000578565,-0.00542416,-0.00966811,0.0069657,-0.0129684,-0.662628,0.0116816,0.0456581,909,449,1.64034,14.6189
-308,575,1.81366,-14.7792,-0.000983076,-0.00536533,-0.00916133,0.00624551,-0.0125939,-0.668018,0.0110809,0.0434473,916,449,1.81363,14.7792
-301,575,1.97742,-14.894,-0.00144423,-0.00514777,-0.00846247,0.0053667,-0.0119587,-0.677685,0.0102413,0.0327552,923,449,1.97742,14.894
-294,575,1.93518,-15.2322,-0.00208785,-0.00497531,-0.00748425,0.00409064,-0.0111538,-0.690117,0.00911085,0.024682,930,449,1.9352,15.2322
-287,575,1.91217,-15.6004,-0.00234772,-0.00444299,-0.00663522,0.00332206,-0.0101128,-0.7071,0.00808014,0.0178808,937,449,1.91218,15.6004
-280,575,1.91205,-15.9205,-0.00240287,-0.00387367,-0.00563635,0.00254586,-0.0088224,-0.720527,0.00688885,0.0131624,944,449,1.91207,15.9205
-273,575,1.89148,-16.2584,-0.00234207,-0.00340054,-0.00459519,0.00175426,-0.00749688,-0.728065,0.0056738,0.0109127,951,449,1.89148,16.2584
-266,575,1.88068,-16.5921,-0.00219509,-0.00293513,-0.00367701,0.00113047,-0.00626069,-0.735252,0.00459718,0.0119513,958,449,1.8807,16.5921
-259,575,1.86163,-16.9051,-0.00195697,-0.00236956,-0.00280624,0.000650554,-0.00497708,-0.748708,0.0035548,0.011524,965,449,1.86163,16.9051
-252,575,1.8252,-17.2057,-0.00162429,-0.00233698,-0.00203427,8.46116e-05,-0.00404588,-0.698692,0.00272589,0.0105017,972,449,1.82518,17.2057
-245,575,1.80933,-17.5007,-0.000996348,-0.00215896,-0.00137376,-8.59706e-05,-0.00306934,-0.585246,0.00201818,0.0142892,979,449,1.80931,17.5007
-238,575,1.83301,-17.7827,-0.000232677,-0.00198124,-0.000761977,5.27728e-05,-0.00226669,-0.358436,0.00152902,0.01486,986,449,1.83298,17.7827
-231,575,1.81415,-18.0594,0.000326104,-0.00187004,-0.000180552,0.000340848,-0.00188479,-0.0814841,0.0013842,0.012599,993,449,1.81413,18.0594
-224,575,1.79962,-18.3286,0.000706074,-0.00225407,0.00017071,0.000715887,-0.00226388,0.0574159,0.00179608,0.0128366,1000,449,1.79965,18.3286
-217,575,1.80646,-18.6039,0.00107136,-0.0026097,0.000480729,0.0011331,-0.00267144,0.127742,0.00225561,0.010956,1007,449,1.80645,18.6039
-210,575,1.81537,-18.9097,0.00133601,-0.00277976,0.000649777,0.00143616,-0.00287991,0.152921,0.00253793,0.00905297,1014,449,1.81538,18.9097
-203,575,1.81677,-19.1674,0.00151267,-0.00275956,0.000800283,0.00165766,-0.00290455,0.179229,0.00266658,0.0121418,1021,449,1.81675,19.1674
-196,575,1.82336,-19.4242,0.00164929,-0.00238595,0.00112567,0.00194206,-0.00267872,0.254452,0.00267909,0.0158029,1028,449,1.82337,19.4242
-189,575,1.84839,-19.6684,0.00172391,-0.00201766,0.00131389,0.0021392,-0.00243295,0.306141,0.00264155,0.0163032,1035,449,1.84838,19.6684
-182,575,1.8363,-19.898,0.00175162,-0.00147933,0.00161852,0.00242293,-0.00215064,0.39317,0.00264211,0.0134206,1042,449,1.8363,19.898
-175,575,1.85596,-20.1349,0.00196247,-0.00139032,0.00185458,0.00278603,-0.00221389,0.41791,0.00289299,0.0105581,1049,449,1.856,20.1349
-168,575,1.8634,-20.3647,0.00227329,-0.00153225,0.00198555,0.00312061,-0.00237956,0.403343,0.00318512,0.0101943,1056,449,1.86344,20.3647
-161,575,1.87244,-20.588,0.00272658,-0.00212169,0.00184493,0.00334878,-0.0027439,0.325274,0.00352339,0.015105,1063,449,1.87239,20.5879
-154,575,1.88599,-20.8016,0.00326157,-0.00267593,0.00198881,0.00386618,-0.00328054,0.295124,0.00413077,0.0181,1070,449,1.88604,20.8016
-147,575,1.94189,-20.9695,0.00419007,-0.00406947,0.00204953,0.00467068,-0.00455008,0.230335,0.00532376,0.017856,1077,449,1.94194,20.9694
-140,575,1.88855,-21.1095,0.00518115,-0.00587446,0.00183022,0.00547626,-0.00616957,0.159867,0.00672769,0.0259855,1084,449,1.88855,21.1095
-133,575,1.99084,-21.2973,0.0063482,-0.00819541,0.00148449,0.00649818,-0.00834539,0.100688,0.00859203,0.0345469,1091,449,1.99082,21.2973
-126,575,2.14063,-21.1332,0.00782759,-0.011328,0.00105406,0.00788542,-0.0113858,0.0548056,0.0111873,0.0383767,1098,449,2.14056,21.1332
-119,575,2.16724,-21.2673,0.00960614,-0.0140992,0.000299789,0.00960993,-0.014103,0.0126438,0.0137724,0.0361305,1105,449,2.1672,21.2673
-112,575,2.44788,-21.4273,0.0114323,-0.0168463,-0.000502109,0.0114412,-0.0168552,-0.0177483,0.0164364,0.0468509,1112,449,2.44793,21.4273
-105,575,2.0061,-22.3414,0,0,0,0,0,0,0,-1,1119,449,2.00616,22.3414
-98,575,2.20935,-22.1433,0,0,0,0,0,0,0,-1,1126,449,2.20931,22.1433
-91,575,1.60803,-16.4247,0,0,0,0,0,0,0,-1,1133,449,1.60802,16.4247
-84,575,1.16553,-11.9056,0,0,0,0,0,0,0,-1,1140,449,1.16558,11.9056
-77,575,0.205078,-11.2584,0,0,0,0,0,0,0,-1,1147,449,0.205117,11.2584
-70,575,-4.2467,-1.78738,0,0,0,0,0,0,0,-1,1154,449,-4.24674,1.78739
-63,575,-4.52209,-3.48798,0,0,0,0,0,0,0,-1,1161,449,-4.5221,3.48796
-56,575,-5.5968,-5.4928,0,0,0,0,0,0,0,-1,1168,449,-5.59683,5.49281
-49,575,-5.96863,-7.17612,0,0,0,0,0,0,0,-1,1175,449,-5.96868,7.1761
-42,575,-0.830322,0.773499,0,0,0,0,0,0,0,-1,1182,449,-0.83038,-0.77351
-35,575,-0.62085,0.205139,0,0,0,0,0,0,0,-1,1189,449,-0.620855,-0.205126
-28,575,0.49292,-3.87988,0,0,0,0,0,0,0,-1,1196,449,0.492941,3.87989
-21,575,3.30762,-20.2183,0,0,0,0,0,0,0,-1,1203,449,3.30759,20.2183
-14,575,3.35339,-21.2718,0.0439383,0.116498,-0.0343821,0.130201,0.0302346,-1.19152,0.0786835,0.0462612,1210,449,3.35341,21.2718
-7,575,3.40833,-22.3339,0.0394607,0.101389,-0.0303621,0.113791,0.0270585,-1.183,0.0686425,0.0447623,1217,449,3.40835,22.3339
0,575,3.50793,-23.2259,0,0,0,0,0,0,0,-1,1224,449,3.50793,23.2259
7,575,3.77014,-23.6238,0,0,0,0,0,0,0,-1,1231,449,3.77011,23.6238
14,575,4.05664,-23.5615,0,0,0,0,0,0,0,-1,1238,449,4.05658,23.5614
21,575,3.50012,-24.265,0.0149337,0.0473097,-0.0098222,0.0500565,0.0121869,-1.29811,0.0301415,0.0430171,1245,449,3.50017,24.265
28,575,3.41235,-24.0876,0.0089163,0.0386685,-0.00543982,0.0396319,0.00795289,-1.39551,0.0242097,0.0423657,1252,449,3.41238,24.0876
35,575,3.00916,-24.1445,0.00409823,0.03253,-0.00179311,0.0326427,0.00398559,-1.50806,0.0205624,0.0430446,1259,449,3.0091,24.1445
42,575,2.53516,-23.9604,0.00173951,0.0274525,0.000189695,0.0274539,0.00173811,1.56342,0.0177516,0.0429317,1266,449,2.5352,23.9604
49,575,4.14905,-24.8197,0,0,0,0,0,0,0,-1,1273,449,4.14905,24.8197
56,575,2.89099,-23.8821,0,0,0,0,0,0,0,-1,1280,449,2.89099,23.8821
63,575,2.44141,-23.1098,0,0,0,0,0,0,0,-1,1287,449,2.44147,23.1098
70,575,3.1228,-23.4889,0,0,0,0,0,0,0,-1,1294,449,3.12276,23.4889
77,575,2.92456,-23.2626,0,0,0,0,0,0,0,-1,1301,449,2.9245,23.2626
84,575,2.8739,-23.4856,0,0,0,0,0,0,0,-1,1308,449,2.87386,23.4856
91,575,2.95544,-23.7877,0,0,0,0,0,0,0,-1,1315,449,2.95541,23.7877
98,575,6.26685,-23.8899,0.0157931,0.0319335,-0.0273186,0.052349,-0.00462236,-0.929018,0.0365377,0.043855,1322,449,6.26685,23.8899
105,575,6.10339,-24.1762,0.0183453,0.0288777,-0.0316026,0.0556498,-0.00842693,-0.867959,0.0402043,0.0407972,1329,449,6.10345,24.1762
112,575,6.13013,-24.1023,0,0,0,0,0,0,0,-1,1336,449,6.13012,24.1023
119,575,3.19714,-22.9163,0,0,0,0,0,0,0,-1,1343,449,3.19719,22.9163
126,575,4.43115,-22.3431,0,0,0,0,0,0,0,-1,1350,449,4.43117,22.3431
133,575,5.87244,-21.8578,0,0,0,0,0,0,0,-1,1357,449,5.87238,21.8578
140,575,6.91724,-21.8946,0,0,0,0,0,0,0,-1,1364,449,6.91723,21.8946
147,575,5.97266,-22.6791,0,0,0,0,0,0,0,-1,1371,449,5.97266,22.6791
154,575,6.87549,-21.7477,0,0,0,0,0,0,0,-1,1378,449,6.8755,21.7477
161,575,4.54761,-21.5986,0,0,0,0,0,0,0,-1,1385,449,4.54758,21.5986
168,575,4.30603,-21.5567,0,0,0,0,0,0,0,-1,1392,449,4.30599,21.5567
175,575,4.32617,1.93634,0,0,0,0,0,0,0,-1,1399,449,4.32612,-1.93634
182,575,6.3147,-2.88345,0,0,0,0,0,0,0,-1,1406,449,6.31466,2.88346
189,575,6.10449,-1.30817,0,0,0,0,0,0,0,-1,1413,449,6.10455,1.30817
196,575,5.79895,0.818359,0,0,0,0,0,0,0,-1,1420,449,5.79895,-0.81837
203,575,3.29724,-1.46378,0,0,0,0,0,0,0,-1,1427,449,3.29722,1.46377
210,575,2.32739,-7.74503,0,0,0,0,0,0,0,-1,1434,449,2.32741,7.74502
217,575,3.33618,-11.5521,0,0,0,0,0,0,0,-1,1441,449,3.3362,11.5521
224,575,5.51709,-16.3903,0,0,0,0,0,0,0,-1,1448,449,5.51713,16.3903
231,575,5.48572,-20.4595,0,0,0,0,0,0,0,-1,1455,449,5.48571,20.4595
238,575,5.479,-21.3519,0,0,0,0,0,0,0,-1,1462,449,5.47902,21.3519
245,575,5.43481,-21.2073,0,0,0,0,0,0,0,-1,1469,449,5.43478,21.2073
252,575,5.3573,-21.3909,0,0,0,0,0,0,0,-1,1476,449,5.35726,21.3909
259,575,5.20435,-21.2334,0,0,0,0,0,0,0,-1,1483,449,5.20432,21.2334
266,575,5.24561,-20.8564,0,0,0,0,0,0,0,-1,1490,449,5.24561,20.8563
273,575,5.31836,-20.4473,0,0,0,0,0,0,0,-1,1497,449,5.31835,20.4473
280,575,5.3374,-20.1401,0,0,0,0,0,0,0,-1,1504,449,5.33743,20.1401
287,575,5.34082,-19.8779,0.00444488,-0.00116981,-0.000137494,0.00444825,-0.00117317,-0.0244687,0.00342421,0.0228438,1511,449,5.34084,19.8779
294,575,5.41956,-19.5983,0.00416542,-0.00132481,-0.000328574,0.00418502,-0.00134441,-0.0595637,0.00332987,0.0116625,1518,449,5.41961,19.5983
301,575,5.43835,-19.3304,0.00375176,-0.0013379,-0.00044888,0.00379105,-0.00137719,-0.0872963,0.00309046,0.009921,1525,449,5.43838,19.3304
308,575,5.45862,-19.0711,0.00325673,-0.00157643,-0.000535823,0.00331542,-0.00163512,-0.109099,0.00291255,0.00994228,1532,449,5.45856,19.0711
315,575,5.45386,-18.7975,0.00261891,-0.00150803,-0.000609901,0.00270715,-0.00159628,-0.143694,0.00251203,0.0108544,1539,449,5.45391,18.7975
322,575,5.4707,-18.5103,0.00201445,-0.00120269,-0.000541403,0.00210312,-0.00129135,-0.162332,0.00197839,0.0100783,1546,449,5.47068,18.5103
329,575,5.45825,-18.2214,0.00152564,-0.000786816,-0.000370198,0.00158346,-0.000844635,-0.154932,0.00142333,0.0108554,1553,449,5.45829,18.2214
336,575,5.4314,-17.9271,0.00108786,-0.000355894,-0.000174944,0.00110876,-0.00037679,-0.118881,0.000891711,0.0130748,1560,449,5.43144,17.9271
343,575,5.45679,-17.625,0.000651592,6.12559e-05,1.6259e-05,0.00065204,6.08084e-05,0.0275141,0.000415908,0.0136517,1567,449,5.45678,17.625
350,575,5.47217,-17.3241,0.000370249,0.000569423,0.000334362,0.000818713,0.000120958,0.930136,0.000510291,0.0129532,1574,449,5.47211,17.3241
357,575,5.46606,-17.0172,5.56155e-05,0.00109957,0.000619456,0.00138764,-0.000232461,1.1355,0.00101153,0.0113619,1581,449,5.46611,17.0172
364,575,5.44702,-16.7136,-0.000235671,0.00156398,0.000900299,0.00193703,-0.000608726,1.17797,0.00153504,0.0103639,1588,449,5.44699,16.7136
371,575,5.43616,-16.3956,-0.000453471,0.00197086,0.00115248,0.00243128,-0.000913894,1.19072,0.00199647,0.0191193,1595,449,5.43615,16.3956
378,575,5.43274,-16.0655,-0.000732199,0.00238688,0.00132675,0.00287488,-0.0012202,1.21834,0.00242778,0.0173992,1602,449,5.43268,16.0655
385,575,5.39685,-15.7457,-0.00109681,0.00273027,0.00134117,0.00315347,-0.00152002,1.26514,0.00275263,0.0105373,1609,449,5.3969,15.7457
392,575,5.40491,-15.4152,-0.00147438,0.00298358,0.00135084,0.00336096,-0.00185177,1.29837,0.00305132,0.00917817,1616,449,5.40489,15.4152
399,575,5.4071,-15.1043,-0.00183521,0.0031342,0.00134274,0.0034738,-0.00217481,1.32307,0.00328985,0.010059,1623,449,5.40713,15.1043
406,575,5.39001,-14.7461,-0.00226413,0.00325346,0.00125645,0.0035261,-0.00253677,1.35711,0.0035159,0.0110621,1630,449,5.38997,14.7461
413,575,5.36279,-14.3864,-0.00287308,0.00313224,0.00100079,0.00329463,-0.00303547,1.40994,0.0036557,0.0136426,1637,449,5.36277,14.3864
420,575,5.3313,-14.0269,-0.00339427,0.00247016,0.000417416,0.00249972,-0.00342383,1.50009,0.00343381,0.0137942,1644,449,5.33131,14.0268
427,575,5.28174,-13.6682,-0.00389598,0.000752652,-0.00021494,0.000762569,-0.0039059,-1.52469,0.00289183,0.0171849,1651,449,5.28174,13.6682
434,575,5.16846,-13.3674,-0.00359648,-0.000642227,-0.000231743,-0.000624158,-0.00361455,-1.49299,0.00223094,0.028321,1658,449,5.16848,13.3674
441,575,5.24622,-13.0595,0,0,0,0,0,0,0,-1,1665,449,5.24626,13.0595
448,575,5.39014,-12.6737,0,0,0,0,0,0,0,-1,1672,449,5.39017,12.6737
455,575,5.35046,-11.6857,0,0,0,0,0,0,0,-1,1679,449,5.35051,11.6857
462,575,4.57031,-10.2824,0,0,0,0,0,0,0,-1,1686,449,4.5703,10.2824
469,575,4.84106,-11.8983,0,0,0,0,0,0,0,-1,1693,449,4.84103,11.8983
476,575,4.92896,-11.8692,0,0,0,0,0,0,0,-1,1700,449,4.92901,11.8692
483,575,5.11255,-11.5059,0.00205654,-0.0202929,0.000481169,0.0020669,-0.0203033,0.021516,0.0142745,0.0490131,1707,449,5.11261,11.5059
490,575,5.32947,-10.9181,0,0,0,0,0,0,0,-1,1714,449,5.32945,10.9181
497,575,0,0,0,0,0,0,0,0,0,-1,1721,449,0,0
504,575,0,0,0,0,0,0,0,0,0,-1,1728,449,0,0
511,575,0,0,0,0,0,0,0,0,0,-1,1735,449,0,0
518,575,0,0,0,0,0,0,0,0,0,-1,1742,449,0,0
525,575,0,0,0,0,0,0,0,0,0,-1,1749,449,0,0
532,575,0,0,0,0,0,0,0,0,0,-1,1756,449,0,0
539,575,0,0,0,0,0,0,0,0,0,-1,1763,449,0,0
546,575,0,0,0,0,0,0,0,0,0,-1,1770,449,0,0
553,575,0,0,0,0,0,0,0,0,0,-1,1777,449,0,0
560,575,0,0,0,0,0,0,0,0,0,-1,1784,449,0,0
567,575,0,0,0,0,0,0,0,0,0,-1,1791,449,0,0
574,575,0,0,0,0,0,0,0,0,0,-1,1798,449,0,0
581,575,0,0,0,0,0,0,0,0,0,-1,1805,449,0,0
588,575,0,0,0,0,0,0,0,0,0,-1,1812,449,0,0
595,575,0,0,0,0,0,0,0,0,0,-1,1819,449,0,0
602,575,0,0,0,0,0,0,0,0,0,-1,1826,449,0,0
609,575,0,0,0,0,0,0,0,0,0,-1,1833,449,0,0
616,575,0,0,0,0,0,0,0,0,0,-1,1840,449,0,0
623,575,0,0,0,0,0,0,0,0,0,-1,1847,449,0,0
630,575,0,0,0,0,0,0,0,0,0,-1,1854,449,0,0
637,575,0,0,0,0,0,0,0,0,0,-1,1861,449,0,0
644,575,0,0,0,0,0,0,0,0,0,-1,1868,449,0,0
651,575,0,0,0,0,0,0,0,0,0,-1,1875,449,0,0
658,575,0,0,0,0,0,0,0,0,0,-1,1882,449,0,0
665,575,0,0,0,0,0,0,0,0,0,-1,1889,449,0,0
672,575,0,0,0,0,0,0,0,0,0,-1,1896,449,0,0
679,575,0,0,0,0,0,0,0,0,0,-1,1903,449,0,0
686,575,0,0,0,0,0,0,0,0,0,-1,1910,449,0,0
693,575,0,0,0,0,0,0,0,0,0,-1,1917,449,0,0
700,575,0,0,0,0,0,0,0,0,0,-1,1924,449,0,0
707,575,0,0,0,0,0,0,0,0,0,-1,1931,449,0,0
714,575,0,0,0,0,0,0,0,0,0,-1,1938,449,0,0
721,575,0,0,0,0,0,0,0,0,0,-1,1945,449,0,0
728,575,0,0,0,0,0,0,0,0,0,-1,1952,449,0,0
735,575,0,0,0,0,0,0,0,0,0,-1,1959,449,0,0
742,575,0,0,0,0,0,0,0,0,0,-1,1966,449,0,0
749,575,0,0,0,0,0,0,0,0,0,-1,1973,449,0,0
756,575,0,0,0,0,0,0,0,0,0,-1,1980,449,0,0
763,575,0,0,0,0,0,0,0,0,0,-1,1987,449,0,0
770,575,0,0,0,0,0,0,0,0,0,-1,1994,449,0,0
777,575,0,0,0,0,0,0,0,0,0,-1,2001,449,0,0
784,575,0,0,0,0,0,0,0,0,0,-1,2008,449,0,0
791,575,0,0,0,0,0,0,0,0,0,-1,2015,449,0,0
798,575,0,0,0,0,0,0,0,0,0,-1,2022,449,0,0
805,575,0,0,0,0,0,0,0,0,0,-1,2029,449,0,0
812,575,0,0,0,0,0,0,0,0,0,-1,2036,449,0,0
-700,568,0,0,0,0,0,0,0,0,0,-1,524,456,0,0
-693,568,0,0,0,0,0,0,0,0,0,-1,531,456,0,0
-686,568,0,0,0,0,0,0,0,0,0,-1,538,456,0,0
-679,568,0,0,0,0,0,0,0,0,0,-1,545,456,0,0
-672,568,0,0,0,0,0,0,0,0,0,-1,552,456,0,0
-665,568,0,0,0,0,0,0,0,0,0,-1,559,456,0,0
-658,568,0,0,0,0,0,0,0,0,0,-1,566,456,0,0
-651,568,0,0,0,0,0,0,0,0,0,-1,573,456,0,0
-644,568,0,0,0,0,0,0,0,0,0,-1,580,456,0,0
-637,568,0,0,0,0,0,0,0,0,0,-1,587,456,0,0
-630,568,0,0,0,0,0,0,0,0,0,-1,594,456,0,0
-623,568,0,0,0,0,0,0,0,0,0,-1,601,456,0,0
-616,568,0,0,0,0,0,0,0,0,0,-1,608,456,0,0
-609,568,0,0,0,0,0,0,0,0,0,-1,615,456,0,0
-602,568,0,0,0,0,0,0,0,0,0,-1,622,456,0,0
-595,568,0,0,0,0,0,0,0,0,0,-1,629,456,0,0
-588,568,0,0,0,0,0,0,0,0,0,-1,636,456,0,0
-581,568,0,0,0,0,0,0,0,0,0,-1,643,456,0,0
-574,568,0,0,0,0,0,0,0,0,0,-1,650,456,0,0
-567,568,0,0,0,0,0,0,0,0,0,-1,657,456,0,0
-560,568,0,0,0,0,0,0,0,0,0,-1,664,456,0,0
-553,568,0,0,0,0,0,0,0,0,0,-1,671,456,0,0
-546,568,0,0,0,0,0,0,0,0,0,-1,678,456,0,0
-539,568,0,0,0,0,0,0,0,0,0,-1,685,456,0,0
-532,568,0,0,0,0,0,0,0,0,0,-1,692,456,0,0
-525,568,0,0,0,0,0,0,0,0,0,-1,699,456,0,0
-518,568,0,0,0,0,0,0,0,0,0,-1,706,456,0,0
-511,568,0,0,0,0,0,0,0,0,0,-1,713,456,0,0
-504,568,0,0,0,0,0,0,0,0,0,-1,720,456,0,0
-497,568,0,0,0,0,0,0,0,0,0,-1,727,456,0,0
-490,568,0,0,0,0,0,0,0,0,0,-1,734,456,0,0
-483,568,0,0,0,0,0,0,0,0,0,-1,741,456,0,0
-476,568,0,0,0,0,0,0,0,0,0,-1,748,456,0,0
-469,568,0,0,0,0,0,0,0,0,0,-1,755,456,0,0
-462,568,0,0,0,0,0,0,0,0,0,-1,762,456,0,0
-455,568,0,0,0,0,0,0,0,0,0,-1,769,456,0,0
-448,568,0,0,0,0,0,0,0,0,0,-1,776,456,0,0
-441,568,0,0,0,0,0,0,0,0,0,-1,783,456,0,0
-434,568,0,0,0,0,0,0,0,0,0,-1,790,456,0,0
-427,568,0,0,0,0,0,0,0,0,0,-1,797,456,0,0
-420,568,0,0,0,0,0,0,0,0,0,-1,804,456,0,0
-413,568,0,0,0,0,0,0,0,0,0,-1,811,456,0,0
-406,568,0,0,0,0,0,0,0,0,0,-1,818,456,0,0
-399,568,0,0,0,0,0,0,0,0,0,-1,825,456,0,0
-392,568,0,0,0,0,0,0,0,0,0,-1,832,456,0,0
-385,568,0,0,0,0,0,0,0,0,0,-1,839,456,0,0
-378,568,0.321777,-7.29929,0,0,0,0,0,0,0,-1,846,456,0.321806,7.29927
-371,568,1.09595,-7.46707,0,0,0,0,0,0,0,-1,853,456,1.09597,7.46707
-364,568,1.87787,-7.61115,0,0,0,0,0,0,0,-1,860,456,1.87784,7.61116
-357,568,2.14166,-7.67645,0,0,0,0,0,0,0,-1,867,456,2.14167,7.67646
-350,568,2.7467,-11.2507,0,0,0,0,0,0,0,-1,874,456,2.7467,11.2507
-343,568,2.16516,-11.3762,0,0,0,0,0,0,0,-1,881,456,2.16514,11.3762
-336,568,1.21582,-13.2122,0,0,0,0,0,0,0,-1,888,456,1.21583,13.2122
-329,568,1.29474,-13.5281,-0.000753482,-0.00277365,-0.00707538,0.00538355,-0.00891068,-0.714497,0.0083361,0.0470544,895,456,1.29473,13.5281
-322,568,1.40289,-13.8456,-0.000384867,-0.00294725,-0.00712565,0.00557385,-0.00890597,-0.696449,0.00843339,0.0428283,902,456,1.40292,13.8456
-315,568,1.74603,-14.1547,-0.000367046,-0.00310321,-0.0070155,0.00541252,-0.00888277,-0.689103,0.00833406,0.0384148,909,456,1.74606,14.1547
-308,568,1.68683,-14.6192,-0.000462354,-0.00308195,-0.00670111,0.00505576,-0.00860007,-0.688885,0.00797222,0.0275967,916,456,1.68681,14.6192
-301,568,1.66248,-14.9602,-0.000690546,-0.00301968,-0.00619735,0.0044507,-0.00816093,-0.692524,0.00738561,0.0158945,923,456,1.66247,14.9602
-294,568,1.63226,-15.2671,-0.00107079,-0.00303475,-0.00546902,0.00350371,-0.00760925,-0.696568,0.0065604,0.0125958,930,456,1.63229,15.2671
-287,568,1.61169,-15.6062,-0.00114206,-0.00280992,-0.00485883,0.00295389,-0.00690587,-0.70041,0.00584297,0.0113011,937,456,1.61169,15.6062
-280,568,1.6048,-15.9492,-0.00114606,-0.00264489,-0.00408515,0.00225785,-0.0060488,-0.694682,0.00495953,0.0108423,944,456,1.60478,15.9492
-273,568,1.60303,-16.2715,-0.00108848,-0.00260765,-0.00322727,0.00146739,-0.00516352,-0.669819,0.00402172,0.0119574,951,456,1.60304,16.2715
-266,568,1.5824,-16.5905,-0.000937318,-0.00264454,-0.00246455,0.000817258,-0.00439912,-0.618686,0.00323971,0.011641,958,456,1.58241,16.5905
-259,568,1.56201,-16.9032,-0.000691822,-0.002594,-0.00174764,0.000346769,-0.00363259,-0.536203,0.00254521,0.0121408,965,456,1.56202,16.9032
-252,568,1.53271,-17.1984,-0.00037061,-0.00296044,-0.00110679,3.79394e-05,-0.00336898,-0.353615,0.00225874,0.0120982,972,456,1.53269,17.1984
-245,568,1.51074,-17.4792,0.00020129,-0.0032774,-0.000523889,0.000278475,-0.00335458,-0.146278,0.00233476,0.0137334,979,456,1.51072,17.4792
-238,568,1.5318,-17.7632,0.00086545,-0.00364132,4.62617e-05,0.000865925,-0.00364179,0.0102635,0.00276212,0.012662,986,456,1.53181,17.7632
-231,568,1.53113,-18.0454,0.00135958,-0.00401076,0.000576355,0.00142074,-0.00407192,0.105718,0.00329202,0.0111852,993,456,1.5311,18.0454
-224,568,1.50482,-18.3099,0.0017131,-0.00464964,0.000956549,0.00185379,-0.00479033,0.146037,0.00395891,0.0130248,1000,456,1.5048,18.3099
-217,568,1.52673,-18.5879,0.00202526,-0.00517822,0.0012827,0.00224685,-0.00539981,0.171064,0.00453817,0.0116319,1007,456,1.52674,18.5879
-210,568,1.54688,-18.8825,0.00222559,-0.00537774,0.00141692,0.00248105,-0.00563321,0.178381,0.00480115,0.0108321,1014,456,1.54688,18.8825
-203,568,1.55359,-19.1568,0.00233484,-0.00518956,0.00156735,0.00264827,-0.00550298,0.197369,0.00480137,0.0100184,1021,456,1.55359,19.1568
-196,568,1.59985,-19.3809,0.00240317,-0.00449365,0.00193578,0.00290935,-0.00499983,0.25576,0.00461923,0.0133681,1028,456,1.5999,19.3809
-189,568,1.60596,-19.6373,0.00234968,-0.00380709,0.00212453,0.00301163,-0.00446904,0.30204,0.0043462,0.013558,1035,456,1.60598,19.6373
-182,568,1.6156,-19.9026,0.00224654,-0.00272696,0.00244947,0.00325033,-0.00373075,0.388923,0.0040337,0.0138734,1042,456,1.61554,19.9027
-175,568,1.63342,-20.1267,0.00247762,-0.0021373,0.00268046,0.00370699,-0.00336668,0.43002,0.00408556,0.0115801,1049,456,1.63345,20.1267
-168,568,1.6178,-20.2919,0.00281652,-0.00179923,0.00274343,0.00409371,-0.00307642,0.435706,0.00415354,0.0166779,1056,456,1.61782,20.2919
-161,568,1.59717,-20.4818,0.00327452,-0.00199074,0.002498,0.00427104,-0.00298726,0.379582,0.00421238,0.0314979,1063,456,1.59716,20.4818
-154,568,1.74878,-20.9466,0.0038412,-0.0022848,0.0026746,0.00484458,-0.00328819,0.358904,0.00472403,0.0421173,1070,456,1.7488,20.9466
-147,568,1.74731,-21.1136,0.00497317,-0.00389257,0.00276615,0.00576542,-0.00468482,0.278943,0.00604419,0.0465473,1077,456,1.74729,21.1136
-140,568,1.80005,-21.1404,0.00623999,-0.00612335,0.00244401,0.00670559,-0.00658896,0.188252,0.00767571,0.0451573,1084,456,1.8,21.1404
-133,568,1.80017,-20.9754,0,0,0,0,0,0,0,-1,1091,456,1.80016,20.9754
-126,568,2.07642,-20.5292,0,0,0,0,0,0,0,-1,1098,456,2.07637,20.5292
-119,568,1.9292,-20.7531,0,0,0,0,0,0,0,-1,1105,456,1.92918,20.7532
-112,568,2.58337,-20.8049,0,0,0,0,0,0,0,-1,1112,456,2.58332,20.8049
-105,568,0.272095,-16.297,0,0,0,0,0,0,0,-1,1119,456,0.272141,16.297
-98,568,1.58618,-14.7874,0,0,0,0,0,0,0,-1,1126,456,1.58617,14.7874
-91,568,1.11621,-11.1853,0,0,0,0,0,0,0,-1,1133,456,1.11626,11.1853
-84,568,0.461792,-9.7959,0,0,0,0,0,0,0,-1,1140,456,0.461793,9.7959
-77,568,-1.13806,-8.57822,0,0,0,0,0,0,0,-1,1147,456,-1.13807,8.57821
-70,568,-4.09766,-1.42911,0,0,0,0,0,0,0,-1,1154,456,-4.09767,1.4291
-63,568,-5.92273,-3.70752,0,0,0,0,0,0,0,-1,1161,456,-5.92272,3.70751
-56,568,-5.24158,-6.01385,0,0,0,0,0,0,0,-1,1168,456,-5.24161,6.01386
-49,568,-5.24365,-8.33557,0,0,0,0,0,0,0,-1,1175,456,-5.24371,8.33557
-42,568,-0.664795,0.521973,0,0,0,0,0,0,0,-1,1182,456,-0.664829,-0.521984
-35,568,-0.153076,-1.67731,0,0,0,0,0,0,0,-1,1189,456,-0.153068,1.67731
-28,568,1.25439,-4.48798,0,0,0,0,0,0,0,-1,1196,456,1.2544,4.48797
-21,568,3.21875,-21.0089,0,0,0,0,0,0,0,-1,1203,456,3.2188,21.0089
-14,568,3.00513,-22.2545,0.0514119,0.157055,-0.0441326,0.173065,0.0354018,-1.22279,0.105573,0.0448184,1210,456,3.00518,22.2545
-7,568,2.96863,-23.6111,0.0454983,0.136284,-0.0387128,0.15055,0.0312321,-1.21773,0.0917454,0.0444921,1217,456,2.96859,23.6111
0,568,3.67786,-23.668,0,0,0,0,0,0,0,-1,1224,456,3.67791,23.668
7,568,3.62366,-24.8232,0,0,0,0,0,0,0,-1,1231,456,3.62371,24.8232
14,568,3.45715,-24.7592,0,0,0,0,0,0,0,-1,1238,456,3.45712,24.7592
21,568,3.32471,-24.6963,0.0156247,0.0626629,-0.0136483,0.0663362,0.0119514,-1.30789,0.0408276,0.0425038,1245,456,3.32468,24.6962
28,568,3.16846,-24.6214,0.00882344,0.0511628,-0.00849128,0.0528022,0.00718397,-1.38007,0.033068,0.0432559,1252,456,3.1684,24.6214
35,568,3.06873,-24.5784,0.00350618,0.0429277,-0.00433563,0.0433989,0.00303498,-1.46254,0.0279759,0.0433053,1259,456,3.06874,24.5784
42,568,2.99756,-24.4737,0.000167954,0.0355916,-0.00153879,0.0356583,0.000101237,-1.52747,0.0237385,0.0432792,1266,456,2.99752,24.4737
49,568,3.05139,-24.2724,-0.00119454,0.0326034,-0.000666082,0.0326165,-0.00120766,-1.5511,0.0221579,0.0444539,1273,456,3.05136,24.2724
56,568,2.89453,-24.0273,-0.000421884,0.0359165,-0.00421786,0.0363997,-0.000905035,-1.45674,0.0245737,0.0445426,1280,456,2.89449,24.0273
63,568,2.72266,-23.7958,0,0,0,0,0,0,0,-1,1287,456,2.72264,23.7959
70,568,1.93286,-23.0217,0,0,0,0,0,0,0,-1,1294,456,1.93289,23.0217
77,568,1.94495,-22.6496,0,0,0,0,0,0,0,-1,1301,456,1.94499,22.6496
84,568,2.4729,-23.4354,0,0,0,0,0,0,0,-1,1308,456,2.47286,23.4354
91,568,7.30042,-24.4371,0,0,0,0,0,0,0,-1,1315,456,7.30042,24.4371
98,568,6.91284,-24.5128,0.0121415,0.0431808,-0.0324491,0.0636306,-0.00830834,-1.00846,0.0454438,0.0456612,1322,456,6.91286,24.5128
105,568,6.60974,-24.5494,0.0138781,0.040391,-0.037184,0.0666109,-0.0123419,-0.956629,0.0490417,0.0454416,1329,456,6.60971,24.5494
112,568,6.35742,-24.5119,0,0,0,0,0,0,0,-1,1336,456,6.35741,24.5119
119,568,5.89111,-24.1527,0,0,0,0,0,0,0,-1,1343,456,5.8911,24.1527
126,568,4.33911,-21.9879,0,0,0,0,0,0,0,-1,1350,456,4.33915,21.9879
133,568,6.07861,-21.58,0,0,0,0,0,0,0,-1,1357,456,6.0786,21.58
140,568,4.79004,-22.2064,0,0,0,0,0,0,0,-1,1364,456,4.78998,22.2064
147,568,5.89075,-22.0089,0,0,0,0,0,0,0,-1,1371,456,5.89081,22.0089
154,568,6.97852,-21.7719,0,0,0,0,0,0,0,-1,1378,456,6.9785,21.7719
161,568,8.06201,-21.5999,0,0,0,0,0,0,0,-1,1385,456,8.062,21.5999
168,568,4.39075,-21.5911,0,0,0,0,0,0,0,-1,1392,456,4.39076,21.5911
175,568,10.5151,0.747498,0,0,0,0,0,0,0,-1,1399,456,10.5152,-0.747501
182,568,6.35095,-3.63361,0,0,0,0,0,0,0,-1,1406,456,6.35093,3.63359
189,568,6.17493,-1.70911,0,0,0,0,0,0,0,-1,1413,456,6.17497,1.70911
196,568,6.04724,0.200836,0,0,0,0,0,0,0,-1,1420,456,6.04724,-0.200835
203,568,5.9281,2.08649,0,0,0,0,0,0,0,-1,1427,456,5.92812,-2.08648
210,568,1.46216,-2.50446,0,0,0,0,0,0,0,-1,1434,456,1.46219,2.50446
217,568,2.62366,-7.86703,0,0,0,0,0,0,0,-1,1441,456,2.62365,7.86704
224,568,3.43494,-12.1555,0,0,0,0,0,0,0,-1,1448,456,3.43492,12.1555
231,568,4.38245,-9.3205,0,0,0,0,0,0,0,-1,1455,456,4.38244,9.32048
238,568,5.88879,-20.7448,0,0,0,0,0,0,0,-1,1462,456,5.88876,20.7449
245,568,3.34387,-10.6774,0,0,0,0,0,0,0,-1,1469,456,3.34389,10.6774
252,568,3.56946,-9.28928,0,0,0,0,0,0,0,-1,1476,456,3.56948,9.28928
259,568,3.38843,-8.73068,0,0,0,0,0,0,0,-1,1483,456,3.38842,8.73068
266,568,3.104,-9.16876,0,0,0,0,0,0,0,-1,1490,456,3.10397,9.16876
273,568,3.77869,-13.1147,0,0,0,0,0,0,0,-1,1497,456,3.77869,13.1147
280,568,4.40002,-14.9322,0,0,0,0,0,0,0,-1,1504,456,4.4,14.9322
287,568,5.61255,-19.9716,0,0,0,0,0,0,0,-1,1511,456,5.61252,19.9717
294,568,5.72083,-19.5514,0.00551377,-0.00249091,-0.000596357,0.00555795,-0.00253509,-0.073957,0.00477993,0.0328812,1518,456,5.72086,19.5513
301,568,5.69165,-19.2926,0.00491777,-0.0024911,-0.000848747,0.00501376,-0.00258708,-0.112615,0.00446227,0.0206825,1525,456,5.69167,19.2926
308,568,5.70374,-19.0193,0.00418193,-0.00286511,-0.00110524,0.00435121,-0.00303439,-0.151977,0.00428661,0.0131919,1532,456,5.70376,19.0193
315,568,5.73254,-18.784,0.00328269,-0.00281273,-0.0013011,0.0035488,-0.00307884,-0.201744,0.00382968,0.00827344,1539,456,5.73251,18.784
322,568,5.73682,-18.5026,0.00249317,-0.00246004,-0.00128488,0.00280663,-0.0027735,-0.23929,0.00322171,0.010085,1546,456,5.73683,18.5026
329,568,5.72864,-18.1949,0.00189939,-0.00195552,-0.00113022,0.00220632,-0.00226245,-0.265172,0.00258012,0.0108355,1553,456,5.72858,18.1949
336,568,5.72876,-17.8947,0.00138143,-0.00144732,-0.000940165,0.0016654,-0.00173129,-0.293327,0.0019612,0.0117599,1560,456,5.72879,17.8947
343,568,5.76318,-17.6034,0.000859737,-0.00093901,-0.000732972,0.00112059,-0.00119986,-0.341905,0.00133997,0.012787,1567,456,5.76321,17.6034
350,568,5.77502,-17.327,0.00053665,-0.000408627,-0.000403993,0.000685781,-0.000557758,-0.353626,0.000719225,0.0112054,1574,456,5.77497,17.327
357,568,5.7644,-17.0273,0.000207552,0.000199426,-0.000105582,0.000309149,9.78288e-05,-0.766166,0.000182452,0.00925956,1581,456,5.76443,17.0272
364,568,5.77991,-16.7265,-3.23329e-05,0.000697799,0.000258637,0.000780132,-0.000114666,1.2626,0.000562221,0.0112411,1588,456,5.77996,16.7265
371,568,5.78345,-16.3743,-0.000184707,0.00111181,0.000583709,0.00133588,-0.000408775,1.20427,0.00105362,0.0211265,1595,456,5.78347,16.3743
378,568,5.76929,-16.0538,-0.00037077,0.00150879,0.00081402,0.00181232,-0.000674298,1.21389,0.00148492,0.0195608,1602,456,5.76932,16.0538
385,568,5.73328,-15.7682,-0.000623083,0.00192041,0.00092711,0.00222247,-0.000925145,1.25583,0.00186802,0.00970561,1609,456,5.73323,15.7682
392,568,5.71167,-15.4325,-0.000917418,0.00217916,0.00099073,0.002469,-0.00120727,1.28618,0.00216376,0.0109828,1616,456,5.71169,15.4325
399,568,5.67212,-15.1011,-0.00119189,0.00231043,0.00103614,0.002594,-0.00147546,1.30365,0.0023789,0.0181197,1623,456,5.67216,15.1011
406,568,5.70081,-14.7706,-0.00152309,0.00242196,0.00100536,0.00266339,-0.00176452,1.33511,0.00257395,0.0158258,1630,456,5.70083,14.7706
413,568,5.6908,-14.3973,-0.00199921,0.00238518,0.00085621,0.00254646,-0.00216048,1.38462,0.0027206,0.0122597,1637,456,5.69074,14.3973
420,568,5.68823,-14.0282,-0.00243306,0.0018869,0.000431496,0.00192958,-0.00247574,1.47221,0.00254992,0.0102244,1644,456,5.68818,14.0282
427,568,5.66541,-13.6571,-0.0028779,0.000588906,-3.18202e-05,0.000589198,-0.0028782,-1.56162,0.00214238,0.0116426,1651,456,5.66536,13.6571
434,568,5.65466,-13.2892,-0.00279435,-0.000485302,-8.96027e-05,-0.00048183,-0.00279782,-1.53207,0.00172715,0.0161886,1658,456,5.65472,13.2892
441,568,5.63171,-12.9981,-0.00293091,-0.00192153,-0.000448611,-0.00175096,-0.00310147,-1.20748,0.0017956,0.024761,1665,456,5.63169,12.9981
448,568,5.66711,-12.6335,-0.00306569,-0.00366479,-0.000787292,-0.00252289,-0.00420759,-0.603614,0.00244527,0.0401845,1672,456,5.66717,12.6335
455,568,5.66895,-12.1287,0,0,0,0,0,0,0,-1,1679,456,5.669,12.1287
462,568,5.18091,-11.911,0,0,0,0,0,0,0,-1,1686,456,5.18093,11.911
469,568,5.28137,-11.6545,-0.00158223,-0.0110593,-0.000990245,-0.00147987,-0.0111616,-0.103006,0.00700015,0.0450493,1693,456,5.28141,11.6545
476,568,5.34094,-11.5299,-0.000485156,-0.0137412,-0.000464318,-0.000468913,-0.0137575,-0.0349697,0.00901941,0.0476392,1700,456,5.3409,11.5299
483,568,5.22437,-11.4697,0.00136006,-0.0168448,0.000551341,0.00137674,-0.0168615,0.0302484,0.0117269,0.0484839,1707,456,5.22435,11.4697
490,568,5.12463,-11.1078,0,0,0,0,0,0,0,-1,1714,456,5.12462,11.1078
497,568,6.91516,-3.93405,0,0,0,0,0,0,0,-1,1721,456,6.91518,3.93404
504,568,0,0,0,0,0,0,0,0,0,-1,1728,456,0,0
511,568,0,0,0,0,0,0,0,0,0,-1,1735,456,0,0
518,568,0,0,0,0,0,0,0,0,0,-1,1742,456,0,0
525,568,0,0,0,0,0,0,0,0,0,-1,1749,456,0,0
532,568,0,0,0,0,0,0,0,0,0,-1,1756,456,0,0
539,568,0,0,0,0,0,0,0,0,0,-1,1763,456,0,0
546,568,0,0,0,0,0,0,0,0,0,-1,1770,456,0,0
553,568,0,0,0,0,0,0,0,0,0,-1,1777,456,0,0
560,568,0,0,0,0,0,0,0,0,0,-1,1784,456,0,0
567,568,0,0,0,0,0,0,0,0,0,-1,1791,456,0,0
574,568,0,0,0,0,0,0,0,0,0,-1,1798,456,0,0
581,568,0,0,0,0,0,0,0,0,0,-1,1805,456,0,0
588,568,0,0,0,0,0,0,0,0,0,-1,1812,456,0,0
595,568,0,0,0,0,0,0,0,0,0,-1,1819,456,0,0
602,568,0,0,0,0,0,0,0,0,0,-1,1826,456,0,0
609,568,0,0,0,0,0,0,0,0,0,-1,1833,456,0,0
616,568,0,0,0,0,0,0,0,0,0,-1,1840,456,0,0
623,568,0,0,0,0,0,0,0,0,0,-1,1847,456,0,0
630,568,0,0,0,0,0,0,0,0,0,-1,1854,456,0,0
637,568,0,0,0,0,0,0,0,0,0,-1,1861,456,0,0
644,568,0,0,0,0,0,0,0,0,0,-1,1868,456,0,0
651,568,0,0,0,0,0,0,0,0,0,-1,1875,456,0,0
658,568,0,0,0,0,0,0,0,0,0,-1,1882,456,0,0
665,568,0,0,0,0,0,0,0,0,0,-1,1889,456,0,0
672,568,0,0,0,0,0,0,0,0,0,-1,1896,456,0,0
679,568,0,0,0,0,0,0,0,0,0,-1,1903,456,0,0
686,568,0,0,0,0,0,0,0,0,0,-1,1910,456,0,0
693,568,0,0,0,0,0,0,0,0,0,-1,1917,456,0,0
700,568,0,0,0,0,0,0,0,0,0,-1,1924,456,0,0
707,568,0,0,0,0,0,0,0,0,0,-1,1931,456,0,0
714,568,0,0,0,0,0,0,0,0,0,-1,1938,456,0,0
721,568,0,0,0,0,0,0,0,0,0,-1,1945,456,0,0
728,568,0,0,0,0,0,0,0,0,0,-1,1952,456,0,0
735,568,0,0,0,0,0,0,0,0,0,-1,1959,456,0,0
742,568,0,0,0,0,0,0,0,0,0,-1,1966,456,0,0
749,568,0,0,0,0,0,0,0,0,0,-1,1973,456,0,0
756,568,0,0,0,0,0,0,0,0,0,-1,1980,456,0,0
763,568,0,0,0,0,0,0,0,0,0,-1,1987,456,0,0
770,568,0,0,0,0,0,0,0,0,0,-1,1994,456,0,0
777,568,0,0,0,0,0,0,0,0,0,-1,2001,456,0,0
784,568,0,0,0,0,0,0,0,0,0,-1,2008,456,0,0
791,568,0,0,0,0,0,0,0,0,0,-1,2015,456,0,0
798,568,0,0,0,0,0,0,0,0,0,-1,2022,456,0,0
805,568,0,0,0,0,0,0,0,0,0,-1,2029,456,0,0
812,568,0,0,0,0,0,0,0,0,0,-1,2036,456,0,0
-700,561,0,0,0,0,0,0,0,0,0,-1,524,463,0,0
-693,561,0,0,0,0,0,0,0,0,0,-1,531,463,0,0
-686,561,0,0,0,0,0,0,0,0,0,-1,538,463,0,0
-679,561,0,0,0,0,0,0,0,0,0,-1,545,463,0,0
-672,561,0,0,0,0,0,0,0,0,0,-1,552,463,0,0
-665,561,0,0,0,0,0,0,0,0,0,-1,559,463,0,0
-658,561,0,0,0,0,0,0,0,0,0,-1,566,463,0,0
-651,561,0,0,0,0,0,0,0,0,0,-1,573,463,0,0
-644,561,0,0,0,0,0,0,0,0,0,-1,580,463,0,0
-637,561,0,0,0,0,0,0,0,0,0,-1,587,463,0,0
-630,561,0,0,0,0,0,0,0,0,0,-1,594,463,0,0
-623,561,0,0,0,0,0,0,0,0,0,-1,601,463,0,0
-616,561,0,0,0,0,0,0,0,0,0,-1,608,463,0,0
-609,561,0,0,0,0,0,0,0,0,0,-1,615,463,0,0
-602,561,0,0,0,0,0,0,0,0,0,-1,622,463,0,0
-595,561,0,0,0,0,0,0,0,0,0,-1,629,463,0,0
-588,561,0,0,0,0,0,0,0,0,0,-1,636,463,0,0
-581,561,0,0,0,0,0,0,0,0,0,-1,643,463,0,0
-574,561,0,0,0,0,0,0,0,0,0,-1,650,463,0,0
-567,561,0,0,0,0,0,0,0,0,0,-1,657,463,0,0
-560,561,0,0,0,0,0,0,0,0,0,-1,664,463,0,0
-553,561,0,0,0,0,0,0,0,0,0,-1,671,463,0,0
-546,561,0,0,0,0,0,0,0,0,0,-1,678,463,0,0
-539,561,0,0,0,0,0,0,0,0,0,-1,685,463,0,0
-532,561,0,0,0,0,0,0,0,0,0,-1,692,463,0,0
-525,561,0,0,0,0,0,0,0,0,0,-1,699,463,0,0
-518,561,0,0,0,0,0,0,0,0,0,-1,706,463,0,0
-511,561,0,0,0,0,0,0,0,0,0,-1,713,463,0,0
-504,561,0,0,0,0,0,0,0,0,0,-1,720,463,0,0
-497,561,0,0,0,0,0,0,0,0,0,-1,727,463,0,0
-490,561,0,0,0,0,0,0,0,0,0,-1,734,463,0,0
-483,561,0,0,0,0,0,0,0,0,0,-1,741,463,0,0
-476,561,0,0,0,0,0,0,0,0,0,-1,748,463,0,0
-469,561,0,0,0,0,0,0,0,0,0,-1,755,463,0,0
-462,561,0,0,0,0,0,0,0,0,0,-1,762,463,0,0
-455,561,0,0,0,0,0,0,0,0,0,-1,769,463,0,0
-448,561,0,0,0,0,0,0,0,0,0,-1,776,463,0,0
-441,561,0,0,0,0,0,0,0,0,0,-1,783,463,0,0
-434,561,0,0,0,0,0,0,0,0,0,-1,790,463,0,0
-427,561,0,0,0,0,0,0,0,0,0,-1,797,463,0,0
-420,561,0,0,0,0,0,0,0,0,0,-1,804,463,0,0
-413,561,0,0,0,0,0,0,0,0,0,-1,811,463,0,0
-406,561,0,0,0,0,0,0,0,0,0,-1,818,463,0,0
-399,561,0,0,0,0,0,0,0,0,0,-1,825,463,0,0
-392,561,4.92407,-2.54578,0,0,0,0,0,0,0,-1,832,463,4.92408,2.54576
-385,561,5.55634,-1.02338,0,0,0,0,0,0,0,-1,839,463,5.55634,1.02338
-378,561,0.160522,-4.51785,0,0,0,0,0,0,0,-1,846,463,0.160542,4.51785
-371,561,1.06299,-7.56818,0,0,0,0,0,0,0,-1,853,463,1.06297,7.56817
-364,561,1.45264,-7.57684,0,0,0,0,0,0,0,-1,860,463,1.45264,7.57684
-357,561,0.948242,-12.2803,0,0,0,0,0,0,0,-1,867,463,0.948262,12.2803
-350,561,1.33124,-11.9406,0,0,0,0,0,0,0,-1,874,463,1.33127,11.9406
-343,561,2.15314,-12.8734,0,0,0,0,0,0,0,-1,881,463,2.15316,12.8733
-336,561,1.66815,-13.1836,0,0,0,0,0,0,0,-1,888,463,1.66815,13.1836
-329,561,1.38208,-13.7197,-0.00121867,-0.00128282,-0.00495416,0.00370351,-0.00620501,-0.782161,0.00578114,0.0376418,895,463,1.38208,13.7197
-322,561,1.27661,-13.942,-0.00067344,-0.00144459,-0.00505854,0.00401419,-0.00613222,-0.74736,0.00590043,0.0296576,902,463,1.27661,13.942
-315,561,1.37567,-14.1418,-0.00041107,-0.00156467,-0.0050127,0.00405791,-0.00603364,-0.728116,0.00586346,0.0209529,909,463,1.3757,14.1418
-308,561,1.383,-14.557,-0.000277161,-0.00157217,-0.00480913,0.00392786,-0.00577719,-0.71848,0.00563702,0.0159445,916,463,1.38301,14.557
-301,561,1.3454,-14.9799,-0.000304375,-0.00161204,-0.00442852,0.00351832,-0.00543473,-0.712107,0.00520837,0.0122047,923,463,1.34542,14.9799
-294,561,1.32892,-15.2937,-0.000440963,-0.00176057,-0.00385193,0.00280727,-0.0050088,-0.700576,0.00457189,0.0111754,930,463,1.3289,15.2937
-287,561,1.297,-15.6099,-0.000297953,-0.00180579,-0.00339512,0.00242595,-0.00452969,-0.676141,0.0040766,0.0101645,937,463,1.29702,15.6099
-280,561,1.26239,-15.9431,-0.000195856,-0.0019602,-0.00277304,0.00183195,-0.00398801,-0.631398,0.00343615,0.0120155,944,463,1.26238,15.9431
-273,561,1.26294,-16.2634,-7.45668e-05,-0.00229789,-0.00204114,0.001138,-0.00351046,-0.536043,0.00279787,0.0147124,951,463,1.26292,16.2634
-266,561,1.2724,-16.5747,0.000159623,-0.00280165,-0.0013756,0.000700013,-0.00334204,-0.37432,0.00249432,0.00969549,958,463,1.2724,16.5747
-259,561,1.26306,-16.8765,0.000486456,-0.00326249,-0.000764139,0.000636226,-0.00341225,-0.193544,0.00251389,0.0102978,965,463,1.26308,16.8765
-252,561,1.23608,-17.1753,0.000860543,-0.0039769,-0.000211413,0.000869765,-0.00398612,-0.0435927,0.00298981,0.0146797,972,463,1.23609,17.1753
-245,561,1.21228,-17.4781,0.00142151,-0.00474969,0.000331102,0.00143922,-0.0047674,0.0534482,0.0037512,0.0168649,979,463,1.21227,17.478
-238,561,1.2309,-17.7606,0.00203076,-0.00562584,0.000874895,0.00212946,-0.00572454,0.112338,0.00469018,0.0131959,986,463,1.23089,17.7606
-231,561,1.24371,-18.0469,0.00250272,-0.0064451,0.00136918,0.00270754,-0.00664992,0.148493,0.00556006,0.0107982,993,463,1.24372,18.0469
-224,561,1.24652,-18.3312,0.00284963,-0.00733352,0.0017903,0.00315521,-0.0076391,0.169059,0.00640882,0.0109216,1000,463,1.24649,18.3312
-217,561,1.26227,-18.6024,0.00312946,-0.00801708,0.00213442,0.00352419,-0.00841181,0.182872,0.00708123,0.0115654,1007,463,1.26229,18.6024
-210,561,1.26605,-18.8885,0.00327581,-0.00822425,0.0022369,0.0036956,-0.00864403,0.185504,0.00731275,0.0123419,1014,463,1.26604,18.8885
-203,561,1.27734,-19.1517,0.00330906,-0.00784621,0.00238451,0.00379739,-0.00833454,0.201999,0.00716579,0.0137539,1021,463,1.27734,19.1517
-196,561,1.30298,-19.3727,0.00329128,-0.00677615,0.00280263,0.0040189,-0.00750378,0.254013,0.00675328,0.0144459,1028,463,1.30298,19.3727
-189,561,1.29919,-19.6083,0.00306605,-0.00568742,0.00298946,0.00398957,-0.00661094,0.299624,0.00618227,0.0188685,1035,463,1.29915,19.6083
-182,561,1.30322,-19.791,0,0,0,0,0,0,0,-1,1042,463,1.30319,19.791
-175,561,1.35364,-20.0664,0.00295725,-0.00263025,0.00364029,0.00475227,-0.00442527,0.45811,0.00529977,0.0300504,1049,463,1.35368,20.0664
-168,561,1.349,-20.3093,0.00328219,-0.00161043,0.00362997,0.00521322,-0.00354146,0.488894,0.00508514,0.0453783,1056,463,1.34905,20.3093
-161,561,1.41077,-20.7349,0.00367615,-0.00115398,0.00328257,0.00533635,-0.00281418,0.468247,0.00478022,0.0497033,1063,463,1.41081,20.7349
-154,561,1.19836,-21.1577,0.00423587,-0.00095041,0.00358082,0.00606389,-0.00277843,0.472015,0.00522126,0.0464256,1070,463,1.19838,21.1577
-147,561,1.18701,-21.3343,0.00560096,-0.00274714,0.00381054,0.00707872,-0.0042249,0.369951,0.00659511,0.0452038,1077,463,1.187,21.3343
-140,561,1.77856,-21.0776,0,0,0,0,0,0,0,-1,1084,463,1.77858,21.0776
-133,561,1.92224,-20.9314,0,0,0,0,0,0,0,-1,1091,463,1.92219,20.9314
-126,561,1.5376,-18.5582,0,0,0,0,0,0,0,-1,1098,463,1.53766,18.5582
-119,561,1.34656,-20.1558,0,0,0,0,0,0,0,-1,1105,463,1.34656,20.1558
-112,561,0.562378,-20.105,0,0,0,0,0,0,0,-1,1112,463,0.562368,20.105
-105,561,0.530518,-13.5379,0,0,0,0,0,0,0,-1,1119,463,0.530477,13.5379
-98,561,1.5387,-7.54352,0,0,0,0,0,0,0,-1,1126,463,1.53871,7.54351
-91,561,1.29553,-6.57968,0,0,0,0,0,0,0,-1,1133,463,1.29549,6.5797
-84,561,1.23364,-5.84555,0,0,0,0,0,0,0,-1,1140,463,1.23363,5.84556
-77,561,-2.36023,1.00204,0,0,0,0,0,0,0,-1,1147,463,-2.3602,-1.00205
-70,561,-3.90015,-1.41541,0,0,0,0,0,0,0,-1,1154,463,-3.90009,1.4154
-63,561,-6.95691,-4.02756,0,0,0,0,0,0,0,-1,1161,463,-6.95696,4.02756
-56,561,-5.37988,-6.66855,0,0,0,0,0,0,0,-1,1168,463,-5.37988,6.66854
-49,561,-5.7439,-9.11029,0,0,0,0,0,0,0,-1,1175,463,-5.74387,9.1103
-42,561,-1.72644,-5.63065,0,0,0,0,0,0,0,-1,1182,463,-1.72648,5.63064
-35,561,-1.65674,-4.87994,0,0,0,0,0,0,0,-1,1189,463,-1.6567,4.87993
-28,561,-1.91418,-3.86896,0,0,0,0,0,0,0,-1,1196,463,-1.91414,3.86895
-21,561,0.854004,-21.9176,0,0,0,0,0,0,0,-1,1203,463,0.854045,21.9176
-14,561,1.65588,-23.6377,0.060056,0.205203,-0.0552627,0.223848,0.0414106,-1.24539,0.137523,0.0453257,1210,463,1.65584,23.6377
-7,561,2.4032,-25.0671,0.0521339,0.17736,-0.0480924,0.193698,0.035796,-1.24331,0.119008,0.0477491,1217,463,2.40315,25.0671
0,561,2.86462,-26.7394,0,0,0,0,0,0,0,-1,1224,463,2.86459,26.7394
7,561,5.70898,-21.8194,0,0,0,0,0,0,0,-1,1231,463,5.70902,21.8194
14,561,3.51636,-25.0335,0,0,0,0,0,0,0,-1,1238,463,3.51635,25.0336
21,561,3.35303,-24.8661,0.0161968,0.0796455,-0.0183127,0.0845516,0.0112907,-1.30904,0.0530065,0.0445291,1245,463,3.35304,24.8661
28,561,3.26648,-24.8787,0.00879923,0.0649138,-0.0125015,0.067573,0.0061401,-1.36121,0.0431478,0.0442528,1252,463,3.26648,24.8787
35,561,3.2959,-24.8092,0.00311889,0.0542978,-0.00796786,0.0555096,0.0019071,-1.41987,0.0363874,0.0390117,1259,463,3.2959,24.8092
42,561,3.31555,-24.7859,-0.0015266,0.0441179,-0.00415181,0.0444925,-0.00190117,-1.48082,0.0303153,0.0417416,1266,463,3.31559,24.7859
49,561,2.98657,-24.4004,-0.00317172,0.0399306,-0.00281347,0.0401135,-0.00335459,-1.50589,0.0279277,0.042984,1273,463,2.98662,24.4004
56,561,2.99634,-24.2303,-0.00250582,0.0438863,-0.00663255,0.0448159,-0.00343543,-1.43154,0.0310857,0.0408308,1280,463,2.99632,24.2303
63,561,3.33167,-24.4979,-0.00109545,0.0467341,-0.01127,0.0492566,-0.00361794,-1.3506,0.0341077,0.0433086,1287,463,3.33171,24.4979
70,561,3.7251,-24.6173,0,0,0,0,0,0,0,-1,1294,463,3.72507,24.6173
77,561,2.729,-23.1759,0.00241734,0.0531732,-0.0217158,0.0611961,-0.00560558,-1.2169,0.0427885,0.0478127,1301,463,2.72905,23.1759
84,561,2.76025,-22.7699,0.00321596,0.0551645,-0.0271992,0.0667995,-0.0084191,-1.16658,0.0475883,0.0462056,1308,463,2.76029,22.7699
91,561,7.8761,-25.0002,0,0,0,0,0,0,0,-1,1315,463,7.87616,25.0001
98,561,7.56812,-25.0327,0,0,0,0,0,0,0,-1,1322,463,7.56816,25.0327
105,561,7.15906,-24.9197,0,0,0,0,0,0,0,-1,1329,463,7.15911,24.9197
112,561,6.28772,-25.1322,0,0,0,0,0,0,0,-1,1336,463,6.28767,25.1322
119,561,6.04724,-24.7964,0,0,0,0,0,0,0,-1,1343,463,6.04719,24.7964
126,561,9.33789,-25.0945,0,0,0,0,0,0,0,-1,1350,463,9.33788,25.0945
133,561,3.20447,-22.2667,0,0,0,0,0,0,0,-1,1357,463,3.20441,22.2667
140,561,4.83826,-22.2479,0,0,0,0,0,0,0,-1,1364,463,4.83822,22.2479
147,561,5.92932,-22.022,0,0,0,0,0,0,0,-1,1371,463,5.92929,22.022
154,561,7.08154,-21.796,0,0,0,0,0,0,0,-1,1378,463,7.0815,21.796
161,561,4.75647,-21.6194,0,0,0,0,0,0,0,-1,1385,463,4.75644,21.6194
168,561,2.48633,-15.9171,0,0,0,0,0,0,0,-1,1392,463,2.48634,15.9171
175,561,10.4185,0.276398,0,0,0,0,0,0,0,-1,1399,463,10.4185,-0.276394
182,561,6.45703,-4.02127,0,0,0,0,0,0,0,-1,1406,463,6.45704,4.02127
189,561,6.50854,-2.08685,0,0,0,0,0,0,0,-1,1413,463,6.50851,2.08686
196,561,6.44775,-0.27182,0,0,0,0,0,0,0,-1,1420,463,6.44773,0.271814
203,561,6.18591,1.1301,0,0,0,0,0,0,0,-1,1427,463,6.18592,-1.13009
210,561,5.68713,2.68427,0,0,0,0,0,0,0,-1,1434,463,5.6871,-2.68425
217,561,3.61743,-7.33582,0,0,0,0,0,0,0,-1,1441,463,3.61738,7.33581
224,561,4.27466,-8.59171,0,0,0,0,0,0,0,-1,1448,463,4.27466,8.59171
231,561,4.93188,-9.8476,0,0,0,0,0,0,0,-1,1455,463,4.93193,9.84761
238,561,2.18018,-5.18359,0,0,0,0,0,0,0,-1,1462,463,2.18023,5.18359
245,561,3.07568,-3.50238,0,0,0,0,0,0,0,-1,1469,463,3.0757,3.50238
252,561,3.47412,-3.71109,0,0,0,0,0,0,0,-1,1476,463,3.47413,3.71109
259,561,3.42212,-3.2334,0,0,0,0,0,0,0,-1,1483,463,3.42214,3.2334
266,561,4.44373,-5.90027,0,0,0,0,0,0,0,-1,1490,463,4.44372,5.90026
273,561,2.59485,-3.65268,0,0,0,0,0,0,0,-1,1497,463,2.5948,3.65268
280,561,3.10767,-6.38235,0,0,0,0,0,0,0,-1,1504,463,3.10766,6.38235
287,561,4.91809,-14.429,0,0,0,0,0,0,0,-1,1511,463,4.9181,14.429
294,561,5.73376,-19.4458,0,0,0,0,0,0,0,-1,1518,463,5.73375,19.4458
301,561,5.72815,-19.1129,0.00646796,-0.00399481,-0.00131644,0.00663105,-0.0041579,-0.123262,0.00628332,0.0408691,1525,463,5.72814,19.1129
308,561,5.98132,-18.9377,0.00534617,-0.00442877,-0.00177766,0.00565941,-0.00474202,-0.174421,0.00601305,0.0327215,1532,463,5.98138,18.9377
315,561,6.03699,-18.7788,0.00403879,-0.00430558,-0.0020942,0.00453488,-0.00480168,-0.232601,0.0053912,0.0198143,1539,463,6.03695,18.7788
322,561,6.03796,-18.5565,0.0029773,-0.00383368,-0.00210186,0.00357371,-0.00443009,-0.276485,0.0046298,0.0206823,1546,463,6.03802,18.5566
329,561,6.00598,-18.2107,0.00222873,-0.00319569,-0.00193341,0.00284731,-0.00381428,-0.309651,0.00385955,0.0152802,1553,463,6.00598,18.2107
336,561,6.03955,-17.8991,0.00158522,-0.0025851,-0.00172983,0.00220934,-0.00320922,-0.346263,0.00314611,0.0116189,1560,463,6.0395,17.8991
343,561,6.07068,-17.6081,0.000933584,-0.00196132,-0.00149623,0.00156791,-0.00259565,-0.400983,0.00242812,0.0111063,1567,463,6.07071,17.6081
350,561,6.06763,-17.3137,0.000548819,-0.00140046,-0.00114625,0.00107877,-0.00193041,-0.433068,0.00176039,0.00978176,1574,463,6.06768,17.3137
357,561,6.06738,-17.0128,0.000199858,-0.000716329,-0.000828078,0.000688106,-0.00120458,-0.53275,0.00110622,0.0091228,1581,463,6.06733,17.0128
364,561,6.08215,-16.7344,1.77678e-05,-0.000184126,-0.000379595,0.000309609,-0.000475968,-0.655439,0.000456931,0.00959152,1588,463,6.08213,16.7344
371,561,6.06714,-16.3995,-5.32493e-05,0.000276354,1.74849e-05,0.000277279,-5.41742e-05,1.51795,0.000205307,0.0170785,1595,463,6.06715,16.3995
378,561,6.04883,-16.0805,-0.00013239,0.000710291,0.000311231,0.000812776,-0.000234875,1.25269,0.000634795,0.012292,1602,463,6.04881,16.0805
385,561,6.0531,-15.7653,-0.000256123,0.00121942,0.000524893,0.00138709,-0.00042379,1.26161,0.00109371,0.0110547,1609,463,6.05308,15.7653
392,561,6.02893,-15.3926,-0.000442439,0.0015198,0.000657244,0.0017196,-0.000642236,1.27568,0.0014101,0.0145251,1616,463,6.02898,15.3926
399,561,6.02271,-15.0751,-0.000633609,0.00167402,0.000758586,0.00190105,-0.000860642,1.28,0.00163174,0.0208502,1623,463,6.02276,15.0751
406,561,6.02478,-14.7531,-0.000873017,0.00181351,0.000782645,0.00202488,-0.00108439,1.30702,0.00182231,0.0191814,1630,463,6.02482,14.7531
413,561,6.02466,-14.3859,-0.00122503,0.00187421,0.000730234,0.00203765,-0.00138847,1.35061,0.00198987,0.0160016,1637,463,6.02462,14.3859
420,561,6.00757,-14.0203,-0.00157459,0.0015376,0.000447992,0.00160081,-0.00163779,1.43064,0.00186985,0.0123112,1644,463,6.00758,14.0203
427,561,6.00623,-13.654,-0.00196758,0.000591846,0.000122561,0.000597702,-0.00197344,1.52306,0.00155367,0.00970561,1651,463,6.00621,13.654
434,561,6.01355,-13.2796,-0.00202564,-0.000226079,5.40839e-05,-0.000224455,-0.00202726,1.54078,0.00128325,0.0118954,1658,463,6.0136,13.2796
441,561,6.0094,-12.9314,-0.00223176,-0.00130125,-0.000197956,-0.00126089,-0.00227212,-1.36966,0.00131445,0.0146914,1665,463,6.00934,12.9314
448,561,5.95703,-12.5697,-0.00242771,-0.00263481,-0.000442412,-0.00207689,-0.00298563,-0.670436,0.00176719,0.0195972,1672,463,5.95703,12.5697
455,561,5.95654,-12.1973,-0.00251907,-0.00439484,-0.000726801,-0.00227042,-0.00464349,-0.329635,0.00268114,0.036524,1679,463,5.95654,12.1973
462,561,5.85034,-11.8049,-0.00218868,-0.00632042,-0.000782905,-0.00204531,-0.00646379,-0.181124,0.00381479,0.0374905,1686,463,5.85032,11.8049
469,561,5.76001,-11.4771,-0.00143311,-0.00850541,-0.000479508,-0.00140074,-0.00853777,-0.0673898,0.00528715,0.0247152,1693,463,5.76005,11.4771
476,561,5.698,-11.1512,-0.000495857,-0.0108759,-4.96283e-05,-0.00049562,-0.0108761,-0.004781,0.00709129,0.0432755,1700,463,5.69805,11.1512
483,561,5.65845,-10.8162,0,0,0,0,0,0,0,-1,1707,463,5.65839,10.8162
490,561,4.00928,-7.65302,0,0,0,0,0,0,0,-1,1714,463,4.00929,7.65302
497,561,7.30652,-2.46649,0,0,0,0,0,0,0,-1,1721,463,7.30649,2.4665
504,561,6.45044,-2.35263,0,0,0,0,0,0,0,-1,1728,463,6.4504,2.35263
511,561,0,0,0,0,0,0,0,0,0,-1,1735,463,0,0
518,561,0,0,0,0,0,0,0,0,0,-1,1742,463,0,0
525,561,0,0,0,0,0,0,0,0,0,-1,1749,463,0,0
532,561,0,0,0,0,0,0,0,0,0,-1,1756,463,0,0
539,561,0,0,0,0,0,0,0,0,0,-1,1763,463,0,0
546,561,0,0,0,0,0,0,0,0,0,-1,1770,463,0,0
553,561,0,0,0,0,0,0,0,0,0,-1,1777,463,0,0
560,561,0,0,0,0,0,0,0,0,0,-1,1784,463,0,0
567,561,0,0,0,0,0,0,0,0,0,-1,1791,463,0,0
574,561,0,0,0,0,0,0,0,0,0,-1,1798,463,0,0
581,561,0,0,0,0,0,0,0,0,0,-1,1805,463,0,0
588,561,0,0,0,0,0,0,0,0,0,-1,1812,463,0,0
595,561,0,0,0,0,0,0,0,0,0,-1,1819,463,0,0
602,561,0,0,0,0,0,0,0,0,0,-1,1826,463,0,0
609,561,0,0,0,0,0,0,0,0,0,-1,1833,463,0,0
616,561,0,0,0,0,0,0,0,0,0,-1,1840,463,0,0
623,561,0,0,0,0,0,0,0,0,0,-1,1847,463,0,0
630,561,0,0,0,0,0,0,0,0,0,-1,1854,463,0,0
637,561,0,0,0,0,0,0,0,0,0,-1,1861,463,0,0
644,561,0,0,0,0,0,0,0,0,0,-1,1868,463,0,0
651,561,0,0,0,0,0,0,0,0,0,-1,1875,463,0,0
658,561,0,0,0,0,0,0,0,0,0,-1,1882,463,0,0
665,561,0,0,0,0,0,0,0,0,0,-1,1889,463,0,0
672,561,0,0,0,0,0,0,0,0,0,-1,1896,463,0,0
679,561,0,0,0,0,0,0,0,0,0,-1,1903,463,0,0
686,561,0,0,0,0,0,0,0,0,0,-1,1910,463,0,0
693,561,0,0,0,0,0,0,0,0,0,-1,1917,463,0,0
700,561,0,0,0,0,0,0,0,0,0,-1,1924,463,0,0
707,561,0,0,0,0,0,0,0,0,0,-1,1931,463,0,0
714,561,0,0,0,0,0,0,0,0,0,-1,1938,463,0,0
721,561,0,0,0,0,0,0,0,0,0,-1,1945,463,0,0
728,561,0,0,0,0,0,0,0,0,0,-1,1952,463,0,0
735,561,0,0,0,0,0,0,0,0,0,-1,1959,463,0,0
742,561,0,0,0,0,0,0,0,0,0,-1,1966,463,0,0
749,561,0,0,0,0,0,0,0,0,0,-1,1973,463,0,0
756,561,0,0,0,0,0,0,0,0,0,-1,1980,463,0,0
763,561,0,0,0,0,0,0,0,0,0,-1,1987,463,0,0
770,561,0,0,0,0,0,0,0,0,0,-1,1994,463,0,0
777,561,0,0,0,0,0,0,0,0,0,-1,2001,463,0,0
784,561,0,0,0,0,0,0,0,0,0,-1,2008,463,0,0
791,561,0,0,0,0,0,0,0,0,0,-1,2015,463,0,0
798,561,0,0,0,0,0,0,0,0,0,-1,2022,463,0,0
805,561,0,0,0,0,0,0,0,0,0,-1,2029,463,0,0
812,561,0,0,0,0,0,0,0,0,0,-1,2036,463,0,0
-700,554,0,0,0,0,0,0,0,0,0,-1,524,470,0,0
-693,554,0,0,0,0,0,0,0,0,0,-1,531,470,0,0
-686,554,0,0,0,0,0,0,0,0,0,-1,538,470,0,0
-679,554,0,0,0,0,0,0,0,0,0,-1,545,470,0,0
-672,554,0,0,0,0,0,0,0,0,0,-1,552,470,0,0
-665,554,0,0,0,0,0,0,0,0,0,-1,559,470,0,0
-658,554,0,0,0,0,0,0,0,0,0,-1,566,470,0,0
-651,554,0,0,0,0,0,0,0,0,0,-1,573,470,0,0
-644,554,0,0,0,0,0,0,0,0,0,-1,580,470,0,0
-637,554,0,0,0,0,0,0,0,0,0,-1,587,470,0,0
-630,554,0,0,0,0,0,0,0,0,0,-1,594,470,0,0
-623,554,0,0,0,0,0,0,0,0,0,-1,601,470,0,0
-616,554,0,0,0,0,0,0,0,0,0,-1,608,470,0,0
-609,554,0,0,0,0,0,0,0,0,0,-1,615,470,0,0
-602,554,0,0,0,0,0,0,0,0,0,-1,622,470,0,0
-595,554,0,0,0,0,0,0,0,0,0,-1,629,470,0,0
-588,554,0,0,0,0,0,0,0,0,0,-1,636,470,0,0
-581,554,0,0,0,0,0,0,0,0,0,-1,643,470,0,0
-574,554,0,0,0,0,0,0,0,0,0,-1,650,470,0,0
-567,554,0,0,0,0,0,0,0,0,0,-1,657,470,0,0
-560,554,0,0,0,0,0,0,0,0,0,-1,664,470,0,0
-553,554,0,0,0,0,0,0,0,0,0,-1,671,470,0,0
-546,554,0,0,0,0,0,0,0,0,0,-1,678,470,0,0
-539,554,0,0,0,0,0,0,0,0,0,-1,685,470,0,0
-532,554,0,0,0,0,0,0,0,0,0,-1,692,470,0,0
-525,554,0,0,0,0,0,0,0,0,0,-1,699,470,0,0
-518,554,0,0,0,0,0,0,0,0,0,-1,706,470,0,0
-511,554,0,0,0,0,0,0,0,0,0,-1,713,470,0,0
-504,554,0,0,0,0,0,0,0,0,0,-1,720,470,0,0
-497,554,0,0,0,0,0,0,0,0,0,-1,727,470,0,0
-490,554,0,0,0,0,0,0,0,0,0,-1,734,470,0,0
-483,554,0,0,0,0,0,0,0,0,0,-1,741,470,0,0
-476,554,0,0,0,0,0,0,0,0,0,-1,748,470,0,0
-469,554,0,0,0,0,0,0,0,0,0,-1,755,470,0,0
-462,554,0,0,0,0,0,0,0,0,0,-1,762,470,0,0
-455,554,0,0,0,0,0,0,0,0,0,-1,769,470,0,0
-448,554,0,0,0,0,0,0,0,0,0,-1,776,470,0,0
-441,554,0,0,0,0,0,0,0,0,0,-1,783,470,0,0
-434,554,0,0,0,0,0,0,0,0,0,-1,790,470,0,0
-427,554,0,0,0,0,0,0,0,0,0,-1,797,470,0,0
-420,554,0,0,0,0,0,0,0,0,0,-1,804,470,0,0
-413,554,0,0,0,0,0,0,0,0,0,-1,811,470,0,0
-406,554,0,0,0,0,0,0,0,0,0,-1,818,470,0,0
-399,554,-1.32275,-3.95142,0,0,0,0,0,0,0,-1,825,470,-1.32275,3.95141
-392,554,-1.35632,-3.7406,0,0,0,0,0,0,0,-1,832,470,-1.35632,3.7406
-385,554,-0.849243,-4.14447,0,0,0,0,0,0,0,-1,839,470,-0.849262,4.14446
-378,554,-0.982666,-4.55084,0,0,0,0,0,0,0,-1,846,470,-0.982671,4.55084
-371,554,-1.74542,-4.63467,0,0,0,0,0,0,0,-1,853,470,-1.74541,4.63468
-364,554,1.04883,-7.68756,0,0,0,0,0,0,0,-1,860,470,1.0488,7.68757
-357,554,1.06714,-11.5403,0,0,0,0,0,0,0,-1,867,470,1.06715,11.5403
-350,554,1.80402,-12.9261,0,0,0,0,0,0,0,-1,874,470,1.80404,12.9261
-343,554,1.54987,-13.0133,-0.00343648,-8.02798e-05,-0.00249806,0.00125099,-0.00476775,-1.08116,0.00366732,0.0480109,881,470,1.54986,13.0133
-336,554,1.22528,-13.219,-0.00241707,-0.000357617,-0.00319921,0.0019735,-0.00474819,-0.941097,0.00398946,0.0367008,888,470,1.22526,13.219
-329,554,1.08838,-13.6051,-0.00146678,-0.000421359,-0.00345588,0.00255112,-0.00443926,-0.860456,0.00408468,0.0177568,895,470,1.08837,13.6051
-322,554,1.03571,-13.951,-0.000858976,-0.000567078,-0.00354965,0.00283962,-0.00426567,-0.805945,0.00412969,0.0113641,902,470,1.03573,13.951
-315,554,1.03778,-14.2886,-0.000465098,-0.000644671,-0.00351103,0.00295729,-0.00406706,-0.772615,0.00407235,0.0113449,909,470,1.03775,14.2886
-308,554,1.01392,-14.6357,-0.000187997,-0.00064958,-0.00335534,0.00294448,-0.00378206,-0.751061,0.0038936,0.0129344,916,470,1.01392,14.6357
-301,554,1.01758,-14.9781,-7.4047e-05,-0.000737958,-0.00303716,0.00264924,-0.00346125,-0.730965,0.00353826,0.0130965,923,470,1.01755,14.9781
-294,554,0.999756,-15.2822,2.57519e-05,-0.000947651,-0.00254829,0.0021334,-0.0030553,-0.691039,0.00301142,0.0111976,930,470,0.999767,15.2822
-287,554,0.975708,-15.6023,0.000397945,-0.00121964,-0.00218354,0.00191767,-0.00273936,-0.60803,0.00270265,0.0114109,937,470,0.975696,15.6023
-280,554,0.960266,-15.9213,0.000627751,-0.00164793,-0.00166652,0.00150782,-0.002528,-0.485866,0.00235477,0.010665,944,470,0.960266,15.9213
-273,554,0.94989,-16.2541,0.000871358,-0.00232181,-0.00100879,0.00116335,-0.00261381,-0.281752,0.0022337,0.0145694,951,470,0.949892,16.2541
-266,554,0.949646,-16.5847,0.00125311,-0.00326438,-0.000389077,0.00128637,-0.00329764,-0.08529,0.00273018,0.0121544,958,470,0.949623,16.5846
-259,554,0.960022,-16.8649,0.00171465,-0.00424525,0.000160653,0.00171897,-0.00424958,0.0269295,0.00354769,0.0117256,965,470,0.960022,16.8649
-252,554,0.929565,-17.1407,0.00218023,-0.00531645,0.000666678,0.00223906,-0.00537528,0.0880094,0.00451873,0.0144919,972,470,0.929557,17.1407
-245,554,0.926331,-17.4423,0.00276513,-0.00658182,0.00121439,0.00292034,-0.00673702,0.127113,0.00571898,0.0168071,979,470,0.926325,17.4423
-238,554,0.943542,-17.7575,0.00334909,-0.00800016,0.00176717,0.00361788,-0.00826895,0.150948,0.00703581,0.0123392,986,470,0.943553,17.7575
-231,554,0.956055,-18.0537,0.0038166,-0.00933255,0.00226323,0.00419524,-0.00971119,0.165767,0.00823672,0.00990778,993,470,0.956085,18.0537
-224,554,0.983398,-18.3196,0.00416093,-0.0105585,0.00275202,0.00465863,-0.0110562,0.178916,0.00932021,0.00972849,1000,470,0.983408,18.3196
-217,554,1.00983,-18.5834,0.00440787,-0.0114863,0.00314096,0.00500606,-0.0120845,0.188196,0.0101454,0.0103428,1007,470,1.00982,18.5834
-210,554,1.0343,-18.8848,0.00449731,-0.0117679,0.00323073,0.00511552,-0.0123861,0.18907,0.0103912,0.0140332,1014,470,1.03428,18.8848
-203,554,1.04315,-19.1511,0.00443817,-0.0112096,0.00337571,0.00513535,-0.0119068,0.203666,0.0100949,0.023505,1021,470,1.04316,19.1511
-196,554,0.966431,-19.2361,0.00432439,-0.00971762,0.00384307,0.00530737,-0.0107006,0.25041,0.00941542,0.0305516,1028,470,0.966407,19.2361
-189,554,1.0437,-19.3131,0.00397975,-0.00807175,0.00396824,0.00516903,-0.00926103,0.29118,0.00844212,0.0373922,1035,470,1.04367,19.3131
-182,554,1.1449,-19.3152,0,0,0,0,0,0,0,-1,1042,470,1.14496,19.3151
-175,554,1.14368,-19.2982,0,0,0,0,0,0,0,-1,1049,470,1.14369,19.2982
-168,554,1.09204,-20.3315,0,0,0,0,0,0,0,-1,1056,470,1.09207,20.3315
-161,554,1.07153,-20.9005,0,0,0,0,0,0,0,-1,1063,470,1.07156,20.9005
-154,554,0.928467,-21.2083,0,0,0,0,0,0,0,-1,1070,470,0.928443,21.2084
-147,554,0.858643,-21.4327,0,0,0,0,0,0,0,-1,1077,470,0.858642,21.4328
-140,554,1.82617,-20.3783,0,0,0,0,0,0,0,-1,1084,470,1.82617,20.3783
-133,554,1.48523,-20.8091,0,0,0,0,0,0,0,-1,1091,470,1.48518,20.8091
-126,554,0.532715,-15.1913,0,0,0,0,0,0,0,-1,1098,470,0.532762,15.1913
-119,554,0.748901,-18.7209,0,0,0,0,0,0,0,-1,1105,470,0.748894,18.721
-112,554,0.53186,-16.7545,0,0,0,0,0,0,0,-1,1112,470,0.531912,16.7545
-105,554,2.82129,-9.46112,0,0,0,0,0,0,0,-1,1119,470,2.82127,9.46112
-98,554,1.51929,-7.3624,0,0,0,0,0,0,0,-1,1126,470,1.51928,7.36241
-91,554,1.41089,-6.5864,0,0,0,0,0,0,0,-1,1133,470,1.41093,6.58638
-84,554,1.62305,-5.87186,0,0,0,0,0,0,0,-1,1140,470,1.62299,5.87186
-77,554,-2.56958,1.33258,0,0,0,0,0,0,0,-1,1147,470,-2.56959,-1.33257
-70,554,-3.68164,-1.18332,0,0,0,0,0,0,0,-1,1154,470,-3.68158,1.18331
-63,554,-4.86853,-3.88708,0,0,0,0,0,0,0,-1,1161,470,-4.86853,3.88708
-56,554,-5.69958,-6.45422,0,0,0,0,0,0,0,-1,1168,470,-5.69955,6.45422
-49,554,-6.23645,-8.8569,0,0,0,0,0,0,0,-1,1175,470,-6.23643,8.85689
-42,554,-6.62524,-11.5382,0,0,0,0,0,0,0,-1,1182,470,-6.62522,11.5382
-35,554,-2.40173,-4.59482,0,0,0,0,0,0,0,-1,1189,470,-2.40169,4.59481
-28,554,-0.760132,-1.65555,0,0,0,0,0,0,0,-1,1196,470,-0.760095,1.65556
-21,554,1.29895,-16.9031,0,0,0,0,0,0,0,-1,1203,470,1.29894,16.9031
-14,554,1.55151,-24.9445,0,0,0,0,0,0,0,-1,1210,470,1.55153,24.9445
-7,554,2.0863,-26.6856,0,0,0,0,0,0,0,-1,1217,470,2.08631,26.6856
0,554,2.62109,-28.4267,0,0,0,0,0,0,0,-1,1224,470,2.6211,28.4267
7,554,6.10449,-21.3216,0,0,0,0,0,0,0,-1,1231,470,6.10452,21.3216
14,554,5.7666,-20.8109,0,0,0,0,0,0,0,-1,1238,470,5.76657,20.8109
21,554,3.30481,-24.9362,0,0,0,0,0,0,0,-1,1245,470,3.30484,24.9362
28,554,3.29919,-24.9719,0.00907833,0.0783099,-0.0178447,0.0826388,0.00474947,-1.33281,0.0535796,0.0409382,1252,470,3.29916,24.9719
35,554,3.66467,-25.0407,0.00336619,0.065194,-0.0132646,0.0679196,0.000640552,-1.36813,0.0450678,0.0365784,1259,470,3.66472,25.0407
42,554,3.79456,-24.7933,-0.00309277,0.0513123,-0.00809697,0.0524917,-0.00427225,-1.42614,0.036502,0.0428552,1266,470,3.79455,24.7933
49,554,2.9491,-24.5576,-0.00515473,0.0455566,-0.00603203,0.0462642,-0.00586236,-1.45402,0.0329711,0.0480969,1273,470,2.94904,24.5576
56,554,2.97021,-24.5313,-0.00480069,0.0503237,-0.0098582,0.0520337,-0.00651064,-1.39905,0.0370505,0.0445978,1280,470,2.97021,24.5313
63,554,3.24805,-24.5101,-0.00384317,0.0533246,-0.0150649,0.0570515,-0.00757013,-1.32827,0.0407925,0.0439322,1287,470,3.24799,24.5101
70,554,3.42151,-24.3337,0,0,0,0,0,0,0,-1,1294,470,3.42151,24.3337
77,554,3.52136,-23.6904,-0.00285661,0.0620478,-0.0259979,0.0711773,-0.0119861,-1.23309,0.0519102,0.0426977,1301,470,3.52132,23.6904
84,554,3.56824,-23.2807,-0.00420215,0.0657209,-0.0316421,0.0779137,-0.016395,-1.203,0.0581826,0.0445872,1308,470,3.56825,23.2807
91,554,8.41541,-25.5765,0,0,0,0,0,0,0,-1,1315,470,8.41545,25.5765
98,554,8.23425,-25.6426,0,0,0,0,0,0,0,-1,1322,470,8.23425,25.6427
105,554,8.05432,-25.6884,-0.0072129,0.0673109,-0.0488027,0.0914506,-0.0313526,-1.11145,0.0736762,0.0475654,1329,470,8.05437,25.6883
112,554,7.89417,-25.7798,-0.011267,0.058672,-0.0506121,0.0852204,-0.0378153,-1.08771,0.072771,0.0456598,1336,470,7.89413,25.7798
119,554,7.83936,-26.0303,0,0,0,0,0,0,0,-1,1343,470,7.83931,26.0303
126,554,9.10242,-26.0804,0,0,0,0,0,0,0,-1,1350,470,9.10243,26.0804
133,554,9.20178,-26.4204,0,0,0,0,0,0,0,-1,1357,470,9.20179,26.4204
140,554,4.00854,-21.754,0,0,0,0,0,0,0,-1,1364,470,4.00857,21.754
147,554,4.80127,-21.7318,0,0,0,0,0,0,0,-1,1371,470,4.80123,21.7318
154,554,5.78674,-22.3427,0,0,0,0,0,0,0,-1,1378,470,5.78679,22.3427
161,554,5.94299,-22.7542,0,0,0,0,0,0,0,-1,1385,470,5.94298,22.7542
168,554,1.62,-15.7257,0,0,0,0,0,0,0,-1,1392,470,1.61995,15.7257
175,554,10.663,0.286957,0,0,0,0,0,0,0,-1,1399,470,10.663,-0.286966
182,554,6.71106,-4.50217,0,0,0,0,0,0,0,-1,1406,470,6.71107,4.50215
189,554,6.90479,-2.50348,0,0,0,0,0,0,0,-1,1413,470,6.90477,2.50348
196,554,6.96216,-0.740906,0,0,0,0,0,0,0,-1,1420,470,6.96214,0.740912
203,554,6.43518,0.414154,0,0,0,0,0,0,0,-1,1427,470,6.43523,-0.414141
210,554,6.21167,1.96707,0,0,0,0,0,0,0,-1,1434,470,6.21165,-1.96706
217,554,5.64551,3.4989,0,0,0,0,0,0,0,-1,1441,470,5.64555,-3.49891
224,554,4.85144,-8.85172,0,0,0,0,0,0,0,-1,1448,470,4.85146,8.85173
231,554,3.25073,-5.29642,0,0,0,0,0,0,0,-1,1455,470,3.25078,5.29642
238,554,4.28625,-3.25253,0,0,0,0,0,0,0,-1,1462,470,4.28622,3.25252
245,554,4.0752,-2.90033,0,0,0,0,0,0,0,-1,1469,470,4.07515,2.90032
252,554,3.52112,-0.934998,0,0,0,0,0,0,0,-1,1476,470,3.52113,0.934996
259,554,3.96448,-2.16425,0,0,0,0,0,0,0,-1,1483,470,3.96446,2.16424
266,554,3.0592,-2.71716,0,0,0,0,0,0,0,-1,1490,470,3.05923,2.71718
273,554,2.58521,-3.06876,0,0,0,0,0,0,0,-1,1497,470,2.58524,3.06874
280,554,2.83301,-0.991699,0,0,0,0,0,0,0,-1,1504,470,2.83303,0.991704
287,554,3.54126,-4.12277,0,0,0,0,0,0,0,-1,1511,470,3.54123,4.12277
294,554,3.62036,-8.50146,0,0,0,0,0,0,0,-1,1518,470,3.62031,8.50145
301,554,5.61597,-18.6893,0,0,0,0,0,0,0,-1,1525,470,5.616,18.6893
308,554,6.28577,-18.9064,0,0,0,0,0,0,0,-1,1532,470,6.28579,18.9064
315,554,6.3678,-18.7918,0,0,0,0,0,0,0,-1,1539,470,6.36785,18.7918
322,554,6.35144,-18.6728,0,0,0,0,0,0,0,-1,1546,470,6.3515,18.6728
329,554,6.35425,-17.9898,0.00236724,-0.00463311,-0.00285263,0.00338245,-0.00564832,-0.341909,0.00526834,0.0372751,1553,470,6.35425,17.9898
336,554,6.31787,-17.8769,0.00161763,-0.00385998,-0.00259653,0.00265282,-0.00489517,-0.379369,0.00442147,0.0203995,1560,470,6.31791,17.8769
343,554,6.34314,-17.6357,0.000844779,-0.00306301,-0.0023119,0.00191786,-0.00413609,-0.434563,0.0035726,0.0120294,1567,470,6.34318,17.6357
350,554,6.38013,-17.3242,0.000420989,-0.00243726,-0.00191596,0.00138212,-0.00339839,-0.46496,0.00284068,0.00973839,1574,470,6.38017,17.3242
357,554,6.39063,-17.0232,8.69143e-05,-0.00165233,-0.00155534,0.00099924,-0.00256466,-0.530489,0.00212275,0.0107328,1581,470,6.39062,17.0232
364,554,6.38306,-16.7363,-1.20477e-05,-0.00106327,-0.001012,0.000602697,-0.00167801,-0.545883,0.00136468,0.00909232,1588,470,6.38303,16.7363
371,554,6.38147,-16.4119,1.32416e-05,-0.00053135,-0.000538367,0.000344257,-0.000862365,-0.551268,0.000717731,0.00876971,1595,470,6.38152,16.4119
378,554,6.3855,-16.0689,4.04396e-05,-4.2951e-05,-0.000189407,0.000192687,-0.000195198,-0.677058,0.000223947,0.0101234,1602,470,6.38556,16.0689
385,554,6.39429,-15.7448,3.2005e-05,0.00058588,0.000127926,0.000613999,3.88606e-06,1.35443,0.000408044,0.010024,1609,470,6.39423,15.7448
392,554,6.37744,-15.3867,-6.44053e-05,0.000953384,0.000330181,0.00105111,-0.000162135,1.28302,0.00076057,0.0135044,1616,470,6.37741,15.3867
399,554,6.36108,-15.0399,-0.000179635,0.0011603,0.000484152,0.00131693,-0.000336263,1.25791,0.00100889,0.0178285,1623,470,6.36104,15.0399
406,554,6.35657,-14.7222,-0.000340925,0.00135283,0.000557911,0.00152008,-0.000508181,1.27953,0.00121863,0.0161519,1630,470,6.35662,14.7222
413,554,6.35876,-14.3545,-0.000585293,0.00152581,0.000593517,0.00168123,-0.000740713,1.31468,0.00143302,0.0147394,1637,470,6.35874,14.3545
420,554,6.35022,-14.0173,-0.000859729,0.00135781,0.000441553,0.00144249,-0.000944416,1.3813,0.00138805,0.0157022,1644,470,6.35019,14.0173
427,554,6.35413,-13.6725,-0.00120932,0.000727365,0.000233639,0.000755152,-0.00123711,1.45242,0.00116139,0.0114492,1651,470,6.3541,13.6725
434,554,6.34302,-13.3093,-0.00136192,0.000130796,0.000177136,0.000151529,-0.00138265,1.45429,0.000976206,0.0103757,1658,470,6.34301,13.3093
441,554,6.33142,-12.9467,-0.00159828,-0.000657129,2.60823e-05,-0.000656407,-0.001599,1.54311,0.000928098,0.0112394,1665,470,6.33136,12.9466
448,554,6.31042,-12.5634,-0.00180501,-0.00167867,-0.000120239,-0.00160602,-0.00187767,-1.02727,0.00117177,0.0137601,1672,470,6.31038,12.5634
455,554,6.28113,-12.1919,-0.00193458,-0.0030039,-0.00028694,-0.00186245,-0.00307603,-0.246279,0.00178907,0.0160199,1679,470,6.28107,12.1919
462,554,6.24634,-11.8532,-0.00170252,-0.00455986,-0.000287445,-0.00167389,-0.00458849,-0.0992735,0.00268126,0.0184435,1686,470,6.2463,11.8532
469,554,6.16223,-11.459,-0.00106604,-0.00637557,2.74445e-05,-0.00106589,-0.00637571,0.00516873,0.00394349,0.0235791,1693,470,6.16224,11.459
476,554,6.07764,-10.9789,-0.000344658,-0.00837188,0.000383988,-0.000326332,-0.00839021,0.0476905,0.00548793,0.0453596,1700,470,6.07761,10.9789
483,554,6.0199,-10.5267,0,0,0,0,0,0,0,-1,1707,470,6.0199,10.5267
490,554,7.31543,-3.51794,0,0,0,0,0,0,0,-1,1714,470,7.3154,3.51794
497,554,7.9751,-2.43454,0,0,0,0,0,0,0,-1,1721,470,7.97505,2.43453
504,554,2.13257,-3.81628,0,0,0,0,0,0,0,-1,1728,470,2.1326,3.8163
511,554,1.31396,-4.02713,0,0,0,0,0,0,0,-1,1735,470,1.31398,4.02712
518,554,5.04236,-5.9472,0,0,0,0,0,0,0,-1,1742,470,5.04231,5.94721
525,554,0,0,0,0,0,0,0,0,0,-1,1749,470,0,0
532,554,0,0,0,0,0,0,0,0,0,-1,1756,470,0,0
539,554,0,0,0,0,0,0,0,0,0,-1,1763,470,0,0
546,554,0,0,0,0,0,0,0,0,0,-1,1770,470,0,0
553,554,0,0,0,0,0,0,0,0,0,-1,1777,470,0,0
560,554,0,0,0,0,0,0,0,0,0,-1,1784,470,0,0
567,554,0,0,0,0,0,0,0,0,0,-1,1791,470,0,0
574,554,0,0,0,0,0,0,0,0,0,-1,1798,470,0,0
581,554,0,0,0,0,0,0,0,0,0,-1,1805,470,0,0
588,554,0,0,0,0,0,0,0,0,0,-1,1812,470,0,0
595,554,0,0,0,0,0,0,0,0,0,-1,1819,470,0,0
602,554,0,0,0,0,0,0,0,0,0,-1,1826,470,0,0
609,554,0,0,0,0,0,0,0,0,0,-1,1833,470,0,0
616,554,0,0,0,0,0,0,0,0,0,-1,1840,470,0,0
623,554,0,0,0,0,0,0,0,0,0,-1,1847,470,0,0
630,554,0,0,0,0,0,0,0,0,0,-1,1854,470,0,0
637,554,0,0,0,0,0,0,0,0,0,-1,1861,470,0,0
644,554,0,0,0,0,0,0,0,0,0,-1,1868,470,0,0
651,554,0,0,0,0,0,0,0,0,0,-1,1875,470,0,0
658,554,0,0,0,0,0,0,0,0,0,-1,1882,470,0,0
665,554,0,0,0,0,0,0,0,0,0,-1,1889,470,0,0
672,554,0,0,0,0,0,0,0,0,0,-1,1896,470,0,0
679,554,0,0,0,0,0,0,0,0,0,-1,1903,470,0,0
686,554,0,0,0,0,0,0,0,0,0,-1,1910,470,0,0
693,554,0,0,0,0,0,0,0,0,0,-1,1917,470,0,0
700,554,0,0,0,0,0,0,0,0,0,-1,1924,470,0,0
707,554,0,0,0,0,0,0,0,0,0,-1,1931,470,0,0
714,554,0,0,0,0,0,0,0,0,0,-1,1938,470,0,0
721,554,0,0,0,0,0,0,0,0,0,-1,1945,470,0,0
728,554,0,0,0,0,0,0,0,0,0,-1,1952,470,0,0
735,554,0,0,0,0,0,0,0,0,0,-1,1959,470,0,0
742,554,0,0,0,0,0,0,0,0,0,-1,1966,470,0,0
749,554,0,0,0,0,0,0,0,0,0,-1,1973,470,0,0
756,554,0,0,0,0,0,0,0,0,0,-1,1980,470,0,0
763,554,0,0,0,0,0,0,0,0,0,-1,1987,470,0,0
770,554,0,0,0,0,0,0,0,0,0,-1,1994,470,0,0
777,554,0,0,0,0,0,0,0,0,0,-1,2001,470,0,0
784,554,0,0,0,0,0,0,0,0,0,-1,2008,470,0,0
791,554,0,0,0,0,0,0,0,0,0,-1,2015,470,0,0
798,554,0,0,0,0,0,0,0,0,0,-1,2022,470,0,0
805,554,0,0,0,0,0,0,0,0,0,-1,2029,470,0,0
812,554,0,0,0,0,0,0,0,0,0,-1,2036,470,0,0
-700,547,0,0,0,0,0,0,0,0,0,-1,524,477,0,0
-693,547,0,0,0,0,0,0,0,0,0,-1,531,477,0,0
-686,547,0,0,0,0,0,0,0,0,0,-1,538,477,0,0
-679,547,0,0,0,0,0,0,0,0,0,-1,545,477,0,0
-672,547,0,0,0,0,0,0,0,0,0,-1,552,477,0,0
-665,547,0,0,0,0,0,0,0,0,0,-1,559,477,0,0
-658,547,0,0,0,0,0,0,0,0,0,-1,566,477,0,0
-651,547,0,0,0,0,0,0,0,0,0,-1,573,477,0,0
-644,547,0,0,0,0,0,0,0,0,0,-1,580,477,0,0
-637,547,0,0,0,0,0,0,0,0,0,-1,587,477,0,0
-630,547,0,0,0,0,0,0,0,0,0,-1,594,477,0,0
-623,547,0,0,0,0,0,0,0,0,0,-1,601,477,0,0
-616,547,0,0,0,0,0,0,0,0,0,-1,608,477,0,0
-609,547,0,0,0,0,0,0,0,0,0,-1,615,477,0,0
-602,547,0,0,0,0,0,0,0,0,0,-1,622,477,0,0
-595,547,0,0,0,0,0,0,0,0,0,-1,629,477,0,0
-588,547,0,0,0,0,0,0,0,0,0,-1,636,477,0,0
-581,547,0,0,0,0,0,0,0,0,0,-1,643,477,0,0
-574,547,0,0,0,0,0,0,0,0,0,-1,650,477,0,0
-567,547,0,0,0,0,0,0,0,0,0,-1,657,477,0,0
-560,547,0,0,0,0,0,0,0,0,0,-1,664,477,0,0
-553,547,0,0,0,0,0,0,0,0,0,-1,671,477,0,0
-546,547,0,0,0,0,0,0,0,0,0,-1,678,477,0,0
-539,547,0,0,0,0,0,0,0,0,0,-1,685,477,0,0
-532,547,0,0,0,0,0,0,0,0,0,-1,692,477,0,0
-525,547,0,0,0,0,0,0,0,0,0,-1,699,477,0,0
-518,547,0,0,0,0,0,0,0,0,0,-1,706,477,0,0
-511,547,0,0,0,0,0,0,0,0,0,-1,713,477,0,0
-504,547,0,0,0,0,0,0,0,0,0,-1,720,477,0,0
-497,547,0,0,0,0,0,0,0,0,0,-1,727,477,0,0
-490,547,0,0,0,0,0,0,0,0,0,-1,734,477,0,0
-483,547,0,0,0,0,0,0,0,0,0,-1,741,477,0,0
-476,547,0,0,0,0,0,0,0,0,0,-1,748,477,0,0
-469,547,0,0,0,0,0,0,0,0,0,-1,755,477,0,0
-462,547,0,0,0,0,0,0,0,0,0,-1,762,477,0,0
-455,547,0,0,0,0,0,0,0,0,0,-1,769,477,0,0
-448,547,0,0,0,0,0,0,0,0,0,-1,776,477,0,0
-441,547,0,0,0,0,0,0,0,0,0,-1,783,477,0,0
-434,547,0,0,0,0,0,0,0,0,0,-1,790,477,0,0
-427,547,0,0,0,0,0,0,0,0,0,-1,797,477,0,0
-420,547,0,0,0,0,0,0,0,0,0,-1,804,477,0,0
-413,547,0,0,0,0,0,0,0,0,0,-1,811,477,0,0
-406,547,-0.391418,-10.4779,0,0,0,0,0,0,0,-1,818,477,-0.391439,10.4779
-399,547,-0.0641479,-11.2271,0,0,0,0,0,0,0,-1,825,477,-0.0641304,11.2271
-392,547,-1.52271,-4.41675,0,0,0,0,0,0,0,-1,832,477,-1.52273,4.41674
-385,547,-1.73743,-4.6431,0,0,0,0,0,0,0,-1,839,477,-1.73743,4.64308
-378,547,-2.41339,-4.60071,0,0,0,0,0,0,0,-1,846,477,-2.41337,4.60071
-371,547,1.64569,-11.1445,0,0,0,0,0,0,0,-1,853,477,1.64569,11.1445
-364,547,0.271729,-4.58582,0,0,0,0,0,0,0,-1,860,477,0.271753,4.5858
-357,547,1.47601,-11.74,0,0,0,0,0,0,0,-1,867,477,1.476,11.74
-350,547,0.916138,-12.216,0,0,0,0,0,0,0,-1,874,477,0.916132,12.216
-343,547,0.8479,-12.7532,-0.00319916,0.000357171,-0.00177887,0.00109421,-0.0039362,-1.178,0.00305491,0.0418318,881,477,0.847878,12.7532
-336,547,0.77478,-13.2133,-0.00232977,0.000154306,-0.00221959,0.00145574,-0.0036312,-1.04048,0.00302514,0.01728,888,477,0.77481,13.2133
-329,547,0.736511,-13.574,-0.00150432,6.27119e-05,-0.00238845,0.00179288,-0.00323449,-0.943889,0.00294206,0.00963379,895,477,0.73652,13.574
-322,547,0.728333,-13.9268,-0.000889018,-9.75371e-05,-0.00242856,0.00196731,-0.00295387,-0.866165,0.00286021,0.0110498,902,477,0.72833,13.9268
-315,547,0.709167,-14.2981,-0.000420276,-0.000142669,-0.00234608,0.00206871,-0.00263166,-0.814946,0.00272024,0.0104489,909,477,0.709141,14.2981
-308,547,0.689636,-14.6372,-5.51863e-05,-0.000146047,-0.00219161,0.00209146,-0.00229269,-0.775035,0.00253208,0.0116418,916,477,0.689661,14.6372
-301,547,0.685364,-14.9744,0.000157046,-0.000264687,-0.00189288,0.00185077,-0.00195841,-0.729927,0.00219953,0.0113763,923,477,0.685339,14.9744
-294,547,0.658875,-15.2933,0.000404255,-0.000540318,-0.00142349,0.00143176,-0.00156782,-0.625222,0.0017324,0.0093317,930,477,0.658853,15.2933
-287,547,0.654968,-15.6011,0.000968018,-0.00107492,-0.00109125,0.00144128,-0.00154819,-0.409207,0.00172634,0.0109538,937,477,0.654996,15.6011
-280,547,0.667542,-15.92,0.00132053,-0.00174676,-0.000623103,0.00144228,-0.00186851,-0.192958,0.00191675,0.012308,944,477,0.667514,15.9199
-273,547,0.667175,-16.2519,0.00169554,-0.00275513,-1.73185e-06,0.00169554,-0.00275513,-0.00038912,0.00259376,0.0124118,951,477,0.66718,16.2519
-266,547,0.641602,-16.5569,0.00225532,-0.00414742,0.000609572,0.00231284,-0.00420493,0.0940787,0.00381553,0.0121535,958,477,0.641617,16.5569
-259,547,0.643188,-16.8527,0.00289381,-0.00568886,0.00113067,0.00304026,-0.00583531,0.128812,0.00520832,0.0108439,965,477,0.643197,16.8527
-252,547,0.655029,-17.141,0.00350162,-0.00718202,0.00161588,0.00374067,-0.00742107,0.146873,0.00655997,0.01148,972,477,0.655035,17.141
-245,547,0.659424,-17.4478,0.00417697,-0.00902014,0.0021833,0.00452879,-0.00937196,0.159769,0.00818637,0.0128962,979,477,0.659428,17.4477
-238,547,0.665344,-17.7517,0.00481201,-0.0110651,0.00275427,0.00527623,-0.0115293,0.166977,0.00992406,0.00860989,986,477,0.665367,17.7517
-231,547,0.659363,-18.04,0.00534837,-0.0130047,0.00325732,0.00590933,-0.0135656,0.170544,0.0115299,0.00740818,993,477,0.659341,18.04
-224,547,0.680237,-18.2917,0.00574614,-0.0146639,0.0038173,0.00643673,-0.0153545,0.178974,0.0129276,0.010046,1000,477,0.680218,18.2917
-217,547,0.726318,-18.5583,0.00602352,-0.0158899,0.00425783,0.00682175,-0.0166881,0.185322,0.0139662,0.0164573,1007,477,0.726342,18.5584
-210,547,0.769836,-18.7339,0.0061076,-0.0162428,0.00436662,0.00693042,-0.0170656,0.18625,0.0142601,0.0304152,1014,477,0.769818,18.7339
-203,547,0.739075,-18.6644,0.00593767,-0.0154858,0.00449559,0.0068428,-0.016391,0.198681,0.0137864,0.0391914,1021,477,0.739103,18.6644
-196,547,0.509766,-18.9102,0,0,0,0,0,0,0,-1,1028,477,0.509807,18.9102
-189,547,0.816406,-19.041,0,0,0,0,0,0,0,-1,1035,477,0.816404,19.041
-182,547,1.00342,-19.2531,0,0,0,0,0,0,0,-1,1042,477,1.00337,19.253
-175,547,-0.350098,-12.3584,0,0,0,0,0,0,0,-1,1049,477,-0.350098,12.3584
-168,547,1.12463,-8.66785,0,0,0,0,0,0,0,-1,1056,477,1.12461,8.66786
-161,547,1.91382,-19.5882,0,0,0,0,0,0,0,-1,1063,477,1.91386,19.5882
-154,547,0.642212,-21.3034,0,0,0,0,0,0,0,-1,1070,477,0.642215,21.3034
-147,547,1.65625,-20.588,0,0,0,0,0,0,0,-1,1077,477,1.65624,20.5879
-140,547,1.41565,-21.0292,0,0,0,0,0,0,0,-1,1084,477,1.41561,21.0292
-133,547,2.31665,-17.9421,0,0,0,0,0,0,0,-1,1091,477,2.31667,17.9421
-126,547,0.784302,-9.76431,0,0,0,0,0,0,0,-1,1098,477,0.78428,9.76432
-119,547,0.190308,-15.7633,0,0,0,0,0,0,0,-1,1105,477,0.190348,15.7633
-112,547,4.36194,-9.23029,0,0,0,0,0,0,0,-1,1112,477,4.36195,9.23029
-105,547,4.448,-9.17819,0,0,0,0,0,0,0,-1,1119,477,4.44799,9.1782
-98,547,1.50391,-7.20621,0,0,0,0,0,0,0,-1,1126,477,1.50395,7.20621
-91,547,1.37805,-7.12024,0,0,0,0,0,0,0,-1,1133,477,1.37804,7.12025
-84,547,1.94202,-6.66241,0,0,0,0,0,0,0,-1,1140,477,1.94201,6.66241
-77,547,-2.28357,1.8588,0,0,0,0,0,0,0,-1,1147,477,-2.28356,-1.85879
-70,547,-3.70178,-0.874908,0,0,0,0,0,0,0,-1,1154,477,-3.70182,0.874918
-63,547,-5.12012,-3.60861,0,0,0,0,0,0,0,-1,1161,477,-5.12009,3.60862
-56,547,-6.01917,-6.2399,0,0,0,0,0,0,0,-1,1168,477,-6.01921,6.23991
-49,547,-6.729,-8.60349,0,0,0,0,0,0,0,-1,1175,477,-6.72899,8.60348
-42,547,-2.41736,-5.53012,0,0,0,0,0,0,0,-1,1182,477,-2.41734,5.53011
-35,547,-2.96838,-4.45734,0,0,0,0,0,0,0,-1,1189,477,-2.96839,4.45734
-28,547,-0.869141,-1.29901,0,0,0,0,0,0,0,-1,1196,477,-0.869135,1.29901
-21,547,1.25781,-16.1606,0,0,0,0,0,0,0,-1,1203,477,1.25784,16.1606
-14,547,1.18811,-26.4321,0,0,0,0,0,0,0,-1,1210,477,1.1881,26.4321
-7,547,1.78674,-28.1733,0,0,0,0,0,0,0,-1,1217,477,1.78676,28.1733
0,547,2.38538,-29.9146,0,0,0,0,0,0,0,-1,1224,477,2.38543,29.9146
7,547,6.59607,-20.8457,0,0,0,0,0,0,0,-1,1231,477,6.59608,20.8457
14,547,0,0,0,0,0,0,0,0,0,-1,1238,477,0,0
21,547,0,0,0,0,0,0,0,0,0,-1,1245,477,0,0
28,547,0,0,0,0,0,0,0,0,0,-1,1252,477,0,0
35,547,0,0,0,0,0,0,0,0,0,-1,1259,477,0,0
42,547,0,0,0,0,0,0,0,0,0,-1,1266,477,0,0
49,547,0,0,0,0,0,0,0,0,0,-1,1273,477,0,0
56,547,0,0,0,0,0,0,0,0,0,-1,1280,477,0,0
63,547,0,0,0,0,0,0,0,0,0,-1,1287,477,0,0
70,547,0,0,0,0,0,0,0,0,0,-1,1294,477,0,0
77,547,0,0,0,0,0,0,0,0,0,-1,1301,477,0,0
84,547,0,0,0,0,0,0,0,0,0,-1,1308,477,0,0
91,547,0,0,0,0,0,0,0,0,0,-1,1315,477,0,0
98,547,0,0,0,0,0,0,0,0,0,-1,1322,477,0,0
105,547,9.01538,-26.3401,-0.0228561,0.0786428,-0.0540084,0.102004,-0.0462175,-1.16255,0.0875729,0.0449269,1329,477,9.01539,26.3401
112,547,8.84375,-25.9714,-0.0284567,0.0694918,-0.05636,0.095183,-0.0541479,-1.1431,0.0872945,0.045929,1336,477,8.84372,25.9714
119,547,8.82324,-26.2245,0,0,0,0,0,0,0,-1,1343,477,8.82323,26.2245
126,547,8.79785,-26.7365,0,0,0,0,0,0,0,-1,1350,477,8.79784,26.7364
133,547,8.79578,-27.255,0,0,0,0,0,0,0,-1,1357,477,8.79573,27.255
140,547,8.80164,-27.5426,0,0,0,0,0,0,0,-1,1364,477,8.80169,27.5426
147,547,6.43188,-21.9275,0,0,0,0,0,0,0,-1,1371,477,6.43193,21.9275
154,547,6.49902,-22.6739,0,0,0,0,0,0,0,-1,1378,477,6.49902,22.6739
161,547,6.60522,-23.546,0,0,0,0,0,0,0,-1,1385,477,6.60523,23.546
168,547,9.11914,-12.0414,0,0,0,0,0,0,0,-1,1392,477,9.1191,12.0414
175,547,3.35034,-0.26532,0,0,0,0,0,0,0,-1,1399,477,3.3503,0.265306
182,547,4.26038,3.72672,0,0,0,0,0,0,0,-1,1406,477,4.26039,-3.7267
189,547,3.40454,1.28671,0,0,0,0,0,0,0,-1,1413,477,3.40457,-1.28673
196,547,3.53931,1.87793,0,0,0,0,0,0,0,-1,1420,477,3.53928,-1.87794
203,547,6.49414,-0.425842,0,0,0,0,0,0,0,-1,1427,477,6.4941,0.425844
210,547,4.82092,0.53595,0,0,0,0,0,0,0,-1,1434,477,4.82096,-0.535942
217,547,4.68579,0.480072,0,0,0,0,0,0,0,-1,1441,477,4.68577,-0.480069
224,547,4.55615,0.739807,0,0,0,0,0,0,0,-1,1448,477,4.55613,-0.73981
231,547,5.90869,-3.57721,0,0,0,0,0,0,0,-1,1455,477,5.90871,3.57722
238,547,5.50049,-3.15356,0,0,0,0,0,0,0,-1,1462,477,5.50045,3.15356
245,547,5.13708,-2.65213,0,0,0,0,0,0,0,-1,1469,477,5.13708,2.65212
252,547,3.73511,-0.645233,0,0,0,0,0,0,0,-1,1476,477,3.73515,0.645237
259,547,5.86816,-3.20816,0,0,0,0,0,0,0,-1,1483,477,5.86815,3.20816
266,547,5.40222,-2.45731,0,0,0,0,0,0,0,-1,1490,477,5.40221,2.45732
273,547,3.05737,0.495789,0,0,0,0,0,0,0,-1,1497,477,3.05742,-0.49578
280,547,2.0885,1.47797,0,0,0,0,0,0,0,-1,1504,477,2.08848,-1.47795
287,547,2.31177,-2.21716,0,0,0,0,0,0,0,-1,1511,477,2.31174,2.21717
294,547,2.4823,-3.03659,0,0,0,0,0,0,0,-1,1518,477,2.48229,3.0366
301,547,4.72119,-3.93454,0,0,0,0,0,0,0,-1,1525,477,4.72119,3.93453
308,547,4.07471,-5.42175,0,0,0,0,0,0,0,-1,1532,477,4.07468,5.42174
315,547,3.58496,-6.62112,0,0,0,0,0,0,0,-1,1539,477,3.58497,6.62113
322,547,5.73926,-14.1878,0,0,0,0,0,0,0,-1,1546,477,5.73926,14.1878
329,547,6.61084,-17.8848,0,0,0,0,0,0,0,-1,1553,477,6.61079,17.8848
336,547,6.63171,-17.9825,0,0,0,0,0,0,0,-1,1560,477,6.63169,17.9825
343,547,6.77429,-17.7057,0.000545119,-0.004215,-0.00314356,0.00210798,-0.00577786,-0.461376,0.00471437,0.0363916,1567,477,6.77435,17.7058
350,547,6.72424,-17.3694,0.000100721,-0.00349606,-0.00268389,0.00153304,-0.00492838,-0.490221,0.00389841,0.0236487,1574,477,6.72425,17.3694
357,547,6.70667,-17.0392,-0.000175017,-0.00258917,-0.0022636,0.00118324,-0.00394743,-0.54045,0.00310218,0.0153616,1581,477,6.70666,17.0392
364,547,6.6853,-16.7212,-0.000158352,-0.00192199,-0.00162281,0.00080675,-0.0028871,-0.536521,0.00224255,0.0105346,1588,477,6.6853,16.7212
371,547,6.69141,-16.3911,-1.55182e-05,-0.00128531,-0.00107248,0.000595901,-0.00189672,-0.518144,0.00150302,0.00916942,1595,477,6.69146,16.3911
378,547,6.71729,-16.0641,0.000129988,-0.000711312,-0.000668099,0.000498833,-0.00108016,-0.50444,0.000931998,0.0101754,1602,477,6.71724,16.0641
385,547,6.73486,-15.7222,0.000237382,5.27278e-05,-0.000250529,0.000412055,-0.000121946,-0.608856,0.000323116,0.011147,1609,477,6.73481,15.7222
392,547,6.71655,-15.3917,0.000234168,0.000495015,1.58679e-05,0.000495977,0.000233206,1.51026,0.000286522,0.0117533,1616,477,6.71654,15.3917
399,547,6.69531,-15.0553,0.000194271,0.000766354,0.000218145,0.000840044,0.000120581,1.24503,0.000524477,0.0128591,1623,477,6.69531,15.0553
406,547,6.70898,-14.7074,0.000104464,0.00101298,0.000335672,0.00112355,-6.10133e-06,1.2526,0.000751074,0.0123481,1630,477,6.70897,14.7074
413,547,6.70947,-14.3416,-4.11985e-05,0.0012881,0.0004485,0.00142527,-0.000178366,1.27399,0.00101487,0.0124142,1637,477,6.70948,14.3416
420,547,6.70898,-14.0278,-0.000246864,0.00125892,0.000404364,0.00136064,-0.000348581,1.32436,0.00104289,0.0146405,1644,477,6.70897,14.0278
427,547,6.71143,-13.6744,-0.000563069,0.000875946,0.000282661,0.000929477,-0.000616599,1.38363,0.000898699,0.0140599,1651,477,6.71146,13.6744
434,547,6.67737,-13.3164,-0.00078488,0.000444509,0.000238803,0.000489266,-0.000829637,1.38552,0.000769875,0.0103849,1658,477,6.67741,13.3164
441,547,6.65906,-12.981,-0.00103435,-0.00013698,0.0001662,-0.000107187,-0.00106414,1.39342,0.000676532,0.0114079,1665,477,6.65906,12.981
448,547,6.64783,-12.6094,-0.00123019,-0.000933745,0.000100708,-0.00090277,-0.00126117,1.2724,0.000750406,0.0116089,1672,477,6.64787,12.6094
455,547,6.65222,-12.237,-0.00137275,-0.00194781,2.03828e-05,-0.00137202,-0.00194853,0.0353851,0.00115582,0.0112711,1679,477,6.65224,12.237
462,547,6.62817,-11.8624,-0.00119277,-0.003212,7.09606e-05,-0.00119028,-0.00321449,0.0350847,0.00187659,0.0114294,1686,477,6.62817,11.8624
469,547,6.55518,-11.467,-0.000633994,-0.0047203,0.000409446,-0.000593372,-0.00476092,0.0988897,0.00299581,0.0194367,1693,477,6.55514,11.467
476,547,6.50354,-10.952,-7.44084e-05,-0.00637863,0.000726406,8.20914e-06,-0.00646125,0.113248,0.00431024,0.038299,1700,477,6.50354,10.952
483,547,6.51355,-10.3806,0,0,0,0,0,0,0,-1,1707,477,6.51351,10.3806
490,547,3.65271,-3.71707,0,0,0,0,0,0,0,-1,1714,477,3.65277,3.71708
497,547,2.55481,-3.81421,0,0,0,0,0,0,0,-1,1721,477,2.55476,3.8142
504,547,4.01953,-2.22714,0,0,0,0,0,0,0,-1,1728,477,4.0195,2.22713
511,547,5.2146,-6.9552,0,0,0,0,0,0,0,-1,1735,477,5.21464,6.95521
518,547,5.24243,-6.56122,0,0,0,0,0,0,0,-1,1742,477,5.24241,6.56121
525,547,5.7533,-5.33215,0,0,0,0,0,0,0,-1,1749,477,5.75329,5.33215
532,547,0,0,0,0,0,0,0,0,0,-1,1756,477,0,0
539,547,0,0,0,0,0,0,0,0,0,-1,1763,477,0,0
546,547,0,0,0,0,0,0,0,0,0,-1,1770,477,0,0
553,547,0,0,0,0,0,0,0,0,0,-1,1777,477,0,0
560,547,0,0,0,0,0,0,0,0,0,-1,1784,477,0,0
567,547,0,0,0,0,0,0,0,0,0,-1,1791,477,0,0
574,547,0,0,0,0,0,0,0,0,0,-1,1798,477,0,0
581,547,0,0,0,0,0,0,0,0,0,-1,1805,477,0,0
588,547,0,0,0,0,0,0,0,0,0,-1,1812,477,0,0
595,547,0,0,0,0,0,0,0,0,0,-1,1819,477,0,0
602,547,0,0,0,0,0,0,0,0,0,-1,1826,477,0,0
609,547,0,0,0,0,0,0,0,0,0,-1,1833,477,0,0
616,547,0,0,0,0,0,0,0,0,0,-1,1840,477,0,0
623,547,0,0,0,0,0,0,0,0,0,-1,1847,477,0,0
630,547,0,0,0,0,0,0,0,0,0,-1,1854,477,0,0
637,547,0,0,0,0,0,0,0,0,0,-1,1861,477,0,0
644,547,0,0,0,0,0,0,0,0,0,-1,1868,477,0,0
651,547,0,0,0,0,0,0,0,0,0,-1,1875,477,0,0
658,547,0,0,0,0,0,0,0,0,0,-1,1882,477,0,0
665,547,0,0,0,0,0,0,0,0,0,-1,1889,477,0,0
672,547,0,0,0,0,0,0,0,0,0,-1,1896,477,0,0
679,547,0,0,0,0,0,0,0,0,0,-1,1903,477,0,0
686,547,0,0,0,0,0,0,0,0,0,-1,1910,477,0,0
693,547,0,0,0,0,0,0,0,0,0,-1,1917,477,0,0
700,547,0,0,0,0,0,0,0,0,0,-1,1924,477,0,0
707,547,0,0,0,0,0,0,0,0,0,-1,1931,477,0,0
714,547,0,0,0,0,0,0,0,0,0,-1,1938,477,0,0
721,547,0,0,0,0,0,0,0,0,0,-1,1945,477,0,0
728,547,0,0,0,0,0,0,0,0,0,-1,1952,477,0,0
735,547,0,0,0,0,0,0,0,0,0,-1,1959,477,0,0
742,547,0,0,0,0,0,0,0,0,0,-1,1966,477,0,0
749,547,0,0,0,0,0,0,0,0,0,-1,1973,477,0,0
756,547,0,0,0,0,0,0,0,0,0,-1,1980,477,0,0
763,547,0,0,0,0,0,0,0,0,0,-1,1987,477,0,0
770,547,0,0,0,0,0,0,0,0,0,-1,1994,477,0,0
777,547,0,0,0,0,0,0,0,0,0,-1,2001,477,0,0
784,547,0,0,0,0,0,0,0,0,0,-1,2008,477,0,0
791,547,0,0,0,0,0,0,0,0,0,-1,2015,477,0,0
798,547,0,0,0,0,0,0,0,0,0,-1,2022,477,0,0
805,547,0,0,0,0,0,0,0,0,0,-1,2029,477,0,0
812,547,0,0,0,0,0,0,0,0,0,-1,2036,477,0,0
-700,540,0,0,0,0,0,0,0,0,0,-1,524,484,0,0
-693,540,0,0,0,0,0,0,0,0,0,-1,531,484,0,0
-686,540,0,0,0,0,0,0,0,0,0,-1,538,484,0,0
-679,540,0,0,0,0,0,0,0,0,0,-1,545,484,0,0
-672,540,0,0,0,0,0,0,0,0,0,-1,552,484,0,0
-665,540,0,0,0,0,0,0,0,0,0,-1,559,484,0,0
-658,540,0,0,0,0,0,0,0,0,0,-1,566,484,0,0
-651,540,0,0,0,0,0,0,0,0,0,-1,573,484,0,0
-644,540,0,0,0,0,0,0,0,0,0,-1,580,484,0,0
-637,540,0,0,0,0,0,0,0,0,0,-1,587,484,0,0
-630,540,0,0,0,0,0,0,0,0,0,-1,594,484,0,0
-623,540,0,0,0,0,0,0,0,0,0,-1,601,484,0,0
-616,540,0,0,0,0,0,0,0,0,0,-1,608,484,0,0
-609,540,0,0,0,0,0,0,0,0,0,-1,615,484,0,0
-602,540,0,0,0,0,0,0,0,0,0,-1,622,484,0,0
-595,540,0,0,0,0,0,0,0,0,0,-1,629,484,0,0
-588,540,0,0,0,0,0,0,0,0,0,-1,636,484,0,0
-581,540,0,0,0,0,0,0,0,0,0,-1,643,484,0,0
-574,540,0,0,0,0,0,0,0,0,0,-1,650,484,0,0
-567,540,0,0,0,0,0,0,0,0,0,-1,657,484,0,0
-560,540,0,0,0,0,0,0,0,0,0,-1,664,484,0,0
-553,540,0,0,0,0,0,0,0,0,0,-1,671,484,0,0
-546,540,0,0,0,0,0,0,0,0,0,-1,678,484,0,0
-539,540,0,0,0,0,0,0,0,0,0,-1,685,484,0,0
-532,540,0,0,0,0,0,0,0,0,0,-1,692,484,0,0
-525,540,0,0,0,0,0,0,0,0,0,-1,699,484,0,0
-518,540,0,0,0,0,0,0,0,0,0,-1,706,484,0,0
-511,540,0,0,0,0,0,0,0,0,0,-1,713,484,0,0
-504,540,0,0,0,0,0,0,0,0,0,-1,720,484,0,0
-497,540,0,0,0,0,0,0,0,0,0,-1,727,484,0,0
-490,540,0,0,0,0,0,0,0,0,0,-1,734,484,0,0
-483,540,0,0,0,0,0,0,0,0,0,-1,741,484,0,0
-476,540,0,0,0,0,0,0,0,0,0,-1,748,484,0,0
-469,540,0,0,0,0,0,0,0,0,0,-1,755,484,0,0
-462,540,0,0,0,0,0,0,0,0,0,-1,762,484,0,0
-455,540,0,0,0,0,0,0,0,0,0,-1,769,484,0,0
-448,540,0,0,0,0,0,0,0,0,0,-1,776,484,0,0
-441,540,0,0,0,0,0,0,0,0,0,-1,783,484,0,0
-434,540,0,0,0,0,0,0,0,0,0,-1,790,484,0,0
-427,540,0,0,0,0,0,0,0,0,0,-1,797,484,0,0
-420,540,0.291504,-4.59543,0,0,0,0,0,0,0,-1,804,484,0.291518,4.59544
-413,540,-0.521362,-9.61209,0,0,0,0,0,0,0,-1,811,484,-0.521343,9.61208
-406,540,-0.557251,-10.6337,0.0598924,-0.0203422,-0.0365608,0.0740529,-0.0345028,-0.369524,0.0640462,0.0477169,818,484,-0.55726,10.6337
-399,540,-0.0842285,-11.3994,0.050864,-0.0172531,-0.0314348,0.0631534,-0.0295425,-0.372679,0.0546781,0.0476822,825,484,-0.0842554,11.3993
-392,540,0.67572,-11.8254,0,0,0,0,0,0,0,-1,832,484,0.675725,11.8254
-385,540,-2.29407,-5.03418,0,0,0,0,0,0,0,-1,839,484,-2.29408,5.03418
-378,540,1.06445,-10.5824,0,0,0,0,0,0,0,-1,846,484,1.06446,10.5824
-371,540,1.14825,-10.7452,0,0,0,0,0,0,0,-1,853,484,1.14827,10.7452
-364,540,0.634094,-11.9302,0,0,0,0,0,0,0,-1,860,484,0.634085,11.9302
-357,540,0.53772,-11.9175,0,0,0,0,0,0,0,-1,867,484,0.537745,11.9175
-350,540,0.492493,-12.3473,-0.00062189,-0.000880951,-0.00231721,0.00156941,-0.00307225,-0.757478,0.00272628,0.0342209,874,484,0.492514,12.3473
-343,540,0.444946,-12.8152,-0.00261015,0.000665152,-0.00129128,0.001113,-0.003058,-1.23695,0.00249387,0.016757,881,484,0.444935,12.8153
-336,540,0.402771,-13.2604,-0.00183498,0.000611438,-0.00146827,0.00129927,-0.00252281,-1.1327,0.00224405,0.01231,888,484,0.402796,13.2604
-329,540,0.392944,-13.594,-0.00112998,0.000519532,-0.00153551,0.00143777,-0.00204822,-1.03185,0.0020229,0.0100566,895,484,0.392948,13.594
-322,540,0.389465,-13.9312,-0.00057671,0.000377857,-0.00151434,0.00148835,-0.0016872,-0.938058,0.00183461,0.0142829,902,484,0.389482,13.9313
-315,540,0.373901,-14.2914,-0.000122591,0.000355856,-0.00139379,0.0015308,-0.00129754,-0.870388,0.00163479,0.0127007,909,484,0.373892,14.2914
-308,540,0.367432,-14.6271,0.000253396,0.000335485,-0.00122973,0.00152486,-0.000935978,-0.80208,0.00143426,0.0116187,916,484,0.367414,14.6271
-301,540,0.354736,-14.9459,0.000480072,0.000156954,-0.000947405,0.00127959,-0.000642568,-0.700947,0.00112989,0.0122771,923,484,0.354755,14.9459
-294,540,0.357483,-15.2903,0.00079296,-0.000241181,-0.000480434,0.000981707,-0.000429928,-0.374343,0.000835504,0.0113736,930,484,0.357511,15.2903
-287,540,0.365601,-15.6152,0.00148679,-0.00113213,-0.000176388,0.00149861,-0.00114395,-0.0669488,0.00153026,0.00821051,937,484,0.365595,15.6152
-280,540,0.357727,-15.9359,0.00191497,-0.00211237,0.000249022,0.00193031,-0.00212771,0.0615206,0.00234382,0.00934305,944,484,0.357722,15.9359
-273,540,0.349548,-16.2487,0.00241214,-0.00352907,0.000847192,0.00253058,-0.00364751,0.138908,0.0035863,0.0118839,951,484,0.349565,16.2487
-266,540,0.349304,-16.5476,0.00318559,-0.00545193,0.00147349,0.00343004,-0.00569638,0.1644,0.00532302,0.0129786,958,484,0.349311,16.5476
-259,540,0.352234,-16.8625,0.00407693,-0.00765089,0.0019962,0.0044074,-0.00798136,0.164058,0.00725118,0.0120946,965,484,0.35226,16.8625
-252,540,0.365234,-17.1381,0.00491678,-0.00966794,0.0024987,0.00533299,-0.0100841,0.165054,0.00904088,0.0125803,972,484,0.365235,17.1381
-245,540,0.370972,-17.4402,0.00579572,-0.0122198,0.0031378,0.00632659,-0.0127507,0.167599,0.0112205,0.0132291,979,484,0.37098,17.4402
-238,540,0.363037,-17.7278,0.0066392,-0.0149686,0.00379011,0.00728472,-0.0156141,0.168698,0.013509,0.0100024,986,484,0.36302,17.7277
-231,540,0.365112,-17.9912,0.00740508,-0.0175455,0.0043998,0.00815821,-0.0182986,0.169531,0.0156444,0.0118573,993,484,0.365131,17.9912
-224,540,0.372803,-18.2406,0.00792838,-0.0198105,0.00508819,0.00883226,-0.0207144,0.175809,0.0175126,0.0183718,1000,484,0.372824,18.2406
-217,540,0.413757,-18.3301,0.00825442,-0.0214313,0.00560106,0.00927606,-0.0224529,0.180418,0.0188379,0.0315983,1007,484,0.413783,18.3301
-210,540,0.563477,-18.5343,0.00832038,-0.0219329,0.00574634,0.00937507,-0.0229876,0.181522,0.0192277,0.0442631,1014,484,0.563472,18.5343
-203,540,0.6698,-19.0193,0.00798662,-0.0209672,0.0058693,0.00913116,-0.0221117,0.192587,0.0185498,0.0444479,1021,484,0.669804,19.0193
-196,540,0.599121,-19.2422,0,0,0,0,0,0,0,-1,1028,484,0.599106,19.2423
-189,540,0.511963,-19.2603,0,0,0,0,0,0,0,-1,1035,484,0.511974,19.2603
-182,540,0.109375,-15.2948,0,0,0,0,0,0,0,-1,1042,484,0.109331,15.2948
-175,540,1.73413,-10.728,0,0,0,0,0,0,0,-1,1049,484,1.73414,10.728
-168,540,1.18164,-7.65347,0,0,0,0,0,0,0,-1,1056,484,1.18163,7.65347
-161,540,-0.405884,-9.86481,0,0,0,0,0,0,0,-1,1063,484,-0.405886,9.8648
-154,540,1.9303,-20.0667,0,0,0,0,0,0,0,-1,1070,484,1.93031,20.0667
-147,540,-0.0977783,-20.4227,0,0,0,0,0,0,0,-1,1077,484,-0.0977603,20.4227
-140,540,1.40735,-15.6289,0,0,0,0,0,0,0,-1,1084,484,1.4073,15.6289
-133,540,2.28345,-17.6413,0,0,0,0,0,0,0,-1,1091,484,2.2835,17.6413
-126,540,1.46765,-17.5085,0,0,0,0,0,0,0,-1,1098,484,1.46764,17.5085
-119,540,6.18579,-10.4846,0,0,0,0,0,0,0,-1,1105,484,6.18582,10.4846
-112,540,5.8468,-9.65106,0,0,0,0,0,0,0,-1,1112,484,5.84681,9.65106
-105,540,5.50781,-8.81754,0,0,0,0,0,0,0,-1,1119,484,5.5078,8.81753
-98,540,0.73877,-3.08093,0,0,0,0,0,0,0,-1,1126,484,0.738754,3.08092
-91,540,1.56519,-7.48666,0,0,0,0,0,0,0,-1,1133,484,1.56514,7.48667
-84,540,-0.945923,4.43073,0,0,0,0,0,0,0,-1,1140,484,-0.945891,-4.43074
-77,540,-2.28894,2.14368,0,0,0,0,0,0,0,-1,1147,484,-2.28894,-2.14368
-70,540,-3.75244,-0.452576,0,0,0,0,0,0,0,-1,1154,484,-3.75244,0.452576
-63,540,-5.26257,-3.04767,0,0,0,0,0,0,0,-1,1161,484,-5.26262,3.04766
-56,540,-5.19055,-6.12595,0,0,0,0,0,0,0,-1,1168,484,-5.19057,6.12595
-49,540,-5.63867,-8.52298,0,0,0,0,0,0,0,-1,1175,484,-5.63871,8.52298
-42,540,0,0,0,0,0,0,0,0,0,-1,1182,484,0,0
-35,540,0,0,0,0,0,0,0,0,0,-1,1189,484,0,0
-28,540,0,0,0,0,0,0,0,0,0,-1,1196,484,0,0
-21,540,0,0,0,0,0,0,0,0,0,-1,1203,484,0,0
-14,540,0,0,0,0,0,0,0,0,0,-1,1210,484,0,0
-7,540,0,0,0,0,0,0,0,0,0,-1,1217,484,0,0
0,540,0,0,0,0,0,0,0,0,0,-1,1224,484,0,0
7,540,0,0,0,0,0,0,0,0,0,-1,1231,484,0,0
14,540,0,0,0,0,0,0,0,0,0,-1,1238,484,0,0
21,540,0,0,0,0,0,0,0,0,0,-1,1245,484,0,0
28,540,0,0,0,0,0,0,0,0,0,-1,1252,484,0,0
35,540,0,0,0,0,0,0,0,0,0,-1,1259,484,0,0
42,540,0,0,0,0,0,0,0,0,0,-1,1266,484,0,0
49,540,0,0,0,0,0,0,0,0,0,-1,1273,484,0,0
56,540,0,0,0,0,0,0,0,0,0,-1,1280,484,0,0
63,540,0,0,0,0,0,0,0,0,0,-1,1287,484,0,0
70,540,0,0,0,0,0,0,0,0,0,-1,1294,484,0,0
77,540,0,0,0,0,0,0,0,0,0,-1,1301,484,0,0
84,540,0,0,0,0,0,0,0,0,0,-1,1308,484,0,0
91,540,0,0,0,0,0,0,0,0,0,-1,1315,484,0,0
98,540,0,0,0,0,0,0,0,0,0,-1,1322,484,0,0
105,540,0,0,0,0,0,0,0,0,0,-1,1329,484,0,0
112,540,0,0,0,0,0,0,0,0,0,-1,1336,484,0,0
119,540,0,0,0,0,0,0,0,0,0,-1,1343,484,0,0
126,540,0,0,0,0,0,0,0,0,0,-1,1350,484,0,0
133,540,0,0,0,0,0,0,0,0,0,-1,1357,484,0,0
140,540,0,0,0,0,0,0,0,0,0,-1,1364,484,0,0
147,540,0,0,0,0,0,0,0,0,0,-1,1371,484,0,0
154,540,0,0,0,0,0,0,0,0,0,-1,1378,484,0,0
161,540,0,0,0,0,0,0,0,0,0,-1,1385,484,0,0
168,540,3.05078,-0.0010376,0,0,0,0,0,0,0,-1,1392,484,3.05084,0.00102554
175,540,3.37708,0.617035,0,0,0,0,0,0,0,-1,1399,484,3.37707,-0.617046
182,540,3.32678,1.23267,0,0,0,0,0,0,0,-1,1406,484,3.32678,-1.23266
189,540,3.5813,2.15619,0,0,0,0,0,0,0,-1,1413,484,3.58129,-2.1562
196,540,1.84448,-0.801483,0,0,0,0,0,0,0,-1,1420,484,1.84446,0.80148
203,540,4.14648,0.702087,0,0,0,0,0,0,0,-1,1427,484,4.14645,-0.702089
210,540,4.50671,-0.56076,0,0,0,0,0,0,0,-1,1434,484,4.50667,0.560771
217,540,5.00452,-0.278717,0,0,0,0,0,0,0,-1,1441,484,5.00452,0.278709
224,540,6.44458,-2.83527,0,0,0,0,0,0,0,-1,1448,484,6.44457,2.83525
231,540,6.9231,-3.10504,0,0,0,0,0,0,0,-1,1455,484,6.92307,3.10505
238,540,6.4823,-2.58365,0,0,0,0,0,0,0,-1,1462,484,6.48225,2.58363
245,540,6.02087,-1.97916,0,0,0,0,0,0,0,-1,1469,484,6.02088,1.97915
252,540,6.50647,-3.56006,0,0,0,0,0,0,0,-1,1476,484,6.50649,3.56006
259,540,6.01941,-2.798,0,0,0,0,0,0,0,-1,1483,484,6.01941,2.79801
266,540,5.5332,-2.02853,0,0,0,0,0,0,0,-1,1490,484,5.53323,2.02855
273,540,5.06787,-1.28137,0,0,0,0,0,0,0,-1,1497,484,5.06786,1.28136
280,540,1.62903,-2.14609,0,0,0,0,0,0,0,-1,1504,484,1.62906,2.1461
287,540,1.97156,-2.45053,0,0,0,0,0,0,0,-1,1511,484,1.97159,2.45053
294,540,2.44165,-2.6185,0,0,0,0,0,0,0,-1,1518,484,2.44167,2.6185
301,540,4.36169,-2.54272,0,0,0,0,0,0,0,-1,1525,484,4.36165,2.54272
308,540,4.2019,-4.30469,0,0,0,0,0,0,0,-1,1532,484,4.20193,4.3047
315,540,4.45923,-5.32101,0,0,0,0,0,0,0,-1,1539,484,4.45923,5.32103
322,540,4.71655,-6.33737,0,0,0,0,0,0,0,-1,1546,484,4.71653,6.33736
329,540,5.8949,-12.9383,0,0,0,0,0,0,0,-1,1553,484,5.89492,12.9383
336,540,7.33521,-16.6613,0,0,0,0,0,0,0,-1,1560,484,7.33518,16.6613
343,540,7.22961,-17.8459,0,0,0,0,0,0,0,-1,1567,484,7.22961,17.8459
350,540,7.02161,-17.4766,0,0,0,0,0,0,0,-1,1574,484,7.02161,17.4766
357,540,7.11108,-16.8335,-0.000902471,-0.00373103,-0.00319055,0.0011732,-0.00580671,-0.576776,0.00431569,0.0420171,1581,484,7.11109,16.8335
364,540,6.9834,-16.6421,-0.000658082,-0.00290772,-0.00237884,0.000848465,-0.00441427,-0.564554,0.00326265,0.0250822,1588,484,6.9834,16.6421
371,540,6.96875,-16.3719,-0.000305619,-0.00206791,-0.00169284,0.000721666,-0.0030952,-0.545436,0.00234139,0.0164994,1595,484,6.96878,16.3719
378,540,7.03259,-16.0498,2.82328e-05,-0.00133706,-0.00119486,0.000721707,-0.00203053,-0.525867,0.00164781,0.0125321,1602,484,7.03261,16.0498
385,540,7.05139,-15.7217,0.00029754,-0.000391152,-0.0006415,0.000681272,-0.000774883,-0.539079,0.00084129,0.0142401,1609,484,7.05145,15.7217
392,540,7.02637,-15.377,0.000403854,0.000120615,-0.000318133,0.000610465,-8.59964e-05,-0.575988,0.000438462,0.0125796,1616,484,7.02635,15.377
399,540,7.0166,-15.0681,0.000448944,0.000466958,-6.85486e-05,0.000527089,0.000388813,-0.850721,0.000315566,0.0155651,1623,484,7.01663,15.0682
406,540,7.04187,-14.7218,0.000433308,0.000763293,8.8686e-05,0.000785617,0.000410983,1.32419,0.000453738,0.0166029,1630,484,7.04187,14.7218
413,540,7.05457,-14.3432,0.000382036,0.00111194,0.000259904,0.00119503,0.000298948,1.26138,0.000718088,0.0133808,1637,484,7.0546,14.3432
420,540,7.05359,-13.9984,0.000250407,0.00119007,0.000301204,0.00127833,0.000162148,1.28575,0.000803642,0.0113729,1644,484,7.05358,13.9984
427,540,7.03467,-13.6515,-3.07915e-05,0.000987434,0.000239397,0.00104091,-8.42682e-05,1.35102,0.000723667,0.0118375,1651,484,7.03463,13.6515
434,540,7.0271,-13.321,-0.000298661,0.000669146,0.000211846,0.000713487,-0.000343001,1.36447,0.000622339,0.0163669,1658,484,7.02708,13.321
441,540,7.05139,-12.9578,-0.000544671,0.000232669,0.00020501,0.000283423,-0.000595426,1.32811,0.000517952,0.021077,1665,484,7.0514,12.9578
448,540,7.02185,-12.6153,-0.000709013,-0.000398481,0.000210547,-0.000292141,-0.000815353,1.10311,0.000477004,0.0120459,1672,484,7.02186,12.6153
455,540,7.01184,-12.2487,-0.000838233,-0.00117343,0.000207587,-0.000739034,-0.00127263,0.445788,0.000737939,0.010486,1679,484,7.01182,12.2487
462,540,6.98975,-11.8663,-0.000682929,-0.00218621,0.000313199,-0.000620287,-0.00224885,0.197404,0.00134117,0.0103254,1686,484,6.98975,11.8663
469,540,6.95752,-11.4808,-0.000179706,-0.00341575,0.000681471,-4.20521e-05,-0.0035534,0.199313,0.00235504,0.0128874,1693,484,6.95757,11.4808
476,540,6.9375,-11.1135,0.000269556,-0.0047538,0.000990523,0.000457816,-0.00494205,0.187821,0.00345743,0.0201562,1700,484,6.93756,11.1135
483,540,6.94678,-10.7479,0.00102418,-0.00643621,0.00139028,0.00127484,-0.00668687,0.178381,0.00493803,0.0386962,1707,484,6.94682,10.7479
490,540,7.11694,-10.2777,0,0,0,0,0,0,0,-1,1714,484,7.1169,10.2777
497,540,4.49695,-7.83932,0,0,0,0,0,0,0,-1,1721,484,4.49699,7.83932
504,540,5.52747,-4.4433,0,0,0,0,0,0,0,-1,1728,484,5.5275,4.44329
511,540,5.82471,-6.83521,0,0,0,0,0,0,0,-1,1735,484,5.82465,6.83522
518,540,8.3833,-8.52429,0,0,0,0,0,0,0,-1,1742,484,8.38336,8.5243
525,540,5.83813,-7.04257,0,0,0,0,0,0,0,-1,1749,484,5.83816,7.04257
532,540,2.84265,-1.07925,0,0,0,0,0,0,0,-1,1756,484,2.84269,1.07927
539,540,0,0,0,0,0,0,0,0,0,-1,1763,484,0,0
546,540,0,0,0,0,0,0,0,0,0,-1,1770,484,0,0
553,540,0,0,0,0,0,0,0,0,0,-1,1777,484,0,0
560,540,0,0,0,0,0,0,0,0,0,-1,1784,484,0,0
567,540,0,0,0,0,0,0,0,0,0,-1,1791,484,0,0
574,540,0,0,0,0,0,0,0,0,0,-1,1798,484,0,0
581,540,0,0,0,0,0,0,0,0,0,-1,1805,484,0,0
588,540,0,0,0,0,0,0,0,0,0,-1,1812,484,0,0
595,540,0,0,0,0,0,0,0,0,0,-1,1819,484,0,0
602,540,0,0,0,0,0,0,0,0,0,-1,1826,484,0,0
609,540,0,0,0,0,0,0,0,0,0,-1,1833,484,0,0
616,540,0,0,0,0,0,0,0,0,0,-1,1840,484,0,0
623,540,0,0,0,0,0,0,0,0,0,-1,1847,484,0,0
630,540,0,0,0,0,0,0,0,0,0,-1,1854,484,0,0
637,540,0,0,0,0,0,0,0,0,0,-1,1861,484,0,0
644,540,0,0,0,0,0,0,0,0,0,-1,1868,484,0,0
651,540,0,0,0,0,0,0,0,0,0,-1,1875,484,0,0
658,540,0,0,0,0,0,0,0,0,0,-1,1882,484,0,0
665,540,0,0,0,0,0,0,0,0,0,-1,1889,484,0,0
672,540,0,0,0,0,0,0,0,0,0,-1,1896,484,0,0
679,540,0,0,0,0,0,0,0,0,0,-1,1903,484,0,0
686,540,0,0,0,0,0,0,0,0,0,-1,1910,484,0,0
693,540,0,0,0,0,0,0,0,0,0,-1,1917,484,0,0
700,540,0,0,0,0,0,0,0,0,0,-1,1924,484,0,0
707,540,0,0,0,0,0,0,0,0,0,-1,1931,484,0,0
714,540,0,0,0,0,0,0,0,0,0,-1,1938,484,0,0
721,540,0,0,0,0,0,0,0,0,0,-1,1945,484,0,0
728,540,0,0,0,0,0,0,0,0,0,-1,1952,484,0,0
735,540,0,0,0,0,0,0,0,0,0,-1,1959,484,0,0
742,540,0,0,0,0,0,0,0,0,0,-1,1966,484,0,0
749,540,0,0,0,0,0,0,0,0,0,-1,1973,484,0,0
756,540,0,0,0,0,0,0,0,0,0,-1,1980,484,0,0
763,540,0,0,0,0,0,0,0,0,0,-1,1987,484,0,0
770,540,0,0,0,0,0,0,0,0,0,-1,1994,484,0,0
777,540,0,0,0,0,0,0,0,0,0,-1,2001,484,0,0
784,540,0,0,0,0,0,0,0,0,0,-1,2008,484,0,0
791,540,0,0,0,0,0,0,0,0,0,-1,2015,484,0,0
798,540,0,0,0,0,0,0,0,0,0,-1,2022,484,0,0
805,540,0,0,0,0,0,0,0,0,0,-1,2029,484,0,0
812,540,0,0,0,0,0,0,0,0,0,-1,2036,484,0,0
-700,533,0,0,0,0,0,0,0,0,0,-1,524,491,0,0
-693,533,0,0,0,0,0,0,0,0,0,-1,531,491,0,0
-686,533,0,0,0,0,0,0,0,0,0,-1,538,491,0,0
-679,533,0,0,0,0,0,0,0,0,0,-1,545,491,0,0
-672,533,0,0,0,0,0,0,0,0,0,-1,552,491,0,0
-665,533,0,0,0,0,0,0,0,0,0,-1,559,491,0,0
-658,533,0,0,0,0,0,0,0,0,0,-1,566,491,0,0
-651,533,0,0,0,0,0,0,0,0,0,-1,573,491,0,0
-644,533,0,0,0,0,0,0,0,0,0,-1,580,491,0,0
-637,533,0,0,0,0,0,0,0,0,0,-1,587,491,0,0
-630,533,0,0,0,0,0,0,0,0,0,-1,594,491,0,0
-623,533,0,0,0,0,0,0,0,0,0,-1,601,491,0,0
-616,533,0,0,0,0,0,0,0,0,0,-1,608,491,0,0
-609,533,0,0,0,0,0,0,0,0,0,-1,615,491,0,0
-602,533,0,0,0,0,0,0,0,0,0,-1,622,491,0,0
-595,533,0,0,0,0,0,0,0,0,0,-1,629,491,0,0
-588,533,0,0,0,0,0,0,0,0,0,-1,636,491,0,0
-581,533,0,0,0,0,0,0,0,0,0,-1,643,491,0,0
-574,533,0,0,0,0,0,0,0,0,0,-1,650,491,0,0
-567,533,0,0,0,0,0,0,0,0,0,-1,657,491,0,0
-560,533,0,0,0,0,0,0,0,0,0,-1,664,491,0,0
-553,533,0,0,0,0,0,0,0,0,0,-1,671,491,0,0
-546,533,0,0,0,0,0,0,0,0,0,-1,678,491,0,0
-539,533,0,0,0,0,0,0,0,0,0,-1,685,491,0,0
-532,533,0,0,0,0,0,0,0,0,0,-1,692,491,0,0
-525,533,0,0,0,0,0,0,0,0,0,-1,699,491,0,0
-518,533,0,0,0,0,0,0,0,0,0,-1,706,491,0,0
-511,533,0,0,0,0,0,0,0,0,0,-1,713,491,0,0
-504,533,0,0,0,0,0,0,0,0,0,-1,720,491,0,0
-497,533,0,0,0,0,0,0,0,0,0,-1,727,491,0,0
-490,533,0,0,0,0,0,0,0,0,0,-1,734,491,0,0
-483,533,0,0,0,0,0,0,0,0,0,-1,741,491,0,0
-476,533,0,0,0,0,0,0,0,0,0,-1,748,491,0,0
-469,533,0,0,0,0,0,0,0,0,0,-1,755,491,0,0
-462,533,0,0,0,0,0,0,0,0,0,-1,762,491,0,0
-455,533,0,0,0,0,0,0,0,0,0,-1,769,491,0,0
-448,533,0,0,0,0,0,0,0,0,0,-1,776,491,0,0
-441,533,0,0,0,0,0,0,0,0,0,-1,783,491,0,0
-434,533,0,0,0,0,0,0,0,0,0,-1,790,491,0,0
-427,533,0.559814,-4.40222,0,0,0,0,0,0,0,-1,797,491,0.559816,4.40222
-420,533,0.390503,-5.39261,0,0,0,0,0,0,0,-1,804,491,0.390501,5.3926
-413,533,-0.940735,-10.1455,0,0,0,0,0,0,0,-1,811,491,-0.940757,10.1455
-406,533,-0.522705,-10.6971,0.0461702,-0.0180711,-0.0283007,0.0568591,-0.0287601,-0.36113,0.0503118,0.0478806,818,491,-0.52271,10.6971
-399,533,-0.110779,-11.2489,0.0387128,-0.0152214,-0.0240444,0.0478754,-0.024384,-0.364083,0.0424475,0.0418984,825,491,-0.110763,11.2489
-392,533,0.265625,-11.7726,0,0,0,0,0,0,0,-1,832,491,0.26563,11.7726
-385,533,-1.69116,-6.64645,0,0,0,0,0,0,0,-1,839,491,-1.69115,6.64645
-378,533,0.538757,-10.1314,0,0,0,0,0,0,0,-1,846,491,0.538741,10.1314
-371,533,0.135376,-11.439,0,0,0,0,0,0,0,-1,853,491,0.135382,11.439
-364,533,0.22406,-11.8791,0.00476338,-0.00317778,-0.00513825,0.00728642,-0.00570082,-0.456447,0.00751679,0.0448103,860,491,0.224044,11.8791
-357,533,0.143982,-12.1286,0.00210554,-0.00163912,-0.00352967,0.00422873,-0.00376231,-0.541542,0.00461624,0.0237384,867,491,0.14398,12.1286
-350,533,0.11145,-12.4883,-0.000632603,-0.000566183,-0.00180045,0.00120136,-0.00240015,-0.79462,0.00211738,0.0113891,874,491,0.111438,12.4883
-343,533,0.100586,-12.8824,-0.00207233,0.000666831,-0.000959574,0.000969534,-0.00237503,-1.26522,0.00198701,0.0105376,881,491,0.100586,12.8824
-336,533,0.0600586,-13.2664,-0.00148497,0.000626951,-0.000990844,0.00101903,-0.00187705,-1.194,0.00169634,0.0140301,888,491,0.0600327,13.2664
-329,533,0.0461426,-13.5948,-0.00091318,0.000530878,-0.000981881,0.00102763,-0.00140993,-1.10243,0.00141308,0.0132433,895,491,0.0461526,13.5948
-322,533,0.0562134,-13.9239,-0.00044961,0.000397078,-0.000908962,0.000976446,-0.00102898,-1.00333,0.00115797,0.0116556,902,491,0.0562084,13.9239
-315,533,0.0394287,-14.2856,-4.6082e-05,0.000372837,-0.000761589,0.000953245,-0.00062649,-0.919595,0.000918541,0.012575,909,491,0.039451,14.2856
-308,533,0.0323486,-14.6208,0.00031274,0.000324795,-0.000582012,0.000900811,-0.000263276,-0.790576,0.000704883,0.011205,916,491,0.0323709,14.6208
-301,533,0.0294189,-14.9307,0.000544334,9.11915e-05,-0.000303143,0.000696221,-6.0695e-05,-0.464478,0.000485645,0.0123087,923,491,0.0294439,14.9307
-294,533,0.0453491,-15.2618,0.000941375,-0.000412392,0.000186407,0.000966573,-0.000437591,0.134364,0.000829649,0.0118584,930,491,0.0453615,15.2618
-287,533,0.0484619,-15.5991,0.00181349,-0.0016655,0.000496301,0.0018829,-0.00173492,0.138965,0.00208933,0.00886163,937,491,0.0484472,15.5991
-280,533,0.0306396,-15.927,0.00238813,-0.00294771,0.000920245,0.00254238,-0.00310197,0.166075,0.0032641,0.00811425,944,491,0.0306468,15.927
-273,533,0.0196533,-16.2433,0.00311235,-0.0047798,0.00153971,0.00340211,-0.00506955,0.18601,0.00492259,0.0116353,951,491,0.0196418,16.2433
-266,533,0.0394287,-16.5506,0.00422458,-0.00727234,0.00223515,0.00464383,-0.0076916,0.185418,0.00719396,0.0111579,958,491,0.0394375,16.5506
-259,533,0.0692749,-16.8555,0.00551357,-0.0102166,0.00282111,0.00600421,-0.0107072,0.172197,0.00977487,0.0120297,965,491,0.0692768,16.8555
-252,533,0.0766602,-17.1284,0.00672897,-0.0128891,0.00340601,0.00730348,-0.0134636,0.167103,0.0121644,0.01491,972,491,0.0766483,17.1284
-245,533,0.113281,-17.3943,0.00797191,-0.0163175,0.00420014,0.00867769,-0.0170233,0.166483,0.015097,0.0200555,979,491,0.11327,17.3943
-238,533,0.0988159,-17.5603,0.00912926,-0.019943,0.00499397,0.00996319,-0.0207769,0.165461,0.0181102,0.0223866,986,491,0.0988096,17.5603
-231,533,0.179565,-17.7082,0.0101665,-0.023357,0.00576704,0.0111308,-0.0243214,0.165687,0.0209353,0.0345057,993,491,0.179556,17.7082
-224,533,-0.0656128,-17.8344,0.0108595,-0.0264687,0.00665147,0.0120093,-0.0276185,0.171173,0.0234633,0.0451227,1000,491,-0.065617,17.8344
-217,533,0.0491333,-17.964,0.0112892,-0.0286673,0.00727065,0.012571,-0.0299491,0.174515,0.0252232,0.0479815,1007,491,0.0491118,17.964
-210,533,0.196167,-18.1696,0,0,0,0,0,0,0,-1,1014,491,0.196141,18.1696
-203,533,0.719116,-19.2957,0,0,0,0,0,0,0,-1,1021,491,0.719097,19.2957
-196,533,0.688354,-19.5743,0,0,0,0,0,0,0,-1,1028,491,0.688406,19.5743
-189,533,-0.169189,-15.0303,0,0,0,0,0,0,0,-1,1035,491,-0.169241,15.0303
-182,533,1.26123,-11.4969,0,0,0,0,0,0,0,-1,1042,491,1.26128,11.4969
-175,533,0.937744,-7.36966,0,0,0,0,0,0,0,-1,1049,491,0.937769,7.36965
-168,533,2.64807,-2.7543,0,0,0,0,0,0,0,-1,1056,491,2.64812,2.7543
-161,533,1.91833,-1.76553,0,0,0,0,0,0,0,-1,1063,491,1.91836,1.76554
-154,533,0.376709,-11.0633,0,0,0,0,0,0,0,-1,1070,491,0.376715,11.0632
-147,533,0.383789,-12.1586,0,0,0,0,0,0,0,-1,1077,491,0.383829,12.1586
-140,533,1.14001,-15.4608,0,0,0,0,0,0,0,-1,1084,491,1.14005,15.4608
-133,533,0.189941,-16.0795,0,0,0,0,0,0,0,-1,1091,491,0.18994,16.0795
-126,533,2.89612,-2.59003,0,0,0,0,0,0,0,-1,1098,491,2.89608,2.59003
-119,533,3.00842,-12.8239,0,0,0,0,0,0,0,-1,1105,491,3.00841,12.8239
-112,533,7.05884,-10.21,0,0,0,0,0,0,0,-1,1112,491,7.0588,10.21
-105,533,3.84839,1.12769,0,0,0,0,0,0,0,-1,1119,491,3.84843,-1.12769
-98,533,-1.39392,-5.16367,0,0,0,0,0,0,0,-1,1126,491,-1.39394,5.16367
-91,533,0.367432,4.49753,0,0,0,0,0,0,0,-1,1133,491,0.367468,-4.49754
-84,533,-0.88623,3.03604,0,0,0,0,0,0,0,-1,1140,491,-0.886288,-3.03605
-77,533,0,0,0,0,0,0,0,0,0,-1,1147,491,0,0
-70,533,0,0,0,0,0,0,0,0,0,-1,1154,491,0,0
-63,533,0,0,0,0,0,0,0,0,0,-1,1161,491,0,0
-56,533,0,0,0,0,0,0,0,0,0,-1,1168,491,0,0
-49,533,0,0,0,0,0,0,0,0,0,-1,1175,491,0,0
-42,533,0,0,0,0,0,0,0,0,0,-1,1182,491,0,0
-35,533,0,0,0,0,0,0,0,0,0,-1,1189,491,0,0
-28,533,0,0,0,0,0,0,0,0,0,-1,1196,491,0,0
-21,533,0,0,0,0,0,0,0,0,0,-1,1203,491,0,0
-14,533,0,0,0,0,0,0,0,0,0,-1,1210,491,0,0
-7,533,0,0,0,0,0,0,0,0,0,-1,1217,491,0,0
0,533,0,0,0,0,0,0,0,0,0,-1,1224,491,0,0
7,533,0,0,0,0,0,0,0,0,0,-1,1231,491,0,0
14,533,0,0,0,0,0,0,0,0,0,-1,1238,491,0,0
21,533,0,0,0,0,0,0,0,0,0,-1,1245,491,0,0
28,533,0,0,0,0,0,0,0,0,0,-1,1252,491,0,0
35,533,0,0,0,0,0,0,0,0,0,-1,1259,491,0,0
42,533,0,0,0,0,0,0,0,0,0,-1,1266,491,0,0
49,533,0,0,0,0,0,0,0,0,0,-1,1273,491,0,0
56,533,0,0,0,0,0,0,0,0,0,-1,1280,491,0,0
63,533,0,0,0,0,0,0,0,0,0,-1,1287,491,0,0
70,533,0,0,0,0,0,0,0,0,0,-1,1294,491,0,0
77,533,0,0,0,0,0,0,0,0,0,-1,1301,491,0,0
84,533,0,0,0,0,0,0,0,0,0,-1,1308,491,0,0
91,533,0,0,0,0,0,0,0,0,0,-1,1315,491,0,0
98,533,0,0,0,0,0,0,0,0,0,-1,1322,491,0,0
105,533,0,0,0,0,0,0,0,0,0,-1,1329,491,0,0
112,533,0,0,0,0,0,0,0,0,0,-1,1336,491,0,0
119,533,0,0,0,0,0,0,0,0,0,-1,1343,491,0,0
126,533,0,0,0,0,0,0,0,0,0,-1,1350,491,0,0
133,533,0,0,0,0,0,0,0,0,0,-1,1357,491,0,0
140,533,0,0,0,0,0,0,0,0,0,-1,1364,491,0,0
147,533,0,0,0,0,0,0,0,0,0,-1,1371,491,0,0
154,533,0,0,0,0,0,0,0,0,0,-1,1378,491,0,0
161,533,0,0,0,0,0,0,0,0,0,-1,1385,491,0,0
168,533,0,0,0,0,0,0,0,0,0,-1,1392,491,0,0
175,533,0,0,0,0,0,0,0,0,0,-1,1399,491,0,0
182,533,0,0,0,0,0,0,0,0,0,-1,1406,491,0,0
189,533,0,0,0,0,0,0,0,0,0,-1,1413,491,0,0
196,533,0,0,0,0,0,0,0,0,0,-1,1420,491,0,0
203,533,3.7887,1.16193,0,0,0,0,0,0,0,-1,1427,491,3.78872,-1.16193
210,533,5.09558,-0.216034,0,0,0,0,0,0,0,-1,1434,491,5.09559,0.216028
217,533,6.91614,-2.46814,0,0,0,0,0,0,0,-1,1441,491,6.91618,2.46814
224,533,7.23621,-2.1857,0,0,0,0,0,0,0,-1,1448,491,7.23621,2.1857
231,533,7.23474,-1.92282,0,0,0,0,0,0,0,-1,1455,491,7.2347,1.92282
238,533,7.23535,-1.67258,0,0,0,0,0,0,0,-1,1462,491,7.23539,1.67258
245,533,6.86682,-1.2301,0,0,0,0,0,0,0,-1,1469,491,6.86686,1.23011
252,533,6.63354,-3.07825,0,0,0,0,0,0,0,-1,1476,491,6.6335,3.07824
259,533,6.16431,-2.35037,0,0,0,0,0,0,0,-1,1483,491,6.1643,2.35037
266,533,5.68884,-1.6214,0,0,0,0,0,0,0,-1,1490,491,5.68885,1.6214
273,533,5.21399,-0.864227,0,0,0,0,0,0,0,-1,1497,491,5.21403,0.864227
280,533,1.41089,-1.97946,0,0,0,0,0,0,0,-1,1504,491,1.41087,1.97946
287,533,1.6814,-2.44443,0,0,0,0,0,0,0,-1,1511,491,1.6814,2.44444
294,533,2.2384,-2.57626,0,0,0,0,0,0,0,-1,1518,491,2.23839,2.57625
301,533,3.39941,-4.0817,0,0,0,0,0,0,0,-1,1525,491,3.3994,4.08171
308,533,4.13733,-4.14752,0,0,0,0,0,0,0,-1,1532,491,4.13727,4.14752
315,533,4.80762,-5.29349,0,0,0,0,0,0,0,-1,1539,491,4.80762,5.29347
322,533,5.47803,-6.43942,0,0,0,0,0,0,0,-1,1546,491,5.47798,6.43943
329,533,3.88477,-3.86301,0,0,0,0,0,0,0,-1,1553,491,3.88475,3.86299
336,533,6.70923,-13.2003,0,0,0,0,0,0,0,-1,1560,491,6.70926,13.2004
343,533,7.56055,-16.1165,0,0,0,0,0,0,0,-1,1567,491,7.5606,16.1165
350,533,5.62915,-8.02426,0,0,0,0,0,0,0,-1,1574,491,5.6291,8.02426
357,533,7.41101,-16.7152,0,0,0,0,0,0,0,-1,1581,491,7.41101,16.7152
364,533,7.32971,-16.5685,-0.00120622,-0.00380981,-0.00298429,0.000747849,-0.00576388,-0.579732,0.00411458,0.0472223,1588,491,7.32977,16.5685
371,533,7.2146,-16.3334,-0.000600227,-0.00264603,-0.0021505,0.000758255,-0.00400451,-0.563406,0.00295503,0.0399945,1595,491,7.21461,16.3334
378,533,7.25452,-16.0083,-7.59999e-05,-0.00171485,-0.00158716,0.000890779,-0.00268163,-0.547103,0.00214718,0.029968,1602,491,7.25455,16.0083
385,533,7.39954,-15.7039,0.000334799,-0.000584335,-0.000919104,0.000902828,-0.00115236,-0.553568,0.00118948,0.0244796,1609,491,7.39953,15.7039
392,533,7.37317,-15.3867,0.000524778,-3.91609e-05,-0.000579137,0.000886941,-0.000401324,-0.558851,0.000761191,0.0136075,1616,491,7.3732,15.3867
399,533,7.36694,-15.0718,0.000628919,0.000340469,-0.000323261,0.00083867,0.000130718,-0.575572,0.000521035,0.0117601,1623,491,7.36697,15.0718
406,533,7.39832,-14.7292,0.000669688,0.000641282,-0.000155709,0.000811841,0.000499129,-0.739916,0.000472817,0.0146973,1630,491,7.39827,14.7292
413,533,7.4032,-14.3583,0.000704009,0.00102956,3.66699e-05,0.00103364,0.00069993,1.46001,0.000609131,0.0132728,1637,491,7.40325,14.3583
420,533,7.40417,-14.0047,0.000647466,0.0011679,0.00013271,0.00119979,0.000615579,1.33499,0.000692779,0.0117258,1644,491,7.40422,14.0047
427,533,7.39124,-13.6453,0.000402911,0.00108208,0.000109011,0.00109915,0.000385843,1.41549,0.000643914,0.0124685,1651,491,7.39128,13.6453
434,533,7.37708,-13.3174,0.000111145,0.00084324,9.66972e-05,0.000855796,9.85888e-05,1.44166,0.000540673,0.0127762,1658,491,7.37713,13.3174
441,533,7.38977,-12.9488,-0.000113843,0.000505655,0.000141959,0.000536636,-0.000144824,1.35593,0.000414552,0.0151237,1665,491,7.38975,12.9488
448,533,7.37524,-12.6136,-0.000233759,-4.49362e-06,0.000210143,0.000120249,-0.000358502,1.03509,0.00028759,0.0162429,1672,491,7.37521,12.6136
455,533,7.36414,-12.2606,-0.000349335,-0.000598005,0.000268283,-0.000177976,-0.000769364,0.568409,0.000465077,0.0160601,1679,491,7.36412,12.2606
462,533,7.35046,-11.8566,-0.000228822,-0.0014206,0.000406776,-0.000103219,-0.0015462,0.299489,0.000998175,0.0147232,1686,491,7.35049,11.8566
469,533,7.33777,-11.475,0.000201309,-0.00243716,0.000781681,0.000415503,-0.00265136,0.267453,0.00192111,0.00932933,1693,491,7.33781,11.475
476,533,7.34131,-11.0725,0.000540883,-0.00353455,0.00108151,0.000810102,-0.00380377,0.24397,0.00284459,0.0113905,1700,491,7.34132,11.0725
483,533,7.36963,-10.6542,0.00111595,-0.00491172,0.00143961,0.00144213,-0.0052379,0.222811,0.00405896,0.0200594,1707,491,7.36957,10.6542
490,533,7.41968,-10.4688,0,0,0,0,0,0,0,-1,1714,491,7.41967,10.4688
497,533,7.5249,-10.2932,0,0,0,0,0,0,0,-1,1721,491,7.52496,10.2932
504,533,7.5614,-9.50867,0,0,0,0,0,0,0,-1,1728,491,7.56143,9.50865
511,533,7.77612,-9.35474,0,0,0,0,0,0,0,-1,1735,491,7.77612,9.35474
518,533,8.17639,-8.82764,0,0,0,0,0,0,0,-1,1742,491,8.17642,8.82765
525,533,8.98108,-8.45325,0,0,0,0,0,0,0,-1,1749,491,8.98106,8.45326
532,533,3.24243,0.0737,0,0,0,0,0,0,0,-1,1756,491,3.24239,-0.0737072
539,533,3.61609,1.62427,0,0,0,0,0,0,0,-1,1763,491,3.61606,-1.62426
546,533,3.59607,1.65799,0,0,0,0,0,0,0,-1,1770,491,3.59605,-1.658
553,533,0,0,0,0,0,0,0,0,0,-1,1777,491,0,0
560,533,0,0,0,0,0,0,0,0,0,-1,1784,491,0,0
567,533,0,0,0,0,0,0,0,0,0,-1,1791,491,0,0
574,533,0,0,0,0,0,0,0,0,0,-1,1798,491,0,0
581,533,0,0,0,0,0,0,0,0,0,-1,1805,491,0,0
588,533,0,0,0,0,0,0,0,0,0,-1,1812,491,0,0
595,533,0,0,0,0,0,0,0,0,0,-1,1819,491,0,0
602,533,0,0,0,0,0,0,0,0,0,-1,1826,491,0,0
609,533,0,0,0,0,0,0,0,0,0,-1,1833,491,0,0
616,533,0,0,0,0,0,0,0,0,0,-1,1840,491,0,0
623,533,0,0,0,0,0,0,0,0,0,-1,1847,491,0,0
630,533,0,0,0,0,0,0,0,0,0,-1,1854,491,0,0
637,533,0,0,0,0,0,0,0,0,0,-1,1861,491,0,0
644,533,0,0,0,0,0,0,0,0,0,-1,1868,491,0,0
651,533,0,0,0,0,0,0,0,0,0,-1,1875,491,0,0
658,533,0,0,0,0,0,0,0,0,0,-1,1882,491,0,0
665,533,0,0,0,0,0,0,0,0,0,-1,1889,491,0,0
672,533,0,0,0,0,0,0,0,0,0,-1,1896,491,0,0
679,533,0,0,0,0,0,0,0,0,0,-1,1903,491,0,0
686,533,0,0,0,0,0,0,0,0,0,-1,1910,491,0,0
693,533,0,0,0,0,0,0,0,0,0,-1,1917,491,0,0
700,533,0,0,0,0,0,0,0,0,0,-1,1924,491,0,0
707,533,0,0,0,0,0,0,0,0,0,-1,1931,491,0,0
714,533,0,0,0,0,0,0,0,0,0,-1,1938,491,0,0
721,533,0,0,0,0,0,0,0,0,0,-1,1945,491,0,0
728,533,0,0,0,0,0,0,0,0,0,-1,1952,491,0,0
735,533,0,0,0,0,0,0,0,0,0,-1,1959,491,0,0
742,533,0,0,0,0,0,0,0,0,0,-1,1966,491,0,0
749,533,0,0,0,0,0,0,0,0,0,-1,1973,491,0,0
756,533,0,0,0,0,0,0,0,0,0,-1,1980,491,0,0
763,533,0,0,0,0,0,0,0,0,0,-1,1987,491,0,0
770,533,0,0,0,0,0,0,0,0,0,-1,1994,491,0,0
777,533,0,0,0,0,0,0,0,0,0,-1,2001,491,0,0
784,533,0,0,0,0,0,0,0,0,0,-1,2008,491,0,0
791,533,0,0,0,0,0,0,0,0,0,-1,2015,491,0,0
798,533,0,0,0,0,0,0,0,0,0,-1,2022,491,0,0
805,533,0,0,0,0,0,0,0,0,0,-1,2029,491,0,0
812,533,0,0,0,0,0,0,0,0,0,-1,2036,491,0,0
-700,526,0,0,0,0,0,0,0,0,0,-1,524,498,0,0
-693,526,0,0,0,0,0,0,0,0,0,-1,531,498,0,0
-686,526,0,0,0,0,0,0,0,0,0,-1,538,498,0,0
-679,526,0,0,0,0,0,0,0,0,0,-1,545,498,0,0
-672,526,0,0,0,0,0,0,0,0,0,-1,552,498,0,0
-665,526,0,0,0,0,0,0,0,0,0,-1,559,498,0,0
-658,526,0,0,0,0,0,0,0,0,0,-1,566,498,0,0
-651,526,0,0,0,0,0,0,0,0,0,-1,573,498,0,0
-644,526,0,0,0,0,0,0,0,0,0,-1,580,498,0,0
-637,526,0,0,0,0,0,0,0,0,0,-1,587,498,0,0
-630,526,0,0,0,0,0,0,0,0,0,-1,594,498,0,0
-623,526,0,0,0,0,0,0,0,0,0,-1,601,498,0,0
-616,526,0,0,0,0,0,0,0,0,0,-1,608,498,0,0
-609,526,0,0,0,0,0,0,0,0,0,-1,615,498,0,0
-602,526,0,0,0,0,0,0,0,0,0,-1,622,498,0,0
-595,526,0,0,0,0,0,0,0,0,0,-1,629,498,0,0
-588,526,0,0,0,0,0,0,0,0,0,-1,636,498,0,0
-581,526,0,0,0,0,0,0,0,0,0,-1,643,498,0,0
-574,526,0,0,0,0,0,0,0,0,0,-1,650,498,0,0
-567,526,0,0,0,0,0,0,0,0,0,-1,657,498,0,0
-560,526,0,0,0,0,0,0,0,0,0,-1,664,498,0,0
-553,526,0,0,0,0,0,0,0,0,0,-1,671,498,0,0
-546,526,0,0,0,0,0,0,0,0,0,-1,678,498,0,0
-539,526,0,0,0,0,0,0,0,0,0,-1,685,498,0,0
-532,526,0,0,0,0,0,0,0,0,0,-1,692,498,0,0
-525,526,0,0,0,0,0,0,0,0,0,-1,699,498,0,0
-518,526,0,0,0,0,0,0,0,0,0,-1,706,498,0,0
-511,526,0,0,0,0,0,0,0,0,0,-1,713,498,0,0
-504,526,0,0,0,0,0,0,0,0,0,-1,720,498,0,0
-497,526,0,0,0,0,0,0,0,0,0,-1,727,498,0,0
-490,526,0,0,0,0,0,0,0,0,0,-1,734,498,0,0
-483,526,0,0,0,0,0,0,0,0,0,-1,741,498,0,0
-476,526,0,0,0,0,0,0,0,0,0,-1,748,498,0,0
-469,526,0,0,0,0,0,0,0,0,0,-1,755,498,0,0
-462,526,0,0,0,0,0,0,0,0,0,-1,762,498,0,0
-455,526,0,0,0,0,0,0,0,0,0,-1,769,498,0,0
-448,526,0,0,0,0,0,0,0,0,0,-1,776,498,0,0
-441,526,0,0,0,0,0,0,0,0,0,-1,783,498,0,0
-434,526,-0.153564,-5.96649,0,0,0,0,0,0,0,-1,790,498,-0.153589,5.9665
-427,526,1.23206,-4.59808,0,0,0,0,0,0,0,-1,797,498,1.23208,4.59809
-420,526,0.758484,-5.79626,0,0,0,0,0,0,0,-1,804,498,0.758485,5.79626
-413,526,-0.720764,-9.76767,0,0,0,0,0,0,0,-1,811,498,-0.720737,9.76768
-406,526,-0.170959,-10.0874,0,0,0,0,0,0,0,-1,818,498,-0.170989,10.0874
-399,526,-0.301331,-10.7545,0,0,0,0,0,0,0,-1,825,498,-0.301336,10.7545
-392,526,-0.336487,-11.2233,0,0,0,0,0,0,0,-1,832,498,-0.33647,11.2233
-385,526,-0.932373,-9.28836,0,0,0,0,0,0,0,-1,839,498,-0.932369,9.28835
-378,526,-0.14325,-10.9604,0,0,0,0,0,0,0,-1,846,498,-0.143257,10.9604
-371,526,-0.164734,-11.3791,0.00626177,-0.00360325,-0.00567036,0.00884475,-0.00618623,-0.427438,0.00872327,0.0387671,853,498,-0.164727,11.3791
-364,526,-0.184204,-11.7799,0.00334331,-0.00234054,-0.00393914,0.00535868,-0.00435592,-0.472906,0.00561867,0.0197697,860,498,-0.184229,11.7799
-357,526,-0.246887,-12.1105,0.00133681,-0.00131049,-0.00268258,0.00300453,-0.0029782,-0.556211,0.00345414,0.0124761,867,498,-0.246907,12.1105
-350,526,-0.243958,-12.4708,-0.000633879,-0.000494264,-0.00137286,0.000810562,-0.0019387,-0.8108,0.00163123,0.0106009,874,498,-0.243962,12.4708
-343,526,-0.263062,-12.8636,-0.00162009,0.000395567,-0.000695808,0.000612429,-0.00183695,-1.26867,0.00147188,0.014345,881,498,-0.263054,12.8636
-336,526,-0.286743,-13.2315,-0.0011652,0.00029504,-0.000641454,0.000536794,-0.00140695,-1.21037,0.0011591,0.0154125,888,498,-0.286773,13.2315
-329,526,-0.292969,-13.5791,-0.000687042,0.000173484,-0.000587731,0.000471612,-0.000985171,-1.10136,0.000858319,0.0156712,895,498,-0.29298,13.5791
-322,526,-0.27832,-13.9059,-0.000282566,3.94154e-05,-0.000481354,0.000385987,-0.000629138,-0.946778,0.000591661,0.0105074,902,498,-0.278298,13.9059
-315,526,-0.289185,-14.2601,9.34758e-05,2.12917e-05,-0.000317356,0.000376785,-0.000262018,-0.728778,0.000370792,0.00902018,909,498,-0.289175,14.2601
-308,526,-0.301941,-14.6126,0.000458781,-2.36552e-05,-0.000124938,0.000489217,-5.40906e-05,-0.23895,0.000345588,0.00801377,916,498,-0.301963,14.6126
-301,526,-0.307068,-14.937,0.000725947,-0.000251236,0.000150317,0.000748547,-0.000273836,0.149232,0.000611115,0.00895925,923,498,-0.307057,14.9369
-294,526,-0.302185,-15.259,0.00123996,-0.000779114,0.000668692,0.00144134,-0.000980492,0.292513,0.00140666,0.00909084,930,498,-0.302213,15.259
-287,526,-0.317444,-15.5786,0.00232516,-0.00234659,0.00100397,0.00253178,-0.00255321,0.202966,0.00293582,0.0094565,937,498,-0.317469,15.5786
-280,526,-0.322571,-15.8932,0.0030762,-0.00389629,0.0014545,0.00336744,-0.00418754,0.197627,0.00437043,0.0119017,944,498,-0.322572,15.8933
-273,526,-0.308594,-16.2212,0.00409894,-0.00614668,0.00212122,0.00452075,-0.00656848,0.19629,0.00643865,0.0103244,951,498,-0.308588,16.2212
-266,526,-0.296021,-16.5417,0.00564416,-0.00927979,0.00292591,0.00619729,-0.00983292,0.186843,0.00933406,0.00997968,958,498,-0.29599,16.5417
-259,526,-0.24823,-16.8187,0.00745489,-0.0131163,0.003628,0.00807598,-0.0137374,0.169551,0.0127345,0.0173917,965,498,-0.248247,16.8187
-252,526,-0.22644,-16.9912,0.00907381,-0.0167373,0.00438448,0.00979826,-0.0174617,0.163751,0.0159445,0.0313632,972,498,-0.22647,16.9912
-245,526,-0.291016,-17.1281,0.0107884,-0.0213246,0.00541811,0.0116779,-0.0222141,0.162721,0.0198803,0.0407497,979,498,-0.290997,17.1281
-238,526,0.376282,-16.7958,0.0124438,-0.0261539,0.00644049,0.0134901,-0.0272002,0.161051,0.0239329,0.0480164,986,498,0.376283,16.7958
-231,526,0.0395508,-17.2994,0,0,0,0,0,0,0,-1,993,498,0.0395384,17.2994
-224,526,-0.472351,-17.4299,0,0,0,0,0,0,0,-1,1000,498,-0.47233,17.4299
-217,526,-0.282043,-17.6478,0,0,0,0,0,0,0,-1,1007,498,-0.282033,17.6478
-210,526,-0.187988,-18.3642,0,0,0,0,0,0,0,-1,1014,498,-0.187984,18.3642
-203,526,-0.659302,-18.8818,0,0,0,0,0,0,0,-1,1021,498,-0.659273,18.8818
-196,526,-0.328247,-12.179,0,0,0,0,0,0,0,-1,1028,498,-0.328238,12.179
-189,526,0.401245,-5.96826,0,0,0,0,0,0,0,-1,1035,498,0.401197,5.96826
-182,526,1.7323,-2.99405,0,0,0,0,0,0,0,-1,1042,498,1.73226,2.99404
-175,526,2.27637,-2.07983,0,0,0,0,0,0,0,-1,1049,498,2.27639,2.07984
-168,526,2.12036,-1.66049,0,0,0,0,0,0,0,-1,1056,498,2.12035,1.66048
-161,526,2.09082,-1.20572,0,0,0,0,0,0,0,-1,1063,498,2.09086,1.2057
-154,526,-1.3446,-5.37799,0,0,0,0,0,0,0,-1,1070,498,-1.34457,5.37799
-147,526,-0.472656,-6.64996,0,0,0,0,0,0,0,-1,1077,498,-0.472659,6.64997
-140,526,0.422852,-8.03339,0,0,0,0,0,0,0,-1,1084,498,0.422844,8.0334
-133,526,1.09583,-9.2215,0,0,0,0,0,0,0,-1,1091,498,1.09581,9.2215
-126,526,3.42529,-2.36053,0,0,0,0,0,0,0,-1,1098,498,3.42523,2.36052
-119,526,2.7771,-0.764099,0,0,0,0,0,0,0,-1,1105,498,2.7771,0.764107
-112,526,2.57715,-1.1893,0,0,0,0,0,0,0,-1,1112,498,2.57718,1.1893
-105,526,0,0,0,0,0,0,0,0,0,-1,1119,498,0,0
-98,526,0,0,0,0,0,0,0,0,0,-1,1126,498,0,0
-91,526,0,0,0,0,0,0,0,0,0,-1,1133,498,0,0
-84,526,0,0,0,0,0,0,0,0,0,-1,1140,498,0,0
-77,526,0,0,0,0,0,0,0,0,0,-1,1147,498,0,0
-70,526,0,0,0,0,0,0,0,0,0,-1,1154,498,0,0
-63,526,0,0,0,0,0,0,0,0,0,-1,1161,498,0,0
-56,526,0,0,0,0,0,0,0,0,0,-1,1168,498,0,0
-49,526,0,0,0,0,0,0,0,0,0,-1,1175,498,0,0
-42,526,0,0,0,0,0,0,0,0,0,-1,1182,498,0,0
-35,526,0,0,0,0,0,0,0,0,0,-1,1189,498,0,0
-28,526,0,0,0,0,0,0,0,0,0,-1,1196,498,0,0
-21,526,0,0,0,0,0,0,0,0,0,-1,1203,498,0,0
-14,526,0,0,0,0,0,0,0,0,0,-1,1210,498,0,0
-7,526,0,0,0,0,0,0,0,0,0,-1,1217,498,0,0
0,526,0,0,0,0,0,0,0,0,0,-1,1224,498,0,0
7,526,0,0,0,0,0,0,0,0,0,-1,1231,498,0,0
14,526,0,0,0,0,0,0,0,0,0,-1,1238,498,0,0
21,526,0,0,0,0,0,0,0,0,0,-1,1245,498,0,0
28,526,0,0,0,0,0,0,0,0,0,-1,1252,498,0,0
35,526,0,0,0,0,0,0,0,0,0,-1,1259,498,0,0
42,526,0,0,0,0,0,0,0,0,0,-1,1266,498,0,0
49,526,0,0,0,0,0,0,0,0,0,-1,1273,498,0,0
56,526,0,0,0,0,0,0,0,0,0,-1,1280,498,0,0
63,526,0,0,0,0,0,0,0,0,0,-1,1287,498,0,0
70,526,0,0,0,0,0,0,0,0,0,-1,1294,498,0,0
77,526,0,0,0,0,0,0,0,0,0,-1,1301,498,0,0
84,526,0,0,0,0,0,0,0,0,0,-1,1308,498,0,0
91,526,0,0,0,0,0,0,0,0,0,-1,1315,498,0,0
98,526,0,0,0,0,0,0,0,0,0,-1,1322,498,0,0
105,526,0,0,0,0,0,0,0,0,0,-1,1329,498,0,0
112,526,0,0,0,0,0,0,0,0,0,-1,1336,498,0,0
119,526,0,0,0,0,0,0,0,0,0,-1,1343,498,0,0
126,526,0,0,0,0,0,0,0,0,0,-1,1350,498,0,0
133,526,0,0,0,0,0,0,0,0,0,-1,1357,498,0,0
140,526,0,0,0,0,0,0,0,0,0,-1,1364,498,0,0
147,526,0,0,0,0,0,0,0,0,0,-1,1371,498,0,0
154,526,0,0,0,0,0,0,0,0,0,-1,1378,498,0,0
161,526,0,0,0,0,0,0,0,0,0,-1,1385,498,0,0
168,526,0,0,0,0,0,0,0,0,0,-1,1392,498,0,0
175,526,0,0,0,0,0,0,0,0,0,-1,1399,498,0,0
182,526,0,0,0,0,0,0,0,0,0,-1,1406,498,0,0
189,526,0,0,0,0,0,0,0,0,0,-1,1413,498,0,0
196,526,0,0,0,0,0,0,0,0,0,-1,1420,498,0,0
203,526,0,0,0,0,0,0,0,0,0,-1,1427,498,0,0
210,526,0,0,0,0,0,0,0,0,0,-1,1434,498,0,0
217,526,0,0,0,0,0,0,0,0,0,-1,1441,498,0,0
224,526,0,0,0,0,0,0,0,0,0,-1,1448,498,0,0
231,526,7.93237,-1.30618,0,0,0,0,0,0,0,-1,1455,498,7.93238,1.30618
238,526,7.97717,-1.08197,0,0,0,0,0,0,0,-1,1462,498,7.97723,1.08196
245,526,7.2793,-0.792938,0,0,0,0,0,0,0,-1,1469,498,7.27931,0.792926
252,526,6.73523,-2.23608,0,0,0,0,0,0,0,-1,1476,498,6.73525,2.23608
259,526,6.22949,-1.84967,0,0,0,0,0,0,0,-1,1483,498,6.22953,1.84968
266,526,5.72375,-1.46329,0,0,0,0,0,0,0,-1,1490,498,5.72381,1.46328
273,526,4.33984,0.49173,0,0,0,0,0,0,0,-1,1497,498,4.33979,-0.491727
280,526,1.4585,-1.59897,0,0,0,0,0,0,0,-1,1504,498,1.45846,1.59895
287,526,1.46411,-2.40134,0,0,0,0,0,0,0,-1,1511,498,1.46406,2.40133
294,526,5.57471,-4.59085,0,0,0,0,0,0,0,-1,1518,498,5.57466,4.59084
301,526,4.42786,-3.99677,0,0,0,0,0,0,0,-1,1525,498,4.42788,3.99676
308,526,5.79529,-4.19366,0,0,0,0,0,0,0,-1,1532,498,5.79528,4.19368
315,526,5.09851,-5.20068,0,0,0,0,0,0,0,-1,1539,498,5.09851,5.20068
322,526,5.50708,-4.72348,0,0,0,0,0,0,0,-1,1546,498,5.50713,4.72347
329,526,3.88672,-4.345,0,0,0,0,0,0,0,-1,1553,498,3.88674,4.34501
336,526,4.97876,-2.23828,0,0,0,0,0,0,0,-1,1560,498,4.97877,2.23828
343,526,3.31665,-2.69696,0,0,0,0,0,0,0,-1,1567,498,3.31667,2.69696
350,526,6.06287,-6.12015,0,0,0,0,0,0,0,-1,1574,498,6.06286,6.12014
357,526,5.79736,-7.7854,0,0,0,0,0,0,0,-1,1581,498,5.79734,7.78539
364,526,7.56226,-16.7578,0,0,0,0,0,0,0,-1,1588,498,7.5622,16.7578
371,526,7.46155,-16.6719,0,0,0,0,0,0,0,-1,1595,498,7.4615,16.6719
378,526,7.43457,-16.376,0,0,0,0,0,0,0,-1,1602,498,7.43457,16.376
385,526,7.71558,-15.8397,0,0,0,0,0,0,0,-1,1609,498,7.71562,15.8397
392,526,7.83484,-15.4366,0.000320384,0.000111198,-0.000837067,0.00105937,-0.000627785,-0.723244,0.000984644,0.0427375,1616,498,7.83487,15.4366
399,526,7.69482,-15.0829,0.000562396,0.000463576,-0.000581233,0.00109631,-7.03429e-05,-0.742996,0.000755417,0.0221734,1623,498,7.69487,15.083
406,526,7.75232,-14.7169,0.000729167,0.000695284,-0.000408256,0.00112083,0.000303618,-0.764661,0.000669376,0.0121773,1630,498,7.75236,14.7169
413,526,7.75281,-14.372,0.000883392,0.00110572,-0.000196666,0.00122047,0.000768647,-1.04264,0.000712508,0.0126203,1637,498,7.75277,14.372
420,526,7.74622,-14.0228,0.000929909,0.00124254,-5.31204e-05,0.00125132,0.00092113,-1.407,0.000748822,0.0129545,1644,498,7.74617,14.0228
427,526,7.75403,-13.6621,0.000737825,0.00120583,-5.00987e-05,0.00121113,0.000732522,-1.46534,0.00070435,0.0135029,1651,498,7.75405,13.6621
434,526,7.7373,-13.2931,0.000435614,0.00101143,-4.76702e-05,0.00101535,0.000431694,-1.48875,0.000588399,0.0123909,1658,498,7.73726,13.2931
441,526,7.72632,-12.9292,0.000229002,0.000736819,3.79334e-05,0.000739637,0.000226184,1.49665,0.000437634,0.0111486,1665,498,7.72632,12.9292
448,526,7.73657,-12.585,0.000144544,0.000320385,0.000153718,0.00040955,5.53788e-05,1.04517,0.000256574,0.0105869,1672,498,7.73656,12.585
455,526,7.73584,-12.2552,3.6212e-05,-0.000138061,0.000247381,0.000211354,-0.000313203,0.616066,0.00030475,0.0138438,1679,498,7.73587,12.2552
462,526,7.72681,-11.8406,0.000118659,-0.000785717,0.000404281,0.000273033,-0.000940091,0.36476,0.000734845,0.010506,1686,498,7.72681,11.8406
469,526,7.71204,-11.4573,0.00047224,-0.00161074,0.000760725,0.000720481,-0.00185898,0.315426,0.00153684,0.00769984,1693,498,7.71203,11.4573
476,526,7.69775,-11.0796,0.000734694,-0.00251591,0.00103888,0.00103835,-0.00281957,0.28437,0.00230515,0.00967659,1700,498,7.6978,11.0796
483,526,7.70398,-10.6519,0.00118003,-0.00364944,0.00134833,0.00153097,-0.00400038,0.254626,0.0032979,0.0124041,1707,498,7.70395,10.6519
490,526,7.77283,-10.2613,0,0,0,0,0,0,0,-1,1714,498,7.77277,10.2613
497,526,7.68616,-10.018,0.00269301,-0.00668738,0.0023466,0.00324729,-0.00724166,0.231952,0.00620044,0.0303485,1721,498,7.68617,10.018
504,526,7.70557,-9.61752,0.00371682,-0.00859686,0.00294374,0.00438437,-0.00926441,0.222998,0.00804627,0.0347301,1728,498,7.70561,9.61752
511,526,7.90063,-9.31497,0.00498777,-0.0108698,0.00369593,0.00580687,-0.0116889,0.218097,0.0102897,0.042774,1735,498,7.90067,9.31498
518,526,8.17542,-8.96597,0.00643503,-0.0133115,0.00456099,0.00743762,-0.014314,0.216376,0.0127658,0.0465425,1742,498,8.17539,8.96597
525,526,8.45398,-8.65811,0,0,0,0,0,0,0,-1,1749,498,8.45398,8.65812
532,526,3.54285,-2.81274,0,0,0,0,0,0,0,-1,1756,498,3.54284,2.81273
539,526,3.29407,0.932312,0,0,0,0,0,0,0,-1,1763,498,3.2941,-0.93232
546,526,3.36731,1.07721,0,0,0,0,0,0,0,-1,1770,498,3.36735,-1.07719
553,526,3.40796,1.37137,0,0,0,0,0,0,0,-1,1777,498,3.40792,-1.37138
560,526,0,0,0,0,0,0,0,0,0,-1,1784,498,0,0
567,526,0,0,0,0,0,0,0,0,0,-1,1791,498,0,0
574,526,0,0,0,0,0,0,0,0,0,-1,1798,498,0,0
581,526,0,0,0,0,0,0,0,0,0,-1,1805,498,0,0
588,526,0,0,0,0,0,0,0,0,0,-1,1812,498,0,0
595,526,0,0,0,0,0,0,0,0,0,-1,1819,498,0,0
602,526,0,0,0,0,0,0,0,0,0,-1,1826,498,0,0
609,526,0,0,0,0,0,0,0,0,0,-1,1833,498,0,0
616,526,0,0,0,0,0,0,0,0,0,-1,1840,498,0,0
623,526,0,0,0,0,0,0,0,0,0,-1,1847,498,0,0
630,526,0,0,0,0,0,0,0,0,0,-1,1854,498,0,0
637,526,0,0,0,0,0,0,0,0,0,-1,1861,498,0,0
644,526,0,0,0,0,0,0,0,0,0,-1,1868,498,0,0
651,526,0,0,0,0,0,0,0,0,0,-1,1875,498,0,0
658,526,0,0,0,0,0,0,0,0,0,-1,1882,498,0,0
665,526,0,0,0,0,0,0,0,0,0,-1,1889,498,0,0
672,526,0,0,0,0,0,0,0,0,0,-1,1896,498,0,0
679,526,0,0,0,0,0,0,0,0,0,-1,1903,498,0,0
686,526,0,0,0,0,0,0,0,0,0,-1,1910,498,0,0
693,526,0,0,0,0,0,0,0,0,0,-1,1917,498,0,0
700,526,0,0,0,0,0,0,0,0,0,-1,1924,498,0,0
707,526,0,0,0,0,0,0,0,0,0,-1,1931,498,0,0
714,526,0,0,0,0,0,0,0,0,0,-1,1938,498,0,0
721,526,0,0,0,0,0,0,0,0,0,-1,1945,498,0,0
728,526,0,0,0,0,0,0,0,0,0,-1,1952,498,0,0
735,526,0,0,0,0,0,0,0,0,0,-1,1959,498,0,0
742,526,0,0,0,0,0,0,0,0,0,-1,1966,498,0,0
749,526,0,0,0,0,0,0,0,0,0,-1,1973,498,0,0
756,526,0,0,0,0,0,0,0,0,0,-1,1980,498,0,0
763,526,0,0,0,0,0,0,0,0,0,-1,1987,498,0,0
770,526,0,0,0,0,0,0,0,0,0,-1,1994,498,0,0
777,526,0,0,0,0,0,0,0,0,0,-1,2001,498,0,0
784,526,0,0,0,0,0,0,0,0,0,-1,2008,498,0,0
791,526,0,0,0,0,0,0,0,0,0,-1,2015,498,0,0
798,526,0,0,0,0,0,0,0,0,0,-1,2022,498,0,0
805,526,0,0,0,0,0,0,0,0,0,-1,2029,498,0,0
812,526,0,0,0,0,0,0,0,0,0,-1,2036,498,0,0
-700,519,0,0,0,0,0,0,0,0,0,-1,524,505,0,0
-693,519,0,0,0,0,0,0,0,0,0,-1,531,505,0,0
-686,519,0,0,0,0,0,0,0,0,0,-1,538,505,0,0
-679,519,0,0,0,0,0,0,0,0,0,-1,545,505,0,0
-672,519,0,0,0,0,0,0,0,0,0,-1,552,505,0,0
-665,519,0,0,0,0,0,0,0,0,0,-1,559,505,0,0
-658,519,0,0,0,0,0,0,0,0,0,-1,566,505,0,0
-651,519,0,0,0,0,0,0,0,0,0,-1,573,505,0,0
-644,519,0,0,0,0,0,0,0,0,0,-1,580,505,0,0
-637,519,0,0,0,0,0,0,0,0,0,-1,587,505,0,0
-630,519,0,0,0,0,0,0,0,0,0,-1,594,505,0,0
-623,519,0,0,0,0,0,0,0,0,0,-1,601,505,0,0
-616,519,0,0,0,0,0,0,0,0,0,-1,608,505,0,0
-609,519,0,0,0,0,0,0,0,0,0,-1,615,505,0,0
-602,519,0,0,0,0,0,0,0,0,0,-1,622,505,0,0
-595,519,0,0,0,0,0,0,0,0,0,-1,629,505,0,0
-588,519,0,0,0,0,0,0,0,0,0,-1,636,505,0,0
-581,519,0,0,0,0,0,0,0,0,0,-1,643,505,0,0
-574,519,0,0,0,0,0,0,0,0,0,-1,650,505,0,0
-567,519,0,0,0,0,0,0,0,0,0,-1,657,505,0,0
-560,519,0,0,0,0,0,0,0,0,0,-1,664,505,0,0
-553,519,0,0,0,0,0,0,0,0,0,-1,671,505,0,0
-546,519,0,0,0,0,0,0,0,0,0,-1,678,505,0,0
-539,519,0,0,0,0,0,0,0,0,0,-1,685,505,0,0
-532,519,0,0,0,0,0,0,0,0,0,-1,692,505,0,0
-525,519,0,0,0,0,0,0,0,0,0,-1,699,505,0,0
-518,519,0,0,0,0,0,0,0,0,0,-1,706,505,0,0
-511,519,0,0,0,0,0,0,0,0,0,-1,713,505,0,0
-504,519,0,0,0,0,0,0,0,0,0,-1,720,505,0,0
-497,519,0,0,0,0,0,0,0,0,0,-1,727,505,0,0
-490,519,0,0,0,0,0,0,0,0,0,-1,734,505,0,0
-483,519,0,0,0,0,0,0,0,0,0,-1,741,505,0,0
-476,519,0,0,0,0,0,0,0,0,0,-1,748,505,0,0
-469,519,0,0,0,0,0,0,0,0,0,-1,755,505,0,0
-462,519,0,0,0,0,0,0,0,0,0,-1,762,505,0,0
-455,519,0,0,0,0,0,0,0,0,0,-1,769,505,0,0
-448,519,0,0,0,0,0,0,0,0,0,-1,776,505,0,0
-441,519,1.34839,-5.29346,0,0,0,0,0,0,0,-1,783,505,1.3484,5.29347
-434,519,0.949585,-5.77313,0,0,0,0,0,0,0,-1,790,505,0.949598,5.77315
-427,519,0.138489,-5.67401,0,0,0,0,0,0,0,-1,797,505,0.138516,5.67402
-420,519,0.713989,-6.8869,0,0,0,0,0,0,0,-1,804,505,0.713969,6.88691
-413,519,-0.677673,-9.71606,0,0,0,0,0,0,0,-1,811,505,-0.677646,9.71608
-406,519,-0.632141,-9.93335,0.0247747,-0.0110274,-0.0161005,0.03095,-0.0172027,-0.366246,0.0281762,0.0476598,818,505,-0.632149,9.93334
-399,519,-0.594055,-10.0912,0.0201519,-0.0092162,-0.0134121,0.0253552,-0.0144194,-0.370078,0.0232514,0.0486913,825,505,-0.594043,10.0913
-392,519,-0.447998,-10.2147,0,0,0,0,0,0,0,-1,832,505,-0.447998,10.2147
-385,519,-0.533325,-10.5557,0,0,0,0,0,0,0,-1,839,505,-0.533299,10.5557
-378,519,-0.544922,-10.8571,0.00718964,-0.00392432,-0.00595935,0.00978091,-0.00651558,-0.410161,0.00947153,0.0351173,846,505,-0.544911,10.8571
-371,519,-0.522766,-11.2959,0.0044024,-0.0025636,-0.00428967,0.00644502,-0.00460623,-0.444405,0.00640982,0.0185293,853,505,-0.522743,11.2959
-364,519,-0.563049,-11.7081,0.00232018,-0.00155983,-0.00297267,0.00392988,-0.00316953,-0.496292,0.00410667,0.0112562,860,505,-0.563071,11.7082
-357,519,-0.565002,-12.1058,0.000918258,-0.00083208,-0.00202532,0.00224941,-0.00216323,-0.581458,0.0025478,0.00989012,867,505,-0.565011,12.1057
-350,519,-0.575745,-12.4706,-0.000414778,-0.000238716,-0.00107117,0.000748031,-0.00140152,-0.826397,0.00126002,0.011447,874,505,-0.575719,12.4706
-343,519,-0.604553,-12.8182,-0.0010329,0.000355821,-0.000546831,0.000545294,-0.00122237,-1.23725,0.00104522,0.0143008,881,505,-0.604547,12.8183
-336,519,-0.636902,-13.1982,-0.000668476,0.000197397,-0.000438843,0.000380916,-0.000851994,-1.17471,0.000728935,0.0150861,888,505,-0.636923,13.1982
-329,519,-0.631287,-13.5553,-0.000249309,2.85998e-05,-0.000361273,0.000276719,-0.000497429,-0.968989,0.000452969,0.013873,895,505,-0.631313,13.5553
-322,519,-0.617798,-13.9038,0.000120339,-0.00014513,-0.000232905,0.000255678,-0.000280469,-0.526399,0.000309655,0.01098,902,505,-0.617816,13.9038
-315,519,-0.62085,-14.2659,0.000483778,-0.000220515,-5.49406e-05,0.000488038,-0.000224775,-0.0773843,0.000420795,0.00867983,909,505,-0.620849,14.2659
-308,519,-0.642822,-14.6279,0.000859234,-0.000338625,0.000162302,0.000880835,-0.000360227,0.132316,0.000737242,0.00767309,916,505,-0.642839,14.6279
-301,519,-0.649353,-14.9463,0.00115966,-0.00062882,0.000456565,0.00126947,-0.000738629,0.23603,0.0011728,0.0114709,923,505,-0.649374,14.9463
-294,519,-0.655884,-15.2322,0.0017799,-0.00123604,0.00103805,0.00210264,-0.00155878,0.301441,0.00212168,0.014148,930,505,-0.655873,15.2323
-287,519,-0.668335,-15.5842,0.00307464,-0.00318779,0.00144038,0.00339005,-0.0035032,0.215573,0.00398,0.0108445,937,505,-0.668331,15.5841
-280,519,-0.678467,-15.9054,0.00402396,-0.00506957,0.00196021,0.0044285,-0.00547412,0.203522,0.00572789,0.01569,944,505,-0.678474,15.9054
-273,519,-0.637024,-16.2377,0.00540875,-0.00781419,0.00272497,0.00594829,-0.00835374,0.195471,0.00829612,0.0262933,951,505,-0.637021,16.2377
-266,519,-0.654968,-16.5665,0.00749292,-0.0117094,0.00369304,0.00817868,-0.0123952,0.1836,0.0119612,0.0362804,958,505,-0.654994,16.5665
-259,519,-0.557373,-16.8325,0,0,0,0,0,0,0,-1,965,505,-0.55736,16.8325
-252,519,-0.561279,-16.8477,0,0,0,0,0,0,0,-1,972,505,-0.561309,16.8477
-245,519,-0.68219,-16.8201,0,0,0,0,0,0,0,-1,979,505,-0.68219,16.8201
-238,519,0.602417,-15.9685,0,0,0,0,0,0,0,-1,986,505,0.602404,15.9685
-231,519,0.337585,-11.2798,0,0,0,0,0,0,0,-1,993,505,0.337568,11.2798
-224,519,-0.0494995,-7.97394,0,0,0,0,0,0,0,-1,1000,505,-0.0495123,7.97392
-217,519,-2.97125,-4.84393,0,0,0,0,0,0,0,-1,1007,505,-2.97128,4.84393
-210,519,-2.14398,-4.74774,0,0,0,0,0,0,0,-1,1014,505,-2.14397,4.74775
-203,519,-0.513611,-5.39017,0,0,0,0,0,0,0,-1,1021,505,-0.513585,5.39017
-196,519,-0.374023,-5.41635,0,0,0,0,0,0,0,-1,1028,505,-0.374047,5.41635
-189,519,-0.234497,-5.44254,0,0,0,0,0,0,0,-1,1035,505,-0.234508,5.44253
-182,519,2.76697,-1.19659,0,0,0,0,0,0,0,-1,1042,505,2.76696,1.19661
-175,519,2.31323,-0.960938,0,0,0,0,0,0,0,-1,1049,505,2.31319,0.960941
-168,519,2.01074,-0.721405,0,0,0,0,0,0,0,-1,1056,505,2.01072,0.721407
-161,519,2.32056,-0.522339,0,0,0,0,0,0,0,-1,1063,505,2.32057,0.522328
-154,519,2.55566,0.116669,0,0,0,0,0,0,0,-1,1070,505,2.55563,-0.116661
-147,519,-0.55127,-6.14001,0,0,0,0,0,0,0,-1,1077,505,-0.551252,6.14001
-140,519,0.240601,-7.53503,0,0,0,0,0,0,0,-1,1084,505,0.240653,7.53501
-133,519,2.70911,-4.4516,0,0,0,0,0,0,0,-1,1091,505,2.70915,4.45161
-126,519,0,0,0,0,0,0,0,0,0,-1,1098,505,0,0
-119,519,0,0,0,0,0,0,0,0,0,-1,1105,505,0,0
-112,519,0,0,0,0,0,0,0,0,0,-1,1112,505,0,0
-105,519,0,0,0,0,0,0,0,0,0,-1,1119,505,0,0
-98,519,0,0,0,0,0,0,0,0,0,-1,1126,505,0,0
-91,519,0,0,0,0,0,0,0,0,0,-1,1133,505,0,0
-84,519,0,0,0,0,0,0,0,0,0,-1,1140,505,0,0
-77,519,0,0,0,0,0,0,0,0,0,-1,1147,505,0,0
-70,519,0,0,0,0,0,0,0,0,0,-1,1154,505,0,0
-63,519,0,0,0,0,0,0,0,0,0,-1,1161,505,0,0
-56,519,0,0,0,0,0,0,0,0,0,-1,1168,505,0,0
-49,519,0,0,0,0,0,0,0,0,0,-1,1175,505,0,0
-42,519,0,0,0,0,0,0,0,0,0,-1,1182,505,0,0
-35,519,0,0,0,0,0,0,0,0,0,-1,1189,505,0,0
-28,519,0,0,0,0,0,0,0,0,0,-1,1196,505,0,0
-21,519,0,0,0,0,0,0,0,0,0,-1,1203,505,0,0
-14,519,0,0,0,0,0,0,0,0,0,-1,1210,505,0,0
-7,519,0,0,0,0,0,0,0,0,0,-1,1217,505,0,0
0,519,0,0,0,0,0,0,0,0,0,-1,1224,505,0,0
7,519,0,0,0,0,0,0,0,0,0,-1,1231,505,0,0
14,519,0,0,0,0,0,0,0,0,0,-1,1238,505,0,0
21,519,0,0,0,0,0,0,0,0,0,-1,1245,505,0,0
28,519,0,0,0,0,0,0,0,0,0,-1,1252,505,0,0
35,519,0,0,0,0,0,0,0,0,0,-1,1259,505,0,0
42,519,0,0,0,0,0,0,0,0,0,-1,1266,505,0,0
49,519,0,0,0,0,0,0,0,0,0,-1,1273,505,0,0
56,519,0,0,0,0,0,0,0,0,0,-1,1280,505,0,0
63,519,0,0,0,0,0,0,0,0,0,-1,1287,505,0,0
70,519,0,0,0,0,0,0,0,0,0,-1,1294,505,0,0
77,519,0,0,0,0,0,0,0,0,0,-1,1301,505,0,0
84,519,0,0,0,0,0,0,0,0,0,-1,1308,505,0,0
91,519,0,0,0,0,0,0,0,0,0,-1,1315,505,0,0
98,519,0,0,0,0,0,0,0,0,0,-1,1322,505,0,0
105,519,0,0,0,0,0,0,0,0,0,-1,1329,505,0,0
112,519,0,0,0,0,0,0,0,0,0,-1,1336,505,0,0
119,519,0,0,0,0,0,0,0,0,0,-1,1343,505,0,0
126,519,0,0,0,0,0,0,0,0,0,-1,1350,505,0,0
133,519,0,0,0,0,0,0,0,0,0,-1,1357,505,0,0
140,519,0,0,0,0,0,0,0,0,0,-1,1364,505,0,0
147,519,0,0,0,0,0,0,0,0,0,-1,1371,505,0,0
154,519,0,0,0,0,0,0,0,0,0,-1,1378,505,0,0
161,519,0,0,0,0,0,0,0,0,0,-1,1385,505,0,0
168,519,0,0,0,0,0,0,0,0,0,-1,1392,505,0,0
175,519,0,0,0,0,0,0,0,0,0,-1,1399,505,0,0
182,519,0,0,0,0,0,0,0,0,0,-1,1406,505,0,0
189,519,0,0,0,0,0,0,0,0,0,-1,1413,505,0,0
196,519,0,0,0,0,0,0,0,0,0,-1,1420,505,0,0
203,519,0,0,0,0,0,0,0,0,0,-1,1427,505,0,0
210,519,0,0,0,0,0,0,0,0,0,-1,1434,505,0,0
217,519,0,0,0,0,0,0,0,0,0,-1,1441,505,0,0
224,519,0,0,0,0,0,0,0,0,0,-1,1448,505,0,0
231,519,0,0,0,0,0,0,0,0,0,-1,1455,505,0,0
238,519,0,0,0,0,0,0,0,0,0,-1,1462,505,0,0
245,519,0,0,0,0,0,0,0,0,0,-1,1469,505,0,0
252,519,5.26208,0.0938416,0,0,0,0,0,0,0,-1,1476,505,5.26207,-0.0938493
259,519,6.14246,-1.36441,0,0,0,0,0,0,0,-1,1483,505,6.14241,1.36441
266,519,5.31909,-0.400787,0,0,0,0,0,0,0,-1,1490,505,5.31912,0.400773
273,519,4.02393,0.325531,0,0,0,0,0,0,0,-1,1497,505,4.0239,-0.325522
280,519,4.68848,0.53006,0,0,0,0,0,0,0,-1,1504,505,4.68842,-0.530073
287,519,7.9519,-3.80801,0,0,0,0,0,0,0,-1,1511,505,7.95193,3.808
294,519,6.92273,-3.38889,0,0,0,0,0,0,0,-1,1518,505,6.92268,3.38888
301,519,5.35669,-2.92661,0,0,0,0,0,0,0,-1,1525,505,5.35675,2.9266
308,519,7.37549,-5.64529,0,0,0,0,0,0,0,-1,1532,505,7.3755,5.64529
315,519,6.30029,-4.53754,0,0,0,0,0,0,0,-1,1539,505,6.30024,4.53753
322,519,5.84302,-5.45117,0,0,0,0,0,0,0,-1,1546,505,5.84303,5.45116
329,519,4.92407,0.62384,0,0,0,0,0,0,0,-1,1553,505,4.92403,-0.623832
336,519,3.10095,-0.329285,0,0,0,0,0,0,0,-1,1560,505,3.1009,0.329283
343,519,2.49146,-2.31119,0,0,0,0,0,0,0,-1,1567,505,2.49145,2.31119
350,519,3.47729,-2.22516,0,0,0,0,0,0,0,-1,1574,505,3.47726,2.22515
357,519,4.51917,-4.51691,0,0,0,0,0,0,0,-1,1581,505,4.51914,4.51691
364,519,3.54626,-7.20673,0,0,0,0,0,0,0,-1,1588,505,3.54622,7.20675
371,519,5.349,-8.20068,0,0,0,0,0,0,0,-1,1595,505,5.34898,8.20068
378,519,6.36597,-10.0967,0,0,0,0,0,0,0,-1,1602,505,6.36597,10.0967
385,519,6.24756,-9.72186,0,0,0,0,0,0,0,-1,1609,505,6.24752,9.72183
392,519,8.02893,-15.7267,0,0,0,0,0,0,0,-1,1616,505,8.02891,15.7267
399,519,7.94702,-15.1249,0,0,0,0,0,0,0,-1,1623,505,7.94703,15.1249
406,519,8.05151,-14.744,0.000566075,0.000709989,-0.000831567,0.00147271,-0.000196642,-0.828556,0.00105349,0.0314098,1630,505,8.05151,14.744
413,519,8.11853,-14.3853,0.000868406,0.00116223,-0.000576887,0.00161062,0.00042002,-0.910081,0.000964715,0.0144208,1637,505,8.11858,14.3852
420,519,8.08838,-14.0066,0.00104745,0.00130148,-0.000364965,0.0015609,0.000788032,-0.952855,0.000901202,0.0143562,1644,505,8.08844,14.0066
427,519,8.09937,-13.6674,0.000956064,0.00129022,-0.00031024,0.00147551,0.000770774,-1.0324,0.000852172,0.0138433,1651,505,8.09941,13.6674
434,519,8.104,-13.2993,0.000705594,0.00114406,-0.000243649,0.00125259,0.000597066,-1.15175,0.000723447,0.0128111,1658,505,8.10404,13.2993
441,519,8.09045,-12.9235,0.000533337,0.000920141,-0.000118302,0.000953455,0.000500024,-1.29631,0.000550696,0.0118305,1665,505,8.09045,12.9235
448,519,8.07959,-12.5648,0.00048706,0.000585803,3.24187e-05,0.000595495,0.000477368,1.28028,0.000364066,0.00955282,1672,505,8.07954,12.5648
455,519,8.08398,-12.2283,0.000370474,0.00024186,0.000134947,0.000455653,0.000156681,0.563049,0.000267313,0.0105326,1679,505,8.08402,12.2283
462,519,8.08813,-11.8373,0.000383502,-0.000246391,0.000274732,0.000486489,-0.000349378,0.358653,0.000484748,0.0095684,1686,505,8.08808,11.8374
469,519,8.09448,-11.4503,0.000623622,-0.00090078,0.000577219,0.000817524,-0.00109468,0.32408,0.00110787,0.0103695,1693,505,8.09445,11.4502
476,519,8.07849,-11.0631,0.000759066,-0.00164006,0.000804147,0.00100366,-0.00188466,0.29528,0.00169324,0.013083,1700,505,8.07852,11.0631
483,519,8.06018,-10.686,0.0010203,-0.00256872,0.00103421,0.00129699,-0.00284541,0.261413,0.00244668,0.014486,1707,505,8.06018,10.6859
490,519,8.05518,-10.265,0.00143476,-0.00367978,0.00137507,0.00178102,-0.00402603,0.246679,0.0034352,0.0121197,1714,505,8.05512,10.2649
497,519,8.03662,-9.89569,0.00195717,-0.00505775,0.00174242,0.00236613,-0.00546671,0.230533,0.00463889,0.0137172,1721,505,8.03665,9.89571
504,519,8.00989,-9.50537,0.00256494,-0.00659772,0.00214722,0.00304317,-0.00707595,0.219143,0.00599493,0.0147013,1728,505,8.00984,9.50538
511,519,8.04175,-9.09637,0.00326123,-0.0084017,0.00262463,0.00382465,-0.00896513,0.21146,0.00758038,0.0210158,1735,505,8.04171,9.09639
518,519,8.0863,-8.86426,0.00393153,-0.0102565,0.00312174,0.00458802,-0.010913,0.207275,0.00919449,0.0435563,1742,505,8.08626,8.86423
525,519,8.21484,-8.64301,0,0,0,0,0,0,0,-1,1749,505,8.21484,8.64298
532,519,3.5155,-2.86511,0,0,0,0,0,0,0,-1,1756,505,3.51554,2.8651
539,519,3.30005,0.0229797,0,0,0,0,0,0,0,-1,1763,505,3.30008,-0.0229869
546,519,4.62024,-2.89774,0,0,0,0,0,0,0,-1,1770,505,4.62023,2.89775
553,519,4.14136,0.0667419,0,0,0,0,0,0,0,-1,1777,505,4.14141,-0.0667503
560,519,3.77856,0.279724,0,0,0,0,0,0,0,-1,1784,505,3.77861,-0.279731
567,519,0,0,0,0,0,0,0,0,0,-1,1791,505,0,0
574,519,0,0,0,0,0,0,0,0,0,-1,1798,505,0,0
581,519,0,0,0,0,0,0,0,0,0,-1,1805,505,0,0
588,519,0,0,0,0,0,0,0,0,0,-1,1812,505,0,0
595,519,0,0,0,0,0,0,0,0,0,-1,1819,505,0,0
602,519,0,0,0,0,0,0,0,0,0,-1,1826,505,0,0
609,519,0,0,0,0,0,0,0,0,0,-1,1833,505,0,0
616,519,0,0,0,0,0,0,0,0,0,-1,1840,505,0,0
623,519,0,0,0,0,0,0,0,0,0,-1,1847,505,0,0
630,519,0,0,0,0,0,0,0,0,0,-1,1854,505,0,0
637,519,0,0,0,0,0,0,0,0,0,-1,1861,505,0,0
644,519,0,0,0,0,0,0,0,0,0,-1,1868,505,0,0
651,519,0,0,0,0,0,0,0,0,0,-1,1875,505,0,0
658,519,0,0,0,0,0,0,0,0,0,-1,1882,505,0,0
665,519,0,0,0,0,0,0,0,0,0,-1,1889,505,0,0
672,519,0,0,0,0,0,0,0,0,0,-1,1896,505,0,0
679,519,0,0,0,0,0,0,0,0,0,-1,1903,505,0,0
686,519,0,0,0,0,0,0,0,0,0,-1,1910,505,0,0
693,519,0,0,0,0,0,0,0,0,0,-1,1917,505,0,0
700,519,0,0,0,0,0,0,0,0,0,-1,1924,505,0,0
707,519,0,0,0,0,0,0,0,0,0,-1,1931,505,0,0
714,519,0,0,0,0,0,0,0,0,0,-1,1938,505,0,0
721,519,0,0,0,0,0,0,0,0,0,-1,1945,505,0,0
728,519,0,0,0,0,0,0,0,0,0,-1,1952,505,0,0
735,519,0,0,0,0,0,0,0,0,0,-1,1959,505,0,0
742,519,0,0,0,0,0,0,0,0,0,-1,1966,505,0,0
749,519,0,0,0,0,0,0,0,0,0,-1,1973,505,0,0
756,519,0,0,0,0,0,0,0,0,0,-1,1980,505,0,0
763,519,0,0,0,0,0,0,0,0,0,-1,1987,505,0,0
770,519,0,0,0,0,0,0,0,0,0,-1,1994,505,0,0
777,519,0,0,0,0,0,0,0,0,0,-1,2001,505,0,0
784,519,0,0,0,0,0,0,0,0,0,-1,2008,505,0,0
791,519,0,0,0,0,0,0,0,0,0,-1,2015,505,0,0
798,519,0,0,0,0,0,0,0,0,0,-1,2022,505,0,0
805,519,0,0,0,0,0,0,0,0,0,-1,2029,505,0,0
812,519,0,0,0,0,0,0,0,0,0,-1,2036,505,0,0
-700,512,0,0,0,0,0,0,0,0,0,-1,524,512,0,0
-693,512,0,0,0,0,0,0,0,0,0,-1,531,512,0,0
-686,512,0,0,0,0,0,0,0,0,0,-1,538,512,0,0
-679,512,0,0,0,0,0,0,0,0,0,-1,545,512,0,0
-672,512,0,0,0,0,0,0,0,0,0,-1,552,512,0,0
-665,512,0,0,0,0,0,0,0,0,0,-1,559,512,0,0
-658,512,0,0,0,0,0,0,0,0,0,-1,566,512,0,0
-651,512,0,0,0,0,0,0,0,0,0,-1,573,512,0,0
-644,512,0,0,0,0,0,0,0,0,0,-1,580,512,0,0
-637,512,0,0,0,0,0,0,0,0,0,-1,587,512,0,0
-630,512,0,0,0,0,0,0,0,0,0,-1,594,512,0,0
-623,512,0,0,0,0,0,0,0,0,0,-1,601,512,0,0
-616,512,0,0,0,0,0,0,0,0,0,-1,608,512,0,0
-609,512,0,0,0,0,0,0,0,0,0,-1,615,512,0,0
-602,512,0,0,0,0,0,0,0,0,0,-1,622,512,0,0
-595,512,0,0,0,0,0,0,0,0,0,-1,629,512,0,0
-588,512,0,0,0,0,0,0,0,0,0,-1,636,512,0,0
-581,512,0,0,0,0,0,0,0,0,0,-1,643,512,0,0
-574,512,0,0,0,0,0,0,0,0,0,-1,650,512,0,0
-567,512,0,0,0,0,0,0,0,0,0,-1,657,512,0,0
-560,512,0,0,0,0,0,0,0,0,0,-1,664,512,0,0
-553,512,0,0,0,0,0,0,0,0,0,-1,671,512,0,0
-546,512,0,0,0,0,0,0,0,0,0,-1,678,512,0,0
-539,512,0,0,0,0,0,0,0,0,0,-1,685,512,0,0
-532,512,0,0,0,0,0,0,0,0,0,-1,692,512,0,0
-525,512,0,0,0,0,0,0,0,0,0,-1,699,512,0,0
-518,512,0,0,0,0,0,0,0,0,0,-1,706,512,0,0
-511,512,0,0,0,0,0,0,0,0,0,-1,713,512,0,0
-504,512,0,0,0,0,0,0,0,0,0,-1,720,512,0,0
-497,512,0,0,0,0,0,0,0,0,0,-1,727,512,0,0
-490,512,0,0,0,0,0,0,0,0,0,-1,734,512,0,0
-483,512,0,0,0,0,0,0,0,0,0,-1,741,512,0,0
-476,512,0,0,0,0,0,0,0,0,0,-1,748,512,0,0
-469,512,0,0,0,0,0,0,0,0,0,-1,755,512,0,0
-462,512,0,0,0,0,0,0,0,0,0,-1,762,512,0,0
-455,512,0,0,0,0,0,0,0,0,0,-1,769,512,0,0
-448,512,1.96283,-4.15674,0,0,0,0,0,0,0,-1,776,512,1.96285,4.15677
-441,512,1.78198,-4.88824,0,0,0,0,0,0,0,-1,783,512,1.78201,4.88826
-434,512,1.32996,-7.28003,0,0,0,0,0,0,0,-1,790,512,1.32993,7.28003
-427,512,0.427734,-6.66571,0,0,0,0,0,0,0,-1,797,512,0.427713,6.6657
-420,512,-0.0951538,-7.87762,0,0,0,0,0,0,0,-1,804,512,-0.0951493,7.87765
-413,512,-0.855408,-9.3205,0,0,0,0,0,0,0,-1,811,512,-0.85541,9.32048
-406,512,-0.923645,-9.60547,0.0167479,-0.00762051,-0.0117237,0.0214723,-0.0123449,-0.383069,0.01976,0.0479361,818,512,-0.923654,9.60546
-399,512,-0.931519,-9.88611,0.0134511,-0.00628103,-0.00970301,0.0174229,-0.0102529,-0.388533,0.0161564,0.0420843,825,512,-0.931537,9.88611
-392,512,-0.882446,-10.2098,0.0101361,-0.00499059,-0.00767045,0.0133449,-0.00819944,-0.396215,0.0125563,0.0339705,832,512,-0.882455,10.2098
-385,512,-0.911133,-10.5713,0.00724427,-0.00374198,-0.00587509,0.00979422,-0.00629193,-0.409493,0.00936043,0.0199827,839,512,-0.91113,10.5713
-378,512,-0.917664,-10.9457,0.00486949,-0.002636,-0.00437363,0.00687971,-0.00464622,-0.430827,0.00669602,0.0155047,846,512,-0.917689,10.9457
-371,512,-0.903687,-11.3376,0.00298533,-0.00175604,-0.0031471,0.00455474,-0.00332545,-0.462596,0.00456805,0.0124033,853,512,-0.903668,11.3376
-364,512,-0.896362,-11.7615,0.00157662,-0.00109924,-0.00214515,0.00276687,-0.0022895,-0.506566,0.00292363,0.00990486,860,512,-0.896367,11.7616
-357,512,-0.915955,-12.1246,0.000685587,-0.000611799,-0.00141366,0.00159228,-0.00151849,-0.570293,0.00179618,0.0113554,867,512,-0.915971,12.1245
-350,512,-0.932739,-12.4901,-0.000122784,-0.000227692,-0.000716675,0.000543354,-0.00089383,-0.748868,0.000837942,0.0119316,874,512,-0.932742,12.4901
-343,512,-0.947388,-12.8393,-0.000421977,0.000110991,-0.000324051,0.000264058,-0.000575044,-1.12951,0.000495422,0.0121736,881,512,-0.947398,12.8393
-336,512,-0.963684,-13.2065,-8.50249e-05,-7.83256e-05,-0.000203844,0.000122196,-0.000285547,-0.793614,0.000241625,0.0125085,888,512,-0.963682,13.2065
-329,512,-0.950195,-13.5644,0.000336338,-0.000259233,-0.000145234,0.000369867,-0.000292762,-0.226885,0.000383431,0.0138903,895,512,-0.950213,13.5644
-322,512,-0.960327,-13.918,0.000731023,-0.000431843,-4.81814e-05,0.000733016,-0.000433836,-0.0413389,0.000681023,0.0116349,902,512,-0.960323,13.918
-315,512,-0.967407,-14.2775,0.00112985,-0.000536184,8.37198e-05,0.00113405,-0.000540381,0.0500827,0.000986779,0.0106613,909,512,-0.96742,14.2775
-308,512,-0.987244,-14.6241,0.00154418,-0.000708053,0.000266151,0.0015752,-0.000739077,0.116043,0.00136491,0.0113277,916,512,-0.987252,14.6241
-301,512,-0.984253,-14.9372,0.00188164,-0.00104845,0.000532216,0.00197531,-0.00114212,0.174227,0.00182116,0.0152659,923,512,-0.984244,14.9372
-294,512,-0.976624,-15.2303,0.00258493,-0.00173516,0.00115463,0.00287416,-0.00202439,0.245448,0.00284233,0.0156434,930,512,-0.976645,15.2303
-287,512,-1.03735,-15.5042,0.00409553,-0.00413882,0.00160556,0.00439751,-0.00444081,0.185914,0.00510282,0.022619,937,512,-1.03733,15.5042
-280,512,-0.939819,-15.8918,0.00524138,-0.00646232,0.00221277,0.00564576,-0.0068667,0.180756,0.00723553,0.034704,944,512,-0.939799,15.8919
-273,512,-0.856445,-16.2802,0,0,0,0,0,0,0,-1,951,512,-0.856439,16.2801
-266,512,-0.960449,-16.6578,0,0,0,0,0,0,0,-1,958,512,-0.960455,16.6578
-259,512,-0.525452,-14.0815,0,0,0,0,0,0,0,-1,965,512,-0.525475,14.0815
-252,512,1.45941,-3.43475,0,0,0,0,0,0,0,-1,972,512,1.45938,3.43475
-245,512,4.12927,-11.272,0,0,0,0,0,0,0,-1,979,512,4.1293,11.272
-238,512,0.227051,-8.92969,0,0,0,0,0,0,0,-1,986,512,0.227073,8.92968
-231,512,-2.54437,-10.169,0,0,0,0,0,0,0,-1,993,512,-2.54439,10.169
-224,512,-4.84601,-7.52783,0,0,0,0,0,0,0,-1,1000,512,-4.84602,7.52786
-217,512,-7.37274,-3.89563,0,0,0,0,0,0,0,-1,1007,512,-7.37274,3.89561
-210,512,-3.76642,-1.94702,0,0,0,0,0,0,0,-1,1014,512,-3.76641,1.94702
-203,512,-2.48328,-5.19061,0,0,0,0,0,0,0,-1,1021,512,-2.48328,5.19059
-196,512,-1.14929,-4.63202,0,0,0,0,0,0,0,-1,1028,512,-1.14934,4.632
-189,512,0.197998,4.55505,0,0,0,0,0,0,0,-1,1035,512,0.197996,-4.55506
-182,512,2.73938,0.0778503,0,0,0,0,0,0,0,-1,1042,512,2.73944,-0.077852
-175,512,2.29565,0.209808,0,0,0,0,0,0,0,-1,1049,512,2.29565,-0.209813
-168,512,2.09399,-0.302856,0,0,0,0,0,0,0,-1,1056,512,2.09403,0.302826
-161,512,2.76636,0.0921021,0,0,0,0,0,0,0,-1,1063,512,2.76633,-0.0921104
-154,512,3.41382,0.466187,0,0,0,0,0,0,0,-1,1070,512,3.41382,-0.466178
-147,512,0,0,0,0,0,0,0,0,0,-1,1077,512,0,0
-140,512,0,0,0,0,0,0,0,0,0,-1,1084,512,0,0
-133,512,0,0,0,0,0,0,0,0,0,-1,1091,512,0,0
-126,512,0,0,0,0,0,0,0,0,0,-1,1098,512,0,0
-119,512,0,0,0,0,0,0,0,0,0,-1,1105,512,0,0
-112,512,0,0,0,0,0,0,0,0,0,-1,1112,512,0,0
-105,512,0,0,0,0,0,0,0,0,0,-1,1119,512,0,0
-98,512,0,0,0,0,0,0,0,0,0,-1,1126,512,0,0
-91,512,0,0,0,0,0,0,0,0,0,-1,1133,512,0,0
-84,512,0,0,0,0,0,0,0,0,0,-1,1140,512,0,0
-77,512,0,0,0,0,0,0,0,0,0,-1,1147,512,0,0
-70,512,0,0,0,0,0,0,0,0,0,-1,1154,512,0,0
-63,512,0,0,0,0,0,0,0,0,0,-1,1161,512,0,0
-56,512,0,0,0,0,0,0,0,0,0,-1,1168,512,0,0
-49,512,0,0,0,0,0,0,0,0,0,-1,1175,512,0,0
-42,512,0,0,0,0,0,0,0,0,0,-1,1182,512,0,0
-35,512,0,0,0,0,0,0,0,0,0,-1,1189,512,0,0
-28,512,0,0,0,0,0,0,0,0,0,-1,1196,512,0,0
-21,512,0,0,0,0,0,0,0,0,0,-1,1203,512,0,0
-14,512,0,0,0,0,0,0,0,0,0,-1,1210,512,0,0
-7,512,0,0,0,0,0,0,0,0,0,-1,1217,512,0,0
0,512,0,0,0,0,0,0,0,0,0,-1,1224,512,0,0
7,512,0,0,0,0,0,0,0,0,0,-1,1231,512,0,0
14,512,0,0,0,0,0,0,0,0,0,-1,1238,512,0,0
21,512,0,0,0,0,0,0,0,0,0,-1,1245,512,0,0
28,512,0,0,0,0,0,0,0,0,0,-1,1252,512,0,0
35,512,0,0,0,0,0,0,0,0,0,-1,1259,512,0,0
42,512,0,0,0,0,0,0,0,0,0,-1,1266,512,0,0
49,512,0,0,0,0,0,0,0,0,0,-1,1273,512,0,0
56,512,0,0,0,0,0,0,0,0,0,-1,1280,512,0,0
63,512,0,0,0,0,0,0,0,0,0,-1,1287,512,0,0
70,512,0,0,0,0,0,0,0,0,0,-1,1294,512,0,0
77,512,0,0,0,0,0,0,0,0,0,-1,1301,512,0,0
84,512,0,0,0,0,0,0,0,0,0,-1,1308,512,0,0
91,512,0,0,0,0,0,0,0,0,0,-1,1315,512,0,0
98,512,0,0,0,0,0,0,0,0,0,-1,1322,512,0,0
105,512,0,0,0,0,0,0,0,0,0,-1,1329,512,0,0
112,512,0,0,0,0,0,0,0,0,0,-1,1336,512,0,0
119,512,0,0,0,0,0,0,0,0,0,-1,1343,512,0,0
126,512,0,0,0,0,0,0,0,0,0,-1,1350,512,0,0
133,512,0,0,0,0,0,0,0,0,0,-1,1357,512,0,0
140,512,0,0,0,0,0,0,0,0,0,-1,1364,512,0,0
147,512,0,0,0,0,0,0,0,0,0,-1,1371,512,0,0
154,512,0,0,0,0,0,0,0,0,0,-1,1378,512,0,0
161,512,0,0,0,0,0,0,0,0,0,-1,1385,512,0,0
168,512,0,0,0,0,0,0,0,0,0,-1,1392,512,0,0
175,512,0,0,0,0,0,0,0,0,0,-1,1399,512,0,0
182,512,0,0,0,0,0,0,0,0,0,-1,1406,512,0,0
189,512,0,0,0,0,0,0,0,0,0,-1,1413,512,0,0
196,512,0,0,0,0,0,0,0,0,0,-1,1420,512,0,0
203,512,0,0,0,0,0,0,0,0,0,-1,1427,512,0,0
210,512,0,0,0,0,0,0,0,0,0,-1,1434,512,0,0
217,512,0,0,0,0,0,0,0,0,0,-1,1441,512,0,0
224,512,0,0,0,0,0,0,0,0,0,-1,1448,512,0,0
231,512,0,0,0,0,0,0,0,0,0,-1,1455,512,0,0
238,512,0,0,0,0,0,0,0,0,0,-1,1462,512,0,0
245,512,0,0,0,0,0,0,0,0,0,-1,1469,512,0,0
252,512,0,0,0,0,0,0,0,0,0,-1,1476,512,0,0
259,512,0,0,0,0,0,0,0,0,0,-1,1483,512,0,0
266,512,0,0,0,0,0,0,0,0,0,-1,1490,512,0,0
273,512,4.00745,0.618622,0,0,0,0,0,0,0,-1,1497,512,4.00747,-0.618611
280,512,4.49609,0.649841,0,0,0,0,0,0,0,-1,1504,512,4.49612,-0.649834
287,512,4.77234,0.458069,0,0,0,0,0,0,0,-1,1511,512,4.77233,-0.458083
294,512,8.54956,-2.36273,0,0,0,0,0,0,0,-1,1518,512,8.54952,2.36274
301,512,6.302,-1.69092,0,0,0,0,0,0,0,-1,1525,512,6.30196,1.69093
308,512,8.2439,-6.22754,0,0,0,0,0,0,0,-1,1532,512,8.24394,6.22757
315,512,7.53687,-6.04211,0,0,0,0,0,0,0,-1,1539,512,7.53691,6.04211
322,512,6.82983,-5.85663,0,0,0,0,0,0,0,-1,1546,512,6.82988,5.85666
329,512,4.38147,-0.329651,0,0,0,0,0,0,0,-1,1553,512,4.38144,0.329662
336,512,4.41467,-0.741455,0,0,0,0,0,0,0,-1,1560,512,4.41467,0.741442
343,512,4.44727,-1.21667,0,0,0,0,0,0,0,-1,1567,512,4.44732,1.21666
350,512,4.55469,-1.65082,0,0,0,0,0,0,0,-1,1574,512,4.5547,1.65083
357,512,5.79993,-2.67456,0,0,0,0,0,0,0,-1,1581,512,5.79991,2.67454
364,512,5.18298,-6.80133,0,0,0,0,0,0,0,-1,1588,512,5.18296,6.80132
371,512,5.28467,-7.69269,0,0,0,0,0,0,0,-1,1595,512,5.28464,7.69269
378,512,6.29407,-9.88055,0,0,0,0,0,0,0,-1,1602,512,6.29412,9.88057
385,512,6.45569,-9.32233,0,0,0,0,0,0,0,-1,1609,512,6.45565,9.3223
392,512,6.35522,-8.98425,0,0,0,0,0,0,0,-1,1616,512,6.35526,8.98422
399,512,7.5304,-12.1449,0,0,0,0,0,0,0,-1,1623,512,7.53042,12.1449
406,512,8.42395,-14.8416,0,0,0,0,0,0,0,-1,1630,512,8.42395,14.8416
413,512,8.48718,-14.4248,0,0,0,0,0,0,0,-1,1637,512,8.48716,14.4248
420,512,8.47888,-14.0767,0.00119166,0.00116024,-0.000851721,0.00202781,0.00032408,-0.776177,0.00125784,0.0231206,1644,512,8.47887,14.0767
427,512,8.47778,-13.6789,0.00114338,0.00112531,-0.0007844,0.0019188,0.000349893,-0.779637,0.00117999,0.0152466,1651,512,8.4778,13.6789
434,512,8.45349,-13.305,0.000907457,0.00111855,-0.000616094,0.00163807,0.000387932,-0.870231,0.000988446,0.0110859,1658,512,8.45355,13.305
441,512,8.42859,-12.9357,0.00077249,0.00100235,-0.000401504,0.00130505,0.000469791,-0.924795,0.000763256,0.011557,1665,512,8.42864,12.9357
448,512,8.41345,-12.5811,0.000773112,0.000820154,-0.00015335,0.000951776,0.00064149,-0.861495,0.000560489,0.00926225,1672,512,8.41347,12.5811
455,512,8.41833,-12.2064,0.000685457,0.000648905,3.8274e-05,0.000709595,0.000624767,0.562651,0.000447475,0.00879836,1679,512,8.41829,12.2064
462,512,8.43726,-11.8191,0.000680713,0.000363918,0.000247544,0.000816199,0.000228431,0.500786,0.000486218,0.0085421,1686,512,8.43722,11.8191
469,512,8.43921,-11.4442,0.000870482,-9.0613e-05,0.000583095,0.00114553,-0.000365662,0.440756,0.000910391,0.0104835,1693,512,8.43917,11.4442
476,512,8.43213,-11.0609,0.000971108,-0.000651755,0.0008502,0.00133495,-0.00101559,0.404363,0.00136125,0.0139296,1700,512,8.43211,11.0609
483,512,8.43958,-10.653,0.00115062,-0.00137917,0.00108885,0.00155472,-0.00178327,0.355371,0.00192869,0.0127106,1707,512,8.43961,10.653
490,512,8.42529,-10.2473,0.00141666,-0.00228454,0.00136825,0.00186754,-0.00273542,0.318327,0.00267322,0.00999341,1714,512,8.42528,10.2472
497,512,8.42041,-9.85352,0.00171134,-0.00339314,0.00163733,0.00219139,-0.00387319,0.285198,0.00354598,0.0109159,1721,512,8.42037,9.85349
504,512,8.38574,-9.4458,0.00200962,-0.00464203,0.00189569,0.00251194,-0.00514436,0.259031,0.00450662,0.0123296,1728,512,8.38576,9.44578
511,512,8.36328,-9.02661,0.00226358,-0.00606567,0.00214657,0.00278424,-0.00658633,0.237957,0.00555656,0.0138638,1735,512,8.36332,9.02661
518,512,8.40186,-8.63647,0.00234715,-0.00746468,0.00233808,0.00287581,-0.00799334,0.22237,0.00650303,0.0203352,1742,512,8.40186,8.63649
525,512,8.49268,-8.23584,0,0,0,0,0,0,0,-1,1749,512,8.49269,8.23583
532,512,7.39917,-7.64929,0,0,0,0,0,0,0,-1,1756,512,7.39916,7.64932
539,512,7.05908,-7.00647,0,0,0,0,0,0,0,-1,1763,512,7.05909,7.00647
546,512,2.77551,-0.66449,0,0,0,0,0,0,0,-1,1770,512,2.77548,0.664503
553,512,3.927,-0.448853,0,0,0,0,0,0,0,-1,1777,512,3.92704,0.448843
560,512,3.55762,-0.201233,0,0,0,0,0,0,0,-1,1784,512,3.55768,0.201259
567,512,3.09045,0.191193,0,0,0,0,0,0,0,-1,1791,512,3.09045,-0.191203
574,512,0,0,0,0,0,0,0,0,0,-1,1798,512,0,0
581,512,0,0,0,0,0,0,0,0,0,-1,1805,512,0,0
588,512,0,0,0,0,0,0,0,0,0,-1,1812,512,0,0
595,512,0,0,0,0,0,0,0,0,0,-1,1819,512,0,0
602,512,0,0,0,0,0,0,0,0,0,-1,1826,512,0,0
609,512,0,0,0,0,0,0,0,0,0,-1,1833,512,0,0
616,512,0,0,0,0,0,0,0,0,0,-1,1840,512,0,0
623,512,0,0,0,0,0,0,0,0,0,-1,1847,512,0,0
630,512,0,0,0,0,0,0,0,0,0,-1,1854,512,0,0
637,512,0,0,0,0,0,0,0,0,0,-1,1861,512,0,0
644,512,0,0,0,0,0,0,0,0,0,-1,1868,512,0,0
651,512,0,0,0,0,0,0,0,0,0,-1,1875,512,0,0
658,512,0,0,0,0,0,0,0,0,0,-1,1882,512,0,0
665,512,0,0,0,0,0,0,0,0,0,-1,1889,512,0,0
672,512,0,0,0,0,0,0,0,0,0,-1,1896,512,0,0
679,512,0,0,0,0,0,0,0,0,0,-1,1903,512,0,0
686,512,0,0,0,0,0,0,0,0,0,-1,1910,512,0,0
693,512,0,0,0,0,0,0,0,0,0,-1,1917,512,0,0
700,512,0,0,0,0,0,0,0,0,0,-1,1924,512,0,0
707,512,0,0,0,0,0,0,0,0,0,-1,1931,512,0,0
714,512,0,0,0,0,0,0,0,0,0,-1,1938,512,0,0
721,512,0,0,0,0,0,0,0,0,0,-1,1945,512,0,0
728,512,0,0,0,0,0,0,0,0,0,-1,1952,512,0,0
735,512,0,0,0,0,0,0,0,0,0,-1,1959,512,0,0
742,512,0,0,0,0,0,0,0,0,0,-1,1966,512,0,0
749,512,0,0,0,0,0,0,0,0,0,-1,1973,512,0,0
756,512,0,0,0,0,0,0,0,0,0,-1,1980,512,0,0
763,512,0,0,0,0,0,0,0,0,0,-1,1987,512,0,0
770,512,0,0,0,0,0,0,0,0,0,-1,1994,512,0,0
777,512,0,0,0,0,0,0,0,0,0,-1,2001,512,0,0
784,512,0,0,0,0,0,0,0,0,0,-1,2008,512,0,0
791,512,0,0,0,0,0,0,0,0,0,-1,2015,512,0,0
798,512,0,0,0,0,0,0,0,0,0,-1,2022,512,0,0
805,512,0,0,0,0,0,0,0,0,0,-1,2029,512,0,0
812,512,0,0,0,0,0,0,0,0,0,-1,2036,512,0,0
-700,505,0,0,0,0,0,0,0,0,0,-1,524,519,0,0
-693,505,0,0,0,0,0,0,0,0,0,-1,531,519,0,0
-686,505,0,0,0,0,0,0,0,0,0,-1,538,519,0,0
-679,505,0,0,0,0,0,0,0,0,0,-1,545,519,0,0
-672,505,0,0,0,0,0,0,0,0,0,-1,552,519,0,0
-665,505,0,0,0,0,0,0,0,0,0,-1,559,519,0,0
-658,505,0,0,0,0,0,0,0,0,0,-1,566,519,0,0
-651,505,0,0,0,0,0,0,0,0,0,-1,573,519,0,0
-644,505,0,0,0,0,0,0,0,0,0,-1,580,519,0,0
-637,505,0,0,0,0,0,0,0,0,0,-1,587,519,0,0
-630,505,0,0,0,0,0,0,0,0,0,-1,594,519,0,0
-623,505,0,0,0,0,0,0,0,0,0,-1,601,519,0,0
-616,505,0,0,0,0,0,0,0,0,0,-1,608,519,0,0
-609,505,0,0,0,0,0,0,0,0,0,-1,615,519,0,0
-602,505,0,0,0,0,0,0,0,0,0,-1,622,519,0,0
-595,505,0,0,0,0,0,0,0,0,0,-1,629,519,0,0
-588,505,0,0,0,0,0,0,0,0,0,-1,636,519,0,0
-581,505,0,0,0,0,0,0,0,0,0,-1,643,519,0,0
-574,505,0,0,0,0,0,0,0,0,0,-1,650,519,0,0
-567,505,0,0,0,0,0,0,0,0,0,-1,657,519,0,0
-560,505,0,0,0,0,0,0,0,0,0,-1,664,519,0,0
-553,505,0,0,0,0,0,0,0,0,0,-1,671,519,0,0
-546,505,0,0,0,0,0,0,0,0,0,-1,678,519,0,0
-539,505,0,0,0,0,0,0,0,0,0,-1,685,519,0,0
-532,505,0,0,0,0,0,0,0,0,0,-1,692,519,0,0
-525,505,0,0,0,0,0,0,0,0,0,-1,699,519,0,0
-518,505,0,0,0,0,0,0,0,0,0,-1,706,519,0,0
-511,505,0,0,0,0,0,0,0,0,0,-1,713,519,0,0
-504,505,0,0,0,0,0,0,0,0,0,-1,720,519,0,0
-497,505,0,0,0,0,0,0,0,0,0,-1,727,519,0,0
-490,505,0,0,0,0,0,0,0,0,0,-1,734,519,0,0
-483,505,0,0,0,0,0,0,0,0,0,-1,741,519,0,0
-476,505,0,0,0,0,0,0,0,0,0,-1,748,519,0,0
-469,505,0,0,0,0,0,0,0,0,0,-1,755,519,0,0
-462,505,0,0,0,0,0,0,0,0,0,-1,762,519,0,0
-455,505,2.72137,-3.26379,0,0,0,0,0,0,0,-1,769,519,2.72135,3.26377
-448,505,2.51111,-3.94989,0,0,0,0,0,0,0,-1,776,519,2.51112,3.94986
-441,505,2.80212,-6.8902,0,0,0,0,0,0,0,-1,783,519,2.80209,6.89019
-434,505,0.304626,-6.2099,0,0,0,0,0,0,0,-1,790,519,0.304615,6.20987
-427,505,0.0349731,-6.49762,0,0,0,0,0,0,0,-1,797,519,0.0349682,6.49761
-420,505,-0.523132,-7.62921,0,0,0,0,0,0,0,-1,804,519,-0.523104,7.62919
-413,505,-0.55426,-8.42242,0,0,0,0,0,0,0,-1,811,519,-0.554273,8.42243
-406,505,-1.08307,-9.02264,0,0,0,0,0,0,0,-1,818,519,-1.08308,9.02263
-399,505,-1.21106,-9.61902,0.00848829,-0.00365213,-0.00695931,0.0116528,-0.00681661,-0.426765,0.0107845,0.0399024,825,519,-1.21108,9.619
-392,505,-1.21716,-10.1333,0.00641675,-0.00294504,-0.0055097,0.00896548,-0.00549378,-0.433275,0.00842789,0.0204765,832,519,-1.21718,10.1333
-385,505,-1.26099,-10.5861,0.00466172,-0.00219537,-0.00424713,0.00669147,-0.00422512,-0.445821,0.00635609,0.0101141,839,519,-1.26097,10.5861
-378,505,-1.27295,-10.9683,0.00326524,-0.00153374,-0.00319388,0.00486055,-0.00312905,-0.463239,0.00464876,0.0111313,846,519,-1.27296,10.9683
-371,505,-1.26703,-11.3765,0.0021301,-0.00102745,-0.00231853,0.00335634,-0.00225369,-0.486489,0.00325974,0.0139668,853,519,-1.267,11.3765
-364,505,-1.28546,-11.7676,0.00128458,-0.000700558,-0.00158061,0.00215844,-0.00157441,-0.505034,0.00216393,0.0150591,860,519,-1.28546,11.7676
-357,505,-1.27991,-12.1291,0.000810386,-0.000436598,-0.00103409,0.00139441,-0.00102062,-0.51411,0.00139987,0.0130127,867,519,-1.2799,12.1291
-350,505,-1.29895,-12.4832,0.000432221,-0.000247224,-0.000545339,0.000734998,-0.000550001,-0.506834,0.000744453,0.0121879,874,519,-1.29896,12.4831
-343,505,-1.29968,-12.838,0.000396244,-0.000138934,-0.000267315,0.00050689,-0.00024958,-0.392443,0.00044509,0.00933674,881,519,-1.2997,12.8379
-336,505,-1.30182,-13.196,0.000703576,-0.000363161,-0.00013889,0.000721363,-0.000380948,-0.127372,0.000646456,0.0109297,888,519,-1.30182,13.196
-329,505,-1.29004,-13.5514,0.00110334,-0.000552368,-8.13968e-05,0.00110733,-0.00055636,-0.0490038,0.000977932,0.0148471,895,519,-1.29005,13.5514
-322,505,-1.3194,-13.9153,0.00148181,-0.00070751,1.44312e-05,0.00148191,-0.000707605,0.00659123,0.0012902,0.0173242,902,519,-1.3194,13.9153
-315,505,-1.33929,-14.2673,0.00185796,-0.000825039,0.000136062,0.00186484,-0.000831921,0.0505397,0.00159459,0.0140683,909,519,-1.33927,14.2673
-308,505,-1.33447,-14.593,0.0022325,-0.0010353,0.000328828,0.00226527,-0.00106806,0.0993002,0.00196544,0.0123338,916,519,-1.33444,14.593
-301,505,-1.31519,-14.9438,0.00252569,-0.00140053,0.000626208,0.00262315,-0.00149798,0.154392,0.00240872,0.0173557,923,519,-1.31521,14.9438
-294,505,-1.29291,-15.2279,0,0,0,0,0,0,0,-1,930,519,-1.29293,15.2279
-287,505,-1.31427,-15.601,0,0,0,0,0,0,0,-1,937,519,-1.31424,15.6009
-280,505,-1.15399,-16.09,0,0,0,0,0,0,0,-1,944,519,-1.15399,16.09
-273,505,-0.0680542,-9.44867,0,0,0,0,0,0,0,-1,951,519,-0.0680462,9.44866
-266,505,-0.036377,-9.07922,0,0,0,0,0,0,0,-1,958,519,-0.0364055,9.0792
-259,505,0.10321,-6.69824,0,0,0,0,0,0,0,-1,965,519,0.103235,6.69826
-252,505,6.82312,-15.6972,0,0,0,0,0,0,0,-1,972,519,6.82314,15.6972
-245,505,4.26727,-12.9861,0,0,0,0,0,0,0,-1,979,519,4.2673,12.9861
-238,505,1.67432,-11.2307,0,0,0,0,0,0,0,-1,986,519,1.67429,11.2307
-231,505,-0.958435,-8.3075,0,0,0,0,0,0,0,-1,993,519,-0.958421,8.30751
-224,505,-3.69653,-5.12732,0,0,0,0,0,0,0,-1,1000,519,-3.69653,5.12733
-217,505,-6.34302,-1.65533,0,0,0,0,0,0,0,-1,1007,519,-6.34299,1.65535
-210,505,-3.06128,-0.396301,0,0,0,0,0,0,0,-1,1014,519,-3.06129,0.396294
-203,505,-4.26465,2.03607,0,0,0,0,0,0,0,-1,1021,519,-4.26462,-2.03606
-196,505,-5.47595,4.27295,0,0,0,0,0,0,0,-1,1028,519,-5.47597,-4.27292
-189,505,1.51526,5.56207,0,0,0,0,0,0,0,-1,1035,519,1.51523,-5.56209
-182,505,2.97815,7.5097,0,0,0,0,0,0,0,-1,1042,519,2.97812,-7.5097
-175,505,-2.38416,-2.17548,0,0,0,0,0,0,0,-1,1049,519,-2.38411,2.1755
-168,505,0,0,0,0,0,0,0,0,0,-1,1056,519,0,0
-161,505,0,0,0,0,0,0,0,0,0,-1,1063,519,0,0
-154,505,0,0,0,0,0,0,0,0,0,-1,1070,519,0,0
-147,505,0,0,0,0,0,0,0,0,0,-1,1077,519,0,0
-140,505,0,0,0,0,0,0,0,0,0,-1,1084,519,0,0
-133,505,0,0,0,0,0,0,0,0,0,-1,1091,519,0,0
-126,505,0,0,0,0,0,0,0,0,0,-1,1098,519,0,0
-119,505,0,0,0,0,0,0,0,0,0,-1,1105,519,0,0
-112,505,0,0,0,0,0,0,0,0,0,-1,1112,519,0,0
-105,505,0,0,0,0,0,0,0,0,0,-1,1119,519,0,0
-98,505,0,0,0,0,0,0,0,0,0,-1,1126,519,0,0
-91,505,0,0,0,0,0,0,0,0,0,-1,1133,519,0,0
-84,505,0,0,0,0,0,0,0,0,0,-1,1140,519,0,0
-77,505,0,0,0,0,0,0,0,0,0,-1,1147,519,0,0
-70,505,0,0,0,0,0,0,0,0,0,-1,1154,519,0,0
-63,505,0,0,0,0,0,0,0,0,0,-1,1161,519,0,0
-56,505,0,0,0,0,0,0,0,0,0,-1,1168,519,0,0
-49,505,0,0,0,0,0,0,0,0,0,-1,1175,519,0,0
-42,505,0,0,0,0,0,0,0,0,0,-1,1182,519,0,0
-35,505,0,0,0,0,0,0,0,0,0,-1,1189,519,0,0
-28,505,0,0,0,0,0,0,0,0,0,-1,1196,519,0,0
-21,505,0,0,0,0,0,0,0,0,0,-1,1203,519,0,0
-14,505,0,0,0,0,0,0,0,0,0,-1,1210,519,0,0
-7,505,0,0,0,0,0,0,0,0,0,-1,1217,519,0,0
0,505,0,0,0,0,0,0,0,0,0,-1,1224,519,0,0
7,505,0,0,0,0,0,0,0,0,0,-1,1231,519,0,0
14,505,0,0,0,0,0,0,0,0,0,-1,1238,519,0,0
21,505,0,0,0,0,0,0,0,0,0,-1,1245,519,0,0
28,505,0,0,0,0,0,0,0,0,0,-1,1252,519,0,0
35,505,0,0,0,0,0,0,0,0,0,-1,1259,519,0,0
42,505,0,0,0,0,0,0,0,0,0,-1,1266,519,0,0
49,505,0,0,0,0,0,0,0,0,0,-1,1273,519,0,0
56,505,0,0,0,0,0,0,0,0,0,-1,1280,519,0,0
63,505,0,0,0,0,0,0,0,0,0,-1,1287,519,0,0
70,505,0,0,0,0,0,0,0,0,0,-1,1294,519,0,0
77,505,0,0,0,0,0,0,0,0,0,-1,1301,519,0,0
84,505,0,0,0,0,0,0,0,0,0,-1,1308,519,0,0
91,505,0,0,0,0,0,0,0,0,0,-1,1315,519,0,0
98,505,0,0,0,0,0,0,0,0,0,-1,1322,519,0,0
105,505,0,0,0,0,0,0,0,0,0,-1,1329,519,0,0
112,505,0,0,0,0,0,0,0,0,0,-1,1336,519,0,0
119,505,0,0,0,0,0,0,0,0,0,-1,1343,519,0,0
126,505,0,0,0,0,0,0,0,0,0,-1,1350,519,0,0
133,505,0,0,0,0,0,0,0,0,0,-1,1357,519,0,0
140,505,0,0,0,0,0,0,0,0,0,-1,1364,519,0,0
147,505,0,0,0,0,0,0,0,0,0,-1,1371,519,0,0
154,505,0,0,0,0,0,0,0,0,0,-1,1378,519,0,0
161,505,0,0,0,0,0,0,0,0,0,-1,1385,519,0,0
168,505,0,0,0,0,0,0,0,0,0,-1,1392,519,0,0
175,505,0,0,0,0,0,0,0,0,0,-1,1399,519,0,0
182,505,0,0,0,0,0,0,0,0,0,-1,1406,519,0,0
189,505,0,0,0,0,0,0,0,0,0,-1,1413,519,0,0
196,505,0,0,0,0,0,0,0,0,0,-1,1420,519,0,0
203,505,0,0,0,0,0,0,0,0,0,-1,1427,519,0,0
210,505,0,0,0,0,0,0,0,0,0,-1,1434,519,0,0
217,505,0,0,0,0,0,0,0,0,0,-1,1441,519,0,0
224,505,0,0,0,0,0,0,0,0,0,-1,1448,519,0,0
231,505,0,0,0,0,0,0,0,0,0,-1,1455,519,0,0
238,505,0,0,0,0,0,0,0,0,0,-1,1462,519,0,0
245,505,0,0,0,0,0,0,0,0,0,-1,1469,519,0,0
252,505,0,0,0,0,0,0,0,0,0,-1,1476,519,0,0
259,505,0,0,0,0,0,0,0,0,0,-1,1483,519,0,0
266,505,0,0,0,0,0,0,0,0,0,-1,1490,519,0,0
273,505,0,0,0,0,0,0,0,0,0,-1,1497,519,0,0
280,505,0,0,0,0,0,0,0,0,0,-1,1504,519,0,0
287,505,4.39478,0.499512,0,0,0,0,0,0,0,-1,1511,519,4.39476,-0.499506
294,505,4.88867,0.0822754,0,0,0,0,0,0,0,-1,1518,519,4.88871,-0.0822748
301,505,4.82153,-0.0704346,0,0,0,0,0,0,0,-1,1525,519,4.82156,0.0704312
308,505,4.67761,-0.29187,0,0,0,0,0,0,0,-1,1532,519,4.67762,0.291845
315,505,8.44055,-6.54352,0,0,0,0,0,0,0,-1,1539,519,8.44059,6.54349
322,505,4.78955,-0.594116,0,0,0,0,0,0,0,-1,1546,519,4.78957,0.594096
329,505,5.16321,0.434631,0,0,0,0,0,0,0,-1,1553,519,5.16316,-0.434614
336,505,4.94495,-0.920471,0,0,0,0,0,0,0,-1,1560,519,4.945,0.920495
343,505,5.01855,-1.4823,0,0,0,0,0,0,0,-1,1567,519,5.01851,1.48227
350,505,5.33154,-1.77838,0,0,0,0,0,0,0,-1,1574,519,5.33152,1.77838
357,505,5.56567,-1.9425,0,0,0,0,0,0,0,-1,1581,519,5.56562,1.94248
364,505,5.85205,-2.6579,0,0,0,0,0,0,0,-1,1588,519,5.85211,2.65788
371,505,5.88477,-7.00922,0,0,0,0,0,0,0,-1,1595,519,5.88473,7.00924
378,505,5.44104,-7.10162,0,0,0,0,0,0,0,-1,1602,519,5.44099,7.10162
385,505,6.64661,-8.65015,0,0,0,0,0,0,0,-1,1609,519,6.64662,8.65014
392,505,6.34558,-8.3429,0,0,0,0,0,0,0,-1,1616,519,6.34554,8.34288
399,505,7.45898,-9.70386,0,0,0,0,0,0,0,-1,1623,519,7.45899,9.70388
406,505,7.08679,-9.4928,0,0,0,0,0,0,0,-1,1630,519,7.08678,9.49278
413,505,8.4032,-14.0308,0,0,0,0,0,0,0,-1,1637,519,8.4032,14.0308
420,505,8.83203,-14.2524,0,0,0,0,0,0,0,-1,1644,519,8.83209,14.2524
427,505,8.8623,-13.7652,0.00105843,0.000907041,-0.00131459,0.00229951,-0.000334034,-0.756639,0.00165562,0.0216959,1651,519,8.86234,13.7652
434,505,8.82336,-13.3173,0.000891183,0.00103615,-0.00105709,0.00202324,-9.5907e-05,-0.819628,0.0013819,0.0105113,1658,519,8.8234,13.3173
441,505,8.81372,-12.9105,0.000835205,0.000987018,-0.00078776,0.00170252,0.000119702,-0.833429,0.00109729,0.010088,1665,519,8.81374,12.9105
448,505,8.81409,-12.5494,0.000909854,0.000941582,-0.000477468,0.00140345,0.000447987,-0.802005,0.00082775,0.0104995,1672,519,8.81412,12.5494
455,505,8.81799,-12.181,0.000879388,0.000899946,-0.000231672,0.00112157,0.000657767,-0.807568,0.000650757,0.0112646,1679,519,8.81801,12.181
462,505,8.80688,-11.8069,0.000872419,0.000772577,8.00218e-06,0.000873057,0.00077194,0.0794723,0.000551431,0.0108013,1686,519,8.80683,11.8069
469,505,8.80005,-11.4233,0.00102127,0.00048316,0.000338034,0.00118426,0.000320177,0.449266,0.00070736,0.0105372,1693,519,8.80009,11.4233
476,505,8.80481,-11.0457,0.00111103,5.9328e-05,0.000620426,0.00139847,-0.000228116,0.43386,0.00101692,0.0108263,1700,519,8.80478,11.0457
483,505,8.81421,-10.6481,0.0012331,-0.000497271,0.000861109,0.0015886,-0.000852763,0.391518,0.0014307,0.0115327,1707,519,8.81426,10.6481
490,505,8.80505,-10.246,0.00137927,-0.00121577,0.00109046,0.00177664,-0.00161314,0.349453,0.00195785,0.0110636,1714,519,8.805,10.2461
497,505,8.80933,-9.84839,0.00149529,-0.00207454,0.00129421,0.00191512,-0.00249437,0.31368,0.00255313,0.0114944,1721,519,8.80932,9.84838
504,505,8.78662,-9.43787,0.00156578,-0.00306565,0.0014492,0.00198187,-0.00348173,0.279591,0.00319378,0.0126135,1728,519,8.78662,9.43786
511,505,8.77063,-9.03827,0.00152881,-0.00415987,0.00155825,0.00192768,-0.00455873,0.250592,0.00384626,0.0141761,1735,519,8.77064,9.03826
518,505,8.81567,-8.65155,0.00126457,-0.00518471,0.00155877,0.00162155,-0.0055417,0.225137,0.00433723,0.0223685,1742,519,8.81562,8.65157
525,505,8.61707,-8.28247,0.000857877,-0.00639349,0.0014418,0.00113404,-0.00666965,0.189245,0.00486867,0.0374536,1749,519,8.61708,8.28244
532,505,8.62207,-7.70026,0,0,0,0,0,0,0,-1,1756,519,8.62208,7.70024
539,505,7.90369,-7.11932,0,0,0,0,0,0,0,-1,1763,519,7.90373,7.11932
546,505,7.94946,-6.64539,0,0,0,0,0,0,0,-1,1770,519,7.94947,6.64539
553,505,2.82837,0.162659,0,0,0,0,0,0,0,-1,1777,519,2.82841,-0.162672
560,505,3.66223,-0.479797,0,0,0,0,0,0,0,-1,1784,519,3.66219,0.47982
567,505,4.65271,-0.950256,0,0,0,0,0,0,0,-1,1791,519,4.65274,0.95028
574,505,5.54443,-1.19977,0,0,0,0,0,0,0,-1,1798,519,5.54443,1.19974
581,505,0,0,0,0,0,0,0,0,0,-1,1805,519,0,0
588,505,0,0,0,0,0,0,0,0,0,-1,1812,519,0,0
595,505,0,0,0,0,0,0,0,0,0,-1,1819,519,0,0
602,505,0,0,0,0,0,0,0,0,0,-1,1826,519,0,0
609,505,0,0,0,0,0,0,0,0,0,-1,1833,519,0,0
616,505,0,0,0,0,0,0,0,0,0,-1,1840,519,0,0
623,505,0,0,0,0,0,0,0,0,0,-1,1847,519,0,0
630,505,0,0,0,0,0,0,0,0,0,-1,1854,519,0,0
637,505,0,0,0,0,0,0,0,0,0,-1,1861,519,0,0
644,505,0,0,0,0,0,0,0,0,0,-1,1868,519,0,0
651,505,0,0,0,0,0,0,0,0,0,-1,1875,519,0,0
658,505,0,0,0,0,0,0,0,0,0,-1,1882,519,0,0
665,505,0,0,0,0,0,0,0,0,0,-1,1889,519,0,0
672,505,0,0,0,0,0,0,0,0,0,-1,1896,519,0,0
679,505,0,0,0,0,0,0,0,0,0,-1,1903,519,0,0
686,505,0,0,0,0,0,0,0,0,0,-1,1910,519,0,0
693,505,0,0,0,0,0,0,0,0,0,-1,1917,519,0,0
700,505,0,0,0,0,0,0,0,0,0,-1,1924,519,0,0
707,505,0,0,0,0,0,0,0,0,0,-1,1931,519,0,0
714,505,0,0,0,0,0,0,0,0,0,-1,1938,519,0,0
721,505,0,0,0,0,0,0,0,0,0,-1,1945,519,0,0
728,505,0,0,0,0,0,0,0,0,0,-1,1952,519,0,0
735,505,0,0,0,0,0,0,0,0,0,-1,1959,519,0,0
742,505,0,0,0,0,0,0,0,0,0,-1,1966,519,0,0
749,505,0,0,0,0,0,0,0,0,0,-1,1973,519,0,0
756,505,0,0,0,0,0,0,0,0,0,-1,1980,519,0,0
763,505,0,0,0,0,0,0,0,0,0,-1,1987,519,0,0
770,505,0,0,0,0,0,0,0,0,0,-1,1994,519,0,0
777,505,0,0,0,0,0,0,0,0,0,-1,2001,519,0,0
784,505,0,0,0,0,0,0,0,0,0,-1,2008,519,0,0
791,505,0,0,0,0,0,0,0,0,0,-1,2015,519,0,0
798,505,0,0,0,0,0,0,0,0,0,-1,2022,519,0,0
805,505,0,0,0,0,0,0,0,0,0,-1,2029,519,0,0
812,505,0,0,0,0,0,0,0,0,0,-1,2036,519,0,0
-700,498,0,0,0,0,0,0,0,0,0,-1,524,526,0,0
-693,498,0,0,0,0,0,0,0,0,0,-1,531,526,0,0
-686,498,0,0,0,0,0,0,0,0,0,-1,538,526,0,0
-679,498,0,0,0,0,0,0,0,0,0,-1,545,526,0,0
-672,498,0,0,0,0,0,0,0,0,0,-1,552,526,0,0
-665,498,0,0,0,0,0,0,0,0,0,-1,559,526,0,0
-658,498,0,0,0,0,0,0,0,0,0,-1,566,526,0,0
-651,498,0,0,0,0,0,0,0,0,0,-1,573,526,0,0
-644,498,0,0,0,0,0,0,0,0,0,-1,580,526,0,0
-637,498,0,0,0,0,0,0,0,0,0,-1,587,526,0,0
-630,498,0,0,0,0,0,0,0,0,0,-1,594,526,0,0
-623,498,0,0,0,0,0,0,0,0,0,-1,601,526,0,0
-616,498,0,0,0,0,0,0,0,0,0,-1,608,526,0,0
-609,498,0,0,0,0,0,0,0,0,0,-1,615,526,0,0
-602,498,0,0,0,0,0,0,0,0,0,-1,622,526,0,0
-595,498,0,0,0,0,0,0,0,0,0,-1,629,526,0,0
-588,498,0,0,0,0,0,0,0,0,0,-1,636,526,0,0
-581,498,0,0,0,0,0,0,0,0,0,-1,643,526,0,0
-574,498,0,0,0,0,0,0,0,0,0,-1,650,526,0,0
-567,498,0,0,0,0,0,0,0,0,0,-1,657,526,0,0
-560,498,0,0,0,0,0,0,0,0,0,-1,664,526,0,0
-553,498,0,0,0,0,0,0,0,0,0,-1,671,526,0,0
-546,498,0,0,0,0,0,0,0,0,0,-1,678,526,0,0
-539,498,0,0,0,0,0,0,0,0,0,-1,685,526,0,0
-532,498,0,0,0,0,0,0,0,0,0,-1,692,526,0,0
-525,498,0,0,0,0,0,0,0,0,0,-1,699,526,0,0
-518,498,0,0,0,0,0,0,0,0,0,-1,706,526,0,0
-511,498,0,0,0,0,0,0,0,0,0,-1,713,526,0,0
-504,498,0,0,0,0,0,0,0,0,0,-1,720,526,0,0
-497,498,0,0,0,0,0,0,0,0,0,-1,727,526,0,0
-490,498,0,0,0,0,0,0,0,0,0,-1,734,526,0,0
-483,498,0,0,0,0,0,0,0,0,0,-1,741,526,0,0
-476,498,0,0,0,0,0,0,0,0,0,-1,748,526,0,0
-469,498,0,0,0,0,0,0,0,0,0,-1,755,526,0,0
-462,498,6.81024,1.15515,0,0,0,0,0,0,0,-1,762,526,6.81026,-1.15514
-455,498,3.25757,-3.0592,0,0,0,0,0,0,0,-1,769,526,3.25754,3.05921
-448,498,3.05939,-3.74298,0,0,0,0,0,0,0,-1,776,526,3.05939,3.74296
-441,498,2.77191,-6.08209,0,0,0,0,0,0,0,-1,783,526,2.77189,6.08207
-434,498,2.10681,-6.95929,0,0,0,0,0,0,0,-1,790,526,2.10682,6.9593
-427,498,-0.342224,-6.47314,0,0,0,0,0,0,0,-1,797,526,-0.342207,6.47314
-420,498,-0.675293,-6.72467,0,0,0,0,0,0,0,-1,804,526,-0.675275,6.72468
-413,498,-1.61371,-8.59528,0,0,0,0,0,0,0,-1,811,526,-1.61371,8.5953
-406,498,-1.55048,-9.17523,0.00619778,-0.00180017,-0.00593608,0.00935624,-0.00495863,-0.48898,0.00839368,0.0494544,818,526,-1.5505,9.17522
-399,498,-1.54846,-9.70758,0.00500797,-0.00157384,-0.00491212,0.00762968,-0.00419555,-0.49026,0.0069226,0.0234344,825,526,-1.54844,9.70756
-392,498,-1.59528,-10.1964,0.00389438,-0.00133237,-0.00392933,0.00600005,-0.00343804,-0.491942,0.0055156,0.0116552,832,526,-1.5953,10.1963
-385,498,-1.62469,-10.5872,0.00300321,-0.000978206,-0.00307812,0.00467825,-0.00265325,-0.498362,0.00428633,0.00905004,839,526,-1.62471,10.5872
-378,498,-1.62561,-10.9675,0.00231233,-0.000644295,-0.00236771,0.00362534,-0.0019573,-0.506327,0.00327074,0.0103686,846,526,-1.62559,10.9675
-371,498,-1.62964,-11.3579,0.00172564,-0.0004066,-0.00175374,0.0027119,-0.00139285,-0.51229,0.00241032,0.0153692,853,526,-1.62963,11.3579
-364,498,-1.64581,-11.7394,0.00129931,-0.000317805,-0.00120649,0.00194313,-0.000961616,-0.490184,0.00170867,0.0154024,860,526,-1.64584,11.7394
-357,498,-1.65228,-12.0971,0.00112515,-0.00022421,-0.000795318,0.00149341,-0.00059247,-0.433641,0.00124116,0.0112452,867,526,-1.65231,12.0971
-350,498,-1.659,-12.4612,0.0010461,-0.000201505,-0.000448507,0.0011906,-0.000346005,-0.311678,0.00093076,0.0113511,874,526,-1.65897,12.4613
-343,498,-1.64716,-12.8206,0.00117286,-0.000303177,-0.000236725,0.0012099,-0.000340213,-0.155195,0.000940736,0.0107915,881,526,-1.64715,12.8206
-336,498,-1.64569,-13.1832,0.00140595,-0.000595056,-7.39662e-05,0.00140868,-0.000597787,-0.0368974,0.00118955,0.0140759,888,526,-1.64571,13.1831
-329,498,-1.65094,-13.537,0.00172356,-0.000840689,2.55304e-05,0.00172381,-0.000840943,0.00995496,0.00150972,0.0205782,895,526,-1.65094,13.537
-322,498,-1.68262,-13.8963,0.0020225,-0.00102854,0.000172781,0.00203226,-0.0010383,0.0563897,0.00180348,0.0215868,902,526,-1.68264,13.8963
-315,498,-1.70551,-14.2358,0.00231116,-0.00122087,0.00033702,0.00234303,-0.00125274,0.0942846,0.00210759,0.0172208,909,526,-1.70549,14.2359
-308,498,-1.67786,-14.5883,0.00258516,-0.00155903,0.0005828,0.00266556,-0.00163943,0.137089,0.00250891,0.0217844,916,526,-1.67786,14.5883
-301,498,-1.64258,-14.9943,0,0,0,0,0,0,0,-1,923,526,-1.64255,14.9943
-294,498,-1.33246,-15.0214,0,0,0,0,0,0,0,-1,930,526,-1.33246,15.0214
-287,498,-0.91394,-13.4327,0,0,0,0,0,0,0,-1,937,526,-0.913935,13.4327
-280,498,-0.341614,-8.66608,0,0,0,0,0,0,0,-1,944,526,-0.341589,8.66606
-273,498,-0.988892,-8.62921,0,0,0,0,0,0,0,-1,951,526,-0.988906,8.62922
-266,498,0.362488,-6.33545,0,0,0,0,0,0,0,-1,958,526,0.362478,6.33547
-259,498,10.9454,-17.3615,0,0,0,0,0,0,0,-1,965,526,10.9454,17.3614
-252,498,8.56586,-14.6886,0,0,0,0,0,0,0,-1,972,526,8.56584,14.6886
-245,498,5.97382,-11.928,0,0,0,0,0,0,0,-1,979,526,5.97381,11.928
-238,498,2.24841,-13.8145,0,0,0,0,0,0,0,-1,986,526,2.24838,13.8145
-231,498,0.665894,-10.4898,0,0,0,0,0,0,0,-1,993,526,0.665863,10.4898
-224,498,-2.11243,-4.76312,0,0,0,0,0,0,0,-1,1000,526,-2.11245,4.76314
-217,498,-3.82239,-1.42841,0,0,0,0,0,0,0,-1,1007,526,-3.82241,1.42843
-210,498,-1.80591,-0.358215,0,0,0,0,0,0,0,-1,1014,526,-1.8059,0.3582
-203,498,-3.17316,1.06641,0,0,0,0,0,0,0,-1,1021,526,-3.17313,-1.0664
-196,498,-0.103271,5.40527,0,0,0,0,0,0,0,-1,1028,526,-0.103285,-5.40528
-189,498,3.00256,6.47137,0,0,0,0,0,0,0,-1,1035,526,3.00256,-6.47139
-182,498,0,0,0,0,0,0,0,0,0,-1,1042,526,0,0
-175,498,0,0,0,0,0,0,0,0,0,-1,1049,526,0,0
-168,498,0,0,0,0,0,0,0,0,0,-1,1056,526,0,0
-161,498,0,0,0,0,0,0,0,0,0,-1,1063,526,0,0
-154,498,0,0,0,0,0,0,0,0,0,-1,1070,526,0,0
-147,498,0,0,0,0,0,0,0,0,0,-1,1077,526,0,0
-140,498,0,0,0,0,0,0,0,0,0,-1,1084,526,0,0
-133,498,0,0,0,0,0,0,0,0,0,-1,1091,526,0,0
-126,498,0,0,0,0,0,0,0,0,0,-1,1098,526,0,0
-119,498,0,0,0,0,0,0,0,0,0,-1,1105,526,0,0
-112,498,0,0,0,0,0,0,0,0,0,-1,1112,526,0,0
-105,498,0,0,0,0,0,0,0,0,0,-1,1119,526,0,0
-98,498,0,0,0,0,0,0,0,0,0,-1,1126,526,0,0
-91,498,0,0,0,0,0,0,0,0,0,-1,1133,526,0,0
-84,498,0,0,0,0,0,0,0,0,0,-1,1140,526,0,0
-77,498,0,0,0,0,0,0,0,0,0,-1,1147,526,0,0
-70,498,0,0,0,0,0,0,0,0,0,-1,1154,526,0,0
-63,498,0,0,0,0,0,0,0,0,0,-1,1161,526,0,0
-56,498,0,0,0,0,0,0,0,0,0,-1,1168,526,0,0
-49,498,0,0,0,0,0,0,0,0,0,-1,1175,526,0,0
-42,498,0,0,0,0,0,0,0,0,0,-1,1182,526,0,0
-35,498,0,0,0,0,0,0,0,0,0,-1,1189,526,0,0
-28,498,0,0,0,0,0,0,0,0,0,-1,1196,526,0,0
-21,498,0,0,0,0,0,0,0,0,0,-1,1203,526,0,0
-14,498,0,0,0,0,0,0,0,0,0,-1,1210,526,0,0
-7,498,0,0,0,0,0,0,0,0,0,-1,1217,526,0,0
0,498,0,0,0,0,0,0,0,0,0,-1,1224,526,0,0
7,498,0,0,0,0,0,0,0,0,0,-1,1231,526,0,0
14,498,0,0,0,0,0,0,0,0,0,-1,1238,526,0,0
21,498,0,0,0,0,0,0,0,0,0,-1,1245,526,0,0
28,498,0,0,0,0,0,0,0,0,0,-1,1252,526,0,0
35,498,0,0,0,0,0,0,0,0,0,-1,1259,526,0,0
42,498,0,0,0,0,0,0,0,0,0,-1,1266,526,0,0
49,498,0,0,0,0,0,0,0,0,0,-1,1273,526,0,0
56,498,0,0,0,0,0,0,0,0,0,-1,1280,526,0,0
63,498,0,0,0,0,0,0,0,0,0,-1,1287,526,0,0
70,498,0,0,0,0,0,0,0,0,0,-1,1294,526,0,0
77,498,0,0,0,0,0,0,0,0,0,-1,1301,526,0,0
84,498,0,0,0,0,0,0,0,0,0,-1,1308,526,0,0
91,498,0,0,0,0,0,0,0,0,0,-1,1315,526,0,0
98,498,0,0,0,0,0,0,0,0,0,-1,1322,526,0,0
105,498,0,0,0,0,0,0,0,0,0,-1,1329,526,0,0
112,498,0,0,0,0,0,0,0,0,0,-1,1336,526,0,0
119,498,0,0,0,0,0,0,0,0,0,-1,1343,526,0,0
126,498,0,0,0,0,0,0,0,0,0,-1,1350,526,0,0
133,498,0,0,0,0,0,0,0,0,0,-1,1357,526,0,0
140,498,0,0,0,0,0,0,0,0,0,-1,1364,526,0,0
147,498,0,0,0,0,0,0,0,0,0,-1,1371,526,0,0
154,498,0,0,0,0,0,0,0,0,0,-1,1378,526,0,0
161,498,0,0,0,0,0,0,0,0,0,-1,1385,526,0,0
168,498,0,0,0,0,0,0,0,0,0,-1,1392,526,0,0
175,498,0,0,0,0,0,0,0,0,0,-1,1399,526,0,0
182,498,0,0,0,0,0,0,0,0,0,-1,1406,526,0,0
189,498,0,0,0,0,0,0,0,0,0,-1,1413,526,0,0
196,498,0,0,0,0,0,0,0,0,0,-1,1420,526,0,0
203,498,0,0,0,0,0,0,0,0,0,-1,1427,526,0,0
210,498,0,0,0,0,0,0,0,0,0,-1,1434,526,0,0
217,498,0,0,0,0,0,0,0,0,0,-1,1441,526,0,0
224,498,0,0,0,0,0,0,0,0,0,-1,1448,526,0,0
231,498,0,0,0,0,0,0,0,0,0,-1,1455,526,0,0
238,498,0,0,0,0,0,0,0,0,0,-1,1462,526,0,0
245,498,0,0,0,0,0,0,0,0,0,-1,1469,526,0,0
252,498,0,0,0,0,0,0,0,0,0,-1,1476,526,0,0
259,498,0,0,0,0,0,0,0,0,0,-1,1483,526,0,0
266,498,0,0,0,0,0,0,0,0,0,-1,1490,526,0,0
273,498,0,0,0,0,0,0,0,0,0,-1,1497,526,0,0
280,498,0,0,0,0,0,0,0,0,0,-1,1504,526,0,0
287,498,0,0,0,0,0,0,0,0,0,-1,1511,526,0,0
294,498,0,0,0,0,0,0,0,0,0,-1,1518,526,0,0
301,498,0,0,0,0,0,0,0,0,0,-1,1525,526,0,0
308,498,4.77942,-0.293884,0,0,0,0,0,0,0,-1,1532,526,4.77939,0.293899
315,498,4.56091,-0.564148,0,0,0,0,0,0,0,-1,1539,526,4.56097,0.564142
322,498,4.52344,-0.447266,0,0,0,0,0,0,0,-1,1546,526,4.52341,0.447295
329,498,4.63232,-0.156982,0,0,0,0,0,0,0,-1,1553,526,4.63238,0.156991
336,498,5.22644,0.0925903,0,0,0,0,0,0,0,-1,1560,526,5.22648,-0.0926188
343,498,6.22607,-1.67615,0,0,0,0,0,0,0,-1,1567,526,6.22605,1.67617
350,498,6.19373,-1.59906,0,0,0,0,0,0,0,-1,1574,526,6.19367,1.59906
357,498,6.21472,-1.58929,0,0,0,0,0,0,0,-1,1581,526,6.21476,1.58927
364,498,5.73547,-1.2019,0,0,0,0,0,0,0,-1,1588,526,5.73547,1.20192
371,498,3.27087,-4.55334,0,0,0,0,0,0,0,-1,1595,526,3.27089,4.55332
378,498,8.42944,-4.70624,0,0,0,0,0,0,0,-1,1602,526,8.42942,4.70624
385,498,4.7793,-5.15314,0,0,0,0,0,0,0,-1,1609,526,4.77935,5.15311
392,498,9.12439,-8.57953,0,0,0,0,0,0,0,-1,1616,526,9.12443,8.57955
399,498,7.98938,-9.46021,0,0,0,0,0,0,0,-1,1623,526,7.98936,9.4602
406,498,7.58081,-9.26819,0,0,0,0,0,0,0,-1,1630,526,7.58085,9.26817
413,498,7.17236,-9.07611,0,0,0,0,0,0,0,-1,1637,526,7.17234,9.07614
420,498,10.1218,-13.8392,0,0,0,0,0,0,0,-1,1644,526,10.1218,13.8392
427,498,9.64087,-13.4796,0,0,0,0,0,0,0,-1,1651,526,9.64092,13.4796
434,498,9.16003,-13.1201,0,0,0,0,0,0,0,-1,1658,526,9.15999,13.1201
441,498,9.19836,-12.9136,0.000765834,0.00116477,-0.00115545,0.00213784,-0.000207236,-0.870872,0.00149909,0.00925239,1665,526,9.19835,12.9135
448,498,9.22034,-12.5272,0.000925613,0.00122056,-0.00078739,0.00187417,0.000272007,-0.877974,0.00116937,0.0103697,1672,526,9.22038,12.5272
455,498,9.21484,-12.1563,0.000983464,0.00125732,-0.00048578,0.0016251,0.000615684,-0.922772,0.000947388,0.0148055,1679,526,9.21488,12.1563
462,498,9.1969,-11.8024,0.000993524,0.00123033,-0.000224503,0.00136574,0.000858114,-1.02806,0.000797118,0.0168555,1686,526,9.19691,11.8024
469,498,9.1886,-11.4276,0.00111811,0.00104875,8.31263e-05,0.0011735,0.000993363,0.587784,0.000729738,0.0139074,1693,526,9.18858,11.4276
476,498,9.203,-11.042,0.00122149,0.000702708,0.000375464,0.00141845,0.000505748,0.483115,0.000830104,0.00943714,1700,526,9.20296,11.042
483,498,9.19006,-10.6522,0.00130725,0.000261479,0.000620756,0.001596,-2.72681e-05,0.435384,0.0010732,0.0077001,1707,526,9.19,10.6522
490,498,9.17212,-10.2635,0.00135865,-0.000324351,0.000810155,0.00168526,-0.000650958,0.383212,0.00139218,0.00988069,1714,526,9.17217,10.2635
497,498,9.18201,-9.85175,0.00134268,-0.000986886,0.000973606,0.00169599,-0.0013402,0.348117,0.00175696,0.0118929,1721,526,9.18205,9.85177
504,498,9.17639,-9.44653,0.00124921,-0.0017803,0.00106175,0.00158426,-0.00211535,0.305678,0.00214329,0.0139669,1728,526,9.17638,9.4465
511,498,9.17273,-9.04108,0.00101518,-0.00263491,0.00108871,0.00131524,-0.00293497,0.268935,0.00251256,0.0155684,1735,526,9.17274,9.04106
518,498,9.20154,-8.63165,0.000541803,-0.00341522,0.00100786,0.000783714,-0.00365713,0.23557,0.00273699,0.0171359,1742,526,9.20154,8.63163
525,498,9.11389,-8.24725,-5.97415e-05,-0.00433684,0.000812355,8.9353e-05,-0.00448593,0.181514,0.00302085,0.0271315,1749,526,9.11395,8.24725
532,498,8.9574,-7.92236,-0.000817341,-0.00525503,0.000551815,-0.000749754,-0.00532262,0.121875,0.00332678,0.0441504,1756,526,8.95739,7.92238
539,498,8.99487,-7.60242,0,0,0,0,0,0,0,-1,1763,526,8.99485,7.60244
546,498,8.41748,-7.03583,0,0,0,0,0,0,0,-1,1770,526,8.41747,7.03583
553,498,5.93958,-1.71448,0,0,0,0,0,0,0,-1,1777,526,5.93956,1.71447
560,498,3.69385,-0.615112,0,0,0,0,0,0,0,-1,1784,526,3.69381,0.615118
567,498,5.12695,-0.581604,0,0,0,0,0,0,0,-1,1791,526,5.12699,0.58159
574,498,3.88,0.0286255,0,0,0,0,0,0,0,-1,1798,526,3.87999,-0.0286535
581,498,10.8722,2.58551,0,0,0,0,0,0,0,-1,1805,526,10.8723,-2.58551
588,498,0,0,0,0,0,0,0,0,0,-1,1812,526,0,0
595,498,0,0,0,0,0,0,0,0,0,-1,1819,526,0,0
602,498,0,0,0,0,0,0,0,0,0,-1,1826,526,0,0
609,498,0,0,0,0,0,0,0,0,0,-1,1833,526,0,0
616,498,0,0,0,0,0,0,0,0,0,-1,1840,526,0,0
623,498,0,0,0,0,0,0,0,0,0,-1,1847,526,0,0
630,498,0,0,0,0,0,0,0,0,0,-1,1854,526,0,0
637,498,0,0,0,0,0,0,0,0,0,-1,1861,526,0,0
644,498,0,0,0,0,0,0,0,0,0,-1,1868,526,0,0
651,498,0,0,0,0,0,0,0,0,0,-1,1875,526,0,0
658,498,0,0,0,0,0,0,0,0,0,-1,1882,526,0,0
665,498,0,0,0,0,0,0,0,0,0,-1,1889,526,0,0
672,498,0,0,0,0,0,0,0,0,0,-1,1896,526,0,0
679,498,0,0,0,0,0,0,0,0,0,-1,1903,526,0,0
686,498,0,0,0,0,0,0,0,0,0,-1,1910,526,0,0
693,498,0,0,0,0,0,0,0,0,0,-1,1917,526,0,0
700,498,0,0,0,0,0,0,0,0,0,-1,1924,526,0,0
707,498,0,0,0,0,0,0,0,0,0,-1,1931,526,0,0
714,498,0,0,0,0,0,0,0,0,0,-1,1938,526,0,0
721,498,0,0,0,0,0,0,0,0,0,-1,1945,526,0,0
728,498,0,0,0,0,0,0,0,0,0,-1,1952,526,0,0
735,498,0,0,0,0,0,0,0,0,0,-1,1959,526,0,0
742,498,0,0,0,0,0,0,0,0,0,-1,1966,526,0,0
749,498,0,0,0,0,0,0,0,0,0,-1,1973,526,0,0
756,498,0,0,0,0,0,0,0,0,0,-1,1980,526,0,0
763,498,0,0,0,0,0,0,0,0,0,-1,1987,526,0,0
770,498,0,0,0,0,0,0,0,0,0,-1,1994,526,0,0
777,498,0,0,0,0,0,0,0,0,0,-1,2001,526,0,0
784,498,0,0,0,0,0,0,0,0,0,-1,2008,526,0,0
791,498,0,0,0,0,0,0,0,0,0,-1,2015,526,0,0
798,498,0,0,0,0,0,0,0,0,0,-1,2022,526,0,0
805,498,0,0,0,0,0,0,0,0,0,-1,2029,526,0,0
812,498,0,0,0,0,0,0,0,0,0,-1,2036,526,0,0
-700,491,0,0,0,0,0,0,0,0,0,-1,524,533,0,0
-693,491,0,0,0,0,0,0,0,0,0,-1,531,533,0,0
-686,491,0,0,0,0,0,0,0,0,0,-1,538,533,0,0
-679,491,0,0,0,0,0,0,0,0,0,-1,545,533,0,0
-672,491,0,0,0,0,0,0,0,0,0,-1,552,533,0,0
-665,491,0,0,0,0,0,0,0,0,0,-1,559,533,0,0
-658,491,0,0,0,0,0,0,0,0,0,-1,566,533,0,0
-651,491,0,0,0,0,0,0,0,0,0,-1,573,533,0,0
-644,491,0,0,0,0,0,0,0,0,0,-1,580,533,0,0
-637,491,0,0,0,0,0,0,0,0,0,-1,587,533,0,0
-630,491,0,0,0,0,0,0,0,0,0,-1,594,533,0,0
-623,491,0,0,0,0,0,0,0,0,0,-1,601,533,0,0
-616,491,0,0,0,0,0,0,0,0,0,-1,608,533,0,0
-609,491,0,0,0,0,0,0,0,0,0,-1,615,533,0,0
-602,491,0,0,0,0,0,0,0,0,0,-1,622,533,0,0
-595,491,0,0,0,0,0,0,0,0,0,-1,629,533,0,0
-588,491,0,0,0,0,0,0,0,0,0,-1,636,533,0,0
-581,491,0,0,0,0,0,0,0,0,0,-1,643,533,0,0
-574,491,0,0,0,0,0,0,0,0,0,-1,650,533,0,0
-567,491,0,0,0,0,0,0,0,0,0,-1,657,533,0,0
-560,491,0,0,0,0,0,0,0,0,0,-1,664,533,0,0
-553,491,0,0,0,0,0,0,0,0,0,-1,671,533,0,0
-546,491,0,0,0,0,0,0,0,0,0,-1,678,533,0,0
-539,491,0,0,0,0,0,0,0,0,0,-1,685,533,0,0
-532,491,0,0,0,0,0,0,0,0,0,-1,692,533,0,0
-525,491,0,0,0,0,0,0,0,0,0,-1,699,533,0,0
-518,491,0,0,0,0,0,0,0,0,0,-1,706,533,0,0
-511,491,0,0,0,0,0,0,0,0,0,-1,713,533,0,0
-504,491,0,0,0,0,0,0,0,0,0,-1,720,533,0,0
-497,491,0,0,0,0,0,0,0,0,0,-1,727,533,0,0
-490,491,0,0,0,0,0,0,0,0,0,-1,734,533,0,0
-483,491,0,0,0,0,0,0,0,0,0,-1,741,533,0,0
-476,491,0,0,0,0,0,0,0,0,0,-1,748,533,0,0
-469,491,-5.85913,4.55011,0,0,0,0,0,0,0,-1,755,533,-5.8591,-4.55009
-462,491,-9.93713,4.90381,0,0,0,0,0,0,0,-1,762,533,-9.93716,-4.9038
-455,491,1.9494,-0.27887,0,0,0,0,0,0,0,-1,769,533,1.94941,0.27885
-448,491,2.68909,-1.8999,0,0,0,0,0,0,0,-1,776,533,2.6891,1.89988
-441,491,3.46069,-3.51855,0,0,0,0,0,0,0,-1,783,533,3.46071,3.51854
-434,491,2.67145,-7.44061,0,0,0,0,0,0,0,-1,790,533,2.67146,7.44061
-427,491,2.27136,-8.34546,0,0,0,0,0,0,0,-1,797,533,2.27136,8.34546
-420,491,-1.52142,-8.1123,0,0,0,0,0,0,0,-1,804,533,-1.52142,8.11228
-413,491,-2.04022,-8.85175,0,0,0,0,0,0,0,-1,811,533,-2.04022,8.85177
-406,491,-1.96863,-9.40356,0.0031979,0.00010677,-0.00415823,0.00608851,-0.00278384,-0.607466,0.00523956,0.0266843,818,533,-1.96861,9.40355
-399,491,-1.95667,-9.83441,0.00267769,-5.57006e-05,-0.0034373,0.00501004,-0.00238805,-0.596177,0.00435979,0.0105431,825,533,-1.95669,9.83439
-392,491,-1.97791,-10.2332,0.00219565,-0.000216837,-0.00273491,0.00397852,-0.0019997,-0.577703,0.00351399,0.00923484,832,533,-1.97788,10.2332
-385,491,-1.99451,-10.5953,0.00187404,-0.000194431,-0.00213597,0.00321299,-0.00153338,-0.559935,0.00279693,0.00931187,839,533,-1.99449,10.5953
-378,491,-1.99463,-10.9681,0.00165205,-0.000153745,-0.00164224,0.00262324,-0.00112493,-0.534055,0.00222089,0.013355,846,533,-1.99466,10.9681
-371,491,-1.99585,-11.3455,0.00144106,-0.000151875,-0.00119494,0.00208065,-0.000791459,-0.491443,0.00171299,0.0133889,853,533,-1.99583,11.3455
-364,491,-2.00262,-11.717,0.00131421,-0.000252014,-0.000774502,0.00163251,-0.00057032,-0.389936,0.00132017,0.0127667,860,533,-2.00263,11.7171
-357,491,-2.01764,-12.0688,0.00137111,-0.000290666,-0.000464016,0.0014919,-0.000411453,-0.254657,0.00115641,0.0115321,867,533,-2.01763,12.0688
-350,491,-2.02814,-12.4242,0.00153835,-0.000393018,-0.000232544,0.00156596,-0.000420622,-0.118154,0.00120882,0.0141791,874,533,-2.02812,12.4242
-343,491,-1.99213,-12.7742,0.0018337,-0.000642648,-9.95643e-05,0.0018377,-0.000646645,-0.0401197,0.00148827,0.0227682,881,533,-1.99212,12.7742
-336,491,-1.98029,-13.0966,0.00208041,-0.000955727,4.48335e-05,0.00208107,-0.000956389,0.0147623,0.0017933,0.0236951,888,533,-1.98029,13.0966
-329,491,-2.01062,-13.4856,0.00241208,-0.00121558,0.000132774,0.00241693,-0.00122044,0.0365352,0.00213757,0.0257163,895,533,-2.0106,13.4856
-322,491,-2.04651,-13.8615,0.00273619,-0.00138284,0.000275555,0.00275454,-0.00140119,0.0665031,0.00244135,0.023975,902,533,-2.0465,13.8615
-315,491,-2.08026,-14.1733,0.00303241,-0.0015338,0.000417392,0.00307025,-0.00157164,0.0904103,0.00272616,0.0226292,909,533,-2.08028,14.1733
-308,491,-2.00568,-14.7139,0,0,0,0,0,0,0,-1,916,533,-2.00569,14.714
-301,491,-1.71704,-15.0875,0,0,0,0,0,0,0,-1,923,533,-1.71704,15.0874
-294,491,-0.777283,-8.60913,0,0,0,0,0,0,0,-1,930,533,-0.777288,8.6091
-287,491,-0.26123,-8.69055,0,0,0,0,0,0,0,-1,937,533,-0.261204,8.69053
-280,491,0.2948,-5.99219,0,0,0,0,0,0,0,-1,944,533,0.294811,5.99221
-273,491,0.369995,-5.33691,0,0,0,0,0,0,0,-1,951,533,0.369985,5.33693
-266,491,1.1167,-5.0321,0,0,0,0,0,0,0,-1,958,533,1.11668,5.0321
-259,491,12.0862,-16.9615,0,0,0,0,0,0,0,-1,965,533,12.0862,16.9615
-252,491,9.72443,-13.8417,0,0,0,0,0,0,0,-1,972,533,9.72444,13.8418
-245,491,5.27258,-14.3619,0,0,0,0,0,0,0,-1,979,533,5.27255,14.3619
-238,491,3.65381,-11.1472,0,0,0,0,0,0,0,-1,986,533,3.6538,11.1472
-231,491,2.17719,-7.86835,0,0,0,0,0,0,0,-1,993,533,2.17719,7.86832
-224,491,0.554626,-4.61725,0,0,0,0,0,0,0,-1,1000,533,0.554608,4.61727
-217,491,-2.92743,-1.0766,0,0,0,0,0,0,0,-1,1007,533,-2.92743,1.07659
-210,491,-0.92395,0.374512,0,0,0,0,0,0,0,-1,1014,533,-0.923959,-0.374531
-203,491,0.417419,4.77161,0,0,0,0,0,0,0,-1,1021,533,0.417446,-4.77162
-196,491,0,0,0,0,0,0,0,0,0,-1,1028,533,0,0
-189,491,0,0,0,0,0,0,0,0,0,-1,1035,533,0,0
-182,491,0,0,0,0,0,0,0,0,0,-1,1042,533,0,0
-175,491,0,0,0,0,0,0,0,0,0,-1,1049,533,0,0
-168,491,0,0,0,0,0,0,0,0,0,-1,1056,533,0,0
-161,491,0,0,0,0,0,0,0,0,0,-1,1063,533,0,0
-154,491,0,0,0,0,0,0,0,0,0,-1,1070,533,0,0
-147,491,0,0,0,0,0,0,0,0,0,-1,1077,533,0,0
-140,491,0,0,0,0,0,0,0,0,0,-1,1084,533,0,0
-133,491,0,0,0,0,0,0,0,0,0,-1,1091,533,0,0
-126,491,0,0,0,0,0,0,0,0,0,-1,1098,533,0,0
-119,491,0,0,0,0,0,0,0,0,0,-1,1105,533,0,0
-112,491,0,0,0,0,0,0,0,0,0,-1,1112,533,0,0
-105,491,0,0,0,0,0,0,0,0,0,-1,1119,533,0,0
-98,491,0,0,0,0,0,0,0,0,0,-1,1126,533,0,0
-91,491,0,0,0,0,0,0,0,0,0,-1,1133,533,0,0
-84,491,0,0,0,0,0,0,0,0,0,-1,1140,533,0,0
-77,491,0,0,0,0,0,0,0,0,0,-1,1147,533,0,0
-70,491,0,0,0,0,0,0,0,0,0,-1,1154,533,0,0
-63,491,0,0,0,0,0,0,0,0,0,-1,1161,533,0,0
-56,491,0,0,0,0,0,0,0,0,0,-1,1168,533,0,0
-49,491,0,0,0,0,0,0,0,0,0,-1,1175,533,0,0
-42,491,0,0,0,0,0,0,0,0,0,-1,1182,533,0,0
-35,491,0,0,0,0,0,0,0,0,0,-1,1189,533,0,0
-28,491,0,0,0,0,0,0,0,0,0,-1,1196,533,0,0
-21,491,0,0,0,0,0,0,0,0,0,-1,1203,533,0,0
-14,491,0,0,0,0,0,0,0,0,0,-1,1210,533,0,0
-7,491,0,0,0,0,0,0,0,0,0,-1,1217,533,0,0
0,491,0,0,0,0,0,0,0,0,0,-1,1224,533,0,0
7,491,0,0,0,0,0,0,0,0,0,-1,1231,533,0,0
14,491,0,0,0,0,0,0,0,0,0,-1,1238,533,0,0
21,491,0,0,0,0,0,0,0,0,0,-1,1245,533,0,0
28,491,0,0,0,0,0,0,0,0,0,-1,1252,533,0,0
35,491,0,0,0,0,0,0,0,0,0,-1,1259,533,0,0
42,491,0,0,0,0,0,0,0,0,0,-1,1266,533,0,0
49,491,0,0,0,0,0,0,0,0,0,-1,1273,533,0,0
56,491,0,0,0,0,0,0,0,0,0,-1,1280,533,0,0
63,491,0,0,0,0,0,0,0,0,0,-1,1287,533,0,0
70,491,0,0,0,0,0,0,0,0,0,-1,1294,533,0,0
77,491,0,0,0,0,0,0,0,0,0,-1,1301,533,0,0
84,491,0,0,0,0,0,0,0,0,0,-1,1308,533,0,0
91,491,0,0,0,0,0,0,0,0,0,-1,1315,533,0,0
98,491,0,0,0,0,0,0,0,0,0,-1,1322,533,0,0
105,491,0,0,0,0,0,0,0,0,0,-1,1329,533,0,0
112,491,0,0,0,0,0,0,0,0,0,-1,1336,533,0,0
119,491,0,0,0,0,0,0,0,0,0,-1,1343,533,0,0
126,491,0,0,0,0,0,0,0,0,0,-1,1350,533,0,0
133,491,0,0,0,0,0,0,0,0,0,-1,1357,533,0,0
140,491,0,0,0,0,0,0,0,0,0,-1,1364,533,0,0
147,491,0,0,0,0,0,0,0,0,0,-1,1371,533,0,0
154,491,0,0,0,0,0,0,0,0,0,-1,1378,533,0,0
161,491,0,0,0,0,0,0,0,0,0,-1,1385,533,0,0
168,491,0,0,0,0,0,0,0,0,0,-1,1392,533,0,0
175,491,0,0,0,0,0,0,0,0,0,-1,1399,533,0,0
182,491,0,0,0,0,0,0,0,0,0,-1,1406,533,0,0
189,491,0,0,0,0,0,0,0,0,0,-1,1413,533,0,0
196,491,0,0,0,0,0,0,0,0,0,-1,1420,533,0,0
203,491,0,0,0,0,0,0,0,0,0,-1,1427,533,0,0
210,491,0,0,0,0,0,0,0,0,0,-1,1434,533,0,0
217,491,0,0,0,0,0,0,0,0,0,-1,1441,533,0,0
224,491,0,0,0,0,0,0,0,0,0,-1,1448,533,0,0
231,491,0,0,0,0,0,0,0,0,0,-1,1455,533,0,0
238,491,0,0,0,0,0,0,0,0,0,-1,1462,533,0,0
245,491,0,0,0,0,0,0,0,0,0,-1,1469,533,0,0
252,491,0,0,0,0,0,0,0,0,0,-1,1476,533,0,0
259,491,0,0,0,0,0,0,0,0,0,-1,1483,533,0,0
266,491,0,0,0,0,0,0,0,0,0,-1,1490,533,0,0
273,491,0,0,0,0,0,0,0,0,0,-1,1497,533,0,0
280,491,0,0,0,0,0,0,0,0,0,-1,1504,533,0,0
287,491,0,0,0,0,0,0,0,0,0,-1,1511,533,0,0
294,491,0,0,0,0,0,0,0,0,0,-1,1518,533,0,0
301,491,0,0,0,0,0,0,0,0,0,-1,1525,533,0,0
308,491,0,0,0,0,0,0,0,0,0,-1,1532,533,0,0
315,491,0,0,0,0,0,0,0,0,0,-1,1539,533,0,0
322,491,4.26331,-0.734314,0,0,0,0,0,0,0,-1,1546,533,4.26326,0.734324
329,491,4.25354,-0.783752,0,0,0,0,0,0,0,-1,1553,533,4.25359,0.783734
336,491,4.81604,-0.722107,0,0,0,0,0,0,0,-1,1560,533,4.81605,0.722115
343,491,6.14478,-1.44281,0,0,0,0,0,0,0,-1,1567,533,6.14474,1.44281
350,491,6.36353,-1.30792,0,0,0,0,0,0,0,-1,1574,533,6.36352,1.3079
357,491,6.69482,-1.06018,0,0,0,0,0,0,0,-1,1581,533,6.69489,1.06018
364,491,8.01086,-1.69604,0,0,0,0,0,0,0,-1,1588,533,8.01087,1.69607
371,491,8.2135,-0.539307,0,0,0,0,0,0,0,-1,1595,533,8.21348,0.53929
378,491,13.3589,2.17267,0,0,0,0,0,0,0,-1,1602,533,13.3589,-2.17264
385,491,8.08228,-4.95471,0,0,0,0,0,0,0,-1,1609,533,8.08227,4.95474
392,491,2.88721,-4.30988,0,0,0,0,0,0,0,-1,1616,533,2.88716,4.30986
399,491,8.95862,-8.55518,0,0,0,0,0,0,0,-1,1623,533,8.95864,8.55516
406,491,8.16541,-9.00806,0,0,0,0,0,0,0,-1,1630,533,8.16535,9.00807
413,491,5.31848,-3.7124,0,0,0,0,0,0,0,-1,1637,533,5.31849,3.7124
420,491,4.86389,-3.95892,0,0,0,0,0,0,0,-1,1644,533,4.86387,3.95893
427,491,10.2611,-13.0593,0,0,0,0,0,0,0,-1,1651,533,10.2612,13.0592
434,491,9.71338,-12.6711,0,0,0,0,0,0,0,-1,1658,533,9.71338,12.6712
441,491,9.63196,-12.7728,0.000647039,0.00169517,-0.00149994,0.00275997,-0.000417754,-0.953465,0.00199387,0.0245392,1665,533,9.63194,12.7728
448,491,9.58801,-12.5269,0.000897575,0.00185618,-0.0010464,0.00252783,0.000225925,-1.00016,0.00161519,0.0141944,1672,533,9.58807,12.5268
455,491,9.57507,-12.1324,0.00104908,0.00193016,-0.000671956,0.00229311,0.000686125,-1.07555,0.00135905,0.01223,1679,533,9.57513,12.1324
462,491,9.57397,-11.78,0.00110541,0.00194074,-0.000367282,0.00207926,0.000966893,-1.21015,0.00120144,0.016046,1686,533,9.57395,11.78
469,491,9.56775,-11.4292,0.00122506,0.00179518,-8.0272e-05,0.00180627,0.00121397,-1.43355,0.00106324,0.0153295,1693,533,9.56779,11.4292
476,491,9.59448,-11.0466,0.00136498,0.00145433,0.000228475,0.00164246,0.00117686,0.881952,0.000977463,0.0100697,1700,533,9.59453,11.0467
483,491,9.58398,-10.6417,0.00144124,0.0010564,0.000488032,0.00177342,0.000724223,0.597616,0.0010296,0.0114523,1707,533,9.58397,10.6417
490,491,9.55396,-10.2513,0.00143198,0.000526896,0.000644869,0.00176726,0.000191625,0.479445,0.00111977,0.0105502,1714,533,9.55399,10.2513
497,491,9.55957,-9.85181,0.00133549,-2.40201e-05,0.000781874,0.00169178,-0.000380312,0.427576,0.00127369,0.0118315,1721,533,9.55959,9.85181
504,491,9.56384,-9.45294,0.00114417,-0.000707731,0.00082794,0.00146034,-0.0010239,0.364787,0.00144164,0.0136008,1728,533,9.56383,9.45292
511,491,9.5542,-9.0448,0.00079794,-0.00141792,0.00081129,0.00106322,-0.00168319,0.316025,0.00159905,0.0126978,1735,533,9.55417,9.04482
518,491,9.54468,-8.64966,0.000220426,-0.00206351,0.000698204,0.000416957,-0.00226004,0.274381,0.00166319,0.0098685,1742,533,9.54463,8.64967
525,491,9.55969,-8.24359,-0.00045992,-0.00278561,0.000480692,-0.000364483,-0.00288105,0.195992,0.00181147,0.00993455,1749,533,9.55973,8.24361
532,491,9.54968,-7.85095,-0.00124945,-0.0034294,0.000236264,-0.00122414,-0.00345471,0.106729,0.0020226,0.02112,1756,533,9.54963,7.85093
539,491,9.55798,-7.3446,0,0,0,0,0,0,0,-1,1763,533,9.55801,7.34462
546,491,9.04724,-6.69769,0,0,0,0,0,0,0,-1,1770,533,9.04727,6.69772
553,491,8.87097,-5.98004,0,0,0,0,0,0,0,-1,1777,533,8.871,5.98001
560,491,6.28455,-1.43585,0,0,0,0,0,0,0,-1,1784,533,6.28458,1.43586
567,491,5.67651,-1.3562,0,0,0,0,0,0,0,-1,1791,533,5.67649,1.3562
574,491,8.0719,1.58325,0,0,0,0,0,0,0,-1,1798,533,8.07195,-1.58326
581,491,9.44812,1.60931,0,0,0,0,0,0,0,-1,1805,533,9.44808,-1.60933
588,491,11.0497,1.54962,0,0,0,0,0,0,0,-1,1812,533,11.0496,-1.54963
595,491,0,0,0,0,0,0,0,0,0,-1,1819,533,0,0
602,491,0,0,0,0,0,0,0,0,0,-1,1826,533,0,0
609,491,0,0,0,0,0,0,0,0,0,-1,1833,533,0,0
616,491,0,0,0,0,0,0,0,0,0,-1,1840,533,0,0
623,491,0,0,0,0,0,0,0,0,0,-1,1847,533,0,0
630,491,0,0,0,0,0,0,0,0,0,-1,1854,533,0,0
637,491,0,0,0,0,0,0,0,0,0,-1,1861,533,0,0
644,491,0,0,0,0,0,0,0,0,0,-1,1868,533,0,0
651,491,0,0,0,0,0,0,0,0,0,-1,1875,533,0,0
658,491,0,0,0,0,0,0,0,0,0,-1,1882,533,0,0
665,491,0,0,0,0,0,0,0,0,0,-1,1889,533,0,0
672,491,0,0,0,0,0,0,0,0,0,-1,1896,533,0,0
679,491,0,0,0,0,0,0,0,0,0,-1,1903,533,0,0
686,491,0,0,0,0,0,0,0,0,0,-1,1910,533,0,0
693,491,0,0,0,0,0,0,0,0,0,-1,1917,533,0,0
700,491,0,0,0,0,0,0,0,0,0,-1,1924,533,0,0
707,491,0,0,0,0,0,0,0,0,0,-1,1931,533,0,0
714,491,0,0,0,0,0,0,0,0,0,-1,1938,533,0,0
721,491,0,0,0,0,0,0,0,0,0,-1,1945,533,0,0
728,491,0,0,0,0,0,0,0,0,0,-1,1952,533,0,0
735,491,0,0,0,0,0,0,0,0,0,-1,1959,533,0,0
742,491,0,0,0,0,0,0,0,0,0,-1,1966,533,0,0
749,491,0,0,0,0,0,0,0,0,0,-1,1973,533,0,0
756,491,0,0,0,0,0,0,0,0,0,-1,1980,533,0,0
763,491,0,0,0,0,0,0,0,0,0,-1,1987,533,0,0
770,491,0,0,0,0,0,0,0,0,0,-1,1994,533,0,0
777,491,0,0,0,0,0,0,0,0,0,-1,2001,533,0,0
784,491,0,0,0,0,0,0,0,0,0,-1,2008,533,0,0
791,491,0,0,0,0,0,0,0,0,0,-1,2015,533,0,0
798,491,0,0,0,0,0,0,0,0,0,-1,2022,533,0,0
805,491,0,0,0,0,0,0,0,0,0,-1,2029,533,0,0
812,491,0,0,0,0,0,0,0,0,0,-1,2036,533,0,0
-700,484,0,0,0,0,0,0,0,0,0,-1,524,540,0,0
-693,484,0,0,0,0,0,0,0,0,0,-1,531,540,0,0
-686,484,0,0,0,0,0,0,0,0,0,-1,538,540,0,0
-679,484,0,0,0,0,0,0,0,0,0,-1,545,540,0,0
-672,484,0,0,0,0,0,0,0,0,0,-1,552,540,0,0
-665,484,0,0,0,0,0,0,0,0,0,-1,559,540,0,0
-658,484,0,0,0,0,0,0,0,0,0,-1,566,540,0,0
-651,484,0,0,0,0,0,0,0,0,0,-1,573,540,0,0
-644,484,0,0,0,0,0,0,0,0,0,-1,580,540,0,0
-637,484,0,0,0,0,0,0,0,0,0,-1,587,540,0,0
-630,484,0,0,0,0,0,0,0,0,0,-1,594,540,0,0
-623,484,0,0,0,0,0,0,0,0,0,-1,601,540,0,0
-616,484,0,0,0,0,0,0,0,0,0,-1,608,540,0,0
-609,484,0,0,0,0,0,0,0,0,0,-1,615,540,0,0
-602,484,0,0,0,0,0,0,0,0,0,-1,622,540,0,0
-595,484,0,0,0,0,0,0,0,0,0,-1,629,540,0,0
-588,484,0,0,0,0,0,0,0,0,0,-1,636,540,0,0
-581,484,0,0,0,0,0,0,0,0,0,-1,643,540,0,0
-574,484,0,0,0,0,0,0,0,0,0,-1,650,540,0,0
-567,484,0,0,0,0,0,0,0,0,0,-1,657,540,0,0
-560,484,0,0,0,0,0,0,0,0,0,-1,664,540,0,0
-553,484,0,0,0,0,0,0,0,0,0,-1,671,540,0,0
-546,484,0,0,0,0,0,0,0,0,0,-1,678,540,0,0
-539,484,0,0,0,0,0,0,0,0,0,-1,685,540,0,0
-532,484,0,0,0,0,0,0,0,0,0,-1,692,540,0,0
-525,484,0,0,0,0,0,0,0,0,0,-1,699,540,0,0
-518,484,0,0,0,0,0,0,0,0,0,-1,706,540,0,0
-511,484,0,0,0,0,0,0,0,0,0,-1,713,540,0,0
-504,484,0,0,0,0,0,0,0,0,0,-1,720,540,0,0
-497,484,0,0,0,0,0,0,0,0,0,-1,727,540,0,0
-490,484,0,0,0,0,0,0,0,0,0,-1,734,540,0,0
-483,484,0,0,0,0,0,0,0,0,0,-1,741,540,0,0
-476,484,-8.46552,1.44702,0,0,0,0,0,0,0,-1,748,540,-8.46554,-1.44702
-469,484,-7.82343,1.70355,0,0,0,0,0,0,0,-1,755,540,-7.82345,-1.70355
-462,484,-8.36987,3.08612,0,0,0,0,0,0,0,-1,762,540,-8.36988,-3.0861
-455,484,-6.77197,2.07092,0,0,0,0,0,0,0,-1,769,540,-6.77197,-2.07094
-448,484,3.54895,-1.40106,0,0,0,0,0,0,0,-1,776,540,3.54897,1.40106
-441,484,4.28906,-3.05884,0,0,0,0,0,0,0,-1,783,540,4.28905,3.05883
-434,484,-2.17548,-5.07245,0,0,0,0,0,0,0,-1,790,540,-2.17546,5.07243
-427,484,-2.33356,-7.9079,0,0,0,0,0,0,0,-1,797,540,-2.33357,7.9079
-420,484,-2.28827,-8.08929,0,0,0,0,0,0,0,-1,804,540,-2.28829,8.08928
-413,484,-2.21521,-8.94592,0.000193369,0.00200463,-0.0027764,0.00401937,-0.00182137,-0.943052,0.00345083,0.028766,811,540,-2.2152,8.94591
-406,484,-2.29169,-9.42712,0.000387038,0.00141942,-0.00233068,0.00329039,-0.00148393,-0.894377,0.00282146,0.0163546,818,540,-2.29171,9.42714
-399,484,-2.34985,-9.8717,0.000513214,0.000912204,-0.00188583,0.00260907,-0.00118365,-0.838095,0.00224068,0.0162375,825,540,-2.34982,9.87173
-392,484,-2.35828,-10.2288,0.00061289,0.000391857,-0.00142192,0.00192858,-0.000923837,-0.746614,0.00168056,0.0180584,832,540,-2.35826,10.2288
-385,484,-2.35474,-10.5905,0.000814686,0.000109954,-0.00104054,0.0015609,-0.000636264,-0.62214,0.00130544,0.0130761,839,540,-2.35474,10.5905
-378,484,-2.37396,-10.9713,0.00103064,-0.000128984,-0.000731401,0.00138417,-0.000482514,-0.450247,0.00111886,0.0140918,846,540,-2.37398,10.9712
-371,484,-2.37781,-11.3341,0.00118307,-0.000354225,-0.000428372,0.00129438,-0.000465533,-0.254217,0.00105298,0.0151022,853,540,-2.37779,11.3341
-364,484,-2.38959,-11.6873,0.00135339,-0.000615335,-0.000128665,0.00136176,-0.000623708,-0.0649864,0.00117241,0.0112377,860,540,-2.3896,11.6873
-357,484,-2.3999,-12.0408,0.00163851,-0.000759015,7.76485e-05,0.00164102,-0.000761527,0.0323418,0.00141775,0.0119448,867,540,-2.39989,12.0408
-350,484,-2.40399,-12.4091,0.00199387,-0.000934804,0.00021519,0.0020096,-0.000950531,0.0729548,0.00174511,0.0142435,874,540,-2.404,12.4091
-343,484,-2.37598,-12.787,0.00237952,-0.00122358,0.000289033,0.00240256,-0.00124662,0.0795401,0.00214179,0.0233656,881,540,-2.37596,12.787
-336,484,-2.32391,-13.1196,0.00267624,-0.00147474,0.000369243,0.00270883,-0.00150733,0.0880322,0.00246693,0.027264,888,540,-2.32391,13.1195
-329,484,-2.3465,-13.4312,0.00307024,-0.0016518,0.000379495,0.00310054,-0.0016821,0.0796852,0.00280145,0.0363738,895,540,-2.34647,13.4312
-322,484,-2.31317,-13.8941,0,0,0,0,0,0,0,-1,902,540,-2.31315,13.8941
-315,484,-2.17712,-14.2883,0,0,0,0,0,0,0,-1,909,540,-2.17713,14.2883
-308,484,-1.32623,-8.9317,0,0,0,0,0,0,0,-1,916,540,-1.32626,8.93173
-301,484,-1.33453,-6.52667,0,0,0,0,0,0,0,-1,923,540,-1.33454,6.5267
-294,484,-1.61224,-8.17059,0,0,0,0,0,0,0,-1,930,540,-1.61227,8.17058
-287,484,-0.715759,-5.62103,0,0,0,0,0,0,0,-1,937,540,-0.715772,5.62105
-280,484,2.66742,-1.6795,0,0,0,0,0,0,0,-1,944,540,2.6674,1.67949
-273,484,2.53125,-2.22296,0,0,0,0,0,0,0,-1,951,540,2.53128,2.22295
-266,484,2.6778,-2.72058,0,0,0,0,0,0,0,-1,958,540,2.6778,2.72061
-259,484,2.41718,-2.59894,0,0,0,0,0,0,0,-1,965,540,2.41717,2.59892
-252,484,10.6069,-11.696,0,0,0,0,0,0,0,-1,972,540,10.6069,11.696
-245,484,6.34106,-11.6107,0,0,0,0,0,0,0,-1,979,540,6.34104,11.6107
-238,484,4.89319,-8.54059,0,0,0,0,0,0,0,-1,986,540,4.89321,8.5406
-231,484,3.47675,-5.22064,0,0,0,0,0,0,0,-1,993,540,3.47676,5.22067
-224,484,1.71344,-2.03473,0,0,0,0,0,0,0,-1,1000,540,1.71342,2.03472
-217,484,-0.745056,1.17358,0,0,0,0,0,0,0,-1,1007,540,-0.745043,-1.17359
-210,484,0,0,0,0,0,0,0,0,0,-1,1014,540,0,0
-203,484,0,0,0,0,0,0,0,0,0,-1,1021,540,0,0
-196,484,0,0,0,0,0,0,0,0,0,-1,1028,540,0,0
-189,484,0,0,0,0,0,0,0,0,0,-1,1035,540,0,0
-182,484,0,0,0,0,0,0,0,0,0,-1,1042,540,0,0
-175,484,0,0,0,0,0,0,0,0,0,-1,1049,540,0,0
-168,484,0,0,0,0,0,0,0,0,0,-1,1056,540,0,0
-161,484,0,0,0,0,0,0,0,0,0,-1,1063,540,0,0
-154,484,0,0,0,0,0,0,0,0,0,-1,1070,540,0,0
-147,484,0,0,0,0,0,0,0,0,0,-1,1077,540,0,0
-140,484,0,0,0,0,0,0,0,0,0,-1,1084,540,0,0
-133,484,0,0,0,0,0,0,0,0,0,-1,1091,540,0,0
-126,484,0,0,0,0,0,0,0,0,0,-1,1098,540,0,0
-119,484,0,0,0,0,0,0,0,0,0,-1,1105,540,0,0
-112,484,0,0,0,0,0,0,0,0,0,-1,1112,540,0,0
-105,484,0,0,0,0,0,0,0,0,0,-1,1119,540,0,0
-98,484,0,0,0,0,0,0,0,0,0,-1,1126,540,0,0
-91,484,0,0,0,0,0,0,0,0,0,-1,1133,540,0,0
-84,484,0,0,0,0,0,0,0,0,0,-1,1140,540,0,0
-77,484,0,0,0,0,0,0,0,0,0,-1,1147,540,0,0
-70,484,0,0,0,0,0,0,0,0,0,-1,1154,540,0,0
-63,484,0,0,0,0,0,0,0,0,0,-1,1161,540,0,0
-56,484,0,0,0,0,0,0,0,0,0,-1,1168,540,0,0
-49,484,0,0,0,0,0,0,0,0,0,-1,1175,540,0,0
-42,484,0,0,0,0,0,0,0,0,0,-1,1182,540,0,0
-35,484,0,0,0,0,0,0,0,0,0,-1,1189,540,0,0
-28,484,0,0,0,0,0,0,0,0,0,-1,1196,540,0,0
-21,484,0,0,0,0,0,0,0,0,0,-1,1203,540,0,0
-14,484,0,0,0,0,0,0,0,0,0,-1,1210,540,0,0
-7,484,0,0,0,0,0,0,0,0,0,-1,1217,540,0,0
0,484,0,0,0,0,0,0,0,0,0,-1,1224,540,0,0
7,484,0,0,0,0,0,0,0,0,0,-1,1231,540,0,0
14,484,0,0,0,0,0,0,0,0,0,-1,1238,540,0,0
21,484,0,0,0,0,0,0,0,0,0,-1,1245,540,0,0
28,484,0,0,0,0,0,0,0,0,0,-1,1252,540,0,0
35,484,0,0,0,0,0,0,0,0,0,-1,1259,540,0,0
42,484,0,0,0,0,0,0,0,0,0,-1,1266,540,0,0
49,484,0,0,0,0,0,0,0,0,0,-1,1273,540,0,0
56,484,0,0,0,0,0,0,0,0,0,-1,1280,540,0,0
63,484,0,0,0,0,0,0,0,0,0,-1,1287,540,0,0
70,484,0,0,0,0,0,0,0,0,0,-1,1294,540,0,0
77,484,0,0,0,0,0,0,0,0,0,-1,1301,540,0,0
84,484,0,0,0,0,0,0,0,0,0,-1,1308,540,0,0
91,484,0,0,0,0,0,0,0,0,0,-1,1315,540,0,0
98,484,0,0,0,0,0,0,0,0,0,-1,1322,540,0,0
105,484,0,0,0,0,0,0,0,0,0,-1,1329,540,0,0
112,484,0,0,0,0,0,0,0,0,0,-1,1336,540,0,0
119,484,0,0,0,0,0,0,0,0,0,-1,1343,540,0,0
126,484,0,0,0,0,0,0,0,0,0,-1,1350,540,0,0
133,484,0,0,0,0,0,0,0,0,0,-1,1357,540,0,0
140,484,0,0,0,0,0,0,0,0,0,-1,1364,540,0,0
147,484,0,0,0,0,0,0,0,0,0,-1,1371,540,0,0
154,484,0,0,0,0,0,0,0,0,0,-1,1378,540,0,0
161,484,0,0,0,0,0,0,0,0,0,-1,1385,540,0,0
168,484,0,0,0,0,0,0,0,0,0,-1,1392,540,0,0
175,484,0,0,0,0,0,0,0,0,0,-1,1399,540,0,0
182,484,0,0,0,0,0,0,0,0,0,-1,1406,540,0,0
189,484,0,0,0,0,0,0,0,0,0,-1,1413,540,0,0
196,484,0,0,0,0,0,0,0,0,0,-1,1420,540,0,0
203,484,0,0,0,0,0,0,0,0,0,-1,1427,540,0,0
210,484,0,0,0,0,0,0,0,0,0,-1,1434,540,0,0
217,484,0,0,0,0,0,0,0,0,0,-1,1441,540,0,0
224,484,0,0,0,0,0,0,0,0,0,-1,1448,540,0,0
231,484,0,0,0,0,0,0,0,0,0,-1,1455,540,0,0
238,484,0,0,0,0,0,0,0,0,0,-1,1462,540,0,0
245,484,0,0,0,0,0,0,0,0,0,-1,1469,540,0,0
252,484,0,0,0,0,0,0,0,0,0,-1,1476,540,0,0
259,484,0,0,0,0,0,0,0,0,0,-1,1483,540,0,0
266,484,0,0,0,0,0,0,0,0,0,-1,1490,540,0,0
273,484,0,0,0,0,0,0,0,0,0,-1,1497,540,0,0
280,484,0,0,0,0,0,0,0,0,0,-1,1504,540,0,0
287,484,0,0,0,0,0,0,0,0,0,-1,1511,540,0,0
294,484,0,0,0,0,0,0,0,0,0,-1,1518,540,0,0
301,484,0,0,0,0,0,0,0,0,0,-1,1525,540,0,0
308,484,0,0,0,0,0,0,0,0,0,-1,1532,540,0,0
315,484,0,0,0,0,0,0,0,0,0,-1,1539,540,0,0
322,484,0,0,0,0,0,0,0,0,0,-1,1546,540,0,0
329,484,0,0,0,0,0,0,0,0,0,-1,1553,540,0,0
336,484,4.38708,-1.64136,0,0,0,0,0,0,0,-1,1560,540,4.38704,1.64138
343,484,7.57996,-1.05457,0,0,0,0,0,0,0,-1,1567,540,7.57995,1.05454
350,484,8.10425,-1.18878,0,0,0,0,0,0,0,-1,1574,540,8.1043,1.18877
357,484,7.74902,-3.80286,0,0,0,0,0,0,0,-1,1581,540,7.74901,3.80287
364,484,6.31262,-3.87213,0,0,0,0,0,0,0,-1,1588,540,6.31263,3.87215
371,484,7.21008,0.973511,0,0,0,0,0,0,0,-1,1595,540,7.21014,-0.973541
378,484,11.0563,1.5014,0,0,0,0,0,0,0,-1,1602,540,11.0563,-1.5014
385,484,14.3469,2.5545,0,0,0,0,0,0,0,-1,1609,540,14.3469,-2.55453
392,484,7.39453,-4.95026,0,0,0,0,0,0,0,-1,1616,540,7.39448,4.95023
399,484,7.14417,-2.5639,0,0,0,0,0,0,0,-1,1623,540,7.14417,2.56391
406,484,7.88953,-2.47321,0,0,0,0,0,0,0,-1,1630,540,7.88954,2.47323
413,484,4.4895,-1.08673,0,0,0,0,0,0,0,-1,1637,540,4.48952,1.08674
420,484,4.50012,-2.11255,0,0,0,0,0,0,0,-1,1644,540,4.50012,2.11256
427,484,5.28601,-3.54053,0,0,0,0,0,0,0,-1,1651,540,5.28599,3.54051
434,484,10.2476,-12.1508,0,0,0,0,0,0,0,-1,1658,540,10.2476,12.1507
441,484,10.0574,-12.5702,0,0,0,0,0,0,0,-1,1665,540,10.0574,12.5702
448,484,9.95349,-12.537,0,0,0,0,0,0,0,-1,1672,540,9.95347,12.537
455,484,9.94531,-12.1536,0.00120208,0.0028471,-0.000873702,0.00322454,0.000824641,-1.16301,0.00193432,0.0247927,1679,540,9.94537,12.1536
462,484,9.96594,-11.7614,0.00130148,0.00286231,-0.000471924,0.0029939,0.00116989,-1.29886,0.00174223,0.0153474,1686,540,9.96591,11.7614
469,484,9.98645,-11.4129,0.00140073,0.00270979,-0.000166778,0.0027307,0.00137982,-1.44605,0.0015766,0.0169255,1693,540,9.98642,11.4129
476,484,9.9884,-11.0045,0.00157959,0.00232391,0.000189923,0.00236957,0.00153393,1.33486,0.00138773,0.0150695,1700,540,9.98844,11.0045
483,484,9.97986,-10.6153,0.00165408,0.00191961,0.000490839,0.00229533,0.00127837,0.917482,0.00132807,0.0122932,1707,540,9.97987,10.6153
490,484,9.95068,-10.2355,0.00160092,0.00139122,0.000634467,0.00213915,0.000853002,0.70351,0.00124345,0.0128029,1714,540,9.95064,10.2355
497,484,9.93958,-9.84448,0.00145399,0.000886376,0.000761725,0.00198306,0.000357303,0.607074,0.0012205,0.0142318,1721,540,9.93963,9.84445
504,484,9.95032,-9.45026,0.00120698,0.000242171,0.000780399,0.00164204,-0.000192885,0.508567,0.00116433,0.0165188,1728,540,9.95037,9.45027
511,484,9.96851,-9.04718,0.000812511,-0.000397531,0.000737073,0.00116108,-0.000746096,0.441737,0.00110976,0.0183146,1735,540,9.96848,9.04715
518,484,9.96472,-8.65546,0.000220921,-0.000984455,0.000611781,0.000477016,-0.00124055,0.396443,0.00102378,0.0152716,1742,540,9.9647,8.65545
525,484,9.93823,-8.25049,-0.00044972,-0.00158804,0.000386236,-0.000331041,-0.00170672,0.298113,0.00104509,0.0135224,1749,540,9.93825,8.2505
532,484,9.94592,-7.82239,-0.00119365,-0.00207463,0.000151061,-0.00116847,-0.00209982,0.165185,0.0012149,0.0160834,1756,540,9.94589,7.8224
539,484,9.90613,-7.37274,-0.00201693,-0.00240416,-8.91717e-05,-0.00199738,-0.00242371,-0.215802,0.00149411,0.0297367,1763,540,9.90611,7.37276
546,484,9.89209,-6.95123,0,0,0,0,0,0,0,-1,1770,540,9.89204,6.95123
553,484,9.84412,-6.4101,0,0,0,0,0,0,0,-1,1777,540,9.84416,6.41012
560,484,10.0549,-5.47931,0,0,0,0,0,0,0,-1,1784,540,10.055,5.47928
567,484,7.78223,-1.38312,0,0,0,0,0,0,0,-1,1791,540,7.78224,1.38311
574,484,5.74463,1.50922,0,0,0,0,0,0,0,-1,1798,540,5.74463,-1.50924
581,484,10.34,2.9491,0,0,0,0,0,0,0,-1,1805,540,10.34,-2.94912
588,484,10.6669,2.88568,0,0,0,0,0,0,0,-1,1812,540,10.6669,-2.88567
595,484,10.7233,1.04767,0,0,0,0,0,0,0,-1,1819,540,10.7233,-1.04766
602,484,0,0,0,0,0,0,0,0,0,-1,1826,540,0,0
609,484,0,0,0,0,0,0,0,0,0,-1,1833,540,0,0
616,484,0,0,0,0,0,0,0,0,0,-1,1840,540,0,0
623,484,0,0,0,0,0,0,0,0,0,-1,1847,540,0,0
630,484,0,0,0,0,0,0,0,0,0,-1,1854,540,0,0
637,484,0,0,0,0,0,0,0,0,0,-1,1861,540,0,0
644,484,0,0,0,0,0,0,0,0,0,-1,1868,540,0,0
651,484,0,0,0,0,0,0,0,0,0,-1,1875,540,0,0
658,484,0,0,0,0,0,0,0,0,0,-1,1882,540,0,0
665,484,0,0,0,0,0,0,0,0,0,-1,1889,540,0,0
672,484,0,0,0,0,0,0,0,0,0,-1,1896,540,0,0
679,484,0,0,0,0,0,0,0,0,0,-1,1903,540,0,0
686,484,0,0,0,0,0,0,0,0,0,-1,1910,540,0,0
693,484,0,0,0,0,0,0,0,0,0,-1,1917,540,0,0
700,484,0,0,0,0,0,0,0,0,0,-1,1924,540,0,0
707,484,0,0,0,0,0,0,0,0,0,-1,1931,540,0,0
714,484,0,0,0,0,0,0,0,0,0,-1,1938,540,0,0
721,484,0,0,0,0,0,0,0,0,0,-1,1945,540,0,0
728,484,0,0,0,0,0,0,0,0,0,-1,1952,540,0,0
735,484,0,0,0,0,0,0,0,0,0,-1,1959,540,0,0
742,484,0,0,0,0,0,0,0,0,0,-1,1966,540,0,0
749,484,0,0,0,0,0,0,0,0,0,-1,1973,540,0,0
756,484,0,0,0,0,0,0,0,0,0,-1,1980,540,0,0
763,484,0,0,0,0,0,0,0,0,0,-1,1987,540,0,0
770,484,0,0,0,0,0,0,0,0,0,-1,1994,540,0,0
777,484,0,0,0,0,0,0,0,0,0,-1,2001,540,0,0
784,484,0,0,0,0,0,0,0,0,0,-1,2008,540,0,0
791,484,0,0,0,0,0,0,0,0,0,-1,2015,540,0,0
798,484,0,0,0,0,0,0,0,0,0,-1,2022,540,0,0
805,484,0,0,0,0,0,0,0,0,0,-1,2029,540,0,0
812,484,0,0,0,0,0,0,0,0,0,-1,2036,540,0,0
-700,477,0,0,0,0,0,0,0,0,0,-1,524,547,0,0
-693,477,0,0,0,0,0,0,0,0,0,-1,531,547,0,0
-686,477,0,0,0,0,0,0,0,0,0,-1,538,547,0,0
-679,477,0,0,0,0,0,0,0,0,0,-1,545,547,0,0
-672,477,0,0,0,0,0,0,0,0,0,-1,552,547,0,0
-665,477,0,0,0,0,0,0,0,0,0,-1,559,547,0,0
-658,477,0,0,0,0,0,0,0,0,0,-1,566,547,0,0
-651,477,0,0,0,0,0,0,0,0,0,-1,573,547,0,0
-644,477,0,0,0,0,0,0,0,0,0,-1,580,547,0,0
-637,477,0,0,0,0,0,0,0,0,0,-1,587,547,0,0
-630,477,0,0,0,0,0,0,0,0,0,-1,594,547,0,0
-623,477,0,0,0,0,0,0,0,0,0,-1,601,547,0,0
-616,477,0,0,0,0,0,0,0,0,0,-1,608,547,0,0
-609,477,0,0,0,0,0,0,0,0,0,-1,615,547,0,0
-602,477,0,0,0,0,0,0,0,0,0,-1,622,547,0,0
-595,477,0,0,0,0,0,0,0,0,0,-1,629,547,0,0
-588,477,0,0,0,0,0,0,0,0,0,-1,636,547,0,0
-581,477,0,0,0,0,0,0,0,0,0,-1,643,547,0,0
-574,477,0,0,0,0,0,0,0,0,0,-1,650,547,0,0
-567,477,0,0,0,0,0,0,0,0,0,-1,657,547,0,0
-560,477,0,0,0,0,0,0,0,0,0,-1,664,547,0,0
-553,477,0,0,0,0,0,0,0,0,0,-1,671,547,0,0
-546,477,0,0,0,0,0,0,0,0,0,-1,678,547,0,0
-539,477,0,0,0,0,0,0,0,0,0,-1,685,547,0,0
-532,477,0,0,0,0,0,0,0,0,0,-1,692,547,0,0
-525,477,0,0,0,0,0,0,0,0,0,-1,699,547,0,0
-518,477,0,0,0,0,0,0,0,0,0,-1,706,547,0,0
-511,477,0,0,0,0,0,0,0,0,0,-1,713,547,0,0
-504,477,0,0,0,0,0,0,0,0,0,-1,720,547,0,0
-497,477,0,0,0,0,0,0,0,0,0,-1,727,547,0,0
-490,477,0,0,0,0,0,0,0,0,0,-1,734,547,0,0
-483,477,-7.73151,-0.224182,0,0,0,0,0,0,0,-1,741,547,-7.73152,0.224176
-476,477,-6.25806,-0.310547,0,0,0,0,0,0,0,-1,748,547,-6.25804,0.310549
-469,477,-7.26617,0.525085,0,0,0,0,0,0,0,-1,755,547,-7.2662,-0.525111
-462,477,-6.65143,1.06042,0,0,0,0,0,0,0,-1,762,547,-6.65143,-1.06043
-455,477,-5.31757,0.429016,0,0,0,0,0,0,0,-1,769,547,-5.31756,-0.42902
-448,477,-4.0697,0.273376,0,0,0,0,0,0,0,-1,776,547,-4.06971,-0.273363
-441,477,-2.47504,-4.76971,0,0,0,0,0,0,0,-1,783,547,-2.47505,4.76973
-434,477,-2.5083,-7.79315,0,0,0,0,0,0,0,-1,790,547,-2.5083,7.79316
-427,477,-2.66547,-8.11847,-0.00186957,0.00498055,-0.00260593,0.0058592,-0.00274822,-1.24559,0.00507654,0.035648,797,547,-2.66546,8.11845
-420,477,-2.69885,-8.38135,-0.00168323,0.00401638,-0.00214203,0.00473164,-0.00239849,-1.24852,0.0041894,0.0293952,804,547,-2.69883,8.38137
-413,477,-2.6698,-8.94678,-0.00131881,0.00290855,-0.00173642,0.00353034,-0.0019406,-1.22694,0.00320279,0.0185585,811,547,-2.66981,8.94675
-406,477,-2.7193,-9.40442,-0.000822196,0.00214508,-0.0014051,0.00270484,-0.00138196,-1.19169,0.00240036,0.0118661,818,547,-2.71927,9.4044
-399,477,-2.73627,-9.8407,-0.000394019,0.00143078,-0.00107452,0.00192801,-0.000891253,-1.13739,0.00166399,0.0194302,825,547,-2.73624,9.84067
-392,477,-2.74774,-10.2272,-7.95348e-06,0.000687858,-0.000711542,0.00113199,-0.00045209,-1.01278,0.000942234,0.0177922,832,547,-2.74774,10.2272
-385,477,-2.72467,-10.5726,0.000462042,0.00021371,-0.000426204,0.000781798,-0.000106046,-0.643656,0.000559905,0.0141624,839,547,-2.72469,10.5726
-378,477,-2.74432,-10.9584,0.000905622,-0.000215549,-0.000194545,0.00093842,-0.000248347,-0.167017,0.000722761,0.0129173,846,547,-2.74434,10.9584
-371,477,-2.76709,-11.314,0.00126614,-0.000597093,4.97948e-05,0.00126747,-0.000598422,0.0266995,0.00110012,0.0131125,853,547,-2.76709,11.314
-364,477,-2.77228,-11.6607,0.00162261,-0.00096247,0.00029646,0.00165618,-0.000996033,0.112731,0.00154698,0.0131875,860,547,-2.77231,11.6607
-357,477,-2.76611,-12.0357,0.00205418,-0.00119351,0.000459928,0.00211805,-0.00125739,0.138003,0.00196982,0.0110347,867,547,-2.76609,12.0357
-350,477,-2.77313,-12.3999,0.00250034,-0.00144782,0.00058155,0.00258422,-0.0015317,0.143244,0.00240208,0.0102883,874,547,-2.77312,12.3999
-343,477,-2.73096,-12.7936,0.00291323,-0.00175995,0.000653492,0.00300289,-0.00184961,0.136355,0.00282784,0.019346,881,547,-2.73097,12.7936
-336,477,-2.64502,-13.166,0.00329196,-0.00200774,0.000709289,0.00338525,-0.00210102,0.13077,0.0031963,0.0341193,888,547,-2.64501,13.1659
-329,477,-2.53491,-13.5373,0,0,0,0,0,0,0,-1,895,547,-2.53489,13.5373
-322,477,-2.04822,-12.0026,0,0,0,0,0,0,0,-1,902,547,-2.04819,12.0026
-315,477,-1.67358,-9.15253,0,0,0,0,0,0,0,-1,909,547,-1.67356,9.15253
-308,477,-1.30127,-6.55188,0,0,0,0,0,0,0,-1,916,547,-1.30128,6.55185
-301,477,-1.21185,-6.28351,0,0,0,0,0,0,0,-1,923,547,-1.21184,6.28352
-294,477,-0.352905,3.27142,0,0,0,0,0,0,0,-1,930,547,-0.35292,-3.27144
-287,477,3.54364,2.15399,0,0,0,0,0,0,0,-1,937,547,3.54362,-2.15396
-280,477,1.97308,-0.954163,0,0,0,0,0,0,0,-1,944,547,1.9731,0.954178
-273,477,2.11621,-3.76709,0,0,0,0,0,0,0,-1,951,547,2.11619,3.76706
-266,477,2.04669,-3.42389,0,0,0,0,0,0,0,-1,958,547,2.04671,3.42391
-259,477,-1.33478,-3.41205,0,0,0,0,0,0,0,-1,965,547,-1.3348,3.41206
-252,477,0.597168,-5.32922,0,0,0,0,0,0,0,-1,972,547,0.597144,5.32924
-245,477,8.2309,-8.48492,0,0,0,0,0,0,0,-1,979,547,8.23091,8.48494
-238,477,6.60938,-5.64063,0,0,0,0,0,0,0,-1,986,547,6.60938,5.64063
-231,477,4.71716,-2.52484,0,0,0,0,0,0,0,-1,993,547,4.71716,2.52483
-224,477,0,0,0,0,0,0,0,0,0,-1,1000,547,0,0
-217,477,0,0,0,0,0,0,0,0,0,-1,1007,547,0,0
-210,477,0,0,0,0,0,0,0,0,0,-1,1014,547,0,0
-203,477,0,0,0,0,0,0,0,0,0,-1,1021,547,0,0
-196,477,0,0,0,0,0,0,0,0,0,-1,1028,547,0,0
-189,477,0,0,0,0,0,0,0,0,0,-1,1035,547,0,0
-182,477,0,0,0,0,0,0,0,0,0,-1,1042,547,0,0
-175,477,0,0,0,0,0,0,0,0,0,-1,1049,547,0,0
-168,477,0,0,0,0,0,0,0,0,0,-1,1056,547,0,0
-161,477,0,0,0,0,0,0,0,0,0,-1,1063,547,0,0
-154,477,0,0,0,0,0,0,0,0,0,-1,1070,547,0,0
-147,477,0,0,0,0,0,0,0,0,0,-1,1077,547,0,0
-140,477,0,0,0,0,0,0,0,0,0,-1,1084,547,0,0
-133,477,0,0,0,0,0,0,0,0,0,-1,1091,547,0,0
-126,477,0,0,0,0,0,0,0,0,0,-1,1098,547,0,0
-119,477,0,0,0,0,0,0,0,0,0,-1,1105,547,0,0
-112,477,0,0,0,0,0,0,0,0,0,-1,1112,547,0,0
-105,477,0,0,0,0,0,0,0,0,0,-1,1119,547,0,0
-98,477,0,0,0,0,0,0,0,0,0,-1,1126,547,0,0
-91,477,0,0,0,0,0,0,0,0,0,-1,1133,547,0,0
-84,477,0,0,0,0,0,0,0,0,0,-1,1140,547,0,0
-77,477,0,0,0,0,0,0,0,0,0,-1,1147,547,0,0
-70,477,0,0,0,0,0,0,0,0,0,-1,1154,547,0,0
-63,477,0,0,0,0,0,0,0,0,0,-1,1161,547,0,0
-56,477,0,0,0,0,0,0,0,0,0,-1,1168,547,0,0
-49,477,0,0,0,0,0,0,0,0,0,-1,1175,547,0,0
-42,477,0,0,0,0,0,0,0,0,0,-1,1182,547,0,0
-35,477,0,0,0,0,0,0,0,0,0,-1,1189,547,0,0
-28,477,0,0,0,0,0,0,0,0,0,-1,1196,547,0,0
-21,477,0,0,0,0,0,0,0,0,0,-1,1203,547,0,0
-14,477,0,0,0,0,0,0,0,0,0,-1,1210,547,0,0
-7,477,0,0,0,0,0,0,0,0,0,-1,1217,547,0,0
0,477,0,0,0,0,0,0,0,0,0,-1,1224,547,0,0
7,477,0,0,0,0,0,0,0,0,0,-1,1231,547,0,0
14,477,0,0,0,0,0,0,0,0,0,-1,1238,547,0,0
21,477,0,0,0,0,0,0,0,0,0,-1,1245,547,0,0
28,477,0,0,0,0,0,0,0,0,0,-1,1252,547,0,0
35,477,0,0,0,0,0,0,0,0,0,-1,1259,547,0,0
42,477,0,0,0,0,0,0,0,0,0,-1,1266,547,0,0
49,477,0,0,0,0,0,0,0,0,0,-1,1273,547,0,0
56,477,0,0,0,0,0,0,0,0,0,-1,1280,547,0,0
63,477,0,0,0,0,0,0,0,0,0,-1,1287,547,0,0
70,477,0,0,0,0,0,0,0,0,0,-1,1294,547,0,0
77,477,0,0,0,0,0,0,0,0,0,-1,1301,547,0,0
84,477,0,0,0,0,0,0,0,0,0,-1,1308,547,0,0
91,477,0,0,0,0,0,0,0,0,0,-1,1315,547,0,0
98,477,0,0,0,0,0,0,0,0,0,-1,1322,547,0,0
105,477,0,0,0,0,0,0,0,0,0,-1,1329,547,0,0
112,477,0,0,0,0,0,0,0,0,0,-1,1336,547,0,0
119,477,0,0,0,0,0,0,0,0,0,-1,1343,547,0,0
126,477,0,0,0,0,0,0,0,0,0,-1,1350,547,0,0
133,477,0,0,0,0,0,0,0,0,0,-1,1357,547,0,0
140,477,0,0,0,0,0,0,0,0,0,-1,1364,547,0,0
147,477,0,0,0,0,0,0,0,0,0,-1,1371,547,0,0
154,477,0,0,0,0,0,0,0,0,0,-1,1378,547,0,0
161,477,0,0,0,0,0,0,0,0,0,-1,1385,547,0,0
168,477,0,0,0,0,0,0,0,0,0,-1,1392,547,0,0
175,477,0,0,0,0,0,0,0,0,0,-1,1399,547,0,0
182,477,0,0,0,0,0,0,0,0,0,-1,1406,547,0,0
189,477,0,0,0,0,0,0,0,0,0,-1,1413,547,0,0
196,477,0,0,0,0,0,0,0,0,0,-1,1420,547,0,0
203,477,0,0,0,0,0,0,0,0,0,-1,1427,547,0,0
210,477,0,0,0,0,0,0,0,0,0,-1,1434,547,0,0
217,477,0,0,0,0,0,0,0,0,0,-1,1441,547,0,0
224,477,0,0,0,0,0,0,0,0,0,-1,1448,547,0,0
231,477,0,0,0,0,0,0,0,0,0,-1,1455,547,0,0
238,477,0,0,0,0,0,0,0,0,0,-1,1462,547,0,0
245,477,0,0,0,0,0,0,0,0,0,-1,1469,547,0,0
252,477,0,0,0,0,0,0,0,0,0,-1,1476,547,0,0
259,477,0,0,0,0,0,0,0,0,0,-1,1483,547,0,0
266,477,0,0,0,0,0,0,0,0,0,-1,1490,547,0,0
273,477,0,0,0,0,0,0,0,0,0,-1,1497,547,0,0
280,477,0,0,0,0,0,0,0,0,0,-1,1504,547,0,0
287,477,0,0,0,0,0,0,0,0,0,-1,1511,547,0,0
294,477,0,0,0,0,0,0,0,0,0,-1,1518,547,0,0
301,477,0,0,0,0,0,0,0,0,0,-1,1525,547,0,0
308,477,0,0,0,0,0,0,0,0,0,-1,1532,547,0,0
315,477,0,0,0,0,0,0,0,0,0,-1,1539,547,0,0
322,477,0,0,0,0,0,0,0,0,0,-1,1546,547,0,0
329,477,0,0,0,0,0,0,0,0,0,-1,1553,547,0,0
336,477,0,0,0,0,0,0,0,0,0,-1,1560,547,0,0
343,477,0,0,0,0,0,0,0,0,0,-1,1567,547,0,0
350,477,1.7699,-3.32275,0,0,0,0,0,0,0,-1,1574,547,1.7699,3.32272
357,477,3.073,-4.83313,0,0,0,0,0,0,0,-1,1581,547,3.07303,4.83316
364,477,4.30127,-4.22864,0,0,0,0,0,0,0,-1,1588,547,4.30125,4.22865
371,477,4.57703,0.283264,0,0,0,0,0,0,0,-1,1595,547,4.57706,-0.283262
378,477,8.57947,1.05969,0,0,0,0,0,0,0,-1,1602,547,8.5795,-1.05972
385,477,12.3726,2.02356,0,0,0,0,0,0,0,-1,1609,547,12.3725,-2.02355
392,477,16.4678,2.76843,0,0,0,0,0,0,0,-1,1616,547,16.4678,-2.76845
399,477,8.00037,-2.29523,0,0,0,0,0,0,0,-1,1623,547,8.00031,2.2952
406,477,4.82495,2.7475,0,0,0,0,0,0,0,-1,1630,547,4.825,-2.74752
413,477,4.88171,-0.336426,0,0,0,0,0,0,0,-1,1637,547,4.88169,0.336398
420,477,3.34875,0.102722,0,0,0,0,0,0,0,-1,1644,547,3.34871,-0.1027
427,477,1.66772,-0.373108,0,0,0,0,0,0,0,-1,1651,547,1.66768,0.373104
434,477,3.76978,-2.30798,0,0,0,0,0,0,0,-1,1658,547,3.76974,2.30801
441,477,4.05444,-2.80402,0,0,0,0,0,0,0,-1,1665,547,4.05444,2.804
448,477,10.4247,-11.7421,0,0,0,0,0,0,0,-1,1672,547,10.4247,11.7421
455,477,10.3763,-12.2379,0,0,0,0,0,0,0,-1,1679,547,10.3763,12.2379
462,477,10.4821,-11.9128,0.0017357,0.00394007,-0.000392223,0.00400778,0.00166799,-1.39985,0.0023247,0.0497621,1686,547,10.482,11.9128
469,477,10.4148,-11.387,0.00179729,0.00371954,-9.39949e-05,0.00372413,0.0017927,-1.52205,0.00215062,0.0297099,1693,547,10.4148,11.387
476,477,10.3831,-11.0023,0.00200694,0.00324803,0.000292595,0.00331355,0.00194142,1.3505,0.00192247,0.0181185,1700,547,10.3831,11.0023
483,477,10.3842,-10.6162,0.00207948,0.00279647,0.000628733,0.00316174,0.00171422,1.0445,0.00182759,0.0115703,1707,547,10.3841,10.6162
490,477,10.356,-10.2344,0.00198447,0.00222482,0.000749574,0.00286379,0.0013455,0.864883,0.00165441,0.0118144,1714,547,10.356,10.2344
497,477,10.3274,-9.81927,0.00179284,0.00172145,0.000863297,0.00262118,0.00089311,0.764734,0.00153872,0.0131396,1721,547,10.3274,9.81927
504,477,10.3278,-9.43164,0.00150077,0.0010658,0.000855605,0.0021661,0.000400474,0.66094,0.00133081,0.0176631,1728,547,10.3278,9.43166
511,477,10.3855,-9.0733,0.00107526,0.000442093,0.000788334,0.0016082,-9.08494e-05,0.594461,0.00110367,0.0218989,1735,547,10.3855,9.07331
518,477,10.3755,-8.67975,0.000488497,-0.0001416,0.000657128,0.000902196,-0.000555299,0.561869,0.000849393,0.0196882,1742,547,10.3755,8.67973
525,477,10.3347,-8.22998,-0.000169691,-0.000683014,0.000434631,7.84041e-05,-0.00093111,0.518686,0.000648456,0.0173638,1749,547,10.3347,8.23
532,477,10.3055,-7.81732,-0.000883206,-0.00110176,0.000217518,-0.000749059,-0.00123591,0.552619,0.000718886,0.0201257,1756,547,10.3056,7.8173
539,477,10.3076,-7.35437,-0.00165072,-0.00143828,-1.97219e-05,-0.00143647,-0.00165253,-1.479,0.0010372,0.0169029,1763,547,10.3076,7.35439
546,477,10.2565,-7.00146,-0.00254279,-0.00180264,-0.000337968,-0.00167153,-0.00267389,-1.20076,0.00155981,0.0267693,1770,547,10.2565,7.00148
553,477,10.2191,-6.53021,-0.00358378,-0.0019906,-0.000714836,-0.00171689,-0.0038575,-1.20512,0.0022316,0.0342776,1777,547,10.2192,6.53018
560,477,10.4421,-5.94519,0,0,0,0,0,0,0,-1,1784,547,10.4421,5.94517
567,477,10.3444,-5.4931,0,0,0,0,0,0,0,-1,1791,547,10.3444,5.49307
574,477,6.82593,-0.916992,0,0,0,0,0,0,0,-1,1798,547,6.82598,0.916977
581,477,9.29321,-0.557007,0,0,0,0,0,0,0,-1,1805,547,9.29324,0.55703
588,477,9.75195,0.422729,0,0,0,0,0,0,0,-1,1812,547,9.75198,-0.42273
595,477,9.89172,1.21326,0,0,0,0,0,0,0,-1,1819,547,9.89174,-1.21328
602,477,6.5271,-0.964417,0,0,0,0,0,0,0,-1,1826,547,6.52706,0.964427
609,477,0,0,0,0,0,0,0,0,0,-1,1833,547,0,0
616,477,0,0,0,0,0,0,0,0,0,-1,1840,547,0,0
623,477,0,0,0,0,0,0,0,0,0,-1,1847,547,0,0
630,477,0,0,0,0,0,0,0,0,0,-1,1854,547,0,0
637,477,0,0,0,0,0,0,0,0,0,-1,1861,547,0,0
644,477,0,0,0,0,0,0,0,0,0,-1,1868,547,0,0
651,477,0,0,0,0,0,0,0,0,0,-1,1875,547,0,0
658,477,0,0,0,0,0,0,0,0,0,-1,1882,547,0,0
665,477,0,0,0,0,0,0,0,0,0,-1,1889,547,0,0
672,477,0,0,0,0,0,0,0,0,0,-1,1896,547,0,0
679,477,0,0,0,0,0,0,0,0,0,-1,1903,547,0,0
686,477,0,0,0,0,0,0,0,0,0,-1,1910,547,0,0
693,477,0,0,0,0,0,0,0,0,0,-1,1917,547,0,0
700,477,0,0,0,0,0,0,0,0,0,-1,1924,547,0,0
707,477,0,0,0,0,0,0,0,0,0,-1,1931,547,0,0
714,477,0,0,0,0,0,0,0,0,0,-1,1938,547,0,0
721,477,0,0,0,0,0,0,0,0,0,-1,1945,547,0,0
728,477,0,0,0,0,0,0,0,0,0,-1,1952,547,0,0
735,477,0,0,0,0,0,0,0,0,0,-1,1959,547,0,0
742,477,0,0,0,0,0,0,0,0,0,-1,1966,547,0,0
749,477,0,0,0,0,0,0,0,0,0,-1,1973,547,0,0
756,477,0,0,0,0,0,0,0,0,0,-1,1980,547,0,0
763,477,0,0,0,0,0,0,0,0,0,-1,1987,547,0,0
770,477,0,0,0,0,0,0,0,0,0,-1,1994,547,0,0
777,477,0,0,0,0,0,0,0,0,0,-1,2001,547,0,0
784,477,0,0,0,0,0,0,0,0,0,-1,2008,547,0,0
791,477,0,0,0,0,0,0,0,0,0,-1,2015,547,0,0
798,477,0,0,0,0,0,0,0,0,0,-1,2022,547,0,0
805,477,0,0,0,0,0,0,0,0,0,-1,2029,547,0,0
812,477,0,0,0,0,0,0,0,0,0,-1,2036,547,0,0
-700,470,0,0,0,0,0,0,0,0,0,-1,524,554,0,0
-693,470,0,0,0,0,0,0,0,0,0,-1,531,554,0,0
-686,470,0,0,0,0,0,0,0,0,0,-1,538,554,0,0
-679,470,0,0,0,0,0,0,0,0,0,-1,545,554,0,0
-672,470,0,0,0,0,0,0,0,0,0,-1,552,554,0,0
-665,470,0,0,0,0,0,0,0,0,0,-1,559,554,0,0
-658,470,0,0,0,0,0,0,0,0,0,-1,566,554,0,0
-651,470,0,0,0,0,0,0,0,0,0,-1,573,554,0,0
-644,470,0,0,0,0,0,0,0,0,0,-1,580,554,0,0
-637,470,0,0,0,0,0,0,0,0,0,-1,587,554,0,0
-630,470,0,0,0,0,0,0,0,0,0,-1,594,554,0,0
-623,470,0,0,0,0,0,0,0,0,0,-1,601,554,0,0
-616,470,0,0,0,0,0,0,0,0,0,-1,608,554,0,0
-609,470,0,0,0,0,0,0,0,0,0,-1,615,554,0,0
-602,470,0,0,0,0,0,0,0,0,0,-1,622,554,0,0
-595,470,0,0,0,0,0,0,0,0,0,-1,629,554,0,0
-588,470,0,0,0,0,0,0,0,0,0,-1,636,554,0,0
-581,470,0,0,0,0,0,0,0,0,0,-1,643,554,0,0
-574,470,0,0,0,0,0,0,0,0,0,-1,650,554,0,0
-567,470,0,0,0,0,0,0,0,0,0,-1,657,554,0,0
-560,470,0,0,0,0,0,0,0,0,0,-1,664,554,0,0
-553,470,0,0,0,0,0,0,0,0,0,-1,671,554,0,0
-546,470,0,0,0,0,0,0,0,0,0,-1,678,554,0,0
-539,470,0,0,0,0,0,0,0,0,0,-1,685,554,0,0
-532,470,0,0,0,0,0,0,0,0,0,-1,692,554,0,0
-525,470,0,0,0,0,0,0,0,0,0,-1,699,554,0,0
-518,470,0,0,0,0,0,0,0,0,0,-1,706,554,0,0
-511,470,0,0,0,0,0,0,0,0,0,-1,713,554,0,0
-504,470,0,0,0,0,0,0,0,0,0,-1,720,554,0,0
-497,470,0,0,0,0,0,0,0,0,0,-1,727,554,0,0
-490,470,-9.13263,-1.03125,0,0,0,0,0,0,0,-1,734,554,-9.1326,1.03127
-483,470,-7.68677,-1.03955,0,0,0,0,0,0,0,-1,741,554,-7.68678,1.03958
-476,470,-6.17969,-1.03394,0,0,0,0,0,0,0,-1,748,554,-6.17971,1.03395
-469,470,-6.23016,-0.651855,0,0,0,0,0,0,0,-1,755,554,-6.23014,0.651829
-462,470,-4.87915,-1.03705,0,0,0,0,0,0,0,-1,762,554,-4.87914,1.03702
-455,470,-4.14777,-1.37079,0,0,0,0,0,0,0,-1,769,554,-4.14779,1.37078
-448,470,-2.9314,-5.74518,0,0,0,0,0,0,0,-1,776,554,-2.93137,5.74518
-441,470,-2.7973,-7.26752,0,0,0,0,0,0,0,-1,783,554,-2.79732,7.26752
-434,470,-2.89343,-7.80774,-0.00140117,0.00653373,-0.00331235,0.00773467,-0.00260211,-1.22297,0.00620833,0.0361423,790,554,-2.89345,7.80772
-427,470,-3.08081,-8.17261,-0.00131582,0.00513011,-0.0025581,0.00602192,-0.00220763,-1.23535,0.00491851,0.0182852,797,554,-3.08079,8.17263
-420,470,-3.05792,-8.58795,-0.0013401,0.00402968,-0.00190413,0.00463635,-0.00194677,-1.26236,0.00390507,0.014323,804,554,-3.05791,8.58793
-413,470,-3.07837,-9.00458,-0.00110429,0.00289219,-0.00141246,0.00334098,-0.00155309,-1.26314,0.00288776,0.0133738,811,554,-3.07839,9.00456
-406,470,-3.11169,-9.37665,-0.000662988,0.00206644,-0.00102267,0.0024071,-0.00100365,-1.24925,0.002024,0.010901,818,554,-3.11172,9.37663
-399,470,-3.11182,-9.79968,-0.000261313,0.00126497,-0.000647562,0.00150269,-0.000499032,-1.21897,0.00120314,0.0137426,825,554,-3.11181,9.79966
-392,470,-3.11572,-10.2115,0.000118092,0.000416951,-0.00024347,0.000553191,-1.81476e-05,-1.06063,0.000374989,0.0140909,832,554,-3.11572,10.2115
-385,470,-3.09235,-10.5469,0.000591631,-0.000160975,7.66413e-05,0.000599356,-0.000168701,0.10046,0.000466095,0.0105095,839,554,-3.09234,10.547
-378,470,-3.11249,-10.9321,0.00103688,-0.000705943,0.000346314,0.00110317,-0.000772237,0.189139,0.00108837,0.0146155,846,554,-3.11247,10.9321
-371,470,-3.14679,-11.2991,0.00143377,-0.00118572,0.000619018,0.00157269,-0.00132464,0.220754,0.00167481,0.0131091,853,554,-3.14676,11.2991
-364,470,-3.14417,-11.6534,0.00185804,-0.00161015,0.000866842,0.00206263,-0.00181474,0.231776,0.00224013,0.0135157,860,554,-3.14419,11.6535
-357,470,-3.14526,-12.0214,0.00236052,-0.00192502,0.00101935,0.00259063,-0.00215513,0.222016,0.00274381,0.013558,867,554,-3.14528,12.0214
-350,470,-3.12415,-12.4083,0.00290175,-0.00227415,0.00110822,0.00312906,-0.00250145,0.202299,0.0032575,0.01011,874,554,-3.12413,12.4083
-343,470,-3.05762,-12.7659,0.00345618,-0.00270791,0.00110962,0.00364984,-0.00290157,0.17279,0.00379068,0.0301465,881,554,-3.05761,12.7659
-336,470,-2.91101,-13.2429,0,0,0,0,0,0,0,-1,888,554,-2.91104,13.2428
-329,470,-2.78516,-12.3594,0,0,0,0,0,0,0,-1,895,554,-2.78517,12.3594
-322,470,-2.30829,-11.4527,0,0,0,0,0,0,0,-1,902,554,-2.30827,11.4527
-315,470,-1.04797,-8.29529,0,0,0,0,0,0,0,-1,909,554,-1.04797,8.29526
-308,470,-1.39368,-6.68152,0,0,0,0,0,0,0,-1,916,554,-1.39369,6.68149
-301,470,-0.0340576,3.34888,0,0,0,0,0,0,0,-1,923,554,-0.0340496,-3.3489
-294,470,-1.18378,3.22266,0,0,0,0,0,0,0,-1,930,554,-1.18376,-3.22268
-287,470,-2.15454,3.2204,0,0,0,0,0,0,0,-1,937,554,-2.15452,-3.22037
-280,470,-3.00537,3.099,0,0,0,0,0,0,0,-1,944,554,-3.00536,-3.09898
-273,470,-12.3932,3.65009,0,0,0,0,0,0,0,-1,951,554,-12.3932,-3.65011
-266,470,-11.5706,1.16028,0,0,0,0,0,0,0,-1,958,554,-11.5706,-1.16031
-259,470,-7.50415,-2.77167,0,0,0,0,0,0,0,-1,965,554,-7.50413,2.7717
-252,470,-0.371155,-5.87823,0,0,0,0,0,0,0,-1,972,554,-0.37114,5.87821
-245,470,1.33221,-6.81122,0,0,0,0,0,0,0,-1,979,554,1.33223,6.8112
-238,470,0,0,0,0,0,0,0,0,0,-1,986,554,0,0
-231,470,0,0,0,0,0,0,0,0,0,-1,993,554,0,0
-224,470,0,0,0,0,0,0,0,0,0,-1,1000,554,0,0
-217,470,0,0,0,0,0,0,0,0,0,-1,1007,554,0,0
-210,470,0,0,0,0,0,0,0,0,0,-1,1014,554,0,0
-203,470,0,0,0,0,0,0,0,0,0,-1,1021,554,0,0
-196,470,0,0,0,0,0,0,0,0,0,-1,1028,554,0,0
-189,470,0,0,0,0,0,0,0,0,0,-1,1035,554,0,0
-182,470,0,0,0,0,0,0,0,0,0,-1,1042,554,0,0
-175,470,0,0,0,0,0,0,0,0,0,-1,1049,554,0,0
-168,470,0,0,0,0,0,0,0,0,0,-1,1056,554,0,0
-161,470,0,0,0,0,0,0,0,0,0,-1,1063,554,0,0
-154,470,0,0,0,0,0,0,0,0,0,-1,1070,554,0,0
-147,470,0,0,0,0,0,0,0,0,0,-1,1077,554,0,0
-140,470,0,0,0,0,0,0,0,0,0,-1,1084,554,0,0
-133,470,0,0,0,0,0,0,0,0,0,-1,1091,554,0,0
-126,470,0,0,0,0,0,0,0,0,0,-1,1098,554,0,0
-119,470,0,0,0,0,0,0,0,0,0,-1,1105,554,0,0
-112,470,0,0,0,0,0,0,0,0,0,-1,1112,554,0,0
-105,470,0,0,0,0,0,0,0,0,0,-1,1119,554,0,0
-98,470,0,0,0,0,0,0,0,0,0,-1,1126,554,0,0
-91,470,0,0,0,0,0,0,0,0,0,-1,1133,554,0,0
-84,470,0,0,0,0,0,0,0,0,0,-1,1140,554,0,0
-77,470,0,0,0,0,0,0,0,0,0,-1,1147,554,0,0
-70,470,0,0,0,0,0,0,0,0,0,-1,1154,554,0,0
-63,470,0,0,0,0,0,0,0,0,0,-1,1161,554,0,0
-56,470,0,0,0,0,0,0,0,0,0,-1,1168,554,0,0
-49,470,0,0,0,0,0,0,0,0,0,-1,1175,554,0,0
-42,470,0,0,0,0,0,0,0,0,0,-1,1182,554,0,0
-35,470,0,0,0,0,0,0,0,0,0,-1,1189,554,0,0
-28,470,0,0,0,0,0,0,0,0,0,-1,1196,554,0,0
-21,470,0,0,0,0,0,0,0,0,0,-1,1203,554,0,0
-14,470,0,0,0,0,0,0,0,0,0,-1,1210,554,0,0
-7,470,0,0,0,0,0,0,0,0,0,-1,1217,554,0,0
0,470,0,0,0,0,0,0,0,0,0,-1,1224,554,0,0
7,470,0,0,0,0,0,0,0,0,0,-1,1231,554,0,0
14,470,0,0,0,0,0,0,0,0,0,-1,1238,554,0,0
21,470,0,0,0,0,0,0,0,0,0,-1,1245,554,0,0
28,470,0,0,0,0,0,0,0,0,0,-1,1252,554,0,0
35,470,0,0,0,0,0,0,0,0,0,-1,1259,554,0,0
42,470,0,0,0,0,0,0,0,0,0,-1,1266,554,0,0
49,470,0,0,0,0,0,0,0,0,0,-1,1273,554,0,0
56,470,0,0,0,0,0,0,0,0,0,-1,1280,554,0,0
63,470,0,0,0,0,0,0,0,0,0,-1,1287,554,0,0
70,470,0,0,0,0,0,0,0,0,0,-1,1294,554,0,0
77,470,0,0,0,0,0,0,0,0,0,-1,1301,554,0,0
84,470,0,0,0,0,0,0,0,0,0,-1,1308,554,0,0
91,470,0,0,0,0,0,0,0,0,0,-1,1315,554,0,0
98,470,0,0,0,0,0,0,0,0,0,-1,1322,554,0,0
105,470,0,0,0,0,0,0,0,0,0,-1,1329,554,0,0
112,470,0,0,0,0,0,0,0,0,0,-1,1336,554,0,0
119,470,0,0,0,0,0,0,0,0,0,-1,1343,554,0,0
126,470,0,0,0,0,0,0,0,0,0,-1,1350,554,0,0
133,470,0,0,0,0,0,0,0,0,0,-1,1357,554,0,0
140,470,0,0,0,0,0,0,0,0,0,-1,1364,554,0,0
147,470,0,0,0,0,0,0,0,0,0,-1,1371,554,0,0
154,470,0,0,0,0,0,0,0,0,0,-1,1378,554,0,0
161,470,0,0,0,0,0,0,0,0,0,-1,1385,554,0,0
168,470,0,0,0,0,0,0,0,0,0,-1,1392,554,0,0
175,470,0,0,0,0,0,0,0,0,0,-1,1399,554,0,0
182,470,0,0,0,0,0,0,0,0,0,-1,1406,554,0,0
189,470,0,0,0,0,0,0,0,0,0,-1,1413,554,0,0
196,470,0,0,0,0,0,0,0,0,0,-1,1420,554,0,0
203,470,0,0,0,0,0,0,0,0,0,-1,1427,554,0,0
210,470,0,0,0,0,0,0,0,0,0,-1,1434,554,0,0
217,470,0,0,0,0,0,0,0,0,0,-1,1441,554,0,0
224,470,0,0,0,0,0,0,0,0,0,-1,1448,554,0,0
231,470,0,0,0,0,0,0,0,0,0,-1,1455,554,0,0
238,470,0,0,0,0,0,0,0,0,0,-1,1462,554,0,0
245,470,0,0,0,0,0,0,0,0,0,-1,1469,554,0,0
252,470,0,0,0,0,0,0,0,0,0,-1,1476,554,0,0
259,470,0,0,0,0,0,0,0,0,0,-1,1483,554,0,0
266,470,0,0,0,0,0,0,0,0,0,-1,1490,554,0,0
273,470,0,0,0,0,0,0,0,0,0,-1,1497,554,0,0
280,470,0,0,0,0,0,0,0,0,0,-1,1504,554,0,0
287,470,0,0,0,0,0,0,0,0,0,-1,1511,554,0,0
294,470,0,0,0,0,0,0,0,0,0,-1,1518,554,0,0
301,470,0,0,0,0,0,0,0,0,0,-1,1525,554,0,0
308,470,0,0,0,0,0,0,0,0,0,-1,1532,554,0,0
315,470,0,0,0,0,0,0,0,0,0,-1,1539,554,0,0
322,470,0,0,0,0,0,0,0,0,0,-1,1546,554,0,0
329,470,0,0,0,0,0,0,0,0,0,-1,1553,554,0,0
336,470,0,0,0,0,0,0,0,0,0,-1,1560,554,0,0
343,470,0,0,0,0,0,0,0,0,0,-1,1567,554,0,0
350,470,0,0,0,0,0,0,0,0,0,-1,1574,554,0,0
357,470,0,0,0,0,0,0,0,0,0,-1,1581,554,0,0
364,470,1.33423,0.293335,0,0,0,0,0,0,0,-1,1588,554,1.33422,-0.293348
371,470,2.22498,-0.0305176,0,0,0,0,0,0,0,-1,1595,554,2.22494,0.0305046
378,470,6.27051,0.710083,0,0,0,0,0,0,0,-1,1602,554,6.27054,-0.710093
385,470,10.3657,1.47296,0,0,0,0,0,0,0,-1,1609,554,10.3657,-1.47299
392,470,15.3881,3.01935,0,0,0,0,0,0,0,-1,1616,554,15.388,-3.01937
399,470,18.4479,2.93793,0,0,0,0,0,0,0,-1,1623,554,18.4479,-2.93792
406,470,15.1896,1.36676,0,0,0,0,0,0,0,-1,1630,554,15.1896,-1.36679
413,470,6.55383,1.99207,0,0,0,0,0,0,0,-1,1637,554,6.5538,-1.99208
420,470,4.47095,0.845703,0,0,0,0,0,0,0,-1,1644,554,4.47098,-0.845718
427,470,3.51038,1.19684,0,0,0,0,0,0,0,-1,1651,554,3.51039,-1.19684
434,470,3.31775,-1.37427,0,0,0,0,0,0,0,-1,1658,554,3.31781,1.37426
441,470,2.55457,-2.05902,0,0,0,0,0,0,0,-1,1665,554,2.55461,2.05904
448,470,3.27258,-2.64032,0,0,0,0,0,0,0,-1,1672,554,3.27257,2.64029
455,470,10.3658,-9.82233,0,0,0,0,0,0,0,-1,1679,554,10.3659,9.82233
462,470,11.0651,-11.9958,0,0,0,0,0,0,0,-1,1686,554,11.0651,11.9958
469,470,10.6837,-11.5508,0,0,0,0,0,0,0,-1,1693,554,10.6837,11.5508
476,470,10.7229,-10.9928,0.00308236,0.00396512,0.000835138,0.00446834,0.00257914,1.0285,0.00259003,0.0389429,1700,554,10.7229,10.9928
483,470,10.7965,-10.618,0.00312658,0.00346335,0.00115284,0.00446004,0.00212989,0.857916,0.00257587,0.0146173,1707,554,10.7965,10.618
490,470,10.7649,-10.2432,0.0029165,0.00286715,0.00117758,0.00406966,0.00171399,0.774923,0.00235933,0.0113494,1714,554,10.7649,10.2432
497,470,10.7522,-9.84045,0.00257403,0.0023854,0.00120441,0.00368781,0.00127162,0.746324,0.00216307,0.0119099,1721,554,10.7522,9.84044
504,470,10.7565,-9.47552,0.00211519,0.00174492,0.00109699,0.00304256,0.000817554,0.701803,0.0018182,0.0184699,1728,554,10.7565,9.47555
511,470,10.7842,-9.11926,0.0015427,0.00116351,0.000935268,0.0023074,0.000398814,0.685395,0.00142406,0.0249406,1735,554,10.7841,9.11927
518,470,10.8126,-8.71619,0.000855675,0.000601525,0.000736581,0.00147606,-1.88623e-05,0.699979,0.000990389,0.0244496,1742,554,10.8126,8.71618
525,470,10.7742,-8.22284,0.000104647,0.000132355,0.000465952,0.000584659,-0.000347657,0.80026,0.000544039,0.0156169,1749,554,10.7742,8.22285
532,470,10.7283,-7.75677,-0.000674618,-0.000230354,0.000217307,-0.000141738,-0.000763235,1.18359,0.000468775,0.0138021,1756,554,10.7283,7.75678
539,470,10.7164,-7.36835,-0.00147421,-0.000581974,-5.11373e-05,-0.000579052,-0.00147713,-1.51373,0.000859425,0.0154114,1763,554,10.7164,7.36833
546,470,10.7001,-6.97406,-0.00233735,-0.000946924,-0.000360128,-0.000859186,-0.00242509,-1.33182,0.00141981,0.0144424,1770,554,10.7,6.97408
553,470,10.7097,-6.53784,-0.00328974,-0.00117447,-0.000693074,-0.000967609,-0.0034966,-1.28075,0.00208477,0.0149016,1777,554,10.7097,6.53787
560,470,10.7119,-6.0686,-0.00422697,-0.00139319,-0.000987277,-0.00108315,-0.00453701,-1.26651,0.00273605,0.0234256,1784,554,10.7119,6.06857
567,470,10.6135,-5.64215,-0.00516418,-0.00174442,-0.00131327,-0.00129829,-0.0056103,-1.24332,0.00339131,0.0221455,1791,554,10.6135,5.64214
574,470,10.6693,-5.01599,0,0,0,0,0,0,0,-1,1798,554,10.6693,5.01598
581,470,8.24646,-4.06317,0,0,0,0,0,0,0,-1,1805,554,8.24648,4.06318
588,470,11.1803,1.74927,0,0,0,0,0,0,0,-1,1812,554,11.1803,-1.74926
595,470,4.72192,3.44116,0,0,0,0,0,0,0,-1,1819,554,4.72191,-3.44116
602,470,14.4307,2.76141,0,0,0,0,0,0,0,-1,1826,554,14.4306,-2.76139
609,470,20.9181,4.41058,0,0,0,0,0,0,0,-1,1833,554,20.9181,-4.4106
616,470,0,0,0,0,0,0,0,0,0,-1,1840,554,0,0
623,470,0,0,0,0,0,0,0,0,0,-1,1847,554,0,0
630,470,0,0,0,0,0,0,0,0,0,-1,1854,554,0,0
637,470,0,0,0,0,0,0,0,0,0,-1,1861,554,0,0
644,470,0,0,0,0,0,0,0,0,0,-1,1868,554,0,0
651,470,0,0,0,0,0,0,0,0,0,-1,1875,554,0,0
658,470,0,0,0,0,0,0,0,0,0,-1,1882,554,0,0
665,470,0,0,0,0,0,0,0,0,0,-1,1889,554,0,0
672,470,0,0,0,0,0,0,0,0,0,-1,1896,554,0,0
679,470,0,0,0,0,0,0,0,0,0,-1,1903,554,0,0
686,470,0,0,0,0,0,0,0,0,0,-1,1910,554,0,0
693,470,0,0,0,0,0,0,0,0,0,-1,1917,554,0,0
700,470,0,0,0,0,0,0,0,0,0,-1,1924,554,0,0
707,470,0,0,0,0,0,0,0,0,0,-1,1931,554,0,0
714,470,0,0,0,0,0,0,0,0,0,-1,1938,554,0,0
721,470,0,0,0,0,0,0,0,0,0,-1,1945,554,0,0
728,470,0,0,0,0,0,0,0,0,0,-1,1952,554,0,0
735,470,0,0,0,0,0,0,0,0,0,-1,1959,554,0,0
742,470,0,0,0,0,0,0,0,0,0,-1,1966,554,0,0
749,470,0,0,0,0,0,0,0,0,0,-1,1973,554,0,0
756,470,0,0,0,0,0,0,0,0,0,-1,1980,554,0,0
763,470,0,0,0,0,0,0,0,0,0,-1,1987,554,0,0
770,470,0,0,0,0,0,0,0,0,0,-1,1994,554,0,0
777,470,0,0,0,0,0,0,0,0,0,-1,2001,554,0,0
784,470,0,0,0,0,0,0,0,0,0,-1,2008,554,0,0
791,470,0,0,0,0,0,0,0,0,0,-1,2015,554,0,0
798,470,0,0,0,0,0,0,0,0,0,-1,2022,554,0,0
805,470,0,0,0,0,0,0,0,0,0,-1,2029,554,0,0
812,470,0,0,0,0,0,0,0,0,0,-1,2036,554,0,0
-700,463,0,0,0,0,0,0,0,0,0,-1,524,561,0,0
-693,463,0,0,0,0,0,0,0,0,0,-1,531,561,0,0
-686,463,0,0,0,0,0,0,0,0,0,-1,538,561,0,0
-679,463,0,0,0,0,0,0,0,0,0,-1,545,561,0,0
-672,463,0,0,0,0,0,0,0,0,0,-1,552,561,0,0
-665,463,0,0,0,0,0,0,0,0,0,-1,559,561,0,0
-658,463,0,0,0,0,0,0,0,0,0,-1,566,561,0,0
-651,463,0,0,0,0,0,0,0,0,0,-1,573,561,0,0
-644,463,0,0,0,0,0,0,0,0,0,-1,580,561,0,0
-637,463,0,0,0,0,0,0,0,0,0,-1,587,561,0,0
-630,463,0,0,0,0,0,0,0,0,0,-1,594,561,0,0
-623,463,0,0,0,0,0,0,0,0,0,-1,601,561,0,0
-616,463,0,0,0,0,0,0,0,0,0,-1,608,561,0,0
-609,463,0,0,0,0,0,0,0,0,0,-1,615,561,0,0
-602,463,0,0,0,0,0,0,0,0,0,-1,622,561,0,0
-595,463,0,0,0,0,0,0,0,0,0,-1,629,561,0,0
-588,463,0,0,0,0,0,0,0,0,0,-1,636,561,0,0
-581,463,0,0,0,0,0,0,0,0,0,-1,643,561,0,0
-574,463,0,0,0,0,0,0,0,0,0,-1,650,561,0,0
-567,463,0,0,0,0,0,0,0,0,0,-1,657,561,0,0
-560,463,0,0,0,0,0,0,0,0,0,-1,664,561,0,0
-553,463,0,0,0,0,0,0,0,0,0,-1,671,561,0,0
-546,463,0,0,0,0,0,0,0,0,0,-1,678,561,0,0
-539,463,0,0,0,0,0,0,0,0,0,-1,685,561,0,0
-532,463,0,0,0,0,0,0,0,0,0,-1,692,561,0,0
-525,463,0,0,0,0,0,0,0,0,0,-1,699,561,0,0
-518,463,0,0,0,0,0,0,0,0,0,-1,706,561,0,0
-511,463,0,0,0,0,0,0,0,0,0,-1,713,561,0,0
-504,463,0,0,0,0,0,0,0,0,0,-1,720,561,0,0
-497,463,-9.81451,-1.67126,0,0,0,0,0,0,0,-1,727,561,-9.81452,1.67127
-490,463,-8.57043,-1.58942,0,0,0,0,0,0,0,-1,734,561,-8.57045,1.58944
-483,463,-7.29224,-1.7226,0,0,0,0,0,0,0,-1,741,561,-7.29226,1.72261
-476,463,-5.77704,-1.7312,0,0,0,0,0,0,0,-1,748,561,-5.77703,1.73121
-469,463,-5.14545,-2.138,0,0,0,0,0,0,0,-1,755,561,-5.14546,2.13799
-462,463,-3.13672,-3.07977,0,0,0,0,0,0,0,-1,762,561,-3.13672,3.07974
-455,463,-2.91406,-5.61798,0,0,0,0,0,0,0,-1,769,561,-2.91406,5.61801
-448,463,-3.23743,-6.82068,0,0,0,0,0,0,0,-1,776,561,-3.2374,6.82066
-441,463,-3.30151,-7.33105,-0.000187906,0.00837541,-0.0046639,0.010425,-0.00223748,-1.15675,0.00780348,0.0447906,783,561,-3.30149,7.33108
-434,463,-3.42688,-7.80798,-0.000644284,0.00662717,-0.00345551,0.00800732,-0.00202443,-1.1908,0.00612557,0.01949,790,561,-3.42689,7.80797
-427,463,-3.4303,-8.20319,-0.000786183,0.00523465,-0.00258612,0.00619294,-0.00174447,-1.21593,0.0048166,0.010239,797,561,-3.43028,8.2032
-420,463,-3.41534,-8.58679,-0.00102073,0.00398902,-0.00175411,0.00454213,-0.00157385,-1.26534,0.00366707,0.00995563,804,561,-3.41533,8.5868
-413,463,-3.45496,-8.98444,-0.000937109,0.00275478,-0.001131,0.00307371,-0.00125604,-1.29595,0.00257216,0.00896106,811,561,-3.45494,8.98442
-406,463,-3.49866,-9.37573,-0.000587259,0.00179462,-0.00062598,0.00194911,-0.000741752,-1.32883,0.00160485,0.00868012,818,561,-3.49868,9.37575
-399,463,-3.49457,-9.78259,-0.000248333,0.00082121,-0.00014217,0.000839785,-0.000266908,-1.44088,0.000666875,0.0100239,825,561,-3.49458,9.78262
-392,463,-3.48688,-10.1721,9.35958e-05,-0.000208335,0.000364013,0.000336707,-0.000451446,0.58883,0.000456645,0.0103151,832,561,-3.48688,10.1721
-385,463,-3.48901,-10.5551,0.000544208,-0.000977102,0.000783077,0.000875251,-0.00130815,0.399961,0.00126882,0.010978,839,561,-3.489,10.5551
-378,463,-3.50793,-10.9363,0.000975312,-0.00171592,0.00115387,0.00140229,-0.0021429,0.354417,0.00206165,0.011162,846,561,-3.50795,10.9363
-371,463,-3.53015,-11.3185,0.00141139,-0.00235797,0.00150553,0.0019389,-0.00288548,0.337012,0.00280317,0.010966,853,561,-3.53017,11.3185
-364,463,-3.51489,-11.6588,0.00192294,-0.0028673,0.0017822,0.00251325,-0.00345762,0.319856,0.00346163,0.0132234,860,561,-3.51488,11.6588
-357,463,-3.52118,-11.9951,0.00251643,-0.00327953,0.00193718,0.00310427,-0.00386738,0.294621,0.00403311,0.017377,867,561,-3.52117,11.9951
-350,463,-3.4361,-12.4102,0.0031801,-0.00358388,0.00194124,0.00369763,-0.00410141,0.260539,0.00450479,0.025639,874,561,-3.43608,12.4102
-343,463,-3.29822,-12.6786,0,0,0,0,0,0,0,-1,881,561,-3.29823,12.6786
-336,463,-2.94928,-12.2127,0,0,0,0,0,0,0,-1,888,561,-2.94925,12.2127
-329,463,-2.64307,-12.7037,0,0,0,0,0,0,0,-1,895,561,-2.64307,12.7038
-322,463,-1.82898,-9.11957,0,0,0,0,0,0,0,-1,902,561,-1.829,9.11957
-315,463,-0.944763,-5.96234,0,0,0,0,0,0,0,-1,909,561,-0.94479,5.96237
-308,463,-1.1535,-3.17889,0,0,0,0,0,0,0,-1,916,561,-1.15352,3.17889
-301,463,-1.50366,-3.15338,0,0,0,0,0,0,0,-1,923,561,-1.50364,3.15341
-294,463,-2.35889,-3.93463,0,0,0,0,0,0,0,-1,930,561,-2.35886,3.93465
-287,463,-2.80322,2.73999,0,0,0,0,0,0,0,-1,937,561,-2.80322,-2.74
-280,463,-12.864,5.25146,0,0,0,0,0,0,0,-1,944,561,-12.864,-5.25149
-273,463,-12.4598,3.39178,0,0,0,0,0,0,0,-1,951,561,-12.4598,-3.3918
-266,463,-8.40161,-3.2511,0,0,0,0,0,0,0,-1,958,561,-8.4016,3.25109
-259,463,-6.23285,-5.68842,0,0,0,0,0,0,0,-1,965,561,-6.23288,5.68843
-252,463,0,0,0,0,0,0,0,0,0,-1,972,561,0,0
-245,463,0,0,0,0,0,0,0,0,0,-1,979,561,0,0
-238,463,0,0,0,0,0,0,0,0,0,-1,986,561,0,0
-231,463,0,0,0,0,0,0,0,0,0,-1,993,561,0,0
-224,463,0,0,0,0,0,0,0,0,0,-1,1000,561,0,0
-217,463,0,0,0,0,0,0,0,0,0,-1,1007,561,0,0
-210,463,0,0,0,0,0,0,0,0,0,-1,1014,561,0,0
-203,463,0,0,0,0,0,0,0,0,0,-1,1021,561,0,0
-196,463,0,0,0,0,0,0,0,0,0,-1,1028,561,0,0
-189,463,0,0,0,0,0,0,0,0,0,-1,1035,561,0,0
-182,463,0,0,0,0,0,0,0,0,0,-1,1042,561,0,0
-175,463,0,0,0,0,0,0,0,0,0,-1,1049,561,0,0
-168,463,0,0,0,0,0,0,0,0,0,-1,1056,561,0,0
-161,463,0,0,0,0,0,0,0,0,0,-1,1063,561,0,0
-154,463,0,0,0,0,0,0,0,0,0,-1,1070,561,0,0
-147,463,0,0,0,0,0,0,0,0,0,-1,1077,561,0,0
-140,463,0,0,0,0,0,0,0,0,0,-1,1084,561,0,0
-133,463,0,0,0,0,0,0,0,0,0,-1,1091,561,0,0
-126,463,0,0,0,0,0,0,0,0,0,-1,1098,561,0,0
-119,463,0,0,0,0,0,0,0,0,0,-1,1105,561,0,0
-112,463,0,0,0,0,0,0,0,0,0,-1,1112,561,0,0
-105,463,0,0,0,0,0,0,0,0,0,-1,1119,561,0,0
-98,463,0,0,0,0,0,0,0,0,0,-1,1126,561,0,0
-91,463,0,0,0,0,0,0,0,0,0,-1,1133,561,0,0
-84,463,0,0,0,0,0,0,0,0,0,-1,1140,561,0,0
-77,463,0,0,0,0,0,0,0,0,0,-1,1147,561,0,0
-70,463,0,0,0,0,0,0,0,0,0,-1,1154,561,0,0
-63,463,0,0,0,0,0,0,0,0,0,-1,1161,561,0,0
-56,463,0,0,0,0,0,0,0,0,0,-1,1168,561,0,0
-49,463,0,0,0,0,0,0,0,0,0,-1,1175,561,0,0
-42,463,0,0,0,0,0,0,0,0,0,-1,1182,561,0,0
-35,463,0,0,0,0,0,0,0,0,0,-1,1189,561,0,0
-28,463,0,0,0,0,0,0,0,0,0,-1,1196,561,0,0
-21,463,0,0,0,0,0,0,0,0,0,-1,1203,561,0,0
-14,463,0,0,0,0,0,0,0,0,0,-1,1210,561,0,0
-7,463,0,0,0,0,0,0,0,0,0,-1,1217,561,0,0
0,463,0,0,0,0,0,0,0,0,0,-1,1224,561,0,0
7,463,0,0,0,0,0,0,0,0,0,-1,1231,561,0,0
14,463,0,0,0,0,0,0,0,0,0,-1,1238,561,0,0
21,463,0,0,0,0,0,0,0,0,0,-1,1245,561,0,0
28,463,0,0,0,0,0,0,0,0,0,-1,1252,561,0,0
35,463,0,0,0,0,0,0,0,0,0,-1,1259,561,0,0
42,463,0,0,0,0,0,0,0,0,0,-1,1266,561,0,0
49,463,0,0,0,0,0,0,0,0,0,-1,1273,561,0,0
56,463,0,0,0,0,0,0,0,0,0,-1,1280,561,0,0
63,463,0,0,0,0,0,0,0,0,0,-1,1287,561,0,0
70,463,0,0,0,0,0,0,0,0,0,-1,1294,561,0,0
77,463,0,0,0,0,0,0,0,0,0,-1,1301,561,0,0
84,463,0,0,0,0,0,0,0,0,0,-1,1308,561,0,0
91,463,0,0,0,0,0,0,0,0,0,-1,1315,561,0,0
98,463,0,0,0,0,0,0,0,0,0,-1,1322,561,0,0
105,463,0,0,0,0,0,0,0,0,0,-1,1329,561,0,0
112,463,0,0,0,0,0,0,0,0,0,-1,1336,561,0,0
119,463,0,0,0,0,0,0,0,0,0,-1,1343,561,0,0
126,463,0,0,0,0,0,0,0,0,0,-1,1350,561,0,0
133,463,0,0,0,0,0,0,0,0,0,-1,1357,561,0,0
140,463,0,0,0,0,0,0,0,0,0,-1,1364,561,0,0
147,463,0,0,0,0,0,0,0,0,0,-1,1371,561,0,0
154,463,0,0,0,0,0,0,0,0,0,-1,1378,561,0,0
161,463,0,0,0,0,0,0,0,0,0,-1,1385,561,0,0
168,463,0,0,0,0,0,0,0,0,0,-1,1392,561,0,0
175,463,0,0,0,0,0,0,0,0,0,-1,1399,561,0,0
182,463,0,0,0,0,0,0,0,0,0,-1,1406,561,0,0
189,463,0,0,0,0,0,0,0,0,0,-1,1413,561,0,0
196,463,0,0,0,0,0,0,0,0,0,-1,1420,561,0,0
203,463,0,0,0,0,0,0,0,0,0,-1,1427,561,0,0
210,463,0,0,0,0,0,0,0,0,0,-1,1434,561,0,0
217,463,0,0,0,0,0,0,0,0,0,-1,1441,561,0,0
224,463,0,0,0,0,0,0,0,0,0,-1,1448,561,0,0
231,463,0,0,0,0,0,0,0,0,0,-1,1455,561,0,0
238,463,0,0,0,0,0,0,0,0,0,-1,1462,561,0,0
245,463,0,0,0,0,0,0,0,0,0,-1,1469,561,0,0
252,463,0,0,0,0,0,0,0,0,0,-1,1476,561,0,0
259,463,0,0,0,0,0,0,0,0,0,-1,1483,561,0,0
266,463,0,0,0,0,0,0,0,0,0,-1,1490,561,0,0
273,463,0,0,0,0,0,0,0,0,0,-1,1497,561,0,0
280,463,0,0,0,0,0,0,0,0,0,-1,1504,561,0,0
287,463,0,0,0,0,0,0,0,0,0,-1,1511,561,0,0
294,463,0,0,0,0,0,0,0,0,0,-1,1518,561,0,0
301,463,0,0,0,0,0,0,0,0,0,-1,1525,561,0,0
308,463,0,0,0,0,0,0,0,0,0,-1,1532,561,0,0
315,463,0,0,0,0,0,0,0,0,0,-1,1539,561,0,0
322,463,0,0,0,0,0,0,0,0,0,-1,1546,561,0,0
329,463,0,0,0,0,0,0,0,0,0,-1,1553,561,0,0
336,463,0,0,0,0,0,0,0,0,0,-1,1560,561,0,0
343,463,0,0,0,0,0,0,0,0,0,-1,1567,561,0,0
350,463,0,0,0,0,0,0,0,0,0,-1,1574,561,0,0
357,463,0,0,0,0,0,0,0,0,0,-1,1581,561,0,0
364,463,0,0,0,0,0,0,0,0,0,-1,1588,561,0,0
371,463,1.75842,0.152588,0,0,0,0,0,0,0,-1,1595,561,1.75844,-0.152558
378,463,4.58813,-0.0444336,0,0,0,0,0,0,0,-1,1602,561,4.58809,0.0444505
385,463,8.88574,1.65057,0,0,0,0,0,0,0,-1,1609,561,8.88575,-1.65055
392,463,14.0912,2.50513,0,0,0,0,0,0,0,-1,1616,561,14.0912,-2.5051
399,463,21.4769,2.7002,0,0,0,0,0,0,0,-1,1623,561,21.477,-2.70017
406,463,26.2987,4.32318,0,0,0,0,0,0,0,-1,1630,561,26.2987,-4.3232
413,463,26.5011,2.65222,0,0,0,0,0,0,0,-1,1637,561,26.5011,-2.65224
420,463,8.849,2.26611,0,0,0,0,0,0,0,-1,1644,561,8.84899,-2.26613
427,463,5.12207,1.69183,0,0,0,0,0,0,0,-1,1651,561,5.12206,-1.69184
434,463,4.59814,1.81995,0,0,0,0,0,0,0,-1,1658,561,4.59812,-1.81994
441,463,1.76392,-5.99225,0,0,0,0,0,0,0,-1,1665,561,1.7639,5.99225
448,463,2.49939,-4.30536,0,0,0,0,0,0,0,-1,1672,561,2.49941,4.30536
455,463,4.40295,-3.02557,0,0,0,0,0,0,0,-1,1679,561,4.40299,3.02558
462,463,5.38293,-4.06445,0,0,0,0,0,0,0,-1,1686,561,5.38289,4.06444
469,463,5.94373,-4.50647,0,0,0,0,0,0,0,-1,1693,561,5.94368,4.50646
476,463,10.7637,-11.219,0,0,0,0,0,0,0,-1,1700,561,10.7637,11.219
483,463,11.0428,-10.7766,0.00419509,0.00398221,0.00187898,0.00597064,0.00220666,0.757104,0.00348602,0.0460581,1707,561,11.0429,10.7765
490,463,11.1714,-10.267,0.00393863,0.00335411,0.00180938,0.0054792,0.00181354,0.705328,0.0032231,0.0229994,1714,561,11.1714,10.2669
497,463,11.1544,-9.81274,0.00352433,0.00286485,0.00175264,0.00497798,0.00141119,0.692415,0.0029625,0.0129761,1721,561,11.1544,9.81273
504,463,11.171,-9.44385,0.00298154,0.00221509,0.00155721,0.00420199,0.00099464,0.664749,0.00253566,0.0152452,1728,561,11.171,9.44387
511,463,11.1948,-9.07001,0.00236097,0.00165111,0.00132228,0.00337513,0.000636954,0.654277,0.00207068,0.0211582,1735,561,11.1948,9.07003
518,463,11.2269,-8.64966,0.0016721,0.00108837,0.00108266,0.00250154,0.000258926,0.653738,0.00158843,0.0222349,1742,561,11.2269,8.64965
525,463,11.1681,-8.21912,0.000912594,0.000674156,0.000793322,0.00159561,-8.85467e-06,0.710817,0.0010667,0.0178248,1749,561,11.1681,8.21912
532,463,11.1827,-7.77155,0.000136919,0.000341563,0.000528718,0.000777769,-0.000299287,0.880981,0.000641967,0.0155862,1756,561,11.1827,7.77154
539,463,11.163,-7.3255,-0.000646463,-3.90274e-05,0.000233889,4.05937e-05,-0.000726084,1.24268,0.000498139,0.0159929,1763,561,11.163,7.32553
546,463,11.1226,-6.94183,-0.00144905,-0.000406685,-6.94113e-05,-0.000402083,-0.00145365,-1.5046,0.000866741,0.0129244,1770,561,11.1226,6.94182
553,463,11.1228,-6.51697,-0.00231657,-0.000669334,-0.000387945,-0.000582541,-0.00240336,-1.3507,0.00144767,0.0107276,1777,561,11.1228,6.51694
560,463,11.1349,-6.01434,-0.00323079,-0.00087041,-0.000664365,-0.000696263,-0.00340494,-1.31444,0.00207714,0.0145904,1784,561,11.1349,6.01434
567,463,11.0259,-5.61438,-0.00412281,-0.00119522,-0.000957217,-0.000910031,-0.004408,-1.28123,0.00268719,0.0217523,1791,561,11.0258,5.61436
574,463,10.8248,-5.3512,0,0,0,0,0,0,0,-1,1798,561,10.8248,5.35118
581,463,7.77832,-2.18085,0,0,0,0,0,0,0,-1,1805,561,7.77828,2.18082
588,463,1.97424,2.16016,0,0,0,0,0,0,0,-1,1812,561,1.97422,-2.16013
595,463,9.98657,2.99854,0,0,0,0,0,0,0,-1,1819,561,9.98662,-2.99856
602,463,17.2202,4.91302,0,0,0,0,0,0,0,-1,1826,561,17.2202,-4.91305
609,463,17.96,4.03131,0,0,0,0,0,0,0,-1,1833,561,17.96,-4.03132
616,463,20.8352,3.15131,0,0,0,0,0,0,0,-1,1840,561,20.8352,-3.1513
623,463,0,0,0,0,0,0,0,0,0,-1,1847,561,0,0
630,463,0,0,0,0,0,0,0,0,0,-1,1854,561,0,0
637,463,0,0,0,0,0,0,0,0,0,-1,1861,561,0,0
644,463,0,0,0,0,0,0,0,0,0,-1,1868,561,0,0
651,463,0,0,0,0,0,0,0,0,0,-1,1875,561,0,0
658,463,0,0,0,0,0,0,0,0,0,-1,1882,561,0,0
665,463,0,0,0,0,0,0,0,0,0,-1,1889,561,0,0
672,463,0,0,0,0,0,0,0,0,0,-1,1896,561,0,0
679,463,0,0,0,0,0,0,0,0,0,-1,1903,561,0,0
686,463,0,0,0,0,0,0,0,0,0,-1,1910,561,0,0
693,463,0,0,0,0,0,0,0,0,0,-1,1917,561,0,0
700,463,0,0,0,0,0,0,0,0,0,-1,1924,561,0,0
707,463,0,0,0,0,0,0,0,0,0,-1,1931,561,0,0
714,463,0,0,0,0,0,0,0,0,0,-1,1938,561,0,0
721,463,0,0,0,0,0,0,0,0,0,-1,1945,561,0,0
728,463,0,0,0,0,0,0,0,0,0,-1,1952,561,0,0
735,463,0,0,0,0,0,0,0,0,0,-1,1959,561,0,0
742,463,0,0,0,0,0,0,0,0,0,-1,1966,561,0,0
749,463,0,0,0,0,0,0,0,0,0,-1,1973,561,0,0
756,463,0,0,0,0,0,0,0,0,0,-1,1980,561,0,0
763,463,0,0,0,0,0,0,0,0,0,-1,1987,561,0,0
770,463,0,0,0,0,0,0,0,0,0,-1,1994,561,0,0
777,463,0,0,0,0,0,0,0,0,0,-1,2001,561,0,0
784,463,0,0,0,0,0,0,0,0,0,-1,2008,561,0,0
791,463,0,0,0,0,0,0,0,0,0,-1,2015,561,0,0
798,463,0,0,0,0,0,0,0,0,0,-1,2022,561,0,0
805,463,0,0,0,0,0,0,0,0,0,-1,2029,561,0,0
812,463,0,0,0,0,0,0,0,0,0,-1,2036,561,0,0
-700,456,0,0,0,0,0,0,0,0,0,-1,524,568,0,0
-693,456,0,0,0,0,0,0,0,0,0,-1,531,568,0,0
-686,456,0,0,0,0,0,0,0,0,0,-1,538,568,0,0
-679,456,0,0,0,0,0,0,0,0,0,-1,545,568,0,0
-672,456,0,0,0,0,0,0,0,0,0,-1,552,568,0,0
-665,456,0,0,0,0,0,0,0,0,0,-1,559,568,0,0
-658,456,0,0,0,0,0,0,0,0,0,-1,566,568,0,0
-651,456,0,0,0,0,0,0,0,0,0,-1,573,568,0,0
-644,456,0,0,0,0,0,0,0,0,0,-1,580,568,0,0
-637,456,0,0,0,0,0,0,0,0,0,-1,587,568,0,0
-630,456,0,0,0,0,0,0,0,0,0,-1,594,568,0,0
-623,456,0,0,0,0,0,0,0,0,0,-1,601,568,0,0
-616,456,0,0,0,0,0,0,0,0,0,-1,608,568,0,0
-609,456,0,0,0,0,0,0,0,0,0,-1,615,568,0,0
-602,456,0,0,0,0,0,0,0,0,0,-1,622,568,0,0
-595,456,0,0,0,0,0,0,0,0,0,-1,629,568,0,0
-588,456,0,0,0,0,0,0,0,0,0,-1,636,568,0,0
-581,456,0,0,0,0,0,0,0,0,0,-1,643,568,0,0
-574,456,0,0,0,0,0,0,0,0,0,-1,650,568,0,0
-567,456,0,0,0,0,0,0,0,0,0,-1,657,568,0,0
-560,456,0,0,0,0,0,0,0,0,0,-1,664,568,0,0
-553,456,0,0,0,0,0,0,0,0,0,-1,671,568,0,0
-546,456,0,0,0,0,0,0,0,0,0,-1,678,568,0,0
-539,456,0,0,0,0,0,0,0,0,0,-1,685,568,0,0
-532,456,0,0,0,0,0,0,0,0,0,-1,692,568,0,0
-525,456,0,0,0,0,0,0,0,0,0,-1,699,568,0,0
-518,456,0,0,0,0,0,0,0,0,0,-1,706,568,0,0
-511,456,0,0,0,0,0,0,0,0,0,-1,713,568,0,0
-504,456,-10.3994,-2.34839,0,0,0,0,0,0,0,-1,720,568,-10.3994,2.3484
-497,456,-9.21375,-2.38068,0,0,0,0,0,0,0,-1,727,568,-9.21372,2.38069
-490,456,-8.09058,-2.31824,0,0,0,0,0,0,0,-1,734,568,-8.09057,2.31821
-483,456,-6.66119,-2.24329,0,0,0,0,0,0,0,-1,741,568,-6.66121,2.24331
-476,456,-5.1499,-2.21185,0,0,0,0,0,0,0,-1,748,568,-5.14992,2.21184
-469,456,-2.81238,-3.51501,0,0,0,0,0,0,0,-1,755,568,-2.81237,3.51501
-462,456,-3.75122,-5.14362,0,0,0,0,0,0,0,-1,762,568,-3.7512,5.14361
-455,456,-3.8764,-5.99023,0,0,0,0,0,0,0,-1,769,568,-3.8764,5.99025
-448,456,-3.75562,-6.69073,0.00178648,0.00897725,-0.00591481,0.0123037,-0.00153997,-1.05849,0.00876102,0.0464126,776,568,-3.75561,6.69076
-441,456,-3.76147,-7.3512,0.000684229,0.00749084,-0.00441116,0.00965896,-0.00148389,-1.11396,0.00698666,0.0233292,783,568,-3.76149,7.35119
-434,456,-3.82355,-7.79285,2.24142e-05,0.00597411,-0.00319592,0.00736513,-0.00136861,-1.16028,0.00542415,0.0126967,790,568,-3.82356,7.79284
-427,456,-3.81464,-8.19055,-0.000302226,0.00467098,-0.00225951,0.00554423,-0.00117547,-1.202,0.00414393,0.00861729,797,568,-3.81464,8.19055
-420,456,-3.82513,-8.58734,-0.000701328,0.00335076,-0.00129643,0.00373004,-0.00108061,-1.28618,0.00291446,0.00884113,804,568,-3.82511,8.58737
-413,456,-3.8559,-8.97504,-0.000745393,0.00210087,-0.000585782,0.00221671,-0.000861236,-1.37556,0.00183359,0.00823392,811,568,-3.85588,8.97507
-406,456,-3.88849,-9.35834,-0.000483855,0.00106952,-1.61874e-06,0.00106952,-0.000483857,-1.56975,0.000917845,0.00837241,818,568,-3.88849,9.35835
-399,456,-3.87201,-9.75732,-0.000217897,-2.22299e-05,0.000562164,0.00045055,-0.000690677,0.871551,0.000663732,0.0100819,825,568,-3.87202,9.75734
-392,456,-3.84009,-10.1425,7.11004e-05,-0.00118958,0.00114355,0.000746532,-0.00186501,0.533511,0.00155318,0.0099427,832,568,-3.84006,10.1425
-385,456,-3.86383,-10.5255,0.000471316,-0.00214683,0.00165191,0.00126996,-0.00294548,0.450335,0.00249705,0.0100147,839,568,-3.86386,10.5255
-378,456,-3.90137,-10.9289,0.000856368,-0.00310625,0.00213665,0.00178896,-0.00403885,0.411551,0.00344726,0.0110942,846,568,-3.90135,10.9289
-371,456,-3.91278,-11.306,0.00131108,-0.00396102,0.00259295,0.00237262,-0.00502256,0.388578,0.00436003,0.0116419,853,568,-3.9128,11.306
-364,456,-3.9054,-11.6306,0.00190399,-0.00460218,0.00292864,0.00302806,-0.00572626,0.366481,0.00513371,0.0154329,860,568,-3.90541,11.6306
-357,456,-3.84644,-12.0049,0.00259212,-0.00516688,0.00311443,0.00368758,-0.00626233,0.33822,0.00580834,0.0257719,867,568,-3.84646,12.0049
-350,456,-3.61884,-12.5958,0,0,0,0,0,0,0,-1,874,568,-3.61881,12.5958
-343,456,-3.39081,-12.0217,0,0,0,0,0,0,0,-1,881,568,-3.39078,12.0217
-336,456,-3.04517,-12.4623,0,0,0,0,0,0,0,-1,888,568,-3.04519,12.4624
-329,456,-1.06183,-10.7184,0,0,0,0,0,0,0,-1,895,568,-1.06184,10.7184
-322,456,-0.662537,-7.66632,0,0,0,0,0,0,0,-1,902,568,-0.662564,7.66633
-315,456,-0.675476,-3.38397,0,0,0,0,0,0,0,-1,909,568,-0.675473,3.38399
-308,456,-1.1618,-3.15314,0,0,0,0,0,0,0,-1,916,568,-1.16178,3.15314
-301,456,-1.83551,-3.26447,0,0,0,0,0,0,0,-1,923,568,-1.8355,3.26449
-294,456,-2.93414,-3.35449,0,0,0,0,0,0,0,-1,930,568,-2.93413,3.35451
-287,456,-3.7569,-3.53101,0,0,0,0,0,0,0,-1,937,568,-3.75692,3.53101
-280,456,-13.072,4.52856,0,0,0,0,0,0,0,-1,944,568,-13.072,-4.52855
-273,456,-8.88751,-2.30176,0,0,0,0,0,0,0,-1,951,568,-8.88752,2.30176
-266,456,-5.27051,-5.91486,0,0,0,0,0,0,0,-1,958,568,-5.27052,5.91487
-259,456,0,0,0,0,0,0,0,0,0,-1,965,568,0,0
-252,456,0,0,0,0,0,0,0,0,0,-1,972,568,0,0
-245,456,0,0,0,0,0,0,0,0,0,-1,979,568,0,0
-238,456,0,0,0,0,0,0,0,0,0,-1,986,568,0,0
-231,456,0,0,0,0,0,0,0,0,0,-1,993,568,0,0
-224,456,0,0,0,0,0,0,0,0,0,-1,1000,568,0,0
-217,456,0,0,0,0,0,0,0,0,0,-1,1007,568,0,0
-210,456,0,0,0,0,0,0,0,0,0,-1,1014,568,0,0
-203,456,0,0,0,0,0,0,0,0,0,-1,1021,568,0,0
-196,456,0,0,0,0,0,0,0,0,0,-1,1028,568,0,0
-189,456,0,0,0,0,0,0,0,0,0,-1,1035,568,0,0
-182,456,0,0,0,0,0,0,0,0,0,-1,1042,568,0,0
-175,456,0,0,0,0,0,0,0,0,0,-1,1049,568,0,0
-168,456,0,0,0,0,0,0,0,0,0,-1,1056,568,0,0
-161,456,0,0,0,0,0,0,0,0,0,-1,1063,568,0,0
-154,456,0,0,0,0,0,0,0,0,0,-1,1070,568,0,0
-147,456,0,0,0,0,0,0,0,0,0,-1,1077,568,0,0
-140,456,0,0,0,0,0,0,0,0,0,-1,1084,568,0,0
-133,456,0,0,0,0,0,0,0,0,0,-1,1091,568,0,0
-126,456,0,0,0,0,0,0,0,0,0,-1,1098,568,0,0
-119,456,0,0,0,0,0,0,0,0,0,-1,1105,568,0,0
-112,456,0,0,0,0,0,0,0,0,0,-1,1112,568,0,0
-105,456,0,0,0,0,0,0,0,0,0,-1,1119,568,0,0
-98,456,0,0,0,0,0,0,0,0,0,-1,1126,568,0,0
-91,456,0,0,0,0,0,0,0,0,0,-1,1133,568,0,0
-84,456,0,0,0,0,0,0,0,0,0,-1,1140,568,0,0
-77,456,0,0,0,0,0,0,0,0,0,-1,1147,568,0,0
-70,456,0,0,0,0,0,0,0,0,0,-1,1154,568,0,0
-63,456,0,0,0,0,0,0,0,0,0,-1,1161,568,0,0
-56,456,0,0,0,0,0,0,0,0,0,-1,1168,568,0,0
-49,456,0,0,0,0,0,0,0,0,0,-1,1175,568,0,0
-42,456,0,0,0,0,0,0,0,0,0,-1,1182,568,0,0
-35,456,0,0,0,0,0,0,0,0,0,-1,1189,568,0,0
-28,456,0,0,0,0,0,0,0,0,0,-1,1196,568,0,0
-21,456,0,0,0,0,0,0,0,0,0,-1,1203,568,0,0
-14,456,0,0,0,0,0,0,0,0,0,-1,1210,568,0,0
-7,456,0,0,0,0,0,0,0,0,0,-1,1217,568,0,0
0,456,0,0,0,0,0,0,0,0,0,-1,1224,568,0,0
7,456,0,0,0,0,0,0,0,0,0,-1,1231,568,0,0
14,456,0,0,0,0,0,0,0,0,0,-1,1238,568,0,0
21,456,0,0,0,0,0,0,0,0,0,-1,1245,568,0,0
28,456,0,0,0,0,0,0,0,0,0,-1,1252,568,0,0
35,456,0,0,0,0,0,0,0,0,0,-1,1259,568,0,0
42,456,0,0,0,0,0,0,0,0,0,-1,1266,568,0,0
49,456,0,0,0,0,0,0,0,0,0,-1,1273,568,0,0
56,456,0,0,0,0,0,0,0,0,0,-1,1280,568,0,0
63,456,0,0,0,0,0,0,0,0,0,-1,1287,568,0,0
70,456,0,0,0,0,0,0,0,0,0,-1,1294,568,0,0
77,456,0,0,0,0,0,0,0,0,0,-1,1301,568,0,0
84,456,0,0,0,0,0,0,0,0,0,-1,1308,568,0,0
91,456,0,0,0,0,0,0,0,0,0,-1,1315,568,0,0
98,456,0,0,0,0,0,0,0,0,0,-1,1322,568,0,0
105,456,0,0,0,0,0,0,0,0,0,-1,1329,568,0,0
112,456,0,0,0,0,0,0,0,0,0,-1,1336,568,0,0
119,456,0,0,0,0,0,0,0,0,0,-1,1343,568,0,0
126,456,0,0,0,0,0,0,0,0,0,-1,1350,568,0,0
133,456,0,0,0,0,0,0,0,0,0,-1,1357,568,0,0
140,456,0,0,0,0,0,0,0,0,0,-1,1364,568,0,0
147,456,0,0,0,0,0,0,0,0,0,-1,1371,568,0,0
154,456,0,0,0,0,0,0,0,0,0,-1,1378,568,0,0
161,456,0,0,0,0,0,0,0,0,0,-1,1385,568,0,0
168,456,0,0,0,0,0,0,0,0,0,-1,1392,568,0,0
175,456,0,0,0,0,0,0,0,0,0,-1,1399,568,0,0
182,456,0,0,0,0,0,0,0,0,0,-1,1406,568,0,0
189,456,0,0,0,0,0,0,0,0,0,-1,1413,568,0,0
196,456,0,0,0,0,0,0,0,0,0,-1,1420,568,0,0
203,456,0,0,0,0,0,0,0,0,0,-1,1427,568,0,0
210,456,0,0,0,0,0,0,0,0,0,-1,1434,568,0,0
217,456,0,0,0,0,0,0,0,0,0,-1,1441,568,0,0
224,456,0,0,0,0,0,0,0,0,0,-1,1448,568,0,0
231,456,0,0,0,0,0,0,0,0,0,-1,1455,568,0,0
238,456,0,0,0,0,0,0,0,0,0,-1,1462,568,0,0
245,456,0,0,0,0,0,0,0,0,0,-1,1469,568,0,0
252,456,0,0,0,0,0,0,0,0,0,-1,1476,568,0,0
259,456,0,0,0,0,0,0,0,0,0,-1,1483,568,0,0
266,456,0,0,0,0,0,0,0,0,0,-1,1490,568,0,0
273,456,0,0,0,0,0,0,0,0,0,-1,1497,568,0,0
280,456,0,0,0,0,0,0,0,0,0,-1,1504,568,0,0
287,456,0,0,0,0,0,0,0,0,0,-1,1511,568,0,0
294,456,0,0,0,0,0,0,0,0,0,-1,1518,568,0,0
301,456,0,0,0,0,0,0,0,0,0,-1,1525,568,0,0
308,456,0,0,0,0,0,0,0,0,0,-1,1532,568,0,0
315,456,0,0,0,0,0,0,0,0,0,-1,1539,568,0,0
322,456,0,0,0,0,0,0,0,0,0,-1,1546,568,0,0
329,456,0,0,0,0,0,0,0,0,0,-1,1553,568,0,0
336,456,0,0,0,0,0,0,0,0,0,-1,1560,568,0,0
343,456,0,0,0,0,0,0,0,0,0,-1,1567,568,0,0
350,456,0,0,0,0,0,0,0,0,0,-1,1574,568,0,0
357,456,0,0,0,0,0,0,0,0,0,-1,1581,568,0,0
364,456,0,0,0,0,0,0,0,0,0,-1,1588,568,0,0
371,456,0,0,0,0,0,0,0,0,0,-1,1595,568,0,0
378,456,0,0,0,0,0,0,0,0,0,-1,1602,568,0,0
385,456,5.66284,0.660645,0,0,0,0,0,0,0,-1,1609,568,5.66285,-0.660615
392,456,16.7321,4.45581,0,0,0,0,0,0,0,-1,1616,568,16.732,-4.45581
399,456,24.1917,5.99652,0,0,0,0,0,0,0,-1,1623,568,24.1916,-5.99651
406,456,24.446,4.53003,0,0,0,0,0,0,0,-1,1630,568,24.446,-4.53005
413,456,24.9418,2.90521,0,0,0,0,0,0,0,-1,1637,568,24.9418,-2.90524
420,456,25.3048,1.04712,0,0,0,0,0,0,0,-1,1644,568,25.3048,-1.04713
427,456,6.21375,2.02905,0,0,0,0,0,0,0,-1,1651,568,6.21372,-2.02904
434,456,3.0719,-4.86285,0,0,0,0,0,0,0,-1,1658,568,3.07184,4.86287
441,456,2.90344,-4.70459,0,0,0,0,0,0,0,-1,1665,568,2.90346,4.7046
448,456,3.06995,-4.93689,0,0,0,0,0,0,0,-1,1672,568,3.06991,4.93687
455,456,3.46582,-3.43701,0,0,0,0,0,0,0,-1,1679,568,3.46585,3.43698
462,456,4.68445,-4.45831,0,0,0,0,0,0,0,-1,1686,568,4.68439,4.45833
469,456,4.93201,-2.289,0,0,0,0,0,0,0,-1,1693,568,4.93197,2.28903
476,456,4.8363,-2.79364,0,0,0,0,0,0,0,-1,1700,568,4.83636,2.79363
483,456,11.1058,-11.1657,0,0,0,0,0,0,0,-1,1707,568,11.1058,11.1657
490,456,11.4531,-10.4557,0,0,0,0,0,0,0,-1,1714,568,11.4531,10.4558
497,456,11.6012,-9.88177,0.00461464,0.00337498,0.0023817,0.00645584,0.00153378,0.658098,0.00389464,0.0410631,1721,568,11.6012,9.88177
504,456,11.552,-9.41107,0.003944,0.00263832,0.00206549,0.00545737,0.00112495,0.632331,0.00332727,0.0116915,1728,568,11.552,9.41109
511,456,11.5806,-9.00775,0.00325571,0.00201996,0.00173783,0.00448224,0.000793429,0.614597,0.00276194,0.0135442,1735,568,11.5806,9.00777
518,456,11.5785,-8.60254,0.00255128,0.00140881,0.00145135,0.00353976,0.00042033,0.597914,0.00223296,0.0162708,1742,568,11.5785,8.60253
525,456,11.5566,-8.21307,0.0017654,0.00102111,0.00114687,0.00259899,0.00018752,0.628514,0.00167366,0.0157706,1749,568,11.5567,8.21305
532,456,11.5775,-7.75519,0.000980639,0.000692708,0.000867708,0.00171624,-4.28961e-05,0.70319,0.00115873,0.0159784,1756,568,11.5775,7.75517
539,456,11.569,-7.28687,0.000205224,0.000285285,0.000555544,0.000802239,-0.00031173,0.821364,0.000663608,0.0191328,1763,568,11.5689,7.28687
546,456,11.5282,-6.87445,-0.000550033,-7.1841e-05,0.000267127,4.75649e-05,-0.000669439,1.15044,0.000462963,0.0207162,1770,568,11.5281,6.87446
553,456,11.5135,-6.46014,-0.00134488,-0.000335724,-2.14499e-05,-0.000335269,-0.00134534,-1.54955,0.000808646,0.0131705,1777,568,11.5135,6.46012
560,456,11.5236,-6.07294,-0.00220918,-0.000497048,-0.000261609,-0.000457967,-0.00224826,-1.42251,0.00137191,0.0108364,1784,568,11.5236,6.07296
567,456,11.5056,-5.62592,-0.00301526,-0.00070802,-0.000475514,-0.000613862,-0.00310942,-1.37531,0.00190165,0.0162088,1791,568,11.5057,5.62593
574,456,11.4586,-5.36987,-0.00401521,-0.000880995,-0.000751902,-0.000709947,-0.00418625,-1.34712,0.00258687,0.0448244,1798,568,11.4586,5.3699
581,456,11.488,-5.07587,0,0,0,0,0,0,0,-1,1805,568,11.4881,5.07586
588,456,5.23901,-0.0901489,0,0,0,0,0,0,0,-1,1812,568,5.23906,0.0901656
595,456,6.90063,3.14886,0,0,0,0,0,0,0,-1,1819,568,6.90066,-3.14887
602,456,16.894,4.10938,0,0,0,0,0,0,0,-1,1826,568,16.8941,-4.1094
609,456,14.9966,3.5708,0,0,0,0,0,0,0,-1,1833,568,14.9966,-3.57083
616,456,17.7407,2.6579,0,0,0,0,0,0,0,-1,1840,568,17.7408,-2.6579
623,456,20.6838,1.7121,0,0,0,0,0,0,0,-1,1847,568,20.6838,-1.71208
630,456,0,0,0,0,0,0,0,0,0,-1,1854,568,0,0
637,456,0,0,0,0,0,0,0,0,0,-1,1861,568,0,0
644,456,0,0,0,0,0,0,0,0,0,-1,1868,568,0,0
651,456,0,0,0,0,0,0,0,0,0,-1,1875,568,0,0
658,456,0,0,0,0,0,0,0,0,0,-1,1882,568,0,0
665,456,0,0,0,0,0,0,0,0,0,-1,1889,568,0,0
672,456,0,0,0,0,0,0,0,0,0,-1,1896,568,0,0
679,456,0,0,0,0,0,0,0,0,0,-1,1903,568,0,0
686,456,0,0,0,0,0,0,0,0,0,-1,1910,568,0,0
693,456,0,0,0,0,0,0,0,0,0,-1,1917,568,0,0
700,456,0,0,0,0,0,0,0,0,0,-1,1924,568,0,0
707,456,0,0,0,0,0,0,0,0,0,-1,1931,568,0,0
714,456,0,0,0,0,0,0,0,0,0,-1,1938,568,0,0
721,456,0,0,0,0,0,0,0,0,0,-1,1945,568,0,0
728,456,0,0,0,0,0,0,0,0,0,-1,1952,568,0,0
735,456,0,0,0,0,0,0,0,0,0,-1,1959,568,0,0
742,456,0,0,0,0,0,0,0,0,0,-1,1966,568,0,0
749,456,0,0,0,0,0,0,0,0,0,-1,1973,568,0,0
756,456,0,0,0,0,0,0,0,0,0,-1,1980,568,0,0
763,456,0,0,0,0,0,0,0,0,0,-1,1987,568,0,0
770,456,0,0,0,0,0,0,0,0,0,-1,1994,568,0,0
777,456,0,0,0,0,0,0,0,0,0,-1,2001,568,0,0
784,456,0,0,0,0,0,0,0,0,0,-1,2008,568,0,0
791,456,0,0,0,0,0,0,0,0,0,-1,2015,568,0,0
798,456,0,0,0,0,0,0,0,0,0,-1,2022,568,0,0
805,456,0,0,0,0,0,0,0,0,0,-1,2029,568,0,0
812,456,0,0,0,0,0,0,0,0,0,-1,2036,568,0,0
-700,449,0,0,0,0,0,0,0,0,0,-1,524,575,0,0
-693,449,0,0,0,0,0,0,0,0,0,-1,531,575,0,0
-686,449,0,0,0,0,0,0,0,0,0,-1,538,575,0,0
-679,449,0,0,0,0,0,0,0,0,0,-1,545,575,0,0
-672,449,0,0,0,0,0,0,0,0,0,-1,552,575,0,0
-665,449,0,0,0,0,0,0,0,0,0,-1,559,575,0,0
-658,449,0,0,0,0,0,0,0,0,0,-1,566,575,0,0
-651,449,0,0,0,0,0,0,0,0,0,-1,573,575,0,0
-644,449,0,0,0,0,0,0,0,0,0,-1,580,575,0,0
-637,449,0,0,0,0,0,0,0,0,0,-1,587,575,0,0
-630,449,0,0,0,0,0,0,0,0,0,-1,594,575,0,0
-623,449,0,0,0,0,0,0,0,0,0,-1,601,575,0,0
-616,449,0,0,0,0,0,0,0,0,0,-1,608,575,0,0
-609,449,0,0,0,0,0,0,0,0,0,-1,615,575,0,0
-602,449,0,0,0,0,0,0,0,0,0,-1,622,575,0,0
-595,449,0,0,0,0,0,0,0,0,0,-1,629,575,0,0
-588,449,0,0,0,0,0,0,0,0,0,-1,636,575,0,0
-581,449,0,0,0,0,0,0,0,0,0,-1,643,575,0,0
-574,449,0,0,0,0,0,0,0,0,0,-1,650,575,0,0
-567,449,0,0,0,0,0,0,0,0,0,-1,657,575,0,0
-560,449,0,0,0,0,0,0,0,0,0,-1,664,575,0,0
-553,449,0,0,0,0,0,0,0,0,0,-1,671,575,0,0
-546,449,0,0,0,0,0,0,0,0,0,-1,678,575,0,0
-539,449,0,0,0,0,0,0,0,0,0,-1,685,575,0,0
-532,449,0,0,0,0,0,0,0,0,0,-1,692,575,0,0
-525,449,0,0,0,0,0,0,0,0,0,-1,699,575,0,0
-518,449,0,0,0,0,0,0,0,0,0,-1,706,575,0,0
-511,449,-0.941345,-4.4519,0,0,0,0,0,0,0,-1,713,575,-0.941356,4.45191
-504,449,-14.1078,0.318237,0,0,0,0,0,0,0,-1,720,575,-14.1078,-0.318231
-497,449,-8.61292,-3.09009,0,0,0,0,0,0,0,-1,727,575,-8.61291,3.09011
-490,449,-7.50995,-2.96252,0,0,0,0,0,0,0,-1,734,575,-7.50995,2.96251
-483,449,-5.77789,-2.50061,0,0,0,0,0,0,0,-1,741,575,-5.77792,2.50059
-476,449,-4.1723,-2.07739,0,0,0,0,0,0,0,-1,748,575,-4.17228,2.0774
-469,449,-4.02954,-4.56329,0,0,0,0,0,0,0,-1,755,575,-4.02951,4.56329
-462,449,-4.27814,-6.26202,0,0,0,0,0,0,0,-1,762,575,-4.27811,6.26201
-455,449,-4.40417,-6.37781,0,0,0,0,0,0,0,-1,769,575,-4.40415,6.37783
-448,449,-4.20013,-6.91693,0.0028226,0.00719457,-0.00546474,0.0108943,-0.000877154,-0.975659,0.00757222,0.0313269,776,575,-4.20014,6.91694
-441,449,-4.1897,-7.43433,0.00157289,0.00599086,-0.0039953,0.00834719,-0.000783434,-1.03793,0.00584347,0.0158843,783,575,-4.18971,7.4343
-434,449,-4.23364,-7.78186,0.000684634,0.00467182,-0.00274292,0.0060691,-0.000712645,-1.09965,0.00430333,0.0126578,790,575,-4.23365,7.78183
-427,449,-4.24103,-8.1781,0.000116586,0.0034758,-0.00171093,0.00419377,-0.000601382,-1.17348,0.00301636,0.0119889,797,575,-4.24101,8.17808
-420,449,-4.24225,-8.58716,-0.000513482,0.00212242,-0.000601717,0.00225328,-0.000644343,-1.35665,0.00175681,0.0116668,804,575,-4.24226,8.58716
-413,449,-4.24786,-8.97992,-0.000764517,0.000909752,0.000217582,0.000937566,-0.000792331,1.44365,0.000999929,0.00951157,811,575,-4.24789,8.97992
-406,449,-4.26056,-9.36761,-0.000682711,-0.000142593,0.000908342,0.000534985,-0.00136029,0.929892,0.00112829,0.00895561,818,575,-4.26054,9.36759
-399,449,-4.26074,-9.76019,-0.000568564,-0.00129152,0.00157373,0.000684668,-0.00254475,0.672509,0.0019649,0.00888845,825,575,-4.26077,9.76021
-392,449,-4.24548,-10.1361,-0.000393124,-0.00252134,0.00223909,0.00102185,-0.00393631,0.563575,0.00302295,0.01021,832,575,-4.24548,10.1361
-385,449,-4.25183,-10.4951,-9.98941e-05,-0.00362364,0.00284498,0.00148459,-0.00520813,0.508156,0.00405849,0.011135,839,575,-4.25182,10.4951
-378,449,-4.28381,-10.8892,0.000193663,-0.00478229,0.00345519,0.00196343,-0.00655206,0.473364,0.00514885,0.0101905,846,575,-4.28381,10.8892
-371,449,-4.28198,-11.2774,0.000638384,-0.00586359,0.00402967,0.00256496,-0.00779017,0.445973,0.00622708,0.0120543,853,575,-4.28197,11.2774
-364,449,-4.3028,-11.6597,0.00131005,-0.00668827,0.00443343,0.00328153,-0.00865975,0.418426,0.00712357,0.0291971,860,575,-4.3028,11.6597
-357,449,-4.33057,-12.1214,0,0,0,0,0,0,0,-1,867,575,-4.33054,12.1214
-350,449,-2.8764,-9.90204,0,0,0,0,0,0,0,-1,874,575,-2.87638,9.90203
-343,449,-2.98492,-9.2254,0,0,0,0,0,0,0,-1,881,575,-2.98491,9.22541
-336,449,-1.29523,-9.54626,0,0,0,0,0,0,0,-1,888,575,-1.29525,9.54626
-329,449,-0.733398,-7.78937,0,0,0,0,0,0,0,-1,895,575,-0.733398,7.78937
-322,449,-0.628845,-3.16669,0,0,0,0,0,0,0,-1,902,575,-0.628861,3.16667
-315,449,-0.540344,-3.21918,0,0,0,0,0,0,0,-1,909,575,-0.540336,3.21917
-308,449,-1.04413,-2.99341,0,0,0,0,0,0,0,-1,916,575,-1.04415,2.99338
-301,449,-1.58691,-2.80725,0,0,0,0,0,0,0,-1,923,575,-1.58692,2.80728
-294,449,-3.71118,-2.76086,0,0,0,0,0,0,0,-1,930,575,-3.71119,2.76087
-287,449,-4.4082,-2.69525,0,0,0,0,0,0,0,-1,937,575,-4.40822,2.69526
-280,449,-4.68903,-4.4364,0,0,0,0,0,0,0,-1,944,575,-4.68901,4.4364
-273,449,0,0,0,0,0,0,0,0,0,-1,951,575,0,0
-266,449,0,0,0,0,0,0,0,0,0,-1,958,575,0,0
-259,449,0,0,0,0,0,0,0,0,0,-1,965,575,0,0
-252,449,0,0,0,0,0,0,0,0,0,-1,972,575,0,0
-245,449,0,0,0,0,0,0,0,0,0,-1,979,575,0,0
-238,449,0,0,0,0,0,0,0,0,0,-1,986,575,0,0
-231,449,0,0,0,0,0,0,0,0,0,-1,993,575,0,0
-224,449,0,0,0,0,0,0,0,0,0,-1,1000,575,0,0
-217,449,0,0,0,0,0,0,0,0,0,-1,1007,575,0,0
-210,449,0,0,0,0,0,0,0,0,0,-1,1014,575,0,0
-203,449,0,0,0,0,0,0,0,0,0,-1,1021,575,0,0
-196,449,0,0,0,0,0,0,0,0,0,-1,1028,575,0,0
-189,449,0,0,0,0,0,0,0,0,0,-1,1035,575,0,0
-182,449,0,0,0,0,0,0,0,0,0,-1,1042,575,0,0
-175,449,0,0,0,0,0,0,0,0,0,-1,1049,575,0,0
-168,449,0,0,0,0,0,0,0,0,0,-1,1056,575,0,0
-161,449,0,0,0,0,0,0,0,0,0,-1,1063,575,0,0
-154,449,0,0,0,0,0,0,0,0,0,-1,1070,575,0,0
-147,449,0,0,0,0,0,0,0,0,0,-1,1077,575,0,0
-140,449,0,0,0,0,0,0,0,0,0,-1,1084,575,0,0
-133,449,0,0,0,0,0,0,0,0,0,-1,1091,575,0,0
-126,449,0,0,0,0,0,0,0,0,0,-1,1098,575,0,0
-119,449,0,0,0,0,0,0,0,0,0,-1,1105,575,0,0
-112,449,0,0,0,0,0,0,0,0,0,-1,1112,575,0,0
-105,449,0,0,0,0,0,0,0,0,0,-1,1119,575,0,0
-98,449,0,0,0,0,0,0,0,0,0,-1,1126,575,0,0
-91,449,0,0,0,0,0,0,0,0,0,-1,1133,575,0,0
-84,449,0,0,0,0,0,0,0,0,0,-1,1140,575,0,0
-77,449,0,0,0,0,0,0,0,0,0,-1,1147,575,0,0
-70,449,0,0,0,0,0,0,0,0,0,-1,1154,575,0,0
-63,449,0,0,0,0,0,0,0,0,0,-1,1161,575,0,0
-56,449,0,0,0,0,0,0,0,0,0,-1,1168,575,0,0
-49,449,0,0,0,0,0,0,0,0,0,-1,1175,575,0,0
-42,449,0,0,0,0,0,0,0,0,0,-1,1182,575,0,0
-35,449,0,0,0,0,0,0,0,0,0,-1,1189,575,0,0
-28,449,0,0,0,0,0,0,0,0,0,-1,1196,575,0,0
-21,449,0,0,0,0,0,0,0,0,0,-1,1203,575,0,0
-14,449,0,0,0,0,0,0,0,0,0,-1,1210,575,0,0
-7,449,0,0,0,0,0,0,0,0,0,-1,1217,575,0,0
0,449,0,0,0,0,0,0,0,0,0,-1,1224,575,0,0
7,449,0,0,0,0,0,0,0,0,0,-1,1231,575,0,0
14,449,0,0,0,0,0,0,0,0,0,-1,1238,575,0,0
21,449,0,0,0,0,0,0,0,0,0,-1,1245,575,0,0
28,449,0,0,0,0,0,0,0,0,0,-1,1252,575,0,0
35,449,0,0,0,0,0,0,0,0,0,-1,1259,575,0,0
42,449,0,0,0,0,0,0,0,0,0,-1,1266,575,0,0
49,449,0,0,0,0,0,0,0,0,0,-1,1273,575,0,0
56,449,0,0,0,0,0,0,0,0,0,-1,1280,575,0,0
63,449,0,0,0,0,0,0,0,0,0,-1,1287,575,0,0
70,449,0,0,0,0,0,0,0,0,0,-1,1294,575,0,0
77,449,0,0,0,0,0,0,0,0,0,-1,1301,575,0,0
84,449,0,0,0,0,0,0,0,0,0,-1,1308,575,0,0
91,449,0,0,0,0,0,0,0,0,0,-1,1315,575,0,0
98,449,0,0,0,0,0,0,0,0,0,-1,1322,575,0,0
105,449,0,0,0,0,0,0,0,0,0,-1,1329,575,0,0
112,449,0,0,0,0,0,0,0,0,0,-1,1336,575,0,0
119,449,0,0,0,0,0,0,0,0,0,-1,1343,575,0,0
126,449,0,0,0,0,0,0,0,0,0,-1,1350,575,0,0
133,449,0,0,0,0,0,0,0,0,0,-1,1357,575,0,0
140,449,0,0,0,0,0,0,0,0,0,-1,1364,575,0,0
147,449,0,0,0,0,0,0,0,0,0,-1,1371,575,0,0
154,449,0,0,0,0,0,0,0,0,0,-1,1378,575,0,0
161,449,0,0,0,0,0,0,0,0,0,-1,1385,575,0,0
168,449,0,0,0,0,0,0,0,0,0,-1,1392,575,0,0
175,449,0,0,0,0,0,0,0,0,0,-1,1399,575,0,0
182,449,0,0,0,0,0,0,0,0,0,-1,1406,575,0,0
189,449,0,0,0,0,0,0,0,0,0,-1,1413,575,0,0
196,449,0,0,0,0,0,0,0,0,0,-1,1420,575,0,0
203,449,0,0,0,0,0,0,0,0,0,-1,1427,575,0,0
210,449,0,0,0,0,0,0,0,0,0,-1,1434,575,0,0
217,449,0,0,0,0,0,0,0,0,0,-1,1441,575,0,0
224,449,0,0,0,0,0,0,0,0,0,-1,1448,575,0,0
231,449,0,0,0,0,0,0,0,0,0,-1,1455,575,0,0
238,449,0,0,0,0,0,0,0,0,0,-1,1462,575,0,0
245,449,0,0,0,0,0,0,0,0,0,-1,1469,575,0,0
252,449,0,0,0,0,0,0,0,0,0,-1,1476,575,0,0
259,449,0,0,0,0,0,0,0,0,0,-1,1483,575,0,0
266,449,0,0,0,0,0,0,0,0,0,-1,1490,575,0,0
273,449,0,0,0,0,0,0,0,0,0,-1,1497,575,0,0
280,449,0,0,0,0,0,0,0,0,0,-1,1504,575,0,0
287,449,0,0,0,0,0,0,0,0,0,-1,1511,575,0,0
294,449,0,0,0,0,0,0,0,0,0,-1,1518,575,0,0
301,449,0,0,0,0,0,0,0,0,0,-1,1525,575,0,0
308,449,0,0,0,0,0,0,0,0,0,-1,1532,575,0,0
315,449,0,0,0,0,0,0,0,0,0,-1,1539,575,0,0
322,449,0,0,0,0,0,0,0,0,0,-1,1546,575,0,0
329,449,0,0,0,0,0,0,0,0,0,-1,1553,575,0,0
336,449,0,0,0,0,0,0,0,0,0,-1,1560,575,0,0
343,449,0,0,0,0,0,0,0,0,0,-1,1567,575,0,0
350,449,0,0,0,0,0,0,0,0,0,-1,1574,575,0,0
357,449,0,0,0,0,0,0,0,0,0,-1,1581,575,0,0
364,449,0,0,0,0,0,0,0,0,0,-1,1588,575,0,0
371,449,0,0,0,0,0,0,0,0,0,-1,1595,575,0,0
378,449,0,0,0,0,0,0,0,0,0,-1,1602,575,0,0
385,449,0,0,0,0,0,0,0,0,0,-1,1609,575,0,0
392,449,7.95471,3.66217,0,0,0,0,0,0,0,-1,1616,575,7.95471,-3.66218
399,449,19.9791,5.565,0,0,0,0,0,0,0,-1,1623,575,19.9791,-5.56499
406,449,24.9847,4.55969,0,0,0,0,0,0,0,-1,1630,575,24.9848,-4.55968
413,449,23.5795,3.19586,0,0,0,0,0,0,0,-1,1637,575,23.5795,-3.19584
420,449,23.9675,1.29718,0,0,0,0,0,0,0,-1,1644,575,23.9675,-1.29721
427,449,24.4276,-0.596558,0,0,0,0,0,0,0,-1,1651,575,24.4277,0.596569
434,449,25.61,-2.96594,0,0,0,0,0,0,0,-1,1658,575,25.61,2.96595
441,449,3.89856,-6.06458,0,0,0,0,0,0,0,-1,1665,575,3.89855,6.06459
448,449,4.03198,-5.18207,0,0,0,0,0,0,0,-1,1672,575,4.03197,5.18207
455,449,4.21948,-4.09467,0,0,0,0,0,0,0,-1,1679,575,4.21952,4.09465
462,449,4.23181,-2.96924,0,0,0,0,0,0,0,-1,1686,575,4.23185,2.96926
469,449,4.51672,-2.95135,0,0,0,0,0,0,0,-1,1693,575,4.51672,2.95135
476,449,4.71838,-1.86688,0,0,0,0,0,0,0,-1,1700,575,4.71842,1.86689
483,449,4.87878,-1.73126,0,0,0,0,0,0,0,-1,1707,575,4.87875,1.73128
490,449,5.73279,-2.74573,0,0,0,0,0,0,0,-1,1714,575,5.73282,2.74575
497,449,11.9692,-10.0842,0,0,0,0,0,0,0,-1,1721,575,11.9693,10.0842
504,449,11.8945,-9.41534,0.00465946,0.00324648,0.00257195,0.00662019,0.00128576,0.651359,0.00405343,0.0439767,1728,575,11.8945,9.41534
511,449,11.9675,-8.98224,0.0039374,0.00250146,0.00214174,0.00547831,0.000960547,0.623671,0.00337786,0.0118046,1735,575,11.9675,8.98225
518,449,11.989,-8.60339,0.00326007,0.00178767,0.00181241,0.0044801,0.000567645,0.592478,0.00281665,0.0137785,1742,575,11.989,8.6034
525,449,11.9573,-8.19861,0.00247786,0.00139903,0.00149674,0.00352942,0.000347468,0.612445,0.0022461,0.0129381,1749,575,11.9573,8.1986
532,449,11.9285,-7.76483,0.00171243,0.00103962,0.00119634,0.00261876,0.000133284,0.648341,0.00170315,0.0105491,1756,575,11.9285,7.76481
539,449,11.9125,-7.33038,0.000978646,0.000596397,0.000866283,0.00167464,-9.95936e-05,0.676825,0.00115106,0.012921,1763,575,11.9125,7.33036
546,449,11.9111,-6.88593,0.000295611,0.000236189,0.000581324,0.000847982,-0.000316183,0.759866,0.000695114,0.0219684,1770,575,11.9111,6.88591
553,449,11.9076,-6.50244,-0.000413339,-4.56796e-05,0.000302182,0.000124196,-0.000583214,1.05866,0.000436143,0.0158548,1777,575,11.9076,6.50242
560,449,11.9417,-6.08582,-0.00121096,-0.000192968,6.85468e-05,-0.000188373,-0.00121556,1.50386,0.000755449,0.0141311,1784,575,11.9417,6.08584
567,449,11.9033,-5.66156,-0.00194148,-0.000341053,-0.000122547,-0.000331723,-0.00195081,-1.49482,0.00120528,0.0105828,1791,575,11.9033,5.66157
574,449,11.8983,-5.20587,-0.00280107,-0.000442172,-0.000349994,-0.000391338,-0.00285191,-1.42656,0.00178518,0.0222972,1798,575,11.8983,5.20586
581,449,11.9149,-4.69379,0,0,0,0,0,0,0,-1,1805,575,11.9149,4.6938
588,449,11.7297,-3.72607,0,0,0,0,0,0,0,-1,1812,575,11.7298,3.7261
595,449,11.2511,-2.25397,0,0,0,0,0,0,0,-1,1819,575,11.2511,2.25397
602,449,9.46167,4.17444,0,0,0,0,0,0,0,-1,1826,575,9.46164,-4.17442
609,449,12.2028,3.18652,0,0,0,0,0,0,0,-1,1833,575,12.2027,-3.18655
616,449,14.9438,2.19867,0,0,0,0,0,0,0,-1,1840,575,14.9438,-2.19867
623,449,9.83789,-0.0820313,0,0,0,0,0,0,0,-1,1847,575,9.83794,0.0820443
630,449,8.90686,4.99329,0,0,0,0,0,0,0,-1,1854,575,8.90685,-4.99327
637,449,0,0,0,0,0,0,0,0,0,-1,1861,575,0,0
644,449,0,0,0,0,0,0,0,0,0,-1,1868,575,0,0
651,449,0,0,0,0,0,0,0,0,0,-1,1875,575,0,0
658,449,0,0,0,0,0,0,0,0,0,-1,1882,575,0,0
665,449,0,0,0,0,0,0,0,0,0,-1,1889,575,0,0
672,449,0,0,0,0,0,0,0,0,0,-1,1896,575,0,0
679,449,0,0,0,0,0,0,0,0,0,-1,1903,575,0,0
686,449,0,0,0,0,0,0,0,0,0,-1,1910,575,0,0
693,449,0,0,0,0,0,0,0,0,0,-1,1917,575,0,0
700,449,0,0,0,0,0,0,0,0,0,-1,1924,575,0,0
707,449,0,0,0,0,0,0,0,0,0,-1,1931,575,0,0
714,449,0,0,0,0,0,0,0,0,0,-1,1938,575,0,0
721,449,0,0,0,0,0,0,0,0,0,-1,1945,575,0,0
728,449,0,0,0,0,0,0,0,0,0,-1,1952,575,0,0
735,449,0,0,0,0,0,0,0,0,0,-1,1959,575,0,0
742,449,0,0,0,0,0,0,0,0,0,-1,1966,575,0,0
749,449,0,0,0,0,0,0,0,0,0,-1,1973,575,0,0
756,449,0,0,0,0,0,0,0,0,0,-1,1980,575,0,0
763,449,0,0,0,0,0,0,0,0,0,-1,1987,575,0,0
770,449,0,0,0,0,0,0,0,0,0,-1,1994,575,0,0
777,449,0,0,0,0,0,0,0,0,0,-1,2001,575,0,0
784,449,0,0,0,0,0,0,0,0,0,-1,2008,575,0,0
791,449,0,0,0,0,0,0,0,0,0,-1,2015,575,0,0
798,449,0,0,0,0,0,0,0,0,0,-1,2022,575,0,0
805,449,0,0,0,0,0,0,0,0,0,-1,2029,575,0,0
812,449,0,0,0,0,0,0,0,0,0,-1,2036,575,0,0
-700,442,0,0,0,0,0,0,0,0,0,-1,524,582,0,0
-693,442,0,0,0,0,0,0,0,0,0,-1,531,582,0,0
-686,442,0,0,0,0,0,0,0,0,0,-1,538,582,0,0
-679,442,0,0,0,0,0,0,0,0,0,-1,545,582,0,0
-672,442,0,0,0,0,0,0,0,0,0,-1,552,582,0,0
-665,442,0,0,0,0,0,0,0,0,0,-1,559,582,0,0
-658,442,0,0,0,0,0,0,0,0,0,-1,566,582,0,0
-651,442,0,0,0,0,0,0,0,0,0,-1,573,582,0,0
-644,442,0,0,0,0,0,0,0,0,0,-1,580,582,0,0
-637,442,0,0,0,0,0,0,0,0,0,-1,587,582,0,0
-630,442,0,0,0,0,0,0,0,0,0,-1,594,582,0,0
-623,442,0,0,0,0,0,0,0,0,0,-1,601,582,0,0
-616,442,0,0,0,0,0,0,0,0,0,-1,608,582,0,0
-609,442,0,0,0,0,0,0,0,0,0,-1,615,582,0,0
-602,442,0,0,0,0,0,0,0,0,0,-1,622,582,0,0
-595,442,0,0,0,0,0,0,0,0,0,-1,629,582,0,0
-588,442,0,0,0,0,0,0,0,0,0,-1,636,582,0,0
-581,442,0,0,0,0,0,0,0,0,0,-1,643,582,0,0
-574,442,0,0,0,0,0,0,0,0,0,-1,650,582,0,0
-567,442,0,0,0,0,0,0,0,0,0,-1,657,582,0,0
-560,442,0,0,0,0,0,0,0,0,0,-1,664,582,0,0
-553,442,0,0,0,0,0,0,0,0,0,-1,671,582,0,0
-546,442,0,0,0,0,0,0,0,0,0,-1,678,582,0,0
-539,442,0,0,0,0,0,0,0,0,0,-1,685,582,0,0
-532,442,0,0,0,0,0,0,0,0,0,-1,692,582,0,0
-525,442,0,0,0,0,0,0,0,0,0,-1,699,582,0,0
-518,442,-0.493774,-5.72943,0,0,0,0,0,0,0,-1,706,582,-0.493791,5.72946
-511,442,-1.33008,-6.18512,0,0,0,0,0,0,0,-1,713,582,-1.33006,6.18511
-504,442,-3.20807,-6.34082,0,0,0,0,0,0,0,-1,720,582,-3.2081,6.34083
-497,442,-13.6886,-0.250122,0,0,0,0,0,0,0,-1,727,582,-13.6886,0.250143
-490,442,-9.09039,-3.64862,0,0,0,0,0,0,0,-1,734,582,-9.09037,3.64861
-483,442,-7.36499,-1.01892,0,0,0,0,0,0,0,-1,741,582,-7.365,1.01895
-476,442,-4.62225,-3.47467,0,0,0,0,0,0,0,-1,748,582,-4.62225,3.47465
-469,442,-4.8252,-5.19354,0,0,0,0,0,0,0,-1,755,582,-4.82522,5.19354
-462,442,-4.5575,-6.19861,0.00735731,0.00831938,-0.00847073,0.0163227,-0.000646038,-0.813762,0.0111034,0.0393366,762,582,-4.55751,6.19863
-455,442,-4.65601,-6.58533,0.00496358,0.00689491,-0.00646855,0.0124695,-0.000610986,-0.859494,0.00852395,0.034137,769,582,-4.65601,6.58534
-448,442,-4.58246,-6.99823,0.00311062,0.00554964,-0.00473415,0.00921882,-0.000558569,-0.911457,0.00634028,0.0158474,776,582,-4.58246,6.99822
-441,442,-4.59778,-7.39764,0.00186256,0.00449975,-0.00335052,0.00678181,-0.000419499,-0.972865,0.00466733,0.0138648,783,582,-4.59781,7.39765
-434,442,-4.61517,-7.78278,0.000905773,0.00331686,-0.00213037,0.00455914,-0.000336504,-1.04288,0.00315758,0.0126326,790,582,-4.6152,7.7828
-427,442,-4.65271,-8.15558,0.000238986,0.00219678,-0.00107291,0.00267025,-0.000234484,-1.1552,0.00186325,0.0131371,797,582,-4.65272,8.15561
-420,442,-4.63794,-8.5755,-0.000488976,0.000813958,0.000110292,0.000823228,-0.000498246,1.48694,0.000770606,0.0132279,804,582,-4.63793,8.57547
-413,442,-4.62183,-8.97162,-0.000858495,-0.000370851,0.00100298,0.000417519,-0.00164686,0.904634,0.00126035,0.0105788,811,582,-4.62182,8.97164
-406,442,-4.63782,-9.36816,-0.000920534,-0.00145835,0.00179561,0.000626198,-0.00300508,0.711072,0.00224147,0.00883976,818,582,-4.63782,9.36814
-399,442,-4.64813,-9.76337,-0.000952204,-0.00267006,0.00258056,0.000908624,-0.00453089,0.624743,0.00336461,0.00816593,825,582,-4.64813,9.76339
-392,442,-4.64642,-10.1265,-0.000906116,-0.00395332,0.00336803,0.0012669,-0.00612633,0.572986,0.00456549,0.0107189,832,582,-4.64643,10.1265
-385,442,-4.6571,-10.4781,-0.000765124,-0.00521216,0.00413655,0.00170764,-0.00768492,0.538788,0.00577724,0.013111,839,582,-4.65708,10.4782
-378,442,-4.65466,-10.8757,-0.000633845,-0.00660246,0.00496984,0.00217887,-0.00941517,0.515011,0.00711516,0.013904,846,582,-4.65469,10.8757
-371,442,-4.6015,-11.2612,-0.000271891,-0.00796753,0.00578729,0.00282999,-0.0110694,0.492018,0.0084818,0.0310295,853,582,-4.60149,11.2612
-364,442,-4.49615,-11.6321,0,0,0,0,0,0,0,-1,860,582,-4.49614,11.6322
-357,442,-4.9115,-11.2649,0,0,0,0,0,0,0,-1,867,582,-4.91147,11.2649
-350,442,-1.75372,-6.27618,0,0,0,0,0,0,0,-1,874,582,-1.75371,6.27618
-343,442,-1.4599,-4.63605,0,0,0,0,0,0,0,-1,881,582,-1.4599,4.63607
-336,442,-1.4054,-2.64313,0,0,0,0,0,0,0,-1,888,582,-1.40539,2.64315
-329,442,-0.952576,-2.76923,0,0,0,0,0,0,0,-1,895,582,-0.952571,2.7692
-322,442,-0.972534,-2.63208,0,0,0,0,0,0,0,-1,902,582,-0.972512,2.6321
-315,442,-0.445557,-2.89764,0,0,0,0,0,0,0,-1,909,582,-0.445582,2.89765
-308,442,-0.654175,-3.07831,0,0,0,0,0,0,0,-1,916,582,-0.654145,3.07832
-301,442,-1.37427,-2.41455,0,0,0,0,0,0,0,-1,923,582,-1.37425,2.41453
-294,442,-2.99963,-2.07855,0,0,0,0,0,0,0,-1,930,582,-2.99964,2.07857
-287,442,-5.62799,-2.76422,0,0,0,0,0,0,0,-1,937,582,-5.628,2.76424
-280,442,0,0,0,0,0,0,0,0,0,-1,944,582,0,0
-273,442,0,0,0,0,0,0,0,0,0,-1,951,582,0,0
-266,442,0,0,0,0,0,0,0,0,0,-1,958,582,0,0
-259,442,0,0,0,0,0,0,0,0,0,-1,965,582,0,0
-252,442,0,0,0,0,0,0,0,0,0,-1,972,582,0,0
-245,442,0,0,0,0,0,0,0,0,0,-1,979,582,0,0
-238,442,0,0,0,0,0,0,0,0,0,-1,986,582,0,0
-231,442,0,0,0,0,0,0,0,0,0,-1,993,582,0,0
-224,442,0,0,0,0,0,0,0,0,0,-1,1000,582,0,0
-217,442,0,0,0,0,0,0,0,0,0,-1,1007,582,0,0
-210,442,0,0,0,0,0,0,0,0,0,-1,1014,582,0,0
-203,442,0,0,0,0,0,0,0,0,0,-1,1021,582,0,0
-196,442,0,0,0,0,0,0,0,0,0,-1,1028,582,0,0
-189,442,0,0,0,0,0,0,0,0,0,-1,1035,582,0,0
-182,442,0,0,0,0,0,0,0,0,0,-1,1042,582,0,0
-175,442,0,0,0,0,0,0,0,0,0,-1,1049,582,0,0
-168,442,0,0,0,0,0,0,0,0,0,-1,1056,582,0,0
-161,442,0,0,0,0,0,0,0,0,0,-1,1063,582,0,0
-154,442,0,0,0,0,0,0,0,0,0,-1,1070,582,0,0
-147,442,0,0,0,0,0,0,0,0,0,-1,1077,582,0,0
-140,442,0,0,0,0,0,0,0,0,0,-1,1084,582,0,0
-133,442,0,0,0,0,0,0,0,0,0,-1,1091,582,0,0
-126,442,0,0,0,0,0,0,0,0,0,-1,1098,582,0,0
-119,442,0,0,0,0,0,0,0,0,0,-1,1105,582,0,0
-112,442,0,0,0,0,0,0,0,0,0,-1,1112,582,0,0
-105,442,0,0,0,0,0,0,0,0,0,-1,1119,582,0,0
-98,442,0,0,0,0,0,0,0,0,0,-1,1126,582,0,0
-91,442,0,0,0,0,0,0,0,0,0,-1,1133,582,0,0
-84,442,0,0,0,0,0,0,0,0,0,-1,1140,582,0,0
-77,442,0,0,0,0,0,0,0,0,0,-1,1147,582,0,0
-70,442,0,0,0,0,0,0,0,0,0,-1,1154,582,0,0
-63,442,0,0,0,0,0,0,0,0,0,-1,1161,582,0,0
-56,442,0,0,0,0,0,0,0,0,0,-1,1168,582,0,0
-49,442,0,0,0,0,0,0,0,0,0,-1,1175,582,0,0
-42,442,0,0,0,0,0,0,0,0,0,-1,1182,582,0,0
-35,442,0,0,0,0,0,0,0,0,0,-1,1189,582,0,0
-28,442,0,0,0,0,0,0,0,0,0,-1,1196,582,0,0
-21,442,0,0,0,0,0,0,0,0,0,-1,1203,582,0,0
-14,442,0,0,0,0,0,0,0,0,0,-1,1210,582,0,0
-7,442,0,0,0,0,0,0,0,0,0,-1,1217,582,0,0
0,442,0,0,0,0,0,0,0,0,0,-1,1224,582,0,0
7,442,0,0,0,0,0,0,0,0,0,-1,1231,582,0,0
14,442,0,0,0,0,0,0,0,0,0,-1,1238,582,0,0
21,442,0,0,0,0,0,0,0,0,0,-1,1245,582,0,0
28,442,0,0,0,0,0,0,0,0,0,-1,1252,582,0,0
35,442,0,0,0,0,0,0,0,0,0,-1,1259,582,0,0
42,442,0,0,0,0,0,0,0,0,0,-1,1266,582,0,0
49,442,0,0,0,0,0,0,0,0,0,-1,1273,582,0,0
56,442,0,0,0,0,0,0,0,0,0,-1,1280,582,0,0
63,442,0,0,0,0,0,0,0,0,0,-1,1287,582,0,0
70,442,0,0,0,0,0,0,0,0,0,-1,1294,582,0,0
77,442,0,0,0,0,0,0,0,0,0,-1,1301,582,0,0
84,442,0,0,0,0,0,0,0,0,0,-1,1308,582,0,0
91,442,0,0,0,0,0,0,0,0,0,-1,1315,582,0,0
98,442,0,0,0,0,0,0,0,0,0,-1,1322,582,0,0
105,442,0,0,0,0,0,0,0,0,0,-1,1329,582,0,0
112,442,0,0,0,0,0,0,0,0,0,-1,1336,582,0,0
119,442,0,0,0,0,0,0,0,0,0,-1,1343,582,0,0
126,442,0,0,0,0,0,0,0,0,0,-1,1350,582,0,0
133,442,0,0,0,0,0,0,0,0,0,-1,1357,582,0,0
140,442,0,0,0,0,0,0,0,0,0,-1,1364,582,0,0
147,442,0,0,0,0,0,0,0,0,0,-1,1371,582,0,0
154,442,0,0,0,0,0,0,0,0,0,-1,1378,582,0,0
161,442,0,0,0,0,0,0,0,0,0,-1,1385,582,0,0
168,442,0,0,0,0,0,0,0,0,0,-1,1392,582,0,0
175,442,0,0,0,0,0,0,0,0,0,-1,1399,582,0,0
182,442,0,0,0,0,0,0,0,0,0,-1,1406,582,0,0
189,442,0,0,0,0,0,0,0,0,0,-1,1413,582,0,0
196,442,0,0,0,0,0,0,0,0,0,-1,1420,582,0,0
203,442,0,0,0,0,0,0,0,0,0,-1,1427,582,0,0
210,442,0,0,0,0,0,0,0,0,0,-1,1434,582,0,0
217,442,0,0,0,0,0,0,0,0,0,-1,1441,582,0,0
224,442,0,0,0,0,0,0,0,0,0,-1,1448,582,0,0
231,442,0,0,0,0,0,0,0,0,0,-1,1455,582,0,0
238,442,0,0,0,0,0,0,0,0,0,-1,1462,582,0,0
245,442,0,0,0,0,0,0,0,0,0,-1,1469,582,0,0
252,442,0,0,0,0,0,0,0,0,0,-1,1476,582,0,0
259,442,0,0,0,0,0,0,0,0,0,-1,1483,582,0,0
266,442,0,0,0,0,0,0,0,0,0,-1,1490,582,0,0
273,442,0,0,0,0,0,0,0,0,0,-1,1497,582,0,0
280,442,0,0,0,0,0,0,0,0,0,-1,1504,582,0,0
287,442,0,0,0,0,0,0,0,0,0,-1,1511,582,0,0
294,442,0,0,0,0,0,0,0,0,0,-1,1518,582,0,0
301,442,0,0,0,0,0,0,0,0,0,-1,1525,582,0,0
308,442,0,0,0,0,0,0,0,0,0,-1,1532,582,0,0
315,442,0,0,0,0,0,0,0,0,0,-1,1539,582,0,0
322,442,0,0,0,0,0,0,0,0,0,-1,1546,582,0,0
329,442,0,0,0,0,0,0,0,0,0,-1,1553,582,0,0
336,442,0,0,0,0,0,0,0,0,0,-1,1560,582,0,0
343,442,0,0,0,0,0,0,0,0,0,-1,1567,582,0,0
350,442,0,0,0,0,0,0,0,0,0,-1,1574,582,0,0
357,442,0,0,0,0,0,0,0,0,0,-1,1581,582,0,0
364,442,0,0,0,0,0,0,0,0,0,-1,1588,582,0,0
371,442,0,0,0,0,0,0,0,0,0,-1,1595,582,0,0
378,442,0,0,0,0,0,0,0,0,0,-1,1602,582,0,0
385,442,0,0,0,0,0,0,0,0,0,-1,1609,582,0,0
392,442,0,0,0,0,0,0,0,0,0,-1,1616,582,0,0
399,442,0,0,0,0,0,0,0,0,0,-1,1623,582,0,0
406,442,17.6321,4.08295,0,0,0,0,0,0,0,-1,1630,582,17.6321,-4.08293
413,442,22.1273,3.56525,0,0,0,0,0,0,0,-1,1637,582,22.1273,-3.56525
420,442,22.7478,1.55011,0,0,0,0,0,0,0,-1,1644,582,22.7478,-1.55009
427,442,23.2969,-0.456787,0,0,0,0,0,0,0,-1,1651,582,23.2968,0.456769
434,442,23.9512,-2.49365,0,0,0,0,0,0,0,-1,1658,582,23.9512,2.49366
441,442,24.8251,-4.43958,0,0,0,0,0,0,0,-1,1665,582,24.8251,4.43956
448,442,4.7749,-5.88562,0,0,0,0,0,0,0,-1,1672,582,4.7749,5.8856
455,442,4.87024,-4.60687,0,0,0,0,0,0,0,-1,1679,582,4.87019,4.60686
462,442,5.02307,-3.72821,0,0,0,0,0,0,0,-1,1686,582,5.02311,3.7282
469,442,5.12976,-2.98834,0,0,0,0,0,0,0,-1,1693,582,5.12971,2.98834
476,442,5.4624,1.76947,0,0,0,0,0,0,0,-1,1700,582,5.46234,-1.76944
483,442,5.98486,1.87042,0,0,0,0,0,0,0,-1,1707,582,5.98492,-1.87045
490,442,5.04407,-2.35834,0,0,0,0,0,0,0,-1,1714,582,5.04411,2.35837
497,442,6.20984,-3.07831,0,0,0,0,0,0,0,-1,1721,582,6.2098,3.07833
504,442,12.1813,-9.5188,0,0,0,0,0,0,0,-1,1728,582,12.1813,9.51878
511,442,12.3026,-8.99957,0.00459523,0.00301614,0.00246368,0.00639278,0.00121858,0.630332,0.00391932,0.0292219,1735,582,12.3026,8.9996
518,442,12.3987,-8.5614,0.00392393,0.00216517,0.00210727,0.00532795,0.000761159,0.587729,0.00332739,0.0119941,1742,582,12.3986,8.56137
525,442,12.3629,-8.16882,0.00311975,0.00176414,0.00179196,0.00435781,0.000526076,0.604591,0.00274669,0.0108588,1749,582,12.3629,8.16881
532,442,12.344,-7.75012,0.00234398,0.00135625,0.00147426,0.0034049,0.000295331,0.623778,0.00217817,0.0103872,1756,582,12.344,7.7501
539,442,12.3412,-7.32269,0.00162916,0.000888178,0.00113639,0.00245392,6.34098e-05,0.62782,0.00161523,0.0110007,1763,582,12.3411,7.3227
546,442,12.3466,-6.91577,0.000989896,0.00053595,0.000859866,0.00165224,-0.000126395,0.65636,0.00114595,0.0145781,1770,582,12.3466,6.91575
553,442,12.3226,-6.49683,0.000329127,0.000244498,0.000588894,0.000877224,-0.000303599,0.749533,0.000708055,0.0159336,1777,582,12.3226,6.49682
560,442,12.3369,-6.05444,-0.000433767,0.000114083,0.000354347,0.000288039,-0.000607723,1.11444,0.000528032,0.0146453,1784,582,12.3369,6.05441
567,442,12.3114,-5.64673,-0.00112535,2.65027e-05,0.000176832,5.30387e-05,-0.00115188,1.42184,0.000786198,0.0106787,1791,582,12.3114,5.64674
574,442,12.3118,-5.24103,-0.00187398,2.07085e-05,4.07034e-06,2.07172e-05,-0.00187399,1.56865,0.00125629,0.0129368,1798,582,12.3117,5.24102
581,442,12.3672,-4.74658,-0.0027608,0.000154828,-0.000144058,0.000161928,-0.0027679,-1.52155,0.00190154,0.0237375,1805,582,12.3672,4.74657
588,442,12.4557,-4.32574,0,0,0,0,0,0,0,-1,1812,582,12.4557,4.32576
595,442,12.2834,-4.07922,0,0,0,0,0,0,0,-1,1819,582,12.2835,4.07919
602,442,11.4385,-1.74512,0,0,0,0,0,0,0,-1,1826,582,11.4385,1.74509
609,442,12.761,2.97223,0,0,0,0,0,0,0,-1,1833,582,12.761,-2.97221
616,442,9.78345,-0.103394,0,0,0,0,0,0,0,-1,1840,582,9.78341,0.103424
623,442,9.23828,0.326721,0,0,0,0,0,0,0,-1,1847,582,9.23829,-0.326727
630,442,7.74304,2.3924,0,0,0,0,0,0,0,-1,1854,582,7.7431,-2.39238
637,442,5.87805,1.84027,0,0,0,0,0,0,0,-1,1861,582,5.87807,-1.84025
644,442,0,0,0,0,0,0,0,0,0,-1,1868,582,0,0
651,442,0,0,0,0,0,0,0,0,0,-1,1875,582,0,0
658,442,0,0,0,0,0,0,0,0,0,-1,1882,582,0,0
665,442,0,0,0,0,0,0,0,0,0,-1,1889,582,0,0
672,442,0,0,0,0,0,0,0,0,0,-1,1896,582,0,0
679,442,0,0,0,0,0,0,0,0,0,-1,1903,582,0,0
686,442,0,0,0,0,0,0,0,0,0,-1,1910,582,0,0
693,442,0,0,0,0,0,0,0,0,0,-1,1917,582,0,0
700,442,0,0,0,0,0,0,0,0,0,-1,1924,582,0,0
707,442,0,0,0,0,0,0,0,0,0,-1,1931,582,0,0
714,442,0,0,0,0,0,0,0,0,0,-1,1938,582,0,0
721,442,0,0,0,0,0,0,0,0,0,-1,1945,582,0,0
728,442,0,0,0,0,0,0,0,0,0,-1,1952,582,0,0
735,442,0,0,0,0,0,0,0,0,0,-1,1959,582,0,0
742,442,0,0,0,0,0,0,0,0,0,-1,1966,582,0,0
749,442,0,0,0,0,0,0,0,0,0,-1,1973,582,0,0
756,442,0,0,0,0,0,0,0,0,0,-1,1980,582,0,0
763,442,0,0,0,0,0,0,0,0,0,-1,1987,582,0,0
770,442,0,0,0,0,0,0,0,0,0,-1,1994,582,0,0
777,442,0,0,0,0,0,0,0,0,0,-1,2001,582,0,0
784,442,0,0,0,0,0,0,0,0,0,-1,2008,582,0,0
791,442,0,0,0,0,0,0,0,0,0,-1,2015,582,0,0
798,442,0,0,0,0,0,0,0,0,0,-1,2022,582,0,0
805,442,0,0,0,0,0,0,0,0,0,-1,2029,582,0,0
812,442,0,0,0,0,0,0,0,0,0,-1,2036,582,0,0
-700,435,0,0,0,0,0,0,0,0,0,-1,524,589,0,0
-693,435,0,0,0,0,0,0,0,0,0,-1,531,589,0,0
-686,435,0,0,0,0,0,0,0,0,0,-1,538,589,0,0
-679,435,0,0,0,0,0,0,0,0,0,-1,545,589,0,0
-672,435,0,0,0,0,0,0,0,0,0,-1,552,589,0,0
-665,435,0,0,0,0,0,0,0,0,0,-1,559,589,0,0
-658,435,0,0,0,0,0,0,0,0,0,-1,566,589,0,0
-651,435,0,0,0,0,0,0,0,0,0,-1,573,589,0,0
-644,435,0,0,0,0,0,0,0,0,0,-1,580,589,0,0
-637,435,0,0,0,0,0,0,0,0,0,-1,587,589,0,0
-630,435,0,0,0,0,0,0,0,0,0,-1,594,589,0,0
-623,435,0,0,0,0,0,0,0,0,0,-1,601,589,0,0
-616,435,0,0,0,0,0,0,0,0,0,-1,608,589,0,0
-609,435,0,0,0,0,0,0,0,0,0,-1,615,589,0,0
-602,435,0,0,0,0,0,0,0,0,0,-1,622,589,0,0
-595,435,0,0,0,0,0,0,0,0,0,-1,629,589,0,0
-588,435,0,0,0,0,0,0,0,0,0,-1,636,589,0,0
-581,435,0,0,0,0,0,0,0,0,0,-1,643,589,0,0
-574,435,0,0,0,0,0,0,0,0,0,-1,650,589,0,0
-567,435,0,0,0,0,0,0,0,0,0,-1,657,589,0,0
-560,435,0,0,0,0,0,0,0,0,0,-1,664,589,0,0
-553,435,0,0,0,0,0,0,0,0,0,-1,671,589,0,0
-546,435,0,0,0,0,0,0,0,0,0,-1,678,589,0,0
-539,435,0,0,0,0,0,0,0,0,0,-1,685,589,0,0
-532,435,0,0,0,0,0,0,0,0,0,-1,692,589,0,0
-525,435,-10.0776,10.0547,0,0,0,0,0,0,0,-1,699,589,-10.0776,-10.0547
-518,435,-1.83093,-5.82367,0,0,0,0,0,0,0,-1,706,589,-1.83093,5.8237
-511,435,-2.45154,-5.33118,0,0,0,0,0,0,0,-1,713,589,-2.45151,5.33115
-504,435,-3.07208,-4.83862,0,0,0,0,0,0,0,-1,720,589,-3.0721,4.8386
-497,435,-6.31012,-5.84698,0,0,0,0,0,0,0,-1,727,589,-6.31012,5.84697
-490,435,-5.81903,-0.458679,0,0,0,0,0,0,0,-1,734,589,-5.81902,0.458684
-483,435,-6.59656,-2.43073,0,0,0,0,0,0,0,-1,741,589,-6.59654,2.4307
-476,435,-5.27783,-4.83728,0,0,0,0,0,0,0,-1,748,589,-5.27783,4.83729
-469,435,-5.05182,-5.4314,0.00926743,0.00783889,-0.00923428,0.017815,-0.000708696,-0.7468,0.0121198,0.0321817,755,589,-5.05181,5.4314
-462,435,-4.8996,-6.11914,0.00667441,0.00654755,-0.00710914,0.0137204,-0.000498449,-0.780937,0.00931753,0.0180563,762,589,-4.89961,6.11913
-455,435,-4.99719,-6.53619,0.00467804,0.00538353,-0.00545013,0.0104923,-0.000430751,-0.817714,0.00714279,0.0169514,769,589,-4.99718,6.53619
-448,435,-4.98816,-6.98749,0.00307687,0.00421954,-0.00393785,0.00762728,-0.000330877,-0.85744,0.00519866,0.0134028,776,589,-4.98814,6.98748
-441,435,-4.99261,-7.39008,0.00188677,0.00326545,-0.00265972,0.00532371,-0.000171487,-0.912197,0.00360766,0.0113828,783,589,-4.99264,7.3901
-434,435,-5.01178,-7.75885,0.000906851,0.00218814,-0.00148827,0.00316779,-7.28011e-05,-0.988643,0.00213654,0.0119134,790,589,-5.01176,7.75885
-427,435,-5.02509,-8.15918,0.000168416,0.00111438,-0.000411857,0.00126856,1.42314e-05,-1.21258,0.000841005,0.00992353,797,589,-5.02508,8.1592
-420,435,-5.0199,-8.56134,-0.000628115,-0.000310129,0.000832811,0.000378731,-0.00131697,0.879719,0.00102776,0.0103842,804,589,-5.01991,8.56136
-413,435,-5.02301,-8.9624,-0.00111746,-0.00151278,0.00182124,0.000516813,-0.00314706,0.731344,0.00228983,0.0106282,811,589,-5.02299,8.96243
-406,435,-5.03174,-9.35583,-0.00136433,-0.00270951,0.00276463,0.000808344,-0.00488219,0.666074,0.00355501,0.0110226,818,589,-5.03176,9.35586
-399,435,-5.04175,-9.74261,-0.00159186,-0.00406864,0.00373387,0.00110362,-0.00676413,0.625274,0.00491874,0.00927297,825,589,-5.04177,9.7426
-392,435,-5.03809,-10.1213,-0.00173033,-0.00549887,0.004725,0.00147226,-0.00870145,0.595668,0.00634888,0.0102093,832,589,-5.03812,10.1213
-385,435,-5.04242,-10.5013,-0.00181658,-0.00705426,0.0057705,0.00190154,-0.0107724,0.57238,0.00789216,0.0151282,839,589,-5.04244,10.5014
-378,435,-5.0506,-10.8158,-0.00193706,-0.00886076,0.00698783,0.00239943,-0.0131973,0.555413,0.00969744,0.0295487,846,589,-5.05058,10.8158
-371,435,-5.12518,-10.7694,-0.00170668,-0.0107032,0.00821418,0.00316025,-0.0155702,0.534889,0.0115782,0.0490433,853,589,-5.12516,10.7694
-364,435,-5.16882,-10.8332,0,0,0,0,0,0,0,-1,860,589,-5.16882,10.8332
-357,435,-5.57343,-10.9666,0,0,0,0,0,0,0,-1,867,589,-5.57342,10.9666
-350,435,-0.86676,-3.69836,0,0,0,0,0,0,0,-1,874,589,-0.866784,3.69834
-343,435,-1.60706,-2.36835,0,0,0,0,0,0,0,-1,881,589,-1.60706,2.36838
-336,435,-2.07263,-1.94012,0,0,0,0,0,0,0,-1,888,589,-2.07265,1.94014
-329,435,-2.55963,-1.5517,0,0,0,0,0,0,0,-1,895,589,-2.5596,1.55168
-322,435,-3.08545,-1.55255,0,0,0,0,0,0,0,-1,902,589,-3.08544,1.55254
-315,435,-0.404297,-2.63763,0,0,0,0,0,0,0,-1,909,589,-0.404276,2.63761
-308,435,-1.70056,-1.90369,0,0,0,0,0,0,0,-1,916,589,-1.70056,1.90367
-301,435,-1.25232,-2.05511,0,0,0,0,0,0,0,-1,923,589,-1.25234,2.05514
-294,435,-1.79974,-1.97321,0,0,0,0,0,0,0,-1,930,589,-1.79973,1.97322
-287,435,0,0,0,0,0,0,0,0,0,-1,937,589,0,0
-280,435,0,0,0,0,0,0,0,0,0,-1,944,589,0,0
-273,435,0,0,0,0,0,0,0,0,0,-1,951,589,0,0
-266,435,0,0,0,0,0,0,0,0,0,-1,958,589,0,0
-259,435,0,0,0,0,0,0,0,0,0,-1,965,589,0,0
-252,435,0,0,0,0,0,0,0,0,0,-1,972,589,0,0
-245,435,0,0,0,0,0,0,0,0,0,-1,979,589,0,0
-238,435,0,0,0,0,0,0,0,0,0,-1,986,589,0,0
-231,435,0,0,0,0,0,0,0,0,0,-1,993,589,0,0
-224,435,0,0,0,0,0,0,0,0,0,-1,1000,589,0,0
-217,435,0,0,0,0,0,0,0,0,0,-1,1007,589,0,0
-210,435,0,0,0,0,0,0,0,0,0,-1,1014,589,0,0
-203,435,0,0,0,0,0,0,0,0,0,-1,1021,589,0,0
-196,435,0,0,0,0,0,0,0,0,0,-1,1028,589,0,0
-189,435,0,0,0,0,0,0,0,0,0,-1,1035,589,0,0
-182,435,0,0,0,0,0,0,0,0,0,-1,1042,589,0,0
-175,435,0,0,0,0,0,0,0,0,0,-1,1049,589,0,0
-168,435,0,0,0,0,0,0,0,0,0,-1,1056,589,0,0
-161,435,0,0,0,0,0,0,0,0,0,-1,1063,589,0,0
-154,435,0,0,0,0,0,0,0,0,0,-1,1070,589,0,0
-147,435,0,0,0,0,0,0,0,0,0,-1,1077,589,0,0
-140,435,0,0,0,0,0,0,0,0,0,-1,1084,589,0,0
-133,435,0,0,0,0,0,0,0,0,0,-1,1091,589,0,0
-126,435,0,0,0,0,0,0,0,0,0,-1,1098,589,0,0
-119,435,0,0,0,0,0,0,0,0,0,-1,1105,589,0,0
-112,435,0,0,0,0,0,0,0,0,0,-1,1112,589,0,0
-105,435,0,0,0,0,0,0,0,0,0,-1,1119,589,0,0
-98,435,0,0,0,0,0,0,0,0,0,-1,1126,589,0,0
-91,435,0,0,0,0,0,0,0,0,0,-1,1133,589,0,0
-84,435,0,0,0,0,0,0,0,0,0,-1,1140,589,0,0
-77,435,0,0,0,0,0,0,0,0,0,-1,1147,589,0,0
-70,435,0,0,0,0,0,0,0,0,0,-1,1154,589,0,0
-63,435,0,0,0,0,0,0,0,0,0,-1,1161,589,0,0
-56,435,0,0,0,0,0,0,0,0,0,-1,1168,589,0,0
-49,435,0,0,0,0,0,0,0,0,0,-1,1175,589,0,0
-42,435,0,0,0,0,0,0,0,0,0,-1,1182,589,0,0
-35,435,0,0,0,0,0,0,0,0,0,-1,1189,589,0,0
-28,435,0,0,0,0,0,0,0,0,0,-1,1196,589,0,0
-21,435,0,0,0,0,0,0,0,0,0,-1,1203,589,0,0
-14,435,0,0,0,0,0,0,0,0,0,-1,1210,589,0,0
-7,435,0,0,0,0,0,0,0,0,0,-1,1217,589,0,0
0,435,0,0,0,0,0,0,0,0,0,-1,1224,589,0,0
7,435,0,0,0,0,0,0,0,0,0,-1,1231,589,0,0
14,435,0,0,0,0,0,0,0,0,0,-1,1238,589,0,0
21,435,0,0,0,0,0,0,0,0,0,-1,1245,589,0,0
28,435,0,0,0,0,0,0,0,0,0,-1,1252,589,0,0
35,435,0,0,0,0,0,0,0,0,0,-1,1259,589,0,0
42,435,0,0,0,0,0,0,0,0,0,-1,1266,589,0,0
49,435,0,0,0,0,0,0,0,0,0,-1,1273,589,0,0
56,435,0,0,0,0,0,0,0,0,0,-1,1280,589,0,0
63,435,0,0,0,0,0,0,0,0,0,-1,1287,589,0,0
70,435,0,0,0,0,0,0,0,0,0,-1,1294,589,0,0
77,435,0,0,0,0,0,0,0,0,0,-1,1301,589,0,0
84,435,0,0,0,0,0,0,0,0,0,-1,1308,589,0,0
91,435,0,0,0,0,0,0,0,0,0,-1,1315,589,0,0
98,435,0,0,0,0,0,0,0,0,0,-1,1322,589,0,0
105,435,0,0,0,0,0,0,0,0,0,-1,1329,589,0,0
112,435,0,0,0,0,0,0,0,0,0,-1,1336,589,0,0
119,435,0,0,0,0,0,0,0,0,0,-1,1343,589,0,0
126,435,0,0,0,0,0,0,0,0,0,-1,1350,589,0,0
133,435,0,0,0,0,0,0,0,0,0,-1,1357,589,0,0
140,435,0,0,0,0,0,0,0,0,0,-1,1364,589,0,0
147,435,0,0,0,0,0,0,0,0,0,-1,1371,589,0,0
154,435,0,0,0,0,0,0,0,0,0,-1,1378,589,0,0
161,435,0,0,0,0,0,0,0,0,0,-1,1385,589,0,0
168,435,0,0,0,0,0,0,0,0,0,-1,1392,589,0,0
175,435,0,0,0,0,0,0,0,0,0,-1,1399,589,0,0
182,435,0,0,0,0,0,0,0,0,0,-1,1406,589,0,0
189,435,0,0,0,0,0,0,0,0,0,-1,1413,589,0,0
196,435,0,0,0,0,0,0,0,0,0,-1,1420,589,0,0
203,435,0,0,0,0,0,0,0,0,0,-1,1427,589,0,0
210,435,0,0,0,0,0,0,0,0,0,-1,1434,589,0,0
217,435,0,0,0,0,0,0,0,0,0,-1,1441,589,0,0
224,435,0,0,0,0,0,0,0,0,0,-1,1448,589,0,0
231,435,0,0,0,0,0,0,0,0,0,-1,1455,589,0,0
238,435,0,0,0,0,0,0,0,0,0,-1,1462,589,0,0
245,435,0,0,0,0,0,0,0,0,0,-1,1469,589,0,0
252,435,0,0,0,0,0,0,0,0,0,-1,1476,589,0,0
259,435,0,0,0,0,0,0,0,0,0,-1,1483,589,0,0
266,435,0,0,0,0,0,0,0,0,0,-1,1490,589,0,0
273,435,0,0,0,0,0,0,0,0,0,-1,1497,589,0,0
280,435,0,0,0,0,0,0,0,0,0,-1,1504,589,0,0
287,435,0,0,0,0,0,0,0,0,0,-1,1511,589,0,0
294,435,0,0,0,0,0,0,0,0,0,-1,1518,589,0,0
301,435,0,0,0,0,0,0,0,0,0,-1,1525,589,0,0
308,435,0,0,0,0,0,0,0,0,0,-1,1532,589,0,0
315,435,0,0,0,0,0,0,0,0,0,-1,1539,589,0,0
322,435,0,0,0,0,0,0,0,0,0,-1,1546,589,0,0
329,435,0,0,0,0,0,0,0,0,0,-1,1553,589,0,0
336,435,0,0,0,0,0,0,0,0,0,-1,1560,589,0,0
343,435,0,0,0,0,0,0,0,0,0,-1,1567,589,0,0
350,435,0,0,0,0,0,0,0,0,0,-1,1574,589,0,0
357,435,0,0,0,0,0,0,0,0,0,-1,1581,589,0,0
364,435,0,0,0,0,0,0,0,0,0,-1,1588,589,0,0
371,435,0,0,0,0,0,0,0,0,0,-1,1595,589,0,0
378,435,0,0,0,0,0,0,0,0,0,-1,1602,589,0,0
385,435,0,0,0,0,0,0,0,0,0,-1,1609,589,0,0
392,435,0,0,0,0,0,0,0,0,0,-1,1616,589,0,0
399,435,0,0,0,0,0,0,0,0,0,-1,1623,589,0,0
406,435,0,0,0,0,0,0,0,0,0,-1,1630,589,0,0
413,435,20.4565,3.49835,0,0,0,0,0,0,0,-1,1637,589,20.4565,-3.49836
420,435,21.4015,1.49609,0,0,0,0,0,0,0,-1,1644,589,21.4015,-1.49609
427,435,22.0464,-0.373962,0,0,0,0,0,0,0,-1,1651,589,22.0464,0.373972
434,435,22.1863,-1.54407,0,0,0,0,0,0,0,-1,1658,589,22.1862,1.54405
441,435,22.3992,-2.38287,0,0,0,0,0,0,0,-1,1665,589,22.3992,2.38289
448,435,7.4585,-0.00292969,0,0,0,0,0,0,0,-1,1672,589,7.45848,0.00294131
455,435,5.49915,-5.047,0,0,0,0,0,0,0,-1,1679,589,5.49914,5.04703
462,435,5.60669,-4.71466,0,0,0,0,0,0,0,-1,1686,589,5.60675,4.71469
469,435,5.87708,1.22351,0,0,0,0,0,0,0,-1,1693,589,5.87703,-1.22351
476,435,6.14136,1.37714,0,0,0,0,0,0,0,-1,1700,589,6.14138,-1.37712
483,435,6.49243,1.36169,0,0,0,0,0,0,0,-1,1707,589,6.49242,-1.36171
490,435,4.38391,-1.36218,0,0,0,0,0,0,0,-1,1714,589,4.38389,1.3622
497,435,7.23499,-3.64551,0,0,0,0,0,0,0,-1,1721,589,7.23495,3.64551
504,435,7.31189,-3.75909,0,0,0,0,0,0,0,-1,1728,589,7.31184,3.75911
511,435,12.6661,-9.1123,0,0,0,0,0,0,0,-1,1735,589,12.6662,9.11229
518,435,12.8264,-8.58301,0.00455124,0.00260027,0.00235569,0.00612543,0.00102608,0.589098,0.0037882,0.0273859,1742,589,12.8264,8.583
525,435,12.7899,-8.14178,0.00361763,0.00214091,0.00198922,0.0050011,0.000757443,0.607689,0.00311246,0.0126183,1749,589,12.79,8.14178
532,435,12.7767,-7.71747,0.00274524,0.00164244,0.00160532,0.00389121,0.000496461,0.619969,0.00244551,0.0135636,1756,589,12.7767,7.71747
539,435,12.7729,-7.28912,0.00199971,0.0011384,0.00123556,0.00287752,0.000260589,0.617706,0.00183765,0.0146179,1763,589,12.7729,7.28913
546,435,12.7587,-6.87415,0.00137937,0.00078282,0.000957612,0.00208409,7.81065e-05,0.634421,0.0013641,0.0145173,1770,589,12.7587,6.87413
553,435,12.7512,-6.48248,0.00076509,0.000466409,0.000695697,0.00132729,-9.57965e-05,0.679671,0.000918462,0.0111358,1777,589,12.7512,6.48245
560,435,12.7461,-6.06061,6.45864e-05,0.000328835,0.000474995,0.000689739,-0.000296318,0.921049,0.00058421,0.00946561,1784,589,12.7461,6.06058
567,435,12.7477,-5.6416,-0.000555185,0.000283048,0.000336245,0.000401258,-0.000673395,1.23273,0.000627047,0.00884859,1791,589,12.7477,5.64157
574,435,12.7307,-5.22455,-0.00116171,0.000344504,0.000240038,0.000381832,-0.00119904,1.41652,0.000952501,0.0100644,1798,589,12.7308,5.22452
581,435,12.7181,-4.79584,-0.00183747,0.00056455,0.000192865,0.000579938,-0.00185285,1.49118,0.00146726,0.0167853,1805,589,12.7181,4.79585
588,435,12.7101,-4.40308,-0.00253331,0.00105965,0.000269953,0.00107982,-0.00255348,1.49622,0.00215443,0.0315419,1812,589,12.7101,4.40305
595,435,12.6003,-4.02014,-0.0032822,0.00199455,0.000505102,0.00204246,-0.00333011,1.47622,0.00313141,0.0334168,1819,589,12.6004,4.02013
602,435,12.509,-3.2818,0,0,0,0,0,0,0,-1,1826,589,12.5091,3.28178
609,435,12.493,-2.77808,0,0,0,0,0,0,0,-1,1833,589,12.493,2.77805
616,435,5.05151,-2.75269,0,0,0,0,0,0,0,-1,1840,589,5.05157,2.7527
623,435,11.7588,3.9704,0,0,0,0,0,0,0,-1,1847,589,11.7587,-3.97043
630,435,4.72742,-0.87561,0,0,0,0,0,0,0,-1,1854,589,4.7274,0.875636
637,435,5.05286,1.48792,0,0,0,0,0,0,0,-1,1861,589,5.05291,-1.48792
644,435,0,0,0,0,0,0,0,0,0,-1,1868,589,0,0
651,435,0,0,0,0,0,0,0,0,0,-1,1875,589,0,0
658,435,0,0,0,0,0,0,0,0,0,-1,1882,589,0,0
665,435,0,0,0,0,0,0,0,0,0,-1,1889,589,0,0
672,435,0,0,0,0,0,0,0,0,0,-1,1896,589,0,0
679,435,0,0,0,0,0,0,0,0,0,-1,1903,589,0,0
686,435,0,0,0,0,0,0,0,0,0,-1,1910,589,0,0
693,435,0,0,0,0,0,0,0,0,0,-1,1917,589,0,0
700,435,0,0,0,0,0,0,0,0,0,-1,1924,589,0,0
707,435,0,0,0,0,0,0,0,0,0,-1,1931,589,0,0
714,435,0,0,0,0,0,0,0,0,0,-1,1938,589,0,0
721,435,0,0,0,0,0,0,0,0,0,-1,1945,589,0,0
728,435,0,0,0,0,0,0,0,0,0,-1,1952,589,0,0
735,435,0,0,0,0,0,0,0,0,0,-1,1959,589,0,0
742,435,0,0,0,0,0,0,0,0,0,-1,1966,589,0,0
749,435,0,0,0,0,0,0,0,0,0,-1,1973,589,0,0
756,435,0,0,0,0,0,0,0,0,0,-1,1980,589,0,0
763,435,0,0,0,0,0,0,0,0,0,-1,1987,589,0,0
770,435,0,0,0,0,0,0,0,0,0,-1,1994,589,0,0
777,435,0,0,0,0,0,0,0,0,0,-1,2001,589,0,0
784,435,0,0,0,0,0,0,0,0,0,-1,2008,589,0,0
791,435,0,0,0,0,0,0,0,0,0,-1,2015,589,0,0
798,435,0,0,0,0,0,0,0,0,0,-1,2022,589,0,0
805,435,0,0,0,0,0,0,0,0,0,-1,2029,589,0,0
812,435,0,0,0,0,0,0,0,0,0,-1,2036,589,0,0
-700,428,0,0,0,0,0,0,0,0,0,-1,524,596,0,0
-693,428,0,0,0,0,0,0,0,0,0,-1,531,596,0,0
-686,428,0,0,0,0,0,0,0,0,0,-1,538,596,0,0
-679,428,0,0,0,0,0,0,0,0,0,-1,545,596,0,0
-672,428,0,0,0,0,0,0,0,0,0,-1,552,596,0,0
-665,428,0,0,0,0,0,0,0,0,0,-1,559,596,0,0
-658,428,0,0,0,0,0,0,0,0,0,-1,566,596,0,0
-651,428,0,0,0,0,0,0,0,0,0,-1,573,596,0,0
-644,428,0,0,0,0,0,0,0,0,0,-1,580,596,0,0
-637,428,0,0,0,0,0,0,0,0,0,-1,587,596,0,0
-630,428,0,0,0,0,0,0,0,0,0,-1,594,596,0,0
-623,428,0,0,0,0,0,0,0,0,0,-1,601,596,0,0
-616,428,0,0,0,0,0,0,0,0,0,-1,608,596,0,0
-609,428,0,0,0,0,0,0,0,0,0,-1,615,596,0,0
-602,428,0,0,0,0,0,0,0,0,0,-1,622,596,0,0
-595,428,0,0,0,0,0,0,0,0,0,-1,629,596,0,0
-588,428,0,0,0,0,0,0,0,0,0,-1,636,596,0,0
-581,428,0,0,0,0,0,0,0,0,0,-1,643,596,0,0
-574,428,0,0,0,0,0,0,0,0,0,-1,650,596,0,0
-567,428,0,0,0,0,0,0,0,0,0,-1,657,596,0,0
-560,428,0,0,0,0,0,0,0,0,0,-1,664,596,0,0
-553,428,0,0,0,0,0,0,0,0,0,-1,671,596,0,0
-546,428,0,0,0,0,0,0,0,0,0,-1,678,596,0,0
-539,428,0,0,0,0,0,0,0,0,0,-1,685,596,0,0
-532,428,0,0,0,0,0,0,0,0,0,-1,692,596,0,0
-525,428,-9.59918,7.58618,0,0,0,0,0,0,0,-1,699,596,-9.59918,-7.5862
-518,428,-2.92285,-4.81854,0,0,0,0,0,0,0,-1,706,596,-2.92285,4.81856
-511,428,-3.68811,-4.79474,0,0,0,0,0,0,0,-1,713,596,-3.68811,4.79474
-504,428,-4.45337,-4.77094,0,0,0,0,0,0,0,-1,720,596,-4.45337,4.77092
-497,428,-2.98108,-3.77502,0,0,0,0,0,0,0,-1,727,596,-2.98106,3.77505
-490,428,-4.45392,-1.88556,0,0,0,0,0,0,0,-1,734,596,-4.45389,1.88555
-483,428,-6.83447,-4.43915,0,0,0,0,0,0,0,-1,741,596,-6.83445,4.43913
-476,428,-6.05432,-5.03345,0.0101843,0.00675587,-0.00915263,0.0177819,-0.000841681,-0.692824,0.0121449,0.047994,748,596,-6.05435,5.03345
-469,428,-5.28656,-5.66229,0.00769677,0.0058775,-0.00731019,0.0141537,-0.000579434,-0.7235,0.00963476,0.0234306,755,596,-5.28657,5.66229
-462,428,-5.3573,-6.04993,0.00575452,0.00494028,-0.00572196,0.0110838,-0.000389031,-0.749883,0.00752225,0.0212894,762,596,-5.3573,6.04992
-455,428,-5.39923,-6.51294,0.00418232,0.00404339,-0.00440029,0.0085137,-0.000287984,-0.777506,0.00577419,0.013074,769,596,-5.39925,6.51294
-448,428,-5.40851,-6.9259,0.00283753,0.00306618,-0.00309982,0.00605379,-0.000150074,-0.80383,0.0040868,0.0108109,776,596,-5.40854,6.92588
-441,428,-5.40948,-7.34216,0.0017209,0.00219616,-0.00191945,0.00389264,2.44268e-05,-0.846985,0.00258699,0.0130246,783,596,-5.40947,7.34218
-434,428,-5.40436,-7.77533,0.000736911,0.00120966,-0.000790154,0.00179804,0.000148532,-0.930736,0.00115238,0.00954718,790,596,-5.40434,7.77535
-427,428,-5.39764,-8.18988,-6.95611e-05,0.00016652,0.000313266,0.000383247,-0.000286288,0.965575,0.000387904,0.00942422,797,596,-5.39765,8.18991
-420,428,-5.39716,-8.55365,-0.000925138,-0.00129725,0.00161311,0.000512608,-0.002735,0.727982,0.00201604,0.0104084,804,596,-5.39718,8.55362
-413,428,-5.41425,-8.9328,-0.00155573,-0.00255818,0.00272565,0.000714403,-0.00482831,0.694468,0.00348152,0.0133206,811,596,-5.41426,8.93281
-406,428,-5.42651,-9.32452,-0.00205811,-0.00394315,0.00387093,0.000983391,-0.00698466,0.665979,0.00501647,0.0167486,818,596,-5.42652,9.32452
-399,428,-5.4259,-9.71326,-0.0025719,-0.005554,0.00508983,0.00124079,-0.00936669,0.642912,0.00669648,0.0149209,825,596,-5.42592,9.71327
-392,428,-5.40662,-10.1183,-0.00301455,-0.00727069,0.00637992,0.00158286,-0.0118681,0.624422,0.00848901,0.0166145,832,596,-5.40663,10.1183
-385,428,-5.49634,-10.4752,-0.00349319,-0.00936154,0.00784461,0.00194804,-0.0148028,0.606435,0.0105778,0.0351436,839,596,-5.49631,10.4752
-378,428,-5.52344,-10.7912,0,0,0,0,0,0,0,-1,846,596,-5.52344,10.7912
-371,428,-5.56659,-10.3806,0,0,0,0,0,0,0,-1,853,596,-5.56658,10.3806
-364,428,-6.33643,-10.7223,0,0,0,0,0,0,0,-1,860,596,-6.33645,10.7223
-357,428,-3.20996,-4.70966,0,0,0,0,0,0,0,-1,867,596,-3.20997,4.70965
-350,428,-1.62793,-3.94055,0,0,0,0,0,0,0,-1,874,596,-1.62794,3.94055
-343,428,-0.0567017,-4.80994,0,0,0,0,0,0,0,-1,881,596,-0.0567096,4.80996
-336,428,-3.29175,-1.39569,0,0,0,0,0,0,0,-1,888,596,-3.29172,1.39568
-329,428,-3.71564,-0.791321,0,0,0,0,0,0,0,-1,895,596,-3.71564,0.791299
-322,428,-5.52863,-3.59827,0,0,0,0,0,0,0,-1,902,596,-5.52865,3.59829
-315,428,-4.57172,-1.22052,0,0,0,0,0,0,0,-1,909,596,-4.57171,1.22052
-308,428,-5.94324,-0.810791,0,0,0,0,0,0,0,-1,916,596,-5.94321,0.810803
-301,428,0,0,0,0,0,0,0,0,0,-1,923,596,0,0
-294,428,0,0,0,0,0,0,0,0,0,-1,930,596,0,0
-287,428,0,0,0,0,0,0,0,0,0,-1,937,596,0,0
-280,428,0,0,0,0,0,0,0,0,0,-1,944,596,0,0
-273,428,0,0,0,0,0,0,0,0,0,-1,951,596,0,0
-266,428,0,0,0,0,0,0,0,0,0,-1,958,596,0,0
-259,428,0,0,0,0,0,0,0,0,0,-1,965,596,0,0
-252,428,0,0,0,0,0,0,0,0,0,-1,972,596,0,0
-245,428,0,0,0,0,0,0,0,0,0,-1,979,596,0,0
-238,428,0,0,0,0,0,0,0,0,0,-1,986,596,0,0
-231,428,0,0,0,0,0,0,0,0,0,-1,993,596,0,0
-224,428,0,0,0,0,0,0,0,0,0,-1,1000,596,0,0
-217,428,0,0,0,0,0,0,0,0,0,-1,1007,596,0,0
-210,428,0,0,0,0,0,0,0,0,0,-1,1014,596,0,0
-203,428,0,0,0,0,0,0,0,0,0,-1,1021,596,0,0
-196,428,0,0,0,0,0,0,0,0,0,-1,1028,596,0,0
-189,428,0,0,0,0,0,0,0,0,0,-1,1035,596,0,0
-182,428,0,0,0,0,0,0,0,0,0,-1,1042,596,0,0
-175,428,0,0,0,0,0,0,0,0,0,-1,1049,596,0,0
-168,428,0,0,0,0,0,0,0,0,0,-1,1056,596,0,0
-161,428,0,0,0,0,0,0,0,0,0,-1,1063,596,0,0
-154,428,0,0,0,0,0,0,0,0,0,-1,1070,596,0,0
-147,428,0,0,0,0,0,0,0,0,0,-1,1077,596,0,0
-140,428,0,0,0,0,0,0,0,0,0,-1,1084,596,0,0
-133,428,0,0,0,0,0,0,0,0,0,-1,1091,596,0,0
-126,428,0,0,0,0,0,0,0,0,0,-1,1098,596,0,0
-119,428,0,0,0,0,0,0,0,0,0,-1,1105,596,0,0
-112,428,0,0,0,0,0,0,0,0,0,-1,1112,596,0,0
-105,428,0,0,0,0,0,0,0,0,0,-1,1119,596,0,0
-98,428,0,0,0,0,0,0,0,0,0,-1,1126,596,0,0
-91,428,0,0,0,0,0,0,0,0,0,-1,1133,596,0,0
-84,428,0,0,0,0,0,0,0,0,0,-1,1140,596,0,0
-77,428,0,0,0,0,0,0,0,0,0,-1,1147,596,0,0
-70,428,0,0,0,0,0,0,0,0,0,-1,1154,596,0,0
-63,428,0,0,0,0,0,0,0,0,0,-1,1161,596,0,0
-56,428,0,0,0,0,0,0,0,0,0,-1,1168,596,0,0
-49,428,0,0,0,0,0,0,0,0,0,-1,1175,596,0,0
-42,428,0,0,0,0,0,0,0,0,0,-1,1182,596,0,0
-35,428,0,0,0,0,0,0,0,0,0,-1,1189,596,0,0
-28,428,0,0,0,0,0,0,0,0,0,-1,1196,596,0,0
-21,428,0,0,0,0,0,0,0,0,0,-1,1203,596,0,0
-14,428,0,0,0,0,0,0,0,0,0,-1,1210,596,0,0
-7,428,0,0,0,0,0,0,0,0,0,-1,1217,596,0,0
0,428,0,0,0,0,0,0,0,0,0,-1,1224,596,0,0
7,428,0,0,0,0,0,0,0,0,0,-1,1231,596,0,0
14,428,0,0,0,0,0,0,0,0,0,-1,1238,596,0,0
21,428,0,0,0,0,0,0,0,0,0,-1,1245,596,0,0
28,428,0,0,0,0,0,0,0,0,0,-1,1252,596,0,0
35,428,0,0,0,0,0,0,0,0,0,-1,1259,596,0,0
42,428,0,0,0,0,0,0,0,0,0,-1,1266,596,0,0
49,428,0,0,0,0,0,0,0,0,0,-1,1273,596,0,0
56,428,0,0,0,0,0,0,0,0,0,-1,1280,596,0,0
63,428,0,0,0,0,0,0,0,0,0,-1,1287,596,0,0
70,428,0,0,0,0,0,0,0,0,0,-1,1294,596,0,0
77,428,0,0,0,0,0,0,0,0,0,-1,1301,596,0,0
84,428,0,0,0,0,0,0,0,0,0,-1,1308,596,0,0
91,428,0,0,0,0,0,0,0,0,0,-1,1315,596,0,0
98,428,0,0,0,0,0,0,0,0,0,-1,1322,596,0,0
105,428,0,0,0,0,0,0,0,0,0,-1,1329,596,0,0
112,428,0,0,0,0,0,0,0,0,0,-1,1336,596,0,0
119,428,0,0,0,0,0,0,0,0,0,-1,1343,596,0,0
126,428,0,0,0,0,0,0,0,0,0,-1,1350,596,0,0
133,428,0,0,0,0,0,0,0,0,0,-1,1357,596,0,0
140,428,0,0,0,0,0,0,0,0,0,-1,1364,596,0,0
147,428,0,0,0,0,0,0,0,0,0,-1,1371,596,0,0
154,428,0,0,0,0,0,0,0,0,0,-1,1378,596,0,0
161,428,0,0,0,0,0,0,0,0,0,-1,1385,596,0,0
168,428,0,0,0,0,0,0,0,0,0,-1,1392,596,0,0
175,428,0,0,0,0,0,0,0,0,0,-1,1399,596,0,0
182,428,0,0,0,0,0,0,0,0,0,-1,1406,596,0,0
189,428,0,0,0,0,0,0,0,0,0,-1,1413,596,0,0
196,428,0,0,0,0,0,0,0,0,0,-1,1420,596,0,0
203,428,0,0,0,0,0,0,0,0,0,-1,1427,596,0,0
210,428,0,0,0,0,0,0,0,0,0,-1,1434,596,0,0
217,428,0,0,0,0,0,0,0,0,0,-1,1441,596,0,0
224,428,0,0,0,0,0,0,0,0,0,-1,1448,596,0,0
231,428,0,0,0,0,0,0,0,0,0,-1,1455,596,0,0
238,428,0,0,0,0,0,0,0,0,0,-1,1462,596,0,0
245,428,0,0,0,0,0,0,0,0,0,-1,1469,596,0,0
252,428,0,0,0,0,0,0,0,0,0,-1,1476,596,0,0
259,428,0,0,0,0,0,0,0,0,0,-1,1483,596,0,0
266,428,0,0,0,0,0,0,0,0,0,-1,1490,596,0,0
273,428,0,0,0,0,0,0,0,0,0,-1,1497,596,0,0
280,428,0,0,0,0,0,0,0,0,0,-1,1504,596,0,0
287,428,0,0,0,0,0,0,0,0,0,-1,1511,596,0,0
294,428,0,0,0,0,0,0,0,0,0,-1,1518,596,0,0
301,428,0,0,0,0,0,0,0,0,0,-1,1525,596,0,0
308,428,0,0,0,0,0,0,0,0,0,-1,1532,596,0,0
315,428,0,0,0,0,0,0,0,0,0,-1,1539,596,0,0
322,428,0,0,0,0,0,0,0,0,0,-1,1546,596,0,0
329,428,0,0,0,0,0,0,0,0,0,-1,1553,596,0,0
336,428,0,0,0,0,0,0,0,0,0,-1,1560,596,0,0
343,428,0,0,0,0,0,0,0,0,0,-1,1567,596,0,0
350,428,0,0,0,0,0,0,0,0,0,-1,1574,596,0,0
357,428,0,0,0,0,0,0,0,0,0,-1,1581,596,0,0
364,428,0,0,0,0,0,0,0,0,0,-1,1588,596,0,0
371,428,0,0,0,0,0,0,0,0,0,-1,1595,596,0,0
378,428,0,0,0,0,0,0,0,0,0,-1,1602,596,0,0
385,428,0,0,0,0,0,0,0,0,0,-1,1609,596,0,0
392,428,0,0,0,0,0,0,0,0,0,-1,1616,596,0,0
399,428,0,0,0,0,0,0,0,0,0,-1,1623,596,0,0
406,428,0,0,0,0,0,0,0,0,0,-1,1630,596,0,0
413,428,0,0,0,0,0,0,0,0,0,-1,1637,596,0,0
420,428,19.8469,1.3399,0,0,0,0,0,0,0,-1,1644,596,19.8469,-1.33992
427,428,20.7299,-0.225281,0,0,0,0,0,0,0,-1,1651,596,20.7299,0.225262
434,428,19.8915,-0.583069,0,0,0,0,0,0,0,-1,1658,596,19.8915,0.583075
441,428,8.17993,0.607483,0,0,0,0,0,0,0,-1,1665,596,8.17997,-0.607513
448,428,7.84338,-0.385986,0,0,0,0,0,0,0,-1,1672,596,7.84336,0.385978
455,428,6.64038,2.1123,0,0,0,0,0,0,0,-1,1679,596,6.64037,-2.11229
462,428,4.84106,4.12341,0,0,0,0,0,0,0,-1,1686,596,4.84107,-4.12339
469,428,7.83789,3.10083,0,0,0,0,0,0,0,-1,1693,596,7.83785,-3.10086
476,428,7.61255,1.73956,0,0,0,0,0,0,0,-1,1700,596,7.61252,-1.73958
483,428,7.22766,1.05121,0,0,0,0,0,0,0,-1,1707,596,7.2277,-1.05121
490,428,5.4071,-3.2793,0,0,0,0,0,0,0,-1,1714,596,5.40707,3.27929
497,428,7.84106,-3.65491,0,0,0,0,0,0,0,-1,1721,596,7.84107,3.65491
504,428,6.92139,-2.83356,0,0,0,0,0,0,0,-1,1728,596,6.92137,2.83353
511,428,7.88501,-3.78723,0,0,0,0,0,0,0,-1,1735,596,7.88502,3.78722
518,428,13.1838,-8.64917,0,0,0,0,0,0,0,-1,1742,596,13.1839,8.64918
525,428,13.1777,-8.10413,0,0,0,0,0,0,0,-1,1749,596,13.1778,8.1041
532,428,13.1543,-7.70557,0.00253785,0.00197785,0.00157435,0.00385691,0.000658791,0.697392,0.00238223,0.0206913,1756,596,13.1544,7.70556
539,428,13.1919,-7.29535,0.00179322,0.00142763,0.00114857,0.00277346,0.000447396,0.706484,0.00171935,0.0207566,1763,596,13.1919,7.29532
546,428,13.1783,-6.89313,0.00124103,0.00105106,0.000860034,0.00201131,0.000280785,0.7304,0.00125777,0.0164198,1770,596,13.1784,6.89314
553,428,13.163,-6.48267,0.000739394,0.000679811,0.000606672,0.00131701,0.000102199,0.760865,0.000845998,0.01139,1777,596,13.163,6.48269
560,428,13.1854,-6.05646,0.000186273,0.000491632,0.000408326,0.000774889,-9.69843e-05,0.964308,0.00055177,0.0122356,1784,596,13.1854,6.05644
567,428,13.1871,-5.66217,-0.000271331,0.000441467,0.000321785,0.000565241,-0.000395105,1.20359,0.000557349,0.0113533,1791,596,13.1871,5.66216
574,428,13.1685,-5.23859,-0.000661928,0.000513633,0.000312959,0.000591758,-0.000740053,1.32616,0.000770508,0.0129025,1798,596,13.1684,5.23857
581,428,13.1351,-4.78632,-0.00107565,0.000751498,0.000378924,0.000826965,-0.00115112,1.37421,0.00114715,0.0108363,1805,596,13.1352,4.78633
588,428,13.1194,-4.34119,-0.00151654,0.00124155,0.000551665,0.0013478,-0.00162279,1.38053,0.00171752,0.0141138,1812,596,13.1194,4.34121
595,428,13.0919,-3.8952,-0.00195991,0.00209201,0.000889342,0.00227861,-0.00214652,1.36397,0.00255523,0.013094,1819,596,13.0919,3.89521
602,428,13.0062,-3.44574,-0.00261771,0.0034046,0.00131503,0.00367922,-0.00289234,1.36492,0.00380315,0.02373,1826,596,13.0063,3.44572
609,428,12.9518,-2.93085,-0.003201,0.00504049,0.00198848,0.00549517,-0.00365569,1.346,0.00531871,0.0493039,1833,596,12.9518,2.93082
616,428,12.9658,-2.39478,0,0,0,0,0,0,0,-1,1840,596,12.9658,2.39475
623,428,9.53577,1.12518,0,0,0,0,0,0,0,-1,1847,596,9.5358,-1.1252
630,428,7.07996,6.88562,0,0,0,0,0,0,0,-1,1854,596,7.0799,-6.88565
637,428,3.95435,1.90857,0,0,0,0,0,0,0,-1,1861,596,3.95439,-1.90858
644,428,5.75476,0.888977,0,0,0,0,0,0,0,-1,1868,596,5.75472,-0.888955
651,428,0,0,0,0,0,0,0,0,0,-1,1875,596,0,0
658,428,0,0,0,0,0,0,0,0,0,-1,1882,596,0,0
665,428,0,0,0,0,0,0,0,0,0,-1,1889,596,0,0
672,428,0,0,0,0,0,0,0,0,0,-1,1896,596,0,0
679,428,0,0,0,0,0,0,0,0,0,-1,1903,596,0,0
686,428,0,0,0,0,0,0,0,0,0,-1,1910,596,0,0
693,428,0,0,0,0,0,0,0,0,0,-1,1917,596,0,0
700,428,0,0,0,0,0,0,0,0,0,-1,1924,596,0,0
707,428,0,0,0,0,0,0,0,0,0,-1,1931,596,0,0
714,428,0,0,0,0,0,0,0,0,0,-1,1938,596,0,0
721,428,0,0,0,0,0,0,0,0,0,-1,1945,596,0,0
728,428,0,0,0,0,0,0,0,0,0,-1,1952,596,0,0
735,428,0,0,0,0,0,0,0,0,0,-1,1959,596,0,0
742,428,0,0,0,0,0,0,0,0,0,-1,1966,596,0,0
749,428,0,0,0,0,0,0,0,0,0,-1,1973,596,0,0
756,428,0,0,0,0,0,0,0,0,0,-1,1980,596,0,0
763,428,0,0,0,0,0,0,0,0,0,-1,1987,596,0,0
770,428,0,0,0,0,0,0,0,0,0,-1,1994,596,0,0
777,428,0,0,0,0,0,0,0,0,0,-1,2001,596,0,0
784,428,0,0,0,0,0,0,0,0,0,-1,2008,596,0,0
791,428,0,0,0,0,0,0,0,0,0,-1,2015,596,0,0
798,428,0,0,0,0,0,0,0,0,0,-1,2022,596,0,0
805,428,0,0,0,0,0,0,0,0,0,-1,2029,596,0,0
812,428,0,0,0,0,0,0,0,0,0,-1,2036,596,0,0
-700,421,0,0,0,0,0,0,0,0,0,-1,524,603,0,0
-693,421,0,0,0,0,0,0,0,0,0,-1,531,603,0,0
-686,421,0,0,0,0,0,0,0,0,0,-1,538,603,0,0
-679,421,0,0,0,0,0,0,0,0,0,-1,545,603,0,0
-672,421,0,0,0,0,0,0,0,0,0,-1,552,603,0,0
-665,421,0,0,0,0,0,0,0,0,0,-1,559,603,0,0
-658,421,0,0,0,0,0,0,0,0,0,-1,566,603,0,0
-651,421,0,0,0,0,0,0,0,0,0,-1,573,603,0,0
-644,421,0,0,0,0,0,0,0,0,0,-1,580,603,0,0
-637,421,0,0,0,0,0,0,0,0,0,-1,587,603,0,0
-630,421,0,0,0,0,0,0,0,0,0,-1,594,603,0,0
-623,421,0,0,0,0,0,0,0,0,0,-1,601,603,0,0
-616,421,0,0,0,0,0,0,0,0,0,-1,608,603,0,0
-609,421,0,0,0,0,0,0,0,0,0,-1,615,603,0,0
-602,421,0,0,0,0,0,0,0,0,0,-1,622,603,0,0
-595,421,0,0,0,0,0,0,0,0,0,-1,629,603,0,0
-588,421,0,0,0,0,0,0,0,0,0,-1,636,603,0,0
-581,421,0,0,0,0,0,0,0,0,0,-1,643,603,0,0
-574,421,0,0,0,0,0,0,0,0,0,-1,650,603,0,0
-567,421,0,0,0,0,0,0,0,0,0,-1,657,603,0,0
-560,421,0,0,0,0,0,0,0,0,0,-1,664,603,0,0
-553,421,0,0,0,0,0,0,0,0,0,-1,671,603,0,0
-546,421,0,0,0,0,0,0,0,0,0,-1,678,603,0,0
-539,421,0,0,0,0,0,0,0,0,0,-1,685,603,0,0
-532,421,-8.97382,6.95636,0,0,0,0,0,0,0,-1,692,603,-8.97384,-6.95634
-525,421,-2.11481,-8.04272,0,0,0,0,0,0,0,-1,699,603,-2.11483,8.0427
-518,421,-3.05908,-5.07233,0,0,0,0,0,0,0,-1,706,603,-3.0591,5.07235
-511,421,-4.63525,-4.08447,0,0,0,0,0,0,0,-1,713,603,-4.63524,4.08449
-504,421,-4.97272,-4.38385,0,0,0,0,0,0,0,-1,720,603,-4.9727,4.38383
-497,421,-6.63141,-2.32501,0,0,0,0,0,0,0,-1,727,603,-6.6314,2.32498
-490,421,-5.52075,-3.10205,0,0,0,0,0,0,0,-1,734,603,-5.52075,3.10204
-483,421,-5.72748,-5.04431,0,0,0,0,0,0,0,-1,741,603,-5.72746,5.0443
-476,421,-5.72809,-5.39368,0.00775597,0.00467896,-0.00678212,0.0131719,-0.000736974,-0.673862,0.00903695,0.0296356,748,603,-5.7281,5.3937
-469,421,-5.77209,-5.66553,0.00611447,0.00414189,-0.00557473,0.0107895,-0.000533124,-0.697843,0.00737713,0.0222937,755,603,-5.77211,5.66555
-462,421,-5.79108,-6.1178,0.00473757,0.00351023,-0.00445618,0.00862214,-0.000374337,-0.716973,0.00587685,0.0186514,762,603,-5.79108,6.11779
-455,421,-5.7912,-6.51971,0.00354677,0.00284659,-0.00344185,0.00665629,-0.000262927,-0.734715,0.00452771,0.0180637,769,603,-5.79119,6.5197
-448,421,-5.78418,-6.92743,0.00246165,0.00205068,-0.00235368,0.00461879,-0.000106466,-0.741857,0.00311529,0.0173534,776,603,-5.78416,6.92744
-441,421,-5.80029,-7.34607,0.00144335,0.0012524,-0.00127477,0.00262621,6.95339e-05,-0.748021,0.0017281,0.0139518,783,603,-5.80028,7.34607
-434,421,-5.81354,-7.76379,0.00048033,0.000348246,-0.000189421,0.000614892,0.000213684,-0.617662,0.000360469,0.00977813,790,603,-5.81352,7.7638
-427,421,-5.79956,-8.16571,-0.000388686,-0.00066526,0.00095018,0.000433217,-0.00148716,0.713137,0.00116306,0.00848142,797,603,-5.79957,8.16571
-420,421,-5.80194,-8.53247,-0.0012962,-0.00214002,0.00230996,0.000630057,-0.00406628,0.69507,0.00294344,0.0105292,804,603,-5.80196,8.53248
-413,421,-5.81616,-8.91064,-0.00209128,-0.00346493,0.00359798,0.000884842,-0.00644106,0.691087,0.00461733,0.0137114,811,603,-5.81619,8.91067
-406,421,-5.84125,-9.32959,-0.00292224,-0.00507501,0.00503012,0.00114538,-0.00914262,0.679994,0.00651054,0.0194962,818,603,-5.84124,9.32959
-399,421,-5.7843,-9.76691,-0.00381837,-0.00700208,0.0066129,0.00139158,-0.012212,0.667285,0.00864263,0.0232958,825,603,-5.78432,9.76693
-392,421,-5.88525,-10.0499,-0.00471982,-0.00911607,0.00838518,0.00175056,-0.0155864,0.657211,0.0110209,0.0325447,832,603,-5.88525,10.0498
-385,421,-5.90051,-10.4063,0,0,0,0,0,0,0,-1,839,603,-5.90052,10.4063
-378,421,-4.94733,-8.87909,0,0,0,0,0,0,0,-1,846,603,-4.94731,8.87906
-371,421,-5.65082,-7.01849,0,0,0,0,0,0,0,-1,853,603,-5.65082,7.0185
-364,421,-5.94189,-7.09875,0,0,0,0,0,0,0,-1,860,603,-5.94192,7.09878
-357,421,-7.62531,-8.26337,0,0,0,0,0,0,0,-1,867,603,-7.62532,8.26337
-350,421,-5.38019,-3.75024,0,0,0,0,0,0,0,-1,874,603,-5.38017,3.75026
-343,421,-6.22797,-2.57123,0,0,0,0,0,0,0,-1,881,603,-6.22798,2.57121
-336,421,-6.22882,-2.59369,0,0,0,0,0,0,0,-1,888,603,-6.22883,2.5937
-329,421,-4.50134,-1.49469,0,0,0,0,0,0,0,-1,895,603,-4.50137,1.49468
-322,421,-6.30377,-0.285339,0,0,0,0,0,0,0,-1,902,603,-6.30379,0.285355
-315,421,-4.47821,-1.26733,0,0,0,0,0,0,0,-1,909,603,-4.47824,1.26732
-308,421,0,0,0,0,0,0,0,0,0,-1,916,603,0,0
-301,421,0,0,0,0,0,0,0,0,0,-1,923,603,0,0
-294,421,0,0,0,0,0,0,0,0,0,-1,930,603,0,0
-287,421,0,0,0,0,0,0,0,0,0,-1,937,603,0,0
-280,421,0,0,0,0,0,0,0,0,0,-1,944,603,0,0
-273,421,0,0,0,0,0,0,0,0,0,-1,951,603,0,0
-266,421,0,0,0,0,0,0,0,0,0,-1,958,603,0,0
-259,421,0,0,0,0,0,0,0,0,0,-1,965,603,0,0
-252,421,0,0,0,0,0,0,0,0,0,-1,972,603,0,0
-245,421,0,0,0,0,0,0,0,0,0,-1,979,603,0,0
-238,421,0,0,0,0,0,0,0,0,0,-1,986,603,0,0
-231,421,0,0,0,0,0,0,0,0,0,-1,993,603,0,0
-224,421,0,0,0,0,0,0,0,0,0,-1,1000,603,0,0
-217,421,0,0,0,0,0,0,0,0,0,-1,1007,603,0,0
-210,421,0,0,0,0,0,0,0,0,0,-1,1014,603,0,0
-203,421,0,0,0,0,0,0,0,0,0,-1,1021,603,0,0
-196,421,0,0,0,0,0,0,0,0,0,-1,1028,603,0,0
-189,421,0,0,0,0,0,0,0,0,0,-1,1035,603,0,0
-182,421,0,0,0,0,0,0,0,0,0,-1,1042,603,0,0
-175,421,0,0,0,0,0,0,0,0,0,-1,1049,603,0,0
-168,421,0,0,0,0,0,0,0,0,0,-1,1056,603,0,0
-161,421,0,0,0,0,0,0,0,0,0,-1,1063,603,0,0
-154,421,0,0,0,0,0,0,0,0,0,-1,1070,603,0,0
-147,421,0,0,0,0,0,0,0,0,0,-1,1077,603,0,0
-140,421,0,0,0,0,0,0,0,0,0,-1,1084,603,0,0
-133,421,0,0,0,0,0,0,0,0,0,-1,1091,603,0,0
-126,421,0,0,0,0,0,0,0,0,0,-1,1098,603,0,0
-119,421,0,0,0,0,0,0,0,0,0,-1,1105,603,0,0
-112,421,0,0,0,0,0,0,0,0,0,-1,1112,603,0,0
-105,421,0,0,0,0,0,0,0,0,0,-1,1119,603,0,0
-98,421,0,0,0,0,0,0,0,0,0,-1,1126,603,0,0
-91,421,0,0,0,0,0,0,0,0,0,-1,1133,603,0,0
-84,421,0,0,0,0,0,0,0,0,0,-1,1140,603,0,0
-77,421,0,0,0,0,0,0,0,0,0,-1,1147,603,0,0
-70,421,0,0,0,0,0,0,0,0,0,-1,1154,603,0,0
-63,421,0,0,0,0,0,0,0,0,0,-1,1161,603,0,0
-56,421,0,0,0,0,0,0,0,0,0,-1,1168,603,0,0
-49,421,0,0,0,0,0,0,0,0,0,-1,1175,603,0,0
-42,421,0,0,0,0,0,0,0,0,0,-1,1182,603,0,0
-35,421,0,0,0,0,0,0,0,0,0,-1,1189,603,0,0
-28,421,0,0,0,0,0,0,0,0,0,-1,1196,603,0,0
-21,421,0,0,0,0,0,0,0,0,0,-1,1203,603,0,0
-14,421,0,0,0,0,0,0,0,0,0,-1,1210,603,0,0
-7,421,0,0,0,0,0,0,0,0,0,-1,1217,603,0,0
0,421,0,0,0,0,0,0,0,0,0,-1,1224,603,0,0
7,421,0,0,0,0,0,0,0,0,0,-1,1231,603,0,0
14,421,0,0,0,0,0,0,0,0,0,-1,1238,603,0,0
21,421,0,0,0,0,0,0,0,0,0,-1,1245,603,0,0
28,421,0,0,0,0,0,0,0,0,0,-1,1252,603,0,0
35,421,0,0,0,0,0,0,0,0,0,-1,1259,603,0,0
42,421,0,0,0,0,0,0,0,0,0,-1,1266,603,0,0
49,421,0,0,0,0,0,0,0,0,0,-1,1273,603,0,0
56,421,0,0,0,0,0,0,0,0,0,-1,1280,603,0,0
63,421,0,0,0,0,0,0,0,0,0,-1,1287,603,0,0
70,421,0,0,0,0,0,0,0,0,0,-1,1294,603,0,0
77,421,0,0,0,0,0,0,0,0,0,-1,1301,603,0,0
84,421,0,0,0,0,0,0,0,0,0,-1,1308,603,0,0
91,421,0,0,0,0,0,0,0,0,0,-1,1315,603,0,0
98,421,0,0,0,0,0,0,0,0,0,-1,1322,603,0,0
105,421,0,0,0,0,0,0,0,0,0,-1,1329,603,0,0
112,421,0,0,0,0,0,0,0,0,0,-1,1336,603,0,0
119,421,0,0,0,0,0,0,0,0,0,-1,1343,603,0,0
126,421,0,0,0,0,0,0,0,0,0,-1,1350,603,0,0
133,421,0,0,0,0,0,0,0,0,0,-1,1357,603,0,0
140,421,0,0,0,0,0,0,0,0,0,-1,1364,603,0,0
147,421,0,0,0,0,0,0,0,0,0,-1,1371,603,0,0
154,421,0,0,0,0,0,0,0,0,0,-1,1378,603,0,0
161,421,0,0,0,0,0,0,0,0,0,-1,1385,603,0,0
168,421,0,0,0,0,0,0,0,0,0,-1,1392,603,0,0
175,421,0,0,0,0,0,0,0,0,0,-1,1399,603,0,0
182,421,0,0,0,0,0,0,0,0,0,-1,1406,603,0,0
189,421,0,0,0,0,0,0,0,0,0,-1,1413,603,0,0
196,421,0,0,0,0,0,0,0,0,0,-1,1420,603,0,0
203,421,0,0,0,0,0,0,0,0,0,-1,1427,603,0,0
210,421,0,0,0,0,0,0,0,0,0,-1,1434,603,0,0
217,421,0,0,0,0,0,0,0,0,0,-1,1441,603,0,0
224,421,0,0,0,0,0,0,0,0,0,-1,1448,603,0,0
231,421,0,0,0,0,0,0,0,0,0,-1,1455,603,0,0
238,421,0,0,0,0,0,0,0,0,0,-1,1462,603,0,0
245,421,0,0,0,0,0,0,0,0,0,-1,1469,603,0,0
252,421,0,0,0,0,0,0,0,0,0,-1,1476,603,0,0
259,421,0,0,0,0,0,0,0,0,0,-1,1483,603,0,0
266,421,0,0,0,0,0,0,0,0,0,-1,1490,603,0,0
273,421,0,0,0,0,0,0,0,0,0,-1,1497,603,0,0
280,421,0,0,0,0,0,0,0,0,0,-1,1504,603,0,0
287,421,0,0,0,0,0,0,0,0,0,-1,1511,603,0,0
294,421,0,0,0,0,0,0,0,0,0,-1,1518,603,0,0
301,421,0,0,0,0,0,0,0,0,0,-1,1525,603,0,0
308,421,0,0,0,0,0,0,0,0,0,-1,1532,603,0,0
315,421,0,0,0,0,0,0,0,0,0,-1,1539,603,0,0
322,421,0,0,0,0,0,0,0,0,0,-1,1546,603,0,0
329,421,0,0,0,0,0,0,0,0,0,-1,1553,603,0,0
336,421,0,0,0,0,0,0,0,0,0,-1,1560,603,0,0
343,421,0,0,0,0,0,0,0,0,0,-1,1567,603,0,0
350,421,0,0,0,0,0,0,0,0,0,-1,1574,603,0,0
357,421,0,0,0,0,0,0,0,0,0,-1,1581,603,0,0
364,421,0,0,0,0,0,0,0,0,0,-1,1588,603,0,0
371,421,0,0,0,0,0,0,0,0,0,-1,1595,603,0,0
378,421,0,0,0,0,0,0,0,0,0,-1,1602,603,0,0
385,421,0,0,0,0,0,0,0,0,0,-1,1609,603,0,0
392,421,0,0,0,0,0,0,0,0,0,-1,1616,603,0,0
399,421,0,0,0,0,0,0,0,0,0,-1,1623,603,0,0
406,421,0,0,0,0,0,0,0,0,0,-1,1630,603,0,0
413,421,0,0,0,0,0,0,0,0,0,-1,1637,603,0,0
420,421,0,0,0,0,0,0,0,0,0,-1,1644,603,0,0
427,421,0,0,0,0,0,0,0,0,0,-1,1651,603,0,0
434,421,3.68176,-0.0327759,0,0,0,0,0,0,0,-1,1658,603,3.6818,0.0328037
441,421,8.06689,0.527832,0,0,0,0,0,0,0,-1,1665,603,8.06693,-0.527851
448,421,6.93921,0.802246,0,0,0,0,0,0,0,-1,1672,603,6.93923,-0.802251
455,421,7.29456,2.14825,0,0,0,0,0,0,0,-1,1679,603,7.29461,-2.14827
462,421,7.86902,3.53174,0,0,0,0,0,0,0,-1,1686,603,7.869,-3.53173
469,421,8.06604,2.81213,0,0,0,0,0,0,0,-1,1693,603,8.06606,-2.81212
476,421,8.26306,2.09253,0,0,0,0,0,0,0,-1,1700,603,8.26312,-2.09251
483,421,8.05322,0.798096,0,0,0,0,0,0,0,-1,1707,603,8.05323,-0.7981
490,421,7.51233,0.213074,0,0,0,0,0,0,0,-1,1714,603,7.51235,-0.213043
497,421,7.49634,-2.86688,0,0,0,0,0,0,0,-1,1721,603,7.4963,2.86688
504,421,6.90491,-2.18671,0,0,0,0,0,0,0,-1,1728,603,6.90491,2.18669
511,421,6.31348,-1.50653,0,0,0,0,0,0,0,-1,1735,603,6.31353,1.5065
518,421,6.27588,-2.49878,0,0,0,0,0,0,0,-1,1742,603,6.2759,2.4988
525,421,13.3318,-8.36859,0,0,0,0,0,0,0,-1,1749,603,13.3318,8.36857
532,421,13.4689,-7.74451,0.00226961,0.00236586,0.00147551,0.00379403,0.000841439,0.801699,0.00230075,0.0388978,1756,603,13.4689,7.74451
539,421,13.6133,-7.30145,0.00153495,0.00176966,0.00100508,0.00266422,0.000640393,0.843516,0.00160582,0.0205484,1763,603,13.6132,7.30144
546,421,13.6042,-6.89166,0.0010519,0.00135967,0.000715373,0.00193752,0.000474045,0.89134,0.00116623,0.0126191,1770,603,13.6042,6.89169
553,421,13.5834,-6.45367,0.000646627,0.000912935,0.000469099,0.00126741,0.00029215,0.923686,0.000766351,0.0117382,1777,603,13.5834,6.45365
560,421,13.5978,-6.01514,0.000205885,0.000646961,0.000281553,0.000784067,6.87793e-05,1.11763,0.00050136,0.0141587,1784,603,13.5977,6.01512
567,421,13.5947,-5.64319,-0.000154545,0.000557089,0.000224296,0.000621884,-0.00021934,1.28957,0.000503875,0.0165068,1791,603,13.5948,5.64317
574,421,13.5818,-5.22937,-0.000417866,0.000605869,0.000271391,0.000673364,-0.000485362,1.32704,0.000671919,0.017973,1798,603,13.5818,5.22935
581,421,13.5697,-4.75964,-0.000672025,0.000819343,0.000404497,0.000921988,-0.00077467,1.32228,0.000980796,0.0150332,1805,603,13.5697,4.75965
588,421,13.5505,-4.35327,-0.000948691,0.00126045,0.000629184,0.00142708,-0.00111532,1.31191,0.00147153,0.0109354,1812,603,13.5506,4.35326
595,421,13.5598,-3.90735,-0.00115814,0.00202894,0.00104244,0.00233963,-0.00146882,1.28115,0.00221788,0.0142871,1819,603,13.5598,3.90737
602,421,13.5073,-3.53119,-0.0014517,0.00318328,0.00156582,0.00366267,-0.00193109,1.2737,0.00328073,0.0160003,1826,603,13.5073,3.53122
609,421,13.4227,-3.04688,-0.00161816,0.00464395,0.00232448,0.00541247,-0.00238668,1.25149,0.00461442,0.0328214,1833,603,13.4227,3.0469
616,421,13.6095,-2.46576,0,0,0,0,0,0,0,-1,1840,603,13.6095,2.46574
623,421,6.19885,0.376648,0,0,0,0,0,0,0,-1,1847,603,6.19881,-0.376624
630,421,6.54993,0.778748,0,0,0,0,0,0,0,-1,1854,603,6.54991,-0.778744
637,421,3.74512,1.65405,0,0,0,0,0,0,0,-1,1861,603,3.74517,-1.65407
644,421,3.58081,0.354675,0,0,0,0,0,0,0,-1,1868,603,3.58082,-0.354704
651,421,3.28687,3.66351,0,0,0,0,0,0,0,-1,1875,603,3.28688,-3.66353
658,421,0,0,0,0,0,0,0,0,0,-1,1882,603,0,0
665,421,0,0,0,0,0,0,0,0,0,-1,1889,603,0,0
672,421,0,0,0,0,0,0,0,0,0,-1,1896,603,0,0
679,421,0,0,0,0,0,0,0,0,0,-1,1903,603,0,0
686,421,0,0,0,0,0,0,0,0,0,-1,1910,603,0,0
693,421,0,0,0,0,0,0,0,0,0,-1,1917,603,0,0
700,421,0,0,0,0,0,0,0,0,0,-1,1924,603,0,0
707,421,0,0,0,0,0,0,0,0,0,-1,1931,603,0,0
714,421,0,0,0,0,0,0,0,0,0,-1,1938,603,0,0
721,421,0,0,0,0,0,0,0,0,0,-1,1945,603,0,0
728,421,0,0,0,0,0,0,0,0,0,-1,1952,603,0,0
735,421,0,0,0,0,0,0,0,0,0,-1,1959,603,0,0
742,421,0,0,0,0,0,0,0,0,0,-1,1966,603,0,0
749,421,0,0,0,0,0,0,0,0,0,-1,1973,603,0,0
756,421,0,0,0,0,0,0,0,0,0,-1,1980,603,0,0
763,421,0,0,0,0,0,0,0,0,0,-1,1987,603,0,0
770,421,0,0,0,0,0,0,0,0,0,-1,1994,603,0,0
777,421,0,0,0,0,0,0,0,0,0,-1,2001,603,0,0
784,421,0,0,0,0,0,0,0,0,0,-1,2008,603,0,0
791,421,0,0,0,0,0,0,0,0,0,-1,2015,603,0,0
798,421,0,0,0,0,0,0,0,0,0,-1,2022,603,0,0
805,421,0,0,0,0,0,0,0,0,0,-1,2029,603,0,0
812,421,0,0,0,0,0,0,0,0,0,-1,2036,603,0,0
-700,414,0,0,0,0,0,0,0,0,0,-1,524,610,0,0
-693,414,0,0,0,0,0,0,0,0,0,-1,531,610,0,0
-686,414,0,0,0,0,0,0,0,0,0,-1,538,610,0,0
-679,414,0,0,0,0,0,0,0,0,0,-1,545,610,0,0
-672,414,0,0,0,0,0,0,0,0,0,-1,552,610,0,0
-665,414,0,0,0,0,0,0,0,0,0,-1,559,610,0,0
-658,414,0,0,0,0,0,0,0,0,0,-1,566,610,0,0
-651,414,0,0,0,0,0,0,0,0,0,-1,573,610,0,0
-644,414,0,0,0,0,0,0,0,0,0,-1,580,610,0,0
-637,414,0,0,0,0,0,0,0,0,0,-1,587,610,0,0
-630,414,0,0,0,0,0,0,0,0,0,-1,594,610,0,0
-623,414,0,0,0,0,0,0,0,0,0,-1,601,610,0,0
-616,414,0,0,0,0,0,0,0,0,0,-1,608,610,0,0
-609,414,0,0,0,0,0,0,0,0,0,-1,615,610,0,0
-602,414,0,0,0,0,0,0,0,0,0,-1,622,610,0,0
-595,414,0,0,0,0,0,0,0,0,0,-1,629,610,0,0
-588,414,0,0,0,0,0,0,0,0,0,-1,636,610,0,0
-581,414,0,0,0,0,0,0,0,0,0,-1,643,610,0,0
-574,414,0,0,0,0,0,0,0,0,0,-1,650,610,0,0
-567,414,0,0,0,0,0,0,0,0,0,-1,657,610,0,0
-560,414,0,0,0,0,0,0,0,0,0,-1,664,610,0,0
-553,414,0,0,0,0,0,0,0,0,0,-1,671,610,0,0
-546,414,0,0,0,0,0,0,0,0,0,-1,678,610,0,0
-539,414,-7.50146,5.65619,0,0,0,0,0,0,0,-1,685,610,-7.50149,-5.65617
-532,414,-8.15204,4.01605,0,0,0,0,0,0,0,-1,692,610,-8.15206,-4.01606
-525,414,-3.47137,-3.27924,0,0,0,0,0,0,0,-1,699,610,-3.47136,3.27922
-518,414,-4.12909,-4.36908,0,0,0,0,0,0,0,-1,706,610,-4.12909,4.36909
-511,414,-3.92542,-4.97021,0,0,0,0,0,0,0,-1,713,610,-3.92542,4.97023
-504,414,-1.62408,-3.64496,0,0,0,0,0,0,0,-1,720,610,-1.62406,3.64499
-497,414,-6.42432,-4.29321,0,0,0,0,0,0,0,-1,727,610,-6.42432,4.29322
-490,414,-6.26801,-4.51563,0,0,0,0,0,0,0,-1,734,610,-6.268,4.51565
-483,414,-6.09253,-4.87726,0.00698914,0.00323695,-0.00578862,0.0111981,-0.000972006,-0.628689,0.00780959,0.0282639,741,610,-6.09256,4.87724
-476,414,-6.1665,-5.3374,0.00588106,0.00315701,-0.00502136,0.00972184,-0.000683773,-0.652961,0.00672076,0.0169833,748,610,-6.16653,5.33742
-469,414,-6.19666,-5.70819,0.00486123,0.00288025,-0.00423672,0.0082217,-0.000480222,-0.670567,0.00564801,0.0124566,755,610,-6.19668,5.70819
-462,414,-6.20392,-6.11761,0.00391557,0.00247393,-0.00344657,0.00671589,-0.00032639,-0.682313,0.00458992,0.0212612,762,610,-6.20392,6.1176
-455,414,-6.19269,-6.53583,0.00300271,0.0019734,-0.00263059,0.00516851,-0.000192404,-0.688797,0.00351157,0.0237918,769,610,-6.19266,6.5358
-448,414,-6.1673,-6.93555,0.00211565,0.0013126,-0.00169366,0.00345473,-2.64834e-05,-0.669009,0.00231203,0.0229846,776,610,-6.16729,6.93553
-441,414,-6.17273,-7.35217,0.0011558,0.000547524,-0.000674567,0.00159162,0.000111702,-0.573613,0.00102588,0.0168265,783,610,-6.17272,7.35216
-434,414,-6.20245,-7.7511,0.000176862,-0.000313571,0.00039714,0.000398391,-0.0005351,0.50882,0.000540875,0.0093836,790,610,-6.20246,7.75111
-427,414,-6.21149,-8.1441,-0.000808984,-0.0013343,0.00160006,0.000549831,-0.00269311,0.704046,0.00200399,0.00957585,797,610,-6.21152,8.14408
-420,414,-6.21033,-8.53662,-0.00181923,-0.00283377,0.00303285,0.00074848,-0.00540147,0.702536,0.00387465,0.010027,804,610,-6.21032,8.53663
-413,414,-6.21863,-8.93042,-0.00285545,-0.00427431,0.00454838,0.00103849,-0.00816825,0.708034,0.00582262,0.0107611,811,610,-6.21862,8.93043
-406,414,-6.20538,-9.40906,-0.00415271,-0.00619727,0.00634979,0.00125657,-0.0116065,0.705586,0.00818875,0.0210075,818,610,-6.20537,9.40906
-399,414,-6.2713,-9.64612,-0.00562386,-0.0085668,0.00843111,0.00146322,-0.0156539,0.699004,0.0109563,0.0387333,825,610,-6.2713,9.64612
-392,414,-6.34235,-9.75415,-0.00727059,-0.0112842,0.0109222,0.00182769,-0.0203824,0.694544,0.0142367,0.0426292,832,610,-6.34236,9.75418
-385,414,-6.58972,-9.83649,0,0,0,0,0,0,0,-1,839,610,-6.58971,9.8365
-378,414,-7.13202,-10.0212,0,0,0,0,0,0,0,-1,846,610,-7.13205,10.0212
-371,414,-5.20886,-8.05151,0,0,0,0,0,0,0,-1,853,610,-5.20887,8.05153
-364,414,-6.76282,-6.58759,0,0,0,0,0,0,0,-1,860,610,-6.7628,6.58756
-357,414,-9.08685,-8.86188,0,0,0,0,0,0,0,-1,867,610,-9.08688,8.86187
-350,414,-6.4502,-2.41821,0,0,0,0,0,0,0,-1,874,610,-6.45021,2.41822
-343,414,-6.80249,-2.32117,0,0,0,0,0,0,0,-1,881,610,-6.80252,2.32116
-336,414,-7.11017,-2.52026,0,0,0,0,0,0,0,-1,888,610,-7.11016,2.52026
-329,414,-7.59747,-2.70313,0,0,0,0,0,0,0,-1,895,610,-7.59747,2.70315
-322,414,-4.42236,-1.29163,0,0,0,0,0,0,0,-1,902,610,-4.42238,1.2916
-315,414,0,0,0,0,0,0,0,0,0,-1,909,610,0,0
-308,414,0,0,0,0,0,0,0,0,0,-1,916,610,0,0
-301,414,0,0,0,0,0,0,0,0,0,-1,923,610,0,0
-294,414,0,0,0,0,0,0,0,0,0,-1,930,610,0,0
-287,414,0,0,0,0,0,0,0,0,0,-1,937,610,0,0
-280,414,0,0,0,0,0,0,0,0,0,-1,944,610,0,0
-273,414,0,0,0,0,0,0,0,0,0,-1,951,610,0,0
-266,414,0,0,0,0,0,0,0,0,0,-1,958,610,0,0
-259,414,0,0,0,0,0,0,0,0,0,-1,965,610,0,0
-252,414,0,0,0,0,0,0,0,0,0,-1,972,610,0,0
-245,414,0,0,0,0,0,0,0,0,0,-1,979,610,0,0
-238,414,0,0,0,0,0,0,0,0,0,-1,986,610,0,0
-231,414,0,0,0,0,0,0,0,0,0,-1,993,610,0,0
-224,414,0,0,0,0,0,0,0,0,0,-1,1000,610,0,0
-217,414,0,0,0,0,0,0,0,0,0,-1,1007,610,0,0
-210,414,0,0,0,0,0,0,0,0,0,-1,1014,610,0,0
-203,414,0,0,0,0,0,0,0,0,0,-1,1021,610,0,0
-196,414,0,0,0,0,0,0,0,0,0,-1,1028,610,0,0
-189,414,0,0,0,0,0,0,0,0,0,-1,1035,610,0,0
-182,414,0,0,0,0,0,0,0,0,0,-1,1042,610,0,0
-175,414,0,0,0,0,0,0,0,0,0,-1,1049,610,0,0
-168,414,0,0,0,0,0,0,0,0,0,-1,1056,610,0,0
-161,414,0,0,0,0,0,0,0,0,0,-1,1063,610,0,0
-154,414,0,0,0,0,0,0,0,0,0,-1,1070,610,0,0
-147,414,0,0,0,0,0,0,0,0,0,-1,1077,610,0,0
-140,414,0,0,0,0,0,0,0,0,0,-1,1084,610,0,0
-133,414,0,0,0,0,0,0,0,0,0,-1,1091,610,0,0
-126,414,0,0,0,0,0,0,0,0,0,-1,1098,610,0,0
-119,414,0,0,0,0,0,0,0,0,0,-1,1105,610,0,0
-112,414,0,0,0,0,0,0,0,0,0,-1,1112,610,0,0
-105,414,0,0,0,0,0,0,0,0,0,-1,1119,610,0,0
-98,414,0,0,0,0,0,0,0,0,0,-1,1126,610,0,0
-91,414,0,0,0,0,0,0,0,0,0,-1,1133,610,0,0
-84,414,0,0,0,0,0,0,0,0,0,-1,1140,610,0,0
-77,414,0,0,0,0,0,0,0,0,0,-1,1147,610,0,0
-70,414,0,0,0,0,0,0,0,0,0,-1,1154,610,0,0
-63,414,0,0,0,0,0,0,0,0,0,-1,1161,610,0,0
-56,414,0,0,0,0,0,0,0,0,0,-1,1168,610,0,0
-49,414,0,0,0,0,0,0,0,0,0,-1,1175,610,0,0
-42,414,0,0,0,0,0,0,0,0,0,-1,1182,610,0,0
-35,414,0,0,0,0,0,0,0,0,0,-1,1189,610,0,0
-28,414,0,0,0,0,0,0,0,0,0,-1,1196,610,0,0
-21,414,0,0,0,0,0,0,0,0,0,-1,1203,610,0,0
-14,414,0,0,0,0,0,0,0,0,0,-1,1210,610,0,0
-7,414,0,0,0,0,0,0,0,0,0,-1,1217,610,0,0
0,414,0,0,0,0,0,0,0,0,0,-1,1224,610,0,0
7,414,0,0,0,0,0,0,0,0,0,-1,1231,610,0,0
14,414,0,0,0,0,0,0,0,0,0,-1,1238,610,0,0
21,414,0,0,0,0,0,0,0,0,0,-1,1245,610,0,0
28,414,0,0,0,0,0,0,0,0,0,-1,1252,610,0,0
35,414,0,0,0,0,0,0,0,0,0,-1,1259,610,0,0
42,414,0,0,0,0,0,0,0,0,0,-1,1266,610,0,0
49,414,0,0,0,0,0,0,0,0,0,-1,1273,610,0,0
56,414,0,0,0,0,0,0,0,0,0,-1,1280,610,0,0
63,414,0,0,0,0,0,0,0,0,0,-1,1287,610,0,0
70,414,0,0,0,0,0,0,0,0,0,-1,1294,610,0,0
77,414,0,0,0,0,0,0,0,0,0,-1,1301,610,0,0
84,414,0,0,0,0,0,0,0,0,0,-1,1308,610,0,0
91,414,0,0,0,0,0,0,0,0,0,-1,1315,610,0,0
98,414,0,0,0,0,0,0,0,0,0,-1,1322,610,0,0
105,414,0,0,0,0,0,0,0,0,0,-1,1329,610,0,0
112,414,0,0,0,0,0,0,0,0,0,-1,1336,610,0,0
119,414,0,0,0,0,0,0,0,0,0,-1,1343,610,0,0
126,414,0,0,0,0,0,0,0,0,0,-1,1350,610,0,0
133,414,0,0,0,0,0,0,0,0,0,-1,1357,610,0,0
140,414,0,0,0,0,0,0,0,0,0,-1,1364,610,0,0
147,414,0,0,0,0,0,0,0,0,0,-1,1371,610,0,0
154,414,0,0,0,0,0,0,0,0,0,-1,1378,610,0,0
161,414,0,0,0,0,0,0,0,0,0,-1,1385,610,0,0
168,414,0,0,0,0,0,0,0,0,0,-1,1392,610,0,0
175,414,0,0,0,0,0,0,0,0,0,-1,1399,610,0,0
182,414,0,0,0,0,0,0,0,0,0,-1,1406,610,0,0
189,414,0,0,0,0,0,0,0,0,0,-1,1413,610,0,0
196,414,0,0,0,0,0,0,0,0,0,-1,1420,610,0,0
203,414,0,0,0,0,0,0,0,0,0,-1,1427,610,0,0
210,414,0,0,0,0,0,0,0,0,0,-1,1434,610,0,0
217,414,0,0,0,0,0,0,0,0,0,-1,1441,610,0,0
224,414,0,0,0,0,0,0,0,0,0,-1,1448,610,0,0
231,414,0,0,0,0,0,0,0,0,0,-1,1455,610,0,0
238,414,0,0,0,0,0,0,0,0,0,-1,1462,610,0,0
245,414,0,0,0,0,0,0,0,0,0,-1,1469,610,0,0
252,414,0,0,0,0,0,0,0,0,0,-1,1476,610,0,0
259,414,0,0,0,0,0,0,0,0,0,-1,1483,610,0,0
266,414,0,0,0,0,0,0,0,0,0,-1,1490,610,0,0
273,414,0,0,0,0,0,0,0,0,0,-1,1497,610,0,0
280,414,0,0,0,0,0,0,0,0,0,-1,1504,610,0,0
287,414,0,0,0,0,0,0,0,0,0,-1,1511,610,0,0
294,414,0,0,0,0,0,0,0,0,0,-1,1518,610,0,0
301,414,0,0,0,0,0,0,0,0,0,-1,1525,610,0,0
308,414,0,0,0,0,0,0,0,0,0,-1,1532,610,0,0
315,414,0,0,0,0,0,0,0,0,0,-1,1539,610,0,0
322,414,0,0,0,0,0,0,0,0,0,-1,1546,610,0,0
329,414,0,0,0,0,0,0,0,0,0,-1,1553,610,0,0
336,414,0,0,0,0,0,0,0,0,0,-1,1560,610,0,0
343,414,0,0,0,0,0,0,0,0,0,-1,1567,610,0,0
350,414,0,0,0,0,0,0,0,0,0,-1,1574,610,0,0
357,414,0,0,0,0,0,0,0,0,0,-1,1581,610,0,0
364,414,0,0,0,0,0,0,0,0,0,-1,1588,610,0,0
371,414,0,0,0,0,0,0,0,0,0,-1,1595,610,0,0
378,414,0,0,0,0,0,0,0,0,0,-1,1602,610,0,0
385,414,0,0,0,0,0,0,0,0,0,-1,1609,610,0,0
392,414,0,0,0,0,0,0,0,0,0,-1,1616,610,0,0
399,414,0,0,0,0,0,0,0,0,0,-1,1623,610,0,0
406,414,0,0,0,0,0,0,0,0,0,-1,1630,610,0,0
413,414,0,0,0,0,0,0,0,0,0,-1,1637,610,0,0
420,414,0,0,0,0,0,0,0,0,0,-1,1644,610,0,0
427,414,0,0,0,0,0,0,0,0,0,-1,1651,610,0,0
434,414,0,0,0,0,0,0,0,0,0,-1,1658,610,0,0
441,414,7.84375,0.584412,0,0,0,0,0,0,0,-1,1665,610,7.84379,-0.584394
448,414,7.40808,1.25446,0,0,0,0,0,0,0,-1,1672,610,7.40807,-1.25446
455,414,6.3512,1.73846,0,0,0,0,0,0,0,-1,1679,610,6.3512,-1.73847
462,414,8.18103,3.22113,0,0,0,0,0,0,0,-1,1686,610,8.18108,-3.22112
469,414,8.38513,2.49579,0,0,0,0,0,0,0,-1,1693,610,8.38516,-2.49576
476,414,8.64099,1.71161,0,0,0,0,0,0,0,-1,1700,610,8.64097,-1.71164
483,414,8.62744,0.687622,0,0,0,0,0,0,0,-1,1707,610,8.62749,-0.687615
490,414,8.38831,-0.0302734,0,0,0,0,0,0,0,-1,1714,610,8.38835,0.0302913
497,414,4.71094,-0.110046,0,0,0,0,0,0,0,-1,1721,610,4.71089,0.110024
504,414,7.19568,-1.43835,0,0,0,0,0,0,0,-1,1728,610,7.19563,1.43836
511,414,5.94153,-1.28772,0,0,0,0,0,0,0,-1,1735,610,5.94151,1.28769
518,414,4.53381,-0.0996704,0,0,0,0,0,0,0,-1,1742,610,4.53378,0.0996819
525,414,6.18811,-1.64056,0,0,0,0,0,0,0,-1,1749,610,6.18814,1.64055
532,414,13.8949,-7.9101,0,0,0,0,0,0,0,-1,1756,610,13.8949,7.91011
539,414,13.9669,-7.38428,0.000810718,0.00216552,0.000802463,0.00253827,0.000437967,1.13594,0.00156673,0.0483547,1763,610,13.967,7.38428
546,414,13.9982,-6.86475,0.000466497,0.00172378,0.000527432,0.00191573,0.000274545,1.22176,0.00119619,0.0138765,1770,610,13.9981,6.86476
553,414,14.0026,-6.45435,0.000233566,0.00119247,0.000299554,0.00127836,0.00014768,1.29158,0.000807527,0.0118664,1777,610,14.0026,6.45433
560,414,14.0143,-6.01691,-2.5397e-05,0.000840685,0.000129717,0.000859696,-4.44079e-05,1.42528,0.000588492,0.0133687,1784,610,14.0142,6.01692
567,414,14.0186,-5.57953,-0.000241114,0.000696068,9.59883e-05,0.000705798,-0.000250844,1.46977,0.000572759,0.0229652,1791,610,14.0186,5.5795
574,414,13.9878,-5.1897,-0.000345782,0.000709232,0.000182682,0.000739969,-0.000376519,1.4041,0.000655891,0.0206588,1798,610,13.9878,5.18971
581,414,13.9971,-4.74225,-0.000430587,0.000889581,0.000357295,0.000980078,-0.000521083,1.32273,0.000880097,0.0158145,1805,610,13.9971,4.74222
588,414,13.9822,-4.34033,-0.00054947,0.00127504,0.000599123,0.00145419,-0.000728616,1.28024,0.00128324,0.015421,1812,610,13.9821,4.34031
595,414,13.9772,-3.88849,-0.000553687,0.00195279,0.00103109,0.00232244,-0.00092333,1.22657,0.00193111,0.0206367,1819,610,13.9772,3.88847
602,414,13.9811,-3.46527,-0.000502107,0.00296286,0.00161253,0.00359718,-0.00113642,1.19602,0.00285338,0.0233065,1826,610,13.9811,3.46527
609,414,13.8446,-3.06958,-0.000331649,0.00425645,0.0023891,0.00527456,-0.00134977,1.16795,0.00404213,0.0237641,1833,610,13.8446,3.06958
616,414,14.1244,-2.46313,0,0,0,0,0,0,0,-1,1840,610,14.1244,2.46312
623,414,9.6969,0.0378418,0,0,0,0,0,0,0,-1,1847,610,9.69685,-0.0378644
630,414,5.47144,0.499329,0,0,0,0,0,0,0,-1,1854,610,5.47142,-0.499303
637,414,8.36707,4.16278,0,0,0,0,0,0,0,-1,1861,610,8.36709,-4.16278
644,414,5.87073,1.51422,0,0,0,0,0,0,0,-1,1868,610,5.87076,-1.51424
651,414,3.6377,0.820557,0,0,0,0,0,0,0,-1,1875,610,3.6377,-0.820543
658,414,2.29761,3.87323,0,0,0,0,0,0,0,-1,1882,610,2.29758,-3.87325
665,414,0,0,0,0,0,0,0,0,0,-1,1889,610,0,0
672,414,0,0,0,0,0,0,0,0,0,-1,1896,610,0,0
679,414,0,0,0,0,0,0,0,0,0,-1,1903,610,0,0
686,414,0,0,0,0,0,0,0,0,0,-1,1910,610,0,0
693,414,0,0,0,0,0,0,0,0,0,-1,1917,610,0,0
700,414,0,0,0,0,0,0,0,0,0,-1,1924,610,0,0
707,414,0,0,0,0,0,0,0,0,0,-1,1931,610,0,0
714,414,0,0,0,0,0,0,0,0,0,-1,1938,610,0,0
721,414,0,0,0,0,0,0,0,0,0,-1,1945,610,0,0
728,414,0,0,0,0,0,0,0,0,0,-1,1952,610,0,0
735,414,0,0,0,0,0,0,0,0,0,-1,1959,610,0,0
742,414,0,0,0,0,0,0,0,0,0,-1,1966,610,0,0
749,414,0,0,0,0,0,0,0,0,0,-1,1973,610,0,0
756,414,0,0,0,0,0,0,0,0,0,-1,1980,610,0,0
763,414,0,0,0,0,0,0,0,0,0,-1,1987,610,0,0
770,414,0,0,0,0,0,0,0,0,0,-1,1994,610,0,0
777,414,0,0,0,0,0,0,0,0,0,-1,2001,610,0,0
784,414,0,0,0,0,0,0,0,0,0,-1,2008,610,0,0
791,414,0,0,0,0,0,0,0,0,0,-1,2015,610,0,0
798,414,0,0,0,0,0,0,0,0,0,-1,2022,610,0,0
805,414,0,0,0,0,0,0,0,0,0,-1,2029,610,0,0
812,414,0,0,0,0,0,0,0,0,0,-1,2036,610,0,0
-700,407,0,0,0,0,0,0,0,0,0,-1,524,617,0,0
-693,407,0,0,0,0,0,0,0,0,0,-1,531,617,0,0
-686,407,0,0,0,0,0,0,0,0,0,-1,538,617,0,0
-679,407,0,0,0,0,0,0,0,0,0,-1,545,617,0,0
-672,407,0,0,0,0,0,0,0,0,0,-1,552,617,0,0
-665,407,0,0,0,0,0,0,0,0,0,-1,559,617,0,0
-658,407,0,0,0,0,0,0,0,0,0,-1,566,617,0,0
-651,407,0,0,0,0,0,0,0,0,0,-1,573,617,0,0
-644,407,0,0,0,0,0,0,0,0,0,-1,580,617,0,0
-637,407,0,0,0,0,0,0,0,0,0,-1,587,617,0,0
-630,407,0,0,0,0,0,0,0,0,0,-1,594,617,0,0
-623,407,0,0,0,0,0,0,0,0,0,-1,601,617,0,0
-616,407,0,0,0,0,0,0,0,0,0,-1,608,617,0,0
-609,407,0,0,0,0,0,0,0,0,0,-1,615,617,0,0
-602,407,0,0,0,0,0,0,0,0,0,-1,622,617,0,0
-595,407,0,0,0,0,0,0,0,0,0,-1,629,617,0,0
-588,407,0,0,0,0,0,0,0,0,0,-1,636,617,0,0
-581,407,0,0,0,0,0,0,0,0,0,-1,643,617,0,0
-574,407,0,0,0,0,0,0,0,0,0,-1,650,617,0,0
-567,407,0,0,0,0,0,0,0,0,0,-1,657,617,0,0
-560,407,0,0,0,0,0,0,0,0,0,-1,664,617,0,0
-553,407,0,0,0,0,0,0,0,0,0,-1,671,617,0,0
-546,407,-8.54517,-0.658142,0,0,0,0,0,0,0,-1,678,617,-8.54515,0.658112
-539,407,-6.09442,-1.01154,0,0,0,0,0,0,0,-1,685,617,-6.09441,1.01155
-532,407,-7.75665,1.62152,0,0,0,0,0,0,0,-1,692,617,-7.75667,-1.62154
-525,407,-3.78247,-2.67639,0,0,0,0,0,0,0,-1,699,617,-3.78246,2.67638
-518,407,-5.013,-5.87323,0,0,0,0,0,0,0,-1,706,617,-5.013,5.87324
-511,407,-4.26392,-4.37659,0,0,0,0,0,0,0,-1,713,617,-4.26393,4.37658
-504,407,-6.72559,-3.8714,0,0,0,0,0,0,0,-1,720,617,-6.72561,3.87137
-497,407,-6.6203,-4.21143,0.00587047,0.00140756,-0.00473668,0.008875,-0.00159697,-0.565267,0.00651457,0.042464,727,617,-6.62032,4.21144
-490,407,-6.55554,-4.50073,0.00542674,0.00175931,-0.00441834,0.00837678,-0.00119073,-0.588703,0.00602081,0.0317919,734,617,-6.55552,4.50074
-483,407,-6.49438,-4.85883,0.0049253,0.00199339,-0.0040851,0.00779952,-0.000880828,-0.613127,0.00551678,0.0203746,741,617,-6.49441,4.85885
-476,407,-6.54834,-5.27142,0.00436439,0.00205738,-0.00365044,0.00703924,-0.000617469,-0.632367,0.0049116,0.0124317,748,617,-6.54836,5.27143
-469,407,-6.58093,-5.69501,0.00379418,0.00195143,-0.00315976,0.00616416,-0.000418548,-0.643533,0.00425582,0.0118533,755,617,-6.58091,5.69502
-462,407,-6.58734,-6.10309,0.00317201,0.00170708,-0.00260689,0.00514739,-0.000268291,-0.648443,0.00352443,0.0195225,762,617,-6.58732,6.10307
-455,407,-6.58649,-6.53046,0.00246439,0.00132266,-0.00192714,0.00390344,-0.000116387,-0.641404,0.00264194,0.021818,769,617,-6.58648,6.53046
-448,407,-6.5603,-6.93799,0.00173519,0.000775391,-0.00111251,0.00246689,4.36839e-05,-0.581774,0.00163023,0.0187193,776,617,-6.5603,6.93797
-441,407,-6.58148,-7.30493,0.000819642,2.57908e-05,-0.000137158,0.000842671,2.76137e-06,-0.166353,0.000560863,0.0145617,783,617,-6.5815,7.30492
-434,407,-6.60974,-7.69714,-0.000179163,-0.000809662,0.000931247,0.000488747,-0.00147757,0.622191,0.00118214,0.0100546,790,617,-6.60976,7.69712
-427,407,-6.60443,-8.11688,-0.00129883,-0.00185579,0.00220602,0.000646217,-0.00380084,0.722613,0.0027745,0.0101921,797,617,-6.60446,8.11687
-420,407,-6.59729,-8.51508,-0.00242769,-0.00338527,0.00370839,0.000832685,-0.00664565,0.721199,0.00473247,0.0106035,804,617,-6.5973,8.51509
-413,407,-6.59113,-8.90155,-0.00374277,-0.00498427,0.00548997,0.00116143,-0.00988847,0.729103,0.0070116,0.0123922,811,617,-6.5911,8.90157
-406,407,-6.65076,-9.18402,-0.00563599,-0.00732346,0.00774507,0.00131117,-0.0142706,0.731143,0.00997955,0.0317727,818,617,-6.65074,9.18405
-399,407,-6.53461,-9.48615,0,0,0,0,0,0,0,-1,825,617,-6.5346,9.48612
-392,407,-6.64508,-9.68567,0,0,0,0,0,0,0,-1,832,617,-6.64508,9.68565
-385,407,-6.52484,-9.43811,0,0,0,0,0,0,0,-1,839,617,-6.52486,9.43812
-378,407,-6.08655,-7.42291,0,0,0,0,0,0,0,-1,846,617,-6.08652,7.42292
-371,407,-7.4007,-5.79449,0,0,0,0,0,0,0,-1,853,617,-7.40072,5.79447
-364,407,-10.0638,-6.6228,0,0,0,0,0,0,0,-1,860,617,-10.0639,6.62279
-357,407,-6.64447,-1.83337,0,0,0,0,0,0,0,-1,867,617,-6.64446,1.8334
-350,407,-7.03351,-1.77551,0,0,0,0,0,0,0,-1,874,617,-7.03349,1.77551
-343,407,-7.40967,-1.95026,0,0,0,0,0,0,0,-1,881,617,-7.40969,1.95026
-336,407,-8.10229,-2.40662,0,0,0,0,0,0,0,-1,888,617,-8.10229,2.40664
-329,407,-8.81232,-2.76331,0,0,0,0,0,0,0,-1,895,617,-8.81235,2.76331
-322,407,0,0,0,0,0,0,0,0,0,-1,902,617,0,0
-315,407,0,0,0,0,0,0,0,0,0,-1,909,617,0,0
-308,407,0,0,0,0,0,0,0,0,0,-1,916,617,0,0
-301,407,0,0,0,0,0,0,0,0,0,-1,923,617,0,0
-294,407,0,0,0,0,0,0,0,0,0,-1,930,617,0,0
-287,407,0,0,0,0,0,0,0,0,0,-1,937,617,0,0
-280,407,0,0,0,0,0,0,0,0,0,-1,944,617,0,0
-273,407,0,0,0,0,0,0,0,0,0,-1,951,617,0,0
-266,407,0,0,0,0,0,0,0,0,0,-1,958,617,0,0
-259,407,0,0,0,0,0,0,0,0,0,-1,965,617,0,0
-252,407,0,0,0,0,0,0,0,0,0,-1,972,617,0,0
-245,407,0,0,0,0,0,0,0,0,0,-1,979,617,0,0
-238,407,0,0,0,0,0,0,0,0,0,-1,986,617,0,0
-231,407,0,0,0,0,0,0,0,0,0,-1,993,617,0,0
-224,407,0,0,0,0,0,0,0,0,0,-1,1000,617,0,0
-217,407,0,0,0,0,0,0,0,0,0,-1,1007,617,0,0
-210,407,0,0,0,0,0,0,0,0,0,-1,1014,617,0,0
-203,407,0,0,0,0,0,0,0,0,0,-1,1021,617,0,0
-196,407,0,0,0,0,0,0,0,0,0,-1,1028,617,0,0
-189,407,0,0,0,0,0,0,0,0,0,-1,1035,617,0,0
-182,407,0,0,0,0,0,0,0,0,0,-1,1042,617,0,0
-175,407,0,0,0,0,0,0,0,0,0,-1,1049,617,0,0
-168,407,0,0,0,0,0,0,0,0,0,-1,1056,617,0,0
-161,407,0,0,0,0,0,0,0,0,0,-1,1063,617,0,0
-154,407,0,0,0,0,0,0,0,0,0,-1,1070,617,0,0
-147,407,0,0,0,0,0,0,0,0,0,-1,1077,617,0,0
-140,407,0,0,0,0,0,0,0,0,0,-1,1084,617,0,0
-133,407,0,0,0,0,0,0,0,0,0,-1,1091,617,0,0
-126,407,0,0,0,0,0,0,0,0,0,-1,1098,617,0,0
-119,407,0,0,0,0,0,0,0,0,0,-1,1105,617,0,0
-112,407,0,0,0,0,0,0,0,0,0,-1,1112,617,0,0
-105,407,0,0,0,0,0,0,0,0,0,-1,1119,617,0,0
-98,407,0,0,0,0,0,0,0,0,0,-1,1126,617,0,0
-91,407,0,0,0,0,0,0,0,0,0,-1,1133,617,0,0
-84,407,0,0,0,0,0,0,0,0,0,-1,1140,617,0,0
-77,407,0,0,0,0,0,0,0,0,0,-1,1147,617,0,0
-70,407,0,0,0,0,0,0,0,0,0,-1,1154,617,0,0
-63,407,0,0,0,0,0,0,0,0,0,-1,1161,617,0,0
-56,407,0,0,0,0,0,0,0,0,0,-1,1168,617,0,0
-49,407,0,0,0,0,0,0,0,0,0,-1,1175,617,0,0
-42,407,0,0,0,0,0,0,0,0,0,-1,1182,617,0,0
-35,407,0,0,0,0,0,0,0,0,0,-1,1189,617,0,0
-28,407,0,0,0,0,0,0,0,0,0,-1,1196,617,0,0
-21,407,0,0,0,0,0,0,0,0,0,-1,1203,617,0,0
-14,407,0,0,0,0,0,0,0,0,0,-1,1210,617,0,0
-7,407,0,0,0,0,0,0,0,0,0,-1,1217,617,0,0
0,407,0,0,0,0,0,0,0,0,0,-1,1224,617,0,0
7,407,0,0,0,0,0,0,0,0,0,-1,1231,617,0,0
14,407,0,0,0,0,0,0,0,0,0,-1,1238,617,0,0
21,407,0,0,0,0,0,0,0,0,0,-1,1245,617,0,0
28,407,0,0,0,0,0,0,0,0,0,-1,1252,617,0,0
35,407,0,0,0,0,0,0,0,0,0,-1,1259,617,0,0
42,407,0,0,0,0,0,0,0,0,0,-1,1266,617,0,0
49,407,0,0,0,0,0,0,0,0,0,-1,1273,617,0,0
56,407,0,0,0,0,0,0,0,0,0,-1,1280,617,0,0
63,407,0,0,0,0,0,0,0,0,0,-1,1287,617,0,0
70,407,0,0,0,0,0,0,0,0,0,-1,1294,617,0,0
77,407,0,0,0,0,0,0,0,0,0,-1,1301,617,0,0
84,407,0,0,0,0,0,0,0,0,0,-1,1308,617,0,0
91,407,0,0,0,0,0,0,0,0,0,-1,1315,617,0,0
98,407,0,0,0,0,0,0,0,0,0,-1,1322,617,0,0
105,407,0,0,0,0,0,0,0,0,0,-1,1329,617,0,0
112,407,0,0,0,0,0,0,0,0,0,-1,1336,617,0,0
119,407,0,0,0,0,0,0,0,0,0,-1,1343,617,0,0
126,407,0,0,0,0,0,0,0,0,0,-1,1350,617,0,0
133,407,0,0,0,0,0,0,0,0,0,-1,1357,617,0,0
140,407,0,0,0,0,0,0,0,0,0,-1,1364,617,0,0
147,407,0,0,0,0,0,0,0,0,0,-1,1371,617,0,0
154,407,0,0,0,0,0,0,0,0,0,-1,1378,617,0,0
161,407,0,0,0,0,0,0,0,0,0,-1,1385,617,0,0
168,407,0,0,0,0,0,0,0,0,0,-1,1392,617,0,0
175,407,0,0,0,0,0,0,0,0,0,-1,1399,617,0,0
182,407,0,0,0,0,0,0,0,0,0,-1,1406,617,0,0
189,407,0,0,0,0,0,0,0,0,0,-1,1413,617,0,0
196,407,0,0,0,0,0,0,0,0,0,-1,1420,617,0,0
203,407,0,0,0,0,0,0,0,0,0,-1,1427,617,0,0
210,407,0,0,0,0,0,0,0,0,0,-1,1434,617,0,0
217,407,0,0,0,0,0,0,0,0,0,-1,1441,617,0,0
224,407,0,0,0,0,0,0,0,0,0,-1,1448,617,0,0
231,407,0,0,0,0,0,0,0,0,0,-1,1455,617,0,0
238,407,0,0,0,0,0,0,0,0,0,-1,1462,617,0,0
245,407,0,0,0,0,0,0,0,0,0,-1,1469,617,0,0
252,407,0,0,0,0,0,0,0,0,0,-1,1476,617,0,0
259,407,0,0,0,0,0,0,0,0,0,-1,1483,617,0,0
266,407,0,0,0,0,0,0,0,0,0,-1,1490,617,0,0
273,407,0,0,0,0,0,0,0,0,0,-1,1497,617,0,0
280,407,0,0,0,0,0,0,0,0,0,-1,1504,617,0,0
287,407,0,0,0,0,0,0,0,0,0,-1,1511,617,0,0
294,407,0,0,0,0,0,0,0,0,0,-1,1518,617,0,0
301,407,0,0,0,0,0,0,0,0,0,-1,1525,617,0,0
308,407,0,0,0,0,0,0,0,0,0,-1,1532,617,0,0
315,407,0,0,0,0,0,0,0,0,0,-1,1539,617,0,0
322,407,0,0,0,0,0,0,0,0,0,-1,1546,617,0,0
329,407,0,0,0,0,0,0,0,0,0,-1,1553,617,0,0
336,407,0,0,0,0,0,0,0,0,0,-1,1560,617,0,0
343,407,0,0,0,0,0,0,0,0,0,-1,1567,617,0,0
350,407,0,0,0,0,0,0,0,0,0,-1,1574,617,0,0
357,407,0,0,0,0,0,0,0,0,0,-1,1581,617,0,0
364,407,0,0,0,0,0,0,0,0,0,-1,1588,617,0,0
371,407,0,0,0,0,0,0,0,0,0,-1,1595,617,0,0
378,407,0,0,0,0,0,0,0,0,0,-1,1602,617,0,0
385,407,0,0,0,0,0,0,0,0,0,-1,1609,617,0,0
392,407,0,0,0,0,0,0,0,0,0,-1,1616,617,0,0
399,407,0,0,0,0,0,0,0,0,0,-1,1623,617,0,0
406,407,0,0,0,0,0,0,0,0,0,-1,1630,617,0,0
413,407,0,0,0,0,0,0,0,0,0,-1,1637,617,0,0
420,407,0,0,0,0,0,0,0,0,0,-1,1644,617,0,0
427,407,0,0,0,0,0,0,0,0,0,-1,1651,617,0,0
434,407,0,0,0,0,0,0,0,0,0,-1,1658,617,0,0
441,407,0,0,0,0,0,0,0,0,0,-1,1665,617,0,0
448,407,7.02893,2.13843,0,0,0,0,0,0,0,-1,1672,617,7.02899,-2.13844
455,407,7.55237,2.29242,0,0,0,0,0,0,0,-1,1679,617,7.55236,-2.29244
462,407,8.2926,2.46173,0,0,0,0,0,0,0,-1,1686,617,8.29261,-2.46174
469,407,8.71509,2.22681,0,0,0,0,0,0,0,-1,1693,617,8.71511,-2.22681
476,407,8.89917,1.47766,0,0,0,0,0,0,0,-1,1700,617,8.89914,-1.47768
483,407,9.02612,0.682983,0,0,0,0,0,0,0,-1,1707,617,9.02608,-0.683004
490,407,9.12659,0.000671387,0,0,0,0,0,0,0,-1,1714,617,9.12653,-0.000675931
497,407,7.76819,0.855835,0,0,0,0,0,0,0,-1,1721,617,7.7682,-0.855865
504,407,4.69336,0.160706,0,0,0,0,0,0,0,-1,1728,617,4.69337,-0.1607
511,407,4.07104,-0.00140381,0,0,0,0,0,0,0,-1,1735,617,4.07109,0.00141425
518,407,6.09534,1.9411,0,0,0,0,0,0,0,-1,1742,617,6.09532,-1.94113
525,407,5.72534,-1.35986,0,0,0,0,0,0,0,-1,1749,617,5.72529,1.35988
532,407,14.3938,-7.34644,0,0,0,0,0,0,0,-1,1756,617,14.3939,7.34643
539,407,14.2618,-7.4823,0,0,0,0,0,0,0,-1,1763,617,14.2619,7.48229
546,407,14.4209,-6.8559,-0.000511749,0.00211594,0.000177136,0.00212783,-0.000523637,1.50379,0.00162153,0.0192925,1770,617,14.4209,6.85589
553,407,14.4075,-6.44305,-0.00046383,0.00147561,-3.85353e-06,0.00147562,-0.000463838,-1.56881,0.00116943,0.0150597,1777,617,14.4075,6.44307
560,407,14.4373,-6.00201,-0.000456023,0.00101625,-0.000126481,0.00102703,-0.00046681,-1.48572,0.000882456,0.0154109,1784,617,14.4373,6.002
567,407,14.4276,-5.57635,-0.000482789,0.000799995,-0.000117497,0.000810669,-0.000493463,-1.48021,0.000760328,0.0290506,1791,617,14.4276,5.57633
574,407,14.3876,-5.15399,-0.000407105,0.000774255,2.41961e-05,0.00077475,-0.0004076,1.55033,0.000693514,0.0249013,1798,617,14.3876,5.15398
581,407,14.3796,-4.71875,-0.000321479,0.000927748,0.0002483,0.000975291,-0.000369022,1.38161,0.000802018,0.0169827,1805,617,14.3797,4.71878
588,407,14.3916,-4.31531,-0.000289452,0.00126831,0.000518806,0.00142528,-0.000446421,1.27699,0.00112881,0.012223,1812,617,14.3916,4.3153
595,407,14.4025,-3.90808,-0.000131023,0.00185949,0.000968728,0.0022531,-0.00052464,1.18485,0.00170409,0.0231915,1819,617,14.4025,3.9081
602,407,14.3937,-3.45154,8.24596e-05,0.0027337,0.00157599,0.00346745,-0.000651294,1.13506,0.00255654,0.0194702,1826,617,14.3937,3.45154
609,407,14.337,-3,0.000229034,0.00382257,0.00226685,0.00491837,-0.000866769,1.12051,0.00360276,0.0159682,1833,617,14.3371,2.99999
616,407,14.3983,-2.4458,0.000212041,0.00518164,0.0029799,0.00657679,-0.00118311,1.13292,0.00482747,0.0287223,1840,617,14.3984,2.44578
623,407,14.6661,-1.77881,0,0,0,0,0,0,0,-1,1847,617,14.6662,1.77883
630,407,7.06177,0.814575,0,0,0,0,0,0,0,-1,1854,617,7.06178,-0.814579
637,407,8.23938,1.01428,0,0,0,0,0,0,0,-1,1861,617,8.23938,-1.01425
644,407,5.09766,2.27747,0,0,0,0,0,0,0,-1,1868,617,5.09764,-2.27746
651,407,7.37524,0.0513916,0,0,0,0,0,0,0,-1,1875,617,7.3752,-0.0513923
658,407,3.76685,0.594177,0,0,0,0,0,0,0,-1,1882,617,3.76683,-0.594184
665,407,5.76123,0.375061,0,0,0,0,0,0,0,-1,1889,617,5.76118,-0.37509
672,407,0,0,0,0,0,0,0,0,0,-1,1896,617,0,0
679,407,0,0,0,0,0,0,0,0,0,-1,1903,617,0,0
686,407,0,0,0,0,0,0,0,0,0,-1,1910,617,0,0
693,407,0,0,0,0,0,0,0,0,0,-1,1917,617,0,0
700,407,0,0,0,0,0,0,0,0,0,-1,1924,617,0,0
707,407,0,0,0,0,0,0,0,0,0,-1,1931,617,0,0
714,407,0,0,0,0,0,0,0,0,0,-1,1938,617,0,0
721,407,0,0,0,0,0,0,0,0,0,-1,1945,617,0,0
728,407,0,0,0,0,0,0,0,0,0,-1,1952,617,0,0
735,407,0,0,0,0,0,0,0,0,0,-1,1959,617,0,0
742,407,0,0,0,0,0,0,0,0,0,-1,1966,617,0,0
749,407,0,0,0,0,0,0,0,0,0,-1,1973,617,0,0
756,407,0,0,0,0,0,0,0,0,0,-1,1980,617,0,0
763,407,0,0,0,0,0,0,0,0,0,-1,1987,617,0,0
770,407,0,0,0,0,0,0,0,0,0,-1,1994,617,0,0
777,407,0,0,0,0,0,0,0,0,0,-1,2001,617,0,0
784,407,0,0,0,0,0,0,0,0,0,-1,2008,617,0,0
791,407,0,0,0,0,0,0,0,0,0,-1,2015,617,0,0
798,407,0,0,0,0,0,0,0,0,0,-1,2022,617,0,0
805,407,0,0,0,0,0,0,0,0,0,-1,2029,617,0,0
812,407,0,0,0,0,0,0,0,0,0,-1,2036,617,0,0
-700,400,0,0,0,0,0,0,0,0,0,-1,524,624,0,0
-693,400,0,0,0,0,0,0,0,0,0,-1,531,624,0,0
-686,400,0,0,0,0,0,0,0,0,0,-1,538,624,0,0
-679,400,0,0,0,0,0,0,0,0,0,-1,545,624,0,0
-672,400,0,0,0,0,0,0,0,0,0,-1,552,624,0,0
-665,400,0,0,0,0,0,0,0,0,0,-1,559,624,0,0
-658,400,0,0,0,0,0,0,0,0,0,-1,566,624,0,0
-651,400,0,0,0,0,0,0,0,0,0,-1,573,624,0,0
-644,400,0,0,0,0,0,0,0,0,0,-1,580,624,0,0
-637,400,0,0,0,0,0,0,0,0,0,-1,587,624,0,0
-630,400,0,0,0,0,0,0,0,0,0,-1,594,624,0,0
-623,400,0,0,0,0,0,0,0,0,0,-1,601,624,0,0
-616,400,0,0,0,0,0,0,0,0,0,-1,608,624,0,0
-609,400,0,0,0,0,0,0,0,0,0,-1,615,624,0,0
-602,400,0,0,0,0,0,0,0,0,0,-1,622,624,0,0
-595,400,0,0,0,0,0,0,0,0,0,-1,629,624,0,0
-588,400,0,0,0,0,0,0,0,0,0,-1,636,624,0,0
-581,400,0,0,0,0,0,0,0,0,0,-1,643,624,0,0
-574,400,0,0,0,0,0,0,0,0,0,-1,650,624,0,0
-567,400,0,0,0,0,0,0,0,0,0,-1,657,624,0,0
-560,400,0,0,0,0,0,0,0,0,0,-1,664,624,0,0
-553,400,0,0,0,0,0,0,0,0,0,-1,671,624,0,0
-546,400,-8.41174,-1.4599,0,0,0,0,0,0,0,-1,678,624,-8.41173,1.45989
-539,400,-5.69104,-1.7337,0,0,0,0,0,0,0,-1,685,624,-5.69103,1.7337
-532,400,-3.03632,-2.03912,0,0,0,0,0,0,0,-1,692,624,-3.03632,2.03909
-525,400,-6.20813,-7.04071,0,0,0,0,0,0,0,-1,699,624,-6.20814,7.04071
-518,400,-5.26544,-1.58661,0,0,0,0,0,0,0,-1,706,624,-5.26544,1.58658
-511,400,-5.82935,-5.19202,0,0,0,0,0,0,0,-1,713,624,-5.82936,5.19201
-504,400,-7.08832,-3.89349,0,0,0,0,0,0,0,-1,720,624,-7.08831,3.89349
-497,400,-6.90454,-4.08087,0.00356599,0.000672156,-0.00313645,0.00557318,-0.00133504,-0.569283,0.00423126,0.0387604,727,624,-6.90452,4.08086
-490,400,-6.94666,-4.3999,0.00350066,0.00089208,-0.00293562,0.0054087,-0.00101596,-0.576348,0.00398783,0.0210834,734,624,-6.94664,4.39993
-483,400,-6.95374,-4.83978,0.00337369,0.00110631,-0.00278381,0.0052458,-0.0007658,-0.59203,0.00377843,0.0143394,741,624,-6.95376,4.8398
-476,400,-6.9624,-5.25537,0.00317061,0.00119306,-0.00254337,0.00491064,-0.000546974,-0.600006,0.00347048,0.012814,748,624,-6.96239,5.25536
-469,400,-6.97437,-5.68018,0.00291768,0.00121635,-0.00228841,0.00450842,-0.000374386,-0.607449,0.00313786,0.014483,755,624,-6.97436,5.68017
-462,400,-6.96338,-6.13373,0.0025351,0.00108752,-0.00194263,0.0038844,-0.000261778,-0.607073,0.00268112,0.0193595,762,624,-6.9634,6.13375
-455,400,-6.96332,-6.54504,0.00197555,0.000803988,-0.00138651,0.00289494,-0.000115399,-0.585527,0.00196955,0.0198218,769,624,-6.96329,6.54505
-448,400,-6.97626,-6.93768,0.00137769,0.000382716,-0.000702847,0.0017413,1.91072e-05,-0.477421,0.00115455,0.0149089,776,624,-6.97628,6.93767
-441,400,-6.995,-7.27448,0.000508943,-0.000328426,0.000208134,0.000557823,-0.000377306,0.230668,0.00054324,0.0147452,783,624,-6.995,7.27445
-434,400,-7.01385,-7.66071,-0.00049589,-0.00110426,0.00125376,0.000490061,-0.00209021,0.666389,0.00158233,0.0110066,790,624,-7.01384,7.6607
-427,400,-7.01251,-8.07898,-0.00174535,-0.00212775,0.00258623,0.000656739,-0.00452985,0.748501,0.00326093,0.00901138,797,624,-7.0125,8.07901
-420,400,-6.96783,-8.50751,-0.00299599,-0.00362026,0.00413833,0.000841962,-0.00745822,0.747757,0.00527524,0.0146765,804,624,-6.96785,8.50749
-413,400,-7.0752,-8.82471,-0.00462847,-0.00533823,0.00621915,0.00124591,-0.0112126,0.756898,0.0079231,0.0334689,811,624,-7.07521,8.82469
-406,400,-7.45227,-9.02283,-0.00724697,-0.00811646,0.00904552,0.00137425,-0.0167377,0.761386,0.0116436,0.0455523,818,624,-7.45226,9.02285
-399,400,-7.55157,-9.30286,0,0,0,0,0,0,0,-1,825,624,-7.55156,9.30285
-392,400,-4.92285,-6.63354,0,0,0,0,0,0,0,-1,832,624,-4.92285,6.63354
-385,400,-3.68738,-5.04205,0,0,0,0,0,0,0,-1,839,624,-3.68736,5.04207
-378,400,-6.84064,-1.28662,0,0,0,0,0,0,0,-1,846,624,-6.84062,1.28662
-371,400,-6.98865,-1.2572,0,0,0,0,0,0,0,-1,853,624,-6.98865,1.25721
-364,400,-6.97247,-1.24133,0,0,0,0,0,0,0,-1,860,624,-6.97249,1.24135
-357,400,-7.18329,-1.23218,0,0,0,0,0,0,0,-1,867,624,-7.18327,1.2322
-350,400,-7.40186,-1.19409,0,0,0,0,0,0,0,-1,874,624,-7.40187,1.19407
-343,400,-8.09357,-1.51147,0,0,0,0,0,0,0,-1,881,624,-8.09355,1.51148
-336,400,0,0,0,0,0,0,0,0,0,-1,888,624,0,0
-329,400,0,0,0,0,0,0,0,0,0,-1,895,624,0,0
-322,400,0,0,0,0,0,0,0,0,0,-1,902,624,0,0
-315,400,0,0,0,0,0,0,0,0,0,-1,909,624,0,0
-308,400,0,0,0,0,0,0,0,0,0,-1,916,624,0,0
-301,400,0,0,0,0,0,0,0,0,0,-1,923,624,0,0
-294,400,0,0,0,0,0,0,0,0,0,-1,930,624,0,0
-287,400,0,0,0,0,0,0,0,0,0,-1,937,624,0,0
-280,400,0,0,0,0,0,0,0,0,0,-1,944,624,0,0
-273,400,0,0,0,0,0,0,0,0,0,-1,951,624,0,0
-266,400,0,0,0,0,0,0,0,0,0,-1,958,624,0,0
-259,400,0,0,0,0,0,0,0,0,0,-1,965,624,0,0
-252,400,0,0,0,0,0,0,0,0,0,-1,972,624,0,0
-245,400,0,0,0,0,0,0,0,0,0,-1,979,624,0,0
-238,400,0,0,0,0,0,0,0,0,0,-1,986,624,0,0
-231,400,0,0,0,0,0,0,0,0,0,-1,993,624,0,0
-224,400,0,0,0,0,0,0,0,0,0,-1,1000,624,0,0
-217,400,0,0,0,0,0,0,0,0,0,-1,1007,624,0,0
-210,400,0,0,0,0,0,0,0,0,0,-1,1014,624,0,0
-203,400,0,0,0,0,0,0,0,0,0,-1,1021,624,0,0
-196,400,0,0,0,0,0,0,0,0,0,-1,1028,624,0,0
-189,400,0,0,0,0,0,0,0,0,0,-1,1035,624,0,0
-182,400,0,0,0,0,0,0,0,0,0,-1,1042,624,0,0
-175,400,0,0,0,0,0,0,0,0,0,-1,1049,624,0,0
-168,400,0,0,0,0,0,0,0,0,0,-1,1056,624,0,0
-161,400,0,0,0,0,0,0,0,0,0,-1,1063,624,0,0
-154,400,0,0,0,0,0,0,0,0,0,-1,1070,624,0,0
-147,400,0,0,0,0,0,0,0,0,0,-1,1077,624,0,0
-140,400,0,0,0,0,0,0,0,0,0,-1,1084,624,0,0
-133,400,0,0,0,0,0,0,0,0,0,-1,1091,624,0,0
-126,400,0,0,0,0,0,0,0,0,0,-1,1098,624,0,0
-119,400,0,0,0,0,0,0,0,0,0,-1,1105,624,0,0
-112,400,0,0,0,0,0,0,0,0,0,-1,1112,624,0,0
-105,400,0,0,0,0,0,0,0,0,0,-1,1119,624,0,0
-98,400,0,0,0,0,0,0,0,0,0,-1,1126,624,0,0
-91,400,0,0,0,0,0,0,0,0,0,-1,1133,624,0,0
-84,400,0,0,0,0,0,0,0,0,0,-1,1140,624,0,0
-77,400,0,0,0,0,0,0,0,0,0,-1,1147,624,0,0
-70,400,0,0,0,0,0,0,0,0,0,-1,1154,624,0,0
-63,400,0,0,0,0,0,0,0,0,0,-1,1161,624,0,0
-56,400,0,0,0,0,0,0,0,0,0,-1,1168,624,0,0
-49,400,0,0,0,0,0,0,0,0,0,-1,1175,624,0,0
-42,400,0,0,0,0,0,0,0,0,0,-1,1182,624,0,0
-35,400,0,0,0,0,0,0,0,0,0,-1,1189,624,0,0
-28,400,0,0,0,0,0,0,0,0,0,-1,1196,624,0,0
-21,400,0,0,0,0,0,0,0,0,0,-1,1203,624,0,0
-14,400,0,0,0,0,0,0,0,0,0,-1,1210,624,0,0
-7,400,0,0,0,0,0,0,0,0,0,-1,1217,624,0,0
0,400,0,0,0,0,0,0,0,0,0,-1,1224,624,0,0
7,400,0,0,0,0,0,0,0,0,0,-1,1231,624,0,0
14,400,0,0,0,0,0,0,0,0,0,-1,1238,624,0,0
21,400,0,0,0,0,0,0,0,0,0,-1,1245,624,0,0
28,400,0,0,0,0,0,0,0,0,0,-1,1252,624,0,0
35,400,0,0,0,0,0,0,0,0,0,-1,1259,624,0,0
42,400,0,0,0,0,0,0,0,0,0,-1,1266,624,0,0
49,400,0,0,0,0,0,0,0,0,0,-1,1273,624,0,0
56,400,0,0,0,0,0,0,0,0,0,-1,1280,624,0,0
63,400,0,0,0,0,0,0,0,0,0,-1,1287,624,0,0
70,400,0,0,0,0,0,0,0,0,0,-1,1294,624,0,0
77,400,0,0,0,0,0,0,0,0,0,-1,1301,624,0,0
84,400,0,0,0,0,0,0,0,0,0,-1,1308,624,0,0
91,400,0,0,0,0,0,0,0,0,0,-1,1315,624,0,0
98,400,0,0,0,0,0,0,0,0,0,-1,1322,624,0,0
105,400,0,0,0,0,0,0,0,0,0,-1,1329,624,0,0
112,400,0,0,0,0,0,0,0,0,0,-1,1336,624,0,0
119,400,0,0,0,0,0,0,0,0,0,-1,1343,624,0,0
126,400,0,0,0,0,0,0,0,0,0,-1,1350,624,0,0
133,400,0,0,0,0,0,0,0,0,0,-1,1357,624,0,0
140,400,0,0,0,0,0,0,0,0,0,-1,1364,624,0,0
147,400,0,0,0,0,0,0,0,0,0,-1,1371,624,0,0
154,400,0,0,0,0,0,0,0,0,0,-1,1378,624,0,0
161,400,0,0,0,0,0,0,0,0,0,-1,1385,624,0,0
168,400,0,0,0,0,0,0,0,0,0,-1,1392,624,0,0
175,400,0,0,0,0,0,0,0,0,0,-1,1399,624,0,0
182,400,0,0,0,0,0,0,0,0,0,-1,1406,624,0,0
189,400,0,0,0,0,0,0,0,0,0,-1,1413,624,0,0
196,400,0,0,0,0,0,0,0,0,0,-1,1420,624,0,0
203,400,0,0,0,0,0,0,0,0,0,-1,1427,624,0,0
210,400,0,0,0,0,0,0,0,0,0,-1,1434,624,0,0
217,400,0,0,0,0,0,0,0,0,0,-1,1441,624,0,0
224,400,0,0,0,0,0,0,0,0,0,-1,1448,624,0,0
231,400,0,0,0,0,0,0,0,0,0,-1,1455,624,0,0
238,400,0,0,0,0,0,0,0,0,0,-1,1462,624,0,0
245,400,0,0,0,0,0,0,0,0,0,-1,1469,624,0,0
252,400,0,0,0,0,0,0,0,0,0,-1,1476,624,0,0
259,400,0,0,0,0,0,0,0,0,0,-1,1483,624,0,0
266,400,0,0,0,0,0,0,0,0,0,-1,1490,624,0,0
273,400,0,0,0,0,0,0,0,0,0,-1,1497,624,0,0
280,400,0,0,0,0,0,0,0,0,0,-1,1504,624,0,0
287,400,0,0,0,0,0,0,0,0,0,-1,1511,624,0,0
294,400,0,0,0,0,0,0,0,0,0,-1,1518,624,0,0
301,400,0,0,0,0,0,0,0,0,0,-1,1525,624,0,0
308,400,0,0,0,0,0,0,0,0,0,-1,1532,624,0,0
315,400,0,0,0,0,0,0,0,0,0,-1,1539,624,0,0
322,400,0,0,0,0,0,0,0,0,0,-1,1546,624,0,0
329,400,0,0,0,0,0,0,0,0,0,-1,1553,624,0,0
336,400,0,0,0,0,0,0,0,0,0,-1,1560,624,0,0
343,400,0,0,0,0,0,0,0,0,0,-1,1567,624,0,0
350,400,0,0,0,0,0,0,0,0,0,-1,1574,624,0,0
357,400,0,0,0,0,0,0,0,0,0,-1,1581,624,0,0
364,400,0,0,0,0,0,0,0,0,0,-1,1588,624,0,0
371,400,0,0,0,0,0,0,0,0,0,-1,1595,624,0,0
378,400,0,0,0,0,0,0,0,0,0,-1,1602,624,0,0
385,400,0,0,0,0,0,0,0,0,0,-1,1609,624,0,0
392,400,0,0,0,0,0,0,0,0,0,-1,1616,624,0,0
399,400,0,0,0,0,0,0,0,0,0,-1,1623,624,0,0
406,400,0,0,0,0,0,0,0,0,0,-1,1630,624,0,0
413,400,0,0,0,0,0,0,0,0,0,-1,1637,624,0,0
420,400,0,0,0,0,0,0,0,0,0,-1,1644,624,0,0
427,400,0,0,0,0,0,0,0,0,0,-1,1651,624,0,0
434,400,0,0,0,0,0,0,0,0,0,-1,1658,624,0,0
441,400,0,0,0,0,0,0,0,0,0,-1,1665,624,0,0
448,400,0,0,0,0,0,0,0,0,0,-1,1672,624,0,0
455,400,8.91309,2.75885,0,0,0,0,0,0,0,-1,1679,624,8.91312,-2.75885
462,400,8.90356,2.37878,0,0,0,0,0,0,0,-1,1686,624,8.90353,-2.37878
469,400,9.14429,1.76849,0,0,0,0,0,0,0,-1,1693,624,9.14432,-1.76847
476,400,9.23254,1.25995,0,0,0,0,0,0,0,-1,1700,624,9.23252,-1.25994
483,400,9.59766,0.562439,0,0,0,0,0,0,0,-1,1707,624,9.59771,-0.56242
490,400,9.92578,-0.213745,0,0,0,0,0,0,0,-1,1714,624,9.92579,0.21376
497,400,9.19141,0.175232,0,0,0,0,0,0,0,-1,1721,624,9.19138,-0.175209
504,400,9.23438,0.00823975,0,0,0,0,0,0,0,-1,1728,624,9.23436,-0.00823766
511,400,6.16687,3.3501,0,0,0,0,0,0,0,-1,1735,624,6.16682,-3.35007
518,400,6.55237,1.74994,0,0,0,0,0,0,0,-1,1742,624,6.55236,-1.74993
525,400,6.99731,1.08783,0,0,0,0,0,0,0,-1,1749,624,6.99736,-1.08785
532,400,6.96582,-1.74982,0,0,0,0,0,0,0,-1,1756,624,6.96585,1.74983
539,400,14.9984,-7.2876,0,0,0,0,0,0,0,-1,1763,624,14.9984,7.28762
546,400,14.9364,-6.9209,-0.00197088,0.00243798,-0.000552778,0.00250623,-0.00203913,-1.44795,0.00262888,0.0447762,1770,624,14.9365,6.92093
553,400,14.8076,-6.44275,-0.00154198,0.00171277,-0.000573419,0.00181083,-0.00164005,-1.40141,0.00199318,0.0245696,1777,624,14.8077,6.44277
560,400,14.8446,-5.97003,-0.00118284,0.00116647,-0.000555359,0.00129113,-0.00130751,-1.34998,0.00150034,0.0147687,1784,624,14.8446,5.97006
567,400,14.8604,-5.59119,-0.000971376,0.00089245,-0.00044852,0.000994767,-0.00107369,-1.34651,0.00119452,0.0183057,1791,624,14.8603,5.59116
574,400,14.8336,-5.17847,-0.000677224,0.000845034,-0.000212256,0.000874076,-0.000706266,-1.43482,0.000914124,0.01956,1798,624,14.8337,5.17844
581,400,14.7878,-4.73602,-0.000392878,0.000978708,8.92341e-05,0.000984489,-0.000398659,1.5061,0.00082209,0.0192275,1805,624,14.7878,4.73601
588,400,14.8016,-4.27441,-0.000186159,0.0012727,0.000413564,0.00138179,-0.000295241,1.31291,0.00103376,0.0157498,1812,624,14.8017,4.27439
595,400,14.8295,-3.87939,0.000136142,0.00177665,0.000891114,0.00216755,-0.000254761,1.15741,0.00153701,0.0147224,1819,624,14.8295,3.87939
602,400,14.8115,-3.46527,0.0005118,0.00251264,0.00151814,0.00333035,-0.000305905,1.07673,0.00232891,0.0141746,1826,624,14.8115,3.46525
609,400,14.7542,-3.02673,0.000680623,0.00341229,0.00213257,0.00457892,-0.000486002,1.07022,0.00322684,0.0140781,1833,624,14.7542,3.02674
616,400,14.7556,-2.56738,0.000562133,0.00444042,0.00268184,0.00581074,-0.000808189,1.09842,0.00416941,0.0177115,1840,624,14.7556,2.56738
623,400,14.8406,-2.07361,0,0,0,0,0,0,0,-1,1847,624,14.8405,2.07364
630,400,11.9432,0.09021,0,0,0,0,0,0,0,-1,1854,624,11.9432,-0.0902007
637,400,6.92896,1.01917,0,0,0,0,0,0,0,-1,1861,624,6.92899,-1.01918
644,400,8.65381,1.4599,0,0,0,0,0,0,0,-1,1868,624,8.65379,-1.45991
651,400,7.90601,0.424072,0,0,0,0,0,0,0,-1,1875,624,7.90598,-0.424097
658,400,8.69031,1.0484,0,0,0,0,0,0,0,-1,1882,624,8.6903,-1.0484
665,400,5.98438,0.522522,0,0,0,0,0,0,0,-1,1889,624,5.98442,-0.522552
672,400,0,0,0,0,0,0,0,0,0,-1,1896,624,0,0
679,400,0,0,0,0,0,0,0,0,0,-1,1903,624,0,0
686,400,0,0,0,0,0,0,0,0,0,-1,1910,624,0,0
693,400,0,0,0,0,0,0,0,0,0,-1,1917,624,0,0
700,400,0,0,0,0,0,0,0,0,0,-1,1924,624,0,0
707,400,0,0,0,0,0,0,0,0,0,-1,1931,624,0,0
714,400,0,0,0,0,0,0,0,0,0,-1,1938,624,0,0
721,400,0,0,0,0,0,0,0,0,0,-1,1945,624,0,0
728,400,0,0,0,0,0,0,0,0,0,-1,1952,624,0,0
735,400,0,0,0,0,0,0,0,0,0,-1,1959,624,0,0
742,400,0,0,0,0,0,0,0,0,0,-1,1966,624,0,0
749,400,0,0,0,0,0,0,0,0,0,-1,1973,624,0,0
756,400,0,0,0,0,0,0,0,0,0,-1,1980,624,0,0
763,400,0,0,0,0,0,0,0,0,0,-1,1987,624,0,0
770,400,0,0,0,0,0,0,0,0,0,-1,1994,624,0,0
777,400,0,0,0,0,0,0,0,0,0,-1,2001,624,0,0
784,400,0,0,0,0,0,0,0,0,0,-1,2008,624,0,0
791,400,0,0,0,0,0,0,0,0,0,-1,2015,624,0,0
798,400,0,0,0,0,0,0,0,0,0,-1,2022,624,0,0
805,400,0,0,0,0,0,0,0,0,0,-1,2029,624,0,0
812,400,0,0,0,0,0,0,0,0,0,-1,2036,624,0,0
-700,393,0,0,0,0,0,0,0,0,0,-1,524,631,0,0
-693,393,0,0,0,0,0,0,0,0,0,-1,531,631,0,0
-686,393,0,0,0,0,0,0,0,0,0,-1,538,631,0,0
-679,393,0,0,0,0,0,0,0,0,0,-1,545,631,0,0
-672,393,0,0,0,0,0,0,0,0,0,-1,552,631,0,0
-665,393,0,0,0,0,0,0,0,0,0,-1,559,631,0,0
-658,393,0,0,0,0,0,0,0,0,0,-1,566,631,0,0
-651,393,0,0,0,0,0,0,0,0,0,-1,573,631,0,0
-644,393,0,0,0,0,0,0,0,0,0,-1,580,631,0,0
-637,393,0,0,0,0,0,0,0,0,0,-1,587,631,0,0
-630,393,0,0,0,0,0,0,0,0,0,-1,594,631,0,0
-623,393,0,0,0,0,0,0,0,0,0,-1,601,631,0,0
-616,393,0,0,0,0,0,0,0,0,0,-1,608,631,0,0
-609,393,0,0,0,0,0,0,0,0,0,-1,615,631,0,0
-602,393,0,0,0,0,0,0,0,0,0,-1,622,631,0,0
-595,393,0,0,0,0,0,0,0,0,0,-1,629,631,0,0
-588,393,0,0,0,0,0,0,0,0,0,-1,636,631,0,0
-581,393,0,0,0,0,0,0,0,0,0,-1,643,631,0,0
-574,393,0,0,0,0,0,0,0,0,0,-1,650,631,0,0
-567,393,0,0,0,0,0,0,0,0,0,-1,657,631,0,0
-560,393,0,0,0,0,0,0,0,0,0,-1,664,631,0,0
-553,393,-2.35107,3.92633,0,0,0,0,0,0,0,-1,671,631,-2.35108,-3.92634
-546,393,-1.78778,2.4856,0,0,0,0,0,0,0,-1,678,631,-1.78778,-2.48557
-539,393,-5.2113,-2.20245,0,0,0,0,0,0,0,-1,685,631,-5.21128,2.20247
-532,393,-2.83643,-2.01624,0,0,0,0,0,0,0,-1,692,631,-2.83642,2.01626
-525,393,-5.9505,-0.952698,0,0,0,0,0,0,0,-1,699,631,-5.95053,0.95268
-518,393,-5.80219,-1.57739,0,0,0,0,0,0,0,-1,706,631,-5.80219,1.57738
-511,393,-6.15527,-2.09906,0,0,0,0,0,0,0,-1,713,631,-6.15526,2.09903
-504,393,-7.59857,-3.29779,0,0,0,0,0,0,0,-1,720,631,-7.59859,3.29781
-497,393,-7.37128,-3.85272,0.00248875,0.000190073,-0.00205155,0.00369097,-0.00101215,-0.530066,0.0028584,0.0289222,727,631,-7.37128,3.85273
-490,393,-7.33746,-4.42151,0.00228814,0.000456621,-0.00190237,0.00348368,-0.000738929,-0.561079,0.00260395,0.0155579,734,631,-7.33744,4.42148
-483,393,-7.35028,-4.84424,0.00228674,0.000622242,-0.00187611,0.00350691,-0.00059793,-0.576637,0.00256063,0.0182421,741,631,-7.35025,4.84427
-476,393,-7.35406,-5.23206,0.00233645,0.000741784,-0.00181508,0.0035216,-0.000443371,-0.578445,0.00250862,0.0152983,748,631,-7.35406,5.23203
-469,393,-7.36713,-5.65173,0.00233526,0.000869692,-0.00176013,0.00350905,-0.000304103,-0.588149,0.00244704,0.0123264,755,631,-7.36714,5.65171
-462,393,-7.37488,-6.11151,0.00215136,0.000844933,-0.0015956,0.00322228,-0.000225985,-0.591113,0.00222734,0.0139793,762,631,-7.3749,6.11152
-455,393,-7.38922,-6.53088,0.00171984,0.000650128,-0.00115244,0.0024555,-8.55272e-05,-0.568137,0.00166624,0.0136964,769,631,-7.38921,6.53086
-448,393,-7.39392,-6.9303,0.00124005,0.000348196,-0.000593486,0.00153647,5.17773e-05,-0.46321,0.0010075,0.014076,776,631,-7.39393,6.93032
-441,393,-7.41003,-7.29047,0.000424807,-0.000331271,0.000252926,0.000501614,-0.000408079,0.294824,0.000526136,0.012966,783,631,-7.41001,7.29045
-434,393,-7.42316,-7.64966,-0.000579988,-0.00106094,0.00128339,0.000485257,-0.00212619,0.692783,0.00160387,0.0108511,790,631,-7.42313,7.64965
-427,393,-7.36273,-8.08826,-0.00196396,-0.00206723,0.00269054,0.000675443,-0.00470664,0.775803,0.00338544,0.0200066,797,631,-7.36271,8.08823
-420,393,-7.39264,-8.47339,-0.00335908,-0.00352144,0.00432287,0.000883369,-0.00776389,0.77601,0.00549411,0.0456132,804,631,-7.39263,8.4734
-413,393,-7.57013,-8.88184,0,0,0,0,0,0,0,-1,811,631,-7.57012,8.88182
-406,393,-8.23749,-9.08618,0,0,0,0,0,0,0,-1,818,631,-8.23751,9.0862
-399,393,-5.07343,-5.92365,0,0,0,0,0,0,0,-1,825,631,-5.07344,5.92364
-392,393,-2.08063,-3.02386,0,0,0,0,0,0,0,-1,832,631,-2.08063,3.02384
-385,393,-3.16931,-0.624756,0,0,0,0,0,0,0,-1,839,631,-3.16928,0.624764
-378,393,-7.33081,-0.872314,0,0,0,0,0,0,0,-1,846,631,-7.33081,0.872325
-371,393,-7.47858,-0.811096,0,0,0,0,0,0,0,-1,853,631,-7.47859,0.811075
-364,393,-7.64917,-0.662415,0,0,0,0,0,0,0,-1,860,631,-7.64917,0.662406
-357,393,-8.09686,-0.726013,0,0,0,0,0,0,0,-1,867,631,-8.09689,0.726029
-350,393,-8.38788,-0.511841,0,0,0,0,0,0,0,-1,874,631,-8.38785,0.511811
-343,393,0,0,0,0,0,0,0,0,0,-1,881,631,0,0
-336,393,0,0,0,0,0,0,0,0,0,-1,888,631,0,0
-329,393,0,0,0,0,0,0,0,0,0,-1,895,631,0,0
-322,393,0,0,0,0,0,0,0,0,0,-1,902,631,0,0
-315,393,0,0,0,0,0,0,0,0,0,-1,909,631,0,0
-308,393,0,0,0,0,0,0,0,0,0,-1,916,631,0,0
-301,393,0,0,0,0,0,0,0,0,0,-1,923,631,0,0
-294,393,0,0,0,0,0,0,0,0,0,-1,930,631,0,0
-287,393,0,0,0,0,0,0,0,0,0,-1,937,631,0,0
-280,393,0,0,0,0,0,0,0,0,0,-1,944,631,0,0
-273,393,0,0,0,0,0,0,0,0,0,-1,951,631,0,0
-266,393,0,0,0,0,0,0,0,0,0,-1,958,631,0,0
-259,393,0,0,0,0,0,0,0,0,0,-1,965,631,0,0
-252,393,0,0,0,0,0,0,0,0,0,-1,972,631,0,0
-245,393,0,0,0,0,0,0,0,0,0,-1,979,631,0,0
-238,393,0,0,0,0,0,0,0,0,0,-1,986,631,0,0
-231,393,0,0,0,0,0,0,0,0,0,-1,993,631,0,0
-224,393,0,0,0,0,0,0,0,0,0,-1,1000,631,0,0
-217,393,0,0,0,0,0,0,0,0,0,-1,1007,631,0,0
-210,393,0,0,0,0,0,0,0,0,0,-1,1014,631,0,0
-203,393,0,0,0,0,0,0,0,0,0,-1,1021,631,0,0
-196,393,0,0,0,0,0,0,0,0,0,-1,1028,631,0,0
-189,393,0,0,0,0,0,0,0,0,0,-1,1035,631,0,0
-182,393,0,0,0,0,0,0,0,0,0,-1,1042,631,0,0
-175,393,0,0,0,0,0,0,0,0,0,-1,1049,631,0,0
-168,393,0,0,0,0,0,0,0,0,0,-1,1056,631,0,0
-161,393,0,0,0,0,0,0,0,0,0,-1,1063,631,0,0
-154,393,0,0,0,0,0,0,0,0,0,-1,1070,631,0,0
-147,393,0,0,0,0,0,0,0,0,0,-1,1077,631,0,0
-140,393,0,0,0,0,0,0,0,0,0,-1,1084,631,0,0
-133,393,0,0,0,0,0,0,0,0,0,-1,1091,631,0,0
-126,393,0,0,0,0,0,0,0,0,0,-1,1098,631,0,0
-119,393,0,0,0,0,0,0,0,0,0,-1,1105,631,0,0
-112,393,0,0,0,0,0,0,0,0,0,-1,1112,631,0,0
-105,393,0,0,0,0,0,0,0,0,0,-1,1119,631,0,0
-98,393,0,0,0,0,0,0,0,0,0,-1,1126,631,0,0
-91,393,0,0,0,0,0,0,0,0,0,-1,1133,631,0,0
-84,393,0,0,0,0,0,0,0,0,0,-1,1140,631,0,0
-77,393,0,0,0,0,0,0,0,0,0,-1,1147,631,0,0
-70,393,0,0,0,0,0,0,0,0,0,-1,1154,631,0,0
-63,393,0,0,0,0,0,0,0,0,0,-1,1161,631,0,0
-56,393,0,0,0,0,0,0,0,0,0,-1,1168,631,0,0
-49,393,0,0,0,0,0,0,0,0,0,-1,1175,631,0,0
-42,393,0,0,0,0,0,0,0,0,0,-1,1182,631,0,0
-35,393,0,0,0,0,0,0,0,0,0,-1,1189,631,0,0
-28,393,0,0,0,0,0,0,0,0,0,-1,1196,631,0,0
-21,393,0,0,0,0,0,0,0,0,0,-1,1203,631,0,0
-14,393,0,0,0,0,0,0,0,0,0,-1,1210,631,0,0
-7,393,0,0,0,0,0,0,0,0,0,-1,1217,631,0,0
0,393,0,0,0,0,0,0,0,0,0,-1,1224,631,0,0
7,393,0,0,0,0,0,0,0,0,0,-1,1231,631,0,0
14,393,0,0,0,0,0,0,0,0,0,-1,1238,631,0,0
21,393,0,0,0,0,0,0,0,0,0,-1,1245,631,0,0
28,393,0,0,0,0,0,0,0,0,0,-1,1252,631,0,0
35,393,0,0,0,0,0,0,0,0,0,-1,1259,631,0,0
42,393,0,0,0,0,0,0,0,0,0,-1,1266,631,0,0
49,393,0,0,0,0,0,0,0,0,0,-1,1273,631,0,0
56,393,0,0,0,0,0,0,0,0,0,-1,1280,631,0,0
63,393,0,0,0,0,0,0,0,0,0,-1,1287,631,0,0
70,393,0,0,0,0,0,0,0,0,0,-1,1294,631,0,0
77,393,0,0,0,0,0,0,0,0,0,-1,1301,631,0,0
84,393,0,0,0,0,0,0,0,0,0,-1,1308,631,0,0
91,393,0,0,0,0,0,0,0,0,0,-1,1315,631,0,0
98,393,0,0,0,0,0,0,0,0,0,-1,1322,631,0,0
105,393,0,0,0,0,0,0,0,0,0,-1,1329,631,0,0
112,393,0,0,0,0,0,0,0,0,0,-1,1336,631,0,0
119,393,0,0,0,0,0,0,0,0,0,-1,1343,631,0,0
126,393,0,0,0,0,0,0,0,0,0,-1,1350,631,0,0
133,393,0,0,0,0,0,0,0,0,0,-1,1357,631,0,0
140,393,0,0,0,0,0,0,0,0,0,-1,1364,631,0,0
147,393,0,0,0,0,0,0,0,0,0,-1,1371,631,0,0
154,393,0,0,0,0,0,0,0,0,0,-1,1378,631,0,0
161,393,0,0,0,0,0,0,0,0,0,-1,1385,631,0,0
168,393,0,0,0,0,0,0,0,0,0,-1,1392,631,0,0
175,393,0,0,0,0,0,0,0,0,0,-1,1399,631,0,0
182,393,0,0,0,0,0,0,0,0,0,-1,1406,631,0,0
189,393,0,0,0,0,0,0,0,0,0,-1,1413,631,0,0
196,393,0,0,0,0,0,0,0,0,0,-1,1420,631,0,0
203,393,0,0,0,0,0,0,0,0,0,-1,1427,631,0,0
210,393,0,0,0,0,0,0,0,0,0,-1,1434,631,0,0
217,393,0,0,0,0,0,0,0,0,0,-1,1441,631,0,0
224,393,0,0,0,0,0,0,0,0,0,-1,1448,631,0,0
231,393,0,0,0,0,0,0,0,0,0,-1,1455,631,0,0
238,393,0,0,0,0,0,0,0,0,0,-1,1462,631,0,0
245,393,0,0,0,0,0,0,0,0,0,-1,1469,631,0,0
252,393,0,0,0,0,0,0,0,0,0,-1,1476,631,0,0
259,393,0,0,0,0,0,0,0,0,0,-1,1483,631,0,0
266,393,0,0,0,0,0,0,0,0,0,-1,1490,631,0,0
273,393,0,0,0,0,0,0,0,0,0,-1,1497,631,0,0
280,393,0,0,0,0,0,0,0,0,0,-1,1504,631,0,0
287,393,0,0,0,0,0,0,0,0,0,-1,1511,631,0,0
294,393,0,0,0,0,0,0,0,0,0,-1,1518,631,0,0
301,393,0,0,0,0,0,0,0,0,0,-1,1525,631,0,0
308,393,0,0,0,0,0,0,0,0,0,-1,1532,631,0,0
315,393,0,0,0,0,0,0,0,0,0,-1,1539,631,0,0
322,393,0,0,0,0,0,0,0,0,0,-1,1546,631,0,0
329,393,0,0,0,0,0,0,0,0,0,-1,1553,631,0,0
336,393,0,0,0,0,0,0,0,0,0,-1,1560,631,0,0
343,393,0,0,0,0,0,0,0,0,0,-1,1567,631,0,0
350,393,0,0,0,0,0,0,0,0,0,-1,1574,631,0,0
357,393,0,0,0,0,0,0,0,0,0,-1,1581,631,0,0
364,393,0,0,0,0,0,0,0,0,0,-1,1588,631,0,0
371,393,0,0,0,0,0,0,0,0,0,-1,1595,631,0,0
378,393,0,0,0,0,0,0,0,0,0,-1,1602,631,0,0
385,393,0,0,0,0,0,0,0,0,0,-1,1609,631,0,0
392,393,0,0,0,0,0,0,0,0,0,-1,1616,631,0,0
399,393,0,0,0,0,0,0,0,0,0,-1,1623,631,0,0
406,393,0,0,0,0,0,0,0,0,0,-1,1630,631,0,0
413,393,0,0,0,0,0,0,0,0,0,-1,1637,631,0,0
420,393,0,0,0,0,0,0,0,0,0,-1,1644,631,0,0
427,393,0,0,0,0,0,0,0,0,0,-1,1651,631,0,0
434,393,0,0,0,0,0,0,0,0,0,-1,1658,631,0,0
441,393,0,0,0,0,0,0,0,0,0,-1,1665,631,0,0
448,393,0,0,0,0,0,0,0,0,0,-1,1672,631,0,0
455,393,0,0,0,0,0,0,0,0,0,-1,1679,631,0,0
462,393,8.51099,1.89502,0,0,0,0,0,0,0,-1,1686,631,8.51103,-1.89504
469,393,9.39465,1.51703,0,0,0,0,0,0,0,-1,1693,631,9.39465,-1.51703
476,393,9.95569,1.185,0,0,0,0,0,0,0,-1,1700,631,9.95575,-1.18497
483,393,10.5267,0.887329,0,0,0,0,0,0,0,-1,1707,631,10.5267,-0.887321
490,393,10.9303,0.761414,0,0,0,0,0,0,0,-1,1714,631,10.9303,-0.761386
497,393,8.32153,1.88104,0,0,0,0,0,0,0,-1,1721,631,8.32148,-1.88103
504,393,9.46985,1.78711,0,0,0,0,0,0,0,-1,1728,631,9.46986,-1.78713
511,393,9.66565,-0.375977,0,0,0,0,0,0,0,-1,1735,631,9.66571,0.375949
518,393,7.01599,1.62482,0,0,0,0,0,0,0,-1,1742,631,7.01597,-1.62483
525,393,7.88245,-1.13422,0,0,0,0,0,0,0,-1,1749,631,7.88246,1.13423
532,393,7.06335,-1.18103,0,0,0,0,0,0,0,-1,1756,631,7.06332,1.18101
539,393,9.91626,-2.46301,0,0,0,0,0,0,0,-1,1763,631,9.91625,2.46302
546,393,15.3699,-6.97607,0,0,0,0,0,0,0,-1,1770,631,15.3698,6.9761
553,393,15.1304,-6.55078,0,0,0,0,0,0,0,-1,1777,631,15.1304,6.55076
560,393,15.2817,-6.01196,-0.00214965,0.00131251,-0.00105189,0.00160704,-0.00244418,-1.29778,0.00235556,0.0215157,1784,631,15.2818,6.01199
567,393,15.2563,-5.56964,-0.00164871,0.000953267,-0.000857618,0.00121051,-0.00190596,-1.27939,0.00181416,0.0149564,1791,631,15.2563,5.56965
574,393,15.2579,-5.17493,-0.00111198,0.000857411,-0.000545179,0.000998257,-0.00125283,-1.31798,0.00130243,0.015811,1798,631,15.258,5.17495
581,393,15.2255,-4.71204,-0.000620352,0.000945981,-0.000182192,0.000966894,-0.000641265,-1.45651,0.000934794,0.0159295,1805,631,15.2254,4.71206
588,393,15.2197,-4.24115,-0.000232147,0.00117708,0.000186172,0.00120126,-0.000256328,1.44164,0.000898551,0.0178477,1812,631,15.2197,4.24115
595,393,15.2526,-3.86066,0.000245836,0.00159494,0.000680044,0.00187824,-3.74641e-05,1.17607,0.00126483,0.0146468,1819,631,15.2526,3.86064
602,393,15.2395,-3.4577,0.00076024,0.00221665,0.00131504,0.00299164,-1.47519e-05,1.03826,0.00199936,0.0159881,1826,631,15.2395,3.4577
609,393,15.2096,-3.01697,0.000977149,0.00299033,0.00188392,0.00411971,-0.000152238,1.03075,0.0027986,0.0160944,1833,631,15.2096,3.017
616,393,15.2003,-2.57001,0.000910479,0.00384055,0.00236401,0.00515668,-0.000405649,1.0628,0.00358067,0.0158732,1840,631,15.2003,2.57003
623,393,15.246,-2.03851,0.000918192,0.00495753,0.00301888,0.00657003,-0.000694311,1.08021,0.00462885,0.0294041,1847,631,15.246,2.03849
630,393,15.4799,-1.54883,0,0,0,0,0,0,0,-1,1854,631,15.4798,1.54882
637,393,11.4626,0.608887,0,0,0,0,0,0,0,-1,1861,631,11.4627,-0.608904
644,393,8.97583,1.30585,0,0,0,0,0,0,0,-1,1868,631,8.97586,-1.30584
651,393,11.348,0.53302,0,0,0,0,0,0,0,-1,1875,631,11.348,-0.53305
658,393,9.21338,1.50836,0,0,0,0,0,0,0,-1,1882,631,9.21338,-1.50834
665,393,6.1001,2.32129,0,0,0,0,0,0,0,-1,1889,631,6.10012,-2.3213
672,393,7.14575,2.43225,0,0,0,0,0,0,0,-1,1896,631,7.14572,-2.43222
679,393,0,0,0,0,0,0,0,0,0,-1,1903,631,0,0
686,393,0,0,0,0,0,0,0,0,0,-1,1910,631,0,0
693,393,0,0,0,0,0,0,0,0,0,-1,1917,631,0,0
700,393,0,0,0,0,0,0,0,0,0,-1,1924,631,0,0
707,393,0,0,0,0,0,0,0,0,0,-1,1931,631,0,0
714,393,0,0,0,0,0,0,0,0,0,-1,1938,631,0,0
721,393,0,0,0,0,0,0,0,0,0,-1,1945,631,0,0
728,393,0,0,0,0,0,0,0,0,0,-1,1952,631,0,0
735,393,0,0,0,0,0,0,0,0,0,-1,1959,631,0,0
742,393,0,0,0,0,0,0,0,0,0,-1,1966,631,0,0
749,393,0,0,0,0,0,0,0,0,0,-1,1973,631,0,0
756,393,0,0,0,0,0,0,0,0,0,-1,1980,631,0,0
763,393,0,0,0,0,0,0,0,0,0,-1,1987,631,0,0
770,393,0,0,0,0,0,0,0,0,0,-1,1994,631,0,0
777,393,0,0,0,0,0,0,0,0,0,-1,2001,631,0,0
784,393,0,0,0,0,0,0,0,0,0,-1,2008,631,0,0
791,393,0,0,0,0,0,0,0,0,0,-1,2015,631,0,0
798,393,0,0,0,0,0,0,0,0,0,-1,2022,631,0,0
805,393,0,0,0,0,0,0,0,0,0,-1,2029,631,0,0
812,393,0,0,0,0,0,0,0,0,0,-1,2036,631,0,0
-700,386,0,0,0,0,0,0,0,0,0,-1,524,638,0,0
-693,386,0,0,0,0,0,0,0,0,0,-1,531,638,0,0
-686,386,0,0,0,0,0,0,0,0,0,-1,538,638,0,0
-679,386,0,0,0,0,0,0,0,0,0,-1,545,638,0,0
-672,386,0,0,0,0,0,0,0,0,0,-1,552,638,0,0
-665,386,0,0,0,0,0,0,0,0,0,-1,559,638,0,0
-658,386,0,0,0,0,0,0,0,0,0,-1,566,638,0,0
-651,386,0,0,0,0,0,0,0,0,0,-1,573,638,0,0
-644,386,0,0,0,0,0,0,0,0,0,-1,580,638,0,0
-637,386,0,0,0,0,0,0,0,0,0,-1,587,638,0,0
-630,386,0,0,0,0,0,0,0,0,0,-1,594,638,0,0
-623,386,0,0,0,0,0,0,0,0,0,-1,601,638,0,0
-616,386,0,0,0,0,0,0,0,0,0,-1,608,638,0,0
-609,386,0,0,0,0,0,0,0,0,0,-1,615,638,0,0
-602,386,0,0,0,0,0,0,0,0,0,-1,622,638,0,0
-595,386,0,0,0,0,0,0,0,0,0,-1,629,638,0,0
-588,386,0,0,0,0,0,0,0,0,0,-1,636,638,0,0
-581,386,0,0,0,0,0,0,0,0,0,-1,643,638,0,0
-574,386,0,0,0,0,0,0,0,0,0,-1,650,638,0,0
-567,386,0,0,0,0,0,0,0,0,0,-1,657,638,0,0
-560,386,-3.97229,-5.13898,0,0,0,0,0,0,0,-1,664,638,-3.97232,5.13897
-553,386,-4.94244,-5.54309,0,0,0,0,0,0,0,-1,671,638,-4.94242,5.5431
-546,386,-1.78668,1.72827,0,0,0,0,0,0,0,-1,678,638,-1.78668,-1.72829
-539,386,-0.879456,-2.90009,0,0,0,0,0,0,0,-1,685,638,-0.879442,2.90008
-532,386,-4.83362,1.61053,0,0,0,0,0,0,0,-1,692,638,-4.83361,-1.61051
-525,386,-6.64148,-1.50604,0,0,0,0,0,0,0,-1,699,638,-6.64149,1.50603
-518,386,-6.47589,-1.71948,0,0,0,0,0,0,0,-1,706,638,-6.47591,1.71947
-511,386,-7.71851,-2.82959,0,0,0,0,0,0,0,-1,713,638,-7.7185,2.82961
-504,386,-7.72186,-3.55334,0.0020355,-0.000237361,-0.00172194,0.00296221,-0.00116407,-0.493721,0.00245655,0.0329513,720,638,-7.72187,3.55334
-497,386,-7.7818,-4.02124,0.00178616,6.4252e-05,-0.00147453,0.00263268,-0.000782271,-0.521156,0.00206585,0.0146838,727,638,-7.78179,4.02126
-490,386,-7.75116,-4.47284,0.00157289,0.000340242,-0.00128351,0.00238038,-0.000467249,-0.561562,0.00176343,0.0127461,734,638,-7.75114,4.47284
-483,386,-7.75336,-4.90234,0.00168158,0.000485005,-0.00132297,0.00253526,-0.000368668,-0.573044,0.00182551,0.0163285,741,638,-7.75335,4.90232
-476,386,-7.75677,-5.26007,0.00190816,0.000649375,-0.00139485,0.00280904,-0.000251507,-0.573462,0.00196191,0.0144646,748,638,-7.75679,5.26007
-469,386,-7.77429,-5.65302,0.00207661,0.00085965,-0.0014913,0.00307879,-0.000142535,-0.591699,0.00210165,0.0109768,755,638,-7.77431,5.65301
-462,386,-7.78998,-6.08588,0.00203956,0.000925776,-0.00148142,0.00306531,-9.99689e-05,-0.60561,0.00207766,0.010174,762,638,-7.78998,6.08588
-455,386,-7.7937,-6.49524,0.00170096,0.000800313,-0.00114204,0.00247826,2.30231e-05,-0.597599,0.00164455,0.0116699,769,638,-7.79367,6.49526
-448,386,-7.802,-6.89435,0.00130931,0.000601793,-0.000710446,0.0017492,0.000161902,-0.5544,0.00111609,0.0125005,776,638,-7.802,6.89435
-441,386,-7.82178,-7.27972,0.000542965,-6.58819e-05,5.05676e-05,0.000547136,-7.00532e-05,0.0823033,0.00039021,0.0128187,783,638,-7.82177,7.27972
-434,386,-7.76154,-7.71985,-0.00047083,-0.000793596,0.00105444,0.000434504,-0.00169893,0.709462,0.00130185,0.0310472,790,638,-7.76152,7.71985
-427,386,-7.61823,-8.2746,0,0,0,0,0,0,0,-1,797,638,-7.6182,8.27458
-420,386,-7.77783,-8.50507,0,0,0,0,0,0,0,-1,804,638,-7.77786,8.50507
-413,386,-5.45691,-5.35785,0,0,0,0,0,0,0,-1,811,638,-5.45691,5.35783
-406,386,-4.51135,-4.10999,0,0,0,0,0,0,0,-1,818,638,-4.51135,4.10996
-399,386,-3.57117,-3.42126,0,0,0,0,0,0,0,-1,825,638,-3.57116,3.42129
-392,386,-4.00977,0.403625,0,0,0,0,0,0,0,-1,832,638,-4.0098,-0.403616
-385,386,-3.2406,-0.118469,0,0,0,0,0,0,0,-1,839,638,-3.24058,0.118485
-378,386,-2.55243,-1.22748,0,0,0,0,0,0,0,-1,846,638,-2.55243,1.22748
-371,386,-7.95807,-0.330261,0,0,0,0,0,0,0,-1,853,638,-7.95806,0.330284
-364,386,-8.90637,-0.665955,0,0,0,0,0,0,0,-1,860,638,-8.90635,0.665951
-357,386,-9.10364,-0.388733,0,0,0,0,0,0,0,-1,867,638,-9.10364,0.388744
-350,386,0,0,0,0,0,0,0,0,0,-1,874,638,0,0
-343,386,0,0,0,0,0,0,0,0,0,-1,881,638,0,0
-336,386,0,0,0,0,0,0,0,0,0,-1,888,638,0,0
-329,386,0,0,0,0,0,0,0,0,0,-1,895,638,0,0
-322,386,0,0,0,0,0,0,0,0,0,-1,902,638,0,0
-315,386,0,0,0,0,0,0,0,0,0,-1,909,638,0,0
-308,386,0,0,0,0,0,0,0,0,0,-1,916,638,0,0
-301,386,0,0,0,0,0,0,0,0,0,-1,923,638,0,0
-294,386,0,0,0,0,0,0,0,0,0,-1,930,638,0,0
-287,386,0,0,0,0,0,0,0,0,0,-1,937,638,0,0
-280,386,0,0,0,0,0,0,0,0,0,-1,944,638,0,0
-273,386,0,0,0,0,0,0,0,0,0,-1,951,638,0,0
-266,386,0,0,0,0,0,0,0,0,0,-1,958,638,0,0
-259,386,0,0,0,0,0,0,0,0,0,-1,965,638,0,0
-252,386,0,0,0,0,0,0,0,0,0,-1,972,638,0,0
-245,386,0,0,0,0,0,0,0,0,0,-1,979,638,0,0
-238,386,0,0,0,0,0,0,0,0,0,-1,986,638,0,0
-231,386,0,0,0,0,0,0,0,0,0,-1,993,638,0,0
-224,386,0,0,0,0,0,0,0,0,0,-1,1000,638,0,0
-217,386,0,0,0,0,0,0,0,0,0,-1,1007,638,0,0
-210,386,0,0,0,0,0,0,0,0,0,-1,1014,638,0,0
-203,386,0,0,0,0,0,0,0,0,0,-1,1021,638,0,0
-196,386,0,0,0,0,0,0,0,0,0,-1,1028,638,0,0
-189,386,0,0,0,0,0,0,0,0,0,-1,1035,638,0,0
-182,386,0,0,0,0,0,0,0,0,0,-1,1042,638,0,0
-175,386,0,0,0,0,0,0,0,0,0,-1,1049,638,0,0
-168,386,0,0,0,0,0,0,0,0,0,-1,1056,638,0,0
-161,386,0,0,0,0,0,0,0,0,0,-1,1063,638,0,0
-154,386,0,0,0,0,0,0,0,0,0,-1,1070,638,0,0
-147,386,0,0,0,0,0,0,0,0,0,-1,1077,638,0,0
-140,386,0,0,0,0,0,0,0,0,0,-1,1084,638,0,0
-133,386,0,0,0,0,0,0,0,0,0,-1,1091,638,0,0
-126,386,0,0,0,0,0,0,0,0,0,-1,1098,638,0,0
-119,386,0,0,0,0,0,0,0,0,0,-1,1105,638,0,0
-112,386,0,0,0,0,0,0,0,0,0,-1,1112,638,0,0
-105,386,0,0,0,0,0,0,0,0,0,-1,1119,638,0,0
-98,386,0,0,0,0,0,0,0,0,0,-1,1126,638,0,0
-91,386,0,0,0,0,0,0,0,0,0,-1,1133,638,0,0
-84,386,0,0,0,0,0,0,0,0,0,-1,1140,638,0,0
-77,386,0,0,0,0,0,0,0,0,0,-1,1147,638,0,0
-70,386,0,0,0,0,0,0,0,0,0,-1,1154,638,0,0
-63,386,0,0,0,0,0,0,0,0,0,-1,1161,638,0,0
-56,386,0,0,0,0,0,0,0,0,0,-1,1168,638,0,0
-49,386,0,0,0,0,0,0,0,0,0,-1,1175,638,0,0
-42,386,0,0,0,0,0,0,0,0,0,-1,1182,638,0,0
-35,386,0,0,0,0,0,0,0,0,0,-1,1189,638,0,0
-28,386,0,0,0,0,0,0,0,0,0,-1,1196,638,0,0
-21,386,0,0,0,0,0,0,0,0,0,-1,1203,638,0,0
-14,386,0,0,0,0,0,0,0,0,0,-1,1210,638,0,0
-7,386,0,0,0,0,0,0,0,0,0,-1,1217,638,0,0
0,386,0,0,0,0,0,0,0,0,0,-1,1224,638,0,0
7,386,0,0,0,0,0,0,0,0,0,-1,1231,638,0,0
14,386,0,0,0,0,0,0,0,0,0,-1,1238,638,0,0
21,386,0,0,0,0,0,0,0,0,0,-1,1245,638,0,0
28,386,0,0,0,0,0,0,0,0,0,-1,1252,638,0,0
35,386,0,0,0,0,0,0,0,0,0,-1,1259,638,0,0
42,386,0,0,0,0,0,0,0,0,0,-1,1266,638,0,0
49,386,0,0,0,0,0,0,0,0,0,-1,1273,638,0,0
56,386,0,0,0,0,0,0,0,0,0,-1,1280,638,0,0
63,386,0,0,0,0,0,0,0,0,0,-1,1287,638,0,0
70,386,0,0,0,0,0,0,0,0,0,-1,1294,638,0,0
77,386,0,0,0,0,0,0,0,0,0,-1,1301,638,0,0
84,386,0,0,0,0,0,0,0,0,0,-1,1308,638,0,0
91,386,0,0,0,0,0,0,0,0,0,-1,1315,638,0,0
98,386,0,0,0,0,0,0,0,0,0,-1,1322,638,0,0
105,386,0,0,0,0,0,0,0,0,0,-1,1329,638,0,0
112,386,0,0,0,0,0,0,0,0,0,-1,1336,638,0,0
119,386,0,0,0,0,0,0,0,0,0,-1,1343,638,0,0
126,386,0,0,0,0,0,0,0,0,0,-1,1350,638,0,0
133,386,0,0,0,0,0,0,0,0,0,-1,1357,638,0,0
140,386,0,0,0,0,0,0,0,0,0,-1,1364,638,0,0
147,386,0,0,0,0,0,0,0,0,0,-1,1371,638,0,0
154,386,0,0,0,0,0,0,0,0,0,-1,1378,638,0,0
161,386,0,0,0,0,0,0,0,0,0,-1,1385,638,0,0
168,386,0,0,0,0,0,0,0,0,0,-1,1392,638,0,0
175,386,0,0,0,0,0,0,0,0,0,-1,1399,638,0,0
182,386,0,0,0,0,0,0,0,0,0,-1,1406,638,0,0
189,386,0,0,0,0,0,0,0,0,0,-1,1413,638,0,0
196,386,0,0,0,0,0,0,0,0,0,-1,1420,638,0,0
203,386,0,0,0,0,0,0,0,0,0,-1,1427,638,0,0
210,386,0,0,0,0,0,0,0,0,0,-1,1434,638,0,0
217,386,0,0,0,0,0,0,0,0,0,-1,1441,638,0,0
224,386,0,0,0,0,0,0,0,0,0,-1,1448,638,0,0
231,386,0,0,0,0,0,0,0,0,0,-1,1455,638,0,0
238,386,0,0,0,0,0,0,0,0,0,-1,1462,638,0,0
245,386,0,0,0,0,0,0,0,0,0,-1,1469,638,0,0
252,386,0,0,0,0,0,0,0,0,0,-1,1476,638,0,0
259,386,0,0,0,0,0,0,0,0,0,-1,1483,638,0,0
266,386,0,0,0,0,0,0,0,0,0,-1,1490,638,0,0
273,386,0,0,0,0,0,0,0,0,0,-1,1497,638,0,0
280,386,0,0,0,0,0,0,0,0,0,-1,1504,638,0,0
287,386,0,0,0,0,0,0,0,0,0,-1,1511,638,0,0
294,386,0,0,0,0,0,0,0,0,0,-1,1518,638,0,0
301,386,0,0,0,0,0,0,0,0,0,-1,1525,638,0,0
308,386,0,0,0,0,0,0,0,0,0,-1,1532,638,0,0
315,386,0,0,0,0,0,0,0,0,0,-1,1539,638,0,0
322,386,0,0,0,0,0,0,0,0,0,-1,1546,638,0,0
329,386,0,0,0,0,0,0,0,0,0,-1,1553,638,0,0
336,386,0,0,0,0,0,0,0,0,0,-1,1560,638,0,0
343,386,0,0,0,0,0,0,0,0,0,-1,1567,638,0,0
350,386,0,0,0,0,0,0,0,0,0,-1,1574,638,0,0
357,386,0,0,0,0,0,0,0,0,0,-1,1581,638,0,0
364,386,0,0,0,0,0,0,0,0,0,-1,1588,638,0,0
371,386,0,0,0,0,0,0,0,0,0,-1,1595,638,0,0
378,386,0,0,0,0,0,0,0,0,0,-1,1602,638,0,0
385,386,0,0,0,0,0,0,0,0,0,-1,1609,638,0,0
392,386,0,0,0,0,0,0,0,0,0,-1,1616,638,0,0
399,386,0,0,0,0,0,0,0,0,0,-1,1623,638,0,0
406,386,0,0,0,0,0,0,0,0,0,-1,1630,638,0,0
413,386,0,0,0,0,0,0,0,0,0,-1,1637,638,0,0
420,386,0,0,0,0,0,0,0,0,0,-1,1644,638,0,0
427,386,0,0,0,0,0,0,0,0,0,-1,1651,638,0,0
434,386,0,0,0,0,0,0,0,0,0,-1,1658,638,0,0
441,386,0,0,0,0,0,0,0,0,0,-1,1665,638,0,0
448,386,0,0,0,0,0,0,0,0,0,-1,1672,638,0,0
455,386,0,0,0,0,0,0,0,0,0,-1,1679,638,0,0
462,386,0,0,0,0,0,0,0,0,0,-1,1686,638,0,0
469,386,9.84692,1.55804,0,0,0,0,0,0,0,-1,1693,638,9.84691,-1.55807
476,386,10.6145,0.986511,0,0,0,0,0,0,0,-1,1700,638,10.6145,-0.986529
483,386,11.4113,0.732971,0,0,0,0,0,0,0,-1,1707,638,11.4112,-0.732958
490,386,7.79785,1.79572,0,0,0,0,0,0,0,-1,1714,638,7.79788,-1.7957
497,386,8.96362,1.77081,0,0,0,0,0,0,0,-1,1721,638,8.96357,-1.77081
504,386,10.0555,1.69427,0,0,0,0,0,0,0,-1,1728,638,10.0555,-1.69426
511,386,11.2172,1.534,0,0,0,0,0,0,0,-1,1735,638,11.2172,-1.53398
518,386,7.41553,1.75238,0,0,0,0,0,0,0,-1,1742,638,7.41547,-1.75238
525,386,8.82422,-1.1449,0,0,0,0,0,0,0,-1,1749,638,8.82426,1.14492
532,386,10.6432,0.617371,0,0,0,0,0,0,0,-1,1756,638,10.6432,-0.617359
539,386,9.62061,-0.393616,0,0,0,0,0,0,0,-1,1763,638,9.62059,0.393634
546,386,10.7963,-2.854,0,0,0,0,0,0,0,-1,1770,638,10.7962,2.854
553,386,15.9169,-6.35541,0,0,0,0,0,0,0,-1,1777,638,15.9168,6.35539
560,386,15.7699,-5.87402,-0.00331359,0.00163258,-0.00156396,0.00208561,-0.00376662,-1.28885,0.00342493,0.0440343,1784,638,15.7699,5.87401
567,386,15.6448,-5.51978,-0.00243408,0.00116079,-0.00125507,0.00155561,-0.0028289,-1.26602,0.00256673,0.0208507,1791,638,15.6448,5.51975
574,386,15.6965,-5.09595,-0.00162483,0.000983406,-0.000863628,0.00124344,-0.00188486,-1.27833,0.00181874,0.0149714,1798,638,15.6965,5.09594
581,386,15.6587,-4.67993,-0.00092864,0.000992005,-0.000449574,0.00109203,-0.00102866,-1.35187,0.00122457,0.0150707,1805,638,15.6587,4.67991
588,386,15.6613,-4.27252,-0.000371688,0.00112463,-5.08611e-05,0.00112636,-0.000373415,-1.53686,0.000901533,0.0136185,1812,638,15.6612,4.27254
595,386,15.6627,-3.86707,0.000226724,0.00142738,0.000435464,0.00156869,8.54176e-05,1.25702,0.00101852,0.013937,1819,638,15.6628,3.86708
602,386,15.6393,-3.45227,0.000832776,0.00191696,0.00105173,0.00255809,0.000191648,1.02335,0.00164523,0.015232,1826,638,15.6393,3.45229
609,386,15.6398,-3.02155,0.00108547,0.00255478,0.00156804,0.00355174,8.85163e-05,1.00447,0.00233888,0.0149227,1833,638,15.6397,3.02156
616,386,15.6433,-2.56317,0.00109267,0.00325071,0.00199605,0.00444072,-9.73479e-05,1.03319,0.00299346,0.0120685,1840,638,15.6434,2.56317
623,386,15.6263,-2.1153,0.0010377,0.00413313,0.00251468,0.00553821,-0.000367391,1.06126,0.0038205,0.0102602,1847,638,15.6264,2.11532
630,386,15.7184,-1.65698,0.000760668,0.00501228,0.00299843,0.00656202,-0.000789067,1.09376,0.00466002,0.0302625,1854,638,15.7184,1.65698
637,386,15.8671,-1.19446,0,0,0,0,0,0,0,-1,1861,638,15.8671,1.19446
644,386,11.6521,0.723328,0,0,0,0,0,0,0,-1,1868,638,11.6521,-0.723355
651,386,9.3866,1.31097,0,0,0,0,0,0,0,-1,1875,638,9.3866,-1.31095
658,386,12.0731,-0.00415039,0,0,0,0,0,0,0,-1,1882,638,12.0731,0.00412803
665,386,6.33167,1.78601,0,0,0,0,0,0,0,-1,1889,638,6.33171,-1.78601
672,386,7.23352,2.14435,0,0,0,0,0,0,0,-1,1896,638,7.23353,-2.14433
679,386,8.07764,2.57104,0,0,0,0,0,0,0,-1,1903,638,8.07758,-2.57103
686,386,0,0,0,0,0,0,0,0,0,-1,1910,638,0,0
693,386,0,0,0,0,0,0,0,0,0,-1,1917,638,0,0
700,386,0,0,0,0,0,0,0,0,0,-1,1924,638,0,0
707,386,0,0,0,0,0,0,0,0,0,-1,1931,638,0,0
714,386,0,0,0,0,0,0,0,0,0,-1,1938,638,0,0
721,386,0,0,0,0,0,0,0,0,0,-1,1945,638,0,0
728,386,0,0,0,0,0,0,0,0,0,-1,1952,638,0,0
735,386,0,0,0,0,0,0,0,0,0,-1,1959,638,0,0
742,386,0,0,0,0,0,0,0,0,0,-1,1966,638,0,0
749,386,0,0,0,0,0,0,0,0,0,-1,1973,638,0,0
756,386,0,0,0,0,0,0,0,0,0,-1,1980,638,0,0
763,386,0,0,0,0,0,0,0,0,0,-1,1987,638,0,0
770,386,0,0,0,0,0,0,0,0,0,-1,1994,638,0,0
777,386,0,0,0,0,0,0,0,0,0,-1,2001,638,0,0
784,386,0,0,0,0,0,0,0,0,0,-1,2008,638,0,0
791,386,0,0,0,0,0,0,0,0,0,-1,2015,638,0,0
798,386,0,0,0,0,0,0,0,0,0,-1,2022,638,0,0
805,386,0,0,0,0,0,0,0,0,0,-1,2029,638,0,0
812,386,0,0,0,0,0,0,0,0,0,-1,2036,638,0,0
-700,379,0,0,0,0,0,0,0,0,0,-1,524,645,0,0
-693,379,0,0,0,0,0,0,0,0,0,-1,531,645,0,0
-686,379,0,0,0,0,0,0,0,0,0,-1,538,645,0,0
-679,379,0,0,0,0,0,0,0,0,0,-1,545,645,0,0
-672,379,0,0,0,0,0,0,0,0,0,-1,552,645,0,0
-665,379,0,0,0,0,0,0,0,0,0,-1,559,645,0,0
-658,379,0,0,0,0,0,0,0,0,0,-1,566,645,0,0
-651,379,0,0,0,0,0,0,0,0,0,-1,573,645,0,0
-644,379,0,0,0,0,0,0,0,0,0,-1,580,645,0,0
-637,379,0,0,0,0,0,0,0,0,0,-1,587,645,0,0
-630,379,0,0,0,0,0,0,0,0,0,-1,594,645,0,0
-623,379,0,0,0,0,0,0,0,0,0,-1,601,645,0,0
-616,379,0,0,0,0,0,0,0,0,0,-1,608,645,0,0
-609,379,0,0,0,0,0,0,0,0,0,-1,615,645,0,0
-602,379,0,0,0,0,0,0,0,0,0,-1,622,645,0,0
-595,379,0,0,0,0,0,0,0,0,0,-1,629,645,0,0
-588,379,0,0,0,0,0,0,0,0,0,-1,636,645,0,0
-581,379,0,0,0,0,0,0,0,0,0,-1,643,645,0,0
-574,379,0,0,0,0,0,0,0,0,0,-1,650,645,0,0
-567,379,-8.78058,0.59668,0,0,0,0,0,0,0,-1,657,645,-8.7806,-0.596692
-560,379,-9.53485,-0.211304,0,0,0,0,0,0,0,-1,664,645,-9.53487,0.211282
-553,379,-5.17108,-4.53119,0,0,0,0,0,0,0,-1,671,645,-5.17106,4.53117
-546,379,-6.23053,-4.92102,0,0,0,0,0,0,0,-1,678,645,-6.23054,4.92105
-539,379,-0.71698,-2.19427,0,0,0,0,0,0,0,-1,685,645,-0.716959,2.19427
-532,379,-7.69611,0.217224,0,0,0,0,0,0,0,-1,692,645,-7.69614,-0.217204
-525,379,-7.09833,-1.13043,0,0,0,0,0,0,0,-1,699,645,-7.0983,1.13041
-518,379,-8.14948,-2.784,0,0,0,0,0,0,0,-1,706,645,-8.1495,2.784
-511,379,-7.99457,-3.30078,0.00219853,-4.42023e-05,-0.0017611,0.00316497,-0.00101064,-0.501899,0.00251547,0.039991,713,645,-7.99458,3.30076
-504,379,-8.10376,-3.66132,0.0015557,1.5619e-06,-0.00126842,0.00226615,-0.000708894,-0.510572,0.00179437,0.0212921,720,645,-8.10377,3.66131
-497,379,-8.1557,-4.02631,0.00126259,-5.98453e-06,-0.000975344,0.00179175,-0.000535149,-0.497099,0.00140722,0.0115755,727,645,-8.15572,4.02629
-490,379,-8.15216,-4.43542,0.00106095,0.00021875,-0.000792161,0.00153698,-0.00025728,-0.5411,0.00112031,0.0113751,734,645,-8.15213,4.43541
-483,379,-8.15314,-4.85809,0.00125308,0.000354313,-0.000889261,0.00180006,-0.000192662,-0.551441,0.00126914,0.0127062,741,645,-8.15312,4.85811
-476,379,-8.1543,-5.22693,0.00161504,0.000567423,-0.00107429,0.00228641,-0.000103953,-0.558564,0.00156008,0.012803,748,645,-8.15428,5.22692
-469,379,-8.1709,-5.62933,0.00193483,0.000873938,-0.00132154,0.00282841,-1.96405e-05,-0.594549,0.00189219,0.0119602,755,645,-8.17093,5.62935
-462,379,-8.19574,-6.06366,0.00206559,0.00106584,-0.00149365,0.00314079,-9.35805e-06,-0.623923,0.00209699,0.00902145,762,645,-8.19575,6.06367
-455,379,-8.19897,-6.45404,0.00186658,0.0010589,-0.00131463,0.002838,8.74829e-05,-0.636377,0.00186352,0.00926839,769,645,-8.19898,6.45402
-448,379,-8.20026,-6.8382,0.00162104,0.0010392,-0.0010877,0.00245606,0.000204187,-0.654725,0.00157373,0.0113489,776,645,-8.20023,6.83819
-441,379,-8.17908,-7.28949,0.000992756,0.000474787,-0.000517924,0.00131284,0.000154705,-0.553557,0.000828486,0.0191135,783,645,-8.17906,7.28949
-434,379,-8.01306,-7.84009,0,0,0,0,0,0,0,-1,790,645,-8.01306,7.84009
-427,379,-4.16113,-4.13452,0,0,0,0,0,0,0,-1,797,645,-4.16116,4.1345
-420,379,-4.63953,-3.46869,0,0,0,0,0,0,0,-1,804,645,-4.63953,3.46872
-413,379,-4.62543,-3.7912,0,0,0,0,0,0,0,-1,811,645,-4.62541,3.79123
-406,379,-4.64063,-4.38489,0,0,0,0,0,0,0,-1,818,645,-4.64065,4.3849
-399,379,-2.93536,-1.40118,0,0,0,0,0,0,0,-1,825,645,-2.93534,1.40119
-392,379,-4.16711,-0.466003,0,0,0,0,0,0,0,-1,832,645,-4.16714,0.465992
-385,379,-3.51862,0.441101,0,0,0,0,0,0,0,-1,839,645,-3.51859,-0.441072
-378,379,-5.3504,0.212219,0,0,0,0,0,0,0,-1,846,645,-5.35038,-0.212241
-371,379,-4.32092,-0.186707,0,0,0,0,0,0,0,-1,853,645,-4.3209,0.186707
-364,379,-3.40887,-0.549805,0,0,0,0,0,0,0,-1,860,645,-3.4089,0.549802
-357,379,0,0,0,0,0,0,0,0,0,-1,867,645,0,0
-350,379,0,0,0,0,0,0,0,0,0,-1,874,645,0,0
-343,379,0,0,0,0,0,0,0,0,0,-1,881,645,0,0
-336,379,0,0,0,0,0,0,0,0,0,-1,888,645,0,0
-329,379,0,0,0,0,0,0,0,0,0,-1,895,645,0,0
-322,379,0,0,0,0,0,0,0,0,0,-1,902,645,0,0
-315,379,0,0,0,0,0,0,0,0,0,-1,909,645,0,0
-308,379,0,0,0,0,0,0,0,0,0,-1,916,645,0,0
-301,379,0,0,0,0,0,0,0,0,0,-1,923,645,0,0
-294,379,0,0,0,0,0,0,0,0,0,-1,930,645,0,0
-287,379,0,0,0,0,0,0,0,0,0,-1,937,645,0,0
-280,379,0,0,0,0,0,0,0,0,0,-1,944,645,0,0
-273,379,0,0,0,0,0,0,0,0,0,-1,951,645,0,0
-266,379,0,0,0,0,0,0,0,0,0,-1,958,645,0,0
-259,379,0,0,0,0,0,0,0,0,0,-1,965,645,0,0
-252,379,0,0,0,0,0,0,0,0,0,-1,972,645,0,0
-245,379,0,0,0,0,0,0,0,0,0,-1,979,645,0,0
-238,379,0,0,0,0,0,0,0,0,0,-1,986,645,0,0
-231,379,0,0,0,0,0,0,0,0,0,-1,993,645,0,0
-224,379,0,0,0,0,0,0,0,0,0,-1,1000,645,0,0
-217,379,0,0,0,0,0,0,0,0,0,-1,1007,645,0,0
-210,379,0,0,0,0,0,0,0,0,0,-1,1014,645,0,0
-203,379,0,0,0,0,0,0,0,0,0,-1,1021,645,0,0
-196,379,0,0,0,0,0,0,0,0,0,-1,1028,645,0,0
-189,379,0,0,0,0,0,0,0,0,0,-1,1035,645,0,0
-182,379,0,0,0,0,0,0,0,0,0,-1,1042,645,0,0
-175,379,0,0,0,0,0,0,0,0,0,-1,1049,645,0,0
-168,379,0,0,0,0,0,0,0,0,0,-1,1056,645,0,0
-161,379,0,0,0,0,0,0,0,0,0,-1,1063,645,0,0
-154,379,0,0,0,0,0,0,0,0,0,-1,1070,645,0,0
-147,379,0,0,0,0,0,0,0,0,0,-1,1077,645,0,0
-140,379,0,0,0,0,0,0,0,0,0,-1,1084,645,0,0
-133,379,0,0,0,0,0,0,0,0,0,-1,1091,645,0,0
-126,379,0,0,0,0,0,0,0,0,0,-1,1098,645,0,0
-119,379,0,0,0,0,0,0,0,0,0,-1,1105,645,0,0
-112,379,0,0,0,0,0,0,0,0,0,-1,1112,645,0,0
-105,379,0,0,0,0,0,0,0,0,0,-1,1119,645,0,0
-98,379,0,0,0,0,0,0,0,0,0,-1,1126,645,0,0
-91,379,0,0,0,0,0,0,0,0,0,-1,1133,645,0,0
-84,379,0,0,0,0,0,0,0,0,0,-1,1140,645,0,0
-77,379,0,0,0,0,0,0,0,0,0,-1,1147,645,0,0
-70,379,0,0,0,0,0,0,0,0,0,-1,1154,645,0,0
-63,379,0,0,0,0,0,0,0,0,0,-1,1161,645,0,0
-56,379,0,0,0,0,0,0,0,0,0,-1,1168,645,0,0
-49,379,0,0,0,0,0,0,0,0,0,-1,1175,645,0,0
-42,379,0,0,0,0,0,0,0,0,0,-1,1182,645,0,0
-35,379,0,0,0,0,0,0,0,0,0,-1,1189,645,0,0
-28,379,0,0,0,0,0,0,0,0,0,-1,1196,645,0,0
-21,379,0,0,0,0,0,0,0,0,0,-1,1203,645,0,0
-14,379,0,0,0,0,0,0,0,0,0,-1,1210,645,0,0
-7,379,0,0,0,0,0,0,0,0,0,-1,1217,645,0,0
0,379,0,0,0,0,0,0,0,0,0,-1,1224,645,0,0
7,379,0,0,0,0,0,0,0,0,0,-1,1231,645,0,0
14,379,0,0,0,0,0,0,0,0,0,-1,1238,645,0,0
21,379,0,0,0,0,0,0,0,0,0,-1,1245,645,0,0
28,379,0,0,0,0,0,0,0,0,0,-1,1252,645,0,0
35,379,0,0,0,0,0,0,0,0,0,-1,1259,645,0,0
42,379,0,0,0,0,0,0,0,0,0,-1,1266,645,0,0
49,379,0,0,0,0,0,0,0,0,0,-1,1273,645,0,0
56,379,0,0,0,0,0,0,0,0,0,-1,1280,645,0,0
63,379,0,0,0,0,0,0,0,0,0,-1,1287,645,0,0
70,379,0,0,0,0,0,0,0,0,0,-1,1294,645,0,0
77,379,0,0,0,0,0,0,0,0,0,-1,1301,645,0,0
84,379,0,0,0,0,0,0,0,0,0,-1,1308,645,0,0
91,379,0,0,0,0,0,0,0,0,0,-1,1315,645,0,0
98,379,0,0,0,0,0,0,0,0,0,-1,1322,645,0,0
105,379,0,0,0,0,0,0,0,0,0,-1,1329,645,0,0
112,379,0,0,0,0,0,0,0,0,0,-1,1336,645,0,0
119,379,0,0,0,0,0,0,0,0,0,-1,1343,645,0,0
126,379,0,0,0,0,0,0,0,0,0,-1,1350,645,0,0
133,379,0,0,0,0,0,0,0,0,0,-1,1357,645,0,0
140,379,0,0,0,0,0,0,0,0,0,-1,1364,645,0,0
147,379,0,0,0,0,0,0,0,0,0,-1,1371,645,0,0
154,379,0,0,0,0,0,0,0,0,0,-1,1378,645,0,0
161,379,0,0,0,0,0,0,0,0,0,-1,1385,645,0,0
168,379,0,0,0,0,0,0,0,0,0,-1,1392,645,0,0
175,379,0,0,0,0,0,0,0,0,0,-1,1399,645,0,0
182,379,0,0,0,0,0,0,0,0,0,-1,1406,645,0,0
189,379,0,0,0,0,0,0,0,0,0,-1,1413,645,0,0
196,379,0,0,0,0,0,0,0,0,0,-1,1420,645,0,0
203,379,0,0,0,0,0,0,0,0,0,-1,1427,645,0,0
210,379,0,0,0,0,0,0,0,0,0,-1,1434,645,0,0
217,379,0,0,0,0,0,0,0,0,0,-1,1441,645,0,0
224,379,0,0,0,0,0,0,0,0,0,-1,1448,645,0,0
231,379,0,0,0,0,0,0,0,0,0,-1,1455,645,0,0
238,379,0,0,0,0,0,0,0,0,0,-1,1462,645,0,0
245,379,0,0,0,0,0,0,0,0,0,-1,1469,645,0,0
252,379,0,0,0,0,0,0,0,0,0,-1,1476,645,0,0
259,379,0,0,0,0,0,0,0,0,0,-1,1483,645,0,0
266,379,0,0,0,0,0,0,0,0,0,-1,1490,645,0,0
273,379,0,0,0,0,0,0,0,0,0,-1,1497,645,0,0
280,379,0,0,0,0,0,0,0,0,0,-1,1504,645,0,0
287,379,0,0,0,0,0,0,0,0,0,-1,1511,645,0,0
294,379,0,0,0,0,0,0,0,0,0,-1,1518,645,0,0
301,379,0,0,0,0,0,0,0,0,0,-1,1525,645,0,0
308,379,0,0,0,0,0,0,0,0,0,-1,1532,645,0,0
315,379,0,0,0,0,0,0,0,0,0,-1,1539,645,0,0
322,379,0,0,0,0,0,0,0,0,0,-1,1546,645,0,0
329,379,0,0,0,0,0,0,0,0,0,-1,1553,645,0,0
336,379,0,0,0,0,0,0,0,0,0,-1,1560,645,0,0
343,379,0,0,0,0,0,0,0,0,0,-1,1567,645,0,0
350,379,0,0,0,0,0,0,0,0,0,-1,1574,645,0,0
357,379,0,0,0,0,0,0,0,0,0,-1,1581,645,0,0
364,379,0,0,0,0,0,0,0,0,0,-1,1588,645,0,0
371,379,0,0,0,0,0,0,0,0,0,-1,1595,645,0,0
378,379,0,0,0,0,0,0,0,0,0,-1,1602,645,0,0
385,379,0,0,0,0,0,0,0,0,0,-1,1609,645,0,0
392,379,0,0,0,0,0,0,0,0,0,-1,1616,645,0,0
399,379,0,0,0,0,0,0,0,0,0,-1,1623,645,0,0
406,379,0,0,0,0,0,0,0,0,0,-1,1630,645,0,0
413,379,0,0,0,0,0,0,0,0,0,-1,1637,645,0,0
420,379,0,0,0,0,0,0,0,0,0,-1,1644,645,0,0
427,379,0,0,0,0,0,0,0,0,0,-1,1651,645,0,0
434,379,0,0,0,0,0,0,0,0,0,-1,1658,645,0,0
441,379,0,0,0,0,0,0,0,0,0,-1,1665,645,0,0
448,379,0,0,0,0,0,0,0,0,0,-1,1672,645,0,0
455,379,0,0,0,0,0,0,0,0,0,-1,1679,645,0,0
462,379,0,0,0,0,0,0,0,0,0,-1,1686,645,0,0
469,379,0,0,0,0,0,0,0,0,0,-1,1693,645,0,0
476,379,11.1787,0.830383,0,0,0,0,0,0,0,-1,1700,645,11.1787,-0.830365
483,379,7.4231,1.54321,0,0,0,0,0,0,0,-1,1707,645,7.42314,-1.54324
490,379,8.52881,1.56677,0,0,0,0,0,0,0,-1,1714,645,8.52878,-1.56677
497,379,9.63599,1.49573,0,0,0,0,0,0,0,-1,1721,645,9.63604,-1.4957
504,379,10.0833,1.35229,0,0,0,0,0,0,0,-1,1728,645,10.0832,-1.35227
511,379,8.14343,1.59912,0,0,0,0,0,0,0,-1,1735,645,8.14347,-1.59912
518,379,12.7955,-0.324097,0,0,0,0,0,0,0,-1,1742,645,12.7955,0.324101
525,379,6.03711,1.10352,0,0,0,0,0,0,0,-1,1749,645,6.03711,-1.10351
532,379,8.70947,0.887817,0,0,0,0,0,0,0,-1,1756,645,8.70953,-0.887808
539,379,9.87097,0.111389,0,0,0,0,0,0,0,-1,1763,645,9.87095,-0.111395
546,379,8.42383,-0.730652,0,0,0,0,0,0,0,-1,1770,645,8.42378,0.730638
553,379,16.7549,-6.2243,0,0,0,0,0,0,0,-1,1777,645,16.7549,6.22433
560,379,16.4396,-5.84021,-0.0047462,0.00195705,-0.00222867,0.00263039,-0.00541955,-1.27739,0.00473971,0.0399774,1784,645,16.4395,5.8402
567,379,16.0259,-5.48993,-0.00332806,0.00140535,-0.00170792,0.00195726,-0.00387996,-1.25824,0.00343052,0.0224064,1791,645,16.0258,5.48992
574,379,16.1388,-5.07922,-0.00213719,0.0011732,-0.00115889,0.00153858,-0.00250257,-1.26538,0.00235518,0.0137917,1798,645,16.1388,5.07925
581,379,16.1223,-4.6629,-0.00116186,0.00111985,-0.000648243,0.00129116,-0.00133317,-1.31244,0.00151522,0.0156811,1805,645,16.1224,4.66293
588,379,16.1011,-4.24835,-0.000402101,0.00116443,-0.000194433,0.0011882,-0.000425873,-1.44914,0.000965913,0.0171566,1812,645,16.101,4.24833
595,379,16.0801,-3.8501,0.000304135,0.00136164,0.00028218,0.00143222,0.00023355,1.32569,0.00088727,0.0145504,1819,645,16.0801,3.85008
602,379,16.0568,-3.44592,0.000965487,0.00173022,0.000863531,0.00229225,0.000403454,0.993821,0.00141302,0.0154914,1826,645,16.0568,3.44593
609,379,16.0358,-3.0202,0.0012256,0.00223553,0.00132237,0.00314607,0.00031506,0.967784,0.00200065,0.0161872,1833,645,16.0358,3.0202
616,379,16.0444,-2.5838,0.00126056,0.00277892,0.00169356,0.00387567,0.000163807,0.996108,0.00253095,0.0128033,1840,645,16.0444,2.58383
623,379,16.0555,-2.1109,0.00108737,0.00343891,0.00208281,0.0046549,-0.000128623,1.04236,0.00314702,0.0107866,1847,645,16.0556,2.11091
630,379,16.0474,-1.6825,0.000521554,0.00404196,0.0023703,0.00523415,-0.000670639,1.10477,0.00373312,0.0129105,1854,645,16.0473,1.68247
637,379,16.0544,-1.1947,-0.000463953,0.00488019,0.00263952,0.00596406,-0.00154782,1.18116,0.00458,0.0300157,1861,645,16.0545,1.1947
644,379,16.1775,-0.631653,0,0,0,0,0,0,0,-1,1868,645,16.1775,0.631661
651,379,12.9515,0.220825,0,0,0,0,0,0,0,-1,1875,645,12.9515,-0.220814
658,379,13.7498,0.37439,0,0,0,0,0,0,0,-1,1882,645,13.7498,-0.374371
665,379,11.9719,0.353333,0,0,0,0,0,0,0,-1,1889,645,11.9719,-0.353321
672,379,7.57605,2.15326,0,0,0,0,0,0,0,-1,1896,645,7.57599,-2.15326
679,379,8.55078,2.50409,0,0,0,0,0,0,0,-1,1903,645,8.55073,-2.50406
686,379,0,0,0,0,0,0,0,0,0,-1,1910,645,0,0
693,379,0,0,0,0,0,0,0,0,0,-1,1917,645,0,0
700,379,0,0,0,0,0,0,0,0,0,-1,1924,645,0,0
707,379,0,0,0,0,0,0,0,0,0,-1,1931,645,0,0
714,379,0,0,0,0,0,0,0,0,0,-1,1938,645,0,0
721,379,0,0,0,0,0,0,0,0,0,-1,1945,645,0,0
728,379,0,0,0,0,0,0,0,0,0,-1,1952,645,0,0
735,379,0,0,0,0,0,0,0,0,0,-1,1959,645,0,0
742,379,0,0,0,0,0,0,0,0,0,-1,1966,645,0,0
749,379,0,0,0,0,0,0,0,0,0,-1,1973,645,0,0
756,379,0,0,0,0,0,0,0,0,0,-1,1980,645,0,0
763,379,0,0,0,0,0,0,0,0,0,-1,1987,645,0,0
770,379,0,0,0,0,0,0,0,0,0,-1,1994,645,0,0
777,379,0,0,0,0,0,0,0,0,0,-1,2001,645,0,0
784,379,0,0,0,0,0,0,0,0,0,-1,2008,645,0,0
791,379,0,0,0,0,0,0,0,0,0,-1,2015,645,0,0
798,379,0,0,0,0,0,0,0,0,0,-1,2022,645,0,0
805,379,0,0,0,0,0,0,0,0,0,-1,2029,645,0,0
812,379,0,0,0,0,0,0,0,0,0,-1,2036,645,0,0
-700,372,0,0,0,0,0,0,0,0,0,-1,524,652,0,0
-693,372,0,0,0,0,0,0,0,0,0,-1,531,652,0,0
-686,372,0,0,0,0,0,0,0,0,0,-1,538,652,0,0
-679,372,0,0,0,0,0,0,0,0,0,-1,545,652,0,0
-672,372,0,0,0,0,0,0,0,0,0,-1,552,652,0,0
-665,372,0,0,0,0,0,0,0,0,0,-1,559,652,0,0
-658,372,0,0,0,0,0,0,0,0,0,-1,566,652,0,0
-651,372,0,0,0,0,0,0,0,0,0,-1,573,652,0,0
-644,372,0,0,0,0,0,0,0,0,0,-1,580,652,0,0
-637,372,0,0,0,0,0,0,0,0,0,-1,587,652,0,0
-630,372,0,0,0,0,0,0,0,0,0,-1,594,652,0,0
-623,372,0,0,0,0,0,0,0,0,0,-1,601,652,0,0
-616,372,0,0,0,0,0,0,0,0,0,-1,608,652,0,0
-609,372,0,0,0,0,0,0,0,0,0,-1,615,652,0,0
-602,372,0,0,0,0,0,0,0,0,0,-1,622,652,0,0
-595,372,0,0,0,0,0,0,0,0,0,-1,629,652,0,0
-588,372,0,0,0,0,0,0,0,0,0,-1,636,652,0,0
-581,372,0,0,0,0,0,0,0,0,0,-1,643,652,0,0
-574,372,0,0,0,0,0,0,0,0,0,-1,650,652,0,0
-567,372,-7.93744,0.73407,0,0,0,0,0,0,0,-1,657,652,-7.93741,-0.734076
-560,372,-8.78552,-0.158203,0,0,0,0,0,0,0,-1,664,652,-8.78552,0.158216
-553,372,-7.95551,1.61694,0,0,0,0,0,0,0,-1,671,652,-7.95552,-1.61697
-546,372,-4.2403,-3.75372,0,0,0,0,0,0,0,-1,678,652,-4.24028,3.75369
-539,372,-7.92285,-0.0650024,0,0,0,0,0,0,0,-1,685,652,-7.92287,0.0649772
-532,372,-8.59589,-0.419556,0,0,0,0,0,0,0,-1,692,652,-8.59591,0.419539
-525,372,-8.03674,-1.36804,0,0,0,0,0,0,0,-1,699,652,-8.03676,1.36806
-518,372,-8.5545,-2.71399,0,0,0,0,0,0,0,-1,706,652,-8.5545,2.71401
-511,372,-8.53265,-3.22021,0.00149299,0.000148891,-0.00121375,0.00220833,-0.000566444,-0.532559,0.00169292,0.0262704,713,652,-8.53265,3.22022
-504,372,-8.56244,-3.59351,0.000846256,-7.58229e-06,-0.000742647,0.00127595,-0.000437275,-0.524533,0.00102788,0.0133315,720,652,-8.56242,3.59349
-497,372,-8.54565,-4.02087,0.000574377,-0.000153657,-0.000501579,0.00083011,-0.00040939,-0.471501,0.000729238,0.011437,727,652,-8.54565,4.02086
-490,372,-8.54791,-4.41125,0.000442113,7.49475e-05,-0.000398773,0.000697532,-0.000180472,-0.569677,0.000535415,0.012969,734,652,-8.5479,4.41128
-483,372,-8.56451,-4.80737,0.000768072,0.000240278,-0.000587491,0.00114821,-0.000139865,-0.574307,0.000816103,0.012621,741,652,-8.56454,4.80737
-476,372,-8.57141,-5.18555,0.00133811,0.000544697,-0.000918145,0.00194158,-5.87805e-05,-0.581475,0.00131442,0.0132236,748,652,-8.57138,5.18555
-469,372,-8.57294,-5.58856,0.00192369,0.000992474,-0.00135637,0.00289215,2.4018e-05,-0.620063,0.00192014,0.0108823,755,652,-8.57293,5.58854
-462,372,-8.57745,-6.01971,0.00237964,0.00138024,-0.00176202,0.00371145,4.84289e-05,-0.647228,0.00245831,0.00969574,762,652,-8.57743,6.01972
-455,372,-8.59735,-6.42157,0.00251558,0.00158185,-0.00181865,0.00392634,0.000171092,-0.659757,0.00256243,0.0102853,769,652,-8.59733,6.42156
-448,372,-8.59247,-6.82861,0.00262813,0.0018604,-0.00188511,0.00416806,0.00032047,-0.684957,0.00267829,0.0120494,776,652,-8.59247,6.8286
-441,372,-8.44031,-7.42499,0.00242628,0.00157558,-0.00163963,0.00369484,0.000307028,-0.658486,0.00236753,0.0459662,783,652,-8.44033,7.42496
-434,372,-8.3963,-8.15265,0,0,0,0,0,0,0,-1,790,652,-8.3963,8.15263
-427,372,-4.54248,-3.56268,0,0,0,0,0,0,0,-1,797,652,-4.54247,3.56266
-420,372,-4.66168,-2.93597,0,0,0,0,0,0,0,-1,804,652,-4.66166,2.93599
-413,372,-4.74762,-3.29541,0,0,0,0,0,0,0,-1,811,652,-4.74763,3.29542
-406,372,-0.885437,-0.583923,0,0,0,0,0,0,0,-1,818,652,-0.885437,0.5839
-399,372,-3.97357,-0.825012,0,0,0,0,0,0,0,-1,825,652,-3.97359,0.825037
-392,372,-7.64337,0.173035,0,0,0,0,0,0,0,-1,832,652,-7.64337,-0.173019
-385,372,-6.48871,-0.0271606,0,0,0,0,0,0,0,-1,839,652,-6.48874,0.0271353
-378,372,-5.33044,-0.242432,0,0,0,0,0,0,0,-1,846,652,-5.33042,0.242457
-371,372,-4.40802,-0.495667,0,0,0,0,0,0,0,-1,853,652,-4.40802,0.495661
-364,372,0,0,0,0,0,0,0,0,0,-1,860,652,0,0
-357,372,0,0,0,0,0,0,0,0,0,-1,867,652,0,0
-350,372,0,0,0,0,0,0,0,0,0,-1,874,652,0,0
-343,372,0,0,0,0,0,0,0,0,0,-1,881,652,0,0
-336,372,0,0,0,0,0,0,0,0,0,-1,888,652,0,0
-329,372,0,0,0,0,0,0,0,0,0,-1,895,652,0,0
-322,372,0,0,0,0,0,0,0,0,0,-1,902,652,0,0
-315,372,0,0,0,0,0,0,0,0,0,-1,909,652,0,0
-308,372,0,0,0,0,0,0,0,0,0,-1,916,652,0,0
-301,372,0,0,0,0,0,0,0,0,0,-1,923,652,0,0
-294,372,0,0,0,0,0,0,0,0,0,-1,930,652,0,0
-287,372,0,0,0,0,0,0,0,0,0,-1,937,652,0,0
-280,372,0,0,0,0,0,0,0,0,0,-1,944,652,0,0
-273,372,0,0,0,0,0,0,0,0,0,-1,951,652,0,0
-266,372,0,0,0,0,0,0,0,0,0,-1,958,652,0,0
-259,372,0,0,0,0,0,0,0,0,0,-1,965,652,0,0
-252,372,0,0,0,0,0,0,0,0,0,-1,972,652,0,0
-245,372,0,0,0,0,0,0,0,0,0,-1,979,652,0,0
-238,372,0,0,0,0,0,0,0,0,0,-1,986,652,0,0
-231,372,0,0,0,0,0,0,0,0,0,-1,993,652,0,0
-224,372,0,0,0,0,0,0,0,0,0,-1,1000,652,0,0
-217,372,0,0,0,0,0,0,0,0,0,-1,1007,652,0,0
-210,372,0,0,0,0,0,0,0,0,0,-1,1014,652,0,0
-203,372,0,0,0,0,0,0,0,0,0,-1,1021,652,0,0
-196,372,0,0,0,0,0,0,0,0,0,-1,1028,652,0,0
-189,372,0,0,0,0,0,0,0,0,0,-1,1035,652,0,0
-182,372,0,0,0,0,0,0,0,0,0,-1,1042,652,0,0
-175,372,0,0,0,0,0,0,0,0,0,-1,1049,652,0,0
-168,372,0,0,0,0,0,0,0,0,0,-1,1056,652,0,0
-161,372,0,0,0,0,0,0,0,0,0,-1,1063,652,0,0
-154,372,0,0,0,0,0,0,0,0,0,-1,1070,652,0,0
-147,372,0,0,0,0,0,0,0,0,0,-1,1077,652,0,0
-140,372,0,0,0,0,0,0,0,0,0,-1,1084,652,0,0
-133,372,0,0,0,0,0,0,0,0,0,-1,1091,652,0,0
-126,372,0,0,0,0,0,0,0,0,0,-1,1098,652,0,0
-119,372,0,0,0,0,0,0,0,0,0,-1,1105,652,0,0
-112,372,0,0,0,0,0,0,0,0,0,-1,1112,652,0,0
-105,372,0,0,0,0,0,0,0,0,0,-1,1119,652,0,0
-98,372,0,0,0,0,0,0,0,0,0,-1,1126,652,0,0
-91,372,0,0,0,0,0,0,0,0,0,-1,1133,652,0,0
-84,372,0,0,0,0,0,0,0,0,0,-1,1140,652,0,0
-77,372,0,0,0,0,0,0,0,0,0,-1,1147,652,0,0
-70,372,0,0,0,0,0,0,0,0,0,-1,1154,652,0,0
-63,372,0,0,0,0,0,0,0,0,0,-1,1161,652,0,0
-56,372,0,0,0,0,0,0,0,0,0,-1,1168,652,0,0
-49,372,0,0,0,0,0,0,0,0,0,-1,1175,652,0,0
-42,372,0,0,0,0,0,0,0,0,0,-1,1182,652,0,0
-35,372,0,0,0,0,0,0,0,0,0,-1,1189,652,0,0
-28,372,0,0,0,0,0,0,0,0,0,-1,1196,652,0,0
-21,372,0,0,0,0,0,0,0,0,0,-1,1203,652,0,0
-14,372,0,0,0,0,0,0,0,0,0,-1,1210,652,0,0
-7,372,0,0,0,0,0,0,0,0,0,-1,1217,652,0,0
0,372,0,0,0,0,0,0,0,0,0,-1,1224,652,0,0
7,372,0,0,0,0,0,0,0,0,0,-1,1231,652,0,0
14,372,0,0,0,0,0,0,0,0,0,-1,1238,652,0,0
21,372,0,0,0,0,0,0,0,0,0,-1,1245,652,0,0
28,372,0,0,0,0,0,0,0,0,0,-1,1252,652,0,0
35,372,0,0,0,0,0,0,0,0,0,-1,1259,652,0,0
42,372,0,0,0,0,0,0,0,0,0,-1,1266,652,0,0
49,372,0,0,0,0,0,0,0,0,0,-1,1273,652,0,0
56,372,0,0,0,0,0,0,0,0,0,-1,1280,652,0,0
63,372,0,0,0,0,0,0,0,0,0,-1,1287,652,0,0
70,372,0,0,0,0,0,0,0,0,0,-1,1294,652,0,0
77,372,0,0,0,0,0,0,0,0,0,-1,1301,652,0,0
84,372,0,0,0,0,0,0,0,0,0,-1,1308,652,0,0
91,372,0,0,0,0,0,0,0,0,0,-1,1315,652,0,0
98,372,0,0,0,0,0,0,0,0,0,-1,1322,652,0,0
105,372,0,0,0,0,0,0,0,0,0,-1,1329,652,0,0
112,372,0,0,0,0,0,0,0,0,0,-1,1336,652,0,0
119,372,0,0,0,0,0,0,0,0,0,-1,1343,652,0,0
126,372,0,0,0,0,0,0,0,0,0,-1,1350,652,0,0
133,372,0,0,0,0,0,0,0,0,0,-1,1357,652,0,0
140,372,0,0,0,0,0,0,0,0,0,-1,1364,652,0,0
147,372,0,0,0,0,0,0,0,0,0,-1,1371,652,0,0
154,372,0,0,0,0,0,0,0,0,0,-1,1378,652,0,0
161,372,0,0,0,0,0,0,0,0,0,-1,1385,652,0,0
168,372,0,0,0,0,0,0,0,0,0,-1,1392,652,0,0
175,372,0,0,0,0,0,0,0,0,0,-1,1399,652,0,0
182,372,0,0,0,0,0,0,0,0,0,-1,1406,652,0,0
189,372,0,0,0,0,0,0,0,0,0,-1,1413,652,0,0
196,372,0,0,0,0,0,0,0,0,0,-1,1420,652,0,0
203,372,0,0,0,0,0,0,0,0,0,-1,1427,652,0,0
210,372,0,0,0,0,0,0,0,0,0,-1,1434,652,0,0
217,372,0,0,0,0,0,0,0,0,0,-1,1441,652,0,0
224,372,0,0,0,0,0,0,0,0,0,-1,1448,652,0,0
231,372,0,0,0,0,0,0,0,0,0,-1,1455,652,0,0
238,372,0,0,0,0,0,0,0,0,0,-1,1462,652,0,0
245,372,0,0,0,0,0,0,0,0,0,-1,1469,652,0,0
252,372,0,0,0,0,0,0,0,0,0,-1,1476,652,0,0
259,372,0,0,0,0,0,0,0,0,0,-1,1483,652,0,0
266,372,0,0,0,0,0,0,0,0,0,-1,1490,652,0,0
273,372,0,0,0,0,0,0,0,0,0,-1,1497,652,0,0
280,372,0,0,0,0,0,0,0,0,0,-1,1504,652,0,0
287,372,0,0,0,0,0,0,0,0,0,-1,1511,652,0,0
294,372,0,0,0,0,0,0,0,0,0,-1,1518,652,0,0
301,372,0,0,0,0,0,0,0,0,0,-1,1525,652,0,0
308,372,0,0,0,0,0,0,0,0,0,-1,1532,652,0,0
315,372,0,0,0,0,0,0,0,0,0,-1,1539,652,0,0
322,372,0,0,0,0,0,0,0,0,0,-1,1546,652,0,0
329,372,0,0,0,0,0,0,0,0,0,-1,1553,652,0,0
336,372,0,0,0,0,0,0,0,0,0,-1,1560,652,0,0
343,372,0,0,0,0,0,0,0,0,0,-1,1567,652,0,0
350,372,0,0,0,0,0,0,0,0,0,-1,1574,652,0,0
357,372,0,0,0,0,0,0,0,0,0,-1,1581,652,0,0
364,372,0,0,0,0,0,0,0,0,0,-1,1588,652,0,0
371,372,0,0,0,0,0,0,0,0,0,-1,1595,652,0,0
378,372,0,0,0,0,0,0,0,0,0,-1,1602,652,0,0
385,372,0,0,0,0,0,0,0,0,0,-1,1609,652,0,0
392,372,0,0,0,0,0,0,0,0,0,-1,1616,652,0,0
399,372,0,0,0,0,0,0,0,0,0,-1,1623,652,0,0
406,372,0,0,0,0,0,0,0,0,0,-1,1630,652,0,0
413,372,0,0,0,0,0,0,0,0,0,-1,1637,652,0,0
420,372,0,0,0,0,0,0,0,0,0,-1,1644,652,0,0
427,372,0,0,0,0,0,0,0,0,0,-1,1651,652,0,0
434,372,0,0,0,0,0,0,0,0,0,-1,1658,652,0,0
441,372,0,0,0,0,0,0,0,0,0,-1,1665,652,0,0
448,372,0,0,0,0,0,0,0,0,0,-1,1672,652,0,0
455,372,0,0,0,0,0,0,0,0,0,-1,1679,652,0,0
462,372,0,0,0,0,0,0,0,0,0,-1,1686,652,0,0
469,372,0,0,0,0,0,0,0,0,0,-1,1693,652,0,0
476,372,0,0,0,0,0,0,0,0,0,-1,1700,652,0,0
483,372,8.74182,1.53125,0,0,0,0,0,0,0,-1,1707,652,8.74186,-1.53126
490,372,9.78455,1.67096,0,0,0,0,0,0,0,-1,1714,652,9.7846,-1.67093
497,372,9.97644,1.46069,0,0,0,0,0,0,0,-1,1721,652,9.97647,-1.46071
504,372,10.1216,1.28375,0,0,0,0,0,0,0,-1,1728,652,10.1216,-1.28376
511,372,11.7367,-0.0272217,0,0,0,0,0,0,0,-1,1735,652,11.7367,0.0272326
518,372,12.0657,-0.0995483,0,0,0,0,0,0,0,-1,1742,652,12.0657,0.0995285
525,372,12.3947,-0.171814,0,0,0,0,0,0,0,-1,1749,652,12.3946,0.171824
532,372,9.36597,1.72034,0,0,0,0,0,0,0,-1,1756,652,9.36597,-1.72036
539,372,7.82886,-0.0865479,0,0,0,0,0,0,0,-1,1763,652,7.82882,0.0865771
546,372,10.953,-0.187195,0,0,0,0,0,0,0,-1,1770,652,10.953,0.187181
553,372,14.1201,-4.83234,0,0,0,0,0,0,0,-1,1777,652,14.1201,4.83235
560,372,16.9198,-5.85474,0,0,0,0,0,0,0,-1,1784,652,16.9198,5.85475
567,372,16.5941,-5.49841,-0.00439788,0.00197266,-0.00210615,0.00260601,-0.00503122,-1.27869,0.00448285,0.0349189,1791,652,16.5941,5.49843
574,372,16.5922,-5.05524,-0.00277178,0.00157234,-0.00140859,0.0019891,-0.00318854,-1.28314,0.00301593,0.0218937,1798,652,16.5922,5.05522
581,372,16.5591,-4.67108,-0.00150036,0.00136637,-0.000818728,0.00158372,-0.0017177,-1.31131,0.0019066,0.016647,1805,652,16.559,4.67108
588,372,16.5233,-4.24597,-0.00053164,0.00123437,-0.000328947,0.00129365,-0.000590921,-1.39249,0.00111299,0.0151206,1812,652,16.5234,4.24596
595,372,16.505,-3.83606,0.000257178,0.00124573,0.000101587,0.00125606,0.000246846,1.46944,0.000768426,0.0138159,1819,652,16.5051,3.83607
602,372,16.5146,-3.42957,0.000956265,0.0014412,0.000621603,0.00186595,0.000531515,0.971356,0.00111006,0.015559,1826,652,16.5147,3.42954
609,372,16.4586,-2.99933,0.00125408,0.00178867,0.00103318,0.00258857,0.00045417,0.911978,0.00159601,0.0165757,1833,652,16.4586,2.99931
616,372,16.4611,-2.56738,0.0013448,0.00218236,0.00136339,0.00318984,0.000337319,0.934404,0.00202351,0.0160552,1840,652,16.4611,2.56737
623,372,16.4857,-2.10773,0.00111351,0.00266131,0.00165855,0.00371763,5.71886e-05,1.00369,0.00245958,0.0122173,1847,652,16.4858,2.1077
630,372,16.488,-1.66223,0.000422716,0.00307414,0.00178396,0.00397104,-0.000474187,1.10494,0.00281875,0.0168519,1854,652,16.488,1.66221
637,372,16.5184,-1.2572,-0.000597761,0.0035306,0.00181544,0.00421536,-0.00128252,1.21011,0.00332134,0.0228738,1861,652,16.5185,1.2572
644,372,16.5928,-0.706604,-0.00215732,0.00393458,0.00173048,0.00439182,-0.00261456,1.31247,0.00408829,0.0344258,1868,652,16.5928,0.706603
651,372,16.7208,-0.148804,0,0,0,0,0,0,0,-1,1875,652,16.7208,0.148819
658,372,14.157,0.280273,0,0,0,0,0,0,0,-1,1882,652,14.157,-0.280264
665,372,13.421,0.714966,0,0,0,0,0,0,0,-1,1889,652,13.4211,-0.714941
672,372,9.34106,1.48444,0,0,0,0,0,0,0,-1,1896,652,9.34109,-1.48444
679,372,10.7308,2.32391,0,0,0,0,0,0,0,-1,1903,652,10.7309,-2.3239
686,372,11.6295,2.52997,0,0,0,0,0,0,0,-1,1910,652,11.6296,-2.52996
693,372,0,0,0,0,0,0,0,0,0,-1,1917,652,0,0
700,372,0,0,0,0,0,0,0,0,0,-1,1924,652,0,0
707,372,0,0,0,0,0,0,0,0,0,-1,1931,652,0,0
714,372,0,0,0,0,0,0,0,0,0,-1,1938,652,0,0
721,372,0,0,0,0,0,0,0,0,0,-1,1945,652,0,0
728,372,0,0,0,0,0,0,0,0,0,-1,1952,652,0,0
735,372,0,0,0,0,0,0,0,0,0,-1,1959,652,0,0
742,372,0,0,0,0,0,0,0,0,0,-1,1966,652,0,0
749,372,0,0,0,0,0,0,0,0,0,-1,1973,652,0,0
756,372,0,0,0,0,0,0,0,0,0,-1,1980,652,0,0
763,372,0,0,0,0,0,0,0,0,0,-1,1987,652,0,0
770,372,0,0,0,0,0,0,0,0,0,-1,1994,652,0,0
777,372,0,0,0,0,0,0,0,0,0,-1,2001,652,0,0
784,372,0,0,0,0,0,0,0,0,0,-1,2008,652,0,0
791,372,0,0,0,0,0,0,0,0,0,-1,2015,652,0,0
798,372,0,0,0,0,0,0,0,0,0,-1,2022,652,0,0
805,372,0,0,0,0,0,0,0,0,0,-1,2029,652,0,0
812,372,0,0,0,0,0,0,0,0,0,-1,2036,652,0,0
-700,365,0,0,0,0,0,0,0,0,0,-1,524,659,0,0
-693,365,0,0,0,0,0,0,0,0,0,-1,531,659,0,0
-686,365,0,0,0,0,0,0,0,0,0,-1,538,659,0,0
-679,365,0,0,0,0,0,0,0,0,0,-1,545,659,0,0
-672,365,0,0,0,0,0,0,0,0,0,-1,552,659,0,0
-665,365,0,0,0,0,0,0,0,0,0,-1,559,659,0,0
-658,365,0,0,0,0,0,0,0,0,0,-1,566,659,0,0
-651,365,0,0,0,0,0,0,0,0,0,-1,573,659,0,0
-644,365,0,0,0,0,0,0,0,0,0,-1,580,659,0,0
-637,365,0,0,0,0,0,0,0,0,0,-1,587,659,0,0
-630,365,0,0,0,0,0,0,0,0,0,-1,594,659,0,0
-623,365,0,0,0,0,0,0,0,0,0,-1,601,659,0,0
-616,365,0,0,0,0,0,0,0,0,0,-1,608,659,0,0
-609,365,0,0,0,0,0,0,0,0,0,-1,615,659,0,0
-602,365,0,0,0,0,0,0,0,0,0,-1,622,659,0,0
-595,365,0,0,0,0,0,0,0,0,0,-1,629,659,0,0
-588,365,0,0,0,0,0,0,0,0,0,-1,636,659,0,0
-581,365,0,0,0,0,0,0,0,0,0,-1,643,659,0,0
-574,365,-7.69281,1.59015,0,0,0,0,0,0,0,-1,650,659,-7.69282,-1.59018
-567,365,-8.2583,1.72638,0,0,0,0,0,0,0,-1,657,659,-8.25827,-1.72637
-560,365,-7.17767,0.275757,0,0,0,0,0,0,0,-1,664,659,-7.17768,-0.27577
-553,365,-10.4943,0.199158,0,0,0,0,0,0,0,-1,671,659,-10.4943,-0.19914
-546,365,-10.3684,-1.44214,0,0,0,0,0,0,0,-1,678,659,-10.3684,1.44216
-539,365,-8.38599,1.52936,0,0,0,0,0,0,0,-1,685,659,-8.38598,-1.52935
-532,365,-8.52863,0.166504,0,0,0,0,0,0,0,-1,692,659,-8.52863,-0.166501
-525,365,-8.77405,-2.24628,0,0,0,0,0,0,0,-1,699,659,-8.77404,2.2463
-518,365,-8.9491,-2.6687,0,0,0,0,0,0,0,-1,706,659,-8.94911,2.66873
-511,365,-8.94989,-3.16327,0.00165389,0.000414359,-0.00114281,0.00233417,-0.000265921,-0.536935,0.0016519,0.026481,713,659,-8.94989,3.16328
-504,365,-8.948,-3.59277,0.00106872,0.000171214,-0.000703828,0.00145468,-0.000214752,-0.501599,0.00104873,0.0118147,720,659,-8.948,3.59279
-497,365,-8.95709,-4.02765,0.000858192,-2.13369e-05,-0.000510722,0.00109239,-0.000255538,-0.429957,0.000826712,0.0130698,727,659,-8.9571,4.02766
-490,365,-8.96564,-4.42389,0.000750673,0.000207625,-0.000459914,0.00101323,-5.49362e-05,-0.51874,0.000694525,0.0153462,734,659,-8.96564,4.42392
-483,365,-8.98035,-4.8114,0.00108641,0.000390508,-0.00069113,0.00151224,-3.5317e-05,-0.552194,0.00102013,0.0142632,741,659,-8.98034,4.8114
-476,365,-8.95111,-5.19592,0.0016803,0.000766197,-0.00110294,0.00241714,2.93637e-05,-0.58897,0.00160173,0.0145117,748,659,-8.95111,5.19595
-469,365,-8.96252,-5.59998,0.00229848,0.00130529,-0.00164112,0.00351649,8.72748e-05,-0.63848,0.00231578,0.0137091,755,659,-8.96253,5.59997
-462,365,-8.97797,-6.01654,0.00282502,0.00184946,-0.00218093,0.00457205,0.000102431,-0.675379,0.00301447,0.0138841,762,659,-8.97796,6.01654
-455,365,-8.99841,-6.40436,0.00304398,0.002231,-0.00238916,0.00506098,0.000213997,-0.701136,0.00330497,0.0157657,769,659,-8.9984,6.40438
-448,365,-8.91992,-6.88763,0.00326893,0.00283168,-0.00269482,0.00575398,0.000346629,-0.744923,0.00372582,0.0294869,776,659,-8.91993,6.88761
-441,365,-8.70673,-7.47064,0,0,0,0,0,0,0,-1,783,659,-8.70671,7.47061
-434,365,-5.45056,-3.98041,0,0,0,0,0,0,0,-1,790,659,-5.45055,3.98042
-427,365,-5.05377,-4.74689,0,0,0,0,0,0,0,-1,797,659,-5.05376,4.7469
-420,365,-4.58813,-3.16376,0,0,0,0,0,0,0,-1,804,659,-4.58816,3.16374
-413,365,0.141357,0.672729,0,0,0,0,0,0,0,-1,811,659,0.141365,-0.672714
-406,365,-1.75067,-0.934448,0,0,0,0,0,0,0,-1,818,659,-1.7507,0.934424
-399,365,-4.10242,-1.25439,0,0,0,0,0,0,0,-1,825,659,-4.10244,1.25438
-392,365,-7.46545,-0.779724,0,0,0,0,0,0,0,-1,832,659,-7.46543,0.779744
-385,365,-6.27875,-0.887573,0,0,0,0,0,0,0,-1,839,659,-6.27874,0.887545
-378,365,-5.34503,-0.263306,0,0,0,0,0,0,0,-1,846,659,-5.34504,0.263275
-371,365,0,0,0,0,0,0,0,0,0,-1,853,659,0,0
-364,365,0,0,0,0,0,0,0,0,0,-1,860,659,0,0
-357,365,0,0,0,0,0,0,0,0,0,-1,867,659,0,0
-350,365,0,0,0,0,0,0,0,0,0,-1,874,659,0,0
-343,365,0,0,0,0,0,0,0,0,0,-1,881,659,0,0
-336,365,0,0,0,0,0,0,0,0,0,-1,888,659,0,0
-329,365,0,0,0,0,0,0,0,0,0,-1,895,659,0,0
-322,365,0,0,0,0,0,0,0,0,0,-1,902,659,0,0
-315,365,0,0,0,0,0,0,0,0,0,-1,909,659,0,0
-308,365,0,0,0,0,0,0,0,0,0,-1,916,659,0,0
-301,365,0,0,0,0,0,0,0,0,0,-1,923,659,0,0
-294,365,0,0,0,0,0,0,0,0,0,-1,930,659,0,0
-287,365,0,0,0,0,0,0,0,0,0,-1,937,659,0,0
-280,365,0,0,0,0,0,0,0,0,0,-1,944,659,0,0
-273,365,0,0,0,0,0,0,0,0,0,-1,951,659,0,0
-266,365,0,0,0,0,0,0,0,0,0,-1,958,659,0,0
-259,365,0,0,0,0,0,0,0,0,0,-1,965,659,0,0
-252,365,0,0,0,0,0,0,0,0,0,-1,972,659,0,0
-245,365,0,0,0,0,0,0,0,0,0,-1,979,659,0,0
-238,365,0,0,0,0,0,0,0,0,0,-1,986,659,0,0
-231,365,0,0,0,0,0,0,0,0,0,-1,993,659,0,0
-224,365,0,0,0,0,0,0,0,0,0,-1,1000,659,0,0
-217,365,0,0,0,0,0,0,0,0,0,-1,1007,659,0,0
-210,365,0,0,0,0,0,0,0,0,0,-1,1014,659,0,0
-203,365,0,0,0,0,0,0,0,0,0,-1,1021,659,0,0
-196,365,0,0,0,0,0,0,0,0,0,-1,1028,659,0,0
-189,365,0,0,0,0,0,0,0,0,0,-1,1035,659,0,0
-182,365,0,0,0,0,0,0,0,0,0,-1,1042,659,0,0
-175,365,0,0,0,0,0,0,0,0,0,-1,1049,659,0,0
-168,365,0,0,0,0,0,0,0,0,0,-1,1056,659,0,0
-161,365,0,0,0,0,0,0,0,0,0,-1,1063,659,0,0
-154,365,0,0,0,0,0,0,0,0,0,-1,1070,659,0,0
-147,365,0,0,0,0,0,0,0,0,0,-1,1077,659,0,0
-140,365,0,0,0,0,0,0,0,0,0,-1,1084,659,0,0
-133,365,0,0,0,0,0,0,0,0,0,-1,1091,659,0,0
-126,365,0,0,0,0,0,0,0,0,0,-1,1098,659,0,0
-119,365,0,0,0,0,0,0,0,0,0,-1,1105,659,0,0
-112,365,0,0,0,0,0,0,0,0,0,-1,1112,659,0,0
-105,365,0,0,0,0,0,0,0,0,0,-1,1119,659,0,0
-98,365,0,0,0,0,0,0,0,0,0,-1,1126,659,0,0
-91,365,0,0,0,0,0,0,0,0,0,-1,1133,659,0,0
-84,365,0,0,0,0,0,0,0,0,0,-1,1140,659,0,0
-77,365,0,0,0,0,0,0,0,0,0,-1,1147,659,0,0
-70,365,0,0,0,0,0,0,0,0,0,-1,1154,659,0,0
-63,365,0,0,0,0,0,0,0,0,0,-1,1161,659,0,0
-56,365,0,0,0,0,0,0,0,0,0,-1,1168,659,0,0
-49,365,0,0,0,0,0,0,0,0,0,-1,1175,659,0,0
-42,365,0,0,0,0,0,0,0,0,0,-1,1182,659,0,0
-35,365,0,0,0,0,0,0,0,0,0,-1,1189,659,0,0
-28,365,0,0,0,0,0,0,0,0,0,-1,1196,659,0,0
-21,365,0,0,0,0,0,0,0,0,0,-1,1203,659,0,0
-14,365,0,0,0,0,0,0,0,0,0,-1,1210,659,0,0
-7,365,0,0,0,0,0,0,0,0,0,-1,1217,659,0,0
0,365,0,0,0,0,0,0,0,0,0,-1,1224,659,0,0
7,365,0,0,0,0,0,0,0,0,0,-1,1231,659,0,0
14,365,0,0,0,0,0,0,0,0,0,-1,1238,659,0,0
21,365,0,0,0,0,0,0,0,0,0,-1,1245,659,0,0
28,365,0,0,0,0,0,0,0,0,0,-1,1252,659,0,0
35,365,0,0,0,0,0,0,0,0,0,-1,1259,659,0,0
42,365,0,0,0,0,0,0,0,0,0,-1,1266,659,0,0
49,365,0,0,0,0,0,0,0,0,0,-1,1273,659,0,0
56,365,0,0,0,0,0,0,0,0,0,-1,1280,659,0,0
63,365,0,0,0,0,0,0,0,0,0,-1,1287,659,0,0
70,365,0,0,0,0,0,0,0,0,0,-1,1294,659,0,0
77,365,0,0,0,0,0,0,0,0,0,-1,1301,659,0,0
84,365,0,0,0,0,0,0,0,0,0,-1,1308,659,0,0
91,365,0,0,0,0,0,0,0,0,0,-1,1315,659,0,0
98,365,0,0,0,0,0,0,0,0,0,-1,1322,659,0,0
105,365,0,0,0,0,0,0,0,0,0,-1,1329,659,0,0
112,365,0,0,0,0,0,0,0,0,0,-1,1336,659,0,0
119,365,0,0,0,0,0,0,0,0,0,-1,1343,659,0,0
126,365,0,0,0,0,0,0,0,0,0,-1,1350,659,0,0
133,365,0,0,0,0,0,0,0,0,0,-1,1357,659,0,0
140,365,0,0,0,0,0,0,0,0,0,-1,1364,659,0,0
147,365,0,0,0,0,0,0,0,0,0,-1,1371,659,0,0
154,365,0,0,0,0,0,0,0,0,0,-1,1378,659,0,0
161,365,0,0,0,0,0,0,0,0,0,-1,1385,659,0,0
168,365,0,0,0,0,0,0,0,0,0,-1,1392,659,0,0
175,365,0,0,0,0,0,0,0,0,0,-1,1399,659,0,0
182,365,0,0,0,0,0,0,0,0,0,-1,1406,659,0,0
189,365,0,0,0,0,0,0,0,0,0,-1,1413,659,0,0
196,365,0,0,0,0,0,0,0,0,0,-1,1420,659,0,0
203,365,0,0,0,0,0,0,0,0,0,-1,1427,659,0,0
210,365,0,0,0,0,0,0,0,0,0,-1,1434,659,0,0
217,365,0,0,0,0,0,0,0,0,0,-1,1441,659,0,0
224,365,0,0,0,0,0,0,0,0,0,-1,1448,659,0,0
231,365,0,0,0,0,0,0,0,0,0,-1,1455,659,0,0
238,365,0,0,0,0,0,0,0,0,0,-1,1462,659,0,0
245,365,0,0,0,0,0,0,0,0,0,-1,1469,659,0,0
252,365,0,0,0,0,0,0,0,0,0,-1,1476,659,0,0
259,365,0,0,0,0,0,0,0,0,0,-1,1483,659,0,0
266,365,0,0,0,0,0,0,0,0,0,-1,1490,659,0,0
273,365,0,0,0,0,0,0,0,0,0,-1,1497,659,0,0
280,365,0,0,0,0,0,0,0,0,0,-1,1504,659,0,0
287,365,0,0,0,0,0,0,0,0,0,-1,1511,659,0,0
294,365,0,0,0,0,0,0,0,0,0,-1,1518,659,0,0
301,365,0,0,0,0,0,0,0,0,0,-1,1525,659,0,0
308,365,0,0,0,0,0,0,0,0,0,-1,1532,659,0,0
315,365,0,0,0,0,0,0,0,0,0,-1,1539,659,0,0
322,365,0,0,0,0,0,0,0,0,0,-1,1546,659,0,0
329,365,0,0,0,0,0,0,0,0,0,-1,1553,659,0,0
336,365,0,0,0,0,0,0,0,0,0,-1,1560,659,0,0
343,365,0,0,0,0,0,0,0,0,0,-1,1567,659,0,0
350,365,0,0,0,0,0,0,0,0,0,-1,1574,659,0,0
357,365,0,0,0,0,0,0,0,0,0,-1,1581,659,0,0
364,365,0,0,0,0,0,0,0,0,0,-1,1588,659,0,0
371,365,0,0,0,0,0,0,0,0,0,-1,1595,659,0,0
378,365,0,0,0,0,0,0,0,0,0,-1,1602,659,0,0
385,365,0,0,0,0,0,0,0,0,0,-1,1609,659,0,0
392,365,0,0,0,0,0,0,0,0,0,-1,1616,659,0,0
399,365,0,0,0,0,0,0,0,0,0,-1,1623,659,0,0
406,365,0,0,0,0,0,0,0,0,0,-1,1630,659,0,0
413,365,0,0,0,0,0,0,0,0,0,-1,1637,659,0,0
420,365,0,0,0,0,0,0,0,0,0,-1,1644,659,0,0
427,365,0,0,0,0,0,0,0,0,0,-1,1651,659,0,0
434,365,0,0,0,0,0,0,0,0,0,-1,1658,659,0,0
441,365,0,0,0,0,0,0,0,0,0,-1,1665,659,0,0
448,365,0,0,0,0,0,0,0,0,0,-1,1672,659,0,0
455,365,0,0,0,0,0,0,0,0,0,-1,1679,659,0,0
462,365,0,0,0,0,0,0,0,0,0,-1,1686,659,0,0
469,365,0,0,0,0,0,0,0,0,0,-1,1693,659,0,0
476,365,0,0,0,0,0,0,0,0,0,-1,1700,659,0,0
483,365,0,0,0,0,0,0,0,0,0,-1,1707,659,0,0
490,365,8.39551,0.471252,0,0,0,0,0,0,0,-1,1714,659,8.39551,-0.471241
497,365,9.89233,1.35394,0,0,0,0,0,0,0,-1,1721,659,9.89237,-1.35396
504,365,10.1414,1.18005,0,0,0,0,0,0,0,-1,1728,659,10.1413,-1.18004
511,365,10.5151,0.993896,0,0,0,0,0,0,0,-1,1735,659,10.5152,-0.993894
518,365,11.2029,0.398132,0,0,0,0,0,0,0,-1,1742,659,11.2029,-0.398136
525,365,15.5748,3.85303,0,0,0,0,0,0,0,-1,1749,659,15.5748,-3.85303
532,365,11.2446,1.00629,0,0,0,0,0,0,0,-1,1756,659,11.2446,-1.00631
539,365,12.6301,1.03204,0,0,0,0,0,0,0,-1,1763,659,12.6302,-1.03204
546,365,11.647,0.84198,0,0,0,0,0,0,0,-1,1770,659,11.6469,-0.841955
553,365,12.028,-0.558899,0,0,0,0,0,0,0,-1,1777,659,12.028,0.558873
560,365,14.5372,-4.55548,0,0,0,0,0,0,0,-1,1784,659,14.5373,4.55547
567,365,17.2534,-5.64856,0,0,0,0,0,0,0,-1,1791,659,17.2535,5.64855
574,365,17.1605,-5.04468,0,0,0,0,0,0,0,-1,1798,659,17.1606,5.04467
581,365,16.9434,-4.77917,-0.00182414,0.00170828,-0.000928064,0.00193726,-0.00205312,-1.32889,0.00230417,0.0417053,1805,659,16.9433,4.77918
588,365,16.9063,-4.30054,-0.000636432,0.00139751,-0.000390313,0.00146984,-0.00070876,-1.38756,0.00128314,0.0149521,1812,659,16.9062,4.30055
595,365,16.9292,-3.82153,0.000188681,0.00121982,-2.29939e-05,0.00122033,0.000188169,-1.54851,0.000758649,0.0130216,1819,659,16.9292,3.82151
602,365,16.9297,-3.39459,0.000886604,0.00124449,0.000411829,0.00151457,0.00061652,0.990345,0.000879458,0.0156941,1826,659,16.9297,3.39461
609,365,16.8934,-2.95935,0.00123639,0.00145203,0.000786112,0.00213768,0.000550738,0.853551,0.00128161,0.0170784,1833,659,16.8934,2.95934
616,365,16.9109,-2.51624,0.00137792,0.00171907,0.00107888,0.00264077,0.000456213,0.863802,0.00162987,0.0182882,1840,659,16.9109,2.51625
623,365,16.9403,-2.09961,0.00109275,0.00203153,0.00127776,0.00292339,0.000200895,0.961425,0.00188553,0.0117177,1847,659,16.9404,2.0996
630,365,16.9078,-1.67651,0.000293437,0.00226852,0.00126572,0.00288638,-0.000324416,1.11668,0.002041,0.0158019,1854,659,16.9078,1.67649
637,365,16.9014,-1.28772,-0.000803783,0.00240269,0.00111151,0.0027503,-0.0011514,1.26769,0.00231484,0.0217275,1861,659,16.9014,1.28771
644,365,16.9065,-0.845398,-0.0024379,0.00248473,0.000793081,0.00260935,-0.00256251,1.41494,0.00298602,0.0174748,1868,659,16.9065,0.845405
651,365,17.0923,-0.258301,-0.00472914,0.00230071,0.000104783,0.00230227,-0.0047307,1.5559,0.00414039,0.0402821,1875,659,17.0923,0.258318
658,365,17.1248,0.413452,0,0,0,0,0,0,0,-1,1882,659,17.1248,-0.413469
665,365,14.0961,0.769043,0,0,0,0,0,0,0,-1,1889,659,14.0961,-0.769063
672,365,10.0579,2.15088,0,0,0,0,0,0,0,-1,1896,659,10.0579,-2.15088
679,365,10.9718,2.19208,0,0,0,0,0,0,0,-1,1903,659,10.9718,-2.19211
686,365,12.2134,2.17108,0,0,0,0,0,0,0,-1,1910,659,12.2134,-2.17109
693,365,13.7141,1.98279,0,0,0,0,0,0,0,-1,1917,659,13.7141,-1.98278
700,365,0,0,0,0,0,0,0,0,0,-1,1924,659,0,0
707,365,0,0,0,0,0,0,0,0,0,-1,1931,659,0,0
714,365,0,0,0,0,0,0,0,0,0,-1,1938,659,0,0
721,365,0,0,0,0,0,0,0,0,0,-1,1945,659,0,0
728,365,0,0,0,0,0,0,0,0,0,-1,1952,659,0,0
735,365,0,0,0,0,0,0,0,0,0,-1,1959,659,0,0
742,365,0,0,0,0,0,0,0,0,0,-1,1966,659,0,0
749,365,0,0,0,0,0,0,0,0,0,-1,1973,659,0,0
756,365,0,0,0,0,0,0,0,0,0,-1,1980,659,0,0
763,365,0,0,0,0,0,0,0,0,0,-1,1987,659,0,0
770,365,0,0,0,0,0,0,0,0,0,-1,1994,659,0,0
777,365,0,0,0,0,0,0,0,0,0,-1,2001,659,0,0
784,365,0,0,0,0,0,0,0,0,0,-1,2008,659,0,0
791,365,0,0,0,0,0,0,0,0,0,-1,2015,659,0,0
798,365,0,0,0,0,0,0,0,0,0,-1,2022,659,0,0
805,365,0,0,0,0,0,0,0,0,0,-1,2029,659,0,0
812,365,0,0,0,0,0,0,0,0,0,-1,2036,659,0,0
-700,358,0,0,0,0,0,0,0,0,0,-1,524,666,0,0
-693,358,0,0,0,0,0,0,0,0,0,-1,531,666,0,0
-686,358,0,0,0,0,0,0,0,0,0,-1,538,666,0,0
-679,358,0,0,0,0,0,0,0,0,0,-1,545,666,0,0
-672,358,0,0,0,0,0,0,0,0,0,-1,552,666,0,0
-665,358,0,0,0,0,0,0,0,0,0,-1,559,666,0,0
-658,358,0,0,0,0,0,0,0,0,0,-1,566,666,0,0
-651,358,0,0,0,0,0,0,0,0,0,-1,573,666,0,0
-644,358,0,0,0,0,0,0,0,0,0,-1,580,666,0,0
-637,358,0,0,0,0,0,0,0,0,0,-1,587,666,0,0
-630,358,0,0,0,0,0,0,0,0,0,-1,594,666,0,0
-623,358,0,0,0,0,0,0,0,0,0,-1,601,666,0,0
-616,358,0,0,0,0,0,0,0,0,0,-1,608,666,0,0
-609,358,0,0,0,0,0,0,0,0,0,-1,615,666,0,0
-602,358,0,0,0,0,0,0,0,0,0,-1,622,666,0,0
-595,358,0,0,0,0,0,0,0,0,0,-1,629,666,0,0
-588,358,0,0,0,0,0,0,0,0,0,-1,636,666,0,0
-581,358,-8.31616,1.61993,0,0,0,0,0,0,0,-1,643,666,-8.31614,-1.61993
-574,358,-8.22406,1.75385,0,0,0,0,0,0,0,-1,650,666,-8.22408,-1.75383
-567,358,-8.14215,1.91577,0,0,0,0,0,0,0,-1,657,666,-8.14214,-1.91579
-560,358,-10.7819,1.64648,0,0,0,0,0,0,0,-1,664,666,-10.7818,-1.64646
-553,358,-11.5087,-0.595764,0,0,0,0,0,0,0,-1,671,666,-11.5087,0.595781
-546,358,-10.4738,-1.32184,0,0,0,0,0,0,0,-1,678,666,-10.4738,1.32182
-539,358,-9.43884,-2.04785,0,0,0,0,0,0,0,-1,685,666,-9.43884,2.04785
-532,358,-9.37042,-2.01636,0,0,0,0,0,0,0,-1,692,666,-9.37043,2.01635
-525,358,-9.24884,-2.48438,0,0,0,0,0,0,0,-1,699,666,-9.24883,2.48436
-518,358,-9.33081,-2.72418,0,0,0,0,0,0,0,-1,706,666,-9.33083,2.72418
-511,358,-9.34131,-3.15125,0.00179242,0.000689206,-0.00108867,0.00246125,2.03692e-05,-0.550911,0.00163409,0.0160885,713,666,-9.34134,3.15123
-504,358,-9.35706,-3.58118,0.00127609,0.00039667,-0.000685701,0.00165095,2.18056e-05,-0.500296,0.00109344,0.0119424,720,666,-9.35708,3.5812
-497,358,-9.36084,-4.01514,0.00112423,0.000185556,-0.000542265,0.00137206,-6.22747e-05,-0.428683,0.000936155,0.0115716,727,666,-9.36083,4.01511
-490,358,-9.36804,-4.40668,0.00106463,0.000401822,-0.000545221,0.00137127,9.51862e-05,-0.512319,0.000884158,0.01143,734,666,-9.36805,4.40667
-483,358,-9.37042,-4.78967,0.00142203,0.000611801,-0.000825959,0.00193688,9.69562e-05,-0.557397,0.00126018,0.0107629,741,666,-9.37042,4.7897
-476,358,-9.34479,-5.17194,0.00203042,0.0010562,-0.00132375,0.00295384,0.000132785,-0.609098,0.00192649,0.0119841,748,666,-9.34477,5.17196
-469,358,-9.38751,-5.59766,0.00266751,0.00164868,-0.00195721,0.00418051,0.000135677,-0.658084,0.0027429,0.01423,755,666,-9.38752,5.59767
-462,358,-9.44171,-6.0235,0.00326091,0.00232117,-0.00262977,0.00546245,0.000119615,-0.696994,0.00360243,0.0180421,762,666,-9.44172,6.02347
-455,358,-9.37,-6.42682,0.0035951,0.0028862,-0.00303009,0.0062914,0.000189896,-0.727174,0.00413242,0.032041,769,666,-9.36997,6.4268
-448,358,-9.18542,-7.04138,0,0,0,0,0,0,0,-1,776,666,-9.18543,7.04141
-441,358,-5.56293,-3.98041,0,0,0,0,0,0,0,-1,783,666,-5.56291,3.98043
-434,358,-5.21558,-4.43127,0,0,0,0,0,0,0,-1,790,666,-5.21559,4.43125
-427,358,-3.56189,-3.15729,0,0,0,0,0,0,0,-1,797,666,-3.56192,3.15729
-420,358,0.200195,1.08234,0,0,0,0,0,0,0,-1,804,666,0.200174,-1.08231
-413,358,0.0325317,0.161072,0,0,0,0,0,0,0,-1,811,666,0.0325501,-0.161098
-406,358,-3.85846,0.753113,0,0,0,0,0,0,0,-1,818,666,-3.85846,-0.753129
-399,358,-1.31213,0.190735,0,0,0,0,0,0,0,-1,825,666,-1.31215,-0.190763
-392,358,-3.73914,-0.832214,0,0,0,0,0,0,0,-1,832,666,-3.73915,0.832202
-385,358,-5.95178,-1.69141,0,0,0,0,0,0,0,-1,839,666,-5.9518,1.69143
-378,358,0,0,0,0,0,0,0,0,0,-1,846,666,0,0
-371,358,0,0,0,0,0,0,0,0,0,-1,853,666,0,0
-364,358,0,0,0,0,0,0,0,0,0,-1,860,666,0,0
-357,358,0,0,0,0,0,0,0,0,0,-1,867,666,0,0
-350,358,0,0,0,0,0,0,0,0,0,-1,874,666,0,0
-343,358,0,0,0,0,0,0,0,0,0,-1,881,666,0,0
-336,358,0,0,0,0,0,0,0,0,0,-1,888,666,0,0
-329,358,0,0,0,0,0,0,0,0,0,-1,895,666,0,0
-322,358,0,0,0,0,0,0,0,0,0,-1,902,666,0,0
-315,358,0,0,0,0,0,0,0,0,0,-1,909,666,0,0
-308,358,0,0,0,0,0,0,0,0,0,-1,916,666,0,0
-301,358,0,0,0,0,0,0,0,0,0,-1,923,666,0,0
-294,358,0,0,0,0,0,0,0,0,0,-1,930,666,0,0
-287,358,0,0,0,0,0,0,0,0,0,-1,937,666,0,0
-280,358,0,0,0,0,0,0,0,0,0,-1,944,666,0,0
-273,358,0,0,0,0,0,0,0,0,0,-1,951,666,0,0
-266,358,0,0,0,0,0,0,0,0,0,-1,958,666,0,0
-259,358,0,0,0,0,0,0,0,0,0,-1,965,666,0,0
-252,358,0,0,0,0,0,0,0,0,0,-1,972,666,0,0
-245,358,0,0,0,0,0,0,0,0,0,-1,979,666,0,0
-238,358,0,0,0,0,0,0,0,0,0,-1,986,666,0,0
-231,358,0,0,0,0,0,0,0,0,0,-1,993,666,0,0
-224,358,0,0,0,0,0,0,0,0,0,-1,1000,666,0,0
-217,358,0,0,0,0,0,0,0,0,0,-1,1007,666,0,0
-210,358,0,0,0,0,0,0,0,0,0,-1,1014,666,0,0
-203,358,0,0,0,0,0,0,0,0,0,-1,1021,666,0,0
-196,358,0,0,0,0,0,0,0,0,0,-1,1028,666,0,0
-189,358,0,0,0,0,0,0,0,0,0,-1,1035,666,0,0
-182,358,0,0,0,0,0,0,0,0,0,-1,1042,666,0,0
-175,358,0,0,0,0,0,0,0,0,0,-1,1049,666,0,0
-168,358,0,0,0,0,0,0,0,0,0,-1,1056,666,0,0
-161,358,0,0,0,0,0,0,0,0,0,-1,1063,666,0,0
-154,358,0,0,0,0,0,0,0,0,0,-1,1070,666,0,0
-147,358,0,0,0,0,0,0,0,0,0,-1,1077,666,0,0
-140,358,0,0,0,0,0,0,0,0,0,-1,1084,666,0,0
-133,358,0,0,0,0,0,0,0,0,0,-1,1091,666,0,0
-126,358,0,0,0,0,0,0,0,0,0,-1,1098,666,0,0
-119,358,0,0,0,0,0,0,0,0,0,-1,1105,666,0,0
-112,358,0,0,0,0,0,0,0,0,0,-1,1112,666,0,0
-105,358,0,0,0,0,0,0,0,0,0,-1,1119,666,0,0
-98,358,0,0,0,0,0,0,0,0,0,-1,1126,666,0,0
-91,358,0,0,0,0,0,0,0,0,0,-1,1133,666,0,0
-84,358,0,0,0,0,0,0,0,0,0,-1,1140,666,0,0
-77,358,0,0,0,0,0,0,0,0,0,-1,1147,666,0,0
-70,358,0,0,0,0,0,0,0,0,0,-1,1154,666,0,0
-63,358,0,0,0,0,0,0,0,0,0,-1,1161,666,0,0
-56,358,0,0,0,0,0,0,0,0,0,-1,1168,666,0,0
-49,358,0,0,0,0,0,0,0,0,0,-1,1175,666,0,0
-42,358,0,0,0,0,0,0,0,0,0,-1,1182,666,0,0
-35,358,0,0,0,0,0,0,0,0,0,-1,1189,666,0,0
-28,358,0,0,0,0,0,0,0,0,0,-1,1196,666,0,0
-21,358,0,0,0,0,0,0,0,0,0,-1,1203,666,0,0
-14,358,0,0,0,0,0,0,0,0,0,-1,1210,666,0,0
-7,358,0,0,0,0,0,0,0,0,0,-1,1217,666,0,0
0,358,0,0,0,0,0,0,0,0,0,-1,1224,666,0,0
7,358,0,0,0,0,0,0,0,0,0,-1,1231,666,0,0
14,358,0,0,0,0,0,0,0,0,0,-1,1238,666,0,0
21,358,0,0,0,0,0,0,0,0,0,-1,1245,666,0,0
28,358,0,0,0,0,0,0,0,0,0,-1,1252,666,0,0
35,358,0,0,0,0,0,0,0,0,0,-1,1259,666,0,0
42,358,0,0,0,0,0,0,0,0,0,-1,1266,666,0,0
49,358,0,0,0,0,0,0,0,0,0,-1,1273,666,0,0
56,358,0,0,0,0,0,0,0,0,0,-1,1280,666,0,0
63,358,0,0,0,0,0,0,0,0,0,-1,1287,666,0,0
70,358,0,0,0,0,0,0,0,0,0,-1,1294,666,0,0
77,358,0,0,0,0,0,0,0,0,0,-1,1301,666,0,0
84,358,0,0,0,0,0,0,0,0,0,-1,1308,666,0,0
91,358,0,0,0,0,0,0,0,0,0,-1,1315,666,0,0
98,358,0,0,0,0,0,0,0,0,0,-1,1322,666,0,0
105,358,0,0,0,0,0,0,0,0,0,-1,1329,666,0,0
112,358,0,0,0,0,0,0,0,0,0,-1,1336,666,0,0
119,358,0,0,0,0,0,0,0,0,0,-1,1343,666,0,0
126,358,0,0,0,0,0,0,0,0,0,-1,1350,666,0,0
133,358,0,0,0,0,0,0,0,0,0,-1,1357,666,0,0
140,358,0,0,0,0,0,0,0,0,0,-1,1364,666,0,0
147,358,0,0,0,0,0,0,0,0,0,-1,1371,666,0,0
154,358,0,0,0,0,0,0,0,0,0,-1,1378,666,0,0
161,358,0,0,0,0,0,0,0,0,0,-1,1385,666,0,0
168,358,0,0,0,0,0,0,0,0,0,-1,1392,666,0,0
175,358,0,0,0,0,0,0,0,0,0,-1,1399,666,0,0
182,358,0,0,0,0,0,0,0,0,0,-1,1406,666,0,0
189,358,0,0,0,0,0,0,0,0,0,-1,1413,666,0,0
196,358,0,0,0,0,0,0,0,0,0,-1,1420,666,0,0
203,358,0,0,0,0,0,0,0,0,0,-1,1427,666,0,0
210,358,0,0,0,0,0,0,0,0,0,-1,1434,666,0,0
217,358,0,0,0,0,0,0,0,0,0,-1,1441,666,0,0
224,358,0,0,0,0,0,0,0,0,0,-1,1448,666,0,0
231,358,0,0,0,0,0,0,0,0,0,-1,1455,666,0,0
238,358,0,0,0,0,0,0,0,0,0,-1,1462,666,0,0
245,358,0,0,0,0,0,0,0,0,0,-1,1469,666,0,0
252,358,0,0,0,0,0,0,0,0,0,-1,1476,666,0,0
259,358,0,0,0,0,0,0,0,0,0,-1,1483,666,0,0
266,358,0,0,0,0,0,0,0,0,0,-1,1490,666,0,0
273,358,0,0,0,0,0,0,0,0,0,-1,1497,666,0,0
280,358,0,0,0,0,0,0,0,0,0,-1,1504,666,0,0
287,358,0,0,0,0,0,0,0,0,0,-1,1511,666,0,0
294,358,0,0,0,0,0,0,0,0,0,-1,1518,666,0,0
301,358,0,0,0,0,0,0,0,0,0,-1,1525,666,0,0
308,358,0,0,0,0,0,0,0,0,0,-1,1532,666,0,0
315,358,0,0,0,0,0,0,0,0,0,-1,1539,666,0,0
322,358,0,0,0,0,0,0,0,0,0,-1,1546,666,0,0
329,358,0,0,0,0,0,0,0,0,0,-1,1553,666,0,0
336,358,0,0,0,0,0,0,0,0,0,-1,1560,666,0,0
343,358,0,0,0,0,0,0,0,0,0,-1,1567,666,0,0
350,358,0,0,0,0,0,0,0,0,0,-1,1574,666,0,0
357,358,0,0,0,0,0,0,0,0,0,-1,1581,666,0,0
364,358,0,0,0,0,0,0,0,0,0,-1,1588,666,0,0
371,358,0,0,0,0,0,0,0,0,0,-1,1595,666,0,0
378,358,0,0,0,0,0,0,0,0,0,-1,1602,666,0,0
385,358,0,0,0,0,0,0,0,0,0,-1,1609,666,0,0
392,358,0,0,0,0,0,0,0,0,0,-1,1616,666,0,0
399,358,0,0,0,0,0,0,0,0,0,-1,1623,666,0,0
406,358,0,0,0,0,0,0,0,0,0,-1,1630,666,0,0
413,358,0,0,0,0,0,0,0,0,0,-1,1637,666,0,0
420,358,0,0,0,0,0,0,0,0,0,-1,1644,666,0,0
427,358,0,0,0,0,0,0,0,0,0,-1,1651,666,0,0
434,358,0,0,0,0,0,0,0,0,0,-1,1658,666,0,0
441,358,0,0,0,0,0,0,0,0,0,-1,1665,666,0,0
448,358,0,0,0,0,0,0,0,0,0,-1,1672,666,0,0
455,358,0,0,0,0,0,0,0,0,0,-1,1679,666,0,0
462,358,0,0,0,0,0,0,0,0,0,-1,1686,666,0,0
469,358,0,0,0,0,0,0,0,0,0,-1,1693,666,0,0
476,358,0,0,0,0,0,0,0,0,0,-1,1700,666,0,0
483,358,0,0,0,0,0,0,0,0,0,-1,1707,666,0,0
490,358,0,0,0,0,0,0,0,0,0,-1,1714,666,0,0
497,358,8.57239,1.1322,0,0,0,0,0,0,0,-1,1721,666,8.57234,-1.13219
504,358,10.5972,0.832947,0,0,0,0,0,0,0,-1,1728,666,10.5972,-0.832968
511,358,10.6873,0.868469,0,0,0,0,0,0,0,-1,1735,666,10.6872,-0.868484
518,358,16.5884,2.34894,0,0,0,0,0,0,0,-1,1742,666,16.5884,-2.34894
525,358,15.7626,3.65344,0,0,0,0,0,0,0,-1,1749,666,15.7626,-3.65342
532,358,14.9368,4.95789,0,0,0,0,0,0,0,-1,1756,666,14.9367,-4.9579
539,358,15.1597,3.42694,0,0,0,0,0,0,0,-1,1763,666,15.1597,-3.42692
546,358,12.3792,1.53558,0,0,0,0,0,0,0,-1,1770,666,12.3792,-1.5356
553,358,11.6584,1.26172,0,0,0,0,0,0,0,-1,1777,666,11.6585,-1.26175
560,358,10.8234,1.43042,0,0,0,0,0,0,0,-1,1784,666,10.8233,-1.43041
567,358,10.1333,-0.955139,0,0,0,0,0,0,0,-1,1791,666,10.1333,0.955132
574,358,14.7886,-2.69293,0,0,0,0,0,0,0,-1,1798,666,14.7885,2.6929
581,358,17.1654,-4.79382,0,0,0,0,0,0,0,-1,1805,666,17.1654,4.7938
588,358,17.2474,-4.32843,-0.000588188,0.00156096,-0.000296574,0.00160113,-0.000628363,-1.43615,0.00132741,0.0337504,1812,666,17.2474,4.32846
595,358,17.3455,-3.80347,0.000233459,0.00123805,-5.02555e-06,0.00123807,0.000233434,-1.56579,0.000759621,0.0137735,1819,666,17.3455,3.80345
602,358,17.3348,-3.35968,0.000916514,0.00111758,0.000311101,0.00134399,0.000690105,0.941677,0.000776046,0.0132489,1826,666,17.3349,3.35971
609,358,17.3109,-2.96985,0.00134084,0.00121341,0.000645707,0.00192597,0.000628283,0.736218,0.00113413,0.0169229,1833,666,17.3109,2.96985
616,358,17.3129,-2.51996,0.00151751,0.00138395,0.000900727,0.00235393,0.000547531,0.748397,0.00142235,0.0160681,1840,666,17.3129,2.51996
623,358,17.35,-2.09833,0.0011642,0.00155321,0.000998343,0.00237582,0.000341591,0.881606,0.00148319,0.0147813,1847,666,17.35,2.09833
630,358,17.3022,-1.71832,0.000275751,0.00163756,0.000862664,0.00205567,-0.000142353,1.11949,0.00142028,0.0183531,1854,666,17.3022,1.7183
637,358,17.2502,-1.35718,-0.000914644,0.00152898,0.000561076,0.00165165,-0.00103731,1.35555,0.00156592,0.025448,1861,666,17.2502,1.35717
644,358,17.2843,-0.904297,-0.00270758,0.00142553,6.40409e-05,0.00142652,-0.00270857,1.55531,0.00242535,0.0201704,1868,666,17.2843,0.904301
651,358,17.3912,-0.333374,-0.00504708,0.0010453,-0.000746468,0.00113543,-0.0051372,-1.45064,0.00385936,0.0260381,1875,666,17.3912,0.333382
658,358,17.0127,0.0548706,-0.0081836,0.000208133,-0.00207827,0.000694627,-0.00867009,-1.34085,0.00602497,0.0472753,1882,666,17.0127,-0.0548615
665,358,16.3661,0.457214,0,0,0,0,0,0,0,-1,1889,666,16.3661,-0.457212
672,358,12.4299,1.47272,0,0,0,0,0,0,0,-1,1896,666,12.4299,-1.4727
679,358,12.1294,2.19702,0,0,0,0,0,0,0,-1,1903,666,12.1294,-2.19703
686,358,11.9557,2.2002,0,0,0,0,0,0,0,-1,1910,666,11.9557,-2.20021
693,358,13.188,2.52203,0,0,0,0,0,0,0,-1,1917,666,13.188,-2.52202
700,358,0,0,0,0,0,0,0,0,0,-1,1924,666,0,0
707,358,0,0,0,0,0,0,0,0,0,-1,1931,666,0,0
714,358,0,0,0,0,0,0,0,0,0,-1,1938,666,0,0
721,358,0,0,0,0,0,0,0,0,0,-1,1945,666,0,0
728,358,0,0,0,0,0,0,0,0,0,-1,1952,666,0,0
735,358,0,0,0,0,0,0,0,0,0,-1,1959,666,0,0
742,358,0,0,0,0,0,0,0,0,0,-1,1966,666,0,0
749,358,0,0,0,0,0,0,0,0,0,-1,1973,666,0,0
756,358,0,0,0,0,0,0,0,0,0,-1,1980,666,0,0
763,358,0,0,0,0,0,0,0,0,0,-1,1987,666,0,0
770,358,0,0,0,0,0,0,0,0,0,-1,1994,666,0,0
777,358,0,0,0,0,0,0,0,0,0,-1,2001,666,0,0
784,358,0,0,0,0,0,0,0,0,0,-1,2008,666,0,0
791,358,0,0,0,0,0,0,0,0,0,-1,2015,666,0,0
798,358,0,0,0,0,0,0,0,0,0,-1,2022,666,0,0
805,358,0,0,0,0,0,0,0,0,0,-1,2029,666,0,0
812,358,0,0,0,0,0,0,0,0,0,-1,2036,666,0,0
-700,351,0,0,0,0,0,0,0,0,0,-1,524,673,0,0
-693,351,0,0,0,0,0,0,0,0,0,-1,531,673,0,0
-686,351,0,0,0,0,0,0,0,0,0,-1,538,673,0,0
-679,351,0,0,0,0,0,0,0,0,0,-1,545,673,0,0
-672,351,0,0,0,0,0,0,0,0,0,-1,552,673,0,0
-665,351,0,0,0,0,0,0,0,0,0,-1,559,673,0,0
-658,351,0,0,0,0,0,0,0,0,0,-1,566,673,0,0
-651,351,0,0,0,0,0,0,0,0,0,-1,573,673,0,0
-644,351,0,0,0,0,0,0,0,0,0,-1,580,673,0,0
-637,351,0,0,0,0,0,0,0,0,0,-1,587,673,0,0
-630,351,0,0,0,0,0,0,0,0,0,-1,594,673,0,0
-623,351,0,0,0,0,0,0,0,0,0,-1,601,673,0,0
-616,351,0,0,0,0,0,0,0,0,0,-1,608,673,0,0
-609,351,0,0,0,0,0,0,0,0,0,-1,615,673,0,0
-602,351,0,0,0,0,0,0,0,0,0,-1,622,673,0,0
-595,351,0,0,0,0,0,0,0,0,0,-1,629,673,0,0
-588,351,0,0,0,0,0,0,0,0,0,-1,636,673,0,0
-581,351,-9.0647,1.71906,0,0,0,0,0,0,0,-1,643,673,-9.06472,-1.71908
-574,351,-8.23584,2.64764,0,0,0,0,0,0,0,-1,650,673,-8.23584,-2.64764
-567,351,-10.6,2.37701,0,0,0,0,0,0,0,-1,657,673,-10.6,-2.37699
-560,351,-12.9291,-0.130371,0,0,0,0,0,0,0,-1,664,673,-12.9291,0.130358
-553,351,-11.5258,-0.747498,0,0,0,0,0,0,0,-1,671,673,-11.5258,0.747482
-546,351,-10.4723,-1.2782,0,0,0,0,0,0,0,-1,678,673,-10.4723,1.27819
-539,351,-9.98761,-1.237,0,0,0,0,0,0,0,-1,685,673,-9.98761,1.23699
-532,351,-9.63806,-1.79004,0.00598257,0.0033311,-0.00381192,0.00869271,0.000620958,-0.618047,0.00559964,0.0395507,692,673,-9.63804,1.79002
-525,351,-9.67657,-2.45599,0.00398333,0.0023188,-0.0026028,0.00588369,0.000418436,-0.630656,0.00379069,0.0339308,699,673,-9.67658,2.45599
-518,351,-9.75336,-2.72211,0.00262659,0.0014945,-0.00166811,0.00382207,0.000299015,-0.621827,0.00245446,0.0149284,706,673,-9.75338,2.72209
-511,351,-9.74542,-3.14099,0.00177248,0.000951687,-0.00104134,0.00248138,0.000242793,-0.597691,0.00157955,0.0115557,713,673,-9.74544,3.14098
-504,351,-9.76526,-3.56421,0.0013243,0.000606896,-0.000672576,0.00172785,0.000203348,-0.540422,0.00109046,0.0115942,720,673,-9.76524,3.56422
-497,351,-9.77197,-3.97675,0.00123116,0.000364467,-0.000566125,0.00151076,8.48721e-05,-0.458736,0.000980108,0.0106419,727,673,-9.77196,3.97677
-490,351,-9.77661,-4.37164,0.0012664,0.000539527,-0.000626128,0.00162693,0.000179001,-0.522437,0.00103015,0.00959233,734,673,-9.77663,4.37166
-483,351,-9.77057,-4.75476,0.00169595,0.000771458,-0.000957651,0.00229708,0.000170329,-0.560547,0.00147788,0.011486,741,673,-9.77058,4.75477
-476,351,-9.78192,-5.13934,0.0023525,0.0012823,-0.00154395,0.00345145,0.000183347,-0.618586,0.00224235,0.0109118,748,673,-9.78194,5.13931
-469,351,-9.80371,-5.54999,0.00304392,0.00190481,-0.00226959,0.00481433,0.000134398,-0.662461,0.00316571,0.0131978,755,673,-9.80369,5.54999
-462,351,-9.8269,-6.01929,0.00376664,0.00272838,-0.00310439,0.00639501,0.000100013,-0.702553,0.0042304,0.0236119,762,673,-9.8269,6.0193
-455,351,-9.79553,-6.47089,0,0,0,0,0,0,0,-1,769,673,-9.79551,6.47086
-448,351,-6.61456,-4.38654,0,0,0,0,0,0,0,-1,776,673,-6.61456,4.38654
-441,351,-4.31567,-2.3009,0,0,0,0,0,0,0,-1,783,673,-4.31565,2.30089
-434,351,-3.81708,-2.28003,0,0,0,0,0,0,0,-1,790,673,-3.81706,2.28006
-427,351,-2.05157,-2.7785,0,0,0,0,0,0,0,-1,797,673,-2.05157,2.77848
-420,351,-1.06989,-2.43665,0,0,0,0,0,0,0,-1,804,673,-1.06991,2.43663
-413,351,-0.392334,-2.06671,0,0,0,0,0,0,0,-1,811,673,-0.392363,2.06672
-406,351,-1.86316,-2.58105,0,0,0,0,0,0,0,-1,818,673,-1.86313,2.58106
-399,351,1.00952,-1.53455,0,0,0,0,0,0,0,-1,825,673,1.00954,1.53457
-392,351,-1.02197,0.877136,0,0,0,0,0,0,0,-1,832,673,-1.02195,-0.877143
-385,351,-1.47205,1.04437,0,0,0,0,0,0,0,-1,839,673,-1.47207,-1.04435
-378,351,0,0,0,0,0,0,0,0,0,-1,846,673,0,0
-371,351,0,0,0,0,0,0,0,0,0,-1,853,673,0,0
-364,351,0,0,0,0,0,0,0,0,0,-1,860,673,0,0
-357,351,0,0,0,0,0,0,0,0,0,-1,867,673,0,0
-350,351,0,0,0,0,0,0,0,0,0,-1,874,673,0,0
-343,351,0,0,0,0,0,0,0,0,0,-1,881,673,0,0
-336,351,0,0,0,0,0,0,0,0,0,-1,888,673,0,0
-329,351,0,0,0,0,0,0,0,0,0,-1,895,673,0,0
-322,351,0,0,0,0,0,0,0,0,0,-1,902,673,0,0
-315,351,0,0,0,0,0,0,0,0,0,-1,909,673,0,0
-308,351,0,0,0,0,0,0,0,0,0,-1,916,673,0,0
-301,351,0,0,0,0,0,0,0,0,0,-1,923,673,0,0
-294,351,0,0,0,0,0,0,0,0,0,-1,930,673,0,0
-287,351,0,0,0,0,0,0,0,0,0,-1,937,673,0,0
-280,351,0,0,0,0,0,0,0,0,0,-1,944,673,0,0
-273,351,0,0,0,0,0,0,0,0,0,-1,951,673,0,0
-266,351,0,0,0,0,0,0,0,0,0,-1,958,673,0,0
-259,351,0,0,0,0,0,0,0,0,0,-1,965,673,0,0
-252,351,0,0,0,0,0,0,0,0,0,-1,972,673,0,0
-245,351,0,0,0,0,0,0,0,0,0,-1,979,673,0,0
-238,351,0,0,0,0,0,0,0,0,0,-1,986,673,0,0
-231,351,0,0,0,0,0,0,0,0,0,-1,993,673,0,0
-224,351,0,0,0,0,0,0,0,0,0,-1,1000,673,0,0
-217,351,0,0,0,0,0,0,0,0,0,-1,1007,673,0,0
-210,351,0,0,0,0,0,0,0,0,0,-1,1014,673,0,0
-203,351,0,0,0,0,0,0,0,0,0,-1,1021,673,0,0
-196,351,0,0,0,0,0,0,0,0,0,-1,1028,673,0,0
-189,351,0,0,0,0,0,0,0,0,0,-1,1035,673,0,0
-182,351,0,0,0,0,0,0,0,0,0,-1,1042,673,0,0
-175,351,0,0,0,0,0,0,0,0,0,-1,1049,673,0,0
-168,351,0,0,0,0,0,0,0,0,0,-1,1056,673,0,0
-161,351,0,0,0,0,0,0,0,0,0,-1,1063,673,0,0
-154,351,0,0,0,0,0,0,0,0,0,-1,1070,673,0,0
-147,351,0,0,0,0,0,0,0,0,0,-1,1077,673,0,0
-140,351,0,0,0,0,0,0,0,0,0,-1,1084,673,0,0
-133,351,0,0,0,0,0,0,0,0,0,-1,1091,673,0,0
-126,351,0,0,0,0,0,0,0,0,0,-1,1098,673,0,0
-119,351,0,0,0,0,0,0,0,0,0,-1,1105,673,0,0
-112,351,0,0,0,0,0,0,0,0,0,-1,1112,673,0,0
-105,351,0,0,0,0,0,0,0,0,0,-1,1119,673,0,0
-98,351,0,0,0,0,0,0,0,0,0,-1,1126,673,0,0
-91,351,0,0,0,0,0,0,0,0,0,-1,1133,673,0,0
-84,351,0,0,0,0,0,0,0,0,0,-1,1140,673,0,0
-77,351,0,0,0,0,0,0,0,0,0,-1,1147,673,0,0
-70,351,0,0,0,0,0,0,0,0,0,-1,1154,673,0,0
-63,351,0,0,0,0,0,0,0,0,0,-1,1161,673,0,0
-56,351,0,0,0,0,0,0,0,0,0,-1,1168,673,0,0
-49,351,0,0,0,0,0,0,0,0,0,-1,1175,673,0,0
-42,351,0,0,0,0,0,0,0,0,0,-1,1182,673,0,0
-35,351,0,0,0,0,0,0,0,0,0,-1,1189,673,0,0
-28,351,0,0,0,0,0,0,0,0,0,-1,1196,673,0,0
-21,351,0,0,0,0,0,0,0,0,0,-1,1203,673,0,0
-14,351,0,0,0,0,0,0,0,0,0,-1,1210,673,0,0
-7,351,0,0,0,0,0,0,0,0,0,-1,1217,673,0,0
0,351,0,0,0,0,0,0,0,0,0,-1,1224,673,0,0
7,351,0,0,0,0,0,0,0,0,0,-1,1231,673,0,0
14,351,0,0,0,0,0,0,0,0,0,-1,1238,673,0,0
21,351,0,0,0,0,0,0,0,0,0,-1,1245,673,0,0
28,351,0,0,0,0,0,0,0,0,0,-1,1252,673,0,0
35,351,0,0,0,0,0,0,0,0,0,-1,1259,673,0,0
42,351,0,0,0,0,0,0,0,0,0,-1,1266,673,0,0
49,351,0,0,0,0,0,0,0,0,0,-1,1273,673,0,0
56,351,0,0,0,0,0,0,0,0,0,-1,1280,673,0,0
63,351,0,0,0,0,0,0,0,0,0,-1,1287,673,0,0
70,351,0,0,0,0,0,0,0,0,0,-1,1294,673,0,0
77,351,0,0,0,0,0,0,0,0,0,-1,1301,673,0,0
84,351,0,0,0,0,0,0,0,0,0,-1,1308,673,0,0
91,351,0,0,0,0,0,0,0,0,0,-1,1315,673,0,0
98,351,0,0,0,0,0,0,0,0,0,-1,1322,673,0,0
105,351,0,0,0,0,0,0,0,0,0,-1,1329,673,0,0
112,351,0,0,0,0,0,0,0,0,0,-1,1336,673,0,0
119,351,0,0,0,0,0,0,0,0,0,-1,1343,673,0,0
126,351,0,0,0,0,0,0,0,0,0,-1,1350,673,0,0
133,351,0,0,0,0,0,0,0,0,0,-1,1357,673,0,0
140,351,0,0,0,0,0,0,0,0,0,-1,1364,673,0,0
147,351,0,0,0,0,0,0,0,0,0,-1,1371,673,0,0
154,351,0,0,0,0,0,0,0,0,0,-1,1378,673,0,0
161,351,0,0,0,0,0,0,0,0,0,-1,1385,673,0,0
168,351,0,0,0,0,0,0,0,0,0,-1,1392,673,0,0
175,351,0,0,0,0,0,0,0,0,0,-1,1399,673,0,0
182,351,0,0,0,0,0,0,0,0,0,-1,1406,673,0,0
189,351,0,0,0,0,0,0,0,0,0,-1,1413,673,0,0
196,351,0,0,0,0,0,0,0,0,0,-1,1420,673,0,0
203,351,0,0,0,0,0,0,0,0,0,-1,1427,673,0,0
210,351,0,0,0,0,0,0,0,0,0,-1,1434,673,0,0
217,351,0,0,0,0,0,0,0,0,0,-1,1441,673,0,0
224,351,0,0,0,0,0,0,0,0,0,-1,1448,673,0,0
231,351,0,0,0,0,0,0,0,0,0,-1,1455,673,0,0
238,351,0,0,0,0,0,0,0,0,0,-1,1462,673,0,0
245,351,0,0,0,0,0,0,0,0,0,-1,1469,673,0,0
252,351,0,0,0,0,0,0,0,0,0,-1,1476,673,0,0
259,351,0,0,0,0,0,0,0,0,0,-1,1483,673,0,0
266,351,0,0,0,0,0,0,0,0,0,-1,1490,673,0,0
273,351,0,0,0,0,0,0,0,0,0,-1,1497,673,0,0
280,351,0,0,0,0,0,0,0,0,0,-1,1504,673,0,0
287,351,0,0,0,0,0,0,0,0,0,-1,1511,673,0,0
294,351,0,0,0,0,0,0,0,0,0,-1,1518,673,0,0
301,351,0,0,0,0,0,0,0,0,0,-1,1525,673,0,0
308,351,0,0,0,0,0,0,0,0,0,-1,1532,673,0,0
315,351,0,0,0,0,0,0,0,0,0,-1,1539,673,0,0
322,351,0,0,0,0,0,0,0,0,0,-1,1546,673,0,0
329,351,0,0,0,0,0,0,0,0,0,-1,1553,673,0,0
336,351,0,0,0,0,0,0,0,0,0,-1,1560,673,0,0
343,351,0,0,0,0,0,0,0,0,0,-1,1567,673,0,0
350,351,0,0,0,0,0,0,0,0,0,-1,1574,673,0,0
357,351,0,0,0,0,0,0,0,0,0,-1,1581,673,0,0
364,351,0,0,0,0,0,0,0,0,0,-1,1588,673,0,0
371,351,0,0,0,0,0,0,0,0,0,-1,1595,673,0,0
378,351,0,0,0,0,0,0,0,0,0,-1,1602,673,0,0
385,351,0,0,0,0,0,0,0,0,0,-1,1609,673,0,0
392,351,0,0,0,0,0,0,0,0,0,-1,1616,673,0,0
399,351,0,0,0,0,0,0,0,0,0,-1,1623,673,0,0
406,351,0,0,0,0,0,0,0,0,0,-1,1630,673,0,0
413,351,0,0,0,0,0,0,0,0,0,-1,1637,673,0,0
420,351,0,0,0,0,0,0,0,0,0,-1,1644,673,0,0
427,351,0,0,0,0,0,0,0,0,0,-1,1651,673,0,0
434,351,0,0,0,0,0,0,0,0,0,-1,1658,673,0,0
441,351,0,0,0,0,0,0,0,0,0,-1,1665,673,0,0
448,351,0,0,0,0,0,0,0,0,0,-1,1672,673,0,0
455,351,0,0,0,0,0,0,0,0,0,-1,1679,673,0,0
462,351,0,0,0,0,0,0,0,0,0,-1,1686,673,0,0
469,351,0,0,0,0,0,0,0,0,0,-1,1693,673,0,0
476,351,0,0,0,0,0,0,0,0,0,-1,1700,673,0,0
483,351,0,0,0,0,0,0,0,0,0,-1,1707,673,0,0
490,351,0,0,0,0,0,0,0,0,0,-1,1714,673,0,0
497,351,0,0,0,0,0,0,0,0,0,-1,1721,673,0,0
504,351,10.8842,1.61615,0,0,0,0,0,0,0,-1,1728,673,10.8842,-1.61618
511,351,15.4548,0.0236816,0,0,0,0,0,0,0,-1,1735,673,15.4549,-0.0236664
518,351,16.7448,2.49268,0,0,0,0,0,0,0,-1,1742,673,16.7448,-2.49269
525,351,16.0701,3.43225,0,0,0,0,0,0,0,-1,1749,673,16.07,-3.43227
532,351,32.3822,3.03021,0,0,0,0,0,0,0,-1,1756,673,32.3822,-3.03019
539,351,15.3387,3.54486,0,0,0,0,0,0,0,-1,1763,673,15.3387,-3.54485
546,351,13.9387,4.59357,0,0,0,0,0,0,0,-1,1770,673,13.9388,-4.59359
553,351,12.0682,2.02832,0,0,0,0,0,0,0,-1,1777,673,12.0683,-2.02831
560,351,12.0173,0.55304,0,0,0,0,0,0,0,-1,1784,673,12.0174,-0.553028
567,351,10.7827,0.130188,0,0,0,0,0,0,0,-1,1791,673,10.7827,-0.130183
574,351,13.405,-1.09204,0,0,0,0,0,0,0,-1,1798,673,13.405,1.09207
581,351,15.2351,-3.06049,0,0,0,0,0,0,0,-1,1805,673,15.2351,3.06046
588,351,17.5731,-4.40369,0,0,0,0,0,0,0,-1,1812,673,17.5732,4.40371
595,351,17.746,-3.86914,0.000401692,0.00131255,0.00018856,0.00135004,0.0003642,1.37453,0.000806518,0.0293655,1819,673,17.746,3.86911
602,351,17.7833,-3.38446,0.000988279,0.00100857,0.000293529,0.00129213,0.000704721,0.802675,0.000747035,0.0176822,1826,673,17.7833,3.38444
609,351,17.7802,-2.99756,0.00146542,0.000968933,0.00056274,0.00183224,0.000602114,0.577671,0.00107836,0.0173053,1833,673,17.7802,2.99756
616,351,17.7452,-2.55646,0.00164455,0.0010412,0.000774498,0.00217405,0.0005117,0.599685,0.00131248,0.0152,1840,673,17.7452,2.55647
623,351,17.7631,-2.11169,0.00122393,0.00109057,0.000775673,0.00193578,0.000378715,0.742523,0.00118464,0.0167458,1847,673,17.763,2.11171
630,351,17.7472,-1.74213,0.000300971,0.00106437,0.000550914,0.0013529,1.24466e-05,1.08835,0.000897812,0.0272498,1854,673,17.7471,1.74211
637,351,17.7091,-1.31085,-0.000912029,0.000802781,0.00015468,0.000816622,-0.00092587,1.48155,0.00100669,0.0299424,1861,673,17.7091,1.31084
644,351,17.7133,-0.846191,-0.00273036,0.00058667,-0.000456498,0.000648348,-0.00279203,-1.4365,0.00211093,0.0210684,1868,673,17.7133,0.846184
651,351,17.7419,-0.370972,-0.0049857,0.000105313,-0.00132043,0.00042741,-0.0053078,-1.33154,0.00368926,0.0155237,1875,673,17.742,0.370961
658,351,17.6858,0.118347,-0.00789659,-0.000743753,-0.00260533,0.000104589,-0.00874493,-1.25601,0.00586513,0.0311193,1882,673,17.6858,-0.118331
665,351,17.2725,0.356506,-0.0116435,-0.00206172,-0.00436003,-0.000374768,-0.0133305,-1.20162,0.00876474,0.041665,1889,673,17.2725,-0.356529
672,351,16.999,0.784851,0,0,0,0,0,0,0,-1,1896,673,16.999,-0.78485
679,351,14.1252,1.85681,0,0,0,0,0,0,0,-1,1903,673,14.1253,-1.85682
686,351,13.0294,2.1189,0,0,0,0,0,0,0,-1,1910,673,13.0294,-2.11892
693,351,13.5187,2.34595,0,0,0,0,0,0,0,-1,1917,673,13.5187,-2.34596
700,351,14.5629,-2.40173,0,0,0,0,0,0,0,-1,1924,673,14.5629,2.40172
707,351,0,0,0,0,0,0,0,0,0,-1,1931,673,0,0
714,351,0,0,0,0,0,0,0,0,0,-1,1938,673,0,0
721,351,0,0,0,0,0,0,0,0,0,-1,1945,673,0,0
728,351,0,0,0,0,0,0,0,0,0,-1,1952,673,0,0
735,351,0,0,0,0,0,0,0,0,0,-1,1959,673,0,0
742,351,0,0,0,0,0,0,0,0,0,-1,1966,673,0,0
749,351,0,0,0,0,0,0,0,0,0,-1,1973,673,0,0
756,351,0,0,0,0,0,0,0,0,0,-1,1980,673,0,0
763,351,0,0,0,0,0,0,0,0,0,-1,1987,673,0,0
770,351,0,0,0,0,0,0,0,0,0,-1,1994,673,0,0
777,351,0,0,0,0,0,0,0,0,0,-1,2001,673,0,0
784,351,0,0,0,0,0,0,0,0,0,-1,2008,673,0,0
791,351,0,0,0,0,0,0,0,0,0,-1,2015,673,0,0
798,351,0,0,0,0,0,0,0,0,0,-1,2022,673,0,0
805,351,0,0,0,0,0,0,0,0,0,-1,2029,673,0,0
812,351,0,0,0,0,0,0,0,0,0,-1,2036,673,0,0
-700,344,0,0,0,0,0,0,0,0,0,-1,524,680,0,0
-693,344,0,0,0,0,0,0,0,0,0,-1,531,680,0,0
-686,344,0,0,0,0,0,0,0,0,0,-1,538,680,0,0
-679,344,0,0,0,0,0,0,0,0,0,-1,545,680,0,0
-672,344,0,0,0,0,0,0,0,0,0,-1,552,680,0,0
-665,344,0,0,0,0,0,0,0,0,0,-1,559,680,0,0
-658,344,0,0,0,0,0,0,0,0,0,-1,566,680,0,0
-651,344,0,0,0,0,0,0,0,0,0,-1,573,680,0,0
-644,344,0,0,0,0,0,0,0,0,0,-1,580,680,0,0
-637,344,0,0,0,0,0,0,0,0,0,-1,587,680,0,0
-630,344,0,0,0,0,0,0,0,0,0,-1,594,680,0,0
-623,344,0,0,0,0,0,0,0,0,0,-1,601,680,0,0
-616,344,0,0,0,0,0,0,0,0,0,-1,608,680,0,0
-609,344,0,0,0,0,0,0,0,0,0,-1,615,680,0,0
-602,344,0,0,0,0,0,0,0,0,0,-1,622,680,0,0
-595,344,0,0,0,0,0,0,0,0,0,-1,629,680,0,0
-588,344,-9.27826,1.47302,0,0,0,0,0,0,0,-1,636,680,-9.27829,-1.473
-581,344,-10.0098,1.71753,0,0,0,0,0,0,0,-1,643,680,-10.0098,-1.7175
-574,344,-10.2208,3.04871,0,0,0,0,0,0,0,-1,650,680,-10.2208,-3.04869
-567,344,-10.9838,2.31458,0,0,0,0,0,0,0,-1,657,680,-10.9838,-2.31457
-560,344,-10.4163,1.45575,0,0,0,0,0,0,0,-1,664,680,-10.4163,-1.45575
-553,344,-11.0853,-0.779541,0,0,0,0,0,0,0,-1,671,680,-11.0853,0.779512
-546,344,-10.5925,-1.08435,0.00909832,0.00470806,-0.00450188,0.0119117,0.00189464,-0.558558,0.00739101,0.0458548,678,680,-10.5924,1.08437
-539,344,-10.2297,-1.2962,0.00654756,0.00380984,-0.00355204,0.00898537,0.00137203,-0.601482,0.00558932,0.0427457,685,680,-10.2297,1.29622
-532,344,-10.0109,-1.92987,0.00467238,0.00290437,-0.00269124,0.00662109,0.000955672,-0.626712,0.0041325,0.0276989,692,680,-10.0108,1.92987
-525,344,-10.1697,-2.29004,0.00330512,0.00208687,-0.00191313,0.00470376,0.000688234,-0.631276,0.00293346,0.0264873,699,680,-10.1697,2.29005
-518,344,-10.1627,-2.7511,0.00236258,0.00146093,-0.00133408,0.00331995,0.000503559,-0.622457,0.00206601,0.0195191,706,680,-10.1627,2.75109
-511,344,-10.1883,-3.14996,0.00174574,0.000961878,-0.000894292,0.00233021,0.000377401,-0.578876,0.00144421,0.016644,713,680,-10.1883,3.14996
-504,344,-10.1979,-3.56238,0.00140786,0.000588831,-0.000594714,0.00172042,0.000276274,-0.483885,0.00106684,0.0182888,720,680,-10.1979,3.56237
-497,344,-10.191,-3.97632,0.00135299,0.000346855,-0.000530871,0.0015813,0.000118554,-0.40614,0.00101699,0.0158282,727,680,-10.191,3.97632
-490,344,-10.1932,-4.37494,0.00147096,0.000473392,-0.000659882,0.00179936,0.000144995,-0.461775,0.00115428,0.0134666,734,680,-10.1932,4.37494
-483,344,-10.1697,-4.74567,0.00194497,0.000744741,-0.00105544,0.00255898,0.000130735,-0.526895,0.00166412,0.0131886,741,680,-10.1697,4.74565
-476,344,-10.1835,-5.12714,0.00259089,0.00134002,-0.00174411,0.00381831,0.000112591,-0.613241,0.00250885,0.0135153,748,680,-10.1835,5.12711
-469,344,-10.1866,-5.55823,0.00328774,0.00199154,-0.00258103,0.00530079,-2.15142e-05,-0.662391,0.00354106,0.014917,755,680,-10.1866,5.55822
-462,344,-10.1725,-6.04852,0.0042101,0.00301427,-0.00364106,0.00730201,-7.76357e-05,-0.704017,0.00489409,0.0409034,762,680,-10.1725,6.04854
-455,344,-10.0267,-6.45349,0,0,0,0,0,0,0,-1,769,680,-10.0268,6.4535
-448,344,-5.67657,-2.72864,0,0,0,0,0,0,0,-1,776,680,-5.6766,2.72863
-441,344,-5.09229,-2.34167,0,0,0,0,0,0,0,-1,783,680,-5.09229,2.34168
-434,344,-4.28778,-2.08807,0,0,0,0,0,0,0,-1,790,680,-4.28778,2.08809
-427,344,-3.06506,-1.45404,0,0,0,0,0,0,0,-1,797,680,-3.06505,1.45402
-420,344,-1.96582,-1.57574,0,0,0,0,0,0,0,-1,804,680,-1.96579,1.57574
-413,344,-0.817993,-1.4751,0,0,0,0,0,0,0,-1,811,680,-0.818017,1.47511
-406,344,-0.00714111,-1.25189,0,0,0,0,0,0,0,-1,818,680,-0.00714956,1.25191
-399,344,0.240051,-1.75769,0,0,0,0,0,0,0,-1,825,680,0.240079,1.75767
-392,344,1.11353,-2.05615,0,0,0,0,0,0,0,-1,832,680,1.11351,2.05616
-385,344,0,0,0,0,0,0,0,0,0,-1,839,680,0,0
-378,344,0,0,0,0,0,0,0,0,0,-1,846,680,0,0
-371,344,0,0,0,0,0,0,0,0,0,-1,853,680,0,0
-364,344,0,0,0,0,0,0,0,0,0,-1,860,680,0,0
-357,344,0,0,0,0,0,0,0,0,0,-1,867,680,0,0
-350,344,0,0,0,0,0,0,0,0,0,-1,874,680,0,0
-343,344,0,0,0,0,0,0,0,0,0,-1,881,680,0,0
-336,344,0,0,0,0,0,0,0,0,0,-1,888,680,0,0
-329,344,0,0,0,0,0,0,0,0,0,-1,895,680,0,0
-322,344,0,0,0,0,0,0,0,0,0,-1,902,680,0,0
-315,344,0,0,0,0,0,0,0,0,0,-1,909,680,0,0
-308,344,0,0,0,0,0,0,0,0,0,-1,916,680,0,0
-301,344,0,0,0,0,0,0,0,0,0,-1,923,680,0,0
-294,344,0,0,0,0,0,0,0,0,0,-1,930,680,0,0
-287,344,0,0,0,0,0,0,0,0,0,-1,937,680,0,0
-280,344,0,0,0,0,0,0,0,0,0,-1,944,680,0,0
-273,344,0,0,0,0,0,0,0,0,0,-1,951,680,0,0
-266,344,0,0,0,0,0,0,0,0,0,-1,958,680,0,0
-259,344,0,0,0,0,0,0,0,0,0,-1,965,680,0,0
-252,344,0,0,0,0,0,0,0,0,0,-1,972,680,0,0
-245,344,0,0,0,0,0,0,0,0,0,-1,979,680,0,0
-238,344,0,0,0,0,0,0,0,0,0,-1,986,680,0,0
-231,344,0,0,0,0,0,0,0,0,0,-1,993,680,0,0
-224,344,0,0,0,0,0,0,0,0,0,-1,1000,680,0,0
-217,344,0,0,0,0,0,0,0,0,0,-1,1007,680,0,0
-210,344,0,0,0,0,0,0,0,0,0,-1,1014,680,0,0
-203,344,0,0,0,0,0,0,0,0,0,-1,1021,680,0,0
-196,344,0,0,0,0,0,0,0,0,0,-1,1028,680,0,0
-189,344,0,0,0,0,0,0,0,0,0,-1,1035,680,0,0
-182,344,0,0,0,0,0,0,0,0,0,-1,1042,680,0,0
-175,344,0,0,0,0,0,0,0,0,0,-1,1049,680,0,0
-168,344,0,0,0,0,0,0,0,0,0,-1,1056,680,0,0
-161,344,0,0,0,0,0,0,0,0,0,-1,1063,680,0,0
-154,344,0,0,0,0,0,0,0,0,0,-1,1070,680,0,0
-147,344,0,0,0,0,0,0,0,0,0,-1,1077,680,0,0
-140,344,0,0,0,0,0,0,0,0,0,-1,1084,680,0,0
-133,344,0,0,0,0,0,0,0,0,0,-1,1091,680,0,0
-126,344,0,0,0,0,0,0,0,0,0,-1,1098,680,0,0
-119,344,0,0,0,0,0,0,0,0,0,-1,1105,680,0,0
-112,344,0,0,0,0,0,0,0,0,0,-1,1112,680,0,0
-105,344,0,0,0,0,0,0,0,0,0,-1,1119,680,0,0
-98,344,0,0,0,0,0,0,0,0,0,-1,1126,680,0,0
-91,344,0,0,0,0,0,0,0,0,0,-1,1133,680,0,0
-84,344,0,0,0,0,0,0,0,0,0,-1,1140,680,0,0
-77,344,0,0,0,0,0,0,0,0,0,-1,1147,680,0,0
-70,344,0,0,0,0,0,0,0,0,0,-1,1154,680,0,0
-63,344,0,0,0,0,0,0,0,0,0,-1,1161,680,0,0
-56,344,0,0,0,0,0,0,0,0,0,-1,1168,680,0,0
-49,344,0,0,0,0,0,0,0,0,0,-1,1175,680,0,0
-42,344,0,0,0,0,0,0,0,0,0,-1,1182,680,0,0
-35,344,0,0,0,0,0,0,0,0,0,-1,1189,680,0,0
-28,344,0,0,0,0,0,0,0,0,0,-1,1196,680,0,0
-21,344,0,0,0,0,0,0,0,0,0,-1,1203,680,0,0
-14,344,0,0,0,0,0,0,0,0,0,-1,1210,680,0,0
-7,344,0,0,0,0,0,0,0,0,0,-1,1217,680,0,0
0,344,0,0,0,0,0,0,0,0,0,-1,1224,680,0,0
7,344,0,0,0,0,0,0,0,0,0,-1,1231,680,0,0
14,344,0,0,0,0,0,0,0,0,0,-1,1238,680,0,0
21,344,0,0,0,0,0,0,0,0,0,-1,1245,680,0,0
28,344,0,0,0,0,0,0,0,0,0,-1,1252,680,0,0
35,344,0,0,0,0,0,0,0,0,0,-1,1259,680,0,0
42,344,0,0,0,0,0,0,0,0,0,-1,1266,680,0,0
49,344,0,0,0,0,0,0,0,0,0,-1,1273,680,0,0
56,344,0,0,0,0,0,0,0,0,0,-1,1280,680,0,0
63,344,0,0,0,0,0,0,0,0,0,-1,1287,680,0,0
70,344,0,0,0,0,0,0,0,0,0,-1,1294,680,0,0
77,344,0,0,0,0,0,0,0,0,0,-1,1301,680,0,0
84,344,0,0,0,0,0,0,0,0,0,-1,1308,680,0,0
91,344,0,0,0,0,0,0,0,0,0,-1,1315,680,0,0
98,344,0,0,0,0,0,0,0,0,0,-1,1322,680,0,0
105,344,0,0,0,0,0,0,0,0,0,-1,1329,680,0,0
112,344,0,0,0,0,0,0,0,0,0,-1,1336,680,0,0
119,344,0,0,0,0,0,0,0,0,0,-1,1343,680,0,0
126,344,0,0,0,0,0,0,0,0,0,-1,1350,680,0,0
133,344,0,0,0,0,0,0,0,0,0,-1,1357,680,0,0
140,344,0,0,0,0,0,0,0,0,0,-1,1364,680,0,0
147,344,0,0,0,0,0,0,0,0,0,-1,1371,680,0,0
154,344,0,0,0,0,0,0,0,0,0,-1,1378,680,0,0
161,344,0,0,0,0,0,0,0,0,0,-1,1385,680,0,0
168,344,0,0,0,0,0,0,0,0,0,-1,1392,680,0,0
175,344,0,0,0,0,0,0,0,0,0,-1,1399,680,0,0
182,344,0,0,0,0,0,0,0,0,0,-1,1406,680,0,0
189,344,0,0,0,0,0,0,0,0,0,-1,1413,680,0,0
196,344,0,0,0,0,0,0,0,0,0,-1,1420,680,0,0
203,344,0,0,0,0,0,0,0,0,0,-1,1427,680,0,0
210,344,0,0,0,0,0,0,0,0,0,-1,1434,680,0,0
217,344,0,0,0,0,0,0,0,0,0,-1,1441,680,0,0
224,344,0,0,0,0,0,0,0,0,0,-1,1448,680,0,0
231,344,0,0,0,0,0,0,0,0,0,-1,1455,680,0,0
238,344,0,0,0,0,0,0,0,0,0,-1,1462,680,0,0
245,344,0,0,0,0,0,0,0,0,0,-1,1469,680,0,0
252,344,0,0,0,0,0,0,0,0,0,-1,1476,680,0,0
259,344,0,0,0,0,0,0,0,0,0,-1,1483,680,0,0
266,344,0,0,0,0,0,0,0,0,0,-1,1490,680,0,0
273,344,0,0,0,0,0,0,0,0,0,-1,1497,680,0,0
280,344,0,0,0,0,0,0,0,0,0,-1,1504,680,0,0
287,344,0,0,0,0,0,0,0,0,0,-1,1511,680,0,0
294,344,0,0,0,0,0,0,0,0,0,-1,1518,680,0,0
301,344,0,0,0,0,0,0,0,0,0,-1,1525,680,0,0
308,344,0,0,0,0,0,0,0,0,0,-1,1532,680,0,0
315,344,0,0,0,0,0,0,0,0,0,-1,1539,680,0,0
322,344,0,0,0,0,0,0,0,0,0,-1,1546,680,0,0
329,344,0,0,0,0,0,0,0,0,0,-1,1553,680,0,0
336,344,0,0,0,0,0,0,0,0,0,-1,1560,680,0,0
343,344,0,0,0,0,0,0,0,0,0,-1,1567,680,0,0
350,344,0,0,0,0,0,0,0,0,0,-1,1574,680,0,0
357,344,0,0,0,0,0,0,0,0,0,-1,1581,680,0,0
364,344,0,0,0,0,0,0,0,0,0,-1,1588,680,0,0
371,344,0,0,0,0,0,0,0,0,0,-1,1595,680,0,0
378,344,0,0,0,0,0,0,0,0,0,-1,1602,680,0,0
385,344,0,0,0,0,0,0,0,0,0,-1,1609,680,0,0
392,344,0,0,0,0,0,0,0,0,0,-1,1616,680,0,0
399,344,0,0,0,0,0,0,0,0,0,-1,1623,680,0,0
406,344,0,0,0,0,0,0,0,0,0,-1,1630,680,0,0
413,344,0,0,0,0,0,0,0,0,0,-1,1637,680,0,0
420,344,0,0,0,0,0,0,0,0,0,-1,1644,680,0,0
427,344,0,0,0,0,0,0,0,0,0,-1,1651,680,0,0
434,344,0,0,0,0,0,0,0,0,0,-1,1658,680,0,0
441,344,0,0,0,0,0,0,0,0,0,-1,1665,680,0,0
448,344,0,0,0,0,0,0,0,0,0,-1,1672,680,0,0
455,344,0,0,0,0,0,0,0,0,0,-1,1679,680,0,0
462,344,0,0,0,0,0,0,0,0,0,-1,1686,680,0,0
469,344,0,0,0,0,0,0,0,0,0,-1,1693,680,0,0
476,344,0,0,0,0,0,0,0,0,0,-1,1700,680,0,0
483,344,0,0,0,0,0,0,0,0,0,-1,1707,680,0,0
490,344,0,0,0,0,0,0,0,0,0,-1,1714,680,0,0
497,344,0,0,0,0,0,0,0,0,0,-1,1721,680,0,0
504,344,0,0,0,0,0,0,0,0,0,-1,1728,680,0,0
511,344,15.4819,0.452637,0,0,0,0,0,0,0,-1,1735,680,15.4819,-0.452656
518,344,17.1357,2.31207,0,0,0,0,0,0,0,-1,1742,680,17.1358,-2.31207
525,344,31.5201,2.6217,0,0,0,0,0,0,0,-1,1749,680,31.5201,-2.62168
532,344,31.9766,2.61047,0,0,0,0,0,0,0,-1,1756,680,31.9765,-2.6105
539,344,32.4379,2.65314,0,0,0,0,0,0,0,-1,1763,680,32.4378,-2.65316
546,344,14.6722,4.30243,0,0,0,0,0,0,0,-1,1770,680,14.6722,-4.30241
553,344,14.8136,4.35681,0,0,0,0,0,0,0,-1,1777,680,14.8136,-4.35679
560,344,11.9363,2.14185,0,0,0,0,0,0,0,-1,1784,680,11.9362,-2.14182
567,344,11.397,0.925842,0,0,0,0,0,0,0,-1,1791,680,11.397,-0.92583
574,344,10.0004,0.504639,0,0,0,0,0,0,0,-1,1798,680,10.0004,-0.504645
581,344,13.6709,-0.969604,0,0,0,0,0,0,0,-1,1805,680,13.6709,0.969629
588,344,16.1447,-3.15948,0,0,0,0,0,0,0,-1,1812,680,16.1447,3.15946
595,344,18.0607,-3.90149,0,0,0,0,0,0,0,-1,1819,680,18.0607,3.90146
602,344,18.2307,-3.37292,0.00119607,0.000944167,0.000334477,0.00142752,0.000712712,0.605331,0.00082418,0.0427867,1826,680,18.2308,3.37292
609,344,18.2283,-2.9408,0.00174689,0.000783248,0.000579216,0.00201849,0.000511649,0.438466,0.00121167,0.015676,1833,680,18.2282,2.94077
616,344,18.1885,-2.50214,0.00193371,0.000782772,0.000781354,0.00232864,0.000387839,0.467995,0.00144066,0.0225508,1840,680,18.1885,2.50212
623,344,18.1917,-2.07166,0.00146369,0.000742017,0.000712919,0.00190189,0.000303818,0.551125,0.00117976,0.0215519,1847,680,18.1916,2.07167
630,344,18.1838,-1.69843,0.000543868,0.000647134,0.000439192,0.00103772,0.000153284,0.843912,0.0006468,0.0272512,1854,680,18.1838,1.6984
637,344,18.1785,-1.26385,-0.000656241,0.000297817,-7.27436e-06,0.000297872,-0.000656296,-1.56317,0.000563696,0.0235025,1861,680,18.1784,1.26387
644,344,18.1659,-0.806458,-0.002408,1.37306e-05,-0.000668849,0.000186178,-0.00258045,-1.31847,0.0017856,0.0157879,1868,680,18.1659,0.806454
651,344,18.167,-0.381348,-0.00446198,-0.00050335,-0.00150072,1.24983e-06,-0.00496658,-1.24643,0.00331147,0.0116613,1875,680,18.167,0.381343
658,344,18.162,0.12561,-0.00703947,-0.00130313,-0.00266943,-0.000253103,-0.0080895,-1.19603,0.00531064,0.0214361,1882,680,18.162,-0.12563
665,344,18.0361,0.549744,-0.0102397,-0.00246752,-0.0042048,-0.000628049,-0.0120792,-1.15841,0.00785181,0.034476,1889,680,18.0362,-0.549721
672,344,18.0461,0.900452,0,0,0,0,0,0,0,-1,1896,680,18.0461,-0.900459
679,344,18.0359,0.972839,0,0,0,0,0,0,0,-1,1903,680,18.0359,-0.972839
686,344,15.024,1.82709,0,0,0,0,0,0,0,-1,1910,680,15.024,-1.82706
693,344,12.4362,-1.42346,0,0,0,0,0,0,0,-1,1917,680,12.4361,1.42348
700,344,17.5396,2.61206,0,0,0,0,0,0,0,-1,1924,680,17.5396,-2.61204
707,344,18.5829,3.29352,0,0,0,0,0,0,0,-1,1931,680,18.5828,-3.2935
714,344,0,0,0,0,0,0,0,0,0,-1,1938,680,0,0
721,344,0,0,0,0,0,0,0,0,0,-1,1945,680,0,0
728,344,0,0,0,0,0,0,0,0,0,-1,1952,680,0,0
735,344,0,0,0,0,0,0,0,0,0,-1,1959,680,0,0
742,344,0,0,0,0,0,0,0,0,0,-1,1966,680,0,0
749,344,0,0,0,0,0,0,0,0,0,-1,1973,680,0,0
756,344,0,0,0,0,0,0,0,0,0,-1,1980,680,0,0
763,344,0,0,0,0,0,0,0,0,0,-1,1987,680,0,0
770,344,0,0,0,0,0,0,0,0,0,-1,1994,680,0,0
777,344,0,0,0,0,0,0,0,0,0,-1,2001,680,0,0
784,344,0,0,0,0,0,0,0,0,0,-1,2008,680,0,0
791,344,0,0,0,0,0,0,0,0,0,-1,2015,680,0,0
798,344,0,0,0,0,0,0,0,0,0,-1,2022,680,0,0
805,344,0,0,0,0,0,0,0,0,0,-1,2029,680,0,0
812,344,0,0,0,0,0,0,0,0,0,-1,2036,680,0,0
-700,337,0,0,0,0,0,0,0,0,0,-1,524,687,0,0
-693,337,0,0,0,0,0,0,0,0,0,-1,531,687,0,0
-686,337,0,0,0,0,0,0,0,0,0,-1,538,687,0,0
-679,337,0,0,0,0,0,0,0,0,0,-1,545,687,0,0
-672,337,0,0,0,0,0,0,0,0,0,-1,552,687,0,0
-665,337,0,0,0,0,0,0,0,0,0,-1,559,687,0,0
-658,337,0,0,0,0,0,0,0,0,0,-1,566,687,0,0
-651,337,0,0,0,0,0,0,0,0,0,-1,573,687,0,0
-644,337,0,0,0,0,0,0,0,0,0,-1,580,687,0,0
-637,337,0,0,0,0,0,0,0,0,0,-1,587,687,0,0
-630,337,0,0,0,0,0,0,0,0,0,-1,594,687,0,0
-623,337,0,0,0,0,0,0,0,0,0,-1,601,687,0,0
-616,337,0,0,0,0,0,0,0,0,0,-1,608,687,0,0
-609,337,0,0,0,0,0,0,0,0,0,-1,615,687,0,0
-602,337,0,0,0,0,0,0,0,0,0,-1,622,687,0,0
-595,337,0,0,0,0,0,0,0,0,0,-1,629,687,0,0
-588,337,-10.8413,1.27863,0,0,0,0,0,0,0,-1,636,687,-10.8413,-1.27861
-581,337,-11.2157,1.31567,0,0,0,0,0,0,0,-1,643,687,-11.2157,-1.3157
-574,337,-6.03339,2.0321,0,0,0,0,0,0,0,-1,650,687,-6.03337,-2.03213
-567,337,-9.8313,1.39795,0,0,0,0,0,0,0,-1,657,687,-9.83129,-1.39793
-560,337,-10.5417,1.32776,0,0,0,0,0,0,0,-1,664,687,-10.5417,-1.32775
-553,337,-10.8006,-0.144287,0,0,0,0,0,0,0,-1,671,687,-10.8006,0.144315
-546,337,-10.662,-0.820435,0.00583781,0.00334203,-0.00221697,0.00713396,0.00204587,-0.529058,0.00424179,0.0439961,678,687,-10.662,0.820405
-539,337,-10.4927,-1.40863,0.00451208,0.00285798,-0.00202292,0.00587049,0.00149957,-0.591346,0.00352188,0.0293214,685,687,-10.4927,1.40862
-532,337,-10.5313,-1.91711,0.00343489,0.00222504,-0.00166286,0.00459944,0.00106049,-0.610947,0.00278103,0.0187519,692,687,-10.5313,1.91713
-525,337,-10.5967,-2.3493,0.00257742,0.00159145,-0.00122495,0.00340487,0.000764009,-0.594088,0.00206295,0.0153027,699,687,-10.5967,2.34933
-518,337,-10.5958,-2.77643,0.00197866,0.00114555,-0.000919863,0.00257189,0.000552323,-0.572791,0.00156335,0.0230768,706,687,-10.5958,2.77642
-511,337,-10.6047,-3.15424,0.00157723,0.000724593,-0.000636357,0.00191687,0.000384949,-0.490267,0.00117089,0.0236265,713,687,-10.6047,3.15423
-504,337,-10.601,-3.56891,0.00135647,0.000380675,-0.000406445,0.00150359,0.00023356,-0.347286,0.000934319,0.0243243,720,687,-10.6009,3.56891
-497,337,-10.5889,-3.96936,0.0013572,0.000205724,-0.000385726,0.00147447,8.8455e-05,-0.295142,0.000954862,0.0170326,727,687,-10.5888,3.96937
-490,337,-10.5954,-4.36877,0.00159816,0.000338086,-0.000597004,0.00183609,0.00010016,-0.379242,0.00119208,0.0138652,734,687,-10.5954,4.36876
-483,337,-10.5778,-4.77026,0.00215707,0.000722935,-0.00108017,0.00273652,0.000143487,-0.492374,0.00177845,0.0140657,741,687,-10.5778,4.77028
-476,337,-10.5778,-5.17957,0.00281754,0.0014819,-0.00190522,0.00416859,0.000130847,-0.616829,0.00273649,0.0134614,748,687,-10.5778,5.17957
-469,337,-10.5729,-5.65564,0.00354546,0.00224109,-0.00290731,0.00587284,-8.62852e-05,-0.675062,0.0039443,0.0335192,755,687,-10.5729,5.65564
-462,337,-10.415,-5.97821,0,0,0,0,0,0,0,-1,762,687,-10.4151,5.9782
-455,337,-6.00574,-3.12933,0,0,0,0,0,0,0,-1,769,687,-6.00576,3.12934
-448,337,-5.30627,-2.07202,0,0,0,0,0,0,0,-1,776,687,-5.30628,2.07205
-441,337,-4.24762,-1.49597,0,0,0,0,0,0,0,-1,783,687,-4.24762,1.49598
-434,337,-6.86908,1.37531,0,0,0,0,0,0,0,-1,790,687,-6.86908,-1.3753
-427,337,-9.92004,2.487,0,0,0,0,0,0,0,-1,797,687,-9.92002,-2.48701
-420,337,-2.95996,-1.76697,0,0,0,0,0,0,0,-1,804,687,-2.95998,1.76696
-413,337,-1.29169,-1.99487,0,0,0,0,0,0,0,-1,811,687,-1.29171,1.9949
-406,337,-1.02356,-1.89563,0,0,0,0,0,0,0,-1,818,687,-1.02357,1.89564
-399,337,-0.472839,-2.21338,0,0,0,0,0,0,0,-1,825,687,-0.472837,2.2134
-392,337,0,0,0,0,0,0,0,0,0,-1,832,687,0,0
-385,337,0,0,0,0,0,0,0,0,0,-1,839,687,0,0
-378,337,0,0,0,0,0,0,0,0,0,-1,846,687,0,0
-371,337,0,0,0,0,0,0,0,0,0,-1,853,687,0,0
-364,337,0,0,0,0,0,0,0,0,0,-1,860,687,0,0
-357,337,0,0,0,0,0,0,0,0,0,-1,867,687,0,0
-350,337,0,0,0,0,0,0,0,0,0,-1,874,687,0,0
-343,337,0,0,0,0,0,0,0,0,0,-1,881,687,0,0
-336,337,0,0,0,0,0,0,0,0,0,-1,888,687,0,0
-329,337,0,0,0,0,0,0,0,0,0,-1,895,687,0,0
-322,337,0,0,0,0,0,0,0,0,0,-1,902,687,0,0
-315,337,0,0,0,0,0,0,0,0,0,-1,909,687,0,0
-308,337,0,0,0,0,0,0,0,0,0,-1,916,687,0,0
-301,337,0,0,0,0,0,0,0,0,0,-1,923,687,0,0
-294,337,0,0,0,0,0,0,0,0,0,-1,930,687,0,0
-287,337,0,0,0,0,0,0,0,0,0,-1,937,687,0,0
-280,337,0,0,0,0,0,0,0,0,0,-1,944,687,0,0
-273,337,0,0,0,0,0,0,0,0,0,-1,951,687,0,0
-266,337,0,0,0,0,0,0,0,0,0,-1,958,687,0,0
-259,337,0,0,0,0,0,0,0,0,0,-1,965,687,0,0
-252,337,0,0,0,0,0,0,0,0,0,-1,972,687,0,0
-245,337,0,0,0,0,0,0,0,0,0,-1,979,687,0,0
-238,337,0,0,0,0,0,0,0,0,0,-1,986,687,0,0
-231,337,0,0,0,0,0,0,0,0,0,-1,993,687,0,0
-224,337,0,0,0,0,0,0,0,0,0,-1,1000,687,0,0
-217,337,0,0,0,0,0,0,0,0,0,-1,1007,687,0,0
-210,337,0,0,0,0,0,0,0,0,0,-1,1014,687,0,0
-203,337,0,0,0,0,0,0,0,0,0,-1,1021,687,0,0
-196,337,0,0,0,0,0,0,0,0,0,-1,1028,687,0,0
-189,337,0,0,0,0,0,0,0,0,0,-1,1035,687,0,0
-182,337,0,0,0,0,0,0,0,0,0,-1,1042,687,0,0
-175,337,0,0,0,0,0,0,0,0,0,-1,1049,687,0,0
-168,337,0,0,0,0,0,0,0,0,0,-1,1056,687,0,0
-161,337,0,0,0,0,0,0,0,0,0,-1,1063,687,0,0
-154,337,0,0,0,0,0,0,0,0,0,-1,1070,687,0,0
-147,337,0,0,0,0,0,0,0,0,0,-1,1077,687,0,0
-140,337,0,0,0,0,0,0,0,0,0,-1,1084,687,0,0
-133,337,0,0,0,0,0,0,0,0,0,-1,1091,687,0,0
-126,337,0,0,0,0,0,0,0,0,0,-1,1098,687,0,0
-119,337,0,0,0,0,0,0,0,0,0,-1,1105,687,0,0
-112,337,0,0,0,0,0,0,0,0,0,-1,1112,687,0,0
-105,337,0,0,0,0,0,0,0,0,0,-1,1119,687,0,0
-98,337,0,0,0,0,0,0,0,0,0,-1,1126,687,0,0
-91,337,0,0,0,0,0,0,0,0,0,-1,1133,687,0,0
-84,337,0,0,0,0,0,0,0,0,0,-1,1140,687,0,0
-77,337,0,0,0,0,0,0,0,0,0,-1,1147,687,0,0
-70,337,0,0,0,0,0,0,0,0,0,-1,1154,687,0,0
-63,337,0,0,0,0,0,0,0,0,0,-1,1161,687,0,0
-56,337,0,0,0,0,0,0,0,0,0,-1,1168,687,0,0
-49,337,0,0,0,0,0,0,0,0,0,-1,1175,687,0,0
-42,337,0,0,0,0,0,0,0,0,0,-1,1182,687,0,0
-35,337,0,0,0,0,0,0,0,0,0,-1,1189,687,0,0
-28,337,0,0,0,0,0,0,0,0,0,-1,1196,687,0,0
-21,337,0,0,0,0,0,0,0,0,0,-1,1203,687,0,0
-14,337,0,0,0,0,0,0,0,0,0,-1,1210,687,0,0
-7,337,0,0,0,0,0,0,0,0,0,-1,1217,687,0,0
0,337,0,0,0,0,0,0,0,0,0,-1,1224,687,0,0
7,337,0,0,0,0,0,0,0,0,0,-1,1231,687,0,0
14,337,0,0,0,0,0,0,0,0,0,-1,1238,687,0,0
21,337,0,0,0,0,0,0,0,0,0,-1,1245,687,0,0
28,337,0,0,0,0,0,0,0,0,0,-1,1252,687,0,0
35,337,0,0,0,0,0,0,0,0,0,-1,1259,687,0,0
42,337,0,0,0,0,0,0,0,0,0,-1,1266,687,0,0
49,337,0,0,0,0,0,0,0,0,0,-1,1273,687,0,0
56,337,0,0,0,0,0,0,0,0,0,-1,1280,687,0,0
63,337,0,0,0,0,0,0,0,0,0,-1,1287,687,0,0
70,337,0,0,0,0,0,0,0,0,0,-1,1294,687,0,0
77,337,0,0,0,0,0,0,0,0,0,-1,1301,687,0,0
84,337,0,0,0,0,0,0,0,0,0,-1,1308,687,0,0
91,337,0,0,0,0,0,0,0,0,0,-1,1315,687,0,0
98,337,0,0,0,0,0,0,0,0,0,-1,1322,687,0,0
105,337,0,0,0,0,0,0,0,0,0,-1,1329,687,0,0
112,337,0,0,0,0,0,0,0,0,0,-1,1336,687,0,0
119,337,0,0,0,0,0,0,0,0,0,-1,1343,687,0,0
126,337,0,0,0,0,0,0,0,0,0,-1,1350,687,0,0
133,337,0,0,0,0,0,0,0,0,0,-1,1357,687,0,0
140,337,0,0,0,0,0,0,0,0,0,-1,1364,687,0,0
147,337,0,0,0,0,0,0,0,0,0,-1,1371,687,0,0
154,337,0,0,0,0,0,0,0,0,0,-1,1378,687,0,0
161,337,0,0,0,0,0,0,0,0,0,-1,1385,687,0,0
168,337,0,0,0,0,0,0,0,0,0,-1,1392,687,0,0
175,337,0,0,0,0,0,0,0,0,0,-1,1399,687,0,0
182,337,0,0,0,0,0,0,0,0,0,-1,1406,687,0,0
189,337,0,0,0,0,0,0,0,0,0,-1,1413,687,0,0
196,337,0,0,0,0,0,0,0,0,0,-1,1420,687,0,0
203,337,0,0,0,0,0,0,0,0,0,-1,1427,687,0,0
210,337,0,0,0,0,0,0,0,0,0,-1,1434,687,0,0
217,337,0,0,0,0,0,0,0,0,0,-1,1441,687,0,0
224,337,0,0,0,0,0,0,0,0,0,-1,1448,687,0,0
231,337,0,0,0,0,0,0,0,0,0,-1,1455,687,0,0
238,337,0,0,0,0,0,0,0,0,0,-1,1462,687,0,0
245,337,0,0,0,0,0,0,0,0,0,-1,1469,687,0,0
252,337,0,0,0,0,0,0,0,0,0,-1,1476,687,0,0
259,337,0,0,0,0,0,0,0,0,0,-1,1483,687,0,0
266,337,0,0,0,0,0,0,0,0,0,-1,1490,687,0,0
273,337,0,0,0,0,0,0,0,0,0,-1,1497,687,0,0
280,337,0,0,0,0,0,0,0,0,0,-1,1504,687,0,0
287,337,0,0,0,0,0,0,0,0,0,-1,1511,687,0,0
294,337,0,0,0,0,0,0,0,0,0,-1,1518,687,0,0
301,337,0,0,0,0,0,0,0,0,0,-1,1525,687,0,0
308,337,0,0,0,0,0,0,0,0,0,-1,1532,687,0,0
315,337,0,0,0,0,0,0,0,0,0,-1,1539,687,0,0
322,337,0,0,0,0,0,0,0,0,0,-1,1546,687,0,0
329,337,0,0,0,0,0,0,0,0,0,-1,1553,687,0,0
336,337,0,0,0,0,0,0,0,0,0,-1,1560,687,0,0
343,337,0,0,0,0,0,0,0,0,0,-1,1567,687,0,0
350,337,0,0,0,0,0,0,0,0,0,-1,1574,687,0,0
357,337,0,0,0,0,0,0,0,0,0,-1,1581,687,0,0
364,337,0,0,0,0,0,0,0,0,0,-1,1588,687,0,0
371,337,0,0,0,0,0,0,0,0,0,-1,1595,687,0,0
378,337,0,0,0,0,0,0,0,0,0,-1,1602,687,0,0
385,337,0,0,0,0,0,0,0,0,0,-1,1609,687,0,0
392,337,0,0,0,0,0,0,0,0,0,-1,1616,687,0,0
399,337,0,0,0,0,0,0,0,0,0,-1,1623,687,0,0
406,337,0,0,0,0,0,0,0,0,0,-1,1630,687,0,0
413,337,0,0,0,0,0,0,0,0,0,-1,1637,687,0,0
420,337,0,0,0,0,0,0,0,0,0,-1,1644,687,0,0
427,337,0,0,0,0,0,0,0,0,0,-1,1651,687,0,0
434,337,0,0,0,0,0,0,0,0,0,-1,1658,687,0,0
441,337,0,0,0,0,0,0,0,0,0,-1,1665,687,0,0
448,337,0,0,0,0,0,0,0,0,0,-1,1672,687,0,0
455,337,0,0,0,0,0,0,0,0,0,-1,1679,687,0,0
462,337,0,0,0,0,0,0,0,0,0,-1,1686,687,0,0
469,337,0,0,0,0,0,0,0,0,0,-1,1693,687,0,0
476,337,0,0,0,0,0,0,0,0,0,-1,1700,687,0,0
483,337,0,0,0,0,0,0,0,0,0,-1,1707,687,0,0
490,337,0,0,0,0,0,0,0,0,0,-1,1714,687,0,0
497,337,0,0,0,0,0,0,0,0,0,-1,1721,687,0,0
504,337,0,0,0,0,0,0,0,0,0,-1,1728,687,0,0
511,337,0,0,0,0,0,0,0,0,0,-1,1735,687,0,0
518,337,18.0369,1.64581,0,0,0,0,0,0,0,-1,1742,687,18.0368,-1.64581
525,337,31.0717,2.13745,0,0,0,0,0,0,0,-1,1749,687,31.0717,-2.13747
532,337,31.5126,2.13904,0,0,0,0,0,0,0,-1,1756,687,31.5125,-2.13905
539,337,31.9684,2.15594,0,0,0,0,0,0,0,-1,1763,687,31.9684,-2.15596
546,337,32.3584,1.43719,0,0,0,0,0,0,0,-1,1770,687,32.3585,-1.43722
553,337,32.1809,1.36395,0,0,0,0,0,0,0,-1,1777,687,32.181,-1.36396
560,337,18.4053,3.62793,0,0,0,0,0,0,0,-1,1784,687,18.4052,-3.6279
567,337,11.9288,1.38776,0,0,0,0,0,0,0,-1,1791,687,11.9288,-1.38777
574,337,10.704,1.19476,0,0,0,0,0,0,0,-1,1798,687,10.704,-1.19478
581,337,8.50427,0.561768,0,0,0,0,0,0,0,-1,1805,687,8.5043,-0.561754
588,337,8.5885,-0.0536499,0,0,0,0,0,0,0,-1,1812,687,8.58844,0.0536788
595,337,13.8816,-1.70703,0,0,0,0,0,0,0,-1,1819,687,13.8816,1.70702
602,337,18.6045,-3.36768,0,0,0,0,0,0,0,-1,1826,687,18.6045,3.36766
609,337,18.6497,-2.84576,0.00221531,0.000765856,0.000738431,0.00252524,0.000455929,0.397381,0.00155397,0.0285215,1833,687,18.6496,2.84576
616,337,18.6211,-2.44855,0.00233818,0.000660505,0.000908088,0.00273558,0.00026311,0.412509,0.00174265,0.0175446,1840,687,18.6212,2.44858
623,337,18.6316,-2.07788,0.00179605,0.000529169,0.000759517,0.00215161,0.000173615,0.437831,0.00138018,0.0161517,1847,687,18.6316,2.07789
630,337,18.6135,-1.65735,0.000890311,0.000384437,0.000446353,0.00115041,0.000124336,0.52762,0.000729039,0.0198516,1854,687,18.6136,1.65737
637,337,18.6217,-1.22455,-0.000287418,-3.45626e-06,-3.33884e-05,4.16752e-07,-0.000291291,-1.45531,0.000194333,0.0165691,1861,687,18.6217,1.22455
644,337,18.6132,-0.772278,-0.00195693,-0.00031171,-0.000710556,-4.73153e-05,-0.00222132,-1.21457,0.00146536,0.0113036,1868,687,18.6131,0.772253
651,337,18.5837,-0.362732,-0.00379351,-0.000803537,-0.00149036,-0.000187564,-0.00440948,-1.17887,0.00287917,0.0101438,1875,687,18.5837,0.362728
658,337,18.5886,0.0719604,-0.00592556,-0.00143588,-0.00245798,-0.000351911,-0.00700953,-1.15545,0.00456024,0.0112902,1882,687,18.5886,-0.0719513
665,337,18.5964,0.500183,-0.00853726,-0.00234643,-0.00371459,-0.000606586,-0.0102771,-1.13276,0.00665843,0.0142974,1889,687,18.5965,-0.500171
672,337,18.5647,0.85907,-0.0116617,-0.00357452,-0.0053057,-0.000947194,-0.014289,-1.111,0.00922649,0.0256522,1896,687,18.5648,-0.859094
679,337,18.3301,1.14441,-0.0156195,-0.00535838,-0.00736797,-0.00151065,-0.0194672,-1.08953,0.012505,0.0491261,1903,687,18.3301,-1.14443
686,337,18.1959,1.52997,0,0,0,0,0,0,0,-1,1910,687,18.1959,-1.52998
693,337,16.5415,2.21411,0,0,0,0,0,0,0,-1,1917,687,16.5415,-2.2141
700,337,17.2661,2.44379,0,0,0,0,0,0,0,-1,1924,687,17.2661,-2.44378
707,337,17.3544,5.61853,0,0,0,0,0,0,0,-1,1931,687,17.3543,-5.61851
714,337,0,0,0,0,0,0,0,0,0,-1,1938,687,0,0
721,337,0,0,0,0,0,0,0,0,0,-1,1945,687,0,0
728,337,0,0,0,0,0,0,0,0,0,-1,1952,687,0,0
735,337,0,0,0,0,0,0,0,0,0,-1,1959,687,0,0
742,337,0,0,0,0,0,0,0,0,0,-1,1966,687,0,0
749,337,0,0,0,0,0,0,0,0,0,-1,1973,687,0,0
756,337,0,0,0,0,0,0,0,0,0,-1,1980,687,0,0
763,337,0,0,0,0,0,0,0,0,0,-1,1987,687,0,0
770,337,0,0,0,0,0,0,0,0,0,-1,1994,687,0,0
777,337,0,0,0,0,0,0,0,0,0,-1,2001,687,0,0
784,337,0,0,0,0,0,0,0,0,0,-1,2008,687,0,0
791,337,0,0,0,0,0,0,0,0,0,-1,2015,687,0,0
798,337,0,0,0,0,0,0,0,0,0,-1,2022,687,0,0
805,337,0,0,0,0,0,0,0,0,0,-1,2029,687,0,0
812,337,0,0,0,0,0,0,0,0,0,-1,2036,687,0,0
-700,330,0,0,0,0,0,0,0,0,0,-1,524,694,0,0
-693,330,0,0,0,0,0,0,0,0,0,-1,531,694,0,0
-686,330,0,0,0,0,0,0,0,0,0,-1,538,694,0,0
-679,330,0,0,0,0,0,0,0,0,0,-1,545,694,0,0
-672,330,0,0,0,0,0,0,0,0,0,-1,552,694,0,0
-665,330,0,0,0,0,0,0,0,0,0,-1,559,694,0,0
-658,330,0,0,0,0,0,0,0,0,0,-1,566,694,0,0
-651,330,0,0,0,0,0,0,0,0,0,-1,573,694,0,0
-644,330,0,0,0,0,0,0,0,0,0,-1,580,694,0,0
-637,330,0,0,0,0,0,0,0,0,0,-1,587,694,0,0
-630,330,0,0,0,0,0,0,0,0,0,-1,594,694,0,0
-623,330,0,0,0,0,0,0,0,0,0,-1,601,694,0,0
-616,330,0,0,0,0,0,0,0,0,0,-1,608,694,0,0
-609,330,0,0,0,0,0,0,0,0,0,-1,615,694,0,0
-602,330,0,0,0,0,0,0,0,0,0,-1,622,694,0,0
-595,330,-4.67883,1.65515,0,0,0,0,0,0,0,-1,629,694,-4.67881,-1.65515
-588,330,-8.5047,2.67346,0,0,0,0,0,0,0,-1,636,694,-8.50469,-2.67348
-581,330,-12.4227,0.947083,0,0,0,0,0,0,0,-1,643,694,-12.4227,-0.947109
-574,330,-9.02118,1.87952,0,0,0,0,0,0,0,-1,650,694,-9.02115,-1.87953
-567,330,-8.35577,0.909973,0,0,0,0,0,0,0,-1,657,694,-8.35575,-0.909945
-560,330,-11.1324,-0.27124,0,0,0,0,0,0,0,-1,664,694,-11.1324,0.27125
-553,330,-10.9804,-0.576172,0.00312114,0.00185959,0.000636787,0.00338668,0.00159405,0.395071,0.00195642,0.0487032,671,694,-10.9804,0.576149
-546,330,-10.8923,-0.992615,0.00292583,0.00207436,-0.00032234,0.00303409,0.0019661,-0.324025,0.00177713,0.0322191,678,694,-10.8923,0.992616
-539,330,-10.8723,-1.51624,0.00260962,0.0019112,-0.000684232,0.0030286,0.00149221,-0.549446,0.00174862,0.0155909,685,694,-10.8722,1.51624
-532,330,-10.9926,-1.89789,0.00224603,0.00151933,-0.000730953,0.00269896,0.0010664,-0.55474,0.00156963,0.0110826,692,694,-10.9926,1.89792
-525,330,-10.9946,-2.34192,0.0019313,0.00115861,-0.000625021,0.00227974,0.000810166,-0.508576,0.00133444,0.0104577,699,694,-10.9945,2.34191
-518,330,-10.9905,-2.73077,0.00165024,0.000764829,-0.000528924,0.00189728,0.000517788,-0.436951,0.00113243,0.0143521,706,694,-10.9905,2.73079
-511,330,-10.9897,-3.11615,0.00140968,0.000216291,-0.000315162,0.0014878,0.000138173,-0.242968,0.000949167,0.020186,713,694,-10.9897,3.11617
-504,330,-10.9793,-3.54517,0.00127857,-0.000376972,-5.95124e-05,0.00128071,-0.000379109,-0.0358855,0.00100432,0.019266,720,694,-10.9793,3.54518
-497,330,-10.9944,-3.94275,0.0012632,-0.000923492,8.64532e-05,0.00126661,-0.000926905,0.039454,0.00127148,0.013587,727,694,-10.9944,3.94273
-490,330,-10.9812,-4.3634,0.00149289,-0.00139664,7.06138e-05,0.00149461,-0.00139837,0.0244184,0.00167057,0.0134573,734,694,-10.9812,4.36338
-483,330,-10.9787,-4.77509,0.00200145,-0.00178116,-0.000107699,0.00200452,-0.00178422,-0.0284414,0.00218866,0.0137643,741,694,-10.9787,4.77509
-476,330,-10.9985,-5.16797,0.00262333,-0.00201728,-0.000526985,0.00268242,-0.00207637,-0.111665,0.00275491,0.0325549,748,694,-10.9985,5.16797
-469,330,-10.8502,-5.65259,0,0,0,0,0,0,0,-1,755,694,-10.8502,5.65259
-462,330,-7.26733,-3.84833,0,0,0,0,0,0,0,-1,762,694,-7.26731,3.84832
-455,330,-5.04254,-1.79303,0,0,0,0,0,0,0,-1,769,694,-5.04252,1.79305
-448,330,-4.89886,-1.66156,0,0,0,0,0,0,0,-1,776,694,-4.89886,1.66157
-441,330,-5.30676,-2.34045,0,0,0,0,0,0,0,-1,783,694,-5.30679,2.34048
-434,330,-7.20428,1.00024,0,0,0,0,0,0,0,-1,790,694,-7.20431,-1.00027
-427,330,-16.0428,2.89258,0,0,0,0,0,0,0,-1,797,694,-16.0428,-2.89259
-420,330,-15.2923,3.32672,0,0,0,0,0,0,0,-1,804,694,-15.2923,-3.32675
-413,330,-10.4567,2.56183,0,0,0,0,0,0,0,-1,811,694,-10.4567,-2.56182
-406,330,-1.65375,-1.74371,0,0,0,0,0,0,0,-1,818,694,-1.65375,1.74371
-399,330,0,0,0,0,0,0,0,0,0,-1,825,694,0,0
-392,330,0,0,0,0,0,0,0,0,0,-1,832,694,0,0
-385,330,0,0,0,0,0,0,0,0,0,-1,839,694,0,0
-378,330,0,0,0,0,0,0,0,0,0,-1,846,694,0,0
-371,330,0,0,0,0,0,0,0,0,0,-1,853,694,0,0
-364,330,0,0,0,0,0,0,0,0,0,-1,860,694,0,0
-357,330,0,0,0,0,0,0,0,0,0,-1,867,694,0,0
-350,330,0,0,0,0,0,0,0,0,0,-1,874,694,0,0
-343,330,0,0,0,0,0,0,0,0,0,-1,881,694,0,0
-336,330,0,0,0,0,0,0,0,0,0,-1,888,694,0,0
-329,330,0,0,0,0,0,0,0,0,0,-1,895,694,0,0
-322,330,0,0,0,0,0,0,0,0,0,-1,902,694,0,0
-315,330,0,0,0,0,0,0,0,0,0,-1,909,694,0,0
-308,330,0,0,0,0,0,0,0,0,0,-1,916,694,0,0
-301,330,0,0,0,0,0,0,0,0,0,-1,923,694,0,0
-294,330,0,0,0,0,0,0,0,0,0,-1,930,694,0,0
-287,330,0,0,0,0,0,0,0,0,0,-1,937,694,0,0
-280,330,0,0,0,0,0,0,0,0,0,-1,944,694,0,0
-273,330,0,0,0,0,0,0,0,0,0,-1,951,694,0,0
-266,330,0,0,0,0,0,0,0,0,0,-1,958,694,0,0
-259,330,0,0,0,0,0,0,0,0,0,-1,965,694,0,0
-252,330,0,0,0,0,0,0,0,0,0,-1,972,694,0,0
-245,330,0,0,0,0,0,0,0,0,0,-1,979,694,0,0
-238,330,0,0,0,0,0,0,0,0,0,-1,986,694,0,0
-231,330,0,0,0,0,0,0,0,0,0,-1,993,694,0,0
-224,330,0,0,0,0,0,0,0,0,0,-1,1000,694,0,0
-217,330,0,0,0,0,0,0,0,0,0,-1,1007,694,0,0
-210,330,0,0,0,0,0,0,0,0,0,-1,1014,694,0,0
-203,330,0,0,0,0,0,0,0,0,0,-1,1021,694,0,0
-196,330,0,0,0,0,0,0,0,0,0,-1,1028,694,0,0
-189,330,0,0,0,0,0,0,0,0,0,-1,1035,694,0,0
-182,330,0,0,0,0,0,0,0,0,0,-1,1042,694,0,0
-175,330,0,0,0,0,0,0,0,0,0,-1,1049,694,0,0
-168,330,0,0,0,0,0,0,0,0,0,-1,1056,694,0,0
-161,330,0,0,0,0,0,0,0,0,0,-1,1063,694,0,0
-154,330,0,0,0,0,0,0,0,0,0,-1,1070,694,0,0
-147,330,0,0,0,0,0,0,0,0,0,-1,1077,694,0,0
-140,330,0,0,0,0,0,0,0,0,0,-1,1084,694,0,0
-133,330,0,0,0,0,0,0,0,0,0,-1,1091,694,0,0
-126,330,0,0,0,0,0,0,0,0,0,-1,1098,694,0,0
-119,330,0,0,0,0,0,0,0,0,0,-1,1105,694,0,0
-112,330,0,0,0,0,0,0,0,0,0,-1,1112,694,0,0
-105,330,0,0,0,0,0,0,0,0,0,-1,1119,694,0,0
-98,330,0,0,0,0,0,0,0,0,0,-1,1126,694,0,0
-91,330,0,0,0,0,0,0,0,0,0,-1,1133,694,0,0
-84,330,0,0,0,0,0,0,0,0,0,-1,1140,694,0,0
-77,330,0,0,0,0,0,0,0,0,0,-1,1147,694,0,0
-70,330,0,0,0,0,0,0,0,0,0,-1,1154,694,0,0
-63,330,0,0,0,0,0,0,0,0,0,-1,1161,694,0,0
-56,330,0,0,0,0,0,0,0,0,0,-1,1168,694,0,0
-49,330,0,0,0,0,0,0,0,0,0,-1,1175,694,0,0
-42,330,0,0,0,0,0,0,0,0,0,-1,1182,694,0,0
-35,330,0,0,0,0,0,0,0,0,0,-1,1189,694,0,0
-28,330,0,0,0,0,0,0,0,0,0,-1,1196,694,0,0
-21,330,0,0,0,0,0,0,0,0,0,-1,1203,694,0,0
-14,330,0,0,0,0,0,0,0,0,0,-1,1210,694,0,0
-7,330,0,0,0,0,0,0,0,0,0,-1,1217,694,0,0
0,330,0,0,0,0,0,0,0,0,0,-1,1224,694,0,0
7,330,0,0,0,0,0,0,0,0,0,-1,1231,694,0,0
14,330,0,0,0,0,0,0,0,0,0,-1,1238,694,0,0
21,330,0,0,0,0,0,0,0,0,0,-1,1245,694,0,0
28,330,0,0,0,0,0,0,0,0,0,-1,1252,694,0,0
35,330,0,0,0,0,0,0,0,0,0,-1,1259,694,0,0
42,330,0,0,0,0,0,0,0,0,0,-1,1266,694,0,0
49,330,0,0,0,0,0,0,0,0,0,-1,1273,694,0,0
56,330,0,0,0,0,0,0,0,0,0,-1,1280,694,0,0
63,330,0,0,0,0,0,0,0,0,0,-1,1287,694,0,0
70,330,0,0,0,0,0,0,0,0,0,-1,1294,694,0,0
77,330,0,0,0,0,0,0,0,0,0,-1,1301,694,0,0
84,330,0,0,0,0,0,0,0,0,0,-1,1308,694,0,0
91,330,0,0,0,0,0,0,0,0,0,-1,1315,694,0,0
98,330,0,0,0,0,0,0,0,0,0,-1,1322,694,0,0
105,330,0,0,0,0,0,0,0,0,0,-1,1329,694,0,0
112,330,0,0,0,0,0,0,0,0,0,-1,1336,694,0,0
119,330,0,0,0,0,0,0,0,0,0,-1,1343,694,0,0
126,330,0,0,0,0,0,0,0,0,0,-1,1350,694,0,0
133,330,0,0,0,0,0,0,0,0,0,-1,1357,694,0,0
140,330,0,0,0,0,0,0,0,0,0,-1,1364,694,0,0
147,330,0,0,0,0,0,0,0,0,0,-1,1371,694,0,0
154,330,0,0,0,0,0,0,0,0,0,-1,1378,694,0,0
161,330,0,0,0,0,0,0,0,0,0,-1,1385,694,0,0
168,330,0,0,0,0,0,0,0,0,0,-1,1392,694,0,0
175,330,0,0,0,0,0,0,0,0,0,-1,1399,694,0,0
182,330,0,0,0,0,0,0,0,0,0,-1,1406,694,0,0
189,330,0,0,0,0,0,0,0,0,0,-1,1413,694,0,0
196,330,0,0,0,0,0,0,0,0,0,-1,1420,694,0,0
203,330,0,0,0,0,0,0,0,0,0,-1,1427,694,0,0
210,330,0,0,0,0,0,0,0,0,0,-1,1434,694,0,0
217,330,0,0,0,0,0,0,0,0,0,-1,1441,694,0,0
224,330,0,0,0,0,0,0,0,0,0,-1,1448,694,0,0
231,330,0,0,0,0,0,0,0,0,0,-1,1455,694,0,0
238,330,0,0,0,0,0,0,0,0,0,-1,1462,694,0,0
245,330,0,0,0,0,0,0,0,0,0,-1,1469,694,0,0
252,330,0,0,0,0,0,0,0,0,0,-1,1476,694,0,0
259,330,0,0,0,0,0,0,0,0,0,-1,1483,694,0,0
266,330,0,0,0,0,0,0,0,0,0,-1,1490,694,0,0
273,330,0,0,0,0,0,0,0,0,0,-1,1497,694,0,0
280,330,0,0,0,0,0,0,0,0,0,-1,1504,694,0,0
287,330,0,0,0,0,0,0,0,0,0,-1,1511,694,0,0
294,330,0,0,0,0,0,0,0,0,0,-1,1518,694,0,0
301,330,0,0,0,0,0,0,0,0,0,-1,1525,694,0,0
308,330,0,0,0,0,0,0,0,0,0,-1,1532,694,0,0
315,330,0,0,0,0,0,0,0,0,0,-1,1539,694,0,0
322,330,0,0,0,0,0,0,0,0,0,-1,1546,694,0,0
329,330,0,0,0,0,0,0,0,0,0,-1,1553,694,0,0
336,330,0,0,0,0,0,0,0,0,0,-1,1560,694,0,0
343,330,0,0,0,0,0,0,0,0,0,-1,1567,694,0,0
350,330,0,0,0,0,0,0,0,0,0,-1,1574,694,0,0
357,330,0,0,0,0,0,0,0,0,0,-1,1581,694,0,0
364,330,0,0,0,0,0,0,0,0,0,-1,1588,694,0,0
371,330,0,0,0,0,0,0,0,0,0,-1,1595,694,0,0
378,330,0,0,0,0,0,0,0,0,0,-1,1602,694,0,0
385,330,0,0,0,0,0,0,0,0,0,-1,1609,694,0,0
392,330,0,0,0,0,0,0,0,0,0,-1,1616,694,0,0
399,330,0,0,0,0,0,0,0,0,0,-1,1623,694,0,0
406,330,0,0,0,0,0,0,0,0,0,-1,1630,694,0,0
413,330,0,0,0,0,0,0,0,0,0,-1,1637,694,0,0
420,330,0,0,0,0,0,0,0,0,0,-1,1644,694,0,0
427,330,0,0,0,0,0,0,0,0,0,-1,1651,694,0,0
434,330,0,0,0,0,0,0,0,0,0,-1,1658,694,0,0
441,330,0,0,0,0,0,0,0,0,0,-1,1665,694,0,0
448,330,0,0,0,0,0,0,0,0,0,-1,1672,694,0,0
455,330,0,0,0,0,0,0,0,0,0,-1,1679,694,0,0
462,330,0,0,0,0,0,0,0,0,0,-1,1686,694,0,0
469,330,0,0,0,0,0,0,0,0,0,-1,1693,694,0,0
476,330,0,0,0,0,0,0,0,0,0,-1,1700,694,0,0
483,330,0,0,0,0,0,0,0,0,0,-1,1707,694,0,0
490,330,0,0,0,0,0,0,0,0,0,-1,1714,694,0,0
497,330,0,0,0,0,0,0,0,0,0,-1,1721,694,0,0
504,330,0,0,0,0,0,0,0,0,0,-1,1728,694,0,0
511,330,0,0,0,0,0,0,0,0,0,-1,1735,694,0,0
518,330,0,0,0,0,0,0,0,0,0,-1,1742,694,0,0
525,330,30.6694,0.69519,0,0,0,0,0,0,0,-1,1749,694,30.6694,-0.695206
532,330,30.9469,1.32501,0,0,0,0,0,0,0,-1,1756,694,30.9469,-1.32501
539,330,31.5155,1.62506,0,0,0,0,0,0,0,-1,1763,694,31.5155,-1.62507
546,330,31.4187,1.85651,0,0,0,0,0,0,0,-1,1770,694,31.4187,-1.85651
553,330,31.8452,1.81476,0,0,0,0,0,0,0,-1,1777,694,31.8452,-1.81475
560,330,32.2401,2.43225,0,0,0,0,0,0,0,-1,1784,694,32.2401,-2.43227
567,330,18.0321,3.98578,0,0,0,0,0,0,0,-1,1791,694,18.0321,-3.98576
574,330,12.0454,2.1662,0,0,0,0,0,0,0,-1,1798,694,12.0455,-2.16618
581,330,11.4215,4.50836,0,0,0,0,0,0,0,-1,1805,694,11.4215,-4.50837
588,330,6.45667,-0.0630493,0,0,0,0,0,0,0,-1,1812,694,6.45661,0.0630695
595,330,8.23193,-0.258484,0,0,0,0,0,0,0,-1,1819,694,8.23188,0.258459
602,330,18.7998,-3.50977,0,0,0,0,0,0,0,-1,1826,694,18.7998,3.50978
609,330,18.9575,-2.92523,0.00918191,0.000678688,-0.000241875,0.00918879,0.000671814,-0.0284144,0.00591465,0.0432201,1833,694,18.9575,2.92522
616,330,19.064,-2.47174,0.00652274,0.000543868,0.00021255,0.00653029,0.000536322,0.0354904,0.00418622,0.0116641,1840,694,19.0639,2.47173
623,330,19.0553,-2.06281,0.00428439,0.000517101,0.000194285,0.00429438,0.000507108,0.0513898,0.00270975,0.0124518,1847,694,19.0553,2.06279
630,330,19.0491,-1.61353,0.00241345,0.000280509,0.000129206,0.00242125,0.00027271,0.0602828,0.00153138,0.0132354,1854,694,19.0491,1.61353
637,330,19.058,-1.17957,0.000541332,-0.000155388,-0.000107082,0.000557418,-0.000171475,-0.14911,0.000440051,0.0130471,1861,694,19.058,1.17958
644,330,19.0465,-0.749756,-0.00140436,-0.000429714,-0.000642464,-0.00011066,-0.00172341,-1.10986,0.00111389,0.00849364,1868,694,19.0465,0.749754
651,330,19.0148,-0.329407,-0.00306302,-0.000859116,-0.00134081,-0.000225533,-0.0036966,-1.12936,0.00239277,0.0113723,1875,694,19.0147,0.329427
658,330,18.9962,0.0958862,-0.00488944,-0.00133076,-0.00212374,-0.000339478,-0.00588072,-1.13409,0.00381236,0.0115192,1882,694,18.9962,-0.0958753
665,330,18.996,0.516174,-0.00708536,-0.0020071,-0.0031363,-0.000510948,-0.00858152,-1.12568,0.00555853,0.0104899,1889,694,18.9959,-0.516169
672,330,19.0299,0.953491,-0.00960609,-0.00284266,-0.00433088,-0.0007296,-0.0117192,-1.11687,0.00758128,0.0194446,1896,694,19.0299,-0.953487
679,330,18.7897,1.31482,-0.0126462,-0.00397998,-0.00577735,-0.00109135,-0.0155349,-1.10716,0.0100126,0.0338081,1903,694,18.7897,-1.31483
686,330,18.5784,1.74237,0,0,0,0,0,0,0,-1,1910,694,18.5784,-1.74239
693,330,17.3999,2.5976,0,0,0,0,0,0,0,-1,1917,694,17.4,-2.59759
700,330,17.1072,4.13,0,0,0,0,0,0,0,-1,1924,694,17.1071,-4.13002
707,330,16.663,4.88672,0,0,0,0,0,0,0,-1,1931,694,16.6629,-4.88673
714,330,16.5454,5.80896,0,0,0,0,0,0,0,-1,1938,694,16.5454,-5.80899
721,330,0,0,0,0,0,0,0,0,0,-1,1945,694,0,0
728,330,0,0,0,0,0,0,0,0,0,-1,1952,694,0,0
735,330,0,0,0,0,0,0,0,0,0,-1,1959,694,0,0
742,330,0,0,0,0,0,0,0,0,0,-1,1966,694,0,0
749,330,0,0,0,0,0,0,0,0,0,-1,1973,694,0,0
756,330,0,0,0,0,0,0,0,0,0,-1,1980,694,0,0
763,330,0,0,0,0,0,0,0,0,0,-1,1987,694,0,0
770,330,0,0,0,0,0,0,0,0,0,-1,1994,694,0,0
777,330,0,0,0,0,0,0,0,0,0,-1,2001,694,0,0
784,330,0,0,0,0,0,0,0,0,0,-1,2008,694,0,0
791,330,0,0,0,0,0,0,0,0,0,-1,2015,694,0,0
798,330,0,0,0,0,0,0,0,0,0,-1,2022,694,0,0
805,330,0,0,0,0,0,0,0,0,0,-1,2029,694,0,0
812,330,0,0,0,0,0,0,0,0,0,-1,2036,694,0,0
-700,323,0,0,0,0,0,0,0,0,0,-1,524,701,0,0
-693,323,0,0,0,0,0,0,0,0,0,-1,531,701,0,0
-686,323,0,0,0,0,0,0,0,0,0,-1,538,701,0,0
-679,323,0,0,0,0,0,0,0,0,0,-1,545,701,0,0
-672,323,0,0,0,0,0,0,0,0,0,-1,552,701,0,0
-665,323,0,0,0,0,0,0,0,0,0,-1,559,701,0,0
-658,323,0,0,0,0,0,0,0,0,0,-1,566,701,0,0
-651,323,0,0,0,0,0,0,0,0,0,-1,573,701,0,0
-644,323,0,0,0,0,0,0,0,0,0,-1,580,701,0,0
-637,323,0,0,0,0,0,0,0,0,0,-1,587,701,0,0
-630,323,0,0,0,0,0,0,0,0,0,-1,594,701,0,0
-623,323,0,0,0,0,0,0,0,0,0,-1,601,701,0,0
-616,323,0,0,0,0,0,0,0,0,0,-1,608,701,0,0
-609,323,0,0,0,0,0,0,0,0,0,-1,615,701,0,0
-602,323,-4.15833,2.12256,0,0,0,0,0,0,0,-1,622,701,-4.1583,-2.12257
-595,323,-4.052,1.79156,0,0,0,0,0,0,0,-1,629,701,-4.05198,-1.79158
-588,323,-4.07019,1.94543,0,0,0,0,0,0,0,-1,636,701,-4.07019,-1.94542
-581,323,-6.63727,0.562805,0,0,0,0,0,0,0,-1,643,701,-6.63728,-0.56279
-574,323,-6.15887,0.426697,0,0,0,0,0,0,0,-1,650,701,-6.15887,-0.426727
-567,323,-10.0015,0.0371094,0,0,0,0,0,0,0,-1,657,701,-10.0015,-0.037126
-560,323,-11.5772,-0.509033,0,0,0,0,0,0,0,-1,664,701,-11.5772,0.509026
-553,323,-11.3922,-0.859009,0.000927283,0.0012302,0.00230736,0.00339107,-0.00123359,0.818172,0.0027652,0.0405249,671,701,-11.3922,0.859017
-546,323,-11.351,-1.12012,0.000708523,0.00114141,0.00095946,0.00190853,-5.86054e-05,0.896335,0.00129233,0.0167234,678,701,-11.351,1.12015
-539,323,-11.3595,-1.48407,0.00111528,0.00121457,0.000260768,0.00143038,0.000899475,0.87946,0.000834917,0.0143468,685,701,-11.3595,1.4841
-532,323,-11.3691,-1.90265,0.00129988,0.00102892,-7.61009e-05,0.00131979,0.00100901,-0.255892,0.000796735,0.0102367,692,701,-11.3691,1.90265
-525,323,-11.3793,-2.31152,0.00136115,0.000750767,-0.000170346,0.00140547,0.000706445,-0.254543,0.000811454,0.00781572,699,701,-11.3793,2.31152
-518,323,-11.3948,-2.69287,0.00127038,0.000255087,-0.000232441,0.00132107,0.000204403,-0.214693,0.000821103,0.00954744,706,701,-11.3949,2.69284
-511,323,-11.412,-3.09039,0.00114933,-0.00058612,-0.000109355,0.00115619,-0.000592984,-0.062682,0.00102719,0.0137137,713,701,-11.412,3.09038
-504,323,-11.4107,-3.51288,0.00115718,-0.00159407,0.000139901,0.00116428,-0.00160117,0.0506755,0.00160326,0.0155166,720,701,-11.4107,3.5129
-497,323,-11.408,-3.91119,0.00116529,-0.0027593,0.000353209,0.00119683,-0.00279084,0.0890454,0.0023628,0.012202,727,701,-11.408,3.91122
-490,323,-11.4149,-4.32202,0.00147493,-0.00410134,0.000470732,0.00151438,-0.0041408,0.0836283,0.00338036,0.0129752,734,701,-11.4149,4.32203
-483,323,-11.3943,-4.74707,0.00215675,-0.00547709,0.000491658,0.00218829,-0.00550863,0.0640524,0.00457957,0.0221096,741,701,-11.3943,4.74708
-476,323,-11.2734,-5.27582,0,0,0,0,0,0,0,-1,748,701,-11.2734,5.27582
-469,323,-8.33301,-3.64001,0,0,0,0,0,0,0,-1,755,701,-8.33298,3.64
-462,323,-5.29431,-1.45697,0,0,0,0,0,0,0,-1,762,701,-5.29431,1.45699
-455,323,-5.0658,-1.36639,0,0,0,0,0,0,0,-1,769,701,-5.06578,1.3664
-448,323,-4.91608,-1.59601,0,0,0,0,0,0,0,-1,776,701,-4.91606,1.59604
-441,323,-14.4006,0.535217,0,0,0,0,0,0,0,-1,783,701,-14.4006,-0.535203
-434,323,-15.3158,2.479,0,0,0,0,0,0,0,-1,790,701,-15.3158,-2.47898
-427,323,-15.4075,2.98248,0,0,0,0,0,0,0,-1,797,701,-15.4075,-2.98248
-420,323,-14.8839,3.49579,0,0,0,0,0,0,0,-1,804,701,-14.8839,-3.49579
-413,323,-14.0645,4.22607,0,0,0,0,0,0,0,-1,811,701,-14.0645,-4.22605
-406,323,0,0,0,0,0,0,0,0,0,-1,818,701,0,0
-399,323,0,0,0,0,0,0,0,0,0,-1,825,701,0,0
-392,323,0,0,0,0,0,0,0,0,0,-1,832,701,0,0
-385,323,0,0,0,0,0,0,0,0,0,-1,839,701,0,0
-378,323,0,0,0,0,0,0,0,0,0,-1,846,701,0,0
-371,323,0,0,0,0,0,0,0,0,0,-1,853,701,0,0
-364,323,0,0,0,0,0,0,0,0,0,-1,860,701,0,0
-357,323,0,0,0,0,0,0,0,0,0,-1,867,701,0,0
-350,323,0,0,0,0,0,0,0,0,0,-1,874,701,0,0
-343,323,0,0,0,0,0,0,0,0,0,-1,881,701,0,0
-336,323,0,0,0,0,0,0,0,0,0,-1,888,701,0,0
-329,323,0,0,0,0,0,0,0,0,0,-1,895,701,0,0
-322,323,0,0,0,0,0,0,0,0,0,-1,902,701,0,0
-315,323,0,0,0,0,0,0,0,0,0,-1,909,701,0,0
-308,323,0,0,0,0,0,0,0,0,0,-1,916,701,0,0
-301,323,0,0,0,0,0,0,0,0,0,-1,923,701,0,0
-294,323,0,0,0,0,0,0,0,0,0,-1,930,701,0,0
-287,323,0,0,0,0,0,0,0,0,0,-1,937,701,0,0
-280,323,0,0,0,0,0,0,0,0,0,-1,944,701,0,0
-273,323,0,0,0,0,0,0,0,0,0,-1,951,701,0,0
-266,323,0,0,0,0,0,0,0,0,0,-1,958,701,0,0
-259,323,0,0,0,0,0,0,0,0,0,-1,965,701,0,0
-252,323,0,0,0,0,0,0,0,0,0,-1,972,701,0,0
-245,323,0,0,0,0,0,0,0,0,0,-1,979,701,0,0
-238,323,0,0,0,0,0,0,0,0,0,-1,986,701,0,0
-231,323,0,0,0,0,0,0,0,0,0,-1,993,701,0,0
-224,323,0,0,0,0,0,0,0,0,0,-1,1000,701,0,0
-217,323,0,0,0,0,0,0,0,0,0,-1,1007,701,0,0
-210,323,0,0,0,0,0,0,0,0,0,-1,1014,701,0,0
-203,323,0,0,0,0,0,0,0,0,0,-1,1021,701,0,0
-196,323,0,0,0,0,0,0,0,0,0,-1,1028,701,0,0
-189,323,0,0,0,0,0,0,0,0,0,-1,1035,701,0,0
-182,323,0,0,0,0,0,0,0,0,0,-1,1042,701,0,0
-175,323,0,0,0,0,0,0,0,0,0,-1,1049,701,0,0
-168,323,0,0,0,0,0,0,0,0,0,-1,1056,701,0,0
-161,323,0,0,0,0,0,0,0,0,0,-1,1063,701,0,0
-154,323,0,0,0,0,0,0,0,0,0,-1,1070,701,0,0
-147,323,0,0,0,0,0,0,0,0,0,-1,1077,701,0,0
-140,323,0,0,0,0,0,0,0,0,0,-1,1084,701,0,0
-133,323,0,0,0,0,0,0,0,0,0,-1,1091,701,0,0
-126,323,0,0,0,0,0,0,0,0,0,-1,1098,701,0,0
-119,323,0,0,0,0,0,0,0,0,0,-1,1105,701,0,0
-112,323,0,0,0,0,0,0,0,0,0,-1,1112,701,0,0
-105,323,0,0,0,0,0,0,0,0,0,-1,1119,701,0,0
-98,323,0,0,0,0,0,0,0,0,0,-1,1126,701,0,0
-91,323,0,0,0,0,0,0,0,0,0,-1,1133,701,0,0
-84,323,0,0,0,0,0,0,0,0,0,-1,1140,701,0,0
-77,323,0,0,0,0,0,0,0,0,0,-1,1147,701,0,0
-70,323,0,0,0,0,0,0,0,0,0,-1,1154,701,0,0
-63,323,0,0,0,0,0,0,0,0,0,-1,1161,701,0,0
-56,323,0,0,0,0,0,0,0,0,0,-1,1168,701,0,0
-49,323,0,0,0,0,0,0,0,0,0,-1,1175,701,0,0
-42,323,0,0,0,0,0,0,0,0,0,-1,1182,701,0,0
-35,323,0,0,0,0,0,0,0,0,0,-1,1189,701,0,0
-28,323,0,0,0,0,0,0,0,0,0,-1,1196,701,0,0
-21,323,0,0,0,0,0,0,0,0,0,-1,1203,701,0,0
-14,323,0,0,0,0,0,0,0,0,0,-1,1210,701,0,0
-7,323,0,0,0,0,0,0,0,0,0,-1,1217,701,0,0
0,323,0,0,0,0,0,0,0,0,0,-1,1224,701,0,0
7,323,0,0,0,0,0,0,0,0,0,-1,1231,701,0,0
14,323,0,0,0,0,0,0,0,0,0,-1,1238,701,0,0
21,323,0,0,0,0,0,0,0,0,0,-1,1245,701,0,0
28,323,0,0,0,0,0,0,0,0,0,-1,1252,701,0,0
35,323,0,0,0,0,0,0,0,0,0,-1,1259,701,0,0
42,323,0,0,0,0,0,0,0,0,0,-1,1266,701,0,0
49,323,0,0,0,0,0,0,0,0,0,-1,1273,701,0,0
56,323,0,0,0,0,0,0,0,0,0,-1,1280,701,0,0
63,323,0,0,0,0,0,0,0,0,0,-1,1287,701,0,0
70,323,0,0,0,0,0,0,0,0,0,-1,1294,701,0,0
77,323,0,0,0,0,0,0,0,0,0,-1,1301,701,0,0
84,323,0,0,0,0,0,0,0,0,0,-1,1308,701,0,0
91,323,0,0,0,0,0,0,0,0,0,-1,1315,701,0,0
98,323,0,0,0,0,0,0,0,0,0,-1,1322,701,0,0
105,323,0,0,0,0,0,0,0,0,0,-1,1329,701,0,0
112,323,0,0,0,0,0,0,0,0,0,-1,1336,701,0,0
119,323,0,0,0,0,0,0,0,0,0,-1,1343,701,0,0
126,323,0,0,0,0,0,0,0,0,0,-1,1350,701,0,0
133,323,0,0,0,0,0,0,0,0,0,-1,1357,701,0,0
140,323,0,0,0,0,0,0,0,0,0,-1,1364,701,0,0
147,323,0,0,0,0,0,0,0,0,0,-1,1371,701,0,0
154,323,0,0,0,0,0,0,0,0,0,-1,1378,701,0,0
161,323,0,0,0,0,0,0,0,0,0,-1,1385,701,0,0
168,323,0,0,0,0,0,0,0,0,0,-1,1392,701,0,0
175,323,0,0,0,0,0,0,0,0,0,-1,1399,701,0,0
182,323,0,0,0,0,0,0,0,0,0,-1,1406,701,0,0
189,323,0,0,0,0,0,0,0,0,0,-1,1413,701,0,0
196,323,0,0,0,0,0,0,0,0,0,-1,1420,701,0,0
203,323,0,0,0,0,0,0,0,0,0,-1,1427,701,0,0
210,323,0,0,0,0,0,0,0,0,0,-1,1434,701,0,0
217,323,0,0,0,0,0,0,0,0,0,-1,1441,701,0,0
224,323,0,0,0,0,0,0,0,0,0,-1,1448,701,0,0
231,323,0,0,0,0,0,0,0,0,0,-1,1455,701,0,0
238,323,0,0,0,0,0,0,0,0,0,-1,1462,701,0,0
245,323,0,0,0,0,0,0,0,0,0,-1,1469,701,0,0
252,323,0,0,0,0,0,0,0,0,0,-1,1476,701,0,0
259,323,0,0,0,0,0,0,0,0,0,-1,1483,701,0,0
266,323,0,0,0,0,0,0,0,0,0,-1,1490,701,0,0
273,323,0,0,0,0,0,0,0,0,0,-1,1497,701,0,0
280,323,0,0,0,0,0,0,0,0,0,-1,1504,701,0,0
287,323,0,0,0,0,0,0,0,0,0,-1,1511,701,0,0
294,323,0,0,0,0,0,0,0,0,0,-1,1518,701,0,0
301,323,0,0,0,0,0,0,0,0,0,-1,1525,701,0,0
308,323,0,0,0,0,0,0,0,0,0,-1,1532,701,0,0
315,323,0,0,0,0,0,0,0,0,0,-1,1539,701,0,0
322,323,0,0,0,0,0,0,0,0,0,-1,1546,701,0,0
329,323,0,0,0,0,0,0,0,0,0,-1,1553,701,0,0
336,323,0,0,0,0,0,0,0,0,0,-1,1560,701,0,0
343,323,0,0,0,0,0,0,0,0,0,-1,1567,701,0,0
350,323,0,0,0,0,0,0,0,0,0,-1,1574,701,0,0
357,323,0,0,0,0,0,0,0,0,0,-1,1581,701,0,0
364,323,0,0,0,0,0,0,0,0,0,-1,1588,701,0,0
371,323,0,0,0,0,0,0,0,0,0,-1,1595,701,0,0
378,323,0,0,0,0,0,0,0,0,0,-1,1602,701,0,0
385,323,0,0,0,0,0,0,0,0,0,-1,1609,701,0,0
392,323,0,0,0,0,0,0,0,0,0,-1,1616,701,0,0
399,323,0,0,0,0,0,0,0,0,0,-1,1623,701,0,0
406,323,0,0,0,0,0,0,0,0,0,-1,1630,701,0,0
413,323,0,0,0,0,0,0,0,0,0,-1,1637,701,0,0
420,323,0,0,0,0,0,0,0,0,0,-1,1644,701,0,0
427,323,0,0,0,0,0,0,0,0,0,-1,1651,701,0,0
434,323,0,0,0,0,0,0,0,0,0,-1,1658,701,0,0
441,323,0,0,0,0,0,0,0,0,0,-1,1665,701,0,0
448,323,0,0,0,0,0,0,0,0,0,-1,1672,701,0,0
455,323,0,0,0,0,0,0,0,0,0,-1,1679,701,0,0
462,323,0,0,0,0,0,0,0,0,0,-1,1686,701,0,0
469,323,0,0,0,0,0,0,0,0,0,-1,1693,701,0,0
476,323,0,0,0,0,0,0,0,0,0,-1,1700,701,0,0
483,323,0,0,0,0,0,0,0,0,0,-1,1707,701,0,0
490,323,0,0,0,0,0,0,0,0,0,-1,1714,701,0,0
497,323,0,0,0,0,0,0,0,0,0,-1,1721,701,0,0
504,323,0,0,0,0,0,0,0,0,0,-1,1728,701,0,0
511,323,0,0,0,0,0,0,0,0,0,-1,1735,701,0,0
518,323,0,0,0,0,0,0,0,0,0,-1,1742,701,0,0
525,323,0,0,0,0,0,0,0,0,0,-1,1749,701,0,0
532,323,33.6193,1.69446,0,0,0,0,0,0,0,-1,1756,701,33.6193,-1.69444
539,323,32.2698,2.44037,0,0,0,0,0,0,0,-1,1763,701,32.2697,-2.44036
546,323,31.1644,3.9444,0,0,0,0,0,0,0,-1,1770,701,31.1644,-3.94438
553,323,30.2488,5.8775,0,0,0,0,0,0,0,-1,1777,701,30.2487,-5.87752
560,323,31.9149,2.33624,0,0,0,0,0,0,0,-1,1784,701,31.9149,-2.33626
567,323,32.0164,2.60754,0,0,0,0,0,0,0,-1,1791,701,32.0163,-2.60753
574,323,12.514,5.89685,0,0,0,0,0,0,0,-1,1798,701,12.5141,-5.89683
581,323,11.821,5.3476,0,0,0,0,0,0,0,-1,1805,701,11.821,-5.34762
588,323,11.7933,7.00818,0,0,0,0,0,0,0,-1,1812,701,11.7933,-7.00819
595,323,6.67847,0.06604,0,0,0,0,0,0,0,-1,1819,701,6.67841,-0.0660418
602,323,11.2856,-0.595459,0,0,0,0,0,0,0,-1,1826,701,11.2856,0.595433
609,323,19.4382,-2.88214,0,0,0,0,0,0,0,-1,1833,701,19.4383,2.88216
616,323,19.4813,-2.44598,0.0113838,0.000343794,-0.00104915,0.0114826,0.000244976,-0.0939117,0.00757474,0.0163917,1840,701,19.4813,2.44598
623,323,19.4856,-2.00842,0.00706832,0.000339378,-0.000741366,0.00714903,0.000258666,-0.108443,0.00468218,0.0131344,1847,701,19.4857,2.00843
630,323,19.4705,-1.56561,0.00407875,4.98052e-05,-0.000470927,0.00413306,-4.50737e-06,-0.114824,0.00275688,0.013638,1854,701,19.4704,1.56558
637,323,19.479,-1.14453,0.00138784,-0.000394876,-0.000324509,0.00144507,-0.000452109,-0.174574,0.00114425,0.010597,1861,701,19.479,1.14452
644,323,19.4767,-0.748596,-0.000990922,-0.000527139,-0.000591894,-0.000123333,-0.00139473,-0.972098,0.000891556,0.00808898,1868,701,19.4767,0.748575
651,323,19.447,-0.302612,-0.00236867,-0.000834199,-0.00115556,-0.000214363,-0.0029885,-1.07846,0.00192486,0.0104329,1875,701,19.447,0.302612
658,323,19.3934,0.148071,-0.0037989,-0.00111381,-0.00173484,-0.000262702,-0.00465,-1.1147,0.00301625,0.0142057,1882,701,19.3934,-0.148097
665,323,19.3885,0.545105,-0.00545687,-0.00151931,-0.0024715,-0.000328284,-0.0066479,-1.12173,0.00432666,0.0122836,1889,701,19.3886,-0.545114
672,323,19.4165,0.983643,-0.00731379,-0.00198014,-0.00329412,-0.000408661,-0.00888527,-1.12567,0.0057921,0.0116266,1896,701,19.4165,-0.983616
679,323,19.3505,1.3858,-0.00940494,-0.00255393,-0.00420655,-0.000554574,-0.0114043,-1.12711,0.00742491,0.0261013,1903,701,19.3504,-1.38579
686,323,19.4204,1.42712,-0.011918,-0.00328653,-0.00537576,-0.000708467,-0.014496,-1.12363,0.00943675,0.0450313,1910,701,19.4204,-1.42713
693,323,19.5984,1.49152,0,0,0,0,0,0,0,-1,1917,701,19.5984,-1.49153
700,323,10.7705,0.828613,0,0,0,0,0,0,0,-1,1924,701,10.7705,-0.828591
707,323,16.9005,4.79193,0,0,0,0,0,0,0,-1,1931,701,16.9005,-4.7919
714,323,16.2346,6.25958,0,0,0,0,0,0,0,-1,1938,701,16.2346,-6.25956
721,323,0,0,0,0,0,0,0,0,0,-1,1945,701,0,0
728,323,0,0,0,0,0,0,0,0,0,-1,1952,701,0,0
735,323,0,0,0,0,0,0,0,0,0,-1,1959,701,0,0
742,323,0,0,0,0,0,0,0,0,0,-1,1966,701,0,0
749,323,0,0,0,0,0,0,0,0,0,-1,1973,701,0,0
756,323,0,0,0,0,0,0,0,0,0,-1,1980,701,0,0
763,323,0,0,0,0,0,0,0,0,0,-1,1987,701,0,0
770,323,0,0,0,0,0,0,0,0,0,-1,1994,701,0,0
777,323,0,0,0,0,0,0,0,0,0,-1,2001,701,0,0
784,323,0,0,0,0,0,0,0,0,0,-1,2008,701,0,0
791,323,0,0,0,0,0,0,0,0,0,-1,2015,701,0,0
798,323,0,0,0,0,0,0,0,0,0,-1,2022,701,0,0
805,323,0,0,0,0,0,0,0,0,0,-1,2029,701,0,0
812,323,0,0,0,0,0,0,0,0,0,-1,2036,701,0,0
-700,316,0,0,0,0,0,0,0,0,0,-1,524,708,0,0
-693,316,0,0,0,0,0,0,0,0,0,-1,531,708,0,0
-686,316,0,0,0,0,0,0,0,0,0,-1,538,708,0,0
-679,316,0,0,0,0,0,0,0,0,0,-1,545,708,0,0
-672,316,0,0,0,0,0,0,0,0,0,-1,552,708,0,0
-665,316,0,0,0,0,0,0,0,0,0,-1,559,708,0,0
-658,316,0,0,0,0,0,0,0,0,0,-1,566,708,0,0
-651,316,0,0,0,0,0,0,0,0,0,-1,573,708,0,0
-644,316,0,0,0,0,0,0,0,0,0,-1,580,708,0,0
-637,316,0,0,0,0,0,0,0,0,0,-1,587,708,0,0
-630,316,0,0,0,0,0,0,0,0,0,-1,594,708,0,0
-623,316,0,0,0,0,0,0,0,0,0,-1,601,708,0,0
-616,316,0,0,0,0,0,0,0,0,0,-1,608,708,0,0
-609,316,0,0,0,0,0,0,0,0,0,-1,615,708,0,0
-602,316,-0.451782,-0.0494995,0,0,0,0,0,0,0,-1,622,708,-0.451768,0.0495022
-595,316,-3.3761,2.17188,0,0,0,0,0,0,0,-1,629,708,-3.37609,-2.17189
-588,316,-5.00177,2.60675,0,0,0,0,0,0,0,-1,636,708,-5.00175,-2.60676
-581,316,-3.94653,0.393433,0,0,0,0,0,0,0,-1,643,708,-3.94655,-0.39342
-574,316,-9.67395,1.06067,0,0,0,0,0,0,0,-1,650,708,-9.67396,-1.06065
-567,316,-10.1962,0.448425,0,0,0,0,0,0,0,-1,657,708,-10.1962,-0.448411
-560,316,-11.5394,-0.565125,0,0,0,0,0,0,0,-1,664,708,-11.5395,0.565129
-553,316,-11.6252,-0.797485,-8.62458e-05,0.00106928,0.00342745,0.00396732,-0.00298428,0.868898,0.00402687,0.0376058,671,708,-11.6253,0.797498
-546,316,-11.8037,-1.06769,-0.00078101,0.000486883,0.00195444,0.00190762,-0.00220174,0.942226,0.00237456,0.0217613,678,708,-11.8037,1.06771
-539,316,-11.7605,-1.51367,-8.75831e-06,0.000638523,0.00103566,0.00139994,-0.000770171,0.936839,0.00127038,0.0128769,685,708,-11.7605,1.51368
-532,316,-11.773,-1.90741,0.000476283,0.000533104,0.000487592,0.000993113,1.62749e-05,0.814499,0.000656717,0.0108365,692,708,-11.773,1.9074
-525,316,-11.7832,-2.29193,0.000737965,0.000162358,0.000243137,0.00082692,7.34034e-05,0.350735,0.000528514,0.00949687,699,708,-11.7832,2.29194
-518,316,-11.7706,-2.6814,0.000781818,-0.000485916,5.61088e-05,0.000784297,-0.000488394,0.0441441,0.000741379,0.00959224,706,708,-11.7706,2.68139
-511,316,-11.7902,-3.07855,0.000780744,-0.00160156,9.861e-05,0.000784819,-0.00160563,0.0412985,0.00140699,0.0109818,713,708,-11.7902,3.07856
-504,316,-11.8054,-3.49597,0.000911317,-0.00293243,0.000372289,0.000947043,-0.00296816,0.0956708,0.0023587,0.0143862,720,708,-11.8054,3.49594
-497,316,-11.8066,-3.88965,0.000905255,-0.00460487,0.00065799,0.000982739,-0.00468236,0.117219,0.00349551,0.0126275,727,708,-11.8066,3.88964
-490,316,-11.7997,-4.30481,0.00116407,-0.00659509,0.00093148,0.00127433,-0.00670534,0.117819,0.00494999,0.0153544,734,708,-11.7997,4.30479
-483,316,-11.7722,-4.75317,0,0,0,0,0,0,0,-1,741,708,-11.7722,4.75318
-476,316,-8.90894,-3.31207,0,0,0,0,0,0,0,-1,748,708,-8.90896,3.31206
-469,316,-6.24194,-1.42725,0,0,0,0,0,0,0,-1,755,708,-6.24192,1.42725
-462,316,-5.74237,-1.40039,0,0,0,0,0,0,0,-1,762,708,-5.74238,1.40039
-455,316,-5.44745,-1.21899,0,0,0,0,0,0,0,-1,769,708,-5.44746,1.21898
-448,316,-14.8945,0.655396,0,0,0,0,0,0,0,-1,776,708,-14.8946,-0.655396
-441,316,-14.9626,0.576111,0,0,0,0,0,0,0,-1,783,708,-14.9626,-0.576115
-434,316,-15.272,0.942993,0,0,0,0,0,0,0,-1,790,708,-15.272,-0.942979
-427,316,-14.6848,3.17792,0,0,0,0,0,0,0,-1,797,708,-14.6848,-3.1779
-420,316,-13.5587,2.737,0,0,0,0,0,0,0,-1,804,708,-13.5587,-2.73703
-413,316,0,0,0,0,0,0,0,0,0,-1,811,708,0,0
-406,316,0,0,0,0,0,0,0,0,0,-1,818,708,0,0
-399,316,0,0,0,0,0,0,0,0,0,-1,825,708,0,0
-392,316,0,0,0,0,0,0,0,0,0,-1,832,708,0,0
-385,316,0,0,0,0,0,0,0,0,0,-1,839,708,0,0
-378,316,0,0,0,0,0,0,0,0,0,-1,846,708,0,0
-371,316,0,0,0,0,0,0,0,0,0,-1,853,708,0,0
-364,316,0,0,0,0,0,0,0,0,0,-1,860,708,0,0
-357,316,0,0,0,0,0,0,0,0,0,-1,867,708,0,0
-350,316,0,0,0,0,0,0,0,0,0,-1,874,708,0,0
-343,316,0,0,0,0,0,0,0,0,0,-1,881,708,0,0
-336,316,0,0,0,0,0,0,0,0,0,-1,888,708,0,0
-329,316,0,0,0,0,0,0,0,0,0,-1,895,708,0,0
-322,316,0,0,0,0,0,0,0,0,0,-1,902,708,0,0
-315,316,0,0,0,0,0,0,0,0,0,-1,909,708,0,0
-308,316,0,0,0,0,0,0,0,0,0,-1,916,708,0,0
-301,316,0,0,0,0,0,0,0,0,0,-1,923,708,0,0
-294,316,0,0,0,0,0,0,0,0,0,-1,930,708,0,0
-287,316,0,0,0,0,0,0,0,0,0,-1,937,708,0,0
-280,316,0,0,0,0,0,0,0,0,0,-1,944,708,0,0
-273,316,0,0,0,0,0,0,0,0,0,-1,951,708,0,0
-266,316,0,0,0,0,0,0,0,0,0,-1,958,708,0,0
-259,316,0,0,0,0,0,0,0,0,0,-1,965,708,0,0
-252,316,0,0,0,0,0,0,0,0,0,-1,972,708,0,0
-245,316,0,0,0,0,0,0,0,0,0,-1,979,708,0,0
-238,316,0,0,0,0,0,0,0,0,0,-1,986,708,0,0
-231,316,0,0,0,0,0,0,0,0,0,-1,993,708,0,0
-224,316,0,0,0,0,0,0,0,0,0,-1,1000,708,0,0
-217,316,0,0,0,0,0,0,0,0,0,-1,1007,708,0,0
-210,316,0,0,0,0,0,0,0,0,0,-1,1014,708,0,0
-203,316,0,0,0,0,0,0,0,0,0,-1,1021,708,0,0
-196,316,0,0,0,0,0,0,0,0,0,-1,1028,708,0,0
-189,316,0,0,0,0,0,0,0,0,0,-1,1035,708,0,0
-182,316,0,0,0,0,0,0,0,0,0,-1,1042,708,0,0
-175,316,0,0,0,0,0,0,0,0,0,-1,1049,708,0,0
-168,316,0,0,0,0,0,0,0,0,0,-1,1056,708,0,0
-161,316,0,0,0,0,0,0,0,0,0,-1,1063,708,0,0
-154,316,0,0,0,0,0,0,0,0,0,-1,1070,708,0,0
-147,316,0,0,0,0,0,0,0,0,0,-1,1077,708,0,0
-140,316,0,0,0,0,0,0,0,0,0,-1,1084,708,0,0
-133,316,0,0,0,0,0,0,0,0,0,-1,1091,708,0,0
-126,316,0,0,0,0,0,0,0,0,0,-1,1098,708,0,0
-119,316,0,0,0,0,0,0,0,0,0,-1,1105,708,0,0
-112,316,0,0,0,0,0,0,0,0,0,-1,1112,708,0,0
-105,316,0,0,0,0,0,0,0,0,0,-1,1119,708,0,0
-98,316,0,0,0,0,0,0,0,0,0,-1,1126,708,0,0
-91,316,0,0,0,0,0,0,0,0,0,-1,1133,708,0,0
-84,316,0,0,0,0,0,0,0,0,0,-1,1140,708,0,0
-77,316,0,0,0,0,0,0,0,0,0,-1,1147,708,0,0
-70,316,0,0,0,0,0,0,0,0,0,-1,1154,708,0,0
-63,316,0,0,0,0,0,0,0,0,0,-1,1161,708,0,0
-56,316,0,0,0,0,0,0,0,0,0,-1,1168,708,0,0
-49,316,0,0,0,0,0,0,0,0,0,-1,1175,708,0,0
-42,316,0,0,0,0,0,0,0,0,0,-1,1182,708,0,0
-35,316,0,0,0,0,0,0,0,0,0,-1,1189,708,0,0
-28,316,0,0,0,0,0,0,0,0,0,-1,1196,708,0,0
-21,316,0,0,0,0,0,0,0,0,0,-1,1203,708,0,0
-14,316,0,0,0,0,0,0,0,0,0,-1,1210,708,0,0
-7,316,0,0,0,0,0,0,0,0,0,-1,1217,708,0,0
0,316,0,0,0,0,0,0,0,0,0,-1,1224,708,0,0
7,316,0,0,0,0,0,0,0,0,0,-1,1231,708,0,0
14,316,0,0,0,0,0,0,0,0,0,-1,1238,708,0,0
21,316,0,0,0,0,0,0,0,0,0,-1,1245,708,0,0
28,316,0,0,0,0,0,0,0,0,0,-1,1252,708,0,0
35,316,0,0,0,0,0,0,0,0,0,-1,1259,708,0,0
42,316,0,0,0,0,0,0,0,0,0,-1,1266,708,0,0
49,316,0,0,0,0,0,0,0,0,0,-1,1273,708,0,0
56,316,0,0,0,0,0,0,0,0,0,-1,1280,708,0,0
63,316,0,0,0,0,0,0,0,0,0,-1,1287,708,0,0
70,316,0,0,0,0,0,0,0,0,0,-1,1294,708,0,0
77,316,0,0,0,0,0,0,0,0,0,-1,1301,708,0,0
84,316,0,0,0,0,0,0,0,0,0,-1,1308,708,0,0
91,316,0,0,0,0,0,0,0,0,0,-1,1315,708,0,0
98,316,0,0,0,0,0,0,0,0,0,-1,1322,708,0,0
105,316,0,0,0,0,0,0,0,0,0,-1,1329,708,0,0
112,316,0,0,0,0,0,0,0,0,0,-1,1336,708,0,0
119,316,0,0,0,0,0,0,0,0,0,-1,1343,708,0,0
126,316,0,0,0,0,0,0,0,0,0,-1,1350,708,0,0
133,316,0,0,0,0,0,0,0,0,0,-1,1357,708,0,0
140,316,0,0,0,0,0,0,0,0,0,-1,1364,708,0,0
147,316,0,0,0,0,0,0,0,0,0,-1,1371,708,0,0
154,316,0,0,0,0,0,0,0,0,0,-1,1378,708,0,0
161,316,0,0,0,0,0,0,0,0,0,-1,1385,708,0,0
168,316,0,0,0,0,0,0,0,0,0,-1,1392,708,0,0
175,316,0,0,0,0,0,0,0,0,0,-1,1399,708,0,0
182,316,0,0,0,0,0,0,0,0,0,-1,1406,708,0,0
189,316,0,0,0,0,0,0,0,0,0,-1,1413,708,0,0
196,316,0,0,0,0,0,0,0,0,0,-1,1420,708,0,0
203,316,0,0,0,0,0,0,0,0,0,-1,1427,708,0,0
210,316,0,0,0,0,0,0,0,0,0,-1,1434,708,0,0
217,316,0,0,0,0,0,0,0,0,0,-1,1441,708,0,0
224,316,0,0,0,0,0,0,0,0,0,-1,1448,708,0,0
231,316,0,0,0,0,0,0,0,0,0,-1,1455,708,0,0
238,316,0,0,0,0,0,0,0,0,0,-1,1462,708,0,0
245,316,0,0,0,0,0,0,0,0,0,-1,1469,708,0,0
252,316,0,0,0,0,0,0,0,0,0,-1,1476,708,0,0
259,316,0,0,0,0,0,0,0,0,0,-1,1483,708,0,0
266,316,0,0,0,0,0,0,0,0,0,-1,1490,708,0,0
273,316,0,0,0,0,0,0,0,0,0,-1,1497,708,0,0
280,316,0,0,0,0,0,0,0,0,0,-1,1504,708,0,0
287,316,0,0,0,0,0,0,0,0,0,-1,1511,708,0,0
294,316,0,0,0,0,0,0,0,0,0,-1,1518,708,0,0
301,316,0,0,0,0,0,0,0,0,0,-1,1525,708,0,0
308,316,0,0,0,0,0,0,0,0,0,-1,1532,708,0,0
315,316,0,0,0,0,0,0,0,0,0,-1,1539,708,0,0
322,316,0,0,0,0,0,0,0,0,0,-1,1546,708,0,0
329,316,0,0,0,0,0,0,0,0,0,-1,1553,708,0,0
336,316,0,0,0,0,0,0,0,0,0,-1,1560,708,0,0
343,316,0,0,0,0,0,0,0,0,0,-1,1567,708,0,0
350,316,0,0,0,0,0,0,0,0,0,-1,1574,708,0,0
357,316,0,0,0,0,0,0,0,0,0,-1,1581,708,0,0
364,316,0,0,0,0,0,0,0,0,0,-1,1588,708,0,0
371,316,0,0,0,0,0,0,0,0,0,-1,1595,708,0,0
378,316,0,0,0,0,0,0,0,0,0,-1,1602,708,0,0
385,316,0,0,0,0,0,0,0,0,0,-1,1609,708,0,0
392,316,0,0,0,0,0,0,0,0,0,-1,1616,708,0,0
399,316,0,0,0,0,0,0,0,0,0,-1,1623,708,0,0
406,316,0,0,0,0,0,0,0,0,0,-1,1630,708,0,0
413,316,0,0,0,0,0,0,0,0,0,-1,1637,708,0,0
420,316,0,0,0,0,0,0,0,0,0,-1,1644,708,0,0
427,316,0,0,0,0,0,0,0,0,0,-1,1651,708,0,0
434,316,0,0,0,0,0,0,0,0,0,-1,1658,708,0,0
441,316,0,0,0,0,0,0,0,0,0,-1,1665,708,0,0
448,316,0,0,0,0,0,0,0,0,0,-1,1672,708,0,0
455,316,0,0,0,0,0,0,0,0,0,-1,1679,708,0,0
462,316,0,0,0,0,0,0,0,0,0,-1,1686,708,0,0
469,316,0,0,0,0,0,0,0,0,0,-1,1693,708,0,0
476,316,0,0,0,0,0,0,0,0,0,-1,1700,708,0,0
483,316,0,0,0,0,0,0,0,0,0,-1,1707,708,0,0
490,316,0,0,0,0,0,0,0,0,0,-1,1714,708,0,0
497,316,0,0,0,0,0,0,0,0,0,-1,1721,708,0,0
504,316,0,0,0,0,0,0,0,0,0,-1,1728,708,0,0
511,316,0,0,0,0,0,0,0,0,0,-1,1735,708,0,0
518,316,0,0,0,0,0,0,0,0,0,-1,1742,708,0,0
525,316,0,0,0,0,0,0,0,0,0,-1,1749,708,0,0
532,316,33.8604,0.531128,0,0,0,0,0,0,0,-1,1756,708,33.8604,-0.531151
539,316,32.5764,1.44672,0,0,0,0,0,0,0,-1,1763,708,32.5764,-1.4467
546,316,31.2839,3.05426,0,0,0,0,0,0,0,-1,1770,708,31.2839,-3.05423
553,316,30.4901,4.8869,0,0,0,0,0,0,0,-1,1777,708,30.4901,-4.88688
560,316,29.651,6.51129,0,0,0,0,0,0,0,-1,1784,708,29.651,-6.51128
567,316,31.678,2.43597,0,0,0,0,0,0,0,-1,1791,708,31.678,-2.43595
574,316,24.005,7.10864,0,0,0,0,0,0,0,-1,1798,708,24.005,-7.10867
581,316,24.6815,7.77496,0,0,0,0,0,0,0,-1,1805,708,24.6815,-7.77499
588,316,19.7659,2.90198,0,0,0,0,0,0,0,-1,1812,708,19.7659,-2.902
595,316,12.5363,1.50702,0,0,0,0,0,0,0,-1,1819,708,12.5363,-1.50701
602,316,7.79919,0.0422363,0,0,0,0,0,0,0,-1,1826,708,7.79923,-0.0422066
609,316,19.8076,-2.89398,0,0,0,0,0,0,0,-1,1833,708,19.8076,2.89401
616,316,19.9065,-2.41669,0.0129249,0.000252937,-0.00166103,0.013139,3.88296e-05,-0.128194,0.00874643,0.0215879,1840,708,19.9065,2.41671
623,316,19.9249,-1.98901,0.00784612,-2.1466e-05,-0.00140328,0.00808892,-0.000264264,-0.171326,0.00548282,0.0112728,1847,708,19.9249,1.989
630,316,19.8843,-1.57751,0.00436681,-0.000427557,-0.00111051,0.00461155,-0.00067229,-0.216911,0.00332122,0.0121156,1854,708,19.8842,1.57749
637,316,19.8871,-1.14349,0.0012187,-0.000854891,-0.000702141,0.00143408,-0.00107027,-0.297638,0.00145096,0.011767,1861,708,19.8871,1.1435
644,316,19.9003,-0.723999,-0.00139344,-0.000758387,-0.000717431,-0.000291357,-0.00186047,-0.993736,0.00115551,0.0123523,1868,708,19.9003,0.724012
651,316,19.8512,-0.297791,-0.00221835,-0.000893088,-0.00112805,-0.000247442,-0.00286399,-1.05095,0.00183242,0.0140607,1875,708,19.8512,0.297818
658,316,19.7969,0.134705,-0.00306796,-0.000940453,-0.0014796,-0.000181905,-0.00382651,-1.09706,0.00249259,0.0235037,1882,708,19.7969,-0.134692
665,316,19.7858,0.567871,-0.00404554,-0.0010536,-0.00191089,-0.000122757,-0.00497639,-1.1175,0.00327744,0.0181469,1889,708,19.7857,-0.5679
672,316,19.8274,0.971252,-0.00489636,-0.00117269,-0.00225039,-0.000113787,-0.00595525,-1.13099,0.00393279,0.0125327,1896,708,19.8274,-0.971259
679,316,19.8383,1.4248,-0.00579935,-0.00127544,-0.00260224,-8.94852e-05,-0.0069853,-1.14318,0.00462733,0.0215807,1903,708,19.8382,-1.42478
686,316,19.6945,1.69769,-0.0068708,-0.00155944,-0.0031669,-8.20947e-05,-0.00834814,-1.13431,0.00553827,0.0356569,1910,708,19.6945,-1.69767
693,316,19.5454,1.95673,0,0,0,0,0,0,0,-1,1917,708,19.5454,-1.95675
700,316,12.8749,2.89136,0,0,0,0,0,0,0,-1,1924,708,12.8748,-2.89137
707,316,15.7089,5.41486,0,0,0,0,0,0,0,-1,1931,708,15.7088,-5.41487
714,316,16.1727,5.52045,0,0,0,0,0,0,0,-1,1938,708,16.1728,-5.52042
721,316,16.7094,6.53351,0,0,0,0,0,0,0,-1,1945,708,16.7094,-6.5335
728,316,0,0,0,0,0,0,0,0,0,-1,1952,708,0,0
735,316,0,0,0,0,0,0,0,0,0,-1,1959,708,0,0
742,316,0,0,0,0,0,0,0,0,0,-1,1966,708,0,0
749,316,0,0,0,0,0,0,0,0,0,-1,1973,708,0,0
756,316,0,0,0,0,0,0,0,0,0,-1,1980,708,0,0
763,316,0,0,0,0,0,0,0,0,0,-1,1987,708,0,0
770,316,0,0,0,0,0,0,0,0,0,-1,1994,708,0,0
777,316,0,0,0,0,0,0,0,0,0,-1,2001,708,0,0
784,316,0,0,0,0,0,0,0,0,0,-1,2008,708,0,0
791,316,0,0,0,0,0,0,0,0,0,-1,2015,708,0,0
798,316,0,0,0,0,0,0,0,0,0,-1,2022,708,0,0
805,316,0,0,0,0,0,0,0,0,0,-1,2029,708,0,0
812,316,0,0,0,0,0,0,0,0,0,-1,2036,708,0,0
-700,309,0,0,0,0,0,0,0,0,0,-1,524,715,0,0
-693,309,0,0,0,0,0,0,0,0,0,-1,531,715,0,0
-686,309,0,0,0,0,0,0,0,0,0,-1,538,715,0,0
-679,309,0,0,0,0,0,0,0,0,0,-1,545,715,0,0
-672,309,0,0,0,0,0,0,0,0,0,-1,552,715,0,0
-665,309,0,0,0,0,0,0,0,0,0,-1,559,715,0,0
-658,309,0,0,0,0,0,0,0,0,0,-1,566,715,0,0
-651,309,0,0,0,0,0,0,0,0,0,-1,573,715,0,0
-644,309,0,0,0,0,0,0,0,0,0,-1,580,715,0,0
-637,309,0,0,0,0,0,0,0,0,0,-1,587,715,0,0
-630,309,0,0,0,0,0,0,0,0,0,-1,594,715,0,0
-623,309,0,0,0,0,0,0,0,0,0,-1,601,715,0,0
-616,309,0,0,0,0,0,0,0,0,0,-1,608,715,0,0
-609,309,-5.95392,-3.93689,0,0,0,0,0,0,0,-1,615,715,-5.95392,3.93686
-602,309,-4.99786,-3.31287,0,0,0,0,0,0,0,-1,622,715,-4.99786,3.31284
-595,309,-6.80847,2.4046,0,0,0,0,0,0,0,-1,629,715,-6.80845,-2.40458
-588,309,-6.08795,2.19324,0,0,0,0,0,0,0,-1,636,715,-6.08793,-2.19325
-581,309,-5.97552,1.3277,0,0,0,0,0,0,0,-1,643,715,-5.97552,-1.32769
-574,309,-8.73602,0.208435,0,0,0,0,0,0,0,-1,650,715,-8.73604,-0.208437
-567,309,-10.3909,0.85968,0,0,0,0,0,0,0,-1,657,715,-10.3909,-0.859696
-560,309,-11.5525,-0.60083,0,0,0,0,0,0,0,-1,664,715,-11.5525,0.600804
-553,309,-12.0904,-0.694031,-0.000937599,0.000740712,0.00415495,0.0041404,-0.00433728,0.885041,0.00489503,0.0381316,671,715,-12.0904,0.694027
-546,309,-12.2018,-1.07501,-0.00170258,-8.84703e-06,0.00263088,0.00190811,-0.00361954,0.941109,0.00324198,0.0187013,678,715,-12.2018,1.075
-539,309,-12.1696,-1.50073,-0.000746393,0.000166944,0.00159584,0.00137017,-0.00194962,0.924755,0.00192639,0.014518,685,715,-12.1696,1.5007
-532,309,-12.1692,-1.89044,-9.88714e-05,9.9409e-05,0.00091837,0.000923975,-0.000923437,0.839166,0.0010666,0.0121163,692,715,-12.1692,1.89046
-525,309,-12.1728,-2.29956,0.000276338,-0.000504228,0.000606984,0.000607685,-0.000835575,0.499684,0.000836722,0.0153814,699,715,-12.1728,2.29958
-518,309,-12.1769,-2.67664,0.000446505,-0.00146965,0.000373532,0.000516746,-0.00153989,0.185874,0.00123541,0.0163011,706,715,-12.1769,2.67664
-511,309,-12.1918,-3.0661,0.000584512,-0.00299097,0.000397274,0.000628122,-0.00303458,0.109334,0.00226169,0.0126818,713,715,-12.1918,3.0661
-504,309,-12.198,-3.46729,0.000781402,-0.00472171,0.000753855,0.000882802,-0.00482311,0.133706,0.00354649,0.0103801,720,715,-12.198,3.46731
-497,309,-12.1989,-3.87,0.000762927,-0.00697855,0.00115036,0.00093025,-0.00714588,0.14444,0.00510235,0.014802,727,715,-12.1989,3.87
-490,309,-12.1645,-4.26624,0.000939275,-0.00952946,0.00156812,0.00116912,-0.0097593,0.145536,0.00692886,0.0408093,734,715,-12.1645,4.26624
-483,309,-11.9009,-4.88361,0,0,0,0,0,0,0,-1,741,715,-11.9009,4.88359
-476,309,-5.29486,-1.2262,0,0,0,0,0,0,0,-1,748,715,-5.29484,1.22622
-469,309,-4.22717,-0.592896,0,0,0,0,0,0,0,-1,755,715,-4.2272,0.592905
-462,309,-10.428,2.46948,0,0,0,0,0,0,0,-1,762,715,-10.428,-2.46947
-455,309,-15.8216,0.00915527,0,0,0,0,0,0,0,-1,769,715,-15.8216,-0.00913359
-448,309,-19.2673,1.19257,0,0,0,0,0,0,0,-1,776,715,-19.2673,-1.19254
-441,309,-19.8181,1.4425,0,0,0,0,0,0,0,-1,783,715,-19.8181,-1.44249
-434,309,-15.3519,1.06873,0,0,0,0,0,0,0,-1,790,715,-15.3519,-1.06874
-427,309,-15.1996,1.32141,0,0,0,0,0,0,0,-1,797,715,-15.1996,-1.3214
-420,309,-13.3781,3.26843,0,0,0,0,0,0,0,-1,804,715,-13.3781,-3.26842
-413,309,0,0,0,0,0,0,0,0,0,-1,811,715,0,0
-406,309,0,0,0,0,0,0,0,0,0,-1,818,715,0,0
-399,309,0,0,0,0,0,0,0,0,0,-1,825,715,0,0
-392,309,0,0,0,0,0,0,0,0,0,-1,832,715,0,0
-385,309,0,0,0,0,0,0,0,0,0,-1,839,715,0,0
-378,309,0,0,0,0,0,0,0,0,0,-1,846,715,0,0
-371,309,0,0,0,0,0,0,0,0,0,-1,853,715,0,0
-364,309,0,0,0,0,0,0,0,0,0,-1,860,715,0,0
-357,309,0,0,0,0,0,0,0,0,0,-1,867,715,0,0
-350,309,0,0,0,0,0,0,0,0,0,-1,874,715,0,0
-343,309,0,0,0,0,0,0,0,0,0,-1,881,715,0,0
-336,309,0,0,0,0,0,0,0,0,0,-1,888,715,0,0
-329,309,0,0,0,0,0,0,0,0,0,-1,895,715,0,0
-322,309,0,0,0,0,0,0,0,0,0,-1,902,715,0,0
-315,309,0,0,0,0,0,0,0,0,0,-1,909,715,0,0
-308,309,0,0,0,0,0,0,0,0,0,-1,916,715,0,0
-301,309,0,0,0,0,0,0,0,0,0,-1,923,715,0,0
-294,309,0,0,0,0,0,0,0,0,0,-1,930,715,0,0
-287,309,0,0,0,0,0,0,0,0,0,-1,937,715,0,0
-280,309,0,0,0,0,0,0,0,0,0,-1,944,715,0,0
-273,309,0,0,0,0,0,0,0,0,0,-1,951,715,0,0
-266,309,0,0,0,0,0,0,0,0,0,-1,958,715,0,0
-259,309,0,0,0,0,0,0,0,0,0,-1,965,715,0,0
-252,309,0,0,0,0,0,0,0,0,0,-1,972,715,0,0
-245,309,0,0,0,0,0,0,0,0,0,-1,979,715,0,0
-238,309,0,0,0,0,0,0,0,0,0,-1,986,715,0,0
-231,309,0,0,0,0,0,0,0,0,0,-1,993,715,0,0
-224,309,0,0,0,0,0,0,0,0,0,-1,1000,715,0,0
-217,309,0,0,0,0,0,0,0,0,0,-1,1007,715,0,0
-210,309,0,0,0,0,0,0,0,0,0,-1,1014,715,0,0
-203,309,0,0,0,0,0,0,0,0,0,-1,1021,715,0,0
-196,309,0,0,0,0,0,0,0,0,0,-1,1028,715,0,0
-189,309,0,0,0,0,0,0,0,0,0,-1,1035,715,0,0
-182,309,0,0,0,0,0,0,0,0,0,-1,1042,715,0,0
-175,309,0,0,0,0,0,0,0,0,0,-1,1049,715,0,0
-168,309,0,0,0,0,0,0,0,0,0,-1,1056,715,0,0
-161,309,0,0,0,0,0,0,0,0,0,-1,1063,715,0,0
-154,309,0,0,0,0,0,0,0,0,0,-1,1070,715,0,0
-147,309,0,0,0,0,0,0,0,0,0,-1,1077,715,0,0
-140,309,0,0,0,0,0,0,0,0,0,-1,1084,715,0,0
-133,309,0,0,0,0,0,0,0,0,0,-1,1091,715,0,0
-126,309,0,0,0,0,0,0,0,0,0,-1,1098,715,0,0
-119,309,0,0,0,0,0,0,0,0,0,-1,1105,715,0,0
-112,309,0,0,0,0,0,0,0,0,0,-1,1112,715,0,0
-105,309,0,0,0,0,0,0,0,0,0,-1,1119,715,0,0
-98,309,0,0,0,0,0,0,0,0,0,-1,1126,715,0,0
-91,309,0,0,0,0,0,0,0,0,0,-1,1133,715,0,0
-84,309,0,0,0,0,0,0,0,0,0,-1,1140,715,0,0
-77,309,0,0,0,0,0,0,0,0,0,-1,1147,715,0,0
-70,309,0,0,0,0,0,0,0,0,0,-1,1154,715,0,0
-63,309,0,0,0,0,0,0,0,0,0,-1,1161,715,0,0
-56,309,0,0,0,0,0,0,0,0,0,-1,1168,715,0,0
-49,309,0,0,0,0,0,0,0,0,0,-1,1175,715,0,0
-42,309,0,0,0,0,0,0,0,0,0,-1,1182,715,0,0
-35,309,0,0,0,0,0,0,0,0,0,-1,1189,715,0,0
-28,309,0,0,0,0,0,0,0,0,0,-1,1196,715,0,0
-21,309,0,0,0,0,0,0,0,0,0,-1,1203,715,0,0
-14,309,0,0,0,0,0,0,0,0,0,-1,1210,715,0,0
-7,309,0,0,0,0,0,0,0,0,0,-1,1217,715,0,0
0,309,0,0,0,0,0,0,0,0,0,-1,1224,715,0,0
7,309,0,0,0,0,0,0,0,0,0,-1,1231,715,0,0
14,309,0,0,0,0,0,0,0,0,0,-1,1238,715,0,0
21,309,0,0,0,0,0,0,0,0,0,-1,1245,715,0,0
28,309,0,0,0,0,0,0,0,0,0,-1,1252,715,0,0
35,309,0,0,0,0,0,0,0,0,0,-1,1259,715,0,0
42,309,0,0,0,0,0,0,0,0,0,-1,1266,715,0,0
49,309,0,0,0,0,0,0,0,0,0,-1,1273,715,0,0
56,309,0,0,0,0,0,0,0,0,0,-1,1280,715,0,0
63,309,0,0,0,0,0,0,0,0,0,-1,1287,715,0,0
70,309,0,0,0,0,0,0,0,0,0,-1,1294,715,0,0
77,309,0,0,0,0,0,0,0,0,0,-1,1301,715,0,0
84,309,0,0,0,0,0,0,0,0,0,-1,1308,715,0,0
91,309,0,0,0,0,0,0,0,0,0,-1,1315,715,0,0
98,309,0,0,0,0,0,0,0,0,0,-1,1322,715,0,0
105,309,0,0,0,0,0,0,0,0,0,-1,1329,715,0,0
112,309,0,0,0,0,0,0,0,0,0,-1,1336,715,0,0
119,309,0,0,0,0,0,0,0,0,0,-1,1343,715,0,0
126,309,0,0,0,0,0,0,0,0,0,-1,1350,715,0,0
133,309,0,0,0,0,0,0,0,0,0,-1,1357,715,0,0
140,309,0,0,0,0,0,0,0,0,0,-1,1364,715,0,0
147,309,0,0,0,0,0,0,0,0,0,-1,1371,715,0,0
154,309,0,0,0,0,0,0,0,0,0,-1,1378,715,0,0
161,309,0,0,0,0,0,0,0,0,0,-1,1385,715,0,0
168,309,0,0,0,0,0,0,0,0,0,-1,1392,715,0,0
175,309,0,0,0,0,0,0,0,0,0,-1,1399,715,0,0
182,309,0,0,0,0,0,0,0,0,0,-1,1406,715,0,0
189,309,0,0,0,0,0,0,0,0,0,-1,1413,715,0,0
196,309,0,0,0,0,0,0,0,0,0,-1,1420,715,0,0
203,309,0,0,0,0,0,0,0,0,0,-1,1427,715,0,0
210,309,0,0,0,0,0,0,0,0,0,-1,1434,715,0,0
217,309,0,0,0,0,0,0,0,0,0,-1,1441,715,0,0
224,309,0,0,0,0,0,0,0,0,0,-1,1448,715,0,0
231,309,0,0,0,0,0,0,0,0,0,-1,1455,715,0,0
238,309,0,0,0,0,0,0,0,0,0,-1,1462,715,0,0
245,309,0,0,0,0,0,0,0,0,0,-1,1469,715,0,0
252,309,0,0,0,0,0,0,0,0,0,-1,1476,715,0,0
259,309,0,0,0,0,0,0,0,0,0,-1,1483,715,0,0
266,309,0,0,0,0,0,0,0,0,0,-1,1490,715,0,0
273,309,0,0,0,0,0,0,0,0,0,-1,1497,715,0,0
280,309,0,0,0,0,0,0,0,0,0,-1,1504,715,0,0
287,309,0,0,0,0,0,0,0,0,0,-1,1511,715,0,0
294,309,0,0,0,0,0,0,0,0,0,-1,1518,715,0,0
301,309,0,0,0,0,0,0,0,0,0,-1,1525,715,0,0
308,309,0,0,0,0,0,0,0,0,0,-1,1532,715,0,0
315,309,0,0,0,0,0,0,0,0,0,-1,1539,715,0,0
322,309,0,0,0,0,0,0,0,0,0,-1,1546,715,0,0
329,309,0,0,0,0,0,0,0,0,0,-1,1553,715,0,0
336,309,0,0,0,0,0,0,0,0,0,-1,1560,715,0,0
343,309,0,0,0,0,0,0,0,0,0,-1,1567,715,0,0
350,309,0,0,0,0,0,0,0,0,0,-1,1574,715,0,0
357,309,0,0,0,0,0,0,0,0,0,-1,1581,715,0,0
364,309,0,0,0,0,0,0,0,0,0,-1,1588,715,0,0
371,309,0,0,0,0,0,0,0,0,0,-1,1595,715,0,0
378,309,0,0,0,0,0,0,0,0,0,-1,1602,715,0,0
385,309,0,0,0,0,0,0,0,0,0,-1,1609,715,0,0
392,309,0,0,0,0,0,0,0,0,0,-1,1616,715,0,0
399,309,0,0,0,0,0,0,0,0,0,-1,1623,715,0,0
406,309,0,0,0,0,0,0,0,0,0,-1,1630,715,0,0
413,309,0,0,0,0,0,0,0,0,0,-1,1637,715,0,0
420,309,0,0,0,0,0,0,0,0,0,-1,1644,715,0,0
427,309,0,0,0,0,0,0,0,0,0,-1,1651,715,0,0
434,309,0,0,0,0,0,0,0,0,0,-1,1658,715,0,0
441,309,0,0,0,0,0,0,0,0,0,-1,1665,715,0,0
448,309,0,0,0,0,0,0,0,0,0,-1,1672,715,0,0
455,309,0,0,0,0,0,0,0,0,0,-1,1679,715,0,0
462,309,0,0,0,0,0,0,0,0,0,-1,1686,715,0,0
469,309,0,0,0,0,0,0,0,0,0,-1,1693,715,0,0
476,309,0,0,0,0,0,0,0,0,0,-1,1700,715,0,0
483,309,0,0,0,0,0,0,0,0,0,-1,1707,715,0,0
490,309,0,0,0,0,0,0,0,0,0,-1,1714,715,0,0
497,309,0,0,0,0,0,0,0,0,0,-1,1721,715,0,0
504,309,0,0,0,0,0,0,0,0,0,-1,1728,715,0,0
511,309,0,0,0,0,0,0,0,0,0,-1,1735,715,0,0
518,309,0,0,0,0,0,0,0,0,0,-1,1742,715,0,0
525,309,0,0,0,0,0,0,0,0,0,-1,1749,715,0,0
532,309,0,0,0,0,0,0,0,0,0,-1,1756,715,0,0
539,309,32.9092,0.469055,0,0,0,0,0,0,0,-1,1763,715,32.9092,-0.469069
546,309,31.9059,2.13855,0,0,0,0,0,0,0,-1,1770,715,31.9059,-2.13856
553,309,31.0214,4.17615,0,0,0,0,0,0,0,-1,1777,715,31.0214,-4.17615
560,309,30.699,4.74493,0,0,0,0,0,0,0,-1,1784,715,30.699,-4.7449
567,309,24.5099,5.24646,0,0,0,0,0,0,0,-1,1791,715,24.5099,-5.24643
574,309,25.0681,6.21802,0,0,0,0,0,0,0,-1,1798,715,25.0681,-6.218
581,309,25.644,7.03058,0,0,0,0,0,0,0,-1,1805,715,25.6441,-7.03056
588,309,26.2064,7.76422,0,0,0,0,0,0,0,-1,1812,715,26.2064,-7.7642
595,309,19.585,3.71558,0,0,0,0,0,0,0,-1,1819,715,19.5849,-3.71555
602,309,11.0811,3.47772,0,0,0,0,0,0,0,-1,1826,715,11.0811,-3.47772
609,309,20.1051,-2.97614,0,0,0,0,0,0,0,-1,1833,715,20.1051,2.97615
616,309,20.2673,-2.46088,0.0151311,-0.000347905,-0.00214638,0.0154232,-0.000640018,-0.135265,0.010502,0.0308427,1840,715,20.2674,2.46089
623,309,20.3457,-1.98224,0.00952592,-0.000588036,-0.00193566,0.00988371,-0.000945833,-0.182782,0.00692598,0.0111556,1847,715,20.3457,1.98221
630,309,20.2958,-1.55945,0.00563428,-0.00103127,-0.00169163,0.00603902,-0.00143601,-0.234844,0.00458034,0.0105238,1854,715,20.2957,1.55948
637,309,20.2877,-1.13232,0.00171637,-0.00139142,-0.00102381,0.00202333,-0.00169838,-0.29129,0.00215146,0.0139148,1861,715,20.2877,1.13233
644,309,20.2721,-0.707458,-0.0015839,-0.00100879,-0.000763633,-0.000480367,-0.00211232,-0.965466,0.00127854,0.0146818,1868,715,20.2721,0.707447
651,309,20.2759,-0.281372,-0.00213664,-0.000945949,-0.00105421,-0.000330597,-0.002752,-1.04244,0.001735,0.0133528,1875,715,20.2758,0.281384
658,309,20.2537,0.140259,-0.00259849,-0.000809458,-0.00128141,-0.000141231,-0.00326671,-1.09011,0.00213229,0.0189456,1882,715,20.2537,-0.140256
665,309,20.2919,0.557312,-0.00311395,-0.000721456,-0.00151564,1.31448e-05,-0.00384855,-1.11948,0.00257009,0.0171964,1889,715,20.2918,-0.557328
672,309,20.2712,0.975708,-0.00341662,-0.000620203,-0.00153973,6.14352e-05,-0.00409826,-1.15403,0.00275288,0.0146523,1896,715,20.2713,-0.975722
679,309,20.2863,1.41974,-0.00367905,-0.000422499,-0.00154303,0.00019249,-0.00429404,-1.19153,0.00292896,0.0160139,1903,715,20.2862,-1.41976
686,309,20.2059,1.86932,-0.00387563,-0.000317679,-0.0016204,0.000309684,-0.00450299,-1.2014,0.00311036,0.026303,1910,715,20.2059,-1.86935
693,309,19.7119,2.34436,-0.00327198,0.000189671,-0.00115999,0.00054243,-0.00362474,-1.27558,0.00261612,0.0436206,1917,715,19.7119,-2.34437
700,309,19.3488,2.95685,0,0,0,0,0,0,0,-1,1924,715,19.3487,-2.95683
707,309,15.6318,4.58655,0,0,0,0,0,0,0,-1,1931,715,15.6318,-4.58657
714,309,16.7573,6.68286,0,0,0,0,0,0,0,-1,1938,715,16.7574,-6.68284
721,309,16.8337,5.4458,0,0,0,0,0,0,0,-1,1945,715,16.8338,-5.44582
728,309,0,0,0,0,0,0,0,0,0,-1,1952,715,0,0
735,309,0,0,0,0,0,0,0,0,0,-1,1959,715,0,0
742,309,0,0,0,0,0,0,0,0,0,-1,1966,715,0,0
749,309,0,0,0,0,0,0,0,0,0,-1,1973,715,0,0
756,309,0,0,0,0,0,0,0,0,0,-1,1980,715,0,0
763,309,0,0,0,0,0,0,0,0,0,-1,1987,715,0,0
770,309,0,0,0,0,0,0,0,0,0,-1,1994,715,0,0
777,309,0,0,0,0,0,0,0,0,0,-1,2001,715,0,0
784,309,0,0,0,0,0,0,0,0,0,-1,2008,715,0,0
791,309,0,0,0,0,0,0,0,0,0,-1,2015,715,0,0
798,309,0,0,0,0,0,0,0,0,0,-1,2022,715,0,0
805,309,0,0,0,0,0,0,0,0,0,-1,2029,715,0,0
812,309,0,0,0,0,0,0,0,0,0,-1,2036,715,0,0
-700,302,0,0,0,0,0,0,0,0,0,-1,524,722,0,0
-693,302,0,0,0,0,0,0,0,0,0,-1,531,722,0,0
-686,302,0,0,0,0,0,0,0,0,0,-1,538,722,0,0
-679,302,0,0,0,0,0,0,0,0,0,-1,545,722,0,0
-672,302,0,0,0,0,0,0,0,0,0,-1,552,722,0,0
-665,302,0,0,0,0,0,0,0,0,0,-1,559,722,0,0
-658,302,0,0,0,0,0,0,0,0,0,-1,566,722,0,0
-651,302,0,0,0,0,0,0,0,0,0,-1,573,722,0,0
-644,302,0,0,0,0,0,0,0,0,0,-1,580,722,0,0
-637,302,0,0,0,0,0,0,0,0,0,-1,587,722,0,0
-630,302,0,0,0,0,0,0,0,0,0,-1,594,722,0,0
-623,302,0,0,0,0,0,0,0,0,0,-1,601,722,0,0
-616,302,0,0,0,0,0,0,0,0,0,-1,608,722,0,0
-609,302,-7.79266,-3.71649,0,0,0,0,0,0,0,-1,615,722,-7.79267,3.7165
-602,302,0.92865,-1.99158,0,0,0,0,0,0,0,-1,622,722,0.928637,1.99157
-595,302,-7.89941,2.13641,0,0,0,0,0,0,0,-1,629,722,-7.89939,-2.13639
-588,302,-7.10895,1.79163,0,0,0,0,0,0,0,-1,636,722,-7.10896,-1.79163
-581,302,-9.17566,1.09448,0,0,0,0,0,0,0,-1,643,722,-9.17569,-1.09445
-574,302,-11.5183,-0.344543,0,0,0,0,0,0,0,-1,650,722,-11.5183,0.344557
-567,302,-11.7428,-0.352173,0,0,0,0,0,0,0,-1,657,722,-11.7428,0.352201
-560,302,-12.2107,-0.472229,0,0,0,0,0,0,0,-1,664,722,-12.2107,0.472257
-553,302,-12.6351,-0.619141,0,0,0,0,0,0,0,-1,671,722,-12.6351,0.619112
-546,302,-12.582,-1.08716,-0.00210784,-0.000419505,0.0028741,0.00173184,-0.00425918,0.928239,0.00356003,0.0153777,678,722,-12.582,1.08716
-539,302,-12.6027,-1.45337,-0.00116531,-0.000206505,0.00187399,0.00124843,-0.00262025,0.910622,0.00227991,0.0147066,685,722,-12.6027,1.45337
-532,302,-12.58,-1.86121,-0.000483077,-0.00028064,0.00117299,0.000795491,-0.00155921,0.828437,0.00138312,0.0135734,692,722,-12.58,1.86118
-525,302,-12.581,-2.27167,-0.000142531,-0.00123333,0.000884299,0.000351033,-0.00172689,0.509072,0.00128437,0.0179707,699,722,-12.581,2.27169
-518,302,-12.6044,-2.66284,1.20947e-05,-0.00257372,0.00066865,0.000174764,-0.00273639,0.238644,0.00188522,0.0201215,706,722,-12.6043,2.66287
-511,302,-12.6064,-3.04883,0.000148627,-0.00443492,0.000696321,0.000252075,-0.00453837,0.147486,0.00311301,0.011115,713,722,-12.6065,3.04884
-504,302,-12.6002,-3.44958,0.000285227,-0.00637815,0.00109408,0.00046027,-0.0065532,0.158646,0.00453002,0.0100603,720,722,-12.6001,3.44961
-497,302,-12.619,-3.84076,0.000179716,-0.00893625,0.00151511,0.000424935,-0.00918147,0.160458,0.00626743,0.0153414,727,722,-12.619,3.84078
-490,302,-12.6453,-4.23779,0,0,0,0,0,0,0,-1,734,722,-12.6453,4.23777
-483,302,-9.53412,-3.1673,0,0,0,0,0,0,0,-1,741,722,-9.53411,3.1673
-476,302,-4.29749,-0.203491,0,0,0,0,0,0,0,-1,748,722,-4.29751,0.203464
-469,302,-12.369,1.42859,0,0,0,0,0,0,0,-1,755,722,-12.3689,-1.42857
-462,302,-17.4766,0.310791,0,0,0,0,0,0,0,-1,762,722,-17.4766,-0.310788
-455,302,-17.8736,1.4895,0,0,0,0,0,0,0,-1,769,722,-17.8736,-1.48952
-448,302,-22.1009,-0.967468,0,0,0,0,0,0,0,-1,776,722,-22.1009,0.967494
-441,302,-22.2877,-0.842041,0,0,0,0,0,0,0,-1,783,722,-22.2877,0.842065
-434,302,-22.3103,-0.695129,0,0,0,0,0,0,0,-1,790,722,-22.3103,0.695104
-427,302,-15.3611,1.80798,0,0,0,0,0,0,0,-1,797,722,-15.3611,-1.80801
-420,302,0,0,0,0,0,0,0,0,0,-1,804,722,0,0
-413,302,0,0,0,0,0,0,0,0,0,-1,811,722,0,0
-406,302,0,0,0,0,0,0,0,0,0,-1,818,722,0,0
-399,302,0,0,0,0,0,0,0,0,0,-1,825,722,0,0
-392,302,0,0,0,0,0,0,0,0,0,-1,832,722,0,0
-385,302,0,0,0,0,0,0,0,0,0,-1,839,722,0,0
-378,302,0,0,0,0,0,0,0,0,0,-1,846,722,0,0
-371,302,0,0,0,0,0,0,0,0,0,-1,853,722,0,0
-364,302,0,0,0,0,0,0,0,0,0,-1,860,722,0,0
-357,302,0,0,0,0,0,0,0,0,0,-1,867,722,0,0
-350,302,0,0,0,0,0,0,0,0,0,-1,874,722,0,0
-343,302,0,0,0,0,0,0,0,0,0,-1,881,722,0,0
-336,302,0,0,0,0,0,0,0,0,0,-1,888,722,0,0
-329,302,0,0,0,0,0,0,0,0,0,-1,895,722,0,0
-322,302,0,0,0,0,0,0,0,0,0,-1,902,722,0,0
-315,302,0,0,0,0,0,0,0,0,0,-1,909,722,0,0
-308,302,0,0,0,0,0,0,0,0,0,-1,916,722,0,0
-301,302,0,0,0,0,0,0,0,0,0,-1,923,722,0,0
-294,302,0,0,0,0,0,0,0,0,0,-1,930,722,0,0
-287,302,0,0,0,0,0,0,0,0,0,-1,937,722,0,0
-280,302,0,0,0,0,0,0,0,0,0,-1,944,722,0,0
-273,302,0,0,0,0,0,0,0,0,0,-1,951,722,0,0
-266,302,0,0,0,0,0,0,0,0,0,-1,958,722,0,0
-259,302,0,0,0,0,0,0,0,0,0,-1,965,722,0,0
-252,302,0,0,0,0,0,0,0,0,0,-1,972,722,0,0
-245,302,0,0,0,0,0,0,0,0,0,-1,979,722,0,0
-238,302,0,0,0,0,0,0,0,0,0,-1,986,722,0,0
-231,302,0,0,0,0,0,0,0,0,0,-1,993,722,0,0
-224,302,0,0,0,0,0,0,0,0,0,-1,1000,722,0,0
-217,302,0,0,0,0,0,0,0,0,0,-1,1007,722,0,0
-210,302,0,0,0,0,0,0,0,0,0,-1,1014,722,0,0
-203,302,0,0,0,0,0,0,0,0,0,-1,1021,722,0,0
-196,302,0,0,0,0,0,0,0,0,0,-1,1028,722,0,0
-189,302,0,0,0,0,0,0,0,0,0,-1,1035,722,0,0
-182,302,0,0,0,0,0,0,0,0,0,-1,1042,722,0,0
-175,302,0,0,0,0,0,0,0,0,0,-1,1049,722,0,0
-168,302,0,0,0,0,0,0,0,0,0,-1,1056,722,0,0
-161,302,0,0,0,0,0,0,0,0,0,-1,1063,722,0,0
-154,302,0,0,0,0,0,0,0,0,0,-1,1070,722,0,0
-147,302,0,0,0,0,0,0,0,0,0,-1,1077,722,0,0
-140,302,0,0,0,0,0,0,0,0,0,-1,1084,722,0,0
-133,302,0,0,0,0,0,0,0,0,0,-1,1091,722,0,0
-126,302,0,0,0,0,0,0,0,0,0,-1,1098,722,0,0
-119,302,0,0,0,0,0,0,0,0,0,-1,1105,722,0,0
-112,302,0,0,0,0,0,0,0,0,0,-1,1112,722,0,0
-105,302,0,0,0,0,0,0,0,0,0,-1,1119,722,0,0
-98,302,0,0,0,0,0,0,0,0,0,-1,1126,722,0,0
-91,302,0,0,0,0,0,0,0,0,0,-1,1133,722,0,0
-84,302,0,0,0,0,0,0,0,0,0,-1,1140,722,0,0
-77,302,0,0,0,0,0,0,0,0,0,-1,1147,722,0,0
-70,302,0,0,0,0,0,0,0,0,0,-1,1154,722,0,0
-63,302,0,0,0,0,0,0,0,0,0,-1,1161,722,0,0
-56,302,0,0,0,0,0,0,0,0,0,-1,1168,722,0,0
-49,302,0,0,0,0,0,0,0,0,0,-1,1175,722,0,0
-42,302,0,0,0,0,0,0,0,0,0,-1,1182,722,0,0
-35,302,0,0,0,0,0,0,0,0,0,-1,1189,722,0,0
-28,302,0,0,0,0,0,0,0,0,0,-1,1196,722,0,0
-21,302,0,0,0,0,0,0,0,0,0,-1,1203,722,0,0
-14,302,0,0,0,0,0,0,0,0,0,-1,1210,722,0,0
-7,302,0,0,0,0,0,0,0,0,0,-1,1217,722,0,0
0,302,0,0,0,0,0,0,0,0,0,-1,1224,722,0,0
7,302,0,0,0,0,0,0,0,0,0,-1,1231,722,0,0
14,302,0,0,0,0,0,0,0,0,0,-1,1238,722,0,0
21,302,0,0,0,0,0,0,0,0,0,-1,1245,722,0,0
28,302,0,0,0,0,0,0,0,0,0,-1,1252,722,0,0
35,302,0,0,0,0,0,0,0,0,0,-1,1259,722,0,0
42,302,0,0,0,0,0,0,0,0,0,-1,1266,722,0,0
49,302,0,0,0,0,0,0,0,0,0,-1,1273,722,0,0
56,302,0,0,0,0,0,0,0,0,0,-1,1280,722,0,0
63,302,0,0,0,0,0,0,0,0,0,-1,1287,722,0,0
70,302,0,0,0,0,0,0,0,0,0,-1,1294,722,0,0
77,302,0,0,0,0,0,0,0,0,0,-1,1301,722,0,0
84,302,0,0,0,0,0,0,0,0,0,-1,1308,722,0,0
91,302,0,0,0,0,0,0,0,0,0,-1,1315,722,0,0
98,302,0,0,0,0,0,0,0,0,0,-1,1322,722,0,0
105,302,0,0,0,0,0,0,0,0,0,-1,1329,722,0,0
112,302,0,0,0,0,0,0,0,0,0,-1,1336,722,0,0
119,302,0,0,0,0,0,0,0,0,0,-1,1343,722,0,0
126,302,0,0,0,0,0,0,0,0,0,-1,1350,722,0,0
133,302,0,0,0,0,0,0,0,0,0,-1,1357,722,0,0
140,302,0,0,0,0,0,0,0,0,0,-1,1364,722,0,0
147,302,0,0,0,0,0,0,0,0,0,-1,1371,722,0,0
154,302,0,0,0,0,0,0,0,0,0,-1,1378,722,0,0
161,302,0,0,0,0,0,0,0,0,0,-1,1385,722,0,0
168,302,0,0,0,0,0,0,0,0,0,-1,1392,722,0,0
175,302,0,0,0,0,0,0,0,0,0,-1,1399,722,0,0
182,302,0,0,0,0,0,0,0,0,0,-1,1406,722,0,0
189,302,0,0,0,0,0,0,0,0,0,-1,1413,722,0,0
196,302,0,0,0,0,0,0,0,0,0,-1,1420,722,0,0
203,302,0,0,0,0,0,0,0,0,0,-1,1427,722,0,0
210,302,0,0,0,0,0,0,0,0,0,-1,1434,722,0,0
217,302,0,0,0,0,0,0,0,0,0,-1,1441,722,0,0
224,302,0,0,0,0,0,0,0,0,0,-1,1448,722,0,0
231,302,0,0,0,0,0,0,0,0,0,-1,1455,722,0,0
238,302,0,0,0,0,0,0,0,0,0,-1,1462,722,0,0
245,302,0,0,0,0,0,0,0,0,0,-1,1469,722,0,0
252,302,0,0,0,0,0,0,0,0,0,-1,1476,722,0,0
259,302,0,0,0,0,0,0,0,0,0,-1,1483,722,0,0
266,302,0,0,0,0,0,0,0,0,0,-1,1490,722,0,0
273,302,0,0,0,0,0,0,0,0,0,-1,1497,722,0,0
280,302,0,0,0,0,0,0,0,0,0,-1,1504,722,0,0
287,302,0,0,0,0,0,0,0,0,0,-1,1511,722,0,0
294,302,0,0,0,0,0,0,0,0,0,-1,1518,722,0,0
301,302,0,0,0,0,0,0,0,0,0,-1,1525,722,0,0
308,302,0,0,0,0,0,0,0,0,0,-1,1532,722,0,0
315,302,0,0,0,0,0,0,0,0,0,-1,1539,722,0,0
322,302,0,0,0,0,0,0,0,0,0,-1,1546,722,0,0
329,302,0,0,0,0,0,0,0,0,0,-1,1553,722,0,0
336,302,0,0,0,0,0,0,0,0,0,-1,1560,722,0,0
343,302,0,0,0,0,0,0,0,0,0,-1,1567,722,0,0
350,302,0,0,0,0,0,0,0,0,0,-1,1574,722,0,0
357,302,0,0,0,0,0,0,0,0,0,-1,1581,722,0,0
364,302,0,0,0,0,0,0,0,0,0,-1,1588,722,0,0
371,302,0,0,0,0,0,0,0,0,0,-1,1595,722,0,0
378,302,0,0,0,0,0,0,0,0,0,-1,1602,722,0,0
385,302,0,0,0,0,0,0,0,0,0,-1,1609,722,0,0
392,302,0,0,0,0,0,0,0,0,0,-1,1616,722,0,0
399,302,0,0,0,0,0,0,0,0,0,-1,1623,722,0,0
406,302,0,0,0,0,0,0,0,0,0,-1,1630,722,0,0
413,302,0,0,0,0,0,0,0,0,0,-1,1637,722,0,0
420,302,0,0,0,0,0,0,0,0,0,-1,1644,722,0,0
427,302,0,0,0,0,0,0,0,0,0,-1,1651,722,0,0
434,302,0,0,0,0,0,0,0,0,0,-1,1658,722,0,0
441,302,0,0,0,0,0,0,0,0,0,-1,1665,722,0,0
448,302,0,0,0,0,0,0,0,0,0,-1,1672,722,0,0
455,302,0,0,0,0,0,0,0,0,0,-1,1679,722,0,0
462,302,0,0,0,0,0,0,0,0,0,-1,1686,722,0,0
469,302,0,0,0,0,0,0,0,0,0,-1,1693,722,0,0
476,302,0,0,0,0,0,0,0,0,0,-1,1700,722,0,0
483,302,0,0,0,0,0,0,0,0,0,-1,1707,722,0,0
490,302,0,0,0,0,0,0,0,0,0,-1,1714,722,0,0
497,302,0,0,0,0,0,0,0,0,0,-1,1721,722,0,0
504,302,0,0,0,0,0,0,0,0,0,-1,1728,722,0,0
511,302,0,0,0,0,0,0,0,0,0,-1,1735,722,0,0
518,302,0,0,0,0,0,0,0,0,0,-1,1742,722,0,0
525,302,0,0,0,0,0,0,0,0,0,-1,1749,722,0,0
532,302,0,0,0,0,0,0,0,0,0,-1,1756,722,0,0
539,302,0,0,0,0,0,0,0,0,0,-1,1763,722,0,0
546,302,32.2542,1.56293,0,0,0,0,0,0,0,-1,1770,722,32.2542,-1.56291
553,302,31.6141,3.30438,0,0,0,0,0,0,0,-1,1777,722,31.6141,-3.3044
560,302,30.5267,4.11847,0,0,0,0,0,0,0,-1,1784,722,30.5267,-4.11849
567,302,35.2604,2.52441,0,0,0,0,0,0,0,-1,1791,722,35.2604,-2.52444
574,302,26.0609,5.33057,0,0,0,0,0,0,0,-1,1798,722,26.0609,-5.33057
581,302,26.552,6.34863,0,0,0,0,0,0,0,-1,1805,722,26.552,-6.3486
588,302,26.9731,7.19983,0,0,0,0,0,0,0,-1,1812,722,26.9732,-7.19981
595,302,27.3826,8.13104,0,0,0,0,0,0,0,-1,1819,722,27.3825,-8.13102
602,302,14.7349,5.21246,0,0,0,0,0,0,0,-1,1826,722,14.7349,-5.21247
609,302,11.1578,-0.125854,0,0,0,0,0,0,0,-1,1833,722,11.1579,0.125839
616,302,20.6106,-2.49438,0,0,0,0,0,0,0,-1,1840,722,20.6106,2.4944
623,302,20.7544,-1.97076,0.0105574,-0.00142891,-0.00237477,0.0110107,-0.00188226,-0.188634,0.00804166,0.0154406,1847,722,20.7543,1.97074
630,302,20.7185,-1.54425,0.0066224,-0.0018894,-0.0022641,0.00718717,-0.00245417,-0.244456,0.00578569,0.0114956,1854,722,20.7185,1.54426
637,302,20.684,-1.1286,0.00215973,-0.00219568,-0.00137439,0.00255717,-0.00259312,-0.281493,0.00297354,0.0147706,1861,722,20.684,1.12862
644,302,20.7098,-0.707214,-0.00185819,-0.00144127,-0.000806506,-0.000816721,-0.00248274,-0.911867,0.0014611,0.0150721,1868,722,20.7099,0.707239
651,302,20.7352,-0.264282,-0.00206826,-0.00107975,-0.000938548,-0.000513267,-0.00263474,-1.02775,0.00161286,0.0140219,1875,722,20.7353,0.264283
658,302,20.7336,0.149292,-0.00208334,-0.000697011,-0.00104232,-0.000138412,-0.00264194,-1.07883,0.00171702,0.0150774,1882,722,20.7336,-0.149309
665,302,20.7067,0.550598,-0.00211968,-0.000432584,-0.00110874,0.000117019,-0.00266928,-1.11059,0.00181978,0.0147414,1889,722,20.7066,-0.550577
672,302,20.6743,0.965759,-0.00192145,-0.000154782,-0.00088765,0.000214162,-0.0022904,-1.17688,0.00160309,0.0109608,1896,722,20.6743,-0.965789
679,302,20.6794,1.40759,-0.00164885,0.000268931,-0.000662782,0.000475695,-0.00185561,-1.2684,0.00142241,0.00888399,1903,722,20.6794,-1.40757
686,302,20.7006,1.83966,-0.0011668,0.000647891,-0.000427239,0.000743446,-0.00126235,-1.35076,0.00117089,0.0160723,1910,722,20.7006,-1.83969
693,302,20.3999,2.19983,0.000130908,0.00138348,0.000295981,0.0014499,6.44896e-05,1.35005,0.000945838,0.039147,1917,722,20.3999,-2.19983
700,302,20.3522,2.45923,0,0,0,0,0,0,0,-1,1924,722,20.3522,-2.45923
707,302,16.7321,4.76685,0,0,0,0,0,0,0,-1,1931,722,16.7321,-4.76687
714,302,17.2,5.77594,0,0,0,0,0,0,0,-1,1938,722,17.2,-5.77595
721,302,17.7914,6.60394,0,0,0,0,0,0,0,-1,1945,722,17.7914,-6.60395
728,302,17.2798,4.81702,0,0,0,0,0,0,0,-1,1952,722,17.2798,-4.81703
735,302,0,0,0,0,0,0,0,0,0,-1,1959,722,0,0
742,302,0,0,0,0,0,0,0,0,0,-1,1966,722,0,0
749,302,0,0,0,0,0,0,0,0,0,-1,1973,722,0,0
756,302,0,0,0,0,0,0,0,0,0,-1,1980,722,0,0
763,302,0,0,0,0,0,0,0,0,0,-1,1987,722,0,0
770,302,0,0,0,0,0,0,0,0,0,-1,1994,722,0,0
777,302,0,0,0,0,0,0,0,0,0,-1,2001,722,0,0
784,302,0,0,0,0,0,0,0,0,0,-1,2008,722,0,0
791,302,0,0,0,0,0,0,0,0,0,-1,2015,722,0,0
798,302,0,0,0,0,0,0,0,0,0,-1,2022,722,0,0
805,302,0,0,0,0,0,0,0,0,0,-1,2029,722,0,0
812,302,0,0,0,0,0,0,0,0,0,-1,2036,722,0,0
-700,295,0,0,0,0,0,0,0,0,0,-1,524,729,0,0
-693,295,0,0,0,0,0,0,0,0,0,-1,531,729,0,0
-686,295,0,0,0,0,0,0,0,0,0,-1,538,729,0,0
-679,295,0,0,0,0,0,0,0,0,0,-1,545,729,0,0
-672,295,0,0,0,0,0,0,0,0,0,-1,552,729,0,0
-665,295,0,0,0,0,0,0,0,0,0,-1,559,729,0,0
-658,295,0,0,0,0,0,0,0,0,0,-1,566,729,0,0
-651,295,0,0,0,0,0,0,0,0,0,-1,573,729,0,0
-644,295,0,0,0,0,0,0,0,0,0,-1,580,729,0,0
-637,295,0,0,0,0,0,0,0,0,0,-1,587,729,0,0
-630,295,0,0,0,0,0,0,0,0,0,-1,594,729,0,0
-623,295,0,0,0,0,0,0,0,0,0,-1,601,729,0,0
-616,295,-13.4911,1.31738,0,0,0,0,0,0,0,-1,608,729,-13.4911,-1.3174
-609,295,-10.2864,0.832031,0,0,0,0,0,0,0,-1,615,729,-10.2863,-0.832034
-602,295,-8.19006,3.01587,0,0,0,0,0,0,0,-1,622,729,-8.19005,-3.01588
-595,295,-0.615479,-1.95447,0,0,0,0,0,0,0,-1,629,729,-0.615481,1.95445
-588,295,-7.98999,1.56903,0,0,0,0,0,0,0,-1,636,729,-7.98997,-1.56905
-581,295,-12.0404,0.150574,0,0,0,0,0,0,0,-1,643,729,-12.0404,-0.150604
-574,295,-12.1605,-0.0739746,0.027192,0.0133059,0.00755688,0.0305111,0.00998673,0.413853,0.0179624,0.0495301,650,729,-12.1605,0.0739856
-567,295,-12.3972,-0.211609,0.0118732,0.00571076,0.00686306,0.016315,0.00126899,0.574405,0.0104793,0.0482376,657,729,-12.3972,0.211617
-560,295,-12.9069,-0.278748,0.0025788,0.00201023,0.00563518,0.00793686,-0.00334783,0.760196,0.00669238,0.0289113,664,729,-12.9069,0.278727
-553,295,-12.9365,-0.689636,-0.000760925,0.000212136,0.00404164,0.00379643,-0.00434522,0.8453,0.00470414,0.0171697,671,729,-12.9365,0.689655
-546,295,-13.0037,-1.05609,-0.00185737,-0.000675626,0.00280271,0.00159782,-0.00413082,0.889288,0.0034135,0.0202579,678,729,-13.0037,1.05607
-539,295,-13.0294,-1.41974,-0.00156727,-0.000545431,0.00205041,0.00105676,-0.00316946,0.907502,0.00253961,0.0185512,685,729,-13.0294,1.41975
-532,295,-13.0027,-1.84363,-0.00164581,-0.000752566,0.00157337,0.00043634,-0.00283471,0.923692,0.00205079,0.0149486,692,729,-13.0027,1.84364
-525,295,-12.9901,-2.26257,-0.00222872,-0.00211526,0.0015342,-0.000636737,-0.00370724,0.803878,0.00228896,0.0136138,699,729,-12.9901,2.26255
-518,295,-12.9937,-2.63776,-0.002939,-0.00378102,0.00150497,-0.00179726,-0.00492275,0.649011,0.00287643,0.0106187,706,729,-12.9936,2.63775
-511,295,-12.9897,-3.02411,-0.00347199,-0.00584479,0.0016023,-0.00266468,-0.00665211,0.466722,0.00386582,0.00933994,713,729,-12.9898,3.02412
-504,295,-12.9999,-3.4267,-0.00363989,-0.00785391,0.00203769,-0.00281574,-0.00867806,0.384337,0.00511216,0.0106419,720,729,-12.9999,3.42672
-497,295,-13.0345,-3.78864,-0.00389226,-0.0105054,0.00240619,-0.00310943,-0.0112882,0.314539,0.00673273,0.0201533,727,729,-13.0346,3.78866
-490,295,-13.0733,-4.12695,0,0,0,0,0,0,0,-1,734,729,-13.0733,4.12697
-483,295,-6.84503,-0.454651,0,0,0,0,0,0,0,-1,741,729,-6.84505,0.454639
-476,295,-13.1738,-0.836243,0,0,0,0,0,0,0,-1,748,729,-13.1738,0.836223
-469,295,-24.4053,-1.35907,0,0,0,0,0,0,0,-1,755,729,-24.4053,1.35906
-462,295,-17.9293,-0.330566,0,0,0,0,0,0,0,-1,762,729,-17.9293,0.330568
-455,295,-21.8553,-0.431641,0,0,0,0,0,0,0,-1,769,729,-21.8553,0.431661
-448,295,-22.1149,-0.403748,0,0,0,0,0,0,0,-1,776,729,-22.1149,0.403755
-441,295,-22.3615,-0.338623,0,0,0,0,0,0,0,-1,783,729,-22.3615,0.338623
-434,295,-22.5533,-0.324768,0,0,0,0,0,0,0,-1,790,729,-22.5534,0.324743
-427,295,0,0,0,0,0,0,0,0,0,-1,797,729,0,0
-420,295,0,0,0,0,0,0,0,0,0,-1,804,729,0,0
-413,295,0,0,0,0,0,0,0,0,0,-1,811,729,0,0
-406,295,0,0,0,0,0,0,0,0,0,-1,818,729,0,0
-399,295,0,0,0,0,0,0,0,0,0,-1,825,729,0,0
-392,295,0,0,0,0,0,0,0,0,0,-1,832,729,0,0
-385,295,0,0,0,0,0,0,0,0,0,-1,839,729,0,0
-378,295,0,0,0,0,0,0,0,0,0,-1,846,729,0,0
-371,295,0,0,0,0,0,0,0,0,0,-1,853,729,0,0
-364,295,0,0,0,0,0,0,0,0,0,-1,860,729,0,0
-357,295,0,0,0,0,0,0,0,0,0,-1,867,729,0,0
-350,295,0,0,0,0,0,0,0,0,0,-1,874,729,0,0
-343,295,0,0,0,0,0,0,0,0,0,-1,881,729,0,0
-336,295,0,0,0,0,0,0,0,0,0,-1,888,729,0,0
-329,295,0,0,0,0,0,0,0,0,0,-1,895,729,0,0
-322,295,0,0,0,0,0,0,0,0,0,-1,902,729,0,0
-315,295,0,0,0,0,0,0,0,0,0,-1,909,729,0,0
-308,295,0,0,0,0,0,0,0,0,0,-1,916,729,0,0
-301,295,0,0,0,0,0,0,0,0,0,-1,923,729,0,0
-294,295,0,0,0,0,0,0,0,0,0,-1,930,729,0,0
-287,295,0,0,0,0,0,0,0,0,0,-1,937,729,0,0
-280,295,0,0,0,0,0,0,0,0,0,-1,944,729,0,0
-273,295,0,0,0,0,0,0,0,0,0,-1,951,729,0,0
-266,295,0,0,0,0,0,0,0,0,0,-1,958,729,0,0
-259,295,0,0,0,0,0,0,0,0,0,-1,965,729,0,0
-252,295,0,0,0,0,0,0,0,0,0,-1,972,729,0,0
-245,295,0,0,0,0,0,0,0,0,0,-1,979,729,0,0
-238,295,0,0,0,0,0,0,0,0,0,-1,986,729,0,0
-231,295,0,0,0,0,0,0,0,0,0,-1,993,729,0,0
-224,295,0,0,0,0,0,0,0,0,0,-1,1000,729,0,0
-217,295,0,0,0,0,0,0,0,0,0,-1,1007,729,0,0
-210,295,0,0,0,0,0,0,0,0,0,-1,1014,729,0,0
-203,295,0,0,0,0,0,0,0,0,0,-1,1021,729,0,0
-196,295,0,0,0,0,0,0,0,0,0,-1,1028,729,0,0
-189,295,0,0,0,0,0,0,0,0,0,-1,1035,729,0,0
-182,295,0,0,0,0,0,0,0,0,0,-1,1042,729,0,0
-175,295,0,0,0,0,0,0,0,0,0,-1,1049,729,0,0
-168,295,0,0,0,0,0,0,0,0,0,-1,1056,729,0,0
-161,295,0,0,0,0,0,0,0,0,0,-1,1063,729,0,0
-154,295,0,0,0,0,0,0,0,0,0,-1,1070,729,0,0
-147,295,0,0,0,0,0,0,0,0,0,-1,1077,729,0,0
-140,295,0,0,0,0,0,0,0,0,0,-1,1084,729,0,0
-133,295,0,0,0,0,0,0,0,0,0,-1,1091,729,0,0
-126,295,0,0,0,0,0,0,0,0,0,-1,1098,729,0,0
-119,295,0,0,0,0,0,0,0,0,0,-1,1105,729,0,0
-112,295,0,0,0,0,0,0,0,0,0,-1,1112,729,0,0
-105,295,0,0,0,0,0,0,0,0,0,-1,1119,729,0,0
-98,295,0,0,0,0,0,0,0,0,0,-1,1126,729,0,0
-91,295,0,0,0,0,0,0,0,0,0,-1,1133,729,0,0
-84,295,0,0,0,0,0,0,0,0,0,-1,1140,729,0,0
-77,295,0,0,0,0,0,0,0,0,0,-1,1147,729,0,0
-70,295,0,0,0,0,0,0,0,0,0,-1,1154,729,0,0
-63,295,0,0,0,0,0,0,0,0,0,-1,1161,729,0,0
-56,295,0,0,0,0,0,0,0,0,0,-1,1168,729,0,0
-49,295,0,0,0,0,0,0,0,0,0,-1,1175,729,0,0
-42,295,0,0,0,0,0,0,0,0,0,-1,1182,729,0,0
-35,295,0,0,0,0,0,0,0,0,0,-1,1189,729,0,0
-28,295,0,0,0,0,0,0,0,0,0,-1,1196,729,0,0
-21,295,0,0,0,0,0,0,0,0,0,-1,1203,729,0,0
-14,295,0,0,0,0,0,0,0,0,0,-1,1210,729,0,0
-7,295,0,0,0,0,0,0,0,0,0,-1,1217,729,0,0
0,295,0,0,0,0,0,0,0,0,0,-1,1224,729,0,0
7,295,0,0,0,0,0,0,0,0,0,-1,1231,729,0,0
14,295,0,0,0,0,0,0,0,0,0,-1,1238,729,0,0
21,295,0,0,0,0,0,0,0,0,0,-1,1245,729,0,0
28,295,0,0,0,0,0,0,0,0,0,-1,1252,729,0,0
35,295,0,0,0,0,0,0,0,0,0,-1,1259,729,0,0
42,295,0,0,0,0,0,0,0,0,0,-1,1266,729,0,0
49,295,0,0,0,0,0,0,0,0,0,-1,1273,729,0,0
56,295,0,0,0,0,0,0,0,0,0,-1,1280,729,0,0
63,295,0,0,0,0,0,0,0,0,0,-1,1287,729,0,0
70,295,0,0,0,0,0,0,0,0,0,-1,1294,729,0,0
77,295,0,0,0,0,0,0,0,0,0,-1,1301,729,0,0
84,295,0,0,0,0,0,0,0,0,0,-1,1308,729,0,0
91,295,0,0,0,0,0,0,0,0,0,-1,1315,729,0,0
98,295,0,0,0,0,0,0,0,0,0,-1,1322,729,0,0
105,295,0,0,0,0,0,0,0,0,0,-1,1329,729,0,0
112,295,0,0,0,0,0,0,0,0,0,-1,1336,729,0,0
119,295,0,0,0,0,0,0,0,0,0,-1,1343,729,0,0
126,295,0,0,0,0,0,0,0,0,0,-1,1350,729,0,0
133,295,0,0,0,0,0,0,0,0,0,-1,1357,729,0,0
140,295,0,0,0,0,0,0,0,0,0,-1,1364,729,0,0
147,295,0,0,0,0,0,0,0,0,0,-1,1371,729,0,0
154,295,0,0,0,0,0,0,0,0,0,-1,1378,729,0,0
161,295,0,0,0,0,0,0,0,0,0,-1,1385,729,0,0
168,295,0,0,0,0,0,0,0,0,0,-1,1392,729,0,0
175,295,0,0,0,0,0,0,0,0,0,-1,1399,729,0,0
182,295,0,0,0,0,0,0,0,0,0,-1,1406,729,0,0
189,295,0,0,0,0,0,0,0,0,0,-1,1413,729,0,0
196,295,0,0,0,0,0,0,0,0,0,-1,1420,729,0,0
203,295,0,0,0,0,0,0,0,0,0,-1,1427,729,0,0
210,295,0,0,0,0,0,0,0,0,0,-1,1434,729,0,0
217,295,0,0,0,0,0,0,0,0,0,-1,1441,729,0,0
224,295,0,0,0,0,0,0,0,0,0,-1,1448,729,0,0
231,295,0,0,0,0,0,0,0,0,0,-1,1455,729,0,0
238,295,0,0,0,0,0,0,0,0,0,-1,1462,729,0,0
245,295,0,0,0,0,0,0,0,0,0,-1,1469,729,0,0
252,295,0,0,0,0,0,0,0,0,0,-1,1476,729,0,0
259,295,0,0,0,0,0,0,0,0,0,-1,1483,729,0,0
266,295,0,0,0,0,0,0,0,0,0,-1,1490,729,0,0
273,295,0,0,0,0,0,0,0,0,0,-1,1497,729,0,0
280,295,0,0,0,0,0,0,0,0,0,-1,1504,729,0,0
287,295,0,0,0,0,0,0,0,0,0,-1,1511,729,0,0
294,295,0,0,0,0,0,0,0,0,0,-1,1518,729,0,0
301,295,0,0,0,0,0,0,0,0,0,-1,1525,729,0,0
308,295,0,0,0,0,0,0,0,0,0,-1,1532,729,0,0
315,295,0,0,0,0,0,0,0,0,0,-1,1539,729,0,0
322,295,0,0,0,0,0,0,0,0,0,-1,1546,729,0,0
329,295,0,0,0,0,0,0,0,0,0,-1,1553,729,0,0
336,295,0,0,0,0,0,0,0,0,0,-1,1560,729,0,0
343,295,0,0,0,0,0,0,0,0,0,-1,1567,729,0,0
350,295,0,0,0,0,0,0,0,0,0,-1,1574,729,0,0
357,295,0,0,0,0,0,0,0,0,0,-1,1581,729,0,0
364,295,0,0,0,0,0,0,0,0,0,-1,1588,729,0,0
371,295,0,0,0,0,0,0,0,0,0,-1,1595,729,0,0
378,295,0,0,0,0,0,0,0,0,0,-1,1602,729,0,0
385,295,0,0,0,0,0,0,0,0,0,-1,1609,729,0,0
392,295,0,0,0,0,0,0,0,0,0,-1,1616,729,0,0
399,295,0,0,0,0,0,0,0,0,0,-1,1623,729,0,0
406,295,0,0,0,0,0,0,0,0,0,-1,1630,729,0,0
413,295,0,0,0,0,0,0,0,0,0,-1,1637,729,0,0
420,295,0,0,0,0,0,0,0,0,0,-1,1644,729,0,0
427,295,0,0,0,0,0,0,0,0,0,-1,1651,729,0,0
434,295,0,0,0,0,0,0,0,0,0,-1,1658,729,0,0
441,295,0,0,0,0,0,0,0,0,0,-1,1665,729,0,0
448,295,0,0,0,0,0,0,0,0,0,-1,1672,729,0,0
455,295,0,0,0,0,0,0,0,0,0,-1,1679,729,0,0
462,295,0,0,0,0,0,0,0,0,0,-1,1686,729,0,0
469,295,0,0,0,0,0,0,0,0,0,-1,1693,729,0,0
476,295,0,0,0,0,0,0,0,0,0,-1,1700,729,0,0
483,295,0,0,0,0,0,0,0,0,0,-1,1707,729,0,0
490,295,0,0,0,0,0,0,0,0,0,-1,1714,729,0,0
497,295,0,0,0,0,0,0,0,0,0,-1,1721,729,0,0
504,295,0,0,0,0,0,0,0,0,0,-1,1728,729,0,0
511,295,0,0,0,0,0,0,0,0,0,-1,1735,729,0,0
518,295,0,0,0,0,0,0,0,0,0,-1,1742,729,0,0
525,295,0,0,0,0,0,0,0,0,0,-1,1749,729,0,0
532,295,0,0,0,0,0,0,0,0,0,-1,1756,729,0,0
539,295,0,0,0,0,0,0,0,0,0,-1,1763,729,0,0
546,295,32.6044,1.65704,0,0,0,0,0,0,0,-1,1770,729,32.6043,-1.65703
553,295,31.6449,2.58362,0,0,0,0,0,0,0,-1,1777,729,31.6449,-2.58361
560,295,34.8625,2.01556,0,0,0,0,0,0,0,-1,1784,729,34.8625,-2.01557
567,295,34.8873,2.57825,0,0,0,0,0,0,0,-1,1791,729,34.8874,-2.57825
574,295,34.9122,3.14093,0,0,0,0,0,0,0,-1,1798,729,34.9122,-3.14093
581,295,27.9486,4.94354,0,0,0,0,0,0,0,-1,1805,729,27.9486,-4.94353
588,295,27.4762,6.37732,0,0,0,0,0,0,0,-1,1812,729,27.4762,-6.37732
595,295,27.2102,6.99121,0,0,0,0,0,0,0,-1,1819,729,27.2103,-6.99121
602,295,26.9065,7.82141,0,0,0,0,0,0,0,-1,1826,729,26.9064,-7.8214
609,295,11.7737,2.19989,0,0,0,0,0,0,0,-1,1833,729,11.7736,-2.19988
616,295,21.1609,-2.27161,0,0,0,0,0,0,0,-1,1840,729,21.1609,2.2716
623,295,21.1454,-1.91602,0.0115816,-0.00206532,-0.00256013,0.0120461,-0.00252979,-0.179471,0.00899337,0.0344334,1847,729,21.1454,1.91599
630,295,21.1434,-1.53345,0.00761389,-0.00260115,-0.00258161,0.00822926,-0.00321652,-0.234,0.0068162,0.0129863,1854,729,21.1435,1.53342
637,295,21.1252,-1.11511,0.00270425,-0.00296383,-0.00157157,0.00311083,-0.0033704,-0.253158,0.00374294,0.014109,1861,729,21.1252,1.11508
644,295,21.1456,-0.695007,-0.002146,-0.00191728,-0.000789704,-0.0012337,-0.00282958,-0.857305,0.00163812,0.0129436,1868,729,21.1457,0.69501
651,295,21.1418,-0.271484,-0.00213201,-0.00125901,-0.000814905,-0.000771062,-0.00261996,-1.03128,0.00155471,0.0124129,1875,729,21.1419,0.271468
658,295,21.1019,0.154358,-0.00176309,-0.000625564,-0.000835039,-0.00018399,-0.00220466,-1.08437,0.00141245,0.012487,1882,729,21.1019,-0.154353
665,295,21.0852,0.57251,-0.00137009,-0.000217089,-0.000759008,0.000159536,-0.00174671,-1.11019,0.00122113,0.0118777,1889,729,21.0853,-0.572518
672,295,21.073,0.987488,-0.000738712,0.000214302,-0.000329755,0.000317275,-0.000841685,-1.26812,0.000691582,0.0129803,1896,729,21.0729,-0.987507
679,295,21.0804,1.42407,-5.76936e-06,0.000806697,6.55414e-05,0.000811951,-1.10226e-05,1.49082,0.000545012,0.0100673,1903,729,21.0805,-1.42406
686,295,21.1036,1.8288,0.00102407,0.00138388,0.000538414,0.00177165,0.0006363,0.946634,0.0010363,0.00992847,1910,729,21.1037,-1.8288
693,295,21.0576,2.23291,0.00283799,0.00223107,0.00140996,0.00397678,0.00109228,0.679401,0.00237244,0.0329128,1917,729,21.0577,-2.23293
700,295,21.1312,2.7793,0.00619926,0.00339237,0.00300991,0.00811684,0.00147479,0.567246,0.00499277,0.0460696,1924,729,21.1313,-2.77932
707,295,21.7267,3.53912,0,0,0,0,0,0,0,-1,1931,729,21.7267,-3.53914
714,295,17.4906,4.63068,0,0,0,0,0,0,0,-1,1938,729,17.4906,-4.63066
721,295,18.3792,5.32281,0,0,0,0,0,0,0,-1,1945,729,18.3791,-5.32283
728,295,17.379,3.74866,0,0,0,0,0,0,0,-1,1952,729,17.379,-3.74863
735,295,0,0,0,0,0,0,0,0,0,-1,1959,729,0,0
742,295,0,0,0,0,0,0,0,0,0,-1,1966,729,0,0
749,295,0,0,0,0,0,0,0,0,0,-1,1973,729,0,0
756,295,0,0,0,0,0,0,0,0,0,-1,1980,729,0,0
763,295,0,0,0,0,0,0,0,0,0,-1,1987,729,0,0
770,295,0,0,0,0,0,0,0,0,0,-1,1994,729,0,0
777,295,0,0,0,0,0,0,0,0,0,-1,2001,729,0,0
784,295,0,0,0,0,0,0,0,0,0,-1,2008,729,0,0
791,295,0,0,0,0,0,0,0,0,0,-1,2015,729,0,0
798,295,0,0,0,0,0,0,0,0,0,-1,2022,729,0,0
805,295,0,0,0,0,0,0,0,0,0,-1,2029,729,0,0
812,295,0,0,0,0,0,0,0,0,0,-1,2036,729,0,0
-700,288,0,0,0,0,0,0,0,0,0,-1,524,736,0,0
-693,288,0,0,0,0,0,0,0,0,0,-1,531,736,0,0
-686,288,0,0,0,0,0,0,0,0,0,-1,538,736,0,0
-679,288,0,0,0,0,0,0,0,0,0,-1,545,736,0,0
-672,288,0,0,0,0,0,0,0,0,0,-1,552,736,0,0
-665,288,0,0,0,0,0,0,0,0,0,-1,559,736,0,0
-658,288,0,0,0,0,0,0,0,0,0,-1,566,736,0,0
-651,288,0,0,0,0,0,0,0,0,0,-1,573,736,0,0
-644,288,0,0,0,0,0,0,0,0,0,-1,580,736,0,0
-637,288,0,0,0,0,0,0,0,0,0,-1,587,736,0,0
-630,288,0,0,0,0,0,0,0,0,0,-1,594,736,0,0
-623,288,0,0,0,0,0,0,0,0,0,-1,601,736,0,0
-616,288,-11.7584,2.4425,0,0,0,0,0,0,0,-1,608,736,-11.7584,-2.44251
-609,288,-10.3007,2.32178,0,0,0,0,0,0,0,-1,615,736,-10.3007,-2.32178
-602,288,-10.1458,-1.85559,0,0,0,0,0,0,0,-1,622,736,-10.1458,1.85556
-595,288,-7.63208,1.81769,0,0,0,0,0,0,0,-1,629,736,-7.63205,-1.81766
-588,288,-8.19269,1.50598,0,0,0,0,0,0,0,-1,636,736,-8.19268,-1.50601
-581,288,-13.1915,0.659241,0,0,0,0,0,0,0,-1,643,736,-13.1915,-0.659228
-574,288,-13.0725,0.375488,0.0259026,0.0130517,0.00635992,0.0285179,0.0104364,0.390135,0.0166609,0.0481063,650,736,-13.0725,-0.375461
-567,288,-13.1532,0.046875,0.0114266,0.00579437,0.0058994,0.0151475,0.00207339,0.562715,0.00948308,0.0313271,657,736,-13.1532,-0.0469
-560,288,-13.3513,-0.302368,0.00227831,0.00209429,0.00499355,0.0071807,-0.00280811,0.776186,0.00594837,0.0150551,664,736,-13.3513,0.302355
-553,288,-13.3482,-0.644592,-0.000935041,0.000234039,0.00367121,0.00336695,-0.00406796,0.864347,0.0042989,0.017534,671,736,-13.3482,0.644576
-546,288,-13.3735,-1.02087,-0.00230646,-0.000779452,0.00271812,0.00128036,-0.00436627,0.922317,0.00341851,0.0191817,678,736,-13.3734,1.0209
-539,288,-13.3848,-1.42188,-0.00265486,-0.000826622,0.00231747,0.000750504,-0.00423199,0.973253,0.0031019,0.0169057,685,736,-13.3848,1.42186
-532,288,-13.3558,-1.83679,-0.00346072,-0.00125802,0.00220455,0.000104978,-0.00482372,1.01705,0.00325137,0.0141154,692,736,-13.3559,1.83677
-525,288,-13.3615,-2.25677,-0.0048361,-0.00298059,0.00255839,-0.00118693,-0.00662976,0.95934,0.00408213,0.0126828,699,736,-13.3614,2.25679
-518,288,-13.384,-2.63721,-0.00617295,-0.00484419,0.00281706,-0.00261423,-0.00840291,0.901203,0.00496548,0.0115714,706,736,-13.384,2.63722
-511,288,-13.3906,-3.01807,-0.00700602,-0.00697636,0.00303541,-0.00395574,-0.0100266,0.787841,0.00583166,0.00877078,713,736,-13.3906,3.01809
-504,288,-13.4018,-3.41772,-0.00716314,-0.00894578,0.00352024,-0.00442313,-0.0116858,0.661405,0.00681286,0.0105456,720,736,-13.4018,3.4177
-497,288,-13.4021,-3.67242,-0.00715322,-0.0115699,0.00383985,-0.00493198,-0.0137912,0.524439,0.00806922,0.0293565,727,736,-13.4021,3.67245
-490,288,-13.3165,-3.87592,0,0,0,0,0,0,0,-1,734,736,-13.3165,3.87594
-483,288,-17.3287,0.564758,0,0,0,0,0,0,0,-1,741,736,-17.3287,-0.56477
-476,288,-23.9319,-1.89484,0,0,0,0,0,0,0,-1,748,736,-23.9319,1.89483
-469,288,-24.4758,-0.463806,0,0,0,0,0,0,0,-1,755,736,-24.4758,0.463781
-462,288,-24.3629,0.140381,0,0,0,0,0,0,0,-1,762,736,-24.3629,-0.140365
-455,288,-24.1045,0.151123,0,0,0,0,0,0,0,-1,769,736,-24.1045,-0.151101
-448,288,-22.1017,0.155273,0,0,0,0,0,0,0,-1,776,736,-22.1017,-0.155287
-441,288,-22.4634,0.303162,0,0,0,0,0,0,0,-1,783,736,-22.4635,-0.303158
-434,288,-22.8825,0.392578,0,0,0,0,0,0,0,-1,790,736,-22.8825,-0.392573
-427,288,0,0,0,0,0,0,0,0,0,-1,797,736,0,0
-420,288,0,0,0,0,0,0,0,0,0,-1,804,736,0,0
-413,288,0,0,0,0,0,0,0,0,0,-1,811,736,0,0
-406,288,0,0,0,0,0,0,0,0,0,-1,818,736,0,0
-399,288,0,0,0,0,0,0,0,0,0,-1,825,736,0,0
-392,288,0,0,0,0,0,0,0,0,0,-1,832,736,0,0
-385,288,0,0,0,0,0,0,0,0,0,-1,839,736,0,0
-378,288,0,0,0,0,0,0,0,0,0,-1,846,736,0,0
-371,288,0,0,0,0,0,0,0,0,0,-1,853,736,0,0
-364,288,0,0,0,0,0,0,0,0,0,-1,860,736,0,0
-357,288,0,0,0,0,0,0,0,0,0,-1,867,736,0,0
-350,288,0,0,0,0,0,0,0,0,0,-1,874,736,0,0
-343,288,0,0,0,0,0,0,0,0,0,-1,881,736,0,0
-336,288,0,0,0,0,0,0,0,0,0,-1,888,736,0,0
-329,288,0,0,0,0,0,0,0,0,0,-1,895,736,0,0
-322,288,0,0,0,0,0,0,0,0,0,-1,902,736,0,0
-315,288,0,0,0,0,0,0,0,0,0,-1,909,736,0,0
-308,288,0,0,0,0,0,0,0,0,0,-1,916,736,0,0
-301,288,0,0,0,0,0,0,0,0,0,-1,923,736,0,0
-294,288,0,0,0,0,0,0,0,0,0,-1,930,736,0,0
-287,288,0,0,0,0,0,0,0,0,0,-1,937,736,0,0
-280,288,0,0,0,0,0,0,0,0,0,-1,944,736,0,0
-273,288,0,0,0,0,0,0,0,0,0,-1,951,736,0,0
-266,288,0,0,0,0,0,0,0,0,0,-1,958,736,0,0
-259,288,0,0,0,0,0,0,0,0,0,-1,965,736,0,0
-252,288,0,0,0,0,0,0,0,0,0,-1,972,736,0,0
-245,288,0,0,0,0,0,0,0,0,0,-1,979,736,0,0
-238,288,0,0,0,0,0,0,0,0,0,-1,986,736,0,0
-231,288,0,0,0,0,0,0,0,0,0,-1,993,736,0,0
-224,288,0,0,0,0,0,0,0,0,0,-1,1000,736,0,0
-217,288,0,0,0,0,0,0,0,0,0,-1,1007,736,0,0
-210,288,0,0,0,0,0,0,0,0,0,-1,1014,736,0,0
-203,288,0,0,0,0,0,0,0,0,0,-1,1021,736,0,0
-196,288,0,0,0,0,0,0,0,0,0,-1,1028,736,0,0
-189,288,0,0,0,0,0,0,0,0,0,-1,1035,736,0,0
-182,288,0,0,0,0,0,0,0,0,0,-1,1042,736,0,0
-175,288,0,0,0,0,0,0,0,0,0,-1,1049,736,0,0
-168,288,0,0,0,0,0,0,0,0,0,-1,1056,736,0,0
-161,288,0,0,0,0,0,0,0,0,0,-1,1063,736,0,0
-154,288,0,0,0,0,0,0,0,0,0,-1,1070,736,0,0
-147,288,0,0,0,0,0,0,0,0,0,-1,1077,736,0,0
-140,288,0,0,0,0,0,0,0,0,0,-1,1084,736,0,0
-133,288,0,0,0,0,0,0,0,0,0,-1,1091,736,0,0
-126,288,0,0,0,0,0,0,0,0,0,-1,1098,736,0,0
-119,288,0,0,0,0,0,0,0,0,0,-1,1105,736,0,0
-112,288,0,0,0,0,0,0,0,0,0,-1,1112,736,0,0
-105,288,0,0,0,0,0,0,0,0,0,-1,1119,736,0,0
-98,288,0,0,0,0,0,0,0,0,0,-1,1126,736,0,0
-91,288,0,0,0,0,0,0,0,0,0,-1,1133,736,0,0
-84,288,0,0,0,0,0,0,0,0,0,-1,1140,736,0,0
-77,288,0,0,0,0,0,0,0,0,0,-1,1147,736,0,0
-70,288,0,0,0,0,0,0,0,0,0,-1,1154,736,0,0
-63,288,0,0,0,0,0,0,0,0,0,-1,1161,736,0,0
-56,288,0,0,0,0,0,0,0,0,0,-1,1168,736,0,0
-49,288,0,0,0,0,0,0,0,0,0,-1,1175,736,0,0
-42,288,0,0,0,0,0,0,0,0,0,-1,1182,736,0,0
-35,288,0,0,0,0,0,0,0,0,0,-1,1189,736,0,0
-28,288,0,0,0,0,0,0,0,0,0,-1,1196,736,0,0
-21,288,0,0,0,0,0,0,0,0,0,-1,1203,736,0,0
-14,288,0,0,0,0,0,0,0,0,0,-1,1210,736,0,0
-7,288,0,0,0,0,0,0,0,0,0,-1,1217,736,0,0
0,288,0,0,0,0,0,0,0,0,0,-1,1224,736,0,0
7,288,0,0,0,0,0,0,0,0,0,-1,1231,736,0,0
14,288,0,0,0,0,0,0,0,0,0,-1,1238,736,0,0
21,288,0,0,0,0,0,0,0,0,0,-1,1245,736,0,0
28,288,0,0,0,0,0,0,0,0,0,-1,1252,736,0,0
35,288,0,0,0,0,0,0,0,0,0,-1,1259,736,0,0
42,288,0,0,0,0,0,0,0,0,0,-1,1266,736,0,0
49,288,0,0,0,0,0,0,0,0,0,-1,1273,736,0,0
56,288,0,0,0,0,0,0,0,0,0,-1,1280,736,0,0
63,288,0,0,0,0,0,0,0,0,0,-1,1287,736,0,0
70,288,0,0,0,0,0,0,0,0,0,-1,1294,736,0,0
77,288,0,0,0,0,0,0,0,0,0,-1,1301,736,0,0
84,288,0,0,0,0,0,0,0,0,0,-1,1308,736,0,0
91,288,0,0,0,0,0,0,0,0,0,-1,1315,736,0,0
98,288,0,0,0,0,0,0,0,0,0,-1,1322,736,0,0
105,288,0,0,0,0,0,0,0,0,0,-1,1329,736,0,0
112,288,0,0,0,0,0,0,0,0,0,-1,1336,736,0,0
119,288,0,0,0,0,0,0,0,0,0,-1,1343,736,0,0
126,288,0,0,0,0,0,0,0,0,0,-1,1350,736,0,0
133,288,0,0,0,0,0,0,0,0,0,-1,1357,736,0,0
140,288,0,0,0,0,0,0,0,0,0,-1,1364,736,0,0
147,288,0,0,0,0,0,0,0,0,0,-1,1371,736,0,0
154,288,0,0,0,0,0,0,0,0,0,-1,1378,736,0,0
161,288,0,0,0,0,0,0,0,0,0,-1,1385,736,0,0
168,288,0,0,0,0,0,0,0,0,0,-1,1392,736,0,0
175,288,0,0,0,0,0,0,0,0,0,-1,1399,736,0,0
182,288,0,0,0,0,0,0,0,0,0,-1,1406,736,0,0
189,288,0,0,0,0,0,0,0,0,0,-1,1413,736,0,0
196,288,0,0,0,0,0,0,0,0,0,-1,1420,736,0,0
203,288,0,0,0,0,0,0,0,0,0,-1,1427,736,0,0
210,288,0,0,0,0,0,0,0,0,0,-1,1434,736,0,0
217,288,0,0,0,0,0,0,0,0,0,-1,1441,736,0,0
224,288,0,0,0,0,0,0,0,0,0,-1,1448,736,0,0
231,288,0,0,0,0,0,0,0,0,0,-1,1455,736,0,0
238,288,0,0,0,0,0,0,0,0,0,-1,1462,736,0,0
245,288,0,0,0,0,0,0,0,0,0,-1,1469,736,0,0
252,288,0,0,0,0,0,0,0,0,0,-1,1476,736,0,0
259,288,0,0,0,0,0,0,0,0,0,-1,1483,736,0,0
266,288,0,0,0,0,0,0,0,0,0,-1,1490,736,0,0
273,288,0,0,0,0,0,0,0,0,0,-1,1497,736,0,0
280,288,0,0,0,0,0,0,0,0,0,-1,1504,736,0,0
287,288,0,0,0,0,0,0,0,0,0,-1,1511,736,0,0
294,288,0,0,0,0,0,0,0,0,0,-1,1518,736,0,0
301,288,0,0,0,0,0,0,0,0,0,-1,1525,736,0,0
308,288,0,0,0,0,0,0,0,0,0,-1,1532,736,0,0
315,288,0,0,0,0,0,0,0,0,0,-1,1539,736,0,0
322,288,0,0,0,0,0,0,0,0,0,-1,1546,736,0,0
329,288,0,0,0,0,0,0,0,0,0,-1,1553,736,0,0
336,288,0,0,0,0,0,0,0,0,0,-1,1560,736,0,0
343,288,0,0,0,0,0,0,0,0,0,-1,1567,736,0,0
350,288,0,0,0,0,0,0,0,0,0,-1,1574,736,0,0
357,288,0,0,0,0,0,0,0,0,0,-1,1581,736,0,0
364,288,0,0,0,0,0,0,0,0,0,-1,1588,736,0,0
371,288,0,0,0,0,0,0,0,0,0,-1,1595,736,0,0
378,288,0,0,0,0,0,0,0,0,0,-1,1602,736,0,0
385,288,0,0,0,0,0,0,0,0,0,-1,1609,736,0,0
392,288,0,0,0,0,0,0,0,0,0,-1,1616,736,0,0
399,288,0,0,0,0,0,0,0,0,0,-1,1623,736,0,0
406,288,0,0,0,0,0,0,0,0,0,-1,1630,736,0,0
413,288,0,0,0,0,0,0,0,0,0,-1,1637,736,0,0
420,288,0,0,0,0,0,0,0,0,0,-1,1644,736,0,0
427,288,0,0,0,0,0,0,0,0,0,-1,1651,736,0,0
434,288,0,0,0,0,0,0,0,0,0,-1,1658,736,0,0
441,288,0,0,0,0,0,0,0,0,0,-1,1665,736,0,0
448,288,0,0,0,0,0,0,0,0,0,-1,1672,736,0,0
455,288,0,0,0,0,0,0,0,0,0,-1,1679,736,0,0
462,288,0,0,0,0,0,0,0,0,0,-1,1686,736,0,0
469,288,0,0,0,0,0,0,0,0,0,-1,1693,736,0,0
476,288,0,0,0,0,0,0,0,0,0,-1,1700,736,0,0
483,288,0,0,0,0,0,0,0,0,0,-1,1707,736,0,0
490,288,0,0,0,0,0,0,0,0,0,-1,1714,736,0,0
497,288,0,0,0,0,0,0,0,0,0,-1,1721,736,0,0
504,288,0,0,0,0,0,0,0,0,0,-1,1728,736,0,0
511,288,0,0,0,0,0,0,0,0,0,-1,1735,736,0,0
518,288,0,0,0,0,0,0,0,0,0,-1,1742,736,0,0
525,288,0,0,0,0,0,0,0,0,0,-1,1749,736,0,0
532,288,0,0,0,0,0,0,0,0,0,-1,1756,736,0,0
539,288,0,0,0,0,0,0,0,0,0,-1,1763,736,0,0
546,288,0,0,0,0,0,0,0,0,0,-1,1770,736,0,0
553,288,34.537,1.914,0,0,0,0,0,0,0,-1,1777,736,34.537,-1.91399
560,288,34.6165,2.36139,0,0,0,0,0,0,0,-1,1784,736,34.6165,-2.36142
567,288,34.5846,2.74799,0,0,0,0,0,0,0,-1,1791,736,34.5845,-2.748
574,288,34.3297,3.37061,0,0,0,0,0,0,0,-1,1798,736,34.3297,-3.37063
581,288,33.9656,4.05579,0,0,0,0,0,0,0,-1,1805,736,33.9656,-4.05581
588,288,35.7375,1.88593,0,0,0,0,0,0,0,-1,1812,736,35.7376,-1.88593
595,288,27.4215,6.6875,0,0,0,0,0,0,0,-1,1819,736,27.4215,-6.68751
602,288,26.7634,7.61279,0,0,0,0,0,0,0,-1,1826,736,26.7635,-7.61279
609,288,17.5223,4.86414,0,0,0,0,0,0,0,-1,1833,736,17.5223,-4.86412
616,288,13.4886,0.801331,0,0,0,0,0,0,0,-1,1840,736,13.4886,-0.80132
623,288,21.4954,-1.93823,0,0,0,0,0,0,0,-1,1847,736,21.4954,1.93823
630,288,21.5426,-1.5191,0.00833729,-0.00320991,-0.0028434,0.00899948,-0.0038721,-0.228808,0.00762541,0.0238568,1854,736,21.5426,1.51909
637,288,21.5696,-1.10419,0.00312679,-0.00369316,-0.0017983,0.00357191,-0.00413829,-0.242649,0.00445549,0.011201,1861,736,21.5696,1.10418
644,288,21.5669,-0.685425,-0.00253534,-0.00245854,-0.000876741,-0.00161936,-0.00337452,-0.807283,0.0019488,0.0104145,1868,736,21.567,0.685452
651,288,21.5349,-0.262024,-0.00248214,-0.00158487,-0.000845027,-0.00107677,-0.00299024,-1.02943,0.0017488,0.0111143,1875,736,21.535,0.262034
658,288,21.5198,0.201233,-0.00184732,-0.000765305,-0.00085082,-0.000298055,-0.00231457,-1.06859,0.00145392,0.0165224,1882,736,21.5197,-0.201246
665,288,21.5203,0.597473,-0.00109525,-0.000271226,-0.000684312,0.000115533,-0.00148201,-1.05637,0.00102868,0.0173818,1889,736,21.5202,-0.597449
672,288,21.5039,1.00311,-0.000121541,0.000273544,-9.67823e-05,0.000295978,-0.000143975,-1.34302,0.000259011,0.0157094,1896,736,21.5038,-1.0031
679,288,21.5243,1.44116,0.000974492,0.000988783,0.000428106,0.0014098,0.000553472,0.793743,0.000820187,0.0134458,1903,736,21.5243,-1.44117
686,288,21.5105,1.81616,0.00242853,0.00170818,0.00108813,0.00321455,0.000922163,0.625571,0.00191129,0.01013,1910,736,21.5105,-1.81616
693,288,21.5271,2.27167,0.00459598,0.00259844,0.00204265,0.00587097,0.00132346,0.558011,0.00355589,0.0162357,1917,736,21.527,-2.27169
700,288,21.4583,2.78998,0.00817504,0.00376011,0.00362788,0.0102143,0.00172088,0.512086,0.00631454,0.0344177,1924,736,21.4582,-2.78996
707,288,21.8657,3.28705,0.013805,0.00519856,0.00615251,0.0170098,0.00199371,0.480229,0.0107372,0.0489391,1931,736,21.8658,-3.28704
714,288,22.2623,3.7981,0,0,0,0,0,0,0,-1,1938,736,22.2623,-3.79807
721,288,18.0732,3.69385,0,0,0,0,0,0,0,-1,1945,736,18.0732,-3.69387
728,288,19.3208,3.91455,0,0,0,0,0,0,0,-1,1952,736,19.3209,-3.91455
735,288,18.7712,3.51312,0,0,0,0,0,0,0,-1,1959,736,18.7713,-3.51309
742,288,0,0,0,0,0,0,0,0,0,-1,1966,736,0,0
749,288,0,0,0,0,0,0,0,0,0,-1,1973,736,0,0
756,288,0,0,0,0,0,0,0,0,0,-1,1980,736,0,0
763,288,0,0,0,0,0,0,0,0,0,-1,1987,736,0,0
770,288,0,0,0,0,0,0,0,0,0,-1,1994,736,0,0
777,288,0,0,0,0,0,0,0,0,0,-1,2001,736,0,0
784,288,0,0,0,0,0,0,0,0,0,-1,2008,736,0,0
791,288,0,0,0,0,0,0,0,0,0,-1,2015,736,0,0
798,288,0,0,0,0,0,0,0,0,0,-1,2022,736,0,0
805,288,0,0,0,0,0,0,0,0,0,-1,2029,736,0,0
812,288,0,0,0,0,0,0,0,0,0,-1,2036,736,0,0
-700,281,0,0,0,0,0,0,0,0,0,-1,524,743,0,0
-693,281,0,0,0,0,0,0,0,0,0,-1,531,743,0,0
-686,281,0,0,0,0,0,0,0,0,0,-1,538,743,0,0
-679,281,0,0,0,0,0,0,0,0,0,-1,545,743,0,0
-672,281,0,0,0,0,0,0,0,0,0,-1,552,743,0,0
-665,281,0,0,0,0,0,0,0,0,0,-1,559,743,0,0
-658,281,0,0,0,0,0,0,0,0,0,-1,566,743,0,0
-651,281,0,0,0,0,0,0,0,0,0,-1,573,743,0,0
-644,281,0,0,0,0,0,0,0,0,0,-1,580,743,0,0
-637,281,0,0,0,0,0,0,0,0,0,-1,587,743,0,0
-630,281,0,0,0,0,0,0,0,0,0,-1,594,743,0,0
-623,281,-19.1697,5.67017,0,0,0,0,0,0,0,-1,601,743,-19.1697,-5.67019
-616,281,-11.5906,2.6853,0,0,0,0,0,0,0,-1,608,743,-11.5906,-2.68529
-609,281,-16.1972,4.14838,0,0,0,0,0,0,0,-1,615,743,-16.1972,-4.14837
-602,281,-15.2166,3.8833,0,0,0,0,0,0,0,-1,622,743,-15.2165,-3.88327
-595,281,-10.4797,-1.07404,0,0,0,0,0,0,0,-1,629,743,-10.4798,1.07402
-588,281,-13.277,1.49817,0,0,0,0,0,0,0,-1,636,743,-13.2771,-1.49817
-581,281,-13.6227,0.686035,0,0,0,0,0,0,0,-1,643,743,-13.6227,-0.68604
-574,281,-13.5878,0.40033,0.025181,0.0124717,0.00495955,0.0268872,0.0107654,0.331357,0.0156257,0.0326756,650,743,-13.5878,-0.400321
-567,281,-13.7219,0.0975342,0.0115318,0.00564234,0.00482552,0.0142402,0.00293402,0.511439,0.00868229,0.0162105,657,743,-13.7219,-0.097539
-560,281,-13.7593,-0.293762,0.0025596,0.0020259,0.00428831,0.00658935,-0.00200386,0.754325,0.00519141,0.00830272,664,743,-13.7593,0.293763
-553,281,-13.7449,-0.68689,-0.00078023,0.000170247,0.0033194,0.00304826,-0.00365824,0.8565,0.00387734,0.0136044,671,743,-13.745,0.686901
-546,281,-13.7391,-1.04004,-0.00270241,-0.000959223,0.00272097,0.00102634,-0.00468797,0.940397,0.0035177,0.0151707,678,743,-13.7391,1.04001
-539,281,-13.7606,-1.43549,-0.00368822,-0.00115921,0.00263027,0.000494729,-0.00534216,1.00946,0.00373728,0.0138463,685,743,-13.7605,1.43546
-532,281,-13.769,-1.81537,-0.005107,-0.00177793,0.0028135,-0.000173447,-0.00671149,1.05252,0.00441764,0.013013,692,743,-13.769,1.8154
-525,281,-13.7734,-2.2262,-0.00708022,-0.00376755,0.00344266,-0.0016035,-0.00924428,1.00961,0.00570398,0.0142182,699,743,-13.7734,2.22619
-518,281,-13.777,-2.63867,-0.00879254,-0.00571587,0.00383265,-0.00312436,-0.0113841,0.976244,0.00679184,0.0122862,706,743,-13.777,2.63868
-511,281,-13.7822,-3.02661,-0.00976906,-0.00780442,0.00403316,-0.00463568,-0.0129378,0.904853,0.00756896,0.0114072,713,743,-13.7822,3.0266
-504,281,-13.8074,-3.4328,-0.00992623,-0.00965863,0.00449319,-0.00529726,-0.0142876,0.800283,0.00834031,0.0142649,720,743,-13.8075,3.43278
-497,281,-13.6555,-3.79199,-0.00976698,-0.0121837,0.00471913,-0.00610397,-0.0158467,0.660062,0.00922916,0.0441006,727,743,-13.6555,3.79198
-490,281,-13.4349,-4.03528,0,0,0,0,0,0,0,-1,734,743,-13.4349,4.03526
-483,281,-22.8943,-1.78931,0,0,0,0,0,0,0,-1,741,743,-22.8944,1.78931
-476,281,-23.7625,-0.655334,-0.00158262,-0.0195847,0.00353016,-0.000915113,-0.0202522,0.18688,0.013207,0.0425733,748,743,-23.7625,0.655356
-469,281,-24.3823,0.298157,0.00463988,-0.0213729,0.00246426,0.00487127,-0.0216043,0.0936228,0.0162715,0.0435378,755,743,-24.3822,-0.298186
-462,281,-24.2211,0.640015,0.0134353,-0.0220907,0.00101624,0.0134644,-0.0221198,0.0285743,0.0207461,0.0447442,762,743,-24.2211,-0.640036
-455,281,-23.8715,0.840881,0.0269883,-0.0201024,-0.00101956,0.0270104,-0.0201245,-0.0216375,0.02731,0.0460736,769,743,-23.8715,-0.840879
-448,281,-23.6879,1.1767,0,0,0,0,0,0,0,-1,776,743,-23.6879,-1.17668
-441,281,-22.527,1.0976,0,0,0,0,0,0,0,-1,783,743,-22.527,-1.09757
-434,281,0,0,0,0,0,0,0,0,0,-1,790,743,0,0
-427,281,0,0,0,0,0,0,0,0,0,-1,797,743,0,0
-420,281,0,0,0,0,0,0,0,0,0,-1,804,743,0,0
-413,281,0,0,0,0,0,0,0,0,0,-1,811,743,0,0
-406,281,0,0,0,0,0,0,0,0,0,-1,818,743,0,0
-399,281,0,0,0,0,0,0,0,0,0,-1,825,743,0,0
-392,281,0,0,0,0,0,0,0,0,0,-1,832,743,0,0
-385,281,0,0,0,0,0,0,0,0,0,-1,839,743,0,0
-378,281,0,0,0,0,0,0,0,0,0,-1,846,743,0,0
-371,281,0,0,0,0,0,0,0,0,0,-1,853,743,0,0
-364,281,0,0,0,0,0,0,0,0,0,-1,860,743,0,0
-357,281,0,0,0,0,0,0,0,0,0,-1,867,743,0,0
-350,281,0,0,0,0,0,0,0,0,0,-1,874,743,0,0
-343,281,0,0,0,0,0,0,0,0,0,-1,881,743,0,0
-336,281,0,0,0,0,0,0,0,0,0,-1,888,743,0,0
-329,281,0,0,0,0,0,0,0,0,0,-1,895,743,0,0
-322,281,0,0,0,0,0,0,0,0,0,-1,902,743,0,0
-315,281,0,0,0,0,0,0,0,0,0,-1,909,743,0,0
-308,281,0,0,0,0,0,0,0,0,0,-1,916,743,0,0
-301,281,0,0,0,0,0,0,0,0,0,-1,923,743,0,0
-294,281,0,0,0,0,0,0,0,0,0,-1,930,743,0,0
-287,281,0,0,0,0,0,0,0,0,0,-1,937,743,0,0
-280,281,0,0,0,0,0,0,0,0,0,-1,944,743,0,0
-273,281,0,0,0,0,0,0,0,0,0,-1,951,743,0,0
-266,281,0,0,0,0,0,0,0,0,0,-1,958,743,0,0
-259,281,0,0,0,0,0,0,0,0,0,-1,965,743,0,0
-252,281,0,0,0,0,0,0,0,0,0,-1,972,743,0,0
-245,281,0,0,0,0,0,0,0,0,0,-1,979,743,0,0
-238,281,0,0,0,0,0,0,0,0,0,-1,986,743,0,0
-231,281,0,0,0,0,0,0,0,0,0,-1,993,743,0,0
-224,281,0,0,0,0,0,0,0,0,0,-1,1000,743,0,0
-217,281,0,0,0,0,0,0,0,0,0,-1,1007,743,0,0
-210,281,0,0,0,0,0,0,0,0,0,-1,1014,743,0,0
-203,281,0,0,0,0,0,0,0,0,0,-1,1021,743,0,0
-196,281,0,0,0,0,0,0,0,0,0,-1,1028,743,0,0
-189,281,0,0,0,0,0,0,0,0,0,-1,1035,743,0,0
-182,281,0,0,0,0,0,0,0,0,0,-1,1042,743,0,0
-175,281,0,0,0,0,0,0,0,0,0,-1,1049,743,0,0
-168,281,0,0,0,0,0,0,0,0,0,-1,1056,743,0,0
-161,281,0,0,0,0,0,0,0,0,0,-1,1063,743,0,0
-154,281,0,0,0,0,0,0,0,0,0,-1,1070,743,0,0
-147,281,0,0,0,0,0,0,0,0,0,-1,1077,743,0,0
-140,281,0,0,0,0,0,0,0,0,0,-1,1084,743,0,0
-133,281,0,0,0,0,0,0,0,0,0,-1,1091,743,0,0
-126,281,0,0,0,0,0,0,0,0,0,-1,1098,743,0,0
-119,281,0,0,0,0,0,0,0,0,0,-1,1105,743,0,0
-112,281,0,0,0,0,0,0,0,0,0,-1,1112,743,0,0
-105,281,0,0,0,0,0,0,0,0,0,-1,1119,743,0,0
-98,281,0,0,0,0,0,0,0,0,0,-1,1126,743,0,0
-91,281,0,0,0,0,0,0,0,0,0,-1,1133,743,0,0
-84,281,0,0,0,0,0,0,0,0,0,-1,1140,743,0,0
-77,281,0,0,0,0,0,0,0,0,0,-1,1147,743,0,0
-70,281,0,0,0,0,0,0,0,0,0,-1,1154,743,0,0
-63,281,0,0,0,0,0,0,0,0,0,-1,1161,743,0,0
-56,281,0,0,0,0,0,0,0,0,0,-1,1168,743,0,0
-49,281,0,0,0,0,0,0,0,0,0,-1,1175,743,0,0
-42,281,0,0,0,0,0,0,0,0,0,-1,1182,743,0,0
-35,281,0,0,0,0,0,0,0,0,0,-1,1189,743,0,0
-28,281,0,0,0,0,0,0,0,0,0,-1,1196,743,0,0
-21,281,0,0,0,0,0,0,0,0,0,-1,1203,743,0,0
-14,281,0,0,0,0,0,0,0,0,0,-1,1210,743,0,0
-7,281,0,0,0,0,0,0,0,0,0,-1,1217,743,0,0
0,281,0,0,0,0,0,0,0,0,0,-1,1224,743,0,0
7,281,0,0,0,0,0,0,0,0,0,-1,1231,743,0,0
14,281,0,0,0,0,0,0,0,0,0,-1,1238,743,0,0
21,281,0,0,0,0,0,0,0,0,0,-1,1245,743,0,0
28,281,0,0,0,0,0,0,0,0,0,-1,1252,743,0,0
35,281,0,0,0,0,0,0,0,0,0,-1,1259,743,0,0
42,281,0,0,0,0,0,0,0,0,0,-1,1266,743,0,0
49,281,0,0,0,0,0,0,0,0,0,-1,1273,743,0,0
56,281,0,0,0,0,0,0,0,0,0,-1,1280,743,0,0
63,281,0,0,0,0,0,0,0,0,0,-1,1287,743,0,0
70,281,0,0,0,0,0,0,0,0,0,-1,1294,743,0,0
77,281,0,0,0,0,0,0,0,0,0,-1,1301,743,0,0
84,281,0,0,0,0,0,0,0,0,0,-1,1308,743,0,0
91,281,0,0,0,0,0,0,0,0,0,-1,1315,743,0,0
98,281,0,0,0,0,0,0,0,0,0,-1,1322,743,0,0
105,281,0,0,0,0,0,0,0,0,0,-1,1329,743,0,0
112,281,0,0,0,0,0,0,0,0,0,-1,1336,743,0,0
119,281,0,0,0,0,0,0,0,0,0,-1,1343,743,0,0
126,281,0,0,0,0,0,0,0,0,0,-1,1350,743,0,0
133,281,0,0,0,0,0,0,0,0,0,-1,1357,743,0,0
140,281,0,0,0,0,0,0,0,0,0,-1,1364,743,0,0
147,281,0,0,0,0,0,0,0,0,0,-1,1371,743,0,0
154,281,0,0,0,0,0,0,0,0,0,-1,1378,743,0,0
161,281,0,0,0,0,0,0,0,0,0,-1,1385,743,0,0
168,281,0,0,0,0,0,0,0,0,0,-1,1392,743,0,0
175,281,0,0,0,0,0,0,0,0,0,-1,1399,743,0,0
182,281,0,0,0,0,0,0,0,0,0,-1,1406,743,0,0
189,281,0,0,0,0,0,0,0,0,0,-1,1413,743,0,0
196,281,0,0,0,0,0,0,0,0,0,-1,1420,743,0,0
203,281,0,0,0,0,0,0,0,0,0,-1,1427,743,0,0
210,281,0,0,0,0,0,0,0,0,0,-1,1434,743,0,0
217,281,0,0,0,0,0,0,0,0,0,-1,1441,743,0,0
224,281,0,0,0,0,0,0,0,0,0,-1,1448,743,0,0
231,281,0,0,0,0,0,0,0,0,0,-1,1455,743,0,0
238,281,0,0,0,0,0,0,0,0,0,-1,1462,743,0,0
245,281,0,0,0,0,0,0,0,0,0,-1,1469,743,0,0
252,281,0,0,0,0,0,0,0,0,0,-1,1476,743,0,0
259,281,0,0,0,0,0,0,0,0,0,-1,1483,743,0,0
266,281,0,0,0,0,0,0,0,0,0,-1,1490,743,0,0
273,281,0,0,0,0,0,0,0,0,0,-1,1497,743,0,0
280,281,0,0,0,0,0,0,0,0,0,-1,1504,743,0,0
287,281,0,0,0,0,0,0,0,0,0,-1,1511,743,0,0
294,281,0,0,0,0,0,0,0,0,0,-1,1518,743,0,0
301,281,0,0,0,0,0,0,0,0,0,-1,1525,743,0,0
308,281,0,0,0,0,0,0,0,0,0,-1,1532,743,0,0
315,281,0,0,0,0,0,0,0,0,0,-1,1539,743,0,0
322,281,0,0,0,0,0,0,0,0,0,-1,1546,743,0,0
329,281,0,0,0,0,0,0,0,0,0,-1,1553,743,0,0
336,281,0,0,0,0,0,0,0,0,0,-1,1560,743,0,0
343,281,0,0,0,0,0,0,0,0,0,-1,1567,743,0,0
350,281,0,0,0,0,0,0,0,0,0,-1,1574,743,0,0
357,281,0,0,0,0,0,0,0,0,0,-1,1581,743,0,0
364,281,0,0,0,0,0,0,0,0,0,-1,1588,743,0,0
371,281,0,0,0,0,0,0,0,0,0,-1,1595,743,0,0
378,281,0,0,0,0,0,0,0,0,0,-1,1602,743,0,0
385,281,0,0,0,0,0,0,0,0,0,-1,1609,743,0,0
392,281,0,0,0,0,0,0,0,0,0,-1,1616,743,0,0
399,281,0,0,0,0,0,0,0,0,0,-1,1623,743,0,0
406,281,0,0,0,0,0,0,0,0,0,-1,1630,743,0,0
413,281,0,0,0,0,0,0,0,0,0,-1,1637,743,0,0
420,281,0,0,0,0,0,0,0,0,0,-1,1644,743,0,0
427,281,0,0,0,0,0,0,0,0,0,-1,1651,743,0,0
434,281,0,0,0,0,0,0,0,0,0,-1,1658,743,0,0
441,281,0,0,0,0,0,0,0,0,0,-1,1665,743,0,0
448,281,0,0,0,0,0,0,0,0,0,-1,1672,743,0,0
455,281,0,0,0,0,0,0,0,0,0,-1,1679,743,0,0
462,281,0,0,0,0,0,0,0,0,0,-1,1686,743,0,0
469,281,0,0,0,0,0,0,0,0,0,-1,1693,743,0,0
476,281,0,0,0,0,0,0,0,0,0,-1,1700,743,0,0
483,281,0,0,0,0,0,0,0,0,0,-1,1707,743,0,0
490,281,0,0,0,0,0,0,0,0,0,-1,1714,743,0,0
497,281,0,0,0,0,0,0,0,0,0,-1,1721,743,0,0
504,281,0,0,0,0,0,0,0,0,0,-1,1728,743,0,0
511,281,0,0,0,0,0,0,0,0,0,-1,1735,743,0,0
518,281,0,0,0,0,0,0,0,0,0,-1,1742,743,0,0
525,281,0,0,0,0,0,0,0,0,0,-1,1749,743,0,0
532,281,0,0,0,0,0,0,0,0,0,-1,1756,743,0,0
539,281,0,0,0,0,0,0,0,0,0,-1,1763,743,0,0
546,281,0,0,0,0,0,0,0,0,0,-1,1770,743,0,0
553,281,0,0,0,0,0,0,0,0,0,-1,1777,743,0,0
560,281,33.8474,3.35938,0,0,0,0,0,0,0,-1,1784,743,33.8474,-3.3594
567,281,34.3938,3.00562,0.0580988,0.0119198,-0.00368144,0.0583905,0.0116281,-0.0790556,0.0356881,0.0438668,1791,743,34.3938,-3.00559
574,281,34.4424,3.20868,0.0604819,0.00845405,-0.00570852,0.0611009,0.00783507,-0.108008,0.0383897,0.0492682,1798,743,34.4424,-3.20866
581,281,34.0168,3.78687,0.0576689,0.00624168,-0.00526376,0.0582022,0.00570844,-0.100959,0.0370455,0.0452241,1805,743,34.0168,-3.78689
588,281,35.7426,2.15332,0.0504984,0.00362286,-0.0050023,0.0510263,0.00309498,-0.105137,0.0330342,0.0442028,1812,743,35.7425,-2.15334
595,281,36.8864,2.27618,0,0,0,0,0,0,0,-1,1819,743,36.8864,-2.27621
602,281,30.1091,6.0744,0,0,0,0,0,0,0,-1,1826,743,30.1091,-6.07442
609,281,32.7925,1.28723,0,0,0,0,0,0,0,-1,1833,743,32.7925,-1.28722
616,281,21.3191,-0.253906,0,0,0,0,0,0,0,-1,1840,743,21.3191,0.253931
623,281,21.8132,-1.85779,0,0,0,0,0,0,0,-1,1847,743,21.8132,1.85778
630,281,21.9105,-1.50049,0.0078058,-0.00356957,-0.00281839,0.0084658,-0.00422957,-0.230031,0.00746445,0.0418803,1854,743,21.9105,1.50047
637,281,21.9585,-1.104,0.00276486,-0.00414429,-0.00184286,0.00322567,-0.0046051,-0.245026,0.00454442,0.0138523,1861,743,21.9585,1.104
644,281,21.9717,-0.660522,-0.00317947,-0.0029699,-0.000901046,-0.00216757,-0.00398181,-0.843285,0.00230191,0.0102965,1868,743,21.9717,0.66051
651,281,21.9624,-0.237122,-0.00312073,-0.00199484,-0.000867951,-0.00152326,-0.00359231,-1.07309,0.00208199,0.0118208,1875,743,21.9625,0.23712
658,281,21.9535,0.170532,-0.00224867,-0.00104444,-0.000935857,-0.000533731,-0.00275938,-1.07125,0.00169001,0.0203558,1882,743,21.9535,-0.170538
665,281,21.9454,0.565247,-0.00112443,-0.000498304,-0.000747321,-1.12294e-06,-0.00162161,-0.983752,0.0010807,0.0209349,1889,743,21.9455,-0.565262
672,281,21.9143,1.00842,0.000202041,0.000150846,-5.33691e-05,0.000235634,0.000117253,-0.561789,0.000136044,0.0129264,1896,743,21.9143,-1.00841
679,281,21.9077,1.42749,0.00161706,0.000980309,0.000577723,0.00195832,0.000639043,0.533561,0.00115315,0.0198523,1903,743,21.9077,-1.42751
686,281,21.8937,1.81732,0.00340301,0.00184663,0.00139369,0.00422105,0.00102859,0.530777,0.00254152,0.0146687,1910,743,21.8937,-1.81734
693,281,21.9056,2.21814,0.00578498,0.00277696,0.00238276,0.0070987,0.00146324,0.503874,0.00432797,0.0110184,1917,743,21.9056,-2.21816
700,281,21.8982,2.64276,0.00937527,0.00392593,0.00388179,0.0113932,0.00190802,0.479394,0.00704609,0.0224906,1924,743,21.8981,-2.64276
707,281,21.8674,3.02643,0.0147731,0.00529735,0.00616305,0.017809,0.00226152,0.457699,0.0111952,0.044526,1931,743,21.8675,-3.02642
714,281,22.2061,3.72516,0,0,0,0,0,0,0,-1,1938,743,22.2061,-3.72513
721,281,16.9656,3.22174,0,0,0,0,0,0,0,-1,1945,743,16.9656,-3.22172
728,281,19.0251,3.63934,0,0,0,0,0,0,0,-1,1952,743,19.0252,-3.63932
735,281,19.0869,2.50311,0,0,0,0,0,0,0,-1,1959,743,19.0869,-2.5031
742,281,0,0,0,0,0,0,0,0,0,-1,1966,743,0,0
749,281,0,0,0,0,0,0,0,0,0,-1,1973,743,0,0
756,281,0,0,0,0,0,0,0,0,0,-1,1980,743,0,0
763,281,0,0,0,0,0,0,0,0,0,-1,1987,743,0,0
770,281,0,0,0,0,0,0,0,0,0,-1,1994,743,0,0
777,281,0,0,0,0,0,0,0,0,0,-1,2001,743,0,0
784,281,0,0,0,0,0,0,0,0,0,-1,2008,743,0,0
791,281,0,0,0,0,0,0,0,0,0,-1,2015,743,0,0
798,281,0,0,0,0,0,0,0,0,0,-1,2022,743,0,0
805,281,0,0,0,0,0,0,0,0,0,-1,2029,743,0,0
812,281,0,0,0,0,0,0,0,0,0,-1,2036,743,0,0
-700,274,0,0,0,0,0,0,0,0,0,-1,524,750,0,0
-693,274,0,0,0,0,0,0,0,0,0,-1,531,750,0,0
-686,274,0,0,0,0,0,0,0,0,0,-1,538,750,0,0
-679,274,0,0,0,0,0,0,0,0,0,-1,545,750,0,0
-672,274,0,0,0,0,0,0,0,0,0,-1,552,750,0,0
-665,274,0,0,0,0,0,0,0,0,0,-1,559,750,0,0
-658,274,0,0,0,0,0,0,0,0,0,-1,566,750,0,0
-651,274,0,0,0,0,0,0,0,0,0,-1,573,750,0,0
-644,274,0,0,0,0,0,0,0,0,0,-1,580,750,0,0
-637,274,0,0,0,0,0,0,0,0,0,-1,587,750,0,0
-630,274,0,0,0,0,0,0,0,0,0,-1,594,750,0,0
-623,274,-19.6909,5.12701,0,0,0,0,0,0,0,-1,601,750,-19.6908,-5.12703
-616,274,-17.9133,3.9024,0,0,0,0,0,0,0,-1,608,750,-17.9133,-3.90239
-609,274,-16.9128,3.54785,0.162879,0.0769189,-0.00181848,0.162917,0.0768805,-0.0211423,0.0941099,0.0488456,615,750,-16.9128,-3.54787
-602,274,-15.9152,3.25354,0.124836,0.058643,0.000104999,0.124836,0.0586428,0.00158626,0.0721179,0.0484579,622,750,-15.9152,-3.25353
-595,274,-14.8673,2.88092,0,0,0,0,0,0,0,-1,629,750,-14.8673,-2.8809
-588,274,-14.0179,1.71173,0,0,0,0,0,0,0,-1,636,750,-14.0179,-1.71175
-581,274,-13.9201,1.0777,0.0405715,0.0191627,0.00322075,0.0410455,0.0186887,0.146133,0.0237292,0.0420353,643,750,-13.9201,-1.0777
-574,274,-14.0151,0.433411,0.0242414,0.0115884,0.00339234,0.0250935,0.0107363,0.246099,0.0145379,0.022422,650,750,-14.0151,-0.433431
-567,274,-14.1235,0.0848999,0.0114755,0.00523788,0.00357443,0.0131005,0.00361291,0.426681,0.00781296,0.0210527,657,750,-14.1235,-0.0848774
-560,274,-14.1375,-0.266846,0.00281939,0.00177774,0.00338956,0.00572791,-0.00113077,0.709167,0.00424602,0.0144514,664,750,-14.1374,0.266867
-553,274,-14.14,-0.695496,-0.000633552,-3.08475e-06,0.00279338,0.00249279,-0.00312943,0.841586,0.00325292,0.00979901,671,750,-14.14,0.695515
-546,274,-14.1541,-1.086,-0.00328206,-0.00120738,0.00260549,0.000559674,-0.00504912,0.974847,0.0035673,0.0112646,678,750,-14.154,1.086
-539,274,-14.1749,-1.46259,-0.00511396,-0.00154813,0.00283864,2.10642e-05,-0.00668316,1.06581,0.00446248,0.0117237,685,750,-14.1749,1.4626
-532,274,-14.192,-1.81274,-0.0072997,-0.00231184,0.00330552,-0.000664979,-0.00894656,1.10858,0.00575553,0.0115609,692,750,-14.192,1.81273
-525,274,-14.1849,-2.19006,-0.00991224,-0.00439226,0.00412089,-0.00219249,-0.012112,1.08047,0.00745215,0.0108259,699,750,-14.1849,2.19009
-518,274,-14.1794,-2.60791,-0.0119647,-0.00620914,0.00452719,-0.0037225,-0.0144514,1.06851,0.00866419,0.0120223,706,750,-14.1794,2.60789
-511,274,-14.1775,-3.03381,-0.0131283,-0.0081216,0.0046587,-0.00533626,-0.0159136,1.03194,0.00935237,0.0125304,713,750,-14.1775,3.03381
-504,274,-14.213,-3.48792,-0.0133966,-0.00979263,0.00507231,-0.00621172,-0.0169775,0.956074,0.00991881,0.0230877,720,750,-14.213,3.48794
-497,274,-13.9838,-3.92932,0,0,0,0,0,0,0,-1,727,750,-13.9838,3.9293
-490,274,-13.6545,-3.58826,0,0,0,0,0,0,0,-1,734,750,-13.6546,3.58825
-483,274,-23.2355,0.589722,0,0,0,0,0,0,0,-1,741,750,-23.2355,-0.589747
-476,274,-23.725,0.593262,-0.00427954,-0.0193099,0.00385697,-0.00334758,-0.0202419,0.237086,0.0125287,0.0430475,748,750,-23.725,-0.593234
-469,274,-24.1772,0.691223,0.00193553,-0.0212829,0.00285195,0.00228071,-0.0216281,0.120446,0.015236,0.0455867,755,750,-24.1772,-0.691195
-462,274,-24.0033,0.659119,0.0101324,-0.0222972,0.00155112,0.0102064,-0.0223712,0.0476854,0.0192408,0.0457656,762,750,-24.0033,-0.659095
-455,274,-23.4543,0.750488,0.0218934,-0.0207572,-0.000250459,0.0218948,-0.0207587,-0.00587207,0.024629,0.0430655,769,750,-23.4543,-0.750479
-448,274,-23.0235,0.984375,0,0,0,0,0,0,0,-1,776,750,-23.0235,-0.984392
-441,274,0,0,0,0,0,0,0,0,0,-1,783,750,0,0
-434,274,0,0,0,0,0,0,0,0,0,-1,790,750,0,0
-427,274,0,0,0,0,0,0,0,0,0,-1,797,750,0,0
-420,274,0,0,0,0,0,0,0,0,0,-1,804,750,0,0
-413,274,0,0,0,0,0,0,0,0,0,-1,811,750,0,0
-406,274,0,0,0,0,0,0,0,0,0,-1,818,750,0,0
-399,274,0,0,0,0,0,0,0,0,0,-1,825,750,0,0
-392,274,0,0,0,0,0,0,0,0,0,-1,832,750,0,0
-385,274,0,0,0,0,0,0,0,0,0,-1,839,750,0,0
-378,274,0,0,0,0,0,0,0,0,0,-1,846,750,0,0
-371,274,0,0,0,0,0,0,0,0,0,-1,853,750,0,0
-364,274,0,0,0,0,0,0,0,0,0,-1,860,750,0,0
-357,274,0,0,0,0,0,0,0,0,0,-1,867,750,0,0
-350,274,0,0,0,0,0,0,0,0,0,-1,874,750,0,0
-343,274,0,0,0,0,0,0,0,0,0,-1,881,750,0,0
-336,274,0,0,0,0,0,0,0,0,0,-1,888,750,0,0
-329,274,0,0,0,0,0,0,0,0,0,-1,895,750,0,0
-322,274,0,0,0,0,0,0,0,0,0,-1,902,750,0,0
-315,274,0,0,0,0,0,0,0,0,0,-1,909,750,0,0
-308,274,0,0,0,0,0,0,0,0,0,-1,916,750,0,0
-301,274,0,0,0,0,0,0,0,0,0,-1,923,750,0,0
-294,274,0,0,0,0,0,0,0,0,0,-1,930,750,0,0
-287,274,0,0,0,0,0,0,0,0,0,-1,937,750,0,0
-280,274,0,0,0,0,0,0,0,0,0,-1,944,750,0,0
-273,274,0,0,0,0,0,0,0,0,0,-1,951,750,0,0
-266,274,0,0,0,0,0,0,0,0,0,-1,958,750,0,0
-259,274,0,0,0,0,0,0,0,0,0,-1,965,750,0,0
-252,274,0,0,0,0,0,0,0,0,0,-1,972,750,0,0
-245,274,0,0,0,0,0,0,0,0,0,-1,979,750,0,0
-238,274,0,0,0,0,0,0,0,0,0,-1,986,750,0,0
-231,274,0,0,0,0,0,0,0,0,0,-1,993,750,0,0
-224,274,0,0,0,0,0,0,0,0,0,-1,1000,750,0,0
-217,274,0,0,0,0,0,0,0,0,0,-1,1007,750,0,0
-210,274,0,0,0,0,0,0,0,0,0,-1,1014,750,0,0
-203,274,0,0,0,0,0,0,0,0,0,-1,1021,750,0,0
-196,274,0,0,0,0,0,0,0,0,0,-1,1028,750,0,0
-189,274,0,0,0,0,0,0,0,0,0,-1,1035,750,0,0
-182,274,0,0,0,0,0,0,0,0,0,-1,1042,750,0,0
-175,274,0,0,0,0,0,0,0,0,0,-1,1049,750,0,0
-168,274,0,0,0,0,0,0,0,0,0,-1,1056,750,0,0
-161,274,0,0,0,0,0,0,0,0,0,-1,1063,750,0,0
-154,274,0,0,0,0,0,0,0,0,0,-1,1070,750,0,0
-147,274,0,0,0,0,0,0,0,0,0,-1,1077,750,0,0
-140,274,0,0,0,0,0,0,0,0,0,-1,1084,750,0,0
-133,274,0,0,0,0,0,0,0,0,0,-1,1091,750,0,0
-126,274,0,0,0,0,0,0,0,0,0,-1,1098,750,0,0
-119,274,0,0,0,0,0,0,0,0,0,-1,1105,750,0,0
-112,274,0,0,0,0,0,0,0,0,0,-1,1112,750,0,0
-105,274,0,0,0,0,0,0,0,0,0,-1,1119,750,0,0
-98,274,0,0,0,0,0,0,0,0,0,-1,1126,750,0,0
-91,274,0,0,0,0,0,0,0,0,0,-1,1133,750,0,0
-84,274,0,0,0,0,0,0,0,0,0,-1,1140,750,0,0
-77,274,0,0,0,0,0,0,0,0,0,-1,1147,750,0,0
-70,274,0,0,0,0,0,0,0,0,0,-1,1154,750,0,0
-63,274,0,0,0,0,0,0,0,0,0,-1,1161,750,0,0
-56,274,0,0,0,0,0,0,0,0,0,-1,1168,750,0,0
-49,274,0,0,0,0,0,0,0,0,0,-1,1175,750,0,0
-42,274,0,0,0,0,0,0,0,0,0,-1,1182,750,0,0
-35,274,0,0,0,0,0,0,0,0,0,-1,1189,750,0,0
-28,274,0,0,0,0,0,0,0,0,0,-1,1196,750,0,0
-21,274,0,0,0,0,0,0,0,0,0,-1,1203,750,0,0
-14,274,0,0,0,0,0,0,0,0,0,-1,1210,750,0,0
-7,274,0,0,0,0,0,0,0,0,0,-1,1217,750,0,0
0,274,0,0,0,0,0,0,0,0,0,-1,1224,750,0,0
7,274,0,0,0,0,0,0,0,0,0,-1,1231,750,0,0
14,274,0,0,0,0,0,0,0,0,0,-1,1238,750,0,0
21,274,0,0,0,0,0,0,0,0,0,-1,1245,750,0,0
28,274,0,0,0,0,0,0,0,0,0,-1,1252,750,0,0
35,274,0,0,0,0,0,0,0,0,0,-1,1259,750,0,0
42,274,0,0,0,0,0,0,0,0,0,-1,1266,750,0,0
49,274,0,0,0,0,0,0,0,0,0,-1,1273,750,0,0
56,274,0,0,0,0,0,0,0,0,0,-1,1280,750,0,0
63,274,0,0,0,0,0,0,0,0,0,-1,1287,750,0,0
70,274,0,0,0,0,0,0,0,0,0,-1,1294,750,0,0
77,274,0,0,0,0,0,0,0,0,0,-1,1301,750,0,0
84,274,0,0,0,0,0,0,0,0,0,-1,1308,750,0,0
91,274,0,0,0,0,0,0,0,0,0,-1,1315,750,0,0
98,274,0,0,0,0,0,0,0,0,0,-1,1322,750,0,0
105,274,0,0,0,0,0,0,0,0,0,-1,1329,750,0,0
112,274,0,0,0,0,0,0,0,0,0,-1,1336,750,0,0
119,274,0,0,0,0,0,0,0,0,0,-1,1343,750,0,0
126,274,0,0,0,0,0,0,0,0,0,-1,1350,750,0,0
133,274,0,0,0,0,0,0,0,0,0,-1,1357,750,0,0
140,274,0,0,0,0,0,0,0,0,0,-1,1364,750,0,0
147,274,0,0,0,0,0,0,0,0,0,-1,1371,750,0,0
154,274,0,0,0,0,0,0,0,0,0,-1,1378,750,0,0
161,274,0,0,0,0,0,0,0,0,0,-1,1385,750,0,0
168,274,0,0,0,0,0,0,0,0,0,-1,1392,750,0,0
175,274,0,0,0,0,0,0,0,0,0,-1,1399,750,0,0
182,274,0,0,0,0,0,0,0,0,0,-1,1406,750,0,0
189,274,0,0,0,0,0,0,0,0,0,-1,1413,750,0,0
196,274,0,0,0,0,0,0,0,0,0,-1,1420,750,0,0
203,274,0,0,0,0,0,0,0,0,0,-1,1427,750,0,0
210,274,0,0,0,0,0,0,0,0,0,-1,1434,750,0,0
217,274,0,0,0,0,0,0,0,0,0,-1,1441,750,0,0
224,274,0,0,0,0,0,0,0,0,0,-1,1448,750,0,0
231,274,0,0,0,0,0,0,0,0,0,-1,1455,750,0,0
238,274,0,0,0,0,0,0,0,0,0,-1,1462,750,0,0
245,274,0,0,0,0,0,0,0,0,0,-1,1469,750,0,0
252,274,0,0,0,0,0,0,0,0,0,-1,1476,750,0,0
259,274,0,0,0,0,0,0,0,0,0,-1,1483,750,0,0
266,274,0,0,0,0,0,0,0,0,0,-1,1490,750,0,0
273,274,0,0,0,0,0,0,0,0,0,-1,1497,750,0,0
280,274,0,0,0,0,0,0,0,0,0,-1,1504,750,0,0
287,274,0,0,0,0,0,0,0,0,0,-1,1511,750,0,0
294,274,0,0,0,0,0,0,0,0,0,-1,1518,750,0,0
301,274,0,0,0,0,0,0,0,0,0,-1,1525,750,0,0
308,274,0,0,0,0,0,0,0,0,0,-1,1532,750,0,0
315,274,0,0,0,0,0,0,0,0,0,-1,1539,750,0,0
322,274,0,0,0,0,0,0,0,0,0,-1,1546,750,0,0
329,274,0,0,0,0,0,0,0,0,0,-1,1553,750,0,0
336,274,0,0,0,0,0,0,0,0,0,-1,1560,750,0,0
343,274,0,0,0,0,0,0,0,0,0,-1,1567,750,0,0
350,274,0,0,0,0,0,0,0,0,0,-1,1574,750,0,0
357,274,0,0,0,0,0,0,0,0,0,-1,1581,750,0,0
364,274,0,0,0,0,0,0,0,0,0,-1,1588,750,0,0
371,274,0,0,0,0,0,0,0,0,0,-1,1595,750,0,0
378,274,0,0,0,0,0,0,0,0,0,-1,1602,750,0,0
385,274,0,0,0,0,0,0,0,0,0,-1,1609,750,0,0
392,274,0,0,0,0,0,0,0,0,0,-1,1616,750,0,0
399,274,0,0,0,0,0,0,0,0,0,-1,1623,750,0,0
406,274,0,0,0,0,0,0,0,0,0,-1,1630,750,0,0
413,274,0,0,0,0,0,0,0,0,0,-1,1637,750,0,0
420,274,0,0,0,0,0,0,0,0,0,-1,1644,750,0,0
427,274,0,0,0,0,0,0,0,0,0,-1,1651,750,0,0
434,274,0,0,0,0,0,0,0,0,0,-1,1658,750,0,0
441,274,0,0,0,0,0,0,0,0,0,-1,1665,750,0,0
448,274,0,0,0,0,0,0,0,0,0,-1,1672,750,0,0
455,274,0,0,0,0,0,0,0,0,0,-1,1679,750,0,0
462,274,0,0,0,0,0,0,0,0,0,-1,1686,750,0,0
469,274,0,0,0,0,0,0,0,0,0,-1,1693,750,0,0
476,274,0,0,0,0,0,0,0,0,0,-1,1700,750,0,0
483,274,0,0,0,0,0,0,0,0,0,-1,1707,750,0,0
490,274,0,0,0,0,0,0,0,0,0,-1,1714,750,0,0
497,274,0,0,0,0,0,0,0,0,0,-1,1721,750,0,0
504,274,0,0,0,0,0,0,0,0,0,-1,1728,750,0,0
511,274,0,0,0,0,0,0,0,0,0,-1,1735,750,0,0
518,274,0,0,0,0,0,0,0,0,0,-1,1742,750,0,0
525,274,0,0,0,0,0,0,0,0,0,-1,1749,750,0,0
532,274,0,0,0,0,0,0,0,0,0,-1,1756,750,0,0
539,274,0,0,0,0,0,0,0,0,0,-1,1763,750,0,0
546,274,0,0,0,0,0,0,0,0,0,-1,1770,750,0,0
553,274,0,0,0,0,0,0,0,0,0,-1,1777,750,0,0
560,274,34.0583,3.12201,0,0,0,0,0,0,0,-1,1784,750,34.0583,-3.122
567,274,33.8314,3.44885,0.045832,0.0133047,-0.00237282,0.0460042,0.0131325,-0.0724373,0.0273634,0.042917,1791,750,33.8315,-3.44886
574,274,34.4359,3.16772,0.0542018,0.00773888,-0.00491223,0.0547155,0.00722522,-0.104189,0.034323,0.0465106,1798,750,34.436,-3.16774
581,274,34.0508,3.48566,0.0526959,0.00465098,-0.005055,0.053222,0.00412488,-0.103701,0.0341894,0.0424105,1805,750,34.0508,-3.48568
588,274,35.3906,2.30408,0.0460335,0.00217183,-0.00496847,0.0465893,0.00161607,-0.111395,0.0305351,0.0459746,1812,750,35.3906,-2.30406
595,274,35.9342,1.99036,0,0,0,0,0,0,0,-1,1819,750,35.9342,-1.99033
602,274,36.3859,1.80902,0,0,0,0,0,0,0,-1,1826,750,36.3859,-1.80903
609,274,36.0476,1.99146,0,0,0,0,0,0,0,-1,1833,750,36.0476,-1.99145
616,274,32.7869,1.78436,0,0,0,0,0,0,0,-1,1840,750,32.7868,-1.78437
623,274,23.0034,-1.73114,0,0,0,0,0,0,0,-1,1847,750,23.0034,1.73115
630,274,22.6936,-1.43903,0.00680712,-0.0041803,-0.00289531,0.00752337,-0.00489656,-0.242515,0.00722391,0.0453746,1854,750,22.6936,1.43903
637,274,22.3732,-1.10266,0.00208809,-0.0048265,-0.00206298,0.0026568,-0.00539522,-0.268996,0.0047376,0.0129695,1861,750,22.3732,1.10268
644,274,22.369,-0.65387,-0.00380444,-0.00384994,-0.00122623,-0.00260075,-0.00505364,-0.776123,0.00291813,0.0113041,1868,750,22.369,0.653843
651,274,22.3641,-0.224121,-0.00393757,-0.00285439,-0.00122746,-0.00205434,-0.00473762,-0.993166,0.00274329,0.0133231,1875,750,22.3641,0.224105
658,274,22.3594,0.171997,-0.00303858,-0.00177606,-0.00137091,-0.00089806,-0.00391659,-1.00116,0.00236914,0.0162444,1882,750,22.3594,-0.172007
665,274,22.3422,0.60614,-0.00165993,-0.00112952,-0.00117564,-0.000189539,-0.00259991,-0.896334,0.00167367,0.0161137,1889,750,22.3421,-0.606139
672,274,22.3468,1.01001,-4.28739e-05,-0.00032488,-0.000390674,0.000231464,-0.000599217,-0.612212,0.000495013,0.0131084,1896,750,22.3468,-1.00998
679,274,22.3436,1.4278,0.00165941,0.000617755,0.000346739,0.00176428,0.000512892,0.293682,0.00104793,0.0146613,1903,750,22.3436,-1.42777
686,274,22.3207,1.83215,0.00375427,0.00164138,0.00131226,0.00438249,0.00101315,0.446489,0.00264932,0.0153906,1910,750,22.3207,-1.83214
693,274,22.3065,2.24481,0.00630733,0.00257997,0.00233579,0.00743183,0.00145547,0.448676,0.00454771,0.012364,1917,750,22.3066,-2.24481
700,274,22.3036,2.65332,0.00983493,0.00366936,0.00374061,0.0115994,0.0019049,0.440754,0.00718265,0.0143583,1924,750,22.3036,-2.65334
707,274,22.2397,3.08661,0.0148765,0.00490887,0.0057593,0.0175089,0.00227639,0.42873,0.0109927,0.0227382,1931,750,22.2397,-3.08658
714,274,22.5004,3.52448,0.021723,0.0061092,0.00825842,0.0252805,0.00255171,0.406749,0.0160707,0.0482523,1938,750,22.5004,-3.52449
721,274,22.7714,3.83551,0,0,0,0,0,0,0,-1,1945,750,22.7714,-3.83554
728,274,19.2209,3.95154,0,0,0,0,0,0,0,-1,1952,750,19.221,-3.95151
735,274,20.6608,4.10931,0,0,0,0,0,0,0,-1,1959,750,20.6607,-4.10932
742,274,11.7815,-0.740234,0,0,0,0,0,0,0,-1,1966,750,11.7815,0.740253
749,274,0,0,0,0,0,0,0,0,0,-1,1973,750,0,0
756,274,0,0,0,0,0,0,0,0,0,-1,1980,750,0,0
763,274,0,0,0,0,0,0,0,0,0,-1,1987,750,0,0
770,274,0,0,0,0,0,0,0,0,0,-1,1994,750,0,0
777,274,0,0,0,0,0,0,0,0,0,-1,2001,750,0,0
784,274,0,0,0,0,0,0,0,0,0,-1,2008,750,0,0
791,274,0,0,0,0,0,0,0,0,0,-1,2015,750,0,0
798,274,0,0,0,0,0,0,0,0,0,-1,2022,750,0,0
805,274,0,0,0,0,0,0,0,0,0,-1,2029,750,0,0
812,274,0,0,0,0,0,0,0,0,0,-1,2036,750,0,0
-700,267,0,0,0,0,0,0,0,0,0,-1,524,757,0,0
-693,267,0,0,0,0,0,0,0,0,0,-1,531,757,0,0
-686,267,0,0,0,0,0,0,0,0,0,-1,538,757,0,0
-679,267,0,0,0,0,0,0,0,0,0,-1,545,757,0,0
-672,267,0,0,0,0,0,0,0,0,0,-1,552,757,0,0
-665,267,0,0,0,0,0,0,0,0,0,-1,559,757,0,0
-658,267,0,0,0,0,0,0,0,0,0,-1,566,757,0,0
-651,267,0,0,0,0,0,0,0,0,0,-1,573,757,0,0
-644,267,0,0,0,0,0,0,0,0,0,-1,580,757,0,0
-637,267,0,0,0,0,0,0,0,0,0,-1,587,757,0,0
-630,267,-21.3979,5.17529,0,0,0,0,0,0,0,-1,594,757,-21.3979,-5.17529
-623,267,-20.043,4.43115,0.243813,0.114188,-0.013844,0.245276,0.112726,-0.105218,0.141764,0.0479414,601,757,-20.043,-4.43116
-616,267,-18.6166,3.68896,0.197492,0.0920536,-0.00954873,0.19835,0.0911958,-0.0895909,0.114641,0.0487882,608,757,-18.6166,-3.68899
-609,267,-17.4235,3.08374,0.155175,0.0721056,-0.00594507,0.155598,0.0716823,-0.0710847,0.0899272,0.0459233,615,757,-17.4235,-3.08375
-602,267,-16.4521,2.65497,0.117624,0.0545627,-0.0031661,0.117783,0.0544041,-0.0500386,0.0680679,0.0477426,622,757,-16.4521,-2.65497
-595,267,-15.4372,2.01086,0,0,0,0,0,0,0,-1,629,757,-15.4372,-2.01089
-588,267,-14.6147,1.42804,0.0584232,0.0272463,0.000389927,0.0584281,0.0272414,0.0125043,0.0337591,0.0426546,636,757,-14.6147,-1.42804
-581,267,-14.415,0.955811,0.0376233,0.0176954,0.00133714,0.0377126,0.0176061,0.0667004,0.0217893,0.0304427,643,757,-14.4151,-0.955822
-574,267,-14.4513,0.487671,0.0226718,0.0107951,0.00186527,0.0229579,0.0105091,0.152174,0.0132705,0.0171969,650,757,-14.4513,-0.487696
-567,267,-14.5117,0.153259,0.0109806,0.00497034,0.00232552,0.0117753,0.00417562,0.329297,0.0068936,0.0223621,657,757,-14.5117,-0.153255
-560,267,-14.5202,-0.226379,0.00288219,0.0016891,0.00246746,0.00482419,-0.000252899,0.666792,0.00330366,0.0211859,664,757,-14.5202,0.226405
-553,267,-14.5305,-0.642517,-0.000740759,-2.81238e-05,0.00226606,0.00190946,-0.00267834,0.86338,0.00266114,0.0179629,671,757,-14.5304,0.642509
-546,267,-14.5413,-1.05725,-0.00429888,-0.00134801,0.00253203,0.000107099,-0.00575399,1.0492,0.00387219,0.0113006,678,757,-14.5413,1.05724
-539,267,-14.5509,-1.44409,-0.007101,-0.00187854,0.00308178,-0.000450481,-0.00852906,1.13686,0.00554198,0.0103943,685,757,-14.5509,1.44408
-532,267,-14.549,-1.81384,-0.0100662,-0.00279,0.00380251,-0.0011655,-0.0116907,1.16705,0.00743578,0.010599,692,757,-14.549,1.81387
-525,267,-14.5601,-2.17712,-0.0131975,-0.00482873,0.00473982,-0.00269054,-0.0153357,1.14702,0.00945543,0.00999551,699,757,-14.5601,2.17715
-518,267,-14.5578,-2.57983,-0.0155662,-0.00644312,0.0051595,-0.00411786,-0.0178915,1.14738,0.0108195,0.0104212,706,757,-14.5578,2.57982
-511,267,-14.5534,-3.03052,-0.0169683,-0.0081422,0.00525403,-0.00569378,-0.0194168,1.13471,0.0115253,0.0157243,713,757,-14.5534,3.03054
-504,267,-14.6179,-3.39594,-0.017479,-0.00961277,0.00565372,-0.00665866,-0.0204332,1.08931,0.0120332,0.0317645,720,757,-14.6179,3.39594
-497,267,-14.7084,-3.72522,0,0,0,0,0,0,0,-1,727,757,-14.7084,3.72523
-490,267,-21.1359,0.910034,0,0,0,0,0,0,0,-1,734,757,-21.1359,-0.910037
-483,267,-24.7317,1.22913,0,0,0,0,0,0,0,-1,741,757,-24.7317,-1.22913
-476,267,-24.5482,1.29852,0,0,0,0,0,0,0,-1,748,757,-24.5481,-1.2985
-469,267,-24.0452,1.10614,-0.00275889,-0.0192829,0.00329679,-0.00212541,-0.0199164,0.189835,0.0126289,0.0420302,755,757,-24.0452,-1.10614
-462,267,-24.0983,0.774597,0.0049387,-0.0194506,0.00179781,0.00507051,-0.0195824,0.073186,0.0150329,0.0466385,762,757,-24.0982,-0.774624
-455,267,-24.1201,0.616516,0.0159458,-0.0165081,-0.00055521,0.0159553,-0.0165176,-0.017101,0.0187491,0.0490267,769,757,-24.1201,-0.616527
-448,267,-24.3366,0.760559,0,0,0,0,0,0,0,-1,776,757,-24.3366,-0.760568
-441,267,0,0,0,0,0,0,0,0,0,-1,783,757,0,0
-434,267,0,0,0,0,0,0,0,0,0,-1,790,757,0,0
-427,267,0,0,0,0,0,0,0,0,0,-1,797,757,0,0
-420,267,0,0,0,0,0,0,0,0,0,-1,804,757,0,0
-413,267,0,0,0,0,0,0,0,0,0,-1,811,757,0,0
-406,267,0,0,0,0,0,0,0,0,0,-1,818,757,0,0
-399,267,0,0,0,0,0,0,0,0,0,-1,825,757,0,0
-392,267,0,0,0,0,0,0,0,0,0,-1,832,757,0,0
-385,267,0,0,0,0,0,0,0,0,0,-1,839,757,0,0
-378,267,0,0,0,0,0,0,0,0,0,-1,846,757,0,0
-371,267,0,0,0,0,0,0,0,0,0,-1,853,757,0,0
-364,267,0,0,0,0,0,0,0,0,0,-1,860,757,0,0
-357,267,0,0,0,0,0,0,0,0,0,-1,867,757,0,0
-350,267,0,0,0,0,0,0,0,0,0,-1,874,757,0,0
-343,267,0,0,0,0,0,0,0,0,0,-1,881,757,0,0
-336,267,0,0,0,0,0,0,0,0,0,-1,888,757,0,0
-329,267,0,0,0,0,0,0,0,0,0,-1,895,757,0,0
-322,267,0,0,0,0,0,0,0,0,0,-1,902,757,0,0
-315,267,0,0,0,0,0,0,0,0,0,-1,909,757,0,0
-308,267,0,0,0,0,0,0,0,0,0,-1,916,757,0,0
-301,267,0,0,0,0,0,0,0,0,0,-1,923,757,0,0
-294,267,0,0,0,0,0,0,0,0,0,-1,930,757,0,0
-287,267,0,0,0,0,0,0,0,0,0,-1,937,757,0,0
-280,267,0,0,0,0,0,0,0,0,0,-1,944,757,0,0
-273,267,0,0,0,0,0,0,0,0,0,-1,951,757,0,0
-266,267,0,0,0,0,0,0,0,0,0,-1,958,757,0,0
-259,267,0,0,0,0,0,0,0,0,0,-1,965,757,0,0
-252,267,0,0,0,0,0,0,0,0,0,-1,972,757,0,0
-245,267,0,0,0,0,0,0,0,0,0,-1,979,757,0,0
-238,267,0,0,0,0,0,0,0,0,0,-1,986,757,0,0
-231,267,0,0,0,0,0,0,0,0,0,-1,993,757,0,0
-224,267,0,0,0,0,0,0,0,0,0,-1,1000,757,0,0
-217,267,0,0,0,0,0,0,0,0,0,-1,1007,757,0,0
-210,267,0,0,0,0,0,0,0,0,0,-1,1014,757,0,0
-203,267,0,0,0,0,0,0,0,0,0,-1,1021,757,0,0
-196,267,0,0,0,0,0,0,0,0,0,-1,1028,757,0,0
-189,267,0,0,0,0,0,0,0,0,0,-1,1035,757,0,0
-182,267,0,0,0,0,0,0,0,0,0,-1,1042,757,0,0
-175,267,0,0,0,0,0,0,0,0,0,-1,1049,757,0,0
-168,267,0,0,0,0,0,0,0,0,0,-1,1056,757,0,0
-161,267,0,0,0,0,0,0,0,0,0,-1,1063,757,0,0
-154,267,0,0,0,0,0,0,0,0,0,-1,1070,757,0,0
-147,267,0,0,0,0,0,0,0,0,0,-1,1077,757,0,0
-140,267,0,0,0,0,0,0,0,0,0,-1,1084,757,0,0
-133,267,0,0,0,0,0,0,0,0,0,-1,1091,757,0,0
-126,267,0,0,0,0,0,0,0,0,0,-1,1098,757,0,0
-119,267,0,0,0,0,0,0,0,0,0,-1,1105,757,0,0
-112,267,0,0,0,0,0,0,0,0,0,-1,1112,757,0,0
-105,267,0,0,0,0,0,0,0,0,0,-1,1119,757,0,0
-98,267,0,0,0,0,0,0,0,0,0,-1,1126,757,0,0
-91,267,0,0,0,0,0,0,0,0,0,-1,1133,757,0,0
-84,267,0,0,0,0,0,0,0,0,0,-1,1140,757,0,0
-77,267,0,0,0,0,0,0,0,0,0,-1,1147,757,0,0
-70,267,0,0,0,0,0,0,0,0,0,-1,1154,757,0,0
-63,267,0,0,0,0,0,0,0,0,0,-1,1161,757,0,0
-56,267,0,0,0,0,0,0,0,0,0,-1,1168,757,0,0
-49,267,0,0,0,0,0,0,0,0,0,-1,1175,757,0,0
-42,267,0,0,0,0,0,0,0,0,0,-1,1182,757,0,0
-35,267,0,0,0,0,0,0,0,0,0,-1,1189,757,0,0
-28,267,0,0,0,0,0,0,0,0,0,-1,1196,757,0,0
-21,267,0,0,0,0,0,0,0,0,0,-1,1203,757,0,0
-14,267,0,0,0,0,0,0,0,0,0,-1,1210,757,0,0
-7,267,0,0,0,0,0,0,0,0,0,-1,1217,757,0,0
0,267,0,0,0,0,0,0,0,0,0,-1,1224,757,0,0
7,267,0,0,0,0,0,0,0,0,0,-1,1231,757,0,0
14,267,0,0,0,0,0,0,0,0,0,-1,1238,757,0,0
21,267,0,0,0,0,0,0,0,0,0,-1,1245,757,0,0
28,267,0,0,0,0,0,0,0,0,0,-1,1252,757,0,0
35,267,0,0,0,0,0,0,0,0,0,-1,1259,757,0,0
42,267,0,0,0,0,0,0,0,0,0,-1,1266,757,0,0
49,267,0,0,0,0,0,0,0,0,0,-1,1273,757,0,0
56,267,0,0,0,0,0,0,0,0,0,-1,1280,757,0,0
63,267,0,0,0,0,0,0,0,0,0,-1,1287,757,0,0
70,267,0,0,0,0,0,0,0,0,0,-1,1294,757,0,0
77,267,0,0,0,0,0,0,0,0,0,-1,1301,757,0,0
84,267,0,0,0,0,0,0,0,0,0,-1,1308,757,0,0
91,267,0,0,0,0,0,0,0,0,0,-1,1315,757,0,0
98,267,0,0,0,0,0,0,0,0,0,-1,1322,757,0,0
105,267,0,0,0,0,0,0,0,0,0,-1,1329,757,0,0
112,267,0,0,0,0,0,0,0,0,0,-1,1336,757,0,0
119,267,0,0,0,0,0,0,0,0,0,-1,1343,757,0,0
126,267,0,0,0,0,0,0,0,0,0,-1,1350,757,0,0
133,267,0,0,0,0,0,0,0,0,0,-1,1357,757,0,0
140,267,0,0,0,0,0,0,0,0,0,-1,1364,757,0,0
147,267,0,0,0,0,0,0,0,0,0,-1,1371,757,0,0
154,267,0,0,0,0,0,0,0,0,0,-1,1378,757,0,0
161,267,0,0,0,0,0,0,0,0,0,-1,1385,757,0,0
168,267,0,0,0,0,0,0,0,0,0,-1,1392,757,0,0
175,267,0,0,0,0,0,0,0,0,0,-1,1399,757,0,0
182,267,0,0,0,0,0,0,0,0,0,-1,1406,757,0,0
189,267,0,0,0,0,0,0,0,0,0,-1,1413,757,0,0
196,267,0,0,0,0,0,0,0,0,0,-1,1420,757,0,0
203,267,0,0,0,0,0,0,0,0,0,-1,1427,757,0,0
210,267,0,0,0,0,0,0,0,0,0,-1,1434,757,0,0
217,267,0,0,0,0,0,0,0,0,0,-1,1441,757,0,0
224,267,0,0,0,0,0,0,0,0,0,-1,1448,757,0,0
231,267,0,0,0,0,0,0,0,0,0,-1,1455,757,0,0
238,267,0,0,0,0,0,0,0,0,0,-1,1462,757,0,0
245,267,0,0,0,0,0,0,0,0,0,-1,1469,757,0,0
252,267,0,0,0,0,0,0,0,0,0,-1,1476,757,0,0
259,267,0,0,0,0,0,0,0,0,0,-1,1483,757,0,0
266,267,0,0,0,0,0,0,0,0,0,-1,1490,757,0,0
273,267,0,0,0,0,0,0,0,0,0,-1,1497,757,0,0
280,267,0,0,0,0,0,0,0,0,0,-1,1504,757,0,0
287,267,0,0,0,0,0,0,0,0,0,-1,1511,757,0,0
294,267,0,0,0,0,0,0,0,0,0,-1,1518,757,0,0
301,267,0,0,0,0,0,0,0,0,0,-1,1525,757,0,0
308,267,0,0,0,0,0,0,0,0,0,-1,1532,757,0,0
315,267,0,0,0,0,0,0,0,0,0,-1,1539,757,0,0
322,267,0,0,0,0,0,0,0,0,0,-1,1546,757,0,0
329,267,0,0,0,0,0,0,0,0,0,-1,1553,757,0,0
336,267,0,0,0,0,0,0,0,0,0,-1,1560,757,0,0
343,267,0,0,0,0,0,0,0,0,0,-1,1567,757,0,0
350,267,0,0,0,0,0,0,0,0,0,-1,1574,757,0,0
357,267,0,0,0,0,0,0,0,0,0,-1,1581,757,0,0
364,267,0,0,0,0,0,0,0,0,0,-1,1588,757,0,0
371,267,0,0,0,0,0,0,0,0,0,-1,1595,757,0,0
378,267,0,0,0,0,0,0,0,0,0,-1,1602,757,0,0
385,267,0,0,0,0,0,0,0,0,0,-1,1609,757,0,0
392,267,0,0,0,0,0,0,0,0,0,-1,1616,757,0,0
399,267,0,0,0,0,0,0,0,0,0,-1,1623,757,0,0
406,267,0,0,0,0,0,0,0,0,0,-1,1630,757,0,0
413,267,0,0,0,0,0,0,0,0,0,-1,1637,757,0,0
420,267,0,0,0,0,0,0,0,0,0,-1,1644,757,0,0
427,267,0,0,0,0,0,0,0,0,0,-1,1651,757,0,0
434,267,0,0,0,0,0,0,0,0,0,-1,1658,757,0,0
441,267,0,0,0,0,0,0,0,0,0,-1,1665,757,0,0
448,267,0,0,0,0,0,0,0,0,0,-1,1672,757,0,0
455,267,0,0,0,0,0,0,0,0,0,-1,1679,757,0,0
462,267,0,0,0,0,0,0,0,0,0,-1,1686,757,0,0
469,267,0,0,0,0,0,0,0,0,0,-1,1693,757,0,0
476,267,0,0,0,0,0,0,0,0,0,-1,1700,757,0,0
483,267,0,0,0,0,0,0,0,0,0,-1,1707,757,0,0
490,267,0,0,0,0,0,0,0,0,0,-1,1714,757,0,0
497,267,0,0,0,0,0,0,0,0,0,-1,1721,757,0,0
504,267,0,0,0,0,0,0,0,0,0,-1,1728,757,0,0
511,267,0,0,0,0,0,0,0,0,0,-1,1735,757,0,0
518,267,0,0,0,0,0,0,0,0,0,-1,1742,757,0,0
525,267,0,0,0,0,0,0,0,0,0,-1,1749,757,0,0
532,267,0,0,0,0,0,0,0,0,0,-1,1756,757,0,0
539,267,0,0,0,0,0,0,0,0,0,-1,1763,757,0,0
546,267,0,0,0,0,0,0,0,0,0,-1,1770,757,0,0
553,267,0,0,0,0,0,0,0,0,0,-1,1777,757,0,0
560,267,0,0,0,0,0,0,0,0,0,-1,1784,757,0,0
567,267,34.1919,3.09198,0.0296999,0.0163245,-0.000779855,0.0297452,0.0162791,-0.0580429,0.017199,0.038717,1791,757,34.1918,-3.09195
574,267,34.2456,3.07916,0.0437553,0.0085529,-0.00366353,0.0441325,0.00817568,-0.102606,0.0271105,0.0406361,1798,757,34.2456,-3.07916
581,267,34.0948,3.1889,0.0458108,0.00422675,-0.0040741,0.0462061,0.00383136,-0.0967469,0.0296097,0.041039,1805,757,34.0948,-3.18893
588,267,34.8091,2.61505,0.0404402,0.0012861,-0.00425273,0.0408968,0.000829512,-0.106953,0.0269923,0.0463887,1812,757,34.8091,-2.61508
595,267,35.5864,2.38831,0,0,0,0,0,0,0,-1,1819,757,35.5865,-2.38828
602,267,35.7855,1.82306,0.0256974,-0.00218043,-0.00339819,0.0261056,-0.00258868,-0.119564,0.0183277,0.0466212,1826,757,35.7855,-1.82307
609,267,35.4901,1.82227,0.018874,-0.00313425,-0.00292886,0.0192571,-0.00351735,-0.130065,0.0141569,0.0428714,1833,757,35.4901,-1.82228
616,267,35.2533,2.16339,0,0,0,0,0,0,0,-1,1840,757,35.2533,-2.16339
623,267,24.1475,-1.1391,0,0,0,0,0,0,0,-1,1847,757,24.1475,1.13913
630,267,23.6144,-0.95343,0.00555495,-0.00461952,-0.00258771,0.00617528,-0.00523984,-0.235278,0.00659789,0.049734,1854,757,23.6143,0.953421
637,267,22.8733,-1.05035,0.00133827,-0.00522292,-0.00188262,0.00184007,-0.00572472,-0.26049,0.00455545,0.0272989,1861,757,22.8733,1.05035
644,267,22.7842,-0.643616,-0.00415537,-0.00441729,-0.00117826,-0.00310081,-0.00547185,-0.730053,0.00316853,0.0123807,1868,757,22.7842,0.643596
651,267,22.7563,-0.193604,-0.00451684,-0.00351111,-0.00124748,-0.00266896,-0.00535899,-0.976989,0.00309402,0.0143121,1875,757,22.7564,0.193622
658,267,22.7595,0.204712,-0.00373462,-0.00242292,-0.00152914,-0.00141492,-0.00474263,-0.987983,0.00281141,0.014397,1882,757,22.7595,-0.204682
665,267,22.7612,0.609009,-0.00230185,-0.0017589,-0.0014454,-0.000559706,-0.00350105,-0.878227,0.00217164,0.0148984,1889,757,22.7613,-0.60899
672,267,22.7852,1.01788,-0.000587642,-0.000862261,-0.000695081,-1.64374e-05,-0.00143346,-0.687881,0.000950211,0.0129394,1896,757,22.7852,-1.01786
679,267,22.7715,1.4245,0.00124222,0.000136582,6.77403e-05,0.00124636,0.000132447,0.0609641,0.000790463,0.0125323,1903,757,22.7715,-1.42447
686,267,22.7439,1.8468,0.00347623,0.00134223,0.00112984,0.00396326,0.000855195,0.406996,0.00240827,0.0129624,1910,757,22.7439,-1.84681
693,267,22.7195,2.2265,0.0060637,0.00235295,0.00217163,0.00706462,0.00135203,0.431886,0.00433001,0.0128749,1917,757,22.7195,-2.22653
700,267,22.7067,2.62701,0.00941418,0.00344885,0.00349853,0.0110289,0.00183412,0.432412,0.00682389,0.0146765,1924,757,22.7067,-2.62702
707,267,22.6682,3.03375,0.0139954,0.00466869,0.00530375,0.0163944,0.00226971,0.42478,0.0102571,0.0146288,1931,757,22.6683,-3.03376
714,267,22.7418,3.4422,0.0200013,0.00582984,0.00744523,0.0231937,0.00263748,0.405067,0.0146626,0.0308047,1938,757,22.7418,-3.4422
721,267,23.7618,3.69226,0.0279098,0.00726996,0.0104059,0.0322454,0.0029344,0.394773,0.0205886,0.0495268,1945,757,23.7618,-3.69224
728,267,24.6152,3.82269,0,0,0,0,0,0,0,-1,1952,757,24.6153,-3.82268
735,267,24.6713,2.82483,0,0,0,0,0,0,0,-1,1959,757,24.6713,-2.82483
742,267,18.1177,3.56561,0,0,0,0,0,0,0,-1,1966,757,18.1176,-3.56564
749,267,0,0,0,0,0,0,0,0,0,-1,1973,757,0,0
756,267,0,0,0,0,0,0,0,0,0,-1,1980,757,0,0
763,267,0,0,0,0,0,0,0,0,0,-1,1987,757,0,0
770,267,0,0,0,0,0,0,0,0,0,-1,1994,757,0,0
777,267,0,0,0,0,0,0,0,0,0,-1,2001,757,0,0
784,267,0,0,0,0,0,0,0,0,0,-1,2008,757,0,0
791,267,0,0,0,0,0,0,0,0,0,-1,2015,757,0,0
798,267,0,0,0,0,0,0,0,0,0,-1,2022,757,0,0
805,267,0,0,0,0,0,0,0,0,0,-1,2029,757,0,0
812,267,0,0,0,0,0,0,0,0,0,-1,2036,757,0,0
-700,260,0,0,0,0,0,0,0,0,0,-1,524,764,0,0
-693,260,0,0,0,0,0,0,0,0,0,-1,531,764,0,0
-686,260,0,0,0,0,0,0,0,0,0,-1,538,764,0,0
-679,260,0,0,0,0,0,0,0,0,0,-1,545,764,0,0
-672,260,0,0,0,0,0,0,0,0,0,-1,552,764,0,0
-665,260,0,0,0,0,0,0,0,0,0,-1,559,764,0,0
-658,260,0,0,0,0,0,0,0,0,0,-1,566,764,0,0
-651,260,0,0,0,0,0,0,0,0,0,-1,573,764,0,0
-644,260,0,0,0,0,0,0,0,0,0,-1,580,764,0,0
-637,260,0,0,0,0,0,0,0,0,0,-1,587,764,0,0
-630,260,-21.8905,4.49341,0,0,0,0,0,0,0,-1,594,764,-21.8905,-4.49342
-623,260,-20.3127,3.53546,0.230658,0.105975,-0.0155045,0.232557,0.104076,-0.121879,0.134513,0.0432839,601,764,-20.3127,-3.53544
-616,260,-19.0682,3.15741,0.185169,0.0848332,-0.0115775,0.186487,0.0835147,-0.113402,0.107864,0.0468996,608,764,-19.0682,-3.15742
-609,260,-17.8299,2.4541,0,0,0,0,0,0,0,-1,615,764,-17.8299,-2.45412
-602,260,-17.0128,1.85254,0,0,0,0,0,0,0,-1,622,764,-17.0128,-1.85255
-595,260,-15.2853,1.58759,0,0,0,0,0,0,0,-1,629,764,-15.2854,-1.58756
-588,260,-15.0831,1.18298,0.0525612,0.0243477,-0.00113523,0.0526068,0.0243021,-0.0401508,0.0304018,0.0427155,636,764,-15.0831,-1.18301
-581,260,-14.8812,0.824463,0.0338306,0.0158501,1.18337e-05,0.0338306,0.0158501,0.000658143,0.019545,0.0261224,643,764,-14.8812,-0.824473
-574,260,-14.8939,0.477661,0.020474,0.0097252,0.000758765,0.0205273,0.0096719,0.070127,0.011858,0.0166545,650,764,-14.8938,-0.477662
-567,260,-14.908,0.156128,0.0100565,0.00452671,0.00139885,0.0103902,0.004193,0.23419,0.00603589,0.0156592,657,764,-14.908,-0.156138
-560,260,-14.9177,-0.206665,0.00270632,0.00150846,0.00178023,0.00398567,0.000229114,0.623129,0.00258413,0.0191094,664,764,-14.9177,0.206686
-553,260,-14.923,-0.607727,-0.00107547,-7.82089e-05,0.00189646,0.00138408,-0.00253776,0.913952,0.0022967,0.0173486,671,764,-14.923,0.607748
-546,260,-14.9227,-1.01874,-0.00557583,-0.00145415,0.00254483,-0.000240352,-0.00678962,1.12575,0.00444846,0.0111711,678,764,-14.9227,1.01873
-539,260,-14.9144,-1.40259,-0.00928918,-0.00209612,0.00332051,-0.000797675,-0.0105876,1.19804,0.00680812,0.0110906,685,764,-14.9144,1.40259
-532,260,-14.9164,-1.76337,-0.0128611,-0.0030405,0.00421249,-0.00148117,-0.0144204,1.21627,0.00915991,0.0144585,692,764,-14.9164,1.76334
-525,260,-14.9393,-2.17407,-0.0163061,-0.00486311,0.00520575,-0.00284927,-0.0183199,1.20168,0.011383,0.0140483,699,764,-14.9393,2.17407
-518,260,-14.9662,-2.55988,-0.0189301,-0.00615837,0.00563414,-0.0040282,-0.0210602,1.20933,0.0129087,0.0143587,706,764,-14.9662,2.55987
-511,260,-14.984,-2.97095,-0.020637,-0.00758405,0.00573453,-0.00542262,-0.0227985,1.21035,0.0137525,0.0244748,713,764,-14.984,2.97098
-504,260,-15.0089,-3.34967,0,0,0,0,0,0,0,-1,720,764,-15.0089,3.34966
-497,260,-15.0694,-2.74127,0,0,0,0,0,0,0,-1,727,764,-15.0694,2.74127
-490,260,-24.681,1.07794,0,0,0,0,0,0,0,-1,734,764,-24.681,-1.07797
-483,260,-24.6631,1.17023,-0.01779,-0.0138559,0.00560467,-0.00988311,-0.0217628,0.954167,0.0125824,0.0441326,741,764,-24.6631,-1.17023
-476,260,-24.4835,1.3786,-0.0134742,-0.0151832,0.00470387,-0.00954786,-0.0191096,0.695546,0.0110329,0.0417312,748,764,-24.4835,-1.37859
-469,260,-24.2651,1.46674,-0.0074369,-0.0157101,0.00333474,-0.00626013,-0.0168869,0.339241,0.0098577,0.0421635,755,764,-24.2651,-1.46672
-462,260,-24.2623,1.05383,0.000664731,-0.0145475,0.0012793,0.000771567,-0.0146543,0.0833171,0.0100366,0.0427529,762,764,-24.2623,-1.0538
-455,260,-24.7474,0.917908,0.0127144,-0.00943059,-0.00216162,0.0129234,-0.00963962,-0.0963997,0.0130727,0.0476125,769,764,-24.7475,-0.917922
-448,260,0,0,0,0,0,0,0,0,0,-1,776,764,0,0
-441,260,0,0,0,0,0,0,0,0,0,-1,783,764,0,0
-434,260,0,0,0,0,0,0,0,0,0,-1,790,764,0,0
-427,260,0,0,0,0,0,0,0,0,0,-1,797,764,0,0
-420,260,0,0,0,0,0,0,0,0,0,-1,804,764,0,0
-413,260,0,0,0,0,0,0,0,0,0,-1,811,764,0,0
-406,260,0,0,0,0,0,0,0,0,0,-1,818,764,0,0
-399,260,0,0,0,0,0,0,0,0,0,-1,825,764,0,0
-392,260,0,0,0,0,0,0,0,0,0,-1,832,764,0,0
-385,260,0,0,0,0,0,0,0,0,0,-1,839,764,0,0
-378,260,0,0,0,0,0,0,0,0,0,-1,846,764,0,0
-371,260,0,0,0,0,0,0,0,0,0,-1,853,764,0,0
-364,260,0,0,0,0,0,0,0,0,0,-1,860,764,0,0
-357,260,0,0,0,0,0,0,0,0,0,-1,867,764,0,0
-350,260,0,0,0,0,0,0,0,0,0,-1,874,764,0,0
-343,260,0,0,0,0,0,0,0,0,0,-1,881,764,0,0
-336,260,0,0,0,0,0,0,0,0,0,-1,888,764,0,0
-329,260,0,0,0,0,0,0,0,0,0,-1,895,764,0,0
-322,260,0,0,0,0,0,0,0,0,0,-1,902,764,0,0
-315,260,0,0,0,0,0,0,0,0,0,-1,909,764,0,0
-308,260,0,0,0,0,0,0,0,0,0,-1,916,764,0,0
-301,260,0,0,0,0,0,0,0,0,0,-1,923,764,0,0
-294,260,0,0,0,0,0,0,0,0,0,-1,930,764,0,0
-287,260,0,0,0,0,0,0,0,0,0,-1,937,764,0,0
-280,260,0,0,0,0,0,0,0,0,0,-1,944,764,0,0
-273,260,0,0,0,0,0,0,0,0,0,-1,951,764,0,0
-266,260,0,0,0,0,0,0,0,0,0,-1,958,764,0,0
-259,260,0,0,0,0,0,0,0,0,0,-1,965,764,0,0
-252,260,0,0,0,0,0,0,0,0,0,-1,972,764,0,0
-245,260,0,0,0,0,0,0,0,0,0,-1,979,764,0,0
-238,260,0,0,0,0,0,0,0,0,0,-1,986,764,0,0
-231,260,0,0,0,0,0,0,0,0,0,-1,993,764,0,0
-224,260,0,0,0,0,0,0,0,0,0,-1,1000,764,0,0
-217,260,0,0,0,0,0,0,0,0,0,-1,1007,764,0,0
-210,260,0,0,0,0,0,0,0,0,0,-1,1014,764,0,0
-203,260,0,0,0,0,0,0,0,0,0,-1,1021,764,0,0
-196,260,0,0,0,0,0,0,0,0,0,-1,1028,764,0,0
-189,260,0,0,0,0,0,0,0,0,0,-1,1035,764,0,0
-182,260,0,0,0,0,0,0,0,0,0,-1,1042,764,0,0
-175,260,0,0,0,0,0,0,0,0,0,-1,1049,764,0,0
-168,260,0,0,0,0,0,0,0,0,0,-1,1056,764,0,0
-161,260,0,0,0,0,0,0,0,0,0,-1,1063,764,0,0
-154,260,0,0,0,0,0,0,0,0,0,-1,1070,764,0,0
-147,260,0,0,0,0,0,0,0,0,0,-1,1077,764,0,0
-140,260,0,0,0,0,0,0,0,0,0,-1,1084,764,0,0
-133,260,0,0,0,0,0,0,0,0,0,-1,1091,764,0,0
-126,260,0,0,0,0,0,0,0,0,0,-1,1098,764,0,0
-119,260,0,0,0,0,0,0,0,0,0,-1,1105,764,0,0
-112,260,0,0,0,0,0,0,0,0,0,-1,1112,764,0,0
-105,260,0,0,0,0,0,0,0,0,0,-1,1119,764,0,0
-98,260,0,0,0,0,0,0,0,0,0,-1,1126,764,0,0
-91,260,0,0,0,0,0,0,0,0,0,-1,1133,764,0,0
-84,260,0,0,0,0,0,0,0,0,0,-1,1140,764,0,0
-77,260,0,0,0,0,0,0,0,0,0,-1,1147,764,0,0
-70,260,0,0,0,0,0,0,0,0,0,-1,1154,764,0,0
-63,260,0,0,0,0,0,0,0,0,0,-1,1161,764,0,0
-56,260,0,0,0,0,0,0,0,0,0,-1,1168,764,0,0
-49,260,0,0,0,0,0,0,0,0,0,-1,1175,764,0,0
-42,260,0,0,0,0,0,0,0,0,0,-1,1182,764,0,0
-35,260,0,0,0,0,0,0,0,0,0,-1,1189,764,0,0
-28,260,0,0,0,0,0,0,0,0,0,-1,1196,764,0,0
-21,260,0,0,0,0,0,0,0,0,0,-1,1203,764,0,0
-14,260,0,0,0,0,0,0,0,0,0,-1,1210,764,0,0
-7,260,0,0,0,0,0,0,0,0,0,-1,1217,764,0,0
0,260,0,0,0,0,0,0,0,0,0,-1,1224,764,0,0
7,260,0,0,0,0,0,0,0,0,0,-1,1231,764,0,0
14,260,0,0,0,0,0,0,0,0,0,-1,1238,764,0,0
21,260,0,0,0,0,0,0,0,0,0,-1,1245,764,0,0
28,260,0,0,0,0,0,0,0,0,0,-1,1252,764,0,0
35,260,0,0,0,0,0,0,0,0,0,-1,1259,764,0,0
42,260,0,0,0,0,0,0,0,0,0,-1,1266,764,0,0
49,260,0,0,0,0,0,0,0,0,0,-1,1273,764,0,0
56,260,0,0,0,0,0,0,0,0,0,-1,1280,764,0,0
63,260,0,0,0,0,0,0,0,0,0,-1,1287,764,0,0
70,260,0,0,0,0,0,0,0,0,0,-1,1294,764,0,0
77,260,0,0,0,0,0,0,0,0,0,-1,1301,764,0,0
84,260,0,0,0,0,0,0,0,0,0,-1,1308,764,0,0
91,260,0,0,0,0,0,0,0,0,0,-1,1315,764,0,0
98,260,0,0,0,0,0,0,0,0,0,-1,1322,764,0,0
105,260,0,0,0,0,0,0,0,0,0,-1,1329,764,0,0
112,260,0,0,0,0,0,0,0,0,0,-1,1336,764,0,0
119,260,0,0,0,0,0,0,0,0,0,-1,1343,764,0,0
126,260,0,0,0,0,0,0,0,0,0,-1,1350,764,0,0
133,260,0,0,0,0,0,0,0,0,0,-1,1357,764,0,0
140,260,0,0,0,0,0,0,0,0,0,-1,1364,764,0,0
147,260,0,0,0,0,0,0,0,0,0,-1,1371,764,0,0
154,260,0,0,0,0,0,0,0,0,0,-1,1378,764,0,0
161,260,0,0,0,0,0,0,0,0,0,-1,1385,764,0,0
168,260,0,0,0,0,0,0,0,0,0,-1,1392,764,0,0
175,260,0,0,0,0,0,0,0,0,0,-1,1399,764,0,0
182,260,0,0,0,0,0,0,0,0,0,-1,1406,764,0,0
189,260,0,0,0,0,0,0,0,0,0,-1,1413,764,0,0
196,260,0,0,0,0,0,0,0,0,0,-1,1420,764,0,0
203,260,0,0,0,0,0,0,0,0,0,-1,1427,764,0,0
210,260,0,0,0,0,0,0,0,0,0,-1,1434,764,0,0
217,260,0,0,0,0,0,0,0,0,0,-1,1441,764,0,0
224,260,0,0,0,0,0,0,0,0,0,-1,1448,764,0,0
231,260,0,0,0,0,0,0,0,0,0,-1,1455,764,0,0
238,260,0,0,0,0,0,0,0,0,0,-1,1462,764,0,0
245,260,0,0,0,0,0,0,0,0,0,-1,1469,764,0,0
252,260,0,0,0,0,0,0,0,0,0,-1,1476,764,0,0
259,260,0,0,0,0,0,0,0,0,0,-1,1483,764,0,0
266,260,0,0,0,0,0,0,0,0,0,-1,1490,764,0,0
273,260,0,0,0,0,0,0,0,0,0,-1,1497,764,0,0
280,260,0,0,0,0,0,0,0,0,0,-1,1504,764,0,0
287,260,0,0,0,0,0,0,0,0,0,-1,1511,764,0,0
294,260,0,0,0,0,0,0,0,0,0,-1,1518,764,0,0
301,260,0,0,0,0,0,0,0,0,0,-1,1525,764,0,0
308,260,0,0,0,0,0,0,0,0,0,-1,1532,764,0,0
315,260,0,0,0,0,0,0,0,0,0,-1,1539,764,0,0
322,260,0,0,0,0,0,0,0,0,0,-1,1546,764,0,0
329,260,0,0,0,0,0,0,0,0,0,-1,1553,764,0,0
336,260,0,0,0,0,0,0,0,0,0,-1,1560,764,0,0
343,260,0,0,0,0,0,0,0,0,0,-1,1567,764,0,0
350,260,0,0,0,0,0,0,0,0,0,-1,1574,764,0,0
357,260,0,0,0,0,0,0,0,0,0,-1,1581,764,0,0
364,260,0,0,0,0,0,0,0,0,0,-1,1588,764,0,0
371,260,0,0,0,0,0,0,0,0,0,-1,1595,764,0,0
378,260,0,0,0,0,0,0,0,0,0,-1,1602,764,0,0
385,260,0,0,0,0,0,0,0,0,0,-1,1609,764,0,0
392,260,0,0,0,0,0,0,0,0,0,-1,1616,764,0,0
399,260,0,0,0,0,0,0,0,0,0,-1,1623,764,0,0
406,260,0,0,0,0,0,0,0,0,0,-1,1630,764,0,0
413,260,0,0,0,0,0,0,0,0,0,-1,1637,764,0,0
420,260,0,0,0,0,0,0,0,0,0,-1,1644,764,0,0
427,260,0,0,0,0,0,0,0,0,0,-1,1651,764,0,0
434,260,0,0,0,0,0,0,0,0,0,-1,1658,764,0,0
441,260,0,0,0,0,0,0,0,0,0,-1,1665,764,0,0
448,260,0,0,0,0,0,0,0,0,0,-1,1672,764,0,0
455,260,0,0,0,0,0,0,0,0,0,-1,1679,764,0,0
462,260,0,0,0,0,0,0,0,0,0,-1,1686,764,0,0
469,260,0,0,0,0,0,0,0,0,0,-1,1693,764,0,0
476,260,0,0,0,0,0,0,0,0,0,-1,1700,764,0,0
483,260,0,0,0,0,0,0,0,0,0,-1,1707,764,0,0
490,260,0,0,0,0,0,0,0,0,0,-1,1714,764,0,0
497,260,0,0,0,0,0,0,0,0,0,-1,1721,764,0,0
504,260,0,0,0,0,0,0,0,0,0,-1,1728,764,0,0
511,260,0,0,0,0,0,0,0,0,0,-1,1735,764,0,0
518,260,0,0,0,0,0,0,0,0,0,-1,1742,764,0,0
525,260,0,0,0,0,0,0,0,0,0,-1,1749,764,0,0
532,260,0,0,0,0,0,0,0,0,0,-1,1756,764,0,0
539,260,0,0,0,0,0,0,0,0,0,-1,1763,764,0,0
546,260,0,0,0,0,0,0,0,0,0,-1,1770,764,0,0
553,260,0,0,0,0,0,0,0,0,0,-1,1777,764,0,0
560,260,0,0,0,0,0,0,0,0,0,-1,1784,764,0,0
567,260,0,0,0,0,0,0,0,0,0,-1,1791,764,0,0
574,260,34.3707,2.78571,0.031599,0.010736,-0.00264194,0.0319283,0.0104067,-0.124025,0.0188025,0.0363098,1798,764,34.3708,-2.78569
581,260,34.0649,3.13892,0.0381633,0.00490015,-0.00288644,0.038412,0.00465154,-0.0859201,0.0242069,0.0396569,1805,764,34.0649,-3.13891
588,260,34.5511,2.79376,0.0347183,0.00110573,-0.00327328,0.0350341,0.000789938,-0.0961786,0.0230973,0.0474205,1812,764,34.5511,-2.79378
595,260,34.9601,2.39655,0.0284867,-0.00123309,-0.00313745,0.0288143,-0.00156069,-0.10404,0.0197503,0.0473696,1819,764,34.9601,-2.39656
602,260,35.1718,1.8985,0.0218971,-0.00260678,-0.00270791,0.0221928,-0.00290247,-0.108761,0.0158515,0.0414045,1826,764,35.1718,-1.89851
609,260,35.1168,1.69629,0.0158427,-0.003478,-0.00241296,0.0161395,-0.00377479,-0.122386,0.0122139,0.0381815,1833,764,35.1168,-1.69629
616,260,35.025,1.73676,0,0,0,0,0,0,0,-1,1840,764,35.0251,-1.73676
623,260,32.2268,3.25836,0,0,0,0,0,0,0,-1,1847,764,32.2268,-3.25833
630,260,24.3739,-0.536316,0,0,0,0,0,0,0,-1,1854,764,24.3739,0.536343
637,260,23.2634,-1.08905,0,0,0,0,0,0,0,-1,1861,764,23.2634,1.08903
644,260,23.2361,-0.628601,-0.0044514,-0.00440452,-0.00107672,-0.00335098,-0.00550493,-0.796281,0.00320322,0.0261512,1868,764,23.2361,0.628625
651,260,23.2133,-0.170288,-0.0049692,-0.00362872,-0.00118865,-0.00293437,-0.00566355,-1.04211,0.00327057,0.0147319,1875,764,23.2132,0.170285
658,260,23.1752,0.228088,-0.00433797,-0.00264034,-0.00159002,-0.00168675,-0.00529156,-1.03057,0.00312126,0.0160755,1882,764,23.1752,-0.228061
665,260,23.1598,0.631653,-0.00292814,-0.00210179,-0.00166056,-0.000803774,-0.00422615,-0.907331,0.0025914,0.0150448,1889,764,23.1598,-0.631627
672,260,23.1688,1.05768,-0.00119121,-0.00129177,-0.00104173,-0.000198539,-0.00228443,-0.761284,0.00146128,0.012964,1896,764,23.1688,-1.05771
679,260,23.1539,1.46332,0.000688281,-0.000387958,-0.000350792,0.000792522,-0.0004922,-0.28885,0.00074846,0.0123103,1903,764,23.1539,-1.46329
686,260,23.1309,1.86713,0.00298277,0.000874462,0.000692374,0.00318982,0.000667418,0.290572,0.00194267,0.0146782,1910,764,23.1308,-1.86712
693,260,23.0964,2.21979,0.00557598,0.00193974,0.00171828,0.00625947,0.00125625,0.378587,0.00382365,0.0146039,1917,764,23.0964,-2.21977
700,260,23.0853,2.62628,0.00872674,0.00305195,0.00295842,0.00998851,0.00179019,0.403139,0.00614975,0.0134349,1924,764,23.0853,-2.62631
707,260,23.0786,3.03082,0.0128575,0.00429105,0.00457876,0.0148441,0.00230442,0.409367,0.0092244,0.0137971,1931,764,23.0786,-3.03083
714,260,23.0642,3.41443,0.0181134,0.00550354,0.00646517,0.020839,0.00277792,0.398974,0.0130655,0.0250665,1938,764,23.0642,-3.41443
721,260,23.1512,3.76245,0.0248114,0.0070214,0.0090054,0.0285741,0.00325866,0.395783,0.0180614,0.0489345,1945,764,23.1512,-3.76243
728,260,23.1536,4.09607,0,0,0,0,0,0,0,-1,1952,764,23.1535,-4.09606
735,260,24.5448,3.315,0,0,0,0,0,0,0,-1,1959,764,24.5448,-3.31503
742,260,25.3129,2.32648,0,0,0,0,0,0,0,-1,1966,764,25.3129,-2.3265
749,260,18.9454,4.52777,0,0,0,0,0,0,0,-1,1973,764,18.9455,-4.5278
756,260,0,0,0,0,0,0,0,0,0,-1,1980,764,0,0
763,260,0,0,0,0,0,0,0,0,0,-1,1987,764,0,0
770,260,0,0,0,0,0,0,0,0,0,-1,1994,764,0,0
777,260,0,0,0,0,0,0,0,0,0,-1,2001,764,0,0
784,260,0,0,0,0,0,0,0,0,0,-1,2008,764,0,0
791,260,0,0,0,0,0,0,0,0,0,-1,2015,764,0,0
798,260,0,0,0,0,0,0,0,0,0,-1,2022,764,0,0
805,260,0,0,0,0,0,0,0,0,0,-1,2029,764,0,0
812,260,0,0,0,0,0,0,0,0,0,-1,2036,764,0,0
-700,253,0,0,0,0,0,0,0,0,0,-1,524,771,0,0
-693,253,0,0,0,0,0,0,0,0,0,-1,531,771,0,0
-686,253,0,0,0,0,0,0,0,0,0,-1,538,771,0,0
-679,253,0,0,0,0,0,0,0,0,0,-1,545,771,0,0
-672,253,0,0,0,0,0,0,0,0,0,-1,552,771,0,0
-665,253,0,0,0,0,0,0,0,0,0,-1,559,771,0,0
-658,253,0,0,0,0,0,0,0,0,0,-1,566,771,0,0
-651,253,0,0,0,0,0,0,0,0,0,-1,573,771,0,0
-644,253,0,0,0,0,0,0,0,0,0,-1,580,771,0,0
-637,253,-24.7979,-0.491394,0,0,0,0,0,0,0,-1,587,771,-24.7978,0.491371
-630,253,-25.156,0.540405,0,0,0,0,0,0,0,-1,594,771,-25.156,-0.540421
-623,253,-20.808,2.84314,0,0,0,0,0,0,0,-1,601,771,-20.8081,-2.84312
-616,253,-19.338,2.65521,0.169483,0.0765227,-0.0117106,0.170935,0.0750702,-0.123406,0.0989328,0.0481017,608,771,-19.338,-2.65522
-609,253,-17.3387,1.70184,0,0,0,0,0,0,0,-1,615,771,-17.3387,-1.70185
-602,253,-15.6143,1.8786,0,0,0,0,0,0,0,-1,622,771,-15.6143,-1.87863
-595,253,-15.4366,1.66632,0.0678238,0.0308679,-0.00367439,0.0681856,0.0305061,-0.098146,0.0394395,0.0495006,629,771,-15.4367,-1.6663
-588,253,-15.3912,1.11353,0.0456146,0.0210128,-0.00201167,0.045778,0.0208494,-0.0810515,0.0264649,0.0405521,636,771,-15.3912,-1.11351
-581,253,-15.2579,0.802795,0.0292066,0.0136517,-0.000824256,0.0292501,0.0136082,-0.0527933,0.0169012,0.0253371,643,771,-15.2579,-0.802824
-574,253,-15.2846,0.468872,0.0176151,0.00836338,2.42363e-05,0.0176152,0.00836331,0.00261961,0.0101745,0.020128,650,771,-15.2846,-0.4689
-567,253,-15.3052,0.0755615,0.00862408,0.00387313,0.000763632,0.0087438,0.00375341,0.155516,0.00506505,0.0158402,657,771,-15.3052,-0.0755657
-560,253,-15.2679,-0.238281,0.0021886,0.00126496,0.00131875,0.00312406,0.000329506,0.616975,0.00198202,0.0125553,664,771,-15.268,0.238303
-553,253,-15.2829,-0.600037,-0.00166984,-3.19638e-05,0.00169107,0.00102803,-0.00272983,1.01089,0.00224254,0.0124276,671,771,-15.2829,0.600029
-546,253,-15.3016,-0.976929,-0.00693438,-0.0012694,0.00264114,-0.00022909,-0.0079747,1.19557,0.00524177,0.0107401,678,771,-15.3015,0.976912
-539,253,-15.322,-1.37524,-0.0112963,-0.00180955,0.00356252,-0.000620709,-0.0124851,1.24871,0.00812443,0.0113135,685,771,-15.322,1.37526
-532,253,-15.3093,-1.75983,-0.0152003,-0.00261018,0.00454982,-0.00113809,-0.0166724,1.25788,0.0107557,0.0160412,692,771,-15.3093,1.75982
-525,253,-15.3217,-2.17151,-0.0188334,-0.00406017,0.00554042,-0.00221323,-0.0206803,1.24903,0.0131115,0.0137848,699,771,-15.3217,2.1715
-518,253,-15.3862,-2.53265,-0.0217032,-0.0049954,0.00596422,-0.00308482,-0.0236137,1.26078,0.0148216,0.0183511,706,771,-15.3862,2.53263
-511,253,-15.5674,-2.87616,-0.0237803,-0.00614802,0.00607487,-0.0042577,-0.0256706,1.26912,0.0158858,0.0424782,713,771,-15.5674,2.87615
-504,253,-16.4116,-2.78082,0,0,0,0,0,0,0,-1,720,771,-16.4116,2.78083
-497,253,-21.3998,-1.49701,0,0,0,0,0,0,0,-1,727,771,-21.3998,1.497
-490,253,-24.5991,1.2688,0,0,0,0,0,0,0,-1,734,771,-24.5991,-1.26879
-483,253,-24.5419,1.40521,-0.0220469,-0.010906,0.00571424,-0.00849631,-0.0244566,1.17173,0.0143375,0.047145,741,771,-24.5419,-1.40522
-476,253,-24.4911,1.71222,-0.0174806,-0.0115229,0.0045438,-0.00906858,-0.019935,1.07554,0.0115251,0.0453244,748,771,-24.4911,-1.71223
-469,253,-24.4777,1.68225,-0.0107128,-0.0110414,0.0027042,-0.00816789,-0.0135863,0.755052,0.0078974,0.0416406,755,771,-24.4777,-1.68224
-462,253,-24.6113,1.23987,-0.0011215,-0.00833492,-0.000109971,-0.00111983,-0.00833659,-0.0152407,0.00522461,0.0440384,762,771,-24.6112,-1.23984
-455,253,-24.995,0.899475,0.0136573,-0.000718217,-0.0048675,0.0151504,-0.00221127,-0.297627,0.0109123,0.0324342,769,771,-24.995,-0.899454
-448,253,0,0,0,0,0,0,0,0,0,-1,776,771,0,0
-441,253,0,0,0,0,0,0,0,0,0,-1,783,771,0,0
-434,253,0,0,0,0,0,0,0,0,0,-1,790,771,0,0
-427,253,0,0,0,0,0,0,0,0,0,-1,797,771,0,0
-420,253,0,0,0,0,0,0,0,0,0,-1,804,771,0,0
-413,253,0,0,0,0,0,0,0,0,0,-1,811,771,0,0
-406,253,0,0,0,0,0,0,0,0,0,-1,818,771,0,0
-399,253,0,0,0,0,0,0,0,0,0,-1,825,771,0,0
-392,253,0,0,0,0,0,0,0,0,0,-1,832,771,0,0
-385,253,0,0,0,0,0,0,0,0,0,-1,839,771,0,0
-378,253,0,0,0,0,0,0,0,0,0,-1,846,771,0,0
-371,253,0,0,0,0,0,0,0,0,0,-1,853,771,0,0
-364,253,0,0,0,0,0,0,0,0,0,-1,860,771,0,0
-357,253,0,0,0,0,0,0,0,0,0,-1,867,771,0,0
-350,253,0,0,0,0,0,0,0,0,0,-1,874,771,0,0
-343,253,0,0,0,0,0,0,0,0,0,-1,881,771,0,0
-336,253,0,0,0,0,0,0,0,0,0,-1,888,771,0,0
-329,253,0,0,0,0,0,0,0,0,0,-1,895,771,0,0
-322,253,0,0,0,0,0,0,0,0,0,-1,902,771,0,0
-315,253,0,0,0,0,0,0,0,0,0,-1,909,771,0,0
-308,253,0,0,0,0,0,0,0,0,0,-1,916,771,0,0
-301,253,0,0,0,0,0,0,0,0,0,-1,923,771,0,0
-294,253,0,0,0,0,0,0,0,0,0,-1,930,771,0,0
-287,253,0,0,0,0,0,0,0,0,0,-1,937,771,0,0
-280,253,0,0,0,0,0,0,0,0,0,-1,944,771,0,0
-273,253,0,0,0,0,0,0,0,0,0,-1,951,771,0,0
-266,253,0,0,0,0,0,0,0,0,0,-1,958,771,0,0
-259,253,0,0,0,0,0,0,0,0,0,-1,965,771,0,0
-252,253,0,0,0,0,0,0,0,0,0,-1,972,771,0,0
-245,253,0,0,0,0,0,0,0,0,0,-1,979,771,0,0
-238,253,0,0,0,0,0,0,0,0,0,-1,986,771,0,0
-231,253,0,0,0,0,0,0,0,0,0,-1,993,771,0,0
-224,253,0,0,0,0,0,0,0,0,0,-1,1000,771,0,0
-217,253,0,0,0,0,0,0,0,0,0,-1,1007,771,0,0
-210,253,0,0,0,0,0,0,0,0,0,-1,1014,771,0,0
-203,253,0,0,0,0,0,0,0,0,0,-1,1021,771,0,0
-196,253,0,0,0,0,0,0,0,0,0,-1,1028,771,0,0
-189,253,0,0,0,0,0,0,0,0,0,-1,1035,771,0,0
-182,253,0,0,0,0,0,0,0,0,0,-1,1042,771,0,0
-175,253,0,0,0,0,0,0,0,0,0,-1,1049,771,0,0
-168,253,0,0,0,0,0,0,0,0,0,-1,1056,771,0,0
-161,253,0,0,0,0,0,0,0,0,0,-1,1063,771,0,0
-154,253,0,0,0,0,0,0,0,0,0,-1,1070,771,0,0
-147,253,0,0,0,0,0,0,0,0,0,-1,1077,771,0,0
-140,253,0,0,0,0,0,0,0,0,0,-1,1084,771,0,0
-133,253,0,0,0,0,0,0,0,0,0,-1,1091,771,0,0
-126,253,0,0,0,0,0,0,0,0,0,-1,1098,771,0,0
-119,253,0,0,0,0,0,0,0,0,0,-1,1105,771,0,0
-112,253,0,0,0,0,0,0,0,0,0,-1,1112,771,0,0
-105,253,0,0,0,0,0,0,0,0,0,-1,1119,771,0,0
-98,253,0,0,0,0,0,0,0,0,0,-1,1126,771,0,0
-91,253,0,0,0,0,0,0,0,0,0,-1,1133,771,0,0
-84,253,0,0,0,0,0,0,0,0,0,-1,1140,771,0,0
-77,253,0,0,0,0,0,0,0,0,0,-1,1147,771,0,0
-70,253,0,0,0,0,0,0,0,0,0,-1,1154,771,0,0
-63,253,0,0,0,0,0,0,0,0,0,-1,1161,771,0,0
-56,253,0,0,0,0,0,0,0,0,0,-1,1168,771,0,0
-49,253,0,0,0,0,0,0,0,0,0,-1,1175,771,0,0
-42,253,0,0,0,0,0,0,0,0,0,-1,1182,771,0,0
-35,253,0,0,0,0,0,0,0,0,0,-1,1189,771,0,0
-28,253,0,0,0,0,0,0,0,0,0,-1,1196,771,0,0
-21,253,0,0,0,0,0,0,0,0,0,-1,1203,771,0,0
-14,253,0,0,0,0,0,0,0,0,0,-1,1210,771,0,0
-7,253,0,0,0,0,0,0,0,0,0,-1,1217,771,0,0
0,253,0,0,0,0,0,0,0,0,0,-1,1224,771,0,0
7,253,0,0,0,0,0,0,0,0,0,-1,1231,771,0,0
14,253,0,0,0,0,0,0,0,0,0,-1,1238,771,0,0
21,253,0,0,0,0,0,0,0,0,0,-1,1245,771,0,0
28,253,0,0,0,0,0,0,0,0,0,-1,1252,771,0,0
35,253,0,0,0,0,0,0,0,0,0,-1,1259,771,0,0
42,253,0,0,0,0,0,0,0,0,0,-1,1266,771,0,0
49,253,0,0,0,0,0,0,0,0,0,-1,1273,771,0,0
56,253,0,0,0,0,0,0,0,0,0,-1,1280,771,0,0
63,253,0,0,0,0,0,0,0,0,0,-1,1287,771,0,0
70,253,0,0,0,0,0,0,0,0,0,-1,1294,771,0,0
77,253,0,0,0,0,0,0,0,0,0,-1,1301,771,0,0
84,253,0,0,0,0,0,0,0,0,0,-1,1308,771,0,0
91,253,0,0,0,0,0,0,0,0,0,-1,1315,771,0,0
98,253,0,0,0,0,0,0,0,0,0,-1,1322,771,0,0
105,253,0,0,0,0,0,0,0,0,0,-1,1329,771,0,0
112,253,0,0,0,0,0,0,0,0,0,-1,1336,771,0,0
119,253,0,0,0,0,0,0,0,0,0,-1,1343,771,0,0
126,253,0,0,0,0,0,0,0,0,0,-1,1350,771,0,0
133,253,0,0,0,0,0,0,0,0,0,-1,1357,771,0,0
140,253,0,0,0,0,0,0,0,0,0,-1,1364,771,0,0
147,253,0,0,0,0,0,0,0,0,0,-1,1371,771,0,0
154,253,0,0,0,0,0,0,0,0,0,-1,1378,771,0,0
161,253,0,0,0,0,0,0,0,0,0,-1,1385,771,0,0
168,253,0,0,0,0,0,0,0,0,0,-1,1392,771,0,0
175,253,0,0,0,0,0,0,0,0,0,-1,1399,771,0,0
182,253,0,0,0,0,0,0,0,0,0,-1,1406,771,0,0
189,253,0,0,0,0,0,0,0,0,0,-1,1413,771,0,0
196,253,0,0,0,0,0,0,0,0,0,-1,1420,771,0,0
203,253,0,0,0,0,0,0,0,0,0,-1,1427,771,0,0
210,253,0,0,0,0,0,0,0,0,0,-1,1434,771,0,0
217,253,0,0,0,0,0,0,0,0,0,-1,1441,771,0,0
224,253,0,0,0,0,0,0,0,0,0,-1,1448,771,0,0
231,253,0,0,0,0,0,0,0,0,0,-1,1455,771,0,0
238,253,0,0,0,0,0,0,0,0,0,-1,1462,771,0,0
245,253,0,0,0,0,0,0,0,0,0,-1,1469,771,0,0
252,253,0,0,0,0,0,0,0,0,0,-1,1476,771,0,0
259,253,0,0,0,0,0,0,0,0,0,-1,1483,771,0,0
266,253,0,0,0,0,0,0,0,0,0,-1,1490,771,0,0
273,253,0,0,0,0,0,0,0,0,0,-1,1497,771,0,0
280,253,0,0,0,0,0,0,0,0,0,-1,1504,771,0,0
287,253,0,0,0,0,0,0,0,0,0,-1,1511,771,0,0
294,253,0,0,0,0,0,0,0,0,0,-1,1518,771,0,0
301,253,0,0,0,0,0,0,0,0,0,-1,1525,771,0,0
308,253,0,0,0,0,0,0,0,0,0,-1,1532,771,0,0
315,253,0,0,0,0,0,0,0,0,0,-1,1539,771,0,0
322,253,0,0,0,0,0,0,0,0,0,-1,1546,771,0,0
329,253,0,0,0,0,0,0,0,0,0,-1,1553,771,0,0
336,253,0,0,0,0,0,0,0,0,0,-1,1560,771,0,0
343,253,0,0,0,0,0,0,0,0,0,-1,1567,771,0,0
350,253,0,0,0,0,0,0,0,0,0,-1,1574,771,0,0
357,253,0,0,0,0,0,0,0,0,0,-1,1581,771,0,0
364,253,0,0,0,0,0,0,0,0,0,-1,1588,771,0,0
371,253,0,0,0,0,0,0,0,0,0,-1,1595,771,0,0
378,253,0,0,0,0,0,0,0,0,0,-1,1602,771,0,0
385,253,0,0,0,0,0,0,0,0,0,-1,1609,771,0,0
392,253,0,0,0,0,0,0,0,0,0,-1,1616,771,0,0
399,253,0,0,0,0,0,0,0,0,0,-1,1623,771,0,0
406,253,0,0,0,0,0,0,0,0,0,-1,1630,771,0,0
413,253,0,0,0,0,0,0,0,0,0,-1,1637,771,0,0
420,253,0,0,0,0,0,0,0,0,0,-1,1644,771,0,0
427,253,0,0,0,0,0,0,0,0,0,-1,1651,771,0,0
434,253,0,0,0,0,0,0,0,0,0,-1,1658,771,0,0
441,253,0,0,0,0,0,0,0,0,0,-1,1665,771,0,0
448,253,0,0,0,0,0,0,0,0,0,-1,1672,771,0,0
455,253,0,0,0,0,0,0,0,0,0,-1,1679,771,0,0
462,253,0,0,0,0,0,0,0,0,0,-1,1686,771,0,0
469,253,0,0,0,0,0,0,0,0,0,-1,1693,771,0,0
476,253,0,0,0,0,0,0,0,0,0,-1,1700,771,0,0
483,253,0,0,0,0,0,0,0,0,0,-1,1707,771,0,0
490,253,0,0,0,0,0,0,0,0,0,-1,1714,771,0,0
497,253,0,0,0,0,0,0,0,0,0,-1,1721,771,0,0
504,253,0,0,0,0,0,0,0,0,0,-1,1728,771,0,0
511,253,0,0,0,0,0,0,0,0,0,-1,1735,771,0,0
518,253,0,0,0,0,0,0,0,0,0,-1,1742,771,0,0
525,253,0,0,0,0,0,0,0,0,0,-1,1749,771,0,0
532,253,0,0,0,0,0,0,0,0,0,-1,1756,771,0,0
539,253,0,0,0,0,0,0,0,0,0,-1,1763,771,0,0
546,253,0,0,0,0,0,0,0,0,0,-1,1770,771,0,0
553,253,0,0,0,0,0,0,0,0,0,-1,1777,771,0,0
560,253,0,0,0,0,0,0,0,0,0,-1,1784,771,0,0
567,253,0,0,0,0,0,0,0,0,0,-1,1791,771,0,0
574,253,34.2938,2.71716,0.0197536,0.0141005,-0.00199823,0.0203886,0.0134655,-0.307686,0.0119717,0.0363683,1798,771,34.2938,-2.71715
581,253,34.0686,3.02386,0.0303985,0.00673461,-0.00173441,0.0305249,0.00660817,-0.0727752,0.0185439,0.0412303,1805,771,34.0686,-3.02387
588,253,34.3657,2.89923,0.0291616,0.00186088,-0.00221241,0.0293398,0.00168275,-0.0803398,0.0190237,0.0459032,1812,771,34.3657,-2.89922
595,253,34.8602,2.65729,0.0241257,-0.00100436,-0.00224636,0.0243249,-0.00120358,-0.0884548,0.0166323,0.0491814,1819,771,34.8602,-2.65731
602,253,34.7029,2.17993,0.0183492,-0.00252567,-0.00194615,0.0185291,-0.00270556,-0.0921708,0.0133463,0.0446854,1826,771,34.7029,-2.17994
609,253,34.6721,1.75238,0.0129429,-0.00343539,-0.0018294,0.0131448,-0.00363724,-0.109892,0.0101942,0.0394872,1833,771,34.6721,-1.7524
616,253,34.637,1.6864,0,0,0,0,0,0,0,-1,1840,771,34.6369,-1.68639
623,253,34.5358,1.70203,0,0,0,0,0,0,0,-1,1847,771,34.5358,-1.70202
630,253,33.561,2.96838,0,0,0,0,0,0,0,-1,1854,771,33.561,-2.96836
637,253,22.3192,-0.604004,0,0,0,0,0,0,0,-1,1861,771,22.3192,0.603986
644,253,23.6912,-0.61853,0,0,0,0,0,0,0,-1,1868,771,23.6911,0.618553
651,253,23.582,-0.142883,-0.00524993,-0.00353947,-0.00116436,-0.00295,-0.00583939,-1.10216,0.00337144,0.0245649,1875,771,23.582,0.142904
658,253,23.6021,0.244629,-0.00479362,-0.00269064,-0.00164541,-0.00178944,-0.00569481,-1.06972,0.0033627,0.0188074,1882,771,23.6021,-0.244615
665,253,23.5281,0.646301,-0.00347637,-0.00233531,-0.00185159,-0.000968348,-0.00484333,-0.934848,0.00295939,0.019549,1889,771,23.5281,-0.646296
672,253,23.5048,1.06012,-0.00178107,-0.00170242,-0.00138687,-0.000354312,-0.00312917,-0.799572,0.00197861,0.0155974,1896,771,23.5048,-1.06012
679,253,23.5504,1.48871,8.25542e-05,-0.000982591,-0.000793647,0.000505758,-0.00140579,-0.489884,0.00114369,0.0132501,1903,771,23.5504,-1.48873
686,253,23.5293,1.89032,0.00236528,0.000250626,0.00018504,0.00238135,0.000234557,0.0866266,0.00151544,0.0189549,1910,771,23.5293,-1.89032
693,253,23.4673,2.26282,0.0048942,0.00133495,0.00116062,0.00523922,0.000989934,0.28895,0.00321406,0.0185769,1917,771,23.4673,-2.26281
700,253,23.4634,2.64935,0.00778656,0.00239933,0.00229647,0.00863263,0.00155326,0.35299,0.00531355,0.0154238,1924,771,23.4634,-2.64935
707,253,23.4967,3.04529,0.0113896,0.00362134,0.00372374,0.0128862,0.0021247,0.382161,0.00797745,0.0147003,1931,771,23.4967,-3.04529
714,253,23.469,3.42444,0.0157756,0.00483536,0.00534786,0.0179554,0.00265553,0.387049,0.0111906,0.019827,1938,771,23.4689,-3.42445
721,253,23.4994,3.87476,0.0210936,0.00631738,0.00744587,0.0241948,0.0032162,0.394646,0.0151718,0.0349097,1945,771,23.4994,-3.87473
728,253,23.5863,4.37329,0.0281597,0.00821855,0.0104291,0.0326175,0.00376076,0.403935,0.0206061,0.0482701,1952,771,23.5863,-4.3733
735,253,23.6902,4.85315,0,0,0,0,0,0,0,-1,1959,771,23.6902,-4.85313
742,253,25.3022,4.034,0,0,0,0,0,0,0,-1,1966,771,25.3022,-4.03397
749,253,27.9397,6.60461,0,0,0,0,0,0,0,-1,1973,771,27.9397,-6.60463
756,253,0,0,0,0,0,0,0,0,0,-1,1980,771,0,0
763,253,0,0,0,0,0,0,0,0,0,-1,1987,771,0,0
770,253,0,0,0,0,0,0,0,0,0,-1,1994,771,0,0
777,253,0,0,0,0,0,0,0,0,0,-1,2001,771,0,0
784,253,0,0,0,0,0,0,0,0,0,-1,2008,771,0,0
791,253,0,0,0,0,0,0,0,0,0,-1,2015,771,0,0
798,253,0,0,0,0,0,0,0,0,0,-1,2022,771,0,0
805,253,0,0,0,0,0,0,0,0,0,-1,2029,771,0,0
812,253,0,0,0,0,0,0,0,0,0,-1,2036,771,0,0
-700,246,0,0,0,0,0,0,0,0,0,-1,524,778,0,0
-693,246,0,0,0,0,0,0,0,0,0,-1,531,778,0,0
-686,246,0,0,0,0,0,0,0,0,0,-1,538,778,0,0
-679,246,0,0,0,0,0,0,0,0,0,-1,545,778,0,0
-672,246,0,0,0,0,0,0,0,0,0,-1,552,778,0,0
-665,246,0,0,0,0,0,0,0,0,0,-1,559,778,0,0
-658,246,0,0,0,0,0,0,0,0,0,-1,566,778,0,0
-651,246,0,0,0,0,0,0,0,0,0,-1,573,778,0,0
-644,246,0,0,0,0,0,0,0,0,0,-1,580,778,0,0
-637,246,-24.1234,0.130432,0,0,0,0,0,0,0,-1,587,778,-24.1234,-0.130438
-630,246,-24.0781,1.38916,0,0,0,0,0,0,0,-1,594,778,-24.0781,-1.38913
-623,246,-23.9183,2.49573,0,0,0,0,0,0,0,-1,601,778,-23.9183,-2.49575
-616,246,-19.4752,1.91888,0,0,0,0,0,0,0,-1,608,778,-19.4752,-1.91889
-609,246,-17.5242,0.963379,0,0,0,0,0,0,0,-1,615,778,-17.5242,-0.963383
-602,246,-15.8691,2.21582,0,0,0,0,0,0,0,-1,622,778,-15.8691,-2.21579
-595,246,-15.7739,1.86176,0.0569511,0.0256556,-0.00365337,0.057372,0.0252347,-0.114683,0.0332035,0.0483013,629,778,-15.7739,-1.86178
-588,246,-15.6004,1.32928,0.0378535,0.017328,-0.00221945,0.0380907,0.0170907,-0.106491,0.0220303,0.0318245,636,778,-15.6004,-1.32926
-581,246,-15.6578,0.883301,0.0240122,0.0111883,-0.00114646,0.0241139,0.0110866,-0.0884649,0.0139372,0.0174852,643,778,-15.6578,-0.883288
-574,246,-15.64,0.465759,0.0143121,0.00677966,-0.000311288,0.014325,0.00676682,-0.0412324,0.00827474,0.0175082,650,778,-15.64,-0.465753
-567,246,-15.6466,0.0783081,0.00686586,0.00308925,0.000460364,0.00692117,0.00303395,0.119566,0.00400605,0.0185764,657,778,-15.6466,-0.0783209
-560,246,-15.6733,-0.278564,0.00147378,0.00101697,0.00111929,0.00238773,0.000103023,0.68475,0.00155861,0.0144378,664,778,-15.6733,0.278554
-553,246,-15.6641,-0.596069,-0.00239627,7.24681e-05,0.00168369,0.000925795,-0.00324959,1.10171,0.00253205,0.0130679,671,778,-15.6641,0.596043
-546,246,-15.674,-0.957581,-0.00820946,-0.000926265,0.00284712,5.46197e-05,-0.00919034,1.23901,0.00614518,0.0110486,678,778,-15.674,0.957605
-539,246,-15.6821,-1.36353,-0.0129337,-0.00130744,0.00383413,-0.000156878,-0.0140842,1.27926,0.00933763,0.0105822,685,778,-15.6821,1.36354
-532,246,-15.6842,-1.76245,-0.0169034,-0.0019481,0.00485896,-0.000508082,-0.0183434,1.28268,0.0120631,0.0123806,692,778,-15.6842,1.76247
-525,246,-15.7065,-2.12781,-0.0205542,-0.0029958,0.00579993,-0.00125295,-0.022297,1.27889,0.0144651,0.0146616,699,778,-15.7065,2.12782
-518,246,-15.7811,-2.42554,-0.0236054,-0.0035634,0.00620872,-0.00179591,-0.0253729,1.29345,0.0163495,0.0237546,706,778,-15.7811,2.42556
-511,246,-15.9777,-2.59863,-0.0260236,-0.00441761,0.00633092,-0.00269922,-0.027742,1.30575,0.0176638,0.0481345,713,778,-15.9777,2.59862
-504,246,-16.2252,-2.75684,-0.0277321,-0.00514416,0.0066692,-0.00332203,-0.0295542,1.30409,0.0186941,0.048409,720,778,-16.2252,2.75686
-497,246,-22.3303,-0.984619,-0.0284876,-0.0060912,0.00670837,-0.0042356,-0.0303432,1.30093,0.0189752,0.0491084,727,778,-22.3303,0.984608
-490,246,-25.4191,0.795959,0,0,0,0,0,0,0,-1,734,778,-25.4191,-0.795982
-483,246,-24.9504,1.19745,0,0,0,0,0,0,0,-1,741,778,-24.9504,-1.19746
-476,246,-24.4825,1.79633,-0.019509,-0.00737611,0.00396188,-0.00619699,-0.0206882,1.28153,0.0122601,0.0459427,748,778,-24.4825,-1.7963
-469,246,-24.5641,1.50952,-0.0113104,-0.00591095,0.00152945,-0.00550782,-0.0117135,1.31308,0.00676682,0.0411742,755,778,-24.5641,-1.5095
-462,246,-24.8624,1.04059,0.000593541,-0.00185286,-0.00212693,0.00182392,-0.00308323,-0.524443,0.00286407,0.0468984,762,778,-24.8624,-1.04057
-455,246,0,0,0,0,0,0,0,0,0,-1,769,778,0,0
-448,246,0,0,0,0,0,0,0,0,0,-1,776,778,0,0
-441,246,0,0,0,0,0,0,0,0,0,-1,783,778,0,0
-434,246,0,0,0,0,0,0,0,0,0,-1,790,778,0,0
-427,246,0,0,0,0,0,0,0,0,0,-1,797,778,0,0
-420,246,0,0,0,0,0,0,0,0,0,-1,804,778,0,0
-413,246,0,0,0,0,0,0,0,0,0,-1,811,778,0,0
-406,246,0,0,0,0,0,0,0,0,0,-1,818,778,0,0
-399,246,0,0,0,0,0,0,0,0,0,-1,825,778,0,0
-392,246,0,0,0,0,0,0,0,0,0,-1,832,778,0,0
-385,246,0,0,0,0,0,0,0,0,0,-1,839,778,0,0
-378,246,0,0,0,0,0,0,0,0,0,-1,846,778,0,0
-371,246,0,0,0,0,0,0,0,0,0,-1,853,778,0,0
-364,246,0,0,0,0,0,0,0,0,0,-1,860,778,0,0
-357,246,0,0,0,0,0,0,0,0,0,-1,867,778,0,0
-350,246,0,0,0,0,0,0,0,0,0,-1,874,778,0,0
-343,246,0,0,0,0,0,0,0,0,0,-1,881,778,0,0
-336,246,0,0,0,0,0,0,0,0,0,-1,888,778,0,0
-329,246,0,0,0,0,0,0,0,0,0,-1,895,778,0,0
-322,246,0,0,0,0,0,0,0,0,0,-1,902,778,0,0
-315,246,0,0,0,0,0,0,0,0,0,-1,909,778,0,0
-308,246,0,0,0,0,0,0,0,0,0,-1,916,778,0,0
-301,246,0,0,0,0,0,0,0,0,0,-1,923,778,0,0
-294,246,0,0,0,0,0,0,0,0,0,-1,930,778,0,0
-287,246,0,0,0,0,0,0,0,0,0,-1,937,778,0,0
-280,246,0,0,0,0,0,0,0,0,0,-1,944,778,0,0
-273,246,0,0,0,0,0,0,0,0,0,-1,951,778,0,0
-266,246,0,0,0,0,0,0,0,0,0,-1,958,778,0,0
-259,246,0,0,0,0,0,0,0,0,0,-1,965,778,0,0
-252,246,0,0,0,0,0,0,0,0,0,-1,972,778,0,0
-245,246,0,0,0,0,0,0,0,0,0,-1,979,778,0,0
-238,246,0,0,0,0,0,0,0,0,0,-1,986,778,0,0
-231,246,0,0,0,0,0,0,0,0,0,-1,993,778,0,0
-224,246,0,0,0,0,0,0,0,0,0,-1,1000,778,0,0
-217,246,0,0,0,0,0,0,0,0,0,-1,1007,778,0,0
-210,246,0,0,0,0,0,0,0,0,0,-1,1014,778,0,0
-203,246,0,0,0,0,0,0,0,0,0,-1,1021,778,0,0
-196,246,0,0,0,0,0,0,0,0,0,-1,1028,778,0,0
-189,246,0,0,0,0,0,0,0,0,0,-1,1035,778,0,0
-182,246,0,0,0,0,0,0,0,0,0,-1,1042,778,0,0
-175,246,0,0,0,0,0,0,0,0,0,-1,1049,778,0,0
-168,246,0,0,0,0,0,0,0,0,0,-1,1056,778,0,0
-161,246,0,0,0,0,0,0,0,0,0,-1,1063,778,0,0
-154,246,0,0,0,0,0,0,0,0,0,-1,1070,778,0,0
-147,246,0,0,0,0,0,0,0,0,0,-1,1077,778,0,0
-140,246,0,0,0,0,0,0,0,0,0,-1,1084,778,0,0
-133,246,0,0,0,0,0,0,0,0,0,-1,1091,778,0,0
-126,246,0,0,0,0,0,0,0,0,0,-1,1098,778,0,0
-119,246,0,0,0,0,0,0,0,0,0,-1,1105,778,0,0
-112,246,0,0,0,0,0,0,0,0,0,-1,1112,778,0,0
-105,246,0,0,0,0,0,0,0,0,0,-1,1119,778,0,0
-98,246,0,0,0,0,0,0,0,0,0,-1,1126,778,0,0
-91,246,0,0,0,0,0,0,0,0,0,-1,1133,778,0,0
-84,246,0,0,0,0,0,0,0,0,0,-1,1140,778,0,0
-77,246,0,0,0,0,0,0,0,0,0,-1,1147,778,0,0
-70,246,0,0,0,0,0,0,0,0,0,-1,1154,778,0,0
-63,246,0,0,0,0,0,0,0,0,0,-1,1161,778,0,0
-56,246,0,0,0,0,0,0,0,0,0,-1,1168,778,0,0
-49,246,0,0,0,0,0,0,0,0,0,-1,1175,778,0,0
-42,246,0,0,0,0,0,0,0,0,0,-1,1182,778,0,0
-35,246,0,0,0,0,0,0,0,0,0,-1,1189,778,0,0
-28,246,0,0,0,0,0,0,0,0,0,-1,1196,778,0,0
-21,246,0,0,0,0,0,0,0,0,0,-1,1203,778,0,0
-14,246,0,0,0,0,0,0,0,0,0,-1,1210,778,0,0
-7,246,0,0,0,0,0,0,0,0,0,-1,1217,778,0,0
0,246,0,0,0,0,0,0,0,0,0,-1,1224,778,0,0
7,246,0,0,0,0,0,0,0,0,0,-1,1231,778,0,0
14,246,0,0,0,0,0,0,0,0,0,-1,1238,778,0,0
21,246,0,0,0,0,0,0,0,0,0,-1,1245,778,0,0
28,246,0,0,0,0,0,0,0,0,0,-1,1252,778,0,0
35,246,0,0,0,0,0,0,0,0,0,-1,1259,778,0,0
42,246,0,0,0,0,0,0,0,0,0,-1,1266,778,0,0
49,246,0,0,0,0,0,0,0,0,0,-1,1273,778,0,0
56,246,0,0,0,0,0,0,0,0,0,-1,1280,778,0,0
63,246,0,0,0,0,0,0,0,0,0,-1,1287,778,0,0
70,246,0,0,0,0,0,0,0,0,0,-1,1294,778,0,0
77,246,0,0,0,0,0,0,0,0,0,-1,1301,778,0,0
84,246,0,0,0,0,0,0,0,0,0,-1,1308,778,0,0
91,246,0,0,0,0,0,0,0,0,0,-1,1315,778,0,0
98,246,0,0,0,0,0,0,0,0,0,-1,1322,778,0,0
105,246,0,0,0,0,0,0,0,0,0,-1,1329,778,0,0
112,246,0,0,0,0,0,0,0,0,0,-1,1336,778,0,0
119,246,0,0,0,0,0,0,0,0,0,-1,1343,778,0,0
126,246,0,0,0,0,0,0,0,0,0,-1,1350,778,0,0
133,246,0,0,0,0,0,0,0,0,0,-1,1357,778,0,0
140,246,0,0,0,0,0,0,0,0,0,-1,1364,778,0,0
147,246,0,0,0,0,0,0,0,0,0,-1,1371,778,0,0
154,246,0,0,0,0,0,0,0,0,0,-1,1378,778,0,0
161,246,0,0,0,0,0,0,0,0,0,-1,1385,778,0,0
168,246,0,0,0,0,0,0,0,0,0,-1,1392,778,0,0
175,246,0,0,0,0,0,0,0,0,0,-1,1399,778,0,0
182,246,0,0,0,0,0,0,0,0,0,-1,1406,778,0,0
189,246,0,0,0,0,0,0,0,0,0,-1,1413,778,0,0
196,246,0,0,0,0,0,0,0,0,0,-1,1420,778,0,0
203,246,0,0,0,0,0,0,0,0,0,-1,1427,778,0,0
210,246,0,0,0,0,0,0,0,0,0,-1,1434,778,0,0
217,246,0,0,0,0,0,0,0,0,0,-1,1441,778,0,0
224,246,0,0,0,0,0,0,0,0,0,-1,1448,778,0,0
231,246,0,0,0,0,0,0,0,0,0,-1,1455,778,0,0
238,246,0,0,0,0,0,0,0,0,0,-1,1462,778,0,0
245,246,0,0,0,0,0,0,0,0,0,-1,1469,778,0,0
252,246,0,0,0,0,0,0,0,0,0,-1,1476,778,0,0
259,246,0,0,0,0,0,0,0,0,0,-1,1483,778,0,0
266,246,0,0,0,0,0,0,0,0,0,-1,1490,778,0,0
273,246,0,0,0,0,0,0,0,0,0,-1,1497,778,0,0
280,246,0,0,0,0,0,0,0,0,0,-1,1504,778,0,0
287,246,0,0,0,0,0,0,0,0,0,-1,1511,778,0,0
294,246,0,0,0,0,0,0,0,0,0,-1,1518,778,0,0
301,246,0,0,0,0,0,0,0,0,0,-1,1525,778,0,0
308,246,0,0,0,0,0,0,0,0,0,-1,1532,778,0,0
315,246,0,0,0,0,0,0,0,0,0,-1,1539,778,0,0
322,246,0,0,0,0,0,0,0,0,0,-1,1546,778,0,0
329,246,0,0,0,0,0,0,0,0,0,-1,1553,778,0,0
336,246,0,0,0,0,0,0,0,0,0,-1,1560,778,0,0
343,246,0,0,0,0,0,0,0,0,0,-1,1567,778,0,0
350,246,0,0,0,0,0,0,0,0,0,-1,1574,778,0,0
357,246,0,0,0,0,0,0,0,0,0,-1,1581,778,0,0
364,246,0,0,0,0,0,0,0,0,0,-1,1588,778,0,0
371,246,0,0,0,0,0,0,0,0,0,-1,1595,778,0,0
378,246,0,0,0,0,0,0,0,0,0,-1,1602,778,0,0
385,246,0,0,0,0,0,0,0,0,0,-1,1609,778,0,0
392,246,0,0,0,0,0,0,0,0,0,-1,1616,778,0,0
399,246,0,0,0,0,0,0,0,0,0,-1,1623,778,0,0
406,246,0,0,0,0,0,0,0,0,0,-1,1630,778,0,0
413,246,0,0,0,0,0,0,0,0,0,-1,1637,778,0,0
420,246,0,0,0,0,0,0,0,0,0,-1,1644,778,0,0
427,246,0,0,0,0,0,0,0,0,0,-1,1651,778,0,0
434,246,0,0,0,0,0,0,0,0,0,-1,1658,778,0,0
441,246,0,0,0,0,0,0,0,0,0,-1,1665,778,0,0
448,246,0,0,0,0,0,0,0,0,0,-1,1672,778,0,0
455,246,0,0,0,0,0,0,0,0,0,-1,1679,778,0,0
462,246,0,0,0,0,0,0,0,0,0,-1,1686,778,0,0
469,246,0,0,0,0,0,0,0,0,0,-1,1693,778,0,0
476,246,0,0,0,0,0,0,0,0,0,-1,1700,778,0,0
483,246,0,0,0,0,0,0,0,0,0,-1,1707,778,0,0
490,246,0,0,0,0,0,0,0,0,0,-1,1714,778,0,0
497,246,0,0,0,0,0,0,0,0,0,-1,1721,778,0,0
504,246,0,0,0,0,0,0,0,0,0,-1,1728,778,0,0
511,246,0,0,0,0,0,0,0,0,0,-1,1735,778,0,0
518,246,0,0,0,0,0,0,0,0,0,-1,1742,778,0,0
525,246,0,0,0,0,0,0,0,0,0,-1,1749,778,0,0
532,246,0,0,0,0,0,0,0,0,0,-1,1756,778,0,0
539,246,0,0,0,0,0,0,0,0,0,-1,1763,778,0,0
546,246,0,0,0,0,0,0,0,0,0,-1,1770,778,0,0
553,246,0,0,0,0,0,0,0,0,0,-1,1777,778,0,0
560,246,0,0,0,0,0,0,0,0,0,-1,1784,778,0,0
567,246,0,0,0,0,0,0,0,0,0,-1,1791,778,0,0
574,246,0,0,0,0,0,0,0,0,0,-1,1798,778,0,0
581,246,34.1748,2.93475,0.0232995,0.00928239,-0.00105893,0.023379,0.00920285,-0.0749782,0.0135993,0.0407589,1805,778,34.1748,-2.93476
588,246,34.2178,2.86456,0.0239248,0.00356599,-0.00128948,0.0240061,0.00348464,-0.0630021,0.0149783,0.0461416,1812,778,34.2178,-2.86457
595,246,34.5692,2.71997,0.0201225,2.53394e-05,-0.00131565,0.0202083,-6.04233e-05,-0.0650944,0.0134924,0.0465379,1819,778,34.5693,-2.71995
602,246,34.6832,2.71503,0.0151665,-0.00180703,-0.00106742,0.0152333,-0.00187389,-0.0625592,0.0108343,0.0480557,1826,778,34.6832,-2.715
609,246,34.7512,2.67938,0,0,0,0,0,0,0,-1,1833,778,34.7512,-2.67937
616,246,34.2488,1.63605,0,0,0,0,0,0,0,-1,1840,778,34.2488,-1.63602
623,246,33.4913,2.98615,0,0,0,0,0,0,0,-1,1847,778,33.4914,-2.98614
630,246,33.9215,2.92444,0,0,0,0,0,0,0,-1,1854,778,33.9215,-2.92442
637,246,28.2345,2.4433,0,0,0,0,0,0,0,-1,1861,778,28.2345,-2.4433
644,246,23.6537,-0.45752,0,0,0,0,0,0,0,-1,1868,778,23.6537,0.457528
651,246,23.8254,-0.123474,-0.00533138,-0.0032336,-0.0009697,-0.00285403,-0.00571094,-1.1977,0.00329722,0.0395959,1875,778,23.8254,0.123466
658,246,23.9446,0.248901,-0.00504164,-0.00254507,-0.00149536,-0.00184546,-0.00574126,-1.13319,0.00338444,0.0229447,1882,778,23.9446,-0.2489
665,246,23.9137,0.658997,-0.00393234,-0.00236975,-0.00183974,-0.00115228,-0.00514981,-0.986196,0.00312085,0.0200206,1889,778,23.9136,-0.658978
672,246,23.902,1.08685,-0.00245912,-0.00196728,-0.00159195,-0.000602368,-0.00382404,-0.862031,0.00237418,0.0199928,1896,778,23.902,-1.08687
679,246,23.9462,1.51208,-0.000784408,-0.00147421,-0.00116374,8.44642e-05,-0.00234308,-0.641335,0.00159096,0.0211043,1903,778,23.9461,-1.51208
686,246,23.9523,1.92053,0.0013288,-0.000313857,-0.000325076,0.00139079,-0.00037585,-0.188438,0.00107461,0.0228808,1910,778,23.9522,-1.92054
693,246,23.9242,2.26697,0.00369997,0.000791723,0.000565786,0.00380617,0.00068553,0.185533,0.00234261,0.0178092,1917,778,23.9242,-2.26695
700,246,23.9044,2.6535,0.00630485,0.00181828,0.0016035,0.00681901,0.00130412,0.310294,0.00417968,0.0143677,1924,778,23.9044,-2.65349
707,246,23.9022,3.04755,0.00943508,0.00306419,0.00288184,0.0105452,0.00195404,0.3677,0.0064778,0.0135596,1931,778,23.9022,-3.04752
714,246,23.8693,3.45581,0.0130942,0.00432816,0.00431411,0.0148612,0.00256119,0.388736,0.0091737,0.013087,1938,778,23.8693,-3.45583
721,246,23.8602,3.84021,0.0173123,0.00580607,0.00606627,0.0199197,0.00319869,0.405943,0.0123524,0.0188733,1945,778,23.8602,-3.84019
728,246,24.1364,4.2851,0.0226799,0.00765617,0.00849953,0.0265113,0.00382476,0.423502,0.0165473,0.0392496,1952,778,24.1364,-4.2851
735,246,24.6196,4.79169,0,0,0,0,0,0,0,-1,1959,778,24.6196,-4.79172
742,246,23.52,6.10669,0,0,0,0,0,0,0,-1,1966,778,23.52,-6.10671
749,246,30.3331,3.97662,0,0,0,0,0,0,0,-1,1973,778,30.3331,-3.97664
756,246,30.812,4.54846,0,0,0,0,0,0,0,-1,1980,778,30.8121,-4.54846
763,246,0,0,0,0,0,0,0,0,0,-1,1987,778,0,0
770,246,0,0,0,0,0,0,0,0,0,-1,1994,778,0,0
777,246,0,0,0,0,0,0,0,0,0,-1,2001,778,0,0
784,246,0,0,0,0,0,0,0,0,0,-1,2008,778,0,0
791,246,0,0,0,0,0,0,0,0,0,-1,2015,778,0,0
798,246,0,0,0,0,0,0,0,0,0,-1,2022,778,0,0
805,246,0,0,0,0,0,0,0,0,0,-1,2029,778,0,0
812,246,0,0,0,0,0,0,0,0,0,-1,2036,778,0,0
-700,239,0,0,0,0,0,0,0,0,0,-1,524,785,0,0
-693,239,0,0,0,0,0,0,0,0,0,-1,531,785,0,0
-686,239,0,0,0,0,0,0,0,0,0,-1,538,785,0,0
-679,239,0,0,0,0,0,0,0,0,0,-1,545,785,0,0
-672,239,0,0,0,0,0,0,0,0,0,-1,552,785,0,0
-665,239,0,0,0,0,0,0,0,0,0,-1,559,785,0,0
-658,239,0,0,0,0,0,0,0,0,0,-1,566,785,0,0
-651,239,0,0,0,0,0,0,0,0,0,-1,573,785,0,0
-644,239,0,0,0,0,0,0,0,0,0,-1,580,785,0,0
-637,239,-23.2709,0.465088,0,0,0,0,0,0,0,-1,587,785,-23.271,-0.465116
-630,239,-23.4006,0.956299,0,0,0,0,0,0,0,-1,594,785,-23.4005,-0.956285
-623,239,-23.3302,1.56317,0,0,0,0,0,0,0,-1,601,785,-23.3302,-1.56317
-616,239,-23.8334,2.11334,0,0,0,0,0,0,0,-1,608,785,-23.8334,-2.11337
-609,239,-24.415,2.79736,0,0,0,0,0,0,0,-1,615,785,-24.415,-2.79739
-602,239,-15.855,2.32007,0,0,0,0,0,0,0,-1,622,785,-15.855,-2.32006
-595,239,-15.9163,1.83893,0.0449588,0.0212354,-0.00363162,0.0455023,0.0206919,-0.148551,0.0263066,0.0442691,629,785,-15.9163,-1.8389
-588,239,-15.9766,1.35223,0.0300902,0.0143214,-0.00237688,0.0304407,0.0139709,-0.146401,0.0175947,0.0194893,636,785,-15.9766,-1.35226
-581,239,-16.0356,0.898743,0.0191577,0.00922222,-0.00142624,0.0193584,0.00902154,-0.13979,0.0111852,0.0109521,643,785,-16.0356,-0.898749
-574,239,-16.0314,0.478088,0.0113402,0.00551746,-0.000637549,0.0114092,0.00544847,-0.107792,0.0065893,0.0120977,650,785,-16.0314,-0.478114
-567,239,-16.0417,0.0946655,0.00540035,0.00252498,0.000148744,0.00540802,0.0025173,0.051547,0.0031248,0.0146969,657,785,-16.0417,-0.0946383
-560,239,-16.0596,-0.248413,0.000992932,0.000963582,0.000929386,0.00190776,4.87549e-05,0.777504,0.0012559,0.0148022,664,785,-16.0596,0.248401
-553,239,-16.06,-0.592468,-0.00288105,0.000353729,0.00168658,0.00107311,-0.00360044,1.16763,0.00282673,0.0155352,671,785,-16.06,0.592442
-546,239,-16.0903,-0.954895,-0.00901953,-0.000373281,0.00300621,0.000569207,-0.00996202,1.26699,0.00683898,0.0160231,678,785,-16.0903,0.954909
-539,239,-16.0884,-1.35266,-0.0138822,-0.000552625,0.00403356,0.000572904,-0.0150077,1.29868,0.0102015,0.0155744,685,785,-16.0884,1.35267
-532,239,-16.0593,-1.74347,-0.0177812,-0.000974619,0.00506712,0.000434882,-0.0191907,1.29949,0.0129412,0.0138325,692,785,-16.0593,1.74344
-525,239,-16.0887,-2.06409,-0.0213695,-0.00159535,0.00594914,5.64884e-05,-0.0230213,1.29996,0.0153664,0.0193054,699,785,-16.0888,2.0641
-518,239,-16.1987,-2.28949,-0.0245894,-0.00178233,0.00636185,-0.000127778,-0.0262439,1.31636,0.0174535,0.0459889,706,785,-16.1987,2.28949
-511,239,-16.2892,-2.52527,-0.0273305,-0.00229275,0.00650787,-0.000702249,-0.028921,1.3311,0.0190509,0.0437971,713,785,-16.2892,2.52526
-504,239,-16.0637,-2.71991,-0.0293639,-0.00269214,0.00676495,-0.00107442,-0.0309816,1.33607,0.0203058,0.0425913,720,785,-16.0637,2.71988
-497,239,-23.1617,-0.336914,-0.0302535,-0.00323822,0.0066808,-0.00167637,-0.0318154,1.34114,0.0206741,0.0474583,727,785,-23.1617,0.3369
-490,239,-25.7632,0.472351,0,0,0,0,0,0,0,-1,734,785,-25.7633,-0.472342
-483,239,-25.1224,0.950806,-0.0260175,-0.00362469,0.0050082,-0.00255563,-0.0270865,1.36049,0.017269,0.0477154,741,785,-25.1224,-0.950802
-476,239,-24.6544,1.34802,-0.0194648,-0.00282954,0.00296045,-0.0023184,-0.019976,1.39983,0.0126157,0.0397819,748,785,-24.6544,-1.34805
-469,239,-24.7878,1.12469,-0.00925863,-0.000482626,-0.000156624,-0.000479832,-0.00926143,-1.55296,0.00602072,0.0464,755,785,-24.7879,-1.12469
-462,239,-24.7678,1.10394,0.00558316,0.00468738,-0.00469156,0.00984816,0.000422384,-0.737809,0.00642927,0.047539,762,785,-24.7678,-1.10394
-455,239,0,0,0,0,0,0,0,0,0,-1,769,785,0,0
-448,239,0,0,0,0,0,0,0,0,0,-1,776,785,0,0
-441,239,0,0,0,0,0,0,0,0,0,-1,783,785,0,0
-434,239,0,0,0,0,0,0,0,0,0,-1,790,785,0,0
-427,239,0,0,0,0,0,0,0,0,0,-1,797,785,0,0
-420,239,0,0,0,0,0,0,0,0,0,-1,804,785,0,0
-413,239,0,0,0,0,0,0,0,0,0,-1,811,785,0,0
-406,239,0,0,0,0,0,0,0,0,0,-1,818,785,0,0
-399,239,0,0,0,0,0,0,0,0,0,-1,825,785,0,0
-392,239,0,0,0,0,0,0,0,0,0,-1,832,785,0,0
-385,239,0,0,0,0,0,0,0,0,0,-1,839,785,0,0
-378,239,0,0,0,0,0,0,0,0,0,-1,846,785,0,0
-371,239,0,0,0,0,0,0,0,0,0,-1,853,785,0,0
-364,239,0,0,0,0,0,0,0,0,0,-1,860,785,0,0
-357,239,0,0,0,0,0,0,0,0,0,-1,867,785,0,0
-350,239,0,0,0,0,0,0,0,0,0,-1,874,785,0,0
-343,239,0,0,0,0,0,0,0,0,0,-1,881,785,0,0
-336,239,0,0,0,0,0,0,0,0,0,-1,888,785,0,0
-329,239,0,0,0,0,0,0,0,0,0,-1,895,785,0,0
-322,239,0,0,0,0,0,0,0,0,0,-1,902,785,0,0
-315,239,0,0,0,0,0,0,0,0,0,-1,909,785,0,0
-308,239,0,0,0,0,0,0,0,0,0,-1,916,785,0,0
-301,239,0,0,0,0,0,0,0,0,0,-1,923,785,0,0
-294,239,0,0,0,0,0,0,0,0,0,-1,930,785,0,0
-287,239,0,0,0,0,0,0,0,0,0,-1,937,785,0,0
-280,239,0,0,0,0,0,0,0,0,0,-1,944,785,0,0
-273,239,0,0,0,0,0,0,0,0,0,-1,951,785,0,0
-266,239,0,0,0,0,0,0,0,0,0,-1,958,785,0,0
-259,239,0,0,0,0,0,0,0,0,0,-1,965,785,0,0
-252,239,0,0,0,0,0,0,0,0,0,-1,972,785,0,0
-245,239,0,0,0,0,0,0,0,0,0,-1,979,785,0,0
-238,239,0,0,0,0,0,0,0,0,0,-1,986,785,0,0
-231,239,0,0,0,0,0,0,0,0,0,-1,993,785,0,0
-224,239,0,0,0,0,0,0,0,0,0,-1,1000,785,0,0
-217,239,0,0,0,0,0,0,0,0,0,-1,1007,785,0,0
-210,239,0,0,0,0,0,0,0,0,0,-1,1014,785,0,0
-203,239,0,0,0,0,0,0,0,0,0,-1,1021,785,0,0
-196,239,0,0,0,0,0,0,0,0,0,-1,1028,785,0,0
-189,239,0,0,0,0,0,0,0,0,0,-1,1035,785,0,0
-182,239,0,0,0,0,0,0,0,0,0,-1,1042,785,0,0
-175,239,0,0,0,0,0,0,0,0,0,-1,1049,785,0,0
-168,239,0,0,0,0,0,0,0,0,0,-1,1056,785,0,0
-161,239,0,0,0,0,0,0,0,0,0,-1,1063,785,0,0
-154,239,0,0,0,0,0,0,0,0,0,-1,1070,785,0,0
-147,239,0,0,0,0,0,0,0,0,0,-1,1077,785,0,0
-140,239,0,0,0,0,0,0,0,0,0,-1,1084,785,0,0
-133,239,0,0,0,0,0,0,0,0,0,-1,1091,785,0,0
-126,239,0,0,0,0,0,0,0,0,0,-1,1098,785,0,0
-119,239,0,0,0,0,0,0,0,0,0,-1,1105,785,0,0
-112,239,0,0,0,0,0,0,0,0,0,-1,1112,785,0,0
-105,239,0,0,0,0,0,0,0,0,0,-1,1119,785,0,0
-98,239,0,0,0,0,0,0,0,0,0,-1,1126,785,0,0
-91,239,0,0,0,0,0,0,0,0,0,-1,1133,785,0,0
-84,239,0,0,0,0,0,0,0,0,0,-1,1140,785,0,0
-77,239,0,0,0,0,0,0,0,0,0,-1,1147,785,0,0
-70,239,0,0,0,0,0,0,0,0,0,-1,1154,785,0,0
-63,239,0,0,0,0,0,0,0,0,0,-1,1161,785,0,0
-56,239,0,0,0,0,0,0,0,0,0,-1,1168,785,0,0
-49,239,0,0,0,0,0,0,0,0,0,-1,1175,785,0,0
-42,239,0,0,0,0,0,0,0,0,0,-1,1182,785,0,0
-35,239,0,0,0,0,0,0,0,0,0,-1,1189,785,0,0
-28,239,0,0,0,0,0,0,0,0,0,-1,1196,785,0,0
-21,239,0,0,0,0,0,0,0,0,0,-1,1203,785,0,0
-14,239,0,0,0,0,0,0,0,0,0,-1,1210,785,0,0
-7,239,0,0,0,0,0,0,0,0,0,-1,1217,785,0,0
0,239,0,0,0,0,0,0,0,0,0,-1,1224,785,0,0
7,239,0,0,0,0,0,0,0,0,0,-1,1231,785,0,0
14,239,0,0,0,0,0,0,0,0,0,-1,1238,785,0,0
21,239,0,0,0,0,0,0,0,0,0,-1,1245,785,0,0
28,239,0,0,0,0,0,0,0,0,0,-1,1252,785,0,0
35,239,0,0,0,0,0,0,0,0,0,-1,1259,785,0,0
42,239,0,0,0,0,0,0,0,0,0,-1,1266,785,0,0
49,239,0,0,0,0,0,0,0,0,0,-1,1273,785,0,0
56,239,0,0,0,0,0,0,0,0,0,-1,1280,785,0,0
63,239,0,0,0,0,0,0,0,0,0,-1,1287,785,0,0
70,239,0,0,0,0,0,0,0,0,0,-1,1294,785,0,0
77,239,0,0,0,0,0,0,0,0,0,-1,1301,785,0,0
84,239,0,0,0,0,0,0,0,0,0,-1,1308,785,0,0
91,239,0,0,0,0,0,0,0,0,0,-1,1315,785,0,0
98,239,0,0,0,0,0,0,0,0,0,-1,1322,785,0,0
105,239,0,0,0,0,0,0,0,0,0,-1,1329,785,0,0
112,239,0,0,0,0,0,0,0,0,0,-1,1336,785,0,0
119,239,0,0,0,0,0,0,0,0,0,-1,1343,785,0,0
126,239,0,0,0,0,0,0,0,0,0,-1,1350,785,0,0
133,239,0,0,0,0,0,0,0,0,0,-1,1357,785,0,0
140,239,0,0,0,0,0,0,0,0,0,-1,1364,785,0,0
147,239,0,0,0,0,0,0,0,0,0,-1,1371,785,0,0
154,239,0,0,0,0,0,0,0,0,0,-1,1378,785,0,0
161,239,0,0,0,0,0,0,0,0,0,-1,1385,785,0,0
168,239,0,0,0,0,0,0,0,0,0,-1,1392,785,0,0
175,239,0,0,0,0,0,0,0,0,0,-1,1399,785,0,0
182,239,0,0,0,0,0,0,0,0,0,-1,1406,785,0,0
189,239,0,0,0,0,0,0,0,0,0,-1,1413,785,0,0
196,239,0,0,0,0,0,0,0,0,0,-1,1420,785,0,0
203,239,0,0,0,0,0,0,0,0,0,-1,1427,785,0,0
210,239,0,0,0,0,0,0,0,0,0,-1,1434,785,0,0
217,239,0,0,0,0,0,0,0,0,0,-1,1441,785,0,0
224,239,0,0,0,0,0,0,0,0,0,-1,1448,785,0,0
231,239,0,0,0,0,0,0,0,0,0,-1,1455,785,0,0
238,239,0,0,0,0,0,0,0,0,0,-1,1462,785,0,0
245,239,0,0,0,0,0,0,0,0,0,-1,1469,785,0,0
252,239,0,0,0,0,0,0,0,0,0,-1,1476,785,0,0
259,239,0,0,0,0,0,0,0,0,0,-1,1483,785,0,0
266,239,0,0,0,0,0,0,0,0,0,-1,1490,785,0,0
273,239,0,0,0,0,0,0,0,0,0,-1,1497,785,0,0
280,239,0,0,0,0,0,0,0,0,0,-1,1504,785,0,0
287,239,0,0,0,0,0,0,0,0,0,-1,1511,785,0,0
294,239,0,0,0,0,0,0,0,0,0,-1,1518,785,0,0
301,239,0,0,0,0,0,0,0,0,0,-1,1525,785,0,0
308,239,0,0,0,0,0,0,0,0,0,-1,1532,785,0,0
315,239,0,0,0,0,0,0,0,0,0,-1,1539,785,0,0
322,239,0,0,0,0,0,0,0,0,0,-1,1546,785,0,0
329,239,0,0,0,0,0,0,0,0,0,-1,1553,785,0,0
336,239,0,0,0,0,0,0,0,0,0,-1,1560,785,0,0
343,239,0,0,0,0,0,0,0,0,0,-1,1567,785,0,0
350,239,0,0,0,0,0,0,0,0,0,-1,1574,785,0,0
357,239,0,0,0,0,0,0,0,0,0,-1,1581,785,0,0
364,239,0,0,0,0,0,0,0,0,0,-1,1588,785,0,0
371,239,0,0,0,0,0,0,0,0,0,-1,1595,785,0,0
378,239,0,0,0,0,0,0,0,0,0,-1,1602,785,0,0
385,239,0,0,0,0,0,0,0,0,0,-1,1609,785,0,0
392,239,0,0,0,0,0,0,0,0,0,-1,1616,785,0,0
399,239,0,0,0,0,0,0,0,0,0,-1,1623,785,0,0
406,239,0,0,0,0,0,0,0,0,0,-1,1630,785,0,0
413,239,0,0,0,0,0,0,0,0,0,-1,1637,785,0,0
420,239,0,0,0,0,0,0,0,0,0,-1,1644,785,0,0
427,239,0,0,0,0,0,0,0,0,0,-1,1651,785,0,0
434,239,0,0,0,0,0,0,0,0,0,-1,1658,785,0,0
441,239,0,0,0,0,0,0,0,0,0,-1,1665,785,0,0
448,239,0,0,0,0,0,0,0,0,0,-1,1672,785,0,0
455,239,0,0,0,0,0,0,0,0,0,-1,1679,785,0,0
462,239,0,0,0,0,0,0,0,0,0,-1,1686,785,0,0
469,239,0,0,0,0,0,0,0,0,0,-1,1693,785,0,0
476,239,0,0,0,0,0,0,0,0,0,-1,1700,785,0,0
483,239,0,0,0,0,0,0,0,0,0,-1,1707,785,0,0
490,239,0,0,0,0,0,0,0,0,0,-1,1714,785,0,0
497,239,0,0,0,0,0,0,0,0,0,-1,1721,785,0,0
504,239,0,0,0,0,0,0,0,0,0,-1,1728,785,0,0
511,239,0,0,0,0,0,0,0,0,0,-1,1735,785,0,0
518,239,0,0,0,0,0,0,0,0,0,-1,1742,785,0,0
525,239,0,0,0,0,0,0,0,0,0,-1,1749,785,0,0
532,239,0,0,0,0,0,0,0,0,0,-1,1756,785,0,0
539,239,0,0,0,0,0,0,0,0,0,-1,1763,785,0,0
546,239,0,0,0,0,0,0,0,0,0,-1,1770,785,0,0
553,239,0,0,0,0,0,0,0,0,0,-1,1777,785,0,0
560,239,0,0,0,0,0,0,0,0,0,-1,1784,785,0,0
567,239,0,0,0,0,0,0,0,0,0,-1,1791,785,0,0
574,239,0,0,0,0,0,0,0,0,0,-1,1798,785,0,0
581,239,34.2572,2.93701,0,0,0,0,0,0,0,-1,1805,785,34.2572,-2.93702
588,239,33.9271,3.02618,0,0,0,0,0,0,0,-1,1812,785,33.9271,-3.0262
595,239,34.2565,2.80286,0.0163826,0.00133992,-0.000661478,0.0164117,0.00131088,-0.0438604,0.0105314,0.0370007,1819,785,34.2565,-2.80283
602,239,34.4762,2.70099,0.0122639,-0.000849421,-0.000355226,0.0122735,-0.000859037,-0.0270624,0.00848322,0.0397934,1826,785,34.4762,-2.70097
609,239,34.4657,2.7677,0,0,0,0,0,0,0,-1,1833,785,34.4657,-2.76769
616,239,34.3799,2.80792,0,0,0,0,0,0,0,-1,1840,785,34.3799,-2.80793
623,239,33.9315,3.31305,0,0,0,0,0,0,0,-1,1847,785,33.9316,-3.31303
630,239,33.4291,3.2334,0,0,0,0,0,0,0,-1,1854,785,33.4291,-3.23338
637,239,33.1805,3.56494,0,0,0,0,0,0,0,-1,1861,785,33.1806,-3.56492
644,239,18.3466,0.735413,0,0,0,0,0,0,0,-1,1868,785,18.3465,-0.735414
651,239,24.0704,-0.144104,0,0,0,0,0,0,0,-1,1875,785,24.0705,0.144116
658,239,24.3032,0.275452,-0.00513501,-0.0021703,-0.00134137,-0.0016535,-0.00565182,-1.20304,0.00335538,0.0270433,1882,785,24.3032,-0.275481
665,239,24.3323,0.701294,-0.00421012,-0.00208562,-0.0017723,-0.00108161,-0.00521413,-1.05537,0.00317752,0.0147076,1889,785,24.3323,-0.701322
672,239,24.3158,1.09351,-0.0029828,-0.00188506,-0.00172653,-0.000622257,-0.0042456,-0.939299,0.00264747,0.0202478,1896,785,24.3158,-1.09352
679,239,24.3475,1.51123,-0.00158119,-0.00165342,-0.00149508,-0.00012179,-0.00311281,-0.773322,0.00203583,0.0216462,1903,785,24.3475,-1.51123
686,239,24.3575,1.94507,0.000236995,-0.000648586,-0.000849537,0.000752211,-0.0011638,-0.545161,0.00111469,0.0224219,1910,785,24.3576,-1.94507
693,239,24.3477,2.28302,0.00236967,0.000435627,-7.1209e-05,0.00237229,0.000433009,-0.0367524,0.00145877,0.0152505,1917,785,24.3476,-2.28299
700,239,24.3375,2.66101,0.00465636,0.00139822,0.000860119,0.00486949,0.0011851,0.24289,0.00293224,0.0117589,1924,785,24.3375,-2.66102
707,239,24.3156,3.04822,0.0073384,0.00266305,0.00201437,0.00808657,0.00191489,0.355623,0.00487964,0.0114857,1931,785,24.3156,-3.04823
714,239,24.2905,3.4325,0.0103897,0.00398479,0.00331473,0.0117962,0.0025782,0.401314,0.00716117,0.0107418,1938,785,24.2906,-3.43252
721,239,24.2444,3.83722,0.0137349,0.00545968,0.00481065,0.0159425,0.00325204,0.430236,0.00972726,0.0232087,1945,785,24.2443,-3.83721
728,239,24.5029,4.23486,0.0178011,0.00725423,0.00682257,0.0211507,0.00390463,0.456388,0.0129959,0.0412943,1952,785,24.503,-4.23486
735,239,25.0692,4.70361,0,0,0,0,0,0,0,-1,1959,785,25.0693,-4.70361
742,239,29.3534,3.4256,0,0,0,0,0,0,0,-1,1966,785,29.3533,-3.42557
749,239,29.812,4.10767,0,0,0,0,0,0,0,-1,1973,785,29.812,-4.10766
756,239,30.0831,4.79565,0,0,0,0,0,0,0,-1,1980,785,30.0831,-4.79564
763,239,0,0,0,0,0,0,0,0,0,-1,1987,785,0,0
770,239,0,0,0,0,0,0,0,0,0,-1,1994,785,0,0
777,239,0,0,0,0,0,0,0,0,0,-1,2001,785,0,0
784,239,0,0,0,0,0,0,0,0,0,-1,2008,785,0,0
791,239,0,0,0,0,0,0,0,0,0,-1,2015,785,0,0
798,239,0,0,0,0,0,0,0,0,0,-1,2022,785,0,0
805,239,0,0,0,0,0,0,0,0,0,-1,2029,785,0,0
812,239,0,0,0,0,0,0,0,0,0,-1,2036,785,0,0
-700,232,0,0,0,0,0,0,0,0,0,-1,524,792,0,0
-693,232,0,0,0,0,0,0,0,0,0,-1,531,792,0,0
-686,232,0,0,0,0,0,0,0,0,0,-1,538,792,0,0
-679,232,0,0,0,0,0,0,0,0,0,-1,545,792,0,0
-672,232,0,0,0,0,0,0,0,0,0,-1,552,792,0,0
-665,232,0,0,0,0,0,0,0,0,0,-1,559,792,0,0
-658,232,0,0,0,0,0,0,0,0,0,-1,566,792,0,0
-651,232,0,0,0,0,0,0,0,0,0,-1,573,792,0,0
-644,232,-22.5826,0.269348,0,0,0,0,0,0,0,-1,580,792,-22.5826,-0.269357
-637,232,-22.0887,-0.86969,0,0,0,0,0,0,0,-1,587,792,-22.0887,0.869704
-630,232,-22.8522,1.33289,0,0,0,0,0,0,0,-1,594,792,-22.8523,-1.3329
-623,232,-22.9125,1.82245,0,0,0,0,0,0,0,-1,601,792,-22.9126,-1.82244
-616,232,-23.5833,2.42975,0,0,0,0,0,0,0,-1,608,792,-23.5833,-2.42972
-609,232,-24.4119,2.80933,0,0,0,0,0,0,0,-1,615,792,-24.4118,-2.80933
-602,232,-16.2355,2.5033,0,0,0,0,0,0,0,-1,622,792,-16.2355,-2.50327
-595,232,-16.2935,1.91211,0.0333851,0.0176324,-0.00297317,0.0339276,0.0170899,-0.180471,0.0195883,0.0375942,629,792,-16.2935,-1.91213
-588,232,-16.3741,1.31714,0.0223426,0.0115087,-0.00189616,0.0226649,0.0111864,-0.168355,0.0130859,0.0126111,636,792,-16.3741,-1.31712
-581,232,-16.3998,0.882874,0.0140965,0.00715584,-0.00110869,0.0142693,0.00698304,-0.154613,0.00823903,0.00822522,643,792,-16.3998,-0.882845
-574,232,-16.4016,0.512817,0.00806194,0.00402029,-0.000432432,0.00810769,0.00397454,-0.105404,0.00468128,0.00861581,650,792,-16.4016,-0.512804
-567,232,-16.4337,0.154602,0.00360127,0.00173005,0.000304121,0.00364946,0.00168187,0.157139,0.00210917,0.0105623,657,792,-16.4337,-0.154576
-560,232,-16.4409,-0.203796,0.000201986,0.000765579,0.00113972,0.00165783,-0.00069026,0.906592,0.00139351,0.0144806,664,792,-16.4409,0.203799
-553,232,-16.4556,-0.588867,-0.00352776,0.000616553,0.0019937,0.00141993,-0.00433113,1.18774,0.00345927,0.0153849,671,792,-16.4556,0.588857
-546,232,-16.5139,-0.963135,-0.00956772,0.000365266,0.00328263,0.00135207,-0.0105545,1.27878,0.00752762,0.0227725,678,792,-16.5139,0.963119
-539,232,-16.4988,-1.34198,-0.0141162,0.000528783,0.00415429,0.00162514,-0.0152125,1.31277,0.0107245,0.0268835,685,792,-16.4988,1.34198
-532,232,-16.4651,-1.69067,-0.0176631,0.000441496,0.00507948,0.00176924,-0.0189908,1.31512,0.0132896,0.0210293,692,792,-16.4651,1.69068
-525,232,-16.6203,-1.99457,-0.020997,0.00029388,0.00582259,0.00178219,-0.0224853,1.32054,0.0156182,0.0384151,699,792,-16.6203,1.99458
-518,232,-16.966,-2.28516,0,0,0,0,0,0,0,-1,706,792,-16.966,2.28516
-511,232,-16.7695,-2.52448,0,0,0,0,0,0,0,-1,713,792,-16.7695,2.52449
-504,232,-23.5181,0.458435,0,0,0,0,0,0,0,-1,720,792,-23.5181,-0.458449
-497,232,-23.7941,0.300476,0,0,0,0,0,0,0,-1,727,792,-23.7941,-0.300463
-490,232,-25.1106,0.895874,0,0,0,0,0,0,0,-1,734,792,-25.1106,-0.895851
-483,232,-25.0322,0.926331,-0.0246582,0.000354717,0.00384055,0.000931122,-0.0252346,1.42182,0.0171419,0.0440941,741,792,-25.0322,-0.926314
-476,232,-24.9276,0.962341,-0.0163896,0.00159982,0.00124013,0.00168491,-0.0164747,1.50229,0.0115857,0.0335715,748,792,-24.9276,-0.962365
-469,232,-24.985,0.852783,-0.00367001,0.00450121,-0.00257533,0.00524515,-0.00441395,-1.28958,0.00558356,0.0354036,755,792,-24.985,-0.85279
-462,232,0,0,0,0,0,0,0,0,0,-1,762,792,0,0
-455,232,0,0,0,0,0,0,0,0,0,-1,769,792,0,0
-448,232,0,0,0,0,0,0,0,0,0,-1,776,792,0,0
-441,232,0,0,0,0,0,0,0,0,0,-1,783,792,0,0
-434,232,0,0,0,0,0,0,0,0,0,-1,790,792,0,0
-427,232,0,0,0,0,0,0,0,0,0,-1,797,792,0,0
-420,232,0,0,0,0,0,0,0,0,0,-1,804,792,0,0
-413,232,0,0,0,0,0,0,0,0,0,-1,811,792,0,0
-406,232,0,0,0,0,0,0,0,0,0,-1,818,792,0,0
-399,232,0,0,0,0,0,0,0,0,0,-1,825,792,0,0
-392,232,0,0,0,0,0,0,0,0,0,-1,832,792,0,0
-385,232,0,0,0,0,0,0,0,0,0,-1,839,792,0,0
-378,232,0,0,0,0,0,0,0,0,0,-1,846,792,0,0
-371,232,0,0,0,0,0,0,0,0,0,-1,853,792,0,0
-364,232,0,0,0,0,0,0,0,0,0,-1,860,792,0,0
-357,232,0,0,0,0,0,0,0,0,0,-1,867,792,0,0
-350,232,0,0,0,0,0,0,0,0,0,-1,874,792,0,0
-343,232,0,0,0,0,0,0,0,0,0,-1,881,792,0,0
-336,232,0,0,0,0,0,0,0,0,0,-1,888,792,0,0
-329,232,0,0,0,0,0,0,0,0,0,-1,895,792,0,0
-322,232,0,0,0,0,0,0,0,0,0,-1,902,792,0,0
-315,232,0,0,0,0,0,0,0,0,0,-1,909,792,0,0
-308,232,0,0,0,0,0,0,0,0,0,-1,916,792,0,0
-301,232,0,0,0,0,0,0,0,0,0,-1,923,792,0,0
-294,232,0,0,0,0,0,0,0,0,0,-1,930,792,0,0
-287,232,0,0,0,0,0,0,0,0,0,-1,937,792,0,0
-280,232,0,0,0,0,0,0,0,0,0,-1,944,792,0,0
-273,232,0,0,0,0,0,0,0,0,0,-1,951,792,0,0
-266,232,0,0,0,0,0,0,0,0,0,-1,958,792,0,0
-259,232,0,0,0,0,0,0,0,0,0,-1,965,792,0,0
-252,232,0,0,0,0,0,0,0,0,0,-1,972,792,0,0
-245,232,0,0,0,0,0,0,0,0,0,-1,979,792,0,0
-238,232,0,0,0,0,0,0,0,0,0,-1,986,792,0,0
-231,232,0,0,0,0,0,0,0,0,0,-1,993,792,0,0
-224,232,0,0,0,0,0,0,0,0,0,-1,1000,792,0,0
-217,232,0,0,0,0,0,0,0,0,0,-1,1007,792,0,0
-210,232,0,0,0,0,0,0,0,0,0,-1,1014,792,0,0
-203,232,0,0,0,0,0,0,0,0,0,-1,1021,792,0,0
-196,232,0,0,0,0,0,0,0,0,0,-1,1028,792,0,0
-189,232,0,0,0,0,0,0,0,0,0,-1,1035,792,0,0
-182,232,0,0,0,0,0,0,0,0,0,-1,1042,792,0,0
-175,232,0,0,0,0,0,0,0,0,0,-1,1049,792,0,0
-168,232,0,0,0,0,0,0,0,0,0,-1,1056,792,0,0
-161,232,0,0,0,0,0,0,0,0,0,-1,1063,792,0,0
-154,232,0,0,0,0,0,0,0,0,0,-1,1070,792,0,0
-147,232,0,0,0,0,0,0,0,0,0,-1,1077,792,0,0
-140,232,0,0,0,0,0,0,0,0,0,-1,1084,792,0,0
-133,232,0,0,0,0,0,0,0,0,0,-1,1091,792,0,0
-126,232,0,0,0,0,0,0,0,0,0,-1,1098,792,0,0
-119,232,0,0,0,0,0,0,0,0,0,-1,1105,792,0,0
-112,232,0,0,0,0,0,0,0,0,0,-1,1112,792,0,0
-105,232,0,0,0,0,0,0,0,0,0,-1,1119,792,0,0
-98,232,0,0,0,0,0,0,0,0,0,-1,1126,792,0,0
-91,232,0,0,0,0,0,0,0,0,0,-1,1133,792,0,0
-84,232,0,0,0,0,0,0,0,0,0,-1,1140,792,0,0
-77,232,0,0,0,0,0,0,0,0,0,-1,1147,792,0,0
-70,232,0,0,0,0,0,0,0,0,0,-1,1154,792,0,0
-63,232,0,0,0,0,0,0,0,0,0,-1,1161,792,0,0
-56,232,0,0,0,0,0,0,0,0,0,-1,1168,792,0,0
-49,232,0,0,0,0,0,0,0,0,0,-1,1175,792,0,0
-42,232,0,0,0,0,0,0,0,0,0,-1,1182,792,0,0
-35,232,0,0,0,0,0,0,0,0,0,-1,1189,792,0,0
-28,232,0,0,0,0,0,0,0,0,0,-1,1196,792,0,0
-21,232,0,0,0,0,0,0,0,0,0,-1,1203,792,0,0
-14,232,0,0,0,0,0,0,0,0,0,-1,1210,792,0,0
-7,232,0,0,0,0,0,0,0,0,0,-1,1217,792,0,0
0,232,0,0,0,0,0,0,0,0,0,-1,1224,792,0,0
7,232,0,0,0,0,0,0,0,0,0,-1,1231,792,0,0
14,232,0,0,0,0,0,0,0,0,0,-1,1238,792,0,0
21,232,0,0,0,0,0,0,0,0,0,-1,1245,792,0,0
28,232,0,0,0,0,0,0,0,0,0,-1,1252,792,0,0
35,232,0,0,0,0,0,0,0,0,0,-1,1259,792,0,0
42,232,0,0,0,0,0,0,0,0,0,-1,1266,792,0,0
49,232,0,0,0,0,0,0,0,0,0,-1,1273,792,0,0
56,232,0,0,0,0,0,0,0,0,0,-1,1280,792,0,0
63,232,0,0,0,0,0,0,0,0,0,-1,1287,792,0,0
70,232,0,0,0,0,0,0,0,0,0,-1,1294,792,0,0
77,232,0,0,0,0,0,0,0,0,0,-1,1301,792,0,0
84,232,0,0,0,0,0,0,0,0,0,-1,1308,792,0,0
91,232,0,0,0,0,0,0,0,0,0,-1,1315,792,0,0
98,232,0,0,0,0,0,0,0,0,0,-1,1322,792,0,0
105,232,0,0,0,0,0,0,0,0,0,-1,1329,792,0,0
112,232,0,0,0,0,0,0,0,0,0,-1,1336,792,0,0
119,232,0,0,0,0,0,0,0,0,0,-1,1343,792,0,0
126,232,0,0,0,0,0,0,0,0,0,-1,1350,792,0,0
133,232,0,0,0,0,0,0,0,0,0,-1,1357,792,0,0
140,232,0,0,0,0,0,0,0,0,0,-1,1364,792,0,0
147,232,0,0,0,0,0,0,0,0,0,-1,1371,792,0,0
154,232,0,0,0,0,0,0,0,0,0,-1,1378,792,0,0
161,232,0,0,0,0,0,0,0,0,0,-1,1385,792,0,0
168,232,0,0,0,0,0,0,0,0,0,-1,1392,792,0,0
175,232,0,0,0,0,0,0,0,0,0,-1,1399,792,0,0
182,232,0,0,0,0,0,0,0,0,0,-1,1406,792,0,0
189,232,0,0,0,0,0,0,0,0,0,-1,1413,792,0,0
196,232,0,0,0,0,0,0,0,0,0,-1,1420,792,0,0
203,232,0,0,0,0,0,0,0,0,0,-1,1427,792,0,0
210,232,0,0,0,0,0,0,0,0,0,-1,1434,792,0,0
217,232,0,0,0,0,0,0,0,0,0,-1,1441,792,0,0
224,232,0,0,0,0,0,0,0,0,0,-1,1448,792,0,0
231,232,0,0,0,0,0,0,0,0,0,-1,1455,792,0,0
238,232,0,0,0,0,0,0,0,0,0,-1,1462,792,0,0
245,232,0,0,0,0,0,0,0,0,0,-1,1469,792,0,0
252,232,0,0,0,0,0,0,0,0,0,-1,1476,792,0,0
259,232,0,0,0,0,0,0,0,0,0,-1,1483,792,0,0
266,232,0,0,0,0,0,0,0,0,0,-1,1490,792,0,0
273,232,0,0,0,0,0,0,0,0,0,-1,1497,792,0,0
280,232,0,0,0,0,0,0,0,0,0,-1,1504,792,0,0
287,232,0,0,0,0,0,0,0,0,0,-1,1511,792,0,0
294,232,0,0,0,0,0,0,0,0,0,-1,1518,792,0,0
301,232,0,0,0,0,0,0,0,0,0,-1,1525,792,0,0
308,232,0,0,0,0,0,0,0,0,0,-1,1532,792,0,0
315,232,0,0,0,0,0,0,0,0,0,-1,1539,792,0,0
322,232,0,0,0,0,0,0,0,0,0,-1,1546,792,0,0
329,232,0,0,0,0,0,0,0,0,0,-1,1553,792,0,0
336,232,0,0,0,0,0,0,0,0,0,-1,1560,792,0,0
343,232,0,0,0,0,0,0,0,0,0,-1,1567,792,0,0
350,232,0,0,0,0,0,0,0,0,0,-1,1574,792,0,0
357,232,0,0,0,0,0,0,0,0,0,-1,1581,792,0,0
364,232,0,0,0,0,0,0,0,0,0,-1,1588,792,0,0
371,232,0,0,0,0,0,0,0,0,0,-1,1595,792,0,0
378,232,0,0,0,0,0,0,0,0,0,-1,1602,792,0,0
385,232,0,0,0,0,0,0,0,0,0,-1,1609,792,0,0
392,232,0,0,0,0,0,0,0,0,0,-1,1616,792,0,0
399,232,0,0,0,0,0,0,0,0,0,-1,1623,792,0,0
406,232,0,0,0,0,0,0,0,0,0,-1,1630,792,0,0
413,232,0,0,0,0,0,0,0,0,0,-1,1637,792,0,0
420,232,0,0,0,0,0,0,0,0,0,-1,1644,792,0,0
427,232,0,0,0,0,0,0,0,0,0,-1,1651,792,0,0
434,232,0,0,0,0,0,0,0,0,0,-1,1658,792,0,0
441,232,0,0,0,0,0,0,0,0,0,-1,1665,792,0,0
448,232,0,0,0,0,0,0,0,0,0,-1,1672,792,0,0
455,232,0,0,0,0,0,0,0,0,0,-1,1679,792,0,0
462,232,0,0,0,0,0,0,0,0,0,-1,1686,792,0,0
469,232,0,0,0,0,0,0,0,0,0,-1,1693,792,0,0
476,232,0,0,0,0,0,0,0,0,0,-1,1700,792,0,0
483,232,0,0,0,0,0,0,0,0,0,-1,1707,792,0,0
490,232,0,0,0,0,0,0,0,0,0,-1,1714,792,0,0
497,232,0,0,0,0,0,0,0,0,0,-1,1721,792,0,0
504,232,0,0,0,0,0,0,0,0,0,-1,1728,792,0,0
511,232,0,0,0,0,0,0,0,0,0,-1,1735,792,0,0
518,232,0,0,0,0,0,0,0,0,0,-1,1742,792,0,0
525,232,0,0,0,0,0,0,0,0,0,-1,1749,792,0,0
532,232,0,0,0,0,0,0,0,0,0,-1,1756,792,0,0
539,232,0,0,0,0,0,0,0,0,0,-1,1763,792,0,0
546,232,0,0,0,0,0,0,0,0,0,-1,1770,792,0,0
553,232,0,0,0,0,0,0,0,0,0,-1,1777,792,0,0
560,232,0,0,0,0,0,0,0,0,0,-1,1784,792,0,0
567,232,0,0,0,0,0,0,0,0,0,-1,1791,792,0,0
574,232,0,0,0,0,0,0,0,0,0,-1,1798,792,0,0
581,232,0,0,0,0,0,0,0,0,0,-1,1805,792,0,0
588,232,34.1288,3.07251,0.0147184,0.00726184,-0.0010636,0.0148671,0.00711309,-0.138949,0.00858618,0.0371351,1812,792,34.1288,-3.07249
595,232,34.1821,2.87408,0.0129811,0.00274531,-0.000509723,0.0130064,0.00271999,-0.0496346,0.00792149,0.0382837,1819,792,34.1821,-2.87409
602,232,34.3191,2.69897,0.00964205,0.000293427,-3.31665e-05,0.00964217,0.000293309,-0.00354768,0.00633261,0.0368073,1826,792,34.3191,-2.69899
609,232,34.3767,2.75464,0.00601251,-0.00108877,8.15799e-05,0.00601345,-0.0010897,0.011486,0.00441723,0.0405783,1833,792,34.3767,-2.75466
616,232,34.3245,2.82184,0.00263887,-0.00181212,-7.55394e-05,0.00264015,-0.0018134,-0.0169649,0.00258598,0.0449497,1840,792,34.3245,-2.82184
623,232,34.0519,3.16016,9.25146e-05,-0.00218746,-0.000237258,0.000116942,-0.00221189,-0.102597,0.00151508,0.0448796,1847,792,34.0519,-3.16017
630,232,34.1664,3.17529,0,0,0,0,0,0,0,-1,1854,792,34.1663,-3.17528
637,232,34.509,2.2915,0,0,0,0,0,0,0,-1,1861,792,34.509,-2.2915
644,232,29.3163,4.33893,0,0,0,0,0,0,0,-1,1868,792,29.3163,-4.33891
651,232,24.9834,0.0541992,0,0,0,0,0,0,0,-1,1875,792,24.9834,-0.0541893
658,232,24.8593,0.371765,-0.00507169,-0.00167708,-0.0013264,-0.00122028,-0.00552849,-1.23913,0.00335374,0.0334301,1882,792,24.8592,-0.371766
665,232,24.7524,0.731995,-0.00429809,-0.00161341,-0.00175429,-0.00074681,-0.00516469,-1.11197,0.00322316,0.0140057,1889,792,24.7525,-0.73202
672,232,24.7075,1.11749,-0.00329133,-0.00157215,-0.00181451,-0.000423925,-0.00443956,-1.0066,0.00282901,0.0185336,1896,792,24.7075,-1.11749
679,232,24.7439,1.53394,-0.00219505,-0.00160956,-0.00172183,-0.000155762,-0.00364884,-0.869603,0.00238234,0.0198729,1903,792,24.7439,-1.53395
686,232,24.7622,1.94946,-0.000741293,-0.000850022,-0.00127527,0.000480774,-0.00207209,-0.764096,0.00156644,0.0195347,1910,792,24.7622,-1.94947
693,232,24.7332,2.29608,0.00109256,9.85071e-05,-0.000644973,0.0014098,-0.00021873,-0.457115,0.00102062,0.0114908,1917,792,24.7332,-2.29609
700,232,24.7334,2.67505,0.00302645,0.000907538,0.00016853,0.00303977,0.000894218,0.0788753,0.0018039,0.01327,1924,792,24.7334,-2.67502
707,232,24.7225,3.07184,0.0052643,0.00212566,0.00120633,0.00567437,0.00171559,0.327681,0.00336035,0.0131633,1931,792,24.7226,-3.07182
714,232,24.7206,3.45758,0.00781047,0.00349922,0.00243365,0.0089059,0.00240379,0.422953,0.0053202,0.0139496,1938,792,24.7206,-3.45757
721,232,24.6991,3.81787,0.0104711,0.00498489,0.0037798,0.0123983,0.00305771,0.471506,0.00745822,0.0217524,1945,792,24.699,-3.81785
728,232,24.7314,4.06555,0.0135478,0.00675838,0.00553576,0.0166468,0.00365934,0.510353,0.0101015,0.0412969,1952,792,24.7315,-4.06554
735,232,24.9828,4.30701,0,0,0,0,0,0,0,-1,1959,792,24.9827,-4.30702
742,232,29.5056,3.25159,0,0,0,0,0,0,0,-1,1966,792,29.5057,-3.25157
749,232,29.0863,4.12286,0,0,0,0,0,0,0,-1,1973,792,29.0863,-4.12283
756,232,29.5652,4.83032,0,0,0,0,0,0,0,-1,1980,792,29.5652,-4.83032
763,232,29.8763,5.72894,0,0,0,0,0,0,0,-1,1987,792,29.8763,-5.72894
770,232,0,0,0,0,0,0,0,0,0,-1,1994,792,0,0
777,232,0,0,0,0,0,0,0,0,0,-1,2001,792,0,0
784,232,0,0,0,0,0,0,0,0,0,-1,2008,792,0,0
791,232,0,0,0,0,0,0,0,0,0,-1,2015,792,0,0
798,232,0,0,0,0,0,0,0,0,0,-1,2022,792,0,0
805,232,0,0,0,0,0,0,0,0,0,-1,2029,792,0,0
812,232,0,0,0,0,0,0,0,0,0,-1,2036,792,0,0
-700,225,0,0,0,0,0,0,0,0,0,-1,524,799,0,0
-693,225,0,0,0,0,0,0,0,0,0,-1,531,799,0,0
-686,225,0,0,0,0,0,0,0,0,0,-1,538,799,0,0
-679,225,0,0,0,0,0,0,0,0,0,-1,545,799,0,0
-672,225,0,0,0,0,0,0,0,0,0,-1,552,799,0,0
-665,225,0,0,0,0,0,0,0,0,0,-1,559,799,0,0
-658,225,0,0,0,0,0,0,0,0,0,-1,566,799,0,0
-651,225,0,0,0,0,0,0,0,0,0,-1,573,799,0,0
-644,225,-22.4099,-0.204834,0,0,0,0,0,0,0,-1,580,799,-22.4099,0.20484
-637,225,-21.7047,-0.424072,0,0,0,0,0,0,0,-1,587,799,-21.7047,0.424052
-630,225,-22.1293,-0.595947,0,0,0,0,0,0,0,-1,594,799,-22.1293,0.595923
-623,225,-22.5476,2.15985,0,0,0,0,0,0,0,-1,601,799,-22.5476,-2.15985
-616,225,-23.2698,2.66486,0,0,0,0,0,0,0,-1,608,799,-23.2698,-2.66486
-609,225,-16.8123,2.58722,0,0,0,0,0,0,0,-1,615,799,-16.8123,-2.5872
-602,225,-16.7538,2.33923,0,0,0,0,0,0,0,-1,622,799,-16.7539,-2.33924
-595,225,-16.7797,1.75909,0.0232137,0.0145626,-0.00149114,0.0234635,0.0143128,-0.165986,0.0136555,0.0313432,629,799,-16.7797,-1.75912
-588,225,-16.7766,1.21899,0.0155258,0.00898808,-0.000882635,0.0156428,0.00887102,-0.131862,0.00905847,0.0128835,636,799,-16.7766,-1.21899
-581,225,-16.7787,0.863403,0.00961659,0.00519775,-0.000405134,0.00965343,0.00516091,-0.090676,0.00557786,0.0104273,643,799,-16.7787,-0.863385
-574,225,-16.7746,0.507629,0.00512856,0.00252465,5.99252e-05,0.00512994,0.00252327,0.0229973,0.0029619,0.00852298,650,799,-16.7746,-0.507644
-567,225,-16.7979,0.140442,0.00198165,0.000906657,0.000679511,0.00231055,0.00057776,0.450782,0.00138844,0.0112301,657,799,-16.7979,-0.140467
-560,225,-16.8176,-0.221375,-0.000538284,0.000573979,0.00149871,0.00161641,-0.00158071,0.96306,0.0018459,0.0130057,664,799,-16.8176,0.221359
-553,225,-16.8312,-0.59436,-0.00403272,0.000933677,0.00235454,0.00187249,-0.00497153,1.19139,0.00408419,0.0122336,671,799,-16.8312,0.594348
-546,225,-16.8911,-0.973694,-0.00962173,0.00123897,0.00349427,0.00226607,-0.0106488,1.28491,0.00796279,0.019795,678,799,-16.8911,0.973706
-539,225,-16.8392,-1.36005,-0.0135598,0.0017605,0.00414477,0.00280995,-0.0146092,1.32281,0.0107987,0.0307436,685,799,-16.8392,1.36004
-532,225,-16.8627,-1.65295,-0.0165955,0.00203134,0.00493436,0.00325773,-0.0178219,1.32719,0.0131029,0.0283499,692,799,-16.8627,1.65298
-525,225,-17.204,-1.8479,0,0,0,0,0,0,0,-1,699,799,-17.204,1.84789
-518,225,-21.963,0.171326,0,0,0,0,0,0,0,-1,706,799,-21.9629,-0.171319
-511,225,-22.9828,2.06049,0,0,0,0,0,0,0,-1,713,799,-22.9828,-2.06046
-504,225,-23.8694,1.56317,-0.0276149,0.00356241,0.00583529,0.00461878,-0.0286713,1.39171,0.0208252,0.049629,720,799,-23.8694,-1.56319
-497,225,-24.497,1.2572,-0.0283452,0.00357925,0.00537873,0.00446111,-0.0292271,1.40829,0.0211293,0.0458641,727,799,-24.497,-1.25723
-490,225,-24.9383,0.860107,-0.0266293,0.00373171,0.00434803,0.00434212,-0.0272397,1.43132,0.0197668,0.0392603,734,799,-24.9383,-0.860091
-483,225,-24.9725,0.881592,-0.0212144,0.00423319,0.00240564,0.00445861,-0.0214398,1.47737,0.015988,0.0313105,741,799,-24.9725,-0.881569
-476,225,-24.9312,0.826416,-0.0108048,0.00549811,-0.000702437,0.00552832,-0.010835,-1.52782,0.00961155,0.0288463,748,799,-24.9312,-0.826408
-469,225,-24.9399,0.716736,0.00474375,0.00810954,-0.00498914,0.011692,0.00116132,-0.948061,0.00743782,0.0342866,755,799,-24.9399,-0.716748
-462,225,0,0,0,0,0,0,0,0,0,-1,762,799,0,0
-455,225,0,0,0,0,0,0,0,0,0,-1,769,799,0,0
-448,225,0,0,0,0,0,0,0,0,0,-1,776,799,0,0
-441,225,0,0,0,0,0,0,0,0,0,-1,783,799,0,0
-434,225,0,0,0,0,0,0,0,0,0,-1,790,799,0,0
-427,225,0,0,0,0,0,0,0,0,0,-1,797,799,0,0
-420,225,0,0,0,0,0,0,0,0,0,-1,804,799,0,0
-413,225,0,0,0,0,0,0,0,0,0,-1,811,799,0,0
-406,225,0,0,0,0,0,0,0,0,0,-1,818,799,0,0
-399,225,0,0,0,0,0,0,0,0,0,-1,825,799,0,0
-392,225,0,0,0,0,0,0,0,0,0,-1,832,799,0,0
-385,225,0,0,0,0,0,0,0,0,0,-1,839,799,0,0
-378,225,0,0,0,0,0,0,0,0,0,-1,846,799,0,0
-371,225,0,0,0,0,0,0,0,0,0,-1,853,799,0,0
-364,225,0,0,0,0,0,0,0,0,0,-1,860,799,0,0
-357,225,0,0,0,0,0,0,0,0,0,-1,867,799,0,0
-350,225,0,0,0,0,0,0,0,0,0,-1,874,799,0,0
-343,225,0,0,0,0,0,0,0,0,0,-1,881,799,0,0
-336,225,0,0,0,0,0,0,0,0,0,-1,888,799,0,0
-329,225,0,0,0,0,0,0,0,0,0,-1,895,799,0,0
-322,225,0,0,0,0,0,0,0,0,0,-1,902,799,0,0
-315,225,0,0,0,0,0,0,0,0,0,-1,909,799,0,0
-308,225,0,0,0,0,0,0,0,0,0,-1,916,799,0,0
-301,225,0,0,0,0,0,0,0,0,0,-1,923,799,0,0
-294,225,0,0,0,0,0,0,0,0,0,-1,930,799,0,0
-287,225,0,0,0,0,0,0,0,0,0,-1,937,799,0,0
-280,225,0,0,0,0,0,0,0,0,0,-1,944,799,0,0
-273,225,0,0,0,0,0,0,0,0,0,-1,951,799,0,0
-266,225,0,0,0,0,0,0,0,0,0,-1,958,799,0,0
-259,225,0,0,0,0,0,0,0,0,0,-1,965,799,0,0
-252,225,0,0,0,0,0,0,0,0,0,-1,972,799,0,0
-245,225,0,0,0,0,0,0,0,0,0,-1,979,799,0,0
-238,225,0,0,0,0,0,0,0,0,0,-1,986,799,0,0
-231,225,0,0,0,0,0,0,0,0,0,-1,993,799,0,0
-224,225,0,0,0,0,0,0,0,0,0,-1,1000,799,0,0
-217,225,0,0,0,0,0,0,0,0,0,-1,1007,799,0,0
-210,225,0,0,0,0,0,0,0,0,0,-1,1014,799,0,0
-203,225,0,0,0,0,0,0,0,0,0,-1,1021,799,0,0
-196,225,0,0,0,0,0,0,0,0,0,-1,1028,799,0,0
-189,225,0,0,0,0,0,0,0,0,0,-1,1035,799,0,0
-182,225,0,0,0,0,0,0,0,0,0,-1,1042,799,0,0
-175,225,0,0,0,0,0,0,0,0,0,-1,1049,799,0,0
-168,225,0,0,0,0,0,0,0,0,0,-1,1056,799,0,0
-161,225,0,0,0,0,0,0,0,0,0,-1,1063,799,0,0
-154,225,0,0,0,0,0,0,0,0,0,-1,1070,799,0,0
-147,225,0,0,0,0,0,0,0,0,0,-1,1077,799,0,0
-140,225,0,0,0,0,0,0,0,0,0,-1,1084,799,0,0
-133,225,0,0,0,0,0,0,0,0,0,-1,1091,799,0,0
-126,225,0,0,0,0,0,0,0,0,0,-1,1098,799,0,0
-119,225,0,0,0,0,0,0,0,0,0,-1,1105,799,0,0
-112,225,0,0,0,0,0,0,0,0,0,-1,1112,799,0,0
-105,225,0,0,0,0,0,0,0,0,0,-1,1119,799,0,0
-98,225,0,0,0,0,0,0,0,0,0,-1,1126,799,0,0
-91,225,0,0,0,0,0,0,0,0,0,-1,1133,799,0,0
-84,225,0,0,0,0,0,0,0,0,0,-1,1140,799,0,0
-77,225,0,0,0,0,0,0,0,0,0,-1,1147,799,0,0
-70,225,0,0,0,0,0,0,0,0,0,-1,1154,799,0,0
-63,225,0,0,0,0,0,0,0,0,0,-1,1161,799,0,0
-56,225,0,0,0,0,0,0,0,0,0,-1,1168,799,0,0
-49,225,0,0,0,0,0,0,0,0,0,-1,1175,799,0,0
-42,225,0,0,0,0,0,0,0,0,0,-1,1182,799,0,0
-35,225,0,0,0,0,0,0,0,0,0,-1,1189,799,0,0
-28,225,0,0,0,0,0,0,0,0,0,-1,1196,799,0,0
-21,225,0,0,0,0,0,0,0,0,0,-1,1203,799,0,0
-14,225,0,0,0,0,0,0,0,0,0,-1,1210,799,0,0
-7,225,0,0,0,0,0,0,0,0,0,-1,1217,799,0,0
0,225,0,0,0,0,0,0,0,0,0,-1,1224,799,0,0
7,225,0,0,0,0,0,0,0,0,0,-1,1231,799,0,0
14,225,0,0,0,0,0,0,0,0,0,-1,1238,799,0,0
21,225,0,0,0,0,0,0,0,0,0,-1,1245,799,0,0
28,225,0,0,0,0,0,0,0,0,0,-1,1252,799,0,0
35,225,0,0,0,0,0,0,0,0,0,-1,1259,799,0,0
42,225,0,0,0,0,0,0,0,0,0,-1,1266,799,0,0
49,225,0,0,0,0,0,0,0,0,0,-1,1273,799,0,0
56,225,0,0,0,0,0,0,0,0,0,-1,1280,799,0,0
63,225,0,0,0,0,0,0,0,0,0,-1,1287,799,0,0
70,225,0,0,0,0,0,0,0,0,0,-1,1294,799,0,0
77,225,0,0,0,0,0,0,0,0,0,-1,1301,799,0,0
84,225,0,0,0,0,0,0,0,0,0,-1,1308,799,0,0
91,225,0,0,0,0,0,0,0,0,0,-1,1315,799,0,0
98,225,0,0,0,0,0,0,0,0,0,-1,1322,799,0,0
105,225,0,0,0,0,0,0,0,0,0,-1,1329,799,0,0
112,225,0,0,0,0,0,0,0,0,0,-1,1336,799,0,0
119,225,0,0,0,0,0,0,0,0,0,-1,1343,799,0,0
126,225,0,0,0,0,0,0,0,0,0,-1,1350,799,0,0
133,225,0,0,0,0,0,0,0,0,0,-1,1357,799,0,0
140,225,0,0,0,0,0,0,0,0,0,-1,1364,799,0,0
147,225,0,0,0,0,0,0,0,0,0,-1,1371,799,0,0
154,225,0,0,0,0,0,0,0,0,0,-1,1378,799,0,0
161,225,0,0,0,0,0,0,0,0,0,-1,1385,799,0,0
168,225,0,0,0,0,0,0,0,0,0,-1,1392,799,0,0
175,225,0,0,0,0,0,0,0,0,0,-1,1399,799,0,0
182,225,0,0,0,0,0,0,0,0,0,-1,1406,799,0,0
189,225,0,0,0,0,0,0,0,0,0,-1,1413,799,0,0
196,225,0,0,0,0,0,0,0,0,0,-1,1420,799,0,0
203,225,0,0,0,0,0,0,0,0,0,-1,1427,799,0,0
210,225,0,0,0,0,0,0,0,0,0,-1,1434,799,0,0
217,225,0,0,0,0,0,0,0,0,0,-1,1441,799,0,0
224,225,0,0,0,0,0,0,0,0,0,-1,1448,799,0,0
231,225,0,0,0,0,0,0,0,0,0,-1,1455,799,0,0
238,225,0,0,0,0,0,0,0,0,0,-1,1462,799,0,0
245,225,0,0,0,0,0,0,0,0,0,-1,1469,799,0,0
252,225,0,0,0,0,0,0,0,0,0,-1,1476,799,0,0
259,225,0,0,0,0,0,0,0,0,0,-1,1483,799,0,0
266,225,0,0,0,0,0,0,0,0,0,-1,1490,799,0,0
273,225,0,0,0,0,0,0,0,0,0,-1,1497,799,0,0
280,225,0,0,0,0,0,0,0,0,0,-1,1504,799,0,0
287,225,0,0,0,0,0,0,0,0,0,-1,1511,799,0,0
294,225,0,0,0,0,0,0,0,0,0,-1,1518,799,0,0
301,225,0,0,0,0,0,0,0,0,0,-1,1525,799,0,0
308,225,0,0,0,0,0,0,0,0,0,-1,1532,799,0,0
315,225,0,0,0,0,0,0,0,0,0,-1,1539,799,0,0
322,225,0,0,0,0,0,0,0,0,0,-1,1546,799,0,0
329,225,0,0,0,0,0,0,0,0,0,-1,1553,799,0,0
336,225,0,0,0,0,0,0,0,0,0,-1,1560,799,0,0
343,225,0,0,0,0,0,0,0,0,0,-1,1567,799,0,0
350,225,0,0,0,0,0,0,0,0,0,-1,1574,799,0,0
357,225,0,0,0,0,0,0,0,0,0,-1,1581,799,0,0
364,225,0,0,0,0,0,0,0,0,0,-1,1588,799,0,0
371,225,0,0,0,0,0,0,0,0,0,-1,1595,799,0,0
378,225,0,0,0,0,0,0,0,0,0,-1,1602,799,0,0
385,225,0,0,0,0,0,0,0,0,0,-1,1609,799,0,0
392,225,0,0,0,0,0,0,0,0,0,-1,1616,799,0,0
399,225,0,0,0,0,0,0,0,0,0,-1,1623,799,0,0
406,225,0,0,0,0,0,0,0,0,0,-1,1630,799,0,0
413,225,0,0,0,0,0,0,0,0,0,-1,1637,799,0,0
420,225,0,0,0,0,0,0,0,0,0,-1,1644,799,0,0
427,225,0,0,0,0,0,0,0,0,0,-1,1651,799,0,0
434,225,0,0,0,0,0,0,0,0,0,-1,1658,799,0,0
441,225,0,0,0,0,0,0,0,0,0,-1,1665,799,0,0
448,225,0,0,0,0,0,0,0,0,0,-1,1672,799,0,0
455,225,0,0,0,0,0,0,0,0,0,-1,1679,799,0,0
462,225,0,0,0,0,0,0,0,0,0,-1,1686,799,0,0
469,225,0,0,0,0,0,0,0,0,0,-1,1693,799,0,0
476,225,0,0,0,0,0,0,0,0,0,-1,1700,799,0,0
483,225,0,0,0,0,0,0,0,0,0,-1,1707,799,0,0
490,225,0,0,0,0,0,0,0,0,0,-1,1714,799,0,0
497,225,0,0,0,0,0,0,0,0,0,-1,1721,799,0,0
504,225,0,0,0,0,0,0,0,0,0,-1,1728,799,0,0
511,225,0,0,0,0,0,0,0,0,0,-1,1735,799,0,0
518,225,0,0,0,0,0,0,0,0,0,-1,1742,799,0,0
525,225,0,0,0,0,0,0,0,0,0,-1,1749,799,0,0
532,225,0,0,0,0,0,0,0,0,0,-1,1756,799,0,0
539,225,0,0,0,0,0,0,0,0,0,-1,1763,799,0,0
546,225,0,0,0,0,0,0,0,0,0,-1,1770,799,0,0
553,225,0,0,0,0,0,0,0,0,0,-1,1777,799,0,0
560,225,0,0,0,0,0,0,0,0,0,-1,1784,799,0,0
567,225,0,0,0,0,0,0,0,0,0,-1,1791,799,0,0
574,225,0,0,0,0,0,0,0,0,0,-1,1798,799,0,0
581,225,0,0,0,0,0,0,0,0,0,-1,1805,799,0,0
588,225,34.2708,2.87,0.0113135,0.00877689,-0.00257197,0.0129129,0.00717751,-0.556332,0.00747074,0.0375469,1812,799,34.2707,-2.87002
595,225,34.2653,2.86047,0.0094302,0.00397403,-0.00110623,0.00964596,0.00375827,-0.192618,0.00561415,0.0375654,1819,799,34.2652,-2.86044
602,225,34.3541,2.81573,0.00642756,0.00134637,-8.19846e-05,0.00642888,0.00134505,-0.0161293,0.00391535,0.0356706,1826,799,34.3541,-2.81572
609,225,34.3201,2.83112,0.00344986,-0.000109506,0.000438775,0.00350315,-0.000162798,0.120863,0.00239155,0.0325197,1833,799,34.32,-2.83114
616,225,34.2717,2.83057,0.000643156,-0.000971194,0.000343676,0.000713275,-0.00104131,0.201264,0.0010189,0.0378706,1840,799,34.2717,-2.83057
623,225,34.2383,2.93689,-0.00147051,-0.00148177,0.000144028,-0.001332,-0.00162028,0.765859,0.00099807,0.0399649,1847,799,34.2383,-2.93686
630,225,34.5112,2.80865,-0.00259412,-0.00171628,-0.000254984,-0.00164759,-0.00266281,-1.30765,0.00155176,0.0431629,1854,799,34.5112,-2.80863
637,225,34.37,2.58124,-0.00363791,-0.00187461,-0.000471177,-0.0017566,-0.00375592,-1.32539,0.00216999,0.0462071,1861,799,34.37,-2.58122
644,225,26.8829,0.549438,0,0,0,0,0,0,0,-1,1868,799,26.8829,-0.549443
651,225,26.3202,0.646545,0,0,0,0,0,0,0,-1,1875,799,26.3201,-0.646559
658,225,25.7366,0.781494,-0.00494108,-0.00137954,-0.00133995,-0.000931724,-0.0053889,-1.24826,0.00332581,0.0468884,1882,799,25.7366,-0.781501
665,225,25.2318,0.78894,-0.00429646,-0.00131234,-0.00171755,-0.000529273,-0.00507953,-1.14303,0.00322444,0.0181303,1889,799,25.2318,-0.788963
672,225,25.116,1.17035,-0.00349123,-0.00136448,-0.0018144,-0.000324809,-0.0045309,-1.05046,0.00291836,0.0187355,1896,799,25.116,-1.17034
679,225,25.1337,1.59869,-0.00267587,-0.00156332,-0.00181167,-0.000224443,-0.00401475,-0.934355,0.00260491,0.0184623,1903,799,25.1337,-1.59868
686,225,25.1482,1.94952,-0.00152906,-0.000965195,-0.00153709,0.000315607,-0.00280987,-0.8761,0.00198682,0.0122322,1910,799,25.1481,-1.94953
693,225,25.1158,2.29962,9.06019e-05,-0.000127856,-0.00102899,0.00101615,-0.0010534,-0.732521,0.00119492,0.0112071,1917,799,25.1158,-2.29961
700,225,25.1185,2.68066,0.00179193,0.000553003,-0.000320742,0.00187004,0.000474892,-0.238883,0.0011224,0.0114206,1924,799,25.1185,-2.68066
707,225,25.1049,3.08624,0.00372361,0.00181923,0.000607445,0.00390087,0.00164197,0.283927,0.00226154,0.0119879,1931,799,25.1048,-3.08627
714,225,25.1111,3.47632,0.00593882,0.00331852,0.00177029,0.00683103,0.00242631,0.466837,0.00399866,0.0140431,1938,799,25.1111,-3.47631
721,225,25.1366,3.84479,0.00815313,0.00495567,0.00297748,0.00993394,0.00317486,0.539017,0.00585848,0.0155466,1945,799,25.1366,-3.84478
728,225,25.0618,4.06995,0.0105518,0.00692218,0.00446827,0.0135597,0.00391424,0.592498,0.00805844,0.028882,1952,799,25.0618,-4.06993
735,225,25.1281,4.36719,0,0,0,0,0,0,0,-1,1959,799,25.1281,-4.36721
742,225,29.0922,3.2132,0,0,0,0,0,0,0,-1,1966,799,29.0921,-3.21322
749,225,25.3358,4.64941,0,0,0,0,0,0,0,-1,1973,799,25.3359,-4.64941
756,225,29.035,4.88544,0,0,0,0,0,0,0,-1,1980,799,29.035,-4.88543
763,225,25.6912,7.76556,0,0,0,0,0,0,0,-1,1987,799,25.6912,-7.76555
770,225,0,0,0,0,0,0,0,0,0,-1,1994,799,0,0
777,225,0,0,0,0,0,0,0,0,0,-1,2001,799,0,0
784,225,0,0,0,0,0,0,0,0,0,-1,2008,799,0,0
791,225,0,0,0,0,0,0,0,0,0,-1,2015,799,0,0
798,225,0,0,0,0,0,0,0,0,0,-1,2022,799,0,0
805,225,0,0,0,0,0,0,0,0,0,-1,2029,799,0,0
812,225,0,0,0,0,0,0,0,0,0,-1,2036,799,0,0
-700,218,0,0,0,0,0,0,0,0,0,-1,524,806,0,0
-693,218,0,0,0,0,0,0,0,0,0,-1,531,806,0,0
-686,218,0,0,0,0,0,0,0,0,0,-1,538,806,0,0
-679,218,0,0,0,0,0,0,0,0,0,-1,545,806,0,0
-672,218,0,0,0,0,0,0,0,0,0,-1,552,806,0,0
-665,218,0,0,0,0,0,0,0,0,0,-1,559,806,0,0
-658,218,0,0,0,0,0,0,0,0,0,-1,566,806,0,0
-651,218,-21.9341,0.518799,0,0,0,0,0,0,0,-1,573,806,-21.9341,-0.518773
-644,218,-21.558,0.250732,0,0,0,0,0,0,0,-1,580,806,-21.558,-0.250722
-637,218,-21.2309,0.131348,0,0,0,0,0,0,0,-1,587,806,-21.2309,-0.131356
-630,218,-20.9091,-0.0494385,0,0,0,0,0,0,0,-1,594,806,-20.909,0.0494398
-623,218,-21.3431,3.54083,0,0,0,0,0,0,0,-1,601,806,-21.3431,-3.54082
-616,218,-22.7681,2.979,0,0,0,0,0,0,0,-1,608,806,-22.7681,-2.97903
-609,218,-17.1667,2.25641,0,0,0,0,0,0,0,-1,615,806,-17.1667,-2.25639
-602,218,-17.1839,1.90686,0.0209945,0.0173163,-0.000496426,0.0210603,0.0172505,-0.131824,0.0129583,0.0399351,622,806,-17.1839,-1.90689
-595,218,-17.1829,1.56525,0.0142242,0.0113168,-0.000214752,0.01424,0.011301,-0.0733321,0.00868111,0.0180438,629,806,-17.1829,-1.56525
-588,218,-17.1606,1.21643,0.00939231,0.00650926,7.46774e-05,0.00939424,0.00650732,0.0258791,0.0055564,0.0117149,636,806,-17.1606,-1.21641
-581,218,-17.1612,0.874084,0.00562661,0.00340345,0.000321482,0.00567216,0.00335789,0.140765,0.00329325,0.0109877,643,806,-17.1612,-0.874058
-574,218,-17.1732,0.516235,0.00270387,0.00133923,0.000589861,0.00292349,0.00111961,0.356424,0.00170322,0.0096953,650,806,-17.1732,-0.516236
-567,218,-17.1498,0.135559,0.000824296,0.000453019,0.00106822,0.00172289,-0.00044557,0.699366,0.00132238,0.0162574,657,806,-17.1498,-0.135585
-560,218,-17.1631,-0.232239,-0.000881913,0.000746503,0.0018226,0.0019285,-0.00206391,0.995463,0.00230546,0.0175568,664,806,-17.1631,0.232237
-553,218,-17.1721,-0.613953,-0.00391879,0.00157299,0.00260056,0.00260901,-0.00495481,1.19169,0.00443642,0.0180395,671,806,-17.1721,0.613924
-546,218,-17.251,-1.01508,-0.00873995,0.00237518,0.00349386,0.00338218,-0.00974695,1.29018,0.00787142,0.0161111,678,806,-17.251,1.01505
-539,218,-17.2607,-1.40765,-0.0120355,0.00316497,0.00394133,0.00412614,-0.0129966,1.3316,0.0103186,0.0270087,685,806,-17.2608,1.40764
-532,218,-17.294,-1.60321,-0.0145949,0.00372227,0.00460217,0.00481355,-0.0156861,1.33797,0.012378,0.0347865,692,806,-17.294,1.60322
-525,218,-17.5566,-1.73193,0,0,0,0,0,0,0,-1,699,806,-17.5566,1.73195
-518,218,-22.641,2.49609,0,0,0,0,0,0,0,-1,706,806,-22.641,-2.49607
-511,218,-23.2853,2.02069,-0.0227566,0.00615741,0.00531654,0.00710399,-0.0237031,1.3946,0.0186273,0.0459129,713,806,-23.2853,-2.02072
-504,218,-24.0264,1.60999,-0.0248232,0.00665622,0.005198,0.00749232,-0.0256593,1.41131,0.0200752,0.047799,720,806,-24.0264,-1.60996
-497,218,-24.5516,1.22705,-0.0253697,0.00690805,0.00459151,0.00754848,-0.0260101,1.43221,0.0203289,0.0476998,727,806,-24.5517,-1.22704
-490,218,-24.8855,0.905823,-0.0230792,0.00717513,0.00329101,0.00752898,-0.0234331,1.46369,0.0186455,0.0354971,734,806,-24.8855,-0.905803
-483,218,-24.9435,0.848511,-0.0163288,0.00757705,0.000902936,0.00761111,-0.0163629,1.5331,0.0141455,0.0317815,741,806,-24.9435,-0.848531
-476,218,-24.8835,0.826782,-0.00381715,0.0083834,-0.00272834,0.00896573,-0.00439947,-1.36051,0.00786509,0.0350363,748,806,-24.8835,-0.826775
-469,218,0,0,0,0,0,0,0,0,0,-1,755,806,0,0
-462,218,0,0,0,0,0,0,0,0,0,-1,762,806,0,0
-455,218,0,0,0,0,0,0,0,0,0,-1,769,806,0,0
-448,218,0,0,0,0,0,0,0,0,0,-1,776,806,0,0
-441,218,0,0,0,0,0,0,0,0,0,-1,783,806,0,0
-434,218,0,0,0,0,0,0,0,0,0,-1,790,806,0,0
-427,218,0,0,0,0,0,0,0,0,0,-1,797,806,0,0
-420,218,0,0,0,0,0,0,0,0,0,-1,804,806,0,0
-413,218,0,0,0,0,0,0,0,0,0,-1,811,806,0,0
-406,218,0,0,0,0,0,0,0,0,0,-1,818,806,0,0
-399,218,0,0,0,0,0,0,0,0,0,-1,825,806,0,0
-392,218,0,0,0,0,0,0,0,0,0,-1,832,806,0,0
-385,218,0,0,0,0,0,0,0,0,0,-1,839,806,0,0
-378,218,0,0,0,0,0,0,0,0,0,-1,846,806,0,0
-371,218,0,0,0,0,0,0,0,0,0,-1,853,806,0,0
-364,218,0,0,0,0,0,0,0,0,0,-1,860,806,0,0
-357,218,0,0,0,0,0,0,0,0,0,-1,867,806,0,0
-350,218,0,0,0,0,0,0,0,0,0,-1,874,806,0,0
-343,218,0,0,0,0,0,0,0,0,0,-1,881,806,0,0
-336,218,0,0,0,0,0,0,0,0,0,-1,888,806,0,0
-329,218,0,0,0,0,0,0,0,0,0,-1,895,806,0,0
-322,218,0,0,0,0,0,0,0,0,0,-1,902,806,0,0
-315,218,0,0,0,0,0,0,0,0,0,-1,909,806,0,0
-308,218,0,0,0,0,0,0,0,0,0,-1,916,806,0,0
-301,218,0,0,0,0,0,0,0,0,0,-1,923,806,0,0
-294,218,0,0,0,0,0,0,0,0,0,-1,930,806,0,0
-287,218,0,0,0,0,0,0,0,0,0,-1,937,806,0,0
-280,218,0,0,0,0,0,0,0,0,0,-1,944,806,0,0
-273,218,0,0,0,0,0,0,0,0,0,-1,951,806,0,0
-266,218,0,0,0,0,0,0,0,0,0,-1,958,806,0,0
-259,218,0,0,0,0,0,0,0,0,0,-1,965,806,0,0
-252,218,0,0,0,0,0,0,0,0,0,-1,972,806,0,0
-245,218,0,0,0,0,0,0,0,0,0,-1,979,806,0,0
-238,218,0,0,0,0,0,0,0,0,0,-1,986,806,0,0
-231,218,0,0,0,0,0,0,0,0,0,-1,993,806,0,0
-224,218,0,0,0,0,0,0,0,0,0,-1,1000,806,0,0
-217,218,0,0,0,0,0,0,0,0,0,-1,1007,806,0,0
-210,218,0,0,0,0,0,0,0,0,0,-1,1014,806,0,0
-203,218,0,0,0,0,0,0,0,0,0,-1,1021,806,0,0
-196,218,0,0,0,0,0,0,0,0,0,-1,1028,806,0,0
-189,218,0,0,0,0,0,0,0,0,0,-1,1035,806,0,0
-182,218,0,0,0,0,0,0,0,0,0,-1,1042,806,0,0
-175,218,0,0,0,0,0,0,0,0,0,-1,1049,806,0,0
-168,218,0,0,0,0,0,0,0,0,0,-1,1056,806,0,0
-161,218,0,0,0,0,0,0,0,0,0,-1,1063,806,0,0
-154,218,0,0,0,0,0,0,0,0,0,-1,1070,806,0,0
-147,218,0,0,0,0,0,0,0,0,0,-1,1077,806,0,0
-140,218,0,0,0,0,0,0,0,0,0,-1,1084,806,0,0
-133,218,0,0,0,0,0,0,0,0,0,-1,1091,806,0,0
-126,218,0,0,0,0,0,0,0,0,0,-1,1098,806,0,0
-119,218,0,0,0,0,0,0,0,0,0,-1,1105,806,0,0
-112,218,0,0,0,0,0,0,0,0,0,-1,1112,806,0,0
-105,218,0,0,0,0,0,0,0,0,0,-1,1119,806,0,0
-98,218,0,0,0,0,0,0,0,0,0,-1,1126,806,0,0
-91,218,0,0,0,0,0,0,0,0,0,-1,1133,806,0,0
-84,218,0,0,0,0,0,0,0,0,0,-1,1140,806,0,0
-77,218,0,0,0,0,0,0,0,0,0,-1,1147,806,0,0
-70,218,0,0,0,0,0,0,0,0,0,-1,1154,806,0,0
-63,218,0,0,0,0,0,0,0,0,0,-1,1161,806,0,0
-56,218,0,0,0,0,0,0,0,0,0,-1,1168,806,0,0
-49,218,0,0,0,0,0,0,0,0,0,-1,1175,806,0,0
-42,218,0,0,0,0,0,0,0,0,0,-1,1182,806,0,0
-35,218,0,0,0,0,0,0,0,0,0,-1,1189,806,0,0
-28,218,0,0,0,0,0,0,0,0,0,-1,1196,806,0,0
-21,218,0,0,0,0,0,0,0,0,0,-1,1203,806,0,0
-14,218,0,0,0,0,0,0,0,0,0,-1,1210,806,0,0
-7,218,0,0,0,0,0,0,0,0,0,-1,1217,806,0,0
0,218,0,0,0,0,0,0,0,0,0,-1,1224,806,0,0
7,218,0,0,0,0,0,0,0,0,0,-1,1231,806,0,0
14,218,0,0,0,0,0,0,0,0,0,-1,1238,806,0,0
21,218,0,0,0,0,0,0,0,0,0,-1,1245,806,0,0
28,218,0,0,0,0,0,0,0,0,0,-1,1252,806,0,0
35,218,0,0,0,0,0,0,0,0,0,-1,1259,806,0,0
42,218,0,0,0,0,0,0,0,0,0,-1,1266,806,0,0
49,218,0,0,0,0,0,0,0,0,0,-1,1273,806,0,0
56,218,0,0,0,0,0,0,0,0,0,-1,1280,806,0,0
63,218,0,0,0,0,0,0,0,0,0,-1,1287,806,0,0
70,218,0,0,0,0,0,0,0,0,0,-1,1294,806,0,0
77,218,0,0,0,0,0,0,0,0,0,-1,1301,806,0,0
84,218,0,0,0,0,0,0,0,0,0,-1,1308,806,0,0
91,218,0,0,0,0,0,0,0,0,0,-1,1315,806,0,0
98,218,0,0,0,0,0,0,0,0,0,-1,1322,806,0,0
105,218,0,0,0,0,0,0,0,0,0,-1,1329,806,0,0
112,218,0,0,0,0,0,0,0,0,0,-1,1336,806,0,0
119,218,0,0,0,0,0,0,0,0,0,-1,1343,806,0,0
126,218,0,0,0,0,0,0,0,0,0,-1,1350,806,0,0
133,218,0,0,0,0,0,0,0,0,0,-1,1357,806,0,0
140,218,0,0,0,0,0,0,0,0,0,-1,1364,806,0,0
147,218,0,0,0,0,0,0,0,0,0,-1,1371,806,0,0
154,218,0,0,0,0,0,0,0,0,0,-1,1378,806,0,0
161,218,0,0,0,0,0,0,0,0,0,-1,1385,806,0,0
168,218,0,0,0,0,0,0,0,0,0,-1,1392,806,0,0
175,218,0,0,0,0,0,0,0,0,0,-1,1399,806,0,0
182,218,0,0,0,0,0,0,0,0,0,-1,1406,806,0,0
189,218,0,0,0,0,0,0,0,0,0,-1,1413,806,0,0
196,218,0,0,0,0,0,0,0,0,0,-1,1420,806,0,0
203,218,0,0,0,0,0,0,0,0,0,-1,1427,806,0,0
210,218,0,0,0,0,0,0,0,0,0,-1,1434,806,0,0
217,218,0,0,0,0,0,0,0,0,0,-1,1441,806,0,0
224,218,0,0,0,0,0,0,0,0,0,-1,1448,806,0,0
231,218,0,0,0,0,0,0,0,0,0,-1,1455,806,0,0
238,218,0,0,0,0,0,0,0,0,0,-1,1462,806,0,0
245,218,0,0,0,0,0,0,0,0,0,-1,1469,806,0,0
252,218,0,0,0,0,0,0,0,0,0,-1,1476,806,0,0
259,218,0,0,0,0,0,0,0,0,0,-1,1483,806,0,0
266,218,0,0,0,0,0,0,0,0,0,-1,1490,806,0,0
273,218,0,0,0,0,0,0,0,0,0,-1,1497,806,0,0
280,218,0,0,0,0,0,0,0,0,0,-1,1504,806,0,0
287,218,0,0,0,0,0,0,0,0,0,-1,1511,806,0,0
294,218,0,0,0,0,0,0,0,0,0,-1,1518,806,0,0
301,218,0,0,0,0,0,0,0,0,0,-1,1525,806,0,0
308,218,0,0,0,0,0,0,0,0,0,-1,1532,806,0,0
315,218,0,0,0,0,0,0,0,0,0,-1,1539,806,0,0
322,218,0,0,0,0,0,0,0,0,0,-1,1546,806,0,0
329,218,0,0,0,0,0,0,0,0,0,-1,1553,806,0,0
336,218,0,0,0,0,0,0,0,0,0,-1,1560,806,0,0
343,218,0,0,0,0,0,0,0,0,0,-1,1567,806,0,0
350,218,0,0,0,0,0,0,0,0,0,-1,1574,806,0,0
357,218,0,0,0,0,0,0,0,0,0,-1,1581,806,0,0
364,218,0,0,0,0,0,0,0,0,0,-1,1588,806,0,0
371,218,0,0,0,0,0,0,0,0,0,-1,1595,806,0,0
378,218,0,0,0,0,0,0,0,0,0,-1,1602,806,0,0
385,218,0,0,0,0,0,0,0,0,0,-1,1609,806,0,0
392,218,0,0,0,0,0,0,0,0,0,-1,1616,806,0,0
399,218,0,0,0,0,0,0,0,0,0,-1,1623,806,0,0
406,218,0,0,0,0,0,0,0,0,0,-1,1630,806,0,0
413,218,0,0,0,0,0,0,0,0,0,-1,1637,806,0,0
420,218,0,0,0,0,0,0,0,0,0,-1,1644,806,0,0
427,218,0,0,0,0,0,0,0,0,0,-1,1651,806,0,0
434,218,0,0,0,0,0,0,0,0,0,-1,1658,806,0,0
441,218,0,0,0,0,0,0,0,0,0,-1,1665,806,0,0
448,218,0,0,0,0,0,0,0,0,0,-1,1672,806,0,0
455,218,0,0,0,0,0,0,0,0,0,-1,1679,806,0,0
462,218,0,0,0,0,0,0,0,0,0,-1,1686,806,0,0
469,218,0,0,0,0,0,0,0,0,0,-1,1693,806,0,0
476,218,0,0,0,0,0,0,0,0,0,-1,1700,806,0,0
483,218,0,0,0,0,0,0,0,0,0,-1,1707,806,0,0
490,218,0,0,0,0,0,0,0,0,0,-1,1714,806,0,0
497,218,0,0,0,0,0,0,0,0,0,-1,1721,806,0,0
504,218,0,0,0,0,0,0,0,0,0,-1,1728,806,0,0
511,218,0,0,0,0,0,0,0,0,0,-1,1735,806,0,0
518,218,0,0,0,0,0,0,0,0,0,-1,1742,806,0,0
525,218,0,0,0,0,0,0,0,0,0,-1,1749,806,0,0
532,218,0,0,0,0,0,0,0,0,0,-1,1756,806,0,0
539,218,0,0,0,0,0,0,0,0,0,-1,1763,806,0,0
546,218,0,0,0,0,0,0,0,0,0,-1,1770,806,0,0
553,218,0,0,0,0,0,0,0,0,0,-1,1777,806,0,0
560,218,0,0,0,0,0,0,0,0,0,-1,1784,806,0,0
567,218,0,0,0,0,0,0,0,0,0,-1,1791,806,0,0
574,218,0,0,0,0,0,0,0,0,0,-1,1798,806,0,0
581,218,0,0,0,0,0,0,0,0,0,-1,1805,806,0,0
588,218,0,0,0,0,0,0,0,0,0,-1,1812,806,0,0
595,218,34.3788,2.82709,0.00585175,0.00437694,-0.00175663,0.00701948,0.00320921,-0.586677,0.00405765,0.0382911,1819,806,34.3788,-2.82706
602,218,34.3861,2.85242,0.00372975,0.00205126,-0.000325095,0.00379052,0.0019905,-0.184784,0.00218938,0.0356542,1826,806,34.3862,-2.85244
609,218,34.3103,2.90649,0.00171413,0.00086831,0.000708228,0.00211611,0.000466332,0.516242,0.00128384,0.0311138,1833,806,34.3103,-2.90646
616,218,34.2637,2.87482,-0.000405236,4.25686e-05,0.000791544,0.000641268,-0.00100394,0.923231,0.000957521,0.0328438,1840,806,34.2637,-2.87483
623,218,34.2427,2.84497,-0.00205076,-0.00049489,0.000567098,-0.000310129,-0.00223552,1.25584,0.00139848,0.0385058,1847,806,34.2427,-2.84494
630,218,34.2389,2.88934,-0.00297365,-0.000762206,0.000143105,-0.000752984,-0.00298287,1.50644,0.00179114,0.0399526,1854,806,34.2389,-2.88936
637,218,34.199,3.01709,-0.00371093,-0.000955241,-0.000182441,-0.000943215,-0.00372296,-1.50497,0.00223493,0.0421398,1861,806,34.199,-3.01706
644,218,33.9961,3.51221,0,0,0,0,0,0,0,-1,1868,806,33.9961,-3.51224
651,218,27.0305,0.900757,0,0,0,0,0,0,0,-1,1875,806,27.0305,-0.900756
658,218,26.4427,1.15521,0,0,0,0,0,0,0,-1,1882,806,26.4427,-1.15524
665,218,25.8069,0.933105,-0.00403374,-0.00089089,-0.00151503,-0.000279494,-0.00464513,-1.18723,0.00300792,0.0441861,1889,806,25.8068,-0.933095
672,218,25.5848,1.19403,-0.0034422,-0.00102611,-0.00163047,-0.000204919,-0.00426339,-1.10423,0.00277647,0.0145511,1896,806,25.5848,-1.19404
679,218,25.5458,1.56873,-0.00290045,-0.00133933,-0.00172042,-0.000230674,-0.0040091,-0.998363,0.00259926,0.0116712,1903,806,25.5458,-1.56874
686,218,25.5465,1.9281,-0.00210487,-0.00093985,-0.0016346,0.000212932,-0.00325765,-0.956564,0.00224611,0.0117766,1910,806,25.5466,-1.92809
693,218,25.5253,2.30884,-0.000752254,-0.000239191,-0.0012648,0.000794827,-0.00178627,-0.885453,0.0015264,0.0119042,1917,806,25.5252,-2.30883
700,218,25.5032,2.68665,0.000686263,0.000282751,-0.000698587,0.00121164,-0.000242631,-0.644821,0.000899613,0.00942844,1924,806,25.5032,-2.68662
707,218,25.4865,3.07483,0.00228547,0.00147828,6.12627e-05,0.0022901,0.00147366,0.0753211,0.00134021,0.00785775,1931,806,25.4864,-3.0748
714,218,25.4911,3.46088,0.00416356,0.00297616,0.00109908,0.00481904,0.00232069,0.537761,0.00278291,0.0106847,1938,806,25.4911,-3.4609
721,218,25.5159,3.8194,0.0059985,0.00460459,0.00210552,0.00751942,0.00308367,0.625568,0.00436467,0.013263,1945,806,25.5158,-3.81938
728,218,25.5132,4.21912,0.00787355,0.00651709,0.00325936,0.0105245,0.00386614,0.682818,0.00614719,0.0211682,1952,806,25.5131,-4.21915
735,218,25.5905,4.98224,0.00994079,0.00894019,0.00469893,0.014166,0.004715,0.732363,0.00832969,0.0380028,1959,806,25.5905,-4.98223
742,218,25.6764,5.81616,0,0,0,0,0,0,0,-1,1966,806,25.6764,-5.81617
749,218,25.353,4.66492,0,0,0,0,0,0,0,-1,1973,806,25.3531,-4.66492
756,218,24.5326,4.67377,0,0,0,0,0,0,0,-1,1980,806,24.5326,-4.67374
763,218,25.7863,7.36359,0,0,0,0,0,0,0,-1,1987,806,25.7862,-7.36362
770,218,0,0,0,0,0,0,0,0,0,-1,1994,806,0,0
777,218,0,0,0,0,0,0,0,0,0,-1,2001,806,0,0
784,218,0,0,0,0,0,0,0,0,0,-1,2008,806,0,0
791,218,0,0,0,0,0,0,0,0,0,-1,2015,806,0,0
798,218,0,0,0,0,0,0,0,0,0,-1,2022,806,0,0
805,218,0,0,0,0,0,0,0,0,0,-1,2029,806,0,0
812,218,0,0,0,0,0,0,0,0,0,-1,2036,806,0,0
-700,211,0,0,0,0,0,0,0,0,0,-1,524,813,0,0
-693,211,0,0,0,0,0,0,0,0,0,-1,531,813,0,0
-686,211,0,0,0,0,0,0,0,0,0,-1,538,813,0,0
-679,211,0,0,0,0,0,0,0,0,0,-1,545,813,0,0
-672,211,0,0,0,0,0,0,0,0,0,-1,552,813,0,0
-665,211,0,0,0,0,0,0,0,0,0,-1,559,813,0,0
-658,211,0,0,0,0,0,0,0,0,0,-1,566,813,0,0
-651,211,-21.3234,0.902893,0,0,0,0,0,0,0,-1,573,813,-21.3234,-0.902913
-644,211,-20.699,0.709595,0,0,0,0,0,0,0,-1,580,813,-20.699,-0.709606
-637,211,-20.5129,0.652771,0,0,0,0,0,0,0,-1,587,813,-20.5129,-0.652755
-630,211,-17.6016,2.32758,0,0,0,0,0,0,0,-1,594,813,-17.6016,-2.32759
-623,211,-20.6038,3.33191,0,0,0,0,0,0,0,-1,601,813,-20.6038,-3.33194
-616,211,-17.642,2.15436,0,0,0,0,0,0,0,-1,608,813,-17.6419,-2.15433
-609,211,-17.5376,2.04089,0.012299,0.0191576,0.00164206,0.0195304,0.0119261,1.34751,0.0113675,0.0392588,615,813,-17.5376,-2.0409
-602,211,-17.4583,1.91223,0.0083014,0.0126203,0.00156798,0.0131295,0.00779219,1.25678,0.00762438,0.0203489,622,813,-17.4583,-1.91221
-595,211,-17.5085,1.59723,0.00535441,0.00796797,0.0013376,0.00853117,0.0047912,1.17227,0.00493792,0.0107335,629,813,-17.5085,-1.59724
-588,211,-17.5224,1.25531,0.00347747,0.00404088,0.00120522,0.00499688,0.00252147,0.900205,0.00288499,0.0107428,636,813,-17.5224,-1.25531
-581,211,-17.5414,0.894287,0.00196788,0.00171481,0.00108975,0.00293842,0.00074427,0.727602,0.001764,0.0116804,643,813,-17.5414,-0.894262
-574,211,-17.5536,0.506042,0.000720033,0.000355658,0.00105102,0.00160454,-0.000528851,0.699579,0.00128284,0.0128583,650,813,-17.5537,-0.506063
-567,211,-17.5644,0.1521,9.38886e-05,0.000217743,0.0013235,0.00148077,-0.00116914,0.808776,0.00153345,0.0194043,657,813,-17.5644,-0.152121
-560,211,-17.5428,-0.19397,-0.000903839,0.00106057,0.00196961,0.0022793,-0.00212257,1.01669,0.00254196,0.0229505,664,813,-17.5429,0.193983
-553,211,-17.482,-0.550415,-0.00343734,0.00218575,0.0026622,0.00324617,-0.00449776,1.19174,0.00449038,0.0233849,671,813,-17.482,0.550406
-546,211,-17.7187,-0.791016,-0.00742815,0.00335919,0.00333658,0.0043078,-0.00837675,1.2938,0.00744796,0.0327167,678,813,-17.7187,0.791018
-539,211,-17.6347,-1.22882,-0.0101045,0.00431605,0.00363383,0.00517998,-0.0109684,1.33738,0.00952086,0.0240575,685,813,-17.6347,1.2288
-532,211,-17.467,-1.8194,0,0,0,0,0,0,0,-1,692,813,-17.467,1.81941
-525,211,-14.3009,2.3233,0,0,0,0,0,0,0,-1,699,813,-14.3009,-2.3233
-518,211,-23.8833,2.21259,0,0,0,0,0,0,0,-1,706,813,-23.8833,-2.21256
-511,211,-23.8195,2.07227,-0.0194761,0.00819706,0.00479742,0.00900514,-0.0202842,1.40392,0.0173231,0.042189,713,813,-23.8195,-2.07229
-504,211,-24.3077,1.61755,-0.0212713,0.00887581,0.0045838,0.00955736,-0.0219528,1.42319,0.0186557,0.0434051,720,813,-24.3077,-1.61753
-497,211,-24.7211,1.06482,-0.0214349,0.0092047,0.00382717,0.00967551,-0.0219057,1.44839,0.0186836,0.0446026,727,813,-24.7211,-1.06483
-490,211,-24.9073,0.810303,-0.0183008,0.00937284,0.00224926,0.00955446,-0.0184824,1.49022,0.0164584,0.0346141,734,813,-24.9074,-0.810305
-483,211,-24.9553,0.91272,-0.00986041,0.00939347,-0.000580127,0.00941094,-0.00987787,-1.5407,0.0111375,0.0331104,741,813,-24.9553,-0.912708
-476,211,-24.9265,1.04492,0.00492702,0.00945462,-0.00459718,0.0123152,0.00206648,-1.01419,0.00761532,0.0374665,748,813,-24.9264,-1.04492
-469,211,0,0,0,0,0,0,0,0,0,-1,755,813,0,0
-462,211,0,0,0,0,0,0,0,0,0,-1,762,813,0,0
-455,211,0,0,0,0,0,0,0,0,0,-1,769,813,0,0
-448,211,0,0,0,0,0,0,0,0,0,-1,776,813,0,0
-441,211,0,0,0,0,0,0,0,0,0,-1,783,813,0,0
-434,211,0,0,0,0,0,0,0,0,0,-1,790,813,0,0
-427,211,0,0,0,0,0,0,0,0,0,-1,797,813,0,0
-420,211,0,0,0,0,0,0,0,0,0,-1,804,813,0,0
-413,211,0,0,0,0,0,0,0,0,0,-1,811,813,0,0
-406,211,0,0,0,0,0,0,0,0,0,-1,818,813,0,0
-399,211,0,0,0,0,0,0,0,0,0,-1,825,813,0,0
-392,211,0,0,0,0,0,0,0,0,0,-1,832,813,0,0
-385,211,0,0,0,0,0,0,0,0,0,-1,839,813,0,0
-378,211,0,0,0,0,0,0,0,0,0,-1,846,813,0,0
-371,211,0,0,0,0,0,0,0,0,0,-1,853,813,0,0
-364,211,0,0,0,0,0,0,0,0,0,-1,860,813,0,0
-357,211,0,0,0,0,0,0,0,0,0,-1,867,813,0,0
-350,211,0,0,0,0,0,0,0,0,0,-1,874,813,0,0
-343,211,0,0,0,0,0,0,0,0,0,-1,881,813,0,0
-336,211,0,0,0,0,0,0,0,0,0,-1,888,813,0,0
-329,211,0,0,0,0,0,0,0,0,0,-1,895,813,0,0
-322,211,0,0,0,0,0,0,0,0,0,-1,902,813,0,0
-315,211,0,0,0,0,0,0,0,0,0,-1,909,813,0,0
-308,211,0,0,0,0,0,0,0,0,0,-1,916,813,0,0
-301,211,0,0,0,0,0,0,0,0,0,-1,923,813,0,0
-294,211,0,0,0,0,0,0,0,0,0,-1,930,813,0,0
-287,211,0,0,0,0,0,0,0,0,0,-1,937,813,0,0
-280,211,0,0,0,0,0,0,0,0,0,-1,944,813,0,0
-273,211,0,0,0,0,0,0,0,0,0,-1,951,813,0,0
-266,211,0,0,0,0,0,0,0,0,0,-1,958,813,0,0
-259,211,0,0,0,0,0,0,0,0,0,-1,965,813,0,0
-252,211,0,0,0,0,0,0,0,0,0,-1,972,813,0,0
-245,211,0,0,0,0,0,0,0,0,0,-1,979,813,0,0
-238,211,0,0,0,0,0,0,0,0,0,-1,986,813,0,0
-231,211,0,0,0,0,0,0,0,0,0,-1,993,813,0,0
-224,211,0,0,0,0,0,0,0,0,0,-1,1000,813,0,0
-217,211,0,0,0,0,0,0,0,0,0,-1,1007,813,0,0
-210,211,0,0,0,0,0,0,0,0,0,-1,1014,813,0,0
-203,211,0,0,0,0,0,0,0,0,0,-1,1021,813,0,0
-196,211,0,0,0,0,0,0,0,0,0,-1,1028,813,0,0
-189,211,0,0,0,0,0,0,0,0,0,-1,1035,813,0,0
-182,211,0,0,0,0,0,0,0,0,0,-1,1042,813,0,0
-175,211,0,0,0,0,0,0,0,0,0,-1,1049,813,0,0
-168,211,0,0,0,0,0,0,0,0,0,-1,1056,813,0,0
-161,211,0,0,0,0,0,0,0,0,0,-1,1063,813,0,0
-154,211,0,0,0,0,0,0,0,0,0,-1,1070,813,0,0
-147,211,0,0,0,0,0,0,0,0,0,-1,1077,813,0,0
-140,211,0,0,0,0,0,0,0,0,0,-1,1084,813,0,0
-133,211,0,0,0,0,0,0,0,0,0,-1,1091,813,0,0
-126,211,0,0,0,0,0,0,0,0,0,-1,1098,813,0,0
-119,211,0,0,0,0,0,0,0,0,0,-1,1105,813,0,0
-112,211,0,0,0,0,0,0,0,0,0,-1,1112,813,0,0
-105,211,0,0,0,0,0,0,0,0,0,-1,1119,813,0,0
-98,211,0,0,0,0,0,0,0,0,0,-1,1126,813,0,0
-91,211,0,0,0,0,0,0,0,0,0,-1,1133,813,0,0
-84,211,0,0,0,0,0,0,0,0,0,-1,1140,813,0,0
-77,211,0,0,0,0,0,0,0,0,0,-1,1147,813,0,0
-70,211,0,0,0,0,0,0,0,0,0,-1,1154,813,0,0
-63,211,0,0,0,0,0,0,0,0,0,-1,1161,813,0,0
-56,211,0,0,0,0,0,0,0,0,0,-1,1168,813,0,0
-49,211,0,0,0,0,0,0,0,0,0,-1,1175,813,0,0
-42,211,0,0,0,0,0,0,0,0,0,-1,1182,813,0,0
-35,211,0,0,0,0,0,0,0,0,0,-1,1189,813,0,0
-28,211,0,0,0,0,0,0,0,0,0,-1,1196,813,0,0
-21,211,0,0,0,0,0,0,0,0,0,-1,1203,813,0,0
-14,211,0,0,0,0,0,0,0,0,0,-1,1210,813,0,0
-7,211,0,0,0,0,0,0,0,0,0,-1,1217,813,0,0
0,211,0,0,0,0,0,0,0,0,0,-1,1224,813,0,0
7,211,0,0,0,0,0,0,0,0,0,-1,1231,813,0,0
14,211,0,0,0,0,0,0,0,0,0,-1,1238,813,0,0
21,211,0,0,0,0,0,0,0,0,0,-1,1245,813,0,0
28,211,0,0,0,0,0,0,0,0,0,-1,1252,813,0,0
35,211,0,0,0,0,0,0,0,0,0,-1,1259,813,0,0
42,211,0,0,0,0,0,0,0,0,0,-1,1266,813,0,0
49,211,0,0,0,0,0,0,0,0,0,-1,1273,813,0,0
56,211,0,0,0,0,0,0,0,0,0,-1,1280,813,0,0
63,211,0,0,0,0,0,0,0,0,0,-1,1287,813,0,0
70,211,0,0,0,0,0,0,0,0,0,-1,1294,813,0,0
77,211,0,0,0,0,0,0,0,0,0,-1,1301,813,0,0
84,211,0,0,0,0,0,0,0,0,0,-1,1308,813,0,0
91,211,0,0,0,0,0,0,0,0,0,-1,1315,813,0,0
98,211,0,0,0,0,0,0,0,0,0,-1,1322,813,0,0
105,211,0,0,0,0,0,0,0,0,0,-1,1329,813,0,0
112,211,0,0,0,0,0,0,0,0,0,-1,1336,813,0,0
119,211,0,0,0,0,0,0,0,0,0,-1,1343,813,0,0
126,211,0,0,0,0,0,0,0,0,0,-1,1350,813,0,0
133,211,0,0,0,0,0,0,0,0,0,-1,1357,813,0,0
140,211,0,0,0,0,0,0,0,0,0,-1,1364,813,0,0
147,211,0,0,0,0,0,0,0,0,0,-1,1371,813,0,0
154,211,0,0,0,0,0,0,0,0,0,-1,1378,813,0,0
161,211,0,0,0,0,0,0,0,0,0,-1,1385,813,0,0
168,211,0,0,0,0,0,0,0,0,0,-1,1392,813,0,0
175,211,0,0,0,0,0,0,0,0,0,-1,1399,813,0,0
182,211,0,0,0,0,0,0,0,0,0,-1,1406,813,0,0
189,211,0,0,0,0,0,0,0,0,0,-1,1413,813,0,0
196,211,0,0,0,0,0,0,0,0,0,-1,1420,813,0,0
203,211,0,0,0,0,0,0,0,0,0,-1,1427,813,0,0
210,211,0,0,0,0,0,0,0,0,0,-1,1434,813,0,0
217,211,0,0,0,0,0,0,0,0,0,-1,1441,813,0,0
224,211,0,0,0,0,0,0,0,0,0,-1,1448,813,0,0
231,211,0,0,0,0,0,0,0,0,0,-1,1455,813,0,0
238,211,0,0,0,0,0,0,0,0,0,-1,1462,813,0,0
245,211,0,0,0,0,0,0,0,0,0,-1,1469,813,0,0
252,211,0,0,0,0,0,0,0,0,0,-1,1476,813,0,0
259,211,0,0,0,0,0,0,0,0,0,-1,1483,813,0,0
266,211,0,0,0,0,0,0,0,0,0,-1,1490,813,0,0
273,211,0,0,0,0,0,0,0,0,0,-1,1497,813,0,0
280,211,0,0,0,0,0,0,0,0,0,-1,1504,813,0,0
287,211,0,0,0,0,0,0,0,0,0,-1,1511,813,0,0
294,211,0,0,0,0,0,0,0,0,0,-1,1518,813,0,0
301,211,0,0,0,0,0,0,0,0,0,-1,1525,813,0,0
308,211,0,0,0,0,0,0,0,0,0,-1,1532,813,0,0
315,211,0,0,0,0,0,0,0,0,0,-1,1539,813,0,0
322,211,0,0,0,0,0,0,0,0,0,-1,1546,813,0,0
329,211,0,0,0,0,0,0,0,0,0,-1,1553,813,0,0
336,211,0,0,0,0,0,0,0,0,0,-1,1560,813,0,0
343,211,0,0,0,0,0,0,0,0,0,-1,1567,813,0,0
350,211,0,0,0,0,0,0,0,0,0,-1,1574,813,0,0
357,211,0,0,0,0,0,0,0,0,0,-1,1581,813,0,0
364,211,0,0,0,0,0,0,0,0,0,-1,1588,813,0,0
371,211,0,0,0,0,0,0,0,0,0,-1,1595,813,0,0
378,211,0,0,0,0,0,0,0,0,0,-1,1602,813,0,0
385,211,0,0,0,0,0,0,0,0,0,-1,1609,813,0,0
392,211,0,0,0,0,0,0,0,0,0,-1,1616,813,0,0
399,211,0,0,0,0,0,0,0,0,0,-1,1623,813,0,0
406,211,0,0,0,0,0,0,0,0,0,-1,1630,813,0,0
413,211,0,0,0,0,0,0,0,0,0,-1,1637,813,0,0
420,211,0,0,0,0,0,0,0,0,0,-1,1644,813,0,0
427,211,0,0,0,0,0,0,0,0,0,-1,1651,813,0,0
434,211,0,0,0,0,0,0,0,0,0,-1,1658,813,0,0
441,211,0,0,0,0,0,0,0,0,0,-1,1665,813,0,0
448,211,0,0,0,0,0,0,0,0,0,-1,1672,813,0,0
455,211,0,0,0,0,0,0,0,0,0,-1,1679,813,0,0
462,211,0,0,0,0,0,0,0,0,0,-1,1686,813,0,0
469,211,0,0,0,0,0,0,0,0,0,-1,1693,813,0,0
476,211,0,0,0,0,0,0,0,0,0,-1,1700,813,0,0
483,211,0,0,0,0,0,0,0,0,0,-1,1707,813,0,0
490,211,0,0,0,0,0,0,0,0,0,-1,1714,813,0,0
497,211,0,0,0,0,0,0,0,0,0,-1,1721,813,0,0
504,211,0,0,0,0,0,0,0,0,0,-1,1728,813,0,0
511,211,0,0,0,0,0,0,0,0,0,-1,1735,813,0,0
518,211,0,0,0,0,0,0,0,0,0,-1,1742,813,0,0
525,211,0,0,0,0,0,0,0,0,0,-1,1749,813,0,0
532,211,0,0,0,0,0,0,0,0,0,-1,1756,813,0,0
539,211,0,0,0,0,0,0,0,0,0,-1,1763,813,0,0
546,211,0,0,0,0,0,0,0,0,0,-1,1770,813,0,0
553,211,0,0,0,0,0,0,0,0,0,-1,1777,813,0,0
560,211,0,0,0,0,0,0,0,0,0,-1,1784,813,0,0
567,211,0,0,0,0,0,0,0,0,0,-1,1791,813,0,0
574,211,0,0,0,0,0,0,0,0,0,-1,1798,813,0,0
581,211,0,0,0,0,0,0,0,0,0,-1,1805,813,0,0
588,211,0,0,0,0,0,0,0,0,0,-1,1812,813,0,0
595,211,34.416,2.74982,0.00268858,0.00347022,-0.00289838,0.00600401,0.000154788,-0.852414,0.00395209,0.0381597,1819,813,34.4161,-2.74985
602,211,34.3519,2.72864,0.00186176,0.00194627,-0.0012297,0.00313445,0.000673588,-0.802574,0.00190521,0.0373962,1826,813,34.3519,-2.72861
609,211,34.3263,2.94379,0.00109561,0.0014665,0.000404093,0.00172566,0.000836439,1.00052,0.000996468,0.0383724,1833,813,34.3263,-2.9438
616,211,34.3182,2.89893,-0.000230404,0.000974908,0.000877768,0.00143699,-0.000692488,1.08623,0.00125425,0.0331317,1840,813,34.3182,-2.89892
623,211,34.2678,2.86774,-0.00154597,0.000612303,0.000822718,0.000890148,-0.00182382,1.24511,0.00159752,0.034616,1847,813,34.2679,-2.86775
630,211,34.1859,2.92218,-0.00240807,0.000373184,0.000501897,0.000460983,-0.00249587,1.39761,0.00183696,0.037729,1854,813,34.1859,-2.92219
637,211,34.1699,3.01349,-0.0030678,0.000140139,0.000170897,0.000149218,-0.00307688,1.51772,0.00210276,0.0398121,1861,813,34.1699,-3.01348
644,211,34.0128,3.17419,-0.00358166,-0.000166201,-0.000135916,-0.000160801,-0.00358706,-1.53109,0.00233962,0.0410944,1868,813,34.0128,-3.17422
651,211,33.7125,3.31018,0,0,0,0,0,0,0,-1,1875,813,33.7125,-3.31018
658,211,27.7909,1.52234,0,0,0,0,0,0,0,-1,1882,813,27.7909,-1.52234
665,211,26.1019,1.04828,0,0,0,0,0,0,0,-1,1889,813,26.1019,-1.04831
672,211,25.9629,1.26062,-0.00312966,-0.000504093,-0.00131232,3.93508e-05,-0.00367311,-1.17819,0.00246196,0.0276384,1896,813,25.9629,-1.2606
679,211,25.9412,1.56036,-0.00283494,-0.000925746,-0.00149372,-0.000107645,-0.00365304,-1.06973,0.00240028,0.0145546,1903,813,25.9411,-1.56034
686,211,25.9113,1.94873,-0.0024285,-0.000778722,-0.00161913,0.000213539,-0.00342076,-1.02099,0.00235492,0.0113213,1910,813,25.9112,-1.94872
693,211,25.9094,2.31494,-0.00143095,-0.000294913,-0.00143859,0.000683735,-0.0024096,-0.973425,0.00187631,0.0120586,1917,813,25.9094,-2.31495
700,211,25.8551,2.67096,-0.000360079,2.11328e-05,-0.00105264,0.000900283,-0.00123923,-0.874965,0.0012404,0.0144267,1924,813,25.8551,-2.67096
707,211,25.8676,3.0799,0.00075895,0.00104889,-0.000485917,0.001411,0.000396839,-0.930366,0.000840229,0.020526,1931,813,25.8676,-3.07987
714,211,25.8911,3.46973,0.00213521,0.00247316,0.000392926,0.00273191,0.00187647,0.988464,0.00161357,0.0221527,1938,813,25.8912,-3.46976
721,211,25.8928,3.79956,0.00347437,0.00404088,0.00120396,0.00499446,0.0025208,0.900932,0.00288359,0.0160436,1945,813,25.8928,-3.79958
728,211,25.9034,4.16962,0.0047672,0.00582603,0.00207611,0.00743916,0.00315407,0.910239,0.00431152,0.015186,1952,813,25.9034,-4.16965
735,211,25.9128,4.59839,0.00614538,0.00799452,0.00311545,0.0103197,0.0038202,0.929643,0.00602464,0.0248281,1959,813,25.9129,-4.59838
742,211,26.2649,5.1582,0.007708,0.0106793,0.00442689,0.0138632,0.00452413,0.947293,0.00816326,0.0458767,1966,813,26.2649,-5.1582
749,211,25.7532,5.22949,0,0,0,0,0,0,0,-1,1973,813,25.7532,-5.2295
756,211,25.0944,4.94055,0,0,0,0,0,0,0,-1,1980,813,25.0943,-4.94053
763,211,25.6447,7.14771,0,0,0,0,0,0,0,-1,1987,813,25.6447,-7.14772
770,211,25.7712,7.711,0,0,0,0,0,0,0,-1,1994,813,25.7713,-7.71098
777,211,0,0,0,0,0,0,0,0,0,-1,2001,813,0,0
784,211,0,0,0,0,0,0,0,0,0,-1,2008,813,0,0
791,211,0,0,0,0,0,0,0,0,0,-1,2015,813,0,0
798,211,0,0,0,0,0,0,0,0,0,-1,2022,813,0,0
805,211,0,0,0,0,0,0,0,0,0,-1,2029,813,0,0
812,211,0,0,0,0,0,0,0,0,0,-1,2036,813,0,0
-700,204,0,0,0,0,0,0,0,0,0,-1,524,820,0,0
-693,204,0,0,0,0,0,0,0,0,0,-1,531,820,0,0
-686,204,0,0,0,0,0,0,0,0,0,-1,538,820,0,0
-679,204,0,0,0,0,0,0,0,0,0,-1,545,820,0,0
-672,204,0,0,0,0,0,0,0,0,0,-1,552,820,0,0
-665,204,0,0,0,0,0,0,0,0,0,-1,559,820,0,0
-658,204,0,0,0,0,0,0,0,0,0,-1,566,820,0,0
-651,204,-18.8838,4.62665,0,0,0,0,0,0,0,-1,573,820,-18.8838,-4.62668
-644,204,-19.796,1.23975,0,0,0,0,0,0,0,-1,580,820,-19.796,-1.23975
-637,204,-16.4373,2.69604,0,0,0,0,0,0,0,-1,587,820,-16.4373,-2.69605
-630,204,-17.1334,2.81,0,0,0,0,0,0,0,-1,594,820,-17.1334,-2.80999
-623,204,-17.0313,2.62512,0,0,0,0,0,0,0,-1,601,820,-17.0313,-2.62513
-616,204,-17.8335,2.17328,0,0,0,0,0,0,0,-1,608,820,-17.8335,-2.17327
-609,204,-17.8048,2.08795,0.00283322,0.015651,0.00344,0.0165159,0.00196836,1.32449,0.0104167,0.0346875,615,820,-17.8048,-2.08797
-602,204,-17.8154,1.94403,0.00161315,0.0102612,0.00301757,0.0112101,0.000664332,1.26615,0.00726206,0.0155131,622,820,-17.8154,-1.94405
-595,204,-17.8627,1.58508,0.000837414,0.00640125,0.00241296,0.00730192,-6.32517e-05,1.21355,0.00488917,0.0146824,629,820,-17.8627,-1.58507
-588,204,-17.8857,1.23328,0.000568654,0.00287206,0.00194786,0.00398323,-0.00054251,1.05239,0.00285356,0.0116669,636,820,-17.8857,-1.2333
-581,204,-17.9002,0.875549,0.000273058,0.000838024,0.00155399,0.00213499,-0.00102391,0.875306,0.00186102,0.0122199,643,820,-17.9002,-0.875572
-574,204,-17.9047,0.521179,-9.56849e-05,-0.000221295,0.00128333,0.00112637,-0.00144335,0.760948,0.00148739,0.0136475,650,820,-17.9047,-0.521176
-567,204,-17.8884,0.180969,-8.92524e-05,1.26414e-05,0.0014028,0.00136542,-0.00144203,0.803549,0.00162108,0.013736,657,820,-17.8884,-0.180984
-560,204,-17.8927,-0.185913,-0.000708083,0.00108229,0.00196687,0.0023481,-0.0019739,0.998956,0.00249842,0.0142302,664,820,-17.8927,0.185895
-553,204,-17.9205,-0.491394,-0.00283644,0.00224654,0.00266345,0.00338651,-0.00397642,1.16638,0.00425553,0.0150147,671,820,-17.9205,0.491372
-546,204,-17.9681,-0.763916,-0.00603724,0.00360992,0.00318698,0.00456767,-0.00699499,1.27886,0.00672456,0.0220009,678,820,-17.9681,0.763941
-539,204,-17.8921,-1.16602,-0.00812795,0.00462264,0.00340272,0.00547388,-0.00897919,1.32566,0.00842589,0.0395944,685,820,-17.8921,1.16604
-532,204,-17.764,-1.71027,0,0,0,0,0,0,0,-1,692,820,-17.764,1.71028
-525,204,-24.2239,1.68866,0,0,0,0,0,0,0,-1,699,820,-24.2239,-1.68865
-518,204,-24.2112,1.72528,-0.0140326,0.00807564,0.00450359,0.00895785,-0.0149148,1.37736,0.0139252,0.0485297,706,820,-24.2112,-1.72529
-511,204,-24.1957,1.67004,-0.0162504,0.00918893,0.00451744,0.00996731,-0.0170288,1.40017,0.0157629,0.0465161,713,820,-24.1957,-1.67002
-504,204,-24.5473,1.3269,-0.0177182,0.0100504,0.0042283,0.0106799,-0.0183478,1.42299,0.0169529,0.0450344,720,820,-24.5473,-1.32692
-497,204,-24.8552,0.952271,-0.0174464,0.010428,0.00330445,0.0108144,-0.0178327,1.4544,0.0167041,0.0379916,727,820,-24.8552,-0.952294
-490,204,-24.9875,0.682617,-0.0133822,0.0103813,0.00144343,0.0104686,-0.0134695,1.51035,0.0138568,0.0346656,734,820,-24.9875,-0.682643
-483,204,-25.0204,0.808289,-0.00318226,0.00970832,-0.001762,0.00994483,-0.00341877,-1.43737,0.00801628,0.0393002,741,820,-25.0204,-0.808311
-476,204,0,0,0,0,0,0,0,0,0,-1,748,820,0,0
-469,204,0,0,0,0,0,0,0,0,0,-1,755,820,0,0
-462,204,0,0,0,0,0,0,0,0,0,-1,762,820,0,0
-455,204,0,0,0,0,0,0,0,0,0,-1,769,820,0,0
-448,204,0,0,0,0,0,0,0,0,0,-1,776,820,0,0
-441,204,0,0,0,0,0,0,0,0,0,-1,783,820,0,0
-434,204,0,0,0,0,0,0,0,0,0,-1,790,820,0,0
-427,204,0,0,0,0,0,0,0,0,0,-1,797,820,0,0
-420,204,0,0,0,0,0,0,0,0,0,-1,804,820,0,0
-413,204,0,0,0,0,0,0,0,0,0,-1,811,820,0,0
-406,204,0,0,0,0,0,0,0,0,0,-1,818,820,0,0
-399,204,0,0,0,0,0,0,0,0,0,-1,825,820,0,0
-392,204,0,0,0,0,0,0,0,0,0,-1,832,820,0,0
-385,204,0,0,0,0,0,0,0,0,0,-1,839,820,0,0
-378,204,0,0,0,0,0,0,0,0,0,-1,846,820,0,0
-371,204,0,0,0,0,0,0,0,0,0,-1,853,820,0,0
-364,204,0,0,0,0,0,0,0,0,0,-1,860,820,0,0
-357,204,0,0,0,0,0,0,0,0,0,-1,867,820,0,0
-350,204,0,0,0,0,0,0,0,0,0,-1,874,820,0,0
-343,204,0,0,0,0,0,0,0,0,0,-1,881,820,0,0
-336,204,0,0,0,0,0,0,0,0,0,-1,888,820,0,0
-329,204,0,0,0,0,0,0,0,0,0,-1,895,820,0,0
-322,204,0,0,0,0,0,0,0,0,0,-1,902,820,0,0
-315,204,0,0,0,0,0,0,0,0,0,-1,909,820,0,0
-308,204,0,0,0,0,0,0,0,0,0,-1,916,820,0,0
-301,204,0,0,0,0,0,0,0,0,0,-1,923,820,0,0
-294,204,0,0,0,0,0,0,0,0,0,-1,930,820,0,0
-287,204,0,0,0,0,0,0,0,0,0,-1,937,820,0,0
-280,204,0,0,0,0,0,0,0,0,0,-1,944,820,0,0
-273,204,0,0,0,0,0,0,0,0,0,-1,951,820,0,0
-266,204,0,0,0,0,0,0,0,0,0,-1,958,820,0,0
-259,204,0,0,0,0,0,0,0,0,0,-1,965,820,0,0
-252,204,0,0,0,0,0,0,0,0,0,-1,972,820,0,0
-245,204,0,0,0,0,0,0,0,0,0,-1,979,820,0,0
-238,204,0,0,0,0,0,0,0,0,0,-1,986,820,0,0
-231,204,0,0,0,0,0,0,0,0,0,-1,993,820,0,0
-224,204,0,0,0,0,0,0,0,0,0,-1,1000,820,0,0
-217,204,0,0,0,0,0,0,0,0,0,-1,1007,820,0,0
-210,204,0,0,0,0,0,0,0,0,0,-1,1014,820,0,0
-203,204,0,0,0,0,0,0,0,0,0,-1,1021,820,0,0
-196,204,0,0,0,0,0,0,0,0,0,-1,1028,820,0,0
-189,204,0,0,0,0,0,0,0,0,0,-1,1035,820,0,0
-182,204,0,0,0,0,0,0,0,0,0,-1,1042,820,0,0
-175,204,0,0,0,0,0,0,0,0,0,-1,1049,820,0,0
-168,204,0,0,0,0,0,0,0,0,0,-1,1056,820,0,0
-161,204,0,0,0,0,0,0,0,0,0,-1,1063,820,0,0
-154,204,0,0,0,0,0,0,0,0,0,-1,1070,820,0,0
-147,204,0,0,0,0,0,0,0,0,0,-1,1077,820,0,0
-140,204,0,0,0,0,0,0,0,0,0,-1,1084,820,0,0
-133,204,0,0,0,0,0,0,0,0,0,-1,1091,820,0,0
-126,204,0,0,0,0,0,0,0,0,0,-1,1098,820,0,0
-119,204,0,0,0,0,0,0,0,0,0,-1,1105,820,0,0
-112,204,0,0,0,0,0,0,0,0,0,-1,1112,820,0,0
-105,204,0,0,0,0,0,0,0,0,0,-1,1119,820,0,0
-98,204,0,0,0,0,0,0,0,0,0,-1,1126,820,0,0
-91,204,0,0,0,0,0,0,0,0,0,-1,1133,820,0,0
-84,204,0,0,0,0,0,0,0,0,0,-1,1140,820,0,0
-77,204,0,0,0,0,0,0,0,0,0,-1,1147,820,0,0
-70,204,0,0,0,0,0,0,0,0,0,-1,1154,820,0,0
-63,204,0,0,0,0,0,0,0,0,0,-1,1161,820,0,0
-56,204,0,0,0,0,0,0,0,0,0,-1,1168,820,0,0
-49,204,0,0,0,0,0,0,0,0,0,-1,1175,820,0,0
-42,204,0,0,0,0,0,0,0,0,0,-1,1182,820,0,0
-35,204,0,0,0,0,0,0,0,0,0,-1,1189,820,0,0
-28,204,0,0,0,0,0,0,0,0,0,-1,1196,820,0,0
-21,204,0,0,0,0,0,0,0,0,0,-1,1203,820,0,0
-14,204,0,0,0,0,0,0,0,0,0,-1,1210,820,0,0
-7,204,0,0,0,0,0,0,0,0,0,-1,1217,820,0,0
0,204,0,0,0,0,0,0,0,0,0,-1,1224,820,0,0
7,204,0,0,0,0,0,0,0,0,0,-1,1231,820,0,0
14,204,0,0,0,0,0,0,0,0,0,-1,1238,820,0,0
21,204,0,0,0,0,0,0,0,0,0,-1,1245,820,0,0
28,204,0,0,0,0,0,0,0,0,0,-1,1252,820,0,0
35,204,0,0,0,0,0,0,0,0,0,-1,1259,820,0,0
42,204,0,0,0,0,0,0,0,0,0,-1,1266,820,0,0
49,204,0,0,0,0,0,0,0,0,0,-1,1273,820,0,0
56,204,0,0,0,0,0,0,0,0,0,-1,1280,820,0,0
63,204,0,0,0,0,0,0,0,0,0,-1,1287,820,0,0
70,204,0,0,0,0,0,0,0,0,0,-1,1294,820,0,0
77,204,0,0,0,0,0,0,0,0,0,-1,1301,820,0,0
84,204,0,0,0,0,0,0,0,0,0,-1,1308,820,0,0
91,204,0,0,0,0,0,0,0,0,0,-1,1315,820,0,0
98,204,0,0,0,0,0,0,0,0,0,-1,1322,820,0,0
105,204,0,0,0,0,0,0,0,0,0,-1,1329,820,0,0
112,204,0,0,0,0,0,0,0,0,0,-1,1336,820,0,0
119,204,0,0,0,0,0,0,0,0,0,-1,1343,820,0,0
126,204,0,0,0,0,0,0,0,0,0,-1,1350,820,0,0
133,204,0,0,0,0,0,0,0,0,0,-1,1357,820,0,0
140,204,0,0,0,0,0,0,0,0,0,-1,1364,820,0,0
147,204,0,0,0,0,0,0,0,0,0,-1,1371,820,0,0
154,204,0,0,0,0,0,0,0,0,0,-1,1378,820,0,0
161,204,0,0,0,0,0,0,0,0,0,-1,1385,820,0,0
168,204,0,0,0,0,0,0,0,0,0,-1,1392,820,0,0
175,204,0,0,0,0,0,0,0,0,0,-1,1399,820,0,0
182,204,0,0,0,0,0,0,0,0,0,-1,1406,820,0,0
189,204,0,0,0,0,0,0,0,0,0,-1,1413,820,0,0
196,204,0,0,0,0,0,0,0,0,0,-1,1420,820,0,0
203,204,0,0,0,0,0,0,0,0,0,-1,1427,820,0,0
210,204,0,0,0,0,0,0,0,0,0,-1,1434,820,0,0
217,204,0,0,0,0,0,0,0,0,0,-1,1441,820,0,0
224,204,0,0,0,0,0,0,0,0,0,-1,1448,820,0,0
231,204,0,0,0,0,0,0,0,0,0,-1,1455,820,0,0
238,204,0,0,0,0,0,0,0,0,0,-1,1462,820,0,0
245,204,0,0,0,0,0,0,0,0,0,-1,1469,820,0,0
252,204,0,0,0,0,0,0,0,0,0,-1,1476,820,0,0
259,204,0,0,0,0,0,0,0,0,0,-1,1483,820,0,0
266,204,0,0,0,0,0,0,0,0,0,-1,1490,820,0,0
273,204,0,0,0,0,0,0,0,0,0,-1,1497,820,0,0
280,204,0,0,0,0,0,0,0,0,0,-1,1504,820,0,0
287,204,0,0,0,0,0,0,0,0,0,-1,1511,820,0,0
294,204,0,0,0,0,0,0,0,0,0,-1,1518,820,0,0
301,204,0,0,0,0,0,0,0,0,0,-1,1525,820,0,0
308,204,0,0,0,0,0,0,0,0,0,-1,1532,820,0,0
315,204,0,0,0,0,0,0,0,0,0,-1,1539,820,0,0
322,204,0,0,0,0,0,0,0,0,0,-1,1546,820,0,0
329,204,0,0,0,0,0,0,0,0,0,-1,1553,820,0,0
336,204,0,0,0,0,0,0,0,0,0,-1,1560,820,0,0
343,204,0,0,0,0,0,0,0,0,0,-1,1567,820,0,0
350,204,0,0,0,0,0,0,0,0,0,-1,1574,820,0,0
357,204,0,0,0,0,0,0,0,0,0,-1,1581,820,0,0
364,204,0,0,0,0,0,0,0,0,0,-1,1588,820,0,0
371,204,0,0,0,0,0,0,0,0,0,-1,1595,820,0,0
378,204,0,0,0,0,0,0,0,0,0,-1,1602,820,0,0
385,204,0,0,0,0,0,0,0,0,0,-1,1609,820,0,0
392,204,0,0,0,0,0,0,0,0,0,-1,1616,820,0,0
399,204,0,0,0,0,0,0,0,0,0,-1,1623,820,0,0
406,204,0,0,0,0,0,0,0,0,0,-1,1630,820,0,0
413,204,0,0,0,0,0,0,0,0,0,-1,1637,820,0,0
420,204,0,0,0,0,0,0,0,0,0,-1,1644,820,0,0
427,204,0,0,0,0,0,0,0,0,0,-1,1651,820,0,0
434,204,0,0,0,0,0,0,0,0,0,-1,1658,820,0,0
441,204,0,0,0,0,0,0,0,0,0,-1,1665,820,0,0
448,204,0,0,0,0,0,0,0,0,0,-1,1672,820,0,0
455,204,0,0,0,0,0,0,0,0,0,-1,1679,820,0,0
462,204,0,0,0,0,0,0,0,0,0,-1,1686,820,0,0
469,204,0,0,0,0,0,0,0,0,0,-1,1693,820,0,0
476,204,0,0,0,0,0,0,0,0,0,-1,1700,820,0,0
483,204,0,0,0,0,0,0,0,0,0,-1,1707,820,0,0
490,204,0,0,0,0,0,0,0,0,0,-1,1714,820,0,0
497,204,0,0,0,0,0,0,0,0,0,-1,1721,820,0,0
504,204,0,0,0,0,0,0,0,0,0,-1,1728,820,0,0
511,204,0,0,0,0,0,0,0,0,0,-1,1735,820,0,0
518,204,0,0,0,0,0,0,0,0,0,-1,1742,820,0,0
525,204,0,0,0,0,0,0,0,0,0,-1,1749,820,0,0
532,204,0,0,0,0,0,0,0,0,0,-1,1756,820,0,0
539,204,0,0,0,0,0,0,0,0,0,-1,1763,820,0,0
546,204,0,0,0,0,0,0,0,0,0,-1,1770,820,0,0
553,204,0,0,0,0,0,0,0,0,0,-1,1777,820,0,0
560,204,0,0,0,0,0,0,0,0,0,-1,1784,820,0,0
567,204,0,0,0,0,0,0,0,0,0,-1,1791,820,0,0
574,204,0,0,0,0,0,0,0,0,0,-1,1798,820,0,0
581,204,0,0,0,0,0,0,0,0,0,-1,1805,820,0,0
588,204,0,0,0,0,0,0,0,0,0,-1,1812,820,0,0
595,204,0,0,0,0,0,0,0,0,0,-1,1819,820,0,0
602,204,34.3507,2.75165,0.000382569,0.00144718,-0.00222282,0.00320055,-0.00137079,-0.902922,0.00270882,0.0378787,1826,820,34.3507,-2.75167
609,204,34.3506,2.90692,7.1897e-05,0.00162232,-0.000203986,0.00164871,4.55083e-05,-1.44215,0.00108429,0.0416364,1833,820,34.3506,-2.90691
616,204,34.3533,2.85889,-0.000767895,0.00151662,0.000594777,0.00166219,-0.00091347,1.33076,0.00150786,0.0401081,1840,820,34.3533,-2.85886
623,204,34.2772,2.86005,-0.00180209,0.0013112,0.000730955,0.00147428,-0.00196516,1.35129,0.00199249,0.0291877,1847,820,34.2773,-2.86006
630,204,34.2561,2.87231,-0.00255578,0.00111609,0.000527793,0.00119044,-0.00263014,1.43083,0.00225741,0.0264394,1854,820,34.2561,-2.87229
637,204,34.2196,2.88892,-0.00306449,0.000849453,0.000228442,0.000862741,-0.00307778,1.51269,0.00239187,0.03215,1861,820,34.2196,-2.88892
644,204,34.1122,2.90356,-0.00336705,0.000468504,-7.23951e-05,0.00046987,-0.00336842,-1.55193,0.0024175,0.0407364,1868,820,34.1122,-2.90357
651,204,34.1083,3.18213,0,0,0,0,0,0,0,-1,1875,820,34.1083,-3.18211
658,204,33.2036,2.39185,0,0,0,0,0,0,0,-1,1882,820,33.2036,-2.39185
665,204,21.8292,1.51099,0,0,0,0,0,0,0,-1,1889,820,21.8292,-1.51099
672,204,26.245,1.19739,0,0,0,0,0,0,0,-1,1896,820,26.245,-1.19742
679,204,26.285,1.4248,-0.00254438,-0.000672143,-0.00130987,1.73401e-06,-0.00321826,-1.09565,0.00214608,0.0318086,1903,820,26.285,-1.42478
686,204,26.2875,1.95044,-0.00230507,-0.00063187,-0.00151629,0.000263304,-0.00320025,-1.03749,0.00222646,0.0143098,1910,820,26.2875,-1.95045
693,204,26.2478,2.323,-0.00151875,-0.000357271,-0.0014738,0.000646084,-0.00252211,-0.973078,0.0019331,0.0164711,1917,820,26.2478,-2.32301
700,204,26.2755,2.69739,-0.000662867,-0.00023738,-0.00125648,0.000824239,-0.00172449,-0.869261,0.00150179,0.0181673,1924,820,26.2755,-2.69742
707,204,26.2566,3.08978,0.000191051,0.000617468,-0.000850219,0.0012808,-0.000472285,-0.908249,0.00104741,0.016233,1931,820,26.2566,-3.08976
714,204,26.2859,3.49182,0.00130332,0.00194834,-9.96313e-05,0.00196338,0.00128829,-1.42098,0.00115184,0.0252751,1938,820,26.2859,-3.49184
721,204,26.2728,3.8078,0.00242155,0.00347848,0.000579195,0.00373407,0.00216596,1.15521,0.00216506,0.0212093,1945,820,26.2728,-3.80781
728,204,26.2308,4.16193,0.00337794,0.00495918,0.00132151,0.00570852,0.00262861,1.05497,0.00329925,0.0131592,1952,820,26.2308,-4.16191
735,204,26.1892,4.56165,0.00424538,0.00637386,0.00223388,0.00778405,0.00283518,1.0077,0.00454902,0.0144623,1959,820,26.1892,-4.56162
742,204,26.1775,4.94135,0.00513423,0.00795751,0.00336923,0.0101989,0.00289287,0.983778,0.00606929,0.0291111,1966,820,26.1775,-4.94136
749,204,26.153,5.27905,0.00606011,0.00918592,0.00486058,0.0127287,0.00251734,0.940951,0.00778357,0.044499,1973,820,26.153,-5.27907
756,204,26.0907,5.64178,0,0,0,0,0,0,0,-1,1980,820,26.0907,-5.64176
763,204,25.6598,6.9245,0,0,0,0,0,0,0,-1,1987,820,25.6598,-6.92452
770,204,25.7424,8.23999,0,0,0,0,0,0,0,-1,1994,820,25.7425,-8.23997
777,204,0,0,0,0,0,0,0,0,0,-1,2001,820,0,0
784,204,0,0,0,0,0,0,0,0,0,-1,2008,820,0,0
791,204,0,0,0,0,0,0,0,0,0,-1,2015,820,0,0
798,204,0,0,0,0,0,0,0,0,0,-1,2022,820,0,0
805,204,0,0,0,0,0,0,0,0,0,-1,2029,820,0,0
812,204,0,0,0,0,0,0,0,0,0,-1,2036,820,0,0
-700,197,0,0,0,0,0,0,0,0,0,-1,524,827,0,0
-693,197,0,0,0,0,0,0,0,0,0,-1,531,827,0,0
-686,197,0,0,0,0,0,0,0,0,0,-1,538,827,0,0
-679,197,0,0,0,0,0,0,0,0,0,-1,545,827,0,0
-672,197,0,0,0,0,0,0,0,0,0,-1,552,827,0,0
-665,197,0,0,0,0,0,0,0,0,0,-1,559,827,0,0
-658,197,-18.0249,4.1817,0,0,0,0,0,0,0,-1,566,827,-18.0249,-4.18172
-651,197,-19.0324,4.13196,0,0,0,0,0,0,0,-1,573,827,-19.0324,-4.13199
-644,197,-18.424,4.46167,0,0,0,0,0,0,0,-1,580,827,-18.4239,-4.46168
-637,197,-18.6737,3.99213,0,0,0,0,0,0,0,-1,587,827,-18.6737,-3.99213
-630,197,-17.9967,3.52502,0,0,0,0,0,0,0,-1,594,827,-17.9967,-3.525
-623,197,-18.103,2.50555,0,0,0,0,0,0,0,-1,601,827,-18.103,-2.50555
-616,197,-18.1421,2.29626,-0.00219914,0.0213876,0.00608542,0.0228651,-0.00367663,1.33261,0.0166052,0.0466561,608,827,-18.1421,-2.29626
-609,197,-18.1569,2.14813,-0.00185051,0.0146125,0.00530459,0.0161737,-0.00341168,1.28457,0.0120813,0.0332535,615,827,-18.1569,-2.14813
-602,197,-18.1795,1.91809,-0.00174692,0.00963761,0.00442731,0.0111566,-0.00326596,1.24028,0.00873243,0.0175672,622,827,-18.1795,-1.91812
-595,197,-18.2299,1.59296,-0.00152754,0.00606436,0.00344182,0.00739241,-0.00285559,1.20254,0.00610689,0.0180162,629,827,-18.2299,-1.59297
-588,197,-18.2436,1.21143,-0.000996387,0.0025927,0.00265027,0.00399883,-0.00240252,1.083,0.00373393,0.0179335,636,827,-18.2436,-1.2114
-581,197,-18.2454,0.866272,-0.000629414,0.000538461,0.00199803,0.00203614,-0.00212709,0.927567,0.00240383,0.0109501,643,827,-18.2454,-0.866293
-574,197,-18.2405,0.535156,-0.000460297,-0.000454524,0.00149028,0.00103288,-0.0019477,0.786367,0.00174765,0.0122983,650,827,-18.2405,-0.535147
-567,197,-18.2333,0.182068,-0.000107176,-0.000108313,0.00146953,0.00136179,-0.00157727,0.785205,0.00169839,0.0137462,657,827,-18.2333,-0.182044
-560,197,-18.2407,-0.140686,-0.000384281,0.000981974,0.00193327,0.00234926,-0.00175157,0.955227,0.00237599,0.0174514,664,827,-18.2407,0.140688
-553,197,-18.4039,-0.441895,-0.0020296,0.00213801,0.00257013,0.00336295,-0.00325455,1.12604,0.00382079,0.0202935,671,827,-18.4039,0.441918
-546,197,-18.2944,-0.772095,-0.00446459,0.00359826,0.00295766,0.00456685,-0.00543318,1.25432,0.00578074,0.0347837,678,827,-18.2944,0.772105
-539,197,-18.2654,-1.0412,0,0,0,0,0,0,0,-1,685,827,-18.2655,1.04118
-532,197,-16.0519,0.0410156,0,0,0,0,0,0,0,-1,692,827,-16.0519,-0.0410415
-525,197,-24.6282,1.23767,0,0,0,0,0,0,0,-1,699,827,-24.6282,-1.23764
-518,197,-24.6156,1.22064,-0.0108517,0.00831601,0.00408884,0.0091518,-0.0116875,1.36917,0.0120612,0.0436118,706,827,-24.6156,-1.22067
-511,197,-24.5749,1.21863,-0.0126677,0.00958742,0.0040868,0.0103142,-0.0133945,1.39481,0.0137266,0.0417616,713,827,-24.5749,-1.21863
-504,197,-24.6689,1.23499,0,0,0,0,0,0,0,-1,720,827,-24.6689,-1.23499
-497,197,-24.9471,0.828369,-0.0129235,0.0107477,0.00265815,0.0110426,-0.0132184,1.46033,0.0140258,0.0385367,727,827,-24.9471,-0.828357
-490,197,-24.9812,0.713501,-0.0079373,0.0101306,0.000567316,0.0101484,-0.0079551,1.53944,0.0104776,0.0392953,734,827,-24.9812,-0.713503
-483,197,-25.0093,0.98938,0.00362519,0.00817,-0.00288415,0.0095694,0.00222579,-1.11906,0.00578227,0.041263,741,827,-25.0093,-0.989401
-476,197,0,0,0,0,0,0,0,0,0,-1,748,827,0,0
-469,197,0,0,0,0,0,0,0,0,0,-1,755,827,0,0
-462,197,0,0,0,0,0,0,0,0,0,-1,762,827,0,0
-455,197,0,0,0,0,0,0,0,0,0,-1,769,827,0,0
-448,197,0,0,0,0,0,0,0,0,0,-1,776,827,0,0
-441,197,0,0,0,0,0,0,0,0,0,-1,783,827,0,0
-434,197,0,0,0,0,0,0,0,0,0,-1,790,827,0,0
-427,197,0,0,0,0,0,0,0,0,0,-1,797,827,0,0
-420,197,0,0,0,0,0,0,0,0,0,-1,804,827,0,0
-413,197,0,0,0,0,0,0,0,0,0,-1,811,827,0,0
-406,197,0,0,0,0,0,0,0,0,0,-1,818,827,0,0
-399,197,0,0,0,0,0,0,0,0,0,-1,825,827,0,0
-392,197,0,0,0,0,0,0,0,0,0,-1,832,827,0,0
-385,197,0,0,0,0,0,0,0,0,0,-1,839,827,0,0
-378,197,0,0,0,0,0,0,0,0,0,-1,846,827,0,0
-371,197,0,0,0,0,0,0,0,0,0,-1,853,827,0,0
-364,197,0,0,0,0,0,0,0,0,0,-1,860,827,0,0
-357,197,0,0,0,0,0,0,0,0,0,-1,867,827,0,0
-350,197,0,0,0,0,0,0,0,0,0,-1,874,827,0,0
-343,197,0,0,0,0,0,0,0,0,0,-1,881,827,0,0
-336,197,0,0,0,0,0,0,0,0,0,-1,888,827,0,0
-329,197,0,0,0,0,0,0,0,0,0,-1,895,827,0,0
-322,197,0,0,0,0,0,0,0,0,0,-1,902,827,0,0
-315,197,0,0,0,0,0,0,0,0,0,-1,909,827,0,0
-308,197,0,0,0,0,0,0,0,0,0,-1,916,827,0,0
-301,197,0,0,0,0,0,0,0,0,0,-1,923,827,0,0
-294,197,0,0,0,0,0,0,0,0,0,-1,930,827,0,0
-287,197,0,0,0,0,0,0,0,0,0,-1,937,827,0,0
-280,197,0,0,0,0,0,0,0,0,0,-1,944,827,0,0
-273,197,0,0,0,0,0,0,0,0,0,-1,951,827,0,0
-266,197,0,0,0,0,0,0,0,0,0,-1,958,827,0,0
-259,197,0,0,0,0,0,0,0,0,0,-1,965,827,0,0
-252,197,0,0,0,0,0,0,0,0,0,-1,972,827,0,0
-245,197,0,0,0,0,0,0,0,0,0,-1,979,827,0,0
-238,197,0,0,0,0,0,0,0,0,0,-1,986,827,0,0
-231,197,0,0,0,0,0,0,0,0,0,-1,993,827,0,0
-224,197,0,0,0,0,0,0,0,0,0,-1,1000,827,0,0
-217,197,0,0,0,0,0,0,0,0,0,-1,1007,827,0,0
-210,197,0,0,0,0,0,0,0,0,0,-1,1014,827,0,0
-203,197,0,0,0,0,0,0,0,0,0,-1,1021,827,0,0
-196,197,0,0,0,0,0,0,0,0,0,-1,1028,827,0,0
-189,197,0,0,0,0,0,0,0,0,0,-1,1035,827,0,0
-182,197,0,0,0,0,0,0,0,0,0,-1,1042,827,0,0
-175,197,0,0,0,0,0,0,0,0,0,-1,1049,827,0,0
-168,197,0,0,0,0,0,0,0,0,0,-1,1056,827,0,0
-161,197,0,0,0,0,0,0,0,0,0,-1,1063,827,0,0
-154,197,0,0,0,0,0,0,0,0,0,-1,1070,827,0,0
-147,197,0,0,0,0,0,0,0,0,0,-1,1077,827,0,0
-140,197,0,0,0,0,0,0,0,0,0,-1,1084,827,0,0
-133,197,0,0,0,0,0,0,0,0,0,-1,1091,827,0,0
-126,197,0,0,0,0,0,0,0,0,0,-1,1098,827,0,0
-119,197,0,0,0,0,0,0,0,0,0,-1,1105,827,0,0
-112,197,0,0,0,0,0,0,0,0,0,-1,1112,827,0,0
-105,197,0,0,0,0,0,0,0,0,0,-1,1119,827,0,0
-98,197,0,0,0,0,0,0,0,0,0,-1,1126,827,0,0
-91,197,0,0,0,0,0,0,0,0,0,-1,1133,827,0,0
-84,197,0,0,0,0,0,0,0,0,0,-1,1140,827,0,0
-77,197,0,0,0,0,0,0,0,0,0,-1,1147,827,0,0
-70,197,0,0,0,0,0,0,0,0,0,-1,1154,827,0,0
-63,197,0,0,0,0,0,0,0,0,0,-1,1161,827,0,0
-56,197,0,0,0,0,0,0,0,0,0,-1,1168,827,0,0
-49,197,0,0,0,0,0,0,0,0,0,-1,1175,827,0,0
-42,197,0,0,0,0,0,0,0,0,0,-1,1182,827,0,0
-35,197,0,0,0,0,0,0,0,0,0,-1,1189,827,0,0
-28,197,0,0,0,0,0,0,0,0,0,-1,1196,827,0,0
-21,197,0,0,0,0,0,0,0,0,0,-1,1203,827,0,0
-14,197,0,0,0,0,0,0,0,0,0,-1,1210,827,0,0
-7,197,0,0,0,0,0,0,0,0,0,-1,1217,827,0,0
0,197,0,0,0,0,0,0,0,0,0,-1,1224,827,0,0
7,197,0,0,0,0,0,0,0,0,0,-1,1231,827,0,0
14,197,0,0,0,0,0,0,0,0,0,-1,1238,827,0,0
21,197,0,0,0,0,0,0,0,0,0,-1,1245,827,0,0
28,197,0,0,0,0,0,0,0,0,0,-1,1252,827,0,0
35,197,0,0,0,0,0,0,0,0,0,-1,1259,827,0,0
42,197,0,0,0,0,0,0,0,0,0,-1,1266,827,0,0
49,197,0,0,0,0,0,0,0,0,0,-1,1273,827,0,0
56,197,0,0,0,0,0,0,0,0,0,-1,1280,827,0,0
63,197,0,0,0,0,0,0,0,0,0,-1,1287,827,0,0
70,197,0,0,0,0,0,0,0,0,0,-1,1294,827,0,0
77,197,0,0,0,0,0,0,0,0,0,-1,1301,827,0,0
84,197,0,0,0,0,0,0,0,0,0,-1,1308,827,0,0
91,197,0,0,0,0,0,0,0,0,0,-1,1315,827,0,0
98,197,0,0,0,0,0,0,0,0,0,-1,1322,827,0,0
105,197,0,0,0,0,0,0,0,0,0,-1,1329,827,0,0
112,197,0,0,0,0,0,0,0,0,0,-1,1336,827,0,0
119,197,0,0,0,0,0,0,0,0,0,-1,1343,827,0,0
126,197,0,0,0,0,0,0,0,0,0,-1,1350,827,0,0
133,197,0,0,0,0,0,0,0,0,0,-1,1357,827,0,0
140,197,0,0,0,0,0,0,0,0,0,-1,1364,827,0,0
147,197,0,0,0,0,0,0,0,0,0,-1,1371,827,0,0
154,197,0,0,0,0,0,0,0,0,0,-1,1378,827,0,0
161,197,0,0,0,0,0,0,0,0,0,-1,1385,827,0,0
168,197,0,0,0,0,0,0,0,0,0,-1,1392,827,0,0
175,197,0,0,0,0,0,0,0,0,0,-1,1399,827,0,0
182,197,0,0,0,0,0,0,0,0,0,-1,1406,827,0,0
189,197,0,0,0,0,0,0,0,0,0,-1,1413,827,0,0
196,197,0,0,0,0,0,0,0,0,0,-1,1420,827,0,0
203,197,0,0,0,0,0,0,0,0,0,-1,1427,827,0,0
210,197,0,0,0,0,0,0,0,0,0,-1,1434,827,0,0
217,197,0,0,0,0,0,0,0,0,0,-1,1441,827,0,0
224,197,0,0,0,0,0,0,0,0,0,-1,1448,827,0,0
231,197,0,0,0,0,0,0,0,0,0,-1,1455,827,0,0
238,197,0,0,0,0,0,0,0,0,0,-1,1462,827,0,0
245,197,0,0,0,0,0,0,0,0,0,-1,1469,827,0,0
252,197,0,0,0,0,0,0,0,0,0,-1,1476,827,0,0
259,197,0,0,0,0,0,0,0,0,0,-1,1483,827,0,0
266,197,0,0,0,0,0,0,0,0,0,-1,1490,827,0,0
273,197,0,0,0,0,0,0,0,0,0,-1,1497,827,0,0
280,197,0,0,0,0,0,0,0,0,0,-1,1504,827,0,0
287,197,0,0,0,0,0,0,0,0,0,-1,1511,827,0,0
294,197,0,0,0,0,0,0,0,0,0,-1,1518,827,0,0
301,197,0,0,0,0,0,0,0,0,0,-1,1525,827,0,0
308,197,0,0,0,0,0,0,0,0,0,-1,1532,827,0,0
315,197,0,0,0,0,0,0,0,0,0,-1,1539,827,0,0
322,197,0,0,0,0,0,0,0,0,0,-1,1546,827,0,0
329,197,0,0,0,0,0,0,0,0,0,-1,1553,827,0,0
336,197,0,0,0,0,0,0,0,0,0,-1,1560,827,0,0
343,197,0,0,0,0,0,0,0,0,0,-1,1567,827,0,0
350,197,0,0,0,0,0,0,0,0,0,-1,1574,827,0,0
357,197,0,0,0,0,0,0,0,0,0,-1,1581,827,0,0
364,197,0,0,0,0,0,0,0,0,0,-1,1588,827,0,0
371,197,0,0,0,0,0,0,0,0,0,-1,1595,827,0,0
378,197,0,0,0,0,0,0,0,0,0,-1,1602,827,0,0
385,197,0,0,0,0,0,0,0,0,0,-1,1609,827,0,0
392,197,0,0,0,0,0,0,0,0,0,-1,1616,827,0,0
399,197,0,0,0,0,0,0,0,0,0,-1,1623,827,0,0
406,197,0,0,0,0,0,0,0,0,0,-1,1630,827,0,0
413,197,0,0,0,0,0,0,0,0,0,-1,1637,827,0,0
420,197,0,0,0,0,0,0,0,0,0,-1,1644,827,0,0
427,197,0,0,0,0,0,0,0,0,0,-1,1651,827,0,0
434,197,0,0,0,0,0,0,0,0,0,-1,1658,827,0,0
441,197,0,0,0,0,0,0,0,0,0,-1,1665,827,0,0
448,197,0,0,0,0,0,0,0,0,0,-1,1672,827,0,0
455,197,0,0,0,0,0,0,0,0,0,-1,1679,827,0,0
462,197,0,0,0,0,0,0,0,0,0,-1,1686,827,0,0
469,197,0,0,0,0,0,0,0,0,0,-1,1693,827,0,0
476,197,0,0,0,0,0,0,0,0,0,-1,1700,827,0,0
483,197,0,0,0,0,0,0,0,0,0,-1,1707,827,0,0
490,197,0,0,0,0,0,0,0,0,0,-1,1714,827,0,0
497,197,0,0,0,0,0,0,0,0,0,-1,1721,827,0,0
504,197,0,0,0,0,0,0,0,0,0,-1,1728,827,0,0
511,197,0,0,0,0,0,0,0,0,0,-1,1735,827,0,0
518,197,0,0,0,0,0,0,0,0,0,-1,1742,827,0,0
525,197,0,0,0,0,0,0,0,0,0,-1,1749,827,0,0
532,197,0,0,0,0,0,0,0,0,0,-1,1756,827,0,0
539,197,0,0,0,0,0,0,0,0,0,-1,1763,827,0,0
546,197,0,0,0,0,0,0,0,0,0,-1,1770,827,0,0
553,197,0,0,0,0,0,0,0,0,0,-1,1777,827,0,0
560,197,0,0,0,0,0,0,0,0,0,-1,1784,827,0,0
567,197,0,0,0,0,0,0,0,0,0,-1,1791,827,0,0
574,197,0,0,0,0,0,0,0,0,0,-1,1798,827,0,0
581,197,0,0,0,0,0,0,0,0,0,-1,1805,827,0,0
588,197,0,0,0,0,0,0,0,0,0,-1,1812,827,0,0
595,197,0,0,0,0,0,0,0,0,0,-1,1819,827,0,0
602,197,34.3265,2.71649,-0.000732585,0.000270463,-0.00329328,0.00310019,-0.00356231,-0.860961,0.00384968,0.0386932,1826,827,34.3265,-2.71646
609,197,34.2327,2.77191,-0.00056485,0.00110716,-0.000977114,0.0015571,-0.00101479,-1.13926,0.00149585,0.0411597,1833,827,34.2326,-2.77188
616,197,34.256,2.73608,-0.000887943,0.00154143,0.000138833,0.00154934,-0.000895852,1.5139,0.00142844,0.0436594,1840,827,34.256,-2.73608
623,197,34.2506,2.76202,-0.00160091,0.00165057,0.00051445,0.00173002,-0.00168037,1.41756,0.00196906,0.0368825,1847,827,34.2507,-2.76202
630,197,34.2974,2.81354,-0.00223812,0.00157741,0.000469163,0.00163426,-0.00229496,1.45023,0.0022792,0.0291689,1854,827,34.2973,-2.81354
637,197,34.2839,2.84839,-0.00267142,0.00132695,0.000229498,0.00134008,-0.00268455,1.51365,0.00236644,0.0268493,1861,827,34.284,-2.84838
644,197,34.2101,2.88733,-0.00288118,0.000911911,-4.42632e-05,0.000912428,-0.0028817,-1.55913,0.00228678,0.0327224,1868,827,34.2101,-2.88733
651,197,34.2281,3.05988,-0.00292691,0.000563876,-0.000317727,0.000592559,-0.0029556,-1.48076,0.00219475,0.0432152,1875,827,34.2281,-3.05989
658,197,34.2621,3.26727,0,0,0,0,0,0,0,-1,1882,827,34.2621,-3.2673
665,197,14.0618,1.80304,0,0,0,0,0,0,0,-1,1889,827,14.0617,-1.80303
672,197,27.0188,0.867493,0,0,0,0,0,0,0,-1,1896,827,27.0188,-0.867501
679,197,26.8434,1.54303,-0.00219117,-0.000519626,-0.00115304,6.86905e-05,-0.00277948,-1.099,0.00187631,0.0403595,1903,827,26.8434,-1.54304
686,197,26.6715,1.98883,-0.00208045,-0.000530836,-0.00137335,0.000271194,-0.00288248,-1.04223,0.00201814,0.0238762,1910,827,26.6715,-1.98884
693,197,26.6422,2.37714,-0.00148766,-0.000415796,-0.00138679,0.000535012,-0.00243847,-0.969787,0.00183024,0.015579,1917,827,26.6423,-2.37712
700,197,26.6599,2.75757,-0.000842453,-0.000466614,-0.00130662,0.000665532,-0.0019746,-0.856819,0.00158551,0.022049,1924,827,26.66,-2.75758
707,197,26.6742,3.11133,-0.000246448,0.000197386,-0.00103929,0.00103818,-0.00108725,-0.890583,0.00122723,0.00968093,1931,827,26.6742,-3.11136
714,197,26.6511,3.47852,0.000581352,0.00137581,-0.000419177,0.00155608,0.000401087,-1.16466,0.000932887,0.0122653,1938,827,26.6511,-3.47851
721,197,26.632,3.82288,0.00146769,0.0028206,0.000132469,0.00283345,0.00145484,1.47411,0.00163609,0.0128555,1945,827,26.6319,-3.82287
728,197,26.6011,4.19464,0.00213468,0.00394777,0.000788795,0.0042429,0.00183955,1.21277,0.00245684,0.0113402,1952,827,26.6011,-4.19463
735,197,26.5792,4.57037,0.0025953,0.00462127,0.0016408,0.00553659,0.00167998,1.06195,0.00327786,0.0110631,1959,827,26.5792,-4.5704
742,197,26.5686,4.95612,0.0028562,0.00489981,0.00277896,0.00683886,0.000917145,0.961573,0.00428636,0.0195025,1966,827,26.5686,-4.95609
749,197,26.486,5.36084,0.00296486,0.00422092,0.0043675,0.00800531,-0.00081953,0.856807,0.00562997,0.0420638,1973,827,26.4859,-5.36086
756,197,26.3977,5.7818,0,0,0,0,0,0,0,-1,1980,827,26.3977,-5.78181
763,197,26.4911,5.73401,0,0,0,0,0,0,0,-1,1987,827,26.491,-5.73399
770,197,26.5657,7.40021,0,0,0,0,0,0,0,-1,1994,827,26.5656,-7.40022
777,197,0,0,0,0,0,0,0,0,0,-1,2001,827,0,0
784,197,0,0,0,0,0,0,0,0,0,-1,2008,827,0,0
791,197,0,0,0,0,0,0,0,0,0,-1,2015,827,0,0
798,197,0,0,0,0,0,0,0,0,0,-1,2022,827,0,0
805,197,0,0,0,0,0,0,0,0,0,-1,2029,827,0,0
812,197,0,0,0,0,0,0,0,0,0,-1,2036,827,0,0
-700,190,0,0,0,0,0,0,0,0,0,-1,524,834,0,0
-693,190,0,0,0,0,0,0,0,0,0,-1,531,834,0,0
-686,190,0,0,0,0,0,0,0,0,0,-1,538,834,0,0
-679,190,0,0,0,0,0,0,0,0,0,-1,545,834,0,0
-672,190,0,0,0,0,0,0,0,0,0,-1,552,834,0,0
-665,190,0,0,0,0,0,0,0,0,0,-1,559,834,0,0
-658,190,-19.0739,3.25623,0,0,0,0,0,0,0,-1,566,834,-19.0739,-3.25623
-651,190,-18.2295,4.67358,0,0,0,0,0,0,0,-1,573,834,-18.2295,-4.67356
-644,190,-18.3671,4.15485,-0.00313457,0.0618314,0.00839875,0.0628996,-0.00420279,1.44429,0.0434019,0.0477231,580,834,-18.3671,-4.15482
-637,190,-18.5163,3.68274,-0.00265823,0.048886,0.0092927,0.0505102,-0.00428239,1.39777,0.0351879,0.0466067,587,834,-18.5163,-3.68274
-630,190,-18.4279,3.35907,-0.00239231,0.0375931,0.00918214,0.0396008,-0.00440006,1.35553,0.0279828,0.0456414,594,834,-18.4278,-3.35909
-623,190,-17.9032,2.95081,-0.00239076,0.0281263,0.00853516,0.0303513,-0.00461569,1.31579,0.0219352,0.0442262,601,834,-17.9032,-2.95081
-616,190,-18.4698,2.38776,-0.00225687,0.0203676,0.00752447,0.0226416,-0.00453081,1.27732,0.0168094,0.0434374,608,834,-18.4698,-2.38776
-609,190,-18.5464,2.19397,-0.00207113,0.014143,0.00636746,0.0163446,-0.00427276,1.2379,0.0125652,0.0246103,615,834,-18.5464,-2.19396
-602,190,-18.5599,1.91669,-0.00197356,0.00942379,0.00522816,0.0114587,-0.00400849,1.19961,0.00926888,0.0157739,622,834,-18.5599,-1.9167
-595,190,-18.5934,1.60089,-0.00172036,0.00591971,0.00402967,0.00765223,-0.00345288,1.16475,0.00656256,0.0175673,629,834,-18.5935,-1.60089
-588,190,-18.6127,1.21979,-0.00112612,0.00246359,0.00302213,0.00418367,-0.0028462,1.05336,0.00408311,0.0156426,636,834,-18.6127,-1.2198
-581,190,-18.6046,0.883118,-0.000662829,0.000403661,0.00220985,0.0021437,-0.00240287,0.903787,0.00262638,0.0115405,643,834,-18.6046,-0.883116
-574,190,-18.5948,0.527344,-0.000376899,-0.000567521,0.00158466,0.00111531,-0.00205973,0.755361,0.00185995,0.0109001,650,834,-18.5949,-0.527364
-567,190,-18.5756,0.142273,6.46582e-05,-0.00014541,0.00147004,0.00143341,-0.00151416,0.749734,0.00170199,0.0153146,657,834,-18.5756,-0.142249
-560,190,-18.6511,-0.162903,-2.30131e-05,0.000929163,0.00183409,0.00234795,-0.0014418,0.912384,0.00220876,0.031872,664,834,-18.6511,0.16291
-553,190,-18.9438,-0.543701,0,0,0,0,0,0,0,-1,671,834,-18.9438,0.543716
-546,190,-18.6733,-0.823059,0,0,0,0,0,0,0,-1,678,834,-18.6733,0.823053
-539,190,-16.4624,-0.542542,0,0,0,0,0,0,0,-1,685,834,-16.4624,0.542527
-532,190,-21.6292,2.06122,0,0,0,0,0,0,0,-1,692,834,-21.6292,-2.06123
-525,190,-24.8536,0.872314,0,0,0,0,0,0,0,-1,699,834,-24.8536,-0.872326
-518,190,-24.8234,0.916443,-0.00667237,0.0086212,0.00335815,0.00932609,-0.00737726,1.3639,0.00966554,0.0453612,706,834,-24.8234,-0.916442
-511,190,-24.7297,0.988953,-0.00781354,0.00994877,0.00333237,0.0105534,-0.00841814,1.39132,0.0109763,0.0404906,713,834,-24.7297,-0.988983
-504,190,-24.644,1.37085,-0.00831158,0.0107142,0.00294278,0.011159,-0.00875635,1.42079,0.011526,0.0401181,720,834,-24.644,-1.37083
-497,190,-24.5269,1.7171,0,0,0,0,0,0,0,-1,727,834,-24.5269,-1.71711
-490,190,-24.9657,0.814453,0,0,0,0,0,0,0,-1,734,834,-24.9657,-0.814483
-483,190,0,0,0,0,0,0,0,0,0,-1,741,834,0,0
-476,190,0,0,0,0,0,0,0,0,0,-1,748,834,0,0
-469,190,0,0,0,0,0,0,0,0,0,-1,755,834,0,0
-462,190,0,0,0,0,0,0,0,0,0,-1,762,834,0,0
-455,190,0,0,0,0,0,0,0,0,0,-1,769,834,0,0
-448,190,0,0,0,0,0,0,0,0,0,-1,776,834,0,0
-441,190,0,0,0,0,0,0,0,0,0,-1,783,834,0,0
-434,190,0,0,0,0,0,0,0,0,0,-1,790,834,0,0
-427,190,0,0,0,0,0,0,0,0,0,-1,797,834,0,0
-420,190,0,0,0,0,0,0,0,0,0,-1,804,834,0,0
-413,190,0,0,0,0,0,0,0,0,0,-1,811,834,0,0
-406,190,0,0,0,0,0,0,0,0,0,-1,818,834,0,0
-399,190,0,0,0,0,0,0,0,0,0,-1,825,834,0,0
-392,190,0,0,0,0,0,0,0,0,0,-1,832,834,0,0
-385,190,0,0,0,0,0,0,0,0,0,-1,839,834,0,0
-378,190,0,0,0,0,0,0,0,0,0,-1,846,834,0,0
-371,190,0,0,0,0,0,0,0,0,0,-1,853,834,0,0
-364,190,0,0,0,0,0,0,0,0,0,-1,860,834,0,0
-357,190,0,0,0,0,0,0,0,0,0,-1,867,834,0,0
-350,190,0,0,0,0,0,0,0,0,0,-1,874,834,0,0
-343,190,0,0,0,0,0,0,0,0,0,-1,881,834,0,0
-336,190,0,0,0,0,0,0,0,0,0,-1,888,834,0,0
-329,190,0,0,0,0,0,0,0,0,0,-1,895,834,0,0
-322,190,0,0,0,0,0,0,0,0,0,-1,902,834,0,0
-315,190,0,0,0,0,0,0,0,0,0,-1,909,834,0,0
-308,190,0,0,0,0,0,0,0,0,0,-1,916,834,0,0
-301,190,0,0,0,0,0,0,0,0,0,-1,923,834,0,0
-294,190,0,0,0,0,0,0,0,0,0,-1,930,834,0,0
-287,190,0,0,0,0,0,0,0,0,0,-1,937,834,0,0
-280,190,0,0,0,0,0,0,0,0,0,-1,944,834,0,0
-273,190,0,0,0,0,0,0,0,0,0,-1,951,834,0,0
-266,190,0,0,0,0,0,0,0,0,0,-1,958,834,0,0
-259,190,0,0,0,0,0,0,0,0,0,-1,965,834,0,0
-252,190,0,0,0,0,0,0,0,0,0,-1,972,834,0,0
-245,190,0,0,0,0,0,0,0,0,0,-1,979,834,0,0
-238,190,0,0,0,0,0,0,0,0,0,-1,986,834,0,0
-231,190,0,0,0,0,0,0,0,0,0,-1,993,834,0,0
-224,190,0,0,0,0,0,0,0,0,0,-1,1000,834,0,0
-217,190,0,0,0,0,0,0,0,0,0,-1,1007,834,0,0
-210,190,0,0,0,0,0,0,0,0,0,-1,1014,834,0,0
-203,190,0,0,0,0,0,0,0,0,0,-1,1021,834,0,0
-196,190,0,0,0,0,0,0,0,0,0,-1,1028,834,0,0
-189,190,0,0,0,0,0,0,0,0,0,-1,1035,834,0,0
-182,190,0,0,0,0,0,0,0,0,0,-1,1042,834,0,0
-175,190,0,0,0,0,0,0,0,0,0,-1,1049,834,0,0
-168,190,0,0,0,0,0,0,0,0,0,-1,1056,834,0,0
-161,190,0,0,0,0,0,0,0,0,0,-1,1063,834,0,0
-154,190,0,0,0,0,0,0,0,0,0,-1,1070,834,0,0
-147,190,0,0,0,0,0,0,0,0,0,-1,1077,834,0,0
-140,190,0,0,0,0,0,0,0,0,0,-1,1084,834,0,0
-133,190,0,0,0,0,0,0,0,0,0,-1,1091,834,0,0
-126,190,0,0,0,0,0,0,0,0,0,-1,1098,834,0,0
-119,190,0,0,0,0,0,0,0,0,0,-1,1105,834,0,0
-112,190,0,0,0,0,0,0,0,0,0,-1,1112,834,0,0
-105,190,0,0,0,0,0,0,0,0,0,-1,1119,834,0,0
-98,190,0,0,0,0,0,0,0,0,0,-1,1126,834,0,0
-91,190,0,0,0,0,0,0,0,0,0,-1,1133,834,0,0
-84,190,0,0,0,0,0,0,0,0,0,-1,1140,834,0,0
-77,190,0,0,0,0,0,0,0,0,0,-1,1147,834,0,0
-70,190,0,0,0,0,0,0,0,0,0,-1,1154,834,0,0
-63,190,0,0,0,0,0,0,0,0,0,-1,1161,834,0,0
-56,190,0,0,0,0,0,0,0,0,0,-1,1168,834,0,0
-49,190,0,0,0,0,0,0,0,0,0,-1,1175,834,0,0
-42,190,0,0,0,0,0,0,0,0,0,-1,1182,834,0,0
-35,190,0,0,0,0,0,0,0,0,0,-1,1189,834,0,0
-28,190,0,0,0,0,0,0,0,0,0,-1,1196,834,0,0
-21,190,0,0,0,0,0,0,0,0,0,-1,1203,834,0,0
-14,190,0,0,0,0,0,0,0,0,0,-1,1210,834,0,0
-7,190,0,0,0,0,0,0,0,0,0,-1,1217,834,0,0
0,190,0,0,0,0,0,0,0,0,0,-1,1224,834,0,0
7,190,0,0,0,0,0,0,0,0,0,-1,1231,834,0,0
14,190,0,0,0,0,0,0,0,0,0,-1,1238,834,0,0
21,190,0,0,0,0,0,0,0,0,0,-1,1245,834,0,0
28,190,0,0,0,0,0,0,0,0,0,-1,1252,834,0,0
35,190,0,0,0,0,0,0,0,0,0,-1,1259,834,0,0
42,190,0,0,0,0,0,0,0,0,0,-1,1266,834,0,0
49,190,0,0,0,0,0,0,0,0,0,-1,1273,834,0,0
56,190,0,0,0,0,0,0,0,0,0,-1,1280,834,0,0
63,190,0,0,0,0,0,0,0,0,0,-1,1287,834,0,0
70,190,0,0,0,0,0,0,0,0,0,-1,1294,834,0,0
77,190,0,0,0,0,0,0,0,0,0,-1,1301,834,0,0
84,190,0,0,0,0,0,0,0,0,0,-1,1308,834,0,0
91,190,0,0,0,0,0,0,0,0,0,-1,1315,834,0,0
98,190,0,0,0,0,0,0,0,0,0,-1,1322,834,0,0
105,190,0,0,0,0,0,0,0,0,0,-1,1329,834,0,0
112,190,0,0,0,0,0,0,0,0,0,-1,1336,834,0,0
119,190,0,0,0,0,0,0,0,0,0,-1,1343,834,0,0
126,190,0,0,0,0,0,0,0,0,0,-1,1350,834,0,0
133,190,0,0,0,0,0,0,0,0,0,-1,1357,834,0,0
140,190,0,0,0,0,0,0,0,0,0,-1,1364,834,0,0
147,190,0,0,0,0,0,0,0,0,0,-1,1371,834,0,0
154,190,0,0,0,0,0,0,0,0,0,-1,1378,834,0,0
161,190,0,0,0,0,0,0,0,0,0,-1,1385,834,0,0
168,190,0,0,0,0,0,0,0,0,0,-1,1392,834,0,0
175,190,0,0,0,0,0,0,0,0,0,-1,1399,834,0,0
182,190,0,0,0,0,0,0,0,0,0,-1,1406,834,0,0
189,190,0,0,0,0,0,0,0,0,0,-1,1413,834,0,0
196,190,0,0,0,0,0,0,0,0,0,-1,1420,834,0,0
203,190,0,0,0,0,0,0,0,0,0,-1,1427,834,0,0
210,190,0,0,0,0,0,0,0,0,0,-1,1434,834,0,0
217,190,0,0,0,0,0,0,0,0,0,-1,1441,834,0,0
224,190,0,0,0,0,0,0,0,0,0,-1,1448,834,0,0
231,190,0,0,0,0,0,0,0,0,0,-1,1455,834,0,0
238,190,0,0,0,0,0,0,0,0,0,-1,1462,834,0,0
245,190,0,0,0,0,0,0,0,0,0,-1,1469,834,0,0
252,190,0,0,0,0,0,0,0,0,0,-1,1476,834,0,0
259,190,0,0,0,0,0,0,0,0,0,-1,1483,834,0,0
266,190,0,0,0,0,0,0,0,0,0,-1,1490,834,0,0
273,190,0,0,0,0,0,0,0,0,0,-1,1497,834,0,0
280,190,0,0,0,0,0,0,0,0,0,-1,1504,834,0,0
287,190,0,0,0,0,0,0,0,0,0,-1,1511,834,0,0
294,190,0,0,0,0,0,0,0,0,0,-1,1518,834,0,0
301,190,0,0,0,0,0,0,0,0,0,-1,1525,834,0,0
308,190,0,0,0,0,0,0,0,0,0,-1,1532,834,0,0
315,190,0,0,0,0,0,0,0,0,0,-1,1539,834,0,0
322,190,0,0,0,0,0,0,0,0,0,-1,1546,834,0,0
329,190,0,0,0,0,0,0,0,0,0,-1,1553,834,0,0
336,190,0,0,0,0,0,0,0,0,0,-1,1560,834,0,0
343,190,0,0,0,0,0,0,0,0,0,-1,1567,834,0,0
350,190,0,0,0,0,0,0,0,0,0,-1,1574,834,0,0
357,190,0,0,0,0,0,0,0,0,0,-1,1581,834,0,0
364,190,0,0,0,0,0,0,0,0,0,-1,1588,834,0,0
371,190,0,0,0,0,0,0,0,0,0,-1,1595,834,0,0
378,190,0,0,0,0,0,0,0,0,0,-1,1602,834,0,0
385,190,0,0,0,0,0,0,0,0,0,-1,1609,834,0,0
392,190,0,0,0,0,0,0,0,0,0,-1,1616,834,0,0
399,190,0,0,0,0,0,0,0,0,0,-1,1623,834,0,0
406,190,0,0,0,0,0,0,0,0,0,-1,1630,834,0,0
413,190,0,0,0,0,0,0,0,0,0,-1,1637,834,0,0
420,190,0,0,0,0,0,0,0,0,0,-1,1644,834,0,0
427,190,0,0,0,0,0,0,0,0,0,-1,1651,834,0,0
434,190,0,0,0,0,0,0,0,0,0,-1,1658,834,0,0
441,190,0,0,0,0,0,0,0,0,0,-1,1665,834,0,0
448,190,0,0,0,0,0,0,0,0,0,-1,1672,834,0,0
455,190,0,0,0,0,0,0,0,0,0,-1,1679,834,0,0
462,190,0,0,0,0,0,0,0,0,0,-1,1686,834,0,0
469,190,0,0,0,0,0,0,0,0,0,-1,1693,834,0,0
476,190,0,0,0,0,0,0,0,0,0,-1,1700,834,0,0
483,190,0,0,0,0,0,0,0,0,0,-1,1707,834,0,0
490,190,0,0,0,0,0,0,0,0,0,-1,1714,834,0,0
497,190,0,0,0,0,0,0,0,0,0,-1,1721,834,0,0
504,190,0,0,0,0,0,0,0,0,0,-1,1728,834,0,0
511,190,0,0,0,0,0,0,0,0,0,-1,1735,834,0,0
518,190,0,0,0,0,0,0,0,0,0,-1,1742,834,0,0
525,190,0,0,0,0,0,0,0,0,0,-1,1749,834,0,0
532,190,0,0,0,0,0,0,0,0,0,-1,1756,834,0,0
539,190,0,0,0,0,0,0,0,0,0,-1,1763,834,0,0
546,190,0,0,0,0,0,0,0,0,0,-1,1770,834,0,0
553,190,0,0,0,0,0,0,0,0,0,-1,1777,834,0,0
560,190,0,0,0,0,0,0,0,0,0,-1,1784,834,0,0
567,190,0,0,0,0,0,0,0,0,0,-1,1791,834,0,0
574,190,0,0,0,0,0,0,0,0,0,-1,1798,834,0,0
581,190,0,0,0,0,0,0,0,0,0,-1,1805,834,0,0
588,190,0,0,0,0,0,0,0,0,0,-1,1812,834,0,0
595,190,0,0,0,0,0,0,0,0,0,-1,1819,834,0,0
602,190,34.3384,2.73645,-0.00179746,-0.00124334,-0.004342,0.00283043,-0.00587123,-0.81726,0.00512514,0.0404255,1826,834,34.3384,-2.73643
609,190,34.1957,2.75128,-0.00107703,-1.75017e-05,-0.00193073,0.00145483,-0.00254936,-0.919296,0.00234043,0.0396392,1833,834,34.1957,-2.75128
616,190,34.1339,2.61835,-0.000887641,0.000905845,-0.000589257,0.00108212,-0.00106392,-1.28012,0.00123903,0.0417136,1840,834,34.1339,-2.61836
623,190,34.0938,2.65833,-0.00126523,0.00143014,5.04894e-05,0.00143109,-0.00126617,1.55207,0.00155824,0.0406709,1847,834,34.0938,-2.65833
630,190,34.1981,2.69757,-0.00177461,0.00163727,0.000211486,0.00165032,-0.00178767,1.50913,0.00198545,0.0422525,1854,834,34.1981,-2.69754
637,190,34.2955,2.7608,-0.0021983,0.00153195,8.96952e-05,0.0015341,-0.00220046,1.54677,0.00216756,0.034882,1861,834,34.2955,-2.76083
644,190,34.2462,2.89117,-0.00241142,0.00117599,-0.000109776,0.00117935,-0.00241477,-1.54023,0.00211553,0.0268879,1868,834,34.2462,-2.89116
651,190,34.2369,2.97424,-0.00244822,0.000813796,-0.000326534,0.000846161,-0.00248059,-1.472,0.00199647,0.0379478,1875,834,34.237,-2.97422
658,190,34.2721,3.05408,0,0,0,0,0,0,0,-1,1882,834,34.2721,-3.05406
665,190,25.9916,3.05157,0,0,0,0,0,0,0,-1,1889,834,25.9916,-3.05156
672,190,27.2662,1.70862,0,0,0,0,0,0,0,-1,1896,834,27.2662,-1.70861
679,190,26.9498,1.94781,0,0,0,0,0,0,0,-1,1903,834,26.9499,-1.94779
686,190,27.0007,2.08606,-0.00202402,-0.000253534,-0.00118943,0.000343923,-0.00262147,-1.10531,0.00187285,0.0206694,1910,834,27.0007,-2.08607
693,190,27.0365,2.39697,-0.00157832,-0.000244019,-0.00118908,0.00045228,-0.00227461,-1.04105,0.0016875,0.0139669,1917,834,27.0364,-2.39697
700,190,27.0088,2.76434,-0.00108365,-0.000386103,-0.00120434,0.000518945,-0.0019887,-0.926342,0.00152844,0.0118095,1924,834,27.0088,-2.76435
707,190,27.0243,3.12006,-0.000672003,6.61755e-05,-0.00106367,0.000822973,-0.0014288,-0.952396,0.00131565,0.0132222,1931,834,27.0243,-3.12008
714,190,27.0353,3.47412,-1.43704e-05,0.000998801,-0.000600559,0.0012779,-0.000293469,-1.13576,0.000964751,0.0119374,1938,834,27.0352,-3.47409
721,190,27.0233,3.84454,0.00089482,0.00228759,-0.00021609,0.00232034,0.000862064,-1.42036,0.00135431,0.0110785,1945,834,27.0233,-3.84457
728,190,26.9928,4.19043,0.00156947,0.00314405,0.000282542,0.00319321,0.0015203,1.39851,0.0018443,0.0129258,1952,834,26.9927,-4.19043
735,190,26.9807,4.54517,0.00211495,0.00343161,0.000978764,0.00395285,0.00159371,1.08145,0.00229639,0.0118927,1959,834,26.9807,-4.54518
742,190,26.9619,4.94672,0.00257288,0.00321112,0.00192808,0.00484632,0.000937687,0.867411,0.0029681,0.0160388,1966,834,26.9619,-4.94675
749,190,26.9254,5.38525,0.00304376,0.00194607,0.00330144,0.00584167,-0.000851836,0.703029,0.00420723,0.039179,1973,834,26.9254,-5.38525
756,190,26.8256,5.43457,0,0,0,0,0,0,0,-1,1980,834,26.8255,-5.43455
763,190,27.0795,5.34192,0,0,0,0,0,0,0,-1,1987,834,27.0795,-5.34192
770,190,27.3617,5.38696,0,0,0,0,0,0,0,-1,1994,834,27.3617,-5.38697
777,190,25.9713,6.77551,0,0,0,0,0,0,0,-1,2001,834,25.9714,-6.77554
784,190,0,0,0,0,0,0,0,0,0,-1,2008,834,0,0
791,190,0,0,0,0,0,0,0,0,0,-1,2015,834,0,0
798,190,0,0,0,0,0,0,0,0,0,-1,2022,834,0,0
805,190,0,0,0,0,0,0,0,0,0,-1,2029,834,0,0
812,190,0,0,0,0,0,0,0,0,0,-1,2036,834,0,0
-700,183,0,0,0,0,0,0,0,0,0,-1,524,841,0,0
-693,183,0,0,0,0,0,0,0,0,0,-1,531,841,0,0
-686,183,0,0,0,0,0,0,0,0,0,-1,538,841,0,0
-679,183,0,0,0,0,0,0,0,0,0,-1,545,841,0,0
-672,183,0,0,0,0,0,0,0,0,0,-1,552,841,0,0
-665,183,0,0,0,0,0,0,0,0,0,-1,559,841,0,0
-658,183,-19.5798,2.72845,0,0,0,0,0,0,0,-1,566,841,-19.5798,-2.72847
-651,183,-18.2921,4.31616,0,0,0,0,0,0,0,-1,573,841,-18.2921,-4.31618
-644,183,-18.3735,3.82813,-8.11305e-05,0.0533388,0.0119734,0.0558997,-0.00264205,1.36009,0.0381776,0.0468728,580,841,-18.3735,-3.82812
-637,183,-18.4892,3.32715,-0.000633016,0.0432061,0.0118909,0.0462237,-0.00365059,1.32227,0.0321019,0.0489628,587,841,-18.4892,-3.32714
-630,183,-18.6165,2.98035,-0.00115473,0.0338595,0.0110956,0.0370794,-0.00437466,1.28835,0.0262994,0.0469244,594,841,-18.6165,-2.98033
-623,183,-18.5378,2.67175,-0.00157757,0.0257649,0.00993198,0.0289918,-0.00480448,1.25665,0.0211124,0.0438817,601,841,-18.5379,-2.67174
-616,183,-18.743,2.4256,-0.00173759,0.0188801,0.00855638,0.0219684,-0.00482591,1.22441,0.0164913,0.0377022,608,841,-18.743,-2.42561
-609,183,-18.9171,2.2453,-0.00177311,0.0132039,0.00712489,0.0160519,-0.00462103,1.19054,0.0125289,0.0169322,615,841,-18.917,-2.24529
-602,183,-18.9341,1.92615,-0.00175771,0.00880528,0.00575629,0.0113359,-0.00428833,1.1566,0.00932153,0.0105656,622,841,-18.9341,-1.92613
-595,183,-18.9555,1.56317,-0.00157413,0.00548244,0.00435306,0.00755754,-0.00364923,1.12596,0.00660008,0.0103452,629,841,-18.9555,-1.56319
-588,183,-18.9442,1.22266,-0.00102723,0.00219265,0.00313883,0.00411034,-0.00294492,1.02236,0.00409184,0.0111075,636,841,-18.9442,-1.22267
-581,183,-18.9649,0.894958,-0.000567464,0.000269367,0.00219456,0.00208504,-0.00238314,0.879598,0.00258162,0.0123667,643,841,-18.9649,-0.894963
-574,183,-18.957,0.564148,-0.000250886,-0.000580799,0.00148808,0.00108136,-0.00191304,0.730198,0.0017509,0.0122638,650,841,-18.957,-0.564149
-567,183,-18.8773,0.216187,0.000211196,-7.06028e-05,0.00130399,0.00138187,-0.00124128,0.731581,0.0015152,0.0294543,657,841,-18.8773,-0.216202
-560,183,-19.0624,-0.0496216,0.00023765,0.000925029,0.00160961,0.00222724,-0.00106456,0.89058,0.00193963,0.0358542,664,841,-19.0625,0.0496469
-553,183,-19.3047,-0.541382,0,0,0,0,0,0,0,-1,671,841,-19.3047,0.541408
-546,183,-17.5842,-0.733643,0,0,0,0,0,0,0,-1,678,841,-17.5842,0.733616
-539,183,-16.8032,-0.417297,0,0,0,0,0,0,0,-1,685,841,-16.8032,0.41732
-532,183,-23.9379,0.849182,0,0,0,0,0,0,0,-1,692,841,-23.9379,-0.849191
-525,183,-24.8987,0.757324,0,0,0,0,0,0,0,-1,699,841,-24.8987,-0.757338
-518,183,-24.9167,0.734558,-0.00374667,0.00868096,0.00270742,0.00924517,-0.00431088,1.36534,0.00799754,0.0451177,706,841,-24.9167,-0.73454
-511,183,-24.8246,0.887817,-0.00449217,0.00996361,0.00264307,0.0104317,-0.00496027,1.39551,0.00907179,0.0380461,713,841,-24.8246,-0.887838
-504,183,-24.7448,1.33899,-0.00473441,0.0104274,0.00221723,0.010745,-0.005052,1.42853,0.00931574,0.0380356,720,841,-24.7448,-1.33896
-497,183,-24.8295,1.3725,-0.00369702,0.00952956,0.00124078,0.00964496,-0.00381241,1.47806,0.00800917,0.0411121,727,841,-24.8295,-1.37248
-490,183,-24.8204,0.990784,-0.000165094,0.00636348,-0.000322753,0.0063794,-0.000181011,-1.52152,0.00431454,0.0393531,734,841,-24.8203,-0.990798
-483,183,0,0,0,0,0,0,0,0,0,-1,741,841,0,0
-476,183,0,0,0,0,0,0,0,0,0,-1,748,841,0,0
-469,183,0,0,0,0,0,0,0,0,0,-1,755,841,0,0
-462,183,0,0,0,0,0,0,0,0,0,-1,762,841,0,0
-455,183,0,0,0,0,0,0,0,0,0,-1,769,841,0,0
-448,183,0,0,0,0,0,0,0,0,0,-1,776,841,0,0
-441,183,0,0,0,0,0,0,0,0,0,-1,783,841,0,0
-434,183,0,0,0,0,0,0,0,0,0,-1,790,841,0,0
-427,183,0,0,0,0,0,0,0,0,0,-1,797,841,0,0
-420,183,0,0,0,0,0,0,0,0,0,-1,804,841,0,0
-413,183,0,0,0,0,0,0,0,0,0,-1,811,841,0,0
-406,183,0,0,0,0,0,0,0,0,0,-1,818,841,0,0
-399,183,0,0,0,0,0,0,0,0,0,-1,825,841,0,0
-392,183,0,0,0,0,0,0,0,0,0,-1,832,841,0,0
-385,183,0,0,0,0,0,0,0,0,0,-1,839,841,0,0
-378,183,0,0,0,0,0,0,0,0,0,-1,846,841,0,0
-371,183,0,0,0,0,0,0,0,0,0,-1,853,841,0,0
-364,183,0,0,0,0,0,0,0,0,0,-1,860,841,0,0
-357,183,0,0,0,0,0,0,0,0,0,-1,867,841,0,0
-350,183,0,0,0,0,0,0,0,0,0,-1,874,841,0,0
-343,183,0,0,0,0,0,0,0,0,0,-1,881,841,0,0
-336,183,0,0,0,0,0,0,0,0,0,-1,888,841,0,0
-329,183,0,0,0,0,0,0,0,0,0,-1,895,841,0,0
-322,183,0,0,0,0,0,0,0,0,0,-1,902,841,0,0
-315,183,0,0,0,0,0,0,0,0,0,-1,909,841,0,0
-308,183,0,0,0,0,0,0,0,0,0,-1,916,841,0,0
-301,183,0,0,0,0,0,0,0,0,0,-1,923,841,0,0
-294,183,0,0,0,0,0,0,0,0,0,-1,930,841,0,0
-287,183,0,0,0,0,0,0,0,0,0,-1,937,841,0,0
-280,183,0,0,0,0,0,0,0,0,0,-1,944,841,0,0
-273,183,0,0,0,0,0,0,0,0,0,-1,951,841,0,0
-266,183,0,0,0,0,0,0,0,0,0,-1,958,841,0,0
-259,183,0,0,0,0,0,0,0,0,0,-1,965,841,0,0
-252,183,0,0,0,0,0,0,0,0,0,-1,972,841,0,0
-245,183,0,0,0,0,0,0,0,0,0,-1,979,841,0,0
-238,183,0,0,0,0,0,0,0,0,0,-1,986,841,0,0
-231,183,0,0,0,0,0,0,0,0,0,-1,993,841,0,0
-224,183,0,0,0,0,0,0,0,0,0,-1,1000,841,0,0
-217,183,0,0,0,0,0,0,0,0,0,-1,1007,841,0,0
-210,183,0,0,0,0,0,0,0,0,0,-1,1014,841,0,0
-203,183,0,0,0,0,0,0,0,0,0,-1,1021,841,0,0
-196,183,0,0,0,0,0,0,0,0,0,-1,1028,841,0,0
-189,183,0,0,0,0,0,0,0,0,0,-1,1035,841,0,0
-182,183,0,0,0,0,0,0,0,0,0,-1,1042,841,0,0
-175,183,0,0,0,0,0,0,0,0,0,-1,1049,841,0,0
-168,183,0,0,0,0,0,0,0,0,0,-1,1056,841,0,0
-161,183,0,0,0,0,0,0,0,0,0,-1,1063,841,0,0
-154,183,0,0,0,0,0,0,0,0,0,-1,1070,841,0,0
-147,183,0,0,0,0,0,0,0,0,0,-1,1077,841,0,0
-140,183,0,0,0,0,0,0,0,0,0,-1,1084,841,0,0
-133,183,0,0,0,0,0,0,0,0,0,-1,1091,841,0,0
-126,183,0,0,0,0,0,0,0,0,0,-1,1098,841,0,0
-119,183,0,0,0,0,0,0,0,0,0,-1,1105,841,0,0
-112,183,0,0,0,0,0,0,0,0,0,-1,1112,841,0,0
-105,183,0,0,0,0,0,0,0,0,0,-1,1119,841,0,0
-98,183,0,0,0,0,0,0,0,0,0,-1,1126,841,0,0
-91,183,0,0,0,0,0,0,0,0,0,-1,1133,841,0,0
-84,183,0,0,0,0,0,0,0,0,0,-1,1140,841,0,0
-77,183,0,0,0,0,0,0,0,0,0,-1,1147,841,0,0
-70,183,0,0,0,0,0,0,0,0,0,-1,1154,841,0,0
-63,183,0,0,0,0,0,0,0,0,0,-1,1161,841,0,0
-56,183,0,0,0,0,0,0,0,0,0,-1,1168,841,0,0
-49,183,0,0,0,0,0,0,0,0,0,-1,1175,841,0,0
-42,183,0,0,0,0,0,0,0,0,0,-1,1182,841,0,0
-35,183,0,0,0,0,0,0,0,0,0,-1,1189,841,0,0
-28,183,0,0,0,0,0,0,0,0,0,-1,1196,841,0,0
-21,183,0,0,0,0,0,0,0,0,0,-1,1203,841,0,0
-14,183,0,0,0,0,0,0,0,0,0,-1,1210,841,0,0
-7,183,0,0,0,0,0,0,0,0,0,-1,1217,841,0,0
0,183,0,0,0,0,0,0,0,0,0,-1,1224,841,0,0
7,183,0,0,0,0,0,0,0,0,0,-1,1231,841,0,0
14,183,0,0,0,0,0,0,0,0,0,-1,1238,841,0,0
21,183,0,0,0,0,0,0,0,0,0,-1,1245,841,0,0
28,183,0,0,0,0,0,0,0,0,0,-1,1252,841,0,0
35,183,0,0,0,0,0,0,0,0,0,-1,1259,841,0,0
42,183,0,0,0,0,0,0,0,0,0,-1,1266,841,0,0
49,183,0,0,0,0,0,0,0,0,0,-1,1273,841,0,0
56,183,0,0,0,0,0,0,0,0,0,-1,1280,841,0,0
63,183,0,0,0,0,0,0,0,0,0,-1,1287,841,0,0
70,183,0,0,0,0,0,0,0,0,0,-1,1294,841,0,0
77,183,0,0,0,0,0,0,0,0,0,-1,1301,841,0,0
84,183,0,0,0,0,0,0,0,0,0,-1,1308,841,0,0
91,183,0,0,0,0,0,0,0,0,0,-1,1315,841,0,0
98,183,0,0,0,0,0,0,0,0,0,-1,1322,841,0,0
105,183,0,0,0,0,0,0,0,0,0,-1,1329,841,0,0
112,183,0,0,0,0,0,0,0,0,0,-1,1336,841,0,0
119,183,0,0,0,0,0,0,0,0,0,-1,1343,841,0,0
126,183,0,0,0,0,0,0,0,0,0,-1,1350,841,0,0
133,183,0,0,0,0,0,0,0,0,0,-1,1357,841,0,0
140,183,0,0,0,0,0,0,0,0,0,-1,1364,841,0,0
147,183,0,0,0,0,0,0,0,0,0,-1,1371,841,0,0
154,183,0,0,0,0,0,0,0,0,0,-1,1378,841,0,0
161,183,0,0,0,0,0,0,0,0,0,-1,1385,841,0,0
168,183,0,0,0,0,0,0,0,0,0,-1,1392,841,0,0
175,183,0,0,0,0,0,0,0,0,0,-1,1399,841,0,0
182,183,0,0,0,0,0,0,0,0,0,-1,1406,841,0,0
189,183,0,0,0,0,0,0,0,0,0,-1,1413,841,0,0
196,183,0,0,0,0,0,0,0,0,0,-1,1420,841,0,0
203,183,0,0,0,0,0,0,0,0,0,-1,1427,841,0,0
210,183,0,0,0,0,0,0,0,0,0,-1,1434,841,0,0
217,183,0,0,0,0,0,0,0,0,0,-1,1441,841,0,0
224,183,0,0,0,0,0,0,0,0,0,-1,1448,841,0,0
231,183,0,0,0,0,0,0,0,0,0,-1,1455,841,0,0
238,183,0,0,0,0,0,0,0,0,0,-1,1462,841,0,0
245,183,0,0,0,0,0,0,0,0,0,-1,1469,841,0,0
252,183,0,0,0,0,0,0,0,0,0,-1,1476,841,0,0
259,183,0,0,0,0,0,0,0,0,0,-1,1483,841,0,0
266,183,0,0,0,0,0,0,0,0,0,-1,1490,841,0,0
273,183,0,0,0,0,0,0,0,0,0,-1,1497,841,0,0
280,183,0,0,0,0,0,0,0,0,0,-1,1504,841,0,0
287,183,0,0,0,0,0,0,0,0,0,-1,1511,841,0,0
294,183,0,0,0,0,0,0,0,0,0,-1,1518,841,0,0
301,183,0,0,0,0,0,0,0,0,0,-1,1525,841,0,0
308,183,0,0,0,0,0,0,0,0,0,-1,1532,841,0,0
315,183,0,0,0,0,0,0,0,0,0,-1,1539,841,0,0
322,183,0,0,0,0,0,0,0,0,0,-1,1546,841,0,0
329,183,0,0,0,0,0,0,0,0,0,-1,1553,841,0,0
336,183,0,0,0,0,0,0,0,0,0,-1,1560,841,0,0
343,183,0,0,0,0,0,0,0,0,0,-1,1567,841,0,0
350,183,0,0,0,0,0,0,0,0,0,-1,1574,841,0,0
357,183,0,0,0,0,0,0,0,0,0,-1,1581,841,0,0
364,183,0,0,0,0,0,0,0,0,0,-1,1588,841,0,0
371,183,0,0,0,0,0,0,0,0,0,-1,1595,841,0,0
378,183,0,0,0,0,0,0,0,0,0,-1,1602,841,0,0
385,183,0,0,0,0,0,0,0,0,0,-1,1609,841,0,0
392,183,0,0,0,0,0,0,0,0,0,-1,1616,841,0,0
399,183,0,0,0,0,0,0,0,0,0,-1,1623,841,0,0
406,183,0,0,0,0,0,0,0,0,0,-1,1630,841,0,0
413,183,0,0,0,0,0,0,0,0,0,-1,1637,841,0,0
420,183,0,0,0,0,0,0,0,0,0,-1,1644,841,0,0
427,183,0,0,0,0,0,0,0,0,0,-1,1651,841,0,0
434,183,0,0,0,0,0,0,0,0,0,-1,1658,841,0,0
441,183,0,0,0,0,0,0,0,0,0,-1,1665,841,0,0
448,183,0,0,0,0,0,0,0,0,0,-1,1672,841,0,0
455,183,0,0,0,0,0,0,0,0,0,-1,1679,841,0,0
462,183,0,0,0,0,0,0,0,0,0,-1,1686,841,0,0
469,183,0,0,0,0,0,0,0,0,0,-1,1693,841,0,0
476,183,0,0,0,0,0,0,0,0,0,-1,1700,841,0,0
483,183,0,0,0,0,0,0,0,0,0,-1,1707,841,0,0
490,183,0,0,0,0,0,0,0,0,0,-1,1714,841,0,0
497,183,0,0,0,0,0,0,0,0,0,-1,1721,841,0,0
504,183,0,0,0,0,0,0,0,0,0,-1,1728,841,0,0
511,183,0,0,0,0,0,0,0,0,0,-1,1735,841,0,0
518,183,0,0,0,0,0,0,0,0,0,-1,1742,841,0,0
525,183,0,0,0,0,0,0,0,0,0,-1,1749,841,0,0
532,183,0,0,0,0,0,0,0,0,0,-1,1756,841,0,0
539,183,0,0,0,0,0,0,0,0,0,-1,1763,841,0,0
546,183,0,0,0,0,0,0,0,0,0,-1,1770,841,0,0
553,183,0,0,0,0,0,0,0,0,0,-1,1777,841,0,0
560,183,0,0,0,0,0,0,0,0,0,-1,1784,841,0,0
567,183,0,0,0,0,0,0,0,0,0,-1,1791,841,0,0
574,183,0,0,0,0,0,0,0,0,0,-1,1798,841,0,0
581,183,0,0,0,0,0,0,0,0,0,-1,1805,841,0,0
588,183,0,0,0,0,0,0,0,0,0,-1,1812,841,0,0
595,183,0,0,0,0,0,0,0,0,0,-1,1819,841,0,0
602,183,0,0,0,0,0,0,0,0,0,-1,1826,841,0,0
609,183,34.2076,2.99036,-0.00169789,-0.001565,-0.0027397,0.00110906,-0.00437195,-0.797522,0.00334616,0.0409945,1833,841,34.2077,-2.99038
616,183,34.1421,2.84912,-0.0010125,-0.000290097,-0.00125483,0.000654482,-0.00195708,-0.925534,0.00156906,0.0392607,1840,841,34.1421,-2.8491
623,183,34.0676,2.64081,-0.000991983,0.000622875,-0.000381016,0.000708259,-0.00107737,-1.35034,0.00103825,0.0435021,1847,841,34.0677,-2.64079
630,183,34.2645,2.53546,-0.00128556,0.00119519,1.29918e-05,0.00119526,-0.00128563,1.56556,0.00143266,0.043481,1854,841,34.2645,-2.53549
637,183,34.3098,2.63928,-0.00166864,0.00134854,4.93277e-05,0.00134935,-0.00166945,1.55445,0.00174617,0.0355459,1861,841,34.3099,-2.63925
644,183,34.2566,2.76276,-0.00190288,0.0011417,-6.41315e-05,0.00114305,-0.00190423,-1.54974,0.00177755,0.0280213,1868,841,34.2566,-2.76275
651,183,34.2461,2.82733,-0.00198053,0.000850719,-0.00023763,0.000870525,-0.00200033,-1.48764,0.00169974,0.0254914,1875,841,34.2461,-2.82733
658,183,34.3175,2.91077,-0.00193647,0.000595733,-0.000483261,0.000684827,-0.00202556,-1.38848,0.00162741,0.0437534,1882,841,34.3175,-2.91075
665,183,34.377,2.98608,0,0,0,0,0,0,0,-1,1889,841,34.377,-2.98606
672,183,27.567,1.59607,0,0,0,0,0,0,0,-1,1896,841,27.567,-1.59606
679,183,27.5201,1.84119,0,0,0,0,0,0,0,-1,1903,841,27.5201,-1.84116
686,183,27.4651,2.08624,-0.00193551,-1.99757e-05,-0.000993202,0.000402028,-0.00235751,-1.16902,0.00172141,0.0231755,1910,841,27.4651,-2.08623
693,183,27.451,2.41968,-0.00161581,-5.74174e-05,-0.000994409,0.000426712,-0.00209994,-1.11772,0.00156175,0.0186679,1917,841,27.451,-2.41965
700,183,27.4081,2.79327,-0.0012416,-0.000207578,-0.00107508,0.000468346,-0.00191753,-1.00953,0.00145973,0.0167902,1924,841,27.408,-2.79325
707,183,27.3679,3.14136,-0.000955144,8.14168e-05,-0.00104256,0.00072742,-0.00160115,-1.01607,0.00137558,0.0122077,1931,841,27.3679,-3.14133
714,183,27.3855,3.48596,-0.000380847,0.000777938,-0.000734554,0.0011341,-0.00073701,-1.11933,0.00108837,0.0154402,1938,841,27.3855,-3.48598
721,183,27.3945,3.83667,0.000643857,0.00192148,-0.000515287,0.0021034,0.000461937,-1.23141,0.00127646,0.0135532,1945,841,27.3945,-3.83667
728,183,27.3544,4.18707,0.00141746,0.00253236,-0.000171248,0.00255807,0.00139175,-1.42177,0.00147881,0.011858,1952,841,27.3544,-4.18707
735,183,27.3562,4.53015,0.00213272,0.0025017,0.000385663,0.00274473,0.00188969,1.0085,0.00162177,0.0116611,1959,841,27.3562,-4.53015
742,183,27.3712,4.888,0.00284963,0.00191923,0.00118521,0.00365766,0.00111119,0.598385,0.00216527,0.0115923,1966,841,27.3713,-4.888
749,183,27.3251,5.39941,0.00369359,0.00028281,0.0023878,0.00492247,-0.000946069,0.475298,0.00363824,0.0341115,1973,841,27.3251,-5.39941
756,183,27.2737,5.89716,0,0,0,0,0,0,0,-1,1980,841,27.2736,-5.89717
763,183,27.6678,4.94983,0,0,0,0,0,0,0,-1,1987,841,27.6679,-4.94985
770,183,28.3512,5.37347,0,0,0,0,0,0,0,-1,1994,841,28.3512,-5.37347
777,183,28.8025,5.54272,0,0,0,0,0,0,0,-1,2001,841,28.8025,-5.54275
784,183,0,0,0,0,0,0,0,0,0,-1,2008,841,0,0
791,183,0,0,0,0,0,0,0,0,0,-1,2015,841,0,0
798,183,0,0,0,0,0,0,0,0,0,-1,2022,841,0,0
805,183,0,0,0,0,0,0,0,0,0,-1,2029,841,0,0
812,183,0,0,0,0,0,0,0,0,0,-1,2036,841,0,0
-700,176,0,0,0,0,0,0,0,0,0,-1,524,848,0,0
-693,176,0,0,0,0,0,0,0,0,0,-1,531,848,0,0
-686,176,0,0,0,0,0,0,0,0,0,-1,538,848,0,0
-679,176,0,0,0,0,0,0,0,0,0,-1,545,848,0,0
-672,176,0,0,0,0,0,0,0,0,0,-1,552,848,0,0
-665,176,-19.2002,3.34949,0,0,0,0,0,0,0,-1,559,848,-19.2002,-3.34948
-658,176,-18.6152,2.03979,0,0,0,0,0,0,0,-1,566,848,-18.6152,-2.03982
-651,176,-18.5168,2.65588,0,0,0,0,0,0,0,-1,573,848,-18.5168,-2.65588
-644,176,-18.6898,2.47369,0.00316439,0.0456679,0.0143408,0.0500539,-0.00122161,1.27399,0.0337839,0.049353,580,848,-18.6897,-2.47371
-637,176,-19.0032,2.50104,0.00155473,0.0377753,0.0136124,0.0423207,-0.00299067,1.24852,0.0292617,0.0484961,587,848,-19.0032,-2.50103
-630,176,-19.1705,2.45599,0.000270187,0.0300878,0.0123329,0.0345277,-0.0041697,1.22524,0.0245268,0.0438629,594,848,-19.1705,-2.45599
-623,176,-19.1824,2.59613,-0.000642366,0.0231588,0.0108055,0.0273324,-0.00481604,1.20219,0.020021,0.0407297,601,848,-19.1824,-2.59616
-616,176,-19.2435,2.5213,-0.00114461,0.0170566,0.00916695,0.0208732,-0.0049612,1.17628,0.0158305,0.0282594,608,848,-19.2435,-2.52127
-609,176,-19.2656,2.25446,-0.00141182,0.0119094,0.00752711,0.0152997,-0.00480213,1.1476,0.0121219,0.011893,615,848,-19.2656,-2.25443
-602,176,-19.2861,1.9259,-0.00150011,0.00786399,0.00597599,0.0107736,-0.00440977,1.11769,0.00901916,0.0119661,622,848,-19.2861,-1.92591
-595,176,-19.3016,1.56628,-0.00141107,0.00480277,0.00441887,0.00709764,-0.00370594,1.0918,0.00633908,0.011232,629,848,-19.3016,-1.56629
-588,176,-19.281,1.23749,-0.000935139,0.00177904,0.00305549,0.00376526,-0.00292136,0.994387,0.00387075,0.0117756,636,848,-19.281,-1.23749
-581,176,-19.3007,0.930054,-0.000487536,6.21208e-05,0.00204762,0.00185327,-0.00227869,0.852109,0.0023898,0.0117806,643,848,-19.3007,-0.93003
-574,176,-19.3141,0.582153,-0.000127089,-0.000646962,0.00132175,0.000960046,-0.0017341,0.688307,0.00157672,0.0157687,650,848,-19.3141,-0.582178
-567,176,-19.2081,0.363953,0.000377277,-0.000157882,0.00108506,0.00122726,-0.00100787,0.664509,0.00129253,0.0380887,657,848,-19.2081,-0.363976
-560,176,-19.3857,-0.0137939,0.000564109,0.000649748,0.00131618,0.00192381,-0.000709951,0.801659,0.00157351,0.0295528,664,848,-19.3857,0.0137949
-553,176,-19.3992,-0.399048,0,0,0,0,0,0,0,-1,671,848,-19.3992,0.399057
-546,176,-16.657,-0.403198,0,0,0,0,0,0,0,-1,678,848,-16.657,0.403182
-539,176,-22.7061,1.48657,0,0,0,0,0,0,0,-1,685,848,-22.7061,-1.48657
-532,176,-24.9151,0.755127,0,0,0,0,0,0,0,-1,692,848,-24.9151,-0.755121
-525,176,-24.8439,0.837341,0,0,0,0,0,0,0,-1,699,848,-24.8439,-0.837331
-518,176,-24.9211,0.674866,-0.00207638,0.00774166,0.00262204,0.00839803,-0.00273275,1.32551,0.00669808,0.0420807,706,848,-24.9211,-0.674867
-511,176,-24.95,0.626038,-0.00257009,0.00883825,0.00265623,0.00942639,-0.00315822,1.35289,0.00756018,0.0378112,713,848,-24.95,-0.626062
-504,176,-24.9287,0.758057,-0.0025675,0.00896489,0.00227677,0.0093981,-0.00300072,1.38277,0.00746933,0.0401392,720,848,-24.9287,-0.758076
-497,176,-24.7856,1.03766,-0.00115445,0.00772328,0.00122149,0.00788828,-0.00131944,1.43653,0.00574936,0.0409605,727,848,-24.7856,-1.03767
-490,176,-24.6367,1.01263,0.00238206,0.00412725,-0.00056814,0.00429591,0.00221341,-1.28222,0.00248063,0.0384025,734,848,-24.6367,-1.0126
-483,176,0,0,0,0,0,0,0,0,0,-1,741,848,0,0
-476,176,0,0,0,0,0,0,0,0,0,-1,748,848,0,0
-469,176,0,0,0,0,0,0,0,0,0,-1,755,848,0,0
-462,176,0,0,0,0,0,0,0,0,0,-1,762,848,0,0
-455,176,0,0,0,0,0,0,0,0,0,-1,769,848,0,0
-448,176,0,0,0,0,0,0,0,0,0,-1,776,848,0,0
-441,176,0,0,0,0,0,0,0,0,0,-1,783,848,0,0
-434,176,0,0,0,0,0,0,0,0,0,-1,790,848,0,0
-427,176,0,0,0,0,0,0,0,0,0,-1,797,848,0,0
-420,176,0,0,0,0,0,0,0,0,0,-1,804,848,0,0
-413,176,0,0,0,0,0,0,0,0,0,-1,811,848,0,0
-406,176,0,0,0,0,0,0,0,0,0,-1,818,848,0,0
-399,176,0,0,0,0,0,0,0,0,0,-1,825,848,0,0
-392,176,0,0,0,0,0,0,0,0,0,-1,832,848,0,0
-385,176,0,0,0,0,0,0,0,0,0,-1,839,848,0,0
-378,176,0,0,0,0,0,0,0,0,0,-1,846,848,0,0
-371,176,0,0,0,0,0,0,0,0,0,-1,853,848,0,0
-364,176,0,0,0,0,0,0,0,0,0,-1,860,848,0,0
-357,176,0,0,0,0,0,0,0,0,0,-1,867,848,0,0
-350,176,0,0,0,0,0,0,0,0,0,-1,874,848,0,0
-343,176,0,0,0,0,0,0,0,0,0,-1,881,848,0,0
-336,176,0,0,0,0,0,0,0,0,0,-1,888,848,0,0
-329,176,0,0,0,0,0,0,0,0,0,-1,895,848,0,0
-322,176,0,0,0,0,0,0,0,0,0,-1,902,848,0,0
-315,176,0,0,0,0,0,0,0,0,0,-1,909,848,0,0
-308,176,0,0,0,0,0,0,0,0,0,-1,916,848,0,0
-301,176,0,0,0,0,0,0,0,0,0,-1,923,848,0,0
-294,176,0,0,0,0,0,0,0,0,0,-1,930,848,0,0
-287,176,0,0,0,0,0,0,0,0,0,-1,937,848,0,0
-280,176,0,0,0,0,0,0,0,0,0,-1,944,848,0,0
-273,176,0,0,0,0,0,0,0,0,0,-1,951,848,0,0
-266,176,0,0,0,0,0,0,0,0,0,-1,958,848,0,0
-259,176,0,0,0,0,0,0,0,0,0,-1,965,848,0,0
-252,176,0,0,0,0,0,0,0,0,0,-1,972,848,0,0
-245,176,0,0,0,0,0,0,0,0,0,-1,979,848,0,0
-238,176,0,0,0,0,0,0,0,0,0,-1,986,848,0,0
-231,176,0,0,0,0,0,0,0,0,0,-1,993,848,0,0
-224,176,0,0,0,0,0,0,0,0,0,-1,1000,848,0,0
-217,176,0,0,0,0,0,0,0,0,0,-1,1007,848,0,0
-210,176,0,0,0,0,0,0,0,0,0,-1,1014,848,0,0
-203,176,0,0,0,0,0,0,0,0,0,-1,1021,848,0,0
-196,176,0,0,0,0,0,0,0,0,0,-1,1028,848,0,0
-189,176,0,0,0,0,0,0,0,0,0,-1,1035,848,0,0
-182,176,0,0,0,0,0,0,0,0,0,-1,1042,848,0,0
-175,176,0,0,0,0,0,0,0,0,0,-1,1049,848,0,0
-168,176,0,0,0,0,0,0,0,0,0,-1,1056,848,0,0
-161,176,0,0,0,0,0,0,0,0,0,-1,1063,848,0,0
-154,176,0,0,0,0,0,0,0,0,0,-1,1070,848,0,0
-147,176,0,0,0,0,0,0,0,0,0,-1,1077,848,0,0
-140,176,0,0,0,0,0,0,0,0,0,-1,1084,848,0,0
-133,176,0,0,0,0,0,0,0,0,0,-1,1091,848,0,0
-126,176,0,0,0,0,0,0,0,0,0,-1,1098,848,0,0
-119,176,0,0,0,0,0,0,0,0,0,-1,1105,848,0,0
-112,176,0,0,0,0,0,0,0,0,0,-1,1112,848,0,0
-105,176,0,0,0,0,0,0,0,0,0,-1,1119,848,0,0
-98,176,0,0,0,0,0,0,0,0,0,-1,1126,848,0,0
-91,176,0,0,0,0,0,0,0,0,0,-1,1133,848,0,0
-84,176,0,0,0,0,0,0,0,0,0,-1,1140,848,0,0
-77,176,0,0,0,0,0,0,0,0,0,-1,1147,848,0,0
-70,176,0,0,0,0,0,0,0,0,0,-1,1154,848,0,0
-63,176,0,0,0,0,0,0,0,0,0,-1,1161,848,0,0
-56,176,0,0,0,0,0,0,0,0,0,-1,1168,848,0,0
-49,176,0,0,0,0,0,0,0,0,0,-1,1175,848,0,0
-42,176,0,0,0,0,0,0,0,0,0,-1,1182,848,0,0
-35,176,0,0,0,0,0,0,0,0,0,-1,1189,848,0,0
-28,176,0,0,0,0,0,0,0,0,0,-1,1196,848,0,0
-21,176,0,0,0,0,0,0,0,0,0,-1,1203,848,0,0
-14,176,0,0,0,0,0,0,0,0,0,-1,1210,848,0,0
-7,176,0,0,0,0,0,0,0,0,0,-1,1217,848,0,0
0,176,0,0,0,0,0,0,0,0,0,-1,1224,848,0,0
7,176,0,0,0,0,0,0,0,0,0,-1,1231,848,0,0
14,176,0,0,0,0,0,0,0,0,0,-1,1238,848,0,0
21,176,0,0,0,0,0,0,0,0,0,-1,1245,848,0,0
28,176,0,0,0,0,0,0,0,0,0,-1,1252,848,0,0
35,176,0,0,0,0,0,0,0,0,0,-1,1259,848,0,0
42,176,0,0,0,0,0,0,0,0,0,-1,1266,848,0,0
49,176,0,0,0,0,0,0,0,0,0,-1,1273,848,0,0
56,176,0,0,0,0,0,0,0,0,0,-1,1280,848,0,0
63,176,0,0,0,0,0,0,0,0,0,-1,1287,848,0,0
70,176,0,0,0,0,0,0,0,0,0,-1,1294,848,0,0
77,176,0,0,0,0,0,0,0,0,0,-1,1301,848,0,0
84,176,0,0,0,0,0,0,0,0,0,-1,1308,848,0,0
91,176,0,0,0,0,0,0,0,0,0,-1,1315,848,0,0
98,176,0,0,0,0,0,0,0,0,0,-1,1322,848,0,0
105,176,0,0,0,0,0,0,0,0,0,-1,1329,848,0,0
112,176,0,0,0,0,0,0,0,0,0,-1,1336,848,0,0
119,176,0,0,0,0,0,0,0,0,0,-1,1343,848,0,0
126,176,0,0,0,0,0,0,0,0,0,-1,1350,848,0,0
133,176,0,0,0,0,0,0,0,0,0,-1,1357,848,0,0
140,176,0,0,0,0,0,0,0,0,0,-1,1364,848,0,0
147,176,0,0,0,0,0,0,0,0,0,-1,1371,848,0,0
154,176,0,0,0,0,0,0,0,0,0,-1,1378,848,0,0
161,176,0,0,0,0,0,0,0,0,0,-1,1385,848,0,0
168,176,0,0,0,0,0,0,0,0,0,-1,1392,848,0,0
175,176,0,0,0,0,0,0,0,0,0,-1,1399,848,0,0
182,176,0,0,0,0,0,0,0,0,0,-1,1406,848,0,0
189,176,0,0,0,0,0,0,0,0,0,-1,1413,848,0,0
196,176,0,0,0,0,0,0,0,0,0,-1,1420,848,0,0
203,176,0,0,0,0,0,0,0,0,0,-1,1427,848,0,0
210,176,0,0,0,0,0,0,0,0,0,-1,1434,848,0,0
217,176,0,0,0,0,0,0,0,0,0,-1,1441,848,0,0
224,176,0,0,0,0,0,0,0,0,0,-1,1448,848,0,0
231,176,0,0,0,0,0,0,0,0,0,-1,1455,848,0,0
238,176,0,0,0,0,0,0,0,0,0,-1,1462,848,0,0
245,176,0,0,0,0,0,0,0,0,0,-1,1469,848,0,0
252,176,0,0,0,0,0,0,0,0,0,-1,1476,848,0,0
259,176,0,0,0,0,0,0,0,0,0,-1,1483,848,0,0
266,176,0,0,0,0,0,0,0,0,0,-1,1490,848,0,0
273,176,0,0,0,0,0,0,0,0,0,-1,1497,848,0,0
280,176,0,0,0,0,0,0,0,0,0,-1,1504,848,0,0
287,176,0,0,0,0,0,0,0,0,0,-1,1511,848,0,0
294,176,0,0,0,0,0,0,0,0,0,-1,1518,848,0,0
301,176,0,0,0,0,0,0,0,0,0,-1,1525,848,0,0
308,176,0,0,0,0,0,0,0,0,0,-1,1532,848,0,0
315,176,0,0,0,0,0,0,0,0,0,-1,1539,848,0,0
322,176,0,0,0,0,0,0,0,0,0,-1,1546,848,0,0
329,176,0,0,0,0,0,0,0,0,0,-1,1553,848,0,0
336,176,0,0,0,0,0,0,0,0,0,-1,1560,848,0,0
343,176,0,0,0,0,0,0,0,0,0,-1,1567,848,0,0
350,176,0,0,0,0,0,0,0,0,0,-1,1574,848,0,0
357,176,0,0,0,0,0,0,0,0,0,-1,1581,848,0,0
364,176,0,0,0,0,0,0,0,0,0,-1,1588,848,0,0
371,176,0,0,0,0,0,0,0,0,0,-1,1595,848,0,0
378,176,0,0,0,0,0,0,0,0,0,-1,1602,848,0,0
385,176,0,0,0,0,0,0,0,0,0,-1,1609,848,0,0
392,176,0,0,0,0,0,0,0,0,0,-1,1616,848,0,0
399,176,0,0,0,0,0,0,0,0,0,-1,1623,848,0,0
406,176,0,0,0,0,0,0,0,0,0,-1,1630,848,0,0
413,176,0,0,0,0,0,0,0,0,0,-1,1637,848,0,0
420,176,0,0,0,0,0,0,0,0,0,-1,1644,848,0,0
427,176,0,0,0,0,0,0,0,0,0,-1,1651,848,0,0
434,176,0,0,0,0,0,0,0,0,0,-1,1658,848,0,0
441,176,0,0,0,0,0,0,0,0,0,-1,1665,848,0,0
448,176,0,0,0,0,0,0,0,0,0,-1,1672,848,0,0
455,176,0,0,0,0,0,0,0,0,0,-1,1679,848,0,0
462,176,0,0,0,0,0,0,0,0,0,-1,1686,848,0,0
469,176,0,0,0,0,0,0,0,0,0,-1,1693,848,0,0
476,176,0,0,0,0,0,0,0,0,0,-1,1700,848,0,0
483,176,0,0,0,0,0,0,0,0,0,-1,1707,848,0,0
490,176,0,0,0,0,0,0,0,0,0,-1,1714,848,0,0
497,176,0,0,0,0,0,0,0,0,0,-1,1721,848,0,0
504,176,0,0,0,0,0,0,0,0,0,-1,1728,848,0,0
511,176,0,0,0,0,0,0,0,0,0,-1,1735,848,0,0
518,176,0,0,0,0,0,0,0,0,0,-1,1742,848,0,0
525,176,0,0,0,0,0,0,0,0,0,-1,1749,848,0,0
532,176,0,0,0,0,0,0,0,0,0,-1,1756,848,0,0
539,176,0,0,0,0,0,0,0,0,0,-1,1763,848,0,0
546,176,0,0,0,0,0,0,0,0,0,-1,1770,848,0,0
553,176,0,0,0,0,0,0,0,0,0,-1,1777,848,0,0
560,176,0,0,0,0,0,0,0,0,0,-1,1784,848,0,0
567,176,0,0,0,0,0,0,0,0,0,-1,1791,848,0,0
574,176,0,0,0,0,0,0,0,0,0,-1,1798,848,0,0
581,176,0,0,0,0,0,0,0,0,0,-1,1805,848,0,0
588,176,0,0,0,0,0,0,0,0,0,-1,1812,848,0,0
595,176,0,0,0,0,0,0,0,0,0,-1,1819,848,0,0
602,176,0,0,0,0,0,0,0,0,0,-1,1826,848,0,0
609,176,34.1399,3.08075,-0.00209698,-0.00324951,-0.00321239,0.000590425,-0.00593692,-0.696648,0.00416871,0.0373573,1833,848,34.1399,-3.08074
616,176,34.0829,2.73993,-0.000932428,-0.00163364,-0.0017464,0.000498213,-0.00306428,-0.686336,0.00222757,0.0381603,1840,848,34.0828,-2.73996
623,176,34.2242,2.49438,-0.000512118,-0.000392794,-0.000751953,0.00030186,-0.00120677,-0.824987,0.00092176,0.0453353,1847,848,34.2242,-2.49436
630,176,34.49,2.68817,-0.000548262,0.000539684,-0.000164457,0.000564001,-0.000572578,-1.424,0.00065621,0.0416099,1854,848,34.49,-2.68816
637,176,34.4204,2.65063,-0.000874469,0.00102114,5.00734e-05,0.00102246,-0.000875791,1.54441,0.00109704,0.0313865,1861,848,34.4205,-2.65064
644,176,34.3038,2.71545,-0.00114639,0.00103224,4.08957e-05,0.00103301,-0.00114716,1.55203,0.00125929,0.031077,1868,848,34.3039,-2.71543
651,176,34.2903,2.80096,-0.00128969,0.000848017,-7.72238e-05,0.000850803,-0.00129248,-1.53473,0.00124615,0.0324882,1875,848,34.2902,-2.80097
658,176,34.3113,2.72723,-0.00131877,0.000633866,-0.000282747,0.000673984,-0.00135889,-1.42985,0.00119568,0.0365353,1882,848,34.3113,-2.72725
665,176,34.2986,2.6889,0,0,0,0,0,0,0,-1,1889,848,34.2986,-2.68891
672,176,16.9304,2.80719,0,0,0,0,0,0,0,-1,1896,848,16.9305,-2.80719
679,176,28.1343,1.74994,0,0,0,0,0,0,0,-1,1903,848,28.1342,-1.74996
686,176,27.9756,2.1405,-0.00156158,0.000103331,-0.000740452,0.00038499,-0.00184324,-1.20731,0.00137524,0.0327905,1910,848,27.9756,-2.14052
693,176,27.8429,2.50165,-0.00135618,3.9895e-06,-0.00075003,0.000336358,-0.00168855,-1.15366,0.00125296,0.0168506,1917,848,27.8429,-2.50163
700,176,27.7487,2.8446,-0.00107154,-0.000156069,-0.000896688,0.000392958,-0.00162057,-1.02139,0.00123243,0.0177986,1924,848,27.7487,-2.84459
707,176,27.7498,3.17542,-0.000856975,1.41972e-05,-0.000960987,0.000633709,-0.00147649,-0.998183,0.00125029,0.0137462,1931,848,27.7497,-3.17541
714,176,27.7343,3.4845,-0.000346453,0.000532948,-0.0008033,0.00100901,-0.000822518,-1.03581,0.00105926,0.0120283,1938,848,27.7343,-3.4845
721,176,27.7334,3.82953,0.000784423,0.00158508,-0.000726804,0.00201451,0.000354988,-1.03713,0.00124171,0.0111191,1945,848,27.7334,-3.8295
728,176,27.7269,4.20654,0.00166273,0.00202878,-0.000517691,0.00239485,0.00129667,-0.95531,0.00138425,0.0132365,1952,848,27.727,-4.20656
735,176,27.7157,4.53705,0.00255733,0.00179289,-8.04469e-05,0.00256571,0.00178452,-0.103722,0.0015186,0.0130756,1959,848,27.7157,-4.53702
742,176,27.7126,4.85681,0.00352601,0.00100719,0.000607405,0.00366483,0.000868372,0.224691,0.00221135,0.0174893,1966,848,27.7126,-4.85679
749,176,27.7061,5.17834,0.00472161,-0.000803234,0.00167628,0.00519043,-0.00127205,0.272708,0.00395312,0.0301582,1973,848,27.706,-5.17836
756,176,27.7665,5.41748,0.00568184,-0.00470008,0.0035061,0.00675496,-0.00577321,0.29702,0.00724054,0.0485107,1980,848,27.7664,-5.41746
763,176,27.9408,5.61035,0,0,0,0,0,0,0,-1,1987,848,27.9408,-5.61034
770,176,28.3997,4.42426,0,0,0,0,0,0,0,-1,1994,848,28.3997,-4.42425
777,176,28.1423,5.40625,0,0,0,0,0,0,0,-1,2001,848,28.1424,-5.40623
784,176,0,0,0,0,0,0,0,0,0,-1,2008,848,0,0
791,176,0,0,0,0,0,0,0,0,0,-1,2015,848,0,0
798,176,0,0,0,0,0,0,0,0,0,-1,2022,848,0,0
805,176,0,0,0,0,0,0,0,0,0,-1,2029,848,0,0
812,176,0,0,0,0,0,0,0,0,0,-1,2036,848,0,0
-700,169,0,0,0,0,0,0,0,0,0,-1,524,855,0,0
-693,169,0,0,0,0,0,0,0,0,0,-1,531,855,0,0
-686,169,0,0,0,0,0,0,0,0,0,-1,538,855,0,0
-679,169,0,0,0,0,0,0,0,0,0,-1,545,855,0,0
-672,169,0,0,0,0,0,0,0,0,0,-1,552,855,0,0
-665,169,-19.7497,3.74017,0,0,0,0,0,0,0,-1,559,855,-19.7497,-3.74017
-658,169,-19.6859,2.0144,0,0,0,0,0,0,0,-1,566,855,-19.6858,-2.0144
-651,169,-19.7596,2.1344,0,0,0,0,0,0,0,-1,573,855,-19.7597,-2.13442
-644,169,-19.7213,2.21649,0.00637339,0.0383869,0.0157231,0.0448175,-5.71627e-05,1.18257,0.0298974,0.0493784,580,855,-19.7213,-2.21652
-637,169,-19.6892,2.24481,0.00370461,0.0325093,0.0145035,0.0385466,-0.0023327,1.17635,0.0265095,0.0444805,587,855,-19.6892,-2.2448
-630,169,-19.754,2.34326,0.00164106,0.0263293,0.0128757,0.0318223,-0.00385186,1.16756,0.0226084,0.0444029,594,855,-19.754,-2.34328
-623,169,-19.7332,2.44574,0.000205699,0.0204604,0.0110947,0.0253549,-0.00468882,1.15532,0.0186636,0.0386054,601,855,-19.7332,-2.44573
-616,169,-19.6331,2.51031,-0.000656823,0.0150837,0.00927765,0.0193796,-0.00495274,1.13715,0.0148486,0.023113,608,855,-19.6331,-2.5103
-609,169,-19.6191,2.24927,-0.00114341,0.0104353,0.00749836,0.0141192,-0.00482729,1.11414,0.0113688,0.013708,615,855,-19.6191,-2.24928
-602,169,-19.6379,1.93433,-0.00133636,0.00673357,0.00583662,0.00979417,-0.00439696,1.08784,0.00838845,0.0132965,622,855,-19.6379,-1.93432
-595,169,-19.6502,1.58173,-0.00133803,0.00395397,0.00421503,0.00628469,-0.00366876,1.06569,0.00581241,0.0119337,629,855,-19.6502,-1.5817
-588,169,-19.6234,1.26849,-0.000932752,0.00121877,0.00280044,0.00314297,-0.00285695,0.968778,0.00346536,0.00971394,636,855,-19.6234,-1.26847
-581,169,-19.6479,0.957397,-0.000506661,-0.000312617,0.00182106,0.001414,-0.00223328,0.812012,0.00212339,0.0114179,643,855,-19.6479,-0.957383
-574,169,-19.7835,0.59906,-0.0001521,-0.000942531,0.00117984,0.000696958,-0.00179159,0.623785,0.00148237,0.0184871,650,855,-19.7835,-0.599048
-567,169,-19.6443,0.373962,0.000335358,-0.000572075,0.000937036,0.000922744,-0.00115946,0.559933,0.00120475,0.0330858,657,855,-19.6443,-0.373979
-560,169,-19.6896,0.115479,0.000630892,-3.5052e-06,0.00110268,0.00146109,-0.000833703,0.645349,0.0013413,0.0349803,664,855,-19.6896,-0.115485
-553,169,-19.5601,-0.418274,0.000574908,0.00077953,0.00153487,0.0022155,-0.00086106,0.818678,0.00183273,0.0496992,671,855,-19.5601,0.418249
-546,169,-19.0852,-1.05609,0,0,0,0,0,0,0,-1,678,855,-19.0852,1.05612
-539,169,-24.9126,0.753967,0,0,0,0,0,0,0,-1,685,855,-24.9126,-0.753994
-532,169,-24.8767,0.783875,0.000189932,0.00400061,0.00214872,0.00496708,-0.000776545,1.14812,0.00359828,0.0372086,692,855,-24.8767,-0.783861
-525,169,-24.8416,0.83252,-5.91201e-05,0.00514054,0.00247686,0.00613153,-0.0010501,1.19021,0.00447894,0.0449689,699,855,-24.8416,-0.832497
-518,169,-24.9384,0.728882,-0.000500983,0.00644051,0.0028045,0.00743197,-0.00149244,1.23098,0.0055198,0.042536,706,855,-24.9384,-0.72886
-511,169,-24.8654,0.653015,-0.000685291,0.00738114,0.00297379,0.00835894,-0.00166309,1.25313,0.00620177,0.0424272,713,855,-24.8654,-0.653004
-504,169,-24.7457,0.820435,-0.000447547,0.00727743,0.00265615,0.00810258,-0.0012727,1.26959,0.00587211,0.043368,720,855,-24.7457,-0.820418
-497,169,-24.8052,0.742798,0.00110231,0.00602676,0.00150748,0.00645158,0.000677489,1.29611,0.00409395,0.0425449,727,855,-24.8052,-0.742788
-490,169,0,0,0,0,0,0,0,0,0,-1,734,855,0,0
-483,169,0,0,0,0,0,0,0,0,0,-1,741,855,0,0
-476,169,0,0,0,0,0,0,0,0,0,-1,748,855,0,0
-469,169,0,0,0,0,0,0,0,0,0,-1,755,855,0,0
-462,169,0,0,0,0,0,0,0,0,0,-1,762,855,0,0
-455,169,0,0,0,0,0,0,0,0,0,-1,769,855,0,0
-448,169,0,0,0,0,0,0,0,0,0,-1,776,855,0,0
-441,169,0,0,0,0,0,0,0,0,0,-1,783,855,0,0
-434,169,0,0,0,0,0,0,0,0,0,-1,790,855,0,0
-427,169,0,0,0,0,0,0,0,0,0,-1,797,855,0,0
-420,169,0,0,0,0,0,0,0,0,0,-1,804,855,0,0
-413,169,0,0,0,0,0,0,0,0,0,-1,811,855,0,0
-406,169,0,0,0,0,0,0,0,0,0,-1,818,855,0,0
-399,169,0,0,0,0,0,0,0,0,0,-1,825,855,0,0
-392,169,0,0,0,0,0,0,0,0,0,-1,832,855,0,0
-385,169,0,0,0,0,0,0,0,0,0,-1,839,855,0,0
-378,169,0,0,0,0,0,0,0,0,0,-1,846,855,0,0
-371,169,0,0,0,0,0,0,0,0,0,-1,853,855,0,0
-364,169,0,0,0,0,0,0,0,0,0,-1,860,855,0,0
-357,169,0,0,0,0,0,0,0,0,0,-1,867,855,0,0
-350,169,0,0,0,0,0,0,0,0,0,-1,874,855,0,0
-343,169,0,0,0,0,0,0,0,0,0,-1,881,855,0,0
-336,169,0,0,0,0,0,0,0,0,0,-1,888,855,0,0
-329,169,0,0,0,0,0,0,0,0,0,-1,895,855,0,0
-322,169,0,0,0,0,0,0,0,0,0,-1,902,855,0,0
-315,169,0,0,0,0,0,0,0,0,0,-1,909,855,0,0
-308,169,0,0,0,0,0,0,0,0,0,-1,916,855,0,0
-301,169,0,0,0,0,0,0,0,0,0,-1,923,855,0,0
-294,169,0,0,0,0,0,0,0,0,0,-1,930,855,0,0
-287,169,0,0,0,0,0,0,0,0,0,-1,937,855,0,0
-280,169,0,0,0,0,0,0,0,0,0,-1,944,855,0,0
-273,169,0,0,0,0,0,0,0,0,0,-1,951,855,0,0
-266,169,0,0,0,0,0,0,0,0,0,-1,958,855,0,0
-259,169,0,0,0,0,0,0,0,0,0,-1,965,855,0,0
-252,169,0,0,0,0,0,0,0,0,0,-1,972,855,0,0
-245,169,0,0,0,0,0,0,0,0,0,-1,979,855,0,0
-238,169,0,0,0,0,0,0,0,0,0,-1,986,855,0,0
-231,169,0,0,0,0,0,0,0,0,0,-1,993,855,0,0
-224,169,0,0,0,0,0,0,0,0,0,-1,1000,855,0,0
-217,169,0,0,0,0,0,0,0,0,0,-1,1007,855,0,0
-210,169,0,0,0,0,0,0,0,0,0,-1,1014,855,0,0
-203,169,0,0,0,0,0,0,0,0,0,-1,1021,855,0,0
-196,169,0,0,0,0,0,0,0,0,0,-1,1028,855,0,0
-189,169,0,0,0,0,0,0,0,0,0,-1,1035,855,0,0
-182,169,0,0,0,0,0,0,0,0,0,-1,1042,855,0,0
-175,169,0,0,0,0,0,0,0,0,0,-1,1049,855,0,0
-168,169,0,0,0,0,0,0,0,0,0,-1,1056,855,0,0
-161,169,0,0,0,0,0,0,0,0,0,-1,1063,855,0,0
-154,169,0,0,0,0,0,0,0,0,0,-1,1070,855,0,0
-147,169,0,0,0,0,0,0,0,0,0,-1,1077,855,0,0
-140,169,0,0,0,0,0,0,0,0,0,-1,1084,855,0,0
-133,169,0,0,0,0,0,0,0,0,0,-1,1091,855,0,0
-126,169,0,0,0,0,0,0,0,0,0,-1,1098,855,0,0
-119,169,0,0,0,0,0,0,0,0,0,-1,1105,855,0,0
-112,169,0,0,0,0,0,0,0,0,0,-1,1112,855,0,0
-105,169,0,0,0,0,0,0,0,0,0,-1,1119,855,0,0
-98,169,0,0,0,0,0,0,0,0,0,-1,1126,855,0,0
-91,169,0,0,0,0,0,0,0,0,0,-1,1133,855,0,0
-84,169,0,0,0,0,0,0,0,0,0,-1,1140,855,0,0
-77,169,0,0,0,0,0,0,0,0,0,-1,1147,855,0,0
-70,169,0,0,0,0,0,0,0,0,0,-1,1154,855,0,0
-63,169,0,0,0,0,0,0,0,0,0,-1,1161,855,0,0
-56,169,0,0,0,0,0,0,0,0,0,-1,1168,855,0,0
-49,169,0,0,0,0,0,0,0,0,0,-1,1175,855,0,0
-42,169,0,0,0,0,0,0,0,0,0,-1,1182,855,0,0
-35,169,0,0,0,0,0,0,0,0,0,-1,1189,855,0,0
-28,169,0,0,0,0,0,0,0,0,0,-1,1196,855,0,0
-21,169,0,0,0,0,0,0,0,0,0,-1,1203,855,0,0
-14,169,0,0,0,0,0,0,0,0,0,-1,1210,855,0,0
-7,169,0,0,0,0,0,0,0,0,0,-1,1217,855,0,0
0,169,0,0,0,0,0,0,0,0,0,-1,1224,855,0,0
7,169,0,0,0,0,0,0,0,0,0,-1,1231,855,0,0
14,169,0,0,0,0,0,0,0,0,0,-1,1238,855,0,0
21,169,0,0,0,0,0,0,0,0,0,-1,1245,855,0,0
28,169,0,0,0,0,0,0,0,0,0,-1,1252,855,0,0
35,169,0,0,0,0,0,0,0,0,0,-1,1259,855,0,0
42,169,0,0,0,0,0,0,0,0,0,-1,1266,855,0,0
49,169,0,0,0,0,0,0,0,0,0,-1,1273,855,0,0
56,169,0,0,0,0,0,0,0,0,0,-1,1280,855,0,0
63,169,0,0,0,0,0,0,0,0,0,-1,1287,855,0,0
70,169,0,0,0,0,0,0,0,0,0,-1,1294,855,0,0
77,169,0,0,0,0,0,0,0,0,0,-1,1301,855,0,0
84,169,0,0,0,0,0,0,0,0,0,-1,1308,855,0,0
91,169,0,0,0,0,0,0,0,0,0,-1,1315,855,0,0
98,169,0,0,0,0,0,0,0,0,0,-1,1322,855,0,0
105,169,0,0,0,0,0,0,0,0,0,-1,1329,855,0,0
112,169,0,0,0,0,0,0,0,0,0,-1,1336,855,0,0
119,169,0,0,0,0,0,0,0,0,0,-1,1343,855,0,0
126,169,0,0,0,0,0,0,0,0,0,-1,1350,855,0,0
133,169,0,0,0,0,0,0,0,0,0,-1,1357,855,0,0
140,169,0,0,0,0,0,0,0,0,0,-1,1364,855,0,0
147,169,0,0,0,0,0,0,0,0,0,-1,1371,855,0,0
154,169,0,0,0,0,0,0,0,0,0,-1,1378,855,0,0
161,169,0,0,0,0,0,0,0,0,0,-1,1385,855,0,0
168,169,0,0,0,0,0,0,0,0,0,-1,1392,855,0,0
175,169,0,0,0,0,0,0,0,0,0,-1,1399,855,0,0
182,169,0,0,0,0,0,0,0,0,0,-1,1406,855,0,0
189,169,0,0,0,0,0,0,0,0,0,-1,1413,855,0,0
196,169,0,0,0,0,0,0,0,0,0,-1,1420,855,0,0
203,169,0,0,0,0,0,0,0,0,0,-1,1427,855,0,0
210,169,0,0,0,0,0,0,0,0,0,-1,1434,855,0,0
217,169,0,0,0,0,0,0,0,0,0,-1,1441,855,0,0
224,169,0,0,0,0,0,0,0,0,0,-1,1448,855,0,0
231,169,0,0,0,0,0,0,0,0,0,-1,1455,855,0,0
238,169,0,0,0,0,0,0,0,0,0,-1,1462,855,0,0
245,169,0,0,0,0,0,0,0,0,0,-1,1469,855,0,0
252,169,0,0,0,0,0,0,0,0,0,-1,1476,855,0,0
259,169,0,0,0,0,0,0,0,0,0,-1,1483,855,0,0
266,169,0,0,0,0,0,0,0,0,0,-1,1490,855,0,0
273,169,0,0,0,0,0,0,0,0,0,-1,1497,855,0,0
280,169,0,0,0,0,0,0,0,0,0,-1,1504,855,0,0
287,169,0,0,0,0,0,0,0,0,0,-1,1511,855,0,0
294,169,0,0,0,0,0,0,0,0,0,-1,1518,855,0,0
301,169,0,0,0,0,0,0,0,0,0,-1,1525,855,0,0
308,169,0,0,0,0,0,0,0,0,0,-1,1532,855,0,0
315,169,0,0,0,0,0,0,0,0,0,-1,1539,855,0,0
322,169,0,0,0,0,0,0,0,0,0,-1,1546,855,0,0
329,169,0,0,0,0,0,0,0,0,0,-1,1553,855,0,0
336,169,0,0,0,0,0,0,0,0,0,-1,1560,855,0,0
343,169,0,0,0,0,0,0,0,0,0,-1,1567,855,0,0
350,169,0,0,0,0,0,0,0,0,0,-1,1574,855,0,0
357,169,0,0,0,0,0,0,0,0,0,-1,1581,855,0,0
364,169,0,0,0,0,0,0,0,0,0,-1,1588,855,0,0
371,169,0,0,0,0,0,0,0,0,0,-1,1595,855,0,0
378,169,0,0,0,0,0,0,0,0,0,-1,1602,855,0,0
385,169,0,0,0,0,0,0,0,0,0,-1,1609,855,0,0
392,169,0,0,0,0,0,0,0,0,0,-1,1616,855,0,0
399,169,0,0,0,0,0,0,0,0,0,-1,1623,855,0,0
406,169,0,0,0,0,0,0,0,0,0,-1,1630,855,0,0
413,169,0,0,0,0,0,0,0,0,0,-1,1637,855,0,0
420,169,0,0,0,0,0,0,0,0,0,-1,1644,855,0,0
427,169,0,0,0,0,0,0,0,0,0,-1,1651,855,0,0
434,169,0,0,0,0,0,0,0,0,0,-1,1658,855,0,0
441,169,0,0,0,0,0,0,0,0,0,-1,1665,855,0,0
448,169,0,0,0,0,0,0,0,0,0,-1,1672,855,0,0
455,169,0,0,0,0,0,0,0,0,0,-1,1679,855,0,0
462,169,0,0,0,0,0,0,0,0,0,-1,1686,855,0,0
469,169,0,0,0,0,0,0,0,0,0,-1,1693,855,0,0
476,169,0,0,0,0,0,0,0,0,0,-1,1700,855,0,0
483,169,0,0,0,0,0,0,0,0,0,-1,1707,855,0,0
490,169,0,0,0,0,0,0,0,0,0,-1,1714,855,0,0
497,169,0,0,0,0,0,0,0,0,0,-1,1721,855,0,0
504,169,0,0,0,0,0,0,0,0,0,-1,1728,855,0,0
511,169,0,0,0,0,0,0,0,0,0,-1,1735,855,0,0
518,169,0,0,0,0,0,0,0,0,0,-1,1742,855,0,0
525,169,0,0,0,0,0,0,0,0,0,-1,1749,855,0,0
532,169,0,0,0,0,0,0,0,0,0,-1,1756,855,0,0
539,169,0,0,0,0,0,0,0,0,0,-1,1763,855,0,0
546,169,0,0,0,0,0,0,0,0,0,-1,1770,855,0,0
553,169,0,0,0,0,0,0,0,0,0,-1,1777,855,0,0
560,169,0,0,0,0,0,0,0,0,0,-1,1784,855,0,0
567,169,0,0,0,0,0,0,0,0,0,-1,1791,855,0,0
574,169,0,0,0,0,0,0,0,0,0,-1,1798,855,0,0
581,169,0,0,0,0,0,0,0,0,0,-1,1805,855,0,0
588,169,0,0,0,0,0,0,0,0,0,-1,1812,855,0,0
595,169,0,0,0,0,0,0,0,0,0,-1,1819,855,0,0
602,169,0,0,0,0,0,0,0,0,0,-1,1826,855,0,0
609,169,0,0,0,0,0,0,0,0,0,-1,1833,855,0,0
616,169,34.1606,2.70538,-0.00109581,-0.00320388,-0.00245553,0.000522347,-0.00482204,-0.582666,0.0034022,0.0398485,1840,855,34.1606,-2.70539
623,169,34.2925,2.52344,-0.000359584,-0.00148741,-0.00125571,0.000453021,-0.00230001,-0.574354,0.00170454,0.0464268,1847,855,34.2925,-2.52343
630,169,34.4231,2.94366,-7.07463e-05,-9.35949e-05,-0.000414018,0.000332005,-0.000496347,-0.771605,0.000481376,0.0434448,1854,855,34.4231,-2.94367
637,169,34.4409,2.8493,-0.000190296,0.000815025,4.12662e-05,0.000816716,-0.000191987,1.52984,0.000618487,0.0346722,1861,855,34.4409,-2.84929
644,169,34.3611,2.88599,-0.000382846,0.0010986,0.000187735,0.00112202,-0.000406267,1.44669,0.000914045,0.0344433,1868,855,34.361,-2.88598
651,169,34.2822,2.91968,-0.000518436,0.00103636,0.000150543,0.0010508,-0.000532878,1.47516,0.000930496,0.0361857,1875,855,34.2822,-2.91969
658,169,34.2924,2.75671,-0.000562592,0.000834825,-1.33155e-05,0.000834952,-0.000562719,-1.56127,0.000812032,0.0349896,1882,855,34.2923,-2.75668
665,169,34.3425,2.7171,0,0,0,0,0,0,0,-1,1889,855,34.3426,-2.71712
672,169,31.2465,2.96387,0,0,0,0,0,0,0,-1,1896,855,31.2464,-2.9639
679,169,28.202,1.75153,0,0,0,0,0,0,0,-1,1903,855,28.2021,-1.7515
686,169,28.233,2.13007,-0.000957443,0.000250859,-0.000466727,0.000410143,-0.00111673,-1.24191,0.00091246,0.0337867,1910,855,28.2331,-2.13006
693,169,28.2173,2.51111,-0.000886816,5.0919e-05,-0.000483895,0.00025584,-0.00109174,-1.17021,0.000826413,0.0159943,1917,855,28.2173,-2.51112
700,169,28.2069,2.87146,-0.000704983,-0.00010757,-0.000685209,0.000341211,-0.00115376,-0.990946,0.000904623,0.0144858,1924,855,28.2069,-2.87147
707,169,28.1541,3.17505,-0.000572128,-3.75093e-05,-0.000835041,0.000571964,-0.0011816,-0.940302,0.00103261,0.0152681,1931,855,28.1541,-3.17503
714,169,28.1041,3.49091,-0.000161252,0.000322481,-0.000816777,0.000932451,-0.000771221,-0.929346,0.000985083,0.0142369,1938,855,28.1041,-3.49092
721,169,28.093,3.84937,0.00101571,0.00126978,-0.000848396,0.0020006,0.000284891,-0.859714,0.00124964,0.0154627,1945,855,28.093,-3.84938
728,169,28.0953,4.21478,0.00198072,0.00157573,-0.000749771,0.00255486,0.00100159,-0.653505,0.00148647,0.0123518,1952,855,28.0954,-4.21478
735,169,28.0652,4.5498,0.00304608,0.00116851,-0.000423062,0.003137,0.00107759,-0.211697,0.00184048,0.0174386,1959,855,28.0652,-4.54982
742,169,28.0564,4.86102,0.00425374,0.000209092,0.00016575,0.00426052,0.000202311,0.0408887,0.00277537,0.0152525,1966,855,28.0564,-4.861
749,169,28.012,5.0658,0.00578274,-0.00173217,0.00112044,0.00594623,-0.00189566,0.144898,0.00472456,0.0252604,1973,855,28.012,-5.06582
756,169,28.1443,4.82495,0.0071996,-0.00566041,0.00281517,0.00778886,-0.00624967,0.206338,0.00812137,0.0457138,1980,855,28.1443,-4.82498
763,169,28.2563,4.6557,0,0,0,0,0,0,0,-1,1987,855,28.2563,-4.65572
770,169,28.4713,4.60815,0,0,0,0,0,0,0,-1,1994,855,28.4714,-4.60816
777,169,28.7366,4.58527,0,0,0,0,0,0,0,-1,2001,855,28.7366,-4.58526
784,169,27.1073,5.28949,0,0,0,0,0,0,0,-1,2008,855,27.1072,-5.28951
791,169,0,0,0,0,0,0,0,0,0,-1,2015,855,0,0
798,169,0,0,0,0,0,0,0,0,0,-1,2022,855,0,0
805,169,0,0,0,0,0,0,0,0,0,-1,2029,855,0,0
812,169,0,0,0,0,0,0,0,0,0,-1,2036,855,0,0
-700,162,0,0,0,0,0,0,0,0,0,-1,524,862,0,0
-693,162,0,0,0,0,0,0,0,0,0,-1,531,862,0,0
-686,162,0,0,0,0,0,0,0,0,0,-1,538,862,0,0
-679,162,0,0,0,0,0,0,0,0,0,-1,545,862,0,0
-672,162,0,0,0,0,0,0,0,0,0,-1,552,862,0,0
-665,162,-20.5167,4.08093,0,0,0,0,0,0,0,-1,559,862,-20.5168,-4.08094
-658,162,-20.1886,2.30579,0.0207772,0.0260706,0.0154278,0.0390771,0.0077707,0.870347,0.0238863,0.0448951,566,862,-20.1886,-2.30577
-651,162,-20.0365,1.80847,0.0140946,0.0284286,0.0160664,0.0388541,0.00366914,0.995197,0.0247704,0.0489895,573,862,-20.0365,-1.80849
-644,162,-20.0959,1.79529,0.00931289,0.0273014,0.0155553,0.0362756,0.000338675,1.04752,0.0240716,0.0449937,580,862,-20.096,-1.79529
-637,162,-20.0455,1.91278,0.00582,0.0242864,0.0142753,0.0320543,-0.00194789,1.07246,0.0220476,0.0430416,587,862,-20.0455,-1.91279
-630,162,-19.999,2.26111,0.00311138,0.0203778,0.012619,0.0270342,-0.00354499,1.0854,0.0193132,0.0437559,594,862,-19.999,-2.26112
-623,162,-20.0406,2.54163,0.001196,0.0162286,0.0108155,0.0218831,-0.00445853,1.08906,0.0162797,0.0350131,601,862,-20.0407,-2.54165
-616,162,-19.9475,2.51581,-2.50545e-05,0.0121006,0.00897818,0.0168713,-0.00479578,1.08237,0.0131411,0.0204235,608,862,-19.9475,-2.51581
-609,162,-19.9604,2.22565,-0.000746367,0.00833906,0.00716889,0.0122834,-0.00469066,1.0678,0.0101215,0.0133002,615,862,-19.9604,-2.22568
-602,162,-19.9772,1.91321,-0.0010787,0.00526046,0.00548245,0.00842361,-0.00424185,1.04749,0.00744407,0.0114222,622,862,-19.9772,-1.91319
-595,162,-19.9771,1.5918,-0.00121005,0.00308879,0.00388453,0.00537892,-0.00350018,1.0381,0.00516446,0.0108813,629,862,-19.9771,-1.59177
-588,162,-19.9814,1.26617,-0.000914077,0.000819786,0.00247566,0.00257592,-0.00267021,0.953817,0.00302902,0.0108948,636,862,-19.9815,-1.26619
-581,162,-20.0795,0.963074,-0.000550651,-0.000463288,0.00154627,0.00103992,-0.00205386,0.799519,0.00181789,0.0169091,643,862,-20.0795,-0.963104
-574,162,-20.2308,0.634705,-0.00025422,-0.000995996,0.00099461,0.000436404,-0.00168662,0.606935,0.00129464,0.0250977,650,862,-20.2308,-0.634699
-567,162,-20.1755,0.288208,0.000156563,-0.000687902,0.000752869,0.000597517,-0.00112886,0.529838,0.00101234,0.036913,657,862,-20.1755,-0.288235
-560,162,-20.0321,-0.19696,0.000588665,-0.000318252,0.000854486,0.00110256,-0.000832147,0.541454,0.00112063,0.0332013,664,862,-20.0321,0.196964
-553,162,-19.824,-0.602844,0.000732014,0.000313199,0.00124932,0.00178936,-0.000744146,0.702362,0.00150364,0.0415282,671,862,-19.824,0.60285
-546,162,-19.6274,-1.04797,0,0,0,0,0,0,0,-1,678,862,-19.6274,1.04799
-539,162,-24.8467,0.781372,0,0,0,0,0,0,0,-1,685,862,-24.8467,-0.7814
-532,162,-24.836,0.784485,0.000948946,0.00317134,0.00200933,0.00435626,-0.000235975,1.03798,0.00298594,0.0359062,692,862,-24.836,-0.784514
-525,162,-24.8566,0.804077,0.000872507,0.00422826,0.00243838,0.00551028,-0.00040951,1.08675,0.00381735,0.0400699,699,862,-24.8566,-0.804068
-518,162,-24.9376,0.757996,0.000652245,0.00538721,0.00290015,0.0067635,-0.000724043,1.12771,0.0047687,0.0422629,706,862,-24.9376,-0.758005
-511,162,-24.8854,0.522156,0.000599607,0.00608341,0.00322237,0.00757255,-0.000889532,1.13791,0.00536949,0.045921,713,862,-24.8854,-0.52218
-504,162,-24.7877,0.478088,0.000672016,0.00571269,0.0029883,0.00710157,-0.000716869,1.13572,0.00499053,0.0461904,720,862,-24.7877,-0.478063
-497,162,-24.8725,0.545166,0.00175211,0.00468191,0.0017877,0.00552824,0.000905774,1.12864,0.00342374,0.0444474,727,862,-24.8725,-0.545146
-490,162,0,0,0,0,0,0,0,0,0,-1,734,862,0,0
-483,162,0,0,0,0,0,0,0,0,0,-1,741,862,0,0
-476,162,0,0,0,0,0,0,0,0,0,-1,748,862,0,0
-469,162,0,0,0,0,0,0,0,0,0,-1,755,862,0,0
-462,162,0,0,0,0,0,0,0,0,0,-1,762,862,0,0
-455,162,0,0,0,0,0,0,0,0,0,-1,769,862,0,0
-448,162,0,0,0,0,0,0,0,0,0,-1,776,862,0,0
-441,162,0,0,0,0,0,0,0,0,0,-1,783,862,0,0
-434,162,0,0,0,0,0,0,0,0,0,-1,790,862,0,0
-427,162,0,0,0,0,0,0,0,0,0,-1,797,862,0,0
-420,162,0,0,0,0,0,0,0,0,0,-1,804,862,0,0
-413,162,0,0,0,0,0,0,0,0,0,-1,811,862,0,0
-406,162,0,0,0,0,0,0,0,0,0,-1,818,862,0,0
-399,162,0,0,0,0,0,0,0,0,0,-1,825,862,0,0
-392,162,0,0,0,0,0,0,0,0,0,-1,832,862,0,0
-385,162,0,0,0,0,0,0,0,0,0,-1,839,862,0,0
-378,162,0,0,0,0,0,0,0,0,0,-1,846,862,0,0
-371,162,0,0,0,0,0,0,0,0,0,-1,853,862,0,0
-364,162,0,0,0,0,0,0,0,0,0,-1,860,862,0,0
-357,162,0,0,0,0,0,0,0,0,0,-1,867,862,0,0
-350,162,0,0,0,0,0,0,0,0,0,-1,874,862,0,0
-343,162,0,0,0,0,0,0,0,0,0,-1,881,862,0,0
-336,162,0,0,0,0,0,0,0,0,0,-1,888,862,0,0
-329,162,0,0,0,0,0,0,0,0,0,-1,895,862,0,0
-322,162,0,0,0,0,0,0,0,0,0,-1,902,862,0,0
-315,162,0,0,0,0,0,0,0,0,0,-1,909,862,0,0
-308,162,0,0,0,0,0,0,0,0,0,-1,916,862,0,0
-301,162,0,0,0,0,0,0,0,0,0,-1,923,862,0,0
-294,162,0,0,0,0,0,0,0,0,0,-1,930,862,0,0
-287,162,0,0,0,0,0,0,0,0,0,-1,937,862,0,0
-280,162,0,0,0,0,0,0,0,0,0,-1,944,862,0,0
-273,162,0,0,0,0,0,0,0,0,0,-1,951,862,0,0
-266,162,0,0,0,0,0,0,0,0,0,-1,958,862,0,0
-259,162,0,0,0,0,0,0,0,0,0,-1,965,862,0,0
-252,162,0,0,0,0,0,0,0,0,0,-1,972,862,0,0
-245,162,0,0,0,0,0,0,0,0,0,-1,979,862,0,0
-238,162,0,0,0,0,0,0,0,0,0,-1,986,862,0,0
-231,162,0,0,0,0,0,0,0,0,0,-1,993,862,0,0
-224,162,0,0,0,0,0,0,0,0,0,-1,1000,862,0,0
-217,162,0,0,0,0,0,0,0,0,0,-1,1007,862,0,0
-210,162,0,0,0,0,0,0,0,0,0,-1,1014,862,0,0
-203,162,0,0,0,0,0,0,0,0,0,-1,1021,862,0,0
-196,162,0,0,0,0,0,0,0,0,0,-1,1028,862,0,0
-189,162,0,0,0,0,0,0,0,0,0,-1,1035,862,0,0
-182,162,0,0,0,0,0,0,0,0,0,-1,1042,862,0,0
-175,162,0,0,0,0,0,0,0,0,0,-1,1049,862,0,0
-168,162,0,0,0,0,0,0,0,0,0,-1,1056,862,0,0
-161,162,0,0,0,0,0,0,0,0,0,-1,1063,862,0,0
-154,162,0,0,0,0,0,0,0,0,0,-1,1070,862,0,0
-147,162,0,0,0,0,0,0,0,0,0,-1,1077,862,0,0
-140,162,0,0,0,0,0,0,0,0,0,-1,1084,862,0,0
-133,162,0,0,0,0,0,0,0,0,0,-1,1091,862,0,0
-126,162,0,0,0,0,0,0,0,0,0,-1,1098,862,0,0
-119,162,0,0,0,0,0,0,0,0,0,-1,1105,862,0,0
-112,162,0,0,0,0,0,0,0,0,0,-1,1112,862,0,0
-105,162,0,0,0,0,0,0,0,0,0,-1,1119,862,0,0
-98,162,0,0,0,0,0,0,0,0,0,-1,1126,862,0,0
-91,162,0,0,0,0,0,0,0,0,0,-1,1133,862,0,0
-84,162,0,0,0,0,0,0,0,0,0,-1,1140,862,0,0
-77,162,0,0,0,0,0,0,0,0,0,-1,1147,862,0,0
-70,162,0,0,0,0,0,0,0,0,0,-1,1154,862,0,0
-63,162,0,0,0,0,0,0,0,0,0,-1,1161,862,0,0
-56,162,0,0,0,0,0,0,0,0,0,-1,1168,862,0,0
-49,162,0,0,0,0,0,0,0,0,0,-1,1175,862,0,0
-42,162,0,0,0,0,0,0,0,0,0,-1,1182,862,0,0
-35,162,0,0,0,0,0,0,0,0,0,-1,1189,862,0,0
-28,162,0,0,0,0,0,0,0,0,0,-1,1196,862,0,0
-21,162,0,0,0,0,0,0,0,0,0,-1,1203,862,0,0
-14,162,0,0,0,0,0,0,0,0,0,-1,1210,862,0,0
-7,162,0,0,0,0,0,0,0,0,0,-1,1217,862,0,0
0,162,0,0,0,0,0,0,0,0,0,-1,1224,862,0,0
7,162,0,0,0,0,0,0,0,0,0,-1,1231,862,0,0
14,162,0,0,0,0,0,0,0,0,0,-1,1238,862,0,0
21,162,0,0,0,0,0,0,0,0,0,-1,1245,862,0,0
28,162,0,0,0,0,0,0,0,0,0,-1,1252,862,0,0
35,162,0,0,0,0,0,0,0,0,0,-1,1259,862,0,0
42,162,0,0,0,0,0,0,0,0,0,-1,1266,862,0,0
49,162,0,0,0,0,0,0,0,0,0,-1,1273,862,0,0
56,162,0,0,0,0,0,0,0,0,0,-1,1280,862,0,0
63,162,0,0,0,0,0,0,0,0,0,-1,1287,862,0,0
70,162,0,0,0,0,0,0,0,0,0,-1,1294,862,0,0
77,162,0,0,0,0,0,0,0,0,0,-1,1301,862,0,0
84,162,0,0,0,0,0,0,0,0,0,-1,1308,862,0,0
91,162,0,0,0,0,0,0,0,0,0,-1,1315,862,0,0
98,162,0,0,0,0,0,0,0,0,0,-1,1322,862,0,0
105,162,0,0,0,0,0,0,0,0,0,-1,1329,862,0,0
112,162,0,0,0,0,0,0,0,0,0,-1,1336,862,0,0
119,162,0,0,0,0,0,0,0,0,0,-1,1343,862,0,0
126,162,0,0,0,0,0,0,0,0,0,-1,1350,862,0,0
133,162,0,0,0,0,0,0,0,0,0,-1,1357,862,0,0
140,162,0,0,0,0,0,0,0,0,0,-1,1364,862,0,0
147,162,0,0,0,0,0,0,0,0,0,-1,1371,862,0,0
154,162,0,0,0,0,0,0,0,0,0,-1,1378,862,0,0
161,162,0,0,0,0,0,0,0,0,0,-1,1385,862,0,0
168,162,0,0,0,0,0,0,0,0,0,-1,1392,862,0,0
175,162,0,0,0,0,0,0,0,0,0,-1,1399,862,0,0
182,162,0,0,0,0,0,0,0,0,0,-1,1406,862,0,0
189,162,0,0,0,0,0,0,0,0,0,-1,1413,862,0,0
196,162,0,0,0,0,0,0,0,0,0,-1,1420,862,0,0
203,162,0,0,0,0,0,0,0,0,0,-1,1427,862,0,0
210,162,0,0,0,0,0,0,0,0,0,-1,1434,862,0,0
217,162,0,0,0,0,0,0,0,0,0,-1,1441,862,0,0
224,162,0,0,0,0,0,0,0,0,0,-1,1448,862,0,0
231,162,0,0,0,0,0,0,0,0,0,-1,1455,862,0,0
238,162,0,0,0,0,0,0,0,0,0,-1,1462,862,0,0
245,162,0,0,0,0,0,0,0,0,0,-1,1469,862,0,0
252,162,0,0,0,0,0,0,0,0,0,-1,1476,862,0,0
259,162,0,0,0,0,0,0,0,0,0,-1,1483,862,0,0
266,162,0,0,0,0,0,0,0,0,0,-1,1490,862,0,0
273,162,0,0,0,0,0,0,0,0,0,-1,1497,862,0,0
280,162,0,0,0,0,0,0,0,0,0,-1,1504,862,0,0
287,162,0,0,0,0,0,0,0,0,0,-1,1511,862,0,0
294,162,0,0,0,0,0,0,0,0,0,-1,1518,862,0,0
301,162,0,0,0,0,0,0,0,0,0,-1,1525,862,0,0
308,162,0,0,0,0,0,0,0,0,0,-1,1532,862,0,0
315,162,0,0,0,0,0,0,0,0,0,-1,1539,862,0,0
322,162,0,0,0,0,0,0,0,0,0,-1,1546,862,0,0
329,162,0,0,0,0,0,0,0,0,0,-1,1553,862,0,0
336,162,0,0,0,0,0,0,0,0,0,-1,1560,862,0,0
343,162,0,0,0,0,0,0,0,0,0,-1,1567,862,0,0
350,162,0,0,0,0,0,0,0,0,0,-1,1574,862,0,0
357,162,0,0,0,0,0,0,0,0,0,-1,1581,862,0,0
364,162,0,0,0,0,0,0,0,0,0,-1,1588,862,0,0
371,162,0,0,0,0,0,0,0,0,0,-1,1595,862,0,0
378,162,0,0,0,0,0,0,0,0,0,-1,1602,862,0,0
385,162,0,0,0,0,0,0,0,0,0,-1,1609,862,0,0
392,162,0,0,0,0,0,0,0,0,0,-1,1616,862,0,0
399,162,0,0,0,0,0,0,0,0,0,-1,1623,862,0,0
406,162,0,0,0,0,0,0,0,0,0,-1,1630,862,0,0
413,162,0,0,0,0,0,0,0,0,0,-1,1637,862,0,0
420,162,0,0,0,0,0,0,0,0,0,-1,1644,862,0,0
427,162,0,0,0,0,0,0,0,0,0,-1,1651,862,0,0
434,162,0,0,0,0,0,0,0,0,0,-1,1658,862,0,0
441,162,0,0,0,0,0,0,0,0,0,-1,1665,862,0,0
448,162,0,0,0,0,0,0,0,0,0,-1,1672,862,0,0
455,162,0,0,0,0,0,0,0,0,0,-1,1679,862,0,0
462,162,0,0,0,0,0,0,0,0,0,-1,1686,862,0,0
469,162,0,0,0,0,0,0,0,0,0,-1,1693,862,0,0
476,162,0,0,0,0,0,0,0,0,0,-1,1700,862,0,0
483,162,0,0,0,0,0,0,0,0,0,-1,1707,862,0,0
490,162,0,0,0,0,0,0,0,0,0,-1,1714,862,0,0
497,162,0,0,0,0,0,0,0,0,0,-1,1721,862,0,0
504,162,0,0,0,0,0,0,0,0,0,-1,1728,862,0,0
511,162,0,0,0,0,0,0,0,0,0,-1,1735,862,0,0
518,162,0,0,0,0,0,0,0,0,0,-1,1742,862,0,0
525,162,0,0,0,0,0,0,0,0,0,-1,1749,862,0,0
532,162,0,0,0,0,0,0,0,0,0,-1,1756,862,0,0
539,162,0,0,0,0,0,0,0,0,0,-1,1763,862,0,0
546,162,0,0,0,0,0,0,0,0,0,-1,1770,862,0,0
553,162,0,0,0,0,0,0,0,0,0,-1,1777,862,0,0
560,162,0,0,0,0,0,0,0,0,0,-1,1784,862,0,0
567,162,0,0,0,0,0,0,0,0,0,-1,1791,862,0,0
574,162,0,0,0,0,0,0,0,0,0,-1,1798,862,0,0
581,162,0,0,0,0,0,0,0,0,0,-1,1805,862,0,0
588,162,0,0,0,0,0,0,0,0,0,-1,1812,862,0,0
595,162,0,0,0,0,0,0,0,0,0,-1,1819,862,0,0
602,162,0,0,0,0,0,0,0,0,0,-1,1826,862,0,0
609,162,0,0,0,0,0,0,0,0,0,-1,1833,862,0,0
616,162,34.2375,2.66547,-0.000915641,-0.00420747,-0.0028721,0.000748728,-0.00587184,-0.525207,0.00418652,0.044034,1840,862,34.2376,-2.66548
623,162,34.1489,2.59845,-9.99051e-05,-0.00233264,-0.00168006,0.000800872,-0.00323342,-0.492154,0.0024663,0.0446654,1847,862,34.1489,-2.59847
630,162,34.2031,2.6463,0.000304999,-0.000804385,-0.000809165,0.000731343,-0.00123073,-0.48493,0.00114497,0.0415961,1854,862,34.2032,-2.64627
637,162,34.2595,2.8222,0.000250671,0.000320229,-0.000270925,0.000558598,1.23024e-05,-0.849235,0.000368366,0.0388472,1861,862,34.2595,-2.82223
644,162,34.2898,2.84186,2.95707e-05,0.000788962,-1.76682e-05,0.000789373,2.91599e-05,-1.54755,0.000516803,0.0368151,1868,862,34.2898,-2.84186
651,162,34.2419,2.8974,-0.000152611,0.000849689,3.19704e-05,0.000850708,-0.00015363,1.53894,0.000624678,0.0344659,1875,862,34.242,-2.89742
658,162,34.2721,2.77985,-0.000244534,0.000704627,-5.36373e-05,0.000707648,-0.000247555,-1.51452,0.000572415,0.0333758,1882,862,34.2721,-2.77986
665,162,34.3248,2.69385,-0.000354731,0.000582575,-0.000104232,0.000594026,-0.000366183,-1.46137,0.000559555,0.0402803,1889,862,34.3249,-2.69382
672,162,34.3568,2.65082,0,0,0,0,0,0,0,-1,1896,862,34.3568,-2.65081
679,162,26.5077,2.54785,0,0,0,0,0,0,0,-1,1903,862,26.5077,-2.54787
686,162,28.3986,2.08698,0,0,0,0,0,0,0,-1,1910,862,28.3986,-2.08697
693,162,28.5227,2.5376,-0.000765616,-5.08759e-05,-0.000371239,0.000107052,-0.000923544,-1.16858,0.000654306,0.0194574,1917,862,28.5227,-2.53763
700,162,28.5676,2.86792,-0.000651206,-0.000166774,-0.000577093,0.000216874,-0.00103485,-0.984092,0.00077241,0.0174088,1924,862,28.5676,-2.86794
707,162,28.5331,3.17798,-0.000545205,-0.000140252,-0.000763227,0.000446899,-0.00113236,-0.915057,0.000939976,0.0132242,1931,862,28.5331,-3.178
714,162,28.4678,3.5069,-0.000112678,0.000121418,-0.000820637,0.000833312,-0.000824572,-0.856236,0.000957184,0.0174706,1938,862,28.4677,-3.5069
721,162,28.411,3.90216,0.00113805,0.000934899,-0.000959009,0.00200085,7.21003e-05,-0.732637,0.00131053,0.0300964,1945,862,28.411,-3.90216
728,162,28.3965,4.2265,0.00219344,0.00110224,-0.000977726,0.0027675,0.000528186,-0.530904,0.00169657,0.022023,1952,862,28.3965,-4.22649
735,162,28.4353,4.56073,0.00344388,0.000534048,-0.000779881,0.00363972,0.000338208,-0.246028,0.00232197,0.0104841,1959,862,28.4354,-4.56071
742,162,28.3981,4.87787,0.00490868,-0.000587267,-0.00031194,0.00492633,-0.000604915,-0.0565162,0.00350331,0.0125447,1966,862,28.398,-4.87786
749,162,28.334,5.18329,0.00677369,-0.00263011,0.000532461,0.00680374,-0.00266016,0.0563817,0.00563586,0.0179028,1973,862,28.334,-5.18328
756,162,28.3394,5.38928,0.00869192,-0.00650601,0.00209459,0.00897532,-0.0067894,0.134481,0.00913088,0.0405425,1980,862,28.3393,-5.38931
763,162,28.3514,5.99524,0,0,0,0,0,0,0,-1,1987,862,28.3515,-5.99526
770,162,28.4066,5.86987,0,0,0,0,0,0,0,-1,1994,862,28.4066,-5.86986
777,162,27.9515,6.16821,0,0,0,0,0,0,0,-1,2001,862,27.9515,-6.16821
784,162,27.4618,6.45099,0,0,0,0,0,0,0,-1,2008,862,27.4618,-6.45099
791,162,0,0,0,0,0,0,0,0,0,-1,2015,862,0,0
798,162,0,0,0,0,0,0,0,0,0,-1,2022,862,0,0
805,162,0,0,0,0,0,0,0,0,0,-1,2029,862,0,0
812,162,0,0,0,0,0,0,0,0,0,-1,2036,862,0,0
-700,155,0,0,0,0,0,0,0,0,0,-1,524,869,0,0
-693,155,0,0,0,0,0,0,0,0,0,-1,531,869,0,0
-686,155,0,0,0,0,0,0,0,0,0,-1,538,869,0,0
-679,155,0,0,0,0,0,0,0,0,0,-1,545,869,0,0
-672,155,0,0,0,0,0,0,0,0,0,-1,552,869,0,0
-665,155,-21.1336,2.9184,0,0,0,0,0,0,0,-1,559,869,-21.1336,-2.9184
-658,155,-20.779,2.27997,0.0231752,0.010087,0.0131194,0.0312921,0.00197014,0.554051,0.0202367,0.0432176,566,869,-20.779,-2.27996
-651,155,-20.6353,1.7627,0.016052,0.0155238,0.0140638,0.0298542,0.00172163,0.776009,0.0193544,0.0441018,573,869,-20.6353,-1.76268
-644,155,-20.4255,1.53851,0.0108282,0.0172524,0.0138492,0.0282571,-0.000176601,0.89935,0.0188972,0.04331,580,869,-20.4255,-1.53853
-637,155,-20.4292,1.50934,0.00692226,0.0166976,0.0128599,0.0255673,-0.00194746,0.967003,0.0177297,0.0449319,587,869,-20.4292,-1.50935
-630,155,-20.2624,2.28253,0,0,0,0,0,0,0,-1,594,869,-20.2624,-2.28252
-623,155,-20.2405,2.88934,0.00170734,0.0122544,0.00985922,0.0181618,-0.00420011,1.03098,0.0137239,0.0278345,601,869,-20.2405,-2.88933
-616,155,-20.2603,2.52704,0.000294166,0.00930587,0.00817568,0.0141351,-0.0045351,1.03725,0.0112442,0.015025,608,869,-20.2603,-2.52703
-609,155,-20.2801,2.20667,-0.000547689,0.00640982,0.00648172,0.0102873,-0.00442519,1.03169,0.00871613,0.0130036,615,869,-20.2801,-2.20665
-602,155,-20.2895,1.91528,-0.00094207,0.00396016,0.00489813,0.00698624,-0.00396814,1.01739,0.00640403,0.0120047,622,869,-20.2895,-1.91531
-595,155,-20.3096,1.59796,-0.00112694,0.00234982,0.00344136,0.00446694,-0.00324406,1.01927,0.00447057,0.0116005,629,869,-20.3097,-1.59797
-588,155,-20.3134,1.27997,-0.000912256,0.000582119,0.00214185,0.00210337,-0.0024335,0.953224,0.00262167,0.0130821,636,869,-20.3134,-1.27995
-581,155,-20.4431,1.05432,-0.000631339,-0.000470699,0.00131826,0.000769683,-0.00187172,0.815825,0.00156863,0.0227078,643,869,-20.4431,-1.05432
-574,155,-20.5198,0.789795,-0.000412569,-0.000927087,0.000852424,0.00022057,-0.00156023,0.638846,0.00112093,0.0296719,650,869,-20.5198,-0.789782
-567,155,-20.4554,0.298584,-6.73446e-05,-0.000666635,0.00059673,0.000300748,-0.00103473,0.552717,0.000808924,0.0291168,657,869,-20.4554,-0.298594
-560,155,-20.3494,-0.125427,0.000394173,-0.000498544,0.000642814,0.000730404,-0.000834775,0.481925,0.000904326,0.0245162,664,869,-20.3494,0.125407
-553,155,-20.1896,-0.734924,0,0,0,0,0,0,0,-1,671,869,-20.1896,0.734905
-546,155,-22.7988,0.873657,0,0,0,0,0,0,0,-1,678,869,-22.7988,-0.873645
-539,155,-24.8591,0.699097,0,0,0,0,0,0,0,-1,685,869,-24.859,-0.69907
-532,155,-24.8649,0.735962,0.00113832,0.00227318,0.00181481,0.0036072,-0.0001957,0.936916,0.00247261,0.0376363,692,869,-24.8649,-0.735971
-525,155,-24.8566,0.916321,0.00114331,0.00317807,0.00230045,0.00467607,-0.000354691,0.993595,0.00324208,0.0394088,699,869,-24.8566,-0.916338
-518,155,-24.9218,1.06763,0.00107961,0.00413173,0.00283651,0.00582663,-0.000615294,1.03219,0.00410492,0.0428319,706,869,-24.9217,-1.06764
-511,155,-24.8122,0.389648,0.00110993,0.00460588,0.00319575,0.00650047,-0.000784658,1.03565,0.00461748,0.0429921,713,869,-24.8122,-0.389666
-504,155,-25.0757,1.28326,0.00102434,0.00436116,0.00284225,0.0059885,-0.000602995,1.0508,0.00420776,0.0442828,720,869,-25.0757,-1.28327
-497,155,0,0,0,0,0,0,0,0,0,-1,727,869,0,0
-490,155,0,0,0,0,0,0,0,0,0,-1,734,869,0,0
-483,155,0,0,0,0,0,0,0,0,0,-1,741,869,0,0
-476,155,0,0,0,0,0,0,0,0,0,-1,748,869,0,0
-469,155,0,0,0,0,0,0,0,0,0,-1,755,869,0,0
-462,155,0,0,0,0,0,0,0,0,0,-1,762,869,0,0
-455,155,0,0,0,0,0,0,0,0,0,-1,769,869,0,0
-448,155,0,0,0,0,0,0,0,0,0,-1,776,869,0,0
-441,155,0,0,0,0,0,0,0,0,0,-1,783,869,0,0
-434,155,0,0,0,0,0,0,0,0,0,-1,790,869,0,0
-427,155,0,0,0,0,0,0,0,0,0,-1,797,869,0,0
-420,155,0,0,0,0,0,0,0,0,0,-1,804,869,0,0
-413,155,0,0,0,0,0,0,0,0,0,-1,811,869,0,0
-406,155,0,0,0,0,0,0,0,0,0,-1,818,869,0,0
-399,155,0,0,0,0,0,0,0,0,0,-1,825,869,0,0
-392,155,0,0,0,0,0,0,0,0,0,-1,832,869,0,0
-385,155,0,0,0,0,0,0,0,0,0,-1,839,869,0,0
-378,155,0,0,0,0,0,0,0,0,0,-1,846,869,0,0
-371,155,0,0,0,0,0,0,0,0,0,-1,853,869,0,0
-364,155,0,0,0,0,0,0,0,0,0,-1,860,869,0,0
-357,155,0,0,0,0,0,0,0,0,0,-1,867,869,0,0
-350,155,0,0,0,0,0,0,0,0,0,-1,874,869,0,0
-343,155,0,0,0,0,0,0,0,0,0,-1,881,869,0,0
-336,155,0,0,0,0,0,0,0,0,0,-1,888,869,0,0
-329,155,0,0,0,0,0,0,0,0,0,-1,895,869,0,0
-322,155,0,0,0,0,0,0,0,0,0,-1,902,869,0,0
-315,155,0,0,0,0,0,0,0,0,0,-1,909,869,0,0
-308,155,0,0,0,0,0,0,0,0,0,-1,916,869,0,0
-301,155,0,0,0,0,0,0,0,0,0,-1,923,869,0,0
-294,155,0,0,0,0,0,0,0,0,0,-1,930,869,0,0
-287,155,0,0,0,0,0,0,0,0,0,-1,937,869,0,0
-280,155,0,0,0,0,0,0,0,0,0,-1,944,869,0,0
-273,155,0,0,0,0,0,0,0,0,0,-1,951,869,0,0
-266,155,0,0,0,0,0,0,0,0,0,-1,958,869,0,0
-259,155,0,0,0,0,0,0,0,0,0,-1,965,869,0,0
-252,155,0,0,0,0,0,0,0,0,0,-1,972,869,0,0
-245,155,0,0,0,0,0,0,0,0,0,-1,979,869,0,0
-238,155,0,0,0,0,0,0,0,0,0,-1,986,869,0,0
-231,155,0,0,0,0,0,0,0,0,0,-1,993,869,0,0
-224,155,0,0,0,0,0,0,0,0,0,-1,1000,869,0,0
-217,155,0,0,0,0,0,0,0,0,0,-1,1007,869,0,0
-210,155,0,0,0,0,0,0,0,0,0,-1,1014,869,0,0
-203,155,0,0,0,0,0,0,0,0,0,-1,1021,869,0,0
-196,155,0,0,0,0,0,0,0,0,0,-1,1028,869,0,0
-189,155,0,0,0,0,0,0,0,0,0,-1,1035,869,0,0
-182,155,0,0,0,0,0,0,0,0,0,-1,1042,869,0,0
-175,155,0,0,0,0,0,0,0,0,0,-1,1049,869,0,0
-168,155,0,0,0,0,0,0,0,0,0,-1,1056,869,0,0
-161,155,0,0,0,0,0,0,0,0,0,-1,1063,869,0,0
-154,155,0,0,0,0,0,0,0,0,0,-1,1070,869,0,0
-147,155,0,0,0,0,0,0,0,0,0,-1,1077,869,0,0
-140,155,0,0,0,0,0,0,0,0,0,-1,1084,869,0,0
-133,155,0,0,0,0,0,0,0,0,0,-1,1091,869,0,0
-126,155,0,0,0,0,0,0,0,0,0,-1,1098,869,0,0
-119,155,0,0,0,0,0,0,0,0,0,-1,1105,869,0,0
-112,155,0,0,0,0,0,0,0,0,0,-1,1112,869,0,0
-105,155,0,0,0,0,0,0,0,0,0,-1,1119,869,0,0
-98,155,0,0,0,0,0,0,0,0,0,-1,1126,869,0,0
-91,155,0,0,0,0,0,0,0,0,0,-1,1133,869,0,0
-84,155,0,0,0,0,0,0,0,0,0,-1,1140,869,0,0
-77,155,0,0,0,0,0,0,0,0,0,-1,1147,869,0,0
-70,155,0,0,0,0,0,0,0,0,0,-1,1154,869,0,0
-63,155,0,0,0,0,0,0,0,0,0,-1,1161,869,0,0
-56,155,0,0,0,0,0,0,0,0,0,-1,1168,869,0,0
-49,155,0,0,0,0,0,0,0,0,0,-1,1175,869,0,0
-42,155,0,0,0,0,0,0,0,0,0,-1,1182,869,0,0
-35,155,0,0,0,0,0,0,0,0,0,-1,1189,869,0,0
-28,155,0,0,0,0,0,0,0,0,0,-1,1196,869,0,0
-21,155,0,0,0,0,0,0,0,0,0,-1,1203,869,0,0
-14,155,0,0,0,0,0,0,0,0,0,-1,1210,869,0,0
-7,155,0,0,0,0,0,0,0,0,0,-1,1217,869,0,0
0,155,0,0,0,0,0,0,0,0,0,-1,1224,869,0,0
7,155,0,0,0,0,0,0,0,0,0,-1,1231,869,0,0
14,155,0,0,0,0,0,0,0,0,0,-1,1238,869,0,0
21,155,0,0,0,0,0,0,0,0,0,-1,1245,869,0,0
28,155,0,0,0,0,0,0,0,0,0,-1,1252,869,0,0
35,155,0,0,0,0,0,0,0,0,0,-1,1259,869,0,0
42,155,0,0,0,0,0,0,0,0,0,-1,1266,869,0,0
49,155,0,0,0,0,0,0,0,0,0,-1,1273,869,0,0
56,155,0,0,0,0,0,0,0,0,0,-1,1280,869,0,0
63,155,0,0,0,0,0,0,0,0,0,-1,1287,869,0,0
70,155,0,0,0,0,0,0,0,0,0,-1,1294,869,0,0
77,155,0,0,0,0,0,0,0,0,0,-1,1301,869,0,0
84,155,0,0,0,0,0,0,0,0,0,-1,1308,869,0,0
91,155,0,0,0,0,0,0,0,0,0,-1,1315,869,0,0
98,155,0,0,0,0,0,0,0,0,0,-1,1322,869,0,0
105,155,0,0,0,0,0,0,0,0,0,-1,1329,869,0,0
112,155,0,0,0,0,0,0,0,0,0,-1,1336,869,0,0
119,155,0,0,0,0,0,0,0,0,0,-1,1343,869,0,0
126,155,0,0,0,0,0,0,0,0,0,-1,1350,869,0,0
133,155,0,0,0,0,0,0,0,0,0,-1,1357,869,0,0
140,155,0,0,0,0,0,0,0,0,0,-1,1364,869,0,0
147,155,0,0,0,0,0,0,0,0,0,-1,1371,869,0,0
154,155,0,0,0,0,0,0,0,0,0,-1,1378,869,0,0
161,155,0,0,0,0,0,0,0,0,0,-1,1385,869,0,0
168,155,0,0,0,0,0,0,0,0,0,-1,1392,869,0,0
175,155,0,0,0,0,0,0,0,0,0,-1,1399,869,0,0
182,155,0,0,0,0,0,0,0,0,0,-1,1406,869,0,0
189,155,0,0,0,0,0,0,0,0,0,-1,1413,869,0,0
196,155,0,0,0,0,0,0,0,0,0,-1,1420,869,0,0
203,155,0,0,0,0,0,0,0,0,0,-1,1427,869,0,0
210,155,0,0,0,0,0,0,0,0,0,-1,1434,869,0,0
217,155,0,0,0,0,0,0,0,0,0,-1,1441,869,0,0
224,155,0,0,0,0,0,0,0,0,0,-1,1448,869,0,0
231,155,0,0,0,0,0,0,0,0,0,-1,1455,869,0,0
238,155,0,0,0,0,0,0,0,0,0,-1,1462,869,0,0
245,155,0,0,0,0,0,0,0,0,0,-1,1469,869,0,0
252,155,0,0,0,0,0,0,0,0,0,-1,1476,869,0,0
259,155,0,0,0,0,0,0,0,0,0,-1,1483,869,0,0
266,155,0,0,0,0,0,0,0,0,0,-1,1490,869,0,0
273,155,0,0,0,0,0,0,0,0,0,-1,1497,869,0,0
280,155,0,0,0,0,0,0,0,0,0,-1,1504,869,0,0
287,155,0,0,0,0,0,0,0,0,0,-1,1511,869,0,0
294,155,0,0,0,0,0,0,0,0,0,-1,1518,869,0,0
301,155,0,0,0,0,0,0,0,0,0,-1,1525,869,0,0
308,155,0,0,0,0,0,0,0,0,0,-1,1532,869,0,0
315,155,0,0,0,0,0,0,0,0,0,-1,1539,869,0,0
322,155,0,0,0,0,0,0,0,0,0,-1,1546,869,0,0
329,155,0,0,0,0,0,0,0,0,0,-1,1553,869,0,0
336,155,0,0,0,0,0,0,0,0,0,-1,1560,869,0,0
343,155,0,0,0,0,0,0,0,0,0,-1,1567,869,0,0
350,155,0,0,0,0,0,0,0,0,0,-1,1574,869,0,0
357,155,0,0,0,0,0,0,0,0,0,-1,1581,869,0,0
364,155,0,0,0,0,0,0,0,0,0,-1,1588,869,0,0
371,155,0,0,0,0,0,0,0,0,0,-1,1595,869,0,0
378,155,0,0,0,0,0,0,0,0,0,-1,1602,869,0,0
385,155,0,0,0,0,0,0,0,0,0,-1,1609,869,0,0
392,155,0,0,0,0,0,0,0,0,0,-1,1616,869,0,0
399,155,0,0,0,0,0,0,0,0,0,-1,1623,869,0,0
406,155,0,0,0,0,0,0,0,0,0,-1,1630,869,0,0
413,155,0,0,0,0,0,0,0,0,0,-1,1637,869,0,0
420,155,0,0,0,0,0,0,0,0,0,-1,1644,869,0,0
427,155,0,0,0,0,0,0,0,0,0,-1,1651,869,0,0
434,155,0,0,0,0,0,0,0,0,0,-1,1658,869,0,0
441,155,0,0,0,0,0,0,0,0,0,-1,1665,869,0,0
448,155,0,0,0,0,0,0,0,0,0,-1,1672,869,0,0
455,155,0,0,0,0,0,0,0,0,0,-1,1679,869,0,0
462,155,0,0,0,0,0,0,0,0,0,-1,1686,869,0,0
469,155,0,0,0,0,0,0,0,0,0,-1,1693,869,0,0
476,155,0,0,0,0,0,0,0,0,0,-1,1700,869,0,0
483,155,0,0,0,0,0,0,0,0,0,-1,1707,869,0,0
490,155,0,0,0,0,0,0,0,0,0,-1,1714,869,0,0
497,155,0,0,0,0,0,0,0,0,0,-1,1721,869,0,0
504,155,0,0,0,0,0,0,0,0,0,-1,1728,869,0,0
511,155,0,0,0,0,0,0,0,0,0,-1,1735,869,0,0
518,155,0,0,0,0,0,0,0,0,0,-1,1742,869,0,0
525,155,0,0,0,0,0,0,0,0,0,-1,1749,869,0,0
532,155,0,0,0,0,0,0,0,0,0,-1,1756,869,0,0
539,155,0,0,0,0,0,0,0,0,0,-1,1763,869,0,0
546,155,0,0,0,0,0,0,0,0,0,-1,1770,869,0,0
553,155,0,0,0,0,0,0,0,0,0,-1,1777,869,0,0
560,155,0,0,0,0,0,0,0,0,0,-1,1784,869,0,0
567,155,0,0,0,0,0,0,0,0,0,-1,1791,869,0,0
574,155,0,0,0,0,0,0,0,0,0,-1,1798,869,0,0
581,155,0,0,0,0,0,0,0,0,0,-1,1805,869,0,0
588,155,0,0,0,0,0,0,0,0,0,-1,1812,869,0,0
595,155,0,0,0,0,0,0,0,0,0,-1,1819,869,0,0
602,155,0,0,0,0,0,0,0,0,0,-1,1826,869,0,0
609,155,0,0,0,0,0,0,0,0,0,-1,1833,869,0,0
616,155,34.3042,2.71393,-0.00072204,-0.00456756,-0.0032766,0.00115429,-0.00644389,-0.520064,0.0047279,0.0492774,1840,869,34.3042,-2.71394
623,155,34.1034,2.64886,0.000166964,-0.00275804,-0.0020527,0.00122488,-0.00381595,-0.475873,0.00303578,0.044643,1847,869,34.1034,-2.64883
630,155,34.0363,2.69757,0.000628174,-0.00135977,-0.00116217,0.00116346,-0.00189506,-0.431625,0.00178259,0.0453068,1854,869,34.0363,-2.69756
637,155,34.0889,2.61951,0.000602987,-0.000269186,-0.000585795,0.000897193,-0.000563391,-0.465433,0.000850578,0.0427363,1861,869,34.0888,-2.61953
644,155,34.2021,2.72662,0.000315514,0.000273406,-0.000255763,0.000551088,3.7832e-05,-0.744331,0.000355453,0.0378776,1868,869,34.2021,-2.7266
651,155,34.2289,2.84412,4.23581e-05,0.000442851,-0.000126329,0.00047937,5.83954e-06,-1.28939,0.000317651,0.0346015,1875,869,34.2289,-2.84411
658,155,34.2633,2.76807,-0.000118371,0.000380672,-0.000129828,0.000412426,-0.000150125,-1.33092,0.000336352,0.0289035,1882,869,34.2634,-2.76805
665,155,34.2646,2.71643,-0.000261318,0.0003118,-0.000124498,0.000337676,-0.000287194,-1.36587,0.000361162,0.0339128,1889,869,34.2646,-2.71645
672,155,34.2579,2.65295,0,0,0,0,0,0,0,-1,1896,869,34.258,-2.65298
679,155,33.6697,2.96954,0,0,0,0,0,0,0,-1,1903,869,33.6697,-2.96952
686,155,28.6953,2.33856,0,0,0,0,0,0,0,-1,1910,869,28.6953,-2.33856
693,155,28.7806,2.56134,-0.000762158,-0.000137315,-0.000273259,-3.46726e-05,-0.0008648,-1.21148,0.00056533,0.0289061,1917,869,28.7806,-2.56137
700,155,28.8998,2.91211,-0.000704987,-0.000178373,-0.000458106,8.67053e-05,-0.000970065,-1.04623,0.000677464,0.0215722,1924,869,28.8998,-2.91213
707,155,28.9772,3.28864,-0.000604603,-0.000166075,-0.000655078,0.00030546,-0.00107614,-0.946895,0.000838013,0.0156929,1931,869,28.9772,-3.28862
714,155,28.9248,3.55737,-0.000109249,5.09868e-05,-0.000766278,0.000741324,-0.000799586,-0.837486,0.000889857,0.0300802,1938,869,28.9248,-3.55736
721,155,28.7675,3.89423,0.0012051,0.000773799,-0.000966978,0.00198018,-1.28394e-06,-0.675686,0.00132055,0.0279225,1945,869,28.7675,-3.8942
728,155,28.7671,4.25159,0.00224494,0.000859342,-0.00110297,0.00285464,0.000249642,-0.504977,0.00182558,0.0194422,1952,869,28.767,-4.25158
735,155,28.7927,4.56067,0.00357299,0.000253591,-0.00104451,0.00387431,-4.77287e-05,-0.280855,0.00259893,0.0144619,1959,869,28.7927,-4.56069
742,155,28.7698,4.89325,0.00518375,-0.000882533,-0.000746731,0.00527432,-0.0009731,-0.120695,0.00388145,0.0161923,1966,869,28.7697,-4.89325
749,155,28.6963,5.19305,0.00724247,-0.00284763,-9.03752e-05,0.00724328,-0.00284844,-0.00895586,0.0060078,0.0151512,1973,869,28.6962,-5.19305
756,155,28.6882,5.57672,0.00949204,-0.00644527,0.0012255,0.00958572,-0.00653896,0.0762972,0.00936482,0.0259772,1980,869,28.6882,-5.57675
763,155,28.658,5.99133,0.0115749,-0.0125872,0.00350467,0.012073,-0.0130852,0.141174,0.014529,0.0445285,1987,869,28.6579,-5.99131
770,155,28.6309,6.29102,0,0,0,0,0,0,0,-1,1994,869,28.6309,-6.29104
777,155,28.3918,6.87122,0.0117558,-0.0365622,0.0124499,0.014775,-0.0395815,0.23792,0.0324538,0.0468579,2001,869,28.3918,-6.87123
784,155,28.1156,7.79828,0.00748396,-0.0562358,0.0196761,0.0130701,-0.0618219,0.276624,0.0461919,0.04494,2008,869,28.1157,-7.79825
791,155,0,0,0,0,0,0,0,0,0,-1,2015,869,0,0
798,155,0,0,0,0,0,0,0,0,0,-1,2022,869,0,0
805,155,0,0,0,0,0,0,0,0,0,-1,2029,869,0,0
812,155,0,0,0,0,0,0,0,0,0,-1,2036,869,0,0
-700,148,0,0,0,0,0,0,0,0,0,-1,524,876,0,0
-693,148,0,0,0,0,0,0,0,0,0,-1,531,876,0,0
-686,148,0,0,0,0,0,0,0,0,0,-1,538,876,0,0
-679,148,0,0,0,0,0,0,0,0,0,-1,545,876,0,0
-672,148,-21.2548,1.38818,0,0,0,0,0,0,0,-1,552,876,-21.2548,-1.3882
-665,148,-21.6377,1.68481,0,0,0,0,0,0,0,-1,559,876,-21.6377,-1.68481
-658,148,-21.8392,3.00134,0,0,0,0,0,0,0,-1,566,876,-21.8392,-3.00135
-651,148,-21.3249,2.37518,0.0157468,0.00894735,0.0146935,0.0274288,-0.00273462,0.67171,0.0192622,0.0438796,573,876,-21.3249,-2.3752
-644,148,-20.7932,1.79663,0.0109332,0.011382,0.0138771,0.0250365,-0.00272132,0.793482,0.0176681,0.0429477,580,876,-20.7932,-1.79661
-637,148,-20.5438,1.13635,0.00718239,0.0118137,0.0125611,0.0222709,-0.00327475,0.87655,0.0160506,0.0480366,587,876,-20.5438,-1.13633
-630,148,-20.4911,3.59326,0,0,0,0,0,0,0,-1,594,876,-20.4911,-3.59326
-623,148,-20.4743,2.97748,0.00197646,0.00933128,0.00930975,0.0156636,-0.00435586,0.973495,0.0121573,0.0246479,601,876,-20.4743,-2.97748
-616,148,-20.5584,2.55713,0.000505972,0.0071574,0.00759549,0.0121234,-0.00445999,0.991752,0.00990931,0.0131807,608,876,-20.5584,-2.55714
-609,148,-20.6069,2.23145,-0.00038486,0.00488894,0.00590515,0.00871919,-0.00421511,0.995386,0.00761705,0.0112923,615,876,-20.6069,-2.23144
-602,148,-20.6367,1.92487,-0.000774689,0.00290504,0.00435201,0.00579012,-0.00365977,0.985385,0.00550191,0.0123606,622,876,-20.6366,-1.92488
-595,148,-20.6411,1.60889,-0.00102317,0.00169606,0.00298906,0.0036202,-0.00294731,0.998843,0.00379838,0.0113678,629,876,-20.6411,-1.6089
-588,148,-20.6508,1.25116,-0.000917808,0.000333147,0.0018014,0.00161457,-0.00219923,0.952495,0.00221051,0.0167672,636,876,-20.6508,-1.25117
-581,148,-20.7692,1.00635,-0.000733582,-0.00054372,0.00109246,0.000457923,-0.00173523,0.828738,0.00133588,0.0287002,643,876,-20.7692,-1.00637
-574,148,-20.5569,0.787292,-0.000584977,-0.000980681,0.000682061,-7.26507e-05,-0.00149301,0.644233,0.000972027,0.0335111,650,876,-20.5569,-0.787267
-567,148,-20.6696,0.487061,-0.000276811,-0.00086962,0.000404861,-7.14499e-05,-0.00107498,0.469421,0.000694064,0.0413478,657,876,-20.6696,-0.487047
-560,148,-20.6936,-0.0758667,0,0,0,0,0,0,0,-1,664,876,-20.6936,0.075864
-553,148,-18.3896,-0.00280762,0,0,0,0,0,0,0,-1,671,876,-18.3897,0.00278524
-546,148,-24.7567,0.893311,0,0,0,0,0,0,0,-1,678,876,-24.7567,-0.893332
-539,148,-24.811,0.776428,0.000747633,0.000398136,0.00104314,0.00163056,-0.000484794,0.702408,0.00127963,0.0377231,685,876,-24.811,-0.776436
-532,148,-24.8354,0.75415,0.000997883,0.000942386,0.00145914,0.00242954,-0.000489269,0.775891,0.00180502,0.0357977,692,876,-24.8355,-0.754157
-525,148,-24.7822,1.01471,0.00104667,0.00158966,0.0019722,0.00330897,-0.000672639,0.853799,0.00246102,0.0388851,699,876,-24.7822,-1.01471
-518,148,-24.7512,1.25024,0.00114575,0.00229662,0.00255799,0.0043431,-0.000900729,0.896035,0.00323768,0.0442601,706,876,-24.7512,-1.25024
-511,148,-24.6708,1.20593,0.00134738,0.00262933,0.002974,0.00503065,-0.00105394,0.891538,0.00375471,0.0430936,713,876,-24.6708,-1.20592
-504,148,-24.5935,1.22034,0.0014481,0.00292195,0.0026524,0.0049379,-0.000567842,0.920897,0.00349661,0.0441113,720,876,-24.5935,-1.22034
-497,148,0,0,0,0,0,0,0,0,0,-1,727,876,0,0
-490,148,0,0,0,0,0,0,0,0,0,-1,734,876,0,0
-483,148,0,0,0,0,0,0,0,0,0,-1,741,876,0,0
-476,148,0,0,0,0,0,0,0,0,0,-1,748,876,0,0
-469,148,0,0,0,0,0,0,0,0,0,-1,755,876,0,0
-462,148,0,0,0,0,0,0,0,0,0,-1,762,876,0,0
-455,148,0,0,0,0,0,0,0,0,0,-1,769,876,0,0
-448,148,0,0,0,0,0,0,0,0,0,-1,776,876,0,0
-441,148,0,0,0,0,0,0,0,0,0,-1,783,876,0,0
-434,148,0,0,0,0,0,0,0,0,0,-1,790,876,0,0
-427,148,0,0,0,0,0,0,0,0,0,-1,797,876,0,0
-420,148,0,0,0,0,0,0,0,0,0,-1,804,876,0,0
-413,148,0,0,0,0,0,0,0,0,0,-1,811,876,0,0
-406,148,0,0,0,0,0,0,0,0,0,-1,818,876,0,0
-399,148,0,0,0,0,0,0,0,0,0,-1,825,876,0,0
-392,148,0,0,0,0,0,0,0,0,0,-1,832,876,0,0
-385,148,0,0,0,0,0,0,0,0,0,-1,839,876,0,0
-378,148,0,0,0,0,0,0,0,0,0,-1,846,876,0,0
-371,148,0,0,0,0,0,0,0,0,0,-1,853,876,0,0
-364,148,0,0,0,0,0,0,0,0,0,-1,860,876,0,0
-357,148,0,0,0,0,0,0,0,0,0,-1,867,876,0,0
-350,148,0,0,0,0,0,0,0,0,0,-1,874,876,0,0
-343,148,0,0,0,0,0,0,0,0,0,-1,881,876,0,0
-336,148,0,0,0,0,0,0,0,0,0,-1,888,876,0,0
-329,148,0,0,0,0,0,0,0,0,0,-1,895,876,0,0
-322,148,0,0,0,0,0,0,0,0,0,-1,902,876,0,0
-315,148,0,0,0,0,0,0,0,0,0,-1,909,876,0,0
-308,148,0,0,0,0,0,0,0,0,0,-1,916,876,0,0
-301,148,0,0,0,0,0,0,0,0,0,-1,923,876,0,0
-294,148,0,0,0,0,0,0,0,0,0,-1,930,876,0,0
-287,148,0,0,0,0,0,0,0,0,0,-1,937,876,0,0
-280,148,0,0,0,0,0,0,0,0,0,-1,944,876,0,0
-273,148,0,0,0,0,0,0,0,0,0,-1,951,876,0,0
-266,148,0,0,0,0,0,0,0,0,0,-1,958,876,0,0
-259,148,0,0,0,0,0,0,0,0,0,-1,965,876,0,0
-252,148,0,0,0,0,0,0,0,0,0,-1,972,876,0,0
-245,148,0,0,0,0,0,0,0,0,0,-1,979,876,0,0
-238,148,0,0,0,0,0,0,0,0,0,-1,986,876,0,0
-231,148,0,0,0,0,0,0,0,0,0,-1,993,876,0,0
-224,148,0,0,0,0,0,0,0,0,0,-1,1000,876,0,0
-217,148,0,0,0,0,0,0,0,0,0,-1,1007,876,0,0
-210,148,0,0,0,0,0,0,0,0,0,-1,1014,876,0,0
-203,148,0,0,0,0,0,0,0,0,0,-1,1021,876,0,0
-196,148,0,0,0,0,0,0,0,0,0,-1,1028,876,0,0
-189,148,0,0,0,0,0,0,0,0,0,-1,1035,876,0,0
-182,148,0,0,0,0,0,0,0,0,0,-1,1042,876,0,0
-175,148,0,0,0,0,0,0,0,0,0,-1,1049,876,0,0
-168,148,0,0,0,0,0,0,0,0,0,-1,1056,876,0,0
-161,148,0,0,0,0,0,0,0,0,0,-1,1063,876,0,0
-154,148,0,0,0,0,0,0,0,0,0,-1,1070,876,0,0
-147,148,0,0,0,0,0,0,0,0,0,-1,1077,876,0,0
-140,148,0,0,0,0,0,0,0,0,0,-1,1084,876,0,0
-133,148,0,0,0,0,0,0,0,0,0,-1,1091,876,0,0
-126,148,0,0,0,0,0,0,0,0,0,-1,1098,876,0,0
-119,148,0,0,0,0,0,0,0,0,0,-1,1105,876,0,0
-112,148,0,0,0,0,0,0,0,0,0,-1,1112,876,0,0
-105,148,0,0,0,0,0,0,0,0,0,-1,1119,876,0,0
-98,148,0,0,0,0,0,0,0,0,0,-1,1126,876,0,0
-91,148,0,0,0,0,0,0,0,0,0,-1,1133,876,0,0
-84,148,0,0,0,0,0,0,0,0,0,-1,1140,876,0,0
-77,148,0,0,0,0,0,0,0,0,0,-1,1147,876,0,0
-70,148,0,0,0,0,0,0,0,0,0,-1,1154,876,0,0
-63,148,0,0,0,0,0,0,0,0,0,-1,1161,876,0,0
-56,148,0,0,0,0,0,0,0,0,0,-1,1168,876,0,0
-49,148,0,0,0,0,0,0,0,0,0,-1,1175,876,0,0
-42,148,0,0,0,0,0,0,0,0,0,-1,1182,876,0,0
-35,148,0,0,0,0,0,0,0,0,0,-1,1189,876,0,0
-28,148,0,0,0,0,0,0,0,0,0,-1,1196,876,0,0
-21,148,0,0,0,0,0,0,0,0,0,-1,1203,876,0,0
-14,148,0,0,0,0,0,0,0,0,0,-1,1210,876,0,0
-7,148,0,0,0,0,0,0,0,0,0,-1,1217,876,0,0
0,148,0,0,0,0,0,0,0,0,0,-1,1224,876,0,0
7,148,0,0,0,0,0,0,0,0,0,-1,1231,876,0,0
14,148,0,0,0,0,0,0,0,0,0,-1,1238,876,0,0
21,148,0,0,0,0,0,0,0,0,0,-1,1245,876,0,0
28,148,0,0,0,0,0,0,0,0,0,-1,1252,876,0,0
35,148,0,0,0,0,0,0,0,0,0,-1,1259,876,0,0
42,148,0,0,0,0,0,0,0,0,0,-1,1266,876,0,0
49,148,0,0,0,0,0,0,0,0,0,-1,1273,876,0,0
56,148,0,0,0,0,0,0,0,0,0,-1,1280,876,0,0
63,148,0,0,0,0,0,0,0,0,0,-1,1287,876,0,0
70,148,0,0,0,0,0,0,0,0,0,-1,1294,876,0,0
77,148,0,0,0,0,0,0,0,0,0,-1,1301,876,0,0
84,148,0,0,0,0,0,0,0,0,0,-1,1308,876,0,0
91,148,0,0,0,0,0,0,0,0,0,-1,1315,876,0,0
98,148,0,0,0,0,0,0,0,0,0,-1,1322,876,0,0
105,148,0,0,0,0,0,0,0,0,0,-1,1329,876,0,0
112,148,0,0,0,0,0,0,0,0,0,-1,1336,876,0,0
119,148,0,0,0,0,0,0,0,0,0,-1,1343,876,0,0
126,148,0,0,0,0,0,0,0,0,0,-1,1350,876,0,0
133,148,0,0,0,0,0,0,0,0,0,-1,1357,876,0,0
140,148,0,0,0,0,0,0,0,0,0,-1,1364,876,0,0
147,148,0,0,0,0,0,0,0,0,0,-1,1371,876,0,0
154,148,0,0,0,0,0,0,0,0,0,-1,1378,876,0,0
161,148,0,0,0,0,0,0,0,0,0,-1,1385,876,0,0
168,148,0,0,0,0,0,0,0,0,0,-1,1392,876,0,0
175,148,0,0,0,0,0,0,0,0,0,-1,1399,876,0,0
182,148,0,0,0,0,0,0,0,0,0,-1,1406,876,0,0
189,148,0,0,0,0,0,0,0,0,0,-1,1413,876,0,0
196,148,0,0,0,0,0,0,0,0,0,-1,1420,876,0,0
203,148,0,0,0,0,0,0,0,0,0,-1,1427,876,0,0
210,148,0,0,0,0,0,0,0,0,0,-1,1434,876,0,0
217,148,0,0,0,0,0,0,0,0,0,-1,1441,876,0,0
224,148,0,0,0,0,0,0,0,0,0,-1,1448,876,0,0
231,148,0,0,0,0,0,0,0,0,0,-1,1455,876,0,0
238,148,0,0,0,0,0,0,0,0,0,-1,1462,876,0,0
245,148,0,0,0,0,0,0,0,0,0,-1,1469,876,0,0
252,148,0,0,0,0,0,0,0,0,0,-1,1476,876,0,0
259,148,0,0,0,0,0,0,0,0,0,-1,1483,876,0,0
266,148,0,0,0,0,0,0,0,0,0,-1,1490,876,0,0
273,148,0,0,0,0,0,0,0,0,0,-1,1497,876,0,0
280,148,0,0,0,0,0,0,0,0,0,-1,1504,876,0,0
287,148,0,0,0,0,0,0,0,0,0,-1,1511,876,0,0
294,148,0,0,0,0,0,0,0,0,0,-1,1518,876,0,0
301,148,0,0,0,0,0,0,0,0,0,-1,1525,876,0,0
308,148,0,0,0,0,0,0,0,0,0,-1,1532,876,0,0
315,148,0,0,0,0,0,0,0,0,0,-1,1539,876,0,0
322,148,0,0,0,0,0,0,0,0,0,-1,1546,876,0,0
329,148,0,0,0,0,0,0,0,0,0,-1,1553,876,0,0
336,148,0,0,0,0,0,0,0,0,0,-1,1560,876,0,0
343,148,0,0,0,0,0,0,0,0,0,-1,1567,876,0,0
350,148,0,0,0,0,0,0,0,0,0,-1,1574,876,0,0
357,148,0,0,0,0,0,0,0,0,0,-1,1581,876,0,0
364,148,0,0,0,0,0,0,0,0,0,-1,1588,876,0,0
371,148,0,0,0,0,0,0,0,0,0,-1,1595,876,0,0
378,148,0,0,0,0,0,0,0,0,0,-1,1602,876,0,0
385,148,0,0,0,0,0,0,0,0,0,-1,1609,876,0,0
392,148,0,0,0,0,0,0,0,0,0,-1,1616,876,0,0
399,148,0,0,0,0,0,0,0,0,0,-1,1623,876,0,0
406,148,0,0,0,0,0,0,0,0,0,-1,1630,876,0,0
413,148,0,0,0,0,0,0,0,0,0,-1,1637,876,0,0
420,148,0,0,0,0,0,0,0,0,0,-1,1644,876,0,0
427,148,0,0,0,0,0,0,0,0,0,-1,1651,876,0,0
434,148,0,0,0,0,0,0,0,0,0,-1,1658,876,0,0
441,148,0,0,0,0,0,0,0,0,0,-1,1665,876,0,0
448,148,0,0,0,0,0,0,0,0,0,-1,1672,876,0,0
455,148,0,0,0,0,0,0,0,0,0,-1,1679,876,0,0
462,148,0,0,0,0,0,0,0,0,0,-1,1686,876,0,0
469,148,0,0,0,0,0,0,0,0,0,-1,1693,876,0,0
476,148,0,0,0,0,0,0,0,0,0,-1,1700,876,0,0
483,148,0,0,0,0,0,0,0,0,0,-1,1707,876,0,0
490,148,0,0,0,0,0,0,0,0,0,-1,1714,876,0,0
497,148,0,0,0,0,0,0,0,0,0,-1,1721,876,0,0
504,148,0,0,0,0,0,0,0,0,0,-1,1728,876,0,0
511,148,0,0,0,0,0,0,0,0,0,-1,1735,876,0,0
518,148,0,0,0,0,0,0,0,0,0,-1,1742,876,0,0
525,148,0,0,0,0,0,0,0,0,0,-1,1749,876,0,0
532,148,0,0,0,0,0,0,0,0,0,-1,1756,876,0,0
539,148,0,0,0,0,0,0,0,0,0,-1,1763,876,0,0
546,148,0,0,0,0,0,0,0,0,0,-1,1770,876,0,0
553,148,0,0,0,0,0,0,0,0,0,-1,1777,876,0,0
560,148,0,0,0,0,0,0,0,0,0,-1,1784,876,0,0
567,148,0,0,0,0,0,0,0,0,0,-1,1791,876,0,0
574,148,0,0,0,0,0,0,0,0,0,-1,1798,876,0,0
581,148,0,0,0,0,0,0,0,0,0,-1,1805,876,0,0
588,148,0,0,0,0,0,0,0,0,0,-1,1812,876,0,0
595,148,0,0,0,0,0,0,0,0,0,-1,1819,876,0,0
602,148,0,0,0,0,0,0,0,0,0,-1,1826,876,0,0
609,148,0,0,0,0,0,0,0,0,0,-1,1833,876,0,0
616,148,0,0,0,0,0,0,0,0,0,-1,1840,876,0,0
623,148,34.2321,2.84058,0.000767448,-0.00253313,-0.00231676,0.0019616,-0.00372728,-0.475923,0.00333679,0.0426695,1847,876,34.232,-2.84056
630,148,34.1471,3.05096,0.00118286,-0.00134164,-0.00139643,0.00180297,-0.00196175,-0.417912,0.00217421,0.0448382,1854,876,34.1471,-3.05096
637,148,34.1674,2.71582,0.00109398,-0.000389323,-0.000823924,0.00146089,-0.000756228,-0.41895,0.00130143,0.0417511,1861,876,34.1673,-2.71584
644,148,34.2144,2.69019,0.000685823,0.000152074,-0.00046225,0.000952705,-0.000114809,-0.523603,0.000676661,0.0385143,1868,876,34.2144,-2.69017
651,148,34.228,2.76575,0.00027967,0.000391856,-0.000280151,0.000621474,5.00512e-05,-0.884203,0.000398681,0.0390458,1875,876,34.228,-2.76575
658,148,34.1979,2.77069,2.62195e-05,0.000400182,-0.000216006,0.000498894,-7.24927e-05,-1.14215,0.000359207,0.0339166,1882,876,34.1979,-2.77069
665,148,34.1748,2.87506,-0.000164524,0.000371446,-0.000171972,0.000421879,-0.000214958,-1.28553,0.000374092,0.0252272,1889,876,34.1748,-2.87507
672,148,34.207,2.80469,-0.000225263,0.000250533,-6.85391e-05,0.00026021,-0.000234939,-1.43054,0.000285998,0.0301862,1896,876,34.207,-2.80467
679,148,33.9984,3.00262,0,0,0,0,0,0,0,-1,1903,876,33.9984,-3.00264
686,148,21.6195,2.40845,0,0,0,0,0,0,0,-1,1910,876,21.6196,-2.40846
693,148,29.0316,2.64972,0,0,0,0,0,0,0,-1,1917,876,29.0316,-2.64973
700,148,29.2531,2.99854,-0.000644427,2.21131e-05,-0.000355804,0.000176352,-0.000798666,-1.16175,0.000599931,0.0230387,1924,876,29.253,-2.99851
707,148,29.3999,3.41559,-0.000538662,1.33579e-05,-0.000540803,0.000344513,-0.000869817,-1.02135,0.000722629,0.019714,1931,876,29.3999,-3.41558
714,148,29.319,3.62317,4.59969e-05,0.000201068,-0.000678077,0.000806028,-0.000558963,-0.842324,0.000792369,0.0195008,1938,876,29.319,-3.62314
721,148,29.1333,3.88989,0.00145281,0.000853268,-0.000877062,0.00207991,0.000226161,-0.620728,0.00131771,0.0182822,1945,876,29.1333,-3.8899
728,148,29.1395,4.23798,0.00253102,0.000904481,-0.00105247,0.00304782,0.000387678,-0.456454,0.00191578,0.0192587,1952,876,29.1395,-4.23799
735,148,29.1432,4.57666,0.00402679,0.000355415,-0.0011204,0.00434169,4.05125e-05,-0.273994,0.00288105,0.0171206,1959,876,29.1432,-4.57666
742,148,29.1244,4.91663,0.00589782,-0.00063588,-0.00099349,0.00604555,-0.000783606,-0.147613,0.00431535,0.018952,1966,876,29.1244,-4.91665
749,148,29.057,5.21954,0.00827219,-0.00234975,-0.000554449,0.00830106,-0.00237862,-0.05201,0.00647424,0.018884,1973,876,29.057,-5.21956
756,148,29.0037,5.55804,0.0109273,-0.0054867,0.000439647,0.010939,-0.00549846,0.0267593,0.00966192,0.0240657,1980,876,29.0037,-5.55803
763,148,29.0071,5.99182,0.013623,-0.0108164,0.00222938,0.0138247,-0.0110181,0.0902286,0.0143734,0.0448245,1987,876,29.0071,-5.99179
770,148,28.9847,6.41748,0,0,0,0,0,0,0,-1,1994,876,28.9847,-6.41749
777,148,28.8379,7.59039,0.0161405,-0.0319678,0.00952186,0.0179565,-0.0337838,0.188462,0.0303346,0.046707,2001,876,28.8379,-7.59039
784,148,28.5421,8.53229,0.0136713,-0.0496476,0.0155932,0.0173031,-0.0532793,0.228826,0.0424786,0.0454658,2008,876,28.5421,-8.53226
791,148,28.2367,9.40344,0.00614983,-0.0732451,0.0235831,0.0126265,-0.0797218,0.268024,0.0578181,0.0475008,2015,876,28.2367,-9.40344
798,148,0,0,0,0,0,0,0,0,0,-1,2022,876,0,0
805,148,0,0,0,0,0,0,0,0,0,-1,2029,876,0,0
812,148,0,0,0,0,0,0,0,0,0,-1,2036,876,0,0
-700,141,0,0,0,0,0,0,0,0,0,-1,524,883,0,0
-693,141,0,0,0,0,0,0,0,0,0,-1,531,883,0,0
-686,141,0,0,0,0,0,0,0,0,0,-1,538,883,0,0
-679,141,0,0,0,0,0,0,0,0,0,-1,545,883,0,0
-672,141,-21.7549,1.61224,0,0,0,0,0,0,0,-1,552,883,-21.7549,-1.61223
-665,141,-22.0325,2.06146,0,0,0,0,0,0,0,-1,559,883,-22.0325,-2.06148
-658,141,-22.4869,2.57184,0,0,0,0,0,0,0,-1,566,883,-22.4869,-2.57186
-651,141,-21.787,2.8335,0,0,0,0,0,0,0,-1,573,883,-21.787,-2.83347
-644,141,-21.1834,2.21533,0,0,0,0,0,0,0,-1,580,883,-21.1834,-2.21532
-637,141,-20.5405,3.56329,0,0,0,0,0,0,0,-1,587,883,-20.5404,-3.56328
-630,141,-20.6881,3.3186,0.00386062,0.00762706,0.0104447,0.016357,-0.00486927,0.874592,0.0128393,0.045201,594,883,-20.6881,-3.31858
-623,141,-20.7414,2.90808,0.00185213,0.00678043,0.00871244,0.0133705,-0.00473793,0.923214,0.0108437,0.02521,601,883,-20.7414,-2.90807
-616,141,-20.8805,2.53638,0.000423512,0.0052911,0.00698961,0.0102585,-0.00454391,0.952934,0.0087559,0.0126323,608,883,-20.8805,-2.53635
-609,141,-20.9364,2.22943,-0.000495237,0.00359449,0.00532933,0.0072578,-0.00415855,0.968586,0.0066717,0.0128987,615,883,-20.9364,-2.22946
-602,141,-20.9543,1.92365,-0.000929711,0.00200534,0.00383102,0.0046403,-0.00356467,0.968309,0.00475069,0.0127095,622,883,-20.9543,-1.92365
-595,141,-20.9423,1.62115,-0.00126769,0.0011447,0.00259639,0.0028014,-0.00292439,1.00285,0.00330604,0.012243,629,883,-20.9423,-1.62113
-588,141,-21.134,1.30554,-0.0012942,5.86346e-05,0.00151444,0.00104085,-0.00227642,0.995429,0.00195901,0.0208908,636,883,-21.134,-1.30555
-581,141,-21.1176,1.02722,-0.00122441,-0.000703475,0.000885579,-4.08539e-05,-0.00188703,0.928426,0.00124463,0.027634,643,883,-21.1175,-1.02723
-574,141,-20.8718,0.836792,-0.00112444,-0.00113011,0.000505282,-0.000621985,-0.00163257,0.78259,0.000951421,0.0357188,650,883,-20.8718,-0.836768
-567,141,-20.8597,0.654785,-0.000843214,-0.00109925,0.000236701,-0.000702129,-0.00124033,0.537508,0.000718188,0.0360827,657,883,-20.8597,-0.654764
-560,141,-20.8394,0.560425,0,0,0,0,0,0,0,-1,664,883,-20.8393,-0.560412
-553,141,-24.5406,1.20093,0,0,0,0,0,0,0,-1,671,883,-24.5406,-1.20093
-546,141,-24.6276,1.03241,-0.000201425,-0.000666152,0.000524705,0.000140065,-0.00100764,0.576954,0.000722987,0.0403194,678,883,-24.6275,-1.03241
-539,141,-24.7156,0.866272,3.45356e-05,-0.000330614,0.000720103,0.000594849,-0.000890927,0.661245,0.000863472,0.028615,685,883,-24.7156,-0.866254
-532,141,-24.8165,0.794556,0.000274504,0.000126738,0.00112438,0.00132743,-0.000926184,0.75259,0.00130798,0.0276327,692,883,-24.8165,-0.794571
-525,141,-24.7864,0.907776,0.00033974,0.000687115,0.00167236,0.00219478,-0.00116793,0.837142,0.0019714,0.0385343,699,883,-24.7864,-0.907797
-518,141,-24.7585,1.32007,0.000553279,0.00135457,0.00233013,0.00331825,-0.0014104,0.870536,0.00280318,0.0443021,706,883,-24.7586,-1.32005
-511,141,-24.7065,1.34369,0.000902736,0.00178619,0.00288292,0.00426103,-0.0015721,0.861418,0.00348499,0.0394429,713,883,-24.7065,-1.34369
-504,141,-24.6137,1.03821,0.0013912,0.00288246,0.0028163,0.00505017,-0.000776508,0.914807,0.00365323,0.0406142,720,883,-24.6137,-1.03822
-497,141,0,0,0,0,0,0,0,0,0,-1,727,883,0,0
-490,141,0,0,0,0,0,0,0,0,0,-1,734,883,0,0
-483,141,0,0,0,0,0,0,0,0,0,-1,741,883,0,0
-476,141,0,0,0,0,0,0,0,0,0,-1,748,883,0,0
-469,141,0,0,0,0,0,0,0,0,0,-1,755,883,0,0
-462,141,0,0,0,0,0,0,0,0,0,-1,762,883,0,0
-455,141,0,0,0,0,0,0,0,0,0,-1,769,883,0,0
-448,141,0,0,0,0,0,0,0,0,0,-1,776,883,0,0
-441,141,0,0,0,0,0,0,0,0,0,-1,783,883,0,0
-434,141,0,0,0,0,0,0,0,0,0,-1,790,883,0,0
-427,141,0,0,0,0,0,0,0,0,0,-1,797,883,0,0
-420,141,0,0,0,0,0,0,0,0,0,-1,804,883,0,0
-413,141,0,0,0,0,0,0,0,0,0,-1,811,883,0,0
-406,141,0,0,0,0,0,0,0,0,0,-1,818,883,0,0
-399,141,0,0,0,0,0,0,0,0,0,-1,825,883,0,0
-392,141,0,0,0,0,0,0,0,0,0,-1,832,883,0,0
-385,141,0,0,0,0,0,0,0,0,0,-1,839,883,0,0
-378,141,0,0,0,0,0,0,0,0,0,-1,846,883,0,0
-371,141,0,0,0,0,0,0,0,0,0,-1,853,883,0,0
-364,141,0,0,0,0,0,0,0,0,0,-1,860,883,0,0
-357,141,0,0,0,0,0,0,0,0,0,-1,867,883,0,0
-350,141,0,0,0,0,0,0,0,0,0,-1,874,883,0,0
-343,141,0,0,0,0,0,0,0,0,0,-1,881,883,0,0
-336,141,0,0,0,0,0,0,0,0,0,-1,888,883,0,0
-329,141,0,0,0,0,0,0,0,0,0,-1,895,883,0,0
-322,141,0,0,0,0,0,0,0,0,0,-1,902,883,0,0
-315,141,0,0,0,0,0,0,0,0,0,-1,909,883,0,0
-308,141,0,0,0,0,0,0,0,0,0,-1,916,883,0,0
-301,141,0,0,0,0,0,0,0,0,0,-1,923,883,0,0
-294,141,0,0,0,0,0,0,0,0,0,-1,930,883,0,0
-287,141,0,0,0,0,0,0,0,0,0,-1,937,883,0,0
-280,141,0,0,0,0,0,0,0,0,0,-1,944,883,0,0
-273,141,0,0,0,0,0,0,0,0,0,-1,951,883,0,0
-266,141,0,0,0,0,0,0,0,0,0,-1,958,883,0,0
-259,141,0,0,0,0,0,0,0,0,0,-1,965,883,0,0
-252,141,0,0,0,0,0,0,0,0,0,-1,972,883,0,0
-245,141,0,0,0,0,0,0,0,0,0,-1,979,883,0,0
-238,141,0,0,0,0,0,0,0,0,0,-1,986,883,0,0
-231,141,0,0,0,0,0,0,0,0,0,-1,993,883,0,0
-224,141,0,0,0,0,0,0,0,0,0,-1,1000,883,0,0
-217,141,0,0,0,0,0,0,0,0,0,-1,1007,883,0,0
-210,141,0,0,0,0,0,0,0,0,0,-1,1014,883,0,0
-203,141,0,0,0,0,0,0,0,0,0,-1,1021,883,0,0
-196,141,0,0,0,0,0,0,0,0,0,-1,1028,883,0,0
-189,141,0,0,0,0,0,0,0,0,0,-1,1035,883,0,0
-182,141,0,0,0,0,0,0,0,0,0,-1,1042,883,0,0
-175,141,0,0,0,0,0,0,0,0,0,-1,1049,883,0,0
-168,141,0,0,0,0,0,0,0,0,0,-1,1056,883,0,0
-161,141,0,0,0,0,0,0,0,0,0,-1,1063,883,0,0
-154,141,0,0,0,0,0,0,0,0,0,-1,1070,883,0,0
-147,141,0,0,0,0,0,0,0,0,0,-1,1077,883,0,0
-140,141,0,0,0,0,0,0,0,0,0,-1,1084,883,0,0
-133,141,0,0,0,0,0,0,0,0,0,-1,1091,883,0,0
-126,141,0,0,0,0,0,0,0,0,0,-1,1098,883,0,0
-119,141,0,0,0,0,0,0,0,0,0,-1,1105,883,0,0
-112,141,0,0,0,0,0,0,0,0,0,-1,1112,883,0,0
-105,141,0,0,0,0,0,0,0,0,0,-1,1119,883,0,0
-98,141,0,0,0,0,0,0,0,0,0,-1,1126,883,0,0
-91,141,0,0,0,0,0,0,0,0,0,-1,1133,883,0,0
-84,141,0,0,0,0,0,0,0,0,0,-1,1140,883,0,0
-77,141,0,0,0,0,0,0,0,0,0,-1,1147,883,0,0
-70,141,0,0,0,0,0,0,0,0,0,-1,1154,883,0,0
-63,141,0,0,0,0,0,0,0,0,0,-1,1161,883,0,0
-56,141,0,0,0,0,0,0,0,0,0,-1,1168,883,0,0
-49,141,0,0,0,0,0,0,0,0,0,-1,1175,883,0,0
-42,141,0,0,0,0,0,0,0,0,0,-1,1182,883,0,0
-35,141,0,0,0,0,0,0,0,0,0,-1,1189,883,0,0
-28,141,0,0,0,0,0,0,0,0,0,-1,1196,883,0,0
-21,141,0,0,0,0,0,0,0,0,0,-1,1203,883,0,0
-14,141,0,0,0,0,0,0,0,0,0,-1,1210,883,0,0
-7,141,0,0,0,0,0,0,0,0,0,-1,1217,883,0,0
0,141,0,0,0,0,0,0,0,0,0,-1,1224,883,0,0
7,141,0,0,0,0,0,0,0,0,0,-1,1231,883,0,0
14,141,0,0,0,0,0,0,0,0,0,-1,1238,883,0,0
21,141,0,0,0,0,0,0,0,0,0,-1,1245,883,0,0
28,141,0,0,0,0,0,0,0,0,0,-1,1252,883,0,0
35,141,0,0,0,0,0,0,0,0,0,-1,1259,883,0,0
42,141,0,0,0,0,0,0,0,0,0,-1,1266,883,0,0
49,141,0,0,0,0,0,0,0,0,0,-1,1273,883,0,0
56,141,0,0,0,0,0,0,0,0,0,-1,1280,883,0,0
63,141,0,0,0,0,0,0,0,0,0,-1,1287,883,0,0
70,141,0,0,0,0,0,0,0,0,0,-1,1294,883,0,0
77,141,0,0,0,0,0,0,0,0,0,-1,1301,883,0,0
84,141,0,0,0,0,0,0,0,0,0,-1,1308,883,0,0
91,141,0,0,0,0,0,0,0,0,0,-1,1315,883,0,0
98,141,0,0,0,0,0,0,0,0,0,-1,1322,883,0,0
105,141,0,0,0,0,0,0,0,0,0,-1,1329,883,0,0
112,141,0,0,0,0,0,0,0,0,0,-1,1336,883,0,0
119,141,0,0,0,0,0,0,0,0,0,-1,1343,883,0,0
126,141,0,0,0,0,0,0,0,0,0,-1,1350,883,0,0
133,141,0,0,0,0,0,0,0,0,0,-1,1357,883,0,0
140,141,0,0,0,0,0,0,0,0,0,-1,1364,883,0,0
147,141,0,0,0,0,0,0,0,0,0,-1,1371,883,0,0
154,141,0,0,0,0,0,0,0,0,0,-1,1378,883,0,0
161,141,0,0,0,0,0,0,0,0,0,-1,1385,883,0,0
168,141,0,0,0,0,0,0,0,0,0,-1,1392,883,0,0
175,141,0,0,0,0,0,0,0,0,0,-1,1399,883,0,0
182,141,0,0,0,0,0,0,0,0,0,-1,1406,883,0,0
189,141,0,0,0,0,0,0,0,0,0,-1,1413,883,0,0
196,141,0,0,0,0,0,0,0,0,0,-1,1420,883,0,0
203,141,0,0,0,0,0,0,0,0,0,-1,1427,883,0,0
210,141,0,0,0,0,0,0,0,0,0,-1,1434,883,0,0
217,141,0,0,0,0,0,0,0,0,0,-1,1441,883,0,0
224,141,0,0,0,0,0,0,0,0,0,-1,1448,883,0,0
231,141,0,0,0,0,0,0,0,0,0,-1,1455,883,0,0
238,141,0,0,0,0,0,0,0,0,0,-1,1462,883,0,0
245,141,0,0,0,0,0,0,0,0,0,-1,1469,883,0,0
252,141,0,0,0,0,0,0,0,0,0,-1,1476,883,0,0
259,141,0,0,0,0,0,0,0,0,0,-1,1483,883,0,0
266,141,0,0,0,0,0,0,0,0,0,-1,1490,883,0,0
273,141,0,0,0,0,0,0,0,0,0,-1,1497,883,0,0
280,141,0,0,0,0,0,0,0,0,0,-1,1504,883,0,0
287,141,0,0,0,0,0,0,0,0,0,-1,1511,883,0,0
294,141,0,0,0,0,0,0,0,0,0,-1,1518,883,0,0
301,141,0,0,0,0,0,0,0,0,0,-1,1525,883,0,0
308,141,0,0,0,0,0,0,0,0,0,-1,1532,883,0,0
315,141,0,0,0,0,0,0,0,0,0,-1,1539,883,0,0
322,141,0,0,0,0,0,0,0,0,0,-1,1546,883,0,0
329,141,0,0,0,0,0,0,0,0,0,-1,1553,883,0,0
336,141,0,0,0,0,0,0,0,0,0,-1,1560,883,0,0
343,141,0,0,0,0,0,0,0,0,0,-1,1567,883,0,0
350,141,0,0,0,0,0,0,0,0,0,-1,1574,883,0,0
357,141,0,0,0,0,0,0,0,0,0,-1,1581,883,0,0
364,141,0,0,0,0,0,0,0,0,0,-1,1588,883,0,0
371,141,0,0,0,0,0,0,0,0,0,-1,1595,883,0,0
378,141,0,0,0,0,0,0,0,0,0,-1,1602,883,0,0
385,141,0,0,0,0,0,0,0,0,0,-1,1609,883,0,0
392,141,0,0,0,0,0,0,0,0,0,-1,1616,883,0,0
399,141,0,0,0,0,0,0,0,0,0,-1,1623,883,0,0
406,141,0,0,0,0,0,0,0,0,0,-1,1630,883,0,0
413,141,0,0,0,0,0,0,0,0,0,-1,1637,883,0,0
420,141,0,0,0,0,0,0,0,0,0,-1,1644,883,0,0
427,141,0,0,0,0,0,0,0,0,0,-1,1651,883,0,0
434,141,0,0,0,0,0,0,0,0,0,-1,1658,883,0,0
441,141,0,0,0,0,0,0,0,0,0,-1,1665,883,0,0
448,141,0,0,0,0,0,0,0,0,0,-1,1672,883,0,0
455,141,0,0,0,0,0,0,0,0,0,-1,1679,883,0,0
462,141,0,0,0,0,0,0,0,0,0,-1,1686,883,0,0
469,141,0,0,0,0,0,0,0,0,0,-1,1693,883,0,0
476,141,0,0,0,0,0,0,0,0,0,-1,1700,883,0,0
483,141,0,0,0,0,0,0,0,0,0,-1,1707,883,0,0
490,141,0,0,0,0,0,0,0,0,0,-1,1714,883,0,0
497,141,0,0,0,0,0,0,0,0,0,-1,1721,883,0,0
504,141,0,0,0,0,0,0,0,0,0,-1,1728,883,0,0
511,141,0,0,0,0,0,0,0,0,0,-1,1735,883,0,0
518,141,0,0,0,0,0,0,0,0,0,-1,1742,883,0,0
525,141,0,0,0,0,0,0,0,0,0,-1,1749,883,0,0
532,141,0,0,0,0,0,0,0,0,0,-1,1756,883,0,0
539,141,0,0,0,0,0,0,0,0,0,-1,1763,883,0,0
546,141,0,0,0,0,0,0,0,0,0,-1,1770,883,0,0
553,141,0,0,0,0,0,0,0,0,0,-1,1777,883,0,0
560,141,0,0,0,0,0,0,0,0,0,-1,1784,883,0,0
567,141,0,0,0,0,0,0,0,0,0,-1,1791,883,0,0
574,141,0,0,0,0,0,0,0,0,0,-1,1798,883,0,0
581,141,0,0,0,0,0,0,0,0,0,-1,1805,883,0,0
588,141,0,0,0,0,0,0,0,0,0,-1,1812,883,0,0
595,141,0,0,0,0,0,0,0,0,0,-1,1819,883,0,0
602,141,0,0,0,0,0,0,0,0,0,-1,1826,883,0,0
609,141,0,0,0,0,0,0,0,0,0,-1,1833,883,0,0
616,141,0,0,0,0,0,0,0,0,0,-1,1840,883,0,0
623,141,34.2299,2.97058,0.00189391,-0.00185939,-0.00224952,0.00294679,-0.00291227,-0.43776,0.00338275,0.0450292,1847,883,34.2299,-2.97061
630,141,34.2665,3.00146,0.0020213,-0.000827353,-0.00139942,0.00259374,-0.0013998,-0.38829,0.00233977,0.0457053,1854,883,34.2664,-3.00146
637,141,34.3865,2.63983,0.00173528,-1.98267e-05,-0.000922914,0.00213125,-0.000415801,-0.405294,0.0015778,0.0449112,1861,883,34.3864,-2.63983
644,141,34.2893,2.50464,0.00115568,0.000468944,-0.000598635,0.00150243,0.000122191,-0.525014,0.000963475,0.0406258,1868,883,34.2893,-2.50464
651,141,34.3821,2.776,0.000599649,0.000721264,-0.000396479,0.00106157,0.000259342,-0.86149,0.000639055,0.038899,1875,883,34.382,-2.77598
658,141,34.3262,2.8576,0.000251694,0.000762064,-0.0002788,0.000884832,0.000128926,-1.156,0.000551955,0.0372095,1882,883,34.3261,-2.85758
665,141,34.1699,2.89478,4.09835e-05,0.00073513,-0.00019081,0.000784123,-8.00932e-06,-1.31946,0.000525439,0.0272416,1889,883,34.1699,-2.8948
672,141,34.178,2.86536,-1.10107e-05,0.00062091,-5.79205e-05,0.000626175,-1.62757e-05,-1.48014,0.00042298,0.0206613,1896,883,34.1779,-2.86538
679,141,34.1168,2.87299,-5.89688e-05,0.000622515,-0.000102275,0.000637533,-7.39869e-05,-1.425,0.000451709,0.032979,1903,883,34.1169,-2.87297
686,141,34.0525,2.91339,0,0,0,0,0,0,0,-1,1910,883,34.0525,-2.91341
693,141,29.3135,2.52277,0,0,0,0,0,0,0,-1,1917,883,29.3134,-2.52278
700,141,29.5913,2.96564,-0.000437679,0.000286471,-0.000190744,0.000333641,-0.000484849,-1.32836,0.000475236,0.0216909,1924,883,29.5913,-2.96562
707,141,29.5901,3.33551,-0.000334389,0.000235847,-0.000368619,0.000416746,-0.000515288,-1.11458,0.000539112,0.0196353,1931,883,29.59,-3.33549
714,141,29.4451,3.57227,0.00032435,0.000374027,-0.000542016,0.000891774,-0.000193397,-0.808295,0.000668374,0.0198435,1938,883,29.4451,-3.57229
721,141,29.4425,3.8761,0.00173987,0.000915567,-0.00072212,0.00215918,0.000496259,-0.526079,0.00130585,0.0136836,1945,883,29.4425,-3.87609
728,141,29.4714,4.19122,0.00275981,0.000953968,-0.000901818,0.00313303,0.000580745,-0.392394,0.00192454,0.0148482,1952,883,29.4714,-4.19124
735,141,29.4832,4.59973,0.00434787,0.000524757,-0.00106478,0.00462442,0.000248207,-0.25411,0.00300363,0.0148788,1959,883,29.4832,-4.59971
742,141,29.4625,4.92426,0.00642443,-0.000233381,-0.00109001,0.00659835,-0.000407292,-0.158217,0.00454075,0.0155051,1966,883,29.4626,-4.92427
749,141,29.4385,5.21423,0.00908746,-0.00159327,-0.000839135,0.00915299,-0.00165879,-0.0779281,0.00672348,0.0140506,1973,883,29.4385,-5.21422
756,141,29.3958,5.56421,0.0121153,-0.00416481,-0.000117026,0.0121162,-0.00416565,-0.00718775,0.00976674,0.0215246,1980,883,29.3958,-5.5642
763,141,29.3655,5.98718,0.0153512,-0.00857146,0.00124868,0.0154162,-0.00863646,0.0520081,0.0140695,0.0462306,1987,883,29.3654,-5.98719
770,141,30.4943,6.54688,0.018272,-0.0157007,0.00352327,0.0186335,-0.0160623,0.102259,0.02005,0.0466468,1994,883,30.4942,-6.54691
777,141,29.2632,8.25677,0,0,0,0,0,0,0,-1,2001,883,29.2632,-8.25677
784,141,28.8955,9.08655,0,0,0,0,0,0,0,-1,2008,883,28.8955,-9.08655
791,141,28.6381,10.0062,0,0,0,0,0,0,0,-1,2015,883,28.6381,-10.0062
798,141,0,0,0,0,0,0,0,0,0,-1,2022,883,0,0
805,141,0,0,0,0,0,0,0,0,0,-1,2029,883,0,0
812,141,0,0,0,0,0,0,0,0,0,-1,2036,883,0,0
-700,134,0,0,0,0,0,0,0,0,0,-1,524,890,0,0
-693,134,0,0,0,0,0,0,0,0,0,-1,531,890,0,0
-686,134,0,0,0,0,0,0,0,0,0,-1,538,890,0,0
-679,134,0,0,0,0,0,0,0,0,0,-1,545,890,0,0
-672,134,-20.5536,1.60754,0,0,0,0,0,0,0,-1,552,890,-20.5536,-1.60756
-665,134,-21.5301,2.20917,0,0,0,0,0,0,0,-1,559,890,-21.5301,-2.20916
-658,134,-22.476,2.82739,0,0,0,0,0,0,0,-1,566,890,-22.476,-2.82739
-651,134,-23.441,3.42804,0,0,0,0,0,0,0,-1,573,890,-23.441,-3.42807
-644,134,-21.8285,0.343933,0,0,0,0,0,0,0,-1,580,890,-21.8285,-0.343929
-637,134,-21.2688,2.24835,0,0,0,0,0,0,0,-1,587,890,-21.2688,-2.24834
-630,134,-21.1843,2.56445,0.00317916,0.00397609,0.0101121,0.0136976,-0.00654234,0.80509,0.0119264,0.0468045,594,890,-21.1843,-2.56446
-623,134,-21.0886,2.81433,0.00142973,0.00394251,0.00833114,0.0111115,-0.00573922,0.860238,0.00989218,0.023316,601,890,-21.0886,-2.81432
-616,134,-21.2117,2.52386,7.42956e-05,0.00321856,0.00659332,0.00842459,-0.00513174,0.902434,0.00790334,0.0121348,608,890,-21.2118,-2.52389
-609,134,-21.2702,2.22198,-0.000885986,0.00218639,0.0049525,0.00583548,-0.00453508,0.935785,0.00600311,0.0119118,615,890,-21.2702,-2.22201
-602,134,-21.2701,1.91473,-0.00142725,0.00107535,0.00352819,0.00356756,-0.00391947,0.955807,0.00432423,0.0125662,622,890,-21.2701,-1.91473
-595,134,-21.2299,1.66534,-0.00189633,0.000601435,0.00241117,0.00206797,-0.00336286,1.02435,0.00316506,0.0152482,629,890,-21.2299,-1.66535
-588,134,-21.5246,1.42084,-0.00207623,-0.000214225,0.00141802,0.000551109,-0.00284156,1.07588,0.00210229,0.0264307,636,890,-21.5246,-1.42082
-581,134,-21.4553,0.97052,-0.00211455,-0.000876149,0.000823905,-0.000464705,-0.002526,1.10764,0.00155246,0.0358332,643,890,-21.4553,-0.97055
-574,134,-21.332,0.455261,0,0,0,0,0,0,0,-1,650,890,-21.332,-0.45526
-567,134,-21.0853,0.549683,0,0,0,0,0,0,0,-1,657,890,-21.0853,-0.54968
-560,134,-18.8884,0.498169,0,0,0,0,0,0,0,-1,664,890,-18.8883,-0.498162
-553,134,-24.6497,0.942444,0,0,0,0,0,0,0,-1,671,890,-24.6497,-0.942448
-546,134,-24.6552,0.9198,-0.00125011,-0.00094821,0.000238555,-0.000816857,-0.00138146,1.06748,0.000802006,0.0274439,678,890,-24.6552,-0.919788
-539,134,-24.6944,0.86969,-0.00100158,-0.000629911,0.000393381,-0.000380678,-0.00125081,1.00606,0.000740355,0.0188085,685,890,-24.6944,-0.869708
-532,134,-24.7786,0.817017,-0.000731464,-0.000189361,0.000754237,0.000341051,-0.00126188,0.957898,0.000975023,0.0218587,692,890,-24.7787,-0.817004
-525,134,-24.8301,0.788086,-0.000550553,0.000379901,0.00126791,0.00126524,-0.0014359,0.961234,0.00156054,0.0343854,699,890,-24.8302,-0.788065
-518,134,-24.7243,1.12616,-0.00018471,0.00106287,0.00190613,0.00244468,-0.00156652,0.943533,0.0023343,0.0423703,706,890,-24.7243,-1.12614
-511,134,-24.7923,1.29059,0.000274525,0.00161663,0.00249236,0.0035267,-0.00163554,0.916901,0.00304636,0.0442296,713,890,-24.7923,-1.29057
-504,134,0,0,0,0,0,0,0,0,0,-1,720,890,0,0
-497,134,0,0,0,0,0,0,0,0,0,-1,727,890,0,0
-490,134,0,0,0,0,0,0,0,0,0,-1,734,890,0,0
-483,134,0,0,0,0,0,0,0,0,0,-1,741,890,0,0
-476,134,0,0,0,0,0,0,0,0,0,-1,748,890,0,0
-469,134,0,0,0,0,0,0,0,0,0,-1,755,890,0,0
-462,134,0,0,0,0,0,0,0,0,0,-1,762,890,0,0
-455,134,0,0,0,0,0,0,0,0,0,-1,769,890,0,0
-448,134,0,0,0,0,0,0,0,0,0,-1,776,890,0,0
-441,134,0,0,0,0,0,0,0,0,0,-1,783,890,0,0
-434,134,0,0,0,0,0,0,0,0,0,-1,790,890,0,0
-427,134,0,0,0,0,0,0,0,0,0,-1,797,890,0,0
-420,134,0,0,0,0,0,0,0,0,0,-1,804,890,0,0
-413,134,0,0,0,0,0,0,0,0,0,-1,811,890,0,0
-406,134,0,0,0,0,0,0,0,0,0,-1,818,890,0,0
-399,134,0,0,0,0,0,0,0,0,0,-1,825,890,0,0
-392,134,0,0,0,0,0,0,0,0,0,-1,832,890,0,0
-385,134,0,0,0,0,0,0,0,0,0,-1,839,890,0,0
-378,134,0,0,0,0,0,0,0,0,0,-1,846,890,0,0
-371,134,0,0,0,0,0,0,0,0,0,-1,853,890,0,0
-364,134,0,0,0,0,0,0,0,0,0,-1,860,890,0,0
-357,134,0,0,0,0,0,0,0,0,0,-1,867,890,0,0
-350,134,0,0,0,0,0,0,0,0,0,-1,874,890,0,0
-343,134,0,0,0,0,0,0,0,0,0,-1,881,890,0,0
-336,134,0,0,0,0,0,0,0,0,0,-1,888,890,0,0
-329,134,0,0,0,0,0,0,0,0,0,-1,895,890,0,0
-322,134,0,0,0,0,0,0,0,0,0,-1,902,890,0,0
-315,134,0,0,0,0,0,0,0,0,0,-1,909,890,0,0
-308,134,0,0,0,0,0,0,0,0,0,-1,916,890,0,0
-301,134,0,0,0,0,0,0,0,0,0,-1,923,890,0,0
-294,134,0,0,0,0,0,0,0,0,0,-1,930,890,0,0
-287,134,0,0,0,0,0,0,0,0,0,-1,937,890,0,0
-280,134,0,0,0,0,0,0,0,0,0,-1,944,890,0,0
-273,134,0,0,0,0,0,0,0,0,0,-1,951,890,0,0
-266,134,0,0,0,0,0,0,0,0,0,-1,958,890,0,0
-259,134,0,0,0,0,0,0,0,0,0,-1,965,890,0,0
-252,134,0,0,0,0,0,0,0,0,0,-1,972,890,0,0
-245,134,0,0,0,0,0,0,0,0,0,-1,979,890,0,0
-238,134,0,0,0,0,0,0,0,0,0,-1,986,890,0,0
-231,134,0,0,0,0,0,0,0,0,0,-1,993,890,0,0
-224,134,0,0,0,0,0,0,0,0,0,-1,1000,890,0,0
-217,134,0,0,0,0,0,0,0,0,0,-1,1007,890,0,0
-210,134,0,0,0,0,0,0,0,0,0,-1,1014,890,0,0
-203,134,0,0,0,0,0,0,0,0,0,-1,1021,890,0,0
-196,134,0,0,0,0,0,0,0,0,0,-1,1028,890,0,0
-189,134,0,0,0,0,0,0,0,0,0,-1,1035,890,0,0
-182,134,0,0,0,0,0,0,0,0,0,-1,1042,890,0,0
-175,134,0,0,0,0,0,0,0,0,0,-1,1049,890,0,0
-168,134,0,0,0,0,0,0,0,0,0,-1,1056,890,0,0
-161,134,0,0,0,0,0,0,0,0,0,-1,1063,890,0,0
-154,134,0,0,0,0,0,0,0,0,0,-1,1070,890,0,0
-147,134,0,0,0,0,0,0,0,0,0,-1,1077,890,0,0
-140,134,0,0,0,0,0,0,0,0,0,-1,1084,890,0,0
-133,134,0,0,0,0,0,0,0,0,0,-1,1091,890,0,0
-126,134,0,0,0,0,0,0,0,0,0,-1,1098,890,0,0
-119,134,0,0,0,0,0,0,0,0,0,-1,1105,890,0,0
-112,134,0,0,0,0,0,0,0,0,0,-1,1112,890,0,0
-105,134,0,0,0,0,0,0,0,0,0,-1,1119,890,0,0
-98,134,0,0,0,0,0,0,0,0,0,-1,1126,890,0,0
-91,134,0,0,0,0,0,0,0,0,0,-1,1133,890,0,0
-84,134,0,0,0,0,0,0,0,0,0,-1,1140,890,0,0
-77,134,0,0,0,0,0,0,0,0,0,-1,1147,890,0,0
-70,134,0,0,0,0,0,0,0,0,0,-1,1154,890,0,0
-63,134,0,0,0,0,0,0,0,0,0,-1,1161,890,0,0
-56,134,0,0,0,0,0,0,0,0,0,-1,1168,890,0,0
-49,134,0,0,0,0,0,0,0,0,0,-1,1175,890,0,0
-42,134,0,0,0,0,0,0,0,0,0,-1,1182,890,0,0
-35,134,0,0,0,0,0,0,0,0,0,-1,1189,890,0,0
-28,134,0,0,0,0,0,0,0,0,0,-1,1196,890,0,0
-21,134,0,0,0,0,0,0,0,0,0,-1,1203,890,0,0
-14,134,0,0,0,0,0,0,0,0,0,-1,1210,890,0,0
-7,134,0,0,0,0,0,0,0,0,0,-1,1217,890,0,0
0,134,0,0,0,0,0,0,0,0,0,-1,1224,890,0,0
7,134,0,0,0,0,0,0,0,0,0,-1,1231,890,0,0
14,134,0,0,0,0,0,0,0,0,0,-1,1238,890,0,0
21,134,0,0,0,0,0,0,0,0,0,-1,1245,890,0,0
28,134,0,0,0,0,0,0,0,0,0,-1,1252,890,0,0
35,134,0,0,0,0,0,0,0,0,0,-1,1259,890,0,0
42,134,0,0,0,0,0,0,0,0,0,-1,1266,890,0,0
49,134,0,0,0,0,0,0,0,0,0,-1,1273,890,0,0
56,134,0,0,0,0,0,0,0,0,0,-1,1280,890,0,0
63,134,0,0,0,0,0,0,0,0,0,-1,1287,890,0,0
70,134,0,0,0,0,0,0,0,0,0,-1,1294,890,0,0
77,134,0,0,0,0,0,0,0,0,0,-1,1301,890,0,0
84,134,0,0,0,0,0,0,0,0,0,-1,1308,890,0,0
91,134,0,0,0,0,0,0,0,0,0,-1,1315,890,0,0
98,134,0,0,0,0,0,0,0,0,0,-1,1322,890,0,0
105,134,0,0,0,0,0,0,0,0,0,-1,1329,890,0,0
112,134,0,0,0,0,0,0,0,0,0,-1,1336,890,0,0
119,134,0,0,0,0,0,0,0,0,0,-1,1343,890,0,0
126,134,0,0,0,0,0,0,0,0,0,-1,1350,890,0,0
133,134,0,0,0,0,0,0,0,0,0,-1,1357,890,0,0
140,134,0,0,0,0,0,0,0,0,0,-1,1364,890,0,0
147,134,0,0,0,0,0,0,0,0,0,-1,1371,890,0,0
154,134,0,0,0,0,0,0,0,0,0,-1,1378,890,0,0
161,134,0,0,0,0,0,0,0,0,0,-1,1385,890,0,0
168,134,0,0,0,0,0,0,0,0,0,-1,1392,890,0,0
175,134,0,0,0,0,0,0,0,0,0,-1,1399,890,0,0
182,134,0,0,0,0,0,0,0,0,0,-1,1406,890,0,0
189,134,0,0,0,0,0,0,0,0,0,-1,1413,890,0,0
196,134,0,0,0,0,0,0,0,0,0,-1,1420,890,0,0
203,134,0,0,0,0,0,0,0,0,0,-1,1427,890,0,0
210,134,0,0,0,0,0,0,0,0,0,-1,1434,890,0,0
217,134,0,0,0,0,0,0,0,0,0,-1,1441,890,0,0
224,134,0,0,0,0,0,0,0,0,0,-1,1448,890,0,0
231,134,0,0,0,0,0,0,0,0,0,-1,1455,890,0,0
238,134,0,0,0,0,0,0,0,0,0,-1,1462,890,0,0
245,134,0,0,0,0,0,0,0,0,0,-1,1469,890,0,0
252,134,0,0,0,0,0,0,0,0,0,-1,1476,890,0,0
259,134,0,0,0,0,0,0,0,0,0,-1,1483,890,0,0
266,134,0,0,0,0,0,0,0,0,0,-1,1490,890,0,0
273,134,0,0,0,0,0,0,0,0,0,-1,1497,890,0,0
280,134,0,0,0,0,0,0,0,0,0,-1,1504,890,0,0
287,134,0,0,0,0,0,0,0,0,0,-1,1511,890,0,0
294,134,0,0,0,0,0,0,0,0,0,-1,1518,890,0,0
301,134,0,0,0,0,0,0,0,0,0,-1,1525,890,0,0
308,134,0,0,0,0,0,0,0,0,0,-1,1532,890,0,0
315,134,0,0,0,0,0,0,0,0,0,-1,1539,890,0,0
322,134,0,0,0,0,0,0,0,0,0,-1,1546,890,0,0
329,134,0,0,0,0,0,0,0,0,0,-1,1553,890,0,0
336,134,0,0,0,0,0,0,0,0,0,-1,1560,890,0,0
343,134,0,0,0,0,0,0,0,0,0,-1,1567,890,0,0
350,134,0,0,0,0,0,0,0,0,0,-1,1574,890,0,0
357,134,0,0,0,0,0,0,0,0,0,-1,1581,890,0,0
364,134,0,0,0,0,0,0,0,0,0,-1,1588,890,0,0
371,134,0,0,0,0,0,0,0,0,0,-1,1595,890,0,0
378,134,0,0,0,0,0,0,0,0,0,-1,1602,890,0,0
385,134,0,0,0,0,0,0,0,0,0,-1,1609,890,0,0
392,134,0,0,0,0,0,0,0,0,0,-1,1616,890,0,0
399,134,0,0,0,0,0,0,0,0,0,-1,1623,890,0,0
406,134,0,0,0,0,0,0,0,0,0,-1,1630,890,0,0
413,134,0,0,0,0,0,0,0,0,0,-1,1637,890,0,0
420,134,0,0,0,0,0,0,0,0,0,-1,1644,890,0,0
427,134,0,0,0,0,0,0,0,0,0,-1,1651,890,0,0
434,134,0,0,0,0,0,0,0,0,0,-1,1658,890,0,0
441,134,0,0,0,0,0,0,0,0,0,-1,1665,890,0,0
448,134,0,0,0,0,0,0,0,0,0,-1,1672,890,0,0
455,134,0,0,0,0,0,0,0,0,0,-1,1679,890,0,0
462,134,0,0,0,0,0,0,0,0,0,-1,1686,890,0,0
469,134,0,0,0,0,0,0,0,0,0,-1,1693,890,0,0
476,134,0,0,0,0,0,0,0,0,0,-1,1700,890,0,0
483,134,0,0,0,0,0,0,0,0,0,-1,1707,890,0,0
490,134,0,0,0,0,0,0,0,0,0,-1,1714,890,0,0
497,134,0,0,0,0,0,0,0,0,0,-1,1721,890,0,0
504,134,0,0,0,0,0,0,0,0,0,-1,1728,890,0,0
511,134,0,0,0,0,0,0,0,0,0,-1,1735,890,0,0
518,134,0,0,0,0,0,0,0,0,0,-1,1742,890,0,0
525,134,0,0,0,0,0,0,0,0,0,-1,1749,890,0,0
532,134,0,0,0,0,0,0,0,0,0,-1,1756,890,0,0
539,134,0,0,0,0,0,0,0,0,0,-1,1763,890,0,0
546,134,0,0,0,0,0,0,0,0,0,-1,1770,890,0,0
553,134,0,0,0,0,0,0,0,0,0,-1,1777,890,0,0
560,134,0,0,0,0,0,0,0,0,0,-1,1784,890,0,0
567,134,0,0,0,0,0,0,0,0,0,-1,1791,890,0,0
574,134,0,0,0,0,0,0,0,0,0,-1,1798,890,0,0
581,134,0,0,0,0,0,0,0,0,0,-1,1805,890,0,0
588,134,0,0,0,0,0,0,0,0,0,-1,1812,890,0,0
595,134,0,0,0,0,0,0,0,0,0,-1,1819,890,0,0
602,134,0,0,0,0,0,0,0,0,0,-1,1826,890,0,0
609,134,0,0,0,0,0,0,0,0,0,-1,1833,890,0,0
616,134,0,0,0,0,0,0,0,0,0,-1,1840,890,0,0
623,134,34.1648,2.99866,0.00300789,-0.000990321,-0.00197971,0.00382227,-0.0018047,-0.390262,0.00331761,0.0470736,1847,890,34.1648,-2.99865
630,134,34.12,3.00354,0.00284156,-0.000139948,-0.00120461,0.00326743,-0.000565816,-0.339817,0.00238933,0.0482928,1854,890,34.12,-3.00352
637,134,34.3411,3.07831,0,0,0,0,0,0,0,-1,1861,890,34.3411,-3.07832
644,134,34.4268,2.86102,0.0015943,0.00088625,-0.000607543,0.00194344,0.00053711,-0.52159,0.00115885,0.0397466,1868,890,34.4268,-2.86101
651,134,34.4376,2.79199,0.000849861,0.00109731,-0.000396904,0.00138933,0.000557844,-0.936485,0.000807297,0.0407735,1875,890,34.4377,-2.792
658,134,34.3876,2.8512,0.00035304,0.00114245,-0.000234653,0.00120693,0.000288556,-1.30261,0.00072776,0.0406077,1882,890,34.3876,-2.85121
665,134,34.2349,2.79694,8.13821e-05,0.00109953,-0.000107139,0.00111068,7.023e-05,-1.46708,0.000718188,0.0313423,1889,890,34.2348,-2.79691
672,134,34.2358,2.77063,6.82212e-06,0.000970171,6.23126e-05,0.000974185,2.80829e-06,1.50647,0.000648522,0.0204092,1896,890,34.2359,-2.77064
679,134,34.2032,2.76727,-2.66365e-05,0.000935984,7.43628e-05,0.000941695,-3.23472e-05,1.49415,0.000638852,0.0177146,1903,890,34.2033,-2.76725
686,134,34.1654,2.81158,0,0,0,0,0,0,0,-1,1910,890,34.1654,-2.81156
693,134,29.8584,2.68597,0,0,0,0,0,0,0,-1,1917,890,29.8584,-2.68594
700,134,29.7908,2.87366,-0.000402903,0.000540263,7.44062e-05,0.000546097,-0.000408737,1.49255,0.000553172,0.0365374,1924,890,29.7908,-2.87368
707,134,29.5715,3.04944,-0.000310487,0.000454914,-0.000113991,0.00047153,-0.000327103,-1.42605,0.000463597,0.0208367,1931,890,29.5716,-3.04943
714,134,29.6233,3.46069,0.000404836,0.000550902,-0.000327427,0.000813342,0.000142396,-0.895127,0.000501546,0.0209695,1938,890,29.6233,-3.4607
721,134,29.8037,3.88531,0.00179336,0.000990688,-0.000496013,0.00203007,0.000753981,-0.445259,0.00118491,0.0178051,1945,890,29.8037,-3.88529
728,134,29.8425,4.20251,0.00271,0.00102146,-0.000684102,0.00295237,0.000779091,-0.340492,0.00176677,0.016305,1952,890,29.8425,-4.20249
735,134,29.8373,4.59412,0.00433728,0.000716847,-0.000915422,0.00455558,0.000498547,-0.234098,0.00288526,0.0213695,1959,890,29.8373,-4.5941
742,134,29.7867,4.91046,0.00652152,0.000210149,-0.0010899,0.00670443,2.72386e-05,-0.166274,0.00446057,0.0141121,1966,890,29.7867,-4.91049
749,134,29.7832,5.19861,0.00934626,-0.00075559,-0.00101252,0.00944674,-0.000856076,-0.0989199,0.00660171,0.0111293,1973,890,29.7832,-5.19863
756,134,29.7881,5.51428,0.0126227,-0.0027154,-0.000512189,0.0126398,-0.00273248,-0.0333437,0.00946968,0.0155239,1980,890,29.7881,-5.51426
763,134,29.7903,5.88092,0.0162373,-0.00615593,0.000510361,0.0162489,-0.00616756,0.0227751,0.0133713,0.0374201,1987,890,29.7903,-5.88094
770,134,30.848,6.22028,0.0198419,-0.0118387,0.00226864,0.0200035,-0.0120003,0.0711261,0.018669,0.0484568,1994,890,30.848,-6.22025
777,134,32.1775,6.47571,0,0,0,0,0,0,0,-1,2001,890,32.1775,-6.47573
784,134,29.8033,10.3079,0,0,0,0,0,0,0,-1,2008,890,29.8033,-10.3079
791,134,29.6644,10.4744,0,0,0,0,0,0,0,-1,2015,890,29.6644,-10.4744
798,134,0,0,0,0,0,0,0,0,0,-1,2022,890,0,0
805,134,0,0,0,0,0,0,0,0,0,-1,2029,890,0,0
812,134,0,0,0,0,0,0,0,0,0,-1,2036,890,0,0
-700,127,0,0,0,0,0,0,0,0,0,-1,524,897,0,0
-693,127,0,0,0,0,0,0,0,0,0,-1,531,897,0,0
-686,127,0,0,0,0,0,0,0,0,0,-1,538,897,0,0
-679,127,-22.0844,3.09772,0,0,0,0,0,0,0,-1,545,897,-22.0843,-3.09771
-672,127,-22.1436,2.69775,0,0,0,0,0,0,0,-1,552,897,-22.1436,-2.69775
-665,127,-21.9675,2.75842,0,0,0,0,0,0,0,-1,559,897,-21.9675,-2.7584
-658,127,-22.4094,3.17834,0,0,0,0,0,0,0,-1,566,897,-22.4094,-3.17832
-651,127,-23.3644,3.79639,0,0,0,0,0,0,0,-1,573,897,-23.3644,-3.79637
-644,127,-23.1231,0.372742,0,0,0,0,0,0,0,-1,580,897,-23.1231,-0.372754
-637,127,-22.3636,1.41998,0,0,0,0,0,0,0,-1,587,897,-22.3636,-1.42
-630,127,-21.5612,2.42218,0.00228228,0.000827962,0.00936391,0.0109472,-0.00783698,0.746648,0.0108945,0.0380056,594,897,-21.5612,-2.42217
-623,127,-21.4786,2.7265,0.000926252,0.00140711,0.00762387,0.00879434,-0.00646098,0.801161,0.00884194,0.0146034,601,897,-21.4786,-2.72647
-616,127,-21.5424,2.48395,-0.000238824,0.00130297,0.00598621,0.00656772,-0.00550357,0.849435,0.00697838,0.0103949,608,897,-21.5423,-2.48395
-609,127,-21.5823,2.19092,-0.00124789,0.000977005,0.00446256,0.00446369,-0.00473457,0.907551,0.00531138,0.0143263,615,897,-21.5824,-2.19092
-602,127,-21.5908,1.91498,-0.00195742,0.000363883,0.00318409,0.00259226,-0.0041858,0.960172,0.0039492,0.0161278,622,897,-21.5908,-1.91496
-595,127,-21.5459,1.67041,-0.00257313,0.000255249,0.00222709,0.00147921,-0.0037971,1.06828,0.00314273,0.0197639,629,897,-21.5459,-1.67044
-588,127,-21.6646,1.38678,-0.00288023,-0.000269628,0.00134981,0.000302779,-0.00345263,1.16972,0.00240903,0.0262329,636,897,-21.6646,-1.38681
-581,127,-21.7363,1.0108,-0.00300303,-0.00079369,0.000807675,-0.000529918,-0.00326681,1.25513,0.00202448,0.0426768,643,897,-21.7363,-1.01082
-574,127,-21.7919,0.404053,0,0,0,0,0,0,0,-1,650,897,-21.7919,-0.404045
-567,127,-20.6213,0.434875,0,0,0,0,0,0,0,-1,657,897,-20.6213,-0.434857
-560,127,-18.9678,1.21667,0,0,0,0,0,0,0,-1,664,897,-18.9677,-1.2167
-553,127,-24.7092,0.853699,0,0,0,0,0,0,0,-1,671,897,-24.7092,-0.853708
-546,127,-24.7225,0.844421,-0.00220553,-0.000855228,6.49813e-05,-0.000852108,-0.00220865,1.52282,0.0012862,0.0244371,678,897,-24.7225,-0.844415
-539,127,-24.7145,0.830078,-0.00188176,-0.000553229,0.000203833,-0.000522659,-0.00191233,1.42193,0.00114128,0.0217133,685,897,-24.7145,-0.830064
-532,127,-24.7267,0.78479,-0.00149742,-0.00014258,0.000523471,3.61071e-05,-0.00167611,1.24185,0.00112963,0.0168766,692,897,-24.7267,-0.784805
-525,127,-24.7893,0.78241,-0.00107306,0.000382375,0.000998742,0.0008904,-0.00158108,1.10024,0.00144536,0.0324246,699,897,-24.7893,-0.782423
-518,127,-24.6142,0.744385,-0.000574122,0.000992205,0.00162903,0.00201655,-0.00159846,1.00947,0.00209177,0.041588,706,897,-24.6142,-0.74439
-511,127,-24.5228,0.45874,0,0,0,0,0,0,0,-1,713,897,-24.5228,-0.45877
-504,127,0,0,0,0,0,0,0,0,0,-1,720,897,0,0
-497,127,0,0,0,0,0,0,0,0,0,-1,727,897,0,0
-490,127,0,0,0,0,0,0,0,0,0,-1,734,897,0,0
-483,127,0,0,0,0,0,0,0,0,0,-1,741,897,0,0
-476,127,0,0,0,0,0,0,0,0,0,-1,748,897,0,0
-469,127,0,0,0,0,0,0,0,0,0,-1,755,897,0,0
-462,127,0,0,0,0,0,0,0,0,0,-1,762,897,0,0
-455,127,0,0,0,0,0,0,0,0,0,-1,769,897,0,0
-448,127,0,0,0,0,0,0,0,0,0,-1,776,897,0,0
-441,127,0,0,0,0,0,0,0,0,0,-1,783,897,0,0
-434,127,0,0,0,0,0,0,0,0,0,-1,790,897,0,0
-427,127,0,0,0,0,0,0,0,0,0,-1,797,897,0,0
-420,127,0,0,0,0,0,0,0,0,0,-1,804,897,0,0
-413,127,0,0,0,0,0,0,0,0,0,-1,811,897,0,0
-406,127,0,0,0,0,0,0,0,0,0,-1,818,897,0,0
-399,127,0,0,0,0,0,0,0,0,0,-1,825,897,0,0
-392,127,0,0,0,0,0,0,0,0,0,-1,832,897,0,0
-385,127,0,0,0,0,0,0,0,0,0,-1,839,897,0,0
-378,127,0,0,0,0,0,0,0,0,0,-1,846,897,0,0
-371,127,0,0,0,0,0,0,0,0,0,-1,853,897,0,0
-364,127,0,0,0,0,0,0,0,0,0,-1,860,897,0,0
-357,127,0,0,0,0,0,0,0,0,0,-1,867,897,0,0
-350,127,0,0,0,0,0,0,0,0,0,-1,874,897,0,0
-343,127,0,0,0,0,0,0,0,0,0,-1,881,897,0,0
-336,127,0,0,0,0,0,0,0,0,0,-1,888,897,0,0
-329,127,0,0,0,0,0,0,0,0,0,-1,895,897,0,0
-322,127,0,0,0,0,0,0,0,0,0,-1,902,897,0,0
-315,127,0,0,0,0,0,0,0,0,0,-1,909,897,0,0
-308,127,0,0,0,0,0,0,0,0,0,-1,916,897,0,0
-301,127,0,0,0,0,0,0,0,0,0,-1,923,897,0,0
-294,127,0,0,0,0,0,0,0,0,0,-1,930,897,0,0
-287,127,0,0,0,0,0,0,0,0,0,-1,937,897,0,0
-280,127,0,0,0,0,0,0,0,0,0,-1,944,897,0,0
-273,127,0,0,0,0,0,0,0,0,0,-1,951,897,0,0
-266,127,0,0,0,0,0,0,0,0,0,-1,958,897,0,0
-259,127,0,0,0,0,0,0,0,0,0,-1,965,897,0,0
-252,127,0,0,0,0,0,0,0,0,0,-1,972,897,0,0
-245,127,0,0,0,0,0,0,0,0,0,-1,979,897,0,0
-238,127,0,0,0,0,0,0,0,0,0,-1,986,897,0,0
-231,127,0,0,0,0,0,0,0,0,0,-1,993,897,0,0
-224,127,0,0,0,0,0,0,0,0,0,-1,1000,897,0,0
-217,127,0,0,0,0,0,0,0,0,0,-1,1007,897,0,0
-210,127,0,0,0,0,0,0,0,0,0,-1,1014,897,0,0
-203,127,0,0,0,0,0,0,0,0,0,-1,1021,897,0,0
-196,127,0,0,0,0,0,0,0,0,0,-1,1028,897,0,0
-189,127,0,0,0,0,0,0,0,0,0,-1,1035,897,0,0
-182,127,0,0,0,0,0,0,0,0,0,-1,1042,897,0,0
-175,127,0,0,0,0,0,0,0,0,0,-1,1049,897,0,0
-168,127,0,0,0,0,0,0,0,0,0,-1,1056,897,0,0
-161,127,0,0,0,0,0,0,0,0,0,-1,1063,897,0,0
-154,127,0,0,0,0,0,0,0,0,0,-1,1070,897,0,0
-147,127,0,0,0,0,0,0,0,0,0,-1,1077,897,0,0
-140,127,0,0,0,0,0,0,0,0,0,-1,1084,897,0,0
-133,127,0,0,0,0,0,0,0,0,0,-1,1091,897,0,0
-126,127,0,0,0,0,0,0,0,0,0,-1,1098,897,0,0
-119,127,0,0,0,0,0,0,0,0,0,-1,1105,897,0,0
-112,127,0,0,0,0,0,0,0,0,0,-1,1112,897,0,0
-105,127,0,0,0,0,0,0,0,0,0,-1,1119,897,0,0
-98,127,0,0,0,0,0,0,0,0,0,-1,1126,897,0,0
-91,127,0,0,0,0,0,0,0,0,0,-1,1133,897,0,0
-84,127,0,0,0,0,0,0,0,0,0,-1,1140,897,0,0
-77,127,0,0,0,0,0,0,0,0,0,-1,1147,897,0,0
-70,127,0,0,0,0,0,0,0,0,0,-1,1154,897,0,0
-63,127,0,0,0,0,0,0,0,0,0,-1,1161,897,0,0
-56,127,0,0,0,0,0,0,0,0,0,-1,1168,897,0,0
-49,127,0,0,0,0,0,0,0,0,0,-1,1175,897,0,0
-42,127,0,0,0,0,0,0,0,0,0,-1,1182,897,0,0
-35,127,0,0,0,0,0,0,0,0,0,-1,1189,897,0,0
-28,127,0,0,0,0,0,0,0,0,0,-1,1196,897,0,0
-21,127,0,0,0,0,0,0,0,0,0,-1,1203,897,0,0
-14,127,0,0,0,0,0,0,0,0,0,-1,1210,897,0,0
-7,127,0,0,0,0,0,0,0,0,0,-1,1217,897,0,0
0,127,0,0,0,0,0,0,0,0,0,-1,1224,897,0,0
7,127,0,0,0,0,0,0,0,0,0,-1,1231,897,0,0
14,127,0,0,0,0,0,0,0,0,0,-1,1238,897,0,0
21,127,0,0,0,0,0,0,0,0,0,-1,1245,897,0,0
28,127,0,0,0,0,0,0,0,0,0,-1,1252,897,0,0
35,127,0,0,0,0,0,0,0,0,0,-1,1259,897,0,0
42,127,0,0,0,0,0,0,0,0,0,-1,1266,897,0,0
49,127,0,0,0,0,0,0,0,0,0,-1,1273,897,0,0
56,127,0,0,0,0,0,0,0,0,0,-1,1280,897,0,0
63,127,0,0,0,0,0,0,0,0,0,-1,1287,897,0,0
70,127,0,0,0,0,0,0,0,0,0,-1,1294,897,0,0
77,127,0,0,0,0,0,0,0,0,0,-1,1301,897,0,0
84,127,0,0,0,0,0,0,0,0,0,-1,1308,897,0,0
91,127,0,0,0,0,0,0,0,0,0,-1,1315,897,0,0
98,127,0,0,0,0,0,0,0,0,0,-1,1322,897,0,0
105,127,0,0,0,0,0,0,0,0,0,-1,1329,897,0,0
112,127,0,0,0,0,0,0,0,0,0,-1,1336,897,0,0
119,127,0,0,0,0,0,0,0,0,0,-1,1343,897,0,0
126,127,0,0,0,0,0,0,0,0,0,-1,1350,897,0,0
133,127,0,0,0,0,0,0,0,0,0,-1,1357,897,0,0
140,127,0,0,0,0,0,0,0,0,0,-1,1364,897,0,0
147,127,0,0,0,0,0,0,0,0,0,-1,1371,897,0,0
154,127,0,0,0,0,0,0,0,0,0,-1,1378,897,0,0
161,127,0,0,0,0,0,0,0,0,0,-1,1385,897,0,0
168,127,0,0,0,0,0,0,0,0,0,-1,1392,897,0,0
175,127,0,0,0,0,0,0,0,0,0,-1,1399,897,0,0
182,127,0,0,0,0,0,0,0,0,0,-1,1406,897,0,0
189,127,0,0,0,0,0,0,0,0,0,-1,1413,897,0,0
196,127,0,0,0,0,0,0,0,0,0,-1,1420,897,0,0
203,127,0,0,0,0,0,0,0,0,0,-1,1427,897,0,0
210,127,0,0,0,0,0,0,0,0,0,-1,1434,897,0,0
217,127,0,0,0,0,0,0,0,0,0,-1,1441,897,0,0
224,127,0,0,0,0,0,0,0,0,0,-1,1448,897,0,0
231,127,0,0,0,0,0,0,0,0,0,-1,1455,897,0,0
238,127,0,0,0,0,0,0,0,0,0,-1,1462,897,0,0
245,127,0,0,0,0,0,0,0,0,0,-1,1469,897,0,0
252,127,0,0,0,0,0,0,0,0,0,-1,1476,897,0,0
259,127,0,0,0,0,0,0,0,0,0,-1,1483,897,0,0
266,127,0,0,0,0,0,0,0,0,0,-1,1490,897,0,0
273,127,0,0,0,0,0,0,0,0,0,-1,1497,897,0,0
280,127,0,0,0,0,0,0,0,0,0,-1,1504,897,0,0
287,127,0,0,0,0,0,0,0,0,0,-1,1511,897,0,0
294,127,0,0,0,0,0,0,0,0,0,-1,1518,897,0,0
301,127,0,0,0,0,0,0,0,0,0,-1,1525,897,0,0
308,127,0,0,0,0,0,0,0,0,0,-1,1532,897,0,0
315,127,0,0,0,0,0,0,0,0,0,-1,1539,897,0,0
322,127,0,0,0,0,0,0,0,0,0,-1,1546,897,0,0
329,127,0,0,0,0,0,0,0,0,0,-1,1553,897,0,0
336,127,0,0,0,0,0,0,0,0,0,-1,1560,897,0,0
343,127,0,0,0,0,0,0,0,0,0,-1,1567,897,0,0
350,127,0,0,0,0,0,0,0,0,0,-1,1574,897,0,0
357,127,0,0,0,0,0,0,0,0,0,-1,1581,897,0,0
364,127,0,0,0,0,0,0,0,0,0,-1,1588,897,0,0
371,127,0,0,0,0,0,0,0,0,0,-1,1595,897,0,0
378,127,0,0,0,0,0,0,0,0,0,-1,1602,897,0,0
385,127,0,0,0,0,0,0,0,0,0,-1,1609,897,0,0
392,127,0,0,0,0,0,0,0,0,0,-1,1616,897,0,0
399,127,0,0,0,0,0,0,0,0,0,-1,1623,897,0,0
406,127,0,0,0,0,0,0,0,0,0,-1,1630,897,0,0
413,127,0,0,0,0,0,0,0,0,0,-1,1637,897,0,0
420,127,0,0,0,0,0,0,0,0,0,-1,1644,897,0,0
427,127,0,0,0,0,0,0,0,0,0,-1,1651,897,0,0
434,127,0,0,0,0,0,0,0,0,0,-1,1658,897,0,0
441,127,0,0,0,0,0,0,0,0,0,-1,1665,897,0,0
448,127,0,0,0,0,0,0,0,0,0,-1,1672,897,0,0
455,127,0,0,0,0,0,0,0,0,0,-1,1679,897,0,0
462,127,0,0,0,0,0,0,0,0,0,-1,1686,897,0,0
469,127,0,0,0,0,0,0,0,0,0,-1,1693,897,0,0
476,127,0,0,0,0,0,0,0,0,0,-1,1700,897,0,0
483,127,0,0,0,0,0,0,0,0,0,-1,1707,897,0,0
490,127,0,0,0,0,0,0,0,0,0,-1,1714,897,0,0
497,127,0,0,0,0,0,0,0,0,0,-1,1721,897,0,0
504,127,0,0,0,0,0,0,0,0,0,-1,1728,897,0,0
511,127,0,0,0,0,0,0,0,0,0,-1,1735,897,0,0
518,127,0,0,0,0,0,0,0,0,0,-1,1742,897,0,0
525,127,0,0,0,0,0,0,0,0,0,-1,1749,897,0,0
532,127,0,0,0,0,0,0,0,0,0,-1,1756,897,0,0
539,127,0,0,0,0,0,0,0,0,0,-1,1763,897,0,0
546,127,0,0,0,0,0,0,0,0,0,-1,1770,897,0,0
553,127,0,0,0,0,0,0,0,0,0,-1,1777,897,0,0
560,127,0,0,0,0,0,0,0,0,0,-1,1784,897,0,0
567,127,0,0,0,0,0,0,0,0,0,-1,1791,897,0,0
574,127,0,0,0,0,0,0,0,0,0,-1,1798,897,0,0
581,127,0,0,0,0,0,0,0,0,0,-1,1805,897,0,0
588,127,0,0,0,0,0,0,0,0,0,-1,1812,897,0,0
595,127,0,0,0,0,0,0,0,0,0,-1,1819,897,0,0
602,127,0,0,0,0,0,0,0,0,0,-1,1826,897,0,0
609,127,0,0,0,0,0,0,0,0,0,-1,1833,897,0,0
616,127,0,0,0,0,0,0,0,0,0,-1,1840,897,0,0
623,127,0,0,0,0,0,0,0,0,0,-1,1847,897,0,0
630,127,34.1377,2.88098,0.00336735,0.00057289,-0.00111,0.0037546,0.000185645,-0.335667,0.00244354,0.045801,1854,897,34.1377,-2.88097
637,127,34.259,2.96875,0.00282549,0.00102807,-0.000860125,0.00317077,0.000682794,-0.381731,0.001927,0.0431119,1861,897,34.259,-2.96874
644,127,34.3909,2.86896,0.00196593,0.00129982,-0.000624392,0.00234054,0.00092521,-0.54039,0.00136115,0.0405063,1868,897,34.3909,-2.86898
651,127,34.3311,2.90332,0.00109587,0.00144263,-0.000382145,0.00168889,0.000849611,-0.998365,0.000975086,0.0417774,1875,897,34.331,-2.90333
658,127,34.2615,2.94257,0.000483905,0.00148002,-0.000167126,0.00150731,0.000456613,-1.40892,0.000892495,0.0421685,1882,897,34.2615,-2.94257
665,127,34.2251,2.84326,0.000149383,0.00142895,4.68331e-06,0.00142897,0.000149366,1.56714,0.000906967,0.0365851,1889,897,34.2251,-2.84327
672,127,34.1895,2.70404,5.15329e-05,0.00128884,0.000206053,0.00132225,1.81205e-05,1.41004,0.000875524,0.0293285,1896,897,34.1895,-2.70404
679,127,34.233,2.69598,2.55555e-05,0.00122057,0.000262812,0.00127581,-2.96895e-05,1.36361,0.000860608,0.0215666,1903,897,34.2331,-2.69601
686,127,34.193,2.78839,-9.79028e-05,0.00112205,0.000313016,0.00119767,-0.000173529,1.33374,0.000862133,0.0338347,1910,897,34.1929,-2.7884
693,127,34.0485,2.91309,0,0,0,0,0,0,0,-1,1917,897,34.0485,-2.9131
700,127,30.0371,2.76099,0,0,0,0,0,0,0,-1,1924,897,30.0372,-2.76098
707,127,29.8821,3.08472,-0.00028326,0.000667676,0.000116255,0.000681682,-0.000297266,1.4509,0.000579539,0.025639,1931,897,29.882,-3.08472
714,127,30.0118,3.45917,0.000444362,0.000743126,-0.000149937,0.000805395,0.000382093,-1.17717,0.000465198,0.0217621,1938,897,30.0119,-3.45917
721,127,30.2192,3.95789,0.00174162,0.00108842,-0.000329337,0.00187884,0.000951202,-0.394786,0.00108478,0.016947,1945,897,30.2193,-3.95787
728,127,30.1855,4.22693,0.00250128,0.00110697,-0.000538107,0.0026848,0.000923455,-0.328674,0.00157503,0.0147417,1952,897,30.1855,-4.2269
735,127,30.17,4.58264,0.0040897,0.000913155,-0.000828704,0.0042929,0.000709959,-0.240454,0.00265708,0.0201844,1959,897,30.1701,-4.58266
742,127,30.1238,4.89429,0.00625994,0.000629352,-0.00114459,0.00648372,0.000405574,-0.193075,0.00419383,0.0170375,1966,897,30.1238,-4.89426
749,127,30.1024,5.18353,0.0091107,4.65504e-05,-0.00123021,0.0092747,-0.00011745,-0.132529,0.00622265,0.0112784,1973,897,30.1024,-5.18356
756,127,30.0999,5.46472,0.0125087,-0.00130635,-0.000922876,0.01257,-0.00136773,-0.0664092,0.00887114,0.0140546,1980,897,30.0999,-5.46471
763,127,30.1105,5.70959,0.0163649,-0.00380101,-0.000171403,0.0163663,-0.00380247,-0.00849885,0.0123747,0.0238294,1987,897,30.1105,-5.70958
770,127,30.8992,5.52283,0.020494,-0.00806076,0.00119372,0.0205438,-0.00811058,0.0417075,0.0170549,0.0472677,1994,897,30.8992,-5.52282
777,127,31.8888,5.41821,0,0,0,0,0,0,0,-1,2001,897,31.8888,-5.41824
784,127,31.283,10.9611,0,0,0,0,0,0,0,-1,2008,897,31.2829,-10.9611
791,127,30.978,11.1311,0,0,0,0,0,0,0,-1,2015,897,30.9781,-11.1311
798,127,0,0,0,0,0,0,0,0,0,-1,2022,897,0,0
805,127,0,0,0,0,0,0,0,0,0,-1,2029,897,0,0
812,127,0,0,0,0,0,0,0,0,0,-1,2036,897,0,0
-700,120,0,0,0,0,0,0,0,0,0,-1,524,904,0,0
-693,120,0,0,0,0,0,0,0,0,0,-1,531,904,0,0
-686,120,0,0,0,0,0,0,0,0,0,-1,538,904,0,0
-679,120,-21.9791,3.24988,0,0,0,0,0,0,0,-1,545,904,-21.979,-3.24985
-672,120,-21.9971,3.30048,0,0,0,0,0,0,0,-1,552,904,-21.9971,-3.30046
-665,120,-22.0357,3.34845,0,0,0,0,0,0,0,-1,559,904,-22.0357,-3.34842
-658,120,-22.2199,3.48883,0,0,0,0,0,0,0,-1,566,904,-22.2199,-3.48885
-651,120,-23.001,1.86572,0,0,0,0,0,0,0,-1,573,904,-23.0011,-1.86573
-644,120,-22.5886,1.97656,0,0,0,0,0,0,0,-1,580,904,-22.5886,-1.97656
-637,120,-22.1255,2.69177,0,0,0,0,0,0,0,-1,587,904,-22.1256,-2.69175
-630,120,-21.741,2.90002,0.00106269,-0.00104405,0.00804339,0.00812139,-0.00810275,0.720288,0.00936702,0.0252605,594,904,-21.741,-2.90001
-623,120,-21.8271,2.71655,0.000144876,-0.000170567,0.00644379,0.00643288,-0.00645857,0.773162,0.00744289,0.0116194,601,904,-21.8271,-2.71652
-616,120,-21.8539,2.45221,-0.000772159,3.67394e-05,0.00497942,0.00462811,-0.00536353,0.825921,0.00577388,0.0100576,608,904,-21.8539,-2.45224
-609,120,-21.8804,2.19165,-0.0017968,0.000178753,0.00369115,0.00301201,-0.00463005,0.916138,0.00444499,0.0129735,615,904,-21.8804,-2.19165
-602,120,-21.9062,1.92865,-0.00265367,-0.000124775,0.00262861,0.00152769,-0.00430614,1.00958,0.00349318,0.0148445,622,904,-21.9062,-1.92866
-595,120,-21.851,1.67993,-0.00338779,1.70507e-05,0.00185821,0.000834789,-0.00420553,1.15623,0.00311941,0.0231506,629,904,-21.851,-1.67996
-588,120,-21.8809,1.35632,-0.00381245,-0.000264627,0.00113844,6.92583e-05,-0.00414634,1.28551,0.0027876,0.0313811,636,904,-21.8809,-1.35631
-581,120,-22.0389,1.07861,-0.00401597,-0.000669234,0.000673489,-0.000538787,-0.00414642,1.37948,0.00260334,0.0414662,643,904,-22.039,-1.0786
-574,120,-21.8807,0.74469,0,0,0,0,0,0,0,-1,650,904,-21.8807,-0.74467
-567,120,-21.6774,0.0383301,0,0,0,0,0,0,0,-1,657,904,-21.6774,-0.0383241
-560,120,-24.7709,0.799072,0,0,0,0,0,0,0,-1,664,904,-24.7709,-0.799074
-553,120,-24.6796,0.802612,-0.00341042,-0.000914278,-0.000102048,-0.000910113,-0.00341458,-1.53,0.00204179,0.0466325,671,904,-24.6796,-0.802603
-546,120,-24.7225,0.902283,-0.00319504,-0.00066441,-9.48021e-05,-0.000660864,-0.00319859,-1.5334,0.0019498,0.0337909,678,904,-24.7225,-0.902293
-539,120,-24.7512,0.855591,-0.00275337,-0.000370796,8.81146e-06,-0.000370763,-0.0027534,1.5671,0.00172534,0.0268941,685,904,-24.7512,-0.855617
-532,120,-24.7268,0.803833,-0.00218774,1.88205e-06,0.000261171,3.26026e-05,-0.00221846,1.45371,0.00148996,0.0281008,692,904,-24.7268,-0.803855
-525,120,-24.7374,0.853333,-0.00148368,0.000417735,0.000612966,0.000598208,-0.00166416,1.28446,0.00135364,0.0348728,699,904,-24.7374,-0.853334
-518,120,-24.8134,0.885681,-0.00108641,0.000811295,0.0010787,0.00129908,-0.00157419,1.14612,0.00166141,0.0404437,706,904,-24.8134,-0.885679
-511,120,-24.8319,0.744995,0,0,0,0,0,0,0,-1,713,904,-24.8319,-0.745019
-504,120,0,0,0,0,0,0,0,0,0,-1,720,904,0,0
-497,120,0,0,0,0,0,0,0,0,0,-1,727,904,0,0
-490,120,0,0,0,0,0,0,0,0,0,-1,734,904,0,0
-483,120,0,0,0,0,0,0,0,0,0,-1,741,904,0,0
-476,120,0,0,0,0,0,0,0,0,0,-1,748,904,0,0
-469,120,0,0,0,0,0,0,0,0,0,-1,755,904,0,0
-462,120,0,0,0,0,0,0,0,0,0,-1,762,904,0,0
-455,120,0,0,0,0,0,0,0,0,0,-1,769,904,0,0
-448,120,0,0,0,0,0,0,0,0,0,-1,776,904,0,0
-441,120,0,0,0,0,0,0,0,0,0,-1,783,904,0,0
-434,120,0,0,0,0,0,0,0,0,0,-1,790,904,0,0
-427,120,0,0,0,0,0,0,0,0,0,-1,797,904,0,0
-420,120,0,0,0,0,0,0,0,0,0,-1,804,904,0,0
-413,120,0,0,0,0,0,0,0,0,0,-1,811,904,0,0
-406,120,0,0,0,0,0,0,0,0,0,-1,818,904,0,0
-399,120,0,0,0,0,0,0,0,0,0,-1,825,904,0,0
-392,120,0,0,0,0,0,0,0,0,0,-1,832,904,0,0
-385,120,0,0,0,0,0,0,0,0,0,-1,839,904,0,0
-378,120,0,0,0,0,0,0,0,0,0,-1,846,904,0,0
-371,120,0,0,0,0,0,0,0,0,0,-1,853,904,0,0
-364,120,0,0,0,0,0,0,0,0,0,-1,860,904,0,0
-357,120,0,0,0,0,0,0,0,0,0,-1,867,904,0,0
-350,120,0,0,0,0,0,0,0,0,0,-1,874,904,0,0
-343,120,0,0,0,0,0,0,0,0,0,-1,881,904,0,0
-336,120,0,0,0,0,0,0,0,0,0,-1,888,904,0,0
-329,120,0,0,0,0,0,0,0,0,0,-1,895,904,0,0
-322,120,0,0,0,0,0,0,0,0,0,-1,902,904,0,0
-315,120,0,0,0,0,0,0,0,0,0,-1,909,904,0,0
-308,120,0,0,0,0,0,0,0,0,0,-1,916,904,0,0
-301,120,0,0,0,0,0,0,0,0,0,-1,923,904,0,0
-294,120,0,0,0,0,0,0,0,0,0,-1,930,904,0,0
-287,120,0,0,0,0,0,0,0,0,0,-1,937,904,0,0
-280,120,0,0,0,0,0,0,0,0,0,-1,944,904,0,0
-273,120,0,0,0,0,0,0,0,0,0,-1,951,904,0,0
-266,120,0,0,0,0,0,0,0,0,0,-1,958,904,0,0
-259,120,0,0,0,0,0,0,0,0,0,-1,965,904,0,0
-252,120,0,0,0,0,0,0,0,0,0,-1,972,904,0,0
-245,120,0,0,0,0,0,0,0,0,0,-1,979,904,0,0
-238,120,0,0,0,0,0,0,0,0,0,-1,986,904,0,0
-231,120,0,0,0,0,0,0,0,0,0,-1,993,904,0,0
-224,120,0,0,0,0,0,0,0,0,0,-1,1000,904,0,0
-217,120,0,0,0,0,0,0,0,0,0,-1,1007,904,0,0
-210,120,0,0,0,0,0,0,0,0,0,-1,1014,904,0,0
-203,120,0,0,0,0,0,0,0,0,0,-1,1021,904,0,0
-196,120,0,0,0,0,0,0,0,0,0,-1,1028,904,0,0
-189,120,0,0,0,0,0,0,0,0,0,-1,1035,904,0,0
-182,120,0,0,0,0,0,0,0,0,0,-1,1042,904,0,0
-175,120,0,0,0,0,0,0,0,0,0,-1,1049,904,0,0
-168,120,0,0,0,0,0,0,0,0,0,-1,1056,904,0,0
-161,120,0,0,0,0,0,0,0,0,0,-1,1063,904,0,0
-154,120,0,0,0,0,0,0,0,0,0,-1,1070,904,0,0
-147,120,0,0,0,0,0,0,0,0,0,-1,1077,904,0,0
-140,120,0,0,0,0,0,0,0,0,0,-1,1084,904,0,0
-133,120,0,0,0,0,0,0,0,0,0,-1,1091,904,0,0
-126,120,0,0,0,0,0,0,0,0,0,-1,1098,904,0,0
-119,120,0,0,0,0,0,0,0,0,0,-1,1105,904,0,0
-112,120,0,0,0,0,0,0,0,0,0,-1,1112,904,0,0
-105,120,0,0,0,0,0,0,0,0,0,-1,1119,904,0,0
-98,120,0,0,0,0,0,0,0,0,0,-1,1126,904,0,0
-91,120,0,0,0,0,0,0,0,0,0,-1,1133,904,0,0
-84,120,0,0,0,0,0,0,0,0,0,-1,1140,904,0,0
-77,120,0,0,0,0,0,0,0,0,0,-1,1147,904,0,0
-70,120,0,0,0,0,0,0,0,0,0,-1,1154,904,0,0
-63,120,0,0,0,0,0,0,0,0,0,-1,1161,904,0,0
-56,120,0,0,0,0,0,0,0,0,0,-1,1168,904,0,0
-49,120,0,0,0,0,0,0,0,0,0,-1,1175,904,0,0
-42,120,0,0,0,0,0,0,0,0,0,-1,1182,904,0,0
-35,120,0,0,0,0,0,0,0,0,0,-1,1189,904,0,0
-28,120,0,0,0,0,0,0,0,0,0,-1,1196,904,0,0
-21,120,0,0,0,0,0,0,0,0,0,-1,1203,904,0,0
-14,120,0,0,0,0,0,0,0,0,0,-1,1210,904,0,0
-7,120,0,0,0,0,0,0,0,0,0,-1,1217,904,0,0
0,120,0,0,0,0,0,0,0,0,0,-1,1224,904,0,0
7,120,0,0,0,0,0,0,0,0,0,-1,1231,904,0,0
14,120,0,0,0,0,0,0,0,0,0,-1,1238,904,0,0
21,120,0,0,0,0,0,0,0,0,0,-1,1245,904,0,0
28,120,0,0,0,0,0,0,0,0,0,-1,1252,904,0,0
35,120,0,0,0,0,0,0,0,0,0,-1,1259,904,0,0
42,120,0,0,0,0,0,0,0,0,0,-1,1266,904,0,0
49,120,0,0,0,0,0,0,0,0,0,-1,1273,904,0,0
56,120,0,0,0,0,0,0,0,0,0,-1,1280,904,0,0
63,120,0,0,0,0,0,0,0,0,0,-1,1287,904,0,0
70,120,0,0,0,0,0,0,0,0,0,-1,1294,904,0,0
77,120,0,0,0,0,0,0,0,0,0,-1,1301,904,0,0
84,120,0,0,0,0,0,0,0,0,0,-1,1308,904,0,0
91,120,0,0,0,0,0,0,0,0,0,-1,1315,904,0,0
98,120,0,0,0,0,0,0,0,0,0,-1,1322,904,0,0
105,120,0,0,0,0,0,0,0,0,0,-1,1329,904,0,0
112,120,0,0,0,0,0,0,0,0,0,-1,1336,904,0,0
119,120,0,0,0,0,0,0,0,0,0,-1,1343,904,0,0
126,120,0,0,0,0,0,0,0,0,0,-1,1350,904,0,0
133,120,0,0,0,0,0,0,0,0,0,-1,1357,904,0,0
140,120,0,0,0,0,0,0,0,0,0,-1,1364,904,0,0
147,120,0,0,0,0,0,0,0,0,0,-1,1371,904,0,0
154,120,0,0,0,0,0,0,0,0,0,-1,1378,904,0,0
161,120,0,0,0,0,0,0,0,0,0,-1,1385,904,0,0
168,120,0,0,0,0,0,0,0,0,0,-1,1392,904,0,0
175,120,0,0,0,0,0,0,0,0,0,-1,1399,904,0,0
182,120,0,0,0,0,0,0,0,0,0,-1,1406,904,0,0
189,120,0,0,0,0,0,0,0,0,0,-1,1413,904,0,0
196,120,0,0,0,0,0,0,0,0,0,-1,1420,904,0,0
203,120,0,0,0,0,0,0,0,0,0,-1,1427,904,0,0
210,120,0,0,0,0,0,0,0,0,0,-1,1434,904,0,0
217,120,0,0,0,0,0,0,0,0,0,-1,1441,904,0,0
224,120,0,0,0,0,0,0,0,0,0,-1,1448,904,0,0
231,120,0,0,0,0,0,0,0,0,0,-1,1455,904,0,0
238,120,0,0,0,0,0,0,0,0,0,-1,1462,904,0,0
245,120,0,0,0,0,0,0,0,0,0,-1,1469,904,0,0
252,120,0,0,0,0,0,0,0,0,0,-1,1476,904,0,0
259,120,0,0,0,0,0,0,0,0,0,-1,1483,904,0,0
266,120,0,0,0,0,0,0,0,0,0,-1,1490,904,0,0
273,120,0,0,0,0,0,0,0,0,0,-1,1497,904,0,0
280,120,0,0,0,0,0,0,0,0,0,-1,1504,904,0,0
287,120,0,0,0,0,0,0,0,0,0,-1,1511,904,0,0
294,120,0,0,0,0,0,0,0,0,0,-1,1518,904,0,0
301,120,0,0,0,0,0,0,0,0,0,-1,1525,904,0,0
308,120,0,0,0,0,0,0,0,0,0,-1,1532,904,0,0
315,120,0,0,0,0,0,0,0,0,0,-1,1539,904,0,0
322,120,0,0,0,0,0,0,0,0,0,-1,1546,904,0,0
329,120,0,0,0,0,0,0,0,0,0,-1,1553,904,0,0
336,120,0,0,0,0,0,0,0,0,0,-1,1560,904,0,0
343,120,0,0,0,0,0,0,0,0,0,-1,1567,904,0,0
350,120,0,0,0,0,0,0,0,0,0,-1,1574,904,0,0
357,120,0,0,0,0,0,0,0,0,0,-1,1581,904,0,0
364,120,0,0,0,0,0,0,0,0,0,-1,1588,904,0,0
371,120,0,0,0,0,0,0,0,0,0,-1,1595,904,0,0
378,120,0,0,0,0,0,0,0,0,0,-1,1602,904,0,0
385,120,0,0,0,0,0,0,0,0,0,-1,1609,904,0,0
392,120,0,0,0,0,0,0,0,0,0,-1,1616,904,0,0
399,120,0,0,0,0,0,0,0,0,0,-1,1623,904,0,0
406,120,0,0,0,0,0,0,0,0,0,-1,1630,904,0,0
413,120,0,0,0,0,0,0,0,0,0,-1,1637,904,0,0
420,120,0,0,0,0,0,0,0,0,0,-1,1644,904,0,0
427,120,0,0,0,0,0,0,0,0,0,-1,1651,904,0,0
434,120,0,0,0,0,0,0,0,0,0,-1,1658,904,0,0
441,120,0,0,0,0,0,0,0,0,0,-1,1665,904,0,0
448,120,0,0,0,0,0,0,0,0,0,-1,1672,904,0,0
455,120,0,0,0,0,0,0,0,0,0,-1,1679,904,0,0
462,120,0,0,0,0,0,0,0,0,0,-1,1686,904,0,0
469,120,0,0,0,0,0,0,0,0,0,-1,1693,904,0,0
476,120,0,0,0,0,0,0,0,0,0,-1,1700,904,0,0
483,120,0,0,0,0,0,0,0,0,0,-1,1707,904,0,0
490,120,0,0,0,0,0,0,0,0,0,-1,1714,904,0,0
497,120,0,0,0,0,0,0,0,0,0,-1,1721,904,0,0
504,120,0,0,0,0,0,0,0,0,0,-1,1728,904,0,0
511,120,0,0,0,0,0,0,0,0,0,-1,1735,904,0,0
518,120,0,0,0,0,0,0,0,0,0,-1,1742,904,0,0
525,120,0,0,0,0,0,0,0,0,0,-1,1749,904,0,0
532,120,0,0,0,0,0,0,0,0,0,-1,1756,904,0,0
539,120,0,0,0,0,0,0,0,0,0,-1,1763,904,0,0
546,120,0,0,0,0,0,0,0,0,0,-1,1770,904,0,0
553,120,0,0,0,0,0,0,0,0,0,-1,1777,904,0,0
560,120,0,0,0,0,0,0,0,0,0,-1,1784,904,0,0
567,120,0,0,0,0,0,0,0,0,0,-1,1791,904,0,0
574,120,0,0,0,0,0,0,0,0,0,-1,1798,904,0,0
581,120,0,0,0,0,0,0,0,0,0,-1,1805,904,0,0
588,120,0,0,0,0,0,0,0,0,0,-1,1812,904,0,0
595,120,0,0,0,0,0,0,0,0,0,-1,1819,904,0,0
602,120,0,0,0,0,0,0,0,0,0,-1,1826,904,0,0
609,120,0,0,0,0,0,0,0,0,0,-1,1833,904,0,0
616,120,0,0,0,0,0,0,0,0,0,-1,1840,904,0,0
623,120,0,0,0,0,0,0,0,0,0,-1,1847,904,0,0
630,120,34.0867,2.92712,0.00310277,0.0013393,-0.000775409,0.00339523,0.00104685,-0.360662,0.00200767,0.0414479,1854,904,34.0866,-2.92711
637,120,34.1913,2.88287,0.0027025,0.00174005,-0.00063849,0.00302081,0.00142175,-0.462468,0.00174507,0.043819,1861,904,34.1913,-2.88286
644,120,34.2227,2.79425,0.00197733,0.00196951,-0.000467177,0.00244061,0.00150622,-0.781215,0.00142192,0.0429229,1868,904,34.2226,-2.79426
651,120,34.1827,2.8006,0.00117231,0.00206296,-0.000232926,0.0021202,0.00111507,-1.32984,0.00122464,0.0437023,1875,904,34.1827,-2.8006
658,120,34.1857,3.07526,0.000560894,0.00207117,1.20962e-06,0.00207117,0.000560893,1.57,0.00123696,0.0416388,1882,904,34.1856,-3.07523
665,120,34.2233,2.92365,0.000223093,0.00198022,0.000189792,0.00200048,0.000202827,1.46442,0.00127145,0.0381729,1889,904,34.2232,-2.92363
672,120,34.2388,2.72772,0.000111899,0.00179159,0.000401251,0.00188252,2.09694e-05,1.34794,0.00124808,0.0361888,1896,904,34.2388,-2.72774
679,120,34.2416,2.63818,8.44041e-05,0.00163649,0.000494895,0.00178086,-5.99681e-05,1.28695,0.00120773,0.0295272,1903,904,34.2416,-2.63817
686,120,34.2188,2.74951,-2.4099e-05,0.00145595,0.000561787,0.00164504,-0.000213182,1.24613,0.00117422,0.0202544,1910,904,34.2187,-2.74951
693,120,34.1066,2.70923,0,0,0,0,0,0,0,-1,1917,904,34.1066,-2.70924
700,120,30.4232,2.9953,0,0,0,0,0,0,0,-1,1924,904,30.4232,-2.99533
707,120,30.3329,3.29285,-0.000302425,0.000836867,0.000343906,0.000932629,-0.000398187,1.29922,0.00078873,0.0296074,1931,904,30.3329,-3.29283
714,120,30.5175,3.6817,0.000378652,0.000863074,2.31504e-05,0.000864178,0.000377549,1.52315,0.000500257,0.0187397,1938,904,30.5175,-3.68169
721,120,30.5354,3.97498,0.00152191,0.0010906,-0.000158244,0.00157374,0.00103877,-0.316521,0.000923986,0.0150198,1945,904,30.5354,-3.97501
728,120,30.4937,4.2876,0.00208477,0.00107134,-0.000357778,0.00219835,0.000957759,-0.307396,0.00127271,0.0112407,1952,904,30.4936,-4.28759
735,120,30.4611,4.57141,0.00353989,0.000947674,-0.000667828,0.00370183,0.000785739,-0.237889,0.00225213,0.0136897,1959,904,30.461,-4.57139
742,120,30.449,4.89099,0.00556785,0.000815538,-0.00107505,0.00579973,0.000583659,-0.212437,0.00368736,0.0137095,1966,904,30.449,-4.89101
749,120,30.4351,5.16388,0.00830896,0.000531486,-0.00128448,0.00851561,0.00032484,-0.159512,0.00557195,0.0102543,1973,904,30.4351,-5.16387
756,120,30.4063,5.4386,0.0116788,-0.000304555,-0.00112479,0.0117835,-0.000409217,-0.0927831,0.00799553,0.0134228,1980,904,30.4062,-5.4386
763,120,30.3583,5.66162,0.0155826,-0.00196156,-0.000581777,0.0156019,-0.00198083,-0.0331122,0.0111205,0.0267519,1987,904,30.3582,-5.66165
770,120,30.6582,5.39404,0.0199568,-0.00491169,0.000467199,0.0199656,-0.00492047,0.0187779,0.0152181,0.0465302,1994,904,30.6581,-5.39402
777,120,31.1573,5.01129,0,0,0,0,0,0,0,-1,2001,904,31.1574,-5.01126
784,120,28.2545,3.00208,0,0,0,0,0,0,0,-1,2008,904,28.2545,-3.00207
791,120,31.9915,11.7189,0,0,0,0,0,0,0,-1,2015,904,31.9914,-11.719
798,120,26.4365,4.82922,0,0,0,0,0,0,0,-1,2022,904,26.4366,-4.8292
805,120,0,0,0,0,0,0,0,0,0,-1,2029,904,0,0
812,120,0,0,0,0,0,0,0,0,0,-1,2036,904,0,0
-700,113,0,0,0,0,0,0,0,0,0,-1,524,911,0,0
-693,113,0,0,0,0,0,0,0,0,0,-1,531,911,0,0
-686,113,0,0,0,0,0,0,0,0,0,-1,538,911,0,0
-679,113,-21.8737,3.40198,0,0,0,0,0,0,0,-1,545,911,-21.8737,-3.402
-672,113,-22.5142,3.26404,0,0,0,0,0,0,0,-1,552,911,-22.5143,-3.26402
-665,113,-22.1857,3.44427,0,0,0,0,0,0,0,-1,559,911,-22.1857,-3.44426
-658,113,-22.5802,2.66187,0,0,0,0,0,0,0,-1,566,911,-22.5802,-2.66188
-651,113,-22.5057,2.63495,-0.00152521,-0.0036302,0.0115294,0.00899962,-0.014155,0.73988,0.0134783,0.0499906,573,911,-22.5057,-2.63496
-644,113,-22.3693,2.7149,-0.000607358,-0.00292495,0.00996071,0.00826173,-0.011794,0.72749,0.0116389,0.0427301,580,911,-22.3693,-2.71493
-637,113,-22.1934,2.87091,-0.000378533,-0.00186873,0.00842016,0.00732943,-0.0095767,0.741268,0.00978946,0.0364175,587,911,-22.1934,-2.87093
-630,113,-22.0937,2.90912,-0.000267475,-0.00134818,0.00706654,0.00627934,-0.007895,0.747239,0.00820126,0.0172694,594,911,-22.0937,-2.90915
-623,113,-22.1392,2.69763,-0.000814775,-0.000563576,0.00560354,0.00491577,-0.00629412,0.796603,0.00648832,0.0107483,601,911,-22.1392,-2.69763
-616,113,-22.141,2.43829,-0.00153969,-0.00036713,0.00424995,0.00333679,-0.00524361,0.85394,0.00499451,0.00948925,608,911,-22.141,-2.43831
-609,113,-22.1472,2.19568,-0.00256739,-0.000139366,0.0030955,0.00197167,-0.00467842,0.972274,0.00394402,0.0111567,615,911,-22.1472,-2.19567
-602,113,-22.1782,1.93365,-0.00353854,-0.000426556,0.00214005,0.000663381,-0.00462848,1.09973,0.00332889,0.016094,622,911,-22.1781,-1.93363
-595,113,-22.1962,1.73596,-0.00436827,-0.000221753,0.00147269,0.000248062,-0.00483808,1.26198,0.00331117,0.0207802,629,911,-22.1962,-1.73599
-588,113,-22.1677,1.44287,-0.00490045,-0.000394499,0.000880714,-0.000228476,-0.00506647,1.38447,0.00330413,0.0243108,636,911,-22.1677,-1.44288
-581,113,-22.1608,1.14496,-0.00517364,-0.000757868,0.000480554,-0.000706176,-0.00522533,1.46364,0.00327365,0.0247731,643,911,-22.1608,-1.14498
-574,113,-22.1462,0.774963,0,0,0,0,0,0,0,-1,650,911,-22.1462,-0.774972
-567,113,-21.8396,0.437378,0,0,0,0,0,0,0,-1,657,911,-21.8396,-0.437351
-560,113,-24.6681,0.996765,0,0,0,0,0,0,0,-1,664,911,-24.6681,-0.996751
-553,113,-24.6967,0.991516,-0.00457488,-0.000977914,-0.000250585,-0.000960541,-0.00459225,-1.50158,0.00279685,0.0379089,671,911,-24.6967,-0.991512
-546,113,-24.7727,0.991272,-0.00420067,-0.00073813,-0.000258614,-0.000718921,-0.00421987,-1.49666,0.00260687,0.0341279,678,911,-24.7727,-0.991302
-539,113,-24.8006,0.893494,-0.00351245,-0.000421505,-0.000190828,-0.000409768,-0.00352418,-1.50937,0.00222548,0.0367388,685,911,-24.8006,-0.893502
-532,113,-24.7341,0.849854,-0.00255451,-3.72773e-05,-1.30441e-05,-3.72097e-05,-0.00255458,-1.56561,0.00169079,0.0390052,692,911,-24.7341,-0.849846
-525,113,-24.7868,0.889465,-0.00129125,0.000339809,0.000172771,0.000357909,-0.00130935,1.46641,0.00101349,0.0385453,699,911,-24.7868,-0.889475
-518,113,-25.0602,0.968811,-0.000773896,0.000602055,0.000421182,0.000720742,-0.000892583,1.29612,0.000933213,0.0414045,706,911,-25.0602,-0.968804
-511,113,-25.1606,0.931274,0,0,0,0,0,0,0,-1,713,911,-25.1606,-0.931278
-504,113,0,0,0,0,0,0,0,0,0,-1,720,911,0,0
-497,113,0,0,0,0,0,0,0,0,0,-1,727,911,0,0
-490,113,0,0,0,0,0,0,0,0,0,-1,734,911,0,0
-483,113,0,0,0,0,0,0,0,0,0,-1,741,911,0,0
-476,113,0,0,0,0,0,0,0,0,0,-1,748,911,0,0
-469,113,0,0,0,0,0,0,0,0,0,-1,755,911,0,0
-462,113,0,0,0,0,0,0,0,0,0,-1,762,911,0,0
-455,113,0,0,0,0,0,0,0,0,0,-1,769,911,0,0
-448,113,0,0,0,0,0,0,0,0,0,-1,776,911,0,0
-441,113,0,0,0,0,0,0,0,0,0,-1,783,911,0,0
-434,113,0,0,0,0,0,0,0,0,0,-1,790,911,0,0
-427,113,0,0,0,0,0,0,0,0,0,-1,797,911,0,0
-420,113,0,0,0,0,0,0,0,0,0,-1,804,911,0,0
-413,113,0,0,0,0,0,0,0,0,0,-1,811,911,0,0
-406,113,0,0,0,0,0,0,0,0,0,-1,818,911,0,0
-399,113,0,0,0,0,0,0,0,0,0,-1,825,911,0,0
-392,113,0,0,0,0,0,0,0,0,0,-1,832,911,0,0
-385,113,0,0,0,0,0,0,0,0,0,-1,839,911,0,0
-378,113,0,0,0,0,0,0,0,0,0,-1,846,911,0,0
-371,113,0,0,0,0,0,0,0,0,0,-1,853,911,0,0
-364,113,0,0,0,0,0,0,0,0,0,-1,860,911,0,0
-357,113,0,0,0,0,0,0,0,0,0,-1,867,911,0,0
-350,113,0,0,0,0,0,0,0,0,0,-1,874,911,0,0
-343,113,0,0,0,0,0,0,0,0,0,-1,881,911,0,0
-336,113,0,0,0,0,0,0,0,0,0,-1,888,911,0,0
-329,113,0,0,0,0,0,0,0,0,0,-1,895,911,0,0
-322,113,0,0,0,0,0,0,0,0,0,-1,902,911,0,0
-315,113,0,0,0,0,0,0,0,0,0,-1,909,911,0,0
-308,113,0,0,0,0,0,0,0,0,0,-1,916,911,0,0
-301,113,0,0,0,0,0,0,0,0,0,-1,923,911,0,0
-294,113,0,0,0,0,0,0,0,0,0,-1,930,911,0,0
-287,113,0,0,0,0,0,0,0,0,0,-1,937,911,0,0
-280,113,0,0,0,0,0,0,0,0,0,-1,944,911,0,0
-273,113,0,0,0,0,0,0,0,0,0,-1,951,911,0,0
-266,113,0,0,0,0,0,0,0,0,0,-1,958,911,0,0
-259,113,0,0,0,0,0,0,0,0,0,-1,965,911,0,0
-252,113,0,0,0,0,0,0,0,0,0,-1,972,911,0,0
-245,113,0,0,0,0,0,0,0,0,0,-1,979,911,0,0
-238,113,0,0,0,0,0,0,0,0,0,-1,986,911,0,0
-231,113,0,0,0,0,0,0,0,0,0,-1,993,911,0,0
-224,113,0,0,0,0,0,0,0,0,0,-1,1000,911,0,0
-217,113,0,0,0,0,0,0,0,0,0,-1,1007,911,0,0
-210,113,0,0,0,0,0,0,0,0,0,-1,1014,911,0,0
-203,113,0,0,0,0,0,0,0,0,0,-1,1021,911,0,0
-196,113,0,0,0,0,0,0,0,0,0,-1,1028,911,0,0
-189,113,0,0,0,0,0,0,0,0,0,-1,1035,911,0,0
-182,113,0,0,0,0,0,0,0,0,0,-1,1042,911,0,0
-175,113,0,0,0,0,0,0,0,0,0,-1,1049,911,0,0
-168,113,0,0,0,0,0,0,0,0,0,-1,1056,911,0,0
-161,113,0,0,0,0,0,0,0,0,0,-1,1063,911,0,0
-154,113,0,0,0,0,0,0,0,0,0,-1,1070,911,0,0
-147,113,0,0,0,0,0,0,0,0,0,-1,1077,911,0,0
-140,113,0,0,0,0,0,0,0,0,0,-1,1084,911,0,0
-133,113,0,0,0,0,0,0,0,0,0,-1,1091,911,0,0
-126,113,0,0,0,0,0,0,0,0,0,-1,1098,911,0,0
-119,113,0,0,0,0,0,0,0,0,0,-1,1105,911,0,0
-112,113,0,0,0,0,0,0,0,0,0,-1,1112,911,0,0
-105,113,0,0,0,0,0,0,0,0,0,-1,1119,911,0,0
-98,113,0,0,0,0,0,0,0,0,0,-1,1126,911,0,0
-91,113,0,0,0,0,0,0,0,0,0,-1,1133,911,0,0
-84,113,0,0,0,0,0,0,0,0,0,-1,1140,911,0,0
-77,113,0,0,0,0,0,0,0,0,0,-1,1147,911,0,0
-70,113,0,0,0,0,0,0,0,0,0,-1,1154,911,0,0
-63,113,0,0,0,0,0,0,0,0,0,-1,1161,911,0,0
-56,113,0,0,0,0,0,0,0,0,0,-1,1168,911,0,0
-49,113,0,0,0,0,0,0,0,0,0,-1,1175,911,0,0
-42,113,0,0,0,0,0,0,0,0,0,-1,1182,911,0,0
-35,113,0,0,0,0,0,0,0,0,0,-1,1189,911,0,0
-28,113,0,0,0,0,0,0,0,0,0,-1,1196,911,0,0
-21,113,0,0,0,0,0,0,0,0,0,-1,1203,911,0,0
-14,113,0,0,0,0,0,0,0,0,0,-1,1210,911,0,0
-7,113,0,0,0,0,0,0,0,0,0,-1,1217,911,0,0
0,113,0,0,0,0,0,0,0,0,0,-1,1224,911,0,0
7,113,0,0,0,0,0,0,0,0,0,-1,1231,911,0,0
14,113,0,0,0,0,0,0,0,0,0,-1,1238,911,0,0
21,113,0,0,0,0,0,0,0,0,0,-1,1245,911,0,0
28,113,0,0,0,0,0,0,0,0,0,-1,1252,911,0,0
35,113,0,0,0,0,0,0,0,0,0,-1,1259,911,0,0
42,113,0,0,0,0,0,0,0,0,0,-1,1266,911,0,0
49,113,0,0,0,0,0,0,0,0,0,-1,1273,911,0,0
56,113,0,0,0,0,0,0,0,0,0,-1,1280,911,0,0
63,113,0,0,0,0,0,0,0,0,0,-1,1287,911,0,0
70,113,0,0,0,0,0,0,0,0,0,-1,1294,911,0,0
77,113,0,0,0,0,0,0,0,0,0,-1,1301,911,0,0
84,113,0,0,0,0,0,0,0,0,0,-1,1308,911,0,0
91,113,0,0,0,0,0,0,0,0,0,-1,1315,911,0,0
98,113,0,0,0,0,0,0,0,0,0,-1,1322,911,0,0
105,113,0,0,0,0,0,0,0,0,0,-1,1329,911,0,0
112,113,0,0,0,0,0,0,0,0,0,-1,1336,911,0,0
119,113,0,0,0,0,0,0,0,0,0,-1,1343,911,0,0
126,113,0,0,0,0,0,0,0,0,0,-1,1350,911,0,0
133,113,0,0,0,0,0,0,0,0,0,-1,1357,911,0,0
140,113,0,0,0,0,0,0,0,0,0,-1,1364,911,0,0
147,113,0,0,0,0,0,0,0,0,0,-1,1371,911,0,0
154,113,0,0,0,0,0,0,0,0,0,-1,1378,911,0,0
161,113,0,0,0,0,0,0,0,0,0,-1,1385,911,0,0
168,113,0,0,0,0,0,0,0,0,0,-1,1392,911,0,0
175,113,0,0,0,0,0,0,0,0,0,-1,1399,911,0,0
182,113,0,0,0,0,0,0,0,0,0,-1,1406,911,0,0
189,113,0,0,0,0,0,0,0,0,0,-1,1413,911,0,0
196,113,0,0,0,0,0,0,0,0,0,-1,1420,911,0,0
203,113,0,0,0,0,0,0,0,0,0,-1,1427,911,0,0
210,113,0,0,0,0,0,0,0,0,0,-1,1434,911,0,0
217,113,0,0,0,0,0,0,0,0,0,-1,1441,911,0,0
224,113,0,0,0,0,0,0,0,0,0,-1,1448,911,0,0
231,113,0,0,0,0,0,0,0,0,0,-1,1455,911,0,0
238,113,0,0,0,0,0,0,0,0,0,-1,1462,911,0,0
245,113,0,0,0,0,0,0,0,0,0,-1,1469,911,0,0
252,113,0,0,0,0,0,0,0,0,0,-1,1476,911,0,0
259,113,0,0,0,0,0,0,0,0,0,-1,1483,911,0,0
266,113,0,0,0,0,0,0,0,0,0,-1,1490,911,0,0
273,113,0,0,0,0,0,0,0,0,0,-1,1497,911,0,0
280,113,0,0,0,0,0,0,0,0,0,-1,1504,911,0,0
287,113,0,0,0,0,0,0,0,0,0,-1,1511,911,0,0
294,113,0,0,0,0,0,0,0,0,0,-1,1518,911,0,0
301,113,0,0,0,0,0,0,0,0,0,-1,1525,911,0,0
308,113,0,0,0,0,0,0,0,0,0,-1,1532,911,0,0
315,113,0,0,0,0,0,0,0,0,0,-1,1539,911,0,0
322,113,0,0,0,0,0,0,0,0,0,-1,1546,911,0,0
329,113,0,0,0,0,0,0,0,0,0,-1,1553,911,0,0
336,113,0,0,0,0,0,0,0,0,0,-1,1560,911,0,0
343,113,0,0,0,0,0,0,0,0,0,-1,1567,911,0,0
350,113,0,0,0,0,0,0,0,0,0,-1,1574,911,0,0
357,113,0,0,0,0,0,0,0,0,0,-1,1581,911,0,0
364,113,0,0,0,0,0,0,0,0,0,-1,1588,911,0,0
371,113,0,0,0,0,0,0,0,0,0,-1,1595,911,0,0
378,113,0,0,0,0,0,0,0,0,0,-1,1602,911,0,0
385,113,0,0,0,0,0,0,0,0,0,-1,1609,911,0,0
392,113,0,0,0,0,0,0,0,0,0,-1,1616,911,0,0
399,113,0,0,0,0,0,0,0,0,0,-1,1623,911,0,0
406,113,0,0,0,0,0,0,0,0,0,-1,1630,911,0,0
413,113,0,0,0,0,0,0,0,0,0,-1,1637,911,0,0
420,113,0,0,0,0,0,0,0,0,0,-1,1644,911,0,0
427,113,0,0,0,0,0,0,0,0,0,-1,1651,911,0,0
434,113,0,0,0,0,0,0,0,0,0,-1,1658,911,0,0
441,113,0,0,0,0,0,0,0,0,0,-1,1665,911,0,0
448,113,0,0,0,0,0,0,0,0,0,-1,1672,911,0,0
455,113,0,0,0,0,0,0,0,0,0,-1,1679,911,0,0
462,113,0,0,0,0,0,0,0,0,0,-1,1686,911,0,0
469,113,0,0,0,0,0,0,0,0,0,-1,1693,911,0,0
476,113,0,0,0,0,0,0,0,0,0,-1,1700,911,0,0
483,113,0,0,0,0,0,0,0,0,0,-1,1707,911,0,0
490,113,0,0,0,0,0,0,0,0,0,-1,1714,911,0,0
497,113,0,0,0,0,0,0,0,0,0,-1,1721,911,0,0
504,113,0,0,0,0,0,0,0,0,0,-1,1728,911,0,0
511,113,0,0,0,0,0,0,0,0,0,-1,1735,911,0,0
518,113,0,0,0,0,0,0,0,0,0,-1,1742,911,0,0
525,113,0,0,0,0,0,0,0,0,0,-1,1749,911,0,0
532,113,0,0,0,0,0,0,0,0,0,-1,1756,911,0,0
539,113,0,0,0,0,0,0,0,0,0,-1,1763,911,0,0
546,113,0,0,0,0,0,0,0,0,0,-1,1770,911,0,0
553,113,0,0,0,0,0,0,0,0,0,-1,1777,911,0,0
560,113,0,0,0,0,0,0,0,0,0,-1,1784,911,0,0
567,113,0,0,0,0,0,0,0,0,0,-1,1791,911,0,0
574,113,0,0,0,0,0,0,0,0,0,-1,1798,911,0,0
581,113,0,0,0,0,0,0,0,0,0,-1,1805,911,0,0
588,113,0,0,0,0,0,0,0,0,0,-1,1812,911,0,0
595,113,0,0,0,0,0,0,0,0,0,-1,1819,911,0,0
602,113,0,0,0,0,0,0,0,0,0,-1,1826,911,0,0
609,113,0,0,0,0,0,0,0,0,0,-1,1833,911,0,0
616,113,0,0,0,0,0,0,0,0,0,-1,1840,911,0,0
623,113,0,0,0,0,0,0,0,0,0,-1,1847,911,0,0
630,113,34.1725,2.86371,0.0032365,0.00173675,-0.000915718,0.0036702,0.00130305,-0.442321,0.00214847,0.0398958,1854,911,34.1725,-2.86373
637,113,34.1854,2.92993,0.00297669,0.00213265,-0.00073633,0.00340336,0.00170597,-0.52518,0.00196494,0.039749,1861,911,34.1854,-2.92992
644,113,34.2245,2.81531,0.00232989,0.00235675,-0.000546252,0.00288973,0.0017969,-0.797688,0.00168481,0.0382072,1868,911,34.2245,-2.81528
651,113,34.2157,2.69092,0.00151906,0.00243596,-0.000267829,0.00250846,0.00144656,-1.30643,0.00145393,0.0418194,1875,911,34.2157,-2.6909
658,113,34.2747,2.75067,0.000826204,0.00243733,3.73502e-05,0.00243819,0.000825339,1.54763,0.00143196,0.0419505,1882,911,34.2746,-2.75064
665,113,34.2842,2.90192,0.000404384,0.00232412,0.000292504,0.0023677,0.000360805,1.4229,0.001473,0.0377035,1889,911,34.2842,-2.90194
672,113,34.213,2.87451,0.000193072,0.00209148,0.00055112,0.00223987,4.46782e-05,1.30777,0.00147858,0.0369582,1896,911,34.213,-2.87453
679,113,34.2437,2.74683,8.75822e-05,0.00184943,0.000710724,0.00210038,-0.000163376,1.23136,0.00145777,0.031561,1903,911,34.2437,-2.74684
686,113,34.2384,2.73926,-4.44673e-05,0.00160476,0.000811325,0.00193697,-0.000376675,1.18216,0.00143346,0.0245638,1910,911,34.2384,-2.73923
693,113,34.0972,2.8374,-0.000255333,0.00124142,0.000909284,0.0016707,-0.000684608,1.12971,0.001399,0.0414093,1917,911,34.0972,-2.83741
700,113,33.9207,2.83716,0,0,0,0,0,0,0,-1,1924,911,33.9206,-2.83716
707,113,30.6863,3.34613,0,0,0,0,0,0,0,-1,1931,911,30.6862,-3.34615
714,113,30.751,3.63824,0.000111861,0.000912011,0.000290477,0.00100634,1.75303e-05,1.2568,0.000665128,0.018371,1938,911,30.751,-3.63826
721,113,30.7729,3.95056,0.00106778,0.00107143,0.000121764,0.00119138,0.000947828,0.792902,0.000726803,0.0182019,1945,911,30.773,-3.95054
728,113,30.8169,4.30511,0.00144705,0.00108381,-5.12549e-05,0.00145415,0.00107672,-0.137529,0.00087131,0.0195538,1952,911,30.817,-4.3051
735,113,30.7611,4.58514,0.00274715,0.00111405,-0.0003613,0.00282351,0.00103769,-0.208288,0.00164912,0.0172871,1959,911,30.7611,-4.58512
742,113,30.7417,4.85516,0.00456269,0.00122167,-0.000829706,0.00475739,0.00102697,-0.230493,0.00289073,0.0123644,1966,911,30.7417,-4.85515
749,113,30.7542,5.13086,0.00706322,0.00132896,-0.0011368,0.00728036,0.00111182,-0.18874,0.00452869,0.00917422,1973,911,30.7541,-5.13085
756,113,30.7245,5.42731,0.0102387,0.00109969,-0.00109033,0.0103669,0.000971413,-0.117115,0.00661132,0.0126262,1980,911,30.7245,-5.42733
763,113,30.6317,5.77704,0.0139988,0.00030928,-0.00068581,0.0140331,0.000275008,-0.0499309,0.00926506,0.0267195,1987,911,30.6317,-5.77704
770,113,30.702,5.77203,0.0183436,-0.00138477,0.000126525,0.0183444,-0.00138558,0.00641301,0.0127167,0.0446387,1994,911,30.702,-5.77201
777,113,30.6343,6.59137,0,0,0,0,0,0,0,-1,2001,911,30.6342,-6.59137
784,113,30.8447,6.56354,0,0,0,0,0,0,0,-1,2008,911,30.8447,-6.56352
791,113,30.309,7.24744,0,0,0,0,0,0,0,-1,2015,911,30.309,-7.24743
798,113,28.7312,7.58624,0,0,0,0,0,0,0,-1,2022,911,28.7312,-7.58625
805,113,0,0,0,0,0,0,0,0,0,-1,2029,911,0,0
812,113,0,0,0,0,0,0,0,0,0,-1,2036,911,0,0
-700,106,0,0,0,0,0,0,0,0,0,-1,524,918,0,0
-693,106,0,0,0,0,0,0,0,0,0,-1,531,918,0,0
-686,106,0,0,0,0,0,0,0,0,0,-1,538,918,0,0
-679,106,-21.9476,1.96094,0,0,0,0,0,0,0,-1,545,918,-21.9476,-1.96092
-672,106,-22.3875,3.09863,0,0,0,0,0,0,0,-1,552,918,-22.3875,-3.09866
-665,106,-22.089,3.56628,0,0,0,0,0,0,0,-1,559,918,-22.089,-3.56626
-658,106,-21.8956,4.52106,0,0,0,0,0,0,0,-1,566,918,-21.8955,-4.52103
-651,106,-22.1771,4.20135,-0.00562224,-0.00241011,0.0103192,0.00642727,-0.0144596,0.862598,0.0123527,0.0471208,573,918,-22.1771,-4.20133
-644,106,-22.2343,3.68781,-0.00358174,-0.0020379,0.00890094,0.00612453,-0.0117442,0.828652,0.0104852,0.0398852,580,918,-22.2343,-3.6878
-637,106,-22.2424,3.23199,-0.00242054,-0.00128923,0.00749404,0.00566047,-0.00937024,0.823067,0.00876565,0.0281232,587,918,-22.2424,-3.23202
-630,106,-22.3689,2.96979,-0.00152123,-0.00114546,0.00631346,0.00498291,-0.0076496,0.800274,0.00734736,0.0127598,594,918,-22.3689,-2.96976
-623,106,-22.4325,2.66919,-0.00167421,-0.000479307,0.0049442,0.00390341,-0.00605693,0.845526,0.00579524,0.0111972,601,918,-22.4325,-2.6692
-616,106,-22.4388,2.39917,-0.00222572,-0.000367248,0.00368699,0.0025058,-0.00509877,0.908843,0.00447477,0.0116997,608,918,-22.4388,-2.39918
-609,106,-22.4201,2.16913,-0.00326835,-0.000123994,0.00265296,0.00138765,-0.00477999,1.05288,0.00373612,0.0115362,615,918,-22.4201,-2.16911
-602,106,-22.4321,1.91864,-0.00433989,-0.000416853,0.00179255,0.000278842,-0.00503558,1.20059,0.00345376,0.0154115,622,918,-22.4321,-1.91867
-595,106,-22.5247,1.69171,-0.0052756,-0.000200602,0.00122419,7.92632e-05,-0.00555547,1.34605,0.00373035,0.0193633,629,918,-22.5246,-1.69172
-588,106,-22.499,1.40308,-0.00592883,-0.000280076,0.000738296,-0.000185175,-0.00602373,1.44296,0.00395554,0.0226023,636,918,-22.4989,-1.40309
-581,106,-22.3829,1.09265,-0.00627258,-0.000564402,0.0004027,-0.000536133,-0.00630085,1.50071,0.00403375,0.0153469,643,918,-22.3829,-1.09264
-574,106,-22.3536,0.81842,0,0,0,0,0,0,0,-1,650,918,-22.3536,-0.818446
-567,106,-24.5983,0.781921,0,0,0,0,0,0,0,-1,657,918,-24.5983,-0.781912
-560,106,-24.686,0.866699,-0.00599382,-0.000802229,-0.000243177,-0.000790863,-0.00600519,-1.52409,0.00376761,0.0443884,664,918,-24.686,-0.86667
-553,106,-24.7334,0.948914,-0.00568905,-0.000605435,-0.00034402,-0.00058226,-0.00571222,-1.50353,0.00362966,0.0346541,671,918,-24.7334,-0.94892
-546,106,-24.8046,1.03882,-0.00510286,-0.000305909,-0.000411821,-0.00027081,-0.00513796,-1.48577,0.0033387,0.0360352,678,918,-24.8045,-1.03883
-539,106,-24.7947,0.888977,-0.00409036,0.000106735,-0.00043711,0.000151775,-0.0041354,-1.46812,0.00280889,0.040322,685,918,-24.7947,-0.888968
-532,106,-24.7756,0.643433,-0.00263437,0.000592452,-0.000422135,0.000646762,-0.00268868,-1.44284,0.00204246,0.041794,692,918,-24.7756,-0.643412
-525,106,-24.942,0.657532,-0.00075926,0.00108285,-0.00054571,0.00123238,-0.000908785,-1.30336,0.0012409,0.0399468,699,918,-24.9419,-0.657535
-518,106,-24.9646,0.671692,-0.000224655,0.00145913,-0.000615685,0.00166024,-0.000425764,-1.25508,0.00127271,0.039728,706,918,-24.9646,-0.671714
-511,106,0,0,0,0,0,0,0,0,0,-1,713,918,0,0
-504,106,0,0,0,0,0,0,0,0,0,-1,720,918,0,0
-497,106,0,0,0,0,0,0,0,0,0,-1,727,918,0,0
-490,106,0,0,0,0,0,0,0,0,0,-1,734,918,0,0
-483,106,0,0,0,0,0,0,0,0,0,-1,741,918,0,0
-476,106,0,0,0,0,0,0,0,0,0,-1,748,918,0,0
-469,106,0,0,0,0,0,0,0,0,0,-1,755,918,0,0
-462,106,0,0,0,0,0,0,0,0,0,-1,762,918,0,0
-455,106,0,0,0,0,0,0,0,0,0,-1,769,918,0,0
-448,106,0,0,0,0,0,0,0,0,0,-1,776,918,0,0
-441,106,0,0,0,0,0,0,0,0,0,-1,783,918,0,0
-434,106,0,0,0,0,0,0,0,0,0,-1,790,918,0,0
-427,106,0,0,0,0,0,0,0,0,0,-1,797,918,0,0
-420,106,0,0,0,0,0,0,0,0,0,-1,804,918,0,0
-413,106,0,0,0,0,0,0,0,0,0,-1,811,918,0,0
-406,106,0,0,0,0,0,0,0,0,0,-1,818,918,0,0
-399,106,0,0,0,0,0,0,0,0,0,-1,825,918,0,0
-392,106,0,0,0,0,0,0,0,0,0,-1,832,918,0,0
-385,106,0,0,0,0,0,0,0,0,0,-1,839,918,0,0
-378,106,0,0,0,0,0,0,0,0,0,-1,846,918,0,0
-371,106,0,0,0,0,0,0,0,0,0,-1,853,918,0,0
-364,106,0,0,0,0,0,0,0,0,0,-1,860,918,0,0
-357,106,0,0,0,0,0,0,0,0,0,-1,867,918,0,0
-350,106,0,0,0,0,0,0,0,0,0,-1,874,918,0,0
-343,106,0,0,0,0,0,0,0,0,0,-1,881,918,0,0
-336,106,0,0,0,0,0,0,0,0,0,-1,888,918,0,0
-329,106,0,0,0,0,0,0,0,0,0,-1,895,918,0,0
-322,106,0,0,0,0,0,0,0,0,0,-1,902,918,0,0
-315,106,0,0,0,0,0,0,0,0,0,-1,909,918,0,0
-308,106,0,0,0,0,0,0,0,0,0,-1,916,918,0,0
-301,106,0,0,0,0,0,0,0,0,0,-1,923,918,0,0
-294,106,0,0,0,0,0,0,0,0,0,-1,930,918,0,0
-287,106,0,0,0,0,0,0,0,0,0,-1,937,918,0,0
-280,106,0,0,0,0,0,0,0,0,0,-1,944,918,0,0
-273,106,0,0,0,0,0,0,0,0,0,-1,951,918,0,0
-266,106,0,0,0,0,0,0,0,0,0,-1,958,918,0,0
-259,106,0,0,0,0,0,0,0,0,0,-1,965,918,0,0
-252,106,0,0,0,0,0,0,0,0,0,-1,972,918,0,0
-245,106,0,0,0,0,0,0,0,0,0,-1,979,918,0,0
-238,106,0,0,0,0,0,0,0,0,0,-1,986,918,0,0
-231,106,0,0,0,0,0,0,0,0,0,-1,993,918,0,0
-224,106,0,0,0,0,0,0,0,0,0,-1,1000,918,0,0
-217,106,0,0,0,0,0,0,0,0,0,-1,1007,918,0,0
-210,106,0,0,0,0,0,0,0,0,0,-1,1014,918,0,0
-203,106,0,0,0,0,0,0,0,0,0,-1,1021,918,0,0
-196,106,0,0,0,0,0,0,0,0,0,-1,1028,918,0,0
-189,106,0,0,0,0,0,0,0,0,0,-1,1035,918,0,0
-182,106,0,0,0,0,0,0,0,0,0,-1,1042,918,0,0
-175,106,0,0,0,0,0,0,0,0,0,-1,1049,918,0,0
-168,106,0,0,0,0,0,0,0,0,0,-1,1056,918,0,0
-161,106,0,0,0,0,0,0,0,0,0,-1,1063,918,0,0
-154,106,0,0,0,0,0,0,0,0,0,-1,1070,918,0,0
-147,106,0,0,0,0,0,0,0,0,0,-1,1077,918,0,0
-140,106,0,0,0,0,0,0,0,0,0,-1,1084,918,0,0
-133,106,0,0,0,0,0,0,0,0,0,-1,1091,918,0,0
-126,106,0,0,0,0,0,0,0,0,0,-1,1098,918,0,0
-119,106,0,0,0,0,0,0,0,0,0,-1,1105,918,0,0
-112,106,0,0,0,0,0,0,0,0,0,-1,1112,918,0,0
-105,106,0,0,0,0,0,0,0,0,0,-1,1119,918,0,0
-98,106,0,0,0,0,0,0,0,0,0,-1,1126,918,0,0
-91,106,0,0,0,0,0,0,0,0,0,-1,1133,918,0,0
-84,106,0,0,0,0,0,0,0,0,0,-1,1140,918,0,0
-77,106,0,0,0,0,0,0,0,0,0,-1,1147,918,0,0
-70,106,0,0,0,0,0,0,0,0,0,-1,1154,918,0,0
-63,106,0,0,0,0,0,0,0,0,0,-1,1161,918,0,0
-56,106,0,0,0,0,0,0,0,0,0,-1,1168,918,0,0
-49,106,0,0,0,0,0,0,0,0,0,-1,1175,918,0,0
-42,106,0,0,0,0,0,0,0,0,0,-1,1182,918,0,0
-35,106,0,0,0,0,0,0,0,0,0,-1,1189,918,0,0
-28,106,0,0,0,0,0,0,0,0,0,-1,1196,918,0,0
-21,106,0,0,0,0,0,0,0,0,0,-1,1203,918,0,0
-14,106,0,0,0,0,0,0,0,0,0,-1,1210,918,0,0
-7,106,0,0,0,0,0,0,0,0,0,-1,1217,918,0,0
0,106,0,0,0,0,0,0,0,0,0,-1,1224,918,0,0
7,106,0,0,0,0,0,0,0,0,0,-1,1231,918,0,0
14,106,0,0,0,0,0,0,0,0,0,-1,1238,918,0,0
21,106,0,0,0,0,0,0,0,0,0,-1,1245,918,0,0
28,106,0,0,0,0,0,0,0,0,0,-1,1252,918,0,0
35,106,0,0,0,0,0,0,0,0,0,-1,1259,918,0,0
42,106,0,0,0,0,0,0,0,0,0,-1,1266,918,0,0
49,106,0,0,0,0,0,0,0,0,0,-1,1273,918,0,0
56,106,0,0,0,0,0,0,0,0,0,-1,1280,918,0,0
63,106,0,0,0,0,0,0,0,0,0,-1,1287,918,0,0
70,106,0,0,0,0,0,0,0,0,0,-1,1294,918,0,0
77,106,0,0,0,0,0,0,0,0,0,-1,1301,918,0,0
84,106,0,0,0,0,0,0,0,0,0,-1,1308,918,0,0
91,106,0,0,0,0,0,0,0,0,0,-1,1315,918,0,0
98,106,0,0,0,0,0,0,0,0,0,-1,1322,918,0,0
105,106,0,0,0,0,0,0,0,0,0,-1,1329,918,0,0
112,106,0,0,0,0,0,0,0,0,0,-1,1336,918,0,0
119,106,0,0,0,0,0,0,0,0,0,-1,1343,918,0,0
126,106,0,0,0,0,0,0,0,0,0,-1,1350,918,0,0
133,106,0,0,0,0,0,0,0,0,0,-1,1357,918,0,0
140,106,0,0,0,0,0,0,0,0,0,-1,1364,918,0,0
147,106,0,0,0,0,0,0,0,0,0,-1,1371,918,0,0
154,106,0,0,0,0,0,0,0,0,0,-1,1378,918,0,0
161,106,0,0,0,0,0,0,0,0,0,-1,1385,918,0,0
168,106,0,0,0,0,0,0,0,0,0,-1,1392,918,0,0
175,106,0,0,0,0,0,0,0,0,0,-1,1399,918,0,0
182,106,0,0,0,0,0,0,0,0,0,-1,1406,918,0,0
189,106,0,0,0,0,0,0,0,0,0,-1,1413,918,0,0
196,106,0,0,0,0,0,0,0,0,0,-1,1420,918,0,0
203,106,0,0,0,0,0,0,0,0,0,-1,1427,918,0,0
210,106,0,0,0,0,0,0,0,0,0,-1,1434,918,0,0
217,106,0,0,0,0,0,0,0,0,0,-1,1441,918,0,0
224,106,0,0,0,0,0,0,0,0,0,-1,1448,918,0,0
231,106,0,0,0,0,0,0,0,0,0,-1,1455,918,0,0
238,106,0,0,0,0,0,0,0,0,0,-1,1462,918,0,0
245,106,0,0,0,0,0,0,0,0,0,-1,1469,918,0,0
252,106,0,0,0,0,0,0,0,0,0,-1,1476,918,0,0
259,106,0,0,0,0,0,0,0,0,0,-1,1483,918,0,0
266,106,0,0,0,0,0,0,0,0,0,-1,1490,918,0,0
273,106,0,0,0,0,0,0,0,0,0,-1,1497,918,0,0
280,106,0,0,0,0,0,0,0,0,0,-1,1504,918,0,0
287,106,0,0,0,0,0,0,0,0,0,-1,1511,918,0,0
294,106,0,0,0,0,0,0,0,0,0,-1,1518,918,0,0
301,106,0,0,0,0,0,0,0,0,0,-1,1525,918,0,0
308,106,0,0,0,0,0,0,0,0,0,-1,1532,918,0,0
315,106,0,0,0,0,0,0,0,0,0,-1,1539,918,0,0
322,106,0,0,0,0,0,0,0,0,0,-1,1546,918,0,0
329,106,0,0,0,0,0,0,0,0,0,-1,1553,918,0,0
336,106,0,0,0,0,0,0,0,0,0,-1,1560,918,0,0
343,106,0,0,0,0,0,0,0,0,0,-1,1567,918,0,0
350,106,0,0,0,0,0,0,0,0,0,-1,1574,918,0,0
357,106,0,0,0,0,0,0,0,0,0,-1,1581,918,0,0
364,106,0,0,0,0,0,0,0,0,0,-1,1588,918,0,0
371,106,0,0,0,0,0,0,0,0,0,-1,1595,918,0,0
378,106,0,0,0,0,0,0,0,0,0,-1,1602,918,0,0
385,106,0,0,0,0,0,0,0,0,0,-1,1609,918,0,0
392,106,0,0,0,0,0,0,0,0,0,-1,1616,918,0,0
399,106,0,0,0,0,0,0,0,0,0,-1,1623,918,0,0
406,106,0,0,0,0,0,0,0,0,0,-1,1630,918,0,0
413,106,0,0,0,0,0,0,0,0,0,-1,1637,918,0,0
420,106,0,0,0,0,0,0,0,0,0,-1,1644,918,0,0
427,106,0,0,0,0,0,0,0,0,0,-1,1651,918,0,0
434,106,0,0,0,0,0,0,0,0,0,-1,1658,918,0,0
441,106,0,0,0,0,0,0,0,0,0,-1,1665,918,0,0
448,106,0,0,0,0,0,0,0,0,0,-1,1672,918,0,0
455,106,0,0,0,0,0,0,0,0,0,-1,1679,918,0,0
462,106,0,0,0,0,0,0,0,0,0,-1,1686,918,0,0
469,106,0,0,0,0,0,0,0,0,0,-1,1693,918,0,0
476,106,0,0,0,0,0,0,0,0,0,-1,1700,918,0,0
483,106,0,0,0,0,0,0,0,0,0,-1,1707,918,0,0
490,106,0,0,0,0,0,0,0,0,0,-1,1714,918,0,0
497,106,0,0,0,0,0,0,0,0,0,-1,1721,918,0,0
504,106,0,0,0,0,0,0,0,0,0,-1,1728,918,0,0
511,106,0,0,0,0,0,0,0,0,0,-1,1735,918,0,0
518,106,0,0,0,0,0,0,0,0,0,-1,1742,918,0,0
525,106,0,0,0,0,0,0,0,0,0,-1,1749,918,0,0
532,106,0,0,0,0,0,0,0,0,0,-1,1756,918,0,0
539,106,0,0,0,0,0,0,0,0,0,-1,1763,918,0,0
546,106,0,0,0,0,0,0,0,0,0,-1,1770,918,0,0
553,106,0,0,0,0,0,0,0,0,0,-1,1777,918,0,0
560,106,0,0,0,0,0,0,0,0,0,-1,1784,918,0,0
567,106,0,0,0,0,0,0,0,0,0,-1,1791,918,0,0
574,106,0,0,0,0,0,0,0,0,0,-1,1798,918,0,0
581,106,0,0,0,0,0,0,0,0,0,-1,1805,918,0,0
588,106,0,0,0,0,0,0,0,0,0,-1,1812,918,0,0
595,106,0,0,0,0,0,0,0,0,0,-1,1819,918,0,0
602,106,0,0,0,0,0,0,0,0,0,-1,1826,918,0,0
609,106,0,0,0,0,0,0,0,0,0,-1,1833,918,0,0
616,106,0,0,0,0,0,0,0,0,0,-1,1840,918,0,0
623,106,0,0,0,0,0,0,0,0,0,-1,1847,918,0,0
630,106,34.2249,2.94171,0.00380038,0.00200689,-0.00120563,0.0044062,0.00140108,-0.465639,0.0025995,0.0418842,1854,918,34.2248,-2.94172
637,106,34.1755,2.90002,0.0034991,0.00232393,-0.000957621,0.00403504,0.001788,-0.510223,0.00233465,0.0391771,1861,918,34.1756,-2.90004
644,106,34.1849,2.7879,0.00282511,0.00249725,-0.000719929,0.00339954,0.00192283,-0.673457,0.00196835,0.0360087,1868,918,34.185,-2.78792
651,106,34.2512,2.67792,0.00195297,0.00255096,-0.000376566,0.00273279,0.00177113,-1.12093,0.00160069,0.0381557,1875,918,34.2513,-2.67794
658,106,34.3293,2.61914,0.00113975,0.0025729,2.34899e-05,0.00257328,0.00113936,1.55441,0.00148893,0.0400382,1882,918,34.3293,-2.61914
665,106,34.1808,2.86536,0.000590543,0.00248177,0.000378351,0.00255465,0.00051766,1.38049,0.00155945,0.0394023,1889,918,34.1808,-2.86534
672,106,34.1393,3.03351,0.000245853,0.00224923,0.000717469,0.00247967,1.54127e-05,1.26002,0.001648,0.0386365,1896,918,34.1392,-3.03353
679,106,34.235,2.93262,4.86572e-05,0.00196369,0.000956791,0.00235979,-0.000347446,1.17829,0.00170088,0.0342696,1903,918,34.235,-2.93259
686,106,34.2552,2.76141,-0.00010976,0.00168648,0.00109555,0.00220499,-0.000628271,1.12874,0.00171814,0.0277034,1910,918,34.2552,-2.76138
693,106,34.1088,2.91101,-0.000327466,0.00130707,0.00120744,0.00194783,-0.000968226,1.08291,0.00171496,0.0246107,1917,918,34.1088,-2.911
700,106,33.9734,3.04651,0,0,0,0,0,0,0,-1,1924,918,33.9734,-3.04649
707,106,30.9542,3.32074,0,0,0,0,0,0,0,-1,1931,918,30.9543,-3.32074
714,106,31.0671,3.63055,-0.000152221,0.00100428,0.000554748,0.00122736,-0.000375293,1.18847,0.000967899,0.0238319,1938,918,31.0671,-3.63052
721,106,31.1058,3.96649,0.00059848,0.00112069,0.00037181,0.00131392,0.000405253,1.09152,0.00077693,0.0204828,1945,918,31.1059,-3.96647
728,106,31.1626,4.29761,0.000822417,0.00118044,0.000190627,0.00126293,0.000739926,1.16239,0.000732732,0.020049,1952,918,31.1626,-4.29758
735,106,31.109,4.57086,0.00198195,0.00136489,-0.000156394,0.00201932,0.00132751,-0.234578,0.00118496,0.0182694,1959,918,31.109,-4.57086
742,106,31.0648,4.83875,0.00356094,0.00167611,-0.000710884,0.00379899,0.00143806,-0.323131,0.00221482,0.012137,1966,918,31.0648,-4.83875
749,106,31.0559,5.12311,0.00575743,0.0021187,-0.00113957,0.00608485,0.00179128,-0.279787,0.00361075,0.00942719,1973,918,31.0559,-5.1231
756,106,31.0302,5.38708,0.00864897,0.00242521,-0.00122286,0.00888062,0.00219356,-0.187213,0.00534153,0.0116161,1980,918,31.0302,-5.38709
763,106,30.9519,5.75763,0.0121746,0.00239051,-0.000940079,0.0122641,0.00230101,-0.0949249,0.00752725,0.0216923,1987,918,30.9519,-5.75763
770,106,30.847,6.12457,0.0163502,0.00174279,-0.000302099,0.0163564,0.00173655,-0.0206695,0.010374,0.0407142,1994,918,30.8471,-6.12458
777,106,30.5767,6.14374,0.0213044,-2.21357e-05,0.00103452,0.0213545,-7.22017e-05,0.0483574,0.0142604,0.0461076,2001,918,30.5767,-6.14376
784,106,30.1572,6.13379,0,0,0,0,0,0,0,-1,2008,918,30.1572,-6.13377
791,106,30.7073,7.4458,0,0,0,0,0,0,0,-1,2015,918,30.7073,-7.4458
798,106,31.0391,7.60632,0,0,0,0,0,0,0,-1,2022,918,31.039,-7.60633
805,106,0,0,0,0,0,0,0,0,0,-1,2029,918,0,0
812,106,0,0,0,0,0,0,0,0,0,-1,2036,918,0,0
-700,99,0,0,0,0,0,0,0,0,0,-1,524,925,0,0
-693,99,0,0,0,0,0,0,0,0,0,-1,531,925,0,0
-686,99,0,0,0,0,0,0,0,0,0,-1,538,925,0,0
-679,99,-21.5121,2.95032,0,0,0,0,0,0,0,-1,545,925,-21.5121,-2.95034
-672,99,-22.0467,2.62018,0,0,0,0,0,0,0,-1,552,925,-22.0467,-2.62019
-665,99,-22.4314,2.02832,0,0,0,0,0,0,0,-1,559,925,-22.4314,-2.02831
-658,99,-22.5023,2.67212,-0.0141122,0.00226706,0.0112938,0.00802809,-0.0198732,1.0991,0.0165857,0.0465821,566,925,-22.5023,-2.67214
-651,99,-22.9362,3.14056,-0.0095104,0.000995493,0.0102172,0.00723101,-0.0157459,1.02284,0.013566,0.0459706,573,925,-22.9362,-3.14055
-644,99,-22.3142,4.11755,-0.00637975,0.000640874,0.00880307,0.00660771,-0.0123466,0.975117,0.0111092,0.047373,580,925,-22.3142,-4.11752
-637,99,-22.5134,3.32062,-0.00431567,0.000672073,0.00738496,0.00597288,-0.00961648,0.948234,0.0090821,0.0303031,587,925,-22.5134,-3.32059
-630,99,-22.6289,2.95306,-0.00276261,0.000161913,0.00621437,0.00508375,-0.00768444,0.900948,0.00742251,0.0137409,594,925,-22.6289,-2.95304
-623,99,-22.7236,2.65967,-0.00260557,0.000388594,0.0048055,0.00392481,-0.00614179,0.936401,0.00585875,0.00845317,601,925,-22.7236,-2.65967
-616,99,-22.7261,2.40503,-0.00297818,0.000166797,0.00350641,0.00243717,-0.00524856,0.996185,0.00453523,0.00963089,608,925,-22.7261,-2.40501
-609,99,-22.7155,2.18195,-0.00398939,0.000260218,0.00246991,0.00139352,-0.00512269,1.14061,0.00396218,0.0103501,615,925,-22.7155,-2.18197
-602,99,-22.7079,1.9646,-0.00508604,-0.000105978,0.00160709,0.000367603,-0.00555962,1.28423,0.00383483,0.0125725,622,925,-22.7079,-1.96458
-595,99,-22.7867,1.73358,-0.00605933,4.90514e-05,0.00106222,0.000228494,-0.00623877,1.40344,0.0042374,0.0172,629,925,-22.7867,-1.73358
-588,99,-22.7798,1.4577,-0.00678228,5.73918e-06,0.000610733,6.02505e-05,-0.00683679,1.48178,0.00457808,0.0180939,636,925,-22.7798,-1.45772
-581,99,-22.6777,1.14288,-0.00718203,-0.000195983,0.000280506,-0.000184738,-0.00719327,1.53073,0.00473514,0.0120644,643,925,-22.6777,-1.14287
-574,99,-22.6349,0.830688,0,0,0,0,0,0,0,-1,650,925,-22.635,-0.830667
-567,99,-24.6337,0.883118,0,0,0,0,0,0,0,-1,657,925,-24.6338,-0.883113
-560,99,-24.7254,0.832031,-0.00693695,-0.000221474,-0.000439403,-0.000192845,-0.00696558,-1.50573,0.00458079,0.0361397,664,925,-24.7254,-0.832024
-553,99,-24.7787,0.804321,-0.00646763,8.52047e-05,-0.000625021,0.000144288,-0.00652672,-1.47655,0.00440003,0.0384185,671,925,-24.7787,-0.804296
-546,99,-24.7183,1.02399,-0.00561006,0.000480523,-0.000779207,0.000578631,-0.00570817,-1.44555,0.00401225,0.039705,678,925,-24.7183,-1.02399
-539,99,-24.7372,0.949951,-0.0042086,0.000984176,-0.00094044,0.00114925,-0.00437367,-1.39704,0.00336493,0.0397085,685,925,-24.7372,-0.949955
-532,99,-24.8318,0.888489,-0.00222895,0.00155403,-0.00114884,0.00187558,-0.0025505,-1.29789,0.00256528,0.043831,692,925,-24.8319,-0.888507
-525,99,-24.9202,0.753906,0.000129199,0.00218302,-0.00166743,0.00311439,-0.000802172,-1.0614,0.00238898,0.0414868,699,925,-24.9202,-0.753902
-518,99,-24.7534,0.738281,0.000516984,0.00283617,-0.00212937,0.00410122,-0.000748062,-1.03473,0.0030146,0.0396177,706,925,-24.7533,-0.73826
-511,99,0,0,0,0,0,0,0,0,0,-1,713,925,0,0
-504,99,0,0,0,0,0,0,0,0,0,-1,720,925,0,0
-497,99,0,0,0,0,0,0,0,0,0,-1,727,925,0,0
-490,99,0,0,0,0,0,0,0,0,0,-1,734,925,0,0
-483,99,0,0,0,0,0,0,0,0,0,-1,741,925,0,0
-476,99,0,0,0,0,0,0,0,0,0,-1,748,925,0,0
-469,99,0,0,0,0,0,0,0,0,0,-1,755,925,0,0
-462,99,0,0,0,0,0,0,0,0,0,-1,762,925,0,0
-455,99,0,0,0,0,0,0,0,0,0,-1,769,925,0,0
-448,99,0,0,0,0,0,0,0,0,0,-1,776,925,0,0
-441,99,0,0,0,0,0,0,0,0,0,-1,783,925,0,0
-434,99,0,0,0,0,0,0,0,0,0,-1,790,925,0,0
-427,99,0,0,0,0,0,0,0,0,0,-1,797,925,0,0
-420,99,0,0,0,0,0,0,0,0,0,-1,804,925,0,0
-413,99,0,0,0,0,0,0,0,0,0,-1,811,925,0,0
-406,99,0,0,0,0,0,0,0,0,0,-1,818,925,0,0
-399,99,0,0,0,0,0,0,0,0,0,-1,825,925,0,0
-392,99,0,0,0,0,0,0,0,0,0,-1,832,925,0,0
-385,99,0,0,0,0,0,0,0,0,0,-1,839,925,0,0
-378,99,0,0,0,0,0,0,0,0,0,-1,846,925,0,0
-371,99,0,0,0,0,0,0,0,0,0,-1,853,925,0,0
-364,99,0,0,0,0,0,0,0,0,0,-1,860,925,0,0
-357,99,0,0,0,0,0,0,0,0,0,-1,867,925,0,0
-350,99,0,0,0,0,0,0,0,0,0,-1,874,925,0,0
-343,99,0,0,0,0,0,0,0,0,0,-1,881,925,0,0
-336,99,0,0,0,0,0,0,0,0,0,-1,888,925,0,0
-329,99,0,0,0,0,0,0,0,0,0,-1,895,925,0,0
-322,99,0,0,0,0,0,0,0,0,0,-1,902,925,0,0
-315,99,0,0,0,0,0,0,0,0,0,-1,909,925,0,0
-308,99,0,0,0,0,0,0,0,0,0,-1,916,925,0,0
-301,99,0,0,0,0,0,0,0,0,0,-1,923,925,0,0
-294,99,0,0,0,0,0,0,0,0,0,-1,930,925,0,0
-287,99,0,0,0,0,0,0,0,0,0,-1,937,925,0,0
-280,99,0,0,0,0,0,0,0,0,0,-1,944,925,0,0
-273,99,0,0,0,0,0,0,0,0,0,-1,951,925,0,0
-266,99,0,0,0,0,0,0,0,0,0,-1,958,925,0,0
-259,99,0,0,0,0,0,0,0,0,0,-1,965,925,0,0
-252,99,0,0,0,0,0,0,0,0,0,-1,972,925,0,0
-245,99,0,0,0,0,0,0,0,0,0,-1,979,925,0,0
-238,99,0,0,0,0,0,0,0,0,0,-1,986,925,0,0
-231,99,0,0,0,0,0,0,0,0,0,-1,993,925,0,0
-224,99,0,0,0,0,0,0,0,0,0,-1,1000,925,0,0
-217,99,0,0,0,0,0,0,0,0,0,-1,1007,925,0,0
-210,99,0,0,0,0,0,0,0,0,0,-1,1014,925,0,0
-203,99,0,0,0,0,0,0,0,0,0,-1,1021,925,0,0
-196,99,0,0,0,0,0,0,0,0,0,-1,1028,925,0,0
-189,99,0,0,0,0,0,0,0,0,0,-1,1035,925,0,0
-182,99,0,0,0,0,0,0,0,0,0,-1,1042,925,0,0
-175,99,0,0,0,0,0,0,0,0,0,-1,1049,925,0,0
-168,99,0,0,0,0,0,0,0,0,0,-1,1056,925,0,0
-161,99,0,0,0,0,0,0,0,0,0,-1,1063,925,0,0
-154,99,0,0,0,0,0,0,0,0,0,-1,1070,925,0,0
-147,99,0,0,0,0,0,0,0,0,0,-1,1077,925,0,0
-140,99,0,0,0,0,0,0,0,0,0,-1,1084,925,0,0
-133,99,0,0,0,0,0,0,0,0,0,-1,1091,925,0,0
-126,99,0,0,0,0,0,0,0,0,0,-1,1098,925,0,0
-119,99,0,0,0,0,0,0,0,0,0,-1,1105,925,0,0
-112,99,0,0,0,0,0,0,0,0,0,-1,1112,925,0,0
-105,99,0,0,0,0,0,0,0,0,0,-1,1119,925,0,0
-98,99,0,0,0,0,0,0,0,0,0,-1,1126,925,0,0
-91,99,0,0,0,0,0,0,0,0,0,-1,1133,925,0,0
-84,99,0,0,0,0,0,0,0,0,0,-1,1140,925,0,0
-77,99,0,0,0,0,0,0,0,0,0,-1,1147,925,0,0
-70,99,0,0,0,0,0,0,0,0,0,-1,1154,925,0,0
-63,99,0,0,0,0,0,0,0,0,0,-1,1161,925,0,0
-56,99,0,0,0,0,0,0,0,0,0,-1,1168,925,0,0
-49,99,0,0,0,0,0,0,0,0,0,-1,1175,925,0,0
-42,99,0,0,0,0,0,0,0,0,0,-1,1182,925,0,0
-35,99,0,0,0,0,0,0,0,0,0,-1,1189,925,0,0
-28,99,0,0,0,0,0,0,0,0,0,-1,1196,925,0,0
-21,99,0,0,0,0,0,0,0,0,0,-1,1203,925,0,0
-14,99,0,0,0,0,0,0,0,0,0,-1,1210,925,0,0
-7,99,0,0,0,0,0,0,0,0,0,-1,1217,925,0,0
0,99,0,0,0,0,0,0,0,0,0,-1,1224,925,0,0
7,99,0,0,0,0,0,0,0,0,0,-1,1231,925,0,0
14,99,0,0,0,0,0,0,0,0,0,-1,1238,925,0,0
21,99,0,0,0,0,0,0,0,0,0,-1,1245,925,0,0
28,99,0,0,0,0,0,0,0,0,0,-1,1252,925,0,0
35,99,0,0,0,0,0,0,0,0,0,-1,1259,925,0,0
42,99,0,0,0,0,0,0,0,0,0,-1,1266,925,0,0
49,99,0,0,0,0,0,0,0,0,0,-1,1273,925,0,0
56,99,0,0,0,0,0,0,0,0,0,-1,1280,925,0,0
63,99,0,0,0,0,0,0,0,0,0,-1,1287,925,0,0
70,99,0,0,0,0,0,0,0,0,0,-1,1294,925,0,0
77,99,0,0,0,0,0,0,0,0,0,-1,1301,925,0,0
84,99,0,0,0,0,0,0,0,0,0,-1,1308,925,0,0
91,99,0,0,0,0,0,0,0,0,0,-1,1315,925,0,0
98,99,0,0,0,0,0,0,0,0,0,-1,1322,925,0,0
105,99,0,0,0,0,0,0,0,0,0,-1,1329,925,0,0
112,99,0,0,0,0,0,0,0,0,0,-1,1336,925,0,0
119,99,0,0,0,0,0,0,0,0,0,-1,1343,925,0,0
126,99,0,0,0,0,0,0,0,0,0,-1,1350,925,0,0
133,99,0,0,0,0,0,0,0,0,0,-1,1357,925,0,0
140,99,0,0,0,0,0,0,0,0,0,-1,1364,925,0,0
147,99,0,0,0,0,0,0,0,0,0,-1,1371,925,0,0
154,99,0,0,0,0,0,0,0,0,0,-1,1378,925,0,0
161,99,0,0,0,0,0,0,0,0,0,-1,1385,925,0,0
168,99,0,0,0,0,0,0,0,0,0,-1,1392,925,0,0
175,99,0,0,0,0,0,0,0,0,0,-1,1399,925,0,0
182,99,0,0,0,0,0,0,0,0,0,-1,1406,925,0,0
189,99,0,0,0,0,0,0,0,0,0,-1,1413,925,0,0
196,99,0,0,0,0,0,0,0,0,0,-1,1420,925,0,0
203,99,0,0,0,0,0,0,0,0,0,-1,1427,925,0,0
210,99,0,0,0,0,0,0,0,0,0,-1,1434,925,0,0
217,99,0,0,0,0,0,0,0,0,0,-1,1441,925,0,0
224,99,0,0,0,0,0,0,0,0,0,-1,1448,925,0,0
231,99,0,0,0,0,0,0,0,0,0,-1,1455,925,0,0
238,99,0,0,0,0,0,0,0,0,0,-1,1462,925,0,0
245,99,0,0,0,0,0,0,0,0,0,-1,1469,925,0,0
252,99,0,0,0,0,0,0,0,0,0,-1,1476,925,0,0
259,99,0,0,0,0,0,0,0,0,0,-1,1483,925,0,0
266,99,0,0,0,0,0,0,0,0,0,-1,1490,925,0,0
273,99,0,0,0,0,0,0,0,0,0,-1,1497,925,0,0
280,99,0,0,0,0,0,0,0,0,0,-1,1504,925,0,0
287,99,0,0,0,0,0,0,0,0,0,-1,1511,925,0,0
294,99,0,0,0,0,0,0,0,0,0,-1,1518,925,0,0
301,99,0,0,0,0,0,0,0,0,0,-1,1525,925,0,0
308,99,0,0,0,0,0,0,0,0,0,-1,1532,925,0,0
315,99,0,0,0,0,0,0,0,0,0,-1,1539,925,0,0
322,99,0,0,0,0,0,0,0,0,0,-1,1546,925,0,0
329,99,0,0,0,0,0,0,0,0,0,-1,1553,925,0,0
336,99,0,0,0,0,0,0,0,0,0,-1,1560,925,0,0
343,99,0,0,0,0,0,0,0,0,0,-1,1567,925,0,0
350,99,0,0,0,0,0,0,0,0,0,-1,1574,925,0,0
357,99,0,0,0,0,0,0,0,0,0,-1,1581,925,0,0
364,99,0,0,0,0,0,0,0,0,0,-1,1588,925,0,0
371,99,0,0,0,0,0,0,0,0,0,-1,1595,925,0,0
378,99,0,0,0,0,0,0,0,0,0,-1,1602,925,0,0
385,99,0,0,0,0,0,0,0,0,0,-1,1609,925,0,0
392,99,0,0,0,0,0,0,0,0,0,-1,1616,925,0,0
399,99,0,0,0,0,0,0,0,0,0,-1,1623,925,0,0
406,99,0,0,0,0,0,0,0,0,0,-1,1630,925,0,0
413,99,0,0,0,0,0,0,0,0,0,-1,1637,925,0,0
420,99,0,0,0,0,0,0,0,0,0,-1,1644,925,0,0
427,99,0,0,0,0,0,0,0,0,0,-1,1651,925,0,0
434,99,0,0,0,0,0,0,0,0,0,-1,1658,925,0,0
441,99,0,0,0,0,0,0,0,0,0,-1,1665,925,0,0
448,99,0,0,0,0,0,0,0,0,0,-1,1672,925,0,0
455,99,0,0,0,0,0,0,0,0,0,-1,1679,925,0,0
462,99,0,0,0,0,0,0,0,0,0,-1,1686,925,0,0
469,99,0,0,0,0,0,0,0,0,0,-1,1693,925,0,0
476,99,0,0,0,0,0,0,0,0,0,-1,1700,925,0,0
483,99,0,0,0,0,0,0,0,0,0,-1,1707,925,0,0
490,99,0,0,0,0,0,0,0,0,0,-1,1714,925,0,0
497,99,0,0,0,0,0,0,0,0,0,-1,1721,925,0,0
504,99,0,0,0,0,0,0,0,0,0,-1,1728,925,0,0
511,99,0,0,0,0,0,0,0,0,0,-1,1735,925,0,0
518,99,0,0,0,0,0,0,0,0,0,-1,1742,925,0,0
525,99,0,0,0,0,0,0,0,0,0,-1,1749,925,0,0
532,99,0,0,0,0,0,0,0,0,0,-1,1756,925,0,0
539,99,0,0,0,0,0,0,0,0,0,-1,1763,925,0,0
546,99,0,0,0,0,0,0,0,0,0,-1,1770,925,0,0
553,99,0,0,0,0,0,0,0,0,0,-1,1777,925,0,0
560,99,0,0,0,0,0,0,0,0,0,-1,1784,925,0,0
567,99,0,0,0,0,0,0,0,0,0,-1,1791,925,0,0
574,99,0,0,0,0,0,0,0,0,0,-1,1798,925,0,0
581,99,0,0,0,0,0,0,0,0,0,-1,1805,925,0,0
588,99,0,0,0,0,0,0,0,0,0,-1,1812,925,0,0
595,99,0,0,0,0,0,0,0,0,0,-1,1819,925,0,0
602,99,0,0,0,0,0,0,0,0,0,-1,1826,925,0,0
609,99,0,0,0,0,0,0,0,0,0,-1,1833,925,0,0
616,99,0,0,0,0,0,0,0,0,0,-1,1840,925,0,0
623,99,0,0,0,0,0,0,0,0,0,-1,1847,925,0,0
630,99,0,0,0,0,0,0,0,0,0,-1,1854,925,0,0
637,99,34.1484,2.7301,0.0039699,0.00278742,-0.00107951,0.00460948,0.00214784,-0.534865,0.00266334,0.0438729,1861,925,34.1485,-2.73012
644,99,34.2754,2.68115,0.00325363,0.00283487,-0.00083329,0.00390344,0.00218505,-0.662312,0.00225901,0.0397415,1868,925,34.2754,-2.68118
651,99,34.3636,2.67535,0.00233987,0.00281143,-0.000461062,0.0030935,0.0020578,-1.02175,0.00181824,0.039561,1875,925,34.3637,-2.67538
658,99,34.3431,2.71747,0.00142513,0.00282968,1.00132e-05,0.00282975,0.00142506,1.56367,0.00163377,0.0393209,1882,925,34.3431,-2.71749
665,99,33.9824,3.06244,0,0,0,0,0,0,0,-1,1889,925,33.9824,-3.06241
672,99,34.1373,2.92993,0.000239565,0.00252183,0.000895942,0.00283152,-7.01285e-05,1.23799,0.00191148,0.0406373,1896,925,34.1374,-2.92995
679,99,34.2305,2.77765,-6.70194e-05,0.00220429,0.00121852,0.00273432,-0.000597046,1.16051,0.00205107,0.0365389,1903,925,34.2305,-2.77767
686,99,34.1892,2.70813,-0.000265509,0.00188545,0.0013982,0.00257395,-0.000954004,1.11323,0.00210722,0.028809,1910,925,34.1892,-2.70813
693,99,34.1604,2.89417,-0.000488826,0.00149438,0.00152485,0.00232168,-0.00131613,1.07369,0.00212687,0.0228326,1917,925,34.1604,-2.89415
700,99,34.1179,3.02625,0,0,0,0,0,0,0,-1,1924,925,34.1179,-3.02622
707,99,31.4648,3.33716,0,0,0,0,0,0,0,-1,1931,925,31.4648,-3.33713
714,99,31.4786,3.6767,-0.000491264,0.00118075,0.000853886,0.00153974,-0.000850259,1.17281,0.00139888,0.0268274,1938,925,31.4787,-3.67672
721,99,31.3878,3.9502,4.35524e-05,0.00123237,0.000658244,0.00152487,-0.000248948,1.15264,0.00110891,0.0231797,1945,925,31.3878,-3.95017
728,99,31.4209,4.25812,0.00015753,0.00133822,0.000447194,0.00148847,7.27439e-06,1.24665,0.0009899,0.0179463,1952,925,31.4208,-4.25812
735,99,31.4043,4.55585,0.00120657,0.00164221,5.49513e-05,0.00164903,0.00119975,1.44723,0.000984384,0.0162849,1959,925,31.4043,-4.55587
742,99,31.3741,4.83484,0.00257447,0.00210683,-0.000576658,0.00296291,0.00171839,-0.592791,0.00171792,0.0140094,1966,925,31.3741,-4.83486
749,99,31.3483,5.11902,0.0044895,0.0028355,-0.00112275,0.00505695,0.00226805,-0.467968,0.00292479,0.0118475,1973,925,31.3482,-5.11905
756,99,31.3175,5.36426,0.00712539,0.0036685,-0.00133971,0.0075838,0.00321009,-0.329686,0.00439566,0.0122019,1980,925,31.3175,-5.36424
763,99,31.2825,5.62219,0.0104827,0.00443251,-0.00117002,0.0107011,0.00421412,-0.184524,0.00622456,0.0148204,1987,925,31.2824,-5.6222
770,99,31.2579,5.94421,0.0145631,0.0048723,-0.000675032,0.0146099,0.0048255,-0.0692112,0.00859548,0.0289835,1994,925,31.258,-5.94424
777,99,31.2604,6.23785,0.0196308,0.00469118,0.000439288,0.0196437,0.00467827,0.0293703,0.0118484,0.0434335,2001,925,31.2604,-6.23783
784,99,31.4673,6.45367,0.0259824,0.00338737,0.00239598,0.0262337,0.00313609,0.104492,0.0165431,0.0433999,2008,925,31.4673,-6.45365
791,99,32.2299,7.15625,0,0,0,0,0,0,0,-1,2015,925,32.2299,-7.15624
798,99,31.3113,7.33661,0,0,0,0,0,0,0,-1,2022,925,31.3112,-7.33662
805,99,0,0,0,0,0,0,0,0,0,-1,2029,925,0,0
812,99,0,0,0,0,0,0,0,0,0,-1,2036,925,0,0
-700,92,0,0,0,0,0,0,0,0,0,-1,524,932,0,0
-693,92,0,0,0,0,0,0,0,0,0,-1,531,932,0,0
-686,92,-22.1866,4.70288,0,0,0,0,0,0,0,-1,538,932,-22.1866,-4.70288
-679,92,-21.7605,2.16693,0,0,0,0,0,0,0,-1,545,932,-21.7605,-2.16691
-672,92,-22.1885,2.1543,0,0,0,0,0,0,0,-1,552,932,-22.1885,-2.15432
-665,92,-22.5342,2.18896,0,0,0,0,0,0,0,-1,559,932,-22.5342,-2.18899
-658,92,-22.6349,2.47058,-0.0199371,0.008339,0.0113675,0.0123422,-0.0239403,1.2322,0.0213014,0.0472862,566,932,-22.6349,-2.47059
-651,92,-22.8031,2.96075,-0.0138566,0.00586639,0.0103565,0.0103055,-0.0182957,1.16586,0.0167263,0.0467061,573,932,-22.8031,-2.96073
-644,92,-23.1501,3.26923,-0.0094651,0.00432631,0.00898019,0.00875291,-0.0138917,1.11282,0.0131856,0.0436427,580,932,-23.1501,-3.26921
-637,92,-22.8491,3.15887,-0.0063994,0.00329565,0.00753393,0.00740684,-0.0105106,1.07127,0.0103962,0.0247592,587,932,-22.8492,-3.1589
-630,92,-22.9056,2.87805,-0.00403706,0.0019321,0.00635917,0.00597224,-0.0080772,1.00481,0.00814174,0.0117103,594,932,-22.9056,-2.87804
-623,92,-22.9653,2.64783,-0.00361481,0.001544,0.00482436,0.00443522,-0.00650603,1.03089,0.00635453,0.00829365,601,932,-22.9653,-2.64784
-616,92,-22.9897,2.41913,-0.00378646,0.000881404,0.00340328,0.00267416,-0.00557921,1.08596,0.00486249,0.00772792,608,932,-22.9897,-2.41915
-609,92,-22.9977,2.19147,-0.00470023,0.000732251,0.00229227,0.00157022,-0.00553821,1.22032,0.00431192,0.00818199,615,932,-22.9977,-2.19148
-602,92,-22.9732,1.95569,-0.00577359,0.000210164,0.00136024,0.000504865,-0.00606829,1.35744,0.00422388,0.00974888,622,932,-22.9732,-1.95571
-595,92,-22.9254,1.68945,-0.00671738,0.000221874,0.00077658,0.000307721,-0.00680322,1.4607,0.00464146,0.018217,629,932,-22.9254,-1.68944
-588,92,-22.9376,1.47333,-0.00745867,0.000123951,0.000319136,0.000137359,-0.00747208,1.52881,0.0050278,0.0192378,636,932,-22.9375,-1.47336
-581,92,-22.9452,1.19885,-0.00788418,-5.92665e-05,-4.37221e-05,-5.90221e-05,-0.00788443,-1.56521,0.00523672,0.0172814,643,932,-22.9452,-1.19886
-574,92,-23.3885,0.94696,-0.00795163,-0.00022182,-0.00046366,-0.000194107,-0.00797934,-1.5111,0.00525605,0.0336416,650,932,-23.3886,-0.946954
-567,92,-24.3713,1.31934,0,0,0,0,0,0,0,-1,657,932,-24.3713,-1.31932
-560,92,-24.6919,0.761536,-0.00763976,2.00391e-05,-0.00086566,0.000116652,-0.00773637,-1.45965,0.0051969,0.0372403,664,932,-24.6919,-0.761543
-553,92,-24.7934,0.809875,-0.00701516,0.000298257,-0.00106987,0.000451554,-0.00716846,-1.42848,0.00493638,0.039929,671,932,-24.7934,-0.80987
-546,92,-24.7464,0.903931,-0.00590047,0.000656378,-0.00127908,0.00089706,-0.00614115,-1.3848,0.00442354,0.0405708,678,932,-24.7464,-0.903948
-539,92,-24.6865,0.873169,-0.00419164,0.00107367,-0.00152911,0.00148552,-0.0046035,-1.3077,0.00366591,0.0402281,685,932,-24.6865,-0.873161
-532,92,-24.7607,0.864807,-0.0018985,0.00150173,-0.00189995,0.00235117,-0.00274794,-1.15037,0.00294694,0.0438507,692,932,-24.7607,-0.864829
-525,92,-24.7739,0.92749,0.000459322,0.00199352,-0.00271258,0.00404538,-0.00159254,-0.923196,0.00335617,0.0389239,699,932,-24.7739,-0.927479
-518,92,-24.7952,1.09955,0.000205021,0.00260608,-0.00343782,0.00504696,-0.00223586,-0.953385,0.00430788,0.0394919,706,932,-24.7952,-1.09952
-511,92,0,0,0,0,0,0,0,0,0,-1,713,932,0,0
-504,92,0,0,0,0,0,0,0,0,0,-1,720,932,0,0
-497,92,0,0,0,0,0,0,0,0,0,-1,727,932,0,0
-490,92,0,0,0,0,0,0,0,0,0,-1,734,932,0,0
-483,92,0,0,0,0,0,0,0,0,0,-1,741,932,0,0
-476,92,0,0,0,0,0,0,0,0,0,-1,748,932,0,0
-469,92,0,0,0,0,0,0,0,0,0,-1,755,932,0,0
-462,92,0,0,0,0,0,0,0,0,0,-1,762,932,0,0
-455,92,0,0,0,0,0,0,0,0,0,-1,769,932,0,0
-448,92,0,0,0,0,0,0,0,0,0,-1,776,932,0,0
-441,92,0,0,0,0,0,0,0,0,0,-1,783,932,0,0
-434,92,0,0,0,0,0,0,0,0,0,-1,790,932,0,0
-427,92,0,0,0,0,0,0,0,0,0,-1,797,932,0,0
-420,92,0,0,0,0,0,0,0,0,0,-1,804,932,0,0
-413,92,0,0,0,0,0,0,0,0,0,-1,811,932,0,0
-406,92,0,0,0,0,0,0,0,0,0,-1,818,932,0,0
-399,92,0,0,0,0,0,0,0,0,0,-1,825,932,0,0
-392,92,0,0,0,0,0,0,0,0,0,-1,832,932,0,0
-385,92,0,0,0,0,0,0,0,0,0,-1,839,932,0,0
-378,92,0,0,0,0,0,0,0,0,0,-1,846,932,0,0
-371,92,0,0,0,0,0,0,0,0,0,-1,853,932,0,0
-364,92,0,0,0,0,0,0,0,0,0,-1,860,932,0,0
-357,92,0,0,0,0,0,0,0,0,0,-1,867,932,0,0
-350,92,0,0,0,0,0,0,0,0,0,-1,874,932,0,0
-343,92,0,0,0,0,0,0,0,0,0,-1,881,932,0,0
-336,92,0,0,0,0,0,0,0,0,0,-1,888,932,0,0
-329,92,0,0,0,0,0,0,0,0,0,-1,895,932,0,0
-322,92,0,0,0,0,0,0,0,0,0,-1,902,932,0,0
-315,92,0,0,0,0,0,0,0,0,0,-1,909,932,0,0
-308,92,0,0,0,0,0,0,0,0,0,-1,916,932,0,0
-301,92,0,0,0,0,0,0,0,0,0,-1,923,932,0,0
-294,92,0,0,0,0,0,0,0,0,0,-1,930,932,0,0
-287,92,0,0,0,0,0,0,0,0,0,-1,937,932,0,0
-280,92,0,0,0,0,0,0,0,0,0,-1,944,932,0,0
-273,92,0,0,0,0,0,0,0,0,0,-1,951,932,0,0
-266,92,0,0,0,0,0,0,0,0,0,-1,958,932,0,0
-259,92,0,0,0,0,0,0,0,0,0,-1,965,932,0,0
-252,92,0,0,0,0,0,0,0,0,0,-1,972,932,0,0
-245,92,0,0,0,0,0,0,0,0,0,-1,979,932,0,0
-238,92,0,0,0,0,0,0,0,0,0,-1,986,932,0,0
-231,92,0,0,0,0,0,0,0,0,0,-1,993,932,0,0
-224,92,0,0,0,0,0,0,0,0,0,-1,1000,932,0,0
-217,92,0,0,0,0,0,0,0,0,0,-1,1007,932,0,0
-210,92,0,0,0,0,0,0,0,0,0,-1,1014,932,0,0
-203,92,0,0,0,0,0,0,0,0,0,-1,1021,932,0,0
-196,92,0,0,0,0,0,0,0,0,0,-1,1028,932,0,0
-189,92,0,0,0,0,0,0,0,0,0,-1,1035,932,0,0
-182,92,0,0,0,0,0,0,0,0,0,-1,1042,932,0,0
-175,92,0,0,0,0,0,0,0,0,0,-1,1049,932,0,0
-168,92,0,0,0,0,0,0,0,0,0,-1,1056,932,0,0
-161,92,0,0,0,0,0,0,0,0,0,-1,1063,932,0,0
-154,92,0,0,0,0,0,0,0,0,0,-1,1070,932,0,0
-147,92,0,0,0,0,0,0,0,0,0,-1,1077,932,0,0
-140,92,0,0,0,0,0,0,0,0,0,-1,1084,932,0,0
-133,92,0,0,0,0,0,0,0,0,0,-1,1091,932,0,0
-126,92,0,0,0,0,0,0,0,0,0,-1,1098,932,0,0
-119,92,0,0,0,0,0,0,0,0,0,-1,1105,932,0,0
-112,92,0,0,0,0,0,0,0,0,0,-1,1112,932,0,0
-105,92,0,0,0,0,0,0,0,0,0,-1,1119,932,0,0
-98,92,0,0,0,0,0,0,0,0,0,-1,1126,932,0,0
-91,92,0,0,0,0,0,0,0,0,0,-1,1133,932,0,0
-84,92,0,0,0,0,0,0,0,0,0,-1,1140,932,0,0
-77,92,0,0,0,0,0,0,0,0,0,-1,1147,932,0,0
-70,92,0,0,0,0,0,0,0,0,0,-1,1154,932,0,0
-63,92,0,0,0,0,0,0,0,0,0,-1,1161,932,0,0
-56,92,0,0,0,0,0,0,0,0,0,-1,1168,932,0,0
-49,92,0,0,0,0,0,0,0,0,0,-1,1175,932,0,0
-42,92,0,0,0,0,0,0,0,0,0,-1,1182,932,0,0
-35,92,0,0,0,0,0,0,0,0,0,-1,1189,932,0,0
-28,92,0,0,0,0,0,0,0,0,0,-1,1196,932,0,0
-21,92,0,0,0,0,0,0,0,0,0,-1,1203,932,0,0
-14,92,0,0,0,0,0,0,0,0,0,-1,1210,932,0,0
-7,92,0,0,0,0,0,0,0,0,0,-1,1217,932,0,0
0,92,0,0,0,0,0,0,0,0,0,-1,1224,932,0,0
7,92,0,0,0,0,0,0,0,0,0,-1,1231,932,0,0
14,92,0,0,0,0,0,0,0,0,0,-1,1238,932,0,0
21,92,0,0,0,0,0,0,0,0,0,-1,1245,932,0,0
28,92,0,0,0,0,0,0,0,0,0,-1,1252,932,0,0
35,92,0,0,0,0,0,0,0,0,0,-1,1259,932,0,0
42,92,0,0,0,0,0,0,0,0,0,-1,1266,932,0,0
49,92,0,0,0,0,0,0,0,0,0,-1,1273,932,0,0
56,92,0,0,0,0,0,0,0,0,0,-1,1280,932,0,0
63,92,0,0,0,0,0,0,0,0,0,-1,1287,932,0,0
70,92,0,0,0,0,0,0,0,0,0,-1,1294,932,0,0
77,92,0,0,0,0,0,0,0,0,0,-1,1301,932,0,0
84,92,0,0,0,0,0,0,0,0,0,-1,1308,932,0,0
91,92,0,0,0,0,0,0,0,0,0,-1,1315,932,0,0
98,92,0,0,0,0,0,0,0,0,0,-1,1322,932,0,0
105,92,0,0,0,0,0,0,0,0,0,-1,1329,932,0,0
112,92,0,0,0,0,0,0,0,0,0,-1,1336,932,0,0
119,92,0,0,0,0,0,0,0,0,0,-1,1343,932,0,0
126,92,0,0,0,0,0,0,0,0,0,-1,1350,932,0,0
133,92,0,0,0,0,0,0,0,0,0,-1,1357,932,0,0
140,92,0,0,0,0,0,0,0,0,0,-1,1364,932,0,0
147,92,0,0,0,0,0,0,0,0,0,-1,1371,932,0,0
154,92,0,0,0,0,0,0,0,0,0,-1,1378,932,0,0
161,92,0,0,0,0,0,0,0,0,0,-1,1385,932,0,0
168,92,0,0,0,0,0,0,0,0,0,-1,1392,932,0,0
175,92,0,0,0,0,0,0,0,0,0,-1,1399,932,0,0
182,92,0,0,0,0,0,0,0,0,0,-1,1406,932,0,0
189,92,0,0,0,0,0,0,0,0,0,-1,1413,932,0,0
196,92,0,0,0,0,0,0,0,0,0,-1,1420,932,0,0
203,92,0,0,0,0,0,0,0,0,0,-1,1427,932,0,0
210,92,0,0,0,0,0,0,0,0,0,-1,1434,932,0,0
217,92,0,0,0,0,0,0,0,0,0,-1,1441,932,0,0
224,92,0,0,0,0,0,0,0,0,0,-1,1448,932,0,0
231,92,0,0,0,0,0,0,0,0,0,-1,1455,932,0,0
238,92,0,0,0,0,0,0,0,0,0,-1,1462,932,0,0
245,92,0,0,0,0,0,0,0,0,0,-1,1469,932,0,0
252,92,0,0,0,0,0,0,0,0,0,-1,1476,932,0,0
259,92,0,0,0,0,0,0,0,0,0,-1,1483,932,0,0
266,92,0,0,0,0,0,0,0,0,0,-1,1490,932,0,0
273,92,0,0,0,0,0,0,0,0,0,-1,1497,932,0,0
280,92,0,0,0,0,0,0,0,0,0,-1,1504,932,0,0
287,92,0,0,0,0,0,0,0,0,0,-1,1511,932,0,0
294,92,0,0,0,0,0,0,0,0,0,-1,1518,932,0,0
301,92,0,0,0,0,0,0,0,0,0,-1,1525,932,0,0
308,92,0,0,0,0,0,0,0,0,0,-1,1532,932,0,0
315,92,0,0,0,0,0,0,0,0,0,-1,1539,932,0,0
322,92,0,0,0,0,0,0,0,0,0,-1,1546,932,0,0
329,92,0,0,0,0,0,0,0,0,0,-1,1553,932,0,0
336,92,0,0,0,0,0,0,0,0,0,-1,1560,932,0,0
343,92,0,0,0,0,0,0,0,0,0,-1,1567,932,0,0
350,92,0,0,0,0,0,0,0,0,0,-1,1574,932,0,0
357,92,0,0,0,0,0,0,0,0,0,-1,1581,932,0,0
364,92,0,0,0,0,0,0,0,0,0,-1,1588,932,0,0
371,92,0,0,0,0,0,0,0,0,0,-1,1595,932,0,0
378,92,0,0,0,0,0,0,0,0,0,-1,1602,932,0,0
385,92,0,0,0,0,0,0,0,0,0,-1,1609,932,0,0
392,92,0,0,0,0,0,0,0,0,0,-1,1616,932,0,0
399,92,0,0,0,0,0,0,0,0,0,-1,1623,932,0,0
406,92,0,0,0,0,0,0,0,0,0,-1,1630,932,0,0
413,92,0,0,0,0,0,0,0,0,0,-1,1637,932,0,0
420,92,0,0,0,0,0,0,0,0,0,-1,1644,932,0,0
427,92,0,0,0,0,0,0,0,0,0,-1,1651,932,0,0
434,92,0,0,0,0,0,0,0,0,0,-1,1658,932,0,0
441,92,0,0,0,0,0,0,0,0,0,-1,1665,932,0,0
448,92,0,0,0,0,0,0,0,0,0,-1,1672,932,0,0
455,92,0,0,0,0,0,0,0,0,0,-1,1679,932,0,0
462,92,0,0,0,0,0,0,0,0,0,-1,1686,932,0,0
469,92,0,0,0,0,0,0,0,0,0,-1,1693,932,0,0
476,92,0,0,0,0,0,0,0,0,0,-1,1700,932,0,0
483,92,0,0,0,0,0,0,0,0,0,-1,1707,932,0,0
490,92,0,0,0,0,0,0,0,0,0,-1,1714,932,0,0
497,92,0,0,0,0,0,0,0,0,0,-1,1721,932,0,0
504,92,0,0,0,0,0,0,0,0,0,-1,1728,932,0,0
511,92,0,0,0,0,0,0,0,0,0,-1,1735,932,0,0
518,92,0,0,0,0,0,0,0,0,0,-1,1742,932,0,0
525,92,0,0,0,0,0,0,0,0,0,-1,1749,932,0,0
532,92,0,0,0,0,0,0,0,0,0,-1,1756,932,0,0
539,92,0,0,0,0,0,0,0,0,0,-1,1763,932,0,0
546,92,0,0,0,0,0,0,0,0,0,-1,1770,932,0,0
553,92,0,0,0,0,0,0,0,0,0,-1,1777,932,0,0
560,92,0,0,0,0,0,0,0,0,0,-1,1784,932,0,0
567,92,0,0,0,0,0,0,0,0,0,-1,1791,932,0,0
574,92,0,0,0,0,0,0,0,0,0,-1,1798,932,0,0
581,92,0,0,0,0,0,0,0,0,0,-1,1805,932,0,0
588,92,0,0,0,0,0,0,0,0,0,-1,1812,932,0,0
595,92,0,0,0,0,0,0,0,0,0,-1,1819,932,0,0
602,92,0,0,0,0,0,0,0,0,0,-1,1826,932,0,0
609,92,0,0,0,0,0,0,0,0,0,-1,1833,932,0,0
616,92,0,0,0,0,0,0,0,0,0,-1,1840,932,0,0
623,92,0,0,0,0,0,0,0,0,0,-1,1847,932,0,0
630,92,0,0,0,0,0,0,0,0,0,-1,1854,932,0,0
637,92,34.0615,2.48419,0.00427879,0.00278503,-0.00116788,0.00491819,0.00214563,-0.500912,0.0028472,0.0467273,1861,932,34.0615,-2.48419
644,92,34.3014,2.4931,0.00361947,0.00274913,-0.000904689,0.00418821,0.00218039,-0.561226,0.00241875,0.041034,1868,932,34.3014,-2.49308
651,92,34.3834,2.6402,0.00274256,0.0026856,-0.000514579,0.00322945,0.00219872,-0.757757,0.00190474,0.0414476,1875,932,34.3834,-2.64023
658,92,34.1777,2.8233,0.00179199,0.00272684,-9.04429e-07,0.00272684,0.00179199,-1.56983,0.00160006,0.0419456,1882,932,34.1777,-2.82331
665,92,34.0028,2.87958,0.000995941,0.00269218,0.000520251,0.00283903,0.000849089,1.29568,0.00168265,0.0414384,1889,932,34.0028,-2.87957
672,92,34.229,2.66882,0.00035857,0.00248736,0.0010216,0.0028983,-5.23671e-05,1.18835,0.00194989,0.0420712,1896,932,34.229,-2.66884
679,92,34.145,2.94025,0,0,0,0,0,0,0,-1,1903,932,34.145,-2.94024
686,92,34.1611,2.72583,-0.000347558,0.00183115,0.0016135,0.00268861,-0.00120501,1.08232,0.00230174,0.0289663,1910,932,34.1612,-2.72581
693,92,34.182,2.8042,-0.000597031,0.00144106,0.00173494,0.0024341,-0.00159007,1.05094,0.00234033,0.022975,1917,932,34.182,-2.80419
700,92,34.2075,2.98047,0,0,0,0,0,0,0,-1,1924,932,34.2076,-2.98045
707,92,32.9893,3.26874,0,0,0,0,0,0,0,-1,1931,932,32.9893,-3.26874
714,92,32,3.95422,0,0,0,0,0,0,0,-1,1938,932,32,-3.9542
721,92,31.7378,4.02991,-0.00051827,0.00119095,0.000858142,0.00154744,-0.00087476,1.17707,0.00141632,0.0259813,1945,932,31.7378,-4.02988
728,92,31.6665,4.3548,-0.000509876,0.00134927,0.000633531,0.00154463,-0.000705233,1.27169,0.00132875,0.0196268,1952,932,31.6666,-4.35478
735,92,31.6748,4.60876,0.000389304,0.00174912,0.000245829,0.00179219,0.000346227,1.39733,0.00109774,0.0169797,1959,932,31.6748,-4.60878
742,92,31.714,4.82715,0.00153673,0.00236071,-0.000404028,0.00252576,0.00137168,-1.18298,0.00146005,0.0188211,1966,932,31.714,-4.82713
749,92,31.661,5.09485,0.00311669,0.00331188,-0.000986181,0.00420528,0.00222329,-0.83472,0.00242925,0.0163504,1973,932,31.661,-5.09484
756,92,31.601,5.35748,0.00540566,0.00458807,-0.00125366,0.00631549,0.00367824,-0.627792,0.00366272,0.0139933,1980,932,31.6009,-5.35746
763,92,31.5969,5.60718,0.00851329,0.00608294,-0.00112652,0.00895513,0.0056411,-0.373777,0.00522811,0.0159928,1987,932,31.5969,-5.60717
770,92,31.6383,5.84583,0.0124288,0.00754379,-0.000702856,0.0125279,0.00744467,-0.140096,0.00727568,0.0248636,1994,932,31.6383,-5.84582
777,92,31.7985,6.16864,0.017508,0.00889221,0.000254854,0.0175155,0.00888467,0.0295456,0.0101129,0.040947,2001,932,31.7984,-6.16867
784,92,32.2083,6.67358,0.0245628,0.00993875,0.00190618,0.0248072,0.00969437,0.127508,0.0144359,0.0452263,2008,932,32.2082,-6.67357
791,92,32.3253,7.19702,0,0,0,0,0,0,0,-1,2015,932,32.3254,-7.19703
798,92,32.3723,7.66486,0,0,0,0,0,0,0,-1,2022,932,32.3722,-7.66483
805,92,0,0,0,0,0,0,0,0,0,-1,2029,932,0,0
812,92,0,0,0,0,0,0,0,0,0,-1,2036,932,0,0
-700,85,0,0,0,0,0,0,0,0,0,-1,524,939,0,0
-693,85,0,0,0,0,0,0,0,0,0,-1,531,939,0,0
-686,85,-21.931,3.99451,0,0,0,0,0,0,0,-1,538,939,-21.931,-3.99453
-679,85,-22.5015,3.97699,0,0,0,0,0,0,0,-1,545,939,-22.5014,-3.977
-672,85,-23.1357,3.63831,0,0,0,0,0,0,0,-1,552,939,-23.1357,-3.63831
-665,85,-23.681,2.76727,0,0,0,0,0,0,0,-1,559,939,-23.6809,-2.76729
-658,85,-23.7375,2.98309,0,0,0,0,0,0,0,-1,566,939,-23.7375,-2.98307
-651,85,-22.7958,3.30713,-0.0151157,0.010932,0.00932803,0.0139279,-0.0181116,1.26003,0.0185505,0.0439473,573,939,-22.7958,-3.30713
-644,85,-22.9549,3.22876,-0.0103453,0.00832262,0.00816834,0.0113921,-0.0134148,1.21135,0.0143381,0.0336814,580,939,-22.9549,-3.22876
-637,85,-23.0872,3.06915,-0.00695938,0.00625272,0.00687741,0.00918285,-0.00988951,1.16804,0.011014,0.0171299,587,939,-23.0872,-3.06914
-630,85,-23.1721,2.83405,-0.00441719,0.00407581,0.00580988,0.00702567,-0.00736704,1.10098,0.00831041,0.0105134,594,939,-23.172,-2.83402
-623,85,-23.2252,2.61011,-0.00398322,0.00296362,0.00431223,0.00502735,-0.00604694,1.12444,0.00640277,0.00944941,601,939,-23.2251,-2.61009
-616,85,-23.2413,2.40723,-0.00408758,0.00172966,0.00290198,0.00292976,-0.00528768,1.17867,0.004809,0.00928551,608,939,-23.2412,-2.4072
-609,85,-23.2518,2.17047,-0.00497777,0.00124343,0.00181295,0.0017332,-0.00546753,1.30695,0.0043397,0.0114151,615,939,-23.2518,-2.17047
-602,85,-23.2487,1.9425,-0.00610828,0.000561488,0.000853708,0.000669025,-0.00621582,1.44549,0.00438394,0.0155854,622,939,-23.2486,-1.94251
-595,85,-23.1938,1.73877,-0.00709765,0.000381013,0.000264979,0.00039039,-0.00710702,1.53542,0.00487336,0.0176682,629,939,-23.1939,-1.73879
-588,85,-23.1823,1.51233,-0.00788705,0.000244384,-0.000163277,0.000247661,-0.00789033,-1.55073,0.00534469,0.0162837,636,939,-23.1822,-1.51235
-581,85,-23.1989,1.26831,-0.00835187,7.3555e-05,-0.000520671,0.000105609,-0.00838392,-1.50931,0.00562481,0.0209145,643,939,-23.1989,-1.26833
-574,85,-23.6718,1.11609,-0.00843889,-1.49998e-06,-0.000965483,0.000107569,-0.00854796,-1.4583,0.00573483,0.0383816,650,939,-23.6718,-1.11608
-567,85,-24.5001,0.968018,-0.00834544,9.84805e-05,-0.00121792,0.000270639,-0.0085176,-1.43037,0.00577073,0.046227,657,939,-24.5,-0.968034
-560,85,-24.6309,0.834167,-0.00799744,0.000225002,-0.00141495,0.000461681,-0.00823412,-1.40506,0.0056496,0.0364814,664,939,-24.6309,-0.834149
-553,85,-24.7039,0.923157,-0.00716901,0.000433776,-0.00163037,0.000768647,-0.00750388,-1.36822,0.0052775,0.040399,671,939,-24.7039,-0.923135
-546,85,-24.6957,0.885193,-0.00576824,0.000698686,-0.00189562,0.00121338,-0.00628293,-1.30567,0.0046462,0.0419038,678,939,-24.6958,-0.885218
-539,85,-24.6392,0.856506,-0.00375618,0.000969968,-0.00225385,0.00187247,-0.00465868,-1.18992,0.00388345,0.0401716,685,939,-24.6392,-0.856482
-532,85,-24.6712,0.886475,-0.0012109,0.00120253,-0.00285715,0.00309734,-0.00310571,-0.98521,0.00358134,0.039383,692,939,-24.6712,-0.886473
-525,85,-24.7225,0.816895,0.000992154,0.00149904,-0.00410808,0.00536149,-0.00287029,-0.816206,0.00482462,0.0367072,699,939,-24.7225,-0.81691
-518,85,-24.7378,0.926392,3.54727e-05,0.00191351,-0.00536904,0.00642503,-0.00447604,-0.87197,0.00632718,0.0380861,706,939,-24.7378,-0.926407
-511,85,0,0,0,0,0,0,0,0,0,-1,713,939,0,0
-504,85,0,0,0,0,0,0,0,0,0,-1,720,939,0,0
-497,85,0,0,0,0,0,0,0,0,0,-1,727,939,0,0
-490,85,0,0,0,0,0,0,0,0,0,-1,734,939,0,0
-483,85,0,0,0,0,0,0,0,0,0,-1,741,939,0,0
-476,85,0,0,0,0,0,0,0,0,0,-1,748,939,0,0
-469,85,0,0,0,0,0,0,0,0,0,-1,755,939,0,0
-462,85,0,0,0,0,0,0,0,0,0,-1,762,939,0,0
-455,85,0,0,0,0,0,0,0,0,0,-1,769,939,0,0
-448,85,0,0,0,0,0,0,0,0,0,-1,776,939,0,0
-441,85,0,0,0,0,0,0,0,0,0,-1,783,939,0,0
-434,85,0,0,0,0,0,0,0,0,0,-1,790,939,0,0
-427,85,0,0,0,0,0,0,0,0,0,-1,797,939,0,0
-420,85,0,0,0,0,0,0,0,0,0,-1,804,939,0,0
-413,85,0,0,0,0,0,0,0,0,0,-1,811,939,0,0
-406,85,0,0,0,0,0,0,0,0,0,-1,818,939,0,0
-399,85,0,0,0,0,0,0,0,0,0,-1,825,939,0,0
-392,85,0,0,0,0,0,0,0,0,0,-1,832,939,0,0
-385,85,0,0,0,0,0,0,0,0,0,-1,839,939,0,0
-378,85,0,0,0,0,0,0,0,0,0,-1,846,939,0,0
-371,85,0,0,0,0,0,0,0,0,0,-1,853,939,0,0
-364,85,0,0,0,0,0,0,0,0,0,-1,860,939,0,0
-357,85,0,0,0,0,0,0,0,0,0,-1,867,939,0,0
-350,85,0,0,0,0,0,0,0,0,0,-1,874,939,0,0
-343,85,0,0,0,0,0,0,0,0,0,-1,881,939,0,0
-336,85,0,0,0,0,0,0,0,0,0,-1,888,939,0,0
-329,85,0,0,0,0,0,0,0,0,0,-1,895,939,0,0
-322,85,0,0,0,0,0,0,0,0,0,-1,902,939,0,0
-315,85,0,0,0,0,0,0,0,0,0,-1,909,939,0,0
-308,85,0,0,0,0,0,0,0,0,0,-1,916,939,0,0
-301,85,0,0,0,0,0,0,0,0,0,-1,923,939,0,0
-294,85,0,0,0,0,0,0,0,0,0,-1,930,939,0,0
-287,85,0,0,0,0,0,0,0,0,0,-1,937,939,0,0
-280,85,0,0,0,0,0,0,0,0,0,-1,944,939,0,0
-273,85,0,0,0,0,0,0,0,0,0,-1,951,939,0,0
-266,85,0,0,0,0,0,0,0,0,0,-1,958,939,0,0
-259,85,0,0,0,0,0,0,0,0,0,-1,965,939,0,0
-252,85,0,0,0,0,0,0,0,0,0,-1,972,939,0,0
-245,85,0,0,0,0,0,0,0,0,0,-1,979,939,0,0
-238,85,0,0,0,0,0,0,0,0,0,-1,986,939,0,0
-231,85,0,0,0,0,0,0,0,0,0,-1,993,939,0,0
-224,85,0,0,0,0,0,0,0,0,0,-1,1000,939,0,0
-217,85,0,0,0,0,0,0,0,0,0,-1,1007,939,0,0
-210,85,0,0,0,0,0,0,0,0,0,-1,1014,939,0,0
-203,85,0,0,0,0,0,0,0,0,0,-1,1021,939,0,0
-196,85,0,0,0,0,0,0,0,0,0,-1,1028,939,0,0
-189,85,0,0,0,0,0,0,0,0,0,-1,1035,939,0,0
-182,85,0,0,0,0,0,0,0,0,0,-1,1042,939,0,0
-175,85,0,0,0,0,0,0,0,0,0,-1,1049,939,0,0
-168,85,0,0,0,0,0,0,0,0,0,-1,1056,939,0,0
-161,85,0,0,0,0,0,0,0,0,0,-1,1063,939,0,0
-154,85,0,0,0,0,0,0,0,0,0,-1,1070,939,0,0
-147,85,0,0,0,0,0,0,0,0,0,-1,1077,939,0,0
-140,85,0,0,0,0,0,0,0,0,0,-1,1084,939,0,0
-133,85,0,0,0,0,0,0,0,0,0,-1,1091,939,0,0
-126,85,0,0,0,0,0,0,0,0,0,-1,1098,939,0,0
-119,85,0,0,0,0,0,0,0,0,0,-1,1105,939,0,0
-112,85,0,0,0,0,0,0,0,0,0,-1,1112,939,0,0
-105,85,0,0,0,0,0,0,0,0,0,-1,1119,939,0,0
-98,85,0,0,0,0,0,0,0,0,0,-1,1126,939,0,0
-91,85,0,0,0,0,0,0,0,0,0,-1,1133,939,0,0
-84,85,0,0,0,0,0,0,0,0,0,-1,1140,939,0,0
-77,85,0,0,0,0,0,0,0,0,0,-1,1147,939,0,0
-70,85,0,0,0,0,0,0,0,0,0,-1,1154,939,0,0
-63,85,0,0,0,0,0,0,0,0,0,-1,1161,939,0,0
-56,85,0,0,0,0,0,0,0,0,0,-1,1168,939,0,0
-49,85,0,0,0,0,0,0,0,0,0,-1,1175,939,0,0
-42,85,0,0,0,0,0,0,0,0,0,-1,1182,939,0,0
-35,85,0,0,0,0,0,0,0,0,0,-1,1189,939,0,0
-28,85,0,0,0,0,0,0,0,0,0,-1,1196,939,0,0
-21,85,0,0,0,0,0,0,0,0,0,-1,1203,939,0,0
-14,85,0,0,0,0,0,0,0,0,0,-1,1210,939,0,0
-7,85,0,0,0,0,0,0,0,0,0,-1,1217,939,0,0
0,85,0,0,0,0,0,0,0,0,0,-1,1224,939,0,0
7,85,0,0,0,0,0,0,0,0,0,-1,1231,939,0,0
14,85,0,0,0,0,0,0,0,0,0,-1,1238,939,0,0
21,85,0,0,0,0,0,0,0,0,0,-1,1245,939,0,0
28,85,0,0,0,0,0,0,0,0,0,-1,1252,939,0,0
35,85,0,0,0,0,0,0,0,0,0,-1,1259,939,0,0
42,85,0,0,0,0,0,0,0,0,0,-1,1266,939,0,0
49,85,0,0,0,0,0,0,0,0,0,-1,1273,939,0,0
56,85,0,0,0,0,0,0,0,0,0,-1,1280,939,0,0
63,85,0,0,0,0,0,0,0,0,0,-1,1287,939,0,0
70,85,0,0,0,0,0,0,0,0,0,-1,1294,939,0,0
77,85,0,0,0,0,0,0,0,0,0,-1,1301,939,0,0
84,85,0,0,0,0,0,0,0,0,0,-1,1308,939,0,0
91,85,0,0,0,0,0,0,0,0,0,-1,1315,939,0,0
98,85,0,0,0,0,0,0,0,0,0,-1,1322,939,0,0
105,85,0,0,0,0,0,0,0,0,0,-1,1329,939,0,0
112,85,0,0,0,0,0,0,0,0,0,-1,1336,939,0,0
119,85,0,0,0,0,0,0,0,0,0,-1,1343,939,0,0
126,85,0,0,0,0,0,0,0,0,0,-1,1350,939,0,0
133,85,0,0,0,0,0,0,0,0,0,-1,1357,939,0,0
140,85,0,0,0,0,0,0,0,0,0,-1,1364,939,0,0
147,85,0,0,0,0,0,0,0,0,0,-1,1371,939,0,0
154,85,0,0,0,0,0,0,0,0,0,-1,1378,939,0,0
161,85,0,0,0,0,0,0,0,0,0,-1,1385,939,0,0
168,85,0,0,0,0,0,0,0,0,0,-1,1392,939,0,0
175,85,0,0,0,0,0,0,0,0,0,-1,1399,939,0,0
182,85,0,0,0,0,0,0,0,0,0,-1,1406,939,0,0
189,85,0,0,0,0,0,0,0,0,0,-1,1413,939,0,0
196,85,0,0,0,0,0,0,0,0,0,-1,1420,939,0,0
203,85,0,0,0,0,0,0,0,0,0,-1,1427,939,0,0
210,85,0,0,0,0,0,0,0,0,0,-1,1434,939,0,0
217,85,0,0,0,0,0,0,0,0,0,-1,1441,939,0,0
224,85,0,0,0,0,0,0,0,0,0,-1,1448,939,0,0
231,85,0,0,0,0,0,0,0,0,0,-1,1455,939,0,0
238,85,0,0,0,0,0,0,0,0,0,-1,1462,939,0,0
245,85,0,0,0,0,0,0,0,0,0,-1,1469,939,0,0
252,85,0,0,0,0,0,0,0,0,0,-1,1476,939,0,0
259,85,0,0,0,0,0,0,0,0,0,-1,1483,939,0,0
266,85,0,0,0,0,0,0,0,0,0,-1,1490,939,0,0
273,85,0,0,0,0,0,0,0,0,0,-1,1497,939,0,0
280,85,0,0,0,0,0,0,0,0,0,-1,1504,939,0,0
287,85,0,0,0,0,0,0,0,0,0,-1,1511,939,0,0
294,85,0,0,0,0,0,0,0,0,0,-1,1518,939,0,0
301,85,0,0,0,0,0,0,0,0,0,-1,1525,939,0,0
308,85,0,0,0,0,0,0,0,0,0,-1,1532,939,0,0
315,85,0,0,0,0,0,0,0,0,0,-1,1539,939,0,0
322,85,0,0,0,0,0,0,0,0,0,-1,1546,939,0,0
329,85,0,0,0,0,0,0,0,0,0,-1,1553,939,0,0
336,85,0,0,0,0,0,0,0,0,0,-1,1560,939,0,0
343,85,0,0,0,0,0,0,0,0,0,-1,1567,939,0,0
350,85,0,0,0,0,0,0,0,0,0,-1,1574,939,0,0
357,85,0,0,0,0,0,0,0,0,0,-1,1581,939,0,0
364,85,0,0,0,0,0,0,0,0,0,-1,1588,939,0,0
371,85,0,0,0,0,0,0,0,0,0,-1,1595,939,0,0
378,85,0,0,0,0,0,0,0,0,0,-1,1602,939,0,0
385,85,0,0,0,0,0,0,0,0,0,-1,1609,939,0,0
392,85,0,0,0,0,0,0,0,0,0,-1,1616,939,0,0
399,85,0,0,0,0,0,0,0,0,0,-1,1623,939,0,0
406,85,0,0,0,0,0,0,0,0,0,-1,1630,939,0,0
413,85,0,0,0,0,0,0,0,0,0,-1,1637,939,0,0
420,85,0,0,0,0,0,0,0,0,0,-1,1644,939,0,0
427,85,0,0,0,0,0,0,0,0,0,-1,1651,939,0,0
434,85,0,0,0,0,0,0,0,0,0,-1,1658,939,0,0
441,85,0,0,0,0,0,0,0,0,0,-1,1665,939,0,0
448,85,0,0,0,0,0,0,0,0,0,-1,1672,939,0,0
455,85,0,0,0,0,0,0,0,0,0,-1,1679,939,0,0
462,85,0,0,0,0,0,0,0,0,0,-1,1686,939,0,0
469,85,0,0,0,0,0,0,0,0,0,-1,1693,939,0,0
476,85,0,0,0,0,0,0,0,0,0,-1,1700,939,0,0
483,85,0,0,0,0,0,0,0,0,0,-1,1707,939,0,0
490,85,0,0,0,0,0,0,0,0,0,-1,1714,939,0,0
497,85,0,0,0,0,0,0,0,0,0,-1,1721,939,0,0
504,85,0,0,0,0,0,0,0,0,0,-1,1728,939,0,0
511,85,0,0,0,0,0,0,0,0,0,-1,1735,939,0,0
518,85,0,0,0,0,0,0,0,0,0,-1,1742,939,0,0
525,85,0,0,0,0,0,0,0,0,0,-1,1749,939,0,0
532,85,0,0,0,0,0,0,0,0,0,-1,1756,939,0,0
539,85,0,0,0,0,0,0,0,0,0,-1,1763,939,0,0
546,85,0,0,0,0,0,0,0,0,0,-1,1770,939,0,0
553,85,0,0,0,0,0,0,0,0,0,-1,1777,939,0,0
560,85,0,0,0,0,0,0,0,0,0,-1,1784,939,0,0
567,85,0,0,0,0,0,0,0,0,0,-1,1791,939,0,0
574,85,0,0,0,0,0,0,0,0,0,-1,1798,939,0,0
581,85,0,0,0,0,0,0,0,0,0,-1,1805,939,0,0
588,85,0,0,0,0,0,0,0,0,0,-1,1812,939,0,0
595,85,0,0,0,0,0,0,0,0,0,-1,1819,939,0,0
602,85,0,0,0,0,0,0,0,0,0,-1,1826,939,0,0
609,85,0,0,0,0,0,0,0,0,0,-1,1833,939,0,0
616,85,0,0,0,0,0,0,0,0,0,-1,1840,939,0,0
623,85,0,0,0,0,0,0,0,0,0,-1,1847,939,0,0
630,85,0,0,0,0,0,0,0,0,0,-1,1854,939,0,0
637,85,34.1967,2.41296,0.0042505,0.00219823,-0.000990914,0.00465085,0.00179787,-0.383969,0.0027081,0.0463343,1861,939,34.1966,-2.41295
644,85,34.2163,2.39532,0.00379915,0.00210086,-0.000783023,0.00410507,0.00179494,-0.372455,0.00237628,0.0415968,1868,939,34.2164,-2.39533
651,85,34.23,2.52216,0.00303635,0.00200843,-0.000438884,0.00319824,0.00184654,-0.353385,0.00185386,0.0409618,1875,939,34.23,-2.52218
658,85,34.1193,2.79401,0.00213377,0.00207027,6.85162e-05,0.00217754,0.00202651,0.568431,0.00140406,0.0395387,1882,939,34.1192,-2.794
665,85,34.0348,2.71808,0.00129368,0.00207495,0.00063535,0.00243015,0.00093848,1.06103,0.00141511,0.0392505,1889,939,34.0347,-2.71808
672,85,34.3977,2.52954,0.000541399,0.00191371,0.00119263,0.00260349,-0.000148376,1.04644,0.00178717,0.0411104,1896,939,34.3977,-2.52954
679,85,34.4749,2.59277,-2.8371e-05,0.00162185,0.00163759,0.00263046,-0.00103698,1.01876,0.002183,0.037365,1903,939,34.4748,-2.59276
686,85,34.2002,2.70251,-0.000379467,0.00131637,0.00187084,0.00252247,-0.00158557,0.998166,0.00239225,0.0334807,1910,939,34.2002,-2.70254
693,85,34.1577,2.77325,-0.000677026,0.00096011,0.00199088,0.00229414,-0.00201106,0.980442,0.0024874,0.0275524,1917,939,34.1578,-2.77328
700,85,34.1754,2.90851,-0.00104991,0.000815219,0.00193823,0.00203357,-0.00226826,1.00962,0.00248489,0.0360995,1924,939,34.1754,-2.9085
707,85,34.2081,3.03381,0,0,0,0,0,0,0,-1,1931,939,34.2081,-3.03379
714,85,32.0167,3.68829,0,0,0,0,0,0,0,-1,1938,939,32.0167,-3.68831
721,85,31.9868,4.03815,-0.00122653,0.000874009,0.00111829,0.00135789,-0.00171042,1.16242,0.00177538,0.0258246,1945,939,31.9868,-4.03812
728,85,31.9352,4.41077,-0.00135663,0.00108122,0.000901857,0.00137858,-0.00165399,1.2523,0.00175326,0.0203851,1952,939,31.9352,-4.41077
735,85,31.9514,4.62042,-0.000686609,0.00154136,0.000534811,0.00166309,-0.000808337,1.347,0.00145505,0.0194515,1959,939,31.9514,-4.6204
742,85,32.0056,4.83722,9.33532e-05,0.00217147,-7.88998e-05,0.00217446,9.03619e-05,-1.5329,0.00142048,0.0155974,1966,939,32.0057,-4.83723
749,85,31.9539,5.09344,0.00110971,0.00312609,-0.00061549,0.00329912,0.000936685,-1.29675,0.00196314,0.0134648,1973,939,31.9539,-5.09346
756,85,31.8801,5.33618,0.00260601,0.00440831,-0.00080451,0.00471518,0.00229914,-1.2064,0.00272259,0.0127351,1980,939,31.8801,-5.33618
763,85,31.866,5.57019,0.00476328,0.00593495,-0.000526673,0.00613689,0.00456134,-1.20466,0.00368026,0.0130009,1987,939,31.866,-5.57021
770,85,31.8755,5.76099,0.00760311,0.00745786,0.000136154,0.0076848,0.00737617,0.540383,0.00502348,0.0178138,1994,939,31.8755,-5.761
777,85,31.9128,5.98053,0.011272,0.00890823,0.0013708,0.0119,0.00828016,0.429639,0.00704392,0.0374995,2001,939,31.9129,-5.98056
784,85,32.2506,6.66998,0.0165425,0.0101334,0.00340257,0.018012,0.00866394,0.407683,0.0104017,0.0452724,2008,939,32.2506,-6.67
791,85,32.3799,7.35345,0,0,0,0,0,0,0,-1,2015,939,32.3798,-7.35348
798,85,31.323,6.88574,0,0,0,0,0,0,0,-1,2022,939,31.3229,-6.88576
805,85,31.3491,6.67969,0,0,0,0,0,0,0,-1,2029,939,31.3492,-6.67967
812,85,0,0,0,0,0,0,0,0,0,-1,2036,939,0,0
-700,78,0,0,0,0,0,0,0,0,0,-1,524,946,0,0
-693,78,0,0,0,0,0,0,0,0,0,-1,531,946,0,0
-686,78,-21.721,3.27533,-0.0696529,0.040048,-0.00330629,0.0401475,-0.0697524,-1.54069,0.0642136,0.0457389,538,946,-21.721,-3.27531
-679,78,-22.2617,3.24878,0,0,0,0,0,0,0,-1,545,946,-22.2617,-3.24879
-672,78,-22.8509,3.1488,-0.0434772,0.0293326,0.00486241,0.0296558,-0.0438005,1.50441,0.0426713,0.0463149,552,946,-22.8509,-3.14882
-665,78,-23.4275,3.24579,-0.0328667,0.024572,0.00674259,0.0253529,-0.0336476,1.4555,0.0341759,0.0466256,559,946,-23.4275,-3.24576
-658,78,-23.458,3.51831,-0.0240302,0.0201993,0.00751417,0.021441,-0.0252719,1.40703,0.027,0.0454944,566,946,-23.458,-3.51832
-651,78,-23.1945,3.52258,-0.0169797,0.016258,0.00746888,0.0178592,-0.0185809,1.35961,0.0210401,0.0446901,573,946,-23.1945,-3.52261
-644,78,-23.2051,3.16632,-0.0116309,0.0127659,0.00689805,0.0145812,-0.0134462,1.31347,0.016186,0.0268587,580,946,-23.2051,-3.16631
-637,78,-23.3357,3.00226,-0.00768195,0.00972503,0.00606509,0.0116298,-0.00958676,1.26649,0.0122683,0.0132145,587,946,-23.3357,-3.00227
-630,78,-23.4301,2.77002,-0.00480176,0.00680449,0.00524743,0.00882516,-0.00682243,1.20322,0.00905877,0.0127861,594,946,-23.4301,-2.77002
-623,78,-23.4687,2.56793,-0.00430919,0.0048689,0.00376401,0.0062151,-0.00565539,1.22732,0.00685597,0.0126858,601,946,-23.4687,-2.5679
-616,78,-23.4649,2.37531,-0.00428665,0.00295145,0.00234717,0.00364596,-0.00498116,1.28312,0.00500071,0.0114946,608,946,-23.4649,-2.37532
-609,78,-23.45,2.16785,-0.00505524,0.00201702,0.00126325,0.00223589,-0.00527411,1.39924,0.00445261,0.0119295,615,946,-23.45,-2.16785
-602,78,-23.4622,1.94891,-0.00615157,0.00110623,0.000258981,0.00111546,-0.0061608,1.53517,0.00452509,0.0149431,622,946,-23.4621,-1.94893
-595,78,-23.4443,1.71588,-0.00710905,0.000608763,-0.000367464,0.00062622,-0.0071265,-1.52333,0.0049729,0.0145,629,946,-23.4444,-1.71589
-588,78,-23.4278,1.5722,-0.00788156,0.000389585,-0.000777215,0.000461984,-0.00795396,-1.47791,0.00546315,0.0129703,636,946,-23.4278,-1.57223
-581,78,-23.5212,1.41345,-0.00834296,0.000219932,-0.00111006,0.000361495,-0.00848452,-1.44395,0.00578061,0.0245682,643,946,-23.5212,-1.41343
-574,78,-24.026,1.17175,-0.00841895,0.000192386,-0.00152471,0.000454377,-0.00868094,-1.40063,0.00594454,0.0322556,650,946,-24.026,-1.17173
-567,78,-24.64,0.874634,-0.00827597,0.000295733,-0.00175964,0.0006429,-0.00862314,-1.376,0.0059746,0.0335828,657,946,-24.64,-0.87461
-560,78,-24.6208,0.914856,-0.00779857,0.000433452,-0.00195689,0.000874957,-0.00824008,-1.3489,0.00580705,0.0323263,664,946,-24.6208,-0.914879
-553,78,-24.7424,0.875183,-0.00678244,0.000639446,-0.00217275,0.00122873,-0.00737172,-1.30595,0.00537111,0.0398416,671,946,-24.7424,-0.875176
-546,78,-24.7381,0.856567,-0.00516973,0.000876983,-0.00246007,0.0017514,-0.00604414,-1.22928,0.00472274,0.0431273,678,946,-24.7381,-0.856586
-539,78,-24.5547,0.971375,-0.00297568,0.00109252,-0.0028865,0.00258963,-0.00447279,-1.09233,0.00412553,0.0398567,685,946,-24.5547,-0.971388
-532,78,-24.5998,0.934631,-0.000349312,0.00125301,-0.00368254,0.00422053,-0.00331683,-0.892507,0.00436211,0.037841,692,946,-24.5998,-0.934653
-525,78,-24.5774,0.838379,0.00157783,0.0015082,-0.00532308,0.00686621,-0.00378017,-0.782128,0.00623217,0.0369592,699,946,-24.5774,-0.838403
-518,78,-24.6196,0.743103,0.000271029,0.00181237,-0.00723118,0.00831383,-0.00623043,-0.838486,0.0084258,0.0422834,706,946,-24.6196,-0.743127
-511,78,0,0,0,0,0,0,0,0,0,-1,713,946,0,0
-504,78,0,0,0,0,0,0,0,0,0,-1,720,946,0,0
-497,78,0,0,0,0,0,0,0,0,0,-1,727,946,0,0
-490,78,0,0,0,0,0,0,0,0,0,-1,734,946,0,0
-483,78,0,0,0,0,0,0,0,0,0,-1,741,946,0,0
-476,78,0,0,0,0,0,0,0,0,0,-1,748,946,0,0
-469,78,0,0,0,0,0,0,0,0,0,-1,755,946,0,0
-462,78,0,0,0,0,0,0,0,0,0,-1,762,946,0,0
-455,78,0,0,0,0,0,0,0,0,0,-1,769,946,0,0
-448,78,0,0,0,0,0,0,0,0,0,-1,776,946,0,0
-441,78,0,0,0,0,0,0,0,0,0,-1,783,946,0,0
-434,78,0,0,0,0,0,0,0,0,0,-1,790,946,0,0
-427,78,0,0,0,0,0,0,0,0,0,-1,797,946,0,0
-420,78,0,0,0,0,0,0,0,0,0,-1,804,946,0,0
-413,78,0,0,0,0,0,0,0,0,0,-1,811,946,0,0
-406,78,0,0,0,0,0,0,0,0,0,-1,818,946,0,0
-399,78,0,0,0,0,0,0,0,0,0,-1,825,946,0,0
-392,78,0,0,0,0,0,0,0,0,0,-1,832,946,0,0
-385,78,0,0,0,0,0,0,0,0,0,-1,839,946,0,0
-378,78,0,0,0,0,0,0,0,0,0,-1,846,946,0,0
-371,78,0,0,0,0,0,0,0,0,0,-1,853,946,0,0
-364,78,0,0,0,0,0,0,0,0,0,-1,860,946,0,0
-357,78,0,0,0,0,0,0,0,0,0,-1,867,946,0,0
-350,78,0,0,0,0,0,0,0,0,0,-1,874,946,0,0
-343,78,0,0,0,0,0,0,0,0,0,-1,881,946,0,0
-336,78,0,0,0,0,0,0,0,0,0,-1,888,946,0,0
-329,78,0,0,0,0,0,0,0,0,0,-1,895,946,0,0
-322,78,0,0,0,0,0,0,0,0,0,-1,902,946,0,0
-315,78,0,0,0,0,0,0,0,0,0,-1,909,946,0,0
-308,78,0,0,0,0,0,0,0,0,0,-1,916,946,0,0
-301,78,0,0,0,0,0,0,0,0,0,-1,923,946,0,0
-294,78,0,0,0,0,0,0,0,0,0,-1,930,946,0,0
-287,78,0,0,0,0,0,0,0,0,0,-1,937,946,0,0
-280,78,0,0,0,0,0,0,0,0,0,-1,944,946,0,0
-273,78,0,0,0,0,0,0,0,0,0,-1,951,946,0,0
-266,78,0,0,0,0,0,0,0,0,0,-1,958,946,0,0
-259,78,0,0,0,0,0,0,0,0,0,-1,965,946,0,0
-252,78,0,0,0,0,0,0,0,0,0,-1,972,946,0,0
-245,78,0,0,0,0,0,0,0,0,0,-1,979,946,0,0
-238,78,0,0,0,0,0,0,0,0,0,-1,986,946,0,0
-231,78,0,0,0,0,0,0,0,0,0,-1,993,946,0,0
-224,78,0,0,0,0,0,0,0,0,0,-1,1000,946,0,0
-217,78,0,0,0,0,0,0,0,0,0,-1,1007,946,0,0
-210,78,0,0,0,0,0,0,0,0,0,-1,1014,946,0,0
-203,78,0,0,0,0,0,0,0,0,0,-1,1021,946,0,0
-196,78,0,0,0,0,0,0,0,0,0,-1,1028,946,0,0
-189,78,0,0,0,0,0,0,0,0,0,-1,1035,946,0,0
-182,78,0,0,0,0,0,0,0,0,0,-1,1042,946,0,0
-175,78,0,0,0,0,0,0,0,0,0,-1,1049,946,0,0
-168,78,0,0,0,0,0,0,0,0,0,-1,1056,946,0,0
-161,78,0,0,0,0,0,0,0,0,0,-1,1063,946,0,0
-154,78,0,0,0,0,0,0,0,0,0,-1,1070,946,0,0
-147,78,0,0,0,0,0,0,0,0,0,-1,1077,946,0,0
-140,78,0,0,0,0,0,0,0,0,0,-1,1084,946,0,0
-133,78,0,0,0,0,0,0,0,0,0,-1,1091,946,0,0
-126,78,0,0,0,0,0,0,0,0,0,-1,1098,946,0,0
-119,78,0,0,0,0,0,0,0,0,0,-1,1105,946,0,0
-112,78,0,0,0,0,0,0,0,0,0,-1,1112,946,0,0
-105,78,0,0,0,0,0,0,0,0,0,-1,1119,946,0,0
-98,78,0,0,0,0,0,0,0,0,0,-1,1126,946,0,0
-91,78,0,0,0,0,0,0,0,0,0,-1,1133,946,0,0
-84,78,0,0,0,0,0,0,0,0,0,-1,1140,946,0,0
-77,78,0,0,0,0,0,0,0,0,0,-1,1147,946,0,0
-70,78,0,0,0,0,0,0,0,0,0,-1,1154,946,0,0
-63,78,0,0,0,0,0,0,0,0,0,-1,1161,946,0,0
-56,78,0,0,0,0,0,0,0,0,0,-1,1168,946,0,0
-49,78,0,0,0,0,0,0,0,0,0,-1,1175,946,0,0
-42,78,0,0,0,0,0,0,0,0,0,-1,1182,946,0,0
-35,78,0,0,0,0,0,0,0,0,0,-1,1189,946,0,0
-28,78,0,0,0,0,0,0,0,0,0,-1,1196,946,0,0
-21,78,0,0,0,0,0,0,0,0,0,-1,1203,946,0,0
-14,78,0,0,0,0,0,0,0,0,0,-1,1210,946,0,0
-7,78,0,0,0,0,0,0,0,0,0,-1,1217,946,0,0
0,78,0,0,0,0,0,0,0,0,0,-1,1224,946,0,0
7,78,0,0,0,0,0,0,0,0,0,-1,1231,946,0,0
14,78,0,0,0,0,0,0,0,0,0,-1,1238,946,0,0
21,78,0,0,0,0,0,0,0,0,0,-1,1245,946,0,0
28,78,0,0,0,0,0,0,0,0,0,-1,1252,946,0,0
35,78,0,0,0,0,0,0,0,0,0,-1,1259,946,0,0
42,78,0,0,0,0,0,0,0,0,0,-1,1266,946,0,0
49,78,0,0,0,0,0,0,0,0,0,-1,1273,946,0,0
56,78,0,0,0,0,0,0,0,0,0,-1,1280,946,0,0
63,78,0,0,0,0,0,0,0,0,0,-1,1287,946,0,0
70,78,0,0,0,0,0,0,0,0,0,-1,1294,946,0,0
77,78,0,0,0,0,0,0,0,0,0,-1,1301,946,0,0
84,78,0,0,0,0,0,0,0,0,0,-1,1308,946,0,0
91,78,0,0,0,0,0,0,0,0,0,-1,1315,946,0,0
98,78,0,0,0,0,0,0,0,0,0,-1,1322,946,0,0
105,78,0,0,0,0,0,0,0,0,0,-1,1329,946,0,0
112,78,0,0,0,0,0,0,0,0,0,-1,1336,946,0,0
119,78,0,0,0,0,0,0,0,0,0,-1,1343,946,0,0
126,78,0,0,0,0,0,0,0,0,0,-1,1350,946,0,0
133,78,0,0,0,0,0,0,0,0,0,-1,1357,946,0,0
140,78,0,0,0,0,0,0,0,0,0,-1,1364,946,0,0
147,78,0,0,0,0,0,0,0,0,0,-1,1371,946,0,0
154,78,0,0,0,0,0,0,0,0,0,-1,1378,946,0,0
161,78,0,0,0,0,0,0,0,0,0,-1,1385,946,0,0
168,78,0,0,0,0,0,0,0,0,0,-1,1392,946,0,0
175,78,0,0,0,0,0,0,0,0,0,-1,1399,946,0,0
182,78,0,0,0,0,0,0,0,0,0,-1,1406,946,0,0
189,78,0,0,0,0,0,0,0,0,0,-1,1413,946,0,0
196,78,0,0,0,0,0,0,0,0,0,-1,1420,946,0,0
203,78,0,0,0,0,0,0,0,0,0,-1,1427,946,0,0
210,78,0,0,0,0,0,0,0,0,0,-1,1434,946,0,0
217,78,0,0,0,0,0,0,0,0,0,-1,1441,946,0,0
224,78,0,0,0,0,0,0,0,0,0,-1,1448,946,0,0
231,78,0,0,0,0,0,0,0,0,0,-1,1455,946,0,0
238,78,0,0,0,0,0,0,0,0,0,-1,1462,946,0,0
245,78,0,0,0,0,0,0,0,0,0,-1,1469,946,0,0
252,78,0,0,0,0,0,0,0,0,0,-1,1476,946,0,0
259,78,0,0,0,0,0,0,0,0,0,-1,1483,946,0,0
266,78,0,0,0,0,0,0,0,0,0,-1,1490,946,0,0
273,78,0,0,0,0,0,0,0,0,0,-1,1497,946,0,0
280,78,0,0,0,0,0,0,0,0,0,-1,1504,946,0,0
287,78,0,0,0,0,0,0,0,0,0,-1,1511,946,0,0
294,78,0,0,0,0,0,0,0,0,0,-1,1518,946,0,0
301,78,0,0,0,0,0,0,0,0,0,-1,1525,946,0,0
308,78,0,0,0,0,0,0,0,0,0,-1,1532,946,0,0
315,78,0,0,0,0,0,0,0,0,0,-1,1539,946,0,0
322,78,0,0,0,0,0,0,0,0,0,-1,1546,946,0,0
329,78,0,0,0,0,0,0,0,0,0,-1,1553,946,0,0
336,78,0,0,0,0,0,0,0,0,0,-1,1560,946,0,0
343,78,0,0,0,0,0,0,0,0,0,-1,1567,946,0,0
350,78,0,0,0,0,0,0,0,0,0,-1,1574,946,0,0
357,78,0,0,0,0,0,0,0,0,0,-1,1581,946,0,0
364,78,0,0,0,0,0,0,0,0,0,-1,1588,946,0,0
371,78,0,0,0,0,0,0,0,0,0,-1,1595,946,0,0
378,78,0,0,0,0,0,0,0,0,0,-1,1602,946,0,0
385,78,0,0,0,0,0,0,0,0,0,-1,1609,946,0,0
392,78,0,0,0,0,0,0,0,0,0,-1,1616,946,0,0
399,78,0,0,0,0,0,0,0,0,0,-1,1623,946,0,0
406,78,0,0,0,0,0,0,0,0,0,-1,1630,946,0,0
413,78,0,0,0,0,0,0,0,0,0,-1,1637,946,0,0
420,78,0,0,0,0,0,0,0,0,0,-1,1644,946,0,0
427,78,0,0,0,0,0,0,0,0,0,-1,1651,946,0,0
434,78,0,0,0,0,0,0,0,0,0,-1,1658,946,0,0
441,78,0,0,0,0,0,0,0,0,0,-1,1665,946,0,0
448,78,0,0,0,0,0,0,0,0,0,-1,1672,946,0,0
455,78,0,0,0,0,0,0,0,0,0,-1,1679,946,0,0
462,78,0,0,0,0,0,0,0,0,0,-1,1686,946,0,0
469,78,0,0,0,0,0,0,0,0,0,-1,1693,946,0,0
476,78,0,0,0,0,0,0,0,0,0,-1,1700,946,0,0
483,78,0,0,0,0,0,0,0,0,0,-1,1707,946,0,0
490,78,0,0,0,0,0,0,0,0,0,-1,1714,946,0,0
497,78,0,0,0,0,0,0,0,0,0,-1,1721,946,0,0
504,78,0,0,0,0,0,0,0,0,0,-1,1728,946,0,0
511,78,0,0,0,0,0,0,0,0,0,-1,1735,946,0,0
518,78,0,0,0,0,0,0,0,0,0,-1,1742,946,0,0
525,78,0,0,0,0,0,0,0,0,0,-1,1749,946,0,0
532,78,0,0,0,0,0,0,0,0,0,-1,1756,946,0,0
539,78,0,0,0,0,0,0,0,0,0,-1,1763,946,0,0
546,78,0,0,0,0,0,0,0,0,0,-1,1770,946,0,0
553,78,0,0,0,0,0,0,0,0,0,-1,1777,946,0,0
560,78,0,0,0,0,0,0,0,0,0,-1,1784,946,0,0
567,78,0,0,0,0,0,0,0,0,0,-1,1791,946,0,0
574,78,0,0,0,0,0,0,0,0,0,-1,1798,946,0,0
581,78,0,0,0,0,0,0,0,0,0,-1,1805,946,0,0
588,78,0,0,0,0,0,0,0,0,0,-1,1812,946,0,0
595,78,0,0,0,0,0,0,0,0,0,-1,1819,946,0,0
602,78,0,0,0,0,0,0,0,0,0,-1,1826,946,0,0
609,78,0,0,0,0,0,0,0,0,0,-1,1833,946,0,0
616,78,0,0,0,0,0,0,0,0,0,-1,1840,946,0,0
623,78,0,0,0,0,0,0,0,0,0,-1,1847,946,0,0
630,78,0,0,0,0,0,0,0,0,0,-1,1854,946,0,0
637,78,34.2493,2.72308,0.00472933,0.00174054,-0.000490919,0.0048079,0.00166197,-0.158701,0.00281957,0.0454241,1861,946,34.2493,-2.72306
644,78,34.156,2.51172,0.00430235,0.00156891,-0.000419077,0.00436516,0.0015061,-0.148764,0.00256026,0.0420168,1868,946,34.156,-2.51169
651,78,34.1842,2.47211,0.00351041,0.00140928,-0.000197819,0.00352887,0.00139082,-0.0930595,0.00205256,0.0399591,1875,946,34.1842,-2.47209
658,78,34.1887,2.73718,0.00258323,0.00144151,0.000230421,0.00262798,0.00139676,0.19182,0.00151827,0.0364214,1882,946,34.1887,-2.73721
665,78,34.1603,2.75287,0.00165602,0.00146724,0.000799141,0.00236633,0.000756936,0.726614,0.00139544,0.0388244,1889,946,34.1602,-2.75287
672,78,34.3054,2.62061,0.000758774,0.00135054,0.00139411,0.00247982,-0.00037051,0.889964,0.00178955,0.040792,1896,946,34.3054,-2.6206
679,78,34.4622,2.54242,3.55538e-05,0.00112158,0.00189643,0.00255121,-0.00139408,0.924834,0.00231024,0.0386586,1903,946,34.4622,-2.5424
686,78,34.2478,2.59869,-0.000423303,0.000862932,0.00217396,0.00248691,-0.00204728,0.92921,0.00262191,0.0363749,1910,946,34.2477,-2.59867
693,78,34.1815,2.68903,-0.000777221,0.000557367,0.00231154,0.002296,-0.00251586,0.925918,0.00277909,0.030827,1917,946,34.1815,-2.68903
700,78,34.1422,2.789,-0.00121258,0.000439415,0.00224139,0.00200217,-0.00277533,0.961936,0.0027703,0.0253048,1924,946,34.1422,-2.78903
707,78,34.1881,2.88715,0,0,0,0,0,0,0,-1,1931,946,34.1881,-2.88716
714,78,32.1147,3.85272,0,0,0,0,0,0,0,-1,1938,946,32.1147,-3.85273
721,78,32.178,4.08087,-0.00188622,0.000638363,0.00143708,0.00128881,-0.00253667,1.14577,0.00224747,0.0255464,1945,946,32.178,-4.0809
728,78,32.2335,4.39734,-0.00210417,0.000911784,0.00123578,0.00135346,-0.00254585,1.22754,0.00228608,0.0234314,1952,946,32.2336,-4.39732
735,78,32.2375,4.64563,-0.00160282,0.00143077,0.000893309,0.00167427,-0.00184633,1.30467,0.00203343,0.0180312,1959,946,32.2375,-4.64561
742,78,32.2561,4.87079,-0.00109916,0.00208656,0.000312247,0.00211688,-0.00112947,1.47401,0.00190296,0.0158173,1966,946,32.2561,-4.8708
749,78,32.2059,5.0835,-0.000490776,0.00305077,-0.000180597,0.00305996,-0.000499961,-1.51998,0.00222542,0.0145077,1973,946,32.206,-5.08347
756,78,32.1752,5.28711,0.000429915,0.00434987,-0.000309113,0.0043741,0.000405689,-1.49258,0.00279068,0.014856,1980,946,32.1751,-5.28712
763,78,32.1398,5.49774,0.00188089,0.00592873,8.76486e-05,0.00593063,0.00187899,1.54916,0.0034998,0.0138192,1987,946,32.1398,-5.49775
770,78,32.0991,5.70074,0.00390655,0.00756655,0.000959593,0.00780288,0.00367022,1.32932,0.00450763,0.0181089,1994,946,32.0991,-5.70076
777,78,32.076,5.91711,0.00652892,0.00920599,0.00241734,0.0106306,0.00510427,1.03825,0.00613922,0.0372523,2001,946,32.076,-5.91709
784,78,32.4718,6.60492,0.0104495,0.0107645,0.00476007,0.0153697,0.00584431,0.801933,0.00895811,0.0437886,2008,946,32.4719,-6.60493
791,78,32.6539,7.00208,0,0,0,0,0,0,0,-1,2015,946,32.6539,-7.00205
798,78,31.291,6.34125,0,0,0,0,0,0,0,-1,2022,946,31.2911,-6.34125
805,78,31.4189,5.82782,0,0,0,0,0,0,0,-1,2029,946,31.4189,-5.82784
812,78,0,0,0,0,0,0,0,0,0,-1,2036,946,0,0
-700,71,0,0,0,0,0,0,0,0,0,-1,524,953,0,0
-693,71,0,0,0,0,0,0,0,0,0,-1,531,953,0,0
-686,71,-21.468,2.5354,0,0,0,0,0,0,0,-1,538,953,-21.468,-2.53538
-679,71,-21.912,2.62604,0,0,0,0,0,0,0,-1,545,953,-21.912,-2.62606
-672,71,-22.5634,2.65302,-0.0474843,0.0340185,0.00120732,0.0340364,-0.0475021,1.55599,0.0472898,0.0484435,552,953,-22.5633,-2.65303
-665,71,-23.2548,3.50562,-0.0362118,0.0296572,0.00379189,0.0298748,-0.0364293,1.51348,0.038343,0.0456642,559,953,-23.2548,-3.50562
-658,71,-23.4602,3.5495,-0.0266497,0.0251752,0.00528413,0.0257085,-0.027183,1.47021,0.0305409,0.0465039,566,953,-23.4602,-3.54947
-651,71,-23.4962,3.35846,-0.0188989,0.0207394,0.00588115,0.0215936,-0.0197531,1.42656,0.0238794,0.0445237,573,953,-23.4961,-3.35848
-644,71,-23.5408,3.11334,-0.0129348,0.0165227,0.00580239,0.0176244,-0.0140365,1.38316,0.0183185,0.0311017,580,953,-23.5408,-3.11331
-637,71,-23.5945,2.92004,-0.0083746,0.0127201,0.00534553,0.0139973,-0.00965185,1.33625,0.0137305,0.0133361,587,953,-23.5946,-2.92004
-630,71,-23.6641,2.73578,-0.0050573,0.00924903,0.00472972,0.0106713,-0.00647957,1.27869,0.0100001,0.0130638,594,953,-23.664,-2.73575
-623,71,-23.7025,2.54352,-0.00445318,0.00666866,0.00320377,0.00752553,-0.00531005,1.30946,0.00744733,0.0132208,601,953,-23.7025,-2.54349
-616,71,-23.6959,2.34235,-0.00427588,0.00423396,0.00173487,0.00457405,-0.00461597,1.37722,0.00530588,0.0138046,608,953,-23.6959,-2.34234
-609,71,-23.6659,2.17249,-0.00488653,0.00291732,0.00061711,0.00296582,-0.00493503,1.49237,0.00460854,0.0149909,615,953,-23.6659,-2.17247
-602,71,-23.6318,1.95453,-0.00591004,0.00178157,-0.000441066,0.00180677,-0.00593525,-1.5137,0.00467691,0.0159996,622,953,-23.6319,-1.9545
-595,71,-23.6702,1.7583,-0.00680445,0.00095919,-0.00111102,0.00111505,-0.00696031,-1.43142,0.00505307,0.0163569,629,953,-23.6702,-1.75832
-588,71,-23.6578,1.63892,-0.00751981,0.000615421,-0.00153376,0.000894978,-0.00779937,-1.39051,0.00552213,0.0170717,636,953,-23.6578,-1.6389
-581,71,-23.8482,1.34076,-0.00795933,0.000387074,-0.00185069,0.000779031,-0.00835128,-1.36209,0.00584453,0.0292215,643,953,-23.8482,-1.34077
-574,71,-24.4302,0.983276,-0.00802152,0.000319786,-0.00222733,0.000877275,-0.00857901,-1.32554,0.00603306,0.0353164,650,953,-24.4302,-0.983266
-567,71,-24.6851,0.783264,-0.00785061,0.000406876,-0.00239921,0.00105336,-0.00849709,-1.30759,0.00604651,0.019956,657,953,-24.6851,-0.783294
-560,71,-24.7047,0.810425,-0.00730716,0.000532103,-0.00251668,0.0012705,-0.00804555,-1.28541,0.0058335,0.0262259,664,953,-24.7047,-0.810397
-553,71,-24.831,0.716431,-0.0062201,0.000713966,-0.0026421,0.00160595,-0.00711208,-1.24521,0.00535754,0.0402788,671,953,-24.831,-0.716454
-546,71,-24.8118,0.834229,-0.00456484,0.000916186,-0.00284063,0.00212277,-0.00577143,-1.16913,0.0047172,0.043828,678,953,-24.8118,-0.834233
-539,71,-24.628,0.975708,-0.00238929,0.00109099,-0.00320724,0.00299975,-0.00429805,-1.03396,0.00423556,0.0424013,685,953,-24.628,-0.975735
-532,71,-24.6765,0.79657,9.46967e-05,0.00124787,-0.0040543,0.00476638,-0.00342381,-0.856033,0.00474974,0.0437171,692,953,-24.6765,-0.796555
-525,71,-24.7475,0.481018,0.00159839,0.00161297,-0.00593403,0.00753972,-0.00432836,-0.786012,0.00693515,0.0429195,699,953,-24.7475,-0.481046
-518,71,0,0,0,0,0,0,0,0,0,-1,706,953,0,0
-511,71,0,0,0,0,0,0,0,0,0,-1,713,953,0,0
-504,71,0,0,0,0,0,0,0,0,0,-1,720,953,0,0
-497,71,0,0,0,0,0,0,0,0,0,-1,727,953,0,0
-490,71,0,0,0,0,0,0,0,0,0,-1,734,953,0,0
-483,71,0,0,0,0,0,0,0,0,0,-1,741,953,0,0
-476,71,0,0,0,0,0,0,0,0,0,-1,748,953,0,0
-469,71,0,0,0,0,0,0,0,0,0,-1,755,953,0,0
-462,71,0,0,0,0,0,0,0,0,0,-1,762,953,0,0
-455,71,0,0,0,0,0,0,0,0,0,-1,769,953,0,0
-448,71,0,0,0,0,0,0,0,0,0,-1,776,953,0,0
-441,71,0,0,0,0,0,0,0,0,0,-1,783,953,0,0
-434,71,0,0,0,0,0,0,0,0,0,-1,790,953,0,0
-427,71,0,0,0,0,0,0,0,0,0,-1,797,953,0,0
-420,71,0,0,0,0,0,0,0,0,0,-1,804,953,0,0
-413,71,0,0,0,0,0,0,0,0,0,-1,811,953,0,0
-406,71,0,0,0,0,0,0,0,0,0,-1,818,953,0,0
-399,71,0,0,0,0,0,0,0,0,0,-1,825,953,0,0
-392,71,0,0,0,0,0,0,0,0,0,-1,832,953,0,0
-385,71,0,0,0,0,0,0,0,0,0,-1,839,953,0,0
-378,71,0,0,0,0,0,0,0,0,0,-1,846,953,0,0
-371,71,0,0,0,0,0,0,0,0,0,-1,853,953,0,0
-364,71,0,0,0,0,0,0,0,0,0,-1,860,953,0,0
-357,71,0,0,0,0,0,0,0,0,0,-1,867,953,0,0
-350,71,0,0,0,0,0,0,0,0,0,-1,874,953,0,0
-343,71,0,0,0,0,0,0,0,0,0,-1,881,953,0,0
-336,71,0,0,0,0,0,0,0,0,0,-1,888,953,0,0
-329,71,0,0,0,0,0,0,0,0,0,-1,895,953,0,0
-322,71,0,0,0,0,0,0,0,0,0,-1,902,953,0,0
-315,71,0,0,0,0,0,0,0,0,0,-1,909,953,0,0
-308,71,0,0,0,0,0,0,0,0,0,-1,916,953,0,0
-301,71,0,0,0,0,0,0,0,0,0,-1,923,953,0,0
-294,71,0,0,0,0,0,0,0,0,0,-1,930,953,0,0
-287,71,0,0,0,0,0,0,0,0,0,-1,937,953,0,0
-280,71,0,0,0,0,0,0,0,0,0,-1,944,953,0,0
-273,71,0,0,0,0,0,0,0,0,0,-1,951,953,0,0
-266,71,0,0,0,0,0,0,0,0,0,-1,958,953,0,0
-259,71,0,0,0,0,0,0,0,0,0,-1,965,953,0,0
-252,71,0,0,0,0,0,0,0,0,0,-1,972,953,0,0
-245,71,0,0,0,0,0,0,0,0,0,-1,979,953,0,0
-238,71,0,0,0,0,0,0,0,0,0,-1,986,953,0,0
-231,71,0,0,0,0,0,0,0,0,0,-1,993,953,0,0
-224,71,0,0,0,0,0,0,0,0,0,-1,1000,953,0,0
-217,71,0,0,0,0,0,0,0,0,0,-1,1007,953,0,0
-210,71,0,0,0,0,0,0,0,0,0,-1,1014,953,0,0
-203,71,0,0,0,0,0,0,0,0,0,-1,1021,953,0,0
-196,71,0,0,0,0,0,0,0,0,0,-1,1028,953,0,0
-189,71,0,0,0,0,0,0,0,0,0,-1,1035,953,0,0
-182,71,0,0,0,0,0,0,0,0,0,-1,1042,953,0,0
-175,71,0,0,0,0,0,0,0,0,0,-1,1049,953,0,0
-168,71,0,0,0,0,0,0,0,0,0,-1,1056,953,0,0
-161,71,0,0,0,0,0,0,0,0,0,-1,1063,953,0,0
-154,71,0,0,0,0,0,0,0,0,0,-1,1070,953,0,0
-147,71,0,0,0,0,0,0,0,0,0,-1,1077,953,0,0
-140,71,0,0,0,0,0,0,0,0,0,-1,1084,953,0,0
-133,71,0,0,0,0,0,0,0,0,0,-1,1091,953,0,0
-126,71,0,0,0,0,0,0,0,0,0,-1,1098,953,0,0
-119,71,0,0,0,0,0,0,0,0,0,-1,1105,953,0,0
-112,71,0,0,0,0,0,0,0,0,0,-1,1112,953,0,0
-105,71,0,0,0,0,0,0,0,0,0,-1,1119,953,0,0
-98,71,0,0,0,0,0,0,0,0,0,-1,1126,953,0,0
-91,71,0,0,0,0,0,0,0,0,0,-1,1133,953,0,0
-84,71,0,0,0,0,0,0,0,0,0,-1,1140,953,0,0
-77,71,0,0,0,0,0,0,0,0,0,-1,1147,953,0,0
-70,71,0,0,0,0,0,0,0,0,0,-1,1154,953,0,0
-63,71,0,0,0,0,0,0,0,0,0,-1,1161,953,0,0
-56,71,0,0,0,0,0,0,0,0,0,-1,1168,953,0,0
-49,71,0,0,0,0,0,0,0,0,0,-1,1175,953,0,0
-42,71,0,0,0,0,0,0,0,0,0,-1,1182,953,0,0
-35,71,0,0,0,0,0,0,0,0,0,-1,1189,953,0,0
-28,71,0,0,0,0,0,0,0,0,0,-1,1196,953,0,0
-21,71,0,0,0,0,0,0,0,0,0,-1,1203,953,0,0
-14,71,0,0,0,0,0,0,0,0,0,-1,1210,953,0,0
-7,71,0,0,0,0,0,0,0,0,0,-1,1217,953,0,0
0,71,0,0,0,0,0,0,0,0,0,-1,1224,953,0,0
7,71,0,0,0,0,0,0,0,0,0,-1,1231,953,0,0
14,71,0,0,0,0,0,0,0,0,0,-1,1238,953,0,0
21,71,0,0,0,0,0,0,0,0,0,-1,1245,953,0,0
28,71,0,0,0,0,0,0,0,0,0,-1,1252,953,0,0
35,71,0,0,0,0,0,0,0,0,0,-1,1259,953,0,0
42,71,0,0,0,0,0,0,0,0,0,-1,1266,953,0,0
49,71,0,0,0,0,0,0,0,0,0,-1,1273,953,0,0
56,71,0,0,0,0,0,0,0,0,0,-1,1280,953,0,0
63,71,0,0,0,0,0,0,0,0,0,-1,1287,953,0,0
70,71,0,0,0,0,0,0,0,0,0,-1,1294,953,0,0
77,71,0,0,0,0,0,0,0,0,0,-1,1301,953,0,0
84,71,0,0,0,0,0,0,0,0,0,-1,1308,953,0,0
91,71,0,0,0,0,0,0,0,0,0,-1,1315,953,0,0
98,71,0,0,0,0,0,0,0,0,0,-1,1322,953,0,0
105,71,0,0,0,0,0,0,0,0,0,-1,1329,953,0,0
112,71,0,0,0,0,0,0,0,0,0,-1,1336,953,0,0
119,71,0,0,0,0,0,0,0,0,0,-1,1343,953,0,0
126,71,0,0,0,0,0,0,0,0,0,-1,1350,953,0,0
133,71,0,0,0,0,0,0,0,0,0,-1,1357,953,0,0
140,71,0,0,0,0,0,0,0,0,0,-1,1364,953,0,0
147,71,0,0,0,0,0,0,0,0,0,-1,1371,953,0,0
154,71,0,0,0,0,0,0,0,0,0,-1,1378,953,0,0
161,71,0,0,0,0,0,0,0,0,0,-1,1385,953,0,0
168,71,0,0,0,0,0,0,0,0,0,-1,1392,953,0,0
175,71,0,0,0,0,0,0,0,0,0,-1,1399,953,0,0
182,71,0,0,0,0,0,0,0,0,0,-1,1406,953,0,0
189,71,0,0,0,0,0,0,0,0,0,-1,1413,953,0,0
196,71,0,0,0,0,0,0,0,0,0,-1,1420,953,0,0
203,71,0,0,0,0,0,0,0,0,0,-1,1427,953,0,0
210,71,0,0,0,0,0,0,0,0,0,-1,1434,953,0,0
217,71,0,0,0,0,0,0,0,0,0,-1,1441,953,0,0
224,71,0,0,0,0,0,0,0,0,0,-1,1448,953,0,0
231,71,0,0,0,0,0,0,0,0,0,-1,1455,953,0,0
238,71,0,0,0,0,0,0,0,0,0,-1,1462,953,0,0
245,71,0,0,0,0,0,0,0,0,0,-1,1469,953,0,0
252,71,0,0,0,0,0,0,0,0,0,-1,1476,953,0,0
259,71,0,0,0,0,0,0,0,0,0,-1,1483,953,0,0
266,71,0,0,0,0,0,0,0,0,0,-1,1490,953,0,0
273,71,0,0,0,0,0,0,0,0,0,-1,1497,953,0,0
280,71,0,0,0,0,0,0,0,0,0,-1,1504,953,0,0
287,71,0,0,0,0,0,0,0,0,0,-1,1511,953,0,0
294,71,0,0,0,0,0,0,0,0,0,-1,1518,953,0,0
301,71,0,0,0,0,0,0,0,0,0,-1,1525,953,0,0
308,71,0,0,0,0,0,0,0,0,0,-1,1532,953,0,0
315,71,0,0,0,0,0,0,0,0,0,-1,1539,953,0,0
322,71,0,0,0,0,0,0,0,0,0,-1,1546,953,0,0
329,71,0,0,0,0,0,0,0,0,0,-1,1553,953,0,0
336,71,0,0,0,0,0,0,0,0,0,-1,1560,953,0,0
343,71,0,0,0,0,0,0,0,0,0,-1,1567,953,0,0
350,71,0,0,0,0,0,0,0,0,0,-1,1574,953,0,0
357,71,0,0,0,0,0,0,0,0,0,-1,1581,953,0,0
364,71,0,0,0,0,0,0,0,0,0,-1,1588,953,0,0
371,71,0,0,0,0,0,0,0,0,0,-1,1595,953,0,0
378,71,0,0,0,0,0,0,0,0,0,-1,1602,953,0,0
385,71,0,0,0,0,0,0,0,0,0,-1,1609,953,0,0
392,71,0,0,0,0,0,0,0,0,0,-1,1616,953,0,0
399,71,0,0,0,0,0,0,0,0,0,-1,1623,953,0,0
406,71,0,0,0,0,0,0,0,0,0,-1,1630,953,0,0
413,71,0,0,0,0,0,0,0,0,0,-1,1637,953,0,0
420,71,0,0,0,0,0,0,0,0,0,-1,1644,953,0,0
427,71,0,0,0,0,0,0,0,0,0,-1,1651,953,0,0
434,71,0,0,0,0,0,0,0,0,0,-1,1658,953,0,0
441,71,0,0,0,0,0,0,0,0,0,-1,1665,953,0,0
448,71,0,0,0,0,0,0,0,0,0,-1,1672,953,0,0
455,71,0,0,0,0,0,0,0,0,0,-1,1679,953,0,0
462,71,0,0,0,0,0,0,0,0,0,-1,1686,953,0,0
469,71,0,0,0,0,0,0,0,0,0,-1,1693,953,0,0
476,71,0,0,0,0,0,0,0,0,0,-1,1700,953,0,0
483,71,0,0,0,0,0,0,0,0,0,-1,1707,953,0,0
490,71,0,0,0,0,0,0,0,0,0,-1,1714,953,0,0
497,71,0,0,0,0,0,0,0,0,0,-1,1721,953,0,0
504,71,0,0,0,0,0,0,0,0,0,-1,1728,953,0,0
511,71,0,0,0,0,0,0,0,0,0,-1,1735,953,0,0
518,71,0,0,0,0,0,0,0,0,0,-1,1742,953,0,0
525,71,0,0,0,0,0,0,0,0,0,-1,1749,953,0,0
532,71,0,0,0,0,0,0,0,0,0,-1,1756,953,0,0
539,71,0,0,0,0,0,0,0,0,0,-1,1763,953,0,0
546,71,0,0,0,0,0,0,0,0,0,-1,1770,953,0,0
553,71,0,0,0,0,0,0,0,0,0,-1,1777,953,0,0
560,71,0,0,0,0,0,0,0,0,0,-1,1784,953,0,0
567,71,0,0,0,0,0,0,0,0,0,-1,1791,953,0,0
574,71,0,0,0,0,0,0,0,0,0,-1,1798,953,0,0
581,71,0,0,0,0,0,0,0,0,0,-1,1805,953,0,0
588,71,0,0,0,0,0,0,0,0,0,-1,1812,953,0,0
595,71,0,0,0,0,0,0,0,0,0,-1,1819,953,0,0
602,71,0,0,0,0,0,0,0,0,0,-1,1826,953,0,0
609,71,0,0,0,0,0,0,0,0,0,-1,1833,953,0,0
616,71,0,0,0,0,0,0,0,0,0,-1,1840,953,0,0
623,71,0,0,0,0,0,0,0,0,0,-1,1847,953,0,0
630,71,0,0,0,0,0,0,0,0,0,-1,1854,953,0,0
637,71,34.4987,2.54492,0.00509597,0.00141073,0.000120935,0.00509993,0.00140676,0.032769,0.00304148,0.0408074,1861,953,34.4987,-2.54492
644,71,34.3156,2.67908,0.00474965,0.00129453,-1.63385e-05,0.00474973,0.00129445,-0.00472863,0.00283527,0.042142,1868,953,34.3155,-2.67909
651,71,34.2819,2.52802,0.00397297,0.00112969,4.85182e-05,0.0039738,0.00112886,0.0170575,0.00236451,0.0394413,1875,953,34.2818,-2.52805
658,71,34.2274,2.70605,0.0030137,0.00112841,0.000357596,0.00307925,0.00106286,0.181291,0.001806,0.0369739,1882,953,34.2274,-2.70605
665,71,34.0984,2.8382,0.00196941,0.00117821,0.000893563,0.00255103,0.00059659,0.577005,0.00154081,0.0393252,1889,953,34.0984,-2.83821
672,71,34.0964,2.72711,0.000876138,0.00115103,0.00153868,0.00255839,-0.000531221,0.829944,0.00190749,0.0403322,1896,953,34.0964,-2.72712
679,71,34.1466,2.63336,-4.64421e-05,0.00103208,0.00213704,0.00269684,-0.00171121,0.908988,0.00256611,0.0397046,1903,953,34.1465,-2.63336
686,71,34.2565,2.45123,-0.000649972,0.00084758,0.00251027,0.00271837,-0.00252076,0.930339,0.00302553,0.0364553,1910,953,34.2565,-2.45123
693,71,34.2314,2.53882,-0.00109114,0.000616409,0.00271209,0.00260594,-0.00308067,0.937889,0.00328698,0.0327448,1917,953,34.2315,-2.53883
700,71,34.1501,2.68195,-0.00160066,0.000556185,0.00267253,0.00235967,-0.00340415,0.977168,0.0033459,0.0304298,1924,953,34.1501,-2.68195
707,71,34.1442,2.85999,0,0,0,0,0,0,0,-1,1931,953,34.1442,-2.86001
714,71,32.6958,3.95892,0,0,0,0,0,0,0,-1,1938,953,32.6958,-3.95894
721,71,32.5532,4.12579,-0.0026664,0.000830478,0.00198141,0.00172458,-0.0035605,1.14691,0.00311211,0.0361877,1945,953,32.5532,-4.12579
728,71,32.451,4.41724,-0.00293558,0.00115313,0.00180793,0.00183787,-0.00362033,1.20875,0.00320682,0.0215803,1952,953,32.4511,-4.41725
735,71,32.4778,4.6582,-0.00256059,0.00169743,0.00149087,0.00216753,-0.00303069,1.26534,0.00301495,0.0161571,1959,953,32.4778,-4.65822
742,71,32.5021,4.86884,-0.00225808,0.0023538,0.000925842,0.00253272,-0.00243701,1.3799,0.00286945,0.0162266,1966,953,32.5021,-4.86882
749,71,32.4741,5.04883,-0.00193942,0.00328312,0.000420242,0.00331672,-0.00197302,1.49101,0.0030867,0.0173197,1973,953,32.4741,-5.04885
756,71,32.4486,5.25189,-0.00143943,0.00452999,0.00024498,0.00454003,-0.00144947,1.52985,0.00360823,0.0167417,1980,953,32.4486,-5.2519
763,71,32.418,5.4892,-0.00057664,0.00610848,0.000593343,0.00616073,-0.000628894,1.48296,0.00433203,0.0165357,1987,953,32.418,-5.48923
770,71,32.2927,5.65393,0.000695831,0.00783778,0.00146166,0.00812534,0.000408266,1.37654,0.00528606,0.0198332,1994,953,32.2927,-5.65394
777,71,32.2491,5.94397,0.00230866,0.00968668,0.00289995,0.0106901,0.00130528,1.23769,0.00673391,0.0374403,2001,953,32.2492,-5.94397
784,71,32.3951,6.27533,0.00486274,0.0115991,0.00518427,0.0144133,0.00204858,1.07348,0.00900401,0.0421955,2008,953,32.3951,-6.27532
791,71,32.537,6.55463,0,0,0,0,0,0,0,-1,2015,953,32.537,-6.5546
798,71,32.584,6.82764,0,0,0,0,0,0,0,-1,2022,953,32.584,-6.82765
805,71,31.5969,4.77124,0,0,0,0,0,0,0,-1,2029,953,31.5969,-4.77121
812,71,0,0,0,0,0,0,0,0,0,-1,2036,953,0,0
-700,64,0,0,0,0,0,0,0,0,0,-1,524,960,0,0
-693,64,0,0,0,0,0,0,0,0,0,-1,531,960,0,0
-686,64,-21.0228,1.55267,-0.0789095,0.0436923,-0.0115736,0.0447752,-0.0799925,-1.47749,0.0729849,0.0441239,538,960,-21.0228,-1.55267
-679,64,-21.1185,1.77454,-0.0640835,0.0402661,-0.00535711,0.0405404,-0.0643578,-1.51964,0.0610812,0.0457388,545,960,-21.1185,-1.77456
-672,64,-22.287,2.18073,0,0,0,0,0,0,0,-1,552,960,-22.287,-2.18072
-665,64,-23.9852,3.16571,0,0,0,0,0,0,0,-1,559,960,-23.9852,-3.16573
-658,64,-24.0716,3.18262,-0.0290439,0.027736,0.00427277,0.0280558,-0.0293636,1.49611,0.033154,0.0452276,566,960,-24.0716,-3.18261
-651,64,-23.9872,3.11182,-0.0208151,0.023181,0.00523961,0.0237964,-0.0214304,1.45388,0.0261236,0.0438137,573,960,-23.9872,-3.11182
-644,64,-23.8665,2.94299,-0.0143635,0.0187136,0.00540241,0.0195736,-0.0152235,1.41293,0.0201424,0.0310393,580,960,-23.8665,-2.94302
-637,64,-23.8507,2.82642,-0.00923901,0.0146088,0.00508878,0.0156493,-0.0102795,1.36911,0.0150766,0.0154852,587,960,-23.8507,-2.82643
-630,64,-23.8778,2.69916,-0.00546223,0.0109635,0.00451607,0.0121233,-0.00662198,1.31942,0.0109768,0.0130439,594,960,-23.8778,-2.69914
-623,64,-23.8944,2.53546,-0.00464062,0.0080372,0.00282808,0.00863946,-0.00524288,1.36097,0.00809454,0.0131134,601,960,-23.8944,-2.53548
-616,64,-23.9056,2.34467,-0.00420934,0.00532975,0.00120466,0.00547953,-0.00435913,1.4471,0.00569262,0.0165263,608,960,-23.9056,-2.3447
-609,64,-23.8773,2.18646,-0.00457477,0.00372116,-1.29663e-05,0.00372118,-0.00457479,-1.56923,0.00479813,0.0163635,615,960,-23.8773,-2.18645
-602,64,-23.84,2.00696,-0.00544265,0.00245721,-0.00118405,0.00263087,-0.00561631,-1.42518,0.00486439,0.0171363,622,960,-23.84,-2.00697
-595,64,-23.8527,1.84125,-0.0061933,0.00135165,-0.00194514,0.0018236,-0.00666525,-1.33277,0.00515992,0.017523,629,960,-23.8526,-1.84124
-588,64,-23.8514,1.76367,-0.00681108,0.000895821,-0.00240496,0.00158472,-0.00749998,-1.29182,0.00560343,0.0246194,636,960,-23.8515,-1.76365
-581,64,-24.1142,1.34576,-0.00721821,0.000603013,-0.00271744,0.00145448,-0.00806967,-1.26715,0.00592442,0.0352037,643,960,-24.1142,-1.34573
-574,64,-24.5543,0.946655,-0.00726133,0.000475839,-0.00307819,0.00155106,-0.00833655,-1.23474,0.00614037,0.0388597,650,960,-24.5542,-0.946659
-567,64,-24.613,0.762207,-0.00704796,0.000524376,-0.00318339,0.00168483,-0.00820841,-1.22123,0.00611179,0.0247083,657,960,-24.613,-0.762209
-560,64,-24.6502,0.764465,-0.00646068,0.00060665,-0.00319781,0.00183878,-0.00769281,-1.20302,0.00583879,0.0335614,664,960,-24.6502,-0.764487
-553,64,-24.6259,0.734436,-0.00535873,0.000743587,-0.00321236,0.00212287,-0.00673801,-1.16523,0.00534213,0.0398142,671,960,-24.6259,-0.734411
-546,64,-24.6251,0.705444,-0.00373764,0.000907458,-0.00330955,0.00262809,-0.00545827,-1.09136,0.00476303,0.0408039,678,960,-24.6251,-0.705463
-539,64,-24.7587,1.02893,-0.00166136,0.00106274,-0.00362882,0.0035767,-0.00417532,-0.964933,0.00448008,0.0401456,685,960,-24.7587,-1.02896
-532,64,-24.8348,1.09857,0.00060373,0.00130106,-0.0045853,0.00555093,-0.00364614,-0.823345,0.00534776,0.0428628,692,960,-24.8348,-1.09855
-525,64,-24.7177,0.860474,0.00163986,0.00191146,-0.00678442,0.00856144,-0.00501012,-0.795405,0.00792446,0.0419131,699,960,-24.7176,-0.860446
-518,64,0,0,0,0,0,0,0,0,0,-1,706,960,0,0
-511,64,0,0,0,0,0,0,0,0,0,-1,713,960,0,0
-504,64,0,0,0,0,0,0,0,0,0,-1,720,960,0,0
-497,64,0,0,0,0,0,0,0,0,0,-1,727,960,0,0
-490,64,0,0,0,0,0,0,0,0,0,-1,734,960,0,0
-483,64,0,0,0,0,0,0,0,0,0,-1,741,960,0,0
-476,64,0,0,0,0,0,0,0,0,0,-1,748,960,0,0
-469,64,0,0,0,0,0,0,0,0,0,-1,755,960,0,0
-462,64,0,0,0,0,0,0,0,0,0,-1,762,960,0,0
-455,64,0,0,0,0,0,0,0,0,0,-1,769,960,0,0
-448,64,0,0,0,0,0,0,0,0,0,-1,776,960,0,0
-441,64,0,0,0,0,0,0,0,0,0,-1,783,960,0,0
-434,64,0,0,0,0,0,0,0,0,0,-1,790,960,0,0
-427,64,0,0,0,0,0,0,0,0,0,-1,797,960,0,0
-420,64,0,0,0,0,0,0,0,0,0,-1,804,960,0,0
-413,64,0,0,0,0,0,0,0,0,0,-1,811,960,0,0
-406,64,0,0,0,0,0,0,0,0,0,-1,818,960,0,0
-399,64,0,0,0,0,0,0,0,0,0,-1,825,960,0,0
-392,64,0,0,0,0,0,0,0,0,0,-1,832,960,0,0
-385,64,0,0,0,0,0,0,0,0,0,-1,839,960,0,0
-378,64,0,0,0,0,0,0,0,0,0,-1,846,960,0,0
-371,64,0,0,0,0,0,0,0,0,0,-1,853,960,0,0
-364,64,0,0,0,0,0,0,0,0,0,-1,860,960,0,0
-357,64,0,0,0,0,0,0,0,0,0,-1,867,960,0,0
-350,64,0,0,0,0,0,0,0,0,0,-1,874,960,0,0
-343,64,0,0,0,0,0,0,0,0,0,-1,881,960,0,0
-336,64,0,0,0,0,0,0,0,0,0,-1,888,960,0,0
-329,64,0,0,0,0,0,0,0,0,0,-1,895,960,0,0
-322,64,0,0,0,0,0,0,0,0,0,-1,902,960,0,0
-315,64,0,0,0,0,0,0,0,0,0,-1,909,960,0,0
-308,64,0,0,0,0,0,0,0,0,0,-1,916,960,0,0
-301,64,0,0,0,0,0,0,0,0,0,-1,923,960,0,0
-294,64,0,0,0,0,0,0,0,0,0,-1,930,960,0,0
-287,64,0,0,0,0,0,0,0,0,0,-1,937,960,0,0
-280,64,0,0,0,0,0,0,0,0,0,-1,944,960,0,0
-273,64,0,0,0,0,0,0,0,0,0,-1,951,960,0,0
-266,64,0,0,0,0,0,0,0,0,0,-1,958,960,0,0
-259,64,0,0,0,0,0,0,0,0,0,-1,965,960,0,0
-252,64,0,0,0,0,0,0,0,0,0,-1,972,960,0,0
-245,64,0,0,0,0,0,0,0,0,0,-1,979,960,0,0
-238,64,0,0,0,0,0,0,0,0,0,-1,986,960,0,0
-231,64,0,0,0,0,0,0,0,0,0,-1,993,960,0,0
-224,64,0,0,0,0,0,0,0,0,0,-1,1000,960,0,0
-217,64,0,0,0,0,0,0,0,0,0,-1,1007,960,0,0
-210,64,0,0,0,0,0,0,0,0,0,-1,1014,960,0,0
-203,64,0,0,0,0,0,0,0,0,0,-1,1021,960,0,0
-196,64,0,0,0,0,0,0,0,0,0,-1,1028,960,0,0
-189,64,0,0,0,0,0,0,0,0,0,-1,1035,960,0,0
-182,64,0,0,0,0,0,0,0,0,0,-1,1042,960,0,0
-175,64,0,0,0,0,0,0,0,0,0,-1,1049,960,0,0
-168,64,0,0,0,0,0,0,0,0,0,-1,1056,960,0,0
-161,64,0,0,0,0,0,0,0,0,0,-1,1063,960,0,0
-154,64,0,0,0,0,0,0,0,0,0,-1,1070,960,0,0
-147,64,0,0,0,0,0,0,0,0,0,-1,1077,960,0,0
-140,64,0,0,0,0,0,0,0,0,0,-1,1084,960,0,0
-133,64,0,0,0,0,0,0,0,0,0,-1,1091,960,0,0
-126,64,0,0,0,0,0,0,0,0,0,-1,1098,960,0,0
-119,64,0,0,0,0,0,0,0,0,0,-1,1105,960,0,0
-112,64,0,0,0,0,0,0,0,0,0,-1,1112,960,0,0
-105,64,0,0,0,0,0,0,0,0,0,-1,1119,960,0,0
-98,64,0,0,0,0,0,0,0,0,0,-1,1126,960,0,0
-91,64,0,0,0,0,0,0,0,0,0,-1,1133,960,0,0
-84,64,0,0,0,0,0,0,0,0,0,-1,1140,960,0,0
-77,64,0,0,0,0,0,0,0,0,0,-1,1147,960,0,0
-70,64,0,0,0,0,0,0,0,0,0,-1,1154,960,0,0
-63,64,0,0,0,0,0,0,0,0,0,-1,1161,960,0,0
-56,64,0,0,0,0,0,0,0,0,0,-1,1168,960,0,0
-49,64,0,0,0,0,0,0,0,0,0,-1,1175,960,0,0
-42,64,0,0,0,0,0,0,0,0,0,-1,1182,960,0,0
-35,64,0,0,0,0,0,0,0,0,0,-1,1189,960,0,0
-28,64,0,0,0,0,0,0,0,0,0,-1,1196,960,0,0
-21,64,0,0,0,0,0,0,0,0,0,-1,1203,960,0,0
-14,64,0,0,0,0,0,0,0,0,0,-1,1210,960,0,0
-7,64,0,0,0,0,0,0,0,0,0,-1,1217,960,0,0
0,64,0,0,0,0,0,0,0,0,0,-1,1224,960,0,0
7,64,0,0,0,0,0,0,0,0,0,-1,1231,960,0,0
14,64,0,0,0,0,0,0,0,0,0,-1,1238,960,0,0
21,64,0,0,0,0,0,0,0,0,0,-1,1245,960,0,0
28,64,0,0,0,0,0,0,0,0,0,-1,1252,960,0,0
35,64,0,0,0,0,0,0,0,0,0,-1,1259,960,0,0
42,64,0,0,0,0,0,0,0,0,0,-1,1266,960,0,0
49,64,0,0,0,0,0,0,0,0,0,-1,1273,960,0,0
56,64,0,0,0,0,0,0,0,0,0,-1,1280,960,0,0
63,64,0,0,0,0,0,0,0,0,0,-1,1287,960,0,0
70,64,0,0,0,0,0,0,0,0,0,-1,1294,960,0,0
77,64,0,0,0,0,0,0,0,0,0,-1,1301,960,0,0
84,64,0,0,0,0,0,0,0,0,0,-1,1308,960,0,0
91,64,0,0,0,0,0,0,0,0,0,-1,1315,960,0,0
98,64,0,0,0,0,0,0,0,0,0,-1,1322,960,0,0
105,64,0,0,0,0,0,0,0,0,0,-1,1329,960,0,0
112,64,0,0,0,0,0,0,0,0,0,-1,1336,960,0,0
119,64,0,0,0,0,0,0,0,0,0,-1,1343,960,0,0
126,64,0,0,0,0,0,0,0,0,0,-1,1350,960,0,0
133,64,0,0,0,0,0,0,0,0,0,-1,1357,960,0,0
140,64,0,0,0,0,0,0,0,0,0,-1,1364,960,0,0
147,64,0,0,0,0,0,0,0,0,0,-1,1371,960,0,0
154,64,0,0,0,0,0,0,0,0,0,-1,1378,960,0,0
161,64,0,0,0,0,0,0,0,0,0,-1,1385,960,0,0
168,64,0,0,0,0,0,0,0,0,0,-1,1392,960,0,0
175,64,0,0,0,0,0,0,0,0,0,-1,1399,960,0,0
182,64,0,0,0,0,0,0,0,0,0,-1,1406,960,0,0
189,64,0,0,0,0,0,0,0,0,0,-1,1413,960,0,0
196,64,0,0,0,0,0,0,0,0,0,-1,1420,960,0,0
203,64,0,0,0,0,0,0,0,0,0,-1,1427,960,0,0
210,64,0,0,0,0,0,0,0,0,0,-1,1434,960,0,0
217,64,0,0,0,0,0,0,0,0,0,-1,1441,960,0,0
224,64,0,0,0,0,0,0,0,0,0,-1,1448,960,0,0
231,64,0,0,0,0,0,0,0,0,0,-1,1455,960,0,0
238,64,0,0,0,0,0,0,0,0,0,-1,1462,960,0,0
245,64,0,0,0,0,0,0,0,0,0,-1,1469,960,0,0
252,64,0,0,0,0,0,0,0,0,0,-1,1476,960,0,0
259,64,0,0,0,0,0,0,0,0,0,-1,1483,960,0,0
266,64,0,0,0,0,0,0,0,0,0,-1,1490,960,0,0
273,64,0,0,0,0,0,0,0,0,0,-1,1497,960,0,0
280,64,0,0,0,0,0,0,0,0,0,-1,1504,960,0,0
287,64,0,0,0,0,0,0,0,0,0,-1,1511,960,0,0
294,64,0,0,0,0,0,0,0,0,0,-1,1518,960,0,0
301,64,0,0,0,0,0,0,0,0,0,-1,1525,960,0,0
308,64,0,0,0,0,0,0,0,0,0,-1,1532,960,0,0
315,64,0,0,0,0,0,0,0,0,0,-1,1539,960,0,0
322,64,0,0,0,0,0,0,0,0,0,-1,1546,960,0,0
329,64,0,0,0,0,0,0,0,0,0,-1,1553,960,0,0
336,64,0,0,0,0,0,0,0,0,0,-1,1560,960,0,0
343,64,0,0,0,0,0,0,0,0,0,-1,1567,960,0,0
350,64,0,0,0,0,0,0,0,0,0,-1,1574,960,0,0
357,64,0,0,0,0,0,0,0,0,0,-1,1581,960,0,0
364,64,0,0,0,0,0,0,0,0,0,-1,1588,960,0,0
371,64,0,0,0,0,0,0,0,0,0,-1,1595,960,0,0
378,64,0,0,0,0,0,0,0,0,0,-1,1602,960,0,0
385,64,0,0,0,0,0,0,0,0,0,-1,1609,960,0,0
392,64,0,0,0,0,0,0,0,0,0,-1,1616,960,0,0
399,64,0,0,0,0,0,0,0,0,0,-1,1623,960,0,0
406,64,0,0,0,0,0,0,0,0,0,-1,1630,960,0,0
413,64,0,0,0,0,0,0,0,0,0,-1,1637,960,0,0
420,64,0,0,0,0,0,0,0,0,0,-1,1644,960,0,0
427,64,0,0,0,0,0,0,0,0,0,-1,1651,960,0,0
434,64,0,0,0,0,0,0,0,0,0,-1,1658,960,0,0
441,64,0,0,0,0,0,0,0,0,0,-1,1665,960,0,0
448,64,0,0,0,0,0,0,0,0,0,-1,1672,960,0,0
455,64,0,0,0,0,0,0,0,0,0,-1,1679,960,0,0
462,64,0,0,0,0,0,0,0,0,0,-1,1686,960,0,0
469,64,0,0,0,0,0,0,0,0,0,-1,1693,960,0,0
476,64,0,0,0,0,0,0,0,0,0,-1,1700,960,0,0
483,64,0,0,0,0,0,0,0,0,0,-1,1707,960,0,0
490,64,0,0,0,0,0,0,0,0,0,-1,1714,960,0,0
497,64,0,0,0,0,0,0,0,0,0,-1,1721,960,0,0
504,64,0,0,0,0,0,0,0,0,0,-1,1728,960,0,0
511,64,0,0,0,0,0,0,0,0,0,-1,1735,960,0,0
518,64,0,0,0,0,0,0,0,0,0,-1,1742,960,0,0
525,64,0,0,0,0,0,0,0,0,0,-1,1749,960,0,0
532,64,0,0,0,0,0,0,0,0,0,-1,1756,960,0,0
539,64,0,0,0,0,0,0,0,0,0,-1,1763,960,0,0
546,64,0,0,0,0,0,0,0,0,0,-1,1770,960,0,0
553,64,0,0,0,0,0,0,0,0,0,-1,1777,960,0,0
560,64,0,0,0,0,0,0,0,0,0,-1,1784,960,0,0
567,64,0,0,0,0,0,0,0,0,0,-1,1791,960,0,0
574,64,0,0,0,0,0,0,0,0,0,-1,1798,960,0,0
581,64,0,0,0,0,0,0,0,0,0,-1,1805,960,0,0
588,64,0,0,0,0,0,0,0,0,0,-1,1812,960,0,0
595,64,0,0,0,0,0,0,0,0,0,-1,1819,960,0,0
602,64,0,0,0,0,0,0,0,0,0,-1,1826,960,0,0
609,64,0,0,0,0,0,0,0,0,0,-1,1833,960,0,0
616,64,0,0,0,0,0,0,0,0,0,-1,1840,960,0,0
623,64,0,0,0,0,0,0,0,0,0,-1,1847,960,0,0
630,64,0,0,0,0,0,0,0,0,0,-1,1854,960,0,0
637,64,0,0,0,0,0,0,0,0,0,-1,1861,960,0,0
644,64,34.0277,2.81793,0.00527703,0.00117249,0.000286076,0.00529687,0.00115265,0.0692514,0.00321662,0.0428601,1868,960,34.0278,-2.81792
651,64,34.1743,2.71704,0.00443642,0.000983836,0.000239579,0.00445297,0.00096729,0.0689507,0.0027045,0.0432103,1875,960,34.1743,-2.71704
658,64,34.168,2.74664,0.00341084,0.000925158,0.000461053,0.00349361,0.000842397,0.177615,0.00210522,0.0386558,1882,960,34.168,-2.74666
665,64,34.1271,2.71924,0.00225236,0.00097235,0.000980914,0.00278359,0.000441116,0.496349,0.00172756,0.0385824,1889,960,34.127,-2.71922
672,64,34.1716,2.65137,0.00101463,0.000994471,0.00166332,0.0026679,-0.000658794,0.782368,0.00203408,0.0425457,1896,960,34.1716,-2.65137
679,64,34.1686,2.58496,-6.00034e-05,0.000946786,0.00233306,0.00283014,-0.00194336,0.891652,0.00277179,0.0424971,1903,960,34.1686,-2.58498
686,64,34.1986,2.50665,-0.0007779,0.000815078,0.00278369,0.00291399,-0.00287681,0.924739,0.00334334,0.0362689,1910,960,34.1986,-2.50665
693,64,34.2274,2.53497,-0.00128528,0.000644582,0.00303485,0.0028642,-0.0035049,0.93932,0.0036834,0.032191,1917,960,34.2274,-2.53497
700,64,34.2092,2.67651,-0.0018336,0.000627858,0.00301713,0.00265562,-0.00386136,0.979053,0.00378399,0.0285766,1924,960,34.2092,-2.6765
707,64,34.1029,3.03217,-0.00228425,0.000734556,0.00283497,0.0024369,-0.0039866,1.03002,0.00374441,0.0376366,1931,960,34.103,-3.03215
714,64,33.3811,4.05896,0,0,0,0,0,0,0,-1,1938,960,33.3811,-4.05894
721,64,32.8063,4.16309,-0.00310456,0.00105359,0.00240291,0.00215201,-0.00420298,1.14203,0.00373221,0.0360591,1945,960,32.8062,-4.16311
728,64,32.6428,4.45758,-0.00340611,0.00142217,0.00223595,0.00229855,-0.0042825,1.19725,0.00385669,0.0176778,1952,960,32.6428,-4.45758
735,64,32.6802,4.68359,-0.00315793,0.00200416,0.00193521,0.00264907,-0.00380285,1.24912,0.00374482,0.0234674,1959,960,32.6802,-4.68358
742,64,32.7244,4.86444,-0.0030155,0.0027137,0.00138304,0.0030301,-0.0033319,1.3459,0.00367448,0.0201674,1966,960,32.7244,-4.86442
749,64,32.6779,5.04944,-0.00293584,0.00368858,0.000855261,0.00379722,-0.00304448,1.44445,0.00395802,0.0144217,1973,960,32.6778,-5.04943
756,64,32.6606,5.24976,-0.00281169,0.00499016,0.000564556,0.0050308,-0.00285233,1.49893,0.00460889,0.0144449,1980,960,32.6607,-5.24975
763,64,32.6591,5.46436,-0.00245905,0.00666915,0.000742212,0.0067291,-0.002519,1.49019,0.00552074,0.0146259,1987,960,32.6591,-5.46435
770,64,32.5443,5.60114,-0.0018526,0.00859585,0.00140466,0.0087814,-0.00203815,1.43947,0.00663877,0.0163024,1994,960,32.5444,-5.60114
777,64,32.3733,5.82092,-0.00111834,0.0106996,0.00245653,0.0111899,-0.00160863,1.3738,0.00804987,0.0326528,2001,960,32.3733,-5.82093
784,64,32.3208,6.08862,0.000148422,0.012993,0.00403275,0.0141542,-0.00101275,1.29044,0.00979118,0.0416904,2008,960,32.3208,-6.08864
791,64,32.2583,6.3468,0,0,0,0,0,0,0,-1,2015,960,32.2583,-6.34679
798,64,30.6353,5.0481,0,0,0,0,0,0,0,-1,2022,960,30.6352,-5.04812
805,64,31.1616,4.26563,0,0,0,0,0,0,0,-1,2029,960,31.1616,-4.26563
812,64,0,0,0,0,0,0,0,0,0,-1,2036,960,0,0
-700,57,0,0,0,0,0,0,0,0,0,-1,524,967,0,0
-693,57,0,0,0,0,0,0,0,0,0,-1,531,967,0,0
-686,57,-20.4405,1.1394,-0.0814833,0.044442,-0.0133591,0.0458437,-0.082885,-1.46626,0.0753402,0.044726,538,967,-20.4405,-1.1394
-679,57,-20.7877,1.68488,-0.0663005,0.0417852,-0.00672903,0.0422026,-0.0667178,-1.50886,0.0634139,0.046781,545,967,-20.7876,-1.68486
-672,57,-21.0052,2.08502,0,0,0,0,0,0,0,-1,552,967,-21.0052,-2.08503
-665,57,-23.4188,5.11249,0,0,0,0,0,0,0,-1,559,967,-23.4188,-5.11246
-658,57,-24.5078,3.2525,0,0,0,0,0,0,0,-1,566,967,-24.5078,-3.25248
-651,57,-24.3713,3.03998,-0.0224438,0.0256683,0.00486032,0.0261544,-0.0229299,1.47112,0.0283592,0.0451638,573,967,-24.3714,-3.03996
-644,57,-24.1093,2.85333,-0.0157087,0.0210326,0.00513659,0.0217372,-0.0164133,1.43447,0.0220976,0.0300477,580,967,-24.1093,-2.85333
-637,57,-24.0441,2.75739,-0.0101817,0.0166607,0.00487777,0.0175196,-0.0110406,1.3965,0.0166301,0.0172426,587,967,-24.0441,-2.75739
-630,57,-24.084,2.64233,-0.00598964,0.0128264,0.00430613,0.013765,-0.00692829,1.35617,0.0121627,0.013735,594,967,-24.084,-2.64234
-623,57,-24.0864,2.51099,-0.00489427,0.00946615,0.00243853,0.00986893,-0.00529706,1.4071,0.00888772,0.0123545,601,967,-24.0864,-2.51098
-616,57,-24.0894,2.34363,-0.00414571,0.00639822,0.000653559,0.00643858,-0.00418607,1.50913,0.00617992,0.0138836,608,967,-24.0894,-2.34365
-609,57,-24.0867,2.16132,-0.00419097,0.00443058,-0.000691919,0.00448576,-0.00424614,-1.49122,0.005042,0.0140944,615,967,-24.0868,-2.16134
-602,57,-24.0667,2.01385,-0.00482185,0.00298957,-0.0020016,0.00347259,-0.00530487,-1.33401,0.00510434,0.0113558,622,967,-24.0667,-2.01388
-595,57,-24.0497,1.88135,-0.00536442,0.00153634,-0.0028769,0.00257837,-0.00640644,-1.22329,0.00534202,0.0118748,629,967,-24.0498,-1.88137
-588,57,-24.0734,1.80463,-0.00583118,0.000966991,-0.00338506,0.00236503,-0.00722922,-1.17913,0.00577167,0.0190274,636,967,-24.0734,-1.8046
-581,57,-24.3397,1.26642,-0.00616327,0.000636394,-0.0036976,0.00225962,-0.00778649,-1.15713,0.00608568,0.0301783,643,967,-24.3397,-1.26645
-574,57,-24.6653,0.677551,0,0,0,0,0,0,0,-1,650,967,-24.6653,-0.677573
-567,57,-24.6071,0.71521,-0.00592032,0.00053253,-0.00406202,0.00249357,-0.00788136,-1.12102,0.00625341,0.0332381,657,967,-24.6071,-0.715186
-560,57,-24.6027,0.778564,-0.00533558,0.000610881,-0.00396539,0.0025939,-0.0073186,-1.10708,0.00593573,0.041712,664,967,-24.6027,-0.778586
-553,57,-24.4403,0.827271,-0.00429581,0.000743786,-0.00386622,0.00283885,-0.00639088,-1.0742,0.00545874,0.0404353,671,967,-24.4403,-0.827301
-546,57,-24.4894,0.826477,-0.00281155,0.000903167,-0.00386509,0.00333401,-0.0052424,-1.00938,0.00499229,0.0393239,678,967,-24.4894,-0.826499
-539,57,-24.7631,0.793701,-0.000936426,0.0010542,-0.0041619,0.00433814,-0.00422037,-0.902768,0.00494142,0.0416999,685,967,-24.7631,-0.793671
-532,57,-24.8038,1.10461,0.000997637,0.0013443,-0.00528626,0.00646007,-0.00411814,-0.801787,0.00615702,0.0413862,692,967,-24.8038,-1.10459
-525,57,-24.731,0.98761,0.00151983,0.00210773,-0.00785791,0.00967719,-0.00604963,-0.804094,0.00916004,0.0397967,699,967,-24.731,-0.98761
-518,57,0,0,0,0,0,0,0,0,0,-1,706,967,0,0
-511,57,0,0,0,0,0,0,0,0,0,-1,713,967,0,0
-504,57,0,0,0,0,0,0,0,0,0,-1,720,967,0,0
-497,57,0,0,0,0,0,0,0,0,0,-1,727,967,0,0
-490,57,0,0,0,0,0,0,0,0,0,-1,734,967,0,0
-483,57,0,0,0,0,0,0,0,0,0,-1,741,967,0,0
-476,57,0,0,0,0,0,0,0,0,0,-1,748,967,0,0
-469,57,0,0,0,0,0,0,0,0,0,-1,755,967,0,0
-462,57,0,0,0,0,0,0,0,0,0,-1,762,967,0,0
-455,57,0,0,0,0,0,0,0,0,0,-1,769,967,0,0
-448,57,0,0,0,0,0,0,0,0,0,-1,776,967,0,0
-441,57,0,0,0,0,0,0,0,0,0,-1,783,967,0,0
-434,57,0,0,0,0,0,0,0,0,0,-1,790,967,0,0
-427,57,0,0,0,0,0,0,0,0,0,-1,797,967,0,0
-420,57,0,0,0,0,0,0,0,0,0,-1,804,967,0,0
-413,57,0,0,0,0,0,0,0,0,0,-1,811,967,0,0
-406,57,0,0,0,0,0,0,0,0,0,-1,818,967,0,0
-399,57,0,0,0,0,0,0,0,0,0,-1,825,967,0,0
-392,57,0,0,0,0,0,0,0,0,0,-1,832,967,0,0
-385,57,0,0,0,0,0,0,0,0,0,-1,839,967,0,0
-378,57,0,0,0,0,0,0,0,0,0,-1,846,967,0,0
-371,57,0,0,0,0,0,0,0,0,0,-1,853,967,0,0
-364,57,0,0,0,0,0,0,0,0,0,-1,860,967,0,0
-357,57,0,0,0,0,0,0,0,0,0,-1,867,967,0,0
-350,57,0,0,0,0,0,0,0,0,0,-1,874,967,0,0
-343,57,0,0,0,0,0,0,0,0,0,-1,881,967,0,0
-336,57,0,0,0,0,0,0,0,0,0,-1,888,967,0,0
-329,57,0,0,0,0,0,0,0,0,0,-1,895,967,0,0
-322,57,0,0,0,0,0,0,0,0,0,-1,902,967,0,0
-315,57,0,0,0,0,0,0,0,0,0,-1,909,967,0,0
-308,57,0,0,0,0,0,0,0,0,0,-1,916,967,0,0
-301,57,0,0,0,0,0,0,0,0,0,-1,923,967,0,0
-294,57,0,0,0,0,0,0,0,0,0,-1,930,967,0,0
-287,57,0,0,0,0,0,0,0,0,0,-1,937,967,0,0
-280,57,0,0,0,0,0,0,0,0,0,-1,944,967,0,0
-273,57,0,0,0,0,0,0,0,0,0,-1,951,967,0,0
-266,57,0,0,0,0,0,0,0,0,0,-1,958,967,0,0
-259,57,0,0,0,0,0,0,0,0,0,-1,965,967,0,0
-252,57,0,0,0,0,0,0,0,0,0,-1,972,967,0,0
-245,57,0,0,0,0,0,0,0,0,0,-1,979,967,0,0
-238,57,0,0,0,0,0,0,0,0,0,-1,986,967,0,0
-231,57,0,0,0,0,0,0,0,0,0,-1,993,967,0,0
-224,57,0,0,0,0,0,0,0,0,0,-1,1000,967,0,0
-217,57,0,0,0,0,0,0,0,0,0,-1,1007,967,0,0
-210,57,0,0,0,0,0,0,0,0,0,-1,1014,967,0,0
-203,57,0,0,0,0,0,0,0,0,0,-1,1021,967,0,0
-196,57,0,0,0,0,0,0,0,0,0,-1,1028,967,0,0
-189,57,0,0,0,0,0,0,0,0,0,-1,1035,967,0,0
-182,57,0,0,0,0,0,0,0,0,0,-1,1042,967,0,0
-175,57,0,0,0,0,0,0,0,0,0,-1,1049,967,0,0
-168,57,0,0,0,0,0,0,0,0,0,-1,1056,967,0,0
-161,57,0,0,0,0,0,0,0,0,0,-1,1063,967,0,0
-154,57,0,0,0,0,0,0,0,0,0,-1,1070,967,0,0
-147,57,0,0,0,0,0,0,0,0,0,-1,1077,967,0,0
-140,57,0,0,0,0,0,0,0,0,0,-1,1084,967,0,0
-133,57,0,0,0,0,0,0,0,0,0,-1,1091,967,0,0
-126,57,0,0,0,0,0,0,0,0,0,-1,1098,967,0,0
-119,57,0,0,0,0,0,0,0,0,0,-1,1105,967,0,0
-112,57,0,0,0,0,0,0,0,0,0,-1,1112,967,0,0
-105,57,0,0,0,0,0,0,0,0,0,-1,1119,967,0,0
-98,57,0,0,0,0,0,0,0,0,0,-1,1126,967,0,0
-91,57,0,0,0,0,0,0,0,0,0,-1,1133,967,0,0
-84,57,0,0,0,0,0,0,0,0,0,-1,1140,967,0,0
-77,57,0,0,0,0,0,0,0,0,0,-1,1147,967,0,0
-70,57,0,0,0,0,0,0,0,0,0,-1,1154,967,0,0
-63,57,0,0,0,0,0,0,0,0,0,-1,1161,967,0,0
-56,57,0,0,0,0,0,0,0,0,0,-1,1168,967,0,0
-49,57,0,0,0,0,0,0,0,0,0,-1,1175,967,0,0
-42,57,0,0,0,0,0,0,0,0,0,-1,1182,967,0,0
-35,57,0,0,0,0,0,0,0,0,0,-1,1189,967,0,0
-28,57,0,0,0,0,0,0,0,0,0,-1,1196,967,0,0
-21,57,0,0,0,0,0,0,0,0,0,-1,1203,967,0,0
-14,57,0,0,0,0,0,0,0,0,0,-1,1210,967,0,0
-7,57,0,0,0,0,0,0,0,0,0,-1,1217,967,0,0
0,57,0,0,0,0,0,0,0,0,0,-1,1224,967,0,0
7,57,0,0,0,0,0,0,0,0,0,-1,1231,967,0,0
14,57,0,0,0,0,0,0,0,0,0,-1,1238,967,0,0
21,57,0,0,0,0,0,0,0,0,0,-1,1245,967,0,0
28,57,0,0,0,0,0,0,0,0,0,-1,1252,967,0,0
35,57,0,0,0,0,0,0,0,0,0,-1,1259,967,0,0
42,57,0,0,0,0,0,0,0,0,0,-1,1266,967,0,0
49,57,0,0,0,0,0,0,0,0,0,-1,1273,967,0,0
56,57,0,0,0,0,0,0,0,0,0,-1,1280,967,0,0
63,57,0,0,0,0,0,0,0,0,0,-1,1287,967,0,0
70,57,0,0,0,0,0,0,0,0,0,-1,1294,967,0,0
77,57,0,0,0,0,0,0,0,0,0,-1,1301,967,0,0
84,57,0,0,0,0,0,0,0,0,0,-1,1308,967,0,0
91,57,0,0,0,0,0,0,0,0,0,-1,1315,967,0,0
98,57,0,0,0,0,0,0,0,0,0,-1,1322,967,0,0
105,57,0,0,0,0,0,0,0,0,0,-1,1329,967,0,0
112,57,0,0,0,0,0,0,0,0,0,-1,1336,967,0,0
119,57,0,0,0,0,0,0,0,0,0,-1,1343,967,0,0
126,57,0,0,0,0,0,0,0,0,0,-1,1350,967,0,0
133,57,0,0,0,0,0,0,0,0,0,-1,1357,967,0,0
140,57,0,0,0,0,0,0,0,0,0,-1,1364,967,0,0
147,57,0,0,0,0,0,0,0,0,0,-1,1371,967,0,0
154,57,0,0,0,0,0,0,0,0,0,-1,1378,967,0,0
161,57,0,0,0,0,0,0,0,0,0,-1,1385,967,0,0
168,57,0,0,0,0,0,0,0,0,0,-1,1392,967,0,0
175,57,0,0,0,0,0,0,0,0,0,-1,1399,967,0,0
182,57,0,0,0,0,0,0,0,0,0,-1,1406,967,0,0
189,57,0,0,0,0,0,0,0,0,0,-1,1413,967,0,0
196,57,0,0,0,0,0,0,0,0,0,-1,1420,967,0,0
203,57,0,0,0,0,0,0,0,0,0,-1,1427,967,0,0
210,57,0,0,0,0,0,0,0,0,0,-1,1434,967,0,0
217,57,0,0,0,0,0,0,0,0,0,-1,1441,967,0,0
224,57,0,0,0,0,0,0,0,0,0,-1,1448,967,0,0
231,57,0,0,0,0,0,0,0,0,0,-1,1455,967,0,0
238,57,0,0,0,0,0,0,0,0,0,-1,1462,967,0,0
245,57,0,0,0,0,0,0,0,0,0,-1,1469,967,0,0
252,57,0,0,0,0,0,0,0,0,0,-1,1476,967,0,0
259,57,0,0,0,0,0,0,0,0,0,-1,1483,967,0,0
266,57,0,0,0,0,0,0,0,0,0,-1,1490,967,0,0
273,57,0,0,0,0,0,0,0,0,0,-1,1497,967,0,0
280,57,0,0,0,0,0,0,0,0,0,-1,1504,967,0,0
287,57,0,0,0,0,0,0,0,0,0,-1,1511,967,0,0
294,57,0,0,0,0,0,0,0,0,0,-1,1518,967,0,0
301,57,0,0,0,0,0,0,0,0,0,-1,1525,967,0,0
308,57,0,0,0,0,0,0,0,0,0,-1,1532,967,0,0
315,57,0,0,0,0,0,0,0,0,0,-1,1539,967,0,0
322,57,0,0,0,0,0,0,0,0,0,-1,1546,967,0,0
329,57,0,0,0,0,0,0,0,0,0,-1,1553,967,0,0
336,57,0,0,0,0,0,0,0,0,0,-1,1560,967,0,0
343,57,0,0,0,0,0,0,0,0,0,-1,1567,967,0,0
350,57,0,0,0,0,0,0,0,0,0,-1,1574,967,0,0
357,57,0,0,0,0,0,0,0,0,0,-1,1581,967,0,0
364,57,0,0,0,0,0,0,0,0,0,-1,1588,967,0,0
371,57,0,0,0,0,0,0,0,0,0,-1,1595,967,0,0
378,57,0,0,0,0,0,0,0,0,0,-1,1602,967,0,0
385,57,0,0,0,0,0,0,0,0,0,-1,1609,967,0,0
392,57,0,0,0,0,0,0,0,0,0,-1,1616,967,0,0
399,57,0,0,0,0,0,0,0,0,0,-1,1623,967,0,0
406,57,0,0,0,0,0,0,0,0,0,-1,1630,967,0,0
413,57,0,0,0,0,0,0,0,0,0,-1,1637,967,0,0
420,57,0,0,0,0,0,0,0,0,0,-1,1644,967,0,0
427,57,0,0,0,0,0,0,0,0,0,-1,1651,967,0,0
434,57,0,0,0,0,0,0,0,0,0,-1,1658,967,0,0
441,57,0,0,0,0,0,0,0,0,0,-1,1665,967,0,0
448,57,0,0,0,0,0,0,0,0,0,-1,1672,967,0,0
455,57,0,0,0,0,0,0,0,0,0,-1,1679,967,0,0
462,57,0,0,0,0,0,0,0,0,0,-1,1686,967,0,0
469,57,0,0,0,0,0,0,0,0,0,-1,1693,967,0,0
476,57,0,0,0,0,0,0,0,0,0,-1,1700,967,0,0
483,57,0,0,0,0,0,0,0,0,0,-1,1707,967,0,0
490,57,0,0,0,0,0,0,0,0,0,-1,1714,967,0,0
497,57,0,0,0,0,0,0,0,0,0,-1,1721,967,0,0
504,57,0,0,0,0,0,0,0,0,0,-1,1728,967,0,0
511,57,0,0,0,0,0,0,0,0,0,-1,1735,967,0,0
518,57,0,0,0,0,0,0,0,0,0,-1,1742,967,0,0
525,57,0,0,0,0,0,0,0,0,0,-1,1749,967,0,0
532,57,0,0,0,0,0,0,0,0,0,-1,1756,967,0,0
539,57,0,0,0,0,0,0,0,0,0,-1,1763,967,0,0
546,57,0,0,0,0,0,0,0,0,0,-1,1770,967,0,0
553,57,0,0,0,0,0,0,0,0,0,-1,1777,967,0,0
560,57,0,0,0,0,0,0,0,0,0,-1,1784,967,0,0
567,57,0,0,0,0,0,0,0,0,0,-1,1791,967,0,0
574,57,0,0,0,0,0,0,0,0,0,-1,1798,967,0,0
581,57,0,0,0,0,0,0,0,0,0,-1,1805,967,0,0
588,57,0,0,0,0,0,0,0,0,0,-1,1812,967,0,0
595,57,0,0,0,0,0,0,0,0,0,-1,1819,967,0,0
602,57,0,0,0,0,0,0,0,0,0,-1,1826,967,0,0
609,57,0,0,0,0,0,0,0,0,0,-1,1833,967,0,0
616,57,0,0,0,0,0,0,0,0,0,-1,1840,967,0,0
623,57,0,0,0,0,0,0,0,0,0,-1,1847,967,0,0
630,57,0,0,0,0,0,0,0,0,0,-1,1854,967,0,0
637,57,0,0,0,0,0,0,0,0,0,-1,1861,967,0,0
644,57,33.9774,2.76202,0.00603601,0.000825584,0.000807204,0.0061582,0.000703397,0.150231,0.00389224,0.0405272,1868,967,33.9774,-2.76203
651,57,34.0885,2.77826,0.005063,0.000601192,0.000579878,0.00513713,0.00052706,0.127151,0.00326329,0.0376562,1875,967,34.0886,-2.77825
658,57,34.1667,2.78906,0.00392936,0.000511183,0.000650907,0.00404911,0.00039143,0.181945,0.00257885,0.0364235,1882,967,34.1668,-2.78907
665,57,34.1482,2.73456,0.00267938,0.000566574,0.00108366,0.00313636,0.000109598,0.399068,0.00205535,0.0398309,1889,967,34.1482,-2.73454
672,57,34.2709,2.71552,0.00133549,0.000645672,0.00174203,0.00276642,-0.000785263,0.687666,0.00215428,0.0438047,1896,967,34.2709,-2.71553
679,57,34.2368,2.69531,0.000133488,0.00068213,0.00244606,0.0028692,-0.00205358,0.841239,0.00285514,0.0437924,1903,967,34.2368,-2.69532
686,57,34.1793,2.67053,-0.000677833,0.000614742,0.00295739,0.00299564,-0.00305873,0.892973,0.00349556,0.038164,1910,967,34.1793,-2.67053
693,57,34.1931,2.63373,-0.00124141,0.000515189,0.00325592,0.0030092,-0.00373542,0.91714,0.00390152,0.0303249,1917,967,34.1931,-2.63375
700,57,34.2,2.69409,-0.00182411,0.000540882,0.00326143,0.00282757,-0.0041108,0.959312,0.00402864,0.0240159,1924,967,34.1999,-2.69412
707,57,34.1185,3.03101,-0.00231239,0.000701883,0.00311185,0.00265236,-0.00426287,1.01091,0.00402844,0.0405517,1931,967,34.1185,-3.03103
714,57,34.0574,3.51587,0,0,0,0,0,0,0,-1,1938,967,34.0573,-3.51587
721,57,32.9033,4.29095,0,0,0,0,0,0,0,-1,1945,967,32.9033,-4.29093
728,57,32.864,4.51843,-0.0036135,0.00162161,0.00259784,0.00269192,-0.00468381,1.17999,0.00430983,0.0209075,1952,967,32.864,-4.5184
735,57,32.922,4.74176,-0.00349287,0.00224069,0.00229376,0.00304539,-0.00429757,1.23339,0.00425996,0.0251399,1959,967,32.922,-4.74177
742,57,32.9441,4.86896,-0.00348856,0.00299709,0.00175206,0.00344014,-0.0039316,1.32312,0.00425923,0.0194416,1966,967,32.944,-4.86899
749,57,32.8866,5.07324,-0.00360938,0.00401732,0.00121454,0.00420606,-0.00379812,1.41663,0.00462322,0.0153162,1973,967,32.8866,-5.07325
756,57,32.8451,5.23065,-0.00369097,0.00534704,0.000829982,0.00542263,-0.00376656,1.47998,0.00533402,0.0110452,1980,967,32.8451,-5.23063
763,57,32.8253,5.3985,-0.00364536,0.00706796,0.000839739,0.00713338,-0.00371078,1.49305,0.00636398,0.0104459,1987,967,32.8253,-5.3985
770,57,32.78,5.539,-0.00339847,0.00909045,0.00131855,0.00922814,-0.00353616,1.46675,0.0076098,0.0114435,1994,967,32.78,-5.53899
777,57,32.6443,5.6853,-0.00305357,0.0112856,0.002103,0.0115876,-0.00335564,1.42814,0.00905337,0.0266049,2001,967,32.6442,-5.68529
784,57,32.6494,5.64868,-0.00229785,0.0136751,0.00324804,0.0143103,-0.00293306,1.37767,0.0106533,0.0432241,2008,967,32.6495,-5.64869
791,57,32.6067,5.55927,0,0,0,0,0,0,0,-1,2015,967,32.6067,-5.55928
798,57,32.6025,5.49316,0,0,0,0,0,0,0,-1,2022,967,32.6025,-5.49319
805,57,30.804,3.76361,0,0,0,0,0,0,0,-1,2029,967,30.804,-3.76359
812,57,0,0,0,0,0,0,0,0,0,-1,2036,967,0,0
-700,50,0,0,0,0,0,0,0,0,0,-1,524,974,0,0
-693,50,-25.4126,1.20758,0,0,0,0,0,0,0,-1,531,974,-25.4126,-1.20758
-686,50,-19.8542,0.778015,0,0,0,0,0,0,0,-1,538,974,-19.8543,-0.778032
-679,50,-20.2796,1.38788,0,0,0,0,0,0,0,-1,545,974,-20.2796,-1.38789
-672,50,-27.1155,2.80042,0,0,0,0,0,0,0,-1,552,974,-27.1155,-2.8004
-665,50,-27.6988,2.46936,0,0,0,0,0,0,0,-1,559,974,-27.6988,-2.46934
-658,50,-24.0693,2.54382,0,0,0,0,0,0,0,-1,566,974,-24.0694,-2.54383
-651,50,-24.1436,2.6698,-0.0236589,0.0262313,0.00458881,0.0266498,-0.0240775,1.47984,0.0293,0.0450094,573,974,-24.1436,-2.66977
-644,50,-24.1429,2.73633,-0.0166535,0.0216064,0.00497796,0.0222435,-0.0172906,1.44351,0.0228847,0.02834,580,974,-24.1429,-2.73633
-637,50,-24.2157,2.68964,-0.0107826,0.0171775,0.00476856,0.0179684,-0.0115735,1.40644,0.0171887,0.0159603,587,974,-24.2157,-2.68963
-630,50,-24.2529,2.58752,-0.00626033,0.0133865,0.00416821,0.0142342,-0.00710807,1.37015,0.0125488,0.0109503,594,974,-24.2529,-2.5875
-623,50,-24.2548,2.4776,-0.00491228,0.00987338,0.0021118,0.0101691,-0.00520799,1.43167,0.00903066,0.0114269,601,974,-24.2548,-2.47758
-616,50,-24.2577,2.34863,-0.00386383,0.00668759,0.000149854,0.00668972,-0.00386596,1.5566,0.00616658,0.0112944,608,974,-24.2577,-2.34864
-609,50,-24.2531,2.17206,-0.00358624,0.0045515,-0.00134728,0.00476876,-0.00380349,-1.41092,0.00495964,0.0104087,615,974,-24.2531,-2.17204
-602,50,-24.2541,2.02472,-0.00395566,0.00312421,-0.00281071,0.00410436,-0.00493582,-1.23526,0.00522671,0.0110343,622,974,-24.2541,-2.02472
-595,50,-24.2333,1.90112,-0.00428858,0.00154356,-0.00382998,0.00344124,-0.00618626,-1.11077,0.00563325,0.0106773,629,974,-24.2333,-1.90114
-588,50,-24.2686,1.71649,-0.00459951,0.000962849,-0.00440765,0.00339342,-0.00703008,-1.06685,0.00613888,0.0144447,636,974,-24.2685,-1.71651
-581,50,-24.5057,1.12616,-0.00484793,0.000657461,-0.00471798,0.00336706,-0.00755753,-1.04948,0.00646013,0.0228586,643,974,-24.5057,-1.12618
-574,50,-24.6274,0.69165,-0.00483086,0.000554374,-0.00502045,0.0035587,-0.00783518,-1.03154,0.00673094,0.0273544,650,974,-24.6275,-0.691621
-567,50,-24.6183,0.596497,-0.00461166,0.000618538,-0.00492821,0.0035825,-0.00757563,-1.02933,0.00657822,0.0354675,657,974,-24.6184,-0.596489
-560,50,-24.5823,0.569946,-0.00410457,0.000743182,-0.0046734,0.00358389,-0.00694528,-1.02463,0.00618142,0.0429134,664,974,-24.5823,-0.569918
-553,50,-24.5521,0.755615,-0.00323304,0.000921923,-0.00439328,0.00370416,-0.00601527,-1.00626,0.00566415,0.03985,671,974,-24.552,-0.755602
-546,50,-24.574,0.881042,-0.00201197,0.00111507,-0.00420695,0.00403965,-0.00493654,-0.963314,0.00519102,0.0376626,678,974,-24.574,-0.881014
-539,50,-24.6027,0.663208,-0.000479265,0.00127963,-0.00437532,0.00486301,-0.00406265,-0.884578,0.00516013,0.0415624,685,974,-24.6026,-0.663224
-532,50,-24.6292,0.701172,0.000973249,0.00160492,-0.00556495,0.00686299,-0.00428482,-0.813745,0.00649331,0.0425925,692,974,-24.6292,-0.701147
-525,50,-24.5681,0.793396,0.000821122,0.00244688,-0.00837454,0.0100479,-0.0067799,-0.833779,0.00977641,0.0406616,699,974,-24.5681,-0.793371
-518,50,0,0,0,0,0,0,0,0,0,-1,706,974,0,0
-511,50,0,0,0,0,0,0,0,0,0,-1,713,974,0,0
-504,50,0,0,0,0,0,0,0,0,0,-1,720,974,0,0
-497,50,0,0,0,0,0,0,0,0,0,-1,727,974,0,0
-490,50,0,0,0,0,0,0,0,0,0,-1,734,974,0,0
-483,50,0,0,0,0,0,0,0,0,0,-1,741,974,0,0
-476,50,0,0,0,0,0,0,0,0,0,-1,748,974,0,0
-469,50,0,0,0,0,0,0,0,0,0,-1,755,974,0,0
-462,50,0,0,0,0,0,0,0,0,0,-1,762,974,0,0
-455,50,0,0,0,0,0,0,0,0,0,-1,769,974,0,0
-448,50,0,0,0,0,0,0,0,0,0,-1,776,974,0,0
-441,50,0,0,0,0,0,0,0,0,0,-1,783,974,0,0
-434,50,0,0,0,0,0,0,0,0,0,-1,790,974,0,0
-427,50,0,0,0,0,0,0,0,0,0,-1,797,974,0,0
-420,50,0,0,0,0,0,0,0,0,0,-1,804,974,0,0
-413,50,0,0,0,0,0,0,0,0,0,-1,811,974,0,0
-406,50,0,0,0,0,0,0,0,0,0,-1,818,974,0,0
-399,50,0,0,0,0,0,0,0,0,0,-1,825,974,0,0
-392,50,0,0,0,0,0,0,0,0,0,-1,832,974,0,0
-385,50,0,0,0,0,0,0,0,0,0,-1,839,974,0,0
-378,50,0,0,0,0,0,0,0,0,0,-1,846,974,0,0
-371,50,0,0,0,0,0,0,0,0,0,-1,853,974,0,0
-364,50,0,0,0,0,0,0,0,0,0,-1,860,974,0,0
-357,50,0,0,0,0,0,0,0,0,0,-1,867,974,0,0
-350,50,0,0,0,0,0,0,0,0,0,-1,874,974,0,0
-343,50,0,0,0,0,0,0,0,0,0,-1,881,974,0,0
-336,50,0,0,0,0,0,0,0,0,0,-1,888,974,0,0
-329,50,0,0,0,0,0,0,0,0,0,-1,895,974,0,0
-322,50,0,0,0,0,0,0,0,0,0,-1,902,974,0,0
-315,50,0,0,0,0,0,0,0,0,0,-1,909,974,0,0
-308,50,0,0,0,0,0,0,0,0,0,-1,916,974,0,0
-301,50,0,0,0,0,0,0,0,0,0,-1,923,974,0,0
-294,50,0,0,0,0,0,0,0,0,0,-1,930,974,0,0
-287,50,0,0,0,0,0,0,0,0,0,-1,937,974,0,0
-280,50,0,0,0,0,0,0,0,0,0,-1,944,974,0,0
-273,50,0,0,0,0,0,0,0,0,0,-1,951,974,0,0
-266,50,0,0,0,0,0,0,0,0,0,-1,958,974,0,0
-259,50,0,0,0,0,0,0,0,0,0,-1,965,974,0,0
-252,50,0,0,0,0,0,0,0,0,0,-1,972,974,0,0
-245,50,0,0,0,0,0,0,0,0,0,-1,979,974,0,0
-238,50,0,0,0,0,0,0,0,0,0,-1,986,974,0,0
-231,50,0,0,0,0,0,0,0,0,0,-1,993,974,0,0
-224,50,0,0,0,0,0,0,0,0,0,-1,1000,974,0,0
-217,50,0,0,0,0,0,0,0,0,0,-1,1007,974,0,0
-210,50,0,0,0,0,0,0,0,0,0,-1,1014,974,0,0
-203,50,0,0,0,0,0,0,0,0,0,-1,1021,974,0,0
-196,50,0,0,0,0,0,0,0,0,0,-1,1028,974,0,0
-189,50,0,0,0,0,0,0,0,0,0,-1,1035,974,0,0
-182,50,0,0,0,0,0,0,0,0,0,-1,1042,974,0,0
-175,50,0,0,0,0,0,0,0,0,0,-1,1049,974,0,0
-168,50,0,0,0,0,0,0,0,0,0,-1,1056,974,0,0
-161,50,0,0,0,0,0,0,0,0,0,-1,1063,974,0,0
-154,50,0,0,0,0,0,0,0,0,0,-1,1070,974,0,0
-147,50,0,0,0,0,0,0,0,0,0,-1,1077,974,0,0
-140,50,0,0,0,0,0,0,0,0,0,-1,1084,974,0,0
-133,50,0,0,0,0,0,0,0,0,0,-1,1091,974,0,0
-126,50,0,0,0,0,0,0,0,0,0,-1,1098,974,0,0
-119,50,0,0,0,0,0,0,0,0,0,-1,1105,974,0,0
-112,50,0,0,0,0,0,0,0,0,0,-1,1112,974,0,0
-105,50,0,0,0,0,0,0,0,0,0,-1,1119,974,0,0
-98,50,0,0,0,0,0,0,0,0,0,-1,1126,974,0,0
-91,50,0,0,0,0,0,0,0,0,0,-1,1133,974,0,0
-84,50,0,0,0,0,0,0,0,0,0,-1,1140,974,0,0
-77,50,0,0,0,0,0,0,0,0,0,-1,1147,974,0,0
-70,50,0,0,0,0,0,0,0,0,0,-1,1154,974,0,0
-63,50,0,0,0,0,0,0,0,0,0,-1,1161,974,0,0
-56,50,0,0,0,0,0,0,0,0,0,-1,1168,974,0,0
-49,50,0,0,0,0,0,0,0,0,0,-1,1175,974,0,0
-42,50,0,0,0,0,0,0,0,0,0,-1,1182,974,0,0
-35,50,0,0,0,0,0,0,0,0,0,-1,1189,974,0,0
-28,50,0,0,0,0,0,0,0,0,0,-1,1196,974,0,0
-21,50,0,0,0,0,0,0,0,0,0,-1,1203,974,0,0
-14,50,0,0,0,0,0,0,0,0,0,-1,1210,974,0,0
-7,50,0,0,0,0,0,0,0,0,0,-1,1217,974,0,0
0,50,0,0,0,0,0,0,0,0,0,-1,1224,974,0,0
7,50,0,0,0,0,0,0,0,0,0,-1,1231,974,0,0
14,50,0,0,0,0,0,0,0,0,0,-1,1238,974,0,0
21,50,0,0,0,0,0,0,0,0,0,-1,1245,974,0,0
28,50,0,0,0,0,0,0,0,0,0,-1,1252,974,0,0
35,50,0,0,0,0,0,0,0,0,0,-1,1259,974,0,0
42,50,0,0,0,0,0,0,0,0,0,-1,1266,974,0,0
49,50,0,0,0,0,0,0,0,0,0,-1,1273,974,0,0
56,50,0,0,0,0,0,0,0,0,0,-1,1280,974,0,0
63,50,0,0,0,0,0,0,0,0,0,-1,1287,974,0,0
70,50,0,0,0,0,0,0,0,0,0,-1,1294,974,0,0
77,50,0,0,0,0,0,0,0,0,0,-1,1301,974,0,0
84,50,0,0,0,0,0,0,0,0,0,-1,1308,974,0,0
91,50,0,0,0,0,0,0,0,0,0,-1,1315,974,0,0
98,50,0,0,0,0,0,0,0,0,0,-1,1322,974,0,0
105,50,0,0,0,0,0,0,0,0,0,-1,1329,974,0,0
112,50,0,0,0,0,0,0,0,0,0,-1,1336,974,0,0
119,50,0,0,0,0,0,0,0,0,0,-1,1343,974,0,0
126,50,0,0,0,0,0,0,0,0,0,-1,1350,974,0,0
133,50,0,0,0,0,0,0,0,0,0,-1,1357,974,0,0
140,50,0,0,0,0,0,0,0,0,0,-1,1364,974,0,0
147,50,0,0,0,0,0,0,0,0,0,-1,1371,974,0,0
154,50,0,0,0,0,0,0,0,0,0,-1,1378,974,0,0
161,50,0,0,0,0,0,0,0,0,0,-1,1385,974,0,0
168,50,0,0,0,0,0,0,0,0,0,-1,1392,974,0,0
175,50,0,0,0,0,0,0,0,0,0,-1,1399,974,0,0
182,50,0,0,0,0,0,0,0,0,0,-1,1406,974,0,0
189,50,0,0,0,0,0,0,0,0,0,-1,1413,974,0,0
196,50,0,0,0,0,0,0,0,0,0,-1,1420,974,0,0
203,50,0,0,0,0,0,0,0,0,0,-1,1427,974,0,0
210,50,0,0,0,0,0,0,0,0,0,-1,1434,974,0,0
217,50,0,0,0,0,0,0,0,0,0,-1,1441,974,0,0
224,50,0,0,0,0,0,0,0,0,0,-1,1448,974,0,0
231,50,0,0,0,0,0,0,0,0,0,-1,1455,974,0,0
238,50,0,0,0,0,0,0,0,0,0,-1,1462,974,0,0
245,50,0,0,0,0,0,0,0,0,0,-1,1469,974,0,0
252,50,0,0,0,0,0,0,0,0,0,-1,1476,974,0,0
259,50,0,0,0,0,0,0,0,0,0,-1,1483,974,0,0
266,50,0,0,0,0,0,0,0,0,0,-1,1490,974,0,0
273,50,0,0,0,0,0,0,0,0,0,-1,1497,974,0,0
280,50,0,0,0,0,0,0,0,0,0,-1,1504,974,0,0
287,50,0,0,0,0,0,0,0,0,0,-1,1511,974,0,0
294,50,0,0,0,0,0,0,0,0,0,-1,1518,974,0,0
301,50,0,0,0,0,0,0,0,0,0,-1,1525,974,0,0
308,50,0,0,0,0,0,0,0,0,0,-1,1532,974,0,0
315,50,0,0,0,0,0,0,0,0,0,-1,1539,974,0,0
322,50,0,0,0,0,0,0,0,0,0,-1,1546,974,0,0
329,50,0,0,0,0,0,0,0,0,0,-1,1553,974,0,0
336,50,0,0,0,0,0,0,0,0,0,-1,1560,974,0,0
343,50,0,0,0,0,0,0,0,0,0,-1,1567,974,0,0
350,50,0,0,0,0,0,0,0,0,0,-1,1574,974,0,0
357,50,0,0,0,0,0,0,0,0,0,-1,1581,974,0,0
364,50,0,0,0,0,0,0,0,0,0,-1,1588,974,0,0
371,50,0,0,0,0,0,0,0,0,0,-1,1595,974,0,0
378,50,0,0,0,0,0,0,0,0,0,-1,1602,974,0,0
385,50,0,0,0,0,0,0,0,0,0,-1,1609,974,0,0
392,50,0,0,0,0,0,0,0,0,0,-1,1616,974,0,0
399,50,0,0,0,0,0,0,0,0,0,-1,1623,974,0,0
406,50,0,0,0,0,0,0,0,0,0,-1,1630,974,0,0
413,50,0,0,0,0,0,0,0,0,0,-1,1637,974,0,0
420,50,0,0,0,0,0,0,0,0,0,-1,1644,974,0,0
427,50,0,0,0,0,0,0,0,0,0,-1,1651,974,0,0
434,50,0,0,0,0,0,0,0,0,0,-1,1658,974,0,0
441,50,0,0,0,0,0,0,0,0,0,-1,1665,974,0,0
448,50,0,0,0,0,0,0,0,0,0,-1,1672,974,0,0
455,50,0,0,0,0,0,0,0,0,0,-1,1679,974,0,0
462,50,0,0,0,0,0,0,0,0,0,-1,1686,974,0,0
469,50,0,0,0,0,0,0,0,0,0,-1,1693,974,0,0
476,50,0,0,0,0,0,0,0,0,0,-1,1700,974,0,0
483,50,0,0,0,0,0,0,0,0,0,-1,1707,974,0,0
490,50,0,0,0,0,0,0,0,0,0,-1,1714,974,0,0
497,50,0,0,0,0,0,0,0,0,0,-1,1721,974,0,0
504,50,0,0,0,0,0,0,0,0,0,-1,1728,974,0,0
511,50,0,0,0,0,0,0,0,0,0,-1,1735,974,0,0
518,50,0,0,0,0,0,0,0,0,0,-1,1742,974,0,0
525,50,0,0,0,0,0,0,0,0,0,-1,1749,974,0,0
532,50,0,0,0,0,0,0,0,0,0,-1,1756,974,0,0
539,50,0,0,0,0,0,0,0,0,0,-1,1763,974,0,0
546,50,0,0,0,0,0,0,0,0,0,-1,1770,974,0,0
553,50,0,0,0,0,0,0,0,0,0,-1,1777,974,0,0
560,50,0,0,0,0,0,0,0,0,0,-1,1784,974,0,0
567,50,0,0,0,0,0,0,0,0,0,-1,1791,974,0,0
574,50,0,0,0,0,0,0,0,0,0,-1,1798,974,0,0
581,50,0,0,0,0,0,0,0,0,0,-1,1805,974,0,0
588,50,0,0,0,0,0,0,0,0,0,-1,1812,974,0,0
595,50,0,0,0,0,0,0,0,0,0,-1,1819,974,0,0
602,50,0,0,0,0,0,0,0,0,0,-1,1826,974,0,0
609,50,0,0,0,0,0,0,0,0,0,-1,1833,974,0,0
616,50,0,0,0,0,0,0,0,0,0,-1,1840,974,0,0
623,50,0,0,0,0,0,0,0,0,0,-1,1847,974,0,0
630,50,0,0,0,0,0,0,0,0,0,-1,1854,974,0,0
637,50,0,0,0,0,0,0,0,0,0,-1,1861,974,0,0
644,50,34.0642,2.79425,0.00719149,0.000607531,0.00139567,0.00747512,0.000323895,0.200495,0.00487904,0.0379285,1868,974,34.0642,-2.79426
651,50,34.076,2.66077,0.00593693,0.000325404,0.000924733,0.00608539,0.000176944,0.159186,0.00399925,0.0330504,1875,974,34.0761,-2.66076
658,50,34.1512,2.69366,0.00458904,0.000176384,0.00080681,0.00473193,3.34941e-05,0.175287,0.00314352,0.0368512,1882,974,34.1513,-2.69369
665,50,34.1782,2.70691,0.00317365,0.000204239,0.00112468,0.00355153,-0.000173647,0.324145,0.00242764,0.0396545,1889,974,34.1783,-2.70693
672,50,34.3668,2.57428,0.00167501,0.000304798,0.0017404,0.00286029,-0.000880484,0.597889,0.00225831,0.0413961,1896,974,34.3668,-2.5743
679,50,34.1857,2.73584,0.000312699,0.000407733,0.00247398,0.00283465,-0.00211422,0.795,0.0028673,0.0414983,1903,974,34.1856,-2.73587
686,50,34.1141,2.70593,-0.000609298,0.000397773,0.0030443,0.0029799,-0.00319142,0.867357,0.00356371,0.0397026,1910,974,34.1141,-2.70594
693,50,34.094,2.70703,-0.001235,0.000374529,0.00339704,0.00306082,-0.0039213,0.901705,0.00404132,0.0349205,1917,974,34.0941,-2.70703
700,50,34.1277,2.74237,-0.00183703,0.000446007,0.00343969,0.00292864,-0.00431967,0.945613,0.00421042,0.0200581,1924,974,34.1277,-2.74236
707,50,34.1318,2.94781,-0.00235632,0.000655113,0.00333479,0.00280836,-0.00450956,0.997456,0.00426289,0.0309726,1931,974,34.1318,-2.9478
714,50,33.9883,3.51746,0,0,0,0,0,0,0,-1,1938,974,33.9883,-3.51743
721,50,33.1274,4.27576,0,0,0,0,0,0,0,-1,1945,974,33.1274,-4.27578
728,50,33.0659,4.53827,-0.00373934,0.00176181,0.00293726,0.00303531,-0.00501284,1.16169,0.00469312,0.0215726,1952,974,33.0659,-4.53829
735,50,33.1023,4.72351,-0.00372663,0.00241112,0.00263196,0.00338516,-0.00470067,1.21634,0.00468891,0.0193212,1959,974,33.1023,-4.7235
742,50,33.0961,4.88293,-0.00381031,0.00315554,0.002074,0.00372629,-0.00438105,1.30225,0.00468586,0.015497,1966,974,33.096,-4.88291
749,50,33.0997,5.00525,-0.00406501,0.0041714,0.00151474,0.00444114,-0.00433474,1.39457,0.00506688,0.0171464,1973,974,33.0997,-5.00526
756,50,33.0629,5.1745,-0.0043091,0.00547986,0.00102796,0.00558665,-0.00441589,1.46729,0.00578814,0.0125735,1980,974,33.0628,-5.1745
763,50,33.0177,5.34155,-0.00450557,0.00717411,0.000838707,0.00723403,-0.00456549,1.49948,0.00687029,0.0116782,1987,974,33.0177,-5.34156
770,50,32.9677,5.46954,-0.00457339,0.00922128,0.00107803,0.00930502,-0.00465713,1.49328,0.00820858,0.0116967,1994,974,32.9677,-5.46952
777,50,32.8938,5.58948,-0.00459486,0.0114538,0.00155326,0.0116027,-0.00474381,1.47519,0.00971067,0.0220718,2001,974,32.8938,-5.58947
784,50,32.5499,5.76123,-0.00437022,0.013894,0.00223533,0.0141636,-0.00463981,1.45077,0.0113108,0.0384788,2008,974,32.55,-5.76124
791,50,32.2659,5.91351,0,0,0,0,0,0,0,-1,2015,974,32.2659,-5.91352
798,50,30.394,3.71399,0,0,0,0,0,0,0,-1,2022,974,30.3939,-3.714
805,50,30.5969,3.15503,0,0,0,0,0,0,0,-1,2029,974,30.597,-3.15501
812,50,0,0,0,0,0,0,0,0,0,-1,2036,974,0,0
-700,43,0,0,0,0,0,0,0,0,0,-1,524,981,0,0
-693,43,-23.025,2.35577,0,0,0,0,0,0,0,-1,531,981,-23.025,-2.35577
-686,43,-24.5341,2.34503,-0.0874761,0.0421293,-0.0168983,0.0442963,-0.0896431,-1.44325,0.0787934,0.0456036,538,981,-24.5341,-2.34506
-679,43,-26.0591,2.31714,0,0,0,0,0,0,0,-1,545,981,-26.0592,-2.31712
-672,43,-27.2073,2.19745,0,0,0,0,0,0,0,-1,552,981,-27.2074,-2.19743
-665,43,-28.0775,2.10223,0,0,0,0,0,0,0,-1,559,981,-28.0775,-2.10221
-658,43,-24.1467,3.0694,0,0,0,0,0,0,0,-1,566,981,-24.1467,-3.06942
-651,43,-24.0385,2.51215,0,0,0,0,0,0,0,-1,573,981,-24.0385,-2.51213
-644,43,-24.3339,2.75073,-0.0176693,0.0207977,0.00410909,0.0212318,-0.0181033,1.46556,0.022734,0.022015,580,981,-24.3339,-2.75073
-637,43,-24.3878,2.63934,-0.0114538,0.0165034,0.00401475,0.0170685,-0.0120189,1.43096,0.0168778,0.015376,587,981,-24.3878,-2.63937
-630,43,-24.3813,2.53461,-0.00659363,0.0129392,0.00345425,0.0135321,-0.0071865,1.40082,0.0121474,0.0136577,594,981,-24.3813,-2.53459
-623,43,-24.3956,2.43738,-0.00495424,0.0095207,0.00131772,0.00963968,-0.00507322,1.48075,0.0086298,0.0122242,601,981,-24.3956,-2.43735
-616,43,-24.3951,2.30731,-0.00359286,0.00643776,-0.000718931,0.00648903,-0.00364413,-1.49961,0.00592674,0.0106447,608,981,-24.3951,-2.30729
-609,43,-24.3885,2.16797,-0.00296114,0.00430169,-0.0022835,0.00495998,-0.00361943,-1.29013,0.00497344,0.0124169,615,981,-24.3885,-2.16796
-602,43,-24.3546,2.0824,-0.00299981,0.00306073,-0.00380161,0.00489202,-0.0048311,-1.12188,0.00561368,0.0145589,622,981,-24.3546,-2.08243
-595,43,-24.3525,1.96198,-0.00305966,0.00149029,-0.00485722,0.00457891,-0.00614827,-1.00441,0.0062154,0.0133266,629,981,-24.3525,-1.96196
-588,43,-24.3607,1.61835,-0.00318246,0.000961401,-0.00543493,0.00470594,-0.006927,-0.967507,0.00675696,0.0153963,636,981,-24.3607,-1.61832
-581,43,-24.5206,1.04041,-0.00335686,0.0006971,-0.00568993,0.00471031,-0.00737007,-0.95651,0.00703074,0.0227186,643,981,-24.5206,-1.04038
-574,43,-24.6276,0.764038,-0.00334468,0.000624471,-0.00588909,0.00485439,-0.00757459,-0.947918,0.00723294,0.0283256,650,981,-24.6275,-0.764049
-567,43,-24.6075,0.711792,-0.0032155,0.000719954,-0.00561448,0.00470154,-0.00719708,-0.953946,0.00691986,0.0354846,657,981,-24.6075,-0.711814
-560,43,-24.5751,0.65802,-0.0028769,0.000884768,-0.0051265,0.00446457,-0.0064567,-0.961217,0.00634027,0.0409873,664,981,-24.5751,-0.658008
-553,43,-24.5837,0.790039,-0.00229754,0.00111928,-0.0045766,0.00429595,-0.00547421,-0.964034,0.00565446,0.041492,671,981,-24.5838,-0.790061
-546,43,-24.5531,0.880127,-0.00149644,0.00138262,-0.00410298,0.00429128,-0.00440509,-0.954114,0.005021,0.0415662,678,981,-24.5531,-0.880131
-539,43,-24.3852,0.962463,-0.00049519,0.00164071,-0.00404175,0.00475323,-0.0036077,-0.914561,0.00484226,0.0441387,685,981,-24.3852,-0.96245
-532,43,-24.4409,1.01129,0.000263283,0.00217565,-0.0052181,0.00652445,-0.00408552,-0.876015,0.00617938,0.0445593,692,981,-24.4409,-1.01127
-525,43,-24.5363,0.766296,-0.000767123,0.00335142,-0.0081205,0.00966968,-0.00708538,-0.909575,0.00971182,0.0422642,699,981,-24.5363,-0.766282
-518,43,0,0,0,0,0,0,0,0,0,-1,706,981,0,0
-511,43,0,0,0,0,0,0,0,0,0,-1,713,981,0,0
-504,43,0,0,0,0,0,0,0,0,0,-1,720,981,0,0
-497,43,0,0,0,0,0,0,0,0,0,-1,727,981,0,0
-490,43,0,0,0,0,0,0,0,0,0,-1,734,981,0,0
-483,43,0,0,0,0,0,0,0,0,0,-1,741,981,0,0
-476,43,0,0,0,0,0,0,0,0,0,-1,748,981,0,0
-469,43,0,0,0,0,0,0,0,0,0,-1,755,981,0,0
-462,43,0,0,0,0,0,0,0,0,0,-1,762,981,0,0
-455,43,0,0,0,0,0,0,0,0,0,-1,769,981,0,0
-448,43,0,0,0,0,0,0,0,0,0,-1,776,981,0,0
-441,43,0,0,0,0,0,0,0,0,0,-1,783,981,0,0
-434,43,0,0,0,0,0,0,0,0,0,-1,790,981,0,0
-427,43,0,0,0,0,0,0,0,0,0,-1,797,981,0,0
-420,43,0,0,0,0,0,0,0,0,0,-1,804,981,0,0
-413,43,0,0,0,0,0,0,0,0,0,-1,811,981,0,0
-406,43,0,0,0,0,0,0,0,0,0,-1,818,981,0,0
-399,43,0,0,0,0,0,0,0,0,0,-1,825,981,0,0
-392,43,0,0,0,0,0,0,0,0,0,-1,832,981,0,0
-385,43,0,0,0,0,0,0,0,0,0,-1,839,981,0,0
-378,43,0,0,0,0,0,0,0,0,0,-1,846,981,0,0
-371,43,0,0,0,0,0,0,0,0,0,-1,853,981,0,0
-364,43,0,0,0,0,0,0,0,0,0,-1,860,981,0,0
-357,43,0,0,0,0,0,0,0,0,0,-1,867,981,0,0
-350,43,0,0,0,0,0,0,0,0,0,-1,874,981,0,0
-343,43,0,0,0,0,0,0,0,0,0,-1,881,981,0,0
-336,43,0,0,0,0,0,0,0,0,0,-1,888,981,0,0
-329,43,0,0,0,0,0,0,0,0,0,-1,895,981,0,0
-322,43,0,0,0,0,0,0,0,0,0,-1,902,981,0,0
-315,43,0,0,0,0,0,0,0,0,0,-1,909,981,0,0
-308,43,0,0,0,0,0,0,0,0,0,-1,916,981,0,0
-301,43,0,0,0,0,0,0,0,0,0,-1,923,981,0,0
-294,43,0,0,0,0,0,0,0,0,0,-1,930,981,0,0
-287,43,0,0,0,0,0,0,0,0,0,-1,937,981,0,0
-280,43,0,0,0,0,0,0,0,0,0,-1,944,981,0,0
-273,43,0,0,0,0,0,0,0,0,0,-1,951,981,0,0
-266,43,0,0,0,0,0,0,0,0,0,-1,958,981,0,0
-259,43,0,0,0,0,0,0,0,0,0,-1,965,981,0,0
-252,43,0,0,0,0,0,0,0,0,0,-1,972,981,0,0
-245,43,0,0,0,0,0,0,0,0,0,-1,979,981,0,0
-238,43,0,0,0,0,0,0,0,0,0,-1,986,981,0,0
-231,43,0,0,0,0,0,0,0,0,0,-1,993,981,0,0
-224,43,0,0,0,0,0,0,0,0,0,-1,1000,981,0,0
-217,43,0,0,0,0,0,0,0,0,0,-1,1007,981,0,0
-210,43,0,0,0,0,0,0,0,0,0,-1,1014,981,0,0
-203,43,0,0,0,0,0,0,0,0,0,-1,1021,981,0,0
-196,43,0,0,0,0,0,0,0,0,0,-1,1028,981,0,0
-189,43,0,0,0,0,0,0,0,0,0,-1,1035,981,0,0
-182,43,0,0,0,0,0,0,0,0,0,-1,1042,981,0,0
-175,43,0,0,0,0,0,0,0,0,0,-1,1049,981,0,0
-168,43,0,0,0,0,0,0,0,0,0,-1,1056,981,0,0
-161,43,0,0,0,0,0,0,0,0,0,-1,1063,981,0,0
-154,43,0,0,0,0,0,0,0,0,0,-1,1070,981,0,0
-147,43,0,0,0,0,0,0,0,0,0,-1,1077,981,0,0
-140,43,0,0,0,0,0,0,0,0,0,-1,1084,981,0,0
-133,43,0,0,0,0,0,0,0,0,0,-1,1091,981,0,0
-126,43,0,0,0,0,0,0,0,0,0,-1,1098,981,0,0
-119,43,0,0,0,0,0,0,0,0,0,-1,1105,981,0,0
-112,43,0,0,0,0,0,0,0,0,0,-1,1112,981,0,0
-105,43,0,0,0,0,0,0,0,0,0,-1,1119,981,0,0
-98,43,0,0,0,0,0,0,0,0,0,-1,1126,981,0,0
-91,43,0,0,0,0,0,0,0,0,0,-1,1133,981,0,0
-84,43,0,0,0,0,0,0,0,0,0,-1,1140,981,0,0
-77,43,0,0,0,0,0,0,0,0,0,-1,1147,981,0,0
-70,43,0,0,0,0,0,0,0,0,0,-1,1154,981,0,0
-63,43,0,0,0,0,0,0,0,0,0,-1,1161,981,0,0
-56,43,0,0,0,0,0,0,0,0,0,-1,1168,981,0,0
-49,43,0,0,0,0,0,0,0,0,0,-1,1175,981,0,0
-42,43,0,0,0,0,0,0,0,0,0,-1,1182,981,0,0
-35,43,0,0,0,0,0,0,0,0,0,-1,1189,981,0,0
-28,43,0,0,0,0,0,0,0,0,0,-1,1196,981,0,0
-21,43,0,0,0,0,0,0,0,0,0,-1,1203,981,0,0
-14,43,0,0,0,0,0,0,0,0,0,-1,1210,981,0,0
-7,43,0,0,0,0,0,0,0,0,0,-1,1217,981,0,0
0,43,0,0,0,0,0,0,0,0,0,-1,1224,981,0,0
7,43,0,0,0,0,0,0,0,0,0,-1,1231,981,0,0
14,43,0,0,0,0,0,0,0,0,0,-1,1238,981,0,0
21,43,0,0,0,0,0,0,0,0,0,-1,1245,981,0,0
28,43,0,0,0,0,0,0,0,0,0,-1,1252,981,0,0
35,43,0,0,0,0,0,0,0,0,0,-1,1259,981,0,0
42,43,0,0,0,0,0,0,0,0,0,-1,1266,981,0,0
49,43,0,0,0,0,0,0,0,0,0,-1,1273,981,0,0
56,43,0,0,0,0,0,0,0,0,0,-1,1280,981,0,0
63,43,0,0,0,0,0,0,0,0,0,-1,1287,981,0,0
70,43,0,0,0,0,0,0,0,0,0,-1,1294,981,0,0
77,43,0,0,0,0,0,0,0,0,0,-1,1301,981,0,0
84,43,0,0,0,0,0,0,0,0,0,-1,1308,981,0,0
91,43,0,0,0,0,0,0,0,0,0,-1,1315,981,0,0
98,43,0,0,0,0,0,0,0,0,0,-1,1322,981,0,0
105,43,0,0,0,0,0,0,0,0,0,-1,1329,981,0,0
112,43,0,0,0,0,0,0,0,0,0,-1,1336,981,0,0
119,43,0,0,0,0,0,0,0,0,0,-1,1343,981,0,0
126,43,0,0,0,0,0,0,0,0,0,-1,1350,981,0,0
133,43,0,0,0,0,0,0,0,0,0,-1,1357,981,0,0
140,43,0,0,0,0,0,0,0,0,0,-1,1364,981,0,0
147,43,0,0,0,0,0,0,0,0,0,-1,1371,981,0,0
154,43,0,0,0,0,0,0,0,0,0,-1,1378,981,0,0
161,43,0,0,0,0,0,0,0,0,0,-1,1385,981,0,0
168,43,0,0,0,0,0,0,0,0,0,-1,1392,981,0,0
175,43,0,0,0,0,0,0,0,0,0,-1,1399,981,0,0
182,43,0,0,0,0,0,0,0,0,0,-1,1406,981,0,0
189,43,0,0,0,0,0,0,0,0,0,-1,1413,981,0,0
196,43,0,0,0,0,0,0,0,0,0,-1,1420,981,0,0
203,43,0,0,0,0,0,0,0,0,0,-1,1427,981,0,0
210,43,0,0,0,0,0,0,0,0,0,-1,1434,981,0,0
217,43,0,0,0,0,0,0,0,0,0,-1,1441,981,0,0
224,43,0,0,0,0,0,0,0,0,0,-1,1448,981,0,0
231,43,0,0,0,0,0,0,0,0,0,-1,1455,981,0,0
238,43,0,0,0,0,0,0,0,0,0,-1,1462,981,0,0
245,43,0,0,0,0,0,0,0,0,0,-1,1469,981,0,0
252,43,0,0,0,0,0,0,0,0,0,-1,1476,981,0,0
259,43,0,0,0,0,0,0,0,0,0,-1,1483,981,0,0
266,43,0,0,0,0,0,0,0,0,0,-1,1490,981,0,0
273,43,0,0,0,0,0,0,0,0,0,-1,1497,981,0,0
280,43,0,0,0,0,0,0,0,0,0,-1,1504,981,0,0
287,43,0,0,0,0,0,0,0,0,0,-1,1511,981,0,0
294,43,0,0,0,0,0,0,0,0,0,-1,1518,981,0,0
301,43,0,0,0,0,0,0,0,0,0,-1,1525,981,0,0
308,43,0,0,0,0,0,0,0,0,0,-1,1532,981,0,0
315,43,0,0,0,0,0,0,0,0,0,-1,1539,981,0,0
322,43,0,0,0,0,0,0,0,0,0,-1,1546,981,0,0
329,43,0,0,0,0,0,0,0,0,0,-1,1553,981,0,0
336,43,0,0,0,0,0,0,0,0,0,-1,1560,981,0,0
343,43,0,0,0,0,0,0,0,0,0,-1,1567,981,0,0
350,43,0,0,0,0,0,0,0,0,0,-1,1574,981,0,0
357,43,0,0,0,0,0,0,0,0,0,-1,1581,981,0,0
364,43,0,0,0,0,0,0,0,0,0,-1,1588,981,0,0
371,43,0,0,0,0,0,0,0,0,0,-1,1595,981,0,0
378,43,0,0,0,0,0,0,0,0,0,-1,1602,981,0,0
385,43,0,0,0,0,0,0,0,0,0,-1,1609,981,0,0
392,43,0,0,0,0,0,0,0,0,0,-1,1616,981,0,0
399,43,0,0,0,0,0,0,0,0,0,-1,1623,981,0,0
406,43,0,0,0,0,0,0,0,0,0,-1,1630,981,0,0
413,43,0,0,0,0,0,0,0,0,0,-1,1637,981,0,0
420,43,0,0,0,0,0,0,0,0,0,-1,1644,981,0,0
427,43,0,0,0,0,0,0,0,0,0,-1,1651,981,0,0
434,43,0,0,0,0,0,0,0,0,0,-1,1658,981,0,0
441,43,0,0,0,0,0,0,0,0,0,-1,1665,981,0,0
448,43,0,0,0,0,0,0,0,0,0,-1,1672,981,0,0
455,43,0,0,0,0,0,0,0,0,0,-1,1679,981,0,0
462,43,0,0,0,0,0,0,0,0,0,-1,1686,981,0,0
469,43,0,0,0,0,0,0,0,0,0,-1,1693,981,0,0
476,43,0,0,0,0,0,0,0,0,0,-1,1700,981,0,0
483,43,0,0,0,0,0,0,0,0,0,-1,1707,981,0,0
490,43,0,0,0,0,0,0,0,0,0,-1,1714,981,0,0
497,43,0,0,0,0,0,0,0,0,0,-1,1721,981,0,0
504,43,0,0,0,0,0,0,0,0,0,-1,1728,981,0,0
511,43,0,0,0,0,0,0,0,0,0,-1,1735,981,0,0
518,43,0,0,0,0,0,0,0,0,0,-1,1742,981,0,0
525,43,0,0,0,0,0,0,0,0,0,-1,1749,981,0,0
532,43,0,0,0,0,0,0,0,0,0,-1,1756,981,0,0
539,43,0,0,0,0,0,0,0,0,0,-1,1763,981,0,0
546,43,0,0,0,0,0,0,0,0,0,-1,1770,981,0,0
553,43,0,0,0,0,0,0,0,0,0,-1,1777,981,0,0
560,43,0,0,0,0,0,0,0,0,0,-1,1784,981,0,0
567,43,0,0,0,0,0,0,0,0,0,-1,1791,981,0,0
574,43,0,0,0,0,0,0,0,0,0,-1,1798,981,0,0
581,43,0,0,0,0,0,0,0,0,0,-1,1805,981,0,0
588,43,0,0,0,0,0,0,0,0,0,-1,1812,981,0,0
595,43,0,0,0,0,0,0,0,0,0,-1,1819,981,0,0
602,43,0,0,0,0,0,0,0,0,0,-1,1826,981,0,0
609,43,0,0,0,0,0,0,0,0,0,-1,1833,981,0,0
616,43,0,0,0,0,0,0,0,0,0,-1,1840,981,0,0
623,43,0,0,0,0,0,0,0,0,0,-1,1847,981,0,0
630,43,0,0,0,0,0,0,0,0,0,-1,1854,981,0,0
637,43,0,0,0,0,0,0,0,0,0,-1,1861,981,0,0
644,43,33.9913,2.77216,0.00799618,0.000720981,0.00188067,0.00845358,0.000263579,0.23858,0.00554995,0.0386242,1868,981,33.9913,-2.77214
651,43,34.0599,2.71185,0.00649239,0.000378288,0.00126284,0.00674296,0.000127723,0.19587,0.00445334,0.0393424,1875,981,34.06,-2.71188
658,43,34.2288,2.62195,0.00496429,0.000149857,0.00100476,0.00516557,-5.14195e-05,0.197706,0.00346098,0.038513,1882,981,34.2287,-2.62193
665,43,34.2894,2.57184,0.00342411,0.000107737,0.00121694,0.00382274,-0.000290898,0.316557,0.00265079,0.0366497,1889,981,34.2895,-2.57182
672,43,34.3208,2.54285,0.00182732,0.000180232,0.00177565,0.00296111,-0.000953561,0.568264,0.00235712,0.037753,1896,981,34.3209,-2.54287
679,43,34.243,2.69751,0.000356735,0.000322451,0.00251335,0.002853,-0.00217382,0.781988,0.00291105,0.037024,1903,981,34.2431,-2.69753
686,43,34.1968,2.77191,-0.000617848,0.000355455,0.00311284,0.00301946,-0.00328185,0.862939,0.00363912,0.0358613,1910,981,34.1968,-2.77189
693,43,34.1125,2.73407,-0.001261,0.000392689,0.0035017,0.00316384,-0.00403215,0.901338,0.00416468,0.035263,1917,981,34.1125,-2.73404
700,43,34.071,2.72565,-0.0018459,0.000496878,0.00357289,0.0030855,-0.00443453,0.943804,0.00436492,0.0305014,1924,981,34.0711,-2.72568
707,43,34.1643,2.75067,-0.00236806,0.000730001,0.00350978,0.00301738,-0.00465544,0.993216,0.00446343,0.0261725,1931,981,34.1643,-2.75067
714,43,34.1422,2.9361,0,0,0,0,0,0,0,-1,1938,981,34.1422,-2.93612
721,43,33.4415,4.25342,0,0,0,0,0,0,0,-1,1945,981,33.4416,-4.25341
728,43,33.3607,4.5047,-0.00383164,0.00195625,0.00318368,0.00336472,-0.00524011,1.15428,0.00500717,0.0209712,1952,981,33.3608,-4.50473
735,43,33.2588,4.72424,-0.00393716,0.00262903,0.00290391,0.00372902,-0.00503715,1.2087,0.0050799,0.0139736,1959,981,33.2588,-4.72426
742,43,33.2731,4.8457,-0.00413509,0.00336041,0.00237241,0.00404819,-0.00482287,1.28862,0.00512822,0.0151155,1966,981,33.2731,-4.84569
749,43,33.2737,4.97961,-0.00456666,0.0043758,0.0018204,0.00473217,-0.00492303,1.37747,0.0055748,0.0173889,1973,981,33.2736,-4.97962
756,43,33.265,5.11865,-0.00504107,0.00568379,0.00128304,0.00583515,-0.00519242,1.45337,0.00637038,0.017073,1980,981,33.265,-5.11866
763,43,33.2509,5.25153,-0.00556755,0.00739629,0.00096491,0.00746772,-0.00563897,1.49691,0.00759166,0.0199775,1987,981,33.2508,-5.2515
770,43,33.1643,5.45471,-0.00606242,0.00953996,0.00103992,0.00960897,-0.00613142,1.50454,0.00916135,0.0167459,1994,981,33.1643,-5.45471
777,43,33.0839,5.59808,-0.00654208,0.0119181,0.00132701,0.012013,-0.00663698,1.4994,0.0109157,0.0208212,2001,981,33.0839,-5.59807
784,43,32.7145,6.07697,-0.0069043,0.01456,0.00172527,0.0146977,-0.00704209,1.4911,0.0128083,0.0398836,2008,981,32.7144,-6.07699
791,43,32.2203,6.56433,0,0,0,0,0,0,0,-1,2015,981,32.2204,-6.56436
798,43,31.8989,6.82849,0,0,0,0,0,0,0,-1,2022,981,31.8989,-6.82851
805,43,31.8196,5.84082,0,0,0,0,0,0,0,-1,2029,981,31.8196,-5.8408
812,43,31.7224,6.03149,0,0,0,0,0,0,0,-1,2036,981,31.7225,-6.03146
-700,36,0,0,0,0,0,0,0,0,0,-1,524,988,0,0
-693,36,-22.2266,3.8595,0,0,0,0,0,0,0,-1,531,988,-22.2266,-3.8595
-686,36,-24.012,2.28192,0,0,0,0,0,0,0,-1,538,988,-24.012,-2.28193
-679,36,-25.0944,2.05975,0,0,0,0,0,0,0,-1,545,988,-25.0944,-2.05973
-672,36,-27.1114,1.69238,-0.0575268,0.0359669,-0.00504852,0.0362387,-0.0577986,-1.51701,0.054766,0.0455872,552,988,-27.1114,-1.69236
-665,36,-27.7585,1.77502,-0.0449066,0.0326551,-0.00119532,0.0326735,-0.044925,-1.55539,0.0449873,0.0481691,559,988,-27.7585,-1.77504
-658,36,-24.3679,2.76276,0,0,0,0,0,0,0,-1,566,988,-24.3678,-2.76273
-651,36,-24.4193,2.67987,-0.0251815,0.0246163,0.00302811,0.0247998,-0.0253649,1.51029,0.0289632,0.0383899,573,988,-24.4193,-2.67986
-644,36,-24.5046,2.59357,-0.0178907,0.0202414,0.00357038,0.0205728,-0.0182221,1.47824,0.022412,0.022189,580,988,-24.5046,-2.59354
-637,36,-24.527,2.54132,-0.0115583,0.0160226,0.00346348,0.0164509,-0.0119866,1.44777,0.0164857,0.0176522,587,988,-24.527,-2.54133
-630,36,-24.4991,2.50818,-0.00657957,0.012607,0.00284033,0.0130187,-0.00699121,1.42687,0.0117261,0.0145764,594,988,-24.4991,-2.50821
-623,36,-24.5237,2.40906,-0.0047565,0.00922977,0.000605695,0.00925595,-0.00478268,1.5276,0.00824123,0.0126536,601,988,-24.5238,-2.40905
-616,36,-24.5245,2.28943,-0.00317961,0.00623965,-0.0014904,0.00646985,-0.0034098,-1.41755,0.0057945,0.00996649,608,988,-24.5246,-2.28945
-609,36,-24.4989,2.19171,-0.00225709,0.00406839,-0.0030932,0.00532954,-0.00351824,-1.18365,0.00514382,0.0144279,615,988,-24.4989,-2.19172
-602,36,-24.4761,2.12585,-0.00194478,0.00297869,-0.00461011,0.00574316,-0.00470926,-1.03063,0.00604454,0.0196867,622,988,-24.4761,-2.12582
-595,36,-24.4586,2.00317,-0.00173934,0.00140618,-0.0056642,0.00571192,-0.00604508,-0.92082,0.00678882,0.0203502,629,988,-24.4586,-2.00319
-588,36,-24.4807,1.51691,-0.00168002,0.000931928,-0.0062012,0.00596319,-0.00671128,-0.889182,0.00732185,0.0210013,636,988,-24.4806,-1.51689
-581,36,-24.5327,0.934814,-0.00175677,0.000707967,-0.00636598,0.00595976,-0.00700857,-0.881009,0.00749543,0.0254373,643,988,-24.5327,-0.934831
-574,36,-24.5767,0.818054,-0.00175618,0.000647649,-0.00644083,0.00599775,-0.00710628,-0.877641,0.00757463,0.0268323,650,988,-24.5767,-0.818068
-567,36,-24.6227,0.775574,-0.00173565,0.000746783,-0.00599434,0.00562707,-0.00661593,-0.887488,0.00707618,0.0338854,657,988,-24.6227,-0.775602
-560,36,-24.6265,0.941284,-0.00161239,0.000923128,-0.00529834,0.00510327,-0.00579252,-0.902828,0.00629488,0.0388151,664,988,-24.6265,-0.941291
-553,36,-24.6019,1.03784,-0.00137848,0.00117258,-0.00452001,0.00459358,-0.00479949,-0.92292,0.00542353,0.0427566,671,988,-24.6019,-1.03783
-546,36,-24.4418,0.903137,-0.00104814,0.00145176,-0.00381858,0.00421976,-0.00381614,-0.943569,0.00464147,0.0449172,678,988,-24.4418,-0.903117
-539,36,-24.1954,1.16858,-0.000617757,0.00173603,-0.00362671,0.00437202,-0.00325375,-0.942291,0.00441849,0.0457746,685,988,-24.1955,-1.16859
-532,36,-24.2413,1.26257,-0.000550762,0.00240014,-0.00491412,0.00605554,-0.00420615,-0.93124,0.00595657,0.0474747,692,988,-24.2413,-1.26256
-525,36,-24.3472,0.726624,-0.00228911,0.00380916,-0.00801202,0.00933264,-0.00781259,-0.967221,0.00991176,0.046111,699,988,-24.3472,-0.726604
-518,36,0,0,0,0,0,0,0,0,0,-1,706,988,0,0
-511,36,0,0,0,0,0,0,0,0,0,-1,713,988,0,0
-504,36,0,0,0,0,0,0,0,0,0,-1,720,988,0,0
-497,36,0,0,0,0,0,0,0,0,0,-1,727,988,0,0
-490,36,0,0,0,0,0,0,0,0,0,-1,734,988,0,0
-483,36,0,0,0,0,0,0,0,0,0,-1,741,988,0,0
-476,36,0,0,0,0,0,0,0,0,0,-1,748,988,0,0
-469,36,0,0,0,0,0,0,0,0,0,-1,755,988,0,0
-462,36,0,0,0,0,0,0,0,0,0,-1,762,988,0,0
-455,36,0,0,0,0,0,0,0,0,0,-1,769,988,0,0
-448,36,0,0,0,0,0,0,0,0,0,-1,776,988,0,0
-441,36,0,0,0,0,0,0,0,0,0,-1,783,988,0,0
-434,36,0,0,0,0,0,0,0,0,0,-1,790,988,0,0
-427,36,0,0,0,0,0,0,0,0,0,-1,797,988,0,0
-420,36,0,0,0,0,0,0,0,0,0,-1,804,988,0,0
-413,36,0,0,0,0,0,0,0,0,0,-1,811,988,0,0
-406,36,0,0,0,0,0,0,0,0,0,-1,818,988,0,0
-399,36,0,0,0,0,0,0,0,0,0,-1,825,988,0,0
-392,36,0,0,0,0,0,0,0,0,0,-1,832,988,0,0
-385,36,0,0,0,0,0,0,0,0,0,-1,839,988,0,0
-378,36,0,0,0,0,0,0,0,0,0,-1,846,988,0,0
-371,36,0,0,0,0,0,0,0,0,0,-1,853,988,0,0
-364,36,0,0,0,0,0,0,0,0,0,-1,860,988,0,0
-357,36,0,0,0,0,0,0,0,0,0,-1,867,988,0,0
-350,36,0,0,0,0,0,0,0,0,0,-1,874,988,0,0
-343,36,0,0,0,0,0,0,0,0,0,-1,881,988,0,0
-336,36,0,0,0,0,0,0,0,0,0,-1,888,988,0,0
-329,36,0,0,0,0,0,0,0,0,0,-1,895,988,0,0
-322,36,0,0,0,0,0,0,0,0,0,-1,902,988,0,0
-315,36,0,0,0,0,0,0,0,0,0,-1,909,988,0,0
-308,36,0,0,0,0,0,0,0,0,0,-1,916,988,0,0
-301,36,0,0,0,0,0,0,0,0,0,-1,923,988,0,0
-294,36,0,0,0,0,0,0,0,0,0,-1,930,988,0,0
-287,36,0,0,0,0,0,0,0,0,0,-1,937,988,0,0
-280,36,0,0,0,0,0,0,0,0,0,-1,944,988,0,0
-273,36,0,0,0,0,0,0,0,0,0,-1,951,988,0,0
-266,36,0,0,0,0,0,0,0,0,0,-1,958,988,0,0
-259,36,0,0,0,0,0,0,0,0,0,-1,965,988,0,0
-252,36,0,0,0,0,0,0,0,0,0,-1,972,988,0,0
-245,36,0,0,0,0,0,0,0,0,0,-1,979,988,0,0
-238,36,0,0,0,0,0,0,0,0,0,-1,986,988,0,0
-231,36,0,0,0,0,0,0,0,0,0,-1,993,988,0,0
-224,36,0,0,0,0,0,0,0,0,0,-1,1000,988,0,0
-217,36,0,0,0,0,0,0,0,0,0,-1,1007,988,0,0
-210,36,0,0,0,0,0,0,0,0,0,-1,1014,988,0,0
-203,36,0,0,0,0,0,0,0,0,0,-1,1021,988,0,0
-196,36,0,0,0,0,0,0,0,0,0,-1,1028,988,0,0
-189,36,0,0,0,0,0,0,0,0,0,-1,1035,988,0,0
-182,36,0,0,0,0,0,0,0,0,0,-1,1042,988,0,0
-175,36,0,0,0,0,0,0,0,0,0,-1,1049,988,0,0
-168,36,0,0,0,0,0,0,0,0,0,-1,1056,988,0,0
-161,36,0,0,0,0,0,0,0,0,0,-1,1063,988,0,0
-154,36,0,0,0,0,0,0,0,0,0,-1,1070,988,0,0
-147,36,0,0,0,0,0,0,0,0,0,-1,1077,988,0,0
-140,36,0,0,0,0,0,0,0,0,0,-1,1084,988,0,0
-133,36,0,0,0,0,0,0,0,0,0,-1,1091,988,0,0
-126,36,0,0,0,0,0,0,0,0,0,-1,1098,988,0,0
-119,36,0,0,0,0,0,0,0,0,0,-1,1105,988,0,0
-112,36,0,0,0,0,0,0,0,0,0,-1,1112,988,0,0
-105,36,0,0,0,0,0,0,0,0,0,-1,1119,988,0,0
-98,36,0,0,0,0,0,0,0,0,0,-1,1126,988,0,0
-91,36,0,0,0,0,0,0,0,0,0,-1,1133,988,0,0
-84,36,0,0,0,0,0,0,0,0,0,-1,1140,988,0,0
-77,36,0,0,0,0,0,0,0,0,0,-1,1147,988,0,0
-70,36,0,0,0,0,0,0,0,0,0,-1,1154,988,0,0
-63,36,0,0,0,0,0,0,0,0,0,-1,1161,988,0,0
-56,36,0,0,0,0,0,0,0,0,0,-1,1168,988,0,0
-49,36,0,0,0,0,0,0,0,0,0,-1,1175,988,0,0
-42,36,0,0,0,0,0,0,0,0,0,-1,1182,988,0,0
-35,36,0,0,0,0,0,0,0,0,0,-1,1189,988,0,0
-28,36,0,0,0,0,0,0,0,0,0,-1,1196,988,0,0
-21,36,0,0,0,0,0,0,0,0,0,-1,1203,988,0,0
-14,36,0,0,0,0,0,0,0,0,0,-1,1210,988,0,0
-7,36,0,0,0,0,0,0,0,0,0,-1,1217,988,0,0
0,36,0,0,0,0,0,0,0,0,0,-1,1224,988,0,0
7,36,0,0,0,0,0,0,0,0,0,-1,1231,988,0,0
14,36,0,0,0,0,0,0,0,0,0,-1,1238,988,0,0
21,36,0,0,0,0,0,0,0,0,0,-1,1245,988,0,0
28,36,0,0,0,0,0,0,0,0,0,-1,1252,988,0,0
35,36,0,0,0,0,0,0,0,0,0,-1,1259,988,0,0
42,36,0,0,0,0,0,0,0,0,0,-1,1266,988,0,0
49,36,0,0,0,0,0,0,0,0,0,-1,1273,988,0,0
56,36,0,0,0,0,0,0,0,0,0,-1,1280,988,0,0
63,36,0,0,0,0,0,0,0,0,0,-1,1287,988,0,0
70,36,0,0,0,0,0,0,0,0,0,-1,1294,988,0,0
77,36,0,0,0,0,0,0,0,0,0,-1,1301,988,0,0
84,36,0,0,0,0,0,0,0,0,0,-1,1308,988,0,0
91,36,0,0,0,0,0,0,0,0,0,-1,1315,988,0,0
98,36,0,0,0,0,0,0,0,0,0,-1,1322,988,0,0
105,36,0,0,0,0,0,0,0,0,0,-1,1329,988,0,0
112,36,0,0,0,0,0,0,0,0,0,-1,1336,988,0,0
119,36,0,0,0,0,0,0,0,0,0,-1,1343,988,0,0
126,36,0,0,0,0,0,0,0,0,0,-1,1350,988,0,0
133,36,0,0,0,0,0,0,0,0,0,-1,1357,988,0,0
140,36,0,0,0,0,0,0,0,0,0,-1,1364,988,0,0
147,36,0,0,0,0,0,0,0,0,0,-1,1371,988,0,0
154,36,0,0,0,0,0,0,0,0,0,-1,1378,988,0,0
161,36,0,0,0,0,0,0,0,0,0,-1,1385,988,0,0
168,36,0,0,0,0,0,0,0,0,0,-1,1392,988,0,0
175,36,0,0,0,0,0,0,0,0,0,-1,1399,988,0,0
182,36,0,0,0,0,0,0,0,0,0,-1,1406,988,0,0
189,36,0,0,0,0,0,0,0,0,0,-1,1413,988,0,0
196,36,0,0,0,0,0,0,0,0,0,-1,1420,988,0,0
203,36,0,0,0,0,0,0,0,0,0,-1,1427,988,0,0
210,36,0,0,0,0,0,0,0,0,0,-1,1434,988,0,0
217,36,0,0,0,0,0,0,0,0,0,-1,1441,988,0,0
224,36,0,0,0,0,0,0,0,0,0,-1,1448,988,0,0
231,36,0,0,0,0,0,0,0,0,0,-1,1455,988,0,0
238,36,0,0,0,0,0,0,0,0,0,-1,1462,988,0,0
245,36,0,0,0,0,0,0,0,0,0,-1,1469,988,0,0
252,36,0,0,0,0,0,0,0,0,0,-1,1476,988,0,0
259,36,0,0,0,0,0,0,0,0,0,-1,1483,988,0,0
266,36,0,0,0,0,0,0,0,0,0,-1,1490,988,0,0
273,36,0,0,0,0,0,0,0,0,0,-1,1497,988,0,0
280,36,0,0,0,0,0,0,0,0,0,-1,1504,988,0,0
287,36,0,0,0,0,0,0,0,0,0,-1,1511,988,0,0
294,36,0,0,0,0,0,0,0,0,0,-1,1518,988,0,0
301,36,0,0,0,0,0,0,0,0,0,-1,1525,988,0,0
308,36,0,0,0,0,0,0,0,0,0,-1,1532,988,0,0
315,36,0,0,0,0,0,0,0,0,0,-1,1539,988,0,0
322,36,0,0,0,0,0,0,0,0,0,-1,1546,988,0,0
329,36,0,0,0,0,0,0,0,0,0,-1,1553,988,0,0
336,36,0,0,0,0,0,0,0,0,0,-1,1560,988,0,0
343,36,0,0,0,0,0,0,0,0,0,-1,1567,988,0,0
350,36,0,0,0,0,0,0,0,0,0,-1,1574,988,0,0
357,36,0,0,0,0,0,0,0,0,0,-1,1581,988,0,0
364,36,0,0,0,0,0,0,0,0,0,-1,1588,988,0,0
371,36,0,0,0,0,0,0,0,0,0,-1,1595,988,0,0
378,36,0,0,0,0,0,0,0,0,0,-1,1602,988,0,0
385,36,0,0,0,0,0,0,0,0,0,-1,1609,988,0,0
392,36,0,0,0,0,0,0,0,0,0,-1,1616,988,0,0
399,36,0,0,0,0,0,0,0,0,0,-1,1623,988,0,0
406,36,0,0,0,0,0,0,0,0,0,-1,1630,988,0,0
413,36,0,0,0,0,0,0,0,0,0,-1,1637,988,0,0
420,36,0,0,0,0,0,0,0,0,0,-1,1644,988,0,0
427,36,0,0,0,0,0,0,0,0,0,-1,1651,988,0,0
434,36,0,0,0,0,0,0,0,0,0,-1,1658,988,0,0
441,36,0,0,0,0,0,0,0,0,0,-1,1665,988,0,0
448,36,0,0,0,0,0,0,0,0,0,-1,1672,988,0,0
455,36,0,0,0,0,0,0,0,0,0,-1,1679,988,0,0
462,36,0,0,0,0,0,0,0,0,0,-1,1686,988,0,0
469,36,0,0,0,0,0,0,0,0,0,-1,1693,988,0,0
476,36,0,0,0,0,0,0,0,0,0,-1,1700,988,0,0
483,36,0,0,0,0,0,0,0,0,0,-1,1707,988,0,0
490,36,0,0,0,0,0,0,0,0,0,-1,1714,988,0,0
497,36,0,0,0,0,0,0,0,0,0,-1,1721,988,0,0
504,36,0,0,0,0,0,0,0,0,0,-1,1728,988,0,0
511,36,0,0,0,0,0,0,0,0,0,-1,1735,988,0,0
518,36,0,0,0,0,0,0,0,0,0,-1,1742,988,0,0
525,36,0,0,0,0,0,0,0,0,0,-1,1749,988,0,0
532,36,0,0,0,0,0,0,0,0,0,-1,1756,988,0,0
539,36,0,0,0,0,0,0,0,0,0,-1,1763,988,0,0
546,36,0,0,0,0,0,0,0,0,0,-1,1770,988,0,0
553,36,0,0,0,0,0,0,0,0,0,-1,1777,988,0,0
560,36,0,0,0,0,0,0,0,0,0,-1,1784,988,0,0
567,36,0,0,0,0,0,0,0,0,0,-1,1791,988,0,0
574,36,0,0,0,0,0,0,0,0,0,-1,1798,988,0,0
581,36,0,0,0,0,0,0,0,0,0,-1,1805,988,0,0
588,36,0,0,0,0,0,0,0,0,0,-1,1812,988,0,0
595,36,0,0,0,0,0,0,0,0,0,-1,1819,988,0,0
602,36,0,0,0,0,0,0,0,0,0,-1,1826,988,0,0
609,36,0,0,0,0,0,0,0,0,0,-1,1833,988,0,0
616,36,0,0,0,0,0,0,0,0,0,-1,1840,988,0,0
623,36,0,0,0,0,0,0,0,0,0,-1,1847,988,0,0
630,36,0,0,0,0,0,0,0,0,0,-1,1854,988,0,0
637,36,0,0,0,0,0,0,0,0,0,-1,1861,988,0,0
644,36,34.0475,2.66553,0.00870262,0.000757052,0.00230279,0.00932177,0.000137904,0.262657,0.00616906,0.0409114,1868,988,34.0475,-2.66552
651,36,34.0012,2.86542,0.00700333,0.000398014,0.00156689,0.00735617,4.51708e-05,0.221493,0.00488913,0.0424933,1875,988,34.0012,-2.86543
658,36,34.235,2.82819,0.00531976,0.000165376,0.0011798,0.00557698,-9.18384e-05,0.214655,0.00374897,0.0394469,1882,988,34.235,-2.82819
665,36,34.4528,2.7124,0.00367199,0.000134188,0.00127378,0.00408289,-0.000276712,0.312044,0.00281869,0.0352954,1889,988,34.4527,-2.71241
672,36,34.3582,2.65656,0.00199239,0.000242662,0.00173668,0.00306212,-0.000827067,0.552074,0.00236579,0.0362306,1896,988,34.3582,-2.65655
679,36,34.2443,2.69708,0.000424375,0.000472521,0.00243689,0.00288545,-0.00198856,0.790337,0.00282985,0.0369413,1903,988,34.2443,-2.69711
686,36,34.1808,2.77655,-0.00060803,0.000566958,0.00303317,0.003069,-0.00311008,0.881059,0.00356752,0.0356577,1910,988,34.1807,-2.77658
693,36,34.0895,2.84106,-0.00127333,0.000655512,0.00344276,0.00326638,-0.0038842,0.921963,0.00413352,0.0390216,1917,988,34.0895,-2.84104
700,36,34.0621,2.84589,-0.00184028,0.00077418,0.00354562,0.00324588,-0.00431198,0.962011,0.00437797,0.0359047,1924,988,34.0621,-2.84591
707,36,34.1332,2.76624,-0.00235763,0.00100014,0.00352553,0.00322613,-0.00458361,1.00761,0.00453161,0.0260887,1931,988,34.1332,-2.76622
714,36,34.1176,3.1095,-0.00291078,0.00128367,0.00345106,0.00322478,-0.0048519,1.05843,0.00469451,0.03095,1938,988,34.1175,-3.10947
721,36,33.7217,4.27985,0,0,0,0,0,0,0,-1,1945,988,33.7217,-4.27988
728,36,33.564,4.52863,-0.00390163,0.00224238,0.00324825,0.00364121,-0.00530046,1.16416,0.00519202,0.022387,1952,988,33.5639,-4.52865
735,36,33.4172,4.75153,-0.00410179,0.00286863,0.00298537,0.00397244,-0.0052056,1.21664,0.00531487,0.0185453,1959,988,33.4173,-4.75155
742,36,33.4148,4.84961,-0.00437071,0.0035549,0.0024578,0.0042552,-0.00507102,1.29322,0.00539136,0.01508,1966,988,33.4148,-4.84962
749,36,33.4304,4.98242,-0.00492964,0.00452304,0.00187984,0.00488316,-0.00528976,1.38152,0.0058749,0.0164007,1973,988,33.4304,-4.98243
756,36,33.4017,5.0965,-0.0055725,0.00580726,0.00123821,0.00594043,-0.00570567,1.46366,0.00672433,0.0151734,1980,988,33.4017,-5.09647
763,36,33.3572,5.21582,-0.00634299,0.00750954,0.000685715,0.0075434,-0.00637685,1.52146,0.00804626,0.0165501,1987,988,33.3571,-5.21582
770,36,33.292,5.36792,-0.00715695,0.0097075,0.000411805,0.00971755,-0.007167,1.5464,0.0097853,0.0144758,1994,988,33.292,-5.36793
777,36,33.2507,5.63837,-0.0079589,0.0121711,0.000290468,0.0121753,-0.00796309,1.55637,0.0117114,0.0228432,2001,988,33.2508,-5.63838
784,36,33.1782,6.03137,-0.00868404,0.0149236,0.000159998,0.0149247,-0.00868513,1.56402,0.0137889,0.0447235,2008,988,33.1782,-6.03139
791,36,33.1042,6.41791,0,0,0,0,0,0,0,-1,2015,988,33.1042,-6.41788
798,36,34.2236,5.289,0,0,0,0,0,0,0,-1,2022,988,34.2236,-5.289
805,36,31.1072,3.58014,0,0,0,0,0,0,0,-1,2029,988,31.1071,-3.58013
812,36,30.8352,6.55548,0,0,0,0,0,0,0,-1,2036,988,30.8352,-6.55547
-700,29,0,0,0,0,0,0,0,0,0,-1,524,995,0,0
-693,29,-22.3325,3.48193,-0.100125,0.0384526,-0.0243251,0.0425984,-0.104271,-1.40198,0.0872516,0.0461026,531,995,-22.3325,-3.48191
-686,29,-23.6055,2.35248,-0.0820724,0.0387572,-0.0159222,0.0408201,-0.0841353,-1.44195,0.0735736,0.0426624,538,995,-23.6055,-2.35246
-679,29,-24.6775,2.09869,0,0,0,0,0,0,0,-1,545,995,-24.6775,-2.09869
-672,29,-27.074,1.08398,-0.0532097,0.0350004,-0.00447729,0.035227,-0.0534364,-1.52021,0.0515484,0.0421354,552,995,-27.074,-1.08399
-665,29,-27.3303,1.02606,-0.0415814,0.0318553,-0.000858349,0.0318653,-0.0415914,-1.55911,0.042534,0.0435327,559,995,-27.3303,-1.02605
-658,29,-24.0468,0.554199,0,0,0,0,0,0,0,-1,566,995,-24.0468,-0.554212
-651,29,-24.2774,1.45538,-0.0234615,0.0240388,0.0030362,0.024232,-0.0236548,1.50722,0.0276481,0.0389584,573,995,-24.2774,-1.4554
-644,29,-24.5316,2.26843,-0.0167319,0.0197359,0.00341446,0.0200529,-0.0170489,1.47824,0.0214441,0.0249365,580,995,-24.5316,-2.26846
-637,29,-24.5983,2.43231,-0.010806,0.0156022,0.00312664,0.0159673,-0.0111711,1.45454,0.0157497,0.0165996,587,995,-24.5983,-2.4323
-630,29,-24.608,2.45654,-0.00608782,0.0122619,0.00231184,0.0125487,-0.0063746,1.44738,0.0111175,0.0125825,594,995,-24.608,-2.45652
-623,29,-24.6173,2.40002,-0.00427388,0.00883086,-7.66773e-05,0.00883131,-0.00427433,-1.56495,0.00771751,0.0110454,601,995,-24.6173,-2.40002
-616,29,-24.6176,2.29547,-0.00256184,0.00590078,-0.00229811,0.00648458,-0.00314564,-1.32202,0.00567031,0.012235,608,995,-24.6176,-2.29546
-609,29,-24.6252,2.2146,-0.00145887,0.00367596,-0.00398889,0.00585227,-0.00363517,-1.07134,0.00552721,0.0193493,615,995,-24.6252,-2.21459
-602,29,-24.6188,2.1192,-0.000879067,0.00267061,-0.00552904,0.0067027,-0.00491115,-0.940705,0.0067318,0.0231604,622,995,-24.6188,-2.11922
-595,29,-24.5782,2.00421,-0.000470939,0.00113998,-0.00658005,0.00696368,-0.00629464,-0.8463,0.00765794,0.0212749,629,995,-24.5782,-2.00423
-588,29,-24.5424,1.51929,-0.000286696,0.000711553,-0.00708737,0.00731735,-0.00689249,-0.820552,0.00820528,0.026981,636,995,-24.5424,-1.51926
-581,29,-24.5344,0.986633,-0.000302257,0.000542536,-0.00715452,0.00728712,-0.00704684,-0.814883,0.0082761,0.0368689,643,995,-24.5344,-0.986619
-574,29,-24.5567,0.766907,-0.000321577,0.000533534,-0.00707348,0.00719237,-0.00698041,-0.815584,0.00818296,0.0306445,650,995,-24.5567,-0.766889
-567,29,-24.5995,0.664307,-0.000412776,0.000681036,-0.00642325,0.00658063,-0.00631237,-0.827868,0.00744431,0.0323384,657,995,-24.5996,-0.664329
-560,29,-24.5513,0.778076,-0.000513095,0.00092662,-0.00548307,0.00573689,-0.00532336,-0.850668,0.00638713,0.0370774,664,995,-24.5513,-0.778074
-553,29,-24.5717,0.948181,-0.000645594,0.00123746,-0.00442857,0.00482348,-0.00423162,-0.89014,0.00523168,0.0395856,671,995,-24.5717,-0.948211
-546,29,-24.4479,0.732422,-0.000826479,0.00155248,-0.00343908,0.00400197,-0.00327598,-0.951894,0.00420889,0.0408009,678,995,-24.448,-0.732425
-539,29,-24.2564,0.9422,-0.00103189,0.00182215,-0.00306571,0.0037767,-0.00298643,-1.00322,0.00391357,0.044437,685,995,-24.2564,-0.94217
-532,29,-24.2169,0.954163,-0.00173654,0.00246082,-0.00444568,0.00527829,-0.00455401,-1.00593,0.00568181,0.049428,692,995,-24.2168,-0.954159
-525,29,-24.3173,0.69574,-0.00428351,0.00381816,-0.00768141,0.00845141,-0.00891676,-1.02804,0.0100287,0.0493537,699,995,-24.3173,-0.695743
-518,29,0,0,0,0,0,0,0,0,0,-1,706,995,0,0
-511,29,0,0,0,0,0,0,0,0,0,-1,713,995,0,0
-504,29,0,0,0,0,0,0,0,0,0,-1,720,995,0,0
-497,29,0,0,0,0,0,0,0,0,0,-1,727,995,0,0
-490,29,0,0,0,0,0,0,0,0,0,-1,734,995,0,0
-483,29,0,0,0,0,0,0,0,0,0,-1,741,995,0,0
-476,29,0,0,0,0,0,0,0,0,0,-1,748,995,0,0
-469,29,0,0,0,0,0,0,0,0,0,-1,755,995,0,0
-462,29,0,0,0,0,0,0,0,0,0,-1,762,995,0,0
-455,29,0,0,0,0,0,0,0,0,0,-1,769,995,0,0
-448,29,0,0,0,0,0,0,0,0,0,-1,776,995,0,0
-441,29,0,0,0,0,0,0,0,0,0,-1,783,995,0,0
-434,29,0,0,0,0,0,0,0,0,0,-1,790,995,0,0
-427,29,0,0,0,0,0,0,0,0,0,-1,797,995,0,0
-420,29,0,0,0,0,0,0,0,0,0,-1,804,995,0,0
-413,29,0,0,0,0,0,0,0,0,0,-1,811,995,0,0
-406,29,0,0,0,0,0,0,0,0,0,-1,818,995,0,0
-399,29,0,0,0,0,0,0,0,0,0,-1,825,995,0,0
-392,29,0,0,0,0,0,0,0,0,0,-1,832,995,0,0
-385,29,0,0,0,0,0,0,0,0,0,-1,839,995,0,0
-378,29,0,0,0,0,0,0,0,0,0,-1,846,995,0,0
-371,29,0,0,0,0,0,0,0,0,0,-1,853,995,0,0
-364,29,0,0,0,0,0,0,0,0,0,-1,860,995,0,0
-357,29,0,0,0,0,0,0,0,0,0,-1,867,995,0,0
-350,29,0,0,0,0,0,0,0,0,0,-1,874,995,0,0
-343,29,0,0,0,0,0,0,0,0,0,-1,881,995,0,0
-336,29,0,0,0,0,0,0,0,0,0,-1,888,995,0,0
-329,29,0,0,0,0,0,0,0,0,0,-1,895,995,0,0
-322,29,0,0,0,0,0,0,0,0,0,-1,902,995,0,0
-315,29,0,0,0,0,0,0,0,0,0,-1,909,995,0,0
-308,29,0,0,0,0,0,0,0,0,0,-1,916,995,0,0
-301,29,0,0,0,0,0,0,0,0,0,-1,923,995,0,0
-294,29,0,0,0,0,0,0,0,0,0,-1,930,995,0,0
-287,29,0,0,0,0,0,0,0,0,0,-1,937,995,0,0
-280,29,0,0,0,0,0,0,0,0,0,-1,944,995,0,0
-273,29,0,0,0,0,0,0,0,0,0,-1,951,995,0,0
-266,29,0,0,0,0,0,0,0,0,0,-1,958,995,0,0
-259,29,0,0,0,0,0,0,0,0,0,-1,965,995,0,0
-252,29,0,0,0,0,0,0,0,0,0,-1,972,995,0,0
-245,29,0,0,0,0,0,0,0,0,0,-1,979,995,0,0
-238,29,0,0,0,0,0,0,0,0,0,-1,986,995,0,0
-231,29,0,0,0,0,0,0,0,0,0,-1,993,995,0,0
-224,29,0,0,0,0,0,0,0,0,0,-1,1000,995,0,0
-217,29,0,0,0,0,0,0,0,0,0,-1,1007,995,0,0
-210,29,0,0,0,0,0,0,0,0,0,-1,1014,995,0,0
-203,29,0,0,0,0,0,0,0,0,0,-1,1021,995,0,0
-196,29,0,0,0,0,0,0,0,0,0,-1,1028,995,0,0
-189,29,0,0,0,0,0,0,0,0,0,-1,1035,995,0,0
-182,29,0,0,0,0,0,0,0,0,0,-1,1042,995,0,0
-175,29,0,0,0,0,0,0,0,0,0,-1,1049,995,0,0
-168,29,0,0,0,0,0,0,0,0,0,-1,1056,995,0,0
-161,29,0,0,0,0,0,0,0,0,0,-1,1063,995,0,0
-154,29,0,0,0,0,0,0,0,0,0,-1,1070,995,0,0
-147,29,0,0,0,0,0,0,0,0,0,-1,1077,995,0,0
-140,29,0,0,0,0,0,0,0,0,0,-1,1084,995,0,0
-133,29,0,0,0,0,0,0,0,0,0,-1,1091,995,0,0
-126,29,0,0,0,0,0,0,0,0,0,-1,1098,995,0,0
-119,29,0,0,0,0,0,0,0,0,0,-1,1105,995,0,0
-112,29,0,0,0,0,0,0,0,0,0,-1,1112,995,0,0
-105,29,0,0,0,0,0,0,0,0,0,-1,1119,995,0,0
-98,29,0,0,0,0,0,0,0,0,0,-1,1126,995,0,0
-91,29,0,0,0,0,0,0,0,0,0,-1,1133,995,0,0
-84,29,0,0,0,0,0,0,0,0,0,-1,1140,995,0,0
-77,29,0,0,0,0,0,0,0,0,0,-1,1147,995,0,0
-70,29,0,0,0,0,0,0,0,0,0,-1,1154,995,0,0
-63,29,0,0,0,0,0,0,0,0,0,-1,1161,995,0,0
-56,29,0,0,0,0,0,0,0,0,0,-1,1168,995,0,0
-49,29,0,0,0,0,0,0,0,0,0,-1,1175,995,0,0
-42,29,0,0,0,0,0,0,0,0,0,-1,1182,995,0,0
-35,29,0,0,0,0,0,0,0,0,0,-1,1189,995,0,0
-28,29,0,0,0,0,0,0,0,0,0,-1,1196,995,0,0
-21,29,0,0,0,0,0,0,0,0,0,-1,1203,995,0,0
-14,29,0,0,0,0,0,0,0,0,0,-1,1210,995,0,0
-7,29,0,0,0,0,0,0,0,0,0,-1,1217,995,0,0
0,29,0,0,0,0,0,0,0,0,0,-1,1224,995,0,0
7,29,0,0,0,0,0,0,0,0,0,-1,1231,995,0,0
14,29,0,0,0,0,0,0,0,0,0,-1,1238,995,0,0
21,29,0,0,0,0,0,0,0,0,0,-1,1245,995,0,0
28,29,0,0,0,0,0,0,0,0,0,-1,1252,995,0,0
35,29,0,0,0,0,0,0,0,0,0,-1,1259,995,0,0
42,29,0,0,0,0,0,0,0,0,0,-1,1266,995,0,0
49,29,0,0,0,0,0,0,0,0,0,-1,1273,995,0,0
56,29,0,0,0,0,0,0,0,0,0,-1,1280,995,0,0
63,29,0,0,0,0,0,0,0,0,0,-1,1287,995,0,0
70,29,0,0,0,0,0,0,0,0,0,-1,1294,995,0,0
77,29,0,0,0,0,0,0,0,0,0,-1,1301,995,0,0
84,29,0,0,0,0,0,0,0,0,0,-1,1308,995,0,0
91,29,0,0,0,0,0,0,0,0,0,-1,1315,995,0,0
98,29,0,0,0,0,0,0,0,0,0,-1,1322,995,0,0
105,29,0,0,0,0,0,0,0,0,0,-1,1329,995,0,0
112,29,0,0,0,0,0,0,0,0,0,-1,1336,995,0,0
119,29,0,0,0,0,0,0,0,0,0,-1,1343,995,0,0
126,29,0,0,0,0,0,0,0,0,0,-1,1350,995,0,0
133,29,0,0,0,0,0,0,0,0,0,-1,1357,995,0,0
140,29,0,0,0,0,0,0,0,0,0,-1,1364,995,0,0
147,29,0,0,0,0,0,0,0,0,0,-1,1371,995,0,0
154,29,0,0,0,0,0,0,0,0,0,-1,1378,995,0,0
161,29,0,0,0,0,0,0,0,0,0,-1,1385,995,0,0
168,29,0,0,0,0,0,0,0,0,0,-1,1392,995,0,0
175,29,0,0,0,0,0,0,0,0,0,-1,1399,995,0,0
182,29,0,0,0,0,0,0,0,0,0,-1,1406,995,0,0
189,29,0,0,0,0,0,0,0,0,0,-1,1413,995,0,0
196,29,0,0,0,0,0,0,0,0,0,-1,1420,995,0,0
203,29,0,0,0,0,0,0,0,0,0,-1,1427,995,0,0
210,29,0,0,0,0,0,0,0,0,0,-1,1434,995,0,0
217,29,0,0,0,0,0,0,0,0,0,-1,1441,995,0,0
224,29,0,0,0,0,0,0,0,0,0,-1,1448,995,0,0
231,29,0,0,0,0,0,0,0,0,0,-1,1455,995,0,0
238,29,0,0,0,0,0,0,0,0,0,-1,1462,995,0,0
245,29,0,0,0,0,0,0,0,0,0,-1,1469,995,0,0
252,29,0,0,0,0,0,0,0,0,0,-1,1476,995,0,0
259,29,0,0,0,0,0,0,0,0,0,-1,1483,995,0,0
266,29,0,0,0,0,0,0,0,0,0,-1,1490,995,0,0
273,29,0,0,0,0,0,0,0,0,0,-1,1497,995,0,0
280,29,0,0,0,0,0,0,0,0,0,-1,1504,995,0,0
287,29,0,0,0,0,0,0,0,0,0,-1,1511,995,0,0
294,29,0,0,0,0,0,0,0,0,0,-1,1518,995,0,0
301,29,0,0,0,0,0,0,0,0,0,-1,1525,995,0,0
308,29,0,0,0,0,0,0,0,0,0,-1,1532,995,0,0
315,29,0,0,0,0,0,0,0,0,0,-1,1539,995,0,0
322,29,0,0,0,0,0,0,0,0,0,-1,1546,995,0,0
329,29,0,0,0,0,0,0,0,0,0,-1,1553,995,0,0
336,29,0,0,0,0,0,0,0,0,0,-1,1560,995,0,0
343,29,0,0,0,0,0,0,0,0,0,-1,1567,995,0,0
350,29,0,0,0,0,0,0,0,0,0,-1,1574,995,0,0
357,29,0,0,0,0,0,0,0,0,0,-1,1581,995,0,0
364,29,0,0,0,0,0,0,0,0,0,-1,1588,995,0,0
371,29,0,0,0,0,0,0,0,0,0,-1,1595,995,0,0
378,29,0,0,0,0,0,0,0,0,0,-1,1602,995,0,0
385,29,0,0,0,0,0,0,0,0,0,-1,1609,995,0,0
392,29,0,0,0,0,0,0,0,0,0,-1,1616,995,0,0
399,29,0,0,0,0,0,0,0,0,0,-1,1623,995,0,0
406,29,0,0,0,0,0,0,0,0,0,-1,1630,995,0,0
413,29,0,0,0,0,0,0,0,0,0,-1,1637,995,0,0
420,29,0,0,0,0,0,0,0,0,0,-1,1644,995,0,0
427,29,0,0,0,0,0,0,0,0,0,-1,1651,995,0,0
434,29,0,0,0,0,0,0,0,0,0,-1,1658,995,0,0
441,29,0,0,0,0,0,0,0,0,0,-1,1665,995,0,0
448,29,0,0,0,0,0,0,0,0,0,-1,1672,995,0,0
455,29,0,0,0,0,0,0,0,0,0,-1,1679,995,0,0
462,29,0,0,0,0,0,0,0,0,0,-1,1686,995,0,0
469,29,0,0,0,0,0,0,0,0,0,-1,1693,995,0,0
476,29,0,0,0,0,0,0,0,0,0,-1,1700,995,0,0
483,29,0,0,0,0,0,0,0,0,0,-1,1707,995,0,0
490,29,0,0,0,0,0,0,0,0,0,-1,1714,995,0,0
497,29,0,0,0,0,0,0,0,0,0,-1,1721,995,0,0
504,29,0,0,0,0,0,0,0,0,0,-1,1728,995,0,0
511,29,0,0,0,0,0,0,0,0,0,-1,1735,995,0,0
518,29,0,0,0,0,0,0,0,0,0,-1,1742,995,0,0
525,29,0,0,0,0,0,0,0,0,0,-1,1749,995,0,0
532,29,0,0,0,0,0,0,0,0,0,-1,1756,995,0,0
539,29,0,0,0,0,0,0,0,0,0,-1,1763,995,0,0
546,29,0,0,0,0,0,0,0,0,0,-1,1770,995,0,0
553,29,0,0,0,0,0,0,0,0,0,-1,1777,995,0,0
560,29,0,0,0,0,0,0,0,0,0,-1,1784,995,0,0
567,29,0,0,0,0,0,0,0,0,0,-1,1791,995,0,0
574,29,0,0,0,0,0,0,0,0,0,-1,1798,995,0,0
581,29,0,0,0,0,0,0,0,0,0,-1,1805,995,0,0
588,29,0,0,0,0,0,0,0,0,0,-1,1812,995,0,0
595,29,0,0,0,0,0,0,0,0,0,-1,1819,995,0,0
602,29,0,0,0,0,0,0,0,0,0,-1,1826,995,0,0
609,29,0,0,0,0,0,0,0,0,0,-1,1833,995,0,0
616,29,0,0,0,0,0,0,0,0,0,-1,1840,995,0,0
623,29,0,0,0,0,0,0,0,0,0,-1,1847,995,0,0
630,29,0,0,0,0,0,0,0,0,0,-1,1854,995,0,0
637,29,0,0,0,0,0,0,0,0,0,-1,1861,995,0,0
644,29,34.026,2.55048,0.00955497,0.00100702,0.00270273,0.0103378,0.000224157,0.281941,0.0068184,0.0432384,1868,995,34.026,-2.55049
651,29,34.0347,2.99005,0.00759454,0.000585924,0.00183855,0.00804756,0.000132906,0.241588,0.00532129,0.0436107,1875,995,34.0347,-2.99008
658,29,34.1982,3.1524,0.00571237,0.000314245,0.00132119,0.00601838,8.23266e-06,0.227606,0.00400951,0.0425555,1882,995,34.1983,-3.15241
665,29,34.3761,2.91882,0.00394967,0.00027474,0.00130182,0.00436409,-0.000139686,0.3082,0.00295706,0.0390769,1889,995,34.3761,-2.91882
672,29,34.2875,2.74689,0.00220102,0.000395575,0.00166983,0.00319652,-0.000599924,0.537596,0.00235658,0.0359353,1896,995,34.2875,-2.7469
679,29,34.1967,2.66522,0.000553777,0.000678504,0.00232766,0.00294463,-0.00171235,0.798791,0.00271991,0.0372585,1903,995,34.1966,-2.66525
686,29,34.1234,2.7746,-0.000529921,0.000805695,0.00291524,0.00312864,-0.00285286,0.897993,0.00345465,0.0385779,1910,995,34.1234,-2.77457
693,29,34.1407,2.9491,-0.0012287,0.000910693,0.0033403,0.0033484,-0.0036664,0.940358,0.00405138,0.0393045,1917,995,34.1408,-2.94913
700,29,34.1833,2.90393,-0.00178593,0.00102098,0.00347857,0.00336854,-0.00413349,0.97714,0.0043388,0.0337251,1924,995,34.1834,-2.90391
707,29,34.134,2.78003,-0.00229564,0.00122974,0.00349813,0.00338419,-0.00445009,1.01878,0.00453706,0.0219379,1931,995,34.134,-2.78004
714,29,34.1141,3.10577,-0.0028601,0.00151184,0.00346436,0.00342224,-0.0047705,1.06684,0.00475138,0.029222,1938,995,34.1142,-3.10575
721,29,33.803,4.30841,0,0,0,0,0,0,0,-1,1945,995,33.803,-4.30841
728,29,33.6598,4.56525,-0.00388159,0.00243279,0.00328546,0.00383215,-0.00528095,1.16814,0.00528356,0.0242731,1952,995,33.6598,-4.56526
735,29,33.5651,4.77295,-0.00414786,0.00301117,0.00303153,0.0041224,-0.00525909,1.21945,0.00542964,0.015574,1959,995,33.5651,-4.77293
742,29,33.5596,4.85913,-0.00445457,0.00364133,0.00250637,0.00435444,-0.00516769,1.2936,0.00550429,0.0138366,1966,995,33.5595,-4.85911
749,29,33.542,4.97534,-0.00505821,0.00453667,0.00189774,0.00489838,-0.00541992,1.38245,0.00595981,0.0150454,1973,995,33.542,-4.97535
756,29,33.5233,5.1095,-0.00575002,0.00577959,0.00115887,0.00589492,-0.00586535,1.47161,0.0067898,0.0140517,1980,995,33.5233,-5.10952
763,29,33.4956,5.17523,-0.00661281,0.00743226,0.000388919,0.00744302,-0.00662357,1.54313,0.00812594,0.011638,1987,995,33.4956,-5.17524
770,29,33.433,5.26349,-0.00755379,0.00961378,-0.000238432,0.00961709,-0.0075571,-1.55691,0.00993927,0.0144959,1994,995,33.4329,-5.26352
777,29,33.3904,5.4798,-0.00846679,0.0120643,-0.000776808,0.0120936,-0.00849614,-1.53303,0.0119478,0.0248559,2001,995,33.3904,-5.47979
784,29,33.4882,5.81561,-0.00928733,0.0147878,-0.00141344,0.0148705,-0.00937003,-1.51235,0.0141149,0.0438963,2008,995,33.4882,-5.81562
791,29,33.5869,6.10712,0,0,0,0,0,0,0,-1,2015,995,33.587,-6.10709
798,29,34.052,5.21014,0,0,0,0,0,0,0,-1,2022,995,34.0521,-5.21017
805,29,33.928,5.15234,0,0,0,0,0,0,0,-1,2029,995,33.9279,-5.15235
812,29,27.6099,7.26184,0,0,0,0,0,0,0,-1,2036,995,27.6099,-7.26186
-700,22,0,0,0,0,0,0,0,0,0,-1,524,1002,0,0
-693,22,-22.4641,3.11755,-0.0868152,0.0390811,-0.0236559,0.0433792,-0.0911134,-1.39106,0.0792629,0.0453169,531,1002,-22.4641,-3.11754
-686,22,-23.4335,2.59576,-0.0713689,0.0395516,-0.015915,0.0417899,-0.0736072,-1.43107,0.0674634,0.0439153,538,1002,-23.4335,-2.59577
-679,22,-24.5004,2.36163,0,0,0,0,0,0,0,-1,545,1002,-24.5003,-2.36165
-672,22,-22.9787,1.92749,0,0,0,0,0,0,0,-1,552,1002,-22.9787,-1.92751
-665,22,-22.9171,2.26392,0,0,0,0,0,0,0,-1,559,1002,-22.917,-2.26392
-658,22,-23.6224,1.34839,0,0,0,0,0,0,0,-1,566,1002,-23.6224,-1.3484
-651,22,-24.2683,1.74963,0,0,0,0,0,0,0,-1,573,1002,-24.2683,-1.74961
-644,22,-24.5033,2.11365,-0.0146562,0.0196688,0.00275431,0.0198884,-0.0148758,1.49123,0.0201406,0.02638,580,1002,-24.5033,-2.11363
-637,22,-24.6393,2.3847,-0.00944404,0.0154081,0.00240988,0.0156397,-0.00967556,1.47502,0.0147503,0.0182414,587,1002,-24.6393,-2.38469
-630,22,-24.6802,2.39056,-0.0052771,0.0119796,0.0014666,0.0121034,-0.00540085,1.48661,0.0103501,0.0122644,594,1002,-24.6803,-2.39056
-623,22,-24.7079,2.3573,-0.00364994,0.00836084,-0.000947104,0.00843506,-0.00372417,-1.49259,0.00719362,0.0105483,601,1002,-24.7079,-2.35732
-616,22,-24.7199,2.2843,-0.00198614,0.00536444,-0.00317836,0.00654814,-0.00316984,-1.21429,0.00572257,0.0157146,608,1002,-24.7199,-2.28429
-609,22,-24.7382,2.2356,-0.000817615,0.00306824,-0.00492815,0.00642264,-0.00417201,-0.973168,0.00616266,0.0258874,615,1002,-24.7382,-2.2356
-602,22,-24.7688,2.15985,-5.29545e-05,0.00215106,-0.00646116,0.00760351,-0.00550541,-0.869865,0.00760069,0.0278326,622,1002,-24.7688,-2.15984
-595,22,-24.6797,1.99237,0.000493745,0.000759179,-0.00748758,0.00811522,-0.0068623,-0.79426,0.00865735,0.0243083,629,1002,-24.6797,-1.9924
-588,22,-24.5665,1.56158,0.000753141,0.000390121,-0.0079563,0.00853001,-0.00738674,-0.773993,0.00919744,0.0332899,636,1002,-24.5665,-1.56157
-581,22,-24.5355,1.15503,0.000758327,0.000272637,-0.00793591,0.00845511,-0.00742414,-0.770103,0.00917433,0.0407423,643,1002,-24.5355,-1.15502
-574,22,-24.5828,0.839233,0.000688517,0.000327555,-0.00770177,0.00821192,-0.00719585,-0.773683,0.00890213,0.0334427,650,1002,-24.5828,-0.839212
-567,22,-24.5748,0.689636,0.000468371,0.000551681,-0.00684973,0.00735988,-0.00633983,-0.788439,0.00791684,0.0311644,657,1002,-24.5748,-0.689624
-560,22,-24.4683,0.686157,0.000140654,0.000893914,-0.00566108,0.00619088,-0.00515631,-0.818614,0.00656037,0.0366459,664,1002,-24.4682,-0.686136
-553,22,-24.5225,0.864258,-0.00034532,0.00128943,-0.00430673,0.00485566,-0.00391155,-0.879178,0.00507153,0.0392576,671,1002,-24.5225,-0.864272
-546,22,-24.5485,0.898438,-0.00100397,0.00165256,-0.00297842,0.00358547,-0.00293688,-0.995144,0.00377188,0.0400419,678,1002,-24.5485,-0.898451
-539,22,-24.538,0.741272,-0.00179106,0.0018905,-0.00234707,0.00303254,-0.0029331,-1.11794,0.00344442,0.0409524,685,1002,-24.538,-0.741277
-532,22,-24.6464,0.806885,-0.00316592,0.00243304,-0.00371686,0.00428674,-0.00501962,-1.10817,0.00537858,0.0433035,692,1002,-24.6464,-0.806912
-525,22,0,0,0,0,0,0,0,0,0,-1,699,1002,0,0
-518,22,0,0,0,0,0,0,0,0,0,-1,706,1002,0,0
-511,22,0,0,0,0,0,0,0,0,0,-1,713,1002,0,0
-504,22,0,0,0,0,0,0,0,0,0,-1,720,1002,0,0
-497,22,0,0,0,0,0,0,0,0,0,-1,727,1002,0,0
-490,22,0,0,0,0,0,0,0,0,0,-1,734,1002,0,0
-483,22,0,0,0,0,0,0,0,0,0,-1,741,1002,0,0
-476,22,0,0,0,0,0,0,0,0,0,-1,748,1002,0,0
-469,22,0,0,0,0,0,0,0,0,0,-1,755,1002,0,0
-462,22,0,0,0,0,0,0,0,0,0,-1,762,1002,0,0
-455,22,0,0,0,0,0,0,0,0,0,-1,769,1002,0,0
-448,22,0,0,0,0,0,0,0,0,0,-1,776,1002,0,0
-441,22,0,0,0,0,0,0,0,0,0,-1,783,1002,0,0
-434,22,0,0,0,0,0,0,0,0,0,-1,790,1002,0,0
-427,22,0,0,0,0,0,0,0,0,0,-1,797,1002,0,0
-420,22,0,0,0,0,0,0,0,0,0,-1,804,1002,0,0
-413,22,0,0,0,0,0,0,0,0,0,-1,811,1002,0,0
-406,22,0,0,0,0,0,0,0,0,0,-1,818,1002,0,0
-399,22,0,0,0,0,0,0,0,0,0,-1,825,1002,0,0
-392,22,0,0,0,0,0,0,0,0,0,-1,832,1002,0,0
-385,22,0,0,0,0,0,0,0,0,0,-1,839,1002,0,0
-378,22,0,0,0,0,0,0,0,0,0,-1,846,1002,0,0
-371,22,0,0,0,0,0,0,0,0,0,-1,853,1002,0,0
-364,22,0,0,0,0,0,0,0,0,0,-1,860,1002,0,0
-357,22,0,0,0,0,0,0,0,0,0,-1,867,1002,0,0
-350,22,0,0,0,0,0,0,0,0,0,-1,874,1002,0,0
-343,22,0,0,0,0,0,0,0,0,0,-1,881,1002,0,0
-336,22,0,0,0,0,0,0,0,0,0,-1,888,1002,0,0
-329,22,0,0,0,0,0,0,0,0,0,-1,895,1002,0,0
-322,22,0,0,0,0,0,0,0,0,0,-1,902,1002,0,0
-315,22,0,0,0,0,0,0,0,0,0,-1,909,1002,0,0
-308,22,0,0,0,0,0,0,0,0,0,-1,916,1002,0,0
-301,22,0,0,0,0,0,0,0,0,0,-1,923,1002,0,0
-294,22,0,0,0,0,0,0,0,0,0,-1,930,1002,0,0
-287,22,0,0,0,0,0,0,0,0,0,-1,937,1002,0,0
-280,22,0,0,0,0,0,0,0,0,0,-1,944,1002,0,0
-273,22,0,0,0,0,0,0,0,0,0,-1,951,1002,0,0
-266,22,0,0,0,0,0,0,0,0,0,-1,958,1002,0,0
-259,22,0,0,0,0,0,0,0,0,0,-1,965,1002,0,0
-252,22,0,0,0,0,0,0,0,0,0,-1,972,1002,0,0
-245,22,0,0,0,0,0,0,0,0,0,-1,979,1002,0,0
-238,22,0,0,0,0,0,0,0,0,0,-1,986,1002,0,0
-231,22,0,0,0,0,0,0,0,0,0,-1,993,1002,0,0
-224,22,0,0,0,0,0,0,0,0,0,-1,1000,1002,0,0
-217,22,0,0,0,0,0,0,0,0,0,-1,1007,1002,0,0
-210,22,0,0,0,0,0,0,0,0,0,-1,1014,1002,0,0
-203,22,0,0,0,0,0,0,0,0,0,-1,1021,1002,0,0
-196,22,0,0,0,0,0,0,0,0,0,-1,1028,1002,0,0
-189,22,0,0,0,0,0,0,0,0,0,-1,1035,1002,0,0
-182,22,0,0,0,0,0,0,0,0,0,-1,1042,1002,0,0
-175,22,0,0,0,0,0,0,0,0,0,-1,1049,1002,0,0
-168,22,0,0,0,0,0,0,0,0,0,-1,1056,1002,0,0
-161,22,0,0,0,0,0,0,0,0,0,-1,1063,1002,0,0
-154,22,0,0,0,0,0,0,0,0,0,-1,1070,1002,0,0
-147,22,0,0,0,0,0,0,0,0,0,-1,1077,1002,0,0
-140,22,0,0,0,0,0,0,0,0,0,-1,1084,1002,0,0
-133,22,0,0,0,0,0,0,0,0,0,-1,1091,1002,0,0
-126,22,0,0,0,0,0,0,0,0,0,-1,1098,1002,0,0
-119,22,0,0,0,0,0,0,0,0,0,-1,1105,1002,0,0
-112,22,0,0,0,0,0,0,0,0,0,-1,1112,1002,0,0
-105,22,0,0,0,0,0,0,0,0,0,-1,1119,1002,0,0
-98,22,0,0,0,0,0,0,0,0,0,-1,1126,1002,0,0
-91,22,0,0,0,0,0,0,0,0,0,-1,1133,1002,0,0
-84,22,0,0,0,0,0,0,0,0,0,-1,1140,1002,0,0
-77,22,0,0,0,0,0,0,0,0,0,-1,1147,1002,0,0
-70,22,0,0,0,0,0,0,0,0,0,-1,1154,1002,0,0
-63,22,0,0,0,0,0,0,0,0,0,-1,1161,1002,0,0
-56,22,0,0,0,0,0,0,0,0,0,-1,1168,1002,0,0
-49,22,0,0,0,0,0,0,0,0,0,-1,1175,1002,0,0
-42,22,0,0,0,0,0,0,0,0,0,-1,1182,1002,0,0
-35,22,0,0,0,0,0,0,0,0,0,-1,1189,1002,0,0
-28,22,0,0,0,0,0,0,0,0,0,-1,1196,1002,0,0
-21,22,0,0,0,0,0,0,0,0,0,-1,1203,1002,0,0
-14,22,0,0,0,0,0,0,0,0,0,-1,1210,1002,0,0
-7,22,0,0,0,0,0,0,0,0,0,-1,1217,1002,0,0
0,22,0,0,0,0,0,0,0,0,0,-1,1224,1002,0,0
7,22,0,0,0,0,0,0,0,0,0,-1,1231,1002,0,0
14,22,0,0,0,0,0,0,0,0,0,-1,1238,1002,0,0
21,22,0,0,0,0,0,0,0,0,0,-1,1245,1002,0,0
28,22,0,0,0,0,0,0,0,0,0,-1,1252,1002,0,0
35,22,0,0,0,0,0,0,0,0,0,-1,1259,1002,0,0
42,22,0,0,0,0,0,0,0,0,0,-1,1266,1002,0,0
49,22,0,0,0,0,0,0,0,0,0,-1,1273,1002,0,0
56,22,0,0,0,0,0,0,0,0,0,-1,1280,1002,0,0
63,22,0,0,0,0,0,0,0,0,0,-1,1287,1002,0,0
70,22,0,0,0,0,0,0,0,0,0,-1,1294,1002,0,0
77,22,0,0,0,0,0,0,0,0,0,-1,1301,1002,0,0
84,22,0,0,0,0,0,0,0,0,0,-1,1308,1002,0,0
91,22,0,0,0,0,0,0,0,0,0,-1,1315,1002,0,0
98,22,0,0,0,0,0,0,0,0,0,-1,1322,1002,0,0
105,22,0,0,0,0,0,0,0,0,0,-1,1329,1002,0,0
112,22,0,0,0,0,0,0,0,0,0,-1,1336,1002,0,0
119,22,0,0,0,0,0,0,0,0,0,-1,1343,1002,0,0
126,22,0,0,0,0,0,0,0,0,0,-1,1350,1002,0,0
133,22,0,0,0,0,0,0,0,0,0,-1,1357,1002,0,0
140,22,0,0,0,0,0,0,0,0,0,-1,1364,1002,0,0
147,22,0,0,0,0,0,0,0,0,0,-1,1371,1002,0,0
154,22,0,0,0,0,0,0,0,0,0,-1,1378,1002,0,0
161,22,0,0,0,0,0,0,0,0,0,-1,1385,1002,0,0
168,22,0,0,0,0,0,0,0,0,0,-1,1392,1002,0,0
175,22,0,0,0,0,0,0,0,0,0,-1,1399,1002,0,0
182,22,0,0,0,0,0,0,0,0,0,-1,1406,1002,0,0
189,22,0,0,0,0,0,0,0,0,0,-1,1413,1002,0,0
196,22,0,0,0,0,0,0,0,0,0,-1,1420,1002,0,0
203,22,0,0,0,0,0,0,0,0,0,-1,1427,1002,0,0
210,22,0,0,0,0,0,0,0,0,0,-1,1434,1002,0,0
217,22,0,0,0,0,0,0,0,0,0,-1,1441,1002,0,0
224,22,0,0,0,0,0,0,0,0,0,-1,1448,1002,0,0
231,22,0,0,0,0,0,0,0,0,0,-1,1455,1002,0,0
238,22,0,0,0,0,0,0,0,0,0,-1,1462,1002,0,0
245,22,0,0,0,0,0,0,0,0,0,-1,1469,1002,0,0
252,22,0,0,0,0,0,0,0,0,0,-1,1476,1002,0,0
259,22,0,0,0,0,0,0,0,0,0,-1,1483,1002,0,0
266,22,0,0,0,0,0,0,0,0,0,-1,1490,1002,0,0
273,22,0,0,0,0,0,0,0,0,0,-1,1497,1002,0,0
280,22,0,0,0,0,0,0,0,0,0,-1,1504,1002,0,0
287,22,0,0,0,0,0,0,0,0,0,-1,1511,1002,0,0
294,22,0,0,0,0,0,0,0,0,0,-1,1518,1002,0,0
301,22,0,0,0,0,0,0,0,0,0,-1,1525,1002,0,0
308,22,0,0,0,0,0,0,0,0,0,-1,1532,1002,0,0
315,22,0,0,0,0,0,0,0,0,0,-1,1539,1002,0,0
322,22,0,0,0,0,0,0,0,0,0,-1,1546,1002,0,0
329,22,0,0,0,0,0,0,0,0,0,-1,1553,1002,0,0
336,22,0,0,0,0,0,0,0,0,0,-1,1560,1002,0,0
343,22,0,0,0,0,0,0,0,0,0,-1,1567,1002,0,0
350,22,0,0,0,0,0,0,0,0,0,-1,1574,1002,0,0
357,22,0,0,0,0,0,0,0,0,0,-1,1581,1002,0,0
364,22,0,0,0,0,0,0,0,0,0,-1,1588,1002,0,0
371,22,0,0,0,0,0,0,0,0,0,-1,1595,1002,0,0
378,22,0,0,0,0,0,0,0,0,0,-1,1602,1002,0,0
385,22,0,0,0,0,0,0,0,0,0,-1,1609,1002,0,0
392,22,0,0,0,0,0,0,0,0,0,-1,1616,1002,0,0
399,22,0,0,0,0,0,0,0,0,0,-1,1623,1002,0,0
406,22,0,0,0,0,0,0,0,0,0,-1,1630,1002,0,0
413,22,0,0,0,0,0,0,0,0,0,-1,1637,1002,0,0
420,22,0,0,0,0,0,0,0,0,0,-1,1644,1002,0,0
427,22,0,0,0,0,0,0,0,0,0,-1,1651,1002,0,0
434,22,0,0,0,0,0,0,0,0,0,-1,1658,1002,0,0
441,22,0,0,0,0,0,0,0,0,0,-1,1665,1002,0,0
448,22,0,0,0,0,0,0,0,0,0,-1,1672,1002,0,0
455,22,0,0,0,0,0,0,0,0,0,-1,1679,1002,0,0
462,22,0,0,0,0,0,0,0,0,0,-1,1686,1002,0,0
469,22,0,0,0,0,0,0,0,0,0,-1,1693,1002,0,0
476,22,0,0,0,0,0,0,0,0,0,-1,1700,1002,0,0
483,22,0,0,0,0,0,0,0,0,0,-1,1707,1002,0,0
490,22,0,0,0,0,0,0,0,0,0,-1,1714,1002,0,0
497,22,0,0,0,0,0,0,0,0,0,-1,1721,1002,0,0
504,22,0,0,0,0,0,0,0,0,0,-1,1728,1002,0,0
511,22,0,0,0,0,0,0,0,0,0,-1,1735,1002,0,0
518,22,0,0,0,0,0,0,0,0,0,-1,1742,1002,0,0
525,22,0,0,0,0,0,0,0,0,0,-1,1749,1002,0,0
532,22,0,0,0,0,0,0,0,0,0,-1,1756,1002,0,0
539,22,0,0,0,0,0,0,0,0,0,-1,1763,1002,0,0
546,22,0,0,0,0,0,0,0,0,0,-1,1770,1002,0,0
553,22,0,0,0,0,0,0,0,0,0,-1,1777,1002,0,0
560,22,0,0,0,0,0,0,0,0,0,-1,1784,1002,0,0
567,22,0,0,0,0,0,0,0,0,0,-1,1791,1002,0,0
574,22,0,0,0,0,0,0,0,0,0,-1,1798,1002,0,0
581,22,0,0,0,0,0,0,0,0,0,-1,1805,1002,0,0
588,22,0,0,0,0,0,0,0,0,0,-1,1812,1002,0,0
595,22,0,0,0,0,0,0,0,0,0,-1,1819,1002,0,0
602,22,0,0,0,0,0,0,0,0,0,-1,1826,1002,0,0
609,22,0,0,0,0,0,0,0,0,0,-1,1833,1002,0,0
616,22,0,0,0,0,0,0,0,0,0,-1,1840,1002,0,0
623,22,0,0,0,0,0,0,0,0,0,-1,1847,1002,0,0
630,22,0,0,0,0,0,0,0,0,0,-1,1854,1002,0,0
637,22,0,0,0,0,0,0,0,0,0,-1,1861,1002,0,0
644,22,33.8727,2.56641,0.01022,0.00170379,0.00351127,0.011481,0.000442796,0.344783,0.00751078,0.0414958,1868,1002,33.8727,-2.56641
651,22,33.9369,2.86414,0.00796785,0.00116932,0.0023638,0.00870895,0.000428225,0.303811,0.00566862,0.042595,1875,1002,33.9369,-2.86411
658,22,34.0499,2.82434,0.00591017,0.000784988,0.00163381,0.0063867,0.000308466,0.283791,0.00415879,0.0441272,1882,1002,34.05,-2.82436
665,22,34.2372,3.06897,0.00406899,0.000646213,0.00144907,0.00460006,0.000115138,0.351293,0.00302906,0.0407629,1889,1002,34.2372,-3.06899
672,22,34.1882,2.77899,0.00230145,0.000673026,0.00168649,0.00335998,-0.000385507,0.560507,0.00237893,0.0378955,1896,1002,34.1882,-2.77901
679,22,34.184,2.66406,0.000623758,0.000895414,0.00227296,0.0030366,-0.00151743,0.815242,0.00267759,0.0380797,1903,1002,34.1839,-2.66406
686,22,34.1837,2.83105,-0.000472904,0.00097194,0.0028381,0.00317812,-0.00267909,0.910024,0.00338575,0.0389753,1910,1002,34.1837,-2.83108
693,22,34.214,2.94843,-0.00117843,0.00103516,0.00326956,0.00338018,-0.00352345,0.948601,0.0039861,0.0382339,1917,1002,34.2139,-2.94841
700,22,34.2108,2.86316,-0.00171163,0.0011023,0.00343797,0.00341006,-0.00401939,0.979623,0.0042942,0.0321695,1924,1002,34.2108,-2.86313
707,22,34.158,2.79358,-0.00219711,0.00126761,0.00347565,0.00341871,-0.00434821,1.01659,0.00449492,0.0272287,1931,1002,34.1579,-2.79357
714,22,34.2939,2.052,0,0,0,0,0,0,0,-1,1938,1002,34.294,-2.05201
721,22,34.0098,3.72614,-0.00333535,0.00189117,0.00342211,0.00358371,-0.00502789,1.11148,0.00499516,0.0352128,1945,1002,34.0098,-3.72616
728,22,33.6725,4.40753,-0.00376519,0.0024279,0.00333166,0.00387982,-0.00521711,1.15982,0.005271,0.034096,1952,1002,33.6724,-4.40753
735,22,33.6903,4.82928,-0.0040556,0.00299889,0.00309094,0.00416157,-0.00521828,1.21101,0.0054269,0.0151347,1959,1002,33.6903,-4.82926
742,22,33.7201,4.90259,-0.00435483,0.00363313,0.00256783,0.00438737,-0.00510907,1.2851,0.00548805,0.0165575,1966,1002,33.7201,-4.90258
749,22,33.6646,4.98907,-0.00492749,0.00453922,0.00194923,0.00492486,-0.00531313,1.37547,0.00591232,0.013371,1973,1002,33.6645,-4.98907
756,22,33.6324,5.08032,-0.00557096,0.00578211,0.00115794,0.00589901,-0.00568786,1.47018,0.00669005,0.017788,1980,1002,33.6324,-5.08033
763,22,33.5953,5.17096,-0.00636365,0.00744235,0.000255739,0.00744708,-0.00636839,1.55228,0.00798447,0.0172212,1987,1002,33.5953,-5.17096
770,22,33.5001,5.21991,-0.00720231,0.00966815,-0.000618006,0.00969076,-0.00722492,-1.53423,0.0098008,0.0169652,1994,1002,33.5001,-5.2199
777,22,33.3151,5.22809,-0.00795469,0.0121658,-0.00144503,0.0122691,-0.00805794,-1.49947,0.0118195,0.0378051,2001,1002,33.3151,-5.22811
784,22,33.1698,5.29816,0,0,0,0,0,0,0,-1,2008,1002,33.1697,-5.29813
791,22,34.02,5.32953,-0.00839595,0.0176582,-0.00393768,0.0182403,-0.00897806,-1.42403,0.0160149,0.0464873,2015,1002,34.02,-5.32956
798,22,33.9011,5.16516,-0.00728305,0.0204411,-0.00641255,0.0218525,-0.00869441,-1.35416,0.0181734,0.0444832,2022,1002,33.9012,-5.16515
805,22,33.7302,5.1272,0,0,0,0,0,0,0,-1,2029,1002,33.7301,-5.12719
812,22,27.8433,7.47241,0,0,0,0,0,0,0,-1,2036,1002,27.8433,-7.47242
-700,15,0,0,0,0,0,0,0,0,0,-1,524,1009,0,0
-693,15,-22.5537,2.65179,-0.0717432,0.0515775,-0.0285978,0.0578865,-0.0780522,-1.35366,0.0787716,0.0459801,531,1009,-22.5537,-2.65177
-686,15,-23.2645,2.43805,-0.0596648,0.048796,-0.0199585,0.0523521,-0.0632208,-1.39447,0.0668244,0.0445727,538,1009,-23.2645,-2.43807
-679,15,-23.476,2.18958,0,0,0,0,0,0,0,-1,545,1009,-23.476,-2.1896
-672,15,-23.5159,2.0517,-0.0392735,0.0406697,-0.00771148,0.0414068,-0.0400106,-1.47551,0.0470087,0.04756,552,1009,-23.5159,-2.05171
-665,15,-23.707,2.15344,-0.0307978,0.0358604,-0.00366083,0.0360609,-0.0309982,-1.5161,0.0387533,0.0435035,559,1009,-23.707,-2.15347
-658,15,-23.7224,1.63501,-0.023575,0.0307503,-0.000790264,0.0307618,-0.0235865,-1.55625,0.031469,0.0458425,566,1009,-23.7224,-1.635
-651,15,-24.2785,1.93475,-0.0175537,0.0255056,0.00100098,0.0255289,-0.0175769,1.54757,0.0250279,0.0436554,573,1009,-24.2785,-1.93476
-644,15,-24.5587,2.23041,-0.0125878,0.0203258,0.00158959,0.0204024,-0.0126644,1.52265,0.0192646,0.0259804,580,1009,-24.5587,-2.23043
-637,15,-24.649,2.36835,-0.00810558,0.0155074,0.00143461,0.0155942,-0.00819242,1.51034,0.0139531,0.0205086,587,1009,-24.649,-2.36838
-630,15,-24.7036,2.34509,-0.00448234,0.0116192,0.000554702,0.0116383,-0.00450143,1.5364,0.00961716,0.013539,594,1009,-24.7035,-2.34509
-623,15,-24.7471,2.32275,-0.00302616,0.00789979,-0.00185404,0.00820583,-0.00333221,-1.4072,0.00685672,0.0094966,601,1009,-24.7471,-2.32276
-616,15,-24.7965,2.29358,-0.00144366,0.00483536,-0.00402949,0.00680401,-0.00341231,-1.11634,0.00600577,0.0139634,608,1009,-24.7965,-2.29359
-609,15,-24.7565,2.25507,-0.000287731,0.00251315,-0.00582491,0.0071036,-0.00487818,-0.90337,0.00695735,0.0209186,615,1009,-24.7565,-2.25504
-602,15,-24.7192,2.1759,0.00055219,0.00168481,-0.00733321,0.00847355,-0.00623655,-0.823934,0.00852555,0.0213721,622,1009,-24.7192,-2.17589
-595,15,-24.6019,1.69623,0.00115677,0.00046162,-0.00830606,0.00912253,-0.00750414,-0.764487,0.00961456,0.0318077,629,1009,-24.6019,-1.69621
-588,15,-24.4683,1.19818,0.00146213,0.000142399,-0.00871487,0.00954208,-0.00793755,-0.747612,0.010106,0.0383544,636,1009,-24.4683,-1.1982
-581,15,-24.5109,0.944519,0.00149189,7.44831e-05,-0.00860549,0.00941781,-0.00785143,-0.744313,0.00998406,0.0369169,643,1009,-24.5109,-0.944513
-574,15,-24.5424,0.934387,0.00138652,0.000198576,-0.00820987,0.00902388,-0.00743879,-0.749287,0.0095194,0.0316927,650,1009,-24.5424,-0.934375
-567,15,-24.6025,0.848877,0.00107757,0.000512721,-0.00716917,0.00796988,-0.00637958,-0.765711,0.00830161,0.0315143,657,1009,-24.6024,-0.848852
-560,15,-24.6282,1.01068,0.00059534,0.000961137,-0.00573538,0.00651654,-0.00496006,-0.801337,0.0066463,0.0355139,664,1009,-24.6282,-1.01068
-553,15,-24.5806,1.08344,-0.00013102,0.00146334,-0.00408072,0.00482402,-0.00349169,-0.88186,0.00482157,0.0393223,671,1009,-24.5806,-1.08343
-546,15,-24.5002,0.960083,-0.00111352,0.0019167,-0.00241038,0.0032486,-0.00244542,-1.06598,0.00329833,0.0408891,678,1009,-24.5003,-0.960053
-539,15,-24.5063,0.821228,-0.00228681,0.0021921,-0.00151254,0.00265505,-0.00274975,-1.27378,0.00312062,0.0403506,685,1009,-24.5063,-0.821218
-532,15,-24.6506,0.900513,-0.00406326,0.00272826,-0.00284713,0.0037639,-0.0050989,-1.22193,0.00513626,0.0425032,692,1009,-24.6506,-0.900511
-525,15,0,0,0,0,0,0,0,0,0,-1,699,1009,0,0
-518,15,0,0,0,0,0,0,0,0,0,-1,706,1009,0,0
-511,15,0,0,0,0,0,0,0,0,0,-1,713,1009,0,0
-504,15,0,0,0,0,0,0,0,0,0,-1,720,1009,0,0
-497,15,0,0,0,0,0,0,0,0,0,-1,727,1009,0,0
-490,15,0,0,0,0,0,0,0,0,0,-1,734,1009,0,0
-483,15,0,0,0,0,0,0,0,0,0,-1,741,1009,0,0
-476,15,0,0,0,0,0,0,0,0,0,-1,748,1009,0,0
-469,15,0,0,0,0,0,0,0,0,0,-1,755,1009,0,0
-462,15,0,0,0,0,0,0,0,0,0,-1,762,1009,0,0
-455,15,0,0,0,0,0,0,0,0,0,-1,769,1009,0,0
-448,15,0,0,0,0,0,0,0,0,0,-1,776,1009,0,0
-441,15,0,0,0,0,0,0,0,0,0,-1,783,1009,0,0
-434,15,0,0,0,0,0,0,0,0,0,-1,790,1009,0,0
-427,15,0,0,0,0,0,0,0,0,0,-1,797,1009,0,0
-420,15,0,0,0,0,0,0,0,0,0,-1,804,1009,0,0
-413,15,0,0,0,0,0,0,0,0,0,-1,811,1009,0,0
-406,15,0,0,0,0,0,0,0,0,0,-1,818,1009,0,0
-399,15,0,0,0,0,0,0,0,0,0,-1,825,1009,0,0
-392,15,0,0,0,0,0,0,0,0,0,-1,832,1009,0,0
-385,15,0,0,0,0,0,0,0,0,0,-1,839,1009,0,0
-378,15,0,0,0,0,0,0,0,0,0,-1,846,1009,0,0
-371,15,0,0,0,0,0,0,0,0,0,-1,853,1009,0,0
-364,15,0,0,0,0,0,0,0,0,0,-1,860,1009,0,0
-357,15,0,0,0,0,0,0,0,0,0,-1,867,1009,0,0
-350,15,0,0,0,0,0,0,0,0,0,-1,874,1009,0,0
-343,15,0,0,0,0,0,0,0,0,0,-1,881,1009,0,0
-336,15,0,0,0,0,0,0,0,0,0,-1,888,1009,0,0
-329,15,0,0,0,0,0,0,0,0,0,-1,895,1009,0,0
-322,15,0,0,0,0,0,0,0,0,0,-1,902,1009,0,0
-315,15,0,0,0,0,0,0,0,0,0,-1,909,1009,0,0
-308,15,0,0,0,0,0,0,0,0,0,-1,916,1009,0,0
-301,15,0,0,0,0,0,0,0,0,0,-1,923,1009,0,0
-294,15,0,0,0,0,0,0,0,0,0,-1,930,1009,0,0
-287,15,0,0,0,0,0,0,0,0,0,-1,937,1009,0,0
-280,15,0,0,0,0,0,0,0,0,0,-1,944,1009,0,0
-273,15,0,0,0,0,0,0,0,0,0,-1,951,1009,0,0
-266,15,0,0,0,0,0,0,0,0,0,-1,958,1009,0,0
-259,15,0,0,0,0,0,0,0,0,0,-1,965,1009,0,0
-252,15,0,0,0,0,0,0,0,0,0,-1,972,1009,0,0
-245,15,0,0,0,0,0,0,0,0,0,-1,979,1009,0,0
-238,15,0,0,0,0,0,0,0,0,0,-1,986,1009,0,0
-231,15,0,0,0,0,0,0,0,0,0,-1,993,1009,0,0
-224,15,0,0,0,0,0,0,0,0,0,-1,1000,1009,0,0
-217,15,0,0,0,0,0,0,0,0,0,-1,1007,1009,0,0
-210,15,0,0,0,0,0,0,0,0,0,-1,1014,1009,0,0
-203,15,0,0,0,0,0,0,0,0,0,-1,1021,1009,0,0
-196,15,0,0,0,0,0,0,0,0,0,-1,1028,1009,0,0
-189,15,0,0,0,0,0,0,0,0,0,-1,1035,1009,0,0
-182,15,0,0,0,0,0,0,0,0,0,-1,1042,1009,0,0
-175,15,0,0,0,0,0,0,0,0,0,-1,1049,1009,0,0
-168,15,0,0,0,0,0,0,0,0,0,-1,1056,1009,0,0
-161,15,0,0,0,0,0,0,0,0,0,-1,1063,1009,0,0
-154,15,0,0,0,0,0,0,0,0,0,-1,1070,1009,0,0
-147,15,0,0,0,0,0,0,0,0,0,-1,1077,1009,0,0
-140,15,0,0,0,0,0,0,0,0,0,-1,1084,1009,0,0
-133,15,0,0,0,0,0,0,0,0,0,-1,1091,1009,0,0
-126,15,0,0,0,0,0,0,0,0,0,-1,1098,1009,0,0
-119,15,0,0,0,0,0,0,0,0,0,-1,1105,1009,0,0
-112,15,0,0,0,0,0,0,0,0,0,-1,1112,1009,0,0
-105,15,0,0,0,0,0,0,0,0,0,-1,1119,1009,0,0
-98,15,0,0,0,0,0,0,0,0,0,-1,1126,1009,0,0
-91,15,0,0,0,0,0,0,0,0,0,-1,1133,1009,0,0
-84,15,0,0,0,0,0,0,0,0,0,-1,1140,1009,0,0
-77,15,0,0,0,0,0,0,0,0,0,-1,1147,1009,0,0
-70,15,0,0,0,0,0,0,0,0,0,-1,1154,1009,0,0
-63,15,0,0,0,0,0,0,0,0,0,-1,1161,1009,0,0
-56,15,0,0,0,0,0,0,0,0,0,-1,1168,1009,0,0
-49,15,0,0,0,0,0,0,0,0,0,-1,1175,1009,0,0
-42,15,0,0,0,0,0,0,0,0,0,-1,1182,1009,0,0
-35,15,0,0,0,0,0,0,0,0,0,-1,1189,1009,0,0
-28,15,0,0,0,0,0,0,0,0,0,-1,1196,1009,0,0
-21,15,0,0,0,0,0,0,0,0,0,-1,1203,1009,0,0
-14,15,0,0,0,0,0,0,0,0,0,-1,1210,1009,0,0
-7,15,0,0,0,0,0,0,0,0,0,-1,1217,1009,0,0
0,15,0,0,0,0,0,0,0,0,0,-1,1224,1009,0,0
7,15,0,0,0,0,0,0,0,0,0,-1,1231,1009,0,0
14,15,0,0,0,0,0,0,0,0,0,-1,1238,1009,0,0
21,15,0,0,0,0,0,0,0,0,0,-1,1245,1009,0,0
28,15,0,0,0,0,0,0,0,0,0,-1,1252,1009,0,0
35,15,0,0,0,0,0,0,0,0,0,-1,1259,1009,0,0
42,15,0,0,0,0,0,0,0,0,0,-1,1266,1009,0,0
49,15,0,0,0,0,0,0,0,0,0,-1,1273,1009,0,0
56,15,0,0,0,0,0,0,0,0,0,-1,1280,1009,0,0
63,15,0,0,0,0,0,0,0,0,0,-1,1287,1009,0,0
70,15,0,0,0,0,0,0,0,0,0,-1,1294,1009,0,0
77,15,0,0,0,0,0,0,0,0,0,-1,1301,1009,0,0
84,15,0,0,0,0,0,0,0,0,0,-1,1308,1009,0,0
91,15,0,0,0,0,0,0,0,0,0,-1,1315,1009,0,0
98,15,0,0,0,0,0,0,0,0,0,-1,1322,1009,0,0
105,15,0,0,0,0,0,0,0,0,0,-1,1329,1009,0,0
112,15,0,0,0,0,0,0,0,0,0,-1,1336,1009,0,0
119,15,0,0,0,0,0,0,0,0,0,-1,1343,1009,0,0
126,15,0,0,0,0,0,0,0,0,0,-1,1350,1009,0,0
133,15,0,0,0,0,0,0,0,0,0,-1,1357,1009,0,0
140,15,0,0,0,0,0,0,0,0,0,-1,1364,1009,0,0
147,15,0,0,0,0,0,0,0,0,0,-1,1371,1009,0,0
154,15,0,0,0,0,0,0,0,0,0,-1,1378,1009,0,0
161,15,0,0,0,0,0,0,0,0,0,-1,1385,1009,0,0
168,15,0,0,0,0,0,0,0,0,0,-1,1392,1009,0,0
175,15,0,0,0,0,0,0,0,0,0,-1,1399,1009,0,0
182,15,0,0,0,0,0,0,0,0,0,-1,1406,1009,0,0
189,15,0,0,0,0,0,0,0,0,0,-1,1413,1009,0,0
196,15,0,0,0,0,0,0,0,0,0,-1,1420,1009,0,0
203,15,0,0,0,0,0,0,0,0,0,-1,1427,1009,0,0
210,15,0,0,0,0,0,0,0,0,0,-1,1434,1009,0,0
217,15,0,0,0,0,0,0,0,0,0,-1,1441,1009,0,0
224,15,0,0,0,0,0,0,0,0,0,-1,1448,1009,0,0
231,15,0,0,0,0,0,0,0,0,0,-1,1455,1009,0,0
238,15,0,0,0,0,0,0,0,0,0,-1,1462,1009,0,0
245,15,0,0,0,0,0,0,0,0,0,-1,1469,1009,0,0
252,15,0,0,0,0,0,0,0,0,0,-1,1476,1009,0,0
259,15,0,0,0,0,0,0,0,0,0,-1,1483,1009,0,0
266,15,0,0,0,0,0,0,0,0,0,-1,1490,1009,0,0
273,15,0,0,0,0,0,0,0,0,0,-1,1497,1009,0,0
280,15,0,0,0,0,0,0,0,0,0,-1,1504,1009,0,0
287,15,0,0,0,0,0,0,0,0,0,-1,1511,1009,0,0
294,15,0,0,0,0,0,0,0,0,0,-1,1518,1009,0,0
301,15,0,0,0,0,0,0,0,0,0,-1,1525,1009,0,0
308,15,0,0,0,0,0,0,0,0,0,-1,1532,1009,0,0
315,15,0,0,0,0,0,0,0,0,0,-1,1539,1009,0,0
322,15,0,0,0,0,0,0,0,0,0,-1,1546,1009,0,0
329,15,0,0,0,0,0,0,0,0,0,-1,1553,1009,0,0
336,15,0,0,0,0,0,0,0,0,0,-1,1560,1009,0,0
343,15,0,0,0,0,0,0,0,0,0,-1,1567,1009,0,0
350,15,0,0,0,0,0,0,0,0,0,-1,1574,1009,0,0
357,15,0,0,0,0,0,0,0,0,0,-1,1581,1009,0,0
364,15,0,0,0,0,0,0,0,0,0,-1,1588,1009,0,0
371,15,0,0,0,0,0,0,0,0,0,-1,1595,1009,0,0
378,15,0,0,0,0,0,0,0,0,0,-1,1602,1009,0,0
385,15,0,0,0,0,0,0,0,0,0,-1,1609,1009,0,0
392,15,0,0,0,0,0,0,0,0,0,-1,1616,1009,0,0
399,15,0,0,0,0,0,0,0,0,0,-1,1623,1009,0,0
406,15,0,0,0,0,0,0,0,0,0,-1,1630,1009,0,0
413,15,0,0,0,0,0,0,0,0,0,-1,1637,1009,0,0
420,15,0,0,0,0,0,0,0,0,0,-1,1644,1009,0,0
427,15,0,0,0,0,0,0,0,0,0,-1,1651,1009,0,0
434,15,0,0,0,0,0,0,0,0,0,-1,1658,1009,0,0
441,15,0,0,0,0,0,0,0,0,0,-1,1665,1009,0,0
448,15,0,0,0,0,0,0,0,0,0,-1,1672,1009,0,0
455,15,0,0,0,0,0,0,0,0,0,-1,1679,1009,0,0
462,15,0,0,0,0,0,0,0,0,0,-1,1686,1009,0,0
469,15,0,0,0,0,0,0,0,0,0,-1,1693,1009,0,0
476,15,0,0,0,0,0,0,0,0,0,-1,1700,1009,0,0
483,15,0,0,0,0,0,0,0,0,0,-1,1707,1009,0,0
490,15,0,0,0,0,0,0,0,0,0,-1,1714,1009,0,0
497,15,0,0,0,0,0,0,0,0,0,-1,1721,1009,0,0
504,15,0,0,0,0,0,0,0,0,0,-1,1728,1009,0,0
511,15,0,0,0,0,0,0,0,0,0,-1,1735,1009,0,0
518,15,0,0,0,0,0,0,0,0,0,-1,1742,1009,0,0
525,15,0,0,0,0,0,0,0,0,0,-1,1749,1009,0,0
532,15,0,0,0,0,0,0,0,0,0,-1,1756,1009,0,0
539,15,0,0,0,0,0,0,0,0,0,-1,1763,1009,0,0
546,15,0,0,0,0,0,0,0,0,0,-1,1770,1009,0,0
553,15,0,0,0,0,0,0,0,0,0,-1,1777,1009,0,0
560,15,0,0,0,0,0,0,0,0,0,-1,1784,1009,0,0
567,15,0,0,0,0,0,0,0,0,0,-1,1791,1009,0,0
574,15,0,0,0,0,0,0,0,0,0,-1,1798,1009,0,0
581,15,0,0,0,0,0,0,0,0,0,-1,1805,1009,0,0
588,15,0,0,0,0,0,0,0,0,0,-1,1812,1009,0,0
595,15,0,0,0,0,0,0,0,0,0,-1,1819,1009,0,0
602,15,0,0,0,0,0,0,0,0,0,-1,1826,1009,0,0
609,15,0,0,0,0,0,0,0,0,0,-1,1833,1009,0,0
616,15,0,0,0,0,0,0,0,0,0,-1,1840,1009,0,0
623,15,0,0,0,0,0,0,0,0,0,-1,1847,1009,0,0
630,15,0,0,0,0,0,0,0,0,0,-1,1854,1009,0,0
637,15,0,0,0,0,0,0,0,0,0,-1,1861,1009,0,0
644,15,34.0476,2.71576,0.0110478,0.00238659,0.00375574,0.0124495,0.000984849,0.357214,0.00799165,0.0406313,1868,1009,34.0476,-2.71577
651,15,34.0863,2.73505,0.00838729,0.00186257,0.00254774,0.00926425,0.000985609,0.331508,0.00587525,0.0397447,1875,1009,34.0863,-2.73505
658,15,34.0354,2.46545,0.00608262,0.00143364,0.0017556,0.0066711,0.000845163,0.323431,0.00419416,0.0407843,1882,1009,34.0354,-2.46547
665,15,34.1823,2.52661,0.00411177,0.00122133,0.00149907,0.00474883,0.000584279,0.401842,0.00299021,0.0417076,1889,1009,34.1823,-2.52659
672,15,34.1748,2.70697,0.00231613,0.00112851,0.00167414,0.00349865,-5.40164e-05,0.614973,0.00235065,0.0392091,1896,1009,34.1748,-2.70699
679,15,34.1674,2.65387,0.000639713,0.00122797,0.00221971,0.00317296,-0.00130527,0.851269,0.0026594,0.0389831,1903,1009,34.1674,-2.65388
686,15,34.1951,2.81793,-0.000427519,0.00118434,0.00276909,0.0032624,-0.00250558,0.927009,0.00333968,0.0424828,1910,1009,34.1951,-2.81791
693,15,34.1444,2.85248,-0.00109425,0.00114106,0.00321503,0.00342717,-0.00338035,0.952681,0.00393035,0.0413652,1917,1009,34.1444,-2.8525
700,15,34.1742,2.7796,-0.00156454,0.00111436,0.00341766,0.00344568,-0.00389586,0.972159,0.00424129,0.0320268,1924,1009,34.1741,-2.7796
707,15,34.1605,2.80243,-0.00199671,0.0011882,0.00346648,0.00341051,-0.00421902,1.00071,0.00441315,0.0260988,1931,1009,34.1605,-2.80245
714,15,34.2013,1.90259,0,0,0,0,0,0,0,-1,1938,1009,34.2013,-1.9026
721,15,34.0798,3.42572,0,0,0,0,0,0,0,-1,1945,1009,34.0799,-3.42575
728,15,33.7859,4.71417,0,0,0,0,0,0,0,-1,1952,1009,33.7859,-4.71419
735,15,33.7461,4.83472,-0.00369883,0.00279263,0.00313898,0.0040622,-0.0049684,1.18646,0.00522256,0.0161304,1959,1009,33.746,-4.8347
742,15,33.744,4.95569,-0.00395373,0.00344095,0.00262571,0.00427844,-0.00479122,1.26204,0.00523916,0.0203047,1966,1009,33.7441,-4.95568
749,15,33.7202,5.01172,-0.0044656,0.00437584,0.0020217,0.00481619,-0.00490595,1.35633,0.00561316,0.0131246,1973,1009,33.7202,-5.0117
756,15,33.7046,5.0213,-0.0050079,0.00566976,0.00121372,0.00580598,-0.00514412,1.45903,0.00632589,0.0133761,1980,1009,33.7045,-5.0213
763,15,33.6743,5.09766,-0.0056326,0.00738896,0.000243834,0.00739353,-0.00563716,1.55208,0.00754602,0.012484,1987,1009,33.6743,-5.09768
770,15,33.6003,5.14264,-0.00620743,0.00969838,-0.000785801,0.0097371,-0.00624616,-1.52155,0.00930102,0.0174726,1994,1009,33.6004,-5.14262
777,15,33.3488,5.20386,-0.00658854,0.0122492,-0.00178425,0.0124167,-0.00675605,-1.47719,0.011229,0.0422498,2001,1009,33.3487,-5.20386
784,15,33.1647,5.29089,0,0,0,0,0,0,0,-1,2008,1009,33.1646,-5.29091
791,15,33.8713,5.26343,-0.00602449,0.0178446,-0.00463621,0.0187135,-0.00689337,-1.38553,0.0153001,0.0476251,2015,1009,33.8712,-5.26343
798,15,33.9111,4.96613,-0.00428637,0.020698,-0.00722502,0.0226369,-0.00622525,-1.30862,0.0175386,0.0435749,2022,1009,33.9112,-4.96614
805,15,33.6167,4.58514,-0.00124707,0.0235825,-0.0111484,0.0278534,-0.005518,-1.20494,0.0206554,0.0464864,2029,1009,33.6168,-4.58517
812,15,33.3564,4.27478,0,0,0,0,0,0,0,-1,2036,1009,33.3565,-4.2748
-700,8,0,0,0,0,0,0,0,0,0,-1,524,1016,0,0
-693,8,-23.2022,2.37018,-0.0565604,0.0650758,-0.0358162,0.0748384,-0.0663231,-1.30468,0.081549,0.0455272,531,1016,-23.2022,-2.37018
-686,8,-23.4897,2.2663,-0.0472144,0.0585495,-0.0253791,0.0643242,-0.0529891,-1.34707,0.0678362,0.0478965,538,1016,-23.4897,-2.26627
-679,8,-23.7314,2.17151,0,0,0,0,0,0,0,-1,545,1016,-23.7314,-2.17152
-672,8,-23.9984,2.06384,-0.031236,0.0454121,-0.0108403,0.0469157,-0.0327396,-1.43297,0.0462312,0.0471456,552,1016,-23.9984,-2.06385
-665,8,-24.2177,2.02606,-0.0245396,0.0389155,-0.00605245,0.0394877,-0.0251117,-1.47655,0.0376031,0.0459922,559,1016,-24.2176,-2.02609
-658,8,-24.3596,2.03308,-0.0188506,0.032542,-0.0026295,0.0326762,-0.0189848,-1.51981,0.0301736,0.0366762,566,1016,-24.3596,-2.0331
-651,8,-24.5265,2.08618,-0.0141093,0.0264039,-0.000438811,0.0264087,-0.0141141,-1.55997,0.023752,0.0256201,573,1016,-24.5265,-2.08616
-644,8,-24.4955,2.18793,-0.0101704,0.020623,0.000390891,0.020628,-0.0101753,1.5581,0.0181224,0.0312742,580,1016,-24.4956,-2.18792
-637,8,-24.5981,2.26605,-0.00659834,0.0152724,0.000467287,0.0152824,-0.00660832,1.54944,0.0129651,0.0267069,587,1016,-24.5981,-2.26607
-630,8,-24.7245,2.30096,-0.00366247,0.0109842,-0.000365234,0.0109933,-0.00367157,-1.54588,0.00881151,0.0180192,594,1016,-24.7245,-2.30099
-623,8,-24.7294,2.32178,-0.00246776,0.00733849,-0.00274138,0.00805282,-0.00318209,-1.31589,0.00668658,0.0139016,601,1016,-24.7294,-2.32178
-616,8,-24.7454,2.29291,-0.00101843,0.0043171,-0.00487704,0.00720834,-0.00390967,-1.03567,0.00651248,0.0135137,608,1016,-24.7454,-2.29288
-609,8,-24.7746,2.24628,3.76302e-05,0.00206249,-0.00670966,0.00783568,-0.00573556,-0.860279,0.00786657,0.0190551,615,1016,-24.7746,-2.2463
-602,8,-24.7368,2.25214,0.000860069,0.00131923,-0.00817106,0.00926393,-0.00708464,-0.799443,0.00946677,0.0236756,622,1016,-24.7368,-2.25213
-595,8,-24.4562,1.73608,0.00147104,0.000267135,-0.00907176,0.00996079,-0.00822262,-0.75227,0.0105142,0.0438168,629,1016,-24.4562,-1.7361
-588,8,-24.4876,0.951904,0.00181365,-1.65392e-06,-0.00941049,0.0103602,-0.00854816,-0.737321,0.0109334,0.0411023,636,1016,-24.4876,-0.951903
-581,8,-24.4722,0.871643,0.00187007,-1.55772e-05,-0.00920404,0.0101795,-0.00832496,-0.734358,0.0107014,0.0283464,643,1016,-24.4722,-0.871657
-574,8,-24.4894,0.990417,0.00173847,0.00019992,-0.00864212,0.00964549,-0.0077071,-0.741008,0.0100393,0.034368,650,1016,-24.4894,-0.990389
-567,8,-24.6166,0.988159,0.00137822,0.00061468,-0.00740955,0.00841583,-0.00642293,-0.759659,0.00859288,0.0381424,657,1016,-24.6166,-0.988155
-560,8,-24.577,1.18823,0.000809315,0.00117569,-0.00572333,0.00671876,-0.00473376,-0.801396,0.00664514,0.0374786,664,1016,-24.577,-1.18825
-553,8,-24.467,1.20062,-5.44484e-05,0.00178928,-0.00375398,0.00473293,-0.0029981,-0.905801,0.00450081,0.0405735,671,1016,-24.467,-1.20062
-546,8,-24.3469,0.939636,-0.0012284,0.00233344,-0.00172033,0.00302865,-0.00192361,-1.18675,0.00288282,0.0417446,678,1016,-24.3469,-0.939658
-539,8,-24.4853,0.86438,-0.00264206,0.00262785,-0.000535701,0.00268176,-0.00269597,-1.47051,0.00310483,0.0419475,685,1016,-24.4853,-0.864375
-532,8,-24.6179,0.765198,-0.00464902,0.0030973,-0.00183455,0.00350981,-0.00506152,-1.34962,0.00497562,0.0435275,692,1016,-24.6179,-0.765216
-525,8,0,0,0,0,0,0,0,0,0,-1,699,1016,0,0
-518,8,0,0,0,0,0,0,0,0,0,-1,706,1016,0,0
-511,8,0,0,0,0,0,0,0,0,0,-1,713,1016,0,0
-504,8,0,0,0,0,0,0,0,0,0,-1,720,1016,0,0
-497,8,0,0,0,0,0,0,0,0,0,-1,727,1016,0,0
-490,8,0,0,0,0,0,0,0,0,0,-1,734,1016,0,0
-483,8,0,0,0,0,0,0,0,0,0,-1,741,1016,0,0
-476,8,0,0,0,0,0,0,0,0,0,-1,748,1016,0,0
-469,8,0,0,0,0,0,0,0,0,0,-1,755,1016,0,0
-462,8,0,0,0,0,0,0,0,0,0,-1,762,1016,0,0
-455,8,0,0,0,0,0,0,0,0,0,-1,769,1016,0,0
-448,8,0,0,0,0,0,0,0,0,0,-1,776,1016,0,0
-441,8,0,0,0,0,0,0,0,0,0,-1,783,1016,0,0
-434,8,0,0,0,0,0,0,0,0,0,-1,790,1016,0,0
-427,8,0,0,0,0,0,0,0,0,0,-1,797,1016,0,0
-420,8,0,0,0,0,0,0,0,0,0,-1,804,1016,0,0
-413,8,0,0,0,0,0,0,0,0,0,-1,811,1016,0,0
-406,8,0,0,0,0,0,0,0,0,0,-1,818,1016,0,0
-399,8,0,0,0,0,0,0,0,0,0,-1,825,1016,0,0
-392,8,0,0,0,0,0,0,0,0,0,-1,832,1016,0,0
-385,8,0,0,0,0,0,0,0,0,0,-1,839,1016,0,0
-378,8,0,0,0,0,0,0,0,0,0,-1,846,1016,0,0
-371,8,0,0,0,0,0,0,0,0,0,-1,853,1016,0,0
-364,8,0,0,0,0,0,0,0,0,0,-1,860,1016,0,0
-357,8,0,0,0,0,0,0,0,0,0,-1,867,1016,0,0
-350,8,0,0,0,0,0,0,0,0,0,-1,874,1016,0,0
-343,8,0,0,0,0,0,0,0,0,0,-1,881,1016,0,0
-336,8,0,0,0,0,0,0,0,0,0,-1,888,1016,0,0
-329,8,0,0,0,0,0,0,0,0,0,-1,895,1016,0,0
-322,8,0,0,0,0,0,0,0,0,0,-1,902,1016,0,0
-315,8,0,0,0,0,0,0,0,0,0,-1,909,1016,0,0
-308,8,0,0,0,0,0,0,0,0,0,-1,916,1016,0,0
-301,8,0,0,0,0,0,0,0,0,0,-1,923,1016,0,0
-294,8,0,0,0,0,0,0,0,0,0,-1,930,1016,0,0
-287,8,0,0,0,0,0,0,0,0,0,-1,937,1016,0,0
-280,8,0,0,0,0,0,0,0,0,0,-1,944,1016,0,0
-273,8,0,0,0,0,0,0,0,0,0,-1,951,1016,0,0
-266,8,0,0,0,0,0,0,0,0,0,-1,958,1016,0,0
-259,8,0,0,0,0,0,0,0,0,0,-1,965,1016,0,0
-252,8,0,0,0,0,0,0,0,0,0,-1,972,1016,0,0
-245,8,0,0,0,0,0,0,0,0,0,-1,979,1016,0,0
-238,8,0,0,0,0,0,0,0,0,0,-1,986,1016,0,0
-231,8,0,0,0,0,0,0,0,0,0,-1,993,1016,0,0
-224,8,0,0,0,0,0,0,0,0,0,-1,1000,1016,0,0
-217,8,0,0,0,0,0,0,0,0,0,-1,1007,1016,0,0
-210,8,0,0,0,0,0,0,0,0,0,-1,1014,1016,0,0
-203,8,0,0,0,0,0,0,0,0,0,-1,1021,1016,0,0
-196,8,0,0,0,0,0,0,0,0,0,-1,1028,1016,0,0
-189,8,0,0,0,0,0,0,0,0,0,-1,1035,1016,0,0
-182,8,0,0,0,0,0,0,0,0,0,-1,1042,1016,0,0
-175,8,0,0,0,0,0,0,0,0,0,-1,1049,1016,0,0
-168,8,0,0,0,0,0,0,0,0,0,-1,1056,1016,0,0
-161,8,0,0,0,0,0,0,0,0,0,-1,1063,1016,0,0
-154,8,0,0,0,0,0,0,0,0,0,-1,1070,1016,0,0
-147,8,0,0,0,0,0,0,0,0,0,-1,1077,1016,0,0
-140,8,0,0,0,0,0,0,0,0,0,-1,1084,1016,0,0
-133,8,0,0,0,0,0,0,0,0,0,-1,1091,1016,0,0
-126,8,0,0,0,0,0,0,0,0,0,-1,1098,1016,0,0
-119,8,0,0,0,0,0,0,0,0,0,-1,1105,1016,0,0
-112,8,0,0,0,0,0,0,0,0,0,-1,1112,1016,0,0
-105,8,0,0,0,0,0,0,0,0,0,-1,1119,1016,0,0
-98,8,0,0,0,0,0,0,0,0,0,-1,1126,1016,0,0
-91,8,0,0,0,0,0,0,0,0,0,-1,1133,1016,0,0
-84,8,0,0,0,0,0,0,0,0,0,-1,1140,1016,0,0
-77,8,0,0,0,0,0,0,0,0,0,-1,1147,1016,0,0
-70,8,0,0,0,0,0,0,0,0,0,-1,1154,1016,0,0
-63,8,0,0,0,0,0,0,0,0,0,-1,1161,1016,0,0
-56,8,0,0,0,0,0,0,0,0,0,-1,1168,1016,0,0
-49,8,0,0,0,0,0,0,0,0,0,-1,1175,1016,0,0
-42,8,0,0,0,0,0,0,0,0,0,-1,1182,1016,0,0
-35,8,0,0,0,0,0,0,0,0,0,-1,1189,1016,0,0
-28,8,0,0,0,0,0,0,0,0,0,-1,1196,1016,0,0
-21,8,0,0,0,0,0,0,0,0,0,-1,1203,1016,0,0
-14,8,0,0,0,0,0,0,0,0,0,-1,1210,1016,0,0
-7,8,0,0,0,0,0,0,0,0,0,-1,1217,1016,0,0
0,8,0,0,0,0,0,0,0,0,0,-1,1224,1016,0,0
7,8,0,0,0,0,0,0,0,0,0,-1,1231,1016,0,0
14,8,0,0,0,0,0,0,0,0,0,-1,1238,1016,0,0
21,8,0,0,0,0,0,0,0,0,0,-1,1245,1016,0,0
28,8,0,0,0,0,0,0,0,0,0,-1,1252,1016,0,0
35,8,0,0,0,0,0,0,0,0,0,-1,1259,1016,0,0
42,8,0,0,0,0,0,0,0,0,0,-1,1266,1016,0,0
49,8,0,0,0,0,0,0,0,0,0,-1,1273,1016,0,0
56,8,0,0,0,0,0,0,0,0,0,-1,1280,1016,0,0
63,8,0,0,0,0,0,0,0,0,0,-1,1287,1016,0,0
70,8,0,0,0,0,0,0,0,0,0,-1,1294,1016,0,0
77,8,0,0,0,0,0,0,0,0,0,-1,1301,1016,0,0
84,8,0,0,0,0,0,0,0,0,0,-1,1308,1016,0,0
91,8,0,0,0,0,0,0,0,0,0,-1,1315,1016,0,0
98,8,0,0,0,0,0,0,0,0,0,-1,1322,1016,0,0
105,8,0,0,0,0,0,0,0,0,0,-1,1329,1016,0,0
112,8,0,0,0,0,0,0,0,0,0,-1,1336,1016,0,0
119,8,0,0,0,0,0,0,0,0,0,-1,1343,1016,0,0
126,8,0,0,0,0,0,0,0,0,0,-1,1350,1016,0,0
133,8,0,0,0,0,0,0,0,0,0,-1,1357,1016,0,0
140,8,0,0,0,0,0,0,0,0,0,-1,1364,1016,0,0
147,8,0,0,0,0,0,0,0,0,0,-1,1371,1016,0,0
154,8,0,0,0,0,0,0,0,0,0,-1,1378,1016,0,0
161,8,0,0,0,0,0,0,0,0,0,-1,1385,1016,0,0
168,8,0,0,0,0,0,0,0,0,0,-1,1392,1016,0,0
175,8,0,0,0,0,0,0,0,0,0,-1,1399,1016,0,0
182,8,0,0,0,0,0,0,0,0,0,-1,1406,1016,0,0
189,8,0,0,0,0,0,0,0,0,0,-1,1413,1016,0,0
196,8,0,0,0,0,0,0,0,0,0,-1,1420,1016,0,0
203,8,0,0,0,0,0,0,0,0,0,-1,1427,1016,0,0
210,8,0,0,0,0,0,0,0,0,0,-1,1434,1016,0,0
217,8,0,0,0,0,0,0,0,0,0,-1,1441,1016,0,0
224,8,0,0,0,0,0,0,0,0,0,-1,1448,1016,0,0
231,8,0,0,0,0,0,0,0,0,0,-1,1455,1016,0,0
238,8,0,0,0,0,0,0,0,0,0,-1,1462,1016,0,0
245,8,0,0,0,0,0,0,0,0,0,-1,1469,1016,0,0
252,8,0,0,0,0,0,0,0,0,0,-1,1476,1016,0,0
259,8,0,0,0,0,0,0,0,0,0,-1,1483,1016,0,0
266,8,0,0,0,0,0,0,0,0,0,-1,1490,1016,0,0
273,8,0,0,0,0,0,0,0,0,0,-1,1497,1016,0,0
280,8,0,0,0,0,0,0,0,0,0,-1,1504,1016,0,0
287,8,0,0,0,0,0,0,0,0,0,-1,1511,1016,0,0
294,8,0,0,0,0,0,0,0,0,0,-1,1518,1016,0,0
301,8,0,0,0,0,0,0,0,0,0,-1,1525,1016,0,0
308,8,0,0,0,0,0,0,0,0,0,-1,1532,1016,0,0
315,8,0,0,0,0,0,0,0,0,0,-1,1539,1016,0,0
322,8,0,0,0,0,0,0,0,0,0,-1,1546,1016,0,0
329,8,0,0,0,0,0,0,0,0,0,-1,1553,1016,0,0
336,8,0,0,0,0,0,0,0,0,0,-1,1560,1016,0,0
343,8,0,0,0,0,0,0,0,0,0,-1,1567,1016,0,0
350,8,0,0,0,0,0,0,0,0,0,-1,1574,1016,0,0
357,8,0,0,0,0,0,0,0,0,0,-1,1581,1016,0,0
364,8,0,0,0,0,0,0,0,0,0,-1,1588,1016,0,0
371,8,0,0,0,0,0,0,0,0,0,-1,1595,1016,0,0
378,8,0,0,0,0,0,0,0,0,0,-1,1602,1016,0,0
385,8,0,0,0,0,0,0,0,0,0,-1,1609,1016,0,0
392,8,0,0,0,0,0,0,0,0,0,-1,1616,1016,0,0
399,8,0,0,0,0,0,0,0,0,0,-1,1623,1016,0,0
406,8,0,0,0,0,0,0,0,0,0,-1,1630,1016,0,0
413,8,0,0,0,0,0,0,0,0,0,-1,1637,1016,0,0
420,8,0,0,0,0,0,0,0,0,0,-1,1644,1016,0,0
427,8,0,0,0,0,0,0,0,0,0,-1,1651,1016,0,0
434,8,0,0,0,0,0,0,0,0,0,-1,1658,1016,0,0
441,8,0,0,0,0,0,0,0,0,0,-1,1665,1016,0,0
448,8,0,0,0,0,0,0,0,0,0,-1,1672,1016,0,0
455,8,0,0,0,0,0,0,0,0,0,-1,1679,1016,0,0
462,8,0,0,0,0,0,0,0,0,0,-1,1686,1016,0,0
469,8,0,0,0,0,0,0,0,0,0,-1,1693,1016,0,0
476,8,0,0,0,0,0,0,0,0,0,-1,1700,1016,0,0
483,8,0,0,0,0,0,0,0,0,0,-1,1707,1016,0,0
490,8,0,0,0,0,0,0,0,0,0,-1,1714,1016,0,0
497,8,0,0,0,0,0,0,0,0,0,-1,1721,1016,0,0
504,8,0,0,0,0,0,0,0,0,0,-1,1728,1016,0,0
511,8,0,0,0,0,0,0,0,0,0,-1,1735,1016,0,0
518,8,0,0,0,0,0,0,0,0,0,-1,1742,1016,0,0
525,8,0,0,0,0,0,0,0,0,0,-1,1749,1016,0,0
532,8,0,0,0,0,0,0,0,0,0,-1,1756,1016,0,0
539,8,0,0,0,0,0,0,0,0,0,-1,1763,1016,0,0
546,8,0,0,0,0,0,0,0,0,0,-1,1770,1016,0,0
553,8,0,0,0,0,0,0,0,0,0,-1,1777,1016,0,0
560,8,0,0,0,0,0,0,0,0,0,-1,1784,1016,0,0
567,8,0,0,0,0,0,0,0,0,0,-1,1791,1016,0,0
574,8,0,0,0,0,0,0,0,0,0,-1,1798,1016,0,0
581,8,0,0,0,0,0,0,0,0,0,-1,1805,1016,0,0
588,8,0,0,0,0,0,0,0,0,0,-1,1812,1016,0,0
595,8,0,0,0,0,0,0,0,0,0,-1,1819,1016,0,0
602,8,0,0,0,0,0,0,0,0,0,-1,1826,1016,0,0
609,8,0,0,0,0,0,0,0,0,0,-1,1833,1016,0,0
616,8,0,0,0,0,0,0,0,0,0,-1,1840,1016,0,0
623,8,0,0,0,0,0,0,0,0,0,-1,1847,1016,0,0
630,8,0,0,0,0,0,0,0,0,0,-1,1854,1016,0,0
637,8,0,0,0,0,0,0,0,0,0,-1,1861,1016,0,0
644,8,34.0289,2.65692,0.0105135,0.00279358,0.00380934,0.0120767,0.00123041,0.389398,0.00767394,0.0416175,1868,1016,34.0289,-2.6569
651,8,34.0977,2.68665,0.00785785,0.00242662,0.00270699,0.0089766,0.00130787,0.391904,0.00559959,0.0395115,1875,1016,34.0977,-2.68667
658,8,34.0446,2.59674,0.0055991,0.00210906,0.00196931,0.00648529,0.00122287,0.422855,0.00397904,0.0402969,1882,1016,34.0446,-2.59673
665,8,34.0782,2.52618,0.00371421,0.0019414,0.00167663,0.00472433,0.000931283,0.542233,0.00288959,0.0426605,1889,1016,34.0783,-2.52617
672,8,34.1727,2.54218,0.00207027,0.00182287,0.00181175,0.00376254,0.000130609,0.751313,0.00246598,0.041161,1896,1016,34.1727,-2.54219
679,8,34.2012,2.57538,0.000557397,0.00184911,0.00231887,0.00361039,-0.00120388,0.921217,0.00289296,0.0382153,1903,1016,34.2011,-2.57538
686,8,34.2036,2.78668,-0.000390941,0.00169213,0.00284373,0.00367905,-0.00237787,0.96094,0.00352376,0.0401499,1910,1016,34.2036,-2.7867
693,8,34.1467,2.79187,-0.000960978,0.00150979,0.00329636,0.00379466,-0.00324584,0.964684,0.00406895,0.0400979,1917,1016,34.1467,-2.79188
700,8,34.1664,2.73267,-0.0013397,0.00136537,0.00352285,0.00378641,-0.00376073,0.968687,0.00435735,0.0308577,1924,1016,34.1663,-2.73268
707,8,34.1565,2.77283,-0.00171315,0.00132365,0.00358153,0.00369535,-0.00408485,0.98589,0.00449378,0.0214015,1931,1016,34.1565,-2.7728
714,8,34.1417,1.78461,0,0,0,0,0,0,0,-1,1938,1016,34.1417,-1.78459
721,8,34.1909,3.29437,0,0,0,0,0,0,0,-1,1945,1016,34.191,-3.29435
728,8,33.7219,4.78546,0,0,0,0,0,0,0,-1,1952,1016,33.7219,-4.78543
735,8,33.7068,4.83362,-0.00325733,0.00261528,0.00325032,0.00405922,-0.00470126,1.15274,0.00506239,0.0244217,1959,1016,33.7067,-4.83363
742,8,33.8057,4.84778,-0.00345787,0.0032143,0.00276061,0.00420839,-0.00445197,1.22515,0.00500072,0.0281268,1966,1016,33.8057,-4.84777
749,8,33.8011,4.98248,-0.0038828,0.00411795,0.00215418,0.00466109,-0.00442594,1.32381,0.00524698,0.0213265,1973,1016,33.8012,-4.98248
756,8,33.7477,4.97577,-0.00429175,0.0054545,0.00133567,0.00563423,-0.00447148,1.43704,0.00584739,0.0180097,1980,1016,33.7477,-4.97577
763,8,33.7419,5.02405,-0.00469538,0.00724382,0.000342327,0.00725362,-0.00470519,1.54216,0.00695649,0.0141904,1987,1016,33.742,-5.02404
770,8,33.6825,5.03693,-0.00492075,0.00963627,-0.000781948,0.00967816,-0.00496263,-1.51729,0.00859777,0.0167078,1994,1016,33.6825,-5.03695
777,8,33.4849,5.12158,-0.00483222,0.0122428,-0.00185251,0.0124415,-0.00503089,-1.46396,0.0103857,0.0284745,2001,1016,33.4849,-5.12156
784,8,33.5441,5.17053,-0.00437709,0.015063,-0.00304556,0.015529,-0.00484304,-1.41898,0.0122893,0.0456808,2008,1016,33.5441,-5.17055
791,8,33.6194,5.12128,-0.00307536,0.0179298,-0.00477799,0.0189656,-0.00411112,-1.35732,0.0142137,0.0471409,2015,1016,33.6194,-5.12125
798,8,33.5078,5.14429,0,0,0,0,0,0,0,-1,2022,1016,33.5077,-5.14427
805,8,33.7786,4.33807,0.0034205,0.0238838,-0.010993,0.0286699,-0.00136557,-1.16017,0.0195843,0.047262,2029,1016,33.7786,-4.33806
812,8,34.1208,4.24341,0,0,0,0,0,0,0,-1,2036,1016,34.1208,-4.24339
-700,1,0,0,0,0,0,0,0,0,0,-1,524,1023,0,0
-693,1,-23.3879,2.34949,0,0,0,0,0,0,0,-1,531,1023,-23.3879,-2.34947
-686,1,-23.7261,2.27228,0,0,0,0,0,0,0,-1,538,1023,-23.7261,-2.2723
-679,1,-23.9868,2.15344,0,0,0,0,0,0,0,-1,545,1023,-23.9868,-2.15343
-672,1,-24.0536,1.91174,-0.0213969,0.0478386,-0.0125585,0.0500461,-0.0236045,-1.39679,0.043426,0.049338,552,1023,-24.0536,-1.91177
-665,1,-24.2782,1.98798,-0.0167592,0.0405668,-0.00749812,0.0415313,-0.0177237,-1.44287,0.0351193,0.0456731,559,1023,-24.2782,-1.98799
-658,1,-24.6528,2.07544,-0.0129356,0.0335307,-0.00382238,0.033843,-0.0132479,-1.48927,0.0280413,0.0354009,566,1023,-24.6528,-2.07543
-651,1,-24.5969,2.16974,-0.00979019,0.0268903,-0.001427,0.0269457,-0.00984562,-1.53197,0.021993,0.0200206,573,1023,-24.5969,-2.16974
-644,1,-24.4727,2.29004,-0.00715457,0.0208258,-0.000516753,0.0208354,-0.00716411,-1.55234,0.0167956,0.0315576,580,1023,-24.4726,-2.29004
-637,1,-24.6103,2.2442,-0.0047091,0.0150794,-0.000361009,0.015086,-0.00471568,-1.55256,0.0119437,0.0267383,587,1023,-24.6103,-2.2442
-630,1,-24.7838,2.24103,-0.00268349,0.0104932,-0.00120252,0.010602,-0.00279234,-1.48053,0.00815964,0.0236901,594,1023,-24.7838,-2.24103
-623,1,-24.7218,2.31195,-0.001912,0.00688149,-0.00352418,0.00811956,-0.00315008,-1.23296,0.00671408,0.0136022,601,1023,-24.7218,-2.31196
-616,1,-24.7585,2.27325,-0.000706675,0.00382108,-0.00563454,0.00762953,-0.00451513,-0.976421,0.00708816,0.0163626,608,1023,-24.7586,-2.27323
-609,1,-24.762,2.271,0.000156995,0.0015854,-0.00752054,0.00842557,-0.00668318,-0.83274,0.00874235,0.0197294,615,1023,-24.762,-2.27099
-602,1,-24.7053,2.30011,0.000865681,0.000827769,-0.00898655,0.0098333,-0.00813985,-0.784343,0.0103921,0.0140374,622,1023,-24.7053,-2.30013
-595,1,-24.6186,2.2785,0.00142623,-8.15384e-05,-0.00985453,0.0105557,-0.00921098,-0.747222,0.0114211,0.0247475,629,1023,-24.6186,-2.27849
-588,1,-24.5642,1.53186,0.00176985,-0.000319094,-0.0101388,0.0109179,-0.00946712,-0.734071,0.0117792,0.034916,636,1023,-24.5642,-1.53185
-581,1,-24.4772,0.705994,0,0,0,0,0,0,0,-1,643,1023,-24.4773,-0.706003
-574,1,-24.4097,0.863464,0.00168833,-3.54969e-05,-0.00913648,0.0100035,-0.00835064,-0.738369,0.0106111,0.0360373,650,1023,-24.4097,-0.863457
-567,1,-24.3283,0.766235,0.00130675,0.00045572,-0.00771602,0.00860897,-0.00684651,-0.757853,0.00894255,0.0426712,657,1023,-24.3283,-0.766248
-560,1,-24.3071,0.548584,0.000708579,0.00109394,-0.00577106,0.00667554,-0.00487302,-0.802086,0.00669458,0.0398837,664,1023,-24.3071,-0.548598
-553,1,-24.3209,1.23938,-0.000195887,0.0017681,-0.00346655,0.00438907,-0.00281685,-0.923421,0.00419322,0.0421072,671,1023,-24.3209,-1.23938
-546,1,-24.2623,0.732483,-0.00142608,0.00232644,-0.00102963,0.00259039,-0.00169003,-1.31985,0.00248946,0.0433244,678,1023,-24.2623,-0.73247
-539,1,-24.3931,0.676636,-0.00291913,0.00251564,0.000495403,0.00256043,-0.00296392,1.48063,0.00319232,0.0443323,685,1023,-24.3931,-0.67666
-532,1,-24.3862,0.786621,-0.0049674,0.00267938,-0.000721821,0.00274692,-0.00503494,-1.4775,0.00455713,0.0452933,692,1023,-24.3862,-0.786637
-525,1,0,0,0,0,0,0,0,0,0,-1,699,1023,0,0
-518,1,0,0,0,0,0,0,0,0,0,-1,706,1023,0,0
-511,1,0,0,0,0,0,0,0,0,0,-1,713,1023,0,0
-504,1,0,0,0,0,0,0,0,0,0,-1,720,1023,0,0
-497,1,0,0,0,0,0,0,0,0,0,-1,727,1023,0,0
-490,1,0,0,0,0,0,0,0,0,0,-1,734,1023,0,0
-483,1,0,0,0,0,0,0,0,0,0,-1,741,1023,0,0
-476,1,0,0,0,0,0,0,0,0,0,-1,748,1023,0,0
-469,1,0,0,0,0,0,0,0,0,0,-1,755,1023,0,0
-462,1,0,0,0,0,0,0,0,0,0,-1,762,1023,0,0
-455,1,0,0,0,0,0,0,0,0,0,-1,769,1023,0,0
-448,1,0,0,0,0,0,0,0,0,0,-1,776,1023,0,0
-441,1,0,0,0,0,0,0,0,0,0,-1,783,1023,0,0
-434,1,0,0,0,0,0,0,0,0,0,-1,790,1023,0,0
-427,1,0,0,0,0,0,0,0,0,0,-1,797,1023,0,0
-420,1,0,0,0,0,0,0,0,0,0,-1,804,1023,0,0
-413,1,0,0,0,0,0,0,0,0,0,-1,811,1023,0,0
-406,1,0,0,0,0,0,0,0,0,0,-1,818,1023,0,0
-399,1,0,0,0,0,0,0,0,0,0,-1,825,1023,0,0
-392,1,0,0,0,0,0,0,0,0,0,-1,832,1023,0,0
-385,1,0,0,0,0,0,0,0,0,0,-1,839,1023,0,0
-378,1,0,0,0,0,0,0,0,0,0,-1,846,1023,0,0
-371,1,0,0,0,0,0,0,0,0,0,-1,853,1023,0,0
-364,1,0,0,0,0,0,0,0,0,0,-1,860,1023,0,0
-357,1,0,0,0,0,0,0,0,0,0,-1,867,1023,0,0
-350,1,0,0,0,0,0,0,0,0,0,-1,874,1023,0,0
-343,1,0,0,0,0,0,0,0,0,0,-1,881,1023,0,0
-336,1,0,0,0,0,0,0,0,0,0,-1,888,1023,0,0
-329,1,0,0,0,0,0,0,0,0,0,-1,895,1023,0,0
-322,1,0,0,0,0,0,0,0,0,0,-1,902,1023,0,0
-315,1,0,0,0,0,0,0,0,0,0,-1,909,1023,0,0
-308,1,0,0,0,0,0,0,0,0,0,-1,916,1023,0,0
-301,1,0,0,0,0,0,0,0,0,0,-1,923,1023,0,0
-294,1,0,0,0,0,0,0,0,0,0,-1,930,1023,0,0
-287,1,0,0,0,0,0,0,0,0,0,-1,937,1023,0,0
-280,1,0,0,0,0,0,0,0,0,0,-1,944,1023,0,0
-273,1,0,0,0,0,0,0,0,0,0,-1,951,1023,0,0
-266,1,0,0,0,0,0,0,0,0,0,-1,958,1023,0,0
-259,1,0,0,0,0,0,0,0,0,0,-1,965,1023,0,0
-252,1,0,0,0,0,0,0,0,0,0,-1,972,1023,0,0
-245,1,0,0,0,0,0,0,0,0,0,-1,979,1023,0,0
-238,1,0,0,0,0,0,0,0,0,0,-1,986,1023,0,0
-231,1,0,0,0,0,0,0,0,0,0,-1,993,1023,0,0
-224,1,0,0,0,0,0,0,0,0,0,-1,1000,1023,0,0
-217,1,0,0,0,0,0,0,0,0,0,-1,1007,1023,0,0
-210,1,0,0,0,0,0,0,0,0,0,-1,1014,1023,0,0
-203,1,0,0,0,0,0,0,0,0,0,-1,1021,1023,0,0
-196,1,0,0,0,0,0,0,0,0,0,-1,1028,1023,0,0
-189,1,0,0,0,0,0,0,0,0,0,-1,1035,1023,0,0
-182,1,0,0,0,0,0,0,0,0,0,-1,1042,1023,0,0
-175,1,0,0,0,0,0,0,0,0,0,-1,1049,1023,0,0
-168,1,0,0,0,0,0,0,0,0,0,-1,1056,1023,0,0
-161,1,0,0,0,0,0,0,0,0,0,-1,1063,1023,0,0
-154,1,0,0,0,0,0,0,0,0,0,-1,1070,1023,0,0
-147,1,0,0,0,0,0,0,0,0,0,-1,1077,1023,0,0
-140,1,0,0,0,0,0,0,0,0,0,-1,1084,1023,0,0
-133,1,0,0,0,0,0,0,0,0,0,-1,1091,1023,0,0
-126,1,0,0,0,0,0,0,0,0,0,-1,1098,1023,0,0
-119,1,0,0,0,0,0,0,0,0,0,-1,1105,1023,0,0
-112,1,0,0,0,0,0,0,0,0,0,-1,1112,1023,0,0
-105,1,0,0,0,0,0,0,0,0,0,-1,1119,1023,0,0
-98,1,0,0,0,0,0,0,0,0,0,-1,1126,1023,0,0
-91,1,0,0,0,0,0,0,0,0,0,-1,1133,1023,0,0
-84,1,0,0,0,0,0,0,0,0,0,-1,1140,1023,0,0
-77,1,0,0,0,0,0,0,0,0,0,-1,1147,1023,0,0
-70,1,0,0,0,0,0,0,0,0,0,-1,1154,1023,0,0
-63,1,0,0,0,0,0,0,0,0,0,-1,1161,1023,0,0
-56,1,0,0,0,0,0,0,0,0,0,-1,1168,1023,0,0
-49,1,0,0,0,0,0,0,0,0,0,-1,1175,1023,0,0
-42,1,0,0,0,0,0,0,0,0,0,-1,1182,1023,0,0
-35,1,0,0,0,0,0,0,0,0,0,-1,1189,1023,0,0
-28,1,0,0,0,0,0,0,0,0,0,-1,1196,1023,0,0
-21,1,0,0,0,0,0,0,0,0,0,-1,1203,1023,0,0
-14,1,0,0,0,0,0,0,0,0,0,-1,1210,1023,0,0
-7,1,0,0,0,0,0,0,0,0,0,-1,1217,1023,0,0
0,1,0,0,0,0,0,0,0,0,0,-1,1224,1023,0,0
7,1,0,0,0,0,0,0,0,0,0,-1,1231,1023,0,0
14,1,0,0,0,0,0,0,0,0,0,-1,1238,1023,0,0
21,1,0,0,0,0,0,0,0,0,0,-1,1245,1023,0,0
28,1,0,0,0,0,0,0,0,0,0,-1,1252,1023,0,0
35,1,0,0,0,0,0,0,0,0,0,-1,1259,1023,0,0
42,1,0,0,0,0,0,0,0,0,0,-1,1266,1023,0,0
49,1,0,0,0,0,0,0,0,0,0,-1,1273,1023,0,0
56,1,0,0,0,0,0,0,0,0,0,-1,1280,1023,0,0
63,1,0,0,0,0,0,0,0,0,0,-1,1287,1023,0,0
70,1,0,0,0,0,0,0,0,0,0,-1,1294,1023,0,0
77,1,0,0,0,0,0,0,0,0,0,-1,1301,1023,0,0
84,1,0,0,0,0,0,0,0,0,0,-1,1308,1023,0,0
91,1,0,0,0,0,0,0,0,0,0,-1,1315,1023,0,0
98,1,0,0,0,0,0,0,0,0,0,-1,1322,1023,0,0
105,1,0,0,0,0,0,0,0,0,0,-1,1329,1023,0,0
112,1,0,0,0,0,0,0,0,0,0,-1,1336,1023,0,0
119,1,0,0,0,0,0,0,0,0,0,-1,1343,1023,0,0
126,1,0,0,0,0,0,0,0,0,0,-1,1350,1023,0,0
133,1,0,0,0,0,0,0,0,0,0,-1,1357,1023,0,0
140,1,0,0,0,0,0,0,0,0,0,-1,1364,1023,0,0
147,1,0,0,0,0,0,0,0,0,0,-1,1371,1023,0,0
154,1,0,0,0,0,0,0,0,0,0,-1,1378,1023,0,0
161,1,0,0,0,0,0,0,0,0,0,-1,1385,1023,0,0
168,1,0,0,0,0,0,0,0,0,0,-1,1392,1023,0,0
175,1,0,0,0,0,0,0,0,0,0,-1,1399,1023,0,0
182,1,0,0,0,0,0,0,0,0,0,-1,1406,1023,0,0
189,1,0,0,0,0,0,0,0,0,0,-1,1413,1023,0,0
196,1,0,0,0,0,0,0,0,0,0,-1,1420,1023,0,0
203,1,0,0,0,0,0,0,0,0,0,-1,1427,1023,0,0
210,1,0,0,0,0,0,0,0,0,0,-1,1434,1023,0,0
217,1,0,0,0,0,0,0,0,0,0,-1,1441,1023,0,0
224,1,0,0,0,0,0,0,0,0,0,-1,1448,1023,0,0
231,1,0,0,0,0,0,0,0,0,0,-1,1455,1023,0,0
238,1,0,0,0,0,0,0,0,0,0,-1,1462,1023,0,0
245,1,0,0,0,0,0,0,0,0,0,-1,1469,1023,0,0
252,1,0,0,0,0,0,0,0,0,0,-1,1476,1023,0,0
259,1,0,0,0,0,0,0,0,0,0,-1,1483,1023,0,0
266,1,0,0,0,0,0,0,0,0,0,-1,1490,1023,0,0
273,1,0,0,0,0,0,0,0,0,0,-1,1497,1023,0,0
280,1,0,0,0,0,0,0,0,0,0,-1,1504,1023,0,0
287,1,0,0,0,0,0,0,0,0,0,-1,1511,1023,0,0
294,1,0,0,0,0,0,0,0,0,0,-1,1518,1023,0,0
301,1,0,0,0,0,0,0,0,0,0,-1,1525,1023,0,0
308,1,0,0,0,0,0,0,0,0,0,-1,1532,1023,0,0
315,1,0,0,0,0,0,0,0,0,0,-1,1539,1023,0,0
322,1,0,0,0,0,0,0,0,0,0,-1,1546,1023,0,0
329,1,0,0,0,0,0,0,0,0,0,-1,1553,1023,0,0
336,1,0,0,0,0,0,0,0,0,0,-1,1560,1023,0,0
343,1,0,0,0,0,0,0,0,0,0,-1,1567,1023,0,0
350,1,0,0,0,0,0,0,0,0,0,-1,1574,1023,0,0
357,1,0,0,0,0,0,0,0,0,0,-1,1581,1023,0,0
364,1,0,0,0,0,0,0,0,0,0,-1,1588,1023,0,0
371,1,0,0,0,0,0,0,0,0,0,-1,1595,1023,0,0
378,1,0,0,0,0,0,0,0,0,0,-1,1602,1023,0,0
385,1,0,0,0,0,0,0,0,0,0,-1,1609,1023,0,0
392,1,0,0,0,0,0,0,0,0,0,-1,1616,1023,0,0
399,1,0,0,0,0,0,0,0,0,0,-1,1623,1023,0,0
406,1,0,0,0,0,0,0,0,0,0,-1,1630,1023,0,0
413,1,0,0,0,0,0,0,0,0,0,-1,1637,1023,0,0
420,1,0,0,0,0,0,0,0,0,0,-1,1644,1023,0,0
427,1,0,0,0,0,0,0,0,0,0,-1,1651,1023,0,0
434,1,0,0,0,0,0,0,0,0,0,-1,1658,1023,0,0
441,1,0,0,0,0,0,0,0,0,0,-1,1665,1023,0,0
448,1,0,0,0,0,0,0,0,0,0,-1,1672,1023,0,0
455,1,0,0,0,0,0,0,0,0,0,-1,1679,1023,0,0
462,1,0,0,0,0,0,0,0,0,0,-1,1686,1023,0,0
469,1,0,0,0,0,0,0,0,0,0,-1,1693,1023,0,0
476,1,0,0,0,0,0,0,0,0,0,-1,1700,1023,0,0
483,1,0,0,0,0,0,0,0,0,0,-1,1707,1023,0,0
490,1,0,0,0,0,0,0,0,0,0,-1,1714,1023,0,0
497,1,0,0,0,0,0,0,0,0,0,-1,1721,1023,0,0
504,1,0,0,0,0,0,0,0,0,0,-1,1728,1023,0,0
511,1,0,0,0,0,0,0,0,0,0,-1,1735,1023,0,0
518,1,0,0,0,0,0,0,0,0,0,-1,1742,1023,0,0
525,1,0,0,0,0,0,0,0,0,0,-1,1749,1023,0,0
532,1,0,0,0,0,0,0,0,0,0,-1,1756,1023,0,0
539,1,0,0,0,0,0,0,0,0,0,-1,1763,1023,0,0
546,1,0,0,0,0,0,0,0,0,0,-1,1770,1023,0,0
553,1,0,0,0,0,0,0,0,0,0,-1,1777,1023,0,0
560,1,0,0,0,0,0,0,0,0,0,-1,1784,1023,0,0
567,1,0,0,0,0,0,0,0,0,0,-1,1791,1023,0,0
574,1,0,0,0,0,0,0,0,0,0,-1,1798,1023,0,0
581,1,0,0,0,0,0,0,0,0,0,-1,1805,1023,0,0
588,1,0,0,0,0,0,0,0,0,0,-1,1812,1023,0,0
595,1,0,0,0,0,0,0,0,0,0,-1,1819,1023,0,0
602,1,0,0,0,0,0,0,0,0,0,-1,1826,1023,0,0
609,1,0,0,0,0,0,0,0,0,0,-1,1833,1023,0,0
616,1,0,0,0,0,0,0,0,0,0,-1,1840,1023,0,0
623,1,0,0,0,0,0,0,0,0,0,-1,1847,1023,0,0
630,1,0,0,0,0,0,0,0,0,0,-1,1854,1023,0,0
637,1,0,0,0,0,0,0,0,0,0,-1,1861,1023,0,0
644,1,0,0,0,0,0,0,0,0,0,-1,1868,1023,0,0
651,1,34.063,2.82599,0.007008,0.00194501,0.00277988,0.00823631,0.000716691,0.416064,0.00526825,0.0396483,1875,1023,34.063,-2.82597
658,1,34.2045,2.85986,0.00490239,0.00188683,0.00205307,0.00594186,0.000847362,0.468676,0.00371117,0.0421893,1882,1023,34.2045,-2.85985
665,1,34.2355,2.68103,0.00318625,0.00189175,0.00171013,0.00436752,0.000710482,0.604489,0.00270612,0.0438919,1889,1023,34.2355,-2.68104
672,1,34.2112,2.67664,0.00175535,0.00188393,0.00178329,0.00360408,3.51924e-05,0.803416,0.00239108,0.0436595,1896,1023,34.2112,-2.67664
679,1,34.1136,2.71234,0.00045119,0.00194994,0.00222224,0.00354575,-0.00114463,0.948018,0.0028238,0.0402175,1903,1023,34.1136,-2.71235
686,1,34.204,2.74536,-0.000375631,0.00177388,0.00270299,0.00360795,-0.0022097,0.974623,0.00339101,0.0392546,1910,1023,34.2039,-2.74535
693,1,34.1407,2.69031,-0.00086434,0.00153274,0.00314526,0.00370008,-0.00303168,0.967435,0.00389296,0.0355408,1917,1023,34.1408,-2.6903
700,1,34.1317,2.71619,-0.00117139,0.00132795,0.00338917,0.0036905,-0.00353393,0.962027,0.00417136,0.0288524,1924,1023,34.1317,-2.7162
707,1,34.099,2.73596,-0.00149965,0.0012286,0.00345895,0.00358269,-0.00385374,0.973222,0.00429438,0.0231553,1931,1023,34.0991,-2.73599
714,1,34.2109,1.76904,0,0,0,0,0,0,0,-1,1938,1023,34.211,-1.76903
721,1,34.1198,3.37042,0,0,0,0,0,0,0,-1,1945,1023,34.1197,-3.37042
728,1,33.679,4.9707,0,0,0,0,0,0,0,-1,1952,1023,33.679,-4.97068
735,1,33.6953,4.90936,-0.00294706,0.00234551,0.00320976,0.0038592,-0.00446074,1.13013,0.0048077,0.0228063,1959,1023,33.6953,-4.90935
742,1,33.7739,4.91071,-0.00309381,0.0029303,0.00278274,0.00401899,-0.0041825,1.19787,0.00473545,0.0262641,1966,1023,33.774,-4.91073
749,1,33.7699,4.97443,-0.00339897,0.00384184,0.00220773,0.00446188,-0.00401901,1.297,0.00489867,0.0243238,1973,1023,33.7699,-4.97441
756,1,33.7894,5.01794,-0.00357435,0.00516086,0.0014247,0.00538735,-0.00380084,1.41314,0.0053311,0.0179935,1980,1023,33.7894,-5.01794
763,1,33.7584,4.99713,-0.00355542,0.00689609,0.000457877,0.00691611,-0.00357544,1.5271,0.00615881,0.0138914,1987,1023,33.7585,-4.99712
770,1,33.735,4.99109,-0.00316419,0.00919231,-0.000690334,0.00923076,-0.00320264,-1.51516,0.00745435,0.0143502,1994,1023,33.735,-4.9911
777,1,33.5989,4.95239,-0.00220886,0.0115891,-0.00180874,0.0118222,-0.00244202,-1.44259,0.00880905,0.0196489,2001,1023,33.5988,-4.95237
784,1,33.4935,5.05975,-0.000642896,0.0139929,-0.00305336,0.0146044,-0.00125435,-1.37315,0.0101802,0.0390389,2008,1023,33.4935,-5.05976
791,1,33.4033,5.27924,0.00211334,0.0161741,-0.00481599,0.0176655,0.000621988,-1.27049,0.0115752,0.0452947,2015,1023,33.4033,-5.27921
798,1,33.5737,3.78479,0,0,0,0,0,0,0,-1,2022,1023,33.5737,-3.78482
805,1,33.6448,4.48761,0,0,0,0,0,0,0,-1,2029,1023,33.6447,-4.48759
812,1,33.4824,4.70618,0,0,0,0,0,0,0,-1,2036,1023,33.4825,-4.70619
-700,-6,0,0,0,0,0,0,0,0,0,-1,524,1030,0,0
-693,-6,-23.6952,2.24097,0,0,0,0,0,0,0,-1,531,1030,-23.6952,-2.24099
-686,-6,-23.7496,2.02478,0,0,0,0,0,0,0,-1,538,1030,-23.7497,-2.02475
-679,-6,-23.6158,1.73401,0,0,0,0,0,0,0,-1,545,1030,-23.6159,-1.73405
-672,-6,-23.7057,2.34583,0,0,0,0,0,0,0,-1,552,1030,-23.7057,-2.34581
-665,-6,-24.4436,3.24268,0,0,0,0,0,0,0,-1,559,1030,-24.4436,-3.24266
-658,-6,-24.3726,2.3219,-0.00684299,0.0348922,-0.00549533,0.0356036,-0.00755443,-1.44205,0.0266137,0.0396791,566,1030,-24.3726,-2.32184
-651,-6,-24.6194,2.14453,-0.0053703,0.0276414,-0.00274724,0.0278685,-0.00559737,-1.48833,0.0206986,0.0376256,573,1030,-24.6194,-2.1445
-644,-6,-24.5074,2.21985,-0.00406555,0.021174,-0.00162064,0.0212776,-0.00416918,-1.50694,0.0157597,0.049656,580,1030,-24.5074,-2.21979
-637,-6,-24.6475,2.31677,-0.00278816,0.0149694,-0.00130985,0.0150655,-0.00288426,-1.49756,0.0111303,0.0304604,587,1030,-24.6475,-2.31675
-630,-6,-24.7209,2.23303,-0.00170215,0.0100414,-0.00205039,0.0103891,-0.00204985,-1.40282,0.00770081,0.0177161,594,1030,-24.7209,-2.23303
-623,-6,-24.7009,2.24792,-0.00138325,0.00645051,-0.00425437,0.0083165,-0.00324924,-1.15746,0.0068878,0.014025,601,1030,-24.7009,-2.24789
-616,-6,-24.7159,2.27197,-0.000475114,0.00329896,-0.00631767,0.0080054,-0.00518155,-0.930526,0.00767146,0.0151016,608,1030,-24.716,-2.27196
-609,-6,-24.6949,2.31482,0.00017899,0.00105764,-0.00823346,0.00886349,-0.00762686,-0.812052,0.00952962,0.0172745,615,1030,-24.6949,-2.31481
-602,-6,-24.6707,2.36304,0.000730331,0.000240803,-0.0097136,0.0102023,-0.00923112,-0.772802,0.0112245,0.0124502,622,1030,-24.6707,-2.36299
-595,-6,-24.5823,2.35217,0.00117216,-0.000554127,-0.0105688,0.010913,-0.0102949,-0.744654,0.0122461,0.0169796,629,1030,-24.5823,-2.35211
-588,-6,-24.5411,1.48889,0.00147432,-0.000750709,-0.010783,0.011202,-0.0104784,-0.733993,0.0125195,0.0203452,636,1030,-24.5412,-1.48894
-581,-6,-24.5536,0.650024,0,0,0,0,0,0,0,-1,643,1030,-24.5536,-0.650026
-574,-6,-24.4952,0.83313,0.00138698,-0.000361027,-0.00959026,0.010143,-0.00911702,-0.739956,0.011125,0.0298563,650,1030,-24.4952,-0.833115
-567,-6,-24.4565,0.810547,0.00101815,0.000228222,-0.0080023,0.00863523,-0.00738885,-0.76074,0.00926083,0.0410865,657,1030,-24.4566,-0.810516
-560,-6,-24.3329,0.578857,0.000447079,0.000978329,-0.00582237,0.00654113,-0.00511572,-0.808193,0.00674684,0.0420334,664,1030,-24.3329,-0.578852
-553,-6,-24.159,0.409058,-0.000414204,0.00176078,-0.00320848,0.00406106,-0.00271448,-0.948793,0.00393753,0.040416,671,1030,-24.159,-0.408999
-546,-6,-24.1552,0.747437,-0.00158986,0.00240084,-0.000389901,0.00243858,-0.0016276,-1.47431,0.00236313,0.0430996,678,1030,-24.1551,-0.747423
-539,-6,-24.2806,0.822388,-0.00303186,0.00257025,0.00145824,0.0029271,-0.00338871,1.3308,0.00364968,0.0440864,685,1030,-24.2806,-0.822328
-532,-6,-24.3807,0.99646,-0.00501861,0.00246068,0.000267855,0.00247026,-0.00502819,1.53504,0.0044124,0.0425151,692,1030,-24.3807,-0.99645
-525,-6,0,0,0,0,0,0,0,0,0,-1,699,1030,0,0
-518,-6,0,0,0,0,0,0,0,0,0,-1,706,1030,0,0
-511,-6,0,0,0,0,0,0,0,0,0,-1,713,1030,0,0
-504,-6,0,0,0,0,0,0,0,0,0,-1,720,1030,0,0
-497,-6,0,0,0,0,0,0,0,0,0,-1,727,1030,0,0
-490,-6,0,0,0,0,0,0,0,0,0,-1,734,1030,0,0
-483,-6,0,0,0,0,0,0,0,0,0,-1,741,1030,0,0
-476,-6,0,0,0,0,0,0,0,0,0,-1,748,1030,0,0
-469,-6,0,0,0,0,0,0,0,0,0,-1,755,1030,0,0
-462,-6,0,0,0,0,0,0,0,0,0,-1,762,1030,0,0
-455,-6,0,0,0,0,0,0,0,0,0,-1,769,1030,0,0
-448,-6,0,0,0,0,0,0,0,0,0,-1,776,1030,0,0
-441,-6,0,0,0,0,0,0,0,0,0,-1,783,1030,0,0
-434,-6,0,0,0,0,0,0,0,0,0,-1,790,1030,0,0
-427,-6,0,0,0,0,0,0,0,0,0,-1,797,1030,0,0
-420,-6,0,0,0,0,0,0,0,0,0,-1,804,1030,0,0
-413,-6,0,0,0,0,0,0,0,0,0,-1,811,1030,0,0
-406,-6,0,0,0,0,0,0,0,0,0,-1,818,1030,0,0
-399,-6,0,0,0,0,0,0,0,0,0,-1,825,1030,0,0
-392,-6,0,0,0,0,0,0,0,0,0,-1,832,1030,0,0
-385,-6,0,0,0,0,0,0,0,0,0,-1,839,1030,0,0
-378,-6,0,0,0,0,0,0,0,0,0,-1,846,1030,0,0
-371,-6,0,0,0,0,0,0,0,0,0,-1,853,1030,0,0
-364,-6,0,0,0,0,0,0,0,0,0,-1,860,1030,0,0
-357,-6,0,0,0,0,0,0,0,0,0,-1,867,1030,0,0
-350,-6,0,0,0,0,0,0,0,0,0,-1,874,1030,0,0
-343,-6,0,0,0,0,0,0,0,0,0,-1,881,1030,0,0
-336,-6,0,0,0,0,0,0,0,0,0,-1,888,1030,0,0
-329,-6,0,0,0,0,0,0,0,0,0,-1,895,1030,0,0
-322,-6,0,0,0,0,0,0,0,0,0,-1,902,1030,0,0
-315,-6,0,0,0,0,0,0,0,0,0,-1,909,1030,0,0
-308,-6,0,0,0,0,0,0,0,0,0,-1,916,1030,0,0
-301,-6,0,0,0,0,0,0,0,0,0,-1,923,1030,0,0
-294,-6,0,0,0,0,0,0,0,0,0,-1,930,1030,0,0
-287,-6,0,0,0,0,0,0,0,0,0,-1,937,1030,0,0
-280,-6,0,0,0,0,0,0,0,0,0,-1,944,1030,0,0
-273,-6,0,0,0,0,0,0,0,0,0,-1,951,1030,0,0
-266,-6,0,0,0,0,0,0,0,0,0,-1,958,1030,0,0
-259,-6,0,0,0,0,0,0,0,0,0,-1,965,1030,0,0
-252,-6,0,0,0,0,0,0,0,0,0,-1,972,1030,0,0
-245,-6,0,0,0,0,0,0,0,0,0,-1,979,1030,0,0
-238,-6,0,0,0,0,0,0,0,0,0,-1,986,1030,0,0
-231,-6,0,0,0,0,0,0,0,0,0,-1,993,1030,0,0
-224,-6,0,0,0,0,0,0,0,0,0,-1,1000,1030,0,0
-217,-6,0,0,0,0,0,0,0,0,0,-1,1007,1030,0,0
-210,-6,0,0,0,0,0,0,0,0,0,-1,1014,1030,0,0
-203,-6,0,0,0,0,0,0,0,0,0,-1,1021,1030,0,0
-196,-6,0,0,0,0,0,0,0,0,0,-1,1028,1030,0,0
-189,-6,0,0,0,0,0,0,0,0,0,-1,1035,1030,0,0
-182,-6,0,0,0,0,0,0,0,0,0,-1,1042,1030,0,0
-175,-6,0,0,0,0,0,0,0,0,0,-1,1049,1030,0,0
-168,-6,0,0,0,0,0,0,0,0,0,-1,1056,1030,0,0
-161,-6,0,0,0,0,0,0,0,0,0,-1,1063,1030,0,0
-154,-6,0,0,0,0,0,0,0,0,0,-1,1070,1030,0,0
-147,-6,0,0,0,0,0,0,0,0,0,-1,1077,1030,0,0
-140,-6,0,0,0,0,0,0,0,0,0,-1,1084,1030,0,0
-133,-6,0,0,0,0,0,0,0,0,0,-1,1091,1030,0,0
-126,-6,0,0,0,0,0,0,0,0,0,-1,1098,1030,0,0
-119,-6,0,0,0,0,0,0,0,0,0,-1,1105,1030,0,0
-112,-6,0,0,0,0,0,0,0,0,0,-1,1112,1030,0,0
-105,-6,0,0,0,0,0,0,0,0,0,-1,1119,1030,0,0
-98,-6,0,0,0,0,0,0,0,0,0,-1,1126,1030,0,0
-91,-6,0,0,0,0,0,0,0,0,0,-1,1133,1030,0,0
-84,-6,0,0,0,0,0,0,0,0,0,-1,1140,1030,0,0
-77,-6,0,0,0,0,0,0,0,0,0,-1,1147,1030,0,0
-70,-6,0,0,0,0,0,0,0,0,0,-1,1154,1030,0,0
-63,-6,0,0,0,0,0,0,0,0,0,-1,1161,1030,0,0
-56,-6,0,0,0,0,0,0,0,0,0,-1,1168,1030,0,0
-49,-6,0,0,0,0,0,0,0,0,0,-1,1175,1030,0,0
-42,-6,0,0,0,0,0,0,0,0,0,-1,1182,1030,0,0
-35,-6,0,0,0,0,0,0,0,0,0,-1,1189,1030,0,0
-28,-6,0,0,0,0,0,0,0,0,0,-1,1196,1030,0,0
-21,-6,0,0,0,0,0,0,0,0,0,-1,1203,1030,0,0
-14,-6,0,0,0,0,0,0,0,0,0,-1,1210,1030,0,0
-7,-6,0,0,0,0,0,0,0,0,0,-1,1217,1030,0,0
0,-6,0,0,0,0,0,0,0,0,0,-1,1224,1030,0,0
7,-6,0,0,0,0,0,0,0,0,0,-1,1231,1030,0,0
14,-6,0,0,0,0,0,0,0,0,0,-1,1238,1030,0,0
21,-6,0,0,0,0,0,0,0,0,0,-1,1245,1030,0,0
28,-6,0,0,0,0,0,0,0,0,0,-1,1252,1030,0,0
35,-6,0,0,0,0,0,0,0,0,0,-1,1259,1030,0,0
42,-6,0,0,0,0,0,0,0,0,0,-1,1266,1030,0,0
49,-6,0,0,0,0,0,0,0,0,0,-1,1273,1030,0,0
56,-6,0,0,0,0,0,0,0,0,0,-1,1280,1030,0,0
63,-6,0,0,0,0,0,0,0,0,0,-1,1287,1030,0,0
70,-6,0,0,0,0,0,0,0,0,0,-1,1294,1030,0,0
77,-6,0,0,0,0,0,0,0,0,0,-1,1301,1030,0,0
84,-6,0,0,0,0,0,0,0,0,0,-1,1308,1030,0,0
91,-6,0,0,0,0,0,0,0,0,0,-1,1315,1030,0,0
98,-6,0,0,0,0,0,0,0,0,0,-1,1322,1030,0,0
105,-6,0,0,0,0,0,0,0,0,0,-1,1329,1030,0,0
112,-6,0,0,0,0,0,0,0,0,0,-1,1336,1030,0,0
119,-6,0,0,0,0,0,0,0,0,0,-1,1343,1030,0,0
126,-6,0,0,0,0,0,0,0,0,0,-1,1350,1030,0,0
133,-6,0,0,0,0,0,0,0,0,0,-1,1357,1030,0,0
140,-6,0,0,0,0,0,0,0,0,0,-1,1364,1030,0,0
147,-6,0,0,0,0,0,0,0,0,0,-1,1371,1030,0,0
154,-6,0,0,0,0,0,0,0,0,0,-1,1378,1030,0,0
161,-6,0,0,0,0,0,0,0,0,0,-1,1385,1030,0,0
168,-6,0,0,0,0,0,0,0,0,0,-1,1392,1030,0,0
175,-6,0,0,0,0,0,0,0,0,0,-1,1399,1030,0,0
182,-6,0,0,0,0,0,0,0,0,0,-1,1406,1030,0,0
189,-6,0,0,0,0,0,0,0,0,0,-1,1413,1030,0,0
196,-6,0,0,0,0,0,0,0,0,0,-1,1420,1030,0,0
203,-6,0,0,0,0,0,0,0,0,0,-1,1427,1030,0,0
210,-6,0,0,0,0,0,0,0,0,0,-1,1434,1030,0,0
217,-6,0,0,0,0,0,0,0,0,0,-1,1441,1030,0,0
224,-6,0,0,0,0,0,0,0,0,0,-1,1448,1030,0,0
231,-6,0,0,0,0,0,0,0,0,0,-1,1455,1030,0,0
238,-6,0,0,0,0,0,0,0,0,0,-1,1462,1030,0,0
245,-6,0,0,0,0,0,0,0,0,0,-1,1469,1030,0,0
252,-6,0,0,0,0,0,0,0,0,0,-1,1476,1030,0,0
259,-6,0,0,0,0,0,0,0,0,0,-1,1483,1030,0,0
266,-6,0,0,0,0,0,0,0,0,0,-1,1490,1030,0,0
273,-6,0,0,0,0,0,0,0,0,0,-1,1497,1030,0,0
280,-6,0,0,0,0,0,0,0,0,0,-1,1504,1030,0,0
287,-6,0,0,0,0,0,0,0,0,0,-1,1511,1030,0,0
294,-6,0,0,0,0,0,0,0,0,0,-1,1518,1030,0,0
301,-6,0,0,0,0,0,0,0,0,0,-1,1525,1030,0,0
308,-6,0,0,0,0,0,0,0,0,0,-1,1532,1030,0,0
315,-6,0,0,0,0,0,0,0,0,0,-1,1539,1030,0,0
322,-6,0,0,0,0,0,0,0,0,0,-1,1546,1030,0,0
329,-6,0,0,0,0,0,0,0,0,0,-1,1553,1030,0,0
336,-6,0,0,0,0,0,0,0,0,0,-1,1560,1030,0,0
343,-6,0,0,0,0,0,0,0,0,0,-1,1567,1030,0,0
350,-6,0,0,0,0,0,0,0,0,0,-1,1574,1030,0,0
357,-6,0,0,0,0,0,0,0,0,0,-1,1581,1030,0,0
364,-6,0,0,0,0,0,0,0,0,0,-1,1588,1030,0,0
371,-6,0,0,0,0,0,0,0,0,0,-1,1595,1030,0,0
378,-6,0,0,0,0,0,0,0,0,0,-1,1602,1030,0,0
385,-6,0,0,0,0,0,0,0,0,0,-1,1609,1030,0,0
392,-6,0,0,0,0,0,0,0,0,0,-1,1616,1030,0,0
399,-6,0,0,0,0,0,0,0,0,0,-1,1623,1030,0,0
406,-6,0,0,0,0,0,0,0,0,0,-1,1630,1030,0,0
413,-6,0,0,0,0,0,0,0,0,0,-1,1637,1030,0,0
420,-6,0,0,0,0,0,0,0,0,0,-1,1644,1030,0,0
427,-6,0,0,0,0,0,0,0,0,0,-1,1651,1030,0,0
434,-6,0,0,0,0,0,0,0,0,0,-1,1658,1030,0,0
441,-6,0,0,0,0,0,0,0,0,0,-1,1665,1030,0,0
448,-6,0,0,0,0,0,0,0,0,0,-1,1672,1030,0,0
455,-6,0,0,0,0,0,0,0,0,0,-1,1679,1030,0,0
462,-6,0,0,0,0,0,0,0,0,0,-1,1686,1030,0,0
469,-6,0,0,0,0,0,0,0,0,0,-1,1693,1030,0,0
476,-6,0,0,0,0,0,0,0,0,0,-1,1700,1030,0,0
483,-6,0,0,0,0,0,0,0,0,0,-1,1707,1030,0,0
490,-6,0,0,0,0,0,0,0,0,0,-1,1714,1030,0,0
497,-6,0,0,0,0,0,0,0,0,0,-1,1721,1030,0,0
504,-6,0,0,0,0,0,0,0,0,0,-1,1728,1030,0,0
511,-6,0,0,0,0,0,0,0,0,0,-1,1735,1030,0,0
518,-6,0,0,0,0,0,0,0,0,0,-1,1742,1030,0,0
525,-6,0,0,0,0,0,0,0,0,0,-1,1749,1030,0,0
532,-6,0,0,0,0,0,0,0,0,0,-1,1756,1030,0,0
539,-6,0,0,0,0,0,0,0,0,0,-1,1763,1030,0,0
546,-6,0,0,0,0,0,0,0,0,0,-1,1770,1030,0,0
553,-6,0,0,0,0,0,0,0,0,0,-1,1777,1030,0,0
560,-6,0,0,0,0,0,0,0,0,0,-1,1784,1030,0,0
567,-6,0,0,0,0,0,0,0,0,0,-1,1791,1030,0,0
574,-6,0,0,0,0,0,0,0,0,0,-1,1798,1030,0,0
581,-6,0,0,0,0,0,0,0,0,0,-1,1805,1030,0,0
588,-6,0,0,0,0,0,0,0,0,0,-1,1812,1030,0,0
595,-6,0,0,0,0,0,0,0,0,0,-1,1819,1030,0,0
602,-6,0,0,0,0,0,0,0,0,0,-1,1826,1030,0,0
609,-6,0,0,0,0,0,0,0,0,0,-1,1833,1030,0,0
616,-6,0,0,0,0,0,0,0,0,0,-1,1840,1030,0,0
623,-6,0,0,0,0,0,0,0,0,0,-1,1847,1030,0,0
630,-6,0,0,0,0,0,0,0,0,0,-1,1854,1030,0,0
637,-6,0,0,0,0,0,0,0,0,0,-1,1861,1030,0,0
644,-6,0,0,0,0,0,0,0,0,0,-1,1868,1030,0,0
651,-6,34.1635,2.76404,0.00637246,0.00120899,0.00290281,0.00767553,-9.40775e-05,0.421937,0.00514866,0.0375741,1875,1030,34.1635,-2.76408
658,-6,34.2595,2.76611,0.00436477,0.00131071,0.00211304,0.0054448,0.000230683,0.472509,0.00355547,0.040578,1882,1030,34.2595,-2.76616
665,-6,34.2506,2.68689,0.0027682,0.0014128,0.00168797,0.00390943,0.000271574,0.594503,0.00252064,0.0459935,1889,1030,34.2506,-2.68695
672,-6,34.2468,2.66736,0.00150701,0.00146863,0.00169789,0.00318582,-0.000210176,0.779746,0.00219729,0.0448914,1896,1030,34.2468,-2.66737
679,-6,34.1782,2.7876,0.000391953,0.00153281,0.00208548,0.00312446,-0.0011997,0.918895,0.00257768,0.0440375,1903,1030,34.1782,-2.7876
686,-6,34.0226,2.62305,-0.000324751,0.0013417,0.00254561,0.00318698,-0.00217003,0.943562,0.00311139,0.0410402,1910,1030,34.0226,-2.62305
693,-6,34.0641,2.64319,-0.000740874,0.00107134,0.00299741,0.00329661,-0.00296614,0.932179,0.00361748,0.0357915,1917,1030,34.064,-2.64319
700,-6,34.0704,2.71643,-0.000989536,0.000846015,0.00327334,0.00332781,-0.00347133,0.922078,0.00392577,0.0298453,1924,1030,34.0704,-2.71637
707,-6,34.0516,2.75806,-0.00128101,0.000732778,0.00336171,0.00323514,-0.00378337,0.930906,0.00405626,0.0266059,1931,1030,34.0516,-2.75803
714,-6,34.0371,2.0918,0,0,0,0,0,0,0,-1,1938,1030,34.0372,-2.09186
721,-6,33.9063,3.62341,0,0,0,0,0,0,0,-1,1945,1030,33.9062,-3.62338
728,-6,33.6372,4.84021,0,0,0,0,0,0,0,-1,1952,1030,33.6372,-4.84017
735,-6,33.7279,4.89539,-0.00258862,0.00189224,0.00320748,0.00356428,-0.00426066,1.09026,0.00452369,0.0236902,1959,1030,33.7279,-4.89543
742,-6,33.8013,4.90662,-0.00267026,0.00253158,0.00281237,0.00376136,-0.00390003,1.15858,0.00442355,0.0207909,1966,1030,33.8012,-4.90656
749,-6,33.7688,4.99646,-0.00285505,0.00351742,0.00223785,0.00422478,-0.00356241,1.26465,0.00450135,0.0181555,1973,1030,33.7688,-4.99642
756,-6,33.8094,4.94409,-0.00275723,0.00483216,0.00143903,0.00509585,-0.00302092,1.38956,0.00473699,0.0163971,1980,1030,33.8094,-4.94413
763,-6,33.7538,4.89063,-0.0022501,0.00650958,0.000453694,0.00653302,-0.00227354,1.51919,0.00527899,0.0149475,1987,1030,33.7538,-4.89062
770,-6,33.709,4.88721,-0.00115669,0.00868263,-0.00076813,0.00874224,-0.00121629,-1.49335,0.00627302,0.0133132,1994,1030,33.709,-4.88724
777,-6,33.6409,4.88794,0.000810714,0.0108329,-0.00199661,0.011216,0.000427597,-1.38122,0.00733893,0.0147131,2001,1030,33.6409,-4.88792
784,-6,33.5154,5.00671,0.00366695,0.0127453,-0.00335563,0.0138509,0.00256127,-1.2525,0.00850967,0.0339095,2008,1030,33.5153,-5.00676
791,-6,33.4204,5.29126,0.00812268,0.0141188,-0.00522426,0.0171441,0.00509734,-1.04589,0.0101656,0.044702,2015,1030,33.4205,-5.29126
798,-6,33.3154,5.57324,0,0,0,0,0,0,0,-1,2022,1030,33.3154,-5.57318
805,-6,33.7239,4.55078,0,0,0,0,0,0,0,-1,2029,1030,33.7239,-4.55079
812,-6,35.605,5.27161,0,0,0,0,0,0,0,-1,2036,1030,35.605,-5.27161
-700,-13,0,0,0,0,0,0,0,0,0,-1,524,1037,0,0
-693,-13,-26.4883,3.57898,0,0,0,0,0,0,0,-1,531,1037,-26.4882,-3.57894
-686,-13,-26.1068,3.10217,0,0,0,0,0,0,0,-1,538,1037,-26.1068,-3.10219
-679,-13,-25.6826,3.00244,0,0,0,0,0,0,0,-1,545,1037,-25.6826,-3.00244
-672,-13,-25.1011,2.79089,0,0,0,0,0,0,0,-1,552,1037,-25.1011,-2.79088
-665,-13,-24.8007,2.67847,-0.00117387,0.0450497,-0.0112197,0.0476291,-0.00375325,-1.34482,0.0330749,0.0477933,559,1037,-24.8006,-2.67845
-658,-13,-24.5223,2.55994,-0.00133779,0.0362628,-0.00671261,0.0374252,-0.00250021,-1.39933,0.0258239,0.0444038,566,1037,-24.5223,-2.55989
-651,-13,-24.4977,2.23157,-0.00143211,0.0283795,-0.00366269,0.0288229,-0.00187552,-1.45032,0.01987,0.0388174,573,1037,-24.4977,-2.23161
-644,-13,-24.5135,2.08606,-0.00136413,0.0215157,-0.00237366,0.0217593,-0.00160779,-1.4685,0.0150708,0.0285695,580,1037,-24.5135,-2.08606
-637,-13,-24.581,2.15857,-0.00118496,0.0148504,-0.00195098,0.0150844,-0.00141892,-1.45145,0.010561,0.0209523,587,1037,-24.581,-2.15855
-630,-13,-24.6537,2.16394,-0.00106565,0.00957345,-0.00271167,0.0102247,-0.00171692,-1.33509,0.00745499,0.013396,594,1037,-24.6537,-2.16393
-623,-13,-24.6398,2.20996,-0.00116898,0.00603556,-0.0048949,0.00851082,-0.00364424,-1.10261,0.00720278,0.0122629,601,1037,-24.6398,-2.20998
-616,-13,-24.627,2.26465,-0.000559981,0.00281662,-0.00696725,0.0082972,-0.00604056,-0.904267,0.00831202,0.0115521,608,1037,-24.627,-2.26467
-609,-13,-24.6249,2.32544,-0.000119152,0.000590198,-0.00893472,0.00917728,-0.00870623,-0.805236,0.0103262,0.0160959,615,1037,-24.6249,-2.32547
-602,-13,-24.619,2.37207,0.000252967,-0.000280651,-0.0104425,0.0104321,-0.0104597,-0.772626,0.0120619,0.0113971,622,1037,-24.619,-2.37208
-595,-13,-24.6294,2.40588,0,0,0,0,0,0,0,-1,629,1037,-24.6294,-2.40584
-588,-13,-24.3634,1.40686,0,0,0,0,0,0,0,-1,636,1037,-24.3634,-1.4068
-581,-13,-24.4492,0.30896,0,0,0,0,0,0,0,-1,643,1037,-24.4492,-0.308952
-574,-13,-24.5199,0.734131,0.000743863,-0.000573712,-0.010089,0.0101955,-0.0100254,-0.752796,0.0116747,0.0314253,650,1037,-24.5199,-0.734132
-567,-13,-24.5411,0.722412,0.000460223,0.000144225,-0.00833361,0.00863733,-0.00803288,-0.77592,0.00962666,0.0403642,657,1037,-24.5411,-0.722454
-560,-13,-24.4697,0.704834,3.30713e-05,0.00104984,-0.00591012,0.0064734,-0.00539049,-0.828302,0.00685912,0.0442889,664,1037,-24.4697,-0.704864
-553,-13,-24.292,0.587646,-0.00061672,0.00200138,-0.0029669,0.00393518,-0.00255052,-0.993162,0.00377286,0.0418605,671,1037,-24.292,-0.587611
-546,-13,-24.3856,0.92688,-0.00151544,0.00280987,0.000273009,0.00282704,-0.00153261,1.50801,0.00255376,0.0390506,678,1037,-24.3856,-0.926831
-539,-13,-24.4711,0.938721,-0.00264865,0.00308907,0.00253544,0.00404889,-0.00360847,1.20891,0.00442342,0.0392753,685,1037,-24.4711,-0.938687
-532,-13,-24.4784,0.754395,-0.00435211,0.00283316,0.00150494,0.00313564,-0.00465458,1.37245,0.00452609,0.0394816,692,1037,-24.4784,-0.754388
-525,-13,0,0,0,0,0,0,0,0,0,-1,699,1037,0,0
-518,-13,0,0,0,0,0,0,0,0,0,-1,706,1037,0,0
-511,-13,0,0,0,0,0,0,0,0,0,-1,713,1037,0,0
-504,-13,0,0,0,0,0,0,0,0,0,-1,720,1037,0,0
-497,-13,0,0,0,0,0,0,0,0,0,-1,727,1037,0,0
-490,-13,0,0,0,0,0,0,0,0,0,-1,734,1037,0,0
-483,-13,0,0,0,0,0,0,0,0,0,-1,741,1037,0,0
-476,-13,0,0,0,0,0,0,0,0,0,-1,748,1037,0,0
-469,-13,0,0,0,0,0,0,0,0,0,-1,755,1037,0,0
-462,-13,0,0,0,0,0,0,0,0,0,-1,762,1037,0,0
-455,-13,0,0,0,0,0,0,0,0,0,-1,769,1037,0,0
-448,-13,0,0,0,0,0,0,0,0,0,-1,776,1037,0,0
-441,-13,0,0,0,0,0,0,0,0,0,-1,783,1037,0,0
-434,-13,0,0,0,0,0,0,0,0,0,-1,790,1037,0,0
-427,-13,0,0,0,0,0,0,0,0,0,-1,797,1037,0,0
-420,-13,0,0,0,0,0,0,0,0,0,-1,804,1037,0,0
-413,-13,0,0,0,0,0,0,0,0,0,-1,811,1037,0,0
-406,-13,0,0,0,0,0,0,0,0,0,-1,818,1037,0,0
-399,-13,0,0,0,0,0,0,0,0,0,-1,825,1037,0,0
-392,-13,0,0,0,0,0,0,0,0,0,-1,832,1037,0,0
-385,-13,0,0,0,0,0,0,0,0,0,-1,839,1037,0,0
-378,-13,0,0,0,0,0,0,0,0,0,-1,846,1037,0,0
-371,-13,0,0,0,0,0,0,0,0,0,-1,853,1037,0,0
-364,-13,0,0,0,0,0,0,0,0,0,-1,860,1037,0,0
-357,-13,0,0,0,0,0,0,0,0,0,-1,867,1037,0,0
-350,-13,0,0,0,0,0,0,0,0,0,-1,874,1037,0,0
-343,-13,0,0,0,0,0,0,0,0,0,-1,881,1037,0,0
-336,-13,0,0,0,0,0,0,0,0,0,-1,888,1037,0,0
-329,-13,0,0,0,0,0,0,0,0,0,-1,895,1037,0,0
-322,-13,0,0,0,0,0,0,0,0,0,-1,902,1037,0,0
-315,-13,0,0,0,0,0,0,0,0,0,-1,909,1037,0,0
-308,-13,0,0,0,0,0,0,0,0,0,-1,916,1037,0,0
-301,-13,0,0,0,0,0,0,0,0,0,-1,923,1037,0,0
-294,-13,0,0,0,0,0,0,0,0,0,-1,930,1037,0,0
-287,-13,0,0,0,0,0,0,0,0,0,-1,937,1037,0,0
-280,-13,0,0,0,0,0,0,0,0,0,-1,944,1037,0,0
-273,-13,0,0,0,0,0,0,0,0,0,-1,951,1037,0,0
-266,-13,0,0,0,0,0,0,0,0,0,-1,958,1037,0,0
-259,-13,0,0,0,0,0,0,0,0,0,-1,965,1037,0,0
-252,-13,0,0,0,0,0,0,0,0,0,-1,972,1037,0,0
-245,-13,0,0,0,0,0,0,0,0,0,-1,979,1037,0,0
-238,-13,0,0,0,0,0,0,0,0,0,-1,986,1037,0,0
-231,-13,0,0,0,0,0,0,0,0,0,-1,993,1037,0,0
-224,-13,0,0,0,0,0,0,0,0,0,-1,1000,1037,0,0
-217,-13,0,0,0,0,0,0,0,0,0,-1,1007,1037,0,0
-210,-13,0,0,0,0,0,0,0,0,0,-1,1014,1037,0,0
-203,-13,0,0,0,0,0,0,0,0,0,-1,1021,1037,0,0
-196,-13,0,0,0,0,0,0,0,0,0,-1,1028,1037,0,0
-189,-13,0,0,0,0,0,0,0,0,0,-1,1035,1037,0,0
-182,-13,0,0,0,0,0,0,0,0,0,-1,1042,1037,0,0
-175,-13,0,0,0,0,0,0,0,0,0,-1,1049,1037,0,0
-168,-13,0,0,0,0,0,0,0,0,0,-1,1056,1037,0,0
-161,-13,0,0,0,0,0,0,0,0,0,-1,1063,1037,0,0
-154,-13,0,0,0,0,0,0,0,0,0,-1,1070,1037,0,0
-147,-13,0,0,0,0,0,0,0,0,0,-1,1077,1037,0,0
-140,-13,0,0,0,0,0,0,0,0,0,-1,1084,1037,0,0
-133,-13,0,0,0,0,0,0,0,0,0,-1,1091,1037,0,0
-126,-13,0,0,0,0,0,0,0,0,0,-1,1098,1037,0,0
-119,-13,0,0,0,0,0,0,0,0,0,-1,1105,1037,0,0
-112,-13,0,0,0,0,0,0,0,0,0,-1,1112,1037,0,0
-105,-13,0,0,0,0,0,0,0,0,0,-1,1119,1037,0,0
-98,-13,0,0,0,0,0,0,0,0,0,-1,1126,1037,0,0
-91,-13,0,0,0,0,0,0,0,0,0,-1,1133,1037,0,0
-84,-13,0,0,0,0,0,0,0,0,0,-1,1140,1037,0,0
-77,-13,0,0,0,0,0,0,0,0,0,-1,1147,1037,0,0
-70,-13,0,0,0,0,0,0,0,0,0,-1,1154,1037,0,0
-63,-13,0,0,0,0,0,0,0,0,0,-1,1161,1037,0,0
-56,-13,0,0,0,0,0,0,0,0,0,-1,1168,1037,0,0
-49,-13,0,0,0,0,0,0,0,0,0,-1,1175,1037,0,0
-42,-13,0,0,0,0,0,0,0,0,0,-1,1182,1037,0,0
-35,-13,0,0,0,0,0,0,0,0,0,-1,1189,1037,0,0
-28,-13,0,0,0,0,0,0,0,0,0,-1,1196,1037,0,0
-21,-13,0,0,0,0,0,0,0,0,0,-1,1203,1037,0,0
-14,-13,0,0,0,0,0,0,0,0,0,-1,1210,1037,0,0
-7,-13,0,0,0,0,0,0,0,0,0,-1,1217,1037,0,0
0,-13,0,0,0,0,0,0,0,0,0,-1,1224,1037,0,0
7,-13,0,0,0,0,0,0,0,0,0,-1,1231,1037,0,0
14,-13,0,0,0,0,0,0,0,0,0,-1,1238,1037,0,0
21,-13,0,0,0,0,0,0,0,0,0,-1,1245,1037,0,0
28,-13,0,0,0,0,0,0,0,0,0,-1,1252,1037,0,0
35,-13,0,0,0,0,0,0,0,0,0,-1,1259,1037,0,0
42,-13,0,0,0,0,0,0,0,0,0,-1,1266,1037,0,0
49,-13,0,0,0,0,0,0,0,0,0,-1,1273,1037,0,0
56,-13,0,0,0,0,0,0,0,0,0,-1,1280,1037,0,0
63,-13,0,0,0,0,0,0,0,0,0,-1,1287,1037,0,0
70,-13,0,0,0,0,0,0,0,0,0,-1,1294,1037,0,0
77,-13,0,0,0,0,0,0,0,0,0,-1,1301,1037,0,0
84,-13,0,0,0,0,0,0,0,0,0,-1,1308,1037,0,0
91,-13,0,0,0,0,0,0,0,0,0,-1,1315,1037,0,0
98,-13,0,0,0,0,0,0,0,0,0,-1,1322,1037,0,0
105,-13,0,0,0,0,0,0,0,0,0,-1,1329,1037,0,0
112,-13,0,0,0,0,0,0,0,0,0,-1,1336,1037,0,0
119,-13,0,0,0,0,0,0,0,0,0,-1,1343,1037,0,0
126,-13,0,0,0,0,0,0,0,0,0,-1,1350,1037,0,0
133,-13,0,0,0,0,0,0,0,0,0,-1,1357,1037,0,0
140,-13,0,0,0,0,0,0,0,0,0,-1,1364,1037,0,0
147,-13,0,0,0,0,0,0,0,0,0,-1,1371,1037,0,0
154,-13,0,0,0,0,0,0,0,0,0,-1,1378,1037,0,0
161,-13,0,0,0,0,0,0,0,0,0,-1,1385,1037,0,0
168,-13,0,0,0,0,0,0,0,0,0,-1,1392,1037,0,0
175,-13,0,0,0,0,0,0,0,0,0,-1,1399,1037,0,0
182,-13,0,0,0,0,0,0,0,0,0,-1,1406,1037,0,0
189,-13,0,0,0,0,0,0,0,0,0,-1,1413,1037,0,0
196,-13,0,0,0,0,0,0,0,0,0,-1,1420,1037,0,0
203,-13,0,0,0,0,0,0,0,0,0,-1,1427,1037,0,0
210,-13,0,0,0,0,0,0,0,0,0,-1,1434,1037,0,0
217,-13,0,0,0,0,0,0,0,0,0,-1,1441,1037,0,0
224,-13,0,0,0,0,0,0,0,0,0,-1,1448,1037,0,0
231,-13,0,0,0,0,0,0,0,0,0,-1,1455,1037,0,0
238,-13,0,0,0,0,0,0,0,0,0,-1,1462,1037,0,0
245,-13,0,0,0,0,0,0,0,0,0,-1,1469,1037,0,0
252,-13,0,0,0,0,0,0,0,0,0,-1,1476,1037,0,0
259,-13,0,0,0,0,0,0,0,0,0,-1,1483,1037,0,0
266,-13,0,0,0,0,0,0,0,0,0,-1,1490,1037,0,0
273,-13,0,0,0,0,0,0,0,0,0,-1,1497,1037,0,0
280,-13,0,0,0,0,0,0,0,0,0,-1,1504,1037,0,0
287,-13,0,0,0,0,0,0,0,0,0,-1,1511,1037,0,0
294,-13,0,0,0,0,0,0,0,0,0,-1,1518,1037,0,0
301,-13,0,0,0,0,0,0,0,0,0,-1,1525,1037,0,0
308,-13,0,0,0,0,0,0,0,0,0,-1,1532,1037,0,0
315,-13,0,0,0,0,0,0,0,0,0,-1,1539,1037,0,0
322,-13,0,0,0,0,0,0,0,0,0,-1,1546,1037,0,0
329,-13,0,0,0,0,0,0,0,0,0,-1,1553,1037,0,0
336,-13,0,0,0,0,0,0,0,0,0,-1,1560,1037,0,0
343,-13,0,0,0,0,0,0,0,0,0,-1,1567,1037,0,0
350,-13,0,0,0,0,0,0,0,0,0,-1,1574,1037,0,0
357,-13,0,0,0,0,0,0,0,0,0,-1,1581,1037,0,0
364,-13,0,0,0,0,0,0,0,0,0,-1,1588,1037,0,0
371,-13,0,0,0,0,0,0,0,0,0,-1,1595,1037,0,0
378,-13,0,0,0,0,0,0,0,0,0,-1,1602,1037,0,0
385,-13,0,0,0,0,0,0,0,0,0,-1,1609,1037,0,0
392,-13,0,0,0,0,0,0,0,0,0,-1,1616,1037,0,0
399,-13,0,0,0,0,0,0,0,0,0,-1,1623,1037,0,0
406,-13,0,0,0,0,0,0,0,0,0,-1,1630,1037,0,0
413,-13,0,0,0,0,0,0,0,0,0,-1,1637,1037,0,0
420,-13,0,0,0,0,0,0,0,0,0,-1,1644,1037,0,0
427,-13,0,0,0,0,0,0,0,0,0,-1,1651,1037,0,0
434,-13,0,0,0,0,0,0,0,0,0,-1,1658,1037,0,0
441,-13,0,0,0,0,0,0,0,0,0,-1,1665,1037,0,0
448,-13,0,0,0,0,0,0,0,0,0,-1,1672,1037,0,0
455,-13,0,0,0,0,0,0,0,0,0,-1,1679,1037,0,0
462,-13,0,0,0,0,0,0,0,0,0,-1,1686,1037,0,0
469,-13,0,0,0,0,0,0,0,0,0,-1,1693,1037,0,0
476,-13,0,0,0,0,0,0,0,0,0,-1,1700,1037,0,0
483,-13,0,0,0,0,0,0,0,0,0,-1,1707,1037,0,0
490,-13,0,0,0,0,0,0,0,0,0,-1,1714,1037,0,0
497,-13,0,0,0,0,0,0,0,0,0,-1,1721,1037,0,0
504,-13,0,0,0,0,0,0,0,0,0,-1,1728,1037,0,0
511,-13,0,0,0,0,0,0,0,0,0,-1,1735,1037,0,0
518,-13,0,0,0,0,0,0,0,0,0,-1,1742,1037,0,0
525,-13,0,0,0,0,0,0,0,0,0,-1,1749,1037,0,0
532,-13,0,0,0,0,0,0,0,0,0,-1,1756,1037,0,0
539,-13,0,0,0,0,0,0,0,0,0,-1,1763,1037,0,0
546,-13,0,0,0,0,0,0,0,0,0,-1,1770,1037,0,0
553,-13,0,0,0,0,0,0,0,0,0,-1,1777,1037,0,0
560,-13,0,0,0,0,0,0,0,0,0,-1,1784,1037,0,0
567,-13,0,0,0,0,0,0,0,0,0,-1,1791,1037,0,0
574,-13,0,0,0,0,0,0,0,0,0,-1,1798,1037,0,0
581,-13,0,0,0,0,0,0,0,0,0,-1,1805,1037,0,0
588,-13,0,0,0,0,0,0,0,0,0,-1,1812,1037,0,0
595,-13,0,0,0,0,0,0,0,0,0,-1,1819,1037,0,0
602,-13,0,0,0,0,0,0,0,0,0,-1,1826,1037,0,0
609,-13,0,0,0,0,0,0,0,0,0,-1,1833,1037,0,0
616,-13,0,0,0,0,0,0,0,0,0,-1,1840,1037,0,0
623,-13,0,0,0,0,0,0,0,0,0,-1,1847,1037,0,0
630,-13,0,0,0,0,0,0,0,0,0,-1,1854,1037,0,0
637,-13,0,0,0,0,0,0,0,0,0,-1,1861,1037,0,0
644,-13,0,0,0,0,0,0,0,0,0,-1,1868,1037,0,0
651,-13,34.1011,2.52356,0.00574446,0.000925639,0.0030372,0.00721189,-0.000541783,0.450077,0.00499832,0.0397143,1875,1037,34.1011,-2.52354
658,-13,34.1218,2.61328,0.00387966,0.00116857,0.00223175,0.00513528,-8.70517e-05,0.51248,0.0034529,0.0452842,1882,1037,34.1218,-2.61331
665,-13,34.1666,2.74414,0.00240645,0.00133021,0.00177564,0.00372372,1.29365e-05,0.638269,0.00247818,0.0457429,1889,1037,34.1666,-2.74419
672,-13,34.225,2.83923,0.0013026,0.00140816,0.001757,0.00311317,-0.000402412,0.800414,0.00222176,0.0391037,1896,1037,34.2249,-2.83925
679,-13,34.2396,2.70313,0.000374562,0.00141668,0.00211508,0.00307394,-0.00128269,0.906171,0.0025852,0.0396259,1903,1037,34.2397,-2.7031
686,-13,34.1477,2.51306,-0.000236371,0.00115878,0.00255758,0.0031122,-0.0021898,0.918534,0.00307651,0.0409216,1910,1037,34.1477,-2.51303
693,-13,34.1687,2.60364,-0.000590741,0.000813681,0.00300736,0.00319972,-0.00297678,0.900092,0.00356678,0.0386596,1917,1037,34.1687,-2.60366
700,-13,34.0991,2.7002,-0.000789592,0.000536564,0.003305,0.00324434,-0.00349737,0.884398,0.00389324,0.0352129,1924,1037,34.0991,-2.70016
707,-13,34.0703,2.69482,-0.00105065,0.000384256,0.00340234,0.00314396,-0.00381035,0.889311,0.00402122,0.0303561,1931,1037,34.0703,-2.69481
714,-13,34.0878,2.79468,-0.00142528,0.000391201,0.00347013,0.00306998,-0.00410406,0.913393,0.00415625,0.0255418,1938,1037,34.0877,-2.7947
721,-13,33.7184,3.7157,0,0,0,0,0,0,0,-1,1945,1037,33.7184,-3.71573
728,-13,33.7865,4.96729,0,0,0,0,0,0,0,-1,1952,1037,33.7866,-4.96733
735,-13,33.7852,4.97742,-0.00223683,0.00145324,0.00323734,0.0033344,-0.00411799,1.0444,0.00431056,0.0220803,1959,1037,33.7851,-4.97744
742,-13,33.7784,4.97009,-0.00226238,0.00211998,0.00284941,0.0035233,-0.00366569,1.11317,0.00415084,0.0142486,1966,1037,33.7785,-4.97003
749,-13,33.7844,4.96631,-0.00233771,0.00315462,0.0022558,0.00396234,-0.00314542,1.22696,0.00411269,0.0189747,1973,1037,33.7844,-4.9663
756,-13,33.7782,4.92834,-0.0019604,0.00438225,0.0014087,0.00468105,-0.00225919,1.36179,0.00408746,0.0151958,1980,1037,33.7782,-4.92835
763,-13,33.765,4.87219,-0.000948078,0.00586841,0.000366066,0.00588801,-0.00096768,1.5173,0.00428448,0.0183991,1987,1037,33.765,-4.87213
770,-13,33.7007,4.85498,0.000837441,0.00773669,-0.000949762,0.00786505,0.000709083,-1.43646,0.00502371,0.0165112,1994,1037,33.7007,-4.855
777,-13,33.6086,4.80151,0.00384131,0.00942377,-0.00232591,0.0102658,0.00299925,-1.22344,0.00609528,0.0129045,2001,1037,33.6087,-4.80147
784,-13,33.5905,4.76318,0.00801737,0.0105917,-0.00383627,0.013351,0.0052581,-0.94726,0.00776591,0.0269135,2008,1037,33.5905,-4.76324
791,-13,33.6172,4.63928,0.0141634,0.0108605,-0.00584898,0.0185896,0.00643429,-0.647803,0.0109008,0.0426087,2015,1037,33.6172,-4.63929
798,-13,33.6963,4.57837,0,0,0,0,0,0,0,-1,2022,1037,33.6964,-4.57832
805,-13,33.7283,4.70874,0,0,0,0,0,0,0,-1,2029,1037,33.7282,-4.70872
812,-13,35.3093,5.06067,0,0,0,0,0,0,0,-1,2036,1037,35.3094,-5.06067
-700,-20,-26.6954,3.25989,0,0,0,0,0,0,0,-1,524,1044,-26.6954,-3.2599
-693,-20,-26.5439,3.01819,0.0114508,0.0925166,-0.051795,0.117753,-0.0137858,-1.11741,0.0834778,0.0485176,531,1044,-26.5439,-3.01824
-686,-20,-26.196,2.57642,0.0100339,0.0800241,-0.038741,0.0972355,-0.00717752,-1.15272,0.0673438,0.0461455,538,1044,-26.196,-2.57644
-679,-20,-25.7876,2.40637,0.0080699,0.0678415,-0.0279959,0.0789061,-0.00299468,-1.19442,0.0536302,0.0492588,545,1044,-25.7876,-2.40637
-672,-20,-25.3596,1.83167,0,0,0,0,0,0,0,-1,552,1044,-25.3596,-1.83166
-665,-20,-25.0981,2.09094,0.00427712,0.045853,-0.0126411,0.0493948,0.000735328,-1.29762,0.0326875,0.0434861,559,1044,-25.0981,-2.09099
-658,-20,-24.7908,2.19031,0.00271415,0.0364186,-0.0076869,0.038089,0.0010438,-1.35682,0.025052,0.0440652,566,1044,-24.7908,-2.19035
-651,-20,-24.4928,1.94226,0.00150745,0.0281474,-0.00432048,0.0288306,0.000824269,-1.41397,0.0189516,0.0367286,573,1044,-24.4928,-1.94222
-644,-20,-24.4361,1.89746,0.000679693,0.0211245,-0.00286578,0.0215186,0.000285589,-1.43413,0.0142515,0.0244923,580,1044,-24.4361,-1.89746
-637,-20,-24.487,1.98376,2.93617e-06,0.014176,-0.00232063,0.0145463,-0.000367357,-1.41256,0.0098223,0.0175008,587,1044,-24.487,-1.98382
-630,-20,-24.5391,2.10645,-0.000579399,0.00878316,-0.00309675,0.00971474,-0.00151098,-1.27858,0.00703446,0.0143846,594,1044,-24.539,-2.1065
-623,-20,-24.5311,2.18896,-0.00109793,0.00540169,-0.00533749,0.00840088,-0.00409713,-1.05885,0.00735695,0.0137438,601,1044,-24.5312,-2.18901
-616,-20,-24.5205,2.24756,-0.000821434,0.00222159,-0.00750612,0.00835885,-0.00695869,-0.885395,0.0088559,0.0129725,608,1044,-24.5205,-2.24751
-609,-20,-24.5449,2.32141,-0.000628574,8.80456e-05,-0.00959666,0.00933308,-0.00987361,-0.804058,0.0110905,0.014136,615,1044,-24.5449,-2.32143
-602,-20,-24.5411,2.38733,-0.000447296,-0.000827971,-0.0111792,0.0105432,-0.0118185,-0.776886,0.0129175,0.0111257,622,1044,-24.5411,-2.38728
-595,-20,-24.5248,2.37488,-0.000326561,-0.00141111,-0.0120679,0.0112113,-0.0129489,-0.762946,0.0139609,0.0192597,629,1044,-24.5249,-2.3749
-588,-20,-24.475,1.48645,-0.00014742,-0.00153063,-0.0122282,0.0114087,-0.0130868,-0.757149,0.0141535,0.0225343,636,1044,-24.475,-1.4864
-581,-20,-24.5286,0.72168,-5.92347e-05,-0.00142506,-0.0117812,0.0110588,-0.0125431,-0.756447,0.0136355,0.0293103,643,1044,-24.5286,-0.721683
-574,-20,-24.5935,0.661133,-9.36176e-05,-0.000983464,-0.0107032,0.0101739,-0.011251,-0.764626,0.0123749,0.0396025,650,1044,-24.5935,-0.661193
-567,-20,-24.6379,0.671021,-0.000238054,-0.000245687,-0.00879478,0.00855291,-0.00903665,-0.785181,0.0101566,0.0463355,657,1044,-24.6379,-0.671076
-560,-20,-24.6074,0.792847,-0.000442641,0.000690429,-0.00613236,0.00628237,-0.00603458,-0.83146,0.00711168,0.0445889,664,1044,-24.6074,-0.792804
-553,-20,-24.5395,0.858765,-0.000775086,0.00167926,-0.00285141,0.00355636,-0.00265218,-0.988605,0.00359715,0.0413671,671,1044,-24.5395,-0.858799
-546,-20,-24.4935,1.05396,-0.00126357,0.00252405,0.00084243,0.00270297,-0.00144249,1.36152,0.00242998,0.0401623,678,1044,-24.4935,-1.05398
-539,-20,-24.5682,0.881592,-0.00195305,0.00281211,0.00361631,0.00476016,-0.0039011,1.07668,0.00500877,0.0401851,685,1044,-24.5682,-0.881543
-532,-20,-24.648,0.612061,-0.00330312,0.00233891,0.00292374,0.0035807,-0.00454492,1.16916,0.00470233,0.0418254,692,1044,-24.648,-0.612065
-525,-20,0,0,0,0,0,0,0,0,0,-1,699,1044,0,0
-518,-20,0,0,0,0,0,0,0,0,0,-1,706,1044,0,0
-511,-20,0,0,0,0,0,0,0,0,0,-1,713,1044,0,0
-504,-20,0,0,0,0,0,0,0,0,0,-1,720,1044,0,0
-497,-20,0,0,0,0,0,0,0,0,0,-1,727,1044,0,0
-490,-20,0,0,0,0,0,0,0,0,0,-1,734,1044,0,0
-483,-20,0,0,0,0,0,0,0,0,0,-1,741,1044,0,0
-476,-20,0,0,0,0,0,0,0,0,0,-1,748,1044,0,0
-469,-20,0,0,0,0,0,0,0,0,0,-1,755,1044,0,0
-462,-20,0,0,0,0,0,0,0,0,0,-1,762,1044,0,0
-455,-20,0,0,0,0,0,0,0,0,0,-1,769,1044,0,0
-448,-20,0,0,0,0,0,0,0,0,0,-1,776,1044,0,0
-441,-20,0,0,0,0,0,0,0,0,0,-1,783,1044,0,0
-434,-20,0,0,0,0,0,0,0,0,0,-1,790,1044,0,0
-427,-20,0,0,0,0,0,0,0,0,0,-1,797,1044,0,0
-420,-20,0,0,0,0,0,0,0,0,0,-1,804,1044,0,0
-413,-20,0,0,0,0,0,0,0,0,0,-1,811,1044,0,0
-406,-20,0,0,0,0,0,0,0,0,0,-1,818,1044,0,0
-399,-20,0,0,0,0,0,0,0,0,0,-1,825,1044,0,0
-392,-20,0,0,0,0,0,0,0,0,0,-1,832,1044,0,0
-385,-20,0,0,0,0,0,0,0,0,0,-1,839,1044,0,0
-378,-20,0,0,0,0,0,0,0,0,0,-1,846,1044,0,0
-371,-20,0,0,0,0,0,0,0,0,0,-1,853,1044,0,0
-364,-20,0,0,0,0,0,0,0,0,0,-1,860,1044,0,0
-357,-20,0,0,0,0,0,0,0,0,0,-1,867,1044,0,0
-350,-20,0,0,0,0,0,0,0,0,0,-1,874,1044,0,0
-343,-20,0,0,0,0,0,0,0,0,0,-1,881,1044,0,0
-336,-20,0,0,0,0,0,0,0,0,0,-1,888,1044,0,0
-329,-20,0,0,0,0,0,0,0,0,0,-1,895,1044,0,0
-322,-20,0,0,0,0,0,0,0,0,0,-1,902,1044,0,0
-315,-20,0,0,0,0,0,0,0,0,0,-1,909,1044,0,0
-308,-20,0,0,0,0,0,0,0,0,0,-1,916,1044,0,0
-301,-20,0,0,0,0,0,0,0,0,0,-1,923,1044,0,0
-294,-20,0,0,0,0,0,0,0,0,0,-1,930,1044,0,0
-287,-20,0,0,0,0,0,0,0,0,0,-1,937,1044,0,0
-280,-20,0,0,0,0,0,0,0,0,0,-1,944,1044,0,0
-273,-20,0,0,0,0,0,0,0,0,0,-1,951,1044,0,0
-266,-20,0,0,0,0,0,0,0,0,0,-1,958,1044,0,0
-259,-20,0,0,0,0,0,0,0,0,0,-1,965,1044,0,0
-252,-20,0,0,0,0,0,0,0,0,0,-1,972,1044,0,0
-245,-20,0,0,0,0,0,0,0,0,0,-1,979,1044,0,0
-238,-20,0,0,0,0,0,0,0,0,0,-1,986,1044,0,0
-231,-20,0,0,0,0,0,0,0,0,0,-1,993,1044,0,0
-224,-20,0,0,0,0,0,0,0,0,0,-1,1000,1044,0,0
-217,-20,0,0,0,0,0,0,0,0,0,-1,1007,1044,0,0
-210,-20,0,0,0,0,0,0,0,0,0,-1,1014,1044,0,0
-203,-20,0,0,0,0,0,0,0,0,0,-1,1021,1044,0,0
-196,-20,0,0,0,0,0,0,0,0,0,-1,1028,1044,0,0
-189,-20,0,0,0,0,0,0,0,0,0,-1,1035,1044,0,0
-182,-20,0,0,0,0,0,0,0,0,0,-1,1042,1044,0,0
-175,-20,0,0,0,0,0,0,0,0,0,-1,1049,1044,0,0
-168,-20,0,0,0,0,0,0,0,0,0,-1,1056,1044,0,0
-161,-20,0,0,0,0,0,0,0,0,0,-1,1063,1044,0,0
-154,-20,0,0,0,0,0,0,0,0,0,-1,1070,1044,0,0
-147,-20,0,0,0,0,0,0,0,0,0,-1,1077,1044,0,0
-140,-20,0,0,0,0,0,0,0,0,0,-1,1084,1044,0,0
-133,-20,0,0,0,0,0,0,0,0,0,-1,1091,1044,0,0
-126,-20,0,0,0,0,0,0,0,0,0,-1,1098,1044,0,0
-119,-20,0,0,0,0,0,0,0,0,0,-1,1105,1044,0,0
-112,-20,0,0,0,0,0,0,0,0,0,-1,1112,1044,0,0
-105,-20,0,0,0,0,0,0,0,0,0,-1,1119,1044,0,0
-98,-20,0,0,0,0,0,0,0,0,0,-1,1126,1044,0,0
-91,-20,0,0,0,0,0,0,0,0,0,-1,1133,1044,0,0
-84,-20,0,0,0,0,0,0,0,0,0,-1,1140,1044,0,0
-77,-20,0,0,0,0,0,0,0,0,0,-1,1147,1044,0,0
-70,-20,0,0,0,0,0,0,0,0,0,-1,1154,1044,0,0
-63,-20,0,0,0,0,0,0,0,0,0,-1,1161,1044,0,0
-56,-20,0,0,0,0,0,0,0,0,0,-1,1168,1044,0,0
-49,-20,0,0,0,0,0,0,0,0,0,-1,1175,1044,0,0
-42,-20,0,0,0,0,0,0,0,0,0,-1,1182,1044,0,0
-35,-20,0,0,0,0,0,0,0,0,0,-1,1189,1044,0,0
-28,-20,0,0,0,0,0,0,0,0,0,-1,1196,1044,0,0
-21,-20,0,0,0,0,0,0,0,0,0,-1,1203,1044,0,0
-14,-20,0,0,0,0,0,0,0,0,0,-1,1210,1044,0,0
-7,-20,0,0,0,0,0,0,0,0,0,-1,1217,1044,0,0
0,-20,0,0,0,0,0,0,0,0,0,-1,1224,1044,0,0
7,-20,0,0,0,0,0,0,0,0,0,-1,1231,1044,0,0
14,-20,0,0,0,0,0,0,0,0,0,-1,1238,1044,0,0
21,-20,0,0,0,0,0,0,0,0,0,-1,1245,1044,0,0
28,-20,0,0,0,0,0,0,0,0,0,-1,1252,1044,0,0
35,-20,0,0,0,0,0,0,0,0,0,-1,1259,1044,0,0
42,-20,0,0,0,0,0,0,0,0,0,-1,1266,1044,0,0
49,-20,0,0,0,0,0,0,0,0,0,-1,1273,1044,0,0
56,-20,0,0,0,0,0,0,0,0,0,-1,1280,1044,0,0
63,-20,0,0,0,0,0,0,0,0,0,-1,1287,1044,0,0
70,-20,0,0,0,0,0,0,0,0,0,-1,1294,1044,0,0
77,-20,0,0,0,0,0,0,0,0,0,-1,1301,1044,0,0
84,-20,0,0,0,0,0,0,0,0,0,-1,1308,1044,0,0
91,-20,0,0,0,0,0,0,0,0,0,-1,1315,1044,0,0
98,-20,0,0,0,0,0,0,0,0,0,-1,1322,1044,0,0
105,-20,0,0,0,0,0,0,0,0,0,-1,1329,1044,0,0
112,-20,0,0,0,0,0,0,0,0,0,-1,1336,1044,0,0
119,-20,0,0,0,0,0,0,0,0,0,-1,1343,1044,0,0
126,-20,0,0,0,0,0,0,0,0,0,-1,1350,1044,0,0
133,-20,0,0,0,0,0,0,0,0,0,-1,1357,1044,0,0
140,-20,0,0,0,0,0,0,0,0,0,-1,1364,1044,0,0
147,-20,0,0,0,0,0,0,0,0,0,-1,1371,1044,0,0
154,-20,0,0,0,0,0,0,0,0,0,-1,1378,1044,0,0
161,-20,0,0,0,0,0,0,0,0,0,-1,1385,1044,0,0
168,-20,0,0,0,0,0,0,0,0,0,-1,1392,1044,0,0
175,-20,0,0,0,0,0,0,0,0,0,-1,1399,1044,0,0
182,-20,0,0,0,0,0,0,0,0,0,-1,1406,1044,0,0
189,-20,0,0,0,0,0,0,0,0,0,-1,1413,1044,0,0
196,-20,0,0,0,0,0,0,0,0,0,-1,1420,1044,0,0
203,-20,0,0,0,0,0,0,0,0,0,-1,1427,1044,0,0
210,-20,0,0,0,0,0,0,0,0,0,-1,1434,1044,0,0
217,-20,0,0,0,0,0,0,0,0,0,-1,1441,1044,0,0
224,-20,0,0,0,0,0,0,0,0,0,-1,1448,1044,0,0
231,-20,0,0,0,0,0,0,0,0,0,-1,1455,1044,0,0
238,-20,0,0,0,0,0,0,0,0,0,-1,1462,1044,0,0
245,-20,0,0,0,0,0,0,0,0,0,-1,1469,1044,0,0
252,-20,0,0,0,0,0,0,0,0,0,-1,1476,1044,0,0
259,-20,0,0,0,0,0,0,0,0,0,-1,1483,1044,0,0
266,-20,0,0,0,0,0,0,0,0,0,-1,1490,1044,0,0
273,-20,0,0,0,0,0,0,0,0,0,-1,1497,1044,0,0
280,-20,0,0,0,0,0,0,0,0,0,-1,1504,1044,0,0
287,-20,0,0,0,0,0,0,0,0,0,-1,1511,1044,0,0
294,-20,0,0,0,0,0,0,0,0,0,-1,1518,1044,0,0
301,-20,0,0,0,0,0,0,0,0,0,-1,1525,1044,0,0
308,-20,0,0,0,0,0,0,0,0,0,-1,1532,1044,0,0
315,-20,0,0,0,0,0,0,0,0,0,-1,1539,1044,0,0
322,-20,0,0,0,0,0,0,0,0,0,-1,1546,1044,0,0
329,-20,0,0,0,0,0,0,0,0,0,-1,1553,1044,0,0
336,-20,0,0,0,0,0,0,0,0,0,-1,1560,1044,0,0
343,-20,0,0,0,0,0,0,0,0,0,-1,1567,1044,0,0
350,-20,0,0,0,0,0,0,0,0,0,-1,1574,1044,0,0
357,-20,0,0,0,0,0,0,0,0,0,-1,1581,1044,0,0
364,-20,0,0,0,0,0,0,0,0,0,-1,1588,1044,0,0
371,-20,0,0,0,0,0,0,0,0,0,-1,1595,1044,0,0
378,-20,0,0,0,0,0,0,0,0,0,-1,1602,1044,0,0
385,-20,0,0,0,0,0,0,0,0,0,-1,1609,1044,0,0
392,-20,0,0,0,0,0,0,0,0,0,-1,1616,1044,0,0
399,-20,0,0,0,0,0,0,0,0,0,-1,1623,1044,0,0
406,-20,0,0,0,0,0,0,0,0,0,-1,1630,1044,0,0
413,-20,0,0,0,0,0,0,0,0,0,-1,1637,1044,0,0
420,-20,0,0,0,0,0,0,0,0,0,-1,1644,1044,0,0
427,-20,0,0,0,0,0,0,0,0,0,-1,1651,1044,0,0
434,-20,0,0,0,0,0,0,0,0,0,-1,1658,1044,0,0
441,-20,0,0,0,0,0,0,0,0,0,-1,1665,1044,0,0
448,-20,0,0,0,0,0,0,0,0,0,-1,1672,1044,0,0
455,-20,0,0,0,0,0,0,0,0,0,-1,1679,1044,0,0
462,-20,0,0,0,0,0,0,0,0,0,-1,1686,1044,0,0
469,-20,0,0,0,0,0,0,0,0,0,-1,1693,1044,0,0
476,-20,0,0,0,0,0,0,0,0,0,-1,1700,1044,0,0
483,-20,0,0,0,0,0,0,0,0,0,-1,1707,1044,0,0
490,-20,0,0,0,0,0,0,0,0,0,-1,1714,1044,0,0
497,-20,0,0,0,0,0,0,0,0,0,-1,1721,1044,0,0
504,-20,0,0,0,0,0,0,0,0,0,-1,1728,1044,0,0
511,-20,0,0,0,0,0,0,0,0,0,-1,1735,1044,0,0
518,-20,0,0,0,0,0,0,0,0,0,-1,1742,1044,0,0
525,-20,0,0,0,0,0,0,0,0,0,-1,1749,1044,0,0
532,-20,0,0,0,0,0,0,0,0,0,-1,1756,1044,0,0
539,-20,0,0,0,0,0,0,0,0,0,-1,1763,1044,0,0
546,-20,0,0,0,0,0,0,0,0,0,-1,1770,1044,0,0
553,-20,0,0,0,0,0,0,0,0,0,-1,1777,1044,0,0
560,-20,0,0,0,0,0,0,0,0,0,-1,1784,1044,0,0
567,-20,0,0,0,0,0,0,0,0,0,-1,1791,1044,0,0
574,-20,0,0,0,0,0,0,0,0,0,-1,1798,1044,0,0
581,-20,0,0,0,0,0,0,0,0,0,-1,1805,1044,0,0
588,-20,0,0,0,0,0,0,0,0,0,-1,1812,1044,0,0
595,-20,0,0,0,0,0,0,0,0,0,-1,1819,1044,0,0
602,-20,0,0,0,0,0,0,0,0,0,-1,1826,1044,0,0
609,-20,0,0,0,0,0,0,0,0,0,-1,1833,1044,0,0
616,-20,0,0,0,0,0,0,0,0,0,-1,1840,1044,0,0
623,-20,0,0,0,0,0,0,0,0,0,-1,1847,1044,0,0
630,-20,0,0,0,0,0,0,0,0,0,-1,1854,1044,0,0
637,-20,0,0,0,0,0,0,0,0,0,-1,1861,1044,0,0
644,-20,0,0,0,0,0,0,0,0,0,-1,1868,1044,0,0
651,-20,34.1549,2.61902,0.00487515,0.000762007,0.00288307,0.00635999,-0.000722834,0.475591,0.00450033,0.0403695,1875,1044,34.1549,-2.61897
658,-20,34.1847,2.75439,0.0032129,0.00118199,0.00211667,0.00454508,-0.000150199,0.561743,0.00308134,0.0425668,1882,1044,34.1847,-2.75436
665,-20,34.1803,2.84216,0.00193359,0.00141933,0.00166593,0.00336211,-9.19541e-06,0.708829,0.00224448,0.0373752,1889,1044,34.1803,-2.84218
672,-20,34.1906,2.81226,0.00104913,0.00153046,0.00163175,0.0029392,-0.000359609,0.858616,0.00208967,0.0244563,1896,1044,34.1906,-2.81225
679,-20,34.1761,2.646,0.000364019,0.00148579,0.00196817,0.00297143,-0.00112162,0.924208,0.00244225,0.0283237,1903,1044,34.1761,-2.64605
686,-20,34.2115,2.44141,-0.00010306,0.00115185,0.00240911,0.00301387,-0.00196508,0.912793,0.00289578,0.0383689,1910,1044,34.2115,-2.44135
693,-20,34.3168,2.34058,-0.000381574,0.000721045,0.00286395,0.00308627,-0.0027468,0.880485,0.00336962,0.0415854,1917,1044,34.3168,-2.34056
700,-20,34.1412,2.60657,-0.000532215,0.0003751,0.00319109,0.00314462,-0.00330173,0.856007,0.00372217,0.0382313,1924,1044,34.1413,-2.60655
707,-20,34.1106,2.67114,-0.000760356,0.00017796,0.00330569,0.00304762,-0.00363002,0.855889,0.00386022,0.0303534,1931,1044,34.1106,-2.67113
714,-20,34.1251,2.7937,-0.00109992,0.000130081,0.00338496,0.00295545,-0.00392529,0.875261,0.00398573,0.0231129,1938,1044,34.1251,-2.79368
721,-20,34.0974,2.91028,0,0,0,0,0,0,0,-1,1945,1044,34.0974,-2.91027
728,-20,33.9615,4.9624,0,0,0,0,0,0,0,-1,1952,1044,33.9616,-4.96244
735,-20,33.8124,4.99133,-0.00189735,0.00102958,0.00319698,0.00308214,-0.0039499,1.00004,0.00407024,0.0223831,1959,1044,33.8124,-4.99135
742,-20,33.7089,4.95386,-0.00189885,0.00168252,0.00283844,0.00324791,-0.00346425,1.0668,0.00387594,0.0174581,1966,1044,33.7089,-4.95388
749,-20,33.7256,4.94177,-0.00189704,0.0027232,0.00224894,0.00363711,-0.00281095,1.18481,0.00373297,0.0185833,1973,1044,33.7255,-4.94171
756,-20,33.736,4.91846,-0.00127899,0.00376927,0.00135834,0.00411155,-0.00162127,1.32395,0.00341235,0.0149618,1980,1044,33.7359,-4.91848
763,-20,33.7065,4.86646,0.000163871,0.00492133,0.000268501,0.00493643,0.000148766,1.5146,0.0032425,0.0198181,1987,1044,33.7066,-4.86642
770,-20,33.6583,4.8739,0.00254086,0.00630465,-0.00114179,0.00662394,0.00222157,-1.29812,0.00389281,0.0174564,1994,1044,33.6583,-4.87385
777,-20,33.571,4.77893,0.00644527,0.00731283,-0.00270412,0.00961773,0.00414036,-0.864928,0.00557066,0.0125108,2001,1044,33.5711,-4.77894
784,-20,33.6024,4.74695,0.0117609,0.00750929,-0.00442068,0.0145404,0.00472986,-0.561281,0.008564,0.0174656,2008,1044,33.6024,-4.74695
791,-20,33.7153,4.67688,0.0192874,0.00645771,-0.0066495,0.0221119,0.00363317,-0.40168,0.0136918,0.0349048,2015,1044,33.7154,-4.67688
798,-20,34.2603,4.62219,0,0,0,0,0,0,0,-1,2022,1044,34.2603,-4.62219
805,-20,34.6357,4.57764,0,0,0,0,0,0,0,-1,2029,1044,34.6357,-4.57761
812,-20,34.9583,4.77954,0,0,0,0,0,0,0,-1,2036,1044,34.9581,-4.7795
-700,-27,-27.5299,3.52551,0,0,0,0,0,0,0,-1,524,1051,-27.5299,-3.52548
-693,-27,-27.0344,2.95679,0.0257054,0.0987496,-0.0546,0.127916,-0.00346138,-1.08017,0.0864545,0.0472367,531,1051,-27.0344,-2.95683
-686,-27,-26.4512,2.35413,0.0212766,0.0843019,-0.04056,0.104152,0.00142615,-1.11566,0.0689644,0.0430261,538,1051,-26.4512,-2.3541
-679,-27,-25.8298,1.73169,0.0167609,0.0705454,-0.029113,0.083286,0.0040204,-1.15828,0.0542335,0.0455633,545,1051,-25.8298,-1.7317
-672,-27,-25.4045,1.49707,0.0126507,0.05787,-0.0199865,0.0654375,0.00508326,-1.20885,0.0420331,0.045847,552,1051,-25.4045,-1.49701
-665,-27,-25.1147,1.70471,0.00912005,0.0464823,-0.0129741,0.0505456,0.00505668,-1.26728,0.0321444,0.0435761,559,1051,-25.1148,-1.70467
-658,-27,-24.7772,1.97205,0.00621451,0.0364856,-0.00785604,0.038403,0.00429714,-1.33141,0.0242966,0.0437415,566,1051,-24.7771,-1.97205
-651,-27,-24.2833,1.87524,0.00398373,0.0278965,-0.0044123,0.0286847,0.00319557,-1.39403,0.0181519,0.0344613,573,1051,-24.2833,-1.87528
-644,-27,-24.3554,1.85669,0.00237317,0.0207733,-0.00296277,0.0212386,0.00190788,-1.41502,0.0135679,0.0167949,580,1051,-24.3554,-1.8567
-637,-27,-24.4026,1.9021,0.000917887,0.01361,-0.00243852,0.0140624,0.000465502,-1.38737,0.00922369,0.0132527,587,1051,-24.4026,-1.90212
-630,-27,-24.4372,2.08716,-0.000263107,0.0081332,-0.0033293,0.0092931,-0.00142301,-1.23556,0.00672015,0.0178522,594,1051,-24.4372,-2.08718
-623,-27,-24.4,2.18445,-0.00107747,0.0049048,-0.00562607,0.00828544,-0.00445811,-1.02972,0.00746728,0.0160939,601,1051,-24.4,-2.18445
-616,-27,-24.3921,2.28333,-0.00105635,0.00177633,-0.00788735,0.0083735,-0.00765351,-0.874237,0.00925631,0.0132611,608,1051,-24.3921,-2.28332
-609,-27,-24.4302,2.37292,-0.00103555,-0.000283567,-0.0100424,0.00938991,-0.010709,-0.80411,0.0116125,0.0135789,615,1051,-24.4302,-2.37291
-602,-27,-24.4219,2.48047,-0.00101989,-0.00128694,-0.0116557,0.0105031,-0.0128099,-0.77967,0.0134817,0.0115663,622,1051,-24.4219,-2.48044
-595,-27,-24.4523,2.52539,-0.00104436,-0.00182901,-0.012536,0.0111055,-0.0139788,-0.769755,0.0145141,0.0116175,629,1051,-24.4523,-2.52543
-588,-27,-24.4997,1.66858,-0.000907742,-0.00197059,-0.012669,0.0112409,-0.0141193,-0.764437,0.0146731,0.0207165,636,1051,-24.4997,-1.66858
-581,-27,-24.4516,0.789307,-0.000781154,-0.00191056,-0.0122005,0.0108677,-0.0135594,-0.762272,0.0141315,0.0250308,643,1051,-24.4516,-0.789315
-574,-27,-24.5249,0.696777,-0.00072493,-0.00151252,-0.0110788,0.00996704,-0.0122045,-0.767633,0.0128224,0.0370599,650,1051,-24.5249,-0.696793
-567,-27,-24.5816,0.713501,-0.000704113,-0.000819223,-0.0091042,0.00834271,-0.00986605,-0.782237,0.0105251,0.0464843,657,1051,-24.5816,-0.713453
-560,-27,-24.6622,0.793213,-0.000664206,7.88304e-05,-0.0063298,0.006048,-0.00663338,-0.814711,0.0073242,0.0449635,664,1051,-24.6622,-0.793233
-553,-27,-24.5885,0.779175,-0.000659609,0.00104347,-0.00288116,0.0031963,-0.00281244,-0.929085,0.0034715,0.0409265,671,1051,-24.5885,-0.779224
-546,-27,-24.5099,0.785522,-0.000722562,0.00188113,0.00104799,0.00225054,-0.00109197,1.2319,0.00196806,0.042683,678,1051,-24.51,-0.785506
-539,-27,-24.5649,0.775513,-0.000958132,0.00217332,0.00408995,0.004987,-0.00377181,0.968204,0.0050731,0.0430909,685,1051,-24.565,-0.775521
-532,-27,-24.6993,0.80603,-0.00194919,0.00157095,0.00347022,0.00370193,-0.00408017,1.02009,0.00449476,0.0420691,692,1051,-24.6994,-0.806055
-525,-27,0,0,0,0,0,0,0,0,0,-1,699,1051,0,0
-518,-27,0,0,0,0,0,0,0,0,0,-1,706,1051,0,0
-511,-27,0,0,0,0,0,0,0,0,0,-1,713,1051,0,0
-504,-27,0,0,0,0,0,0,0,0,0,-1,720,1051,0,0
-497,-27,0,0,0,0,0,0,0,0,0,-1,727,1051,0,0
-490,-27,0,0,0,0,0,0,0,0,0,-1,734,1051,0,0
-483,-27,0,0,0,0,0,0,0,0,0,-1,741,1051,0,0
-476,-27,0,0,0,0,0,0,0,0,0,-1,748,1051,0,0
-469,-27,0,0,0,0,0,0,0,0,0,-1,755,1051,0,0
-462,-27,0,0,0,0,0,0,0,0,0,-1,762,1051,0,0
-455,-27,0,0,0,0,0,0,0,0,0,-1,769,1051,0,0
-448,-27,0,0,0,0,0,0,0,0,0,-1,776,1051,0,0
-441,-27,0,0,0,0,0,0,0,0,0,-1,783,1051,0,0
-434,-27,0,0,0,0,0,0,0,0,0,-1,790,1051,0,0
-427,-27,0,0,0,0,0,0,0,0,0,-1,797,1051,0,0
-420,-27,0,0,0,0,0,0,0,0,0,-1,804,1051,0,0
-413,-27,0,0,0,0,0,0,0,0,0,-1,811,1051,0,0
-406,-27,0,0,0,0,0,0,0,0,0,-1,818,1051,0,0
-399,-27,0,0,0,0,0,0,0,0,0,-1,825,1051,0,0
-392,-27,0,0,0,0,0,0,0,0,0,-1,832,1051,0,0
-385,-27,0,0,0,0,0,0,0,0,0,-1,839,1051,0,0
-378,-27,0,0,0,0,0,0,0,0,0,-1,846,1051,0,0
-371,-27,0,0,0,0,0,0,0,0,0,-1,853,1051,0,0
-364,-27,0,0,0,0,0,0,0,0,0,-1,860,1051,0,0
-357,-27,0,0,0,0,0,0,0,0,0,-1,867,1051,0,0
-350,-27,0,0,0,0,0,0,0,0,0,-1,874,1051,0,0
-343,-27,0,0,0,0,0,0,0,0,0,-1,881,1051,0,0
-336,-27,0,0,0,0,0,0,0,0,0,-1,888,1051,0,0
-329,-27,0,0,0,0,0,0,0,0,0,-1,895,1051,0,0
-322,-27,0,0,0,0,0,0,0,0,0,-1,902,1051,0,0
-315,-27,0,0,0,0,0,0,0,0,0,-1,909,1051,0,0
-308,-27,0,0,0,0,0,0,0,0,0,-1,916,1051,0,0
-301,-27,0,0,0,0,0,0,0,0,0,-1,923,1051,0,0
-294,-27,0,0,0,0,0,0,0,0,0,-1,930,1051,0,0
-287,-27,0,0,0,0,0,0,0,0,0,-1,937,1051,0,0
-280,-27,0,0,0,0,0,0,0,0,0,-1,944,1051,0,0
-273,-27,0,0,0,0,0,0,0,0,0,-1,951,1051,0,0
-266,-27,0,0,0,0,0,0,0,0,0,-1,958,1051,0,0
-259,-27,0,0,0,0,0,0,0,0,0,-1,965,1051,0,0
-252,-27,0,0,0,0,0,0,0,0,0,-1,972,1051,0,0
-245,-27,0,0,0,0,0,0,0,0,0,-1,979,1051,0,0
-238,-27,0,0,0,0,0,0,0,0,0,-1,986,1051,0,0
-231,-27,0,0,0,0,0,0,0,0,0,-1,993,1051,0,0
-224,-27,0,0,0,0,0,0,0,0,0,-1,1000,1051,0,0
-217,-27,0,0,0,0,0,0,0,0,0,-1,1007,1051,0,0
-210,-27,0,0,0,0,0,0,0,0,0,-1,1014,1051,0,0
-203,-27,0,0,0,0,0,0,0,0,0,-1,1021,1051,0,0
-196,-27,0,0,0,0,0,0,0,0,0,-1,1028,1051,0,0
-189,-27,0,0,0,0,0,0,0,0,0,-1,1035,1051,0,0
-182,-27,0,0,0,0,0,0,0,0,0,-1,1042,1051,0,0
-175,-27,0,0,0,0,0,0,0,0,0,-1,1049,1051,0,0
-168,-27,0,0,0,0,0,0,0,0,0,-1,1056,1051,0,0
-161,-27,0,0,0,0,0,0,0,0,0,-1,1063,1051,0,0
-154,-27,0,0,0,0,0,0,0,0,0,-1,1070,1051,0,0
-147,-27,0,0,0,0,0,0,0,0,0,-1,1077,1051,0,0
-140,-27,0,0,0,0,0,0,0,0,0,-1,1084,1051,0,0
-133,-27,0,0,0,0,0,0,0,0,0,-1,1091,1051,0,0
-126,-27,0,0,0,0,0,0,0,0,0,-1,1098,1051,0,0
-119,-27,0,0,0,0,0,0,0,0,0,-1,1105,1051,0,0
-112,-27,0,0,0,0,0,0,0,0,0,-1,1112,1051,0,0
-105,-27,0,0,0,0,0,0,0,0,0,-1,1119,1051,0,0
-98,-27,0,0,0,0,0,0,0,0,0,-1,1126,1051,0,0
-91,-27,0,0,0,0,0,0,0,0,0,-1,1133,1051,0,0
-84,-27,0,0,0,0,0,0,0,0,0,-1,1140,1051,0,0
-77,-27,0,0,0,0,0,0,0,0,0,-1,1147,1051,0,0
-70,-27,0,0,0,0,0,0,0,0,0,-1,1154,1051,0,0
-63,-27,0,0,0,0,0,0,0,0,0,-1,1161,1051,0,0
-56,-27,0,0,0,0,0,0,0,0,0,-1,1168,1051,0,0
-49,-27,0,0,0,0,0,0,0,0,0,-1,1175,1051,0,0
-42,-27,0,0,0,0,0,0,0,0,0,-1,1182,1051,0,0
-35,-27,0,0,0,0,0,0,0,0,0,-1,1189,1051,0,0
-28,-27,0,0,0,0,0,0,0,0,0,-1,1196,1051,0,0
-21,-27,0,0,0,0,0,0,0,0,0,-1,1203,1051,0,0
-14,-27,0,0,0,0,0,0,0,0,0,-1,1210,1051,0,0
-7,-27,0,0,0,0,0,0,0,0,0,-1,1217,1051,0,0
0,-27,0,0,0,0,0,0,0,0,0,-1,1224,1051,0,0
7,-27,0,0,0,0,0,0,0,0,0,-1,1231,1051,0,0
14,-27,0,0,0,0,0,0,0,0,0,-1,1238,1051,0,0
21,-27,0,0,0,0,0,0,0,0,0,-1,1245,1051,0,0
28,-27,0,0,0,0,0,0,0,0,0,-1,1252,1051,0,0
35,-27,0,0,0,0,0,0,0,0,0,-1,1259,1051,0,0
42,-27,0,0,0,0,0,0,0,0,0,-1,1266,1051,0,0
49,-27,0,0,0,0,0,0,0,0,0,-1,1273,1051,0,0
56,-27,0,0,0,0,0,0,0,0,0,-1,1280,1051,0,0
63,-27,0,0,0,0,0,0,0,0,0,-1,1287,1051,0,0
70,-27,0,0,0,0,0,0,0,0,0,-1,1294,1051,0,0
77,-27,0,0,0,0,0,0,0,0,0,-1,1301,1051,0,0
84,-27,0,0,0,0,0,0,0,0,0,-1,1308,1051,0,0
91,-27,0,0,0,0,0,0,0,0,0,-1,1315,1051,0,0
98,-27,0,0,0,0,0,0,0,0,0,-1,1322,1051,0,0
105,-27,0,0,0,0,0,0,0,0,0,-1,1329,1051,0,0
112,-27,0,0,0,0,0,0,0,0,0,-1,1336,1051,0,0
119,-27,0,0,0,0,0,0,0,0,0,-1,1343,1051,0,0
126,-27,0,0,0,0,0,0,0,0,0,-1,1350,1051,0,0
133,-27,0,0,0,0,0,0,0,0,0,-1,1357,1051,0,0
140,-27,0,0,0,0,0,0,0,0,0,-1,1364,1051,0,0
147,-27,0,0,0,0,0,0,0,0,0,-1,1371,1051,0,0
154,-27,0,0,0,0,0,0,0,0,0,-1,1378,1051,0,0
161,-27,0,0,0,0,0,0,0,0,0,-1,1385,1051,0,0
168,-27,0,0,0,0,0,0,0,0,0,-1,1392,1051,0,0
175,-27,0,0,0,0,0,0,0,0,0,-1,1399,1051,0,0
182,-27,0,0,0,0,0,0,0,0,0,-1,1406,1051,0,0
189,-27,0,0,0,0,0,0,0,0,0,-1,1413,1051,0,0
196,-27,0,0,0,0,0,0,0,0,0,-1,1420,1051,0,0
203,-27,0,0,0,0,0,0,0,0,0,-1,1427,1051,0,0
210,-27,0,0,0,0,0,0,0,0,0,-1,1434,1051,0,0
217,-27,0,0,0,0,0,0,0,0,0,-1,1441,1051,0,0
224,-27,0,0,0,0,0,0,0,0,0,-1,1448,1051,0,0
231,-27,0,0,0,0,0,0,0,0,0,-1,1455,1051,0,0
238,-27,0,0,0,0,0,0,0,0,0,-1,1462,1051,0,0
245,-27,0,0,0,0,0,0,0,0,0,-1,1469,1051,0,0
252,-27,0,0,0,0,0,0,0,0,0,-1,1476,1051,0,0
259,-27,0,0,0,0,0,0,0,0,0,-1,1483,1051,0,0
266,-27,0,0,0,0,0,0,0,0,0,-1,1490,1051,0,0
273,-27,0,0,0,0,0,0,0,0,0,-1,1497,1051,0,0
280,-27,0,0,0,0,0,0,0,0,0,-1,1504,1051,0,0
287,-27,0,0,0,0,0,0,0,0,0,-1,1511,1051,0,0
294,-27,0,0,0,0,0,0,0,0,0,-1,1518,1051,0,0
301,-27,0,0,0,0,0,0,0,0,0,-1,1525,1051,0,0
308,-27,0,0,0,0,0,0,0,0,0,-1,1532,1051,0,0
315,-27,0,0,0,0,0,0,0,0,0,-1,1539,1051,0,0
322,-27,0,0,0,0,0,0,0,0,0,-1,1546,1051,0,0
329,-27,0,0,0,0,0,0,0,0,0,-1,1553,1051,0,0
336,-27,0,0,0,0,0,0,0,0,0,-1,1560,1051,0,0
343,-27,0,0,0,0,0,0,0,0,0,-1,1567,1051,0,0
350,-27,0,0,0,0,0,0,0,0,0,-1,1574,1051,0,0
357,-27,0,0,0,0,0,0,0,0,0,-1,1581,1051,0,0
364,-27,0,0,0,0,0,0,0,0,0,-1,1588,1051,0,0
371,-27,0,0,0,0,0,0,0,0,0,-1,1595,1051,0,0
378,-27,0,0,0,0,0,0,0,0,0,-1,1602,1051,0,0
385,-27,0,0,0,0,0,0,0,0,0,-1,1609,1051,0,0
392,-27,0,0,0,0,0,0,0,0,0,-1,1616,1051,0,0
399,-27,0,0,0,0,0,0,0,0,0,-1,1623,1051,0,0
406,-27,0,0,0,0,0,0,0,0,0,-1,1630,1051,0,0
413,-27,0,0,0,0,0,0,0,0,0,-1,1637,1051,0,0
420,-27,0,0,0,0,0,0,0,0,0,-1,1644,1051,0,0
427,-27,0,0,0,0,0,0,0,0,0,-1,1651,1051,0,0
434,-27,0,0,0,0,0,0,0,0,0,-1,1658,1051,0,0
441,-27,0,0,0,0,0,0,0,0,0,-1,1665,1051,0,0
448,-27,0,0,0,0,0,0,0,0,0,-1,1672,1051,0,0
455,-27,0,0,0,0,0,0,0,0,0,-1,1679,1051,0,0
462,-27,0,0,0,0,0,0,0,0,0,-1,1686,1051,0,0
469,-27,0,0,0,0,0,0,0,0,0,-1,1693,1051,0,0
476,-27,0,0,0,0,0,0,0,0,0,-1,1700,1051,0,0
483,-27,0,0,0,0,0,0,0,0,0,-1,1707,1051,0,0
490,-27,0,0,0,0,0,0,0,0,0,-1,1714,1051,0,0
497,-27,0,0,0,0,0,0,0,0,0,-1,1721,1051,0,0
504,-27,0,0,0,0,0,0,0,0,0,-1,1728,1051,0,0
511,-27,0,0,0,0,0,0,0,0,0,-1,1735,1051,0,0
518,-27,0,0,0,0,0,0,0,0,0,-1,1742,1051,0,0
525,-27,0,0,0,0,0,0,0,0,0,-1,1749,1051,0,0
532,-27,0,0,0,0,0,0,0,0,0,-1,1756,1051,0,0
539,-27,0,0,0,0,0,0,0,0,0,-1,1763,1051,0,0
546,-27,0,0,0,0,0,0,0,0,0,-1,1770,1051,0,0
553,-27,0,0,0,0,0,0,0,0,0,-1,1777,1051,0,0
560,-27,0,0,0,0,0,0,0,0,0,-1,1784,1051,0,0
567,-27,0,0,0,0,0,0,0,0,0,-1,1791,1051,0,0
574,-27,0,0,0,0,0,0,0,0,0,-1,1798,1051,0,0
581,-27,0,0,0,0,0,0,0,0,0,-1,1805,1051,0,0
588,-27,0,0,0,0,0,0,0,0,0,-1,1812,1051,0,0
595,-27,0,0,0,0,0,0,0,0,0,-1,1819,1051,0,0
602,-27,0,0,0,0,0,0,0,0,0,-1,1826,1051,0,0
609,-27,0,0,0,0,0,0,0,0,0,-1,1833,1051,0,0
616,-27,0,0,0,0,0,0,0,0,0,-1,1840,1051,0,0
623,-27,0,0,0,0,0,0,0,0,0,-1,1847,1051,0,0
630,-27,0,0,0,0,0,0,0,0,0,-1,1854,1051,0,0
637,-27,0,0,0,0,0,0,0,0,0,-1,1861,1051,0,0
644,-27,0,0,0,0,0,0,0,0,0,-1,1868,1051,0,0
651,-27,34.1757,2.68677,0.00387247,0.000276818,0.00222626,0.00493619,-0.000786894,0.445733,0.00358202,0.0378003,1875,1051,34.1757,-2.68679
658,-27,34.2167,2.96655,0.00244935,0.000851233,0.0016121,0.00344956,-0.000148978,0.555313,0.00235094,0.0395988,1882,1051,34.2167,-2.96657
665,-27,34.2596,2.77563,0.00138951,0.00115815,0.00125744,0.00253658,1.1087e-05,0.739528,0.00168737,0.0360611,1889,1051,34.2597,-2.77564
672,-27,34.095,2.78723,0.000705987,0.00128783,0.00131666,0.00234533,-0.00035151,0.894129,0.00169293,0.0290312,1896,1051,34.095,-2.78717
679,-27,34.0045,2.68896,0.000163451,0.0011353,0.00181724,0.00253046,-0.00123171,0.91604,0.00221481,0.030081,1903,1051,34.0045,-2.68902
686,-27,34.0153,2.57703,-0.000264367,0.00069393,0.00242004,0.0026818,-0.00225223,0.88313,0.00285226,0.0409814,1910,1051,34.0152,-2.57698
693,-27,34.0905,2.46619,-0.000539255,0.000164638,0.0030115,0.00284468,-0.0032193,0.843568,0.00350327,0.0425306,1917,1051,34.0904,-2.46619
700,-27,34.1182,2.57874,-0.000700253,-0.000255334,0.00346151,0.00299086,-0.00394645,0.817487,0.0040179,0.0387847,1924,1051,34.1181,-2.57869
707,-27,34.084,2.67566,-0.000935785,-0.000480189,0.0036546,0.0029537,-0.00436968,0.816524,0.00425442,0.0243952,1931,1051,34.084,-2.67566
714,-27,34.1029,2.73486,-0.0012681,-0.000550084,0.00378311,0.00289102,-0.0047092,0.832705,0.00442964,0.0186243,1938,1051,34.1029,-2.73491
721,-27,34.0958,2.84912,0,0,0,0,0,0,0,-1,1945,1051,34.0958,-2.84913
728,-27,33.9836,5.00867,0,0,0,0,0,0,0,-1,1952,1051,33.9836,-5.00862
735,-27,33.7358,5.0332,-0.00205439,0.000261965,0.00366127,0.00294387,-0.0047363,0.938584,0.00447422,0.024591,1959,1051,33.7358,-5.03321
742,-27,33.6357,5.01196,-0.00200192,0.00095958,0.00329554,0.00309176,-0.00413409,0.996542,0.00418629,0.0177247,1966,1051,33.6358,-5.01199
749,-27,33.6537,4.95618,-0.00186119,0.0020772,0.00265003,0.00340958,-0.00319357,1.10493,0.00381301,0.0128696,1973,1051,33.6537,-4.95621
756,-27,33.6489,4.88245,-0.000957833,0.0030376,0.00165889,0.00363657,-0.0015568,1.2243,0.0030775,0.0123308,1980,1051,33.6489,-4.88243
763,-27,33.6371,4.79773,0.000943667,0.00396273,0.000449822,0.00402832,0.000878071,1.42599,0.00244597,0.0138038,1987,1051,33.6371,-4.7977
770,-27,33.5922,4.74194,0.00390841,0.0050008,-0.0011094,0.00569117,0.00321804,-1.01415,0.00329516,0.0147865,1994,1051,33.5922,-4.74196
777,-27,33.5607,4.73486,0.00865585,0.00548148,-0.00286921,0.0103476,0.00378971,-0.532758,0.00604504,0.0156506,2001,1051,33.5606,-4.73482
784,-27,33.5693,4.73804,0.0149835,0.00487938,-0.0047193,0.0168449,0.00301805,-0.375678,0.0103713,0.0246231,2008,1051,33.5693,-4.73803
791,-27,33.7268,4.58459,0.0237352,0.00277232,-0.0070821,0.0259035,0.000603983,-0.297109,0.0170712,0.0421706,2015,1051,33.7267,-4.58465
798,-27,34.0393,4.44092,0.0359532,-0.00156051,-0.0101627,0.0385294,-0.00413674,-0.248268,0.0271704,0.0461609,2022,1051,34.0393,-4.44091
805,-27,34.2759,4.41199,0,0,0,0,0,0,0,-1,2029,1051,34.2758,-4.41204
812,-27,34.5796,4.51001,0,0,0,0,0,0,0,-1,2036,1051,34.5797,-4.50997
-700,-34,-27.1556,2.7644,0,0,0,0,0,0,0,-1,524,1058,-27.1556,-2.76441
-693,-34,-26.8798,2.32446,0.0326139,0.0999871,-0.0571162,0.132611,-9.6783e-06,-1.05184,0.0884103,0.0485097,531,1058,-26.8798,-2.32447
-686,-34,-26.6691,1.88354,0.0264393,0.0849773,-0.042208,0.107072,0.00434504,-1.08856,0.0699777,0.0442071,538,1058,-26.6691,-1.8836
-679,-34,-25.8788,1.09253,0,0,0,0,0,0,0,-1,545,1058,-25.8788,-1.09249
-672,-34,-24.0614,0.28418,0.0153108,0.0578603,-0.0204691,0.0661084,0.00706265,-1.18775,0.0419169,0.0434262,552,1058,-24.0614,-0.284148
-665,-34,-24.3881,0.758179,0.0109532,0.0463248,-0.0131328,0.0506676,0.00661041,-1.25144,0.0318047,0.0439083,559,1058,-24.3881,-0.758232
-658,-34,-24.4102,1.52051,0.00746202,0.0362754,-0.00782781,0.0382647,0.00547276,-1.32194,0.0238954,0.0429467,566,1058,-24.4102,-1.52057
-651,-34,-24.2081,1.78943,0.00482561,0.0276942,-0.00428456,0.0284706,0.00404923,-1.39154,0.017785,0.0297448,573,1058,-24.2081,-1.78948
-644,-34,-24.2961,1.7804,0.00291967,0.0206436,-0.00281936,0.0210813,0.002482,-1.41679,0.0133043,0.0142272,580,1058,-24.2961,-1.78034
-637,-34,-24.3337,1.85303,0.00110077,0.01338,-0.00227435,0.0137878,0.000693053,-1.39341,0.00896975,0.0152757,587,1058,-24.3337,-1.853
-630,-34,-24.3209,2.03833,-0.000379221,0.00786134,-0.00325274,0.00899054,-0.00150842,-1.23666,0.00655461,0.0160373,594,1058,-24.3209,-2.03835
-623,-34,-24.2842,2.17249,-0.00133576,0.00467592,-0.00563005,0.00805228,-0.00471212,-1.03059,0.00745316,0.0127843,601,1058,-24.2842,-2.17247
-616,-34,-24.2769,2.32007,-0.00145594,0.00150401,-0.00797612,0.0081363,-0.00808823,-0.87713,0.00936725,0.0199023,608,1058,-24.2769,-2.32007
-609,-34,-24.2797,2.43835,-0.00152816,-0.000556922,-0.0101644,0.00913343,-0.0112185,-0.809268,0.0117707,0.0196782,615,1058,-24.2797,-2.43831
-602,-34,-24.2981,2.52319,-0.00164707,-0.00166387,-0.0118308,0.0101753,-0.0134863,-0.785043,0.0137055,0.0144508,622,1058,-24.2981,-2.52315
-595,-34,-24.3333,2.57629,-0.00177303,-0.00227269,-0.012747,0.0107266,-0.0147723,-0.7756,0.0147834,0.0136438,629,1058,-24.3332,-2.57629
-588,-34,-24.4787,1.70959,-0.00166958,-0.00242628,-0.0128779,0.0108355,-0.0149314,-0.770712,0.014939,0.026754,636,1058,-24.4787,-1.70963
-581,-34,-24.451,0.813843,-0.00150681,-0.00236686,-0.0124065,0.0104771,-0.0143508,-0.768074,0.0143924,0.0263827,643,1058,-24.451,-0.813876
-574,-34,-24.46,0.664917,-0.00136409,-0.00196148,-0.0112728,0.00961398,-0.0129395,-0.772153,0.0130684,0.0355859,650,1058,-24.46,-0.6649
-567,-34,-24.4901,0.750977,-0.00116535,-0.00124524,-0.00926413,0.00805892,-0.0104695,-0.783242,0.0107275,0.0414932,657,1058,-24.4901,-0.750946
-560,-34,-24.6133,0.771606,-0.000863821,-0.000303226,-0.0064268,0.00584938,-0.00701643,-0.807191,0.00743826,0.0417556,664,1058,-24.6133,-0.771551
-553,-34,-24.6041,0.691406,-0.000495846,0.000733573,-0.00288142,0.00306512,-0.0028274,-0.890491,0.00340297,0.0414412,671,1058,-24.6041,-0.691374
-546,-34,-24.5907,0.631348,-9.18083e-05,0.0016751,0.00118598,0.00227051,-0.000687223,1.10552,0.00178735,0.0434678,678,1058,-24.5907,-0.631302
-539,-34,-24.4922,0.770874,0.000194635,0.00208359,0.00438573,0.00562539,-0.00334717,0.891454,0.00523567,0.0423065,685,1058,-24.4922,-0.770822
-532,-34,-24.4658,0.861328,-0.000364155,0.00146418,0.0037591,0.00441868,-0.00331865,0.904677,0.00448217,0.0420838,692,1058,-24.4658,-0.861374
-525,-34,0,0,0,0,0,0,0,0,0,-1,699,1058,0,0
-518,-34,0,0,0,0,0,0,0,0,0,-1,706,1058,0,0
-511,-34,0,0,0,0,0,0,0,0,0,-1,713,1058,0,0
-504,-34,0,0,0,0,0,0,0,0,0,-1,720,1058,0,0
-497,-34,0,0,0,0,0,0,0,0,0,-1,727,1058,0,0
-490,-34,0,0,0,0,0,0,0,0,0,-1,734,1058,0,0
-483,-34,0,0,0,0,0,0,0,0,0,-1,741,1058,0,0
-476,-34,0,0,0,0,0,0,0,0,0,-1,748,1058,0,0
-469,-34,0,0,0,0,0,0,0,0,0,-1,755,1058,0,0
-462,-34,0,0,0,0,0,0,0,0,0,-1,762,1058,0,0
-455,-34,0,0,0,0,0,0,0,0,0,-1,769,1058,0,0
-448,-34,0,0,0,0,0,0,0,0,0,-1,776,1058,0,0
-441,-34,0,0,0,0,0,0,0,0,0,-1,783,1058,0,0
-434,-34,0,0,0,0,0,0,0,0,0,-1,790,1058,0,0
-427,-34,0,0,0,0,0,0,0,0,0,-1,797,1058,0,0
-420,-34,0,0,0,0,0,0,0,0,0,-1,804,1058,0,0
-413,-34,0,0,0,0,0,0,0,0,0,-1,811,1058,0,0
-406,-34,0,0,0,0,0,0,0,0,0,-1,818,1058,0,0
-399,-34,0,0,0,0,0,0,0,0,0,-1,825,1058,0,0
-392,-34,0,0,0,0,0,0,0,0,0,-1,832,1058,0,0
-385,-34,0,0,0,0,0,0,0,0,0,-1,839,1058,0,0
-378,-34,0,0,0,0,0,0,0,0,0,-1,846,1058,0,0
-371,-34,0,0,0,0,0,0,0,0,0,-1,853,1058,0,0
-364,-34,0,0,0,0,0,0,0,0,0,-1,860,1058,0,0
-357,-34,0,0,0,0,0,0,0,0,0,-1,867,1058,0,0
-350,-34,0,0,0,0,0,0,0,0,0,-1,874,1058,0,0
-343,-34,0,0,0,0,0,0,0,0,0,-1,881,1058,0,0
-336,-34,0,0,0,0,0,0,0,0,0,-1,888,1058,0,0
-329,-34,0,0,0,0,0,0,0,0,0,-1,895,1058,0,0
-322,-34,0,0,0,0,0,0,0,0,0,-1,902,1058,0,0
-315,-34,0,0,0,0,0,0,0,0,0,-1,909,1058,0,0
-308,-34,0,0,0,0,0,0,0,0,0,-1,916,1058,0,0
-301,-34,0,0,0,0,0,0,0,0,0,-1,923,1058,0,0
-294,-34,0,0,0,0,0,0,0,0,0,-1,930,1058,0,0
-287,-34,0,0,0,0,0,0,0,0,0,-1,937,1058,0,0
-280,-34,0,0,0,0,0,0,0,0,0,-1,944,1058,0,0
-273,-34,0,0,0,0,0,0,0,0,0,-1,951,1058,0,0
-266,-34,0,0,0,0,0,0,0,0,0,-1,958,1058,0,0
-259,-34,0,0,0,0,0,0,0,0,0,-1,965,1058,0,0
-252,-34,0,0,0,0,0,0,0,0,0,-1,972,1058,0,0
-245,-34,0,0,0,0,0,0,0,0,0,-1,979,1058,0,0
-238,-34,0,0,0,0,0,0,0,0,0,-1,986,1058,0,0
-231,-34,0,0,0,0,0,0,0,0,0,-1,993,1058,0,0
-224,-34,0,0,0,0,0,0,0,0,0,-1,1000,1058,0,0
-217,-34,0,0,0,0,0,0,0,0,0,-1,1007,1058,0,0
-210,-34,0,0,0,0,0,0,0,0,0,-1,1014,1058,0,0
-203,-34,0,0,0,0,0,0,0,0,0,-1,1021,1058,0,0
-196,-34,0,0,0,0,0,0,0,0,0,-1,1028,1058,0,0
-189,-34,0,0,0,0,0,0,0,0,0,-1,1035,1058,0,0
-182,-34,0,0,0,0,0,0,0,0,0,-1,1042,1058,0,0
-175,-34,0,0,0,0,0,0,0,0,0,-1,1049,1058,0,0
-168,-34,0,0,0,0,0,0,0,0,0,-1,1056,1058,0,0
-161,-34,0,0,0,0,0,0,0,0,0,-1,1063,1058,0,0
-154,-34,0,0,0,0,0,0,0,0,0,-1,1070,1058,0,0
-147,-34,0,0,0,0,0,0,0,0,0,-1,1077,1058,0,0
-140,-34,0,0,0,0,0,0,0,0,0,-1,1084,1058,0,0
-133,-34,0,0,0,0,0,0,0,0,0,-1,1091,1058,0,0
-126,-34,0,0,0,0,0,0,0,0,0,-1,1098,1058,0,0
-119,-34,0,0,0,0,0,0,0,0,0,-1,1105,1058,0,0
-112,-34,0,0,0,0,0,0,0,0,0,-1,1112,1058,0,0
-105,-34,0,0,0,0,0,0,0,0,0,-1,1119,1058,0,0
-98,-34,0,0,0,0,0,0,0,0,0,-1,1126,1058,0,0
-91,-34,0,0,0,0,0,0,0,0,0,-1,1133,1058,0,0
-84,-34,0,0,0,0,0,0,0,0,0,-1,1140,1058,0,0
-77,-34,0,0,0,0,0,0,0,0,0,-1,1147,1058,0,0
-70,-34,0,0,0,0,0,0,0,0,0,-1,1154,1058,0,0
-63,-34,0,0,0,0,0,0,0,0,0,-1,1161,1058,0,0
-56,-34,0,0,0,0,0,0,0,0,0,-1,1168,1058,0,0
-49,-34,0,0,0,0,0,0,0,0,0,-1,1175,1058,0,0
-42,-34,0,0,0,0,0,0,0,0,0,-1,1182,1058,0,0
-35,-34,0,0,0,0,0,0,0,0,0,-1,1189,1058,0,0
-28,-34,0,0,0,0,0,0,0,0,0,-1,1196,1058,0,0
-21,-34,0,0,0,0,0,0,0,0,0,-1,1203,1058,0,0
-14,-34,0,0,0,0,0,0,0,0,0,-1,1210,1058,0,0
-7,-34,0,0,0,0,0,0,0,0,0,-1,1217,1058,0,0
0,-34,0,0,0,0,0,0,0,0,0,-1,1224,1058,0,0
7,-34,0,0,0,0,0,0,0,0,0,-1,1231,1058,0,0
14,-34,0,0,0,0,0,0,0,0,0,-1,1238,1058,0,0
21,-34,0,0,0,0,0,0,0,0,0,-1,1245,1058,0,0
28,-34,0,0,0,0,0,0,0,0,0,-1,1252,1058,0,0
35,-34,0,0,0,0,0,0,0,0,0,-1,1259,1058,0,0
42,-34,0,0,0,0,0,0,0,0,0,-1,1266,1058,0,0
49,-34,0,0,0,0,0,0,0,0,0,-1,1273,1058,0,0
56,-34,0,0,0,0,0,0,0,0,0,-1,1280,1058,0,0
63,-34,0,0,0,0,0,0,0,0,0,-1,1287,1058,0,0
70,-34,0,0,0,0,0,0,0,0,0,-1,1294,1058,0,0
77,-34,0,0,0,0,0,0,0,0,0,-1,1301,1058,0,0
84,-34,0,0,0,0,0,0,0,0,0,-1,1308,1058,0,0
91,-34,0,0,0,0,0,0,0,0,0,-1,1315,1058,0,0
98,-34,0,0,0,0,0,0,0,0,0,-1,1322,1058,0,0
105,-34,0,0,0,0,0,0,0,0,0,-1,1329,1058,0,0
112,-34,0,0,0,0,0,0,0,0,0,-1,1336,1058,0,0
119,-34,0,0,0,0,0,0,0,0,0,-1,1343,1058,0,0
126,-34,0,0,0,0,0,0,0,0,0,-1,1350,1058,0,0
133,-34,0,0,0,0,0,0,0,0,0,-1,1357,1058,0,0
140,-34,0,0,0,0,0,0,0,0,0,-1,1364,1058,0,0
147,-34,0,0,0,0,0,0,0,0,0,-1,1371,1058,0,0
154,-34,0,0,0,0,0,0,0,0,0,-1,1378,1058,0,0
161,-34,0,0,0,0,0,0,0,0,0,-1,1385,1058,0,0
168,-34,0,0,0,0,0,0,0,0,0,-1,1392,1058,0,0
175,-34,0,0,0,0,0,0,0,0,0,-1,1399,1058,0,0
182,-34,0,0,0,0,0,0,0,0,0,-1,1406,1058,0,0
189,-34,0,0,0,0,0,0,0,0,0,-1,1413,1058,0,0
196,-34,0,0,0,0,0,0,0,0,0,-1,1420,1058,0,0
203,-34,0,0,0,0,0,0,0,0,0,-1,1427,1058,0,0
210,-34,0,0,0,0,0,0,0,0,0,-1,1434,1058,0,0
217,-34,0,0,0,0,0,0,0,0,0,-1,1441,1058,0,0
224,-34,0,0,0,0,0,0,0,0,0,-1,1448,1058,0,0
231,-34,0,0,0,0,0,0,0,0,0,-1,1455,1058,0,0
238,-34,0,0,0,0,0,0,0,0,0,-1,1462,1058,0,0
245,-34,0,0,0,0,0,0,0,0,0,-1,1469,1058,0,0
252,-34,0,0,0,0,0,0,0,0,0,-1,1476,1058,0,0
259,-34,0,0,0,0,0,0,0,0,0,-1,1483,1058,0,0
266,-34,0,0,0,0,0,0,0,0,0,-1,1490,1058,0,0
273,-34,0,0,0,0,0,0,0,0,0,-1,1497,1058,0,0
280,-34,0,0,0,0,0,0,0,0,0,-1,1504,1058,0,0
287,-34,0,0,0,0,0,0,0,0,0,-1,1511,1058,0,0
294,-34,0,0,0,0,0,0,0,0,0,-1,1518,1058,0,0
301,-34,0,0,0,0,0,0,0,0,0,-1,1525,1058,0,0
308,-34,0,0,0,0,0,0,0,0,0,-1,1532,1058,0,0
315,-34,0,0,0,0,0,0,0,0,0,-1,1539,1058,0,0
322,-34,0,0,0,0,0,0,0,0,0,-1,1546,1058,0,0
329,-34,0,0,0,0,0,0,0,0,0,-1,1553,1058,0,0
336,-34,0,0,0,0,0,0,0,0,0,-1,1560,1058,0,0
343,-34,0,0,0,0,0,0,0,0,0,-1,1567,1058,0,0
350,-34,0,0,0,0,0,0,0,0,0,-1,1574,1058,0,0
357,-34,0,0,0,0,0,0,0,0,0,-1,1581,1058,0,0
364,-34,0,0,0,0,0,0,0,0,0,-1,1588,1058,0,0
371,-34,0,0,0,0,0,0,0,0,0,-1,1595,1058,0,0
378,-34,0,0,0,0,0,0,0,0,0,-1,1602,1058,0,0
385,-34,0,0,0,0,0,0,0,0,0,-1,1609,1058,0,0
392,-34,0,0,0,0,0,0,0,0,0,-1,1616,1058,0,0
399,-34,0,0,0,0,0,0,0,0,0,-1,1623,1058,0,0
406,-34,0,0,0,0,0,0,0,0,0,-1,1630,1058,0,0
413,-34,0,0,0,0,0,0,0,0,0,-1,1637,1058,0,0
420,-34,0,0,0,0,0,0,0,0,0,-1,1644,1058,0,0
427,-34,0,0,0,0,0,0,0,0,0,-1,1651,1058,0,0
434,-34,0,0,0,0,0,0,0,0,0,-1,1658,1058,0,0
441,-34,0,0,0,0,0,0,0,0,0,-1,1665,1058,0,0
448,-34,0,0,0,0,0,0,0,0,0,-1,1672,1058,0,0
455,-34,0,0,0,0,0,0,0,0,0,-1,1679,1058,0,0
462,-34,0,0,0,0,0,0,0,0,0,-1,1686,1058,0,0
469,-34,0,0,0,0,0,0,0,0,0,-1,1693,1058,0,0
476,-34,0,0,0,0,0,0,0,0,0,-1,1700,1058,0,0
483,-34,0,0,0,0,0,0,0,0,0,-1,1707,1058,0,0
490,-34,0,0,0,0,0,0,0,0,0,-1,1714,1058,0,0
497,-34,0,0,0,0,0,0,0,0,0,-1,1721,1058,0,0
504,-34,0,0,0,0,0,0,0,0,0,-1,1728,1058,0,0
511,-34,0,0,0,0,0,0,0,0,0,-1,1735,1058,0,0
518,-34,0,0,0,0,0,0,0,0,0,-1,1742,1058,0,0
525,-34,0,0,0,0,0,0,0,0,0,-1,1749,1058,0,0
532,-34,0,0,0,0,0,0,0,0,0,-1,1756,1058,0,0
539,-34,0,0,0,0,0,0,0,0,0,-1,1763,1058,0,0
546,-34,0,0,0,0,0,0,0,0,0,-1,1770,1058,0,0
553,-34,0,0,0,0,0,0,0,0,0,-1,1777,1058,0,0
560,-34,0,0,0,0,0,0,0,0,0,-1,1784,1058,0,0
567,-34,0,0,0,0,0,0,0,0,0,-1,1791,1058,0,0
574,-34,0,0,0,0,0,0,0,0,0,-1,1798,1058,0,0
581,-34,0,0,0,0,0,0,0,0,0,-1,1805,1058,0,0
588,-34,0,0,0,0,0,0,0,0,0,-1,1812,1058,0,0
595,-34,0,0,0,0,0,0,0,0,0,-1,1819,1058,0,0
602,-34,0,0,0,0,0,0,0,0,0,-1,1826,1058,0,0
609,-34,0,0,0,0,0,0,0,0,0,-1,1833,1058,0,0
616,-34,0,0,0,0,0,0,0,0,0,-1,1840,1058,0,0
623,-34,0,0,0,0,0,0,0,0,0,-1,1847,1058,0,0
630,-34,0,0,0,0,0,0,0,0,0,-1,1854,1058,0,0
637,-34,0,0,0,0,0,0,0,0,0,-1,1861,1058,0,0
644,-34,0,0,0,0,0,0,0,0,0,-1,1868,1058,0,0
651,-34,34.1334,2.60681,0.0028629,0.000772977,0.0017087,0.00382084,-0.000184961,0.510962,0.00261107,0.0390994,1875,1058,34.1334,-2.60678
658,-34,34.1465,2.68188,0.0017255,0.00097881,0.00119759,0.00260659,9.77226e-05,0.634299,0.00170608,0.0424782,1882,1058,34.1465,-2.68188
665,-34,34.4161,2.60889,0.000902595,0.00105364,0.000908357,0.00188961,6.66252e-05,0.826873,0.00123813,0.0414537,1889,1058,34.4161,-2.6089
672,-34,34.2291,2.63574,0.000405384,0.0010082,0.00104332,0.00179278,-0.000379196,0.926016,0.0013396,0.0375172,1896,1058,34.2292,-2.63579
679,-34,33.9484,2.85449,-1.57609e-05,0.000595787,0.0016674,0.00198522,-0.0014052,0.876082,0.00196698,0.0380427,1903,1058,33.9483,-2.85446
686,-34,33.8328,2.89001,0,0,0,0,0,0,0,-1,1910,1058,33.8328,-2.88997
693,-34,33.9978,2.86145,-0.000680055,-0.000690025,0.00306097,0.00237593,-0.00374601,0.784584,0.00356389,0.0433092,1917,1058,33.9978,-2.86141
700,-34,34.0924,2.70349,-0.000840783,-0.0011962,0.00358305,0.00256896,-0.00460594,0.76062,0.00419771,0.0382954,1924,1058,34.0924,-2.70354
707,-34,34.0374,2.7157,-0.00107449,-0.00144308,0.00382286,0.00256851,-0.00508609,0.761313,0.00449836,0.0226438,1931,1058,34.0374,-2.71575
714,-34,34.0587,2.73474,-0.00140039,-0.00152108,0.0039887,0.00252842,-0.00544989,0.777834,0.00470809,0.017101,1938,1058,34.0587,-2.73475
721,-34,34.1263,3.1123,-0.00170718,-0.00142121,0.00409456,0.00253286,-0.00566125,0.802851,0.00484444,0.034646,1945,1058,34.1263,-3.11228
728,-34,33.6746,5.09937,0,0,0,0,0,0,0,-1,1952,1058,33.6745,-5.09936
735,-34,33.5875,5.07056,-0.00211941,-0.000642973,0.00391885,0.00260659,-0.00536897,0.878495,0.00469585,0.0167633,1959,1058,33.5875,-5.07061
742,-34,33.5463,5.01465,-0.00199892,0.000124098,0.00355868,0.00277622,-0.00465104,0.93034,0.00433343,0.0154212,1966,1058,33.5463,-5.01461
749,-34,33.5721,4.94702,-0.00171053,0.00134341,0.00289704,0.00309127,-0.00345839,1.02794,0.00378343,0.0126577,1973,1058,33.5721,-4.94704
756,-34,33.5914,4.85291,-0.000503623,0.00221794,0.00186497,0.0031658,-0.00145148,1.10057,0.00272635,0.0098424,1980,1058,33.5915,-4.85289
763,-34,33.549,4.76111,0.00186902,0.00290838,0.000599519,0.0031821,0.0015953,1.14249,0.00183719,0.0113925,1987,1058,33.549,-4.76115
770,-34,33.4956,4.69409,0.00539946,0.00359592,-0.00102844,0.00586549,0.00312989,-0.425464,0.00338899,0.0166498,1994,1058,33.4956,-4.6941
777,-34,33.438,4.65259,0.010986,0.00351394,-0.0029063,0.0119833,0.00251664,-0.330563,0.00729613,0.0172528,2001,1058,33.438,-4.65257
784,-34,33.3939,4.59216,0.0183335,0.00205115,-0.00485369,0.0196705,0.000714085,-0.268807,0.0128823,0.0332424,2008,1058,33.3939,-4.59219
791,-34,33.5796,4.46265,0.0283256,-0.00116457,-0.00734347,0.0300531,-0.00289201,-0.231034,0.0210657,0.0449592,2015,1058,33.5795,-4.46268
798,-34,33.8511,4.15735,0.0421096,-0.0069027,-0.0105957,0.0443022,-0.00909523,-0.204047,0.0329872,0.0453622,2022,1058,33.851,-4.15731
805,-34,33.948,3.97815,0,0,0,0,0,0,0,-1,2029,1058,33.9479,-3.97819
812,-34,34.1084,4.41809,0,0,0,0,0,0,0,-1,2036,1058,34.1085,-4.41811
-700,-41,-22.6139,-0.599731,0,0,0,0,0,0,0,-1,524,1065,-22.6139,0.599778
-693,-41,-23.1754,0.123169,0.033568,0.096489,-0.0579666,0.130982,-0.000925198,-1.03402,0.0876315,0.0435908,531,1065,-23.1754,-0.123171
-686,-41,-22.8617,-0.69104,0.0269532,0.0817157,-0.0426004,0.104976,0.00369333,-1.07103,0.0687857,0.0436682,538,1065,-22.8617,0.691017
-679,-41,-22.6935,-1.07666,0.0207846,0.0679018,-0.0301985,0.0826441,0.00604227,-1.11665,0.0531965,0.0470906,545,1065,-22.6935,1.0766
-672,-41,-22.5585,-1.35986,0,0,0,0,0,0,0,-1,552,1065,-22.5585,1.35988
-665,-41,-24.393,0.340576,0.0110087,0.0442944,-0.0130047,0.0487728,0.00653029,-1.23915,0.0305718,0.0406098,559,1065,-24.393,-0.340612
-658,-41,-24.2139,0.894287,0.00750397,0.0346761,-0.00766721,0.0366903,0.00548981,-1.3139,0.0228511,0.0401787,566,1065,-24.2139,-0.894329
-651,-41,-24.0205,1.52246,0.00487549,0.0264832,-0.00410471,0.0272367,0.00412201,-1.38925,0.0169517,0.0300706,573,1065,-24.0205,-1.52252
-644,-41,-24.1644,1.72437,0.00297295,0.0197934,-0.0026234,0.0201931,0.00257329,-1.41961,0.0126916,0.0153167,580,1065,-24.1645,-1.7244
-637,-41,-24.2004,1.82813,0.00106467,0.0126861,-0.00200451,0.0130221,0.000728636,-1.4047,0.00844899,0.0165038,587,1065,-24.2004,-1.8281
-630,-41,-24.2039,1.98938,-0.000548766,0.00731606,-0.00301334,0.00833785,-0.00157055,-1.24388,0.0061493,0.0127636,594,1065,-24.2039,-1.98936
-623,-41,-24.1755,2.14624,-0.00160465,0.00426257,-0.00542583,0.00749708,-0.00483916,-1.03323,0.00717723,0.0109985,601,1065,-24.1755,-2.14625
-616,-41,-24.1624,2.31555,-0.00184505,0.00113461,-0.00782525,0.00761059,-0.00832103,-0.879466,0.00920118,0.0160129,608,1065,-24.1624,-2.31557
-609,-41,-24.1289,2.45447,-0.00196982,-0.000853554,-0.0100258,0.00862959,-0.011453,-0.813204,0.0116328,0.021781,615,1065,-24.1289,-2.45446
-602,-41,-24.1563,2.53406,-0.00219003,-0.00200297,-0.0117102,0.00961407,-0.0138071,-0.789392,0.0135942,0.0125943,622,1065,-24.1562,-2.53404
-595,-41,-24.2159,2.60559,-0.00240561,-0.00264896,-0.0126502,0.0101235,-0.0151781,-0.780589,0.0147047,0.0185768,629,1065,-24.2159,-2.60558
-588,-41,-24.4111,1.64063,-0.00231386,-0.00278008,-0.0127893,0.0102445,-0.0153384,-0.776286,0.0148676,0.0291443,636,1065,-24.4111,-1.64059
-581,-41,-24.476,0.772339,-0.00209937,-0.00270608,-0.012328,0.00992896,-0.0147344,-0.773097,0.0143292,0.0344105,643,1065,-24.4759,-0.772321
-574,-41,-24.4516,0.656128,-0.00185898,-0.00227928,-0.0112109,0.00914378,-0.013282,-0.776027,0.0130208,0.0378715,650,1065,-24.4516,-0.656107
-567,-41,-24.4294,0.794678,-0.00148014,-0.00151869,-0.00921007,0.00771067,-0.0107095,-0.784352,0.0106818,0.0432155,657,1065,-24.4294,-0.794628
-560,-41,-24.4787,0.709839,-0.000923652,-0.000499641,-0.00635638,0.00564826,-0.00707156,-0.802069,0.0073591,0.0424011,664,1065,-24.4787,-0.70988
-553,-41,-24.5319,0.627808,-0.000211041,0.000653926,-0.0027523,0.00300752,-0.00256463,-0.863328,0.00322047,0.0411555,671,1065,-24.5319,-0.627768
-546,-41,-24.5903,0.709229,0.000626984,0.00175605,0.00144318,0.00274118,-0.000358149,0.971835,0.00195779,0.0386609,678,1065,-24.5903,-0.709229
-539,-41,-24.51,0.809326,0.00141276,0.0023642,0.00486052,0.00677222,-0.00299526,0.83418,0.00577809,0.0393763,685,1065,-24.51,-0.809373
-532,-41,-24.4027,0.918335,0.00124325,0.00178108,0.0043402,0.00586069,-0.00283636,0.816338,0.00512145,0.0414273,692,1065,-24.4027,-0.918292
-525,-41,0,0,0,0,0,0,0,0,0,-1,699,1065,0,0
-518,-41,0,0,0,0,0,0,0,0,0,-1,706,1065,0,0
-511,-41,0,0,0,0,0,0,0,0,0,-1,713,1065,0,0
-504,-41,0,0,0,0,0,0,0,0,0,-1,720,1065,0,0
-497,-41,0,0,0,0,0,0,0,0,0,-1,727,1065,0,0
-490,-41,0,0,0,0,0,0,0,0,0,-1,734,1065,0,0
-483,-41,0,0,0,0,0,0,0,0,0,-1,741,1065,0,0
-476,-41,0,0,0,0,0,0,0,0,0,-1,748,1065,0,0
-469,-41,0,0,0,0,0,0,0,0,0,-1,755,1065,0,0
-462,-41,0,0,0,0,0,0,0,0,0,-1,762,1065,0,0
-455,-41,0,0,0,0,0,0,0,0,0,-1,769,1065,0,0
-448,-41,0,0,0,0,0,0,0,0,0,-1,776,1065,0,0
-441,-41,0,0,0,0,0,0,0,0,0,-1,783,1065,0,0
-434,-41,0,0,0,0,0,0,0,0,0,-1,790,1065,0,0
-427,-41,0,0,0,0,0,0,0,0,0,-1,797,1065,0,0
-420,-41,0,0,0,0,0,0,0,0,0,-1,804,1065,0,0
-413,-41,0,0,0,0,0,0,0,0,0,-1,811,1065,0,0
-406,-41,0,0,0,0,0,0,0,0,0,-1,818,1065,0,0
-399,-41,0,0,0,0,0,0,0,0,0,-1,825,1065,0,0
-392,-41,0,0,0,0,0,0,0,0,0,-1,832,1065,0,0
-385,-41,0,0,0,0,0,0,0,0,0,-1,839,1065,0,0
-378,-41,0,0,0,0,0,0,0,0,0,-1,846,1065,0,0
-371,-41,0,0,0,0,0,0,0,0,0,-1,853,1065,0,0
-364,-41,0,0,0,0,0,0,0,0,0,-1,860,1065,0,0
-357,-41,0,0,0,0,0,0,0,0,0,-1,867,1065,0,0
-350,-41,0,0,0,0,0,0,0,0,0,-1,874,1065,0,0
-343,-41,0,0,0,0,0,0,0,0,0,-1,881,1065,0,0
-336,-41,0,0,0,0,0,0,0,0,0,-1,888,1065,0,0
-329,-41,0,0,0,0,0,0,0,0,0,-1,895,1065,0,0
-322,-41,0,0,0,0,0,0,0,0,0,-1,902,1065,0,0
-315,-41,0,0,0,0,0,0,0,0,0,-1,909,1065,0,0
-308,-41,0,0,0,0,0,0,0,0,0,-1,916,1065,0,0
-301,-41,0,0,0,0,0,0,0,0,0,-1,923,1065,0,0
-294,-41,0,0,0,0,0,0,0,0,0,-1,930,1065,0,0
-287,-41,0,0,0,0,0,0,0,0,0,-1,937,1065,0,0
-280,-41,0,0,0,0,0,0,0,0,0,-1,944,1065,0,0
-273,-41,0,0,0,0,0,0,0,0,0,-1,951,1065,0,0
-266,-41,0,0,0,0,0,0,0,0,0,-1,958,1065,0,0
-259,-41,0,0,0,0,0,0,0,0,0,-1,965,1065,0,0
-252,-41,0,0,0,0,0,0,0,0,0,-1,972,1065,0,0
-245,-41,0,0,0,0,0,0,0,0,0,-1,979,1065,0,0
-238,-41,0,0,0,0,0,0,0,0,0,-1,986,1065,0,0
-231,-41,0,0,0,0,0,0,0,0,0,-1,993,1065,0,0
-224,-41,0,0,0,0,0,0,0,0,0,-1,1000,1065,0,0
-217,-41,0,0,0,0,0,0,0,0,0,-1,1007,1065,0,0
-210,-41,0,0,0,0,0,0,0,0,0,-1,1014,1065,0,0
-203,-41,0,0,0,0,0,0,0,0,0,-1,1021,1065,0,0
-196,-41,0,0,0,0,0,0,0,0,0,-1,1028,1065,0,0
-189,-41,0,0,0,0,0,0,0,0,0,-1,1035,1065,0,0
-182,-41,0,0,0,0,0,0,0,0,0,-1,1042,1065,0,0
-175,-41,0,0,0,0,0,0,0,0,0,-1,1049,1065,0,0
-168,-41,0,0,0,0,0,0,0,0,0,-1,1056,1065,0,0
-161,-41,0,0,0,0,0,0,0,0,0,-1,1063,1065,0,0
-154,-41,0,0,0,0,0,0,0,0,0,-1,1070,1065,0,0
-147,-41,0,0,0,0,0,0,0,0,0,-1,1077,1065,0,0
-140,-41,0,0,0,0,0,0,0,0,0,-1,1084,1065,0,0
-133,-41,0,0,0,0,0,0,0,0,0,-1,1091,1065,0,0
-126,-41,0,0,0,0,0,0,0,0,0,-1,1098,1065,0,0
-119,-41,0,0,0,0,0,0,0,0,0,-1,1105,1065,0,0
-112,-41,0,0,0,0,0,0,0,0,0,-1,1112,1065,0,0
-105,-41,0,0,0,0,0,0,0,0,0,-1,1119,1065,0,0
-98,-41,0,0,0,0,0,0,0,0,0,-1,1126,1065,0,0
-91,-41,0,0,0,0,0,0,0,0,0,-1,1133,1065,0,0
-84,-41,0,0,0,0,0,0,0,0,0,-1,1140,1065,0,0
-77,-41,0,0,0,0,0,0,0,0,0,-1,1147,1065,0,0
-70,-41,0,0,0,0,0,0,0,0,0,-1,1154,1065,0,0
-63,-41,0,0,0,0,0,0,0,0,0,-1,1161,1065,0,0
-56,-41,0,0,0,0,0,0,0,0,0,-1,1168,1065,0,0
-49,-41,0,0,0,0,0,0,0,0,0,-1,1175,1065,0,0
-42,-41,0,0,0,0,0,0,0,0,0,-1,1182,1065,0,0
-35,-41,0,0,0,0,0,0,0,0,0,-1,1189,1065,0,0
-28,-41,0,0,0,0,0,0,0,0,0,-1,1196,1065,0,0
-21,-41,0,0,0,0,0,0,0,0,0,-1,1203,1065,0,0
-14,-41,0,0,0,0,0,0,0,0,0,-1,1210,1065,0,0
-7,-41,0,0,0,0,0,0,0,0,0,-1,1217,1065,0,0
0,-41,0,0,0,0,0,0,0,0,0,-1,1224,1065,0,0
7,-41,0,0,0,0,0,0,0,0,0,-1,1231,1065,0,0
14,-41,0,0,0,0,0,0,0,0,0,-1,1238,1065,0,0
21,-41,0,0,0,0,0,0,0,0,0,-1,1245,1065,0,0
28,-41,0,0,0,0,0,0,0,0,0,-1,1252,1065,0,0
35,-41,0,0,0,0,0,0,0,0,0,-1,1259,1065,0,0
42,-41,0,0,0,0,0,0,0,0,0,-1,1266,1065,0,0
49,-41,0,0,0,0,0,0,0,0,0,-1,1273,1065,0,0
56,-41,0,0,0,0,0,0,0,0,0,-1,1280,1065,0,0
63,-41,0,0,0,0,0,0,0,0,0,-1,1287,1065,0,0
70,-41,0,0,0,0,0,0,0,0,0,-1,1294,1065,0,0
77,-41,0,0,0,0,0,0,0,0,0,-1,1301,1065,0,0
84,-41,0,0,0,0,0,0,0,0,0,-1,1308,1065,0,0
91,-41,0,0,0,0,0,0,0,0,0,-1,1315,1065,0,0
98,-41,0,0,0,0,0,0,0,0,0,-1,1322,1065,0,0
105,-41,0,0,0,0,0,0,0,0,0,-1,1329,1065,0,0
112,-41,0,0,0,0,0,0,0,0,0,-1,1336,1065,0,0
119,-41,0,0,0,0,0,0,0,0,0,-1,1343,1065,0,0
126,-41,0,0,0,0,0,0,0,0,0,-1,1350,1065,0,0
133,-41,0,0,0,0,0,0,0,0,0,-1,1357,1065,0,0
140,-41,0,0,0,0,0,0,0,0,0,-1,1364,1065,0,0
147,-41,0,0,0,0,0,0,0,0,0,-1,1371,1065,0,0
154,-41,0,0,0,0,0,0,0,0,0,-1,1378,1065,0,0
161,-41,0,0,0,0,0,0,0,0,0,-1,1385,1065,0,0
168,-41,0,0,0,0,0,0,0,0,0,-1,1392,1065,0,0
175,-41,0,0,0,0,0,0,0,0,0,-1,1399,1065,0,0
182,-41,0,0,0,0,0,0,0,0,0,-1,1406,1065,0,0
189,-41,0,0,0,0,0,0,0,0,0,-1,1413,1065,0,0
196,-41,0,0,0,0,0,0,0,0,0,-1,1420,1065,0,0
203,-41,0,0,0,0,0,0,0,0,0,-1,1427,1065,0,0
210,-41,0,0,0,0,0,0,0,0,0,-1,1434,1065,0,0
217,-41,0,0,0,0,0,0,0,0,0,-1,1441,1065,0,0
224,-41,0,0,0,0,0,0,0,0,0,-1,1448,1065,0,0
231,-41,0,0,0,0,0,0,0,0,0,-1,1455,1065,0,0
238,-41,0,0,0,0,0,0,0,0,0,-1,1462,1065,0,0
245,-41,0,0,0,0,0,0,0,0,0,-1,1469,1065,0,0
252,-41,0,0,0,0,0,0,0,0,0,-1,1476,1065,0,0
259,-41,0,0,0,0,0,0,0,0,0,-1,1483,1065,0,0
266,-41,0,0,0,0,0,0,0,0,0,-1,1490,1065,0,0
273,-41,0,0,0,0,0,0,0,0,0,-1,1497,1065,0,0
280,-41,0,0,0,0,0,0,0,0,0,-1,1504,1065,0,0
287,-41,0,0,0,0,0,0,0,0,0,-1,1511,1065,0,0
294,-41,0,0,0,0,0,0,0,0,0,-1,1518,1065,0,0
301,-41,0,0,0,0,0,0,0,0,0,-1,1525,1065,0,0
308,-41,0,0,0,0,0,0,0,0,0,-1,1532,1065,0,0
315,-41,0,0,0,0,0,0,0,0,0,-1,1539,1065,0,0
322,-41,0,0,0,0,0,0,0,0,0,-1,1546,1065,0,0
329,-41,0,0,0,0,0,0,0,0,0,-1,1553,1065,0,0
336,-41,0,0,0,0,0,0,0,0,0,-1,1560,1065,0,0
343,-41,0,0,0,0,0,0,0,0,0,-1,1567,1065,0,0
350,-41,0,0,0,0,0,0,0,0,0,-1,1574,1065,0,0
357,-41,0,0,0,0,0,0,0,0,0,-1,1581,1065,0,0
364,-41,0,0,0,0,0,0,0,0,0,-1,1588,1065,0,0
371,-41,0,0,0,0,0,0,0,0,0,-1,1595,1065,0,0
378,-41,0,0,0,0,0,0,0,0,0,-1,1602,1065,0,0
385,-41,0,0,0,0,0,0,0,0,0,-1,1609,1065,0,0
392,-41,0,0,0,0,0,0,0,0,0,-1,1616,1065,0,0
399,-41,0,0,0,0,0,0,0,0,0,-1,1623,1065,0,0
406,-41,0,0,0,0,0,0,0,0,0,-1,1630,1065,0,0
413,-41,0,0,0,0,0,0,0,0,0,-1,1637,1065,0,0
420,-41,0,0,0,0,0,0,0,0,0,-1,1644,1065,0,0
427,-41,0,0,0,0,0,0,0,0,0,-1,1651,1065,0,0
434,-41,0,0,0,0,0,0,0,0,0,-1,1658,1065,0,0
441,-41,0,0,0,0,0,0,0,0,0,-1,1665,1065,0,0
448,-41,0,0,0,0,0,0,0,0,0,-1,1672,1065,0,0
455,-41,0,0,0,0,0,0,0,0,0,-1,1679,1065,0,0
462,-41,0,0,0,0,0,0,0,0,0,-1,1686,1065,0,0
469,-41,0,0,0,0,0,0,0,0,0,-1,1693,1065,0,0
476,-41,0,0,0,0,0,0,0,0,0,-1,1700,1065,0,0
483,-41,0,0,0,0,0,0,0,0,0,-1,1707,1065,0,0
490,-41,0,0,0,0,0,0,0,0,0,-1,1714,1065,0,0
497,-41,0,0,0,0,0,0,0,0,0,-1,1721,1065,0,0
504,-41,0,0,0,0,0,0,0,0,0,-1,1728,1065,0,0
511,-41,0,0,0,0,0,0,0,0,0,-1,1735,1065,0,0
518,-41,0,0,0,0,0,0,0,0,0,-1,1742,1065,0,0
525,-41,0,0,0,0,0,0,0,0,0,-1,1749,1065,0,0
532,-41,0,0,0,0,0,0,0,0,0,-1,1756,1065,0,0
539,-41,0,0,0,0,0,0,0,0,0,-1,1763,1065,0,0
546,-41,0,0,0,0,0,0,0,0,0,-1,1770,1065,0,0
553,-41,0,0,0,0,0,0,0,0,0,-1,1777,1065,0,0
560,-41,0,0,0,0,0,0,0,0,0,-1,1784,1065,0,0
567,-41,0,0,0,0,0,0,0,0,0,-1,1791,1065,0,0
574,-41,0,0,0,0,0,0,0,0,0,-1,1798,1065,0,0
581,-41,0,0,0,0,0,0,0,0,0,-1,1805,1065,0,0
588,-41,0,0,0,0,0,0,0,0,0,-1,1812,1065,0,0
595,-41,0,0,0,0,0,0,0,0,0,-1,1819,1065,0,0
602,-41,0,0,0,0,0,0,0,0,0,-1,1826,1065,0,0
609,-41,0,0,0,0,0,0,0,0,0,-1,1833,1065,0,0
616,-41,0,0,0,0,0,0,0,0,0,-1,1840,1065,0,0
623,-41,0,0,0,0,0,0,0,0,0,-1,1847,1065,0,0
630,-41,0,0,0,0,0,0,0,0,0,-1,1854,1065,0,0
637,-41,0,0,0,0,0,0,0,0,0,-1,1861,1065,0,0
644,-41,0,0,0,0,0,0,0,0,0,-1,1868,1065,0,0
651,-41,34.1184,2.56836,0.00229041,0.00111796,0.00170835,0.00351032,-0.000101944,0.620117,0.00237492,0.0357242,1875,1065,34.1184,-2.56835
658,-41,34.1445,2.48352,0.00130953,0.00105775,0.00116516,0.00235558,1.16916e-05,0.731585,0.0015665,0.0405573,1882,1065,34.1446,-2.48349
665,-41,34.2474,2.39209,0.000632457,0.000941205,0.000836521,0.00163748,-6.38154e-05,0.876643,0.00111353,0.0390448,1889,1065,34.2474,-2.39208
672,-41,34.1396,2.51111,0.000248486,0.000759435,0.000938572,0.00147668,-0.000468759,0.918277,0.00117237,0.0403854,1896,1065,34.1396,-2.51112
679,-41,34.0283,2.85022,-0.000173917,0.000167102,0.00161469,0.00162026,-0.00162708,0.838003,0.00187486,0.0426308,1903,1065,34.0283,-2.85021
686,-41,34.0037,2.63013,-0.000634823,-0.000582845,0.00239729,0.0017886,-0.00300627,0.790819,0.00279791,0.0448356,1910,1065,34.0036,-2.63008
693,-41,33.9896,2.58899,-0.000973608,-0.00131027,0.00314644,0.002009,-0.00429288,0.758674,0.00371718,0.0469355,1917,1065,33.9896,-2.58899
700,-41,34.0975,2.84998,-0.00120854,-0.00185931,0.00373889,0.0022191,-0.00528694,0.741994,0.00445263,0.0386415,1924,1065,34.0976,-2.85
707,-41,34.0737,2.72388,-0.00149151,-0.00211469,0.00404771,0.00225658,-0.00586279,0.746984,0.00483939,0.0236267,1931,1065,34.0737,-2.72393
714,-41,34.0714,2.71863,-0.00184129,-0.00221896,0.00426541,0.00223946,-0.00629971,0.763276,0.00511249,0.0165583,1938,1065,34.0714,-2.71859
721,-41,34.1173,3.48376,-0.00211507,-0.0021017,0.00442624,0.00231787,-0.00653463,0.786153,0.00530075,0.0470612,1945,1065,34.1173,-3.48376
728,-41,33.6066,5.12976,0,0,0,0,0,0,0,-1,1952,1065,33.6065,-5.12971
735,-41,33.5133,5.06958,-0.00252672,-0.00127638,0.00428144,0.00242529,-0.00622839,0.857895,0.00515453,0.0166982,1959,1065,33.5133,-5.06962
742,-41,33.4596,5.00818,-0.00238194,-0.000453806,0.00392468,0.00262348,-0.00545923,0.905835,0.00476133,0.014135,1966,1065,33.4596,-5.00822
749,-41,33.472,4.94397,-0.00196538,0.000820724,0.00325697,0.00297005,-0.00411471,0.987482,0.00410814,0.012761,1973,1065,33.472,-4.94398
756,-41,33.5011,4.85583,-0.000459119,0.00152948,0.00220357,0.00295269,-0.00188233,0.997333,0.00281421,0.0127414,1980,1065,33.5011,-4.85581
763,-41,33.453,4.74438,0.00231841,0.00192205,0.000906401,0.00304804,0.00119241,0.677769,0.00177362,0.0116613,1987,1065,33.453,-4.74443
770,-41,33.3802,4.6488,0.00627079,0.00221741,-0.000744391,0.00640317,0.00208503,-0.175999,0.00377107,0.0133018,1994,1065,33.3803,-4.64879
777,-41,33.3181,4.55261,0.012466,0.00153722,-0.00267443,0.0130854,0.000917846,-0.227577,0.00843431,0.0143404,2001,1065,33.3181,-4.55264
784,-41,33.2936,4.45337,0.0206182,-0.00079234,-0.00464745,0.0215835,-0.00175761,-0.204788,0.0150092,0.0245108,2008,1065,33.2936,-4.45339
791,-41,33.4434,4.34741,0.0317089,-0.00514274,-0.00718559,0.0330604,-0.00649427,-0.185917,0.0244937,0.0431347,2015,1065,33.4434,-4.34741
798,-41,33.6089,4.04626,0.0470317,-0.0123451,-0.0105386,0.0488467,-0.0141601,-0.170549,0.0381703,0.0446915,2022,1065,33.6088,-4.04631
805,-41,33.7046,3.73193,0,0,0,0,0,0,0,-1,2029,1065,33.7045,-3.73188
812,-41,34.7283,2.50269,0,0,0,0,0,0,0,-1,2036,1065,34.7283,-2.50267
-700,-48,-23.0282,-0.30249,0.036554,0.103802,-0.07427,0.151705,-0.0113486,-0.997959,0.105124,0.0464155,524,1072,-23.0282,0.302499
-693,-48,-23.0204,-0.350952,0.0306695,0.0897552,-0.0561986,0.123703,-0.00327832,-1.02739,0.0835829,0.0439523,531,1072,-23.0204,0.351007
-686,-48,-22.9022,-0.575073,0.0244957,0.0755447,-0.0408435,0.0981834,0.00185706,-1.06467,0.0648454,0.0457289,538,1072,-22.9022,0.57513
-679,-48,-22.7003,-0.81958,0.0187612,0.0624208,-0.0285815,0.0765554,0.00462658,-1.11153,0.0495668,0.046427,545,1072,-22.7003,0.819606
-672,-48,-22.5269,-0.593262,0,0,0,0,0,0,0,-1,552,1072,-22.5269,0.593247
-665,-48,-24.0936,0.28772,0.0097311,0.0403379,-0.011842,0.0443846,0.00568441,-1.24151,0.0278887,0.0444102,559,1072,-24.0936,-0.28768
-658,-48,-24.0126,0.679932,0.00653349,0.0314623,-0.00673729,0.0331666,0.00482918,-1.32303,0.0206901,0.045726,566,1072,-24.0126,-0.679887
-651,-48,-23.9148,1.28113,0.00416205,0.0239558,-0.00337422,0.0245152,0.00360266,-1.40651,0.0152848,0.0346414,573,1072,-23.9148,-1.28116
-644,-48,-23.9658,1.70935,0.0024632,0.0179139,-0.00202117,0.0181739,0.00220318,-1.44285,0.0114524,0.0182522,580,1072,-23.9658,-1.70939
-637,-48,-23.9931,1.78845,0.000665564,0.0112719,-0.0014579,0.0114687,0.000468818,-1.43665,0.0074944,0.0173667,587,1072,-23.9931,-1.78839
-630,-48,-23.9872,1.96069,-0.000921197,0.00634019,-0.00257976,0.00716338,-0.00174439,-1.26191,0.0054509,0.0177541,594,1072,-23.9872,-1.96068
-623,-48,-24.043,2.12061,-0.00196883,0.00360338,-0.00505252,0.00658706,-0.00495251,-1.03737,0.00668461,0.0105872,601,1072,-24.043,-2.12063
-616,-48,-24.0308,2.26929,-0.00224248,0.000729649,-0.00750643,0.00689571,-0.00840853,-0.88312,0.00885028,0.00987657,608,1072,-24.0308,-2.2693
-609,-48,-24.002,2.41724,-0.00235228,-0.001089,-0.00968833,0.00798826,-0.0114295,-0.81795,0.0112694,0.0117688,615,1072,-24.002,-2.41726
-602,-48,-24.0336,2.54797,-0.00260196,-0.00214181,-0.0113378,0.00896829,-0.0137121,-0.795543,0.0131896,0.0118436,622,1072,-24.0336,-2.548
-595,-48,-24.083,2.63489,-0.00283587,-0.00277999,-0.0122776,0.00946975,-0.0150856,-0.786536,0.0143001,0.0226322,629,1072,-24.083,-2.63487
-588,-48,-24.2719,1.64148,-0.00273565,-0.00291607,-0.0124131,0.00958758,-0.0152393,-0.781765,0.0144571,0.0409449,636,1072,-24.2719,-1.64144
-581,-48,-24.448,0.746216,-0.00248472,-0.00286921,-0.0119374,0.00926199,-0.0146159,-0.777347,0.013901,0.0402922,643,1072,-24.448,-0.746256
-574,-48,-24.4329,0.686523,-0.00217009,-0.00249115,-0.0108437,0.00851426,-0.0131755,-0.777997,0.0126186,0.0407129,650,1072,-24.4329,-0.686482
-567,-48,-24.4197,0.748413,-0.00166247,-0.00177517,-0.00887593,0.00715729,-0.0105949,-0.782224,0.0103131,0.0412999,657,1072,-24.4198,-0.748468
-560,-48,-24.4061,0.647217,-0.000934872,-0.000777946,-0.00603998,0.00518408,-0.0068969,-0.791893,0.00699828,0.0399198,664,1072,-24.4061,-0.647163
-553,-48,-24.4399,0.542358,4.12402e-06,0.000391685,-0.00240443,0.00261013,-0.00221432,-0.825608,0.00278852,0.0402981,671,1072,-24.4399,-0.542324
-546,-48,-24.5262,0.695435,0.00112184,0.00157249,0.00190818,0.0032686,-0.00057427,0.844167,0.00239356,0.03689,678,1072,-24.5262,-0.695464
-539,-48,-24.5464,0.799438,0.00223413,0.0023848,0.00558806,0.00789803,-0.0032791,0.792138,0.00663424,0.0381932,685,1072,-24.5465,-0.799436
-532,-48,-24.5482,0.859985,0.0022243,0.00202013,0.00531716,0.00744035,-0.00319592,0.7758,0.00630173,0.0405552,692,1072,-24.5482,-0.859967
-525,-48,0,0,0,0,0,0,0,0,0,-1,699,1072,0,0
-518,-48,0,0,0,0,0,0,0,0,0,-1,706,1072,0,0
-511,-48,0,0,0,0,0,0,0,0,0,-1,713,1072,0,0
-504,-48,0,0,0,0,0,0,0,0,0,-1,720,1072,0,0
-497,-48,0,0,0,0,0,0,0,0,0,-1,727,1072,0,0
-490,-48,0,0,0,0,0,0,0,0,0,-1,734,1072,0,0
-483,-48,0,0,0,0,0,0,0,0,0,-1,741,1072,0,0
-476,-48,0,0,0,0,0,0,0,0,0,-1,748,1072,0,0
-469,-48,0,0,0,0,0,0,0,0,0,-1,755,1072,0,0
-462,-48,0,0,0,0,0,0,0,0,0,-1,762,1072,0,0
-455,-48,0,0,0,0,0,0,0,0,0,-1,769,1072,0,0
-448,-48,0,0,0,0,0,0,0,0,0,-1,776,1072,0,0
-441,-48,0,0,0,0,0,0,0,0,0,-1,783,1072,0,0
-434,-48,0,0,0,0,0,0,0,0,0,-1,790,1072,0,0
-427,-48,0,0,0,0,0,0,0,0,0,-1,797,1072,0,0
-420,-48,0,0,0,0,0,0,0,0,0,-1,804,1072,0,0
-413,-48,0,0,0,0,0,0,0,0,0,-1,811,1072,0,0
-406,-48,0,0,0,0,0,0,0,0,0,-1,818,1072,0,0
-399,-48,0,0,0,0,0,0,0,0,0,-1,825,1072,0,0
-392,-48,0,0,0,0,0,0,0,0,0,-1,832,1072,0,0
-385,-48,0,0,0,0,0,0,0,0,0,-1,839,1072,0,0
-378,-48,0,0,0,0,0,0,0,0,0,-1,846,1072,0,0
-371,-48,0,0,0,0,0,0,0,0,0,-1,853,1072,0,0
-364,-48,0,0,0,0,0,0,0,0,0,-1,860,1072,0,0
-357,-48,0,0,0,0,0,0,0,0,0,-1,867,1072,0,0
-350,-48,0,0,0,0,0,0,0,0,0,-1,874,1072,0,0
-343,-48,0,0,0,0,0,0,0,0,0,-1,881,1072,0,0
-336,-48,0,0,0,0,0,0,0,0,0,-1,888,1072,0,0
-329,-48,0,0,0,0,0,0,0,0,0,-1,895,1072,0,0
-322,-48,0,0,0,0,0,0,0,0,0,-1,902,1072,0,0
-315,-48,0,0,0,0,0,0,0,0,0,-1,909,1072,0,0
-308,-48,0,0,0,0,0,0,0,0,0,-1,916,1072,0,0
-301,-48,0,0,0,0,0,0,0,0,0,-1,923,1072,0,0
-294,-48,0,0,0,0,0,0,0,0,0,-1,930,1072,0,0
-287,-48,0,0,0,0,0,0,0,0,0,-1,937,1072,0,0
-280,-48,0,0,0,0,0,0,0,0,0,-1,944,1072,0,0
-273,-48,0,0,0,0,0,0,0,0,0,-1,951,1072,0,0
-266,-48,0,0,0,0,0,0,0,0,0,-1,958,1072,0,0
-259,-48,0,0,0,0,0,0,0,0,0,-1,965,1072,0,0
-252,-48,0,0,0,0,0,0,0,0,0,-1,972,1072,0,0
-245,-48,0,0,0,0,0,0,0,0,0,-1,979,1072,0,0
-238,-48,0,0,0,0,0,0,0,0,0,-1,986,1072,0,0
-231,-48,0,0,0,0,0,0,0,0,0,-1,993,1072,0,0
-224,-48,0,0,0,0,0,0,0,0,0,-1,1000,1072,0,0
-217,-48,0,0,0,0,0,0,0,0,0,-1,1007,1072,0,0
-210,-48,0,0,0,0,0,0,0,0,0,-1,1014,1072,0,0
-203,-48,0,0,0,0,0,0,0,0,0,-1,1021,1072,0,0
-196,-48,0,0,0,0,0,0,0,0,0,-1,1028,1072,0,0
-189,-48,0,0,0,0,0,0,0,0,0,-1,1035,1072,0,0
-182,-48,0,0,0,0,0,0,0,0,0,-1,1042,1072,0,0
-175,-48,0,0,0,0,0,0,0,0,0,-1,1049,1072,0,0
-168,-48,0,0,0,0,0,0,0,0,0,-1,1056,1072,0,0
-161,-48,0,0,0,0,0,0,0,0,0,-1,1063,1072,0,0
-154,-48,0,0,0,0,0,0,0,0,0,-1,1070,1072,0,0
-147,-48,0,0,0,0,0,0,0,0,0,-1,1077,1072,0,0
-140,-48,0,0,0,0,0,0,0,0,0,-1,1084,1072,0,0
-133,-48,0,0,0,0,0,0,0,0,0,-1,1091,1072,0,0
-126,-48,0,0,0,0,0,0,0,0,0,-1,1098,1072,0,0
-119,-48,0,0,0,0,0,0,0,0,0,-1,1105,1072,0,0
-112,-48,0,0,0,0,0,0,0,0,0,-1,1112,1072,0,0
-105,-48,0,0,0,0,0,0,0,0,0,-1,1119,1072,0,0
-98,-48,0,0,0,0,0,0,0,0,0,-1,1126,1072,0,0
-91,-48,0,0,0,0,0,0,0,0,0,-1,1133,1072,0,0
-84,-48,0,0,0,0,0,0,0,0,0,-1,1140,1072,0,0
-77,-48,0,0,0,0,0,0,0,0,0,-1,1147,1072,0,0
-70,-48,0,0,0,0,0,0,0,0,0,-1,1154,1072,0,0
-63,-48,0,0,0,0,0,0,0,0,0,-1,1161,1072,0,0
-56,-48,0,0,0,0,0,0,0,0,0,-1,1168,1072,0,0
-49,-48,0,0,0,0,0,0,0,0,0,-1,1175,1072,0,0
-42,-48,0,0,0,0,0,0,0,0,0,-1,1182,1072,0,0
-35,-48,0,0,0,0,0,0,0,0,0,-1,1189,1072,0,0
-28,-48,0,0,0,0,0,0,0,0,0,-1,1196,1072,0,0
-21,-48,0,0,0,0,0,0,0,0,0,-1,1203,1072,0,0
-14,-48,0,0,0,0,0,0,0,0,0,-1,1210,1072,0,0
-7,-48,0,0,0,0,0,0,0,0,0,-1,1217,1072,0,0
0,-48,0,0,0,0,0,0,0,0,0,-1,1224,1072,0,0
7,-48,0,0,0,0,0,0,0,0,0,-1,1231,1072,0,0
14,-48,0,0,0,0,0,0,0,0,0,-1,1238,1072,0,0
21,-48,0,0,0,0,0,0,0,0,0,-1,1245,1072,0,0
28,-48,0,0,0,0,0,0,0,0,0,-1,1252,1072,0,0
35,-48,0,0,0,0,0,0,0,0,0,-1,1259,1072,0,0
42,-48,0,0,0,0,0,0,0,0,0,-1,1266,1072,0,0
49,-48,0,0,0,0,0,0,0,0,0,-1,1273,1072,0,0
56,-48,0,0,0,0,0,0,0,0,0,-1,1280,1072,0,0
63,-48,0,0,0,0,0,0,0,0,0,-1,1287,1072,0,0
70,-48,0,0,0,0,0,0,0,0,0,-1,1294,1072,0,0
77,-48,0,0,0,0,0,0,0,0,0,-1,1301,1072,0,0
84,-48,0,0,0,0,0,0,0,0,0,-1,1308,1072,0,0
91,-48,0,0,0,0,0,0,0,0,0,-1,1315,1072,0,0
98,-48,0,0,0,0,0,0,0,0,0,-1,1322,1072,0,0
105,-48,0,0,0,0,0,0,0,0,0,-1,1329,1072,0,0
112,-48,0,0,0,0,0,0,0,0,0,-1,1336,1072,0,0
119,-48,0,0,0,0,0,0,0,0,0,-1,1343,1072,0,0
126,-48,0,0,0,0,0,0,0,0,0,-1,1350,1072,0,0
133,-48,0,0,0,0,0,0,0,0,0,-1,1357,1072,0,0
140,-48,0,0,0,0,0,0,0,0,0,-1,1364,1072,0,0
147,-48,0,0,0,0,0,0,0,0,0,-1,1371,1072,0,0
154,-48,0,0,0,0,0,0,0,0,0,-1,1378,1072,0,0
161,-48,0,0,0,0,0,0,0,0,0,-1,1385,1072,0,0
168,-48,0,0,0,0,0,0,0,0,0,-1,1392,1072,0,0
175,-48,0,0,0,0,0,0,0,0,0,-1,1399,1072,0,0
182,-48,0,0,0,0,0,0,0,0,0,-1,1406,1072,0,0
189,-48,0,0,0,0,0,0,0,0,0,-1,1413,1072,0,0
196,-48,0,0,0,0,0,0,0,0,0,-1,1420,1072,0,0
203,-48,0,0,0,0,0,0,0,0,0,-1,1427,1072,0,0
210,-48,0,0,0,0,0,0,0,0,0,-1,1434,1072,0,0
217,-48,0,0,0,0,0,0,0,0,0,-1,1441,1072,0,0
224,-48,0,0,0,0,0,0,0,0,0,-1,1448,1072,0,0
231,-48,0,0,0,0,0,0,0,0,0,-1,1455,1072,0,0
238,-48,0,0,0,0,0,0,0,0,0,-1,1462,1072,0,0
245,-48,0,0,0,0,0,0,0,0,0,-1,1469,1072,0,0
252,-48,0,0,0,0,0,0,0,0,0,-1,1476,1072,0,0
259,-48,0,0,0,0,0,0,0,0,0,-1,1483,1072,0,0
266,-48,0,0,0,0,0,0,0,0,0,-1,1490,1072,0,0
273,-48,0,0,0,0,0,0,0,0,0,-1,1497,1072,0,0
280,-48,0,0,0,0,0,0,0,0,0,-1,1504,1072,0,0
287,-48,0,0,0,0,0,0,0,0,0,-1,1511,1072,0,0
294,-48,0,0,0,0,0,0,0,0,0,-1,1518,1072,0,0
301,-48,0,0,0,0,0,0,0,0,0,-1,1525,1072,0,0
308,-48,0,0,0,0,0,0,0,0,0,-1,1532,1072,0,0
315,-48,0,0,0,0,0,0,0,0,0,-1,1539,1072,0,0
322,-48,0,0,0,0,0,0,0,0,0,-1,1546,1072,0,0
329,-48,0,0,0,0,0,0,0,0,0,-1,1553,1072,0,0
336,-48,0,0,0,0,0,0,0,0,0,-1,1560,1072,0,0
343,-48,0,0,0,0,0,0,0,0,0,-1,1567,1072,0,0
350,-48,0,0,0,0,0,0,0,0,0,-1,1574,1072,0,0
357,-48,0,0,0,0,0,0,0,0,0,-1,1581,1072,0,0
364,-48,0,0,0,0,0,0,0,0,0,-1,1588,1072,0,0
371,-48,0,0,0,0,0,0,0,0,0,-1,1595,1072,0,0
378,-48,0,0,0,0,0,0,0,0,0,-1,1602,1072,0,0
385,-48,0,0,0,0,0,0,0,0,0,-1,1609,1072,0,0
392,-48,0,0,0,0,0,0,0,0,0,-1,1616,1072,0,0
399,-48,0,0,0,0,0,0,0,0,0,-1,1623,1072,0,0
406,-48,0,0,0,0,0,0,0,0,0,-1,1630,1072,0,0
413,-48,0,0,0,0,0,0,0,0,0,-1,1637,1072,0,0
420,-48,0,0,0,0,0,0,0,0,0,-1,1644,1072,0,0
427,-48,0,0,0,0,0,0,0,0,0,-1,1651,1072,0,0
434,-48,0,0,0,0,0,0,0,0,0,-1,1658,1072,0,0
441,-48,0,0,0,0,0,0,0,0,0,-1,1665,1072,0,0
448,-48,0,0,0,0,0,0,0,0,0,-1,1672,1072,0,0
455,-48,0,0,0,0,0,0,0,0,0,-1,1679,1072,0,0
462,-48,0,0,0,0,0,0,0,0,0,-1,1686,1072,0,0
469,-48,0,0,0,0,0,0,0,0,0,-1,1693,1072,0,0
476,-48,0,0,0,0,0,0,0,0,0,-1,1700,1072,0,0
483,-48,0,0,0,0,0,0,0,0,0,-1,1707,1072,0,0
490,-48,0,0,0,0,0,0,0,0,0,-1,1714,1072,0,0
497,-48,0,0,0,0,0,0,0,0,0,-1,1721,1072,0,0
504,-48,0,0,0,0,0,0,0,0,0,-1,1728,1072,0,0
511,-48,0,0,0,0,0,0,0,0,0,-1,1735,1072,0,0
518,-48,0,0,0,0,0,0,0,0,0,-1,1742,1072,0,0
525,-48,0,0,0,0,0,0,0,0,0,-1,1749,1072,0,0
532,-48,0,0,0,0,0,0,0,0,0,-1,1756,1072,0,0
539,-48,0,0,0,0,0,0,0,0,0,-1,1763,1072,0,0
546,-48,0,0,0,0,0,0,0,0,0,-1,1770,1072,0,0
553,-48,0,0,0,0,0,0,0,0,0,-1,1777,1072,0,0
560,-48,0,0,0,0,0,0,0,0,0,-1,1784,1072,0,0
567,-48,0,0,0,0,0,0,0,0,0,-1,1791,1072,0,0
574,-48,0,0,0,0,0,0,0,0,0,-1,1798,1072,0,0
581,-48,0,0,0,0,0,0,0,0,0,-1,1805,1072,0,0
588,-48,0,0,0,0,0,0,0,0,0,-1,1812,1072,0,0
595,-48,0,0,0,0,0,0,0,0,0,-1,1819,1072,0,0
602,-48,0,0,0,0,0,0,0,0,0,-1,1826,1072,0,0
609,-48,0,0,0,0,0,0,0,0,0,-1,1833,1072,0,0
616,-48,0,0,0,0,0,0,0,0,0,-1,1840,1072,0,0
623,-48,0,0,0,0,0,0,0,0,0,-1,1847,1072,0,0
630,-48,0,0,0,0,0,0,0,0,0,-1,1854,1072,0,0
637,-48,0,0,0,0,0,0,0,0,0,-1,1861,1072,0,0
644,-48,0,0,0,0,0,0,0,0,0,-1,1868,1072,0,0
651,-48,34.0597,2.60266,0.00156726,0.00122344,0.00143321,0.00283884,-4.81338e-05,0.725711,0.0019088,0.0327158,1875,1072,34.0596,-2.60267
658,-48,34.0591,2.53918,0.000795003,0.00112167,0.000964536,0.0019366,-1.99318e-05,0.869272,0.00129776,0.0387171,1882,1072,34.0591,-2.53916
665,-48,33.8423,2.38196,0.000303016,0.000925331,0.000675247,0.00135766,-0.000129317,1.0013,0.000951149,0.0409217,1889,1072,33.8423,-2.38199
672,-48,33.6615,2.40527,5.64655e-05,0.000661961,0.000782648,0.00119838,-0.000479949,0.969947,0.000998135,0.0423979,1896,1072,33.6615,-2.40524
679,-48,34.1173,2.6012,-0.00037627,-6.09432e-05,0.00153139,0.00132088,-0.00175809,0.836695,0.00178361,0.0420174,1903,1072,34.1173,-2.60115
686,-48,34.0879,2.39038,-0.000919635,-0.000901857,0.0023922,0.00148147,-0.00330296,0.787256,0.00282823,0.0410451,1910,1072,34.0879,-2.39041
693,-48,34.0189,2.17188,0,0,0,0,0,0,0,-1,1917,1072,34.0189,-2.17188
700,-48,34.0677,2.74658,-0.00169456,-0.00227422,0.00387064,0.00189708,-0.00586587,0.748028,0.00467311,0.0339211,1924,1072,34.0677,-2.74653
707,-48,34.0803,2.74097,-0.00204111,-0.0025501,0.00425908,0.00197107,-0.00656229,0.755557,0.00515896,0.0240202,1931,1072,34.0803,-2.74099
714,-48,34.0973,2.73376,-0.00243107,-0.00269498,0.00453283,0.00197172,-0.00709777,0.770847,0.00550801,0.0269532,1938,1072,34.0973,-2.73378
721,-48,34.0909,2.87354,0,0,0,0,0,0,0,-1,1945,1072,34.0909,-2.87356
728,-48,33.5057,5.21667,0,0,0,0,0,0,0,-1,1952,1072,33.5058,-5.21672
735,-48,33.4236,5.13049,-0.00311146,-0.00174954,0.0046214,0.0022408,-0.0071018,0.858547,0.00563207,0.0179455,1959,1072,33.4235,-5.13047
742,-48,33.3373,5.03137,-0.00289998,-0.000857766,0.00422345,0.00246626,-0.00622401,0.904007,0.00517132,0.0141958,1966,1072,33.3373,-5.03133
749,-48,33.3628,4.92664,-0.00230155,0.000479413,0.00351825,0.00287199,-0.00469412,0.973588,0.00441032,0.0128792,1973,1072,33.3628,-4.92663
756,-48,33.3605,4.81909,-0.000519675,0.00106549,0.00238814,0.00278914,-0.00224332,0.94562,0.00291119,0.0121225,1980,1072,33.3604,-4.81903
763,-48,33.3275,4.70654,0.00263046,0.00124345,0.000987316,0.0031435,0.000730412,0.479225,0.00189959,0.0125665,1987,1072,33.3275,-4.70654
770,-48,33.3243,4.59485,0.00696641,0.00128194,-0.000804156,0.00707798,0.00117037,-0.137862,0.00438095,0.0137105,1994,1072,33.3243,-4.59479
777,-48,33.2268,4.4812,0.0135918,0.000232417,-0.00293545,0.0142083,-0.000384132,-0.207027,0.00960283,0.0120501,2001,1072,33.2268,-4.48123
784,-48,33.2058,4.33264,0.0222184,-0.00265432,-0.00510847,0.0232267,-0.00366264,-0.194878,0.0168387,0.0233285,2008,1072,33.2059,-4.33264
791,-48,33.2654,4.12427,0.0338472,-0.00773573,-0.00788974,0.0352939,-0.00918236,-0.181342,0.0271134,0.0423814,2015,1072,33.2653,-4.12432
798,-48,33.3306,3.95178,0.0497973,-0.0159068,-0.0115578,0.0517711,-0.0178806,-0.169145,0.0417701,0.0476288,2022,1072,33.3305,-3.95173
805,-48,33.9473,3.604,0.0711115,-0.0280541,-0.0162901,0.0737189,-0.0306615,-0.158716,0.0619496,0.042655,2029,1072,33.9472,-3.60402
812,-48,34.7441,3.07703,0.0986328,-0.0453701,-0.0223365,0.102018,-0.0487552,-0.150404,0.088841,0.0437088,2036,1072,34.7441,-3.07704
-700,-55,-23.4473,0.00830078,0,0,0,0,0,0,0,-1,524,1079,-23.4473,-0.00829178
-693,-55,-22.8453,-0.213989,0,0,0,0,0,0,0,-1,531,1079,-22.8453,0.214038
-686,-55,-22.7966,-0.307251,0.022023,0.0647282,-0.034029,0.0835491,0.00320211,-1.06559,0.0546633,0.0475421,538,1079,-22.7966,0.307198
-679,-55,-22.6355,-0.570068,0.0167992,0.053317,-0.023374,0.0647184,0.00539785,-1.11697,0.0414636,0.0474936,545,1079,-22.6355,0.57004
-672,-55,-22.0641,0.116089,0,0,0,0,0,0,0,-1,552,1079,-22.0641,-0.116069
-665,-55,-23.3411,0.28064,0.00856944,0.0343431,-0.00911106,0.0372386,0.00567394,-1.26309,0.0231672,0.0458992,559,1079,-23.3411,-0.280594
-658,-55,-23.7579,0.300415,0.0056568,0.0267737,-0.00486224,0.0278394,0.00459104,-1.35502,0.0172343,0.0478944,566,1079,-23.7579,-0.300444
-651,-55,-23.8464,1.03992,0.00352016,0.020384,-0.00212474,0.0206476,0.00325657,-1.44737,0.0128182,0.0364931,573,1079,-23.8465,-1.03997
-644,-55,-23.7902,1.6781,0,0,0,0,0,0,0,-1,580,1079,-23.7901,-1.67806
-637,-55,-23.8526,1.75146,0.000328627,0.00943892,-0.000850361,0.00951761,0.000249934,-1.47852,0.00626342,0.0160944,587,1079,-23.8526,-1.75143
-630,-55,-23.8369,1.94421,-0.00122223,0.00513822,-0.00214287,0.0057928,-0.0018768,-1.27433,0.00461644,0.0169205,594,1079,-23.8369,-1.94424
-623,-55,-23.9029,2.1366,-0.00228416,0.00275396,-0.00465574,0.00552844,-0.00505864,-1.03338,0.00611446,0.0147016,601,1079,-23.9029,-2.13658
-616,-55,-23.8972,2.26746,-0.00257974,0.000224256,-0.00708198,0.00604168,-0.00839717,-0.883118,0.00837317,0.0134553,608,1079,-23.8972,-2.26744
-609,-55,-23.8756,2.44849,-0.00263539,-0.00138817,-0.00917866,0.00718804,-0.0112116,-0.819317,0.0107074,0.0138282,615,1079,-23.8756,-2.44843
-602,-55,-23.8775,2.58545,-0.00285412,-0.00233028,-0.0107084,0.00811937,-0.0133038,-0.797625,0.0124888,0.0129678,622,1079,-23.8775,-2.58548
-595,-55,-23.8294,2.75281,-0.00306971,-0.00294702,-0.0115603,0.00855208,-0.0145688,-0.788051,0.0134987,0.0226405,629,1079,-23.8294,-2.75276
-588,-55,-23.9396,1.83765,-0.00297731,-0.00311377,-0.0116578,0.00861241,-0.0147035,-0.782472,0.0136137,0.0463424,636,1079,-23.9396,-1.83763
-581,-55,-24.4339,0.925049,-0.00272734,-0.00312513,-0.0111828,0.00825836,-0.0141108,-0.776506,0.0130614,0.0460278,643,1079,-24.4339,-0.925044
-574,-55,-24.4841,0.705078,-0.00240573,-0.00284313,-0.010161,0.0075389,-0.0127878,-0.774638,0.0118653,0.0403479,650,1079,-24.4841,-0.705108
-567,-55,-24.4899,0.648315,-0.00186015,-0.00222559,-0.00831372,0.00627286,-0.0103586,-0.774411,0.00969828,0.0392519,657,1079,-24.4899,-0.648259
-560,-55,-24.3698,0.609375,-0.00109434,-0.00130481,-0.00561811,0.00441953,-0.00681868,-0.776034,0.00653748,0.0397467,664,1079,-24.3698,-0.609353
-553,-55,-24.4184,0.622192,-0.000118151,-0.000158786,-0.00210575,0.00196738,-0.00224432,-0.780574,0.00243338,0.0396711,671,1079,-24.4184,-0.622204
-546,-55,-24.4707,0.735107,0.00104603,0.00109281,0.00214228,0.00321183,-0.00107298,0.790856,0.00257452,0.0379238,678,1079,-24.4707,-0.735103
-539,-55,-24.4734,0.806519,0.00219757,0.00214805,0.00592199,0.00809486,-0.00374924,0.783308,0.00698993,0.0390899,685,1079,-24.4734,-0.806486
-532,-55,-24.4651,0.779663,0.00193661,0.002148,0.00592893,0.00797217,-0.00388756,0.794311,0.00698128,0.0400101,692,1079,-24.4652,-0.779714
-525,-55,0,0,0,0,0,0,0,0,0,-1,699,1079,0,0
-518,-55,0,0,0,0,0,0,0,0,0,-1,706,1079,0,0
-511,-55,0,0,0,0,0,0,0,0,0,-1,713,1079,0,0
-504,-55,0,0,0,0,0,0,0,0,0,-1,720,1079,0,0
-497,-55,0,0,0,0,0,0,0,0,0,-1,727,1079,0,0
-490,-55,0,0,0,0,0,0,0,0,0,-1,734,1079,0,0
-483,-55,0,0,0,0,0,0,0,0,0,-1,741,1079,0,0
-476,-55,0,0,0,0,0,0,0,0,0,-1,748,1079,0,0
-469,-55,0,0,0,0,0,0,0,0,0,-1,755,1079,0,0
-462,-55,0,0,0,0,0,0,0,0,0,-1,762,1079,0,0
-455,-55,0,0,0,0,0,0,0,0,0,-1,769,1079,0,0
-448,-55,0,0,0,0,0,0,0,0,0,-1,776,1079,0,0
-441,-55,0,0,0,0,0,0,0,0,0,-1,783,1079,0,0
-434,-55,0,0,0,0,0,0,0,0,0,-1,790,1079,0,0
-427,-55,0,0,0,0,0,0,0,0,0,-1,797,1079,0,0
-420,-55,0,0,0,0,0,0,0,0,0,-1,804,1079,0,0
-413,-55,0,0,0,0,0,0,0,0,0,-1,811,1079,0,0
-406,-55,0,0,0,0,0,0,0,0,0,-1,818,1079,0,0
-399,-55,0,0,0,0,0,0,0,0,0,-1,825,1079,0,0
-392,-55,0,0,0,0,0,0,0,0,0,-1,832,1079,0,0
-385,-55,0,0,0,0,0,0,0,0,0,-1,839,1079,0,0
-378,-55,0,0,0,0,0,0,0,0,0,-1,846,1079,0,0
-371,-55,0,0,0,0,0,0,0,0,0,-1,853,1079,0,0
-364,-55,0,0,0,0,0,0,0,0,0,-1,860,1079,0,0
-357,-55,0,0,0,0,0,0,0,0,0,-1,867,1079,0,0
-350,-55,0,0,0,0,0,0,0,0,0,-1,874,1079,0,0
-343,-55,0,0,0,0,0,0,0,0,0,-1,881,1079,0,0
-336,-55,0,0,0,0,0,0,0,0,0,-1,888,1079,0,0
-329,-55,0,0,0,0,0,0,0,0,0,-1,895,1079,0,0
-322,-55,0,0,0,0,0,0,0,0,0,-1,902,1079,0,0
-315,-55,0,0,0,0,0,0,0,0,0,-1,909,1079,0,0
-308,-55,0,0,0,0,0,0,0,0,0,-1,916,1079,0,0
-301,-55,0,0,0,0,0,0,0,0,0,-1,923,1079,0,0
-294,-55,0,0,0,0,0,0,0,0,0,-1,930,1079,0,0
-287,-55,0,0,0,0,0,0,0,0,0,-1,937,1079,0,0
-280,-55,0,0,0,0,0,0,0,0,0,-1,944,1079,0,0
-273,-55,0,0,0,0,0,0,0,0,0,-1,951,1079,0,0
-266,-55,0,0,0,0,0,0,0,0,0,-1,958,1079,0,0
-259,-55,0,0,0,0,0,0,0,0,0,-1,965,1079,0,0
-252,-55,0,0,0,0,0,0,0,0,0,-1,972,1079,0,0
-245,-55,0,0,0,0,0,0,0,0,0,-1,979,1079,0,0
-238,-55,0,0,0,0,0,0,0,0,0,-1,986,1079,0,0
-231,-55,0,0,0,0,0,0,0,0,0,-1,993,1079,0,0
-224,-55,0,0,0,0,0,0,0,0,0,-1,1000,1079,0,0
-217,-55,0,0,0,0,0,0,0,0,0,-1,1007,1079,0,0
-210,-55,0,0,0,0,0,0,0,0,0,-1,1014,1079,0,0
-203,-55,0,0,0,0,0,0,0,0,0,-1,1021,1079,0,0
-196,-55,0,0,0,0,0,0,0,0,0,-1,1028,1079,0,0
-189,-55,0,0,0,0,0,0,0,0,0,-1,1035,1079,0,0
-182,-55,0,0,0,0,0,0,0,0,0,-1,1042,1079,0,0
-175,-55,0,0,0,0,0,0,0,0,0,-1,1049,1079,0,0
-168,-55,0,0,0,0,0,0,0,0,0,-1,1056,1079,0,0
-161,-55,0,0,0,0,0,0,0,0,0,-1,1063,1079,0,0
-154,-55,0,0,0,0,0,0,0,0,0,-1,1070,1079,0,0
-147,-55,0,0,0,0,0,0,0,0,0,-1,1077,1079,0,0
-140,-55,0,0,0,0,0,0,0,0,0,-1,1084,1079,0,0
-133,-55,0,0,0,0,0,0,0,0,0,-1,1091,1079,0,0
-126,-55,0,0,0,0,0,0,0,0,0,-1,1098,1079,0,0
-119,-55,0,0,0,0,0,0,0,0,0,-1,1105,1079,0,0
-112,-55,0,0,0,0,0,0,0,0,0,-1,1112,1079,0,0
-105,-55,0,0,0,0,0,0,0,0,0,-1,1119,1079,0,0
-98,-55,0,0,0,0,0,0,0,0,0,-1,1126,1079,0,0
-91,-55,0,0,0,0,0,0,0,0,0,-1,1133,1079,0,0
-84,-55,0,0,0,0,0,0,0,0,0,-1,1140,1079,0,0
-77,-55,0,0,0,0,0,0,0,0,0,-1,1147,1079,0,0
-70,-55,0,0,0,0,0,0,0,0,0,-1,1154,1079,0,0
-63,-55,0,0,0,0,0,0,0,0,0,-1,1161,1079,0,0
-56,-55,0,0,0,0,0,0,0,0,0,-1,1168,1079,0,0
-49,-55,0,0,0,0,0,0,0,0,0,-1,1175,1079,0,0
-42,-55,0,0,0,0,0,0,0,0,0,-1,1182,1079,0,0
-35,-55,0,0,0,0,0,0,0,0,0,-1,1189,1079,0,0
-28,-55,0,0,0,0,0,0,0,0,0,-1,1196,1079,0,0
-21,-55,0,0,0,0,0,0,0,0,0,-1,1203,1079,0,0
-14,-55,0,0,0,0,0,0,0,0,0,-1,1210,1079,0,0
-7,-55,0,0,0,0,0,0,0,0,0,-1,1217,1079,0,0
0,-55,0,0,0,0,0,0,0,0,0,-1,1224,1079,0,0
7,-55,0,0,0,0,0,0,0,0,0,-1,1231,1079,0,0
14,-55,0,0,0,0,0,0,0,0,0,-1,1238,1079,0,0
21,-55,0,0,0,0,0,0,0,0,0,-1,1245,1079,0,0
28,-55,0,0,0,0,0,0,0,0,0,-1,1252,1079,0,0
35,-55,0,0,0,0,0,0,0,0,0,-1,1259,1079,0,0
42,-55,0,0,0,0,0,0,0,0,0,-1,1266,1079,0,0
49,-55,0,0,0,0,0,0,0,0,0,-1,1273,1079,0,0
56,-55,0,0,0,0,0,0,0,0,0,-1,1280,1079,0,0
63,-55,0,0,0,0,0,0,0,0,0,-1,1287,1079,0,0
70,-55,0,0,0,0,0,0,0,0,0,-1,1294,1079,0,0
77,-55,0,0,0,0,0,0,0,0,0,-1,1301,1079,0,0
84,-55,0,0,0,0,0,0,0,0,0,-1,1308,1079,0,0
91,-55,0,0,0,0,0,0,0,0,0,-1,1315,1079,0,0
98,-55,0,0,0,0,0,0,0,0,0,-1,1322,1079,0,0
105,-55,0,0,0,0,0,0,0,0,0,-1,1329,1079,0,0
112,-55,0,0,0,0,0,0,0,0,0,-1,1336,1079,0,0
119,-55,0,0,0,0,0,0,0,0,0,-1,1343,1079,0,0
126,-55,0,0,0,0,0,0,0,0,0,-1,1350,1079,0,0
133,-55,0,0,0,0,0,0,0,0,0,-1,1357,1079,0,0
140,-55,0,0,0,0,0,0,0,0,0,-1,1364,1079,0,0
147,-55,0,0,0,0,0,0,0,0,0,-1,1371,1079,0,0
154,-55,0,0,0,0,0,0,0,0,0,-1,1378,1079,0,0
161,-55,0,0,0,0,0,0,0,0,0,-1,1385,1079,0,0
168,-55,0,0,0,0,0,0,0,0,0,-1,1392,1079,0,0
175,-55,0,0,0,0,0,0,0,0,0,-1,1399,1079,0,0
182,-55,0,0,0,0,0,0,0,0,0,-1,1406,1079,0,0
189,-55,0,0,0,0,0,0,0,0,0,-1,1413,1079,0,0
196,-55,0,0,0,0,0,0,0,0,0,-1,1420,1079,0,0
203,-55,0,0,0,0,0,0,0,0,0,-1,1427,1079,0,0
210,-55,0,0,0,0,0,0,0,0,0,-1,1434,1079,0,0
217,-55,0,0,0,0,0,0,0,0,0,-1,1441,1079,0,0
224,-55,0,0,0,0,0,0,0,0,0,-1,1448,1079,0,0
231,-55,0,0,0,0,0,0,0,0,0,-1,1455,1079,0,0
238,-55,0,0,0,0,0,0,0,0,0,-1,1462,1079,0,0
245,-55,0,0,0,0,0,0,0,0,0,-1,1469,1079,0,0
252,-55,0,0,0,0,0,0,0,0,0,-1,1476,1079,0,0
259,-55,0,0,0,0,0,0,0,0,0,-1,1483,1079,0,0
266,-55,0,0,0,0,0,0,0,0,0,-1,1490,1079,0,0
273,-55,0,0,0,0,0,0,0,0,0,-1,1497,1079,0,0
280,-55,0,0,0,0,0,0,0,0,0,-1,1504,1079,0,0
287,-55,0,0,0,0,0,0,0,0,0,-1,1511,1079,0,0
294,-55,0,0,0,0,0,0,0,0,0,-1,1518,1079,0,0
301,-55,0,0,0,0,0,0,0,0,0,-1,1525,1079,0,0
308,-55,0,0,0,0,0,0,0,0,0,-1,1532,1079,0,0
315,-55,0,0,0,0,0,0,0,0,0,-1,1539,1079,0,0
322,-55,0,0,0,0,0,0,0,0,0,-1,1546,1079,0,0
329,-55,0,0,0,0,0,0,0,0,0,-1,1553,1079,0,0
336,-55,0,0,0,0,0,0,0,0,0,-1,1560,1079,0,0
343,-55,0,0,0,0,0,0,0,0,0,-1,1567,1079,0,0
350,-55,0,0,0,0,0,0,0,0,0,-1,1574,1079,0,0
357,-55,0,0,0,0,0,0,0,0,0,-1,1581,1079,0,0
364,-55,0,0,0,0,0,0,0,0,0,-1,1588,1079,0,0
371,-55,0,0,0,0,0,0,0,0,0,-1,1595,1079,0,0
378,-55,0,0,0,0,0,0,0,0,0,-1,1602,1079,0,0
385,-55,0,0,0,0,0,0,0,0,0,-1,1609,1079,0,0
392,-55,0,0,0,0,0,0,0,0,0,-1,1616,1079,0,0
399,-55,0,0,0,0,0,0,0,0,0,-1,1623,1079,0,0
406,-55,0,0,0,0,0,0,0,0,0,-1,1630,1079,0,0
413,-55,0,0,0,0,0,0,0,0,0,-1,1637,1079,0,0
420,-55,0,0,0,0,0,0,0,0,0,-1,1644,1079,0,0
427,-55,0,0,0,0,0,0,0,0,0,-1,1651,1079,0,0
434,-55,0,0,0,0,0,0,0,0,0,-1,1658,1079,0,0
441,-55,0,0,0,0,0,0,0,0,0,-1,1665,1079,0,0
448,-55,0,0,0,0,0,0,0,0,0,-1,1672,1079,0,0
455,-55,0,0,0,0,0,0,0,0,0,-1,1679,1079,0,0
462,-55,0,0,0,0,0,0,0,0,0,-1,1686,1079,0,0
469,-55,0,0,0,0,0,0,0,0,0,-1,1693,1079,0,0
476,-55,0,0,0,0,0,0,0,0,0,-1,1700,1079,0,0
483,-55,0,0,0,0,0,0,0,0,0,-1,1707,1079,0,0
490,-55,0,0,0,0,0,0,0,0,0,-1,1714,1079,0,0
497,-55,0,0,0,0,0,0,0,0,0,-1,1721,1079,0,0
504,-55,0,0,0,0,0,0,0,0,0,-1,1728,1079,0,0
511,-55,0,0,0,0,0,0,0,0,0,-1,1735,1079,0,0
518,-55,0,0,0,0,0,0,0,0,0,-1,1742,1079,0,0
525,-55,0,0,0,0,0,0,0,0,0,-1,1749,1079,0,0
532,-55,0,0,0,0,0,0,0,0,0,-1,1756,1079,0,0
539,-55,0,0,0,0,0,0,0,0,0,-1,1763,1079,0,0
546,-55,0,0,0,0,0,0,0,0,0,-1,1770,1079,0,0
553,-55,0,0,0,0,0,0,0,0,0,-1,1777,1079,0,0
560,-55,0,0,0,0,0,0,0,0,0,-1,1784,1079,0,0
567,-55,0,0,0,0,0,0,0,0,0,-1,1791,1079,0,0
574,-55,0,0,0,0,0,0,0,0,0,-1,1798,1079,0,0
581,-55,0,0,0,0,0,0,0,0,0,-1,1805,1079,0,0
588,-55,0,0,0,0,0,0,0,0,0,-1,1812,1079,0,0
595,-55,0,0,0,0,0,0,0,0,0,-1,1819,1079,0,0
602,-55,0,0,0,0,0,0,0,0,0,-1,1826,1079,0,0
609,-55,0,0,0,0,0,0,0,0,0,-1,1833,1079,0,0
616,-55,0,0,0,0,0,0,0,0,0,-1,1840,1079,0,0
623,-55,0,0,0,0,0,0,0,0,0,-1,1847,1079,0,0
630,-55,0,0,0,0,0,0,0,0,0,-1,1854,1079,0,0
637,-55,0,0,0,0,0,0,0,0,0,-1,1861,1079,0,0
644,-55,0,0,0,0,0,0,0,0,0,-1,1868,1079,0,0
651,-55,34.0251,2.79968,0.00114322,0.00127298,0.00101151,0.00222169,0.000194506,0.817426,0.00142074,0.036657,1875,1079,34.0251,-2.79964
658,-55,34.0551,2.78748,0.000502968,0.00105308,0.000663326,0.00149611,5.99305e-05,0.981938,0.000978045,0.0366439,1882,1079,34.0551,-2.78744
665,-55,33.9231,2.86658,0.000136587,0.000773133,0.000458827,0.00101327,-0.000103548,1.08863,0.00071254,0.0396454,1889,1079,33.9231,-2.86654
672,-55,34.0715,2.7981,-2.6742e-05,0.000428451,0.000604466,0.000846749,-0.00044504,0.965452,0.00075774,0.0415289,1896,1079,34.0716,-2.79806
679,-55,34.1848,2.62744,-0.000502137,-0.000379332,0.00142781,0.000988395,-0.00186986,0.806887,0.00167617,0.0383268,1903,1079,34.1848,-2.62742
686,-55,34.1519,2.49475,-0.0011337,-0.0012657,0.002357,0.00115823,-0.00355763,0.7714,0.00283774,0.0387136,1910,1079,34.1519,-2.49477
693,-55,34.0669,2.45837,-0.00166701,-0.00207282,0.00323568,0.00137212,-0.00511194,0.754085,0.00394568,0.0382083,1917,1079,34.0669,-2.45842
700,-55,34.0657,2.6886,-0.00211658,-0.00266284,0.00394841,0.00156813,-0.00634756,0.750866,0.00483985,0.0325344,1924,1079,34.0656,-2.68854
707,-55,34.1062,2.74817,-0.00252539,-0.00294499,0.00441046,0.00168025,-0.00715064,0.761631,0.00541479,0.0228046,1931,1079,34.1062,-2.74811
714,-55,34.1042,2.79541,-0.00295531,-0.00310099,0.00474088,0.00171328,-0.00776958,0.777716,0.00583527,0.0336873,1938,1079,34.1043,-2.79536
721,-55,34.137,2.98547,0,0,0,0,0,0,0,-1,1945,1079,34.137,-2.98543
728,-55,33.3217,5.2793,0,0,0,0,0,0,0,-1,1952,1079,33.3217,-5.27928
735,-55,33.2484,5.15552,-0.00362505,-0.00212701,0.00490592,0.00208674,-0.00783881,0.861151,0.00604277,0.0173227,1959,1079,33.2484,-5.15547
742,-55,33.2334,5.04614,-0.00334676,-0.00118213,0.00450086,0.00236472,-0.00689361,0.903393,0.00555438,0.0167229,1966,1079,33.2334,-5.04611
749,-55,33.259,4.93372,-0.00259253,0.000199145,0.00379663,0.0028484,-0.00524178,0.961555,0.00473851,0.0127872,1973,1079,33.259,-4.9337
756,-55,33.213,4.80896,-0.000568744,0.000707217,0.00264783,0.00279284,-0.00265437,0.903617,0.00314528,0.0110558,1980,1079,33.213,-4.80898
763,-55,33.1914,4.68738,0.00284611,0.000757217,0.00121105,0.00340089,0.000202444,0.429564,0.00220288,0.014286,1987,1079,33.1915,-4.68736
770,-55,33.1892,4.5575,0.00744693,0.000658778,-0.000625677,0.00750412,0.000601589,-0.0911486,0.00481476,0.0164166,1994,1079,33.1892,-4.55745
777,-55,33.1332,4.4408,0.0142679,-0.000538363,-0.0028279,0.0147897,-0.00106009,-0.182441,0.0102315,0.0132588,2001,1079,33.1332,-4.44082
784,-55,33.1018,4.29175,0.0230569,-0.00366348,-0.00505995,0.023983,-0.00458957,-0.18102,0.0177178,0.028269,2008,1079,33.1018,-4.29171
791,-55,33.1133,3.93628,0.0347842,-0.00902041,-0.00791293,0.0361698,-0.010406,-0.173345,0.0282286,0.0444979,2015,1079,33.1133,-3.93625
798,-55,33.1382,3.62659,0,0,0,0,0,0,0,-1,2022,1079,33.1381,-3.62663
805,-55,33.803,4.0752,0.0718963,-0.0300386,-0.0165827,0.0745262,-0.0326684,-0.157278,0.0634421,0.0449659,2029,1079,33.803,-4.07525
812,-55,34.686,3.61377,0.0990329,-0.0478189,-0.0228125,0.102495,-0.0512811,-0.150616,0.0904091,0.0445904,2036,1079,34.686,-3.61377
-700,-62,-20.5907,4.46362,0,0,0,0,0,0,0,-1,524,1086,-20.5907,-4.46359
-693,-62,-20.8838,3.255,0,0,0,0,0,0,0,-1,531,1086,-20.8838,-3.25496
-686,-62,-22.6803,-0.484253,0,0,0,0,0,0,0,-1,538,1086,-22.6803,0.484225
-679,-62,-22.6053,-0.308228,0.0138668,0.0439162,-0.0175359,0.0519837,0.00579927,-1.13961,0.0328936,0.045966,545,1086,-22.6053,0.308194
-672,-62,-22.4266,0.17627,0.00991978,0.035294,-0.0109227,0.0393481,0.00586568,-1.21539,0.0245119,0.0442467,552,1086,-22.4266,-0.176225
-665,-62,-22.9512,0.382446,0.00671003,0.0279291,-0.00614761,0.0295815,0.00505762,-1.30821,0.01827,0.0438584,559,1086,-22.9512,-0.38242
-658,-62,-23.4577,0.550415,0.00423052,0.0217123,-0.00289506,0.0221793,0.00376356,-1.41088,0.013705,0.0443227,566,1086,-23.4577,-0.550441
-651,-62,-23.6765,1.11829,0.00246812,0.0165071,-0.000878145,0.0165618,0.00241341,-1.50857,0.0103311,0.0367679,573,1086,-23.6765,-1.11832
-644,-62,-23.6693,1.54419,0.00125154,0.0123643,-0.000317395,0.0123734,0.00124248,-1.54227,0.00786753,0.0142422,580,1086,-23.6692,-1.54422
-637,-62,-23.6755,1.74976,-0.000157689,0.00742227,-0.000283285,0.00743284,-0.000168262,-1.53349,0.00501226,0.0124369,587,1086,-23.6755,-1.74976
-630,-62,-23.6953,1.93359,-0.00154204,0.00379125,-0.00172917,0.00430282,-0.00205361,-1.28316,0.00374568,0.0128667,594,1086,-23.6953,-1.9336
-623,-62,-23.7263,2.13879,-0.00249841,0.0017625,-0.00421265,0.00435276,-0.00508868,-1.01951,0.00545654,0.0142833,601,1086,-23.7263,-2.13881
-616,-62,-23.7217,2.31555,-0.00270832,-0.000395612,-0.00652718,0.00507685,-0.00818078,-0.873069,0.00772391,0.0138497,608,1086,-23.7218,-2.3156
-609,-62,-23.7016,2.47388,-0.0026574,-0.00177786,-0.00844471,0.00623852,-0.0106738,-0.811413,0.00987562,0.013312,615,1086,-23.7016,-2.47392
-602,-62,-23.6711,2.63538,-0.00280394,-0.0026081,-0.00977248,0.00706696,-0.012479,-0.790408,0.0114281,0.0144093,622,1086,-23.6711,-2.63543
-595,-62,-23.5853,2.81677,-0.00297121,-0.00317998,-0.0104924,0.00741732,-0.0135685,-0.780424,0.0122884,0.0235221,629,1086,-23.5853,-2.81677
-588,-62,-23.8265,2.14124,-0.00287135,-0.00336531,-0.010536,0.00742055,-0.0136572,-0.773679,0.0123455,0.0432969,636,1086,-23.8265,-2.14121
-581,-62,-24.4745,1.22192,-0.00262802,-0.00345005,-0.0100936,0.00706289,-0.013141,-0.765049,0.0118393,0.048465,643,1086,-24.4745,-1.22194
-574,-62,-24.5245,0.457886,0,0,0,0,0,0,0,-1,650,1086,-24.5245,-0.457869
-567,-62,-24.5519,0.544678,-0.00184774,-0.00275525,-0.00762135,0.00533335,-0.00993634,-0.755665,0.00894848,0.038791,657,1086,-24.5519,-0.544638
-560,-62,-24.493,0.636841,-0.00115465,-0.00192427,-0.00523138,0.00370605,-0.00678498,-0.748685,0.00614333,0.0398195,664,1086,-24.493,-0.636791
-553,-62,-24.3729,0.702393,-0.000287501,-0.000814739,-0.00205763,0.00152333,-0.00262557,-0.721686,0.00242338,0.035354,671,1086,-24.3728,-0.702435
-546,-62,-24.398,0.73938,0.000762204,0.000488829,0.00186402,0.00249454,-0.00124351,0.748799,0.00219809,0.0314344,678,1086,-24.398,-0.739397
-539,-62,-24.4619,0.784058,0.00183,0.00172421,0.00548991,0.00726727,-0.00371306,0.780581,0.00644925,0.0386039,685,1086,-24.4619,-0.784032
-532,-62,-24.4137,0.758667,0.00125311,0.00189799,0.00560123,0.00718605,-0.00403495,0.814149,0.00656305,0.0420061,692,1086,-24.4137,-0.758643
-525,-62,0,0,0,0,0,0,0,0,0,-1,699,1086,0,0
-518,-62,0,0,0,0,0,0,0,0,0,-1,706,1086,0,0
-511,-62,0,0,0,0,0,0,0,0,0,-1,713,1086,0,0
-504,-62,0,0,0,0,0,0,0,0,0,-1,720,1086,0,0
-497,-62,0,0,0,0,0,0,0,0,0,-1,727,1086,0,0
-490,-62,0,0,0,0,0,0,0,0,0,-1,734,1086,0,0
-483,-62,0,0,0,0,0,0,0,0,0,-1,741,1086,0,0
-476,-62,0,0,0,0,0,0,0,0,0,-1,748,1086,0,0
-469,-62,0,0,0,0,0,0,0,0,0,-1,755,1086,0,0
-462,-62,0,0,0,0,0,0,0,0,0,-1,762,1086,0,0
-455,-62,0,0,0,0,0,0,0,0,0,-1,769,1086,0,0
-448,-62,0,0,0,0,0,0,0,0,0,-1,776,1086,0,0
-441,-62,0,0,0,0,0,0,0,0,0,-1,783,1086,0,0
-434,-62,0,0,0,0,0,0,0,0,0,-1,790,1086,0,0
-427,-62,0,0,0,0,0,0,0,0,0,-1,797,1086,0,0
-420,-62,0,0,0,0,0,0,0,0,0,-1,804,1086,0,0
-413,-62,0,0,0,0,0,0,0,0,0,-1,811,1086,0,0
-406,-62,0,0,0,0,0,0,0,0,0,-1,818,1086,0,0
-399,-62,0,0,0,0,0,0,0,0,0,-1,825,1086,0,0
-392,-62,0,0,0,0,0,0,0,0,0,-1,832,1086,0,0
-385,-62,0,0,0,0,0,0,0,0,0,-1,839,1086,0,0
-378,-62,0,0,0,0,0,0,0,0,0,-1,846,1086,0,0
-371,-62,0,0,0,0,0,0,0,0,0,-1,853,1086,0,0
-364,-62,0,0,0,0,0,0,0,0,0,-1,860,1086,0,0
-357,-62,0,0,0,0,0,0,0,0,0,-1,867,1086,0,0
-350,-62,0,0,0,0,0,0,0,0,0,-1,874,1086,0,0
-343,-62,0,0,0,0,0,0,0,0,0,-1,881,1086,0,0
-336,-62,0,0,0,0,0,0,0,0,0,-1,888,1086,0,0
-329,-62,0,0,0,0,0,0,0,0,0,-1,895,1086,0,0
-322,-62,0,0,0,0,0,0,0,0,0,-1,902,1086,0,0
-315,-62,0,0,0,0,0,0,0,0,0,-1,909,1086,0,0
-308,-62,0,0,0,0,0,0,0,0,0,-1,916,1086,0,0
-301,-62,0,0,0,0,0,0,0,0,0,-1,923,1086,0,0
-294,-62,0,0,0,0,0,0,0,0,0,-1,930,1086,0,0
-287,-62,0,0,0,0,0,0,0,0,0,-1,937,1086,0,0
-280,-62,0,0,0,0,0,0,0,0,0,-1,944,1086,0,0
-273,-62,0,0,0,0,0,0,0,0,0,-1,951,1086,0,0
-266,-62,0,0,0,0,0,0,0,0,0,-1,958,1086,0,0
-259,-62,0,0,0,0,0,0,0,0,0,-1,965,1086,0,0
-252,-62,0,0,0,0,0,0,0,0,0,-1,972,1086,0,0
-245,-62,0,0,0,0,0,0,0,0,0,-1,979,1086,0,0
-238,-62,0,0,0,0,0,0,0,0,0,-1,986,1086,0,0
-231,-62,0,0,0,0,0,0,0,0,0,-1,993,1086,0,0
-224,-62,0,0,0,0,0,0,0,0,0,-1,1000,1086,0,0
-217,-62,0,0,0,0,0,0,0,0,0,-1,1007,1086,0,0
-210,-62,0,0,0,0,0,0,0,0,0,-1,1014,1086,0,0
-203,-62,0,0,0,0,0,0,0,0,0,-1,1021,1086,0,0
-196,-62,0,0,0,0,0,0,0,0,0,-1,1028,1086,0,0
-189,-62,0,0,0,0,0,0,0,0,0,-1,1035,1086,0,0
-182,-62,0,0,0,0,0,0,0,0,0,-1,1042,1086,0,0
-175,-62,0,0,0,0,0,0,0,0,0,-1,1049,1086,0,0
-168,-62,0,0,0,0,0,0,0,0,0,-1,1056,1086,0,0
-161,-62,0,0,0,0,0,0,0,0,0,-1,1063,1086,0,0
-154,-62,0,0,0,0,0,0,0,0,0,-1,1070,1086,0,0
-147,-62,0,0,0,0,0,0,0,0,0,-1,1077,1086,0,0
-140,-62,0,0,0,0,0,0,0,0,0,-1,1084,1086,0,0
-133,-62,0,0,0,0,0,0,0,0,0,-1,1091,1086,0,0
-126,-62,0,0,0,0,0,0,0,0,0,-1,1098,1086,0,0
-119,-62,0,0,0,0,0,0,0,0,0,-1,1105,1086,0,0
-112,-62,0,0,0,0,0,0,0,0,0,-1,1112,1086,0,0
-105,-62,0,0,0,0,0,0,0,0,0,-1,1119,1086,0,0
-98,-62,0,0,0,0,0,0,0,0,0,-1,1126,1086,0,0
-91,-62,0,0,0,0,0,0,0,0,0,-1,1133,1086,0,0
-84,-62,0,0,0,0,0,0,0,0,0,-1,1140,1086,0,0
-77,-62,0,0,0,0,0,0,0,0,0,-1,1147,1086,0,0
-70,-62,0,0,0,0,0,0,0,0,0,-1,1154,1086,0,0
-63,-62,0,0,0,0,0,0,0,0,0,-1,1161,1086,0,0
-56,-62,0,0,0,0,0,0,0,0,0,-1,1168,1086,0,0
-49,-62,0,0,0,0,0,0,0,0,0,-1,1175,1086,0,0
-42,-62,0,0,0,0,0,0,0,0,0,-1,1182,1086,0,0
-35,-62,0,0,0,0,0,0,0,0,0,-1,1189,1086,0,0
-28,-62,0,0,0,0,0,0,0,0,0,-1,1196,1086,0,0
-21,-62,0,0,0,0,0,0,0,0,0,-1,1203,1086,0,0
-14,-62,0,0,0,0,0,0,0,0,0,-1,1210,1086,0,0
-7,-62,0,0,0,0,0,0,0,0,0,-1,1217,1086,0,0
0,-62,0,0,0,0,0,0,0,0,0,-1,1224,1086,0,0
7,-62,0,0,0,0,0,0,0,0,0,-1,1231,1086,0,0
14,-62,0,0,0,0,0,0,0,0,0,-1,1238,1086,0,0
21,-62,0,0,0,0,0,0,0,0,0,-1,1245,1086,0,0
28,-62,0,0,0,0,0,0,0,0,0,-1,1252,1086,0,0
35,-62,0,0,0,0,0,0,0,0,0,-1,1259,1086,0,0
42,-62,0,0,0,0,0,0,0,0,0,-1,1266,1086,0,0
49,-62,0,0,0,0,0,0,0,0,0,-1,1273,1086,0,0
56,-62,0,0,0,0,0,0,0,0,0,-1,1280,1086,0,0
63,-62,0,0,0,0,0,0,0,0,0,-1,1287,1086,0,0
70,-62,0,0,0,0,0,0,0,0,0,-1,1294,1086,0,0
77,-62,0,0,0,0,0,0,0,0,0,-1,1301,1086,0,0
84,-62,0,0,0,0,0,0,0,0,0,-1,1308,1086,0,0
91,-62,0,0,0,0,0,0,0,0,0,-1,1315,1086,0,0
98,-62,0,0,0,0,0,0,0,0,0,-1,1322,1086,0,0
105,-62,0,0,0,0,0,0,0,0,0,-1,1329,1086,0,0
112,-62,0,0,0,0,0,0,0,0,0,-1,1336,1086,0,0
119,-62,0,0,0,0,0,0,0,0,0,-1,1343,1086,0,0
126,-62,0,0,0,0,0,0,0,0,0,-1,1350,1086,0,0
133,-62,0,0,0,0,0,0,0,0,0,-1,1357,1086,0,0
140,-62,0,0,0,0,0,0,0,0,0,-1,1364,1086,0,0
147,-62,0,0,0,0,0,0,0,0,0,-1,1371,1086,0,0
154,-62,0,0,0,0,0,0,0,0,0,-1,1378,1086,0,0
161,-62,0,0,0,0,0,0,0,0,0,-1,1385,1086,0,0
168,-62,0,0,0,0,0,0,0,0,0,-1,1392,1086,0,0
175,-62,0,0,0,0,0,0,0,0,0,-1,1399,1086,0,0
182,-62,0,0,0,0,0,0,0,0,0,-1,1406,1086,0,0
189,-62,0,0,0,0,0,0,0,0,0,-1,1413,1086,0,0
196,-62,0,0,0,0,0,0,0,0,0,-1,1420,1086,0,0
203,-62,0,0,0,0,0,0,0,0,0,-1,1427,1086,0,0
210,-62,0,0,0,0,0,0,0,0,0,-1,1434,1086,0,0
217,-62,0,0,0,0,0,0,0,0,0,-1,1441,1086,0,0
224,-62,0,0,0,0,0,0,0,0,0,-1,1448,1086,0,0
231,-62,0,0,0,0,0,0,0,0,0,-1,1455,1086,0,0
238,-62,0,0,0,0,0,0,0,0,0,-1,1462,1086,0,0
245,-62,0,0,0,0,0,0,0,0,0,-1,1469,1086,0,0
252,-62,0,0,0,0,0,0,0,0,0,-1,1476,1086,0,0
259,-62,0,0,0,0,0,0,0,0,0,-1,1483,1086,0,0
266,-62,0,0,0,0,0,0,0,0,0,-1,1490,1086,0,0
273,-62,0,0,0,0,0,0,0,0,0,-1,1497,1086,0,0
280,-62,0,0,0,0,0,0,0,0,0,-1,1504,1086,0,0
287,-62,0,0,0,0,0,0,0,0,0,-1,1511,1086,0,0
294,-62,0,0,0,0,0,0,0,0,0,-1,1518,1086,0,0
301,-62,0,0,0,0,0,0,0,0,0,-1,1525,1086,0,0
308,-62,0,0,0,0,0,0,0,0,0,-1,1532,1086,0,0
315,-62,0,0,0,0,0,0,0,0,0,-1,1539,1086,0,0
322,-62,0,0,0,0,0,0,0,0,0,-1,1546,1086,0,0
329,-62,0,0,0,0,0,0,0,0,0,-1,1553,1086,0,0
336,-62,0,0,0,0,0,0,0,0,0,-1,1560,1086,0,0
343,-62,0,0,0,0,0,0,0,0,0,-1,1567,1086,0,0
350,-62,0,0,0,0,0,0,0,0,0,-1,1574,1086,0,0
357,-62,0,0,0,0,0,0,0,0,0,-1,1581,1086,0,0
364,-62,0,0,0,0,0,0,0,0,0,-1,1588,1086,0,0
371,-62,0,0,0,0,0,0,0,0,0,-1,1595,1086,0,0
378,-62,0,0,0,0,0,0,0,0,0,-1,1602,1086,0,0
385,-62,0,0,0,0,0,0,0,0,0,-1,1609,1086,0,0
392,-62,0,0,0,0,0,0,0,0,0,-1,1616,1086,0,0
399,-62,0,0,0,0,0,0,0,0,0,-1,1623,1086,0,0
406,-62,0,0,0,0,0,0,0,0,0,-1,1630,1086,0,0
413,-62,0,0,0,0,0,0,0,0,0,-1,1637,1086,0,0
420,-62,0,0,0,0,0,0,0,0,0,-1,1644,1086,0,0
427,-62,0,0,0,0,0,0,0,0,0,-1,1651,1086,0,0
434,-62,0,0,0,0,0,0,0,0,0,-1,1658,1086,0,0
441,-62,0,0,0,0,0,0,0,0,0,-1,1665,1086,0,0
448,-62,0,0,0,0,0,0,0,0,0,-1,1672,1086,0,0
455,-62,0,0,0,0,0,0,0,0,0,-1,1679,1086,0,0
462,-62,0,0,0,0,0,0,0,0,0,-1,1686,1086,0,0
469,-62,0,0,0,0,0,0,0,0,0,-1,1693,1086,0,0
476,-62,0,0,0,0,0,0,0,0,0,-1,1700,1086,0,0
483,-62,0,0,0,0,0,0,0,0,0,-1,1707,1086,0,0
490,-62,0,0,0,0,0,0,0,0,0,-1,1714,1086,0,0
497,-62,0,0,0,0,0,0,0,0,0,-1,1721,1086,0,0
504,-62,0,0,0,0,0,0,0,0,0,-1,1728,1086,0,0
511,-62,0,0,0,0,0,0,0,0,0,-1,1735,1086,0,0
518,-62,0,0,0,0,0,0,0,0,0,-1,1742,1086,0,0
525,-62,0,0,0,0,0,0,0,0,0,-1,1749,1086,0,0
532,-62,0,0,0,0,0,0,0,0,0,-1,1756,1086,0,0
539,-62,0,0,0,0,0,0,0,0,0,-1,1763,1086,0,0
546,-62,0,0,0,0,0,0,0,0,0,-1,1770,1086,0,0
553,-62,0,0,0,0,0,0,0,0,0,-1,1777,1086,0,0
560,-62,0,0,0,0,0,0,0,0,0,-1,1784,1086,0,0
567,-62,0,0,0,0,0,0,0,0,0,-1,1791,1086,0,0
574,-62,0,0,0,0,0,0,0,0,0,-1,1798,1086,0,0
581,-62,0,0,0,0,0,0,0,0,0,-1,1805,1086,0,0
588,-62,0,0,0,0,0,0,0,0,0,-1,1812,1086,0,0
595,-62,0,0,0,0,0,0,0,0,0,-1,1819,1086,0,0
602,-62,0,0,0,0,0,0,0,0,0,-1,1826,1086,0,0
609,-62,0,0,0,0,0,0,0,0,0,-1,1833,1086,0,0
616,-62,0,0,0,0,0,0,0,0,0,-1,1840,1086,0,0
623,-62,0,0,0,0,0,0,0,0,0,-1,1847,1086,0,0
630,-62,0,0,0,0,0,0,0,0,0,-1,1854,1086,0,0
637,-62,0,0,0,0,0,0,0,0,0,-1,1861,1086,0,0
644,-62,0,0,0,0,0,0,0,0,0,-1,1868,1086,0,0
651,-62,33.8752,2.85242,0.000821395,0.00107749,0.000660433,0.00162217,0.000276711,0.881152,0.00100203,0.0424758,1875,1086,33.8752,-2.85246
658,-62,33.8967,2.76965,0.000303854,0.000753113,0.000414053,0.000999544,5.74232e-05,1.03394,0.00064807,0.0423247,1882,1086,33.8968,-2.76971
665,-62,34.0693,2.75806,4.03251e-05,0.00041789,0.000282644,0.000569,-0.000110784,1.07983,0.000421147,0.0403568,1889,1086,34.0693,-2.75809
672,-62,34.0938,2.74377,-7.44778e-05,1.66252e-05,0.000469641,0.000442919,-0.000500772,0.833743,0.000545181,0.0388902,1896,1086,34.0937,-2.74375
679,-62,34.1498,2.67407,-0.000616649,-0.000830998,0.00134972,0.000630144,-0.00207779,0.745779,0.0016362,0.0374496,1903,1086,34.1498,-2.67402
686,-62,34.171,2.64771,-0.00134129,-0.00172117,0.00232387,0.00080039,-0.00386285,0.744622,0.00287935,0.037474,1910,1086,34.171,-2.64768
693,-62,34.1151,2.67102,-0.00196504,-0.0025114,0.00323931,0.00101259,-0.00548903,0.743331,0.00403941,0.0382026,1917,1086,34.1151,-2.67097
700,-62,34.0831,2.68091,-0.00250993,-0.00307976,0.00398033,0.00119567,-0.00678535,0.749668,0.0049703,0.032073,1924,1086,34.0831,-2.68085
707,-62,34.0908,2.74902,-0.00298253,-0.0033468,0.00449565,0.00133468,-0.007664,0.765152,0.00560742,0.0201432,1931,1086,34.0909,-2.74907
714,-62,34.11,2.71399,-0.00345474,-0.00349734,0.00487755,0.00140156,-0.00835364,0.783215,0.00609028,0.031207,1938,1086,34.1099,-2.714
721,-62,34.1682,2.79004,0,0,0,0,0,0,0,-1,1945,1086,34.1682,-2.79006
728,-62,33.1613,5.3656,0,0,0,0,0,0,0,-1,1952,1086,33.1612,-5.36554
735,-62,33.1266,5.17163,-0.004111,-0.00245345,0.00510526,0.00188987,-0.00845432,0.865865,0.00636045,0.0194936,1959,1086,33.1266,-5.17167
742,-62,33.0997,5.06543,-0.00375367,-0.00149586,0.00467342,0.00218307,-0.00743259,0.903908,0.00582085,0.0182787,1966,1086,33.0998,-5.0654
749,-62,33.0729,4.9176,-0.00285728,-0.000118018,0.00397611,0.00271775,-0.00569304,0.951266,0.00495622,0.0151369,1973,1086,33.0729,-4.91756
756,-62,33.0247,4.82715,-0.000678354,0.000369903,0.00282072,0.00271478,-0.00302323,0.877257,0.00331444,0.0134992,1980,1086,33.0247,-4.82715
763,-62,33.026,4.67322,0.00287295,0.000487448,0.00135733,0.00348713,-0.000126732,0.424923,0.00236813,0.0144491,1987,1086,33.026,-4.67327
770,-62,33.0403,4.52258,0.00757028,0.000458039,-0.000497608,0.00760492,0.000423392,-0.0695136,0.00493488,0.0125514,1994,1086,33.0403,-4.52259
777,-62,32.9705,4.36292,0.0142865,-0.000520096,-0.00270843,0.0147664,-0.000999972,-0.175359,0.0101939,0.0133139,2001,1086,32.9705,-4.36296
784,-62,32.9285,4.24878,0.0228304,-0.0033155,-0.00493454,0.0237307,-0.0042158,-0.180464,0.0173968,0.0261537,2008,1086,32.9285,-4.24872
791,-62,32.9543,3.85608,0.0341,-0.00810256,-0.00776816,0.0354844,-0.00948701,-0.17637,0.0273723,0.0443925,2015,1086,32.9543,-3.85609
798,-62,33.0344,3.43628,0,0,0,0,0,0,0,-1,2022,1086,33.0344,-3.43622
805,-62,33.7751,4.66003,0.0691226,-0.0266303,-0.016367,0.0718429,-0.0293507,-0.164702,0.0601166,0.0429445,2029,1086,33.7752,-4.65999
812,-62,34.582,4.13123,0.0942722,-0.042102,-0.022494,0.0978866,-0.0457164,-0.159323,0.0847134,0.0451109,2036,1086,34.582,-4.13124
-700,-69,-21.4143,3.79102,0,0,0,0,0,0,0,-1,524,1093,-21.4143,-3.79098
-693,-69,-21.6944,2.95728,0,0,0,0,0,0,0,-1,531,1093,-21.6944,-2.95724
-686,-69,-21.9553,2.14355,0,0,0,0,0,0,0,-1,538,1093,-21.9553,-2.14354
-679,-69,-22.5396,0.0231934,0,0,0,0,0,0,0,-1,545,1093,-22.5396,-0.0231658
-672,-69,-22.7526,0.178223,0.00819515,0.0281043,-0.0064537,0.0300133,0.00628618,-1.2832,0.0182774,0.0458562,552,1093,-22.7525,-0.178189
-665,-69,-22.9841,0.344238,0.00528206,0.0218553,-0.0030795,0.022409,0.00472835,-1.39289,0.0136392,0.0439713,559,1093,-22.9841,-0.344253
-658,-69,-23.3233,0.793579,0.00306474,0.0167503,-0.000905436,0.0168099,0.0030051,-1.50502,0.0103513,0.044159,566,1093,-23.3233,-0.793546
-651,-69,-23.4568,1.25549,0.00154834,0.0125832,0.000344171,0.0125939,0.00153761,1.53965,0.00793323,0.0335472,573,1093,-23.4568,-1.25548
-644,-69,-23.4604,1.54126,0.000549891,0.0093027,0.000490145,0.00933006,0.000522529,1.51503,0.00605339,0.0106679,580,1093,-23.4604,-1.54131
-637,-69,-23.4642,1.74829,-0.000617638,0.00527306,0.000245046,0.00528324,-0.000627814,1.52929,0.00374899,0.0122082,587,1093,-23.4642,-1.74828
-630,-69,-23.4668,1.90906,-0.00179971,0.00231824,-0.00133654,0.002714,-0.00219547,-1.28292,0.00283974,0.014461,594,1093,-23.4668,-1.90903
-623,-69,-23.4783,2.11829,-0.00259858,0.000700076,-0.00375582,0.00315275,-0.00505126,-0.992291,0.00477867,0.0140363,601,1093,-23.4783,-2.1183
-616,-69,-23.4902,2.29089,-0.0026678,-0.00101485,-0.00591166,0.00412783,-0.00781048,-0.85485,0.00700105,0.0142284,608,1093,-23.4902,-2.29091
-609,-69,-23.489,2.44666,-0.00244975,-0.00208998,-0.00761176,0.00534402,-0.00988376,-0.797212,0.00892104,0.012913,615,1093,-23.489,-2.4467
-602,-69,-23.4662,2.69336,-0.00245985,-0.00267749,-0.00870507,0.00613708,-0.0112744,-0.779148,0.0101973,0.0178364,622,1093,-23.4662,-2.69337
-595,-69,-23.3982,2.83069,-0.0025468,-0.00313171,-0.00925402,0.00641938,-0.0120979,-0.769602,0.0108572,0.024796,629,1093,-23.3982,-2.83071
-588,-69,-23.7435,2.37219,-0.00244911,-0.00329695,-0.00921533,0.00635205,-0.0120981,-0.762414,0.010823,0.0388465,636,1093,-23.7434,-2.37216
-581,-69,-24.2631,1.44373,-0.00223986,-0.00341597,-0.00878739,0.00597913,-0.011635,-0.751988,0.0103428,0.0462538,643,1093,-24.2631,-1.44372
-574,-69,-24.4723,0.530273,0,0,0,0,0,0,0,-1,650,1093,-24.4723,-0.530319
-567,-69,-24.5847,0.531006,-0.00164674,-0.0028364,-0.00676953,0.00455404,-0.00903719,-0.741576,0.00798793,0.0398287,657,1093,-24.5847,-0.531056
-560,-69,-24.5172,0.607178,-0.00111802,-0.00207694,-0.00473444,0.00316118,-0.00635614,-0.734935,0.00559708,0.0408689,664,1093,-24.5172,-0.607147
-553,-69,-24.3431,0.749268,-0.000488783,-0.00101643,-0.00197375,0.0012387,-0.00274391,-0.718959,0.00235347,0.0380499,671,1093,-24.3432,-0.749234
-546,-69,-24.358,0.684814,0.000279292,0.000285307,0.00152364,0.00180594,-0.00124134,0.786385,0.00176938,0.0357936,678,1093,-24.358,-0.684845
-539,-69,-24.4217,0.701782,0.00106894,0.00156835,0.00486134,0.0061864,-0.00354911,0.811058,0.00568913,0.0398648,685,1093,-24.4217,-0.701802
-532,-69,-24.3023,0.862061,9.9832e-05,0.0017972,0.00493354,0.00595452,-0.00405749,0.870576,0.00581492,0.0438782,692,1093,-24.3023,-0.862037
-525,-69,0,0,0,0,0,0,0,0,0,-1,699,1093,0,0
-518,-69,0,0,0,0,0,0,0,0,0,-1,706,1093,0,0
-511,-69,0,0,0,0,0,0,0,0,0,-1,713,1093,0,0
-504,-69,0,0,0,0,0,0,0,0,0,-1,720,1093,0,0
-497,-69,0,0,0,0,0,0,0,0,0,-1,727,1093,0,0
-490,-69,0,0,0,0,0,0,0,0,0,-1,734,1093,0,0
-483,-69,0,0,0,0,0,0,0,0,0,-1,741,1093,0,0
-476,-69,0,0,0,0,0,0,0,0,0,-1,748,1093,0,0
-469,-69,0,0,0,0,0,0,0,0,0,-1,755,1093,0,0
-462,-69,0,0,0,0,0,0,0,0,0,-1,762,1093,0,0
-455,-69,0,0,0,0,0,0,0,0,0,-1,769,1093,0,0
-448,-69,0,0,0,0,0,0,0,0,0,-1,776,1093,0,0
-441,-69,0,0,0,0,0,0,0,0,0,-1,783,1093,0,0
-434,-69,0,0,0,0,0,0,0,0,0,-1,790,1093,0,0
-427,-69,0,0,0,0,0,0,0,0,0,-1,797,1093,0,0
-420,-69,0,0,0,0,0,0,0,0,0,-1,804,1093,0,0
-413,-69,0,0,0,0,0,0,0,0,0,-1,811,1093,0,0
-406,-69,0,0,0,0,0,0,0,0,0,-1,818,1093,0,0
-399,-69,0,0,0,0,0,0,0,0,0,-1,825,1093,0,0
-392,-69,0,0,0,0,0,0,0,0,0,-1,832,1093,0,0
-385,-69,0,0,0,0,0,0,0,0,0,-1,839,1093,0,0
-378,-69,0,0,0,0,0,0,0,0,0,-1,846,1093,0,0
-371,-69,0,0,0,0,0,0,0,0,0,-1,853,1093,0,0
-364,-69,0,0,0,0,0,0,0,0,0,-1,860,1093,0,0
-357,-69,0,0,0,0,0,0,0,0,0,-1,867,1093,0,0
-350,-69,0,0,0,0,0,0,0,0,0,-1,874,1093,0,0
-343,-69,0,0,0,0,0,0,0,0,0,-1,881,1093,0,0
-336,-69,0,0,0,0,0,0,0,0,0,-1,888,1093,0,0
-329,-69,0,0,0,0,0,0,0,0,0,-1,895,1093,0,0
-322,-69,0,0,0,0,0,0,0,0,0,-1,902,1093,0,0
-315,-69,0,0,0,0,0,0,0,0,0,-1,909,1093,0,0
-308,-69,0,0,0,0,0,0,0,0,0,-1,916,1093,0,0
-301,-69,0,0,0,0,0,0,0,0,0,-1,923,1093,0,0
-294,-69,0,0,0,0,0,0,0,0,0,-1,930,1093,0,0
-287,-69,0,0,0,0,0,0,0,0,0,-1,937,1093,0,0
-280,-69,0,0,0,0,0,0,0,0,0,-1,944,1093,0,0
-273,-69,0,0,0,0,0,0,0,0,0,-1,951,1093,0,0
-266,-69,0,0,0,0,0,0,0,0,0,-1,958,1093,0,0
-259,-69,0,0,0,0,0,0,0,0,0,-1,965,1093,0,0
-252,-69,0,0,0,0,0,0,0,0,0,-1,972,1093,0,0
-245,-69,0,0,0,0,0,0,0,0,0,-1,979,1093,0,0
-238,-69,0,0,0,0,0,0,0,0,0,-1,986,1093,0,0
-231,-69,0,0,0,0,0,0,0,0,0,-1,993,1093,0,0
-224,-69,0,0,0,0,0,0,0,0,0,-1,1000,1093,0,0
-217,-69,0,0,0,0,0,0,0,0,0,-1,1007,1093,0,0
-210,-69,0,0,0,0,0,0,0,0,0,-1,1014,1093,0,0
-203,-69,0,0,0,0,0,0,0,0,0,-1,1021,1093,0,0
-196,-69,0,0,0,0,0,0,0,0,0,-1,1028,1093,0,0
-189,-69,0,0,0,0,0,0,0,0,0,-1,1035,1093,0,0
-182,-69,0,0,0,0,0,0,0,0,0,-1,1042,1093,0,0
-175,-69,0,0,0,0,0,0,0,0,0,-1,1049,1093,0,0
-168,-69,0,0,0,0,0,0,0,0,0,-1,1056,1093,0,0
-161,-69,0,0,0,0,0,0,0,0,0,-1,1063,1093,0,0
-154,-69,0,0,0,0,0,0,0,0,0,-1,1070,1093,0,0
-147,-69,0,0,0,0,0,0,0,0,0,-1,1077,1093,0,0
-140,-69,0,0,0,0,0,0,0,0,0,-1,1084,1093,0,0
-133,-69,0,0,0,0,0,0,0,0,0,-1,1091,1093,0,0
-126,-69,0,0,0,0,0,0,0,0,0,-1,1098,1093,0,0
-119,-69,0,0,0,0,0,0,0,0,0,-1,1105,1093,0,0
-112,-69,0,0,0,0,0,0,0,0,0,-1,1112,1093,0,0
-105,-69,0,0,0,0,0,0,0,0,0,-1,1119,1093,0,0
-98,-69,0,0,0,0,0,0,0,0,0,-1,1126,1093,0,0
-91,-69,0,0,0,0,0,0,0,0,0,-1,1133,1093,0,0
-84,-69,0,0,0,0,0,0,0,0,0,-1,1140,1093,0,0
-77,-69,0,0,0,0,0,0,0,0,0,-1,1147,1093,0,0
-70,-69,0,0,0,0,0,0,0,0,0,-1,1154,1093,0,0
-63,-69,0,0,0,0,0,0,0,0,0,-1,1161,1093,0,0
-56,-69,0,0,0,0,0,0,0,0,0,-1,1168,1093,0,0
-49,-69,0,0,0,0,0,0,0,0,0,-1,1175,1093,0,0
-42,-69,0,0,0,0,0,0,0,0,0,-1,1182,1093,0,0
-35,-69,0,0,0,0,0,0,0,0,0,-1,1189,1093,0,0
-28,-69,0,0,0,0,0,0,0,0,0,-1,1196,1093,0,0
-21,-69,0,0,0,0,0,0,0,0,0,-1,1203,1093,0,0
-14,-69,0,0,0,0,0,0,0,0,0,-1,1210,1093,0,0
-7,-69,0,0,0,0,0,0,0,0,0,-1,1217,1093,0,0
0,-69,0,0,0,0,0,0,0,0,0,-1,1224,1093,0,0
7,-69,0,0,0,0,0,0,0,0,0,-1,1231,1093,0,0
14,-69,0,0,0,0,0,0,0,0,0,-1,1238,1093,0,0
21,-69,0,0,0,0,0,0,0,0,0,-1,1245,1093,0,0
28,-69,0,0,0,0,0,0,0,0,0,-1,1252,1093,0,0
35,-69,0,0,0,0,0,0,0,0,0,-1,1259,1093,0,0
42,-69,0,0,0,0,0,0,0,0,0,-1,1266,1093,0,0
49,-69,0,0,0,0,0,0,0,0,0,-1,1273,1093,0,0
56,-69,0,0,0,0,0,0,0,0,0,-1,1280,1093,0,0
63,-69,0,0,0,0,0,0,0,0,0,-1,1287,1093,0,0
70,-69,0,0,0,0,0,0,0,0,0,-1,1294,1093,0,0
77,-69,0,0,0,0,0,0,0,0,0,-1,1301,1093,0,0
84,-69,0,0,0,0,0,0,0,0,0,-1,1308,1093,0,0
91,-69,0,0,0,0,0,0,0,0,0,-1,1315,1093,0,0
98,-69,0,0,0,0,0,0,0,0,0,-1,1322,1093,0,0
105,-69,0,0,0,0,0,0,0,0,0,-1,1329,1093,0,0
112,-69,0,0,0,0,0,0,0,0,0,-1,1336,1093,0,0
119,-69,0,0,0,0,0,0,0,0,0,-1,1343,1093,0,0
126,-69,0,0,0,0,0,0,0,0,0,-1,1350,1093,0,0
133,-69,0,0,0,0,0,0,0,0,0,-1,1357,1093,0,0
140,-69,0,0,0,0,0,0,0,0,0,-1,1364,1093,0,0
147,-69,0,0,0,0,0,0,0,0,0,-1,1371,1093,0,0
154,-69,0,0,0,0,0,0,0,0,0,-1,1378,1093,0,0
161,-69,0,0,0,0,0,0,0,0,0,-1,1385,1093,0,0
168,-69,0,0,0,0,0,0,0,0,0,-1,1392,1093,0,0
175,-69,0,0,0,0,0,0,0,0,0,-1,1399,1093,0,0
182,-69,0,0,0,0,0,0,0,0,0,-1,1406,1093,0,0
189,-69,0,0,0,0,0,0,0,0,0,-1,1413,1093,0,0
196,-69,0,0,0,0,0,0,0,0,0,-1,1420,1093,0,0
203,-69,0,0,0,0,0,0,0,0,0,-1,1427,1093,0,0
210,-69,0,0,0,0,0,0,0,0,0,-1,1434,1093,0,0
217,-69,0,0,0,0,0,0,0,0,0,-1,1441,1093,0,0
224,-69,0,0,0,0,0,0,0,0,0,-1,1448,1093,0,0
231,-69,0,0,0,0,0,0,0,0,0,-1,1455,1093,0,0
238,-69,0,0,0,0,0,0,0,0,0,-1,1462,1093,0,0
245,-69,0,0,0,0,0,0,0,0,0,-1,1469,1093,0,0
252,-69,0,0,0,0,0,0,0,0,0,-1,1476,1093,0,0
259,-69,0,0,0,0,0,0,0,0,0,-1,1483,1093,0,0
266,-69,0,0,0,0,0,0,0,0,0,-1,1490,1093,0,0
273,-69,0,0,0,0,0,0,0,0,0,-1,1497,1093,0,0
280,-69,0,0,0,0,0,0,0,0,0,-1,1504,1093,0,0
287,-69,0,0,0,0,0,0,0,0,0,-1,1511,1093,0,0
294,-69,0,0,0,0,0,0,0,0,0,-1,1518,1093,0,0
301,-69,0,0,0,0,0,0,0,0,0,-1,1525,1093,0,0
308,-69,0,0,0,0,0,0,0,0,0,-1,1532,1093,0,0
315,-69,0,0,0,0,0,0,0,0,0,-1,1539,1093,0,0
322,-69,0,0,0,0,0,0,0,0,0,-1,1546,1093,0,0
329,-69,0,0,0,0,0,0,0,0,0,-1,1553,1093,0,0
336,-69,0,0,0,0,0,0,0,0,0,-1,1560,1093,0,0
343,-69,0,0,0,0,0,0,0,0,0,-1,1567,1093,0,0
350,-69,0,0,0,0,0,0,0,0,0,-1,1574,1093,0,0
357,-69,0,0,0,0,0,0,0,0,0,-1,1581,1093,0,0
364,-69,0,0,0,0,0,0,0,0,0,-1,1588,1093,0,0
371,-69,0,0,0,0,0,0,0,0,0,-1,1595,1093,0,0
378,-69,0,0,0,0,0,0,0,0,0,-1,1602,1093,0,0
385,-69,0,0,0,0,0,0,0,0,0,-1,1609,1093,0,0
392,-69,0,0,0,0,0,0,0,0,0,-1,1616,1093,0,0
399,-69,0,0,0,0,0,0,0,0,0,-1,1623,1093,0,0
406,-69,0,0,0,0,0,0,0,0,0,-1,1630,1093,0,0
413,-69,0,0,0,0,0,0,0,0,0,-1,1637,1093,0,0
420,-69,0,0,0,0,0,0,0,0,0,-1,1644,1093,0,0
427,-69,0,0,0,0,0,0,0,0,0,-1,1651,1093,0,0
434,-69,0,0,0,0,0,0,0,0,0,-1,1658,1093,0,0
441,-69,0,0,0,0,0,0,0,0,0,-1,1665,1093,0,0
448,-69,0,0,0,0,0,0,0,0,0,-1,1672,1093,0,0
455,-69,0,0,0,0,0,0,0,0,0,-1,1679,1093,0,0
462,-69,0,0,0,0,0,0,0,0,0,-1,1686,1093,0,0
469,-69,0,0,0,0,0,0,0,0,0,-1,1693,1093,0,0
476,-69,0,0,0,0,0,0,0,0,0,-1,1700,1093,0,0
483,-69,0,0,0,0,0,0,0,0,0,-1,1707,1093,0,0
490,-69,0,0,0,0,0,0,0,0,0,-1,1714,1093,0,0
497,-69,0,0,0,0,0,0,0,0,0,-1,1721,1093,0,0
504,-69,0,0,0,0,0,0,0,0,0,-1,1728,1093,0,0
511,-69,0,0,0,0,0,0,0,0,0,-1,1735,1093,0,0
518,-69,0,0,0,0,0,0,0,0,0,-1,1742,1093,0,0
525,-69,0,0,0,0,0,0,0,0,0,-1,1749,1093,0,0
532,-69,0,0,0,0,0,0,0,0,0,-1,1756,1093,0,0
539,-69,0,0,0,0,0,0,0,0,0,-1,1763,1093,0,0
546,-69,0,0,0,0,0,0,0,0,0,-1,1770,1093,0,0
553,-69,0,0,0,0,0,0,0,0,0,-1,1777,1093,0,0
560,-69,0,0,0,0,0,0,0,0,0,-1,1784,1093,0,0
567,-69,0,0,0,0,0,0,0,0,0,-1,1791,1093,0,0
574,-69,0,0,0,0,0,0,0,0,0,-1,1798,1093,0,0
581,-69,0,0,0,0,0,0,0,0,0,-1,1805,1093,0,0
588,-69,0,0,0,0,0,0,0,0,0,-1,1812,1093,0,0
595,-69,0,0,0,0,0,0,0,0,0,-1,1819,1093,0,0
602,-69,0,0,0,0,0,0,0,0,0,-1,1826,1093,0,0
609,-69,0,0,0,0,0,0,0,0,0,-1,1833,1093,0,0
616,-69,0,0,0,0,0,0,0,0,0,-1,1840,1093,0,0
623,-69,0,0,0,0,0,0,0,0,0,-1,1847,1093,0,0
630,-69,0,0,0,0,0,0,0,0,0,-1,1854,1093,0,0
637,-69,0,0,0,0,0,0,0,0,0,-1,1861,1093,0,0
644,-69,0,0,0,0,0,0,0,0,0,-1,1868,1093,0,0
651,-69,33.8896,2.92981,0,0,0,0,0,0,0,-1,1875,1093,33.8896,-2.92978
658,-69,33.6404,2.88318,0,0,0,0,0,0,0,-1,1882,1093,33.6404,-2.88321
665,-69,34.0209,2.80786,-0.000197255,0.000366937,0.000174702,0.000416652,-0.00024697,1.29355,0.000387295,0.0426856,1889,1093,34.0209,-2.80787
672,-69,33.86,2.74475,-0.000254182,-0.000164762,0.000447771,0.000240525,-0.00065947,0.835158,0.000538051,0.0379631,1896,1093,33.86,-2.74477
679,-69,33.8995,2.65027,-0.000833317,-0.00110492,0.00138305,0.000420584,-0.00235882,0.736461,0.00172987,0.036738,1903,1093,33.8996,-2.65025
686,-69,34.0756,2.54895,-0.00160117,-0.00203766,0.00237536,0.000565947,-0.00420478,0.739588,0.00300962,0.0351228,1910,1093,34.0756,-2.5489
693,-69,34.126,2.63611,-0.00226499,-0.002837,0.00329207,0.000753481,-0.00585547,0.742068,0.00417752,0.0348414,1917,1093,34.1259,-2.63612
700,-69,34.0616,2.65442,-0.00284705,-0.00339103,0.00402279,0.000912932,-0.00715101,0.751643,0.00509897,0.0296652,1924,1093,34.0617,-2.65441
707,-69,34.0645,2.70142,-0.00335741,-0.00366014,0.00456136,0.00105509,-0.00807265,0.768812,0.00576573,0.0202431,1931,1093,34.0645,-2.70138
714,-69,34.1016,2.63892,-0.00385958,-0.0038216,0.00496655,0.001126,-0.00880718,0.78731,0.00628052,0.0256368,1938,1093,34.1015,-2.63897
721,-69,33.7157,3.94983,0,0,0,0,0,0,0,-1,1945,1093,33.7157,-3.94988
728,-69,32.7825,5.48193,0,0,0,0,0,0,0,-1,1952,1093,32.7825,-5.48196
735,-69,32.9336,5.27893,-0.00449681,-0.00269219,0.00521928,0.00170221,-0.0088912,0.870992,0.0065688,0.0256889,1959,1093,32.9336,-5.27892
742,-69,32.9196,5.12927,-0.00411679,-0.00172257,0.00477816,0.00200615,-0.00784552,0.908141,0.0060117,0.0192114,1966,1093,32.9195,-5.12925
749,-69,32.8136,4.9491,-0.00314666,-0.000254609,0.00408894,0.00263646,-0.00603773,0.955357,0.00513478,0.0196121,1973,1093,32.8136,-4.94912
756,-69,32.8602,4.80493,-0.000959934,0.000382226,0.00292641,0.00271352,-0.00329123,0.898109,0.00347219,0.0145973,1980,1093,32.8602,-4.80499
763,-69,32.855,4.63269,0.00252164,0.000833338,0.00142513,0.00333386,2.11149e-05,0.518016,0.00221557,0.0155206,1987,1093,32.8549,-4.63269
770,-69,32.8341,4.52283,0.00706687,0.00123224,-0.00046202,0.00710323,0.00119588,-0.0785337,0.00439147,0.0170221,1994,1093,32.8341,-4.52279
777,-69,32.7706,4.39795,0.0133129,0.000992569,-0.00271107,0.0138831,0.000422389,-0.207294,0.00911786,0.0213544,2001,1093,32.7706,-4.39791
784,-69,32.7705,4.35242,0.0211648,-0.000752295,-0.00499946,0.0222513,-0.00183885,-0.214005,0.0154836,0.0320803,2008,1093,32.7705,-4.35238
791,-69,32.9703,4.00024,0.0314313,-0.00401143,-0.00792424,0.0331223,-0.00570245,-0.210244,0.0242073,0.0450978,2015,1093,32.9703,-4.00023
798,-69,33.126,3.53015,0,0,0,0,0,0,0,-1,2022,1093,33.126,-3.53012
805,-69,33.7842,5.47205,0.0628735,-0.017211,-0.0168416,0.0662711,-0.0206086,-0.199068,0.0524185,0.0452129,2029,1093,33.7842,-5.47201
812,-69,34.302,4.71533,0.0850937,-0.0284337,-0.0231871,0.0896469,-0.0329869,-0.1939,0.0732784,0.0461118,2036,1093,34.3019,-4.7153
-700,-76,0,0,0,0,0,0,0,0,0,-1,524,1100,0,0
-693,-76,-22.5458,2.59729,0,0,0,0,0,0,0,-1,531,1100,-22.5458,-2.59728
-686,-76,-22.3837,0.0701904,0,0,0,0,0,0,0,-1,538,1100,-22.3837,-0.0701493
-679,-76,-22.8325,-0.0368652,0,0,0,0,0,0,0,-1,545,1100,-22.8325,0.0369057
-672,-76,-23.2942,-0.24707,0.00694614,0.0229532,-0.00384311,0.023828,0.00607127,-1.34696,0.0142979,0.0474743,552,1100,-23.2942,0.2471
-665,-76,-22.9898,0.402466,0.00434573,0.0174033,-0.00145899,0.0175644,0.0041847,-1.46087,0.0105939,0.0492436,559,1100,-22.9898,-0.402442
-658,-76,-23.131,0.855225,0.00235802,0.0130202,-3.7246e-05,0.0130203,0.00235789,-1.5673,0.00801077,0.0462377,566,1100,-23.1311,-0.855242
-651,-76,-23.1743,1.22253,0.00101651,0.00956394,0.000699541,0.00962081,0.000959642,1.48967,0.00611913,0.0280668,573,1100,-23.1743,-1.2225
-644,-76,-23.2126,1.52014,0.000160398,0.00690031,0.000626412,0.00695803,0.000102674,1.4789,0.00460484,0.0103666,580,1100,-23.2126,-1.52015
-637,-76,-23.2552,1.70764,-0.000810768,0.00367837,0.000265159,0.00369398,-0.000826375,1.512,0.00277937,0.0129727,587,1100,-23.2552,-1.70765
-630,-76,-23.2838,1.87891,-0.00181997,0.00128317,-0.00127479,0.0017397,-0.0022765,-1.22691,0.00232565,0.0151101,594,1100,-23.2838,-1.87889
-623,-76,-23.2761,2.08289,-0.00248146,4.21161e-05,-0.00346898,0.00247166,-0.004911,-0.959827,0.00433924,0.014797,601,1100,-23.2761,-2.0829
-616,-76,-23.2872,2.28906,-0.00244965,-0.00126528,-0.00526997,0.00344567,-0.0071606,-0.841349,0.00624749,0.0128855,608,1100,-23.2872,-2.28909
-609,-76,-23.2832,2.48633,-0.00211838,-0.00206811,-0.00661751,0.00452432,-0.00871081,-0.787298,0.00776768,0.0130912,615,1100,-23.2832,-2.48633
-602,-76,-23.2482,2.70862,-0.002043,-0.00241579,-0.00739479,0.00516774,-0.00962653,-0.772798,0.00866982,0.0185702,622,1100,-23.2482,-2.70859
-595,-76,-23.2137,2.84277,-0.00211273,-0.00276849,-0.00766498,0.00523137,-0.0101126,-0.764023,0.00900703,0.024879,629,1100,-23.2137,-2.84277
-588,-76,-23.199,2.96301,0,0,0,0,0,0,0,-1,636,1100,-23.199,-2.96298
-581,-76,-24.0885,1.13342,0,0,0,0,0,0,0,-1,643,1100,-24.0885,-1.13344
-574,-76,-24.481,-0.0599365,0,0,0,0,0,0,0,-1,650,1100,-24.481,0.0598803
-567,-76,-24.5167,0.471924,-0.00146641,-0.00247808,-0.00555618,0.00360691,-0.0075514,-0.740003,0.00657506,0.042147,657,1100,-24.5167,-0.471898
-560,-76,-24.2887,0.785522,-0.00108381,-0.00179411,-0.00391927,0.00249636,-0.00537428,-0.740214,0.00464428,0.0426687,664,1100,-24.2887,-0.785578
-553,-76,-24.3228,0.776733,-0.000660237,-0.000809662,-0.00165125,0.000917988,-0.00238789,-0.762791,0.00197053,0.0441552,671,1100,-24.3227,-0.776779
-546,-76,-24.3744,0.806396,-0.000126277,0.00044965,0.00129797,0.00149121,-0.00116784,0.894559,0.00153898,0.0427838,678,1100,-24.3744,-0.806422
-539,-76,-24.3491,0.655884,0.000477144,0.00174725,0.00417079,0.00533106,-0.00310667,0.860949,0.00492763,0.0433635,685,1100,-24.3491,-0.655832
-532,-76,-24.1997,0.900879,-0.000595524,0.00214676,0.00412478,0.00512232,-0.00357108,0.945861,0.0050457,0.0443318,692,1100,-24.1997,-0.900841
-525,-76,0,0,0,0,0,0,0,0,0,-1,699,1100,0,0
-518,-76,0,0,0,0,0,0,0,0,0,-1,706,1100,0,0
-511,-76,0,0,0,0,0,0,0,0,0,-1,713,1100,0,0
-504,-76,0,0,0,0,0,0,0,0,0,-1,720,1100,0,0
-497,-76,0,0,0,0,0,0,0,0,0,-1,727,1100,0,0
-490,-76,0,0,0,0,0,0,0,0,0,-1,734,1100,0,0
-483,-76,0,0,0,0,0,0,0,0,0,-1,741,1100,0,0
-476,-76,0,0,0,0,0,0,0,0,0,-1,748,1100,0,0
-469,-76,0,0,0,0,0,0,0,0,0,-1,755,1100,0,0
-462,-76,0,0,0,0,0,0,0,0,0,-1,762,1100,0,0
-455,-76,0,0,0,0,0,0,0,0,0,-1,769,1100,0,0
-448,-76,0,0,0,0,0,0,0,0,0,-1,776,1100,0,0
-441,-76,0,0,0,0,0,0,0,0,0,-1,783,1100,0,0
-434,-76,0,0,0,0,0,0,0,0,0,-1,790,1100,0,0
-427,-76,0,0,0,0,0,0,0,0,0,-1,797,1100,0,0
-420,-76,0,0,0,0,0,0,0,0,0,-1,804,1100,0,0
-413,-76,0,0,0,0,0,0,0,0,0,-1,811,1100,0,0
-406,-76,0,0,0,0,0,0,0,0,0,-1,818,1100,0,0
-399,-76,0,0,0,0,0,0,0,0,0,-1,825,1100,0,0
-392,-76,0,0,0,0,0,0,0,0,0,-1,832,1100,0,0
-385,-76,0,0,0,0,0,0,0,0,0,-1,839,1100,0,0
-378,-76,0,0,0,0,0,0,0,0,0,-1,846,1100,0,0
-371,-76,0,0,0,0,0,0,0,0,0,-1,853,1100,0,0
-364,-76,0,0,0,0,0,0,0,0,0,-1,860,1100,0,0
-357,-76,0,0,0,0,0,0,0,0,0,-1,867,1100,0,0
-350,-76,0,0,0,0,0,0,0,0,0,-1,874,1100,0,0
-343,-76,0,0,0,0,0,0,0,0,0,-1,881,1100,0,0
-336,-76,0,0,0,0,0,0,0,0,0,-1,888,1100,0,0
-329,-76,0,0,0,0,0,0,0,0,0,-1,895,1100,0,0
-322,-76,0,0,0,0,0,0,0,0,0,-1,902,1100,0,0
-315,-76,0,0,0,0,0,0,0,0,0,-1,909,1100,0,0
-308,-76,0,0,0,0,0,0,0,0,0,-1,916,1100,0,0
-301,-76,0,0,0,0,0,0,0,0,0,-1,923,1100,0,0
-294,-76,0,0,0,0,0,0,0,0,0,-1,930,1100,0,0
-287,-76,0,0,0,0,0,0,0,0,0,-1,937,1100,0,0
-280,-76,0,0,0,0,0,0,0,0,0,-1,944,1100,0,0
-273,-76,0,0,0,0,0,0,0,0,0,-1,951,1100,0,0
-266,-76,0,0,0,0,0,0,0,0,0,-1,958,1100,0,0
-259,-76,0,0,0,0,0,0,0,0,0,-1,965,1100,0,0
-252,-76,0,0,0,0,0,0,0,0,0,-1,972,1100,0,0
-245,-76,0,0,0,0,0,0,0,0,0,-1,979,1100,0,0
-238,-76,0,0,0,0,0,0,0,0,0,-1,986,1100,0,0
-231,-76,0,0,0,0,0,0,0,0,0,-1,993,1100,0,0
-224,-76,0,0,0,0,0,0,0,0,0,-1,1000,1100,0,0
-217,-76,0,0,0,0,0,0,0,0,0,-1,1007,1100,0,0
-210,-76,0,0,0,0,0,0,0,0,0,-1,1014,1100,0,0
-203,-76,0,0,0,0,0,0,0,0,0,-1,1021,1100,0,0
-196,-76,0,0,0,0,0,0,0,0,0,-1,1028,1100,0,0
-189,-76,0,0,0,0,0,0,0,0,0,-1,1035,1100,0,0
-182,-76,0,0,0,0,0,0,0,0,0,-1,1042,1100,0,0
-175,-76,0,0,0,0,0,0,0,0,0,-1,1049,1100,0,0
-168,-76,0,0,0,0,0,0,0,0,0,-1,1056,1100,0,0
-161,-76,0,0,0,0,0,0,0,0,0,-1,1063,1100,0,0
-154,-76,0,0,0,0,0,0,0,0,0,-1,1070,1100,0,0
-147,-76,0,0,0,0,0,0,0,0,0,-1,1077,1100,0,0
-140,-76,0,0,0,0,0,0,0,0,0,-1,1084,1100,0,0
-133,-76,0,0,0,0,0,0,0,0,0,-1,1091,1100,0,0
-126,-76,0,0,0,0,0,0,0,0,0,-1,1098,1100,0,0
-119,-76,0,0,0,0,0,0,0,0,0,-1,1105,1100,0,0
-112,-76,0,0,0,0,0,0,0,0,0,-1,1112,1100,0,0
-105,-76,0,0,0,0,0,0,0,0,0,-1,1119,1100,0,0
-98,-76,0,0,0,0,0,0,0,0,0,-1,1126,1100,0,0
-91,-76,0,0,0,0,0,0,0,0,0,-1,1133,1100,0,0
-84,-76,0,0,0,0,0,0,0,0,0,-1,1140,1100,0,0
-77,-76,0,0,0,0,0,0,0,0,0,-1,1147,1100,0,0
-70,-76,0,0,0,0,0,0,0,0,0,-1,1154,1100,0,0
-63,-76,0,0,0,0,0,0,0,0,0,-1,1161,1100,0,0
-56,-76,0,0,0,0,0,0,0,0,0,-1,1168,1100,0,0
-49,-76,0,0,0,0,0,0,0,0,0,-1,1175,1100,0,0
-42,-76,0,0,0,0,0,0,0,0,0,-1,1182,1100,0,0
-35,-76,0,0,0,0,0,0,0,0,0,-1,1189,1100,0,0
-28,-76,0,0,0,0,0,0,0,0,0,-1,1196,1100,0,0
-21,-76,0,0,0,0,0,0,0,0,0,-1,1203,1100,0,0
-14,-76,0,0,0,0,0,0,0,0,0,-1,1210,1100,0,0
-7,-76,0,0,0,0,0,0,0,0,0,-1,1217,1100,0,0
0,-76,0,0,0,0,0,0,0,0,0,-1,1224,1100,0,0
7,-76,0,0,0,0,0,0,0,0,0,-1,1231,1100,0,0
14,-76,0,0,0,0,0,0,0,0,0,-1,1238,1100,0,0
21,-76,0,0,0,0,0,0,0,0,0,-1,1245,1100,0,0
28,-76,0,0,0,0,0,0,0,0,0,-1,1252,1100,0,0
35,-76,0,0,0,0,0,0,0,0,0,-1,1259,1100,0,0
42,-76,0,0,0,0,0,0,0,0,0,-1,1266,1100,0,0
49,-76,0,0,0,0,0,0,0,0,0,-1,1273,1100,0,0
56,-76,0,0,0,0,0,0,0,0,0,-1,1280,1100,0,0
63,-76,0,0,0,0,0,0,0,0,0,-1,1287,1100,0,0
70,-76,0,0,0,0,0,0,0,0,0,-1,1294,1100,0,0
77,-76,0,0,0,0,0,0,0,0,0,-1,1301,1100,0,0
84,-76,0,0,0,0,0,0,0,0,0,-1,1308,1100,0,0
91,-76,0,0,0,0,0,0,0,0,0,-1,1315,1100,0,0
98,-76,0,0,0,0,0,0,0,0,0,-1,1322,1100,0,0
105,-76,0,0,0,0,0,0,0,0,0,-1,1329,1100,0,0
112,-76,0,0,0,0,0,0,0,0,0,-1,1336,1100,0,0
119,-76,0,0,0,0,0,0,0,0,0,-1,1343,1100,0,0
126,-76,0,0,0,0,0,0,0,0,0,-1,1350,1100,0,0
133,-76,0,0,0,0,0,0,0,0,0,-1,1357,1100,0,0
140,-76,0,0,0,0,0,0,0,0,0,-1,1364,1100,0,0
147,-76,0,0,0,0,0,0,0,0,0,-1,1371,1100,0,0
154,-76,0,0,0,0,0,0,0,0,0,-1,1378,1100,0,0
161,-76,0,0,0,0,0,0,0,0,0,-1,1385,1100,0,0
168,-76,0,0,0,0,0,0,0,0,0,-1,1392,1100,0,0
175,-76,0,0,0,0,0,0,0,0,0,-1,1399,1100,0,0
182,-76,0,0,0,0,0,0,0,0,0,-1,1406,1100,0,0
189,-76,0,0,0,0,0,0,0,0,0,-1,1413,1100,0,0
196,-76,0,0,0,0,0,0,0,0,0,-1,1420,1100,0,0
203,-76,0,0,0,0,0,0,0,0,0,-1,1427,1100,0,0
210,-76,0,0,0,0,0,0,0,0,0,-1,1434,1100,0,0
217,-76,0,0,0,0,0,0,0,0,0,-1,1441,1100,0,0
224,-76,0,0,0,0,0,0,0,0,0,-1,1448,1100,0,0
231,-76,0,0,0,0,0,0,0,0,0,-1,1455,1100,0,0
238,-76,0,0,0,0,0,0,0,0,0,-1,1462,1100,0,0
245,-76,0,0,0,0,0,0,0,0,0,-1,1469,1100,0,0
252,-76,0,0,0,0,0,0,0,0,0,-1,1476,1100,0,0
259,-76,0,0,0,0,0,0,0,0,0,-1,1483,1100,0,0
266,-76,0,0,0,0,0,0,0,0,0,-1,1490,1100,0,0
273,-76,0,0,0,0,0,0,0,0,0,-1,1497,1100,0,0
280,-76,0,0,0,0,0,0,0,0,0,-1,1504,1100,0,0
287,-76,0,0,0,0,0,0,0,0,0,-1,1511,1100,0,0
294,-76,0,0,0,0,0,0,0,0,0,-1,1518,1100,0,0
301,-76,0,0,0,0,0,0,0,0,0,-1,1525,1100,0,0
308,-76,0,0,0,0,0,0,0,0,0,-1,1532,1100,0,0
315,-76,0,0,0,0,0,0,0,0,0,-1,1539,1100,0,0
322,-76,0,0,0,0,0,0,0,0,0,-1,1546,1100,0,0
329,-76,0,0,0,0,0,0,0,0,0,-1,1553,1100,0,0
336,-76,0,0,0,0,0,0,0,0,0,-1,1560,1100,0,0
343,-76,0,0,0,0,0,0,0,0,0,-1,1567,1100,0,0
350,-76,0,0,0,0,0,0,0,0,0,-1,1574,1100,0,0
357,-76,0,0,0,0,0,0,0,0,0,-1,1581,1100,0,0
364,-76,0,0,0,0,0,0,0,0,0,-1,1588,1100,0,0
371,-76,0,0,0,0,0,0,0,0,0,-1,1595,1100,0,0
378,-76,0,0,0,0,0,0,0,0,0,-1,1602,1100,0,0
385,-76,0,0,0,0,0,0,0,0,0,-1,1609,1100,0,0
392,-76,0,0,0,0,0,0,0,0,0,-1,1616,1100,0,0
399,-76,0,0,0,0,0,0,0,0,0,-1,1623,1100,0,0
406,-76,0,0,0,0,0,0,0,0,0,-1,1630,1100,0,0
413,-76,0,0,0,0,0,0,0,0,0,-1,1637,1100,0,0
420,-76,0,0,0,0,0,0,0,0,0,-1,1644,1100,0,0
427,-76,0,0,0,0,0,0,0,0,0,-1,1651,1100,0,0
434,-76,0,0,0,0,0,0,0,0,0,-1,1658,1100,0,0
441,-76,0,0,0,0,0,0,0,0,0,-1,1665,1100,0,0
448,-76,0,0,0,0,0,0,0,0,0,-1,1672,1100,0,0
455,-76,0,0,0,0,0,0,0,0,0,-1,1679,1100,0,0
462,-76,0,0,0,0,0,0,0,0,0,-1,1686,1100,0,0
469,-76,0,0,0,0,0,0,0,0,0,-1,1693,1100,0,0
476,-76,0,0,0,0,0,0,0,0,0,-1,1700,1100,0,0
483,-76,0,0,0,0,0,0,0,0,0,-1,1707,1100,0,0
490,-76,0,0,0,0,0,0,0,0,0,-1,1714,1100,0,0
497,-76,0,0,0,0,0,0,0,0,0,-1,1721,1100,0,0
504,-76,0,0,0,0,0,0,0,0,0,-1,1728,1100,0,0
511,-76,0,0,0,0,0,0,0,0,0,-1,1735,1100,0,0
518,-76,0,0,0,0,0,0,0,0,0,-1,1742,1100,0,0
525,-76,0,0,0,0,0,0,0,0,0,-1,1749,1100,0,0
532,-76,0,0,0,0,0,0,0,0,0,-1,1756,1100,0,0
539,-76,0,0,0,0,0,0,0,0,0,-1,1763,1100,0,0
546,-76,0,0,0,0,0,0,0,0,0,-1,1770,1100,0,0
553,-76,0,0,0,0,0,0,0,0,0,-1,1777,1100,0,0
560,-76,0,0,0,0,0,0,0,0,0,-1,1784,1100,0,0
567,-76,0,0,0,0,0,0,0,0,0,-1,1791,1100,0,0
574,-76,0,0,0,0,0,0,0,0,0,-1,1798,1100,0,0
581,-76,0,0,0,0,0,0,0,0,0,-1,1805,1100,0,0
588,-76,0,0,0,0,0,0,0,0,0,-1,1812,1100,0,0
595,-76,0,0,0,0,0,0,0,0,0,-1,1819,1100,0,0
602,-76,0,0,0,0,0,0,0,0,0,-1,1826,1100,0,0
609,-76,0,0,0,0,0,0,0,0,0,-1,1833,1100,0,0
616,-76,0,0,0,0,0,0,0,0,0,-1,1840,1100,0,0
623,-76,0,0,0,0,0,0,0,0,0,-1,1847,1100,0,0
630,-76,0,0,0,0,0,0,0,0,0,-1,1854,1100,0,0
637,-76,0,0,0,0,0,0,0,0,0,-1,1861,1100,0,0
644,-76,0,0,0,0,0,0,0,0,0,-1,1868,1100,0,0
651,-76,33.9956,2.99792,0,0,0,0,0,0,0,-1,1875,1100,33.9956,-2.99798
658,-76,33.8033,3.15588,0,0,0,0,0,0,0,-1,1882,1100,33.8034,-3.1559
665,-76,34.1597,2.69922,-0.000271256,0.000446115,0.000268717,0.000535608,-0.000360749,1.24931,0.000520784,0.0393109,1889,1100,34.1596,-2.6992
672,-76,33.9607,2.60437,-0.000330151,-0.000200367,0.000565121,0.000303575,-0.000834094,0.842562,0.000680223,0.0359543,1896,1100,33.9606,-2.60437
679,-76,33.962,2.4679,-0.000958928,-0.00119606,0.00147252,0.000399797,-0.00255478,0.745226,0.0018509,0.0368836,1903,1100,33.962,-2.46792
686,-76,34.1838,2.48975,-0.00174915,-0.00214451,0.00240666,0.000467929,-0.00436159,0.744421,0.00307559,0.0338006,1910,1100,34.1838,-2.4898
693,-76,34.2119,2.69263,-0.00242935,-0.002935,0.00326552,0.000593117,-0.00595747,0.746764,0.00418339,0.0359951,1917,1100,34.2119,-2.69261
700,-76,34.0681,2.72229,-0.00302821,-0.00346643,0.00394544,0.000704199,-0.00719884,0.757659,0.00505035,0.0333592,1924,1100,34.0681,-2.72226
707,-76,34.064,2.72046,-0.00355433,-0.00374683,0.00447332,0.000823783,-0.00812494,0.774642,0.00571106,0.0217852,1931,1100,34.064,-2.7205
714,-76,33.9856,3.20032,0,0,0,0,0,0,0,-1,1938,1100,33.9856,-3.20033
721,-76,33.494,4.43103,-0.00432727,-0.00376843,0.00517118,0.00113087,-0.00922658,0.812389,0.00656058,0.0492541,1945,1100,33.494,-4.43106
728,-76,32.9623,5.39514,-0.00453461,-0.00338568,0.00527104,0.0013421,-0.0092624,0.839676,0.00666748,0.0360046,1952,1100,32.9622,-5.39517
735,-76,32.5127,5.35986,-0.00467426,-0.00275924,0.00509737,0.00146977,-0.00890327,0.878238,0.00648123,0.0294343,1959,1100,32.5127,-5.3598
742,-76,32.7052,5.15894,-0.00425743,-0.0018086,0.00466738,0.0017923,-0.00785833,0.913675,0.00592734,0.0194353,1966,1100,32.7052,-5.15898
749,-76,32.6543,4.95117,-0.0032227,-0.000253033,0.00403388,0.00256061,-0.00603634,0.961748,0.00509688,0.018714,1973,1100,32.6543,-4.95119
756,-76,32.6899,4.79236,-0.00106385,0.000609745,0.00289624,0.00278765,-0.00324176,0.926031,0.00348437,0.0152329,1980,1100,32.69,-4.79238
763,-76,32.6801,4.60864,0.00231187,0.00145307,0.00141189,0.00335821,0.000406734,0.637776,0.0021163,0.0163646,1987,1100,32.6801,-4.60867
770,-76,32.6129,4.49707,0.00667711,0.00237938,-0.000427717,0.00671927,0.00233723,-0.0982377,0.00393879,0.0176898,1994,1100,32.6129,-4.49703
777,-76,32.5508,4.43311,0.0124707,0.00295558,-0.00259527,0.0131325,0.00229375,-0.249693,0.00809941,0.0221121,2001,1100,32.5507,-4.43306
784,-76,32.6096,4.28235,0.0196801,0.00237902,-0.00480001,0.0209226,0.00113654,-0.253291,0.0135854,0.0349921,2008,1100,32.6096,-4.28236
791,-76,32.8251,4.05603,0.0290544,0.000762743,-0.00763003,0.030981,-0.00116382,-0.247328,0.0210526,0.0439377,2015,1100,32.8251,-4.05604
798,-76,32.9834,3.77698,0,0,0,0,0,0,0,-1,2022,1100,32.9835,-3.77699
805,-76,33.7791,6.3844,0,0,0,0,0,0,0,-1,2029,1100,33.7791,-6.38445
812,-76,34.0146,5.33826,0,0,0,0,0,0,0,-1,2036,1100,34.0145,-5.33827
-700,-83,0,0,0,0,0,0,0,0,0,-1,524,1107,0,0
-693,-83,-23.3041,2.21216,0.0150836,0.0408559,-0.0120769,0.0456306,0.0103089,-1.1943,0.0276327,0.0474631,531,1107,-23.3041,-2.21221
-686,-83,-23.4819,1.35657,0.0113007,0.0310238,-0.00623424,0.0328291,0.00949534,-1.28893,0.0195071,0.0466101,538,1107,-23.4819,-1.35651
-679,-83,-23.5163,-0.0615234,0,0,0,0,0,0,0,-1,545,1107,-23.5163,0.0615141
-672,-83,-23.7758,-0.186279,0,0,0,0,0,0,0,-1,552,1107,-23.7758,0.18627
-665,-83,-22.9812,0.385864,0,0,0,0,0,0,0,-1,559,1107,-22.9812,-0.38587
-658,-83,-22.9945,0.708862,0.00159823,0.00947088,0.00113539,0.00963135,0.00143775,1.43039,0.00599935,0.0448385,566,1107,-22.9945,-0.708875
-651,-83,-22.9731,1.04663,0.000482331,0.00679195,0.00124388,0.00702831,0.000245967,1.38301,0.00460574,0.0303628,573,1107,-22.9731,-1.04657
-644,-83,-22.9921,1.42957,-0.000190413,0.00477843,0.000860658,0.00492328,-0.000335265,1.40405,0.00339946,0.014033,580,1107,-22.992,-1.42963
-637,-83,-23.0461,1.69275,-0.000917003,0.0023909,0.000313064,0.00242027,-0.000946371,1.47726,0.00200486,0.0114212,587,1107,-23.0461,-1.69273
-630,-83,-23.072,1.89697,-0.00170669,0.000570484,-0.00118333,0.00107405,-0.00221025,-1.16846,0.00193364,0.0171083,594,1107,-23.072,-1.89703
-623,-83,-23.0715,2.09155,-0.00219354,-0.000317602,-0.0030923,0.00197585,-0.00448699,-0.93265,0.00382406,0.016062,601,1107,-23.0715,-2.09156
-616,-83,-23.0742,2.27966,-0.00200647,-0.00125372,-0.0044997,0.00288532,-0.00614551,-0.827123,0.005326,0.0128815,608,1107,-23.0742,-2.27969
-609,-83,-23.0616,2.49744,-0.00155337,-0.00188613,-0.0054741,0.00375688,-0.00719638,-0.770206,0.00642696,0.0131333,615,1107,-23.0617,-2.49746
-602,-83,-23.0649,2.73669,-0.00141095,-0.00211295,-0.00594769,0.00419609,-0.00771999,-0.755925,0.00697931,0.01568,622,1107,-23.0649,-2.7367
-595,-83,-23.0001,2.93701,-0.00146467,-0.00245531,-0.00596991,0.00403043,-0.00795041,-0.744008,0.00703948,0.0186367,629,1107,-23,-2.93703
-588,-83,-22.959,3.12927,0,0,0,0,0,0,0,-1,636,1107,-22.959,-3.12924
-581,-83,-24.0413,0.903931,0,0,0,0,0,0,0,-1,643,1107,-24.0413,-0.903895
-574,-83,-24.3849,0.660767,-0.00127985,-0.00254048,-0.00502706,0.00315625,-0.00697659,-0.723032,0.00598719,0.0367671,650,1107,-24.3849,-0.66081
-567,-83,-24.3909,0.480713,-0.00112113,-0.00222862,-0.00422522,0.00258648,-0.00593623,-0.720241,0.00504568,0.0422227,657,1107,-24.3909,-0.480772
-560,-83,-24.2547,0.785034,-0.000920127,-0.00163326,-0.00297391,0.00171852,-0.0042719,-0.725734,0.00356176,0.0434019,664,1107,-24.2547,-0.785094
-553,-83,-24.3107,0.770508,-0.00077388,-0.000730073,-0.00123326,0.000481477,-0.00198543,-0.794278,0.00150992,0.0430002,671,1107,-24.3107,-0.770559
-546,-83,-24.3373,1.03833,-0.000603732,0.000492329,0.00103599,0.00111631,-0.00122771,1.02868,0.00135383,0.0415095,678,1107,-24.3374,-1.03833
-539,-83,-24.1601,0.457275,0,0,0,0,0,0,0,-1,685,1107,-24.1601,-0.457216
-532,-83,-24.1805,0.74353,0,0,0,0,0,0,0,-1,692,1107,-24.1806,-0.743491
-525,-83,0,0,0,0,0,0,0,0,0,-1,699,1107,0,0
-518,-83,0,0,0,0,0,0,0,0,0,-1,706,1107,0,0
-511,-83,0,0,0,0,0,0,0,0,0,-1,713,1107,0,0
-504,-83,0,0,0,0,0,0,0,0,0,-1,720,1107,0,0
-497,-83,0,0,0,0,0,0,0,0,0,-1,727,1107,0,0
-490,-83,0,0,0,0,0,0,0,0,0,-1,734,1107,0,0
-483,-83,0,0,0,0,0,0,0,0,0,-1,741,1107,0,0
-476,-83,0,0,0,0,0,0,0,0,0,-1,748,1107,0,0
-469,-83,0,0,0,0,0,0,0,0,0,-1,755,1107,0,0
-462,-83,0,0,0,0,0,0,0,0,0,-1,762,1107,0,0
-455,-83,0,0,0,0,0,0,0,0,0,-1,769,1107,0,0
-448,-83,0,0,0,0,0,0,0,0,0,-1,776,1107,0,0
-441,-83,0,0,0,0,0,0,0,0,0,-1,783,1107,0,0
-434,-83,0,0,0,0,0,0,0,0,0,-1,790,1107,0,0
-427,-83,0,0,0,0,0,0,0,0,0,-1,797,1107,0,0
-420,-83,0,0,0,0,0,0,0,0,0,-1,804,1107,0,0
-413,-83,0,0,0,0,0,0,0,0,0,-1,811,1107,0,0
-406,-83,0,0,0,0,0,0,0,0,0,-1,818,1107,0,0
-399,-83,0,0,0,0,0,0,0,0,0,-1,825,1107,0,0
-392,-83,0,0,0,0,0,0,0,0,0,-1,832,1107,0,0
-385,-83,0,0,0,0,0,0,0,0,0,-1,839,1107,0,0
-378,-83,0,0,0,0,0,0,0,0,0,-1,846,1107,0,0
-371,-83,0,0,0,0,0,0,0,0,0,-1,853,1107,0,0
-364,-83,0,0,0,0,0,0,0,0,0,-1,860,1107,0,0
-357,-83,0,0,0,0,0,0,0,0,0,-1,867,1107,0,0
-350,-83,0,0,0,0,0,0,0,0,0,-1,874,1107,0,0
-343,-83,0,0,0,0,0,0,0,0,0,-1,881,1107,0,0
-336,-83,0,0,0,0,0,0,0,0,0,-1,888,1107,0,0
-329,-83,0,0,0,0,0,0,0,0,0,-1,895,1107,0,0
-322,-83,0,0,0,0,0,0,0,0,0,-1,902,1107,0,0
-315,-83,0,0,0,0,0,0,0,0,0,-1,909,1107,0,0
-308,-83,0,0,0,0,0,0,0,0,0,-1,916,1107,0,0
-301,-83,0,0,0,0,0,0,0,0,0,-1,923,1107,0,0
-294,-83,0,0,0,0,0,0,0,0,0,-1,930,1107,0,0
-287,-83,0,0,0,0,0,0,0,0,0,-1,937,1107,0,0
-280,-83,0,0,0,0,0,0,0,0,0,-1,944,1107,0,0
-273,-83,0,0,0,0,0,0,0,0,0,-1,951,1107,0,0
-266,-83,0,0,0,0,0,0,0,0,0,-1,958,1107,0,0
-259,-83,0,0,0,0,0,0,0,0,0,-1,965,1107,0,0
-252,-83,0,0,0,0,0,0,0,0,0,-1,972,1107,0,0
-245,-83,0,0,0,0,0,0,0,0,0,-1,979,1107,0,0
-238,-83,0,0,0,0,0,0,0,0,0,-1,986,1107,0,0
-231,-83,0,0,0,0,0,0,0,0,0,-1,993,1107,0,0
-224,-83,0,0,0,0,0,0,0,0,0,-1,1000,1107,0,0
-217,-83,0,0,0,0,0,0,0,0,0,-1,1007,1107,0,0
-210,-83,0,0,0,0,0,0,0,0,0,-1,1014,1107,0,0
-203,-83,0,0,0,0,0,0,0,0,0,-1,1021,1107,0,0
-196,-83,0,0,0,0,0,0,0,0,0,-1,1028,1107,0,0
-189,-83,0,0,0,0,0,0,0,0,0,-1,1035,1107,0,0
-182,-83,0,0,0,0,0,0,0,0,0,-1,1042,1107,0,0
-175,-83,0,0,0,0,0,0,0,0,0,-1,1049,1107,0,0
-168,-83,0,0,0,0,0,0,0,0,0,-1,1056,1107,0,0
-161,-83,0,0,0,0,0,0,0,0,0,-1,1063,1107,0,0
-154,-83,0,0,0,0,0,0,0,0,0,-1,1070,1107,0,0
-147,-83,0,0,0,0,0,0,0,0,0,-1,1077,1107,0,0
-140,-83,0,0,0,0,0,0,0,0,0,-1,1084,1107,0,0
-133,-83,0,0,0,0,0,0,0,0,0,-1,1091,1107,0,0
-126,-83,0,0,0,0,0,0,0,0,0,-1,1098,1107,0,0
-119,-83,0,0,0,0,0,0,0,0,0,-1,1105,1107,0,0
-112,-83,0,0,0,0,0,0,0,0,0,-1,1112,1107,0,0
-105,-83,0,0,0,0,0,0,0,0,0,-1,1119,1107,0,0
-98,-83,0,0,0,0,0,0,0,0,0,-1,1126,1107,0,0
-91,-83,0,0,0,0,0,0,0,0,0,-1,1133,1107,0,0
-84,-83,0,0,0,0,0,0,0,0,0,-1,1140,1107,0,0
-77,-83,0,0,0,0,0,0,0,0,0,-1,1147,1107,0,0
-70,-83,0,0,0,0,0,0,0,0,0,-1,1154,1107,0,0
-63,-83,0,0,0,0,0,0,0,0,0,-1,1161,1107,0,0
-56,-83,0,0,0,0,0,0,0,0,0,-1,1168,1107,0,0
-49,-83,0,0,0,0,0,0,0,0,0,-1,1175,1107,0,0
-42,-83,0,0,0,0,0,0,0,0,0,-1,1182,1107,0,0
-35,-83,0,0,0,0,0,0,0,0,0,-1,1189,1107,0,0
-28,-83,0,0,0,0,0,0,0,0,0,-1,1196,1107,0,0
-21,-83,0,0,0,0,0,0,0,0,0,-1,1203,1107,0,0
-14,-83,0,0,0,0,0,0,0,0,0,-1,1210,1107,0,0
-7,-83,0,0,0,0,0,0,0,0,0,-1,1217,1107,0,0
0,-83,0,0,0,0,0,0,0,0,0,-1,1224,1107,0,0
7,-83,0,0,0,0,0,0,0,0,0,-1,1231,1107,0,0
14,-83,0,0,0,0,0,0,0,0,0,-1,1238,1107,0,0
21,-83,0,0,0,0,0,0,0,0,0,-1,1245,1107,0,0
28,-83,0,0,0,0,0,0,0,0,0,-1,1252,1107,0,0
35,-83,0,0,0,0,0,0,0,0,0,-1,1259,1107,0,0
42,-83,0,0,0,0,0,0,0,0,0,-1,1266,1107,0,0
49,-83,0,0,0,0,0,0,0,0,0,-1,1273,1107,0,0
56,-83,0,0,0,0,0,0,0,0,0,-1,1280,1107,0,0
63,-83,0,0,0,0,0,0,0,0,0,-1,1287,1107,0,0
70,-83,0,0,0,0,0,0,0,0,0,-1,1294,1107,0,0
77,-83,0,0,0,0,0,0,0,0,0,-1,1301,1107,0,0
84,-83,0,0,0,0,0,0,0,0,0,-1,1308,1107,0,0
91,-83,0,0,0,0,0,0,0,0,0,-1,1315,1107,0,0
98,-83,0,0,0,0,0,0,0,0,0,-1,1322,1107,0,0
105,-83,0,0,0,0,0,0,0,0,0,-1,1329,1107,0,0
112,-83,0,0,0,0,0,0,0,0,0,-1,1336,1107,0,0
119,-83,0,0,0,0,0,0,0,0,0,-1,1343,1107,0,0
126,-83,0,0,0,0,0,0,0,0,0,-1,1350,1107,0,0
133,-83,0,0,0,0,0,0,0,0,0,-1,1357,1107,0,0
140,-83,0,0,0,0,0,0,0,0,0,-1,1364,1107,0,0
147,-83,0,0,0,0,0,0,0,0,0,-1,1371,1107,0,0
154,-83,0,0,0,0,0,0,0,0,0,-1,1378,1107,0,0
161,-83,0,0,0,0,0,0,0,0,0,-1,1385,1107,0,0
168,-83,0,0,0,0,0,0,0,0,0,-1,1392,1107,0,0
175,-83,0,0,0,0,0,0,0,0,0,-1,1399,1107,0,0
182,-83,0,0,0,0,0,0,0,0,0,-1,1406,1107,0,0
189,-83,0,0,0,0,0,0,0,0,0,-1,1413,1107,0,0
196,-83,0,0,0,0,0,0,0,0,0,-1,1420,1107,0,0
203,-83,0,0,0,0,0,0,0,0,0,-1,1427,1107,0,0
210,-83,0,0,0,0,0,0,0,0,0,-1,1434,1107,0,0
217,-83,0,0,0,0,0,0,0,0,0,-1,1441,1107,0,0
224,-83,0,0,0,0,0,0,0,0,0,-1,1448,1107,0,0
231,-83,0,0,0,0,0,0,0,0,0,-1,1455,1107,0,0
238,-83,0,0,0,0,0,0,0,0,0,-1,1462,1107,0,0
245,-83,0,0,0,0,0,0,0,0,0,-1,1469,1107,0,0
252,-83,0,0,0,0,0,0,0,0,0,-1,1476,1107,0,0
259,-83,0,0,0,0,0,0,0,0,0,-1,1483,1107,0,0
266,-83,0,0,0,0,0,0,0,0,0,-1,1490,1107,0,0
273,-83,0,0,0,0,0,0,0,0,0,-1,1497,1107,0,0
280,-83,0,0,0,0,0,0,0,0,0,-1,1504,1107,0,0
287,-83,0,0,0,0,0,0,0,0,0,-1,1511,1107,0,0
294,-83,0,0,0,0,0,0,0,0,0,-1,1518,1107,0,0
301,-83,0,0,0,0,0,0,0,0,0,-1,1525,1107,0,0
308,-83,0,0,0,0,0,0,0,0,0,-1,1532,1107,0,0
315,-83,0,0,0,0,0,0,0,0,0,-1,1539,1107,0,0
322,-83,0,0,0,0,0,0,0,0,0,-1,1546,1107,0,0
329,-83,0,0,0,0,0,0,0,0,0,-1,1553,1107,0,0
336,-83,0,0,0,0,0,0,0,0,0,-1,1560,1107,0,0
343,-83,0,0,0,0,0,0,0,0,0,-1,1567,1107,0,0
350,-83,0,0,0,0,0,0,0,0,0,-1,1574,1107,0,0
357,-83,0,0,0,0,0,0,0,0,0,-1,1581,1107,0,0
364,-83,0,0,0,0,0,0,0,0,0,-1,1588,1107,0,0
371,-83,0,0,0,0,0,0,0,0,0,-1,1595,1107,0,0
378,-83,0,0,0,0,0,0,0,0,0,-1,1602,1107,0,0
385,-83,0,0,0,0,0,0,0,0,0,-1,1609,1107,0,0
392,-83,0,0,0,0,0,0,0,0,0,-1,1616,1107,0,0
399,-83,0,0,0,0,0,0,0,0,0,-1,1623,1107,0,0
406,-83,0,0,0,0,0,0,0,0,0,-1,1630,1107,0,0
413,-83,0,0,0,0,0,0,0,0,0,-1,1637,1107,0,0
420,-83,0,0,0,0,0,0,0,0,0,-1,1644,1107,0,0
427,-83,0,0,0,0,0,0,0,0,0,-1,1651,1107,0,0
434,-83,0,0,0,0,0,0,0,0,0,-1,1658,1107,0,0
441,-83,0,0,0,0,0,0,0,0,0,-1,1665,1107,0,0
448,-83,0,0,0,0,0,0,0,0,0,-1,1672,1107,0,0
455,-83,0,0,0,0,0,0,0,0,0,-1,1679,1107,0,0
462,-83,0,0,0,0,0,0,0,0,0,-1,1686,1107,0,0
469,-83,0,0,0,0,0,0,0,0,0,-1,1693,1107,0,0
476,-83,0,0,0,0,0,0,0,0,0,-1,1700,1107,0,0
483,-83,0,0,0,0,0,0,0,0,0,-1,1707,1107,0,0
490,-83,0,0,0,0,0,0,0,0,0,-1,1714,1107,0,0
497,-83,0,0,0,0,0,0,0,0,0,-1,1721,1107,0,0
504,-83,0,0,0,0,0,0,0,0,0,-1,1728,1107,0,0
511,-83,0,0,0,0,0,0,0,0,0,-1,1735,1107,0,0
518,-83,0,0,0,0,0,0,0,0,0,-1,1742,1107,0,0
525,-83,0,0,0,0,0,0,0,0,0,-1,1749,1107,0,0
532,-83,0,0,0,0,0,0,0,0,0,-1,1756,1107,0,0
539,-83,0,0,0,0,0,0,0,0,0,-1,1763,1107,0,0
546,-83,0,0,0,0,0,0,0,0,0,-1,1770,1107,0,0
553,-83,0,0,0,0,0,0,0,0,0,-1,1777,1107,0,0
560,-83,0,0,0,0,0,0,0,0,0,-1,1784,1107,0,0
567,-83,0,0,0,0,0,0,0,0,0,-1,1791,1107,0,0
574,-83,0,0,0,0,0,0,0,0,0,-1,1798,1107,0,0
581,-83,0,0,0,0,0,0,0,0,0,-1,1805,1107,0,0
588,-83,0,0,0,0,0,0,0,0,0,-1,1812,1107,0,0
595,-83,0,0,0,0,0,0,0,0,0,-1,1819,1107,0,0
602,-83,0,0,0,0,0,0,0,0,0,-1,1826,1107,0,0
609,-83,0,0,0,0,0,0,0,0,0,-1,1833,1107,0,0
616,-83,0,0,0,0,0,0,0,0,0,-1,1840,1107,0,0
623,-83,0,0,0,0,0,0,0,0,0,-1,1847,1107,0,0
630,-83,0,0,0,0,0,0,0,0,0,-1,1854,1107,0,0
637,-83,0,0,0,0,0,0,0,0,0,-1,1861,1107,0,0
644,-83,34.0834,2.63318,-0.000195605,0.00246303,-0.000425092,0.00252935,-0.000261919,-1.41604,0.00177997,0.0351272,1868,1107,34.0833,-2.63324
651,-83,34.0287,2.77197,-0.000513032,0.00170296,-0.000103415,0.00170778,-0.000517848,-1.52426,0.00134479,0.0429739,1875,1107,34.0287,-2.772
658,-83,34.0588,2.86426,-0.000573676,0.00105057,5.08317e-05,0.00105216,-0.000575266,1.53954,0.000952948,0.0467286,1882,1107,34.0588,-2.86431
665,-83,34.2916,2.61169,-0.000467357,0.000503916,0.000143494,0.000524672,-0.000488113,1.42715,0.000584859,0.0393856,1889,1107,34.2916,-2.61171
672,-83,34.0153,2.62085,-0.000515127,-0.000249358,0.000540571,0.000174422,-0.000938906,0.905919,0.000691451,0.0365257,1896,1107,34.0153,-2.62087
679,-83,33.9515,2.57068,-0.00119084,-0.00126177,0.0014705,0.000244627,-0.00269724,0.773343,0.001885,0.0387709,1903,1107,33.9516,-2.57062
686,-83,34.151,2.66382,-0.00201265,-0.00219791,0.0023801,0.00027662,-0.00448717,0.765949,0.00308779,0.0343663,1910,1107,34.151,-2.66376
693,-83,34.1879,2.80298,-0.00272563,-0.00296172,0.00320863,0.000367128,-0.00605448,0.767011,0.00416409,0.0347904,1917,1107,34.1879,-2.80303
700,-83,34.1106,2.80273,-0.00332982,-0.00347368,0.00386094,0.000459856,-0.00726336,0.776084,0.00500257,0.0316774,1924,1107,34.1105,-2.80269
707,-83,34.0741,2.71851,-0.00386767,-0.00376603,0.00439193,0.00057538,-0.00820907,0.791183,0.00567424,0.0216967,1931,1107,34.0741,-2.7185
714,-83,33.8267,3.75647,0,0,0,0,0,0,0,-1,1938,1107,33.8267,-3.75647
721,-83,32.9214,4.99756,-0.00466252,-0.0037736,0.00506424,0.000865649,-0.00930177,0.829169,0.00650895,0.0393273,1945,1107,32.9214,-4.99753
728,-83,32.5021,5.51233,-0.00485065,-0.00337538,0.00516979,0.00110913,-0.00933516,0.856261,0.00662417,0.0277583,1952,1107,32.5021,-5.51237
735,-83,32.3125,5.34814,-0.00499487,-0.00275147,0.00495919,0.0012113,-0.00895764,0.89662,0.00641376,0.029107,1959,1107,32.3125,-5.34815
742,-83,32.4596,5.16638,-0.00457849,-0.00182087,0.0045247,0.00153044,-0.0079298,0.933293,0.00586364,0.0173562,1966,1107,32.4596,-5.16633
749,-83,32.5209,4.96765,-0.00345764,-0.000196104,0.00394155,0.00243872,-0.00609246,0.981544,0.00507382,0.0134877,1973,1107,32.5208,-4.96759
756,-83,32.5464,4.80005,-0.00129632,0.000931339,0.00280712,0.00283753,-0.00320251,0.974265,0.00348934,0.0154833,1980,1107,32.5464,-4.8
763,-83,32.5282,4.59668,0.00194442,0.00225866,0.00132733,0.00343813,0.000764942,0.844311,0.00208443,0.0127892,1987,1107,32.5281,-4.59663
770,-83,32.4603,4.47241,0.00612283,0.00382026,-0.000481163,0.00621934,0.00372376,-0.197936,0.003614,0.0150872,1994,1107,32.4603,-4.4724
777,-83,32.3749,4.34412,0.0115063,0.00526712,-0.00256092,0.0124228,0.0043506,-0.343683,0.0072788,0.016718,2001,1107,32.3749,-4.34411
784,-83,32.2592,4.23083,0.0181806,0.00595571,-0.00468535,0.0197697,0.00436656,-0.326997,0.0119923,0.0256907,2008,1107,32.2591,-4.23078
791,-83,32.5233,3.92102,0.0268623,0.0060971,-0.00742477,0.0292439,0.00371547,-0.3104,0.0183831,0.0409966,2015,1107,32.5234,-3.92108
798,-83,32.6685,3.66443,0,0,0,0,0,0,0,-1,2022,1107,32.6686,-3.66437
805,-83,33.137,4.08118,0,0,0,0,0,0,0,-1,2029,1107,33.1368,-4.08121
812,-83,33.6072,3.97302,0,0,0,0,0,0,0,-1,2036,1107,33.6072,-3.97296
-700,-90,0,0,0,0,0,0,0,0,0,-1,524,1114,0,0
-693,-90,-23.7492,1.84741,0.0146276,0.0269748,-0.000305026,0.0269823,0.0146201,-1.54611,0.0155964,0.0474243,531,1114,-23.7492,-1.84746
-686,-90,-24.0435,1.05945,0.0111734,0.0203173,0.00180404,0.0206604,0.0108303,1.38288,0.0119329,0.046484,538,1114,-24.0435,-1.05949
-679,-90,-24.1273,0.46106,0.00821081,0.0152324,0.00261441,0.016099,0.0073443,1.25075,0.00930661,0.0431632,545,1114,-24.1273,-0.461067
-672,-90,-24.1503,-0.141846,0.00576286,0.0112927,0.00271046,0.0123997,0.00465591,1.18307,0.00723257,0.0415039,552,1114,-24.1503,0.141817
-665,-90,-22.6022,0.567871,0,0,0,0,0,0,0,-1,559,1114,-22.6022,-0.56782
-658,-90,-22.6561,0.772095,0.0021381,0.00593818,0.00193447,0.00674966,0.00132662,1.17361,0.00412922,0.0474106,566,1114,-22.6561,-0.772041
-651,-90,-22.707,0.998047,0.00101245,0.00418694,0.00141155,0.0047238,0.000475593,1.20736,0.00300325,0.0320814,573,1114,-22.707,-0.998095
-644,-90,-22.7798,1.38245,0.000306924,0.00288242,0.000744501,0.00308214,0.000107199,1.3087,0.00201998,0.0151667,580,1114,-22.7798,-1.38241
-637,-90,-22.8041,1.67029,-0.000416943,0.00139,1.7407e-05,0.00139017,-0.00041711,1.56116,0.00109269,0.012609,587,1114,-22.8041,-1.67024
-630,-90,-22.8177,1.87988,-0.00118541,0.00011062,-0.00134008,0.000951139,-0.00202593,-1.01061,0.00175575,0.0119347,594,1114,-22.8177,-1.87994
-623,-90,-22.8109,2.08008,-0.00165119,-0.000566362,-0.0028043,0.0017475,-0.00396505,-0.88093,0.00337996,0.0096102,601,1114,-22.8109,-2.08005
-616,-90,-22.8147,2.31775,-0.00138427,-0.00125365,-0.00376696,0.00244856,-0.00508649,-0.794066,0.00443834,0.0100129,608,1114,-22.8147,-2.31774
-609,-90,-22.8214,2.53503,-0.000870471,-0.00179135,-0.00436047,0.0030538,-0.00571562,-0.732796,0.00514018,0.0146862,615,1114,-22.8214,-2.53499
-602,-90,-22.8804,2.74609,-0.00072689,-0.0019849,-0.00457037,0.00325755,-0.00596935,-0.717014,0.0054033,0.0148493,622,1114,-22.8804,-2.74603
-595,-90,-22.7678,3.01697,-0.000840368,-0.00234103,-0.00439499,0.00286788,-0.00604928,-0.700851,0.00525641,0.0129118,629,1114,-22.7678,-3.01692
-588,-90,-22.6819,3.21912,0,0,0,0,0,0,0,-1,636,1114,-22.6819,-3.21913
-581,-90,-24.3958,0.752319,0,0,0,0,0,0,0,-1,643,1114,-24.3958,-0.752338
-574,-90,-24.3727,0.741455,-0.000858625,-0.00248103,-0.00349313,0.00191626,-0.00525591,-0.671307,0.00428788,0.0350667,650,1114,-24.3727,-0.741449
-567,-90,-24.4545,0.692627,-0.000816325,-0.00224589,-0.00288343,0.0014396,-0.00450182,-0.663901,0.00357893,0.0363192,657,1114,-24.4545,-0.692594
-560,-90,-24.3649,0.710571,-0.000797701,-0.00174382,-0.00195627,0.000741891,-0.00328341,-0.666767,0.0024736,0.0404982,664,1114,-24.3648,-0.710539
-553,-90,-24.2524,0.746948,-0.000943663,-0.000923746,-0.000698704,-0.00023493,-0.00163248,-0.792524,0.00101908,0.0400961,671,1114,-24.2524,-0.746922
-546,-90,-24.2613,0.927734,-0.00120248,0.000256578,0.000922691,0.000703301,-0.00164921,1.11991,0.00139434,0.0401145,678,1114,-24.2613,-0.927708
-539,-90,-24.2565,0.937256,-0.00141568,0.00165681,0.00247423,0.00303293,-0.00279179,1.06322,0.00336386,0.043018,685,1114,-24.2565,-0.93731
-532,-90,-24.1204,0.499268,0,0,0,0,0,0,0,-1,692,1114,-24.1203,-0.499229
-525,-90,0,0,0,0,0,0,0,0,0,-1,699,1114,0,0
-518,-90,0,0,0,0,0,0,0,0,0,-1,706,1114,0,0
-511,-90,0,0,0,0,0,0,0,0,0,-1,713,1114,0,0
-504,-90,0,0,0,0,0,0,0,0,0,-1,720,1114,0,0
-497,-90,0,0,0,0,0,0,0,0,0,-1,727,1114,0,0
-490,-90,0,0,0,0,0,0,0,0,0,-1,734,1114,0,0
-483,-90,0,0,0,0,0,0,0,0,0,-1,741,1114,0,0
-476,-90,0,0,0,0,0,0,0,0,0,-1,748,1114,0,0
-469,-90,0,0,0,0,0,0,0,0,0,-1,755,1114,0,0
-462,-90,0,0,0,0,0,0,0,0,0,-1,762,1114,0,0
-455,-90,0,0,0,0,0,0,0,0,0,-1,769,1114,0,0
-448,-90,0,0,0,0,0,0,0,0,0,-1,776,1114,0,0
-441,-90,0,0,0,0,0,0,0,0,0,-1,783,1114,0,0
-434,-90,0,0,0,0,0,0,0,0,0,-1,790,1114,0,0
-427,-90,0,0,0,0,0,0,0,0,0,-1,797,1114,0,0
-420,-90,0,0,0,0,0,0,0,0,0,-1,804,1114,0,0
-413,-90,0,0,0,0,0,0,0,0,0,-1,811,1114,0,0
-406,-90,0,0,0,0,0,0,0,0,0,-1,818,1114,0,0
-399,-90,0,0,0,0,0,0,0,0,0,-1,825,1114,0,0
-392,-90,0,0,0,0,0,0,0,0,0,-1,832,1114,0,0
-385,-90,0,0,0,0,0,0,0,0,0,-1,839,1114,0,0
-378,-90,0,0,0,0,0,0,0,0,0,-1,846,1114,0,0
-371,-90,0,0,0,0,0,0,0,0,0,-1,853,1114,0,0
-364,-90,0,0,0,0,0,0,0,0,0,-1,860,1114,0,0
-357,-90,0,0,0,0,0,0,0,0,0,-1,867,1114,0,0
-350,-90,0,0,0,0,0,0,0,0,0,-1,874,1114,0,0
-343,-90,0,0,0,0,0,0,0,0,0,-1,881,1114,0,0
-336,-90,0,0,0,0,0,0,0,0,0,-1,888,1114,0,0
-329,-90,0,0,0,0,0,0,0,0,0,-1,895,1114,0,0
-322,-90,0,0,0,0,0,0,0,0,0,-1,902,1114,0,0
-315,-90,0,0,0,0,0,0,0,0,0,-1,909,1114,0,0
-308,-90,0,0,0,0,0,0,0,0,0,-1,916,1114,0,0
-301,-90,0,0,0,0,0,0,0,0,0,-1,923,1114,0,0
-294,-90,0,0,0,0,0,0,0,0,0,-1,930,1114,0,0
-287,-90,0,0,0,0,0,0,0,0,0,-1,937,1114,0,0
-280,-90,0,0,0,0,0,0,0,0,0,-1,944,1114,0,0
-273,-90,0,0,0,0,0,0,0,0,0,-1,951,1114,0,0
-266,-90,0,0,0,0,0,0,0,0,0,-1,958,1114,0,0
-259,-90,0,0,0,0,0,0,0,0,0,-1,965,1114,0,0
-252,-90,0,0,0,0,0,0,0,0,0,-1,972,1114,0,0
-245,-90,0,0,0,0,0,0,0,0,0,-1,979,1114,0,0
-238,-90,0,0,0,0,0,0,0,0,0,-1,986,1114,0,0
-231,-90,0,0,0,0,0,0,0,0,0,-1,993,1114,0,0
-224,-90,0,0,0,0,0,0,0,0,0,-1,1000,1114,0,0
-217,-90,0,0,0,0,0,0,0,0,0,-1,1007,1114,0,0
-210,-90,0,0,0,0,0,0,0,0,0,-1,1014,1114,0,0
-203,-90,0,0,0,0,0,0,0,0,0,-1,1021,1114,0,0
-196,-90,0,0,0,0,0,0,0,0,0,-1,1028,1114,0,0
-189,-90,0,0,0,0,0,0,0,0,0,-1,1035,1114,0,0
-182,-90,0,0,0,0,0,0,0,0,0,-1,1042,1114,0,0
-175,-90,0,0,0,0,0,0,0,0,0,-1,1049,1114,0,0
-168,-90,0,0,0,0,0,0,0,0,0,-1,1056,1114,0,0
-161,-90,0,0,0,0,0,0,0,0,0,-1,1063,1114,0,0
-154,-90,0,0,0,0,0,0,0,0,0,-1,1070,1114,0,0
-147,-90,0,0,0,0,0,0,0,0,0,-1,1077,1114,0,0
-140,-90,0,0,0,0,0,0,0,0,0,-1,1084,1114,0,0
-133,-90,0,0,0,0,0,0,0,0,0,-1,1091,1114,0,0
-126,-90,0,0,0,0,0,0,0,0,0,-1,1098,1114,0,0
-119,-90,0,0,0,0,0,0,0,0,0,-1,1105,1114,0,0
-112,-90,0,0,0,0,0,0,0,0,0,-1,1112,1114,0,0
-105,-90,0,0,0,0,0,0,0,0,0,-1,1119,1114,0,0
-98,-90,0,0,0,0,0,0,0,0,0,-1,1126,1114,0,0
-91,-90,0,0,0,0,0,0,0,0,0,-1,1133,1114,0,0
-84,-90,0,0,0,0,0,0,0,0,0,-1,1140,1114,0,0
-77,-90,0,0,0,0,0,0,0,0,0,-1,1147,1114,0,0
-70,-90,0,0,0,0,0,0,0,0,0,-1,1154,1114,0,0
-63,-90,0,0,0,0,0,0,0,0,0,-1,1161,1114,0,0
-56,-90,0,0,0,0,0,0,0,0,0,-1,1168,1114,0,0
-49,-90,0,0,0,0,0,0,0,0,0,-1,1175,1114,0,0
-42,-90,0,0,0,0,0,0,0,0,0,-1,1182,1114,0,0
-35,-90,0,0,0,0,0,0,0,0,0,-1,1189,1114,0,0
-28,-90,0,0,0,0,0,0,0,0,0,-1,1196,1114,0,0
-21,-90,0,0,0,0,0,0,0,0,0,-1,1203,1114,0,0
-14,-90,0,0,0,0,0,0,0,0,0,-1,1210,1114,0,0
-7,-90,0,0,0,0,0,0,0,0,0,-1,1217,1114,0,0
0,-90,0,0,0,0,0,0,0,0,0,-1,1224,1114,0,0
7,-90,0,0,0,0,0,0,0,0,0,-1,1231,1114,0,0
14,-90,0,0,0,0,0,0,0,0,0,-1,1238,1114,0,0
21,-90,0,0,0,0,0,0,0,0,0,-1,1245,1114,0,0
28,-90,0,0,0,0,0,0,0,0,0,-1,1252,1114,0,0
35,-90,0,0,0,0,0,0,0,0,0,-1,1259,1114,0,0
42,-90,0,0,0,0,0,0,0,0,0,-1,1266,1114,0,0
49,-90,0,0,0,0,0,0,0,0,0,-1,1273,1114,0,0
56,-90,0,0,0,0,0,0,0,0,0,-1,1280,1114,0,0
63,-90,0,0,0,0,0,0,0,0,0,-1,1287,1114,0,0
70,-90,0,0,0,0,0,0,0,0,0,-1,1294,1114,0,0
77,-90,0,0,0,0,0,0,0,0,0,-1,1301,1114,0,0
84,-90,0,0,0,0,0,0,0,0,0,-1,1308,1114,0,0
91,-90,0,0,0,0,0,0,0,0,0,-1,1315,1114,0,0
98,-90,0,0,0,0,0,0,0,0,0,-1,1322,1114,0,0
105,-90,0,0,0,0,0,0,0,0,0,-1,1329,1114,0,0
112,-90,0,0,0,0,0,0,0,0,0,-1,1336,1114,0,0
119,-90,0,0,0,0,0,0,0,0,0,-1,1343,1114,0,0
126,-90,0,0,0,0,0,0,0,0,0,-1,1350,1114,0,0
133,-90,0,0,0,0,0,0,0,0,0,-1,1357,1114,0,0
140,-90,0,0,0,0,0,0,0,0,0,-1,1364,1114,0,0
147,-90,0,0,0,0,0,0,0,0,0,-1,1371,1114,0,0
154,-90,0,0,0,0,0,0,0,0,0,-1,1378,1114,0,0
161,-90,0,0,0,0,0,0,0,0,0,-1,1385,1114,0,0
168,-90,0,0,0,0,0,0,0,0,0,-1,1392,1114,0,0
175,-90,0,0,0,0,0,0,0,0,0,-1,1399,1114,0,0
182,-90,0,0,0,0,0,0,0,0,0,-1,1406,1114,0,0
189,-90,0,0,0,0,0,0,0,0,0,-1,1413,1114,0,0
196,-90,0,0,0,0,0,0,0,0,0,-1,1420,1114,0,0
203,-90,0,0,0,0,0,0,0,0,0,-1,1427,1114,0,0
210,-90,0,0,0,0,0,0,0,0,0,-1,1434,1114,0,0
217,-90,0,0,0,0,0,0,0,0,0,-1,1441,1114,0,0
224,-90,0,0,0,0,0,0,0,0,0,-1,1448,1114,0,0
231,-90,0,0,0,0,0,0,0,0,0,-1,1455,1114,0,0
238,-90,0,0,0,0,0,0,0,0,0,-1,1462,1114,0,0
245,-90,0,0,0,0,0,0,0,0,0,-1,1469,1114,0,0
252,-90,0,0,0,0,0,0,0,0,0,-1,1476,1114,0,0
259,-90,0,0,0,0,0,0,0,0,0,-1,1483,1114,0,0
266,-90,0,0,0,0,0,0,0,0,0,-1,1490,1114,0,0
273,-90,0,0,0,0,0,0,0,0,0,-1,1497,1114,0,0
280,-90,0,0,0,0,0,0,0,0,0,-1,1504,1114,0,0
287,-90,0,0,0,0,0,0,0,0,0,-1,1511,1114,0,0
294,-90,0,0,0,0,0,0,0,0,0,-1,1518,1114,0,0
301,-90,0,0,0,0,0,0,0,0,0,-1,1525,1114,0,0
308,-90,0,0,0,0,0,0,0,0,0,-1,1532,1114,0,0
315,-90,0,0,0,0,0,0,0,0,0,-1,1539,1114,0,0
322,-90,0,0,0,0,0,0,0,0,0,-1,1546,1114,0,0
329,-90,0,0,0,0,0,0,0,0,0,-1,1553,1114,0,0
336,-90,0,0,0,0,0,0,0,0,0,-1,1560,1114,0,0
343,-90,0,0,0,0,0,0,0,0,0,-1,1567,1114,0,0
350,-90,0,0,0,0,0,0,0,0,0,-1,1574,1114,0,0
357,-90,0,0,0,0,0,0,0,0,0,-1,1581,1114,0,0
364,-90,0,0,0,0,0,0,0,0,0,-1,1588,1114,0,0
371,-90,0,0,0,0,0,0,0,0,0,-1,1595,1114,0,0
378,-90,0,0,0,0,0,0,0,0,0,-1,1602,1114,0,0
385,-90,0,0,0,0,0,0,0,0,0,-1,1609,1114,0,0
392,-90,0,0,0,0,0,0,0,0,0,-1,1616,1114,0,0
399,-90,0,0,0,0,0,0,0,0,0,-1,1623,1114,0,0
406,-90,0,0,0,0,0,0,0,0,0,-1,1630,1114,0,0
413,-90,0,0,0,0,0,0,0,0,0,-1,1637,1114,0,0
420,-90,0,0,0,0,0,0,0,0,0,-1,1644,1114,0,0
427,-90,0,0,0,0,0,0,0,0,0,-1,1651,1114,0,0
434,-90,0,0,0,0,0,0,0,0,0,-1,1658,1114,0,0
441,-90,0,0,0,0,0,0,0,0,0,-1,1665,1114,0,0
448,-90,0,0,0,0,0,0,0,0,0,-1,1672,1114,0,0
455,-90,0,0,0,0,0,0,0,0,0,-1,1679,1114,0,0
462,-90,0,0,0,0,0,0,0,0,0,-1,1686,1114,0,0
469,-90,0,0,0,0,0,0,0,0,0,-1,1693,1114,0,0
476,-90,0,0,0,0,0,0,0,0,0,-1,1700,1114,0,0
483,-90,0,0,0,0,0,0,0,0,0,-1,1707,1114,0,0
490,-90,0,0,0,0,0,0,0,0,0,-1,1714,1114,0,0
497,-90,0,0,0,0,0,0,0,0,0,-1,1721,1114,0,0
504,-90,0,0,0,0,0,0,0,0,0,-1,1728,1114,0,0
511,-90,0,0,0,0,0,0,0,0,0,-1,1735,1114,0,0
518,-90,0,0,0,0,0,0,0,0,0,-1,1742,1114,0,0
525,-90,0,0,0,0,0,0,0,0,0,-1,1749,1114,0,0
532,-90,0,0,0,0,0,0,0,0,0,-1,1756,1114,0,0
539,-90,0,0,0,0,0,0,0,0,0,-1,1763,1114,0,0
546,-90,0,0,0,0,0,0,0,0,0,-1,1770,1114,0,0
553,-90,0,0,0,0,0,0,0,0,0,-1,1777,1114,0,0
560,-90,0,0,0,0,0,0,0,0,0,-1,1784,1114,0,0
567,-90,0,0,0,0,0,0,0,0,0,-1,1791,1114,0,0
574,-90,0,0,0,0,0,0,0,0,0,-1,1798,1114,0,0
581,-90,0,0,0,0,0,0,0,0,0,-1,1805,1114,0,0
588,-90,0,0,0,0,0,0,0,0,0,-1,1812,1114,0,0
595,-90,0,0,0,0,0,0,0,0,0,-1,1819,1114,0,0
602,-90,0,0,0,0,0,0,0,0,0,-1,1826,1114,0,0
609,-90,0,0,0,0,0,0,0,0,0,-1,1833,1114,0,0
616,-90,0,0,0,0,0,0,0,0,0,-1,1840,1114,0,0
623,-90,0,0,0,0,0,0,0,0,0,-1,1847,1114,0,0
630,-90,0,0,0,0,0,0,0,0,0,-1,1854,1114,0,0
637,-90,0,0,0,0,0,0,0,0,0,-1,1861,1114,0,0
644,-90,34.1099,2.50623,-0.00119495,0.00239687,-0.000835753,0.00258181,-0.0013799,-1.35302,0.00232212,0.0354371,1868,1114,34.1099,-2.50627
651,-90,34.1925,2.5741,-0.0011683,0.00153854,-0.000330179,0.00157824,-0.001208,-1.45115,0.00161336,0.0394125,1875,1114,34.1925,-2.57408
658,-90,34.1899,2.54004,-0.000963193,0.000853309,-7.91833e-05,0.000856755,-0.000966638,-1.52732,0.00105337,0.0420689,1882,1114,34.19,-2.54005
665,-90,34.2314,2.53101,-0.000665281,0.000331166,7.44569e-05,0.000336699,-0.000670814,1.49662,0.000592254,0.0407503,1889,1114,34.2314,-2.53107
672,-90,34.0399,2.58386,-0.000674754,-0.000483057,0.000552712,-1.79439e-05,-0.00113987,0.871252,0.000754001,0.0418288,1896,1114,34.0399,-2.58384
679,-90,33.9769,2.75391,-0.00133291,-0.00145641,0.00145994,6.65811e-05,-0.00285591,0.764263,0.00192651,0.0406946,1903,1114,33.9769,-2.75385
686,-90,34.1019,2.82458,-0.0021313,-0.00232856,0.00230129,7.34678e-05,-0.00453333,0.763983,0.003047,0.0352172,1910,1114,34.1019,-2.82455
693,-90,34.0902,2.78906,-0.00283206,-0.00301949,0.00305379,0.000129452,-0.005981,0.770059,0.00403118,0.0334437,1917,1114,34.0902,-2.78906
700,-90,34.0767,2.71191,-0.00340023,-0.00347365,0.00364437,0.000207616,-0.0070815,0.780361,0.0047917,0.0282726,1924,1114,34.0767,-2.71197
707,-90,34.078,2.67944,-0.00393109,-0.00373744,0.00413684,0.000303713,-0.00797224,0.797099,0.0054189,0.0204587,1931,1114,34.078,-2.67947
714,-90,33.9242,5.27771,0,0,0,0,0,0,0,-1,1938,1114,33.9242,-5.27771
721,-90,32.6567,5.57751,-0.00473589,-0.00366786,0.00474519,0.000573269,-0.00897702,0.841431,0.00618463,0.0409822,1945,1114,32.6567,-5.57751
728,-90,32.306,5.57715,-0.0049197,-0.00324282,0.00485262,0.00084326,-0.00900578,0.870944,0.00630377,0.0223035,1952,1114,32.3061,-5.57721
735,-90,32.231,5.36682,-0.00513315,-0.00261322,0.00459453,0.000890972,-0.00863735,0.919224,0.00607703,0.0254877,1959,1114,32.231,-5.36685
742,-90,32.2667,5.13232,-0.00481819,-0.00167089,0.00415636,0.00119976,-0.00768883,0.966365,0.00556905,0.0214228,1966,1114,32.2667,-5.13232
749,-90,32.4083,4.90796,-0.00359996,7.5333e-05,0.00366222,0.0023351,-0.00585973,1.01794,0.00487498,0.0155715,1973,1114,32.4083,-4.90795
756,-90,32.4037,4.75269,-0.00118283,0.00152411,0.00256399,0.00306994,-0.00272866,1.02825,0.00334975,0.0156173,1980,1114,32.4037,-4.75268
763,-90,32.3496,4.5863,0.0020823,0.00343264,0.00114594,0.00408751,0.00142742,1.05161,0.00239543,0.0125208,1987,1114,32.3496,-4.58633
770,-90,32.3101,4.41187,0.00642001,0.0057483,-0.00054661,0.0067257,0.00544261,-0.509916,0.0041232,0.0151847,1994,1114,32.3101,-4.41185
777,-90,32.236,4.2937,0.0119831,0.008176,-0.00245777,0.0131883,0.00697083,-0.455896,0.00761841,0.0147565,2001,1114,32.236,-4.29376
784,-90,32.1246,4.26611,0.0189614,0.0103004,-0.00441254,0.0208134,0.00844833,-0.397389,0.0120874,0.0264762,2008,1114,32.1246,-4.2661
791,-90,31.6952,4.55786,0.0280878,0.0123972,-0.00693034,0.0307104,0.00977453,-0.361777,0.0181168,0.0394844,2015,1114,31.6952,-4.55791
798,-90,31.2961,4.74329,0,0,0,0,0,0,0,-1,2022,1114,31.2961,-4.74328
805,-90,32.6663,4.3175,0,0,0,0,0,0,0,-1,2029,1114,32.6663,-4.31756
812,-90,33.2075,4.28113,0,0,0,0,0,0,0,-1,2036,1114,33.2075,-4.28114
-700,-97,0,0,0,0,0,0,0,0,0,-1,524,1121,0,0
-693,-97,-23.8817,1.69543,0,0,0,0,0,0,0,-1,531,1121,-23.8817,-1.69542
-686,-97,-24.4344,0.979004,0,0,0,0,0,0,0,-1,538,1121,-24.4344,-0.978988
-679,-97,-24.71,0.462646,0.0060065,0.0104896,0.00581135,0.0144767,0.00201937,0.969465,0.0090534,0.0472236,545,1121,-24.71,-0.462627
-672,-97,-24.6725,-0.210449,0.00407192,0.0079639,0.00431253,0.0107492,0.00128666,0.997341,0.00677805,0.0453558,552,1121,-24.6725,0.210431
-665,-97,-22.5769,1.0033,0,0,0,0,0,0,0,-1,559,1121,-22.5769,-1.00326
-658,-97,-22.6397,1.14893,0.00136489,0.00438789,0.00180185,0.00522827,0.000524514,1.13439,0.00332449,0.0442227,566,1121,-22.6397,-1.14894
-651,-97,-22.5521,1.11658,0.00055488,0.00315879,0.000902473,0.00344099,0.000272681,1.26773,0.00220872,0.0313771,573,1121,-22.5521,-1.11658
-644,-97,-22.5519,1.40063,6.56805e-05,0.00220302,0.000121666,0.00220993,5.87773e-05,1.51412,0.00145409,0.0124274,580,1121,-22.552,-1.40062
-637,-97,-22.5648,1.63062,-0.00049004,0.00121037,-0.000655053,0.00143345,-0.000713121,-1.24256,0.00126237,0.0127953,587,1121,-22.5648,-1.63056
-630,-97,-22.5701,1.84229,-0.00104098,0.000157744,-0.00172445,0.00138402,-0.00226726,-0.952652,0.00212853,0.00987128,594,1121,-22.5701,-1.84234
-623,-97,-22.5712,2.08301,-0.00136852,-0.000498841,-0.00265591,0.00175759,-0.00362495,-0.866541,0.00316934,0.0109222,601,1121,-22.5711,-2.08307
-616,-97,-22.5773,2.32874,-0.00101268,-0.00110859,-0.00315229,0.00209202,-0.00421329,-0.777792,0.00370841,0.0140487,608,1121,-22.5773,-2.3287
-609,-97,-22.6307,2.58252,-0.000454508,-0.00160295,-0.00337064,0.00239047,-0.00444793,-0.701028,0.00400727,0.0194364,615,1121,-22.6307,-2.58252
-602,-97,-22.6636,2.75439,-0.000322478,-0.0017962,-0.00334207,0.002363,-0.00448167,-0.676894,0.00401438,0.0175631,622,1121,-22.6636,-2.75439
-595,-97,-22.5677,2.99121,-0.000499691,-0.00216858,-0.00298561,0.00176589,-0.00443416,-0.649131,0.00368844,0.0166258,629,1121,-22.5678,-2.99116
-588,-97,-22.5188,3.21472,0,0,0,0,0,0,0,-1,636,1121,-22.5188,-3.21475
-581,-97,-24.4313,0.867798,0,0,0,0,0,0,0,-1,643,1121,-24.4313,-0.867761
-574,-97,-24.3711,0.765503,-0.000674569,-0.00236271,-0.00213214,0.000774494,-0.00381177,-0.596923,0.00283484,0.0399277,650,1121,-24.3711,-0.765553
-567,-97,-24.3148,0.647583,-0.000696796,-0.00219996,-0.00167654,0.000388914,-0.00328567,-0.57468,0.00233093,0.0345928,657,1121,-24.3148,-0.64759
-560,-97,-24.2371,0.629517,-0.000787499,-0.00179473,-0.00102797,-0.00014641,-0.00243582,-0.557626,0.00157734,0.0395142,664,1121,-24.2371,-0.629539
-553,-97,-24.2571,0.66687,-0.00112894,-0.00108271,-0.000214657,-0.000889929,-0.00132172,-0.83903,0.000778228,0.0435921,671,1121,-24.2571,-0.666848
-546,-97,-24.2565,0.765747,-0.00170358,9.16865e-06,0.000775871,0.000308369,-0.00200278,1.20274,0.00144896,0.0424991,678,1121,-24.2565,-0.765747
-539,-97,-24.2311,0.830078,-0.00231969,0.00138186,0.00159643,0.00197525,-0.00291308,1.21492,0.00283954,0.0414005,685,1121,-24.2311,-0.830038
-532,-97,-24.3923,0.896729,-0.00349707,0.00251421,0.00100022,0.00267627,-0.00365913,1.41017,0.00367239,0.040824,692,1121,-24.3923,-0.896751
-525,-97,0,0,0,0,0,0,0,0,0,-1,699,1121,0,0
-518,-97,0,0,0,0,0,0,0,0,0,-1,706,1121,0,0
-511,-97,0,0,0,0,0,0,0,0,0,-1,713,1121,0,0
-504,-97,0,0,0,0,0,0,0,0,0,-1,720,1121,0,0
-497,-97,0,0,0,0,0,0,0,0,0,-1,727,1121,0,0
-490,-97,0,0,0,0,0,0,0,0,0,-1,734,1121,0,0
-483,-97,0,0,0,0,0,0,0,0,0,-1,741,1121,0,0
-476,-97,0,0,0,0,0,0,0,0,0,-1,748,1121,0,0
-469,-97,0,0,0,0,0,0,0,0,0,-1,755,1121,0,0
-462,-97,0,0,0,0,0,0,0,0,0,-1,762,1121,0,0
-455,-97,0,0,0,0,0,0,0,0,0,-1,769,1121,0,0
-448,-97,0,0,0,0,0,0,0,0,0,-1,776,1121,0,0
-441,-97,0,0,0,0,0,0,0,0,0,-1,783,1121,0,0
-434,-97,0,0,0,0,0,0,0,0,0,-1,790,1121,0,0
-427,-97,0,0,0,0,0,0,0,0,0,-1,797,1121,0,0
-420,-97,0,0,0,0,0,0,0,0,0,-1,804,1121,0,0
-413,-97,0,0,0,0,0,0,0,0,0,-1,811,1121,0,0
-406,-97,0,0,0,0,0,0,0,0,0,-1,818,1121,0,0
-399,-97,0,0,0,0,0,0,0,0,0,-1,825,1121,0,0
-392,-97,0,0,0,0,0,0,0,0,0,-1,832,1121,0,0
-385,-97,0,0,0,0,0,0,0,0,0,-1,839,1121,0,0
-378,-97,0,0,0,0,0,0,0,0,0,-1,846,1121,0,0
-371,-97,0,0,0,0,0,0,0,0,0,-1,853,1121,0,0
-364,-97,0,0,0,0,0,0,0,0,0,-1,860,1121,0,0
-357,-97,0,0,0,0,0,0,0,0,0,-1,867,1121,0,0
-350,-97,0,0,0,0,0,0,0,0,0,-1,874,1121,0,0
-343,-97,0,0,0,0,0,0,0,0,0,-1,881,1121,0,0
-336,-97,0,0,0,0,0,0,0,0,0,-1,888,1121,0,0
-329,-97,0,0,0,0,0,0,0,0,0,-1,895,1121,0,0
-322,-97,0,0,0,0,0,0,0,0,0,-1,902,1121,0,0
-315,-97,0,0,0,0,0,0,0,0,0,-1,909,1121,0,0
-308,-97,0,0,0,0,0,0,0,0,0,-1,916,1121,0,0
-301,-97,0,0,0,0,0,0,0,0,0,-1,923,1121,0,0
-294,-97,0,0,0,0,0,0,0,0,0,-1,930,1121,0,0
-287,-97,0,0,0,0,0,0,0,0,0,-1,937,1121,0,0
-280,-97,0,0,0,0,0,0,0,0,0,-1,944,1121,0,0
-273,-97,0,0,0,0,0,0,0,0,0,-1,951,1121,0,0
-266,-97,0,0,0,0,0,0,0,0,0,-1,958,1121,0,0
-259,-97,0,0,0,0,0,0,0,0,0,-1,965,1121,0,0
-252,-97,0,0,0,0,0,0,0,0,0,-1,972,1121,0,0
-245,-97,0,0,0,0,0,0,0,0,0,-1,979,1121,0,0
-238,-97,0,0,0,0,0,0,0,0,0,-1,986,1121,0,0
-231,-97,0,0,0,0,0,0,0,0,0,-1,993,1121,0,0
-224,-97,0,0,0,0,0,0,0,0,0,-1,1000,1121,0,0
-217,-97,0,0,0,0,0,0,0,0,0,-1,1007,1121,0,0
-210,-97,0,0,0,0,0,0,0,0,0,-1,1014,1121,0,0
-203,-97,0,0,0,0,0,0,0,0,0,-1,1021,1121,0,0
-196,-97,0,0,0,0,0,0,0,0,0,-1,1028,1121,0,0
-189,-97,0,0,0,0,0,0,0,0,0,-1,1035,1121,0,0
-182,-97,0,0,0,0,0,0,0,0,0,-1,1042,1121,0,0
-175,-97,0,0,0,0,0,0,0,0,0,-1,1049,1121,0,0
-168,-97,0,0,0,0,0,0,0,0,0,-1,1056,1121,0,0
-161,-97,0,0,0,0,0,0,0,0,0,-1,1063,1121,0,0
-154,-97,0,0,0,0,0,0,0,0,0,-1,1070,1121,0,0
-147,-97,0,0,0,0,0,0,0,0,0,-1,1077,1121,0,0
-140,-97,0,0,0,0,0,0,0,0,0,-1,1084,1121,0,0
-133,-97,0,0,0,0,0,0,0,0,0,-1,1091,1121,0,0
-126,-97,0,0,0,0,0,0,0,0,0,-1,1098,1121,0,0
-119,-97,0,0,0,0,0,0,0,0,0,-1,1105,1121,0,0
-112,-97,0,0,0,0,0,0,0,0,0,-1,1112,1121,0,0
-105,-97,0,0,0,0,0,0,0,0,0,-1,1119,1121,0,0
-98,-97,0,0,0,0,0,0,0,0,0,-1,1126,1121,0,0
-91,-97,0,0,0,0,0,0,0,0,0,-1,1133,1121,0,0
-84,-97,0,0,0,0,0,0,0,0,0,-1,1140,1121,0,0
-77,-97,0,0,0,0,0,0,0,0,0,-1,1147,1121,0,0
-70,-97,0,0,0,0,0,0,0,0,0,-1,1154,1121,0,0
-63,-97,0,0,0,0,0,0,0,0,0,-1,1161,1121,0,0
-56,-97,0,0,0,0,0,0,0,0,0,-1,1168,1121,0,0
-49,-97,0,0,0,0,0,0,0,0,0,-1,1175,1121,0,0
-42,-97,0,0,0,0,0,0,0,0,0,-1,1182,1121,0,0
-35,-97,0,0,0,0,0,0,0,0,0,-1,1189,1121,0,0
-28,-97,0,0,0,0,0,0,0,0,0,-1,1196,1121,0,0
-21,-97,0,0,0,0,0,0,0,0,0,-1,1203,1121,0,0
-14,-97,0,0,0,0,0,0,0,0,0,-1,1210,1121,0,0
-7,-97,0,0,0,0,0,0,0,0,0,-1,1217,1121,0,0
0,-97,0,0,0,0,0,0,0,0,0,-1,1224,1121,0,0
7,-97,0,0,0,0,0,0,0,0,0,-1,1231,1121,0,0
14,-97,0,0,0,0,0,0,0,0,0,-1,1238,1121,0,0
21,-97,0,0,0,0,0,0,0,0,0,-1,1245,1121,0,0
28,-97,0,0,0,0,0,0,0,0,0,-1,1252,1121,0,0
35,-97,0,0,0,0,0,0,0,0,0,-1,1259,1121,0,0
42,-97,0,0,0,0,0,0,0,0,0,-1,1266,1121,0,0
49,-97,0,0,0,0,0,0,0,0,0,-1,1273,1121,0,0
56,-97,0,0,0,0,0,0,0,0,0,-1,1280,1121,0,0
63,-97,0,0,0,0,0,0,0,0,0,-1,1287,1121,0,0
70,-97,0,0,0,0,0,0,0,0,0,-1,1294,1121,0,0
77,-97,0,0,0,0,0,0,0,0,0,-1,1301,1121,0,0
84,-97,0,0,0,0,0,0,0,0,0,-1,1308,1121,0,0
91,-97,0,0,0,0,0,0,0,0,0,-1,1315,1121,0,0
98,-97,0,0,0,0,0,0,0,0,0,-1,1322,1121,0,0
105,-97,0,0,0,0,0,0,0,0,0,-1,1329,1121,0,0
112,-97,0,0,0,0,0,0,0,0,0,-1,1336,1121,0,0
119,-97,0,0,0,0,0,0,0,0,0,-1,1343,1121,0,0
126,-97,0,0,0,0,0,0,0,0,0,-1,1350,1121,0,0
133,-97,0,0,0,0,0,0,0,0,0,-1,1357,1121,0,0
140,-97,0,0,0,0,0,0,0,0,0,-1,1364,1121,0,0
147,-97,0,0,0,0,0,0,0,0,0,-1,1371,1121,0,0
154,-97,0,0,0,0,0,0,0,0,0,-1,1378,1121,0,0
161,-97,0,0,0,0,0,0,0,0,0,-1,1385,1121,0,0
168,-97,0,0,0,0,0,0,0,0,0,-1,1392,1121,0,0
175,-97,0,0,0,0,0,0,0,0,0,-1,1399,1121,0,0
182,-97,0,0,0,0,0,0,0,0,0,-1,1406,1121,0,0
189,-97,0,0,0,0,0,0,0,0,0,-1,1413,1121,0,0
196,-97,0,0,0,0,0,0,0,0,0,-1,1420,1121,0,0
203,-97,0,0,0,0,0,0,0,0,0,-1,1427,1121,0,0
210,-97,0,0,0,0,0,0,0,0,0,-1,1434,1121,0,0
217,-97,0,0,0,0,0,0,0,0,0,-1,1441,1121,0,0
224,-97,0,0,0,0,0,0,0,0,0,-1,1448,1121,0,0
231,-97,0,0,0,0,0,0,0,0,0,-1,1455,1121,0,0
238,-97,0,0,0,0,0,0,0,0,0,-1,1462,1121,0,0
245,-97,0,0,0,0,0,0,0,0,0,-1,1469,1121,0,0
252,-97,0,0,0,0,0,0,0,0,0,-1,1476,1121,0,0
259,-97,0,0,0,0,0,0,0,0,0,-1,1483,1121,0,0
266,-97,0,0,0,0,0,0,0,0,0,-1,1490,1121,0,0
273,-97,0,0,0,0,0,0,0,0,0,-1,1497,1121,0,0
280,-97,0,0,0,0,0,0,0,0,0,-1,1504,1121,0,0
287,-97,0,0,0,0,0,0,0,0,0,-1,1511,1121,0,0
294,-97,0,0,0,0,0,0,0,0,0,-1,1518,1121,0,0
301,-97,0,0,0,0,0,0,0,0,0,-1,1525,1121,0,0
308,-97,0,0,0,0,0,0,0,0,0,-1,1532,1121,0,0
315,-97,0,0,0,0,0,0,0,0,0,-1,1539,1121,0,0
322,-97,0,0,0,0,0,0,0,0,0,-1,1546,1121,0,0
329,-97,0,0,0,0,0,0,0,0,0,-1,1553,1121,0,0
336,-97,0,0,0,0,0,0,0,0,0,-1,1560,1121,0,0
343,-97,0,0,0,0,0,0,0,0,0,-1,1567,1121,0,0
350,-97,0,0,0,0,0,0,0,0,0,-1,1574,1121,0,0
357,-97,0,0,0,0,0,0,0,0,0,-1,1581,1121,0,0
364,-97,0,0,0,0,0,0,0,0,0,-1,1588,1121,0,0
371,-97,0,0,0,0,0,0,0,0,0,-1,1595,1121,0,0
378,-97,0,0,0,0,0,0,0,0,0,-1,1602,1121,0,0
385,-97,0,0,0,0,0,0,0,0,0,-1,1609,1121,0,0
392,-97,0,0,0,0,0,0,0,0,0,-1,1616,1121,0,0
399,-97,0,0,0,0,0,0,0,0,0,-1,1623,1121,0,0
406,-97,0,0,0,0,0,0,0,0,0,-1,1630,1121,0,0
413,-97,0,0,0,0,0,0,0,0,0,-1,1637,1121,0,0
420,-97,0,0,0,0,0,0,0,0,0,-1,1644,1121,0,0
427,-97,0,0,0,0,0,0,0,0,0,-1,1651,1121,0,0
434,-97,0,0,0,0,0,0,0,0,0,-1,1658,1121,0,0
441,-97,0,0,0,0,0,0,0,0,0,-1,1665,1121,0,0
448,-97,0,0,0,0,0,0,0,0,0,-1,1672,1121,0,0
455,-97,0,0,0,0,0,0,0,0,0,-1,1679,1121,0,0
462,-97,0,0,0,0,0,0,0,0,0,-1,1686,1121,0,0
469,-97,0,0,0,0,0,0,0,0,0,-1,1693,1121,0,0
476,-97,0,0,0,0,0,0,0,0,0,-1,1700,1121,0,0
483,-97,0,0,0,0,0,0,0,0,0,-1,1707,1121,0,0
490,-97,0,0,0,0,0,0,0,0,0,-1,1714,1121,0,0
497,-97,0,0,0,0,0,0,0,0,0,-1,1721,1121,0,0
504,-97,0,0,0,0,0,0,0,0,0,-1,1728,1121,0,0
511,-97,0,0,0,0,0,0,0,0,0,-1,1735,1121,0,0
518,-97,0,0,0,0,0,0,0,0,0,-1,1742,1121,0,0
525,-97,0,0,0,0,0,0,0,0,0,-1,1749,1121,0,0
532,-97,0,0,0,0,0,0,0,0,0,-1,1756,1121,0,0
539,-97,0,0,0,0,0,0,0,0,0,-1,1763,1121,0,0
546,-97,0,0,0,0,0,0,0,0,0,-1,1770,1121,0,0
553,-97,0,0,0,0,0,0,0,0,0,-1,1777,1121,0,0
560,-97,0,0,0,0,0,0,0,0,0,-1,1784,1121,0,0
567,-97,0,0,0,0,0,0,0,0,0,-1,1791,1121,0,0
574,-97,0,0,0,0,0,0,0,0,0,-1,1798,1121,0,0
581,-97,0,0,0,0,0,0,0,0,0,-1,1805,1121,0,0
588,-97,0,0,0,0,0,0,0,0,0,-1,1812,1121,0,0
595,-97,0,0,0,0,0,0,0,0,0,-1,1819,1121,0,0
602,-97,0,0,0,0,0,0,0,0,0,-1,1826,1121,0,0
609,-97,0,0,0,0,0,0,0,0,0,-1,1833,1121,0,0
616,-97,0,0,0,0,0,0,0,0,0,-1,1840,1121,0,0
623,-97,0,0,0,0,0,0,0,0,0,-1,1847,1121,0,0
630,-97,0,0,0,0,0,0,0,0,0,-1,1854,1121,0,0
637,-97,0,0,0,0,0,0,0,0,0,-1,1861,1121,0,0
644,-97,34.1802,2.68018,-0.00199779,0.00200276,-0.000857696,0.00217889,-0.00217392,-1.36826,0.0025131,0.0371097,1868,1121,34.1802,-2.68012
651,-97,34.2531,2.67542,-0.0017452,0.00114245,-0.000311648,0.0011757,-0.00177845,-1.4645,0.00171737,0.0377603,1875,1121,34.253,-2.67538
658,-97,34.145,2.54163,-0.00135365,0.000469344,-6.01869e-05,0.000471329,-0.00135563,-1.53783,0.00109521,0.03862,1882,1121,34.145,-2.54157
665,-97,34.1313,2.47864,-0.000914289,-2.61999e-05,9.46551e-05,-1.62233e-05,-0.000924266,1.46579,0.000610841,0.0409617,1889,1121,34.1314,-2.47859
672,-97,34.0559,2.51624,-0.000904086,-0.000863553,0.000590147,-0.000293324,-0.00147431,0.802562,0.000901158,0.0432422,1896,1121,34.0559,-2.51629
679,-97,33.976,2.75256,-0.00153904,-0.00174868,0.00141125,-0.000228727,-0.003059,0.74833,0.00196753,0.042932,1903,1121,33.9759,-2.75259
686,-97,34.0341,2.97852,-0.00230362,-0.00250998,0.00214205,-0.000262267,-0.00455134,0.761332,0.00295069,0.0375618,1910,1121,34.0341,-2.97854
693,-97,34.0358,2.82422,-0.00296917,-0.0030835,0.0027781,-0.000247644,-0.00580502,0.775111,0.00379016,0.033952,1917,1121,34.0357,-2.82425
700,-97,34.046,2.65674,-0.00348041,-0.0034458,0.00328577,-0.00017729,-0.00674892,0.788031,0.00444136,0.02581,1924,1121,34.046,-2.65672
707,-97,34.0647,2.67542,-0.0039844,-0.00365162,0.00371253,-0.000101757,-0.00753427,0.807792,0.00498927,0.0184163,1931,1121,34.0647,-2.67545
714,-97,33.6958,5.38794,0,0,0,0,0,0,0,-1,1938,1121,33.6958,-5.38799
721,-97,32.4807,5.54883,-0.00479681,-0.00348964,0.00423622,0.000143116,-0.00842956,0.861937,0.00566802,0.0481708,1945,1121,32.4807,-5.54889
728,-97,32.1666,5.54956,-0.00495863,-0.00304257,0.00435948,0.000462907,-0.00846411,0.893558,0.0058032,0.0206064,1952,1121,32.1667,-5.54951
735,-97,32.1407,5.33179,-0.00527874,-0.00240476,0.00402859,0.000435449,-0.00811895,0.956713,0.00556347,0.0212393,1959,1121,32.1408,-5.33176
742,-97,32.1211,5.12769,-0.00524428,-0.00148785,0.00350496,0.000610418,-0.00734255,1.03136,0.00511067,0.0167625,1966,1121,32.1211,-5.12766
749,-97,32.1519,4.93713,-0.00414186,0.00034144,0.00305165,0.00188629,-0.0056867,1.10217,0.00455209,0.0188749,1973,1121,32.1518,-4.93719
756,-97,32.1554,4.74561,-0.00185261,0.00207565,0.00191953,0.00285786,-0.00263483,1.18384,0.00317208,0.0158154,1980,1121,32.1554,-4.74564
763,-97,32.1271,4.57703,0.0010396,0.00450845,0.000439344,0.00456323,0.000984822,1.44675,0.0027728,0.0119882,1987,1121,32.1271,-4.57698
770,-97,32.1111,4.41199,0.00493423,0.00746461,-0.00131923,0.00802728,0.00437156,-1.16764,0.00464069,0.0102645,1994,1121,32.1111,-4.41197
777,-97,32.1,4.24194,0.00992315,0.0107522,-0.00326813,0.013632,0.00704335,-0.848479,0.00787189,0.0146707,2001,1121,32.0999,-4.24193
784,-97,32.1042,4.11169,0.0163052,0.0142423,-0.00528029,0.0206538,0.00989366,-0.688945,0.011928,0.0357097,2008,1121,32.1042,-4.11173
791,-97,32.214,4.04395,0.0248222,0.0182986,-0.00779152,0.0300071,0.0131137,-0.587165,0.0173704,0.0448007,2015,1121,32.214,-4.04391
798,-97,32.7786,3.45422,0.0362888,0.0230274,-0.011049,0.042544,0.0167722,-0.515145,0.0247453,0.0439079,2022,1121,32.7786,-3.45426
805,-97,32.8535,3.05237,0,0,0,0,0,0,0,-1,2029,1121,32.8536,-3.05232
812,-97,31.9902,3.57104,0,0,0,0,0,0,0,-1,2036,1121,31.9902,-3.5711
-700,-104,0,0,0,0,0,0,0,0,0,-1,524,1128,0,0
-693,-104,-26.5013,0.956421,0.00966058,0.018095,0.00930366,0.0240926,0.00366294,0.998189,0.0149907,0.0489194,531,1128,-26.5013,-0.956467
-686,-104,-26.1844,0.546875,0.00633648,0.0141476,0.00681526,0.018097,0.00238703,1.04559,0.011353,0.0483479,538,1128,-26.1844,-0.546885
-679,-104,-25.6013,0.261108,0.00400911,0.0110749,0.00469855,0.0134206,0.00166342,1.10776,0.00844735,0.044872,545,1128,-25.6013,-0.261087
-672,-104,-25.2073,-0.24353,0.00240341,0.00860459,0.00293716,0.0097749,0.00123311,1.19163,0.00614693,0.0484225,552,1128,-25.2073,0.243548
-665,-104,-22.2506,1.91846,0,0,0,0,0,0,0,-1,559,1128,-22.2506,-1.91849
-658,-104,-22.3796,1.75818,0.000448528,0.00501932,0.000440307,0.00506135,0.000406499,1.47563,0.00324723,0.0432832,566,1128,-22.3796,-1.7582
-651,-104,-22.4058,1.45081,-6.70582e-05,0.00372957,-0.000310729,0.00375483,-9.23213e-05,-1.48967,0.00253455,0.0360974,573,1128,-22.4058,-1.45084
-644,-104,-22.3289,1.39136,-0.000351366,0.00265466,-0.00084955,0.00287814,-0.000574847,-1.31357,0.00213631,0.0155737,580,1128,-22.3289,-1.39141
-637,-104,-22.3029,1.59448,-0.000763374,0.00170764,-0.00135738,0.0023076,-0.00136334,-1.15461,0.00214266,0.0114211,587,1128,-22.3029,-1.59452
-630,-104,-22.3069,1.81311,-0.00106725,0.000564109,-0.00197855,0.00188853,-0.00239166,-0.980913,0.00247685,0.0131456,594,1128,-22.3069,-1.81313
-623,-104,-22.3222,2.07629,-0.00122559,-0.000148956,-0.00238192,0.00175472,-0.00312926,-0.896532,0.00285675,0.0150217,601,1128,-22.3222,-2.07627
-616,-104,-22.4417,2.36414,-0.000811515,-0.00073852,-0.00248587,0.00171112,-0.00326116,-0.792739,0.00291687,0.01634,608,1128,-22.4416,-2.36416
-609,-104,-22.5212,2.51733,-0.000245719,-0.00122562,-0.00241049,0.00172411,-0.00319545,-0.685135,0.00288234,0.0212811,615,1128,-22.5213,-2.51733
-602,-104,-22.4059,2.76965,-0.000119339,-0.00143348,-0.00220261,0.00152212,-0.00307494,-0.640444,0.00270412,0.0193148,622,1128,-22.4059,-2.76963
-595,-104,-22.3204,3.05811,-0.000331548,-0.0018318,-0.00173235,0.000806107,-0.00296945,-0.58108,0.002296,0.0164354,629,1128,-22.3204,-3.05811
-588,-104,-22.462,3.16516,0,0,0,0,0,0,0,-1,636,1128,-22.462,-3.16511
-581,-104,-22.7557,2.95117,0,0,0,0,0,0,0,-1,643,1128,-22.7557,-2.95122
-574,-104,-24.3356,0.693481,0,0,0,0,0,0,0,-1,650,1128,-24.3356,-0.693488
-567,-104,-24.2354,0.691284,-0.000591576,-0.0017508,-0.00068499,-0.00027388,-0.0020685,-0.434267,0.00129738,0.036363,657,1128,-24.2354,-0.691308
-560,-104,-24.1559,0.623779,-0.000705694,-0.00138465,-0.000279294,-0.00060557,-0.00148478,-0.344218,0.000862076,0.0423124,664,1128,-24.1559,-0.62376
-553,-104,-24.2421,0.405273,-0.00111136,-0.000739495,0.000128896,-0.000699187,-0.00115167,1.26771,0.000669982,0.0495929,671,1128,-24.2421,-0.405278
-546,-104,-24.2388,0.601807,-0.00179886,0.000274601,0.000515372,0.000395634,-0.0019199,1.34013,0.00143017,0.0464911,678,1128,-24.2387,-0.60184
-539,-104,-24.3056,0.830688,-0.00260141,0.00157936,0.000574556,0.00165688,-0.00267893,1.43668,0.00252636,0.0390836,685,1128,-24.3056,-0.830748
-532,-104,-24.517,0.907715,-0.0035615,0.00283012,-0.000389903,0.00285382,-0.0035852,-1.51009,0.00372555,0.0405305,692,1128,-24.517,-0.907737
-525,-104,-24.6629,0.96167,-0.00502735,0.00405634,-0.00250747,0.00470254,-0.00567354,-1.31858,0.00599937,0.0406574,699,1128,-24.6629,-0.961705
-518,-104,0,0,0,0,0,0,0,0,0,-1,706,1128,0,0
-511,-104,0,0,0,0,0,0,0,0,0,-1,713,1128,0,0
-504,-104,0,0,0,0,0,0,0,0,0,-1,720,1128,0,0
-497,-104,0,0,0,0,0,0,0,0,0,-1,727,1128,0,0
-490,-104,0,0,0,0,0,0,0,0,0,-1,734,1128,0,0
-483,-104,0,0,0,0,0,0,0,0,0,-1,741,1128,0,0
-476,-104,0,0,0,0,0,0,0,0,0,-1,748,1128,0,0
-469,-104,0,0,0,0,0,0,0,0,0,-1,755,1128,0,0
-462,-104,0,0,0,0,0,0,0,0,0,-1,762,1128,0,0
-455,-104,0,0,0,0,0,0,0,0,0,-1,769,1128,0,0
-448,-104,0,0,0,0,0,0,0,0,0,-1,776,1128,0,0
-441,-104,0,0,0,0,0,0,0,0,0,-1,783,1128,0,0
-434,-104,0,0,0,0,0,0,0,0,0,-1,790,1128,0,0
-427,-104,0,0,0,0,0,0,0,0,0,-1,797,1128,0,0
-420,-104,0,0,0,0,0,0,0,0,0,-1,804,1128,0,0
-413,-104,0,0,0,0,0,0,0,0,0,-1,811,1128,0,0
-406,-104,0,0,0,0,0,0,0,0,0,-1,818,1128,0,0
-399,-104,0,0,0,0,0,0,0,0,0,-1,825,1128,0,0
-392,-104,0,0,0,0,0,0,0,0,0,-1,832,1128,0,0
-385,-104,0,0,0,0,0,0,0,0,0,-1,839,1128,0,0
-378,-104,0,0,0,0,0,0,0,0,0,-1,846,1128,0,0
-371,-104,0,0,0,0,0,0,0,0,0,-1,853,1128,0,0
-364,-104,0,0,0,0,0,0,0,0,0,-1,860,1128,0,0
-357,-104,0,0,0,0,0,0,0,0,0,-1,867,1128,0,0
-350,-104,0,0,0,0,0,0,0,0,0,-1,874,1128,0,0
-343,-104,0,0,0,0,0,0,0,0,0,-1,881,1128,0,0
-336,-104,0,0,0,0,0,0,0,0,0,-1,888,1128,0,0
-329,-104,0,0,0,0,0,0,0,0,0,-1,895,1128,0,0
-322,-104,0,0,0,0,0,0,0,0,0,-1,902,1128,0,0
-315,-104,0,0,0,0,0,0,0,0,0,-1,909,1128,0,0
-308,-104,0,0,0,0,0,0,0,0,0,-1,916,1128,0,0
-301,-104,0,0,0,0,0,0,0,0,0,-1,923,1128,0,0
-294,-104,0,0,0,0,0,0,0,0,0,-1,930,1128,0,0
-287,-104,0,0,0,0,0,0,0,0,0,-1,937,1128,0,0
-280,-104,0,0,0,0,0,0,0,0,0,-1,944,1128,0,0
-273,-104,0,0,0,0,0,0,0,0,0,-1,951,1128,0,0
-266,-104,0,0,0,0,0,0,0,0,0,-1,958,1128,0,0
-259,-104,0,0,0,0,0,0,0,0,0,-1,965,1128,0,0
-252,-104,0,0,0,0,0,0,0,0,0,-1,972,1128,0,0
-245,-104,0,0,0,0,0,0,0,0,0,-1,979,1128,0,0
-238,-104,0,0,0,0,0,0,0,0,0,-1,986,1128,0,0
-231,-104,0,0,0,0,0,0,0,0,0,-1,993,1128,0,0
-224,-104,0,0,0,0,0,0,0,0,0,-1,1000,1128,0,0
-217,-104,0,0,0,0,0,0,0,0,0,-1,1007,1128,0,0
-210,-104,0,0,0,0,0,0,0,0,0,-1,1014,1128,0,0
-203,-104,0,0,0,0,0,0,0,0,0,-1,1021,1128,0,0
-196,-104,0,0,0,0,0,0,0,0,0,-1,1028,1128,0,0
-189,-104,0,0,0,0,0,0,0,0,0,-1,1035,1128,0,0
-182,-104,0,0,0,0,0,0,0,0,0,-1,1042,1128,0,0
-175,-104,0,0,0,0,0,0,0,0,0,-1,1049,1128,0,0
-168,-104,0,0,0,0,0,0,0,0,0,-1,1056,1128,0,0
-161,-104,0,0,0,0,0,0,0,0,0,-1,1063,1128,0,0
-154,-104,0,0,0,0,0,0,0,0,0,-1,1070,1128,0,0
-147,-104,0,0,0,0,0,0,0,0,0,-1,1077,1128,0,0
-140,-104,0,0,0,0,0,0,0,0,0,-1,1084,1128,0,0
-133,-104,0,0,0,0,0,0,0,0,0,-1,1091,1128,0,0
-126,-104,0,0,0,0,0,0,0,0,0,-1,1098,1128,0,0
-119,-104,0,0,0,0,0,0,0,0,0,-1,1105,1128,0,0
-112,-104,0,0,0,0,0,0,0,0,0,-1,1112,1128,0,0
-105,-104,0,0,0,0,0,0,0,0,0,-1,1119,1128,0,0
-98,-104,0,0,0,0,0,0,0,0,0,-1,1126,1128,0,0
-91,-104,0,0,0,0,0,0,0,0,0,-1,1133,1128,0,0
-84,-104,0,0,0,0,0,0,0,0,0,-1,1140,1128,0,0
-77,-104,0,0,0,0,0,0,0,0,0,-1,1147,1128,0,0
-70,-104,0,0,0,0,0,0,0,0,0,-1,1154,1128,0,0
-63,-104,0,0,0,0,0,0,0,0,0,-1,1161,1128,0,0
-56,-104,0,0,0,0,0,0,0,0,0,-1,1168,1128,0,0
-49,-104,0,0,0,0,0,0,0,0,0,-1,1175,1128,0,0
-42,-104,0,0,0,0,0,0,0,0,0,-1,1182,1128,0,0
-35,-104,0,0,0,0,0,0,0,0,0,-1,1189,1128,0,0
-28,-104,0,0,0,0,0,0,0,0,0,-1,1196,1128,0,0
-21,-104,0,0,0,0,0,0,0,0,0,-1,1203,1128,0,0
-14,-104,0,0,0,0,0,0,0,0,0,-1,1210,1128,0,0
-7,-104,0,0,0,0,0,0,0,0,0,-1,1217,1128,0,0
0,-104,0,0,0,0,0,0,0,0,0,-1,1224,1128,0,0
7,-104,0,0,0,0,0,0,0,0,0,-1,1231,1128,0,0
14,-104,0,0,0,0,0,0,0,0,0,-1,1238,1128,0,0
21,-104,0,0,0,0,0,0,0,0,0,-1,1245,1128,0,0
28,-104,0,0,0,0,0,0,0,0,0,-1,1252,1128,0,0
35,-104,0,0,0,0,0,0,0,0,0,-1,1259,1128,0,0
42,-104,0,0,0,0,0,0,0,0,0,-1,1266,1128,0,0
49,-104,0,0,0,0,0,0,0,0,0,-1,1273,1128,0,0
56,-104,0,0,0,0,0,0,0,0,0,-1,1280,1128,0,0
63,-104,0,0,0,0,0,0,0,0,0,-1,1287,1128,0,0
70,-104,0,0,0,0,0,0,0,0,0,-1,1294,1128,0,0
77,-104,0,0,0,0,0,0,0,0,0,-1,1301,1128,0,0
84,-104,0,0,0,0,0,0,0,0,0,-1,1308,1128,0,0
91,-104,0,0,0,0,0,0,0,0,0,-1,1315,1128,0,0
98,-104,0,0,0,0,0,0,0,0,0,-1,1322,1128,0,0
105,-104,0,0,0,0,0,0,0,0,0,-1,1329,1128,0,0
112,-104,0,0,0,0,0,0,0,0,0,-1,1336,1128,0,0
119,-104,0,0,0,0,0,0,0,0,0,-1,1343,1128,0,0
126,-104,0,0,0,0,0,0,0,0,0,-1,1350,1128,0,0
133,-104,0,0,0,0,0,0,0,0,0,-1,1357,1128,0,0
140,-104,0,0,0,0,0,0,0,0,0,-1,1364,1128,0,0
147,-104,0,0,0,0,0,0,0,0,0,-1,1371,1128,0,0
154,-104,0,0,0,0,0,0,0,0,0,-1,1378,1128,0,0
161,-104,0,0,0,0,0,0,0,0,0,-1,1385,1128,0,0
168,-104,0,0,0,0,0,0,0,0,0,-1,1392,1128,0,0
175,-104,0,0,0,0,0,0,0,0,0,-1,1399,1128,0,0
182,-104,0,0,0,0,0,0,0,0,0,-1,1406,1128,0,0
189,-104,0,0,0,0,0,0,0,0,0,-1,1413,1128,0,0
196,-104,0,0,0,0,0,0,0,0,0,-1,1420,1128,0,0
203,-104,0,0,0,0,0,0,0,0,0,-1,1427,1128,0,0
210,-104,0,0,0,0,0,0,0,0,0,-1,1434,1128,0,0
217,-104,0,0,0,0,0,0,0,0,0,-1,1441,1128,0,0
224,-104,0,0,0,0,0,0,0,0,0,-1,1448,1128,0,0
231,-104,0,0,0,0,0,0,0,0,0,-1,1455,1128,0,0
238,-104,0,0,0,0,0,0,0,0,0,-1,1462,1128,0,0
245,-104,0,0,0,0,0,0,0,0,0,-1,1469,1128,0,0
252,-104,0,0,0,0,0,0,0,0,0,-1,1476,1128,0,0
259,-104,0,0,0,0,0,0,0,0,0,-1,1483,1128,0,0
266,-104,0,0,0,0,0,0,0,0,0,-1,1490,1128,0,0
273,-104,0,0,0,0,0,0,0,0,0,-1,1497,1128,0,0
280,-104,0,0,0,0,0,0,0,0,0,-1,1504,1128,0,0
287,-104,0,0,0,0,0,0,0,0,0,-1,1511,1128,0,0
294,-104,0,0,0,0,0,0,0,0,0,-1,1518,1128,0,0
301,-104,0,0,0,0,0,0,0,0,0,-1,1525,1128,0,0
308,-104,0,0,0,0,0,0,0,0,0,-1,1532,1128,0,0
315,-104,0,0,0,0,0,0,0,0,0,-1,1539,1128,0,0
322,-104,0,0,0,0,0,0,0,0,0,-1,1546,1128,0,0
329,-104,0,0,0,0,0,0,0,0,0,-1,1553,1128,0,0
336,-104,0,0,0,0,0,0,0,0,0,-1,1560,1128,0,0
343,-104,0,0,0,0,0,0,0,0,0,-1,1567,1128,0,0
350,-104,0,0,0,0,0,0,0,0,0,-1,1574,1128,0,0
357,-104,0,0,0,0,0,0,0,0,0,-1,1581,1128,0,0
364,-104,0,0,0,0,0,0,0,0,0,-1,1588,1128,0,0
371,-104,0,0,0,0,0,0,0,0,0,-1,1595,1128,0,0
378,-104,0,0,0,0,0,0,0,0,0,-1,1602,1128,0,0
385,-104,0,0,0,0,0,0,0,0,0,-1,1609,1128,0,0
392,-104,0,0,0,0,0,0,0,0,0,-1,1616,1128,0,0
399,-104,0,0,0,0,0,0,0,0,0,-1,1623,1128,0,0
406,-104,0,0,0,0,0,0,0,0,0,-1,1630,1128,0,0
413,-104,0,0,0,0,0,0,0,0,0,-1,1637,1128,0,0
420,-104,0,0,0,0,0,0,0,0,0,-1,1644,1128,0,0
427,-104,0,0,0,0,0,0,0,0,0,-1,1651,1128,0,0
434,-104,0,0,0,0,0,0,0,0,0,-1,1658,1128,0,0
441,-104,0,0,0,0,0,0,0,0,0,-1,1665,1128,0,0
448,-104,0,0,0,0,0,0,0,0,0,-1,1672,1128,0,0
455,-104,0,0,0,0,0,0,0,0,0,-1,1679,1128,0,0
462,-104,0,0,0,0,0,0,0,0,0,-1,1686,1128,0,0
469,-104,0,0,0,0,0,0,0,0,0,-1,1693,1128,0,0
476,-104,0,0,0,0,0,0,0,0,0,-1,1700,1128,0,0
483,-104,0,0,0,0,0,0,0,0,0,-1,1707,1128,0,0
490,-104,0,0,0,0,0,0,0,0,0,-1,1714,1128,0,0
497,-104,0,0,0,0,0,0,0,0,0,-1,1721,1128,0,0
504,-104,0,0,0,0,0,0,0,0,0,-1,1728,1128,0,0
511,-104,0,0,0,0,0,0,0,0,0,-1,1735,1128,0,0
518,-104,0,0,0,0,0,0,0,0,0,-1,1742,1128,0,0
525,-104,0,0,0,0,0,0,0,0,0,-1,1749,1128,0,0
532,-104,0,0,0,0,0,0,0,0,0,-1,1756,1128,0,0
539,-104,0,0,0,0,0,0,0,0,0,-1,1763,1128,0,0
546,-104,0,0,0,0,0,0,0,0,0,-1,1770,1128,0,0
553,-104,0,0,0,0,0,0,0,0,0,-1,1777,1128,0,0
560,-104,0,0,0,0,0,0,0,0,0,-1,1784,1128,0,0
567,-104,0,0,0,0,0,0,0,0,0,-1,1791,1128,0,0
574,-104,0,0,0,0,0,0,0,0,0,-1,1798,1128,0,0
581,-104,0,0,0,0,0,0,0,0,0,-1,1805,1128,0,0
588,-104,0,0,0,0,0,0,0,0,0,-1,1812,1128,0,0
595,-104,0,0,0,0,0,0,0,0,0,-1,1819,1128,0,0
602,-104,0,0,0,0,0,0,0,0,0,-1,1826,1128,0,0
609,-104,0,0,0,0,0,0,0,0,0,-1,1833,1128,0,0
616,-104,0,0,0,0,0,0,0,0,0,-1,1840,1128,0,0
623,-104,0,0,0,0,0,0,0,0,0,-1,1847,1128,0,0
630,-104,0,0,0,0,0,0,0,0,0,-1,1854,1128,0,0
637,-104,0,0,0,0,0,0,0,0,0,-1,1861,1128,0,0
644,-104,34.0486,2.84167,-0.0022577,0.00243602,-0.000420288,0.00247336,-0.00229504,-1.48219,0.00275368,0.0378165,1868,1128,34.0486,-2.84166
651,-104,34.1506,2.75635,-0.00197429,0.00161952,9.36696e-05,0.00162196,-0.00197673,1.54476,0.00208107,0.0394596,1875,1128,34.1506,-2.75636
658,-104,34.1581,2.70618,-0.00153199,0.000941093,0.00030097,0.000977194,-0.00156809,1.45142,0.00148266,0.0420475,1882,1128,34.1581,-2.70618
665,-104,34.1844,2.64539,-0.0010522,0.000401116,0.000404051,0.000505896,-0.00115698,1.31706,0.000984286,0.0440426,1889,1128,34.1844,-2.64536
672,-104,34.1671,2.54504,-0.00106196,-0.000530399,0.000871859,0.00011529,-0.00170765,0.933345,0.00117874,0.0443527,1896,1128,34.1672,-2.54508
679,-104,34.0076,2.6283,-0.00165652,-0.00142486,0.00158123,4.47823e-05,-0.00312616,0.821959,0.00209919,0.043348,1903,1128,34.0075,-2.62825
686,-104,33.9971,2.96057,-0.00234688,-0.00218261,0.00219134,-7.18655e-05,-0.00445762,0.80413,0.00294808,0.0406296,1910,1128,33.9971,-2.96059
693,-104,34.0444,2.93188,-0.00293883,-0.00274179,0.00270335,-0.000135171,-0.00554545,0.803612,0.00365275,0.0348254,1917,1128,34.0444,-2.93194
700,-104,34.0535,2.68433,-0.00334647,-0.00309672,0.00312772,-9.13809e-05,-0.00635181,0.80535,0.00420441,0.025592,1924,1128,34.0535,-2.68429
707,-104,34.0607,2.71204,-0.00377823,-0.00331705,0.00347974,-6.02659e-05,-0.00703502,0.818483,0.00467005,0.0324066,1931,1128,34.0607,-2.71203
714,-104,32.4055,5.81055,0,0,0,0,0,0,0,-1,1938,1128,32.4056,-5.81058
721,-104,32.074,5.66504,-0.00457014,-0.00320495,0.00387776,4.98353e-05,-0.00782493,0.872519,0.00523331,0.0427348,1945,1128,32.074,-5.66506
728,-104,32.0358,5.48572,-0.00467774,-0.00279674,0.00399684,0.000368762,-0.00784325,0.900952,0.00535598,0.0228953,1952,1128,32.0358,-5.48571
735,-104,32.0256,5.26855,-0.00503269,-0.00219804,0.00361509,0.000267633,-0.00749836,0.972218,0.00509046,0.0230072,1959,1128,32.0256,-5.26855
742,-104,31.9417,5.1145,-0.00515827,-0.00140969,0.00293469,0.00019817,-0.00676613,1.06958,0.00457824,0.0149207,1966,1128,31.9417,-5.11455
749,-104,31.8997,4.95654,-0.00405464,0.000446315,0.00243228,0.00150954,-0.00511787,1.15869,0.00401093,0.0173264,1973,1128,31.8997,-4.95657
756,-104,31.8934,4.75793,-0.00171855,0.00247235,0.00115829,0.00277118,-0.00201737,1.31831,0.00277606,0.0164625,1980,1128,31.8934,-4.75789
763,-104,31.8901,4.57043,0.00100787,0.00542739,-0.000500652,0.0054834,0.000951861,-1.4594,0.00338324,0.0144233,1987,1128,31.8901,-4.57045
770,-104,31.8965,4.38086,0.00480509,0.00895924,-0.00250441,0.0101358,0.00362851,-1.1316,0.00593008,0.0121444,1994,1128,31.8964,-4.3808
777,-104,31.8584,4.17871,0.00964035,0.0130196,-0.0046823,0.0163078,0.00635213,-0.958552,0.00949161,0.0202151,2001,1128,31.8584,-4.17872
784,-104,31.8938,4.01465,0.0158762,0.0177635,-0.00697073,0.0238541,0.00978552,-0.852676,0.013846,0.0409687,2008,1128,31.8939,-4.01465
791,-104,32.1545,3.89758,0.0242137,0.0236478,-0.00971761,0.0336525,0.014209,-0.770843,0.0195075,0.047121,2015,1128,32.1546,-3.89764
798,-104,32.458,3.26636,0.0354347,0.0309201,-0.013109,0.0464793,0.0198754,-0.700136,0.0269284,0.048907,2022,1128,32.458,-3.26633
805,-104,32.5972,2.86609,0.0499853,0.0398191,-0.017191,0.0628289,0.0269755,-0.641652,0.0363948,0.0495247,2029,1128,32.5971,-2.86614
812,-104,32.7703,2.47375,0,0,0,0,0,0,0,-1,2036,1128,32.7702,-2.47379
-700,-111,0,0,0,0,0,0,0,0,0,-1,524,1135,0,0
-693,-111,-27.2994,1.11047,0.00807951,0.0175663,0.00893884,0.0229423,0.00270347,1.02933,0.0144781,0.0474139,531,1135,-27.2994,-1.11044
-686,-111,-27.1772,0.722778,0.00436956,0.0135352,0.00510871,0.0158154,0.00208935,1.15099,0.00992077,0.0478136,538,1135,-27.1772,-0.722837
-679,-111,-26.5887,0.193604,0,0,0,0,0,0,0,-1,545,1135,-26.5887,-0.193552
-672,-111,-25.6755,-0.218506,0,0,0,0,0,0,0,-1,552,1135,-25.6755,0.218516
-665,-111,-21.9982,1.85962,0,0,0,0,0,0,0,-1,559,1135,-21.9983,-1.85962
-658,-111,-22.0984,1.74817,-0.000914844,0.00474255,-0.00195687,0.00535346,-0.00152575,-1.2682,0.00417162,0.0465448,566,1135,-22.0985,-1.74819
-651,-111,-22.0922,1.45996,-0.00112756,0.00358574,-0.00238846,0.00458446,-0.00212628,-1.17475,0.00396015,0.037516,573,1135,-22.0922,-1.45991
-644,-111,-22.0144,1.39453,-0.0011524,0.00263121,-0.00251971,0.00389026,-0.00241144,-1.10741,0.00367153,0.0251049,580,1135,-22.0144,-1.39459
-637,-111,-22.0639,1.61169,-0.00133937,0.00183976,-0.00259972,0.00329736,-0.00279697,-1.05979,0.00352252,0.0101277,587,1135,-22.0639,-1.61172
-630,-111,-22.0716,1.80737,-0.00132161,0.000783388,-0.00264234,0.00257513,-0.00311336,-0.974927,0.00328915,0.0164843,594,1135,-22.0716,-1.80735
-623,-111,-22.0825,2.05566,-0.00127805,0.000162147,-0.00241079,0.00195809,-0.00307399,-0.930529,0.00292899,0.0144775,601,1135,-22.0825,-2.05562
-616,-111,-22.1767,2.29712,-0.000694737,-0.000317957,-0.00200221,0.0015047,-0.0025174,-0.832306,0.00234657,0.0146496,608,1135,-22.1767,-2.29715
-609,-111,-22.3206,2.5238,-8.18588e-06,-0.000672649,-0.00153148,0.00122668,-0.00190752,-0.678585,0.00182371,0.0215571,615,1135,-22.3206,-2.52375
-602,-111,-22.2297,2.7854,0.000102595,-0.000903106,-0.00119608,0.000897228,-0.00169774,-0.586407,0.00152178,0.0229324,622,1135,-22.2298,-2.78544
-595,-111,-22.1327,3.08838,-0.000154785,-0.00131557,-0.000668741,0.000150299,-0.00162066,-0.428004,0.00113386,0.0145636,629,1135,-22.1327,-3.08838
-588,-111,-21.9584,3.46118,0,0,0,0,0,0,0,-1,636,1135,-21.9584,-3.46114
-581,-111,-21.0555,3.14551,0,0,0,0,0,0,0,-1,643,1135,-21.0555,-3.14548
-574,-111,-24.3952,0.824707,0,0,0,0,0,0,0,-1,650,1135,-24.3952,-0.824654
-567,-111,-24.2618,0.845947,-0.000380641,-0.000927154,9.86717e-05,-0.000363371,-0.000944423,0.173262,0.00055007,0.0399174,657,1135,-24.2619,-0.845958
-560,-111,-24.1055,0.899902,-0.000500041,-0.000525493,0.000312471,-0.000200037,-0.000825497,0.765046,0.000497251,0.0408511,664,1135,-24.1054,-0.899916
-553,-111,-24.1702,0.660889,-0.000932845,0.000158936,0.000405793,0.000293239,-0.00106715,1.25118,0.000826701,0.0444903,671,1135,-24.1702,-0.660946
-546,-111,-24.2365,0.648315,-0.00166222,0.00125131,0.000349519,0.00129265,-0.00170356,1.45306,0.00173528,0.0405019,678,1135,-24.2364,-0.64835
-539,-111,-24.3314,0.90564,-0.0025959,0.00276142,-0.000123073,0.00276424,-0.00259873,-1.54784,0.0030968,0.0379991,685,1135,-24.3314,-0.905598
-532,-111,-24.5278,1.05029,-0.00339036,0.00448819,-0.00126489,0.00468629,-0.00358846,-1.41545,0.00479142,0.0384767,692,1135,-24.5278,-1.05032
-525,-111,-24.6262,0.957642,-0.00438203,0.00634834,-0.00316887,0.00721428,-0.00524797,-1.30404,0.00722488,0.0386838,699,1135,-24.6262,-0.957694
-518,-111,0,0,0,0,0,0,0,0,0,-1,706,1135,0,0
-511,-111,0,0,0,0,0,0,0,0,0,-1,713,1135,0,0
-504,-111,0,0,0,0,0,0,0,0,0,-1,720,1135,0,0
-497,-111,0,0,0,0,0,0,0,0,0,-1,727,1135,0,0
-490,-111,0,0,0,0,0,0,0,0,0,-1,734,1135,0,0
-483,-111,0,0,0,0,0,0,0,0,0,-1,741,1135,0,0
-476,-111,0,0,0,0,0,0,0,0,0,-1,748,1135,0,0
-469,-111,0,0,0,0,0,0,0,0,0,-1,755,1135,0,0
-462,-111,0,0,0,0,0,0,0,0,0,-1,762,1135,0,0
-455,-111,0,0,0,0,0,0,0,0,0,-1,769,1135,0,0
-448,-111,0,0,0,0,0,0,0,0,0,-1,776,1135,0,0
-441,-111,0,0,0,0,0,0,0,0,0,-1,783,1135,0,0
-434,-111,0,0,0,0,0,0,0,0,0,-1,790,1135,0,0
-427,-111,0,0,0,0,0,0,0,0,0,-1,797,1135,0,0
-420,-111,0,0,0,0,0,0,0,0,0,-1,804,1135,0,0
-413,-111,0,0,0,0,0,0,0,0,0,-1,811,1135,0,0
-406,-111,0,0,0,0,0,0,0,0,0,-1,818,1135,0,0
-399,-111,0,0,0,0,0,0,0,0,0,-1,825,1135,0,0
-392,-111,0,0,0,0,0,0,0,0,0,-1,832,1135,0,0
-385,-111,0,0,0,0,0,0,0,0,0,-1,839,1135,0,0
-378,-111,0,0,0,0,0,0,0,0,0,-1,846,1135,0,0
-371,-111,0,0,0,0,0,0,0,0,0,-1,853,1135,0,0
-364,-111,0,0,0,0,0,0,0,0,0,-1,860,1135,0,0
-357,-111,0,0,0,0,0,0,0,0,0,-1,867,1135,0,0
-350,-111,0,0,0,0,0,0,0,0,0,-1,874,1135,0,0
-343,-111,0,0,0,0,0,0,0,0,0,-1,881,1135,0,0
-336,-111,0,0,0,0,0,0,0,0,0,-1,888,1135,0,0
-329,-111,0,0,0,0,0,0,0,0,0,-1,895,1135,0,0
-322,-111,0,0,0,0,0,0,0,0,0,-1,902,1135,0,0
-315,-111,0,0,0,0,0,0,0,0,0,-1,909,1135,0,0
-308,-111,0,0,0,0,0,0,0,0,0,-1,916,1135,0,0
-301,-111,0,0,0,0,0,0,0,0,0,-1,923,1135,0,0
-294,-111,0,0,0,0,0,0,0,0,0,-1,930,1135,0,0
-287,-111,0,0,0,0,0,0,0,0,0,-1,937,1135,0,0
-280,-111,0,0,0,0,0,0,0,0,0,-1,944,1135,0,0
-273,-111,0,0,0,0,0,0,0,0,0,-1,951,1135,0,0
-266,-111,0,0,0,0,0,0,0,0,0,-1,958,1135,0,0
-259,-111,0,0,0,0,0,0,0,0,0,-1,965,1135,0,0
-252,-111,0,0,0,0,0,0,0,0,0,-1,972,1135,0,0
-245,-111,0,0,0,0,0,0,0,0,0,-1,979,1135,0,0
-238,-111,0,0,0,0,0,0,0,0,0,-1,986,1135,0,0
-231,-111,0,0,0,0,0,0,0,0,0,-1,993,1135,0,0
-224,-111,0,0,0,0,0,0,0,0,0,-1,1000,1135,0,0
-217,-111,0,0,0,0,0,0,0,0,0,-1,1007,1135,0,0
-210,-111,0,0,0,0,0,0,0,0,0,-1,1014,1135,0,0
-203,-111,0,0,0,0,0,0,0,0,0,-1,1021,1135,0,0
-196,-111,0,0,0,0,0,0,0,0,0,-1,1028,1135,0,0
-189,-111,0,0,0,0,0,0,0,0,0,-1,1035,1135,0,0
-182,-111,0,0,0,0,0,0,0,0,0,-1,1042,1135,0,0
-175,-111,0,0,0,0,0,0,0,0,0,-1,1049,1135,0,0
-168,-111,0,0,0,0,0,0,0,0,0,-1,1056,1135,0,0
-161,-111,0,0,0,0,0,0,0,0,0,-1,1063,1135,0,0
-154,-111,0,0,0,0,0,0,0,0,0,-1,1070,1135,0,0
-147,-111,0,0,0,0,0,0,0,0,0,-1,1077,1135,0,0
-140,-111,0,0,0,0,0,0,0,0,0,-1,1084,1135,0,0
-133,-111,0,0,0,0,0,0,0,0,0,-1,1091,1135,0,0
-126,-111,0,0,0,0,0,0,0,0,0,-1,1098,1135,0,0
-119,-111,0,0,0,0,0,0,0,0,0,-1,1105,1135,0,0
-112,-111,0,0,0,0,0,0,0,0,0,-1,1112,1135,0,0
-105,-111,0,0,0,0,0,0,0,0,0,-1,1119,1135,0,0
-98,-111,0,0,0,0,0,0,0,0,0,-1,1126,1135,0,0
-91,-111,0,0,0,0,0,0,0,0,0,-1,1133,1135,0,0
-84,-111,0,0,0,0,0,0,0,0,0,-1,1140,1135,0,0
-77,-111,0,0,0,0,0,0,0,0,0,-1,1147,1135,0,0
-70,-111,0,0,0,0,0,0,0,0,0,-1,1154,1135,0,0
-63,-111,0,0,0,0,0,0,0,0,0,-1,1161,1135,0,0
-56,-111,0,0,0,0,0,0,0,0,0,-1,1168,1135,0,0
-49,-111,0,0,0,0,0,0,0,0,0,-1,1175,1135,0,0
-42,-111,0,0,0,0,0,0,0,0,0,-1,1182,1135,0,0
-35,-111,0,0,0,0,0,0,0,0,0,-1,1189,1135,0,0
-28,-111,0,0,0,0,0,0,0,0,0,-1,1196,1135,0,0
-21,-111,0,0,0,0,0,0,0,0,0,-1,1203,1135,0,0
-14,-111,0,0,0,0,0,0,0,0,0,-1,1210,1135,0,0
-7,-111,0,0,0,0,0,0,0,0,0,-1,1217,1135,0,0
0,-111,0,0,0,0,0,0,0,0,0,-1,1224,1135,0,0
7,-111,0,0,0,0,0,0,0,0,0,-1,1231,1135,0,0
14,-111,0,0,0,0,0,0,0,0,0,-1,1238,1135,0,0
21,-111,0,0,0,0,0,0,0,0,0,-1,1245,1135,0,0
28,-111,0,0,0,0,0,0,0,0,0,-1,1252,1135,0,0
35,-111,0,0,0,0,0,0,0,0,0,-1,1259,1135,0,0
42,-111,0,0,0,0,0,0,0,0,0,-1,1266,1135,0,0
49,-111,0,0,0,0,0,0,0,0,0,-1,1273,1135,0,0
56,-111,0,0,0,0,0,0,0,0,0,-1,1280,1135,0,0
63,-111,0,0,0,0,0,0,0,0,0,-1,1287,1135,0,0
70,-111,0,0,0,0,0,0,0,0,0,-1,1294,1135,0,0
77,-111,0,0,0,0,0,0,0,0,0,-1,1301,1135,0,0
84,-111,0,0,0,0,0,0,0,0,0,-1,1308,1135,0,0
91,-111,0,0,0,0,0,0,0,0,0,-1,1315,1135,0,0
98,-111,0,0,0,0,0,0,0,0,0,-1,1322,1135,0,0
105,-111,0,0,0,0,0,0,0,0,0,-1,1329,1135,0,0
112,-111,0,0,0,0,0,0,0,0,0,-1,1336,1135,0,0
119,-111,0,0,0,0,0,0,0,0,0,-1,1343,1135,0,0
126,-111,0,0,0,0,0,0,0,0,0,-1,1350,1135,0,0
133,-111,0,0,0,0,0,0,0,0,0,-1,1357,1135,0,0
140,-111,0,0,0,0,0,0,0,0,0,-1,1364,1135,0,0
147,-111,0,0,0,0,0,0,0,0,0,-1,1371,1135,0,0
154,-111,0,0,0,0,0,0,0,0,0,-1,1378,1135,0,0
161,-111,0,0,0,0,0,0,0,0,0,-1,1385,1135,0,0
168,-111,0,0,0,0,0,0,0,0,0,-1,1392,1135,0,0
175,-111,0,0,0,0,0,0,0,0,0,-1,1399,1135,0,0
182,-111,0,0,0,0,0,0,0,0,0,-1,1406,1135,0,0
189,-111,0,0,0,0,0,0,0,0,0,-1,1413,1135,0,0
196,-111,0,0,0,0,0,0,0,0,0,-1,1420,1135,0,0
203,-111,0,0,0,0,0,0,0,0,0,-1,1427,1135,0,0
210,-111,0,0,0,0,0,0,0,0,0,-1,1434,1135,0,0
217,-111,0,0,0,0,0,0,0,0,0,-1,1441,1135,0,0
224,-111,0,0,0,0,0,0,0,0,0,-1,1448,1135,0,0
231,-111,0,0,0,0,0,0,0,0,0,-1,1455,1135,0,0
238,-111,0,0,0,0,0,0,0,0,0,-1,1462,1135,0,0
245,-111,0,0,0,0,0,0,0,0,0,-1,1469,1135,0,0
252,-111,0,0,0,0,0,0,0,0,0,-1,1476,1135,0,0
259,-111,0,0,0,0,0,0,0,0,0,-1,1483,1135,0,0
266,-111,0,0,0,0,0,0,0,0,0,-1,1490,1135,0,0
273,-111,0,0,0,0,0,0,0,0,0,-1,1497,1135,0,0
280,-111,0,0,0,0,0,0,0,0,0,-1,1504,1135,0,0
287,-111,0,0,0,0,0,0,0,0,0,-1,1511,1135,0,0
294,-111,0,0,0,0,0,0,0,0,0,-1,1518,1135,0,0
301,-111,0,0,0,0,0,0,0,0,0,-1,1525,1135,0,0
308,-111,0,0,0,0,0,0,0,0,0,-1,1532,1135,0,0
315,-111,0,0,0,0,0,0,0,0,0,-1,1539,1135,0,0
322,-111,0,0,0,0,0,0,0,0,0,-1,1546,1135,0,0
329,-111,0,0,0,0,0,0,0,0,0,-1,1553,1135,0,0
336,-111,0,0,0,0,0,0,0,0,0,-1,1560,1135,0,0
343,-111,0,0,0,0,0,0,0,0,0,-1,1567,1135,0,0
350,-111,0,0,0,0,0,0,0,0,0,-1,1574,1135,0,0
357,-111,0,0,0,0,0,0,0,0,0,-1,1581,1135,0,0
364,-111,0,0,0,0,0,0,0,0,0,-1,1588,1135,0,0
371,-111,0,0,0,0,0,0,0,0,0,-1,1595,1135,0,0
378,-111,0,0,0,0,0,0,0,0,0,-1,1602,1135,0,0
385,-111,0,0,0,0,0,0,0,0,0,-1,1609,1135,0,0
392,-111,0,0,0,0,0,0,0,0,0,-1,1616,1135,0,0
399,-111,0,0,0,0,0,0,0,0,0,-1,1623,1135,0,0
406,-111,0,0,0,0,0,0,0,0,0,-1,1630,1135,0,0
413,-111,0,0,0,0,0,0,0,0,0,-1,1637,1135,0,0
420,-111,0,0,0,0,0,0,0,0,0,-1,1644,1135,0,0
427,-111,0,0,0,0,0,0,0,0,0,-1,1651,1135,0,0
434,-111,0,0,0,0,0,0,0,0,0,-1,1658,1135,0,0
441,-111,0,0,0,0,0,0,0,0,0,-1,1665,1135,0,0
448,-111,0,0,0,0,0,0,0,0,0,-1,1672,1135,0,0
455,-111,0,0,0,0,0,0,0,0,0,-1,1679,1135,0,0
462,-111,0,0,0,0,0,0,0,0,0,-1,1686,1135,0,0
469,-111,0,0,0,0,0,0,0,0,0,-1,1693,1135,0,0
476,-111,0,0,0,0,0,0,0,0,0,-1,1700,1135,0,0
483,-111,0,0,0,0,0,0,0,0,0,-1,1707,1135,0,0
490,-111,0,0,0,0,0,0,0,0,0,-1,1714,1135,0,0
497,-111,0,0,0,0,0,0,0,0,0,-1,1721,1135,0,0
504,-111,0,0,0,0,0,0,0,0,0,-1,1728,1135,0,0
511,-111,0,0,0,0,0,0,0,0,0,-1,1735,1135,0,0
518,-111,0,0,0,0,0,0,0,0,0,-1,1742,1135,0,0
525,-111,0,0,0,0,0,0,0,0,0,-1,1749,1135,0,0
532,-111,0,0,0,0,0,0,0,0,0,-1,1756,1135,0,0
539,-111,0,0,0,0,0,0,0,0,0,-1,1763,1135,0,0
546,-111,0,0,0,0,0,0,0,0,0,-1,1770,1135,0,0
553,-111,0,0,0,0,0,0,0,0,0,-1,1777,1135,0,0
560,-111,0,0,0,0,0,0,0,0,0,-1,1784,1135,0,0
567,-111,0,0,0,0,0,0,0,0,0,-1,1791,1135,0,0
574,-111,0,0,0,0,0,0,0,0,0,-1,1798,1135,0,0
581,-111,0,0,0,0,0,0,0,0,0,-1,1805,1135,0,0
588,-111,0,0,0,0,0,0,0,0,0,-1,1812,1135,0,0
595,-111,0,0,0,0,0,0,0,0,0,-1,1819,1135,0,0
602,-111,0,0,0,0,0,0,0,0,0,-1,1826,1135,0,0
609,-111,0,0,0,0,0,0,0,0,0,-1,1833,1135,0,0
616,-111,0,0,0,0,0,0,0,0,0,-1,1840,1135,0,0
623,-111,0,0,0,0,0,0,0,0,0,-1,1847,1135,0,0
630,-111,0,0,0,0,0,0,0,0,0,-1,1854,1135,0,0
637,-111,0,0,0,0,0,0,0,0,0,-1,1861,1135,0,0
644,-111,34.1022,2.71008,-0.00273883,0.0028701,-0.000232707,0.00287974,-0.00274847,-1.5294,0.00324974,0.0402582,1868,1135,34.1022,-2.71005
651,-111,34.0531,2.76941,-0.0023324,0.00219066,0.000340395,0.00221614,-0.00235787,1.4961,0.00264123,0.0424855,1875,1135,34.0531,-2.76937
658,-111,34.1648,2.84766,-0.00177214,0.00158323,0.000562248,0.00167494,-0.00186384,1.40911,0.00204409,0.0463293,1882,1135,34.1648,-2.84772
665,-111,34.2129,2.85913,-0.00120346,0.00104944,0.000648389,0.00122272,-0.00137674,1.30965,0.00150168,0.0470959,1889,1135,34.2129,-2.85913
672,-111,34.1301,2.74255,-0.00118203,7.7805e-05,0.00108309,0.000700831,-0.00180506,1.04879,0.00149286,0.0453079,1896,1135,34.1302,-2.74259
679,-111,34.017,2.61975,-0.00170678,-0.000808945,0.0016685,0.000469979,-0.0029857,0.916813,0.00216421,0.0429681,1903,1135,34.017,-2.61971
686,-111,34.016,2.92627,-0.0023274,-0.00157696,0.00215229,0.000232575,-0.00413693,0.871698,0.00283866,0.0410452,1910,1135,34.016,-2.92631
693,-111,34.021,2.85034,-0.00286132,-0.00214131,0.00253844,6.25264e-05,-0.00506516,0.855839,0.00339781,0.0351515,1917,1135,34.021,-2.8503
700,-111,34.0588,2.68872,-0.0031699,-0.00251533,0.00288476,6.06542e-05,-0.00574588,0.841883,0.00385097,0.0254561,1924,1135,34.0589,-2.68869
707,-111,33.8163,3.14856,0,0,0,0,0,0,0,-1,1931,1135,33.8163,-3.14856
714,-111,32.6591,4.49829,0,0,0,0,0,0,0,-1,1938,1135,32.6591,-4.49826
721,-111,31.7714,5.71436,-0.00430872,-0.00276319,0.00342844,-2.15052e-05,-0.00705041,0.896245,0.00469312,0.0199304,1945,1135,31.7713,-5.71437
728,-111,31.8042,5.49939,-0.00440123,-0.00242691,0.00353607,0.000257205,-0.00708534,0.921516,0.00481159,0.0201341,1952,1135,31.8042,-5.49942
735,-111,31.7974,5.30798,-0.00484865,-0.00191586,0.00311658,6.20768e-05,-0.00682658,1.00529,0.00457189,0.0195006,1959,1135,31.7973,-5.30794
742,-111,31.7328,5.15808,-0.00512974,-0.00109133,0.002178,-0.000140533,-0.00608053,1.15919,0.00400767,0.0124071,1966,1135,31.7328,-5.15804
749,-111,31.7111,4.97107,-0.00398858,0.000847032,0.00151207,0.00128092,-0.00442247,1.29136,0.00345535,0.0151118,1973,1135,31.7111,-4.97107
756,-111,31.6904,4.73877,-0.00150051,0.00322709,-6.53381e-06,0.0032271,-0.00150052,-1.56941,0.00278951,0.0158828,1980,1135,31.6905,-4.73877
763,-111,31.6949,4.54297,0.00121359,0.00680169,-0.0020155,0.00745277,0.000562509,-1.25834,0.00479203,0.0139472,1987,1135,31.6949,-4.54294
770,-111,31.677,4.35095,0.00511195,0.0110618,-0.00447455,0.0134601,0.00271362,-1.07877,0.00821956,0.0116062,1994,1135,31.6771,-4.35101
777,-111,31.5812,4.10779,0.0100508,0.016012,-0.00709426,0.0207264,0.00533641,-0.984274,0.0124268,0.0226201,2001,1135,31.5812,-4.10781
784,-111,31.458,3.87903,0.0164818,0.0220544,-0.00988977,0.0295429,0.00899331,-0.922709,0.0174862,0.0396747,2008,1135,31.458,-3.87904
791,-111,31.7986,3.74023,0.025066,0.0297031,-0.0130823,0.0406707,0.0140984,-0.873101,0.0238466,0.0462296,2015,1135,31.7985,-3.74028
798,-111,31.8379,3.54163,0,0,0,0,0,0,0,-1,2022,1135,31.8379,-3.54158
805,-111,32.2637,2.66992,0.0514169,0.0512341,-0.0207528,0.0720785,0.0305725,-0.783196,0.0417738,0.0477607,2029,1135,32.2637,-2.66988
812,-111,32.1563,2.16296,0.0700334,0.0659698,-0.0249513,0.0930355,0.0429677,-0.744773,0.0537662,0.0431093,2036,1135,32.1562,-2.16299
-700,-118,0,0,0,0,0,0,0,0,0,-1,524,1142,0,0
-693,-118,-28.3065,1.06396,0.00570295,0.0147867,0.00592133,0.0177075,0.0027822,1.11256,0.0109955,0.0459742,531,1142,-28.3065,-1.06391
-686,-118,-28.1475,0.535034,0.00303757,0.0115507,0.00176839,0.0119034,0.00268485,1.37392,0.00720928,0.0473782,538,1142,-28.1475,-0.534987
-679,-118,-28.0715,0.728027,0,0,0,0,0,0,0,-1,545,1142,-28.0715,-0.728077
-672,-118,-28.1247,1.02466,0,0,0,0,0,0,0,-1,552,1142,-28.1247,-1.02468
-665,-118,-27.9044,1.16418,0,0,0,0,0,0,0,-1,559,1142,-27.9044,-1.16418
-658,-118,-22.3071,1.56641,0,0,0,0,0,0,0,-1,566,1142,-22.3071,-1.5664
-651,-118,-21.9973,1.49207,0,0,0,0,0,0,0,-1,573,1142,-21.9973,-1.49206
-644,-118,-21.6875,1.41772,0,0,0,0,0,0,0,-1,580,1142,-21.6875,-1.41773
-637,-118,-21.785,1.62109,-0.00117703,0.0021627,-0.00350366,0.00437408,-0.00338841,-1.00778,0.0044937,0.0154613,587,1142,-21.7851,-1.62107
-630,-118,-21.812,1.82141,-0.00109626,0.00118969,-0.00301228,0.00326855,-0.00317512,-0.966726,0.00372039,0.0198397,594,1142,-21.812,-1.8214
-623,-118,-21.8079,2.05786,-0.00105477,0.000604374,-0.00222669,0.00215101,-0.0026014,-0.963712,0.00274791,0.0163872,601,1142,-21.8079,-2.05788
-616,-118,-21.8445,2.29321,-0.000537083,0.00017264,-0.00144886,0.00130946,-0.0016739,-0.905496,0.00172672,0.0152978,608,1142,-21.8445,-2.29326
-609,-118,-21.952,2.46106,0.000106933,-0.000128302,-0.000728742,0.000727489,-0.000748858,-0.705389,0.000852399,0.0236994,615,1142,-21.952,-2.46101
-602,-118,-21.9304,2.82922,0.000220569,-0.00038981,-0.000336768,0.000369861,-0.000539102,-0.417275,0.000527814,0.0225727,622,1142,-21.9303,-2.82924
-595,-118,-22.1296,3.18384,0,0,0,0,0,0,0,-1,629,1142,-22.1296,-3.18382
-588,-118,-21.6716,3.35107,0,0,0,0,0,0,0,-1,636,1142,-21.6717,-3.35104
-581,-118,-21.3969,3.49817,0,0,0,0,0,0,0,-1,643,1142,-21.3968,-3.49815
-574,-118,-24.3192,0.520996,0,0,0,0,0,0,0,-1,650,1142,-24.3192,-0.52095
-567,-118,-24.259,0.833374,-0.000104149,-0.000279653,0.00060233,0.000416788,-0.00080059,0.713064,0.000714402,0.0412341,657,1142,-24.259,-0.833351
-560,-118,-24.1682,1.06921,-0.000208526,0.000146517,0.000659365,0.000651839,-0.000713848,0.916896,0.000788751,0.0367634,664,1142,-24.1681,-1.06915
-553,-118,-24.1281,1.02124,-0.000618756,0.000867967,0.000504755,0.00102314,-0.000773929,1.27254,0.00104086,0.0390353,671,1142,-24.128,-1.02122
-546,-118,-24.1785,0.802856,-0.00129811,0.00204135,0.000126388,0.00204613,-0.00130289,1.53302,0.00194936,0.0393263,678,1142,-24.1785,-0.802902
-539,-118,-24.3232,1.09119,-0.00225321,0.00380128,-0.000709766,0.00388337,-0.0023353,-1.45565,0.00362724,0.0401818,685,1142,-24.3232,-1.09113
-532,-118,-24.4733,1.15613,-0.00292466,0.00607265,-0.00194033,0.00647326,-0.00332526,-1.36719,0.00575367,0.0403086,692,1142,-24.4733,-1.15613
-525,-118,-24.4676,0.869019,-0.00351215,0.00858673,-0.00354438,0.00954859,-0.00447401,-1.3058,0.00827077,0.0411756,699,1142,-24.4676,-0.869077
-518,-118,0,0,0,0,0,0,0,0,0,-1,706,1142,0,0
-511,-118,0,0,0,0,0,0,0,0,0,-1,713,1142,0,0
-504,-118,0,0,0,0,0,0,0,0,0,-1,720,1142,0,0
-497,-118,0,0,0,0,0,0,0,0,0,-1,727,1142,0,0
-490,-118,0,0,0,0,0,0,0,0,0,-1,734,1142,0,0
-483,-118,0,0,0,0,0,0,0,0,0,-1,741,1142,0,0
-476,-118,0,0,0,0,0,0,0,0,0,-1,748,1142,0,0
-469,-118,0,0,0,0,0,0,0,0,0,-1,755,1142,0,0
-462,-118,0,0,0,0,0,0,0,0,0,-1,762,1142,0,0
-455,-118,0,0,0,0,0,0,0,0,0,-1,769,1142,0,0
-448,-118,0,0,0,0,0,0,0,0,0,-1,776,1142,0,0
-441,-118,0,0,0,0,0,0,0,0,0,-1,783,1142,0,0
-434,-118,0,0,0,0,0,0,0,0,0,-1,790,1142,0,0
-427,-118,0,0,0,0,0,0,0,0,0,-1,797,1142,0,0
-420,-118,0,0,0,0,0,0,0,0,0,-1,804,1142,0,0
-413,-118,0,0,0,0,0,0,0,0,0,-1,811,1142,0,0
-406,-118,0,0,0,0,0,0,0,0,0,-1,818,1142,0,0
-399,-118,0,0,0,0,0,0,0,0,0,-1,825,1142,0,0
-392,-118,0,0,0,0,0,0,0,0,0,-1,832,1142,0,0
-385,-118,0,0,0,0,0,0,0,0,0,-1,839,1142,0,0
-378,-118,0,0,0,0,0,0,0,0,0,-1,846,1142,0,0
-371,-118,0,0,0,0,0,0,0,0,0,-1,853,1142,0,0
-364,-118,0,0,0,0,0,0,0,0,0,-1,860,1142,0,0
-357,-118,0,0,0,0,0,0,0,0,0,-1,867,1142,0,0
-350,-118,0,0,0,0,0,0,0,0,0,-1,874,1142,0,0
-343,-118,0,0,0,0,0,0,0,0,0,-1,881,1142,0,0
-336,-118,0,0,0,0,0,0,0,0,0,-1,888,1142,0,0
-329,-118,0,0,0,0,0,0,0,0,0,-1,895,1142,0,0
-322,-118,0,0,0,0,0,0,0,0,0,-1,902,1142,0,0
-315,-118,0,0,0,0,0,0,0,0,0,-1,909,1142,0,0
-308,-118,0,0,0,0,0,0,0,0,0,-1,916,1142,0,0
-301,-118,0,0,0,0,0,0,0,0,0,-1,923,1142,0,0
-294,-118,0,0,0,0,0,0,0,0,0,-1,930,1142,0,0
-287,-118,0,0,0,0,0,0,0,0,0,-1,937,1142,0,0
-280,-118,0,0,0,0,0,0,0,0,0,-1,944,1142,0,0
-273,-118,0,0,0,0,0,0,0,0,0,-1,951,1142,0,0
-266,-118,0,0,0,0,0,0,0,0,0,-1,958,1142,0,0
-259,-118,0,0,0,0,0,0,0,0,0,-1,965,1142,0,0
-252,-118,0,0,0,0,0,0,0,0,0,-1,972,1142,0,0
-245,-118,0,0,0,0,0,0,0,0,0,-1,979,1142,0,0
-238,-118,0,0,0,0,0,0,0,0,0,-1,986,1142,0,0
-231,-118,0,0,0,0,0,0,0,0,0,-1,993,1142,0,0
-224,-118,0,0,0,0,0,0,0,0,0,-1,1000,1142,0,0
-217,-118,0,0,0,0,0,0,0,0,0,-1,1007,1142,0,0
-210,-118,0,0,0,0,0,0,0,0,0,-1,1014,1142,0,0
-203,-118,0,0,0,0,0,0,0,0,0,-1,1021,1142,0,0
-196,-118,0,0,0,0,0,0,0,0,0,-1,1028,1142,0,0
-189,-118,0,0,0,0,0,0,0,0,0,-1,1035,1142,0,0
-182,-118,0,0,0,0,0,0,0,0,0,-1,1042,1142,0,0
-175,-118,0,0,0,0,0,0,0,0,0,-1,1049,1142,0,0
-168,-118,0,0,0,0,0,0,0,0,0,-1,1056,1142,0,0
-161,-118,0,0,0,0,0,0,0,0,0,-1,1063,1142,0,0
-154,-118,0,0,0,0,0,0,0,0,0,-1,1070,1142,0,0
-147,-118,0,0,0,0,0,0,0,0,0,-1,1077,1142,0,0
-140,-118,0,0,0,0,0,0,0,0,0,-1,1084,1142,0,0
-133,-118,0,0,0,0,0,0,0,0,0,-1,1091,1142,0,0
-126,-118,0,0,0,0,0,0,0,0,0,-1,1098,1142,0,0
-119,-118,0,0,0,0,0,0,0,0,0,-1,1105,1142,0,0
-112,-118,0,0,0,0,0,0,0,0,0,-1,1112,1142,0,0
-105,-118,0,0,0,0,0,0,0,0,0,-1,1119,1142,0,0
-98,-118,0,0,0,0,0,0,0,0,0,-1,1126,1142,0,0
-91,-118,0,0,0,0,0,0,0,0,0,-1,1133,1142,0,0
-84,-118,0,0,0,0,0,0,0,0,0,-1,1140,1142,0,0
-77,-118,0,0,0,0,0,0,0,0,0,-1,1147,1142,0,0
-70,-118,0,0,0,0,0,0,0,0,0,-1,1154,1142,0,0
-63,-118,0,0,0,0,0,0,0,0,0,-1,1161,1142,0,0
-56,-118,0,0,0,0,0,0,0,0,0,-1,1168,1142,0,0
-49,-118,0,0,0,0,0,0,0,0,0,-1,1175,1142,0,0
-42,-118,0,0,0,0,0,0,0,0,0,-1,1182,1142,0,0
-35,-118,0,0,0,0,0,0,0,0,0,-1,1189,1142,0,0
-28,-118,0,0,0,0,0,0,0,0,0,-1,1196,1142,0,0
-21,-118,0,0,0,0,0,0,0,0,0,-1,1203,1142,0,0
-14,-118,0,0,0,0,0,0,0,0,0,-1,1210,1142,0,0
-7,-118,0,0,0,0,0,0,0,0,0,-1,1217,1142,0,0
0,-118,0,0,0,0,0,0,0,0,0,-1,1224,1142,0,0
7,-118,0,0,0,0,0,0,0,0,0,-1,1231,1142,0,0
14,-118,0,0,0,0,0,0,0,0,0,-1,1238,1142,0,0
21,-118,0,0,0,0,0,0,0,0,0,-1,1245,1142,0,0
28,-118,0,0,0,0,0,0,0,0,0,-1,1252,1142,0,0
35,-118,0,0,0,0,0,0,0,0,0,-1,1259,1142,0,0
42,-118,0,0,0,0,0,0,0,0,0,-1,1266,1142,0,0
49,-118,0,0,0,0,0,0,0,0,0,-1,1273,1142,0,0
56,-118,0,0,0,0,0,0,0,0,0,-1,1280,1142,0,0
63,-118,0,0,0,0,0,0,0,0,0,-1,1287,1142,0,0
70,-118,0,0,0,0,0,0,0,0,0,-1,1294,1142,0,0
77,-118,0,0,0,0,0,0,0,0,0,-1,1301,1142,0,0
84,-118,0,0,0,0,0,0,0,0,0,-1,1308,1142,0,0
91,-118,0,0,0,0,0,0,0,0,0,-1,1315,1142,0,0
98,-118,0,0,0,0,0,0,0,0,0,-1,1322,1142,0,0
105,-118,0,0,0,0,0,0,0,0,0,-1,1329,1142,0,0
112,-118,0,0,0,0,0,0,0,0,0,-1,1336,1142,0,0
119,-118,0,0,0,0,0,0,0,0,0,-1,1343,1142,0,0
126,-118,0,0,0,0,0,0,0,0,0,-1,1350,1142,0,0
133,-118,0,0,0,0,0,0,0,0,0,-1,1357,1142,0,0
140,-118,0,0,0,0,0,0,0,0,0,-1,1364,1142,0,0
147,-118,0,0,0,0,0,0,0,0,0,-1,1371,1142,0,0
154,-118,0,0,0,0,0,0,0,0,0,-1,1378,1142,0,0
161,-118,0,0,0,0,0,0,0,0,0,-1,1385,1142,0,0
168,-118,0,0,0,0,0,0,0,0,0,-1,1392,1142,0,0
175,-118,0,0,0,0,0,0,0,0,0,-1,1399,1142,0,0
182,-118,0,0,0,0,0,0,0,0,0,-1,1406,1142,0,0
189,-118,0,0,0,0,0,0,0,0,0,-1,1413,1142,0,0
196,-118,0,0,0,0,0,0,0,0,0,-1,1420,1142,0,0
203,-118,0,0,0,0,0,0,0,0,0,-1,1427,1142,0,0
210,-118,0,0,0,0,0,0,0,0,0,-1,1434,1142,0,0
217,-118,0,0,0,0,0,0,0,0,0,-1,1441,1142,0,0
224,-118,0,0,0,0,0,0,0,0,0,-1,1448,1142,0,0
231,-118,0,0,0,0,0,0,0,0,0,-1,1455,1142,0,0
238,-118,0,0,0,0,0,0,0,0,0,-1,1462,1142,0,0
245,-118,0,0,0,0,0,0,0,0,0,-1,1469,1142,0,0
252,-118,0,0,0,0,0,0,0,0,0,-1,1476,1142,0,0
259,-118,0,0,0,0,0,0,0,0,0,-1,1483,1142,0,0
266,-118,0,0,0,0,0,0,0,0,0,-1,1490,1142,0,0
273,-118,0,0,0,0,0,0,0,0,0,-1,1497,1142,0,0
280,-118,0,0,0,0,0,0,0,0,0,-1,1504,1142,0,0
287,-118,0,0,0,0,0,0,0,0,0,-1,1511,1142,0,0
294,-118,0,0,0,0,0,0,0,0,0,-1,1518,1142,0,0
301,-118,0,0,0,0,0,0,0,0,0,-1,1525,1142,0,0
308,-118,0,0,0,0,0,0,0,0,0,-1,1532,1142,0,0
315,-118,0,0,0,0,0,0,0,0,0,-1,1539,1142,0,0
322,-118,0,0,0,0,0,0,0,0,0,-1,1546,1142,0,0
329,-118,0,0,0,0,0,0,0,0,0,-1,1553,1142,0,0
336,-118,0,0,0,0,0,0,0,0,0,-1,1560,1142,0,0
343,-118,0,0,0,0,0,0,0,0,0,-1,1567,1142,0,0
350,-118,0,0,0,0,0,0,0,0,0,-1,1574,1142,0,0
357,-118,0,0,0,0,0,0,0,0,0,-1,1581,1142,0,0
364,-118,0,0,0,0,0,0,0,0,0,-1,1588,1142,0,0
371,-118,0,0,0,0,0,0,0,0,0,-1,1595,1142,0,0
378,-118,0,0,0,0,0,0,0,0,0,-1,1602,1142,0,0
385,-118,0,0,0,0,0,0,0,0,0,-1,1609,1142,0,0
392,-118,0,0,0,0,0,0,0,0,0,-1,1616,1142,0,0
399,-118,0,0,0,0,0,0,0,0,0,-1,1623,1142,0,0
406,-118,0,0,0,0,0,0,0,0,0,-1,1630,1142,0,0
413,-118,0,0,0,0,0,0,0,0,0,-1,1637,1142,0,0
420,-118,0,0,0,0,0,0,0,0,0,-1,1644,1142,0,0
427,-118,0,0,0,0,0,0,0,0,0,-1,1651,1142,0,0
434,-118,0,0,0,0,0,0,0,0,0,-1,1658,1142,0,0
441,-118,0,0,0,0,0,0,0,0,0,-1,1665,1142,0,0
448,-118,0,0,0,0,0,0,0,0,0,-1,1672,1142,0,0
455,-118,0,0,0,0,0,0,0,0,0,-1,1679,1142,0,0
462,-118,0,0,0,0,0,0,0,0,0,-1,1686,1142,0,0
469,-118,0,0,0,0,0,0,0,0,0,-1,1693,1142,0,0
476,-118,0,0,0,0,0,0,0,0,0,-1,1700,1142,0,0
483,-118,0,0,0,0,0,0,0,0,0,-1,1707,1142,0,0
490,-118,0,0,0,0,0,0,0,0,0,-1,1714,1142,0,0
497,-118,0,0,0,0,0,0,0,0,0,-1,1721,1142,0,0
504,-118,0,0,0,0,0,0,0,0,0,-1,1728,1142,0,0
511,-118,0,0,0,0,0,0,0,0,0,-1,1735,1142,0,0
518,-118,0,0,0,0,0,0,0,0,0,-1,1742,1142,0,0
525,-118,0,0,0,0,0,0,0,0,0,-1,1749,1142,0,0
532,-118,0,0,0,0,0,0,0,0,0,-1,1756,1142,0,0
539,-118,0,0,0,0,0,0,0,0,0,-1,1763,1142,0,0
546,-118,0,0,0,0,0,0,0,0,0,-1,1770,1142,0,0
553,-118,0,0,0,0,0,0,0,0,0,-1,1777,1142,0,0
560,-118,0,0,0,0,0,0,0,0,0,-1,1784,1142,0,0
567,-118,0,0,0,0,0,0,0,0,0,-1,1791,1142,0,0
574,-118,0,0,0,0,0,0,0,0,0,-1,1798,1142,0,0
581,-118,0,0,0,0,0,0,0,0,0,-1,1805,1142,0,0
588,-118,0,0,0,0,0,0,0,0,0,-1,1812,1142,0,0
595,-118,0,0,0,0,0,0,0,0,0,-1,1819,1142,0,0
602,-118,0,0,0,0,0,0,0,0,0,-1,1826,1142,0,0
609,-118,0,0,0,0,0,0,0,0,0,-1,1833,1142,0,0
616,-118,0,0,0,0,0,0,0,0,0,-1,1840,1142,0,0
623,-118,0,0,0,0,0,0,0,0,0,-1,1847,1142,0,0
630,-118,0,0,0,0,0,0,0,0,0,-1,1854,1142,0,0
637,-118,0,0,0,0,0,0,0,0,0,-1,1861,1142,0,0
644,-118,34.1459,2.75745,-0.00317133,0.00237623,-0.000393145,0.00240395,-0.00319905,-1.5004,0.00324574,0.0436987,1868,1142,34.1459,-2.75749
651,-118,33.9524,2.7804,-0.0027012,0.00189824,0.000190778,0.00190614,-0.0027091,1.52941,0.00267802,0.0425788,1875,1142,33.9524,-2.78042
658,-118,34.0642,2.61902,-0.00204549,0.00145453,0.000431943,0.00150705,-0.00209801,1.4498,0.00209068,0.0435425,1882,1142,34.0642,-2.61902
665,-118,34.0999,2.8363,-0.00139719,0.00101543,0.000544852,0.00113277,-0.00151453,1.35868,0.00153371,0.0432041,1889,1142,34.0998,-2.83631
672,-118,34.067,2.96448,-0.00133817,0.000117686,0.000991517,0.000619793,-0.00184027,1.10204,0.00147744,0.0451292,1896,1142,34.067,-2.96453
679,-118,33.9844,2.70764,-0.00182431,-0.000674029,0.00152823,0.000383708,-0.00288204,0.965372,0.0020612,0.040787,1903,1142,33.9844,-2.70761
686,-118,33.9868,2.86768,-0.00242068,-0.00137476,0.00196906,0.000139602,-0.00393505,0.915196,0.00267112,0.0364765,1910,1142,33.9868,-2.86762
693,-118,33.9567,2.73083,-0.00294126,-0.00187249,0.0023042,-4.15207e-05,-0.00477223,0.899342,0.00316774,0.0324992,1917,1142,33.9566,-2.73085
700,-118,34.0472,2.71948,-0.0031888,-0.00221862,0.00263124,-2.81262e-05,-0.00537929,0.876553,0.00357685,0.0187396,1924,1142,34.0472,-2.71945
707,-118,34.1226,2.75476,0,0,0,0,0,0,0,-1,1931,1142,34.1225,-2.75481
714,-118,31.6112,6.02869,0,0,0,0,0,0,0,-1,1938,1142,31.6113,-6.02863
721,-118,31.5508,5.79321,-0.00430738,-0.00249394,0.003101,-0.000169823,-0.0066315,0.927631,0.00436549,0.0149779,1945,1142,31.5507,-5.79325
728,-118,31.5856,5.56909,-0.00440937,-0.00220791,0.00321723,9.16738e-05,-0.00670896,0.950224,0.00450351,0.0178107,1952,1142,31.5855,-5.56905
735,-118,31.5345,5.38025,-0.00489638,-0.00178202,0.00281329,-0.000123703,-0.0065547,1.03816,0.00432915,0.0168529,1959,1142,31.5346,-5.38022
742,-118,31.5364,5.1908,-0.00528824,-0.000762095,0.00173526,-0.000173389,-0.00587694,1.24372,0.00386146,0.0222933,1966,1142,31.5364,-5.19078
749,-118,31.5167,4.95813,-0.00408525,0.00130151,0.000957482,0.00146664,-0.00425037,1.40002,0.00342867,0.0212308,1973,1142,31.5167,-4.95811
756,-118,31.5315,4.71899,-0.00133814,0.00403218,-0.000742522,0.00413295,-0.00143891,-1.4359,0.00333991,0.0181029,1980,1142,31.5314,-4.71901
763,-118,31.5062,4.50903,0.00153099,0.00818744,-0.00299393,0.0093359,0.000382532,-1.20451,0.00610042,0.0101563,1987,1142,31.5063,-4.50909
770,-118,31.4562,4.33154,0.0056833,0.0131198,-0.00571001,0.0162155,0.00258762,-1.074,0.0100593,0.0122844,1994,1142,31.4562,-4.33155
777,-118,31.3635,4.10107,0.010921,0.0188404,-0.00855192,0.0243049,0.00545659,-1.00221,0.0147253,0.0251722,2001,1142,31.3635,-4.10106
784,-118,31.2433,3.85266,0.0178088,0.0259379,-0.011611,0.0341752,0.00957149,-0.953763,0.0203573,0.0395483,2008,1142,31.2433,-3.85263
791,-118,31.3785,3.68896,0,0,0,0,0,0,0,-1,2015,1142,31.3785,-3.68901
798,-118,31.9224,2.99011,0.0392945,0.0462976,-0.0187633,0.0618833,0.0237088,-0.877646,0.0360522,0.0487805,2022,1142,31.9223,-2.99007
805,-118,31.8923,2.11438,0.0552317,0.0604391,-0.0226411,0.0806257,0.0350451,-0.842646,0.0466815,0.0492847,2029,1142,31.8922,-2.11444
812,-118,31.594,1.19556,0.0752823,0.0779716,-0.0263143,0.102976,0.0502783,-0.810925,0.0594585,0.0484698,2036,1142,31.5939,-1.19554
-700,-125,0,0,0,0,0,0,0,0,0,-1,524,1149,0,0
-693,-125,-29.1459,1.15125,0.00869965,0.0126379,0.00317702,0.0144066,0.00693102,1.06283,0.00831961,0.0428581,531,1149,-29.1459,-1.1513
-686,-125,-29.0348,0.00402832,0.00598063,0.00999349,-0.000867661,0.0101731,0.00580106,-1.36672,0.0058927,0.0454353,538,1149,-29.0348,-0.00399156
-679,-125,-28.9117,0.608398,0,0,0,0,0,0,0,-1,545,1149,-28.9117,-0.608434
-672,-125,-22.3397,-0.744019,0.00269353,0.00649091,-0.00458351,0.00955343,-0.000368991,-0.981761,0.00649544,0.0431521,552,1149,-22.3397,0.744065
-665,-125,-22.5148,-0.165894,0.00172247,0.00529374,-0.00522099,0.00902601,-0.0020098,-0.950168,0.0067872,0.0411563,559,1149,-22.5148,0.165952
-658,-125,-22.1512,1.24097,0,0,0,0,0,0,0,-1,566,1149,-22.1512,-1.24099
-651,-125,-21.8053,1.33948,0.000465992,0.00357921,-0.00498679,0.00724669,-0.00320149,-0.936679,0.00618113,0.0422866,573,1149,-21.8053,-1.33953
-644,-125,-21.457,1.36926,2.50396e-05,0.00289221,-0.00439183,0.00607851,-0.00316126,-0.943156,0.00542249,0.0280418,580,1149,-21.457,-1.36922
-637,-125,-21.506,1.57471,-0.000469343,0.00236137,-0.00381643,0.00501644,-0.00312441,-0.962966,0.00474224,0.0143808,587,1149,-21.5061,-1.57475
-630,-125,-21.5098,1.81873,-0.000635013,0.00141296,-0.00298056,0.00354053,-0.00276258,-0.950859,0.00364833,0.0151639,594,1149,-21.5098,-1.81878
-623,-125,-21.5263,2.07373,-0.000820971,0.000802905,-0.00192184,0.00207729,-0.00209535,-0.985265,0.00240908,0.0129721,601,1149,-21.5263,-2.07377
-616,-125,-21.5267,2.31409,-0.000455326,0.000359104,-0.000914869,0.000953292,-0.00104951,-0.994787,0.00115677,0.0142622,608,1149,-21.5266,-2.31413
-609,-125,-21.6284,2.49756,8.32039e-05,6.65937e-05,-3.82027e-05,0.000113994,3.58038e-05,-0.678366,6.73138e-05,0.0257983,615,1149,-21.6284,-2.49756
-602,-125,-21.6893,2.85278,0.000155202,-0.000215623,0.000412656,0.000422186,-0.000482607,0.574256,0.000522771,0.0223551,622,1149,-21.6893,-2.8528
-595,-125,-21.865,3.23499,0,0,0,0,0,0,0,-1,629,1149,-21.865,-3.23496
-588,-125,-21.3919,3.44092,0,0,0,0,0,0,0,-1,636,1149,-21.3919,-3.44094
-581,-125,-21.1264,3.74792,0,0,0,0,0,0,0,-1,643,1149,-21.1264,-3.74789
-574,-125,-24.1571,0.235352,0,0,0,0,0,0,0,-1,650,1149,-24.1571,-0.235297
-567,-125,-24.1977,0.591797,-0.00014043,-2.48443e-05,0.00106531,0.000984242,-0.00114952,0.812496,0.00123316,0.0398395,657,1149,-24.1977,-0.591744
-560,-125,-24.2346,0.84314,-0.000224836,0.000412172,0.00101445,0.00115694,-0.000969609,0.937508,0.00122935,0.0377187,664,1149,-24.2346,-0.843131
-553,-125,-24.2536,0.829712,-0.000554171,0.00115003,0.000680867,0.00138864,-0.000792784,1.23372,0.00127501,0.0387799,671,1149,-24.2536,-0.829689
-546,-125,-24.2677,0.792847,-0.00104942,0.00235282,7.37671e-05,0.00235442,-0.00105102,1.54913,0.00201356,0.039602,678,1149,-24.2677,-0.792886
-539,-125,-24.4133,1.07007,-0.00181949,0.00423401,-0.00105723,0.00441334,-0.00199882,-1.40277,0.00378854,0.0410978,685,1149,-24.4133,-1.0701
-532,-125,-24.5307,1.04724,-0.00226623,0.00681962,-0.00246806,0.00744676,-0.00289336,-1.32196,0.0061598,0.0396228,692,1149,-24.5307,-1.04721
-525,-125,-24.2943,0.774658,-0.00243549,0.00967093,-0.00393644,0.0108383,-0.00360286,-1.2825,0.00867944,0.0414161,699,1149,-24.2942,-0.774657
-518,-125,0,0,0,0,0,0,0,0,0,-1,706,1149,0,0
-511,-125,0,0,0,0,0,0,0,0,0,-1,713,1149,0,0
-504,-125,0,0,0,0,0,0,0,0,0,-1,720,1149,0,0
-497,-125,0,0,0,0,0,0,0,0,0,-1,727,1149,0,0
-490,-125,0,0,0,0,0,0,0,0,0,-1,734,1149,0,0
-483,-125,0,0,0,0,0,0,0,0,0,-1,741,1149,0,0
-476,-125,0,0,0,0,0,0,0,0,0,-1,748,1149,0,0
-469,-125,0,0,0,0,0,0,0,0,0,-1,755,1149,0,0
-462,-125,0,0,0,0,0,0,0,0,0,-1,762,1149,0,0
-455,-125,0,0,0,0,0,0,0,0,0,-1,769,1149,0,0
-448,-125,0,0,0,0,0,0,0,0,0,-1,776,1149,0,0
-441,-125,0,0,0,0,0,0,0,0,0,-1,783,1149,0,0
-434,-125,0,0,0,0,0,0,0,0,0,-1,790,1149,0,0
-427,-125,0,0,0,0,0,0,0,0,0,-1,797,1149,0,0
-420,-125,0,0,0,0,0,0,0,0,0,-1,804,1149,0,0
-413,-125,0,0,0,0,0,0,0,0,0,-1,811,1149,0,0
-406,-125,0,0,0,0,0,0,0,0,0,-1,818,1149,0,0
-399,-125,0,0,0,0,0,0,0,0,0,-1,825,1149,0,0
-392,-125,0,0,0,0,0,0,0,0,0,-1,832,1149,0,0
-385,-125,0,0,0,0,0,0,0,0,0,-1,839,1149,0,0
-378,-125,0,0,0,0,0,0,0,0,0,-1,846,1149,0,0
-371,-125,0,0,0,0,0,0,0,0,0,-1,853,1149,0,0
-364,-125,0,0,0,0,0,0,0,0,0,-1,860,1149,0,0
-357,-125,0,0,0,0,0,0,0,0,0,-1,867,1149,0,0
-350,-125,0,0,0,0,0,0,0,0,0,-1,874,1149,0,0
-343,-125,0,0,0,0,0,0,0,0,0,-1,881,1149,0,0
-336,-125,0,0,0,0,0,0,0,0,0,-1,888,1149,0,0
-329,-125,0,0,0,0,0,0,0,0,0,-1,895,1149,0,0
-322,-125,0,0,0,0,0,0,0,0,0,-1,902,1149,0,0
-315,-125,0,0,0,0,0,0,0,0,0,-1,909,1149,0,0
-308,-125,0,0,0,0,0,0,0,0,0,-1,916,1149,0,0
-301,-125,0,0,0,0,0,0,0,0,0,-1,923,1149,0,0
-294,-125,0,0,0,0,0,0,0,0,0,-1,930,1149,0,0
-287,-125,0,0,0,0,0,0,0,0,0,-1,937,1149,0,0
-280,-125,0,0,0,0,0,0,0,0,0,-1,944,1149,0,0
-273,-125,0,0,0,0,0,0,0,0,0,-1,951,1149,0,0
-266,-125,0,0,0,0,0,0,0,0,0,-1,958,1149,0,0
-259,-125,0,0,0,0,0,0,0,0,0,-1,965,1149,0,0
-252,-125,0,0,0,0,0,0,0,0,0,-1,972,1149,0,0
-245,-125,0,0,0,0,0,0,0,0,0,-1,979,1149,0,0
-238,-125,0,0,0,0,0,0,0,0,0,-1,986,1149,0,0
-231,-125,0,0,0,0,0,0,0,0,0,-1,993,1149,0,0
-224,-125,0,0,0,0,0,0,0,0,0,-1,1000,1149,0,0
-217,-125,0,0,0,0,0,0,0,0,0,-1,1007,1149,0,0
-210,-125,0,0,0,0,0,0,0,0,0,-1,1014,1149,0,0
-203,-125,0,0,0,0,0,0,0,0,0,-1,1021,1149,0,0
-196,-125,0,0,0,0,0,0,0,0,0,-1,1028,1149,0,0
-189,-125,0,0,0,0,0,0,0,0,0,-1,1035,1149,0,0
-182,-125,0,0,0,0,0,0,0,0,0,-1,1042,1149,0,0
-175,-125,0,0,0,0,0,0,0,0,0,-1,1049,1149,0,0
-168,-125,0,0,0,0,0,0,0,0,0,-1,1056,1149,0,0
-161,-125,0,0,0,0,0,0,0,0,0,-1,1063,1149,0,0
-154,-125,0,0,0,0,0,0,0,0,0,-1,1070,1149,0,0
-147,-125,0,0,0,0,0,0,0,0,0,-1,1077,1149,0,0
-140,-125,0,0,0,0,0,0,0,0,0,-1,1084,1149,0,0
-133,-125,0,0,0,0,0,0,0,0,0,-1,1091,1149,0,0
-126,-125,0,0,0,0,0,0,0,0,0,-1,1098,1149,0,0
-119,-125,0,0,0,0,0,0,0,0,0,-1,1105,1149,0,0
-112,-125,0,0,0,0,0,0,0,0,0,-1,1112,1149,0,0
-105,-125,0,0,0,0,0,0,0,0,0,-1,1119,1149,0,0
-98,-125,0,0,0,0,0,0,0,0,0,-1,1126,1149,0,0
-91,-125,0,0,0,0,0,0,0,0,0,-1,1133,1149,0,0
-84,-125,0,0,0,0,0,0,0,0,0,-1,1140,1149,0,0
-77,-125,0,0,0,0,0,0,0,0,0,-1,1147,1149,0,0
-70,-125,0,0,0,0,0,0,0,0,0,-1,1154,1149,0,0
-63,-125,0,0,0,0,0,0,0,0,0,-1,1161,1149,0,0
-56,-125,0,0,0,0,0,0,0,0,0,-1,1168,1149,0,0
-49,-125,0,0,0,0,0,0,0,0,0,-1,1175,1149,0,0
-42,-125,0,0,0,0,0,0,0,0,0,-1,1182,1149,0,0
-35,-125,0,0,0,0,0,0,0,0,0,-1,1189,1149,0,0
-28,-125,0,0,0,0,0,0,0,0,0,-1,1196,1149,0,0
-21,-125,0,0,0,0,0,0,0,0,0,-1,1203,1149,0,0
-14,-125,0,0,0,0,0,0,0,0,0,-1,1210,1149,0,0
-7,-125,0,0,0,0,0,0,0,0,0,-1,1217,1149,0,0
0,-125,0,0,0,0,0,0,0,0,0,-1,1224,1149,0,0
7,-125,0,0,0,0,0,0,0,0,0,-1,1231,1149,0,0
14,-125,0,0,0,0,0,0,0,0,0,-1,1238,1149,0,0
21,-125,0,0,0,0,0,0,0,0,0,-1,1245,1149,0,0
28,-125,0,0,0,0,0,0,0,0,0,-1,1252,1149,0,0
35,-125,0,0,0,0,0,0,0,0,0,-1,1259,1149,0,0
42,-125,0,0,0,0,0,0,0,0,0,-1,1266,1149,0,0
49,-125,0,0,0,0,0,0,0,0,0,-1,1273,1149,0,0
56,-125,0,0,0,0,0,0,0,0,0,-1,1280,1149,0,0
63,-125,0,0,0,0,0,0,0,0,0,-1,1287,1149,0,0
70,-125,0,0,0,0,0,0,0,0,0,-1,1294,1149,0,0
77,-125,0,0,0,0,0,0,0,0,0,-1,1301,1149,0,0
84,-125,0,0,0,0,0,0,0,0,0,-1,1308,1149,0,0
91,-125,0,0,0,0,0,0,0,0,0,-1,1315,1149,0,0
98,-125,0,0,0,0,0,0,0,0,0,-1,1322,1149,0,0
105,-125,0,0,0,0,0,0,0,0,0,-1,1329,1149,0,0
112,-125,0,0,0,0,0,0,0,0,0,-1,1336,1149,0,0
119,-125,0,0,0,0,0,0,0,0,0,-1,1343,1149,0,0
126,-125,0,0,0,0,0,0,0,0,0,-1,1350,1149,0,0
133,-125,0,0,0,0,0,0,0,0,0,-1,1357,1149,0,0
140,-125,0,0,0,0,0,0,0,0,0,-1,1364,1149,0,0
147,-125,0,0,0,0,0,0,0,0,0,-1,1371,1149,0,0
154,-125,0,0,0,0,0,0,0,0,0,-1,1378,1149,0,0
161,-125,0,0,0,0,0,0,0,0,0,-1,1385,1149,0,0
168,-125,0,0,0,0,0,0,0,0,0,-1,1392,1149,0,0
175,-125,0,0,0,0,0,0,0,0,0,-1,1399,1149,0,0
182,-125,0,0,0,0,0,0,0,0,0,-1,1406,1149,0,0
189,-125,0,0,0,0,0,0,0,0,0,-1,1413,1149,0,0
196,-125,0,0,0,0,0,0,0,0,0,-1,1420,1149,0,0
203,-125,0,0,0,0,0,0,0,0,0,-1,1427,1149,0,0
210,-125,0,0,0,0,0,0,0,0,0,-1,1434,1149,0,0
217,-125,0,0,0,0,0,0,0,0,0,-1,1441,1149,0,0
224,-125,0,0,0,0,0,0,0,0,0,-1,1448,1149,0,0
231,-125,0,0,0,0,0,0,0,0,0,-1,1455,1149,0,0
238,-125,0,0,0,0,0,0,0,0,0,-1,1462,1149,0,0
245,-125,0,0,0,0,0,0,0,0,0,-1,1469,1149,0,0
252,-125,0,0,0,0,0,0,0,0,0,-1,1476,1149,0,0
259,-125,0,0,0,0,0,0,0,0,0,-1,1483,1149,0,0
266,-125,0,0,0,0,0,0,0,0,0,-1,1490,1149,0,0
273,-125,0,0,0,0,0,0,0,0,0,-1,1497,1149,0,0
280,-125,0,0,0,0,0,0,0,0,0,-1,1504,1149,0,0
287,-125,0,0,0,0,0,0,0,0,0,-1,1511,1149,0,0
294,-125,0,0,0,0,0,0,0,0,0,-1,1518,1149,0,0
301,-125,0,0,0,0,0,0,0,0,0,-1,1525,1149,0,0
308,-125,0,0,0,0,0,0,0,0,0,-1,1532,1149,0,0
315,-125,0,0,0,0,0,0,0,0,0,-1,1539,1149,0,0
322,-125,0,0,0,0,0,0,0,0,0,-1,1546,1149,0,0
329,-125,0,0,0,0,0,0,0,0,0,-1,1553,1149,0,0
336,-125,0,0,0,0,0,0,0,0,0,-1,1560,1149,0,0
343,-125,0,0,0,0,0,0,0,0,0,-1,1567,1149,0,0
350,-125,0,0,0,0,0,0,0,0,0,-1,1574,1149,0,0
357,-125,0,0,0,0,0,0,0,0,0,-1,1581,1149,0,0
364,-125,0,0,0,0,0,0,0,0,0,-1,1588,1149,0,0
371,-125,0,0,0,0,0,0,0,0,0,-1,1595,1149,0,0
378,-125,0,0,0,0,0,0,0,0,0,-1,1602,1149,0,0
385,-125,0,0,0,0,0,0,0,0,0,-1,1609,1149,0,0
392,-125,0,0,0,0,0,0,0,0,0,-1,1616,1149,0,0
399,-125,0,0,0,0,0,0,0,0,0,-1,1623,1149,0,0
406,-125,0,0,0,0,0,0,0,0,0,-1,1630,1149,0,0
413,-125,0,0,0,0,0,0,0,0,0,-1,1637,1149,0,0
420,-125,0,0,0,0,0,0,0,0,0,-1,1644,1149,0,0
427,-125,0,0,0,0,0,0,0,0,0,-1,1651,1149,0,0
434,-125,0,0,0,0,0,0,0,0,0,-1,1658,1149,0,0
441,-125,0,0,0,0,0,0,0,0,0,-1,1665,1149,0,0
448,-125,0,0,0,0,0,0,0,0,0,-1,1672,1149,0,0
455,-125,0,0,0,0,0,0,0,0,0,-1,1679,1149,0,0
462,-125,0,0,0,0,0,0,0,0,0,-1,1686,1149,0,0
469,-125,0,0,0,0,0,0,0,0,0,-1,1693,1149,0,0
476,-125,0,0,0,0,0,0,0,0,0,-1,1700,1149,0,0
483,-125,0,0,0,0,0,0,0,0,0,-1,1707,1149,0,0
490,-125,0,0,0,0,0,0,0,0,0,-1,1714,1149,0,0
497,-125,0,0,0,0,0,0,0,0,0,-1,1721,1149,0,0
504,-125,0,0,0,0,0,0,0,0,0,-1,1728,1149,0,0
511,-125,0,0,0,0,0,0,0,0,0,-1,1735,1149,0,0
518,-125,0,0,0,0,0,0,0,0,0,-1,1742,1149,0,0
525,-125,0,0,0,0,0,0,0,0,0,-1,1749,1149,0,0
532,-125,0,0,0,0,0,0,0,0,0,-1,1756,1149,0,0
539,-125,0,0,0,0,0,0,0,0,0,-1,1763,1149,0,0
546,-125,0,0,0,0,0,0,0,0,0,-1,1770,1149,0,0
553,-125,0,0,0,0,0,0,0,0,0,-1,1777,1149,0,0
560,-125,0,0,0,0,0,0,0,0,0,-1,1784,1149,0,0
567,-125,0,0,0,0,0,0,0,0,0,-1,1791,1149,0,0
574,-125,0,0,0,0,0,0,0,0,0,-1,1798,1149,0,0
581,-125,0,0,0,0,0,0,0,0,0,-1,1805,1149,0,0
588,-125,0,0,0,0,0,0,0,0,0,-1,1812,1149,0,0
595,-125,0,0,0,0,0,0,0,0,0,-1,1819,1149,0,0
602,-125,0,0,0,0,0,0,0,0,0,-1,1826,1149,0,0
609,-125,0,0,0,0,0,0,0,0,0,-1,1833,1149,0,0
616,-125,0,0,0,0,0,0,0,0,0,-1,1840,1149,0,0
623,-125,0,0,0,0,0,0,0,0,0,-1,1847,1149,0,0
630,-125,0,0,0,0,0,0,0,0,0,-1,1854,1149,0,0
637,-125,0,0,0,0,0,0,0,0,0,-1,1861,1149,0,0
644,-125,34.0446,2.85754,0,0,0,0,0,0,0,-1,1868,1149,34.0445,-2.85752
651,-125,34.0164,2.79272,0,0,0,0,0,0,0,-1,1875,1149,34.0164,-2.7927
658,-125,33.9166,2.53625,-0.00186311,0.00116148,0.000364834,0.00120486,-0.00190649,1.45244,0.0018115,0.0405936,1882,1149,33.9167,-2.53626
665,-125,33.9738,2.66479,-0.00129096,0.000781891,0.000498589,0.000895583,-0.00140465,1.3466,0.00133884,0.0430317,1889,1149,33.9737,-2.66481
672,-125,33.8655,2.80322,-0.00130831,-1.47852e-05,0.00092081,0.000463704,-0.0017868,1.09156,0.00137214,0.042605,1896,1149,33.8654,-2.80319
679,-125,33.9436,2.79883,-0.00186227,-0.00068422,0.00139226,0.000238485,-0.00278497,0.985516,0.00194103,0.0375053,1903,1149,33.9436,-2.79878
686,-125,33.9749,2.78162,-0.00250445,-0.00128168,0.00177482,-1.58958e-05,-0.00377024,0.951271,0.00250821,0.0353954,1910,1149,33.9749,-2.78156
693,-125,33.9546,2.71167,-0.00306095,-0.00168551,0.00205274,-0.00020835,-0.00453811,0.947034,0.00295841,0.0289752,1917,1149,33.9546,-2.71162
700,-125,34.0393,2.7616,-0.00329452,-0.00197087,0.00236043,-0.000181239,-0.00508415,0.922081,0.00333067,0.012521,1924,1149,34.0394,-2.76165
707,-125,34.1321,2.80457,0,0,0,0,0,0,0,-1,1931,1149,34.1321,-2.80453
714,-125,31.2516,6.05188,0,0,0,0,0,0,0,-1,1938,1149,31.2516,-6.05192
721,-125,31.2598,5.83252,-0.00440827,-0.00219735,0.00277088,-0.00031956,-0.00628606,0.975201,0.00408835,0.0226399,1945,1149,31.2597,-5.83258
728,-125,31.28,5.62817,-0.00452359,-0.00194853,0.00288868,-7.34301e-05,-0.00639869,0.995041,0.00424153,0.017728,1952,1149,31.2801,-5.62812
735,-125,31.2821,5.40381,-0.0049637,-0.00159581,0.00249894,-0.000266391,-0.00629312,1.08188,0.0041095,0.0201857,1959,1149,31.282,-5.40383
742,-125,31.3043,5.16992,-0.0053376,-0.000455372,0.0012611,-0.000148866,-0.0056441,1.33237,0.00371411,0.0241248,1966,1149,31.3044,-5.16998
749,-125,31.2596,4.94946,-0.00405202,0.00164086,0.00029951,0.00165657,-0.00406773,1.51838,0.00340125,0.0260876,1973,1149,31.2596,-4.94945
756,-125,31.2803,4.72534,-0.00099253,0.00459527,-0.00168344,0.00506325,-0.00146051,-1.29965,0.00395331,0.0211671,1980,1149,31.2803,-4.72531
763,-125,31.2902,4.5022,0.00219285,0.00910154,-0.00430982,0.0111705,0.000123873,-1.12323,0.00740606,0.0110036,1987,1149,31.2902,-4.50224
770,-125,31.2499,4.28381,0.00674269,0.0144163,-0.0074404,0.0189509,0.00220807,-1.02345,0.011966,0.0133422,1994,1149,31.2499,-4.28377
777,-125,31.2074,4.11597,0.0124913,0.0206094,-0.0107201,0.0280132,0.00508752,-0.966378,0.0172318,0.0273787,2001,1149,31.2073,-4.11598
784,-125,31.0906,3.84814,0.020122,0.0283753,-0.014304,0.039136,0.00936128,-0.925833,0.0235975,0.0455905,2008,1149,31.0905,-3.8482
791,-125,31.2725,2.09656,0.0303492,0.0382701,-0.0182548,0.0529892,0.0156302,-0.89222,0.031439,0.0427306,2015,1149,31.2724,-2.09659
798,-125,31.272,2.02051,0.0440486,0.0507665,-0.0224552,0.0701125,0.0247025,-0.859639,0.0410638,0.0430569,2022,1149,31.2719,-2.02052
805,-125,31.5728,1.35327,0.0619482,0.0664319,-0.0265841,0.0908685,0.0375116,-0.827464,0.0527281,0.0474761,2029,1149,31.5728,-1.35322
812,-125,31.5042,0.585205,0,0,0,0,0,0,0,-1,2036,1149,31.5041,-0.585231
-700,-132,0,0,0,0,0,0,0,0,0,-1,524,1156,0,0
-693,-132,-30.0521,1.52966,0,0,0,0,0,0,0,-1,531,1156,-30.0521,-1.52961
-686,-132,-30.1045,-0.646362,0,0,0,0,0,0,0,-1,538,1156,-30.1045,0.646393
-679,-132,-21.3442,-1.35645,0,0,0,0,0,0,0,-1,545,1156,-21.3442,1.35647
-672,-132,-21.594,-0.742676,0.0047035,0.00790739,-0.00433599,0.0109279,0.001683,-0.962348,0.0067941,0.0438128,552,1156,-21.594,0.742734
-665,-132,-21.8144,-0.211304,0.0034621,0.00669032,-0.00476539,0.0101075,4.48767e-05,-0.948691,0.00672345,0.041162,559,1156,-21.8144,0.211344
-658,-132,-21.5315,0.903442,0,0,0,0,0,0,0,-1,566,1156,-21.5315,-0.903407
-651,-132,-21.3738,1.11829,0.00168548,0.00470035,-0.00438185,0.00782681,-0.00144098,-0.951066,0.00575861,0.0445826,573,1156,-21.3739,-1.11831
-644,-132,-21.2339,1.32349,0.000944758,0.00381252,-0.00382766,0.00646606,-0.00170878,-0.964613,0.00497902,0.0237806,580,1156,-21.2339,-1.32353
-637,-132,-21.2352,1.55151,0.000180172,0.0030904,-0.00333622,0.00527502,-0.00200445,-0.991039,0.0043419,0.0125399,587,1156,-21.2351,-1.5515
-630,-132,-21.2427,1.82129,-0.000242975,0.00195158,-0.00254806,0.00362858,-0.00191998,-0.988714,0.0032537,0.0103051,594,1156,-21.2427,-1.82124
-623,-132,-21.2681,2.09827,-0.000751187,0.00109767,-0.00166322,0.0020761,-0.00172962,-1.03904,0.00220027,0.0144639,601,1156,-21.268,-2.09826
-616,-132,-21.2989,2.34668,-0.000673148,0.000517571,-0.000741818,0.000873393,-0.00102897,-1.12355,0.00109955,0.0206443,608,1156,-21.2989,-2.3467
-609,-132,-21.169,2.60376,0,0,0,0,0,0,0,-1,615,1156,-21.169,-2.60374
-602,-132,-21.3326,2.80823,-0.000338476,-0.000180018,0.000517601,0.000264382,-0.000782877,0.861344,0.000628852,0.0207391,622,1156,-21.3326,-2.80823
-595,-132,-21.3815,3.11853,-0.000672467,-0.000616164,0.00095478,0.000310879,-0.00159951,0.800137,0.00118365,0.0271268,629,1156,-21.3815,-3.11852
-588,-132,-21.2374,3.46936,-0.000986376,-0.000647385,0.000992077,0.000189571,-0.00182333,0.870006,0.00128342,0.023321,636,1156,-21.2374,-3.4693
-581,-132,-20.9656,3.87854,0,0,0,0,0,0,0,-1,643,1156,-20.9656,-3.87858
-574,-132,-23.9877,0.291626,0,0,0,0,0,0,0,-1,650,1156,-23.9877,-0.291567
-567,-132,-24.244,0.568481,-0.000616623,0.000282078,0.000896214,0.000835281,-0.00116983,1.01778,0.00116301,0.0459191,657,1156,-24.244,-0.568458
-560,-132,-24.2357,0.687378,-0.0006433,0.000790074,0.000786249,0.00113726,-0.000990486,1.15497,0.00122943,0.0361041,664,1156,-24.2357,-0.687369
-553,-132,-24.2911,0.679199,-0.000806039,0.00162053,0.000379079,0.00167837,-0.00086388,1.41938,0.00149267,0.0367748,671,1156,-24.2912,-0.67923
-546,-132,-24.3031,0.844238,-0.000974349,0.00294013,-0.000278079,0.00295979,-0.000994005,-1.50023,0.00237491,0.04123,678,1156,-24.3031,-0.844216
-539,-132,-24.2895,0.904785,-0.00132697,0.00502897,-0.00144633,0.00534261,-0.00164062,-1.35725,0.00421639,0.0441392,685,1156,-24.2895,-0.904823
-532,-132,-24.3032,0.794312,-0.00141646,0.00798614,-0.00291716,0.00881766,-0.00224797,-1.29312,0.00675364,0.0423922,692,1156,-24.3031,-0.794273
-525,-132,-24.2532,0.703979,-0.00116124,0.0113468,-0.0043696,0.0127221,-0.00253652,-1.26587,0.00944115,0.0408275,699,1156,-24.2533,-0.703975
-518,-132,0,0,0,0,0,0,0,0,0,-1,706,1156,0,0
-511,-132,0,0,0,0,0,0,0,0,0,-1,713,1156,0,0
-504,-132,0,0,0,0,0,0,0,0,0,-1,720,1156,0,0
-497,-132,0,0,0,0,0,0,0,0,0,-1,727,1156,0,0
-490,-132,0,0,0,0,0,0,0,0,0,-1,734,1156,0,0
-483,-132,0,0,0,0,0,0,0,0,0,-1,741,1156,0,0
-476,-132,0,0,0,0,0,0,0,0,0,-1,748,1156,0,0
-469,-132,0,0,0,0,0,0,0,0,0,-1,755,1156,0,0
-462,-132,0,0,0,0,0,0,0,0,0,-1,762,1156,0,0
-455,-132,0,0,0,0,0,0,0,0,0,-1,769,1156,0,0
-448,-132,0,0,0,0,0,0,0,0,0,-1,776,1156,0,0
-441,-132,0,0,0,0,0,0,0,0,0,-1,783,1156,0,0
-434,-132,0,0,0,0,0,0,0,0,0,-1,790,1156,0,0
-427,-132,0,0,0,0,0,0,0,0,0,-1,797,1156,0,0
-420,-132,0,0,0,0,0,0,0,0,0,-1,804,1156,0,0
-413,-132,0,0,0,0,0,0,0,0,0,-1,811,1156,0,0
-406,-132,0,0,0,0,0,0,0,0,0,-1,818,1156,0,0
-399,-132,0,0,0,0,0,0,0,0,0,-1,825,1156,0,0
-392,-132,0,0,0,0,0,0,0,0,0,-1,832,1156,0,0
-385,-132,0,0,0,0,0,0,0,0,0,-1,839,1156,0,0
-378,-132,0,0,0,0,0,0,0,0,0,-1,846,1156,0,0
-371,-132,0,0,0,0,0,0,0,0,0,-1,853,1156,0,0
-364,-132,0,0,0,0,0,0,0,0,0,-1,860,1156,0,0
-357,-132,0,0,0,0,0,0,0,0,0,-1,867,1156,0,0
-350,-132,0,0,0,0,0,0,0,0,0,-1,874,1156,0,0
-343,-132,0,0,0,0,0,0,0,0,0,-1,881,1156,0,0
-336,-132,0,0,0,0,0,0,0,0,0,-1,888,1156,0,0
-329,-132,0,0,0,0,0,0,0,0,0,-1,895,1156,0,0
-322,-132,0,0,0,0,0,0,0,0,0,-1,902,1156,0,0
-315,-132,0,0,0,0,0,0,0,0,0,-1,909,1156,0,0
-308,-132,0,0,0,0,0,0,0,0,0,-1,916,1156,0,0
-301,-132,0,0,0,0,0,0,0,0,0,-1,923,1156,0,0
-294,-132,0,0,0,0,0,0,0,0,0,-1,930,1156,0,0
-287,-132,0,0,0,0,0,0,0,0,0,-1,937,1156,0,0
-280,-132,0,0,0,0,0,0,0,0,0,-1,944,1156,0,0
-273,-132,0,0,0,0,0,0,0,0,0,-1,951,1156,0,0
-266,-132,0,0,0,0,0,0,0,0,0,-1,958,1156,0,0
-259,-132,0,0,0,0,0,0,0,0,0,-1,965,1156,0,0
-252,-132,0,0,0,0,0,0,0,0,0,-1,972,1156,0,0
-245,-132,0,0,0,0,0,0,0,0,0,-1,979,1156,0,0
-238,-132,0,0,0,0,0,0,0,0,0,-1,986,1156,0,0
-231,-132,0,0,0,0,0,0,0,0,0,-1,993,1156,0,0
-224,-132,0,0,0,0,0,0,0,0,0,-1,1000,1156,0,0
-217,-132,0,0,0,0,0,0,0,0,0,-1,1007,1156,0,0
-210,-132,0,0,0,0,0,0,0,0,0,-1,1014,1156,0,0
-203,-132,0,0,0,0,0,0,0,0,0,-1,1021,1156,0,0
-196,-132,0,0,0,0,0,0,0,0,0,-1,1028,1156,0,0
-189,-132,0,0,0,0,0,0,0,0,0,-1,1035,1156,0,0
-182,-132,0,0,0,0,0,0,0,0,0,-1,1042,1156,0,0
-175,-132,0,0,0,0,0,0,0,0,0,-1,1049,1156,0,0
-168,-132,0,0,0,0,0,0,0,0,0,-1,1056,1156,0,0
-161,-132,0,0,0,0,0,0,0,0,0,-1,1063,1156,0,0
-154,-132,0,0,0,0,0,0,0,0,0,-1,1070,1156,0,0
-147,-132,0,0,0,0,0,0,0,0,0,-1,1077,1156,0,0
-140,-132,0,0,0,0,0,0,0,0,0,-1,1084,1156,0,0
-133,-132,0,0,0,0,0,0,0,0,0,-1,1091,1156,0,0
-126,-132,0,0,0,0,0,0,0,0,0,-1,1098,1156,0,0
-119,-132,0,0,0,0,0,0,0,0,0,-1,1105,1156,0,0
-112,-132,0,0,0,0,0,0,0,0,0,-1,1112,1156,0,0
-105,-132,0,0,0,0,0,0,0,0,0,-1,1119,1156,0,0
-98,-132,0,0,0,0,0,0,0,0,0,-1,1126,1156,0,0
-91,-132,0,0,0,0,0,0,0,0,0,-1,1133,1156,0,0
-84,-132,0,0,0,0,0,0,0,0,0,-1,1140,1156,0,0
-77,-132,0,0,0,0,0,0,0,0,0,-1,1147,1156,0,0
-70,-132,0,0,0,0,0,0,0,0,0,-1,1154,1156,0,0
-63,-132,0,0,0,0,0,0,0,0,0,-1,1161,1156,0,0
-56,-132,0,0,0,0,0,0,0,0,0,-1,1168,1156,0,0
-49,-132,0,0,0,0,0,0,0,0,0,-1,1175,1156,0,0
-42,-132,0,0,0,0,0,0,0,0,0,-1,1182,1156,0,0
-35,-132,0,0,0,0,0,0,0,0,0,-1,1189,1156,0,0
-28,-132,0,0,0,0,0,0,0,0,0,-1,1196,1156,0,0
-21,-132,0,0,0,0,0,0,0,0,0,-1,1203,1156,0,0
-14,-132,0,0,0,0,0,0,0,0,0,-1,1210,1156,0,0
-7,-132,0,0,0,0,0,0,0,0,0,-1,1217,1156,0,0
0,-132,0,0,0,0,0,0,0,0,0,-1,1224,1156,0,0
7,-132,0,0,0,0,0,0,0,0,0,-1,1231,1156,0,0
14,-132,0,0,0,0,0,0,0,0,0,-1,1238,1156,0,0
21,-132,0,0,0,0,0,0,0,0,0,-1,1245,1156,0,0
28,-132,0,0,0,0,0,0,0,0,0,-1,1252,1156,0,0
35,-132,0,0,0,0,0,0,0,0,0,-1,1259,1156,0,0
42,-132,0,0,0,0,0,0,0,0,0,-1,1266,1156,0,0
49,-132,0,0,0,0,0,0,0,0,0,-1,1273,1156,0,0
56,-132,0,0,0,0,0,0,0,0,0,-1,1280,1156,0,0
63,-132,0,0,0,0,0,0,0,0,0,-1,1287,1156,0,0
70,-132,0,0,0,0,0,0,0,0,0,-1,1294,1156,0,0
77,-132,0,0,0,0,0,0,0,0,0,-1,1301,1156,0,0
84,-132,0,0,0,0,0,0,0,0,0,-1,1308,1156,0,0
91,-132,0,0,0,0,0,0,0,0,0,-1,1315,1156,0,0
98,-132,0,0,0,0,0,0,0,0,0,-1,1322,1156,0,0
105,-132,0,0,0,0,0,0,0,0,0,-1,1329,1156,0,0
112,-132,0,0,0,0,0,0,0,0,0,-1,1336,1156,0,0
119,-132,0,0,0,0,0,0,0,0,0,-1,1343,1156,0,0
126,-132,0,0,0,0,0,0,0,0,0,-1,1350,1156,0,0
133,-132,0,0,0,0,0,0,0,0,0,-1,1357,1156,0,0
140,-132,0,0,0,0,0,0,0,0,0,-1,1364,1156,0,0
147,-132,0,0,0,0,0,0,0,0,0,-1,1371,1156,0,0
154,-132,0,0,0,0,0,0,0,0,0,-1,1378,1156,0,0
161,-132,0,0,0,0,0,0,0,0,0,-1,1385,1156,0,0
168,-132,0,0,0,0,0,0,0,0,0,-1,1392,1156,0,0
175,-132,0,0,0,0,0,0,0,0,0,-1,1399,1156,0,0
182,-132,0,0,0,0,0,0,0,0,0,-1,1406,1156,0,0
189,-132,0,0,0,0,0,0,0,0,0,-1,1413,1156,0,0
196,-132,0,0,0,0,0,0,0,0,0,-1,1420,1156,0,0
203,-132,0,0,0,0,0,0,0,0,0,-1,1427,1156,0,0
210,-132,0,0,0,0,0,0,0,0,0,-1,1434,1156,0,0
217,-132,0,0,0,0,0,0,0,0,0,-1,1441,1156,0,0
224,-132,0,0,0,0,0,0,0,0,0,-1,1448,1156,0,0
231,-132,0,0,0,0,0,0,0,0,0,-1,1455,1156,0,0
238,-132,0,0,0,0,0,0,0,0,0,-1,1462,1156,0,0
245,-132,0,0,0,0,0,0,0,0,0,-1,1469,1156,0,0
252,-132,0,0,0,0,0,0,0,0,0,-1,1476,1156,0,0
259,-132,0,0,0,0,0,0,0,0,0,-1,1483,1156,0,0
266,-132,0,0,0,0,0,0,0,0,0,-1,1490,1156,0,0
273,-132,0,0,0,0,0,0,0,0,0,-1,1497,1156,0,0
280,-132,0,0,0,0,0,0,0,0,0,-1,1504,1156,0,0
287,-132,0,0,0,0,0,0,0,0,0,-1,1511,1156,0,0
294,-132,0,0,0,0,0,0,0,0,0,-1,1518,1156,0,0
301,-132,0,0,0,0,0,0,0,0,0,-1,1525,1156,0,0
308,-132,0,0,0,0,0,0,0,0,0,-1,1532,1156,0,0
315,-132,0,0,0,0,0,0,0,0,0,-1,1539,1156,0,0
322,-132,0,0,0,0,0,0,0,0,0,-1,1546,1156,0,0
329,-132,0,0,0,0,0,0,0,0,0,-1,1553,1156,0,0
336,-132,0,0,0,0,0,0,0,0,0,-1,1560,1156,0,0
343,-132,0,0,0,0,0,0,0,0,0,-1,1567,1156,0,0
350,-132,0,0,0,0,0,0,0,0,0,-1,1574,1156,0,0
357,-132,0,0,0,0,0,0,0,0,0,-1,1581,1156,0,0
364,-132,0,0,0,0,0,0,0,0,0,-1,1588,1156,0,0
371,-132,0,0,0,0,0,0,0,0,0,-1,1595,1156,0,0
378,-132,0,0,0,0,0,0,0,0,0,-1,1602,1156,0,0
385,-132,0,0,0,0,0,0,0,0,0,-1,1609,1156,0,0
392,-132,0,0,0,0,0,0,0,0,0,-1,1616,1156,0,0
399,-132,0,0,0,0,0,0,0,0,0,-1,1623,1156,0,0
406,-132,0,0,0,0,0,0,0,0,0,-1,1630,1156,0,0
413,-132,0,0,0,0,0,0,0,0,0,-1,1637,1156,0,0
420,-132,0,0,0,0,0,0,0,0,0,-1,1644,1156,0,0
427,-132,0,0,0,0,0,0,0,0,0,-1,1651,1156,0,0
434,-132,0,0,0,0,0,0,0,0,0,-1,1658,1156,0,0
441,-132,0,0,0,0,0,0,0,0,0,-1,1665,1156,0,0
448,-132,0,0,0,0,0,0,0,0,0,-1,1672,1156,0,0
455,-132,0,0,0,0,0,0,0,0,0,-1,1679,1156,0,0
462,-132,0,0,0,0,0,0,0,0,0,-1,1686,1156,0,0
469,-132,0,0,0,0,0,0,0,0,0,-1,1693,1156,0,0
476,-132,0,0,0,0,0,0,0,0,0,-1,1700,1156,0,0
483,-132,0,0,0,0,0,0,0,0,0,-1,1707,1156,0,0
490,-132,0,0,0,0,0,0,0,0,0,-1,1714,1156,0,0
497,-132,0,0,0,0,0,0,0,0,0,-1,1721,1156,0,0
504,-132,0,0,0,0,0,0,0,0,0,-1,1728,1156,0,0
511,-132,0,0,0,0,0,0,0,0,0,-1,1735,1156,0,0
518,-132,0,0,0,0,0,0,0,0,0,-1,1742,1156,0,0
525,-132,0,0,0,0,0,0,0,0,0,-1,1749,1156,0,0
532,-132,0,0,0,0,0,0,0,0,0,-1,1756,1156,0,0
539,-132,0,0,0,0,0,0,0,0,0,-1,1763,1156,0,0
546,-132,0,0,0,0,0,0,0,0,0,-1,1770,1156,0,0
553,-132,0,0,0,0,0,0,0,0,0,-1,1777,1156,0,0
560,-132,0,0,0,0,0,0,0,0,0,-1,1784,1156,0,0
567,-132,0,0,0,0,0,0,0,0,0,-1,1791,1156,0,0
574,-132,0,0,0,0,0,0,0,0,0,-1,1798,1156,0,0
581,-132,0,0,0,0,0,0,0,0,0,-1,1805,1156,0,0
588,-132,0,0,0,0,0,0,0,0,0,-1,1812,1156,0,0
595,-132,0,0,0,0,0,0,0,0,0,-1,1819,1156,0,0
602,-132,0,0,0,0,0,0,0,0,0,-1,1826,1156,0,0
609,-132,0,0,0,0,0,0,0,0,0,-1,1833,1156,0,0
616,-132,0,0,0,0,0,0,0,0,0,-1,1840,1156,0,0
623,-132,0,0,0,0,0,0,0,0,0,-1,1847,1156,0,0
630,-132,0,0,0,0,0,0,0,0,0,-1,1854,1156,0,0
637,-132,0,0,0,0,0,0,0,0,0,-1,1861,1156,0,0
644,-132,34.0862,2.83728,-0.00237843,0.00129953,-0.000297105,0.00132337,-0.00240227,-1.49071,0.00218086,0.0446358,1868,1156,34.0862,-2.83729
651,-132,33.8064,2.73486,-0.00213401,0.00112546,0.000191849,0.00113671,-0.00214526,1.51221,0.00192444,0.0396844,1875,1156,33.8064,-2.73487
658,-132,33.7754,2.72473,-0.00160944,0.000963323,0.000398296,0.00102357,-0.00166969,1.42066,0.0015698,0.0399987,1882,1156,33.7754,-2.7247
665,-132,33.8625,2.76953,-0.00110898,0.000646099,0.000561277,0.000810245,-0.00127312,1.28628,0.00121269,0.0416383,1889,1156,33.8626,-2.76951
672,-132,33.8835,2.82666,-0.00116368,-1.80808e-05,0.000930102,0.000501452,-0.00168321,1.06139,0.0013214,0.0388811,1896,1156,33.8835,-2.82661
679,-132,33.9856,2.71008,-0.0017355,-0.000563443,0.00130296,0.000279211,-0.00257815,0.996728,0.00181899,0.0393898,1903,1156,33.9856,-2.71008
686,-132,34.0294,2.68982,-0.0023937,-0.00107019,0.0016131,1.16185e-05,-0.0034755,0.980048,0.00232089,0.0366241,1910,1156,34.0294,-2.68981
693,-132,34.0026,2.7677,-0.0029832,-0.0014102,0.00183354,-0.000201589,-0.00419181,0.988005,0.00272983,0.0257823,1917,1156,34.0025,-2.7677
700,-132,34.0348,2.73987,-0.00321566,-0.00165441,0.00211446,-0.000181081,-0.00468899,0.962229,0.00306742,0.0272785,1924,1156,34.0348,-2.7399
707,-132,32.6127,4.81396,0,0,0,0,0,0,0,-1,1931,1156,32.6127,-4.81397
714,-132,31.5068,5.66235,-0.00392852,-0.00189465,0.00242217,-0.000284599,-0.00553858,0.984146,0.00360127,0.0452383,1938,1156,31.5068,-5.66241
721,-132,31.0281,5.83459,-0.0043017,-0.00182465,0.00241054,-0.00035307,-0.00577328,1.02271,0.00373673,0.0279161,1945,1156,31.0281,-5.83463
728,-132,31.033,5.62524,-0.00441893,-0.00160897,0.00244966,-0.000189978,-0.00583792,1.04577,0.00383019,0.0189857,1952,1156,31.033,-5.62529
735,-132,31.0096,5.42407,-0.00482686,-0.00131434,0.00205499,-0.000367376,-0.00577383,1.13899,0.00373279,0.0207809,1959,1156,31.0096,-5.42402
742,-132,31.0273,5.14868,-0.00518059,-9.77073e-05,0.000681771,-7.84942e-06,-0.00527045,1.43975,0.00351102,0.0194223,1966,1156,31.0273,-5.14865
749,-132,31.0083,4.92615,-0.00385003,0.00198285,-0.000503042,0.00202592,-0.0038931,-1.48539,0.00347356,0.0241644,1973,1156,31.0083,-4.92615
756,-132,31.0323,4.70911,-0.000502074,0.00501629,-0.00282823,0.0062083,-0.00169409,-1.17192,0.00480418,0.021661,1980,1156,31.0324,-4.70906
763,-132,31.0519,4.50781,0.00303071,0.00957404,-0.00590636,0.0130543,-0.000449579,-1.03832,0.00885655,0.0123116,1987,1156,31.0519,-4.50776
770,-132,31.0474,4.2998,0.00803306,0.0149294,-0.00955394,0.0216384,0.00132408,-0.958581,0.0140051,0.0121586,1994,1156,31.0474,-4.2998
777,-132,31.0077,4.05774,0.0144627,0.0211673,-0.0134706,0.0316965,0.00393348,-0.90735,0.0199495,0.022842,2001,1156,31.0077,-4.05779
784,-132,30.9272,3.797,0.0230906,0.0289568,-0.017865,0.0441279,0.00791951,-0.866764,0.0271663,0.0465909,2008,1156,30.9272,-3.79703
791,-132,30.0923,2.48706,0.0347122,0.0387313,-0.0227422,0.0595525,0.0138909,-0.829465,0.0359766,0.0468967,2015,1156,30.0923,-2.48712
798,-132,29.8806,1.51013,0.0503383,0.0508655,-0.0279261,0.0785292,0.0226746,-0.790118,0.0466684,0.0443774,2022,1156,29.8806,-1.51014
805,-132,31.5032,0.967163,0.0709609,0.0657933,-0.0330148,0.101493,0.0352613,-0.746347,0.0594994,0.0446109,2029,1156,31.5032,-0.967185
812,-132,31.698,0.304077,0,0,0,0,0,0,0,-1,2036,1156,31.6981,-0.304023
-700,-139,0,0,0,0,0,0,0,0,0,-1,524,1163,0,0
-693,-139,-19.2156,-2.55981,0,0,0,0,0,0,0,-1,531,1163,-19.2156,2.55985
-686,-139,-20.0581,-1.88062,0,0,0,0,0,0,0,-1,538,1163,-20.0581,1.88059
-679,-139,-20.5866,-1.29883,0,0,0,0,0,0,0,-1,545,1163,-20.5866,1.29879
-672,-139,-20.8711,-0.734741,0.0045005,0.0103234,-0.00412683,0.0124624,0.00236147,-1.0926,0.00764369,0.0472187,552,1163,-20.8711,0.734705
-665,-139,-21.3741,-0.368652,0.00300685,0.00911863,-0.00446443,0.0114729,0.000652604,-1.08552,0.0074406,0.0425551,559,1163,-21.3741,0.368609
-658,-139,-21.1215,0.501343,0,0,0,0,0,0,0,-1,566,1163,-21.1214,-0.501402
-651,-139,-21.3051,0.705566,0.00113322,0.00669648,-0.0040475,0.00882603,-0.000996329,-1.08646,0.00624269,0.0423424,573,1163,-21.305,-0.705612
-644,-139,-20.9473,1.26208,0.00042276,0.00546283,-0.00353891,0.00728727,-0.00140168,-1.0948,0.00538654,0.0229551,580,1163,-20.9473,-1.26214
-637,-139,-20.938,1.53528,-0.000278017,0.00439725,-0.0030998,0.00594205,-0.00182282,-1.10847,0.00468861,0.0125393,587,1163,-20.938,-1.53527
-630,-139,-20.9678,1.81384,-0.000643373,0.00296054,-0.00233397,0.00410722,-0.00179006,-1.11413,0.00349131,0.0108756,594,1163,-20.9678,-1.81388
-623,-139,-20.9917,2.08142,-0.00117325,0.00174592,-0.00158836,0.00244348,-0.00187081,-1.15699,0.00249816,0.0169377,601,1163,-20.9917,-2.08138
-616,-139,-20.9754,2.31958,-0.00118287,0.000942194,-0.000759424,0.00118569,-0.00142636,-1.26052,0.0015102,0.0180871,608,1163,-20.9754,-2.3196
-609,-139,-20.8884,2.61902,-0.000874361,0.000349389,-7.59027e-06,0.000349436,-0.000874408,-1.56459,0.000727933,0.0293966,615,1163,-20.8885,-2.61907
-602,-139,-21.0327,2.89685,-0.000930949,7.5115e-05,0.000483892,0.000270075,-0.00112591,1.18779,0.00085497,0.0252264,622,1163,-21.0326,-2.89683
-595,-139,-21.1304,3.1593,-0.00130892,-0.000299482,0.000861814,0.000194532,-0.00180293,1.0503,0.00127177,0.025433,629,1163,-21.1304,-3.15932
-588,-139,-21.0008,3.45642,-0.00162351,-0.000274872,0.000803025,9.94059e-05,-0.00199779,1.13465,0.0013662,0.0227661,636,1163,-21.0008,-3.45645
-581,-139,-20.5495,3.87964,0,0,0,0,0,0,0,-1,643,1163,-20.5495,-3.87962
-574,-139,-20.5872,0.547607,0,0,0,0,0,0,0,-1,650,1163,-20.5872,-0.547586
-567,-139,-24.3171,0.813843,0,0,0,0,0,0,0,-1,657,1163,-24.3171,-0.813883
-560,-139,-24.2673,0.798584,-0.0010801,0.00149594,0.000423875,0.0015639,-0.00114805,1.41183,0.00157187,0.0359816,664,1163,-24.2674,-0.798569
-553,-139,-24.29,0.838501,-0.00103677,0.00240292,-2.27317e-05,0.00240307,-0.00103692,-1.56419,0.00203762,0.03819,671,1163,-24.29,-0.838518
-546,-139,-24.3462,0.923462,-0.000800774,0.00378195,-0.000659688,0.00387502,-0.000893847,-1.43064,0.00292715,0.0415567,678,1163,-24.3462,-0.923449
-539,-139,-24.3629,0.72644,-0.00052566,0.00595531,-0.00172074,0.00638384,-0.000954194,-1.32672,0.00460702,0.0412815,685,1163,-24.3628,-0.726416
-532,-139,-24.285,0.607788,5.18374e-05,0.00911614,-0.00307456,0.0100606,-0.000892629,-1.27276,0.00702355,0.041562,692,1163,-24.2851,-0.607781
-525,-139,-24.2179,0.727539,0.00101912,0.0128896,-0.00436756,0.0143234,-0.000414679,-1.2536,0.00969011,0.040968,699,1163,-24.2179,-0.727545
-518,-139,0,0,0,0,0,0,0,0,0,-1,706,1163,0,0
-511,-139,0,0,0,0,0,0,0,0,0,-1,713,1163,0,0
-504,-139,0,0,0,0,0,0,0,0,0,-1,720,1163,0,0
-497,-139,0,0,0,0,0,0,0,0,0,-1,727,1163,0,0
-490,-139,0,0,0,0,0,0,0,0,0,-1,734,1163,0,0
-483,-139,0,0,0,0,0,0,0,0,0,-1,741,1163,0,0
-476,-139,0,0,0,0,0,0,0,0,0,-1,748,1163,0,0
-469,-139,0,0,0,0,0,0,0,0,0,-1,755,1163,0,0
-462,-139,0,0,0,0,0,0,0,0,0,-1,762,1163,0,0
-455,-139,0,0,0,0,0,0,0,0,0,-1,769,1163,0,0
-448,-139,0,0,0,0,0,0,0,0,0,-1,776,1163,0,0
-441,-139,0,0,0,0,0,0,0,0,0,-1,783,1163,0,0
-434,-139,0,0,0,0,0,0,0,0,0,-1,790,1163,0,0
-427,-139,0,0,0,0,0,0,0,0,0,-1,797,1163,0,0
-420,-139,0,0,0,0,0,0,0,0,0,-1,804,1163,0,0
-413,-139,0,0,0,0,0,0,0,0,0,-1,811,1163,0,0
-406,-139,0,0,0,0,0,0,0,0,0,-1,818,1163,0,0
-399,-139,0,0,0,0,0,0,0,0,0,-1,825,1163,0,0
-392,-139,0,0,0,0,0,0,0,0,0,-1,832,1163,0,0
-385,-139,0,0,0,0,0,0,0,0,0,-1,839,1163,0,0
-378,-139,0,0,0,0,0,0,0,0,0,-1,846,1163,0,0
-371,-139,0,0,0,0,0,0,0,0,0,-1,853,1163,0,0
-364,-139,0,0,0,0,0,0,0,0,0,-1,860,1163,0,0
-357,-139,0,0,0,0,0,0,0,0,0,-1,867,1163,0,0
-350,-139,0,0,0,0,0,0,0,0,0,-1,874,1163,0,0
-343,-139,0,0,0,0,0,0,0,0,0,-1,881,1163,0,0
-336,-139,0,0,0,0,0,0,0,0,0,-1,888,1163,0,0
-329,-139,0,0,0,0,0,0,0,0,0,-1,895,1163,0,0
-322,-139,0,0,0,0,0,0,0,0,0,-1,902,1163,0,0
-315,-139,0,0,0,0,0,0,0,0,0,-1,909,1163,0,0
-308,-139,0,0,0,0,0,0,0,0,0,-1,916,1163,0,0
-301,-139,0,0,0,0,0,0,0,0,0,-1,923,1163,0,0
-294,-139,0,0,0,0,0,0,0,0,0,-1,930,1163,0,0
-287,-139,0,0,0,0,0,0,0,0,0,-1,937,1163,0,0
-280,-139,0,0,0,0,0,0,0,0,0,-1,944,1163,0,0
-273,-139,0,0,0,0,0,0,0,0,0,-1,951,1163,0,0
-266,-139,0,0,0,0,0,0,0,0,0,-1,958,1163,0,0
-259,-139,0,0,0,0,0,0,0,0,0,-1,965,1163,0,0
-252,-139,0,0,0,0,0,0,0,0,0,-1,972,1163,0,0
-245,-139,0,0,0,0,0,0,0,0,0,-1,979,1163,0,0
-238,-139,0,0,0,0,0,0,0,0,0,-1,986,1163,0,0
-231,-139,0,0,0,0,0,0,0,0,0,-1,993,1163,0,0
-224,-139,0,0,0,0,0,0,0,0,0,-1,1000,1163,0,0
-217,-139,0,0,0,0,0,0,0,0,0,-1,1007,1163,0,0
-210,-139,0,0,0,0,0,0,0,0,0,-1,1014,1163,0,0
-203,-139,0,0,0,0,0,0,0,0,0,-1,1021,1163,0,0
-196,-139,0,0,0,0,0,0,0,0,0,-1,1028,1163,0,0
-189,-139,0,0,0,0,0,0,0,0,0,-1,1035,1163,0,0
-182,-139,0,0,0,0,0,0,0,0,0,-1,1042,1163,0,0
-175,-139,0,0,0,0,0,0,0,0,0,-1,1049,1163,0,0
-168,-139,0,0,0,0,0,0,0,0,0,-1,1056,1163,0,0
-161,-139,0,0,0,0,0,0,0,0,0,-1,1063,1163,0,0
-154,-139,0,0,0,0,0,0,0,0,0,-1,1070,1163,0,0
-147,-139,0,0,0,0,0,0,0,0,0,-1,1077,1163,0,0
-140,-139,0,0,0,0,0,0,0,0,0,-1,1084,1163,0,0
-133,-139,0,0,0,0,0,0,0,0,0,-1,1091,1163,0,0
-126,-139,0,0,0,0,0,0,0,0,0,-1,1098,1163,0,0
-119,-139,0,0,0,0,0,0,0,0,0,-1,1105,1163,0,0
-112,-139,0,0,0,0,0,0,0,0,0,-1,1112,1163,0,0
-105,-139,0,0,0,0,0,0,0,0,0,-1,1119,1163,0,0
-98,-139,0,0,0,0,0,0,0,0,0,-1,1126,1163,0,0
-91,-139,0,0,0,0,0,0,0,0,0,-1,1133,1163,0,0
-84,-139,0,0,0,0,0,0,0,0,0,-1,1140,1163,0,0
-77,-139,0,0,0,0,0,0,0,0,0,-1,1147,1163,0,0
-70,-139,0,0,0,0,0,0,0,0,0,-1,1154,1163,0,0
-63,-139,0,0,0,0,0,0,0,0,0,-1,1161,1163,0,0
-56,-139,0,0,0,0,0,0,0,0,0,-1,1168,1163,0,0
-49,-139,0,0,0,0,0,0,0,0,0,-1,1175,1163,0,0
-42,-139,0,0,0,0,0,0,0,0,0,-1,1182,1163,0,0
-35,-139,0,0,0,0,0,0,0,0,0,-1,1189,1163,0,0
-28,-139,0,0,0,0,0,0,0,0,0,-1,1196,1163,0,0
-21,-139,0,0,0,0,0,0,0,0,0,-1,1203,1163,0,0
-14,-139,0,0,0,0,0,0,0,0,0,-1,1210,1163,0,0
-7,-139,0,0,0,0,0,0,0,0,0,-1,1217,1163,0,0
0,-139,0,0,0,0,0,0,0,0,0,-1,1224,1163,0,0
7,-139,0,0,0,0,0,0,0,0,0,-1,1231,1163,0,0
14,-139,0,0,0,0,0,0,0,0,0,-1,1238,1163,0,0
21,-139,0,0,0,0,0,0,0,0,0,-1,1245,1163,0,0
28,-139,0,0,0,0,0,0,0,0,0,-1,1252,1163,0,0
35,-139,0,0,0,0,0,0,0,0,0,-1,1259,1163,0,0
42,-139,0,0,0,0,0,0,0,0,0,-1,1266,1163,0,0
49,-139,0,0,0,0,0,0,0,0,0,-1,1273,1163,0,0
56,-139,0,0,0,0,0,0,0,0,0,-1,1280,1163,0,0
63,-139,0,0,0,0,0,0,0,0,0,-1,1287,1163,0,0
70,-139,0,0,0,0,0,0,0,0,0,-1,1294,1163,0,0
77,-139,0,0,0,0,0,0,0,0,0,-1,1301,1163,0,0
84,-139,0,0,0,0,0,0,0,0,0,-1,1308,1163,0,0
91,-139,0,0,0,0,0,0,0,0,0,-1,1315,1163,0,0
98,-139,0,0,0,0,0,0,0,0,0,-1,1322,1163,0,0
105,-139,0,0,0,0,0,0,0,0,0,-1,1329,1163,0,0
112,-139,0,0,0,0,0,0,0,0,0,-1,1336,1163,0,0
119,-139,0,0,0,0,0,0,0,0,0,-1,1343,1163,0,0
126,-139,0,0,0,0,0,0,0,0,0,-1,1350,1163,0,0
133,-139,0,0,0,0,0,0,0,0,0,-1,1357,1163,0,0
140,-139,0,0,0,0,0,0,0,0,0,-1,1364,1163,0,0
147,-139,0,0,0,0,0,0,0,0,0,-1,1371,1163,0,0
154,-139,0,0,0,0,0,0,0,0,0,-1,1378,1163,0,0
161,-139,0,0,0,0,0,0,0,0,0,-1,1385,1163,0,0
168,-139,0,0,0,0,0,0,0,0,0,-1,1392,1163,0,0
175,-139,0,0,0,0,0,0,0,0,0,-1,1399,1163,0,0
182,-139,0,0,0,0,0,0,0,0,0,-1,1406,1163,0,0
189,-139,0,0,0,0,0,0,0,0,0,-1,1413,1163,0,0
196,-139,0,0,0,0,0,0,0,0,0,-1,1420,1163,0,0
203,-139,0,0,0,0,0,0,0,0,0,-1,1427,1163,0,0
210,-139,0,0,0,0,0,0,0,0,0,-1,1434,1163,0,0
217,-139,0,0,0,0,0,0,0,0,0,-1,1441,1163,0,0
224,-139,0,0,0,0,0,0,0,0,0,-1,1448,1163,0,0
231,-139,0,0,0,0,0,0,0,0,0,-1,1455,1163,0,0
238,-139,0,0,0,0,0,0,0,0,0,-1,1462,1163,0,0
245,-139,0,0,0,0,0,0,0,0,0,-1,1469,1163,0,0
252,-139,0,0,0,0,0,0,0,0,0,-1,1476,1163,0,0
259,-139,0,0,0,0,0,0,0,0,0,-1,1483,1163,0,0
266,-139,0,0,0,0,0,0,0,0,0,-1,1490,1163,0,0
273,-139,0,0,0,0,0,0,0,0,0,-1,1497,1163,0,0
280,-139,0,0,0,0,0,0,0,0,0,-1,1504,1163,0,0
287,-139,0,0,0,0,0,0,0,0,0,-1,1511,1163,0,0
294,-139,0,0,0,0,0,0,0,0,0,-1,1518,1163,0,0
301,-139,0,0,0,0,0,0,0,0,0,-1,1525,1163,0,0
308,-139,0,0,0,0,0,0,0,0,0,-1,1532,1163,0,0
315,-139,0,0,0,0,0,0,0,0,0,-1,1539,1163,0,0
322,-139,0,0,0,0,0,0,0,0,0,-1,1546,1163,0,0
329,-139,0,0,0,0,0,0,0,0,0,-1,1553,1163,0,0
336,-139,0,0,0,0,0,0,0,0,0,-1,1560,1163,0,0
343,-139,0,0,0,0,0,0,0,0,0,-1,1567,1163,0,0
350,-139,0,0,0,0,0,0,0,0,0,-1,1574,1163,0,0
357,-139,0,0,0,0,0,0,0,0,0,-1,1581,1163,0,0
364,-139,0,0,0,0,0,0,0,0,0,-1,1588,1163,0,0
371,-139,0,0,0,0,0,0,0,0,0,-1,1595,1163,0,0
378,-139,0,0,0,0,0,0,0,0,0,-1,1602,1163,0,0
385,-139,0,0,0,0,0,0,0,0,0,-1,1609,1163,0,0
392,-139,0,0,0,0,0,0,0,0,0,-1,1616,1163,0,0
399,-139,0,0,0,0,0,0,0,0,0,-1,1623,1163,0,0
406,-139,0,0,0,0,0,0,0,0,0,-1,1630,1163,0,0
413,-139,0,0,0,0,0,0,0,0,0,-1,1637,1163,0,0
420,-139,0,0,0,0,0,0,0,0,0,-1,1644,1163,0,0
427,-139,0,0,0,0,0,0,0,0,0,-1,1651,1163,0,0
434,-139,0,0,0,0,0,0,0,0,0,-1,1658,1163,0,0
441,-139,0,0,0,0,0,0,0,0,0,-1,1665,1163,0,0
448,-139,0,0,0,0,0,0,0,0,0,-1,1672,1163,0,0
455,-139,0,0,0,0,0,0,0,0,0,-1,1679,1163,0,0
462,-139,0,0,0,0,0,0,0,0,0,-1,1686,1163,0,0
469,-139,0,0,0,0,0,0,0,0,0,-1,1693,1163,0,0
476,-139,0,0,0,0,0,0,0,0,0,-1,1700,1163,0,0
483,-139,0,0,0,0,0,0,0,0,0,-1,1707,1163,0,0
490,-139,0,0,0,0,0,0,0,0,0,-1,1714,1163,0,0
497,-139,0,0,0,0,0,0,0,0,0,-1,1721,1163,0,0
504,-139,0,0,0,0,0,0,0,0,0,-1,1728,1163,0,0
511,-139,0,0,0,0,0,0,0,0,0,-1,1735,1163,0,0
518,-139,0,0,0,0,0,0,0,0,0,-1,1742,1163,0,0
525,-139,0,0,0,0,0,0,0,0,0,-1,1749,1163,0,0
532,-139,0,0,0,0,0,0,0,0,0,-1,1756,1163,0,0
539,-139,0,0,0,0,0,0,0,0,0,-1,1763,1163,0,0
546,-139,0,0,0,0,0,0,0,0,0,-1,1770,1163,0,0
553,-139,0,0,0,0,0,0,0,0,0,-1,1777,1163,0,0
560,-139,0,0,0,0,0,0,0,0,0,-1,1784,1163,0,0
567,-139,0,0,0,0,0,0,0,0,0,-1,1791,1163,0,0
574,-139,0,0,0,0,0,0,0,0,0,-1,1798,1163,0,0
581,-139,0,0,0,0,0,0,0,0,0,-1,1805,1163,0,0
588,-139,0,0,0,0,0,0,0,0,0,-1,1812,1163,0,0
595,-139,0,0,0,0,0,0,0,0,0,-1,1819,1163,0,0
602,-139,0,0,0,0,0,0,0,0,0,-1,1826,1163,0,0
609,-139,0,0,0,0,0,0,0,0,0,-1,1833,1163,0,0
616,-139,0,0,0,0,0,0,0,0,0,-1,1840,1163,0,0
623,-139,0,0,0,0,0,0,0,0,0,-1,1847,1163,0,0
630,-139,0,0,0,0,0,0,0,0,0,-1,1854,1163,0,0
637,-139,0,0,0,0,0,0,0,0,0,-1,1861,1163,0,0
644,-139,34.1229,2.66614,-0.0019152,0.000620233,-0.0001577,0.000630004,-0.00192497,-1.50892,0.00153698,0.0410226,1868,1163,34.123,-2.66612
651,-139,33.9274,2.49402,-0.00183416,0.000636303,0.000212087,0.000654378,-0.00185224,1.48578,0.00150127,0.0395736,1875,1163,33.9273,-2.49396
658,-139,33.9454,2.58777,-0.00141867,0.000677997,0.000351452,0.00073534,-0.00147602,1.40906,0.00130038,0.0402955,1882,1163,33.9455,-2.58779
665,-139,33.9779,2.70935,-0.00103003,0.000471701,0.000538577,0.000644884,-0.00120321,1.25968,0.00108311,0.038244,1889,1163,33.9779,-2.70932
672,-139,34.0348,2.87598,-0.00116768,-4.08388e-05,0.000911123,0.000466996,-0.00167551,1.06231,0.00130092,0.0363714,1896,1163,34.0348,-2.87596
679,-139,34.1012,2.8363,-0.00181692,-0.000478534,0.00128672,0.000302608,-0.00259806,1.02519,0.00184122,0.0353148,1903,1163,34.1012,-2.83631
686,-139,34.0083,2.8241,-0.00252995,-0.000928378,0.001612,7.07788e-05,-0.00352911,1.01593,0.00237668,0.0309356,1910,1163,34.0083,-2.82409
693,-139,34.0298,2.7821,-0.00316237,-0.00123015,0.00183488,-0.000122572,-0.00426994,1.02772,0.00280666,0.0189767,1917,1163,34.0298,-2.78212
700,-139,34.0763,2.65808,0,0,0,0,0,0,0,-1,1924,1163,34.0763,-2.65809
707,-139,31.2952,6.54285,0,0,0,0,0,0,0,-1,1931,1163,31.2952,-6.54289
714,-139,30.895,6.13196,-0.00404357,-0.00164949,0.00243472,-0.000133463,-0.0055596,1.01387,0.00366272,0.0451204,1938,1163,30.895,-6.13198
721,-139,30.8141,5.80005,-0.00437069,-0.00160533,0.00240505,-0.000213831,-0.00576219,1.04628,0.0037722,0.02786,1945,1163,30.8141,-5.80002
728,-139,30.7964,5.61877,-0.00439391,-0.00146461,0.00237916,-0.000135412,-0.00572311,1.06131,0.00377108,0.0283412,1952,1163,30.7964,-5.61881
735,-139,30.7412,5.46814,-0.00467664,-0.00123643,0.00200115,-0.000317723,-0.00559535,1.14041,0.00362896,0.0210323,1959,1163,30.7412,-5.46813
742,-139,30.7692,5.14539,-0.00486768,5.69306e-05,0.000519631,0.000111163,-0.00492191,1.4668,0.00331895,0.0220017,1966,1163,30.7692,-5.14535
749,-139,30.7771,4.91296,-0.00334514,0.00215953,-0.000956118,0.00232087,-0.00350648,-1.40362,0.00338755,0.0197851,1973,1163,30.7771,-4.91293
756,-139,30.774,4.70544,0.000453534,0.00529659,-0.00370308,0.00729961,-0.00154948,-1.07496,0.00545673,0.0108745,1980,1163,30.7741,-4.70539
763,-139,30.7642,4.49426,0.00453701,0.00988877,-0.00730806,0.0149954,-0.000569663,-0.960895,0.0101922,0.0106609,1987,1163,30.7642,-4.49428
770,-139,30.7749,4.2738,0.0101769,0.0152579,-0.0115401,0.0245338,0.000901013,-0.893744,0.0160639,0.0117606,1994,1163,30.7749,-4.27379
777,-139,30.7642,4.02844,0.0174715,0.0215414,-0.0161973,0.0358311,0.00318174,-0.847889,0.0229006,0.0224387,2001,1163,30.7642,-4.0284
784,-139,30.7915,3.74768,0.0272234,0.0293261,-0.0214913,0.0497917,0.00675775,-0.809839,0.0311869,0.0410577,2008,1163,30.7916,-3.74764
791,-139,28.7585,2.17737,0.0402869,0.0389251,-0.0273843,0.0669988,0.0122133,-0.772968,0.0412026,0.049355,2015,1163,28.7586,-2.17736
798,-139,28.3154,1.02966,0.0577989,0.0506091,-0.0336792,0.0880745,0.0203335,-0.732229,0.0532487,0.0485644,2022,1163,28.3154,-1.02967
805,-139,31.5647,0.780518,0.0809688,0.0646442,-0.0398833,0.113516,0.0320966,-0.684464,0.0675695,0.0454584,2029,1163,31.5648,-0.780577
812,-139,0,0,0,0,0,0,0,0,0,-1,2036,1163,0,0
-700,-146,0,0,0,0,0,0,0,0,0,-1,524,1170,0,0
-693,-146,-18.4303,-2.44287,0,0,0,0,0,0,0,-1,531,1170,-18.4303,2.44289
-686,-146,-19.2614,-1.67285,0.0135507,0.0141885,-0.000471514,0.0144388,0.0133004,-1.08272,0.00926975,0.0470894,538,1170,-19.2614,1.67283
-679,-146,-19.8824,-1.27295,0.00947832,0.013627,-0.00182161,0.0143133,0.00879202,-1.21049,0.00833538,0.0484371,545,1170,-19.8825,1.273
-672,-146,-20.2,-0.775146,0.00654265,0.0126672,-0.00259688,0.0136201,0.0055898,-1.21912,0.00790552,0.0457765,552,1170,-20.1999,0.775187
-665,-146,-20.5753,-0.145142,0.00441747,0.0114855,-0.00296834,0.0125667,0.00333627,-1.22149,0.00751671,0.046836,559,1170,-20.5753,0.145087
-658,-146,-20.7182,0.309082,0,0,0,0,0,0,0,-1,566,1170,-20.7182,-0.30914
-651,-146,-20.6703,0.73645,0.00173546,0.00870262,-0.00285391,0.00972239,0.000715689,-1.22761,0.00625669,0.0399648,573,1170,-20.6703,-0.73641
-644,-146,-20.6329,1.177,0.000751246,0.00716326,-0.00256997,0.00806617,-0.000151668,-1.23294,0.00542871,0.020961,580,1170,-20.6329,-1.17702
-637,-146,-20.6392,1.51917,-0.000146272,0.00575689,-0.00235204,0.00657942,-0.000968802,-1.23438,0.00474231,0.0113057,587,1170,-20.6391,-1.51917
-630,-146,-20.6768,1.81177,-0.000686434,0.00405744,-0.00176512,0.00464214,-0.00127114,-1.25092,0.0035942,0.0108878,594,1170,-20.6768,-1.81172
-623,-146,-20.7042,2.05054,-0.00143402,0.00249187,-0.00135951,0.00291668,-0.00185884,-1.26793,0.00277961,0.0138142,601,1170,-20.7042,-2.05059
-616,-146,-20.74,2.32544,-0.00164829,0.00141691,-0.000812367,0.0016189,-0.00185028,-1.32709,0.00200442,0.0193537,608,1170,-20.74,-2.32542
-609,-146,-20.6143,2.66931,-0.00146407,0.000632544,-0.00018267,0.00064834,-0.00147986,-1.48454,0.00125959,0.0188396,615,1170,-20.6142,-2.66936
-602,-146,-20.7023,3.12671,-0.00159836,0.000302252,0.000280183,0.000342696,-0.00163881,1.42744,0.00122288,0.0403782,622,1170,-20.7023,-3.12674
-595,-146,-20.9174,3.19189,-0.00201989,-3.11418e-05,0.000594234,0.000132886,-0.00218391,1.30147,0.0015022,0.0247512,629,1170,-20.9174,-3.19183
-588,-146,-20.9493,3.34888,0,0,0,0,0,0,0,-1,636,1170,-20.9494,-3.34888
-581,-146,-20.5282,3.76477,0,0,0,0,0,0,0,-1,643,1170,-20.5282,-3.76476
-574,-146,-17.9915,3.79114,0,0,0,0,0,0,0,-1,650,1170,-17.9915,-3.79118
-567,-146,-24.313,0.7323,0,0,0,0,0,0,0,-1,657,1170,-24.313,-0.732247
-560,-146,-24.3011,0.864868,-0.00166075,0.00207012,-6.9976e-05,0.00207144,-0.00166206,-1.55205,0.00215985,0.0374791,664,1170,-24.3011,-0.864883
-553,-146,-24.2843,1.01074,-0.00145616,0.00304732,-0.000502024,0.00310261,-0.00151145,-1.46112,0.00271621,0.0388324,671,1170,-24.2843,-1.01076
-546,-146,-24.4122,1.09009,-0.000885867,0.00446835,-0.00103493,0.00466143,-0.00107895,-1.38635,0.00352278,0.0422328,678,1170,-24.4121,-1.09005
-539,-146,-24.4866,0.88501,-4.96758e-05,0.00667416,-0.00184563,0.00714746,-0.00052297,-1.31977,0.00494851,0.0407662,685,1170,-24.4866,-0.88495
-532,-146,-24.4745,0.731079,0.00118883,0.00990587,-0.00288995,0.0107769,0.000317767,-1.27805,0.00708108,0.040937,692,1170,-24.4745,-0.731055
-525,-146,-24.3835,0.840698,0.00293194,0.0139147,-0.00390218,0.01516,0.00168668,-1.26189,0.00959396,0.0432264,699,1170,-24.3835,-0.840755
-518,-146,0,0,0,0,0,0,0,0,0,-1,706,1170,0,0
-511,-146,0,0,0,0,0,0,0,0,0,-1,713,1170,0,0
-504,-146,0,0,0,0,0,0,0,0,0,-1,720,1170,0,0
-497,-146,0,0,0,0,0,0,0,0,0,-1,727,1170,0,0
-490,-146,0,0,0,0,0,0,0,0,0,-1,734,1170,0,0
-483,-146,0,0,0,0,0,0,0,0,0,-1,741,1170,0,0
-476,-146,0,0,0,0,0,0,0,0,0,-1,748,1170,0,0
-469,-146,0,0,0,0,0,0,0,0,0,-1,755,1170,0,0
-462,-146,0,0,0,0,0,0,0,0,0,-1,762,1170,0,0
-455,-146,0,0,0,0,0,0,0,0,0,-1,769,1170,0,0
-448,-146,0,0,0,0,0,0,0,0,0,-1,776,1170,0,0
-441,-146,0,0,0,0,0,0,0,0,0,-1,783,1170,0,0
-434,-146,0,0,0,0,0,0,0,0,0,-1,790,1170,0,0
-427,-146,0,0,0,0,0,0,0,0,0,-1,797,1170,0,0
-420,-146,0,0,0,0,0,0,0,0,0,-1,804,1170,0,0
-413,-146,0,0,0,0,0,0,0,0,0,-1,811,1170,0,0
-406,-146,0,0,0,0,0,0,0,0,0,-1,818,1170,0,0
-399,-146,0,0,0,0,0,0,0,0,0,-1,825,1170,0,0
-392,-146,0,0,0,0,0,0,0,0,0,-1,832,1170,0,0
-385,-146,0,0,0,0,0,0,0,0,0,-1,839,1170,0,0
-378,-146,0,0,0,0,0,0,0,0,0,-1,846,1170,0,0
-371,-146,0,0,0,0,0,0,0,0,0,-1,853,1170,0,0
-364,-146,0,0,0,0,0,0,0,0,0,-1,860,1170,0,0
-357,-146,0,0,0,0,0,0,0,0,0,-1,867,1170,0,0
-350,-146,0,0,0,0,0,0,0,0,0,-1,874,1170,0,0
-343,-146,0,0,0,0,0,0,0,0,0,-1,881,1170,0,0
-336,-146,0,0,0,0,0,0,0,0,0,-1,888,1170,0,0
-329,-146,0,0,0,0,0,0,0,0,0,-1,895,1170,0,0
-322,-146,0,0,0,0,0,0,0,0,0,-1,902,1170,0,0
-315,-146,0,0,0,0,0,0,0,0,0,-1,909,1170,0,0
-308,-146,0,0,0,0,0,0,0,0,0,-1,916,1170,0,0
-301,-146,0,0,0,0,0,0,0,0,0,-1,923,1170,0,0
-294,-146,0,0,0,0,0,0,0,0,0,-1,930,1170,0,0
-287,-146,0,0,0,0,0,0,0,0,0,-1,937,1170,0,0
-280,-146,0,0,0,0,0,0,0,0,0,-1,944,1170,0,0
-273,-146,0,0,0,0,0,0,0,0,0,-1,951,1170,0,0
-266,-146,0,0,0,0,0,0,0,0,0,-1,958,1170,0,0
-259,-146,0,0,0,0,0,0,0,0,0,-1,965,1170,0,0
-252,-146,0,0,0,0,0,0,0,0,0,-1,972,1170,0,0
-245,-146,0,0,0,0,0,0,0,0,0,-1,979,1170,0,0
-238,-146,0,0,0,0,0,0,0,0,0,-1,986,1170,0,0
-231,-146,0,0,0,0,0,0,0,0,0,-1,993,1170,0,0
-224,-146,0,0,0,0,0,0,0,0,0,-1,1000,1170,0,0
-217,-146,0,0,0,0,0,0,0,0,0,-1,1007,1170,0,0
-210,-146,0,0,0,0,0,0,0,0,0,-1,1014,1170,0,0
-203,-146,0,0,0,0,0,0,0,0,0,-1,1021,1170,0,0
-196,-146,0,0,0,0,0,0,0,0,0,-1,1028,1170,0,0
-189,-146,0,0,0,0,0,0,0,0,0,-1,1035,1170,0,0
-182,-146,0,0,0,0,0,0,0,0,0,-1,1042,1170,0,0
-175,-146,0,0,0,0,0,0,0,0,0,-1,1049,1170,0,0
-168,-146,0,0,0,0,0,0,0,0,0,-1,1056,1170,0,0
-161,-146,0,0,0,0,0,0,0,0,0,-1,1063,1170,0,0
-154,-146,0,0,0,0,0,0,0,0,0,-1,1070,1170,0,0
-147,-146,0,0,0,0,0,0,0,0,0,-1,1077,1170,0,0
-140,-146,0,0,0,0,0,0,0,0,0,-1,1084,1170,0,0
-133,-146,0,0,0,0,0,0,0,0,0,-1,1091,1170,0,0
-126,-146,0,0,0,0,0,0,0,0,0,-1,1098,1170,0,0
-119,-146,0,0,0,0,0,0,0,0,0,-1,1105,1170,0,0
-112,-146,0,0,0,0,0,0,0,0,0,-1,1112,1170,0,0
-105,-146,0,0,0,0,0,0,0,0,0,-1,1119,1170,0,0
-98,-146,0,0,0,0,0,0,0,0,0,-1,1126,1170,0,0
-91,-146,0,0,0,0,0,0,0,0,0,-1,1133,1170,0,0
-84,-146,0,0,0,0,0,0,0,0,0,-1,1140,1170,0,0
-77,-146,0,0,0,0,0,0,0,0,0,-1,1147,1170,0,0
-70,-146,0,0,0,0,0,0,0,0,0,-1,1154,1170,0,0
-63,-146,0,0,0,0,0,0,0,0,0,-1,1161,1170,0,0
-56,-146,0,0,0,0,0,0,0,0,0,-1,1168,1170,0,0
-49,-146,0,0,0,0,0,0,0,0,0,-1,1175,1170,0,0
-42,-146,0,0,0,0,0,0,0,0,0,-1,1182,1170,0,0
-35,-146,0,0,0,0,0,0,0,0,0,-1,1189,1170,0,0
-28,-146,0,0,0,0,0,0,0,0,0,-1,1196,1170,0,0
-21,-146,0,0,0,0,0,0,0,0,0,-1,1203,1170,0,0
-14,-146,0,0,0,0,0,0,0,0,0,-1,1210,1170,0,0
-7,-146,0,0,0,0,0,0,0,0,0,-1,1217,1170,0,0
0,-146,0,0,0,0,0,0,0,0,0,-1,1224,1170,0,0
7,-146,0,0,0,0,0,0,0,0,0,-1,1231,1170,0,0
14,-146,0,0,0,0,0,0,0,0,0,-1,1238,1170,0,0
21,-146,0,0,0,0,0,0,0,0,0,-1,1245,1170,0,0
28,-146,0,0,0,0,0,0,0,0,0,-1,1252,1170,0,0
35,-146,0,0,0,0,0,0,0,0,0,-1,1259,1170,0,0
42,-146,0,0,0,0,0,0,0,0,0,-1,1266,1170,0,0
49,-146,0,0,0,0,0,0,0,0,0,-1,1273,1170,0,0
56,-146,0,0,0,0,0,0,0,0,0,-1,1280,1170,0,0
63,-146,0,0,0,0,0,0,0,0,0,-1,1287,1170,0,0
70,-146,0,0,0,0,0,0,0,0,0,-1,1294,1170,0,0
77,-146,0,0,0,0,0,0,0,0,0,-1,1301,1170,0,0
84,-146,0,0,0,0,0,0,0,0,0,-1,1308,1170,0,0
91,-146,0,0,0,0,0,0,0,0,0,-1,1315,1170,0,0
98,-146,0,0,0,0,0,0,0,0,0,-1,1322,1170,0,0
105,-146,0,0,0,0,0,0,0,0,0,-1,1329,1170,0,0
112,-146,0,0,0,0,0,0,0,0,0,-1,1336,1170,0,0
119,-146,0,0,0,0,0,0,0,0,0,-1,1343,1170,0,0
126,-146,0,0,0,0,0,0,0,0,0,-1,1350,1170,0,0
133,-146,0,0,0,0,0,0,0,0,0,-1,1357,1170,0,0
140,-146,0,0,0,0,0,0,0,0,0,-1,1364,1170,0,0
147,-146,0,0,0,0,0,0,0,0,0,-1,1371,1170,0,0
154,-146,0,0,0,0,0,0,0,0,0,-1,1378,1170,0,0
161,-146,0,0,0,0,0,0,0,0,0,-1,1385,1170,0,0
168,-146,0,0,0,0,0,0,0,0,0,-1,1392,1170,0,0
175,-146,0,0,0,0,0,0,0,0,0,-1,1399,1170,0,0
182,-146,0,0,0,0,0,0,0,0,0,-1,1406,1170,0,0
189,-146,0,0,0,0,0,0,0,0,0,-1,1413,1170,0,0
196,-146,0,0,0,0,0,0,0,0,0,-1,1420,1170,0,0
203,-146,0,0,0,0,0,0,0,0,0,-1,1427,1170,0,0
210,-146,0,0,0,0,0,0,0,0,0,-1,1434,1170,0,0
217,-146,0,0,0,0,0,0,0,0,0,-1,1441,1170,0,0
224,-146,0,0,0,0,0,0,0,0,0,-1,1448,1170,0,0
231,-146,0,0,0,0,0,0,0,0,0,-1,1455,1170,0,0
238,-146,0,0,0,0,0,0,0,0,0,-1,1462,1170,0,0
245,-146,0,0,0,0,0,0,0,0,0,-1,1469,1170,0,0
252,-146,0,0,0,0,0,0,0,0,0,-1,1476,1170,0,0
259,-146,0,0,0,0,0,0,0,0,0,-1,1483,1170,0,0
266,-146,0,0,0,0,0,0,0,0,0,-1,1490,1170,0,0
273,-146,0,0,0,0,0,0,0,0,0,-1,1497,1170,0,0
280,-146,0,0,0,0,0,0,0,0,0,-1,1504,1170,0,0
287,-146,0,0,0,0,0,0,0,0,0,-1,1511,1170,0,0
294,-146,0,0,0,0,0,0,0,0,0,-1,1518,1170,0,0
301,-146,0,0,0,0,0,0,0,0,0,-1,1525,1170,0,0
308,-146,0,0,0,0,0,0,0,0,0,-1,1532,1170,0,0
315,-146,0,0,0,0,0,0,0,0,0,-1,1539,1170,0,0
322,-146,0,0,0,0,0,0,0,0,0,-1,1546,1170,0,0
329,-146,0,0,0,0,0,0,0,0,0,-1,1553,1170,0,0
336,-146,0,0,0,0,0,0,0,0,0,-1,1560,1170,0,0
343,-146,0,0,0,0,0,0,0,0,0,-1,1567,1170,0,0
350,-146,0,0,0,0,0,0,0,0,0,-1,1574,1170,0,0
357,-146,0,0,0,0,0,0,0,0,0,-1,1581,1170,0,0
364,-146,0,0,0,0,0,0,0,0,0,-1,1588,1170,0,0
371,-146,0,0,0,0,0,0,0,0,0,-1,1595,1170,0,0
378,-146,0,0,0,0,0,0,0,0,0,-1,1602,1170,0,0
385,-146,0,0,0,0,0,0,0,0,0,-1,1609,1170,0,0
392,-146,0,0,0,0,0,0,0,0,0,-1,1616,1170,0,0
399,-146,0,0,0,0,0,0,0,0,0,-1,1623,1170,0,0
406,-146,0,0,0,0,0,0,0,0,0,-1,1630,1170,0,0
413,-146,0,0,0,0,0,0,0,0,0,-1,1637,1170,0,0
420,-146,0,0,0,0,0,0,0,0,0,-1,1644,1170,0,0
427,-146,0,0,0,0,0,0,0,0,0,-1,1651,1170,0,0
434,-146,0,0,0,0,0,0,0,0,0,-1,1658,1170,0,0
441,-146,0,0,0,0,0,0,0,0,0,-1,1665,1170,0,0
448,-146,0,0,0,0,0,0,0,0,0,-1,1672,1170,0,0
455,-146,0,0,0,0,0,0,0,0,0,-1,1679,1170,0,0
462,-146,0,0,0,0,0,0,0,0,0,-1,1686,1170,0,0
469,-146,0,0,0,0,0,0,0,0,0,-1,1693,1170,0,0
476,-146,0,0,0,0,0,0,0,0,0,-1,1700,1170,0,0
483,-146,0,0,0,0,0,0,0,0,0,-1,1707,1170,0,0
490,-146,0,0,0,0,0,0,0,0,0,-1,1714,1170,0,0
497,-146,0,0,0,0,0,0,0,0,0,-1,1721,1170,0,0
504,-146,0,0,0,0,0,0,0,0,0,-1,1728,1170,0,0
511,-146,0,0,0,0,0,0,0,0,0,-1,1735,1170,0,0
518,-146,0,0,0,0,0,0,0,0,0,-1,1742,1170,0,0
525,-146,0,0,0,0,0,0,0,0,0,-1,1749,1170,0,0
532,-146,0,0,0,0,0,0,0,0,0,-1,1756,1170,0,0
539,-146,0,0,0,0,0,0,0,0,0,-1,1763,1170,0,0
546,-146,0,0,0,0,0,0,0,0,0,-1,1770,1170,0,0
553,-146,0,0,0,0,0,0,0,0,0,-1,1777,1170,0,0
560,-146,0,0,0,0,0,0,0,0,0,-1,1784,1170,0,0
567,-146,0,0,0,0,0,0,0,0,0,-1,1791,1170,0,0
574,-146,0,0,0,0,0,0,0,0,0,-1,1798,1170,0,0
581,-146,0,0,0,0,0,0,0,0,0,-1,1805,1170,0,0
588,-146,0,0,0,0,0,0,0,0,0,-1,1812,1170,0,0
595,-146,0,0,0,0,0,0,0,0,0,-1,1819,1170,0,0
602,-146,0,0,0,0,0,0,0,0,0,-1,1826,1170,0,0
609,-146,0,0,0,0,0,0,0,0,0,-1,1833,1170,0,0
616,-146,0,0,0,0,0,0,0,0,0,-1,1840,1170,0,0
623,-146,0,0,0,0,0,0,0,0,0,-1,1847,1170,0,0
630,-146,0,0,0,0,0,0,0,0,0,-1,1854,1170,0,0
637,-146,34.1635,2.672,-0.00083304,0.00102377,-0.00038865,0.00110183,-0.000911107,-1.37257,0.00116391,0.0390626,1861,1170,34.1634,-2.67202
644,-146,34.151,2.63818,-0.00139836,0.000686572,5.83558e-05,0.000688204,-0.0014,1.54284,0.00122875,0.0384513,1868,1170,34.1511,-2.63815
651,-146,34.037,2.50952,-0.00148812,0.000700236,0.000166233,0.000712792,-0.00150067,1.49541,0.00130465,0.0376993,1875,1170,34.037,-2.50957
658,-146,34.0757,2.57483,-0.00123044,0.000755763,0.000127054,0.000763858,-0.00123854,1.50717,0.00116686,0.040643,1882,1170,34.0757,-2.5748
665,-146,34.0844,2.68054,-0.00101098,0.000510785,0.000245334,0.000549359,-0.00104956,1.41484,0.000938073,0.0392932,1889,1170,34.0843,-2.6806
672,-146,34.0947,2.8219,-0.00127056,2.32243e-05,0.000602617,0.000260424,-0.00150776,1.19581,0.00110228,0.0385381,1896,1170,34.0947,-2.82186
679,-146,34.0898,2.87769,-0.00201432,-0.000394989,0.00101919,9.69999e-05,-0.00250631,1.12106,0.00170413,0.0298916,1903,1170,34.0899,-2.87773
686,-146,33.984,2.73706,-0.00276112,-0.000830932,0.00139478,-9.99073e-05,-0.00349214,1.08804,0.00229552,0.0211,1910,1170,33.984,-2.73701
693,-146,34.0372,2.67834,-0.00340441,-0.00111441,0.00166204,-0.000241139,-0.00427768,1.08702,0.0027749,0.0136237,1917,1170,34.0372,-2.67838
700,-146,34.0901,2.47864,0,0,0,0,0,0,0,-1,1924,1170,34.09,-2.4786
707,-146,29.9441,6.94653,0,0,0,0,0,0,0,-1,1931,1170,29.9441,-6.94652
714,-146,30.525,6.06482,0,0,0,0,0,0,0,-1,1938,1170,30.525,-6.06482
721,-146,30.7302,5.94861,0,0,0,0,0,0,0,-1,1945,1170,30.7302,-5.94864
728,-146,30.8419,5.47302,-0.00419946,-0.00144308,0.00240357,-5.06085e-05,-0.00559193,1.04571,0.0037112,0.0381263,1952,1170,30.8419,-5.47305
735,-146,30.554,5.42847,-0.0042694,-0.00128087,0.00212147,-0.000180242,-0.00537003,1.09222,0.00352147,0.0200365,1959,1170,30.554,-5.42847
742,-146,30.5481,5.15112,-0.00415565,6.76981e-05,0.000557296,0.000139999,-0.00422795,1.44178,0.00286644,0.0181561,1966,1170,30.5481,-5.15117
749,-146,30.5479,4.94043,-0.00220873,0.00220495,-0.0012435,0.00253118,-0.00253496,-1.31423,0.00292494,0.0164035,1973,1170,30.5479,-4.94042
756,-146,30.5369,4.7113,0.00231417,0.00541128,-0.00442144,0.00854751,-0.000822054,-0.953841,0.00599119,0.0119334,1980,1170,30.5368,-4.71129
763,-146,30.4983,4.47498,0.00725303,0.00995826,-0.00851962,0.017232,-2.06819e-05,-0.864124,0.0114949,0.0112575,1987,1170,30.4983,-4.475
770,-146,30.4994,4.23633,0.0138174,0.0152642,-0.0133093,0.0278697,0.00121182,-0.812549,0.0181893,0.0120119,1994,1170,30.4994,-4.23636
777,-146,30.4989,4.04675,0.0222573,0.0215435,-0.0187023,0.0406062,0.00319468,-0.775858,0.0260712,0.0214922,2001,1170,30.4989,-4.0468
784,-146,30.6621,3.83276,0.0333334,0.029259,-0.0248664,0.0562459,0.00634653,-0.744527,0.035571,0.0399639,2008,1170,30.6621,-3.83281
791,-146,27.2737,1.68982,0.0479312,0.0386276,-0.0317461,0.0753645,0.0111944,-0.71265,0.0469584,0.0490591,2015,1170,27.2737,-1.68982
798,-146,26.8452,0.710327,0,0,0,0,0,0,0,-1,2022,1170,26.8453,-0.710388
805,-146,31.4954,0.566284,0,0,0,0,0,0,0,-1,2029,1170,31.4953,-0.566308
812,-146,0,0,0,0,0,0,0,0,0,-1,2036,1170,0,0
-700,-153,0,0,0,0,0,0,0,0,0,-1,524,1177,0,0
-693,-153,0,0,0,0,0,0,0,0,0,-1,531,1177,0,0
-686,-153,-18.3396,-1.42822,0.0179426,0.0171958,0.00193595,0.0195408,0.0155976,0.690137,0.011932,0.0447518,538,1177,-18.3396,1.42824
-679,-153,-18.8609,-1.10107,0.0126688,0.0169006,0.00107422,0.0171577,0.0124118,1.33591,0.0102303,0.0470127,545,1177,-18.8609,1.10108
-672,-153,-19.4942,-0.852783,0,0,0,0,0,0,0,-1,552,1177,-19.4942,0.85284
-665,-153,-19.8394,-0.26062,0,0,0,0,0,0,0,-1,559,1177,-19.8394,0.260579
-658,-153,-20.3149,0.116821,0,0,0,0,0,0,0,-1,566,1177,-20.315,-0.116878
-651,-153,-19.9928,0.411743,0.00254264,0.0111492,-0.000670288,0.0112011,0.00249075,-1.49354,0.00679113,0.0458536,573,1177,-19.9928,-0.411704
-644,-153,-20.303,1.14148,0.00127192,0.00920866,-0.000813606,0.00929121,0.00118938,-1.46969,0.0058382,0.0284817,580,1177,-20.303,-1.14153
-637,-153,-20.3431,1.50989,0.000188871,0.00735888,-0.000993278,0.00749394,5.38141e-05,-1.43565,0.00497812,0.0118169,587,1177,-20.3431,-1.50984
-630,-153,-20.3831,1.80139,-0.000560162,0.00532297,-0.000769811,0.00542204,-0.000659224,-1.44282,0.00385328,0.0102994,594,1177,-20.3831,-1.8014
-623,-153,-20.407,2.05725,-0.00157099,0.00334672,-0.000878461,0.00349893,-0.0017232,-1.39923,0.00307255,0.0102615,601,1177,-20.407,-2.05726
-616,-153,-20.4205,2.34497,-0.00204287,0.00189069,-0.00078606,0.00204196,-0.00219414,-1.38069,0.00244624,0.0120639,608,1177,-20.4205,-2.34493
-609,-153,-20.3601,2.64648,-0.00200062,0.000809478,-0.000382566,0.000860629,-0.00205178,-1.43788,0.00172772,0.016575,615,1177,-20.3601,-2.64648
-602,-153,-20.2733,2.97705,-0.00223268,0.000334003,2.80704e-06,0.000334006,-0.00223269,1.5697,0.00161137,0.0469511,622,1177,-20.2733,-2.9771
-595,-153,-20.5551,3.26575,-0.00274775,4.81645e-05,0.000273266,7.46226e-05,-0.00277421,1.47428,0.00187484,0.0395139,629,1177,-20.5551,-3.2657
-588,-153,-20.8029,3.52893,0,0,0,0,0,0,0,-1,636,1177,-20.8028,-3.52893
-581,-153,-20.3746,3.73425,0,0,0,0,0,0,0,-1,643,1177,-20.3746,-3.7343
-574,-153,-20.3714,3.88586,0,0,0,0,0,0,0,-1,650,1177,-20.3714,-3.88588
-567,-153,-24.2562,0.624878,0,0,0,0,0,0,0,-1,657,1177,-24.2562,-0.624882
-560,-153,-24.2797,0.801636,-0.0023255,0.00241864,-0.000483777,0.00246747,-0.00237433,-1.4702,0.00279558,0.0405823,664,1177,-24.2797,-0.801607
-553,-153,-24.2847,0.94812,-0.00201391,0.00347821,-0.000849674,0.00360665,-0.00214236,-1.42076,0.00335489,0.0387793,671,1177,-24.2847,-0.948065
-546,-153,-24.2566,1.06055,-0.00120839,0.00494976,-0.00124024,0.00519016,-0.00144879,-1.37934,0.00403078,0.0417003,678,1177,-24.2566,-1.06055
-539,-153,-24.4167,0.971436,5.90281e-05,0.00716427,-0.00177513,0.00758307,-0.000359773,-1.33911,0.00517947,0.0420831,685,1177,-24.4168,-0.971486
-532,-153,-24.4121,0.679932,0.00189028,0.0103768,-0.00250145,0.0110593,0.00120784,-1.30446,0.00700502,0.0437321,692,1177,-24.4121,-0.679901
-525,-153,-24.2917,0.723999,0.00445901,0.0144479,-0.00330061,0.01544,0.00346693,-1.27881,0.00935435,0.0438779,699,1177,-24.2917,-0.72396
-518,-153,0,0,0,0,0,0,0,0,0,-1,706,1177,0,0
-511,-153,0,0,0,0,0,0,0,0,0,-1,713,1177,0,0
-504,-153,0,0,0,0,0,0,0,0,0,-1,720,1177,0,0
-497,-153,0,0,0,0,0,0,0,0,0,-1,727,1177,0,0
-490,-153,0,0,0,0,0,0,0,0,0,-1,734,1177,0,0
-483,-153,0,0,0,0,0,0,0,0,0,-1,741,1177,0,0
-476,-153,0,0,0,0,0,0,0,0,0,-1,748,1177,0,0
-469,-153,0,0,0,0,0,0,0,0,0,-1,755,1177,0,0
-462,-153,0,0,0,0,0,0,0,0,0,-1,762,1177,0,0
-455,-153,0,0,0,0,0,0,0,0,0,-1,769,1177,0,0
-448,-153,0,0,0,0,0,0,0,0,0,-1,776,1177,0,0
-441,-153,0,0,0,0,0,0,0,0,0,-1,783,1177,0,0
-434,-153,0,0,0,0,0,0,0,0,0,-1,790,1177,0,0
-427,-153,0,0,0,0,0,0,0,0,0,-1,797,1177,0,0
-420,-153,0,0,0,0,0,0,0,0,0,-1,804,1177,0,0
-413,-153,0,0,0,0,0,0,0,0,0,-1,811,1177,0,0
-406,-153,0,0,0,0,0,0,0,0,0,-1,818,1177,0,0
-399,-153,0,0,0,0,0,0,0,0,0,-1,825,1177,0,0
-392,-153,0,0,0,0,0,0,0,0,0,-1,832,1177,0,0
-385,-153,0,0,0,0,0,0,0,0,0,-1,839,1177,0,0
-378,-153,0,0,0,0,0,0,0,0,0,-1,846,1177,0,0
-371,-153,0,0,0,0,0,0,0,0,0,-1,853,1177,0,0
-364,-153,0,0,0,0,0,0,0,0,0,-1,860,1177,0,0
-357,-153,0,0,0,0,0,0,0,0,0,-1,867,1177,0,0
-350,-153,0,0,0,0,0,0,0,0,0,-1,874,1177,0,0
-343,-153,0,0,0,0,0,0,0,0,0,-1,881,1177,0,0
-336,-153,0,0,0,0,0,0,0,0,0,-1,888,1177,0,0
-329,-153,0,0,0,0,0,0,0,0,0,-1,895,1177,0,0
-322,-153,0,0,0,0,0,0,0,0,0,-1,902,1177,0,0
-315,-153,0,0,0,0,0,0,0,0,0,-1,909,1177,0,0
-308,-153,0,0,0,0,0,0,0,0,0,-1,916,1177,0,0
-301,-153,0,0,0,0,0,0,0,0,0,-1,923,1177,0,0
-294,-153,0,0,0,0,0,0,0,0,0,-1,930,1177,0,0
-287,-153,0,0,0,0,0,0,0,0,0,-1,937,1177,0,0
-280,-153,0,0,0,0,0,0,0,0,0,-1,944,1177,0,0
-273,-153,0,0,0,0,0,0,0,0,0,-1,951,1177,0,0
-266,-153,0,0,0,0,0,0,0,0,0,-1,958,1177,0,0
-259,-153,0,0,0,0,0,0,0,0,0,-1,965,1177,0,0
-252,-153,0,0,0,0,0,0,0,0,0,-1,972,1177,0,0
-245,-153,0,0,0,0,0,0,0,0,0,-1,979,1177,0,0
-238,-153,0,0,0,0,0,0,0,0,0,-1,986,1177,0,0
-231,-153,0,0,0,0,0,0,0,0,0,-1,993,1177,0,0
-224,-153,0,0,0,0,0,0,0,0,0,-1,1000,1177,0,0
-217,-153,0,0,0,0,0,0,0,0,0,-1,1007,1177,0,0
-210,-153,0,0,0,0,0,0,0,0,0,-1,1014,1177,0,0
-203,-153,0,0,0,0,0,0,0,0,0,-1,1021,1177,0,0
-196,-153,0,0,0,0,0,0,0,0,0,-1,1028,1177,0,0
-189,-153,0,0,0,0,0,0,0,0,0,-1,1035,1177,0,0
-182,-153,0,0,0,0,0,0,0,0,0,-1,1042,1177,0,0
-175,-153,0,0,0,0,0,0,0,0,0,-1,1049,1177,0,0
-168,-153,0,0,0,0,0,0,0,0,0,-1,1056,1177,0,0
-161,-153,0,0,0,0,0,0,0,0,0,-1,1063,1177,0,0
-154,-153,0,0,0,0,0,0,0,0,0,-1,1070,1177,0,0
-147,-153,0,0,0,0,0,0,0,0,0,-1,1077,1177,0,0
-140,-153,0,0,0,0,0,0,0,0,0,-1,1084,1177,0,0
-133,-153,0,0,0,0,0,0,0,0,0,-1,1091,1177,0,0
-126,-153,0,0,0,0,0,0,0,0,0,-1,1098,1177,0,0
-119,-153,0,0,0,0,0,0,0,0,0,-1,1105,1177,0,0
-112,-153,0,0,0,0,0,0,0,0,0,-1,1112,1177,0,0
-105,-153,0,0,0,0,0,0,0,0,0,-1,1119,1177,0,0
-98,-153,0,0,0,0,0,0,0,0,0,-1,1126,1177,0,0
-91,-153,0,0,0,0,0,0,0,0,0,-1,1133,1177,0,0
-84,-153,0,0,0,0,0,0,0,0,0,-1,1140,1177,0,0
-77,-153,0,0,0,0,0,0,0,0,0,-1,1147,1177,0,0
-70,-153,0,0,0,0,0,0,0,0,0,-1,1154,1177,0,0
-63,-153,0,0,0,0,0,0,0,0,0,-1,1161,1177,0,0
-56,-153,0,0,0,0,0,0,0,0,0,-1,1168,1177,0,0
-49,-153,0,0,0,0,0,0,0,0,0,-1,1175,1177,0,0
-42,-153,0,0,0,0,0,0,0,0,0,-1,1182,1177,0,0
-35,-153,0,0,0,0,0,0,0,0,0,-1,1189,1177,0,0
-28,-153,0,0,0,0,0,0,0,0,0,-1,1196,1177,0,0
-21,-153,0,0,0,0,0,0,0,0,0,-1,1203,1177,0,0
-14,-153,0,0,0,0,0,0,0,0,0,-1,1210,1177,0,0
-7,-153,0,0,0,0,0,0,0,0,0,-1,1217,1177,0,0
0,-153,0,0,0,0,0,0,0,0,0,-1,1224,1177,0,0
7,-153,0,0,0,0,0,0,0,0,0,-1,1231,1177,0,0
14,-153,0,0,0,0,0,0,0,0,0,-1,1238,1177,0,0
21,-153,0,0,0,0,0,0,0,0,0,-1,1245,1177,0,0
28,-153,0,0,0,0,0,0,0,0,0,-1,1252,1177,0,0
35,-153,0,0,0,0,0,0,0,0,0,-1,1259,1177,0,0
42,-153,0,0,0,0,0,0,0,0,0,-1,1266,1177,0,0
49,-153,0,0,0,0,0,0,0,0,0,-1,1273,1177,0,0
56,-153,0,0,0,0,0,0,0,0,0,-1,1280,1177,0,0
63,-153,0,0,0,0,0,0,0,0,0,-1,1287,1177,0,0
70,-153,0,0,0,0,0,0,0,0,0,-1,1294,1177,0,0
77,-153,0,0,0,0,0,0,0,0,0,-1,1301,1177,0,0
84,-153,0,0,0,0,0,0,0,0,0,-1,1308,1177,0,0
91,-153,0,0,0,0,0,0,0,0,0,-1,1315,1177,0,0
98,-153,0,0,0,0,0,0,0,0,0,-1,1322,1177,0,0
105,-153,0,0,0,0,0,0,0,0,0,-1,1329,1177,0,0
112,-153,0,0,0,0,0,0,0,0,0,-1,1336,1177,0,0
119,-153,0,0,0,0,0,0,0,0,0,-1,1343,1177,0,0
126,-153,0,0,0,0,0,0,0,0,0,-1,1350,1177,0,0
133,-153,0,0,0,0,0,0,0,0,0,-1,1357,1177,0,0
140,-153,0,0,0,0,0,0,0,0,0,-1,1364,1177,0,0
147,-153,0,0,0,0,0,0,0,0,0,-1,1371,1177,0,0
154,-153,0,0,0,0,0,0,0,0,0,-1,1378,1177,0,0
161,-153,0,0,0,0,0,0,0,0,0,-1,1385,1177,0,0
168,-153,0,0,0,0,0,0,0,0,0,-1,1392,1177,0,0
175,-153,0,0,0,0,0,0,0,0,0,-1,1399,1177,0,0
182,-153,0,0,0,0,0,0,0,0,0,-1,1406,1177,0,0
189,-153,0,0,0,0,0,0,0,0,0,-1,1413,1177,0,0
196,-153,0,0,0,0,0,0,0,0,0,-1,1420,1177,0,0
203,-153,0,0,0,0,0,0,0,0,0,-1,1427,1177,0,0
210,-153,0,0,0,0,0,0,0,0,0,-1,1434,1177,0,0
217,-153,0,0,0,0,0,0,0,0,0,-1,1441,1177,0,0
224,-153,0,0,0,0,0,0,0,0,0,-1,1448,1177,0,0
231,-153,0,0,0,0,0,0,0,0,0,-1,1455,1177,0,0
238,-153,0,0,0,0,0,0,0,0,0,-1,1462,1177,0,0
245,-153,0,0,0,0,0,0,0,0,0,-1,1469,1177,0,0
252,-153,0,0,0,0,0,0,0,0,0,-1,1476,1177,0,0
259,-153,0,0,0,0,0,0,0,0,0,-1,1483,1177,0,0
266,-153,0,0,0,0,0,0,0,0,0,-1,1490,1177,0,0
273,-153,0,0,0,0,0,0,0,0,0,-1,1497,1177,0,0
280,-153,0,0,0,0,0,0,0,0,0,-1,1504,1177,0,0
287,-153,0,0,0,0,0,0,0,0,0,-1,1511,1177,0,0
294,-153,0,0,0,0,0,0,0,0,0,-1,1518,1177,0,0
301,-153,0,0,0,0,0,0,0,0,0,-1,1525,1177,0,0
308,-153,0,0,0,0,0,0,0,0,0,-1,1532,1177,0,0
315,-153,0,0,0,0,0,0,0,0,0,-1,1539,1177,0,0
322,-153,0,0,0,0,0,0,0,0,0,-1,1546,1177,0,0
329,-153,0,0,0,0,0,0,0,0,0,-1,1553,1177,0,0
336,-153,0,0,0,0,0,0,0,0,0,-1,1560,1177,0,0
343,-153,0,0,0,0,0,0,0,0,0,-1,1567,1177,0,0
350,-153,0,0,0,0,0,0,0,0,0,-1,1574,1177,0,0
357,-153,0,0,0,0,0,0,0,0,0,-1,1581,1177,0,0
364,-153,0,0,0,0,0,0,0,0,0,-1,1588,1177,0,0
371,-153,0,0,0,0,0,0,0,0,0,-1,1595,1177,0,0
378,-153,0,0,0,0,0,0,0,0,0,-1,1602,1177,0,0
385,-153,0,0,0,0,0,0,0,0,0,-1,1609,1177,0,0
392,-153,0,0,0,0,0,0,0,0,0,-1,1616,1177,0,0
399,-153,0,0,0,0,0,0,0,0,0,-1,1623,1177,0,0
406,-153,0,0,0,0,0,0,0,0,0,-1,1630,1177,0,0
413,-153,0,0,0,0,0,0,0,0,0,-1,1637,1177,0,0
420,-153,0,0,0,0,0,0,0,0,0,-1,1644,1177,0,0
427,-153,0,0,0,0,0,0,0,0,0,-1,1651,1177,0,0
434,-153,0,0,0,0,0,0,0,0,0,-1,1658,1177,0,0
441,-153,0,0,0,0,0,0,0,0,0,-1,1665,1177,0,0
448,-153,0,0,0,0,0,0,0,0,0,-1,1672,1177,0,0
455,-153,0,0,0,0,0,0,0,0,0,-1,1679,1177,0,0
462,-153,0,0,0,0,0,0,0,0,0,-1,1686,1177,0,0
469,-153,0,0,0,0,0,0,0,0,0,-1,1693,1177,0,0
476,-153,0,0,0,0,0,0,0,0,0,-1,1700,1177,0,0
483,-153,0,0,0,0,0,0,0,0,0,-1,1707,1177,0,0
490,-153,0,0,0,0,0,0,0,0,0,-1,1714,1177,0,0
497,-153,0,0,0,0,0,0,0,0,0,-1,1721,1177,0,0
504,-153,0,0,0,0,0,0,0,0,0,-1,1728,1177,0,0
511,-153,0,0,0,0,0,0,0,0,0,-1,1735,1177,0,0
518,-153,0,0,0,0,0,0,0,0,0,-1,1742,1177,0,0
525,-153,0,0,0,0,0,0,0,0,0,-1,1749,1177,0,0
532,-153,0,0,0,0,0,0,0,0,0,-1,1756,1177,0,0
539,-153,0,0,0,0,0,0,0,0,0,-1,1763,1177,0,0
546,-153,0,0,0,0,0,0,0,0,0,-1,1770,1177,0,0
553,-153,0,0,0,0,0,0,0,0,0,-1,1777,1177,0,0
560,-153,0,0,0,0,0,0,0,0,0,-1,1784,1177,0,0
567,-153,0,0,0,0,0,0,0,0,0,-1,1791,1177,0,0
574,-153,0,0,0,0,0,0,0,0,0,-1,1798,1177,0,0
581,-153,0,0,0,0,0,0,0,0,0,-1,1805,1177,0,0
588,-153,0,0,0,0,0,0,0,0,0,-1,1812,1177,0,0
595,-153,0,0,0,0,0,0,0,0,0,-1,1819,1177,0,0
602,-153,0,0,0,0,0,0,0,0,0,-1,1826,1177,0,0
609,-153,0,0,0,0,0,0,0,0,0,-1,1833,1177,0,0
616,-153,0,0,0,0,0,0,0,0,0,-1,1840,1177,0,0
623,-153,0,0,0,0,0,0,0,0,0,-1,1847,1177,0,0
630,-153,0,0,0,0,0,0,0,0,0,-1,1854,1177,0,0
637,-153,34.0347,2.70935,0.000246679,0.00147964,0.000358933,0.00157652,0.000149801,1.30717,0.00100481,0.0414838,1861,1177,34.0347,-2.70938
644,-153,34.1183,2.77002,-0.000607382,0.00109608,0.000357674,0.00116813,-0.000679434,1.37201,0.00107906,0.0401132,1868,1177,34.1183,-2.76998
651,-153,34.0883,2.71985,-0.000938104,0.00102603,0.000175235,0.00104154,-0.000953616,1.48251,0.00115227,0.033825,1875,1177,34.0882,-2.71989
658,-153,34.1105,2.80579,-0.000880038,0.000984416,-9.29562e-05,0.000989039,-0.000884661,-1.5211,0.00108234,0.0375961,1882,1177,34.1105,-2.80584
665,-153,34.1425,2.74658,-0.000824128,0.000636233,-9.7525e-05,0.000642717,-0.000830612,-1.50441,0.00085293,0.037534,1889,1177,34.1425,-2.74656
672,-153,34.1166,2.77405,-0.00118377,0.000102606,0.000204482,0.000134329,-0.0012155,1.41689,0.000858616,0.038261,1896,1177,34.1166,-2.77406
679,-153,33.9972,2.75354,-0.00198433,-0.000342896,0.000639348,-0.000123256,-0.00220397,1.23989,0.00143,0.0289303,1903,1177,33.9972,-2.75355
686,-153,34.0125,2.7345,-0.00273898,-0.000783957,0.00104419,-0.000331136,-0.0031918,1.16161,0.00202653,0.0166802,1910,1177,34.0124,-2.73452
693,-153,34.0502,2.62573,-0.0033717,-0.00106628,0.00134574,-0.00044706,-0.00399093,1.13955,0.00252483,0.0252824,1917,1177,34.0501,-2.62578
700,-153,34.0626,2.41089,0,0,0,0,0,0,0,-1,1924,1177,34.0626,-2.41094
707,-153,29.6483,6.6842,0,0,0,0,0,0,0,-1,1931,1177,29.6483,-6.68415
714,-153,30.1873,5.96289,0,0,0,0,0,0,0,-1,1938,1177,30.1873,-5.96287
721,-153,30.5137,5.77185,0,0,0,0,0,0,0,-1,1945,1177,30.5137,-5.77189
728,-153,30.384,5.5553,0,0,0,0,0,0,0,-1,1952,1177,30.3841,-5.55524
735,-153,30.3147,5.38696,-0.00402727,-0.00137324,0.00218968,-0.000139851,-0.00526066,1.05782,0.00346143,0.0214444,1959,1177,30.3146,-5.38701
742,-153,30.3042,5.17786,-0.00372161,5.11508e-05,0.000567453,0.000134652,-0.00380512,1.42469,0.0025828,0.01535,1966,1177,30.3042,-5.17783
749,-153,30.3075,4.95874,-0.00142333,0.00225978,-0.00151457,0.0028026,-0.00196615,-1.22666,0.00276732,0.0160111,1973,1177,30.3075,-4.9588
756,-153,30.2975,4.71826,0.00368628,0.00549711,-0.00497552,0.00964892,-0.000465538,-0.875401,0.00659328,0.0107923,1980,1177,30.2974,-4.71826
763,-153,30.2635,4.48022,0.00928071,0.00997095,-0.00938599,0.0190182,0.0002335,-0.803775,0.0126017,0.010723,1987,1177,30.2635,-4.48021
770,-153,30.2542,4.22632,0.0166081,0.0152023,-0.0145696,0.0304917,0.00131867,-0.761294,0.0199028,0.0105887,1994,1177,30.2542,-4.22633
777,-153,30.2697,4.01221,0.0260931,0.0214801,-0.02055,0.0444656,0.00310758,-0.729513,0.0286641,0.0228942,2001,1177,30.2696,-4.01216
784,-153,30.4709,3.87158,0.0384349,0.0291381,-0.0274424,0.0616198,0.00595313,-0.701501,0.0392463,0.0451773,2008,1177,30.4709,-3.87152
791,-153,30.8016,3.96973,0.054615,0.0383134,-0.0352019,0.0825974,0.010331,-0.671631,0.0519647,0.0458722,2015,1177,30.8016,-3.96977
798,-153,31.1467,1.01978,0.0758963,0.0490677,-0.0436355,0.108133,0.0168312,-0.636274,0.0671847,0.0441619,2022,1177,31.1468,-1.01981
805,-153,31.5496,0.164185,0.103645,0.0613291,-0.0521276,0.138745,0.0262291,-0.592614,0.0851114,0.0441308,2029,1177,31.5496,-0.164158
812,-153,0,0,0,0,0,0,0,0,0,-1,2036,1177,0,0
-700,-160,0,0,0,0,0,0,0,0,0,-1,524,1184,0,0
-693,-160,0,0,0,0,0,0,0,0,0,-1,531,1184,0,0
-686,-160,-17.7682,-3.25659,0,0,0,0,0,0,0,-1,538,1184,-17.7683,3.25661
-679,-160,-17.4856,-1.2594,0.0142847,0.0199402,0.00534816,0.0231622,0.0110627,1.02858,0.0133771,0.0478476,545,1184,-17.4856,1.25939
-672,-160,-16.9036,1.07715,0.00985565,0.0189968,0.00469937,0.0209817,0.00787076,1.17115,0.0122391,0.0450115,552,1184,-16.9036,-1.07718
-665,-160,-19.1218,-0.508545,0.00667119,0.017481,0.00394615,0.0187682,0.00538392,1.25547,0.0111592,0.0467608,559,1184,-19.1218,0.508516
-658,-160,-19.395,-0.276733,0,0,0,0,0,0,0,-1,566,1184,-19.395,0.276756
-651,-160,-19.7906,0.902954,0,0,0,0,0,0,0,-1,573,1184,-19.7906,-0.902993
-644,-160,-19.9109,1.19934,0.00131922,0.0110968,0.00169697,0.0113829,0.00103307,1.40374,0.00726878,0.0384409,580,1184,-19.9109,-1.19935
-637,-160,-20.0343,1.50305,0.00021966,0.00881953,0.000963955,0.00892625,0.000112935,1.46053,0.00591355,0.0146863,587,1184,-20.0343,-1.50304
-630,-160,-20.1011,1.76855,-0.000606314,0.00647707,0.000700208,0.00654563,-0.000674868,1.4732,0.00460522,0.00891067,594,1184,-20.1012,-1.7685
-623,-160,-20.145,2.02087,-0.00173164,0.00417205,-7.83971e-05,0.00417309,-0.00173268,-1.55752,0.00350539,0.0107488,601,1184,-20.145,-2.02082
-616,-160,-20.1442,2.31323,-0.00237336,0.00239214,-0.000584654,0.00246282,-0.00244404,-1.45049,0.00283298,0.00912596,608,1184,-20.1442,-2.31317
-609,-160,-20.0889,2.66846,-0.00241783,0.000994748,-0.000541917,0.00107874,-0.00250182,-1.41703,0.00212096,0.012009,615,1184,-20.0889,-2.66843
-602,-160,-19.9814,3.07739,-0.00271711,0.000402761,-0.00028089,0.000427848,-0.0027422,-1.48172,0.00198617,0.0298531,622,1184,-19.9814,-3.07744
-595,-160,-20.0532,3.40649,-0.00330759,0.000190598,-0.000104406,0.000193711,-0.00331071,-1.54099,0.00227446,0.0404506,629,1184,-20.0532,-3.40654
-588,-160,-20.3249,3.73523,0,0,0,0,0,0,0,-1,636,1184,-20.3249,-3.73524
-581,-160,-20.1221,3.80127,0,0,0,0,0,0,0,-1,643,1184,-20.1221,-3.80128
-574,-160,-20.2778,4.06274,0,0,0,0,0,0,0,-1,650,1184,-20.2779,-4.06276
-567,-160,-24.2452,0.670166,0,0,0,0,0,0,0,-1,657,1184,-24.2452,-0.67018
-560,-160,-24.2662,0.808228,-0.0028445,0.00279849,-0.00094285,0.00295185,-0.00299786,-1.40955,0.0034351,0.0409872,664,1184,-24.2662,-0.808226
-553,-160,-24.2548,0.883789,-0.0024605,0.00389487,-0.00123276,0.00412561,-0.00269124,-1.38576,0.00396465,0.0378408,671,1184,-24.2547,-0.883822
-546,-160,-24.2398,0.852661,-0.00152116,0.00535286,-0.00148341,0.00565931,-0.00182762,-1.36707,0.00450733,0.0390376,678,1184,-24.2398,-0.85261
-539,-160,-24.2283,0.666504,-1.1071e-05,0.00747016,-0.00177882,0.00787158,-0.000412484,-1.34885,0.00539047,0.0428447,685,1184,-24.2283,-0.666483
-532,-160,-24.0794,0.390259,0.00219903,0.0105378,-0.00222781,0.0110957,0.00164117,-1.32543,0.0069153,0.0453712,692,1184,-24.0794,-0.39024
-525,-160,-23.9789,0.566406,0.00544695,0.0145781,-0.00283773,0.0153882,0.00463692,-1.29274,0.00911514,0.044031,699,1184,-23.9789,-0.566361
-518,-160,-24.0732,0.825073,0.00809431,0.0197079,-0.00395939,0.0209293,0.00687289,-1.27157,0.0123185,0.041565,706,1184,-24.0733,-0.825023
-511,-160,0,0,0,0,0,0,0,0,0,-1,713,1184,0,0
-504,-160,0,0,0,0,0,0,0,0,0,-1,720,1184,0,0
-497,-160,0,0,0,0,0,0,0,0,0,-1,727,1184,0,0
-490,-160,0,0,0,0,0,0,0,0,0,-1,734,1184,0,0
-483,-160,0,0,0,0,0,0,0,0,0,-1,741,1184,0,0
-476,-160,0,0,0,0,0,0,0,0,0,-1,748,1184,0,0
-469,-160,0,0,0,0,0,0,0,0,0,-1,755,1184,0,0
-462,-160,0,0,0,0,0,0,0,0,0,-1,762,1184,0,0
-455,-160,0,0,0,0,0,0,0,0,0,-1,769,1184,0,0
-448,-160,0,0,0,0,0,0,0,0,0,-1,776,1184,0,0
-441,-160,0,0,0,0,0,0,0,0,0,-1,783,1184,0,0
-434,-160,0,0,0,0,0,0,0,0,0,-1,790,1184,0,0
-427,-160,0,0,0,0,0,0,0,0,0,-1,797,1184,0,0
-420,-160,0,0,0,0,0,0,0,0,0,-1,804,1184,0,0
-413,-160,0,0,0,0,0,0,0,0,0,-1,811,1184,0,0
-406,-160,0,0,0,0,0,0,0,0,0,-1,818,1184,0,0
-399,-160,0,0,0,0,0,0,0,0,0,-1,825,1184,0,0
-392,-160,0,0,0,0,0,0,0,0,0,-1,832,1184,0,0
-385,-160,0,0,0,0,0,0,0,0,0,-1,839,1184,0,0
-378,-160,0,0,0,0,0,0,0,0,0,-1,846,1184,0,0
-371,-160,0,0,0,0,0,0,0,0,0,-1,853,1184,0,0
-364,-160,0,0,0,0,0,0,0,0,0,-1,860,1184,0,0
-357,-160,0,0,0,0,0,0,0,0,0,-1,867,1184,0,0
-350,-160,0,0,0,0,0,0,0,0,0,-1,874,1184,0,0
-343,-160,0,0,0,0,0,0,0,0,0,-1,881,1184,0,0
-336,-160,0,0,0,0,0,0,0,0,0,-1,888,1184,0,0
-329,-160,0,0,0,0,0,0,0,0,0,-1,895,1184,0,0
-322,-160,0,0,0,0,0,0,0,0,0,-1,902,1184,0,0
-315,-160,0,0,0,0,0,0,0,0,0,-1,909,1184,0,0
-308,-160,0,0,0,0,0,0,0,0,0,-1,916,1184,0,0
-301,-160,0,0,0,0,0,0,0,0,0,-1,923,1184,0,0
-294,-160,0,0,0,0,0,0,0,0,0,-1,930,1184,0,0
-287,-160,0,0,0,0,0,0,0,0,0,-1,937,1184,0,0
-280,-160,0,0,0,0,0,0,0,0,0,-1,944,1184,0,0
-273,-160,0,0,0,0,0,0,0,0,0,-1,951,1184,0,0
-266,-160,0,0,0,0,0,0,0,0,0,-1,958,1184,0,0
-259,-160,0,0,0,0,0,0,0,0,0,-1,965,1184,0,0
-252,-160,0,0,0,0,0,0,0,0,0,-1,972,1184,0,0
-245,-160,0,0,0,0,0,0,0,0,0,-1,979,1184,0,0
-238,-160,0,0,0,0,0,0,0,0,0,-1,986,1184,0,0
-231,-160,0,0,0,0,0,0,0,0,0,-1,993,1184,0,0
-224,-160,0,0,0,0,0,0,0,0,0,-1,1000,1184,0,0
-217,-160,0,0,0,0,0,0,0,0,0,-1,1007,1184,0,0
-210,-160,0,0,0,0,0,0,0,0,0,-1,1014,1184,0,0
-203,-160,0,0,0,0,0,0,0,0,0,-1,1021,1184,0,0
-196,-160,0,0,0,0,0,0,0,0,0,-1,1028,1184,0,0
-189,-160,0,0,0,0,0,0,0,0,0,-1,1035,1184,0,0
-182,-160,0,0,0,0,0,0,0,0,0,-1,1042,1184,0,0
-175,-160,0,0,0,0,0,0,0,0,0,-1,1049,1184,0,0
-168,-160,0,0,0,0,0,0,0,0,0,-1,1056,1184,0,0
-161,-160,0,0,0,0,0,0,0,0,0,-1,1063,1184,0,0
-154,-160,0,0,0,0,0,0,0,0,0,-1,1070,1184,0,0
-147,-160,0,0,0,0,0,0,0,0,0,-1,1077,1184,0,0
-140,-160,0,0,0,0,0,0,0,0,0,-1,1084,1184,0,0
-133,-160,0,0,0,0,0,0,0,0,0,-1,1091,1184,0,0
-126,-160,0,0,0,0,0,0,0,0,0,-1,1098,1184,0,0
-119,-160,0,0,0,0,0,0,0,0,0,-1,1105,1184,0,0
-112,-160,0,0,0,0,0,0,0,0,0,-1,1112,1184,0,0
-105,-160,0,0,0,0,0,0,0,0,0,-1,1119,1184,0,0
-98,-160,0,0,0,0,0,0,0,0,0,-1,1126,1184,0,0
-91,-160,0,0,0,0,0,0,0,0,0,-1,1133,1184,0,0
-84,-160,0,0,0,0,0,0,0,0,0,-1,1140,1184,0,0
-77,-160,0,0,0,0,0,0,0,0,0,-1,1147,1184,0,0
-70,-160,0,0,0,0,0,0,0,0,0,-1,1154,1184,0,0
-63,-160,0,0,0,0,0,0,0,0,0,-1,1161,1184,0,0
-56,-160,0,0,0,0,0,0,0,0,0,-1,1168,1184,0,0
-49,-160,0,0,0,0,0,0,0,0,0,-1,1175,1184,0,0
-42,-160,0,0,0,0,0,0,0,0,0,-1,1182,1184,0,0
-35,-160,0,0,0,0,0,0,0,0,0,-1,1189,1184,0,0
-28,-160,0,0,0,0,0,0,0,0,0,-1,1196,1184,0,0
-21,-160,0,0,0,0,0,0,0,0,0,-1,1203,1184,0,0
-14,-160,0,0,0,0,0,0,0,0,0,-1,1210,1184,0,0
-7,-160,0,0,0,0,0,0,0,0,0,-1,1217,1184,0,0
0,-160,0,0,0,0,0,0,0,0,0,-1,1224,1184,0,0
7,-160,0,0,0,0,0,0,0,0,0,-1,1231,1184,0,0
14,-160,0,0,0,0,0,0,0,0,0,-1,1238,1184,0,0
21,-160,0,0,0,0,0,0,0,0,0,-1,1245,1184,0,0
28,-160,0,0,0,0,0,0,0,0,0,-1,1252,1184,0,0
35,-160,0,0,0,0,0,0,0,0,0,-1,1259,1184,0,0
42,-160,0,0,0,0,0,0,0,0,0,-1,1266,1184,0,0
49,-160,0,0,0,0,0,0,0,0,0,-1,1273,1184,0,0
56,-160,0,0,0,0,0,0,0,0,0,-1,1280,1184,0,0
63,-160,0,0,0,0,0,0,0,0,0,-1,1287,1184,0,0
70,-160,0,0,0,0,0,0,0,0,0,-1,1294,1184,0,0
77,-160,0,0,0,0,0,0,0,0,0,-1,1301,1184,0,0
84,-160,0,0,0,0,0,0,0,0,0,-1,1308,1184,0,0
91,-160,0,0,0,0,0,0,0,0,0,-1,1315,1184,0,0
98,-160,0,0,0,0,0,0,0,0,0,-1,1322,1184,0,0
105,-160,0,0,0,0,0,0,0,0,0,-1,1329,1184,0,0
112,-160,0,0,0,0,0,0,0,0,0,-1,1336,1184,0,0
119,-160,0,0,0,0,0,0,0,0,0,-1,1343,1184,0,0
126,-160,0,0,0,0,0,0,0,0,0,-1,1350,1184,0,0
133,-160,0,0,0,0,0,0,0,0,0,-1,1357,1184,0,0
140,-160,0,0,0,0,0,0,0,0,0,-1,1364,1184,0,0
147,-160,0,0,0,0,0,0,0,0,0,-1,1371,1184,0,0
154,-160,0,0,0,0,0,0,0,0,0,-1,1378,1184,0,0
161,-160,0,0,0,0,0,0,0,0,0,-1,1385,1184,0,0
168,-160,0,0,0,0,0,0,0,0,0,-1,1392,1184,0,0
175,-160,0,0,0,0,0,0,0,0,0,-1,1399,1184,0,0
182,-160,0,0,0,0,0,0,0,0,0,-1,1406,1184,0,0
189,-160,0,0,0,0,0,0,0,0,0,-1,1413,1184,0,0
196,-160,0,0,0,0,0,0,0,0,0,-1,1420,1184,0,0
203,-160,0,0,0,0,0,0,0,0,0,-1,1427,1184,0,0
210,-160,0,0,0,0,0,0,0,0,0,-1,1434,1184,0,0
217,-160,0,0,0,0,0,0,0,0,0,-1,1441,1184,0,0
224,-160,0,0,0,0,0,0,0,0,0,-1,1448,1184,0,0
231,-160,0,0,0,0,0,0,0,0,0,-1,1455,1184,0,0
238,-160,0,0,0,0,0,0,0,0,0,-1,1462,1184,0,0
245,-160,0,0,0,0,0,0,0,0,0,-1,1469,1184,0,0
252,-160,0,0,0,0,0,0,0,0,0,-1,1476,1184,0,0
259,-160,0,0,0,0,0,0,0,0,0,-1,1483,1184,0,0
266,-160,0,0,0,0,0,0,0,0,0,-1,1490,1184,0,0
273,-160,0,0,0,0,0,0,0,0,0,-1,1497,1184,0,0
280,-160,0,0,0,0,0,0,0,0,0,-1,1504,1184,0,0
287,-160,0,0,0,0,0,0,0,0,0,-1,1511,1184,0,0
294,-160,0,0,0,0,0,0,0,0,0,-1,1518,1184,0,0
301,-160,0,0,0,0,0,0,0,0,0,-1,1525,1184,0,0
308,-160,0,0,0,0,0,0,0,0,0,-1,1532,1184,0,0
315,-160,0,0,0,0,0,0,0,0,0,-1,1539,1184,0,0
322,-160,0,0,0,0,0,0,0,0,0,-1,1546,1184,0,0
329,-160,0,0,0,0,0,0,0,0,0,-1,1553,1184,0,0
336,-160,0,0,0,0,0,0,0,0,0,-1,1560,1184,0,0
343,-160,0,0,0,0,0,0,0,0,0,-1,1567,1184,0,0
350,-160,0,0,0,0,0,0,0,0,0,-1,1574,1184,0,0
357,-160,0,0,0,0,0,0,0,0,0,-1,1581,1184,0,0
364,-160,0,0,0,0,0,0,0,0,0,-1,1588,1184,0,0
371,-160,0,0,0,0,0,0,0,0,0,-1,1595,1184,0,0
378,-160,0,0,0,0,0,0,0,0,0,-1,1602,1184,0,0
385,-160,0,0,0,0,0,0,0,0,0,-1,1609,1184,0,0
392,-160,0,0,0,0,0,0,0,0,0,-1,1616,1184,0,0
399,-160,0,0,0,0,0,0,0,0,0,-1,1623,1184,0,0
406,-160,0,0,0,0,0,0,0,0,0,-1,1630,1184,0,0
413,-160,0,0,0,0,0,0,0,0,0,-1,1637,1184,0,0
420,-160,0,0,0,0,0,0,0,0,0,-1,1644,1184,0,0
427,-160,0,0,0,0,0,0,0,0,0,-1,1651,1184,0,0
434,-160,0,0,0,0,0,0,0,0,0,-1,1658,1184,0,0
441,-160,0,0,0,0,0,0,0,0,0,-1,1665,1184,0,0
448,-160,0,0,0,0,0,0,0,0,0,-1,1672,1184,0,0
455,-160,0,0,0,0,0,0,0,0,0,-1,1679,1184,0,0
462,-160,0,0,0,0,0,0,0,0,0,-1,1686,1184,0,0
469,-160,0,0,0,0,0,0,0,0,0,-1,1693,1184,0,0
476,-160,0,0,0,0,0,0,0,0,0,-1,1700,1184,0,0
483,-160,0,0,0,0,0,0,0,0,0,-1,1707,1184,0,0
490,-160,0,0,0,0,0,0,0,0,0,-1,1714,1184,0,0
497,-160,0,0,0,0,0,0,0,0,0,-1,1721,1184,0,0
504,-160,0,0,0,0,0,0,0,0,0,-1,1728,1184,0,0
511,-160,0,0,0,0,0,0,0,0,0,-1,1735,1184,0,0
518,-160,0,0,0,0,0,0,0,0,0,-1,1742,1184,0,0
525,-160,0,0,0,0,0,0,0,0,0,-1,1749,1184,0,0
532,-160,0,0,0,0,0,0,0,0,0,-1,1756,1184,0,0
539,-160,0,0,0,0,0,0,0,0,0,-1,1763,1184,0,0
546,-160,0,0,0,0,0,0,0,0,0,-1,1770,1184,0,0
553,-160,0,0,0,0,0,0,0,0,0,-1,1777,1184,0,0
560,-160,0,0,0,0,0,0,0,0,0,-1,1784,1184,0,0
567,-160,0,0,0,0,0,0,0,0,0,-1,1791,1184,0,0
574,-160,0,0,0,0,0,0,0,0,0,-1,1798,1184,0,0
581,-160,0,0,0,0,0,0,0,0,0,-1,1805,1184,0,0
588,-160,0,0,0,0,0,0,0,0,0,-1,1812,1184,0,0
595,-160,0,0,0,0,0,0,0,0,0,-1,1819,1184,0,0
602,-160,0,0,0,0,0,0,0,0,0,-1,1826,1184,0,0
609,-160,0,0,0,0,0,0,0,0,0,-1,1833,1184,0,0
616,-160,0,0,0,0,0,0,0,0,0,-1,1840,1184,0,0
623,-160,0,0,0,0,0,0,0,0,0,-1,1847,1184,0,0
630,-160,0,0,0,0,0,0,0,0,0,-1,1854,1184,0,0
637,-160,33.9845,2.59595,0.000842137,0.00119629,0.000736598,0.0017768,0.000261632,0.90336,0.00110767,0.042655,1861,1184,33.9845,-2.59599
644,-160,34.1047,2.62195,-0.000127259,0.00101592,0.000513443,0.00121266,-0.000324005,1.20487,0.00093534,0.0422265,1868,1184,34.1048,-2.62197
651,-160,33.988,2.57751,-0.000596388,0.00102985,0.000175586,0.00104859,-0.00061513,1.46446,0.000971355,0.0405227,1875,1184,33.988,-2.57747
658,-160,33.933,2.62244,-0.000640986,0.00101538,-0.000216866,0.0010433,-0.000668909,-1.44274,0.000996393,0.0400375,1882,1184,33.933,-2.62243
665,-160,34.0352,2.68811,-0.00066075,0.000662887,-0.00027843,0.00071907,-0.000716934,-1.37168,0.000829078,0.0368363,1889,1184,34.0351,-2.68805
672,-160,34.0668,2.6958,-0.00109119,0.000135416,5.51275e-06,0.000135441,-0.00109122,1.5663,0.000776572,0.0336871,1896,1184,34.0668,-2.69582
679,-160,34.0135,2.67932,-0.00192392,-0.000303372,0.000458039,-0.000182871,-0.00204442,1.31354,0.00130627,0.0250289,1903,1184,34.0135,-2.67929
686,-160,34.0331,2.69165,-0.00266656,-0.00073501,0.000861156,-0.000406833,-0.00299473,1.2067,0.00187564,0.014313,1910,1184,34.0331,-2.69164
693,-160,33.9797,2.57031,-0.00328561,-0.00101661,0.00116205,-0.000527086,-0.00377514,1.1721,0.00236076,0.038067,1917,1184,33.9797,-2.57029
700,-160,33.9215,2.40796,0,0,0,0,0,0,0,-1,1924,1184,33.9215,-2.40796
707,-160,24.5115,6.27405,0,0,0,0,0,0,0,-1,1931,1184,24.5115,-6.27401
714,-160,30.0713,5.98071,0,0,0,0,0,0,0,-1,1938,1184,30.0712,-5.98077
721,-160,30.3363,5.6748,0,0,0,0,0,0,0,-1,1945,1184,30.3364,-5.67477
728,-160,30.075,5.69336,0,0,0,0,0,0,0,-1,1952,1184,30.0749,-5.69331
735,-160,30.0892,5.42444,-0.00377296,-0.00146506,0.00219267,-0.000141229,-0.0050968,1.02762,0.00335178,0.0166914,1959,1184,30.0892,-5.42441
742,-160,30.038,5.18079,-0.00319769,7.76568e-05,0.000490669,0.000149583,-0.00326961,1.42525,0.00223128,0.015912,1966,1184,30.038,-5.1808
749,-160,30.037,4.93811,-0.000373384,0.00237496,-0.00184717,0.00330304,-0.00130147,-1.1052,0.00274086,0.0168104,1973,1184,30.037,-4.93807
756,-160,30.0421,4.70337,0.00540982,0.00558864,-0.00549241,0.0109924,6.08806e-06,-0.793537,0.00732622,0.010675,1980,1184,30.0421,-4.7034
763,-160,29.9934,4.47241,0.0117376,0.00995248,-0.0100915,0.0209759,0.000714167,-0.74129,0.0137521,0.0115342,1987,1184,29.9934,-4.47245
770,-160,29.9279,4.20129,0.0199409,0.0150964,-0.015558,0.0332641,0.00177319,-0.708173,0.0216092,0.0198286,1994,1184,29.9278,-4.20129
777,-160,29.9061,3.93469,0.03056,0.0213769,-0.0219922,0.0484349,0.00350208,-0.682486,0.0311882,0.033738,2001,1184,29.9061,-3.93465
784,-160,30.3789,3.83997,0,0,0,0,0,0,0,-1,2008,1184,30.3789,-3.84001
791,-160,30.8564,4.58264,0.0621237,0.0380971,-0.0379427,0.0899094,0.0103113,-0.632083,0.0568153,0.0471602,2015,1184,30.8564,-4.58266
798,-160,30.7302,0.81543,0.0854911,0.0485537,-0.0472404,0.117745,0.0163001,-0.599057,0.0736666,0.0447438,2022,1184,30.7303,-0.815431
805,-160,31.4399,0.0958252,0.115672,0.0601223,-0.0566593,0.150998,0.0247962,-0.557507,0.0935022,0.0454409,2029,1184,31.44,-0.0957878
812,-160,0,0,0,0,0,0,0,0,0,-1,2036,1184,0,0
-700,-167,0,0,0,0,0,0,0,0,0,-1,524,1191,0,0
-693,-167,0,0,0,0,0,0,0,0,0,-1,531,1191,0,0
-686,-167,-17.8051,-3.46509,0,0,0,0,0,0,0,-1,538,1191,-17.8051,3.46512
-679,-167,-16.1328,-1.53137,0,0,0,0,0,0,0,-1,545,1191,-16.1328,1.53137
-672,-167,-15.6101,1.20447,0.0138197,0.0236228,0.0106441,0.0304397,0.00700276,1.00117,0.0184084,0.0462297,552,1191,-15.6101,-1.20449
-665,-167,-14.9849,3.55847,0.00960511,0.0215501,0.00923067,0.026572,0.00458324,1.07254,0.0164018,0.047416,559,1191,-14.9849,-3.5585
-658,-167,-14.3902,5.90039,0,0,0,0,0,0,0,-1,566,1191,-14.3902,-5.90039
-651,-167,-19.2466,0.407104,0,0,0,0,0,0,0,-1,573,1191,-19.2467,-0.407133
-644,-167,-19.4684,0.945923,0.00245567,0.0132947,0.00461121,0.014991,0.000759398,1.2183,0.00975072,0.0407306,580,1191,-19.4684,-0.945964
-637,-167,-19.7261,1.49194,0.00106175,0.0104525,0.00321004,0.0114449,6.9343e-05,1.27096,0.00760695,0.0176769,587,1191,-19.7261,-1.49192
-630,-167,-19.7908,1.74243,-6.89548e-05,0.00772654,0.00239923,0.00840577,-0.000748188,1.29491,0.00586916,0.00927278,594,1191,-19.7908,-1.74248
-623,-167,-19.811,2.02014,-0.00147586,0.00505861,0.00098762,0.00520462,-0.00162187,1.42402,0.00411824,0.0106796,601,1191,-19.8109,-2.02016
-616,-167,-19.8056,2.31616,-0.00242394,0.00295852,-0.00013132,0.00296172,-0.00242714,-1.54642,0.00311636,0.0137178,608,1191,-19.8056,-2.31615
-609,-167,-19.818,2.64771,-0.0026384,0.00120563,-0.00055844,0.00128512,-0.00271788,-1.42941,0.00235996,0.0141091,615,1191,-19.818,-2.64765
-602,-167,-19.8123,2.9408,-0.0030535,0.000564684,-0.000458553,0.000621895,-0.00311071,-1.44667,0.00230919,0.0157202,622,1191,-19.8122,-2.94077
-595,-167,-19.7716,3.20422,-0.00376375,0.000491437,-0.000378306,0.000524809,-0.00379712,-1.48281,0.00272326,0.0277797,629,1191,-19.7716,-3.20425
-588,-167,-19.8953,3.47461,-0.0042326,0.000639963,-0.000700482,0.000738665,-0.00433131,-1.43081,0.00316265,0.0287066,636,1191,-19.8953,-3.47459
-581,-167,-19.8721,3.73206,-0.00412829,0.000945625,-0.000990553,0.00113215,-0.00431482,-1.38467,0.00331893,0.0300877,643,1191,-19.8721,-3.73207
-574,-167,-19.9931,4.40112,0,0,0,0,0,0,0,-1,650,1191,-19.9931,-4.40111
-567,-167,-24.2581,1.1355,0,0,0,0,0,0,0,-1,657,1191,-24.2581,-1.1355
-560,-167,-24.2382,0.967041,-0.00343363,0.00335516,-0.0011899,0.00355768,-0.00363615,-1.40222,0.00415344,0.0470176,664,1191,-24.2382,-0.967096
-553,-167,-24.1912,0.782593,-0.00300151,0.0044233,-0.00137854,0.00467099,-0.0032492,-1.39302,0.00459721,0.0377862,671,1191,-24.1912,-0.782534
-546,-167,-24.208,0.756348,-0.0020032,0.00577947,-0.00149605,0.00605715,-0.00228087,-1.38728,0.00497581,0.0361286,678,1191,-24.208,-0.75639
-539,-167,-24.1215,0.541626,-0.000351733,0.00765741,-0.00160322,0.00796642,-0.000660733,-1.38039,0.00554433,0.0408688,685,1191,-24.1215,-0.541663
-532,-167,-23.9539,0.178223,0.00209536,0.0103304,-0.0018553,0.0107291,0.00169668,-1.35913,0.00665961,0.0469866,692,1191,-23.9539,-0.178237
-525,-167,-23.9161,0.188721,0.00589806,0.0139845,-0.00230495,0.0145954,0.00528721,-1.31173,0.00853256,0.0466288,699,1191,-23.9161,-0.188765
-518,-167,-23.9724,0.289917,0.00930977,0.0188301,-0.00346917,0.0199602,0.00817975,-1.2559,0.0115863,0.042253,706,1191,-23.9724,-0.289885
-511,-167,0,0,0,0,0,0,0,0,0,-1,713,1191,0,0
-504,-167,0,0,0,0,0,0,0,0,0,-1,720,1191,0,0
-497,-167,0,0,0,0,0,0,0,0,0,-1,727,1191,0,0
-490,-167,0,0,0,0,0,0,0,0,0,-1,734,1191,0,0
-483,-167,0,0,0,0,0,0,0,0,0,-1,741,1191,0,0
-476,-167,0,0,0,0,0,0,0,0,0,-1,748,1191,0,0
-469,-167,0,0,0,0,0,0,0,0,0,-1,755,1191,0,0
-462,-167,0,0,0,0,0,0,0,0,0,-1,762,1191,0,0
-455,-167,0,0,0,0,0,0,0,0,0,-1,769,1191,0,0
-448,-167,0,0,0,0,0,0,0,0,0,-1,776,1191,0,0
-441,-167,0,0,0,0,0,0,0,0,0,-1,783,1191,0,0
-434,-167,0,0,0,0,0,0,0,0,0,-1,790,1191,0,0
-427,-167,0,0,0,0,0,0,0,0,0,-1,797,1191,0,0
-420,-167,0,0,0,0,0,0,0,0,0,-1,804,1191,0,0
-413,-167,0,0,0,0,0,0,0,0,0,-1,811,1191,0,0
-406,-167,0,0,0,0,0,0,0,0,0,-1,818,1191,0,0
-399,-167,0,0,0,0,0,0,0,0,0,-1,825,1191,0,0
-392,-167,0,0,0,0,0,0,0,0,0,-1,832,1191,0,0
-385,-167,0,0,0,0,0,0,0,0,0,-1,839,1191,0,0
-378,-167,0,0,0,0,0,0,0,0,0,-1,846,1191,0,0
-371,-167,0,0,0,0,0,0,0,0,0,-1,853,1191,0,0
-364,-167,0,0,0,0,0,0,0,0,0,-1,860,1191,0,0
-357,-167,0,0,0,0,0,0,0,0,0,-1,867,1191,0,0
-350,-167,0,0,0,0,0,0,0,0,0,-1,874,1191,0,0
-343,-167,0,0,0,0,0,0,0,0,0,-1,881,1191,0,0
-336,-167,0,0,0,0,0,0,0,0,0,-1,888,1191,0,0
-329,-167,0,0,0,0,0,0,0,0,0,-1,895,1191,0,0
-322,-167,0,0,0,0,0,0,0,0,0,-1,902,1191,0,0
-315,-167,0,0,0,0,0,0,0,0,0,-1,909,1191,0,0
-308,-167,0,0,0,0,0,0,0,0,0,-1,916,1191,0,0
-301,-167,0,0,0,0,0,0,0,0,0,-1,923,1191,0,0
-294,-167,0,0,0,0,0,0,0,0,0,-1,930,1191,0,0
-287,-167,0,0,0,0,0,0,0,0,0,-1,937,1191,0,0
-280,-167,0,0,0,0,0,0,0,0,0,-1,944,1191,0,0
-273,-167,0,0,0,0,0,0,0,0,0,-1,951,1191,0,0
-266,-167,0,0,0,0,0,0,0,0,0,-1,958,1191,0,0
-259,-167,0,0,0,0,0,0,0,0,0,-1,965,1191,0,0
-252,-167,0,0,0,0,0,0,0,0,0,-1,972,1191,0,0
-245,-167,0,0,0,0,0,0,0,0,0,-1,979,1191,0,0
-238,-167,0,0,0,0,0,0,0,0,0,-1,986,1191,0,0
-231,-167,0,0,0,0,0,0,0,0,0,-1,993,1191,0,0
-224,-167,0,0,0,0,0,0,0,0,0,-1,1000,1191,0,0
-217,-167,0,0,0,0,0,0,0,0,0,-1,1007,1191,0,0
-210,-167,0,0,0,0,0,0,0,0,0,-1,1014,1191,0,0
-203,-167,0,0,0,0,0,0,0,0,0,-1,1021,1191,0,0
-196,-167,0,0,0,0,0,0,0,0,0,-1,1028,1191,0,0
-189,-167,0,0,0,0,0,0,0,0,0,-1,1035,1191,0,0
-182,-167,0,0,0,0,0,0,0,0,0,-1,1042,1191,0,0
-175,-167,0,0,0,0,0,0,0,0,0,-1,1049,1191,0,0
-168,-167,0,0,0,0,0,0,0,0,0,-1,1056,1191,0,0
-161,-167,0,0,0,0,0,0,0,0,0,-1,1063,1191,0,0
-154,-167,0,0,0,0,0,0,0,0,0,-1,1070,1191,0,0
-147,-167,0,0,0,0,0,0,0,0,0,-1,1077,1191,0,0
-140,-167,0,0,0,0,0,0,0,0,0,-1,1084,1191,0,0
-133,-167,0,0,0,0,0,0,0,0,0,-1,1091,1191,0,0
-126,-167,0,0,0,0,0,0,0,0,0,-1,1098,1191,0,0
-119,-167,0,0,0,0,0,0,0,0,0,-1,1105,1191,0,0
-112,-167,0,0,0,0,0,0,0,0,0,-1,1112,1191,0,0
-105,-167,0,0,0,0,0,0,0,0,0,-1,1119,1191,0,0
-98,-167,0,0,0,0,0,0,0,0,0,-1,1126,1191,0,0
-91,-167,0,0,0,0,0,0,0,0,0,-1,1133,1191,0,0
-84,-167,0,0,0,0,0,0,0,0,0,-1,1140,1191,0,0
-77,-167,0,0,0,0,0,0,0,0,0,-1,1147,1191,0,0
-70,-167,0,0,0,0,0,0,0,0,0,-1,1154,1191,0,0
-63,-167,0,0,0,0,0,0,0,0,0,-1,1161,1191,0,0
-56,-167,0,0,0,0,0,0,0,0,0,-1,1168,1191,0,0
-49,-167,0,0,0,0,0,0,0,0,0,-1,1175,1191,0,0
-42,-167,0,0,0,0,0,0,0,0,0,-1,1182,1191,0,0
-35,-167,0,0,0,0,0,0,0,0,0,-1,1189,1191,0,0
-28,-167,0,0,0,0,0,0,0,0,0,-1,1196,1191,0,0
-21,-167,0,0,0,0,0,0,0,0,0,-1,1203,1191,0,0
-14,-167,0,0,0,0,0,0,0,0,0,-1,1210,1191,0,0
-7,-167,0,0,0,0,0,0,0,0,0,-1,1217,1191,0,0
0,-167,0,0,0,0,0,0,0,0,0,-1,1224,1191,0,0
7,-167,0,0,0,0,0,0,0,0,0,-1,1231,1191,0,0
14,-167,0,0,0,0,0,0,0,0,0,-1,1238,1191,0,0
21,-167,0,0,0,0,0,0,0,0,0,-1,1245,1191,0,0
28,-167,0,0,0,0,0,0,0,0,0,-1,1252,1191,0,0
35,-167,0,0,0,0,0,0,0,0,0,-1,1259,1191,0,0
42,-167,0,0,0,0,0,0,0,0,0,-1,1266,1191,0,0
49,-167,0,0,0,0,0,0,0,0,0,-1,1273,1191,0,0
56,-167,0,0,0,0,0,0,0,0,0,-1,1280,1191,0,0
63,-167,0,0,0,0,0,0,0,0,0,-1,1287,1191,0,0
70,-167,0,0,0,0,0,0,0,0,0,-1,1294,1191,0,0
77,-167,0,0,0,0,0,0,0,0,0,-1,1301,1191,0,0
84,-167,0,0,0,0,0,0,0,0,0,-1,1308,1191,0,0
91,-167,0,0,0,0,0,0,0,0,0,-1,1315,1191,0,0
98,-167,0,0,0,0,0,0,0,0,0,-1,1322,1191,0,0
105,-167,0,0,0,0,0,0,0,0,0,-1,1329,1191,0,0
112,-167,0,0,0,0,0,0,0,0,0,-1,1336,1191,0,0
119,-167,0,0,0,0,0,0,0,0,0,-1,1343,1191,0,0
126,-167,0,0,0,0,0,0,0,0,0,-1,1350,1191,0,0
133,-167,0,0,0,0,0,0,0,0,0,-1,1357,1191,0,0
140,-167,0,0,0,0,0,0,0,0,0,-1,1364,1191,0,0
147,-167,0,0,0,0,0,0,0,0,0,-1,1371,1191,0,0
154,-167,0,0,0,0,0,0,0,0,0,-1,1378,1191,0,0
161,-167,0,0,0,0,0,0,0,0,0,-1,1385,1191,0,0
168,-167,0,0,0,0,0,0,0,0,0,-1,1392,1191,0,0
175,-167,0,0,0,0,0,0,0,0,0,-1,1399,1191,0,0
182,-167,0,0,0,0,0,0,0,0,0,-1,1406,1191,0,0
189,-167,0,0,0,0,0,0,0,0,0,-1,1413,1191,0,0
196,-167,0,0,0,0,0,0,0,0,0,-1,1420,1191,0,0
203,-167,0,0,0,0,0,0,0,0,0,-1,1427,1191,0,0
210,-167,0,0,0,0,0,0,0,0,0,-1,1434,1191,0,0
217,-167,0,0,0,0,0,0,0,0,0,-1,1441,1191,0,0
224,-167,0,0,0,0,0,0,0,0,0,-1,1448,1191,0,0
231,-167,0,0,0,0,0,0,0,0,0,-1,1455,1191,0,0
238,-167,0,0,0,0,0,0,0,0,0,-1,1462,1191,0,0
245,-167,0,0,0,0,0,0,0,0,0,-1,1469,1191,0,0
252,-167,0,0,0,0,0,0,0,0,0,-1,1476,1191,0,0
259,-167,0,0,0,0,0,0,0,0,0,-1,1483,1191,0,0
266,-167,0,0,0,0,0,0,0,0,0,-1,1490,1191,0,0
273,-167,0,0,0,0,0,0,0,0,0,-1,1497,1191,0,0
280,-167,0,0,0,0,0,0,0,0,0,-1,1504,1191,0,0
287,-167,0,0,0,0,0,0,0,0,0,-1,1511,1191,0,0
294,-167,0,0,0,0,0,0,0,0,0,-1,1518,1191,0,0
301,-167,0,0,0,0,0,0,0,0,0,-1,1525,1191,0,0
308,-167,0,0,0,0,0,0,0,0,0,-1,1532,1191,0,0
315,-167,0,0,0,0,0,0,0,0,0,-1,1539,1191,0,0
322,-167,0,0,0,0,0,0,0,0,0,-1,1546,1191,0,0
329,-167,0,0,0,0,0,0,0,0,0,-1,1553,1191,0,0
336,-167,0,0,0,0,0,0,0,0,0,-1,1560,1191,0,0
343,-167,0,0,0,0,0,0,0,0,0,-1,1567,1191,0,0
350,-167,0,0,0,0,0,0,0,0,0,-1,1574,1191,0,0
357,-167,0,0,0,0,0,0,0,0,0,-1,1581,1191,0,0
364,-167,0,0,0,0,0,0,0,0,0,-1,1588,1191,0,0
371,-167,0,0,0,0,0,0,0,0,0,-1,1595,1191,0,0
378,-167,0,0,0,0,0,0,0,0,0,-1,1602,1191,0,0
385,-167,0,0,0,0,0,0,0,0,0,-1,1609,1191,0,0
392,-167,0,0,0,0,0,0,0,0,0,-1,1616,1191,0,0
399,-167,0,0,0,0,0,0,0,0,0,-1,1623,1191,0,0
406,-167,0,0,0,0,0,0,0,0,0,-1,1630,1191,0,0
413,-167,0,0,0,0,0,0,0,0,0,-1,1637,1191,0,0
420,-167,0,0,0,0,0,0,0,0,0,-1,1644,1191,0,0
427,-167,0,0,0,0,0,0,0,0,0,-1,1651,1191,0,0
434,-167,0,0,0,0,0,0,0,0,0,-1,1658,1191,0,0
441,-167,0,0,0,0,0,0,0,0,0,-1,1665,1191,0,0
448,-167,0,0,0,0,0,0,0,0,0,-1,1672,1191,0,0
455,-167,0,0,0,0,0,0,0,0,0,-1,1679,1191,0,0
462,-167,0,0,0,0,0,0,0,0,0,-1,1686,1191,0,0
469,-167,0,0,0,0,0,0,0,0,0,-1,1693,1191,0,0
476,-167,0,0,0,0,0,0,0,0,0,-1,1700,1191,0,0
483,-167,0,0,0,0,0,0,0,0,0,-1,1707,1191,0,0
490,-167,0,0,0,0,0,0,0,0,0,-1,1714,1191,0,0
497,-167,0,0,0,0,0,0,0,0,0,-1,1721,1191,0,0
504,-167,0,0,0,0,0,0,0,0,0,-1,1728,1191,0,0
511,-167,0,0,0,0,0,0,0,0,0,-1,1735,1191,0,0
518,-167,0,0,0,0,0,0,0,0,0,-1,1742,1191,0,0
525,-167,0,0,0,0,0,0,0,0,0,-1,1749,1191,0,0
532,-167,0,0,0,0,0,0,0,0,0,-1,1756,1191,0,0
539,-167,0,0,0,0,0,0,0,0,0,-1,1763,1191,0,0
546,-167,0,0,0,0,0,0,0,0,0,-1,1770,1191,0,0
553,-167,0,0,0,0,0,0,0,0,0,-1,1777,1191,0,0
560,-167,0,0,0,0,0,0,0,0,0,-1,1784,1191,0,0
567,-167,0,0,0,0,0,0,0,0,0,-1,1791,1191,0,0
574,-167,0,0,0,0,0,0,0,0,0,-1,1798,1191,0,0
581,-167,0,0,0,0,0,0,0,0,0,-1,1805,1191,0,0
588,-167,0,0,0,0,0,0,0,0,0,-1,1812,1191,0,0
595,-167,0,0,0,0,0,0,0,0,0,-1,1819,1191,0,0
602,-167,0,0,0,0,0,0,0,0,0,-1,1826,1191,0,0
609,-167,0,0,0,0,0,0,0,0,0,-1,1833,1191,0,0
616,-167,0,0,0,0,0,0,0,0,0,-1,1840,1191,0,0
623,-167,0,0,0,0,0,0,0,0,0,-1,1847,1191,0,0
630,-167,0,0,0,0,0,0,0,0,0,-1,1854,1191,0,0
637,-167,34.1173,2.65881,0.00152433,0.000296465,0.000907391,0.00200597,-0.000185171,0.487977,0.00140311,0.0425334,1861,1191,34.1173,-2.65887
644,-167,34.2762,2.6134,0.000373507,0.000442771,0.00049417,0.000903521,-8.72438e-05,0.820382,0.000633434,0.043639,1868,1191,34.2762,-2.61342
651,-167,34.1796,2.55261,-0.000323456,0.000687079,1.45904e-05,0.000687289,-0.000323667,1.55636,0.000596128,0.042436,1875,1191,34.1796,-2.55267
658,-167,34.0129,2.50342,-0.00055638,0.000844977,-0.000481617,0.000994537,-0.00070594,-1.2697,0.000986472,0.0425271,1882,1191,34.0129,-2.50344
665,-167,34.0027,2.5719,-0.0006918,0.000630509,-0.000594377,0.000858404,-0.000919695,-1.20467,0.00102679,0.0371825,1889,1191,34.0027,-2.57187
672,-167,34.0087,2.68298,-0.00119185,0.000193226,-0.000316089,0.000261951,-0.00126057,-1.35671,0.000939946,0.0268963,1896,1191,34.0087,-2.683
679,-167,33.9994,2.65784,-0.00200273,-0.000184435,0.000151096,-0.000171965,-0.0020152,1.48845,0.00128997,0.0193684,1903,1191,33.9994,-2.6578
686,-167,34.01,2.66687,-0.0026908,-0.000578918,0.00055187,-0.000443401,-0.00282632,1.33,0.00175518,0.0242867,1910,1191,34.01,-2.66691
693,-167,33.8883,2.4707,0,0,0,0,0,0,0,-1,1917,1191,33.8884,-2.47072
700,-167,28.0459,2.70508,0,0,0,0,0,0,0,-1,1924,1191,28.0459,-2.70513
707,-167,29.4708,7.10168,0,0,0,0,0,0,0,-1,1931,1191,29.4708,-7.10172
714,-167,30.1957,6.44238,0,0,0,0,0,0,0,-1,1938,1191,30.1957,-6.44235
721,-167,30.2463,5.73181,-0.0040392,-0.00141386,0.00213187,-0.000222938,-0.00523012,1.06135,0.00341486,0.0409441,1945,1191,30.2464,-5.73186
728,-167,30.0127,5.63379,-0.00369161,-0.00160491,0.00218945,-0.000222923,-0.0050736,1.00775,0.0033106,0.0308938,1952,1191,30.0126,-5.63377
735,-167,29.7982,5.47937,-0.0033753,-0.00146361,0.00215897,-5.83532e-05,-0.00478055,0.993794,0.00316776,0.0148003,1959,1191,29.7982,-5.47937
742,-167,29.7617,5.20532,-0.0024255,0.000213013,0.000357102,0.00026049,-0.00247298,1.43862,0.00174199,0.0153253,1966,1191,29.7618,-5.20538
749,-167,29.7649,4.93225,0.00102781,0.00255665,-0.00215583,0.00407957,-0.000495114,-0.955773,0.00289888,0.0143373,1973,1191,29.7649,-4.93229
756,-167,29.7921,4.71204,0.00744778,0.00561776,-0.00581649,0.0124208,0.00064475,-0.707381,0.0080742,0.0111641,1980,1191,29.7921,-4.71204
763,-167,29.7225,4.45203,0.0144954,0.00969047,-0.0104564,0.0228217,0.00136413,-0.672478,0.0147808,0.0124981,1987,1191,29.7225,-4.45205
770,-167,29.5945,4.27039,0.0236045,0.0146149,-0.0160591,0.0357859,0.00243345,-0.648944,0.0230889,0.0247684,1994,1191,29.5945,-4.27035
777,-167,29.3721,0.36499,0,0,0,0,0,0,0,-1,2001,1191,29.3721,-0.364961
784,-167,29.6724,0.777344,0.0503711,0.0281927,-0.0305976,0.0718269,0.00673682,-0.61155,0.0458045,0.0440587,2008,1191,29.6724,-0.777286
791,-167,29.9862,1.04065,0.0700678,0.0370391,-0.0396266,0.0964835,0.0106234,-0.587967,0.0610899,0.0437695,2015,1191,29.9862,-1.04068
798,-167,30.377,0.640381,0.0956838,0.0470656,-0.0495642,0.126579,0.0161702,-0.557406,0.0795459,0.048048,2022,1191,30.377,-0.640321
805,-167,31.0881,0.271606,0.128508,0.0577891,-0.0596209,0.162466,0.0238308,-0.517744,0.101306,0.0484588,2029,1191,31.088,-0.271576
812,-167,0,0,0,0,0,0,0,0,0,-1,2036,1191,0,0
-700,-174,0,0,0,0,0,0,0,0,0,-1,524,1198,0,0
-693,-174,0,0,0,0,0,0,0,0,0,-1,531,1198,0,0
-686,-174,-15.1998,-2.82715,0.0300262,0.0310703,0.0195336,0.0500888,0.0110077,0.798758,0.0303952,0.0439161,538,1198,-15.1998,2.82714
-679,-174,-14.5406,-0.911865,0.0214409,0.0313129,0.0195069,0.0464986,0.00625525,0.909316,0.0291387,0.043331,545,1198,-14.5406,0.911819
-672,-174,-14.0933,1.14709,0.015149,0.0294931,0.0178486,0.0415567,0.00308538,0.976439,0.0267354,0.04599,552,1198,-14.0933,-1.14714
-665,-174,-13.5182,3.50537,0.0105728,0.0266154,0.0154501,0.0360023,0.00118589,1.02483,0.0236162,0.0459879,559,1198,-13.5182,-3.50535
-658,-174,-12.8629,5.85022,0,0,0,0,0,0,0,-1,566,1198,-12.8629,-5.85022
-651,-174,-19.7872,0.43457,0,0,0,0,0,0,0,-1,573,1198,-19.7872,-0.434547
-644,-174,-19.588,0.938843,0.00307933,0.015744,0.00771935,0.019396,-0.00057267,1.1289,0.0131257,0.0450407,580,1198,-19.588,-0.938845
-637,-174,-19.3904,1.47192,0.00170823,0.0121831,0.00550806,0.0145463,-0.000654955,1.16551,0.00992304,0.0241212,587,1198,-19.3904,-1.47191
-630,-174,-19.4634,1.745,0.00049156,0.0089883,0.00406255,0.0106181,-0.00113824,1.18927,0.00748705,0.0128332,594,1198,-19.4634,-1.74496
-623,-174,-19.486,2.03845,-0.000990628,0.00592707,0.00203407,0.00648084,-0.00154439,1.30499,0.00491688,0.0144052,601,1198,-19.486,-2.03851
-616,-174,-19.4783,2.3457,-0.00204021,0.00347755,0.000326004,0.00349674,-0.00205941,1.51199,0.00324343,0.019731,608,1198,-19.4783,-2.34567
-609,-174,-19.4973,2.66455,-0.0023658,0.00128392,-0.000644889,0.00139452,-0.0024764,-1.40095,0.00226378,0.0215105,615,1198,-19.4973,-2.66455
-602,-174,-19.5359,2.9491,-0.00288883,0.00052468,-0.000701254,0.000663127,-0.00302728,-1.37588,0.00227172,0.0151247,622,1198,-19.536,-2.94907
-595,-174,-19.572,3.22668,-0.00374702,0.000541077,-0.000702997,0.000653386,-0.00385933,-1.41238,0.00281606,0.0196117,629,1198,-19.5721,-3.22663
-588,-174,-19.7894,3.41736,-0.0043403,0.000710092,-0.00102612,0.000910615,-0.00454082,-1.37781,0.00337199,0.0240856,636,1198,-19.7894,-3.41733
-581,-174,-19.715,3.78308,-0.00438266,0.00100746,-0.00132508,0.0013156,-0.0046908,-1.34232,0.00364573,0.0292777,643,1198,-19.715,-3.78306
-574,-174,-19.7043,4.25024,0,0,0,0,0,0,0,-1,650,1198,-19.7043,-4.2502
-567,-174,-20.5081,1.77661,0,0,0,0,0,0,0,-1,657,1198,-20.5081,-1.77664
-560,-174,-24.1503,0.881348,0,0,0,0,0,0,0,-1,664,1198,-24.1503,-0.881354
-553,-174,-24.1354,0.691528,-0.00339274,0.0045685,-0.00142206,0.00481489,-0.00363913,-1.39924,0.00489664,0.0380747,671,1198,-24.1354,-0.691469
-546,-174,-24.195,0.790894,-0.00247796,0.00583326,-0.00139278,0.00606045,-0.00270515,-1.4091,0.00518293,0.0302598,678,1198,-24.195,-0.790907
-539,-174,-24.2652,0.657959,-0.000923887,0.00749922,-0.00132092,0.00770151,-0.00112618,-1.41883,0.00554797,0.0347649,685,1198,-24.2652,-0.657954
-532,-174,-24.167,0.471924,0.00141892,0.00977876,-0.00135264,0.00999217,0.00120551,-1.41431,0.00629819,0.0456652,692,1198,-24.167,-0.471963
-525,-174,-24.1816,0.474487,0.00526751,0.012921,-0.0015909,0.0132385,0.00494999,-1.3738,0.00772383,0.0454576,699,1198,-24.1816,-0.474438
-518,-174,-24.1409,0.275269,0,0,0,0,0,0,0,-1,706,1198,-24.1409,-0.27532
-511,-174,0,0,0,0,0,0,0,0,0,-1,713,1198,0,0
-504,-174,0,0,0,0,0,0,0,0,0,-1,720,1198,0,0
-497,-174,0,0,0,0,0,0,0,0,0,-1,727,1198,0,0
-490,-174,0,0,0,0,0,0,0,0,0,-1,734,1198,0,0
-483,-174,0,0,0,0,0,0,0,0,0,-1,741,1198,0,0
-476,-174,0,0,0,0,0,0,0,0,0,-1,748,1198,0,0
-469,-174,0,0,0,0,0,0,0,0,0,-1,755,1198,0,0
-462,-174,0,0,0,0,0,0,0,0,0,-1,762,1198,0,0
-455,-174,0,0,0,0,0,0,0,0,0,-1,769,1198,0,0
-448,-174,0,0,0,0,0,0,0,0,0,-1,776,1198,0,0
-441,-174,0,0,0,0,0,0,0,0,0,-1,783,1198,0,0
-434,-174,0,0,0,0,0,0,0,0,0,-1,790,1198,0,0
-427,-174,0,0,0,0,0,0,0,0,0,-1,797,1198,0,0
-420,-174,0,0,0,0,0,0,0,0,0,-1,804,1198,0,0
-413,-174,0,0,0,0,0,0,0,0,0,-1,811,1198,0,0
-406,-174,0,0,0,0,0,0,0,0,0,-1,818,1198,0,0
-399,-174,0,0,0,0,0,0,0,0,0,-1,825,1198,0,0
-392,-174,0,0,0,0,0,0,0,0,0,-1,832,1198,0,0
-385,-174,0,0,0,0,0,0,0,0,0,-1,839,1198,0,0
-378,-174,0,0,0,0,0,0,0,0,0,-1,846,1198,0,0
-371,-174,0,0,0,0,0,0,0,0,0,-1,853,1198,0,0
-364,-174,0,0,0,0,0,0,0,0,0,-1,860,1198,0,0
-357,-174,0,0,0,0,0,0,0,0,0,-1,867,1198,0,0
-350,-174,0,0,0,0,0,0,0,0,0,-1,874,1198,0,0
-343,-174,0,0,0,0,0,0,0,0,0,-1,881,1198,0,0
-336,-174,0,0,0,0,0,0,0,0,0,-1,888,1198,0,0
-329,-174,0,0,0,0,0,0,0,0,0,-1,895,1198,0,0
-322,-174,0,0,0,0,0,0,0,0,0,-1,902,1198,0,0
-315,-174,0,0,0,0,0,0,0,0,0,-1,909,1198,0,0
-308,-174,0,0,0,0,0,0,0,0,0,-1,916,1198,0,0
-301,-174,0,0,0,0,0,0,0,0,0,-1,923,1198,0,0
-294,-174,0,0,0,0,0,0,0,0,0,-1,930,1198,0,0
-287,-174,0,0,0,0,0,0,0,0,0,-1,937,1198,0,0
-280,-174,0,0,0,0,0,0,0,0,0,-1,944,1198,0,0
-273,-174,0,0,0,0,0,0,0,0,0,-1,951,1198,0,0
-266,-174,0,0,0,0,0,0,0,0,0,-1,958,1198,0,0
-259,-174,0,0,0,0,0,0,0,0,0,-1,965,1198,0,0
-252,-174,0,0,0,0,0,0,0,0,0,-1,972,1198,0,0
-245,-174,0,0,0,0,0,0,0,0,0,-1,979,1198,0,0
-238,-174,0,0,0,0,0,0,0,0,0,-1,986,1198,0,0
-231,-174,0,0,0,0,0,0,0,0,0,-1,993,1198,0,0
-224,-174,0,0,0,0,0,0,0,0,0,-1,1000,1198,0,0
-217,-174,0,0,0,0,0,0,0,0,0,-1,1007,1198,0,0
-210,-174,0,0,0,0,0,0,0,0,0,-1,1014,1198,0,0
-203,-174,0,0,0,0,0,0,0,0,0,-1,1021,1198,0,0
-196,-174,0,0,0,0,0,0,0,0,0,-1,1028,1198,0,0
-189,-174,0,0,0,0,0,0,0,0,0,-1,1035,1198,0,0
-182,-174,0,0,0,0,0,0,0,0,0,-1,1042,1198,0,0
-175,-174,0,0,0,0,0,0,0,0,0,-1,1049,1198,0,0
-168,-174,0,0,0,0,0,0,0,0,0,-1,1056,1198,0,0
-161,-174,0,0,0,0,0,0,0,0,0,-1,1063,1198,0,0
-154,-174,0,0,0,0,0,0,0,0,0,-1,1070,1198,0,0
-147,-174,0,0,0,0,0,0,0,0,0,-1,1077,1198,0,0
-140,-174,0,0,0,0,0,0,0,0,0,-1,1084,1198,0,0
-133,-174,0,0,0,0,0,0,0,0,0,-1,1091,1198,0,0
-126,-174,0,0,0,0,0,0,0,0,0,-1,1098,1198,0,0
-119,-174,0,0,0,0,0,0,0,0,0,-1,1105,1198,0,0
-112,-174,0,0,0,0,0,0,0,0,0,-1,1112,1198,0,0
-105,-174,0,0,0,0,0,0,0,0,0,-1,1119,1198,0,0
-98,-174,0,0,0,0,0,0,0,0,0,-1,1126,1198,0,0
-91,-174,0,0,0,0,0,0,0,0,0,-1,1133,1198,0,0
-84,-174,0,0,0,0,0,0,0,0,0,-1,1140,1198,0,0
-77,-174,0,0,0,0,0,0,0,0,0,-1,1147,1198,0,0
-70,-174,0,0,0,0,0,0,0,0,0,-1,1154,1198,0,0
-63,-174,0,0,0,0,0,0,0,0,0,-1,1161,1198,0,0
-56,-174,0,0,0,0,0,0,0,0,0,-1,1168,1198,0,0
-49,-174,0,0,0,0,0,0,0,0,0,-1,1175,1198,0,0
-42,-174,0,0,0,0,0,0,0,0,0,-1,1182,1198,0,0
-35,-174,0,0,0,0,0,0,0,0,0,-1,1189,1198,0,0
-28,-174,0,0,0,0,0,0,0,0,0,-1,1196,1198,0,0
-21,-174,0,0,0,0,0,0,0,0,0,-1,1203,1198,0,0
-14,-174,0,0,0,0,0,0,0,0,0,-1,1210,1198,0,0
-7,-174,0,0,0,0,0,0,0,0,0,-1,1217,1198,0,0
0,-174,0,0,0,0,0,0,0,0,0,-1,1224,1198,0,0
7,-174,0,0,0,0,0,0,0,0,0,-1,1231,1198,0,0
14,-174,0,0,0,0,0,0,0,0,0,-1,1238,1198,0,0
21,-174,0,0,0,0,0,0,0,0,0,-1,1245,1198,0,0
28,-174,0,0,0,0,0,0,0,0,0,-1,1252,1198,0,0
35,-174,0,0,0,0,0,0,0,0,0,-1,1259,1198,0,0
42,-174,0,0,0,0,0,0,0,0,0,-1,1266,1198,0,0
49,-174,0,0,0,0,0,0,0,0,0,-1,1273,1198,0,0
56,-174,0,0,0,0,0,0,0,0,0,-1,1280,1198,0,0
63,-174,0,0,0,0,0,0,0,0,0,-1,1287,1198,0,0
70,-174,0,0,0,0,0,0,0,0,0,-1,1294,1198,0,0
77,-174,0,0,0,0,0,0,0,0,0,-1,1301,1198,0,0
84,-174,0,0,0,0,0,0,0,0,0,-1,1308,1198,0,0
91,-174,0,0,0,0,0,0,0,0,0,-1,1315,1198,0,0
98,-174,0,0,0,0,0,0,0,0,0,-1,1322,1198,0,0
105,-174,0,0,0,0,0,0,0,0,0,-1,1329,1198,0,0
112,-174,0,0,0,0,0,0,0,0,0,-1,1336,1198,0,0
119,-174,0,0,0,0,0,0,0,0,0,-1,1343,1198,0,0
126,-174,0,0,0,0,0,0,0,0,0,-1,1350,1198,0,0
133,-174,0,0,0,0,0,0,0,0,0,-1,1357,1198,0,0
140,-174,0,0,0,0,0,0,0,0,0,-1,1364,1198,0,0
147,-174,0,0,0,0,0,0,0,0,0,-1,1371,1198,0,0
154,-174,0,0,0,0,0,0,0,0,0,-1,1378,1198,0,0
161,-174,0,0,0,0,0,0,0,0,0,-1,1385,1198,0,0
168,-174,0,0,0,0,0,0,0,0,0,-1,1392,1198,0,0
175,-174,0,0,0,0,0,0,0,0,0,-1,1399,1198,0,0
182,-174,0,0,0,0,0,0,0,0,0,-1,1406,1198,0,0
189,-174,0,0,0,0,0,0,0,0,0,-1,1413,1198,0,0
196,-174,0,0,0,0,0,0,0,0,0,-1,1420,1198,0,0
203,-174,0,0,0,0,0,0,0,0,0,-1,1427,1198,0,0
210,-174,0,0,0,0,0,0,0,0,0,-1,1434,1198,0,0
217,-174,0,0,0,0,0,0,0,0,0,-1,1441,1198,0,0
224,-174,0,0,0,0,0,0,0,0,0,-1,1448,1198,0,0
231,-174,0,0,0,0,0,0,0,0,0,-1,1455,1198,0,0
238,-174,0,0,0,0,0,0,0,0,0,-1,1462,1198,0,0
245,-174,0,0,0,0,0,0,0,0,0,-1,1469,1198,0,0
252,-174,0,0,0,0,0,0,0,0,0,-1,1476,1198,0,0
259,-174,0,0,0,0,0,0,0,0,0,-1,1483,1198,0,0
266,-174,0,0,0,0,0,0,0,0,0,-1,1490,1198,0,0
273,-174,0,0,0,0,0,0,0,0,0,-1,1497,1198,0,0
280,-174,0,0,0,0,0,0,0,0,0,-1,1504,1198,0,0
287,-174,0,0,0,0,0,0,0,0,0,-1,1511,1198,0,0
294,-174,0,0,0,0,0,0,0,0,0,-1,1518,1198,0,0
301,-174,0,0,0,0,0,0,0,0,0,-1,1525,1198,0,0
308,-174,0,0,0,0,0,0,0,0,0,-1,1532,1198,0,0
315,-174,0,0,0,0,0,0,0,0,0,-1,1539,1198,0,0
322,-174,0,0,0,0,0,0,0,0,0,-1,1546,1198,0,0
329,-174,0,0,0,0,0,0,0,0,0,-1,1553,1198,0,0
336,-174,0,0,0,0,0,0,0,0,0,-1,1560,1198,0,0
343,-174,0,0,0,0,0,0,0,0,0,-1,1567,1198,0,0
350,-174,0,0,0,0,0,0,0,0,0,-1,1574,1198,0,0
357,-174,0,0,0,0,0,0,0,0,0,-1,1581,1198,0,0
364,-174,0,0,0,0,0,0,0,0,0,-1,1588,1198,0,0
371,-174,0,0,0,0,0,0,0,0,0,-1,1595,1198,0,0
378,-174,0,0,0,0,0,0,0,0,0,-1,1602,1198,0,0
385,-174,0,0,0,0,0,0,0,0,0,-1,1609,1198,0,0
392,-174,0,0,0,0,0,0,0,0,0,-1,1616,1198,0,0
399,-174,0,0,0,0,0,0,0,0,0,-1,1623,1198,0,0
406,-174,0,0,0,0,0,0,0,0,0,-1,1630,1198,0,0
413,-174,0,0,0,0,0,0,0,0,0,-1,1637,1198,0,0
420,-174,0,0,0,0,0,0,0,0,0,-1,1644,1198,0,0
427,-174,0,0,0,0,0,0,0,0,0,-1,1651,1198,0,0
434,-174,0,0,0,0,0,0,0,0,0,-1,1658,1198,0,0
441,-174,0,0,0,0,0,0,0,0,0,-1,1665,1198,0,0
448,-174,0,0,0,0,0,0,0,0,0,-1,1672,1198,0,0
455,-174,0,0,0,0,0,0,0,0,0,-1,1679,1198,0,0
462,-174,0,0,0,0,0,0,0,0,0,-1,1686,1198,0,0
469,-174,0,0,0,0,0,0,0,0,0,-1,1693,1198,0,0
476,-174,0,0,0,0,0,0,0,0,0,-1,1700,1198,0,0
483,-174,0,0,0,0,0,0,0,0,0,-1,1707,1198,0,0
490,-174,0,0,0,0,0,0,0,0,0,-1,1714,1198,0,0
497,-174,0,0,0,0,0,0,0,0,0,-1,1721,1198,0,0
504,-174,0,0,0,0,0,0,0,0,0,-1,1728,1198,0,0
511,-174,0,0,0,0,0,0,0,0,0,-1,1735,1198,0,0
518,-174,0,0,0,0,0,0,0,0,0,-1,1742,1198,0,0
525,-174,0,0,0,0,0,0,0,0,0,-1,1749,1198,0,0
532,-174,0,0,0,0,0,0,0,0,0,-1,1756,1198,0,0
539,-174,0,0,0,0,0,0,0,0,0,-1,1763,1198,0,0
546,-174,0,0,0,0,0,0,0,0,0,-1,1770,1198,0,0
553,-174,0,0,0,0,0,0,0,0,0,-1,1777,1198,0,0
560,-174,0,0,0,0,0,0,0,0,0,-1,1784,1198,0,0
567,-174,0,0,0,0,0,0,0,0,0,-1,1791,1198,0,0
574,-174,0,0,0,0,0,0,0,0,0,-1,1798,1198,0,0
581,-174,0,0,0,0,0,0,0,0,0,-1,1805,1198,0,0
588,-174,0,0,0,0,0,0,0,0,0,-1,1812,1198,0,0
595,-174,0,0,0,0,0,0,0,0,0,-1,1819,1198,0,0
602,-174,0,0,0,0,0,0,0,0,0,-1,1826,1198,0,0
609,-174,0,0,0,0,0,0,0,0,0,-1,1833,1198,0,0
616,-174,0,0,0,0,0,0,0,0,0,-1,1840,1198,0,0
623,-174,0,0,0,0,0,0,0,0,0,-1,1847,1198,0,0
630,-174,0,0,0,0,0,0,0,0,0,-1,1854,1198,0,0
637,-174,34.098,2.76648,0.00269724,-0.000600991,0.00109973,0.00303029,-0.000934044,0.294069,0.0023931,0.0420545,1861,1198,34.098,-2.76653
644,-174,34.2784,2.78735,0.000916485,-0.000155608,0.000372276,0.00103308,-0.000272199,0.303507,0.000795135,0.0441697,1868,1198,34.2785,-2.7873
651,-174,34.3362,2.66455,-0.000430902,0.000358978,-0.000360431,0.000498723,-0.000570647,-1.20092,0.000617866,0.0422382,1875,1198,34.3362,-2.66459
658,-174,34.17,2.66113,-0.00114576,0.000713945,-0.00100014,0.0011497,-0.00158152,-1.1599,0.00158343,0.040161,1882,1198,34.1701,-2.66117
665,-174,34.0513,2.63538,-0.00151683,0.000664947,-0.0011661,0.00117088,-0.00202276,-1.16144,0.00186558,0.0359042,1889,1198,34.0512,-2.63534
672,-174,33.9886,2.64014,-0.00205212,0.000323804,-0.000870939,0.000608862,-0.00233717,-1.25449,0.00179581,0.0258107,1896,1198,33.9886,-2.64016
679,-174,33.9932,2.68848,-0.00271716,3.24225e-06,-0.000360512,5.0207e-05,-0.00276412,-1.44125,0.00185971,0.0202131,1903,1198,33.9932,-2.68845
686,-174,34.0751,2.76624,-0.00323781,-0.000361136,7.38855e-05,-0.00035924,-0.00323971,1.54513,0.00205057,0.0424763,1910,1198,34.075,-2.76628
693,-174,34.1488,2.8761,0,0,0,0,0,0,0,-1,1917,1198,34.1488,-2.87606
700,-174,25.4004,6.11792,0,0,0,0,0,0,0,-1,1924,1198,25.4004,-6.11797
707,-174,29.9362,6.68323,0,0,0,0,0,0,0,-1,1931,1198,29.9362,-6.68325
714,-174,30.0031,6.22437,-0.00406651,-0.00109119,0.0016565,-0.000352391,-0.00480531,1.15127,0.00309278,0.0411649,1938,1198,30.003,-6.22441
721,-174,29.9674,5.83032,-0.00395051,-0.00122881,0.00202283,-0.000151679,-0.00502764,1.0815,0.00330236,0.034772,1945,1198,29.9675,-5.83034
728,-174,29.6091,5.7323,-0.00334255,-0.00153782,0.00211614,-0.000139683,-0.00474069,0.986935,0.00311494,0.0229782,1952,1198,29.6091,-5.73232
735,-174,29.5168,5.47717,-0.00276167,-0.00139407,0.00211844,0.000148199,-0.00430393,0.941512,0.00291994,0.0119281,1959,1198,29.5168,-5.47718
742,-174,29.49,5.19214,-0.00130944,0.000406599,0.000246015,0.000441171,-0.00134401,1.43118,0.00107371,0.0195568,1966,1198,29.49,-5.19211
749,-174,29.5132,4.94397,0.00278486,0.00263464,-0.00231128,0.00502225,0.000397248,-0.769156,0.00322392,0.0179562,1973,1198,29.5132,-4.94402
756,-174,29.5139,4.69116,0.00971529,0.00540693,-0.00580663,0.0137544,0.00136778,-0.607774,0.00874942,0.0110136,1980,1198,29.5139,-4.69111
763,-174,29.4702,4.43225,0.0174432,0.00907455,-0.0102858,0.0243632,0.00215454,-0.592219,0.0155737,0.0135244,1987,1198,29.4702,-4.43228
770,-174,29.4861,4.21545,0.0274208,0.0136471,-0.015808,0.0377769,0.00329092,-0.579967,0.0241625,0.0259538,1994,1198,29.4861,-4.21546
777,-174,29.3173,-0.0888672,0,0,0,0,0,0,0,-1,2001,1198,29.3173,0.0889264
784,-174,29.3984,0.931519,0.0564262,0.0265486,-0.0304105,0.0753691,0.00760571,-0.557091,0.0479125,0.0473748,2008,1198,29.3984,-0.931562
791,-174,30.0144,0.558472,0.0777964,0.0350698,-0.0396475,0.10147,0.0113963,-0.538284,0.064186,0.0477766,2015,1198,30.0144,-0.55852
798,-174,30.05,0.453979,0,0,0,0,0,0,0,-1,2022,1198,30.0501,-0.453926
805,-174,30.6255,0.22583,0,0,0,0,0,0,0,-1,2029,1198,30.6256,-0.22581
812,-174,0,0,0,0,0,0,0,0,0,-1,2036,1198,0,0
-700,-181,0,0,0,0,0,0,0,0,0,-1,524,1205,0,0
-693,-181,0,0,0,0,0,0,0,0,0,-1,531,1205,0,0
-686,-181,-12.9362,-2.68726,0.0280249,0.038756,0.0304658,0.0643252,0.00245578,0.872563,0.0420887,0.0452501,538,1205,-12.9361,2.68725
-679,-181,-12.8555,-0.891479,0.0190539,0.0388569,0.0295636,0.0601331,-0.00222233,0.946988,0.0408496,0.0454733,545,1205,-12.8555,0.891486
-672,-181,-12.7626,1.10767,0.0128945,0.0362824,0.0265313,0.0535825,-0.00440565,0.992969,0.0372771,0.0499995,552,1205,-12.7626,-1.10761
-665,-181,-12.2465,3.49353,0.00865497,0.0324264,0.0226493,0.0461192,-0.00503785,1.02703,0.0325556,0.0498178,559,1205,-12.2465,-3.49348
-658,-181,-19.5538,1.38623,0,0,0,0,0,0,0,-1,566,1205,-19.5539,-1.38626
-651,-181,-19.8083,0.968994,0,0,0,0,0,0,0,-1,573,1205,-19.8083,-0.969045
-644,-181,-19.4588,1.19641,0.00244855,0.0186455,0.0110499,0.0242469,-0.00315285,1.10163,0.0173115,0.0422698,580,1205,-19.4588,-1.1964
-637,-181,-19.0601,1.45581,0.00147648,0.0142825,0.00787691,0.0180306,-0.00227158,1.12667,0.0128447,0.0245548,587,1205,-19.0601,-1.45578
-630,-181,-19.1602,1.7616,0.000478627,0.010546,0.0056908,0.0131099,-0.00208527,1.1475,0.0095115,0.0126476,594,1205,-19.1601,-1.76158
-623,-181,-19.1901,2.04419,-0.00081223,0.00702554,0.00306195,0.0080799,-0.00186659,1.23917,0.00610467,0.0147407,601,1205,-19.1901,-2.04415
-616,-181,-19.1765,2.34155,-0.00167929,0.00415217,0.000783277,0.00425554,-0.00178267,1.43958,0.00358229,0.0144088,608,1205,-19.1765,-2.34149
-609,-181,-19.2002,2.66125,-0.00193866,0.00141332,-0.000751313,0.00157402,-0.00209935,-1.36008,0.00212804,0.0135322,615,1205,-19.2002,-2.66131
-602,-181,-19.2079,2.97546,-0.00249333,0.000430757,-0.000958219,0.000716785,-0.00277936,-1.28072,0.00213238,0.0121976,622,1205,-19.2079,-2.97551
-595,-181,-19.2928,3.22156,-0.00347198,0.000455477,-0.0010394,0.000713591,-0.0037301,-1.32739,0.00275557,0.0181611,629,1205,-19.2928,-3.22154
-588,-181,-19.4316,3.54163,-0.00420174,0.000583104,-0.00132191,0.000924017,-0.00454265,-1.3184,0.00337882,0.021354,636,1205,-19.4316,-3.54163
-581,-181,-19.3538,3.92969,-0.00440908,0.000802701,-0.00157487,0.00124162,-0.004848,-1.29899,0.00371568,0.0224421,643,1205,-19.3538,-3.92963
-574,-181,-19.3972,4.28259,0,0,0,0,0,0,0,-1,650,1205,-19.3971,-4.28262
-567,-181,-19.9649,2.53906,0,0,0,0,0,0,0,-1,657,1205,-19.9649,-2.5391
-560,-181,-24.1536,0.527588,0,0,0,0,0,0,0,-1,664,1205,-24.1536,-0.527551
-553,-181,-24.1517,0.646484,-0.00368406,0.00424843,-0.00135573,0.00447374,-0.00390936,-1.40611,0.00484364,0.0408184,671,1205,-24.1517,-0.646525
-546,-181,-24.1794,0.805908,-0.00293014,0.00538907,-0.00122187,0.00556482,-0.00310589,-1.42794,0.00507269,0.0331374,678,1205,-24.1795,-0.805901
-539,-181,-24.3108,0.869019,-0.00160037,0.00681706,-0.00105283,0.00694674,-0.00173006,-1.44823,0.00530277,0.0366137,685,1205,-24.3108,-0.869013
-532,-181,-24.4165,1.0343,0,0,0,0,0,0,0,-1,692,1205,-24.4165,-1.03434
-525,-181,-24.4472,1.17407,0,0,0,0,0,0,0,-1,699,1205,-24.4472,-1.17405
-518,-181,-24.3038,1.30115,0,0,0,0,0,0,0,-1,706,1205,-24.3039,-1.30117
-511,-181,0,0,0,0,0,0,0,0,0,-1,713,1205,0,0
-504,-181,0,0,0,0,0,0,0,0,0,-1,720,1205,0,0
-497,-181,0,0,0,0,0,0,0,0,0,-1,727,1205,0,0
-490,-181,0,0,0,0,0,0,0,0,0,-1,734,1205,0,0
-483,-181,0,0,0,0,0,0,0,0,0,-1,741,1205,0,0
-476,-181,0,0,0,0,0,0,0,0,0,-1,748,1205,0,0
-469,-181,0,0,0,0,0,0,0,0,0,-1,755,1205,0,0
-462,-181,0,0,0,0,0,0,0,0,0,-1,762,1205,0,0
-455,-181,0,0,0,0,0,0,0,0,0,-1,769,1205,0,0
-448,-181,0,0,0,0,0,0,0,0,0,-1,776,1205,0,0
-441,-181,0,0,0,0,0,0,0,0,0,-1,783,1205,0,0
-434,-181,0,0,0,0,0,0,0,0,0,-1,790,1205,0,0
-427,-181,0,0,0,0,0,0,0,0,0,-1,797,1205,0,0
-420,-181,0,0,0,0,0,0,0,0,0,-1,804,1205,0,0
-413,-181,0,0,0,0,0,0,0,0,0,-1,811,1205,0,0
-406,-181,0,0,0,0,0,0,0,0,0,-1,818,1205,0,0
-399,-181,0,0,0,0,0,0,0,0,0,-1,825,1205,0,0
-392,-181,0,0,0,0,0,0,0,0,0,-1,832,1205,0,0
-385,-181,0,0,0,0,0,0,0,0,0,-1,839,1205,0,0
-378,-181,0,0,0,0,0,0,0,0,0,-1,846,1205,0,0
-371,-181,0,0,0,0,0,0,0,0,0,-1,853,1205,0,0
-364,-181,0,0,0,0,0,0,0,0,0,-1,860,1205,0,0
-357,-181,0,0,0,0,0,0,0,0,0,-1,867,1205,0,0
-350,-181,0,0,0,0,0,0,0,0,0,-1,874,1205,0,0
-343,-181,0,0,0,0,0,0,0,0,0,-1,881,1205,0,0
-336,-181,0,0,0,0,0,0,0,0,0,-1,888,1205,0,0
-329,-181,0,0,0,0,0,0,0,0,0,-1,895,1205,0,0
-322,-181,0,0,0,0,0,0,0,0,0,-1,902,1205,0,0
-315,-181,0,0,0,0,0,0,0,0,0,-1,909,1205,0,0
-308,-181,0,0,0,0,0,0,0,0,0,-1,916,1205,0,0
-301,-181,0,0,0,0,0,0,0,0,0,-1,923,1205,0,0
-294,-181,0,0,0,0,0,0,0,0,0,-1,930,1205,0,0
-287,-181,0,0,0,0,0,0,0,0,0,-1,937,1205,0,0
-280,-181,0,0,0,0,0,0,0,0,0,-1,944,1205,0,0
-273,-181,0,0,0,0,0,0,0,0,0,-1,951,1205,0,0
-266,-181,0,0,0,0,0,0,0,0,0,-1,958,1205,0,0
-259,-181,0,0,0,0,0,0,0,0,0,-1,965,1205,0,0
-252,-181,0,0,0,0,0,0,0,0,0,-1,972,1205,0,0
-245,-181,0,0,0,0,0,0,0,0,0,-1,979,1205,0,0
-238,-181,0,0,0,0,0,0,0,0,0,-1,986,1205,0,0
-231,-181,0,0,0,0,0,0,0,0,0,-1,993,1205,0,0
-224,-181,0,0,0,0,0,0,0,0,0,-1,1000,1205,0,0
-217,-181,0,0,0,0,0,0,0,0,0,-1,1007,1205,0,0
-210,-181,0,0,0,0,0,0,0,0,0,-1,1014,1205,0,0
-203,-181,0,0,0,0,0,0,0,0,0,-1,1021,1205,0,0
-196,-181,0,0,0,0,0,0,0,0,0,-1,1028,1205,0,0
-189,-181,0,0,0,0,0,0,0,0,0,-1,1035,1205,0,0
-182,-181,0,0,0,0,0,0,0,0,0,-1,1042,1205,0,0
-175,-181,0,0,0,0,0,0,0,0,0,-1,1049,1205,0,0
-168,-181,0,0,0,0,0,0,0,0,0,-1,1056,1205,0,0
-161,-181,0,0,0,0,0,0,0,0,0,-1,1063,1205,0,0
-154,-181,0,0,0,0,0,0,0,0,0,-1,1070,1205,0,0
-147,-181,0,0,0,0,0,0,0,0,0,-1,1077,1205,0,0
-140,-181,0,0,0,0,0,0,0,0,0,-1,1084,1205,0,0
-133,-181,0,0,0,0,0,0,0,0,0,-1,1091,1205,0,0
-126,-181,0,0,0,0,0,0,0,0,0,-1,1098,1205,0,0
-119,-181,0,0,0,0,0,0,0,0,0,-1,1105,1205,0,0
-112,-181,0,0,0,0,0,0,0,0,0,-1,1112,1205,0,0
-105,-181,0,0,0,0,0,0,0,0,0,-1,1119,1205,0,0
-98,-181,0,0,0,0,0,0,0,0,0,-1,1126,1205,0,0
-91,-181,0,0,0,0,0,0,0,0,0,-1,1133,1205,0,0
-84,-181,0,0,0,0,0,0,0,0,0,-1,1140,1205,0,0
-77,-181,0,0,0,0,0,0,0,0,0,-1,1147,1205,0,0
-70,-181,0,0,0,0,0,0,0,0,0,-1,1154,1205,0,0
-63,-181,0,0,0,0,0,0,0,0,0,-1,1161,1205,0,0
-56,-181,0,0,0,0,0,0,0,0,0,-1,1168,1205,0,0
-49,-181,0,0,0,0,0,0,0,0,0,-1,1175,1205,0,0
-42,-181,0,0,0,0,0,0,0,0,0,-1,1182,1205,0,0
-35,-181,0,0,0,0,0,0,0,0,0,-1,1189,1205,0,0
-28,-181,0,0,0,0,0,0,0,0,0,-1,1196,1205,0,0
-21,-181,0,0,0,0,0,0,0,0,0,-1,1203,1205,0,0
-14,-181,0,0,0,0,0,0,0,0,0,-1,1210,1205,0,0
-7,-181,0,0,0,0,0,0,0,0,0,-1,1217,1205,0,0
0,-181,0,0,0,0,0,0,0,0,0,-1,1224,1205,0,0
7,-181,0,0,0,0,0,0,0,0,0,-1,1231,1205,0,0
14,-181,0,0,0,0,0,0,0,0,0,-1,1238,1205,0,0
21,-181,0,0,0,0,0,0,0,0,0,-1,1245,1205,0,0
28,-181,0,0,0,0,0,0,0,0,0,-1,1252,1205,0,0
35,-181,0,0,0,0,0,0,0,0,0,-1,1259,1205,0,0
42,-181,0,0,0,0,0,0,0,0,0,-1,1266,1205,0,0
49,-181,0,0,0,0,0,0,0,0,0,-1,1273,1205,0,0
56,-181,0,0,0,0,0,0,0,0,0,-1,1280,1205,0,0
63,-181,0,0,0,0,0,0,0,0,0,-1,1287,1205,0,0
70,-181,0,0,0,0,0,0,0,0,0,-1,1294,1205,0,0
77,-181,0,0,0,0,0,0,0,0,0,-1,1301,1205,0,0
84,-181,0,0,0,0,0,0,0,0,0,-1,1308,1205,0,0
91,-181,0,0,0,0,0,0,0,0,0,-1,1315,1205,0,0
98,-181,0,0,0,0,0,0,0,0,0,-1,1322,1205,0,0
105,-181,0,0,0,0,0,0,0,0,0,-1,1329,1205,0,0
112,-181,0,0,0,0,0,0,0,0,0,-1,1336,1205,0,0
119,-181,0,0,0,0,0,0,0,0,0,-1,1343,1205,0,0
126,-181,0,0,0,0,0,0,0,0,0,-1,1350,1205,0,0
133,-181,0,0,0,0,0,0,0,0,0,-1,1357,1205,0,0
140,-181,0,0,0,0,0,0,0,0,0,-1,1364,1205,0,0
147,-181,0,0,0,0,0,0,0,0,0,-1,1371,1205,0,0
154,-181,0,0,0,0,0,0,0,0,0,-1,1378,1205,0,0
161,-181,0,0,0,0,0,0,0,0,0,-1,1385,1205,0,0
168,-181,0,0,0,0,0,0,0,0,0,-1,1392,1205,0,0
175,-181,0,0,0,0,0,0,0,0,0,-1,1399,1205,0,0
182,-181,0,0,0,0,0,0,0,0,0,-1,1406,1205,0,0
189,-181,0,0,0,0,0,0,0,0,0,-1,1413,1205,0,0
196,-181,0,0,0,0,0,0,0,0,0,-1,1420,1205,0,0
203,-181,0,0,0,0,0,0,0,0,0,-1,1427,1205,0,0
210,-181,0,0,0,0,0,0,0,0,0,-1,1434,1205,0,0
217,-181,0,0,0,0,0,0,0,0,0,-1,1441,1205,0,0
224,-181,0,0,0,0,0,0,0,0,0,-1,1448,1205,0,0
231,-181,0,0,0,0,0,0,0,0,0,-1,1455,1205,0,0
238,-181,0,0,0,0,0,0,0,0,0,-1,1462,1205,0,0
245,-181,0,0,0,0,0,0,0,0,0,-1,1469,1205,0,0
252,-181,0,0,0,0,0,0,0,0,0,-1,1476,1205,0,0
259,-181,0,0,0,0,0,0,0,0,0,-1,1483,1205,0,0
266,-181,0,0,0,0,0,0,0,0,0,-1,1490,1205,0,0
273,-181,0,0,0,0,0,0,0,0,0,-1,1497,1205,0,0
280,-181,0,0,0,0,0,0,0,0,0,-1,1504,1205,0,0
287,-181,0,0,0,0,0,0,0,0,0,-1,1511,1205,0,0
294,-181,0,0,0,0,0,0,0,0,0,-1,1518,1205,0,0
301,-181,0,0,0,0,0,0,0,0,0,-1,1525,1205,0,0
308,-181,0,0,0,0,0,0,0,0,0,-1,1532,1205,0,0
315,-181,0,0,0,0,0,0,0,0,0,-1,1539,1205,0,0
322,-181,0,0,0,0,0,0,0,0,0,-1,1546,1205,0,0
329,-181,0,0,0,0,0,0,0,0,0,-1,1553,1205,0,0
336,-181,0,0,0,0,0,0,0,0,0,-1,1560,1205,0,0
343,-181,0,0,0,0,0,0,0,0,0,-1,1567,1205,0,0
350,-181,0,0,0,0,0,0,0,0,0,-1,1574,1205,0,0
357,-181,0,0,0,0,0,0,0,0,0,-1,1581,1205,0,0
364,-181,0,0,0,0,0,0,0,0,0,-1,1588,1205,0,0
371,-181,0,0,0,0,0,0,0,0,0,-1,1595,1205,0,0
378,-181,0,0,0,0,0,0,0,0,0,-1,1602,1205,0,0
385,-181,0,0,0,0,0,0,0,0,0,-1,1609,1205,0,0
392,-181,0,0,0,0,0,0,0,0,0,-1,1616,1205,0,0
399,-181,0,0,0,0,0,0,0,0,0,-1,1623,1205,0,0
406,-181,0,0,0,0,0,0,0,0,0,-1,1630,1205,0,0
413,-181,0,0,0,0,0,0,0,0,0,-1,1637,1205,0,0
420,-181,0,0,0,0,0,0,0,0,0,-1,1644,1205,0,0
427,-181,0,0,0,0,0,0,0,0,0,-1,1651,1205,0,0
434,-181,0,0,0,0,0,0,0,0,0,-1,1658,1205,0,0
441,-181,0,0,0,0,0,0,0,0,0,-1,1665,1205,0,0
448,-181,0,0,0,0,0,0,0,0,0,-1,1672,1205,0,0
455,-181,0,0,0,0,0,0,0,0,0,-1,1679,1205,0,0
462,-181,0,0,0,0,0,0,0,0,0,-1,1686,1205,0,0
469,-181,0,0,0,0,0,0,0,0,0,-1,1693,1205,0,0
476,-181,0,0,0,0,0,0,0,0,0,-1,1700,1205,0,0
483,-181,0,0,0,0,0,0,0,0,0,-1,1707,1205,0,0
490,-181,0,0,0,0,0,0,0,0,0,-1,1714,1205,0,0
497,-181,0,0,0,0,0,0,0,0,0,-1,1721,1205,0,0
504,-181,0,0,0,0,0,0,0,0,0,-1,1728,1205,0,0
511,-181,0,0,0,0,0,0,0,0,0,-1,1735,1205,0,0
518,-181,0,0,0,0,0,0,0,0,0,-1,1742,1205,0,0
525,-181,0,0,0,0,0,0,0,0,0,-1,1749,1205,0,0
532,-181,0,0,0,0,0,0,0,0,0,-1,1756,1205,0,0
539,-181,0,0,0,0,0,0,0,0,0,-1,1763,1205,0,0
546,-181,0,0,0,0,0,0,0,0,0,-1,1770,1205,0,0
553,-181,0,0,0,0,0,0,0,0,0,-1,1777,1205,0,0
560,-181,0,0,0,0,0,0,0,0,0,-1,1784,1205,0,0
567,-181,0,0,0,0,0,0,0,0,0,-1,1791,1205,0,0
574,-181,0,0,0,0,0,0,0,0,0,-1,1798,1205,0,0
581,-181,0,0,0,0,0,0,0,0,0,-1,1805,1205,0,0
588,-181,0,0,0,0,0,0,0,0,0,-1,1812,1205,0,0
595,-181,0,0,0,0,0,0,0,0,0,-1,1819,1205,0,0
602,-181,0,0,0,0,0,0,0,0,0,-1,1826,1205,0,0
609,-181,0,0,0,0,0,0,0,0,0,-1,1833,1205,0,0
616,-181,0,0,0,0,0,0,0,0,0,-1,1840,1205,0,0
623,-181,0,0,0,0,0,0,0,0,0,-1,1847,1205,0,0
630,-181,34.0874,2.78955,0.00518908,-0.00192239,0.00208068,0.00575312,-0.00248642,0.264719,0.00488013,0.040518,1854,1205,34.0874,-2.78951
637,-181,34.1665,2.72925,0.0025156,-0.000946372,0.00109043,0.00283042,-0.0012612,0.281074,0.00241952,0.0390432,1861,1205,34.1665,-2.72927
644,-181,34.183,2.86829,0.000571328,-0.000314373,0.000147151,0.000595135,-0.000338181,0.160401,0.000545615,0.042211,1868,1205,34.1829,-2.86831
651,-181,34.2047,2.71521,-0.000921419,0.000343935,-0.000750109,0.000692555,-0.00127004,-1.13574,0.00114934,0.0405175,1875,1205,34.2047,-2.71522
658,-181,34.0612,2.67432,-0.00167162,0.000732127,-0.00142749,0.00139632,-0.00233582,-1.1353,0.00217739,0.0357881,1882,1205,34.0611,-2.67431
665,-181,34.0089,2.66846,-0.00200563,0.000727602,-0.00159165,0.00145884,-0.00273687,-1.14014,0.00245957,0.0341464,1889,1205,34.0089,-2.66846
672,-181,33.9819,2.6908,-0.00244441,0.000399838,-0.00128104,0.000891744,-0.00293632,-1.20417,0.00231283,0.0233264,1896,1205,33.982,-2.69074
679,-181,34.0354,2.7251,-0.00293248,9.54305e-05,-0.000761092,0.000275973,-0.00311302,-1.33789,0.00217319,0.0259059,1903,1205,34.0355,-2.72504
686,-181,34.1449,2.88049,-0.00331393,-0.000252258,-0.000327552,-0.000217607,-0.00334858,-1.4654,0.0021635,0.0461949,1910,1205,34.1449,-2.88047
693,-181,34.2689,3.00146,0,0,0,0,0,0,0,-1,1917,1205,34.2689,-3.00149
700,-181,29.5845,6.58398,0,0,0,0,0,0,0,-1,1924,1205,29.5844,-6.58395
707,-181,29.6979,6.38,-0.00370592,-0.000941984,0.000974675,-0.00063285,-0.00401506,1.26367,0.00249268,0.0489876,1931,1205,29.6979,-6.38004
714,-181,29.7531,6.12585,-0.00387468,-0.00103675,0.00138943,-0.000469774,-0.00444166,1.18336,0.0028176,0.0353089,1938,1205,29.7531,-6.12581
721,-181,29.5599,5.89233,-0.0036179,-0.00118745,0.00186206,-0.000179159,-0.00462619,1.07451,0.00302618,0.0268159,1945,1205,29.5599,-5.89235
728,-181,29.2845,5.73511,-0.00279637,-0.00154682,0.00197643,-9.87651e-05,-0.00424443,0.938485,0.00279728,0.0136489,1952,1205,29.2845,-5.73506
735,-181,29.2819,5.47278,-0.00190849,-0.00137331,0.00201513,0.000391924,-0.00367372,0.851407,0.00258969,0.0113589,1959,1205,29.2819,-5.47273
742,-181,29.2369,5.22668,6.27269e-05,0.000544198,0.000111263,0.000568666,3.82585e-05,1.35433,0.000367023,0.0167281,1966,1205,29.237,-5.22667
749,-181,29.2329,4.93481,0.00464255,0.00264601,-0.00243356,0.00627463,0.00101393,-0.59076,0.00388942,0.0157375,1973,1205,29.2329,-4.93484
756,-181,29.2557,4.65784,0.0118248,0.00516499,-0.00571737,0.0151113,0.00187851,-0.521702,0.00951007,0.0112625,1980,1205,29.2557,-4.65786
763,-181,29.2645,4.40466,0.0200054,0.00858735,-0.0100057,0.0258163,0.00277649,-0.526147,0.0163641,0.0125792,1987,1205,29.2646,-4.40469
770,-181,29.2906,4.12476,0.0306382,0.0129429,-0.015416,0.0395651,0.00401606,-0.524884,0.0251452,0.0284046,1994,1205,29.2907,-4.12477
777,-181,29.4307,3.76465,0.0441487,0.0185066,-0.0220591,0.0568421,0.00581329,-0.522153,0.0361133,0.0498169,2001,1205,29.4306,-3.76469
784,-181,28.9574,1.25378,0,0,0,0,0,0,0,-1,2008,1205,28.9574,-1.25381
791,-181,29.9948,0.197266,0,0,0,0,0,0,0,-1,2015,1205,29.9948,-0.197304
798,-181,30.519,5.32874,0,0,0,0,0,0,0,-1,2022,1205,30.5191,-5.32869
805,-181,0,0,0,0,0,0,0,0,0,-1,2029,1205,0,0
812,-181,0,0,0,0,0,0,0,0,0,-1,2036,1205,0,0
-700,-188,0,0,0,0,0,0,0,0,0,-1,524,1212,0,0
-693,-188,0,0,0,0,0,0,0,0,0,-1,531,1212,0,0
-686,-188,0,0,0,0,0,0,0,0,0,-1,538,1212,0,0
-679,-188,-11.361,-1.19116,0,0,0,0,0,0,0,-1,545,1212,-11.361,1.19112
-672,-188,-11.21,0.760498,0,0,0,0,0,0,0,-1,552,1212,-11.21,-0.760515
-665,-188,-17.2103,1.25574,0.00359717,0.0391341,0.0292516,0.055591,-0.0128597,1.05833,0.0420086,0.0477316,559,1212,-17.2103,-1.25576
-658,-188,-19.2102,1.39868,0.0020164,0.0333644,0.0238426,0.0462236,-0.0108428,1.07618,0.0349945,0.0467277,566,1212,-19.2102,-1.39873
-651,-188,-19.0775,1.4989,0.00120547,0.027495,0.0187333,0.0372352,-0.00853468,1.09132,0.0281037,0.0453209,573,1212,-19.0775,-1.49894
-644,-188,-18.9612,1.49695,0.000763144,0.0218563,0.0141228,0.028936,-0.00631651,1.10612,0.0217047,0.0407307,580,1212,-18.9612,-1.49697
-637,-188,-18.8397,1.46704,0.000542338,0.0166265,0.0101008,0.0214957,-0.00432687,1.1216,0.0159694,0.0210952,587,1212,-18.8397,-1.46706
-630,-188,-18.864,1.76282,2.7105e-05,0.0122032,0.00723002,0.015567,-0.00333671,1.13533,0.0116506,0.0100607,594,1212,-18.864,-1.76283
-623,-188,-18.8554,2.06384,-0.000864737,0.00818133,0.00405856,0.00973528,-0.00241869,1.20513,0.00742884,0.0103992,601,1212,-18.8554,-2.06387
-616,-188,-18.8505,2.36047,-0.00133219,0.00484719,0.00129835,0.00510891,-0.00159391,1.37189,0.00404335,0.0102419,608,1212,-18.8505,-2.36049
-609,-188,-18.8658,2.69214,-0.00142487,0.00162029,-0.000718374,0.00178125,-0.00158583,-1.35037,0.00194508,0.0124848,615,1212,-18.8658,-2.69215
-602,-188,-18.8597,3.03589,-0.00200341,0.000485506,-0.00103975,0.000862697,-0.0023806,-1.22279,0.00193967,0.0150331,622,1212,-18.8597,-3.03591
-595,-188,-18.8931,3.31018,-0.00308626,0.000535071,-0.00113948,0.000863782,-0.00341497,-1.28995,0.00261262,0.0129473,629,1212,-18.893,-3.31019
-588,-188,-18.9535,3.59155,-0.00392742,0.000649052,-0.00131871,0.00100184,-0.00428021,-1.30939,0.00323948,0.0161662,636,1212,-18.9535,-3.59153
-581,-188,-18.9944,3.89893,-0.00423796,0.000818163,-0.00147438,0.00121668,-0.00463648,-1.30681,0.00356641,0.0176941,643,1212,-18.9944,-3.89898
-574,-188,-19.2573,4.0321,-0.00430371,0.00124326,-0.00128361,0.00152589,-0.00458635,-1.35407,0.0036734,0.0497757,650,1212,-19.2573,-4.0321
-567,-188,-19.5786,4.10388,0,0,0,0,0,0,0,-1,657,1212,-19.5785,-4.10383
-560,-188,-23.9507,0.416626,0,0,0,0,0,0,0,-1,664,1212,-23.9508,-0.416602
-553,-188,-24.0273,0.589355,-0.00362155,0.00408851,-0.000880153,0.00418771,-0.00372075,-1.45856,0.0045686,0.0493068,671,1212,-24.0274,-0.589301
-546,-188,-24.1188,0.768921,-0.00306801,0.00501173,-0.000639691,0.00506206,-0.00311835,-1.49228,0.00476719,0.0418676,678,1212,-24.1188,-0.768951
-539,-188,-24.2148,0.884766,-0.00206851,0.00612604,-0.000411382,0.00614664,-0.00208911,-1.52076,0.00494353,0.0362633,685,1212,-24.2149,-0.884712
-532,-188,-24.2975,0.871582,-0.000550567,0.0074583,-0.000281565,0.00746819,-0.000560454,-1.5357,0.00517574,0.0396236,692,1212,-24.2975,-0.871608
-525,-188,-24.3846,1.01318,0.00218249,0.00912814,-0.000408871,0.00915213,0.0021585,-1.5122,0.00552432,0.0385557,699,1212,-24.3847,-1.01316
-518,-188,-24.2975,1.20276,0.00592979,0.0115671,-0.00149212,0.0119377,0.00555921,-1.32736,0.00689765,0.0413201,706,1212,-24.2975,-1.20282
-511,-188,-24.1,1.12671,0.0120675,0.0151241,-0.00197179,0.0160905,0.0111011,-1.11508,0.00951061,0.0403253,713,1212,-24.1,-1.12672
-504,-188,0,0,0,0,0,0,0,0,0,-1,720,1212,0,0
-497,-188,0,0,0,0,0,0,0,0,0,-1,727,1212,0,0
-490,-188,0,0,0,0,0,0,0,0,0,-1,734,1212,0,0
-483,-188,0,0,0,0,0,0,0,0,0,-1,741,1212,0,0
-476,-188,0,0,0,0,0,0,0,0,0,-1,748,1212,0,0
-469,-188,0,0,0,0,0,0,0,0,0,-1,755,1212,0,0
-462,-188,0,0,0,0,0,0,0,0,0,-1,762,1212,0,0
-455,-188,0,0,0,0,0,0,0,0,0,-1,769,1212,0,0
-448,-188,0,0,0,0,0,0,0,0,0,-1,776,1212,0,0
-441,-188,0,0,0,0,0,0,0,0,0,-1,783,1212,0,0
-434,-188,0,0,0,0,0,0,0,0,0,-1,790,1212,0,0
-427,-188,0,0,0,0,0,0,0,0,0,-1,797,1212,0,0
-420,-188,0,0,0,0,0,0,0,0,0,-1,804,1212,0,0
-413,-188,0,0,0,0,0,0,0,0,0,-1,811,1212,0,0
-406,-188,0,0,0,0,0,0,0,0,0,-1,818,1212,0,0
-399,-188,0,0,0,0,0,0,0,0,0,-1,825,1212,0,0
-392,-188,0,0,0,0,0,0,0,0,0,-1,832,1212,0,0
-385,-188,0,0,0,0,0,0,0,0,0,-1,839,1212,0,0
-378,-188,0,0,0,0,0,0,0,0,0,-1,846,1212,0,0
-371,-188,0,0,0,0,0,0,0,0,0,-1,853,1212,0,0
-364,-188,0,0,0,0,0,0,0,0,0,-1,860,1212,0,0
-357,-188,0,0,0,0,0,0,0,0,0,-1,867,1212,0,0
-350,-188,0,0,0,0,0,0,0,0,0,-1,874,1212,0,0
-343,-188,0,0,0,0,0,0,0,0,0,-1,881,1212,0,0
-336,-188,0,0,0,0,0,0,0,0,0,-1,888,1212,0,0
-329,-188,0,0,0,0,0,0,0,0,0,-1,895,1212,0,0
-322,-188,0,0,0,0,0,0,0,0,0,-1,902,1212,0,0
-315,-188,0,0,0,0,0,0,0,0,0,-1,909,1212,0,0
-308,-188,0,0,0,0,0,0,0,0,0,-1,916,1212,0,0
-301,-188,0,0,0,0,0,0,0,0,0,-1,923,1212,0,0
-294,-188,0,0,0,0,0,0,0,0,0,-1,930,1212,0,0
-287,-188,0,0,0,0,0,0,0,0,0,-1,937,1212,0,0
-280,-188,0,0,0,0,0,0,0,0,0,-1,944,1212,0,0
-273,-188,0,0,0,0,0,0,0,0,0,-1,951,1212,0,0
-266,-188,0,0,0,0,0,0,0,0,0,-1,958,1212,0,0
-259,-188,0,0,0,0,0,0,0,0,0,-1,965,1212,0,0
-252,-188,0,0,0,0,0,0,0,0,0,-1,972,1212,0,0
-245,-188,0,0,0,0,0,0,0,0,0,-1,979,1212,0,0
-238,-188,0,0,0,0,0,0,0,0,0,-1,986,1212,0,0
-231,-188,0,0,0,0,0,0,0,0,0,-1,993,1212,0,0
-224,-188,0,0,0,0,0,0,0,0,0,-1,1000,1212,0,0
-217,-188,0,0,0,0,0,0,0,0,0,-1,1007,1212,0,0
-210,-188,0,0,0,0,0,0,0,0,0,-1,1014,1212,0,0
-203,-188,0,0,0,0,0,0,0,0,0,-1,1021,1212,0,0
-196,-188,0,0,0,0,0,0,0,0,0,-1,1028,1212,0,0
-189,-188,0,0,0,0,0,0,0,0,0,-1,1035,1212,0,0
-182,-188,0,0,0,0,0,0,0,0,0,-1,1042,1212,0,0
-175,-188,0,0,0,0,0,0,0,0,0,-1,1049,1212,0,0
-168,-188,0,0,0,0,0,0,0,0,0,-1,1056,1212,0,0
-161,-188,0,0,0,0,0,0,0,0,0,-1,1063,1212,0,0
-154,-188,0,0,0,0,0,0,0,0,0,-1,1070,1212,0,0
-147,-188,0,0,0,0,0,0,0,0,0,-1,1077,1212,0,0
-140,-188,0,0,0,0,0,0,0,0,0,-1,1084,1212,0,0
-133,-188,0,0,0,0,0,0,0,0,0,-1,1091,1212,0,0
-126,-188,0,0,0,0,0,0,0,0,0,-1,1098,1212,0,0
-119,-188,0,0,0,0,0,0,0,0,0,-1,1105,1212,0,0
-112,-188,0,0,0,0,0,0,0,0,0,-1,1112,1212,0,0
-105,-188,0,0,0,0,0,0,0,0,0,-1,1119,1212,0,0
-98,-188,0,0,0,0,0,0,0,0,0,-1,1126,1212,0,0
-91,-188,0,0,0,0,0,0,0,0,0,-1,1133,1212,0,0
-84,-188,0,0,0,0,0,0,0,0,0,-1,1140,1212,0,0
-77,-188,0,0,0,0,0,0,0,0,0,-1,1147,1212,0,0
-70,-188,0,0,0,0,0,0,0,0,0,-1,1154,1212,0,0
-63,-188,0,0,0,0,0,0,0,0,0,-1,1161,1212,0,0
-56,-188,0,0,0,0,0,0,0,0,0,-1,1168,1212,0,0
-49,-188,0,0,0,0,0,0,0,0,0,-1,1175,1212,0,0
-42,-188,0,0,0,0,0,0,0,0,0,-1,1182,1212,0,0
-35,-188,0,0,0,0,0,0,0,0,0,-1,1189,1212,0,0
-28,-188,0,0,0,0,0,0,0,0,0,-1,1196,1212,0,0
-21,-188,0,0,0,0,0,0,0,0,0,-1,1203,1212,0,0
-14,-188,0,0,0,0,0,0,0,0,0,-1,1210,1212,0,0
-7,-188,0,0,0,0,0,0,0,0,0,-1,1217,1212,0,0
0,-188,0,0,0,0,0,0,0,0,0,-1,1224,1212,0,0
7,-188,0,0,0,0,0,0,0,0,0,-1,1231,1212,0,0
14,-188,0,0,0,0,0,0,0,0,0,-1,1238,1212,0,0
21,-188,0,0,0,0,0,0,0,0,0,-1,1245,1212,0,0
28,-188,0,0,0,0,0,0,0,0,0,-1,1252,1212,0,0
35,-188,0,0,0,0,0,0,0,0,0,-1,1259,1212,0,0
42,-188,0,0,0,0,0,0,0,0,0,-1,1266,1212,0,0
49,-188,0,0,0,0,0,0,0,0,0,-1,1273,1212,0,0
56,-188,0,0,0,0,0,0,0,0,0,-1,1280,1212,0,0
63,-188,0,0,0,0,0,0,0,0,0,-1,1287,1212,0,0
70,-188,0,0,0,0,0,0,0,0,0,-1,1294,1212,0,0
77,-188,0,0,0,0,0,0,0,0,0,-1,1301,1212,0,0
84,-188,0,0,0,0,0,0,0,0,0,-1,1308,1212,0,0
91,-188,0,0,0,0,0,0,0,0,0,-1,1315,1212,0,0
98,-188,0,0,0,0,0,0,0,0,0,-1,1322,1212,0,0
105,-188,0,0,0,0,0,0,0,0,0,-1,1329,1212,0,0
112,-188,0,0,0,0,0,0,0,0,0,-1,1336,1212,0,0
119,-188,0,0,0,0,0,0,0,0,0,-1,1343,1212,0,0
126,-188,0,0,0,0,0,0,0,0,0,-1,1350,1212,0,0
133,-188,0,0,0,0,0,0,0,0,0,-1,1357,1212,0,0
140,-188,0,0,0,0,0,0,0,0,0,-1,1364,1212,0,0
147,-188,0,0,0,0,0,0,0,0,0,-1,1371,1212,0,0
154,-188,0,0,0,0,0,0,0,0,0,-1,1378,1212,0,0
161,-188,0,0,0,0,0,0,0,0,0,-1,1385,1212,0,0
168,-188,0,0,0,0,0,0,0,0,0,-1,1392,1212,0,0
175,-188,0,0,0,0,0,0,0,0,0,-1,1399,1212,0,0
182,-188,0,0,0,0,0,0,0,0,0,-1,1406,1212,0,0
189,-188,0,0,0,0,0,0,0,0,0,-1,1413,1212,0,0
196,-188,0,0,0,0,0,0,0,0,0,-1,1420,1212,0,0
203,-188,0,0,0,0,0,0,0,0,0,-1,1427,1212,0,0
210,-188,0,0,0,0,0,0,0,0,0,-1,1434,1212,0,0
217,-188,0,0,0,0,0,0,0,0,0,-1,1441,1212,0,0
224,-188,0,0,0,0,0,0,0,0,0,-1,1448,1212,0,0
231,-188,0,0,0,0,0,0,0,0,0,-1,1455,1212,0,0
238,-188,0,0,0,0,0,0,0,0,0,-1,1462,1212,0,0
245,-188,0,0,0,0,0,0,0,0,0,-1,1469,1212,0,0
252,-188,0,0,0,0,0,0,0,0,0,-1,1476,1212,0,0
259,-188,0,0,0,0,0,0,0,0,0,-1,1483,1212,0,0
266,-188,0,0,0,0,0,0,0,0,0,-1,1490,1212,0,0
273,-188,0,0,0,0,0,0,0,0,0,-1,1497,1212,0,0
280,-188,0,0,0,0,0,0,0,0,0,-1,1504,1212,0,0
287,-188,0,0,0,0,0,0,0,0,0,-1,1511,1212,0,0
294,-188,0,0,0,0,0,0,0,0,0,-1,1518,1212,0,0
301,-188,0,0,0,0,0,0,0,0,0,-1,1525,1212,0,0
308,-188,0,0,0,0,0,0,0,0,0,-1,1532,1212,0,0
315,-188,0,0,0,0,0,0,0,0,0,-1,1539,1212,0,0
322,-188,0,0,0,0,0,0,0,0,0,-1,1546,1212,0,0
329,-188,0,0,0,0,0,0,0,0,0,-1,1553,1212,0,0
336,-188,0,0,0,0,0,0,0,0,0,-1,1560,1212,0,0
343,-188,0,0,0,0,0,0,0,0,0,-1,1567,1212,0,0
350,-188,0,0,0,0,0,0,0,0,0,-1,1574,1212,0,0
357,-188,0,0,0,0,0,0,0,0,0,-1,1581,1212,0,0
364,-188,0,0,0,0,0,0,0,0,0,-1,1588,1212,0,0
371,-188,0,0,0,0,0,0,0,0,0,-1,1595,1212,0,0
378,-188,0,0,0,0,0,0,0,0,0,-1,1602,1212,0,0
385,-188,0,0,0,0,0,0,0,0,0,-1,1609,1212,0,0
392,-188,0,0,0,0,0,0,0,0,0,-1,1616,1212,0,0
399,-188,0,0,0,0,0,0,0,0,0,-1,1623,1212,0,0
406,-188,0,0,0,0,0,0,0,0,0,-1,1630,1212,0,0
413,-188,0,0,0,0,0,0,0,0,0,-1,1637,1212,0,0
420,-188,0,0,0,0,0,0,0,0,0,-1,1644,1212,0,0
427,-188,0,0,0,0,0,0,0,0,0,-1,1651,1212,0,0
434,-188,0,0,0,0,0,0,0,0,0,-1,1658,1212,0,0
441,-188,0,0,0,0,0,0,0,0,0,-1,1665,1212,0,0
448,-188,0,0,0,0,0,0,0,0,0,-1,1672,1212,0,0
455,-188,0,0,0,0,0,0,0,0,0,-1,1679,1212,0,0
462,-188,0,0,0,0,0,0,0,0,0,-1,1686,1212,0,0
469,-188,0,0,0,0,0,0,0,0,0,-1,1693,1212,0,0
476,-188,0,0,0,0,0,0,0,0,0,-1,1700,1212,0,0
483,-188,0,0,0,0,0,0,0,0,0,-1,1707,1212,0,0
490,-188,0,0,0,0,0,0,0,0,0,-1,1714,1212,0,0
497,-188,0,0,0,0,0,0,0,0,0,-1,1721,1212,0,0
504,-188,0,0,0,0,0,0,0,0,0,-1,1728,1212,0,0
511,-188,0,0,0,0,0,0,0,0,0,-1,1735,1212,0,0
518,-188,0,0,0,0,0,0,0,0,0,-1,1742,1212,0,0
525,-188,0,0,0,0,0,0,0,0,0,-1,1749,1212,0,0
532,-188,0,0,0,0,0,0,0,0,0,-1,1756,1212,0,0
539,-188,0,0,0,0,0,0,0,0,0,-1,1763,1212,0,0
546,-188,0,0,0,0,0,0,0,0,0,-1,1770,1212,0,0
553,-188,0,0,0,0,0,0,0,0,0,-1,1777,1212,0,0
560,-188,0,0,0,0,0,0,0,0,0,-1,1784,1212,0,0
567,-188,0,0,0,0,0,0,0,0,0,-1,1791,1212,0,0
574,-188,0,0,0,0,0,0,0,0,0,-1,1798,1212,0,0
581,-188,0,0,0,0,0,0,0,0,0,-1,1805,1212,0,0
588,-188,0,0,0,0,0,0,0,0,0,-1,1812,1212,0,0
595,-188,0,0,0,0,0,0,0,0,0,-1,1819,1212,0,0
602,-188,0,0,0,0,0,0,0,0,0,-1,1826,1212,0,0
609,-188,0,0,0,0,0,0,0,0,0,-1,1833,1212,0,0
616,-188,0,0,0,0,0,0,0,0,0,-1,1840,1212,0,0
623,-188,0,0,0,0,0,0,0,0,0,-1,1847,1212,0,0
630,-188,34.0153,2.79761,0.00516588,-0.00228647,0.00239425,0.00586879,-0.00298938,0.28556,0.00520355,0.0423554,1854,1212,34.0152,-2.79765
637,-188,34.0974,2.84009,0.00244052,-0.00123407,0.00123917,0.00281935,-0.00161289,0.296687,0.00259036,0.039938,1861,1212,34.0974,-2.84005
644,-188,34.0974,2.85632,0.000187248,-0.000346318,4.88399e-05,0.000191682,-0.000350752,0.0905324,0.000317631,0.0358151,1868,1212,34.0974,-2.85633
651,-188,33.989,2.74524,-0.00149648,0.000479695,-0.0010294,0.000918483,-0.00193527,-1.16786,0.00168211,0.0314698,1875,1212,33.989,-2.74521
658,-188,33.9766,2.69983,-0.00227141,0.00089724,-0.00173403,0.00166173,-0.00303591,-1.15556,0.00275059,0.0298685,1882,1212,33.9766,-2.69979
665,-188,33.975,2.71631,-0.00249915,0.000961194,-0.00193084,0.00182364,-0.00336159,-1.15072,0.00303727,0.0283273,1889,1212,33.975,-2.71635
672,-188,33.9805,2.69385,-0.00274867,0.000651116,-0.00164871,0.00131932,-0.00341687,-1.18574,0.00282241,0.0215595,1896,1212,33.9804,-2.69388
679,-188,34.079,2.82593,0,0,0,0,0,0,0,-1,1903,1212,34.079,-2.82593
686,-188,34.2081,2.95081,0,0,0,0,0,0,0,-1,1910,1212,34.2082,-2.9508
693,-188,34.3374,3.07568,0,0,0,0,0,0,0,-1,1917,1212,34.3374,-3.07567
700,-188,29.5515,6.67908,0,0,0,0,0,0,0,-1,1924,1212,29.5515,-6.67905
707,-188,29.2738,6.46301,-0.00324582,-0.000620945,0.000494722,-0.000530798,-0.00333596,1.39056,0.00206986,0.0256424,1931,1212,29.2739,-6.46303
714,-188,29.2479,6.26208,-0.0032812,-0.000740308,0.000947103,-0.000426128,-0.00359538,1.25049,0.00226826,0.0223035,1938,1212,29.2479,-6.26213
721,-188,29.082,6.02881,-0.00282837,-0.000925796,0.00150425,-9.72729e-05,-0.00365689,1.06735,0.00240616,0.0194001,1945,1212,29.082,-6.02879
728,-188,28.9952,5.74841,-0.00177419,-0.00137966,0.00162615,6.11517e-05,-0.003215,0.845756,0.00216401,0.00983333,1952,1212,28.9952,-5.74839
735,-188,28.981,5.48572,-0.000598577,-0.00121637,0.00171361,0.000833759,-0.00264871,0.696226,0.00209965,0.0129407,1959,1212,28.9809,-5.48577
742,-188,28.96,5.22437,0.00182811,0.000626026,-5.76681e-05,0.00183087,0.000623266,-0.047827,0.00107485,0.0148677,1966,1212,28.96,-5.22431
749,-188,28.9568,4.94739,0.00659532,0.00246375,-0.0024121,0.00770534,0.00135373,-0.431292,0.00475038,0.0141376,1973,1212,28.9567,-4.94744
756,-188,28.9969,4.65381,0.0136946,0.00465416,-0.00535979,0.0161858,0.00216297,-0.435086,0.0101467,0.0125153,1980,1212,28.9969,-4.65386
763,-188,29.0234,4.38586,0.0221274,0.0077301,-0.00934256,0.026723,0.00313452,-0.457144,0.0168679,0.0146614,1987,1212,29.0234,-4.38582
770,-188,29.0004,4.13708,0.0331793,0.0118238,-0.0145453,0.0405454,0.00445774,-0.468774,0.0256737,0.0252931,1994,1212,29.0004,-4.13709
777,-188,29.8347,3.77295,0.0471322,0.0171067,-0.0210266,0.0579555,0.00628346,-0.475372,0.0367221,0.0490219,2001,1212,29.8347,-3.773
784,-188,30.6802,3.39612,0,0,0,0,0,0,0,-1,2008,1212,30.6801,-3.39612
791,-188,30.2924,0.557983,0,0,0,0,0,0,0,-1,2015,1212,30.2924,-0.55796
798,-188,30.6204,3.84473,0,0,0,0,0,0,0,-1,2022,1212,30.6204,-3.84471
805,-188,0,0,0,0,0,0,0,0,0,-1,2029,1212,0,0
812,-188,0,0,0,0,0,0,0,0,0,-1,2036,1212,0,0
-700,-195,0,0,0,0,0,0,0,0,0,-1,524,1219,0,0
-693,-195,0,0,0,0,0,0,0,0,0,-1,531,1219,0,0
-686,-195,0,0,0,0,0,0,0,0,0,-1,538,1219,0,0
-679,-195,-9.84875,-1.42249,0,0,0,0,0,0,0,-1,545,1219,-9.84878,1.42254
-672,-195,-17.846,-0.235596,-0.00185716,0.0517484,0.0426497,0.0753182,-0.0254269,1.06593,0.0604959,0.0460743,552,1219,-17.846,0.235543
-665,-195,-17.6971,0.408203,-0.00261173,0.0452886,0.0358243,0.0644312,-0.0217544,1.08005,0.0517528,0.046021,559,1219,-17.6971,-0.408214
-658,-195,-17.4942,1.08899,-0.00243762,0.0382708,0.0290164,0.0533601,-0.0175269,1.09126,0.042634,0.046562,566,1219,-17.4942,-1.08896
-651,-195,-18.7192,1.46863,-0.0017848,0.0312677,0.0226798,0.0428037,-0.0133208,1.10026,0.033861,0.0449748,573,1219,-18.7192,-1.46864
-644,-195,-18.5157,1.32031,-0.00103076,0.0246593,0.0170429,0.0331557,-0.00952714,1.10833,0.025871,0.0401795,580,1219,-18.5157,-1.32033
-637,-195,-18.4564,1.46619,-0.00037038,0.0186584,0.0121958,0.024612,-0.00632404,1.11665,0.0188726,0.0210861,587,1219,-18.4563,-1.46613
-630,-195,-18.5451,1.74622,-0.000313999,0.0136329,0.00865433,0.0177737,-0.0044548,1.12452,0.0135798,0.0076821,594,1219,-18.5451,-1.74621
-623,-195,-18.5518,2.05505,-0.000757309,0.00920842,0.00500651,0.0112891,-0.00283802,1.17691,0.00862909,0.00759223,601,1219,-18.5518,-2.05504
-616,-195,-18.5581,2.37219,-0.000803721,0.00553173,0.00187056,0.00604279,-0.00131478,1.30409,0.00453083,0.00983072,608,1219,-18.5581,-2.37215
-609,-195,-18.5572,2.7207,-0.000721711,0.00193389,-0.000554535,0.00204504,-0.000832855,-1.37299,0.00170998,0.0179475,615,1219,-18.5572,-2.72066
-602,-195,-18.5801,2.99622,-0.00130988,0.000677445,-0.000977021,0.00107732,-0.00170975,-1.18232,0.00162287,0.0207843,622,1219,-18.5801,-2.99622
-595,-195,-18.5801,3.31726,-0.00246613,0.000710404,-0.00106914,0.00103672,-0.00279245,-1.27456,0.00228693,0.0149249,629,1219,-18.5802,-3.31731
-588,-195,-18.6021,3.62683,-0.0034169,0.00083972,-0.00113548,0.00112367,-0.00370085,-1.32575,0.0029149,0.0125678,636,1219,-18.6021,-3.62682
-581,-195,-18.6699,3.83594,-0.00385106,0.00100561,-0.00120209,0.00128686,-0.0041323,-1.34097,0.00326936,0.0212074,643,1219,-18.6699,-3.83599
-574,-195,-19.0034,3.7417,-0.0039907,0.0014514,-0.000951554,0.00161298,-0.00415229,-1.40259,0.00343451,0.0449001,650,1219,-19.0033,-3.74175
-567,-195,-19.3286,3.62097,0,0,0,0,0,0,0,-1,657,1219,-19.3286,-3.62095
-560,-195,-20.878,2.10388,0,0,0,0,0,0,0,-1,664,1219,-20.878,-2.10385
-553,-195,-23.9958,0.611084,0,0,0,0,0,0,0,-1,671,1219,-23.9959,-0.611079
-546,-195,-23.9717,0.625244,-0.0036037,0.00490421,0.000196623,0.00490875,-0.00360824,1.5477,0.00493636,0.0480548,678,1219,-23.9717,-0.625278
-539,-195,-24.145,0.83252,-0.00312753,0.00578871,0.000518872,0.0058188,-0.00315762,1.51286,0.00525791,0.0381054,685,1219,-24.145,-0.832567
-532,-195,-24.1893,0.749146,-0.0023247,0.00675179,0.000749682,0.00681329,-0.0023862,1.48894,0.00551252,0.0345109,692,1219,-24.1893,-0.749104
-525,-195,-24.2451,0.852295,-0.000539818,0.00782823,0.00070097,0.00788654,-0.00059813,1.4878,0.00546798,0.0394275,699,1219,-24.2451,-0.852306
-518,-195,-24.2346,1.03381,0.00253361,0.00920234,-0.000349344,0.00922059,0.00251536,-1.5186,0.00550367,0.0425456,706,1219,-24.2346,-1.03381
-511,-195,-23.9715,1.00513,0.00895185,0.0116641,-0.00127917,0.0121722,0.00844375,-1.1927,0.00720127,0.0414032,713,1219,-23.9715,-1.00511
-504,-195,0,0,0,0,0,0,0,0,0,-1,720,1219,0,0
-497,-195,0,0,0,0,0,0,0,0,0,-1,727,1219,0,0
-490,-195,0,0,0,0,0,0,0,0,0,-1,734,1219,0,0
-483,-195,0,0,0,0,0,0,0,0,0,-1,741,1219,0,0
-476,-195,0,0,0,0,0,0,0,0,0,-1,748,1219,0,0
-469,-195,0,0,0,0,0,0,0,0,0,-1,755,1219,0,0
-462,-195,0,0,0,0,0,0,0,0,0,-1,762,1219,0,0
-455,-195,0,0,0,0,0,0,0,0,0,-1,769,1219,0,0
-448,-195,0,0,0,0,0,0,0,0,0,-1,776,1219,0,0
-441,-195,0,0,0,0,0,0,0,0,0,-1,783,1219,0,0
-434,-195,0,0,0,0,0,0,0,0,0,-1,790,1219,0,0
-427,-195,0,0,0,0,0,0,0,0,0,-1,797,1219,0,0
-420,-195,0,0,0,0,0,0,0,0,0,-1,804,1219,0,0
-413,-195,0,0,0,0,0,0,0,0,0,-1,811,1219,0,0
-406,-195,0,0,0,0,0,0,0,0,0,-1,818,1219,0,0
-399,-195,0,0,0,0,0,0,0,0,0,-1,825,1219,0,0
-392,-195,0,0,0,0,0,0,0,0,0,-1,832,1219,0,0
-385,-195,0,0,0,0,0,0,0,0,0,-1,839,1219,0,0
-378,-195,0,0,0,0,0,0,0,0,0,-1,846,1219,0,0
-371,-195,0,0,0,0,0,0,0,0,0,-1,853,1219,0,0
-364,-195,0,0,0,0,0,0,0,0,0,-1,860,1219,0,0
-357,-195,0,0,0,0,0,0,0,0,0,-1,867,1219,0,0
-350,-195,0,0,0,0,0,0,0,0,0,-1,874,1219,0,0
-343,-195,0,0,0,0,0,0,0,0,0,-1,881,1219,0,0
-336,-195,0,0,0,0,0,0,0,0,0,-1,888,1219,0,0
-329,-195,0,0,0,0,0,0,0,0,0,-1,895,1219,0,0
-322,-195,0,0,0,0,0,0,0,0,0,-1,902,1219,0,0
-315,-195,0,0,0,0,0,0,0,0,0,-1,909,1219,0,0
-308,-195,0,0,0,0,0,0,0,0,0,-1,916,1219,0,0
-301,-195,0,0,0,0,0,0,0,0,0,-1,923,1219,0,0
-294,-195,0,0,0,0,0,0,0,0,0,-1,930,1219,0,0
-287,-195,0,0,0,0,0,0,0,0,0,-1,937,1219,0,0
-280,-195,0,0,0,0,0,0,0,0,0,-1,944,1219,0,0
-273,-195,0,0,0,0,0,0,0,0,0,-1,951,1219,0,0
-266,-195,0,0,0,0,0,0,0,0,0,-1,958,1219,0,0
-259,-195,0,0,0,0,0,0,0,0,0,-1,965,1219,0,0
-252,-195,0,0,0,0,0,0,0,0,0,-1,972,1219,0,0
-245,-195,0,0,0,0,0,0,0,0,0,-1,979,1219,0,0
-238,-195,0,0,0,0,0,0,0,0,0,-1,986,1219,0,0
-231,-195,0,0,0,0,0,0,0,0,0,-1,993,1219,0,0
-224,-195,0,0,0,0,0,0,0,0,0,-1,1000,1219,0,0
-217,-195,0,0,0,0,0,0,0,0,0,-1,1007,1219,0,0
-210,-195,0,0,0,0,0,0,0,0,0,-1,1014,1219,0,0
-203,-195,0,0,0,0,0,0,0,0,0,-1,1021,1219,0,0
-196,-195,0,0,0,0,0,0,0,0,0,-1,1028,1219,0,0
-189,-195,0,0,0,0,0,0,0,0,0,-1,1035,1219,0,0
-182,-195,0,0,0,0,0,0,0,0,0,-1,1042,1219,0,0
-175,-195,0,0,0,0,0,0,0,0,0,-1,1049,1219,0,0
-168,-195,0,0,0,0,0,0,0,0,0,-1,1056,1219,0,0
-161,-195,0,0,0,0,0,0,0,0,0,-1,1063,1219,0,0
-154,-195,0,0,0,0,0,0,0,0,0,-1,1070,1219,0,0
-147,-195,0,0,0,0,0,0,0,0,0,-1,1077,1219,0,0
-140,-195,0,0,0,0,0,0,0,0,0,-1,1084,1219,0,0
-133,-195,0,0,0,0,0,0,0,0,0,-1,1091,1219,0,0
-126,-195,0,0,0,0,0,0,0,0,0,-1,1098,1219,0,0
-119,-195,0,0,0,0,0,0,0,0,0,-1,1105,1219,0,0
-112,-195,0,0,0,0,0,0,0,0,0,-1,1112,1219,0,0
-105,-195,0,0,0,0,0,0,0,0,0,-1,1119,1219,0,0
-98,-195,0,0,0,0,0,0,0,0,0,-1,1126,1219,0,0
-91,-195,0,0,0,0,0,0,0,0,0,-1,1133,1219,0,0
-84,-195,0,0,0,0,0,0,0,0,0,-1,1140,1219,0,0
-77,-195,0,0,0,0,0,0,0,0,0,-1,1147,1219,0,0
-70,-195,0,0,0,0,0,0,0,0,0,-1,1154,1219,0,0
-63,-195,0,0,0,0,0,0,0,0,0,-1,1161,1219,0,0
-56,-195,0,0,0,0,0,0,0,0,0,-1,1168,1219,0,0
-49,-195,0,0,0,0,0,0,0,0,0,-1,1175,1219,0,0
-42,-195,0,0,0,0,0,0,0,0,0,-1,1182,1219,0,0
-35,-195,0,0,0,0,0,0,0,0,0,-1,1189,1219,0,0
-28,-195,0,0,0,0,0,0,0,0,0,-1,1196,1219,0,0
-21,-195,0,0,0,0,0,0,0,0,0,-1,1203,1219,0,0
-14,-195,0,0,0,0,0,0,0,0,0,-1,1210,1219,0,0
-7,-195,0,0,0,0,0,0,0,0,0,-1,1217,1219,0,0
0,-195,0,0,0,0,0,0,0,0,0,-1,1224,1219,0,0
7,-195,0,0,0,0,0,0,0,0,0,-1,1231,1219,0,0
14,-195,0,0,0,0,0,0,0,0,0,-1,1238,1219,0,0
21,-195,0,0,0,0,0,0,0,0,0,-1,1245,1219,0,0
28,-195,0,0,0,0,0,0,0,0,0,-1,1252,1219,0,0
35,-195,0,0,0,0,0,0,0,0,0,-1,1259,1219,0,0
42,-195,0,0,0,0,0,0,0,0,0,-1,1266,1219,0,0
49,-195,0,0,0,0,0,0,0,0,0,-1,1273,1219,0,0
56,-195,0,0,0,0,0,0,0,0,0,-1,1280,1219,0,0
63,-195,0,0,0,0,0,0,0,0,0,-1,1287,1219,0,0
70,-195,0,0,0,0,0,0,0,0,0,-1,1294,1219,0,0
77,-195,0,0,0,0,0,0,0,0,0,-1,1301,1219,0,0
84,-195,0,0,0,0,0,0,0,0,0,-1,1308,1219,0,0
91,-195,0,0,0,0,0,0,0,0,0,-1,1315,1219,0,0
98,-195,0,0,0,0,0,0,0,0,0,-1,1322,1219,0,0
105,-195,0,0,0,0,0,0,0,0,0,-1,1329,1219,0,0
112,-195,0,0,0,0,0,0,0,0,0,-1,1336,1219,0,0
119,-195,0,0,0,0,0,0,0,0,0,-1,1343,1219,0,0
126,-195,0,0,0,0,0,0,0,0,0,-1,1350,1219,0,0
133,-195,0,0,0,0,0,0,0,0,0,-1,1357,1219,0,0
140,-195,0,0,0,0,0,0,0,0,0,-1,1364,1219,0,0
147,-195,0,0,0,0,0,0,0,0,0,-1,1371,1219,0,0
154,-195,0,0,0,0,0,0,0,0,0,-1,1378,1219,0,0
161,-195,0,0,0,0,0,0,0,0,0,-1,1385,1219,0,0
168,-195,0,0,0,0,0,0,0,0,0,-1,1392,1219,0,0
175,-195,0,0,0,0,0,0,0,0,0,-1,1399,1219,0,0
182,-195,0,0,0,0,0,0,0,0,0,-1,1406,1219,0,0
189,-195,0,0,0,0,0,0,0,0,0,-1,1413,1219,0,0
196,-195,0,0,0,0,0,0,0,0,0,-1,1420,1219,0,0
203,-195,0,0,0,0,0,0,0,0,0,-1,1427,1219,0,0
210,-195,0,0,0,0,0,0,0,0,0,-1,1434,1219,0,0
217,-195,0,0,0,0,0,0,0,0,0,-1,1441,1219,0,0
224,-195,0,0,0,0,0,0,0,0,0,-1,1448,1219,0,0
231,-195,0,0,0,0,0,0,0,0,0,-1,1455,1219,0,0
238,-195,0,0,0,0,0,0,0,0,0,-1,1462,1219,0,0
245,-195,0,0,0,0,0,0,0,0,0,-1,1469,1219,0,0
252,-195,0,0,0,0,0,0,0,0,0,-1,1476,1219,0,0
259,-195,0,0,0,0,0,0,0,0,0,-1,1483,1219,0,0
266,-195,0,0,0,0,0,0,0,0,0,-1,1490,1219,0,0
273,-195,0,0,0,0,0,0,0,0,0,-1,1497,1219,0,0
280,-195,0,0,0,0,0,0,0,0,0,-1,1504,1219,0,0
287,-195,0,0,0,0,0,0,0,0,0,-1,1511,1219,0,0
294,-195,0,0,0,0,0,0,0,0,0,-1,1518,1219,0,0
301,-195,0,0,0,0,0,0,0,0,0,-1,1525,1219,0,0
308,-195,0,0,0,0,0,0,0,0,0,-1,1532,1219,0,0
315,-195,0,0,0,0,0,0,0,0,0,-1,1539,1219,0,0
322,-195,0,0,0,0,0,0,0,0,0,-1,1546,1219,0,0
329,-195,0,0,0,0,0,0,0,0,0,-1,1553,1219,0,0
336,-195,0,0,0,0,0,0,0,0,0,-1,1560,1219,0,0
343,-195,0,0,0,0,0,0,0,0,0,-1,1567,1219,0,0
350,-195,0,0,0,0,0,0,0,0,0,-1,1574,1219,0,0
357,-195,0,0,0,0,0,0,0,0,0,-1,1581,1219,0,0
364,-195,0,0,0,0,0,0,0,0,0,-1,1588,1219,0,0
371,-195,0,0,0,0,0,0,0,0,0,-1,1595,1219,0,0
378,-195,0,0,0,0,0,0,0,0,0,-1,1602,1219,0,0
385,-195,0,0,0,0,0,0,0,0,0,-1,1609,1219,0,0
392,-195,0,0,0,0,0,0,0,0,0,-1,1616,1219,0,0
399,-195,0,0,0,0,0,0,0,0,0,-1,1623,1219,0,0
406,-195,0,0,0,0,0,0,0,0,0,-1,1630,1219,0,0
413,-195,0,0,0,0,0,0,0,0,0,-1,1637,1219,0,0
420,-195,0,0,0,0,0,0,0,0,0,-1,1644,1219,0,0
427,-195,0,0,0,0,0,0,0,0,0,-1,1651,1219,0,0
434,-195,0,0,0,0,0,0,0,0,0,-1,1658,1219,0,0
441,-195,0,0,0,0,0,0,0,0,0,-1,1665,1219,0,0
448,-195,0,0,0,0,0,0,0,0,0,-1,1672,1219,0,0
455,-195,0,0,0,0,0,0,0,0,0,-1,1679,1219,0,0
462,-195,0,0,0,0,0,0,0,0,0,-1,1686,1219,0,0
469,-195,0,0,0,0,0,0,0,0,0,-1,1693,1219,0,0
476,-195,0,0,0,0,0,0,0,0,0,-1,1700,1219,0,0
483,-195,0,0,0,0,0,0,0,0,0,-1,1707,1219,0,0
490,-195,0,0,0,0,0,0,0,0,0,-1,1714,1219,0,0
497,-195,0,0,0,0,0,0,0,0,0,-1,1721,1219,0,0
504,-195,0,0,0,0,0,0,0,0,0,-1,1728,1219,0,0
511,-195,0,0,0,0,0,0,0,0,0,-1,1735,1219,0,0
518,-195,0,0,0,0,0,0,0,0,0,-1,1742,1219,0,0
525,-195,0,0,0,0,0,0,0,0,0,-1,1749,1219,0,0
532,-195,0,0,0,0,0,0,0,0,0,-1,1756,1219,0,0
539,-195,0,0,0,0,0,0,0,0,0,-1,1763,1219,0,0
546,-195,0,0,0,0,0,0,0,0,0,-1,1770,1219,0,0
553,-195,0,0,0,0,0,0,0,0,0,-1,1777,1219,0,0
560,-195,0,0,0,0,0,0,0,0,0,-1,1784,1219,0,0
567,-195,0,0,0,0,0,0,0,0,0,-1,1791,1219,0,0
574,-195,0,0,0,0,0,0,0,0,0,-1,1798,1219,0,0
581,-195,0,0,0,0,0,0,0,0,0,-1,1805,1219,0,0
588,-195,0,0,0,0,0,0,0,0,0,-1,1812,1219,0,0
595,-195,0,0,0,0,0,0,0,0,0,-1,1819,1219,0,0
602,-195,0,0,0,0,0,0,0,0,0,-1,1826,1219,0,0
609,-195,0,0,0,0,0,0,0,0,0,-1,1833,1219,0,0
616,-195,0,0,0,0,0,0,0,0,0,-1,1840,1219,0,0
623,-195,0,0,0,0,0,0,0,0,0,-1,1847,1219,0,0
630,-195,34.0342,2.55945,0.00468565,-0.00222107,0.00248923,0.00548928,-0.00302469,0.312279,0.00498372,0.0407585,1854,1219,34.0342,-2.55943
637,-195,34.0461,2.71655,0.00184902,-0.00114572,0.00112961,0.00222732,-0.00152402,0.323155,0.00217849,0.0375119,1861,1219,34.0461,-2.71653
644,-195,34.0477,2.74329,-0.000664745,-8.44152e-05,-0.000256119,1.24505e-05,-0.000761611,-1.20922,0.000511941,0.0331456,1868,1219,34.0477,-2.74325
651,-195,34.0177,2.70044,-0.00241336,0.000805103,-0.00142607,0.00134606,-0.00295431,-1.20823,0.00254004,0.0260639,1875,1219,34.0177,-2.70045
658,-195,34.0214,2.73999,-0.00311793,0.00118983,-0.0020919,0.00203849,-0.00396659,-1.1854,0.0035261,0.022822,1882,1219,34.0214,-2.74003
665,-195,34.0143,2.71387,-0.00323864,0.00127227,-0.00225984,0.00220961,-0.00417598,-1.17761,0.00374454,0.0208968,1889,1219,34.0142,-2.71382
672,-195,33.9902,2.60339,-0.00332276,0.000965567,-0.00198324,0.00174214,-0.00409933,-1.19758,0.00346289,0.0300083,1896,1219,33.9903,-2.60341
679,-195,33.8394,2.2135,-0.0033311,0.000707338,-0.00152302,0.00121732,-0.00384108,-1.24768,0.00304861,0.0452368,1903,1219,33.8394,-2.21345
686,-195,34.2764,3.00659,0,0,0,0,0,0,0,-1,1910,1219,34.2764,-3.00665
693,-195,24.4368,5.68298,0,0,0,0,0,0,0,-1,1917,1219,24.4368,-5.68293
700,-195,29.0204,6.94641,0,0,0,0,0,0,0,-1,1924,1219,29.0204,-6.94645
707,-195,28.766,6.66809,-0.00303901,-0.000322408,0.000155428,-0.000313544,-0.00304787,1.51383,0.00193588,0.0274644,1931,1219,28.766,-6.66807
714,-195,28.7281,6.27612,-0.00292701,-0.000464497,0.000669002,-0.000294484,-0.00309702,1.32193,0.00197385,0.0275187,1938,1219,28.7281,-6.27618
721,-195,28.7135,6.03845,-0.00225789,-0.000686257,0.00133125,7.38003e-05,-0.00301795,1.05202,0.00203701,0.0141805,1945,1219,28.7135,-6.03847
728,-195,28.71,5.77527,-0.00094321,-0.00121679,0.00146114,0.000387528,-0.00254753,0.738724,0.00184117,0.0102098,1952,1219,28.71,-5.77532
735,-195,28.7028,5.48169,0.000542078,-0.00104941,0.00156651,0.00150336,-0.0020107,0.550395,0.00203588,0.0120909,1959,1219,28.7027,-5.48168
742,-195,28.694,5.22046,0.0034103,0.000611635,-2.04562e-05,0.00341045,0.000611485,-0.00730873,0.0020997,0.0136392,1966,1219,28.6939,-5.22046
749,-195,28.6863,4.95349,0.0081509,0.00215261,-0.00216301,0.00884952,0.00145399,-0.312409,0.0054797,0.01505,1973,1219,28.6863,-4.95351
756,-195,28.7035,4.68518,0.0146227,0.00400731,-0.00483131,0.0164923,0.00213774,-0.369224,0.0103561,0.015061,1980,1219,28.7035,-4.68516
763,-195,28.71,4.4054,0.0228432,0.0066773,-0.00855266,0.0265281,0.00299242,-0.406812,0.0167771,0.0166928,1987,1219,28.71,-4.40538
770,-195,28.673,4.16174,0.0335213,0.0104263,-0.0135867,0.0398048,0.00414278,-0.433177,0.025269,0.0297773,1994,1219,28.6729,-4.1618
777,-195,30.2308,3.98267,0.0467292,0.0153038,-0.0199911,0.0564436,0.00558946,-0.45233,0.0359112,0.0498283,2001,1219,30.2308,-3.98264
784,-195,31.5808,3.77222,0,0,0,0,0,0,0,-1,2008,1219,31.5808,-3.77217
791,-195,32.6029,3.44995,0,0,0,0,0,0,0,-1,2015,1219,32.6029,-3.44999
798,-195,31.2837,3.00916,0,0,0,0,0,0,0,-1,2022,1219,31.2836,-3.00916
805,-195,0,0,0,0,0,0,0,0,0,-1,2029,1219,0,0
812,-195,0,0,0,0,0,0,0,0,0,-1,2036,1219,0,0
-700,-202,0,0,0,0,0,0,0,0,0,-1,524,1226,0,0
-693,-202,0,0,0,0,0,0,0,0,0,-1,531,1226,0,0
-686,-202,0,0,0,0,0,0,0,0,0,-1,538,1226,0,0
-679,-202,-8.40161,-1.54016,0,0,0,0,0,0,0,-1,545,1226,-8.4016,1.5402
-672,-202,-18.2175,-0.33728,-0.0132568,0.0597018,0.0499031,0.0850372,-0.0385922,1.10101,0.0730372,0.0460941,552,1226,-18.2175,0.337221
-665,-202,-18.2747,0.27832,-0.0113097,0.051788,0.0417586,0.0725757,-0.0320974,1.10891,0.061921,0.0471512,559,1226,-18.2747,-0.278337
-658,-202,-18.3242,0.744019,-0.00869928,0.0434044,0.033742,0.0599815,-0.0252763,1.11414,0.0505647,0.0472827,566,1226,-18.3242,-0.744011
-651,-202,-18.3942,0.877808,-0.00600627,0.0351804,0.0263208,0.0480067,-0.0188325,1.11736,0.0397961,0.0479246,573,1226,-18.3942,-0.877826
-644,-202,-18.0663,1.15222,-0.00360495,0.0275345,0.0197577,0.03712,-0.0131904,1.1191,0.0301221,0.0446891,580,1226,-18.0663,-1.15217
-637,-202,-18.0661,1.48889,-0.0017299,0.0207186,0.0141643,0.0275667,-0.00857805,1.12045,0.021807,0.0323225,587,1226,-18.0661,-1.48888
-630,-202,-18.1998,1.72131,-0.000868788,0.0150221,0.00997049,0.0198258,-0.00567248,1.12182,0.0154589,0.0135723,594,1226,-18.1998,-1.72127
-623,-202,-18.2285,2.0321,-0.000680684,0.010176,0.00590621,0.0127695,-0.0032742,1.15703,0.00978868,0.00793103,601,1226,-18.2285,-2.03207
-616,-202,-18.2344,2.35718,-8.03648e-05,0.00614363,0.00250871,0.0070289,-0.000965633,1.23156,0.00503875,0.00848369,608,1226,-18.2344,-2.35717
-609,-202,-18.2319,2.68164,0.000313823,0.00222794,-0.000227373,0.00225458,0.000287184,-1.45417,0.00141706,0.0219032,615,1226,-18.2319,-2.68161
-602,-202,-18.281,2.94775,-0.000264957,0.00082426,-0.000748881,0.00120562,-0.000646318,-1.09978,0.00108535,0.0215435,622,1226,-18.281,-2.94779
-595,-202,-18.282,3.30884,-0.00145627,0.000753435,-0.000839337,0.00103609,-0.00173892,-1.24596,0.0016192,0.0153199,629,1226,-18.2821,-3.30881
-588,-202,-18.2504,3.64746,-0.00247448,0.000879565,-0.000797067,0.00105935,-0.00265426,-1.34896,0.00220898,0.00911502,636,1226,-18.2505,-3.64749
-581,-202,-18.2381,3.83521,-0.00300513,0.00104628,-0.000757354,0.00118323,-0.00314208,-1.39191,0.00258117,0.0281733,643,1226,-18.2381,-3.83526
-574,-202,-18.5248,3.88794,-0.00320864,0.00149789,-0.000440101,0.00153869,-0.00324944,-1.47836,0.00282263,0.0379464,650,1226,-18.5248,-3.88799
-567,-202,-18.7733,3.99084,0,0,0,0,0,0,0,-1,657,1226,-18.7733,-3.99079
-560,-202,-10.929,2.73096,0,0,0,0,0,0,0,-1,664,1226,-10.929,-2.73092
-553,-202,-23.6953,-0.0224609,0,0,0,0,0,0,0,-1,671,1226,-23.6952,0.0225081
-546,-202,-23.7762,0.25,-0.0034093,0.0045358,0.00109028,0.0046827,-0.0035562,1.43687,0.00477153,0.0483456,678,1226,-23.7763,-0.249957
-539,-202,-24.0441,0.743164,-0.00337116,0.00518311,0.00146799,0.00542802,-0.00361607,1.40549,0.00525642,0.0397768,685,1226,-24.0441,-0.743133
-532,-202,-24.1647,0.821899,-0.00316737,0.00581429,0.00177242,0.00615141,-0.00350448,1.38284,0.00564422,0.029638,692,1226,-24.1647,-0.821936
-525,-202,-24.1526,0.793457,-0.00224676,0.00641518,0.00183545,0.00678806,-0.00261964,1.37037,0.00560645,0.0369573,699,1226,-24.1526,-0.793469
-518,-202,-24.1188,0.911133,-0.0001953,0.00699503,0.00102657,0.00713872,-0.000338993,1.43173,0.00487607,0.0424246,706,1226,-24.1188,-0.911121
-511,-202,-24.0106,0.889526,0.00563327,0.00839445,-0.000183717,0.00840662,0.0056211,-1.50465,0.00494474,0.041628,713,1226,-24.0106,-0.889552
-504,-202,0,0,0,0,0,0,0,0,0,-1,720,1226,0,0
-497,-202,0,0,0,0,0,0,0,0,0,-1,727,1226,0,0
-490,-202,0,0,0,0,0,0,0,0,0,-1,734,1226,0,0
-483,-202,0,0,0,0,0,0,0,0,0,-1,741,1226,0,0
-476,-202,0,0,0,0,0,0,0,0,0,-1,748,1226,0,0
-469,-202,0,0,0,0,0,0,0,0,0,-1,755,1226,0,0
-462,-202,0,0,0,0,0,0,0,0,0,-1,762,1226,0,0
-455,-202,0,0,0,0,0,0,0,0,0,-1,769,1226,0,0
-448,-202,0,0,0,0,0,0,0,0,0,-1,776,1226,0,0
-441,-202,0,0,0,0,0,0,0,0,0,-1,783,1226,0,0
-434,-202,0,0,0,0,0,0,0,0,0,-1,790,1226,0,0
-427,-202,0,0,0,0,0,0,0,0,0,-1,797,1226,0,0
-420,-202,0,0,0,0,0,0,0,0,0,-1,804,1226,0,0
-413,-202,0,0,0,0,0,0,0,0,0,-1,811,1226,0,0
-406,-202,0,0,0,0,0,0,0,0,0,-1,818,1226,0,0
-399,-202,0,0,0,0,0,0,0,0,0,-1,825,1226,0,0
-392,-202,0,0,0,0,0,0,0,0,0,-1,832,1226,0,0
-385,-202,0,0,0,0,0,0,0,0,0,-1,839,1226,0,0
-378,-202,0,0,0,0,0,0,0,0,0,-1,846,1226,0,0
-371,-202,0,0,0,0,0,0,0,0,0,-1,853,1226,0,0
-364,-202,0,0,0,0,0,0,0,0,0,-1,860,1226,0,0
-357,-202,0,0,0,0,0,0,0,0,0,-1,867,1226,0,0
-350,-202,0,0,0,0,0,0,0,0,0,-1,874,1226,0,0
-343,-202,0,0,0,0,0,0,0,0,0,-1,881,1226,0,0
-336,-202,0,0,0,0,0,0,0,0,0,-1,888,1226,0,0
-329,-202,0,0,0,0,0,0,0,0,0,-1,895,1226,0,0
-322,-202,0,0,0,0,0,0,0,0,0,-1,902,1226,0,0
-315,-202,0,0,0,0,0,0,0,0,0,-1,909,1226,0,0
-308,-202,0,0,0,0,0,0,0,0,0,-1,916,1226,0,0
-301,-202,0,0,0,0,0,0,0,0,0,-1,923,1226,0,0
-294,-202,0,0,0,0,0,0,0,0,0,-1,930,1226,0,0
-287,-202,0,0,0,0,0,0,0,0,0,-1,937,1226,0,0
-280,-202,0,0,0,0,0,0,0,0,0,-1,944,1226,0,0
-273,-202,0,0,0,0,0,0,0,0,0,-1,951,1226,0,0
-266,-202,0,0,0,0,0,0,0,0,0,-1,958,1226,0,0
-259,-202,0,0,0,0,0,0,0,0,0,-1,965,1226,0,0
-252,-202,0,0,0,0,0,0,0,0,0,-1,972,1226,0,0
-245,-202,0,0,0,0,0,0,0,0,0,-1,979,1226,0,0
-238,-202,0,0,0,0,0,0,0,0,0,-1,986,1226,0,0
-231,-202,0,0,0,0,0,0,0,0,0,-1,993,1226,0,0
-224,-202,0,0,0,0,0,0,0,0,0,-1,1000,1226,0,0
-217,-202,0,0,0,0,0,0,0,0,0,-1,1007,1226,0,0
-210,-202,0,0,0,0,0,0,0,0,0,-1,1014,1226,0,0
-203,-202,0,0,0,0,0,0,0,0,0,-1,1021,1226,0,0
-196,-202,0,0,0,0,0,0,0,0,0,-1,1028,1226,0,0
-189,-202,0,0,0,0,0,0,0,0,0,-1,1035,1226,0,0
-182,-202,0,0,0,0,0,0,0,0,0,-1,1042,1226,0,0
-175,-202,0,0,0,0,0,0,0,0,0,-1,1049,1226,0,0
-168,-202,0,0,0,0,0,0,0,0,0,-1,1056,1226,0,0
-161,-202,0,0,0,0,0,0,0,0,0,-1,1063,1226,0,0
-154,-202,0,0,0,0,0,0,0,0,0,-1,1070,1226,0,0
-147,-202,0,0,0,0,0,0,0,0,0,-1,1077,1226,0,0
-140,-202,0,0,0,0,0,0,0,0,0,-1,1084,1226,0,0
-133,-202,0,0,0,0,0,0,0,0,0,-1,1091,1226,0,0
-126,-202,0,0,0,0,0,0,0,0,0,-1,1098,1226,0,0
-119,-202,0,0,0,0,0,0,0,0,0,-1,1105,1226,0,0
-112,-202,0,0,0,0,0,0,0,0,0,-1,1112,1226,0,0
-105,-202,0,0,0,0,0,0,0,0,0,-1,1119,1226,0,0
-98,-202,0,0,0,0,0,0,0,0,0,-1,1126,1226,0,0
-91,-202,0,0,0,0,0,0,0,0,0,-1,1133,1226,0,0
-84,-202,0,0,0,0,0,0,0,0,0,-1,1140,1226,0,0
-77,-202,0,0,0,0,0,0,0,0,0,-1,1147,1226,0,0
-70,-202,0,0,0,0,0,0,0,0,0,-1,1154,1226,0,0
-63,-202,0,0,0,0,0,0,0,0,0,-1,1161,1226,0,0
-56,-202,0,0,0,0,0,0,0,0,0,-1,1168,1226,0,0
-49,-202,0,0,0,0,0,0,0,0,0,-1,1175,1226,0,0
-42,-202,0,0,0,0,0,0,0,0,0,-1,1182,1226,0,0
-35,-202,0,0,0,0,0,0,0,0,0,-1,1189,1226,0,0
-28,-202,0,0,0,0,0,0,0,0,0,-1,1196,1226,0,0
-21,-202,0,0,0,0,0,0,0,0,0,-1,1203,1226,0,0
-14,-202,0,0,0,0,0,0,0,0,0,-1,1210,1226,0,0
-7,-202,0,0,0,0,0,0,0,0,0,-1,1217,1226,0,0
0,-202,0,0,0,0,0,0,0,0,0,-1,1224,1226,0,0
7,-202,0,0,0,0,0,0,0,0,0,-1,1231,1226,0,0
14,-202,0,0,0,0,0,0,0,0,0,-1,1238,1226,0,0
21,-202,0,0,0,0,0,0,0,0,0,-1,1245,1226,0,0
28,-202,0,0,0,0,0,0,0,0,0,-1,1252,1226,0,0
35,-202,0,0,0,0,0,0,0,0,0,-1,1259,1226,0,0
42,-202,0,0,0,0,0,0,0,0,0,-1,1266,1226,0,0
49,-202,0,0,0,0,0,0,0,0,0,-1,1273,1226,0,0
56,-202,0,0,0,0,0,0,0,0,0,-1,1280,1226,0,0
63,-202,0,0,0,0,0,0,0,0,0,-1,1287,1226,0,0
70,-202,0,0,0,0,0,0,0,0,0,-1,1294,1226,0,0
77,-202,0,0,0,0,0,0,0,0,0,-1,1301,1226,0,0
84,-202,0,0,0,0,0,0,0,0,0,-1,1308,1226,0,0
91,-202,0,0,0,0,0,0,0,0,0,-1,1315,1226,0,0
98,-202,0,0,0,0,0,0,0,0,0,-1,1322,1226,0,0
105,-202,0,0,0,0,0,0,0,0,0,-1,1329,1226,0,0
112,-202,0,0,0,0,0,0,0,0,0,-1,1336,1226,0,0
119,-202,0,0,0,0,0,0,0,0,0,-1,1343,1226,0,0
126,-202,0,0,0,0,0,0,0,0,0,-1,1350,1226,0,0
133,-202,0,0,0,0,0,0,0,0,0,-1,1357,1226,0,0
140,-202,0,0,0,0,0,0,0,0,0,-1,1364,1226,0,0
147,-202,0,0,0,0,0,0,0,0,0,-1,1371,1226,0,0
154,-202,0,0,0,0,0,0,0,0,0,-1,1378,1226,0,0
161,-202,0,0,0,0,0,0,0,0,0,-1,1385,1226,0,0
168,-202,0,0,0,0,0,0,0,0,0,-1,1392,1226,0,0
175,-202,0,0,0,0,0,0,0,0,0,-1,1399,1226,0,0
182,-202,0,0,0,0,0,0,0,0,0,-1,1406,1226,0,0
189,-202,0,0,0,0,0,0,0,0,0,-1,1413,1226,0,0
196,-202,0,0,0,0,0,0,0,0,0,-1,1420,1226,0,0
203,-202,0,0,0,0,0,0,0,0,0,-1,1427,1226,0,0
210,-202,0,0,0,0,0,0,0,0,0,-1,1434,1226,0,0
217,-202,0,0,0,0,0,0,0,0,0,-1,1441,1226,0,0
224,-202,0,0,0,0,0,0,0,0,0,-1,1448,1226,0,0
231,-202,0,0,0,0,0,0,0,0,0,-1,1455,1226,0,0
238,-202,0,0,0,0,0,0,0,0,0,-1,1462,1226,0,0
245,-202,0,0,0,0,0,0,0,0,0,-1,1469,1226,0,0
252,-202,0,0,0,0,0,0,0,0,0,-1,1476,1226,0,0
259,-202,0,0,0,0,0,0,0,0,0,-1,1483,1226,0,0
266,-202,0,0,0,0,0,0,0,0,0,-1,1490,1226,0,0
273,-202,0,0,0,0,0,0,0,0,0,-1,1497,1226,0,0
280,-202,0,0,0,0,0,0,0,0,0,-1,1504,1226,0,0
287,-202,0,0,0,0,0,0,0,0,0,-1,1511,1226,0,0
294,-202,0,0,0,0,0,0,0,0,0,-1,1518,1226,0,0
301,-202,0,0,0,0,0,0,0,0,0,-1,1525,1226,0,0
308,-202,0,0,0,0,0,0,0,0,0,-1,1532,1226,0,0
315,-202,0,0,0,0,0,0,0,0,0,-1,1539,1226,0,0
322,-202,0,0,0,0,0,0,0,0,0,-1,1546,1226,0,0
329,-202,0,0,0,0,0,0,0,0,0,-1,1553,1226,0,0
336,-202,0,0,0,0,0,0,0,0,0,-1,1560,1226,0,0
343,-202,0,0,0,0,0,0,0,0,0,-1,1567,1226,0,0
350,-202,0,0,0,0,0,0,0,0,0,-1,1574,1226,0,0
357,-202,0,0,0,0,0,0,0,0,0,-1,1581,1226,0,0
364,-202,0,0,0,0,0,0,0,0,0,-1,1588,1226,0,0
371,-202,0,0,0,0,0,0,0,0,0,-1,1595,1226,0,0
378,-202,0,0,0,0,0,0,0,0,0,-1,1602,1226,0,0
385,-202,0,0,0,0,0,0,0,0,0,-1,1609,1226,0,0
392,-202,0,0,0,0,0,0,0,0,0,-1,1616,1226,0,0
399,-202,0,0,0,0,0,0,0,0,0,-1,1623,1226,0,0
406,-202,0,0,0,0,0,0,0,0,0,-1,1630,1226,0,0
413,-202,0,0,0,0,0,0,0,0,0,-1,1637,1226,0,0
420,-202,0,0,0,0,0,0,0,0,0,-1,1644,1226,0,0
427,-202,0,0,0,0,0,0,0,0,0,-1,1651,1226,0,0
434,-202,0,0,0,0,0,0,0,0,0,-1,1658,1226,0,0
441,-202,0,0,0,0,0,0,0,0,0,-1,1665,1226,0,0
448,-202,0,0,0,0,0,0,0,0,0,-1,1672,1226,0,0
455,-202,0,0,0,0,0,0,0,0,0,-1,1679,1226,0,0
462,-202,0,0,0,0,0,0,0,0,0,-1,1686,1226,0,0
469,-202,0,0,0,0,0,0,0,0,0,-1,1693,1226,0,0
476,-202,0,0,0,0,0,0,0,0,0,-1,1700,1226,0,0
483,-202,0,0,0,0,0,0,0,0,0,-1,1707,1226,0,0
490,-202,0,0,0,0,0,0,0,0,0,-1,1714,1226,0,0
497,-202,0,0,0,0,0,0,0,0,0,-1,1721,1226,0,0
504,-202,0,0,0,0,0,0,0,0,0,-1,1728,1226,0,0
511,-202,0,0,0,0,0,0,0,0,0,-1,1735,1226,0,0
518,-202,0,0,0,0,0,0,0,0,0,-1,1742,1226,0,0
525,-202,0,0,0,0,0,0,0,0,0,-1,1749,1226,0,0
532,-202,0,0,0,0,0,0,0,0,0,-1,1756,1226,0,0
539,-202,0,0,0,0,0,0,0,0,0,-1,1763,1226,0,0
546,-202,0,0,0,0,0,0,0,0,0,-1,1770,1226,0,0
553,-202,0,0,0,0,0,0,0,0,0,-1,1777,1226,0,0
560,-202,0,0,0,0,0,0,0,0,0,-1,1784,1226,0,0
567,-202,0,0,0,0,0,0,0,0,0,-1,1791,1226,0,0
574,-202,0,0,0,0,0,0,0,0,0,-1,1798,1226,0,0
581,-202,0,0,0,0,0,0,0,0,0,-1,1805,1226,0,0
588,-202,0,0,0,0,0,0,0,0,0,-1,1812,1226,0,0
595,-202,0,0,0,0,0,0,0,0,0,-1,1819,1226,0,0
602,-202,0,0,0,0,0,0,0,0,0,-1,1826,1226,0,0
609,-202,0,0,0,0,0,0,0,0,0,-1,1833,1226,0,0
616,-202,0,0,0,0,0,0,0,0,0,-1,1840,1226,0,0
623,-202,0,0,0,0,0,0,0,0,0,-1,1847,1226,0,0
630,-202,34.0114,2.58826,0.00394857,-0.00181977,0.00221383,0.00470026,-0.00257146,0.327329,0.00425788,0.0367975,1854,1226,34.0114,-2.5883
637,-202,34.1034,2.74878,0.0010279,-0.000678722,0.000674094,0.00126203,-0.000912859,0.3343,0.00126106,0.0325612,1861,1226,34.1034,-2.74882
644,-202,34.0573,2.79126,-0.00159066,0.000468658,-0.000804025,0.000745388,-0.00186739,-1.23931,0.00155416,0.0311341,1868,1226,34.0572,-2.79121
651,-202,34.0272,2.71045,-0.003217,0.00132229,-0.00193756,0.00203684,-0.00393155,-1.21748,0.00350325,0.0264696,1875,1226,34.0273,-2.71048
658,-202,34.02,2.7074,-0.00377175,0.00162311,-0.00249024,0.00259684,-0.00474548,-1.19806,0.00429917,0.0215501,1882,1226,34.0201,-2.70741
665,-202,34.0203,2.66846,-0.00379646,0.00164518,-0.00257947,0.00267356,-0.00482485,-1.19143,0.0043882,0.0197149,1889,1226,34.0202,-2.66846
672,-202,34.0625,2.62561,-0.00375773,0.00132501,-0.00230719,0.00221609,-0.0046488,-1.20223,0.00404555,0.039153,1896,1226,34.0625,-2.62562
679,-202,34.0558,2.17957,-0.00357117,0.00107002,-0.00188037,0.00173623,-0.00423737,-1.2303,0.0035482,0.0446029,1903,1226,34.0558,-2.17951
686,-202,34.0468,1.76697,0,0,0,0,0,0,0,-1,1910,1226,34.0468,-1.76692
693,-202,28.261,7.35815,0,0,0,0,0,0,0,-1,1917,1226,28.261,-7.35819
700,-202,28.3167,6.98364,-0.0031411,0.000134662,-0.000722748,0.000287038,-0.00329347,-1.36301,0.00229731,0.042289,1924,1226,28.3166,-6.98362
707,-202,28.3971,6.57385,-0.00266985,-0.000172767,-0.000187567,-0.000158757,-0.00268386,-1.49624,0.00173874,0.0336667,1931,1226,28.3972,-6.57381
714,-202,28.4196,6.27002,-0.00230708,-0.000382465,0.000372844,-0.000312761,-0.00237678,1.38598,0.00149124,0.0196796,1938,1226,28.4196,-6.27005
721,-202,28.4406,6.03088,-0.00137483,-0.000637568,0.00111925,0.000172199,-0.00218459,0.94448,0.00151706,0.0129989,1945,1226,28.4406,-6.0309
728,-202,28.4332,5.77905,0.000222758,-0.00117019,0.00122895,0.00093887,-0.0018863,0.527603,0.00166141,0.0102634,1952,1226,28.4332,-5.77903
735,-202,28.4117,5.50085,0.00205245,-0.000894462,0.00128609,0.00253478,-0.00137679,0.358802,0.0022911,0.0101104,1959,1226,28.4118,-5.50087
742,-202,28.408,5.2218,0.00544376,0.000689339,-3.06196e-05,0.00544395,0.000689142,-0.00643988,0.00342279,0.00978283,1966,1226,28.408,-5.22182
749,-202,28.3884,4.95056,0.0104805,0.0021469,-0.00184081,0.010869,0.00175839,-0.207999,0.00673678,0.0109947,1973,1226,28.3884,-4.95052
756,-202,28.4086,4.68201,0.01738,0.00389828,-0.00413522,0.0185473,0.00273096,-0.275128,0.0115625,0.0122952,1980,1226,28.4086,-4.68199
763,-202,28.4287,4.42188,0.0264649,0.0064112,-0.00736831,0.0288812,0.00399499,-0.316869,0.0180702,0.0184934,1987,1226,28.4287,-4.42186
770,-202,28.364,4.24768,0.0384235,0.0100193,-0.0118309,0.0427057,0.00573712,-0.347283,0.0267638,0.0445036,1994,1226,28.364,-4.24771
777,-202,28.317,4.05994,0,0,0,0,0,0,0,-1,2001,1226,28.317,-4.05998
784,-202,31.9677,3.56885,0,0,0,0,0,0,0,-1,2008,1226,31.9677,-3.56884
791,-202,32.0925,1.91309,0,0,0,0,0,0,0,-1,2015,1226,32.0926,-1.91306
798,-202,32.2556,3.56335,0,0,0,0,0,0,0,-1,2022,1226,32.2556,-3.56332
805,-202,0,0,0,0,0,0,0,0,0,-1,2029,1226,0,0
812,-202,0,0,0,0,0,0,0,0,0,-1,2036,1226,0,0
-700,-209,0,0,0,0,0,0,0,0,0,-1,524,1233,0,0
-693,-209,0,0,0,0,0,0,0,0,0,-1,531,1233,0,0
-686,-209,0,0,0,0,0,0,0,0,0,-1,538,1233,0,0
-679,-209,-18.8015,-0.922363,-0.0339362,0.0754783,0.0637792,0.104799,-0.0632567,1.13989,0.0980101,0.0443838,545,1233,-18.8015,0.922305
-672,-209,-18.8149,-0.106567,-0.030086,0.06759,0.055197,0.0924531,-0.0549492,1.14757,0.086016,0.048738,552,1233,-18.8149,0.106622
-665,-209,-18.8314,0.717529,-0.0240641,0.0581259,0.0460376,0.078742,-0.0446802,1.14977,0.0721567,0.0455349,559,1233,-18.8314,-0.717503
-658,-209,-19.1845,0.561035,-0.0178198,0.04836,0.0371743,0.0650382,-0.0344981,1.14907,0.058362,0.04913,566,1233,-19.1845,-0.560981
-651,-209,-17.753,0.666138,0,0,0,0,0,0,0,-1,573,1233,-17.753,-0.666103
-644,-209,-17.688,1.04541,-0.00742798,0.0302963,0.0217791,0.0402457,-0.0173774,1.14227,0.0341309,0.0494533,580,1233,-17.688,-1.04547
-637,-209,-17.7438,1.30408,-0.00385703,0.0226934,0.0156283,0.0299236,-0.0110873,1.13748,0.024496,0.0426297,587,1233,-17.7438,-1.30409
-630,-209,-17.82,1.65234,-0.00182108,0.0163486,0.0109077,0.0214592,-0.00693176,1.13263,0.0170919,0.0226719,594,1233,-17.82,-1.65231
-623,-209,-17.8898,2.02722,-0.000800139,0.0111177,0.00654663,0.0140113,-0.00369373,1.15462,0.0107851,0.0117686,601,1233,-17.8898,-2.02717
-616,-209,-17.9049,2.37573,0.000609552,0.00671374,0.00301307,0.00795046,-0.000627164,1.18131,0.00552125,0.0120621,608,1233,-17.9049,-2.37579
-609,-209,-17.9,2.67871,0.00139302,0.00255524,0.000105126,0.00256467,0.00138358,1.48131,0.00148225,0.0143191,615,1233,-17.9,-2.67876
-602,-209,-17.9141,2.99792,0.000804267,0.00100893,-0.00047908,0.00139649,0.000416713,-0.890619,0.000827821,0.0160463,622,1233,-17.9141,-2.99796
-595,-209,-17.9174,3.32813,-0.00039319,0.000756279,-0.000548161,0.000975774,-0.000612685,-1.18993,0.000925049,0.0115233,629,1233,-17.9174,-3.32819
-588,-209,-17.902,3.66699,-0.00141807,0.000779057,-0.000393267,0.000847327,-0.00148634,-1.39891,0.00136408,0.0132798,636,1233,-17.902,-3.66702
-581,-209,-17.7767,4.01404,-0.00199084,0.000860224,-0.000200383,0.000874239,-0.00200485,-1.50097,0.00170443,0.027717,643,1233,-17.7768,-4.01407
-574,-209,-18.0043,4.26929,-0.00222721,0.00125499,0.000226871,0.00126971,-0.00224193,1.50601,0.00205318,0.0340163,650,1233,-18.0043,-4.26927
-567,-209,-18.1868,4.38306,0,0,0,0,0,0,0,-1,657,1233,-18.1868,-4.38305
-560,-209,-13.9294,4.16626,0,0,0,0,0,0,0,-1,664,1233,-13.9294,-4.16621
-553,-209,-22.7542,0.748779,0,0,0,0,0,0,0,-1,671,1233,-22.7541,-0.748796
-546,-209,-23.6047,0.00512695,0,0,0,0,0,0,0,-1,678,1233,-23.6047,-0.00515113
-539,-209,-24.016,0.69519,-0.00346258,0.00420868,0.00267456,0.00504908,-0.00430298,1.26634,0.00540514,0.0382826,685,1233,-24.016,-0.695206
-532,-209,-24.0877,0.875488,-0.00385847,0.00453551,0.00310461,0.005559,-0.00488195,1.25235,0.00603231,0.0323179,692,1233,-24.0877,-0.875526
-525,-209,-24.1845,0.965942,-0.00382404,0.00471498,0.00337153,0.00588568,-0.00499474,1.23659,0.00628883,0.0356357,699,1233,-24.1845,-0.965979
-518,-209,-24.1208,0.838379,-0.00302709,0.00463491,0.00301246,0.00567746,-0.00406964,1.23762,0.00565295,0.0435731,706,1233,-24.1209,-0.838338
-511,-209,-24.1808,0.768921,0.00132481,0.00476536,0.00193561,0.00563467,0.000455509,1.14868,0.00361419,0.0441645,713,1233,-24.1808,-0.768953
-504,-209,0,0,0,0,0,0,0,0,0,-1,720,1233,0,0
-497,-209,0,0,0,0,0,0,0,0,0,-1,727,1233,0,0
-490,-209,0,0,0,0,0,0,0,0,0,-1,734,1233,0,0
-483,-209,0,0,0,0,0,0,0,0,0,-1,741,1233,0,0
-476,-209,0,0,0,0,0,0,0,0,0,-1,748,1233,0,0
-469,-209,0,0,0,0,0,0,0,0,0,-1,755,1233,0,0
-462,-209,0,0,0,0,0,0,0,0,0,-1,762,1233,0,0
-455,-209,0,0,0,0,0,0,0,0,0,-1,769,1233,0,0
-448,-209,0,0,0,0,0,0,0,0,0,-1,776,1233,0,0
-441,-209,0,0,0,0,0,0,0,0,0,-1,783,1233,0,0
-434,-209,0,0,0,0,0,0,0,0,0,-1,790,1233,0,0
-427,-209,0,0,0,0,0,0,0,0,0,-1,797,1233,0,0
-420,-209,0,0,0,0,0,0,0,0,0,-1,804,1233,0,0
-413,-209,0,0,0,0,0,0,0,0,0,-1,811,1233,0,0
-406,-209,0,0,0,0,0,0,0,0,0,-1,818,1233,0,0
-399,-209,0,0,0,0,0,0,0,0,0,-1,825,1233,0,0
-392,-209,0,0,0,0,0,0,0,0,0,-1,832,1233,0,0
-385,-209,0,0,0,0,0,0,0,0,0,-1,839,1233,0,0
-378,-209,0,0,0,0,0,0,0,0,0,-1,846,1233,0,0
-371,-209,0,0,0,0,0,0,0,0,0,-1,853,1233,0,0
-364,-209,0,0,0,0,0,0,0,0,0,-1,860,1233,0,0
-357,-209,0,0,0,0,0,0,0,0,0,-1,867,1233,0,0
-350,-209,0,0,0,0,0,0,0,0,0,-1,874,1233,0,0
-343,-209,0,0,0,0,0,0,0,0,0,-1,881,1233,0,0
-336,-209,0,0,0,0,0,0,0,0,0,-1,888,1233,0,0
-329,-209,0,0,0,0,0,0,0,0,0,-1,895,1233,0,0
-322,-209,0,0,0,0,0,0,0,0,0,-1,902,1233,0,0
-315,-209,0,0,0,0,0,0,0,0,0,-1,909,1233,0,0
-308,-209,0,0,0,0,0,0,0,0,0,-1,916,1233,0,0
-301,-209,0,0,0,0,0,0,0,0,0,-1,923,1233,0,0
-294,-209,0,0,0,0,0,0,0,0,0,-1,930,1233,0,0
-287,-209,0,0,0,0,0,0,0,0,0,-1,937,1233,0,0
-280,-209,0,0,0,0,0,0,0,0,0,-1,944,1233,0,0
-273,-209,0,0,0,0,0,0,0,0,0,-1,951,1233,0,0
-266,-209,0,0,0,0,0,0,0,0,0,-1,958,1233,0,0
-259,-209,0,0,0,0,0,0,0,0,0,-1,965,1233,0,0
-252,-209,0,0,0,0,0,0,0,0,0,-1,972,1233,0,0
-245,-209,0,0,0,0,0,0,0,0,0,-1,979,1233,0,0
-238,-209,0,0,0,0,0,0,0,0,0,-1,986,1233,0,0
-231,-209,0,0,0,0,0,0,0,0,0,-1,993,1233,0,0
-224,-209,0,0,0,0,0,0,0,0,0,-1,1000,1233,0,0
-217,-209,0,0,0,0,0,0,0,0,0,-1,1007,1233,0,0
-210,-209,0,0,0,0,0,0,0,0,0,-1,1014,1233,0,0
-203,-209,0,0,0,0,0,0,0,0,0,-1,1021,1233,0,0
-196,-209,0,0,0,0,0,0,0,0,0,-1,1028,1233,0,0
-189,-209,0,0,0,0,0,0,0,0,0,-1,1035,1233,0,0
-182,-209,0,0,0,0,0,0,0,0,0,-1,1042,1233,0,0
-175,-209,0,0,0,0,0,0,0,0,0,-1,1049,1233,0,0
-168,-209,0,0,0,0,0,0,0,0,0,-1,1056,1233,0,0
-161,-209,0,0,0,0,0,0,0,0,0,-1,1063,1233,0,0
-154,-209,0,0,0,0,0,0,0,0,0,-1,1070,1233,0,0
-147,-209,0,0,0,0,0,0,0,0,0,-1,1077,1233,0,0
-140,-209,0,0,0,0,0,0,0,0,0,-1,1084,1233,0,0
-133,-209,0,0,0,0,0,0,0,0,0,-1,1091,1233,0,0
-126,-209,0,0,0,0,0,0,0,0,0,-1,1098,1233,0,0
-119,-209,0,0,0,0,0,0,0,0,0,-1,1105,1233,0,0
-112,-209,0,0,0,0,0,0,0,0,0,-1,1112,1233,0,0
-105,-209,0,0,0,0,0,0,0,0,0,-1,1119,1233,0,0
-98,-209,0,0,0,0,0,0,0,0,0,-1,1126,1233,0,0
-91,-209,0,0,0,0,0,0,0,0,0,-1,1133,1233,0,0
-84,-209,0,0,0,0,0,0,0,0,0,-1,1140,1233,0,0
-77,-209,0,0,0,0,0,0,0,0,0,-1,1147,1233,0,0
-70,-209,0,0,0,0,0,0,0,0,0,-1,1154,1233,0,0
-63,-209,0,0,0,0,0,0,0,0,0,-1,1161,1233,0,0
-56,-209,0,0,0,0,0,0,0,0,0,-1,1168,1233,0,0
-49,-209,0,0,0,0,0,0,0,0,0,-1,1175,1233,0,0
-42,-209,0,0,0,0,0,0,0,0,0,-1,1182,1233,0,0
-35,-209,0,0,0,0,0,0,0,0,0,-1,1189,1233,0,0
-28,-209,0,0,0,0,0,0,0,0,0,-1,1196,1233,0,0
-21,-209,0,0,0,0,0,0,0,0,0,-1,1203,1233,0,0
-14,-209,0,0,0,0,0,0,0,0,0,-1,1210,1233,0,0
-7,-209,0,0,0,0,0,0,0,0,0,-1,1217,1233,0,0
0,-209,0,0,0,0,0,0,0,0,0,-1,1224,1233,0,0
7,-209,0,0,0,0,0,0,0,0,0,-1,1231,1233,0,0
14,-209,0,0,0,0,0,0,0,0,0,-1,1238,1233,0,0
21,-209,0,0,0,0,0,0,0,0,0,-1,1245,1233,0,0
28,-209,0,0,0,0,0,0,0,0,0,-1,1252,1233,0,0
35,-209,0,0,0,0,0,0,0,0,0,-1,1259,1233,0,0
42,-209,0,0,0,0,0,0,0,0,0,-1,1266,1233,0,0
49,-209,0,0,0,0,0,0,0,0,0,-1,1273,1233,0,0
56,-209,0,0,0,0,0,0,0,0,0,-1,1280,1233,0,0
63,-209,0,0,0,0,0,0,0,0,0,-1,1287,1233,0,0
70,-209,0,0,0,0,0,0,0,0,0,-1,1294,1233,0,0
77,-209,0,0,0,0,0,0,0,0,0,-1,1301,1233,0,0
84,-209,0,0,0,0,0,0,0,0,0,-1,1308,1233,0,0
91,-209,0,0,0,0,0,0,0,0,0,-1,1315,1233,0,0
98,-209,0,0,0,0,0,0,0,0,0,-1,1322,1233,0,0
105,-209,0,0,0,0,0,0,0,0,0,-1,1329,1233,0,0
112,-209,0,0,0,0,0,0,0,0,0,-1,1336,1233,0,0
119,-209,0,0,0,0,0,0,0,0,0,-1,1343,1233,0,0
126,-209,0,0,0,0,0,0,0,0,0,-1,1350,1233,0,0
133,-209,0,0,0,0,0,0,0,0,0,-1,1357,1233,0,0
140,-209,0,0,0,0,0,0,0,0,0,-1,1364,1233,0,0
147,-209,0,0,0,0,0,0,0,0,0,-1,1371,1233,0,0
154,-209,0,0,0,0,0,0,0,0,0,-1,1378,1233,0,0
161,-209,0,0,0,0,0,0,0,0,0,-1,1385,1233,0,0
168,-209,0,0,0,0,0,0,0,0,0,-1,1392,1233,0,0
175,-209,0,0,0,0,0,0,0,0,0,-1,1399,1233,0,0
182,-209,0,0,0,0,0,0,0,0,0,-1,1406,1233,0,0
189,-209,0,0,0,0,0,0,0,0,0,-1,1413,1233,0,0
196,-209,0,0,0,0,0,0,0,0,0,-1,1420,1233,0,0
203,-209,0,0,0,0,0,0,0,0,0,-1,1427,1233,0,0
210,-209,0,0,0,0,0,0,0,0,0,-1,1434,1233,0,0
217,-209,0,0,0,0,0,0,0,0,0,-1,1441,1233,0,0
224,-209,0,0,0,0,0,0,0,0,0,-1,1448,1233,0,0
231,-209,0,0,0,0,0,0,0,0,0,-1,1455,1233,0,0
238,-209,0,0,0,0,0,0,0,0,0,-1,1462,1233,0,0
245,-209,0,0,0,0,0,0,0,0,0,-1,1469,1233,0,0
252,-209,0,0,0,0,0,0,0,0,0,-1,1476,1233,0,0
259,-209,0,0,0,0,0,0,0,0,0,-1,1483,1233,0,0
266,-209,0,0,0,0,0,0,0,0,0,-1,1490,1233,0,0
273,-209,0,0,0,0,0,0,0,0,0,-1,1497,1233,0,0
280,-209,0,0,0,0,0,0,0,0,0,-1,1504,1233,0,0
287,-209,0,0,0,0,0,0,0,0,0,-1,1511,1233,0,0
294,-209,0,0,0,0,0,0,0,0,0,-1,1518,1233,0,0
301,-209,0,0,0,0,0,0,0,0,0,-1,1525,1233,0,0
308,-209,0,0,0,0,0,0,0,0,0,-1,1532,1233,0,0
315,-209,0,0,0,0,0,0,0,0,0,-1,1539,1233,0,0
322,-209,0,0,0,0,0,0,0,0,0,-1,1546,1233,0,0
329,-209,0,0,0,0,0,0,0,0,0,-1,1553,1233,0,0
336,-209,0,0,0,0,0,0,0,0,0,-1,1560,1233,0,0
343,-209,0,0,0,0,0,0,0,0,0,-1,1567,1233,0,0
350,-209,0,0,0,0,0,0,0,0,0,-1,1574,1233,0,0
357,-209,0,0,0,0,0,0,0,0,0,-1,1581,1233,0,0
364,-209,0,0,0,0,0,0,0,0,0,-1,1588,1233,0,0
371,-209,0,0,0,0,0,0,0,0,0,-1,1595,1233,0,0
378,-209,0,0,0,0,0,0,0,0,0,-1,1602,1233,0,0
385,-209,0,0,0,0,0,0,0,0,0,-1,1609,1233,0,0
392,-209,0,0,0,0,0,0,0,0,0,-1,1616,1233,0,0
399,-209,0,0,0,0,0,0,0,0,0,-1,1623,1233,0,0
406,-209,0,0,0,0,0,0,0,0,0,-1,1630,1233,0,0
413,-209,0,0,0,0,0,0,0,0,0,-1,1637,1233,0,0
420,-209,0,0,0,0,0,0,0,0,0,-1,1644,1233,0,0
427,-209,0,0,0,0,0,0,0,0,0,-1,1651,1233,0,0
434,-209,0,0,0,0,0,0,0,0,0,-1,1658,1233,0,0
441,-209,0,0,0,0,0,0,0,0,0,-1,1665,1233,0,0
448,-209,0,0,0,0,0,0,0,0,0,-1,1672,1233,0,0
455,-209,0,0,0,0,0,0,0,0,0,-1,1679,1233,0,0
462,-209,0,0,0,0,0,0,0,0,0,-1,1686,1233,0,0
469,-209,0,0,0,0,0,0,0,0,0,-1,1693,1233,0,0
476,-209,0,0,0,0,0,0,0,0,0,-1,1700,1233,0,0
483,-209,0,0,0,0,0,0,0,0,0,-1,1707,1233,0,0
490,-209,0,0,0,0,0,0,0,0,0,-1,1714,1233,0,0
497,-209,0,0,0,0,0,0,0,0,0,-1,1721,1233,0,0
504,-209,0,0,0,0,0,0,0,0,0,-1,1728,1233,0,0
511,-209,0,0,0,0,0,0,0,0,0,-1,1735,1233,0,0
518,-209,0,0,0,0,0,0,0,0,0,-1,1742,1233,0,0
525,-209,0,0,0,0,0,0,0,0,0,-1,1749,1233,0,0
532,-209,0,0,0,0,0,0,0,0,0,-1,1756,1233,0,0
539,-209,0,0,0,0,0,0,0,0,0,-1,1763,1233,0,0
546,-209,0,0,0,0,0,0,0,0,0,-1,1770,1233,0,0
553,-209,0,0,0,0,0,0,0,0,0,-1,1777,1233,0,0
560,-209,0,0,0,0,0,0,0,0,0,-1,1784,1233,0,0
567,-209,0,0,0,0,0,0,0,0,0,-1,1791,1233,0,0
574,-209,0,0,0,0,0,0,0,0,0,-1,1798,1233,0,0
581,-209,0,0,0,0,0,0,0,0,0,-1,1805,1233,0,0
588,-209,0,0,0,0,0,0,0,0,0,-1,1812,1233,0,0
595,-209,0,0,0,0,0,0,0,0,0,-1,1819,1233,0,0
602,-209,0,0,0,0,0,0,0,0,0,-1,1826,1233,0,0
609,-209,0,0,0,0,0,0,0,0,0,-1,1833,1233,0,0
616,-209,0,0,0,0,0,0,0,0,0,-1,1840,1233,0,0
623,-209,34.0282,2.70276,0.0053946,-0.00234013,0.00240496,0.00608139,-0.00302692,0.278169,0.00535634,0.0352755,1847,1233,34.0282,-2.70278
630,-209,34.0192,2.66418,0.00275601,-0.0013918,0.00168703,0.00335552,-0.00199131,0.341447,0.00312031,0.035428,1854,1233,34.0192,-2.66414
637,-209,34.0426,2.65063,-0.000164706,-0.00018092,8.11854e-05,-9.12238e-05,-0.000254402,0.735633,0.000148825,0.0343298,1861,1233,34.0426,-2.65069
644,-209,34.0073,2.66675,-0.00266129,0.000982778,-0.00134474,0.00142528,-0.0031038,-1.25289,0.00267406,0.0292722,1868,1233,34.0074,-2.66675
651,-209,33.949,2.68726,-0.0039889,0.00173914,-0.00234628,0.00257751,-0.00482727,-1.22762,0.00434042,0.0239947,1875,1233,33.949,-2.68723
658,-209,33.9794,2.69287,-0.00433038,0.00194274,-0.002768,0.00298946,-0.00537711,-1.20927,0.00489557,0.0198244,1882,1233,33.9793,-2.69292
665,-209,34.0721,2.7074,-0.00424113,0.00191332,-0.0027966,0.00299426,-0.00532207,-1.20197,0.00486373,0.0311654,1889,1233,34.0722,-2.70735
672,-209,34.1022,2.6217,-0.00409067,0.00159798,-0.00255269,0.00257549,-0.00506818,-1.20509,0.00449061,0.0447197,1896,1233,34.1021,-2.62171
679,-209,34.2478,2.66943,0,0,0,0,0,0,0,-1,1903,1233,34.2478,-2.66948
686,-209,33.3711,3.89856,0,0,0,0,0,0,0,-1,1910,1233,33.3711,-3.89855
693,-209,27.9291,7.43445,0,0,0,0,0,0,0,-1,1917,1233,27.929,-7.43449
700,-209,28.0143,7.02161,-0.00305783,0.000472013,-0.00108712,0.000779956,-0.00336578,-1.29476,0.00254401,0.0367289,1924,1233,28.0143,-7.02164
707,-209,28.1095,6.63354,-0.00243305,9.31228e-05,-0.000522618,0.000196973,-0.0025369,-1.37464,0.0017606,0.0291138,1931,1233,28.1095,-6.63353
714,-209,28.1301,6.35291,-0.00187754,-0.000154105,8.15265e-05,-0.000150257,-0.00188139,1.52363,0.00120729,0.0154307,1938,1233,28.1302,-6.35295
721,-209,28.1415,6.06409,-0.000740968,-0.000417642,0.000874783,0.000310291,-0.0014689,0.876769,0.00109742,0.0123749,1945,1233,28.1415,-6.06413
728,-209,28.163,5.79346,0.00101292,-0.000922492,0.000961523,0.00140939,-0.00131896,0.391097,0.0015755,0.0117499,1952,1233,28.163,-5.79341
735,-209,28.1382,5.52271,0.00290755,-0.000573047,0.000932343,0.00314156,-0.000807059,0.245914,0.00240889,0.0124897,1959,1233,28.1381,-5.52277
742,-209,28.1316,5.23938,0.00615951,0.000883076,-7.25765e-05,0.00616051,0.000882078,-0.0137514,0.00384684,0.0115814,1966,1233,28.1316,-5.23932
749,-209,28.1224,4.94531,0.0108462,0.0022001,-0.00143946,0.0110796,0.00196675,-0.160712,0.00682592,0.0106145,1973,1233,28.1224,-4.94534
756,-209,28.1188,4.66772,0.0174357,0.00384319,-0.00323016,0.0181642,0.00311462,-0.221841,0.0112164,0.0108853,1980,1233,28.1187,-4.66779
763,-209,28.1051,4.42578,0.0263815,0.00622844,-0.005786,0.0279246,0.00468541,-0.260618,0.0172678,0.0194647,1987,1233,28.1052,-4.42577
770,-209,28.1052,4.28259,0.0384063,0.00979886,-0.009337,0.041184,0.00702113,-0.289159,0.0254407,0.0474705,1994,1233,28.1053,-4.28255
777,-209,28.1185,4.13245,0,0,0,0,0,0,0,-1,2001,1233,28.1185,-4.13241
784,-209,33.1157,1.27417,0,0,0,0,0,0,0,-1,2008,1233,33.1157,-1.2742
791,-209,33.3862,2.44897,0,0,0,0,0,0,0,-1,2015,1233,33.3862,-2.44901
798,-209,33.571,3.74683,0,0,0,0,0,0,0,-1,2022,1233,33.5712,-3.74686
805,-209,0,0,0,0,0,0,0,0,0,-1,2029,1233,0,0
812,-209,0,0,0,0,0,0,0,0,0,-1,2036,1233,0,0
-700,-216,0,0,0,0,0,0,0,0,0,-1,524,1240,0,0
-693,-216,0,0,0,0,0,0,0,0,0,-1,531,1240,0,0
-686,-216,0,0,0,0,0,0,0,0,0,-1,538,1240,0,0
-679,-216,-19.4695,-1.13232,0,0,0,0,0,0,0,-1,545,1240,-19.4695,1.1323
-672,-216,-19.4138,0.110229,0,0,0,0,0,0,0,-1,552,1240,-19.4137,-0.110168
-665,-216,-19.8439,0.39563,0,0,0,0,0,0,0,-1,559,1240,-19.8439,-0.39559
-658,-216,-20.0454,0.384033,0,0,0,0,0,0,0,-1,566,1240,-20.0454,-0.384083
-651,-216,-18.4567,0.369507,0,0,0,0,0,0,0,-1,573,1240,-18.4567,-0.369495
-644,-216,-17.973,0.638916,-0.012279,0.0338443,0.0235214,0.0437234,-0.0221582,1.17316,0.0387101,0.0491389,580,1240,-17.973,-0.638956
-637,-216,-17.6302,1.01025,-0.00668738,0.025345,0.0170113,0.0326934,-0.0140357,1.16304,0.0276866,0.0438347,587,1240,-17.6303,-1.01026
-630,-216,-17.5318,1.54053,-0.00320393,0.0182574,0.0118994,0.0235499,-0.00849645,1.1523,0.0191703,0.0291183,594,1240,-17.5318,-1.54055
-623,-216,-17.5315,2.03162,-0.00114888,0.0124931,0.00731244,0.015672,-0.00432778,1.16072,0.0121503,0.0136199,601,1240,-17.5315,-2.03166
-616,-216,-17.5729,2.39026,0.00105105,0.00754411,0.00359416,0.00914092,-0.00054576,1.15271,0.00628377,0.0141092,608,1240,-17.5729,-2.39022
-609,-216,-17.5861,2.68018,0.0021249,0.00300169,0.000459263,0.00319821,0.00192838,1.16648,0.00185949,0.013433,615,1240,-17.5861,-2.68015
-602,-216,-17.5925,2.97253,0.00158976,0.00131961,-0.000151764,0.00165785,0.00125152,-0.421758,0.000997762,0.0125845,622,1240,-17.5925,-2.97257
-595,-216,-17.5716,3.28711,0.000501378,0.000825063,-0.000184801,0.000908872,0.00041757,-1.14503,0.000525313,0.0168403,629,1240,-17.5716,-3.28709
-588,-216,-17.5573,3.63904,-0.000449358,0.000698815,7.7453e-05,0.000704016,-0.000454559,1.50374,0.000674053,0.0198976,636,1240,-17.5573,-3.63902
-581,-216,-17.552,4.0365,-0.000987125,0.000662459,0.000433667,0.00076952,-0.00109419,1.32876,0.00108144,0.0214507,643,1240,-17.552,-4.03647
-574,-216,-17.5833,4.57739,-0.00117446,0.000955501,0.00096498,0.00132766,-0.00154662,1.20271,0.00166107,0.0346972,650,1240,-17.5833,-4.57743
-567,-216,-17.8046,5.08484,0,0,0,0,0,0,0,-1,657,1240,-17.8046,-5.08485
-560,-216,-16.5087,5.4574,0,0,0,0,0,0,0,-1,664,1240,-16.5087,-5.45746
-553,-216,-16.2355,1.22351,0,0,0,0,0,0,0,-1,671,1240,-16.2356,-1.22356
-546,-216,-24.0363,0.465332,0,0,0,0,0,0,0,-1,678,1240,-24.0363,-0.465366
-539,-216,-23.9693,0.711426,-0.00334368,0.00317557,0.003849,0.00495975,-0.00512786,1.13674,0.00582435,0.0446984,685,1240,-23.9693,-0.711402
-532,-216,-24.0141,1.02087,-0.00426864,0.00325926,0.00441129,0.00529417,-0.00630355,1.13859,0.00670439,0.0435126,692,1240,-24.0141,-1.02087
-525,-216,-24.0728,0.881104,-0.00507109,0.0030962,0.004881,0.00537654,-0.00735143,1.13374,0.00737793,0.0419428,699,1240,-24.0728,-0.881137
-518,-216,-24.093,0.805908,-0.0055945,0.00250014,0.00494238,0.00484093,-0.00793529,1.12848,0.00744812,0.0424911,706,1240,-24.093,-0.805908
-511,-216,-24.1399,0.842529,-0.00351657,0.00131906,0.00420552,0.00375225,-0.00594976,1.04628,0.00564915,0.0447576,713,1240,-24.1399,-0.842578
-504,-216,-24.0294,0.807739,0.00575297,2.41993e-05,0.00290503,0.00696828,-0.00119111,0.396221,0.00508923,0.0444613,720,1240,-24.0294,-0.807695
-497,-216,0,0,0,0,0,0,0,0,0,-1,727,1240,0,0
-490,-216,0,0,0,0,0,0,0,0,0,-1,734,1240,0,0
-483,-216,0,0,0,0,0,0,0,0,0,-1,741,1240,0,0
-476,-216,0,0,0,0,0,0,0,0,0,-1,748,1240,0,0
-469,-216,0,0,0,0,0,0,0,0,0,-1,755,1240,0,0
-462,-216,0,0,0,0,0,0,0,0,0,-1,762,1240,0,0
-455,-216,0,0,0,0,0,0,0,0,0,-1,769,1240,0,0
-448,-216,0,0,0,0,0,0,0,0,0,-1,776,1240,0,0
-441,-216,0,0,0,0,0,0,0,0,0,-1,783,1240,0,0
-434,-216,0,0,0,0,0,0,0,0,0,-1,790,1240,0,0
-427,-216,0,0,0,0,0,0,0,0,0,-1,797,1240,0,0
-420,-216,0,0,0,0,0,0,0,0,0,-1,804,1240,0,0
-413,-216,0,0,0,0,0,0,0,0,0,-1,811,1240,0,0
-406,-216,0,0,0,0,0,0,0,0,0,-1,818,1240,0,0
-399,-216,0,0,0,0,0,0,0,0,0,-1,825,1240,0,0
-392,-216,0,0,0,0,0,0,0,0,0,-1,832,1240,0,0
-385,-216,0,0,0,0,0,0,0,0,0,-1,839,1240,0,0
-378,-216,0,0,0,0,0,0,0,0,0,-1,846,1240,0,0
-371,-216,0,0,0,0,0,0,0,0,0,-1,853,1240,0,0
-364,-216,0,0,0,0,0,0,0,0,0,-1,860,1240,0,0
-357,-216,0,0,0,0,0,0,0,0,0,-1,867,1240,0,0
-350,-216,0,0,0,0,0,0,0,0,0,-1,874,1240,0,0
-343,-216,0,0,0,0,0,0,0,0,0,-1,881,1240,0,0
-336,-216,0,0,0,0,0,0,0,0,0,-1,888,1240,0,0
-329,-216,0,0,0,0,0,0,0,0,0,-1,895,1240,0,0
-322,-216,0,0,0,0,0,0,0,0,0,-1,902,1240,0,0
-315,-216,0,0,0,0,0,0,0,0,0,-1,909,1240,0,0
-308,-216,0,0,0,0,0,0,0,0,0,-1,916,1240,0,0
-301,-216,0,0,0,0,0,0,0,0,0,-1,923,1240,0,0
-294,-216,0,0,0,0,0,0,0,0,0,-1,930,1240,0,0
-287,-216,0,0,0,0,0,0,0,0,0,-1,937,1240,0,0
-280,-216,0,0,0,0,0,0,0,0,0,-1,944,1240,0,0
-273,-216,0,0,0,0,0,0,0,0,0,-1,951,1240,0,0
-266,-216,0,0,0,0,0,0,0,0,0,-1,958,1240,0,0
-259,-216,0,0,0,0,0,0,0,0,0,-1,965,1240,0,0
-252,-216,0,0,0,0,0,0,0,0,0,-1,972,1240,0,0
-245,-216,0,0,0,0,0,0,0,0,0,-1,979,1240,0,0
-238,-216,0,0,0,0,0,0,0,0,0,-1,986,1240,0,0
-231,-216,0,0,0,0,0,0,0,0,0,-1,993,1240,0,0
-224,-216,0,0,0,0,0,0,0,0,0,-1,1000,1240,0,0
-217,-216,0,0,0,0,0,0,0,0,0,-1,1007,1240,0,0
-210,-216,0,0,0,0,0,0,0,0,0,-1,1014,1240,0,0
-203,-216,0,0,0,0,0,0,0,0,0,-1,1021,1240,0,0
-196,-216,0,0,0,0,0,0,0,0,0,-1,1028,1240,0,0
-189,-216,0,0,0,0,0,0,0,0,0,-1,1035,1240,0,0
-182,-216,0,0,0,0,0,0,0,0,0,-1,1042,1240,0,0
-175,-216,0,0,0,0,0,0,0,0,0,-1,1049,1240,0,0
-168,-216,0,0,0,0,0,0,0,0,0,-1,1056,1240,0,0
-161,-216,0,0,0,0,0,0,0,0,0,-1,1063,1240,0,0
-154,-216,0,0,0,0,0,0,0,0,0,-1,1070,1240,0,0
-147,-216,0,0,0,0,0,0,0,0,0,-1,1077,1240,0,0
-140,-216,0,0,0,0,0,0,0,0,0,-1,1084,1240,0,0
-133,-216,0,0,0,0,0,0,0,0,0,-1,1091,1240,0,0
-126,-216,0,0,0,0,0,0,0,0,0,-1,1098,1240,0,0
-119,-216,0,0,0,0,0,0,0,0,0,-1,1105,1240,0,0
-112,-216,0,0,0,0,0,0,0,0,0,-1,1112,1240,0,0
-105,-216,0,0,0,0,0,0,0,0,0,-1,1119,1240,0,0
-98,-216,0,0,0,0,0,0,0,0,0,-1,1126,1240,0,0
-91,-216,0,0,0,0,0,0,0,0,0,-1,1133,1240,0,0
-84,-216,0,0,0,0,0,0,0,0,0,-1,1140,1240,0,0
-77,-216,0,0,0,0,0,0,0,0,0,-1,1147,1240,0,0
-70,-216,0,0,0,0,0,0,0,0,0,-1,1154,1240,0,0
-63,-216,0,0,0,0,0,0,0,0,0,-1,1161,1240,0,0
-56,-216,0,0,0,0,0,0,0,0,0,-1,1168,1240,0,0
-49,-216,0,0,0,0,0,0,0,0,0,-1,1175,1240,0,0
-42,-216,0,0,0,0,0,0,0,0,0,-1,1182,1240,0,0
-35,-216,0,0,0,0,0,0,0,0,0,-1,1189,1240,0,0
-28,-216,0,0,0,0,0,0,0,0,0,-1,1196,1240,0,0
-21,-216,0,0,0,0,0,0,0,0,0,-1,1203,1240,0,0
-14,-216,0,0,0,0,0,0,0,0,0,-1,1210,1240,0,0
-7,-216,0,0,0,0,0,0,0,0,0,-1,1217,1240,0,0
0,-216,0,0,0,0,0,0,0,0,0,-1,1224,1240,0,0
7,-216,0,0,0,0,0,0,0,0,0,-1,1231,1240,0,0
14,-216,0,0,0,0,0,0,0,0,0,-1,1238,1240,0,0
21,-216,0,0,0,0,0,0,0,0,0,-1,1245,1240,0,0
28,-216,0,0,0,0,0,0,0,0,0,-1,1252,1240,0,0
35,-216,0,0,0,0,0,0,0,0,0,-1,1259,1240,0,0
42,-216,0,0,0,0,0,0,0,0,0,-1,1266,1240,0,0
49,-216,0,0,0,0,0,0,0,0,0,-1,1273,1240,0,0
56,-216,0,0,0,0,0,0,0,0,0,-1,1280,1240,0,0
63,-216,0,0,0,0,0,0,0,0,0,-1,1287,1240,0,0
70,-216,0,0,0,0,0,0,0,0,0,-1,1294,1240,0,0
77,-216,0,0,0,0,0,0,0,0,0,-1,1301,1240,0,0
84,-216,0,0,0,0,0,0,0,0,0,-1,1308,1240,0,0
91,-216,0,0,0,0,0,0,0,0,0,-1,1315,1240,0,0
98,-216,0,0,0,0,0,0,0,0,0,-1,1322,1240,0,0
105,-216,0,0,0,0,0,0,0,0,0,-1,1329,1240,0,0
112,-216,0,0,0,0,0,0,0,0,0,-1,1336,1240,0,0
119,-216,0,0,0,0,0,0,0,0,0,-1,1343,1240,0,0
126,-216,0,0,0,0,0,0,0,0,0,-1,1350,1240,0,0
133,-216,0,0,0,0,0,0,0,0,0,-1,1357,1240,0,0
140,-216,0,0,0,0,0,0,0,0,0,-1,1364,1240,0,0
147,-216,0,0,0,0,0,0,0,0,0,-1,1371,1240,0,0
154,-216,0,0,0,0,0,0,0,0,0,-1,1378,1240,0,0
161,-216,0,0,0,0,0,0,0,0,0,-1,1385,1240,0,0
168,-216,0,0,0,0,0,0,0,0,0,-1,1392,1240,0,0
175,-216,0,0,0,0,0,0,0,0,0,-1,1399,1240,0,0
182,-216,0,0,0,0,0,0,0,0,0,-1,1406,1240,0,0
189,-216,0,0,0,0,0,0,0,0,0,-1,1413,1240,0,0
196,-216,0,0,0,0,0,0,0,0,0,-1,1420,1240,0,0
203,-216,0,0,0,0,0,0,0,0,0,-1,1427,1240,0,0
210,-216,0,0,0,0,0,0,0,0,0,-1,1434,1240,0,0
217,-216,0,0,0,0,0,0,0,0,0,-1,1441,1240,0,0
224,-216,0,0,0,0,0,0,0,0,0,-1,1448,1240,0,0
231,-216,0,0,0,0,0,0,0,0,0,-1,1455,1240,0,0
238,-216,0,0,0,0,0,0,0,0,0,-1,1462,1240,0,0
245,-216,0,0,0,0,0,0,0,0,0,-1,1469,1240,0,0
252,-216,0,0,0,0,0,0,0,0,0,-1,1476,1240,0,0
259,-216,0,0,0,0,0,0,0,0,0,-1,1483,1240,0,0
266,-216,0,0,0,0,0,0,0,0,0,-1,1490,1240,0,0
273,-216,0,0,0,0,0,0,0,0,0,-1,1497,1240,0,0
280,-216,0,0,0,0,0,0,0,0,0,-1,1504,1240,0,0
287,-216,0,0,0,0,0,0,0,0,0,-1,1511,1240,0,0
294,-216,0,0,0,0,0,0,0,0,0,-1,1518,1240,0,0
301,-216,0,0,0,0,0,0,0,0,0,-1,1525,1240,0,0
308,-216,0,0,0,0,0,0,0,0,0,-1,1532,1240,0,0
315,-216,0,0,0,0,0,0,0,0,0,-1,1539,1240,0,0
322,-216,0,0,0,0,0,0,0,0,0,-1,1546,1240,0,0
329,-216,0,0,0,0,0,0,0,0,0,-1,1553,1240,0,0
336,-216,0,0,0,0,0,0,0,0,0,-1,1560,1240,0,0
343,-216,0,0,0,0,0,0,0,0,0,-1,1567,1240,0,0
350,-216,0,0,0,0,0,0,0,0,0,-1,1574,1240,0,0
357,-216,0,0,0,0,0,0,0,0,0,-1,1581,1240,0,0
364,-216,0,0,0,0,0,0,0,0,0,-1,1588,1240,0,0
371,-216,0,0,0,0,0,0,0,0,0,-1,1595,1240,0,0
378,-216,0,0,0,0,0,0,0,0,0,-1,1602,1240,0,0
385,-216,0,0,0,0,0,0,0,0,0,-1,1609,1240,0,0
392,-216,0,0,0,0,0,0,0,0,0,-1,1616,1240,0,0
399,-216,0,0,0,0,0,0,0,0,0,-1,1623,1240,0,0
406,-216,0,0,0,0,0,0,0,0,0,-1,1630,1240,0,0
413,-216,0,0,0,0,0,0,0,0,0,-1,1637,1240,0,0
420,-216,0,0,0,0,0,0,0,0,0,-1,1644,1240,0,0
427,-216,0,0,0,0,0,0,0,0,0,-1,1651,1240,0,0
434,-216,0,0,0,0,0,0,0,0,0,-1,1658,1240,0,0
441,-216,0,0,0,0,0,0,0,0,0,-1,1665,1240,0,0
448,-216,0,0,0,0,0,0,0,0,0,-1,1672,1240,0,0
455,-216,0,0,0,0,0,0,0,0,0,-1,1679,1240,0,0
462,-216,0,0,0,0,0,0,0,0,0,-1,1686,1240,0,0
469,-216,0,0,0,0,0,0,0,0,0,-1,1693,1240,0,0
476,-216,0,0,0,0,0,0,0,0,0,-1,1700,1240,0,0
483,-216,0,0,0,0,0,0,0,0,0,-1,1707,1240,0,0
490,-216,0,0,0,0,0,0,0,0,0,-1,1714,1240,0,0
497,-216,0,0,0,0,0,0,0,0,0,-1,1721,1240,0,0
504,-216,0,0,0,0,0,0,0,0,0,-1,1728,1240,0,0
511,-216,0,0,0,0,0,0,0,0,0,-1,1735,1240,0,0
518,-216,0,0,0,0,0,0,0,0,0,-1,1742,1240,0,0
525,-216,0,0,0,0,0,0,0,0,0,-1,1749,1240,0,0
532,-216,0,0,0,0,0,0,0,0,0,-1,1756,1240,0,0
539,-216,0,0,0,0,0,0,0,0,0,-1,1763,1240,0,0
546,-216,0,0,0,0,0,0,0,0,0,-1,1770,1240,0,0
553,-216,0,0,0,0,0,0,0,0,0,-1,1777,1240,0,0
560,-216,0,0,0,0,0,0,0,0,0,-1,1784,1240,0,0
567,-216,0,0,0,0,0,0,0,0,0,-1,1791,1240,0,0
574,-216,0,0,0,0,0,0,0,0,0,-1,1798,1240,0,0
581,-216,0,0,0,0,0,0,0,0,0,-1,1805,1240,0,0
588,-216,0,0,0,0,0,0,0,0,0,-1,1812,1240,0,0
595,-216,0,0,0,0,0,0,0,0,0,-1,1819,1240,0,0
602,-216,0,0,0,0,0,0,0,0,0,-1,1826,1240,0,0
609,-216,0,0,0,0,0,0,0,0,0,-1,1833,1240,0,0
616,-216,0,0,0,0,0,0,0,0,0,-1,1840,1240,0,0
623,-216,34.095,2.81067,0.00384562,-0.00139782,0.00189024,0.004456,-0.0020082,0.312338,0.00382025,0.0374492,1847,1240,34.0949,-2.81066
630,-216,34.0178,2.76257,0.00150027,-0.000446291,0.00110454,0.00199916,-0.000945178,0.424242,0.00173584,0.0361482,1854,1240,34.0178,-2.76262
637,-216,33.9872,2.6897,-0.00131869,0.000811479,-0.000431269,0.000895481,-0.00140269,-1.37843,0.00133758,0.0325469,1861,1240,33.9872,-2.68966
644,-216,33.9463,2.68323,-0.0035236,0.00184049,-0.00167437,0.00232023,-0.00400334,-1.29175,0.00369377,0.0240117,1868,1240,33.9463,-2.68318
651,-216,33.939,2.70422,-0.00449644,0.00236086,-0.00249141,0.00317046,-0.00530604,-1.2566,0.00494541,0.0203776,1875,1240,33.939,-2.70419
658,-216,34.0413,2.75415,-0.00463736,0.00237886,-0.00279089,0.0033536,-0.0056121,-1.23478,0.0052308,0.0288592,1882,1240,34.0412,-2.7541
665,-216,34.0289,2.68115,-0.00446579,0.00223584,-0.00278754,0.00324373,-0.00547368,-1.22385,0.00508759,0.0391256,1889,1240,34.0289,-2.6811
672,-216,33.7601,2.297,-0.00425293,0.00186845,-0.00259067,0.00281768,-0.00520215,-1.21959,0.00469797,0.0427589,1896,1240,33.7601,-2.29695
679,-216,33.9664,2.24475,0,0,0,0,0,0,0,-1,1903,1240,33.9664,-2.24472
686,-216,21.5172,6.19458,0,0,0,0,0,0,0,-1,1910,1240,21.5172,-6.19453
693,-216,27.9302,7.35889,0,0,0,0,0,0,0,-1,1917,1240,27.9301,-7.35886
700,-216,27.8247,7.07971,-0.00294786,0.000731281,-0.00133691,0.00116577,-0.00338235,-1.25657,0.00272783,0.0321394,1924,1240,27.8247,-7.07966
707,-216,27.8286,6.6842,-0.00217344,0.000315214,-0.000752635,0.000525125,-0.00238335,-1.29881,0.00178981,0.0233557,1931,1240,27.8286,-6.68425
714,-216,27.8649,6.354,-0.00141776,6.83913e-05,-0.000120865,7.81569e-05,-0.00142753,-1.49017,0.000978777,0.0147453,1938,1240,27.8649,-6.35399
721,-216,27.8781,6.08899,-9.50416e-05,-0.000173819,0.000687658,0.000554355,-0.000823215,0.75679,0.000800374,0.013025,1945,1240,27.8781,-6.089
728,-216,27.9052,5.79297,0.00176484,-0.000613702,0.000752334,0.00198282,-0.000831688,0.282024,0.00166965,0.0108319,1952,1240,27.9052,-5.79295
735,-216,27.9045,5.5249,0.00370607,-0.000203249,0.000655993,0.00381321,-0.00031039,0.161897,0.00265167,0.0113186,1959,1240,27.9046,-5.52488
742,-216,27.8677,5.26624,0.00678234,0.000807767,-1.6717e-06,0.00678234,0.000807767,-0.000279802,0.0042778,0.0131892,1966,1240,27.8677,-5.26625
749,-216,27.8462,4.9502,0.0111413,0.00174148,-0.000888614,0.0112245,0.00165822,-0.0934327,0.00699609,0.011006,1973,1240,27.8461,-4.95019
756,-216,27.8109,4.65491,0.0173448,0.00288025,-0.00210785,0.0176457,0.00257934,-0.141797,0.0110052,0.0113046,1980,1240,27.8109,-4.65488
763,-216,27.809,4.40552,0.0259751,0.00442574,-0.0037788,0.0266185,0.00378232,-0.168654,0.0166289,0.0176131,1987,1240,27.8089,-4.40548
770,-216,27.8445,4.29517,0.0377076,0.0067802,-0.00595376,0.0388142,0.00567365,-0.183761,0.0242075,0.0404391,1994,1240,27.8444,-4.29514
777,-216,27.9008,4.1825,0,0,0,0,0,0,0,-1,2001,1240,27.9008,-4.18244
784,-216,34.2477,0.234985,0,0,0,0,0,0,0,-1,2008,1240,34.2477,-0.234953
791,-216,33.7146,2.08618,0,0,0,0,0,0,0,-1,2015,1240,33.7147,-2.08616
798,-216,0,0,0,0,0,0,0,0,0,-1,2022,1240,0,0
805,-216,0,0,0,0,0,0,0,0,0,-1,2029,1240,0,0
812,-216,0,0,0,0,0,0,0,0,0,-1,2036,1240,0,0
-700,-223,0,0,0,0,0,0,0,0,0,-1,524,1247,0,0
-693,-223,0,0,0,0,0,0,0,0,0,-1,531,1247,0,0
-686,-223,0,0,0,0,0,0,0,0,0,-1,538,1247,0,0
-679,-223,0,0,0,0,0,0,0,0,0,-1,545,1247,0,0
-672,-223,-19.6396,0.810303,-0.0746555,0.0835983,0.0560143,0.101418,-0.0924753,1.26279,0.111984,0.046864,552,1247,-19.6396,-0.810291
-665,-223,-20.3494,0.565063,-0.057955,0.0716281,0.0475927,0.0872294,-0.0735563,1.25403,0.0929415,0.0481436,559,1247,-20.3494,-0.565054
-658,-223,-20.8852,0.184814,0,0,0,0,0,0,0,-1,566,1247,-20.8852,-0.184779
-651,-223,-21.0938,0.113892,0,0,0,0,0,0,0,-1,573,1247,-21.0938,-0.11392
-644,-223,-17.978,0.537231,0,0,0,0,0,0,0,-1,580,1247,-17.9781,-0.53726
-637,-223,-18.077,1.41284,-0.0109784,0.0277942,0.0174958,0.0345217,-0.0177059,1.2037,0.0306702,0.0492343,587,1247,-18.077,-1.41288
-630,-223,-17.5759,1.72253,-0.00562274,0.0199411,0.0122183,0.0248415,-0.0105231,1.18937,0.0209682,0.0401943,594,1247,-17.5759,-1.72255
-623,-223,-17.2233,2.04272,-0.00228379,0.0136465,0.0075583,0.0166619,-0.00529914,1.1912,0.0132328,0.0229373,601,1247,-17.2233,-2.0427
-616,-223,-17.2371,2.39404,0.00108335,0.00815598,0.00386135,0.00985565,-0.000616322,1.15614,0.00678521,0.0163677,608,1247,-17.2371,-2.39402
-609,-223,-17.243,2.67407,0.00278218,0.00338811,0.000712456,0.00385934,0.00231095,0.986433,0.00224264,0.0120035,615,1247,-17.243,-2.67409
-602,-223,-17.2595,2.96265,0.00229089,0.00163534,0.00011593,0.00231079,0.00161544,0.169977,0.00136893,0.0139767,622,1247,-17.2594,-2.96267
-595,-223,-17.2351,3.31213,0.00135908,0.000961749,0.000150227,0.00140949,0.000911344,0.323721,0.000825341,0.0197445,629,1247,-17.2351,-3.3121
-588,-223,-17.221,3.66443,0.000519179,0.000738865,0.000510048,0.00115076,0.00010728,0.891457,0.000734034,0.0227842,636,1247,-17.221,-3.66444
-581,-223,-17.2589,4.00085,5.98671e-05,0.000685895,0.00100268,0.00142328,-0.000677519,0.936694,0.00123811,0.0198371,643,1247,-17.2588,-4.00082
-574,-223,-17.2457,4.37341,-5.62204e-05,0.000976292,0.0016238,0.00216393,-0.00124386,0.939311,0.00199125,0.0179895,650,1247,-17.2457,-4.37338
-567,-223,-16.9667,4.83875,-0.000456342,0.00194222,0.00231314,0.00334849,-0.00186261,1.02455,0.00304913,0.0329941,657,1247,-16.9667,-4.83871
-560,-223,-16.804,5.33911,0,0,0,0,0,0,0,-1,664,1247,-16.8039,-5.33907
-553,-223,-11.4025,4.14722,0,0,0,0,0,0,0,-1,671,1247,-11.4025,-4.14719
-546,-223,-22.487,0.0671387,0,0,0,0,0,0,0,-1,678,1247,-22.487,-0.0671366
-539,-223,-23.8293,0.820313,0,0,0,0,0,0,0,-1,685,1247,-23.8293,-0.820334
-532,-223,-23.9387,1.09375,0,0,0,0,0,0,0,-1,692,1247,-23.9387,-1.0938
-525,-223,-24.0092,0.77832,0,0,0,0,0,0,0,-1,699,1247,-24.0092,-0.77828
-518,-223,-24.0168,0.724243,-0.00774611,0.00117937,0.00686321,0.00490319,-0.0114699,1.07367,0.00970314,0.0479065,706,1247,-24.0168,-0.724268
-511,-223,-24.15,0.908203,-0.00817444,-0.000617262,0.00687696,0.00345083,-0.0122425,1.03661,0.00952271,0.0416857,713,1247,-24.15,-0.908258
-504,-223,-24.0287,0.835815,-0.00265979,-0.00336065,0.00616459,0.00316432,-0.00918476,0.757006,0.00740679,0.0425361,720,1247,-24.0287,-0.83582
-497,-223,0,0,0,0,0,0,0,0,0,-1,727,1247,0,0
-490,-223,0,0,0,0,0,0,0,0,0,-1,734,1247,0,0
-483,-223,0,0,0,0,0,0,0,0,0,-1,741,1247,0,0
-476,-223,0,0,0,0,0,0,0,0,0,-1,748,1247,0,0
-469,-223,0,0,0,0,0,0,0,0,0,-1,755,1247,0,0
-462,-223,0,0,0,0,0,0,0,0,0,-1,762,1247,0,0
-455,-223,0,0,0,0,0,0,0,0,0,-1,769,1247,0,0
-448,-223,0,0,0,0,0,0,0,0,0,-1,776,1247,0,0
-441,-223,0,0,0,0,0,0,0,0,0,-1,783,1247,0,0
-434,-223,0,0,0,0,0,0,0,0,0,-1,790,1247,0,0
-427,-223,0,0,0,0,0,0,0,0,0,-1,797,1247,0,0
-420,-223,0,0,0,0,0,0,0,0,0,-1,804,1247,0,0
-413,-223,0,0,0,0,0,0,0,0,0,-1,811,1247,0,0
-406,-223,0,0,0,0,0,0,0,0,0,-1,818,1247,0,0
-399,-223,0,0,0,0,0,0,0,0,0,-1,825,1247,0,0
-392,-223,0,0,0,0,0,0,0,0,0,-1,832,1247,0,0
-385,-223,0,0,0,0,0,0,0,0,0,-1,839,1247,0,0
-378,-223,0,0,0,0,0,0,0,0,0,-1,846,1247,0,0
-371,-223,0,0,0,0,0,0,0,0,0,-1,853,1247,0,0
-364,-223,0,0,0,0,0,0,0,0,0,-1,860,1247,0,0
-357,-223,0,0,0,0,0,0,0,0,0,-1,867,1247,0,0
-350,-223,0,0,0,0,0,0,0,0,0,-1,874,1247,0,0
-343,-223,0,0,0,0,0,0,0,0,0,-1,881,1247,0,0
-336,-223,0,0,0,0,0,0,0,0,0,-1,888,1247,0,0
-329,-223,0,0,0,0,0,0,0,0,0,-1,895,1247,0,0
-322,-223,0,0,0,0,0,0,0,0,0,-1,902,1247,0,0
-315,-223,0,0,0,0,0,0,0,0,0,-1,909,1247,0,0
-308,-223,0,0,0,0,0,0,0,0,0,-1,916,1247,0,0
-301,-223,0,0,0,0,0,0,0,0,0,-1,923,1247,0,0
-294,-223,0,0,0,0,0,0,0,0,0,-1,930,1247,0,0
-287,-223,0,0,0,0,0,0,0,0,0,-1,937,1247,0,0
-280,-223,0,0,0,0,0,0,0,0,0,-1,944,1247,0,0
-273,-223,0,0,0,0,0,0,0,0,0,-1,951,1247,0,0
-266,-223,0,0,0,0,0,0,0,0,0,-1,958,1247,0,0
-259,-223,0,0,0,0,0,0,0,0,0,-1,965,1247,0,0
-252,-223,0,0,0,0,0,0,0,0,0,-1,972,1247,0,0
-245,-223,0,0,0,0,0,0,0,0,0,-1,979,1247,0,0
-238,-223,0,0,0,0,0,0,0,0,0,-1,986,1247,0,0
-231,-223,0,0,0,0,0,0,0,0,0,-1,993,1247,0,0
-224,-223,0,0,0,0,0,0,0,0,0,-1,1000,1247,0,0
-217,-223,0,0,0,0,0,0,0,0,0,-1,1007,1247,0,0
-210,-223,0,0,0,0,0,0,0,0,0,-1,1014,1247,0,0
-203,-223,0,0,0,0,0,0,0,0,0,-1,1021,1247,0,0
-196,-223,0,0,0,0,0,0,0,0,0,-1,1028,1247,0,0
-189,-223,0,0,0,0,0,0,0,0,0,-1,1035,1247,0,0
-182,-223,0,0,0,0,0,0,0,0,0,-1,1042,1247,0,0
-175,-223,0,0,0,0,0,0,0,0,0,-1,1049,1247,0,0
-168,-223,0,0,0,0,0,0,0,0,0,-1,1056,1247,0,0
-161,-223,0,0,0,0,0,0,0,0,0,-1,1063,1247,0,0
-154,-223,0,0,0,0,0,0,0,0,0,-1,1070,1247,0,0
-147,-223,0,0,0,0,0,0,0,0,0,-1,1077,1247,0,0
-140,-223,0,0,0,0,0,0,0,0,0,-1,1084,1247,0,0
-133,-223,0,0,0,0,0,0,0,0,0,-1,1091,1247,0,0
-126,-223,0,0,0,0,0,0,0,0,0,-1,1098,1247,0,0
-119,-223,0,0,0,0,0,0,0,0,0,-1,1105,1247,0,0
-112,-223,0,0,0,0,0,0,0,0,0,-1,1112,1247,0,0
-105,-223,0,0,0,0,0,0,0,0,0,-1,1119,1247,0,0
-98,-223,0,0,0,0,0,0,0,0,0,-1,1126,1247,0,0
-91,-223,0,0,0,0,0,0,0,0,0,-1,1133,1247,0,0
-84,-223,0,0,0,0,0,0,0,0,0,-1,1140,1247,0,0
-77,-223,0,0,0,0,0,0,0,0,0,-1,1147,1247,0,0
-70,-223,0,0,0,0,0,0,0,0,0,-1,1154,1247,0,0
-63,-223,0,0,0,0,0,0,0,0,0,-1,1161,1247,0,0
-56,-223,0,0,0,0,0,0,0,0,0,-1,1168,1247,0,0
-49,-223,0,0,0,0,0,0,0,0,0,-1,1175,1247,0,0
-42,-223,0,0,0,0,0,0,0,0,0,-1,1182,1247,0,0
-35,-223,0,0,0,0,0,0,0,0,0,-1,1189,1247,0,0
-28,-223,0,0,0,0,0,0,0,0,0,-1,1196,1247,0,0
-21,-223,0,0,0,0,0,0,0,0,0,-1,1203,1247,0,0
-14,-223,0,0,0,0,0,0,0,0,0,-1,1210,1247,0,0
-7,-223,0,0,0,0,0,0,0,0,0,-1,1217,1247,0,0
0,-223,0,0,0,0,0,0,0,0,0,-1,1224,1247,0,0
7,-223,0,0,0,0,0,0,0,0,0,-1,1231,1247,0,0
14,-223,0,0,0,0,0,0,0,0,0,-1,1238,1247,0,0
21,-223,0,0,0,0,0,0,0,0,0,-1,1245,1247,0,0
28,-223,0,0,0,0,0,0,0,0,0,-1,1252,1247,0,0
35,-223,0,0,0,0,0,0,0,0,0,-1,1259,1247,0,0
42,-223,0,0,0,0,0,0,0,0,0,-1,1266,1247,0,0
49,-223,0,0,0,0,0,0,0,0,0,-1,1273,1247,0,0
56,-223,0,0,0,0,0,0,0,0,0,-1,1280,1247,0,0
63,-223,0,0,0,0,0,0,0,0,0,-1,1287,1247,0,0
70,-223,0,0,0,0,0,0,0,0,0,-1,1294,1247,0,0
77,-223,0,0,0,0,0,0,0,0,0,-1,1301,1247,0,0
84,-223,0,0,0,0,0,0,0,0,0,-1,1308,1247,0,0
91,-223,0,0,0,0,0,0,0,0,0,-1,1315,1247,0,0
98,-223,0,0,0,0,0,0,0,0,0,-1,1322,1247,0,0
105,-223,0,0,0,0,0,0,0,0,0,-1,1329,1247,0,0
112,-223,0,0,0,0,0,0,0,0,0,-1,1336,1247,0,0
119,-223,0,0,0,0,0,0,0,0,0,-1,1343,1247,0,0
126,-223,0,0,0,0,0,0,0,0,0,-1,1350,1247,0,0
133,-223,0,0,0,0,0,0,0,0,0,-1,1357,1247,0,0
140,-223,0,0,0,0,0,0,0,0,0,-1,1364,1247,0,0
147,-223,0,0,0,0,0,0,0,0,0,-1,1371,1247,0,0
154,-223,0,0,0,0,0,0,0,0,0,-1,1378,1247,0,0
161,-223,0,0,0,0,0,0,0,0,0,-1,1385,1247,0,0
168,-223,0,0,0,0,0,0,0,0,0,-1,1392,1247,0,0
175,-223,0,0,0,0,0,0,0,0,0,-1,1399,1247,0,0
182,-223,0,0,0,0,0,0,0,0,0,-1,1406,1247,0,0
189,-223,0,0,0,0,0,0,0,0,0,-1,1413,1247,0,0
196,-223,0,0,0,0,0,0,0,0,0,-1,1420,1247,0,0
203,-223,0,0,0,0,0,0,0,0,0,-1,1427,1247,0,0
210,-223,0,0,0,0,0,0,0,0,0,-1,1434,1247,0,0
217,-223,0,0,0,0,0,0,0,0,0,-1,1441,1247,0,0
224,-223,0,0,0,0,0,0,0,0,0,-1,1448,1247,0,0
231,-223,0,0,0,0,0,0,0,0,0,-1,1455,1247,0,0
238,-223,0,0,0,0,0,0,0,0,0,-1,1462,1247,0,0
245,-223,0,0,0,0,0,0,0,0,0,-1,1469,1247,0,0
252,-223,0,0,0,0,0,0,0,0,0,-1,1476,1247,0,0
259,-223,0,0,0,0,0,0,0,0,0,-1,1483,1247,0,0
266,-223,0,0,0,0,0,0,0,0,0,-1,1490,1247,0,0
273,-223,0,0,0,0,0,0,0,0,0,-1,1497,1247,0,0
280,-223,0,0,0,0,0,0,0,0,0,-1,1504,1247,0,0
287,-223,0,0,0,0,0,0,0,0,0,-1,1511,1247,0,0
294,-223,0,0,0,0,0,0,0,0,0,-1,1518,1247,0,0
301,-223,0,0,0,0,0,0,0,0,0,-1,1525,1247,0,0
308,-223,0,0,0,0,0,0,0,0,0,-1,1532,1247,0,0
315,-223,0,0,0,0,0,0,0,0,0,-1,1539,1247,0,0
322,-223,0,0,0,0,0,0,0,0,0,-1,1546,1247,0,0
329,-223,0,0,0,0,0,0,0,0,0,-1,1553,1247,0,0
336,-223,0,0,0,0,0,0,0,0,0,-1,1560,1247,0,0
343,-223,0,0,0,0,0,0,0,0,0,-1,1567,1247,0,0
350,-223,0,0,0,0,0,0,0,0,0,-1,1574,1247,0,0
357,-223,0,0,0,0,0,0,0,0,0,-1,1581,1247,0,0
364,-223,0,0,0,0,0,0,0,0,0,-1,1588,1247,0,0
371,-223,0,0,0,0,0,0,0,0,0,-1,1595,1247,0,0
378,-223,0,0,0,0,0,0,0,0,0,-1,1602,1247,0,0
385,-223,0,0,0,0,0,0,0,0,0,-1,1609,1247,0,0
392,-223,0,0,0,0,0,0,0,0,0,-1,1616,1247,0,0
399,-223,0,0,0,0,0,0,0,0,0,-1,1623,1247,0,0
406,-223,0,0,0,0,0,0,0,0,0,-1,1630,1247,0,0
413,-223,0,0,0,0,0,0,0,0,0,-1,1637,1247,0,0
420,-223,0,0,0,0,0,0,0,0,0,-1,1644,1247,0,0
427,-223,0,0,0,0,0,0,0,0,0,-1,1651,1247,0,0
434,-223,0,0,0,0,0,0,0,0,0,-1,1658,1247,0,0
441,-223,0,0,0,0,0,0,0,0,0,-1,1665,1247,0,0
448,-223,0,0,0,0,0,0,0,0,0,-1,1672,1247,0,0
455,-223,0,0,0,0,0,0,0,0,0,-1,1679,1247,0,0
462,-223,0,0,0,0,0,0,0,0,0,-1,1686,1247,0,0
469,-223,0,0,0,0,0,0,0,0,0,-1,1693,1247,0,0
476,-223,0,0,0,0,0,0,0,0,0,-1,1700,1247,0,0
483,-223,0,0,0,0,0,0,0,0,0,-1,1707,1247,0,0
490,-223,0,0,0,0,0,0,0,0,0,-1,1714,1247,0,0
497,-223,0,0,0,0,0,0,0,0,0,-1,1721,1247,0,0
504,-223,0,0,0,0,0,0,0,0,0,-1,1728,1247,0,0
511,-223,0,0,0,0,0,0,0,0,0,-1,1735,1247,0,0
518,-223,0,0,0,0,0,0,0,0,0,-1,1742,1247,0,0
525,-223,0,0,0,0,0,0,0,0,0,-1,1749,1247,0,0
532,-223,0,0,0,0,0,0,0,0,0,-1,1756,1247,0,0
539,-223,0,0,0,0,0,0,0,0,0,-1,1763,1247,0,0
546,-223,0,0,0,0,0,0,0,0,0,-1,1770,1247,0,0
553,-223,0,0,0,0,0,0,0,0,0,-1,1777,1247,0,0
560,-223,0,0,0,0,0,0,0,0,0,-1,1784,1247,0,0
567,-223,0,0,0,0,0,0,0,0,0,-1,1791,1247,0,0
574,-223,0,0,0,0,0,0,0,0,0,-1,1798,1247,0,0
581,-223,0,0,0,0,0,0,0,0,0,-1,1805,1247,0,0
588,-223,0,0,0,0,0,0,0,0,0,-1,1812,1247,0,0
595,-223,0,0,0,0,0,0,0,0,0,-1,1819,1247,0,0
602,-223,0,0,0,0,0,0,0,0,0,-1,1826,1247,0,0
609,-223,0,0,0,0,0,0,0,0,0,-1,1833,1247,0,0
616,-223,0,0,0,0,0,0,0,0,0,-1,1840,1247,0,0
623,-223,34.0291,2.91553,0.00248226,0.000451716,0.00119109,0.00303207,-9.80938e-05,0.432459,0.00205486,0.0385859,1847,1247,34.0291,-2.91552
630,-223,33.993,2.79138,0.000322057,0.00162403,0.000338545,0.0017068,0.000239289,1.33102,0.00106709,0.036248,1854,1247,33.993,-2.79139
637,-223,33.958,2.72217,-0.00235081,0.00296922,-0.00108103,0.00318049,-0.00256208,-1.37779,0.00332188,0.0287117,1861,1247,33.958,-2.72213
644,-223,33.9424,2.70605,-0.00414489,0.00367223,-0.00204264,0.0041738,-0.00464645,-1.33001,0.00509482,0.020265,1868,1247,33.9423,-2.7061
651,-223,33.9561,2.71436,-0.00474692,0.00378101,-0.00261114,0.00451699,-0.0054829,-1.29606,0.00578241,0.0253664,1875,1247,33.9561,-2.71436
658,-223,33.9532,2.66492,0,0,0,0,0,0,0,-1,1882,1247,33.9532,-2.66491
665,-223,33.963,2.63904,-0.00446736,0.00309288,-0.00269596,0.00395577,-0.00533025,-1.26103,0.00538082,0.0469605,1889,1247,33.963,-2.63901
672,-223,32.9854,1.88904,-0.00424117,0.00256328,-0.00253128,0.00340163,-0.00507952,-1.25097,0.00492844,0.0419758,1896,1247,32.9854,-1.88907
679,-223,33.2679,1.37097,0,0,0,0,0,0,0,-1,1903,1247,33.2679,-1.371
686,-223,27.5563,7.31213,0,0,0,0,0,0,0,-1,1910,1247,27.5562,-7.31211
693,-223,27.6011,7.18579,-0.00333218,0.00143136,-0.00189994,0.00209633,-0.00399715,-1.23413,0.00357467,0.0382644,1917,1247,27.6011,-7.1858
700,-223,27.6034,6.97083,-0.00275156,0.00107644,-0.00146465,0.00157254,-0.00324767,-1.24421,0.00283841,0.0177212,1924,1247,27.6034,-6.97085
707,-223,27.5736,6.66541,-0.00183762,0.000610425,-0.000892134,0.000901042,-0.00212824,-1.25588,0.00179616,0.0150394,1931,1247,27.5736,-6.66538
714,-223,27.594,6.35706,-0.000913921,0.000339717,-0.000276792,0.00039811,-0.000972315,-1.36288,0.000814037,0.0124423,1938,1247,27.5939,-6.357
721,-223,27.5714,6.07397,0.000529646,0.000113077,0.000506182,0.000868721,-0.000225998,0.590216,0.00066736,0.0140853,1945,1247,27.5714,-6.07396
728,-223,27.5625,5.797,0.00239795,-0.00024094,0.000563698,0.00251332,-0.000356309,0.201876,0.00180607,0.0151215,1952,1247,27.5625,-5.79703
735,-223,27.5763,5.52979,0.00427723,0.000214435,0.000420338,0.00432026,0.000171402,0.102021,0.00282477,0.0156143,1959,1247,27.5763,-5.52975
742,-223,27.5472,5.27161,0.00716573,0.000815382,-0.000207712,0.00717252,0.000808595,-0.0326622,0.00453624,0.0141922,1966,1247,27.5473,-5.2716
749,-223,27.5347,4.93689,0.011279,0.00140909,-0.00109955,0.0114,0.00128808,-0.109613,0.00720913,0.0123439,1973,1247,27.5346,-4.93695
756,-223,27.5049,4.64392,0.0172207,0.00204002,-0.00248202,0.0176162,0.00164452,-0.158019,0.0112362,0.0149859,1980,1247,27.5049,-4.64391
763,-223,27.5376,4.40295,0.0257378,0.00265233,-0.0044983,0.0265833,0.00180679,-0.185802,0.0171517,0.0189685,1987,1247,27.5376,-4.40293
770,-223,27.694,4.30042,0.0375906,0.00339256,-0.00736987,0.0391112,0.00187193,-0.203476,0.0254731,0.0414201,1994,1247,27.6939,-4.30042
777,-223,27.828,4.19202,0,0,0,0,0,0,0,-1,2001,1247,27.828,-4.192
784,-223,35.2153,-0.78125,0,0,0,0,0,0,0,-1,2008,1247,35.2153,0.781238
791,-223,34.1216,1.6897,0,0,0,0,0,0,0,-1,2015,1247,34.1215,-1.68966
798,-223,0,0,0,0,0,0,0,0,0,-1,2022,1247,0,0
805,-223,0,0,0,0,0,0,0,0,0,-1,2029,1247,0,0
812,-223,0,0,0,0,0,0,0,0,0,-1,2036,1247,0,0
-700,-230,0,0,0,0,0,0,0,0,0,-1,524,1254,0,0
-693,-230,0,0,0,0,0,0,0,0,0,-1,531,1254,0,0
-686,-230,0,0,0,0,0,0,0,0,0,-1,538,1254,0,0
-679,-230,0,0,0,0,0,0,0,0,0,-1,545,1254,0,0
-672,-230,-20.2767,0.0187988,-0.0979366,0.0933251,0.0544369,0.107734,-0.112345,1.31205,0.127072,0.0432618,552,1254,-20.2767,-0.0188205
-665,-230,-21.401,-0.0203857,-0.0764841,0.0796835,0.0465636,0.0925131,-0.0893137,1.30194,0.104983,0.043269,559,1254,-21.401,0.020398
-658,-230,-21.7626,-0.0159912,0,0,0,0,0,0,0,-1,566,1254,-21.7626,0.0159334
-651,-230,-18.7478,-10.7177,0,0,0,0,0,0,0,-1,573,1254,-18.7478,10.7176
-644,-230,-18.671,1.75781,0,0,0,0,0,0,0,-1,580,1254,-18.671,-1.75784
-637,-230,-17.5074,1.79651,0,0,0,0,0,0,0,-1,587,1254,-17.5074,-1.79647
-630,-230,-17.1855,1.89941,-0.00839489,0.0220475,0.0121831,0.0263228,-0.0126702,1.2333,0.022968,0.0434152,594,1254,-17.1856,-1.89937
-623,-230,-16.8729,2.00378,-0.00357791,0.0151606,0.00753641,0.0178155,-0.00623282,1.23209,0.0144111,0.0280695,601,1254,-16.8729,-2.00377
-616,-230,-16.9002,2.36755,0.000919329,0.00911085,0.00393558,0.0106952,-0.000665054,1.18807,0.00736186,0.0166116,608,1254,-16.9002,-2.3675
-609,-230,-16.9056,2.70117,0.00322242,0.00420164,0.000960246,0.0047899,0.00263417,1.02116,0.00277004,0.0118317,615,1254,-16.9056,-2.70113
-602,-230,-16.916,3.00854,0.00284112,0.00236109,0.000399235,0.00306693,0.00213528,0.514752,0.00181558,0.011298,622,1254,-16.916,-3.00861
-595,-230,-16.9183,3.36682,0.00216497,0.00144654,0.000473133,0.0023998,0.00121171,0.460709,0.00138555,0.0188669,629,1254,-16.9182,-3.36679
-588,-230,-16.8912,3.70667,0.00159004,0.00106898,0.000886728,0.00225372,0.000405305,0.642513,0.00138726,0.0267713,636,1254,-16.8912,-3.70668
-581,-230,-16.9085,4.01306,0.00131322,0.000985395,0.00143049,0.00258915,-0.000290538,0.728354,0.00183065,0.0242754,643,1254,-16.9085,-4.01304
-574,-230,-16.934,4.34851,0.00132394,0.00131262,0.00209355,0.00341184,-0.000775278,0.784046,0.00257223,0.0168036,650,1254,-16.9339,-4.34852
-567,-230,-16.6989,4.74219,0.000821178,0.00237054,0.00286256,0.00456139,-0.00136968,0.917545,0.00358577,0.0305912,657,1254,-16.6989,-4.7422
-560,-230,-16.3726,5.17871,0,0,0,0,0,0,0,-1,664,1254,-16.3726,-5.17876
-553,-230,-13.1939,4.9718,0,0,0,0,0,0,0,-1,671,1254,-13.1939,-4.97175
-546,-230,-15.23,0.453979,0,0,0,0,0,0,0,-1,678,1254,-15.23,-0.453996
-539,-230,-21.9315,0.356079,0,0,0,0,0,0,0,-1,685,1254,-21.9315,-0.356091
-532,-230,-21.1644,1.52966,0,0,0,0,0,0,0,-1,692,1254,-21.1644,-1.52969
-525,-230,-23.6381,1.32495,0,0,0,0,0,0,0,-1,699,1254,-23.6381,-1.325
-518,-230,-23.9128,0.598267,0,0,0,0,0,0,0,-1,706,1254,-23.9128,-0.598253
-511,-230,-24.1142,0.774292,-0.0115557,-0.00189329,0.00973134,0.00414011,-0.0175891,1.0158,0.0133223,0.0419186,713,1254,-24.1142,-0.774283
-504,-230,-24.0885,0.705811,-0.0106852,-0.00533473,0.0101974,0.00253251,-0.0185524,0.913679,0.0132931,0.0393286,720,1254,-24.0885,-0.705799
-497,-230,0,0,0,0,0,0,0,0,0,-1,727,1254,0,0
-490,-230,0,0,0,0,0,0,0,0,0,-1,734,1254,0,0
-483,-230,0,0,0,0,0,0,0,0,0,-1,741,1254,0,0
-476,-230,0,0,0,0,0,0,0,0,0,-1,748,1254,0,0
-469,-230,0,0,0,0,0,0,0,0,0,-1,755,1254,0,0
-462,-230,0,0,0,0,0,0,0,0,0,-1,762,1254,0,0
-455,-230,0,0,0,0,0,0,0,0,0,-1,769,1254,0,0
-448,-230,0,0,0,0,0,0,0,0,0,-1,776,1254,0,0
-441,-230,0,0,0,0,0,0,0,0,0,-1,783,1254,0,0
-434,-230,0,0,0,0,0,0,0,0,0,-1,790,1254,0,0
-427,-230,0,0,0,0,0,0,0,0,0,-1,797,1254,0,0
-420,-230,0,0,0,0,0,0,0,0,0,-1,804,1254,0,0
-413,-230,0,0,0,0,0,0,0,0,0,-1,811,1254,0,0
-406,-230,0,0,0,0,0,0,0,0,0,-1,818,1254,0,0
-399,-230,0,0,0,0,0,0,0,0,0,-1,825,1254,0,0
-392,-230,0,0,0,0,0,0,0,0,0,-1,832,1254,0,0
-385,-230,0,0,0,0,0,0,0,0,0,-1,839,1254,0,0
-378,-230,0,0,0,0,0,0,0,0,0,-1,846,1254,0,0
-371,-230,0,0,0,0,0,0,0,0,0,-1,853,1254,0,0
-364,-230,0,0,0,0,0,0,0,0,0,-1,860,1254,0,0
-357,-230,0,0,0,0,0,0,0,0,0,-1,867,1254,0,0
-350,-230,0,0,0,0,0,0,0,0,0,-1,874,1254,0,0
-343,-230,0,0,0,0,0,0,0,0,0,-1,881,1254,0,0
-336,-230,0,0,0,0,0,0,0,0,0,-1,888,1254,0,0
-329,-230,0,0,0,0,0,0,0,0,0,-1,895,1254,0,0
-322,-230,0,0,0,0,0,0,0,0,0,-1,902,1254,0,0
-315,-230,0,0,0,0,0,0,0,0,0,-1,909,1254,0,0
-308,-230,0,0,0,0,0,0,0,0,0,-1,916,1254,0,0
-301,-230,0,0,0,0,0,0,0,0,0,-1,923,1254,0,0
-294,-230,0,0,0,0,0,0,0,0,0,-1,930,1254,0,0
-287,-230,0,0,0,0,0,0,0,0,0,-1,937,1254,0,0
-280,-230,0,0,0,0,0,0,0,0,0,-1,944,1254,0,0
-273,-230,0,0,0,0,0,0,0,0,0,-1,951,1254,0,0
-266,-230,0,0,0,0,0,0,0,0,0,-1,958,1254,0,0
-259,-230,0,0,0,0,0,0,0,0,0,-1,965,1254,0,0
-252,-230,0,0,0,0,0,0,0,0,0,-1,972,1254,0,0
-245,-230,0,0,0,0,0,0,0,0,0,-1,979,1254,0,0
-238,-230,0,0,0,0,0,0,0,0,0,-1,986,1254,0,0
-231,-230,0,0,0,0,0,0,0,0,0,-1,993,1254,0,0
-224,-230,0,0,0,0,0,0,0,0,0,-1,1000,1254,0,0
-217,-230,0,0,0,0,0,0,0,0,0,-1,1007,1254,0,0
-210,-230,0,0,0,0,0,0,0,0,0,-1,1014,1254,0,0
-203,-230,0,0,0,0,0,0,0,0,0,-1,1021,1254,0,0
-196,-230,0,0,0,0,0,0,0,0,0,-1,1028,1254,0,0
-189,-230,0,0,0,0,0,0,0,0,0,-1,1035,1254,0,0
-182,-230,0,0,0,0,0,0,0,0,0,-1,1042,1254,0,0
-175,-230,0,0,0,0,0,0,0,0,0,-1,1049,1254,0,0
-168,-230,0,0,0,0,0,0,0,0,0,-1,1056,1254,0,0
-161,-230,0,0,0,0,0,0,0,0,0,-1,1063,1254,0,0
-154,-230,0,0,0,0,0,0,0,0,0,-1,1070,1254,0,0
-147,-230,0,0,0,0,0,0,0,0,0,-1,1077,1254,0,0
-140,-230,0,0,0,0,0,0,0,0,0,-1,1084,1254,0,0
-133,-230,0,0,0,0,0,0,0,0,0,-1,1091,1254,0,0
-126,-230,0,0,0,0,0,0,0,0,0,-1,1098,1254,0,0
-119,-230,0,0,0,0,0,0,0,0,0,-1,1105,1254,0,0
-112,-230,0,0,0,0,0,0,0,0,0,-1,1112,1254,0,0
-105,-230,0,0,0,0,0,0,0,0,0,-1,1119,1254,0,0
-98,-230,0,0,0,0,0,0,0,0,0,-1,1126,1254,0,0
-91,-230,0,0,0,0,0,0,0,0,0,-1,1133,1254,0,0
-84,-230,0,0,0,0,0,0,0,0,0,-1,1140,1254,0,0
-77,-230,0,0,0,0,0,0,0,0,0,-1,1147,1254,0,0
-70,-230,0,0,0,0,0,0,0,0,0,-1,1154,1254,0,0
-63,-230,0,0,0,0,0,0,0,0,0,-1,1161,1254,0,0
-56,-230,0,0,0,0,0,0,0,0,0,-1,1168,1254,0,0
-49,-230,0,0,0,0,0,0,0,0,0,-1,1175,1254,0,0
-42,-230,0,0,0,0,0,0,0,0,0,-1,1182,1254,0,0
-35,-230,0,0,0,0,0,0,0,0,0,-1,1189,1254,0,0
-28,-230,0,0,0,0,0,0,0,0,0,-1,1196,1254,0,0
-21,-230,0,0,0,0,0,0,0,0,0,-1,1203,1254,0,0
-14,-230,0,0,0,0,0,0,0,0,0,-1,1210,1254,0,0
-7,-230,0,0,0,0,0,0,0,0,0,-1,1217,1254,0,0
0,-230,0,0,0,0,0,0,0,0,0,-1,1224,1254,0,0
7,-230,0,0,0,0,0,0,0,0,0,-1,1231,1254,0,0
14,-230,0,0,0,0,0,0,0,0,0,-1,1238,1254,0,0
21,-230,0,0,0,0,0,0,0,0,0,-1,1245,1254,0,0
28,-230,0,0,0,0,0,0,0,0,0,-1,1252,1254,0,0
35,-230,0,0,0,0,0,0,0,0,0,-1,1259,1254,0,0
42,-230,0,0,0,0,0,0,0,0,0,-1,1266,1254,0,0
49,-230,0,0,0,0,0,0,0,0,0,-1,1273,1254,0,0
56,-230,0,0,0,0,0,0,0,0,0,-1,1280,1254,0,0
63,-230,0,0,0,0,0,0,0,0,0,-1,1287,1254,0,0
70,-230,0,0,0,0,0,0,0,0,0,-1,1294,1254,0,0
77,-230,0,0,0,0,0,0,0,0,0,-1,1301,1254,0,0
84,-230,0,0,0,0,0,0,0,0,0,-1,1308,1254,0,0
91,-230,0,0,0,0,0,0,0,0,0,-1,1315,1254,0,0
98,-230,0,0,0,0,0,0,0,0,0,-1,1322,1254,0,0
105,-230,0,0,0,0,0,0,0,0,0,-1,1329,1254,0,0
112,-230,0,0,0,0,0,0,0,0,0,-1,1336,1254,0,0
119,-230,0,0,0,0,0,0,0,0,0,-1,1343,1254,0,0
126,-230,0,0,0,0,0,0,0,0,0,-1,1350,1254,0,0
133,-230,0,0,0,0,0,0,0,0,0,-1,1357,1254,0,0
140,-230,0,0,0,0,0,0,0,0,0,-1,1364,1254,0,0
147,-230,0,0,0,0,0,0,0,0,0,-1,1371,1254,0,0
154,-230,0,0,0,0,0,0,0,0,0,-1,1378,1254,0,0
161,-230,0,0,0,0,0,0,0,0,0,-1,1385,1254,0,0
168,-230,0,0,0,0,0,0,0,0,0,-1,1392,1254,0,0
175,-230,0,0,0,0,0,0,0,0,0,-1,1399,1254,0,0
182,-230,0,0,0,0,0,0,0,0,0,-1,1406,1254,0,0
189,-230,0,0,0,0,0,0,0,0,0,-1,1413,1254,0,0
196,-230,0,0,0,0,0,0,0,0,0,-1,1420,1254,0,0
203,-230,0,0,0,0,0,0,0,0,0,-1,1427,1254,0,0
210,-230,0,0,0,0,0,0,0,0,0,-1,1434,1254,0,0
217,-230,0,0,0,0,0,0,0,0,0,-1,1441,1254,0,0
224,-230,0,0,0,0,0,0,0,0,0,-1,1448,1254,0,0
231,-230,0,0,0,0,0,0,0,0,0,-1,1455,1254,0,0
238,-230,0,0,0,0,0,0,0,0,0,-1,1462,1254,0,0
245,-230,0,0,0,0,0,0,0,0,0,-1,1469,1254,0,0
252,-230,0,0,0,0,0,0,0,0,0,-1,1476,1254,0,0
259,-230,0,0,0,0,0,0,0,0,0,-1,1483,1254,0,0
266,-230,0,0,0,0,0,0,0,0,0,-1,1490,1254,0,0
273,-230,0,0,0,0,0,0,0,0,0,-1,1497,1254,0,0
280,-230,0,0,0,0,0,0,0,0,0,-1,1504,1254,0,0
287,-230,0,0,0,0,0,0,0,0,0,-1,1511,1254,0,0
294,-230,0,0,0,0,0,0,0,0,0,-1,1518,1254,0,0
301,-230,0,0,0,0,0,0,0,0,0,-1,1525,1254,0,0
308,-230,0,0,0,0,0,0,0,0,0,-1,1532,1254,0,0
315,-230,0,0,0,0,0,0,0,0,0,-1,1539,1254,0,0
322,-230,0,0,0,0,0,0,0,0,0,-1,1546,1254,0,0
329,-230,0,0,0,0,0,0,0,0,0,-1,1553,1254,0,0
336,-230,0,0,0,0,0,0,0,0,0,-1,1560,1254,0,0
343,-230,0,0,0,0,0,0,0,0,0,-1,1567,1254,0,0
350,-230,0,0,0,0,0,0,0,0,0,-1,1574,1254,0,0
357,-230,0,0,0,0,0,0,0,0,0,-1,1581,1254,0,0
364,-230,0,0,0,0,0,0,0,0,0,-1,1588,1254,0,0
371,-230,0,0,0,0,0,0,0,0,0,-1,1595,1254,0,0
378,-230,0,0,0,0,0,0,0,0,0,-1,1602,1254,0,0
385,-230,0,0,0,0,0,0,0,0,0,-1,1609,1254,0,0
392,-230,0,0,0,0,0,0,0,0,0,-1,1616,1254,0,0
399,-230,0,0,0,0,0,0,0,0,0,-1,1623,1254,0,0
406,-230,0,0,0,0,0,0,0,0,0,-1,1630,1254,0,0
413,-230,0,0,0,0,0,0,0,0,0,-1,1637,1254,0,0
420,-230,0,0,0,0,0,0,0,0,0,-1,1644,1254,0,0
427,-230,0,0,0,0,0,0,0,0,0,-1,1651,1254,0,0
434,-230,0,0,0,0,0,0,0,0,0,-1,1658,1254,0,0
441,-230,0,0,0,0,0,0,0,0,0,-1,1665,1254,0,0
448,-230,0,0,0,0,0,0,0,0,0,-1,1672,1254,0,0
455,-230,0,0,0,0,0,0,0,0,0,-1,1679,1254,0,0
462,-230,0,0,0,0,0,0,0,0,0,-1,1686,1254,0,0
469,-230,0,0,0,0,0,0,0,0,0,-1,1693,1254,0,0
476,-230,0,0,0,0,0,0,0,0,0,-1,1700,1254,0,0
483,-230,0,0,0,0,0,0,0,0,0,-1,1707,1254,0,0
490,-230,0,0,0,0,0,0,0,0,0,-1,1714,1254,0,0
497,-230,0,0,0,0,0,0,0,0,0,-1,1721,1254,0,0
504,-230,0,0,0,0,0,0,0,0,0,-1,1728,1254,0,0
511,-230,0,0,0,0,0,0,0,0,0,-1,1735,1254,0,0
518,-230,0,0,0,0,0,0,0,0,0,-1,1742,1254,0,0
525,-230,0,0,0,0,0,0,0,0,0,-1,1749,1254,0,0
532,-230,0,0,0,0,0,0,0,0,0,-1,1756,1254,0,0
539,-230,0,0,0,0,0,0,0,0,0,-1,1763,1254,0,0
546,-230,0,0,0,0,0,0,0,0,0,-1,1770,1254,0,0
553,-230,0,0,0,0,0,0,0,0,0,-1,1777,1254,0,0
560,-230,0,0,0,0,0,0,0,0,0,-1,1784,1254,0,0
567,-230,0,0,0,0,0,0,0,0,0,-1,1791,1254,0,0
574,-230,0,0,0,0,0,0,0,0,0,-1,1798,1254,0,0
581,-230,0,0,0,0,0,0,0,0,0,-1,1805,1254,0,0
588,-230,0,0,0,0,0,0,0,0,0,-1,1812,1254,0,0
595,-230,0,0,0,0,0,0,0,0,0,-1,1819,1254,0,0
602,-230,0,0,0,0,0,0,0,0,0,-1,1826,1254,0,0
609,-230,0,0,0,0,0,0,0,0,0,-1,1833,1254,0,0
616,-230,34.0873,2.92981,0.000610658,0.00275986,0.000942114,0.00311436,0.000256152,1.2109,0.00199634,0.034723,1840,1254,34.0873,-2.92986
623,-230,34.0718,2.91577,0.00101755,0.00271872,-1.32165e-05,0.00271882,0.00101745,-1.56303,0.00158618,0.0367053,1847,1254,34.0718,-2.91581
630,-230,34.0159,2.87671,-0.000814606,0.00408496,-0.0010434,0.0042979,-0.00102755,-1.36947,0.00326218,0.0336251,1854,1254,34.0159,-2.8767
637,-230,33.9785,2.80481,-0.00307409,0.00534538,-0.0023135,0.0059392,-0.00366791,-1.31954,0.0055981,0.0262747,1861,1254,33.9785,-2.80477
644,-230,33.9528,2.70605,-0.00430398,0.00554501,-0.00286949,0.00632004,-0.00507901,-1.307,0.00659423,0.0197706,1868,1254,33.9528,-2.7061
651,-230,33.9808,2.73145,-0.00455668,0.00520135,-0.00308434,0.0060945,-0.00544984,-1.28893,0.00666859,0.0395159,1875,1254,33.9809,-2.73145
658,-230,33.9838,2.77905,0,0,0,0,0,0,0,-1,1882,1254,33.9837,-2.77901
665,-230,34.1503,2.6051,0,0,0,0,0,0,0,-1,1889,1254,34.1503,-2.60506
672,-230,34.6348,2.4574,0,0,0,0,0,0,0,-1,1896,1254,34.6347,-2.45738
679,-230,27.9967,2.37708,0,0,0,0,0,0,0,-1,1903,1254,27.9967,-2.3771
686,-230,27.1571,7.30457,0,0,0,0,0,0,0,-1,1910,1254,27.1571,-7.30452
693,-230,27.2236,7.18188,-0.0031972,0.00168191,-0.00187081,0.00231666,-0.00383195,-1.24369,0.00358565,0.0355322,1917,1254,27.2237,-7.18193
700,-230,27.2974,6.99731,-0.00253969,0.00132909,-0.00144037,0.00180645,-0.00301705,-1.25077,0.00281393,0.0125032,1924,1254,27.2973,-6.99727
707,-230,27.2799,6.70093,-0.00153496,0.000802104,-0.000856666,0.00108248,-0.00181534,-1.25449,0.0016908,0.0102956,1931,1254,27.2799,-6.70098
714,-230,27.2552,6.38049,-0.000533992,0.000494033,-0.000261997,0.000556953,-0.000596912,-1.3351,0.000666317,0.0135922,1938,1254,27.2552,-6.38055
721,-230,27.2566,6.06763,0.000925669,0.000283343,0.000448251,0.00115594,5.30762e-05,0.474548,0.000753555,0.0135421,1945,1254,27.2565,-6.06767
728,-230,27.2471,5.79773,0.00271869,4.7521e-05,0.000469976,0.00279897,-3.27561e-05,0.169178,0.00187699,0.0139804,1952,1254,27.2471,-5.79773
735,-230,27.2385,5.53894,0.00450036,0.000561657,0.000273885,0.00451931,0.000542703,0.0690938,0.00284925,0.0147676,1959,1254,27.2386,-5.53889
742,-230,27.2335,5.25098,0.0071823,0.00114597,-0.000307019,0.00719788,0.00113039,-0.0506875,0.00446969,0.0116931,1966,1254,27.2336,-5.25099
749,-230,27.2321,4.9231,0.011143,0.00178732,-0.00118142,0.0112898,0.00164043,-0.123692,0.00704371,0.0112742,1973,1254,27.232,-4.92304
756,-230,27.2527,4.64233,0.0169827,0.00249514,-0.00260754,0.0174377,0.00204011,-0.172765,0.0110083,0.0163368,1980,1254,27.2527,-4.64238
763,-230,27.4197,4.24707,0.0254328,0.00318146,-0.00473015,0.0263966,0.00221768,-0.201001,0.0169071,0.0309148,1987,1254,27.4197,-4.24705
770,-230,27.5797,4.19434,0,0,0,0,0,0,0,-1,1994,1254,27.5797,-4.1943
777,-230,27.9958,4.15942,0,0,0,0,0,0,0,-1,2001,1254,27.9959,-4.15946
784,-230,30.9982,4.07373,0,0,0,0,0,0,0,-1,2008,1254,30.9981,-4.07375
791,-230,31.9327,5.41675,0,0,0,0,0,0,0,-1,2015,1254,31.9328,-5.41679
798,-230,0,0,0,0,0,0,0,0,0,-1,2022,1254,0,0
805,-230,0,0,0,0,0,0,0,0,0,-1,2029,1254,0,0
812,-230,0,0,0,0,0,0,0,0,0,-1,2036,1254,0,0
-700,-237,0,0,0,0,0,0,0,0,0,-1,524,1261,0,0
-693,-237,0,0,0,0,0,0,0,0,0,-1,531,1261,0,0
-686,-237,0,0,0,0,0,0,0,0,0,-1,538,1261,0,0
-679,-237,0,0,0,0,0,0,0,0,0,-1,545,1261,0,0
-672,-237,-20.7651,-0.794556,-0.118386,0.106217,0.0521572,0.117738,-0.129907,1.3534,0.143035,0.0458726,552,1261,-20.7651,0.794566
-665,-237,-22.1313,-0.946655,-0.0923735,0.088601,0.0443723,0.0988949,-0.102667,1.34284,0.116379,0.049486,559,1261,-22.1313,0.946692
-658,-237,-22.8885,-0.800171,0,0,0,0,0,0,0,-1,566,1261,-22.8885,0.800197
-651,-237,-23.618,-0.686279,0,0,0,0,0,0,0,-1,573,1261,-23.6181,0.686242
-644,-237,-18.5191,1.15417,0,0,0,0,0,0,0,-1,580,1261,-18.5191,-1.15418
-637,-237,-16.5845,1.29736,0,0,0,0,0,0,0,-1,587,1261,-16.5844,-1.29738
-630,-237,-16.5751,1.67126,-0.0103129,0.0228673,0.0111813,0.0262835,-0.0137291,1.27427,0.0234773,0.0429634,594,1261,-16.5751,-1.6713
-623,-237,-16.5488,2.07324,-0.0042412,0.0155926,0.00681846,0.0177105,-0.00635909,1.26963,0.0144025,0.0277236,601,1261,-16.5488,-2.07325
-616,-237,-16.5486,2.38354,0.0011493,0.00917007,0.00349948,0.0104822,-0.000162862,1.21206,0.00704307,0.013839,608,1261,-16.5486,-2.38353
-609,-237,-16.5695,2.6925,0.00382202,0.00452996,0.00103988,0.00527447,0.00307751,0.949443,0.00305933,0.0159165,615,1261,-16.5695,-2.69249
-602,-237,-16.5864,3.02356,0.00342044,0.00276967,0.000601791,0.00377918,0.00241093,0.537565,0.00220942,0.0124466,622,1261,-16.5864,-3.02359
-595,-237,-16.6019,3.38684,0.00288023,0.00175484,0.000748347,0.00325383,0.00138124,0.463035,0.00188572,0.0162363,629,1261,-16.6019,-3.38683
-588,-237,-16.6033,3.72485,0.00250722,0.00126192,0.00118909,0.00322682,0.00054232,0.544208,0.00199516,0.0277652,636,1261,-16.6032,-3.72487
-581,-237,-16.608,4.04272,0.00239313,0.00109225,0.00176282,0.00362168,-0.000136294,0.608659,0.00246114,0.0254413,643,1261,-16.608,-4.04271
-574,-237,-16.6025,4.36816,0.00253248,0.00130586,0.00245706,0.00445161,-0.000613274,0.663092,0.00319187,0.0157841,650,1261,-16.6026,-4.36814
-567,-237,-16.5253,4.7439,0.00196966,0.00232819,0.00326618,0.00542002,-0.00112217,0.812814,0.0040397,0.0206737,657,1261,-16.5254,-4.74395
-560,-237,-16.1927,5.24084,0.00102414,0.00329059,0.00383939,0.0061605,-0.00184577,0.928902,0.004841,0.0442943,664,1261,-16.1927,-5.24088
-553,-237,-15.8273,5.61926,0,0,0,0,0,0,0,-1,671,1261,-15.8273,-5.61922
-546,-237,-11.192,1.14014,0,0,0,0,0,0,0,-1,678,1261,-11.192,-1.14011
-539,-237,-16.512,1.53455,0,0,0,0,0,0,0,-1,685,1261,-16.512,-1.53457
-532,-237,-22.1423,1.43213,0,0,0,0,0,0,0,-1,692,1261,-22.1423,-1.43207
-525,-237,-23.6599,1.71167,0,0,0,0,0,0,0,-1,699,1261,-23.6599,-1.71169
-518,-237,-23.9311,0.718872,0,0,0,0,0,0,0,-1,706,1261,-23.9311,-0.718853
-511,-237,-24.0644,0.817505,-0.0143462,-0.00319602,0.012172,0.00461694,-0.0221592,1.00015,0.0165281,0.0433906,713,1261,-24.0644,-0.817481
-504,-237,-24.2595,1.05957,-0.0161276,-0.00714324,0.0139748,0.00304363,-0.0263145,0.940907,0.0186406,0.0412149,720,1261,-24.2595,-1.05952
-497,-237,-24.3334,1.23499,-0.014648,-0.0128363,0.0149721,0.00125735,-0.0287417,0.815613,0.0195937,0.046758,727,1261,-24.3335,-1.23499
-490,-237,0,0,0,0,0,0,0,0,0,-1,734,1261,0,0
-483,-237,0,0,0,0,0,0,0,0,0,-1,741,1261,0,0
-476,-237,0,0,0,0,0,0,0,0,0,-1,748,1261,0,0
-469,-237,0,0,0,0,0,0,0,0,0,-1,755,1261,0,0
-462,-237,0,0,0,0,0,0,0,0,0,-1,762,1261,0,0
-455,-237,0,0,0,0,0,0,0,0,0,-1,769,1261,0,0
-448,-237,0,0,0,0,0,0,0,0,0,-1,776,1261,0,0
-441,-237,0,0,0,0,0,0,0,0,0,-1,783,1261,0,0
-434,-237,0,0,0,0,0,0,0,0,0,-1,790,1261,0,0
-427,-237,0,0,0,0,0,0,0,0,0,-1,797,1261,0,0
-420,-237,0,0,0,0,0,0,0,0,0,-1,804,1261,0,0
-413,-237,0,0,0,0,0,0,0,0,0,-1,811,1261,0,0
-406,-237,0,0,0,0,0,0,0,0,0,-1,818,1261,0,0
-399,-237,0,0,0,0,0,0,0,0,0,-1,825,1261,0,0
-392,-237,0,0,0,0,0,0,0,0,0,-1,832,1261,0,0
-385,-237,0,0,0,0,0,0,0,0,0,-1,839,1261,0,0
-378,-237,0,0,0,0,0,0,0,0,0,-1,846,1261,0,0
-371,-237,0,0,0,0,0,0,0,0,0,-1,853,1261,0,0
-364,-237,0,0,0,0,0,0,0,0,0,-1,860,1261,0,0
-357,-237,0,0,0,0,0,0,0,0,0,-1,867,1261,0,0
-350,-237,0,0,0,0,0,0,0,0,0,-1,874,1261,0,0
-343,-237,0,0,0,0,0,0,0,0,0,-1,881,1261,0,0
-336,-237,0,0,0,0,0,0,0,0,0,-1,888,1261,0,0
-329,-237,0,0,0,0,0,0,0,0,0,-1,895,1261,0,0
-322,-237,0,0,0,0,0,0,0,0,0,-1,902,1261,0,0
-315,-237,0,0,0,0,0,0,0,0,0,-1,909,1261,0,0
-308,-237,0,0,0,0,0,0,0,0,0,-1,916,1261,0,0
-301,-237,0,0,0,0,0,0,0,0,0,-1,923,1261,0,0
-294,-237,0,0,0,0,0,0,0,0,0,-1,930,1261,0,0
-287,-237,0,0,0,0,0,0,0,0,0,-1,937,1261,0,0
-280,-237,0,0,0,0,0,0,0,0,0,-1,944,1261,0,0
-273,-237,0,0,0,0,0,0,0,0,0,-1,951,1261,0,0
-266,-237,0,0,0,0,0,0,0,0,0,-1,958,1261,0,0
-259,-237,0,0,0,0,0,0,0,0,0,-1,965,1261,0,0
-252,-237,0,0,0,0,0,0,0,0,0,-1,972,1261,0,0
-245,-237,0,0,0,0,0,0,0,0,0,-1,979,1261,0,0
-238,-237,0,0,0,0,0,0,0,0,0,-1,986,1261,0,0
-231,-237,0,0,0,0,0,0,0,0,0,-1,993,1261,0,0
-224,-237,0,0,0,0,0,0,0,0,0,-1,1000,1261,0,0
-217,-237,0,0,0,0,0,0,0,0,0,-1,1007,1261,0,0
-210,-237,0,0,0,0,0,0,0,0,0,-1,1014,1261,0,0
-203,-237,0,0,0,0,0,0,0,0,0,-1,1021,1261,0,0
-196,-237,0,0,0,0,0,0,0,0,0,-1,1028,1261,0,0
-189,-237,0,0,0,0,0,0,0,0,0,-1,1035,1261,0,0
-182,-237,0,0,0,0,0,0,0,0,0,-1,1042,1261,0,0
-175,-237,0,0,0,0,0,0,0,0,0,-1,1049,1261,0,0
-168,-237,0,0,0,0,0,0,0,0,0,-1,1056,1261,0,0
-161,-237,0,0,0,0,0,0,0,0,0,-1,1063,1261,0,0
-154,-237,0,0,0,0,0,0,0,0,0,-1,1070,1261,0,0
-147,-237,0,0,0,0,0,0,0,0,0,-1,1077,1261,0,0
-140,-237,0,0,0,0,0,0,0,0,0,-1,1084,1261,0,0
-133,-237,0,0,0,0,0,0,0,0,0,-1,1091,1261,0,0
-126,-237,0,0,0,0,0,0,0,0,0,-1,1098,1261,0,0
-119,-237,0,0,0,0,0,0,0,0,0,-1,1105,1261,0,0
-112,-237,0,0,0,0,0,0,0,0,0,-1,1112,1261,0,0
-105,-237,0,0,0,0,0,0,0,0,0,-1,1119,1261,0,0
-98,-237,0,0,0,0,0,0,0,0,0,-1,1126,1261,0,0
-91,-237,0,0,0,0,0,0,0,0,0,-1,1133,1261,0,0
-84,-237,0,0,0,0,0,0,0,0,0,-1,1140,1261,0,0
-77,-237,0,0,0,0,0,0,0,0,0,-1,1147,1261,0,0
-70,-237,0,0,0,0,0,0,0,0,0,-1,1154,1261,0,0
-63,-237,0,0,0,0,0,0,0,0,0,-1,1161,1261,0,0
-56,-237,0,0,0,0,0,0,0,0,0,-1,1168,1261,0,0
-49,-237,0,0,0,0,0,0,0,0,0,-1,1175,1261,0,0
-42,-237,0,0,0,0,0,0,0,0,0,-1,1182,1261,0,0
-35,-237,0,0,0,0,0,0,0,0,0,-1,1189,1261,0,0
-28,-237,0,0,0,0,0,0,0,0,0,-1,1196,1261,0,0
-21,-237,0,0,0,0,0,0,0,0,0,-1,1203,1261,0,0
-14,-237,0,0,0,0,0,0,0,0,0,-1,1210,1261,0,0
-7,-237,0,0,0,0,0,0,0,0,0,-1,1217,1261,0,0
0,-237,0,0,0,0,0,0,0,0,0,-1,1224,1261,0,0
7,-237,0,0,0,0,0,0,0,0,0,-1,1231,1261,0,0
14,-237,0,0,0,0,0,0,0,0,0,-1,1238,1261,0,0
21,-237,0,0,0,0,0,0,0,0,0,-1,1245,1261,0,0
28,-237,0,0,0,0,0,0,0,0,0,-1,1252,1261,0,0
35,-237,0,0,0,0,0,0,0,0,0,-1,1259,1261,0,0
42,-237,0,0,0,0,0,0,0,0,0,-1,1266,1261,0,0
49,-237,0,0,0,0,0,0,0,0,0,-1,1273,1261,0,0
56,-237,0,0,0,0,0,0,0,0,0,-1,1280,1261,0,0
63,-237,0,0,0,0,0,0,0,0,0,-1,1287,1261,0,0
70,-237,0,0,0,0,0,0,0,0,0,-1,1294,1261,0,0
77,-237,0,0,0,0,0,0,0,0,0,-1,1301,1261,0,0
84,-237,0,0,0,0,0,0,0,0,0,-1,1308,1261,0,0
91,-237,0,0,0,0,0,0,0,0,0,-1,1315,1261,0,0
98,-237,0,0,0,0,0,0,0,0,0,-1,1322,1261,0,0
105,-237,0,0,0,0,0,0,0,0,0,-1,1329,1261,0,0
112,-237,0,0,0,0,0,0,0,0,0,-1,1336,1261,0,0
119,-237,0,0,0,0,0,0,0,0,0,-1,1343,1261,0,0
126,-237,0,0,0,0,0,0,0,0,0,-1,1350,1261,0,0
133,-237,0,0,0,0,0,0,0,0,0,-1,1357,1261,0,0
140,-237,0,0,0,0,0,0,0,0,0,-1,1364,1261,0,0
147,-237,0,0,0,0,0,0,0,0,0,-1,1371,1261,0,0
154,-237,0,0,0,0,0,0,0,0,0,-1,1378,1261,0,0
161,-237,0,0,0,0,0,0,0,0,0,-1,1385,1261,0,0
168,-237,0,0,0,0,0,0,0,0,0,-1,1392,1261,0,0
175,-237,0,0,0,0,0,0,0,0,0,-1,1399,1261,0,0
182,-237,0,0,0,0,0,0,0,0,0,-1,1406,1261,0,0
189,-237,0,0,0,0,0,0,0,0,0,-1,1413,1261,0,0
196,-237,0,0,0,0,0,0,0,0,0,-1,1420,1261,0,0
203,-237,0,0,0,0,0,0,0,0,0,-1,1427,1261,0,0
210,-237,0,0,0,0,0,0,0,0,0,-1,1434,1261,0,0
217,-237,0,0,0,0,0,0,0,0,0,-1,1441,1261,0,0
224,-237,0,0,0,0,0,0,0,0,0,-1,1448,1261,0,0
231,-237,0,0,0,0,0,0,0,0,0,-1,1455,1261,0,0
238,-237,0,0,0,0,0,0,0,0,0,-1,1462,1261,0,0
245,-237,0,0,0,0,0,0,0,0,0,-1,1469,1261,0,0
252,-237,0,0,0,0,0,0,0,0,0,-1,1476,1261,0,0
259,-237,0,0,0,0,0,0,0,0,0,-1,1483,1261,0,0
266,-237,0,0,0,0,0,0,0,0,0,-1,1490,1261,0,0
273,-237,0,0,0,0,0,0,0,0,0,-1,1497,1261,0,0
280,-237,0,0,0,0,0,0,0,0,0,-1,1504,1261,0,0
287,-237,0,0,0,0,0,0,0,0,0,-1,1511,1261,0,0
294,-237,0,0,0,0,0,0,0,0,0,-1,1518,1261,0,0
301,-237,0,0,0,0,0,0,0,0,0,-1,1525,1261,0,0
308,-237,0,0,0,0,0,0,0,0,0,-1,1532,1261,0,0
315,-237,0,0,0,0,0,0,0,0,0,-1,1539,1261,0,0
322,-237,0,0,0,0,0,0,0,0,0,-1,1546,1261,0,0
329,-237,0,0,0,0,0,0,0,0,0,-1,1553,1261,0,0
336,-237,0,0,0,0,0,0,0,0,0,-1,1560,1261,0,0
343,-237,0,0,0,0,0,0,0,0,0,-1,1567,1261,0,0
350,-237,0,0,0,0,0,0,0,0,0,-1,1574,1261,0,0
357,-237,0,0,0,0,0,0,0,0,0,-1,1581,1261,0,0
364,-237,0,0,0,0,0,0,0,0,0,-1,1588,1261,0,0
371,-237,0,0,0,0,0,0,0,0,0,-1,1595,1261,0,0
378,-237,0,0,0,0,0,0,0,0,0,-1,1602,1261,0,0
385,-237,0,0,0,0,0,0,0,0,0,-1,1609,1261,0,0
392,-237,0,0,0,0,0,0,0,0,0,-1,1616,1261,0,0
399,-237,0,0,0,0,0,0,0,0,0,-1,1623,1261,0,0
406,-237,0,0,0,0,0,0,0,0,0,-1,1630,1261,0,0
413,-237,0,0,0,0,0,0,0,0,0,-1,1637,1261,0,0
420,-237,0,0,0,0,0,0,0,0,0,-1,1644,1261,0,0
427,-237,0,0,0,0,0,0,0,0,0,-1,1651,1261,0,0
434,-237,0,0,0,0,0,0,0,0,0,-1,1658,1261,0,0
441,-237,0,0,0,0,0,0,0,0,0,-1,1665,1261,0,0
448,-237,0,0,0,0,0,0,0,0,0,-1,1672,1261,0,0
455,-237,0,0,0,0,0,0,0,0,0,-1,1679,1261,0,0
462,-237,0,0,0,0,0,0,0,0,0,-1,1686,1261,0,0
469,-237,0,0,0,0,0,0,0,0,0,-1,1693,1261,0,0
476,-237,0,0,0,0,0,0,0,0,0,-1,1700,1261,0,0
483,-237,0,0,0,0,0,0,0,0,0,-1,1707,1261,0,0
490,-237,0,0,0,0,0,0,0,0,0,-1,1714,1261,0,0
497,-237,0,0,0,0,0,0,0,0,0,-1,1721,1261,0,0
504,-237,0,0,0,0,0,0,0,0,0,-1,1728,1261,0,0
511,-237,0,0,0,0,0,0,0,0,0,-1,1735,1261,0,0
518,-237,0,0,0,0,0,0,0,0,0,-1,1742,1261,0,0
525,-237,0,0,0,0,0,0,0,0,0,-1,1749,1261,0,0
532,-237,0,0,0,0,0,0,0,0,0,-1,1756,1261,0,0
539,-237,0,0,0,0,0,0,0,0,0,-1,1763,1261,0,0
546,-237,0,0,0,0,0,0,0,0,0,-1,1770,1261,0,0
553,-237,0,0,0,0,0,0,0,0,0,-1,1777,1261,0,0
560,-237,0,0,0,0,0,0,0,0,0,-1,1784,1261,0,0
567,-237,0,0,0,0,0,0,0,0,0,-1,1791,1261,0,0
574,-237,0,0,0,0,0,0,0,0,0,-1,1798,1261,0,0
581,-237,0,0,0,0,0,0,0,0,0,-1,1805,1261,0,0
588,-237,0,0,0,0,0,0,0,0,0,-1,1812,1261,0,0
595,-237,0,0,0,0,0,0,0,0,0,-1,1819,1261,0,0
602,-237,0,0,0,0,0,0,0,0,0,-1,1826,1261,0,0
609,-237,0,0,0,0,0,0,0,0,0,-1,1833,1261,0,0
616,-237,34.0721,2.87561,-0.000565153,0.00458798,-0.000755382,0.00469643,-0.0006736,-1.42821,0.00337795,0.0363484,1840,1261,34.0722,-2.87566
623,-237,34.0598,2.82764,0.000341974,0.00514793,-0.00153309,0.00559533,-0.000105428,-1.28685,0.00376585,0.0338426,1847,1261,34.0598,-2.82764
630,-237,34.0001,2.80969,-0.000932897,0.00665575,-0.00249671,0.0074035,-0.00168065,-1.2798,0.00558088,0.0263274,1854,1261,34.0002,-2.80969
637,-237,33.9899,2.77039,-0.00255926,0.00753094,-0.00336599,0.00855073,-0.00357905,-1.27662,0.00719655,0.0204941,1861,1261,33.9899,-2.77035
644,-237,33.9833,2.73645,-0.003333,0.00712743,-0.00349656,0.00818856,-0.00439413,-1.27615,0.0073739,0.03947,1868,1261,33.9833,-2.73646
651,-237,33.9019,2.54333,-0.00344077,0.0063679,-0.00341743,0.00744113,-0.004514,-1.2665,0.00697092,0.0464548,1875,1261,33.9018,-2.54333
658,-237,33.9697,2.74561,0,0,0,0,0,0,0,-1,1882,1261,33.9698,-2.74557
665,-237,34.5433,2.52795,0,0,0,0,0,0,0,-1,1889,1261,34.5433,-2.52796
672,-237,35.1169,2.3103,0,0,0,0,0,0,0,-1,1896,1261,35.1169,-2.31035
679,-237,23.1501,7.37488,0,0,0,0,0,0,0,-1,1903,1261,23.1502,-7.37493
686,-237,27.1605,7.87109,0,0,0,0,0,0,0,-1,1910,1261,27.1605,-7.87106
693,-237,26.9021,7.27966,-0.00288674,0.00180792,-0.00195086,0.00251278,-0.00359159,-1.22409,0.00354265,0.0367098,1917,1261,26.9021,-7.27961
700,-237,26.9811,7.01111,-0.00219897,0.00150296,-0.0015307,0.0020539,-0.00274991,-1.22531,0.00278317,0.0119712,1924,1261,26.9811,-7.01107
707,-237,26.9785,6.72302,-0.00117798,0.000962897,-0.000924489,0.00130686,-0.00152194,-1.21461,0.00163478,0.0105179,1931,1261,26.9786,-6.72306
714,-237,26.9618,6.40613,-0.000170229,0.000662069,-0.000338745,0.000782509,-0.000290669,-1.22919,0.000640923,0.014471,1938,1261,26.9618,-6.40617
721,-237,26.9255,6.08826,0.00123257,0.000495799,0.000301571,0.00134027,0.000388104,0.342999,0.000796318,0.0160611,1945,1261,26.9255,-6.08826
728,-237,26.9558,5.78833,0.00289191,0.000396689,0.000345748,0.00293893,0.000349667,0.135172,0.00185376,0.0147907,1952,1261,26.9558,-5.78835
735,-237,26.9502,5.52722,0.00463126,0.000942911,0.000159018,0.0046381,0.000936067,0.0430073,0.00283209,0.0190615,1959,1261,26.9502,-5.52728
742,-237,26.9408,5.24609,0.00728138,0.0015929,-0.000367395,0.00730501,0.00156927,-0.0642302,0.00444033,0.0143363,1966,1261,26.9407,-5.24603
749,-237,26.9043,4.9646,0.0113155,0.00234388,-0.00120899,0.0114756,0.00218382,-0.131629,0.00703631,0.0100019,1973,1261,26.9043,-4.96462
756,-237,26.8977,4.66528,0.01739,0.00325844,-0.00266931,0.0178774,0.00277104,-0.180603,0.0111104,0.0161155,1980,1261,26.8978,-4.66532
763,-237,27.0251,4.20862,0.0262205,0.00427662,-0.00491473,0.0272709,0.00322616,-0.210568,0.0172064,0.0310106,1987,1261,27.0252,-4.20863
770,-237,27.4441,3.63416,0,0,0,0,0,0,0,-1,1994,1261,27.444,-3.6342
777,-237,27.7866,3.10327,0,0,0,0,0,0,0,-1,2001,1261,27.7866,-3.10321
784,-237,31.3258,4.6687,0,0,0,0,0,0,0,-1,2008,1261,31.3258,-4.66869
791,-237,32.3025,6.03235,0,0,0,0,0,0,0,-1,2015,1261,32.3025,-6.03229
798,-237,0,0,0,0,0,0,0,0,0,-1,2022,1261,0,0
805,-237,0,0,0,0,0,0,0,0,0,-1,2029,1261,0,0
812,-237,0,0,0,0,0,0,0,0,0,-1,2036,1261,0,0
-700,-244,0,0,0,0,0,0,0,0,0,-1,524,1268,0,0
-693,-244,0,0,0,0,0,0,0,0,0,-1,531,1268,0,0
-686,-244,0,0,0,0,0,0,0,0,0,-1,538,1268,0,0
-679,-244,0,0,0,0,0,0,0,0,0,-1,545,1268,0,0
-672,-244,-21.2925,-1.64099,0,0,0,0,0,0,0,-1,552,1268,-21.2925,1.64105
-665,-244,-23.015,-1.63867,0,0,0,0,0,0,0,-1,559,1268,-23.015,1.63871
-658,-244,-23.7127,-1.54932,0,0,0,0,0,0,0,-1,566,1268,-23.7127,1.54926
-651,-244,-18.4518,-0.824707,0,0,0,0,0,0,0,-1,573,1268,-18.4519,0.824748
-644,-244,-18.29,0.781738,0,0,0,0,0,0,0,-1,580,1268,-18.2901,-0.781769
-637,-244,-16.2527,1.30371,0,0,0,0,0,0,0,-1,587,1268,-16.2527,-1.30371
-630,-244,-16.298,1.68298,-0.0119912,0.0226424,0.0104748,0.0255641,-0.0149128,1.29879,0.0236375,0.0426859,594,1268,-16.298,-1.68302
-623,-244,-16.2862,2.06946,-0.00516268,0.0152025,0.00628447,0.0169856,-0.00694587,1.29432,0.0142164,0.0322188,601,1268,-16.2862,-2.06948
-616,-244,-16.2191,2.39319,0.00078007,0.00854437,0.00308586,0.00962141,-0.000296975,1.23499,0.00651552,0.0173333,608,1268,-16.2191,-2.39314
-609,-244,-16.2234,2.68762,0.00340303,0.00431672,0.000891964,0.00486202,0.00285772,1.02207,0.00282147,0.0150086,615,1268,-16.2234,-2.68768
-602,-244,-16.2357,3.02625,0.00310998,0.00276458,0.000546531,0.00351045,0.00236412,0.632367,0.00206701,0.0155202,622,1268,-16.2357,-3.02625
-595,-244,-16.2728,3.3877,0.00295092,0.00173183,0.000817367,0.003361,0.00132175,0.465011,0.00195516,0.0162913,629,1268,-16.2728,-3.38775
-588,-244,-16.2615,3.7373,0.00298075,0.00115166,0.00134024,0.00368874,0.000443672,0.485999,0.00232542,0.0198808,636,1268,-16.2615,-3.73732
-581,-244,-16.2591,4.05054,0.00323294,0.000864948,0.00199805,0.00437146,-0.000273567,0.517927,0.00300964,0.0172295,643,1268,-16.2591,-4.05048
-574,-244,-16.2593,4.39722,0.00366108,0.00089362,0.0027717,0.00537525,-0.000820558,0.553881,0.00388601,0.0135759,650,1268,-16.2593,-4.39718
-567,-244,-16.2518,4.74792,0.00310738,0.00180021,0.00364623,0.00615813,-0.00125055,0.696715,0.00457955,0.0115789,657,1268,-16.2518,-4.74796
-560,-244,-16.207,5.13403,0.00180805,0.00279574,0.00427234,0.00660268,-0.0019989,0.842939,0.00519783,0.0270582,664,1268,-16.207,-5.13403
-553,-244,-16.1078,5.56152,0,0,0,0,0,0,0,-1,671,1268,-16.1078,-5.5615
-546,-244,-11.2686,4.41772,0,0,0,0,0,0,0,-1,678,1268,-11.2686,-4.41767
-539,-244,-12.8706,0.3302,0,0,0,0,0,0,0,-1,685,1268,-12.8706,-0.330156
-532,-244,-18.1502,0.816528,0,0,0,0,0,0,0,-1,692,1268,-18.1502,-0.816514
-525,-244,-22.6815,-0.696533,0,0,0,0,0,0,0,-1,699,1268,-22.6815,0.696509
-518,-244,-23.1915,-0.00500488,-0.0131009,-0.00133115,0.0116202,0.00580933,-0.0202413,1.01979,0.015791,0.0431188,706,1268,-23.1915,0.00494828
-511,-244,-23.7927,0.635986,-0.0168658,-0.00426421,0.0141135,0.00489111,-0.0260211,0.995342,0.0191867,0.046597,713,1268,-23.7927,-0.635939
-504,-244,-24.3885,1.26282,-0.0201133,-0.00863503,0.01723,0.00378654,-0.0325349,0.946164,0.023056,0.0491583,720,1268,-24.3885,-1.26281
-497,-244,-24.486,1.42285,-0.0218353,-0.0145489,0.019733,0.00187435,-0.0382586,0.876683,0.0261529,0.04884,727,1268,-24.486,-1.42285
-490,-244,0,0,0,0,0,0,0,0,0,-1,734,1268,0,0
-483,-244,0,0,0,0,0,0,0,0,0,-1,741,1268,0,0
-476,-244,0,0,0,0,0,0,0,0,0,-1,748,1268,0,0
-469,-244,0,0,0,0,0,0,0,0,0,-1,755,1268,0,0
-462,-244,0,0,0,0,0,0,0,0,0,-1,762,1268,0,0
-455,-244,0,0,0,0,0,0,0,0,0,-1,769,1268,0,0
-448,-244,0,0,0,0,0,0,0,0,0,-1,776,1268,0,0
-441,-244,0,0,0,0,0,0,0,0,0,-1,783,1268,0,0
-434,-244,0,0,0,0,0,0,0,0,0,-1,790,1268,0,0
-427,-244,0,0,0,0,0,0,0,0,0,-1,797,1268,0,0
-420,-244,0,0,0,0,0,0,0,0,0,-1,804,1268,0,0
-413,-244,0,0,0,0,0,0,0,0,0,-1,811,1268,0,0
-406,-244,0,0,0,0,0,0,0,0,0,-1,818,1268,0,0
-399,-244,0,0,0,0,0,0,0,0,0,-1,825,1268,0,0
-392,-244,0,0,0,0,0,0,0,0,0,-1,832,1268,0,0
-385,-244,0,0,0,0,0,0,0,0,0,-1,839,1268,0,0
-378,-244,0,0,0,0,0,0,0,0,0,-1,846,1268,0,0
-371,-244,0,0,0,0,0,0,0,0,0,-1,853,1268,0,0
-364,-244,0,0,0,0,0,0,0,0,0,-1,860,1268,0,0
-357,-244,0,0,0,0,0,0,0,0,0,-1,867,1268,0,0
-350,-244,0,0,0,0,0,0,0,0,0,-1,874,1268,0,0
-343,-244,0,0,0,0,0,0,0,0,0,-1,881,1268,0,0
-336,-244,0,0,0,0,0,0,0,0,0,-1,888,1268,0,0
-329,-244,0,0,0,0,0,0,0,0,0,-1,895,1268,0,0
-322,-244,0,0,0,0,0,0,0,0,0,-1,902,1268,0,0
-315,-244,0,0,0,0,0,0,0,0,0,-1,909,1268,0,0
-308,-244,0,0,0,0,0,0,0,0,0,-1,916,1268,0,0
-301,-244,0,0,0,0,0,0,0,0,0,-1,923,1268,0,0
-294,-244,0,0,0,0,0,0,0,0,0,-1,930,1268,0,0
-287,-244,0,0,0,0,0,0,0,0,0,-1,937,1268,0,0
-280,-244,0,0,0,0,0,0,0,0,0,-1,944,1268,0,0
-273,-244,0,0,0,0,0,0,0,0,0,-1,951,1268,0,0
-266,-244,0,0,0,0,0,0,0,0,0,-1,958,1268,0,0
-259,-244,0,0,0,0,0,0,0,0,0,-1,965,1268,0,0
-252,-244,0,0,0,0,0,0,0,0,0,-1,972,1268,0,0
-245,-244,0,0,0,0,0,0,0,0,0,-1,979,1268,0,0
-238,-244,0,0,0,0,0,0,0,0,0,-1,986,1268,0,0
-231,-244,0,0,0,0,0,0,0,0,0,-1,993,1268,0,0
-224,-244,0,0,0,0,0,0,0,0,0,-1,1000,1268,0,0
-217,-244,0,0,0,0,0,0,0,0,0,-1,1007,1268,0,0
-210,-244,0,0,0,0,0,0,0,0,0,-1,1014,1268,0,0
-203,-244,0,0,0,0,0,0,0,0,0,-1,1021,1268,0,0
-196,-244,0,0,0,0,0,0,0,0,0,-1,1028,1268,0,0
-189,-244,0,0,0,0,0,0,0,0,0,-1,1035,1268,0,0
-182,-244,0,0,0,0,0,0,0,0,0,-1,1042,1268,0,0
-175,-244,0,0,0,0,0,0,0,0,0,-1,1049,1268,0,0
-168,-244,0,0,0,0,0,0,0,0,0,-1,1056,1268,0,0
-161,-244,0,0,0,0,0,0,0,0,0,-1,1063,1268,0,0
-154,-244,0,0,0,0,0,0,0,0,0,-1,1070,1268,0,0
-147,-244,0,0,0,0,0,0,0,0,0,-1,1077,1268,0,0
-140,-244,0,0,0,0,0,0,0,0,0,-1,1084,1268,0,0
-133,-244,0,0,0,0,0,0,0,0,0,-1,1091,1268,0,0
-126,-244,0,0,0,0,0,0,0,0,0,-1,1098,1268,0,0
-119,-244,0,0,0,0,0,0,0,0,0,-1,1105,1268,0,0
-112,-244,0,0,0,0,0,0,0,0,0,-1,1112,1268,0,0
-105,-244,0,0,0,0,0,0,0,0,0,-1,1119,1268,0,0
-98,-244,0,0,0,0,0,0,0,0,0,-1,1126,1268,0,0
-91,-244,0,0,0,0,0,0,0,0,0,-1,1133,1268,0,0
-84,-244,0,0,0,0,0,0,0,0,0,-1,1140,1268,0,0
-77,-244,0,0,0,0,0,0,0,0,0,-1,1147,1268,0,0
-70,-244,0,0,0,0,0,0,0,0,0,-1,1154,1268,0,0
-63,-244,0,0,0,0,0,0,0,0,0,-1,1161,1268,0,0
-56,-244,0,0,0,0,0,0,0,0,0,-1,1168,1268,0,0
-49,-244,0,0,0,0,0,0,0,0,0,-1,1175,1268,0,0
-42,-244,0,0,0,0,0,0,0,0,0,-1,1182,1268,0,0
-35,-244,0,0,0,0,0,0,0,0,0,-1,1189,1268,0,0
-28,-244,0,0,0,0,0,0,0,0,0,-1,1196,1268,0,0
-21,-244,0,0,0,0,0,0,0,0,0,-1,1203,1268,0,0
-14,-244,0,0,0,0,0,0,0,0,0,-1,1210,1268,0,0
-7,-244,0,0,0,0,0,0,0,0,0,-1,1217,1268,0,0
0,-244,0,0,0,0,0,0,0,0,0,-1,1224,1268,0,0
7,-244,0,0,0,0,0,0,0,0,0,-1,1231,1268,0,0
14,-244,0,0,0,0,0,0,0,0,0,-1,1238,1268,0,0
21,-244,0,0,0,0,0,0,0,0,0,-1,1245,1268,0,0
28,-244,0,0,0,0,0,0,0,0,0,-1,1252,1268,0,0
35,-244,0,0,0,0,0,0,0,0,0,-1,1259,1268,0,0
42,-244,0,0,0,0,0,0,0,0,0,-1,1266,1268,0,0
49,-244,0,0,0,0,0,0,0,0,0,-1,1273,1268,0,0
56,-244,0,0,0,0,0,0,0,0,0,-1,1280,1268,0,0
63,-244,0,0,0,0,0,0,0,0,0,-1,1287,1268,0,0
70,-244,0,0,0,0,0,0,0,0,0,-1,1294,1268,0,0
77,-244,0,0,0,0,0,0,0,0,0,-1,1301,1268,0,0
84,-244,0,0,0,0,0,0,0,0,0,-1,1308,1268,0,0
91,-244,0,0,0,0,0,0,0,0,0,-1,1315,1268,0,0
98,-244,0,0,0,0,0,0,0,0,0,-1,1322,1268,0,0
105,-244,0,0,0,0,0,0,0,0,0,-1,1329,1268,0,0
112,-244,0,0,0,0,0,0,0,0,0,-1,1336,1268,0,0
119,-244,0,0,0,0,0,0,0,0,0,-1,1343,1268,0,0
126,-244,0,0,0,0,0,0,0,0,0,-1,1350,1268,0,0
133,-244,0,0,0,0,0,0,0,0,0,-1,1357,1268,0,0
140,-244,0,0,0,0,0,0,0,0,0,-1,1364,1268,0,0
147,-244,0,0,0,0,0,0,0,0,0,-1,1371,1268,0,0
154,-244,0,0,0,0,0,0,0,0,0,-1,1378,1268,0,0
161,-244,0,0,0,0,0,0,0,0,0,-1,1385,1268,0,0
168,-244,0,0,0,0,0,0,0,0,0,-1,1392,1268,0,0
175,-244,0,0,0,0,0,0,0,0,0,-1,1399,1268,0,0
182,-244,0,0,0,0,0,0,0,0,0,-1,1406,1268,0,0
189,-244,0,0,0,0,0,0,0,0,0,-1,1413,1268,0,0
196,-244,0,0,0,0,0,0,0,0,0,-1,1420,1268,0,0
203,-244,0,0,0,0,0,0,0,0,0,-1,1427,1268,0,0
210,-244,0,0,0,0,0,0,0,0,0,-1,1434,1268,0,0
217,-244,0,0,0,0,0,0,0,0,0,-1,1441,1268,0,0
224,-244,0,0,0,0,0,0,0,0,0,-1,1448,1268,0,0
231,-244,0,0,0,0,0,0,0,0,0,-1,1455,1268,0,0
238,-244,0,0,0,0,0,0,0,0,0,-1,1462,1268,0,0
245,-244,0,0,0,0,0,0,0,0,0,-1,1469,1268,0,0
252,-244,0,0,0,0,0,0,0,0,0,-1,1476,1268,0,0
259,-244,0,0,0,0,0,0,0,0,0,-1,1483,1268,0,0
266,-244,0,0,0,0,0,0,0,0,0,-1,1490,1268,0,0
273,-244,0,0,0,0,0,0,0,0,0,-1,1497,1268,0,0
280,-244,0,0,0,0,0,0,0,0,0,-1,1504,1268,0,0
287,-244,0,0,0,0,0,0,0,0,0,-1,1511,1268,0,0
294,-244,0,0,0,0,0,0,0,0,0,-1,1518,1268,0,0
301,-244,0,0,0,0,0,0,0,0,0,-1,1525,1268,0,0
308,-244,0,0,0,0,0,0,0,0,0,-1,1532,1268,0,0
315,-244,0,0,0,0,0,0,0,0,0,-1,1539,1268,0,0
322,-244,0,0,0,0,0,0,0,0,0,-1,1546,1268,0,0
329,-244,0,0,0,0,0,0,0,0,0,-1,1553,1268,0,0
336,-244,0,0,0,0,0,0,0,0,0,-1,1560,1268,0,0
343,-244,0,0,0,0,0,0,0,0,0,-1,1567,1268,0,0
350,-244,0,0,0,0,0,0,0,0,0,-1,1574,1268,0,0
357,-244,0,0,0,0,0,0,0,0,0,-1,1581,1268,0,0
364,-244,0,0,0,0,0,0,0,0,0,-1,1588,1268,0,0
371,-244,0,0,0,0,0,0,0,0,0,-1,1595,1268,0,0
378,-244,0,0,0,0,0,0,0,0,0,-1,1602,1268,0,0
385,-244,0,0,0,0,0,0,0,0,0,-1,1609,1268,0,0
392,-244,0,0,0,0,0,0,0,0,0,-1,1616,1268,0,0
399,-244,0,0,0,0,0,0,0,0,0,-1,1623,1268,0,0
406,-244,0,0,0,0,0,0,0,0,0,-1,1630,1268,0,0
413,-244,0,0,0,0,0,0,0,0,0,-1,1637,1268,0,0
420,-244,0,0,0,0,0,0,0,0,0,-1,1644,1268,0,0
427,-244,0,0,0,0,0,0,0,0,0,-1,1651,1268,0,0
434,-244,0,0,0,0,0,0,0,0,0,-1,1658,1268,0,0
441,-244,0,0,0,0,0,0,0,0,0,-1,1665,1268,0,0
448,-244,0,0,0,0,0,0,0,0,0,-1,1672,1268,0,0
455,-244,0,0,0,0,0,0,0,0,0,-1,1679,1268,0,0
462,-244,0,0,0,0,0,0,0,0,0,-1,1686,1268,0,0
469,-244,0,0,0,0,0,0,0,0,0,-1,1693,1268,0,0
476,-244,0,0,0,0,0,0,0,0,0,-1,1700,1268,0,0
483,-244,0,0,0,0,0,0,0,0,0,-1,1707,1268,0,0
490,-244,0,0,0,0,0,0,0,0,0,-1,1714,1268,0,0
497,-244,0,0,0,0,0,0,0,0,0,-1,1721,1268,0,0
504,-244,0,0,0,0,0,0,0,0,0,-1,1728,1268,0,0
511,-244,0,0,0,0,0,0,0,0,0,-1,1735,1268,0,0
518,-244,0,0,0,0,0,0,0,0,0,-1,1742,1268,0,0
525,-244,0,0,0,0,0,0,0,0,0,-1,1749,1268,0,0
532,-244,0,0,0,0,0,0,0,0,0,-1,1756,1268,0,0
539,-244,0,0,0,0,0,0,0,0,0,-1,1763,1268,0,0
546,-244,0,0,0,0,0,0,0,0,0,-1,1770,1268,0,0
553,-244,0,0,0,0,0,0,0,0,0,-1,1777,1268,0,0
560,-244,0,0,0,0,0,0,0,0,0,-1,1784,1268,0,0
567,-244,0,0,0,0,0,0,0,0,0,-1,1791,1268,0,0
574,-244,0,0,0,0,0,0,0,0,0,-1,1798,1268,0,0
581,-244,0,0,0,0,0,0,0,0,0,-1,1805,1268,0,0
588,-244,0,0,0,0,0,0,0,0,0,-1,1812,1268,0,0
595,-244,0,0,0,0,0,0,0,0,0,-1,1819,1268,0,0
602,-244,0,0,0,0,0,0,0,0,0,-1,1826,1268,0,0
609,-244,0,0,0,0,0,0,0,0,0,-1,1833,1268,0,0
616,-244,33.9579,2.70251,-0.00138933,0.0064172,-0.00260719,0.00720786,-0.00217999,-1.27635,0.00567328,0.0355333,1840,1268,33.9579,-2.70256
623,-244,33.9559,2.71216,-0.00040936,0.00770234,-0.0033653,0.0089167,-0.00162373,-1.22449,0.00655311,0.0277304,1847,1268,33.956,-2.71214
630,-244,33.9569,2.76038,-0.00131866,0.00921214,-0.00413995,0.0106448,-0.00275129,-1.23764,0.00816953,0.0236297,1854,1268,33.957,-2.7604
637,-244,34.0144,2.745,-0.00232399,0.0094047,-0.0044184,0.0108829,-0.00380218,-1.24795,0.00880083,0.0379578,1861,1268,34.0144,-2.74496
644,-244,34.0692,2.69702,-0.00266515,0.00839294,-0.0041003,0.00974741,-0.00401962,-1.25175,0.0081745,0.0457178,1868,1268,34.0692,-2.69705
651,-244,33.8765,2.60706,-0.00262312,0.0072626,-0.00373082,0.00851256,-0.00387307,-1.24752,0.00731616,0.047515,1875,1268,33.8765,-2.60711
658,-244,33.5465,2.59668,0,0,0,0,0,0,0,-1,1882,1268,33.5465,-2.59668
665,-244,34.7489,2.51514,0,0,0,0,0,0,0,-1,1889,1268,34.7489,-2.5151
672,-244,32.224,3.6123,0,0,0,0,0,0,0,-1,1896,1268,32.224,-3.6123
679,-244,26.6984,7.85144,0,0,0,0,0,0,0,-1,1903,1268,26.6983,-7.85145
686,-244,26.7002,7.73987,-0.00263635,0.00217053,-0.0018603,0.00280637,-0.0032722,-1.24145,0.00351289,0.0474519,1910,1268,26.7001,-7.73993
693,-244,26.6222,7.39319,-0.00240681,0.00166407,-0.00183321,0.00236791,-0.00311066,-1.20421,0.00317273,0.019714,1917,1268,26.6222,-7.39325
700,-244,26.6597,7.02698,-0.00170529,0.0014391,-0.0014376,0.00199728,-0.00226346,-1.20044,0.00246154,0.0092786,1924,1268,26.6596,-7.02702
707,-244,26.6687,6.7323,-0.00074696,0.000956252,-0.000835775,0.00129786,-0.00108856,-1.18279,0.00137957,0.0106355,1931,1268,26.6687,-6.73226
714,-244,26.6914,6.42517,0.000194332,0.000738809,-0.000312002,0.000880647,5.24945e-05,-1.14412,0.000570405,0.0127903,1938,1268,26.6914,-6.42515
721,-244,26.6543,6.1134,0.00141425,0.00067619,0.000221198,0.00147547,0.000614975,0.269989,0.000855785,0.0157046,1945,1268,26.6544,-6.11338
728,-244,26.6378,5.79358,0.00279211,0.00075986,0.000275136,0.0028287,0.00072327,0.132214,0.0016969,0.0201599,1952,1268,26.6379,-5.79361
735,-244,26.6389,5.49939,0.00438807,0.00135041,9.57723e-05,0.00439109,0.00134739,0.0314866,0.00259749,0.0244945,1959,1268,26.639,-5.49942
742,-244,26.5929,5.25037,0.00691267,0.00208539,-0.000395767,0.0069449,0.00205316,-0.0812625,0.00411977,0.015825,1966,1268,26.5929,-5.25038
749,-244,26.5077,5.0188,0.0108954,0.00296969,-0.00123545,0.0110835,0.00278157,-0.151103,0.0066584,0.0233956,1973,1268,26.5077,-5.01877
756,-244,26.4071,4.70764,0.0170176,0.00413544,-0.0027739,0.0175895,0.00356353,-0.203327,0.0107374,0.0300805,1980,1268,26.4071,-4.70767
763,-244,26.7096,4.26611,0.02601,0.00558408,-0.00524169,0.0272766,0.0043175,-0.237092,0.0169297,0.0402623,1987,1268,26.7096,-4.26615
770,-244,27.0402,3.82568,0,0,0,0,0,0,0,-1,1994,1268,27.0402,-3.82572
777,-244,25.7045,3.07898,0,0,0,0,0,0,0,-1,2001,1268,25.7045,-3.07899
784,-244,31.7908,5.20081,0,0,0,0,0,0,0,-1,2008,1268,31.7907,-5.20083
791,-244,0,0,0,0,0,0,0,0,0,-1,2015,1268,0,0
798,-244,0,0,0,0,0,0,0,0,0,-1,2022,1268,0,0
805,-244,0,0,0,0,0,0,0,0,0,-1,2029,1268,0,0
812,-244,0,0,0,0,0,0,0,0,0,-1,2036,1268,0,0
-700,-251,0,0,0,0,0,0,0,0,0,-1,524,1275,0,0
-693,-251,0,0,0,0,0,0,0,0,0,-1,531,1275,0,0
-686,-251,0,0,0,0,0,0,0,0,0,-1,538,1275,0,0
-679,-251,0,0,0,0,0,0,0,0,0,-1,545,1275,0,0
-672,-251,0,0,0,0,0,0,0,0,0,-1,552,1275,0,0
-665,-251,-16.6669,-4.16028,0,0,0,0,0,0,0,-1,559,1275,-16.6669,4.16034
-658,-251,-17.6858,-2.50256,0,0,0,0,0,0,0,-1,566,1275,-17.6858,2.50259
-651,-251,-18.3102,-0.889893,0,0,0,0,0,0,0,-1,573,1275,-18.3102,0.889874
-644,-251,-18.4481,1.09619,0,0,0,0,0,0,0,-1,580,1275,-18.4481,-1.09619
-637,-251,-15.7336,1.06799,0,0,0,0,0,0,0,-1,587,1275,-15.7336,-1.06794
-630,-251,-15.8213,1.60034,-0.0144654,0.0235044,0.00929955,0.0256597,-0.0166207,1.34305,0.0245958,0.0467676,594,1275,-15.8213,-1.60029
-623,-251,-15.881,2.03845,-0.00655748,0.015479,0.00536287,0.0167148,-0.0077933,1.34431,0.0144589,0.0398702,601,1275,-15.881,-2.03841
-616,-251,-15.8645,2.35083,0.000107175,0.00836625,0.00245645,0.00904163,-0.000568203,1.30249,0.0062258,0.0219071,608,1275,-15.8645,-2.35087
-609,-251,-15.8831,2.68994,0.00292324,0.00415504,0.000557282,0.00436974,0.00270854,1.20306,0.00254691,0.0200435,615,1275,-15.883,-2.68993
-602,-251,-15.8892,3.01917,0.00266531,0.00281041,0.000441596,0.00318538,0.00229034,0.866821,0.00189698,0.0144314,622,1275,-15.8892,-3.0192
-595,-251,-15.9117,3.3689,0.00271597,0.00182439,0.000829171,0.00321159,0.00132877,0.538749,0.00186339,0.0126339,629,1275,-15.9117,-3.3689
-588,-251,-15.9163,3.69873,0.00307981,0.001198,0.001427,0.00384819,0.000429623,0.493935,0.00243492,0.0138494,636,1275,-15.9163,-3.69868
-581,-251,-15.8969,4.05115,0.00366655,0.000833082,0.00216171,0.00483441,-0.000334773,0.495325,0.00334013,0.012928,643,1275,-15.8968,-4.05111
-574,-251,-15.8969,4.42358,0.00443717,0.000701006,0.00302714,0.00612624,-0.000988063,0.508945,0.00445023,0.0123318,650,1275,-15.8969,-4.42357
-567,-251,-15.898,4.7804,0.0041235,0.00142326,0.00399228,0.00698778,-0.00144102,0.622344,0.00520577,0.0113088,657,1275,-15.898,-4.78035
-560,-251,-15.8632,5.19397,0.00266561,0.00235902,0.0046762,0.00719103,-0.0021664,0.769013,0.00565618,0.0238379,664,1275,-15.8632,-5.19396
-553,-251,-15.7621,5.58862,0,0,0,0,0,0,0,-1,671,1275,-15.7622,-5.58858
-546,-251,-12.995,4.5675,0,0,0,0,0,0,0,-1,678,1275,-12.995,-4.56745
-539,-251,-10.7916,0.366333,0,0,0,0,0,0,0,-1,685,1275,-10.7916,-0.366282
-532,-251,-10.7391,-0.00769043,0,0,0,0,0,0,0,-1,692,1275,-10.7391,0.00773227
-525,-251,-22.3104,-1.39087,0,0,0,0,0,0,0,-1,699,1275,-22.3104,1.39089
-518,-251,-22.9088,-0.275513,0,0,0,0,0,0,0,-1,706,1275,-22.9088,0.27547
-511,-251,-23.6766,0.629639,0,0,0,0,0,0,0,-1,713,1275,-23.6766,-0.629621
-504,-251,-24.4889,1.31506,0,0,0,0,0,0,0,-1,720,1275,-24.4889,-1.31504
-497,-251,-24.5207,1.37354,0,0,0,0,0,0,0,-1,727,1275,-24.5207,-1.37352
-490,-251,0,0,0,0,0,0,0,0,0,-1,734,1275,0,0
-483,-251,0,0,0,0,0,0,0,0,0,-1,741,1275,0,0
-476,-251,0,0,0,0,0,0,0,0,0,-1,748,1275,0,0
-469,-251,0,0,0,0,0,0,0,0,0,-1,755,1275,0,0
-462,-251,0,0,0,0,0,0,0,0,0,-1,762,1275,0,0
-455,-251,0,0,0,0,0,0,0,0,0,-1,769,1275,0,0
-448,-251,0,0,0,0,0,0,0,0,0,-1,776,1275,0,0
-441,-251,0,0,0,0,0,0,0,0,0,-1,783,1275,0,0
-434,-251,0,0,0,0,0,0,0,0,0,-1,790,1275,0,0
-427,-251,0,0,0,0,0,0,0,0,0,-1,797,1275,0,0
-420,-251,0,0,0,0,0,0,0,0,0,-1,804,1275,0,0
-413,-251,0,0,0,0,0,0,0,0,0,-1,811,1275,0,0
-406,-251,0,0,0,0,0,0,0,0,0,-1,818,1275,0,0
-399,-251,0,0,0,0,0,0,0,0,0,-1,825,1275,0,0
-392,-251,0,0,0,0,0,0,0,0,0,-1,832,1275,0,0
-385,-251,0,0,0,0,0,0,0,0,0,-1,839,1275,0,0
-378,-251,0,0,0,0,0,0,0,0,0,-1,846,1275,0,0
-371,-251,0,0,0,0,0,0,0,0,0,-1,853,1275,0,0
-364,-251,0,0,0,0,0,0,0,0,0,-1,860,1275,0,0
-357,-251,0,0,0,0,0,0,0,0,0,-1,867,1275,0,0
-350,-251,0,0,0,0,0,0,0,0,0,-1,874,1275,0,0
-343,-251,0,0,0,0,0,0,0,0,0,-1,881,1275,0,0
-336,-251,0,0,0,0,0,0,0,0,0,-1,888,1275,0,0
-329,-251,0,0,0,0,0,0,0,0,0,-1,895,1275,0,0
-322,-251,0,0,0,0,0,0,0,0,0,-1,902,1275,0,0
-315,-251,0,0,0,0,0,0,0,0,0,-1,909,1275,0,0
-308,-251,0,0,0,0,0,0,0,0,0,-1,916,1275,0,0
-301,-251,0,0,0,0,0,0,0,0,0,-1,923,1275,0,0
-294,-251,0,0,0,0,0,0,0,0,0,-1,930,1275,0,0
-287,-251,0,0,0,0,0,0,0,0,0,-1,937,1275,0,0
-280,-251,0,0,0,0,0,0,0,0,0,-1,944,1275,0,0
-273,-251,0,0,0,0,0,0,0,0,0,-1,951,1275,0,0
-266,-251,0,0,0,0,0,0,0,0,0,-1,958,1275,0,0
-259,-251,0,0,0,0,0,0,0,0,0,-1,965,1275,0,0
-252,-251,0,0,0,0,0,0,0,0,0,-1,972,1275,0,0
-245,-251,0,0,0,0,0,0,0,0,0,-1,979,1275,0,0
-238,-251,0,0,0,0,0,0,0,0,0,-1,986,1275,0,0
-231,-251,0,0,0,0,0,0,0,0,0,-1,993,1275,0,0
-224,-251,0,0,0,0,0,0,0,0,0,-1,1000,1275,0,0
-217,-251,0,0,0,0,0,0,0,0,0,-1,1007,1275,0,0
-210,-251,0,0,0,0,0,0,0,0,0,-1,1014,1275,0,0
-203,-251,0,0,0,0,0,0,0,0,0,-1,1021,1275,0,0
-196,-251,0,0,0,0,0,0,0,0,0,-1,1028,1275,0,0
-189,-251,0,0,0,0,0,0,0,0,0,-1,1035,1275,0,0
-182,-251,0,0,0,0,0,0,0,0,0,-1,1042,1275,0,0
-175,-251,0,0,0,0,0,0,0,0,0,-1,1049,1275,0,0
-168,-251,0,0,0,0,0,0,0,0,0,-1,1056,1275,0,0
-161,-251,0,0,0,0,0,0,0,0,0,-1,1063,1275,0,0
-154,-251,0,0,0,0,0,0,0,0,0,-1,1070,1275,0,0
-147,-251,0,0,0,0,0,0,0,0,0,-1,1077,1275,0,0
-140,-251,0,0,0,0,0,0,0,0,0,-1,1084,1275,0,0
-133,-251,0,0,0,0,0,0,0,0,0,-1,1091,1275,0,0
-126,-251,0,0,0,0,0,0,0,0,0,-1,1098,1275,0,0
-119,-251,0,0,0,0,0,0,0,0,0,-1,1105,1275,0,0
-112,-251,0,0,0,0,0,0,0,0,0,-1,1112,1275,0,0
-105,-251,0,0,0,0,0,0,0,0,0,-1,1119,1275,0,0
-98,-251,0,0,0,0,0,0,0,0,0,-1,1126,1275,0,0
-91,-251,0,0,0,0,0,0,0,0,0,-1,1133,1275,0,0
-84,-251,0,0,0,0,0,0,0,0,0,-1,1140,1275,0,0
-77,-251,0,0,0,0,0,0,0,0,0,-1,1147,1275,0,0
-70,-251,0,0,0,0,0,0,0,0,0,-1,1154,1275,0,0
-63,-251,0,0,0,0,0,0,0,0,0,-1,1161,1275,0,0
-56,-251,0,0,0,0,0,0,0,0,0,-1,1168,1275,0,0
-49,-251,0,0,0,0,0,0,0,0,0,-1,1175,1275,0,0
-42,-251,0,0,0,0,0,0,0,0,0,-1,1182,1275,0,0
-35,-251,0,0,0,0,0,0,0,0,0,-1,1189,1275,0,0
-28,-251,0,0,0,0,0,0,0,0,0,-1,1196,1275,0,0
-21,-251,0,0,0,0,0,0,0,0,0,-1,1203,1275,0,0
-14,-251,0,0,0,0,0,0,0,0,0,-1,1210,1275,0,0
-7,-251,0,0,0,0,0,0,0,0,0,-1,1217,1275,0,0
0,-251,0,0,0,0,0,0,0,0,0,-1,1224,1275,0,0
7,-251,0,0,0,0,0,0,0,0,0,-1,1231,1275,0,0
14,-251,0,0,0,0,0,0,0,0,0,-1,1238,1275,0,0
21,-251,0,0,0,0,0,0,0,0,0,-1,1245,1275,0,0
28,-251,0,0,0,0,0,0,0,0,0,-1,1252,1275,0,0
35,-251,0,0,0,0,0,0,0,0,0,-1,1259,1275,0,0
42,-251,0,0,0,0,0,0,0,0,0,-1,1266,1275,0,0
49,-251,0,0,0,0,0,0,0,0,0,-1,1273,1275,0,0
56,-251,0,0,0,0,0,0,0,0,0,-1,1280,1275,0,0
63,-251,0,0,0,0,0,0,0,0,0,-1,1287,1275,0,0
70,-251,0,0,0,0,0,0,0,0,0,-1,1294,1275,0,0
77,-251,0,0,0,0,0,0,0,0,0,-1,1301,1275,0,0
84,-251,0,0,0,0,0,0,0,0,0,-1,1308,1275,0,0
91,-251,0,0,0,0,0,0,0,0,0,-1,1315,1275,0,0
98,-251,0,0,0,0,0,0,0,0,0,-1,1322,1275,0,0
105,-251,0,0,0,0,0,0,0,0,0,-1,1329,1275,0,0
112,-251,0,0,0,0,0,0,0,0,0,-1,1336,1275,0,0
119,-251,0,0,0,0,0,0,0,0,0,-1,1343,1275,0,0
126,-251,0,0,0,0,0,0,0,0,0,-1,1350,1275,0,0
133,-251,0,0,0,0,0,0,0,0,0,-1,1357,1275,0,0
140,-251,0,0,0,0,0,0,0,0,0,-1,1364,1275,0,0
147,-251,0,0,0,0,0,0,0,0,0,-1,1371,1275,0,0
154,-251,0,0,0,0,0,0,0,0,0,-1,1378,1275,0,0
161,-251,0,0,0,0,0,0,0,0,0,-1,1385,1275,0,0
168,-251,0,0,0,0,0,0,0,0,0,-1,1392,1275,0,0
175,-251,0,0,0,0,0,0,0,0,0,-1,1399,1275,0,0
182,-251,0,0,0,0,0,0,0,0,0,-1,1406,1275,0,0
189,-251,0,0,0,0,0,0,0,0,0,-1,1413,1275,0,0
196,-251,0,0,0,0,0,0,0,0,0,-1,1420,1275,0,0
203,-251,0,0,0,0,0,0,0,0,0,-1,1427,1275,0,0
210,-251,0,0,0,0,0,0,0,0,0,-1,1434,1275,0,0
217,-251,0,0,0,0,0,0,0,0,0,-1,1441,1275,0,0
224,-251,0,0,0,0,0,0,0,0,0,-1,1448,1275,0,0
231,-251,0,0,0,0,0,0,0,0,0,-1,1455,1275,0,0
238,-251,0,0,0,0,0,0,0,0,0,-1,1462,1275,0,0
245,-251,0,0,0,0,0,0,0,0,0,-1,1469,1275,0,0
252,-251,0,0,0,0,0,0,0,0,0,-1,1476,1275,0,0
259,-251,0,0,0,0,0,0,0,0,0,-1,1483,1275,0,0
266,-251,0,0,0,0,0,0,0,0,0,-1,1490,1275,0,0
273,-251,0,0,0,0,0,0,0,0,0,-1,1497,1275,0,0
280,-251,0,0,0,0,0,0,0,0,0,-1,1504,1275,0,0
287,-251,0,0,0,0,0,0,0,0,0,-1,1511,1275,0,0
294,-251,0,0,0,0,0,0,0,0,0,-1,1518,1275,0,0
301,-251,0,0,0,0,0,0,0,0,0,-1,1525,1275,0,0
308,-251,0,0,0,0,0,0,0,0,0,-1,1532,1275,0,0
315,-251,0,0,0,0,0,0,0,0,0,-1,1539,1275,0,0
322,-251,0,0,0,0,0,0,0,0,0,-1,1546,1275,0,0
329,-251,0,0,0,0,0,0,0,0,0,-1,1553,1275,0,0
336,-251,0,0,0,0,0,0,0,0,0,-1,1560,1275,0,0
343,-251,0,0,0,0,0,0,0,0,0,-1,1567,1275,0,0
350,-251,0,0,0,0,0,0,0,0,0,-1,1574,1275,0,0
357,-251,0,0,0,0,0,0,0,0,0,-1,1581,1275,0,0
364,-251,0,0,0,0,0,0,0,0,0,-1,1588,1275,0,0
371,-251,0,0,0,0,0,0,0,0,0,-1,1595,1275,0,0
378,-251,0,0,0,0,0,0,0,0,0,-1,1602,1275,0,0
385,-251,0,0,0,0,0,0,0,0,0,-1,1609,1275,0,0
392,-251,0,0,0,0,0,0,0,0,0,-1,1616,1275,0,0
399,-251,0,0,0,0,0,0,0,0,0,-1,1623,1275,0,0
406,-251,0,0,0,0,0,0,0,0,0,-1,1630,1275,0,0
413,-251,0,0,0,0,0,0,0,0,0,-1,1637,1275,0,0
420,-251,0,0,0,0,0,0,0,0,0,-1,1644,1275,0,0
427,-251,0,0,0,0,0,0,0,0,0,-1,1651,1275,0,0
434,-251,0,0,0,0,0,0,0,0,0,-1,1658,1275,0,0
441,-251,0,0,0,0,0,0,0,0,0,-1,1665,1275,0,0
448,-251,0,0,0,0,0,0,0,0,0,-1,1672,1275,0,0
455,-251,0,0,0,0,0,0,0,0,0,-1,1679,1275,0,0
462,-251,0,0,0,0,0,0,0,0,0,-1,1686,1275,0,0
469,-251,0,0,0,0,0,0,0,0,0,-1,1693,1275,0,0
476,-251,0,0,0,0,0,0,0,0,0,-1,1700,1275,0,0
483,-251,0,0,0,0,0,0,0,0,0,-1,1707,1275,0,0
490,-251,0,0,0,0,0,0,0,0,0,-1,1714,1275,0,0
497,-251,0,0,0,0,0,0,0,0,0,-1,1721,1275,0,0
504,-251,0,0,0,0,0,0,0,0,0,-1,1728,1275,0,0
511,-251,0,0,0,0,0,0,0,0,0,-1,1735,1275,0,0
518,-251,0,0,0,0,0,0,0,0,0,-1,1742,1275,0,0
525,-251,0,0,0,0,0,0,0,0,0,-1,1749,1275,0,0
532,-251,0,0,0,0,0,0,0,0,0,-1,1756,1275,0,0
539,-251,0,0,0,0,0,0,0,0,0,-1,1763,1275,0,0
546,-251,0,0,0,0,0,0,0,0,0,-1,1770,1275,0,0
553,-251,0,0,0,0,0,0,0,0,0,-1,1777,1275,0,0
560,-251,0,0,0,0,0,0,0,0,0,-1,1784,1275,0,0
567,-251,0,0,0,0,0,0,0,0,0,-1,1791,1275,0,0
574,-251,0,0,0,0,0,0,0,0,0,-1,1798,1275,0,0
581,-251,0,0,0,0,0,0,0,0,0,-1,1805,1275,0,0
588,-251,0,0,0,0,0,0,0,0,0,-1,1812,1275,0,0
595,-251,0,0,0,0,0,0,0,0,0,-1,1819,1275,0,0
602,-251,0,0,0,0,0,0,0,0,0,-1,1826,1275,0,0
609,-251,33.9504,2.63257,-0.00484405,0.00631342,-0.00499502,0.00822284,-0.00675347,-1.20567,0.00866044,0.0301848,1833,1275,33.9505,-2.63256
616,-251,33.9435,2.66125,-0.00190674,0.00860756,-0.00534665,0.0108487,-0.00414787,-1.17388,0.00894174,0.0261681,1840,1275,33.9435,-2.66124
623,-251,33.9657,2.7345,-0.000947249,0.0102066,-0.00582849,0.0126965,-0.00343713,-1.16707,0.00981277,0.0219144,1847,1275,33.9657,-2.73451
630,-251,34.0402,2.77734,-0.00158262,0.0112236,-0.00595442,0.0135643,-0.00392336,-1.19624,0.0105956,0.0334414,1854,1275,34.0402,-2.77735
637,-251,34.1305,2.72192,-0.00211766,0.0106023,-0.00542126,0.0125993,-0.00411468,-1.21785,0.0100557,0.0434589,1861,1275,34.1304,-2.72195
644,-251,34.1738,2.65491,-0.00220719,0.00915374,-0.00463588,0.0108053,-0.00385878,-1.22855,0.00877727,0.0491118,1868,1275,34.1739,-2.65491
651,-251,34.1708,2.55457,0,0,0,0,0,0,0,-1,1875,1275,34.1708,-2.55456
658,-251,33.9233,2.71448,0,0,0,0,0,0,0,-1,1882,1275,33.9234,-2.7145
665,-251,33.6829,6.76099,0,0,0,0,0,0,0,-1,1889,1275,33.6829,-6.76097
672,-251,26.0721,4.53064,0,0,0,0,0,0,0,-1,1896,1275,26.0721,-4.53063
679,-251,26.2111,7.89758,0,0,0,0,0,0,0,-1,1903,1275,26.211,-7.89754
686,-251,26.2911,7.6814,-0.00228602,0.00193413,-0.00131294,0.00230926,-0.00266115,-1.2925,0.00287206,0.042312,1910,1275,26.2911,-7.6814
693,-251,26.3589,7.37317,-0.00198934,0.00132445,-0.00132291,0.00178779,-0.00245268,-1.2339,0.00245825,0.011943,1917,1275,26.3589,-7.37318
700,-251,26.3674,7.03979,-0.00126178,0.00115382,-0.000966665,0.00149302,-0.00160098,-1.23332,0.00178669,0.00889916,1924,1275,26.3675,-7.03982
707,-251,26.3755,6.73022,-0.000403261,0.00074948,-0.000432672,0.000893809,-0.00054759,-1.24883,0.000840156,0.011069,1931,1275,26.3755,-6.73028
714,-251,26.3789,6.43005,0.000439649,0.000645767,-5.88501e-05,0.000661386,0.00042403,-1.31137,0.000386888,0.0126808,1938,1275,26.3789,-6.42999
721,-251,26.3159,6.12903,0.00144009,0.000708366,0.0002879,0.00153978,0.000608673,0.333355,0.000895465,0.0161333,1945,1275,26.3159,-6.12901
728,-251,26.301,5.83215,0.00245671,0.000988472,0.000289627,0.00251178,0.000933405,0.187888,0.00146603,0.018577,1952,1275,26.3011,-5.83212
735,-251,26.3256,5.50488,0.00385112,0.00165459,7.00857e-05,0.00385336,0.00165235,0.0318642,0.00223224,0.0172127,1959,1275,26.3256,-5.5049
742,-251,26.2561,5.27771,0.00617341,0.00251978,-0.000449331,0.00622786,0.00246533,-0.120588,0.00362156,0.016745,1966,1275,26.2561,-5.27777
749,-251,26.0804,5.08289,0.00996494,0.00359783,-0.0013661,0.0102457,0.0033171,-0.202675,0.00603659,0.0342132,1973,1275,26.0804,-5.0829
756,-251,25.9894,4.63477,0.0159041,0.0051092,-0.00308616,0.0167241,0.00428919,-0.259706,0.0100302,0.0472392,1980,1275,25.9894,-4.63475
763,-251,27.036,3.98145,0.0247066,0.00710282,-0.00588487,0.0264927,0.00531675,-0.294667,0.0161833,0.0468764,1987,1275,27.036,-3.98142
770,-251,27.8959,3.9104,0,0,0,0,0,0,0,-1,1994,1275,27.8959,-3.91045
777,-251,31.5731,4.33252,0,0,0,0,0,0,0,-1,2001,1275,31.5731,-4.33251
784,-251,32.0776,5.78247,0,0,0,0,0,0,0,-1,2008,1275,32.0776,-5.78247
791,-251,0,0,0,0,0,0,0,0,0,-1,2015,1275,0,0
798,-251,0,0,0,0,0,0,0,0,0,-1,2022,1275,0,0
805,-251,0,0,0,0,0,0,0,0,0,-1,2029,1275,0,0
812,-251,0,0,0,0,0,0,0,0,0,-1,2036,1275,0,0
-700,-258,0,0,0,0,0,0,0,0,0,-1,524,1282,0,0
-693,-258,0,0,0,0,0,0,0,0,0,-1,531,1282,0,0
-686,-258,0,0,0,0,0,0,0,0,0,-1,538,1282,0,0
-679,-258,0,0,0,0,0,0,0,0,0,-1,545,1282,0,0
-672,-258,0,0,0,0,0,0,0,0,0,-1,552,1282,0,0
-665,-258,-16.0674,-4.2583,0,0,0,0,0,0,0,-1,559,1282,-16.0674,4.25826
-658,-258,-16.9529,-2.6991,0,0,0,0,0,0,0,-1,566,1282,-16.9529,2.69915
-651,-258,-17.6362,-0.893677,0,0,0,0,0,0,0,-1,573,1282,-17.6362,0.893737
-644,-258,-18.0355,1.09949,0,0,0,0,0,0,0,-1,580,1282,-18.0354,-1.09943
-637,-258,-18.5416,2.98352,0,0,0,0,0,0,0,-1,587,1282,-18.5416,-2.98357
-630,-258,-15.36,1.57861,0,0,0,0,0,0,0,-1,594,1282,-15.3601,-1.57862
-623,-258,-15.4427,1.93738,-0.00783283,0.0152656,0.00372299,0.0158509,-0.00841807,1.41488,0.014229,0.0489055,601,1282,-15.4427,-1.93738
-616,-258,-15.5131,2.29919,-0.000575436,0.00781115,0.00136117,0.00802654,-0.000790826,1.41386,0.00563317,0.0341192,608,1282,-15.5131,-2.29918
-609,-258,-15.5184,2.6582,0.00231947,0.00370764,-5.73426e-05,0.00371,0.00231711,-1.52958,0.00216401,0.0174748,615,1282,-15.5184,-2.65822
-602,-258,-15.5279,3.02661,0.00215475,0.00268797,0.000187597,0.00274735,0.00209536,1.26421,0.00165755,0.0138428,622,1282,-15.5279,-3.02656
-595,-258,-15.5425,3.37305,0.00236053,0.0019211,0.000686058,0.0028612,0.00142044,0.63043,0.00165193,0.0112037,629,1282,-15.5425,-3.37303
-588,-258,-15.5618,3.72546,0.00291727,0.0013693,0.00132491,0.0036777,0.000608866,0.521045,0.00227615,0.011573,636,1282,-15.5618,-3.72546
-581,-258,-15.5441,4.07349,0.0037185,0.00101891,0.00204212,0.0048166,-7.9192e-05,0.493372,0.00323779,0.0140846,643,1282,-15.5441,-4.07355
-574,-258,-15.53,4.41772,0.00475848,0.000831357,0.00289842,0.00629583,-0.000705997,0.48768,0.00445125,0.0143108,650,1282,-15.53,-4.41772
-567,-258,-15.5505,4.79749,0.00486246,0.00135527,0.00386731,0.00735518,-0.00113744,0.572543,0.00532326,0.0132631,657,1282,-15.5505,-4.79752
-560,-258,-15.5226,5.15808,0.00364065,0.00211266,0.00456532,0.00750546,-0.00175214,0.702493,0.00567852,0.028045,664,1282,-15.5226,-5.15804
-553,-258,-15.4479,5.48169,0,0,0,0,0,0,0,-1,671,1282,-15.448,-5.48168
-546,-258,-14.2231,5.92029,0,0,0,0,0,0,0,-1,678,1282,-14.2231,-5.92028
-539,-258,-10.2228,4.05823,0,0,0,0,0,0,0,-1,685,1282,-10.2228,-4.05823
-532,-258,-10.2173,-0.353882,0,0,0,0,0,0,0,-1,692,1282,-10.2173,0.353836
-525,-258,-21.8661,-1.5929,0,0,0,0,0,0,0,-1,699,1282,-21.8661,1.59285
-518,-258,-22.5429,-0.198975,0,0,0,0,0,0,0,-1,706,1282,-22.5429,0.198949
-511,-258,-23.2197,1.19495,0,0,0,0,0,0,0,-1,713,1282,-23.2197,-1.19495
-504,-258,-21.2349,0.4823,0,0,0,0,0,0,0,-1,720,1282,-21.2349,-0.482245
-497,-258,-17.8047,0.730469,0,0,0,0,0,0,0,-1,727,1282,-17.8048,-0.730489
-490,-258,-15.4346,0.632935,0,0,0,0,0,0,0,-1,734,1282,-15.4346,-0.632917
-483,-258,0,0,0,0,0,0,0,0,0,-1,741,1282,0,0
-476,-258,0,0,0,0,0,0,0,0,0,-1,748,1282,0,0
-469,-258,0,0,0,0,0,0,0,0,0,-1,755,1282,0,0
-462,-258,0,0,0,0,0,0,0,0,0,-1,762,1282,0,0
-455,-258,0,0,0,0,0,0,0,0,0,-1,769,1282,0,0
-448,-258,0,0,0,0,0,0,0,0,0,-1,776,1282,0,0
-441,-258,0,0,0,0,0,0,0,0,0,-1,783,1282,0,0
-434,-258,0,0,0,0,0,0,0,0,0,-1,790,1282,0,0
-427,-258,0,0,0,0,0,0,0,0,0,-1,797,1282,0,0
-420,-258,0,0,0,0,0,0,0,0,0,-1,804,1282,0,0
-413,-258,0,0,0,0,0,0,0,0,0,-1,811,1282,0,0
-406,-258,0,0,0,0,0,0,0,0,0,-1,818,1282,0,0
-399,-258,0,0,0,0,0,0,0,0,0,-1,825,1282,0,0
-392,-258,0,0,0,0,0,0,0,0,0,-1,832,1282,0,0
-385,-258,0,0,0,0,0,0,0,0,0,-1,839,1282,0,0
-378,-258,0,0,0,0,0,0,0,0,0,-1,846,1282,0,0
-371,-258,0,0,0,0,0,0,0,0,0,-1,853,1282,0,0
-364,-258,0,0,0,0,0,0,0,0,0,-1,860,1282,0,0
-357,-258,0,0,0,0,0,0,0,0,0,-1,867,1282,0,0
-350,-258,0,0,0,0,0,0,0,0,0,-1,874,1282,0,0
-343,-258,0,0,0,0,0,0,0,0,0,-1,881,1282,0,0
-336,-258,0,0,0,0,0,0,0,0,0,-1,888,1282,0,0
-329,-258,0,0,0,0,0,0,0,0,0,-1,895,1282,0,0
-322,-258,0,0,0,0,0,0,0,0,0,-1,902,1282,0,0
-315,-258,0,0,0,0,0,0,0,0,0,-1,909,1282,0,0
-308,-258,0,0,0,0,0,0,0,0,0,-1,916,1282,0,0
-301,-258,0,0,0,0,0,0,0,0,0,-1,923,1282,0,0
-294,-258,0,0,0,0,0,0,0,0,0,-1,930,1282,0,0
-287,-258,0,0,0,0,0,0,0,0,0,-1,937,1282,0,0
-280,-258,0,0,0,0,0,0,0,0,0,-1,944,1282,0,0
-273,-258,0,0,0,0,0,0,0,0,0,-1,951,1282,0,0
-266,-258,0,0,0,0,0,0,0,0,0,-1,958,1282,0,0
-259,-258,0,0,0,0,0,0,0,0,0,-1,965,1282,0,0
-252,-258,0,0,0,0,0,0,0,0,0,-1,972,1282,0,0
-245,-258,0,0,0,0,0,0,0,0,0,-1,979,1282,0,0
-238,-258,0,0,0,0,0,0,0,0,0,-1,986,1282,0,0
-231,-258,0,0,0,0,0,0,0,0,0,-1,993,1282,0,0
-224,-258,0,0,0,0,0,0,0,0,0,-1,1000,1282,0,0
-217,-258,0,0,0,0,0,0,0,0,0,-1,1007,1282,0,0
-210,-258,0,0,0,0,0,0,0,0,0,-1,1014,1282,0,0
-203,-258,0,0,0,0,0,0,0,0,0,-1,1021,1282,0,0
-196,-258,0,0,0,0,0,0,0,0,0,-1,1028,1282,0,0
-189,-258,0,0,0,0,0,0,0,0,0,-1,1035,1282,0,0
-182,-258,0,0,0,0,0,0,0,0,0,-1,1042,1282,0,0
-175,-258,0,0,0,0,0,0,0,0,0,-1,1049,1282,0,0
-168,-258,0,0,0,0,0,0,0,0,0,-1,1056,1282,0,0
-161,-258,0,0,0,0,0,0,0,0,0,-1,1063,1282,0,0
-154,-258,0,0,0,0,0,0,0,0,0,-1,1070,1282,0,0
-147,-258,0,0,0,0,0,0,0,0,0,-1,1077,1282,0,0
-140,-258,0,0,0,0,0,0,0,0,0,-1,1084,1282,0,0
-133,-258,0,0,0,0,0,0,0,0,0,-1,1091,1282,0,0
-126,-258,0,0,0,0,0,0,0,0,0,-1,1098,1282,0,0
-119,-258,0,0,0,0,0,0,0,0,0,-1,1105,1282,0,0
-112,-258,0,0,0,0,0,0,0,0,0,-1,1112,1282,0,0
-105,-258,0,0,0,0,0,0,0,0,0,-1,1119,1282,0,0
-98,-258,0,0,0,0,0,0,0,0,0,-1,1126,1282,0,0
-91,-258,0,0,0,0,0,0,0,0,0,-1,1133,1282,0,0
-84,-258,0,0,0,0,0,0,0,0,0,-1,1140,1282,0,0
-77,-258,0,0,0,0,0,0,0,0,0,-1,1147,1282,0,0
-70,-258,0,0,0,0,0,0,0,0,0,-1,1154,1282,0,0
-63,-258,0,0,0,0,0,0,0,0,0,-1,1161,1282,0,0
-56,-258,0,0,0,0,0,0,0,0,0,-1,1168,1282,0,0
-49,-258,0,0,0,0,0,0,0,0,0,-1,1175,1282,0,0
-42,-258,0,0,0,0,0,0,0,0,0,-1,1182,1282,0,0
-35,-258,0,0,0,0,0,0,0,0,0,-1,1189,1282,0,0
-28,-258,0,0,0,0,0,0,0,0,0,-1,1196,1282,0,0
-21,-258,0,0,0,0,0,0,0,0,0,-1,1203,1282,0,0
-14,-258,0,0,0,0,0,0,0,0,0,-1,1210,1282,0,0
-7,-258,0,0,0,0,0,0,0,0,0,-1,1217,1282,0,0
0,-258,0,0,0,0,0,0,0,0,0,-1,1224,1282,0,0
7,-258,0,0,0,0,0,0,0,0,0,-1,1231,1282,0,0
14,-258,0,0,0,0,0,0,0,0,0,-1,1238,1282,0,0
21,-258,0,0,0,0,0,0,0,0,0,-1,1245,1282,0,0
28,-258,0,0,0,0,0,0,0,0,0,-1,1252,1282,0,0
35,-258,0,0,0,0,0,0,0,0,0,-1,1259,1282,0,0
42,-258,0,0,0,0,0,0,0,0,0,-1,1266,1282,0,0
49,-258,0,0,0,0,0,0,0,0,0,-1,1273,1282,0,0
56,-258,0,0,0,0,0,0,0,0,0,-1,1280,1282,0,0
63,-258,0,0,0,0,0,0,0,0,0,-1,1287,1282,0,0
70,-258,0,0,0,0,0,0,0,0,0,-1,1294,1282,0,0
77,-258,0,0,0,0,0,0,0,0,0,-1,1301,1282,0,0
84,-258,0,0,0,0,0,0,0,0,0,-1,1308,1282,0,0
91,-258,0,0,0,0,0,0,0,0,0,-1,1315,1282,0,0
98,-258,0,0,0,0,0,0,0,0,0,-1,1322,1282,0,0
105,-258,0,0,0,0,0,0,0,0,0,-1,1329,1282,0,0
112,-258,0,0,0,0,0,0,0,0,0,-1,1336,1282,0,0
119,-258,0,0,0,0,0,0,0,0,0,-1,1343,1282,0,0
126,-258,0,0,0,0,0,0,0,0,0,-1,1350,1282,0,0
133,-258,0,0,0,0,0,0,0,0,0,-1,1357,1282,0,0
140,-258,0,0,0,0,0,0,0,0,0,-1,1364,1282,0,0
147,-258,0,0,0,0,0,0,0,0,0,-1,1371,1282,0,0
154,-258,0,0,0,0,0,0,0,0,0,-1,1378,1282,0,0
161,-258,0,0,0,0,0,0,0,0,0,-1,1385,1282,0,0
168,-258,0,0,0,0,0,0,0,0,0,-1,1392,1282,0,0
175,-258,0,0,0,0,0,0,0,0,0,-1,1399,1282,0,0
182,-258,0,0,0,0,0,0,0,0,0,-1,1406,1282,0,0
189,-258,0,0,0,0,0,0,0,0,0,-1,1413,1282,0,0
196,-258,0,0,0,0,0,0,0,0,0,-1,1420,1282,0,0
203,-258,0,0,0,0,0,0,0,0,0,-1,1427,1282,0,0
210,-258,0,0,0,0,0,0,0,0,0,-1,1434,1282,0,0
217,-258,0,0,0,0,0,0,0,0,0,-1,1441,1282,0,0
224,-258,0,0,0,0,0,0,0,0,0,-1,1448,1282,0,0
231,-258,0,0,0,0,0,0,0,0,0,-1,1455,1282,0,0
238,-258,0,0,0,0,0,0,0,0,0,-1,1462,1282,0,0
245,-258,0,0,0,0,0,0,0,0,0,-1,1469,1282,0,0
252,-258,0,0,0,0,0,0,0,0,0,-1,1476,1282,0,0
259,-258,0,0,0,0,0,0,0,0,0,-1,1483,1282,0,0
266,-258,0,0,0,0,0,0,0,0,0,-1,1490,1282,0,0
273,-258,0,0,0,0,0,0,0,0,0,-1,1497,1282,0,0
280,-258,0,0,0,0,0,0,0,0,0,-1,1504,1282,0,0
287,-258,0,0,0,0,0,0,0,0,0,-1,1511,1282,0,0
294,-258,0,0,0,0,0,0,0,0,0,-1,1518,1282,0,0
301,-258,0,0,0,0,0,0,0,0,0,-1,1525,1282,0,0
308,-258,0,0,0,0,0,0,0,0,0,-1,1532,1282,0,0
315,-258,0,0,0,0,0,0,0,0,0,-1,1539,1282,0,0
322,-258,0,0,0,0,0,0,0,0,0,-1,1546,1282,0,0
329,-258,0,0,0,0,0,0,0,0,0,-1,1553,1282,0,0
336,-258,0,0,0,0,0,0,0,0,0,-1,1560,1282,0,0
343,-258,0,0,0,0,0,0,0,0,0,-1,1567,1282,0,0
350,-258,0,0,0,0,0,0,0,0,0,-1,1574,1282,0,0
357,-258,0,0,0,0,0,0,0,0,0,-1,1581,1282,0,0
364,-258,0,0,0,0,0,0,0,0,0,-1,1588,1282,0,0
371,-258,0,0,0,0,0,0,0,0,0,-1,1595,1282,0,0
378,-258,0,0,0,0,0,0,0,0,0,-1,1602,1282,0,0
385,-258,0,0,0,0,0,0,0,0,0,-1,1609,1282,0,0
392,-258,0,0,0,0,0,0,0,0,0,-1,1616,1282,0,0
399,-258,0,0,0,0,0,0,0,0,0,-1,1623,1282,0,0
406,-258,0,0,0,0,0,0,0,0,0,-1,1630,1282,0,0
413,-258,0,0,0,0,0,0,0,0,0,-1,1637,1282,0,0
420,-258,0,0,0,0,0,0,0,0,0,-1,1644,1282,0,0
427,-258,0,0,0,0,0,0,0,0,0,-1,1651,1282,0,0
434,-258,0,0,0,0,0,0,0,0,0,-1,1658,1282,0,0
441,-258,0,0,0,0,0,0,0,0,0,-1,1665,1282,0,0
448,-258,0,0,0,0,0,0,0,0,0,-1,1672,1282,0,0
455,-258,0,0,0,0,0,0,0,0,0,-1,1679,1282,0,0
462,-258,0,0,0,0,0,0,0,0,0,-1,1686,1282,0,0
469,-258,0,0,0,0,0,0,0,0,0,-1,1693,1282,0,0
476,-258,0,0,0,0,0,0,0,0,0,-1,1700,1282,0,0
483,-258,0,0,0,0,0,0,0,0,0,-1,1707,1282,0,0
490,-258,0,0,0,0,0,0,0,0,0,-1,1714,1282,0,0
497,-258,0,0,0,0,0,0,0,0,0,-1,1721,1282,0,0
504,-258,0,0,0,0,0,0,0,0,0,-1,1728,1282,0,0
511,-258,0,0,0,0,0,0,0,0,0,-1,1735,1282,0,0
518,-258,0,0,0,0,0,0,0,0,0,-1,1742,1282,0,0
525,-258,0,0,0,0,0,0,0,0,0,-1,1749,1282,0,0
532,-258,0,0,0,0,0,0,0,0,0,-1,1756,1282,0,0
539,-258,0,0,0,0,0,0,0,0,0,-1,1763,1282,0,0
546,-258,0,0,0,0,0,0,0,0,0,-1,1770,1282,0,0
553,-258,0,0,0,0,0,0,0,0,0,-1,1777,1282,0,0
560,-258,0,0,0,0,0,0,0,0,0,-1,1784,1282,0,0
567,-258,0,0,0,0,0,0,0,0,0,-1,1791,1282,0,0
574,-258,0,0,0,0,0,0,0,0,0,-1,1798,1282,0,0
581,-258,0,0,0,0,0,0,0,0,0,-1,1805,1282,0,0
588,-258,0,0,0,0,0,0,0,0,0,-1,1812,1282,0,0
595,-258,0,0,0,0,0,0,0,0,0,-1,1819,1282,0,0
602,-258,0,0,0,0,0,0,0,0,0,-1,1826,1282,0,0
609,-258,33.9504,2.67627,-0.00719264,0.00832564,-0.00850238,0.0120771,-0.0109441,-1.15526,0.0132967,0.0226156,1833,1282,33.9504,-2.67627
616,-258,33.9282,2.69678,-0.0036143,0.0111596,-0.00884172,0.0152941,-0.00774876,-1.1334,0.0135395,0.0207263,1840,1282,33.9282,-2.69676
623,-258,33.9591,2.75793,-0.00212772,0.0127909,-0.0086349,0.0167423,-0.00607905,-1.14164,0.0136469,0.0296261,1847,1282,33.9591,-2.75797
630,-258,34.0182,2.77222,-0.00203554,0.0130729,-0.00774787,0.0163398,-0.0053024,-1.17177,0.0130255,0.0410187,1854,1282,34.0182,-2.77217
637,-258,34.0577,2.76904,-0.00199695,0.0117536,-0.00645756,0.0143107,-0.00455403,-1.19376,0.0113668,0.0447383,1861,1282,34.0577,-2.76899
644,-258,34.0614,2.74365,-0.00184662,0.00998916,-0.00527608,0.0119996,-0.00385706,-1.20673,0.00954872,0.0467292,1868,1282,34.0614,-2.74365
651,-258,34.1096,2.76221,0,0,0,0,0,0,0,-1,1875,1282,34.1096,-2.76221
658,-258,33.4734,5.80151,0,0,0,0,0,0,0,-1,1882,1282,33.4734,-5.80147
665,-258,33.1113,7.05457,0,0,0,0,0,0,0,-1,1889,1282,33.1113,-7.05452
672,-258,22.703,2.80957,0,0,0,0,0,0,0,-1,1896,1282,22.703,-2.80962
679,-258,25.8015,8.10254,0,0,0,0,0,0,0,-1,1903,1282,25.8015,-8.1025
686,-258,25.9667,7.74084,-0.00200663,0.00171566,-0.000742049,0.00185814,-0.00214911,-1.3811,0.00231562,0.046108,1910,1282,25.9667,-7.74084
693,-258,26.0844,7.36877,-0.00167143,0.000998139,-0.000782426,0.00121056,-0.00188385,-1.3057,0.0018006,0.0115202,1917,1282,26.0843,-7.36878
700,-258,26.0674,7.03479,-0.000986269,0.000880577,-0.000474231,0.000994137,-0.00109983,-1.33576,0.00120946,0.00924415,1924,1282,26.0673,-7.03478
707,-258,26.0691,6.71655,-0.000264136,0.000559954,-1.74687e-05,0.000560324,-0.000264507,-1.54961,0.000486318,0.010809,1931,1282,26.0691,-6.71652
714,-258,26.0575,6.41931,0.000489243,0.000552129,0.000218437,0.000741374,0.000299998,0.85688,0.000430619,0.0102386,1938,1282,26.0575,-6.41934
721,-258,26.0403,6.10718,0.00134402,0.000700209,0.000419861,0.00155118,0.000493054,0.458346,0.000915168,0.0139026,1945,1282,26.0403,-6.10723
728,-258,26.0166,5.81213,0.0022711,0.00108841,0.00036948,0.00237704,0.000982474,0.279232,0.00137924,0.0139945,1952,1282,26.0166,-5.81214
735,-258,26.0414,5.52551,0.00370297,0.00176979,0.000118701,0.00371023,0.00176253,0.0610958,0.00214299,0.0151766,1959,1282,26.0414,-5.52545
742,-258,25.9858,5.27063,0.0061863,0.00270268,-0.000466152,0.0062476,0.00264138,-0.130749,0.00362136,0.0174338,1966,1282,25.9859,-5.27067
749,-258,25.8802,5.06873,0.0103568,0.003887,-0.00153051,0.0107006,0.00354321,-0.220958,0.00629436,0.0362891,1973,1282,25.8803,-5.06876
756,-258,25.8253,4.73975,0,0,0,0,0,0,0,-1,1980,1282,25.8253,-4.73976
763,-258,27.3311,3.74109,0,0,0,0,0,0,0,-1,1987,1282,27.331,-3.74111
770,-258,28.1896,3.72351,0,0,0,0,0,0,0,-1,1994,1282,28.1895,-3.72353
777,-258,31.912,4.83093,0,0,0,0,0,0,0,-1,2001,1282,31.912,-4.8309
784,-258,32.6525,6.43091,0,0,0,0,0,0,0,-1,2008,1282,32.6525,-6.43091
791,-258,0,0,0,0,0,0,0,0,0,-1,2015,1282,0,0
798,-258,0,0,0,0,0,0,0,0,0,-1,2022,1282,0,0
805,-258,0,0,0,0,0,0,0,0,0,-1,2029,1282,0,0
812,-258,0,0,0,0,0,0,0,0,0,-1,2036,1282,0,0
-700,-265,0,0,0,0,0,0,0,0,0,-1,524,1289,0,0
-693,-265,0,0,0,0,0,0,0,0,0,-1,531,1289,0,0
-686,-265,0,0,0,0,0,0,0,0,0,-1,538,1289,0,0
-679,-265,0,0,0,0,0,0,0,0,0,-1,545,1289,0,0
-672,-265,0,0,0,0,0,0,0,0,0,-1,552,1289,0,0
-665,-265,-15.6186,-4.98816,0,0,0,0,0,0,0,-1,559,1289,-15.6186,4.98822
-658,-265,-16.6535,-3.27991,0,0,0,0,0,0,0,-1,566,1289,-16.6535,3.27986
-651,-265,-16.8848,-1.04126,0,0,0,0,0,0,0,-1,573,1289,-16.8848,1.04131
-644,-265,-17.0265,1.20618,0,0,0,0,0,0,0,-1,580,1289,-17.0265,-1.20622
-637,-265,-17.1495,3.34912,0,0,0,0,0,0,0,-1,587,1289,-17.1495,-3.34908
-630,-265,-14.803,1.21204,0,0,0,0,0,0,0,-1,594,1289,-14.803,-1.21203
-623,-265,-14.8895,1.65601,-0.00824529,0.014516,0.00155881,0.0146223,-0.00835155,1.50273,0.0134277,0.0457842,601,1289,-14.8895,-1.65603
-616,-265,-15.0057,2.00659,-0.000813974,0.00687883,3.352e-05,0.00687898,-0.00081412,1.56644,0.00488005,0.0384963,608,1289,-15.0057,-2.0066
-609,-265,-15.1486,2.63623,0.001807,0.00301872,-0.00080498,0.00342036,0.00140536,-1.10799,0.00198517,0.0183445,615,1289,-15.1486,-2.63625
-602,-265,-15.1679,3.04541,0.00157459,0.00234693,-0.000236181,0.00241343,0.00150809,-1.29635,0.0014078,0.0145401,622,1289,-15.1679,-3.04538
-595,-265,-15.1779,3.40588,0.00181409,0.00180977,0.000371048,0.00218299,0.00144088,0.782487,0.00128169,0.0116917,629,1289,-15.1779,-3.40591
-588,-265,-15.1908,3.75256,0.00240928,0.00145537,0.00105332,0.0030886,0.000776054,0.572802,0.0018553,0.0105182,636,1289,-15.1908,-3.75261
-581,-265,-15.1833,4.10376,0.00329641,0.00125072,0.00175391,0.00430394,0.000243196,0.521418,0.00279176,0.013142,643,1289,-15.1834,-4.10378
-574,-265,-15.193,4.4718,0.00445295,0.00115187,0.00260043,0.00588243,-0.00027761,0.50262,0.00401736,0.014428,650,1289,-15.193,-4.47186
-567,-265,-15.2391,4.84607,0.00497926,0.00160189,0.00360223,0.00726898,-0.000687832,0.566214,0.00509078,0.0188715,657,1289,-15.2391,-4.84608
-560,-265,-15.2549,5.19458,0.0043347,0.00227375,0.00442145,0.00784417,-0.00123573,0.670911,0.00568629,0.0201465,664,1289,-15.2549,-5.19464
-553,-265,-15.0972,5.58789,0.00291364,0.00218414,0.00554473,0.0081056,-0.00300783,0.752554,0.00663754,0.0395673,671,1289,-15.0972,-5.5879
-546,-265,-14.9209,6.00366,0,0,0,0,0,0,0,-1,678,1289,-14.9209,-6.00366
-539,-265,-13.7668,6.39917,0,0,0,0,0,0,0,-1,685,1289,-13.7668,-6.39915
-532,-265,-8.53998,3.41467,0,0,0,0,0,0,0,-1,692,1289,-8.53996,-3.41473
-525,-265,-12.1317,0.514648,0,0,0,0,0,0,0,-1,699,1289,-12.1317,-0.514634
-518,-265,-22.2753,-0.244141,0,0,0,0,0,0,0,-1,706,1289,-22.2753,0.2441
-511,-265,-20.9741,-0.0380859,0,0,0,0,0,0,0,-1,713,1289,-20.9741,0.0380649
-504,-265,-20.9614,0.268066,0,0,0,0,0,0,0,-1,720,1289,-20.9613,-0.268112
-497,-265,-18.689,-0.278442,0,0,0,0,0,0,0,-1,727,1289,-18.689,0.278423
-490,-265,-15.1696,0.492676,0,0,0,0,0,0,0,-1,734,1289,-15.1696,-0.492688
-483,-265,0,0,0,0,0,0,0,0,0,-1,741,1289,0,0
-476,-265,0,0,0,0,0,0,0,0,0,-1,748,1289,0,0
-469,-265,0,0,0,0,0,0,0,0,0,-1,755,1289,0,0
-462,-265,0,0,0,0,0,0,0,0,0,-1,762,1289,0,0
-455,-265,0,0,0,0,0,0,0,0,0,-1,769,1289,0,0
-448,-265,0,0,0,0,0,0,0,0,0,-1,776,1289,0,0
-441,-265,0,0,0,0,0,0,0,0,0,-1,783,1289,0,0
-434,-265,0,0,0,0,0,0,0,0,0,-1,790,1289,0,0
-427,-265,0,0,0,0,0,0,0,0,0,-1,797,1289,0,0
-420,-265,0,0,0,0,0,0,0,0,0,-1,804,1289,0,0
-413,-265,0,0,0,0,0,0,0,0,0,-1,811,1289,0,0
-406,-265,0,0,0,0,0,0,0,0,0,-1,818,1289,0,0
-399,-265,0,0,0,0,0,0,0,0,0,-1,825,1289,0,0
-392,-265,0,0,0,0,0,0,0,0,0,-1,832,1289,0,0
-385,-265,0,0,0,0,0,0,0,0,0,-1,839,1289,0,0
-378,-265,0,0,0,0,0,0,0,0,0,-1,846,1289,0,0
-371,-265,0,0,0,0,0,0,0,0,0,-1,853,1289,0,0
-364,-265,0,0,0,0,0,0,0,0,0,-1,860,1289,0,0
-357,-265,0,0,0,0,0,0,0,0,0,-1,867,1289,0,0
-350,-265,0,0,0,0,0,0,0,0,0,-1,874,1289,0,0
-343,-265,0,0,0,0,0,0,0,0,0,-1,881,1289,0,0
-336,-265,0,0,0,0,0,0,0,0,0,-1,888,1289,0,0
-329,-265,0,0,0,0,0,0,0,0,0,-1,895,1289,0,0
-322,-265,0,0,0,0,0,0,0,0,0,-1,902,1289,0,0
-315,-265,0,0,0,0,0,0,0,0,0,-1,909,1289,0,0
-308,-265,0,0,0,0,0,0,0,0,0,-1,916,1289,0,0
-301,-265,0,0,0,0,0,0,0,0,0,-1,923,1289,0,0
-294,-265,0,0,0,0,0,0,0,0,0,-1,930,1289,0,0
-287,-265,0,0,0,0,0,0,0,0,0,-1,937,1289,0,0
-280,-265,0,0,0,0,0,0,0,0,0,-1,944,1289,0,0
-273,-265,0,0,0,0,0,0,0,0,0,-1,951,1289,0,0
-266,-265,0,0,0,0,0,0,0,0,0,-1,958,1289,0,0
-259,-265,0,0,0,0,0,0,0,0,0,-1,965,1289,0,0
-252,-265,0,0,0,0,0,0,0,0,0,-1,972,1289,0,0
-245,-265,0,0,0,0,0,0,0,0,0,-1,979,1289,0,0
-238,-265,0,0,0,0,0,0,0,0,0,-1,986,1289,0,0
-231,-265,0,0,0,0,0,0,0,0,0,-1,993,1289,0,0
-224,-265,0,0,0,0,0,0,0,0,0,-1,1000,1289,0,0
-217,-265,0,0,0,0,0,0,0,0,0,-1,1007,1289,0,0
-210,-265,0,0,0,0,0,0,0,0,0,-1,1014,1289,0,0
-203,-265,0,0,0,0,0,0,0,0,0,-1,1021,1289,0,0
-196,-265,0,0,0,0,0,0,0,0,0,-1,1028,1289,0,0
-189,-265,0,0,0,0,0,0,0,0,0,-1,1035,1289,0,0
-182,-265,0,0,0,0,0,0,0,0,0,-1,1042,1289,0,0
-175,-265,0,0,0,0,0,0,0,0,0,-1,1049,1289,0,0
-168,-265,0,0,0,0,0,0,0,0,0,-1,1056,1289,0,0
-161,-265,0,0,0,0,0,0,0,0,0,-1,1063,1289,0,0
-154,-265,0,0,0,0,0,0,0,0,0,-1,1070,1289,0,0
-147,-265,0,0,0,0,0,0,0,0,0,-1,1077,1289,0,0
-140,-265,0,0,0,0,0,0,0,0,0,-1,1084,1289,0,0
-133,-265,0,0,0,0,0,0,0,0,0,-1,1091,1289,0,0
-126,-265,0,0,0,0,0,0,0,0,0,-1,1098,1289,0,0
-119,-265,0,0,0,0,0,0,0,0,0,-1,1105,1289,0,0
-112,-265,0,0,0,0,0,0,0,0,0,-1,1112,1289,0,0
-105,-265,0,0,0,0,0,0,0,0,0,-1,1119,1289,0,0
-98,-265,0,0,0,0,0,0,0,0,0,-1,1126,1289,0,0
-91,-265,0,0,0,0,0,0,0,0,0,-1,1133,1289,0,0
-84,-265,0,0,0,0,0,0,0,0,0,-1,1140,1289,0,0
-77,-265,0,0,0,0,0,0,0,0,0,-1,1147,1289,0,0
-70,-265,0,0,0,0,0,0,0,0,0,-1,1154,1289,0,0
-63,-265,0,0,0,0,0,0,0,0,0,-1,1161,1289,0,0
-56,-265,0,0,0,0,0,0,0,0,0,-1,1168,1289,0,0
-49,-265,0,0,0,0,0,0,0,0,0,-1,1175,1289,0,0
-42,-265,0,0,0,0,0,0,0,0,0,-1,1182,1289,0,0
-35,-265,0,0,0,0,0,0,0,0,0,-1,1189,1289,0,0
-28,-265,0,0,0,0,0,0,0,0,0,-1,1196,1289,0,0
-21,-265,0,0,0,0,0,0,0,0,0,-1,1203,1289,0,0
-14,-265,0,0,0,0,0,0,0,0,0,-1,1210,1289,0,0
-7,-265,0,0,0,0,0,0,0,0,0,-1,1217,1289,0,0
0,-265,0,0,0,0,0,0,0,0,0,-1,1224,1289,0,0
7,-265,0,0,0,0,0,0,0,0,0,-1,1231,1289,0,0
14,-265,0,0,0,0,0,0,0,0,0,-1,1238,1289,0,0
21,-265,0,0,0,0,0,0,0,0,0,-1,1245,1289,0,0
28,-265,0,0,0,0,0,0,0,0,0,-1,1252,1289,0,0
35,-265,0,0,0,0,0,0,0,0,0,-1,1259,1289,0,0
42,-265,0,0,0,0,0,0,0,0,0,-1,1266,1289,0,0
49,-265,0,0,0,0,0,0,0,0,0,-1,1273,1289,0,0
56,-265,0,0,0,0,0,0,0,0,0,-1,1280,1289,0,0
63,-265,0,0,0,0,0,0,0,0,0,-1,1287,1289,0,0
70,-265,0,0,0,0,0,0,0,0,0,-1,1294,1289,0,0
77,-265,0,0,0,0,0,0,0,0,0,-1,1301,1289,0,0
84,-265,0,0,0,0,0,0,0,0,0,-1,1308,1289,0,0
91,-265,0,0,0,0,0,0,0,0,0,-1,1315,1289,0,0
98,-265,0,0,0,0,0,0,0,0,0,-1,1322,1289,0,0
105,-265,0,0,0,0,0,0,0,0,0,-1,1329,1289,0,0
112,-265,0,0,0,0,0,0,0,0,0,-1,1336,1289,0,0
119,-265,0,0,0,0,0,0,0,0,0,-1,1343,1289,0,0
126,-265,0,0,0,0,0,0,0,0,0,-1,1350,1289,0,0
133,-265,0,0,0,0,0,0,0,0,0,-1,1357,1289,0,0
140,-265,0,0,0,0,0,0,0,0,0,-1,1364,1289,0,0
147,-265,0,0,0,0,0,0,0,0,0,-1,1371,1289,0,0
154,-265,0,0,0,0,0,0,0,0,0,-1,1378,1289,0,0
161,-265,0,0,0,0,0,0,0,0,0,-1,1385,1289,0,0
168,-265,0,0,0,0,0,0,0,0,0,-1,1392,1289,0,0
175,-265,0,0,0,0,0,0,0,0,0,-1,1399,1289,0,0
182,-265,0,0,0,0,0,0,0,0,0,-1,1406,1289,0,0
189,-265,0,0,0,0,0,0,0,0,0,-1,1413,1289,0,0
196,-265,0,0,0,0,0,0,0,0,0,-1,1420,1289,0,0
203,-265,0,0,0,0,0,0,0,0,0,-1,1427,1289,0,0
210,-265,0,0,0,0,0,0,0,0,0,-1,1434,1289,0,0
217,-265,0,0,0,0,0,0,0,0,0,-1,1441,1289,0,0
224,-265,0,0,0,0,0,0,0,0,0,-1,1448,1289,0,0
231,-265,0,0,0,0,0,0,0,0,0,-1,1455,1289,0,0
238,-265,0,0,0,0,0,0,0,0,0,-1,1462,1289,0,0
245,-265,0,0,0,0,0,0,0,0,0,-1,1469,1289,0,0
252,-265,0,0,0,0,0,0,0,0,0,-1,1476,1289,0,0
259,-265,0,0,0,0,0,0,0,0,0,-1,1483,1289,0,0
266,-265,0,0,0,0,0,0,0,0,0,-1,1490,1289,0,0
273,-265,0,0,0,0,0,0,0,0,0,-1,1497,1289,0,0
280,-265,0,0,0,0,0,0,0,0,0,-1,1504,1289,0,0
287,-265,0,0,0,0,0,0,0,0,0,-1,1511,1289,0,0
294,-265,0,0,0,0,0,0,0,0,0,-1,1518,1289,0,0
301,-265,0,0,0,0,0,0,0,0,0,-1,1525,1289,0,0
308,-265,0,0,0,0,0,0,0,0,0,-1,1532,1289,0,0
315,-265,0,0,0,0,0,0,0,0,0,-1,1539,1289,0,0
322,-265,0,0,0,0,0,0,0,0,0,-1,1546,1289,0,0
329,-265,0,0,0,0,0,0,0,0,0,-1,1553,1289,0,0
336,-265,0,0,0,0,0,0,0,0,0,-1,1560,1289,0,0
343,-265,0,0,0,0,0,0,0,0,0,-1,1567,1289,0,0
350,-265,0,0,0,0,0,0,0,0,0,-1,1574,1289,0,0
357,-265,0,0,0,0,0,0,0,0,0,-1,1581,1289,0,0
364,-265,0,0,0,0,0,0,0,0,0,-1,1588,1289,0,0
371,-265,0,0,0,0,0,0,0,0,0,-1,1595,1289,0,0
378,-265,0,0,0,0,0,0,0,0,0,-1,1602,1289,0,0
385,-265,0,0,0,0,0,0,0,0,0,-1,1609,1289,0,0
392,-265,0,0,0,0,0,0,0,0,0,-1,1616,1289,0,0
399,-265,0,0,0,0,0,0,0,0,0,-1,1623,1289,0,0
406,-265,0,0,0,0,0,0,0,0,0,-1,1630,1289,0,0
413,-265,0,0,0,0,0,0,0,0,0,-1,1637,1289,0,0
420,-265,0,0,0,0,0,0,0,0,0,-1,1644,1289,0,0
427,-265,0,0,0,0,0,0,0,0,0,-1,1651,1289,0,0
434,-265,0,0,0,0,0,0,0,0,0,-1,1658,1289,0,0
441,-265,0,0,0,0,0,0,0,0,0,-1,1665,1289,0,0
448,-265,0,0,0,0,0,0,0,0,0,-1,1672,1289,0,0
455,-265,0,0,0,0,0,0,0,0,0,-1,1679,1289,0,0
462,-265,0,0,0,0,0,0,0,0,0,-1,1686,1289,0,0
469,-265,0,0,0,0,0,0,0,0,0,-1,1693,1289,0,0
476,-265,0,0,0,0,0,0,0,0,0,-1,1700,1289,0,0
483,-265,0,0,0,0,0,0,0,0,0,-1,1707,1289,0,0
490,-265,0,0,0,0,0,0,0,0,0,-1,1714,1289,0,0
497,-265,0,0,0,0,0,0,0,0,0,-1,1721,1289,0,0
504,-265,0,0,0,0,0,0,0,0,0,-1,1728,1289,0,0
511,-265,0,0,0,0,0,0,0,0,0,-1,1735,1289,0,0
518,-265,0,0,0,0,0,0,0,0,0,-1,1742,1289,0,0
525,-265,0,0,0,0,0,0,0,0,0,-1,1749,1289,0,0
532,-265,0,0,0,0,0,0,0,0,0,-1,1756,1289,0,0
539,-265,0,0,0,0,0,0,0,0,0,-1,1763,1289,0,0
546,-265,0,0,0,0,0,0,0,0,0,-1,1770,1289,0,0
553,-265,0,0,0,0,0,0,0,0,0,-1,1777,1289,0,0
560,-265,0,0,0,0,0,0,0,0,0,-1,1784,1289,0,0
567,-265,0,0,0,0,0,0,0,0,0,-1,1791,1289,0,0
574,-265,0,0,0,0,0,0,0,0,0,-1,1798,1289,0,0
581,-265,0,0,0,0,0,0,0,0,0,-1,1805,1289,0,0
588,-265,0,0,0,0,0,0,0,0,0,-1,1812,1289,0,0
595,-265,0,0,0,0,0,0,0,0,0,-1,1819,1289,0,0
602,-265,33.917,2.77075,-0.0162035,0.00696471,-0.012743,0.0126019,-0.0218407,-1.1543,0.0201225,0.0266679,1826,1289,33.917,-2.77073
609,-265,33.8622,2.68665,-0.0110791,0.00998979,-0.0130289,0.0162102,-0.0172996,-1.12536,0.0193503,0.0257469,1833,1289,33.8621,-2.68661
616,-265,33.8928,2.68762,-0.00642311,0.0129591,-0.0132291,0.019667,-0.013131,-1.10152,0.0190608,0.0303129,1840,1289,33.8928,-2.68765
623,-265,33.9064,2.5188,-0.00401177,0.0142285,-0.0120668,0.020234,-0.0100173,-1.109,0.0177945,0.0425853,1847,1289,33.9064,-2.5188
630,-265,33.9238,2.57629,-0.00290103,0.0138616,-0.0100662,0.0185789,-0.00761836,-1.13256,0.01556,0.043995,1854,1289,33.9238,-2.57635
637,-265,33.9689,2.7146,-0.00219823,0.0122814,-0.00808369,0.0158933,-0.00581019,-1.15059,0.0129735,0.0460787,1861,1289,33.9689,-2.71456
644,-265,33.9707,2.78442,-0.00169215,0.0104583,-0.00645148,0.0132448,-0.00447864,-1.16308,0.0106417,0.0488549,1868,1289,33.9707,-2.78446
651,-265,34.025,2.90222,0,0,0,0,0,0,0,-1,1875,1289,34.025,-2.90219
658,-265,32.8265,6.18896,0,0,0,0,0,0,0,-1,1882,1289,32.8266,-6.18894
665,-265,29.0533,4.85559,0,0,0,0,0,0,0,-1,1889,1289,29.0534,-4.85554
672,-265,20.0045,6.62671,0,0,0,0,0,0,0,-1,1896,1289,20.0045,-6.62668
679,-265,25.6306,8.07446,0,0,0,0,0,0,0,-1,1903,1289,25.6306,-8.07444
686,-265,25.6985,7.71667,-0.00170322,0.00144992,-0.000519219,0.00153322,-0.00178652,-1.41172,0.00191851,0.0273494,1910,1289,25.6984,-7.71672
693,-265,25.7495,7.3811,-0.00133007,0.000656485,-0.000595711,0.000821426,-0.00149501,-1.30068,0.00135611,0.0102843,1917,1289,25.7495,-7.38114
700,-265,25.7373,7.05566,-0.000721715,0.000619337,-0.000288875,0.000678916,-0.000781294,-1.3674,0.000843743,0.0111124,1924,1289,25.7373,-7.05563
707,-265,25.7399,6.72412,-0.000146775,0.000423254,0.000169482,0.000469838,-0.000193359,1.30256,0.000393831,0.0105567,1931,1289,25.7399,-6.72416
714,-265,25.7388,6.41821,0.000527738,0.000521667,0.000359757,0.000884472,0.000164932,0.781179,0.000543084,0.00998837,1938,1289,25.7388,-6.41821
721,-265,25.7189,6.1178,0.00121268,0.000747072,0.000508441,0.00153908,0.00042067,0.570706,0.000918522,0.0101171,1945,1289,25.7189,-6.11782
728,-265,25.6984,5.82471,0.002015,0.00120473,0.000470507,0.00223076,0.000988967,0.429957,0.00129068,0.012795,1952,1289,25.6984,-5.82474
735,-265,25.7241,5.51746,0.00341272,0.00187887,0.000215009,0.00344229,0.0018493,0.136668,0.00198924,0.0164205,1959,1289,25.7241,-5.5174
742,-265,25.7168,5.23901,0.00596317,0.00285246,-0.000416084,0.00601787,0.00279776,-0.130698,0.00347727,0.0206834,1966,1289,25.7168,-5.23898
749,-265,25.714,5.05322,0.010363,0.0041003,-0.00160123,0.0107487,0.00371465,-0.236344,0.00630362,0.0433997,1973,1289,25.714,-5.05318
756,-265,25.7976,4.84668,0,0,0,0,0,0,0,-1,1980,1289,25.7976,-4.84664
763,-265,27.5735,3.68811,0,0,0,0,0,0,0,-1,1987,1289,27.5735,-3.68807
770,-265,26.0203,3.4718,0,0,0,0,0,0,0,-1,1994,1289,26.0203,-3.47181
777,-265,32.1664,5.3457,0,0,0,0,0,0,0,-1,2001,1289,32.1664,-5.34568
784,-265,0,0,0,0,0,0,0,0,0,-1,2008,1289,0,0
791,-265,0,0,0,0,0,0,0,0,0,-1,2015,1289,0,0
798,-265,0,0,0,0,0,0,0,0,0,-1,2022,1289,0,0
805,-265,0,0,0,0,0,0,0,0,0,-1,2029,1289,0,0
812,-265,0,0,0,0,0,0,0,0,0,-1,2036,1289,0,0
-700,-272,0,0,0,0,0,0,0,0,0,-1,524,1296,0,0
-693,-272,0,0,0,0,0,0,0,0,0,-1,531,1296,0,0
-686,-272,0,0,0,0,0,0,0,0,0,-1,538,1296,0,0
-679,-272,0,0,0,0,0,0,0,0,0,-1,545,1296,0,0
-672,-272,0,0,0,0,0,0,0,0,0,-1,552,1296,0,0
-665,-272,0,0,0,0,0,0,0,0,0,-1,559,1296,0,0
-658,-272,-15.9061,-3.52649,0,0,0,0,0,0,0,-1,566,1296,-15.9061,3.52651
-651,-272,-16.0692,-1.27673,0,0,0,0,0,0,0,-1,573,1296,-16.0692,1.27676
-644,-272,-15.9752,1.13306,0,0,0,0,0,0,0,-1,580,1296,-15.9751,-1.13303
-637,-272,-15.9136,3.66968,0,0,0,0,0,0,0,-1,587,1296,-15.9136,-3.66967
-630,-272,-16.3851,5.32837,0,0,0,0,0,0,0,-1,594,1296,-16.3851,-5.32839
-623,-272,-14.4006,1.34863,0,0,0,0,0,0,0,-1,601,1296,-14.4007,-1.34859
-616,-272,-14.4642,2.02368,0,0,0,0,0,0,0,-1,608,1296,-14.4642,-2.02363
-609,-272,-14.7506,2.74219,0.000892375,0.00218263,-0.00163945,0.00329931,-0.000224311,-0.972844,0.002278,0.0231863,615,1296,-14.7506,-2.74221
-602,-272,-14.804,3.04541,0.000833392,0.00181565,-0.000757735,0.0022275,0.000421543,-1.07294,0.00136634,0.0137597,622,1296,-14.804,-3.04538
-595,-272,-14.8209,3.42749,0.00115129,0.00148432,-1.95742e-05,0.00148547,0.00115014,-1.51229,0.000899618,0.0110531,629,1296,-14.8209,-3.42752
-588,-272,-14.8126,3.78333,0.00179036,0.00128935,0.000703736,0.00228684,0.000792863,0.614411,0.00134083,0.010636,636,1296,-14.8126,-3.78336
-581,-272,-14.8337,4.11694,0.00268344,0.00116326,0.00135917,0.00348061,0.000366081,0.530447,0.00220852,0.0100277,643,1296,-14.8337,-4.11694
-574,-272,-14.8659,4.48462,0.00382541,0.00109844,0.00212541,0.00498709,-6.32349e-05,0.500204,0.003346,0.0148375,650,1296,-14.8659,-4.48464
-567,-272,-14.8938,4.86011,0.00463705,0.00144608,0.0030543,0.00648748,-0.000404354,0.544705,0.00446588,0.020402,657,1296,-14.8938,-4.86013
-560,-272,-14.9108,5.2196,0.00455951,0.00206246,0.00393699,0.0074412,-0.000819234,0.631851,0.00525521,0.0192089,664,1296,-14.9108,-5.21958
-553,-272,-14.8216,5.54822,0.00362819,0.00216534,0.00525588,0.00820329,-0.00240976,0.716261,0.00642457,0.0169143,671,1296,-14.8216,-5.54818
-546,-272,-14.6769,5.97583,0.00168517,0.00200062,0.00674942,0.00859416,-0.00490837,0.79708,0.00789191,0.0301558,678,1296,-14.6769,-5.97586
-539,-272,-14.7843,6.47473,0,0,0,0,0,0,0,-1,685,1296,-14.7843,-6.47468
-532,-272,-10.5572,4.53943,0,0,0,0,0,0,0,-1,692,1296,-10.5572,-4.53943
-525,-272,-11.9599,0.0393066,0,0,0,0,0,0,0,-1,699,1296,-11.9599,-0.0393577
-518,-272,-21.1357,-1.41382,0,0,0,0,0,0,0,-1,706,1296,-21.1357,1.41379
-511,-272,-20.4377,-0.649536,0,0,0,0,0,0,0,-1,713,1296,-20.4377,0.649546
-504,-272,-19.7397,0.114746,0,0,0,0,0,0,0,-1,720,1296,-19.7397,-0.114701
-497,-272,-19.2225,1.71301,0,0,0,0,0,0,0,-1,727,1296,-19.2225,-1.71302
-490,-272,-20.1948,2.4032,0,0,0,0,0,0,0,-1,734,1296,-20.1948,-2.40322
-483,-272,-15.3736,0.792603,0,0,0,0,0,0,0,-1,741,1296,-15.3736,-0.79263
-476,-272,0,0,0,0,0,0,0,0,0,-1,748,1296,0,0
-469,-272,0,0,0,0,0,0,0,0,0,-1,755,1296,0,0
-462,-272,0,0,0,0,0,0,0,0,0,-1,762,1296,0,0
-455,-272,0,0,0,0,0,0,0,0,0,-1,769,1296,0,0
-448,-272,0,0,0,0,0,0,0,0,0,-1,776,1296,0,0
-441,-272,0,0,0,0,0,0,0,0,0,-1,783,1296,0,0
-434,-272,0,0,0,0,0,0,0,0,0,-1,790,1296,0,0
-427,-272,0,0,0,0,0,0,0,0,0,-1,797,1296,0,0
-420,-272,0,0,0,0,0,0,0,0,0,-1,804,1296,0,0
-413,-272,0,0,0,0,0,0,0,0,0,-1,811,1296,0,0
-406,-272,0,0,0,0,0,0,0,0,0,-1,818,1296,0,0
-399,-272,0,0,0,0,0,0,0,0,0,-1,825,1296,0,0
-392,-272,0,0,0,0,0,0,0,0,0,-1,832,1296,0,0
-385,-272,0,0,0,0,0,0,0,0,0,-1,839,1296,0,0
-378,-272,0,0,0,0,0,0,0,0,0,-1,846,1296,0,0
-371,-272,0,0,0,0,0,0,0,0,0,-1,853,1296,0,0
-364,-272,0,0,0,0,0,0,0,0,0,-1,860,1296,0,0
-357,-272,0,0,0,0,0,0,0,0,0,-1,867,1296,0,0
-350,-272,0,0,0,0,0,0,0,0,0,-1,874,1296,0,0
-343,-272,0,0,0,0,0,0,0,0,0,-1,881,1296,0,0
-336,-272,0,0,0,0,0,0,0,0,0,-1,888,1296,0,0
-329,-272,0,0,0,0,0,0,0,0,0,-1,895,1296,0,0
-322,-272,0,0,0,0,0,0,0,0,0,-1,902,1296,0,0
-315,-272,0,0,0,0,0,0,0,0,0,-1,909,1296,0,0
-308,-272,0,0,0,0,0,0,0,0,0,-1,916,1296,0,0
-301,-272,0,0,0,0,0,0,0,0,0,-1,923,1296,0,0
-294,-272,0,0,0,0,0,0,0,0,0,-1,930,1296,0,0
-287,-272,0,0,0,0,0,0,0,0,0,-1,937,1296,0,0
-280,-272,0,0,0,0,0,0,0,0,0,-1,944,1296,0,0
-273,-272,0,0,0,0,0,0,0,0,0,-1,951,1296,0,0
-266,-272,0,0,0,0,0,0,0,0,0,-1,958,1296,0,0
-259,-272,0,0,0,0,0,0,0,0,0,-1,965,1296,0,0
-252,-272,0,0,0,0,0,0,0,0,0,-1,972,1296,0,0
-245,-272,0,0,0,0,0,0,0,0,0,-1,979,1296,0,0
-238,-272,0,0,0,0,0,0,0,0,0,-1,986,1296,0,0
-231,-272,0,0,0,0,0,0,0,0,0,-1,993,1296,0,0
-224,-272,0,0,0,0,0,0,0,0,0,-1,1000,1296,0,0
-217,-272,0,0,0,0,0,0,0,0,0,-1,1007,1296,0,0
-210,-272,0,0,0,0,0,0,0,0,0,-1,1014,1296,0,0
-203,-272,0,0,0,0,0,0,0,0,0,-1,1021,1296,0,0
-196,-272,0,0,0,0,0,0,0,0,0,-1,1028,1296,0,0
-189,-272,0,0,0,0,0,0,0,0,0,-1,1035,1296,0,0
-182,-272,0,0,0,0,0,0,0,0,0,-1,1042,1296,0,0
-175,-272,0,0,0,0,0,0,0,0,0,-1,1049,1296,0,0
-168,-272,0,0,0,0,0,0,0,0,0,-1,1056,1296,0,0
-161,-272,0,0,0,0,0,0,0,0,0,-1,1063,1296,0,0
-154,-272,0,0,0,0,0,0,0,0,0,-1,1070,1296,0,0
-147,-272,0,0,0,0,0,0,0,0,0,-1,1077,1296,0,0
-140,-272,0,0,0,0,0,0,0,0,0,-1,1084,1296,0,0
-133,-272,0,0,0,0,0,0,0,0,0,-1,1091,1296,0,0
-126,-272,0,0,0,0,0,0,0,0,0,-1,1098,1296,0,0
-119,-272,0,0,0,0,0,0,0,0,0,-1,1105,1296,0,0
-112,-272,0,0,0,0,0,0,0,0,0,-1,1112,1296,0,0
-105,-272,0,0,0,0,0,0,0,0,0,-1,1119,1296,0,0
-98,-272,0,0,0,0,0,0,0,0,0,-1,1126,1296,0,0
-91,-272,0,0,0,0,0,0,0,0,0,-1,1133,1296,0,0
-84,-272,0,0,0,0,0,0,0,0,0,-1,1140,1296,0,0
-77,-272,0,0,0,0,0,0,0,0,0,-1,1147,1296,0,0
-70,-272,0,0,0,0,0,0,0,0,0,-1,1154,1296,0,0
-63,-272,0,0,0,0,0,0,0,0,0,-1,1161,1296,0,0
-56,-272,0,0,0,0,0,0,0,0,0,-1,1168,1296,0,0
-49,-272,0,0,0,0,0,0,0,0,0,-1,1175,1296,0,0
-42,-272,0,0,0,0,0,0,0,0,0,-1,1182,1296,0,0
-35,-272,0,0,0,0,0,0,0,0,0,-1,1189,1296,0,0
-28,-272,0,0,0,0,0,0,0,0,0,-1,1196,1296,0,0
-21,-272,0,0,0,0,0,0,0,0,0,-1,1203,1296,0,0
-14,-272,0,0,0,0,0,0,0,0,0,-1,1210,1296,0,0
-7,-272,0,0,0,0,0,0,0,0,0,-1,1217,1296,0,0
0,-272,0,0,0,0,0,0,0,0,0,-1,1224,1296,0,0
7,-272,0,0,0,0,0,0,0,0,0,-1,1231,1296,0,0
14,-272,0,0,0,0,0,0,0,0,0,-1,1238,1296,0,0
21,-272,0,0,0,0,0,0,0,0,0,-1,1245,1296,0,0
28,-272,0,0,0,0,0,0,0,0,0,-1,1252,1296,0,0
35,-272,0,0,0,0,0,0,0,0,0,-1,1259,1296,0,0
42,-272,0,0,0,0,0,0,0,0,0,-1,1266,1296,0,0
49,-272,0,0,0,0,0,0,0,0,0,-1,1273,1296,0,0
56,-272,0,0,0,0,0,0,0,0,0,-1,1280,1296,0,0
63,-272,0,0,0,0,0,0,0,0,0,-1,1287,1296,0,0
70,-272,0,0,0,0,0,0,0,0,0,-1,1294,1296,0,0
77,-272,0,0,0,0,0,0,0,0,0,-1,1301,1296,0,0
84,-272,0,0,0,0,0,0,0,0,0,-1,1308,1296,0,0
91,-272,0,0,0,0,0,0,0,0,0,-1,1315,1296,0,0
98,-272,0,0,0,0,0,0,0,0,0,-1,1322,1296,0,0
105,-272,0,0,0,0,0,0,0,0,0,-1,1329,1296,0,0
112,-272,0,0,0,0,0,0,0,0,0,-1,1336,1296,0,0
119,-272,0,0,0,0,0,0,0,0,0,-1,1343,1296,0,0
126,-272,0,0,0,0,0,0,0,0,0,-1,1350,1296,0,0
133,-272,0,0,0,0,0,0,0,0,0,-1,1357,1296,0,0
140,-272,0,0,0,0,0,0,0,0,0,-1,1364,1296,0,0
147,-272,0,0,0,0,0,0,0,0,0,-1,1371,1296,0,0
154,-272,0,0,0,0,0,0,0,0,0,-1,1378,1296,0,0
161,-272,0,0,0,0,0,0,0,0,0,-1,1385,1296,0,0
168,-272,0,0,0,0,0,0,0,0,0,-1,1392,1296,0,0
175,-272,0,0,0,0,0,0,0,0,0,-1,1399,1296,0,0
182,-272,0,0,0,0,0,0,0,0,0,-1,1406,1296,0,0
189,-272,0,0,0,0,0,0,0,0,0,-1,1413,1296,0,0
196,-272,0,0,0,0,0,0,0,0,0,-1,1420,1296,0,0
203,-272,0,0,0,0,0,0,0,0,0,-1,1427,1296,0,0
210,-272,0,0,0,0,0,0,0,0,0,-1,1434,1296,0,0
217,-272,0,0,0,0,0,0,0,0,0,-1,1441,1296,0,0
224,-272,0,0,0,0,0,0,0,0,0,-1,1448,1296,0,0
231,-272,0,0,0,0,0,0,0,0,0,-1,1455,1296,0,0
238,-272,0,0,0,0,0,0,0,0,0,-1,1462,1296,0,0
245,-272,0,0,0,0,0,0,0,0,0,-1,1469,1296,0,0
252,-272,0,0,0,0,0,0,0,0,0,-1,1476,1296,0,0
259,-272,0,0,0,0,0,0,0,0,0,-1,1483,1296,0,0
266,-272,0,0,0,0,0,0,0,0,0,-1,1490,1296,0,0
273,-272,0,0,0,0,0,0,0,0,0,-1,1497,1296,0,0
280,-272,0,0,0,0,0,0,0,0,0,-1,1504,1296,0,0
287,-272,0,0,0,0,0,0,0,0,0,-1,1511,1296,0,0
294,-272,0,0,0,0,0,0,0,0,0,-1,1518,1296,0,0
301,-272,0,0,0,0,0,0,0,0,0,-1,1525,1296,0,0
308,-272,0,0,0,0,0,0,0,0,0,-1,1532,1296,0,0
315,-272,0,0,0,0,0,0,0,0,0,-1,1539,1296,0,0
322,-272,0,0,0,0,0,0,0,0,0,-1,1546,1296,0,0
329,-272,0,0,0,0,0,0,0,0,0,-1,1553,1296,0,0
336,-272,0,0,0,0,0,0,0,0,0,-1,1560,1296,0,0
343,-272,0,0,0,0,0,0,0,0,0,-1,1567,1296,0,0
350,-272,0,0,0,0,0,0,0,0,0,-1,1574,1296,0,0
357,-272,0,0,0,0,0,0,0,0,0,-1,1581,1296,0,0
364,-272,0,0,0,0,0,0,0,0,0,-1,1588,1296,0,0
371,-272,0,0,0,0,0,0,0,0,0,-1,1595,1296,0,0
378,-272,0,0,0,0,0,0,0,0,0,-1,1602,1296,0,0
385,-272,0,0,0,0,0,0,0,0,0,-1,1609,1296,0,0
392,-272,0,0,0,0,0,0,0,0,0,-1,1616,1296,0,0
399,-272,0,0,0,0,0,0,0,0,0,-1,1623,1296,0,0
406,-272,0,0,0,0,0,0,0,0,0,-1,1630,1296,0,0
413,-272,0,0,0,0,0,0,0,0,0,-1,1637,1296,0,0
420,-272,0,0,0,0,0,0,0,0,0,-1,1644,1296,0,0
427,-272,0,0,0,0,0,0,0,0,0,-1,1651,1296,0,0
434,-272,0,0,0,0,0,0,0,0,0,-1,1658,1296,0,0
441,-272,0,0,0,0,0,0,0,0,0,-1,1665,1296,0,0
448,-272,0,0,0,0,0,0,0,0,0,-1,1672,1296,0,0
455,-272,0,0,0,0,0,0,0,0,0,-1,1679,1296,0,0
462,-272,0,0,0,0,0,0,0,0,0,-1,1686,1296,0,0
469,-272,0,0,0,0,0,0,0,0,0,-1,1693,1296,0,0
476,-272,0,0,0,0,0,0,0,0,0,-1,1700,1296,0,0
483,-272,0,0,0,0,0,0,0,0,0,-1,1707,1296,0,0
490,-272,0,0,0,0,0,0,0,0,0,-1,1714,1296,0,0
497,-272,0,0,0,0,0,0,0,0,0,-1,1721,1296,0,0
504,-272,0,0,0,0,0,0,0,0,0,-1,1728,1296,0,0
511,-272,0,0,0,0,0,0,0,0,0,-1,1735,1296,0,0
518,-272,0,0,0,0,0,0,0,0,0,-1,1742,1296,0,0
525,-272,0,0,0,0,0,0,0,0,0,-1,1749,1296,0,0
532,-272,0,0,0,0,0,0,0,0,0,-1,1756,1296,0,0
539,-272,0,0,0,0,0,0,0,0,0,-1,1763,1296,0,0
546,-272,0,0,0,0,0,0,0,0,0,-1,1770,1296,0,0
553,-272,0,0,0,0,0,0,0,0,0,-1,1777,1296,0,0
560,-272,0,0,0,0,0,0,0,0,0,-1,1784,1296,0,0
567,-272,0,0,0,0,0,0,0,0,0,-1,1791,1296,0,0
574,-272,0,0,0,0,0,0,0,0,0,-1,1798,1296,0,0
581,-272,0,0,0,0,0,0,0,0,0,-1,1805,1296,0,0
588,-272,0,0,0,0,0,0,0,0,0,-1,1812,1296,0,0
595,-272,0,0,0,0,0,0,0,0,0,-1,1819,1296,0,0
602,-272,33.9001,2.71851,-0.0210325,0.00867287,-0.0186313,0.0176472,-0.0300069,-1.12191,0.0278199,0.0302938,1826,1296,33.9001,-2.71856
609,-272,33.8068,2.57068,-0.016143,0.0110431,-0.0185778,0.0204697,-0.0255696,-1.10123,0.0266351,0.0368897,1833,1296,33.8067,-2.57065
616,-272,33.8422,2.46338,-0.0115915,0.0134093,-0.0181553,0.0229514,-0.0211337,-1.08689,0.0254598,0.0443741,1840,1296,33.8422,-2.46337
623,-272,34.1887,2.18384,-0.00830205,0.0140867,-0.0156957,0.0221711,-0.0163864,-1.09517,0.0223446,0.0448501,1847,1296,34.1887,-2.18385
630,-272,33.8224,2.27515,-0.00572302,0.013474,-0.0125541,0.0196785,-0.0119276,-1.11178,0.0184298,0.0470085,1854,1296,33.8224,-2.27517
637,-272,33.8013,2.34399,-0.00397982,0.0120139,-0.00995475,0.016786,-0.00875193,-1.12378,0.0149856,0.0466359,1861,1296,33.8013,-2.34401
644,-272,33.9268,2.40295,0,0,0,0,0,0,0,-1,1868,1296,33.9268,-2.40293
651,-272,29.3049,4.17993,0,0,0,0,0,0,0,-1,1875,1296,29.305,-4.17988
658,-272,28.5599,4.35059,0,0,0,0,0,0,0,-1,1882,1296,28.5599,-4.35054
665,-272,22.0238,4.14417,0,0,0,0,0,0,0,-1,1889,1296,22.0238,-4.14421
672,-272,22.661,7.21765,0,0,0,0,0,0,0,-1,1896,1296,22.661,-7.21761
679,-272,25.4194,8.06458,0,0,0,0,0,0,0,-1,1903,1296,25.4194,-8.06457
686,-272,25.421,7.72754,-0.00109876,0.00102759,-0.000234866,0.00105322,-0.00112439,-1.46209,0.00125747,0.0176539,1910,1296,25.421,-7.72755
693,-272,25.4288,7.40015,-0.000722915,0.000172743,-0.000351936,0.000294484,-0.000844656,-1.23776,0.000682773,0.0117729,1917,1296,25.4289,-7.40014
700,-272,25.42,7.08398,-0.000278676,0.000218723,-6.89486e-05,0.000228104,-0.000288057,-1.43557,0.000298675,0.0117155,1924,1296,25.4201,-7.08396
707,-272,25.4248,6.74805,5.86838e-05,0.000185559,0.000354775,0.000482524,-0.000238281,0.873868,0.000424046,0.0109115,1931,1296,25.4248,-6.74804
714,-272,25.4227,6.42932,0.000553864,0.000413387,0.000495329,0.00098391,-1.66591e-05,0.714967,0.000661563,0.010873,1938,1296,25.4227,-6.42934
721,-272,25.3992,6.14172,0.00100299,0.000728635,0.000615309,0.00149623,0.000235398,0.675722,0.000929014,0.0131406,1945,1296,25.3992,-6.14174
728,-272,25.3975,5.828,0.00163439,0.00123209,0.000604252,0.00207009,0.000796386,0.624721,0.00120571,0.0161254,1952,1296,25.3975,-5.82802
735,-272,25.3992,5.5293,0.00291118,0.00191735,0.000365716,0.00303125,0.00179728,0.317232,0.00176014,0.015706,1959,1296,25.3992,-5.52927
742,-272,25.3237,5.21851,0.00540625,0.00294746,-0.000271927,0.00543597,0.00291774,-0.108841,0.00314128,0.0273802,1966,1296,25.3238,-5.21851
749,-272,25.2134,5.06946,0.00984061,0.00427884,-0.00151307,0.0102256,0.00389386,-0.24915,0.00595941,0.0475406,1973,1296,25.2134,-5.06949
756,-272,25.291,5.02295,0,0,0,0,0,0,0,-1,1980,1296,25.291,-5.0229
763,-272,25.4053,4.14624,0,0,0,0,0,0,0,-1,1987,1296,25.4052,-4.14628
770,-272,25.9485,3.67749,0,0,0,0,0,0,0,-1,1994,1296,25.9485,-3.67744
777,-272,32.3619,6.13257,0,0,0,0,0,0,0,-1,2001,1296,32.362,-6.1326
784,-272,0,0,0,0,0,0,0,0,0,-1,2008,1296,0,0
791,-272,0,0,0,0,0,0,0,0,0,-1,2015,1296,0,0
798,-272,0,0,0,0,0,0,0,0,0,-1,2022,1296,0,0
805,-272,0,0,0,0,0,0,0,0,0,-1,2029,1296,0,0
812,-272,0,0,0,0,0,0,0,0,0,-1,2036,1296,0,0
-700,-279,0,0,0,0,0,0,0,0,0,-1,524,1303,0,0
-693,-279,0,0,0,0,0,0,0,0,0,-1,531,1303,0,0
-686,-279,0,0,0,0,0,0,0,0,0,-1,538,1303,0,0
-679,-279,0,0,0,0,0,0,0,0,0,-1,545,1303,0,0
-672,-279,0,0,0,0,0,0,0,0,0,-1,552,1303,0,0
-665,-279,0,0,0,0,0,0,0,0,0,-1,559,1303,0,0
-658,-279,-15.1192,-4.15027,0,0,0,0,0,0,0,-1,566,1303,-15.1192,4.15022
-651,-279,-15.0158,-1.78174,0,0,0,0,0,0,0,-1,573,1303,-15.0158,1.7817
-644,-279,-15.0483,0.823364,0,0,0,0,0,0,0,-1,580,1303,-15.0483,-0.823407
-637,-279,-14.8973,3.24683,0,0,0,0,0,0,0,-1,587,1303,-14.8973,-3.24688
-630,-279,-14.7678,5.64355,0,0,0,0,0,0,0,-1,594,1303,-14.7678,-5.64355
-623,-279,-14.3563,1.76624,0,0,0,0,0,0,0,-1,601,1303,-14.3563,-1.76629
-616,-279,-15.1683,1.24597,0,0,0,0,0,0,0,-1,608,1303,-15.1683,-1.24598
-609,-279,-14.6035,2.54004,-0.000154858,0.00132873,-0.00220814,0.00291634,-0.00174247,-0.947443,0.00271808,0.0383114,615,1303,-14.6035,-2.54007
-602,-279,-14.4343,3.05078,-1.64509e-05,0.00123725,-0.0010798,0.00185897,-0.000638165,-1.04839,0.00149805,0.0130464,622,1303,-14.4343,-3.05075
-595,-279,-14.4534,3.42163,0.000386836,0.00109366,-0.000261585,0.00117994,0.000300558,-1.25221,0.000708035,0.00972998,629,1303,-14.4534,-3.42164
-588,-279,-14.4433,3.78467,0.00102486,0.000999998,0.00044376,0.00145636,0.000568494,0.771396,0.000847544,0.0105065,636,1303,-14.4433,-3.78465
-581,-279,-14.4695,4.11328,0.00189308,0.000910097,0.00106439,0.00257398,0.0002292,0.569104,0.00164492,0.0121042,643,1303,-14.4696,-4.1133
-574,-279,-14.5095,4.46338,0.00290538,0.000861097,0.00170039,0.0038672,-0.000100721,0.514776,0.00261235,0.0125306,650,1303,-14.5095,-4.46337
-567,-279,-14.517,4.82532,0.00380022,0.00105405,0.00244899,0.00523479,-0.00038052,0.529897,0.00362337,0.016934,657,1303,-14.517,-4.82526
-560,-279,-14.5042,5.20752,0.00414154,0.00150075,0.00321987,0.00630123,-0.000658945,0.590817,0.00443681,0.0165271,664,1303,-14.5041,-5.20755
-553,-279,-14.4893,5.5697,0.00383364,0.0016082,0.00441678,0.00727571,-0.00183387,0.662001,0.00556344,0.0122687,671,1303,-14.4893,-5.56969
-546,-279,-14.4719,5.89795,0.0025394,0.00156156,0.00591532,0.00798597,-0.00388501,0.744165,0.00698871,0.0182761,678,1303,-14.4719,-5.89791
-539,-279,-14.3239,6.52637,0.000333515,0.00154246,0.00758639,0.00854842,-0.00667245,0.825154,0.00880999,0.048632,685,1303,-14.3238,-6.52632
-532,-279,-14.1358,7.20239,0,0,0,0,0,0,0,-1,692,1303,-14.1358,-7.20236
-525,-279,-11.7063,-0.539185,0,0,0,0,0,0,0,-1,699,1303,-11.7063,0.539166
-518,-279,-16.8138,1.11963,0,0,0,0,0,0,0,-1,706,1303,-16.8138,-1.11968
-511,-279,-20.1063,-1.37915,0,0,0,0,0,0,0,-1,713,1303,-20.1062,1.37918
-504,-279,-18.3766,1.04578,0,0,0,0,0,0,0,-1,720,1303,-18.3767,-1.04577
-497,-279,-19.0046,2.08911,0,0,0,0,0,0,0,-1,727,1303,-19.0046,-2.08905
-490,-279,-20.0176,2.55188,0,0,0,0,0,0,0,-1,734,1303,-20.0176,-2.55183
-483,-279,-20.8064,2.99792,0,0,0,0,0,0,0,-1,741,1303,-20.8064,-2.99797
-476,-279,0,0,0,0,0,0,0,0,0,-1,748,1303,0,0
-469,-279,0,0,0,0,0,0,0,0,0,-1,755,1303,0,0
-462,-279,0,0,0,0,0,0,0,0,0,-1,762,1303,0,0
-455,-279,0,0,0,0,0,0,0,0,0,-1,769,1303,0,0
-448,-279,0,0,0,0,0,0,0,0,0,-1,776,1303,0,0
-441,-279,0,0,0,0,0,0,0,0,0,-1,783,1303,0,0
-434,-279,0,0,0,0,0,0,0,0,0,-1,790,1303,0,0
-427,-279,0,0,0,0,0,0,0,0,0,-1,797,1303,0,0
-420,-279,0,0,0,0,0,0,0,0,0,-1,804,1303,0,0
-413,-279,0,0,0,0,0,0,0,0,0,-1,811,1303,0,0
-406,-279,0,0,0,0,0,0,0,0,0,-1,818,1303,0,0
-399,-279,0,0,0,0,0,0,0,0,0,-1,825,1303,0,0
-392,-279,0,0,0,0,0,0,0,0,0,-1,832,1303,0,0
-385,-279,0,0,0,0,0,0,0,0,0,-1,839,1303,0,0
-378,-279,0,0,0,0,0,0,0,0,0,-1,846,1303,0,0
-371,-279,0,0,0,0,0,0,0,0,0,-1,853,1303,0,0
-364,-279,0,0,0,0,0,0,0,0,0,-1,860,1303,0,0
-357,-279,0,0,0,0,0,0,0,0,0,-1,867,1303,0,0
-350,-279,0,0,0,0,0,0,0,0,0,-1,874,1303,0,0
-343,-279,0,0,0,0,0,0,0,0,0,-1,881,1303,0,0
-336,-279,0,0,0,0,0,0,0,0,0,-1,888,1303,0,0
-329,-279,0,0,0,0,0,0,0,0,0,-1,895,1303,0,0
-322,-279,0,0,0,0,0,0,0,0,0,-1,902,1303,0,0
-315,-279,0,0,0,0,0,0,0,0,0,-1,909,1303,0,0
-308,-279,0,0,0,0,0,0,0,0,0,-1,916,1303,0,0
-301,-279,0,0,0,0,0,0,0,0,0,-1,923,1303,0,0
-294,-279,0,0,0,0,0,0,0,0,0,-1,930,1303,0,0
-287,-279,0,0,0,0,0,0,0,0,0,-1,937,1303,0,0
-280,-279,0,0,0,0,0,0,0,0,0,-1,944,1303,0,0
-273,-279,0,0,0,0,0,0,0,0,0,-1,951,1303,0,0
-266,-279,0,0,0,0,0,0,0,0,0,-1,958,1303,0,0
-259,-279,0,0,0,0,0,0,0,0,0,-1,965,1303,0,0
-252,-279,0,0,0,0,0,0,0,0,0,-1,972,1303,0,0
-245,-279,0,0,0,0,0,0,0,0,0,-1,979,1303,0,0
-238,-279,0,0,0,0,0,0,0,0,0,-1,986,1303,0,0
-231,-279,0,0,0,0,0,0,0,0,0,-1,993,1303,0,0
-224,-279,0,0,0,0,0,0,0,0,0,-1,1000,1303,0,0
-217,-279,0,0,0,0,0,0,0,0,0,-1,1007,1303,0,0
-210,-279,0,0,0,0,0,0,0,0,0,-1,1014,1303,0,0
-203,-279,0,0,0,0,0,0,0,0,0,-1,1021,1303,0,0
-196,-279,0,0,0,0,0,0,0,0,0,-1,1028,1303,0,0
-189,-279,0,0,0,0,0,0,0,0,0,-1,1035,1303,0,0
-182,-279,0,0,0,0,0,0,0,0,0,-1,1042,1303,0,0
-175,-279,0,0,0,0,0,0,0,0,0,-1,1049,1303,0,0
-168,-279,0,0,0,0,0,0,0,0,0,-1,1056,1303,0,0
-161,-279,0,0,0,0,0,0,0,0,0,-1,1063,1303,0,0
-154,-279,0,0,0,0,0,0,0,0,0,-1,1070,1303,0,0
-147,-279,0,0,0,0,0,0,0,0,0,-1,1077,1303,0,0
-140,-279,0,0,0,0,0,0,0,0,0,-1,1084,1303,0,0
-133,-279,0,0,0,0,0,0,0,0,0,-1,1091,1303,0,0
-126,-279,0,0,0,0,0,0,0,0,0,-1,1098,1303,0,0
-119,-279,0,0,0,0,0,0,0,0,0,-1,1105,1303,0,0
-112,-279,0,0,0,0,0,0,0,0,0,-1,1112,1303,0,0
-105,-279,0,0,0,0,0,0,0,0,0,-1,1119,1303,0,0
-98,-279,0,0,0,0,0,0,0,0,0,-1,1126,1303,0,0
-91,-279,0,0,0,0,0,0,0,0,0,-1,1133,1303,0,0
-84,-279,0,0,0,0,0,0,0,0,0,-1,1140,1303,0,0
-77,-279,0,0,0,0,0,0,0,0,0,-1,1147,1303,0,0
-70,-279,0,0,0,0,0,0,0,0,0,-1,1154,1303,0,0
-63,-279,0,0,0,0,0,0,0,0,0,-1,1161,1303,0,0
-56,-279,0,0,0,0,0,0,0,0,0,-1,1168,1303,0,0
-49,-279,0,0,0,0,0,0,0,0,0,-1,1175,1303,0,0
-42,-279,0,0,0,0,0,0,0,0,0,-1,1182,1303,0,0
-35,-279,0,0,0,0,0,0,0,0,0,-1,1189,1303,0,0
-28,-279,0,0,0,0,0,0,0,0,0,-1,1196,1303,0,0
-21,-279,0,0,0,0,0,0,0,0,0,-1,1203,1303,0,0
-14,-279,0,0,0,0,0,0,0,0,0,-1,1210,1303,0,0
-7,-279,0,0,0,0,0,0,0,0,0,-1,1217,1303,0,0
0,-279,0,0,0,0,0,0,0,0,0,-1,1224,1303,0,0
7,-279,0,0,0,0,0,0,0,0,0,-1,1231,1303,0,0
14,-279,0,0,0,0,0,0,0,0,0,-1,1238,1303,0,0
21,-279,0,0,0,0,0,0,0,0,0,-1,1245,1303,0,0
28,-279,0,0,0,0,0,0,0,0,0,-1,1252,1303,0,0
35,-279,0,0,0,0,0,0,0,0,0,-1,1259,1303,0,0
42,-279,0,0,0,0,0,0,0,0,0,-1,1266,1303,0,0
49,-279,0,0,0,0,0,0,0,0,0,-1,1273,1303,0,0
56,-279,0,0,0,0,0,0,0,0,0,-1,1280,1303,0,0
63,-279,0,0,0,0,0,0,0,0,0,-1,1287,1303,0,0
70,-279,0,0,0,0,0,0,0,0,0,-1,1294,1303,0,0
77,-279,0,0,0,0,0,0,0,0,0,-1,1301,1303,0,0
84,-279,0,0,0,0,0,0,0,0,0,-1,1308,1303,0,0
91,-279,0,0,0,0,0,0,0,0,0,-1,1315,1303,0,0
98,-279,0,0,0,0,0,0,0,0,0,-1,1322,1303,0,0
105,-279,0,0,0,0,0,0,0,0,0,-1,1329,1303,0,0
112,-279,0,0,0,0,0,0,0,0,0,-1,1336,1303,0,0
119,-279,0,0,0,0,0,0,0,0,0,-1,1343,1303,0,0
126,-279,0,0,0,0,0,0,0,0,0,-1,1350,1303,0,0
133,-279,0,0,0,0,0,0,0,0,0,-1,1357,1303,0,0
140,-279,0,0,0,0,0,0,0,0,0,-1,1364,1303,0,0
147,-279,0,0,0,0,0,0,0,0,0,-1,1371,1303,0,0
154,-279,0,0,0,0,0,0,0,0,0,-1,1378,1303,0,0
161,-279,0,0,0,0,0,0,0,0,0,-1,1385,1303,0,0
168,-279,0,0,0,0,0,0,0,0,0,-1,1392,1303,0,0
175,-279,0,0,0,0,0,0,0,0,0,-1,1399,1303,0,0
182,-279,0,0,0,0,0,0,0,0,0,-1,1406,1303,0,0
189,-279,0,0,0,0,0,0,0,0,0,-1,1413,1303,0,0
196,-279,0,0,0,0,0,0,0,0,0,-1,1420,1303,0,0
203,-279,0,0,0,0,0,0,0,0,0,-1,1427,1303,0,0
210,-279,0,0,0,0,0,0,0,0,0,-1,1434,1303,0,0
217,-279,0,0,0,0,0,0,0,0,0,-1,1441,1303,0,0
224,-279,0,0,0,0,0,0,0,0,0,-1,1448,1303,0,0
231,-279,0,0,0,0,0,0,0,0,0,-1,1455,1303,0,0
238,-279,0,0,0,0,0,0,0,0,0,-1,1462,1303,0,0
245,-279,0,0,0,0,0,0,0,0,0,-1,1469,1303,0,0
252,-279,0,0,0,0,0,0,0,0,0,-1,1476,1303,0,0
259,-279,0,0,0,0,0,0,0,0,0,-1,1483,1303,0,0
266,-279,0,0,0,0,0,0,0,0,0,-1,1490,1303,0,0
273,-279,0,0,0,0,0,0,0,0,0,-1,1497,1303,0,0
280,-279,0,0,0,0,0,0,0,0,0,-1,1504,1303,0,0
287,-279,0,0,0,0,0,0,0,0,0,-1,1511,1303,0,0
294,-279,0,0,0,0,0,0,0,0,0,-1,1518,1303,0,0
301,-279,0,0,0,0,0,0,0,0,0,-1,1525,1303,0,0
308,-279,0,0,0,0,0,0,0,0,0,-1,1532,1303,0,0
315,-279,0,0,0,0,0,0,0,0,0,-1,1539,1303,0,0
322,-279,0,0,0,0,0,0,0,0,0,-1,1546,1303,0,0
329,-279,0,0,0,0,0,0,0,0,0,-1,1553,1303,0,0
336,-279,0,0,0,0,0,0,0,0,0,-1,1560,1303,0,0
343,-279,0,0,0,0,0,0,0,0,0,-1,1567,1303,0,0
350,-279,0,0,0,0,0,0,0,0,0,-1,1574,1303,0,0
357,-279,0,0,0,0,0,0,0,0,0,-1,1581,1303,0,0
364,-279,0,0,0,0,0,0,0,0,0,-1,1588,1303,0,0
371,-279,0,0,0,0,0,0,0,0,0,-1,1595,1303,0,0
378,-279,0,0,0,0,0,0,0,0,0,-1,1602,1303,0,0
385,-279,0,0,0,0,0,0,0,0,0,-1,1609,1303,0,0
392,-279,0,0,0,0,0,0,0,0,0,-1,1616,1303,0,0
399,-279,0,0,0,0,0,0,0,0,0,-1,1623,1303,0,0
406,-279,0,0,0,0,0,0,0,0,0,-1,1630,1303,0,0
413,-279,0,0,0,0,0,0,0,0,0,-1,1637,1303,0,0
420,-279,0,0,0,0,0,0,0,0,0,-1,1644,1303,0,0
427,-279,0,0,0,0,0,0,0,0,0,-1,1651,1303,0,0
434,-279,0,0,0,0,0,0,0,0,0,-1,1658,1303,0,0
441,-279,0,0,0,0,0,0,0,0,0,-1,1665,1303,0,0
448,-279,0,0,0,0,0,0,0,0,0,-1,1672,1303,0,0
455,-279,0,0,0,0,0,0,0,0,0,-1,1679,1303,0,0
462,-279,0,0,0,0,0,0,0,0,0,-1,1686,1303,0,0
469,-279,0,0,0,0,0,0,0,0,0,-1,1693,1303,0,0
476,-279,0,0,0,0,0,0,0,0,0,-1,1700,1303,0,0
483,-279,0,0,0,0,0,0,0,0,0,-1,1707,1303,0,0
490,-279,0,0,0,0,0,0,0,0,0,-1,1714,1303,0,0
497,-279,0,0,0,0,0,0,0,0,0,-1,1721,1303,0,0
504,-279,0,0,0,0,0,0,0,0,0,-1,1728,1303,0,0
511,-279,0,0,0,0,0,0,0,0,0,-1,1735,1303,0,0
518,-279,0,0,0,0,0,0,0,0,0,-1,1742,1303,0,0
525,-279,0,0,0,0,0,0,0,0,0,-1,1749,1303,0,0
532,-279,0,0,0,0,0,0,0,0,0,-1,1756,1303,0,0
539,-279,0,0,0,0,0,0,0,0,0,-1,1763,1303,0,0
546,-279,0,0,0,0,0,0,0,0,0,-1,1770,1303,0,0
553,-279,0,0,0,0,0,0,0,0,0,-1,1777,1303,0,0
560,-279,0,0,0,0,0,0,0,0,0,-1,1784,1303,0,0
567,-279,0,0,0,0,0,0,0,0,0,-1,1791,1303,0,0
574,-279,0,0,0,0,0,0,0,0,0,-1,1798,1303,0,0
581,-279,0,0,0,0,0,0,0,0,0,-1,1805,1303,0,0
588,-279,0,0,0,0,0,0,0,0,0,-1,1812,1303,0,0
595,-279,0,0,0,0,0,0,0,0,0,-1,1819,1303,0,0
602,-279,33.8827,2.61499,-0.0263328,0.0101854,-0.0252226,0.0230643,-0.0392116,-1.0987,0.0363557,0.0400543,1826,1303,33.8826,-2.61504
609,-279,33.7543,2.30029,-0.0220297,0.0116204,-0.0247837,0.0247505,-0.0351598,-1.0836,0.0347629,0.0492997,1833,1303,33.7542,-2.30035
616,-279,33.8529,2.29749,0,0,0,0,0,0,0,-1,1840,1303,33.8529,-2.29751
623,-279,34.5957,1.88574,-0.0125571,0.0129675,-0.0189599,0.0230603,-0.0226499,-1.08163,0.0263911,0.0468941,1847,1303,34.5957,-1.88573
630,-279,34.6824,1.35034,-0.00848503,0.0123541,-0.014856,0.0200803,-0.0162112,-1.09122,0.0209926,0.0437152,1854,1303,34.6824,-1.35033
637,-279,34.687,0.910645,0,0,0,0,0,0,0,-1,1861,1303,34.6871,-0.910666
644,-279,33.5021,3.40234,0,0,0,0,0,0,0,-1,1868,1303,33.5021,-3.40237
651,-279,27.979,3.85693,0,0,0,0,0,0,0,-1,1875,1303,27.979,-3.85695
658,-279,21.5076,7.65649,0,0,0,0,0,0,0,-1,1882,1303,21.5076,-7.65648
665,-279,18.9794,6.09607,0,0,0,0,0,0,0,-1,1889,1303,18.9793,-6.09601
672,-279,23.5206,8.32507,0,0,0,0,0,0,0,-1,1896,1303,23.5206,-8.32512
679,-279,25.035,8.02869,0,0,0,0,0,0,0,-1,1903,1303,25.035,-8.02867
686,-279,25.0999,7.70471,0.000366064,0.000494784,0.000222888,0.000662418,0.000198429,0.925952,0.000392558,0.0223502,1910,1303,25.0998,-7.70474
693,-279,25.1008,7.39417,0.000520963,-0.000302751,3.09985e-06,0.000520975,-0.000302763,0.00376318,0.000481116,0.0162038,1917,1303,25.1009,-7.3942
700,-279,25.1002,7.09875,0.000499009,-0.000129416,0.000177523,0.00054569,-0.000176097,0.257135,0.000434553,0.0112195,1924,1303,25.1002,-7.09872
707,-279,25.1057,6.77673,0.000326324,1.23271e-05,0.000499698,0.000693106,-0.000354455,0.633188,0.000615254,0.00852112,1931,1303,25.1057,-6.77675
714,-279,25.082,6.44958,0.000430417,0.000351443,0.000596202,0.000988438,-0.000206578,0.752331,0.000737526,0.00951118,1938,1303,25.082,-6.44956
721,-279,25.0898,6.13977,0.00053059,0.000724216,0.00073771,0.00137144,-0.000116632,0.850643,0.000955545,0.0129708,1945,1303,25.0898,-6.13981
728,-279,25.1113,5.8269,0.000945887,0.00121683,0.000812816,0.00190539,0.000257331,0.867975,0.00119376,0.0152576,1952,1303,25.1113,-5.82691
735,-279,25.0878,5.54211,0.00197939,0.00190213,0.000653183,0.00259508,0.00128643,0.755859,0.00149829,0.0156647,1959,1303,25.0878,-5.54217
742,-279,24.9637,5.25513,0.00423153,0.00296515,0.000104929,0.00424017,0.00295652,0.0821113,0.00251077,0.033312,1966,1303,24.9638,-5.25508
749,-279,24.9756,4.92859,0,0,0,0,0,0,0,-1,1973,1303,24.9756,-4.92864
756,-279,23.2091,4.43433,0,0,0,0,0,0,0,-1,1980,1303,23.2092,-4.43432
763,-279,27.1613,3.46265,0,0,0,0,0,0,0,-1,1987,1303,27.1613,-3.4627
770,-279,21.5828,3.54199,0,0,0,0,0,0,0,-1,1994,1303,21.5827,-3.54198
777,-279,32.5369,6.99609,0,0,0,0,0,0,0,-1,2001,1303,32.5369,-6.99608
784,-279,0,0,0,0,0,0,0,0,0,-1,2008,1303,0,0
791,-279,0,0,0,0,0,0,0,0,0,-1,2015,1303,0,0
798,-279,0,0,0,0,0,0,0,0,0,-1,2022,1303,0,0
805,-279,0,0,0,0,0,0,0,0,0,-1,2029,1303,0,0
812,-279,0,0,0,0,0,0,0,0,0,-1,2036,1303,0,0
-700,-286,0,0,0,0,0,0,0,0,0,-1,524,1310,0,0
-693,-286,0,0,0,0,0,0,0,0,0,-1,531,1310,0,0
-686,-286,0,0,0,0,0,0,0,0,0,-1,538,1310,0,0
-679,-286,0,0,0,0,0,0,0,0,0,-1,545,1310,0,0
-672,-286,0,0,0,0,0,0,0,0,0,-1,552,1310,0,0
-665,-286,0,0,0,0,0,0,0,0,0,-1,559,1310,0,0
-658,-286,-14.1937,-4.05469,0,0,0,0,0,0,0,-1,566,1310,-14.1937,4.05469
-651,-286,-14.2874,-2.479,0,0,0,0,0,0,0,-1,573,1310,-14.2874,2.47905
-644,-286,-14.0515,0.0181885,0,0,0,0,0,0,0,-1,580,1310,-14.0514,-0.018166
-637,-286,-13.5577,2.46802,0,0,0,0,0,0,0,-1,587,1310,-13.5577,-2.46797
-630,-286,-13.1637,5.17957,0,0,0,0,0,0,0,-1,594,1310,-13.1637,-5.17959
-623,-286,-15.0255,-0.132568,0,0,0,0,0,0,0,-1,601,1310,-15.0255,0.13262
-616,-286,-14.6325,0.958984,-0.00161184,-0.000492037,-0.00355427,0.00254617,-0.00465004,-0.863521,0.0042135,0.0473339,608,1310,-14.6325,-0.958937
-609,-286,-14.2565,2.01257,-0.000629343,-0.000543311,-0.00231975,0.00173382,-0.00290648,-0.794669,0.00270745,0.0442459,615,1310,-14.2565,-2.01253
-602,-286,-14.0946,2.96655,-0.000470675,5.83747e-05,-0.00109931,0.000924538,-0.00133684,-0.903468,0.00131282,0.0170921,622,1310,-14.0946,-2.96653
-595,-286,-14.1165,3.40149,-8.41182e-05,0.000374351,-0.000302281,0.000524487,-0.000234254,-1.10981,0.000448615,0.0110612,629,1310,-14.1165,-3.40154
-588,-286,-14.0931,3.77209,0.000497522,0.000548467,0.000325742,0.000849731,0.000196258,0.824417,0.00051372,0.0116182,636,1310,-14.0931,-3.77206
-581,-286,-14.0948,4.11084,0.00128494,0.000648656,0.000862912,0.00188649,4.71083e-05,0.608786,0.00124226,0.0136687,643,1310,-14.0948,-4.11078
-574,-286,-14.1369,4.46594,0.0022038,0.000700875,0.00136748,0.00301269,-0.00010801,0.534158,0.00204541,0.0144048,650,1310,-14.1369,-4.46599
-567,-286,-14.1522,4.83862,0.00309775,0.000817929,0.00194428,0.00421164,-0.000295965,0.52026,0.00291143,0.0142129,657,1310,-14.1521,-4.83861
-560,-286,-14.1456,5.2146,0.00368167,0.00115748,0.00259831,0.00530819,-0.000469039,0.559312,0.00370505,0.0142486,664,1310,-14.1457,-5.21465
-553,-286,-14.122,5.57593,0.00389523,0.00124913,0.00353706,0.00634858,-0.00120422,0.606428,0.00468566,0.0103327,671,1310,-14.122,-5.57588
-546,-286,-14.1299,5.94202,0.00332121,0.00127261,0.00484397,0.00724799,-0.00265417,0.681204,0.00591854,0.0153141,678,1310,-14.1299,-5.94204
-539,-286,-14.1416,6.33716,0.00194085,0.00133896,0.00647847,0.00812536,-0.00484555,0.762188,0.00756814,0.0372781,685,1310,-14.1416,-6.33721
-532,-286,-14.0433,6.74841,0,0,0,0,0,0,0,-1,692,1310,-14.0433,-6.74842
-525,-286,-11.4528,-1.11768,0,0,0,0,0,0,0,-1,699,1310,-11.4528,1.11769
-518,-286,-11.0701,1.37329,0,0,0,0,0,0,0,-1,706,1310,-11.0701,-1.37332
-511,-286,-17.7545,-0.0791016,0,0,0,0,0,0,0,-1,713,1310,-17.7544,0.0791606
-504,-286,-18.0455,1.29602,0,0,0,0,0,0,0,-1,720,1310,-18.0455,-1.29601
-497,-286,-18.3367,2.67114,0,0,0,0,0,0,0,-1,727,1310,-18.3366,-2.67118
-490,-286,-19.5795,2.47266,0,0,0,0,0,0,0,-1,734,1310,-19.5795,-2.4727
-483,-286,-19.7277,2.74744,0,0,0,0,0,0,0,-1,741,1310,-19.7277,-2.74747
-476,-286,-20.0391,3.06177,0,0,0,0,0,0,0,-1,748,1310,-20.0391,-3.06178
-469,-286,0,0,0,0,0,0,0,0,0,-1,755,1310,0,0
-462,-286,0,0,0,0,0,0,0,0,0,-1,762,1310,0,0
-455,-286,0,0,0,0,0,0,0,0,0,-1,769,1310,0,0
-448,-286,0,0,0,0,0,0,0,0,0,-1,776,1310,0,0
-441,-286,0,0,0,0,0,0,0,0,0,-1,783,1310,0,0
-434,-286,0,0,0,0,0,0,0,0,0,-1,790,1310,0,0
-427,-286,0,0,0,0,0,0,0,0,0,-1,797,1310,0,0
-420,-286,0,0,0,0,0,0,0,0,0,-1,804,1310,0,0
-413,-286,0,0,0,0,0,0,0,0,0,-1,811,1310,0,0
-406,-286,0,0,0,0,0,0,0,0,0,-1,818,1310,0,0
-399,-286,0,0,0,0,0,0,0,0,0,-1,825,1310,0,0
-392,-286,0,0,0,0,0,0,0,0,0,-1,832,1310,0,0
-385,-286,0,0,0,0,0,0,0,0,0,-1,839,1310,0,0
-378,-286,0,0,0,0,0,0,0,0,0,-1,846,1310,0,0
-371,-286,0,0,0,0,0,0,0,0,0,-1,853,1310,0,0
-364,-286,0,0,0,0,0,0,0,0,0,-1,860,1310,0,0
-357,-286,0,0,0,0,0,0,0,0,0,-1,867,1310,0,0
-350,-286,0,0,0,0,0,0,0,0,0,-1,874,1310,0,0
-343,-286,0,0,0,0,0,0,0,0,0,-1,881,1310,0,0
-336,-286,0,0,0,0,0,0,0,0,0,-1,888,1310,0,0
-329,-286,0,0,0,0,0,0,0,0,0,-1,895,1310,0,0
-322,-286,0,0,0,0,0,0,0,0,0,-1,902,1310,0,0
-315,-286,0,0,0,0,0,0,0,0,0,-1,909,1310,0,0
-308,-286,0,0,0,0,0,0,0,0,0,-1,916,1310,0,0
-301,-286,0,0,0,0,0,0,0,0,0,-1,923,1310,0,0
-294,-286,0,0,0,0,0,0,0,0,0,-1,930,1310,0,0
-287,-286,0,0,0,0,0,0,0,0,0,-1,937,1310,0,0
-280,-286,0,0,0,0,0,0,0,0,0,-1,944,1310,0,0
-273,-286,0,0,0,0,0,0,0,0,0,-1,951,1310,0,0
-266,-286,0,0,0,0,0,0,0,0,0,-1,958,1310,0,0
-259,-286,0,0,0,0,0,0,0,0,0,-1,965,1310,0,0
-252,-286,0,0,0,0,0,0,0,0,0,-1,972,1310,0,0
-245,-286,0,0,0,0,0,0,0,0,0,-1,979,1310,0,0
-238,-286,0,0,0,0,0,0,0,0,0,-1,986,1310,0,0
-231,-286,0,0,0,0,0,0,0,0,0,-1,993,1310,0,0
-224,-286,0,0,0,0,0,0,0,0,0,-1,1000,1310,0,0
-217,-286,0,0,0,0,0,0,0,0,0,-1,1007,1310,0,0
-210,-286,0,0,0,0,0,0,0,0,0,-1,1014,1310,0,0
-203,-286,0,0,0,0,0,0,0,0,0,-1,1021,1310,0,0
-196,-286,0,0,0,0,0,0,0,0,0,-1,1028,1310,0,0
-189,-286,0,0,0,0,0,0,0,0,0,-1,1035,1310,0,0
-182,-286,0,0,0,0,0,0,0,0,0,-1,1042,1310,0,0
-175,-286,0,0,0,0,0,0,0,0,0,-1,1049,1310,0,0
-168,-286,0,0,0,0,0,0,0,0,0,-1,1056,1310,0,0
-161,-286,0,0,0,0,0,0,0,0,0,-1,1063,1310,0,0
-154,-286,0,0,0,0,0,0,0,0,0,-1,1070,1310,0,0
-147,-286,0,0,0,0,0,0,0,0,0,-1,1077,1310,0,0
-140,-286,0,0,0,0,0,0,0,0,0,-1,1084,1310,0,0
-133,-286,0,0,0,0,0,0,0,0,0,-1,1091,1310,0,0
-126,-286,0,0,0,0,0,0,0,0,0,-1,1098,1310,0,0
-119,-286,0,0,0,0,0,0,0,0,0,-1,1105,1310,0,0
-112,-286,0,0,0,0,0,0,0,0,0,-1,1112,1310,0,0
-105,-286,0,0,0,0,0,0,0,0,0,-1,1119,1310,0,0
-98,-286,0,0,0,0,0,0,0,0,0,-1,1126,1310,0,0
-91,-286,0,0,0,0,0,0,0,0,0,-1,1133,1310,0,0
-84,-286,0,0,0,0,0,0,0,0,0,-1,1140,1310,0,0
-77,-286,0,0,0,0,0,0,0,0,0,-1,1147,1310,0,0
-70,-286,0,0,0,0,0,0,0,0,0,-1,1154,1310,0,0
-63,-286,0,0,0,0,0,0,0,0,0,-1,1161,1310,0,0
-56,-286,0,0,0,0,0,0,0,0,0,-1,1168,1310,0,0
-49,-286,0,0,0,0,0,0,0,0,0,-1,1175,1310,0,0
-42,-286,0,0,0,0,0,0,0,0,0,-1,1182,1310,0,0
-35,-286,0,0,0,0,0,0,0,0,0,-1,1189,1310,0,0
-28,-286,0,0,0,0,0,0,0,0,0,-1,1196,1310,0,0
-21,-286,0,0,0,0,0,0,0,0,0,-1,1203,1310,0,0
-14,-286,0,0,0,0,0,0,0,0,0,-1,1210,1310,0,0
-7,-286,0,0,0,0,0,0,0,0,0,-1,1217,1310,0,0
0,-286,0,0,0,0,0,0,0,0,0,-1,1224,1310,0,0
7,-286,0,0,0,0,0,0,0,0,0,-1,1231,1310,0,0
14,-286,0,0,0,0,0,0,0,0,0,-1,1238,1310,0,0
21,-286,0,0,0,0,0,0,0,0,0,-1,1245,1310,0,0
28,-286,0,0,0,0,0,0,0,0,0,-1,1252,1310,0,0
35,-286,0,0,0,0,0,0,0,0,0,-1,1259,1310,0,0
42,-286,0,0,0,0,0,0,0,0,0,-1,1266,1310,0,0
49,-286,0,0,0,0,0,0,0,0,0,-1,1273,1310,0,0
56,-286,0,0,0,0,0,0,0,0,0,-1,1280,1310,0,0
63,-286,0,0,0,0,0,0,0,0,0,-1,1287,1310,0,0
70,-286,0,0,0,0,0,0,0,0,0,-1,1294,1310,0,0
77,-286,0,0,0,0,0,0,0,0,0,-1,1301,1310,0,0
84,-286,0,0,0,0,0,0,0,0,0,-1,1308,1310,0,0
91,-286,0,0,0,0,0,0,0,0,0,-1,1315,1310,0,0
98,-286,0,0,0,0,0,0,0,0,0,-1,1322,1310,0,0
105,-286,0,0,0,0,0,0,0,0,0,-1,1329,1310,0,0
112,-286,0,0,0,0,0,0,0,0,0,-1,1336,1310,0,0
119,-286,0,0,0,0,0,0,0,0,0,-1,1343,1310,0,0
126,-286,0,0,0,0,0,0,0,0,0,-1,1350,1310,0,0
133,-286,0,0,0,0,0,0,0,0,0,-1,1357,1310,0,0
140,-286,0,0,0,0,0,0,0,0,0,-1,1364,1310,0,0
147,-286,0,0,0,0,0,0,0,0,0,-1,1371,1310,0,0
154,-286,0,0,0,0,0,0,0,0,0,-1,1378,1310,0,0
161,-286,0,0,0,0,0,0,0,0,0,-1,1385,1310,0,0
168,-286,0,0,0,0,0,0,0,0,0,-1,1392,1310,0,0
175,-286,0,0,0,0,0,0,0,0,0,-1,1399,1310,0,0
182,-286,0,0,0,0,0,0,0,0,0,-1,1406,1310,0,0
189,-286,0,0,0,0,0,0,0,0,0,-1,1413,1310,0,0
196,-286,0,0,0,0,0,0,0,0,0,-1,1420,1310,0,0
203,-286,0,0,0,0,0,0,0,0,0,-1,1427,1310,0,0
210,-286,0,0,0,0,0,0,0,0,0,-1,1434,1310,0,0
217,-286,0,0,0,0,0,0,0,0,0,-1,1441,1310,0,0
224,-286,0,0,0,0,0,0,0,0,0,-1,1448,1310,0,0
231,-286,0,0,0,0,0,0,0,0,0,-1,1455,1310,0,0
238,-286,0,0,0,0,0,0,0,0,0,-1,1462,1310,0,0
245,-286,0,0,0,0,0,0,0,0,0,-1,1469,1310,0,0
252,-286,0,0,0,0,0,0,0,0,0,-1,1476,1310,0,0
259,-286,0,0,0,0,0,0,0,0,0,-1,1483,1310,0,0
266,-286,0,0,0,0,0,0,0,0,0,-1,1490,1310,0,0
273,-286,0,0,0,0,0,0,0,0,0,-1,1497,1310,0,0
280,-286,0,0,0,0,0,0,0,0,0,-1,1504,1310,0,0
287,-286,0,0,0,0,0,0,0,0,0,-1,1511,1310,0,0
294,-286,0,0,0,0,0,0,0,0,0,-1,1518,1310,0,0
301,-286,0,0,0,0,0,0,0,0,0,-1,1525,1310,0,0
308,-286,0,0,0,0,0,0,0,0,0,-1,1532,1310,0,0
315,-286,0,0,0,0,0,0,0,0,0,-1,1539,1310,0,0
322,-286,0,0,0,0,0,0,0,0,0,-1,1546,1310,0,0
329,-286,0,0,0,0,0,0,0,0,0,-1,1553,1310,0,0
336,-286,0,0,0,0,0,0,0,0,0,-1,1560,1310,0,0
343,-286,0,0,0,0,0,0,0,0,0,-1,1567,1310,0,0
350,-286,0,0,0,0,0,0,0,0,0,-1,1574,1310,0,0
357,-286,0,0,0,0,0,0,0,0,0,-1,1581,1310,0,0
364,-286,0,0,0,0,0,0,0,0,0,-1,1588,1310,0,0
371,-286,0,0,0,0,0,0,0,0,0,-1,1595,1310,0,0
378,-286,0,0,0,0,0,0,0,0,0,-1,1602,1310,0,0
385,-286,0,0,0,0,0,0,0,0,0,-1,1609,1310,0,0
392,-286,0,0,0,0,0,0,0,0,0,-1,1616,1310,0,0
399,-286,0,0,0,0,0,0,0,0,0,-1,1623,1310,0,0
406,-286,0,0,0,0,0,0,0,0,0,-1,1630,1310,0,0
413,-286,0,0,0,0,0,0,0,0,0,-1,1637,1310,0,0
420,-286,0,0,0,0,0,0,0,0,0,-1,1644,1310,0,0
427,-286,0,0,0,0,0,0,0,0,0,-1,1651,1310,0,0
434,-286,0,0,0,0,0,0,0,0,0,-1,1658,1310,0,0
441,-286,0,0,0,0,0,0,0,0,0,-1,1665,1310,0,0
448,-286,0,0,0,0,0,0,0,0,0,-1,1672,1310,0,0
455,-286,0,0,0,0,0,0,0,0,0,-1,1679,1310,0,0
462,-286,0,0,0,0,0,0,0,0,0,-1,1686,1310,0,0
469,-286,0,0,0,0,0,0,0,0,0,-1,1693,1310,0,0
476,-286,0,0,0,0,0,0,0,0,0,-1,1700,1310,0,0
483,-286,0,0,0,0,0,0,0,0,0,-1,1707,1310,0,0
490,-286,0,0,0,0,0,0,0,0,0,-1,1714,1310,0,0
497,-286,0,0,0,0,0,0,0,0,0,-1,1721,1310,0,0
504,-286,0,0,0,0,0,0,0,0,0,-1,1728,1310,0,0
511,-286,0,0,0,0,0,0,0,0,0,-1,1735,1310,0,0
518,-286,0,0,0,0,0,0,0,0,0,-1,1742,1310,0,0
525,-286,0,0,0,0,0,0,0,0,0,-1,1749,1310,0,0
532,-286,0,0,0,0,0,0,0,0,0,-1,1756,1310,0,0
539,-286,0,0,0,0,0,0,0,0,0,-1,1763,1310,0,0
546,-286,0,0,0,0,0,0,0,0,0,-1,1770,1310,0,0
553,-286,0,0,0,0,0,0,0,0,0,-1,1777,1310,0,0
560,-286,0,0,0,0,0,0,0,0,0,-1,1784,1310,0,0
567,-286,0,0,0,0,0,0,0,0,0,-1,1791,1310,0,0
574,-286,0,0,0,0,0,0,0,0,0,-1,1798,1310,0,0
581,-286,0,0,0,0,0,0,0,0,0,-1,1805,1310,0,0
588,-286,0,0,0,0,0,0,0,0,0,-1,1812,1310,0,0
595,-286,33.9714,2.71802,-0.036574,0.0105585,-0.0330817,0.0276095,-0.0536251,-1.09489,0.0476958,0.0395581,1819,1310,33.9714,-2.71801
602,-286,33.9545,2.47705,-0.0333212,0.0103551,-0.0323855,0.0275775,-0.0505436,-1.08204,0.0457483,0.0444658,1826,1310,33.9544,-2.47706
609,-286,33.6285,1.96106,-0.0290283,0.0106007,-0.0309828,0.0275632,-0.0459908,-1.06989,0.0429084,0.0445974,1833,1310,33.6285,-1.96102
616,-286,33.3268,1.54492,-0.0232124,0.0109165,-0.0270666,0.0258489,-0.0381448,-1.06666,0.0371734,0.0450956,1840,1310,33.3267,-1.54495
623,-286,34.7216,1.54956,-0.0174135,0.0108442,-0.0219932,0.0228558,-0.0294252,-1.07091,0.0302638,0.0462675,1847,1310,34.7215,-1.54959
630,-286,34.7743,1.46167,-0.0123287,0.0104883,-0.0173091,0.0198104,-0.0216509,-1.07677,0.0239456,0.0473294,1854,1310,34.7743,-1.46165
637,-286,34.9902,1.36365,0,0,0,0,0,0,0,-1,1861,1310,34.9902,-1.36367
644,-286,25.6433,1.33862,0,0,0,0,0,0,0,-1,1868,1310,25.6433,-1.33858
651,-286,25.2507,1.88245,0,0,0,0,0,0,0,-1,1875,1310,25.2508,-1.88245
658,-286,25.9475,9.43689,0,0,0,0,0,0,0,-1,1882,1310,25.9475,-9.43693
665,-286,24.9838,8.03101,0,0,0,0,0,0,0,-1,1889,1310,24.9837,-8.03104
672,-286,24.9663,8.30591,0,0,0,0,0,0,0,-1,1896,1310,24.9663,-8.30585
679,-286,24.7126,8.10217,4.16046e-06,0.00238814,-0.000514579,0.00249447,-0.000102168,-1.36703,0.00169806,0.034742,1903,1310,24.7126,-8.10216
686,-286,24.7734,7.72266,0.000148237,0.000286835,0.000272857,0.000499056,-6.39838e-05,0.909757,0.000355954,0.022592,1910,1310,24.7734,-7.72268
693,-286,24.7623,7.40674,0.000279134,-0.000346651,3.57221e-05,0.000281167,-0.000348683,0.0568375,0.00036434,0.0167625,1917,1310,24.7624,-7.40668
700,-286,24.7745,7.08838,0.000221994,-0.000137654,0.00020702,0.000316385,-0.000232045,0.427793,0.000317882,0.0115598,1924,1310,24.7745,-7.08837
707,-286,24.7943,6.79211,6.02204e-05,5.50073e-05,0.000521099,0.00057872,-0.000463492,0.782897,0.000602946,0.00838105,1931,1310,24.7943,-6.79215
714,-286,24.7744,6.48389,0.00012565,0.000352388,0.000661073,0.000909743,-0.000431704,0.870318,0.000790707,0.00818228,1938,1310,24.7744,-6.48383
721,-286,24.7731,6.16284,0.000102431,0.000674818,0.000881072,0.00131501,-0.000537764,0.942434,0.00110063,0.0107369,1945,1310,24.773,-6.16284
728,-286,24.7792,5.83582,0.000307791,0.0011085,0.00105874,0.00184005,-0.000423758,0.96616,0.00138966,0.0146171,1952,1310,24.7792,-5.83583
735,-286,24.7968,5.49988,0.00106687,0.00174821,0.00100638,0.00247002,0.000345064,0.948601,0.00154456,0.0192817,1959,1310,24.7968,-5.49987
742,-286,24.799,5.19165,0.00295919,0.00276426,0.000627801,0.00349704,0.0022264,0.708387,0.002044,0.0426195,1966,1310,24.799,-5.19168
749,-286,25.001,4.84106,0,0,0,0,0,0,0,-1,1973,1310,25.001,-4.8411
756,-286,24.8226,4.43481,0,0,0,0,0,0,0,-1,1980,1310,24.8227,-4.43479
763,-286,20.6671,3.99683,0,0,0,0,0,0,0,-1,1987,1310,20.6671,-3.99683
770,-286,23.9147,4.45679,0,0,0,0,0,0,0,-1,1994,1310,23.9146,-4.45675
777,-286,0,0,0,0,0,0,0,0,0,-1,2001,1310,0,0
784,-286,0,0,0,0,0,0,0,0,0,-1,2008,1310,0,0
791,-286,0,0,0,0,0,0,0,0,0,-1,2015,1310,0,0
798,-286,0,0,0,0,0,0,0,0,0,-1,2022,1310,0,0
805,-286,0,0,0,0,0,0,0,0,0,-1,2029,1310,0,0
812,-286,0,0,0,0,0,0,0,0,0,-1,2036,1310,0,0
-700,-293,0,0,0,0,0,0,0,0,0,-1,524,1317,0,0
-693,-293,0,0,0,0,0,0,0,0,0,-1,531,1317,0,0
-686,-293,0,0,0,0,0,0,0,0,0,-1,538,1317,0,0
-679,-293,0,0,0,0,0,0,0,0,0,-1,545,1317,0,0
-672,-293,0,0,0,0,0,0,0,0,0,-1,552,1317,0,0
-665,-293,0,0,0,0,0,0,0,0,0,-1,559,1317,0,0
-658,-293,0,0,0,0,0,0,0,0,0,-1,566,1317,0,0
-651,-293,-13.5461,-3.19849,0,0,0,0,0,0,0,-1,573,1317,-13.5461,3.19844
-644,-293,-13.1549,-0.612427,0,0,0,0,0,0,0,-1,580,1317,-13.1549,0.612477
-637,-293,-12.0031,1.33484,0,0,0,0,0,0,0,-1,587,1317,-12.0031,-1.33488
-630,-293,-10.762,3.84583,0,0,0,0,0,0,0,-1,594,1317,-10.762,-3.84577
-623,-293,-12.8199,1.33252,0,0,0,0,0,0,0,-1,601,1317,-12.8199,-1.33253
-616,-293,-13.0944,1.86121,-0.000557456,-0.00543589,-0.00481939,0.00240483,-0.00839818,-0.55113,0.00654926,0.044662,608,1317,-13.0944,-1.86125
-609,-293,-13.3889,2.38721,-0.000584103,-0.00280841,-0.00255949,0.00109442,-0.00448694,-0.580445,0.00341506,0.0429127,615,1317,-13.3889,-2.38721
-602,-293,-13.6465,2.8479,-0.00050867,-0.00131432,-0.00115441,0.000311179,-0.00213417,-0.617532,0.00153704,0.037571,622,1317,-13.6465,-2.84793
-595,-293,-13.782,3.38892,-0.000223121,-0.000436572,-0.000341795,2.82242e-05,-0.000687917,-0.63407,0.000468303,0.0166821,629,1317,-13.782,-3.38895
-588,-293,-13.7417,3.76831,0.000228383,4.04491e-05,0.000216175,0.000370131,-0.000101299,0.580378,0.000286552,0.0152215,636,1317,-13.7417,-3.76828
-581,-293,-13.7436,4.1217,0.000876009,0.000349215,0.000672026,0.00133441,-0.000109189,0.598627,0.000928148,0.0173826,643,1317,-13.7436,-4.12168
-574,-293,-13.7674,4.48474,0.00164436,0.0005092,0.00104756,0.00226821,-0.000114656,0.53713,0.00155177,0.0159452,650,1317,-13.7674,-4.48474
-567,-293,-13.7973,4.87439,0.0024665,0.000578975,0.00145054,0.00325327,-0.000207797,0.49699,0.00224132,0.0158415,657,1317,-13.7973,-4.87441
-560,-293,-13.8015,5.24829,0.00318857,0.000844257,0.00193449,0.00427832,-0.00024549,0.513016,0.00293746,0.0168153,664,1317,-13.8015,-5.24831
-553,-293,-13.7633,5.59961,0.00382858,0.000899089,0.00251296,0.00527251,-0.00054485,0.521532,0.00370999,0.0114763,671,1317,-13.7633,-5.5996
-546,-293,-13.7675,5.95947,0.00406618,0.00104615,0.00342841,0.00630238,-0.00119005,0.57796,0.00464932,0.0108664,678,1317,-13.7675,-5.95948
-539,-293,-13.7632,6.32581,0.00383361,0.00130429,0.00472119,0.00745659,-0.00231869,0.654536,0.00589789,0.0295938,685,1317,-13.7632,-6.32582
-532,-293,-13.7264,6.64246,0,0,0,0,0,0,0,-1,692,1317,-13.7264,-6.64248
-525,-293,-8.20642,3.62256,0,0,0,0,0,0,0,-1,699,1317,-8.20639,-3.6226
-518,-293,-10.1053,0.314209,0,0,0,0,0,0,0,-1,706,1317,-10.1053,-0.314234
-511,-293,-11.6276,0.235352,0,0,0,0,0,0,0,-1,713,1317,-11.6276,-0.235372
-504,-293,-17.9086,1.25427,0,0,0,0,0,0,0,-1,720,1317,-17.9086,-1.25423
-497,-293,-18.8006,1.62122,0,0,0,0,0,0,0,-1,727,1317,-18.8006,-1.62119
-490,-293,-18.8961,1.99255,0,0,0,0,0,0,0,-1,734,1317,-18.8961,-1.99251
-483,-293,-19.0831,2.35498,0,0,0,0,0,0,0,-1,741,1317,-19.0831,-2.35497
-476,-293,-19.5228,2.61243,0,0,0,0,0,0,0,-1,748,1317,-19.5228,-2.61237
-469,-293,0,0,0,0,0,0,0,0,0,-1,755,1317,0,0
-462,-293,0,0,0,0,0,0,0,0,0,-1,762,1317,0,0
-455,-293,0,0,0,0,0,0,0,0,0,-1,769,1317,0,0
-448,-293,0,0,0,0,0,0,0,0,0,-1,776,1317,0,0
-441,-293,0,0,0,0,0,0,0,0,0,-1,783,1317,0,0
-434,-293,0,0,0,0,0,0,0,0,0,-1,790,1317,0,0
-427,-293,0,0,0,0,0,0,0,0,0,-1,797,1317,0,0
-420,-293,0,0,0,0,0,0,0,0,0,-1,804,1317,0,0
-413,-293,0,0,0,0,0,0,0,0,0,-1,811,1317,0,0
-406,-293,0,0,0,0,0,0,0,0,0,-1,818,1317,0,0
-399,-293,0,0,0,0,0,0,0,0,0,-1,825,1317,0,0
-392,-293,0,0,0,0,0,0,0,0,0,-1,832,1317,0,0
-385,-293,0,0,0,0,0,0,0,0,0,-1,839,1317,0,0
-378,-293,0,0,0,0,0,0,0,0,0,-1,846,1317,0,0
-371,-293,0,0,0,0,0,0,0,0,0,-1,853,1317,0,0
-364,-293,0,0,0,0,0,0,0,0,0,-1,860,1317,0,0
-357,-293,0,0,0,0,0,0,0,0,0,-1,867,1317,0,0
-350,-293,0,0,0,0,0,0,0,0,0,-1,874,1317,0,0
-343,-293,0,0,0,0,0,0,0,0,0,-1,881,1317,0,0
-336,-293,0,0,0,0,0,0,0,0,0,-1,888,1317,0,0
-329,-293,0,0,0,0,0,0,0,0,0,-1,895,1317,0,0
-322,-293,0,0,0,0,0,0,0,0,0,-1,902,1317,0,0
-315,-293,0,0,0,0,0,0,0,0,0,-1,909,1317,0,0
-308,-293,0,0,0,0,0,0,0,0,0,-1,916,1317,0,0
-301,-293,0,0,0,0,0,0,0,0,0,-1,923,1317,0,0
-294,-293,0,0,0,0,0,0,0,0,0,-1,930,1317,0,0
-287,-293,0,0,0,0,0,0,0,0,0,-1,937,1317,0,0
-280,-293,0,0,0,0,0,0,0,0,0,-1,944,1317,0,0
-273,-293,0,0,0,0,0,0,0,0,0,-1,951,1317,0,0
-266,-293,0,0,0,0,0,0,0,0,0,-1,958,1317,0,0
-259,-293,0,0,0,0,0,0,0,0,0,-1,965,1317,0,0
-252,-293,0,0,0,0,0,0,0,0,0,-1,972,1317,0,0
-245,-293,0,0,0,0,0,0,0,0,0,-1,979,1317,0,0
-238,-293,0,0,0,0,0,0,0,0,0,-1,986,1317,0,0
-231,-293,0,0,0,0,0,0,0,0,0,-1,993,1317,0,0
-224,-293,0,0,0,0,0,0,0,0,0,-1,1000,1317,0,0
-217,-293,0,0,0,0,0,0,0,0,0,-1,1007,1317,0,0
-210,-293,0,0,0,0,0,0,0,0,0,-1,1014,1317,0,0
-203,-293,0,0,0,0,0,0,0,0,0,-1,1021,1317,0,0
-196,-293,0,0,0,0,0,0,0,0,0,-1,1028,1317,0,0
-189,-293,0,0,0,0,0,0,0,0,0,-1,1035,1317,0,0
-182,-293,0,0,0,0,0,0,0,0,0,-1,1042,1317,0,0
-175,-293,0,0,0,0,0,0,0,0,0,-1,1049,1317,0,0
-168,-293,0,0,0,0,0,0,0,0,0,-1,1056,1317,0,0
-161,-293,0,0,0,0,0,0,0,0,0,-1,1063,1317,0,0
-154,-293,0,0,0,0,0,0,0,0,0,-1,1070,1317,0,0
-147,-293,0,0,0,0,0,0,0,0,0,-1,1077,1317,0,0
-140,-293,0,0,0,0,0,0,0,0,0,-1,1084,1317,0,0
-133,-293,0,0,0,0,0,0,0,0,0,-1,1091,1317,0,0
-126,-293,0,0,0,0,0,0,0,0,0,-1,1098,1317,0,0
-119,-293,0,0,0,0,0,0,0,0,0,-1,1105,1317,0,0
-112,-293,0,0,0,0,0,0,0,0,0,-1,1112,1317,0,0
-105,-293,0,0,0,0,0,0,0,0,0,-1,1119,1317,0,0
-98,-293,0,0,0,0,0,0,0,0,0,-1,1126,1317,0,0
-91,-293,0,0,0,0,0,0,0,0,0,-1,1133,1317,0,0
-84,-293,0,0,0,0,0,0,0,0,0,-1,1140,1317,0,0
-77,-293,0,0,0,0,0,0,0,0,0,-1,1147,1317,0,0
-70,-293,0,0,0,0,0,0,0,0,0,-1,1154,1317,0,0
-63,-293,0,0,0,0,0,0,0,0,0,-1,1161,1317,0,0
-56,-293,0,0,0,0,0,0,0,0,0,-1,1168,1317,0,0
-49,-293,0,0,0,0,0,0,0,0,0,-1,1175,1317,0,0
-42,-293,0,0,0,0,0,0,0,0,0,-1,1182,1317,0,0
-35,-293,0,0,0,0,0,0,0,0,0,-1,1189,1317,0,0
-28,-293,0,0,0,0,0,0,0,0,0,-1,1196,1317,0,0
-21,-293,0,0,0,0,0,0,0,0,0,-1,1203,1317,0,0
-14,-293,0,0,0,0,0,0,0,0,0,-1,1210,1317,0,0
-7,-293,0,0,0,0,0,0,0,0,0,-1,1217,1317,0,0
0,-293,0,0,0,0,0,0,0,0,0,-1,1224,1317,0,0
7,-293,0,0,0,0,0,0,0,0,0,-1,1231,1317,0,0
14,-293,0,0,0,0,0,0,0,0,0,-1,1238,1317,0,0
21,-293,0,0,0,0,0,0,0,0,0,-1,1245,1317,0,0
28,-293,0,0,0,0,0,0,0,0,0,-1,1252,1317,0,0
35,-293,0,0,0,0,0,0,0,0,0,-1,1259,1317,0,0
42,-293,0,0,0,0,0,0,0,0,0,-1,1266,1317,0,0
49,-293,0,0,0,0,0,0,0,0,0,-1,1273,1317,0,0
56,-293,0,0,0,0,0,0,0,0,0,-1,1280,1317,0,0
63,-293,0,0,0,0,0,0,0,0,0,-1,1287,1317,0,0
70,-293,0,0,0,0,0,0,0,0,0,-1,1294,1317,0,0
77,-293,0,0,0,0,0,0,0,0,0,-1,1301,1317,0,0
84,-293,0,0,0,0,0,0,0,0,0,-1,1308,1317,0,0
91,-293,0,0,0,0,0,0,0,0,0,-1,1315,1317,0,0
98,-293,0,0,0,0,0,0,0,0,0,-1,1322,1317,0,0
105,-293,0,0,0,0,0,0,0,0,0,-1,1329,1317,0,0
112,-293,0,0,0,0,0,0,0,0,0,-1,1336,1317,0,0
119,-293,0,0,0,0,0,0,0,0,0,-1,1343,1317,0,0
126,-293,0,0,0,0,0,0,0,0,0,-1,1350,1317,0,0
133,-293,0,0,0,0,0,0,0,0,0,-1,1357,1317,0,0
140,-293,0,0,0,0,0,0,0,0,0,-1,1364,1317,0,0
147,-293,0,0,0,0,0,0,0,0,0,-1,1371,1317,0,0
154,-293,0,0,0,0,0,0,0,0,0,-1,1378,1317,0,0
161,-293,0,0,0,0,0,0,0,0,0,-1,1385,1317,0,0
168,-293,0,0,0,0,0,0,0,0,0,-1,1392,1317,0,0
175,-293,0,0,0,0,0,0,0,0,0,-1,1399,1317,0,0
182,-293,0,0,0,0,0,0,0,0,0,-1,1406,1317,0,0
189,-293,0,0,0,0,0,0,0,0,0,-1,1413,1317,0,0
196,-293,0,0,0,0,0,0,0,0,0,-1,1420,1317,0,0
203,-293,0,0,0,0,0,0,0,0,0,-1,1427,1317,0,0
210,-293,0,0,0,0,0,0,0,0,0,-1,1434,1317,0,0
217,-293,0,0,0,0,0,0,0,0,0,-1,1441,1317,0,0
224,-293,0,0,0,0,0,0,0,0,0,-1,1448,1317,0,0
231,-293,0,0,0,0,0,0,0,0,0,-1,1455,1317,0,0
238,-293,0,0,0,0,0,0,0,0,0,-1,1462,1317,0,0
245,-293,0,0,0,0,0,0,0,0,0,-1,1469,1317,0,0
252,-293,0,0,0,0,0,0,0,0,0,-1,1476,1317,0,0
259,-293,0,0,0,0,0,0,0,0,0,-1,1483,1317,0,0
266,-293,0,0,0,0,0,0,0,0,0,-1,1490,1317,0,0
273,-293,0,0,0,0,0,0,0,0,0,-1,1497,1317,0,0
280,-293,0,0,0,0,0,0,0,0,0,-1,1504,1317,0,0
287,-293,0,0,0,0,0,0,0,0,0,-1,1511,1317,0,0
294,-293,0,0,0,0,0,0,0,0,0,-1,1518,1317,0,0
301,-293,0,0,0,0,0,0,0,0,0,-1,1525,1317,0,0
308,-293,0,0,0,0,0,0,0,0,0,-1,1532,1317,0,0
315,-293,0,0,0,0,0,0,0,0,0,-1,1539,1317,0,0
322,-293,0,0,0,0,0,0,0,0,0,-1,1546,1317,0,0
329,-293,0,0,0,0,0,0,0,0,0,-1,1553,1317,0,0
336,-293,0,0,0,0,0,0,0,0,0,-1,1560,1317,0,0
343,-293,0,0,0,0,0,0,0,0,0,-1,1567,1317,0,0
350,-293,0,0,0,0,0,0,0,0,0,-1,1574,1317,0,0
357,-293,0,0,0,0,0,0,0,0,0,-1,1581,1317,0,0
364,-293,0,0,0,0,0,0,0,0,0,-1,1588,1317,0,0
371,-293,0,0,0,0,0,0,0,0,0,-1,1595,1317,0,0
378,-293,0,0,0,0,0,0,0,0,0,-1,1602,1317,0,0
385,-293,0,0,0,0,0,0,0,0,0,-1,1609,1317,0,0
392,-293,0,0,0,0,0,0,0,0,0,-1,1616,1317,0,0
399,-293,0,0,0,0,0,0,0,0,0,-1,1623,1317,0,0
406,-293,0,0,0,0,0,0,0,0,0,-1,1630,1317,0,0
413,-293,0,0,0,0,0,0,0,0,0,-1,1637,1317,0,0
420,-293,0,0,0,0,0,0,0,0,0,-1,1644,1317,0,0
427,-293,0,0,0,0,0,0,0,0,0,-1,1651,1317,0,0
434,-293,0,0,0,0,0,0,0,0,0,-1,1658,1317,0,0
441,-293,0,0,0,0,0,0,0,0,0,-1,1665,1317,0,0
448,-293,0,0,0,0,0,0,0,0,0,-1,1672,1317,0,0
455,-293,0,0,0,0,0,0,0,0,0,-1,1679,1317,0,0
462,-293,0,0,0,0,0,0,0,0,0,-1,1686,1317,0,0
469,-293,0,0,0,0,0,0,0,0,0,-1,1693,1317,0,0
476,-293,0,0,0,0,0,0,0,0,0,-1,1700,1317,0,0
483,-293,0,0,0,0,0,0,0,0,0,-1,1707,1317,0,0
490,-293,0,0,0,0,0,0,0,0,0,-1,1714,1317,0,0
497,-293,0,0,0,0,0,0,0,0,0,-1,1721,1317,0,0
504,-293,0,0,0,0,0,0,0,0,0,-1,1728,1317,0,0
511,-293,0,0,0,0,0,0,0,0,0,-1,1735,1317,0,0
518,-293,0,0,0,0,0,0,0,0,0,-1,1742,1317,0,0
525,-293,0,0,0,0,0,0,0,0,0,-1,1749,1317,0,0
532,-293,0,0,0,0,0,0,0,0,0,-1,1756,1317,0,0
539,-293,0,0,0,0,0,0,0,0,0,-1,1763,1317,0,0
546,-293,0,0,0,0,0,0,0,0,0,-1,1770,1317,0,0
553,-293,0,0,0,0,0,0,0,0,0,-1,1777,1317,0,0
560,-293,0,0,0,0,0,0,0,0,0,-1,1784,1317,0,0
567,-293,0,0,0,0,0,0,0,0,0,-1,1791,1317,0,0
574,-293,0,0,0,0,0,0,0,0,0,-1,1798,1317,0,0
581,-293,0,0,0,0,0,0,0,0,0,-1,1805,1317,0,0
588,-293,0,0,0,0,0,0,0,0,0,-1,1812,1317,0,0
595,-293,33.9958,2.58813,0,0,0,0,0,0,0,-1,1819,1317,33.9958,-2.58808
602,-293,33.9965,2.69507,0,0,0,0,0,0,0,-1,1826,1317,33.9964,-2.69511
609,-293,33.6382,2.01807,-0.0371016,0.00802654,-0.0364644,0.0283436,-0.0574186,-1.06246,0.0504544,0.046456,1833,1317,33.6382,-2.01801
616,-293,33.1906,1.29285,-0.0297879,0.00811704,-0.0307821,0.0253134,-0.0469842,-1.06134,0.0423614,0.0451094,1840,1317,33.1905,-1.29285
623,-293,34.8262,1.35815,0,0,0,0,0,0,0,-1,1847,1317,34.8262,-1.35812
630,-293,34.9622,1.43494,0,0,0,0,0,0,0,-1,1854,1317,34.9622,-1.4349
637,-293,30.8379,3.60046,0,0,0,0,0,0,0,-1,1861,1317,30.8379,-3.60043
644,-293,24.4565,0.520752,0,0,0,0,0,0,0,-1,1868,1317,24.4566,-0.520709
651,-293,25.8926,9.51245,0,0,0,0,0,0,0,-1,1875,1317,25.8926,-9.51246
658,-293,25.4904,9.10205,0,0,0,0,0,0,0,-1,1882,1317,25.4904,-9.10209
665,-293,24.6963,8.59998,0,0,0,0,0,0,0,-1,1889,1317,24.6962,-8.59997
672,-293,24.5297,8.41138,0.00124232,0.00463974,-0.00159973,0.00527442,0.000607633,-1.1931,0.00333226,0.0246296,1896,1317,24.5297,-8.41135
679,-293,24.4801,8.06128,-7.76606e-05,0.00199829,-0.000386069,0.00206776,-0.000147134,-1.39275,0.00143008,0.0146495,1903,1317,24.4801,-8.06132
686,-293,24.4839,7.72437,2.57209e-05,0.000139505,0.000354981,0.000442124,-0.000276898,0.864857,0.000418765,0.0174263,1910,1317,24.4839,-7.72435
693,-293,24.4684,7.40662,0.000114269,-0.000324532,0.000147155,0.000159048,-0.000369312,0.295401,0.000312997,0.0131009,1917,1317,24.4684,-7.4066
700,-293,24.4608,7.08362,1.83688e-05,-0.000136505,0.000315129,0.000265436,-0.000383572,0.66492,0.000376769,0.0113852,1924,1317,24.4608,-7.08365
707,-293,24.4746,6.78259,-0.000148164,3.0021e-05,0.000616958,0.000564286,-0.000682429,0.857106,0.000720868,0.0111815,1931,1317,24.4746,-6.78258
714,-293,24.465,6.47888,-0.000156377,0.000261006,0.000800063,0.000879148,-0.000774518,0.912977,0.000955381,0.00733245,1938,1317,24.4649,-6.47885
721,-293,24.4664,6.15662,-0.000317538,0.000516976,0.00108749,0.00126451,-0.00106508,0.968581,0.00134663,0.00875253,1945,1317,24.4664,-6.15667
728,-293,24.4601,5.81494,-0.000345136,0.000883857,0.00134647,0.00174942,-0.0012107,0.999471,0.00171843,0.0121665,1952,1317,24.4601,-5.81497
735,-293,24.4718,5.46729,0.000100837,0.00148463,0.00137155,0.00232892,-0.000743453,1.019,0.00185089,0.021889,1959,1317,24.4718,-5.46726
742,-293,24.4778,5.16931,0.00151458,0.00245079,0.00114859,0.003223,0.000742369,0.978895,0.00194892,0.044984,1966,1317,24.4778,-5.16934
749,-293,25.009,4.79639,0,0,0,0,0,0,0,-1,1973,1317,25.0091,-4.79643
756,-293,24.978,3.9718,0,0,0,0,0,0,0,-1,1980,1317,24.978,-3.97186
763,-293,26.6713,4.74097,0,0,0,0,0,0,0,-1,1987,1317,26.6713,-4.74098
770,-293,24.1349,4.69153,0,0,0,0,0,0,0,-1,1994,1317,24.1348,-4.69159
777,-293,0,0,0,0,0,0,0,0,0,-1,2001,1317,0,0
784,-293,0,0,0,0,0,0,0,0,0,-1,2008,1317,0,0
791,-293,0,0,0,0,0,0,0,0,0,-1,2015,1317,0,0
798,-293,0,0,0,0,0,0,0,0,0,-1,2022,1317,0,0
805,-293,0,0,0,0,0,0,0,0,0,-1,2029,1317,0,0
812,-293,0,0,0,0,0,0,0,0,0,-1,2036,1317,0,0
-700,-300,0,0,0,0,0,0,0,0,0,-1,524,1324,0,0
-693,-300,0,0,0,0,0,0,0,0,0,-1,531,1324,0,0
-686,-300,0,0,0,0,0,0,0,0,0,-1,538,1324,0,0
-679,-300,0,0,0,0,0,0,0,0,0,-1,545,1324,0,0
-672,-300,0,0,0,0,0,0,0,0,0,-1,552,1324,0,0
-665,-300,0,0,0,0,0,0,0,0,0,-1,559,1324,0,0
-658,-300,0,0,0,0,0,0,0,0,0,-1,566,1324,0,0
-651,-300,-12.8325,-3.73962,0,0,0,0,0,0,0,-1,573,1324,-12.8325,3.73965
-644,-300,-12.8171,-1.46387,0,0,0,0,0,0,0,-1,580,1324,-12.8171,1.46384
-637,-300,-12.7684,0.752197,0,0,0,0,0,0,0,-1,587,1324,-12.7684,-0.75222
-630,-300,-14.537,-1.28357,0,0,0,0,0,0,0,-1,594,1324,-14.537,1.28357
-623,-300,-12.7067,1.48462,0,0,0,0,0,0,0,-1,601,1324,-12.7067,-1.48462
-616,-300,-12.8789,1.99194,0,0,0,0,0,0,0,-1,608,1324,-12.8789,-1.99197
-609,-300,-13.0242,2.41333,0,0,0,0,0,0,0,-1,615,1324,-13.0241,-2.41328
-602,-300,-13.118,2.91931,-0.000830249,-0.00278271,-0.00130517,-0.000176605,-0.00343636,-0.464297,0.00223436,0.0484829,622,1324,-13.1181,-2.91937
-595,-300,-13.4267,3.36755,-0.000510821,-0.00130158,-0.000420316,-0.000329148,-0.00148326,-0.407978,0.000899427,0.0259467,629,1324,-13.4267,-3.36756
-588,-300,-13.3947,3.77844,-7.95002e-05,-0.000512275,0.000113445,-5.15656e-05,-0.000540209,0.241436,0.000344241,0.0199053,636,1324,-13.3947,-3.77845
-581,-300,-13.3845,4.14758,0.000532775,1.83867e-05,0.000544235,0.000877528,-0.000326366,0.564662,0.00071894,0.0192123,643,1324,-13.3845,-4.14753
-574,-300,-13.3793,4.50574,0.00127206,0.000293869,0.000852739,0.00176601,-0.000200082,0.525023,0.00124939,0.0152241,650,1324,-13.3793,-4.50576
-567,-300,-13.4039,4.8717,0.00215403,0.000355326,0.00113855,0.00270559,-0.00019623,0.451119,0.00187256,0.0162288,657,1324,-13.4039,-4.87171
-560,-300,-13.4149,5.25781,0.00314398,0.000551129,0.001468,0.00380606,-0.00011095,0.423691,0.00257515,0.0152614,664,1324,-13.4149,-5.2578
-553,-300,-13.3995,5.61462,0.00437608,0.000436501,0.00168933,0.00500126,-0.000188684,0.35445,0.00339882,0.0105447,671,1324,-13.3995,-5.61461
-546,-300,-13.4037,5.96301,0.00573851,0.000418934,0.00208788,0.0064601,-0.000302657,0.332758,0.00441108,0.00876927,678,1324,-13.4037,-5.96306
-539,-300,-13.389,6.34583,0.00736657,0.000435446,0.00269322,0.00829004,-0.000488017,0.330322,0.00569634,0.0180968,685,1324,-13.389,-6.34588
-532,-300,-13.6646,6.60254,0,0,0,0,0,0,0,-1,692,1324,-13.6646,-6.60249
-525,-300,-13.5115,6.27783,0,0,0,0,0,0,0,-1,699,1324,-13.5115,-6.2778
-518,-300,-9.8349,-0.537109,0,0,0,0,0,0,0,-1,706,1324,-9.83487,0.537068
-511,-300,-12.8644,0.081665,0,0,0,0,0,0,0,-1,713,1324,-12.8644,-0.0817016
-504,-300,-13.4829,-0.165527,0,0,0,0,0,0,0,-1,720,1324,-13.4829,0.165544
-497,-300,-18.1063,0.956543,0,0,0,0,0,0,0,-1,727,1324,-18.1063,-0.9565
-490,-300,-18.2293,1.53625,0,0,0,0,0,0,0,-1,734,1324,-18.2293,-1.53626
-483,-300,-18.3522,1.61084,0,0,0,0,0,0,0,-1,741,1324,-18.3522,-1.6108
-476,-300,-18.7489,1.96387,0,0,0,0,0,0,0,-1,748,1324,-18.7489,-1.96387
-469,-300,0,0,0,0,0,0,0,0,0,-1,755,1324,0,0
-462,-300,0,0,0,0,0,0,0,0,0,-1,762,1324,0,0
-455,-300,0,0,0,0,0,0,0,0,0,-1,769,1324,0,0
-448,-300,0,0,0,0,0,0,0,0,0,-1,776,1324,0,0
-441,-300,0,0,0,0,0,0,0,0,0,-1,783,1324,0,0
-434,-300,0,0,0,0,0,0,0,0,0,-1,790,1324,0,0
-427,-300,0,0,0,0,0,0,0,0,0,-1,797,1324,0,0
-420,-300,0,0,0,0,0,0,0,0,0,-1,804,1324,0,0
-413,-300,0,0,0,0,0,0,0,0,0,-1,811,1324,0,0
-406,-300,0,0,0,0,0,0,0,0,0,-1,818,1324,0,0
-399,-300,0,0,0,0,0,0,0,0,0,-1,825,1324,0,0
-392,-300,0,0,0,0,0,0,0,0,0,-1,832,1324,0,0
-385,-300,0,0,0,0,0,0,0,0,0,-1,839,1324,0,0
-378,-300,0,0,0,0,0,0,0,0,0,-1,846,1324,0,0
-371,-300,0,0,0,0,0,0,0,0,0,-1,853,1324,0,0
-364,-300,0,0,0,0,0,0,0,0,0,-1,860,1324,0,0
-357,-300,0,0,0,0,0,0,0,0,0,-1,867,1324,0,0
-350,-300,0,0,0,0,0,0,0,0,0,-1,874,1324,0,0
-343,-300,0,0,0,0,0,0,0,0,0,-1,881,1324,0,0
-336,-300,0,0,0,0,0,0,0,0,0,-1,888,1324,0,0
-329,-300,0,0,0,0,0,0,0,0,0,-1,895,1324,0,0
-322,-300,0,0,0,0,0,0,0,0,0,-1,902,1324,0,0
-315,-300,0,0,0,0,0,0,0,0,0,-1,909,1324,0,0
-308,-300,0,0,0,0,0,0,0,0,0,-1,916,1324,0,0
-301,-300,0,0,0,0,0,0,0,0,0,-1,923,1324,0,0
-294,-300,0,0,0,0,0,0,0,0,0,-1,930,1324,0,0
-287,-300,0,0,0,0,0,0,0,0,0,-1,937,1324,0,0
-280,-300,0,0,0,0,0,0,0,0,0,-1,944,1324,0,0
-273,-300,0,0,0,0,0,0,0,0,0,-1,951,1324,0,0
-266,-300,0,0,0,0,0,0,0,0,0,-1,958,1324,0,0
-259,-300,0,0,0,0,0,0,0,0,0,-1,965,1324,0,0
-252,-300,0,0,0,0,0,0,0,0,0,-1,972,1324,0,0
-245,-300,0,0,0,0,0,0,0,0,0,-1,979,1324,0,0
-238,-300,0,0,0,0,0,0,0,0,0,-1,986,1324,0,0
-231,-300,0,0,0,0,0,0,0,0,0,-1,993,1324,0,0
-224,-300,0,0,0,0,0,0,0,0,0,-1,1000,1324,0,0
-217,-300,0,0,0,0,0,0,0,0,0,-1,1007,1324,0,0
-210,-300,0,0,0,0,0,0,0,0,0,-1,1014,1324,0,0
-203,-300,0,0,0,0,0,0,0,0,0,-1,1021,1324,0,0
-196,-300,0,0,0,0,0,0,0,0,0,-1,1028,1324,0,0
-189,-300,0,0,0,0,0,0,0,0,0,-1,1035,1324,0,0
-182,-300,0,0,0,0,0,0,0,0,0,-1,1042,1324,0,0
-175,-300,0,0,0,0,0,0,0,0,0,-1,1049,1324,0,0
-168,-300,0,0,0,0,0,0,0,0,0,-1,1056,1324,0,0
-161,-300,0,0,0,0,0,0,0,0,0,-1,1063,1324,0,0
-154,-300,0,0,0,0,0,0,0,0,0,-1,1070,1324,0,0
-147,-300,0,0,0,0,0,0,0,0,0,-1,1077,1324,0,0
-140,-300,0,0,0,0,0,0,0,0,0,-1,1084,1324,0,0
-133,-300,0,0,0,0,0,0,0,0,0,-1,1091,1324,0,0
-126,-300,0,0,0,0,0,0,0,0,0,-1,1098,1324,0,0
-119,-300,0,0,0,0,0,0,0,0,0,-1,1105,1324,0,0
-112,-300,0,0,0,0,0,0,0,0,0,-1,1112,1324,0,0
-105,-300,0,0,0,0,0,0,0,0,0,-1,1119,1324,0,0
-98,-300,0,0,0,0,0,0,0,0,0,-1,1126,1324,0,0
-91,-300,0,0,0,0,0,0,0,0,0,-1,1133,1324,0,0
-84,-300,0,0,0,0,0,0,0,0,0,-1,1140,1324,0,0
-77,-300,0,0,0,0,0,0,0,0,0,-1,1147,1324,0,0
-70,-300,0,0,0,0,0,0,0,0,0,-1,1154,1324,0,0
-63,-300,0,0,0,0,0,0,0,0,0,-1,1161,1324,0,0
-56,-300,0,0,0,0,0,0,0,0,0,-1,1168,1324,0,0
-49,-300,0,0,0,0,0,0,0,0,0,-1,1175,1324,0,0
-42,-300,0,0,0,0,0,0,0,0,0,-1,1182,1324,0,0
-35,-300,0,0,0,0,0,0,0,0,0,-1,1189,1324,0,0
-28,-300,0,0,0,0,0,0,0,0,0,-1,1196,1324,0,0
-21,-300,0,0,0,0,0,0,0,0,0,-1,1203,1324,0,0
-14,-300,0,0,0,0,0,0,0,0,0,-1,1210,1324,0,0
-7,-300,0,0,0,0,0,0,0,0,0,-1,1217,1324,0,0
0,-300,0,0,0,0,0,0,0,0,0,-1,1224,1324,0,0
7,-300,0,0,0,0,0,0,0,0,0,-1,1231,1324,0,0
14,-300,0,0,0,0,0,0,0,0,0,-1,1238,1324,0,0
21,-300,0,0,0,0,0,0,0,0,0,-1,1245,1324,0,0
28,-300,0,0,0,0,0,0,0,0,0,-1,1252,1324,0,0
35,-300,0,0,0,0,0,0,0,0,0,-1,1259,1324,0,0
42,-300,0,0,0,0,0,0,0,0,0,-1,1266,1324,0,0
49,-300,0,0,0,0,0,0,0,0,0,-1,1273,1324,0,0
56,-300,0,0,0,0,0,0,0,0,0,-1,1280,1324,0,0
63,-300,0,0,0,0,0,0,0,0,0,-1,1287,1324,0,0
70,-300,0,0,0,0,0,0,0,0,0,-1,1294,1324,0,0
77,-300,0,0,0,0,0,0,0,0,0,-1,1301,1324,0,0
84,-300,0,0,0,0,0,0,0,0,0,-1,1308,1324,0,0
91,-300,0,0,0,0,0,0,0,0,0,-1,1315,1324,0,0
98,-300,0,0,0,0,0,0,0,0,0,-1,1322,1324,0,0
105,-300,0,0,0,0,0,0,0,0,0,-1,1329,1324,0,0
112,-300,0,0,0,0,0,0,0,0,0,-1,1336,1324,0,0
119,-300,0,0,0,0,0,0,0,0,0,-1,1343,1324,0,0
126,-300,0,0,0,0,0,0,0,0,0,-1,1350,1324,0,0
133,-300,0,0,0,0,0,0,0,0,0,-1,1357,1324,0,0
140,-300,0,0,0,0,0,0,0,0,0,-1,1364,1324,0,0
147,-300,0,0,0,0,0,0,0,0,0,-1,1371,1324,0,0
154,-300,0,0,0,0,0,0,0,0,0,-1,1378,1324,0,0
161,-300,0,0,0,0,0,0,0,0,0,-1,1385,1324,0,0
168,-300,0,0,0,0,0,0,0,0,0,-1,1392,1324,0,0
175,-300,0,0,0,0,0,0,0,0,0,-1,1399,1324,0,0
182,-300,0,0,0,0,0,0,0,0,0,-1,1406,1324,0,0
189,-300,0,0,0,0,0,0,0,0,0,-1,1413,1324,0,0
196,-300,0,0,0,0,0,0,0,0,0,-1,1420,1324,0,0
203,-300,0,0,0,0,0,0,0,0,0,-1,1427,1324,0,0
210,-300,0,0,0,0,0,0,0,0,0,-1,1434,1324,0,0
217,-300,0,0,0,0,0,0,0,0,0,-1,1441,1324,0,0
224,-300,0,0,0,0,0,0,0,0,0,-1,1448,1324,0,0
231,-300,0,0,0,0,0,0,0,0,0,-1,1455,1324,0,0
238,-300,0,0,0,0,0,0,0,0,0,-1,1462,1324,0,0
245,-300,0,0,0,0,0,0,0,0,0,-1,1469,1324,0,0
252,-300,0,0,0,0,0,0,0,0,0,-1,1476,1324,0,0
259,-300,0,0,0,0,0,0,0,0,0,-1,1483,1324,0,0
266,-300,0,0,0,0,0,0,0,0,0,-1,1490,1324,0,0
273,-300,0,0,0,0,0,0,0,0,0,-1,1497,1324,0,0
280,-300,0,0,0,0,0,0,0,0,0,-1,1504,1324,0,0
287,-300,0,0,0,0,0,0,0,0,0,-1,1511,1324,0,0
294,-300,0,0,0,0,0,0,0,0,0,-1,1518,1324,0,0
301,-300,0,0,0,0,0,0,0,0,0,-1,1525,1324,0,0
308,-300,0,0,0,0,0,0,0,0,0,-1,1532,1324,0,0
315,-300,0,0,0,0,0,0,0,0,0,-1,1539,1324,0,0
322,-300,0,0,0,0,0,0,0,0,0,-1,1546,1324,0,0
329,-300,0,0,0,0,0,0,0,0,0,-1,1553,1324,0,0
336,-300,0,0,0,0,0,0,0,0,0,-1,1560,1324,0,0
343,-300,0,0,0,0,0,0,0,0,0,-1,1567,1324,0,0
350,-300,0,0,0,0,0,0,0,0,0,-1,1574,1324,0,0
357,-300,0,0,0,0,0,0,0,0,0,-1,1581,1324,0,0
364,-300,0,0,0,0,0,0,0,0,0,-1,1588,1324,0,0
371,-300,0,0,0,0,0,0,0,0,0,-1,1595,1324,0,0
378,-300,0,0,0,0,0,0,0,0,0,-1,1602,1324,0,0
385,-300,0,0,0,0,0,0,0,0,0,-1,1609,1324,0,0
392,-300,0,0,0,0,0,0,0,0,0,-1,1616,1324,0,0
399,-300,0,0,0,0,0,0,0,0,0,-1,1623,1324,0,0
406,-300,0,0,0,0,0,0,0,0,0,-1,1630,1324,0,0
413,-300,0,0,0,0,0,0,0,0,0,-1,1637,1324,0,0
420,-300,0,0,0,0,0,0,0,0,0,-1,1644,1324,0,0
427,-300,0,0,0,0,0,0,0,0,0,-1,1651,1324,0,0
434,-300,0,0,0,0,0,0,0,0,0,-1,1658,1324,0,0
441,-300,0,0,0,0,0,0,0,0,0,-1,1665,1324,0,0
448,-300,0,0,0,0,0,0,0,0,0,-1,1672,1324,0,0
455,-300,0,0,0,0,0,0,0,0,0,-1,1679,1324,0,0
462,-300,0,0,0,0,0,0,0,0,0,-1,1686,1324,0,0
469,-300,0,0,0,0,0,0,0,0,0,-1,1693,1324,0,0
476,-300,0,0,0,0,0,0,0,0,0,-1,1700,1324,0,0
483,-300,0,0,0,0,0,0,0,0,0,-1,1707,1324,0,0
490,-300,0,0,0,0,0,0,0,0,0,-1,1714,1324,0,0
497,-300,0,0,0,0,0,0,0,0,0,-1,1721,1324,0,0
504,-300,0,0,0,0,0,0,0,0,0,-1,1728,1324,0,0
511,-300,0,0,0,0,0,0,0,0,0,-1,1735,1324,0,0
518,-300,0,0,0,0,0,0,0,0,0,-1,1742,1324,0,0
525,-300,0,0,0,0,0,0,0,0,0,-1,1749,1324,0,0
532,-300,0,0,0,0,0,0,0,0,0,-1,1756,1324,0,0
539,-300,0,0,0,0,0,0,0,0,0,-1,1763,1324,0,0
546,-300,0,0,0,0,0,0,0,0,0,-1,1770,1324,0,0
553,-300,0,0,0,0,0,0,0,0,0,-1,1777,1324,0,0
560,-300,0,0,0,0,0,0,0,0,0,-1,1784,1324,0,0
567,-300,0,0,0,0,0,0,0,0,0,-1,1791,1324,0,0
574,-300,0,0,0,0,0,0,0,0,0,-1,1798,1324,0,0
581,-300,0,0,0,0,0,0,0,0,0,-1,1805,1324,0,0
588,-300,32.8744,2.54578,0,0,0,0,0,0,0,-1,1812,1324,32.8744,-2.54581
595,-300,34.271,3.64551,0,0,0,0,0,0,0,-1,1819,1324,34.271,-3.64552
602,-300,33.8917,2.9325,-0.0526079,0.00565292,-0.0460517,0.0310142,-0.0779691,-1.06741,0.064839,0.049733,1826,1324,33.8918,-2.93251
609,-300,33.5959,2.19385,-0.0455736,0.00476436,-0.040751,0.0274924,-0.0683016,-1.06204,0.056955,0.0477662,1833,1324,33.5959,-2.1938
616,-300,33.2587,1.40576,-0.0367856,0.00511458,-0.0339297,0.0240409,-0.0557119,-1.06198,0.04724,0.04586,1840,1324,33.2587,-1.40573
623,-300,32.8503,0.529907,0,0,0,0,0,0,0,-1,1847,1324,32.8504,-0.52992
630,-300,34.4613,4.74854,0,0,0,0,0,0,0,-1,1854,1324,34.4614,-4.74855
637,-300,31.1719,4.6366,0,0,0,0,0,0,0,-1,1861,1324,31.1718,-4.63665
644,-300,22.9836,3.44934,0,0,0,0,0,0,0,-1,1868,1324,22.9836,-3.4493
651,-300,25.5004,9.11853,0,0,0,0,0,0,0,-1,1875,1324,25.5004,-9.11851
658,-300,24.9154,8.97021,0,0,0,0,0,0,0,-1,1882,1324,24.9154,-8.97018
665,-300,24.3986,8.71814,0.00171154,0.00576241,-0.00321771,0.00753909,-6.51332e-05,-1.0663,0.00504791,0.0466449,1889,1324,24.3985,-8.71811
672,-300,24.1268,8.46118,0.00124523,0.00407917,-0.00141965,0.00466799,0.000656405,-1.17762,0.00291791,0.0153953,1896,1324,24.1268,-8.46122
679,-300,24.1609,8.08069,-5.63579e-05,0.0015417,-0.000222869,0.0015722,-8.68575e-05,-1.43479,0.00107825,0.0131443,1903,1324,24.1609,-8.08072
686,-300,24.1667,7.74463,3.93834e-05,-3.51087e-05,0.000428044,0.000431799,-0.000427524,0.742,0.000496133,0.0136259,1910,1324,24.1667,-7.74461
693,-300,24.1403,7.42798,9.3189e-05,-0.000343557,0.00024949,0.000206376,-0.000456744,0.425904,0.000391843,0.0114127,1917,1324,24.1403,-7.42797
700,-300,24.1321,7.09546,-3.83397e-05,-0.000164935,0.000399662,0.000303006,-0.00050628,0.706862,0.000472129,0.0127618,1924,1324,24.1321,-7.09541
707,-300,24.1346,6.76624,-0.000226545,-1.37757e-05,0.000661749,0.000550086,-0.000790406,0.865098,0.000778068,0.0090043,1931,1324,24.1347,-6.76624
714,-300,24.1359,6.46704,-0.000345908,0.000173503,0.000879364,0.000830709,-0.00100311,0.928983,0.00106032,0.00993937,1938,1324,24.1358,-6.46707
721,-300,24.1378,6.15662,-0.000683162,0.000381403,0.00123292,0.00119203,-0.00149379,0.989175,0.00155392,0.0110328,1945,1324,24.1378,-6.15664
728,-300,24.1539,5.80725,-0.00099369,0.000675334,0.00158259,0.00162996,-0.00194831,1.02803,0.00206864,0.0134086,1952,1324,24.1539,-5.80731
735,-300,24.2054,5.47339,0,0,0,0,0,0,0,-1,1959,1324,24.2054,-5.47334
742,-300,24.326,5.31494,0,0,0,0,0,0,0,-1,1966,1324,24.3261,-5.31489
749,-300,24.1088,4.5304,0,0,0,0,0,0,0,-1,1973,1324,24.1088,-4.53036
756,-300,22.1423,3.45642,0,0,0,0,0,0,0,-1,1980,1324,22.1423,-3.45638
763,-300,22.6136,5.1571,0,0,0,0,0,0,0,-1,1987,1324,22.6136,-5.15706
770,-300,24.859,4.77979,0,0,0,0,0,0,0,-1,1994,1324,24.859,-4.77972
777,-300,0,0,0,0,0,0,0,0,0,-1,2001,1324,0,0
784,-300,0,0,0,0,0,0,0,0,0,-1,2008,1324,0,0
791,-300,0,0,0,0,0,0,0,0,0,-1,2015,1324,0,0
798,-300,0,0,0,0,0,0,0,0,0,-1,2022,1324,0,0
805,-300,0,0,0,0,0,0,0,0,0,-1,2029,1324,0,0
812,-300,0,0,0,0,0,0,0,0,0,-1,2036,1324,0,0
-700,-307,0,0,0,0,0,0,0,0,0,-1,524,1331,0,0
-693,-307,0,0,0,0,0,0,0,0,0,-1,531,1331,0,0
-686,-307,0,0,0,0,0,0,0,0,0,-1,538,1331,0,0
-679,-307,0,0,0,0,0,0,0,0,0,-1,545,1331,0,0
-672,-307,0,0,0,0,0,0,0,0,0,-1,552,1331,0,0
-665,-307,0,0,0,0,0,0,0,0,0,-1,559,1331,0,0
-658,-307,0,0,0,0,0,0,0,0,0,-1,566,1331,0,0
-651,-307,-12.0636,-4.25879,0,0,0,0,0,0,0,-1,573,1331,-12.0636,4.25881
-644,-307,-12.1006,-2.35498,0,0,0,0,0,0,0,-1,580,1331,-12.1006,2.35504
-637,-307,-12.0287,-0.730347,0,0,0,0,0,0,0,-1,587,1331,-12.0287,0.730306
-630,-307,-12.0005,0.767212,0,0,0,0,0,0,0,-1,594,1331,-12.0005,-0.767266
-623,-307,-12.2128,2.93811,0,0,0,0,0,0,0,-1,601,1331,-12.2128,-2.93813
-616,-307,-12.6612,2.08289,0,0,0,0,0,0,0,-1,608,1331,-12.6612,-2.08293
-609,-307,-12.2767,1.83228,0,0,0,0,0,0,0,-1,615,1331,-12.2768,-1.83224
-602,-307,-13.0637,2.87329,0,0,0,0,0,0,0,-1,622,1331,-13.0637,-2.87335
-595,-307,-13.1003,3.37683,-0.00105482,-0.0023252,-0.000708974,-0.000738113,-0.00264191,-0.420119,0.00157402,0.0317054,629,1331,-13.1003,-3.37678
-588,-307,-13.0346,3.79858,-0.000636517,-0.00118481,-0.000165147,-0.000590617,-0.00123071,-0.271092,0.000710742,0.0200813,636,1331,-13.0346,-3.7986
-581,-307,-13.0158,4.16724,-5.09347e-05,-0.000404075,0.000280509,0.00010395,-0.00055896,0.504497,0.000411688,0.0157509,643,1331,-13.0158,-4.16721
-574,-307,-13.0044,4.52356,0.000696731,1.10612e-05,0.000569351,0.0010185,-0.000310706,0.514398,0.000802864,0.0125856,650,1331,-13.0044,-4.52356
-567,-307,-13.0226,4.88721,0.00159061,0.000148699,0.000825785,0.00196587,-0.000226566,0.426535,0.00139226,0.0126276,657,1331,-13.0226,-4.88719
-560,-307,-13.0278,5.26062,0.00259966,0.000425756,0.00116465,0.00310579,-8.03655e-05,0.409947,0.00209783,0.0136352,664,1331,-13.0278,-5.2606
-553,-307,-13.0284,5.62476,0.00382307,0.000283766,0.00134369,0.00427539,-0.000168557,0.324712,0.00290808,0.0108534,671,1331,-13.0284,-5.62477
-546,-307,-13.0371,5.97583,0.00522872,0.000192012,0.00167228,0.00573338,-0.000312652,0.29309,0.00393062,0.0101117,678,1331,-13.0371,-5.97585
-539,-307,-13.0237,6.36353,0.00687438,0.000115984,0.00217961,0.00751633,-0.000525973,0.286429,0.0051951,0.0143472,685,1331,-13.0237,-6.36353
-532,-307,-12.9939,6.65234,0.00914527,0.000150653,0.00286593,0.00998082,-0.000684896,0.283682,0.00689353,0.0495466,692,1331,-12.9939,-6.6524
-525,-307,-13.2009,6.91309,0,0,0,0,0,0,0,-1,699,1331,-13.2009,-6.9131
-518,-307,-9.77777,-1.56653,0,0,0,0,0,0,0,-1,706,1331,-9.77777,1.56651
-511,-307,-12.5226,0.26709,0,0,0,0,0,0,0,-1,713,1331,-12.5226,-0.267038
-504,-307,-12.5913,-0.308105,0,0,0,0,0,0,0,-1,720,1331,-12.5913,0.308124
-497,-307,-13.8586,-0.115845,0,0,0,0,0,0,0,-1,727,1331,-13.8587,0.115861
-490,-307,-17.9429,0.982178,0,0,0,0,0,0,0,-1,734,1331,-17.9429,-0.982198
-483,-307,-18.1066,0.927612,0,0,0,0,0,0,0,-1,741,1331,-18.1066,-0.927609
-476,-307,-18.1288,1.1228,0,0,0,0,0,0,0,-1,748,1331,-18.1289,-1.12286
-469,-307,-18.2028,0.798584,0,0,0,0,0,0,0,-1,755,1331,-18.2027,-0.798546
-462,-307,0,0,0,0,0,0,0,0,0,-1,762,1331,0,0
-455,-307,0,0,0,0,0,0,0,0,0,-1,769,1331,0,0
-448,-307,0,0,0,0,0,0,0,0,0,-1,776,1331,0,0
-441,-307,0,0,0,0,0,0,0,0,0,-1,783,1331,0,0
-434,-307,0,0,0,0,0,0,0,0,0,-1,790,1331,0,0
-427,-307,0,0,0,0,0,0,0,0,0,-1,797,1331,0,0
-420,-307,0,0,0,0,0,0,0,0,0,-1,804,1331,0,0
-413,-307,0,0,0,0,0,0,0,0,0,-1,811,1331,0,0
-406,-307,0,0,0,0,0,0,0,0,0,-1,818,1331,0,0
-399,-307,0,0,0,0,0,0,0,0,0,-1,825,1331,0,0
-392,-307,0,0,0,0,0,0,0,0,0,-1,832,1331,0,0
-385,-307,0,0,0,0,0,0,0,0,0,-1,839,1331,0,0
-378,-307,0,0,0,0,0,0,0,0,0,-1,846,1331,0,0
-371,-307,0,0,0,0,0,0,0,0,0,-1,853,1331,0,0
-364,-307,0,0,0,0,0,0,0,0,0,-1,860,1331,0,0
-357,-307,0,0,0,0,0,0,0,0,0,-1,867,1331,0,0
-350,-307,0,0,0,0,0,0,0,0,0,-1,874,1331,0,0
-343,-307,0,0,0,0,0,0,0,0,0,-1,881,1331,0,0
-336,-307,0,0,0,0,0,0,0,0,0,-1,888,1331,0,0
-329,-307,0,0,0,0,0,0,0,0,0,-1,895,1331,0,0
-322,-307,0,0,0,0,0,0,0,0,0,-1,902,1331,0,0
-315,-307,0,0,0,0,0,0,0,0,0,-1,909,1331,0,0
-308,-307,0,0,0,0,0,0,0,0,0,-1,916,1331,0,0
-301,-307,0,0,0,0,0,0,0,0,0,-1,923,1331,0,0
-294,-307,0,0,0,0,0,0,0,0,0,-1,930,1331,0,0
-287,-307,0,0,0,0,0,0,0,0,0,-1,937,1331,0,0
-280,-307,0,0,0,0,0,0,0,0,0,-1,944,1331,0,0
-273,-307,0,0,0,0,0,0,0,0,0,-1,951,1331,0,0
-266,-307,0,0,0,0,0,0,0,0,0,-1,958,1331,0,0
-259,-307,0,0,0,0,0,0,0,0,0,-1,965,1331,0,0
-252,-307,0,0,0,0,0,0,0,0,0,-1,972,1331,0,0
-245,-307,0,0,0,0,0,0,0,0,0,-1,979,1331,0,0
-238,-307,0,0,0,0,0,0,0,0,0,-1,986,1331,0,0
-231,-307,0,0,0,0,0,0,0,0,0,-1,993,1331,0,0
-224,-307,0,0,0,0,0,0,0,0,0,-1,1000,1331,0,0
-217,-307,0,0,0,0,0,0,0,0,0,-1,1007,1331,0,0
-210,-307,0,0,0,0,0,0,0,0,0,-1,1014,1331,0,0
-203,-307,0,0,0,0,0,0,0,0,0,-1,1021,1331,0,0
-196,-307,0,0,0,0,0,0,0,0,0,-1,1028,1331,0,0
-189,-307,0,0,0,0,0,0,0,0,0,-1,1035,1331,0,0
-182,-307,0,0,0,0,0,0,0,0,0,-1,1042,1331,0,0
-175,-307,0,0,0,0,0,0,0,0,0,-1,1049,1331,0,0
-168,-307,0,0,0,0,0,0,0,0,0,-1,1056,1331,0,0
-161,-307,0,0,0,0,0,0,0,0,0,-1,1063,1331,0,0
-154,-307,0,0,0,0,0,0,0,0,0,-1,1070,1331,0,0
-147,-307,0,0,0,0,0,0,0,0,0,-1,1077,1331,0,0
-140,-307,0,0,0,0,0,0,0,0,0,-1,1084,1331,0,0
-133,-307,0,0,0,0,0,0,0,0,0,-1,1091,1331,0,0
-126,-307,0,0,0,0,0,0,0,0,0,-1,1098,1331,0,0
-119,-307,0,0,0,0,0,0,0,0,0,-1,1105,1331,0,0
-112,-307,0,0,0,0,0,0,0,0,0,-1,1112,1331,0,0
-105,-307,0,0,0,0,0,0,0,0,0,-1,1119,1331,0,0
-98,-307,0,0,0,0,0,0,0,0,0,-1,1126,1331,0,0
-91,-307,0,0,0,0,0,0,0,0,0,-1,1133,1331,0,0
-84,-307,0,0,0,0,0,0,0,0,0,-1,1140,1331,0,0
-77,-307,0,0,0,0,0,0,0,0,0,-1,1147,1331,0,0
-70,-307,0,0,0,0,0,0,0,0,0,-1,1154,1331,0,0
-63,-307,0,0,0,0,0,0,0,0,0,-1,1161,1331,0,0
-56,-307,0,0,0,0,0,0,0,0,0,-1,1168,1331,0,0
-49,-307,0,0,0,0,0,0,0,0,0,-1,1175,1331,0,0
-42,-307,0,0,0,0,0,0,0,0,0,-1,1182,1331,0,0
-35,-307,0,0,0,0,0,0,0,0,0,-1,1189,1331,0,0
-28,-307,0,0,0,0,0,0,0,0,0,-1,1196,1331,0,0
-21,-307,0,0,0,0,0,0,0,0,0,-1,1203,1331,0,0
-14,-307,0,0,0,0,0,0,0,0,0,-1,1210,1331,0,0
-7,-307,0,0,0,0,0,0,0,0,0,-1,1217,1331,0,0
0,-307,0,0,0,0,0,0,0,0,0,-1,1224,1331,0,0
7,-307,0,0,0,0,0,0,0,0,0,-1,1231,1331,0,0
14,-307,0,0,0,0,0,0,0,0,0,-1,1238,1331,0,0
21,-307,0,0,0,0,0,0,0,0,0,-1,1245,1331,0,0
28,-307,0,0,0,0,0,0,0,0,0,-1,1252,1331,0,0
35,-307,0,0,0,0,0,0,0,0,0,-1,1259,1331,0,0
42,-307,0,0,0,0,0,0,0,0,0,-1,1266,1331,0,0
49,-307,0,0,0,0,0,0,0,0,0,-1,1273,1331,0,0
56,-307,0,0,0,0,0,0,0,0,0,-1,1280,1331,0,0
63,-307,0,0,0,0,0,0,0,0,0,-1,1287,1331,0,0
70,-307,0,0,0,0,0,0,0,0,0,-1,1294,1331,0,0
77,-307,0,0,0,0,0,0,0,0,0,-1,1301,1331,0,0
84,-307,0,0,0,0,0,0,0,0,0,-1,1308,1331,0,0
91,-307,0,0,0,0,0,0,0,0,0,-1,1315,1331,0,0
98,-307,0,0,0,0,0,0,0,0,0,-1,1322,1331,0,0
105,-307,0,0,0,0,0,0,0,0,0,-1,1329,1331,0,0
112,-307,0,0,0,0,0,0,0,0,0,-1,1336,1331,0,0
119,-307,0,0,0,0,0,0,0,0,0,-1,1343,1331,0,0
126,-307,0,0,0,0,0,0,0,0,0,-1,1350,1331,0,0
133,-307,0,0,0,0,0,0,0,0,0,-1,1357,1331,0,0
140,-307,0,0,0,0,0,0,0,0,0,-1,1364,1331,0,0
147,-307,0,0,0,0,0,0,0,0,0,-1,1371,1331,0,0
154,-307,0,0,0,0,0,0,0,0,0,-1,1378,1331,0,0
161,-307,0,0,0,0,0,0,0,0,0,-1,1385,1331,0,0
168,-307,0,0,0,0,0,0,0,0,0,-1,1392,1331,0,0
175,-307,0,0,0,0,0,0,0,0,0,-1,1399,1331,0,0
182,-307,0,0,0,0,0,0,0,0,0,-1,1406,1331,0,0
189,-307,0,0,0,0,0,0,0,0,0,-1,1413,1331,0,0
196,-307,0,0,0,0,0,0,0,0,0,-1,1420,1331,0,0
203,-307,0,0,0,0,0,0,0,0,0,-1,1427,1331,0,0
210,-307,0,0,0,0,0,0,0,0,0,-1,1434,1331,0,0
217,-307,0,0,0,0,0,0,0,0,0,-1,1441,1331,0,0
224,-307,0,0,0,0,0,0,0,0,0,-1,1448,1331,0,0
231,-307,0,0,0,0,0,0,0,0,0,-1,1455,1331,0,0
238,-307,0,0,0,0,0,0,0,0,0,-1,1462,1331,0,0
245,-307,0,0,0,0,0,0,0,0,0,-1,1469,1331,0,0
252,-307,0,0,0,0,0,0,0,0,0,-1,1476,1331,0,0
259,-307,0,0,0,0,0,0,0,0,0,-1,1483,1331,0,0
266,-307,0,0,0,0,0,0,0,0,0,-1,1490,1331,0,0
273,-307,0,0,0,0,0,0,0,0,0,-1,1497,1331,0,0
280,-307,0,0,0,0,0,0,0,0,0,-1,1504,1331,0,0
287,-307,0,0,0,0,0,0,0,0,0,-1,1511,1331,0,0
294,-307,0,0,0,0,0,0,0,0,0,-1,1518,1331,0,0
301,-307,0,0,0,0,0,0,0,0,0,-1,1525,1331,0,0
308,-307,0,0,0,0,0,0,0,0,0,-1,1532,1331,0,0
315,-307,0,0,0,0,0,0,0,0,0,-1,1539,1331,0,0
322,-307,0,0,0,0,0,0,0,0,0,-1,1546,1331,0,0
329,-307,0,0,0,0,0,0,0,0,0,-1,1553,1331,0,0
336,-307,0,0,0,0,0,0,0,0,0,-1,1560,1331,0,0
343,-307,0,0,0,0,0,0,0,0,0,-1,1567,1331,0,0
350,-307,0,0,0,0,0,0,0,0,0,-1,1574,1331,0,0
357,-307,0,0,0,0,0,0,0,0,0,-1,1581,1331,0,0
364,-307,0,0,0,0,0,0,0,0,0,-1,1588,1331,0,0
371,-307,0,0,0,0,0,0,0,0,0,-1,1595,1331,0,0
378,-307,0,0,0,0,0,0,0,0,0,-1,1602,1331,0,0
385,-307,0,0,0,0,0,0,0,0,0,-1,1609,1331,0,0
392,-307,0,0,0,0,0,0,0,0,0,-1,1616,1331,0,0
399,-307,0,0,0,0,0,0,0,0,0,-1,1623,1331,0,0
406,-307,0,0,0,0,0,0,0,0,0,-1,1630,1331,0,0
413,-307,0,0,0,0,0,0,0,0,0,-1,1637,1331,0,0
420,-307,0,0,0,0,0,0,0,0,0,-1,1644,1331,0,0
427,-307,0,0,0,0,0,0,0,0,0,-1,1651,1331,0,0
434,-307,0,0,0,0,0,0,0,0,0,-1,1658,1331,0,0
441,-307,0,0,0,0,0,0,0,0,0,-1,1665,1331,0,0
448,-307,0,0,0,0,0,0,0,0,0,-1,1672,1331,0,0
455,-307,0,0,0,0,0,0,0,0,0,-1,1679,1331,0,0
462,-307,0,0,0,0,0,0,0,0,0,-1,1686,1331,0,0
469,-307,0,0,0,0,0,0,0,0,0,-1,1693,1331,0,0
476,-307,0,0,0,0,0,0,0,0,0,-1,1700,1331,0,0
483,-307,0,0,0,0,0,0,0,0,0,-1,1707,1331,0,0
490,-307,0,0,0,0,0,0,0,0,0,-1,1714,1331,0,0
497,-307,0,0,0,0,0,0,0,0,0,-1,1721,1331,0,0
504,-307,0,0,0,0,0,0,0,0,0,-1,1728,1331,0,0
511,-307,0,0,0,0,0,0,0,0,0,-1,1735,1331,0,0
518,-307,0,0,0,0,0,0,0,0,0,-1,1742,1331,0,0
525,-307,0,0,0,0,0,0,0,0,0,-1,1749,1331,0,0
532,-307,0,0,0,0,0,0,0,0,0,-1,1756,1331,0,0
539,-307,0,0,0,0,0,0,0,0,0,-1,1763,1331,0,0
546,-307,0,0,0,0,0,0,0,0,0,-1,1770,1331,0,0
553,-307,0,0,0,0,0,0,0,0,0,-1,1777,1331,0,0
560,-307,0,0,0,0,0,0,0,0,0,-1,1784,1331,0,0
567,-307,0,0,0,0,0,0,0,0,0,-1,1791,1331,0,0
574,-307,0,0,0,0,0,0,0,0,0,-1,1798,1331,0,0
581,-307,0,0,0,0,0,0,0,0,0,-1,1805,1331,0,0
588,-307,35.5305,4.08813,0,0,0,0,0,0,0,-1,1812,1331,35.5305,-4.08814
595,-307,34.6431,3.64417,-0.0658277,0.0058137,-0.0558874,0.0363746,-0.0963886,-1.07039,0.0792183,0.04361,1819,1331,34.643,-3.64412
602,-307,33.8762,3.01062,-0.0627416,0.00206212,-0.0508876,0.029988,-0.0906674,-1.06889,0.0725375,0.0465881,1826,1331,33.8762,-3.01063
609,-307,33.6681,2.22546,0,0,0,0,0,0,0,-1,1833,1331,33.6681,-2.22544
616,-307,33.0024,1.73608,0,0,0,0,0,0,0,-1,1840,1331,33.0024,-1.73608
623,-307,32.6433,1.03906,0,0,0,0,0,0,0,-1,1847,1331,32.6434,-1.03907
630,-307,29.8225,5.08826,0,0,0,0,0,0,0,-1,1854,1331,29.8225,-5.0883
637,-307,24.6407,4.09106,0,0,0,0,0,0,0,-1,1861,1331,24.6407,-4.09103
644,-307,22.6885,5.80408,0,0,0,0,0,0,0,-1,1868,1331,22.6884,-5.80408
651,-307,17.5013,5.80078,0,0,0,0,0,0,0,-1,1875,1331,17.5014,-5.80072
658,-307,24.0413,9.10791,0,0,0,0,0,0,0,-1,1882,1331,24.0413,-9.10791
665,-307,23.8799,8.74646,0.00124915,0.00497076,-0.00318982,0.00680286,-0.000582946,-1.04944,0.00474151,0.027825,1889,1331,23.8799,-8.74644
672,-307,23.8365,8.4502,0.000838784,0.00324602,-0.00126045,0.00378522,0.000299582,-1.16657,0.00242978,0.0112067,1896,1331,23.8366,-8.45021
679,-307,23.8398,8.10938,-0.000291432,0.000971389,-0.000158362,0.000990945,-0.000310989,-1.44793,0.0007851,0.0101553,1903,1331,23.8398,-8.10941
686,-307,23.8195,7.77661,-0.000140208,-0.000231712,0.000377792,0.000194593,-0.000566512,0.72514,0.000456578,0.00940508,1910,1331,23.8194,-7.77656
693,-307,23.8053,7.44385,-4.21982e-05,-0.000393278,0.000271878,0.000105885,-0.000541361,0.49874,0.000400891,0.0111098,1917,1331,23.8053,-7.44383
700,-307,23.8108,7.09399,-0.000123007,-0.000239933,0.000441923,0.000264303,-0.000627243,0.719634,0.00052876,0.0125899,1924,1331,23.8108,-7.09401
707,-307,23.8087,6.76758,-0.000336101,-9.93586e-05,0.000692201,0.000484519,-0.000919979,0.870082,0.000823777,0.0135843,1931,1331,23.8087,-6.76762
714,-307,23.8013,6.47363,-0.000745517,1.05126e-05,0.0010222,0.000722359,-0.00145736,0.962502,0.00128209,0.0118817,1938,1331,23.8012,-6.47357
721,-307,23.8231,6.16663,-0.00146567,0.000132475,0.00153997,0.00106834,-0.00240154,1.02472,0.00205204,0.0147386,1945,1331,23.8231,-6.16669
728,-307,23.8093,5.95935,-0.00245893,0.000283508,0.00214437,0.00145759,-0.00363301,1.06986,0.0030272,0.0331767,1952,1331,23.8094,-5.9593
735,-307,23.6332,5.78369,0,0,0,0,0,0,0,-1,1959,1331,23.6332,-5.78363
742,-307,23.7954,5.55505,0,0,0,0,0,0,0,-1,1966,1331,23.7955,-5.55504
749,-307,24.0098,5.22424,0,0,0,0,0,0,0,-1,1973,1331,24.0098,-5.2242
756,-307,22.4415,2.98438,0,0,0,0,0,0,0,-1,1980,1331,22.4415,-2.98441
763,-307,18.7522,3.55298,0,0,0,0,0,0,0,-1,1987,1331,18.7522,-3.55301
770,-307,0,0,0,0,0,0,0,0,0,-1,1994,1331,0,0
777,-307,0,0,0,0,0,0,0,0,0,-1,2001,1331,0,0
784,-307,0,0,0,0,0,0,0,0,0,-1,2008,1331,0,0
791,-307,0,0,0,0,0,0,0,0,0,-1,2015,1331,0,0
798,-307,0,0,0,0,0,0,0,0,0,-1,2022,1331,0,0
805,-307,0,0,0,0,0,0,0,0,0,-1,2029,1331,0,0
812,-307,0,0,0,0,0,0,0,0,0,-1,2036,1331,0,0
-700,-314,0,0,0,0,0,0,0,0,0,-1,524,1338,0,0
-693,-314,0,0,0,0,0,0,0,0,0,-1,531,1338,0,0
-686,-314,0,0,0,0,0,0,0,0,0,-1,538,1338,0,0
-679,-314,0,0,0,0,0,0,0,0,0,-1,545,1338,0,0
-672,-314,0,0,0,0,0,0,0,0,0,-1,552,1338,0,0
-665,-314,0,0,0,0,0,0,0,0,0,-1,559,1338,0,0
-658,-314,0,0,0,0,0,0,0,0,0,-1,566,1338,0,0
-651,-314,0,0,0,0,0,0,0,0,0,-1,573,1338,0,0
-644,-314,-11.4816,-3.58264,0,0,0,0,0,0,0,-1,580,1338,-11.4816,3.5826
-637,-314,-11.3976,-1.95752,0,0,0,0,0,0,0,-1,587,1338,-11.3976,1.95747
-630,-314,-13.2771,2.98938,0,0,0,0,0,0,0,-1,594,1338,-13.2771,-2.98943
-623,-314,-13.3542,3.00903,0,0,0,0,0,0,0,-1,601,1338,-13.3542,-3.00907
-616,-314,-9.93311,1.15088,0,0,0,0,0,0,0,-1,608,1338,-9.93308,-1.15093
-609,-314,-9.4361,2.86292,0,0,0,0,0,0,0,-1,615,1338,-9.43612,-2.86286
-602,-314,-11.8027,2.42798,0,0,0,0,0,0,0,-1,622,1338,-11.8027,-2.42802
-595,-314,-12.7959,3.34363,0,0,0,0,0,0,0,-1,629,1338,-12.7959,-3.34361
-588,-314,-12.6719,3.7533,-0.000999986,-0.0018355,-0.000366995,-0.00086168,-0.00197381,-0.360401,0.00114263,0.0234483,636,1338,-12.6719,-3.75328
-581,-314,-12.6294,4.15393,-0.000481656,-0.000785994,7.50134e-05,-0.000464171,-0.000803479,0.229,0.000465752,0.012773,643,1338,-12.6294,-4.15389
-574,-314,-12.6517,4.51196,0.000251484,-0.000245086,0.000334578,0.000419838,-0.00041344,0.466191,0.000481098,0.0122039,650,1338,-12.6517,-4.51192
-567,-314,-12.6503,4.90149,0.00111656,-1.37626e-05,0.000552419,0.0013417,-0.000238902,0.386999,0.000983817,0.0131641,657,1338,-12.6503,-4.90143
-560,-314,-12.6378,5.2644,0.00210177,0.000325052,0.000884647,0.00246712,-4.02961e-05,0.391652,0.00165834,0.0143413,664,1338,-12.6378,-5.26441
-553,-314,-12.6563,5.61731,0.00327843,0.000171283,0.00103644,0.00359242,-0.000142708,0.294162,0.0024439,0.0164846,671,1338,-12.6563,-5.61733
-546,-314,-12.6879,5.99646,0.00465925,3.06991e-05,0.0013142,0.00500636,-0.000316414,0.258228,0.00344789,0.0173903,678,1338,-12.6879,-5.99649
-539,-314,-12.6863,6.3761,0.00623342,-0.00010157,0.0017446,0.0066821,-0.000550243,0.251722,0.00464901,0.0170571,685,1338,-12.6863,-6.37604
-532,-314,-12.4645,6.80298,0.0083136,-0.000149858,0.00235116,0.0089229,-0.000759152,0.253568,0.00621712,0.0455409,692,1338,-12.4645,-6.80299
-525,-314,-12.4101,7.11499,0,0,0,0,0,0,0,-1,699,1338,-12.4101,-7.11504
-518,-314,-8.52753,4.70032,0,0,0,0,0,0,0,-1,706,1338,-8.52755,-4.70034
-511,-314,-11.8597,0.384888,0,0,0,0,0,0,0,-1,713,1338,-11.8597,-0.384927
-504,-314,-11.4322,-0.187378,0,0,0,0,0,0,0,-1,720,1338,-11.4322,0.187381
-497,-314,-11.0047,-0.759644,0,0,0,0,0,0,0,-1,727,1338,-11.0047,0.759689
-490,-314,-18.5143,0.471069,0,0,0,0,0,0,0,-1,734,1338,-18.5143,-0.47103
-483,-314,-17.8528,0.577271,0,0,0,0,0,0,0,-1,741,1338,-17.8528,-0.577327
-476,-314,-17.714,0.665405,0,0,0,0,0,0,0,-1,748,1338,-17.714,-0.665388
-469,-314,-17.7246,0.794678,0,0,0,0,0,0,0,-1,755,1338,-17.7246,-0.794645
-462,-314,0,0,0,0,0,0,0,0,0,-1,762,1338,0,0
-455,-314,0,0,0,0,0,0,0,0,0,-1,769,1338,0,0
-448,-314,0,0,0,0,0,0,0,0,0,-1,776,1338,0,0
-441,-314,0,0,0,0,0,0,0,0,0,-1,783,1338,0,0
-434,-314,0,0,0,0,0,0,0,0,0,-1,790,1338,0,0
-427,-314,0,0,0,0,0,0,0,0,0,-1,797,1338,0,0
-420,-314,0,0,0,0,0,0,0,0,0,-1,804,1338,0,0
-413,-314,0,0,0,0,0,0,0,0,0,-1,811,1338,0,0
-406,-314,0,0,0,0,0,0,0,0,0,-1,818,1338,0,0
-399,-314,0,0,0,0,0,0,0,0,0,-1,825,1338,0,0
-392,-314,0,0,0,0,0,0,0,0,0,-1,832,1338,0,0
-385,-314,0,0,0,0,0,0,0,0,0,-1,839,1338,0,0
-378,-314,0,0,0,0,0,0,0,0,0,-1,846,1338,0,0
-371,-314,0,0,0,0,0,0,0,0,0,-1,853,1338,0,0
-364,-314,0,0,0,0,0,0,0,0,0,-1,860,1338,0,0
-357,-314,0,0,0,0,0,0,0,0,0,-1,867,1338,0,0
-350,-314,0,0,0,0,0,0,0,0,0,-1,874,1338,0,0
-343,-314,0,0,0,0,0,0,0,0,0,-1,881,1338,0,0
-336,-314,0,0,0,0,0,0,0,0,0,-1,888,1338,0,0
-329,-314,0,0,0,0,0,0,0,0,0,-1,895,1338,0,0
-322,-314,0,0,0,0,0,0,0,0,0,-1,902,1338,0,0
-315,-314,0,0,0,0,0,0,0,0,0,-1,909,1338,0,0
-308,-314,0,0,0,0,0,0,0,0,0,-1,916,1338,0,0
-301,-314,0,0,0,0,0,0,0,0,0,-1,923,1338,0,0
-294,-314,0,0,0,0,0,0,0,0,0,-1,930,1338,0,0
-287,-314,0,0,0,0,0,0,0,0,0,-1,937,1338,0,0
-280,-314,0,0,0,0,0,0,0,0,0,-1,944,1338,0,0
-273,-314,0,0,0,0,0,0,0,0,0,-1,951,1338,0,0
-266,-314,0,0,0,0,0,0,0,0,0,-1,958,1338,0,0
-259,-314,0,0,0,0,0,0,0,0,0,-1,965,1338,0,0
-252,-314,0,0,0,0,0,0,0,0,0,-1,972,1338,0,0
-245,-314,0,0,0,0,0,0,0,0,0,-1,979,1338,0,0
-238,-314,0,0,0,0,0,0,0,0,0,-1,986,1338,0,0
-231,-314,0,0,0,0,0,0,0,0,0,-1,993,1338,0,0
-224,-314,0,0,0,0,0,0,0,0,0,-1,1000,1338,0,0
-217,-314,0,0,0,0,0,0,0,0,0,-1,1007,1338,0,0
-210,-314,0,0,0,0,0,0,0,0,0,-1,1014,1338,0,0
-203,-314,0,0,0,0,0,0,0,0,0,-1,1021,1338,0,0
-196,-314,0,0,0,0,0,0,0,0,0,-1,1028,1338,0,0
-189,-314,0,0,0,0,0,0,0,0,0,-1,1035,1338,0,0
-182,-314,0,0,0,0,0,0,0,0,0,-1,1042,1338,0,0
-175,-314,0,0,0,0,0,0,0,0,0,-1,1049,1338,0,0
-168,-314,0,0,0,0,0,0,0,0,0,-1,1056,1338,0,0
-161,-314,0,0,0,0,0,0,0,0,0,-1,1063,1338,0,0
-154,-314,0,0,0,0,0,0,0,0,0,-1,1070,1338,0,0
-147,-314,0,0,0,0,0,0,0,0,0,-1,1077,1338,0,0
-140,-314,0,0,0,0,0,0,0,0,0,-1,1084,1338,0,0
-133,-314,0,0,0,0,0,0,0,0,0,-1,1091,1338,0,0
-126,-314,0,0,0,0,0,0,0,0,0,-1,1098,1338,0,0
-119,-314,0,0,0,0,0,0,0,0,0,-1,1105,1338,0,0
-112,-314,0,0,0,0,0,0,0,0,0,-1,1112,1338,0,0
-105,-314,0,0,0,0,0,0,0,0,0,-1,1119,1338,0,0
-98,-314,0,0,0,0,0,0,0,0,0,-1,1126,1338,0,0
-91,-314,0,0,0,0,0,0,0,0,0,-1,1133,1338,0,0
-84,-314,0,0,0,0,0,0,0,0,0,-1,1140,1338,0,0
-77,-314,0,0,0,0,0,0,0,0,0,-1,1147,1338,0,0
-70,-314,0,0,0,0,0,0,0,0,0,-1,1154,1338,0,0
-63,-314,0,0,0,0,0,0,0,0,0,-1,1161,1338,0,0
-56,-314,0,0,0,0,0,0,0,0,0,-1,1168,1338,0,0
-49,-314,0,0,0,0,0,0,0,0,0,-1,1175,1338,0,0
-42,-314,0,0,0,0,0,0,0,0,0,-1,1182,1338,0,0
-35,-314,0,0,0,0,0,0,0,0,0,-1,1189,1338,0,0
-28,-314,0,0,0,0,0,0,0,0,0,-1,1196,1338,0,0
-21,-314,0,0,0,0,0,0,0,0,0,-1,1203,1338,0,0
-14,-314,0,0,0,0,0,0,0,0,0,-1,1210,1338,0,0
-7,-314,0,0,0,0,0,0,0,0,0,-1,1217,1338,0,0
0,-314,0,0,0,0,0,0,0,0,0,-1,1224,1338,0,0
7,-314,0,0,0,0,0,0,0,0,0,-1,1231,1338,0,0
14,-314,0,0,0,0,0,0,0,0,0,-1,1238,1338,0,0
21,-314,0,0,0,0,0,0,0,0,0,-1,1245,1338,0,0
28,-314,0,0,0,0,0,0,0,0,0,-1,1252,1338,0,0
35,-314,0,0,0,0,0,0,0,0,0,-1,1259,1338,0,0
42,-314,0,0,0,0,0,0,0,0,0,-1,1266,1338,0,0
49,-314,0,0,0,0,0,0,0,0,0,-1,1273,1338,0,0
56,-314,0,0,0,0,0,0,0,0,0,-1,1280,1338,0,0
63,-314,0,0,0,0,0,0,0,0,0,-1,1287,1338,0,0
70,-314,0,0,0,0,0,0,0,0,0,-1,1294,1338,0,0
77,-314,0,0,0,0,0,0,0,0,0,-1,1301,1338,0,0
84,-314,0,0,0,0,0,0,0,0,0,-1,1308,1338,0,0
91,-314,0,0,0,0,0,0,0,0,0,-1,1315,1338,0,0
98,-314,0,0,0,0,0,0,0,0,0,-1,1322,1338,0,0
105,-314,0,0,0,0,0,0,0,0,0,-1,1329,1338,0,0
112,-314,0,0,0,0,0,0,0,0,0,-1,1336,1338,0,0
119,-314,0,0,0,0,0,0,0,0,0,-1,1343,1338,0,0
126,-314,0,0,0,0,0,0,0,0,0,-1,1350,1338,0,0
133,-314,0,0,0,0,0,0,0,0,0,-1,1357,1338,0,0
140,-314,0,0,0,0,0,0,0,0,0,-1,1364,1338,0,0
147,-314,0,0,0,0,0,0,0,0,0,-1,1371,1338,0,0
154,-314,0,0,0,0,0,0,0,0,0,-1,1378,1338,0,0
161,-314,0,0,0,0,0,0,0,0,0,-1,1385,1338,0,0
168,-314,0,0,0,0,0,0,0,0,0,-1,1392,1338,0,0
175,-314,0,0,0,0,0,0,0,0,0,-1,1399,1338,0,0
182,-314,0,0,0,0,0,0,0,0,0,-1,1406,1338,0,0
189,-314,0,0,0,0,0,0,0,0,0,-1,1413,1338,0,0
196,-314,0,0,0,0,0,0,0,0,0,-1,1420,1338,0,0
203,-314,0,0,0,0,0,0,0,0,0,-1,1427,1338,0,0
210,-314,0,0,0,0,0,0,0,0,0,-1,1434,1338,0,0
217,-314,0,0,0,0,0,0,0,0,0,-1,1441,1338,0,0
224,-314,0,0,0,0,0,0,0,0,0,-1,1448,1338,0,0
231,-314,0,0,0,0,0,0,0,0,0,-1,1455,1338,0,0
238,-314,0,0,0,0,0,0,0,0,0,-1,1462,1338,0,0
245,-314,0,0,0,0,0,0,0,0,0,-1,1469,1338,0,0
252,-314,0,0,0,0,0,0,0,0,0,-1,1476,1338,0,0
259,-314,0,0,0,0,0,0,0,0,0,-1,1483,1338,0,0
266,-314,0,0,0,0,0,0,0,0,0,-1,1490,1338,0,0
273,-314,0,0,0,0,0,0,0,0,0,-1,1497,1338,0,0
280,-314,0,0,0,0,0,0,0,0,0,-1,1504,1338,0,0
287,-314,0,0,0,0,0,0,0,0,0,-1,1511,1338,0,0
294,-314,0,0,0,0,0,0,0,0,0,-1,1518,1338,0,0
301,-314,0,0,0,0,0,0,0,0,0,-1,1525,1338,0,0
308,-314,0,0,0,0,0,0,0,0,0,-1,1532,1338,0,0
315,-314,0,0,0,0,0,0,0,0,0,-1,1539,1338,0,0
322,-314,0,0,0,0,0,0,0,0,0,-1,1546,1338,0,0
329,-314,0,0,0,0,0,0,0,0,0,-1,1553,1338,0,0
336,-314,0,0,0,0,0,0,0,0,0,-1,1560,1338,0,0
343,-314,0,0,0,0,0,0,0,0,0,-1,1567,1338,0,0
350,-314,0,0,0,0,0,0,0,0,0,-1,1574,1338,0,0
357,-314,0,0,0,0,0,0,0,0,0,-1,1581,1338,0,0
364,-314,0,0,0,0,0,0,0,0,0,-1,1588,1338,0,0
371,-314,0,0,0,0,0,0,0,0,0,-1,1595,1338,0,0
378,-314,0,0,0,0,0,0,0,0,0,-1,1602,1338,0,0
385,-314,0,0,0,0,0,0,0,0,0,-1,1609,1338,0,0
392,-314,0,0,0,0,0,0,0,0,0,-1,1616,1338,0,0
399,-314,0,0,0,0,0,0,0,0,0,-1,1623,1338,0,0
406,-314,0,0,0,0,0,0,0,0,0,-1,1630,1338,0,0
413,-314,0,0,0,0,0,0,0,0,0,-1,1637,1338,0,0
420,-314,0,0,0,0,0,0,0,0,0,-1,1644,1338,0,0
427,-314,0,0,0,0,0,0,0,0,0,-1,1651,1338,0,0
434,-314,0,0,0,0,0,0,0,0,0,-1,1658,1338,0,0
441,-314,0,0,0,0,0,0,0,0,0,-1,1665,1338,0,0
448,-314,0,0,0,0,0,0,0,0,0,-1,1672,1338,0,0
455,-314,0,0,0,0,0,0,0,0,0,-1,1679,1338,0,0
462,-314,0,0,0,0,0,0,0,0,0,-1,1686,1338,0,0
469,-314,0,0,0,0,0,0,0,0,0,-1,1693,1338,0,0
476,-314,0,0,0,0,0,0,0,0,0,-1,1700,1338,0,0
483,-314,0,0,0,0,0,0,0,0,0,-1,1707,1338,0,0
490,-314,0,0,0,0,0,0,0,0,0,-1,1714,1338,0,0
497,-314,0,0,0,0,0,0,0,0,0,-1,1721,1338,0,0
504,-314,0,0,0,0,0,0,0,0,0,-1,1728,1338,0,0
511,-314,0,0,0,0,0,0,0,0,0,-1,1735,1338,0,0
518,-314,0,0,0,0,0,0,0,0,0,-1,1742,1338,0,0
525,-314,0,0,0,0,0,0,0,0,0,-1,1749,1338,0,0
532,-314,0,0,0,0,0,0,0,0,0,-1,1756,1338,0,0
539,-314,0,0,0,0,0,0,0,0,0,-1,1763,1338,0,0
546,-314,0,0,0,0,0,0,0,0,0,-1,1770,1338,0,0
553,-314,0,0,0,0,0,0,0,0,0,-1,1777,1338,0,0
560,-314,0,0,0,0,0,0,0,0,0,-1,1784,1338,0,0
567,-314,0,0,0,0,0,0,0,0,0,-1,1791,1338,0,0
574,-314,0,0,0,0,0,0,0,0,0,-1,1798,1338,0,0
581,-314,36.686,4.62939,-0.0660309,0.019793,-0.0708696,0.0597299,-0.105968,-1.05763,0.0968993,0.04803,1805,1338,36.686,-4.62936
588,-314,36.0205,4.11438,-0.0744624,0.00928853,-0.0662583,0.0457949,-0.110969,-1.06721,0.0930783,0.0468248,1812,1338,36.0205,-4.11443
595,-314,35.2052,3.68115,-0.0789148,0.0011067,-0.0614331,0.0344095,-0.112218,-1.07404,0.0885392,0.0466004,1819,1338,35.2052,-3.68111
602,-314,34.16,3.12659,0,0,0,0,0,0,0,-1,1826,1338,34.16,-3.12663
609,-314,32.7661,2.88318,-0.0597301,-0.000850069,-0.0460271,0.0243469,-0.0849271,-1.06992,0.0662423,0.0404797,1833,1338,32.7661,-2.88314
616,-314,32.5657,2.70508,0,0,0,0,0,0,0,-1,1840,1338,32.5657,-2.70511
623,-314,32.9822,2.1814,0,0,0,0,0,0,0,-1,1847,1338,32.9821,-2.18144
630,-314,29.4308,6.23206,0,0,0,0,0,0,0,-1,1854,1338,29.4308,-6.23202
637,-314,22.1349,5.16418,0,0,0,0,0,0,0,-1,1861,1338,22.1349,-5.16414
644,-314,18.7517,6.2605,0,0,0,0,0,0,0,-1,1868,1338,18.7517,-6.26053
651,-314,23.1317,8.005,0,0,0,0,0,0,0,-1,1875,1338,23.1317,-8.00506
658,-314,23.5194,9.10608,0,0,0,0,0,0,0,-1,1882,1338,23.5194,-9.10606
665,-314,23.4971,8.79761,0.000827966,0.003889,-0.0031225,0.00583591,-0.00111894,-1.01327,0.00431225,0.0201086,1889,1338,23.4971,-8.79766
672,-314,23.5197,8.47241,0.000513557,0.00225818,-0.00113345,0.00281613,-4.43917e-05,-1.11336,0.00189239,0.0120777,1896,1338,23.5197,-8.47242
679,-314,23.5114,8.1167,-0.000364317,0.000450603,-0.000149177,0.000477053,-0.000390766,-1.39532,0.00050186,0.00982335,1903,1338,23.5113,-8.11669
686,-314,23.4775,7.78088,-0.000165141,-0.000343664,0.000289625,4.86654e-05,-0.00055747,0.635919,0.000388885,0.0114291,1910,1338,23.4775,-7.78084
693,-314,23.4598,7.43787,-2.2556e-05,-0.000389662,0.000253618,0.000106963,-0.000519181,0.472158,0.000386737,0.0118559,1917,1338,23.4598,-7.43787
700,-314,23.464,7.08752,-3.89405e-05,-0.000266889,0.00041745,0.000279814,-0.000585644,0.652134,0.000509966,0.0129878,1924,1338,23.464,-7.08754
707,-314,23.4692,6.77637,-0.000186822,-0.000144308,0.00062878,0.000463574,-0.000794704,0.802295,0.000734805,0.0126562,1931,1338,23.4693,-6.77642
714,-314,23.4683,6.47546,-0.000526417,-5.73855e-05,0.000918484,0.000656049,-0.00123985,0.910392,0.00111176,0.010929,1938,1338,23.4682,-6.47542
721,-314,23.4635,6.18054,-0.00122874,2.56703e-05,0.00145289,0.000980952,-0.00218402,0.989162,0.00187078,0.0209897,1945,1338,23.4636,-6.18055
728,-314,23.5155,5.90442,0,0,0,0,0,0,0,-1,1952,1338,23.5155,-5.90445
735,-314,23.3928,5.81848,0,0,0,0,0,0,0,-1,1959,1338,23.3928,-5.81848
742,-314,23.7748,5.55237,0,0,0,0,0,0,0,-1,1966,1338,23.7747,-5.55242
749,-314,24.0056,5.18274,0,0,0,0,0,0,0,-1,1973,1338,24.0056,-5.18273
756,-314,22.6415,3.70679,0,0,0,0,0,0,0,-1,1980,1338,22.6415,-3.70679
763,-314,19.2207,4.07239,0,0,0,0,0,0,0,-1,1987,1338,19.2206,-4.07239
770,-314,0,0,0,0,0,0,0,0,0,-1,1994,1338,0,0
777,-314,0,0,0,0,0,0,0,0,0,-1,2001,1338,0,0
784,-314,0,0,0,0,0,0,0,0,0,-1,2008,1338,0,0
791,-314,0,0,0,0,0,0,0,0,0,-1,2015,1338,0,0
798,-314,0,0,0,0,0,0,0,0,0,-1,2022,1338,0,0
805,-314,0,0,0,0,0,0,0,0,0,-1,2029,1338,0,0
812,-314,0,0,0,0,0,0,0,0,0,-1,2036,1338,0,0
-700,-321,0,0,0,0,0,0,0,0,0,-1,524,1345,0,0
-693,-321,0,0,0,0,0,0,0,0,0,-1,531,1345,0,0
-686,-321,0,0,0,0,0,0,0,0,0,-1,538,1345,0,0
-679,-321,0,0,0,0,0,0,0,0,0,-1,545,1345,0,0
-672,-321,0,0,0,0,0,0,0,0,0,-1,552,1345,0,0
-665,-321,0,0,0,0,0,0,0,0,0,-1,559,1345,0,0
-658,-321,0,0,0,0,0,0,0,0,0,-1,566,1345,0,0
-651,-321,0,0,0,0,0,0,0,0,0,-1,573,1345,0,0
-644,-321,-10.9585,-1.48376,0,0,0,0,0,0,0,-1,580,1345,-10.9585,1.48374
-637,-321,-13.3991,3.59241,0,0,0,0,0,0,0,-1,587,1345,-13.3991,-3.59236
-630,-321,-13.2958,3.65039,0,0,0,0,0,0,0,-1,594,1345,-13.2958,-3.65042
-623,-321,-13.2242,3.14148,0,0,0,0,0,0,0,-1,601,1345,-13.2243,-3.14146
-616,-321,-11.6754,3.13794,0,0,0,0,0,0,0,-1,608,1345,-11.6754,-3.13789
-609,-321,-7.95209,1.14758,0,0,0,0,0,0,0,-1,615,1345,-7.95208,-1.14757
-602,-321,-8.85791,2.50049,0,0,0,0,0,0,0,-1,622,1345,-8.85791,-2.50048
-595,-321,-12.6077,3.23511,0,0,0,0,0,0,0,-1,629,1345,-12.6077,-3.23513
-588,-321,-12.3423,3.68481,-0.00181762,-0.00254475,-0.000762311,-0.00133661,-0.00302575,-0.56289,0.00175087,0.0329862,636,1345,-12.3423,-3.68484
-581,-321,-12.2801,4.16614,-0.00135018,-0.00117767,-0.000306148,-0.00094586,-0.00158199,-0.922708,0.00091918,0.0128609,643,1345,-12.2801,-4.16609
-574,-321,-12.2993,4.50903,-0.0005759,-0.000497286,-4.35924e-05,-0.000477896,-0.00059529,-1.15227,0.000364093,0.0143543,650,1345,-12.2993,-4.50902
-567,-321,-12.2882,4.88025,0.000323338,-0.00014853,0.000172688,0.000379784,-0.000204976,0.315918,0.000342603,0.0195567,657,1345,-12.2882,-4.88026
-560,-321,-12.275,5.2887,0.00136294,0.000237799,0.000526706,0.00157102,2.97165e-05,0.376243,0.00103758,0.0241014,664,1345,-12.275,-5.28871
-553,-321,-12.3059,5.66187,0.00259758,0.00010113,0.000723764,0.00279223,-9.35248e-05,0.26273,0.00189343,0.0262711,671,1345,-12.3059,-5.66187
-546,-321,-12.3433,6.03674,0.00404922,-4.35337e-05,0.00102035,0.00428949,-0.00028381,0.23127,0.0029588,0.0267925,678,1345,-12.3432,-6.03677
-539,-321,-12.3668,6.40051,0.00566102,-0.00018234,0.00145245,0.00600214,-0.000523456,0.230674,0.00418683,0.0244698,685,1345,-12.3668,-6.4005
-532,-321,-12.2585,6.76746,0.00767876,-0.000259097,0.00206082,0.0081819,-0.000762234,0.23946,0.00572561,0.0255179,692,1345,-12.2585,-6.76743
-525,-321,-12.2648,7.24329,0,0,0,0,0,0,0,-1,699,1345,-12.2648,-7.24329
-518,-321,-10.3564,6.75696,0,0,0,0,0,0,0,-1,706,1345,-10.3564,-6.75694
-511,-321,-9.3302,5.29297,0,0,0,0,0,0,0,-1,713,1345,-9.33023,-5.29294
-504,-321,-10.4713,0.0145264,0,0,0,0,0,0,0,-1,720,1345,-10.4713,-0.0145296
-497,-321,-9.96771,0.313599,0,0,0,0,0,0,0,-1,727,1345,-9.96769,-0.313618
-490,-321,-10.7631,0.973511,0,0,0,0,0,0,0,-1,734,1345,-10.7631,-0.97353
-483,-321,-17.5908,0.2323,0,0,0,0,0,0,0,-1,741,1345,-17.5908,-0.232355
-476,-321,-17.2915,0.297363,0,0,0,0,0,0,0,-1,748,1345,-17.2915,-0.297342
-469,-321,-17.2441,0.478027,0,0,0,0,0,0,0,-1,755,1345,-17.2441,-0.477994
-462,-321,-17.1672,0.526489,0,0,0,0,0,0,0,-1,762,1345,-17.1672,-0.526533
-455,-321,0,0,0,0,0,0,0,0,0,-1,769,1345,0,0
-448,-321,0,0,0,0,0,0,0,0,0,-1,776,1345,0,0
-441,-321,0,0,0,0,0,0,0,0,0,-1,783,1345,0,0
-434,-321,0,0,0,0,0,0,0,0,0,-1,790,1345,0,0
-427,-321,0,0,0,0,0,0,0,0,0,-1,797,1345,0,0
-420,-321,0,0,0,0,0,0,0,0,0,-1,804,1345,0,0
-413,-321,0,0,0,0,0,0,0,0,0,-1,811,1345,0,0
-406,-321,0,0,0,0,0,0,0,0,0,-1,818,1345,0,0
-399,-321,0,0,0,0,0,0,0,0,0,-1,825,1345,0,0
-392,-321,0,0,0,0,0,0,0,0,0,-1,832,1345,0,0
-385,-321,0,0,0,0,0,0,0,0,0,-1,839,1345,0,0
-378,-321,0,0,0,0,0,0,0,0,0,-1,846,1345,0,0
-371,-321,0,0,0,0,0,0,0,0,0,-1,853,1345,0,0
-364,-321,0,0,0,0,0,0,0,0,0,-1,860,1345,0,0
-357,-321,0,0,0,0,0,0,0,0,0,-1,867,1345,0,0
-350,-321,0,0,0,0,0,0,0,0,0,-1,874,1345,0,0
-343,-321,0,0,0,0,0,0,0,0,0,-1,881,1345,0,0
-336,-321,0,0,0,0,0,0,0,0,0,-1,888,1345,0,0
-329,-321,0,0,0,0,0,0,0,0,0,-1,895,1345,0,0
-322,-321,0,0,0,0,0,0,0,0,0,-1,902,1345,0,0
-315,-321,0,0,0,0,0,0,0,0,0,-1,909,1345,0,0
-308,-321,0,0,0,0,0,0,0,0,0,-1,916,1345,0,0
-301,-321,0,0,0,0,0,0,0,0,0,-1,923,1345,0,0
-294,-321,0,0,0,0,0,0,0,0,0,-1,930,1345,0,0
-287,-321,0,0,0,0,0,0,0,0,0,-1,937,1345,0,0
-280,-321,0,0,0,0,0,0,0,0,0,-1,944,1345,0,0
-273,-321,0,0,0,0,0,0,0,0,0,-1,951,1345,0,0
-266,-321,0,0,0,0,0,0,0,0,0,-1,958,1345,0,0
-259,-321,0,0,0,0,0,0,0,0,0,-1,965,1345,0,0
-252,-321,0,0,0,0,0,0,0,0,0,-1,972,1345,0,0
-245,-321,0,0,0,0,0,0,0,0,0,-1,979,1345,0,0
-238,-321,0,0,0,0,0,0,0,0,0,-1,986,1345,0,0
-231,-321,0,0,0,0,0,0,0,0,0,-1,993,1345,0,0
-224,-321,0,0,0,0,0,0,0,0,0,-1,1000,1345,0,0
-217,-321,0,0,0,0,0,0,0,0,0,-1,1007,1345,0,0
-210,-321,0,0,0,0,0,0,0,0,0,-1,1014,1345,0,0
-203,-321,0,0,0,0,0,0,0,0,0,-1,1021,1345,0,0
-196,-321,0,0,0,0,0,0,0,0,0,-1,1028,1345,0,0
-189,-321,0,0,0,0,0,0,0,0,0,-1,1035,1345,0,0
-182,-321,0,0,0,0,0,0,0,0,0,-1,1042,1345,0,0
-175,-321,0,0,0,0,0,0,0,0,0,-1,1049,1345,0,0
-168,-321,0,0,0,0,0,0,0,0,0,-1,1056,1345,0,0
-161,-321,0,0,0,0,0,0,0,0,0,-1,1063,1345,0,0
-154,-321,0,0,0,0,0,0,0,0,0,-1,1070,1345,0,0
-147,-321,0,0,0,0,0,0,0,0,0,-1,1077,1345,0,0
-140,-321,0,0,0,0,0,0,0,0,0,-1,1084,1345,0,0
-133,-321,0,0,0,0,0,0,0,0,0,-1,1091,1345,0,0
-126,-321,0,0,0,0,0,0,0,0,0,-1,1098,1345,0,0
-119,-321,0,0,0,0,0,0,0,0,0,-1,1105,1345,0,0
-112,-321,0,0,0,0,0,0,0,0,0,-1,1112,1345,0,0
-105,-321,0,0,0,0,0,0,0,0,0,-1,1119,1345,0,0
-98,-321,0,0,0,0,0,0,0,0,0,-1,1126,1345,0,0
-91,-321,0,0,0,0,0,0,0,0,0,-1,1133,1345,0,0
-84,-321,0,0,0,0,0,0,0,0,0,-1,1140,1345,0,0
-77,-321,0,0,0,0,0,0,0,0,0,-1,1147,1345,0,0
-70,-321,0,0,0,0,0,0,0,0,0,-1,1154,1345,0,0
-63,-321,0,0,0,0,0,0,0,0,0,-1,1161,1345,0,0
-56,-321,0,0,0,0,0,0,0,0,0,-1,1168,1345,0,0
-49,-321,0,0,0,0,0,0,0,0,0,-1,1175,1345,0,0
-42,-321,0,0,0,0,0,0,0,0,0,-1,1182,1345,0,0
-35,-321,0,0,0,0,0,0,0,0,0,-1,1189,1345,0,0
-28,-321,0,0,0,0,0,0,0,0,0,-1,1196,1345,0,0
-21,-321,0,0,0,0,0,0,0,0,0,-1,1203,1345,0,0
-14,-321,0,0,0,0,0,0,0,0,0,-1,1210,1345,0,0
-7,-321,0,0,0,0,0,0,0,0,0,-1,1217,1345,0,0
0,-321,0,0,0,0,0,0,0,0,0,-1,1224,1345,0,0
7,-321,0,0,0,0,0,0,0,0,0,-1,1231,1345,0,0
14,-321,0,0,0,0,0,0,0,0,0,-1,1238,1345,0,0
21,-321,0,0,0,0,0,0,0,0,0,-1,1245,1345,0,0
28,-321,0,0,0,0,0,0,0,0,0,-1,1252,1345,0,0
35,-321,0,0,0,0,0,0,0,0,0,-1,1259,1345,0,0
42,-321,0,0,0,0,0,0,0,0,0,-1,1266,1345,0,0
49,-321,0,0,0,0,0,0,0,0,0,-1,1273,1345,0,0
56,-321,0,0,0,0,0,0,0,0,0,-1,1280,1345,0,0
63,-321,0,0,0,0,0,0,0,0,0,-1,1287,1345,0,0
70,-321,0,0,0,0,0,0,0,0,0,-1,1294,1345,0,0
77,-321,0,0,0,0,0,0,0,0,0,-1,1301,1345,0,0
84,-321,0,0,0,0,0,0,0,0,0,-1,1308,1345,0,0
91,-321,0,0,0,0,0,0,0,0,0,-1,1315,1345,0,0
98,-321,0,0,0,0,0,0,0,0,0,-1,1322,1345,0,0
105,-321,0,0,0,0,0,0,0,0,0,-1,1329,1345,0,0
112,-321,0,0,0,0,0,0,0,0,0,-1,1336,1345,0,0
119,-321,0,0,0,0,0,0,0,0,0,-1,1343,1345,0,0
126,-321,0,0,0,0,0,0,0,0,0,-1,1350,1345,0,0
133,-321,0,0,0,0,0,0,0,0,0,-1,1357,1345,0,0
140,-321,0,0,0,0,0,0,0,0,0,-1,1364,1345,0,0
147,-321,0,0,0,0,0,0,0,0,0,-1,1371,1345,0,0
154,-321,0,0,0,0,0,0,0,0,0,-1,1378,1345,0,0
161,-321,0,0,0,0,0,0,0,0,0,-1,1385,1345,0,0
168,-321,0,0,0,0,0,0,0,0,0,-1,1392,1345,0,0
175,-321,0,0,0,0,0,0,0,0,0,-1,1399,1345,0,0
182,-321,0,0,0,0,0,0,0,0,0,-1,1406,1345,0,0
189,-321,0,0,0,0,0,0,0,0,0,-1,1413,1345,0,0
196,-321,0,0,0,0,0,0,0,0,0,-1,1420,1345,0,0
203,-321,0,0,0,0,0,0,0,0,0,-1,1427,1345,0,0
210,-321,0,0,0,0,0,0,0,0,0,-1,1434,1345,0,0
217,-321,0,0,0,0,0,0,0,0,0,-1,1441,1345,0,0
224,-321,0,0,0,0,0,0,0,0,0,-1,1448,1345,0,0
231,-321,0,0,0,0,0,0,0,0,0,-1,1455,1345,0,0
238,-321,0,0,0,0,0,0,0,0,0,-1,1462,1345,0,0
245,-321,0,0,0,0,0,0,0,0,0,-1,1469,1345,0,0
252,-321,0,0,0,0,0,0,0,0,0,-1,1476,1345,0,0
259,-321,0,0,0,0,0,0,0,0,0,-1,1483,1345,0,0
266,-321,0,0,0,0,0,0,0,0,0,-1,1490,1345,0,0
273,-321,0,0,0,0,0,0,0,0,0,-1,1497,1345,0,0
280,-321,0,0,0,0,0,0,0,0,0,-1,1504,1345,0,0
287,-321,0,0,0,0,0,0,0,0,0,-1,1511,1345,0,0
294,-321,0,0,0,0,0,0,0,0,0,-1,1518,1345,0,0
301,-321,0,0,0,0,0,0,0,0,0,-1,1525,1345,0,0
308,-321,0,0,0,0,0,0,0,0,0,-1,1532,1345,0,0
315,-321,0,0,0,0,0,0,0,0,0,-1,1539,1345,0,0
322,-321,0,0,0,0,0,0,0,0,0,-1,1546,1345,0,0
329,-321,0,0,0,0,0,0,0,0,0,-1,1553,1345,0,0
336,-321,0,0,0,0,0,0,0,0,0,-1,1560,1345,0,0
343,-321,0,0,0,0,0,0,0,0,0,-1,1567,1345,0,0
350,-321,0,0,0,0,0,0,0,0,0,-1,1574,1345,0,0
357,-321,0,0,0,0,0,0,0,0,0,-1,1581,1345,0,0
364,-321,0,0,0,0,0,0,0,0,0,-1,1588,1345,0,0
371,-321,0,0,0,0,0,0,0,0,0,-1,1595,1345,0,0
378,-321,0,0,0,0,0,0,0,0,0,-1,1602,1345,0,0
385,-321,0,0,0,0,0,0,0,0,0,-1,1609,1345,0,0
392,-321,0,0,0,0,0,0,0,0,0,-1,1616,1345,0,0
399,-321,0,0,0,0,0,0,0,0,0,-1,1623,1345,0,0
406,-321,0,0,0,0,0,0,0,0,0,-1,1630,1345,0,0
413,-321,0,0,0,0,0,0,0,0,0,-1,1637,1345,0,0
420,-321,0,0,0,0,0,0,0,0,0,-1,1644,1345,0,0
427,-321,0,0,0,0,0,0,0,0,0,-1,1651,1345,0,0
434,-321,0,0,0,0,0,0,0,0,0,-1,1658,1345,0,0
441,-321,0,0,0,0,0,0,0,0,0,-1,1665,1345,0,0
448,-321,0,0,0,0,0,0,0,0,0,-1,1672,1345,0,0
455,-321,0,0,0,0,0,0,0,0,0,-1,1679,1345,0,0
462,-321,0,0,0,0,0,0,0,0,0,-1,1686,1345,0,0
469,-321,0,0,0,0,0,0,0,0,0,-1,1693,1345,0,0
476,-321,0,0,0,0,0,0,0,0,0,-1,1700,1345,0,0
483,-321,0,0,0,0,0,0,0,0,0,-1,1707,1345,0,0
490,-321,0,0,0,0,0,0,0,0,0,-1,1714,1345,0,0
497,-321,0,0,0,0,0,0,0,0,0,-1,1721,1345,0,0
504,-321,0,0,0,0,0,0,0,0,0,-1,1728,1345,0,0
511,-321,0,0,0,0,0,0,0,0,0,-1,1735,1345,0,0
518,-321,0,0,0,0,0,0,0,0,0,-1,1742,1345,0,0
525,-321,0,0,0,0,0,0,0,0,0,-1,1749,1345,0,0
532,-321,0,0,0,0,0,0,0,0,0,-1,1756,1345,0,0
539,-321,0,0,0,0,0,0,0,0,0,-1,1763,1345,0,0
546,-321,0,0,0,0,0,0,0,0,0,-1,1770,1345,0,0
553,-321,0,0,0,0,0,0,0,0,0,-1,1777,1345,0,0
560,-321,0,0,0,0,0,0,0,0,0,-1,1784,1345,0,0
567,-321,0,0,0,0,0,0,0,0,0,-1,1791,1345,0,0
574,-321,0,0,0,0,0,0,0,0,0,-1,1798,1345,0,0
581,-321,37.0406,4.67432,-0.0790936,0.016009,-0.0774598,0.0593486,-0.122433,-1.06068,0.107038,0.0452268,1805,1345,37.0407,-4.67435
588,-321,36.5699,4.00403,-0.0898578,0.00401452,-0.0715774,0.0426723,-0.128516,-1.0756,0.102894,0.0477119,1812,1345,36.5699,-4.00399
595,-321,35.9705,3.57813,-0.0877035,-0.00187647,-0.0641773,0.032413,-0.121993,-1.08009,0.0940143,0.0478393,1819,1345,35.9704,-3.57814
602,-321,35.0625,3.13269,-0.0763358,-0.00282944,-0.0555513,0.0270263,-0.106192,-1.07764,0.0813142,0.0446938,1826,1345,35.0625,-3.13266
609,-321,33.6193,3.27307,-0.0638831,-0.0023555,-0.0474765,0.023453,-0.0896916,-1.07288,0.0689546,0.0435659,1833,1345,33.6193,-3.27311
616,-321,32.2021,3.75256,0,0,0,0,0,0,0,-1,1840,1345,32.2022,-3.7526
623,-321,29.0143,6.19641,0,0,0,0,0,0,0,-1,1847,1345,29.0142,-6.19642
630,-321,23.6674,4.34106,0,0,0,0,0,0,0,-1,1854,1345,23.6674,-4.34112
637,-321,21.7925,6.79224,0,0,0,0,0,0,0,-1,1861,1345,21.7925,-6.7922
644,-321,16.8844,6.71973,0,0,0,0,0,0,0,-1,1868,1345,16.8844,-6.71971
651,-321,23.2467,8.70581,0,0,0,0,0,0,0,-1,1875,1345,23.2467,-8.7058
658,-321,23.0874,9.12329,0,0,0,0,0,0,0,-1,1882,1345,23.0874,-9.12323
665,-321,23.1487,8.82202,0.000738703,0.00230884,-0.00306024,0.00468311,-0.00163556,-0.910959,0.00378688,0.0179789,1889,1345,23.1487,-8.822
672,-321,23.1899,8.46252,0.000511557,0.00110333,-0.00112637,0.00197203,-0.000357142,-0.913841,0.00144848,0.0132492,1896,1345,23.19,-8.46255
679,-321,23.1854,8.11072,-0.000124758,-2.92008e-05,-0.000273957,0.000201113,-0.000355072,-0.871731,0.000325188,0.0114075,1903,1345,23.1855,-8.11072
686,-321,23.1538,7.79065,6.9788e-05,-0.000407966,0.000124326,0.000100205,-0.000438383,0.23994,0.000330756,0.0117718,1910,1345,23.1539,-7.7907
693,-321,23.1395,7.47375,0.000191559,-0.000358851,0.000176811,0.000243462,-0.000410754,0.285531,0.000381806,0.0121321,1917,1345,23.1395,-7.47375
700,-321,23.1329,7.11108,0.000197105,-0.00026276,0.000319517,0.000360823,-0.000426477,0.47351,0.000455074,0.0118977,1924,1345,23.1329,-7.11107
707,-321,23.1394,6.79114,7.24468e-05,-0.000180719,0.000487987,0.000450001,-0.000558274,0.658496,0.000583245,0.0133114,1931,1345,23.1394,-6.79114
714,-321,23.1416,6.47644,-0.000243844,-0.00013447,0.000722849,0.000535757,-0.000914071,0.823154,0.000846505,0.0126786,1938,1345,23.1416,-6.47648
721,-321,23.094,6.1499,-0.000975886,-0.000116694,0.00124422,0.000770006,-0.00186259,0.951627,0.00156295,0.0321427,1945,1345,23.094,-6.14988
728,-321,23.0813,5.89795,0,0,0,0,0,0,0,-1,1952,1345,23.0813,-5.89794
735,-321,22.0081,5.65479,0,0,0,0,0,0,0,-1,1959,1345,22.008,-5.65481
742,-321,23.7252,5.56885,0,0,0,0,0,0,0,-1,1966,1345,23.7252,-5.56882
749,-321,21.9312,5.54041,0,0,0,0,0,0,0,-1,1973,1345,21.9312,-5.54043
756,-321,19.6251,4.98315,0,0,0,0,0,0,0,-1,1980,1345,19.6251,-4.98311
763,-321,19.6747,4.61438,0,0,0,0,0,0,0,-1,1987,1345,19.6747,-4.61436
770,-321,0,0,0,0,0,0,0,0,0,-1,1994,1345,0,0
777,-321,0,0,0,0,0,0,0,0,0,-1,2001,1345,0,0
784,-321,0,0,0,0,0,0,0,0,0,-1,2008,1345,0,0
791,-321,0,0,0,0,0,0,0,0,0,-1,2015,1345,0,0
798,-321,0,0,0,0,0,0,0,0,0,-1,2022,1345,0,0
805,-321,0,0,0,0,0,0,0,0,0,-1,2029,1345,0,0
812,-321,0,0,0,0,0,0,0,0,0,-1,2036,1345,0,0
-700,-328,0,0,0,0,0,0,0,0,0,-1,524,1352,0,0
-693,-328,0,0,0,0,0,0,0,0,0,-1,531,1352,0,0
-686,-328,0,0,0,0,0,0,0,0,0,-1,538,1352,0,0
-679,-328,0,0,0,0,0,0,0,0,0,-1,545,1352,0,0
-672,-328,0,0,0,0,0,0,0,0,0,-1,552,1352,0,0
-665,-328,0,0,0,0,0,0,0,0,0,-1,559,1352,0,0
-658,-328,0,0,0,0,0,0,0,0,0,-1,566,1352,0,0
-651,-328,0,0,0,0,0,0,0,0,0,-1,573,1352,0,0
-644,-328,0,0,0,0,0,0,0,0,0,-1,580,1352,0,0
-637,-328,-12.0695,1.02014,0,0,0,0,0,0,0,-1,587,1352,-12.0694,-1.02017
-630,-328,-13.3971,4.54578,0,0,0,0,0,0,0,-1,594,1352,-13.3971,-4.54572
-623,-328,-10.7739,4.55042,0,0,0,0,0,0,0,-1,601,1352,-10.7739,-4.55041
-616,-328,-8.22198,-0.25708,0,0,0,0,0,0,0,-1,608,1352,-8.22201,0.257067
-609,-328,-7.87439,0.192871,0,0,0,0,0,0,0,-1,615,1352,-7.87441,-0.192822
-602,-328,-7.63062,1.31665,0,0,0,0,0,0,0,-1,622,1352,-7.63064,-1.3166
-595,-328,-9.42639,2.93494,0,0,0,0,0,0,0,-1,629,1352,-9.42638,-2.93499
-588,-328,-12.0474,3.4231,0,0,0,0,0,0,0,-1,636,1352,-12.0474,-3.42312
-581,-328,-11.9207,4.13574,-0.00256364,-0.00106312,-0.000867805,-0.000666219,-0.00296054,-1.14184,0.00179336,0.0193947,643,1352,-11.9207,-4.13574
-574,-328,-11.9302,4.51904,-0.00165575,-0.000434222,-0.000563099,-0.000214256,-0.00187572,-1.19839,0.00118553,0.0137889,650,1352,-11.9303,-4.51899
-567,-328,-11.9351,4.89697,-0.000644928,-0.000124395,-0.000298122,1.10852e-05,-0.000780408,-1.14425,0.000524006,0.0181354,657,1352,-11.9351,-4.89692
-560,-328,-11.9239,5.32983,0.000497519,0.00019747,9.63712e-05,0.000525805,0.000169184,0.285496,0.000309937,0.0253209,664,1352,-11.9239,-5.32987
-553,-328,-11.9517,5.73535,0.00183998,5.83059e-05,0.000373072,0.00191495,-1.66589e-05,0.198298,0.00128222,0.0280808,671,1352,-11.9517,-5.73531
-546,-328,-11.9745,6.05627,0.00346096,-0.000110656,0.000773538,0.0036213,-0.000270991,0.20438,0.00250941,0.0279872,678,1352,-11.9745,-6.05632
-539,-328,-11.9548,6.38586,0.00520983,-0.000276886,0.00128881,0.00549749,-0.000564541,0.219596,0.00386693,0.024204,685,1352,-11.9548,-6.38591
-532,-328,-11.9214,6.77063,0.00732194,-0.000410806,0.00198932,0.0078037,-0.000892565,0.237598,0.00552407,0.0181461,692,1352,-11.9214,-6.77057
-525,-328,-11.9173,7.18311,0.0098527,-0.000625094,0.00284476,0.0105752,-0.00134763,0.24873,0.00753962,0.0211924,699,1352,-11.9173,-7.18316
-518,-328,-11.9935,7.4762,0,0,0,0,0,0,0,-1,706,1352,-11.9935,-7.47625
-511,-328,-9.39868,7.16113,0,0,0,0,0,0,0,-1,713,1352,-9.39869,-7.16113
-504,-328,-8.60626,-0.905762,0,0,0,0,0,0,0,-1,720,1352,-8.60623,0.905787
-497,-328,-9.29102,-0.0517578,0,0,0,0,0,0,0,-1,727,1352,-9.29104,0.0518175
-490,-328,-10.0663,0.882813,0,0,0,0,0,0,0,-1,734,1352,-10.0663,-0.882795
-483,-328,-10.8181,1.72375,0,0,0,0,0,0,0,-1,741,1352,-10.8181,-1.72374
-476,-328,-16.8951,-0.150757,0,0,0,0,0,0,0,-1,748,1352,-16.8951,0.150795
-469,-328,-16.8412,0.00158691,0,0,0,0,0,0,0,-1,755,1352,-16.8412,-0.00161515
-462,-328,-16.3546,-0.203491,0,0,0,0,0,0,0,-1,762,1352,-16.3545,0.203532
-455,-328,0,0,0,0,0,0,0,0,0,-1,769,1352,0,0
-448,-328,0,0,0,0,0,0,0,0,0,-1,776,1352,0,0
-441,-328,0,0,0,0,0,0,0,0,0,-1,783,1352,0,0
-434,-328,0,0,0,0,0,0,0,0,0,-1,790,1352,0,0
-427,-328,0,0,0,0,0,0,0,0,0,-1,797,1352,0,0
-420,-328,0,0,0,0,0,0,0,0,0,-1,804,1352,0,0
-413,-328,0,0,0,0,0,0,0,0,0,-1,811,1352,0,0
-406,-328,0,0,0,0,0,0,0,0,0,-1,818,1352,0,0
-399,-328,0,0,0,0,0,0,0,0,0,-1,825,1352,0,0
-392,-328,0,0,0,0,0,0,0,0,0,-1,832,1352,0,0
-385,-328,0,0,0,0,0,0,0,0,0,-1,839,1352,0,0
-378,-328,0,0,0,0,0,0,0,0,0,-1,846,1352,0,0
-371,-328,0,0,0,0,0,0,0,0,0,-1,853,1352,0,0
-364,-328,0,0,0,0,0,0,0,0,0,-1,860,1352,0,0
-357,-328,0,0,0,0,0,0,0,0,0,-1,867,1352,0,0
-350,-328,0,0,0,0,0,0,0,0,0,-1,874,1352,0,0
-343,-328,0,0,0,0,0,0,0,0,0,-1,881,1352,0,0
-336,-328,0,0,0,0,0,0,0,0,0,-1,888,1352,0,0
-329,-328,0,0,0,0,0,0,0,0,0,-1,895,1352,0,0
-322,-328,0,0,0,0,0,0,0,0,0,-1,902,1352,0,0
-315,-328,0,0,0,0,0,0,0,0,0,-1,909,1352,0,0
-308,-328,0,0,0,0,0,0,0,0,0,-1,916,1352,0,0
-301,-328,0,0,0,0,0,0,0,0,0,-1,923,1352,0,0
-294,-328,0,0,0,0,0,0,0,0,0,-1,930,1352,0,0
-287,-328,0,0,0,0,0,0,0,0,0,-1,937,1352,0,0
-280,-328,0,0,0,0,0,0,0,0,0,-1,944,1352,0,0
-273,-328,0,0,0,0,0,0,0,0,0,-1,951,1352,0,0
-266,-328,0,0,0,0,0,0,0,0,0,-1,958,1352,0,0
-259,-328,0,0,0,0,0,0,0,0,0,-1,965,1352,0,0
-252,-328,0,0,0,0,0,0,0,0,0,-1,972,1352,0,0
-245,-328,0,0,0,0,0,0,0,0,0,-1,979,1352,0,0
-238,-328,0,0,0,0,0,0,0,0,0,-1,986,1352,0,0
-231,-328,0,0,0,0,0,0,0,0,0,-1,993,1352,0,0
-224,-328,0,0,0,0,0,0,0,0,0,-1,1000,1352,0,0
-217,-328,0,0,0,0,0,0,0,0,0,-1,1007,1352,0,0
-210,-328,0,0,0,0,0,0,0,0,0,-1,1014,1352,0,0
-203,-328,0,0,0,0,0,0,0,0,0,-1,1021,1352,0,0
-196,-328,0,0,0,0,0,0,0,0,0,-1,1028,1352,0,0
-189,-328,0,0,0,0,0,0,0,0,0,-1,1035,1352,0,0
-182,-328,0,0,0,0,0,0,0,0,0,-1,1042,1352,0,0
-175,-328,0,0,0,0,0,0,0,0,0,-1,1049,1352,0,0
-168,-328,0,0,0,0,0,0,0,0,0,-1,1056,1352,0,0
-161,-328,0,0,0,0,0,0,0,0,0,-1,1063,1352,0,0
-154,-328,0,0,0,0,0,0,0,0,0,-1,1070,1352,0,0
-147,-328,0,0,0,0,0,0,0,0,0,-1,1077,1352,0,0
-140,-328,0,0,0,0,0,0,0,0,0,-1,1084,1352,0,0
-133,-328,0,0,0,0,0,0,0,0,0,-1,1091,1352,0,0
-126,-328,0,0,0,0,0,0,0,0,0,-1,1098,1352,0,0
-119,-328,0,0,0,0,0,0,0,0,0,-1,1105,1352,0,0
-112,-328,0,0,0,0,0,0,0,0,0,-1,1112,1352,0,0
-105,-328,0,0,0,0,0,0,0,0,0,-1,1119,1352,0,0
-98,-328,0,0,0,0,0,0,0,0,0,-1,1126,1352,0,0
-91,-328,0,0,0,0,0,0,0,0,0,-1,1133,1352,0,0
-84,-328,0,0,0,0,0,0,0,0,0,-1,1140,1352,0,0
-77,-328,0,0,0,0,0,0,0,0,0,-1,1147,1352,0,0
-70,-328,0,0,0,0,0,0,0,0,0,-1,1154,1352,0,0
-63,-328,0,0,0,0,0,0,0,0,0,-1,1161,1352,0,0
-56,-328,0,0,0,0,0,0,0,0,0,-1,1168,1352,0,0
-49,-328,0,0,0,0,0,0,0,0,0,-1,1175,1352,0,0
-42,-328,0,0,0,0,0,0,0,0,0,-1,1182,1352,0,0
-35,-328,0,0,0,0,0,0,0,0,0,-1,1189,1352,0,0
-28,-328,0,0,0,0,0,0,0,0,0,-1,1196,1352,0,0
-21,-328,0,0,0,0,0,0,0,0,0,-1,1203,1352,0,0
-14,-328,0,0,0,0,0,0,0,0,0,-1,1210,1352,0,0
-7,-328,0,0,0,0,0,0,0,0,0,-1,1217,1352,0,0
0,-328,0,0,0,0,0,0,0,0,0,-1,1224,1352,0,0
7,-328,0,0,0,0,0,0,0,0,0,-1,1231,1352,0,0
14,-328,0,0,0,0,0,0,0,0,0,-1,1238,1352,0,0
21,-328,0,0,0,0,0,0,0,0,0,-1,1245,1352,0,0
28,-328,0,0,0,0,0,0,0,0,0,-1,1252,1352,0,0
35,-328,0,0,0,0,0,0,0,0,0,-1,1259,1352,0,0
42,-328,0,0,0,0,0,0,0,0,0,-1,1266,1352,0,0
49,-328,0,0,0,0,0,0,0,0,0,-1,1273,1352,0,0
56,-328,0,0,0,0,0,0,0,0,0,-1,1280,1352,0,0
63,-328,0,0,0,0,0,0,0,0,0,-1,1287,1352,0,0
70,-328,0,0,0,0,0,0,0,0,0,-1,1294,1352,0,0
77,-328,0,0,0,0,0,0,0,0,0,-1,1301,1352,0,0
84,-328,0,0,0,0,0,0,0,0,0,-1,1308,1352,0,0
91,-328,0,0,0,0,0,0,0,0,0,-1,1315,1352,0,0
98,-328,0,0,0,0,0,0,0,0,0,-1,1322,1352,0,0
105,-328,0,0,0,0,0,0,0,0,0,-1,1329,1352,0,0
112,-328,0,0,0,0,0,0,0,0,0,-1,1336,1352,0,0
119,-328,0,0,0,0,0,0,0,0,0,-1,1343,1352,0,0
126,-328,0,0,0,0,0,0,0,0,0,-1,1350,1352,0,0
133,-328,0,0,0,0,0,0,0,0,0,-1,1357,1352,0,0
140,-328,0,0,0,0,0,0,0,0,0,-1,1364,1352,0,0
147,-328,0,0,0,0,0,0,0,0,0,-1,1371,1352,0,0
154,-328,0,0,0,0,0,0,0,0,0,-1,1378,1352,0,0
161,-328,0,0,0,0,0,0,0,0,0,-1,1385,1352,0,0
168,-328,0,0,0,0,0,0,0,0,0,-1,1392,1352,0,0
175,-328,0,0,0,0,0,0,0,0,0,-1,1399,1352,0,0
182,-328,0,0,0,0,0,0,0,0,0,-1,1406,1352,0,0
189,-328,0,0,0,0,0,0,0,0,0,-1,1413,1352,0,0
196,-328,0,0,0,0,0,0,0,0,0,-1,1420,1352,0,0
203,-328,0,0,0,0,0,0,0,0,0,-1,1427,1352,0,0
210,-328,0,0,0,0,0,0,0,0,0,-1,1434,1352,0,0
217,-328,0,0,0,0,0,0,0,0,0,-1,1441,1352,0,0
224,-328,0,0,0,0,0,0,0,0,0,-1,1448,1352,0,0
231,-328,0,0,0,0,0,0,0,0,0,-1,1455,1352,0,0
238,-328,0,0,0,0,0,0,0,0,0,-1,1462,1352,0,0
245,-328,0,0,0,0,0,0,0,0,0,-1,1469,1352,0,0
252,-328,0,0,0,0,0,0,0,0,0,-1,1476,1352,0,0
259,-328,0,0,0,0,0,0,0,0,0,-1,1483,1352,0,0
266,-328,0,0,0,0,0,0,0,0,0,-1,1490,1352,0,0
273,-328,0,0,0,0,0,0,0,0,0,-1,1497,1352,0,0
280,-328,0,0,0,0,0,0,0,0,0,-1,1504,1352,0,0
287,-328,0,0,0,0,0,0,0,0,0,-1,1511,1352,0,0
294,-328,0,0,0,0,0,0,0,0,0,-1,1518,1352,0,0
301,-328,0,0,0,0,0,0,0,0,0,-1,1525,1352,0,0
308,-328,0,0,0,0,0,0,0,0,0,-1,1532,1352,0,0
315,-328,0,0,0,0,0,0,0,0,0,-1,1539,1352,0,0
322,-328,0,0,0,0,0,0,0,0,0,-1,1546,1352,0,0
329,-328,0,0,0,0,0,0,0,0,0,-1,1553,1352,0,0
336,-328,0,0,0,0,0,0,0,0,0,-1,1560,1352,0,0
343,-328,0,0,0,0,0,0,0,0,0,-1,1567,1352,0,0
350,-328,0,0,0,0,0,0,0,0,0,-1,1574,1352,0,0
357,-328,0,0,0,0,0,0,0,0,0,-1,1581,1352,0,0
364,-328,0,0,0,0,0,0,0,0,0,-1,1588,1352,0,0
371,-328,0,0,0,0,0,0,0,0,0,-1,1595,1352,0,0
378,-328,0,0,0,0,0,0,0,0,0,-1,1602,1352,0,0
385,-328,0,0,0,0,0,0,0,0,0,-1,1609,1352,0,0
392,-328,0,0,0,0,0,0,0,0,0,-1,1616,1352,0,0
399,-328,0,0,0,0,0,0,0,0,0,-1,1623,1352,0,0
406,-328,0,0,0,0,0,0,0,0,0,-1,1630,1352,0,0
413,-328,0,0,0,0,0,0,0,0,0,-1,1637,1352,0,0
420,-328,0,0,0,0,0,0,0,0,0,-1,1644,1352,0,0
427,-328,0,0,0,0,0,0,0,0,0,-1,1651,1352,0,0
434,-328,0,0,0,0,0,0,0,0,0,-1,1658,1352,0,0
441,-328,0,0,0,0,0,0,0,0,0,-1,1665,1352,0,0
448,-328,0,0,0,0,0,0,0,0,0,-1,1672,1352,0,0
455,-328,0,0,0,0,0,0,0,0,0,-1,1679,1352,0,0
462,-328,0,0,0,0,0,0,0,0,0,-1,1686,1352,0,0
469,-328,0,0,0,0,0,0,0,0,0,-1,1693,1352,0,0
476,-328,0,0,0,0,0,0,0,0,0,-1,1700,1352,0,0
483,-328,0,0,0,0,0,0,0,0,0,-1,1707,1352,0,0
490,-328,0,0,0,0,0,0,0,0,0,-1,1714,1352,0,0
497,-328,0,0,0,0,0,0,0,0,0,-1,1721,1352,0,0
504,-328,0,0,0,0,0,0,0,0,0,-1,1728,1352,0,0
511,-328,0,0,0,0,0,0,0,0,0,-1,1735,1352,0,0
518,-328,0,0,0,0,0,0,0,0,0,-1,1742,1352,0,0
525,-328,0,0,0,0,0,0,0,0,0,-1,1749,1352,0,0
532,-328,0,0,0,0,0,0,0,0,0,-1,1756,1352,0,0
539,-328,0,0,0,0,0,0,0,0,0,-1,1763,1352,0,0
546,-328,0,0,0,0,0,0,0,0,0,-1,1770,1352,0,0
553,-328,0,0,0,0,0,0,0,0,0,-1,1777,1352,0,0
560,-328,0,0,0,0,0,0,0,0,0,-1,1784,1352,0,0
567,-328,0,0,0,0,0,0,0,0,0,-1,1791,1352,0,0
574,-328,38.0326,5.20129,-0.0779104,0.0262242,-0.0898909,0.0780385,-0.129725,-1.0479,0.121183,0.0452345,1798,1352,38.0325,-5.2013
581,-328,37.6632,4.45923,-0.0955783,0.0115688,-0.0818164,0.0557912,-0.139801,-1.07527,0.116345,0.0455207,1805,1352,37.6632,-4.45927
588,-328,37.5996,3.88257,0,0,0,0,0,0,0,-1,1812,1352,37.5996,-3.88261
595,-328,36.6719,3.52014,-0.0902667,-0.000678845,-0.0647833,0.0332888,-0.124234,-1.08788,0.0958654,0.0458245,1819,1352,36.6719,-3.52012
602,-328,35.7076,3.4563,-0.0783716,-0.0018262,-0.0560442,0.0277668,-0.107965,-1.08498,0.0827987,0.0460582,1826,1352,35.7076,-3.45627
609,-328,34.6511,3.51038,0,0,0,0,0,0,0,-1,1833,1352,34.6511,-3.51036
616,-328,27.9624,6.56165,0,0,0,0,0,0,0,-1,1840,1352,27.9624,-6.56162
623,-328,26.8594,6.41528,0,0,0,0,0,0,0,-1,1847,1352,26.8593,-6.41528
630,-328,22.0211,5.026,0,0,0,0,0,0,0,-1,1854,1352,22.0212,-5.02603
637,-328,21.15,5.53699,0,0,0,0,0,0,0,-1,1861,1352,21.15,-5.53704
644,-328,16.9579,6.3396,0,0,0,0,0,0,0,-1,1868,1352,16.9579,-6.33959
651,-328,22.9609,9.47485,0,0,0,0,0,0,0,-1,1875,1352,22.961,-9.47486
658,-328,22.7972,9.16748,-0.00340642,-0.000763642,-0.00644158,0.00449068,-0.00866074,-0.886562,0.00771916,0.0315421,1882,1352,22.7972,-9.16742
665,-328,22.8297,8.81873,0.000838564,0.000354042,-0.00244938,0.00305764,-0.00186503,-0.736105,0.00286977,0.0139,1889,1352,22.8297,-8.81869
672,-328,22.8445,8.47363,0.000716611,-6.35874e-05,-0.00087219,0.00128197,-0.000628943,-0.57511,0.00112453,0.011943,1896,1352,22.8445,-8.47365
679,-328,22.8456,8.125,0.000247392,-0.000458852,-0.000267701,0.000337394,-0.000548854,-0.324332,0.000516508,0.0143277,1903,1352,22.8456,-8.12499
686,-328,22.8221,7.80615,0.000353821,-0.000456333,3.81855e-05,0.000355616,-0.000458129,0.0469948,0.000471057,0.0137533,1910,1352,22.8222,-7.80618
693,-328,22.8297,7.48865,0.000437783,-0.00036656,0.000150778,0.000465118,-0.000393895,0.179346,0.000496519,0.00905336,1917,1352,22.8297,-7.48861
700,-328,22.8148,7.14978,0.00046588,-0.00030051,0.000262405,0.000547115,-0.000381745,0.30022,0.000539103,0.0125653,1924,1352,22.8148,-7.14979
707,-328,22.814,6.81702,0.000358826,-0.000275582,0.000389122,0.000543653,-0.000460408,0.443434,0.000580358,0.0147861,1931,1352,22.814,-6.81701
714,-328,22.8174,6.48401,8.8264e-05,-0.00027475,0.000551447,0.000487307,-0.000673793,0.626409,0.000673237,0.0156136,1938,1352,22.8173,-6.48405
721,-328,22.651,6.14294,-0.000588287,-0.000326086,0.00100463,0.000555956,-0.00147033,0.85028,0.00120893,0.0401737,1945,1352,22.651,-6.14295
728,-328,22.7209,5.65503,0,0,0,0,0,0,0,-1,1952,1352,22.7209,-5.65498
735,-328,20.8927,5.23523,0,0,0,0,0,0,0,-1,1959,1352,20.8927,-5.23528
742,-328,20.3547,4.11316,0,0,0,0,0,0,0,-1,1966,1352,20.3547,-4.11321
749,-328,20.0669,5.66321,0,0,0,0,0,0,0,-1,1973,1352,20.0669,-5.66319
756,-328,19.9543,5.50464,0,0,0,0,0,0,0,-1,1980,1352,19.9543,-5.50463
763,-328,0,0,0,0,0,0,0,0,0,-1,1987,1352,0,0
770,-328,0,0,0,0,0,0,0,0,0,-1,1994,1352,0,0
777,-328,0,0,0,0,0,0,0,0,0,-1,2001,1352,0,0
784,-328,0,0,0,0,0,0,0,0,0,-1,2008,1352,0,0
791,-328,0,0,0,0,0,0,0,0,0,-1,2015,1352,0,0
798,-328,0,0,0,0,0,0,0,0,0,-1,2022,1352,0,0
805,-328,0,0,0,0,0,0,0,0,0,-1,2029,1352,0,0
812,-328,0,0,0,0,0,0,0,0,0,-1,2036,1352,0,0
-700,-335,0,0,0,0,0,0,0,0,0,-1,524,1359,0,0
-693,-335,0,0,0,0,0,0,0,0,0,-1,531,1359,0,0
-686,-335,0,0,0,0,0,0,0,0,0,-1,538,1359,0,0
-679,-335,0,0,0,0,0,0,0,0,0,-1,545,1359,0,0
-672,-335,0,0,0,0,0,0,0,0,0,-1,552,1359,0,0
-665,-335,0,0,0,0,0,0,0,0,0,-1,559,1359,0,0
-658,-335,0,0,0,0,0,0,0,0,0,-1,566,1359,0,0
-651,-335,0,0,0,0,0,0,0,0,0,-1,573,1359,0,0
-644,-335,0,0,0,0,0,0,0,0,0,-1,580,1359,0,0
-637,-335,-9.64746,3.53809,0,0,0,0,0,0,0,-1,587,1359,-9.64744,-3.53803
-630,-335,-6.07397,-2.99902,0,0,0,0,0,0,0,-1,594,1359,-6.07397,2.99902
-623,-335,-8.43304,1.09509,0,0,0,0,0,0,0,-1,601,1359,-8.43301,-1.09507
-616,-335,-7.80927,-0.485352,0,0,0,0,0,0,0,-1,608,1359,-7.80926,0.485291
-609,-335,-7.12256,-2.03601,0,0,0,0,0,0,0,-1,615,1359,-7.12253,2.03601
-602,-335,-9.39935,2.25146,0,0,0,0,0,0,0,-1,622,1359,-9.39935,-2.25145
-595,-335,-9.54767,3.01917,0,0,0,0,0,0,0,-1,629,1359,-9.54768,-3.01911
-588,-335,-11.6093,3.61499,0,0,0,0,0,0,0,-1,636,1359,-11.6093,-3.61502
-581,-335,-11.5322,4.18152,-0.00484404,-0.000887396,-0.00166112,-0.00028249,-0.00544894,-1.22157,0.00354222,0.0305048,643,1359,-11.5322,-4.18157
-574,-335,-11.5632,4.5249,-0.00355487,-0.000268639,-0.00125884,0.000158154,-0.00398166,-1.24392,0.0027087,0.0121394,650,1359,-11.5632,-4.52493
-567,-335,-11.544,4.91345,-0.00222618,1.15848e-05,-0.000907277,0.000333206,-0.0025478,-1.23013,0.0018198,0.0157213,657,1359,-11.544,-4.91345
-560,-335,-11.5541,5.29321,-0.000810041,0.000234762,-0.000460145,0.000408519,-0.000983797,-1.20974,0.00082641,0.0224609,664,1359,-11.5541,-5.29317
-553,-335,-11.6223,5.69812,0.000793864,8.22672e-05,-8.49285e-05,0.000803859,7.22715e-05,-0.117157,0.000513514,0.0253373,671,1359,-11.6223,-5.69813
-546,-335,-11.6082,6.05933,0.00263369,-0.000149612,0.000410817,0.00269306,-0.000208982,0.143524,0.00186894,0.0239793,678,1359,-11.6082,-6.05938
-539,-335,-11.5738,6.3783,0.00454873,-0.000381149,0.000996055,0.00474237,-0.000574791,0.192013,0.00336956,0.020638,685,1359,-11.5738,-6.37824
-532,-335,-11.5883,6.79175,0.00673177,-0.000594863,0.00175201,0.00712917,-0.000992264,0.223051,0.00511571,0.0161069,692,1359,-11.5883,-6.79171
-525,-335,-11.5473,7.18958,0.00927286,-0.000842268,0.00268793,0.00994276,-0.00151217,0.244252,0.0071858,0.0112934,699,1359,-11.5473,-7.18961
-518,-335,-11.5165,7.51501,0.0121135,-0.00131748,0.00375058,0.0130899,-0.00229384,0.254671,0.00958315,0.0311576,706,1359,-11.5165,-7.51506
-511,-335,-11.4794,7.80811,0,0,0,0,0,0,0,-1,713,1359,-11.4794,-7.80808
-504,-335,-9.35767,5.99695,0,0,0,0,0,0,0,-1,720,1359,-9.35767,-5.99694
-497,-335,-8.75024,-0.650513,0,0,0,0,0,0,0,-1,727,1359,-8.75024,0.650521
-490,-335,-9.51971,0.417603,0,0,0,0,0,0,0,-1,734,1359,-9.51974,-0.41765
-483,-335,-10.2883,1.29224,0,0,0,0,0,0,0,-1,741,1359,-10.2883,-1.2922
-476,-335,-11.9938,-0.173462,0,0,0,0,0,0,0,-1,748,1359,-11.9938,0.173429
-469,-335,-12.8704,-0.204102,0,0,0,0,0,0,0,-1,755,1359,-12.8704,0.204117
-462,-335,-13.486,0.0218506,0,0,0,0,0,0,0,-1,762,1359,-13.4859,-0.0217908
-455,-335,-14.1504,0.549561,0,0,0,0,0,0,0,-1,769,1359,-14.1504,-0.549583
-448,-335,0,0,0,0,0,0,0,0,0,-1,776,1359,0,0
-441,-335,0,0,0,0,0,0,0,0,0,-1,783,1359,0,0
-434,-335,0,0,0,0,0,0,0,0,0,-1,790,1359,0,0
-427,-335,0,0,0,0,0,0,0,0,0,-1,797,1359,0,0
-420,-335,0,0,0,0,0,0,0,0,0,-1,804,1359,0,0
-413,-335,0,0,0,0,0,0,0,0,0,-1,811,1359,0,0
-406,-335,0,0,0,0,0,0,0,0,0,-1,818,1359,0,0
-399,-335,0,0,0,0,0,0,0,0,0,-1,825,1359,0,0
-392,-335,0,0,0,0,0,0,0,0,0,-1,832,1359,0,0
-385,-335,0,0,0,0,0,0,0,0,0,-1,839,1359,0,0
-378,-335,0,0,0,0,0,0,0,0,0,-1,846,1359,0,0
-371,-335,0,0,0,0,0,0,0,0,0,-1,853,1359,0,0
-364,-335,0,0,0,0,0,0,0,0,0,-1,860,1359,0,0
-357,-335,0,0,0,0,0,0,0,0,0,-1,867,1359,0,0
-350,-335,0,0,0,0,0,0,0,0,0,-1,874,1359,0,0
-343,-335,0,0,0,0,0,0,0,0,0,-1,881,1359,0,0
-336,-335,0,0,0,0,0,0,0,0,0,-1,888,1359,0,0
-329,-335,0,0,0,0,0,0,0,0,0,-1,895,1359,0,0
-322,-335,0,0,0,0,0,0,0,0,0,-1,902,1359,0,0
-315,-335,0,0,0,0,0,0,0,0,0,-1,909,1359,0,0
-308,-335,0,0,0,0,0,0,0,0,0,-1,916,1359,0,0
-301,-335,0,0,0,0,0,0,0,0,0,-1,923,1359,0,0
-294,-335,0,0,0,0,0,0,0,0,0,-1,930,1359,0,0
-287,-335,0,0,0,0,0,0,0,0,0,-1,937,1359,0,0
-280,-335,0,0,0,0,0,0,0,0,0,-1,944,1359,0,0
-273,-335,0,0,0,0,0,0,0,0,0,-1,951,1359,0,0
-266,-335,0,0,0,0,0,0,0,0,0,-1,958,1359,0,0
-259,-335,0,0,0,0,0,0,0,0,0,-1,965,1359,0,0
-252,-335,0,0,0,0,0,0,0,0,0,-1,972,1359,0,0
-245,-335,0,0,0,0,0,0,0,0,0,-1,979,1359,0,0
-238,-335,0,0,0,0,0,0,0,0,0,-1,986,1359,0,0
-231,-335,0,0,0,0,0,0,0,0,0,-1,993,1359,0,0
-224,-335,0,0,0,0,0,0,0,0,0,-1,1000,1359,0,0
-217,-335,0,0,0,0,0,0,0,0,0,-1,1007,1359,0,0
-210,-335,0,0,0,0,0,0,0,0,0,-1,1014,1359,0,0
-203,-335,0,0,0,0,0,0,0,0,0,-1,1021,1359,0,0
-196,-335,0,0,0,0,0,0,0,0,0,-1,1028,1359,0,0
-189,-335,0,0,0,0,0,0,0,0,0,-1,1035,1359,0,0
-182,-335,0,0,0,0,0,0,0,0,0,-1,1042,1359,0,0
-175,-335,0,0,0,0,0,0,0,0,0,-1,1049,1359,0,0
-168,-335,0,0,0,0,0,0,0,0,0,-1,1056,1359,0,0
-161,-335,0,0,0,0,0,0,0,0,0,-1,1063,1359,0,0
-154,-335,0,0,0,0,0,0,0,0,0,-1,1070,1359,0,0
-147,-335,0,0,0,0,0,0,0,0,0,-1,1077,1359,0,0
-140,-335,0,0,0,0,0,0,0,0,0,-1,1084,1359,0,0
-133,-335,0,0,0,0,0,0,0,0,0,-1,1091,1359,0,0
-126,-335,0,0,0,0,0,0,0,0,0,-1,1098,1359,0,0
-119,-335,0,0,0,0,0,0,0,0,0,-1,1105,1359,0,0
-112,-335,0,0,0,0,0,0,0,0,0,-1,1112,1359,0,0
-105,-335,0,0,0,0,0,0,0,0,0,-1,1119,1359,0,0
-98,-335,0,0,0,0,0,0,0,0,0,-1,1126,1359,0,0
-91,-335,0,0,0,0,0,0,0,0,0,-1,1133,1359,0,0
-84,-335,0,0,0,0,0,0,0,0,0,-1,1140,1359,0,0
-77,-335,0,0,0,0,0,0,0,0,0,-1,1147,1359,0,0
-70,-335,0,0,0,0,0,0,0,0,0,-1,1154,1359,0,0
-63,-335,0,0,0,0,0,0,0,0,0,-1,1161,1359,0,0
-56,-335,0,0,0,0,0,0,0,0,0,-1,1168,1359,0,0
-49,-335,0,0,0,0,0,0,0,0,0,-1,1175,1359,0,0
-42,-335,0,0,0,0,0,0,0,0,0,-1,1182,1359,0,0
-35,-335,0,0,0,0,0,0,0,0,0,-1,1189,1359,0,0
-28,-335,0,0,0,0,0,0,0,0,0,-1,1196,1359,0,0
-21,-335,0,0,0,0,0,0,0,0,0,-1,1203,1359,0,0
-14,-335,0,0,0,0,0,0,0,0,0,-1,1210,1359,0,0
-7,-335,0,0,0,0,0,0,0,0,0,-1,1217,1359,0,0
0,-335,0,0,0,0,0,0,0,0,0,-1,1224,1359,0,0
7,-335,0,0,0,0,0,0,0,0,0,-1,1231,1359,0,0
14,-335,0,0,0,0,0,0,0,0,0,-1,1238,1359,0,0
21,-335,0,0,0,0,0,0,0,0,0,-1,1245,1359,0,0
28,-335,0,0,0,0,0,0,0,0,0,-1,1252,1359,0,0
35,-335,0,0,0,0,0,0,0,0,0,-1,1259,1359,0,0
42,-335,0,0,0,0,0,0,0,0,0,-1,1266,1359,0,0
49,-335,0,0,0,0,0,0,0,0,0,-1,1273,1359,0,0
56,-335,0,0,0,0,0,0,0,0,0,-1,1280,1359,0,0
63,-335,0,0,0,0,0,0,0,0,0,-1,1287,1359,0,0
70,-335,0,0,0,0,0,0,0,0,0,-1,1294,1359,0,0
77,-335,0,0,0,0,0,0,0,0,0,-1,1301,1359,0,0
84,-335,0,0,0,0,0,0,0,0,0,-1,1308,1359,0,0
91,-335,0,0,0,0,0,0,0,0,0,-1,1315,1359,0,0
98,-335,0,0,0,0,0,0,0,0,0,-1,1322,1359,0,0
105,-335,0,0,0,0,0,0,0,0,0,-1,1329,1359,0,0
112,-335,0,0,0,0,0,0,0,0,0,-1,1336,1359,0,0
119,-335,0,0,0,0,0,0,0,0,0,-1,1343,1359,0,0
126,-335,0,0,0,0,0,0,0,0,0,-1,1350,1359,0,0
133,-335,0,0,0,0,0,0,0,0,0,-1,1357,1359,0,0
140,-335,0,0,0,0,0,0,0,0,0,-1,1364,1359,0,0
147,-335,0,0,0,0,0,0,0,0,0,-1,1371,1359,0,0
154,-335,0,0,0,0,0,0,0,0,0,-1,1378,1359,0,0
161,-335,0,0,0,0,0,0,0,0,0,-1,1385,1359,0,0
168,-335,0,0,0,0,0,0,0,0,0,-1,1392,1359,0,0
175,-335,0,0,0,0,0,0,0,0,0,-1,1399,1359,0,0
182,-335,0,0,0,0,0,0,0,0,0,-1,1406,1359,0,0
189,-335,0,0,0,0,0,0,0,0,0,-1,1413,1359,0,0
196,-335,0,0,0,0,0,0,0,0,0,-1,1420,1359,0,0
203,-335,0,0,0,0,0,0,0,0,0,-1,1427,1359,0,0
210,-335,0,0,0,0,0,0,0,0,0,-1,1434,1359,0,0
217,-335,0,0,0,0,0,0,0,0,0,-1,1441,1359,0,0
224,-335,0,0,0,0,0,0,0,0,0,-1,1448,1359,0,0
231,-335,0,0,0,0,0,0,0,0,0,-1,1455,1359,0,0
238,-335,0,0,0,0,0,0,0,0,0,-1,1462,1359,0,0
245,-335,0,0,0,0,0,0,0,0,0,-1,1469,1359,0,0
252,-335,0,0,0,0,0,0,0,0,0,-1,1476,1359,0,0
259,-335,0,0,0,0,0,0,0,0,0,-1,1483,1359,0,0
266,-335,0,0,0,0,0,0,0,0,0,-1,1490,1359,0,0
273,-335,0,0,0,0,0,0,0,0,0,-1,1497,1359,0,0
280,-335,0,0,0,0,0,0,0,0,0,-1,1504,1359,0,0
287,-335,0,0,0,0,0,0,0,0,0,-1,1511,1359,0,0
294,-335,0,0,0,0,0,0,0,0,0,-1,1518,1359,0,0
301,-335,0,0,0,0,0,0,0,0,0,-1,1525,1359,0,0
308,-335,0,0,0,0,0,0,0,0,0,-1,1532,1359,0,0
315,-335,0,0,0,0,0,0,0,0,0,-1,1539,1359,0,0
322,-335,0,0,0,0,0,0,0,0,0,-1,1546,1359,0,0
329,-335,0,0,0,0,0,0,0,0,0,-1,1553,1359,0,0
336,-335,0,0,0,0,0,0,0,0,0,-1,1560,1359,0,0
343,-335,0,0,0,0,0,0,0,0,0,-1,1567,1359,0,0
350,-335,0,0,0,0,0,0,0,0,0,-1,1574,1359,0,0
357,-335,0,0,0,0,0,0,0,0,0,-1,1581,1359,0,0
364,-335,0,0,0,0,0,0,0,0,0,-1,1588,1359,0,0
371,-335,0,0,0,0,0,0,0,0,0,-1,1595,1359,0,0
378,-335,0,0,0,0,0,0,0,0,0,-1,1602,1359,0,0
385,-335,0,0,0,0,0,0,0,0,0,-1,1609,1359,0,0
392,-335,0,0,0,0,0,0,0,0,0,-1,1616,1359,0,0
399,-335,0,0,0,0,0,0,0,0,0,-1,1623,1359,0,0
406,-335,0,0,0,0,0,0,0,0,0,-1,1630,1359,0,0
413,-335,0,0,0,0,0,0,0,0,0,-1,1637,1359,0,0
420,-335,0,0,0,0,0,0,0,0,0,-1,1644,1359,0,0
427,-335,0,0,0,0,0,0,0,0,0,-1,1651,1359,0,0
434,-335,0,0,0,0,0,0,0,0,0,-1,1658,1359,0,0
441,-335,0,0,0,0,0,0,0,0,0,-1,1665,1359,0,0
448,-335,0,0,0,0,0,0,0,0,0,-1,1672,1359,0,0
455,-335,0,0,0,0,0,0,0,0,0,-1,1679,1359,0,0
462,-335,0,0,0,0,0,0,0,0,0,-1,1686,1359,0,0
469,-335,0,0,0,0,0,0,0,0,0,-1,1693,1359,0,0
476,-335,0,0,0,0,0,0,0,0,0,-1,1700,1359,0,0
483,-335,0,0,0,0,0,0,0,0,0,-1,1707,1359,0,0
490,-335,0,0,0,0,0,0,0,0,0,-1,1714,1359,0,0
497,-335,0,0,0,0,0,0,0,0,0,-1,1721,1359,0,0
504,-335,0,0,0,0,0,0,0,0,0,-1,1728,1359,0,0
511,-335,0,0,0,0,0,0,0,0,0,-1,1735,1359,0,0
518,-335,0,0,0,0,0,0,0,0,0,-1,1742,1359,0,0
525,-335,0,0,0,0,0,0,0,0,0,-1,1749,1359,0,0
532,-335,0,0,0,0,0,0,0,0,0,-1,1756,1359,0,0
539,-335,0,0,0,0,0,0,0,0,0,-1,1763,1359,0,0
546,-335,0,0,0,0,0,0,0,0,0,-1,1770,1359,0,0
553,-335,0,0,0,0,0,0,0,0,0,-1,1777,1359,0,0
560,-335,0,0,0,0,0,0,0,0,0,-1,1784,1359,0,0
567,-335,0,0,0,0,0,0,0,0,0,-1,1791,1359,0,0
574,-335,38.5837,5.02625,0,0,0,0,0,0,0,-1,1798,1359,38.5838,-5.02626
581,-335,38.2797,4.25903,0,0,0,0,0,0,0,-1,1805,1359,38.2796,-4.25902
588,-335,32.7272,1.53796,0,0,0,0,0,0,0,-1,1812,1359,32.7272,-1.53795
595,-335,37.3291,3.51855,0,0,0,0,0,0,0,-1,1819,1359,37.329,-3.51852
602,-335,36.3344,3.88892,0,0,0,0,0,0,0,-1,1826,1359,36.3343,-3.88897
609,-335,30.826,4.40063,0,0,0,0,0,0,0,-1,1833,1359,30.826,-4.40063
616,-335,28.298,5.98853,0,0,0,0,0,0,0,-1,1840,1359,28.298,-5.98849
623,-335,26.6051,6.54333,0,0,0,0,0,0,0,-1,1847,1359,26.6051,-6.54339
630,-335,19.1707,1.00952,0,0,0,0,0,0,0,-1,1854,1359,19.1707,-1.00953
637,-335,18.2009,6.65454,0,0,0,0,0,0,0,-1,1861,1359,18.2009,-6.6546
644,-335,22.6569,9.72205,0,0,0,0,0,0,0,-1,1868,1359,22.6569,-9.72204
651,-335,22.5249,9.46204,-0.0107413,-0.00373036,-0.00907488,0.00249256,-0.0169643,-0.969712,0.0122254,0.0377287,1875,1359,22.5249,-9.46209
658,-335,22.446,9.22559,-0.00300895,-0.00178202,-0.00468075,0.00232529,-0.00711627,-0.850557,0.00568021,0.0194911,1882,1359,22.4461,-9.22554
665,-335,22.4999,8.82434,0.000773887,-0.00035997,-0.00145746,0.0017708,-0.00135688,-0.599911,0.00181103,0.0142261,1889,1359,22.4999,-8.82438
672,-335,22.498,8.47668,0.00076575,-0.000433254,-0.000471445,0.000928916,-0.00059642,-0.333195,0.0008876,0.016966,1896,1359,22.498,-8.47669
679,-335,22.5031,8.16089,0.000552808,-0.000515914,-0.000193427,0.000586738,-0.000549844,-0.173653,0.000656322,0.0150027,1903,1359,22.5031,-8.16091
686,-335,22.51,7.81763,0.000680562,-0.000452037,-1.28041e-05,0.000680707,-0.000452182,-0.0113031,0.000658494,0.0122996,1910,1359,22.51,-7.81764
693,-335,22.4929,7.47803,0.000781224,-0.000417398,0.000128578,0.000794861,-0.000431036,0.10567,0.000718087,0.00953953,1917,1359,22.493,-7.47805
700,-335,22.473,7.17139,0.00085979,-0.000383993,0.000236703,0.000903314,-0.000427517,0.181844,0.000784553,0.0101256,1924,1359,22.473,-7.1714
707,-335,22.4797,6.83899,0.000789266,-0.000426323,0.000354568,0.000885128,-0.000522185,0.26405,0.00082147,0.0136524,1931,1359,22.4797,-6.83904
714,-335,22.4955,6.40186,0.000580949,-0.000478522,0.000507522,0.000784833,-0.000682406,0.381993,0.000847799,0.0299224,1938,1359,22.4955,-6.4018
721,-335,22.4211,5.90308,0,0,0,0,0,0,0,-1,1945,1359,22.4212,-5.90302
728,-335,20.8126,5.21167,0,0,0,0,0,0,0,-1,1952,1359,20.8127,-5.21172
735,-335,20.2725,5.34729,0,0,0,0,0,0,0,-1,1959,1359,20.2724,-5.34734
742,-335,19.8624,4.72229,0,0,0,0,0,0,0,-1,1966,1359,19.8624,-4.72225
749,-335,20.5887,6.05322,0,0,0,0,0,0,0,-1,1973,1359,20.5887,-6.05322
756,-335,20.7832,6.00452,0,0,0,0,0,0,0,-1,1980,1359,20.7832,-6.00447
763,-335,0,0,0,0,0,0,0,0,0,-1,1987,1359,0,0
770,-335,0,0,0,0,0,0,0,0,0,-1,1994,1359,0,0
777,-335,0,0,0,0,0,0,0,0,0,-1,2001,1359,0,0
784,-335,0,0,0,0,0,0,0,0,0,-1,2008,1359,0,0
791,-335,0,0,0,0,0,0,0,0,0,-1,2015,1359,0,0
798,-335,0,0,0,0,0,0,0,0,0,-1,2022,1359,0,0
805,-335,0,0,0,0,0,0,0,0,0,-1,2029,1359,0,0
812,-335,0,0,0,0,0,0,0,0,0,-1,2036,1359,0,0
-700,-342,0,0,0,0,0,0,0,0,0,-1,524,1366,0,0
-693,-342,0,0,0,0,0,0,0,0,0,-1,531,1366,0,0
-686,-342,0,0,0,0,0,0,0,0,0,-1,538,1366,0,0
-679,-342,0,0,0,0,0,0,0,0,0,-1,545,1366,0,0
-672,-342,0,0,0,0,0,0,0,0,0,-1,552,1366,0,0
-665,-342,0,0,0,0,0,0,0,0,0,-1,559,1366,0,0
-658,-342,0,0,0,0,0,0,0,0,0,-1,566,1366,0,0
-651,-342,0,0,0,0,0,0,0,0,0,-1,573,1366,0,0
-644,-342,0,0,0,0,0,0,0,0,0,-1,580,1366,0,0
-637,-342,-8.67786,-4.58557,0,0,0,0,0,0,0,-1,587,1366,-8.67788,4.5856
-630,-342,-8.60132,2.71777,0,0,0,0,0,0,0,-1,594,1366,-8.60135,-2.71779
-623,-342,-8.41168,0.662476,0,0,0,0,0,0,0,-1,601,1366,-8.41168,-0.662442
-616,-342,-6.625,-1.28015,0,0,0,0,0,0,0,-1,608,1366,-6.62499,1.28011
-609,-342,-7.83154,0.674561,0,0,0,0,0,0,0,-1,615,1366,-7.83155,-0.674598
-602,-342,-9.65765,2.25195,0,0,0,0,0,0,0,-1,622,1366,-9.65767,-2.25192
-595,-342,-9.47687,3.00671,0,0,0,0,0,0,0,-1,629,1366,-9.47686,-3.00668
-588,-342,-9.78467,3.57727,0,0,0,0,0,0,0,-1,636,1366,-9.78468,-3.57723
-581,-342,-11.2209,4.05115,0,0,0,0,0,0,0,-1,643,1366,-11.2209,-4.0512
-574,-342,-11.2104,4.53027,-0.00651286,0.000155419,-0.00227911,0.000859946,-0.00721738,-1.27099,0.00512235,0.0133909,650,1366,-11.2104,-4.53024
-567,-342,-11.1594,4.93921,-0.00454483,0.000274447,-0.00177052,0.000854974,-0.00512535,-1.25396,0.00373466,0.0169672,657,1366,-11.1594,-4.93926
-560,-342,-11.2004,5.29065,-0.00258218,0.000278166,-0.00122748,0.000732697,-0.00303671,-1.21616,0.00230781,0.024369,664,1366,-11.2004,-5.29062
-553,-342,-11.2719,5.62549,-0.000564752,0.000152612,-0.000629367,0.00051833,-0.00093047,-1.0444,0.000847672,0.0267432,671,1366,-11.2719,-5.62551
-546,-342,-11.2823,5.99182,0.00161294,-4.64484e-05,6.75043e-05,0.00161568,-4.91899e-05,0.0405909,0.00109388,0.0269201,678,1366,-11.2823,-5.99184
-539,-342,-11.2515,6.40076,0.00381937,-0.000229174,0.000828551,0.00398237,-0.000392177,0.194252,0.00279483,0.0227975,685,1366,-11.2514,-6.40073
-532,-342,-11.2166,6.82422,0.00620744,-0.000397407,0.00172536,0.00663099,-0.000820955,0.240724,0.00471818,0.017387,692,1366,-11.2166,-6.82425
-525,-342,-11.1595,7.21326,0.00887597,-0.000541266,0.00279444,0.00964275,-0.00130805,0.267804,0.00690593,0.0115384,699,1366,-11.1596,-7.21327
-518,-342,-11.1198,7.6001,0.0118008,-0.000807915,0.0040178,0.0129722,-0.00197936,0.2837,0.00937783,0.0215822,706,1366,-11.1197,-7.60005
-511,-342,-11.1473,7.97559,0,0,0,0,0,0,0,-1,713,1366,-11.1473,-7.97553
-504,-342,-8.95709,6.5719,0,0,0,0,0,0,0,-1,720,1366,-8.95707,-6.57192
-497,-342,-8.26587,-0.943604,0,0,0,0,0,0,0,-1,727,1366,-8.26586,0.943543
-490,-342,-9.07153,-0.0227051,0,0,0,0,0,0,0,-1,734,1366,-9.07155,0.0227087
-483,-342,-9.87726,0.898071,0,0,0,0,0,0,0,-1,741,1366,-9.87724,-0.898125
-476,-342,-11.6371,-0.736328,0,0,0,0,0,0,0,-1,748,1366,-11.6371,0.736281
-469,-342,-12.6245,-0.987549,0,0,0,0,0,0,0,-1,755,1366,-12.6245,0.987553
-462,-342,-13.0912,-0.533203,0,0,0,0,0,0,0,-1,762,1366,-13.0912,0.533224
-455,-342,-13.7612,0.122925,0,0,0,0,0,0,0,-1,769,1366,-13.7612,-0.122896
-448,-342,-14.5278,0.826904,0,0,0,0,0,0,0,-1,776,1366,-14.5277,-0.826861
-441,-342,0,0,0,0,0,0,0,0,0,-1,783,1366,0,0
-434,-342,0,0,0,0,0,0,0,0,0,-1,790,1366,0,0
-427,-342,0,0,0,0,0,0,0,0,0,-1,797,1366,0,0
-420,-342,0,0,0,0,0,0,0,0,0,-1,804,1366,0,0
-413,-342,0,0,0,0,0,0,0,0,0,-1,811,1366,0,0
-406,-342,0,0,0,0,0,0,0,0,0,-1,818,1366,0,0
-399,-342,0,0,0,0,0,0,0,0,0,-1,825,1366,0,0
-392,-342,0,0,0,0,0,0,0,0,0,-1,832,1366,0,0
-385,-342,0,0,0,0,0,0,0,0,0,-1,839,1366,0,0
-378,-342,0,0,0,0,0,0,0,0,0,-1,846,1366,0,0
-371,-342,0,0,0,0,0,0,0,0,0,-1,853,1366,0,0
-364,-342,0,0,0,0,0,0,0,0,0,-1,860,1366,0,0
-357,-342,0,0,0,0,0,0,0,0,0,-1,867,1366,0,0
-350,-342,0,0,0,0,0,0,0,0,0,-1,874,1366,0,0
-343,-342,0,0,0,0,0,0,0,0,0,-1,881,1366,0,0
-336,-342,0,0,0,0,0,0,0,0,0,-1,888,1366,0,0
-329,-342,0,0,0,0,0,0,0,0,0,-1,895,1366,0,0
-322,-342,0,0,0,0,0,0,0,0,0,-1,902,1366,0,0
-315,-342,0,0,0,0,0,0,0,0,0,-1,909,1366,0,0
-308,-342,0,0,0,0,0,0,0,0,0,-1,916,1366,0,0
-301,-342,0,0,0,0,0,0,0,0,0,-1,923,1366,0,0
-294,-342,0,0,0,0,0,0,0,0,0,-1,930,1366,0,0
-287,-342,0,0,0,0,0,0,0,0,0,-1,937,1366,0,0
-280,-342,0,0,0,0,0,0,0,0,0,-1,944,1366,0,0
-273,-342,0,0,0,0,0,0,0,0,0,-1,951,1366,0,0
-266,-342,0,0,0,0,0,0,0,0,0,-1,958,1366,0,0
-259,-342,0,0,0,0,0,0,0,0,0,-1,965,1366,0,0
-252,-342,0,0,0,0,0,0,0,0,0,-1,972,1366,0,0
-245,-342,0,0,0,0,0,0,0,0,0,-1,979,1366,0,0
-238,-342,0,0,0,0,0,0,0,0,0,-1,986,1366,0,0
-231,-342,0,0,0,0,0,0,0,0,0,-1,993,1366,0,0
-224,-342,0,0,0,0,0,0,0,0,0,-1,1000,1366,0,0
-217,-342,0,0,0,0,0,0,0,0,0,-1,1007,1366,0,0
-210,-342,0,0,0,0,0,0,0,0,0,-1,1014,1366,0,0
-203,-342,0,0,0,0,0,0,0,0,0,-1,1021,1366,0,0
-196,-342,0,0,0,0,0,0,0,0,0,-1,1028,1366,0,0
-189,-342,0,0,0,0,0,0,0,0,0,-1,1035,1366,0,0
-182,-342,0,0,0,0,0,0,0,0,0,-1,1042,1366,0,0
-175,-342,0,0,0,0,0,0,0,0,0,-1,1049,1366,0,0
-168,-342,0,0,0,0,0,0,0,0,0,-1,1056,1366,0,0
-161,-342,0,0,0,0,0,0,0,0,0,-1,1063,1366,0,0
-154,-342,0,0,0,0,0,0,0,0,0,-1,1070,1366,0,0
-147,-342,0,0,0,0,0,0,0,0,0,-1,1077,1366,0,0
-140,-342,0,0,0,0,0,0,0,0,0,-1,1084,1366,0,0
-133,-342,0,0,0,0,0,0,0,0,0,-1,1091,1366,0,0
-126,-342,0,0,0,0,0,0,0,0,0,-1,1098,1366,0,0
-119,-342,0,0,0,0,0,0,0,0,0,-1,1105,1366,0,0
-112,-342,0,0,0,0,0,0,0,0,0,-1,1112,1366,0,0
-105,-342,0,0,0,0,0,0,0,0,0,-1,1119,1366,0,0
-98,-342,0,0,0,0,0,0,0,0,0,-1,1126,1366,0,0
-91,-342,0,0,0,0,0,0,0,0,0,-1,1133,1366,0,0
-84,-342,0,0,0,0,0,0,0,0,0,-1,1140,1366,0,0
-77,-342,0,0,0,0,0,0,0,0,0,-1,1147,1366,0,0
-70,-342,0,0,0,0,0,0,0,0,0,-1,1154,1366,0,0
-63,-342,0,0,0,0,0,0,0,0,0,-1,1161,1366,0,0
-56,-342,0,0,0,0,0,0,0,0,0,-1,1168,1366,0,0
-49,-342,0,0,0,0,0,0,0,0,0,-1,1175,1366,0,0
-42,-342,0,0,0,0,0,0,0,0,0,-1,1182,1366,0,0
-35,-342,0,0,0,0,0,0,0,0,0,-1,1189,1366,0,0
-28,-342,0,0,0,0,0,0,0,0,0,-1,1196,1366,0,0
-21,-342,0,0,0,0,0,0,0,0,0,-1,1203,1366,0,0
-14,-342,0,0,0,0,0,0,0,0,0,-1,1210,1366,0,0
-7,-342,0,0,0,0,0,0,0,0,0,-1,1217,1366,0,0
0,-342,0,0,0,0,0,0,0,0,0,-1,1224,1366,0,0
7,-342,0,0,0,0,0,0,0,0,0,-1,1231,1366,0,0
14,-342,0,0,0,0,0,0,0,0,0,-1,1238,1366,0,0
21,-342,0,0,0,0,0,0,0,0,0,-1,1245,1366,0,0
28,-342,0,0,0,0,0,0,0,0,0,-1,1252,1366,0,0
35,-342,0,0,0,0,0,0,0,0,0,-1,1259,1366,0,0
42,-342,0,0,0,0,0,0,0,0,0,-1,1266,1366,0,0
49,-342,0,0,0,0,0,0,0,0,0,-1,1273,1366,0,0
56,-342,0,0,0,0,0,0,0,0,0,-1,1280,1366,0,0
63,-342,0,0,0,0,0,0,0,0,0,-1,1287,1366,0,0
70,-342,0,0,0,0,0,0,0,0,0,-1,1294,1366,0,0
77,-342,0,0,0,0,0,0,0,0,0,-1,1301,1366,0,0
84,-342,0,0,0,0,0,0,0,0,0,-1,1308,1366,0,0
91,-342,0,0,0,0,0,0,0,0,0,-1,1315,1366,0,0
98,-342,0,0,0,0,0,0,0,0,0,-1,1322,1366,0,0
105,-342,0,0,0,0,0,0,0,0,0,-1,1329,1366,0,0
112,-342,0,0,0,0,0,0,0,0,0,-1,1336,1366,0,0
119,-342,0,0,0,0,0,0,0,0,0,-1,1343,1366,0,0
126,-342,0,0,0,0,0,0,0,0,0,-1,1350,1366,0,0
133,-342,0,0,0,0,0,0,0,0,0,-1,1357,1366,0,0
140,-342,0,0,0,0,0,0,0,0,0,-1,1364,1366,0,0
147,-342,0,0,0,0,0,0,0,0,0,-1,1371,1366,0,0
154,-342,0,0,0,0,0,0,0,0,0,-1,1378,1366,0,0
161,-342,0,0,0,0,0,0,0,0,0,-1,1385,1366,0,0
168,-342,0,0,0,0,0,0,0,0,0,-1,1392,1366,0,0
175,-342,0,0,0,0,0,0,0,0,0,-1,1399,1366,0,0
182,-342,0,0,0,0,0,0,0,0,0,-1,1406,1366,0,0
189,-342,0,0,0,0,0,0,0,0,0,-1,1413,1366,0,0
196,-342,0,0,0,0,0,0,0,0,0,-1,1420,1366,0,0
203,-342,0,0,0,0,0,0,0,0,0,-1,1427,1366,0,0
210,-342,0,0,0,0,0,0,0,0,0,-1,1434,1366,0,0
217,-342,0,0,0,0,0,0,0,0,0,-1,1441,1366,0,0
224,-342,0,0,0,0,0,0,0,0,0,-1,1448,1366,0,0
231,-342,0,0,0,0,0,0,0,0,0,-1,1455,1366,0,0
238,-342,0,0,0,0,0,0,0,0,0,-1,1462,1366,0,0
245,-342,0,0,0,0,0,0,0,0,0,-1,1469,1366,0,0
252,-342,0,0,0,0,0,0,0,0,0,-1,1476,1366,0,0
259,-342,0,0,0,0,0,0,0,0,0,-1,1483,1366,0,0
266,-342,0,0,0,0,0,0,0,0,0,-1,1490,1366,0,0
273,-342,0,0,0,0,0,0,0,0,0,-1,1497,1366,0,0
280,-342,0,0,0,0,0,0,0,0,0,-1,1504,1366,0,0
287,-342,0,0,0,0,0,0,0,0,0,-1,1511,1366,0,0
294,-342,0,0,0,0,0,0,0,0,0,-1,1518,1366,0,0
301,-342,0,0,0,0,0,0,0,0,0,-1,1525,1366,0,0
308,-342,0,0,0,0,0,0,0,0,0,-1,1532,1366,0,0
315,-342,0,0,0,0,0,0,0,0,0,-1,1539,1366,0,0
322,-342,0,0,0,0,0,0,0,0,0,-1,1546,1366,0,0
329,-342,0,0,0,0,0,0,0,0,0,-1,1553,1366,0,0
336,-342,0,0,0,0,0,0,0,0,0,-1,1560,1366,0,0
343,-342,0,0,0,0,0,0,0,0,0,-1,1567,1366,0,0
350,-342,0,0,0,0,0,0,0,0,0,-1,1574,1366,0,0
357,-342,0,0,0,0,0,0,0,0,0,-1,1581,1366,0,0
364,-342,0,0,0,0,0,0,0,0,0,-1,1588,1366,0,0
371,-342,0,0,0,0,0,0,0,0,0,-1,1595,1366,0,0
378,-342,0,0,0,0,0,0,0,0,0,-1,1602,1366,0,0
385,-342,0,0,0,0,0,0,0,0,0,-1,1609,1366,0,0
392,-342,0,0,0,0,0,0,0,0,0,-1,1616,1366,0,0
399,-342,0,0,0,0,0,0,0,0,0,-1,1623,1366,0,0
406,-342,0,0,0,0,0,0,0,0,0,-1,1630,1366,0,0
413,-342,0,0,0,0,0,0,0,0,0,-1,1637,1366,0,0
420,-342,0,0,0,0,0,0,0,0,0,-1,1644,1366,0,0
427,-342,0,0,0,0,0,0,0,0,0,-1,1651,1366,0,0
434,-342,0,0,0,0,0,0,0,0,0,-1,1658,1366,0,0
441,-342,0,0,0,0,0,0,0,0,0,-1,1665,1366,0,0
448,-342,0,0,0,0,0,0,0,0,0,-1,1672,1366,0,0
455,-342,0,0,0,0,0,0,0,0,0,-1,1679,1366,0,0
462,-342,0,0,0,0,0,0,0,0,0,-1,1686,1366,0,0
469,-342,0,0,0,0,0,0,0,0,0,-1,1693,1366,0,0
476,-342,0,0,0,0,0,0,0,0,0,-1,1700,1366,0,0
483,-342,0,0,0,0,0,0,0,0,0,-1,1707,1366,0,0
490,-342,0,0,0,0,0,0,0,0,0,-1,1714,1366,0,0
497,-342,0,0,0,0,0,0,0,0,0,-1,1721,1366,0,0
504,-342,0,0,0,0,0,0,0,0,0,-1,1728,1366,0,0
511,-342,0,0,0,0,0,0,0,0,0,-1,1735,1366,0,0
518,-342,0,0,0,0,0,0,0,0,0,-1,1742,1366,0,0
525,-342,0,0,0,0,0,0,0,0,0,-1,1749,1366,0,0
532,-342,0,0,0,0,0,0,0,0,0,-1,1756,1366,0,0
539,-342,0,0,0,0,0,0,0,0,0,-1,1763,1366,0,0
546,-342,0,0,0,0,0,0,0,0,0,-1,1770,1366,0,0
553,-342,0,0,0,0,0,0,0,0,0,-1,1777,1366,0,0
560,-342,0,0,0,0,0,0,0,0,0,-1,1784,1366,0,0
567,-342,28.2039,-0.0966797,0,0,0,0,0,0,0,-1,1791,1366,28.2039,0.0966707
574,-342,39.1804,4.85535,0,0,0,0,0,0,0,-1,1798,1366,39.1804,-4.85537
581,-342,31.8226,1.00745,0,0,0,0,0,0,0,-1,1805,1366,31.8226,-1.00744
588,-342,32.8438,1.17224,0,0,0,0,0,0,0,-1,1812,1366,32.8438,-1.17219
595,-342,32.9098,4.32629,0,0,0,0,0,0,0,-1,1819,1366,32.9098,-4.32627
602,-342,31.0818,5.28552,0,0,0,0,0,0,0,-1,1826,1366,31.0818,-5.28547
609,-342,29.3829,5.81714,0,0,0,0,0,0,0,-1,1833,1366,29.3829,-5.81711
616,-342,27.7058,6.33801,0,0,0,0,0,0,0,-1,1840,1366,27.7058,-6.33796
623,-342,26.0299,6.86865,0,0,0,0,0,0,0,-1,1847,1366,26.0299,-6.86863
630,-342,17.3431,0.773071,0,0,0,0,0,0,0,-1,1854,1366,17.3432,-0.773095
637,-342,16.196,6.76172,0,0,0,0,0,0,0,-1,1861,1366,16.1961,-6.76174
644,-342,21.9976,9.95715,0,0,0,0,0,0,0,-1,1868,1366,21.9975,-9.95714
651,-342,22.1707,9.66235,-0.0109866,-0.00409082,-0.00784104,0.00102691,-0.0161043,-0.992536,0.0110944,0.0317838,1875,1366,22.1706,-9.66232
658,-342,22.1536,9.20642,-0.00319892,-0.00186275,-0.00377896,0.00130672,-0.00636839,-0.87289,0.00474157,0.0202826,1882,1366,22.1535,-9.20637
665,-342,22.1647,8.80579,0.000276713,-0.000485711,-0.00119162,0.00114662,-0.00135561,-0.630587,0.00144634,0.0170844,1889,1366,22.1647,-8.80581
672,-342,22.1631,8.48303,0.00071501,-0.00044601,-0.000406381,0.000843116,-0.000574117,-0.305377,0.000823139,0.0134635,1896,1366,22.1631,-8.48307
679,-342,22.1543,8.16956,0.000813572,-0.000514391,-0.000115627,0.000823565,-0.000524383,-0.0862067,0.000784602,0.0128487,1903,1366,22.1543,-8.16953
686,-342,22.1616,7.85803,0.00095796,-0.000558239,9.31207e-05,0.000963658,-0.000563936,0.0611111,0.000891965,0.0104992,1910,1366,22.1616,-7.858
693,-342,22.1432,7.49963,0.00108694,-0.000610586,0.000267091,0.00112797,-0.000651618,0.152436,0.00103964,0.0107074,1917,1366,22.1432,-7.4996
700,-342,22.1246,7.16345,0.00123152,-0.000637846,0.000371533,0.00130266,-0.000708981,0.189173,0.00117816,0.0126332,1924,1366,22.1247,-7.16346
707,-342,22.1456,6.81543,0.00118674,-0.000791335,0.000480989,0.0012975,-0.00090209,0.226322,0.00127675,0.0127553,1931,1366,22.1456,-6.81541
714,-342,22.1572,6.53625,0.0010024,-0.000948517,0.000627132,0.0011866,-0.00113272,0.285687,0.00133918,0.0496121,1938,1366,22.1572,-6.53629
721,-342,21.9481,6.00256,0,0,0,0,0,0,0,-1,1945,1366,21.9481,-6.00259
728,-342,19.8912,5.26636,0,0,0,0,0,0,0,-1,1952,1366,19.8913,-5.26636
735,-342,19.481,4.41968,0,0,0,0,0,0,0,-1,1959,1366,19.4809,-4.41962
742,-342,19.309,2.66943,0,0,0,0,0,0,0,-1,1966,1366,19.3089,-2.66948
749,-342,21.0934,6.47729,0,0,0,0,0,0,0,-1,1973,1366,21.0934,-6.4773
756,-342,0,0,0,0,0,0,0,0,0,-1,1980,1366,0,0
763,-342,0,0,0,0,0,0,0,0,0,-1,1987,1366,0,0
770,-342,0,0,0,0,0,0,0,0,0,-1,1994,1366,0,0
777,-342,0,0,0,0,0,0,0,0,0,-1,2001,1366,0,0
784,-342,0,0,0,0,0,0,0,0,0,-1,2008,1366,0,0
791,-342,0,0,0,0,0,0,0,0,0,-1,2015,1366,0,0
798,-342,0,0,0,0,0,0,0,0,0,-1,2022,1366,0,0
805,-342,0,0,0,0,0,0,0,0,0,-1,2029,1366,0,0
812,-342,0,0,0,0,0,0,0,0,0,-1,2036,1366,0,0
-700,-349,0,0,0,0,0,0,0,0,0,-1,524,1373,0,0
-693,-349,0,0,0,0,0,0,0,0,0,-1,531,1373,0,0
-686,-349,0,0,0,0,0,0,0,0,0,-1,538,1373,0,0
-679,-349,0,0,0,0,0,0,0,0,0,-1,545,1373,0,0
-672,-349,0,0,0,0,0,0,0,0,0,-1,552,1373,0,0
-665,-349,0,0,0,0,0,0,0,0,0,-1,559,1373,0,0
-658,-349,0,0,0,0,0,0,0,0,0,-1,566,1373,0,0
-651,-349,0,0,0,0,0,0,0,0,0,-1,573,1373,0,0
-644,-349,0,0,0,0,0,0,0,0,0,-1,580,1373,0,0
-637,-349,0,0,0,0,0,0,0,0,0,-1,587,1373,0,0
-630,-349,-7.64117,-5.06177,0,0,0,0,0,0,0,-1,594,1373,-7.64118,5.0618
-623,-349,-8.63507,0.51123,0,0,0,0,0,0,0,-1,601,1373,-8.63505,-0.511275
-616,-349,-5.2066,-0.188232,0,0,0,0,0,0,0,-1,608,1373,-5.20659,0.188211
-609,-349,-7.12073,1.37048,0,0,0,0,0,0,0,-1,615,1373,-7.12072,-1.37044
-602,-349,-9.00623,3.39587,0,0,0,0,0,0,0,-1,622,1373,-9.0062,-3.39591
-595,-349,-9.50568,2.96912,0,0,0,0,0,0,0,-1,629,1373,-9.50569,-2.96906
-588,-349,-8.60046,3.56042,0,0,0,0,0,0,0,-1,636,1373,-8.60046,-3.56047
-581,-349,-10.7419,4.15112,0,0,0,0,0,0,0,-1,643,1373,-10.7419,-4.1511
-574,-349,-10.77,4.49805,-0.00939035,0.000970702,-0.00307377,0.00181395,-0.0102336,-1.30305,0.00750053,0.0282889,650,1373,-10.77,-4.49801
-567,-349,-10.7983,4.95544,-0.00714783,0.000789193,-0.00249126,0.00150635,-0.00786498,-1.29051,0.00581089,0.0179997,657,1373,-10.7984,-4.95548
-560,-349,-10.8062,5.31641,-0.00489461,0.000538157,-0.00188334,0.00112718,-0.00548363,-1.26768,0.00408367,0.0210406,664,1373,-10.8062,-5.31637
-553,-349,-10.8287,5.60901,-0.00249758,0.000330154,-0.0011597,0.000744927,-0.00291236,-1.22732,0.00223171,0.0265573,671,1373,-10.8287,-5.60902
-546,-349,-10.873,6.00208,7.73328e-05,0.000138566,-0.000307328,0.000416798,-0.000200899,-0.835045,0.000363817,0.030571,678,1373,-10.873,-6.00213
-539,-349,-10.8679,6.41736,0.00267414,-1.53893e-05,0.000599434,0.00280169,-0.000142941,0.209659,0.00191721,0.0241372,685,1373,-10.868,-6.41737
-532,-349,-10.8429,6.83044,0.00539468,-0.000135589,0.00162324,0.00583592,-0.000576834,0.265417,0.00409645,0.0162293,692,1373,-10.8429,-6.83042
-525,-349,-10.8041,7.22424,0.00829783,-0.000200919,0.00278946,0.00913159,-0.00103468,0.290444,0.0064603,0.0123338,699,1373,-10.8041,-7.22425
-518,-349,-10.7921,7.6272,0.0114157,-0.000305645,0.00411742,0.0127175,-0.00160742,0.306218,0.00906178,0.0158901,706,1373,-10.7921,-7.62721
-511,-349,-10.7638,8.03137,0,0,0,0,0,0,0,-1,713,1373,-10.7638,-8.03137
-504,-349,-9.60516,7.88831,0,0,0,0,0,0,0,-1,720,1373,-9.60519,-7.88825
-497,-349,-7.9339,5.58789,0,0,0,0,0,0,0,-1,727,1373,-7.93388,-5.58785
-490,-349,-8.73969,-0.503784,0,0,0,0,0,0,0,-1,734,1373,-8.73966,0.503752
-483,-349,-5.66974,3.7395,0,0,0,0,0,0,0,-1,741,1373,-5.66975,-3.73949
-476,-349,-10.8496,1.15759,0,0,0,0,0,0,0,-1,748,1373,-10.8496,-1.15756
-469,-349,-12.3314,-1.74878,0,0,0,0,0,0,0,-1,755,1373,-12.3314,1.74882
-462,-349,-12.6559,-0.995361,0,0,0,0,0,0,0,-1,762,1373,-12.656,0.995351
-455,-349,-13.2897,-0.234253,0,0,0,0,0,0,0,-1,769,1373,-13.2897,0.234261
-448,-349,-14.045,0.712891,0,0,0,0,0,0,0,-1,776,1373,-14.045,-0.712838
-441,-349,0,0,0,0,0,0,0,0,0,-1,783,1373,0,0
-434,-349,0,0,0,0,0,0,0,0,0,-1,790,1373,0,0
-427,-349,0,0,0,0,0,0,0,0,0,-1,797,1373,0,0
-420,-349,0,0,0,0,0,0,0,0,0,-1,804,1373,0,0
-413,-349,0,0,0,0,0,0,0,0,0,-1,811,1373,0,0
-406,-349,0,0,0,0,0,0,0,0,0,-1,818,1373,0,0
-399,-349,0,0,0,0,0,0,0,0,0,-1,825,1373,0,0
-392,-349,0,0,0,0,0,0,0,0,0,-1,832,1373,0,0
-385,-349,0,0,0,0,0,0,0,0,0,-1,839,1373,0,0
-378,-349,0,0,0,0,0,0,0,0,0,-1,846,1373,0,0
-371,-349,0,0,0,0,0,0,0,0,0,-1,853,1373,0,0
-364,-349,0,0,0,0,0,0,0,0,0,-1,860,1373,0,0
-357,-349,0,0,0,0,0,0,0,0,0,-1,867,1373,0,0
-350,-349,0,0,0,0,0,0,0,0,0,-1,874,1373,0,0
-343,-349,0,0,0,0,0,0,0,0,0,-1,881,1373,0,0
-336,-349,0,0,0,0,0,0,0,0,0,-1,888,1373,0,0
-329,-349,0,0,0,0,0,0,0,0,0,-1,895,1373,0,0
-322,-349,0,0,0,0,0,0,0,0,0,-1,902,1373,0,0
-315,-349,0,0,0,0,0,0,0,0,0,-1,909,1373,0,0
-308,-349,0,0,0,0,0,0,0,0,0,-1,916,1373,0,0
-301,-349,0,0,0,0,0,0,0,0,0,-1,923,1373,0,0
-294,-349,0,0,0,0,0,0,0,0,0,-1,930,1373,0,0
-287,-349,0,0,0,0,0,0,0,0,0,-1,937,1373,0,0
-280,-349,0,0,0,0,0,0,0,0,0,-1,944,1373,0,0
-273,-349,0,0,0,0,0,0,0,0,0,-1,951,1373,0,0
-266,-349,0,0,0,0,0,0,0,0,0,-1,958,1373,0,0
-259,-349,0,0,0,0,0,0,0,0,0,-1,965,1373,0,0
-252,-349,0,0,0,0,0,0,0,0,0,-1,972,1373,0,0
-245,-349,0,0,0,0,0,0,0,0,0,-1,979,1373,0,0
-238,-349,0,0,0,0,0,0,0,0,0,-1,986,1373,0,0
-231,-349,0,0,0,0,0,0,0,0,0,-1,993,1373,0,0
-224,-349,0,0,0,0,0,0,0,0,0,-1,1000,1373,0,0
-217,-349,0,0,0,0,0,0,0,0,0,-1,1007,1373,0,0
-210,-349,0,0,0,0,0,0,0,0,0,-1,1014,1373,0,0
-203,-349,0,0,0,0,0,0,0,0,0,-1,1021,1373,0,0
-196,-349,0,0,0,0,0,0,0,0,0,-1,1028,1373,0,0
-189,-349,0,0,0,0,0,0,0,0,0,-1,1035,1373,0,0
-182,-349,0,0,0,0,0,0,0,0,0,-1,1042,1373,0,0
-175,-349,0,0,0,0,0,0,0,0,0,-1,1049,1373,0,0
-168,-349,0,0,0,0,0,0,0,0,0,-1,1056,1373,0,0
-161,-349,0,0,0,0,0,0,0,0,0,-1,1063,1373,0,0
-154,-349,0,0,0,0,0,0,0,0,0,-1,1070,1373,0,0
-147,-349,0,0,0,0,0,0,0,0,0,-1,1077,1373,0,0
-140,-349,0,0,0,0,0,0,0,0,0,-1,1084,1373,0,0
-133,-349,0,0,0,0,0,0,0,0,0,-1,1091,1373,0,0
-126,-349,0,0,0,0,0,0,0,0,0,-1,1098,1373,0,0
-119,-349,0,0,0,0,0,0,0,0,0,-1,1105,1373,0,0
-112,-349,0,0,0,0,0,0,0,0,0,-1,1112,1373,0,0
-105,-349,0,0,0,0,0,0,0,0,0,-1,1119,1373,0,0
-98,-349,0,0,0,0,0,0,0,0,0,-1,1126,1373,0,0
-91,-349,0,0,0,0,0,0,0,0,0,-1,1133,1373,0,0
-84,-349,0,0,0,0,0,0,0,0,0,-1,1140,1373,0,0
-77,-349,0,0,0,0,0,0,0,0,0,-1,1147,1373,0,0
-70,-349,0,0,0,0,0,0,0,0,0,-1,1154,1373,0,0
-63,-349,0,0,0,0,0,0,0,0,0,-1,1161,1373,0,0
-56,-349,0,0,0,0,0,0,0,0,0,-1,1168,1373,0,0
-49,-349,0,0,0,0,0,0,0,0,0,-1,1175,1373,0,0
-42,-349,0,0,0,0,0,0,0,0,0,-1,1182,1373,0,0
-35,-349,0,0,0,0,0,0,0,0,0,-1,1189,1373,0,0
-28,-349,0,0,0,0,0,0,0,0,0,-1,1196,1373,0,0
-21,-349,0,0,0,0,0,0,0,0,0,-1,1203,1373,0,0
-14,-349,0,0,0,0,0,0,0,0,0,-1,1210,1373,0,0
-7,-349,0,0,0,0,0,0,0,0,0,-1,1217,1373,0,0
0,-349,0,0,0,0,0,0,0,0,0,-1,1224,1373,0,0
7,-349,0,0,0,0,0,0,0,0,0,-1,1231,1373,0,0
14,-349,0,0,0,0,0,0,0,0,0,-1,1238,1373,0,0
21,-349,0,0,0,0,0,0,0,0,0,-1,1245,1373,0,0
28,-349,0,0,0,0,0,0,0,0,0,-1,1252,1373,0,0
35,-349,0,0,0,0,0,0,0,0,0,-1,1259,1373,0,0
42,-349,0,0,0,0,0,0,0,0,0,-1,1266,1373,0,0
49,-349,0,0,0,0,0,0,0,0,0,-1,1273,1373,0,0
56,-349,0,0,0,0,0,0,0,0,0,-1,1280,1373,0,0
63,-349,0,0,0,0,0,0,0,0,0,-1,1287,1373,0,0
70,-349,0,0,0,0,0,0,0,0,0,-1,1294,1373,0,0
77,-349,0,0,0,0,0,0,0,0,0,-1,1301,1373,0,0
84,-349,0,0,0,0,0,0,0,0,0,-1,1308,1373,0,0
91,-349,0,0,0,0,0,0,0,0,0,-1,1315,1373,0,0
98,-349,0,0,0,0,0,0,0,0,0,-1,1322,1373,0,0
105,-349,0,0,0,0,0,0,0,0,0,-1,1329,1373,0,0
112,-349,0,0,0,0,0,0,0,0,0,-1,1336,1373,0,0
119,-349,0,0,0,0,0,0,0,0,0,-1,1343,1373,0,0
126,-349,0,0,0,0,0,0,0,0,0,-1,1350,1373,0,0
133,-349,0,0,0,0,0,0,0,0,0,-1,1357,1373,0,0
140,-349,0,0,0,0,0,0,0,0,0,-1,1364,1373,0,0
147,-349,0,0,0,0,0,0,0,0,0,-1,1371,1373,0,0
154,-349,0,0,0,0,0,0,0,0,0,-1,1378,1373,0,0
161,-349,0,0,0,0,0,0,0,0,0,-1,1385,1373,0,0
168,-349,0,0,0,0,0,0,0,0,0,-1,1392,1373,0,0
175,-349,0,0,0,0,0,0,0,0,0,-1,1399,1373,0,0
182,-349,0,0,0,0,0,0,0,0,0,-1,1406,1373,0,0
189,-349,0,0,0,0,0,0,0,0,0,-1,1413,1373,0,0
196,-349,0,0,0,0,0,0,0,0,0,-1,1420,1373,0,0
203,-349,0,0,0,0,0,0,0,0,0,-1,1427,1373,0,0
210,-349,0,0,0,0,0,0,0,0,0,-1,1434,1373,0,0
217,-349,0,0,0,0,0,0,0,0,0,-1,1441,1373,0,0
224,-349,0,0,0,0,0,0,0,0,0,-1,1448,1373,0,0
231,-349,0,0,0,0,0,0,0,0,0,-1,1455,1373,0,0
238,-349,0,0,0,0,0,0,0,0,0,-1,1462,1373,0,0
245,-349,0,0,0,0,0,0,0,0,0,-1,1469,1373,0,0
252,-349,0,0,0,0,0,0,0,0,0,-1,1476,1373,0,0
259,-349,0,0,0,0,0,0,0,0,0,-1,1483,1373,0,0
266,-349,0,0,0,0,0,0,0,0,0,-1,1490,1373,0,0
273,-349,0,0,0,0,0,0,0,0,0,-1,1497,1373,0,0
280,-349,0,0,0,0,0,0,0,0,0,-1,1504,1373,0,0
287,-349,0,0,0,0,0,0,0,0,0,-1,1511,1373,0,0
294,-349,0,0,0,0,0,0,0,0,0,-1,1518,1373,0,0
301,-349,0,0,0,0,0,0,0,0,0,-1,1525,1373,0,0
308,-349,0,0,0,0,0,0,0,0,0,-1,1532,1373,0,0
315,-349,0,0,0,0,0,0,0,0,0,-1,1539,1373,0,0
322,-349,0,0,0,0,0,0,0,0,0,-1,1546,1373,0,0
329,-349,0,0,0,0,0,0,0,0,0,-1,1553,1373,0,0
336,-349,0,0,0,0,0,0,0,0,0,-1,1560,1373,0,0
343,-349,0,0,0,0,0,0,0,0,0,-1,1567,1373,0,0
350,-349,0,0,0,0,0,0,0,0,0,-1,1574,1373,0,0
357,-349,0,0,0,0,0,0,0,0,0,-1,1581,1373,0,0
364,-349,0,0,0,0,0,0,0,0,0,-1,1588,1373,0,0
371,-349,0,0,0,0,0,0,0,0,0,-1,1595,1373,0,0
378,-349,0,0,0,0,0,0,0,0,0,-1,1602,1373,0,0
385,-349,0,0,0,0,0,0,0,0,0,-1,1609,1373,0,0
392,-349,0,0,0,0,0,0,0,0,0,-1,1616,1373,0,0
399,-349,0,0,0,0,0,0,0,0,0,-1,1623,1373,0,0
406,-349,0,0,0,0,0,0,0,0,0,-1,1630,1373,0,0
413,-349,0,0,0,0,0,0,0,0,0,-1,1637,1373,0,0
420,-349,0,0,0,0,0,0,0,0,0,-1,1644,1373,0,0
427,-349,0,0,0,0,0,0,0,0,0,-1,1651,1373,0,0
434,-349,0,0,0,0,0,0,0,0,0,-1,1658,1373,0,0
441,-349,0,0,0,0,0,0,0,0,0,-1,1665,1373,0,0
448,-349,0,0,0,0,0,0,0,0,0,-1,1672,1373,0,0
455,-349,0,0,0,0,0,0,0,0,0,-1,1679,1373,0,0
462,-349,0,0,0,0,0,0,0,0,0,-1,1686,1373,0,0
469,-349,0,0,0,0,0,0,0,0,0,-1,1693,1373,0,0
476,-349,0,0,0,0,0,0,0,0,0,-1,1700,1373,0,0
483,-349,0,0,0,0,0,0,0,0,0,-1,1707,1373,0,0
490,-349,0,0,0,0,0,0,0,0,0,-1,1714,1373,0,0
497,-349,0,0,0,0,0,0,0,0,0,-1,1721,1373,0,0
504,-349,0,0,0,0,0,0,0,0,0,-1,1728,1373,0,0
511,-349,0,0,0,0,0,0,0,0,0,-1,1735,1373,0,0
518,-349,0,0,0,0,0,0,0,0,0,-1,1742,1373,0,0
525,-349,0,0,0,0,0,0,0,0,0,-1,1749,1373,0,0
532,-349,0,0,0,0,0,0,0,0,0,-1,1756,1373,0,0
539,-349,0,0,0,0,0,0,0,0,0,-1,1763,1373,0,0
546,-349,0,0,0,0,0,0,0,0,0,-1,1770,1373,0,0
553,-349,0,0,0,0,0,0,0,0,0,-1,1777,1373,0,0
560,-349,27.868,-1.07703,0,0,0,0,0,0,0,-1,1784,1373,27.8681,1.07708
567,-349,29.2839,-0.350586,0,0,0,0,0,0,0,-1,1791,1373,29.284,0.350552
574,-349,30.7375,0.364746,0,0,0,0,0,0,0,-1,1798,1373,30.7376,-0.364747
581,-349,31.9235,0.910522,0,0,0,0,0,0,0,-1,1805,1373,31.9235,-0.910533
588,-349,33.0247,1.43933,0,0,0,0,0,0,0,-1,1812,1373,33.0247,-1.43931
595,-349,32.3793,4.93115,0,0,0,0,0,0,0,-1,1819,1373,32.3793,-4.9312
602,-349,30.6421,5.56592,0,0,0,0,0,0,0,-1,1826,1373,30.6421,-5.56589
609,-349,28.8674,6.13806,0,0,0,0,0,0,0,-1,1833,1373,28.8674,-6.13809
616,-349,27.1451,6.68274,0,0,0,0,0,0,0,-1,1840,1373,27.1451,-6.6828
623,-349,18.8478,2.75769,0,0,0,0,0,0,0,-1,1847,1373,18.8478,-2.75774
630,-349,15.4948,6.47644,0,0,0,0,0,0,0,-1,1854,1373,15.4947,-6.4765
637,-349,16.5161,6.92639,0,0,0,0,0,0,0,-1,1861,1373,16.5161,-6.92636
644,-349,21.8895,9.86877,0,0,0,0,0,0,0,-1,1868,1373,21.8895,-9.86876
651,-349,21.9286,9.52002,-0.00736843,-0.00307235,-0.00585861,0.00101959,-0.0114604,-0.961112,0.0080018,0.0298815,1875,1373,21.9286,-9.52
658,-349,21.8304,9.17053,-0.00124589,-0.0012426,-0.00269243,0.00144819,-0.00393668,-0.785704,0.00321771,0.0281168,1882,1373,21.8305,-9.17053
665,-349,21.8291,8.80664,0.00097296,-0.000336054,-0.000944512,0.00146757,-0.000830669,-0.482406,0.00134377,0.0212237,1889,1373,21.8291,-8.8067
672,-349,21.8052,8.46582,0.00108483,-0.000357398,-0.000379094,0.0011784,-0.000450973,-0.242,0.000971469,0.0151509,1896,1373,21.8052,-8.46577
679,-349,21.7833,8.17908,0.00115137,-0.000493316,-3.74999e-05,0.00115222,-0.000494171,-0.0227848,0.000975527,0.0145601,1903,1373,21.7834,-8.17907
686,-349,21.8323,7.88354,0.00128451,-0.000613446,0.000214669,0.00130849,-0.000637424,0.111233,0.00114552,0.0134188,1910,1373,21.8323,-7.88353
693,-349,21.8208,7.51965,0.00144424,-0.000745989,0.00040669,0.00151732,-0.000819066,0.177791,0.00136885,0.0159305,1917,1373,21.8208,-7.51959
700,-349,21.7876,7.17334,0.00165948,-0.000835478,0.000496823,0.00175477,-0.000930772,0.189504,0.00157464,0.016838,1924,1373,21.7876,-7.1734
707,-349,21.8373,6.78491,0.00163216,-0.00112687,0.000588821,0.00175257,-0.00124728,0.20171,0.00174014,0.0305573,1931,1373,21.8373,-6.7849
714,-349,21.981,6.35608,0,0,0,0,0,0,0,-1,1938,1373,21.981,-6.35609
721,-349,19.6688,5.93604,0,0,0,0,0,0,0,-1,1945,1373,19.6688,-5.93606
728,-349,18.6333,3.73218,0,0,0,0,0,0,0,-1,1952,1373,18.6333,-3.73214
735,-349,18.1918,3.39954,0,0,0,0,0,0,0,-1,1959,1373,18.1918,-3.3995
742,-349,20.7345,2.07483,0,0,0,0,0,0,0,-1,1966,1373,20.7345,-2.07485
749,-349,21.9037,1.45789,0,0,0,0,0,0,0,-1,1973,1373,21.9037,-1.45788
756,-349,0,0,0,0,0,0,0,0,0,-1,1980,1373,0,0
763,-349,0,0,0,0,0,0,0,0,0,-1,1987,1373,0,0
770,-349,0,0,0,0,0,0,0,0,0,-1,1994,1373,0,0
777,-349,0,0,0,0,0,0,0,0,0,-1,2001,1373,0,0
784,-349,0,0,0,0,0,0,0,0,0,-1,2008,1373,0,0
791,-349,0,0,0,0,0,0,0,0,0,-1,2015,1373,0,0
798,-349,0,0,0,0,0,0,0,0,0,-1,2022,1373,0,0
805,-349,0,0,0,0,0,0,0,0,0,-1,2029,1373,0,0
812,-349,0,0,0,0,0,0,0,0,0,-1,2036,1373,0,0
-700,-356,0,0,0,0,0,0,0,0,0,-1,524,1380,0,0
-693,-356,0,0,0,0,0,0,0,0,0,-1,531,1380,0,0
-686,-356,0,0,0,0,0,0,0,0,0,-1,538,1380,0,0
-679,-356,0,0,0,0,0,0,0,0,0,-1,545,1380,0,0
-672,-356,0,0,0,0,0,0,0,0,0,-1,552,1380,0,0
-665,-356,0,0,0,0,0,0,0,0,0,-1,559,1380,0,0
-658,-356,0,0,0,0,0,0,0,0,0,-1,566,1380,0,0
-651,-356,0,0,0,0,0,0,0,0,0,-1,573,1380,0,0
-644,-356,0,0,0,0,0,0,0,0,0,-1,580,1380,0,0
-637,-356,0,0,0,0,0,0,0,0,0,-1,587,1380,0,0
-630,-356,-8.23126,-5.01917,0,0,0,0,0,0,0,-1,594,1380,-8.23124,5.0192
-623,-356,-0.263855,-0.675781,0,0,0,0,0,0,0,-1,601,1380,-0.263835,0.675841
-616,-356,-8.26532,-3.43945,0,0,0,0,0,0,0,-1,608,1380,-8.2653,3.43948
-609,-356,-4.88483,0.734497,0,0,0,0,0,0,0,-1,615,1380,-4.88485,-0.734532
-602,-356,-9.06635,2.4021,0,0,0,0,0,0,0,-1,622,1380,-9.06634,-2.40206
-595,-356,-8.45703,3.61853,0,0,0,0,0,0,0,-1,629,1380,-8.45706,-3.61848
-588,-356,-9.31738,4.14258,0,0,0,0,0,0,0,-1,636,1380,-9.31736,-4.14255
-581,-356,-10.3306,4.41626,0,0,0,0,0,0,0,-1,643,1380,-10.3306,-4.41629
-574,-356,-10.203,4.66321,-0.0125589,0.00135,-0.00435079,0.00259883,-0.0138077,-1.29128,0.0101826,0.038803,650,1380,-10.203,-4.66321
-567,-356,-10.4398,4.89404,-0.00983532,0.00108966,-0.00350369,0.00211675,-0.0108624,-1.28564,0.00804061,0.0179859,657,1380,-10.4398,-4.8941
-560,-356,-10.3931,5.33228,-0.00718126,0.000765434,-0.00270637,0.00159957,-0.0080154,-1.27182,0.00594891,0.0180176,664,1380,-10.3931,-5.33229
-553,-356,-10.3998,5.66443,-0.00441845,0.000521081,-0.00181037,0.00111354,-0.0050109,-1.25453,0.00376704,0.0215186,671,1380,-10.3998,-5.66446
-546,-356,-10.4326,6.0177,-0.00155367,0.000307195,-0.00081081,0.000610909,-0.00185738,-1.21239,0.0014844,0.025176,678,1380,-10.4326,-6.01766
-539,-356,-10.4427,6.41992,0.00130576,0.000158215,0.000234153,0.0013517,0.000112276,0.193732,0.000866138,0.0168884,685,1380,-10.4427,-6.41989
-532,-356,-10.4626,6.82556,0.00420829,6.54895e-05,0.00136713,0.00461877,-0.000344991,0.291687,0.00320038,0.0141471,692,1380,-10.4626,-6.82553
-525,-356,-10.4576,7.21472,0.00714017,1.28643e-05,0.0025619,0.00796548,-0.00081244,0.311648,0.00560081,0.0124039,699,1380,-10.4576,-7.21476
-518,-356,-10.4366,7.61255,0.00993816,-0.000179687,0.00371617,0.0111564,-0.00139791,0.316779,0.00794467,0.0123825,706,1380,-10.4366,-7.61255
-511,-356,-10.2433,8.07959,0.0121115,-0.00054828,0.00445675,0.013523,-0.00195985,0.30673,0.00973462,0.0358561,713,1380,-10.2433,-8.07958
-504,-356,-10.0432,8.6416,0,0,0,0,0,0,0,-1,720,1380,-10.0432,-8.64154
-497,-356,-5.68604,4.96387,0,0,0,0,0,0,0,-1,727,1380,-5.68605,-4.96385
-490,-356,-7.95288,5.5625,0,0,0,0,0,0,0,-1,734,1380,-7.95285,-5.56246
-483,-356,-7.2627,4.07446,0,0,0,0,0,0,0,-1,741,1380,-7.2627,-4.07441
-476,-356,-5.1936,4.16016,0,0,0,0,0,0,0,-1,748,1380,-5.1936,-4.16012
-469,-356,-10.0883,0.536011,0,0,0,0,0,0,0,-1,755,1380,-10.0883,-0.535989
-462,-356,-12.3481,-0.215698,0,0,0,0,0,0,0,-1,762,1380,-12.3481,0.215641
-455,-356,-13.1367,-0.264648,0,0,0,0,0,0,0,-1,769,1380,-13.1367,0.264647
-448,-356,-13.9116,-0.310181,0,0,0,0,0,0,0,-1,776,1380,-13.9115,0.310207
-441,-356,-13.1602,3.05603,0,0,0,0,0,0,0,-1,783,1380,-13.1602,-3.05609
-434,-356,0,0,0,0,0,0,0,0,0,-1,790,1380,0,0
-427,-356,0,0,0,0,0,0,0,0,0,-1,797,1380,0,0
-420,-356,0,0,0,0,0,0,0,0,0,-1,804,1380,0,0
-413,-356,0,0,0,0,0,0,0,0,0,-1,811,1380,0,0
-406,-356,0,0,0,0,0,0,0,0,0,-1,818,1380,0,0
-399,-356,0,0,0,0,0,0,0,0,0,-1,825,1380,0,0
-392,-356,0,0,0,0,0,0,0,0,0,-1,832,1380,0,0
-385,-356,0,0,0,0,0,0,0,0,0,-1,839,1380,0,0
-378,-356,0,0,0,0,0,0,0,0,0,-1,846,1380,0,0
-371,-356,0,0,0,0,0,0,0,0,0,-1,853,1380,0,0
-364,-356,0,0,0,0,0,0,0,0,0,-1,860,1380,0,0
-357,-356,0,0,0,0,0,0,0,0,0,-1,867,1380,0,0
-350,-356,0,0,0,0,0,0,0,0,0,-1,874,1380,0,0
-343,-356,0,0,0,0,0,0,0,0,0,-1,881,1380,0,0
-336,-356,0,0,0,0,0,0,0,0,0,-1,888,1380,0,0
-329,-356,0,0,0,0,0,0,0,0,0,-1,895,1380,0,0
-322,-356,0,0,0,0,0,0,0,0,0,-1,902,1380,0,0
-315,-356,0,0,0,0,0,0,0,0,0,-1,909,1380,0,0
-308,-356,0,0,0,0,0,0,0,0,0,-1,916,1380,0,0
-301,-356,0,0,0,0,0,0,0,0,0,-1,923,1380,0,0
-294,-356,0,0,0,0,0,0,0,0,0,-1,930,1380,0,0
-287,-356,0,0,0,0,0,0,0,0,0,-1,937,1380,0,0
-280,-356,0,0,0,0,0,0,0,0,0,-1,944,1380,0,0
-273,-356,0,0,0,0,0,0,0,0,0,-1,951,1380,0,0
-266,-356,0,0,0,0,0,0,0,0,0,-1,958,1380,0,0
-259,-356,0,0,0,0,0,0,0,0,0,-1,965,1380,0,0
-252,-356,0,0,0,0,0,0,0,0,0,-1,972,1380,0,0
-245,-356,0,0,0,0,0,0,0,0,0,-1,979,1380,0,0
-238,-356,0,0,0,0,0,0,0,0,0,-1,986,1380,0,0
-231,-356,0,0,0,0,0,0,0,0,0,-1,993,1380,0,0
-224,-356,0,0,0,0,0,0,0,0,0,-1,1000,1380,0,0
-217,-356,0,0,0,0,0,0,0,0,0,-1,1007,1380,0,0
-210,-356,0,0,0,0,0,0,0,0,0,-1,1014,1380,0,0
-203,-356,0,0,0,0,0,0,0,0,0,-1,1021,1380,0,0
-196,-356,0,0,0,0,0,0,0,0,0,-1,1028,1380,0,0
-189,-356,0,0,0,0,0,0,0,0,0,-1,1035,1380,0,0
-182,-356,0,0,0,0,0,0,0,0,0,-1,1042,1380,0,0
-175,-356,0,0,0,0,0,0,0,0,0,-1,1049,1380,0,0
-168,-356,0,0,0,0,0,0,0,0,0,-1,1056,1380,0,0
-161,-356,0,0,0,0,0,0,0,0,0,-1,1063,1380,0,0
-154,-356,0,0,0,0,0,0,0,0,0,-1,1070,1380,0,0
-147,-356,0,0,0,0,0,0,0,0,0,-1,1077,1380,0,0
-140,-356,0,0,0,0,0,0,0,0,0,-1,1084,1380,0,0
-133,-356,0,0,0,0,0,0,0,0,0,-1,1091,1380,0,0
-126,-356,0,0,0,0,0,0,0,0,0,-1,1098,1380,0,0
-119,-356,0,0,0,0,0,0,0,0,0,-1,1105,1380,0,0
-112,-356,0,0,0,0,0,0,0,0,0,-1,1112,1380,0,0
-105,-356,0,0,0,0,0,0,0,0,0,-1,1119,1380,0,0
-98,-356,0,0,0,0,0,0,0,0,0,-1,1126,1380,0,0
-91,-356,0,0,0,0,0,0,0,0,0,-1,1133,1380,0,0
-84,-356,0,0,0,0,0,0,0,0,0,-1,1140,1380,0,0
-77,-356,0,0,0,0,0,0,0,0,0,-1,1147,1380,0,0
-70,-356,0,0,0,0,0,0,0,0,0,-1,1154,1380,0,0
-63,-356,0,0,0,0,0,0,0,0,0,-1,1161,1380,0,0
-56,-356,0,0,0,0,0,0,0,0,0,-1,1168,1380,0,0
-49,-356,0,0,0,0,0,0,0,0,0,-1,1175,1380,0,0
-42,-356,0,0,0,0,0,0,0,0,0,-1,1182,1380,0,0
-35,-356,0,0,0,0,0,0,0,0,0,-1,1189,1380,0,0
-28,-356,0,0,0,0,0,0,0,0,0,-1,1196,1380,0,0
-21,-356,0,0,0,0,0,0,0,0,0,-1,1203,1380,0,0
-14,-356,0,0,0,0,0,0,0,0,0,-1,1210,1380,0,0
-7,-356,0,0,0,0,0,0,0,0,0,-1,1217,1380,0,0
0,-356,0,0,0,0,0,0,0,0,0,-1,1224,1380,0,0
7,-356,0,0,0,0,0,0,0,0,0,-1,1231,1380,0,0
14,-356,0,0,0,0,0,0,0,0,0,-1,1238,1380,0,0
21,-356,0,0,0,0,0,0,0,0,0,-1,1245,1380,0,0
28,-356,0,0,0,0,0,0,0,0,0,-1,1252,1380,0,0
35,-356,0,0,0,0,0,0,0,0,0,-1,1259,1380,0,0
42,-356,0,0,0,0,0,0,0,0,0,-1,1266,1380,0,0
49,-356,0,0,0,0,0,0,0,0,0,-1,1273,1380,0,0
56,-356,0,0,0,0,0,0,0,0,0,-1,1280,1380,0,0
63,-356,0,0,0,0,0,0,0,0,0,-1,1287,1380,0,0
70,-356,0,0,0,0,0,0,0,0,0,-1,1294,1380,0,0
77,-356,0,0,0,0,0,0,0,0,0,-1,1301,1380,0,0
84,-356,0,0,0,0,0,0,0,0,0,-1,1308,1380,0,0
91,-356,0,0,0,0,0,0,0,0,0,-1,1315,1380,0,0
98,-356,0,0,0,0,0,0,0,0,0,-1,1322,1380,0,0
105,-356,0,0,0,0,0,0,0,0,0,-1,1329,1380,0,0
112,-356,0,0,0,0,0,0,0,0,0,-1,1336,1380,0,0
119,-356,0,0,0,0,0,0,0,0,0,-1,1343,1380,0,0
126,-356,0,0,0,0,0,0,0,0,0,-1,1350,1380,0,0
133,-356,0,0,0,0,0,0,0,0,0,-1,1357,1380,0,0
140,-356,0,0,0,0,0,0,0,0,0,-1,1364,1380,0,0
147,-356,0,0,0,0,0,0,0,0,0,-1,1371,1380,0,0
154,-356,0,0,0,0,0,0,0,0,0,-1,1378,1380,0,0
161,-356,0,0,0,0,0,0,0,0,0,-1,1385,1380,0,0
168,-356,0,0,0,0,0,0,0,0,0,-1,1392,1380,0,0
175,-356,0,0,0,0,0,0,0,0,0,-1,1399,1380,0,0
182,-356,0,0,0,0,0,0,0,0,0,-1,1406,1380,0,0
189,-356,0,0,0,0,0,0,0,0,0,-1,1413,1380,0,0
196,-356,0,0,0,0,0,0,0,0,0,-1,1420,1380,0,0
203,-356,0,0,0,0,0,0,0,0,0,-1,1427,1380,0,0
210,-356,0,0,0,0,0,0,0,0,0,-1,1434,1380,0,0
217,-356,0,0,0,0,0,0,0,0,0,-1,1441,1380,0,0
224,-356,0,0,0,0,0,0,0,0,0,-1,1448,1380,0,0
231,-356,0,0,0,0,0,0,0,0,0,-1,1455,1380,0,0
238,-356,0,0,0,0,0,0,0,0,0,-1,1462,1380,0,0
245,-356,0,0,0,0,0,0,0,0,0,-1,1469,1380,0,0
252,-356,0,0,0,0,0,0,0,0,0,-1,1476,1380,0,0
259,-356,0,0,0,0,0,0,0,0,0,-1,1483,1380,0,0
266,-356,0,0,0,0,0,0,0,0,0,-1,1490,1380,0,0
273,-356,0,0,0,0,0,0,0,0,0,-1,1497,1380,0,0
280,-356,0,0,0,0,0,0,0,0,0,-1,1504,1380,0,0
287,-356,0,0,0,0,0,0,0,0,0,-1,1511,1380,0,0
294,-356,0,0,0,0,0,0,0,0,0,-1,1518,1380,0,0
301,-356,0,0,0,0,0,0,0,0,0,-1,1525,1380,0,0
308,-356,0,0,0,0,0,0,0,0,0,-1,1532,1380,0,0
315,-356,0,0,0,0,0,0,0,0,0,-1,1539,1380,0,0
322,-356,0,0,0,0,0,0,0,0,0,-1,1546,1380,0,0
329,-356,0,0,0,0,0,0,0,0,0,-1,1553,1380,0,0
336,-356,0,0,0,0,0,0,0,0,0,-1,1560,1380,0,0
343,-356,0,0,0,0,0,0,0,0,0,-1,1567,1380,0,0
350,-356,0,0,0,0,0,0,0,0,0,-1,1574,1380,0,0
357,-356,0,0,0,0,0,0,0,0,0,-1,1581,1380,0,0
364,-356,0,0,0,0,0,0,0,0,0,-1,1588,1380,0,0
371,-356,0,0,0,0,0,0,0,0,0,-1,1595,1380,0,0
378,-356,0,0,0,0,0,0,0,0,0,-1,1602,1380,0,0
385,-356,0,0,0,0,0,0,0,0,0,-1,1609,1380,0,0
392,-356,0,0,0,0,0,0,0,0,0,-1,1616,1380,0,0
399,-356,0,0,0,0,0,0,0,0,0,-1,1623,1380,0,0
406,-356,0,0,0,0,0,0,0,0,0,-1,1630,1380,0,0
413,-356,0,0,0,0,0,0,0,0,0,-1,1637,1380,0,0
420,-356,0,0,0,0,0,0,0,0,0,-1,1644,1380,0,0
427,-356,0,0,0,0,0,0,0,0,0,-1,1651,1380,0,0
434,-356,0,0,0,0,0,0,0,0,0,-1,1658,1380,0,0
441,-356,0,0,0,0,0,0,0,0,0,-1,1665,1380,0,0
448,-356,0,0,0,0,0,0,0,0,0,-1,1672,1380,0,0
455,-356,0,0,0,0,0,0,0,0,0,-1,1679,1380,0,0
462,-356,0,0,0,0,0,0,0,0,0,-1,1686,1380,0,0
469,-356,0,0,0,0,0,0,0,0,0,-1,1693,1380,0,0
476,-356,0,0,0,0,0,0,0,0,0,-1,1700,1380,0,0
483,-356,0,0,0,0,0,0,0,0,0,-1,1707,1380,0,0
490,-356,0,0,0,0,0,0,0,0,0,-1,1714,1380,0,0
497,-356,0,0,0,0,0,0,0,0,0,-1,1721,1380,0,0
504,-356,0,0,0,0,0,0,0,0,0,-1,1728,1380,0,0
511,-356,0,0,0,0,0,0,0,0,0,-1,1735,1380,0,0
518,-356,0,0,0,0,0,0,0,0,0,-1,1742,1380,0,0
525,-356,0,0,0,0,0,0,0,0,0,-1,1749,1380,0,0
532,-356,0,0,0,0,0,0,0,0,0,-1,1756,1380,0,0
539,-356,0,0,0,0,0,0,0,0,0,-1,1763,1380,0,0
546,-356,0,0,0,0,0,0,0,0,0,-1,1770,1380,0,0
553,-356,0,0,0,0,0,0,0,0,0,-1,1777,1380,0,0
560,-356,27.4741,2.35632,0,0,0,0,0,0,0,-1,1784,1380,27.4741,-2.35628
567,-356,30.0057,-0.38623,0,0,0,0,0,0,0,-1,1791,1380,30.0058,0.386207
574,-356,31.3999,0.269043,0,0,0,0,0,0,0,-1,1798,1380,31.3999,-0.26906
581,-356,31.9545,0.788452,0,0,0,0,0,0,0,-1,1805,1380,31.9545,-0.788436
588,-356,32.496,1.32678,0,0,0,0,0,0,0,-1,1812,1380,32.496,-1.32676
595,-356,32.0834,5.86084,0,0,0,0,0,0,0,-1,1819,1380,32.0834,-5.86079
602,-356,30.1604,6.07104,0,0,0,0,0,0,0,-1,1826,1380,30.1604,-6.07104
609,-356,28.3435,6.48901,0,0,0,0,0,0,0,-1,1833,1380,28.3435,-6.48899
616,-356,26.9358,6.80872,0,0,0,0,0,0,0,-1,1840,1380,26.9358,-6.80877
623,-356,16.1803,1.07532,0,0,0,0,0,0,0,-1,1847,1380,16.1803,-1.07529
630,-356,16.4138,6.91553,0,0,0,0,0,0,0,-1,1854,1380,16.4138,-6.9155
637,-356,21.4304,10.6605,0,0,0,0,0,0,0,-1,1861,1380,21.4305,-10.6605
644,-356,21.4487,10.0325,-0.0118604,-0.00222045,-0.00853556,0.00276201,-0.0168429,-1.04243,0.0122535,0.0414702,1868,1380,21.4488,-10.0324
651,-356,21.5188,9.51465,-0.00403473,-0.00167255,-0.0042188,0.00152737,-0.00723465,-0.921883,0.00540465,0.01726,1875,1380,21.5188,-9.51466
658,-356,21.4803,9.15417,0.000324752,-0.000473841,-0.00202005,0.00198459,-0.00213368,-0.687823,0.00237821,0.0150814,1882,1380,21.4804,-9.1542
665,-356,21.4789,8.84863,0.0015629,-9.30352e-05,-0.000839972,0.00191438,-0.000444509,-0.396297,0.00144736,0.0138438,1889,1380,21.4788,-8.84869
672,-356,21.4484,8.55066,0.00142721,-0.000252342,-0.000332924,0.00149079,-0.000315928,-0.188719,0.0011142,0.0144203,1896,1380,21.4483,-8.55069
679,-356,21.4539,8.19556,0.00138051,-0.000441649,8.92624e-05,0.00138487,-0.000446011,0.0488314,0.00110241,0.0169704,1903,1380,21.4539,-8.19559
686,-356,21.4657,7.85535,0.00142329,-0.00062608,0.000420237,0.00150612,-0.000708905,0.194597,0.00130616,0.0165698,1910,1380,21.4657,-7.85529
693,-356,21.486,7.54089,0.00155108,-0.000815301,0.000662528,0.00172394,-0.000988164,0.255225,0.00158493,0.0149243,1917,1380,21.486,-7.5409
700,-356,21.4706,7.17273,0.0017844,-0.000941527,0.000777879,0.00199076,-0.00114788,0.259308,0.00183375,0.0204133,1924,1380,21.4706,-7.17274
707,-356,21.541,6.61841,0,0,0,0,0,0,0,-1,1931,1380,21.541,-6.61843
714,-356,19.6907,5.82129,0,0,0,0,0,0,0,-1,1938,1380,19.6907,-5.82132
721,-356,17.2948,4.1958,0,0,0,0,0,0,0,-1,1945,1380,17.2948,-4.19584
728,-356,19.1846,2.31519,0,0,0,0,0,0,0,-1,1952,1380,19.1846,-2.31514
735,-356,20.0731,2.50842,0,0,0,0,0,0,0,-1,1959,1380,20.0731,-2.50844
742,-356,21.0111,2.43762,0,0,0,0,0,0,0,-1,1966,1380,21.0112,-2.43762
749,-356,22.1411,1.83276,0,0,0,0,0,0,0,-1,1973,1380,22.1411,-1.83275
756,-356,0,0,0,0,0,0,0,0,0,-1,1980,1380,0,0
763,-356,0,0,0,0,0,0,0,0,0,-1,1987,1380,0,0
770,-356,0,0,0,0,0,0,0,0,0,-1,1994,1380,0,0
777,-356,0,0,0,0,0,0,0,0,0,-1,2001,1380,0,0
784,-356,0,0,0,0,0,0,0,0,0,-1,2008,1380,0,0
791,-356,0,0,0,0,0,0,0,0,0,-1,2015,1380,0,0
798,-356,0,0,0,0,0,0,0,0,0,-1,2022,1380,0,0
805,-356,0,0,0,0,0,0,0,0,0,-1,2029,1380,0,0
812,-356,0,0,0,0,0,0,0,0,0,-1,2036,1380,0,0
-700,-363,0,0,0,0,0,0,0,0,0,-1,524,1387,0,0
-693,-363,0,0,0,0,0,0,0,0,0,-1,531,1387,0,0
-686,-363,0,0,0,0,0,0,0,0,0,-1,538,1387,0,0
-679,-363,0,0,0,0,0,0,0,0,0,-1,545,1387,0,0
-672,-363,0,0,0,0,0,0,0,0,0,-1,552,1387,0,0
-665,-363,0,0,0,0,0,0,0,0,0,-1,559,1387,0,0
-658,-363,0,0,0,0,0,0,0,0,0,-1,566,1387,0,0
-651,-363,0,0,0,0,0,0,0,0,0,-1,573,1387,0,0
-644,-363,0,0,0,0,0,0,0,0,0,-1,580,1387,0,0
-637,-363,0,0,0,0,0,0,0,0,0,-1,587,1387,0,0
-630,-363,0,0,0,0,0,0,0,0,0,-1,594,1387,0,0
-623,-363,-9.67566,-5.91846,0,0,0,0,0,0,0,-1,601,1387,-9.67563,5.91847
-616,-363,-9.02985,-2.98083,0,0,0,0,0,0,0,-1,608,1387,-9.02987,2.98079
-609,-363,-4.90265,0.195679,0,0,0,0,0,0,0,-1,615,1387,-4.90263,-0.195721
-602,-363,-9.65009,3.5321,0,0,0,0,0,0,0,-1,622,1387,-9.65007,-3.53211
-595,-363,-8.00256,3.48853,0,0,0,0,0,0,0,-1,629,1387,-8.00256,-3.48855
-588,-363,-9.94183,4.15503,0,0,0,0,0,0,0,-1,636,1387,-9.94186,-4.15499
-581,-363,-9.72321,4.61829,0,0,0,0,0,0,0,-1,643,1387,-9.72321,-4.61825
-574,-363,-9.96442,4.46912,0,0,0,0,0,0,0,-1,650,1387,-9.96441,-4.46909
-567,-363,-10.0315,4.94434,-0.0136506,0.00131195,-0.00483779,0.00273987,-0.0150785,-1.28379,0.0110791,0.0288947,657,1387,-10.0315,-4.94437
-560,-363,-10.0388,5.3114,-0.0102791,0.000909741,-0.00379553,0.00207577,-0.0114451,-1.27274,0.00840783,0.0139193,664,1387,-10.0387,-5.31136
-553,-363,-10.041,5.71387,-0.00695021,0.000632171,-0.00268571,0.00148707,-0.00780512,-1.26262,0.00576341,0.0146967,671,1387,-10.041,-5.71392
-546,-363,-10.0454,6.06165,-0.00364025,0.000413676,-0.00150383,0.000910617,-0.00413719,-1.25164,0.00310648,0.0145928,678,1387,-10.0454,-6.06169
-539,-363,-10.0322,6.43665,-0.000413877,0.000285989,-0.000280993,0.000384844,-0.000512731,-1.23252,0.000519965,0.0160478,685,1387,-10.0322,-6.43668
-532,-363,-10.0549,6.83362,0.00275472,0.000247736,0.0010075,0.00310942,-0.000106968,0.338513,0.00210951,0.0128646,692,1387,-10.0549,-6.83359
-525,-363,-10.061,7.21619,0.00582636,0.000258823,0.00231072,0.00666043,-0.00057525,0.346404,0.00464393,0.0105515,699,1387,-10.061,-7.21622
-518,-363,-10.0445,7.61292,0.0085621,8.54102e-05,0.00345838,0.00979404,-0.00114653,0.342203,0.00694316,0.00970191,706,1387,-10.0445,-7.6129
-511,-363,-9.98193,8.04431,0.0104016,-0.000621889,0.00388935,0.0116357,-0.00185598,0.307253,0.00844408,0.0198959,713,1387,-9.98195,-8.04426
-504,-363,-9.8988,8.48145,0,0,0,0,0,0,0,-1,720,1387,-9.89883,-8.48139
-497,-363,-7.18842,7.29944,0,0,0,0,0,0,0,-1,727,1387,-7.18839,-7.29945
-490,-363,-5.42413,4.6958,0,0,0,0,0,0,0,-1,734,1387,-5.42412,-4.69583
-483,-363,-6.28375,4.1394,0,0,0,0,0,0,0,-1,741,1387,-6.28374,-4.13944
-476,-363,-5.83807,4.31018,0,0,0,0,0,0,0,-1,748,1387,-5.8381,-4.31013
-469,-363,-10.7125,0.697754,0,0,0,0,0,0,0,-1,755,1387,-10.7125,-0.697811
-462,-363,-9.55951,-0.0830078,0,0,0,0,0,0,0,-1,762,1387,-9.55949,0.0830163
-455,-363,-13.1008,-0.290894,0,0,0,0,0,0,0,-1,769,1387,-13.1008,0.290921
-448,-363,-11.7324,2.46606,0,0,0,0,0,0,0,-1,776,1387,-11.7324,-2.46605
-441,-363,-12.4464,2.5354,0,0,0,0,0,0,0,-1,783,1387,-12.4463,-2.53537
-434,-363,-13.6918,2.14661,0,0,0,0,0,0,0,-1,790,1387,-13.6918,-2.14662
-427,-363,0,0,0,0,0,0,0,0,0,-1,797,1387,0,0
-420,-363,0,0,0,0,0,0,0,0,0,-1,804,1387,0,0
-413,-363,0,0,0,0,0,0,0,0,0,-1,811,1387,0,0
-406,-363,0,0,0,0,0,0,0,0,0,-1,818,1387,0,0
-399,-363,0,0,0,0,0,0,0,0,0,-1,825,1387,0,0
-392,-363,0,0,0,0,0,0,0,0,0,-1,832,1387,0,0
-385,-363,0,0,0,0,0,0,0,0,0,-1,839,1387,0,0
-378,-363,0,0,0,0,0,0,0,0,0,-1,846,1387,0,0
-371,-363,0,0,0,0,0,0,0,0,0,-1,853,1387,0,0
-364,-363,0,0,0,0,0,0,0,0,0,-1,860,1387,0,0
-357,-363,0,0,0,0,0,0,0,0,0,-1,867,1387,0,0
-350,-363,0,0,0,0,0,0,0,0,0,-1,874,1387,0,0
-343,-363,0,0,0,0,0,0,0,0,0,-1,881,1387,0,0
-336,-363,0,0,0,0,0,0,0,0,0,-1,888,1387,0,0
-329,-363,0,0,0,0,0,0,0,0,0,-1,895,1387,0,0
-322,-363,0,0,0,0,0,0,0,0,0,-1,902,1387,0,0
-315,-363,0,0,0,0,0,0,0,0,0,-1,909,1387,0,0
-308,-363,0,0,0,0,0,0,0,0,0,-1,916,1387,0,0
-301,-363,0,0,0,0,0,0,0,0,0,-1,923,1387,0,0
-294,-363,0,0,0,0,0,0,0,0,0,-1,930,1387,0,0
-287,-363,0,0,0,0,0,0,0,0,0,-1,937,1387,0,0
-280,-363,0,0,0,0,0,0,0,0,0,-1,944,1387,0,0
-273,-363,0,0,0,0,0,0,0,0,0,-1,951,1387,0,0
-266,-363,0,0,0,0,0,0,0,0,0,-1,958,1387,0,0
-259,-363,0,0,0,0,0,0,0,0,0,-1,965,1387,0,0
-252,-363,0,0,0,0,0,0,0,0,0,-1,972,1387,0,0
-245,-363,0,0,0,0,0,0,0,0,0,-1,979,1387,0,0
-238,-363,0,0,0,0,0,0,0,0,0,-1,986,1387,0,0
-231,-363,0,0,0,0,0,0,0,0,0,-1,993,1387,0,0
-224,-363,0,0,0,0,0,0,0,0,0,-1,1000,1387,0,0
-217,-363,0,0,0,0,0,0,0,0,0,-1,1007,1387,0,0
-210,-363,0,0,0,0,0,0,0,0,0,-1,1014,1387,0,0
-203,-363,0,0,0,0,0,0,0,0,0,-1,1021,1387,0,0
-196,-363,0,0,0,0,0,0,0,0,0,-1,1028,1387,0,0
-189,-363,0,0,0,0,0,0,0,0,0,-1,1035,1387,0,0
-182,-363,0,0,0,0,0,0,0,0,0,-1,1042,1387,0,0
-175,-363,0,0,0,0,0,0,0,0,0,-1,1049,1387,0,0
-168,-363,0,0,0,0,0,0,0,0,0,-1,1056,1387,0,0
-161,-363,0,0,0,0,0,0,0,0,0,-1,1063,1387,0,0
-154,-363,0,0,0,0,0,0,0,0,0,-1,1070,1387,0,0
-147,-363,0,0,0,0,0,0,0,0,0,-1,1077,1387,0,0
-140,-363,0,0,0,0,0,0,0,0,0,-1,1084,1387,0,0
-133,-363,0,0,0,0,0,0,0,0,0,-1,1091,1387,0,0
-126,-363,0,0,0,0,0,0,0,0,0,-1,1098,1387,0,0
-119,-363,0,0,0,0,0,0,0,0,0,-1,1105,1387,0,0
-112,-363,0,0,0,0,0,0,0,0,0,-1,1112,1387,0,0
-105,-363,0,0,0,0,0,0,0,0,0,-1,1119,1387,0,0
-98,-363,0,0,0,0,0,0,0,0,0,-1,1126,1387,0,0
-91,-363,0,0,0,0,0,0,0,0,0,-1,1133,1387,0,0
-84,-363,0,0,0,0,0,0,0,0,0,-1,1140,1387,0,0
-77,-363,0,0,0,0,0,0,0,0,0,-1,1147,1387,0,0
-70,-363,0,0,0,0,0,0,0,0,0,-1,1154,1387,0,0
-63,-363,0,0,0,0,0,0,0,0,0,-1,1161,1387,0,0
-56,-363,0,0,0,0,0,0,0,0,0,-1,1168,1387,0,0
-49,-363,0,0,0,0,0,0,0,0,0,-1,1175,1387,0,0
-42,-363,0,0,0,0,0,0,0,0,0,-1,1182,1387,0,0
-35,-363,0,0,0,0,0,0,0,0,0,-1,1189,1387,0,0
-28,-363,0,0,0,0,0,0,0,0,0,-1,1196,1387,0,0
-21,-363,0,0,0,0,0,0,0,0,0,-1,1203,1387,0,0
-14,-363,0,0,0,0,0,0,0,0,0,-1,1210,1387,0,0
-7,-363,0,0,0,0,0,0,0,0,0,-1,1217,1387,0,0
0,-363,0,0,0,0,0,0,0,0,0,-1,1224,1387,0,0
7,-363,0,0,0,0,0,0,0,0,0,-1,1231,1387,0,0
14,-363,0,0,0,0,0,0,0,0,0,-1,1238,1387,0,0
21,-363,0,0,0,0,0,0,0,0,0,-1,1245,1387,0,0
28,-363,0,0,0,0,0,0,0,0,0,-1,1252,1387,0,0
35,-363,0,0,0,0,0,0,0,0,0,-1,1259,1387,0,0
42,-363,0,0,0,0,0,0,0,0,0,-1,1266,1387,0,0
49,-363,0,0,0,0,0,0,0,0,0,-1,1273,1387,0,0
56,-363,0,0,0,0,0,0,0,0,0,-1,1280,1387,0,0
63,-363,0,0,0,0,0,0,0,0,0,-1,1287,1387,0,0
70,-363,0,0,0,0,0,0,0,0,0,-1,1294,1387,0,0
77,-363,0,0,0,0,0,0,0,0,0,-1,1301,1387,0,0
84,-363,0,0,0,0,0,0,0,0,0,-1,1308,1387,0,0
91,-363,0,0,0,0,0,0,0,0,0,-1,1315,1387,0,0
98,-363,0,0,0,0,0,0,0,0,0,-1,1322,1387,0,0
105,-363,0,0,0,0,0,0,0,0,0,-1,1329,1387,0,0
112,-363,0,0,0,0,0,0,0,0,0,-1,1336,1387,0,0
119,-363,0,0,0,0,0,0,0,0,0,-1,1343,1387,0,0
126,-363,0,0,0,0,0,0,0,0,0,-1,1350,1387,0,0
133,-363,0,0,0,0,0,0,0,0,0,-1,1357,1387,0,0
140,-363,0,0,0,0,0,0,0,0,0,-1,1364,1387,0,0
147,-363,0,0,0,0,0,0,0,0,0,-1,1371,1387,0,0
154,-363,0,0,0,0,0,0,0,0,0,-1,1378,1387,0,0
161,-363,0,0,0,0,0,0,0,0,0,-1,1385,1387,0,0
168,-363,0,0,0,0,0,0,0,0,0,-1,1392,1387,0,0
175,-363,0,0,0,0,0,0,0,0,0,-1,1399,1387,0,0
182,-363,0,0,0,0,0,0,0,0,0,-1,1406,1387,0,0
189,-363,0,0,0,0,0,0,0,0,0,-1,1413,1387,0,0
196,-363,0,0,0,0,0,0,0,0,0,-1,1420,1387,0,0
203,-363,0,0,0,0,0,0,0,0,0,-1,1427,1387,0,0
210,-363,0,0,0,0,0,0,0,0,0,-1,1434,1387,0,0
217,-363,0,0,0,0,0,0,0,0,0,-1,1441,1387,0,0
224,-363,0,0,0,0,0,0,0,0,0,-1,1448,1387,0,0
231,-363,0,0,0,0,0,0,0,0,0,-1,1455,1387,0,0
238,-363,0,0,0,0,0,0,0,0,0,-1,1462,1387,0,0
245,-363,0,0,0,0,0,0,0,0,0,-1,1469,1387,0,0
252,-363,0,0,0,0,0,0,0,0,0,-1,1476,1387,0,0
259,-363,0,0,0,0,0,0,0,0,0,-1,1483,1387,0,0
266,-363,0,0,0,0,0,0,0,0,0,-1,1490,1387,0,0
273,-363,0,0,0,0,0,0,0,0,0,-1,1497,1387,0,0
280,-363,0,0,0,0,0,0,0,0,0,-1,1504,1387,0,0
287,-363,0,0,0,0,0,0,0,0,0,-1,1511,1387,0,0
294,-363,0,0,0,0,0,0,0,0,0,-1,1518,1387,0,0
301,-363,0,0,0,0,0,0,0,0,0,-1,1525,1387,0,0
308,-363,0,0,0,0,0,0,0,0,0,-1,1532,1387,0,0
315,-363,0,0,0,0,0,0,0,0,0,-1,1539,1387,0,0
322,-363,0,0,0,0,0,0,0,0,0,-1,1546,1387,0,0
329,-363,0,0,0,0,0,0,0,0,0,-1,1553,1387,0,0
336,-363,0,0,0,0,0,0,0,0,0,-1,1560,1387,0,0
343,-363,0,0,0,0,0,0,0,0,0,-1,1567,1387,0,0
350,-363,0,0,0,0,0,0,0,0,0,-1,1574,1387,0,0
357,-363,0,0,0,0,0,0,0,0,0,-1,1581,1387,0,0
364,-363,0,0,0,0,0,0,0,0,0,-1,1588,1387,0,0
371,-363,0,0,0,0,0,0,0,0,0,-1,1595,1387,0,0
378,-363,0,0,0,0,0,0,0,0,0,-1,1602,1387,0,0
385,-363,0,0,0,0,0,0,0,0,0,-1,1609,1387,0,0
392,-363,0,0,0,0,0,0,0,0,0,-1,1616,1387,0,0
399,-363,0,0,0,0,0,0,0,0,0,-1,1623,1387,0,0
406,-363,0,0,0,0,0,0,0,0,0,-1,1630,1387,0,0
413,-363,0,0,0,0,0,0,0,0,0,-1,1637,1387,0,0
420,-363,0,0,0,0,0,0,0,0,0,-1,1644,1387,0,0
427,-363,0,0,0,0,0,0,0,0,0,-1,1651,1387,0,0
434,-363,0,0,0,0,0,0,0,0,0,-1,1658,1387,0,0
441,-363,0,0,0,0,0,0,0,0,0,-1,1665,1387,0,0
448,-363,0,0,0,0,0,0,0,0,0,-1,1672,1387,0,0
455,-363,0,0,0,0,0,0,0,0,0,-1,1679,1387,0,0
462,-363,0,0,0,0,0,0,0,0,0,-1,1686,1387,0,0
469,-363,0,0,0,0,0,0,0,0,0,-1,1693,1387,0,0
476,-363,0,0,0,0,0,0,0,0,0,-1,1700,1387,0,0
483,-363,0,0,0,0,0,0,0,0,0,-1,1707,1387,0,0
490,-363,0,0,0,0,0,0,0,0,0,-1,1714,1387,0,0
497,-363,0,0,0,0,0,0,0,0,0,-1,1721,1387,0,0
504,-363,0,0,0,0,0,0,0,0,0,-1,1728,1387,0,0
511,-363,0,0,0,0,0,0,0,0,0,-1,1735,1387,0,0
518,-363,0,0,0,0,0,0,0,0,0,-1,1742,1387,0,0
525,-363,0,0,0,0,0,0,0,0,0,-1,1749,1387,0,0
532,-363,0,0,0,0,0,0,0,0,0,-1,1756,1387,0,0
539,-363,0,0,0,0,0,0,0,0,0,-1,1763,1387,0,0
546,-363,0,0,0,0,0,0,0,0,0,-1,1770,1387,0,0
553,-363,26.4719,2.09753,0,0,0,0,0,0,0,-1,1777,1387,26.472,-2.09757
560,-363,27.1924,2.3584,0,0,0,0,0,0,0,-1,1784,1387,27.1924,-2.35836
567,-363,27.807,2.3446,0,0,0,0,0,0,0,-1,1791,1387,27.807,-2.34464
574,-363,32.0331,0.156006,0,0,0,0,0,0,0,-1,1798,1387,32.0331,-0.155952
581,-363,31.9629,1.03845,0,0,0,0,0,0,0,-1,1805,1387,31.9629,-1.03847
588,-363,32.5608,6.72131,0,0,0,0,0,0,0,-1,1812,1387,32.5608,-6.72131
595,-363,31.4688,6.95435,0,0,0,0,0,0,0,-1,1819,1387,31.4688,-6.95431
602,-363,25.7437,5.33667,0,0,0,0,0,0,0,-1,1826,1387,25.7437,-5.33667
609,-363,27.7048,7.06885,0,0,0,0,0,0,0,-1,1833,1387,27.7048,-7.06882
616,-363,16.229,1.08704,0,0,0,0,0,0,0,-1,1840,1387,16.229,-1.08706
623,-363,15.7283,7.16663,0,0,0,0,0,0,0,-1,1847,1387,15.7282,-7.16665
630,-363,18.3192,9.27844,0,0,0,0,0,0,0,-1,1854,1387,18.3192,-9.27843
637,-363,21.1038,10.399,0,0,0,0,0,0,0,-1,1861,1387,21.1037,-10.399
644,-363,21.1323,9.94019,-0.0069779,-0.00123721,-0.00605573,0.002594,-0.0108091,-1.00671,0.00820851,0.0132463,1868,1387,21.1323,-9.94017
651,-363,21.155,9.53503,-0.00169546,-0.000835814,-0.00314706,0.00191064,-0.00444191,-0.853268,0.00376345,0.0111601,1875,1387,21.155,-9.53508
658,-363,21.15,9.18359,0.000941538,-0.000144046,-0.00164271,0.00212881,-0.00133132,-0.625833,0.00201532,0.0112633,1882,1387,21.1501,-9.18361
665,-363,21.1348,8.90027,0.00166158,-3.75008e-05,-0.000706542,0.001917,-0.000292913,-0.346879,0.00138599,0.010908,1889,1387,21.1348,-8.90024
672,-363,21.1233,8.58191,0.00152552,-0.000235206,-0.000179259,0.00154358,-0.000253271,-0.100437,0.00112304,0.0127125,1896,1387,21.1233,-8.58188
679,-363,21.1079,8.22009,0.00149899,-0.000460653,0.000271518,0.00153591,-0.000497577,0.135163,0.00122399,0.0144595,1903,1387,21.1079,-8.22013
686,-363,21.1199,7.86682,0.00157154,-0.00070001,0.000642173,0.00174051,-0.000868985,0.257297,0.00153435,0.0152576,1910,1387,21.1199,-7.86676
693,-363,21.1373,7.53284,0.00179815,-0.000931322,0.000887312,0.00206124,-0.00119442,0.288248,0.00190173,0.0142297,1917,1387,21.1373,-7.53285
700,-363,21.2266,7.14124,0.0021956,-0.00107946,0.000980268,0.00246658,-0.00135045,0.269704,0.00223495,0.0218545,1924,1387,21.2266,-7.14128
707,-363,21.4093,6.78198,0,0,0,0,0,0,0,-1,1931,1387,21.4092,-6.78196
714,-363,16.5782,5.3147,0,0,0,0,0,0,0,-1,1938,1387,16.5783,-5.31472
721,-363,14.4045,4.51685,0,0,0,0,0,0,0,-1,1945,1387,14.4045,-4.51685
728,-363,19.9756,0.853027,0,0,0,0,0,0,0,-1,1952,1387,19.9756,-0.853059
735,-363,21.4297,1.2981,0,0,0,0,0,0,0,-1,1959,1387,21.4297,-1.29811
742,-363,21.3621,2.79663,0,0,0,0,0,0,0,-1,1966,1387,21.362,-2.7966
749,-363,0,0,0,0,0,0,0,0,0,-1,1973,1387,0,0
756,-363,0,0,0,0,0,0,0,0,0,-1,1980,1387,0,0
763,-363,0,0,0,0,0,0,0,0,0,-1,1987,1387,0,0
770,-363,0,0,0,0,0,0,0,0,0,-1,1994,1387,0,0
777,-363,0,0,0,0,0,0,0,0,0,-1,2001,1387,0,0
784,-363,0,0,0,0,0,0,0,0,0,-1,2008,1387,0,0
791,-363,0,0,0,0,0,0,0,0,0,-1,2015,1387,0,0
798,-363,0,0,0,0,0,0,0,0,0,-1,2022,1387,0,0
805,-363,0,0,0,0,0,0,0,0,0,-1,2029,1387,0,0
812,-363,0,0,0,0,0,0,0,0,0,-1,2036,1387,0,0
-700,-370,0,0,0,0,0,0,0,0,0,-1,524,1394,0,0
-693,-370,0,0,0,0,0,0,0,0,0,-1,531,1394,0,0
-686,-370,0,0,0,0,0,0,0,0,0,-1,538,1394,0,0
-679,-370,0,0,0,0,0,0,0,0,0,-1,545,1394,0,0
-672,-370,0,0,0,0,0,0,0,0,0,-1,552,1394,0,0
-665,-370,0,0,0,0,0,0,0,0,0,-1,559,1394,0,0
-658,-370,0,0,0,0,0,0,0,0,0,-1,566,1394,0,0
-651,-370,0,0,0,0,0,0,0,0,0,-1,573,1394,0,0
-644,-370,0,0,0,0,0,0,0,0,0,-1,580,1394,0,0
-637,-370,0,0,0,0,0,0,0,0,0,-1,587,1394,0,0
-630,-370,0,0,0,0,0,0,0,0,0,-1,594,1394,0,0
-623,-370,-10.1758,-7.10486,0,0,0,0,0,0,0,-1,601,1394,-10.1758,7.10483
-616,-370,-8.85925,-1.61475,0,0,0,0,0,0,0,-1,608,1394,-8.85925,1.61476
-609,-370,-5.39325,0.0421143,0,0,0,0,0,0,0,-1,615,1394,-5.39328,-0.0421372
-602,-370,-12.3151,3.44592,0,0,0,0,0,0,0,-1,622,1394,-12.3151,-3.44595
-595,-370,-7.53284,5.44214,0,0,0,0,0,0,0,-1,629,1394,-7.53284,-5.44216
-588,-370,-8.12195,3.45691,0,0,0,0,0,0,0,-1,636,1394,-8.12197,-3.45693
-581,-370,-9.18567,4.24585,0,0,0,0,0,0,0,-1,643,1394,-9.18568,-4.24587
-574,-370,-9.30835,4.71973,-0.0226671,0.00215853,-0.00763361,0.00431795,-0.0248265,-1.29512,0.0181622,0.0428344,650,1394,-9.30837,-4.71979
-567,-370,-9.50836,5.02917,-0.0178437,0.00164559,-0.00612011,0.00340807,-0.0196062,-1.2904,0.0143424,0.0358172,657,1394,-9.50836,-5.02919
-560,-370,-9.6908,5.30933,-0.0136952,0.00111069,-0.00487072,0.00256932,-0.0151538,-1.27983,0.0110589,0.0195744,664,1394,-9.69077,-5.30929
-553,-370,-9.65686,5.71606,-0.00978929,0.000752729,-0.00359903,0.00186424,-0.0109008,-1.27125,0.0079617,0.0117627,671,1394,-9.65683,-5.71605
-546,-370,-9.64679,6.07178,-0.00605465,0.000488095,-0.00230303,0.00121745,-0.006784,-1.2641,0.00497835,0.0143488,678,1394,-9.6468,-6.07177
-539,-370,-9.62189,6.47498,-0.00250208,0.000341211,-0.000978287,0.00064529,-0.00280616,-1.26944,0.00211888,0.0178068,685,1394,-9.62191,-6.47498
-532,-370,-9.65985,6.87683,0.000895827,0.000319255,0.000391686,0.00109388,0.000121201,0.468154,0.000692399,0.019133,692,1394,-9.65985,-6.8768
-525,-370,-9.67664,7.23779,0.00407707,0.000363684,0.00173648,0.00476256,-0.0003218,0.375977,0.00328756,0.0140172,699,1394,-9.67664,-7.23779
-518,-370,-9.66852,7.60632,0.00678558,0.000226936,0.00285159,0.00785201,-0.000839486,0.357872,0.00553576,0.0106441,706,1394,-9.66854,-7.60627
-511,-370,-9.64014,7.99683,0.00850607,-0.00064206,0.00311844,0.00946795,-0.00160394,0.299192,0.00690896,0.0142352,713,1394,-9.64014,-7.99686
-504,-370,-9.52808,8.40845,0.00949237,-0.00149913,0.00323262,0.0103726,-0.00237935,0.26585,0.00782964,0.0370173,720,1394,-9.52809,-8.40846
-497,-370,-8.77185,8.8689,0,0,0,0,0,0,0,-1,727,1394,-8.77185,-8.86889
-490,-370,-5.30695,4.5271,0,0,0,0,0,0,0,-1,734,1394,-5.30698,-4.52704
-483,-370,-6.02997,4.59253,0,0,0,0,0,0,0,-1,741,1394,-6.02994,-4.5925
-476,-370,-6.75293,4.65796,0,0,0,0,0,0,0,-1,748,1394,-6.7529,-4.65795
-469,-370,-10.584,1.14294,0,0,0,0,0,0,0,-1,755,1394,-10.584,-1.14293
-462,-370,-9.54462,0.387207,0,0,0,0,0,0,0,-1,762,1394,-9.5446,-0.387176
-455,-370,-8.50525,-0.36853,0,0,0,0,0,0,0,-1,769,1394,-8.50523,0.368582
-448,-370,-10.9543,2.28833,0,0,0,0,0,0,0,-1,776,1394,-10.9543,-2.28835
-441,-370,-11.8699,1.8313,0,0,0,0,0,0,0,-1,783,1394,-11.8699,-1.83127
-434,-370,-12.7855,1.37415,0,0,0,0,0,0,0,-1,790,1394,-12.7855,-1.37419
-427,-370,0,0,0,0,0,0,0,0,0,-1,797,1394,0,0
-420,-370,0,0,0,0,0,0,0,0,0,-1,804,1394,0,0
-413,-370,0,0,0,0,0,0,0,0,0,-1,811,1394,0,0
-406,-370,0,0,0,0,0,0,0,0,0,-1,818,1394,0,0
-399,-370,0,0,0,0,0,0,0,0,0,-1,825,1394,0,0
-392,-370,0,0,0,0,0,0,0,0,0,-1,832,1394,0,0
-385,-370,0,0,0,0,0,0,0,0,0,-1,839,1394,0,0
-378,-370,0,0,0,0,0,0,0,0,0,-1,846,1394,0,0
-371,-370,0,0,0,0,0,0,0,0,0,-1,853,1394,0,0
-364,-370,0,0,0,0,0,0,0,0,0,-1,860,1394,0,0
-357,-370,0,0,0,0,0,0,0,0,0,-1,867,1394,0,0
-350,-370,0,0,0,0,0,0,0,0,0,-1,874,1394,0,0
-343,-370,0,0,0,0,0,0,0,0,0,-1,881,1394,0,0
-336,-370,0,0,0,0,0,0,0,0,0,-1,888,1394,0,0
-329,-370,0,0,0,0,0,0,0,0,0,-1,895,1394,0,0
-322,-370,0,0,0,0,0,0,0,0,0,-1,902,1394,0,0
-315,-370,0,0,0,0,0,0,0,0,0,-1,909,1394,0,0
-308,-370,0,0,0,0,0,0,0,0,0,-1,916,1394,0,0
-301,-370,0,0,0,0,0,0,0,0,0,-1,923,1394,0,0
-294,-370,0,0,0,0,0,0,0,0,0,-1,930,1394,0,0
-287,-370,0,0,0,0,0,0,0,0,0,-1,937,1394,0,0
-280,-370,0,0,0,0,0,0,0,0,0,-1,944,1394,0,0
-273,-370,0,0,0,0,0,0,0,0,0,-1,951,1394,0,0
-266,-370,0,0,0,0,0,0,0,0,0,-1,958,1394,0,0
-259,-370,0,0,0,0,0,0,0,0,0,-1,965,1394,0,0
-252,-370,0,0,0,0,0,0,0,0,0,-1,972,1394,0,0
-245,-370,0,0,0,0,0,0,0,0,0,-1,979,1394,0,0
-238,-370,0,0,0,0,0,0,0,0,0,-1,986,1394,0,0
-231,-370,0,0,0,0,0,0,0,0,0,-1,993,1394,0,0
-224,-370,0,0,0,0,0,0,0,0,0,-1,1000,1394,0,0
-217,-370,0,0,0,0,0,0,0,0,0,-1,1007,1394,0,0
-210,-370,0,0,0,0,0,0,0,0,0,-1,1014,1394,0,0
-203,-370,0,0,0,0,0,0,0,0,0,-1,1021,1394,0,0
-196,-370,0,0,0,0,0,0,0,0,0,-1,1028,1394,0,0
-189,-370,0,0,0,0,0,0,0,0,0,-1,1035,1394,0,0
-182,-370,0,0,0,0,0,0,0,0,0,-1,1042,1394,0,0
-175,-370,0,0,0,0,0,0,0,0,0,-1,1049,1394,0,0
-168,-370,0,0,0,0,0,0,0,0,0,-1,1056,1394,0,0
-161,-370,0,0,0,0,0,0,0,0,0,-1,1063,1394,0,0
-154,-370,0,0,0,0,0,0,0,0,0,-1,1070,1394,0,0
-147,-370,0,0,0,0,0,0,0,0,0,-1,1077,1394,0,0
-140,-370,0,0,0,0,0,0,0,0,0,-1,1084,1394,0,0
-133,-370,0,0,0,0,0,0,0,0,0,-1,1091,1394,0,0
-126,-370,0,0,0,0,0,0,0,0,0,-1,1098,1394,0,0
-119,-370,0,0,0,0,0,0,0,0,0,-1,1105,1394,0,0
-112,-370,0,0,0,0,0,0,0,0,0,-1,1112,1394,0,0
-105,-370,0,0,0,0,0,0,0,0,0,-1,1119,1394,0,0
-98,-370,0,0,0,0,0,0,0,0,0,-1,1126,1394,0,0
-91,-370,0,0,0,0,0,0,0,0,0,-1,1133,1394,0,0
-84,-370,0,0,0,0,0,0,0,0,0,-1,1140,1394,0,0
-77,-370,0,0,0,0,0,0,0,0,0,-1,1147,1394,0,0
-70,-370,0,0,0,0,0,0,0,0,0,-1,1154,1394,0,0
-63,-370,0,0,0,0,0,0,0,0,0,-1,1161,1394,0,0
-56,-370,0,0,0,0,0,0,0,0,0,-1,1168,1394,0,0
-49,-370,0,0,0,0,0,0,0,0,0,-1,1175,1394,0,0
-42,-370,0,0,0,0,0,0,0,0,0,-1,1182,1394,0,0
-35,-370,0,0,0,0,0,0,0,0,0,-1,1189,1394,0,0
-28,-370,0,0,0,0,0,0,0,0,0,-1,1196,1394,0,0
-21,-370,0,0,0,0,0,0,0,0,0,-1,1203,1394,0,0
-14,-370,0,0,0,0,0,0,0,0,0,-1,1210,1394,0,0
-7,-370,0,0,0,0,0,0,0,0,0,-1,1217,1394,0,0
0,-370,0,0,0,0,0,0,0,0,0,-1,1224,1394,0,0
7,-370,0,0,0,0,0,0,0,0,0,-1,1231,1394,0,0
14,-370,0,0,0,0,0,0,0,0,0,-1,1238,1394,0,0
21,-370,0,0,0,0,0,0,0,0,0,-1,1245,1394,0,0
28,-370,0,0,0,0,0,0,0,0,0,-1,1252,1394,0,0
35,-370,0,0,0,0,0,0,0,0,0,-1,1259,1394,0,0
42,-370,0,0,0,0,0,0,0,0,0,-1,1266,1394,0,0
49,-370,0,0,0,0,0,0,0,0,0,-1,1273,1394,0,0
56,-370,0,0,0,0,0,0,0,0,0,-1,1280,1394,0,0
63,-370,0,0,0,0,0,0,0,0,0,-1,1287,1394,0,0
70,-370,0,0,0,0,0,0,0,0,0,-1,1294,1394,0,0
77,-370,0,0,0,0,0,0,0,0,0,-1,1301,1394,0,0
84,-370,0,0,0,0,0,0,0,0,0,-1,1308,1394,0,0
91,-370,0,0,0,0,0,0,0,0,0,-1,1315,1394,0,0
98,-370,0,0,0,0,0,0,0,0,0,-1,1322,1394,0,0
105,-370,0,0,0,0,0,0,0,0,0,-1,1329,1394,0,0
112,-370,0,0,0,0,0,0,0,0,0,-1,1336,1394,0,0
119,-370,0,0,0,0,0,0,0,0,0,-1,1343,1394,0,0
126,-370,0,0,0,0,0,0,0,0,0,-1,1350,1394,0,0
133,-370,0,0,0,0,0,0,0,0,0,-1,1357,1394,0,0
140,-370,0,0,0,0,0,0,0,0,0,-1,1364,1394,0,0
147,-370,0,0,0,0,0,0,0,0,0,-1,1371,1394,0,0
154,-370,0,0,0,0,0,0,0,0,0,-1,1378,1394,0,0
161,-370,0,0,0,0,0,0,0,0,0,-1,1385,1394,0,0
168,-370,0,0,0,0,0,0,0,0,0,-1,1392,1394,0,0
175,-370,0,0,0,0,0,0,0,0,0,-1,1399,1394,0,0
182,-370,0,0,0,0,0,0,0,0,0,-1,1406,1394,0,0
189,-370,0,0,0,0,0,0,0,0,0,-1,1413,1394,0,0
196,-370,0,0,0,0,0,0,0,0,0,-1,1420,1394,0,0
203,-370,0,0,0,0,0,0,0,0,0,-1,1427,1394,0,0
210,-370,0,0,0,0,0,0,0,0,0,-1,1434,1394,0,0
217,-370,0,0,0,0,0,0,0,0,0,-1,1441,1394,0,0
224,-370,0,0,0,0,0,0,0,0,0,-1,1448,1394,0,0
231,-370,0,0,0,0,0,0,0,0,0,-1,1455,1394,0,0
238,-370,0,0,0,0,0,0,0,0,0,-1,1462,1394,0,0
245,-370,0,0,0,0,0,0,0,0,0,-1,1469,1394,0,0
252,-370,0,0,0,0,0,0,0,0,0,-1,1476,1394,0,0
259,-370,0,0,0,0,0,0,0,0,0,-1,1483,1394,0,0
266,-370,0,0,0,0,0,0,0,0,0,-1,1490,1394,0,0
273,-370,0,0,0,0,0,0,0,0,0,-1,1497,1394,0,0
280,-370,0,0,0,0,0,0,0,0,0,-1,1504,1394,0,0
287,-370,0,0,0,0,0,0,0,0,0,-1,1511,1394,0,0
294,-370,0,0,0,0,0,0,0,0,0,-1,1518,1394,0,0
301,-370,0,0,0,0,0,0,0,0,0,-1,1525,1394,0,0
308,-370,0,0,0,0,0,0,0,0,0,-1,1532,1394,0,0
315,-370,0,0,0,0,0,0,0,0,0,-1,1539,1394,0,0
322,-370,0,0,0,0,0,0,0,0,0,-1,1546,1394,0,0
329,-370,0,0,0,0,0,0,0,0,0,-1,1553,1394,0,0
336,-370,0,0,0,0,0,0,0,0,0,-1,1560,1394,0,0
343,-370,0,0,0,0,0,0,0,0,0,-1,1567,1394,0,0
350,-370,0,0,0,0,0,0,0,0,0,-1,1574,1394,0,0
357,-370,0,0,0,0,0,0,0,0,0,-1,1581,1394,0,0
364,-370,0,0,0,0,0,0,0,0,0,-1,1588,1394,0,0
371,-370,0,0,0,0,0,0,0,0,0,-1,1595,1394,0,0
378,-370,0,0,0,0,0,0,0,0,0,-1,1602,1394,0,0
385,-370,0,0,0,0,0,0,0,0,0,-1,1609,1394,0,0
392,-370,0,0,0,0,0,0,0,0,0,-1,1616,1394,0,0
399,-370,0,0,0,0,0,0,0,0,0,-1,1623,1394,0,0
406,-370,0,0,0,0,0,0,0,0,0,-1,1630,1394,0,0
413,-370,0,0,0,0,0,0,0,0,0,-1,1637,1394,0,0
420,-370,0,0,0,0,0,0,0,0,0,-1,1644,1394,0,0
427,-370,0,0,0,0,0,0,0,0,0,-1,1651,1394,0,0
434,-370,0,0,0,0,0,0,0,0,0,-1,1658,1394,0,0
441,-370,0,0,0,0,0,0,0,0,0,-1,1665,1394,0,0
448,-370,0,0,0,0,0,0,0,0,0,-1,1672,1394,0,0
455,-370,0,0,0,0,0,0,0,0,0,-1,1679,1394,0,0
462,-370,0,0,0,0,0,0,0,0,0,-1,1686,1394,0,0
469,-370,0,0,0,0,0,0,0,0,0,-1,1693,1394,0,0
476,-370,0,0,0,0,0,0,0,0,0,-1,1700,1394,0,0
483,-370,0,0,0,0,0,0,0,0,0,-1,1707,1394,0,0
490,-370,0,0,0,0,0,0,0,0,0,-1,1714,1394,0,0
497,-370,0,0,0,0,0,0,0,0,0,-1,1721,1394,0,0
504,-370,0,0,0,0,0,0,0,0,0,-1,1728,1394,0,0
511,-370,0,0,0,0,0,0,0,0,0,-1,1735,1394,0,0
518,-370,0,0,0,0,0,0,0,0,0,-1,1742,1394,0,0
525,-370,0,0,0,0,0,0,0,0,0,-1,1749,1394,0,0
532,-370,0,0,0,0,0,0,0,0,0,-1,1756,1394,0,0
539,-370,0,0,0,0,0,0,0,0,0,-1,1763,1394,0,0
546,-370,27.4949,2.81201,0,0,0,0,0,0,0,-1,1770,1394,27.4948,-2.81198
553,-370,26.5985,1.99329,0,0,0,0,0,0,0,-1,1777,1394,26.5985,-1.99327
560,-370,27.1606,2.1084,0,0,0,0,0,0,0,-1,1784,1394,27.1606,-2.10838
567,-370,27.619,2.3833,0,0,0,0,0,0,0,-1,1791,1394,27.619,-2.38327
574,-370,28.0094,2.6936,0,0,0,0,0,0,0,-1,1798,1394,28.0094,-2.69357
581,-370,26.7473,2.29626,0,0,0,0,0,0,0,-1,1805,1394,26.7473,-2.29625
588,-370,32.1333,7.8728,0,0,0,0,0,0,0,-1,1812,1394,32.1333,-7.87275
595,-370,25.793,4.5271,0,0,0,0,0,0,0,-1,1819,1394,25.793,-4.52711
602,-370,25.1077,5.34937,0,0,0,0,0,0,0,-1,1826,1394,25.1077,-5.34932
609,-370,16.712,0.993286,0,0,0,0,0,0,0,-1,1833,1394,16.7121,-0.99323
616,-370,16.7764,7.23315,0,0,0,0,0,0,0,-1,1840,1394,16.7764,-7.23313
623,-370,17.6625,8.94263,0,0,0,0,0,0,0,-1,1847,1394,17.6624,-8.94258
630,-370,20.2814,10.9325,0,0,0,0,0,0,0,-1,1854,1394,20.2814,-10.9325
637,-370,20.5774,10.3817,-0.00815522,-0.000824662,-0.00603243,0.00256871,-0.0115486,-1.05839,0.00868288,0.0481344,1861,1394,20.5774,-10.3817
644,-370,20.8015,9.91443,-0.00348719,-0.000363209,-0.0037465,0.00213387,-0.00598427,-0.982902,0.00485956,0.0129693,1868,1394,20.8015,-9.91438
651,-370,20.8152,9.55688,-0.000310294,-0.00020223,-0.00206259,0.00180704,-0.00231956,-0.798493,0.00238861,0.0118998,1875,1394,20.8151,-9.55683
658,-370,20.8226,9.21497,0.00130903,8.27022e-05,-0.00109302,0.00194913,-0.000557397,-0.529781,0.00151968,0.0120033,1882,1394,20.8226,-9.21493
665,-370,20.8022,8.90173,0.00164902,-4.97789e-05,-0.00044698,0.00175945,-0.000160208,-0.242206,0.00122985,0.0129599,1889,1394,20.8023,-8.90174
672,-370,20.7878,8.56458,0.00154503,-0.000259805,7.60852e-05,0.00154823,-0.000263007,0.042057,0.00113007,0.0143687,1896,1394,20.7878,-8.56457
679,-370,20.7811,8.20349,0.00154576,-0.000521064,0.000551059,0.0016835,-0.000658808,0.244943,0.0013948,0.0144396,1903,1394,20.7811,-8.20353
686,-370,20.7883,7.87646,0.00164811,-0.000827242,0.000968974,0.0019823,-0.00116143,0.332113,0.00183554,0.0144978,1910,1394,20.7884,-7.87641
693,-370,20.7882,7.51611,0.00196478,-0.00113752,0.001236,0.00239701,-0.00156974,0.336403,0.00230674,0.0124523,1917,1394,20.7881,-7.51612
700,-370,20.8915,7.12927,0.00249962,-0.00139668,0.0013568,0.00292553,-0.0018226,0.304171,0.00276588,0.0252125,1924,1394,20.8915,-7.12929
707,-370,21.099,6.698,0,0,0,0,0,0,0,-1,1931,1394,21.099,-6.69794
714,-370,16.9116,5.93018,0,0,0,0,0,0,0,-1,1938,1394,16.9116,-5.93014
721,-370,17.2007,4.69153,0,0,0,0,0,0,0,-1,1945,1394,17.2007,-4.69158
728,-370,20.5315,-0.313354,0,0,0,0,0,0,0,-1,1952,1394,20.5315,0.313332
735,-370,22.3652,0.233398,0,0,0,0,0,0,0,-1,1959,1394,22.3652,-0.233355
742,-370,24.1989,0.780029,0,0,0,0,0,0,0,-1,1966,1394,24.1989,-0.780041
749,-370,0,0,0,0,0,0,0,0,0,-1,1973,1394,0,0
756,-370,0,0,0,0,0,0,0,0,0,-1,1980,1394,0,0
763,-370,0,0,0,0,0,0,0,0,0,-1,1987,1394,0,0
770,-370,0,0,0,0,0,0,0,0,0,-1,1994,1394,0,0
777,-370,0,0,0,0,0,0,0,0,0,-1,2001,1394,0,0
784,-370,0,0,0,0,0,0,0,0,0,-1,2008,1394,0,0
791,-370,0,0,0,0,0,0,0,0,0,-1,2015,1394,0,0
798,-370,0,0,0,0,0,0,0,0,0,-1,2022,1394,0,0
805,-370,0,0,0,0,0,0,0,0,0,-1,2029,1394,0,0
812,-370,0,0,0,0,0,0,0,0,0,-1,2036,1394,0,0
-700,-377,0,0,0,0,0,0,0,0,0,-1,524,1401,0,0
-693,-377,0,0,0,0,0,0,0,0,0,-1,531,1401,0,0
-686,-377,0,0,0,0,0,0,0,0,0,-1,538,1401,0,0
-679,-377,0,0,0,0,0,0,0,0,0,-1,545,1401,0,0
-672,-377,0,0,0,0,0,0,0,0,0,-1,552,1401,0,0
-665,-377,0,0,0,0,0,0,0,0,0,-1,559,1401,0,0
-658,-377,0,0,0,0,0,0,0,0,0,-1,566,1401,0,0
-651,-377,0,0,0,0,0,0,0,0,0,-1,573,1401,0,0
-644,-377,0,0,0,0,0,0,0,0,0,-1,580,1401,0,0
-637,-377,0,0,0,0,0,0,0,0,0,-1,587,1401,0,0
-630,-377,0,0,0,0,0,0,0,0,0,-1,594,1401,0,0
-623,-377,0,0,0,0,0,0,0,0,0,-1,601,1401,0,0
-616,-377,-9.43915,-2.4906,0,0,0,0,0,0,0,-1,608,1401,-9.43915,2.49062
-609,-377,-7.2821,-1.35278,0,0,0,0,0,0,0,-1,615,1401,-7.28208,1.35279
-602,-377,-14.9736,3.98279,0,0,0,0,0,0,0,-1,622,1401,-14.9737,-3.98276
-595,-377,-6.9082,1.18201,0,0,0,0,0,0,0,-1,629,1401,-6.90822,-1.18204
-588,-377,-9.32385,4.25415,0,0,0,0,0,0,0,-1,636,1401,-9.32383,-4.25418
-581,-377,-8.77533,4.25769,0,0,0,0,0,0,0,-1,643,1401,-8.77535,-4.25765
-574,-377,-8.92212,4.72058,-0.0291413,0.00284217,-0.00950785,0.00545513,-0.0317543,-1.3026,0.0232027,0.0487942,650,1401,-8.92213,-4.72059
-567,-377,-9.03589,5.06299,-0.0228906,0.00206137,-0.00761129,0.00419983,-0.025029,-1.2969,0.0182478,0.0371239,657,1401,-9.03589,-5.06295
-560,-377,-9.35413,5.36206,-0.01774,0.00132672,-0.00610834,0.00311577,-0.019529,-1.28588,0.0141726,0.0325498,664,1401,-9.35412,-5.36204
-553,-377,-9.26892,5.70276,-0.0131087,0.000846401,-0.00464659,0.00225199,-0.0145143,-1.27705,0.0105076,0.013255,671,1401,-9.26894,-5.70281
-546,-377,-9.27386,6.10876,-0.00884121,0.000507773,-0.00322603,0.00151291,-0.00984634,-1.26876,0.0071223,0.0158774,678,1401,-9.27385,-6.10881
-539,-377,-9.25977,6.46118,-0.00487055,0.000318585,-0.00178923,0.000875702,-0.00542767,-1.26894,0.0039429,0.0206437,685,1401,-9.25977,-6.46117
-532,-377,-9.28955,6.82739,-0.00116097,0.000293951,-0.000330925,0.000365684,-0.00123271,-1.35733,0.000967027,0.0182381,692,1401,-9.28954,-6.82733
-525,-377,-9.25684,7.25293,0.00220958,0.000348633,0.00105623,0.00268673,-0.000128514,0.424306,0.00183549,0.0174206,699,1401,-9.25681,-7.25294
-518,-377,-9.2937,7.62244,0.00498921,0.00022987,0.00215338,0.00581888,-0.000599801,0.367759,0.00409386,0.0118533,706,1401,-9.29371,-7.62243
-511,-377,-9.30707,8.00281,0.00675788,-0.000735998,0.00236724,0.00744303,-0.00142114,0.28173,0.00549731,0.0111024,713,1401,-9.30709,-8.00278
-504,-377,-9.31085,8.39319,0.00789981,-0.0016115,0.00246153,0.0084991,-0.00221078,0.238815,0.00652898,0.0133771,720,1401,-9.31087,-8.39318
-497,-377,-8.91022,8.81921,0.00833195,-0.0035036,0.00190657,0.00863149,-0.00380314,0.155838,0.00735733,0.0431981,727,1401,-8.9102,-8.81918
-490,-377,-8.34882,9.40759,0,0,0,0,0,0,0,-1,734,1401,-8.34879,-9.40754
-483,-377,-5.6524,5.07324,0,0,0,0,0,0,0,-1,741,1401,-5.6524,-5.07325
-476,-377,-6.11682,5.10535,0,0,0,0,0,0,0,-1,748,1401,-6.11681,-5.10537
-469,-377,-10.3211,1.9281,0,0,0,0,0,0,0,-1,755,1401,-10.3211,-1.92808
-462,-377,-9.2204,1.0022,0,0,0,0,0,0,0,-1,762,1401,-9.22039,-1.00218
-455,-377,-8.11969,0.0762939,0,0,0,0,0,0,0,-1,769,1401,-8.11968,-0.0762759
-448,-377,-9.05334,0.877319,0,0,0,0,0,0,0,-1,776,1401,-9.05332,-0.877324
-441,-377,-11.212,0.763428,0,0,0,0,0,0,0,-1,783,1401,-11.212,-0.763415
-434,-377,-11.0984,0.996216,0,0,0,0,0,0,0,-1,790,1401,-11.0984,-0.996265
-427,-377,-11.1733,1.25732,0,0,0,0,0,0,0,-1,797,1401,-11.1733,-1.25732
-420,-377,0,0,0,0,0,0,0,0,0,-1,804,1401,0,0
-413,-377,0,0,0,0,0,0,0,0,0,-1,811,1401,0,0
-406,-377,0,0,0,0,0,0,0,0,0,-1,818,1401,0,0
-399,-377,0,0,0,0,0,0,0,0,0,-1,825,1401,0,0
-392,-377,0,0,0,0,0,0,0,0,0,-1,832,1401,0,0
-385,-377,0,0,0,0,0,0,0,0,0,-1,839,1401,0,0
-378,-377,0,0,0,0,0,0,0,0,0,-1,846,1401,0,0
-371,-377,0,0,0,0,0,0,0,0,0,-1,853,1401,0,0
-364,-377,0,0,0,0,0,0,0,0,0,-1,860,1401,0,0
-357,-377,0,0,0,0,0,0,0,0,0,-1,867,1401,0,0
-350,-377,0,0,0,0,0,0,0,0,0,-1,874,1401,0,0
-343,-377,0,0,0,0,0,0,0,0,0,-1,881,1401,0,0
-336,-377,0,0,0,0,0,0,0,0,0,-1,888,1401,0,0
-329,-377,0,0,0,0,0,0,0,0,0,-1,895,1401,0,0
-322,-377,0,0,0,0,0,0,0,0,0,-1,902,1401,0,0
-315,-377,0,0,0,0,0,0,0,0,0,-1,909,1401,0,0
-308,-377,0,0,0,0,0,0,0,0,0,-1,916,1401,0,0
-301,-377,0,0,0,0,0,0,0,0,0,-1,923,1401,0,0
-294,-377,0,0,0,0,0,0,0,0,0,-1,930,1401,0,0
-287,-377,0,0,0,0,0,0,0,0,0,-1,937,1401,0,0
-280,-377,0,0,0,0,0,0,0,0,0,-1,944,1401,0,0
-273,-377,0,0,0,0,0,0,0,0,0,-1,951,1401,0,0
-266,-377,0,0,0,0,0,0,0,0,0,-1,958,1401,0,0
-259,-377,0,0,0,0,0,0,0,0,0,-1,965,1401,0,0
-252,-377,0,0,0,0,0,0,0,0,0,-1,972,1401,0,0
-245,-377,0,0,0,0,0,0,0,0,0,-1,979,1401,0,0
-238,-377,0,0,0,0,0,0,0,0,0,-1,986,1401,0,0
-231,-377,0,0,0,0,0,0,0,0,0,-1,993,1401,0,0
-224,-377,0,0,0,0,0,0,0,0,0,-1,1000,1401,0,0
-217,-377,0,0,0,0,0,0,0,0,0,-1,1007,1401,0,0
-210,-377,0,0,0,0,0,0,0,0,0,-1,1014,1401,0,0
-203,-377,0,0,0,0,0,0,0,0,0,-1,1021,1401,0,0
-196,-377,0,0,0,0,0,0,0,0,0,-1,1028,1401,0,0
-189,-377,0,0,0,0,0,0,0,0,0,-1,1035,1401,0,0
-182,-377,0,0,0,0,0,0,0,0,0,-1,1042,1401,0,0
-175,-377,0,0,0,0,0,0,0,0,0,-1,1049,1401,0,0
-168,-377,0,0,0,0,0,0,0,0,0,-1,1056,1401,0,0
-161,-377,0,0,0,0,0,0,0,0,0,-1,1063,1401,0,0
-154,-377,0,0,0,0,0,0,0,0,0,-1,1070,1401,0,0
-147,-377,0,0,0,0,0,0,0,0,0,-1,1077,1401,0,0
-140,-377,0,0,0,0,0,0,0,0,0,-1,1084,1401,0,0
-133,-377,0,0,0,0,0,0,0,0,0,-1,1091,1401,0,0
-126,-377,0,0,0,0,0,0,0,0,0,-1,1098,1401,0,0
-119,-377,0,0,0,0,0,0,0,0,0,-1,1105,1401,0,0
-112,-377,0,0,0,0,0,0,0,0,0,-1,1112,1401,0,0
-105,-377,0,0,0,0,0,0,0,0,0,-1,1119,1401,0,0
-98,-377,0,0,0,0,0,0,0,0,0,-1,1126,1401,0,0
-91,-377,0,0,0,0,0,0,0,0,0,-1,1133,1401,0,0
-84,-377,0,0,0,0,0,0,0,0,0,-1,1140,1401,0,0
-77,-377,0,0,0,0,0,0,0,0,0,-1,1147,1401,0,0
-70,-377,0,0,0,0,0,0,0,0,0,-1,1154,1401,0,0
-63,-377,0,0,0,0,0,0,0,0,0,-1,1161,1401,0,0
-56,-377,0,0,0,0,0,0,0,0,0,-1,1168,1401,0,0
-49,-377,0,0,0,0,0,0,0,0,0,-1,1175,1401,0,0
-42,-377,0,0,0,0,0,0,0,0,0,-1,1182,1401,0,0
-35,-377,0,0,0,0,0,0,0,0,0,-1,1189,1401,0,0
-28,-377,0,0,0,0,0,0,0,0,0,-1,1196,1401,0,0
-21,-377,0,0,0,0,0,0,0,0,0,-1,1203,1401,0,0
-14,-377,0,0,0,0,0,0,0,0,0,-1,1210,1401,0,0
-7,-377,0,0,0,0,0,0,0,0,0,-1,1217,1401,0,0
0,-377,0,0,0,0,0,0,0,0,0,-1,1224,1401,0,0
7,-377,0,0,0,0,0,0,0,0,0,-1,1231,1401,0,0
14,-377,0,0,0,0,0,0,0,0,0,-1,1238,1401,0,0
21,-377,0,0,0,0,0,0,0,0,0,-1,1245,1401,0,0
28,-377,0,0,0,0,0,0,0,0,0,-1,1252,1401,0,0
35,-377,0,0,0,0,0,0,0,0,0,-1,1259,1401,0,0
42,-377,0,0,0,0,0,0,0,0,0,-1,1266,1401,0,0
49,-377,0,0,0,0,0,0,0,0,0,-1,1273,1401,0,0
56,-377,0,0,0,0,0,0,0,0,0,-1,1280,1401,0,0
63,-377,0,0,0,0,0,0,0,0,0,-1,1287,1401,0,0
70,-377,0,0,0,0,0,0,0,0,0,-1,1294,1401,0,0
77,-377,0,0,0,0,0,0,0,0,0,-1,1301,1401,0,0
84,-377,0,0,0,0,0,0,0,0,0,-1,1308,1401,0,0
91,-377,0,0,0,0,0,0,0,0,0,-1,1315,1401,0,0
98,-377,0,0,0,0,0,0,0,0,0,-1,1322,1401,0,0
105,-377,0,0,0,0,0,0,0,0,0,-1,1329,1401,0,0
112,-377,0,0,0,0,0,0,0,0,0,-1,1336,1401,0,0
119,-377,0,0,0,0,0,0,0,0,0,-1,1343,1401,0,0
126,-377,0,0,0,0,0,0,0,0,0,-1,1350,1401,0,0
133,-377,0,0,0,0,0,0,0,0,0,-1,1357,1401,0,0
140,-377,0,0,0,0,0,0,0,0,0,-1,1364,1401,0,0
147,-377,0,0,0,0,0,0,0,0,0,-1,1371,1401,0,0
154,-377,0,0,0,0,0,0,0,0,0,-1,1378,1401,0,0
161,-377,0,0,0,0,0,0,0,0,0,-1,1385,1401,0,0
168,-377,0,0,0,0,0,0,0,0,0,-1,1392,1401,0,0
175,-377,0,0,0,0,0,0,0,0,0,-1,1399,1401,0,0
182,-377,0,0,0,0,0,0,0,0,0,-1,1406,1401,0,0
189,-377,0,0,0,0,0,0,0,0,0,-1,1413,1401,0,0
196,-377,0,0,0,0,0,0,0,0,0,-1,1420,1401,0,0
203,-377,0,0,0,0,0,0,0,0,0,-1,1427,1401,0,0
210,-377,0,0,0,0,0,0,0,0,0,-1,1434,1401,0,0
217,-377,0,0,0,0,0,0,0,0,0,-1,1441,1401,0,0
224,-377,0,0,0,0,0,0,0,0,0,-1,1448,1401,0,0
231,-377,0,0,0,0,0,0,0,0,0,-1,1455,1401,0,0
238,-377,0,0,0,0,0,0,0,0,0,-1,1462,1401,0,0
245,-377,0,0,0,0,0,0,0,0,0,-1,1469,1401,0,0
252,-377,0,0,0,0,0,0,0,0,0,-1,1476,1401,0,0
259,-377,0,0,0,0,0,0,0,0,0,-1,1483,1401,0,0
266,-377,0,0,0,0,0,0,0,0,0,-1,1490,1401,0,0
273,-377,0,0,0,0,0,0,0,0,0,-1,1497,1401,0,0
280,-377,0,0,0,0,0,0,0,0,0,-1,1504,1401,0,0
287,-377,0,0,0,0,0,0,0,0,0,-1,1511,1401,0,0
294,-377,0,0,0,0,0,0,0,0,0,-1,1518,1401,0,0
301,-377,0,0,0,0,0,0,0,0,0,-1,1525,1401,0,0
308,-377,0,0,0,0,0,0,0,0,0,-1,1532,1401,0,0
315,-377,0,0,0,0,0,0,0,0,0,-1,1539,1401,0,0
322,-377,0,0,0,0,0,0,0,0,0,-1,1546,1401,0,0
329,-377,0,0,0,0,0,0,0,0,0,-1,1553,1401,0,0
336,-377,0,0,0,0,0,0,0,0,0,-1,1560,1401,0,0
343,-377,0,0,0,0,0,0,0,0,0,-1,1567,1401,0,0
350,-377,0,0,0,0,0,0,0,0,0,-1,1574,1401,0,0
357,-377,0,0,0,0,0,0,0,0,0,-1,1581,1401,0,0
364,-377,0,0,0,0,0,0,0,0,0,-1,1588,1401,0,0
371,-377,0,0,0,0,0,0,0,0,0,-1,1595,1401,0,0
378,-377,0,0,0,0,0,0,0,0,0,-1,1602,1401,0,0
385,-377,0,0,0,0,0,0,0,0,0,-1,1609,1401,0,0
392,-377,0,0,0,0,0,0,0,0,0,-1,1616,1401,0,0
399,-377,0,0,0,0,0,0,0,0,0,-1,1623,1401,0,0
406,-377,0,0,0,0,0,0,0,0,0,-1,1630,1401,0,0
413,-377,0,0,0,0,0,0,0,0,0,-1,1637,1401,0,0
420,-377,0,0,0,0,0,0,0,0,0,-1,1644,1401,0,0
427,-377,0,0,0,0,0,0,0,0,0,-1,1651,1401,0,0
434,-377,0,0,0,0,0,0,0,0,0,-1,1658,1401,0,0
441,-377,0,0,0,0,0,0,0,0,0,-1,1665,1401,0,0
448,-377,0,0,0,0,0,0,0,0,0,-1,1672,1401,0,0
455,-377,0,0,0,0,0,0,0,0,0,-1,1679,1401,0,0
462,-377,0,0,0,0,0,0,0,0,0,-1,1686,1401,0,0
469,-377,0,0,0,0,0,0,0,0,0,-1,1693,1401,0,0
476,-377,0,0,0,0,0,0,0,0,0,-1,1700,1401,0,0
483,-377,0,0,0,0,0,0,0,0,0,-1,1707,1401,0,0
490,-377,0,0,0,0,0,0,0,0,0,-1,1714,1401,0,0
497,-377,0,0,0,0,0,0,0,0,0,-1,1721,1401,0,0
504,-377,0,0,0,0,0,0,0,0,0,-1,1728,1401,0,0
511,-377,0,0,0,0,0,0,0,0,0,-1,1735,1401,0,0
518,-377,0,0,0,0,0,0,0,0,0,-1,1742,1401,0,0
525,-377,0,0,0,0,0,0,0,0,0,-1,1749,1401,0,0
532,-377,0,0,0,0,0,0,0,0,0,-1,1756,1401,0,0
539,-377,0,0,0,0,0,0,0,0,0,-1,1763,1401,0,0
546,-377,27.8485,2.34094,0,0,0,0,0,0,0,-1,1770,1401,27.8486,-2.34091
553,-377,27.2189,2.42493,0,0,0,0,0,0,0,-1,1777,1401,27.2188,-2.42498
560,-377,26.9808,1.78674,0,0,0,0,0,0,0,-1,1784,1401,26.9808,-1.78676
567,-377,27.4503,2.03894,0,0,0,0,0,0,0,-1,1791,1401,27.4503,-2.03893
574,-377,27.812,2.3855,0,0,0,0,0,0,0,-1,1798,1401,27.812,-2.38552
581,-377,26.3328,2.77588,0,0,0,0,0,0,0,-1,1805,1401,26.3328,-2.77582
588,-377,25.882,4.35217,0,0,0,0,0,0,0,-1,1812,1401,25.8819,-4.3522
595,-377,25.5392,5.11804,0,0,0,0,0,0,0,-1,1819,1401,25.5392,-5.11808
602,-377,24.816,5.79126,0,0,0,0,0,0,0,-1,1826,1401,24.816,-5.79124
609,-377,15.0223,4.76135,0,0,0,0,0,0,0,-1,1833,1401,15.0224,-4.76129
616,-377,14.1842,5.78992,0,0,0,0,0,0,0,-1,1840,1401,14.1842,-5.78987
623,-377,15.8248,8.76721,0,0,0,0,0,0,0,-1,1847,1401,15.8248,-8.76725
630,-377,20.1306,10.9031,0,0,0,0,0,0,0,-1,1854,1401,20.1306,-10.903
637,-377,20.38,10.3228,-0.000997714,0.000201813,-0.0028147,0.00247994,-0.00327584,-0.890369,0.00333368,0.0235769,1861,1401,20.38,-10.3228
644,-377,20.4597,9.9292,0.000336701,0.000315968,-0.0020211,0.00234746,-0.00169479,-0.782834,0.00234392,0.0126855,1868,1401,20.4597,-9.9292
651,-377,20.4655,9.56677,0.00127093,0.000226581,-0.0012469,0.00210058,-0.000603071,-0.587104,0.00163883,0.0131994,1875,1401,20.4655,-9.56681
658,-377,20.4778,9.22205,0.00164827,0.000186073,-0.000686676,0.00192018,-8.58396e-05,-0.377039,0.00130967,0.0141605,1882,1401,20.4778,-9.22199
665,-377,20.4816,8.87598,0.00158038,-4.34293e-05,-0.000170387,0.00159807,-6.11154e-05,-0.10343,0.00108632,0.0167494,1889,1401,20.4816,-8.87595
672,-377,20.4768,8.5304,0.00151837,-0.000249889,0.000336444,0.00158022,-0.00031174,0.181808,0.00117131,0.0183994,1896,1401,20.4768,-8.53042
679,-377,20.4362,8.21387,0.00154836,-0.000532073,0.000832615,0.00184054,-0.00082426,0.3375,0.00157538,0.0186122,1903,1401,20.4362,-8.21387
686,-377,20.4386,7.89258,0.00167621,-0.000901209,0.00131227,0.00222675,-0.00145174,0.397228,0.00213943,0.0154846,1910,1401,20.4386,-7.89256
693,-377,20.4663,7.52893,0.00208071,-0.00129573,0.00162649,0.00273675,-0.00195176,0.383388,0.00271953,0.0132644,1917,1401,20.4664,-7.52897
700,-377,20.4316,7.22607,0.00275261,-0.00170378,0.00182606,0.00340528,-0.00235644,0.343266,0.00334485,0.0366422,1924,1401,20.4317,-7.22606
707,-377,20.5474,6.8335,0,0,0,0,0,0,0,-1,1931,1401,20.5473,-6.83355
714,-377,16.5369,5.45959,0,0,0,0,0,0,0,-1,1938,1401,16.5369,-5.4596
721,-377,17.0913,5.42529,0,0,0,0,0,0,0,-1,1945,1401,17.0914,-5.42529
728,-377,14.5396,2.79724,0,0,0,0,0,0,0,-1,1952,1401,14.5396,-2.7972
735,-377,23.2977,-0.991089,0,0,0,0,0,0,0,-1,1959,1401,23.2978,0.991076
742,-377,0,0,0,0,0,0,0,0,0,-1,1966,1401,0,0
749,-377,0,0,0,0,0,0,0,0,0,-1,1973,1401,0,0
756,-377,0,0,0,0,0,0,0,0,0,-1,1980,1401,0,0
763,-377,0,0,0,0,0,0,0,0,0,-1,1987,1401,0,0
770,-377,0,0,0,0,0,0,0,0,0,-1,1994,1401,0,0
777,-377,0,0,0,0,0,0,0,0,0,-1,2001,1401,0,0
784,-377,0,0,0,0,0,0,0,0,0,-1,2008,1401,0,0
791,-377,0,0,0,0,0,0,0,0,0,-1,2015,1401,0,0
798,-377,0,0,0,0,0,0,0,0,0,-1,2022,1401,0,0
805,-377,0,0,0,0,0,0,0,0,0,-1,2029,1401,0,0
812,-377,0,0,0,0,0,0,0,0,0,-1,2036,1401,0,0
-700,-384,0,0,0,0,0,0,0,0,0,-1,524,1408,0,0
-693,-384,0,0,0,0,0,0,0,0,0,-1,531,1408,0,0
-686,-384,0,0,0,0,0,0,0,0,0,-1,538,1408,0,0
-679,-384,0,0,0,0,0,0,0,0,0,-1,545,1408,0,0
-672,-384,0,0,0,0,0,0,0,0,0,-1,552,1408,0,0
-665,-384,0,0,0,0,0,0,0,0,0,-1,559,1408,0,0
-658,-384,0,0,0,0,0,0,0,0,0,-1,566,1408,0,0
-651,-384,0,0,0,0,0,0,0,0,0,-1,573,1408,0,0
-644,-384,0,0,0,0,0,0,0,0,0,-1,580,1408,0,0
-637,-384,0,0,0,0,0,0,0,0,0,-1,587,1408,0,0
-630,-384,0,0,0,0,0,0,0,0,0,-1,594,1408,0,0
-623,-384,0,0,0,0,0,0,0,0,0,-1,601,1408,0,0
-616,-384,-10.019,-3.36646,0,0,0,0,0,0,0,-1,608,1408,-10.019,3.36648
-609,-384,-7.72357,-2.3418,0,0,0,0,0,0,0,-1,615,1408,-7.72358,2.34182
-602,-384,-11.7632,-2.85156,0,0,0,0,0,0,0,-1,622,1408,-11.7632,2.85157
-595,-384,-10.2217,2.8855,0,0,0,0,0,0,0,-1,629,1408,-10.2218,-2.88548
-588,-384,-9.64539,3.34167,0,0,0,0,0,0,0,-1,636,1408,-9.64537,-3.34165
-581,-384,-9.61896,4.8844,0,0,0,0,0,0,0,-1,643,1408,-9.61897,-4.88436
-574,-384,-8.04474,4.15332,0,0,0,0,0,0,0,-1,650,1408,-8.04473,-4.15336
-567,-384,-8.38446,4.82581,-0.0283765,0.00270339,-0.00904517,0.00514412,-0.0308173,-1.30723,0.0224568,0.0438096,657,1408,-8.38448,-4.82583
-560,-384,-8.77148,5.34021,-0.0220398,0.00167343,-0.00729442,0.00373758,-0.024104,-1.29503,0.0174491,0.0430407,664,1408,-8.77151,-5.34026
-553,-384,-8.91003,5.72437,-0.0165776,0.00101956,-0.00564787,0.00267629,-0.0182344,-1.28546,0.0131395,0.0245696,671,1408,-8.91003,-5.7244
-546,-384,-8.90143,6.12891,-0.0117206,0.00057569,-0.00411716,0.00182692,-0.0129718,-1.27576,0.00931674,0.0137904,678,1408,-8.90143,-6.12887
-539,-384,-8.91656,6.47241,-0.00730747,0.000318725,-0.00258358,0.00111156,-0.0081003,-1.27305,0.00580629,0.0155343,685,1408,-8.91655,-6.4724
-532,-384,-8.90027,6.81348,-0.00329893,0.000262504,-0.0010676,0.000558014,-0.00359444,-1.30076,0.00260232,0.0206036,692,1408,-8.90027,-6.81346
-525,-384,-8.88733,7.24597,0.000258044,0.000308063,0.000345286,0.000629243,-6.31373e-05,0.821551,0.000442047,0.0189511,699,1408,-8.88735,-7.24596
-518,-384,-8.91748,7.64136,0.00310389,0.000182903,0.00141218,0.00367497,-0.000388175,0.38429,0.00258909,0.0115678,706,1408,-8.9175,-7.64138
-511,-384,-8.95007,8.03467,0.00493173,-0.00085126,0.00159061,0.00534036,-0.00125988,0.251459,0.00404612,0.00980026,713,1408,-8.9501,-8.0347
-504,-384,-8.94714,8.43384,0.00623255,-0.00170264,0.00164544,0.00656022,-0.00203031,0.196566,0.0051845,0.0112127,720,1408,-8.94714,-8.43386
-497,-384,-8.90179,8.84863,0.00672359,-0.00360803,0.000855439,0.00679394,-0.00367838,0.0820536,0.00613474,0.0252324,727,1408,-8.90179,-8.84862
-490,-384,-8.61163,9.38257,0,0,0,0,0,0,0,-1,734,1408,-8.61161,-9.38262
-483,-384,-6.26471,7.61194,0,0,0,0,0,0,0,-1,741,1408,-6.26469,-7.61191
-476,-384,-6.02734,5.67761,0,0,0,0,0,0,0,-1,748,1408,-6.02736,-5.6776
-469,-384,-10.206,2.63721,0,0,0,0,0,0,0,-1,755,1408,-10.206,-2.6372
-462,-384,-9.04291,1.43542,0,0,0,0,0,0,0,-1,762,1408,-9.04293,-1.43545
-455,-384,-7.87988,0.233765,0,0,0,0,0,0,0,-1,769,1408,-7.87986,-0.233709
-448,-384,-9.35529,7.19226,0,0,0,0,0,0,0,-1,776,1408,-9.35531,-7.19226
-441,-384,-10.4697,1.79004,0,0,0,0,0,0,0,-1,783,1408,-10.4697,-1.79003
-434,-384,-10.6449,0.552246,0,0,0,0,0,0,0,-1,790,1408,-10.6449,-0.552216
-427,-384,-10.968,1.10583,0,0,0,0,0,0,0,-1,797,1408,-10.968,-1.10588
-420,-384,-12.5607,4.54858,0,0,0,0,0,0,0,-1,804,1408,-12.5607,-4.54859
-413,-384,0,0,0,0,0,0,0,0,0,-1,811,1408,0,0
-406,-384,0,0,0,0,0,0,0,0,0,-1,818,1408,0,0
-399,-384,0,0,0,0,0,0,0,0,0,-1,825,1408,0,0
-392,-384,0,0,0,0,0,0,0,0,0,-1,832,1408,0,0
-385,-384,0,0,0,0,0,0,0,0,0,-1,839,1408,0,0
-378,-384,0,0,0,0,0,0,0,0,0,-1,846,1408,0,0
-371,-384,0,0,0,0,0,0,0,0,0,-1,853,1408,0,0
-364,-384,0,0,0,0,0,0,0,0,0,-1,860,1408,0,0
-357,-384,0,0,0,0,0,0,0,0,0,-1,867,1408,0,0
-350,-384,0,0,0,0,0,0,0,0,0,-1,874,1408,0,0
-343,-384,0,0,0,0,0,0,0,0,0,-1,881,1408,0,0
-336,-384,0,0,0,0,0,0,0,0,0,-1,888,1408,0,0
-329,-384,0,0,0,0,0,0,0,0,0,-1,895,1408,0,0
-322,-384,0,0,0,0,0,0,0,0,0,-1,902,1408,0,0
-315,-384,0,0,0,0,0,0,0,0,0,-1,909,1408,0,0
-308,-384,0,0,0,0,0,0,0,0,0,-1,916,1408,0,0
-301,-384,0,0,0,0,0,0,0,0,0,-1,923,1408,0,0
-294,-384,0,0,0,0,0,0,0,0,0,-1,930,1408,0,0
-287,-384,0,0,0,0,0,0,0,0,0,-1,937,1408,0,0
-280,-384,0,0,0,0,0,0,0,0,0,-1,944,1408,0,0
-273,-384,0,0,0,0,0,0,0,0,0,-1,951,1408,0,0
-266,-384,0,0,0,0,0,0,0,0,0,-1,958,1408,0,0
-259,-384,0,0,0,0,0,0,0,0,0,-1,965,1408,0,0
-252,-384,0,0,0,0,0,0,0,0,0,-1,972,1408,0,0
-245,-384,0,0,0,0,0,0,0,0,0,-1,979,1408,0,0
-238,-384,0,0,0,0,0,0,0,0,0,-1,986,1408,0,0
-231,-384,0,0,0,0,0,0,0,0,0,-1,993,1408,0,0
-224,-384,0,0,0,0,0,0,0,0,0,-1,1000,1408,0,0
-217,-384,0,0,0,0,0,0,0,0,0,-1,1007,1408,0,0
-210,-384,0,0,0,0,0,0,0,0,0,-1,1014,1408,0,0
-203,-384,0,0,0,0,0,0,0,0,0,-1,1021,1408,0,0
-196,-384,0,0,0,0,0,0,0,0,0,-1,1028,1408,0,0
-189,-384,0,0,0,0,0,0,0,0,0,-1,1035,1408,0,0
-182,-384,0,0,0,0,0,0,0,0,0,-1,1042,1408,0,0
-175,-384,0,0,0,0,0,0,0,0,0,-1,1049,1408,0,0
-168,-384,0,0,0,0,0,0,0,0,0,-1,1056,1408,0,0
-161,-384,0,0,0,0,0,0,0,0,0,-1,1063,1408,0,0
-154,-384,0,0,0,0,0,0,0,0,0,-1,1070,1408,0,0
-147,-384,0,0,0,0,0,0,0,0,0,-1,1077,1408,0,0
-140,-384,0,0,0,0,0,0,0,0,0,-1,1084,1408,0,0
-133,-384,0,0,0,0,0,0,0,0,0,-1,1091,1408,0,0
-126,-384,0,0,0,0,0,0,0,0,0,-1,1098,1408,0,0
-119,-384,0,0,0,0,0,0,0,0,0,-1,1105,1408,0,0
-112,-384,0,0,0,0,0,0,0,0,0,-1,1112,1408,0,0
-105,-384,0,0,0,0,0,0,0,0,0,-1,1119,1408,0,0
-98,-384,0,0,0,0,0,0,0,0,0,-1,1126,1408,0,0
-91,-384,0,0,0,0,0,0,0,0,0,-1,1133,1408,0,0
-84,-384,0,0,0,0,0,0,0,0,0,-1,1140,1408,0,0
-77,-384,0,0,0,0,0,0,0,0,0,-1,1147,1408,0,0
-70,-384,0,0,0,0,0,0,0,0,0,-1,1154,1408,0,0
-63,-384,0,0,0,0,0,0,0,0,0,-1,1161,1408,0,0
-56,-384,0,0,0,0,0,0,0,0,0,-1,1168,1408,0,0
-49,-384,0,0,0,0,0,0,0,0,0,-1,1175,1408,0,0
-42,-384,0,0,0,0,0,0,0,0,0,-1,1182,1408,0,0
-35,-384,0,0,0,0,0,0,0,0,0,-1,1189,1408,0,0
-28,-384,0,0,0,0,0,0,0,0,0,-1,1196,1408,0,0
-21,-384,0,0,0,0,0,0,0,0,0,-1,1203,1408,0,0
-14,-384,0,0,0,0,0,0,0,0,0,-1,1210,1408,0,0
-7,-384,0,0,0,0,0,0,0,0,0,-1,1217,1408,0,0
0,-384,0,0,0,0,0,0,0,0,0,-1,1224,1408,0,0
7,-384,0,0,0,0,0,0,0,0,0,-1,1231,1408,0,0
14,-384,0,0,0,0,0,0,0,0,0,-1,1238,1408,0,0
21,-384,0,0,0,0,0,0,0,0,0,-1,1245,1408,0,0
28,-384,0,0,0,0,0,0,0,0,0,-1,1252,1408,0,0
35,-384,0,0,0,0,0,0,0,0,0,-1,1259,1408,0,0
42,-384,0,0,0,0,0,0,0,0,0,-1,1266,1408,0,0
49,-384,0,0,0,0,0,0,0,0,0,-1,1273,1408,0,0
56,-384,0,0,0,0,0,0,0,0,0,-1,1280,1408,0,0
63,-384,0,0,0,0,0,0,0,0,0,-1,1287,1408,0,0
70,-384,0,0,0,0,0,0,0,0,0,-1,1294,1408,0,0
77,-384,0,0,0,0,0,0,0,0,0,-1,1301,1408,0,0
84,-384,0,0,0,0,0,0,0,0,0,-1,1308,1408,0,0
91,-384,0,0,0,0,0,0,0,0,0,-1,1315,1408,0,0
98,-384,0,0,0,0,0,0,0,0,0,-1,1322,1408,0,0
105,-384,0,0,0,0,0,0,0,0,0,-1,1329,1408,0,0
112,-384,0,0,0,0,0,0,0,0,0,-1,1336,1408,0,0
119,-384,0,0,0,0,0,0,0,0,0,-1,1343,1408,0,0
126,-384,0,0,0,0,0,0,0,0,0,-1,1350,1408,0,0
133,-384,0,0,0,0,0,0,0,0,0,-1,1357,1408,0,0
140,-384,0,0,0,0,0,0,0,0,0,-1,1364,1408,0,0
147,-384,0,0,0,0,0,0,0,0,0,-1,1371,1408,0,0
154,-384,0,0,0,0,0,0,0,0,0,-1,1378,1408,0,0
161,-384,0,0,0,0,0,0,0,0,0,-1,1385,1408,0,0
168,-384,0,0,0,0,0,0,0,0,0,-1,1392,1408,0,0
175,-384,0,0,0,0,0,0,0,0,0,-1,1399,1408,0,0
182,-384,0,0,0,0,0,0,0,0,0,-1,1406,1408,0,0
189,-384,0,0,0,0,0,0,0,0,0,-1,1413,1408,0,0
196,-384,0,0,0,0,0,0,0,0,0,-1,1420,1408,0,0
203,-384,0,0,0,0,0,0,0,0,0,-1,1427,1408,0,0
210,-384,0,0,0,0,0,0,0,0,0,-1,1434,1408,0,0
217,-384,0,0,0,0,0,0,0,0,0,-1,1441,1408,0,0
224,-384,0,0,0,0,0,0,0,0,0,-1,1448,1408,0,0
231,-384,0,0,0,0,0,0,0,0,0,-1,1455,1408,0,0
238,-384,0,0,0,0,0,0,0,0,0,-1,1462,1408,0,0
245,-384,0,0,0,0,0,0,0,0,0,-1,1469,1408,0,0
252,-384,0,0,0,0,0,0,0,0,0,-1,1476,1408,0,0
259,-384,0,0,0,0,0,0,0,0,0,-1,1483,1408,0,0
266,-384,0,0,0,0,0,0,0,0,0,-1,1490,1408,0,0
273,-384,0,0,0,0,0,0,0,0,0,-1,1497,1408,0,0
280,-384,0,0,0,0,0,0,0,0,0,-1,1504,1408,0,0
287,-384,0,0,0,0,0,0,0,0,0,-1,1511,1408,0,0
294,-384,0,0,0,0,0,0,0,0,0,-1,1518,1408,0,0
301,-384,0,0,0,0,0,0,0,0,0,-1,1525,1408,0,0
308,-384,0,0,0,0,0,0,0,0,0,-1,1532,1408,0,0
315,-384,0,0,0,0,0,0,0,0,0,-1,1539,1408,0,0
322,-384,0,0,0,0,0,0,0,0,0,-1,1546,1408,0,0
329,-384,0,0,0,0,0,0,0,0,0,-1,1553,1408,0,0
336,-384,0,0,0,0,0,0,0,0,0,-1,1560,1408,0,0
343,-384,0,0,0,0,0,0,0,0,0,-1,1567,1408,0,0
350,-384,0,0,0,0,0,0,0,0,0,-1,1574,1408,0,0
357,-384,0,0,0,0,0,0,0,0,0,-1,1581,1408,0,0
364,-384,0,0,0,0,0,0,0,0,0,-1,1588,1408,0,0
371,-384,0,0,0,0,0,0,0,0,0,-1,1595,1408,0,0
378,-384,0,0,0,0,0,0,0,0,0,-1,1602,1408,0,0
385,-384,0,0,0,0,0,0,0,0,0,-1,1609,1408,0,0
392,-384,0,0,0,0,0,0,0,0,0,-1,1616,1408,0,0
399,-384,0,0,0,0,0,0,0,0,0,-1,1623,1408,0,0
406,-384,0,0,0,0,0,0,0,0,0,-1,1630,1408,0,0
413,-384,0,0,0,0,0,0,0,0,0,-1,1637,1408,0,0
420,-384,0,0,0,0,0,0,0,0,0,-1,1644,1408,0,0
427,-384,0,0,0,0,0,0,0,0,0,-1,1651,1408,0,0
434,-384,0,0,0,0,0,0,0,0,0,-1,1658,1408,0,0
441,-384,0,0,0,0,0,0,0,0,0,-1,1665,1408,0,0
448,-384,0,0,0,0,0,0,0,0,0,-1,1672,1408,0,0
455,-384,0,0,0,0,0,0,0,0,0,-1,1679,1408,0,0
462,-384,0,0,0,0,0,0,0,0,0,-1,1686,1408,0,0
469,-384,0,0,0,0,0,0,0,0,0,-1,1693,1408,0,0
476,-384,0,0,0,0,0,0,0,0,0,-1,1700,1408,0,0
483,-384,0,0,0,0,0,0,0,0,0,-1,1707,1408,0,0
490,-384,0,0,0,0,0,0,0,0,0,-1,1714,1408,0,0
497,-384,0,0,0,0,0,0,0,0,0,-1,1721,1408,0,0
504,-384,0,0,0,0,0,0,0,0,0,-1,1728,1408,0,0
511,-384,0,0,0,0,0,0,0,0,0,-1,1735,1408,0,0
518,-384,0,0,0,0,0,0,0,0,0,-1,1742,1408,0,0
525,-384,0,0,0,0,0,0,0,0,0,-1,1749,1408,0,0
532,-384,0,0,0,0,0,0,0,0,0,-1,1756,1408,0,0
539,-384,27.6886,2.85803,0,0,0,0,0,0,0,-1,1763,1408,27.6886,-2.85807
546,-384,27.5044,2.9425,0,0,0,0,0,0,0,-1,1770,1408,27.5044,-2.94255
553,-384,27.3052,2.78394,0,0,0,0,0,0,0,-1,1777,1408,27.3051,-2.78394
560,-384,26.833,3.19812,0,0,0,0,0,0,0,-1,1784,1408,26.833,-3.19816
567,-384,32.4751,6.03601,0,0,0,0,0,0,0,-1,1791,1408,32.4751,-6.03605
574,-384,25.8635,3.7915,0,0,0,0,0,0,0,-1,1798,1408,25.8636,-3.79148
581,-384,25.819,3.91846,0,0,0,0,0,0,0,-1,1805,1408,25.8189,-3.91848
588,-384,23.3721,4.25439,0,0,0,0,0,0,0,-1,1812,1408,23.3721,-4.25442
595,-384,24.981,5.59595,0,0,0,0,0,0,0,-1,1819,1408,24.981,-5.59598
602,-384,20.6605,4.17261,0,0,0,0,0,0,0,-1,1826,1408,20.6606,-4.17265
609,-384,14.158,5.49475,0,0,0,0,0,0,0,-1,1833,1408,14.158,-5.49474
616,-384,14.7997,7.6908,0,0,0,0,0,0,0,-1,1840,1408,14.7996,-7.69079
623,-384,16.4293,9.58899,0,0,0,0,0,0,0,-1,1847,1408,16.4294,-9.58901
630,-384,20.0912,10.6959,0,0,0,0,0,0,0,-1,1854,1408,20.0912,-10.696
637,-384,20.1226,10.3193,0.00136717,0.000562735,-0.00137611,0.00239864,-0.000468735,-0.643216,0.00177608,0.0181242,1861,1408,20.1226,-10.3194
644,-384,20.0964,9.97192,0.001412,0.000477381,-0.00111992,0.00215819,-0.000268816,-0.587746,0.00153626,0.015789,1868,1408,20.0965,-9.97188
651,-384,20.0977,9.58044,0.00141711,0.000319363,-0.000759008,0.00180491,-6.84366e-05,-0.472353,0.00122672,0.0152852,1875,1408,20.0977,-9.58047
658,-384,20.1019,9.22876,0.00146027,0.000175787,-0.000392987,0.00157096,6.50919e-05,-0.274562,0.0010263,0.0149295,1882,1408,20.1019,-9.2287
665,-384,20.1383,8.92017,0.00143888,-3.98799e-05,8.12245e-05,0.00144333,-4.43279e-05,0.0547079,0.000977333,0.0167074,1889,1408,20.1384,-8.92015
672,-384,20.1311,8.56921,0.00142535,-0.000254952,0.000581134,0.00160675,-0.000436354,0.302568,0.00124243,0.0160957,1896,1408,20.1311,-8.56917
679,-384,20.0779,8.20264,0.00149071,-0.000569796,0.0011121,0.00197644,-0.00105552,0.411793,0.00177722,0.0162278,1903,1408,20.0779,-8.20259
686,-384,20.0736,7.87244,0.00165737,-0.00102134,0.0016807,0.00246711,-0.00183109,0.448974,0.00249061,0.0126833,1910,1408,20.0736,-7.8724
693,-384,20.118,7.56445,0.00218312,-0.0015254,0.00208129,0.00311634,-0.00245862,0.42151,0.00322616,0.0195088,1917,1408,20.118,-7.56448
700,-384,19.879,7.02405,0,0,0,0,0,0,0,-1,1924,1408,19.8791,-7.024
707,-384,17.0566,6.62842,0,0,0,0,0,0,0,-1,1931,1408,17.0567,-6.62848
714,-384,16.038,5.0282,0,0,0,0,0,0,0,-1,1938,1408,16.038,-5.02819
721,-384,13.8843,2.8717,0,0,0,0,0,0,0,-1,1945,1408,13.8843,-2.87171
728,-384,15.4409,6.25745,0,0,0,0,0,0,0,-1,1952,1408,15.4409,-6.2574
735,-384,16.7598,6.71289,0,0,0,0,0,0,0,-1,1959,1408,16.7598,-6.71287
742,-384,0,0,0,0,0,0,0,0,0,-1,1966,1408,0,0
749,-384,0,0,0,0,0,0,0,0,0,-1,1973,1408,0,0
756,-384,0,0,0,0,0,0,0,0,0,-1,1980,1408,0,0
763,-384,0,0,0,0,0,0,0,0,0,-1,1987,1408,0,0
770,-384,0,0,0,0,0,0,0,0,0,-1,1994,1408,0,0
777,-384,0,0,0,0,0,0,0,0,0,-1,2001,1408,0,0
784,-384,0,0,0,0,0,0,0,0,0,-1,2008,1408,0,0
791,-384,0,0,0,0,0,0,0,0,0,-1,2015,1408,0,0
798,-384,0,0,0,0,0,0,0,0,0,-1,2022,1408,0,0
805,-384,0,0,0,0,0,0,0,0,0,-1,2029,1408,0,0
812,-384,0,0,0,0,0,0,0,0,0,-1,2036,1408,0,0
-700,-391,0,0,0,0,0,0,0,0,0,-1,524,1415,0,0
-693,-391,0,0,0,0,0,0,0,0,0,-1,531,1415,0,0
-686,-391,0,0,0,0,0,0,0,0,0,-1,538,1415,0,0
-679,-391,0,0,0,0,0,0,0,0,0,-1,545,1415,0,0
-672,-391,0,0,0,0,0,0,0,0,0,-1,552,1415,0,0
-665,-391,0,0,0,0,0,0,0,0,0,-1,559,1415,0,0
-658,-391,0,0,0,0,0,0,0,0,0,-1,566,1415,0,0
-651,-391,0,0,0,0,0,0,0,0,0,-1,573,1415,0,0
-644,-391,0,0,0,0,0,0,0,0,0,-1,580,1415,0,0
-637,-391,0,0,0,0,0,0,0,0,0,-1,587,1415,0,0
-630,-391,0,0,0,0,0,0,0,0,0,-1,594,1415,0,0
-623,-391,0,0,0,0,0,0,0,0,0,-1,601,1415,0,0
-616,-391,0,0,0,0,0,0,0,0,0,-1,608,1415,0,0
-609,-391,-7.71753,-3.69763,0,0,0,0,0,0,0,-1,615,1415,-7.71751,3.69759
-602,-391,-13.9493,-4.12805,0,0,0,0,0,0,0,-1,622,1415,-13.9493,4.12803
-595,-391,-10.8315,1.76172,0,0,0,0,0,0,0,-1,629,1415,-10.8315,-1.76171
-588,-391,-10.0066,2.41711,0,0,0,0,0,0,0,-1,636,1415,-10.0066,-2.41707
-581,-391,-9.3053,3.11084,0,0,0,0,0,0,0,-1,643,1415,-9.30531,-3.11081
-574,-391,-9.44281,5.2395,0,0,0,0,0,0,0,-1,650,1415,-9.44282,-5.2395
-567,-391,-7.77802,4.61499,0,0,0,0,0,0,0,-1,657,1415,-7.77802,-4.61493
-560,-391,-7.96619,5.45618,-0.0266783,0.00209081,-0.00841737,0.00437262,-0.0289601,-1.30608,0.0209172,0.0478438,664,1415,-7.96617,-5.45617
-553,-391,-8.45618,5.69629,-0.0202243,0.00124042,-0.00655819,0.00308556,-0.0220694,-1.29654,0.015842,0.0393611,671,1415,-8.45621,-5.69623
-546,-391,-8.5166,6.1178,-0.0146901,0.000684015,-0.00491464,0.0021208,-0.0161269,-1.28637,0.0115234,0.0134168,678,1415,-8.51663,-6.1178
-539,-391,-8.49353,6.48755,-0.00979695,0.00035183,-0.00329216,0.00132622,-0.0107713,-1.28304,0.00766133,0.0138943,685,1415,-8.49352,-6.48756
-532,-391,-8.51068,6.87769,-0.0054869,0.000257008,-0.00173959,0.000742773,-0.00597267,-1.29849,0.00425105,0.0246763,692,1415,-8.51069,-6.87764
-525,-391,-8.51215,7.30139,-0.00174839,0.000291911,-0.000319695,0.000340831,-0.00179731,-1.41895,0.00132649,0.0229511,699,1415,-8.51217,-7.30143
-518,-391,-8.54309,7.67676,0.00117392,0.000170019,0.000717054,0.00154726,-0.000203313,0.480028,0.00110552,0.014152,706,1415,-8.54307,-7.67676
-511,-391,-8.54755,8.03748,0.00307952,-0.000881961,0.000877959,0.00326538,-0.00106782,0.208612,0.00260681,0.0130448,713,1415,-8.54755,-8.03745
-504,-391,-8.54944,8.43018,0.00457727,-0.00169981,0.000934611,0.00471348,-0.00183601,0.144712,0.0039011,0.0116101,720,1415,-8.54941,-8.43016
-497,-391,-8.55902,8.8075,0.00513739,-0.00351934,8.4944e-05,0.00513823,-0.00352017,0.00981122,0.00502794,0.0119315,727,1415,-8.55904,-8.80752
-490,-391,-8.50586,9.27637,0.00487971,-0.00682603,-0.0017847,0.00514576,-0.00709209,-0.147985,0.00709525,0.0341983,734,1415,-8.50583,-9.27637
-483,-391,-8.30182,9.75488,0,0,0,0,0,0,0,-1,741,1415,-8.30184,-9.75484
-476,-391,-6.05731,6.85303,0,0,0,0,0,0,0,-1,748,1415,-6.05728,-6.85304
-469,-391,-3.88953,5.0979,0,0,0,0,0,0,0,-1,755,1415,-3.88955,-5.09794
-462,-391,-8.67688,2.03125,0,0,0,0,0,0,0,-1,762,1415,-8.67685,-2.03121
-455,-391,-8.65576,6.46997,0,0,0,0,0,0,0,-1,769,1415,-8.65579,-6.46999
-448,-391,-8.39618,4.38403,0,0,0,0,0,0,0,-1,776,1415,-8.39617,-4.38405
-441,-391,-9.77704,2.5946,0,0,0,0,0,0,0,-1,783,1415,-9.77702,-2.5946
-434,-391,-11.5403,2.12878,0,0,0,0,0,0,0,-1,790,1415,-11.5403,-2.12881
-427,-391,-10.5311,2.50403,0,0,0,0,0,0,0,-1,797,1415,-10.5311,-2.504
-420,-391,-14.7087,1.24365,0,0,0,0,0,0,0,-1,804,1415,-14.7088,-1.24365
-413,-391,0,0,0,0,0,0,0,0,0,-1,811,1415,0,0
-406,-391,0,0,0,0,0,0,0,0,0,-1,818,1415,0,0
-399,-391,0,0,0,0,0,0,0,0,0,-1,825,1415,0,0
-392,-391,0,0,0,0,0,0,0,0,0,-1,832,1415,0,0
-385,-391,0,0,0,0,0,0,0,0,0,-1,839,1415,0,0
-378,-391,0,0,0,0,0,0,0,0,0,-1,846,1415,0,0
-371,-391,0,0,0,0,0,0,0,0,0,-1,853,1415,0,0
-364,-391,0,0,0,0,0,0,0,0,0,-1,860,1415,0,0
-357,-391,0,0,0,0,0,0,0,0,0,-1,867,1415,0,0
-350,-391,0,0,0,0,0,0,0,0,0,-1,874,1415,0,0
-343,-391,0,0,0,0,0,0,0,0,0,-1,881,1415,0,0
-336,-391,0,0,0,0,0,0,0,0,0,-1,888,1415,0,0
-329,-391,0,0,0,0,0,0,0,0,0,-1,895,1415,0,0
-322,-391,0,0,0,0,0,0,0,0,0,-1,902,1415,0,0
-315,-391,0,0,0,0,0,0,0,0,0,-1,909,1415,0,0
-308,-391,0,0,0,0,0,0,0,0,0,-1,916,1415,0,0
-301,-391,0,0,0,0,0,0,0,0,0,-1,923,1415,0,0
-294,-391,0,0,0,0,0,0,0,0,0,-1,930,1415,0,0
-287,-391,0,0,0,0,0,0,0,0,0,-1,937,1415,0,0
-280,-391,0,0,0,0,0,0,0,0,0,-1,944,1415,0,0
-273,-391,0,0,0,0,0,0,0,0,0,-1,951,1415,0,0
-266,-391,0,0,0,0,0,0,0,0,0,-1,958,1415,0,0
-259,-391,0,0,0,0,0,0,0,0,0,-1,965,1415,0,0
-252,-391,0,0,0,0,0,0,0,0,0,-1,972,1415,0,0
-245,-391,0,0,0,0,0,0,0,0,0,-1,979,1415,0,0
-238,-391,0,0,0,0,0,0,0,0,0,-1,986,1415,0,0
-231,-391,0,0,0,0,0,0,0,0,0,-1,993,1415,0,0
-224,-391,0,0,0,0,0,0,0,0,0,-1,1000,1415,0,0
-217,-391,0,0,0,0,0,0,0,0,0,-1,1007,1415,0,0
-210,-391,0,0,0,0,0,0,0,0,0,-1,1014,1415,0,0
-203,-391,0,0,0,0,0,0,0,0,0,-1,1021,1415,0,0
-196,-391,0,0,0,0,0,0,0,0,0,-1,1028,1415,0,0
-189,-391,0,0,0,0,0,0,0,0,0,-1,1035,1415,0,0
-182,-391,0,0,0,0,0,0,0,0,0,-1,1042,1415,0,0
-175,-391,0,0,0,0,0,0,0,0,0,-1,1049,1415,0,0
-168,-391,0,0,0,0,0,0,0,0,0,-1,1056,1415,0,0
-161,-391,0,0,0,0,0,0,0,0,0,-1,1063,1415,0,0
-154,-391,0,0,0,0,0,0,0,0,0,-1,1070,1415,0,0
-147,-391,0,0,0,0,0,0,0,0,0,-1,1077,1415,0,0
-140,-391,0,0,0,0,0,0,0,0,0,-1,1084,1415,0,0
-133,-391,0,0,0,0,0,0,0,0,0,-1,1091,1415,0,0
-126,-391,0,0,0,0,0,0,0,0,0,-1,1098,1415,0,0
-119,-391,0,0,0,0,0,0,0,0,0,-1,1105,1415,0,0
-112,-391,0,0,0,0,0,0,0,0,0,-1,1112,1415,0,0
-105,-391,0,0,0,0,0,0,0,0,0,-1,1119,1415,0,0
-98,-391,0,0,0,0,0,0,0,0,0,-1,1126,1415,0,0
-91,-391,0,0,0,0,0,0,0,0,0,-1,1133,1415,0,0
-84,-391,0,0,0,0,0,0,0,0,0,-1,1140,1415,0,0
-77,-391,0,0,0,0,0,0,0,0,0,-1,1147,1415,0,0
-70,-391,0,0,0,0,0,0,0,0,0,-1,1154,1415,0,0
-63,-391,0,0,0,0,0,0,0,0,0,-1,1161,1415,0,0
-56,-391,0,0,0,0,0,0,0,0,0,-1,1168,1415,0,0
-49,-391,0,0,0,0,0,0,0,0,0,-1,1175,1415,0,0
-42,-391,0,0,0,0,0,0,0,0,0,-1,1182,1415,0,0
-35,-391,0,0,0,0,0,0,0,0,0,-1,1189,1415,0,0
-28,-391,0,0,0,0,0,0,0,0,0,-1,1196,1415,0,0
-21,-391,0,0,0,0,0,0,0,0,0,-1,1203,1415,0,0
-14,-391,0,0,0,0,0,0,0,0,0,-1,1210,1415,0,0
-7,-391,0,0,0,0,0,0,0,0,0,-1,1217,1415,0,0
0,-391,0,0,0,0,0,0,0,0,0,-1,1224,1415,0,0
7,-391,0,0,0,0,0,0,0,0,0,-1,1231,1415,0,0
14,-391,0,0,0,0,0,0,0,0,0,-1,1238,1415,0,0
21,-391,0,0,0,0,0,0,0,0,0,-1,1245,1415,0,0
28,-391,0,0,0,0,0,0,0,0,0,-1,1252,1415,0,0
35,-391,0,0,0,0,0,0,0,0,0,-1,1259,1415,0,0
42,-391,0,0,0,0,0,0,0,0,0,-1,1266,1415,0,0
49,-391,0,0,0,0,0,0,0,0,0,-1,1273,1415,0,0
56,-391,0,0,0,0,0,0,0,0,0,-1,1280,1415,0,0
63,-391,0,0,0,0,0,0,0,0,0,-1,1287,1415,0,0
70,-391,0,0,0,0,0,0,0,0,0,-1,1294,1415,0,0
77,-391,0,0,0,0,0,0,0,0,0,-1,1301,1415,0,0
84,-391,0,0,0,0,0,0,0,0,0,-1,1308,1415,0,0
91,-391,0,0,0,0,0,0,0,0,0,-1,1315,1415,0,0
98,-391,0,0,0,0,0,0,0,0,0,-1,1322,1415,0,0
105,-391,0,0,0,0,0,0,0,0,0,-1,1329,1415,0,0
112,-391,0,0,0,0,0,0,0,0,0,-1,1336,1415,0,0
119,-391,0,0,0,0,0,0,0,0,0,-1,1343,1415,0,0
126,-391,0,0,0,0,0,0,0,0,0,-1,1350,1415,0,0
133,-391,0,0,0,0,0,0,0,0,0,-1,1357,1415,0,0
140,-391,0,0,0,0,0,0,0,0,0,-1,1364,1415,0,0
147,-391,0,0,0,0,0,0,0,0,0,-1,1371,1415,0,0
154,-391,0,0,0,0,0,0,0,0,0,-1,1378,1415,0,0
161,-391,0,0,0,0,0,0,0,0,0,-1,1385,1415,0,0
168,-391,0,0,0,0,0,0,0,0,0,-1,1392,1415,0,0
175,-391,0,0,0,0,0,0,0,0,0,-1,1399,1415,0,0
182,-391,0,0,0,0,0,0,0,0,0,-1,1406,1415,0,0
189,-391,0,0,0,0,0,0,0,0,0,-1,1413,1415,0,0
196,-391,0,0,0,0,0,0,0,0,0,-1,1420,1415,0,0
203,-391,0,0,0,0,0,0,0,0,0,-1,1427,1415,0,0
210,-391,0,0,0,0,0,0,0,0,0,-1,1434,1415,0,0
217,-391,0,0,0,0,0,0,0,0,0,-1,1441,1415,0,0
224,-391,0,0,0,0,0,0,0,0,0,-1,1448,1415,0,0
231,-391,0,0,0,0,0,0,0,0,0,-1,1455,1415,0,0
238,-391,0,0,0,0,0,0,0,0,0,-1,1462,1415,0,0
245,-391,0,0,0,0,0,0,0,0,0,-1,1469,1415,0,0
252,-391,0,0,0,0,0,0,0,0,0,-1,1476,1415,0,0
259,-391,0,0,0,0,0,0,0,0,0,-1,1483,1415,0,0
266,-391,0,0,0,0,0,0,0,0,0,-1,1490,1415,0,0
273,-391,0,0,0,0,0,0,0,0,0,-1,1497,1415,0,0
280,-391,0,0,0,0,0,0,0,0,0,-1,1504,1415,0,0
287,-391,0,0,0,0,0,0,0,0,0,-1,1511,1415,0,0
294,-391,0,0,0,0,0,0,0,0,0,-1,1518,1415,0,0
301,-391,0,0,0,0,0,0,0,0,0,-1,1525,1415,0,0
308,-391,0,0,0,0,0,0,0,0,0,-1,1532,1415,0,0
315,-391,0,0,0,0,0,0,0,0,0,-1,1539,1415,0,0
322,-391,0,0,0,0,0,0,0,0,0,-1,1546,1415,0,0
329,-391,0,0,0,0,0,0,0,0,0,-1,1553,1415,0,0
336,-391,0,0,0,0,0,0,0,0,0,-1,1560,1415,0,0
343,-391,0,0,0,0,0,0,0,0,0,-1,1567,1415,0,0
350,-391,0,0,0,0,0,0,0,0,0,-1,1574,1415,0,0
357,-391,0,0,0,0,0,0,0,0,0,-1,1581,1415,0,0
364,-391,0,0,0,0,0,0,0,0,0,-1,1588,1415,0,0
371,-391,0,0,0,0,0,0,0,0,0,-1,1595,1415,0,0
378,-391,0,0,0,0,0,0,0,0,0,-1,1602,1415,0,0
385,-391,0,0,0,0,0,0,0,0,0,-1,1609,1415,0,0
392,-391,0,0,0,0,0,0,0,0,0,-1,1616,1415,0,0
399,-391,0,0,0,0,0,0,0,0,0,-1,1623,1415,0,0
406,-391,0,0,0,0,0,0,0,0,0,-1,1630,1415,0,0
413,-391,0,0,0,0,0,0,0,0,0,-1,1637,1415,0,0
420,-391,0,0,0,0,0,0,0,0,0,-1,1644,1415,0,0
427,-391,0,0,0,0,0,0,0,0,0,-1,1651,1415,0,0
434,-391,0,0,0,0,0,0,0,0,0,-1,1658,1415,0,0
441,-391,0,0,0,0,0,0,0,0,0,-1,1665,1415,0,0
448,-391,0,0,0,0,0,0,0,0,0,-1,1672,1415,0,0
455,-391,0,0,0,0,0,0,0,0,0,-1,1679,1415,0,0
462,-391,0,0,0,0,0,0,0,0,0,-1,1686,1415,0,0
469,-391,0,0,0,0,0,0,0,0,0,-1,1693,1415,0,0
476,-391,0,0,0,0,0,0,0,0,0,-1,1700,1415,0,0
483,-391,0,0,0,0,0,0,0,0,0,-1,1707,1415,0,0
490,-391,0,0,0,0,0,0,0,0,0,-1,1714,1415,0,0
497,-391,0,0,0,0,0,0,0,0,0,-1,1721,1415,0,0
504,-391,0,0,0,0,0,0,0,0,0,-1,1728,1415,0,0
511,-391,0,0,0,0,0,0,0,0,0,-1,1735,1415,0,0
518,-391,0,0,0,0,0,0,0,0,0,-1,1742,1415,0,0
525,-391,0,0,0,0,0,0,0,0,0,-1,1749,1415,0,0
532,-391,28.5959,3.02356,0,0,0,0,0,0,0,-1,1756,1415,28.596,-3.02358
539,-391,27.5881,3.25012,0,0,0,0,0,0,0,-1,1763,1415,27.5882,-3.25016
546,-391,27.2837,3.28064,0,0,0,0,0,0,0,-1,1770,1415,27.2837,-3.28064
553,-391,32.5952,5.04553,0,0,0,0,0,0,0,-1,1777,1415,32.5952,-5.04551
560,-391,31.2947,5.67017,0,0,0,0,0,0,0,-1,1784,1415,31.2947,-5.67011
567,-391,30.1473,6.17603,0,0,0,0,0,0,0,-1,1791,1415,30.1473,-6.17602
574,-391,27.5656,5.6842,0,0,0,0,0,0,0,-1,1798,1415,27.5655,-5.68422
581,-391,25.8883,5.76123,0,0,0,0,0,0,0,-1,1805,1415,25.8883,-5.76124
588,-391,24.2717,5.47986,0,0,0,0,0,0,0,-1,1812,1415,24.2717,-5.47982
595,-391,22.8827,6.1991,0,0,0,0,0,0,0,-1,1819,1415,22.8827,-6.19909
602,-391,15.1635,5.69849,0,0,0,0,0,0,0,-1,1826,1415,15.1635,-5.69847
609,-391,14.8285,7.50476,0,0,0,0,0,0,0,-1,1833,1415,14.8285,-7.50479
616,-391,19.5669,11.342,0,0,0,0,0,0,0,-1,1840,1415,19.5669,-11.3421
623,-391,19.7185,10.9939,0,0,0,0,0,0,0,-1,1847,1415,19.7185,-10.9939
630,-391,19.8347,10.6073,0.000713531,0.000932837,-0.00104115,0.00187009,-0.000223723,-0.837864,0.0013276,0.0257477,1854,1415,19.8347,-10.6072
637,-391,19.7738,10.2988,0.00104393,0.000681121,-0.000983289,0.00186241,-0.000137355,-0.694179,0.00128983,0.0149516,1861,1415,19.7738,-10.2988
644,-391,19.7474,9.94434,0.00116446,0.00052054,-0.000766405,0.00167379,1.12165e-05,-0.586544,0.00111214,0.0159601,1868,1415,19.7475,-9.94438
651,-391,19.7388,9.60559,0.00122467,0.000328661,-0.000453149,0.00141388,0.000139443,-0.395554,0.000899718,0.0161951,1875,1415,19.7388,-9.60554
658,-391,19.7324,9.25659,0.00129053,0.000163315,-0.000116329,0.00130241,0.000151435,-0.101771,0.000822457,0.0158374,1882,1415,19.7324,-9.25656
665,-391,19.7697,8.91809,0.00126554,-6.34865e-05,0.000355816,0.00135481,-0.000152752,0.245803,0.000958188,0.0134748,1889,1415,19.7697,-8.91804
672,-391,19.7638,8.57361,0.00122111,-0.000308167,0.000887651,0.00162805,-0.000715106,0.429855,0.00138663,0.0122875,1896,1415,19.7638,-8.57362
679,-391,19.7303,8.22449,0.00123646,-0.000663061,0.00148702,0.00205114,-0.00147775,0.501203,0.00204635,0.0112481,1903,1415,19.7304,-8.22445
686,-391,19.7383,7.88403,0.00131583,-0.00119377,0.00219105,0.00258595,-0.00246389,0.525349,0.00291581,0.0136385,1910,1415,19.7383,-7.88403
693,-391,19.7505,7.72522,0.00175016,-0.0017875,0.00275118,0.00325207,-0.00328941,0.499702,0.00377675,0.0331943,1917,1415,19.7505,-7.72522
700,-391,19.826,7.60852,0,0,0,0,0,0,0,-1,1924,1415,19.8261,-7.60855
707,-391,12.9524,5.96851,0,0,0,0,0,0,0,-1,1931,1415,12.9524,-5.96849
714,-391,15.6875,7.67896,0,0,0,0,0,0,0,-1,1938,1415,15.6875,-7.67893
721,-391,14.1808,8.08435,0,0,0,0,0,0,0,-1,1945,1415,14.1808,-8.08439
728,-391,13.8102,7.28174,0,0,0,0,0,0,0,-1,1952,1415,13.8102,-7.28174
735,-391,0,0,0,0,0,0,0,0,0,-1,1959,1415,0,0
742,-391,0,0,0,0,0,0,0,0,0,-1,1966,1415,0,0
749,-391,0,0,0,0,0,0,0,0,0,-1,1973,1415,0,0
756,-391,0,0,0,0,0,0,0,0,0,-1,1980,1415,0,0
763,-391,0,0,0,0,0,0,0,0,0,-1,1987,1415,0,0
770,-391,0,0,0,0,0,0,0,0,0,-1,1994,1415,0,0
777,-391,0,0,0,0,0,0,0,0,0,-1,2001,1415,0,0
784,-391,0,0,0,0,0,0,0,0,0,-1,2008,1415,0,0
791,-391,0,0,0,0,0,0,0,0,0,-1,2015,1415,0,0
798,-391,0,0,0,0,0,0,0,0,0,-1,2022,1415,0,0
805,-391,0,0,0,0,0,0,0,0,0,-1,2029,1415,0,0
812,-391,0,0,0,0,0,0,0,0,0,-1,2036,1415,0,0
-700,-398,0,0,0,0,0,0,0,0,0,-1,524,1422,0,0
-693,-398,0,0,0,0,0,0,0,0,0,-1,531,1422,0,0
-686,-398,0,0,0,0,0,0,0,0,0,-1,538,1422,0,0
-679,-398,0,0,0,0,0,0,0,0,0,-1,545,1422,0,0
-672,-398,0,0,0,0,0,0,0,0,0,-1,552,1422,0,0
-665,-398,0,0,0,0,0,0,0,0,0,-1,559,1422,0,0
-658,-398,0,0,0,0,0,0,0,0,0,-1,566,1422,0,0
-651,-398,0,0,0,0,0,0,0,0,0,-1,573,1422,0,0
-644,-398,0,0,0,0,0,0,0,0,0,-1,580,1422,0,0
-637,-398,0,0,0,0,0,0,0,0,0,-1,587,1422,0,0
-630,-398,0,0,0,0,0,0,0,0,0,-1,594,1422,0,0
-623,-398,0,0,0,0,0,0,0,0,0,-1,601,1422,0,0
-616,-398,0,0,0,0,0,0,0,0,0,-1,608,1422,0,0
-609,-398,-7.47125,-4.05322,0,0,0,0,0,0,0,-1,615,1422,-7.47128,4.05317
-602,-398,-4.58868,-2.77026,0,0,0,0,0,0,0,-1,622,1422,-4.58869,2.77023
-595,-398,-12.2224,-1.82007,0,0,0,0,0,0,0,-1,629,1422,-12.2224,1.82006
-588,-398,-10.6939,1.32336,0,0,0,0,0,0,0,-1,636,1422,-10.6939,-1.32337
-581,-398,-9.76556,2.42517,0,0,0,0,0,0,0,-1,643,1422,-9.76554,-2.42513
-574,-398,-6.07343,3.35437,0,0,0,0,0,0,0,-1,650,1422,-6.07343,-3.35439
-567,-398,-6.69495,4.37097,0,0,0,0,0,0,0,-1,657,1422,-6.69492,-4.37103
-560,-398,-7.3385,5.32556,-0.0316288,0.00222305,-0.00963604,0.00477379,-0.0341795,-1.31202,0.0245329,0.0463018,664,1422,-7.33852,-5.32553
-553,-398,-8.02155,5.81787,-0.0240736,0.00119811,-0.00754334,0.00327847,-0.0261539,-1.3017,0.0186252,0.0470763,671,1422,-8.02156,-5.81791
-546,-398,-8.13916,6.12952,-0.017805,0.000557059,-0.00578286,0.00222651,-0.0194744,-1.28975,0.0137852,0.0218384,678,1422,-8.13917,-6.12954
-539,-398,-8.10406,6.5238,-0.0124122,0.000170987,-0.00407245,0.00137399,-0.0136152,-1.28356,0.00956774,0.0121622,685,1422,-8.10405,-6.52379
-532,-398,-8.14667,6.90259,-0.00779946,5.66119e-05,-0.00249109,0.000779922,-0.00852277,-1.28821,0.00595886,0.020146,692,1422,-8.14669,-6.90257
-525,-398,-8.14032,7.31116,-0.00386819,0.000112097,-0.00105808,0.000375885,-0.00413198,-1.32647,0.00288811,0.0204224,699,1422,-8.14034,-7.31113
-518,-398,-8.1474,7.67542,-0.000813816,4.30499e-05,-1.58367e-05,4.33425e-05,-0.000814109,-1.55232,0.000557748,0.0182214,706,1422,-8.14742,-7.67539
-511,-398,-8.14575,8.026,0.00123042,-0.000914949,0.000195478,0.00124809,-0.000932614,0.090127,0.00126341,0.0139598,713,1422,-8.14575,-8.02596
-504,-398,-8.14703,8.427,0.0029271,-0.00164318,0.000291769,0.00294565,-0.00166173,0.063497,0.00269428,0.0135995,720,1422,-8.14705,-8.42701
-497,-398,-8.16187,8.7981,0.00362278,-0.00326115,-0.000499262,0.0036588,-0.00329717,-0.0720234,0.00401784,0.00978174,727,1422,-8.16186,-8.79805
-490,-398,-8.1651,9.19006,0.00344336,-0.00628368,-0.00213159,0.00388997,-0.00673029,-0.206533,0.00620428,0.0137837,734,1422,-8.16513,-9.19009
-483,-398,-7.9903,9.71936,0.001861,-0.0107791,-0.00502137,0.00361295,-0.012531,-0.335694,0.00978328,0.0392252,741,1422,-7.99027,-9.71936
-476,-398,-7.53723,10.2295,0,0,0,0,0,0,0,-1,748,1422,-7.53726,-10.2295
-469,-398,-7.9295,9.71741,0,0,0,0,0,0,0,-1,755,1422,-7.92949,-9.71744
-462,-398,-9.42841,8.90063,0,0,0,0,0,0,0,-1,762,1422,-9.42841,-8.90062
-455,-398,-8.08331,6.75024,0,0,0,0,0,0,0,-1,769,1422,-8.08333,-6.75022
-448,-398,-7.4505,5.25293,0,0,0,0,0,0,0,-1,776,1422,-7.4505,-5.25291
-441,-398,-7.61639,3.32141,0,0,0,0,0,0,0,-1,783,1422,-7.61637,-3.32145
-434,-398,-10.7618,3.297,0,0,0,0,0,0,0,-1,790,1422,-10.7618,-3.29704
-427,-398,-11.9061,2.24939,0,0,0,0,0,0,0,-1,797,1422,-11.9061,-2.24941
-420,-398,-13.467,2.32788,0,0,0,0,0,0,0,-1,804,1422,-13.467,-2.32787
-413,-398,-14.7983,2.15515,0,0,0,0,0,0,0,-1,811,1422,-14.7983,-2.15516
-406,-398,0,0,0,0,0,0,0,0,0,-1,818,1422,0,0
-399,-398,0,0,0,0,0,0,0,0,0,-1,825,1422,0,0
-392,-398,0,0,0,0,0,0,0,0,0,-1,832,1422,0,0
-385,-398,0,0,0,0,0,0,0,0,0,-1,839,1422,0,0
-378,-398,0,0,0,0,0,0,0,0,0,-1,846,1422,0,0
-371,-398,0,0,0,0,0,0,0,0,0,-1,853,1422,0,0
-364,-398,0,0,0,0,0,0,0,0,0,-1,860,1422,0,0
-357,-398,0,0,0,0,0,0,0,0,0,-1,867,1422,0,0
-350,-398,0,0,0,0,0,0,0,0,0,-1,874,1422,0,0
-343,-398,0,0,0,0,0,0,0,0,0,-1,881,1422,0,0
-336,-398,0,0,0,0,0,0,0,0,0,-1,888,1422,0,0
-329,-398,0,0,0,0,0,0,0,0,0,-1,895,1422,0,0
-322,-398,0,0,0,0,0,0,0,0,0,-1,902,1422,0,0
-315,-398,0,0,0,0,0,0,0,0,0,-1,909,1422,0,0
-308,-398,0,0,0,0,0,0,0,0,0,-1,916,1422,0,0
-301,-398,0,0,0,0,0,0,0,0,0,-1,923,1422,0,0
-294,-398,0,0,0,0,0,0,0,0,0,-1,930,1422,0,0
-287,-398,0,0,0,0,0,0,0,0,0,-1,937,1422,0,0
-280,-398,0,0,0,0,0,0,0,0,0,-1,944,1422,0,0
-273,-398,0,0,0,0,0,0,0,0,0,-1,951,1422,0,0
-266,-398,0,0,0,0,0,0,0,0,0,-1,958,1422,0,0
-259,-398,0,0,0,0,0,0,0,0,0,-1,965,1422,0,0
-252,-398,0,0,0,0,0,0,0,0,0,-1,972,1422,0,0
-245,-398,0,0,0,0,0,0,0,0,0,-1,979,1422,0,0
-238,-398,0,0,0,0,0,0,0,0,0,-1,986,1422,0,0
-231,-398,0,0,0,0,0,0,0,0,0,-1,993,1422,0,0
-224,-398,0,0,0,0,0,0,0,0,0,-1,1000,1422,0,0
-217,-398,0,0,0,0,0,0,0,0,0,-1,1007,1422,0,0
-210,-398,0,0,0,0,0,0,0,0,0,-1,1014,1422,0,0
-203,-398,0,0,0,0,0,0,0,0,0,-1,1021,1422,0,0
-196,-398,0,0,0,0,0,0,0,0,0,-1,1028,1422,0,0
-189,-398,0,0,0,0,0,0,0,0,0,-1,1035,1422,0,0
-182,-398,0,0,0,0,0,0,0,0,0,-1,1042,1422,0,0
-175,-398,0,0,0,0,0,0,0,0,0,-1,1049,1422,0,0
-168,-398,0,0,0,0,0,0,0,0,0,-1,1056,1422,0,0
-161,-398,0,0,0,0,0,0,0,0,0,-1,1063,1422,0,0
-154,-398,0,0,0,0,0,0,0,0,0,-1,1070,1422,0,0
-147,-398,0,0,0,0,0,0,0,0,0,-1,1077,1422,0,0
-140,-398,0,0,0,0,0,0,0,0,0,-1,1084,1422,0,0
-133,-398,0,0,0,0,0,0,0,0,0,-1,1091,1422,0,0
-126,-398,0,0,0,0,0,0,0,0,0,-1,1098,1422,0,0
-119,-398,0,0,0,0,0,0,0,0,0,-1,1105,1422,0,0
-112,-398,0,0,0,0,0,0,0,0,0,-1,1112,1422,0,0
-105,-398,0,0,0,0,0,0,0,0,0,-1,1119,1422,0,0
-98,-398,0,0,0,0,0,0,0,0,0,-1,1126,1422,0,0
-91,-398,0,0,0,0,0,0,0,0,0,-1,1133,1422,0,0
-84,-398,0,0,0,0,0,0,0,0,0,-1,1140,1422,0,0
-77,-398,0,0,0,0,0,0,0,0,0,-1,1147,1422,0,0
-70,-398,0,0,0,0,0,0,0,0,0,-1,1154,1422,0,0
-63,-398,0,0,0,0,0,0,0,0,0,-1,1161,1422,0,0
-56,-398,0,0,0,0,0,0,0,0,0,-1,1168,1422,0,0
-49,-398,0,0,0,0,0,0,0,0,0,-1,1175,1422,0,0
-42,-398,0,0,0,0,0,0,0,0,0,-1,1182,1422,0,0
-35,-398,0,0,0,0,0,0,0,0,0,-1,1189,1422,0,0
-28,-398,0,0,0,0,0,0,0,0,0,-1,1196,1422,0,0
-21,-398,0,0,0,0,0,0,0,0,0,-1,1203,1422,0,0
-14,-398,0,0,0,0,0,0,0,0,0,-1,1210,1422,0,0
-7,-398,0,0,0,0,0,0,0,0,0,-1,1217,1422,0,0
0,-398,0,0,0,0,0,0,0,0,0,-1,1224,1422,0,0
7,-398,0,0,0,0,0,0,0,0,0,-1,1231,1422,0,0
14,-398,0,0,0,0,0,0,0,0,0,-1,1238,1422,0,0
21,-398,0,0,0,0,0,0,0,0,0,-1,1245,1422,0,0
28,-398,0,0,0,0,0,0,0,0,0,-1,1252,1422,0,0
35,-398,0,0,0,0,0,0,0,0,0,-1,1259,1422,0,0
42,-398,0,0,0,0,0,0,0,0,0,-1,1266,1422,0,0
49,-398,0,0,0,0,0,0,0,0,0,-1,1273,1422,0,0
56,-398,0,0,0,0,0,0,0,0,0,-1,1280,1422,0,0
63,-398,0,0,0,0,0,0,0,0,0,-1,1287,1422,0,0
70,-398,0,0,0,0,0,0,0,0,0,-1,1294,1422,0,0
77,-398,0,0,0,0,0,0,0,0,0,-1,1301,1422,0,0
84,-398,0,0,0,0,0,0,0,0,0,-1,1308,1422,0,0
91,-398,0,0,0,0,0,0,0,0,0,-1,1315,1422,0,0
98,-398,0,0,0,0,0,0,0,0,0,-1,1322,1422,0,0
105,-398,0,0,0,0,0,0,0,0,0,-1,1329,1422,0,0
112,-398,0,0,0,0,0,0,0,0,0,-1,1336,1422,0,0
119,-398,0,0,0,0,0,0,0,0,0,-1,1343,1422,0,0
126,-398,0,0,0,0,0,0,0,0,0,-1,1350,1422,0,0
133,-398,0,0,0,0,0,0,0,0,0,-1,1357,1422,0,0
140,-398,0,0,0,0,0,0,0,0,0,-1,1364,1422,0,0
147,-398,0,0,0,0,0,0,0,0,0,-1,1371,1422,0,0
154,-398,0,0,0,0,0,0,0,0,0,-1,1378,1422,0,0
161,-398,0,0,0,0,0,0,0,0,0,-1,1385,1422,0,0
168,-398,0,0,0,0,0,0,0,0,0,-1,1392,1422,0,0
175,-398,0,0,0,0,0,0,0,0,0,-1,1399,1422,0,0
182,-398,0,0,0,0,0,0,0,0,0,-1,1406,1422,0,0
189,-398,0,0,0,0,0,0,0,0,0,-1,1413,1422,0,0
196,-398,0,0,0,0,0,0,0,0,0,-1,1420,1422,0,0
203,-398,0,0,0,0,0,0,0,0,0,-1,1427,1422,0,0
210,-398,0,0,0,0,0,0,0,0,0,-1,1434,1422,0,0
217,-398,0,0,0,0,0,0,0,0,0,-1,1441,1422,0,0
224,-398,0,0,0,0,0,0,0,0,0,-1,1448,1422,0,0
231,-398,0,0,0,0,0,0,0,0,0,-1,1455,1422,0,0
238,-398,0,0,0,0,0,0,0,0,0,-1,1462,1422,0,0
245,-398,0,0,0,0,0,0,0,0,0,-1,1469,1422,0,0
252,-398,0,0,0,0,0,0,0,0,0,-1,1476,1422,0,0
259,-398,0,0,0,0,0,0,0,0,0,-1,1483,1422,0,0
266,-398,0,0,0,0,0,0,0,0,0,-1,1490,1422,0,0
273,-398,0,0,0,0,0,0,0,0,0,-1,1497,1422,0,0
280,-398,0,0,0,0,0,0,0,0,0,-1,1504,1422,0,0
287,-398,0,0,0,0,0,0,0,0,0,-1,1511,1422,0,0
294,-398,0,0,0,0,0,0,0,0,0,-1,1518,1422,0,0
301,-398,0,0,0,0,0,0,0,0,0,-1,1525,1422,0,0
308,-398,0,0,0,0,0,0,0,0,0,-1,1532,1422,0,0
315,-398,0,0,0,0,0,0,0,0,0,-1,1539,1422,0,0
322,-398,0,0,0,0,0,0,0,0,0,-1,1546,1422,0,0
329,-398,0,0,0,0,0,0,0,0,0,-1,1553,1422,0,0
336,-398,0,0,0,0,0,0,0,0,0,-1,1560,1422,0,0
343,-398,0,0,0,0,0,0,0,0,0,-1,1567,1422,0,0
350,-398,0,0,0,0,0,0,0,0,0,-1,1574,1422,0,0
357,-398,0,0,0,0,0,0,0,0,0,-1,1581,1422,0,0
364,-398,0,0,0,0,0,0,0,0,0,-1,1588,1422,0,0
371,-398,0,0,0,0,0,0,0,0,0,-1,1595,1422,0,0
378,-398,0,0,0,0,0,0,0,0,0,-1,1602,1422,0,0
385,-398,0,0,0,0,0,0,0,0,0,-1,1609,1422,0,0
392,-398,0,0,0,0,0,0,0,0,0,-1,1616,1422,0,0
399,-398,0,0,0,0,0,0,0,0,0,-1,1623,1422,0,0
406,-398,0,0,0,0,0,0,0,0,0,-1,1630,1422,0,0
413,-398,0,0,0,0,0,0,0,0,0,-1,1637,1422,0,0
420,-398,0,0,0,0,0,0,0,0,0,-1,1644,1422,0,0
427,-398,0,0,0,0,0,0,0,0,0,-1,1651,1422,0,0
434,-398,0,0,0,0,0,0,0,0,0,-1,1658,1422,0,0
441,-398,0,0,0,0,0,0,0,0,0,-1,1665,1422,0,0
448,-398,0,0,0,0,0,0,0,0,0,-1,1672,1422,0,0
455,-398,0,0,0,0,0,0,0,0,0,-1,1679,1422,0,0
462,-398,0,0,0,0,0,0,0,0,0,-1,1686,1422,0,0
469,-398,0,0,0,0,0,0,0,0,0,-1,1693,1422,0,0
476,-398,0,0,0,0,0,0,0,0,0,-1,1700,1422,0,0
483,-398,0,0,0,0,0,0,0,0,0,-1,1707,1422,0,0
490,-398,0,0,0,0,0,0,0,0,0,-1,1714,1422,0,0
497,-398,0,0,0,0,0,0,0,0,0,-1,1721,1422,0,0
504,-398,0,0,0,0,0,0,0,0,0,-1,1728,1422,0,0
511,-398,0,0,0,0,0,0,0,0,0,-1,1735,1422,0,0
518,-398,0,0,0,0,0,0,0,0,0,-1,1742,1422,0,0
525,-398,0,0,0,0,0,0,0,0,0,-1,1749,1422,0,0
532,-398,28.4558,3.84094,0,0,0,0,0,0,0,-1,1756,1422,28.4558,-3.8409
539,-398,27.0594,3.33887,0,0,0,0,0,0,0,-1,1763,1422,27.0595,-3.3389
546,-398,31.6873,5.58582,0,0,0,0,0,0,0,-1,1770,1422,31.6872,-5.58585
553,-398,30.4392,5.92383,0,0,0,0,0,0,0,-1,1777,1422,30.4392,-5.92386
560,-398,29.1621,6.30469,0,0,0,0,0,0,0,-1,1784,1422,29.1621,-6.30469
567,-398,27.8411,6.55029,0,0,0,0,0,0,0,-1,1791,1422,27.8411,-6.55033
574,-398,26.411,6.8916,0,0,0,0,0,0,0,-1,1798,1422,26.411,-6.8916
581,-398,24.75,7.11145,0,0,0,0,0,0,0,-1,1805,1422,24.7499,-7.11142
588,-398,23.1649,7.67969,0,0,0,0,0,0,0,-1,1812,1422,23.1649,-7.67975
595,-398,21.4253,7.86023,0,0,0,0,0,0,0,-1,1819,1422,21.4253,-7.86029
602,-398,19.6857,8.04077,0,0,0,0,0,0,0,-1,1826,1422,19.6856,-8.04083
609,-398,19.452,11.9238,0,0,0,0,0,0,0,-1,1833,1422,19.452,-11.9239
616,-398,19.4601,11.369,-0.000857543,0.00175461,-0.000410005,0.00181745,-0.000920386,-1.41871,0.00160873,0.0419219,1840,1422,19.4601,-11.369
623,-398,19.4241,11.0116,-0.000104277,0.00123307,-0.000552608,0.00143186,-0.000303071,-1.22547,0.00107,0.0184611,1847,1422,19.424,-11.0116
630,-398,19.4501,10.6631,0.000477186,0.000856094,-0.000615013,0.00131017,2.31072e-05,-0.93481,0.000865849,0.0115557,1854,1422,19.4501,-10.663
637,-398,19.4427,10.3225,0.000741263,0.000564831,-0.000542055,0.00120223,0.000103861,-0.704733,0.000769209,0.0130901,1861,1422,19.4428,-10.3225
644,-398,19.3401,9.99438,0.000811961,0.00034273,-0.000338964,0.000989585,0.000165106,-0.482678,0.000612155,0.0197574,1868,1422,19.3401,-9.99438
651,-398,19.3788,9.64331,0.000821321,0.000130767,-6.28419e-05,0.000826993,0.000125095,-0.0900169,0.000514723,0.0267587,1875,1422,19.3788,-9.64329
658,-398,19.4021,9.30078,0.000815198,-4.08629e-05,0.000244512,0.000880114,-0.000105779,0.259505,0.000624993,0.0213725,1882,1422,19.4022,-9.30073
665,-398,19.4128,8.9198,0.000712603,-0.000231992,0.000684931,0.00107229,-0.000591678,0.483557,0.000973958,0.0146108,1889,1422,19.4129,-8.91984
672,-398,19.4099,8.56458,0.000586885,-0.000456631,0.00120995,0.00138278,-0.00125253,0.581834,0.00152212,0.0132199,1896,1422,19.4099,-8.56462
679,-398,19.3856,8.23767,0.000527412,-0.00077956,0.00182024,0.00180791,-0.00206006,0.613058,0.00223476,0.0124555,1903,1422,19.3857,-8.23773
686,-398,19.3929,7.90723,0.000507742,-0.00129545,0.00259565,0.00235392,-0.00314163,0.618243,0.0031837,0.0203231,1910,1422,19.393,-7.90717
693,-398,19.3912,7.625,0,0,0,0,0,0,0,-1,1917,1422,19.3913,-7.62503
700,-398,14.0787,6.53918,0,0,0,0,0,0,0,-1,1924,1422,14.0787,-6.53921
707,-398,10.9731,5.479,0,0,0,0,0,0,0,-1,1931,1422,10.9732,-5.47896
714,-398,11.7313,6.17346,0,0,0,0,0,0,0,-1,1938,1422,11.7313,-6.17348
721,-398,13.9371,8.05103,0,0,0,0,0,0,0,-1,1945,1422,13.9372,-8.05102
728,-398,14.786,7.0282,0,0,0,0,0,0,0,-1,1952,1422,14.786,-7.0282
735,-398,0,0,0,0,0,0,0,0,0,-1,1959,1422,0,0
742,-398,0,0,0,0,0,0,0,0,0,-1,1966,1422,0,0
749,-398,0,0,0,0,0,0,0,0,0,-1,1973,1422,0,0
756,-398,0,0,0,0,0,0,0,0,0,-1,1980,1422,0,0
763,-398,0,0,0,0,0,0,0,0,0,-1,1987,1422,0,0
770,-398,0,0,0,0,0,0,0,0,0,-1,1994,1422,0,0
777,-398,0,0,0,0,0,0,0,0,0,-1,2001,1422,0,0
784,-398,0,0,0,0,0,0,0,0,0,-1,2008,1422,0,0
791,-398,0,0,0,0,0,0,0,0,0,-1,2015,1422,0,0
798,-398,0,0,0,0,0,0,0,0,0,-1,2022,1422,0,0
805,-398,0,0,0,0,0,0,0,0,0,-1,2029,1422,0,0
812,-398,0,0,0,0,0,0,0,0,0,-1,2036,1422,0,0
-700,-405,0,0,0,0,0,0,0,0,0,-1,524,1429,0,0
-693,-405,0,0,0,0,0,0,0,0,0,-1,531,1429,0,0
-686,-405,0,0,0,0,0,0,0,0,0,-1,538,1429,0,0
-679,-405,0,0,0,0,0,0,0,0,0,-1,545,1429,0,0
-672,-405,0,0,0,0,0,0,0,0,0,-1,552,1429,0,0
-665,-405,0,0,0,0,0,0,0,0,0,-1,559,1429,0,0
-658,-405,0,0,0,0,0,0,0,0,0,-1,566,1429,0,0
-651,-405,0,0,0,0,0,0,0,0,0,-1,573,1429,0,0
-644,-405,0,0,0,0,0,0,0,0,0,-1,580,1429,0,0
-637,-405,0,0,0,0,0,0,0,0,0,-1,587,1429,0,0
-630,-405,0,0,0,0,0,0,0,0,0,-1,594,1429,0,0
-623,-405,0,0,0,0,0,0,0,0,0,-1,601,1429,0,0
-616,-405,0,0,0,0,0,0,0,0,0,-1,608,1429,0,0
-609,-405,0,0,0,0,0,0,0,0,0,-1,615,1429,0,0
-602,-405,-5.80988,-3.46594,0,0,0,0,0,0,0,-1,622,1429,-5.80987,3.46592
-595,-405,-9.35413,2.01477,0,0,0,0,0,0,0,-1,629,1429,-9.35411,-2.01476
-588,-405,-7.35693,0.507202,0,0,0,0,0,0,0,-1,636,1429,-7.35696,-0.507187
-581,-405,-10.1284,1.62927,0,0,0,0,0,0,0,-1,643,1429,-10.1284,-1.62922
-574,-405,-9.32074,3.05896,0,0,0,0,0,0,0,-1,650,1429,-9.32077,-3.0589
-567,-405,-6.08093,4.52332,0,0,0,0,0,0,0,-1,657,1429,-6.08094,-4.52335
-560,-405,-6.68866,5.24634,0,0,0,0,0,0,0,-1,664,1429,-6.68865,-5.24635
-553,-405,-7.73816,5.73071,0,0,0,0,0,0,0,-1,671,1429,-7.73819,-5.73075
-546,-405,-7.75409,6.11255,-0.0199486,0.00106577,-0.00603598,0.00267609,-0.0215589,-1.31008,0.0153426,0.0327271,678,1429,-7.75409,-6.11256
-539,-405,-7.75696,6.49097,-0.0140998,0.000559531,-0.00429121,0.0017233,-0.0152636,-1.30597,0.0107961,0.0112995,685,1429,-7.75696,-6.491
-532,-405,-7.76837,6.88879,-0.0092867,0.000327544,-0.00276723,0.00106713,-0.0100263,-1.30963,0.00706681,0.0143883,692,1429,-7.76838,-6.88885
-525,-405,-7.76489,7.30542,-0.00528759,0.000288649,-0.00141233,0.000625954,-0.0056249,-1.33636,0.00397505,0.0152044,699,1429,-7.7649,-7.3054
-518,-405,-7.75049,7.68738,-0.00222771,0.000161684,-0.000440985,0.000240473,-0.0023065,-1.39399,0.00162377,0.0163277,706,1429,-7.75047,-7.68734
-511,-405,-7.78992,8.0531,-0.00017101,-0.000751025,-0.000224312,-9.43835e-05,-0.000827651,-0.329177,0.000523152,0.0164311,713,1429,-7.78993,-8.05307
-504,-405,-7.77808,8.44336,0.00154763,-0.00148857,-0.000165626,0.00155663,-0.00149758,-0.0543355,0.00176346,0.0179977,720,1429,-7.77809,-8.44331
-497,-405,-7.76501,8.83167,0.00227055,-0.00300364,-0.00094705,0.00243545,-0.00316854,-0.172391,0.00324468,0.0142222,727,1429,-7.76499,-8.8316
-490,-405,-7.78192,9.21521,0.00217959,-0.00576197,-0.00237433,0.00283531,-0.00641769,-0.269455,0.00547406,0.0119069,734,1429,-7.7819,-9.21522
-483,-405,-7.72284,9.65259,0.000952954,-0.00973212,-0.00488364,0.00284869,-0.0116279,-0.370277,0.00885554,0.0153459,741,1429,-7.72284,-9.65263
-476,-405,-7.67126,10.0253,-0.00113138,-0.0150416,-0.00838813,0.00281004,-0.018983,-0.439263,0.0136885,0.0377676,748,1429,-7.67127,-10.0252
-469,-405,-7.80847,10.0447,-0.00415615,-0.0226665,-0.0132534,0.00275382,-0.0295764,-0.480599,0.0206967,0.0450914,755,1429,-7.80849,-10.0447
-462,-405,-8.51788,9.57019,-0.0086215,-0.0334655,-0.0202904,0.00274735,-0.0448343,-0.510723,0.0308462,0.0470117,762,1429,-8.5179,-9.5702
-455,-405,-9.20288,9.41162,0,0,0,0,0,0,0,-1,769,1429,-9.20288,-9.41161
-448,-405,-8.4649,6.82813,0,0,0,0,0,0,0,-1,776,1429,-8.46492,-6.82817
-441,-405,-6.6712,4.23767,0,0,0,0,0,0,0,-1,783,1429,-6.67121,-4.23764
-434,-405,-9.62549,3.94189,0,0,0,0,0,0,0,-1,790,1429,-9.62546,-3.94191
-427,-405,-10.9764,3.73926,0,0,0,0,0,0,0,-1,797,1429,-10.9764,-3.73923
-420,-405,-12.1187,3.68506,0,0,0,0,0,0,0,-1,804,1429,-12.1187,-3.68512
-413,-405,-13.5353,3.75659,0,0,0,0,0,0,0,-1,811,1429,-13.5353,-3.75655
-406,-405,-14.7374,3.99817,0,0,0,0,0,0,0,-1,818,1429,-14.7374,-3.99814
-399,-405,0,0,0,0,0,0,0,0,0,-1,825,1429,0,0
-392,-405,0,0,0,0,0,0,0,0,0,-1,832,1429,0,0
-385,-405,0,0,0,0,0,0,0,0,0,-1,839,1429,0,0
-378,-405,0,0,0,0,0,0,0,0,0,-1,846,1429,0,0
-371,-405,0,0,0,0,0,0,0,0,0,-1,853,1429,0,0
-364,-405,0,0,0,0,0,0,0,0,0,-1,860,1429,0,0
-357,-405,0,0,0,0,0,0,0,0,0,-1,867,1429,0,0
-350,-405,0,0,0,0,0,0,0,0,0,-1,874,1429,0,0
-343,-405,0,0,0,0,0,0,0,0,0,-1,881,1429,0,0
-336,-405,0,0,0,0,0,0,0,0,0,-1,888,1429,0,0
-329,-405,0,0,0,0,0,0,0,0,0,-1,895,1429,0,0
-322,-405,0,0,0,0,0,0,0,0,0,-1,902,1429,0,0
-315,-405,0,0,0,0,0,0,0,0,0,-1,909,1429,0,0
-308,-405,0,0,0,0,0,0,0,0,0,-1,916,1429,0,0
-301,-405,0,0,0,0,0,0,0,0,0,-1,923,1429,0,0
-294,-405,0,0,0,0,0,0,0,0,0,-1,930,1429,0,0
-287,-405,0,0,0,0,0,0,0,0,0,-1,937,1429,0,0
-280,-405,0,0,0,0,0,0,0,0,0,-1,944,1429,0,0
-273,-405,0,0,0,0,0,0,0,0,0,-1,951,1429,0,0
-266,-405,0,0,0,0,0,0,0,0,0,-1,958,1429,0,0
-259,-405,0,0,0,0,0,0,0,0,0,-1,965,1429,0,0
-252,-405,0,0,0,0,0,0,0,0,0,-1,972,1429,0,0
-245,-405,0,0,0,0,0,0,0,0,0,-1,979,1429,0,0
-238,-405,0,0,0,0,0,0,0,0,0,-1,986,1429,0,0
-231,-405,0,0,0,0,0,0,0,0,0,-1,993,1429,0,0
-224,-405,0,0,0,0,0,0,0,0,0,-1,1000,1429,0,0
-217,-405,0,0,0,0,0,0,0,0,0,-1,1007,1429,0,0
-210,-405,0,0,0,0,0,0,0,0,0,-1,1014,1429,0,0
-203,-405,0,0,0,0,0,0,0,0,0,-1,1021,1429,0,0
-196,-405,0,0,0,0,0,0,0,0,0,-1,1028,1429,0,0
-189,-405,0,0,0,0,0,0,0,0,0,-1,1035,1429,0,0
-182,-405,0,0,0,0,0,0,0,0,0,-1,1042,1429,0,0
-175,-405,0,0,0,0,0,0,0,0,0,-1,1049,1429,0,0
-168,-405,0,0,0,0,0,0,0,0,0,-1,1056,1429,0,0
-161,-405,0,0,0,0,0,0,0,0,0,-1,1063,1429,0,0
-154,-405,0,0,0,0,0,0,0,0,0,-1,1070,1429,0,0
-147,-405,0,0,0,0,0,0,0,0,0,-1,1077,1429,0,0
-140,-405,0,0,0,0,0,0,0,0,0,-1,1084,1429,0,0
-133,-405,0,0,0,0,0,0,0,0,0,-1,1091,1429,0,0
-126,-405,0,0,0,0,0,0,0,0,0,-1,1098,1429,0,0
-119,-405,0,0,0,0,0,0,0,0,0,-1,1105,1429,0,0
-112,-405,0,0,0,0,0,0,0,0,0,-1,1112,1429,0,0
-105,-405,0,0,0,0,0,0,0,0,0,-1,1119,1429,0,0
-98,-405,0,0,0,0,0,0,0,0,0,-1,1126,1429,0,0
-91,-405,0,0,0,0,0,0,0,0,0,-1,1133,1429,0,0
-84,-405,0,0,0,0,0,0,0,0,0,-1,1140,1429,0,0
-77,-405,0,0,0,0,0,0,0,0,0,-1,1147,1429,0,0
-70,-405,0,0,0,0,0,0,0,0,0,-1,1154,1429,0,0
-63,-405,0,0,0,0,0,0,0,0,0,-1,1161,1429,0,0
-56,-405,0,0,0,0,0,0,0,0,0,-1,1168,1429,0,0
-49,-405,0,0,0,0,0,0,0,0,0,-1,1175,1429,0,0
-42,-405,0,0,0,0,0,0,0,0,0,-1,1182,1429,0,0
-35,-405,0,0,0,0,0,0,0,0,0,-1,1189,1429,0,0
-28,-405,0,0,0,0,0,0,0,0,0,-1,1196,1429,0,0
-21,-405,0,0,0,0,0,0,0,0,0,-1,1203,1429,0,0
-14,-405,0,0,0,0,0,0,0,0,0,-1,1210,1429,0,0
-7,-405,0,0,0,0,0,0,0,0,0,-1,1217,1429,0,0
0,-405,0,0,0,0,0,0,0,0,0,-1,1224,1429,0,0
7,-405,0,0,0,0,0,0,0,0,0,-1,1231,1429,0,0
14,-405,0,0,0,0,0,0,0,0,0,-1,1238,1429,0,0
21,-405,0,0,0,0,0,0,0,0,0,-1,1245,1429,0,0
28,-405,0,0,0,0,0,0,0,0,0,-1,1252,1429,0,0
35,-405,0,0,0,0,0,0,0,0,0,-1,1259,1429,0,0
42,-405,0,0,0,0,0,0,0,0,0,-1,1266,1429,0,0
49,-405,0,0,0,0,0,0,0,0,0,-1,1273,1429,0,0
56,-405,0,0,0,0,0,0,0,0,0,-1,1280,1429,0,0
63,-405,0,0,0,0,0,0,0,0,0,-1,1287,1429,0,0
70,-405,0,0,0,0,0,0,0,0,0,-1,1294,1429,0,0
77,-405,0,0,0,0,0,0,0,0,0,-1,1301,1429,0,0
84,-405,0,0,0,0,0,0,0,0,0,-1,1308,1429,0,0
91,-405,0,0,0,0,0,0,0,0,0,-1,1315,1429,0,0
98,-405,0,0,0,0,0,0,0,0,0,-1,1322,1429,0,0
105,-405,0,0,0,0,0,0,0,0,0,-1,1329,1429,0,0
112,-405,0,0,0,0,0,0,0,0,0,-1,1336,1429,0,0
119,-405,0,0,0,0,0,0,0,0,0,-1,1343,1429,0,0
126,-405,0,0,0,0,0,0,0,0,0,-1,1350,1429,0,0
133,-405,0,0,0,0,0,0,0,0,0,-1,1357,1429,0,0
140,-405,0,0,0,0,0,0,0,0,0,-1,1364,1429,0,0
147,-405,0,0,0,0,0,0,0,0,0,-1,1371,1429,0,0
154,-405,0,0,0,0,0,0,0,0,0,-1,1378,1429,0,0
161,-405,0,0,0,0,0,0,0,0,0,-1,1385,1429,0,0
168,-405,0,0,0,0,0,0,0,0,0,-1,1392,1429,0,0
175,-405,0,0,0,0,0,0,0,0,0,-1,1399,1429,0,0
182,-405,0,0,0,0,0,0,0,0,0,-1,1406,1429,0,0
189,-405,0,0,0,0,0,0,0,0,0,-1,1413,1429,0,0
196,-405,0,0,0,0,0,0,0,0,0,-1,1420,1429,0,0
203,-405,0,0,0,0,0,0,0,0,0,-1,1427,1429,0,0
210,-405,0,0,0,0,0,0,0,0,0,-1,1434,1429,0,0
217,-405,0,0,0,0,0,0,0,0,0,-1,1441,1429,0,0
224,-405,0,0,0,0,0,0,0,0,0,-1,1448,1429,0,0
231,-405,0,0,0,0,0,0,0,0,0,-1,1455,1429,0,0
238,-405,0,0,0,0,0,0,0,0,0,-1,1462,1429,0,0
245,-405,0,0,0,0,0,0,0,0,0,-1,1469,1429,0,0
252,-405,0,0,0,0,0,0,0,0,0,-1,1476,1429,0,0
259,-405,0,0,0,0,0,0,0,0,0,-1,1483,1429,0,0
266,-405,0,0,0,0,0,0,0,0,0,-1,1490,1429,0,0
273,-405,0,0,0,0,0,0,0,0,0,-1,1497,1429,0,0
280,-405,0,0,0,0,0,0,0,0,0,-1,1504,1429,0,0
287,-405,0,0,0,0,0,0,0,0,0,-1,1511,1429,0,0
294,-405,0,0,0,0,0,0,0,0,0,-1,1518,1429,0,0
301,-405,0,0,0,0,0,0,0,0,0,-1,1525,1429,0,0
308,-405,0,0,0,0,0,0,0,0,0,-1,1532,1429,0,0
315,-405,0,0,0,0,0,0,0,0,0,-1,1539,1429,0,0
322,-405,0,0,0,0,0,0,0,0,0,-1,1546,1429,0,0
329,-405,0,0,0,0,0,0,0,0,0,-1,1553,1429,0,0
336,-405,0,0,0,0,0,0,0,0,0,-1,1560,1429,0,0
343,-405,0,0,0,0,0,0,0,0,0,-1,1567,1429,0,0
350,-405,0,0,0,0,0,0,0,0,0,-1,1574,1429,0,0
357,-405,0,0,0,0,0,0,0,0,0,-1,1581,1429,0,0
364,-405,0,0,0,0,0,0,0,0,0,-1,1588,1429,0,0
371,-405,0,0,0,0,0,0,0,0,0,-1,1595,1429,0,0
378,-405,0,0,0,0,0,0,0,0,0,-1,1602,1429,0,0
385,-405,0,0,0,0,0,0,0,0,0,-1,1609,1429,0,0
392,-405,0,0,0,0,0,0,0,0,0,-1,1616,1429,0,0
399,-405,0,0,0,0,0,0,0,0,0,-1,1623,1429,0,0
406,-405,0,0,0,0,0,0,0,0,0,-1,1630,1429,0,0
413,-405,0,0,0,0,0,0,0,0,0,-1,1637,1429,0,0
420,-405,0,0,0,0,0,0,0,0,0,-1,1644,1429,0,0
427,-405,0,0,0,0,0,0,0,0,0,-1,1651,1429,0,0
434,-405,0,0,0,0,0,0,0,0,0,-1,1658,1429,0,0
441,-405,0,0,0,0,0,0,0,0,0,-1,1665,1429,0,0
448,-405,0,0,0,0,0,0,0,0,0,-1,1672,1429,0,0
455,-405,0,0,0,0,0,0,0,0,0,-1,1679,1429,0,0
462,-405,0,0,0,0,0,0,0,0,0,-1,1686,1429,0,0
469,-405,0,0,0,0,0,0,0,0,0,-1,1693,1429,0,0
476,-405,0,0,0,0,0,0,0,0,0,-1,1700,1429,0,0
483,-405,0,0,0,0,0,0,0,0,0,-1,1707,1429,0,0
490,-405,0,0,0,0,0,0,0,0,0,-1,1714,1429,0,0
497,-405,0,0,0,0,0,0,0,0,0,-1,1721,1429,0,0
504,-405,0,0,0,0,0,0,0,0,0,-1,1728,1429,0,0
511,-405,0,0,0,0,0,0,0,0,0,-1,1735,1429,0,0
518,-405,0,0,0,0,0,0,0,0,0,-1,1742,1429,0,0
525,-405,31.1563,-1.40942,0,0,0,0,0,0,0,-1,1749,1429,31.1563,1.40937
532,-405,28.156,4.8783,0,0,0,0,0,0,0,-1,1756,1429,28.1561,-4.87833
539,-405,26.5133,3.02454,0,0,0,0,0,0,0,-1,1763,1429,26.5133,-3.0246
546,-405,29.5735,6.53052,0,0,0,0,0,0,0,-1,1770,1429,29.5735,-6.53049
553,-405,28.2911,6.70654,0,0,0,0,0,0,0,-1,1777,1429,28.2912,-6.70656
560,-405,26.9299,7.08472,0,0,0,0,0,0,0,-1,1784,1429,26.9299,-7.08469
567,-405,25.804,7.14661,0,0,0,0,0,0,0,-1,1791,1429,25.8039,-7.14665
574,-405,25.1151,8.07971,0,0,0,0,0,0,0,-1,1798,1429,25.1151,-8.07965
581,-405,23.5055,8.505,0,0,0,0,0,0,0,-1,1805,1429,23.5054,-8.50501
588,-405,21.7491,8.98254,0,0,0,0,0,0,0,-1,1812,1429,21.7491,-8.98254
595,-405,21.6327,10.7795,0,0,0,0,0,0,0,-1,1819,1429,21.6327,-10.7796
602,-405,19.0133,12.0515,0,0,0,0,0,0,0,-1,1826,1429,19.0133,-12.0515
609,-405,19.083,11.804,-0.00218652,0.00250128,1.81539e-05,0.00250135,-0.00218659,1.56692,0.00270862,0.037639,1833,1429,19.083,-11.804
616,-405,19.0428,11.4365,-0.00116174,0.00167903,-0.000194695,0.00169231,-0.00117502,-1.50268,0.00166441,0.0157146,1840,1429,19.0428,-11.4366
623,-405,19.0529,11.0441,-0.000372672,0.00107587,-0.000312696,0.00114048,-0.000437291,-1.36701,0.000940603,0.0102663,1847,1429,19.0528,-11.044
630,-405,19.0753,10.6759,0.000216958,0.000689204,-0.000373342,0.000894826,1.13361e-05,-1.06737,0.000592808,0.010278,1854,1429,19.0753,-10.6759
637,-405,19.0798,10.3354,0.000482983,0.000367873,-0.000254212,0.000686074,0.000164782,-0.674072,0.000413548,0.011393,1861,1429,19.0798,-10.3355
644,-405,18.9604,10.0181,0.000590101,0.000102163,-3.33646e-05,0.000592372,9.98924e-05,-0.0679572,0.000366187,0.0290863,1868,1429,18.9605,-10.0181
651,-405,18.9425,9.6062,0.000625285,-0.00012045,0.000245469,0.000698831,-0.000193996,0.291103,0.000542246,0.0308614,1875,1429,18.9425,-9.6062
658,-405,19.024,9.26685,0.000603296,-0.000291219,0.000572406,0.00088246,-0.000570383,0.453761,0.000845225,0.0225538,1882,1429,19.0241,-9.2669
665,-405,19.0533,8.92419,0.000461127,-0.00045089,0.00102302,0.00112517,-0.00111493,0.575743,0.00129333,0.0174102,1889,1429,19.0533,-8.92414
672,-405,19.0515,8.57263,0.000264308,-0.000657337,0.00158429,0.00145344,-0.00184647,0.643869,0.0019097,0.0220711,1896,1429,19.0515,-8.57258
679,-405,19.048,8.22058,0.000102683,-0.000956106,0.00225034,0.00188506,-0.00273849,0.669873,0.00268452,0.0216277,1903,1429,19.0479,-8.22057
686,-405,18.91,7.87866,-9.43358e-05,-0.00147793,0.00315955,0.00244826,-0.00402053,0.677622,0.00377135,0.0389203,1910,1429,18.91,-7.8787
693,-405,18.7036,7.68652,0,0,0,0,0,0,0,-1,1917,1429,18.7036,-7.68649
700,-405,9.1958,4.02026,0,0,0,0,0,0,0,-1,1924,1429,9.19579,-4.02025
707,-405,7.40308,3.83191,0,0,0,0,0,0,0,-1,1931,1429,7.40311,-3.83194
714,-405,7.33252,3.47388,0,0,0,0,0,0,0,-1,1938,1429,7.33255,-3.47383
721,-405,9.23523,0.993896,0,0,0,0,0,0,0,-1,1945,1429,9.23523,-0.993884
728,-405,0,0,0,0,0,0,0,0,0,-1,1952,1429,0,0
735,-405,0,0,0,0,0,0,0,0,0,-1,1959,1429,0,0
742,-405,0,0,0,0,0,0,0,0,0,-1,1966,1429,0,0
749,-405,0,0,0,0,0,0,0,0,0,-1,1973,1429,0,0
756,-405,0,0,0,0,0,0,0,0,0,-1,1980,1429,0,0
763,-405,0,0,0,0,0,0,0,0,0,-1,1987,1429,0,0
770,-405,0,0,0,0,0,0,0,0,0,-1,1994,1429,0,0
777,-405,0,0,0,0,0,0,0,0,0,-1,2001,1429,0,0
784,-405,0,0,0,0,0,0,0,0,0,-1,2008,1429,0,0
791,-405,0,0,0,0,0,0,0,0,0,-1,2015,1429,0,0
798,-405,0,0,0,0,0,0,0,0,0,-1,2022,1429,0,0
805,-405,0,0,0,0,0,0,0,0,0,-1,2029,1429,0,0
812,-405,0,0,0,0,0,0,0,0,0,-1,2036,1429,0,0
-700,-412,0,0,0,0,0,0,0,0,0,-1,524,1436,0,0
-693,-412,0,0,0,0,0,0,0,0,0,-1,531,1436,0,0
-686,-412,0,0,0,0,0,0,0,0,0,-1,538,1436,0,0
-679,-412,0,0,0,0,0,0,0,0,0,-1,545,1436,0,0
-672,-412,0,0,0,0,0,0,0,0,0,-1,552,1436,0,0
-665,-412,0,0,0,0,0,0,0,0,0,-1,559,1436,0,0
-658,-412,0,0,0,0,0,0,0,0,0,-1,566,1436,0,0
-651,-412,0,0,0,0,0,0,0,0,0,-1,573,1436,0,0
-644,-412,0,0,0,0,0,0,0,0,0,-1,580,1436,0,0
-637,-412,0,0,0,0,0,0,0,0,0,-1,587,1436,0,0
-630,-412,0,0,0,0,0,0,0,0,0,-1,594,1436,0,0
-623,-412,0,0,0,0,0,0,0,0,0,-1,601,1436,0,0
-616,-412,0,0,0,0,0,0,0,0,0,-1,608,1436,0,0
-609,-412,0,0,0,0,0,0,0,0,0,-1,615,1436,0,0
-602,-412,-3.72766,-3.50012,0,0,0,0,0,0,0,-1,622,1436,-3.72764,3.50017
-595,-412,-10.3706,0.65564,0,0,0,0,0,0,0,-1,629,1436,-10.3706,-0.655672
-588,-412,-8.17957,1.94934,0,0,0,0,0,0,0,-1,636,1436,-8.17956,-1.94939
-581,-412,-6.60065,-0.0554199,0,0,0,0,0,0,0,-1,643,1436,-6.60063,0.0554733
-574,-412,-8.34131,5.25012,0,0,0,0,0,0,0,-1,650,1436,-8.34129,-5.25012
-567,-412,-7.50354,3.65454,0,0,0,0,0,0,0,-1,657,1436,-7.50356,-3.65452
-560,-412,-5.49805,5.2561,0,0,0,0,0,0,0,-1,664,1436,-5.49802,-5.25609
-553,-412,-6.89392,6.13464,0,0,0,0,0,0,0,-1,671,1436,-6.89391,-6.1347
-546,-412,-7.08441,6.26807,-0.0189127,0.00325113,-0.00455567,0.00415099,-0.0198126,-1.37578,0.0147876,0.0471569,678,1436,-7.08441,-6.26805
-539,-412,-7.34076,6.44348,-0.0130105,0.00240351,-0.00299755,0.00296592,-0.0135729,-1.38533,0.0101823,0.0201289,685,1436,-7.34074,-6.44347
-532,-412,-7.36938,6.90076,-0.00843612,0.00182245,-0.00176503,0.00211763,-0.00873131,-1.40509,0.00664027,0.0135177,692,1436,-7.36936,-6.90077
-525,-412,-7.3667,7.32202,-0.00480985,0.00145633,-0.000719781,0.00153794,-0.00489146,-1.45789,0.00387668,0.0157164,699,1436,-7.36668,-7.32207
-518,-412,-7.35889,7.69873,-0.00217321,0.00105031,-4.13372e-05,0.00105084,-0.00217374,-1.55798,0.00189897,0.0165425,706,1436,-7.3589,-7.69878
-511,-412,-7.38745,8.07117,-0.000486299,1.67972e-05,-4.54128e-06,1.68382e-05,-0.00048634,-1.56177,0.000329983,0.0194673,713,1436,-7.38742,-8.07113
-504,-412,-7.39343,8.46777,0.000875895,-0.000905612,-0.000162815,0.000890653,-0.00092037,-0.0903938,0.00104564,0.0192503,720,1436,-7.39346,-8.46783
-497,-412,-7.39856,8.85132,0.0013272,-0.00248336,-0.00107122,0.00160769,-0.00276385,-0.256094,0.00255316,0.0147009,727,1436,-7.39853,-8.85134
-490,-412,-7.41077,9.24426,0.00111293,-0.00511993,-0.0024241,0.00194471,-0.00595171,-0.330542,0.00475063,0.0127933,734,1436,-7.41074,-9.24422
-483,-412,-7.39868,9.62415,6.39196e-05,-0.00871189,-0.00464346,0.00206471,-0.0107127,-0.406844,0.00792025,0.00958112,741,1436,-7.39866,-9.62417
-476,-412,-7.28259,10.129,-0.00152927,-0.0133001,-0.00755845,0.00216488,-0.0169943,-0.454603,0.0121158,0.0205077,748,1436,-7.28259,-10.129
-469,-412,-7.3175,10.4144,-0.00337647,-0.0194447,-0.0112145,0.00238477,-0.0252059,-0.474573,0.0176526,0.0345692,755,1436,-7.31747,-10.4144
-462,-412,-7.50732,10.4353,-0.00615753,-0.0281275,-0.0164955,0.00267594,-0.0369609,-0.491649,0.0255793,0.0461555,762,1436,-7.50731,-10.4353
-455,-412,-7.77582,10.5925,0,0,0,0,0,0,0,-1,769,1436,-7.77584,-10.5925
-448,-412,-7.38086,8.78186,0,0,0,0,0,0,0,-1,776,1436,-7.38088,-8.78183
-441,-412,-8.79523,9.05286,0,0,0,0,0,0,0,-1,783,1436,-8.79521,-9.0529
-434,-412,-10.6305,8.03577,0,0,0,0,0,0,0,-1,790,1436,-10.6305,-8.0358
-427,-412,-10.0004,5.15271,0,0,0,0,0,0,0,-1,797,1436,-10.0004,-5.15266
-420,-412,-10.4468,4.9043,0,0,0,0,0,0,0,-1,804,1436,-10.4468,-4.90429
-413,-412,-11.5704,4.97766,0,0,0,0,0,0,0,-1,811,1436,-11.5704,-4.97771
-406,-412,-13.1968,5.70093,0,0,0,0,0,0,0,-1,818,1436,-13.1968,-5.70096
-399,-412,-10.5506,0.771973,0,0,0,0,0,0,0,-1,825,1436,-10.5506,-0.771954
-392,-412,0,0,0,0,0,0,0,0,0,-1,832,1436,0,0
-385,-412,0,0,0,0,0,0,0,0,0,-1,839,1436,0,0
-378,-412,0,0,0,0,0,0,0,0,0,-1,846,1436,0,0
-371,-412,0,0,0,0,0,0,0,0,0,-1,853,1436,0,0
-364,-412,0,0,0,0,0,0,0,0,0,-1,860,1436,0,0
-357,-412,0,0,0,0,0,0,0,0,0,-1,867,1436,0,0
-350,-412,0,0,0,0,0,0,0,0,0,-1,874,1436,0,0
-343,-412,0,0,0,0,0,0,0,0,0,-1,881,1436,0,0
-336,-412,0,0,0,0,0,0,0,0,0,-1,888,1436,0,0
-329,-412,0,0,0,0,0,0,0,0,0,-1,895,1436,0,0
-322,-412,0,0,0,0,0,0,0,0,0,-1,902,1436,0,0
-315,-412,0,0,0,0,0,0,0,0,0,-1,909,1436,0,0
-308,-412,0,0,0,0,0,0,0,0,0,-1,916,1436,0,0
-301,-412,0,0,0,0,0,0,0,0,0,-1,923,1436,0,0
-294,-412,0,0,0,0,0,0,0,0,0,-1,930,1436,0,0
-287,-412,0,0,0,0,0,0,0,0,0,-1,937,1436,0,0
-280,-412,0,0,0,0,0,0,0,0,0,-1,944,1436,0,0
-273,-412,0,0,0,0,0,0,0,0,0,-1,951,1436,0,0
-266,-412,0,0,0,0,0,0,0,0,0,-1,958,1436,0,0
-259,-412,0,0,0,0,0,0,0,0,0,-1,965,1436,0,0
-252,-412,0,0,0,0,0,0,0,0,0,-1,972,1436,0,0
-245,-412,0,0,0,0,0,0,0,0,0,-1,979,1436,0,0
-238,-412,0,0,0,0,0,0,0,0,0,-1,986,1436,0,0
-231,-412,0,0,0,0,0,0,0,0,0,-1,993,1436,0,0
-224,-412,0,0,0,0,0,0,0,0,0,-1,1000,1436,0,0
-217,-412,0,0,0,0,0,0,0,0,0,-1,1007,1436,0,0
-210,-412,0,0,0,0,0,0,0,0,0,-1,1014,1436,0,0
-203,-412,0,0,0,0,0,0,0,0,0,-1,1021,1436,0,0
-196,-412,0,0,0,0,0,0,0,0,0,-1,1028,1436,0,0
-189,-412,0,0,0,0,0,0,0,0,0,-1,1035,1436,0,0
-182,-412,0,0,0,0,0,0,0,0,0,-1,1042,1436,0,0
-175,-412,0,0,0,0,0,0,0,0,0,-1,1049,1436,0,0
-168,-412,0,0,0,0,0,0,0,0,0,-1,1056,1436,0,0
-161,-412,0,0,0,0,0,0,0,0,0,-1,1063,1436,0,0
-154,-412,0,0,0,0,0,0,0,0,0,-1,1070,1436,0,0
-147,-412,0,0,0,0,0,0,0,0,0,-1,1077,1436,0,0
-140,-412,0,0,0,0,0,0,0,0,0,-1,1084,1436,0,0
-133,-412,0,0,0,0,0,0,0,0,0,-1,1091,1436,0,0
-126,-412,0,0,0,0,0,0,0,0,0,-1,1098,1436,0,0
-119,-412,0,0,0,0,0,0,0,0,0,-1,1105,1436,0,0
-112,-412,0,0,0,0,0,0,0,0,0,-1,1112,1436,0,0
-105,-412,0,0,0,0,0,0,0,0,0,-1,1119,1436,0,0
-98,-412,0,0,0,0,0,0,0,0,0,-1,1126,1436,0,0
-91,-412,0,0,0,0,0,0,0,0,0,-1,1133,1436,0,0
-84,-412,0,0,0,0,0,0,0,0,0,-1,1140,1436,0,0
-77,-412,0,0,0,0,0,0,0,0,0,-1,1147,1436,0,0
-70,-412,0,0,0,0,0,0,0,0,0,-1,1154,1436,0,0
-63,-412,0,0,0,0,0,0,0,0,0,-1,1161,1436,0,0
-56,-412,0,0,0,0,0,0,0,0,0,-1,1168,1436,0,0
-49,-412,0,0,0,0,0,0,0,0,0,-1,1175,1436,0,0
-42,-412,0,0,0,0,0,0,0,0,0,-1,1182,1436,0,0
-35,-412,0,0,0,0,0,0,0,0,0,-1,1189,1436,0,0
-28,-412,0,0,0,0,0,0,0,0,0,-1,1196,1436,0,0
-21,-412,0,0,0,0,0,0,0,0,0,-1,1203,1436,0,0
-14,-412,0,0,0,0,0,0,0,0,0,-1,1210,1436,0,0
-7,-412,0,0,0,0,0,0,0,0,0,-1,1217,1436,0,0
0,-412,0,0,0,0,0,0,0,0,0,-1,1224,1436,0,0
7,-412,0,0,0,0,0,0,0,0,0,-1,1231,1436,0,0
14,-412,0,0,0,0,0,0,0,0,0,-1,1238,1436,0,0
21,-412,0,0,0,0,0,0,0,0,0,-1,1245,1436,0,0
28,-412,0,0,0,0,0,0,0,0,0,-1,1252,1436,0,0
35,-412,0,0,0,0,0,0,0,0,0,-1,1259,1436,0,0
42,-412,0,0,0,0,0,0,0,0,0,-1,1266,1436,0,0
49,-412,0,0,0,0,0,0,0,0,0,-1,1273,1436,0,0
56,-412,0,0,0,0,0,0,0,0,0,-1,1280,1436,0,0
63,-412,0,0,0,0,0,0,0,0,0,-1,1287,1436,0,0
70,-412,0,0,0,0,0,0,0,0,0,-1,1294,1436,0,0
77,-412,0,0,0,0,0,0,0,0,0,-1,1301,1436,0,0
84,-412,0,0,0,0,0,0,0,0,0,-1,1308,1436,0,0
91,-412,0,0,0,0,0,0,0,0,0,-1,1315,1436,0,0
98,-412,0,0,0,0,0,0,0,0,0,-1,1322,1436,0,0
105,-412,0,0,0,0,0,0,0,0,0,-1,1329,1436,0,0
112,-412,0,0,0,0,0,0,0,0,0,-1,1336,1436,0,0
119,-412,0,0,0,0,0,0,0,0,0,-1,1343,1436,0,0
126,-412,0,0,0,0,0,0,0,0,0,-1,1350,1436,0,0
133,-412,0,0,0,0,0,0,0,0,0,-1,1357,1436,0,0
140,-412,0,0,0,0,0,0,0,0,0,-1,1364,1436,0,0
147,-412,0,0,0,0,0,0,0,0,0,-1,1371,1436,0,0
154,-412,0,0,0,0,0,0,0,0,0,-1,1378,1436,0,0
161,-412,0,0,0,0,0,0,0,0,0,-1,1385,1436,0,0
168,-412,0,0,0,0,0,0,0,0,0,-1,1392,1436,0,0
175,-412,0,0,0,0,0,0,0,0,0,-1,1399,1436,0,0
182,-412,0,0,0,0,0,0,0,0,0,-1,1406,1436,0,0
189,-412,0,0,0,0,0,0,0,0,0,-1,1413,1436,0,0
196,-412,0,0,0,0,0,0,0,0,0,-1,1420,1436,0,0
203,-412,0,0,0,0,0,0,0,0,0,-1,1427,1436,0,0
210,-412,0,0,0,0,0,0,0,0,0,-1,1434,1436,0,0
217,-412,0,0,0,0,0,0,0,0,0,-1,1441,1436,0,0
224,-412,0,0,0,0,0,0,0,0,0,-1,1448,1436,0,0
231,-412,0,0,0,0,0,0,0,0,0,-1,1455,1436,0,0
238,-412,0,0,0,0,0,0,0,0,0,-1,1462,1436,0,0
245,-412,0,0,0,0,0,0,0,0,0,-1,1469,1436,0,0
252,-412,0,0,0,0,0,0,0,0,0,-1,1476,1436,0,0
259,-412,0,0,0,0,0,0,0,0,0,-1,1483,1436,0,0
266,-412,0,0,0,0,0,0,0,0,0,-1,1490,1436,0,0
273,-412,0,0,0,0,0,0,0,0,0,-1,1497,1436,0,0
280,-412,0,0,0,0,0,0,0,0,0,-1,1504,1436,0,0
287,-412,0,0,0,0,0,0,0,0,0,-1,1511,1436,0,0
294,-412,0,0,0,0,0,0,0,0,0,-1,1518,1436,0,0
301,-412,0,0,0,0,0,0,0,0,0,-1,1525,1436,0,0
308,-412,0,0,0,0,0,0,0,0,0,-1,1532,1436,0,0
315,-412,0,0,0,0,0,0,0,0,0,-1,1539,1436,0,0
322,-412,0,0,0,0,0,0,0,0,0,-1,1546,1436,0,0
329,-412,0,0,0,0,0,0,0,0,0,-1,1553,1436,0,0
336,-412,0,0,0,0,0,0,0,0,0,-1,1560,1436,0,0
343,-412,0,0,0,0,0,0,0,0,0,-1,1567,1436,0,0
350,-412,0,0,0,0,0,0,0,0,0,-1,1574,1436,0,0
357,-412,0,0,0,0,0,0,0,0,0,-1,1581,1436,0,0
364,-412,0,0,0,0,0,0,0,0,0,-1,1588,1436,0,0
371,-412,0,0,0,0,0,0,0,0,0,-1,1595,1436,0,0
378,-412,0,0,0,0,0,0,0,0,0,-1,1602,1436,0,0
385,-412,0,0,0,0,0,0,0,0,0,-1,1609,1436,0,0
392,-412,0,0,0,0,0,0,0,0,0,-1,1616,1436,0,0
399,-412,0,0,0,0,0,0,0,0,0,-1,1623,1436,0,0
406,-412,0,0,0,0,0,0,0,0,0,-1,1630,1436,0,0
413,-412,0,0,0,0,0,0,0,0,0,-1,1637,1436,0,0
420,-412,0,0,0,0,0,0,0,0,0,-1,1644,1436,0,0
427,-412,0,0,0,0,0,0,0,0,0,-1,1651,1436,0,0
434,-412,0,0,0,0,0,0,0,0,0,-1,1658,1436,0,0
441,-412,0,0,0,0,0,0,0,0,0,-1,1665,1436,0,0
448,-412,0,0,0,0,0,0,0,0,0,-1,1672,1436,0,0
455,-412,0,0,0,0,0,0,0,0,0,-1,1679,1436,0,0
462,-412,0,0,0,0,0,0,0,0,0,-1,1686,1436,0,0
469,-412,0,0,0,0,0,0,0,0,0,-1,1693,1436,0,0
476,-412,0,0,0,0,0,0,0,0,0,-1,1700,1436,0,0
483,-412,0,0,0,0,0,0,0,0,0,-1,1707,1436,0,0
490,-412,0,0,0,0,0,0,0,0,0,-1,1714,1436,0,0
497,-412,0,0,0,0,0,0,0,0,0,-1,1721,1436,0,0
504,-412,0,0,0,0,0,0,0,0,0,-1,1728,1436,0,0
511,-412,0,0,0,0,0,0,0,0,0,-1,1735,1436,0,0
518,-412,30.1038,-2.43384,0,0,0,0,0,0,0,-1,1742,1436,30.1038,2.43383
525,-412,29.5283,-1.42493,0,0,0,0,0,0,0,-1,1749,1436,29.5283,1.42495
532,-412,28.8533,-0.386597,0,0,0,0,0,0,0,-1,1756,1436,28.8533,0.386632
539,-412,25.8654,2.74683,0,0,0,0,0,0,0,-1,1763,1436,25.8654,-2.74685
546,-412,25.4265,2.4342,0,0,0,0,0,0,0,-1,1770,1436,25.4265,-2.4342
553,-412,26.3595,7.49255,0,0,0,0,0,0,0,-1,1777,1436,26.3595,-7.4925
560,-412,24.9116,7.94324,0,0,0,0,0,0,0,-1,1784,1436,24.9116,-7.94327
567,-412,23.668,7.94531,0,0,0,0,0,0,0,-1,1791,1436,23.6679,-7.94534
574,-412,23.0142,9.17236,0,0,0,0,0,0,0,-1,1798,1436,23.0141,-9.17235
581,-412,22.2615,10.0349,0,0,0,0,0,0,0,-1,1805,1436,22.2615,-10.0349
588,-412,21.6893,10.8069,0,0,0,0,0,0,0,-1,1812,1436,21.6893,-10.8069
595,-412,20.4517,11.3307,0,0,0,0,0,0,0,-1,1819,1436,20.4516,-11.3307
602,-412,18.9611,12.0817,-0.00344504,0.00268772,0.000750584,0.00277824,-0.00353556,1.45077,0.00365401,0.0357847,1826,1436,18.9611,-12.0817
609,-412,18.743,11.7378,-0.00207779,0.00209775,0.000196896,0.00210701,-0.00208705,1.52378,0.00242145,0.0110618,1833,1436,18.743,-11.7378
616,-412,18.7329,11.3865,-0.00128625,0.00144688,3.6588e-05,0.00144737,-0.00128674,1.55741,0.00157945,0.00800385,1840,1436,18.7329,-11.3864
623,-412,18.7212,11.0358,-0.000599963,0.000866891,-7.0042e-05,0.000870228,-0.0006033,-1.52319,0.000855382,0.00890557,1847,1436,18.7212,-11.0358
630,-412,18.722,10.6606,-4.40211e-05,0.000507389,-0.000114022,0.000530036,-6.66689e-05,-1.37472,0.000377548,0.0112491,1854,1436,18.722,-10.6607
637,-412,18.7264,10.2981,0.000219522,0.00019449,4.26011e-05,0.000251407,0.000162604,0.642521,0.00014722,0.0135379,1861,1436,18.7264,-10.2981
644,-412,18.7065,9.97937,0.000373255,-7.66806e-05,0.000272984,0.000502026,-0.000205451,0.440765,0.000420255,0.0145445,1868,1436,18.7065,-9.97934
651,-412,18.6838,9.60083,0.000473206,-0.000288802,0.000549262,0.000760672,-0.000576268,0.482167,0.000774327,0.0233779,1875,1436,18.6838,-9.60082
658,-412,18.6774,9.25989,0.000497962,-0.000443088,0.000884266,0.0010291,-0.000974222,0.540897,0.00115676,0.0155188,1882,1436,18.6773,-9.25985
665,-412,18.7056,8.92578,0.00040358,-0.000561267,0.00132509,0.00133134,-0.00148902,0.610822,0.00162918,0.0198221,1889,1436,18.7056,-8.9258
672,-412,18.7112,8.59534,0.00025112,-0.000747635,0.00189576,0.00171218,-0.00220869,0.656615,0.00226975,0.0250363,1896,1436,18.7111,-8.59536
679,-412,18.7139,8.20703,0.000117155,-0.00102622,0.00258048,0.00218852,-0.00309759,0.676387,0.00306694,0.0368121,1903,1436,18.7138,-8.20707
686,-412,18.5841,7.74915,0,0,0,0,0,0,0,-1,1910,1436,18.5841,-7.74912
693,-412,11.9346,6.02344,0,0,0,0,0,0,0,-1,1917,1436,11.9346,-6.02343
700,-412,8.82764,5.8844,0,0,0,0,0,0,0,-1,1924,1436,8.82761,-5.88444
707,-412,6.59998,1.68994,0,0,0,0,0,0,0,-1,1931,1436,6.60002,-1.68995
714,-412,4.77283,-2.39832,0,0,0,0,0,0,0,-1,1938,1436,4.77288,2.39835
721,-412,0,0,0,0,0,0,0,0,0,-1,1945,1436,0,0
728,-412,0,0,0,0,0,0,0,0,0,-1,1952,1436,0,0
735,-412,0,0,0,0,0,0,0,0,0,-1,1959,1436,0,0
742,-412,0,0,0,0,0,0,0,0,0,-1,1966,1436,0,0
749,-412,0,0,0,0,0,0,0,0,0,-1,1973,1436,0,0
756,-412,0,0,0,0,0,0,0,0,0,-1,1980,1436,0,0
763,-412,0,0,0,0,0,0,0,0,0,-1,1987,1436,0,0
770,-412,0,0,0,0,0,0,0,0,0,-1,1994,1436,0,0
777,-412,0,0,0,0,0,0,0,0,0,-1,2001,1436,0,0
784,-412,0,0,0,0,0,0,0,0,0,-1,2008,1436,0,0
791,-412,0,0,0,0,0,0,0,0,0,-1,2015,1436,0,0
798,-412,0,0,0,0,0,0,0,0,0,-1,2022,1436,0,0
805,-412,0,0,0,0,0,0,0,0,0,-1,2029,1436,0,0
812,-412,0,0,0,0,0,0,0,0,0,-1,2036,1436,0,0
-700,-419,0,0,0,0,0,0,0,0,0,-1,524,1443,0,0
-693,-419,0,0,0,0,0,0,0,0,0,-1,531,1443,0,0
-686,-419,0,0,0,0,0,0,0,0,0,-1,538,1443,0,0
-679,-419,0,0,0,0,0,0,0,0,0,-1,545,1443,0,0
-672,-419,0,0,0,0,0,0,0,0,0,-1,552,1443,0,0
-665,-419,0,0,0,0,0,0,0,0,0,-1,559,1443,0,0
-658,-419,0,0,0,0,0,0,0,0,0,-1,566,1443,0,0
-651,-419,0,0,0,0,0,0,0,0,0,-1,573,1443,0,0
-644,-419,0,0,0,0,0,0,0,0,0,-1,580,1443,0,0
-637,-419,0,0,0,0,0,0,0,0,0,-1,587,1443,0,0
-630,-419,0,0,0,0,0,0,0,0,0,-1,594,1443,0,0
-623,-419,0,0,0,0,0,0,0,0,0,-1,601,1443,0,0
-616,-419,0,0,0,0,0,0,0,0,0,-1,608,1443,0,0
-609,-419,0,0,0,0,0,0,0,0,0,-1,615,1443,0,0
-602,-419,0,0,0,0,0,0,0,0,0,-1,622,1443,0,0
-595,-419,-11.4904,-0.622681,0,0,0,0,0,0,0,-1,629,1443,-11.4903,0.622714
-588,-419,-9.09369,0.742432,0,0,0,0,0,0,0,-1,636,1443,-9.09366,-0.742482
-581,-419,-6.39172,2.14673,0,0,0,0,0,0,0,-1,643,1443,-6.39175,-2.14668
-574,-419,-4.09772,3.54773,0,0,0,0,0,0,0,-1,650,1443,-4.09772,-3.54767
-567,-419,-6.14038,3.22498,0,0,0,0,0,0,0,-1,657,1443,-6.14037,-3.22497
-560,-419,-4.52814,5.22253,0,0,0,0,0,0,0,-1,664,1443,-4.52816,-5.22251
-553,-419,-5.08331,6.11829,0,0,0,0,0,0,0,-1,671,1443,-5.08331,-6.1183
-546,-419,-6.47711,6.31714,0,0,0,0,0,0,0,-1,678,1443,-6.47709,-6.31713
-539,-419,-6.76782,6.53564,-0.0114284,0.00449758,-0.00122334,0.004591,-0.0115218,-1.49458,0.00958533,0.0418385,685,1443,-6.76782,-6.53559
-532,-419,-6.99158,6.91809,-0.00706305,0.00354565,-0.000304974,0.00355441,-0.00707181,-1.54208,0.00624608,0.0186804,692,1443,-6.99157,-6.91812
-525,-419,-6.96417,7.34363,-0.003744,0.00285046,0.000424334,0.00287765,-0.00377119,1.5068,0.00385025,0.0139862,699,1443,-6.96417,-7.34363
-518,-419,-6.94336,7.71362,-0.00143113,0.00219882,0.000831176,0.00238009,-0.0016124,1.35607,0.00231922,0.0175733,706,1443,-6.94336,-7.71366
-511,-419,-6.93805,8.11389,-2.99005e-05,0.00108902,0.00070221,0.00142739,-0.000368268,1.12177,0.00109518,0.0195448,713,1443,-6.93802,-8.11391
-504,-419,-6.9798,8.47656,0.00101329,2.39705e-05,0.000337866,0.00111767,-8.04036e-05,0.299621,0.000773306,0.0189697,720,1443,-6.97982,-8.47659
-497,-419,-7.02966,8.849,0.00125343,-0.00156635,-0.0006635,0.00140175,-0.00171467,-0.219928,0.00180228,0.0132207,727,1443,-7.02968,-8.84903
-490,-419,-7.03229,9.24011,0.000954167,-0.00405496,-0.00195626,0.00162762,-0.00472841,-0.331548,0.00381244,0.0109532,734,1443,-7.03231,-9.2401
-483,-419,-7.01953,9.62805,5.24848e-05,-0.00728969,-0.00392726,0.00175729,-0.0089945,-0.40955,0.00665983,0.00966493,741,1443,-7.01951,-9.6281
-476,-419,-6.99341,10.0359,-0.00115593,-0.0112534,-0.00635188,0.00190928,-0.0143186,-0.449605,0.0102416,0.0109053,748,1443,-6.99341,-10.0358
-469,-419,-6.91901,10.4907,-0.00249074,-0.0163305,-0.00924135,0.00213439,-0.0209556,-0.464034,0.0147335,0.0185926,755,1443,-6.91898,-10.4907
-462,-419,-6.85883,10.7626,-0.00418097,-0.0232343,-0.0130997,0.00248986,-0.0299051,-0.471009,0.0208164,0.0441601,762,1443,-6.85885,-10.7625
-455,-419,-6.76031,11.0022,0,0,0,0,0,0,0,-1,769,1443,-6.76031,-11.0022
-448,-419,-7.49109,9.92444,0,0,0,0,0,0,0,-1,776,1443,-7.49109,-9.92442
-441,-419,-7.65527,8.75574,0,0,0,0,0,0,0,-1,783,1443,-7.65525,-8.75568
-434,-419,-6.75922,7.50049,0,0,0,0,0,0,0,-1,790,1443,-6.75921,-7.50055
-427,-419,-8.23193,7.89404,0,0,0,0,0,0,0,-1,797,1443,-8.23193,-7.89404
-420,-419,-8.74091,6.36597,0,0,0,0,0,0,0,-1,804,1443,-8.74089,-6.366
-413,-419,-9.88391,6.53955,0,0,0,0,0,0,0,-1,811,1443,-9.8839,-6.53955
-406,-419,-10.3372,2.75195,0,0,0,0,0,0,0,-1,818,1443,-10.3372,-2.75201
-399,-419,-11.5999,1.40002,0,0,0,0,0,0,0,-1,825,1443,-11.5999,-1.39998
-392,-419,0,0,0,0,0,0,0,0,0,-1,832,1443,0,0
-385,-419,0,0,0,0,0,0,0,0,0,-1,839,1443,0,0
-378,-419,0,0,0,0,0,0,0,0,0,-1,846,1443,0,0
-371,-419,0,0,0,0,0,0,0,0,0,-1,853,1443,0,0
-364,-419,0,0,0,0,0,0,0,0,0,-1,860,1443,0,0
-357,-419,0,0,0,0,0,0,0,0,0,-1,867,1443,0,0
-350,-419,0,0,0,0,0,0,0,0,0,-1,874,1443,0,0
-343,-419,0,0,0,0,0,0,0,0,0,-1,881,1443,0,0
-336,-419,0,0,0,0,0,0,0,0,0,-1,888,1443,0,0
-329,-419,0,0,0,0,0,0,0,0,0,-1,895,1443,0,0
-322,-419,0,0,0,0,0,0,0,0,0,-1,902,1443,0,0
-315,-419,0,0,0,0,0,0,0,0,0,-1,909,1443,0,0
-308,-419,0,0,0,0,0,0,0,0,0,-1,916,1443,0,0
-301,-419,0,0,0,0,0,0,0,0,0,-1,923,1443,0,0
-294,-419,0,0,0,0,0,0,0,0,0,-1,930,1443,0,0
-287,-419,0,0,0,0,0,0,0,0,0,-1,937,1443,0,0
-280,-419,0,0,0,0,0,0,0,0,0,-1,944,1443,0,0
-273,-419,0,0,0,0,0,0,0,0,0,-1,951,1443,0,0
-266,-419,0,0,0,0,0,0,0,0,0,-1,958,1443,0,0
-259,-419,0,0,0,0,0,0,0,0,0,-1,965,1443,0,0
-252,-419,0,0,0,0,0,0,0,0,0,-1,972,1443,0,0
-245,-419,0,0,0,0,0,0,0,0,0,-1,979,1443,0,0
-238,-419,0,0,0,0,0,0,0,0,0,-1,986,1443,0,0
-231,-419,0,0,0,0,0,0,0,0,0,-1,993,1443,0,0
-224,-419,0,0,0,0,0,0,0,0,0,-1,1000,1443,0,0
-217,-419,0,0,0,0,0,0,0,0,0,-1,1007,1443,0,0
-210,-419,0,0,0,0,0,0,0,0,0,-1,1014,1443,0,0
-203,-419,0,0,0,0,0,0,0,0,0,-1,1021,1443,0,0
-196,-419,0,0,0,0,0,0,0,0,0,-1,1028,1443,0,0
-189,-419,0,0,0,0,0,0,0,0,0,-1,1035,1443,0,0
-182,-419,0,0,0,0,0,0,0,0,0,-1,1042,1443,0,0
-175,-419,0,0,0,0,0,0,0,0,0,-1,1049,1443,0,0
-168,-419,0,0,0,0,0,0,0,0,0,-1,1056,1443,0,0
-161,-419,0,0,0,0,0,0,0,0,0,-1,1063,1443,0,0
-154,-419,0,0,0,0,0,0,0,0,0,-1,1070,1443,0,0
-147,-419,0,0,0,0,0,0,0,0,0,-1,1077,1443,0,0
-140,-419,0,0,0,0,0,0,0,0,0,-1,1084,1443,0,0
-133,-419,0,0,0,0,0,0,0,0,0,-1,1091,1443,0,0
-126,-419,0,0,0,0,0,0,0,0,0,-1,1098,1443,0,0
-119,-419,0,0,0,0,0,0,0,0,0,-1,1105,1443,0,0
-112,-419,0,0,0,0,0,0,0,0,0,-1,1112,1443,0,0
-105,-419,0,0,0,0,0,0,0,0,0,-1,1119,1443,0,0
-98,-419,0,0,0,0,0,0,0,0,0,-1,1126,1443,0,0
-91,-419,0,0,0,0,0,0,0,0,0,-1,1133,1443,0,0
-84,-419,0,0,0,0,0,0,0,0,0,-1,1140,1443,0,0
-77,-419,0,0,0,0,0,0,0,0,0,-1,1147,1443,0,0
-70,-419,0,0,0,0,0,0,0,0,0,-1,1154,1443,0,0
-63,-419,0,0,0,0,0,0,0,0,0,-1,1161,1443,0,0
-56,-419,0,0,0,0,0,0,0,0,0,-1,1168,1443,0,0
-49,-419,0,0,0,0,0,0,0,0,0,-1,1175,1443,0,0
-42,-419,0,0,0,0,0,0,0,0,0,-1,1182,1443,0,0
-35,-419,0,0,0,0,0,0,0,0,0,-1,1189,1443,0,0
-28,-419,0,0,0,0,0,0,0,0,0,-1,1196,1443,0,0
-21,-419,0,0,0,0,0,0,0,0,0,-1,1203,1443,0,0
-14,-419,0,0,0,0,0,0,0,0,0,-1,1210,1443,0,0
-7,-419,0,0,0,0,0,0,0,0,0,-1,1217,1443,0,0
0,-419,0,0,0,0,0,0,0,0,0,-1,1224,1443,0,0
7,-419,0,0,0,0,0,0,0,0,0,-1,1231,1443,0,0
14,-419,0,0,0,0,0,0,0,0,0,-1,1238,1443,0,0
21,-419,0,0,0,0,0,0,0,0,0,-1,1245,1443,0,0
28,-419,0,0,0,0,0,0,0,0,0,-1,1252,1443,0,0
35,-419,0,0,0,0,0,0,0,0,0,-1,1259,1443,0,0
42,-419,0,0,0,0,0,0,0,0,0,-1,1266,1443,0,0
49,-419,0,0,0,0,0,0,0,0,0,-1,1273,1443,0,0
56,-419,0,0,0,0,0,0,0,0,0,-1,1280,1443,0,0
63,-419,0,0,0,0,0,0,0,0,0,-1,1287,1443,0,0
70,-419,0,0,0,0,0,0,0,0,0,-1,1294,1443,0,0
77,-419,0,0,0,0,0,0,0,0,0,-1,1301,1443,0,0
84,-419,0,0,0,0,0,0,0,0,0,-1,1308,1443,0,0
91,-419,0,0,0,0,0,0,0,0,0,-1,1315,1443,0,0
98,-419,0,0,0,0,0,0,0,0,0,-1,1322,1443,0,0
105,-419,0,0,0,0,0,0,0,0,0,-1,1329,1443,0,0
112,-419,0,0,0,0,0,0,0,0,0,-1,1336,1443,0,0
119,-419,0,0,0,0,0,0,0,0,0,-1,1343,1443,0,0
126,-419,0,0,0,0,0,0,0,0,0,-1,1350,1443,0,0
133,-419,0,0,0,0,0,0,0,0,0,-1,1357,1443,0,0
140,-419,0,0,0,0,0,0,0,0,0,-1,1364,1443,0,0
147,-419,0,0,0,0,0,0,0,0,0,-1,1371,1443,0,0
154,-419,0,0,0,0,0,0,0,0,0,-1,1378,1443,0,0
161,-419,0,0,0,0,0,0,0,0,0,-1,1385,1443,0,0
168,-419,0,0,0,0,0,0,0,0,0,-1,1392,1443,0,0
175,-419,0,0,0,0,0,0,0,0,0,-1,1399,1443,0,0
182,-419,0,0,0,0,0,0,0,0,0,-1,1406,1443,0,0
189,-419,0,0,0,0,0,0,0,0,0,-1,1413,1443,0,0
196,-419,0,0,0,0,0,0,0,0,0,-1,1420,1443,0,0
203,-419,0,0,0,0,0,0,0,0,0,-1,1427,1443,0,0
210,-419,0,0,0,0,0,0,0,0,0,-1,1434,1443,0,0
217,-419,0,0,0,0,0,0,0,0,0,-1,1441,1443,0,0
224,-419,0,0,0,0,0,0,0,0,0,-1,1448,1443,0,0
231,-419,0,0,0,0,0,0,0,0,0,-1,1455,1443,0,0
238,-419,0,0,0,0,0,0,0,0,0,-1,1462,1443,0,0
245,-419,0,0,0,0,0,0,0,0,0,-1,1469,1443,0,0
252,-419,0,0,0,0,0,0,0,0,0,-1,1476,1443,0,0
259,-419,0,0,0,0,0,0,0,0,0,-1,1483,1443,0,0
266,-419,0,0,0,0,0,0,0,0,0,-1,1490,1443,0,0
273,-419,0,0,0,0,0,0,0,0,0,-1,1497,1443,0,0
280,-419,0,0,0,0,0,0,0,0,0,-1,1504,1443,0,0
287,-419,0,0,0,0,0,0,0,0,0,-1,1511,1443,0,0
294,-419,0,0,0,0,0,0,0,0,0,-1,1518,1443,0,0
301,-419,0,0,0,0,0,0,0,0,0,-1,1525,1443,0,0
308,-419,0,0,0,0,0,0,0,0,0,-1,1532,1443,0,0
315,-419,0,0,0,0,0,0,0,0,0,-1,1539,1443,0,0
322,-419,0,0,0,0,0,0,0,0,0,-1,1546,1443,0,0
329,-419,0,0,0,0,0,0,0,0,0,-1,1553,1443,0,0
336,-419,0,0,0,0,0,0,0,0,0,-1,1560,1443,0,0
343,-419,0,0,0,0,0,0,0,0,0,-1,1567,1443,0,0
350,-419,0,0,0,0,0,0,0,0,0,-1,1574,1443,0,0
357,-419,0,0,0,0,0,0,0,0,0,-1,1581,1443,0,0
364,-419,0,0,0,0,0,0,0,0,0,-1,1588,1443,0,0
371,-419,0,0,0,0,0,0,0,0,0,-1,1595,1443,0,0
378,-419,0,0,0,0,0,0,0,0,0,-1,1602,1443,0,0
385,-419,0,0,0,0,0,0,0,0,0,-1,1609,1443,0,0
392,-419,0,0,0,0,0,0,0,0,0,-1,1616,1443,0,0
399,-419,0,0,0,0,0,0,0,0,0,-1,1623,1443,0,0
406,-419,0,0,0,0,0,0,0,0,0,-1,1630,1443,0,0
413,-419,0,0,0,0,0,0,0,0,0,-1,1637,1443,0,0
420,-419,0,0,0,0,0,0,0,0,0,-1,1644,1443,0,0
427,-419,0,0,0,0,0,0,0,0,0,-1,1651,1443,0,0
434,-419,0,0,0,0,0,0,0,0,0,-1,1658,1443,0,0
441,-419,0,0,0,0,0,0,0,0,0,-1,1665,1443,0,0
448,-419,0,0,0,0,0,0,0,0,0,-1,1672,1443,0,0
455,-419,0,0,0,0,0,0,0,0,0,-1,1679,1443,0,0
462,-419,0,0,0,0,0,0,0,0,0,-1,1686,1443,0,0
469,-419,0,0,0,0,0,0,0,0,0,-1,1693,1443,0,0
476,-419,0,0,0,0,0,0,0,0,0,-1,1700,1443,0,0
483,-419,0,0,0,0,0,0,0,0,0,-1,1707,1443,0,0
490,-419,0,0,0,0,0,0,0,0,0,-1,1714,1443,0,0
497,-419,0,0,0,0,0,0,0,0,0,-1,1721,1443,0,0
504,-419,0,0,0,0,0,0,0,0,0,-1,1728,1443,0,0
511,-419,20.3005,3.7959,0,0,0,0,0,0,0,-1,1735,1443,20.3005,-3.79584
518,-419,21.3154,2.03027,0,0,0,0,0,0,0,-1,1742,1443,21.3155,-2.03029
525,-419,28.3439,-1.24475,0,0,0,0,0,0,0,-1,1749,1443,28.3438,1.24471
532,-419,27.5902,-0.272583,0,0,0,0,0,0,0,-1,1756,1443,27.5902,0.272526
539,-419,26.5278,1.60583,0,0,0,0,0,0,0,-1,1763,1443,26.5279,-1.60579
546,-419,24.9509,2.77539,0,0,0,0,0,0,0,-1,1770,1443,24.9509,-2.77537
553,-419,24.118,3.75525,0,0,0,0,0,0,0,-1,1777,1443,24.1181,-3.75526
560,-419,11.8199,8.26343,0,0,0,0,0,0,0,-1,1784,1443,11.82,-8.26341
567,-419,21.5143,8.74719,0,0,0,0,0,0,0,-1,1791,1443,21.5143,-8.74722
574,-419,19.5886,6.46155,0,0,0,0,0,0,0,-1,1798,1443,19.5886,-6.46157
581,-419,20.7926,11.4265,0,0,0,0,0,0,0,-1,1805,1443,20.7926,-11.4265
588,-419,19.4242,12.5363,0,0,0,0,0,0,0,-1,1812,1443,19.4242,-12.5362
595,-419,18.4076,12.5076,0,0,0,0,0,0,0,-1,1819,1443,18.4076,-12.5076
602,-419,18.4263,12.0916,-0.00306019,0.00222638,0.000720849,0.00232291,-0.00315672,1.43768,0.00317585,0.0171374,1826,1443,18.4262,-12.0915
609,-419,18.391,11.749,-0.00187762,0.0017971,0.000248127,0.00181378,-0.00189429,1.50368,0.00214103,0.0108474,1833,1443,18.391,-11.749
616,-419,18.3727,11.4138,-0.00118112,0.00127636,0.000128007,0.00128301,-0.00118776,1.51889,0.00142686,0.0111431,1840,1443,18.3726,-11.4138
623,-419,18.3838,11.0492,-0.000579115,0.000710513,6.53197e-05,0.000713813,-0.000582415,1.52032,0.000749658,0.00940504,1847,1443,18.3838,-11.0492
630,-419,18.3876,10.6812,-8.41834e-05,0.000347001,6.37359e-05,0.000356225,-9.34072e-05,1.42707,0.000273979,0.0114353,1854,1443,18.3876,-10.6812
637,-419,18.3698,10.3433,0.000136502,1.24715e-05,0.000277139,0.000358479,-0.000209506,0.675327,0.000331665,0.0120243,1861,1443,18.3698,-10.3432
644,-419,18.3628,10.0115,0.000274116,-0.000290443,0.000548105,0.000608359,-0.000624687,0.547606,0.00071192,0.0110379,1868,1443,18.3628,-10.0115
651,-419,18.3385,9.677,0.000361685,-0.000527361,0.000860365,0.000885578,-0.00105125,0.546952,0.00111959,0.010683,1875,1443,18.3385,-9.67698
658,-419,18.3202,9.28259,0.000354876,-0.000705724,0.00125002,0.00118243,-0.00153328,0.584787,0.00157227,0.0119946,1882,1443,18.3202,-9.2826
665,-419,18.3358,8.93274,0.000226003,-0.000820244,0.00172605,0.00150646,-0.0021007,0.63826,0.002092,0.0190729,1889,1443,18.3358,-8.93276
672,-419,18.38,8.57263,3.70258e-05,-0.00102158,0.00235216,0.00191871,-0.00290326,0.674728,0.00280324,0.0264917,1896,1443,18.38,-8.57259
679,-419,18.3175,8.12659,0,0,0,0,0,0,0,-1,1903,1443,18.3175,-8.12655
686,-419,17.4127,8.03076,0,0,0,0,0,0,0,-1,1910,1443,17.4127,-8.03071
693,-419,8.76086,5.60535,0,0,0,0,0,0,0,-1,1917,1443,8.76091,-5.6054
700,-419,11.0498,4.85156,0,0,0,0,0,0,0,-1,1924,1443,11.0498,-4.85153
707,-419,9.5752,1.80042,0,0,0,0,0,0,0,-1,1931,1443,9.57523,-1.80037
714,-419,5.77576,-1.25061,0,0,0,0,0,0,0,-1,1938,1443,5.7757,1.25056
721,-419,0,0,0,0,0,0,0,0,0,-1,1945,1443,0,0
728,-419,0,0,0,0,0,0,0,0,0,-1,1952,1443,0,0
735,-419,0,0,0,0,0,0,0,0,0,-1,1959,1443,0,0
742,-419,0,0,0,0,0,0,0,0,0,-1,1966,1443,0,0
749,-419,0,0,0,0,0,0,0,0,0,-1,1973,1443,0,0
756,-419,0,0,0,0,0,0,0,0,0,-1,1980,1443,0,0
763,-419,0,0,0,0,0,0,0,0,0,-1,1987,1443,0,0
770,-419,0,0,0,0,0,0,0,0,0,-1,1994,1443,0,0
777,-419,0,0,0,0,0,0,0,0,0,-1,2001,1443,0,0
784,-419,0,0,0,0,0,0,0,0,0,-1,2008,1443,0,0
791,-419,0,0,0,0,0,0,0,0,0,-1,2015,1443,0,0
798,-419,0,0,0,0,0,0,0,0,0,-1,2022,1443,0,0
805,-419,0,0,0,0,0,0,0,0,0,-1,2029,1443,0,0
812,-419,0,0,0,0,0,0,0,0,0,-1,2036,1443,0,0
-700,-426,0,0,0,0,0,0,0,0,0,-1,524,1450,0,0
-693,-426,0,0,0,0,0,0,0,0,0,-1,531,1450,0,0
-686,-426,0,0,0,0,0,0,0,0,0,-1,538,1450,0,0
-679,-426,0,0,0,0,0,0,0,0,0,-1,545,1450,0,0
-672,-426,0,0,0,0,0,0,0,0,0,-1,552,1450,0,0
-665,-426,0,0,0,0,0,0,0,0,0,-1,559,1450,0,0
-658,-426,0,0,0,0,0,0,0,0,0,-1,566,1450,0,0
-651,-426,0,0,0,0,0,0,0,0,0,-1,573,1450,0,0
-644,-426,0,0,0,0,0,0,0,0,0,-1,580,1450,0,0
-637,-426,0,0,0,0,0,0,0,0,0,-1,587,1450,0,0
-630,-426,0,0,0,0,0,0,0,0,0,-1,594,1450,0,0
-623,-426,0,0,0,0,0,0,0,0,0,-1,601,1450,0,0
-616,-426,0,0,0,0,0,0,0,0,0,-1,608,1450,0,0
-609,-426,0,0,0,0,0,0,0,0,0,-1,615,1450,0,0
-602,-426,0,0,0,0,0,0,0,0,0,-1,622,1450,0,0
-595,-426,0,0,0,0,0,0,0,0,0,-1,629,1450,0,0
-588,-426,-10.184,-0.554321,0,0,0,0,0,0,0,-1,636,1450,-10.184,0.554321
-581,-426,-7.3349,1.48157,0,0,0,0,0,0,0,-1,643,1450,-7.33491,-1.48152
-574,-426,-5.02856,2.89319,0,0,0,0,0,0,0,-1,650,1450,-5.02858,-2.89319
-567,-426,-3.04797,1.72644,0,0,0,0,0,0,0,-1,657,1450,-3.04797,-1.72639
-560,-426,-5.55682,3.44397,0,0,0,0,0,0,0,-1,664,1450,-5.55684,-3.44399
-553,-426,-4.67017,6.66614,0,0,0,0,0,0,0,-1,671,1450,-4.67015,-6.66619
-546,-426,-5.88062,6.16626,0,0,0,0,0,0,0,-1,678,1450,-5.88063,-6.16632
-539,-426,-6.151,6.62573,-0.00886236,0.00719372,0.00128936,0.0072966,-0.00896524,1.49117,0.00940524,0.0470019,685,1450,-6.15103,-6.62569
-532,-426,-6.51196,6.96729,-0.00493578,0.00572269,0.00173663,0.0059985,-0.0052116,1.41329,0.00647747,0.0354346,692,1450,-6.51197,-6.96726
-525,-426,-6.59692,7.30688,-0.0020966,0.00459369,0.00202634,0.00515957,-0.00266248,1.29848,0.00459213,0.0167887,699,1450,-6.59695,-7.30687
-518,-426,-6.56451,7.72693,-0.000227274,0.00362755,0.00207392,0.0045314,-0.00113112,1.1598,0.00346016,0.0169591,706,1450,-6.56454,-7.72692
-511,-426,-6.58783,8.11804,0.000801201,0.00240005,0.00171542,0.00349317,-0.000291927,1.00345,0.00243194,0.0160754,713,1450,-6.58783,-8.11802
-504,-426,-6.62,8.48755,0.00148893,0.00116366,0.00111831,0.00245637,0.000196212,0.71319,0.00157625,0.0151685,720,1450,-6.62001,-8.48751
-497,-426,-6.6344,8.85486,0.00153402,-0.000445719,3.08173e-05,0.0015345,-0.000446199,0.0155613,0.00119971,0.0120066,727,1450,-6.63438,-8.85488
-490,-426,-6.65424,9.24463,0.00117558,-0.00279795,-0.00122064,0.00152059,-0.00314296,-0.275465,0.00274627,0.0115533,734,1450,-6.65423,-9.24461
-483,-426,-6.64508,9.63135,0.000410534,-0.00572511,-0.00299025,0.00162677,-0.00694134,-0.386297,0.00525444,0.0112748,741,1450,-6.6451,-9.63137
-476,-426,-6.63751,10.0208,-0.00047616,-0.0091683,-0.00501842,0.00181651,-0.011461,-0.428536,0.00831258,0.00916916,748,1450,-6.63752,-10.0207
-469,-426,-6.64813,10.4009,-0.00144265,-0.0134192,-0.00734008,0.002042,-0.0169038,-0.443238,0.0120079,0.00807904,755,1450,-6.64812,-10.4009
-462,-426,-6.51678,10.8833,-0.00252786,-0.0189876,-0.0102409,0.00238025,-0.0238958,-0.446923,0.0167803,0.0246952,762,1450,-6.51678,-10.8833
-455,-426,-6.36713,11.4208,0,0,0,0,0,0,0,-1,769,1450,-6.36715,-11.4208
-448,-426,-6.84344,10.3151,0,0,0,0,0,0,0,-1,776,1450,-6.84346,-10.315
-441,-426,-6.6189,9.86353,0,0,0,0,0,0,0,-1,783,1450,-6.61889,-9.86351
-434,-426,-8.6073,10.1146,0,0,0,0,0,0,0,-1,790,1450,-8.60727,-10.1146
-427,-426,-5.90222,8.90906,0,0,0,0,0,0,0,-1,797,1450,-5.9022,-8.90905
-420,-426,-5.33765,7.95044,0,0,0,0,0,0,0,-1,804,1450,-5.33766,-7.95041
-413,-426,-10.1148,5.0415,0,0,0,0,0,0,0,-1,811,1450,-10.1148,-5.04152
-406,-426,-11.4199,3.6438,0,0,0,0,0,0,0,-1,818,1450,-11.4198,-3.64382
-399,-426,-12.7595,2.29004,0,0,0,0,0,0,0,-1,825,1450,-12.7595,-2.29003
-392,-426,-12.4147,0.537354,0,0,0,0,0,0,0,-1,832,1450,-12.4147,-0.53731
-385,-426,0,0,0,0,0,0,0,0,0,-1,839,1450,0,0
-378,-426,0,0,0,0,0,0,0,0,0,-1,846,1450,0,0
-371,-426,0,0,0,0,0,0,0,0,0,-1,853,1450,0,0
-364,-426,0,0,0,0,0,0,0,0,0,-1,860,1450,0,0
-357,-426,0,0,0,0,0,0,0,0,0,-1,867,1450,0,0
-350,-426,0,0,0,0,0,0,0,0,0,-1,874,1450,0,0
-343,-426,0,0,0,0,0,0,0,0,0,-1,881,1450,0,0
-336,-426,0,0,0,0,0,0,0,0,0,-1,888,1450,0,0
-329,-426,0,0,0,0,0,0,0,0,0,-1,895,1450,0,0
-322,-426,0,0,0,0,0,0,0,0,0,-1,902,1450,0,0
-315,-426,0,0,0,0,0,0,0,0,0,-1,909,1450,0,0
-308,-426,0,0,0,0,0,0,0,0,0,-1,916,1450,0,0
-301,-426,0,0,0,0,0,0,0,0,0,-1,923,1450,0,0
-294,-426,0,0,0,0,0,0,0,0,0,-1,930,1450,0,0
-287,-426,0,0,0,0,0,0,0,0,0,-1,937,1450,0,0
-280,-426,0,0,0,0,0,0,0,0,0,-1,944,1450,0,0
-273,-426,0,0,0,0,0,0,0,0,0,-1,951,1450,0,0
-266,-426,0,0,0,0,0,0,0,0,0,-1,958,1450,0,0
-259,-426,0,0,0,0,0,0,0,0,0,-1,965,1450,0,0
-252,-426,0,0,0,0,0,0,0,0,0,-1,972,1450,0,0
-245,-426,0,0,0,0,0,0,0,0,0,-1,979,1450,0,0
-238,-426,0,0,0,0,0,0,0,0,0,-1,986,1450,0,0
-231,-426,0,0,0,0,0,0,0,0,0,-1,993,1450,0,0
-224,-426,0,0,0,0,0,0,0,0,0,-1,1000,1450,0,0
-217,-426,0,0,0,0,0,0,0,0,0,-1,1007,1450,0,0
-210,-426,0,0,0,0,0,0,0,0,0,-1,1014,1450,0,0
-203,-426,0,0,0,0,0,0,0,0,0,-1,1021,1450,0,0
-196,-426,0,0,0,0,0,0,0,0,0,-1,1028,1450,0,0
-189,-426,0,0,0,0,0,0,0,0,0,-1,1035,1450,0,0
-182,-426,0,0,0,0,0,0,0,0,0,-1,1042,1450,0,0
-175,-426,0,0,0,0,0,0,0,0,0,-1,1049,1450,0,0
-168,-426,0,0,0,0,0,0,0,0,0,-1,1056,1450,0,0
-161,-426,0,0,0,0,0,0,0,0,0,-1,1063,1450,0,0
-154,-426,0,0,0,0,0,0,0,0,0,-1,1070,1450,0,0
-147,-426,0,0,0,0,0,0,0,0,0,-1,1077,1450,0,0
-140,-426,0,0,0,0,0,0,0,0,0,-1,1084,1450,0,0
-133,-426,0,0,0,0,0,0,0,0,0,-1,1091,1450,0,0
-126,-426,0,0,0,0,0,0,0,0,0,-1,1098,1450,0,0
-119,-426,0,0,0,0,0,0,0,0,0,-1,1105,1450,0,0
-112,-426,0,0,0,0,0,0,0,0,0,-1,1112,1450,0,0
-105,-426,0,0,0,0,0,0,0,0,0,-1,1119,1450,0,0
-98,-426,0,0,0,0,0,0,0,0,0,-1,1126,1450,0,0
-91,-426,0,0,0,0,0,0,0,0,0,-1,1133,1450,0,0
-84,-426,0,0,0,0,0,0,0,0,0,-1,1140,1450,0,0
-77,-426,0,0,0,0,0,0,0,0,0,-1,1147,1450,0,0
-70,-426,0,0,0,0,0,0,0,0,0,-1,1154,1450,0,0
-63,-426,0,0,0,0,0,0,0,0,0,-1,1161,1450,0,0
-56,-426,0,0,0,0,0,0,0,0,0,-1,1168,1450,0,0
-49,-426,0,0,0,0,0,0,0,0,0,-1,1175,1450,0,0
-42,-426,0,0,0,0,0,0,0,0,0,-1,1182,1450,0,0
-35,-426,0,0,0,0,0,0,0,0,0,-1,1189,1450,0,0
-28,-426,0,0,0,0,0,0,0,0,0,-1,1196,1450,0,0
-21,-426,0,0,0,0,0,0,0,0,0,-1,1203,1450,0,0
-14,-426,0,0,0,0,0,0,0,0,0,-1,1210,1450,0,0
-7,-426,0,0,0,0,0,0,0,0,0,-1,1217,1450,0,0
0,-426,0,0,0,0,0,0,0,0,0,-1,1224,1450,0,0
7,-426,0,0,0,0,0,0,0,0,0,-1,1231,1450,0,0
14,-426,0,0,0,0,0,0,0,0,0,-1,1238,1450,0,0
21,-426,0,0,0,0,0,0,0,0,0,-1,1245,1450,0,0
28,-426,0,0,0,0,0,0,0,0,0,-1,1252,1450,0,0
35,-426,0,0,0,0,0,0,0,0,0,-1,1259,1450,0,0
42,-426,0,0,0,0,0,0,0,0,0,-1,1266,1450,0,0
49,-426,0,0,0,0,0,0,0,0,0,-1,1273,1450,0,0
56,-426,0,0,0,0,0,0,0,0,0,-1,1280,1450,0,0
63,-426,0,0,0,0,0,0,0,0,0,-1,1287,1450,0,0
70,-426,0,0,0,0,0,0,0,0,0,-1,1294,1450,0,0
77,-426,0,0,0,0,0,0,0,0,0,-1,1301,1450,0,0
84,-426,0,0,0,0,0,0,0,0,0,-1,1308,1450,0,0
91,-426,0,0,0,0,0,0,0,0,0,-1,1315,1450,0,0
98,-426,0,0,0,0,0,0,0,0,0,-1,1322,1450,0,0
105,-426,0,0,0,0,0,0,0,0,0,-1,1329,1450,0,0
112,-426,0,0,0,0,0,0,0,0,0,-1,1336,1450,0,0
119,-426,0,0,0,0,0,0,0,0,0,-1,1343,1450,0,0
126,-426,0,0,0,0,0,0,0,0,0,-1,1350,1450,0,0
133,-426,0,0,0,0,0,0,0,0,0,-1,1357,1450,0,0
140,-426,0,0,0,0,0,0,0,0,0,-1,1364,1450,0,0
147,-426,0,0,0,0,0,0,0,0,0,-1,1371,1450,0,0
154,-426,0,0,0,0,0,0,0,0,0,-1,1378,1450,0,0
161,-426,0,0,0,0,0,0,0,0,0,-1,1385,1450,0,0
168,-426,0,0,0,0,0,0,0,0,0,-1,1392,1450,0,0
175,-426,0,0,0,0,0,0,0,0,0,-1,1399,1450,0,0
182,-426,0,0,0,0,0,0,0,0,0,-1,1406,1450,0,0
189,-426,0,0,0,0,0,0,0,0,0,-1,1413,1450,0,0
196,-426,0,0,0,0,0,0,0,0,0,-1,1420,1450,0,0
203,-426,0,0,0,0,0,0,0,0,0,-1,1427,1450,0,0
210,-426,0,0,0,0,0,0,0,0,0,-1,1434,1450,0,0
217,-426,0,0,0,0,0,0,0,0,0,-1,1441,1450,0,0
224,-426,0,0,0,0,0,0,0,0,0,-1,1448,1450,0,0
231,-426,0,0,0,0,0,0,0,0,0,-1,1455,1450,0,0
238,-426,0,0,0,0,0,0,0,0,0,-1,1462,1450,0,0
245,-426,0,0,0,0,0,0,0,0,0,-1,1469,1450,0,0
252,-426,0,0,0,0,0,0,0,0,0,-1,1476,1450,0,0
259,-426,0,0,0,0,0,0,0,0,0,-1,1483,1450,0,0
266,-426,0,0,0,0,0,0,0,0,0,-1,1490,1450,0,0
273,-426,0,0,0,0,0,0,0,0,0,-1,1497,1450,0,0
280,-426,0,0,0,0,0,0,0,0,0,-1,1504,1450,0,0
287,-426,0,0,0,0,0,0,0,0,0,-1,1511,1450,0,0
294,-426,0,0,0,0,0,0,0,0,0,-1,1518,1450,0,0
301,-426,0,0,0,0,0,0,0,0,0,-1,1525,1450,0,0
308,-426,0,0,0,0,0,0,0,0,0,-1,1532,1450,0,0
315,-426,0,0,0,0,0,0,0,0,0,-1,1539,1450,0,0
322,-426,0,0,0,0,0,0,0,0,0,-1,1546,1450,0,0
329,-426,0,0,0,0,0,0,0,0,0,-1,1553,1450,0,0
336,-426,0,0,0,0,0,0,0,0,0,-1,1560,1450,0,0
343,-426,0,0,0,0,0,0,0,0,0,-1,1567,1450,0,0
350,-426,0,0,0,0,0,0,0,0,0,-1,1574,1450,0,0
357,-426,0,0,0,0,0,0,0,0,0,-1,1581,1450,0,0
364,-426,0,0,0,0,0,0,0,0,0,-1,1588,1450,0,0
371,-426,0,0,0,0,0,0,0,0,0,-1,1595,1450,0,0
378,-426,0,0,0,0,0,0,0,0,0,-1,1602,1450,0,0
385,-426,0,0,0,0,0,0,0,0,0,-1,1609,1450,0,0
392,-426,0,0,0,0,0,0,0,0,0,-1,1616,1450,0,0
399,-426,0,0,0,0,0,0,0,0,0,-1,1623,1450,0,0
406,-426,0,0,0,0,0,0,0,0,0,-1,1630,1450,0,0
413,-426,0,0,0,0,0,0,0,0,0,-1,1637,1450,0,0
420,-426,0,0,0,0,0,0,0,0,0,-1,1644,1450,0,0
427,-426,0,0,0,0,0,0,0,0,0,-1,1651,1450,0,0
434,-426,0,0,0,0,0,0,0,0,0,-1,1658,1450,0,0
441,-426,0,0,0,0,0,0,0,0,0,-1,1665,1450,0,0
448,-426,0,0,0,0,0,0,0,0,0,-1,1672,1450,0,0
455,-426,0,0,0,0,0,0,0,0,0,-1,1679,1450,0,0
462,-426,0,0,0,0,0,0,0,0,0,-1,1686,1450,0,0
469,-426,0,0,0,0,0,0,0,0,0,-1,1693,1450,0,0
476,-426,0,0,0,0,0,0,0,0,0,-1,1700,1450,0,0
483,-426,0,0,0,0,0,0,0,0,0,-1,1707,1450,0,0
490,-426,0,0,0,0,0,0,0,0,0,-1,1714,1450,0,0
497,-426,0,0,0,0,0,0,0,0,0,-1,1721,1450,0,0
504,-426,20.6873,3.38367,0,0,0,0,0,0,0,-1,1728,1450,20.6873,-3.38361
511,-426,19.6676,3.53748,0,0,0,0,0,0,0,-1,1735,1450,19.6676,-3.53749
518,-426,18.6853,3.32288,0,0,0,0,0,0,0,-1,1742,1450,18.6853,-3.3229
525,-426,18.9552,2.71033,0,0,0,0,0,0,0,-1,1749,1450,18.9552,-2.71034
532,-426,19.4333,2.70764,0,0,0,0,0,0,0,-1,1756,1450,19.4334,-2.70764
539,-426,25.1482,2.56287,0,0,0,0,0,0,0,-1,1763,1450,25.1482,-2.56286
546,-426,24.1136,3.75659,0,0,0,0,0,0,0,-1,1770,1450,24.1136,-3.7566
553,-426,23.0791,4.95032,0,0,0,0,0,0,0,-1,1777,1450,23.0791,-4.95034
560,-426,12.9688,11.8289,0,0,0,0,0,0,0,-1,1784,1450,12.9688,-11.8288
567,-426,13.6388,11.5623,0,0,0,0,0,0,0,-1,1791,1450,13.6388,-11.5623
574,-426,14.3943,11.0286,0,0,0,0,0,0,0,-1,1798,1450,14.3942,-11.0285
581,-426,16.3879,11.4653,0,0,0,0,0,0,0,-1,1805,1450,16.3879,-11.4653
588,-426,18.1212,12.5547,0,0,0,0,0,0,0,-1,1812,1450,18.1212,-12.5547
595,-426,17.9543,12.5017,0,0,0,0,0,0,0,-1,1819,1450,17.9544,-12.5017
602,-426,18.0164,12.1088,-0.00273869,0.00202063,0.000782773,0.00214607,-0.00286413,1.4119,0.00290252,0.0174617,1826,1450,18.0164,-12.1087
609,-426,18.0427,11.733,-0.00174581,0.00159955,0.000371563,0.00164032,-0.00178658,1.4615,0.00197913,0.0123698,1833,1450,18.0427,-11.7331
616,-426,18.0333,11.3937,-0.00113236,0.00110189,0.000279439,0.00113631,-0.00116678,1.44824,0.00132973,0.0143224,1840,1450,18.0333,-11.3936
623,-426,18.0396,11.0393,-0.00059281,0.000484681,0.000250528,0.000540083,-0.000648212,1.35316,0.000687009,0.0117698,1847,1450,18.0395,-11.0393
630,-426,18.0305,10.7172,-0.000127809,5.85729e-05,0.0002802,0.000260672,-0.000329909,0.945938,0.000341753,0.0120785,1854,1450,18.0305,-10.7172
637,-426,18.0344,10.3828,8.83775e-05,-0.000349606,0.000529009,0.000441931,-0.000703159,0.589154,0.000666828,0.0123737,1861,1450,18.0344,-10.3828
644,-426,18.0128,10.0309,0.000251553,-0.000722274,0.000826203,0.000723647,-0.00119437,0.519127,0.00111843,0.0118514,1868,1450,18.0128,-10.0309
651,-426,17.9843,9.68408,0.000378517,-0.00101073,0.00115547,0.00103208,-0.00166429,0.514762,0.00157095,0.0113772,1875,1450,17.9843,-9.68414
658,-426,17.9845,9.27747,0.000408307,-0.00123567,0.00158792,0.00137438,-0.00220174,0.546563,0.00208301,0.0114499,1882,1450,17.9845,-9.27741
665,-426,18.0322,8.86877,0.000333073,-0.00134937,0.00208397,0.00173921,-0.0027555,0.593569,0.00261704,0.0197176,1889,1450,18.0322,-8.86882
672,-426,18.1385,8.55884,0,0,0,0,0,0,0,-1,1896,1450,18.1385,-8.55885
679,-426,17.1522,8.15784,0,0,0,0,0,0,0,-1,1903,1450,17.1522,-8.15784
686,-426,13.5326,8.03711,0,0,0,0,0,0,0,-1,1910,1450,13.5326,-8.03717
693,-426,11.8607,6.45215,0,0,0,0,0,0,0,-1,1917,1450,11.8607,-6.45215
700,-426,9.24304,2.95447,0,0,0,0,0,0,0,-1,1924,1450,9.24305,-2.95442
707,-426,8.44519,-1.21448,0,0,0,0,0,0,0,-1,1931,1450,8.44514,1.21454
714,-426,0,0,0,0,0,0,0,0,0,-1,1938,1450,0,0
721,-426,0,0,0,0,0,0,0,0,0,-1,1945,1450,0,0
728,-426,0,0,0,0,0,0,0,0,0,-1,1952,1450,0,0
735,-426,0,0,0,0,0,0,0,0,0,-1,1959,1450,0,0
742,-426,0,0,0,0,0,0,0,0,0,-1,1966,1450,0,0
749,-426,0,0,0,0,0,0,0,0,0,-1,1973,1450,0,0
756,-426,0,0,0,0,0,0,0,0,0,-1,1980,1450,0,0
763,-426,0,0,0,0,0,0,0,0,0,-1,1987,1450,0,0
770,-426,0,0,0,0,0,0,0,0,0,-1,1994,1450,0,0
777,-426,0,0,0,0,0,0,0,0,0,-1,2001,1450,0,0
784,-426,0,0,0,0,0,0,0,0,0,-1,2008,1450,0,0
791,-426,0,0,0,0,0,0,0,0,0,-1,2015,1450,0,0
798,-426,0,0,0,0,0,0,0,0,0,-1,2022,1450,0,0
805,-426,0,0,0,0,0,0,0,0,0,-1,2029,1450,0,0
812,-426,0,0,0,0,0,0,0,0,0,-1,2036,1450,0,0
-700,-433,0,0,0,0,0,0,0,0,0,-1,524,1457,0,0
-693,-433,0,0,0,0,0,0,0,0,0,-1,531,1457,0,0
-686,-433,0,0,0,0,0,0,0,0,0,-1,538,1457,0,0
-679,-433,0,0,0,0,0,0,0,0,0,-1,545,1457,0,0
-672,-433,0,0,0,0,0,0,0,0,0,-1,552,1457,0,0
-665,-433,0,0,0,0,0,0,0,0,0,-1,559,1457,0,0
-658,-433,0,0,0,0,0,0,0,0,0,-1,566,1457,0,0
-651,-433,0,0,0,0,0,0,0,0,0,-1,573,1457,0,0
-644,-433,0,0,0,0,0,0,0,0,0,-1,580,1457,0,0
-637,-433,0,0,0,0,0,0,0,0,0,-1,587,1457,0,0
-630,-433,0,0,0,0,0,0,0,0,0,-1,594,1457,0,0
-623,-433,0,0,0,0,0,0,0,0,0,-1,601,1457,0,0
-616,-433,0,0,0,0,0,0,0,0,0,-1,608,1457,0,0
-609,-433,0,0,0,0,0,0,0,0,0,-1,615,1457,0,0
-602,-433,0,0,0,0,0,0,0,0,0,-1,622,1457,0,0
-595,-433,0,0,0,0,0,0,0,0,0,-1,629,1457,0,0
-588,-433,-10.3756,-0.467041,0,0,0,0,0,0,0,-1,636,1457,-10.3756,0.467081
-581,-433,-8.12201,0.884033,0,0,0,0,0,0,0,-1,643,1457,-8.12204,-0.884056
-574,-433,-5.86847,2.23523,0,0,0,0,0,0,0,-1,650,1457,-5.86844,-2.23519
-567,-433,-5.42255,1.16833,0,0,0,0,0,0,0,-1,657,1457,-5.42254,-1.1683
-560,-433,-6.84027,1.86414,0,0,0,0,0,0,0,-1,664,1457,-6.84026,-1.86412
-553,-433,-5.74017,1.79163,0,0,0,0,0,0,0,-1,671,1457,-5.74015,-1.79166
-546,-433,-5.62531,5.53894,0,0,0,0,0,0,0,-1,678,1457,-5.62531,-5.53891
-539,-433,-5.65155,6.67017,0,0,0,0,0,0,0,-1,685,1457,-5.65155,-6.67011
-532,-433,-6.01691,7.01843,-0.00113228,0.0088092,0.00476664,0.0107253,-0.00304842,1.18858,0.00835387,0.0432744,692,1457,-6.01689,-7.01843
-525,-433,-6.17981,7.3645,0.000824594,0.00707294,0.0043344,0.00929175,-0.00139422,1.09767,0.00670771,0.0293803,699,1457,-6.1798,-7.36454
-518,-433,-6.20697,7.73193,0.00191241,0.0056356,0.00380349,0.00800863,-0.000460624,1.01298,0.00549906,0.0162929,706,1457,-6.20697,-7.73195
-511,-433,-6.24078,8.11584,0.00227422,0.00416689,0.00304777,0.00641187,2.9244e-05,0.93593,0.00426486,0.01584,713,1457,-6.24077,-8.11579
-504,-433,-6.24799,8.4834,0.00238806,0.00264911,0.00211489,0.0046375,0.000399666,0.816217,0.00296743,0.0130258,720,1457,-6.24798,-8.48335
-497,-433,-6.24402,8.88281,0.00208084,0.000936169,0.000887126,0.00256423,0.000452778,0.498916,0.00158033,0.0130908,727,1457,-6.244,-8.88277
-490,-433,-6.26263,9.25439,0.00154123,-0.00134773,-0.000382043,0.0015909,-0.00139739,-0.129282,0.0017265,0.0143177,734,1457,-6.26261,-9.2544
-483,-433,-6.25043,9.64709,0.000791001,-0.00405681,-0.00201518,0.00151928,-0.00478508,-0.346791,0.00379913,0.0150779,741,1457,-6.25045,-9.6471
-476,-433,-6.24792,10.0507,8.68394e-05,-0.00711178,-0.00373721,0.00167615,-0.00870109,-0.402096,0.00643265,0.0104442,748,1457,-6.24795,-10.0506
-469,-433,-6.26563,10.4163,-0.000681726,-0.0107456,-0.00563628,0.001842,-0.0132693,-0.420993,0.00951981,0.0100949,755,1457,-6.26565,-10.4162
-462,-433,-6.29352,10.7817,-0.00139046,-0.0152843,-0.00781858,0.00212158,-0.0187964,-0.422182,0.0132946,0.0109637,762,1457,-6.29349,-10.7818
-455,-433,-6.07867,11.3408,-0.00248253,-0.0211843,-0.0105525,0.00226602,-0.0259328,-0.422848,0.0180913,0.038487,769,1457,-6.07864,-11.3408
-448,-433,-6.19818,10.9983,-0.00417147,-0.0287562,-0.0139152,0.00210316,-0.0350309,-0.42362,0.0240856,0.0469682,776,1457,-6.19818,-10.9983
-441,-433,-5.95673,10.7313,-0.00651628,-0.0384293,-0.018114,0.00166692,-0.0466125,-0.424319,0.0316453,0.0493023,783,1457,-5.95671,-10.7313
-434,-433,-5.62286,10.582,0,0,0,0,0,0,0,-1,790,1457,-5.62284,-10.582
-427,-433,-7.43207,11.0886,0,0,0,0,0,0,0,-1,797,1457,-7.43208,-11.0886
-420,-433,-5.74658,9.49121,0,0,0,0,0,0,0,-1,804,1457,-5.7466,-9.49119
-413,-433,-3.63074,5.5813,0,0,0,0,0,0,0,-1,811,1457,-3.63072,-5.58129
-406,-433,-12.3472,4.69373,0,0,0,0,0,0,0,-1,818,1457,-12.3472,-4.69374
-399,-433,-12.055,2.83594,0,0,0,0,0,0,0,-1,825,1457,-12.055,-2.83594
-392,-433,-12.9772,1.6228,0,0,0,0,0,0,0,-1,832,1457,-12.9772,-1.62282
-385,-433,-13.7999,0.514771,0,0,0,0,0,0,0,-1,839,1457,-13.7999,-0.514788
-378,-433,0,0,0,0,0,0,0,0,0,-1,846,1457,0,0
-371,-433,0,0,0,0,0,0,0,0,0,-1,853,1457,0,0
-364,-433,0,0,0,0,0,0,0,0,0,-1,860,1457,0,0
-357,-433,0,0,0,0,0,0,0,0,0,-1,867,1457,0,0
-350,-433,0,0,0,0,0,0,0,0,0,-1,874,1457,0,0
-343,-433,0,0,0,0,0,0,0,0,0,-1,881,1457,0,0
-336,-433,0,0,0,0,0,0,0,0,0,-1,888,1457,0,0
-329,-433,0,0,0,0,0,0,0,0,0,-1,895,1457,0,0
-322,-433,0,0,0,0,0,0,0,0,0,-1,902,1457,0,0
-315,-433,0,0,0,0,0,0,0,0,0,-1,909,1457,0,0
-308,-433,0,0,0,0,0,0,0,0,0,-1,916,1457,0,0
-301,-433,0,0,0,0,0,0,0,0,0,-1,923,1457,0,0
-294,-433,0,0,0,0,0,0,0,0,0,-1,930,1457,0,0
-287,-433,0,0,0,0,0,0,0,0,0,-1,937,1457,0,0
-280,-433,0,0,0,0,0,0,0,0,0,-1,944,1457,0,0
-273,-433,0,0,0,0,0,0,0,0,0,-1,951,1457,0,0
-266,-433,0,0,0,0,0,0,0,0,0,-1,958,1457,0,0
-259,-433,0,0,0,0,0,0,0,0,0,-1,965,1457,0,0
-252,-433,0,0,0,0,0,0,0,0,0,-1,972,1457,0,0
-245,-433,0,0,0,0,0,0,0,0,0,-1,979,1457,0,0
-238,-433,0,0,0,0,0,0,0,0,0,-1,986,1457,0,0
-231,-433,0,0,0,0,0,0,0,0,0,-1,993,1457,0,0
-224,-433,0,0,0,0,0,0,0,0,0,-1,1000,1457,0,0
-217,-433,0,0,0,0,0,0,0,0,0,-1,1007,1457,0,0
-210,-433,0,0,0,0,0,0,0,0,0,-1,1014,1457,0,0
-203,-433,0,0,0,0,0,0,0,0,0,-1,1021,1457,0,0
-196,-433,0,0,0,0,0,0,0,0,0,-1,1028,1457,0,0
-189,-433,0,0,0,0,0,0,0,0,0,-1,1035,1457,0,0
-182,-433,0,0,0,0,0,0,0,0,0,-1,1042,1457,0,0
-175,-433,0,0,0,0,0,0,0,0,0,-1,1049,1457,0,0
-168,-433,0,0,0,0,0,0,0,0,0,-1,1056,1457,0,0
-161,-433,0,0,0,0,0,0,0,0,0,-1,1063,1457,0,0
-154,-433,0,0,0,0,0,0,0,0,0,-1,1070,1457,0,0
-147,-433,0,0,0,0,0,0,0,0,0,-1,1077,1457,0,0
-140,-433,0,0,0,0,0,0,0,0,0,-1,1084,1457,0,0
-133,-433,0,0,0,0,0,0,0,0,0,-1,1091,1457,0,0
-126,-433,0,0,0,0,0,0,0,0,0,-1,1098,1457,0,0
-119,-433,0,0,0,0,0,0,0,0,0,-1,1105,1457,0,0
-112,-433,0,0,0,0,0,0,0,0,0,-1,1112,1457,0,0
-105,-433,0,0,0,0,0,0,0,0,0,-1,1119,1457,0,0
-98,-433,0,0,0,0,0,0,0,0,0,-1,1126,1457,0,0
-91,-433,0,0,0,0,0,0,0,0,0,-1,1133,1457,0,0
-84,-433,0,0,0,0,0,0,0,0,0,-1,1140,1457,0,0
-77,-433,0,0,0,0,0,0,0,0,0,-1,1147,1457,0,0
-70,-433,0,0,0,0,0,0,0,0,0,-1,1154,1457,0,0
-63,-433,0,0,0,0,0,0,0,0,0,-1,1161,1457,0,0
-56,-433,0,0,0,0,0,0,0,0,0,-1,1168,1457,0,0
-49,-433,0,0,0,0,0,0,0,0,0,-1,1175,1457,0,0
-42,-433,0,0,0,0,0,0,0,0,0,-1,1182,1457,0,0
-35,-433,0,0,0,0,0,0,0,0,0,-1,1189,1457,0,0
-28,-433,0,0,0,0,0,0,0,0,0,-1,1196,1457,0,0
-21,-433,0,0,0,0,0,0,0,0,0,-1,1203,1457,0,0
-14,-433,0,0,0,0,0,0,0,0,0,-1,1210,1457,0,0
-7,-433,0,0,0,0,0,0,0,0,0,-1,1217,1457,0,0
0,-433,0,0,0,0,0,0,0,0,0,-1,1224,1457,0,0
7,-433,0,0,0,0,0,0,0,0,0,-1,1231,1457,0,0
14,-433,0,0,0,0,0,0,0,0,0,-1,1238,1457,0,0
21,-433,0,0,0,0,0,0,0,0,0,-1,1245,1457,0,0
28,-433,0,0,0,0,0,0,0,0,0,-1,1252,1457,0,0
35,-433,0,0,0,0,0,0,0,0,0,-1,1259,1457,0,0
42,-433,0,0,0,0,0,0,0,0,0,-1,1266,1457,0,0
49,-433,0,0,0,0,0,0,0,0,0,-1,1273,1457,0,0
56,-433,0,0,0,0,0,0,0,0,0,-1,1280,1457,0,0
63,-433,0,0,0,0,0,0,0,0,0,-1,1287,1457,0,0
70,-433,0,0,0,0,0,0,0,0,0,-1,1294,1457,0,0
77,-433,0,0,0,0,0,0,0,0,0,-1,1301,1457,0,0
84,-433,0,0,0,0,0,0,0,0,0,-1,1308,1457,0,0
91,-433,0,0,0,0,0,0,0,0,0,-1,1315,1457,0,0
98,-433,0,0,0,0,0,0,0,0,0,-1,1322,1457,0,0
105,-433,0,0,0,0,0,0,0,0,0,-1,1329,1457,0,0
112,-433,0,0,0,0,0,0,0,0,0,-1,1336,1457,0,0
119,-433,0,0,0,0,0,0,0,0,0,-1,1343,1457,0,0
126,-433,0,0,0,0,0,0,0,0,0,-1,1350,1457,0,0
133,-433,0,0,0,0,0,0,0,0,0,-1,1357,1457,0,0
140,-433,0,0,0,0,0,0,0,0,0,-1,1364,1457,0,0
147,-433,0,0,0,0,0,0,0,0,0,-1,1371,1457,0,0
154,-433,0,0,0,0,0,0,0,0,0,-1,1378,1457,0,0
161,-433,0,0,0,0,0,0,0,0,0,-1,1385,1457,0,0
168,-433,0,0,0,0,0,0,0,0,0,-1,1392,1457,0,0
175,-433,0,0,0,0,0,0,0,0,0,-1,1399,1457,0,0
182,-433,0,0,0,0,0,0,0,0,0,-1,1406,1457,0,0
189,-433,0,0,0,0,0,0,0,0,0,-1,1413,1457,0,0
196,-433,0,0,0,0,0,0,0,0,0,-1,1420,1457,0,0
203,-433,0,0,0,0,0,0,0,0,0,-1,1427,1457,0,0
210,-433,0,0,0,0,0,0,0,0,0,-1,1434,1457,0,0
217,-433,0,0,0,0,0,0,0,0,0,-1,1441,1457,0,0
224,-433,0,0,0,0,0,0,0,0,0,-1,1448,1457,0,0
231,-433,0,0,0,0,0,0,0,0,0,-1,1455,1457,0,0
238,-433,0,0,0,0,0,0,0,0,0,-1,1462,1457,0,0
245,-433,0,0,0,0,0,0,0,0,0,-1,1469,1457,0,0
252,-433,0,0,0,0,0,0,0,0,0,-1,1476,1457,0,0
259,-433,0,0,0,0,0,0,0,0,0,-1,1483,1457,0,0
266,-433,0,0,0,0,0,0,0,0,0,-1,1490,1457,0,0
273,-433,0,0,0,0,0,0,0,0,0,-1,1497,1457,0,0
280,-433,0,0,0,0,0,0,0,0,0,-1,1504,1457,0,0
287,-433,0,0,0,0,0,0,0,0,0,-1,1511,1457,0,0
294,-433,0,0,0,0,0,0,0,0,0,-1,1518,1457,0,0
301,-433,0,0,0,0,0,0,0,0,0,-1,1525,1457,0,0
308,-433,0,0,0,0,0,0,0,0,0,-1,1532,1457,0,0
315,-433,0,0,0,0,0,0,0,0,0,-1,1539,1457,0,0
322,-433,0,0,0,0,0,0,0,0,0,-1,1546,1457,0,0
329,-433,0,0,0,0,0,0,0,0,0,-1,1553,1457,0,0
336,-433,0,0,0,0,0,0,0,0,0,-1,1560,1457,0,0
343,-433,0,0,0,0,0,0,0,0,0,-1,1567,1457,0,0
350,-433,0,0,0,0,0,0,0,0,0,-1,1574,1457,0,0
357,-433,0,0,0,0,0,0,0,0,0,-1,1581,1457,0,0
364,-433,0,0,0,0,0,0,0,0,0,-1,1588,1457,0,0
371,-433,0,0,0,0,0,0,0,0,0,-1,1595,1457,0,0
378,-433,0,0,0,0,0,0,0,0,0,-1,1602,1457,0,0
385,-433,0,0,0,0,0,0,0,0,0,-1,1609,1457,0,0
392,-433,0,0,0,0,0,0,0,0,0,-1,1616,1457,0,0
399,-433,0,0,0,0,0,0,0,0,0,-1,1623,1457,0,0
406,-433,0,0,0,0,0,0,0,0,0,-1,1630,1457,0,0
413,-433,0,0,0,0,0,0,0,0,0,-1,1637,1457,0,0
420,-433,0,0,0,0,0,0,0,0,0,-1,1644,1457,0,0
427,-433,0,0,0,0,0,0,0,0,0,-1,1651,1457,0,0
434,-433,0,0,0,0,0,0,0,0,0,-1,1658,1457,0,0
441,-433,0,0,0,0,0,0,0,0,0,-1,1665,1457,0,0
448,-433,0,0,0,0,0,0,0,0,0,-1,1672,1457,0,0
455,-433,0,0,0,0,0,0,0,0,0,-1,1679,1457,0,0
462,-433,0,0,0,0,0,0,0,0,0,-1,1686,1457,0,0
469,-433,0,0,0,0,0,0,0,0,0,-1,1693,1457,0,0
476,-433,0,0,0,0,0,0,0,0,0,-1,1700,1457,0,0
483,-433,0,0,0,0,0,0,0,0,0,-1,1707,1457,0,0
490,-433,0,0,0,0,0,0,0,0,0,-1,1714,1457,0,0
497,-433,0,0,0,0,0,0,0,0,0,-1,1721,1457,0,0
504,-433,19.9058,3.03662,0,0,0,0,0,0,0,-1,1728,1457,19.9058,-3.03656
511,-433,19.0145,3.07837,0,0,0,0,0,0,0,-1,1735,1457,19.0146,-3.07834
518,-433,18.071,3.06433,0,0,0,0,0,0,0,-1,1742,1457,18.071,-3.06432
525,-433,17.2048,3.37085,0,0,0,0,0,0,0,-1,1749,1457,17.2049,-3.37083
532,-433,16.5637,3.36646,0,0,0,0,0,0,0,-1,1756,1457,16.5637,-3.36643
539,-433,15.9193,3.30396,0,0,0,0,0,0,0,-1,1763,1457,15.9193,-3.30394
546,-433,23.1903,4.81775,0,0,0,0,0,0,0,-1,1770,1457,23.1903,-4.81775
553,-433,13.9674,11.5781,0,0,0,0,0,0,0,-1,1777,1457,13.9674,-11.5781
560,-433,13.9855,11.7341,0,0,0,0,0,0,0,-1,1784,1457,13.9855,-11.7341
567,-433,13.9264,11.3364,0,0,0,0,0,0,0,-1,1791,1457,13.9263,-11.3364
574,-433,15.5305,12.3673,0,0,0,0,0,0,0,-1,1798,1457,15.5305,-12.3673
581,-433,16.6405,12.1898,0,0,0,0,0,0,0,-1,1805,1457,16.6405,-12.1898
588,-433,17.7136,13.0659,0,0,0,0,0,0,0,-1,1812,1457,17.7137,-13.066
595,-433,17.6866,12.5234,-0.00344802,0.00202106,0.00125312,0.00229452,-0.00372147,1.35595,0.00350575,0.0285046,1819,1457,17.6867,-12.5235
602,-433,17.6884,12.1199,-0.002251,0.00179691,0.000650534,0.00189888,-0.00235297,1.4153,0.00245947,0.0212776,1826,1457,17.6883,-12.1199
609,-433,17.7025,11.7322,-0.00137209,0.00134869,0.000366634,0.00139723,-0.00142063,1.43917,0.00162691,0.0166429,1833,1457,17.7025,-11.7322
616,-433,17.7031,11.3986,-0.000789174,0.000835278,0.000357514,0.000910479,-0.000864375,1.36347,0.00102483,0.0139947,1840,1457,17.7032,-11.3985
623,-433,17.6729,11.0491,-0.000257165,0.00014985,0.000412857,0.000406632,-0.000513947,1.01438,0.000532699,0.0108593,1847,1457,17.6729,-11.0491
630,-433,17.6638,10.7178,0.000213049,-0.000372584,0.000533486,0.000528795,-0.00068833,0.534409,0.000704717,0.0136166,1854,1457,17.6638,-10.7178
637,-433,17.6647,10.3761,0.00044837,-0.000892766,0.000864881,0.000872188,-0.00131658,0.45564,0.00127234,0.0144629,1861,1457,17.6647,-10.3761
644,-433,17.665,10.0571,0.000648951,-0.00137393,0.0012338,0.0012329,-0.00195788,0.442056,0.00185799,0.0146496,1868,1457,17.665,-10.0571
651,-433,17.6564,9.68958,0.000834151,-0.00175157,0.00161317,0.00160861,-0.00252603,0.447588,0.00240664,0.0114053,1875,1457,17.6564,-9.68956
658,-433,17.6302,9.26782,0.000914859,-0.00207068,0.00211702,0.00201248,-0.0031683,0.478318,0.00301584,0.0177934,1882,1457,17.6302,-9.2678
665,-433,17.7809,8.79272,0,0,0,0,0,0,0,-1,1889,1457,17.7809,-8.79277
672,-433,17.4844,9.44519,0,0,0,0,0,0,0,-1,1896,1457,17.4843,-9.44521
679,-433,17.2969,9.6355,0,0,0,0,0,0,0,-1,1903,1457,17.2968,-9.63548
686,-433,13.6356,8.61694,0,0,0,0,0,0,0,-1,1910,1457,13.6356,-8.61694
693,-433,13.4081,8.39624,0,0,0,0,0,0,0,-1,1917,1457,13.4081,-8.39624
700,-433,7.16809,-1.5166,0,0,0,0,0,0,0,-1,1924,1457,7.16806,1.51656
707,-433,8.68359,-2.82202,0,0,0,0,0,0,0,-1,1931,1457,8.68359,2.82197
714,-433,0,0,0,0,0,0,0,0,0,-1,1938,1457,0,0
721,-433,0,0,0,0,0,0,0,0,0,-1,1945,1457,0,0
728,-433,0,0,0,0,0,0,0,0,0,-1,1952,1457,0,0
735,-433,0,0,0,0,0,0,0,0,0,-1,1959,1457,0,0
742,-433,0,0,0,0,0,0,0,0,0,-1,1966,1457,0,0
749,-433,0,0,0,0,0,0,0,0,0,-1,1973,1457,0,0
756,-433,0,0,0,0,0,0,0,0,0,-1,1980,1457,0,0
763,-433,0,0,0,0,0,0,0,0,0,-1,1987,1457,0,0
770,-433,0,0,0,0,0,0,0,0,0,-1,1994,1457,0,0
777,-433,0,0,0,0,0,0,0,0,0,-1,2001,1457,0,0
784,-433,0,0,0,0,0,0,0,0,0,-1,2008,1457,0,0
791,-433,0,0,0,0,0,0,0,0,0,-1,2015,1457,0,0
798,-433,0,0,0,0,0,0,0,0,0,-1,2022,1457,0,0
805,-433,0,0,0,0,0,0,0,0,0,-1,2029,1457,0,0
812,-433,0,0,0,0,0,0,0,0,0,-1,2036,1457,0,0
-700,-440,0,0,0,0,0,0,0,0,0,-1,524,1464,0,0
-693,-440,0,0,0,0,0,0,0,0,0,-1,531,1464,0,0
-686,-440,0,0,0,0,0,0,0,0,0,-1,538,1464,0,0
-679,-440,0,0,0,0,0,0,0,0,0,-1,545,1464,0,0
-672,-440,0,0,0,0,0,0,0,0,0,-1,552,1464,0,0
-665,-440,0,0,0,0,0,0,0,0,0,-1,559,1464,0,0
-658,-440,0,0,0,0,0,0,0,0,0,-1,566,1464,0,0
-651,-440,0,0,0,0,0,0,0,0,0,-1,573,1464,0,0
-644,-440,0,0,0,0,0,0,0,0,0,-1,580,1464,0,0
-637,-440,0,0,0,0,0,0,0,0,0,-1,587,1464,0,0
-630,-440,0,0,0,0,0,0,0,0,0,-1,594,1464,0,0
-623,-440,0,0,0,0,0,0,0,0,0,-1,601,1464,0,0
-616,-440,0,0,0,0,0,0,0,0,0,-1,608,1464,0,0
-609,-440,0,0,0,0,0,0,0,0,0,-1,615,1464,0,0
-602,-440,0,0,0,0,0,0,0,0,0,-1,622,1464,0,0
-595,-440,0,0,0,0,0,0,0,0,0,-1,629,1464,0,0
-588,-440,0,0,0,0,0,0,0,0,0,-1,636,1464,0,0
-581,-440,-8.97278,0.254517,0,0,0,0,0,0,0,-1,643,1464,-8.97276,-0.254526
-574,-440,-7.00818,-0.918579,0,0,0,0,0,0,0,-1,650,1464,-7.00817,0.918538
-567,-440,-6.12152,-0.0766602,0,0,0,0,0,0,0,-1,657,1464,-6.12151,0.0767097
-560,-440,-5.46747,0.82251,0,0,0,0,0,0,0,-1,664,1464,-5.46748,-0.822551
-553,-440,-6.84729,0.0831299,0,0,0,0,0,0,0,-1,671,1464,-6.84732,-0.083136
-546,-440,-5.63446,-0.153198,0,0,0,0,0,0,0,-1,678,1464,-5.63447,0.153147
-539,-440,-5.65771,6.15527,0,0,0,0,0,0,0,-1,685,1464,-5.65769,-6.15525
-532,-440,-5.68329,6.84326,0.00485203,0.0220093,0.0126292,0.0286979,-0.0018366,1.08374,0.0197726,0.0481027,692,1464,-5.68331,-6.84323
-525,-440,-5.83643,7.38086,0.0052869,0.0169072,0.0101768,0.0228156,-0.00062155,1.04478,0.0154218,0.0325415,699,1464,-5.83644,-7.38083
-518,-440,-5.85822,7.69751,0.0051334,0.0128227,0.00805254,0.0179013,5.47813e-05,1.00812,0.011916,0.0168526,706,1464,-5.8582,-7.69753
-511,-440,-5.84375,8.11108,0.00449889,0.00943694,0.0061245,0.0135714,0.000364469,0.977003,0.00892857,0.014698,713,1464,-5.84377,-8.11108
-504,-440,-5.86078,8.50708,0.00385602,0.00642778,0.00431666,0.00964601,0.000637786,0.930157,0.00622897,0.0180111,720,1464,-5.86078,-8.50708
-497,-440,-5.87524,8.91382,0.00307389,0.00370556,0.00254443,0.00595369,0.000825764,0.847146,0.00372451,0.0207501,727,1464,-5.87523,-8.91378
-490,-440,-5.86908,9.24023,0.00227286,0.000856556,0.000950672,0.00275014,0.000379273,0.465285,0.00172099,0.0216453,734,1464,-5.86908,-9.24018
-483,-440,-5.86157,9.62158,0.00145666,-0.00207562,-0.000779474,0.00162102,-0.00223998,-0.207815,0.00223868,0.0196455,741,1464,-5.86156,-9.62157
-476,-440,-5.87439,10.0104,0.00083241,-0.00508828,-0.00240801,0.0016881,-0.00594397,-0.341436,0.00462911,0.0128578,748,1464,-5.87437,-10.0104
-469,-440,-5.90424,10.3973,0.000178375,-0.00828747,-0.00406562,0.0018146,-0.0099237,-0.38262,0.00729628,0.0123466,755,1464,-5.90422,-10.3974
-462,-440,-5.94519,10.7789,-0.000217437,-0.0119745,-0.00572787,0.00211168,-0.0143037,-0.386208,0.010312,0.0147809,762,1464,-5.94517,-10.7789
-455,-440,-5.80707,11.2274,-0.000731564,-0.0164242,-0.00766633,0.00239195,-0.0195477,-0.386898,0.0138979,0.0242669,769,1464,-5.80707,-11.2274
-448,-440,-5.51514,11.5881,-0.00154731,-0.0221659,-0.0100013,0.00250679,-0.02622,-0.385117,0.0183727,0.0486327,776,1464,-5.51511,-11.5882
-441,-440,-5.98462,11.3757,-0.0027102,-0.0294281,-0.0128483,0.00246568,-0.034604,-0.382958,0.0239336,0.0476046,783,1464,-5.9846,-11.3758
-434,-440,-6.31573,11.4772,-0.00438433,-0.0383315,-0.0162662,0.00215146,-0.0448673,-0.382059,0.0306539,0.0486278,790,1464,-6.31573,-11.4771
-427,-440,-6.33789,11.5835,0,0,0,0,0,0,0,-1,797,1464,-6.33787,-11.5835
-420,-440,-3.84052,9.66321,0,0,0,0,0,0,0,-1,804,1464,-3.84054,-9.66322
-413,-440,-3.46796,5.72278,0,0,0,0,0,0,0,-1,811,1464,-3.46797,-5.72276
-406,-440,-5.2887,5.20264,0,0,0,0,0,0,0,-1,818,1464,-5.2887,-5.20261
-399,-440,-12.7318,3.94421,0,0,0,0,0,0,0,-1,825,1464,-12.7318,-3.94419
-392,-440,-13.5565,2.51855,0,0,0,0,0,0,0,-1,832,1464,-13.5565,-2.51861
-385,-440,-14.6741,1.39795,0,0,0,0,0,0,0,-1,839,1464,-14.6741,-1.39801
-378,-440,-15.8063,0.293457,0,0,0,0,0,0,0,-1,846,1464,-15.8063,-0.293412
-371,-440,0,0,0,0,0,0,0,0,0,-1,853,1464,0,0
-364,-440,0,0,0,0,0,0,0,0,0,-1,860,1464,0,0
-357,-440,0,0,0,0,0,0,0,0,0,-1,867,1464,0,0
-350,-440,0,0,0,0,0,0,0,0,0,-1,874,1464,0,0
-343,-440,0,0,0,0,0,0,0,0,0,-1,881,1464,0,0
-336,-440,0,0,0,0,0,0,0,0,0,-1,888,1464,0,0
-329,-440,0,0,0,0,0,0,0,0,0,-1,895,1464,0,0
-322,-440,0,0,0,0,0,0,0,0,0,-1,902,1464,0,0
-315,-440,0,0,0,0,0,0,0,0,0,-1,909,1464,0,0
-308,-440,0,0,0,0,0,0,0,0,0,-1,916,1464,0,0
-301,-440,0,0,0,0,0,0,0,0,0,-1,923,1464,0,0
-294,-440,0,0,0,0,0,0,0,0,0,-1,930,1464,0,0
-287,-440,0,0,0,0,0,0,0,0,0,-1,937,1464,0,0
-280,-440,0,0,0,0,0,0,0,0,0,-1,944,1464,0,0
-273,-440,0,0,0,0,0,0,0,0,0,-1,951,1464,0,0
-266,-440,0,0,0,0,0,0,0,0,0,-1,958,1464,0,0
-259,-440,0,0,0,0,0,0,0,0,0,-1,965,1464,0,0
-252,-440,0,0,0,0,0,0,0,0,0,-1,972,1464,0,0
-245,-440,0,0,0,0,0,0,0,0,0,-1,979,1464,0,0
-238,-440,0,0,0,0,0,0,0,0,0,-1,986,1464,0,0
-231,-440,0,0,0,0,0,0,0,0,0,-1,993,1464,0,0
-224,-440,0,0,0,0,0,0,0,0,0,-1,1000,1464,0,0
-217,-440,0,0,0,0,0,0,0,0,0,-1,1007,1464,0,0
-210,-440,0,0,0,0,0,0,0,0,0,-1,1014,1464,0,0
-203,-440,0,0,0,0,0,0,0,0,0,-1,1021,1464,0,0
-196,-440,0,0,0,0,0,0,0,0,0,-1,1028,1464,0,0
-189,-440,0,0,0,0,0,0,0,0,0,-1,1035,1464,0,0
-182,-440,0,0,0,0,0,0,0,0,0,-1,1042,1464,0,0
-175,-440,0,0,0,0,0,0,0,0,0,-1,1049,1464,0,0
-168,-440,0,0,0,0,0,0,0,0,0,-1,1056,1464,0,0
-161,-440,0,0,0,0,0,0,0,0,0,-1,1063,1464,0,0
-154,-440,0,0,0,0,0,0,0,0,0,-1,1070,1464,0,0
-147,-440,0,0,0,0,0,0,0,0,0,-1,1077,1464,0,0
-140,-440,0,0,0,0,0,0,0,0,0,-1,1084,1464,0,0
-133,-440,0,0,0,0,0,0,0,0,0,-1,1091,1464,0,0
-126,-440,0,0,0,0,0,0,0,0,0,-1,1098,1464,0,0
-119,-440,0,0,0,0,0,0,0,0,0,-1,1105,1464,0,0
-112,-440,0,0,0,0,0,0,0,0,0,-1,1112,1464,0,0
-105,-440,0,0,0,0,0,0,0,0,0,-1,1119,1464,0,0
-98,-440,0,0,0,0,0,0,0,0,0,-1,1126,1464,0,0
-91,-440,0,0,0,0,0,0,0,0,0,-1,1133,1464,0,0
-84,-440,0,0,0,0,0,0,0,0,0,-1,1140,1464,0,0
-77,-440,0,0,0,0,0,0,0,0,0,-1,1147,1464,0,0
-70,-440,0,0,0,0,0,0,0,0,0,-1,1154,1464,0,0
-63,-440,0,0,0,0,0,0,0,0,0,-1,1161,1464,0,0
-56,-440,0,0,0,0,0,0,0,0,0,-1,1168,1464,0,0
-49,-440,0,0,0,0,0,0,0,0,0,-1,1175,1464,0,0
-42,-440,0,0,0,0,0,0,0,0,0,-1,1182,1464,0,0
-35,-440,0,0,0,0,0,0,0,0,0,-1,1189,1464,0,0
-28,-440,0,0,0,0,0,0,0,0,0,-1,1196,1464,0,0
-21,-440,0,0,0,0,0,0,0,0,0,-1,1203,1464,0,0
-14,-440,0,0,0,0,0,0,0,0,0,-1,1210,1464,0,0
-7,-440,0,0,0,0,0,0,0,0,0,-1,1217,1464,0,0
0,-440,0,0,0,0,0,0,0,0,0,-1,1224,1464,0,0
7,-440,0,0,0,0,0,0,0,0,0,-1,1231,1464,0,0
14,-440,0,0,0,0,0,0,0,0,0,-1,1238,1464,0,0
21,-440,0,0,0,0,0,0,0,0,0,-1,1245,1464,0,0
28,-440,0,0,0,0,0,0,0,0,0,-1,1252,1464,0,0
35,-440,0,0,0,0,0,0,0,0,0,-1,1259,1464,0,0
42,-440,0,0,0,0,0,0,0,0,0,-1,1266,1464,0,0
49,-440,0,0,0,0,0,0,0,0,0,-1,1273,1464,0,0
56,-440,0,0,0,0,0,0,0,0,0,-1,1280,1464,0,0
63,-440,0,0,0,0,0,0,0,0,0,-1,1287,1464,0,0
70,-440,0,0,0,0,0,0,0,0,0,-1,1294,1464,0,0
77,-440,0,0,0,0,0,0,0,0,0,-1,1301,1464,0,0
84,-440,0,0,0,0,0,0,0,0,0,-1,1308,1464,0,0
91,-440,0,0,0,0,0,0,0,0,0,-1,1315,1464,0,0
98,-440,0,0,0,0,0,0,0,0,0,-1,1322,1464,0,0
105,-440,0,0,0,0,0,0,0,0,0,-1,1329,1464,0,0
112,-440,0,0,0,0,0,0,0,0,0,-1,1336,1464,0,0
119,-440,0,0,0,0,0,0,0,0,0,-1,1343,1464,0,0
126,-440,0,0,0,0,0,0,0,0,0,-1,1350,1464,0,0
133,-440,0,0,0,0,0,0,0,0,0,-1,1357,1464,0,0
140,-440,0,0,0,0,0,0,0,0,0,-1,1364,1464,0,0
147,-440,0,0,0,0,0,0,0,0,0,-1,1371,1464,0,0
154,-440,0,0,0,0,0,0,0,0,0,-1,1378,1464,0,0
161,-440,0,0,0,0,0,0,0,0,0,-1,1385,1464,0,0
168,-440,0,0,0,0,0,0,0,0,0,-1,1392,1464,0,0
175,-440,0,0,0,0,0,0,0,0,0,-1,1399,1464,0,0
182,-440,0,0,0,0,0,0,0,0,0,-1,1406,1464,0,0
189,-440,0,0,0,0,0,0,0,0,0,-1,1413,1464,0,0
196,-440,0,0,0,0,0,0,0,0,0,-1,1420,1464,0,0
203,-440,0,0,0,0,0,0,0,0,0,-1,1427,1464,0,0
210,-440,0,0,0,0,0,0,0,0,0,-1,1434,1464,0,0
217,-440,0,0,0,0,0,0,0,0,0,-1,1441,1464,0,0
224,-440,0,0,0,0,0,0,0,0,0,-1,1448,1464,0,0
231,-440,0,0,0,0,0,0,0,0,0,-1,1455,1464,0,0
238,-440,0,0,0,0,0,0,0,0,0,-1,1462,1464,0,0
245,-440,0,0,0,0,0,0,0,0,0,-1,1469,1464,0,0
252,-440,0,0,0,0,0,0,0,0,0,-1,1476,1464,0,0
259,-440,0,0,0,0,0,0,0,0,0,-1,1483,1464,0,0
266,-440,0,0,0,0,0,0,0,0,0,-1,1490,1464,0,0
273,-440,0,0,0,0,0,0,0,0,0,-1,1497,1464,0,0
280,-440,0,0,0,0,0,0,0,0,0,-1,1504,1464,0,0
287,-440,0,0,0,0,0,0,0,0,0,-1,1511,1464,0,0
294,-440,0,0,0,0,0,0,0,0,0,-1,1518,1464,0,0
301,-440,0,0,0,0,0,0,0,0,0,-1,1525,1464,0,0
308,-440,0,0,0,0,0,0,0,0,0,-1,1532,1464,0,0
315,-440,0,0,0,0,0,0,0,0,0,-1,1539,1464,0,0
322,-440,0,0,0,0,0,0,0,0,0,-1,1546,1464,0,0
329,-440,0,0,0,0,0,0,0,0,0,-1,1553,1464,0,0
336,-440,0,0,0,0,0,0,0,0,0,-1,1560,1464,0,0
343,-440,0,0,0,0,0,0,0,0,0,-1,1567,1464,0,0
350,-440,0,0,0,0,0,0,0,0,0,-1,1574,1464,0,0
357,-440,0,0,0,0,0,0,0,0,0,-1,1581,1464,0,0
364,-440,0,0,0,0,0,0,0,0,0,-1,1588,1464,0,0
371,-440,0,0,0,0,0,0,0,0,0,-1,1595,1464,0,0
378,-440,0,0,0,0,0,0,0,0,0,-1,1602,1464,0,0
385,-440,0,0,0,0,0,0,0,0,0,-1,1609,1464,0,0
392,-440,0,0,0,0,0,0,0,0,0,-1,1616,1464,0,0
399,-440,0,0,0,0,0,0,0,0,0,-1,1623,1464,0,0
406,-440,0,0,0,0,0,0,0,0,0,-1,1630,1464,0,0
413,-440,0,0,0,0,0,0,0,0,0,-1,1637,1464,0,0
420,-440,0,0,0,0,0,0,0,0,0,-1,1644,1464,0,0
427,-440,0,0,0,0,0,0,0,0,0,-1,1651,1464,0,0
434,-440,0,0,0,0,0,0,0,0,0,-1,1658,1464,0,0
441,-440,0,0,0,0,0,0,0,0,0,-1,1665,1464,0,0
448,-440,0,0,0,0,0,0,0,0,0,-1,1672,1464,0,0
455,-440,0,0,0,0,0,0,0,0,0,-1,1679,1464,0,0
462,-440,0,0,0,0,0,0,0,0,0,-1,1686,1464,0,0
469,-440,0,0,0,0,0,0,0,0,0,-1,1693,1464,0,0
476,-440,0,0,0,0,0,0,0,0,0,-1,1700,1464,0,0
483,-440,0,0,0,0,0,0,0,0,0,-1,1707,1464,0,0
490,-440,0,0,0,0,0,0,0,0,0,-1,1714,1464,0,0
497,-440,16.965,-0.528442,0,0,0,0,0,0,0,-1,1721,1464,16.965,0.528492
504,-440,15.8052,0.670166,0,0,0,0,0,0,0,-1,1728,1464,15.8052,-0.670145
511,-440,17.5754,2.77832,0,0,0,0,0,0,0,-1,1735,1464,17.5754,-2.77826
518,-440,16.9017,3.07861,0,0,0,0,0,0,0,-1,1742,1464,16.9018,-3.07859
525,-440,18.4495,12.0867,0,0,0,0,0,0,0,-1,1749,1464,18.4495,-12.0867
532,-440,15.4319,3.64392,0,0,0,0,0,0,0,-1,1756,1464,15.4318,-3.64391
539,-440,14.8214,3.41321,0,0,0,0,0,0,0,-1,1763,1464,14.8214,-3.4132
546,-440,14.8651,10.7683,0,0,0,0,0,0,0,-1,1770,1464,14.8651,-10.7683
553,-440,15.1213,11.4121,0,0,0,0,0,0,0,-1,1777,1464,15.1213,-11.4121
560,-440,17.4325,12.5394,0,0,0,0,0,0,0,-1,1784,1464,17.4325,-12.5394
567,-440,16.9025,12.4249,0,0,0,0,0,0,0,-1,1791,1464,16.9025,-12.425
574,-440,17.7705,13.5289,0,0,0,0,0,0,0,-1,1798,1464,17.7705,-13.5289
581,-440,17.2114,13.2764,0,0,0,0,0,0,0,-1,1805,1464,17.2114,-13.2763
588,-440,17.318,12.8558,-0.00410489,0.00148817,0.00214429,0.00221564,-0.00483236,1.24372,0.0041616,0.0449743,1812,1464,17.3181,-12.8558
595,-440,17.323,12.4902,-0.00256868,0.00153132,0.0010685,0.00179307,-0.00283043,1.33056,0.00269168,0.0205083,1819,1464,17.3229,-12.4902
602,-440,17.3538,12.1044,-0.0015785,0.00136119,0.000588908,0.00147478,-0.00169208,1.38026,0.00182982,0.0181387,1826,1464,17.3538,-12.1044
609,-440,17.3357,11.7568,-0.00082936,0.000957564,0.000382886,0.00103615,-0.000907946,1.36836,0.00112324,0.0160179,1833,1464,17.3357,-11.7568
616,-440,17.3282,11.4222,-0.000306432,0.00048983,0.000420345,0.000670662,-0.000487264,1.16453,0.000671318,0.0171537,1840,1464,17.3282,-11.4223
623,-440,17.343,11.0686,0.000185923,-0.000187094,0.000534979,0.000565973,-0.000567144,0.617672,0.000654205,0.0125925,1847,1464,17.343,-11.0686
630,-440,17.3193,10.7048,0.00062088,-0.000744572,0.00074082,0.00094559,-0.00106928,0.413093,0.00116402,0.0104811,1854,1464,17.3194,-10.7048
637,-440,17.3134,10.3712,0.000841845,-0.0013179,0.00114872,0.00133858,-0.00181464,0.408141,0.00182741,0.0141514,1861,1464,17.3133,-10.3712
644,-440,17.3274,10.0424,0.0010399,-0.00185829,0.00159595,0.00174648,-0.00256487,0.416794,0.00250406,0.0135418,1868,1464,17.3273,-10.0424
651,-440,17.3536,9.66919,0.00123877,-0.00231698,0.00206452,0.00218543,-0.00326364,0.42993,0.00316648,0.0152408,1875,1464,17.3537,-9.6692
658,-440,17.2224,9.37305,0.00133322,-0.00274101,0.0026867,0.00266778,-0.00407557,0.461027,0.00392145,0.0313582,1882,1464,17.2225,-9.37307
665,-440,17.3232,9.25269,0,0,0,0,0,0,0,-1,1889,1464,17.3233,-9.25266
672,-440,17.126,9.83008,0,0,0,0,0,0,0,-1,1896,1464,17.1259,-9.8301
679,-440,16.9508,10.2336,0,0,0,0,0,0,0,-1,1903,1464,16.9508,-10.2337
686,-440,15.2556,8.44177,0,0,0,0,0,0,0,-1,1910,1464,15.2556,-8.44177
693,-440,9.88635,2.89795,0,0,0,0,0,0,0,-1,1917,1464,9.88638,-2.89798
700,-440,7.07825,-2.62061,0,0,0,0,0,0,0,-1,1924,1464,7.07829,2.62057
707,-440,0,0,0,0,0,0,0,0,0,-1,1931,1464,0,0
714,-440,0,0,0,0,0,0,0,0,0,-1,1938,1464,0,0
721,-440,0,0,0,0,0,0,0,0,0,-1,1945,1464,0,0
728,-440,0,0,0,0,0,0,0,0,0,-1,1952,1464,0,0
735,-440,0,0,0,0,0,0,0,0,0,-1,1959,1464,0,0
742,-440,0,0,0,0,0,0,0,0,0,-1,1966,1464,0,0
749,-440,0,0,0,0,0,0,0,0,0,-1,1973,1464,0,0
756,-440,0,0,0,0,0,0,0,0,0,-1,1980,1464,0,0
763,-440,0,0,0,0,0,0,0,0,0,-1,1987,1464,0,0
770,-440,0,0,0,0,0,0,0,0,0,-1,1994,1464,0,0
777,-440,0,0,0,0,0,0,0,0,0,-1,2001,1464,0,0
784,-440,0,0,0,0,0,0,0,0,0,-1,2008,1464,0,0
791,-440,0,0,0,0,0,0,0,0,0,-1,2015,1464,0,0
798,-440,0,0,0,0,0,0,0,0,0,-1,2022,1464,0,0
805,-440,0,0,0,0,0,0,0,0,0,-1,2029,1464,0,0
812,-440,0,0,0,0,0,0,0,0,0,-1,2036,1464,0,0
-700,-447,0,0,0,0,0,0,0,0,0,-1,524,1471,0,0
-693,-447,0,0,0,0,0,0,0,0,0,-1,531,1471,0,0
-686,-447,0,0,0,0,0,0,0,0,0,-1,538,1471,0,0
-679,-447,0,0,0,0,0,0,0,0,0,-1,545,1471,0,0
-672,-447,0,0,0,0,0,0,0,0,0,-1,552,1471,0,0
-665,-447,0,0,0,0,0,0,0,0,0,-1,559,1471,0,0
-658,-447,0,0,0,0,0,0,0,0,0,-1,566,1471,0,0
-651,-447,0,0,0,0,0,0,0,0,0,-1,573,1471,0,0
-644,-447,0,0,0,0,0,0,0,0,0,-1,580,1471,0,0
-637,-447,0,0,0,0,0,0,0,0,0,-1,587,1471,0,0
-630,-447,0,0,0,0,0,0,0,0,0,-1,594,1471,0,0
-623,-447,0,0,0,0,0,0,0,0,0,-1,601,1471,0,0
-616,-447,0,0,0,0,0,0,0,0,0,-1,608,1471,0,0
-609,-447,0,0,0,0,0,0,0,0,0,-1,615,1471,0,0
-602,-447,0,0,0,0,0,0,0,0,0,-1,622,1471,0,0
-595,-447,0,0,0,0,0,0,0,0,0,-1,629,1471,0,0
-588,-447,0,0,0,0,0,0,0,0,0,-1,636,1471,0,0
-581,-447,-7.06482,-1.50476,0,0,0,0,0,0,0,-1,643,1471,-7.0648,1.50474
-574,-447,-6.88092,-0.00585938,0,0,0,0,0,0,0,-1,650,1471,-6.88095,0.00589852
-567,-447,-6.8205,-1.32178,0,0,0,0,0,0,0,-1,657,1471,-6.82047,1.32172
-560,-447,-8.85748,2.80774,0,0,0,0,0,0,0,-1,664,1471,-8.85748,-2.80775
-553,-447,-7.60486,3.26794,0,0,0,0,0,0,0,-1,671,1471,-7.60487,-3.26799
-546,-447,-3.94501,1.8656,0,0,0,0,0,0,0,-1,678,1471,-3.945,-1.86554
-539,-447,-5.35492,4.50024,0,0,0,0,0,0,0,-1,685,1471,-5.35492,-4.50018
-532,-447,-5.44843,6.78503,0,0,0,0,0,0,0,-1,692,1471,-5.44843,-6.78508
-525,-447,-5.26807,7.52283,0.0111999,0.0323567,0.0200177,0.0444191,-0.000862598,1.02847,0.0299044,0.041591,699,1471,-5.26804,-7.52282
-518,-447,-5.46619,7.69397,0.00943667,0.0240387,0.0153612,0.0337457,-0.000270328,1.00724,0.0225878,0.0347776,706,1471,-5.46621,-7.69393
-511,-447,-5.46735,8.09558,0.00753684,0.0174564,0.0114813,0.0250033,-1.01477e-05,0.989285,0.0166723,0.016669,713,1471,-5.46735,-8.09561
-504,-447,-5.4632,8.54553,0.00586784,0.0120902,0.00818725,0.0177374,0.000220551,0.966972,0.0117521,0.0191016,720,1471,-5.46318,-8.54555
-497,-447,-5.48755,8.95129,0.00439683,0.00768449,0.00536415,0.011651,0.00043029,0.934079,0.00762797,0.0232904,727,1471,-5.48753,-8.95133
-490,-447,-5.45825,9.27722,0.00316737,0.00377989,0.00303677,0.00652581,0.000421456,0.835654,0.00421708,0.0236408,734,1471,-5.45823,-9.27722
-483,-447,-5.4931,9.61316,0.00212805,0.000270644,0.000878197,0.00247752,-7.88228e-05,0.378727,0.00167857,0.0215419,741,1471,-5.49312,-9.6132
-476,-447,-5.5022,9.98071,0.00141132,-0.00306646,-0.00099256,0.00162147,-0.00327662,-0.208645,0.00288123,0.0138027,748,1471,-5.50221,-9.9807
-469,-447,-5.52228,10.4014,0.000716621,-0.00613609,-0.00269872,0.0016518,-0.00707127,-0.333578,0.00535046,0.0133604,755,1471,-5.52227,-10.4013
-462,-447,-5.54041,10.8104,0.000451879,-0.00914281,-0.00406874,0.00194494,-0.0106359,-0.351702,0.00781994,0.0136015,762,1471,-5.5404,-10.8105
-455,-447,-5.54083,11.1853,0.000354462,-0.0124508,-0.00542081,0.00234104,-0.0144374,-0.351273,0.0104927,0.0156538,769,1471,-5.54084,-11.1853
-448,-447,-5.43036,11.6639,0.000174365,-0.0167005,-0.00694542,0.0026653,-0.0191914,-0.344355,0.013769,0.0293067,776,1471,-5.43035,-11.664
-441,-447,-5.54242,12.0774,-0.000190049,-0.0219981,-0.00877075,0.00289963,-0.0250878,-0.338696,0.0177708,0.0396456,783,1471,-5.5424,-12.0774
-434,-447,-5.99011,12.1748,-0.000803332,-0.0284482,-0.0109588,0.00301382,-0.0322654,-0.335176,0.022582,0.0451586,790,1471,-5.99009,-12.1748
-427,-447,-6.42206,11.7599,0,0,0,0,0,0,0,-1,797,1471,-6.42204,-11.7599
-420,-447,-6.71515,11.3757,0,0,0,0,0,0,0,-1,804,1471,-6.71514,-11.3757
-413,-447,-4.27393,6.59705,0,0,0,0,0,0,0,-1,811,1471,-4.27392,-6.59707
-406,-447,-1.04279,6.18591,0,0,0,0,0,0,0,-1,818,1471,-1.04276,-6.18586
-399,-447,0.0134888,0.687622,0,0,0,0,0,0,0,-1,825,1471,0.0134841,-0.68767
-392,-447,-14.0646,3.76147,0,0,0,0,0,0,0,-1,832,1471,-14.0646,-3.7615
-385,-447,-15.1695,2.61865,0,0,0,0,0,0,0,-1,839,1471,-15.1695,-2.61871
-378,-447,-15.9424,1.49316,0,0,0,0,0,0,0,-1,846,1471,-15.9424,-1.49313
-371,-447,-17.3655,0.73291,0,0,0,0,0,0,0,-1,853,1471,-17.3655,-0.732946
-364,-447,0,0,0,0,0,0,0,0,0,-1,860,1471,0,0
-357,-447,0,0,0,0,0,0,0,0,0,-1,867,1471,0,0
-350,-447,0,0,0,0,0,0,0,0,0,-1,874,1471,0,0
-343,-447,0,0,0,0,0,0,0,0,0,-1,881,1471,0,0
-336,-447,0,0,0,0,0,0,0,0,0,-1,888,1471,0,0
-329,-447,0,0,0,0,0,0,0,0,0,-1,895,1471,0,0
-322,-447,0,0,0,0,0,0,0,0,0,-1,902,1471,0,0
-315,-447,0,0,0,0,0,0,0,0,0,-1,909,1471,0,0
-308,-447,0,0,0,0,0,0,0,0,0,-1,916,1471,0,0
-301,-447,0,0,0,0,0,0,0,0,0,-1,923,1471,0,0
-294,-447,0,0,0,0,0,0,0,0,0,-1,930,1471,0,0
-287,-447,0,0,0,0,0,0,0,0,0,-1,937,1471,0,0
-280,-447,0,0,0,0,0,0,0,0,0,-1,944,1471,0,0
-273,-447,0,0,0,0,0,0,0,0,0,-1,951,1471,0,0
-266,-447,0,0,0,0,0,0,0,0,0,-1,958,1471,0,0
-259,-447,0,0,0,0,0,0,0,0,0,-1,965,1471,0,0
-252,-447,0,0,0,0,0,0,0,0,0,-1,972,1471,0,0
-245,-447,0,0,0,0,0,0,0,0,0,-1,979,1471,0,0
-238,-447,0,0,0,0,0,0,0,0,0,-1,986,1471,0,0
-231,-447,0,0,0,0,0,0,0,0,0,-1,993,1471,0,0
-224,-447,0,0,0,0,0,0,0,0,0,-1,1000,1471,0,0
-217,-447,0,0,0,0,0,0,0,0,0,-1,1007,1471,0,0
-210,-447,0,0,0,0,0,0,0,0,0,-1,1014,1471,0,0
-203,-447,0,0,0,0,0,0,0,0,0,-1,1021,1471,0,0
-196,-447,0,0,0,0,0,0,0,0,0,-1,1028,1471,0,0
-189,-447,0,0,0,0,0,0,0,0,0,-1,1035,1471,0,0
-182,-447,0,0,0,0,0,0,0,0,0,-1,1042,1471,0,0
-175,-447,0,0,0,0,0,0,0,0,0,-1,1049,1471,0,0
-168,-447,0,0,0,0,0,0,0,0,0,-1,1056,1471,0,0
-161,-447,0,0,0,0,0,0,0,0,0,-1,1063,1471,0,0
-154,-447,0,0,0,0,0,0,0,0,0,-1,1070,1471,0,0
-147,-447,0,0,0,0,0,0,0,0,0,-1,1077,1471,0,0
-140,-447,0,0,0,0,0,0,0,0,0,-1,1084,1471,0,0
-133,-447,0,0,0,0,0,0,0,0,0,-1,1091,1471,0,0
-126,-447,0,0,0,0,0,0,0,0,0,-1,1098,1471,0,0
-119,-447,0,0,0,0,0,0,0,0,0,-1,1105,1471,0,0
-112,-447,0,0,0,0,0,0,0,0,0,-1,1112,1471,0,0
-105,-447,0,0,0,0,0,0,0,0,0,-1,1119,1471,0,0
-98,-447,0,0,0,0,0,0,0,0,0,-1,1126,1471,0,0
-91,-447,0,0,0,0,0,0,0,0,0,-1,1133,1471,0,0
-84,-447,0,0,0,0,0,0,0,0,0,-1,1140,1471,0,0
-77,-447,0,0,0,0,0,0,0,0,0,-1,1147,1471,0,0
-70,-447,0,0,0,0,0,0,0,0,0,-1,1154,1471,0,0
-63,-447,0,0,0,0,0,0,0,0,0,-1,1161,1471,0,0
-56,-447,0,0,0,0,0,0,0,0,0,-1,1168,1471,0,0
-49,-447,0,0,0,0,0,0,0,0,0,-1,1175,1471,0,0
-42,-447,0,0,0,0,0,0,0,0,0,-1,1182,1471,0,0
-35,-447,0,0,0,0,0,0,0,0,0,-1,1189,1471,0,0
-28,-447,0,0,0,0,0,0,0,0,0,-1,1196,1471,0,0
-21,-447,0,0,0,0,0,0,0,0,0,-1,1203,1471,0,0
-14,-447,0,0,0,0,0,0,0,0,0,-1,1210,1471,0,0
-7,-447,0,0,0,0,0,0,0,0,0,-1,1217,1471,0,0
0,-447,0,0,0,0,0,0,0,0,0,-1,1224,1471,0,0
7,-447,0,0,0,0,0,0,0,0,0,-1,1231,1471,0,0
14,-447,0,0,0,0,0,0,0,0,0,-1,1238,1471,0,0
21,-447,0,0,0,0,0,0,0,0,0,-1,1245,1471,0,0
28,-447,0,0,0,0,0,0,0,0,0,-1,1252,1471,0,0
35,-447,0,0,0,0,0,0,0,0,0,-1,1259,1471,0,0
42,-447,0,0,0,0,0,0,0,0,0,-1,1266,1471,0,0
49,-447,0,0,0,0,0,0,0,0,0,-1,1273,1471,0,0
56,-447,0,0,0,0,0,0,0,0,0,-1,1280,1471,0,0
63,-447,0,0,0,0,0,0,0,0,0,-1,1287,1471,0,0
70,-447,0,0,0,0,0,0,0,0,0,-1,1294,1471,0,0
77,-447,0,0,0,0,0,0,0,0,0,-1,1301,1471,0,0
84,-447,0,0,0,0,0,0,0,0,0,-1,1308,1471,0,0
91,-447,0,0,0,0,0,0,0,0,0,-1,1315,1471,0,0
98,-447,0,0,0,0,0,0,0,0,0,-1,1322,1471,0,0
105,-447,0,0,0,0,0,0,0,0,0,-1,1329,1471,0,0
112,-447,0,0,0,0,0,0,0,0,0,-1,1336,1471,0,0
119,-447,0,0,0,0,0,0,0,0,0,-1,1343,1471,0,0
126,-447,0,0,0,0,0,0,0,0,0,-1,1350,1471,0,0
133,-447,0,0,0,0,0,0,0,0,0,-1,1357,1471,0,0
140,-447,0,0,0,0,0,0,0,0,0,-1,1364,1471,0,0
147,-447,0,0,0,0,0,0,0,0,0,-1,1371,1471,0,0
154,-447,0,0,0,0,0,0,0,0,0,-1,1378,1471,0,0
161,-447,0,0,0,0,0,0,0,0,0,-1,1385,1471,0,0
168,-447,0,0,0,0,0,0,0,0,0,-1,1392,1471,0,0
175,-447,0,0,0,0,0,0,0,0,0,-1,1399,1471,0,0
182,-447,0,0,0,0,0,0,0,0,0,-1,1406,1471,0,0
189,-447,0,0,0,0,0,0,0,0,0,-1,1413,1471,0,0
196,-447,0,0,0,0,0,0,0,0,0,-1,1420,1471,0,0
203,-447,0,0,0,0,0,0,0,0,0,-1,1427,1471,0,0
210,-447,0,0,0,0,0,0,0,0,0,-1,1434,1471,0,0
217,-447,0,0,0,0,0,0,0,0,0,-1,1441,1471,0,0
224,-447,0,0,0,0,0,0,0,0,0,-1,1448,1471,0,0
231,-447,0,0,0,0,0,0,0,0,0,-1,1455,1471,0,0
238,-447,0,0,0,0,0,0,0,0,0,-1,1462,1471,0,0
245,-447,0,0,0,0,0,0,0,0,0,-1,1469,1471,0,0
252,-447,0,0,0,0,0,0,0,0,0,-1,1476,1471,0,0
259,-447,0,0,0,0,0,0,0,0,0,-1,1483,1471,0,0
266,-447,0,0,0,0,0,0,0,0,0,-1,1490,1471,0,0
273,-447,0,0,0,0,0,0,0,0,0,-1,1497,1471,0,0
280,-447,0,0,0,0,0,0,0,0,0,-1,1504,1471,0,0
287,-447,0,0,0,0,0,0,0,0,0,-1,1511,1471,0,0
294,-447,0,0,0,0,0,0,0,0,0,-1,1518,1471,0,0
301,-447,0,0,0,0,0,0,0,0,0,-1,1525,1471,0,0
308,-447,0,0,0,0,0,0,0,0,0,-1,1532,1471,0,0
315,-447,0,0,0,0,0,0,0,0,0,-1,1539,1471,0,0
322,-447,0,0,0,0,0,0,0,0,0,-1,1546,1471,0,0
329,-447,0,0,0,0,0,0,0,0,0,-1,1553,1471,0,0
336,-447,0,0,0,0,0,0,0,0,0,-1,1560,1471,0,0
343,-447,0,0,0,0,0,0,0,0,0,-1,1567,1471,0,0
350,-447,0,0,0,0,0,0,0,0,0,-1,1574,1471,0,0
357,-447,0,0,0,0,0,0,0,0,0,-1,1581,1471,0,0
364,-447,0,0,0,0,0,0,0,0,0,-1,1588,1471,0,0
371,-447,0,0,0,0,0,0,0,0,0,-1,1595,1471,0,0
378,-447,0,0,0,0,0,0,0,0,0,-1,1602,1471,0,0
385,-447,0,0,0,0,0,0,0,0,0,-1,1609,1471,0,0
392,-447,0,0,0,0,0,0,0,0,0,-1,1616,1471,0,0
399,-447,0,0,0,0,0,0,0,0,0,-1,1623,1471,0,0
406,-447,0,0,0,0,0,0,0,0,0,-1,1630,1471,0,0
413,-447,0,0,0,0,0,0,0,0,0,-1,1637,1471,0,0
420,-447,0,0,0,0,0,0,0,0,0,-1,1644,1471,0,0
427,-447,0,0,0,0,0,0,0,0,0,-1,1651,1471,0,0
434,-447,0,0,0,0,0,0,0,0,0,-1,1658,1471,0,0
441,-447,0,0,0,0,0,0,0,0,0,-1,1665,1471,0,0
448,-447,0,0,0,0,0,0,0,0,0,-1,1672,1471,0,0
455,-447,0,0,0,0,0,0,0,0,0,-1,1679,1471,0,0
462,-447,0,0,0,0,0,0,0,0,0,-1,1686,1471,0,0
469,-447,0,0,0,0,0,0,0,0,0,-1,1693,1471,0,0
476,-447,0,0,0,0,0,0,0,0,0,-1,1700,1471,0,0
483,-447,0,0,0,0,0,0,0,0,0,-1,1707,1471,0,0
490,-447,18.2214,-0.810303,0,0,0,0,0,0,0,-1,1714,1471,18.2215,0.810307
497,-447,17.0237,0.352417,0,0,0,0,0,0,0,-1,1721,1471,17.0237,-0.352442
504,-447,15.8998,1.53479,0,0,0,0,0,0,0,-1,1728,1471,15.8997,-1.53478
511,-447,14.7201,2.76111,0,0,0,0,0,0,0,-1,1735,1471,14.7201,-2.76107
518,-447,17.7618,13.2864,0,0,0,0,0,0,0,-1,1742,1471,17.7619,-13.2863
525,-447,17.1191,11.9014,0,0,0,0,0,0,0,-1,1749,1471,17.1191,-11.9013
532,-447,16.3959,10.0455,0,0,0,0,0,0,0,-1,1756,1471,16.3959,-10.0456
539,-447,14.1699,10.0204,0,0,0,0,0,0,0,-1,1763,1471,14.1699,-10.0204
546,-447,16.3715,11.8046,0,0,0,0,0,0,0,-1,1770,1471,16.3714,-11.8046
553,-447,17.5106,13.4012,0,0,0,0,0,0,0,-1,1777,1471,17.5107,-13.4012
560,-447,17.0187,13.168,0,0,0,0,0,0,0,-1,1784,1471,17.0187,-13.168
567,-447,17.3228,14.2378,0,0,0,0,0,0,0,-1,1791,1471,17.3228,-14.2378
574,-447,17.2458,13.4481,-0.00718863,-0.000181525,0.00624285,0.0034737,-0.0108439,1.0411,0.00862358,0.0443511,1798,1471,17.2458,-13.4481
581,-447,16.9464,13.2825,-0.0049784,0.000392635,0.00393475,0.00247096,-0.00705673,1.08485,0.00570925,0.0266214,1805,1471,16.9464,-13.2824
588,-447,17.0054,12.8274,-0.00309474,0.000957812,0.00193688,0.00173462,-0.00387155,1.18937,0.00331418,0.0163133,1812,1471,17.0053,-12.8274
595,-447,17.0106,12.4697,-0.00176009,0.00111658,0.000910096,0.00138033,-0.00202384,1.28872,0.00197707,0.0123014,1819,1471,17.0106,-12.4697
602,-447,17.0022,12.0999,-0.000935843,0.000975585,0.000523926,0.00110977,-0.00107003,1.32006,0.00125858,0.010442,1826,1471,17.0022,-12.0998
609,-447,16.9855,11.7487,-0.000287853,0.000599488,0.000367278,0.000731783,-0.000420148,1.22506,0.000673132,0.0114989,1833,1471,16.9855,-11.7487
616,-447,17.0034,11.4114,0.000190074,0.000143999,0.000435884,0.000603529,-0.000269456,0.758997,0.000516173,0.0139166,1840,1471,17.0034,-11.4114
623,-447,17.0238,11.0902,0.000653309,-0.000545089,0.000605056,0.000905657,-0.000797437,0.395131,0.000983943,0.0148212,1847,1471,17.0238,-11.0902
630,-447,16.9894,10.7299,0.00105961,-0.00116803,0.000905006,0.00138093,-0.00148935,0.341166,0.00165755,0.00893157,1854,1471,16.9894,-10.7299
637,-447,16.9895,10.3616,0.00128673,-0.00181997,0.00139677,0.00182236,-0.00235561,0.366186,0.00241869,0.0095361,1861,1471,16.9895,-10.3615
644,-447,17.0077,10.0023,0.00151234,-0.00244851,0.00193335,0.00229957,-0.00323574,0.386686,0.00321101,0.0105934,1868,1471,17.0076,-10.0023
651,-447,17.0499,9.67969,0.00175341,-0.00302385,0.00251724,0.00283494,-0.00410538,0.405803,0.00402932,0.0352376,1875,1471,17.0499,-9.67969
658,-447,16.699,9.58582,0.00190145,-0.00359389,0.00328452,0.00343604,-0.00512848,0.437081,0.00497681,0.0458509,1882,1471,16.6989,-9.58577
665,-447,16.4598,9.15479,0,0,0,0,0,0,0,-1,1889,1471,16.4599,-9.15478
672,-447,16.7676,10.215,0,0,0,0,0,0,0,-1,1896,1471,16.7675,-10.215
679,-447,14.844,7.4248,0,0,0,0,0,0,0,-1,1903,1471,14.844,-7.42477
686,-447,9.81079,4.30859,0,0,0,0,0,0,0,-1,1910,1471,9.8108,-4.30864
693,-447,10.48,2.08643,0,0,0,0,0,0,0,-1,1917,1471,10.48,-2.08642
700,-447,0,0,0,0,0,0,0,0,0,-1,1924,1471,0,0
707,-447,0,0,0,0,0,0,0,0,0,-1,1931,1471,0,0
714,-447,0,0,0,0,0,0,0,0,0,-1,1938,1471,0,0
721,-447,0,0,0,0,0,0,0,0,0,-1,1945,1471,0,0
728,-447,0,0,0,0,0,0,0,0,0,-1,1952,1471,0,0
735,-447,0,0,0,0,0,0,0,0,0,-1,1959,1471,0,0
742,-447,0,0,0,0,0,0,0,0,0,-1,1966,1471,0,0
749,-447,0,0,0,0,0,0,0,0,0,-1,1973,1471,0,0
756,-447,0,0,0,0,0,0,0,0,0,-1,1980,1471,0,0
763,-447,0,0,0,0,0,0,0,0,0,-1,1987,1471,0,0
770,-447,0,0,0,0,0,0,0,0,0,-1,1994,1471,0,0
777,-447,0,0,0,0,0,0,0,0,0,-1,2001,1471,0,0
784,-447,0,0,0,0,0,0,0,0,0,-1,2008,1471,0,0
791,-447,0,0,0,0,0,0,0,0,0,-1,2015,1471,0,0
798,-447,0,0,0,0,0,0,0,0,0,-1,2022,1471,0,0
805,-447,0,0,0,0,0,0,0,0,0,-1,2029,1471,0,0
812,-447,0,0,0,0,0,0,0,0,0,-1,2036,1471,0,0
-700,-454,0,0,0,0,0,0,0,0,0,-1,524,1478,0,0
-693,-454,0,0,0,0,0,0,0,0,0,-1,531,1478,0,0
-686,-454,0,0,0,0,0,0,0,0,0,-1,538,1478,0,0
-679,-454,0,0,0,0,0,0,0,0,0,-1,545,1478,0,0
-672,-454,0,0,0,0,0,0,0,0,0,-1,552,1478,0,0
-665,-454,0,0,0,0,0,0,0,0,0,-1,559,1478,0,0
-658,-454,0,0,0,0,0,0,0,0,0,-1,566,1478,0,0
-651,-454,0,0,0,0,0,0,0,0,0,-1,573,1478,0,0
-644,-454,0,0,0,0,0,0,0,0,0,-1,580,1478,0,0
-637,-454,0,0,0,0,0,0,0,0,0,-1,587,1478,0,0
-630,-454,0,0,0,0,0,0,0,0,0,-1,594,1478,0,0
-623,-454,0,0,0,0,0,0,0,0,0,-1,601,1478,0,0
-616,-454,0,0,0,0,0,0,0,0,0,-1,608,1478,0,0
-609,-454,0,0,0,0,0,0,0,0,0,-1,615,1478,0,0
-602,-454,0,0,0,0,0,0,0,0,0,-1,622,1478,0,0
-595,-454,0,0,0,0,0,0,0,0,0,-1,629,1478,0,0
-588,-454,0,0,0,0,0,0,0,0,0,-1,636,1478,0,0
-581,-454,0,0,0,0,0,0,0,0,0,-1,643,1478,0,0
-574,-454,-8.4881,-0.465942,0,0,0,0,0,0,0,-1,650,1478,-8.4881,0.465885
-567,-454,-8.10046,0.922974,0,0,0,0,0,0,0,-1,657,1478,-8.10047,-0.923034
-560,-454,-10.656,3.51172,0,0,0,0,0,0,0,-1,664,1478,-10.656,-3.51176
-553,-454,-9.01129,3.95251,0,0,0,0,0,0,0,-1,671,1478,-9.0113,-3.95256
-546,-454,-9.61896,6.05237,0,0,0,0,0,0,0,-1,678,1478,-9.61897,-6.05239
-539,-454,-7.72589,4.96533,0,0,0,0,0,0,0,-1,685,1478,-7.72592,-4.96532
-532,-454,-5.74554,6.82666,0,0,0,0,0,0,0,-1,692,1478,-5.74554,-6.82668
-525,-454,-5.39667,7.49097,0.0185337,0.0490639,0.0304051,0.0678208,-0.000223231,1.01804,0.0452884,0.048449,699,1478,-5.39668,-7.49099
-518,-454,-5.01117,8.02368,0.0146449,0.0363762,0.0231287,0.0510644,-4.32674e-05,1.00499,0.0340573,0.0406501,706,1478,-5.01117,-8.02364
-511,-454,-5.12952,8.07129,0.011116,0.0264324,0.017189,0.037592,-4.36641e-05,0.994963,0.0250759,0.0268456,713,1478,-5.12952,-8.07128
-504,-454,-5.06689,8.51843,0.00815301,0.0185584,0.0123292,0.0267377,-2.62531e-05,0.985054,0.0178339,0.0166832,720,1478,-5.06692,-8.51842
-497,-454,-5.07568,8.9342,0.00581562,0.012312,0.00836584,0.0180381,8.95299e-05,0.970575,0.0119957,0.0195861,727,1478,-5.07567,-8.93417
-490,-454,-5.07861,9.31873,0.00403308,0.00720448,0.00522376,0.0110779,0.00015965,0.932756,0.00733264,0.0176604,734,1478,-5.07862,-9.31867
-483,-454,-5.10718,9.67126,0.00267235,0.00297075,0.00257111,0.00539699,0.000246112,0.81438,0.00351882,0.0156196,741,1478,-5.10717,-9.67128
-476,-454,-5.14233,10.0143,0.00176712,-0.000877083,0.000368895,0.00181762,-0.000927584,0.136051,0.00161247,0.0136251,748,1478,-5.14235,-10.0143
-469,-454,-5.14355,10.431,0.00096379,-0.00408135,-0.001495,0.00137352,-0.00449108,-0.267499,0.00354181,0.0103782,755,1478,-5.14358,-10.431
-462,-454,-5.1759,10.8214,0.000749782,-0.00675621,-0.00274327,0.00164549,-0.00765192,-0.3156,0.0057291,0.0104704,762,1478,-5.17589,-10.8214
-455,-454,-5.18463,11.1908,0.000965104,-0.00930059,-0.00369961,0.00215944,-0.0104949,-0.312265,0.0078165,0.0109358,769,1478,-5.18461,-11.1908
-448,-454,-5.14948,11.5883,0.00129189,-0.0122602,-0.00458959,0.00269992,-0.0136682,-0.297673,0.0101327,0.0136804,776,1478,-5.14947,-11.5882
-441,-454,-4.97644,12.0911,0.0015968,-0.0159027,-0.00558704,0.00322843,-0.0175343,-0.284138,0.012901,0.0294058,783,1478,-4.97646,-12.0911
-434,-454,-4.92023,12.3799,0.00181919,-0.0203915,-0.0067768,0.0037236,-0.0222959,-0.273953,0.016248,0.0403436,790,1478,-4.92025,-12.3799
-427,-454,-4.63934,11.8676,0,0,0,0,0,0,0,-1,797,1478,-4.63934,-11.8675
-420,-454,-4.55554,12.1727,0,0,0,0,0,0,0,-1,804,1478,-4.55553,-12.1727
-413,-454,-4.54706,11.8824,0,0,0,0,0,0,0,-1,811,1478,-4.54707,-11.8825
-406,-454,-2.38208,10.0308,0,0,0,0,0,0,0,-1,818,1478,-2.38209,-10.0308
-399,-454,-1.21033,6.95447,0,0,0,0,0,0,0,-1,825,1478,-1.21035,-6.95452
-392,-454,0.0967407,0.985474,0,0,0,0,0,0,0,-1,832,1478,0.0967364,-0.985529
-385,-454,2.38629,3.297,0,0,0,0,0,0,0,-1,839,1478,2.38629,-3.29702
-378,-454,-15.9756,2.83997,0,0,0,0,0,0,0,-1,846,1478,-15.9756,-2.83994
-371,-454,-17.2753,2.01453,0,0,0,0,0,0,0,-1,853,1478,-17.2753,-2.01455
-364,-454,1.08124,0.819458,0,0,0,0,0,0,0,-1,860,1478,1.08124,-0.819513
-357,-454,0,0,0,0,0,0,0,0,0,-1,867,1478,0,0
-350,-454,0,0,0,0,0,0,0,0,0,-1,874,1478,0,0
-343,-454,0,0,0,0,0,0,0,0,0,-1,881,1478,0,0
-336,-454,0,0,0,0,0,0,0,0,0,-1,888,1478,0,0
-329,-454,0,0,0,0,0,0,0,0,0,-1,895,1478,0,0
-322,-454,0,0,0,0,0,0,0,0,0,-1,902,1478,0,0
-315,-454,0,0,0,0,0,0,0,0,0,-1,909,1478,0,0
-308,-454,0,0,0,0,0,0,0,0,0,-1,916,1478,0,0
-301,-454,0,0,0,0,0,0,0,0,0,-1,923,1478,0,0
-294,-454,0,0,0,0,0,0,0,0,0,-1,930,1478,0,0
-287,-454,0,0,0,0,0,0,0,0,0,-1,937,1478,0,0
-280,-454,0,0,0,0,0,0,0,0,0,-1,944,1478,0,0
-273,-454,0,0,0,0,0,0,0,0,0,-1,951,1478,0,0
-266,-454,0,0,0,0,0,0,0,0,0,-1,958,1478,0,0
-259,-454,0,0,0,0,0,0,0,0,0,-1,965,1478,0,0
-252,-454,0,0,0,0,0,0,0,0,0,-1,972,1478,0,0
-245,-454,0,0,0,0,0,0,0,0,0,-1,979,1478,0,0
-238,-454,0,0,0,0,0,0,0,0,0,-1,986,1478,0,0
-231,-454,0,0,0,0,0,0,0,0,0,-1,993,1478,0,0
-224,-454,0,0,0,0,0,0,0,0,0,-1,1000,1478,0,0
-217,-454,0,0,0,0,0,0,0,0,0,-1,1007,1478,0,0
-210,-454,0,0,0,0,0,0,0,0,0,-1,1014,1478,0,0
-203,-454,0,0,0,0,0,0,0,0,0,-1,1021,1478,0,0
-196,-454,0,0,0,0,0,0,0,0,0,-1,1028,1478,0,0
-189,-454,0,0,0,0,0,0,0,0,0,-1,1035,1478,0,0
-182,-454,0,0,0,0,0,0,0,0,0,-1,1042,1478,0,0
-175,-454,0,0,0,0,0,0,0,0,0,-1,1049,1478,0,0
-168,-454,0,0,0,0,0,0,0,0,0,-1,1056,1478,0,0
-161,-454,0,0,0,0,0,0,0,0,0,-1,1063,1478,0,0
-154,-454,0,0,0,0,0,0,0,0,0,-1,1070,1478,0,0
-147,-454,0,0,0,0,0,0,0,0,0,-1,1077,1478,0,0
-140,-454,0,0,0,0,0,0,0,0,0,-1,1084,1478,0,0
-133,-454,0,0,0,0,0,0,0,0,0,-1,1091,1478,0,0
-126,-454,0,0,0,0,0,0,0,0,0,-1,1098,1478,0,0
-119,-454,0,0,0,0,0,0,0,0,0,-1,1105,1478,0,0
-112,-454,0,0,0,0,0,0,0,0,0,-1,1112,1478,0,0
-105,-454,0,0,0,0,0,0,0,0,0,-1,1119,1478,0,0
-98,-454,0,0,0,0,0,0,0,0,0,-1,1126,1478,0,0
-91,-454,0,0,0,0,0,0,0,0,0,-1,1133,1478,0,0
-84,-454,0,0,0,0,0,0,0,0,0,-1,1140,1478,0,0
-77,-454,0,0,0,0,0,0,0,0,0,-1,1147,1478,0,0
-70,-454,0,0,0,0,0,0,0,0,0,-1,1154,1478,0,0
-63,-454,0,0,0,0,0,0,0,0,0,-1,1161,1478,0,0
-56,-454,0,0,0,0,0,0,0,0,0,-1,1168,1478,0,0
-49,-454,0,0,0,0,0,0,0,0,0,-1,1175,1478,0,0
-42,-454,0,0,0,0,0,0,0,0,0,-1,1182,1478,0,0
-35,-454,0,0,0,0,0,0,0,0,0,-1,1189,1478,0,0
-28,-454,0,0,0,0,0,0,0,0,0,-1,1196,1478,0,0
-21,-454,0,0,0,0,0,0,0,0,0,-1,1203,1478,0,0
-14,-454,0,0,0,0,0,0,0,0,0,-1,1210,1478,0,0
-7,-454,0,0,0,0,0,0,0,0,0,-1,1217,1478,0,0
0,-454,0,0,0,0,0,0,0,0,0,-1,1224,1478,0,0
7,-454,0,0,0,0,0,0,0,0,0,-1,1231,1478,0,0
14,-454,0,0,0,0,0,0,0,0,0,-1,1238,1478,0,0
21,-454,0,0,0,0,0,0,0,0,0,-1,1245,1478,0,0
28,-454,0,0,0,0,0,0,0,0,0,-1,1252,1478,0,0
35,-454,0,0,0,0,0,0,0,0,0,-1,1259,1478,0,0
42,-454,0,0,0,0,0,0,0,0,0,-1,1266,1478,0,0
49,-454,0,0,0,0,0,0,0,0,0,-1,1273,1478,0,0
56,-454,0,0,0,0,0,0,0,0,0,-1,1280,1478,0,0
63,-454,0,0,0,0,0,0,0,0,0,-1,1287,1478,0,0
70,-454,0,0,0,0,0,0,0,0,0,-1,1294,1478,0,0
77,-454,0,0,0,0,0,0,0,0,0,-1,1301,1478,0,0
84,-454,0,0,0,0,0,0,0,0,0,-1,1308,1478,0,0
91,-454,0,0,0,0,0,0,0,0,0,-1,1315,1478,0,0
98,-454,0,0,0,0,0,0,0,0,0,-1,1322,1478,0,0
105,-454,0,0,0,0,0,0,0,0,0,-1,1329,1478,0,0
112,-454,0,0,0,0,0,0,0,0,0,-1,1336,1478,0,0
119,-454,0,0,0,0,0,0,0,0,0,-1,1343,1478,0,0
126,-454,0,0,0,0,0,0,0,0,0,-1,1350,1478,0,0
133,-454,0,0,0,0,0,0,0,0,0,-1,1357,1478,0,0
140,-454,0,0,0,0,0,0,0,0,0,-1,1364,1478,0,0
147,-454,0,0,0,0,0,0,0,0,0,-1,1371,1478,0,0
154,-454,0,0,0,0,0,0,0,0,0,-1,1378,1478,0,0
161,-454,0,0,0,0,0,0,0,0,0,-1,1385,1478,0,0
168,-454,0,0,0,0,0,0,0,0,0,-1,1392,1478,0,0
175,-454,0,0,0,0,0,0,0,0,0,-1,1399,1478,0,0
182,-454,0,0,0,0,0,0,0,0,0,-1,1406,1478,0,0
189,-454,0,0,0,0,0,0,0,0,0,-1,1413,1478,0,0
196,-454,0,0,0,0,0,0,0,0,0,-1,1420,1478,0,0
203,-454,0,0,0,0,0,0,0,0,0,-1,1427,1478,0,0
210,-454,0,0,0,0,0,0,0,0,0,-1,1434,1478,0,0
217,-454,0,0,0,0,0,0,0,0,0,-1,1441,1478,0,0
224,-454,0,0,0,0,0,0,0,0,0,-1,1448,1478,0,0
231,-454,0,0,0,0,0,0,0,0,0,-1,1455,1478,0,0
238,-454,0,0,0,0,0,0,0,0,0,-1,1462,1478,0,0
245,-454,0,0,0,0,0,0,0,0,0,-1,1469,1478,0,0
252,-454,0,0,0,0,0,0,0,0,0,-1,1476,1478,0,0
259,-454,0,0,0,0,0,0,0,0,0,-1,1483,1478,0,0
266,-454,0,0,0,0,0,0,0,0,0,-1,1490,1478,0,0
273,-454,0,0,0,0,0,0,0,0,0,-1,1497,1478,0,0
280,-454,0,0,0,0,0,0,0,0,0,-1,1504,1478,0,0
287,-454,0,0,0,0,0,0,0,0,0,-1,1511,1478,0,0
294,-454,0,0,0,0,0,0,0,0,0,-1,1518,1478,0,0
301,-454,0,0,0,0,0,0,0,0,0,-1,1525,1478,0,0
308,-454,0,0,0,0,0,0,0,0,0,-1,1532,1478,0,0
315,-454,0,0,0,0,0,0,0,0,0,-1,1539,1478,0,0
322,-454,0,0,0,0,0,0,0,0,0,-1,1546,1478,0,0
329,-454,0,0,0,0,0,0,0,0,0,-1,1553,1478,0,0
336,-454,0,0,0,0,0,0,0,0,0,-1,1560,1478,0,0
343,-454,0,0,0,0,0,0,0,0,0,-1,1567,1478,0,0
350,-454,0,0,0,0,0,0,0,0,0,-1,1574,1478,0,0
357,-454,0,0,0,0,0,0,0,0,0,-1,1581,1478,0,0
364,-454,0,0,0,0,0,0,0,0,0,-1,1588,1478,0,0
371,-454,0,0,0,0,0,0,0,0,0,-1,1595,1478,0,0
378,-454,0,0,0,0,0,0,0,0,0,-1,1602,1478,0,0
385,-454,0,0,0,0,0,0,0,0,0,-1,1609,1478,0,0
392,-454,0,0,0,0,0,0,0,0,0,-1,1616,1478,0,0
399,-454,0,0,0,0,0,0,0,0,0,-1,1623,1478,0,0
406,-454,0,0,0,0,0,0,0,0,0,-1,1630,1478,0,0
413,-454,0,0,0,0,0,0,0,0,0,-1,1637,1478,0,0
420,-454,0,0,0,0,0,0,0,0,0,-1,1644,1478,0,0
427,-454,0,0,0,0,0,0,0,0,0,-1,1651,1478,0,0
434,-454,0,0,0,0,0,0,0,0,0,-1,1658,1478,0,0
441,-454,0,0,0,0,0,0,0,0,0,-1,1665,1478,0,0
448,-454,0,0,0,0,0,0,0,0,0,-1,1672,1478,0,0
455,-454,0,0,0,0,0,0,0,0,0,-1,1679,1478,0,0
462,-454,0,0,0,0,0,0,0,0,0,-1,1686,1478,0,0
469,-454,0,0,0,0,0,0,0,0,0,-1,1693,1478,0,0
476,-454,0,0,0,0,0,0,0,0,0,-1,1700,1478,0,0
483,-454,14.2399,3.97498,0,0,0,0,0,0,0,-1,1707,1478,14.2399,-3.97502
490,-454,18.1821,-0.175781,0,0,0,0,0,0,0,-1,1714,1478,18.1821,0.175822
497,-454,16.8854,1.01208,0,0,0,0,0,0,0,-1,1721,1478,16.8854,-1.01209
504,-454,15.587,2.05994,0,0,0,0,0,0,0,-1,1728,1478,15.5871,-2.05998
511,-454,17.0273,14.5258,0,0,0,0,0,0,0,-1,1735,1478,17.0273,-14.5258
518,-454,16.4158,13.1039,0,0,0,0,0,0,0,-1,1742,1478,16.4157,-13.1038
525,-454,15.7842,11.6628,0,0,0,0,0,0,0,-1,1749,1478,15.7841,-11.6629
532,-454,15.1094,10.2476,0,0,0,0,0,0,0,-1,1756,1478,15.1094,-10.2475
539,-454,13.7905,10.9373,0,0,0,0,0,0,0,-1,1763,1478,13.7906,-10.9372
546,-454,16.2002,13.2458,0,0,0,0,0,0,0,-1,1770,1478,16.2002,-13.2459
553,-454,15.6747,12.1868,0,0,0,0,0,0,0,-1,1777,1478,15.6747,-12.1868
560,-454,16.3895,14.0527,0,0,0,0,0,0,0,-1,1784,1478,16.3895,-14.0528
567,-454,16.8636,13.9276,-0.00854571,-0.00174157,0.00859237,0.00409773,-0.014385,0.973899,0.0112084,0.0467269,1791,1478,16.8636,-13.9276
574,-454,16.6898,13.4988,-0.00590134,-0.000766345,0.00572129,0.00293714,-0.00960482,0.99631,0.00757452,0.022253,1798,1478,16.6898,-13.4988
581,-454,16.652,13.1572,-0.00400486,-6.4317e-05,0.00362226,0.00208885,-0.00615803,1.03449,0.00495077,0.0143871,1805,1478,16.652,-13.1572
588,-454,16.6692,12.8002,-0.00229967,0.000525091,0.00173366,0.00134886,-0.00312344,1.12721,0.00264898,0.0119549,1812,1478,16.6691,-12.8002
595,-454,16.6459,12.4668,-0.00109716,0.000763171,0.000746754,0.00102584,-0.00135983,1.23257,0.00138186,0.0119417,1819,1478,16.6459,-12.4668
602,-454,16.6429,12.1123,-0.000363649,0.000640931,0.000410914,0.000787598,-0.000510316,1.22796,0.00075503,0.0085843,1826,1478,16.6429,-12.1123
609,-454,16.6406,11.7633,0.0002535,0.000280412,0.00026457,0.000531868,2.04428e-06,0.810807,0.000353899,0.00990739,1833,1478,16.6406,-11.7633
616,-454,16.649,11.4207,0.000747696,-0.000189164,0.000330043,0.000852289,-0.000293757,0.306894,0.000687364,0.0129173,1840,1478,16.649,-11.4206
623,-454,16.663,11.0746,0.0012408,-0.00090459,0.000523114,0.00136156,-0.00102534,0.226865,0.00138263,0.0113555,1847,1478,16.663,-11.0745
630,-454,16.6547,10.735,0.00167487,-0.00162265,0.000895281,0.00190226,-0.00185004,0.248728,0.00216646,0.0104292,1854,1478,16.6546,-10.735
637,-454,16.6189,10.394,0.00197373,-0.00238808,0.00145897,0.00241674,-0.00283109,0.294799,0.00303298,0.00998224,1861,1478,16.6189,-10.394
644,-454,16.3372,10.0438,0,0,0,0,0,0,0,-1,1868,1478,16.3371,-10.0438
651,-454,16.4735,9.89539,0.00266233,-0.00398402,0.0028719,0.00373134,-0.00505303,0.356341,0.00509076,0.0459278,1875,1478,16.4735,-9.89537
658,-454,16.5743,9.70789,0.00296942,-0.00485835,0.00388314,0.0045689,-0.00645783,0.390727,0.00639735,0.0443027,1882,1478,16.5743,-9.70787
665,-454,16.9874,9.49414,0,0,0,0,0,0,0,-1,1889,1478,16.9874,-9.49418
672,-454,16.5476,6.41931,0,0,0,0,0,0,0,-1,1896,1478,16.5476,-6.41929
679,-454,14.2161,5.45007,0,0,0,0,0,0,0,-1,1903,1478,14.2161,-5.45013
686,-454,10.3767,2.12842,0,0,0,0,0,0,0,-1,1910,1478,10.3767,-2.12839
693,-454,11.1857,1.48486,0,0,0,0,0,0,0,-1,1917,1478,11.1857,-1.48487
700,-454,0,0,0,0,0,0,0,0,0,-1,1924,1478,0,0
707,-454,0,0,0,0,0,0,0,0,0,-1,1931,1478,0,0
714,-454,0,0,0,0,0,0,0,0,0,-1,1938,1478,0,0
721,-454,0,0,0,0,0,0,0,0,0,-1,1945,1478,0,0
728,-454,0,0,0,0,0,0,0,0,0,-1,1952,1478,0,0
735,-454,0,0,0,0,0,0,0,0,0,-1,1959,1478,0,0
742,-454,0,0,0,0,0,0,0,0,0,-1,1966,1478,0,0
749,-454,0,0,0,0,0,0,0,0,0,-1,1973,1478,0,0
756,-454,0,0,0,0,0,0,0,0,0,-1,1980,1478,0,0
763,-454,0,0,0,0,0,0,0,0,0,-1,1987,1478,0,0
770,-454,0,0,0,0,0,0,0,0,0,-1,1994,1478,0,0
777,-454,0,0,0,0,0,0,0,0,0,-1,2001,1478,0,0
784,-454,0,0,0,0,0,0,0,0,0,-1,2008,1478,0,0
791,-454,0,0,0,0,0,0,0,0,0,-1,2015,1478,0,0
798,-454,0,0,0,0,0,0,0,0,0,-1,2022,1478,0,0
805,-454,0,0,0,0,0,0,0,0,0,-1,2029,1478,0,0
812,-454,0,0,0,0,0,0,0,0,0,-1,2036,1478,0,0
-700,-461,0,0,0,0,0,0,0,0,0,-1,524,1485,0,0
-693,-461,0,0,0,0,0,0,0,0,0,-1,531,1485,0,0
-686,-461,0,0,0,0,0,0,0,0,0,-1,538,1485,0,0
-679,-461,0,0,0,0,0,0,0,0,0,-1,545,1485,0,0
-672,-461,0,0,0,0,0,0,0,0,0,-1,552,1485,0,0
-665,-461,0,0,0,0,0,0,0,0,0,-1,559,1485,0,0
-658,-461,0,0,0,0,0,0,0,0,0,-1,566,1485,0,0
-651,-461,0,0,0,0,0,0,0,0,0,-1,573,1485,0,0
-644,-461,0,0,0,0,0,0,0,0,0,-1,580,1485,0,0
-637,-461,0,0,0,0,0,0,0,0,0,-1,587,1485,0,0
-630,-461,0,0,0,0,0,0,0,0,0,-1,594,1485,0,0
-623,-461,0,0,0,0,0,0,0,0,0,-1,601,1485,0,0
-616,-461,0,0,0,0,0,0,0,0,0,-1,608,1485,0,0
-609,-461,0,0,0,0,0,0,0,0,0,-1,615,1485,0,0
-602,-461,0,0,0,0,0,0,0,0,0,-1,622,1485,0,0
-595,-461,0,0,0,0,0,0,0,0,0,-1,629,1485,0,0
-588,-461,0,0,0,0,0,0,0,0,0,-1,636,1485,0,0
-581,-461,0,0,0,0,0,0,0,0,0,-1,643,1485,0,0
-574,-461,0,0,0,0,0,0,0,0,0,-1,650,1485,0,0
-567,-461,-9.69031,0.513306,0,0,0,0,0,0,0,-1,657,1485,-9.69032,-0.513305
-560,-461,-7.28815,1.54004,0,0,0,0,0,0,0,-1,664,1485,-7.28817,-1.54005
-553,-461,-11.9607,5.27783,0,0,0,0,0,0,0,-1,671,1485,-11.9607,-5.27778
-546,-461,-11.4215,4.44666,0,0,0,0,0,0,0,-1,678,1485,-11.4215,-4.4467
-539,-461,-9.36493,5.23438,0,0,0,0,0,0,0,-1,685,1485,-9.3649,-5.23432
-532,-461,-6.91913,6.02698,0,0,0,0,0,0,0,-1,692,1485,-6.91914,-6.02698
-525,-461,-5.90186,6.71448,0.0251947,0.0682261,0.0419636,0.0938683,-0.00044753,1.02229,0.0627286,0.0479207,699,1485,-5.90186,-6.71442
-518,-461,-4.72437,7.66663,0.0194383,0.0505606,0.0317796,0.0703843,-0.00038546,1.01307,0.0470519,0.0437632,706,1485,-4.72438,-7.66661
-511,-461,-4.6272,8.20129,0.0143923,0.0366643,0.0234934,0.0515273,-0.000470703,1.00672,0.0345095,0.0307878,713,1485,-4.62717,-8.20134
-504,-461,-4.72607,8.49976,0.0103288,0.025868,0.0169072,0.0367054,-0.000508567,1.00078,0.0246415,0.0174161,720,1485,-4.7261,-8.49981
-497,-461,-4.69037,8.94482,0.00721329,0.017539,0.0117023,0.0251667,-0.000414398,0.993147,0.0169176,0.0120777,727,1485,-4.69037,-8.9448
-490,-461,-4.7193,9.31689,0.00492398,0.0110575,0.00768528,0.0162653,-0.000283842,0.975238,0.0109394,0.0129532,734,1485,-4.71927,-9.31691
-483,-461,-4.73987,9.69348,0.00329649,0.00601412,0.00452374,0.00937871,-6.81025e-05,0.931298,0.0062753,0.0115016,741,1485,-4.73988,-9.6935
-476,-461,-4.75909,10.0707,0.00224925,0.00156271,0.00196613,0.00390186,-8.9897e-05,0.698973,0.00263171,0.0104589,748,1485,-4.75907,-10.0707
-469,-461,-4.76361,10.453,0.00140681,-0.001847,-5.74528e-05,0.00140782,-0.00184802,-0.0176497,0.00188548,0.0125995,755,1485,-4.76359,-10.453
-462,-461,-4.79553,10.8159,0.00127524,-0.00433844,-0.00124647,0.00153956,-0.00460276,-0.208961,0.00369034,0.0176218,762,1485,-4.79553,-10.816
-455,-461,-4.79443,11.1879,0.00172941,-0.00642243,-0.0019774,0.00218375,-0.00687677,-0.225846,0.00545999,0.0202979,769,1485,-4.79442,-11.1879
-448,-461,-4.73029,11.5968,0.00243719,-0.00845449,-0.00244041,0.00295899,-0.00897629,-0.210646,0.00717682,0.0168529,776,1485,-4.73031,-11.5968
-441,-461,-4.72406,11.9884,0.00323544,-0.0108997,-0.00286366,0.00379356,-0.0114578,-0.192484,0.0091685,0.0169717,783,1485,-4.72404,-11.9884
-434,-461,-4.50452,12.3516,0.00406109,-0.0138919,-0.00335978,0.00466924,-0.0145001,-0.179072,0.0115424,0.0245563,790,1485,-4.50451,-12.3515
-427,-461,-4.41895,12.5688,0.00512565,-0.0171444,-0.00376063,0.00574355,-0.0177623,-0.162851,0.0141501,0.035296,797,1485,-4.41897,-12.5689
-420,-461,-4.54645,13.0929,0,0,0,0,0,0,0,-1,804,1485,-4.54643,-13.093
-413,-461,-4.43738,12.3955,0,0,0,0,0,0,0,-1,811,1485,-4.43737,-12.3956
-406,-461,-4.95618,12.4502,0,0,0,0,0,0,0,-1,818,1485,-4.95617,-12.4502
-399,-461,-1.93439,9.82849,0,0,0,0,0,0,0,-1,825,1485,-1.9344,-9.82846
-392,-461,-0.357544,5.55225,0,0,0,0,0,0,0,-1,832,1485,-0.357536,-5.55228
-385,-461,1.71509,3.35254,0,0,0,0,0,0,0,-1,839,1485,1.71511,-3.35255
-378,-461,1.95996,3.01111,0,0,0,0,0,0,0,-1,846,1485,1.95993,-3.01111
-371,-461,0.702881,2.33459,0,0,0,0,0,0,0,-1,853,1485,0.702859,-2.33459
-364,-461,-1.93097,2.56458,0,0,0,0,0,0,0,-1,860,1485,-1.93095,-2.56456
-357,-461,-2.41516,3.49487,0,0,0,0,0,0,0,-1,867,1485,-2.41517,-3.49487
-350,-461,0,0,0,0,0,0,0,0,0,-1,874,1485,0,0
-343,-461,0,0,0,0,0,0,0,0,0,-1,881,1485,0,0
-336,-461,0,0,0,0,0,0,0,0,0,-1,888,1485,0,0
-329,-461,0,0,0,0,0,0,0,0,0,-1,895,1485,0,0
-322,-461,0,0,0,0,0,0,0,0,0,-1,902,1485,0,0
-315,-461,0,0,0,0,0,0,0,0,0,-1,909,1485,0,0
-308,-461,0,0,0,0,0,0,0,0,0,-1,916,1485,0,0
-301,-461,0,0,0,0,0,0,0,0,0,-1,923,1485,0,0
-294,-461,0,0,0,0,0,0,0,0,0,-1,930,1485,0,0
-287,-461,0,0,0,0,0,0,0,0,0,-1,937,1485,0,0
-280,-461,0,0,0,0,0,0,0,0,0,-1,944,1485,0,0
-273,-461,0,0,0,0,0,0,0,0,0,-1,951,1485,0,0
-266,-461,0,0,0,0,0,0,0,0,0,-1,958,1485,0,0
-259,-461,0,0,0,0,0,0,0,0,0,-1,965,1485,0,0
-252,-461,0,0,0,0,0,0,0,0,0,-1,972,1485,0,0
-245,-461,0,0,0,0,0,0,0,0,0,-1,979,1485,0,0
-238,-461,0,0,0,0,0,0,0,0,0,-1,986,1485,0,0
-231,-461,0,0,0,0,0,0,0,0,0,-1,993,1485,0,0
-224,-461,0,0,0,0,0,0,0,0,0,-1,1000,1485,0,0
-217,-461,0,0,0,0,0,0,0,0,0,-1,1007,1485,0,0
-210,-461,0,0,0,0,0,0,0,0,0,-1,1014,1485,0,0
-203,-461,0,0,0,0,0,0,0,0,0,-1,1021,1485,0,0
-196,-461,0,0,0,0,0,0,0,0,0,-1,1028,1485,0,0
-189,-461,0,0,0,0,0,0,0,0,0,-1,1035,1485,0,0
-182,-461,0,0,0,0,0,0,0,0,0,-1,1042,1485,0,0
-175,-461,0,0,0,0,0,0,0,0,0,-1,1049,1485,0,0
-168,-461,0,0,0,0,0,0,0,0,0,-1,1056,1485,0,0
-161,-461,0,0,0,0,0,0,0,0,0,-1,1063,1485,0,0
-154,-461,0,0,0,0,0,0,0,0,0,-1,1070,1485,0,0
-147,-461,0,0,0,0,0,0,0,0,0,-1,1077,1485,0,0
-140,-461,0,0,0,0,0,0,0,0,0,-1,1084,1485,0,0
-133,-461,0,0,0,0,0,0,0,0,0,-1,1091,1485,0,0
-126,-461,0,0,0,0,0,0,0,0,0,-1,1098,1485,0,0
-119,-461,0,0,0,0,0,0,0,0,0,-1,1105,1485,0,0
-112,-461,0,0,0,0,0,0,0,0,0,-1,1112,1485,0,0
-105,-461,0,0,0,0,0,0,0,0,0,-1,1119,1485,0,0
-98,-461,0,0,0,0,0,0,0,0,0,-1,1126,1485,0,0
-91,-461,0,0,0,0,0,0,0,0,0,-1,1133,1485,0,0
-84,-461,0,0,0,0,0,0,0,0,0,-1,1140,1485,0,0
-77,-461,0,0,0,0,0,0,0,0,0,-1,1147,1485,0,0
-70,-461,0,0,0,0,0,0,0,0,0,-1,1154,1485,0,0
-63,-461,0,0,0,0,0,0,0,0,0,-1,1161,1485,0,0
-56,-461,0,0,0,0,0,0,0,0,0,-1,1168,1485,0,0
-49,-461,0,0,0,0,0,0,0,0,0,-1,1175,1485,0,0
-42,-461,0,0,0,0,0,0,0,0,0,-1,1182,1485,0,0
-35,-461,0,0,0,0,0,0,0,0,0,-1,1189,1485,0,0
-28,-461,0,0,0,0,0,0,0,0,0,-1,1196,1485,0,0
-21,-461,0,0,0,0,0,0,0,0,0,-1,1203,1485,0,0
-14,-461,0,0,0,0,0,0,0,0,0,-1,1210,1485,0,0
-7,-461,0,0,0,0,0,0,0,0,0,-1,1217,1485,0,0
0,-461,0,0,0,0,0,0,0,0,0,-1,1224,1485,0,0
7,-461,0,0,0,0,0,0,0,0,0,-1,1231,1485,0,0
14,-461,0,0,0,0,0,0,0,0,0,-1,1238,1485,0,0
21,-461,0,0,0,0,0,0,0,0,0,-1,1245,1485,0,0
28,-461,0,0,0,0,0,0,0,0,0,-1,1252,1485,0,0
35,-461,0,0,0,0,0,0,0,0,0,-1,1259,1485,0,0
42,-461,0,0,0,0,0,0,0,0,0,-1,1266,1485,0,0
49,-461,0,0,0,0,0,0,0,0,0,-1,1273,1485,0,0
56,-461,0,0,0,0,0,0,0,0,0,-1,1280,1485,0,0
63,-461,0,0,0,0,0,0,0,0,0,-1,1287,1485,0,0
70,-461,0,0,0,0,0,0,0,0,0,-1,1294,1485,0,0
77,-461,0,0,0,0,0,0,0,0,0,-1,1301,1485,0,0
84,-461,0,0,0,0,0,0,0,0,0,-1,1308,1485,0,0
91,-461,0,0,0,0,0,0,0,0,0,-1,1315,1485,0,0
98,-461,0,0,0,0,0,0,0,0,0,-1,1322,1485,0,0
105,-461,0,0,0,0,0,0,0,0,0,-1,1329,1485,0,0
112,-461,0,0,0,0,0,0,0,0,0,-1,1336,1485,0,0
119,-461,0,0,0,0,0,0,0,0,0,-1,1343,1485,0,0
126,-461,0,0,0,0,0,0,0,0,0,-1,1350,1485,0,0
133,-461,0,0,0,0,0,0,0,0,0,-1,1357,1485,0,0
140,-461,0,0,0,0,0,0,0,0,0,-1,1364,1485,0,0
147,-461,0,0,0,0,0,0,0,0,0,-1,1371,1485,0,0
154,-461,0,0,0,0,0,0,0,0,0,-1,1378,1485,0,0
161,-461,0,0,0,0,0,0,0,0,0,-1,1385,1485,0,0
168,-461,0,0,0,0,0,0,0,0,0,-1,1392,1485,0,0
175,-461,0,0,0,0,0,0,0,0,0,-1,1399,1485,0,0
182,-461,0,0,0,0,0,0,0,0,0,-1,1406,1485,0,0
189,-461,0,0,0,0,0,0,0,0,0,-1,1413,1485,0,0
196,-461,0,0,0,0,0,0,0,0,0,-1,1420,1485,0,0
203,-461,0,0,0,0,0,0,0,0,0,-1,1427,1485,0,0
210,-461,0,0,0,0,0,0,0,0,0,-1,1434,1485,0,0
217,-461,0,0,0,0,0,0,0,0,0,-1,1441,1485,0,0
224,-461,0,0,0,0,0,0,0,0,0,-1,1448,1485,0,0
231,-461,0,0,0,0,0,0,0,0,0,-1,1455,1485,0,0
238,-461,0,0,0,0,0,0,0,0,0,-1,1462,1485,0,0
245,-461,0,0,0,0,0,0,0,0,0,-1,1469,1485,0,0
252,-461,0,0,0,0,0,0,0,0,0,-1,1476,1485,0,0
259,-461,0,0,0,0,0,0,0,0,0,-1,1483,1485,0,0
266,-461,0,0,0,0,0,0,0,0,0,-1,1490,1485,0,0
273,-461,0,0,0,0,0,0,0,0,0,-1,1497,1485,0,0
280,-461,0,0,0,0,0,0,0,0,0,-1,1504,1485,0,0
287,-461,0,0,0,0,0,0,0,0,0,-1,1511,1485,0,0
294,-461,0,0,0,0,0,0,0,0,0,-1,1518,1485,0,0
301,-461,0,0,0,0,0,0,0,0,0,-1,1525,1485,0,0
308,-461,0,0,0,0,0,0,0,0,0,-1,1532,1485,0,0
315,-461,0,0,0,0,0,0,0,0,0,-1,1539,1485,0,0
322,-461,0,0,0,0,0,0,0,0,0,-1,1546,1485,0,0
329,-461,0,0,0,0,0,0,0,0,0,-1,1553,1485,0,0
336,-461,0,0,0,0,0,0,0,0,0,-1,1560,1485,0,0
343,-461,0,0,0,0,0,0,0,0,0,-1,1567,1485,0,0
350,-461,0,0,0,0,0,0,0,0,0,-1,1574,1485,0,0
357,-461,0,0,0,0,0,0,0,0,0,-1,1581,1485,0,0
364,-461,0,0,0,0,0,0,0,0,0,-1,1588,1485,0,0
371,-461,0,0,0,0,0,0,0,0,0,-1,1595,1485,0,0
378,-461,0,0,0,0,0,0,0,0,0,-1,1602,1485,0,0
385,-461,0,0,0,0,0,0,0,0,0,-1,1609,1485,0,0
392,-461,0,0,0,0,0,0,0,0,0,-1,1616,1485,0,0
399,-461,0,0,0,0,0,0,0,0,0,-1,1623,1485,0,0
406,-461,0,0,0,0,0,0,0,0,0,-1,1630,1485,0,0
413,-461,0,0,0,0,0,0,0,0,0,-1,1637,1485,0,0
420,-461,0,0,0,0,0,0,0,0,0,-1,1644,1485,0,0
427,-461,0,0,0,0,0,0,0,0,0,-1,1651,1485,0,0
434,-461,0,0,0,0,0,0,0,0,0,-1,1658,1485,0,0
441,-461,0,0,0,0,0,0,0,0,0,-1,1665,1485,0,0
448,-461,0,0,0,0,0,0,0,0,0,-1,1672,1485,0,0
455,-461,0,0,0,0,0,0,0,0,0,-1,1679,1485,0,0
462,-461,0,0,0,0,0,0,0,0,0,-1,1686,1485,0,0
469,-461,0,0,0,0,0,0,0,0,0,-1,1693,1485,0,0
476,-461,14.1906,0.690552,0,0,0,0,0,0,0,-1,1700,1485,14.1906,-0.690525
483,-461,10.6361,3.09106,0,0,0,0,0,0,0,-1,1707,1485,10.6361,-3.091
490,-461,17.9972,0.665894,0,0,0,0,0,0,0,-1,1714,1485,17.9972,-0.665876
497,-461,16.6829,1.87732,0,0,0,0,0,0,0,-1,1721,1485,16.6828,-1.87736
504,-461,15.3884,3.09216,0,0,0,0,0,0,0,-1,1728,1485,15.3885,-3.09212
511,-461,15.4292,14.3512,0,0,0,0,0,0,0,-1,1735,1485,15.4292,-14.3512
518,-461,14.8081,10.0085,0,0,0,0,0,0,0,-1,1742,1485,14.8081,-10.0086
525,-461,14.0022,10.8033,0,0,0,0,0,0,0,-1,1749,1485,14.0022,-10.8033
532,-461,17.1704,14.077,0,0,0,0,0,0,0,-1,1756,1485,17.1704,-14.077
539,-461,16.8231,13.2952,0,0,0,0,0,0,0,-1,1763,1485,16.8231,-13.2952
546,-461,16.2106,14.1372,0,0,0,0,0,0,0,-1,1770,1485,16.2106,-14.1372
553,-461,16.2708,14.2891,0,0,0,0,0,0,0,-1,1777,1485,16.2707,-14.289
560,-461,16.181,13.9935,-0.0102603,-0.00390363,0.0114311,0.00478281,-0.0189467,0.920994,0.0144909,0.0488976,1784,1485,16.181,-13.9936
567,-461,16.3453,13.7634,-0.00710389,-0.00222093,0.00775359,0.00346649,-0.0127913,0.937926,0.00988771,0.0207141,1791,1485,16.3453,-13.7635
574,-461,16.3367,13.4758,-0.00481517,-0.00119435,0.00515084,0.00245498,-0.00846449,0.954394,0.00661496,0.01805,1798,1485,16.3367,-13.4759
581,-461,16.3417,13.1411,-0.00314128,-0.000472618,0.00324833,0.00170475,-0.00531865,0.980279,0.00423012,0.0147708,1805,1485,16.3417,-13.1412
588,-461,16.3148,12.8264,-0.00155777,8.07594e-05,0.00147459,0.000948385,-0.0024254,1.03896,0.00200911,0.0109408,1812,1485,16.3148,-12.8265
595,-461,16.2915,12.4922,-0.000446078,0.000341173,0.000552422,0.000625863,-0.000730767,1.09495,0.000784031,0.00896434,1819,1485,16.2915,-12.4922
602,-461,16.3054,12.131,0.000236943,0.000214626,0.000279732,0.00050574,-5.417e-05,0.765463,0.000356591,0.00922027,1826,1485,16.3054,-12.131
609,-461,16.3026,11.7725,0.000847297,-0.000141805,0.00016273,0.000873382,-0.000167889,0.158944,0.000645537,0.0105067,1833,1485,16.3026,-11.7725
616,-461,16.3013,11.4281,0.00137477,-0.000635139,0.000245619,0.00140435,-0.00066472,0.119854,0.00121975,0.0128064,1840,1485,16.3013,-11.428
623,-461,16.3083,11.0938,0.00191653,-0.00136221,0.000481829,0.00198587,-0.00143155,0.142931,0.00198168,0.0128319,1847,1485,16.3083,-11.0938
630,-461,16.309,10.7617,0.00240976,-0.00216774,0.000940448,0.00259544,-0.00235342,0.194934,0.00285836,0.0120442,1854,1485,16.3089,-10.7617
637,-461,16.2986,10.4257,0.00285491,-0.00303841,0.00157534,0.00324958,-0.00343308,0.245478,0.00385872,0.0127192,1861,1485,16.2986,-10.4257
644,-461,16.3149,10.1656,0.00337689,-0.00401046,0.00235067,0.00406144,-0.00469502,0.283379,0.00505995,0.0293678,1868,1485,16.3149,-10.1656
651,-461,16.0508,9.96924,0.00399809,-0.005027,0.00327358,0.00506043,-0.00608934,0.313798,0.00644645,0.0421854,1875,1485,16.0508,-9.9693
658,-461,16.3058,9.62769,0.00470737,-0.00622001,0.00450392,0.00632445,-0.00783708,0.344703,0.0081917,0.0471396,1882,1485,16.3058,-9.62772
665,-461,16.7384,9.37012,0,0,0,0,0,0,0,-1,1889,1485,16.7384,-9.37016
672,-461,14.4877,6.89429,0,0,0,0,0,0,0,-1,1896,1485,14.4876,-6.89431
679,-461,10.0535,2.16321,0,0,0,0,0,0,0,-1,1903,1485,10.0535,-2.16317
686,-461,10.8195,1.84192,0,0,0,0,0,0,0,-1,1910,1485,10.8194,-1.84195
693,-461,0,0,0,0,0,0,0,0,0,-1,1917,1485,0,0
700,-461,0,0,0,0,0,0,0,0,0,-1,1924,1485,0,0
707,-461,0,0,0,0,0,0,0,0,0,-1,1931,1485,0,0
714,-461,0,0,0,0,0,0,0,0,0,-1,1938,1485,0,0
721,-461,0,0,0,0,0,0,0,0,0,-1,1945,1485,0,0
728,-461,0,0,0,0,0,0,0,0,0,-1,1952,1485,0,0
735,-461,0,0,0,0,0,0,0,0,0,-1,1959,1485,0,0
742,-461,0,0,0,0,0,0,0,0,0,-1,1966,1485,0,0
749,-461,0,0,0,0,0,0,0,0,0,-1,1973,1485,0,0
756,-461,0,0,0,0,0,0,0,0,0,-1,1980,1485,0,0
763,-461,0,0,0,0,0,0,0,0,0,-1,1987,1485,0,0
770,-461,0,0,0,0,0,0,0,0,0,-1,1994,1485,0,0
777,-461,0,0,0,0,0,0,0,0,0,-1,2001,1485,0,0
784,-461,0,0,0,0,0,0,0,0,0,-1,2008,1485,0,0
791,-461,0,0,0,0,0,0,0,0,0,-1,2015,1485,0,0
798,-461,0,0,0,0,0,0,0,0,0,-1,2022,1485,0,0
805,-461,0,0,0,0,0,0,0,0,0,-1,2029,1485,0,0
812,-461,0,0,0,0,0,0,0,0,0,-1,2036,1485,0,0
-700,-468,0,0,0,0,0,0,0,0,0,-1,524,1492,0,0
-693,-468,0,0,0,0,0,0,0,0,0,-1,531,1492,0,0
-686,-468,0,0,0,0,0,0,0,0,0,-1,538,1492,0,0
-679,-468,0,0,0,0,0,0,0,0,0,-1,545,1492,0,0
-672,-468,0,0,0,0,0,0,0,0,0,-1,552,1492,0,0
-665,-468,0,0,0,0,0,0,0,0,0,-1,559,1492,0,0
-658,-468,0,0,0,0,0,0,0,0,0,-1,566,1492,0,0
-651,-468,0,0,0,0,0,0,0,0,0,-1,573,1492,0,0
-644,-468,0,0,0,0,0,0,0,0,0,-1,580,1492,0,0
-637,-468,0,0,0,0,0,0,0,0,0,-1,587,1492,0,0
-630,-468,0,0,0,0,0,0,0,0,0,-1,594,1492,0,0
-623,-468,0,0,0,0,0,0,0,0,0,-1,601,1492,0,0
-616,-468,0,0,0,0,0,0,0,0,0,-1,608,1492,0,0
-609,-468,0,0,0,0,0,0,0,0,0,-1,615,1492,0,0
-602,-468,0,0,0,0,0,0,0,0,0,-1,622,1492,0,0
-595,-468,0,0,0,0,0,0,0,0,0,-1,629,1492,0,0
-588,-468,0,0,0,0,0,0,0,0,0,-1,636,1492,0,0
-581,-468,0,0,0,0,0,0,0,0,0,-1,643,1492,0,0
-574,-468,0,0,0,0,0,0,0,0,0,-1,650,1492,0,0
-567,-468,-11.2603,1.8042,0,0,0,0,0,0,0,-1,657,1492,-11.2603,-1.80424
-560,-468,-8.77441,2.23694,0,0,0,0,0,0,0,-1,664,1492,-8.77443,-2.23692
-553,-468,-5.94061,9.26318,0,0,0,0,0,0,0,-1,671,1492,-5.94062,-9.26322
-546,-468,-10.47,5.43237,0,0,0,0,0,0,0,-1,678,1492,-10.47,-5.4324
-539,-468,-10.2468,5.45203,0,0,0,0,0,0,0,-1,685,1492,-10.2468,-5.45197
-532,-468,-5.95966,6.32239,0,0,0,0,0,0,0,-1,692,1492,-5.95968,-6.3224
-525,-468,-5.29297,6.62122,0,0,0,0,0,0,0,-1,699,1492,-5.29297,-6.62127
-518,-468,-4.86584,7.1814,0.024673,0.0676515,0.0420716,0.0934042,-0.00107978,1.02151,0.0626325,0.0460972,706,1492,-4.86585,-7.18136
-511,-468,-4.25922,8.01672,0.017882,0.0490479,0.0310498,0.0682057,-0.00127575,1.01797,0.0459016,0.0434996,713,1492,-4.25919,-8.01677
-504,-468,-4.27435,8.53564,0.0124815,0.034612,0.0223388,0.0484759,-0.00138238,1.01535,0.0327878,0.0238911,720,1492,-4.27437,-8.53564
-497,-468,-4.33191,8.93494,0.00839511,0.0236039,0.0155458,0.0333055,-0.00130648,1.01287,0.0226517,0.0120431,727,1492,-4.3319,-8.93488
-490,-468,-4.33313,9.34338,0.00542367,0.0152666,0.0103551,0.0218102,-0.00111993,1.00723,0.0149275,0.00797844,734,1492,-4.33315,-9.34334
-483,-468,-4.35681,9.71643,0.0033982,0.00905379,0.00645138,0.0132699,-0.000817917,0.991949,0.00913147,0.00774775,741,1492,-4.35679,-9.71643
-476,-468,-4.35651,10.0873,0.00208033,0.00369183,0.00332357,0.00630593,-0.000533772,0.904321,0.0043927,0.00853708,748,1492,-4.35653,-10.0872
-469,-468,-4.35492,10.4658,0.00111246,-0.000139948,0.000974695,0.00164477,-0.000672262,0.49987,0.00137646,0.0126246,755,1492,-4.35491,-10.4659
-462,-468,-4.36053,10.8285,0.000977826,-0.00264773,-0.000328315,0.00100732,-0.00267722,-0.0895847,0.00219889,0.0221794,762,1492,-4.36054,-10.8285
-455,-468,-4.38635,11.1757,0.00156159,-0.00448539,-0.00101616,0.00172778,-0.00465158,-0.162114,0.00380989,0.0215734,769,1492,-4.38638,-11.1757
-448,-468,-4.37366,11.5717,0.00252898,-0.00578671,-0.00122871,0.00270673,-0.00596446,-0.143669,0.00512273,0.0133882,776,1492,-4.37368,-11.5716
-441,-468,-4.38574,11.9652,0.00367428,-0.00730752,-0.00128118,0.00382177,-0.007455,-0.114613,0.00662233,0.0125426,783,1492,-4.38573,-11.9653
-434,-468,-4.36847,12.3489,0.00493027,-0.0090916,-0.00128127,0.00504639,-0.00920771,-0.090379,0.00834569,0.0143163,790,1492,-4.36846,-12.3489
-427,-468,-4.28717,12.7283,0.0064432,-0.0109433,-0.00114663,0.00651849,-0.0110186,-0.065571,0.0102356,0.024663,797,1492,-4.28715,-12.7282
-420,-468,-4.20837,13.0442,0.00819674,-0.0127987,-0.000727607,0.00822193,-0.0128239,-0.0346002,0.0122472,0.0402739,804,1492,-4.20838,-13.0442
-413,-468,-3.96399,13.4043,0,0,0,0,0,0,0,-1,811,1492,-3.96396,-13.4043
-406,-468,-2.2356,9.396,0,0,0,0,0,0,0,-1,818,1492,-2.2356,-9.396
-399,-468,-0.940369,8.1936,0,0,0,0,0,0,0,-1,825,1492,-0.940365,-8.19357
-392,-468,-0.35144,8.14673,0,0,0,0,0,0,0,-1,832,1492,-0.351449,-8.14674
-385,-468,0.465759,5.35864,0,0,0,0,0,0,0,-1,839,1492,0.465732,-5.35864
-378,-468,1.99835,3.25391,0,0,0,0,0,0,0,-1,846,1492,1.99837,-3.2539
-371,-468,-0.31842,3.1532,0,0,0,0,0,0,0,-1,853,1492,-0.318441,-3.15324
-364,-468,-0.966736,2.14563,0,0,0,0,0,0,0,-1,860,1492,-0.966735,-2.14557
-357,-468,-3.06787,3.22742,0,0,0,0,0,0,0,-1,867,1492,-3.06784,-3.2274
-350,-468,-3.18658,4.12659,0,0,0,0,0,0,0,-1,874,1492,-3.18659,-4.12658
-343,-468,0,0,0,0,0,0,0,0,0,-1,881,1492,0,0
-336,-468,0,0,0,0,0,0,0,0,0,-1,888,1492,0,0
-329,-468,0,0,0,0,0,0,0,0,0,-1,895,1492,0,0
-322,-468,0,0,0,0,0,0,0,0,0,-1,902,1492,0,0
-315,-468,0,0,0,0,0,0,0,0,0,-1,909,1492,0,0
-308,-468,0,0,0,0,0,0,0,0,0,-1,916,1492,0,0
-301,-468,0,0,0,0,0,0,0,0,0,-1,923,1492,0,0
-294,-468,0,0,0,0,0,0,0,0,0,-1,930,1492,0,0
-287,-468,0,0,0,0,0,0,0,0,0,-1,937,1492,0,0
-280,-468,0,0,0,0,0,0,0,0,0,-1,944,1492,0,0
-273,-468,0,0,0,0,0,0,0,0,0,-1,951,1492,0,0
-266,-468,0,0,0,0,0,0,0,0,0,-1,958,1492,0,0
-259,-468,0,0,0,0,0,0,0,0,0,-1,965,1492,0,0
-252,-468,0,0,0,0,0,0,0,0,0,-1,972,1492,0,0
-245,-468,0,0,0,0,0,0,0,0,0,-1,979,1492,0,0
-238,-468,0,0,0,0,0,0,0,0,0,-1,986,1492,0,0
-231,-468,0,0,0,0,0,0,0,0,0,-1,993,1492,0,0
-224,-468,0,0,0,0,0,0,0,0,0,-1,1000,1492,0,0
-217,-468,0,0,0,0,0,0,0,0,0,-1,1007,1492,0,0
-210,-468,0,0,0,0,0,0,0,0,0,-1,1014,1492,0,0
-203,-468,0,0,0,0,0,0,0,0,0,-1,1021,1492,0,0
-196,-468,0,0,0,0,0,0,0,0,0,-1,1028,1492,0,0
-189,-468,0,0,0,0,0,0,0,0,0,-1,1035,1492,0,0
-182,-468,0,0,0,0,0,0,0,0,0,-1,1042,1492,0,0
-175,-468,0,0,0,0,0,0,0,0,0,-1,1049,1492,0,0
-168,-468,0,0,0,0,0,0,0,0,0,-1,1056,1492,0,0
-161,-468,0,0,0,0,0,0,0,0,0,-1,1063,1492,0,0
-154,-468,0,0,0,0,0,0,0,0,0,-1,1070,1492,0,0
-147,-468,0,0,0,0,0,0,0,0,0,-1,1077,1492,0,0
-140,-468,0,0,0,0,0,0,0,0,0,-1,1084,1492,0,0
-133,-468,0,0,0,0,0,0,0,0,0,-1,1091,1492,0,0
-126,-468,0,0,0,0,0,0,0,0,0,-1,1098,1492,0,0
-119,-468,0,0,0,0,0,0,0,0,0,-1,1105,1492,0,0
-112,-468,0,0,0,0,0,0,0,0,0,-1,1112,1492,0,0
-105,-468,0,0,0,0,0,0,0,0,0,-1,1119,1492,0,0
-98,-468,0,0,0,0,0,0,0,0,0,-1,1126,1492,0,0
-91,-468,0,0,0,0,0,0,0,0,0,-1,1133,1492,0,0
-84,-468,0,0,0,0,0,0,0,0,0,-1,1140,1492,0,0
-77,-468,0,0,0,0,0,0,0,0,0,-1,1147,1492,0,0
-70,-468,0,0,0,0,0,0,0,0,0,-1,1154,1492,0,0
-63,-468,0,0,0,0,0,0,0,0,0,-1,1161,1492,0,0
-56,-468,0,0,0,0,0,0,0,0,0,-1,1168,1492,0,0
-49,-468,0,0,0,0,0,0,0,0,0,-1,1175,1492,0,0
-42,-468,0,0,0,0,0,0,0,0,0,-1,1182,1492,0,0
-35,-468,0,0,0,0,0,0,0,0,0,-1,1189,1492,0,0
-28,-468,0,0,0,0,0,0,0,0,0,-1,1196,1492,0,0
-21,-468,0,0,0,0,0,0,0,0,0,-1,1203,1492,0,0
-14,-468,0,0,0,0,0,0,0,0,0,-1,1210,1492,0,0
-7,-468,0,0,0,0,0,0,0,0,0,-1,1217,1492,0,0
0,-468,0,0,0,0,0,0,0,0,0,-1,1224,1492,0,0
7,-468,0,0,0,0,0,0,0,0,0,-1,1231,1492,0,0
14,-468,0,0,0,0,0,0,0,0,0,-1,1238,1492,0,0
21,-468,0,0,0,0,0,0,0,0,0,-1,1245,1492,0,0
28,-468,0,0,0,0,0,0,0,0,0,-1,1252,1492,0,0
35,-468,0,0,0,0,0,0,0,0,0,-1,1259,1492,0,0
42,-468,0,0,0,0,0,0,0,0,0,-1,1266,1492,0,0
49,-468,0,0,0,0,0,0,0,0,0,-1,1273,1492,0,0
56,-468,0,0,0,0,0,0,0,0,0,-1,1280,1492,0,0
63,-468,0,0,0,0,0,0,0,0,0,-1,1287,1492,0,0
70,-468,0,0,0,0,0,0,0,0,0,-1,1294,1492,0,0
77,-468,0,0,0,0,0,0,0,0,0,-1,1301,1492,0,0
84,-468,0,0,0,0,0,0,0,0,0,-1,1308,1492,0,0
91,-468,0,0,0,0,0,0,0,0,0,-1,1315,1492,0,0
98,-468,0,0,0,0,0,0,0,0,0,-1,1322,1492,0,0
105,-468,0,0,0,0,0,0,0,0,0,-1,1329,1492,0,0
112,-468,0,0,0,0,0,0,0,0,0,-1,1336,1492,0,0
119,-468,0,0,0,0,0,0,0,0,0,-1,1343,1492,0,0
126,-468,0,0,0,0,0,0,0,0,0,-1,1350,1492,0,0
133,-468,0,0,0,0,0,0,0,0,0,-1,1357,1492,0,0
140,-468,0,0,0,0,0,0,0,0,0,-1,1364,1492,0,0
147,-468,0,0,0,0,0,0,0,0,0,-1,1371,1492,0,0
154,-468,0,0,0,0,0,0,0,0,0,-1,1378,1492,0,0
161,-468,0,0,0,0,0,0,0,0,0,-1,1385,1492,0,0
168,-468,0,0,0,0,0,0,0,0,0,-1,1392,1492,0,0
175,-468,0,0,0,0,0,0,0,0,0,-1,1399,1492,0,0
182,-468,0,0,0,0,0,0,0,0,0,-1,1406,1492,0,0
189,-468,0,0,0,0,0,0,0,0,0,-1,1413,1492,0,0
196,-468,0,0,0,0,0,0,0,0,0,-1,1420,1492,0,0
203,-468,0,0,0,0,0,0,0,0,0,-1,1427,1492,0,0
210,-468,0,0,0,0,0,0,0,0,0,-1,1434,1492,0,0
217,-468,0,0,0,0,0,0,0,0,0,-1,1441,1492,0,0
224,-468,0,0,0,0,0,0,0,0,0,-1,1448,1492,0,0
231,-468,0,0,0,0,0,0,0,0,0,-1,1455,1492,0,0
238,-468,0,0,0,0,0,0,0,0,0,-1,1462,1492,0,0
245,-468,0,0,0,0,0,0,0,0,0,-1,1469,1492,0,0
252,-468,0,0,0,0,0,0,0,0,0,-1,1476,1492,0,0
259,-468,0,0,0,0,0,0,0,0,0,-1,1483,1492,0,0
266,-468,0,0,0,0,0,0,0,0,0,-1,1490,1492,0,0
273,-468,0,0,0,0,0,0,0,0,0,-1,1497,1492,0,0
280,-468,0,0,0,0,0,0,0,0,0,-1,1504,1492,0,0
287,-468,0,0,0,0,0,0,0,0,0,-1,1511,1492,0,0
294,-468,0,0,0,0,0,0,0,0,0,-1,1518,1492,0,0
301,-468,0,0,0,0,0,0,0,0,0,-1,1525,1492,0,0
308,-468,0,0,0,0,0,0,0,0,0,-1,1532,1492,0,0
315,-468,0,0,0,0,0,0,0,0,0,-1,1539,1492,0,0
322,-468,0,0,0,0,0,0,0,0,0,-1,1546,1492,0,0
329,-468,0,0,0,0,0,0,0,0,0,-1,1553,1492,0,0
336,-468,0,0,0,0,0,0,0,0,0,-1,1560,1492,0,0
343,-468,0,0,0,0,0,0,0,0,0,-1,1567,1492,0,0
350,-468,0,0,0,0,0,0,0,0,0,-1,1574,1492,0,0
357,-468,0,0,0,0,0,0,0,0,0,-1,1581,1492,0,0
364,-468,0,0,0,0,0,0,0,0,0,-1,1588,1492,0,0
371,-468,0,0,0,0,0,0,0,0,0,-1,1595,1492,0,0
378,-468,0,0,0,0,0,0,0,0,0,-1,1602,1492,0,0
385,-468,0,0,0,0,0,0,0,0,0,-1,1609,1492,0,0
392,-468,0,0,0,0,0,0,0,0,0,-1,1616,1492,0,0
399,-468,0,0,0,0,0,0,0,0,0,-1,1623,1492,0,0
406,-468,0,0,0,0,0,0,0,0,0,-1,1630,1492,0,0
413,-468,0,0,0,0,0,0,0,0,0,-1,1637,1492,0,0
420,-468,0,0,0,0,0,0,0,0,0,-1,1644,1492,0,0
427,-468,0,0,0,0,0,0,0,0,0,-1,1651,1492,0,0
434,-468,0,0,0,0,0,0,0,0,0,-1,1658,1492,0,0
441,-468,0,0,0,0,0,0,0,0,0,-1,1665,1492,0,0
448,-468,0,0,0,0,0,0,0,0,0,-1,1672,1492,0,0
455,-468,0,0,0,0,0,0,0,0,0,-1,1679,1492,0,0
462,-468,0,0,0,0,0,0,0,0,0,-1,1686,1492,0,0
469,-468,15.6879,1.2677,0,0,0,0,0,0,0,-1,1693,1492,15.6879,-1.26772
476,-468,14.9318,1.61865,0,0,0,0,0,0,0,-1,1700,1492,14.9318,-1.61869
483,-468,11.265,4.64795,0,0,0,0,0,0,0,-1,1707,1492,11.265,-4.64798
490,-468,12.1316,3.51624,0,0,0,0,0,0,0,-1,1714,1492,12.1316,-3.51628
497,-468,16.5355,3.14587,0,0,0,0,0,0,0,-1,1721,1492,16.5356,-3.14583
504,-468,15.0642,4.10437,0,0,0,0,0,0,0,-1,1728,1492,15.0643,-4.10431
511,-468,15.6877,9.4801,0,0,0,0,0,0,0,-1,1735,1492,15.6878,-9.48007
518,-468,13.759,11.0887,0,0,0,0,0,0,0,-1,1742,1492,13.759,-11.0887
525,-468,16.6531,14.2238,0,0,0,0,0,0,0,-1,1749,1492,16.653,-14.2237
532,-468,16.7024,14.8293,0,0,0,0,0,0,0,-1,1756,1492,16.7024,-14.8294
539,-468,16.4927,14.8684,0,0,0,0,0,0,0,-1,1763,1492,16.4927,-14.8684
546,-468,16.1967,14.6085,0,0,0,0,0,0,0,-1,1770,1492,16.1967,-14.6085
553,-468,16.1508,14.3407,-0.011551,-0.00568279,0.0142605,0.0059423,-0.023176,0.886857,0.0177659,0.0410953,1777,1492,16.1507,-14.3406
560,-468,16.0153,14.1333,-0.00819883,-0.0039001,0.00987698,0.00405868,-0.0161576,0.892535,0.012349,0.0281583,1784,1492,16.0153,-14.1333
567,-468,15.9686,13.8556,-0.00556982,-0.002385,0.00669315,0.00290256,-0.0108574,0.902185,0.00837514,0.0168076,1791,1492,15.9686,-13.8556
574,-468,16.0092,13.4924,-0.0036357,-0.00142051,0.00441796,0.00202658,-0.0070828,0.908218,0.00552276,0.014608,1798,1492,16.0092,-13.4924
581,-468,16.017,13.1611,-0.00217062,-0.000718076,0.00273343,0.00138392,-0.00427262,0.915248,0.0034048,0.015071,1805,1492,16.017,-13.1612
588,-468,15.9871,12.834,-0.0007266,-0.000231842,0.00110723,0.000655309,-0.00161375,0.895304,0.00134844,0.0127739,1812,1492,15.9871,-12.834
595,-468,15.9747,12.4948,0.000279884,9.88626e-06,0.000267136,0.000444195,-0.000154425,0.551437,0.000358857,0.0108417,1819,1492,15.9747,-12.4948
602,-468,15.9714,12.129,0.000917558,-0.000135605,4.95567e-05,0.000919885,-0.000137932,0.0469169,0.000664026,0.00900577,1826,1492,15.9714,-12.1291
609,-468,15.9562,11.7786,0.00152305,-0.000497425,-3.8787e-05,0.0015238,-0.00049817,-0.0191875,0.00121641,0.00907304,1833,1492,15.9562,-11.7786
616,-468,15.959,11.4368,0.00208406,-0.00102861,5.6016e-05,0.00208507,-0.00102962,0.0179883,0.00183236,0.00958815,1840,1492,15.959,-11.4368
623,-468,15.9656,11.0991,0.00268071,-0.00176494,0.000329885,0.00270506,-0.00178929,0.0736663,0.00261271,0.0107648,1847,1492,15.9655,-11.0991
630,-468,15.9745,10.7532,0.00323109,-0.00266275,0.000870682,0.00335702,-0.00278868,0.143641,0.00355328,0.0111327,1854,1492,15.9745,-10.7531
637,-468,15.9724,10.396,0.00380908,-0.00362839,0.00157673,0.00412954,-0.00394884,0.200511,0.00466444,0.0145456,1861,1492,15.9724,-10.396
644,-468,15.9935,10.1744,0.00453533,-0.00478356,0.00247603,0.00515235,-0.00540059,0.244225,0.0060933,0.0424359,1868,1492,15.9936,-10.1744
651,-468,15.8511,10.186,0,0,0,0,0,0,0,-1,1875,1492,15.8511,-10.1861
658,-468,16.0397,9.66956,0,0,0,0,0,0,0,-1,1882,1492,16.0397,-9.66955
665,-468,15.4673,8.59546,0,0,0,0,0,0,0,-1,1889,1492,15.4672,-8.59548
672,-468,9.96814,3.61133,0,0,0,0,0,0,0,-1,1896,1492,9.96817,-3.61139
679,-468,11.2191,1.91968,0,0,0,0,0,0,0,-1,1903,1492,11.2191,-1.91965
686,-468,11.9252,1.42285,0,0,0,0,0,0,0,-1,1910,1492,11.9252,-1.42291
693,-468,0,0,0,0,0,0,0,0,0,-1,1917,1492,0,0
700,-468,0,0,0,0,0,0,0,0,0,-1,1924,1492,0,0
707,-468,0,0,0,0,0,0,0,0,0,-1,1931,1492,0,0
714,-468,0,0,0,0,0,0,0,0,0,-1,1938,1492,0,0
721,-468,0,0,0,0,0,0,0,0,0,-1,1945,1492,0,0
728,-468,0,0,0,0,0,0,0,0,0,-1,1952,1492,0,0
735,-468,0,0,0,0,0,0,0,0,0,-1,1959,1492,0,0
742,-468,0,0,0,0,0,0,0,0,0,-1,1966,1492,0,0
749,-468,0,0,0,0,0,0,0,0,0,-1,1973,1492,0,0
756,-468,0,0,0,0,0,0,0,0,0,-1,1980,1492,0,0
763,-468,0,0,0,0,0,0,0,0,0,-1,1987,1492,0,0
770,-468,0,0,0,0,0,0,0,0,0,-1,1994,1492,0,0
777,-468,0,0,0,0,0,0,0,0,0,-1,2001,1492,0,0
784,-468,0,0,0,0,0,0,0,0,0,-1,2008,1492,0,0
791,-468,0,0,0,0,0,0,0,0,0,-1,2015,1492,0,0
798,-468,0,0,0,0,0,0,0,0,0,-1,2022,1492,0,0
805,-468,0,0,0,0,0,0,0,0,0,-1,2029,1492,0,0
812,-468,0,0,0,0,0,0,0,0,0,-1,2036,1492,0,0
-700,-475,0,0,0,0,0,0,0,0,0,-1,524,1499,0,0
-693,-475,0,0,0,0,0,0,0,0,0,-1,531,1499,0,0
-686,-475,0,0,0,0,0,0,0,0,0,-1,538,1499,0,0
-679,-475,0,0,0,0,0,0,0,0,0,-1,545,1499,0,0
-672,-475,0,0,0,0,0,0,0,0,0,-1,552,1499,0,0
-665,-475,0,0,0,0,0,0,0,0,0,-1,559,1499,0,0
-658,-475,0,0,0,0,0,0,0,0,0,-1,566,1499,0,0
-651,-475,0,0,0,0,0,0,0,0,0,-1,573,1499,0,0
-644,-475,0,0,0,0,0,0,0,0,0,-1,580,1499,0,0
-637,-475,0,0,0,0,0,0,0,0,0,-1,587,1499,0,0
-630,-475,0,0,0,0,0,0,0,0,0,-1,594,1499,0,0
-623,-475,0,0,0,0,0,0,0,0,0,-1,601,1499,0,0
-616,-475,0,0,0,0,0,0,0,0,0,-1,608,1499,0,0
-609,-475,0,0,0,0,0,0,0,0,0,-1,615,1499,0,0
-602,-475,0,0,0,0,0,0,0,0,0,-1,622,1499,0,0
-595,-475,0,0,0,0,0,0,0,0,0,-1,629,1499,0,0
-588,-475,0,0,0,0,0,0,0,0,0,-1,636,1499,0,0
-581,-475,0,0,0,0,0,0,0,0,0,-1,643,1499,0,0
-574,-475,0,0,0,0,0,0,0,0,0,-1,650,1499,0,0
-567,-475,0,0,0,0,0,0,0,0,0,-1,657,1499,0,0
-560,-475,-9.42731,9.29517,0,0,0,0,0,0,0,-1,664,1499,-9.42731,-9.29519
-553,-475,-8.15131,8.78369,0,0,0,0,0,0,0,-1,671,1499,-8.15131,-8.78367
-546,-475,-8.41254,8.20654,0,0,0,0,0,0,0,-1,678,1499,-8.41251,-8.20655
-539,-475,-2.83905,4.99597,0,0,0,0,0,0,0,-1,685,1499,-2.83904,-4.99598
-532,-475,-2.53473,6.19373,0,0,0,0,0,0,0,-1,692,1499,-2.5347,-6.1937
-525,-475,-5.40747,6.68445,0,0,0,0,0,0,0,-1,699,1499,-5.4075,-6.68445
-518,-475,-3.83368,7.15356,0,0,0,0,0,0,0,-1,706,1499,-3.83367,-7.15361
-511,-475,-3.9043,7.91248,0.0210454,0.0630664,0.0393815,0.0866916,-0.00257982,1.03045,0.0586732,0.0481513,713,1499,-3.90431,-7.91243
-504,-475,-3.92627,8.64136,0.0144149,0.0445017,0.0283949,0.0615919,-0.00267535,1.029,0.0419815,0.0310468,720,1499,-3.92628,-8.64135
-497,-475,-3.94678,8.99609,0.00941385,0.0303475,0.0198192,0.042294,-0.00253261,1.02834,0.029077,0.0201677,727,1499,-3.94681,-8.99611
-490,-475,-3.95673,9.33374,0.00580984,0.0197767,0.013295,0.0278107,-0.0022242,1.02723,0.0193246,0.00955066,734,1499,-3.95671,-9.33369
-483,-475,-3.96515,9.74268,0.00335863,0.0120568,0.0084646,0.0172242,-0.0018088,1.02271,0.0121308,0.00845484,741,1499,-3.96515,-9.74264
-476,-475,-3.95782,10.0938,0.00172212,0.00552189,0.00460029,0.00859918,-0.00135517,0.981227,0.0062338,0.0102543,748,1499,-3.9578,-10.0937
-469,-475,-3.96533,10.4618,0.00060797,0.00110191,0.00181513,0.0026868,-0.000976915,0.853014,0.00219069,0.0121584,755,1499,-3.96534,-10.4618
-462,-475,-3.96338,10.8278,0.000428029,-0.00157927,0.000281351,0.000466718,-0.00161796,0.136656,0.00126329,0.0157999,762,1499,-3.96337,-10.8277
-455,-475,-3.99213,11.1885,0.00105478,-0.00333083,-0.000483755,0.00110751,-0.00338356,-0.108566,0.00270164,0.0140236,769,1499,-3.99213,-11.1884
-448,-475,-4.01776,11.5809,0.00216705,-0.00404787,-0.00055689,0.00221655,-0.00409737,-0.0886642,0.00369886,0.0122492,776,1499,-4.01775,-11.5809
-441,-475,-4.02808,11.9833,0.00350758,-0.00485626,-0.000379148,0.00352473,-0.00487341,-0.0452082,0.00486947,0.0152044,783,1499,-4.02808,-11.9833
-434,-475,-4.01984,12.3295,0.00498655,-0.00573743,-6.27982e-05,0.00498691,-0.0057378,-0.0058556,0.00619697,0.0105233,790,1499,-4.01982,-12.3294
-427,-475,-3.96454,12.748,0.00667838,-0.00650055,0.000433327,0.00669261,-0.00651479,0.032833,0.00762553,0.0193969,797,1499,-3.96455,-12.7481
-420,-475,-3.87842,13.1257,0.00855579,-0.00718579,0.00127013,0.00865761,-0.00728762,0.0799967,0.0092173,0.0334777,804,1499,-3.87844,-13.1258
-413,-475,-3.6488,13.5752,0,0,0,0,0,0,0,-1,811,1499,-3.64882,-13.5752
-406,-475,-2.56116,12.4956,0,0,0,0,0,0,0,-1,818,1499,-2.56116,-12.4956
-399,-475,-1.39667,6.1615,0,0,0,0,0,0,0,-1,825,1499,-1.39664,-6.16155
-392,-475,0.217163,8.61389,0,0,0,0,0,0,0,-1,832,1499,0.217167,-8.6139
-385,-475,1.18372,2.73999,0,0,0,0,0,0,0,-1,839,1499,1.18372,-2.73995
-378,-475,1.31409,2.90149,0,0,0,0,0,0,0,-1,846,1499,1.31411,-2.90151
-371,-475,2.3476,3.31116,0,0,0,0,0,0,0,-1,853,1499,2.34761,-3.31121
-364,-475,1.04462,9.05823,0,0,0,0,0,0,0,-1,860,1499,1.04461,-9.05825
-357,-475,-0.262756,7.97205,0,0,0,0,0,0,0,-1,867,1499,-0.262784,-7.97205
-350,-475,-2.77173,4.35486,0,0,0,0,0,0,0,-1,874,1499,-2.77175,-4.35491
-343,-475,-6.81641,-1.95203,0,0,0,0,0,0,0,-1,881,1499,-6.81643,1.95198
-336,-475,0,0,0,0,0,0,0,0,0,-1,888,1499,0,0
-329,-475,0,0,0,0,0,0,0,0,0,-1,895,1499,0,0
-322,-475,0,0,0,0,0,0,0,0,0,-1,902,1499,0,0
-315,-475,0,0,0,0,0,0,0,0,0,-1,909,1499,0,0
-308,-475,0,0,0,0,0,0,0,0,0,-1,916,1499,0,0
-301,-475,0,0,0,0,0,0,0,0,0,-1,923,1499,0,0
-294,-475,0,0,0,0,0,0,0,0,0,-1,930,1499,0,0
-287,-475,0,0,0,0,0,0,0,0,0,-1,937,1499,0,0
-280,-475,0,0,0,0,0,0,0,0,0,-1,944,1499,0,0
-273,-475,0,0,0,0,0,0,0,0,0,-1,951,1499,0,0
-266,-475,0,0,0,0,0,0,0,0,0,-1,958,1499,0,0
-259,-475,0,0,0,0,0,0,0,0,0,-1,965,1499,0,0
-252,-475,0,0,0,0,0,0,0,0,0,-1,972,1499,0,0
-245,-475,0,0,0,0,0,0,0,0,0,-1,979,1499,0,0
-238,-475,0,0,0,0,0,0,0,0,0,-1,986,1499,0,0
-231,-475,0,0,0,0,0,0,0,0,0,-1,993,1499,0,0
-224,-475,0,0,0,0,0,0,0,0,0,-1,1000,1499,0,0
-217,-475,0,0,0,0,0,0,0,0,0,-1,1007,1499,0,0
-210,-475,0,0,0,0,0,0,0,0,0,-1,1014,1499,0,0
-203,-475,0,0,0,0,0,0,0,0,0,-1,1021,1499,0,0
-196,-475,0,0,0,0,0,0,0,0,0,-1,1028,1499,0,0
-189,-475,0,0,0,0,0,0,0,0,0,-1,1035,1499,0,0
-182,-475,0,0,0,0,0,0,0,0,0,-1,1042,1499,0,0
-175,-475,0,0,0,0,0,0,0,0,0,-1,1049,1499,0,0
-168,-475,0,0,0,0,0,0,0,0,0,-1,1056,1499,0,0
-161,-475,0,0,0,0,0,0,0,0,0,-1,1063,1499,0,0
-154,-475,0,0,0,0,0,0,0,0,0,-1,1070,1499,0,0
-147,-475,0,0,0,0,0,0,0,0,0,-1,1077,1499,0,0
-140,-475,0,0,0,0,0,0,0,0,0,-1,1084,1499,0,0
-133,-475,0,0,0,0,0,0,0,0,0,-1,1091,1499,0,0
-126,-475,0,0,0,0,0,0,0,0,0,-1,1098,1499,0,0
-119,-475,0,0,0,0,0,0,0,0,0,-1,1105,1499,0,0
-112,-475,0,0,0,0,0,0,0,0,0,-1,1112,1499,0,0
-105,-475,0,0,0,0,0,0,0,0,0,-1,1119,1499,0,0
-98,-475,0,0,0,0,0,0,0,0,0,-1,1126,1499,0,0
-91,-475,0,0,0,0,0,0,0,0,0,-1,1133,1499,0,0
-84,-475,0,0,0,0,0,0,0,0,0,-1,1140,1499,0,0
-77,-475,0,0,0,0,0,0,0,0,0,-1,1147,1499,0,0
-70,-475,0,0,0,0,0,0,0,0,0,-1,1154,1499,0,0
-63,-475,0,0,0,0,0,0,0,0,0,-1,1161,1499,0,0
-56,-475,0,0,0,0,0,0,0,0,0,-1,1168,1499,0,0
-49,-475,0,0,0,0,0,0,0,0,0,-1,1175,1499,0,0
-42,-475,0,0,0,0,0,0,0,0,0,-1,1182,1499,0,0
-35,-475,0,0,0,0,0,0,0,0,0,-1,1189,1499,0,0
-28,-475,0,0,0,0,0,0,0,0,0,-1,1196,1499,0,0
-21,-475,0,0,0,0,0,0,0,0,0,-1,1203,1499,0,0
-14,-475,0,0,0,0,0,0,0,0,0,-1,1210,1499,0,0
-7,-475,0,0,0,0,0,0,0,0,0,-1,1217,1499,0,0
0,-475,0,0,0,0,0,0,0,0,0,-1,1224,1499,0,0
7,-475,0,0,0,0,0,0,0,0,0,-1,1231,1499,0,0
14,-475,0,0,0,0,0,0,0,0,0,-1,1238,1499,0,0
21,-475,0,0,0,0,0,0,0,0,0,-1,1245,1499,0,0
28,-475,0,0,0,0,0,0,0,0,0,-1,1252,1499,0,0
35,-475,0,0,0,0,0,0,0,0,0,-1,1259,1499,0,0
42,-475,0,0,0,0,0,0,0,0,0,-1,1266,1499,0,0
49,-475,0,0,0,0,0,0,0,0,0,-1,1273,1499,0,0
56,-475,0,0,0,0,0,0,0,0,0,-1,1280,1499,0,0
63,-475,0,0,0,0,0,0,0,0,0,-1,1287,1499,0,0
70,-475,0,0,0,0,0,0,0,0,0,-1,1294,1499,0,0
77,-475,0,0,0,0,0,0,0,0,0,-1,1301,1499,0,0
84,-475,0,0,0,0,0,0,0,0,0,-1,1308,1499,0,0
91,-475,0,0,0,0,0,0,0,0,0,-1,1315,1499,0,0
98,-475,0,0,0,0,0,0,0,0,0,-1,1322,1499,0,0
105,-475,0,0,0,0,0,0,0,0,0,-1,1329,1499,0,0
112,-475,0,0,0,0,0,0,0,0,0,-1,1336,1499,0,0
119,-475,0,0,0,0,0,0,0,0,0,-1,1343,1499,0,0
126,-475,0,0,0,0,0,0,0,0,0,-1,1350,1499,0,0
133,-475,0,0,0,0,0,0,0,0,0,-1,1357,1499,0,0
140,-475,0,0,0,0,0,0,0,0,0,-1,1364,1499,0,0
147,-475,0,0,0,0,0,0,0,0,0,-1,1371,1499,0,0
154,-475,0,0,0,0,0,0,0,0,0,-1,1378,1499,0,0
161,-475,0,0,0,0,0,0,0,0,0,-1,1385,1499,0,0
168,-475,0,0,0,0,0,0,0,0,0,-1,1392,1499,0,0
175,-475,0,0,0,0,0,0,0,0,0,-1,1399,1499,0,0
182,-475,0,0,0,0,0,0,0,0,0,-1,1406,1499,0,0
189,-475,0,0,0,0,0,0,0,0,0,-1,1413,1499,0,0
196,-475,0,0,0,0,0,0,0,0,0,-1,1420,1499,0,0
203,-475,0,0,0,0,0,0,0,0,0,-1,1427,1499,0,0
210,-475,0,0,0,0,0,0,0,0,0,-1,1434,1499,0,0
217,-475,0,0,0,0,0,0,0,0,0,-1,1441,1499,0,0
224,-475,0,0,0,0,0,0,0,0,0,-1,1448,1499,0,0
231,-475,0,0,0,0,0,0,0,0,0,-1,1455,1499,0,0
238,-475,0,0,0,0,0,0,0,0,0,-1,1462,1499,0,0
245,-475,0,0,0,0,0,0,0,0,0,-1,1469,1499,0,0
252,-475,0,0,0,0,0,0,0,0,0,-1,1476,1499,0,0
259,-475,0,0,0,0,0,0,0,0,0,-1,1483,1499,0,0
266,-475,0,0,0,0,0,0,0,0,0,-1,1490,1499,0,0
273,-475,0,0,0,0,0,0,0,0,0,-1,1497,1499,0,0
280,-475,0,0,0,0,0,0,0,0,0,-1,1504,1499,0,0
287,-475,0,0,0,0,0,0,0,0,0,-1,1511,1499,0,0
294,-475,0,0,0,0,0,0,0,0,0,-1,1518,1499,0,0
301,-475,0,0,0,0,0,0,0,0,0,-1,1525,1499,0,0
308,-475,0,0,0,0,0,0,0,0,0,-1,1532,1499,0,0
315,-475,0,0,0,0,0,0,0,0,0,-1,1539,1499,0,0
322,-475,0,0,0,0,0,0,0,0,0,-1,1546,1499,0,0
329,-475,0,0,0,0,0,0,0,0,0,-1,1553,1499,0,0
336,-475,0,0,0,0,0,0,0,0,0,-1,1560,1499,0,0
343,-475,0,0,0,0,0,0,0,0,0,-1,1567,1499,0,0
350,-475,0,0,0,0,0,0,0,0,0,-1,1574,1499,0,0
357,-475,0,0,0,0,0,0,0,0,0,-1,1581,1499,0,0
364,-475,0,0,0,0,0,0,0,0,0,-1,1588,1499,0,0
371,-475,0,0,0,0,0,0,0,0,0,-1,1595,1499,0,0
378,-475,0,0,0,0,0,0,0,0,0,-1,1602,1499,0,0
385,-475,0,0,0,0,0,0,0,0,0,-1,1609,1499,0,0
392,-475,0,0,0,0,0,0,0,0,0,-1,1616,1499,0,0
399,-475,0,0,0,0,0,0,0,0,0,-1,1623,1499,0,0
406,-475,0,0,0,0,0,0,0,0,0,-1,1630,1499,0,0
413,-475,0,0,0,0,0,0,0,0,0,-1,1637,1499,0,0
420,-475,0,0,0,0,0,0,0,0,0,-1,1644,1499,0,0
427,-475,0,0,0,0,0,0,0,0,0,-1,1651,1499,0,0
434,-475,0,0,0,0,0,0,0,0,0,-1,1658,1499,0,0
441,-475,0,0,0,0,0,0,0,0,0,-1,1665,1499,0,0
448,-475,0,0,0,0,0,0,0,0,0,-1,1672,1499,0,0
455,-475,0,0,0,0,0,0,0,0,0,-1,1679,1499,0,0
462,-475,12.6372,0.275391,0,0,0,0,0,0,0,-1,1686,1499,12.6372,-0.27536
469,-475,15.6437,2.28296,0,0,0,0,0,0,0,-1,1693,1499,15.6437,-2.28293
476,-475,15.3302,2.71436,0,0,0,0,0,0,0,-1,1700,1499,15.3303,-2.7143
483,-475,10.7461,5.91479,0,0,0,0,0,0,0,-1,1707,1499,10.7461,-5.91476
490,-475,11.9305,4.4364,0,0,0,0,0,0,0,-1,1714,1499,11.9305,-4.43644
497,-475,15.3451,4.3479,0,0,0,0,0,0,0,-1,1721,1499,15.3451,-4.34789
504,-475,16.9646,7.71265,0,0,0,0,0,0,0,-1,1728,1499,16.9646,-7.71265
511,-475,18.941,12.7572,0,0,0,0,0,0,0,-1,1735,1499,18.941,-12.7572
518,-475,17.0021,13.8564,0,0,0,0,0,0,0,-1,1742,1499,17.0021,-13.8564
525,-475,16.4812,14.3424,0,0,0,0,0,0,0,-1,1749,1499,16.4811,-14.3424
532,-475,16.2637,14.7196,-0.0202044,-0.0150754,0.0320786,0.014541,-0.0498208,0.825285,0.0389758,0.0472694,1756,1499,16.2637,-14.7197
539,-475,15.9801,14.9301,-0.0158029,-0.0109725,0.0235441,0.01028,-0.0370553,0.83651,0.0287495,0.0480873,1763,1499,15.9802,-14.93
546,-475,15.6776,14.7007,-0.0120971,-0.00751578,0.0169798,0.00732713,-0.02694,0.852446,0.0208364,0.0441915,1770,1499,15.6776,-14.7007
553,-475,15.7456,14.5012,-0.00903316,-0.00522139,0.0120026,0.00502565,-0.0192802,0.864136,0.0148156,0.0257455,1777,1499,15.7456,-14.5013
560,-475,15.5667,14.2557,-0.00640311,-0.00366553,0.00826382,0.00334209,-0.0134107,0.867471,0.010238,0.0188813,1784,1499,15.5666,-14.2557
567,-475,15.6555,13.8539,-0.00428164,-0.00237707,0.00559296,0.0023441,-0.00900281,0.869722,0.00691693,0.0141265,1791,1499,15.6556,-13.8539
574,-475,15.6537,13.4987,-0.0026722,-0.0014845,0.00362798,0.00159791,-0.0057546,0.866522,0.00446538,0.0143735,1798,1499,15.6537,-13.4987
581,-475,15.6537,13.1753,-0.00138822,-0.000802225,0.00215611,0.0010807,-0.00327115,0.852931,0.00261648,0.0117984,1805,1499,15.6537,-13.1753
588,-475,15.6405,12.8326,-7.44451e-05,-0.000373052,0.000700306,0.000492296,-0.000939793,0.680372,0.000840165,0.0100003,1812,1499,15.6405,-12.8326
595,-475,15.6398,12.4879,0.000849158,-0.000154615,-5.71062e-05,0.000852396,-0.000157853,-0.0566479,0.000627535,0.0114509,1819,1499,15.6398,-12.4879
602,-475,15.6278,12.146,0.00148536,-0.000314066,-0.000253553,0.00152041,-0.000349111,-0.137345,0.00114781,0.0133013,1826,1499,15.6278,-12.146
609,-475,15.6232,11.8016,0.00213671,-0.000681676,-0.000333996,0.00217575,-0.000720716,-0.116359,0.00174119,0.0117034,1833,1499,15.6232,-11.8016
616,-475,15.6196,11.4645,0.00279859,-0.00126184,-0.000256679,0.00281475,-0.001278,-0.062881,0.00241784,0.0105495,1840,1499,15.6197,-11.4645
623,-475,15.6111,11.1099,0.00353005,-0.00202038,1.93789e-05,0.00353012,-0.00202045,0.00349136,0.00324389,0.0107158,1847,1499,15.6111,-11.1099
630,-475,15.6405,10.774,0.00423178,-0.00302606,0.000592486,0.00427983,-0.00307411,0.08092,0.00426478,0.0135048,1854,1499,15.6405,-10.774
637,-475,15.7015,10.4373,0.00505536,-0.0041235,0.00132045,0.00524154,-0.00430968,0.140074,0.00552314,0.0263375,1861,1499,15.7015,-10.4373
644,-475,15.572,10.2937,0,0,0,0,0,0,0,-1,1868,1499,15.572,-10.2937
651,-475,11.7965,7.57593,0,0,0,0,0,0,0,-1,1875,1499,11.7965,-7.5759
658,-475,14.6708,8.80322,0,0,0,0,0,0,0,-1,1882,1499,14.6708,-8.8032
665,-475,9.33435,5.43335,0,0,0,0,0,0,0,-1,1889,1499,9.33439,-5.43332
672,-475,9.38635,1.10474,0,0,0,0,0,0,0,-1,1896,1499,9.38629,-1.10475
679,-475,12.2594,1.31079,0,0,0,0,0,0,0,-1,1903,1499,12.2594,-1.31077
686,-475,0,0,0,0,0,0,0,0,0,-1,1910,1499,0,0
693,-475,0,0,0,0,0,0,0,0,0,-1,1917,1499,0,0
700,-475,0,0,0,0,0,0,0,0,0,-1,1924,1499,0,0
707,-475,0,0,0,0,0,0,0,0,0,-1,1931,1499,0,0
714,-475,0,0,0,0,0,0,0,0,0,-1,1938,1499,0,0
721,-475,0,0,0,0,0,0,0,0,0,-1,1945,1499,0,0
728,-475,0,0,0,0,0,0,0,0,0,-1,1952,1499,0,0
735,-475,0,0,0,0,0,0,0,0,0,-1,1959,1499,0,0
742,-475,0,0,0,0,0,0,0,0,0,-1,1966,1499,0,0
749,-475,0,0,0,0,0,0,0,0,0,-1,1973,1499,0,0
756,-475,0,0,0,0,0,0,0,0,0,-1,1980,1499,0,0
763,-475,0,0,0,0,0,0,0,0,0,-1,1987,1499,0,0
770,-475,0,0,0,0,0,0,0,0,0,-1,1994,1499,0,0
777,-475,0,0,0,0,0,0,0,0,0,-1,2001,1499,0,0
784,-475,0,0,0,0,0,0,0,0,0,-1,2008,1499,0,0
791,-475,0,0,0,0,0,0,0,0,0,-1,2015,1499,0,0
798,-475,0,0,0,0,0,0,0,0,0,-1,2022,1499,0,0
805,-475,0,0,0,0,0,0,0,0,0,-1,2029,1499,0,0
812,-475,0,0,0,0,0,0,0,0,0,-1,2036,1499,0,0
-700,-482,0,0,0,0,0,0,0,0,0,-1,524,1506,0,0
-693,-482,0,0,0,0,0,0,0,0,0,-1,531,1506,0,0
-686,-482,0,0,0,0,0,0,0,0,0,-1,538,1506,0,0
-679,-482,0,0,0,0,0,0,0,0,0,-1,545,1506,0,0
-672,-482,0,0,0,0,0,0,0,0,0,-1,552,1506,0,0
-665,-482,0,0,0,0,0,0,0,0,0,-1,559,1506,0,0
-658,-482,0,0,0,0,0,0,0,0,0,-1,566,1506,0,0
-651,-482,0,0,0,0,0,0,0,0,0,-1,573,1506,0,0
-644,-482,0,0,0,0,0,0,0,0,0,-1,580,1506,0,0
-637,-482,0,0,0,0,0,0,0,0,0,-1,587,1506,0,0
-630,-482,0,0,0,0,0,0,0,0,0,-1,594,1506,0,0
-623,-482,0,0,0,0,0,0,0,0,0,-1,601,1506,0,0
-616,-482,0,0,0,0,0,0,0,0,0,-1,608,1506,0,0
-609,-482,0,0,0,0,0,0,0,0,0,-1,615,1506,0,0
-602,-482,0,0,0,0,0,0,0,0,0,-1,622,1506,0,0
-595,-482,0,0,0,0,0,0,0,0,0,-1,629,1506,0,0
-588,-482,0,0,0,0,0,0,0,0,0,-1,636,1506,0,0
-581,-482,0,0,0,0,0,0,0,0,0,-1,643,1506,0,0
-574,-482,0,0,0,0,0,0,0,0,0,-1,650,1506,0,0
-567,-482,0,0,0,0,0,0,0,0,0,-1,657,1506,0,0
-560,-482,0,0,0,0,0,0,0,0,0,-1,664,1506,0,0
-553,-482,-9.06055,9.34314,0,0,0,0,0,0,0,-1,671,1506,-9.06056,-9.34312
-546,-482,-4.08624,8.34241,0,0,0,0,0,0,0,-1,678,1506,-4.08624,-8.3424
-539,-482,-2.17645,4.54761,0,0,0,0,0,0,0,-1,685,1506,-2.17647,-4.54759
-532,-482,-2.64728,5.88745,0,0,0,0,0,0,0,-1,692,1506,-2.64727,-5.8874
-525,-482,-2.46808,6.95764,0,0,0,0,0,0,0,-1,699,1506,-2.46811,-6.95767
-518,-482,-5.84131,7.11353,0,0,0,0,0,0,0,-1,706,1506,-5.84128,-7.11348
-511,-482,-3.51337,7.74377,0,0,0,0,0,0,0,-1,713,1506,-3.5134,-7.74383
-504,-482,-3.51318,8.39929,0.0161919,0.0555455,0.0351281,0.0761323,-0.00439499,1.0407,0.0522815,0.0425236,720,1506,-3.51321,-8.39924
-497,-482,-3.49927,8.94836,0.0103738,0.0378801,0.0245951,0.0523062,-0.00405223,1.04033,0.036297,0.0310945,727,1506,-3.49927,-8.9483
-490,-482,-3.58875,9.30164,0.0061893,0.0247249,0.0165634,0.034437,-0.00352283,1.04047,0.0242178,0.0190752,734,1506,-3.58877,-9.30165
-483,-482,-3.58972,9.74023,0.0033321,0.0152063,0.0106514,0.0214635,-0.00292514,1.03965,0.0153771,0.00912445,741,1506,-3.58972,-9.74026
-476,-482,-3.58246,10.0981,0.00137062,0.00726278,0.00591444,0.0109243,-0.00229087,1.01647,0.00815445,0.0102925,748,1506,-3.58243,-10.0981
-469,-482,-3.59937,10.4696,0.000112421,0.00210324,0.00260811,0.00389944,-0.00168378,0.967696,0.00330699,0.0111594,755,1506,-3.59935,-10.4697
-462,-482,-3.61078,10.8523,-0.000131417,-0.000886806,0.000761352,0.000340777,-0.001359,0.555143,0.0010384,0.0116336,762,1506,-3.61075,-10.8523
-455,-482,-3.61249,11.2147,0.000484803,-0.00268131,-0.00016023,0.000492891,-0.0026894,-0.0504359,0.00197781,0.0121474,769,1506,-3.61247,-11.2148
-448,-482,-3.62988,11.6097,0.00166372,-0.00295036,-0.000171263,0.00167007,-0.00295671,-0.0370495,0.00270548,0.0124099,776,1506,-3.62985,-11.6097
-441,-482,-3.65344,11.9987,0.00308759,-0.0032324,0.000137558,0.00309059,-0.00323539,0.0217519,0.00365262,0.012516,783,1506,-3.65342,-11.9987
-434,-482,-3.66351,12.3687,0.00463662,-0.00346755,0.000631753,0.00468557,-0.00351651,0.0773314,0.00475148,0.0151637,790,1506,-3.66354,-12.3687
-427,-482,-3.65314,12.7408,0.00633431,-0.00351639,0.00130285,0.00650371,-0.00368579,0.129298,0.00595742,0.0171142,797,1506,-3.65313,-12.7409
-420,-482,-3.55353,13.2806,0.00815552,-0.00339025,0.00231072,0.00860081,-0.00383554,0.19037,0.00735373,0.0350232,804,1506,-3.55356,-13.2807
-413,-482,-3.03998,13.7966,0,0,0,0,0,0,0,-1,811,1506,-3.03998,-13.7966
-406,-482,-2.51373,12.7556,0,0,0,0,0,0,0,-1,818,1506,-2.51376,-12.7556
-399,-482,-1.3822,9.22595,0,0,0,0,0,0,0,-1,825,1506,-1.38221,-9.22598
-392,-482,-1.06836,9.22729,0,0,0,0,0,0,0,-1,832,1506,-1.06835,-9.2273
-385,-482,0.0647583,8.90649,0,0,0,0,0,0,0,-1,839,1506,0.0647778,-8.90644
-378,-482,0.215698,5.96948,0,0,0,0,0,0,0,-1,846,1506,0.215681,-5.9695
-371,-482,-0.10907,8.10437,0,0,0,0,0,0,0,-1,853,1506,-0.109063,-8.10433
-364,-482,-0.154968,10.5032,0,0,0,0,0,0,0,-1,860,1506,-0.154976,-10.5032
-357,-482,2.14807,4.60144,0,0,0,0,0,0,0,-1,867,1506,2.14807,-4.60144
-350,-482,-7.5813,-1.45935,0,0,0,0,0,0,0,-1,874,1506,-7.58133,1.45937
-343,-482,-7.19983,-1.26416,0,0,0,0,0,0,0,-1,881,1506,-7.19981,1.26414
-336,-482,-6.78491,-1.18127,0,0,0,0,0,0,0,-1,888,1506,-6.78488,1.18125
-329,-482,0,0,0,0,0,0,0,0,0,-1,895,1506,0,0
-322,-482,0,0,0,0,0,0,0,0,0,-1,902,1506,0,0
-315,-482,0,0,0,0,0,0,0,0,0,-1,909,1506,0,0
-308,-482,0,0,0,0,0,0,0,0,0,-1,916,1506,0,0
-301,-482,0,0,0,0,0,0,0,0,0,-1,923,1506,0,0
-294,-482,0,0,0,0,0,0,0,0,0,-1,930,1506,0,0
-287,-482,0,0,0,0,0,0,0,0,0,-1,937,1506,0,0
-280,-482,0,0,0,0,0,0,0,0,0,-1,944,1506,0,0
-273,-482,0,0,0,0,0,0,0,0,0,-1,951,1506,0,0
-266,-482,0,0,0,0,0,0,0,0,0,-1,958,1506,0,0
-259,-482,0,0,0,0,0,0,0,0,0,-1,965,1506,0,0
-252,-482,0,0,0,0,0,0,0,0,0,-1,972,1506,0,0
-245,-482,0,0,0,0,0,0,0,0,0,-1,979,1506,0,0
-238,-482,0,0,0,0,0,0,0,0,0,-1,986,1506,0,0
-231,-482,0,0,0,0,0,0,0,0,0,-1,993,1506,0,0
-224,-482,0,0,0,0,0,0,0,0,0,-1,1000,1506,0,0
-217,-482,0,0,0,0,0,0,0,0,0,-1,1007,1506,0,0
-210,-482,0,0,0,0,0,0,0,0,0,-1,1014,1506,0,0
-203,-482,0,0,0,0,0,0,0,0,0,-1,1021,1506,0,0
-196,-482,0,0,0,0,0,0,0,0,0,-1,1028,1506,0,0
-189,-482,0,0,0,0,0,0,0,0,0,-1,1035,1506,0,0
-182,-482,0,0,0,0,0,0,0,0,0,-1,1042,1506,0,0
-175,-482,0,0,0,0,0,0,0,0,0,-1,1049,1506,0,0
-168,-482,0,0,0,0,0,0,0,0,0,-1,1056,1506,0,0
-161,-482,0,0,0,0,0,0,0,0,0,-1,1063,1506,0,0
-154,-482,0,0,0,0,0,0,0,0,0,-1,1070,1506,0,0
-147,-482,0,0,0,0,0,0,0,0,0,-1,1077,1506,0,0
-140,-482,0,0,0,0,0,0,0,0,0,-1,1084,1506,0,0
-133,-482,0,0,0,0,0,0,0,0,0,-1,1091,1506,0,0
-126,-482,0,0,0,0,0,0,0,0,0,-1,1098,1506,0,0
-119,-482,0,0,0,0,0,0,0,0,0,-1,1105,1506,0,0
-112,-482,0,0,0,0,0,0,0,0,0,-1,1112,1506,0,0
-105,-482,0,0,0,0,0,0,0,0,0,-1,1119,1506,0,0
-98,-482,0,0,0,0,0,0,0,0,0,-1,1126,1506,0,0
-91,-482,0,0,0,0,0,0,0,0,0,-1,1133,1506,0,0
-84,-482,0,0,0,0,0,0,0,0,0,-1,1140,1506,0,0
-77,-482,0,0,0,0,0,0,0,0,0,-1,1147,1506,0,0
-70,-482,0,0,0,0,0,0,0,0,0,-1,1154,1506,0,0
-63,-482,0,0,0,0,0,0,0,0,0,-1,1161,1506,0,0
-56,-482,0,0,0,0,0,0,0,0,0,-1,1168,1506,0,0
-49,-482,0,0,0,0,0,0,0,0,0,-1,1175,1506,0,0
-42,-482,0,0,0,0,0,0,0,0,0,-1,1182,1506,0,0
-35,-482,0,0,0,0,0,0,0,0,0,-1,1189,1506,0,0
-28,-482,0,0,0,0,0,0,0,0,0,-1,1196,1506,0,0
-21,-482,0,0,0,0,0,0,0,0,0,-1,1203,1506,0,0
-14,-482,0,0,0,0,0,0,0,0,0,-1,1210,1506,0,0
-7,-482,0,0,0,0,0,0,0,0,0,-1,1217,1506,0,0
0,-482,0,0,0,0,0,0,0,0,0,-1,1224,1506,0,0
7,-482,0,0,0,0,0,0,0,0,0,-1,1231,1506,0,0
14,-482,0,0,0,0,0,0,0,0,0,-1,1238,1506,0,0
21,-482,0,0,0,0,0,0,0,0,0,-1,1245,1506,0,0
28,-482,0,0,0,0,0,0,0,0,0,-1,1252,1506,0,0
35,-482,0,0,0,0,0,0,0,0,0,-1,1259,1506,0,0
42,-482,0,0,0,0,0,0,0,0,0,-1,1266,1506,0,0
49,-482,0,0,0,0,0,0,0,0,0,-1,1273,1506,0,0
56,-482,0,0,0,0,0,0,0,0,0,-1,1280,1506,0,0
63,-482,0,0,0,0,0,0,0,0,0,-1,1287,1506,0,0
70,-482,0,0,0,0,0,0,0,0,0,-1,1294,1506,0,0
77,-482,0,0,0,0,0,0,0,0,0,-1,1301,1506,0,0
84,-482,0,0,0,0,0,0,0,0,0,-1,1308,1506,0,0
91,-482,0,0,0,0,0,0,0,0,0,-1,1315,1506,0,0
98,-482,0,0,0,0,0,0,0,0,0,-1,1322,1506,0,0
105,-482,0,0,0,0,0,0,0,0,0,-1,1329,1506,0,0
112,-482,0,0,0,0,0,0,0,0,0,-1,1336,1506,0,0
119,-482,0,0,0,0,0,0,0,0,0,-1,1343,1506,0,0
126,-482,0,0,0,0,0,0,0,0,0,-1,1350,1506,0,0
133,-482,0,0,0,0,0,0,0,0,0,-1,1357,1506,0,0
140,-482,0,0,0,0,0,0,0,0,0,-1,1364,1506,0,0
147,-482,0,0,0,0,0,0,0,0,0,-1,1371,1506,0,0
154,-482,0,0,0,0,0,0,0,0,0,-1,1378,1506,0,0
161,-482,0,0,0,0,0,0,0,0,0,-1,1385,1506,0,0
168,-482,0,0,0,0,0,0,0,0,0,-1,1392,1506,0,0
175,-482,0,0,0,0,0,0,0,0,0,-1,1399,1506,0,0
182,-482,0,0,0,0,0,0,0,0,0,-1,1406,1506,0,0
189,-482,0,0,0,0,0,0,0,0,0,-1,1413,1506,0,0
196,-482,0,0,0,0,0,0,0,0,0,-1,1420,1506,0,0
203,-482,0,0,0,0,0,0,0,0,0,-1,1427,1506,0,0
210,-482,0,0,0,0,0,0,0,0,0,-1,1434,1506,0,0
217,-482,0,0,0,0,0,0,0,0,0,-1,1441,1506,0,0
224,-482,0,0,0,0,0,0,0,0,0,-1,1448,1506,0,0
231,-482,0,0,0,0,0,0,0,0,0,-1,1455,1506,0,0
238,-482,0,0,0,0,0,0,0,0,0,-1,1462,1506,0,0
245,-482,0,0,0,0,0,0,0,0,0,-1,1469,1506,0,0
252,-482,0,0,0,0,0,0,0,0,0,-1,1476,1506,0,0
259,-482,0,0,0,0,0,0,0,0,0,-1,1483,1506,0,0
266,-482,0,0,0,0,0,0,0,0,0,-1,1490,1506,0,0
273,-482,0,0,0,0,0,0,0,0,0,-1,1497,1506,0,0
280,-482,0,0,0,0,0,0,0,0,0,-1,1504,1506,0,0
287,-482,0,0,0,0,0,0,0,0,0,-1,1511,1506,0,0
294,-482,0,0,0,0,0,0,0,0,0,-1,1518,1506,0,0
301,-482,0,0,0,0,0,0,0,0,0,-1,1525,1506,0,0
308,-482,0,0,0,0,0,0,0,0,0,-1,1532,1506,0,0
315,-482,0,0,0,0,0,0,0,0,0,-1,1539,1506,0,0
322,-482,0,0,0,0,0,0,0,0,0,-1,1546,1506,0,0
329,-482,0,0,0,0,0,0,0,0,0,-1,1553,1506,0,0
336,-482,0,0,0,0,0,0,0,0,0,-1,1560,1506,0,0
343,-482,0,0,0,0,0,0,0,0,0,-1,1567,1506,0,0
350,-482,0,0,0,0,0,0,0,0,0,-1,1574,1506,0,0
357,-482,0,0,0,0,0,0,0,0,0,-1,1581,1506,0,0
364,-482,0,0,0,0,0,0,0,0,0,-1,1588,1506,0,0
371,-482,0,0,0,0,0,0,0,0,0,-1,1595,1506,0,0
378,-482,0,0,0,0,0,0,0,0,0,-1,1602,1506,0,0
385,-482,0,0,0,0,0,0,0,0,0,-1,1609,1506,0,0
392,-482,0,0,0,0,0,0,0,0,0,-1,1616,1506,0,0
399,-482,0,0,0,0,0,0,0,0,0,-1,1623,1506,0,0
406,-482,0,0,0,0,0,0,0,0,0,-1,1630,1506,0,0
413,-482,0,0,0,0,0,0,0,0,0,-1,1637,1506,0,0
420,-482,0,0,0,0,0,0,0,0,0,-1,1644,1506,0,0
427,-482,0,0,0,0,0,0,0,0,0,-1,1651,1506,0,0
434,-482,0,0,0,0,0,0,0,0,0,-1,1658,1506,0,0
441,-482,0,0,0,0,0,0,0,0,0,-1,1665,1506,0,0
448,-482,4.24146,1.55383,0,0,0,0,0,0,0,-1,1672,1506,4.24149,-1.55381
455,-482,12.4122,1.09729,0,0,0,0,0,0,0,-1,1679,1506,12.4122,-1.09734
462,-482,15.0673,3.13135,0,0,0,0,0,0,0,-1,1686,1506,15.0672,-3.13134
469,-482,15.3793,3.46301,0,0,0,0,0,0,0,-1,1693,1506,15.3793,-3.46307
476,-482,8.69751,9.18738,0,0,0,0,0,0,0,-1,1700,1506,8.69753,-9.18739
483,-482,10.0902,7.17432,0,0,0,0,0,0,0,-1,1707,1506,10.0902,-7.1743
490,-482,11.6289,5.4928,0,0,0,0,0,0,0,-1,1714,1506,11.6289,-5.49283
497,-482,15.9539,7.40222,0,0,0,0,0,0,0,-1,1721,1506,15.9538,-7.40219
504,-482,20.4233,12.006,0,0,0,0,0,0,0,-1,1728,1506,20.4233,-12.006
511,-482,18.4937,12.9175,0,0,0,0,0,0,0,-1,1735,1506,18.4936,-12.9174
518,-482,16.6002,13.9679,0,0,0,0,0,0,0,-1,1742,1506,16.6003,-13.9679
525,-482,16.0902,13.7235,0,0,0,0,0,0,0,-1,1749,1506,16.0902,-13.7236
532,-482,15.8751,14.432,-0.0151925,-0.0141956,0.0263276,0.0116383,-0.0410264,0.794863,0.031945,0.0443699,1756,1506,15.8751,-14.4321
539,-482,15.4272,15.1202,-0.0119324,-0.0100683,0.0193677,0.00838977,-0.0303904,0.809442,0.0235602,0.0335198,1763,1506,15.4272,-15.1202
546,-482,15.338,14.8829,-0.0090958,-0.0065902,0.0139733,0.00618633,-0.0218723,0.830107,0.0170226,0.0188317,1770,1506,15.338,-14.8829
553,-482,15.2915,14.5303,-0.00679003,-0.00450812,0.00981086,0.00422791,-0.0155261,0.843286,0.0120107,0.0174882,1777,1506,15.2915,-14.5303
560,-482,15.266,14.2258,-0.00477677,-0.00320257,0.00669474,0.00275118,-0.0107305,0.843914,0.00822556,0.0130402,1784,1506,15.266,-14.2259
567,-482,15.3092,13.8701,-0.00307224,-0.00215573,0.00449027,0.0018996,-0.00712757,0.83625,0.00549547,0.0148556,1791,1506,15.3092,-13.8701
574,-482,15.3051,13.536,-0.00171334,-0.00134751,0.00279156,0.00126713,-0.00432797,0.818114,0.00338763,0.0141956,1798,1506,15.305,-13.536
581,-482,15.2941,13.1837,-0.000560982,-0.000698285,0.00149538,0.000867317,-0.00212658,0.76246,0.00177877,0.0102833,1805,1506,15.294,-13.1837
588,-482,15.2885,12.8322,0.000650797,-0.000326663,0.000203791,0.000691583,-0.00036745,0.197529,0.000620906,0.0106379,1812,1506,15.2884,-12.8321
595,-482,15.2991,12.4733,0.00153065,-0.000133576,-0.000491073,0.00166475,-0.000267675,-0.266573,0.00120898,0.0164259,1819,1506,15.2991,-12.4733
602,-482,15.2983,12.1218,0.00220562,-0.000300452,-0.00071537,0.00239545,-0.000490278,-0.259377,0.00178301,0.0211696,1826,1506,15.2984,-12.1219
609,-482,15.2816,11.811,0.00293626,-0.00067146,-0.000828161,0.00311729,-0.000852483,-0.2152,0.00241308,0.0166056,1833,1506,15.2816,-11.811
616,-482,15.2626,11.476,0.00374207,-0.00129587,-0.000808877,0.00386875,-0.00142255,-0.155357,0.00316189,0.0116027,1840,1506,15.2625,-11.476
623,-482,15.245,11.1327,0.00466024,-0.00206183,-0.000583062,0.00471044,-0.00211203,-0.0858838,0.00403306,0.0116869,1847,1506,15.245,-11.1327
630,-482,15.3292,10.8315,0.00556478,-0.00316526,-3.77125e-05,0.00556494,-0.00316543,-0.00431974,0.00510354,0.0246708,1854,1506,15.3292,-10.8316
637,-482,15.5609,10.8085,0.00670454,-0.00438662,0.000649806,0.00674248,-0.00442456,0.0583218,0.00649343,0.0477465,1861,1506,15.5609,-10.8085
644,-482,15.7245,10.7561,0,0,0,0,0,0,0,-1,1868,1506,15.7244,-10.7561
651,-482,4.03845,7.05273,0,0,0,0,0,0,0,-1,1875,1506,4.03843,-7.05279
658,-482,10.0278,5.87903,0,0,0,0,0,0,0,-1,1882,1506,10.0279,-5.87902
665,-482,8.15198,3.22229,0,0,0,0,0,0,0,-1,1889,1506,8.15199,-3.22232
672,-482,9.87415,1.3147,0,0,0,0,0,0,0,-1,1896,1506,9.87416,-1.31473
679,-482,0,0,0,0,0,0,0,0,0,-1,1903,1506,0,0
686,-482,0,0,0,0,0,0,0,0,0,-1,1910,1506,0,0
693,-482,0,0,0,0,0,0,0,0,0,-1,1917,1506,0,0
700,-482,0,0,0,0,0,0,0,0,0,-1,1924,1506,0,0
707,-482,0,0,0,0,0,0,0,0,0,-1,1931,1506,0,0
714,-482,0,0,0,0,0,0,0,0,0,-1,1938,1506,0,0
721,-482,0,0,0,0,0,0,0,0,0,-1,1945,1506,0,0
728,-482,0,0,0,0,0,0,0,0,0,-1,1952,1506,0,0
735,-482,0,0,0,0,0,0,0,0,0,-1,1959,1506,0,0
742,-482,0,0,0,0,0,0,0,0,0,-1,1966,1506,0,0
749,-482,0,0,0,0,0,0,0,0,0,-1,1973,1506,0,0
756,-482,0,0,0,0,0,0,0,0,0,-1,1980,1506,0,0
763,-482,0,0,0,0,0,0,0,0,0,-1,1987,1506,0,0
770,-482,0,0,0,0,0,0,0,0,0,-1,1994,1506,0,0
777,-482,0,0,0,0,0,0,0,0,0,-1,2001,1506,0,0
784,-482,0,0,0,0,0,0,0,0,0,-1,2008,1506,0,0
791,-482,0,0,0,0,0,0,0,0,0,-1,2015,1506,0,0
798,-482,0,0,0,0,0,0,0,0,0,-1,2022,1506,0,0
805,-482,0,0,0,0,0,0,0,0,0,-1,2029,1506,0,0
812,-482,0,0,0,0,0,0,0,0,0,-1,2036,1506,0,0
-700,-489,0,0,0,0,0,0,0,0,0,-1,524,1513,0,0
-693,-489,0,0,0,0,0,0,0,0,0,-1,531,1513,0,0
-686,-489,0,0,0,0,0,0,0,0,0,-1,538,1513,0,0
-679,-489,0,0,0,0,0,0,0,0,0,-1,545,1513,0,0
-672,-489,0,0,0,0,0,0,0,0,0,-1,552,1513,0,0
-665,-489,0,0,0,0,0,0,0,0,0,-1,559,1513,0,0
-658,-489,0,0,0,0,0,0,0,0,0,-1,566,1513,0,0
-651,-489,0,0,0,0,0,0,0,0,0,-1,573,1513,0,0
-644,-489,0,0,0,0,0,0,0,0,0,-1,580,1513,0,0
-637,-489,0,0,0,0,0,0,0,0,0,-1,587,1513,0,0
-630,-489,0,0,0,0,0,0,0,0,0,-1,594,1513,0,0
-623,-489,0,0,0,0,0,0,0,0,0,-1,601,1513,0,0
-616,-489,0,0,0,0,0,0,0,0,0,-1,608,1513,0,0
-609,-489,0,0,0,0,0,0,0,0,0,-1,615,1513,0,0
-602,-489,0,0,0,0,0,0,0,0,0,-1,622,1513,0,0
-595,-489,0,0,0,0,0,0,0,0,0,-1,629,1513,0,0
-588,-489,0,0,0,0,0,0,0,0,0,-1,636,1513,0,0
-581,-489,0,0,0,0,0,0,0,0,0,-1,643,1513,0,0
-574,-489,0,0,0,0,0,0,0,0,0,-1,650,1513,0,0
-567,-489,0,0,0,0,0,0,0,0,0,-1,657,1513,0,0
-560,-489,0,0,0,0,0,0,0,0,0,-1,664,1513,0,0
-553,-489,-9.42206,8.5116,0,0,0,0,0,0,0,-1,671,1513,-9.42205,-8.51158
-546,-489,-7.80951,8.18506,0,0,0,0,0,0,0,-1,678,1513,-7.8095,-8.18503
-539,-489,-3.06879,2.82349,0,0,0,0,0,0,0,-1,685,1513,-3.06881,-2.82354
-532,-489,-2.85162,4.27673,0.0635308,0.215711,0.123623,0.284784,-0.00554241,1.06127,0.19173,0.0474063,692,1513,-2.85164,-4.27668
-525,-489,-2.59546,5.57397,0.0486422,0.168394,0.098584,0.223861,-0.00682463,1.0583,0.151566,0.0461431,699,1513,-2.59547,-5.57403
-518,-489,-2.78125,6.84351,0,0,0,0,0,0,0,-1,706,1513,-2.78125,-6.84346
-511,-489,-2.79211,7.58325,0.0257362,0.0945741,0.0578464,0.127467,-0.00715657,1.05377,0.0874611,0.04832,713,1513,-2.79211,-7.58327
-504,-489,-2.96741,8.13208,0.0174167,0.0672287,0.0421984,0.0913229,-0.00667748,1.05199,0.0632254,0.0453961,720,1513,-2.96738,-8.13211
-497,-489,-2.93719,8.98035,0.0110691,0.0458693,0.029611,0.0628141,-0.00587576,1.05103,0.0439657,0.0403074,727,1513,-2.93719,-8.98036
-490,-489,-3.08691,9.32898,0.00646038,0.0298414,0.0199579,0.0412807,-0.0049789,1.05034,0.0293213,0.0265824,734,1513,-3.08693,-9.32898
-483,-489,-3.22504,9.70947,0.0032903,0.0183201,0.0128677,0.0257066,-0.00409618,1.04969,0.0186536,0.0131052,741,1513,-3.22506,-9.70948
-476,-489,-3.21991,10.0988,0.00101157,0.00881684,0.00716985,0.0130774,-0.00324897,1.03463,0.00997912,0.0104656,748,1513,-3.2199,-10.0988
-469,-489,-3.2309,10.4685,-0.000393917,0.00287569,0.00331957,0.00494118,-0.0024594,1.0142,0.00435207,0.0109146,755,1513,-3.23089,-10.4685
-462,-489,-3.23315,10.8544,-0.000721956,-0.000419215,0.0011625,0.00060173,-0.0017429,0.850139,0.0014061,0.0150282,762,1513,-3.23314,-10.8544
-455,-489,-3.23785,11.2389,-0.000158786,-0.00222522,0.00010974,-0.000152974,-0.00223103,0.0529076,0.00143908,0.0188923,769,1513,-3.23788,-11.2389
-448,-489,-3.27411,11.6207,0.00101988,-0.00205217,0.000182042,0.00103063,-0.00206292,0.0589825,0.0018189,0.0167559,776,1513,-3.27409,-11.6208
-441,-489,-3.28113,12.0098,0.00243645,-0.00186049,0.000622109,0.00252471,-0.00194875,0.140925,0.00258988,0.0145058,783,1513,-3.28113,-12.0098
-434,-489,-3.31976,12.3848,0.00395167,-0.00156218,0.00127219,0.00423104,-0.00184155,0.216168,0.00359535,0.0162737,790,1513,-3.31978,-12.3847
-427,-489,-3.32892,12.7373,0.00554844,-0.00110182,0.00207667,0.00614365,-0.00169703,0.279134,0.0047633,0.0176808,797,1513,-3.32894,-12.7373
-420,-489,-3.29877,13.198,0.00721842,-0.000470315,0.00317885,0.00836246,-0.00161436,0.34546,0.00618374,0.0206542,804,1513,-3.29879,-13.1979
-413,-489,-2.91315,13.5016,0.00920423,0.000519138,0.00471234,0.0112698,-0.00154642,0.413107,0.00807816,0.0442326,811,1513,-2.91317,-13.5016
-406,-489,-2.7254,14.1686,0,0,0,0,0,0,0,-1,818,1513,-2.72537,-14.1686
-399,-489,-1.41241,9.10718,0,0,0,0,0,0,0,-1,825,1513,-1.41244,-9.10722
-392,-489,-1.0368,9.30469,0,0,0,0,0,0,0,-1,832,1513,-1.03682,-9.30466
-385,-489,-1.75165,10.6559,0,0,0,0,0,0,0,-1,839,1513,-1.75165,-10.6559
-378,-489,-0.401428,9.87048,0,0,0,0,0,0,0,-1,846,1513,-0.401415,-9.87047
-371,-489,-1.11633,10.6606,0,0,0,0,0,0,0,-1,853,1513,-1.11633,-10.6606
-364,-489,-0.503113,8.98486,0,0,0,0,0,0,0,-1,860,1513,-0.503097,-8.98482
-357,-489,-0.609924,10.9606,0,0,0,0,0,0,0,-1,867,1513,-0.609947,-10.9605
-350,-489,-7.94659,-0.358887,0,0,0,0,0,0,0,-1,874,1513,-7.94657,0.358912
-343,-489,-7.49323,-0.437866,0,0,0,0,0,0,0,-1,881,1513,-7.49322,0.437823
-336,-489,-7.02332,-0.53125,0,0,0,0,0,0,0,-1,888,1513,-7.0233,0.531295
-329,-489,-6.70221,-0.242432,0,0,0,0,0,0,0,-1,895,1513,-6.70221,0.2424
-322,-489,0,0,0,0,0,0,0,0,0,-1,902,1513,0,0
-315,-489,0,0,0,0,0,0,0,0,0,-1,909,1513,0,0
-308,-489,0,0,0,0,0,0,0,0,0,-1,916,1513,0,0
-301,-489,0,0,0,0,0,0,0,0,0,-1,923,1513,0,0
-294,-489,0,0,0,0,0,0,0,0,0,-1,930,1513,0,0
-287,-489,0,0,0,0,0,0,0,0,0,-1,937,1513,0,0
-280,-489,0,0,0,0,0,0,0,0,0,-1,944,1513,0,0
-273,-489,0,0,0,0,0,0,0,0,0,-1,951,1513,0,0
-266,-489,0,0,0,0,0,0,0,0,0,-1,958,1513,0,0
-259,-489,0,0,0,0,0,0,0,0,0,-1,965,1513,0,0
-252,-489,0,0,0,0,0,0,0,0,0,-1,972,1513,0,0
-245,-489,0,0,0,0,0,0,0,0,0,-1,979,1513,0,0
-238,-489,0,0,0,0,0,0,0,0,0,-1,986,1513,0,0
-231,-489,0,0,0,0,0,0,0,0,0,-1,993,1513,0,0
-224,-489,0,0,0,0,0,0,0,0,0,-1,1000,1513,0,0
-217,-489,0,0,0,0,0,0,0,0,0,-1,1007,1513,0,0
-210,-489,0,0,0,0,0,0,0,0,0,-1,1014,1513,0,0
-203,-489,0,0,0,0,0,0,0,0,0,-1,1021,1513,0,0
-196,-489,0,0,0,0,0,0,0,0,0,-1,1028,1513,0,0
-189,-489,0,0,0,0,0,0,0,0,0,-1,1035,1513,0,0
-182,-489,0,0,0,0,0,0,0,0,0,-1,1042,1513,0,0
-175,-489,0,0,0,0,0,0,0,0,0,-1,1049,1513,0,0
-168,-489,0,0,0,0,0,0,0,0,0,-1,1056,1513,0,0
-161,-489,0,0,0,0,0,0,0,0,0,-1,1063,1513,0,0
-154,-489,0,0,0,0,0,0,0,0,0,-1,1070,1513,0,0
-147,-489,0,0,0,0,0,0,0,0,0,-1,1077,1513,0,0
-140,-489,0,0,0,0,0,0,0,0,0,-1,1084,1513,0,0
-133,-489,0,0,0,0,0,0,0,0,0,-1,1091,1513,0,0
-126,-489,0,0,0,0,0,0,0,0,0,-1,1098,1513,0,0
-119,-489,0,0,0,0,0,0,0,0,0,-1,1105,1513,0,0
-112,-489,0,0,0,0,0,0,0,0,0,-1,1112,1513,0,0
-105,-489,0,0,0,0,0,0,0,0,0,-1,1119,1513,0,0
-98,-489,0,0,0,0,0,0,0,0,0,-1,1126,1513,0,0
-91,-489,0,0,0,0,0,0,0,0,0,-1,1133,1513,0,0
-84,-489,0,0,0,0,0,0,0,0,0,-1,1140,1513,0,0
-77,-489,0,0,0,0,0,0,0,0,0,-1,1147,1513,0,0
-70,-489,0,0,0,0,0,0,0,0,0,-1,1154,1513,0,0
-63,-489,0,0,0,0,0,0,0,0,0,-1,1161,1513,0,0
-56,-489,0,0,0,0,0,0,0,0,0,-1,1168,1513,0,0
-49,-489,0,0,0,0,0,0,0,0,0,-1,1175,1513,0,0
-42,-489,0,0,0,0,0,0,0,0,0,-1,1182,1513,0,0
-35,-489,0,0,0,0,0,0,0,0,0,-1,1189,1513,0,0
-28,-489,0,0,0,0,0,0,0,0,0,-1,1196,1513,0,0
-21,-489,0,0,0,0,0,0,0,0,0,-1,1203,1513,0,0
-14,-489,0,0,0,0,0,0,0,0,0,-1,1210,1513,0,0
-7,-489,0,0,0,0,0,0,0,0,0,-1,1217,1513,0,0
0,-489,0,0,0,0,0,0,0,0,0,-1,1224,1513,0,0
7,-489,0,0,0,0,0,0,0,0,0,-1,1231,1513,0,0
14,-489,0,0,0,0,0,0,0,0,0,-1,1238,1513,0,0
21,-489,0,0,0,0,0,0,0,0,0,-1,1245,1513,0,0
28,-489,0,0,0,0,0,0,0,0,0,-1,1252,1513,0,0
35,-489,0,0,0,0,0,0,0,0,0,-1,1259,1513,0,0
42,-489,0,0,0,0,0,0,0,0,0,-1,1266,1513,0,0
49,-489,0,0,0,0,0,0,0,0,0,-1,1273,1513,0,0
56,-489,0,0,0,0,0,0,0,0,0,-1,1280,1513,0,0
63,-489,0,0,0,0,0,0,0,0,0,-1,1287,1513,0,0
70,-489,0,0,0,0,0,0,0,0,0,-1,1294,1513,0,0
77,-489,0,0,0,0,0,0,0,0,0,-1,1301,1513,0,0
84,-489,0,0,0,0,0,0,0,0,0,-1,1308,1513,0,0
91,-489,0,0,0,0,0,0,0,0,0,-1,1315,1513,0,0
98,-489,0,0,0,0,0,0,0,0,0,-1,1322,1513,0,0
105,-489,0,0,0,0,0,0,0,0,0,-1,1329,1513,0,0
112,-489,0,0,0,0,0,0,0,0,0,-1,1336,1513,0,0
119,-489,0,0,0,0,0,0,0,0,0,-1,1343,1513,0,0
126,-489,0,0,0,0,0,0,0,0,0,-1,1350,1513,0,0
133,-489,0,0,0,0,0,0,0,0,0,-1,1357,1513,0,0
140,-489,0,0,0,0,0,0,0,0,0,-1,1364,1513,0,0
147,-489,0,0,0,0,0,0,0,0,0,-1,1371,1513,0,0
154,-489,0,0,0,0,0,0,0,0,0,-1,1378,1513,0,0
161,-489,0,0,0,0,0,0,0,0,0,-1,1385,1513,0,0
168,-489,0,0,0,0,0,0,0,0,0,-1,1392,1513,0,0
175,-489,0,0,0,0,0,0,0,0,0,-1,1399,1513,0,0
182,-489,0,0,0,0,0,0,0,0,0,-1,1406,1513,0,0
189,-489,0,0,0,0,0,0,0,0,0,-1,1413,1513,0,0
196,-489,0,0,0,0,0,0,0,0,0,-1,1420,1513,0,0
203,-489,0,0,0,0,0,0,0,0,0,-1,1427,1513,0,0
210,-489,0,0,0,0,0,0,0,0,0,-1,1434,1513,0,0
217,-489,0,0,0,0,0,0,0,0,0,-1,1441,1513,0,0
224,-489,0,0,0,0,0,0,0,0,0,-1,1448,1513,0,0
231,-489,0,0,0,0,0,0,0,0,0,-1,1455,1513,0,0
238,-489,0,0,0,0,0,0,0,0,0,-1,1462,1513,0,0
245,-489,0,0,0,0,0,0,0,0,0,-1,1469,1513,0,0
252,-489,0,0,0,0,0,0,0,0,0,-1,1476,1513,0,0
259,-489,0,0,0,0,0,0,0,0,0,-1,1483,1513,0,0
266,-489,0,0,0,0,0,0,0,0,0,-1,1490,1513,0,0
273,-489,0,0,0,0,0,0,0,0,0,-1,1497,1513,0,0
280,-489,0,0,0,0,0,0,0,0,0,-1,1504,1513,0,0
287,-489,0,0,0,0,0,0,0,0,0,-1,1511,1513,0,0
294,-489,0,0,0,0,0,0,0,0,0,-1,1518,1513,0,0
301,-489,0,0,0,0,0,0,0,0,0,-1,1525,1513,0,0
308,-489,0,0,0,0,0,0,0,0,0,-1,1532,1513,0,0
315,-489,0,0,0,0,0,0,0,0,0,-1,1539,1513,0,0
322,-489,0,0,0,0,0,0,0,0,0,-1,1546,1513,0,0
329,-489,0,0,0,0,0,0,0,0,0,-1,1553,1513,0,0
336,-489,0,0,0,0,0,0,0,0,0,-1,1560,1513,0,0
343,-489,0,0,0,0,0,0,0,0,0,-1,1567,1513,0,0
350,-489,0,0,0,0,0,0,0,0,0,-1,1574,1513,0,0
357,-489,0,0,0,0,0,0,0,0,0,-1,1581,1513,0,0
364,-489,0,0,0,0,0,0,0,0,0,-1,1588,1513,0,0
371,-489,0,0,0,0,0,0,0,0,0,-1,1595,1513,0,0
378,-489,0,0,0,0,0,0,0,0,0,-1,1602,1513,0,0
385,-489,0,0,0,0,0,0,0,0,0,-1,1609,1513,0,0
392,-489,0,0,0,0,0,0,0,0,0,-1,1616,1513,0,0
399,-489,0,0,0,0,0,0,0,0,0,-1,1623,1513,0,0
406,-489,0,0,0,0,0,0,0,0,0,-1,1630,1513,0,0
413,-489,0,0,0,0,0,0,0,0,0,-1,1637,1513,0,0
420,-489,0,0,0,0,0,0,0,0,0,-1,1644,1513,0,0
427,-489,0,0,0,0,0,0,0,0,0,-1,1651,1513,0,0
434,-489,0,0,0,0,0,0,0,0,0,-1,1658,1513,0,0
441,-489,11.4602,2.56787,0,0,0,0,0,0,0,-1,1665,1513,11.4602,-2.56786
448,-489,12.4425,1.72351,0,0,0,0,0,0,0,-1,1672,1513,12.4425,-1.72349
455,-489,12.5575,1.37463,0,0,0,0,0,0,0,-1,1679,1513,12.5575,-1.37469
462,-489,14.9784,3.84888,0,0,0,0,0,0,0,-1,1686,1513,14.9784,-3.84892
469,-489,15.1367,4.53101,0,0,0,0,0,0,0,-1,1693,1513,15.1368,-4.531
476,-489,15.5536,5.09338,0,0,0,0,0,0,0,-1,1700,1513,15.5536,-5.09339
483,-489,8.96912,8.37805,0,0,0,0,0,0,0,-1,1707,1513,8.96909,-8.37809
490,-489,10.5366,7.49561,0,0,0,0,0,0,0,-1,1714,1513,10.5367,-7.49558
497,-489,14.6051,11.8397,0,0,0,0,0,0,0,-1,1721,1513,14.6051,-11.8397
504,-489,16.7527,14.1735,0,0,0,0,0,0,0,-1,1728,1513,16.7527,-14.1735
511,-489,17.83,17.7993,0,0,0,0,0,0,0,-1,1735,1513,17.83,-17.7993
518,-489,16.4751,14.3682,0,0,0,0,0,0,0,-1,1742,1513,16.4751,-14.3682
525,-489,15.2263,15.2921,0,0,0,0,0,0,0,-1,1749,1513,15.2264,-15.2921
532,-489,15.2172,15.1241,-0.0108839,-0.0126398,0.0211624,0.0094187,-0.0329425,0.764666,0.0256835,0.0438023,1756,1513,15.2171,-15.1242
539,-489,15.0298,15.1793,-0.00849949,-0.00873118,0.0155316,0.00691665,-0.0241473,0.781669,0.018832,0.0200556,1763,1513,15.0297,-15.1793
546,-489,14.9607,14.9379,-0.00644379,-0.00542879,0.0111643,0.0052395,-0.0171121,0.808111,0.0134979,0.013809,1770,1513,14.9607,-14.9378
553,-489,14.9521,14.5817,-0.00476785,-0.00359013,0.00772864,0.00357206,-0.01193,0.823421,0.00937372,0.0149522,1777,1513,14.9522,-14.5816
560,-489,14.957,14.2146,-0.00326044,-0.00252746,0.00517328,0.00229229,-0.00808019,0.820761,0.00629166,0.0132937,1784,1513,14.9571,-14.2146
567,-489,14.9825,13.8859,-0.00191365,-0.00172736,0.00339951,0.00158028,-0.00522129,0.799094,0.00411017,0.0153218,1791,1513,14.9825,-13.8859
574,-489,14.9438,13.5707,-0.000776282,-0.00103702,0.00195671,0.0010544,-0.0028677,0.752134,0.0023437,0.0157348,1798,1513,14.9439,-13.5707
581,-489,14.9517,13.2136,0.000250239,-0.000461117,0.000833454,0.000800735,-0.00101161,0.583721,0.00104872,0.0113078,1805,1513,14.9516,-13.2136
588,-489,14.9524,12.8562,0.00134607,-0.000181879,-0.000274369,0.00139385,-0.000229653,-0.172394,0.00101448,0.0135733,1812,1513,14.9523,-12.8562
595,-489,14.9594,12.5007,0.00217268,-4.91658e-05,-0.000898636,0.00249063,-0.000367122,-0.340075,0.00179535,0.0192489,1819,1513,14.9594,-12.5007
602,-489,14.958,12.1614,0.00288757,-0.000245862,-0.00116861,0.00327539,-0.00063369,-0.320435,0.00242261,0.0233929,1826,1513,14.958,-12.1614
609,-489,14.929,11.8447,0.00371038,-0.000635196,-0.00134485,0.00409291,-0.00101772,-0.277119,0.00312361,0.0166828,1833,1513,14.9289,-11.8447
616,-489,14.9259,11.4711,0.00469589,-0.001294,-0.00144592,0.00502666,-0.00162477,-0.224891,0.00400413,0.0133779,1840,1513,14.9259,-11.4711
623,-489,14.9222,11.1158,0.00585533,-0.00203112,-0.00135084,0.00608029,-0.00225608,-0.165021,0.00497895,0.0207569,1847,1513,14.9222,-11.1158
630,-489,14.9552,10.7494,0.00703453,-0.00317435,-0.000952183,0.00712259,-0.0032624,-0.0922103,0.00613229,0.0466048,1854,1513,14.9552,-10.7494
637,-489,15.0012,10.4584,0,0,0,0,0,0,0,-1,1861,1513,15.0013,-10.4583
644,-489,9.67578,8.45874,0,0,0,0,0,0,0,-1,1868,1513,9.67576,-8.45879
651,-489,6.13818,6.85095,0,0,0,0,0,0,0,-1,1875,1513,6.13823,-6.85097
658,-489,5.43848,7.75513,0,0,0,0,0,0,0,-1,1882,1513,5.43844,-7.75509
665,-489,5.48438,8.59912,0,0,0,0,0,0,0,-1,1889,1513,5.48434,-8.59907
672,-489,0,0,0,0,0,0,0,0,0,-1,1896,1513,0,0
679,-489,0,0,0,0,0,0,0,0,0,-1,1903,1513,0,0
686,-489,0,0,0,0,0,0,0,0,0,-1,1910,1513,0,0
693,-489,0,0,0,0,0,0,0,0,0,-1,1917,1513,0,0
700,-489,0,0,0,0,0,0,0,0,0,-1,1924,1513,0,0
707,-489,0,0,0,0,0,0,0,0,0,-1,1931,1513,0,0
714,-489,0,0,0,0,0,0,0,0,0,-1,1938,1513,0,0
721,-489,0,0,0,0,0,0,0,0,0,-1,1945,1513,0,0
728,-489,0,0,0,0,0,0,0,0,0,-1,1952,1513,0,0
735,-489,0,0,0,0,0,0,0,0,0,-1,1959,1513,0,0
742,-489,0,0,0,0,0,0,0,0,0,-1,1966,1513,0,0
749,-489,0,0,0,0,0,0,0,0,0,-1,1973,1513,0,0
756,-489,0,0,0,0,0,0,0,0,0,-1,1980,1513,0,0
763,-489,0,0,0,0,0,0,0,0,0,-1,1987,1513,0,0
770,-489,0,0,0,0,0,0,0,0,0,-1,1994,1513,0,0
777,-489,0,0,0,0,0,0,0,0,0,-1,2001,1513,0,0
784,-489,0,0,0,0,0,0,0,0,0,-1,2008,1513,0,0
791,-489,0,0,0,0,0,0,0,0,0,-1,2015,1513,0,0
798,-489,0,0,0,0,0,0,0,0,0,-1,2022,1513,0,0
805,-489,0,0,0,0,0,0,0,0,0,-1,2029,1513,0,0
812,-489,0,0,0,0,0,0,0,0,0,-1,2036,1513,0,0
-700,-496,0,0,0,0,0,0,0,0,0,-1,524,1520,0,0
-693,-496,0,0,0,0,0,0,0,0,0,-1,531,1520,0,0
-686,-496,0,0,0,0,0,0,0,0,0,-1,538,1520,0,0
-679,-496,0,0,0,0,0,0,0,0,0,-1,545,1520,0,0
-672,-496,0,0,0,0,0,0,0,0,0,-1,552,1520,0,0
-665,-496,0,0,0,0,0,0,0,0,0,-1,559,1520,0,0
-658,-496,0,0,0,0,0,0,0,0,0,-1,566,1520,0,0
-651,-496,0,0,0,0,0,0,0,0,0,-1,573,1520,0,0
-644,-496,0,0,0,0,0,0,0,0,0,-1,580,1520,0,0
-637,-496,0,0,0,0,0,0,0,0,0,-1,587,1520,0,0
-630,-496,0,0,0,0,0,0,0,0,0,-1,594,1520,0,0
-623,-496,0,0,0,0,0,0,0,0,0,-1,601,1520,0,0
-616,-496,0,0,0,0,0,0,0,0,0,-1,608,1520,0,0
-609,-496,0,0,0,0,0,0,0,0,0,-1,615,1520,0,0
-602,-496,0,0,0,0,0,0,0,0,0,-1,622,1520,0,0
-595,-496,0,0,0,0,0,0,0,0,0,-1,629,1520,0,0
-588,-496,0,0,0,0,0,0,0,0,0,-1,636,1520,0,0
-581,-496,0,0,0,0,0,0,0,0,0,-1,643,1520,0,0
-574,-496,0,0,0,0,0,0,0,0,0,-1,650,1520,0,0
-567,-496,0,0,0,0,0,0,0,0,0,-1,657,1520,0,0
-560,-496,0,0,0,0,0,0,0,0,0,-1,664,1520,0,0
-553,-496,0,0,0,0,0,0,0,0,0,-1,671,1520,0,0
-546,-496,-8.09711,7.94836,0,0,0,0,0,0,0,-1,678,1520,-8.09712,-7.94842
-539,-496,-3.20129,1.16052,0,0,0,0,0,0,0,-1,685,1520,-3.20131,-1.16054
-532,-496,-2.98279,2.62146,0.0661308,0.24641,0.139459,0.322324,-0.00978333,1.0723,0.218217,0.0499415,692,1520,-2.98278,-2.62151
-525,-496,-2.75201,4.08032,0.0502834,0.194053,0.112336,0.255536,-0.011199,1.07002,0.17421,0.0490423,699,1520,-2.75201,-4.08031
-518,-496,-2.6333,5.36072,0.0373615,0.149225,0.088299,0.197816,-0.0112298,1.06772,0.135776,0.0468264,706,1520,-2.63328,-5.36077
-511,-496,-2.59271,6.55872,0.0268714,0.110982,0.0674539,0.148417,-0.0105635,1.06415,0.102647,0.0462587,713,1520,-2.59271,-6.55875
-504,-496,-2.42792,8.50232,0.0184537,0.0794441,0.0496099,0.107182,-0.00928432,1.06098,0.0747419,0.0490514,720,1520,-2.4279,-8.50231
-497,-496,-2.58722,9.0863,0.0117785,0.0543915,0.0349501,0.0740176,-0.00784761,1.05913,0.0521581,0.0465705,727,1520,-2.58724,-9.08625
-490,-496,-2.66077,9.48572,0.0067492,0.0353026,0.0235674,0.0485804,-0.00652856,1.05773,0.034768,0.0372934,734,1520,-2.66078,-9.48573
-483,-496,-2.80261,9.79529,0.00327956,0.021546,0.0151511,0.0301037,-0.0052782,1.05664,0.0220402,0.0220981,741,1520,-2.80262,-9.79523
-476,-496,-2.86328,10.1051,0.000717783,0.0103238,0.00835659,0.0151593,-0.00411775,1.04622,0.0117224,0.0123969,748,1520,-2.86327,-10.1051
-469,-496,-2.87427,10.4979,-0.000786755,0.00351407,0.00385455,0.00577748,-0.00305016,1.03984,0.00517708,0.0111232,755,1520,-2.87428,-10.4979
-462,-496,-2.87866,10.884,-0.00114339,-0.000145588,0.00129626,0.000744461,-0.00203344,0.9691,0.00166038,0.0146457,762,1520,-2.87866,-10.884
-455,-496,-2.89197,11.277,-0.000566743,-0.00199116,5.2786e-05,-0.00056479,-0.00199311,0.0369904,0.00118618,0.019771,769,1520,-2.89199,-11.277
-448,-496,-2.91205,11.6519,0.000674614,-0.00144609,0.000145535,0.000684555,-0.00145603,0.0681995,0.00126234,0.0185812,776,1520,-2.91205,-11.6519
-441,-496,-2.88947,12.0135,0.00213768,-0.000890165,0.000645811,0.00226967,-0.00102216,0.201604,0.0019455,0.0140162,783,1520,-2.88949,-12.0135
-434,-496,-2.92194,12.3739,0.00366352,-0.00021213,0.00137732,0.00410313,-0.000651738,0.308954,0.00297655,0.0125434,790,1520,-2.92194,-12.3739
-427,-496,-2.94336,12.7372,0.00520612,0.000578089,0.0022498,0.00611953,-0.000335319,0.385664,0.00419593,0.0156414,797,1520,-2.94337,-12.7372
-420,-496,-2.9082,13.11,0.00678904,0.00148345,0.00336422,0.00842055,-0.000148062,0.451544,0.0056637,0.0176059,804,1520,-2.90817,-13.11
-413,-496,-2.8465,13.4988,0.00858187,0.00267319,0.00482137,0.0112821,-2.69986e-05,0.510524,0.00753039,0.0225126,811,1520,-2.84649,-13.4987
-406,-496,-2.74451,14.0243,0,0,0,0,0,0,0,-1,818,1520,-2.74449,-14.0243
-399,-496,-2.43335,14.6591,0,0,0,0,0,0,0,-1,825,1520,-2.43338,-14.6591
-392,-496,-1.49786,12.387,0,0,0,0,0,0,0,-1,832,1520,-1.49788,-12.387
-385,-496,-1.72437,11.4985,0,0,0,0,0,0,0,-1,839,1520,-1.72436,-11.4985
-378,-496,-1.45532,14.0719,0,0,0,0,0,0,0,-1,846,1520,-1.45533,-14.0719
-371,-496,0.0877075,12.5299,0,0,0,0,0,0,0,-1,853,1520,0.0876896,-12.5299
-364,-496,0.0881348,10.6422,0,0,0,0,0,0,0,-1,860,1520,0.0881368,-10.6423
-357,-496,0.323792,7.56812,0,0,0,0,0,0,0,-1,867,1520,0.323782,-7.56806
-350,-496,2.1535,7.18945,0,0,0,0,0,0,0,-1,874,1520,2.15348,-7.1894
-343,-496,-7.56244,0.335327,0,0,0,0,0,0,0,-1,881,1520,-7.56242,-0.335322
-336,-496,-3.99249,6.02222,0,0,0,0,0,0,0,-1,888,1520,-3.99246,-6.0222
-329,-496,-6.93689,-0.100342,0,0,0,0,0,0,0,-1,895,1520,-6.93686,0.1003
-322,-496,-6.17505,0.494385,0,0,0,0,0,0,0,-1,902,1520,-6.17507,-0.49437
-315,-496,-4.31854,3.10205,0,0,0,0,0,0,0,-1,909,1520,-4.31852,-3.10209
-308,-496,0,0,0,0,0,0,0,0,0,-1,916,1520,0,0
-301,-496,0,0,0,0,0,0,0,0,0,-1,923,1520,0,0
-294,-496,0,0,0,0,0,0,0,0,0,-1,930,1520,0,0
-287,-496,0,0,0,0,0,0,0,0,0,-1,937,1520,0,0
-280,-496,0,0,0,0,0,0,0,0,0,-1,944,1520,0,0
-273,-496,0,0,0,0,0,0,0,0,0,-1,951,1520,0,0
-266,-496,0,0,0,0,0,0,0,0,0,-1,958,1520,0,0
-259,-496,0,0,0,0,0,0,0,0,0,-1,965,1520,0,0
-252,-496,0,0,0,0,0,0,0,0,0,-1,972,1520,0,0
-245,-496,0,0,0,0,0,0,0,0,0,-1,979,1520,0,0
-238,-496,0,0,0,0,0,0,0,0,0,-1,986,1520,0,0
-231,-496,0,0,0,0,0,0,0,0,0,-1,993,1520,0,0
-224,-496,0,0,0,0,0,0,0,0,0,-1,1000,1520,0,0
-217,-496,0,0,0,0,0,0,0,0,0,-1,1007,1520,0,0
-210,-496,0,0,0,0,0,0,0,0,0,-1,1014,1520,0,0
-203,-496,0,0,0,0,0,0,0,0,0,-1,1021,1520,0,0
-196,-496,0,0,0,0,0,0,0,0,0,-1,1028,1520,0,0
-189,-496,0,0,0,0,0,0,0,0,0,-1,1035,1520,0,0
-182,-496,0,0,0,0,0,0,0,0,0,-1,1042,1520,0,0
-175,-496,0,0,0,0,0,0,0,0,0,-1,1049,1520,0,0
-168,-496,0,0,0,0,0,0,0,0,0,-1,1056,1520,0,0
-161,-496,0,0,0,0,0,0,0,0,0,-1,1063,1520,0,0
-154,-496,0,0,0,0,0,0,0,0,0,-1,1070,1520,0,0
-147,-496,0,0,0,0,0,0,0,0,0,-1,1077,1520,0,0
-140,-496,0,0,0,0,0,0,0,0,0,-1,1084,1520,0,0
-133,-496,0,0,0,0,0,0,0,0,0,-1,1091,1520,0,0
-126,-496,0,0,0,0,0,0,0,0,0,-1,1098,1520,0,0
-119,-496,0,0,0,0,0,0,0,0,0,-1,1105,1520,0,0
-112,-496,0,0,0,0,0,0,0,0,0,-1,1112,1520,0,0
-105,-496,0,0,0,0,0,0,0,0,0,-1,1119,1520,0,0
-98,-496,0,0,0,0,0,0,0,0,0,-1,1126,1520,0,0
-91,-496,0,0,0,0,0,0,0,0,0,-1,1133,1520,0,0
-84,-496,0,0,0,0,0,0,0,0,0,-1,1140,1520,0,0
-77,-496,0,0,0,0,0,0,0,0,0,-1,1147,1520,0,0
-70,-496,0,0,0,0,0,0,0,0,0,-1,1154,1520,0,0
-63,-496,0,0,0,0,0,0,0,0,0,-1,1161,1520,0,0
-56,-496,0,0,0,0,0,0,0,0,0,-1,1168,1520,0,0
-49,-496,0,0,0,0,0,0,0,0,0,-1,1175,1520,0,0
-42,-496,0,0,0,0,0,0,0,0,0,-1,1182,1520,0,0
-35,-496,0,0,0,0,0,0,0,0,0,-1,1189,1520,0,0
-28,-496,0,0,0,0,0,0,0,0,0,-1,1196,1520,0,0
-21,-496,0,0,0,0,0,0,0,0,0,-1,1203,1520,0,0
-14,-496,0,0,0,0,0,0,0,0,0,-1,1210,1520,0,0
-7,-496,0,0,0,0,0,0,0,0,0,-1,1217,1520,0,0
0,-496,0,0,0,0,0,0,0,0,0,-1,1224,1520,0,0
7,-496,0,0,0,0,0,0,0,0,0,-1,1231,1520,0,0
14,-496,0,0,0,0,0,0,0,0,0,-1,1238,1520,0,0
21,-496,0,0,0,0,0,0,0,0,0,-1,1245,1520,0,0
28,-496,0,0,0,0,0,0,0,0,0,-1,1252,1520,0,0
35,-496,0,0,0,0,0,0,0,0,0,-1,1259,1520,0,0
42,-496,0,0,0,0,0,0,0,0,0,-1,1266,1520,0,0
49,-496,0,0,0,0,0,0,0,0,0,-1,1273,1520,0,0
56,-496,0,0,0,0,0,0,0,0,0,-1,1280,1520,0,0
63,-496,0,0,0,0,0,0,0,0,0,-1,1287,1520,0,0
70,-496,0,0,0,0,0,0,0,0,0,-1,1294,1520,0,0
77,-496,0,0,0,0,0,0,0,0,0,-1,1301,1520,0,0
84,-496,0,0,0,0,0,0,0,0,0,-1,1308,1520,0,0
91,-496,0,0,0,0,0,0,0,0,0,-1,1315,1520,0,0
98,-496,0,0,0,0,0,0,0,0,0,-1,1322,1520,0,0
105,-496,0,0,0,0,0,0,0,0,0,-1,1329,1520,0,0
112,-496,0,0,0,0,0,0,0,0,0,-1,1336,1520,0,0
119,-496,0,0,0,0,0,0,0,0,0,-1,1343,1520,0,0
126,-496,0,0,0,0,0,0,0,0,0,-1,1350,1520,0,0
133,-496,0,0,0,0,0,0,0,0,0,-1,1357,1520,0,0
140,-496,0,0,0,0,0,0,0,0,0,-1,1364,1520,0,0
147,-496,0,0,0,0,0,0,0,0,0,-1,1371,1520,0,0
154,-496,0,0,0,0,0,0,0,0,0,-1,1378,1520,0,0
161,-496,0,0,0,0,0,0,0,0,0,-1,1385,1520,0,0
168,-496,0,0,0,0,0,0,0,0,0,-1,1392,1520,0,0
175,-496,0,0,0,0,0,0,0,0,0,-1,1399,1520,0,0
182,-496,0,0,0,0,0,0,0,0,0,-1,1406,1520,0,0
189,-496,0,0,0,0,0,0,0,0,0,-1,1413,1520,0,0
196,-496,0,0,0,0,0,0,0,0,0,-1,1420,1520,0,0
203,-496,0,0,0,0,0,0,0,0,0,-1,1427,1520,0,0
210,-496,0,0,0,0,0,0,0,0,0,-1,1434,1520,0,0
217,-496,0,0,0,0,0,0,0,0,0,-1,1441,1520,0,0
224,-496,0,0,0,0,0,0,0,0,0,-1,1448,1520,0,0
231,-496,0,0,0,0,0,0,0,0,0,-1,1455,1520,0,0
238,-496,0,0,0,0,0,0,0,0,0,-1,1462,1520,0,0
245,-496,0,0,0,0,0,0,0,0,0,-1,1469,1520,0,0
252,-496,0,0,0,0,0,0,0,0,0,-1,1476,1520,0,0
259,-496,0,0,0,0,0,0,0,0,0,-1,1483,1520,0,0
266,-496,0,0,0,0,0,0,0,0,0,-1,1490,1520,0,0
273,-496,0,0,0,0,0,0,0,0,0,-1,1497,1520,0,0
280,-496,0,0,0,0,0,0,0,0,0,-1,1504,1520,0,0
287,-496,0,0,0,0,0,0,0,0,0,-1,1511,1520,0,0
294,-496,0,0,0,0,0,0,0,0,0,-1,1518,1520,0,0
301,-496,0,0,0,0,0,0,0,0,0,-1,1525,1520,0,0
308,-496,0,0,0,0,0,0,0,0,0,-1,1532,1520,0,0
315,-496,0,0,0,0,0,0,0,0,0,-1,1539,1520,0,0
322,-496,0,0,0,0,0,0,0,0,0,-1,1546,1520,0,0
329,-496,0,0,0,0,0,0,0,0,0,-1,1553,1520,0,0
336,-496,0,0,0,0,0,0,0,0,0,-1,1560,1520,0,0
343,-496,0,0,0,0,0,0,0,0,0,-1,1567,1520,0,0
350,-496,0,0,0,0,0,0,0,0,0,-1,1574,1520,0,0
357,-496,0,0,0,0,0,0,0,0,0,-1,1581,1520,0,0
364,-496,0,0,0,0,0,0,0,0,0,-1,1588,1520,0,0
371,-496,0,0,0,0,0,0,0,0,0,-1,1595,1520,0,0
378,-496,0,0,0,0,0,0,0,0,0,-1,1602,1520,0,0
385,-496,0,0,0,0,0,0,0,0,0,-1,1609,1520,0,0
392,-496,0,0,0,0,0,0,0,0,0,-1,1616,1520,0,0
399,-496,0,0,0,0,0,0,0,0,0,-1,1623,1520,0,0
406,-496,0,0,0,0,0,0,0,0,0,-1,1630,1520,0,0
413,-496,0,0,0,0,0,0,0,0,0,-1,1637,1520,0,0
420,-496,0,0,0,0,0,0,0,0,0,-1,1644,1520,0,0
427,-496,0,0,0,0,0,0,0,0,0,-1,1651,1520,0,0
434,-496,11.0457,3.37732,0,0,0,0,0,0,0,-1,1658,1520,11.0456,-3.37736
441,-496,11.788,2.75488,0,0,0,0,0,0,0,-1,1665,1520,11.7879,-2.75485
448,-496,12.2146,2.18494,0,0,0,0,0,0,0,-1,1672,1520,12.2146,-2.18489
455,-496,12.3489,1.65173,0,0,0,0,0,0,0,-1,1679,1520,12.3489,-1.65178
462,-496,12.1912,1.32361,0,0,0,0,0,0,0,-1,1686,1520,12.1911,-1.32357
469,-496,14.8138,5.77954,0,0,0,0,0,0,0,-1,1693,1520,14.8138,-5.77958
476,-496,15.2449,6.27942,0,0,0,0,0,0,0,-1,1700,1520,15.2449,-6.27936
483,-496,9.19812,6.88367,0,0,0,0,0,0,0,-1,1707,1520,9.19812,-6.88361
490,-496,10.2123,7.97144,0,0,0,0,0,0,0,-1,1714,1520,10.2122,-7.97145
497,-496,13.9297,12.2981,0,0,0,0,0,0,0,-1,1721,1520,13.9297,-12.2982
504,-496,17.8702,17.5244,0,0,0,0,0,0,0,-1,1728,1520,17.8703,-17.5244
511,-496,16.7263,17.4911,0,0,0,0,0,0,0,-1,1735,1520,16.7263,-17.4911
518,-496,16.0439,16.2972,0,0,0,0,0,0,0,-1,1742,1520,16.044,-16.2972
525,-496,14.2745,15.6786,0,0,0,0,0,0,0,-1,1749,1520,14.2745,-15.6786
532,-496,14.5885,15.4739,-0.00756272,-0.0110119,0.0169031,0.00770359,-0.0262782,0.73456,0.0205732,0.0355851,1756,1520,14.5885,-15.4738
539,-496,14.6405,15.2598,-0.00583003,-0.00741766,0.0123347,0.00573637,-0.0189841,0.753264,0.0149399,0.0164434,1763,1520,14.6405,-15.2598
546,-496,14.5914,14.896,-0.00428164,-0.00427243,0.00872026,0.00444322,-0.0129973,0.785662,0.0104652,0.0113705,1770,1520,14.5914,-14.8959
553,-496,14.6296,14.5374,-0.00304046,-0.00261522,0.00582903,0.00300507,-0.00866075,0.803628,0.00699413,0.0147326,1777,1520,14.6296,-14.5374
560,-496,14.6372,14.2263,-0.00189691,-0.00173481,0.00371461,0.00189963,-0.00553135,0.796306,0.0044578,0.0139584,1784,1520,14.6372,-14.2263
567,-496,14.6423,13.8815,-0.000816514,-0.00113929,0.00229297,0.00132074,-0.00327654,0.750265,0.00273313,0.0118638,1791,1520,14.6423,-13.8815
574,-496,14.627,13.5427,0.000159169,-0.000549906,0.00106062,0.000922938,-0.00131368,0.6241,0.00129786,0.0129856,1798,1520,14.6269,-13.5427
581,-496,14.6156,13.2255,0.00109866,-3.77453e-05,8.1543e-05,0.00110448,-4.35665e-05,0.0712686,0.000751265,0.0140584,1805,1520,14.6156,-13.2254
588,-496,14.6241,12.8848,0.0020985,0.000153753,-0.000844023,0.00241371,-0.000161463,-0.357427,0.00166557,0.0164907,1812,1520,14.6242,-12.8847
595,-496,14.6141,12.5405,0.00289146,0.000232304,-0.0014088,0.00349902,-0.000375255,-0.40716,0.0024673,0.0170348,1819,1520,14.6142,-12.5406
602,-496,14.6116,12.2079,0.00367292,2.42059e-05,-0.00175866,0.00438257,-0.000685439,-0.383532,0.00317495,0.0172129,1826,1520,14.6116,-12.2079
609,-496,14.6182,11.8414,0.00461443,-0.000350663,-0.00205497,0.00535461,-0.00109084,-0.345723,0.00398345,0.014884,1833,1520,14.6182,-11.8414
616,-496,14.6337,11.4198,0.00582088,-0.0010305,-0.00234598,0.00654717,-0.0017568,-0.300232,0.00505322,0.021713,1840,1520,14.6336,-11.4198
623,-496,14.5806,11.0438,0.00727845,-0.00168822,-0.00248425,0.00792071,-0.00233049,-0.252996,0.00620495,0.0355531,1847,1520,14.5806,-11.0439
630,-496,14.6619,10.6409,0,0,0,0,0,0,0,-1,1854,1520,14.6619,-10.6408
637,-496,12.0918,9.79541,0,0,0,0,0,0,0,-1,1861,1520,12.0917,-9.79537
644,-496,12.4537,10.087,0,0,0,0,0,0,0,-1,1868,1520,12.4537,-10.0871
651,-496,8.18506,5.47803,0,0,0,0,0,0,0,-1,1875,1520,8.18505,-5.47806
658,-496,7.79993,4.02563,0,0,0,0,0,0,0,-1,1882,1520,7.79997,-4.02568
665,-496,5.47583,7.90625,0,0,0,0,0,0,0,-1,1889,1520,5.47581,-7.90628
672,-496,0,0,0,0,0,0,0,0,0,-1,1896,1520,0,0
679,-496,0,0,0,0,0,0,0,0,0,-1,1903,1520,0,0
686,-496,0,0,0,0,0,0,0,0,0,-1,1910,1520,0,0
693,-496,0,0,0,0,0,0,0,0,0,-1,1917,1520,0,0
700,-496,0,0,0,0,0,0,0,0,0,-1,1924,1520,0,0
707,-496,0,0,0,0,0,0,0,0,0,-1,1931,1520,0,0
714,-496,0,0,0,0,0,0,0,0,0,-1,1938,1520,0,0
721,-496,0,0,0,0,0,0,0,0,0,-1,1945,1520,0,0
728,-496,0,0,0,0,0,0,0,0,0,-1,1952,1520,0,0
735,-496,0,0,0,0,0,0,0,0,0,-1,1959,1520,0,0
742,-496,0,0,0,0,0,0,0,0,0,-1,1966,1520,0,0
749,-496,0,0,0,0,0,0,0,0,0,-1,1973,1520,0,0
756,-496,0,0,0,0,0,0,0,0,0,-1,1980,1520,0,0
763,-496,0,0,0,0,0,0,0,0,0,-1,1987,1520,0,0
770,-496,0,0,0,0,0,0,0,0,0,-1,1994,1520,0,0
777,-496,0,0,0,0,0,0,0,0,0,-1,2001,1520,0,0
784,-496,0,0,0,0,0,0,0,0,0,-1,2008,1520,0,0
791,-496,0,0,0,0,0,0,0,0,0,-1,2015,1520,0,0
798,-496,0,0,0,0,0,0,0,0,0,-1,2022,1520,0,0
805,-496,0,0,0,0,0,0,0,0,0,-1,2029,1520,0,0
812,-496,0,0,0,0,0,0,0,0,0,-1,2036,1520,0,0
-700,-503,0,0,0,0,0,0,0,0,0,-1,524,1527,0,0
-693,-503,0,0,0,0,0,0,0,0,0,-1,531,1527,0,0
-686,-503,0,0,0,0,0,0,0,0,0,-1,538,1527,0,0
-679,-503,0,0,0,0,0,0,0,0,0,-1,545,1527,0,0
-672,-503,0,0,0,0,0,0,0,0,0,-1,552,1527,0,0
-665,-503,0,0,0,0,0,0,0,0,0,-1,559,1527,0,0
-658,-503,0,0,0,0,0,0,0,0,0,-1,566,1527,0,0
-651,-503,0,0,0,0,0,0,0,0,0,-1,573,1527,0,0
-644,-503,0,0,0,0,0,0,0,0,0,-1,580,1527,0,0
-637,-503,0,0,0,0,0,0,0,0,0,-1,587,1527,0,0
-630,-503,0,0,0,0,0,0,0,0,0,-1,594,1527,0,0
-623,-503,0,0,0,0,0,0,0,0,0,-1,601,1527,0,0
-616,-503,0,0,0,0,0,0,0,0,0,-1,608,1527,0,0
-609,-503,0,0,0,0,0,0,0,0,0,-1,615,1527,0,0
-602,-503,0,0,0,0,0,0,0,0,0,-1,622,1527,0,0
-595,-503,0,0,0,0,0,0,0,0,0,-1,629,1527,0,0
-588,-503,0,0,0,0,0,0,0,0,0,-1,636,1527,0,0
-581,-503,0,0,0,0,0,0,0,0,0,-1,643,1527,0,0
-574,-503,0,0,0,0,0,0,0,0,0,-1,650,1527,0,0
-567,-503,0,0,0,0,0,0,0,0,0,-1,657,1527,0,0
-560,-503,0,0,0,0,0,0,0,0,0,-1,664,1527,0,0
-553,-503,0,0,0,0,0,0,0,0,0,-1,671,1527,0,0
-546,-503,0,0,0,0,0,0,0,0,0,-1,678,1527,0,0
-539,-503,3.50177,4.26428,0,0,0,0,0,0,0,-1,685,1527,3.50177,-4.26424
-532,-503,-3.13196,1.05298,0,0,0,0,0,0,0,-1,692,1527,-3.13194,-1.05299
-525,-503,-2.94293,2.59314,0,0,0,0,0,0,0,-1,699,1527,-2.94296,-2.59314
-518,-503,-2.7395,4.05872,0.0372164,0.169315,0.0997437,0.222895,-0.0163643,1.07785,0.154341,0.0477694,706,1527,-2.73948,-4.05871
-511,-503,-2.46967,5.46399,0.0273509,0.126935,0.0771508,0.168966,-0.0146803,1.07196,0.117843,0.0467923,713,1527,-2.46967,-5.46394
-504,-503,-2.26831,7.44678,0,0,0,0,0,0,0,-1,720,1527,-2.26831,-7.44684
-497,-503,-2.18958,9.41248,0,0,0,0,0,0,0,-1,727,1527,-2.18958,-9.41245
-490,-503,-2.15491,9.59937,0.00709718,0.0408777,0.0275932,0.0563397,-0.0083648,1.06004,0.0406361,0.0496043,734,1527,-2.15492,-9.5993
-483,-503,-2.31494,9.85144,0.00326634,0.0247534,0.0177134,0.0347267,-0.00670697,1.058,0.0256804,0.0417982,741,1527,-2.31494,-9.85149
-476,-503,-2.42737,10.1954,0.000396373,0.0116664,0.00973658,0.017281,-0.00521826,1.04772,0.013598,0.0216086,748,1527,-2.4274,-10.1955
-469,-503,-2.51361,10.5205,-0.00125075,0.00387297,0.00451975,0.00650642,-0.0038842,1.04323,0.00606237,0.0107252,755,1527,-2.51361,-10.5205
-462,-503,-2.51019,10.9266,-0.00167927,-0.000281416,0.0015032,0.000677398,-0.00263808,1.00301,0.00202269,0.0109913,762,1527,-2.51017,-10.9266
-455,-503,-2.52832,11.2954,-0.00111878,-0.00226159,4.20496e-05,-0.00111723,-0.00226314,0.0367285,0.00130666,0.0167928,769,1527,-2.52832,-11.2954
-448,-503,-2.50787,11.6462,0.000142495,-0.00150364,0.000102947,0.000148908,-0.00151005,0.0622159,0.00105983,0.0156752,776,1527,-2.50784,-11.6463
-441,-503,-2.48792,12.0056,0.0015931,-0.000768502,0.000590514,0.00173252,-0.000907927,0.231863,0.00154905,0.012762,783,1527,-2.48789,-12.0056
-434,-503,-2.51892,12.3668,0.0030636,8.2555e-05,0.00131558,0.00356114,-0.000414987,0.361567,0.00252382,0.0108931,790,1527,-2.51892,-12.3669
-427,-503,-2.56329,12.7053,0.00449184,0.000996262,0.00215994,0.00552256,-3.44592e-05,0.445241,0.00369325,0.0160478,797,1527,-2.5633,-12.7053
-420,-503,-2.53296,13.0707,0.00594139,0.00197498,0.00318214,0.00770774,0.000208639,0.506736,0.00507038,0.0172296,804,1527,-2.53298,-13.0706
-413,-503,-2.53937,13.4777,0.00748758,0.00317231,0.00445852,0.0102831,0.000376782,0.560041,0.00673333,0.0150473,811,1527,-2.53935,-13.4777
-406,-503,-2.5329,13.8477,0.00921962,0.0044207,0.00599236,0.0132751,0.00036525,0.594964,0.00873084,0.0199395,818,1527,-2.53288,-13.8476
-399,-503,-2.39374,14.3579,0.0113333,0.0061138,0.00762358,0.0167814,0.000665637,0.620488,0.0109725,0.0318613,825,1527,-2.39373,-14.3579
-392,-503,-2.17395,14.9799,0,0,0,0,0,0,0,-1,832,1527,-2.17393,-14.9798
-385,-503,-2.00403,14.1218,0,0,0,0,0,0,0,-1,839,1527,-2.00403,-14.1218
-378,-503,-2.07043,13.8632,0,0,0,0,0,0,0,-1,846,1527,-2.07043,-13.8631
-371,-503,-1.67285,13.8081,0,0,0,0,0,0,0,-1,853,1527,-1.67285,-13.8081
-364,-503,0.181396,12.3768,0,0,0,0,0,0,0,-1,860,1527,0.18138,-12.3768
-357,-503,0.558533,9.25452,0,0,0,0,0,0,0,-1,867,1527,0.558542,-9.25446
-350,-503,0.219971,6.84827,0,0,0,0,0,0,0,-1,874,1527,0.21996,-6.84831
-343,-503,-3.5802,4.43274,0,0,0,0,0,0,0,-1,881,1527,-3.58018,-4.43276
-336,-503,-3.2384,6.40637,0,0,0,0,0,0,0,-1,888,1527,-3.2384,-6.40643
-329,-503,-1.70691,11.886,0,0,0,0,0,0,0,-1,895,1527,-1.70689,-11.886
-322,-503,-3.31317,8.81519,0,0,0,0,0,0,0,-1,902,1527,-3.31315,-8.81524
-315,-503,-3.90265,7.73853,0,0,0,0,0,0,0,-1,909,1527,-3.90264,-7.73854
-308,-503,-1.70264,7.35413,0,0,0,0,0,0,0,-1,916,1527,-1.70262,-7.35416
-301,-503,0,0,0,0,0,0,0,0,0,-1,923,1527,0,0
-294,-503,0,0,0,0,0,0,0,0,0,-1,930,1527,0,0
-287,-503,0,0,0,0,0,0,0,0,0,-1,937,1527,0,0
-280,-503,0,0,0,0,0,0,0,0,0,-1,944,1527,0,0
-273,-503,0,0,0,0,0,0,0,0,0,-1,951,1527,0,0
-266,-503,0,0,0,0,0,0,0,0,0,-1,958,1527,0,0
-259,-503,0,0,0,0,0,0,0,0,0,-1,965,1527,0,0
-252,-503,0,0,0,0,0,0,0,0,0,-1,972,1527,0,0
-245,-503,0,0,0,0,0,0,0,0,0,-1,979,1527,0,0
-238,-503,0,0,0,0,0,0,0,0,0,-1,986,1527,0,0
-231,-503,0,0,0,0,0,0,0,0,0,-1,993,1527,0,0
-224,-503,0,0,0,0,0,0,0,0,0,-1,1000,1527,0,0
-217,-503,0,0,0,0,0,0,0,0,0,-1,1007,1527,0,0
-210,-503,0,0,0,0,0,0,0,0,0,-1,1014,1527,0,0
-203,-503,0,0,0,0,0,0,0,0,0,-1,1021,1527,0,0
-196,-503,0,0,0,0,0,0,0,0,0,-1,1028,1527,0,0
-189,-503,0,0,0,0,0,0,0,0,0,-1,1035,1527,0,0
-182,-503,0,0,0,0,0,0,0,0,0,-1,1042,1527,0,0
-175,-503,0,0,0,0,0,0,0,0,0,-1,1049,1527,0,0
-168,-503,0,0,0,0,0,0,0,0,0,-1,1056,1527,0,0
-161,-503,0,0,0,0,0,0,0,0,0,-1,1063,1527,0,0
-154,-503,0,0,0,0,0,0,0,0,0,-1,1070,1527,0,0
-147,-503,0,0,0,0,0,0,0,0,0,-1,1077,1527,0,0
-140,-503,0,0,0,0,0,0,0,0,0,-1,1084,1527,0,0
-133,-503,0,0,0,0,0,0,0,0,0,-1,1091,1527,0,0
-126,-503,0,0,0,0,0,0,0,0,0,-1,1098,1527,0,0
-119,-503,0,0,0,0,0,0,0,0,0,-1,1105,1527,0,0
-112,-503,0,0,0,0,0,0,0,0,0,-1,1112,1527,0,0
-105,-503,0,0,0,0,0,0,0,0,0,-1,1119,1527,0,0
-98,-503,0,0,0,0,0,0,0,0,0,-1,1126,1527,0,0
-91,-503,0,0,0,0,0,0,0,0,0,-1,1133,1527,0,0
-84,-503,0,0,0,0,0,0,0,0,0,-1,1140,1527,0,0
-77,-503,0,0,0,0,0,0,0,0,0,-1,1147,1527,0,0
-70,-503,0,0,0,0,0,0,0,0,0,-1,1154,1527,0,0
-63,-503,0,0,0,0,0,0,0,0,0,-1,1161,1527,0,0
-56,-503,0,0,0,0,0,0,0,0,0,-1,1168,1527,0,0
-49,-503,0,0,0,0,0,0,0,0,0,-1,1175,1527,0,0
-42,-503,0,0,0,0,0,0,0,0,0,-1,1182,1527,0,0
-35,-503,0,0,0,0,0,0,0,0,0,-1,1189,1527,0,0
-28,-503,0,0,0,0,0,0,0,0,0,-1,1196,1527,0,0
-21,-503,0,0,0,0,0,0,0,0,0,-1,1203,1527,0,0
-14,-503,0,0,0,0,0,0,0,0,0,-1,1210,1527,0,0
-7,-503,0,0,0,0,0,0,0,0,0,-1,1217,1527,0,0
0,-503,0,0,0,0,0,0,0,0,0,-1,1224,1527,0,0
7,-503,0,0,0,0,0,0,0,0,0,-1,1231,1527,0,0
14,-503,0,0,0,0,0,0,0,0,0,-1,1238,1527,0,0
21,-503,0,0,0,0,0,0,0,0,0,-1,1245,1527,0,0
28,-503,0,0,0,0,0,0,0,0,0,-1,1252,1527,0,0
35,-503,0,0,0,0,0,0,0,0,0,-1,1259,1527,0,0
42,-503,0,0,0,0,0,0,0,0,0,-1,1266,1527,0,0
49,-503,0,0,0,0,0,0,0,0,0,-1,1273,1527,0,0
56,-503,0,0,0,0,0,0,0,0,0,-1,1280,1527,0,0
63,-503,0,0,0,0,0,0,0,0,0,-1,1287,1527,0,0
70,-503,0,0,0,0,0,0,0,0,0,-1,1294,1527,0,0
77,-503,0,0,0,0,0,0,0,0,0,-1,1301,1527,0,0
84,-503,0,0,0,0,0,0,0,0,0,-1,1308,1527,0,0
91,-503,0,0,0,0,0,0,0,0,0,-1,1315,1527,0,0
98,-503,0,0,0,0,0,0,0,0,0,-1,1322,1527,0,0
105,-503,0,0,0,0,0,0,0,0,0,-1,1329,1527,0,0
112,-503,0,0,0,0,0,0,0,0,0,-1,1336,1527,0,0
119,-503,0,0,0,0,0,0,0,0,0,-1,1343,1527,0,0
126,-503,0,0,0,0,0,0,0,0,0,-1,1350,1527,0,0
133,-503,0,0,0,0,0,0,0,0,0,-1,1357,1527,0,0
140,-503,0,0,0,0,0,0,0,0,0,-1,1364,1527,0,0
147,-503,0,0,0,0,0,0,0,0,0,-1,1371,1527,0,0
154,-503,0,0,0,0,0,0,0,0,0,-1,1378,1527,0,0
161,-503,0,0,0,0,0,0,0,0,0,-1,1385,1527,0,0
168,-503,0,0,0,0,0,0,0,0,0,-1,1392,1527,0,0
175,-503,0,0,0,0,0,0,0,0,0,-1,1399,1527,0,0
182,-503,0,0,0,0,0,0,0,0,0,-1,1406,1527,0,0
189,-503,0,0,0,0,0,0,0,0,0,-1,1413,1527,0,0
196,-503,0,0,0,0,0,0,0,0,0,-1,1420,1527,0,0
203,-503,0,0,0,0,0,0,0,0,0,-1,1427,1527,0,0
210,-503,0,0,0,0,0,0,0,0,0,-1,1434,1527,0,0
217,-503,0,0,0,0,0,0,0,0,0,-1,1441,1527,0,0
224,-503,0,0,0,0,0,0,0,0,0,-1,1448,1527,0,0
231,-503,0,0,0,0,0,0,0,0,0,-1,1455,1527,0,0
238,-503,0,0,0,0,0,0,0,0,0,-1,1462,1527,0,0
245,-503,0,0,0,0,0,0,0,0,0,-1,1469,1527,0,0
252,-503,0,0,0,0,0,0,0,0,0,-1,1476,1527,0,0
259,-503,0,0,0,0,0,0,0,0,0,-1,1483,1527,0,0
266,-503,0,0,0,0,0,0,0,0,0,-1,1490,1527,0,0
273,-503,0,0,0,0,0,0,0,0,0,-1,1497,1527,0,0
280,-503,0,0,0,0,0,0,0,0,0,-1,1504,1527,0,0
287,-503,0,0,0,0,0,0,0,0,0,-1,1511,1527,0,0
294,-503,0,0,0,0,0,0,0,0,0,-1,1518,1527,0,0
301,-503,0,0,0,0,0,0,0,0,0,-1,1525,1527,0,0
308,-503,0,0,0,0,0,0,0,0,0,-1,1532,1527,0,0
315,-503,0,0,0,0,0,0,0,0,0,-1,1539,1527,0,0
322,-503,0,0,0,0,0,0,0,0,0,-1,1546,1527,0,0
329,-503,0,0,0,0,0,0,0,0,0,-1,1553,1527,0,0
336,-503,0,0,0,0,0,0,0,0,0,-1,1560,1527,0,0
343,-503,0,0,0,0,0,0,0,0,0,-1,1567,1527,0,0
350,-503,0,0,0,0,0,0,0,0,0,-1,1574,1527,0,0
357,-503,0,0,0,0,0,0,0,0,0,-1,1581,1527,0,0
364,-503,0,0,0,0,0,0,0,0,0,-1,1588,1527,0,0
371,-503,0,0,0,0,0,0,0,0,0,-1,1595,1527,0,0
378,-503,0,0,0,0,0,0,0,0,0,-1,1602,1527,0,0
385,-503,0,0,0,0,0,0,0,0,0,-1,1609,1527,0,0
392,-503,0,0,0,0,0,0,0,0,0,-1,1616,1527,0,0
399,-503,0,0,0,0,0,0,0,0,0,-1,1623,1527,0,0
406,-503,0,0,0,0,0,0,0,0,0,-1,1630,1527,0,0
413,-503,0,0,0,0,0,0,0,0,0,-1,1637,1527,0,0
420,-503,0,0,0,0,0,0,0,0,0,-1,1644,1527,0,0
427,-503,10.5968,4.9856,0,0,0,0,0,0,0,-1,1651,1527,10.5969,-4.98563
434,-503,11.4329,3.97217,0,0,0,0,0,0,0,-1,1658,1527,11.4328,-3.97222
441,-503,12.0957,2.96509,0,0,0,0,0,0,0,-1,1665,1527,12.0957,-2.96512
448,-503,12.3259,2.53894,0,0,0,0,0,0,0,-1,1672,1527,12.326,-2.53895
455,-503,12.1669,2.18762,0,0,0,0,0,0,0,-1,1679,1527,12.1668,-2.18767
462,-503,11.59,2.60791,0,0,0,0,0,0,0,-1,1686,1527,11.5899,-2.60794
469,-503,11.1625,1.61853,0,0,0,0,0,0,0,-1,1693,1527,11.1625,-1.61856
476,-503,9.07703,5.81042,0,0,0,0,0,0,0,-1,1700,1527,9.07699,-5.81047
483,-503,9.74414,6.92432,0,0,0,0,0,0,0,-1,1707,1527,9.74417,-6.9243
490,-503,10.5033,10.1071,0,0,0,0,0,0,0,-1,1714,1527,10.5032,-10.107
497,-503,14.3765,15.5327,0,0,0,0,0,0,0,-1,1721,1527,14.3764,-15.5328
504,-503,15.5375,15.9576,0,0,0,0,0,0,0,-1,1728,1527,15.5375,-15.9577
511,-503,15.9979,17.1715,0,0,0,0,0,0,0,-1,1735,1527,15.9979,-17.1715
518,-503,15.3019,16.3767,0,0,0,0,0,0,0,-1,1742,1527,15.3019,-16.3767
525,-503,13.9547,15.9567,0,0,0,0,0,0,0,-1,1749,1527,13.9547,-15.9567
532,-503,14.2462,15.5917,-0.00492225,-0.00923219,0.0132295,0.00632665,-0.0204811,0.704662,0.0161806,0.0191122,1756,1527,14.2463,-15.5917
539,-503,14.2845,15.2438,-0.00361996,-0.00605114,0.00950505,0.00474691,-0.014418,0.721799,0.0115249,0.0135531,1763,1527,14.2845,-15.2438
546,-503,14.2719,14.8925,-0.00238729,-0.0031405,0.00649144,0.00373846,-0.00926625,0.756423,0.00773106,0.0118143,1770,1527,14.2719,-14.8925
553,-503,14.296,14.5664,-0.00143452,-0.00168529,0.00405727,0.0024993,-0.00561911,0.769951,0.00480114,0.0135452,1777,1527,14.296,-14.5664
560,-503,14.2919,14.2292,-0.000550489,-0.000972082,0.002319,0.00156728,-0.00308985,0.740073,0.00273627,0.0130239,1784,1527,14.2919,-14.2293
567,-503,14.2871,13.8782,0.000323543,-0.000550206,0.00119345,0.00115757,-0.00138423,0.609944,0.00146945,0.011529,1791,1527,14.2871,-13.8781
574,-503,14.2916,13.54,0.00117084,-3.95132e-05,0.00013941,0.00118669,-5.53632e-05,0.113207,0.000810209,0.0123762,1798,1527,14.2917,-13.5401
581,-503,14.275,13.2194,0.00202978,0.000433151,-0.000712316,0.00230137,0.00016156,-0.364265,0.00148333,0.0139286,1805,1527,14.2751,-13.2193
588,-503,14.2625,12.8878,0.00292186,0.000564636,-0.00145095,0.00361257,-0.00012608,-0.4443,0.00245149,0.0170545,1812,1527,14.2624,-12.8878
595,-503,14.2694,12.5469,0.0036601,0.000631089,-0.00195287,0.00461691,-0.000325722,-0.455577,0.00319206,0.0130126,1819,1527,14.2694,-12.5469
602,-503,14.3188,12.1675,0.00448898,0.000476507,-0.00241077,0.00561911,-0.000653622,-0.438364,0.00398187,0.0179279,1826,1527,14.3188,-12.1675
609,-503,14.3665,11.7847,0.00558247,0.000183499,-0.00285183,0.00680983,-0.00104386,-0.406417,0.00492486,0.0328861,1833,1527,14.3664,-11.7846
616,-503,14.2256,11.6445,0.00706656,-0.000433867,-0.00339425,0.00837451,-0.00174182,-0.367808,0.00624511,0.0291408,1840,1527,14.2256,-11.6446
623,-503,14.3623,10.9362,0.00895051,-0.000925415,-0.00386455,0.010283,-0.00225788,-0.332026,0.00771881,0.0414004,1847,1527,14.3623,-10.9361
630,-503,14.6754,10.2499,0,0,0,0,0,0,0,-1,1854,1527,14.6755,-10.2499
637,-503,14.5564,9.20496,0,0,0,0,0,0,0,-1,1861,1527,14.5564,-9.2049
644,-503,11.4802,7.57214,0,0,0,0,0,0,0,-1,1868,1527,11.4802,-7.57215
651,-503,11.5718,6.5448,0,0,0,0,0,0,0,-1,1875,1527,11.5718,-6.54476
658,-503,8.25635,3.10498,0,0,0,0,0,0,0,-1,1882,1527,8.2563,-3.10493
665,-503,0,0,0,0,0,0,0,0,0,-1,1889,1527,0,0
672,-503,0,0,0,0,0,0,0,0,0,-1,1896,1527,0,0
679,-503,0,0,0,0,0,0,0,0,0,-1,1903,1527,0,0
686,-503,0,0,0,0,0,0,0,0,0,-1,1910,1527,0,0
693,-503,0,0,0,0,0,0,0,0,0,-1,1917,1527,0,0
700,-503,0,0,0,0,0,0,0,0,0,-1,1924,1527,0,0
707,-503,0,0,0,0,0,0,0,0,0,-1,1931,1527,0,0
714,-503,0,0,0,0,0,0,0,0,0,-1,1938,1527,0,0
721,-503,0,0,0,0,0,0,0,0,0,-1,1945,1527,0,0
728,-503,0,0,0,0,0,0,0,0,0,-1,1952,1527,0,0
735,-503,0,0,0,0,0,0,0,0,0,-1,1959,1527,0,0
742,-503,0,0,0,0,0,0,0,0,0,-1,1966,1527,0,0
749,-503,0,0,0,0,0,0,0,0,0,-1,1973,1527,0,0
756,-503,0,0,0,0,0,0,0,0,0,-1,1980,1527,0,0
763,-503,0,0,0,0,0,0,0,0,0,-1,1987,1527,0,0
770,-503,0,0,0,0,0,0,0,0,0,-1,1994,1527,0,0
777,-503,0,0,0,0,0,0,0,0,0,-1,2001,1527,0,0
784,-503,0,0,0,0,0,0,0,0,0,-1,2008,1527,0,0
791,-503,0,0,0,0,0,0,0,0,0,-1,2015,1527,0,0
798,-503,0,0,0,0,0,0,0,0,0,-1,2022,1527,0,0
805,-503,0,0,0,0,0,0,0,0,0,-1,2029,1527,0,0
812,-503,0,0,0,0,0,0,0,0,0,-1,2036,1527,0,0
-700,-510,0,0,0,0,0,0,0,0,0,-1,524,1534,0,0
-693,-510,0,0,0,0,0,0,0,0,0,-1,531,1534,0,0
-686,-510,0,0,0,0,0,0,0,0,0,-1,538,1534,0,0
-679,-510,0,0,0,0,0,0,0,0,0,-1,545,1534,0,0
-672,-510,0,0,0,0,0,0,0,0,0,-1,552,1534,0,0
-665,-510,0,0,0,0,0,0,0,0,0,-1,559,1534,0,0
-658,-510,0,0,0,0,0,0,0,0,0,-1,566,1534,0,0
-651,-510,0,0,0,0,0,0,0,0,0,-1,573,1534,0,0
-644,-510,0,0,0,0,0,0,0,0,0,-1,580,1534,0,0
-637,-510,0,0,0,0,0,0,0,0,0,-1,587,1534,0,0
-630,-510,0,0,0,0,0,0,0,0,0,-1,594,1534,0,0
-623,-510,0,0,0,0,0,0,0,0,0,-1,601,1534,0,0
-616,-510,0,0,0,0,0,0,0,0,0,-1,608,1534,0,0
-609,-510,0,0,0,0,0,0,0,0,0,-1,615,1534,0,0
-602,-510,0,0,0,0,0,0,0,0,0,-1,622,1534,0,0
-595,-510,0,0,0,0,0,0,0,0,0,-1,629,1534,0,0
-588,-510,0,0,0,0,0,0,0,0,0,-1,636,1534,0,0
-581,-510,0,0,0,0,0,0,0,0,0,-1,643,1534,0,0
-574,-510,0,0,0,0,0,0,0,0,0,-1,650,1534,0,0
-567,-510,0,0,0,0,0,0,0,0,0,-1,657,1534,0,0
-560,-510,0,0,0,0,0,0,0,0,0,-1,664,1534,0,0
-553,-510,0,0,0,0,0,0,0,0,0,-1,671,1534,0,0
-546,-510,0,0,0,0,0,0,0,0,0,-1,678,1534,0,0
-539,-510,0,0,0,0,0,0,0,0,0,-1,685,1534,0,0
-532,-510,-3.95129,4.52014,0,0,0,0,0,0,0,-1,692,1534,-3.95131,-4.5202
-525,-510,-2.77411,0.316772,0,0,0,0,0,0,0,-1,699,1534,-2.77409,-0.3168
-518,-510,-2.86847,2.71423,0,0,0,0,0,0,0,-1,706,1534,-2.86849,-2.71424
-511,-510,-2.28571,4.48083,0,0,0,0,0,0,0,-1,713,1534,-2.28571,-4.48086
-504,-510,-1.59497,8.94751,0,0,0,0,0,0,0,-1,720,1534,-1.59499,-8.94753
-497,-510,-1.84241,10.0344,0,0,0,0,0,0,0,-1,727,1534,-1.84243,-10.0344
-490,-510,-1.82306,10.0139,0,0,0,0,0,0,0,-1,734,1534,-1.82305,-10.0139
-483,-510,-1.18787,9.61523,0,0,0,0,0,0,0,-1,741,1534,-1.18789,-9.61523
-476,-510,-1.89386,10.1302,0.000168007,0.0127703,0.0109606,0.0191119,-0.00617361,1.04627,0.0152223,0.0325654,748,1534,-1.89384,-10.1303
-469,-510,-2.1286,10.5281,-0.00167404,0.0040074,0.00503453,0.00694735,-0.00461399,1.04226,0.00672011,0.0127264,755,1534,-2.12858,-10.528
-462,-510,-2.13226,10.9019,-0.0022843,-0.000664652,0.00152833,0.000255154,-0.00320411,1.02903,0.002226,0.0113934,762,1534,-2.13224,-10.9019
-455,-510,-2.13995,11.2917,-0.00187832,-0.00280315,-0.000163629,-0.00185022,-0.00283125,-0.170053,0.0016601,0.0138836,769,1534,-2.13997,-11.2918
-448,-510,-2.12842,11.6738,-0.000741407,-0.00192447,-0.000159986,-0.000720153,-0.00194572,-0.132071,0.00113592,0.0126707,776,1534,-2.12842,-11.6738
-441,-510,-2.12506,12.0193,0.000560452,-0.00110903,0.000280864,0.000606436,-0.00115502,0.162285,0.00103329,0.0133117,783,1534,-2.12508,-12.0193
-434,-510,-2.14789,12.3698,0.00187375,-0.000190753,0.000962791,0.00225306,-0.000570065,0.375298,0.00172377,0.0143711,790,1534,-2.14789,-12.3698
-427,-510,-2.20813,12.7024,0.00313176,0.000744646,0.00174823,0.00405501,-0.000178605,0.48588,0.0027648,0.0218306,797,1534,-2.20812,-12.7024
-420,-510,-2.19391,13.0848,0.00443924,0.00170627,0.00265636,0.00605998,8.55278e-05,0.54784,0.00401178,0.0215284,804,1534,-2.19389,-13.0849
-413,-510,-2.18774,13.4924,0.00577195,0.00283326,0.00375356,0.00833352,0.000271698,0.598839,0.00546736,0.0115498,811,1534,-2.18775,-13.4925
-406,-510,-2.19507,13.8491,0.00722261,0.00403618,0.00504498,0.01092,0.000338823,0.632453,0.0071697,0.0109593,818,1534,-2.19506,-13.8491
-399,-510,-2.19092,14.177,0.00894722,0.00556819,0.0063859,0.0138633,0.000652091,0.656076,0.0090327,0.0132091,825,1534,-2.1909,-14.177
-392,-510,-2.04633,14.6965,0.010998,0.0073801,0.00764374,0.0170439,0.00133419,0.669206,0.010945,0.033455,832,1534,-2.04633,-14.6965
-385,-510,-1.9248,15.2736,0,0,0,0,0,0,0,-1,839,1534,-1.92483,-15.2735
-378,-510,-1.78308,13.8044,0,0,0,0,0,0,0,-1,846,1534,-1.78309,-13.8044
-371,-510,-1.74982,13.8027,0,0,0,0,0,0,0,-1,853,1534,-1.74981,-13.8028
-364,-510,-1.3479,13.7771,0,0,0,0,0,0,0,-1,860,1534,-1.34791,-13.7771
-357,-510,-0.254395,8.89575,0,0,0,0,0,0,0,-1,867,1534,-0.254397,-8.89569
-350,-510,0.471191,6.06458,0,0,0,0,0,0,0,-1,874,1534,0.47118,-6.06453
-343,-510,-2.94617,5.00989,0,0,0,0,0,0,0,-1,881,1534,-2.94615,-5.00992
-336,-510,-1.92963,11.3776,0,0,0,0,0,0,0,-1,888,1534,-1.92962,-11.3775
-329,-510,-4.87781,20.6893,0,0,0,0,0,0,0,-1,895,1534,-4.87782,-20.6894
-322,-510,-0.251526,11.973,0,0,0,0,0,0,0,-1,902,1534,-0.251497,-11.9731
-315,-510,-1.73047,10.9796,0,0,0,0,0,0,0,-1,909,1534,-1.73049,-10.9796
-308,-510,-2.05328,9.72034,0,0,0,0,0,0,0,-1,916,1534,-2.05327,-9.72036
-301,-510,-1.85437,11.5869,0,0,0,0,0,0,0,-1,923,1534,-1.85437,-11.5869
-294,-510,0,0,0,0,0,0,0,0,0,-1,930,1534,0,0
-287,-510,0,0,0,0,0,0,0,0,0,-1,937,1534,0,0
-280,-510,0,0,0,0,0,0,0,0,0,-1,944,1534,0,0
-273,-510,0,0,0,0,0,0,0,0,0,-1,951,1534,0,0
-266,-510,0,0,0,0,0,0,0,0,0,-1,958,1534,0,0
-259,-510,0,0,0,0,0,0,0,0,0,-1,965,1534,0,0
-252,-510,0,0,0,0,0,0,0,0,0,-1,972,1534,0,0
-245,-510,0,0,0,0,0,0,0,0,0,-1,979,1534,0,0
-238,-510,0,0,0,0,0,0,0,0,0,-1,986,1534,0,0
-231,-510,0,0,0,0,0,0,0,0,0,-1,993,1534,0,0
-224,-510,0,0,0,0,0,0,0,0,0,-1,1000,1534,0,0
-217,-510,0,0,0,0,0,0,0,0,0,-1,1007,1534,0,0
-210,-510,0,0,0,0,0,0,0,0,0,-1,1014,1534,0,0
-203,-510,0,0,0,0,0,0,0,0,0,-1,1021,1534,0,0
-196,-510,0,0,0,0,0,0,0,0,0,-1,1028,1534,0,0
-189,-510,0,0,0,0,0,0,0,0,0,-1,1035,1534,0,0
-182,-510,0,0,0,0,0,0,0,0,0,-1,1042,1534,0,0
-175,-510,0,0,0,0,0,0,0,0,0,-1,1049,1534,0,0
-168,-510,0,0,0,0,0,0,0,0,0,-1,1056,1534,0,0
-161,-510,0,0,0,0,0,0,0,0,0,-1,1063,1534,0,0
-154,-510,0,0,0,0,0,0,0,0,0,-1,1070,1534,0,0
-147,-510,0,0,0,0,0,0,0,0,0,-1,1077,1534,0,0
-140,-510,0,0,0,0,0,0,0,0,0,-1,1084,1534,0,0
-133,-510,0,0,0,0,0,0,0,0,0,-1,1091,1534,0,0
-126,-510,0,0,0,0,0,0,0,0,0,-1,1098,1534,0,0
-119,-510,0,0,0,0,0,0,0,0,0,-1,1105,1534,0,0
-112,-510,0,0,0,0,0,0,0,0,0,-1,1112,1534,0,0
-105,-510,0,0,0,0,0,0,0,0,0,-1,1119,1534,0,0
-98,-510,0,0,0,0,0,0,0,0,0,-1,1126,1534,0,0
-91,-510,0,0,0,0,0,0,0,0,0,-1,1133,1534,0,0
-84,-510,0,0,0,0,0,0,0,0,0,-1,1140,1534,0,0
-77,-510,0,0,0,0,0,0,0,0,0,-1,1147,1534,0,0
-70,-510,0,0,0,0,0,0,0,0,0,-1,1154,1534,0,0
-63,-510,0,0,0,0,0,0,0,0,0,-1,1161,1534,0,0
-56,-510,0,0,0,0,0,0,0,0,0,-1,1168,1534,0,0
-49,-510,0,0,0,0,0,0,0,0,0,-1,1175,1534,0,0
-42,-510,0,0,0,0,0,0,0,0,0,-1,1182,1534,0,0
-35,-510,0,0,0,0,0,0,0,0,0,-1,1189,1534,0,0
-28,-510,0,0,0,0,0,0,0,0,0,-1,1196,1534,0,0
-21,-510,0,0,0,0,0,0,0,0,0,-1,1203,1534,0,0
-14,-510,0,0,0,0,0,0,0,0,0,-1,1210,1534,0,0
-7,-510,0,0,0,0,0,0,0,0,0,-1,1217,1534,0,0
0,-510,0,0,0,0,0,0,0,0,0,-1,1224,1534,0,0
7,-510,0,0,0,0,0,0,0,0,0,-1,1231,1534,0,0
14,-510,0,0,0,0,0,0,0,0,0,-1,1238,1534,0,0
21,-510,0,0,0,0,0,0,0,0,0,-1,1245,1534,0,0
28,-510,0,0,0,0,0,0,0,0,0,-1,1252,1534,0,0
35,-510,0,0,0,0,0,0,0,0,0,-1,1259,1534,0,0
42,-510,0,0,0,0,0,0,0,0,0,-1,1266,1534,0,0
49,-510,0,0,0,0,0,0,0,0,0,-1,1273,1534,0,0
56,-510,0,0,0,0,0,0,0,0,0,-1,1280,1534,0,0
63,-510,0,0,0,0,0,0,0,0,0,-1,1287,1534,0,0
70,-510,0,0,0,0,0,0,0,0,0,-1,1294,1534,0,0
77,-510,0,0,0,0,0,0,0,0,0,-1,1301,1534,0,0
84,-510,0,0,0,0,0,0,0,0,0,-1,1308,1534,0,0
91,-510,0,0,0,0,0,0,0,0,0,-1,1315,1534,0,0
98,-510,0,0,0,0,0,0,0,0,0,-1,1322,1534,0,0
105,-510,0,0,0,0,0,0,0,0,0,-1,1329,1534,0,0
112,-510,0,0,0,0,0,0,0,0,0,-1,1336,1534,0,0
119,-510,0,0,0,0,0,0,0,0,0,-1,1343,1534,0,0
126,-510,0,0,0,0,0,0,0,0,0,-1,1350,1534,0,0
133,-510,0,0,0,0,0,0,0,0,0,-1,1357,1534,0,0
140,-510,0,0,0,0,0,0,0,0,0,-1,1364,1534,0,0
147,-510,0,0,0,0,0,0,0,0,0,-1,1371,1534,0,0
154,-510,0,0,0,0,0,0,0,0,0,-1,1378,1534,0,0
161,-510,0,0,0,0,0,0,0,0,0,-1,1385,1534,0,0
168,-510,0,0,0,0,0,0,0,0,0,-1,1392,1534,0,0
175,-510,0,0,0,0,0,0,0,0,0,-1,1399,1534,0,0
182,-510,0,0,0,0,0,0,0,0,0,-1,1406,1534,0,0
189,-510,0,0,0,0,0,0,0,0,0,-1,1413,1534,0,0
196,-510,0,0,0,0,0,0,0,0,0,-1,1420,1534,0,0
203,-510,0,0,0,0,0,0,0,0,0,-1,1427,1534,0,0
210,-510,0,0,0,0,0,0,0,0,0,-1,1434,1534,0,0
217,-510,0,0,0,0,0,0,0,0,0,-1,1441,1534,0,0
224,-510,0,0,0,0,0,0,0,0,0,-1,1448,1534,0,0
231,-510,0,0,0,0,0,0,0,0,0,-1,1455,1534,0,0
238,-510,0,0,0,0,0,0,0,0,0,-1,1462,1534,0,0
245,-510,0,0,0,0,0,0,0,0,0,-1,1469,1534,0,0
252,-510,0,0,0,0,0,0,0,0,0,-1,1476,1534,0,0
259,-510,0,0,0,0,0,0,0,0,0,-1,1483,1534,0,0
266,-510,0,0,0,0,0,0,0,0,0,-1,1490,1534,0,0
273,-510,0,0,0,0,0,0,0,0,0,-1,1497,1534,0,0
280,-510,0,0,0,0,0,0,0,0,0,-1,1504,1534,0,0
287,-510,0,0,0,0,0,0,0,0,0,-1,1511,1534,0,0
294,-510,0,0,0,0,0,0,0,0,0,-1,1518,1534,0,0
301,-510,0,0,0,0,0,0,0,0,0,-1,1525,1534,0,0
308,-510,0,0,0,0,0,0,0,0,0,-1,1532,1534,0,0
315,-510,0,0,0,0,0,0,0,0,0,-1,1539,1534,0,0
322,-510,0,0,0,0,0,0,0,0,0,-1,1546,1534,0,0
329,-510,0,0,0,0,0,0,0,0,0,-1,1553,1534,0,0
336,-510,0,0,0,0,0,0,0,0,0,-1,1560,1534,0,0
343,-510,0,0,0,0,0,0,0,0,0,-1,1567,1534,0,0
350,-510,0,0,0,0,0,0,0,0,0,-1,1574,1534,0,0
357,-510,0,0,0,0,0,0,0,0,0,-1,1581,1534,0,0
364,-510,0,0,0,0,0,0,0,0,0,-1,1588,1534,0,0
371,-510,0,0,0,0,0,0,0,0,0,-1,1595,1534,0,0
378,-510,0,0,0,0,0,0,0,0,0,-1,1602,1534,0,0
385,-510,0,0,0,0,0,0,0,0,0,-1,1609,1534,0,0
392,-510,0,0,0,0,0,0,0,0,0,-1,1616,1534,0,0
399,-510,0,0,0,0,0,0,0,0,0,-1,1623,1534,0,0
406,-510,0,0,0,0,0,0,0,0,0,-1,1630,1534,0,0
413,-510,0,0,0,0,0,0,0,0,0,-1,1637,1534,0,0
420,-510,13.1918,5.99402,0,0,0,0,0,0,0,-1,1644,1534,13.1917,-5.994
427,-510,10.9799,5.12341,0,0,0,0,0,0,0,-1,1651,1534,10.9798,-5.12337
434,-510,11.8219,4.07898,0,0,0,0,0,0,0,-1,1658,1534,11.8219,-4.07895
441,-510,12.6812,3.02991,0,0,0,0,0,0,0,-1,1665,1534,12.6811,-3.0299
448,-510,13.2379,2.2804,0,0,0,0,0,0,0,-1,1672,1534,13.2379,-2.28037
455,-510,9.76892,2.20642,0,0,0,0,0,0,0,-1,1679,1534,9.76894,-2.20647
462,-510,9.84692,2.49182,0,0,0,0,0,0,0,-1,1686,1534,9.84695,-2.49185
469,-510,16.6072,7.26941,0,0,0,0,0,0,0,-1,1693,1534,16.6072,-7.26945
476,-510,15.9199,7.8645,0,0,0,0,0,0,0,-1,1700,1534,15.9199,-7.86455
483,-510,13.0833,8.10938,0,0,0,0,0,0,0,-1,1707,1534,13.0833,-8.10932
490,-510,13.0841,15.3286,0,0,0,0,0,0,0,-1,1714,1534,13.0841,-15.3286
497,-510,14.2612,16.5105,0,0,0,0,0,0,0,-1,1721,1534,14.2613,-16.5105
504,-510,14.7019,16.3229,0,0,0,0,0,0,0,-1,1728,1534,14.702,-16.3229
511,-510,15.1427,16.1354,0,0,0,0,0,0,0,-1,1735,1534,15.1427,-16.1353
518,-510,13.6567,16.6416,0,0,0,0,0,0,0,-1,1742,1534,13.6567,-16.6416
525,-510,13.9159,16.0068,-0.00398339,-0.011162,0.0137346,0.00662316,-0.0217686,0.65759,0.0171518,0.0326203,1749,1534,13.9159,-16.0068
532,-510,13.9528,15.5862,-0.00292707,-0.00744047,0.0100181,0.00508531,-0.0154529,0.674615,0.012351,0.0152127,1756,1534,13.9527,-15.5862
539,-510,13.9863,15.219,-0.00191294,-0.00476888,0.00707654,0.00387827,-0.0105601,0.685841,0.00862841,0.0129197,1763,1534,13.9864,-15.219
546,-510,13.9578,14.9199,-0.00089049,-0.00220167,0.00463358,0.00313365,-0.00622581,0.715121,0.00550111,0.0117381,1770,1534,13.9577,-14.9199
553,-510,13.9506,14.5787,-0.000140926,-0.00100512,0.00265645,0.00211834,-0.00326439,0.704774,0.00313111,0.0127425,1777,1534,13.9506,-14.5788
560,-510,13.947,14.2373,0.000559587,-0.000463535,0.00128281,0.00142908,-0.00133303,0.595671,0.00159502,0.0129571,1784,1534,13.947,-14.2373
567,-510,13.9471,13.8943,0.00128926,-0.00018406,0.00041032,0.00139583,-0.000290626,0.254101,0.00104104,0.0118949,1791,1534,13.9472,-13.8942
574,-510,13.943,13.5446,0.002063,0.000281435,-0.000507638,0.00219749,0.000146942,-0.258989,0.00141855,0.0127365,1798,1534,13.943,-13.5445
581,-510,13.9232,13.2401,0.00289643,0.000753092,-0.00127761,0.00349233,0.000157196,-0.436419,0.00227763,0.0116436,1805,1534,13.9233,-13.2401
588,-510,13.9277,12.9017,0.00374265,0.000866903,-0.00187011,0.00466376,-5.42048e-05,-0.457663,0.0031274,0.0128476,1812,1534,13.9278,-12.9017
595,-510,14.009,12.4668,0.0044858,0.000995465,-0.00235119,0.00566872,-0.000187459,-0.466138,0.00384316,0.0181614,1819,1534,14.009,-12.4668
602,-510,14.0697,12.057,0,0,0,0,0,0,0,-1,1826,1534,14.0697,-12.0571
609,-510,14.1398,11.7577,0,0,0,0,0,0,0,-1,1833,1534,14.1398,-11.7577
616,-510,13.8964,11.7747,0,0,0,0,0,0,0,-1,1840,1534,13.8963,-11.7747
623,-510,14.0114,10.7981,0,0,0,0,0,0,0,-1,1847,1534,14.0114,-10.7981
630,-510,13.7461,9.30334,0,0,0,0,0,0,0,-1,1854,1534,13.7461,-9.30335
637,-510,11.0155,7.38464,0,0,0,0,0,0,0,-1,1861,1534,11.0155,-7.38463
644,-510,11.5809,7.17126,0,0,0,0,0,0,0,-1,1868,1534,11.5809,-7.17123
651,-510,8.70471,3.5061,0,0,0,0,0,0,0,-1,1875,1534,8.70475,-3.50611
658,-510,0,0,0,0,0,0,0,0,0,-1,1882,1534,0,0
665,-510,0,0,0,0,0,0,0,0,0,-1,1889,1534,0,0
672,-510,0,0,0,0,0,0,0,0,0,-1,1896,1534,0,0
679,-510,0,0,0,0,0,0,0,0,0,-1,1903,1534,0,0
686,-510,0,0,0,0,0,0,0,0,0,-1,1910,1534,0,0
693,-510,0,0,0,0,0,0,0,0,0,-1,1917,1534,0,0
700,-510,0,0,0,0,0,0,0,0,0,-1,1924,1534,0,0
707,-510,0,0,0,0,0,0,0,0,0,-1,1931,1534,0,0
714,-510,0,0,0,0,0,0,0,0,0,-1,1938,1534,0,0
721,-510,0,0,0,0,0,0,0,0,0,-1,1945,1534,0,0
728,-510,0,0,0,0,0,0,0,0,0,-1,1952,1534,0,0
735,-510,0,0,0,0,0,0,0,0,0,-1,1959,1534,0,0
742,-510,0,0,0,0,0,0,0,0,0,-1,1966,1534,0,0
749,-510,0,0,0,0,0,0,0,0,0,-1,1973,1534,0,0
756,-510,0,0,0,0,0,0,0,0,0,-1,1980,1534,0,0
763,-510,0,0,0,0,0,0,0,0,0,-1,1987,1534,0,0
770,-510,0,0,0,0,0,0,0,0,0,-1,1994,1534,0,0
777,-510,0,0,0,0,0,0,0,0,0,-1,2001,1534,0,0
784,-510,0,0,0,0,0,0,0,0,0,-1,2008,1534,0,0
791,-510,0,0,0,0,0,0,0,0,0,-1,2015,1534,0,0
798,-510,0,0,0,0,0,0,0,0,0,-1,2022,1534,0,0
805,-510,0,0,0,0,0,0,0,0,0,-1,2029,1534,0,0
812,-510,0,0,0,0,0,0,0,0,0,-1,2036,1534,0,0
-700,-517,0,0,0,0,0,0,0,0,0,-1,524,1541,0,0
-693,-517,0,0,0,0,0,0,0,0,0,-1,531,1541,0,0
-686,-517,0,0,0,0,0,0,0,0,0,-1,538,1541,0,0
-679,-517,0,0,0,0,0,0,0,0,0,-1,545,1541,0,0
-672,-517,0,0,0,0,0,0,0,0,0,-1,552,1541,0,0
-665,-517,0,0,0,0,0,0,0,0,0,-1,559,1541,0,0
-658,-517,0,0,0,0,0,0,0,0,0,-1,566,1541,0,0
-651,-517,0,0,0,0,0,0,0,0,0,-1,573,1541,0,0
-644,-517,0,0,0,0,0,0,0,0,0,-1,580,1541,0,0
-637,-517,0,0,0,0,0,0,0,0,0,-1,587,1541,0,0
-630,-517,0,0,0,0,0,0,0,0,0,-1,594,1541,0,0
-623,-517,0,0,0,0,0,0,0,0,0,-1,601,1541,0,0
-616,-517,0,0,0,0,0,0,0,0,0,-1,608,1541,0,0
-609,-517,0,0,0,0,0,0,0,0,0,-1,615,1541,0,0
-602,-517,0,0,0,0,0,0,0,0,0,-1,622,1541,0,0
-595,-517,0,0,0,0,0,0,0,0,0,-1,629,1541,0,0
-588,-517,0,0,0,0,0,0,0,0,0,-1,636,1541,0,0
-581,-517,0,0,0,0,0,0,0,0,0,-1,643,1541,0,0
-574,-517,0,0,0,0,0,0,0,0,0,-1,650,1541,0,0
-567,-517,0,0,0,0,0,0,0,0,0,-1,657,1541,0,0
-560,-517,0,0,0,0,0,0,0,0,0,-1,664,1541,0,0
-553,-517,0,0,0,0,0,0,0,0,0,-1,671,1541,0,0
-546,-517,0,0,0,0,0,0,0,0,0,-1,678,1541,0,0
-539,-517,0,0,0,0,0,0,0,0,0,-1,685,1541,0,0
-532,-517,0,0,0,0,0,0,0,0,0,-1,692,1541,0,0
-525,-517,-3.62903,4.3606,0,0,0,0,0,0,0,-1,699,1541,-3.62904,-4.36056
-518,-517,-1.664,2.27209,0,0,0,0,0,0,0,-1,706,1541,-1.66399,-2.27207
-511,-517,-0.999146,5.52063,0,0,0,0,0,0,0,-1,713,1541,-0.999126,-5.52059
-504,-517,-0.883362,4.79858,0,0,0,0,0,0,0,-1,720,1541,-0.88337,-4.79854
-497,-517,-1.95294,9.60901,0,0,0,0,0,0,0,-1,727,1541,-1.95291,-9.60901
-490,-517,-1.01324,9.52075,0,0,0,0,0,0,0,-1,734,1541,-1.01323,-9.5208
-483,-517,-1.19958,9.79163,0,0,0,0,0,0,0,-1,741,1541,-1.19959,-9.79164
-476,-517,-1.41693,10.1367,0.000145325,0.0135861,0.0121606,0.0207597,-0.0070283,1.03783,0.0166836,0.0381596,748,1541,-1.41695,-10.1367
-469,-517,-1.66669,10.5299,-0.00178719,0.00395585,0.00558878,0.00736764,-0.00519899,1.02271,0.00729127,0.0170883,755,1541,-1.66667,-10.5299
-462,-517,-1.77557,10.9027,-0.00254744,-0.00109285,0.00163071,-3.45979e-05,-0.00360568,0.99516,0.00239234,0.0180598,762,1541,-1.7756,-10.9028
-455,-517,-1.77136,11.3142,-0.00231584,-0.00326299,-0.000267074,-0.00224572,-0.00333311,-0.256745,0.00196272,0.0139867,769,1541,-1.77137,-11.3143
-448,-517,-1.77716,11.6998,-0.00134664,-0.00225311,-0.000356632,-0.00122316,-0.00237659,-0.33334,0.00137232,0.0125578,776,1541,-1.77714,-11.6998
-441,-517,-1.79053,12.0424,-0.000230722,-0.00135508,-1.1541e-05,-0.000230604,-0.0013552,-0.010263,0.000837252,0.0116736,783,1541,-1.79052,-12.0423
-434,-517,-1.77515,12.3947,0.000892349,-0.000390772,0.000567899,0.00110759,-0.000606013,0.362284,0.00100338,0.0146258,790,1541,-1.77512,-12.3946
-427,-517,-1.78577,12.765,0.00195451,0.000540178,0.00123761,0.00267275,-0.000178053,0.525836,0.00184405,0.0140048,797,1541,-1.78575,-12.7651
-420,-517,-1.8313,13.165,0.00309451,0.00145663,0.00198098,0.00441915,0.000131992,0.589395,0.0029031,0.0194129,804,1541,-1.83132,-13.165
-413,-517,-1.82697,13.4979,0.0041948,0.00247249,0.00286197,0.00632237,0.000344923,0.639259,0.00410477,0.0105258,811,1541,-1.82694,-13.498
-406,-517,-1.82697,13.8535,0.00536269,0.00358806,0.00389284,0.00846806,0.000482692,0.673344,0.00549155,0.0108723,818,1541,-1.82696,-13.8535
-399,-517,-1.82422,14.2031,0.00671241,0.0049009,0.00496029,0.010849,0.000764347,0.695092,0.0069918,0.0110888,825,1541,-1.82425,-14.2031
-392,-517,-1.80609,14.5808,0.00830668,0.00635022,0.00590781,0.0133167,0.0013402,0.703351,0.0084665,0.0137245,832,1541,-1.80607,-14.5808
-385,-517,-1.71771,15.1479,0.00906386,0.00758609,0.00691936,0.0152837,0.00136627,0.732207,0.00976561,0.0273704,839,1541,-1.71772,-15.1479
-378,-517,-1.61908,15.9498,0,0,0,0,0,0,0,-1,846,1541,-1.61905,-15.9498
-371,-517,-1.37585,13.2646,0,0,0,0,0,0,0,-1,853,1541,-1.37586,-13.2647
-364,-517,-1.26245,12.6289,0,0,0,0,0,0,0,-1,860,1541,-1.26243,-12.6289
-357,-517,-1.23889,12.979,0,0,0,0,0,0,0,-1,867,1541,-1.23891,-12.979
-350,-517,0.722412,10.0829,0,0,0,0,0,0,0,-1,874,1541,0.722399,-10.0828
-343,-517,-4.67834,14.4569,0,0,0,0,0,0,0,-1,881,1541,-4.67837,-14.4569
-336,-517,-4.32434,16.3674,0,0,0,0,0,0,0,-1,888,1541,-4.32433,-16.3674
-329,-517,-3.86652,19.4402,0,0,0,0,0,0,0,-1,895,1541,-3.86649,-19.4402
-322,-517,-4.21246,19.5819,0,0,0,0,0,0,0,-1,902,1541,-4.21244,-19.5819
-315,-517,-0.987976,7.29749,0,0,0,0,0,0,0,-1,909,1541,-0.987993,-7.29743
-308,-517,3.27911,17.621,0,0,0,0,0,0,0,-1,916,1541,3.27913,-17.621
-301,-517,-1.69141,8.87488,0,0,0,0,0,0,0,-1,923,1541,-1.69141,-8.87485
-294,-517,-1.72583,9.92566,0,0,0,0,0,0,0,-1,930,1541,-1.72584,-9.92571
-287,-517,-3.09045,12.1472,0,0,0,0,0,0,0,-1,937,1541,-3.09043,-12.1472
-280,-517,0,0,0,0,0,0,0,0,0,-1,944,1541,0,0
-273,-517,0,0,0,0,0,0,0,0,0,-1,951,1541,0,0
-266,-517,0,0,0,0,0,0,0,0,0,-1,958,1541,0,0
-259,-517,0,0,0,0,0,0,0,0,0,-1,965,1541,0,0
-252,-517,0,0,0,0,0,0,0,0,0,-1,972,1541,0,0
-245,-517,0,0,0,0,0,0,0,0,0,-1,979,1541,0,0
-238,-517,0,0,0,0,0,0,0,0,0,-1,986,1541,0,0
-231,-517,0,0,0,0,0,0,0,0,0,-1,993,1541,0,0
-224,-517,0,0,0,0,0,0,0,0,0,-1,1000,1541,0,0
-217,-517,0,0,0,0,0,0,0,0,0,-1,1007,1541,0,0
-210,-517,0,0,0,0,0,0,0,0,0,-1,1014,1541,0,0
-203,-517,0,0,0,0,0,0,0,0,0,-1,1021,1541,0,0
-196,-517,0,0,0,0,0,0,0,0,0,-1,1028,1541,0,0
-189,-517,0,0,0,0,0,0,0,0,0,-1,1035,1541,0,0
-182,-517,0,0,0,0,0,0,0,0,0,-1,1042,1541,0,0
-175,-517,0,0,0,0,0,0,0,0,0,-1,1049,1541,0,0
-168,-517,0,0,0,0,0,0,0,0,0,-1,1056,1541,0,0
-161,-517,0,0,0,0,0,0,0,0,0,-1,1063,1541,0,0
-154,-517,0,0,0,0,0,0,0,0,0,-1,1070,1541,0,0
-147,-517,0,0,0,0,0,0,0,0,0,-1,1077,1541,0,0
-140,-517,0,0,0,0,0,0,0,0,0,-1,1084,1541,0,0
-133,-517,0,0,0,0,0,0,0,0,0,-1,1091,1541,0,0
-126,-517,0,0,0,0,0,0,0,0,0,-1,1098,1541,0,0
-119,-517,0,0,0,0,0,0,0,0,0,-1,1105,1541,0,0
-112,-517,0,0,0,0,0,0,0,0,0,-1,1112,1541,0,0
-105,-517,0,0,0,0,0,0,0,0,0,-1,1119,1541,0,0
-98,-517,0,0,0,0,0,0,0,0,0,-1,1126,1541,0,0
-91,-517,0,0,0,0,0,0,0,0,0,-1,1133,1541,0,0
-84,-517,0,0,0,0,0,0,0,0,0,-1,1140,1541,0,0
-77,-517,0,0,0,0,0,0,0,0,0,-1,1147,1541,0,0
-70,-517,0,0,0,0,0,0,0,0,0,-1,1154,1541,0,0
-63,-517,0,0,0,0,0,0,0,0,0,-1,1161,1541,0,0
-56,-517,0,0,0,0,0,0,0,0,0,-1,1168,1541,0,0
-49,-517,0,0,0,0,0,0,0,0,0,-1,1175,1541,0,0
-42,-517,0,0,0,0,0,0,0,0,0,-1,1182,1541,0,0
-35,-517,0,0,0,0,0,0,0,0,0,-1,1189,1541,0,0
-28,-517,0,0,0,0,0,0,0,0,0,-1,1196,1541,0,0
-21,-517,0,0,0,0,0,0,0,0,0,-1,1203,1541,0,0
-14,-517,0,0,0,0,0,0,0,0,0,-1,1210,1541,0,0
-7,-517,0,0,0,0,0,0,0,0,0,-1,1217,1541,0,0
0,-517,0,0,0,0,0,0,0,0,0,-1,1224,1541,0,0
7,-517,0,0,0,0,0,0,0,0,0,-1,1231,1541,0,0
14,-517,0,0,0,0,0,0,0,0,0,-1,1238,1541,0,0
21,-517,0,0,0,0,0,0,0,0,0,-1,1245,1541,0,0
28,-517,0,0,0,0,0,0,0,0,0,-1,1252,1541,0,0
35,-517,0,0,0,0,0,0,0,0,0,-1,1259,1541,0,0
42,-517,0,0,0,0,0,0,0,0,0,-1,1266,1541,0,0
49,-517,0,0,0,0,0,0,0,0,0,-1,1273,1541,0,0
56,-517,0,0,0,0,0,0,0,0,0,-1,1280,1541,0,0
63,-517,0,0,0,0,0,0,0,0,0,-1,1287,1541,0,0
70,-517,0,0,0,0,0,0,0,0,0,-1,1294,1541,0,0
77,-517,0,0,0,0,0,0,0,0,0,-1,1301,1541,0,0
84,-517,0,0,0,0,0,0,0,0,0,-1,1308,1541,0,0
91,-517,0,0,0,0,0,0,0,0,0,-1,1315,1541,0,0
98,-517,0,0,0,0,0,0,0,0,0,-1,1322,1541,0,0
105,-517,0,0,0,0,0,0,0,0,0,-1,1329,1541,0,0
112,-517,0,0,0,0,0,0,0,0,0,-1,1336,1541,0,0
119,-517,0,0,0,0,0,0,0,0,0,-1,1343,1541,0,0
126,-517,0,0,0,0,0,0,0,0,0,-1,1350,1541,0,0
133,-517,0,0,0,0,0,0,0,0,0,-1,1357,1541,0,0
140,-517,0,0,0,0,0,0,0,0,0,-1,1364,1541,0,0
147,-517,0,0,0,0,0,0,0,0,0,-1,1371,1541,0,0
154,-517,0,0,0,0,0,0,0,0,0,-1,1378,1541,0,0
161,-517,0,0,0,0,0,0,0,0,0,-1,1385,1541,0,0
168,-517,0,0,0,0,0,0,0,0,0,-1,1392,1541,0,0
175,-517,0,0,0,0,0,0,0,0,0,-1,1399,1541,0,0
182,-517,0,0,0,0,0,0,0,0,0,-1,1406,1541,0,0
189,-517,0,0,0,0,0,0,0,0,0,-1,1413,1541,0,0
196,-517,0,0,0,0,0,0,0,0,0,-1,1420,1541,0,0
203,-517,0,0,0,0,0,0,0,0,0,-1,1427,1541,0,0
210,-517,0,0,0,0,0,0,0,0,0,-1,1434,1541,0,0
217,-517,0,0,0,0,0,0,0,0,0,-1,1441,1541,0,0
224,-517,0,0,0,0,0,0,0,0,0,-1,1448,1541,0,0
231,-517,0,0,0,0,0,0,0,0,0,-1,1455,1541,0,0
238,-517,0,0,0,0,0,0,0,0,0,-1,1462,1541,0,0
245,-517,0,0,0,0,0,0,0,0,0,-1,1469,1541,0,0
252,-517,0,0,0,0,0,0,0,0,0,-1,1476,1541,0,0
259,-517,0,0,0,0,0,0,0,0,0,-1,1483,1541,0,0
266,-517,0,0,0,0,0,0,0,0,0,-1,1490,1541,0,0
273,-517,0,0,0,0,0,0,0,0,0,-1,1497,1541,0,0
280,-517,0,0,0,0,0,0,0,0,0,-1,1504,1541,0,0
287,-517,0,0,0,0,0,0,0,0,0,-1,1511,1541,0,0
294,-517,0,0,0,0,0,0,0,0,0,-1,1518,1541,0,0
301,-517,0,0,0,0,0,0,0,0,0,-1,1525,1541,0,0
308,-517,0,0,0,0,0,0,0,0,0,-1,1532,1541,0,0
315,-517,0,0,0,0,0,0,0,0,0,-1,1539,1541,0,0
322,-517,0,0,0,0,0,0,0,0,0,-1,1546,1541,0,0
329,-517,0,0,0,0,0,0,0,0,0,-1,1553,1541,0,0
336,-517,0,0,0,0,0,0,0,0,0,-1,1560,1541,0,0
343,-517,0,0,0,0,0,0,0,0,0,-1,1567,1541,0,0
350,-517,0,0,0,0,0,0,0,0,0,-1,1574,1541,0,0
357,-517,0,0,0,0,0,0,0,0,0,-1,1581,1541,0,0
364,-517,0,0,0,0,0,0,0,0,0,-1,1588,1541,0,0
371,-517,0,0,0,0,0,0,0,0,0,-1,1595,1541,0,0
378,-517,0,0,0,0,0,0,0,0,0,-1,1602,1541,0,0
385,-517,0,0,0,0,0,0,0,0,0,-1,1609,1541,0,0
392,-517,0,0,0,0,0,0,0,0,0,-1,1616,1541,0,0
399,-517,0,0,0,0,0,0,0,0,0,-1,1623,1541,0,0
406,-517,13.1395,7.01978,0,0,0,0,0,0,0,-1,1630,1541,13.1396,-7.01981
413,-517,12.8859,6.31592,0,0,0,0,0,0,0,-1,1637,1541,12.8858,-6.31588
420,-517,12.4789,6.20337,0,0,0,0,0,0,0,-1,1644,1541,12.4789,-6.20333
427,-517,11.647,4.66516,0,0,0,0,0,0,0,-1,1651,1541,11.647,-4.66519
434,-517,12.3719,3.92773,0,0,0,0,0,0,0,-1,1658,1541,12.3719,-3.92776
441,-517,13.146,3.14124,0,0,0,0,0,0,0,-1,1665,1541,13.146,-3.14121
448,-517,13.8861,2.36682,0,0,0,0,0,0,0,-1,1672,1541,13.8861,-2.36684
455,-517,13.6012,4.06335,0,0,0,0,0,0,0,-1,1679,1541,13.6012,-4.06335
462,-517,14.8956,7.0752,0,0,0,0,0,0,0,-1,1686,1541,14.8956,-7.07525
469,-517,13.6292,6.87744,0,0,0,0,0,0,0,-1,1693,1541,13.6292,-6.87739
476,-517,14.2998,12.3209,0,0,0,0,0,0,0,-1,1700,1541,14.2998,-12.321
483,-517,14.1245,12.7913,0,0,0,0,0,0,0,-1,1707,1541,14.1246,-12.7913
490,-517,13.5715,15.7239,0,0,0,0,0,0,0,-1,1714,1541,13.5715,-15.7239
497,-517,13.897,16.2009,-0.0058673,-0.0361832,0.0324568,0.0147966,-0.0568471,0.56694,0.0436739,0.0470885,1721,1541,13.897,-16.2009
504,-517,13.9897,16.6417,-0.0061085,-0.0261236,0.0240558,0.00993835,-0.0421704,0.588281,0.0319459,0.0454849,1728,1541,13.9898,-16.6417
511,-517,13.2913,16.8673,0,0,0,0,0,0,0,-1,1735,1541,13.2912,-16.8673
518,-517,13.4901,16.3672,-0.00327954,-0.0128933,0.0137388,0.006469,-0.0226419,0.617115,0.0176506,0.0448435,1742,1541,13.4901,-16.3672
525,-517,13.5524,15.9,-0.00233408,-0.00873514,0.0101757,0.00513255,-0.0162018,0.633033,0.0128581,0.0159643,1749,1541,13.5524,-15.9
532,-517,13.6388,15.5176,-0.00158698,-0.00572501,0.00737643,0.00400511,-0.0113171,0.648667,0.00917591,0.0112528,1756,1541,13.6387,-15.5176
539,-517,13.6621,15.2025,-0.000819581,-0.00356966,0.00516086,0.00314628,-0.00753552,0.655204,0.00633831,0.0120638,1763,1541,13.6621,-15.2025
546,-517,13.6451,14.9075,9.59013e-06,-0.0014089,0.00328177,0.00265788,-0.00405718,0.678977,0.0039049,0.01208,1770,1541,13.6452,-14.9075
553,-517,13.6196,14.5823,0.000578892,-0.000514835,0.00179644,0.00190986,-0.00184581,0.637647,0.00216844,0.0153477,1777,1541,13.6196,-14.5822
560,-517,13.6023,14.2593,0.00114351,-0.000164801,0.000811376,0.00153159,-0.000552878,0.446133,0.0012469,0.0150347,1784,1541,13.6023,-14.2593
567,-517,13.6134,13.934,0.00179461,-3.54995e-05,0.000183516,0.00181283,-5.37203e-05,0.0989627,0.00122686,0.0125217,1791,1541,13.6134,-13.934
574,-517,13.6057,13.5626,0.0025772,0.000365502,-0.000610693,0.00273462,0.000208082,-0.25228,0.00175783,0.0136349,1798,1541,13.6057,-13.5626
581,-517,13.6082,13.2201,0.00348361,0.000813087,-0.00131942,0.00402553,0.00027117,-0.389716,0.00259802,0.0149851,1805,1541,13.6082,-13.22
588,-517,13.6084,12.8845,0.00441003,0.00087069,-0.0017941,0.00516038,0.000120333,-0.396127,0.00340085,0.0160507,1812,1541,13.6083,-12.8845
595,-517,13.6492,12.5818,0.00531624,0.00104424,-0.00229372,0.00631451,4.59666e-05,-0.410494,0.00419444,0.0368552,1819,1541,13.6492,-12.5818
602,-517,13.9576,12.0754,0,0,0,0,0,0,0,-1,1826,1541,13.9577,-12.0754
609,-517,12.6417,10.8751,0,0,0,0,0,0,0,-1,1833,1541,12.6417,-10.8751
616,-517,14.205,10.3193,0,0,0,0,0,0,0,-1,1840,1541,14.205,-10.3194
623,-517,12.578,10.0779,0,0,0,0,0,0,0,-1,1847,1541,12.578,-10.0779
630,-517,11.7035,7.47815,0,0,0,0,0,0,0,-1,1854,1541,11.7035,-7.47812
637,-517,11.5172,5.79822,0,0,0,0,0,0,0,-1,1861,1541,11.5173,-5.79825
644,-517,11.4232,3.30579,0,0,0,0,0,0,0,-1,1868,1541,11.4232,-3.30574
651,-517,0,0,0,0,0,0,0,0,0,-1,1875,1541,0,0
658,-517,0,0,0,0,0,0,0,0,0,-1,1882,1541,0,0
665,-517,0,0,0,0,0,0,0,0,0,-1,1889,1541,0,0
672,-517,0,0,0,0,0,0,0,0,0,-1,1896,1541,0,0
679,-517,0,0,0,0,0,0,0,0,0,-1,1903,1541,0,0
686,-517,0,0,0,0,0,0,0,0,0,-1,1910,1541,0,0
693,-517,0,0,0,0,0,0,0,0,0,-1,1917,1541,0,0
700,-517,0,0,0,0,0,0,0,0,0,-1,1924,1541,0,0
707,-517,0,0,0,0,0,0,0,0,0,-1,1931,1541,0,0
714,-517,0,0,0,0,0,0,0,0,0,-1,1938,1541,0,0
721,-517,0,0,0,0,0,0,0,0,0,-1,1945,1541,0,0
728,-517,0,0,0,0,0,0,0,0,0,-1,1952,1541,0,0
735,-517,0,0,0,0,0,0,0,0,0,-1,1959,1541,0,0
742,-517,0,0,0,0,0,0,0,0,0,-1,1966,1541,0,0
749,-517,0,0,0,0,0,0,0,0,0,-1,1973,1541,0,0
756,-517,0,0,0,0,0,0,0,0,0,-1,1980,1541,0,0
763,-517,0,0,0,0,0,0,0,0,0,-1,1987,1541,0,0
770,-517,0,0,0,0,0,0,0,0,0,-1,1994,1541,0,0
777,-517,0,0,0,0,0,0,0,0,0,-1,2001,1541,0,0
784,-517,0,0,0,0,0,0,0,0,0,-1,2008,1541,0,0
791,-517,0,0,0,0,0,0,0,0,0,-1,2015,1541,0,0
798,-517,0,0,0,0,0,0,0,0,0,-1,2022,1541,0,0
805,-517,0,0,0,0,0,0,0,0,0,-1,2029,1541,0,0
812,-517,0,0,0,0,0,0,0,0,0,-1,2036,1541,0,0
-700,-524,0,0,0,0,0,0,0,0,0,-1,524,1548,0,0
-693,-524,0,0,0,0,0,0,0,0,0,-1,531,1548,0,0
-686,-524,0,0,0,0,0,0,0,0,0,-1,538,1548,0,0
-679,-524,0,0,0,0,0,0,0,0,0,-1,545,1548,0,0
-672,-524,0,0,0,0,0,0,0,0,0,-1,552,1548,0,0
-665,-524,0,0,0,0,0,0,0,0,0,-1,559,1548,0,0
-658,-524,0,0,0,0,0,0,0,0,0,-1,566,1548,0,0
-651,-524,0,0,0,0,0,0,0,0,0,-1,573,1548,0,0
-644,-524,0,0,0,0,0,0,0,0,0,-1,580,1548,0,0
-637,-524,0,0,0,0,0,0,0,0,0,-1,587,1548,0,0
-630,-524,0,0,0,0,0,0,0,0,0,-1,594,1548,0,0
-623,-524,0,0,0,0,0,0,0,0,0,-1,601,1548,0,0
-616,-524,0,0,0,0,0,0,0,0,0,-1,608,1548,0,0
-609,-524,0,0,0,0,0,0,0,0,0,-1,615,1548,0,0
-602,-524,0,0,0,0,0,0,0,0,0,-1,622,1548,0,0
-595,-524,0,0,0,0,0,0,0,0,0,-1,629,1548,0,0
-588,-524,0,0,0,0,0,0,0,0,0,-1,636,1548,0,0
-581,-524,0,0,0,0,0,0,0,0,0,-1,643,1548,0,0
-574,-524,0,0,0,0,0,0,0,0,0,-1,650,1548,0,0
-567,-524,0,0,0,0,0,0,0,0,0,-1,657,1548,0,0
-560,-524,0,0,0,0,0,0,0,0,0,-1,664,1548,0,0
-553,-524,0,0,0,0,0,0,0,0,0,-1,671,1548,0,0
-546,-524,0,0,0,0,0,0,0,0,0,-1,678,1548,0,0
-539,-524,0,0,0,0,0,0,0,0,0,-1,685,1548,0,0
-532,-524,0,0,0,0,0,0,0,0,0,-1,692,1548,0,0
-525,-524,-0.215515,3.97131,0,0,0,0,0,0,0,-1,699,1548,-0.215501,-3.97136
-518,-524,-0.806274,4.35632,0,0,0,0,0,0,0,-1,706,1548,-0.806259,-4.35633
-511,-524,-1.08301,4.29004,0,0,0,0,0,0,0,-1,713,1548,-1.08301,-4.29006
-504,-524,-1.28821,3.98145,0,0,0,0,0,0,0,-1,720,1548,-1.28822,-3.98151
-497,-524,-0.420349,8.55383,0,0,0,0,0,0,0,-1,727,1548,-0.420322,-8.55384
-490,-524,-0.482727,9.06616,0,0,0,0,0,0,0,-1,734,1548,-0.482748,-9.0661
-483,-524,-1.2113,9.96802,0,0,0,0,0,0,0,-1,741,1548,-1.2113,-9.96805
-476,-524,-1.29163,10.2474,0.000684466,0.014167,0.0133332,0.0223662,-0.00751483,1.01946,0.0179481,0.0443506,748,1548,-1.29162,-10.2474
-469,-524,-1.34662,10.6133,-0.00164899,0.00365153,0.00602511,0.00758351,-0.00558097,0.992597,0.00762977,0.033064,755,1548,-1.34661,-10.6132
-462,-524,-1.36584,11.0399,-0.00263265,-0.00162475,0.00165932,-0.000394537,-0.00386286,0.932826,0.00245432,0.0272407,762,1548,-1.36587,-11.0399
-455,-524,-1.45282,11.3483,-0.00256943,-0.00368683,-0.000378426,-0.00245333,-0.00380293,-0.297676,0.00222623,0.0196842,769,1548,-1.45283,-11.3483
-448,-524,-1.41992,11.7142,-0.00180854,-0.00255132,-0.000562618,-0.00150579,-0.00285408,-0.493674,0.00164864,0.0120988,776,1548,-1.41993,-11.7142
-441,-524,-1.42761,12.0631,-0.000915773,-0.00158003,-0.000325625,-0.000782777,-0.00171303,-0.387754,0.000990238,0.0107731,783,1548,-1.4276,-12.0631
-434,-524,-1.41309,12.4045,1.04343e-06,-0.000595178,0.000143712,3.38757e-05,-0.00062801,0.224603,0.00043041,0.0132898,790,1548,-1.41307,-12.4045
-427,-524,-1.41199,12.7747,0.000875949,0.000309723,0.000706153,0.00135363,-0.000167956,0.594747,0.000963297,0.0133253,797,1548,-1.412,-12.7746
-420,-524,-1.43658,13.1514,0.00187529,0.00117411,0.00131695,0.00288751,0.000161887,0.655307,0.00187338,0.0104601,804,1548,-1.43658,-13.1513
-413,-524,-1.44226,13.5057,0.0028085,0.00207712,0.0020377,0.00451307,0.000372553,0.696613,0.00289254,0.00970143,811,1548,-1.44223,-13.5057
-406,-524,-1.45117,13.8608,0.00380347,0.00310944,0.00288648,0.00636371,0.000549193,0.725575,0.00407178,0.0106713,818,1548,-1.4512,-13.8608
-399,-524,-1.46674,14.2125,0.00492204,0.00421513,0.0037835,0.00836856,0.000768615,0.738823,0.0053413,0.00929437,825,1548,-1.46673,-14.2125
-392,-524,-1.47107,14.5765,0.00625614,0.0053447,0.00452389,0.0103472,0.00125364,0.735199,0.00652055,0.00992264,832,1548,-1.47106,-14.5766
-385,-524,-1.46759,14.9646,0.00689589,0.00630785,0.00528521,0.0118952,0.00130849,0.757611,0.00753199,0.0128463,839,1548,-1.46761,-14.9646
-378,-524,-1.40002,15.5055,0.00611109,0.00716692,0.00527916,0.0119445,0.00133351,0.835232,0.00755781,0.0355539,846,1548,-1.40005,-15.5055
-371,-524,-1.3172,16.0188,0,0,0,0,0,0,0,-1,853,1548,-1.3172,-16.0188
-364,-524,-0.712097,14.9871,0,0,0,0,0,0,0,-1,860,1548,-0.712116,-14.9871
-357,-524,-1.34052,14.7448,0,0,0,0,0,0,0,-1,867,1548,-1.34054,-14.7447
-350,-524,-2.63245,12.7522,0,0,0,0,0,0,0,-1,874,1548,-2.63245,-12.7522
-343,-524,-3.11719,14.8851,0,0,0,0,0,0,0,-1,881,1548,-3.11718,-14.8851
-336,-524,-3.10358,16.642,0,0,0,0,0,0,0,-1,888,1548,-3.10361,-16.6419
-329,-524,-2.98773,18.1426,0,0,0,0,0,0,0,-1,895,1548,-2.98773,-18.1426
-322,-524,-2.88702,18.4606,0,0,0,0,0,0,0,-1,902,1548,-2.88699,-18.4606
-315,-524,-1.90839,19.4824,0,0,0,0,0,0,0,-1,909,1548,-1.90838,-19.4824
-308,-524,-2.36938,19.3059,0,0,0,0,0,0,0,-1,916,1548,-2.3694,-19.3058
-301,-524,2.72394,17.7618,0,0,0,0,0,0,0,-1,923,1548,2.72396,-17.7619
-294,-524,-1.52515,9.05408,0,0,0,0,0,0,0,-1,930,1548,-1.52512,-9.05411
-287,-524,-0.962219,10.3199,0,0,0,0,0,0,0,-1,937,1548,-0.962241,-10.32
-280,-524,-1.36255,10.3859,0,0,0,0,0,0,0,-1,944,1548,-1.36253,-10.3859
-273,-524,0,0,0,0,0,0,0,0,0,-1,951,1548,0,0
-266,-524,0,0,0,0,0,0,0,0,0,-1,958,1548,0,0
-259,-524,0,0,0,0,0,0,0,0,0,-1,965,1548,0,0
-252,-524,0,0,0,0,0,0,0,0,0,-1,972,1548,0,0
-245,-524,0,0,0,0,0,0,0,0,0,-1,979,1548,0,0
-238,-524,0,0,0,0,0,0,0,0,0,-1,986,1548,0,0
-231,-524,0,0,0,0,0,0,0,0,0,-1,993,1548,0,0
-224,-524,0,0,0,0,0,0,0,0,0,-1,1000,1548,0,0
-217,-524,0,0,0,0,0,0,0,0,0,-1,1007,1548,0,0
-210,-524,0,0,0,0,0,0,0,0,0,-1,1014,1548,0,0
-203,-524,0,0,0,0,0,0,0,0,0,-1,1021,1548,0,0
-196,-524,0,0,0,0,0,0,0,0,0,-1,1028,1548,0,0
-189,-524,0,0,0,0,0,0,0,0,0,-1,1035,1548,0,0
-182,-524,0,0,0,0,0,0,0,0,0,-1,1042,1548,0,0
-175,-524,0,0,0,0,0,0,0,0,0,-1,1049,1548,0,0
-168,-524,0,0,0,0,0,0,0,0,0,-1,1056,1548,0,0
-161,-524,0,0,0,0,0,0,0,0,0,-1,1063,1548,0,0
-154,-524,0,0,0,0,0,0,0,0,0,-1,1070,1548,0,0
-147,-524,0,0,0,0,0,0,0,0,0,-1,1077,1548,0,0
-140,-524,0,0,0,0,0,0,0,0,0,-1,1084,1548,0,0
-133,-524,0,0,0,0,0,0,0,0,0,-1,1091,1548,0,0
-126,-524,0,0,0,0,0,0,0,0,0,-1,1098,1548,0,0
-119,-524,0,0,0,0,0,0,0,0,0,-1,1105,1548,0,0
-112,-524,0,0,0,0,0,0,0,0,0,-1,1112,1548,0,0
-105,-524,0,0,0,0,0,0,0,0,0,-1,1119,1548,0,0
-98,-524,0,0,0,0,0,0,0,0,0,-1,1126,1548,0,0
-91,-524,0,0,0,0,0,0,0,0,0,-1,1133,1548,0,0
-84,-524,0,0,0,0,0,0,0,0,0,-1,1140,1548,0,0
-77,-524,0,0,0,0,0,0,0,0,0,-1,1147,1548,0,0
-70,-524,0,0,0,0,0,0,0,0,0,-1,1154,1548,0,0
-63,-524,0,0,0,0,0,0,0,0,0,-1,1161,1548,0,0
-56,-524,0,0,0,0,0,0,0,0,0,-1,1168,1548,0,0
-49,-524,0,0,0,0,0,0,0,0,0,-1,1175,1548,0,0
-42,-524,0,0,0,0,0,0,0,0,0,-1,1182,1548,0,0
-35,-524,0,0,0,0,0,0,0,0,0,-1,1189,1548,0,0
-28,-524,0,0,0,0,0,0,0,0,0,-1,1196,1548,0,0
-21,-524,0,0,0,0,0,0,0,0,0,-1,1203,1548,0,0
-14,-524,0,0,0,0,0,0,0,0,0,-1,1210,1548,0,0
-7,-524,0,0,0,0,0,0,0,0,0,-1,1217,1548,0,0
0,-524,0,0,0,0,0,0,0,0,0,-1,1224,1548,0,0
7,-524,0,0,0,0,0,0,0,0,0,-1,1231,1548,0,0
14,-524,0,0,0,0,0,0,0,0,0,-1,1238,1548,0,0
21,-524,0,0,0,0,0,0,0,0,0,-1,1245,1548,0,0
28,-524,0,0,0,0,0,0,0,0,0,-1,1252,1548,0,0
35,-524,0,0,0,0,0,0,0,0,0,-1,1259,1548,0,0
42,-524,0,0,0,0,0,0,0,0,0,-1,1266,1548,0,0
49,-524,0,0,0,0,0,0,0,0,0,-1,1273,1548,0,0
56,-524,0,0,0,0,0,0,0,0,0,-1,1280,1548,0,0
63,-524,0,0,0,0,0,0,0,0,0,-1,1287,1548,0,0
70,-524,0,0,0,0,0,0,0,0,0,-1,1294,1548,0,0
77,-524,0,0,0,0,0,0,0,0,0,-1,1301,1548,0,0
84,-524,0,0,0,0,0,0,0,0,0,-1,1308,1548,0,0
91,-524,0,0,0,0,0,0,0,0,0,-1,1315,1548,0,0
98,-524,0,0,0,0,0,0,0,0,0,-1,1322,1548,0,0
105,-524,0,0,0,0,0,0,0,0,0,-1,1329,1548,0,0
112,-524,0,0,0,0,0,0,0,0,0,-1,1336,1548,0,0
119,-524,0,0,0,0,0,0,0,0,0,-1,1343,1548,0,0
126,-524,0,0,0,0,0,0,0,0,0,-1,1350,1548,0,0
133,-524,0,0,0,0,0,0,0,0,0,-1,1357,1548,0,0
140,-524,0,0,0,0,0,0,0,0,0,-1,1364,1548,0,0
147,-524,0,0,0,0,0,0,0,0,0,-1,1371,1548,0,0
154,-524,0,0,0,0,0,0,0,0,0,-1,1378,1548,0,0
161,-524,0,0,0,0,0,0,0,0,0,-1,1385,1548,0,0
168,-524,0,0,0,0,0,0,0,0,0,-1,1392,1548,0,0
175,-524,0,0,0,0,0,0,0,0,0,-1,1399,1548,0,0
182,-524,0,0,0,0,0,0,0,0,0,-1,1406,1548,0,0
189,-524,0,0,0,0,0,0,0,0,0,-1,1413,1548,0,0
196,-524,0,0,0,0,0,0,0,0,0,-1,1420,1548,0,0
203,-524,0,0,0,0,0,0,0,0,0,-1,1427,1548,0,0
210,-524,0,0,0,0,0,0,0,0,0,-1,1434,1548,0,0
217,-524,0,0,0,0,0,0,0,0,0,-1,1441,1548,0,0
224,-524,0,0,0,0,0,0,0,0,0,-1,1448,1548,0,0
231,-524,0,0,0,0,0,0,0,0,0,-1,1455,1548,0,0
238,-524,0,0,0,0,0,0,0,0,0,-1,1462,1548,0,0
245,-524,0,0,0,0,0,0,0,0,0,-1,1469,1548,0,0
252,-524,0,0,0,0,0,0,0,0,0,-1,1476,1548,0,0
259,-524,0,0,0,0,0,0,0,0,0,-1,1483,1548,0,0
266,-524,0,0,0,0,0,0,0,0,0,-1,1490,1548,0,0
273,-524,0,0,0,0,0,0,0,0,0,-1,1497,1548,0,0
280,-524,0,0,0,0,0,0,0,0,0,-1,1504,1548,0,0
287,-524,0,0,0,0,0,0,0,0,0,-1,1511,1548,0,0
294,-524,0,0,0,0,0,0,0,0,0,-1,1518,1548,0,0
301,-524,0,0,0,0,0,0,0,0,0,-1,1525,1548,0,0
308,-524,0,0,0,0,0,0,0,0,0,-1,1532,1548,0,0
315,-524,0,0,0,0,0,0,0,0,0,-1,1539,1548,0,0
322,-524,0,0,0,0,0,0,0,0,0,-1,1546,1548,0,0
329,-524,0,0,0,0,0,0,0,0,0,-1,1553,1548,0,0
336,-524,0,0,0,0,0,0,0,0,0,-1,1560,1548,0,0
343,-524,0,0,0,0,0,0,0,0,0,-1,1567,1548,0,0
350,-524,0,0,0,0,0,0,0,0,0,-1,1574,1548,0,0
357,-524,0,0,0,0,0,0,0,0,0,-1,1581,1548,0,0
364,-524,0,0,0,0,0,0,0,0,0,-1,1588,1548,0,0
371,-524,0,0,0,0,0,0,0,0,0,-1,1595,1548,0,0
378,-524,0,0,0,0,0,0,0,0,0,-1,1602,1548,0,0
385,-524,0,0,0,0,0,0,0,0,0,-1,1609,1548,0,0
392,-524,0,0,0,0,0,0,0,0,0,-1,1616,1548,0,0
399,-524,8.81848,5.05774,0,0,0,0,0,0,0,-1,1623,1548,8.81843,-5.05769
406,-524,8.64294,6.06799,0,0,0,0,0,0,0,-1,1630,1548,8.6429,-6.06805
413,-524,11.677,6.41858,0,0,0,0,0,0,0,-1,1637,1548,11.677,-6.41864
420,-524,11.4913,6.36401,0,0,0,0,0,0,0,-1,1644,1548,11.4913,-6.36402
427,-524,7.68335,6.17249,0,0,0,0,0,0,0,-1,1651,1548,7.68341,-6.17245
434,-524,10.432,11.6801,0,0,0,0,0,0,0,-1,1658,1548,10.432,-11.68
441,-524,8.78552,4.12305,0,0,0,0,0,0,0,-1,1665,1548,8.78553,-4.12301
448,-524,14.1854,4.78674,0,0,0,0,0,0,0,-1,1672,1548,14.1854,-4.78674
455,-524,12.4784,3.65576,0,0,0,0,0,0,0,-1,1679,1548,12.4784,-3.65572
462,-524,14.7551,9.29395,0,0,0,0,0,0,0,-1,1686,1548,14.7552,-9.29397
469,-524,13.6931,12.1787,0,0,0,0,0,0,0,-1,1693,1548,13.6932,-12.1787
476,-524,13.6919,13.1974,0,0,0,0,0,0,0,-1,1700,1548,13.6918,-13.1974
483,-524,13.6121,14.4203,0,0,0,0,0,0,0,-1,1707,1548,13.612,-14.4203
490,-524,13.3459,15.6978,-0.00406004,-0.0369651,0.0315958,0.0151101,-0.0561353,0.545355,0.0433472,0.0464982,1714,1548,13.3459,-15.6977
497,-524,13.3477,16.7335,-0.00380012,-0.0278845,0.0244415,0.0114048,-0.0430894,0.556506,0.0331876,0.0451344,1721,1548,13.3477,-16.7336
504,-524,13.2367,16.795,-0.00384633,-0.0201385,0.0177803,0.00756511,-0.03155,0.570591,0.0239565,0.0299255,1728,1548,13.2367,-16.795
511,-524,13.1973,16.6219,-0.00256521,-0.0143165,0.0134418,0.00622897,-0.0231107,0.579353,0.0178495,0.0276114,1735,1548,13.1973,-16.622
518,-524,13.307,16.1963,-0.00171325,-0.00998245,0.010148,0.00511007,-0.0168058,0.59195,0.0132401,0.0193666,1742,1548,13.307,-16.1963
525,-524,13.3097,15.882,-0.00108618,-0.00668517,0.00747367,0.00409511,-0.0118665,0.606197,0.00957259,0.0139917,1749,1548,13.3097,-15.8819
532,-524,13.3149,15.5408,-0.000655442,-0.00429441,0.00540916,0.00323205,-0.0081819,0.623157,0.00679327,0.00991233,1756,1548,13.3149,-15.5408
539,-524,13.3156,15.1929,-0.000172759,-0.00260361,0.0037907,0.0025926,-0.00536897,0.630259,0.00468886,0.0105025,1763,1548,13.3155,-15.1929
546,-524,13.3086,14.8914,0.000404149,-0.000868174,0.00240575,0.00225643,-0.00272045,0.65614,0.00287756,0.0141897,1770,1548,13.3086,-14.8913
553,-524,13.3096,14.5815,0.000737094,-0.000274886,0.00138906,0.00170945,-0.00124724,0.610734,0.00171399,0.0218257,1777,1548,13.3096,-14.5815
560,-524,13.2997,14.2356,0.00111796,-0.000100688,0.000778156,0.00149697,-0.000479698,0.453243,0.00119054,0.0273295,1784,1548,13.2997,-14.2357
567,-524,13.2881,13.942,0.00164837,-9.91028e-05,0.000367931,0.00172268,-0.000173411,0.199282,0.00121041,0.0168269,1791,1548,13.2881,-13.942
574,-524,13.2847,13.5822,0.00241038,0.000238708,-0.000316246,0.0024555,0.000193592,-0.141703,0.00157644,0.0128264,1798,1548,13.2847,-13.5821
581,-524,13.2832,13.2177,0.00337276,0.000657861,-0.000972714,0.00368529,0.000345327,-0.310882,0.00235023,0.014066,1805,1548,13.2832,-13.2177
588,-524,13.3114,12.8739,0.00438958,0.000635205,-0.00134028,0.00481895,0.00020584,-0.310024,0.00314626,0.0200951,1812,1548,13.3114,-12.8739
595,-524,13.3472,12.6404,0.00545948,0.000856578,-0.001871,0.00612405,0.000192003,-0.341298,0.00402023,0.0312909,1819,1548,13.3472,-12.6404
602,-524,13.837,12.0682,0,0,0,0,0,0,0,-1,1826,1548,13.837,-12.0683
609,-524,13.0056,10.5138,0,0,0,0,0,0,0,-1,1833,1548,13.0056,-10.5138
616,-524,11.6941,8.65515,0,0,0,0,0,0,0,-1,1840,1548,11.6941,-8.65514
623,-524,9.38452,5.15356,0,0,0,0,0,0,0,-1,1847,1548,9.38456,-5.15359
630,-524,11.0541,3.57434,0,0,0,0,0,0,0,-1,1854,1548,11.0541,-3.57438
637,-524,11.6067,3.20728,0,0,0,0,0,0,0,-1,1861,1548,11.6067,-3.20724
644,-524,12.2134,0.727173,0,0,0,0,0,0,0,-1,1868,1548,12.2134,-0.727222
651,-524,0,0,0,0,0,0,0,0,0,-1,1875,1548,0,0
658,-524,0,0,0,0,0,0,0,0,0,-1,1882,1548,0,0
665,-524,0,0,0,0,0,0,0,0,0,-1,1889,1548,0,0
672,-524,0,0,0,0,0,0,0,0,0,-1,1896,1548,0,0
679,-524,0,0,0,0,0,0,0,0,0,-1,1903,1548,0,0
686,-524,0,0,0,0,0,0,0,0,0,-1,1910,1548,0,0
693,-524,0,0,0,0,0,0,0,0,0,-1,1917,1548,0,0
700,-524,0,0,0,0,0,0,0,0,0,-1,1924,1548,0,0
707,-524,0,0,0,0,0,0,0,0,0,-1,1931,1548,0,0
714,-524,0,0,0,0,0,0,0,0,0,-1,1938,1548,0,0
721,-524,0,0,0,0,0,0,0,0,0,-1,1945,1548,0,0
728,-524,0,0,0,0,0,0,0,0,0,-1,1952,1548,0,0
735,-524,0,0,0,0,0,0,0,0,0,-1,1959,1548,0,0
742,-524,0,0,0,0,0,0,0,0,0,-1,1966,1548,0,0
749,-524,0,0,0,0,0,0,0,0,0,-1,1973,1548,0,0
756,-524,0,0,0,0,0,0,0,0,0,-1,1980,1548,0,0
763,-524,0,0,0,0,0,0,0,0,0,-1,1987,1548,0,0
770,-524,0,0,0,0,0,0,0,0,0,-1,1994,1548,0,0
777,-524,0,0,0,0,0,0,0,0,0,-1,2001,1548,0,0
784,-524,0,0,0,0,0,0,0,0,0,-1,2008,1548,0,0
791,-524,0,0,0,0,0,0,0,0,0,-1,2015,1548,0,0
798,-524,0,0,0,0,0,0,0,0,0,-1,2022,1548,0,0
805,-524,0,0,0,0,0,0,0,0,0,-1,2029,1548,0,0
812,-524,0,0,0,0,0,0,0,0,0,-1,2036,1548,0,0
-700,-531,0,0,0,0,0,0,0,0,0,-1,524,1555,0,0
-693,-531,0,0,0,0,0,0,0,0,0,-1,531,1555,0,0
-686,-531,0,0,0,0,0,0,0,0,0,-1,538,1555,0,0
-679,-531,0,0,0,0,0,0,0,0,0,-1,545,1555,0,0
-672,-531,0,0,0,0,0,0,0,0,0,-1,552,1555,0,0
-665,-531,0,0,0,0,0,0,0,0,0,-1,559,1555,0,0
-658,-531,0,0,0,0,0,0,0,0,0,-1,566,1555,0,0
-651,-531,0,0,0,0,0,0,0,0,0,-1,573,1555,0,0
-644,-531,0,0,0,0,0,0,0,0,0,-1,580,1555,0,0
-637,-531,0,0,0,0,0,0,0,0,0,-1,587,1555,0,0
-630,-531,0,0,0,0,0,0,0,0,0,-1,594,1555,0,0
-623,-531,0,0,0,0,0,0,0,0,0,-1,601,1555,0,0
-616,-531,0,0,0,0,0,0,0,0,0,-1,608,1555,0,0
-609,-531,0,0,0,0,0,0,0,0,0,-1,615,1555,0,0
-602,-531,0,0,0,0,0,0,0,0,0,-1,622,1555,0,0
-595,-531,0,0,0,0,0,0,0,0,0,-1,629,1555,0,0
-588,-531,0,0,0,0,0,0,0,0,0,-1,636,1555,0,0
-581,-531,0,0,0,0,0,0,0,0,0,-1,643,1555,0,0
-574,-531,0,0,0,0,0,0,0,0,0,-1,650,1555,0,0
-567,-531,0,0,0,0,0,0,0,0,0,-1,657,1555,0,0
-560,-531,0,0,0,0,0,0,0,0,0,-1,664,1555,0,0
-553,-531,0,0,0,0,0,0,0,0,0,-1,671,1555,0,0
-546,-531,0,0,0,0,0,0,0,0,0,-1,678,1555,0,0
-539,-531,0,0,0,0,0,0,0,0,0,-1,685,1555,0,0
-532,-531,0,0,0,0,0,0,0,0,0,-1,692,1555,0,0
-525,-531,0,0,0,0,0,0,0,0,0,-1,699,1555,0,0
-518,-531,-1.63983,4.03821,0,0,0,0,0,0,0,-1,706,1555,-1.63982,-4.03821
-511,-531,-2.9682,8.07483,0,0,0,0,0,0,0,-1,713,1555,-2.9682,-8.07479
-504,-531,-2.95978,0.557861,0,0,0,0,0,0,0,-1,720,1555,-2.95978,-0.557917
-497,-531,-2.46039,8.07422,0,0,0,0,0,0,0,-1,727,1555,-2.46039,-8.07423
-490,-531,-0.423462,7.92065,0,0,0,0,0,0,0,-1,734,1555,-0.42344,-7.92066
-483,-531,-0.192383,8.67261,0,0,0,0,0,0,0,-1,741,1555,-0.192401,-8.67255
-476,-531,-1.15173,10.3594,0,0,0,0,0,0,0,-1,748,1555,-1.15174,-10.3594
-469,-531,-1.06158,10.614,-0.000859716,0.00322273,0.00650986,0.00800389,-0.00564087,0.937323,0.00791709,0.0437777,755,1555,-1.06161,-10.6141
-462,-531,-0.927307,11.1188,-0.00233132,-0.00220623,0.00169952,-0.000568105,-0.00396944,0.803791,0.00247872,0.0394759,762,1555,-0.927323,-11.1187
-455,-531,-1.11676,11.5106,-0.00256451,-0.00402921,-0.000409237,-0.00245793,-0.00413579,-0.254788,0.00240192,0.0305749,769,1555,-1.11676,-11.5106
-448,-531,-1.00641,11.7028,-0.00208078,-0.00275951,-0.000680012,-0.00166015,-0.00318013,-0.553953,0.00183664,0.014607,776,1555,-1.00638,-11.7028
-441,-531,-1.06482,12.046,-0.00145565,-0.00173474,-0.00056255,-0.00101559,-0.00217479,-0.663822,0.00125653,0.0116164,783,1555,-1.06479,-12.0461
-434,-531,-1.06641,12.423,-0.000769609,-0.00077131,-0.000211706,-0.000558752,-0.000982167,-0.783389,0.000568846,0.0121734,790,1555,-1.0664,-12.423
-427,-531,-1.05237,12.7953,-9.03732e-05,6.36125e-05,0.000239529,0.000238218,-0.000264979,0.9409,0.000290658,0.0134971,797,1555,-1.05239,-12.7953
-420,-531,-1.07196,13.1644,0.000759578,0.000850597,0.000722427,0.00152895,8.12282e-05,0.816854,0.000993329,0.0116855,804,1555,-1.07195,-13.1644
-413,-531,-1.0871,13.5288,0.00153315,0.00162983,0.00129599,0.00287839,0.000284595,0.80404,0.00183145,0.00971398,811,1555,-1.08712,-13.5289
-406,-531,-1.09467,13.8757,0.00237336,0.00257191,0.00198629,0.0044614,0.000483873,0.810367,0.00282682,0.0110548,818,1555,-1.09466,-13.8757
-399,-531,-1.09894,14.22,0.0032803,0.00347561,0.00274734,0.00612703,0.000628879,0.803164,0.00389204,0.013075,825,1555,-1.09893,-14.22
-392,-531,-1.10919,14.5834,0.00438711,0.00431553,0.00331069,0.00766221,0.00104043,0.779993,0.00479907,0.0162678,832,1555,-1.10918,-14.5833
-385,-531,-1.13,14.9409,0.00495764,0.00503977,0.00387059,0.00886951,0.00112789,0.790703,0.0055752,0.0135803,839,1555,-1.13001,-14.941
-378,-531,-1.13531,15.2386,0.00436442,0.00565046,0.00380894,0.00887028,0.0011446,0.869019,0.00557132,0.013655,846,1555,-1.13529,-15.2387
-371,-531,-1.05182,15.6912,0.00406583,0.00640259,0.00394063,0.00934441,0.00112402,0.929518,0.00589079,0.0252267,853,1555,-1.05183,-15.6912
-364,-531,-0.862427,16.3628,0,0,0,0,0,0,0,-1,860,1555,-0.86242,-16.3628
-357,-531,-1.02832,16.4764,0,0,0,0,0,0,0,-1,867,1555,-1.02833,-16.4764
-350,-531,-1.289,16.9926,0,0,0,0,0,0,0,-1,874,1555,-1.28899,-16.9926
-343,-531,-0.906372,17.1217,0,0,0,0,0,0,0,-1,881,1555,-0.906365,-17.1218
-336,-531,-0.668762,17.1783,0,0,0,0,0,0,0,-1,888,1555,-0.668792,-17.1783
-329,-531,-2.1004,17.9019,0,0,0,0,0,0,0,-1,895,1555,-2.10041,-17.9019
-322,-531,-2.61133,17.4972,0,0,0,0,0,0,0,-1,902,1555,-2.61134,-17.4972
-315,-531,-1.26715,19.2592,0,0,0,0,0,0,0,-1,909,1555,-1.26717,-19.2592
-308,-531,-1.66455,19.0624,0,0,0,0,0,0,0,-1,916,1555,-1.66455,-19.0623
-301,-531,-2.02405,18.8912,0,0,0,0,0,0,0,-1,923,1555,-2.02407,-18.8913
-294,-531,-1.3244,8.1825,0,0,0,0,0,0,0,-1,930,1555,-1.3244,-8.18251
-287,-531,-1.78192,10.1661,0,0,0,0,0,0,0,-1,937,1555,-1.78192,-10.1661
-280,-531,-2.14508,10.3945,0,0,0,0,0,0,0,-1,944,1555,-2.14506,-10.3945
-273,-531,-2.50818,10.6229,0,0,0,0,0,0,0,-1,951,1555,-2.5082,-10.6229
-266,-531,-4.97742,17.9215,0,0,0,0,0,0,0,-1,958,1555,-4.97744,-17.9215
-259,-531,0,0,0,0,0,0,0,0,0,-1,965,1555,0,0
-252,-531,0,0,0,0,0,0,0,0,0,-1,972,1555,0,0
-245,-531,0,0,0,0,0,0,0,0,0,-1,979,1555,0,0
-238,-531,0,0,0,0,0,0,0,0,0,-1,986,1555,0,0
-231,-531,0,0,0,0,0,0,0,0,0,-1,993,1555,0,0
-224,-531,0,0,0,0,0,0,0,0,0,-1,1000,1555,0,0
-217,-531,0,0,0,0,0,0,0,0,0,-1,1007,1555,0,0
-210,-531,0,0,0,0,0,0,0,0,0,-1,1014,1555,0,0
-203,-531,0,0,0,0,0,0,0,0,0,-1,1021,1555,0,0
-196,-531,0,0,0,0,0,0,0,0,0,-1,1028,1555,0,0
-189,-531,0,0,0,0,0,0,0,0,0,-1,1035,1555,0,0
-182,-531,0,0,0,0,0,0,0,0,0,-1,1042,1555,0,0
-175,-531,0,0,0,0,0,0,0,0,0,-1,1049,1555,0,0
-168,-531,0,0,0,0,0,0,0,0,0,-1,1056,1555,0,0
-161,-531,0,0,0,0,0,0,0,0,0,-1,1063,1555,0,0
-154,-531,0,0,0,0,0,0,0,0,0,-1,1070,1555,0,0
-147,-531,0,0,0,0,0,0,0,0,0,-1,1077,1555,0,0
-140,-531,0,0,0,0,0,0,0,0,0,-1,1084,1555,0,0
-133,-531,0,0,0,0,0,0,0,0,0,-1,1091,1555,0,0
-126,-531,0,0,0,0,0,0,0,0,0,-1,1098,1555,0,0
-119,-531,0,0,0,0,0,0,0,0,0,-1,1105,1555,0,0
-112,-531,0,0,0,0,0,0,0,0,0,-1,1112,1555,0,0
-105,-531,0,0,0,0,0,0,0,0,0,-1,1119,1555,0,0
-98,-531,0,0,0,0,0,0,0,0,0,-1,1126,1555,0,0
-91,-531,0,0,0,0,0,0,0,0,0,-1,1133,1555,0,0
-84,-531,0,0,0,0,0,0,0,0,0,-1,1140,1555,0,0
-77,-531,0,0,0,0,0,0,0,0,0,-1,1147,1555,0,0
-70,-531,0,0,0,0,0,0,0,0,0,-1,1154,1555,0,0
-63,-531,0,0,0,0,0,0,0,0,0,-1,1161,1555,0,0
-56,-531,0,0,0,0,0,0,0,0,0,-1,1168,1555,0,0
-49,-531,0,0,0,0,0,0,0,0,0,-1,1175,1555,0,0
-42,-531,0,0,0,0,0,0,0,0,0,-1,1182,1555,0,0
-35,-531,0,0,0,0,0,0,0,0,0,-1,1189,1555,0,0
-28,-531,0,0,0,0,0,0,0,0,0,-1,1196,1555,0,0
-21,-531,0,0,0,0,0,0,0,0,0,-1,1203,1555,0,0
-14,-531,0,0,0,0,0,0,0,0,0,-1,1210,1555,0,0
-7,-531,0,0,0,0,0,0,0,0,0,-1,1217,1555,0,0
0,-531,0,0,0,0,0,0,0,0,0,-1,1224,1555,0,0
7,-531,0,0,0,0,0,0,0,0,0,-1,1231,1555,0,0
14,-531,0,0,0,0,0,0,0,0,0,-1,1238,1555,0,0
21,-531,0,0,0,0,0,0,0,0,0,-1,1245,1555,0,0
28,-531,0,0,0,0,0,0,0,0,0,-1,1252,1555,0,0
35,-531,0,0,0,0,0,0,0,0,0,-1,1259,1555,0,0
42,-531,0,0,0,0,0,0,0,0,0,-1,1266,1555,0,0
49,-531,0,0,0,0,0,0,0,0,0,-1,1273,1555,0,0
56,-531,0,0,0,0,0,0,0,0,0,-1,1280,1555,0,0
63,-531,0,0,0,0,0,0,0,0,0,-1,1287,1555,0,0
70,-531,0,0,0,0,0,0,0,0,0,-1,1294,1555,0,0
77,-531,0,0,0,0,0,0,0,0,0,-1,1301,1555,0,0
84,-531,0,0,0,0,0,0,0,0,0,-1,1308,1555,0,0
91,-531,0,0,0,0,0,0,0,0,0,-1,1315,1555,0,0
98,-531,0,0,0,0,0,0,0,0,0,-1,1322,1555,0,0
105,-531,0,0,0,0,0,0,0,0,0,-1,1329,1555,0,0
112,-531,0,0,0,0,0,0,0,0,0,-1,1336,1555,0,0
119,-531,0,0,0,0,0,0,0,0,0,-1,1343,1555,0,0
126,-531,0,0,0,0,0,0,0,0,0,-1,1350,1555,0,0
133,-531,0,0,0,0,0,0,0,0,0,-1,1357,1555,0,0
140,-531,0,0,0,0,0,0,0,0,0,-1,1364,1555,0,0
147,-531,0,0,0,0,0,0,0,0,0,-1,1371,1555,0,0
154,-531,0,0,0,0,0,0,0,0,0,-1,1378,1555,0,0
161,-531,0,0,0,0,0,0,0,0,0,-1,1385,1555,0,0
168,-531,0,0,0,0,0,0,0,0,0,-1,1392,1555,0,0
175,-531,0,0,0,0,0,0,0,0,0,-1,1399,1555,0,0
182,-531,0,0,0,0,0,0,0,0,0,-1,1406,1555,0,0
189,-531,0,0,0,0,0,0,0,0,0,-1,1413,1555,0,0
196,-531,0,0,0,0,0,0,0,0,0,-1,1420,1555,0,0
203,-531,0,0,0,0,0,0,0,0,0,-1,1427,1555,0,0
210,-531,0,0,0,0,0,0,0,0,0,-1,1434,1555,0,0
217,-531,0,0,0,0,0,0,0,0,0,-1,1441,1555,0,0
224,-531,0,0,0,0,0,0,0,0,0,-1,1448,1555,0,0
231,-531,0,0,0,0,0,0,0,0,0,-1,1455,1555,0,0
238,-531,0,0,0,0,0,0,0,0,0,-1,1462,1555,0,0
245,-531,0,0,0,0,0,0,0,0,0,-1,1469,1555,0,0
252,-531,0,0,0,0,0,0,0,0,0,-1,1476,1555,0,0
259,-531,0,0,0,0,0,0,0,0,0,-1,1483,1555,0,0
266,-531,0,0,0,0,0,0,0,0,0,-1,1490,1555,0,0
273,-531,0,0,0,0,0,0,0,0,0,-1,1497,1555,0,0
280,-531,0,0,0,0,0,0,0,0,0,-1,1504,1555,0,0
287,-531,0,0,0,0,0,0,0,0,0,-1,1511,1555,0,0
294,-531,0,0,0,0,0,0,0,0,0,-1,1518,1555,0,0
301,-531,0,0,0,0,0,0,0,0,0,-1,1525,1555,0,0
308,-531,0,0,0,0,0,0,0,0,0,-1,1532,1555,0,0
315,-531,0,0,0,0,0,0,0,0,0,-1,1539,1555,0,0
322,-531,0,0,0,0,0,0,0,0,0,-1,1546,1555,0,0
329,-531,0,0,0,0,0,0,0,0,0,-1,1553,1555,0,0
336,-531,0,0,0,0,0,0,0,0,0,-1,1560,1555,0,0
343,-531,0,0,0,0,0,0,0,0,0,-1,1567,1555,0,0
350,-531,0,0,0,0,0,0,0,0,0,-1,1574,1555,0,0
357,-531,0,0,0,0,0,0,0,0,0,-1,1581,1555,0,0
364,-531,0,0,0,0,0,0,0,0,0,-1,1588,1555,0,0
371,-531,0,0,0,0,0,0,0,0,0,-1,1595,1555,0,0
378,-531,0,0,0,0,0,0,0,0,0,-1,1602,1555,0,0
385,-531,3.48169,1.78625,0,0,0,0,0,0,0,-1,1609,1555,3.48165,-1.78624
392,-531,10.8781,9.09204,0,0,0,0,0,0,0,-1,1616,1555,10.8781,-9.09205
399,-531,8.26306,5.29602,0,0,0,0,0,0,0,-1,1623,1555,8.26302,-5.29607
406,-531,8.26147,5.42712,0,0,0,0,0,0,0,-1,1630,1555,8.26145,-5.42716
413,-531,8.20618,5.75012,0,0,0,0,0,0,0,-1,1637,1555,8.20619,-5.75017
420,-531,7.64868,7.09558,0,0,0,0,0,0,0,-1,1644,1555,7.64867,-7.09564
427,-531,9.93054,11.8412,0,0,0,0,0,0,0,-1,1651,1555,9.93059,-11.8412
434,-531,10.244,11.7072,0,0,0,0,0,0,0,-1,1658,1555,10.244,-11.7071
441,-531,11.4528,12.9397,0,0,0,0,0,0,0,-1,1665,1555,11.4528,-12.9397
448,-531,8.70752,11.1261,0,0,0,0,0,0,0,-1,1672,1555,8.70751,-11.126
455,-531,14.4877,9.67065,0,0,0,0,0,0,0,-1,1679,1555,14.4876,-9.67066
462,-531,13.5253,12.2002,0,0,0,0,0,0,0,-1,1686,1555,13.5252,-12.2002
469,-531,15.5087,15.7894,0,0,0,0,0,0,0,-1,1693,1555,15.5086,-15.7895
476,-531,13.316,14.5055,0,0,0,0,0,0,0,-1,1700,1555,13.316,-14.5055
483,-531,13.1831,17.2308,0,0,0,0,0,0,0,-1,1707,1555,13.1831,-17.2308
490,-531,13.4139,17.0487,-0.00251968,-0.0276389,0.0233129,0.0114016,-0.0415602,0.53832,0.0321876,0.0482216,1714,1555,13.414,-17.0488
497,-531,12.8809,17.25,-0.00225984,-0.0212935,0.0180996,0.00867244,-0.0322257,0.54336,0.0248836,0.033799,1721,1555,12.8809,-17.25
504,-531,12.9069,16.9178,-0.00238866,-0.0155229,0.0129665,0.00557895,-0.0234905,0.550995,0.0178136,0.0174662,1728,1555,12.9068,-16.9179
511,-531,12.9601,16.5812,-0.00133786,-0.0111696,0.009782,0.00469403,-0.0172015,0.552559,0.0133111,0.0134386,1735,1555,12.96,-16.5812
518,-531,12.9744,16.2396,-0.000667646,-0.00781296,0.00732202,0.00390684,-0.0123874,0.558424,0.00982305,0.0144655,1742,1555,12.9744,-16.2396
525,-531,12.9772,15.9135,-0.000215488,-0.00520764,0.00532346,0.00316803,-0.00859116,0.566176,0.00702571,0.0140273,1749,1555,12.9772,-15.9135
532,-531,12.9913,15.5697,2.90893e-05,-0.0033247,0.00383658,0.00253924,-0.00583484,0.579369,0.00495801,0.0101491,1756,1555,12.9913,-15.5697
539,-531,12.9799,15.2244,0.000319297,-0.00203328,0.00271913,0.00210566,-0.00381964,0.581254,0.00346836,0.0114352,1763,1555,12.9799,-15.2244
546,-531,12.9706,14.8838,0.000687235,-0.000737046,0.00180308,0.00191371,-0.00196352,0.597322,0.00223858,0.0157596,1770,1555,12.9706,-14.8838
553,-531,13.0405,14.6106,0.000809241,-0.000456833,0.00128682,0.0016103,-0.00125789,0.556808,0.00166011,0.0296485,1777,1555,13.0406,-14.6106
560,-531,12.9987,14.2921,0.00101044,-0.000462604,0.00111318,0.0016087,-0.00106086,0.493142,0.00155205,0.0319535,1784,1555,12.9986,-14.2921
567,-531,12.9233,13.9401,0.00140584,-0.000575752,0.000973534,0.00180409,-0.000974,0.388305,0.00162762,0.0177047,1791,1555,12.9233,-13.94
574,-531,12.9515,13.595,0.00212853,-0.000295328,0.000457595,0.00221204,-0.000378839,0.180514,0.00161585,0.0122727,1798,1555,12.9515,-13.595
581,-531,12.9531,13.2341,0.00313265,0.000108981,-9.22962e-05,0.00313546,0.000106166,-0.0304868,0.00205583,0.0124467,1805,1555,12.9531,-13.2341
588,-531,12.993,12.849,0.00430633,-3.40218e-05,-0.000361671,0.00433626,-6.39525e-05,-0.0825688,0.00291239,0.0220494,1812,1555,12.993,-12.849
595,-531,13.1638,12.4371,0.00565181,0.000407642,-0.000950286,0.00581869,0.000240753,-0.173847,0.00380142,0.0475545,1819,1555,13.1638,-12.4371
602,-531,13.701,11.8346,0,0,0,0,0,0,0,-1,1826,1555,13.701,-11.8347
609,-531,10.9072,8.50903,0,0,0,0,0,0,0,-1,1833,1555,10.9073,-8.50902
616,-531,10.5723,7.17859,0,0,0,0,0,0,0,-1,1840,1555,10.5723,-7.17855
623,-531,10.0674,5.08984,0,0,0,0,0,0,0,-1,1847,1555,10.0674,-5.08981
630,-531,11.672,3.18909,0,0,0,0,0,0,0,-1,1854,1555,11.672,-3.18904
637,-531,13.2546,1.38965,0,0,0,0,0,0,0,-1,1861,1555,13.2547,-1.3896
644,-531,0,0,0,0,0,0,0,0,0,-1,1868,1555,0,0
651,-531,0,0,0,0,0,0,0,0,0,-1,1875,1555,0,0
658,-531,0,0,0,0,0,0,0,0,0,-1,1882,1555,0,0
665,-531,0,0,0,0,0,0,0,0,0,-1,1889,1555,0,0
672,-531,0,0,0,0,0,0,0,0,0,-1,1896,1555,0,0
679,-531,0,0,0,0,0,0,0,0,0,-1,1903,1555,0,0
686,-531,0,0,0,0,0,0,0,0,0,-1,1910,1555,0,0
693,-531,0,0,0,0,0,0,0,0,0,-1,1917,1555,0,0
700,-531,0,0,0,0,0,0,0,0,0,-1,1924,1555,0,0
707,-531,0,0,0,0,0,0,0,0,0,-1,1931,1555,0,0
714,-531,0,0,0,0,0,0,0,0,0,-1,1938,1555,0,0
721,-531,0,0,0,0,0,0,0,0,0,-1,1945,1555,0,0
728,-531,0,0,0,0,0,0,0,0,0,-1,1952,1555,0,0
735,-531,0,0,0,0,0,0,0,0,0,-1,1959,1555,0,0
742,-531,0,0,0,0,0,0,0,0,0,-1,1966,1555,0,0
749,-531,0,0,0,0,0,0,0,0,0,-1,1973,1555,0,0
756,-531,0,0,0,0,0,0,0,0,0,-1,1980,1555,0,0
763,-531,0,0,0,0,0,0,0,0,0,-1,1987,1555,0,0
770,-531,0,0,0,0,0,0,0,0,0,-1,1994,1555,0,0
777,-531,0,0,0,0,0,0,0,0,0,-1,2001,1555,0,0
784,-531,0,0,0,0,0,0,0,0,0,-1,2008,1555,0,0
791,-531,0,0,0,0,0,0,0,0,0,-1,2015,1555,0,0
798,-531,0,0,0,0,0,0,0,0,0,-1,2022,1555,0,0
805,-531,0,0,0,0,0,0,0,0,0,-1,2029,1555,0,0
812,-531,0,0,0,0,0,0,0,0,0,-1,2036,1555,0,0
-700,-538,0,0,0,0,0,0,0,0,0,-1,524,1562,0,0
-693,-538,0,0,0,0,0,0,0,0,0,-1,531,1562,0,0
-686,-538,0,0,0,0,0,0,0,0,0,-1,538,1562,0,0
-679,-538,0,0,0,0,0,0,0,0,0,-1,545,1562,0,0
-672,-538,0,0,0,0,0,0,0,0,0,-1,552,1562,0,0
-665,-538,0,0,0,0,0,0,0,0,0,-1,559,1562,0,0
-658,-538,0,0,0,0,0,0,0,0,0,-1,566,1562,0,0
-651,-538,0,0,0,0,0,0,0,0,0,-1,573,1562,0,0
-644,-538,0,0,0,0,0,0,0,0,0,-1,580,1562,0,0
-637,-538,0,0,0,0,0,0,0,0,0,-1,587,1562,0,0
-630,-538,0,0,0,0,0,0,0,0,0,-1,594,1562,0,0
-623,-538,0,0,0,0,0,0,0,0,0,-1,601,1562,0,0
-616,-538,0,0,0,0,0,0,0,0,0,-1,608,1562,0,0
-609,-538,0,0,0,0,0,0,0,0,0,-1,615,1562,0,0
-602,-538,0,0,0,0,0,0,0,0,0,-1,622,1562,0,0
-595,-538,0,0,0,0,0,0,0,0,0,-1,629,1562,0,0
-588,-538,0,0,0,0,0,0,0,0,0,-1,636,1562,0,0
-581,-538,0,0,0,0,0,0,0,0,0,-1,643,1562,0,0
-574,-538,0,0,0,0,0,0,0,0,0,-1,650,1562,0,0
-567,-538,0,0,0,0,0,0,0,0,0,-1,657,1562,0,0
-560,-538,0,0,0,0,0,0,0,0,0,-1,664,1562,0,0
-553,-538,0,0,0,0,0,0,0,0,0,-1,671,1562,0,0
-546,-538,0,0,0,0,0,0,0,0,0,-1,678,1562,0,0
-539,-538,0,0,0,0,0,0,0,0,0,-1,685,1562,0,0
-532,-538,0,0,0,0,0,0,0,0,0,-1,692,1562,0,0
-525,-538,0,0,0,0,0,0,0,0,0,-1,699,1562,0,0
-518,-538,0,0,0,0,0,0,0,0,0,-1,706,1562,0,0
-511,-538,-2.6582,-1.54321,0,0,0,0,0,0,0,-1,713,1562,-2.65821,1.54327
-504,-538,-2.66455,-0.71167,0,0,0,0,0,0,0,-1,720,1562,-2.66456,0.711667
-497,-538,-0.763855,6.77747,0,0,0,0,0,0,0,-1,727,1562,-0.76385,-6.77743
-490,-538,-2.70453,8.01465,0,0,0,0,0,0,0,-1,734,1562,-2.70451,-8.0147
-483,-538,-0.933533,7.84644,0,0,0,0,0,0,0,-1,741,1562,-0.933548,-7.84638
-476,-538,-0.43866,8.38074,0,0,0,0,0,0,0,-1,748,1562,-0.438631,-8.38068
-469,-538,-0.776428,10.6626,0,0,0,0,0,0,0,-1,755,1562,-0.776419,-10.6625
-462,-538,-0.776794,11.4423,-0.00168832,-0.00264907,0.00194796,-0.000162377,-0.00417501,0.664508,0.00273082,0.0443283,762,1562,-0.776804,-11.4423
-455,-538,-0.692749,11.598,-0.00233286,-0.00412109,-0.000241307,-0.00230087,-0.00415308,-0.131801,0.00240244,0.0371455,769,1562,-0.69274,-11.5981
-448,-538,-0.600281,11.7546,-0.00221896,-0.00270812,-0.000650549,-0.00176853,-0.00315854,-0.605594,0.00182795,0.0171468,776,1562,-0.60027,-11.7547
-441,-538,-0.667725,12.1077,-0.00193036,-0.00167555,-0.00068045,-0.00111068,-0.00249523,-0.877943,0.00144351,0.0178722,783,1562,-0.667733,-12.1077
-434,-538,-0.705017,12.4318,-0.00151068,-0.000797821,-0.000476875,-0.000558892,-0.00174961,-1.10632,0.00103186,0.0118677,790,1562,-0.704987,-12.4318
-427,-538,-0.714661,12.8259,-0.00102736,-8.5759e-05,-0.000153649,-6.13212e-05,-0.0010518,-1.41307,0.000681679,0.0131656,797,1562,-0.714658,-12.8259
-420,-538,-0.740906,13.1788,-0.000322267,0.000587066,0.000195235,0.000627211,-0.000362412,1.368,0.000578137,0.0172597,804,1562,-0.740906,-13.1789
-413,-538,-0.753723,13.5339,0.000318748,0.00121795,0.000628607,0.00154119,-4.49555e-06,1.09584,0.00102896,0.0177177,811,1562,-0.75372,-13.5339
-406,-538,-0.747925,13.8726,0.00104586,0.00203987,0.00117995,0.00282321,0.000262523,0.984726,0.00180102,0.0142947,818,1562,-0.747944,-13.8725
-399,-538,-0.751831,14.2238,0.00180184,0.00273234,0.00183432,0.0041595,0.000374685,0.909597,0.00265692,0.0133274,825,1562,-0.751803,-14.2237
-392,-538,-0.748657,14.585,0.0027554,0.00330876,0.00225596,0.00530495,0.000759211,0.846415,0.00331269,0.014483,832,1562,-0.748676,-14.5849
-385,-538,-0.768005,14.9335,0.00333157,0.00382867,0.00266533,0.00625702,0.000903221,0.831891,0.00390525,0.0122459,839,1562,-0.768007,-14.9335
-378,-538,-0.772766,15.272,0.00299127,0.00424594,0.00260168,0.00629485,0.000942359,0.903703,0.00392038,0.00995291,846,1562,-0.772788,-15.2719
-371,-538,-0.79425,15.6029,0.00289236,0.00471586,0.00264982,0.00660641,0.00100182,0.951094,0.00411122,0.0115367,853,1562,-0.794249,-15.6029
-364,-538,-0.735718,16.014,0.00227576,0.00497751,0.00244595,0.00642083,0.000832437,1.0377,0.00403182,0.0137854,860,1562,-0.735723,-16.014
-357,-538,-0.710999,16.4019,0.000896321,0.00509159,0.00195709,0.0058628,0.000125112,1.19542,0.00386751,0.0296981,867,1562,-0.71099,-16.4018
-350,-538,-0.851929,16.8372,0,0,0,0,0,0,0,-1,874,1562,-0.851946,-16.8371
-343,-538,-0.607666,16.984,-0.00355474,0.00490467,0.000159323,0.00490767,-0.00355774,1.55197,0.00490818,0.0490631,881,1562,-0.607638,-16.984
-336,-538,-0.406189,17.152,-0.00620147,0.00428101,-0.000828919,0.00434615,-0.00626662,-1.49237,0.00616063,0.0463662,888,1562,-0.406184,-17.152
-329,-538,-1.03802,17.4014,-0.00950146,0.00331272,-0.0019485,0.00360246,-0.0097912,-1.42318,0.00800326,0.0488529,895,1562,-1.03803,-17.4013
-322,-538,-1.98956,17.4303,0,0,0,0,0,0,0,-1,902,1562,-1.98956,-17.4303
-315,-538,1.88379,19.6062,0,0,0,0,0,0,0,-1,909,1562,1.88378,-19.6062
-308,-538,-0.564453,18.6516,0,0,0,0,0,0,0,-1,916,1562,-0.564434,-18.6517
-301,-538,-0.452393,18.5101,0,0,0,0,0,0,0,-1,923,1562,-0.452367,-18.5102
-294,-538,1.23138,14.0757,0,0,0,0,0,0,0,-1,930,1562,1.23137,-14.0757
-287,-538,-2.60419,10.2361,0,0,0,0,0,0,0,-1,937,1562,-2.6042,-10.2361
-280,-538,-2.93475,10.5106,0,0,0,0,0,0,0,-1,944,1562,-2.93475,-10.5106
-273,-538,-3.26532,10.785,0,0,0,0,0,0,0,-1,951,1562,-3.26531,-10.785
-266,-538,-5.03412,15.9951,0,0,0,0,0,0,0,-1,958,1562,-5.03409,-15.9951
-259,-538,-5.89642,16.5184,0,0,0,0,0,0,0,-1,965,1562,-5.89644,-16.5184
-252,-538,0,0,0,0,0,0,0,0,0,-1,972,1562,0,0
-245,-538,0,0,0,0,0,0,0,0,0,-1,979,1562,0,0
-238,-538,0,0,0,0,0,0,0,0,0,-1,986,1562,0,0
-231,-538,0,0,0,0,0,0,0,0,0,-1,993,1562,0,0
-224,-538,0,0,0,0,0,0,0,0,0,-1,1000,1562,0,0
-217,-538,0,0,0,0,0,0,0,0,0,-1,1007,1562,0,0
-210,-538,0,0,0,0,0,0,0,0,0,-1,1014,1562,0,0
-203,-538,0,0,0,0,0,0,0,0,0,-1,1021,1562,0,0
-196,-538,0,0,0,0,0,0,0,0,0,-1,1028,1562,0,0
-189,-538,0,0,0,0,0,0,0,0,0,-1,1035,1562,0,0
-182,-538,0,0,0,0,0,0,0,0,0,-1,1042,1562,0,0
-175,-538,0,0,0,0,0,0,0,0,0,-1,1049,1562,0,0
-168,-538,0,0,0,0,0,0,0,0,0,-1,1056,1562,0,0
-161,-538,0,0,0,0,0,0,0,0,0,-1,1063,1562,0,0
-154,-538,0,0,0,0,0,0,0,0,0,-1,1070,1562,0,0
-147,-538,0,0,0,0,0,0,0,0,0,-1,1077,1562,0,0
-140,-538,0,0,0,0,0,0,0,0,0,-1,1084,1562,0,0
-133,-538,0,0,0,0,0,0,0,0,0,-1,1091,1562,0,0
-126,-538,0,0,0,0,0,0,0,0,0,-1,1098,1562,0,0
-119,-538,0,0,0,0,0,0,0,0,0,-1,1105,1562,0,0
-112,-538,0,0,0,0,0,0,0,0,0,-1,1112,1562,0,0
-105,-538,0,0,0,0,0,0,0,0,0,-1,1119,1562,0,0
-98,-538,0,0,0,0,0,0,0,0,0,-1,1126,1562,0,0
-91,-538,0,0,0,0,0,0,0,0,0,-1,1133,1562,0,0
-84,-538,0,0,0,0,0,0,0,0,0,-1,1140,1562,0,0
-77,-538,0,0,0,0,0,0,0,0,0,-1,1147,1562,0,0
-70,-538,0,0,0,0,0,0,0,0,0,-1,1154,1562,0,0
-63,-538,0,0,0,0,0,0,0,0,0,-1,1161,1562,0,0
-56,-538,0,0,0,0,0,0,0,0,0,-1,1168,1562,0,0
-49,-538,0,0,0,0,0,0,0,0,0,-1,1175,1562,0,0
-42,-538,0,0,0,0,0,0,0,0,0,-1,1182,1562,0,0
-35,-538,0,0,0,0,0,0,0,0,0,-1,1189,1562,0,0
-28,-538,0,0,0,0,0,0,0,0,0,-1,1196,1562,0,0
-21,-538,0,0,0,0,0,0,0,0,0,-1,1203,1562,0,0
-14,-538,0,0,0,0,0,0,0,0,0,-1,1210,1562,0,0
-7,-538,0,0,0,0,0,0,0,0,0,-1,1217,1562,0,0
0,-538,0,0,0,0,0,0,0,0,0,-1,1224,1562,0,0
7,-538,0,0,0,0,0,0,0,0,0,-1,1231,1562,0,0
14,-538,0,0,0,0,0,0,0,0,0,-1,1238,1562,0,0
21,-538,0,0,0,0,0,0,0,0,0,-1,1245,1562,0,0
28,-538,0,0,0,0,0,0,0,0,0,-1,1252,1562,0,0
35,-538,0,0,0,0,0,0,0,0,0,-1,1259,1562,0,0
42,-538,0,0,0,0,0,0,0,0,0,-1,1266,1562,0,0
49,-538,0,0,0,0,0,0,0,0,0,-1,1273,1562,0,0
56,-538,0,0,0,0,0,0,0,0,0,-1,1280,1562,0,0
63,-538,0,0,0,0,0,0,0,0,0,-1,1287,1562,0,0
70,-538,0,0,0,0,0,0,0,0,0,-1,1294,1562,0,0
77,-538,0,0,0,0,0,0,0,0,0,-1,1301,1562,0,0
84,-538,0,0,0,0,0,0,0,0,0,-1,1308,1562,0,0
91,-538,0,0,0,0,0,0,0,0,0,-1,1315,1562,0,0
98,-538,0,0,0,0,0,0,0,0,0,-1,1322,1562,0,0
105,-538,0,0,0,0,0,0,0,0,0,-1,1329,1562,0,0
112,-538,0,0,0,0,0,0,0,0,0,-1,1336,1562,0,0
119,-538,0,0,0,0,0,0,0,0,0,-1,1343,1562,0,0
126,-538,0,0,0,0,0,0,0,0,0,-1,1350,1562,0,0
133,-538,0,0,0,0,0,0,0,0,0,-1,1357,1562,0,0
140,-538,0,0,0,0,0,0,0,0,0,-1,1364,1562,0,0
147,-538,0,0,0,0,0,0,0,0,0,-1,1371,1562,0,0
154,-538,0,0,0,0,0,0,0,0,0,-1,1378,1562,0,0
161,-538,0,0,0,0,0,0,0,0,0,-1,1385,1562,0,0
168,-538,0,0,0,0,0,0,0,0,0,-1,1392,1562,0,0
175,-538,0,0,0,0,0,0,0,0,0,-1,1399,1562,0,0
182,-538,0,0,0,0,0,0,0,0,0,-1,1406,1562,0,0
189,-538,0,0,0,0,0,0,0,0,0,-1,1413,1562,0,0
196,-538,0,0,0,0,0,0,0,0,0,-1,1420,1562,0,0
203,-538,0,0,0,0,0,0,0,0,0,-1,1427,1562,0,0
210,-538,0,0,0,0,0,0,0,0,0,-1,1434,1562,0,0
217,-538,0,0,0,0,0,0,0,0,0,-1,1441,1562,0,0
224,-538,0,0,0,0,0,0,0,0,0,-1,1448,1562,0,0
231,-538,0,0,0,0,0,0,0,0,0,-1,1455,1562,0,0
238,-538,0,0,0,0,0,0,0,0,0,-1,1462,1562,0,0
245,-538,0,0,0,0,0,0,0,0,0,-1,1469,1562,0,0
252,-538,0,0,0,0,0,0,0,0,0,-1,1476,1562,0,0
259,-538,0,0,0,0,0,0,0,0,0,-1,1483,1562,0,0
266,-538,0,0,0,0,0,0,0,0,0,-1,1490,1562,0,0
273,-538,0,0,0,0,0,0,0,0,0,-1,1497,1562,0,0
280,-538,0,0,0,0,0,0,0,0,0,-1,1504,1562,0,0
287,-538,0,0,0,0,0,0,0,0,0,-1,1511,1562,0,0
294,-538,0,0,0,0,0,0,0,0,0,-1,1518,1562,0,0
301,-538,0,0,0,0,0,0,0,0,0,-1,1525,1562,0,0
308,-538,0,0,0,0,0,0,0,0,0,-1,1532,1562,0,0
315,-538,0,0,0,0,0,0,0,0,0,-1,1539,1562,0,0
322,-538,0,0,0,0,0,0,0,0,0,-1,1546,1562,0,0
329,-538,0,0,0,0,0,0,0,0,0,-1,1553,1562,0,0
336,-538,0,0,0,0,0,0,0,0,0,-1,1560,1562,0,0
343,-538,0,0,0,0,0,0,0,0,0,-1,1567,1562,0,0
350,-538,0,0,0,0,0,0,0,0,0,-1,1574,1562,0,0
357,-538,0,0,0,0,0,0,0,0,0,-1,1581,1562,0,0
364,-538,0,0,0,0,0,0,0,0,0,-1,1588,1562,0,0
371,-538,0,0,0,0,0,0,0,0,0,-1,1595,1562,0,0
378,-538,9.65479,5.82434,0,0,0,0,0,0,0,-1,1602,1562,9.6548,-5.82439
385,-538,10.5449,7.9502,0,0,0,0,0,0,0,-1,1609,1562,10.5449,-7.95014
392,-538,8.20361,7.07214,0,0,0,0,0,0,0,-1,1616,1562,8.20362,-7.07211
399,-538,7.85425,4.70508,0,0,0,0,0,0,0,-1,1623,1562,7.85425,-4.70512
406,-538,7.77734,4.96094,0,0,0,0,0,0,0,-1,1630,1562,7.77729,-4.96097
413,-538,13.0446,13.1765,0,0,0,0,0,0,0,-1,1637,1562,13.0446,-13.1765
420,-538,9.96216,12.7653,0,0,0,0,0,0,0,-1,1644,1562,9.96221,-12.7653
427,-538,10.1732,14.5863,0,0,0,0,0,0,0,-1,1651,1562,10.1732,-14.5863
434,-538,9.64331,14.7745,0,0,0,0,0,0,0,-1,1658,1562,9.64326,-14.7746
441,-538,14.1735,21.8336,0,0,0,0,0,0,0,-1,1665,1562,14.1734,-21.8337
448,-538,14.4327,19.8633,0,0,0,0,0,0,0,-1,1672,1562,14.4327,-19.8633
455,-538,12.2625,16.6758,0,0,0,0,0,0,0,-1,1679,1562,12.2625,-16.6758
462,-538,14.6143,16.2708,0,0,0,0,0,0,0,-1,1686,1562,14.6143,-16.2707
469,-538,14.3802,16.6945,0,0,0,0,0,0,0,-1,1693,1562,14.3803,-16.6945
476,-538,13.0458,17.9366,0,0,0,0,0,0,0,-1,1700,1562,13.0458,-17.9366
483,-538,12.8701,17.5419,-0.00115355,-0.0248441,0.0213954,0.0114567,-0.0374544,0.532582,0.0295386,0.042756,1707,1562,12.8702,-17.5419
490,-538,12.6372,17.4642,-0.00155259,-0.019789,0.016801,0.00844507,-0.0297866,0.536781,0.0231911,0.0249572,1714,1562,12.6372,-17.4643
497,-538,12.6296,17.2063,-0.00132104,-0.0154702,0.0129785,0.00638582,-0.0231771,0.535861,0.0179625,0.0174058,1721,1562,12.6296,-17.2063
504,-538,12.6622,16.8488,-0.00150931,-0.0112805,0.00907077,0.00390792,-0.0166977,0.538371,0.0126375,0.0102039,1728,1562,12.6623,-16.8487
511,-538,12.6489,16.5266,-0.000668472,-0.00820846,0.00683249,0.00336511,-0.012242,0.533296,0.0094842,0.00980088,1735,1562,12.6489,-16.5266
518,-538,12.6464,16.2141,-0.000147558,-0.0057487,0.00508096,0.00285354,-0.00874979,0.53352,0.00698154,0.0108272,1742,1562,12.6464,-16.2141
525,-538,12.6211,15.8944,0.000160392,-0.00381562,0.0036841,0.00235864,-0.00601388,0.537979,0.00498507,0.0118484,1749,1562,12.6211,-15.8944
532,-538,12.6204,15.5701,0.000246974,-0.00246397,0.00273899,0.00194754,-0.00416453,0.555626,0.00360536,0.0130345,1756,1562,12.6203,-15.57
539,-538,12.6456,15.2596,0.000346563,-0.00162827,0.00212914,0.00170611,-0.00298781,0.568278,0.00274351,0.0155026,1763,1562,12.6456,-15.2596
546,-538,12.6407,14.902,0.000471502,-0.000900354,0.00174318,0.00165885,-0.0020877,0.597956,0.00216779,0.016502,1770,1562,12.6407,-14.902
553,-538,12.6941,14.5748,0.000354059,-0.00104137,0.00181934,0.00160488,-0.00229219,0.602297,0.00226161,0.0261193,1777,1562,12.6941,-14.5749
560,-538,12.6552,14.3103,0.000346691,-0.00131878,0.00218464,0.00185192,-0.00282401,0.60331,0.00271903,0.0306285,1784,1562,12.6551,-14.3103
567,-538,12.5929,13.9406,0.000578132,-0.00161246,0.00239625,0.00211754,-0.00315188,0.571032,0.00306178,0.021564,1791,1562,12.5929,-13.9405
574,-538,12.6194,13.5724,0.00122329,-0.00145839,0.00213204,0.00240107,-0.00263618,0.504699,0.00290931,0.0156861,1798,1562,12.6194,-13.5724
581,-538,12.6423,13.2267,0.00220639,-0.00114938,0.00174357,0.00294829,-0.00189128,0.402297,0.00281625,0.0189816,1805,1562,12.6423,-13.2267
588,-538,12.6578,12.9515,0.00354641,-0.00121624,0.00137654,0.00391564,-0.00158548,0.262063,0.00326967,0.0378853,1812,1562,12.6578,-12.9516
595,-538,13.035,12.297,0,0,0,0,0,0,0,-1,1819,1562,13.035,-12.297
602,-538,10.314,8.94238,0,0,0,0,0,0,0,-1,1826,1562,10.314,-8.94238
609,-538,10.1046,7.05713,0,0,0,0,0,0,0,-1,1833,1562,10.1046,-7.05719
616,-538,9.92249,5.43506,0,0,0,0,0,0,0,-1,1840,1562,9.92254,-5.43507
623,-538,11.1711,4.31604,0,0,0,0,0,0,0,-1,1847,1562,11.1711,-4.316
630,-538,12.6112,2.61633,0,0,0,0,0,0,0,-1,1854,1562,12.6112,-2.61637
637,-538,0,0,0,0,0,0,0,0,0,-1,1861,1562,0,0
644,-538,0,0,0,0,0,0,0,0,0,-1,1868,1562,0,0
651,-538,0,0,0,0,0,0,0,0,0,-1,1875,1562,0,0
658,-538,0,0,0,0,0,0,0,0,0,-1,1882,1562,0,0
665,-538,0,0,0,0,0,0,0,0,0,-1,1889,1562,0,0
672,-538,0,0,0,0,0,0,0,0,0,-1,1896,1562,0,0
679,-538,0,0,0,0,0,0,0,0,0,-1,1903,1562,0,0
686,-538,0,0,0,0,0,0,0,0,0,-1,1910,1562,0,0
693,-538,0,0,0,0,0,0,0,0,0,-1,1917,1562,0,0
700,-538,0,0,0,0,0,0,0,0,0,-1,1924,1562,0,0
707,-538,0,0,0,0,0,0,0,0,0,-1,1931,1562,0,0
714,-538,0,0,0,0,0,0,0,0,0,-1,1938,1562,0,0
721,-538,0,0,0,0,0,0,0,0,0,-1,1945,1562,0,0
728,-538,0,0,0,0,0,0,0,0,0,-1,1952,1562,0,0
735,-538,0,0,0,0,0,0,0,0,0,-1,1959,1562,0,0
742,-538,0,0,0,0,0,0,0,0,0,-1,1966,1562,0,0
749,-538,0,0,0,0,0,0,0,0,0,-1,1973,1562,0,0
756,-538,0,0,0,0,0,0,0,0,0,-1,1980,1562,0,0
763,-538,0,0,0,0,0,0,0,0,0,-1,1987,1562,0,0
770,-538,0,0,0,0,0,0,0,0,0,-1,1994,1562,0,0
777,-538,0,0,0,0,0,0,0,0,0,-1,2001,1562,0,0
784,-538,0,0,0,0,0,0,0,0,0,-1,2008,1562,0,0
791,-538,0,0,0,0,0,0,0,0,0,-1,2015,1562,0,0
798,-538,0,0,0,0,0,0,0,0,0,-1,2022,1562,0,0
805,-538,0,0,0,0,0,0,0,0,0,-1,2029,1562,0,0
812,-538,0,0,0,0,0,0,0,0,0,-1,2036,1562,0,0
-700,-545,0,0,0,0,0,0,0,0,0,-1,524,1569,0,0
-693,-545,0,0,0,0,0,0,0,0,0,-1,531,1569,0,0
-686,-545,0,0,0,0,0,0,0,0,0,-1,538,1569,0,0
-679,-545,0,0,0,0,0,0,0,0,0,-1,545,1569,0,0
-672,-545,0,0,0,0,0,0,0,0,0,-1,552,1569,0,0
-665,-545,0,0,0,0,0,0,0,0,0,-1,559,1569,0,0
-658,-545,0,0,0,0,0,0,0,0,0,-1,566,1569,0,0
-651,-545,0,0,0,0,0,0,0,0,0,-1,573,1569,0,0
-644,-545,0,0,0,0,0,0,0,0,0,-1,580,1569,0,0
-637,-545,0,0,0,0,0,0,0,0,0,-1,587,1569,0,0
-630,-545,0,0,0,0,0,0,0,0,0,-1,594,1569,0,0
-623,-545,0,0,0,0,0,0,0,0,0,-1,601,1569,0,0
-616,-545,0,0,0,0,0,0,0,0,0,-1,608,1569,0,0
-609,-545,0,0,0,0,0,0,0,0,0,-1,615,1569,0,0
-602,-545,0,0,0,0,0,0,0,0,0,-1,622,1569,0,0
-595,-545,0,0,0,0,0,0,0,0,0,-1,629,1569,0,0
-588,-545,0,0,0,0,0,0,0,0,0,-1,636,1569,0,0
-581,-545,0,0,0,0,0,0,0,0,0,-1,643,1569,0,0
-574,-545,0,0,0,0,0,0,0,0,0,-1,650,1569,0,0
-567,-545,0,0,0,0,0,0,0,0,0,-1,657,1569,0,0
-560,-545,0,0,0,0,0,0,0,0,0,-1,664,1569,0,0
-553,-545,0,0,0,0,0,0,0,0,0,-1,671,1569,0,0
-546,-545,0,0,0,0,0,0,0,0,0,-1,678,1569,0,0
-539,-545,0,0,0,0,0,0,0,0,0,-1,685,1569,0,0
-532,-545,0,0,0,0,0,0,0,0,0,-1,692,1569,0,0
-525,-545,0,0,0,0,0,0,0,0,0,-1,699,1569,0,0
-518,-545,0,0,0,0,0,0,0,0,0,-1,706,1569,0,0
-511,-545,0,0,0,0,0,0,0,0,0,-1,713,1569,0,0
-504,-545,-3.55237,-2.5354,0,0,0,0,0,0,0,-1,720,1569,-3.55236,2.53545
-497,-545,2.26575,5.69214,0,0,0,0,0,0,0,-1,727,1569,2.26573,-5.6922
-490,-545,-2.17334,7.81396,0,0,0,0,0,0,0,-1,734,1569,-2.17334,-7.81399
-483,-545,-1.88336,5.8446,0,0,0,0,0,0,0,-1,741,1569,-1.88334,-5.84466
-476,-545,-1.13147,6.5741,0,0,0,0,0,0,0,-1,748,1569,-1.13149,-6.57405
-469,-545,0.500305,8.22754,0,0,0,0,0,0,0,-1,755,1569,0.500333,-8.22759
-462,-545,-0.4599,11.4399,0,0,0,0,0,0,0,-1,762,1569,-0.459882,-11.44
-455,-545,-0.33252,11.5858,-0.00158411,-0.00358359,0.000102219,-0.0015789,-0.0035888,0.0509457,0.00207697,0.046428,769,1569,-0.33251,-11.5858
-448,-545,-0.0731201,11.5974,-0.00204354,-0.00220677,-0.000447907,-0.00166987,-0.00258044,-0.69528,0.00151116,0.0297147,776,1569,-0.0731036,-11.5975
-441,-545,-0.234802,12.1711,-0.00218098,-0.00132375,-0.000602402,-0.00101304,-0.00249169,-1.0946,0.00144693,0.0216617,783,1569,-0.23483,-12.1711
-434,-545,-0.390686,12.4644,-0.00209774,-0.000667808,-0.000551318,-0.00047993,-0.00228562,-1.24236,0.00139163,0.0181146,790,1569,-0.390665,-12.4644
-427,-545,-0.375732,12.8297,-0.0018541,-0.000179624,-0.00035562,-0.000107229,-0.00192649,-1.36997,0.00125012,0.0172439,797,1569,-0.375719,-12.8298
-420,-545,-0.367188,13.1572,-0.00132094,0.000323783,-0.000128566,0.000333772,-0.00133093,-1.49325,0.00101697,0.0233242,804,1569,-0.367217,-13.1573
-413,-545,-0.379883,13.5051,-0.000818182,0.000778352,0.000183098,0.000799081,-0.000838912,1.45806,0.000945789,0.0231438,811,1569,-0.379893,-13.5051
-406,-545,-0.387451,13.874,-0.000198275,0.00146059,0.000615241,0.00166386,-0.000401548,1.25169,0.00126452,0.0173319,818,1569,-0.387424,-13.8741
-399,-545,-0.392944,14.2196,0.000429389,0.00196338,0.00117734,0.00260152,-0.000208753,1.0741,0.00180795,0.0114877,825,1569,-0.392959,-14.2196
-392,-545,-0.395752,14.5621,0.00126106,0.00234511,0.00147799,0.00337733,0.000228836,0.961149,0.00217929,0.0114552,832,1569,-0.395731,-14.5622
-385,-545,-0.407227,14.9183,0.00186578,0.00274432,0.00176605,0.00412491,0.000485188,0.90729,0.00260332,0.00998401,839,1569,-0.407211,-14.9183
-378,-545,-0.435059,15.2794,0.0017808,0.00306769,0.00172471,0.00426507,0.000583416,0.963939,0.00267024,0.011816,846,1569,-0.43506,-15.2795
-371,-545,-0.441223,15.6483,0.00186082,0.00338072,0.00171734,0.00449875,0.000742796,0.993704,0.00278479,0.0144494,853,1569,-0.441194,-15.6483
-364,-545,-0.428772,15.979,0.00157731,0.00362198,0.0015474,0.00445426,0.000745026,1.07732,0.00275495,0.00961591,860,1569,-0.428775,-15.979
-357,-545,-0.370117,16.379,0.000793088,0.00361759,0.00126116,0.00409874,0.000311938,1.20633,0.00263468,0.0136923,867,1569,-0.370114,-16.379
-350,-545,-0.345764,16.7323,-0.000474559,0.00372962,0.000806707,0.0038791,-0.000624037,1.38758,0.00281721,0.0198886,874,1569,-0.345754,-16.7324
-343,-545,-0.322388,17.0034,-0.00189991,0.00356362,0.000165097,0.0035686,-0.0019049,1.54062,0.00320842,0.0288798,881,1569,-0.322401,-17.0034
-336,-545,-0.270691,17.1141,-0.00311641,0.00307315,-0.000121882,0.00307555,-0.0031188,-1.55111,0.00357634,0.0377264,888,1569,-0.270714,-17.1141
-329,-545,-0.435547,17.2279,-0.0048288,0.00241239,-0.000474169,0.00244331,-0.00485972,-1.50568,0.00429265,0.0487101,895,1569,-0.435574,-17.2279
-322,-545,-0.519775,17.6224,0,0,0,0,0,0,0,-1,902,1569,-0.519745,-17.6225
-315,-545,1.57739,18.9076,0,0,0,0,0,0,0,-1,909,1569,1.57737,-18.9076
-308,-545,1.64972,19.1172,0,0,0,0,0,0,0,-1,916,1569,1.64975,-19.1172
-301,-545,1.52191,17.5009,0,0,0,0,0,0,0,-1,923,1569,1.52192,-17.5008
-294,-545,-2.69287,8.42102,0,0,0,0,0,0,0,-1,930,1569,-2.69287,-8.42097
-287,-545,-3.47784,9.96021,0,0,0,0,0,0,0,-1,937,1569,-3.47785,-9.96021
-280,-545,-3.7879,10.5448,0,0,0,0,0,0,0,-1,944,1569,-3.78793,-10.5448
-273,-545,-5.10333,12.864,0,0,0,0,0,0,0,-1,951,1569,-5.10331,-12.864
-266,-545,-5.78955,13.3704,0,0,0,0,0,0,0,-1,958,1569,-5.78952,-13.3703
-259,-545,-6.32184,13.8101,0,0,0,0,0,0,0,-1,965,1569,-6.32182,-13.81
-252,-545,0.369263,7.54053,0,0,0,0,0,0,0,-1,972,1569,0.369276,-7.54056
-245,-545,-0.236633,6.65564,0,0,0,0,0,0,0,-1,979,1569,-0.236605,-6.65566
-238,-545,0,0,0,0,0,0,0,0,0,-1,986,1569,0,0
-231,-545,0,0,0,0,0,0,0,0,0,-1,993,1569,0,0
-224,-545,0,0,0,0,0,0,0,0,0,-1,1000,1569,0,0
-217,-545,0,0,0,0,0,0,0,0,0,-1,1007,1569,0,0
-210,-545,0,0,0,0,0,0,0,0,0,-1,1014,1569,0,0
-203,-545,0,0,0,0,0,0,0,0,0,-1,1021,1569,0,0
-196,-545,0,0,0,0,0,0,0,0,0,-1,1028,1569,0,0
-189,-545,0,0,0,0,0,0,0,0,0,-1,1035,1569,0,0
-182,-545,0,0,0,0,0,0,0,0,0,-1,1042,1569,0,0
-175,-545,0,0,0,0,0,0,0,0,0,-1,1049,1569,0,0
-168,-545,0,0,0,0,0,0,0,0,0,-1,1056,1569,0,0
-161,-545,0,0,0,0,0,0,0,0,0,-1,1063,1569,0,0
-154,-545,0,0,0,0,0,0,0,0,0,-1,1070,1569,0,0
-147,-545,0,0,0,0,0,0,0,0,0,-1,1077,1569,0,0
-140,-545,0,0,0,0,0,0,0,0,0,-1,1084,1569,0,0
-133,-545,0,0,0,0,0,0,0,0,0,-1,1091,1569,0,0
-126,-545,0,0,0,0,0,0,0,0,0,-1,1098,1569,0,0
-119,-545,0,0,0,0,0,0,0,0,0,-1,1105,1569,0,0
-112,-545,0,0,0,0,0,0,0,0,0,-1,1112,1569,0,0
-105,-545,0,0,0,0,0,0,0,0,0,-1,1119,1569,0,0
-98,-545,0,0,0,0,0,0,0,0,0,-1,1126,1569,0,0
-91,-545,0,0,0,0,0,0,0,0,0,-1,1133,1569,0,0
-84,-545,0,0,0,0,0,0,0,0,0,-1,1140,1569,0,0
-77,-545,0,0,0,0,0,0,0,0,0,-1,1147,1569,0,0
-70,-545,0,0,0,0,0,0,0,0,0,-1,1154,1569,0,0
-63,-545,0,0,0,0,0,0,0,0,0,-1,1161,1569,0,0
-56,-545,0,0,0,0,0,0,0,0,0,-1,1168,1569,0,0
-49,-545,0,0,0,0,0,0,0,0,0,-1,1175,1569,0,0
-42,-545,0,0,0,0,0,0,0,0,0,-1,1182,1569,0,0
-35,-545,0,0,0,0,0,0,0,0,0,-1,1189,1569,0,0
-28,-545,0,0,0,0,0,0,0,0,0,-1,1196,1569,0,0
-21,-545,0,0,0,0,0,0,0,0,0,-1,1203,1569,0,0
-14,-545,0,0,0,0,0,0,0,0,0,-1,1210,1569,0,0
-7,-545,0,0,0,0,0,0,0,0,0,-1,1217,1569,0,0
0,-545,0,0,0,0,0,0,0,0,0,-1,1224,1569,0,0
7,-545,0,0,0,0,0,0,0,0,0,-1,1231,1569,0,0
14,-545,0,0,0,0,0,0,0,0,0,-1,1238,1569,0,0
21,-545,0,0,0,0,0,0,0,0,0,-1,1245,1569,0,0
28,-545,0,0,0,0,0,0,0,0,0,-1,1252,1569,0,0
35,-545,0,0,0,0,0,0,0,0,0,-1,1259,1569,0,0
42,-545,0,0,0,0,0,0,0,0,0,-1,1266,1569,0,0
49,-545,0,0,0,0,0,0,0,0,0,-1,1273,1569,0,0
56,-545,0,0,0,0,0,0,0,0,0,-1,1280,1569,0,0
63,-545,0,0,0,0,0,0,0,0,0,-1,1287,1569,0,0
70,-545,0,0,0,0,0,0,0,0,0,-1,1294,1569,0,0
77,-545,0,0,0,0,0,0,0,0,0,-1,1301,1569,0,0
84,-545,0,0,0,0,0,0,0,0,0,-1,1308,1569,0,0
91,-545,0,0,0,0,0,0,0,0,0,-1,1315,1569,0,0
98,-545,0,0,0,0,0,0,0,0,0,-1,1322,1569,0,0
105,-545,0,0,0,0,0,0,0,0,0,-1,1329,1569,0,0
112,-545,0,0,0,0,0,0,0,0,0,-1,1336,1569,0,0
119,-545,0,0,0,0,0,0,0,0,0,-1,1343,1569,0,0
126,-545,0,0,0,0,0,0,0,0,0,-1,1350,1569,0,0
133,-545,0,0,0,0,0,0,0,0,0,-1,1357,1569,0,0
140,-545,0,0,0,0,0,0,0,0,0,-1,1364,1569,0,0
147,-545,0,0,0,0,0,0,0,0,0,-1,1371,1569,0,0
154,-545,0,0,0,0,0,0,0,0,0,-1,1378,1569,0,0
161,-545,0,0,0,0,0,0,0,0,0,-1,1385,1569,0,0
168,-545,0,0,0,0,0,0,0,0,0,-1,1392,1569,0,0
175,-545,0,0,0,0,0,0,0,0,0,-1,1399,1569,0,0
182,-545,0,0,0,0,0,0,0,0,0,-1,1406,1569,0,0
189,-545,0,0,0,0,0,0,0,0,0,-1,1413,1569,0,0
196,-545,0,0,0,0,0,0,0,0,0,-1,1420,1569,0,0
203,-545,0,0,0,0,0,0,0,0,0,-1,1427,1569,0,0
210,-545,0,0,0,0,0,0,0,0,0,-1,1434,1569,0,0
217,-545,0,0,0,0,0,0,0,0,0,-1,1441,1569,0,0
224,-545,0,0,0,0,0,0,0,0,0,-1,1448,1569,0,0
231,-545,0,0,0,0,0,0,0,0,0,-1,1455,1569,0,0
238,-545,0,0,0,0,0,0,0,0,0,-1,1462,1569,0,0
245,-545,0,0,0,0,0,0,0,0,0,-1,1469,1569,0,0
252,-545,0,0,0,0,0,0,0,0,0,-1,1476,1569,0,0
259,-545,0,0,0,0,0,0,0,0,0,-1,1483,1569,0,0
266,-545,0,0,0,0,0,0,0,0,0,-1,1490,1569,0,0
273,-545,0,0,0,0,0,0,0,0,0,-1,1497,1569,0,0
280,-545,0,0,0,0,0,0,0,0,0,-1,1504,1569,0,0
287,-545,0,0,0,0,0,0,0,0,0,-1,1511,1569,0,0
294,-545,0,0,0,0,0,0,0,0,0,-1,1518,1569,0,0
301,-545,0,0,0,0,0,0,0,0,0,-1,1525,1569,0,0
308,-545,0,0,0,0,0,0,0,0,0,-1,1532,1569,0,0
315,-545,0,0,0,0,0,0,0,0,0,-1,1539,1569,0,0
322,-545,0,0,0,0,0,0,0,0,0,-1,1546,1569,0,0
329,-545,0,0,0,0,0,0,0,0,0,-1,1553,1569,0,0
336,-545,0,0,0,0,0,0,0,0,0,-1,1560,1569,0,0
343,-545,0,0,0,0,0,0,0,0,0,-1,1567,1569,0,0
350,-545,0,0,0,0,0,0,0,0,0,-1,1574,1569,0,0
357,-545,0,0,0,0,0,0,0,0,0,-1,1581,1569,0,0
364,-545,7.19495,4.88098,0,0,0,0,0,0,0,-1,1588,1569,7.19497,-4.88095
371,-545,7.82324,3.84302,0,0,0,0,0,0,0,-1,1595,1569,7.82324,-3.84307
378,-545,7.65674,5.52673,0,0,0,0,0,0,0,-1,1602,1569,7.6567,-5.52667
385,-545,8.58447,1.16125,0,0,0,0,0,0,0,-1,1609,1569,8.5845,-1.1612
392,-545,12.5654,3.89526,0,0,0,0,0,0,0,-1,1616,1569,12.5655,-3.89532
399,-545,11.5869,5.6333,0,0,0,0,0,0,0,-1,1623,1569,11.5869,-5.63326
406,-545,11.234,6.36414,0,0,0,0,0,0,0,-1,1630,1569,11.234,-6.3641
413,-545,12.1521,13.4817,0,0,0,0,0,0,0,-1,1637,1569,12.1521,-13.4817
420,-545,11.1954,13.6047,0,0,0,0,0,0,0,-1,1644,1569,11.1954,-13.6047
427,-545,9.61072,14.9135,0,0,0,0,0,0,0,-1,1651,1569,9.61076,-14.9134
434,-545,13.1598,23.9921,0,0,0,0,0,0,0,-1,1658,1569,13.1598,-23.992
441,-545,13.6445,21.76,0,0,0,0,0,0,0,-1,1665,1569,13.6445,-21.76
448,-545,11.7668,17.8466,0,0,0,0,0,0,0,-1,1672,1569,11.7669,-17.8466
455,-545,12.7219,20.4523,0,0,0,0,0,0,0,-1,1679,1569,12.7219,-20.4522
462,-545,12.5972,19.0659,0,0,0,0,0,0,0,-1,1686,1569,12.5972,-19.0659
469,-545,13.0275,17.6121,0,0,0,0,0,0,0,-1,1693,1569,13.0275,-17.6121
476,-545,12.291,18.2712,0,0,0,0,0,0,0,-1,1700,1569,12.291,-18.2713
483,-545,12.3966,17.7982,-0.000649472,-0.0168243,0.0152414,0.0085173,-0.0259911,0.541476,0.0207574,0.0254899,1707,1569,12.3966,-17.7982
490,-545,12.3137,17.5107,-0.000952239,-0.0135661,0.0119575,0.00625968,-0.020778,0.542717,0.0163432,0.015363,1714,1569,12.3137,-17.5108
497,-545,12.3236,17.2002,-0.000792719,-0.0107215,0.0091807,0.00467987,-0.016194,0.537545,0.012648,0.0182389,1721,1569,12.3236,-17.2002
504,-545,12.3832,16.861,-0.00106416,-0.00776273,0.00630588,0.00272672,-0.0115536,0.541276,0.00875402,0.0156203,1728,1569,12.3832,-16.861
511,-545,12.3536,16.524,-0.000453545,-0.00574464,0.00486128,0.00243543,-0.00863361,0.536205,0.00671639,0.0115616,1735,1569,12.3536,-16.5241
518,-545,12.3453,16.2034,-9.37356e-05,-0.00406478,0.00372366,0.00214069,-0.0062992,0.540464,0.0050661,0.0128751,1742,1569,12.3454,-16.2034
525,-545,12.3081,15.8802,7.02491e-05,-0.00274663,0.00285637,0.00184655,-0.00452292,0.556347,0.00378408,0.0128688,1749,1569,12.3081,-15.8803
532,-545,12.2791,15.5721,1.35726e-05,-0.00190376,0.0023857,0.00162601,-0.0035162,0.594353,0.00303498,0.0133173,1756,1569,12.2791,-15.5722
539,-545,12.2911,15.2681,-7.16736e-05,-0.00153655,0.00223576,0.00154857,-0.00315679,0.627107,0.00276903,0.0157933,1763,1569,12.2911,-15.268
546,-545,12.2906,14.913,-0.000205431,-0.00145173,0.00236691,0.00161898,-0.00327615,0.656681,0.00287968,0.0175633,1770,1569,12.2906,-14.913
553,-545,12.348,14.5145,-0.00057233,-0.00209221,0.0030345,0.00179594,-0.00446048,0.662705,0.00371974,0.0250854,1777,1569,12.348,-14.5145
560,-545,12.3441,14.1373,-0.000809714,-0.0027431,0.0039628,0.0023026,-0.00585541,0.665764,0.00485663,0.0279314,1784,1569,12.3441,-14.1373
567,-545,12.3492,13.8582,0,0,0,0,0,0,0,-1,1791,1569,12.3493,-13.8581
574,-545,12.4098,13.458,0,0,0,0,0,0,0,-1,1798,1569,12.4098,-13.458
581,-545,12.3987,13.1458,0,0,0,0,0,0,0,-1,1805,1569,12.3987,-13.1457
588,-545,12.3514,12.9911,0,0,0,0,0,0,0,-1,1812,1569,12.3514,-12.9911
595,-545,10.2859,9.11218,0,0,0,0,0,0,0,-1,1819,1569,10.2858,-9.11215
602,-545,8.82117,6.32214,0,0,0,0,0,0,0,-1,1826,1569,8.82121,-6.32217
609,-545,10.2406,5.22351,0,0,0,0,0,0,0,-1,1833,1569,10.2406,-5.22353
616,-545,11.701,3.93188,0,0,0,0,0,0,0,-1,1840,1569,11.701,-3.93191
623,-545,13.2139,2.32043,0,0,0,0,0,0,0,-1,1847,1569,13.2139,-2.32042
630,-545,0,0,0,0,0,0,0,0,0,-1,1854,1569,0,0
637,-545,0,0,0,0,0,0,0,0,0,-1,1861,1569,0,0
644,-545,0,0,0,0,0,0,0,0,0,-1,1868,1569,0,0
651,-545,0,0,0,0,0,0,0,0,0,-1,1875,1569,0,0
658,-545,0,0,0,0,0,0,0,0,0,-1,1882,1569,0,0
665,-545,0,0,0,0,0,0,0,0,0,-1,1889,1569,0,0
672,-545,0,0,0,0,0,0,0,0,0,-1,1896,1569,0,0
679,-545,0,0,0,0,0,0,0,0,0,-1,1903,1569,0,0
686,-545,0,0,0,0,0,0,0,0,0,-1,1910,1569,0,0
693,-545,0,0,0,0,0,0,0,0,0,-1,1917,1569,0,0
700,-545,0,0,0,0,0,0,0,0,0,-1,1924,1569,0,0
707,-545,0,0,0,0,0,0,0,0,0,-1,1931,1569,0,0
714,-545,0,0,0,0,0,0,0,0,0,-1,1938,1569,0,0
721,-545,0,0,0,0,0,0,0,0,0,-1,1945,1569,0,0
728,-545,0,0,0,0,0,0,0,0,0,-1,1952,1569,0,0
735,-545,0,0,0,0,0,0,0,0,0,-1,1959,1569,0,0
742,-545,0,0,0,0,0,0,0,0,0,-1,1966,1569,0,0
749,-545,0,0,0,0,0,0,0,0,0,-1,1973,1569,0,0
756,-545,0,0,0,0,0,0,0,0,0,-1,1980,1569,0,0
763,-545,0,0,0,0,0,0,0,0,0,-1,1987,1569,0,0
770,-545,0,0,0,0,0,0,0,0,0,-1,1994,1569,0,0
777,-545,0,0,0,0,0,0,0,0,0,-1,2001,1569,0,0
784,-545,0,0,0,0,0,0,0,0,0,-1,2008,1569,0,0
791,-545,0,0,0,0,0,0,0,0,0,-1,2015,1569,0,0
798,-545,0,0,0,0,0,0,0,0,0,-1,2022,1569,0,0
805,-545,0,0,0,0,0,0,0,0,0,-1,2029,1569,0,0
812,-545,0,0,0,0,0,0,0,0,0,-1,2036,1569,0,0
-700,-552,0,0,0,0,0,0,0,0,0,-1,524,1576,0,0
-693,-552,0,0,0,0,0,0,0,0,0,-1,531,1576,0,0
-686,-552,0,0,0,0,0,0,0,0,0,-1,538,1576,0,0
-679,-552,0,0,0,0,0,0,0,0,0,-1,545,1576,0,0
-672,-552,0,0,0,0,0,0,0,0,0,-1,552,1576,0,0
-665,-552,0,0,0,0,0,0,0,0,0,-1,559,1576,0,0
-658,-552,0,0,0,0,0,0,0,0,0,-1,566,1576,0,0
-651,-552,0,0,0,0,0,0,0,0,0,-1,573,1576,0,0
-644,-552,0,0,0,0,0,0,0,0,0,-1,580,1576,0,0
-637,-552,0,0,0,0,0,0,0,0,0,-1,587,1576,0,0
-630,-552,0,0,0,0,0,0,0,0,0,-1,594,1576,0,0
-623,-552,0,0,0,0,0,0,0,0,0,-1,601,1576,0,0
-616,-552,0,0,0,0,0,0,0,0,0,-1,608,1576,0,0
-609,-552,0,0,0,0,0,0,0,0,0,-1,615,1576,0,0
-602,-552,0,0,0,0,0,0,0,0,0,-1,622,1576,0,0
-595,-552,0,0,0,0,0,0,0,0,0,-1,629,1576,0,0
-588,-552,0,0,0,0,0,0,0,0,0,-1,636,1576,0,0
-581,-552,0,0,0,0,0,0,0,0,0,-1,643,1576,0,0
-574,-552,0,0,0,0,0,0,0,0,0,-1,650,1576,0,0
-567,-552,0,0,0,0,0,0,0,0,0,-1,657,1576,0,0
-560,-552,0,0,0,0,0,0,0,0,0,-1,664,1576,0,0
-553,-552,0,0,0,0,0,0,0,0,0,-1,671,1576,0,0
-546,-552,0,0,0,0,0,0,0,0,0,-1,678,1576,0,0
-539,-552,0,0,0,0,0,0,0,0,0,-1,685,1576,0,0
-532,-552,0,0,0,0,0,0,0,0,0,-1,692,1576,0,0
-525,-552,0,0,0,0,0,0,0,0,0,-1,699,1576,0,0
-518,-552,0,0,0,0,0,0,0,0,0,-1,706,1576,0,0
-511,-552,0,0,0,0,0,0,0,0,0,-1,713,1576,0,0
-504,-552,0,0,0,0,0,0,0,0,0,-1,720,1576,0,0
-497,-552,1.51282,3.96924,0,0,0,0,0,0,0,-1,727,1576,1.5128,-3.96924
-490,-552,-3.82312,6.32104,0,0,0,0,0,0,0,-1,734,1576,-3.82314,-6.3211
-483,-552,-3.50586,6.47986,0,0,0,0,0,0,0,-1,741,1576,-3.50587,-6.47983
-476,-552,-1.95129,4.43054,0,0,0,0,0,0,0,-1,748,1576,-1.95128,-4.43054
-469,-552,-1.40491,7.9895,0,0,0,0,0,0,0,-1,755,1576,-1.40491,-7.98947
-462,-552,0.258972,6.98975,0,0,0,0,0,0,0,-1,762,1576,0.258987,-6.98975
-455,-552,0.151794,10.9362,0,0,0,0,0,0,0,-1,769,1576,0.151791,-10.9361
-448,-552,0.0933228,11.5228,-0.00215414,-0.0011442,-0.000101352,-0.00113413,-0.00216421,-1.47176,0.00124999,0.0476892,776,1576,0.0933234,-11.5228
-441,-552,0.0921631,12.0948,-0.00263241,-0.000635468,-0.000365726,-0.000570595,-0.00269728,-1.39524,0.00164139,0.0387326,783,1576,0.0921457,-12.0948
-434,-552,0.0782471,12.5293,-0.00276093,-0.000357934,-0.000452,-0.000275727,-0.00284314,-1.39089,0.00181053,0.0259908,790,1576,0.0782444,-12.5293
-427,-552,-0.0465088,12.7832,-0.00262882,-0.000206726,-0.000387269,-0.000146313,-0.00268923,-1.41604,0.0017461,0.0209232,797,1576,-0.0464911,-12.7832
-420,-552,-0.00457764,13.1831,-0.00215349,7.71255e-05,-0.000273919,0.00011027,-0.00218663,-1.45038,0.00149587,0.0196407,804,1576,-0.00458244,-13.1831
-413,-552,-0.00732422,13.5281,-0.00168239,0.000343711,-6.28911e-05,0.000345661,-0.00168434,-1.5398,0.00125409,0.0169457,811,1576,-0.00731839,-13.5281
-406,-552,-0.0231323,13.8877,-0.00108062,0.000875005,0.000273975,0.000912662,-0.00111827,1.4342,0.00117456,0.0133257,818,1576,-0.0231289,-13.8877
-399,-552,-0.0344849,14.2377,-0.000503003,0.00120924,0.000760741,0.0014984,-0.000792164,1.20756,0.00134325,0.0132327,825,1576,-0.0344703,-14.2376
-392,-552,-0.0407104,14.5868,0.000257181,0.00144459,0.000965266,0.00198412,-0.00028235,1.06111,0.00142621,0.0145596,832,1576,-0.0406851,-14.5868
-385,-552,-0.0662231,14.942,0.00090239,0.00176392,0.00116126,0.00257173,9.45771e-05,0.963005,0.00168385,0.0134595,839,1576,-0.0662389,-14.9421
-378,-552,-0.0878296,15.2776,0.00104023,0.00203358,0.00115958,0.00279837,0.000275437,0.98774,0.00178088,0.0155545,846,1576,-0.0878176,-15.2775
-371,-552,-0.0889282,15.6351,0.00124759,0.00224593,0.00112394,0.00297657,0.000516959,0.994378,0.00183647,0.0187283,853,1576,-0.0889414,-15.6351
-364,-552,-0.0778198,15.9867,0.00116638,0.00249354,0.00100408,0.00303351,0.000626416,1.07739,0.00184924,0.0141627,860,1576,-0.0778094,-15.9867
-357,-552,-0.0670166,16.3167,0.000736399,0.00244792,0.000878795,0.00281878,0.000365535,1.17146,0.00176997,0.00987868,867,1576,-0.0670068,-16.3167
-350,-552,-0.0628052,16.6705,-1.90381e-05,0.00257805,0.000605871,0.00271244,-0.000153427,1.35252,0.00186154,0.0102614,874,1576,-0.0628324,-16.6705
-343,-552,-0.0684814,16.9821,-0.000719918,0.0024931,0.000287075,0.00251855,-0.000745366,1.48238,0.00197494,0.0116085,881,1576,-0.0684742,-16.982
-336,-552,0.00463867,17.238,-0.00102228,0.00209649,0.00041371,0.00215044,-0.00107622,1.44113,0.00189702,0.0191354,888,1576,0.00460919,-17.238
-329,-552,-0.0765381,17.5865,-0.00170597,0.00162112,0.000511151,0.00169787,-0.00178273,1.42174,0.00200973,0.0384813,895,1576,-0.0765523,-17.5866
-322,-552,0.0133057,18.1925,0,0,0,0,0,0,0,-1,902,1576,0.0133263,-18.1925
-315,-552,0.426514,19.1611,0,0,0,0,0,0,0,-1,909,1576,0.426507,-19.1611
-308,-552,0.586365,19.8999,0,0,0,0,0,0,0,-1,916,1576,0.586334,-19.8999
-301,-552,1.39453,18.4995,0,0,0,0,0,0,0,-1,923,1576,1.3945,-18.4995
-294,-552,0.842163,13.7863,0,0,0,0,0,0,0,-1,930,1576,0.842149,-13.7863
-287,-552,-0.663757,13.3474,0,0,0,0,0,0,0,-1,937,1576,-0.663744,-13.3474
-280,-552,-5.47241,8.96765,0,0,0,0,0,0,0,-1,944,1576,-5.47239,-8.96766
-273,-552,1.64587,10.6685,0,0,0,0,0,0,0,-1,951,1576,1.6459,-10.6685
-266,-552,-1.32678,8.05688,0,0,0,0,0,0,0,-1,958,1576,-1.32677,-8.05683
-259,-552,-5.54321,8.31213,0,0,0,0,0,0,0,-1,965,1576,-5.54324,-8.31214
-252,-552,-1.93445,7.81543,0,0,0,0,0,0,0,-1,972,1576,-1.93445,-7.81546
-245,-552,-2.53613,6.92212,0,0,0,0,0,0,0,-1,979,1576,-2.53614,-6.92216
-238,-552,-6.5365,2.81885,0,0,0,0,0,0,0,-1,986,1576,-6.53649,-2.8188
-231,-552,-4.32239,4.34583,0,0,0,0,0,0,0,-1,993,1576,-4.32239,-4.34587
-224,-552,0,0,0,0,0,0,0,0,0,-1,1000,1576,0,0
-217,-552,0,0,0,0,0,0,0,0,0,-1,1007,1576,0,0
-210,-552,0,0,0,0,0,0,0,0,0,-1,1014,1576,0,0
-203,-552,0,0,0,0,0,0,0,0,0,-1,1021,1576,0,0
-196,-552,0,0,0,0,0,0,0,0,0,-1,1028,1576,0,0
-189,-552,0,0,0,0,0,0,0,0,0,-1,1035,1576,0,0
-182,-552,0,0,0,0,0,0,0,0,0,-1,1042,1576,0,0
-175,-552,0,0,0,0,0,0,0,0,0,-1,1049,1576,0,0
-168,-552,0,0,0,0,0,0,0,0,0,-1,1056,1576,0,0
-161,-552,0,0,0,0,0,0,0,0,0,-1,1063,1576,0,0
-154,-552,0,0,0,0,0,0,0,0,0,-1,1070,1576,0,0
-147,-552,0,0,0,0,0,0,0,0,0,-1,1077,1576,0,0
-140,-552,0,0,0,0,0,0,0,0,0,-1,1084,1576,0,0
-133,-552,0,0,0,0,0,0,0,0,0,-1,1091,1576,0,0
-126,-552,0,0,0,0,0,0,0,0,0,-1,1098,1576,0,0
-119,-552,0,0,0,0,0,0,0,0,0,-1,1105,1576,0,0
-112,-552,0,0,0,0,0,0,0,0,0,-1,1112,1576,0,0
-105,-552,0,0,0,0,0,0,0,0,0,-1,1119,1576,0,0
-98,-552,0,0,0,0,0,0,0,0,0,-1,1126,1576,0,0
-91,-552,0,0,0,0,0,0,0,0,0,-1,1133,1576,0,0
-84,-552,0,0,0,0,0,0,0,0,0,-1,1140,1576,0,0
-77,-552,0,0,0,0,0,0,0,0,0,-1,1147,1576,0,0
-70,-552,0,0,0,0,0,0,0,0,0,-1,1154,1576,0,0
-63,-552,0,0,0,0,0,0,0,0,0,-1,1161,1576,0,0
-56,-552,0,0,0,0,0,0,0,0,0,-1,1168,1576,0,0
-49,-552,0,0,0,0,0,0,0,0,0,-1,1175,1576,0,0
-42,-552,0,0,0,0,0,0,0,0,0,-1,1182,1576,0,0
-35,-552,0,0,0,0,0,0,0,0,0,-1,1189,1576,0,0
-28,-552,0,0,0,0,0,0,0,0,0,-1,1196,1576,0,0
-21,-552,0,0,0,0,0,0,0,0,0,-1,1203,1576,0,0
-14,-552,0,0,0,0,0,0,0,0,0,-1,1210,1576,0,0
-7,-552,0,0,0,0,0,0,0,0,0,-1,1217,1576,0,0
0,-552,0,0,0,0,0,0,0,0,0,-1,1224,1576,0,0
7,-552,0,0,0,0,0,0,0,0,0,-1,1231,1576,0,0
14,-552,0,0,0,0,0,0,0,0,0,-1,1238,1576,0,0
21,-552,0,0,0,0,0,0,0,0,0,-1,1245,1576,0,0
28,-552,0,0,0,0,0,0,0,0,0,-1,1252,1576,0,0
35,-552,0,0,0,0,0,0,0,0,0,-1,1259,1576,0,0
42,-552,0,0,0,0,0,0,0,0,0,-1,1266,1576,0,0
49,-552,0,0,0,0,0,0,0,0,0,-1,1273,1576,0,0
56,-552,0,0,0,0,0,0,0,0,0,-1,1280,1576,0,0
63,-552,0,0,0,0,0,0,0,0,0,-1,1287,1576,0,0
70,-552,0,0,0,0,0,0,0,0,0,-1,1294,1576,0,0
77,-552,0,0,0,0,0,0,0,0,0,-1,1301,1576,0,0
84,-552,0,0,0,0,0,0,0,0,0,-1,1308,1576,0,0
91,-552,0,0,0,0,0,0,0,0,0,-1,1315,1576,0,0
98,-552,0,0,0,0,0,0,0,0,0,-1,1322,1576,0,0
105,-552,0,0,0,0,0,0,0,0,0,-1,1329,1576,0,0
112,-552,0,0,0,0,0,0,0,0,0,-1,1336,1576,0,0
119,-552,0,0,0,0,0,0,0,0,0,-1,1343,1576,0,0
126,-552,0,0,0,0,0,0,0,0,0,-1,1350,1576,0,0
133,-552,0,0,0,0,0,0,0,0,0,-1,1357,1576,0,0
140,-552,0,0,0,0,0,0,0,0,0,-1,1364,1576,0,0
147,-552,0,0,0,0,0,0,0,0,0,-1,1371,1576,0,0
154,-552,0,0,0,0,0,0,0,0,0,-1,1378,1576,0,0
161,-552,0,0,0,0,0,0,0,0,0,-1,1385,1576,0,0
168,-552,0,0,0,0,0,0,0,0,0,-1,1392,1576,0,0
175,-552,0,0,0,0,0,0,0,0,0,-1,1399,1576,0,0
182,-552,0,0,0,0,0,0,0,0,0,-1,1406,1576,0,0
189,-552,0,0,0,0,0,0,0,0,0,-1,1413,1576,0,0
196,-552,0,0,0,0,0,0,0,0,0,-1,1420,1576,0,0
203,-552,0,0,0,0,0,0,0,0,0,-1,1427,1576,0,0
210,-552,0,0,0,0,0,0,0,0,0,-1,1434,1576,0,0
217,-552,0,0,0,0,0,0,0,0,0,-1,1441,1576,0,0
224,-552,0,0,0,0,0,0,0,0,0,-1,1448,1576,0,0
231,-552,0,0,0,0,0,0,0,0,0,-1,1455,1576,0,0
238,-552,0,0,0,0,0,0,0,0,0,-1,1462,1576,0,0
245,-552,0,0,0,0,0,0,0,0,0,-1,1469,1576,0,0
252,-552,0,0,0,0,0,0,0,0,0,-1,1476,1576,0,0
259,-552,0,0,0,0,0,0,0,0,0,-1,1483,1576,0,0
266,-552,0,0,0,0,0,0,0,0,0,-1,1490,1576,0,0
273,-552,0,0,0,0,0,0,0,0,0,-1,1497,1576,0,0
280,-552,0,0,0,0,0,0,0,0,0,-1,1504,1576,0,0
287,-552,0,0,0,0,0,0,0,0,0,-1,1511,1576,0,0
294,-552,0,0,0,0,0,0,0,0,0,-1,1518,1576,0,0
301,-552,0,0,0,0,0,0,0,0,0,-1,1525,1576,0,0
308,-552,0,0,0,0,0,0,0,0,0,-1,1532,1576,0,0
315,-552,0,0,0,0,0,0,0,0,0,-1,1539,1576,0,0
322,-552,0,0,0,0,0,0,0,0,0,-1,1546,1576,0,0
329,-552,0,0,0,0,0,0,0,0,0,-1,1553,1576,0,0
336,-552,0,0,0,0,0,0,0,0,0,-1,1560,1576,0,0
343,-552,0,0,0,0,0,0,0,0,0,-1,1567,1576,0,0
350,-552,4.97876,4.09888,0,0,0,0,0,0,0,-1,1574,1576,4.97875,-4.09883
357,-552,5.18469,4.10706,0,0,0,0,0,0,0,-1,1581,1576,5.1847,-4.10702
364,-552,5.80872,5.07031,0,0,0,0,0,0,0,-1,1588,1576,5.80874,-5.07037
371,-552,7.10657,5.64783,0,0,0,0,0,0,0,-1,1595,1576,7.10651,-5.64786
378,-552,6.44446,4.91492,0,0,0,0,0,0,0,-1,1602,1576,6.44448,-4.91496
385,-552,12.8276,3.16504,0,0,0,0,0,0,0,-1,1609,1576,12.8276,-3.16503
392,-552,12.1301,4.3363,0,0,0,0,0,0,0,-1,1616,1576,12.1302,-4.33631
399,-552,11.3486,5.6012,0,0,0,0,0,0,0,-1,1623,1576,11.3486,-5.60115
406,-552,10.7863,6.42542,0,0,0,0,0,0,0,-1,1630,1576,10.7863,-6.42536
413,-552,8.39307,10.365,0,0,0,0,0,0,0,-1,1637,1576,8.3931,-10.365
420,-552,10.2306,12.7225,0,0,0,0,0,0,0,-1,1644,1576,10.2305,-12.7226
427,-552,9.73267,14.783,0,0,0,0,0,0,0,-1,1651,1576,9.73269,-14.783
434,-552,12.0377,20.1364,0,0,0,0,0,0,0,-1,1658,1576,12.0377,-20.1364
441,-552,11.4443,17.7925,0,0,0,0,0,0,0,-1,1665,1576,11.4444,-17.7925
448,-552,11.6432,18.0454,0.00601089,-0.0291554,0.0375594,0.0298991,-0.0530436,0.566479,0.0485045,0.0478772,1672,1576,11.6432,-18.0454
455,-552,12.4436,19.8212,0,0,0,0,0,0,0,-1,1679,1576,12.4437,-19.8212
462,-552,12.3499,18.7753,0,0,0,0,0,0,0,-1,1686,1576,12.3498,-18.7753
469,-552,12.1354,18.3945,0.000726012,-0.0166694,0.0183533,0.0123382,-0.0282816,0.56412,0.0240465,0.0483824,1693,1576,12.1354,-18.3945
476,-552,11.9648,18.1414,0.000182699,-0.01354,0.0139911,0.00890435,-0.0222616,0.557426,0.0185364,0.0279718,1700,1576,11.9648,-18.1414
483,-552,12.0542,17.7538,-0.000258697,-0.0111134,0.0107907,0.00639267,-0.0177648,0.55239,0.0144533,0.0194895,1707,1576,12.0542,-17.7538
490,-552,12.0223,17.4818,-0.00052207,-0.00904218,0.00842597,0.00465954,-0.0142238,0.551345,0.0113589,0.0147474,1714,1576,12.0223,-17.4818
497,-552,12.0573,17.1665,-0.000463338,-0.00720417,0.00638463,0.00338589,-0.0110534,0.542541,0.00871952,0.0230336,1721,1576,12.0573,-17.1665
504,-552,12.0322,16.8414,-0.000832256,-0.00514849,0.00431275,0.00183221,-0.00781296,0.553413,0.00591474,0.0248487,1728,1576,12.0322,-16.8414
511,-552,12.0156,16.524,-0.000472579,-0.00393365,0.00347011,0.00167456,-0.00608079,0.554095,0.00471229,0.0180134,1735,1576,12.0156,-16.5241
518,-552,12.0321,16.2056,-0.000307533,-0.00287892,0.00282452,0.00151014,-0.00469659,0.571817,0.00373756,0.0148523,1742,1576,12.0321,-16.2055
525,-552,11.9899,15.8983,-0.000320874,-0.00208093,0.00240959,0.00136436,-0.00376617,0.610314,0.0030684,0.0130777,1749,1576,11.9899,-15.8983
532,-552,11.9868,15.5682,-0.000540362,-0.00168387,0.00236167,0.00131778,-0.00354201,0.666635,0.00290211,0.0137208,1756,1576,11.9868,-15.5683
539,-552,11.9675,15.2423,-0.000835287,-0.00175577,0.00265879,0.0014028,-0.00399385,0.699696,0.00323325,0.0165228,1763,1576,11.9675,-15.2423
546,-552,11.9551,14.9265,-0.00126489,-0.00232267,0.00333611,0.00158399,-0.00517155,0.706785,0.00407952,0.0202372,1770,1576,11.9551,-14.9265
553,-552,12.051,14.5377,-0.0019169,-0.00348659,0.00464929,0.00201332,-0.00741681,0.701782,0.00573469,0.0241996,1777,1576,12.051,-14.5377
560,-552,12.0876,13.8988,0,0,0,0,0,0,0,-1,1784,1576,12.0876,-13.8988
567,-552,11.9984,13.6262,0,0,0,0,0,0,0,-1,1791,1576,11.9985,-13.6262
574,-552,11.9689,13.4098,0,0,0,0,0,0,0,-1,1798,1576,11.9689,-13.4097
581,-552,9.74841,9.98645,0,0,0,0,0,0,0,-1,1805,1576,9.74847,-9.9864
588,-552,10.5619,9.34924,0,0,0,0,0,0,0,-1,1812,1576,10.5619,-9.34921
595,-552,5.36194,6.62744,0,0,0,0,0,0,0,-1,1819,1576,5.36193,-6.62742
602,-552,10.6863,4.31616,0,0,0,0,0,0,0,-1,1826,1576,10.6862,-4.31619
609,-552,12.146,3.18286,0,0,0,0,0,0,0,-1,1833,1576,12.1459,-3.18281
616,-552,13.8762,2.08167,0,0,0,0,0,0,0,-1,1840,1576,13.8763,-2.08167
623,-552,0,0,0,0,0,0,0,0,0,-1,1847,1576,0,0
630,-552,0,0,0,0,0,0,0,0,0,-1,1854,1576,0,0
637,-552,0,0,0,0,0,0,0,0,0,-1,1861,1576,0,0
644,-552,0,0,0,0,0,0,0,0,0,-1,1868,1576,0,0
651,-552,0,0,0,0,0,0,0,0,0,-1,1875,1576,0,0
658,-552,0,0,0,0,0,0,0,0,0,-1,1882,1576,0,0
665,-552,0,0,0,0,0,0,0,0,0,-1,1889,1576,0,0
672,-552,0,0,0,0,0,0,0,0,0,-1,1896,1576,0,0
679,-552,0,0,0,0,0,0,0,0,0,-1,1903,1576,0,0
686,-552,0,0,0,0,0,0,0,0,0,-1,1910,1576,0,0
693,-552,0,0,0,0,0,0,0,0,0,-1,1917,1576,0,0
700,-552,0,0,0,0,0,0,0,0,0,-1,1924,1576,0,0
707,-552,0,0,0,0,0,0,0,0,0,-1,1931,1576,0,0
714,-552,0,0,0,0,0,0,0,0,0,-1,1938,1576,0,0
721,-552,0,0,0,0,0,0,0,0,0,-1,1945,1576,0,0
728,-552,0,0,0,0,0,0,0,0,0,-1,1952,1576,0,0
735,-552,0,0,0,0,0,0,0,0,0,-1,1959,1576,0,0
742,-552,0,0,0,0,0,0,0,0,0,-1,1966,1576,0,0
749,-552,0,0,0,0,0,0,0,0,0,-1,1973,1576,0,0
756,-552,0,0,0,0,0,0,0,0,0,-1,1980,1576,0,0
763,-552,0,0,0,0,0,0,0,0,0,-1,1987,1576,0,0
770,-552,0,0,0,0,0,0,0,0,0,-1,1994,1576,0,0
777,-552,0,0,0,0,0,0,0,0,0,-1,2001,1576,0,0
784,-552,0,0,0,0,0,0,0,0,0,-1,2008,1576,0,0
791,-552,0,0,0,0,0,0,0,0,0,-1,2015,1576,0,0
798,-552,0,0,0,0,0,0,0,0,0,-1,2022,1576,0,0
805,-552,0,0,0,0,0,0,0,0,0,-1,2029,1576,0,0
812,-552,0,0,0,0,0,0,0,0,0,-1,2036,1576,0,0
-700,-559,0,0,0,0,0,0,0,0,0,-1,524,1583,0,0
-693,-559,0,0,0,0,0,0,0,0,0,-1,531,1583,0,0
-686,-559,0,0,0,0,0,0,0,0,0,-1,538,1583,0,0
-679,-559,0,0,0,0,0,0,0,0,0,-1,545,1583,0,0
-672,-559,0,0,0,0,0,0,0,0,0,-1,552,1583,0,0
-665,-559,0,0,0,0,0,0,0,0,0,-1,559,1583,0,0
-658,-559,0,0,0,0,0,0,0,0,0,-1,566,1583,0,0
-651,-559,0,0,0,0,0,0,0,0,0,-1,573,1583,0,0
-644,-559,0,0,0,0,0,0,0,0,0,-1,580,1583,0,0
-637,-559,0,0,0,0,0,0,0,0,0,-1,587,1583,0,0
-630,-559,0,0,0,0,0,0,0,0,0,-1,594,1583,0,0
-623,-559,0,0,0,0,0,0,0,0,0,-1,601,1583,0,0
-616,-559,0,0,0,0,0,0,0,0,0,-1,608,1583,0,0
-609,-559,0,0,0,0,0,0,0,0,0,-1,615,1583,0,0
-602,-559,0,0,0,0,0,0,0,0,0,-1,622,1583,0,0
-595,-559,0,0,0,0,0,0,0,0,0,-1,629,1583,0,0
-588,-559,0,0,0,0,0,0,0,0,0,-1,636,1583,0,0
-581,-559,0,0,0,0,0,0,0,0,0,-1,643,1583,0,0
-574,-559,0,0,0,0,0,0,0,0,0,-1,650,1583,0,0
-567,-559,0,0,0,0,0,0,0,0,0,-1,657,1583,0,0
-560,-559,0,0,0,0,0,0,0,0,0,-1,664,1583,0,0
-553,-559,0,0,0,0,0,0,0,0,0,-1,671,1583,0,0
-546,-559,0,0,0,0,0,0,0,0,0,-1,678,1583,0,0
-539,-559,0,0,0,0,0,0,0,0,0,-1,685,1583,0,0
-532,-559,0,0,0,0,0,0,0,0,0,-1,692,1583,0,0
-525,-559,0,0,0,0,0,0,0,0,0,-1,699,1583,0,0
-518,-559,0,0,0,0,0,0,0,0,0,-1,706,1583,0,0
-511,-559,0,0,0,0,0,0,0,0,0,-1,713,1583,0,0
-504,-559,0,0,0,0,0,0,0,0,0,-1,720,1583,0,0
-497,-559,0,0,0,0,0,0,0,0,0,-1,727,1583,0,0
-490,-559,-5.49835,4.47424,0,0,0,0,0,0,0,-1,734,1583,-5.49833,-4.4743
-483,-559,-5.24078,4.74561,0,0,0,0,0,0,0,-1,741,1583,-5.24079,-4.74563
-476,-559,-4.98022,4.99316,0,0,0,0,0,0,0,-1,748,1583,-4.98024,-4.99321
-469,-559,-4.6424,5.38062,0,0,0,0,0,0,0,-1,755,1583,-4.64237,-5.38058
-462,-559,-0.161865,6.49438,0,0,0,0,0,0,0,-1,762,1583,-0.161835,-6.49444
-455,-559,1.08826,7.02527,0,0,0,0,0,0,0,-1,769,1583,1.08823,-7.02529
-448,-559,0.35376,11.4279,0,0,0,0,0,0,0,-1,776,1583,0.35374,-11.4279
-441,-559,0.798706,12.2574,0,0,0,0,0,0,0,-1,783,1583,0.798717,-12.2575
-434,-559,0.601807,12.5355,-0.00350311,0.000321922,-0.000100646,0.000324569,-0.00350576,-1.54451,0.00245253,0.0398682,790,1583,0.601783,-12.5356
-427,-559,0.414246,12.9189,-0.00346994,4.66761e-05,-0.000216747,5.99849e-05,-0.00348325,-1.50947,0.00234242,0.0290117,797,1583,0.41427,-12.9189
-420,-559,0.277832,13.1925,-0.00304415,5.44842e-05,-0.000253477,7.50824e-05,-0.00306474,-1.48971,0.00206864,0.0315372,804,1583,0.277809,-13.1925
-413,-559,0.307739,13.5461,-0.00258836,8.56847e-05,-0.000159301,9.51414e-05,-0.00259782,-1.5115,0.00176445,0.0145003,811,1583,0.307734,-13.5462
-406,-559,0.319946,13.8995,-0.00197936,0.000431378,7.56211e-05,0.000433748,-0.00198173,1.53947,0.00148698,0.00976196,818,1583,0.319964,-13.8995
-399,-559,0.320801,14.2576,-0.0014132,0.000577781,0.000484921,0.000689607,-0.00152502,1.34415,0.00130859,0.0123788,825,1583,0.320803,-14.2576
-392,-559,0.298279,14.6102,-0.000685258,0.000674665,0.000611829,0.000909407,-0.00092,1.20444,0.00105621,0.0162682,832,1583,0.298262,-14.6102
-385,-559,0.277161,14.9664,2.71553e-05,0.000917461,0.000744419,0.00133967,-0.000395056,1.05487,0.00104988,0.0162337,839,1583,0.277154,-14.9664
-378,-559,0.283569,15.2986,0.000388411,0.00114807,0.000797087,0.0016512,-0.00011472,1.00774,0.00114096,0.0152406,846,1583,0.283547,-15.2986
-371,-559,0.272217,15.6403,0.000724345,0.00129078,0.00075452,0.00181349,0.000201639,0.964942,0.0011477,0.0217639,853,1583,0.27219,-15.6402
-364,-559,0.283386,15.9639,0.000821372,0.00155607,0.000688397,0.001969,0.000408442,1.03049,0.00119992,0.0186745,860,1583,0.283405,-15.9639
-357,-559,0.264343,16.3192,0.000676137,0.00151581,0.00067106,0.00188755,0.000304403,1.06493,0.00117017,0.0117988,867,1583,0.264326,-16.3192
-350,-559,0.26532,16.6462,0.000315083,0.00167518,0.000524326,0.00185384,0.000136421,1.24239,0.00119302,0.00962613,874,1583,0.26533,-16.6462
-343,-559,0.264465,16.9871,0.000116448,0.00167667,0.000419668,0.00178238,1.07289e-05,1.32402,0.0011847,0.0100431,881,1583,0.264464,-16.987
-336,-559,0.232422,17.2875,0.000363395,0.0013965,0.000748412,0.00178932,-2.94175e-05,1.08746,0.0012028,0.0138117,888,1583,0.232447,-17.2874
-329,-559,0.306274,17.751,0.000311984,0.00109666,0.00106011,0.00183471,-0.000426058,0.962629,0.00138714,0.0237165,895,1583,0.306305,-17.751
-322,-559,0.552551,18.3114,0,0,0,0,0,0,0,-1,902,1583,0.552543,-18.3114
-315,-559,0.480286,18.567,0,0,0,0,0,0,0,-1,909,1583,0.480269,-18.567
-308,-559,0.730774,19.144,0,0,0,0,0,0,0,-1,916,1583,0.73075,-19.1441
-301,-559,0.24707,19.2814,0,0,0,0,0,0,0,-1,923,1583,0.247074,-19.2814
-294,-559,0.945129,18.5165,0,0,0,0,0,0,0,-1,930,1583,0.945117,-18.5165
-287,-559,-0.11792,15.4912,0,0,0,0,0,0,0,-1,937,1583,-0.117939,-15.4912
-280,-559,0.191467,13.5093,0,0,0,0,0,0,0,-1,944,1583,0.191441,-13.5093
-273,-559,2.12836,10.3059,0,0,0,0,0,0,0,-1,951,1583,2.12839,-10.3059
-266,-559,-0.597046,6.68933,0,0,0,0,0,0,0,-1,958,1583,-0.597031,-6.68937
-259,-559,-7.00311,8.62756,0,0,0,0,0,0,0,-1,965,1583,-7.00312,-8.6275
-252,-559,-9.4483,2.87805,0,0,0,0,0,0,0,-1,972,1583,-9.44829,-2.87805
-245,-559,-4.80804,7.1803,0,0,0,0,0,0,0,-1,979,1583,-4.80804,-7.18027
-238,-559,-8.45764,2.54858,0,0,0,0,0,0,0,-1,986,1583,-8.45763,-2.54862
-231,-559,-5.86914,4.34021,0,0,0,0,0,0,0,-1,993,1583,-5.86914,-4.34019
-224,-559,-3.30505,6.22864,0,0,0,0,0,0,0,-1,1000,1583,-3.30505,-6.22859
-217,-559,0,0,0,0,0,0,0,0,0,-1,1007,1583,0,0
-210,-559,0,0,0,0,0,0,0,0,0,-1,1014,1583,0,0
-203,-559,0,0,0,0,0,0,0,0,0,-1,1021,1583,0,0
-196,-559,0,0,0,0,0,0,0,0,0,-1,1028,1583,0,0
-189,-559,0,0,0,0,0,0,0,0,0,-1,1035,1583,0,0
-182,-559,0,0,0,0,0,0,0,0,0,-1,1042,1583,0,0
-175,-559,0,0,0,0,0,0,0,0,0,-1,1049,1583,0,0
-168,-559,0,0,0,0,0,0,0,0,0,-1,1056,1583,0,0
-161,-559,0,0,0,0,0,0,0,0,0,-1,1063,1583,0,0
-154,-559,0,0,0,0,0,0,0,0,0,-1,1070,1583,0,0
-147,-559,0,0,0,0,0,0,0,0,0,-1,1077,1583,0,0
-140,-559,0,0,0,0,0,0,0,0,0,-1,1084,1583,0,0
-133,-559,0,0,0,0,0,0,0,0,0,-1,1091,1583,0,0
-126,-559,0,0,0,0,0,0,0,0,0,-1,1098,1583,0,0
-119,-559,0,0,0,0,0,0,0,0,0,-1,1105,1583,0,0
-112,-559,0,0,0,0,0,0,0,0,0,-1,1112,1583,0,0
-105,-559,0,0,0,0,0,0,0,0,0,-1,1119,1583,0,0
-98,-559,0,0,0,0,0,0,0,0,0,-1,1126,1583,0,0
-91,-559,0,0,0,0,0,0,0,0,0,-1,1133,1583,0,0
-84,-559,0,0,0,0,0,0,0,0,0,-1,1140,1583,0,0
-77,-559,0,0,0,0,0,0,0,0,0,-1,1147,1583,0,0
-70,-559,0,0,0,0,0,0,0,0,0,-1,1154,1583,0,0
-63,-559,0,0,0,0,0,0,0,0,0,-1,1161,1583,0,0
-56,-559,0,0,0,0,0,0,0,0,0,-1,1168,1583,0,0
-49,-559,0,0,0,0,0,0,0,0,0,-1,1175,1583,0,0
-42,-559,0,0,0,0,0,0,0,0,0,-1,1182,1583,0,0
-35,-559,0,0,0,0,0,0,0,0,0,-1,1189,1583,0,0
-28,-559,0,0,0,0,0,0,0,0,0,-1,1196,1583,0,0
-21,-559,0,0,0,0,0,0,0,0,0,-1,1203,1583,0,0
-14,-559,0,0,0,0,0,0,0,0,0,-1,1210,1583,0,0
-7,-559,0,0,0,0,0,0,0,0,0,-1,1217,1583,0,0
0,-559,0,0,0,0,0,0,0,0,0,-1,1224,1583,0,0
7,-559,0,0,0,0,0,0,0,0,0,-1,1231,1583,0,0
14,-559,0,0,0,0,0,0,0,0,0,-1,1238,1583,0,0
21,-559,0,0,0,0,0,0,0,0,0,-1,1245,1583,0,0
28,-559,0,0,0,0,0,0,0,0,0,-1,1252,1583,0,0
35,-559,0,0,0,0,0,0,0,0,0,-1,1259,1583,0,0
42,-559,0,0,0,0,0,0,0,0,0,-1,1266,1583,0,0
49,-559,0,0,0,0,0,0,0,0,0,-1,1273,1583,0,0
56,-559,0,0,0,0,0,0,0,0,0,-1,1280,1583,0,0
63,-559,0,0,0,0,0,0,0,0,0,-1,1287,1583,0,0
70,-559,0,0,0,0,0,0,0,0,0,-1,1294,1583,0,0
77,-559,0,0,0,0,0,0,0,0,0,-1,1301,1583,0,0
84,-559,0,0,0,0,0,0,0,0,0,-1,1308,1583,0,0
91,-559,0,0,0,0,0,0,0,0,0,-1,1315,1583,0,0
98,-559,0,0,0,0,0,0,0,0,0,-1,1322,1583,0,0
105,-559,0,0,0,0,0,0,0,0,0,-1,1329,1583,0,0
112,-559,0,0,0,0,0,0,0,0,0,-1,1336,1583,0,0
119,-559,0,0,0,0,0,0,0,0,0,-1,1343,1583,0,0
126,-559,0,0,0,0,0,0,0,0,0,-1,1350,1583,0,0
133,-559,0,0,0,0,0,0,0,0,0,-1,1357,1583,0,0
140,-559,0,0,0,0,0,0,0,0,0,-1,1364,1583,0,0
147,-559,0,0,0,0,0,0,0,0,0,-1,1371,1583,0,0
154,-559,0,0,0,0,0,0,0,0,0,-1,1378,1583,0,0
161,-559,0,0,0,0,0,0,0,0,0,-1,1385,1583,0,0
168,-559,0,0,0,0,0,0,0,0,0,-1,1392,1583,0,0
175,-559,0,0,0,0,0,0,0,0,0,-1,1399,1583,0,0
182,-559,0,0,0,0,0,0,0,0,0,-1,1406,1583,0,0
189,-559,0,0,0,0,0,0,0,0,0,-1,1413,1583,0,0
196,-559,0,0,0,0,0,0,0,0,0,-1,1420,1583,0,0
203,-559,0,0,0,0,0,0,0,0,0,-1,1427,1583,0,0
210,-559,0,0,0,0,0,0,0,0,0,-1,1434,1583,0,0
217,-559,0,0,0,0,0,0,0,0,0,-1,1441,1583,0,0
224,-559,0,0,0,0,0,0,0,0,0,-1,1448,1583,0,0
231,-559,0,0,0,0,0,0,0,0,0,-1,1455,1583,0,0
238,-559,0,0,0,0,0,0,0,0,0,-1,1462,1583,0,0
245,-559,0,0,0,0,0,0,0,0,0,-1,1469,1583,0,0
252,-559,0,0,0,0,0,0,0,0,0,-1,1476,1583,0,0
259,-559,0,0,0,0,0,0,0,0,0,-1,1483,1583,0,0
266,-559,0,0,0,0,0,0,0,0,0,-1,1490,1583,0,0
273,-559,0,0,0,0,0,0,0,0,0,-1,1497,1583,0,0
280,-559,0,0,0,0,0,0,0,0,0,-1,1504,1583,0,0
287,-559,0,0,0,0,0,0,0,0,0,-1,1511,1583,0,0
294,-559,0,0,0,0,0,0,0,0,0,-1,1518,1583,0,0
301,-559,0,0,0,0,0,0,0,0,0,-1,1525,1583,0,0
308,-559,0,0,0,0,0,0,0,0,0,-1,1532,1583,0,0
315,-559,0,0,0,0,0,0,0,0,0,-1,1539,1583,0,0
322,-559,0,0,0,0,0,0,0,0,0,-1,1546,1583,0,0
329,-559,0,0,0,0,0,0,0,0,0,-1,1553,1583,0,0
336,-559,5.97668,3.09827,0,0,0,0,0,0,0,-1,1560,1583,5.97667,-3.09824
343,-559,5.44824,2.88696,0,0,0,0,0,0,0,-1,1567,1583,5.44819,-2.88693
350,-559,4.69775,3.27051,0,0,0,0,0,0,0,-1,1574,1583,4.69771,-3.27048
357,-559,3.88025,3.60999,0,0,0,0,0,0,0,-1,1581,1583,3.88027,-3.60998
364,-559,5.00928,5.32605,0,0,0,0,0,0,0,-1,1588,1583,5.00928,-5.32607
371,-559,1.84436,2.52441,0,0,0,0,0,0,0,-1,1595,1583,1.84441,-2.52447
378,-559,6.34753,1.53137,0,0,0,0,0,0,0,-1,1602,1583,6.34752,-1.53139
385,-559,6.95911,1.48181,0,0,0,0,0,0,0,-1,1609,1583,6.95916,-1.48175
392,-559,11.6949,4.77734,0,0,0,0,0,0,0,-1,1616,1583,11.6949,-4.77731
399,-559,11.1104,5.56909,0,0,0,0,0,0,0,-1,1623,1583,11.1103,-5.56905
406,-559,10.3385,6.48657,0,0,0,0,0,0,0,-1,1630,1583,10.3385,-6.48661
413,-559,9.76147,6.97571,0,0,0,0,0,0,0,-1,1637,1583,9.76143,-6.97574
420,-559,7.77124,10.5851,0,0,0,0,0,0,0,-1,1644,1583,7.77128,-10.585
427,-559,10.1022,12.5565,0,0,0,0,0,0,0,-1,1651,1583,10.1021,-12.5565
434,-559,9.62769,14.6309,0,0,0,0,0,0,0,-1,1658,1583,9.62771,-14.6309
441,-559,11.274,18.2468,0,0,0,0,0,0,0,-1,1665,1583,11.274,-18.2468
448,-559,11.4678,18.4315,0,0,0,0,0,0,0,-1,1672,1583,11.4678,-18.4315
455,-559,11.8298,19.08,0,0,0,0,0,0,0,-1,1679,1583,11.8299,-19.08
462,-559,11.5107,18.9756,0,0,0,0,0,0,0,-1,1686,1583,11.5107,-18.9756
469,-559,11.594,18.516,0.000462729,-0.0106773,0.0129959,0.00903193,-0.0192465,0.58294,0.0166778,0.0281242,1693,1583,11.594,-18.516
476,-559,11.6774,18.1173,0.000262461,-0.00852131,0.00974184,0.00655665,-0.0148155,0.573627,0.0126426,0.0127918,1700,1583,11.6773,-18.1173
483,-559,11.7421,17.7753,1.43356e-06,-0.00699753,0.00743394,0.00471839,-0.0117145,0.565413,0.00976993,0.0123384,1707,1583,11.7421,-17.7753
490,-559,11.7264,17.4851,-0.000202241,-0.00572509,0.00574315,0.00340887,-0.0093362,0.561305,0.00761901,0.015029,1714,1583,11.7265,-17.4851
497,-559,11.7015,17.1733,-0.000215423,-0.00458124,0.00425313,0.00238227,-0.00717894,0.548303,0.00574706,0.0193713,1721,1583,11.7015,-17.1733
504,-559,11.6638,16.8517,-0.000644371,-0.00321097,0.00285035,0.00119825,-0.00505359,0.573878,0.00383145,0.0250846,1728,1583,11.6638,-16.8517
511,-559,11.6528,16.542,-0.00051046,-0.0026127,0.00248666,0.00113811,-0.00426128,0.585436,0.00328658,0.021661,1735,1583,11.6529,-16.542
518,-559,11.7177,16.222,-0.000537957,-0.00206433,0.00225581,0.00108027,-0.00368256,0.622282,0.0028834,0.0133458,1742,1583,11.7177,-16.222
525,-559,11.7039,15.9047,-0.000747461,-0.00171915,0.00225313,0.00107161,-0.00353822,0.679209,0.00278559,0.0116028,1749,1583,11.7038,-15.9047
532,-559,11.684,15.5792,-0.0011641,-0.0017287,0.00260887,0.00117769,-0.0040705,0.731504,0.00317978,0.0136352,1756,1583,11.684,-15.5793
539,-559,11.6698,15.2618,-0.00173561,-0.00223308,0.0033687,0.00139352,-0.00536222,0.748547,0.00411867,0.0174602,1763,1583,11.6697,-15.2618
546,-559,11.6569,14.9388,-0.00256614,-0.00346401,0.00464291,0.00164949,-0.00767964,0.737202,0.00574902,0.0153562,1770,1583,11.6568,-14.9388
553,-559,11.7976,14.5516,-0.00364063,-0.00519366,0.00667362,0.0023015,-0.0111358,0.727481,0.00829811,0.0223546,1777,1583,11.7976,-14.5516
560,-559,11.8169,14.4547,-0.00459474,-0.00685523,0.00905366,0.00339895,-0.0148489,0.7233,0.0112054,0.0484858,1784,1583,11.8169,-14.4548
567,-559,11.72,14.1735,0,0,0,0,0,0,0,-1,1791,1583,11.72,-14.1734
574,-559,10.5109,10.7317,0,0,0,0,0,0,0,-1,1798,1583,10.5108,-10.7317
581,-559,5.97095,5.96179,0,0,0,0,0,0,0,-1,1805,1583,5.97093,-5.96181
588,-559,5.79102,5.89954,0,0,0,0,0,0,0,-1,1812,1583,5.79098,-5.89949
595,-559,5.79089,6.24231,0,0,0,0,0,0,0,-1,1819,1583,5.7909,-6.24227
602,-559,12.478,2.35669,0,0,0,0,0,0,0,-1,1826,1583,12.4781,-2.35675
609,-559,14.0479,1.22681,0,0,0,0,0,0,0,-1,1833,1583,14.0479,-1.22681
616,-559,0,0,0,0,0,0,0,0,0,-1,1840,1583,0,0
623,-559,0,0,0,0,0,0,0,0,0,-1,1847,1583,0,0
630,-559,0,0,0,0,0,0,0,0,0,-1,1854,1583,0,0
637,-559,0,0,0,0,0,0,0,0,0,-1,1861,1583,0,0
644,-559,0,0,0,0,0,0,0,0,0,-1,1868,1583,0,0
651,-559,0,0,0,0,0,0,0,0,0,-1,1875,1583,0,0
658,-559,0,0,0,0,0,0,0,0,0,-1,1882,1583,0,0
665,-559,0,0,0,0,0,0,0,0,0,-1,1889,1583,0,0
672,-559,0,0,0,0,0,0,0,0,0,-1,1896,1583,0,0
679,-559,0,0,0,0,0,0,0,0,0,-1,1903,1583,0,0
686,-559,0,0,0,0,0,0,0,0,0,-1,1910,1583,0,0
693,-559,0,0,0,0,0,0,0,0,0,-1,1917,1583,0,0
700,-559,0,0,0,0,0,0,0,0,0,-1,1924,1583,0,0
707,-559,0,0,0,0,0,0,0,0,0,-1,1931,1583,0,0
714,-559,0,0,0,0,0,0,0,0,0,-1,1938,1583,0,0
721,-559,0,0,0,0,0,0,0,0,0,-1,1945,1583,0,0
728,-559,0,0,0,0,0,0,0,0,0,-1,1952,1583,0,0
735,-559,0,0,0,0,0,0,0,0,0,-1,1959,1583,0,0
742,-559,0,0,0,0,0,0,0,0,0,-1,1966,1583,0,0
749,-559,0,0,0,0,0,0,0,0,0,-1,1973,1583,0,0
756,-559,0,0,0,0,0,0,0,0,0,-1,1980,1583,0,0
763,-559,0,0,0,0,0,0,0,0,0,-1,1987,1583,0,0
770,-559,0,0,0,0,0,0,0,0,0,-1,1994,1583,0,0
777,-559,0,0,0,0,0,0,0,0,0,-1,2001,1583,0,0
784,-559,0,0,0,0,0,0,0,0,0,-1,2008,1583,0,0
791,-559,0,0,0,0,0,0,0,0,0,-1,2015,1583,0,0
798,-559,0,0,0,0,0,0,0,0,0,-1,2022,1583,0,0
805,-559,0,0,0,0,0,0,0,0,0,-1,2029,1583,0,0
812,-559,0,0,0,0,0,0,0,0,0,-1,2036,1583,0,0
-700,-566,0,0,0,0,0,0,0,0,0,-1,524,1590,0,0
-693,-566,0,0,0,0,0,0,0,0,0,-1,531,1590,0,0
-686,-566,0,0,0,0,0,0,0,0,0,-1,538,1590,0,0
-679,-566,0,0,0,0,0,0,0,0,0,-1,545,1590,0,0
-672,-566,0,0,0,0,0,0,0,0,0,-1,552,1590,0,0
-665,-566,0,0,0,0,0,0,0,0,0,-1,559,1590,0,0
-658,-566,0,0,0,0,0,0,0,0,0,-1,566,1590,0,0
-651,-566,0,0,0,0,0,0,0,0,0,-1,573,1590,0,0
-644,-566,0,0,0,0,0,0,0,0,0,-1,580,1590,0,0
-637,-566,0,0,0,0,0,0,0,0,0,-1,587,1590,0,0
-630,-566,0,0,0,0,0,0,0,0,0,-1,594,1590,0,0
-623,-566,0,0,0,0,0,0,0,0,0,-1,601,1590,0,0
-616,-566,0,0,0,0,0,0,0,0,0,-1,608,1590,0,0
-609,-566,0,0,0,0,0,0,0,0,0,-1,615,1590,0,0
-602,-566,0,0,0,0,0,0,0,0,0,-1,622,1590,0,0
-595,-566,0,0,0,0,0,0,0,0,0,-1,629,1590,0,0
-588,-566,0,0,0,0,0,0,0,0,0,-1,636,1590,0,0
-581,-566,0,0,0,0,0,0,0,0,0,-1,643,1590,0,0
-574,-566,0,0,0,0,0,0,0,0,0,-1,650,1590,0,0
-567,-566,0,0,0,0,0,0,0,0,0,-1,657,1590,0,0
-560,-566,0,0,0,0,0,0,0,0,0,-1,664,1590,0,0
-553,-566,0,0,0,0,0,0,0,0,0,-1,671,1590,0,0
-546,-566,0,0,0,0,0,0,0,0,0,-1,678,1590,0,0
-539,-566,0,0,0,0,0,0,0,0,0,-1,685,1590,0,0
-532,-566,0,0,0,0,0,0,0,0,0,-1,692,1590,0,0
-525,-566,0,0,0,0,0,0,0,0,0,-1,699,1590,0,0
-518,-566,0,0,0,0,0,0,0,0,0,-1,706,1590,0,0
-511,-566,0,0,0,0,0,0,0,0,0,-1,713,1590,0,0
-504,-566,0,0,0,0,0,0,0,0,0,-1,720,1590,0,0
-497,-566,0,0,0,0,0,0,0,0,0,-1,727,1590,0,0
-490,-566,0,0,0,0,0,0,0,0,0,-1,734,1590,0,0
-483,-566,-7.17084,2.78613,0,0,0,0,0,0,0,-1,741,1590,-7.17083,-2.78618
-476,-566,-7.13971,2.87183,0,0,0,0,0,0,0,-1,748,1590,-7.13971,-2.87184
-469,-566,-6.43829,3.2998,0,0,0,0,0,0,0,-1,755,1590,-6.43829,-3.2998
-462,-566,-0.459106,3.89343,0,0,0,0,0,0,0,-1,762,1590,-0.459095,-3.89341
-455,-566,0.280212,4.74023,0,0,0,0,0,0,0,-1,769,1590,0.280207,-4.74023
-448,-566,0.436951,5.51306,0,0,0,0,0,0,0,-1,776,1590,0.436971,-5.51301
-441,-566,1.09808,10.748,0,0,0,0,0,0,0,-1,783,1590,1.09811,-10.748
-434,-566,1.0639,12.5565,0,0,0,0,0,0,0,-1,790,1590,1.06391,-12.5565
-427,-566,0.687866,12.6835,-0.00431033,0.000322599,0.000173028,0.000329052,-0.00431678,1.53352,0.00299358,0.0469121,797,1590,0.687889,-12.6835
-420,-566,0.623169,13.3145,-0.00388927,5.2302e-05,-2.78088e-05,5.24982e-05,-0.00388947,-1.56374,0.00261065,0.0491181,804,1590,0.623189,-13.3145
-413,-566,0.654175,13.5631,-0.0034047,-0.000140599,-5.21657e-05,-0.000139765,-0.00340553,-1.55482,0.00222523,0.0228552,811,1590,0.654168,-13.5631
-406,-566,0.661682,13.9036,-0.0027504,9.86452e-06,8.25096e-05,1.23287e-05,-0.00275286,1.54094,0.00183937,0.010527,818,1590,0.661695,-13.9036
-399,-566,0.660889,14.2506,-0.00216382,-3.45472e-05,0.000400178,3.8179e-05,-0.00223654,1.39102,0.00150392,0.00929523,825,1590,0.660882,-14.2506
-392,-566,0.638733,14.5935,-0.00144808,-5.43436e-05,0.000454466,8.07521e-05,-0.00158318,1.28185,0.00108337,0.0122833,832,1590,0.638703,-14.5935
-385,-566,0.64978,14.958,-0.000676042,0.00013135,0.000526843,0.000391381,-0.000936074,1.11231,0.000787619,0.0148471,839,1590,0.649764,-14.958
-378,-566,0.643066,15.3359,-0.000131951,0.000347667,0.000617238,0.000770044,-0.000554329,0.970683,0.000768,0.0153279,846,1590,0.64308,-15.336
-371,-566,0.611023,15.6805,0.000294657,0.000457916,0.00056214,0.000944323,-0.000191749,0.8575,0.000702246,0.0211326,853,1590,0.61101,-15.6805
-364,-566,0.609375,15.9894,0.000518843,0.000764461,0.000535498,0.00119105,9.22516e-05,0.898117,0.00076514,0.0212256,860,1590,0.609351,-15.9893
-357,-566,0.585815,16.3182,0.000586496,0.000778868,0.000591075,0.00128153,8.38325e-05,0.866057,0.000827827,0.0177552,867,1590,0.58582,-16.3182
-350,-566,0.598389,16.6361,0.000499642,0.00100108,0.000526535,0.00133354,0.000167182,1.0076,0.000838873,0.0196172,874,1590,0.598365,-16.6361
-343,-566,0.628296,16.9559,0.000600489,0.00108325,0.000543907,0.00143693,0.000246807,0.994237,0.000887203,0.0229126,881,1590,0.62829,-16.956
-336,-566,0.559143,17.2982,0.0011582,0.000954793,0.000976873,0.00203865,7.43435e-05,0.733529,0.00133501,0.022654,888,1590,0.559125,-17.2982
-329,-566,0.619812,17.5867,0.00145776,0.000820397,0.0013826,0.00255793,-0.000279771,0.672129,0.00180578,0.0169905,895,1590,0.619788,-17.5867
-322,-566,0.708984,17.9668,0.00175795,0.000561073,0.00178821,0.0030452,-0.00072618,0.623927,0.00231055,0.02253,902,1590,0.708961,-17.9668
-315,-566,0.972595,18.3223,0,0,0,0,0,0,0,-1,909,1590,0.972597,-18.3222
-308,-566,0.910828,18.5105,0.0034152,3.86746e-05,0.00323048,0.00537197,-0.00191809,0.544614,0.00436353,0.0402796,916,1590,0.910832,-18.5105
-301,-566,0.737549,19.0313,0.00472899,-0.000483206,0.00426023,0.00711702,-0.00287124,0.510899,0.00593785,0.0497003,923,1590,0.737557,-19.0313
-294,-566,1.09125,19.3195,0,0,0,0,0,0,0,-1,930,1590,1.09125,-19.3195
-287,-566,1.75061,19.4125,0,0,0,0,0,0,0,-1,937,1590,1.75062,-19.4124
-280,-566,1.59406,17.8762,0,0,0,0,0,0,0,-1,944,1590,1.59405,-17.8762
-273,-566,0.49762,11.2427,0,0,0,0,0,0,0,-1,951,1590,0.497591,-11.2426
-266,-566,0.392151,6.90295,0,0,0,0,0,0,0,-1,958,1590,0.392151,-6.90294
-259,-566,0.343628,6.47437,0,0,0,0,0,0,0,-1,965,1590,0.34363,-6.47438
-252,-566,-7.68311,1.01343,0,0,0,0,0,0,0,-1,972,1590,-7.68308,-1.01348
-245,-566,-11.1835,1.97522,0,0,0,0,0,0,0,-1,979,1590,-11.1835,-1.97527
-238,-566,-10.4883,2.40491,0,0,0,0,0,0,0,-1,986,1590,-10.4883,-2.40487
-231,-566,-7.41827,4.22803,0,0,0,0,0,0,0,-1,993,1590,-7.41827,-4.22803
-224,-566,-4.67188,6.30859,0,0,0,0,0,0,0,-1,1000,1590,-4.67185,-6.30853
-217,-566,-2.82867,7.52527,0,0,0,0,0,0,0,-1,1007,1590,-2.82869,-7.52531
-210,-566,-1.03436,8.67737,0,0,0,0,0,0,0,-1,1014,1590,-1.03439,-8.67733
-203,-566,0,0,0,0,0,0,0,0,0,-1,1021,1590,0,0
-196,-566,0,0,0,0,0,0,0,0,0,-1,1028,1590,0,0
-189,-566,0,0,0,0,0,0,0,0,0,-1,1035,1590,0,0
-182,-566,0,0,0,0,0,0,0,0,0,-1,1042,1590,0,0
-175,-566,0,0,0,0,0,0,0,0,0,-1,1049,1590,0,0
-168,-566,0,0,0,0,0,0,0,0,0,-1,1056,1590,0,0
-161,-566,0,0,0,0,0,0,0,0,0,-1,1063,1590,0,0
-154,-566,0,0,0,0,0,0,0,0,0,-1,1070,1590,0,0
-147,-566,0,0,0,0,0,0,0,0,0,-1,1077,1590,0,0
-140,-566,0,0,0,0,0,0,0,0,0,-1,1084,1590,0,0
-133,-566,0,0,0,0,0,0,0,0,0,-1,1091,1590,0,0
-126,-566,0,0,0,0,0,0,0,0,0,-1,1098,1590,0,0
-119,-566,0,0,0,0,0,0,0,0,0,-1,1105,1590,0,0
-112,-566,0,0,0,0,0,0,0,0,0,-1,1112,1590,0,0
-105,-566,0,0,0,0,0,0,0,0,0,-1,1119,1590,0,0
-98,-566,0,0,0,0,0,0,0,0,0,-1,1126,1590,0,0
-91,-566,0,0,0,0,0,0,0,0,0,-1,1133,1590,0,0
-84,-566,0,0,0,0,0,0,0,0,0,-1,1140,1590,0,0
-77,-566,0,0,0,0,0,0,0,0,0,-1,1147,1590,0,0
-70,-566,0,0,0,0,0,0,0,0,0,-1,1154,1590,0,0
-63,-566,0,0,0,0,0,0,0,0,0,-1,1161,1590,0,0
-56,-566,0,0,0,0,0,0,0,0,0,-1,1168,1590,0,0
-49,-566,0,0,0,0,0,0,0,0,0,-1,1175,1590,0,0
-42,-566,0,0,0,0,0,0,0,0,0,-1,1182,1590,0,0
-35,-566,0,0,0,0,0,0,0,0,0,-1,1189,1590,0,0
-28,-566,0,0,0,0,0,0,0,0,0,-1,1196,1590,0,0
-21,-566,0,0,0,0,0,0,0,0,0,-1,1203,1590,0,0
-14,-566,0,0,0,0,0,0,0,0,0,-1,1210,1590,0,0
-7,-566,0,0,0,0,0,0,0,0,0,-1,1217,1590,0,0
0,-566,0,0,0,0,0,0,0,0,0,-1,1224,1590,0,0
7,-566,0,0,0,0,0,0,0,0,0,-1,1231,1590,0,0
14,-566,0,0,0,0,0,0,0,0,0,-1,1238,1590,0,0
21,-566,0,0,0,0,0,0,0,0,0,-1,1245,1590,0,0
28,-566,0,0,0,0,0,0,0,0,0,-1,1252,1590,0,0
35,-566,0,0,0,0,0,0,0,0,0,-1,1259,1590,0,0
42,-566,0,0,0,0,0,0,0,0,0,-1,1266,1590,0,0
49,-566,0,0,0,0,0,0,0,0,0,-1,1273,1590,0,0
56,-566,0,0,0,0,0,0,0,0,0,-1,1280,1590,0,0
63,-566,0,0,0,0,0,0,0,0,0,-1,1287,1590,0,0
70,-566,0,0,0,0,0,0,0,0,0,-1,1294,1590,0,0
77,-566,0,0,0,0,0,0,0,0,0,-1,1301,1590,0,0
84,-566,0,0,0,0,0,0,0,0,0,-1,1308,1590,0,0
91,-566,0,0,0,0,0,0,0,0,0,-1,1315,1590,0,0
98,-566,0,0,0,0,0,0,0,0,0,-1,1322,1590,0,0
105,-566,0,0,0,0,0,0,0,0,0,-1,1329,1590,0,0
112,-566,0,0,0,0,0,0,0,0,0,-1,1336,1590,0,0
119,-566,0,0,0,0,0,0,0,0,0,-1,1343,1590,0,0
126,-566,0,0,0,0,0,0,0,0,0,-1,1350,1590,0,0
133,-566,0,0,0,0,0,0,0,0,0,-1,1357,1590,0,0
140,-566,0,0,0,0,0,0,0,0,0,-1,1364,1590,0,0
147,-566,0,0,0,0,0,0,0,0,0,-1,1371,1590,0,0
154,-566,0,0,0,0,0,0,0,0,0,-1,1378,1590,0,0
161,-566,0,0,0,0,0,0,0,0,0,-1,1385,1590,0,0
168,-566,0,0,0,0,0,0,0,0,0,-1,1392,1590,0,0
175,-566,0,0,0,0,0,0,0,0,0,-1,1399,1590,0,0
182,-566,0,0,0,0,0,0,0,0,0,-1,1406,1590,0,0
189,-566,0,0,0,0,0,0,0,0,0,-1,1413,1590,0,0
196,-566,0,0,0,0,0,0,0,0,0,-1,1420,1590,0,0
203,-566,0,0,0,0,0,0,0,0,0,-1,1427,1590,0,0
210,-566,0,0,0,0,0,0,0,0,0,-1,1434,1590,0,0
217,-566,0,0,0,0,0,0,0,0,0,-1,1441,1590,0,0
224,-566,0,0,0,0,0,0,0,0,0,-1,1448,1590,0,0
231,-566,0,0,0,0,0,0,0,0,0,-1,1455,1590,0,0
238,-566,0,0,0,0,0,0,0,0,0,-1,1462,1590,0,0
245,-566,0,0,0,0,0,0,0,0,0,-1,1469,1590,0,0
252,-566,0,0,0,0,0,0,0,0,0,-1,1476,1590,0,0
259,-566,0,0,0,0,0,0,0,0,0,-1,1483,1590,0,0
266,-566,0,0,0,0,0,0,0,0,0,-1,1490,1590,0,0
273,-566,0,0,0,0,0,0,0,0,0,-1,1497,1590,0,0
280,-566,0,0,0,0,0,0,0,0,0,-1,1504,1590,0,0
287,-566,0,0,0,0,0,0,0,0,0,-1,1511,1590,0,0
294,-566,0,0,0,0,0,0,0,0,0,-1,1518,1590,0,0
301,-566,0,0,0,0,0,0,0,0,0,-1,1525,1590,0,0
308,-566,0,0,0,0,0,0,0,0,0,-1,1532,1590,0,0
315,-566,0,0,0,0,0,0,0,0,0,-1,1539,1590,0,0
322,-566,6.07983,4.44873,0,0,0,0,0,0,0,-1,1546,1590,6.07983,-4.44873
329,-566,5.77026,3.47534,0,0,0,0,0,0,0,-1,1553,1590,5.77026,-3.47535
336,-566,5.41138,2.62915,0,0,0,0,0,0,0,-1,1560,1590,5.41138,-2.62909
343,-566,4.81873,1.79089,0,0,0,0,0,0,0,-1,1567,1590,4.81878,-1.79095
350,-566,4.41663,2.44214,0,0,0,0,0,0,0,-1,1574,1590,4.41666,-2.44214
357,-566,6.34058,5.18579,0,0,0,0,0,0,0,-1,1581,1590,6.34059,-5.1858
364,-566,6.06262,4.20251,0,0,0,0,0,0,0,-1,1588,1590,6.06259,-4.20246
371,-566,5.78455,3.21912,0,0,0,0,0,0,0,-1,1595,1590,5.7846,-3.21912
378,-566,5.7439,0.695557,0,0,0,0,0,0,0,-1,1602,1590,5.74392,-0.695531
385,-566,5.67615,-0.573975,0,0,0,0,0,0,0,-1,1609,1590,5.67612,0.573956
392,-566,5.78638,1.82434,0,0,0,0,0,0,0,-1,1616,1590,5.78637,-1.82439
399,-566,5.36621,1.7373,0,0,0,0,0,0,0,-1,1623,1590,5.36627,-1.7373
406,-566,4.30359,5.26868,0,0,0,0,0,0,0,-1,1630,1590,4.30364,-5.26867
413,-566,4.27124,5.79492,0,0,0,0,0,0,0,-1,1637,1590,4.27123,-5.7949
420,-566,7.19812,8.25146,0,0,0,0,0,0,0,-1,1644,1590,7.19817,-8.25149
427,-566,10.455,10.6842,0,0,0,0,0,0,0,-1,1651,1590,10.455,-10.6842
434,-566,9.18567,14.3304,0,0,0,0,0,0,0,-1,1658,1590,9.18571,-14.3305
441,-566,11.5741,18.9736,0,0,0,0,0,0,0,-1,1665,1590,11.5741,-18.9736
448,-566,11.4916,18.9775,0.000828046,-0.0126728,0.0193192,0.0145422,-0.0263869,0.617321,0.023958,0.0436471,1672,1590,11.4916,-18.9775
455,-566,11.3553,19.1174,0.000622435,-0.0103666,0.0155541,0.011624,-0.0213682,0.615613,0.019323,0.0394689,1679,1590,11.3554,-19.1174
462,-566,11.2997,18.8267,0.000358919,-0.00818785,0.0120361,0.00885776,-0.0166867,0.614816,0.0149772,0.023612,1686,1590,11.2997,-18.8267
469,-566,11.3578,18.3875,0.000210817,-0.00664618,0.00907695,0.00648518,-0.0129205,0.604824,0.0114074,0.0142132,1693,1590,11.3578,-18.3875
476,-566,11.4167,18.0525,0.000232883,-0.00512788,0.00662882,0.00470272,-0.00959773,0.593272,0.00841606,0.0107562,1700,1590,11.4167,-18.0525
483,-566,11.4237,17.7684,0.000116704,-0.00417171,0.0049499,0.00336686,-0.00742187,0.581008,0.00637384,0.0100842,1707,1590,11.4237,-17.7685
490,-566,11.3938,17.472,-1.75913e-05,-0.00340596,0.00373368,0.0023883,-0.00581185,0.572411,0.00486995,0.0103074,1714,1590,11.3938,-17.472
497,-566,11.3933,17.1595,-7.12792e-05,-0.00271353,0.00264612,0.00156518,-0.00434999,0.553867,0.00353903,0.0138169,1721,1590,11.3934,-17.1596
504,-566,11.3899,16.8694,-0.000520369,-0.00184831,0.00179338,0.000728008,-0.00309668,0.608105,0.0023451,0.0198231,1728,1590,11.3899,-16.8694
511,-566,11.3665,16.5565,-0.000575269,-0.00168913,0.00179533,0.00074753,-0.00301193,0.634999,0.00229802,0.0192662,1735,1590,11.3664,-16.5565
518,-566,11.3971,16.2404,-0.000777288,-0.00152006,0.00190284,0.00079007,-0.00308742,0.689023,0.00236602,0.0115157,1742,1590,11.3971,-16.2404
525,-566,11.3821,15.8969,-0.00118645,-0.00154894,0.00227481,0.000914327,-0.00364972,0.745645,0.00278835,0.0111501,1749,1590,11.3821,-15.8969
532,-566,11.3644,15.5856,-0.00182906,-0.00191531,0.00302806,0.00115618,-0.00490055,0.778278,0.00371293,0.0139269,1756,1590,11.3643,-15.5856
539,-566,11.3828,15.2498,-0.00275364,-0.00283528,0.00429334,0.00149908,-0.007088,0.780644,0.00529622,0.0179262,1763,1590,11.3828,-15.2497
546,-566,11.4482,14.8717,-0.00411666,-0.00470991,0.00625376,0.00184751,-0.0106741,0.7617,0.00780512,0.0214679,1770,1590,11.4483,-14.8717
553,-566,11.455,14.6874,-0.0057889,-0.00702635,0.00913231,0.00274562,-0.0155609,0.751574,0.0113999,0.0377338,1777,1590,11.4549,-14.6873
560,-566,11.2269,14.8412,-0.00747248,-0.00933079,0.0125018,0.00413462,-0.0209379,0.748305,0.0155215,0.0472882,1784,1590,11.227,-14.8411
567,-566,11.2596,14.9475,0,0,0,0,0,0,0,-1,1791,1590,11.2597,-14.9475
574,-566,7.99548,3.14514,0,0,0,0,0,0,0,-1,1798,1590,7.99543,-3.14511
581,-566,2.54102,5.1311,0,0,0,0,0,0,0,-1,1805,1590,2.54099,-5.13111
588,-566,-1.91321,8.39197,0,0,0,0,0,0,0,-1,1812,1590,-1.91316,-8.39199
595,-566,9.0271,4.66467,0,0,0,0,0,0,0,-1,1819,1590,9.02705,-4.66468
602,-566,9.953,3.54895,0,0,0,0,0,0,0,-1,1826,1590,9.953,-3.54898
609,-566,0,0,0,0,0,0,0,0,0,-1,1833,1590,0,0
616,-566,0,0,0,0,0,0,0,0,0,-1,1840,1590,0,0
623,-566,0,0,0,0,0,0,0,0,0,-1,1847,1590,0,0
630,-566,0,0,0,0,0,0,0,0,0,-1,1854,1590,0,0
637,-566,0,0,0,0,0,0,0,0,0,-1,1861,1590,0,0
644,-566,0,0,0,0,0,0,0,0,0,-1,1868,1590,0,0
651,-566,0,0,0,0,0,0,0,0,0,-1,1875,1590,0,0
658,-566,0,0,0,0,0,0,0,0,0,-1,1882,1590,0,0
665,-566,0,0,0,0,0,0,0,0,0,-1,1889,1590,0,0
672,-566,0,0,0,0,0,0,0,0,0,-1,1896,1590,0,0
679,-566,0,0,0,0,0,0,0,0,0,-1,1903,1590,0,0
686,-566,0,0,0,0,0,0,0,0,0,-1,1910,1590,0,0
693,-566,0,0,0,0,0,0,0,0,0,-1,1917,1590,0,0
700,-566,0,0,0,0,0,0,0,0,0,-1,1924,1590,0,0
707,-566,0,0,0,0,0,0,0,0,0,-1,1931,1590,0,0
714,-566,0,0,0,0,0,0,0,0,0,-1,1938,1590,0,0
721,-566,0,0,0,0,0,0,0,0,0,-1,1945,1590,0,0
728,-566,0,0,0,0,0,0,0,0,0,-1,1952,1590,0,0
735,-566,0,0,0,0,0,0,0,0,0,-1,1959,1590,0,0
742,-566,0,0,0,0,0,0,0,0,0,-1,1966,1590,0,0
749,-566,0,0,0,0,0,0,0,0,0,-1,1973,1590,0,0
756,-566,0,0,0,0,0,0,0,0,0,-1,1980,1590,0,0
763,-566,0,0,0,0,0,0,0,0,0,-1,1987,1590,0,0
770,-566,0,0,0,0,0,0,0,0,0,-1,1994,1590,0,0
777,-566,0,0,0,0,0,0,0,0,0,-1,2001,1590,0,0
784,-566,0,0,0,0,0,0,0,0,0,-1,2008,1590,0,0
791,-566,0,0,0,0,0,0,0,0,0,-1,2015,1590,0,0
798,-566,0,0,0,0,0,0,0,0,0,-1,2022,1590,0,0
805,-566,0,0,0,0,0,0,0,0,0,-1,2029,1590,0,0
812,-566,0,0,0,0,0,0,0,0,0,-1,2036,1590,0,0
-700,-573,0,0,0,0,0,0,0,0,0,-1,524,1597,0,0
-693,-573,0,0,0,0,0,0,0,0,0,-1,531,1597,0,0
-686,-573,0,0,0,0,0,0,0,0,0,-1,538,1597,0,0
-679,-573,0,0,0,0,0,0,0,0,0,-1,545,1597,0,0
-672,-573,0,0,0,0,0,0,0,0,0,-1,552,1597,0,0
-665,-573,0,0,0,0,0,0,0,0,0,-1,559,1597,0,0
-658,-573,0,0,0,0,0,0,0,0,0,-1,566,1597,0,0
-651,-573,0,0,0,0,0,0,0,0,0,-1,573,1597,0,0
-644,-573,0,0,0,0,0,0,0,0,0,-1,580,1597,0,0
-637,-573,0,0,0,0,0,0,0,0,0,-1,587,1597,0,0
-630,-573,0,0,0,0,0,0,0,0,0,-1,594,1597,0,0
-623,-573,0,0,0,0,0,0,0,0,0,-1,601,1597,0,0
-616,-573,0,0,0,0,0,0,0,0,0,-1,608,1597,0,0
-609,-573,0,0,0,0,0,0,0,0,0,-1,615,1597,0,0
-602,-573,0,0,0,0,0,0,0,0,0,-1,622,1597,0,0
-595,-573,0,0,0,0,0,0,0,0,0,-1,629,1597,0,0
-588,-573,0,0,0,0,0,0,0,0,0,-1,636,1597,0,0
-581,-573,0,0,0,0,0,0,0,0,0,-1,643,1597,0,0
-574,-573,0,0,0,0,0,0,0,0,0,-1,650,1597,0,0
-567,-573,0,0,0,0,0,0,0,0,0,-1,657,1597,0,0
-560,-573,0,0,0,0,0,0,0,0,0,-1,664,1597,0,0
-553,-573,0,0,0,0,0,0,0,0,0,-1,671,1597,0,0
-546,-573,0,0,0,0,0,0,0,0,0,-1,678,1597,0,0
-539,-573,0,0,0,0,0,0,0,0,0,-1,685,1597,0,0
-532,-573,0,0,0,0,0,0,0,0,0,-1,692,1597,0,0
-525,-573,0,0,0,0,0,0,0,0,0,-1,699,1597,0,0
-518,-573,0,0,0,0,0,0,0,0,0,-1,706,1597,0,0
-511,-573,0,0,0,0,0,0,0,0,0,-1,713,1597,0,0
-504,-573,0,0,0,0,0,0,0,0,0,-1,720,1597,0,0
-497,-573,0,0,0,0,0,0,0,0,0,-1,727,1597,0,0
-490,-573,0,0,0,0,0,0,0,0,0,-1,734,1597,0,0
-483,-573,0,0,0,0,0,0,0,0,0,-1,741,1597,0,0
-476,-573,-9.3327,0.972778,0,0,0,0,0,0,0,-1,748,1597,-9.33268,-0.972776
-469,-573,-1.41681,1.13379,0,0,0,0,0,0,0,-1,755,1597,-1.41681,-1.13382
-462,-573,-0.748535,2.02588,0,0,0,0,0,0,0,-1,762,1597,-0.748533,-2.02584
-455,-573,-0.112976,2.70703,0,0,0,0,0,0,0,-1,769,1597,-0.112988,-2.70697
-448,-573,-1.26172,3.33252,0,0,0,0,0,0,0,-1,776,1597,-1.26173,-3.33248
-441,-573,0.108582,5.06726,0,0,0,0,0,0,0,-1,783,1597,0.108584,-5.06721
-434,-573,1.61768,7.05444,0,0,0,0,0,0,0,-1,790,1597,1.61767,-7.05446
-427,-573,0.838257,12.4442,0,0,0,0,0,0,0,-1,797,1597,0.83826,-12.4442
-420,-573,1.27374,13.1085,0,0,0,0,0,0,0,-1,804,1597,1.27375,-13.1085
-413,-573,1.24561,13.468,-0.00413857,-0.000403795,0.000288252,-0.000381679,-0.00416068,1.49422,0.00265572,0.0482977,811,1597,1.24563,-13.4681
-406,-573,1.0155,13.8707,-0.00339881,-0.000462475,0.000321892,-0.000427602,-0.00343368,1.46288,0.00216074,0.022575,818,1597,1.01549,-13.8707
-399,-573,0.989441,14.2706,-0.0027726,-0.000702046,0.000522943,-0.000577466,-0.00289718,1.33693,0.00177064,0.0113133,825,1597,0.989467,-14.2707
-392,-573,0.998901,14.6178,-0.00204947,-0.000824407,0.000493551,-0.000650308,-0.00222357,1.23168,0.00132013,0.0113843,832,1597,0.998923,-14.6178
-385,-573,0.985962,14.9683,-0.00122249,-0.000673695,0.000490902,-0.000385706,-0.00151048,1.04025,0.000906205,0.0130623,839,1597,0.985955,-14.9682
-378,-573,0.989258,15.3055,-0.000541747,-0.000450484,0.00058355,8.92162e-05,-0.00108145,0.824417,0.000752469,0.014767,846,1597,0.989288,-15.3056
-371,-573,0.957703,15.667,-6.62118e-05,-0.000341894,0.000493845,0.000308669,-0.000716775,0.649303,0.000607468,0.0161603,853,1597,0.957724,-15.667
-364,-573,0.940308,16.0103,0.000233907,1.59521e-05,0.000472554,0.000609887,-0.000360028,0.672073,0.00056614,0.0192809,860,1597,0.940331,-16.0102
-357,-573,0.94043,16.3125,0.000451536,0.000107826,0.000554828,0.000860516,-0.000301153,0.635212,0.000696125,0.0225453,867,1597,0.940441,-16.3125
-350,-573,0.954651,16.6552,0.000555512,0.000395277,0.000533588,0.00101496,-6.41752e-05,0.710881,0.000699017,0.0169372,874,1597,0.954657,-16.6552
-343,-573,0.971252,16.9701,0.000821231,0.000551304,0.000609885,0.00131091,6.16277e-05,0.676506,0.000854138,0.0205864,881,1597,0.97127,-16.9701
-336,-573,0.935669,17.3115,0.00149297,0.000571301,0.00104485,0.00217409,-0.000109826,0.577704,0.00148736,0.0161465,888,1597,0.93567,-17.3115
-329,-573,0.953918,17.6417,0.00198446,0.000607915,0.00148367,0.00293173,-0.000339357,0.568223,0.00207687,0.0163838,895,1597,0.95394,-17.6417
-322,-573,0.97644,17.9716,0.00242872,0.000494913,0.00187783,0.00357396,-0.000650324,0.547648,0.00262639,0.0136966,902,1597,0.976418,-17.9716
-315,-573,1.10291,18.3805,0.00314402,0.000334722,0.0024067,0.004526,-0.00104725,0.521246,0.00342028,0.0271027,909,1597,1.1029,-18.3804
-308,-573,1.12842,18.5828,0.004086,0.000114772,0.00311118,0.0057912,-0.00159042,0.501374,0.00448592,0.0405855,916,1597,1.12842,-18.5828
-301,-573,1.18591,18.8414,0.00522219,-0.000322017,0.00392,0.00725123,-0.00235106,0.477637,0.0057795,0.0366614,923,1597,1.18592,-18.8415
-294,-573,1.24573,19.1302,0.00655976,-0.000844983,0.00485978,0.00896681,-0.00325203,0.45988,0.00730722,0.038837,930,1597,1.24574,-19.1303
-287,-573,1.80206,19.3473,0.00787418,-0.00154621,0.00588688,0.0107033,-0.00437533,0.447992,0.00895755,0.0468073,937,1597,1.80208,-19.3472
-280,-573,2.26941,19.6656,0,0,0,0,0,0,0,-1,944,1597,2.26944,-19.6656
-273,-573,0.99762,18.5568,0,0,0,0,0,0,0,-1,951,1597,0.997625,-18.5567
-266,-573,1.31116,7.1814,0,0,0,0,0,0,0,-1,958,1597,1.31118,-7.18142
-259,-573,1.2514,6.70959,0,0,0,0,0,0,0,-1,965,1597,1.25137,-6.70965
-252,-573,2.07874,5.27161,0,0,0,0,0,0,0,-1,972,1597,2.07875,-5.27157
-245,-573,-10.2592,1.09827,0,0,0,0,0,0,0,-1,979,1597,-10.2592,-1.09823
-238,-573,-11.5463,4.44141,0,0,0,0,0,0,0,-1,986,1597,-11.5463,-4.44146
-231,-573,-9.23431,4.14539,0,0,0,0,0,0,0,-1,993,1597,-9.23431,-4.14534
-224,-573,-6.70044,7.40857,0,0,0,0,0,0,0,-1,1000,1597,-6.70045,-7.40851
-217,-573,-4.25824,8.59119,0,0,0,0,0,0,0,-1,1007,1597,-4.25824,-8.59122
-210,-573,-2.39661,9.73914,0,0,0,0,0,0,0,-1,1014,1597,-2.39658,-9.73915
-203,-573,-0.557373,10.9005,0,0,0,0,0,0,0,-1,1021,1597,-0.557387,-10.9006
-196,-573,-1.65344,9.02246,0,0,0,0,0,0,0,-1,1028,1597,-1.65349,-9.02241
-189,-573,-6.12915,6.66882,0,0,0,0,0,0,0,-1,1035,1597,-6.12913,-6.66884
-182,-573,0,0,0,0,0,0,0,0,0,-1,1042,1597,0,0
-175,-573,0,0,0,0,0,0,0,0,0,-1,1049,1597,0,0
-168,-573,0,0,0,0,0,0,0,0,0,-1,1056,1597,0,0
-161,-573,0,0,0,0,0,0,0,0,0,-1,1063,1597,0,0
-154,-573,0,0,0,0,0,0,0,0,0,-1,1070,1597,0,0
-147,-573,0,0,0,0,0,0,0,0,0,-1,1077,1597,0,0
-140,-573,0,0,0,0,0,0,0,0,0,-1,1084,1597,0,0
-133,-573,0,0,0,0,0,0,0,0,0,-1,1091,1597,0,0
-126,-573,0,0,0,0,0,0,0,0,0,-1,1098,1597,0,0
-119,-573,0,0,0,0,0,0,0,0,0,-1,1105,1597,0,0
-112,-573,0,0,0,0,0,0,0,0,0,-1,1112,1597,0,0
-105,-573,0,0,0,0,0,0,0,0,0,-1,1119,1597,0,0
-98,-573,0,0,0,0,0,0,0,0,0,-1,1126,1597,0,0
-91,-573,0,0,0,0,0,0,0,0,0,-1,1133,1597,0,0
-84,-573,0,0,0,0,0,0,0,0,0,-1,1140,1597,0,0
-77,-573,0,0,0,0,0,0,0,0,0,-1,1147,1597,0,0
-70,-573,0,0,0,0,0,0,0,0,0,-1,1154,1597,0,0
-63,-573,0,0,0,0,0,0,0,0,0,-1,1161,1597,0,0
-56,-573,0,0,0,0,0,0,0,0,0,-1,1168,1597,0,0
-49,-573,0,0,0,0,0,0,0,0,0,-1,1175,1597,0,0
-42,-573,0,0,0,0,0,0,0,0,0,-1,1182,1597,0,0
-35,-573,0,0,0,0,0,0,0,0,0,-1,1189,1597,0,0
-28,-573,0,0,0,0,0,0,0,0,0,-1,1196,1597,0,0
-21,-573,0,0,0,0,0,0,0,0,0,-1,1203,1597,0,0
-14,-573,0,0,0,0,0,0,0,0,0,-1,1210,1597,0,0
-7,-573,0,0,0,0,0,0,0,0,0,-1,1217,1597,0,0
0,-573,0,0,0,0,0,0,0,0,0,-1,1224,1597,0,0
7,-573,0,0,0,0,0,0,0,0,0,-1,1231,1597,0,0
14,-573,0,0,0,0,0,0,0,0,0,-1,1238,1597,0,0
21,-573,0,0,0,0,0,0,0,0,0,-1,1245,1597,0,0
28,-573,0,0,0,0,0,0,0,0,0,-1,1252,1597,0,0
35,-573,0,0,0,0,0,0,0,0,0,-1,1259,1597,0,0
42,-573,0,0,0,0,0,0,0,0,0,-1,1266,1597,0,0
49,-573,0,0,0,0,0,0,0,0,0,-1,1273,1597,0,0
56,-573,0,0,0,0,0,0,0,0,0,-1,1280,1597,0,0
63,-573,0,0,0,0,0,0,0,0,0,-1,1287,1597,0,0
70,-573,0,0,0,0,0,0,0,0,0,-1,1294,1597,0,0
77,-573,0,0,0,0,0,0,0,0,0,-1,1301,1597,0,0
84,-573,0,0,0,0,0,0,0,0,0,-1,1308,1597,0,0
91,-573,0,0,0,0,0,0,0,0,0,-1,1315,1597,0,0
98,-573,0,0,0,0,0,0,0,0,0,-1,1322,1597,0,0
105,-573,0,0,0,0,0,0,0,0,0,-1,1329,1597,0,0
112,-573,0,0,0,0,0,0,0,0,0,-1,1336,1597,0,0
119,-573,0,0,0,0,0,0,0,0,0,-1,1343,1597,0,0
126,-573,0,0,0,0,0,0,0,0,0,-1,1350,1597,0,0
133,-573,0,0,0,0,0,0,0,0,0,-1,1357,1597,0,0
140,-573,0,0,0,0,0,0,0,0,0,-1,1364,1597,0,0
147,-573,0,0,0,0,0,0,0,0,0,-1,1371,1597,0,0
154,-573,0,0,0,0,0,0,0,0,0,-1,1378,1597,0,0
161,-573,0,0,0,0,0,0,0,0,0,-1,1385,1597,0,0
168,-573,0,0,0,0,0,0,0,0,0,-1,1392,1597,0,0
175,-573,0,0,0,0,0,0,0,0,0,-1,1399,1597,0,0
182,-573,0,0,0,0,0,0,0,0,0,-1,1406,1597,0,0
189,-573,0,0,0,0,0,0,0,0,0,-1,1413,1597,0,0
196,-573,0,0,0,0,0,0,0,0,0,-1,1420,1597,0,0
203,-573,0,0,0,0,0,0,0,0,0,-1,1427,1597,0,0
210,-573,0,0,0,0,0,0,0,0,0,-1,1434,1597,0,0
217,-573,0,0,0,0,0,0,0,0,0,-1,1441,1597,0,0
224,-573,0,0,0,0,0,0,0,0,0,-1,1448,1597,0,0
231,-573,0,0,0,0,0,0,0,0,0,-1,1455,1597,0,0
238,-573,0,0,0,0,0,0,0,0,0,-1,1462,1597,0,0
245,-573,0,0,0,0,0,0,0,0,0,-1,1469,1597,0,0
252,-573,0,0,0,0,0,0,0,0,0,-1,1476,1597,0,0
259,-573,0,0,0,0,0,0,0,0,0,-1,1483,1597,0,0
266,-573,0,0,0,0,0,0,0,0,0,-1,1490,1597,0,0
273,-573,0,0,0,0,0,0,0,0,0,-1,1497,1597,0,0
280,-573,0,0,0,0,0,0,0,0,0,-1,1504,1597,0,0
287,-573,0,0,0,0,0,0,0,0,0,-1,1511,1597,0,0
294,-573,0,0,0,0,0,0,0,0,0,-1,1518,1597,0,0
301,-573,0,0,0,0,0,0,0,0,0,-1,1525,1597,0,0
308,-573,5.93042,9.71143,0,0,0,0,0,0,0,-1,1532,1597,5.93046,-9.71144
315,-573,4.34204,11.719,0,0,0,0,0,0,0,-1,1539,1597,4.34205,-11.719
322,-573,10.3269,7.77563,0,0,0,0,0,0,0,-1,1546,1597,10.327,-7.77565
329,-573,4.99573,3.80273,0,0,0,0,0,0,0,-1,1553,1597,4.9957,-3.80273
336,-573,4.85693,2.53455,0,0,0,0,0,0,0,-1,1560,1597,4.8569,-2.53459
343,-573,5.5946,2.15894,0,0,0,0,0,0,0,-1,1567,1597,5.59456,-2.1589
350,-573,2.53748,1.56433,0,0,0,0,0,0,0,-1,1574,1597,2.53753,-1.5643
357,-573,7.40247,4.03613,0,0,0,0,0,0,0,-1,1581,1597,7.40244,-4.03614
364,-573,7.14551,3.02087,0,0,0,0,0,0,0,-1,1588,1597,7.14556,-3.02084
371,-573,6.88867,2.00549,0,0,0,0,0,0,0,-1,1595,1597,6.88868,-2.00553
378,-573,8.62012,6.09106,0,0,0,0,0,0,0,-1,1602,1597,8.62012,-6.09103
385,-573,6.54346,-0.951904,0,0,0,0,0,0,0,-1,1609,1597,6.54349,0.951901
392,-573,6.41833,-2.18225,0,0,0,0,0,0,0,-1,1616,1597,6.41831,2.18228
399,-573,4.26282,4.73657,0,0,0,0,0,0,0,-1,1623,1597,4.26285,-4.73652
406,-573,6.82715,10.823,0,0,0,0,0,0,0,-1,1630,1597,6.82719,-10.823
413,-573,8.90552,13.1737,0,0,0,0,0,0,0,-1,1637,1597,8.90553,-13.1737
420,-573,12.1113,19.4364,0,0,0,0,0,0,0,-1,1644,1597,12.1114,-19.4364
427,-573,11.7933,19.689,0,0,0,0,0,0,0,-1,1651,1597,11.7934,-19.689
434,-573,11.0018,19.7725,0,0,0,0,0,0,0,-1,1658,1597,11.0018,-19.7725
441,-573,11.2485,19.5804,-0.000759299,-0.010168,0.0168854,0.0120648,-0.0229921,0.649541,0.0205653,0.0406972,1665,1597,11.2485,-19.5805
448,-573,11.073,19.4474,-0.000466075,-0.00821514,0.0136655,0.00986355,-0.0185448,0.64726,0.0166549,0.0290547,1672,1597,11.073,-19.4474
455,-573,11.0419,19.0519,-0.000289993,-0.006549,0.0107967,0.00782165,-0.0146606,0.644336,0.0131788,0.0220732,1679,1597,11.0419,-19.0519
462,-573,11.0767,18.6484,-0.000225047,-0.0049222,0.00814884,0.00590691,-0.0110542,0.645095,0.00994165,0.0192476,1686,1597,11.0766,-18.6485
469,-573,11.0969,18.3542,-0.000117672,-0.00382439,0.00591659,0.00422904,-0.00817111,0.633615,0.00727882,0.0149725,1693,1597,11.097,-18.3543
476,-573,11.1279,18.0474,7.91324e-05,-0.00270818,0.00402959,0.00294926,-0.0055783,0.618909,0.00500078,0.0141589,1700,1597,11.1279,-18.0474
483,-573,11.1199,17.7655,0.000115041,-0.00211476,0.00278901,0.00200373,-0.00400345,0.595254,0.00353172,0.0118538,1707,1597,11.1199,-17.7655
490,-573,11.0939,17.4795,9.27771e-05,-0.00168218,0.0019149,0.00131586,-0.00290526,0.568403,0.00249398,0.0104714,1714,1597,11.0939,-17.4795
497,-573,11.0873,17.1543,6.23071e-05,-0.00129651,0.00115217,0.000720464,-0.00195467,0.519,0.00159834,0.0148182,1721,1597,11.0873,-17.1543
504,-573,11.0928,16.8557,-0.000344167,-0.000825188,0.000790056,0.000241176,-0.00141053,0.637644,0.0010302,0.0169862,1728,1597,11.0927,-16.8557
511,-573,11.1112,16.5225,-0.000514788,-0.000993232,0.00113806,0.00040892,-0.00191694,0.681805,0.00143384,0.0183681,1735,1597,11.1113,-16.5224
518,-573,11.0884,16.2328,-0.000841175,-0.00112884,0.00160649,0.000627912,-0.00259792,0.740752,0.00197481,0.0138361,1742,1597,11.0884,-16.2327
525,-573,11.0697,15.9242,-0.00142543,-0.00150233,0.00242344,0.000959868,-0.00388762,0.777466,0.00296397,0.0163496,1749,1597,11.0698,-15.9243
532,-573,11.0908,15.6017,-0.00230142,-0.00222817,0.00368569,0.00142108,-0.00595067,0.790366,0.00451596,0.0162597,1756,1597,11.0908,-15.6016
539,-573,11.0803,15.2838,-0.00363981,-0.00361356,0.0056256,0.00199893,-0.0092523,0.786565,0.00693127,0.0248078,1763,1597,11.0804,-15.2839
546,-573,11.1079,14.9431,-0.00569756,-0.00621233,0.00850799,0.00255694,-0.0144668,0.770277,0.0106002,0.0429384,1770,1597,11.108,-14.9431
553,-573,10.4552,14.8274,-0.00826176,-0.00901917,0.0123218,0.00368714,-0.0209681,0.770036,0.015356,0.0483221,1777,1597,10.4552,-14.8274
560,-573,10.3933,15.0507,0,0,0,0,0,0,0,-1,1784,1597,10.3933,-15.0506
567,-573,4.99597,2.77759,0,0,0,0,0,0,0,-1,1791,1597,4.99596,-2.7776
574,-573,0.83374,5.7041,0,0,0,0,0,0,0,-1,1798,1597,0.833718,-5.70405
581,-573,-0.224854,7.41602,0,0,0,0,0,0,0,-1,1805,1597,-0.224904,-7.41596
588,-573,-0.134033,7.67065,0,0,0,0,0,0,0,-1,1812,1597,-0.134037,-7.67063
595,-573,-0.0825195,8.35083,0,0,0,0,0,0,0,-1,1819,1597,-0.0824684,-8.35088
602,-573,0,0,0,0,0,0,0,0,0,-1,1826,1597,0,0
609,-573,0,0,0,0,0,0,0,0,0,-1,1833,1597,0,0
616,-573,0,0,0,0,0,0,0,0,0,-1,1840,1597,0,0
623,-573,0,0,0,0,0,0,0,0,0,-1,1847,1597,0,0
630,-573,0,0,0,0,0,0,0,0,0,-1,1854,1597,0,0
637,-573,0,0,0,0,0,0,0,0,0,-1,1861,1597,0,0
644,-573,0,0,0,0,0,0,0,0,0,-1,1868,1597,0,0
651,-573,0,0,0,0,0,0,0,0,0,-1,1875,1597,0,0
658,-573,0,0,0,0,0,0,0,0,0,-1,1882,1597,0,0
665,-573,0,0,0,0,0,0,0,0,0,-1,1889,1597,0,0
672,-573,0,0,0,0,0,0,0,0,0,-1,1896,1597,0,0
679,-573,0,0,0,0,0,0,0,0,0,-1,1903,1597,0,0
686,-573,0,0,0,0,0,0,0,0,0,-1,1910,1597,0,0
693,-573,0,0,0,0,0,0,0,0,0,-1,1917,1597,0,0
700,-573,0,0,0,0,0,0,0,0,0,-1,1924,1597,0,0
707,-573,0,0,0,0,0,0,0,0,0,-1,1931,1597,0,0
714,-573,0,0,0,0,0,0,0,0,0,-1,1938,1597,0,0
721,-573,0,0,0,0,0,0,0,0,0,-1,1945,1597,0,0
728,-573,0,0,0,0,0,0,0,0,0,-1,1952,1597,0,0
735,-573,0,0,0,0,0,0,0,0,0,-1,1959,1597,0,0
742,-573,0,0,0,0,0,0,0,0,0,-1,1966,1597,0,0
749,-573,0,0,0,0,0,0,0,0,0,-1,1973,1597,0,0
756,-573,0,0,0,0,0,0,0,0,0,-1,1980,1597,0,0
763,-573,0,0,0,0,0,0,0,0,0,-1,1987,1597,0,0
770,-573,0,0,0,0,0,0,0,0,0,-1,1994,1597,0,0
777,-573,0,0,0,0,0,0,0,0,0,-1,2001,1597,0,0
784,-573,0,0,0,0,0,0,0,0,0,-1,2008,1597,0,0
791,-573,0,0,0,0,0,0,0,0,0,-1,2015,1597,0,0
798,-573,0,0,0,0,0,0,0,0,0,-1,2022,1597,0,0
805,-573,0,0,0,0,0,0,0,0,0,-1,2029,1597,0,0
812,-573,0,0,0,0,0,0,0,0,0,-1,2036,1597,0,0
-700,-580,0,0,0,0,0,0,0,0,0,-1,524,1604,0,0
-693,-580,0,0,0,0,0,0,0,0,0,-1,531,1604,0,0
-686,-580,0,0,0,0,0,0,0,0,0,-1,538,1604,0,0
-679,-580,0,0,0,0,0,0,0,0,0,-1,545,1604,0,0
-672,-580,0,0,0,0,0,0,0,0,0,-1,552,1604,0,0
-665,-580,0,0,0,0,0,0,0,0,0,-1,559,1604,0,0
-658,-580,0,0,0,0,0,0,0,0,0,-1,566,1604,0,0
-651,-580,0,0,0,0,0,0,0,0,0,-1,573,1604,0,0
-644,-580,0,0,0,0,0,0,0,0,0,-1,580,1604,0,0
-637,-580,0,0,0,0,0,0,0,0,0,-1,587,1604,0,0
-630,-580,0,0,0,0,0,0,0,0,0,-1,594,1604,0,0
-623,-580,0,0,0,0,0,0,0,0,0,-1,601,1604,0,0
-616,-580,0,0,0,0,0,0,0,0,0,-1,608,1604,0,0
-609,-580,0,0,0,0,0,0,0,0,0,-1,615,1604,0,0
-602,-580,0,0,0,0,0,0,0,0,0,-1,622,1604,0,0
-595,-580,0,0,0,0,0,0,0,0,0,-1,629,1604,0,0
-588,-580,0,0,0,0,0,0,0,0,0,-1,636,1604,0,0
-581,-580,0,0,0,0,0,0,0,0,0,-1,643,1604,0,0
-574,-580,0,0,0,0,0,0,0,0,0,-1,650,1604,0,0
-567,-580,0,0,0,0,0,0,0,0,0,-1,657,1604,0,0
-560,-580,0,0,0,0,0,0,0,0,0,-1,664,1604,0,0
-553,-580,0,0,0,0,0,0,0,0,0,-1,671,1604,0,0
-546,-580,0,0,0,0,0,0,0,0,0,-1,678,1604,0,0
-539,-580,0,0,0,0,0,0,0,0,0,-1,685,1604,0,0
-532,-580,0,0,0,0,0,0,0,0,0,-1,692,1604,0,0
-525,-580,0,0,0,0,0,0,0,0,0,-1,699,1604,0,0
-518,-580,0,0,0,0,0,0,0,0,0,-1,706,1604,0,0
-511,-580,0,0,0,0,0,0,0,0,0,-1,713,1604,0,0
-504,-580,0,0,0,0,0,0,0,0,0,-1,720,1604,0,0
-497,-580,0,0,0,0,0,0,0,0,0,-1,727,1604,0,0
-490,-580,0,0,0,0,0,0,0,0,0,-1,734,1604,0,0
-483,-580,0,0,0,0,0,0,0,0,0,-1,741,1604,0,0
-476,-580,0,0,0,0,0,0,0,0,0,-1,748,1604,0,0
-469,-580,-1.69189,-0.38916,0,0,0,0,0,0,0,-1,755,1604,-1.69192,0.389188
-462,-580,-0.859863,0.675293,0,0,0,0,0,0,0,-1,762,1604,-0.859834,-0.675245
-455,-580,-0.730164,0.651978,0,0,0,0,0,0,0,-1,769,1604,-0.730153,-0.651957
-448,-580,-3.31891,2.07544,0,0,0,0,0,0,0,-1,776,1604,-3.3189,-2.07539
-441,-580,-1.63843,3.9469,0,0,0,0,0,0,0,-1,783,1604,-1.63842,-3.94695
-434,-580,0.23291,5.97876,0,0,0,0,0,0,0,-1,790,1604,0.232901,-5.97878
-427,-580,1.62756,8.05493,0,0,0,0,0,0,0,-1,797,1604,1.62758,-8.05488
-420,-580,0.986572,11.2383,0,0,0,0,0,0,0,-1,804,1604,0.986544,-11.2382
-413,-580,1.35632,13.5321,0,0,0,0,0,0,0,-1,811,1604,1.35635,-13.5321
-406,-580,1.42871,13.9379,-0.00391374,-0.00097437,0.000812804,-0.000764583,-0.00412352,1.31821,0.00253292,0.0474554,818,1604,1.42871,-13.9378
-399,-580,1.33942,14.2949,-0.0032202,-0.0014058,0.000873548,-0.0010536,-0.0035724,1.18754,0.00211956,0.021334,825,1604,1.33941,-14.2949
-392,-580,1.32916,14.6444,-0.00244756,-0.00162422,0.000728721,-0.00119893,-0.00287285,1.04251,0.00166618,0.01305,832,1604,1.32914,-14.6445
-385,-580,1.33167,14.9868,-0.00156463,-0.00148943,0.000625929,-0.000899973,-0.00215409,0.815396,0.00124925,0.0122034,839,1604,1.33166,-14.9869
-378,-580,1.31036,15.3289,-0.000787933,-0.00124075,0.000677984,-0.000299553,-0.00172913,0.624247,0.00106701,0.0154287,846,1604,1.31037,-15.3288
-371,-580,1.28687,15.6929,-0.000295549,-0.00111087,0.000525469,-3.81502e-05,-0.00136827,0.455492,0.000899734,0.0145851,853,1604,1.28687,-15.6929
-364,-580,1.28864,16.0443,3.85285e-05,-0.000704945,0.000473915,0.000269107,-0.000935523,0.452822,0.000730108,0.0203443,860,1604,1.28865,-16.0444
-357,-580,1.29681,16.3372,0.000346988,-0.00053198,0.000539177,0.000603103,-0.000788095,0.443457,0.000805572,0.0141036,867,1604,1.29679,-16.3371
-350,-580,1.31921,16.6843,0.00056493,-0.000193377,0.000523567,0.000832212,-0.00046066,0.472015,0.000756645,0.0107824,874,1604,1.3192,-16.6844
-343,-580,1.28809,16.9794,0.000887599,2.59397e-05,0.000612389,0.00120552,-0.000291986,0.478855,0.000916647,0.0114893,881,1604,1.28806,-16.9794
-336,-580,1.28448,17.252,0.00152972,0.000176488,0.000977727,0.00204212,-0.000335911,0.482719,0.0014861,0.0194381,888,1604,1.28449,-17.2519
-329,-580,1.2915,17.618,0.00206519,0.000340261,0.00138288,0.00283251,-0.000427057,0.506575,0.0020456,0.0175119,895,1604,1.29152,-17.6181
-322,-580,1.28552,17.965,0.00253752,0.000373167,0.00175198,0.0035146,-0.00060391,0.508736,0.00256815,0.0196018,902,1604,1.28553,-17.965
-315,-580,1.29993,18.2915,0.00319152,0.000284524,0.00219607,0.00437153,-0.000895486,0.493063,0.00325418,0.0183995,909,1604,1.29994,-18.2915
-308,-580,1.36426,18.7059,0.00399946,0.000134879,0.00275345,0.00543098,-0.00129664,0.479441,0.00412143,0.0245548,916,1604,1.36428,-18.706
-301,-580,1.43127,18.8772,0.0049166,-0.000206061,0.00335647,0.0065774,-0.00186685,0.459481,0.00512191,0.023221,923,1604,1.43126,-18.8771
-294,-580,1.39746,19.063,0.00594427,-0.000516615,0.00404382,0.00788957,-0.00246191,0.448376,0.00624427,0.0261961,930,1604,1.39746,-19.063
-287,-580,1.60712,19.4819,0.00698271,-0.00104067,0.00472412,0.00916868,-0.00322664,0.433386,0.00742548,0.040005,937,1604,1.60711,-19.482
-280,-580,1.61774,19.8547,0.00844978,-0.00153276,0.00536366,0.0107853,-0.00386827,0.410672,0.00876879,0.0494876,944,1604,1.61773,-19.8547
-273,-580,1.45941,20.076,0,0,0,0,0,0,0,-1,951,1604,1.45941,-20.0761
-266,-580,0.315002,19.1315,0,0,0,0,0,0,0,-1,958,1604,0.315029,-19.1314
-259,-580,1.31091,9.11536,0,0,0,0,0,0,0,-1,965,1604,1.31092,-9.11539
-252,-580,1.07629,7.74097,0,0,0,0,0,0,0,-1,972,1604,1.07627,-7.74101
-245,-580,3.80304,9.16028,0,0,0,0,0,0,0,-1,979,1604,3.80306,-9.16034
-238,-580,-10.3588,1.57556,0,0,0,0,0,0,0,-1,986,1604,-10.3588,-1.5755
-231,-580,-10.576,6.43787,0,0,0,0,0,0,0,-1,993,1604,-10.576,-6.43783
-224,-580,-8.27435,7.58972,0,0,0,0,0,0,0,-1,1000,1604,-8.27435,-7.5897
-217,-580,-5.85632,9.51221,0,0,0,0,0,0,0,-1,1007,1604,-5.85632,-9.5122
-210,-580,-3.6684,11.1569,0,0,0,0,0,0,0,-1,1014,1604,-3.66839,-11.1569
-203,-580,-1.92474,12.7845,0,0,0,0,0,0,0,-1,1021,1604,-1.92477,-12.7845
-196,-580,-2.28552,10.3289,0,0,0,0,0,0,0,-1,1028,1604,-2.28552,-10.3288
-189,-580,-4.58252,7.59058,0,0,0,0,0,0,0,-1,1035,1604,-4.58256,-7.59057
-182,-580,-5.45874,7.65942,0,0,0,0,0,0,0,-1,1042,1604,-5.45876,-7.65939
-175,-580,-6.38977,7.55005,0,0,0,0,0,0,0,-1,1049,1604,-6.38981,-7.5501
-168,-580,0,0,0,0,0,0,0,0,0,-1,1056,1604,0,0
-161,-580,0,0,0,0,0,0,0,0,0,-1,1063,1604,0,0
-154,-580,0,0,0,0,0,0,0,0,0,-1,1070,1604,0,0
-147,-580,0,0,0,0,0,0,0,0,0,-1,1077,1604,0,0
-140,-580,0,0,0,0,0,0,0,0,0,-1,1084,1604,0,0
-133,-580,0,0,0,0,0,0,0,0,0,-1,1091,1604,0,0
-126,-580,0,0,0,0,0,0,0,0,0,-1,1098,1604,0,0
-119,-580,0,0,0,0,0,0,0,0,0,-1,1105,1604,0,0
-112,-580,0,0,0,0,0,0,0,0,0,-1,1112,1604,0,0
-105,-580,0,0,0,0,0,0,0,0,0,-1,1119,1604,0,0
-98,-580,0,0,0,0,0,0,0,0,0,-1,1126,1604,0,0
-91,-580,0,0,0,0,0,0,0,0,0,-1,1133,1604,0,0
-84,-580,0,0,0,0,0,0,0,0,0,-1,1140,1604,0,0
-77,-580,0,0,0,0,0,0,0,0,0,-1,1147,1604,0,0
-70,-580,0,0,0,0,0,0,0,0,0,-1,1154,1604,0,0
-63,-580,0,0,0,0,0,0,0,0,0,-1,1161,1604,0,0
-56,-580,0,0,0,0,0,0,0,0,0,-1,1168,1604,0,0
-49,-580,0,0,0,0,0,0,0,0,0,-1,1175,1604,0,0
-42,-580,0,0,0,0,0,0,0,0,0,-1,1182,1604,0,0
-35,-580,0,0,0,0,0,0,0,0,0,-1,1189,1604,0,0
-28,-580,0,0,0,0,0,0,0,0,0,-1,1196,1604,0,0
-21,-580,0,0,0,0,0,0,0,0,0,-1,1203,1604,0,0
-14,-580,0,0,0,0,0,0,0,0,0,-1,1210,1604,0,0
-7,-580,0,0,0,0,0,0,0,0,0,-1,1217,1604,0,0
0,-580,0,0,0,0,0,0,0,0,0,-1,1224,1604,0,0
7,-580,0,0,0,0,0,0,0,0,0,-1,1231,1604,0,0
14,-580,0,0,0,0,0,0,0,0,0,-1,1238,1604,0,0
21,-580,0,0,0,0,0,0,0,0,0,-1,1245,1604,0,0
28,-580,0,0,0,0,0,0,0,0,0,-1,1252,1604,0,0
35,-580,0,0,0,0,0,0,0,0,0,-1,1259,1604,0,0
42,-580,0,0,0,0,0,0,0,0,0,-1,1266,1604,0,0
49,-580,0,0,0,0,0,0,0,0,0,-1,1273,1604,0,0
56,-580,0,0,0,0,0,0,0,0,0,-1,1280,1604,0,0
63,-580,0,0,0,0,0,0,0,0,0,-1,1287,1604,0,0
70,-580,0,0,0,0,0,0,0,0,0,-1,1294,1604,0,0
77,-580,0,0,0,0,0,0,0,0,0,-1,1301,1604,0,0
84,-580,0,0,0,0,0,0,0,0,0,-1,1308,1604,0,0
91,-580,0,0,0,0,0,0,0,0,0,-1,1315,1604,0,0
98,-580,0,0,0,0,0,0,0,0,0,-1,1322,1604,0,0
105,-580,0,0,0,0,0,0,0,0,0,-1,1329,1604,0,0
112,-580,0,0,0,0,0,0,0,0,0,-1,1336,1604,0,0
119,-580,0,0,0,0,0,0,0,0,0,-1,1343,1604,0,0
126,-580,0,0,0,0,0,0,0,0,0,-1,1350,1604,0,0
133,-580,0,0,0,0,0,0,0,0,0,-1,1357,1604,0,0
140,-580,0,0,0,0,0,0,0,0,0,-1,1364,1604,0,0
147,-580,0,0,0,0,0,0,0,0,0,-1,1371,1604,0,0
154,-580,0,0,0,0,0,0,0,0,0,-1,1378,1604,0,0
161,-580,0,0,0,0,0,0,0,0,0,-1,1385,1604,0,0
168,-580,0,0,0,0,0,0,0,0,0,-1,1392,1604,0,0
175,-580,0,0,0,0,0,0,0,0,0,-1,1399,1604,0,0
182,-580,0,0,0,0,0,0,0,0,0,-1,1406,1604,0,0
189,-580,0,0,0,0,0,0,0,0,0,-1,1413,1604,0,0
196,-580,0,0,0,0,0,0,0,0,0,-1,1420,1604,0,0
203,-580,0,0,0,0,0,0,0,0,0,-1,1427,1604,0,0
210,-580,0,0,0,0,0,0,0,0,0,-1,1434,1604,0,0
217,-580,0,0,0,0,0,0,0,0,0,-1,1441,1604,0,0
224,-580,0,0,0,0,0,0,0,0,0,-1,1448,1604,0,0
231,-580,0,0,0,0,0,0,0,0,0,-1,1455,1604,0,0
238,-580,0,0,0,0,0,0,0,0,0,-1,1462,1604,0,0
245,-580,0,0,0,0,0,0,0,0,0,-1,1469,1604,0,0
252,-580,0,0,0,0,0,0,0,0,0,-1,1476,1604,0,0
259,-580,0,0,0,0,0,0,0,0,0,-1,1483,1604,0,0
266,-580,0,0,0,0,0,0,0,0,0,-1,1490,1604,0,0
273,-580,0,0,0,0,0,0,0,0,0,-1,1497,1604,0,0
280,-580,0,0,0,0,0,0,0,0,0,-1,1504,1604,0,0
287,-580,0,0,0,0,0,0,0,0,0,-1,1511,1604,0,0
294,-580,4.0437,0.177368,0,0,0,0,0,0,0,-1,1518,1604,4.04369,-0.177371
301,-580,7.55164,8.05798,0,0,0,0,0,0,0,-1,1525,1604,7.55158,-8.05802
308,-580,5.9126,9.99341,0,0,0,0,0,0,0,-1,1532,1604,5.91255,-9.99337
315,-580,4.27356,11.9287,0,0,0,0,0,0,0,-1,1539,1604,4.27352,-11.9287
322,-580,10.2366,7.50281,0,0,0,0,0,0,0,-1,1546,1604,10.2366,-7.50282
329,-580,10.5962,8.69641,0,0,0,0,0,0,0,-1,1553,1604,10.5962,-8.69642
336,-580,3.66431,1.58862,0,0,0,0,0,0,0,-1,1560,1604,3.6643,-1.58864
343,-580,3.32227,1.39636,0,0,0,0,0,0,0,-1,1567,1604,3.32222,-1.39633
350,-580,8.71277,4.0564,0,0,0,0,0,0,0,-1,1574,1604,8.71271,-4.05638
357,-580,8.52332,3.08154,0,0,0,0,0,0,0,-1,1581,1604,8.52332,-3.08157
364,-580,8.25818,2.07605,0,0,0,0,0,0,0,-1,1588,1604,8.25812,-2.07608
371,-580,7.42114,7.14282,0,0,0,0,0,0,0,-1,1595,1604,7.42119,-7.14281
378,-580,7.9718,6.6731,0,0,0,0,0,0,0,-1,1602,1604,7.9718,-6.67307
385,-580,8.52246,6.20337,0,0,0,0,0,0,0,-1,1609,1604,8.52241,-6.20334
392,-580,6.5498,-2.15625,0,0,0,0,0,0,0,-1,1616,1604,6.54984,2.15626
399,-580,6.52625,10.7247,0,0,0,0,0,0,0,-1,1623,1604,6.52628,-10.7248
406,-580,11.3036,20.3214,0,0,0,0,0,0,0,-1,1630,1604,11.3036,-20.3214
413,-580,11.933,19.8092,0,0,0,0,0,0,0,-1,1637,1604,11.933,-19.8092
420,-580,11.4204,19.8524,-0.00377891,-0.0118711,0.0198584,0.0124414,-0.0280914,0.6849,0.023976,0.0451041,1644,1604,11.4204,-19.8524
427,-580,11.0679,19.9318,-0.00277071,-0.0100241,0.0173352,0.0113131,-0.024108,0.68228,0.0208904,0.0406048,1651,1604,11.0679,-19.9317
434,-580,10.7699,19.7733,-0.00200866,-0.00812206,0.0145874,0.00983883,-0.0199695,0.68212,0.0175381,0.0304327,1658,1604,10.7698,-19.7733
441,-580,10.735,19.5342,-0.00153004,-0.00653746,0.0119394,0.00816539,-0.0162329,0.682046,0.0143407,0.0131391,1665,1604,10.7349,-19.5342
448,-580,10.791,19.2483,-0.000997764,-0.00496595,0.00953128,0.00675375,-0.0127175,0.682781,0.0114161,0.0129322,1672,1604,10.791,-19.2483
455,-580,10.8119,18.975,-0.000634285,-0.00367929,0.00737196,0.00537075,-0.00968432,0.683567,0.00881017,0.0184519,1679,1604,10.8119,-18.975
462,-580,10.7705,18.6553,-0.000414777,-0.00241895,0.00534816,0.00402437,-0.00685809,0.692787,0.0063536,0.0215149,1686,1604,10.7705,-18.6552
469,-580,10.7894,18.3552,-0.000171581,-0.00156994,0.00361293,0.0028092,-0.00455073,0.689819,0.00428873,0.0180481,1693,1604,10.7894,-18.3552
476,-580,10.8152,18.0605,0.000119543,-0.000730795,0.00213882,0.00187505,-0.0024863,0.687284,0.00252626,0.0135109,1700,1604,10.8152,-18.0605
483,-580,10.7924,17.7799,0.00024785,-0.000402585,0.00122413,0.00118923,-0.00134396,0.655561,0.00146345,0.0124258,1707,1604,10.7924,-17.78
490,-580,10.7649,17.4856,0.000297324,-0.000244892,0.000604956,0.000689142,-0.000636711,0.574743,0.000765681,0.014677,1714,1604,10.7649,-17.4856
497,-580,10.7686,17.1812,0.000268077,-0.00014387,0.000102819,0.000292314,-0.000168107,0.231498,0.000269029,0.0115346,1721,1604,10.7686,-17.1812
504,-580,10.7737,16.8656,-0.000112915,-8.3633e-05,0.000162804,6.51868e-05,-0.000261735,0.830243,0.000199796,0.0173765,1728,1604,10.7737,-16.8656
511,-580,10.7798,16.5298,-0.000405845,-0.000591112,0.000793941,0.000300848,-0.00129781,0.727323,0.000980986,0.0179017,1735,1604,10.7798,-16.5298
518,-580,10.7836,16.2274,-0.000875165,-0.00107233,0.00157129,0.000600633,-0.00254813,0.754069,0.00193037,0.0157865,1742,1604,10.7835,-16.2274
525,-580,10.7611,15.9329,-0.00167285,-0.00186884,0.00281478,0.00104563,-0.00458733,0.767998,0.00345984,0.0173949,1749,1604,10.7611,-15.9329
532,-580,10.7513,15.6437,-0.0028606,-0.00303827,0.00459635,0.00164778,-0.00754665,0.775736,0.00566087,0.0205007,1756,1604,10.7514,-15.6436
539,-580,10.7756,15.4022,-0.0047769,-0.00505368,0.0073237,0.00240971,-0.0122403,0.775951,0.00907076,0.0344872,1763,1604,10.7757,-15.4023
546,-580,11.0958,14.9645,0,0,0,0,0,0,0,-1,1770,1604,11.0958,-14.9645
553,-580,9.4624,14.8947,0,0,0,0,0,0,0,-1,1777,1604,9.46235,-14.8946
560,-580,7.09021,6.49438,0,0,0,0,0,0,0,-1,1784,1604,7.09016,-6.4944
567,-580,3.87708,4.0647,0,0,0,0,0,0,0,-1,1791,1604,3.87711,-4.06471
574,-580,2.31653,5.62952,0,0,0,0,0,0,0,-1,1798,1604,2.31654,-5.62947
581,-580,1.60876,6.67664,0,0,0,0,0,0,0,-1,1805,1604,1.60873,-6.67667
588,-580,1.38684,7.14441,0,0,0,0,0,0,0,-1,1812,1604,1.38689,-7.14443
595,-580,0,0,0,0,0,0,0,0,0,-1,1819,1604,0,0
602,-580,0,0,0,0,0,0,0,0,0,-1,1826,1604,0,0
609,-580,0,0,0,0,0,0,0,0,0,-1,1833,1604,0,0
616,-580,0,0,0,0,0,0,0,0,0,-1,1840,1604,0,0
623,-580,0,0,0,0,0,0,0,0,0,-1,1847,1604,0,0
630,-580,0,0,0,0,0,0,0,0,0,-1,1854,1604,0,0
637,-580,0,0,0,0,0,0,0,0,0,-1,1861,1604,0,0
644,-580,0,0,0,0,0,0,0,0,0,-1,1868,1604,0,0
651,-580,0,0,0,0,0,0,0,0,0,-1,1875,1604,0,0
658,-580,0,0,0,0,0,0,0,0,0,-1,1882,1604,0,0
665,-580,0,0,0,0,0,0,0,0,0,-1,1889,1604,0,0
672,-580,0,0,0,0,0,0,0,0,0,-1,1896,1604,0,0
679,-580,0,0,0,0,0,0,0,0,0,-1,1903,1604,0,0
686,-580,0,0,0,0,0,0,0,0,0,-1,1910,1604,0,0
693,-580,0,0,0,0,0,0,0,0,0,-1,1917,1604,0,0
700,-580,0,0,0,0,0,0,0,0,0,-1,1924,1604,0,0
707,-580,0,0,0,0,0,0,0,0,0,-1,1931,1604,0,0
714,-580,0,0,0,0,0,0,0,0,0,-1,1938,1604,0,0
721,-580,0,0,0,0,0,0,0,0,0,-1,1945,1604,0,0
728,-580,0,0,0,0,0,0,0,0,0,-1,1952,1604,0,0
735,-580,0,0,0,0,0,0,0,0,0,-1,1959,1604,0,0
742,-580,0,0,0,0,0,0,0,0,0,-1,1966,1604,0,0
749,-580,0,0,0,0,0,0,0,0,0,-1,1973,1604,0,0
756,-580,0,0,0,0,0,0,0,0,0,-1,1980,1604,0,0
763,-580,0,0,0,0,0,0,0,0,0,-1,1987,1604,0,0
770,-580,0,0,0,0,0,0,0,0,0,-1,1994,1604,0,0
777,-580,0,0,0,0,0,0,0,0,0,-1,2001,1604,0,0
784,-580,0,0,0,0,0,0,0,0,0,-1,2008,1604,0,0
791,-580,0,0,0,0,0,0,0,0,0,-1,2015,1604,0,0
798,-580,0,0,0,0,0,0,0,0,0,-1,2022,1604,0,0
805,-580,0,0,0,0,0,0,0,0,0,-1,2029,1604,0,0
812,-580,0,0,0,0,0,0,0,0,0,-1,2036,1604,0,0
-700,-587,0,0,0,0,0,0,0,0,0,-1,524,1611,0,0
-693,-587,0,0,0,0,0,0,0,0,0,-1,531,1611,0,0
-686,-587,0,0,0,0,0,0,0,0,0,-1,538,1611,0,0
-679,-587,0,0,0,0,0,0,0,0,0,-1,545,1611,0,0
-672,-587,0,0,0,0,0,0,0,0,0,-1,552,1611,0,0
-665,-587,0,0,0,0,0,0,0,0,0,-1,559,1611,0,0
-658,-587,0,0,0,0,0,0,0,0,0,-1,566,1611,0,0
-651,-587,0,0,0,0,0,0,0,0,0,-1,573,1611,0,0
-644,-587,0,0,0,0,0,0,0,0,0,-1,580,1611,0,0
-637,-587,0,0,0,0,0,0,0,0,0,-1,587,1611,0,0
-630,-587,0,0,0,0,0,0,0,0,0,-1,594,1611,0,0
-623,-587,0,0,0,0,0,0,0,0,0,-1,601,1611,0,0
-616,-587,0,0,0,0,0,0,0,0,0,-1,608,1611,0,0
-609,-587,0,0,0,0,0,0,0,0,0,-1,615,1611,0,0
-602,-587,0,0,0,0,0,0,0,0,0,-1,622,1611,0,0
-595,-587,0,0,0,0,0,0,0,0,0,-1,629,1611,0,0
-588,-587,0,0,0,0,0,0,0,0,0,-1,636,1611,0,0
-581,-587,0,0,0,0,0,0,0,0,0,-1,643,1611,0,0
-574,-587,0,0,0,0,0,0,0,0,0,-1,650,1611,0,0
-567,-587,0,0,0,0,0,0,0,0,0,-1,657,1611,0,0
-560,-587,0,0,0,0,0,0,0,0,0,-1,664,1611,0,0
-553,-587,0,0,0,0,0,0,0,0,0,-1,671,1611,0,0
-546,-587,0,0,0,0,0,0,0,0,0,-1,678,1611,0,0
-539,-587,0,0,0,0,0,0,0,0,0,-1,685,1611,0,0
-532,-587,0,0,0,0,0,0,0,0,0,-1,692,1611,0,0
-525,-587,0,0,0,0,0,0,0,0,0,-1,699,1611,0,0
-518,-587,0,0,0,0,0,0,0,0,0,-1,706,1611,0,0
-511,-587,0,0,0,0,0,0,0,0,0,-1,713,1611,0,0
-504,-587,0,0,0,0,0,0,0,0,0,-1,720,1611,0,0
-497,-587,0,0,0,0,0,0,0,0,0,-1,727,1611,0,0
-490,-587,0,0,0,0,0,0,0,0,0,-1,734,1611,0,0
-483,-587,0,0,0,0,0,0,0,0,0,-1,741,1611,0,0
-476,-587,0,0,0,0,0,0,0,0,0,-1,748,1611,0,0
-469,-587,0,0,0,0,0,0,0,0,0,-1,755,1611,0,0
-462,-587,-0.714355,-0.418457,0,0,0,0,0,0,0,-1,762,1611,-0.714359,0.418483
-455,-587,-0.619812,-0.522461,0,0,0,0,0,0,0,-1,769,1611,-0.619802,0.522515
-448,-587,-0.461731,-0.686523,0,0,0,0,0,0,0,-1,776,1611,-0.461739,0.686559
-441,-587,-3.56555,2.72253,0,0,0,0,0,0,0,-1,783,1611,-3.56555,-2.72259
-434,-587,-1.77319,4.76318,0,0,0,0,0,0,0,-1,790,1611,-1.77318,-4.76323
-427,-587,0.0346069,6.92944,0,0,0,0,0,0,0,-1,797,1611,0.034587,-6.92941
-420,-587,-0.647156,10.1157,0,0,0,0,0,0,0,-1,804,1611,-0.647128,-10.1158
-413,-587,2.13971,10.3901,0,0,0,0,0,0,0,-1,811,1611,2.13971,-10.3902
-406,-587,1.84546,13.8916,0,0,0,0,0,0,0,-1,818,1611,1.84545,-13.8916
-399,-587,1.79901,14.2452,-0.00346805,-0.00236819,0.00136865,-0.00144312,-0.00439312,0.976429,0.00258563,0.0391517,825,1611,1.79903,-14.2453
-392,-587,1.76819,14.5709,-0.00266296,-0.0025801,0.00110872,-0.00151203,-0.00373102,0.804073,0.00216696,0.0281045,832,1611,1.76819,-14.5709
-385,-587,1.63196,14.9651,-0.0017443,-0.0023766,0.00090258,-0.00110411,-0.0030168,0.616939,0.00176248,0.017124,839,1611,1.63195,-14.9651
-378,-587,1.60126,15.3611,-0.000926136,-0.00202668,0.000887195,-0.000432418,-0.0025204,0.507815,0.00155628,0.0141528,846,1611,1.60127,-15.3611
-371,-587,1.60486,15.7031,-0.000457808,-0.00182247,0.000658412,-0.000191939,-0.00208833,0.383781,0.00133286,0.0149091,853,1611,1.60483,-15.7031
-364,-587,1.62537,16.0165,-0.000129608,-0.00135482,0.000555569,8.47945e-05,-0.00156922,0.368305,0.00107553,0.0178902,860,1611,1.62539,-16.0165
-357,-587,1.62061,16.3048,0.000225907,-0.00108605,0.000572428,0.00044055,-0.00130069,0.358743,0.00104539,0.0169143,867,1611,1.62061,-16.3048
-350,-587,1.60468,16.6851,0.000509113,-0.000701981,0.000534958,0.000711568,-0.000904436,0.361792,0.000935213,0.00985112,874,1611,1.60468,-16.685
-343,-587,1.5769,17.0098,0.000829872,-0.000427866,0.000600774,0.00107072,-0.000668713,0.381277,0.00101316,0.0122069,881,1611,1.57688,-17.0098
-336,-587,1.56891,17.291,0.00137569,-0.000161663,0.000851177,0.00175391,-0.000539882,0.418143,0.00138477,0.0121491,888,1611,1.56891,-17.291
-329,-587,1.58154,17.6204,0.00189333,9.10414e-05,0.00118014,0.00247704,-0.000492666,0.459326,0.00183773,0.0142536,895,1611,1.58157,-17.6204
-322,-587,1.60138,17.9707,0.0023403,0.000214967,0.00149036,0.00310805,-0.000552783,0.47569,0.00227876,0.0183049,902,1611,1.60135,-17.9708
-315,-587,1.57178,18.2811,0.00290814,0.000195063,0.00185263,0.00384778,-0.000744575,0.469385,0.00284603,0.0147395,909,1611,1.57176,-18.2812
-308,-587,1.56213,18.5952,0.0035708,0.000104502,0.00226952,0.00469327,-0.00101796,0.459304,0.00351761,0.0143308,916,1611,1.56215,-18.5952
-301,-587,1.64258,18.9036,0.00428593,-0.000155423,0.00269232,0.00555523,-0.00142473,0.440552,0.0042586,0.0134565,923,1611,1.64258,-18.9036
-294,-587,1.72479,19.2393,0.00506498,-0.000302578,0.00317674,0.00653985,-0.00177744,0.434658,0.00505758,0.0191218,930,1611,1.7248,-19.2393
-287,-587,1.7229,19.5732,0.00583696,-0.000641429,0.00361303,0.00745022,-0.00225469,0.41995,0.00586467,0.0313629,937,1611,1.72291,-19.5733
-280,-587,1.87524,19.9865,0.00685284,-0.000970965,0.00401961,0.00854988,-0.00266801,0.399489,0.00676691,0.0446023,944,1611,1.87527,-19.9865
-273,-587,1.65735,19.9723,0.00809551,-0.00137635,0.0045486,0.00992607,-0.00320691,0.382612,0.00790621,0.0482758,951,1611,1.65732,-19.9723
-266,-587,1.56873,20.2655,0,0,0,0,0,0,0,-1,958,1611,1.56875,-20.2655
-259,-587,1.92242,19.6223,0,0,0,0,0,0,0,-1,965,1611,1.92245,-19.6223
-252,-587,1.30188,10.3103,0,0,0,0,0,0,0,-1,972,1611,1.30188,-10.3104
-245,-587,1.73126,21.5099,0,0,0,0,0,0,0,-1,979,1611,1.73125,-21.5098
-238,-587,2.87799,9.53821,0,0,0,0,0,0,0,-1,986,1611,2.87797,-9.53823
-231,-587,2.49548,9.14465,0,0,0,0,0,0,0,-1,993,1611,2.49551,-9.14468
-224,-587,-9.72528,9.21069,0,0,0,0,0,0,0,-1,1000,1611,-9.72529,-9.21072
-217,-587,-7.07495,10.7847,0,0,0,0,0,0,0,-1,1007,1611,-7.07495,-10.7847
-210,-587,-4.72308,12.5889,0,0,0,0,0,0,0,-1,1014,1611,-4.72307,-12.5888
-203,-587,-3.2583,13.7289,0,0,0,0,0,0,0,-1,1021,1611,-3.25828,-13.7289
-196,-587,-1.953,14.8145,0,0,0,0,0,0,0,-1,1028,1611,-1.95302,-14.8144
-189,-587,-3.04138,8.66638,0,0,0,0,0,0,0,-1,1035,1611,-3.04136,-8.66635
-182,-587,-3.97095,9.7146,0,0,0,0,0,0,0,-1,1042,1611,-3.97093,-9.71461
-175,-587,-4.80969,8.37878,0,0,0,0,0,0,0,-1,1049,1611,-4.80964,-8.37883
-168,-587,-5.91394,8.72546,0,0,0,0,0,0,0,-1,1056,1611,-5.91398,-8.72542
-161,-587,-7.06946,8.88501,0,0,0,0,0,0,0,-1,1063,1611,-7.06947,-8.885
-154,-587,-2.24731,6.56519,0,0,0,0,0,0,0,-1,1070,1611,-2.24728,-6.56517
-147,-587,0,0,0,0,0,0,0,0,0,-1,1077,1611,0,0
-140,-587,0,0,0,0,0,0,0,0,0,-1,1084,1611,0,0
-133,-587,0,0,0,0,0,0,0,0,0,-1,1091,1611,0,0
-126,-587,0,0,0,0,0,0,0,0,0,-1,1098,1611,0,0
-119,-587,0,0,0,0,0,0,0,0,0,-1,1105,1611,0,0
-112,-587,0,0,0,0,0,0,0,0,0,-1,1112,1611,0,0
-105,-587,0,0,0,0,0,0,0,0,0,-1,1119,1611,0,0
-98,-587,0,0,0,0,0,0,0,0,0,-1,1126,1611,0,0
-91,-587,0,0,0,0,0,0,0,0,0,-1,1133,1611,0,0
-84,-587,0,0,0,0,0,0,0,0,0,-1,1140,1611,0,0
-77,-587,0,0,0,0,0,0,0,0,0,-1,1147,1611,0,0
-70,-587,0,0,0,0,0,0,0,0,0,-1,1154,1611,0,0
-63,-587,0,0,0,0,0,0,0,0,0,-1,1161,1611,0,0
-56,-587,0,0,0,0,0,0,0,0,0,-1,1168,1611,0,0
-49,-587,0,0,0,0,0,0,0,0,0,-1,1175,1611,0,0
-42,-587,0,0,0,0,0,0,0,0,0,-1,1182,1611,0,0
-35,-587,0,0,0,0,0,0,0,0,0,-1,1189,1611,0,0
-28,-587,0,0,0,0,0,0,0,0,0,-1,1196,1611,0,0
-21,-587,0,0,0,0,0,0,0,0,0,-1,1203,1611,0,0
-14,-587,0,0,0,0,0,0,0,0,0,-1,1210,1611,0,0
-7,-587,0,0,0,0,0,0,0,0,0,-1,1217,1611,0,0
0,-587,0,0,0,0,0,0,0,0,0,-1,1224,1611,0,0
7,-587,0,0,0,0,0,0,0,0,0,-1,1231,1611,0,0
14,-587,0,0,0,0,0,0,0,0,0,-1,1238,1611,0,0
21,-587,0,0,0,0,0,0,0,0,0,-1,1245,1611,0,0
28,-587,0,0,0,0,0,0,0,0,0,-1,1252,1611,0,0
35,-587,0,0,0,0,0,0,0,0,0,-1,1259,1611,0,0
42,-587,0,0,0,0,0,0,0,0,0,-1,1266,1611,0,0
49,-587,0,0,0,0,0,0,0,0,0,-1,1273,1611,0,0
56,-587,0,0,0,0,0,0,0,0,0,-1,1280,1611,0,0
63,-587,0,0,0,0,0,0,0,0,0,-1,1287,1611,0,0
70,-587,0,0,0,0,0,0,0,0,0,-1,1294,1611,0,0
77,-587,0,0,0,0,0,0,0,0,0,-1,1301,1611,0,0
84,-587,0,0,0,0,0,0,0,0,0,-1,1308,1611,0,0
91,-587,0,0,0,0,0,0,0,0,0,-1,1315,1611,0,0
98,-587,0,0,0,0,0,0,0,0,0,-1,1322,1611,0,0
105,-587,0,0,0,0,0,0,0,0,0,-1,1329,1611,0,0
112,-587,0,0,0,0,0,0,0,0,0,-1,1336,1611,0,0
119,-587,0,0,0,0,0,0,0,0,0,-1,1343,1611,0,0
126,-587,0,0,0,0,0,0,0,0,0,-1,1350,1611,0,0
133,-587,0,0,0,0,0,0,0,0,0,-1,1357,1611,0,0
140,-587,0,0,0,0,0,0,0,0,0,-1,1364,1611,0,0
147,-587,0,0,0,0,0,0,0,0,0,-1,1371,1611,0,0
154,-587,0,0,0,0,0,0,0,0,0,-1,1378,1611,0,0
161,-587,0,0,0,0,0,0,0,0,0,-1,1385,1611,0,0
168,-587,0,0,0,0,0,0,0,0,0,-1,1392,1611,0,0
175,-587,0,0,0,0,0,0,0,0,0,-1,1399,1611,0,0
182,-587,0,0,0,0,0,0,0,0,0,-1,1406,1611,0,0
189,-587,0,0,0,0,0,0,0,0,0,-1,1413,1611,0,0
196,-587,0,0,0,0,0,0,0,0,0,-1,1420,1611,0,0
203,-587,0,0,0,0,0,0,0,0,0,-1,1427,1611,0,0
210,-587,0,0,0,0,0,0,0,0,0,-1,1434,1611,0,0
217,-587,0,0,0,0,0,0,0,0,0,-1,1441,1611,0,0
224,-587,0,0,0,0,0,0,0,0,0,-1,1448,1611,0,0
231,-587,0,0,0,0,0,0,0,0,0,-1,1455,1611,0,0
238,-587,0,0,0,0,0,0,0,0,0,-1,1462,1611,0,0
245,-587,0,0,0,0,0,0,0,0,0,-1,1469,1611,0,0
252,-587,0,0,0,0,0,0,0,0,0,-1,1476,1611,0,0
259,-587,0,0,0,0,0,0,0,0,0,-1,1483,1611,0,0
266,-587,0,0,0,0,0,0,0,0,0,-1,1490,1611,0,0
273,-587,10.2936,6.35083,0,0,0,0,0,0,0,-1,1497,1611,10.2936,-6.35087
280,-587,2.09204,1.1217,0,0,0,0,0,0,0,-1,1504,1611,2.092,-1.12176
287,-587,3.2865,0.671509,0,0,0,0,0,0,0,-1,1511,1611,3.28656,-0.671538
294,-587,4.24646,1.58765,0,0,0,0,0,0,0,-1,1518,1611,4.24648,-1.58761
301,-587,7.60474,8.37085,0,0,0,0,0,0,0,-1,1525,1611,7.60478,-8.37084
308,-587,5.99316,10.2291,0,0,0,0,0,0,0,-1,1532,1611,5.99315,-10.2291
315,-587,4.34558,12.3289,0,0,0,0,0,0,0,-1,1539,1611,4.34556,-12.3288
322,-587,10.4526,6.38245,0,0,0,0,0,0,0,-1,1546,1611,10.4526,-6.38245
329,-587,10.7738,8.42444,0,0,0,0,0,0,0,-1,1553,1611,10.7738,-8.42438
336,-587,7.5531,5.96619,0,0,0,0,0,0,0,-1,1560,1611,7.55311,-5.96617
343,-587,9.57495,4.38391,0,0,0,0,0,0,0,-1,1567,1611,9.57494,-4.38397
350,-587,9.50378,3.45093,0,0,0,0,0,0,0,-1,1574,1611,9.50376,-3.4509
357,-587,9.40027,2.50806,0,0,0,0,0,0,0,-1,1581,1611,9.40022,-2.50803
364,-587,9.26477,1.34131,0,0,0,0,0,0,0,-1,1588,1611,9.26479,-1.34126
371,-587,6.98926,7.87561,0,0,0,0,0,0,0,-1,1595,1611,6.98928,-7.87564
378,-587,9.25146,13.8358,0,0,0,0,0,0,0,-1,1602,1611,9.2515,-13.8359
385,-587,7.17224,7.03772,0,0,0,0,0,0,0,-1,1609,1611,7.1722,-7.03778
392,-587,5.3916,8.21436,0,0,0,0,0,0,0,-1,1616,1611,5.39157,-8.21437
399,-587,10.7346,20.808,0,0,0,0,0,0,0,-1,1623,1611,10.7346,-20.808
406,-587,10.7863,20.5557,-0.00402502,-0.00827497,0.0157358,0.00972867,-0.0220287,0.718284,0.0187879,0.0471776,1630,1611,10.7862,-20.5556
413,-587,10.8621,20.4374,-0.0038305,-0.00854365,0.0151167,0.00911219,-0.0214863,0.708074,0.0181412,0.0369116,1637,1611,10.8621,-20.4374
420,-587,10.6071,20.4111,-0.00326188,-0.00777919,0.0137057,0.00837002,-0.0194111,0.703734,0.0164563,0.0329854,1644,1611,10.607,-20.4111
427,-587,10.551,20.1395,-0.00263195,-0.0067877,0.0120994,0.00756668,-0.0169863,0.700361,0.0145193,0.0256364,1651,1611,10.551,-20.1396
434,-587,10.4762,19.821,-0.0020708,-0.00557513,0.0102565,0.0065821,-0.014228,0.700797,0.0122821,0.0152248,1658,1611,10.4762,-19.8211
441,-587,10.4766,19.4962,-0.00148406,-0.00431772,0.00836691,0.00558513,-0.0113869,0.701525,0.00998784,0.0173284,1665,1611,10.4766,-19.4962
448,-587,10.5111,19.2595,-0.000888389,-0.00317422,0.0066346,0.00470102,-0.00876362,0.700102,0.00789088,0.0149375,1672,1611,10.5111,-19.2596
455,-587,10.5123,18.976,-0.000505244,-0.00223549,0.00506203,0.00376506,-0.0065058,0.700764,0.00599984,0.0136218,1679,1611,10.5123,-18.9759
462,-587,10.4915,18.6704,-0.00024947,-0.00129412,0.00353846,0.00280501,-0.0043486,0.712121,0.00416207,0.0174013,1686,1611,10.4915,-18.6705
469,-587,10.4913,18.3818,3.1054e-05,-0.000641364,0.00221269,0.00193293,-0.00254324,0.710002,0.00259231,0.0151925,1693,1611,10.4913,-18.3818
476,-587,10.5032,18.097,0.000322194,-2.32681e-05,0.0010928,0.00125583,-0.000956905,0.707015,0.0012814,0.00970822,1700,1611,10.5032,-18.097
483,-587,10.4523,17.7933,0.000456589,0.000135164,0.000437182,0.000761663,-0.00016991,0.60926,0.000572874,0.0122004,1707,1611,10.4523,-17.7933
490,-587,10.4329,17.472,0.000500762,0.000150392,-7.94944e-06,0.000500942,0.000150212,-0.0226732,0.000296842,0.0158226,1714,1611,10.4329,-17.4721
497,-587,10.4381,17.1744,0.000405417,0.000123011,-0.000343861,0.000635938,-0.000107509,-0.590576,0.000463966,0.0130359,1721,1611,10.4382,-17.1745
504,-587,10.449,16.8888,-1.86142e-05,-7.10805e-05,-2.39417e-06,-1.85052e-05,-7.11895e-05,-0.0455064,4.26511e-05,0.0125112,1728,1611,10.449,-16.8888
511,-587,10.4434,16.5717,-0.000489879,-0.000718547,0.000757209,0.000161579,-0.00137001,0.710467,0.000971685,0.0146313,1735,1611,10.4434,-16.5716
518,-587,10.4683,16.2493,-0.0011585,-0.00134406,0.0016852,0.000436473,-0.00293903,0.757899,0.00211988,0.0140283,1742,1611,10.4683,-16.2493
525,-587,10.4539,15.9358,-0.00221548,-0.00238002,0.00319114,0.000894454,-0.00548995,0.772511,0.00399167,0.0162463,1749,1611,10.4539,-15.9358
532,-587,10.5027,15.692,-0.00376281,-0.00384476,0.0053545,0.00155087,-0.00915844,0.781572,0.00668284,0.0290809,1756,1611,10.5027,-15.692
539,-587,10.5548,15.4224,0,0,0,0,0,0,0,-1,1763,1611,10.5548,-15.4224
546,-587,9.57629,12.9152,0,0,0,0,0,0,0,-1,1770,1611,9.57624,-12.9152
553,-587,7.5813,8.45068,0,0,0,0,0,0,0,-1,1777,1611,7.58125,-8.45068
560,-587,4.21179,5.23547,0,0,0,0,0,0,0,-1,1784,1611,4.21185,-5.23553
567,-587,4.03711,5.46387,0,0,0,0,0,0,0,-1,1791,1611,4.03715,-5.46382
574,-587,3.83142,5.68884,0,0,0,0,0,0,0,-1,1798,1611,3.83141,-5.68881
581,-587,3.47168,6.00977,0,0,0,0,0,0,0,-1,1805,1611,3.47167,-6.00983
588,-587,0,0,0,0,0,0,0,0,0,-1,1812,1611,0,0
595,-587,0,0,0,0,0,0,0,0,0,-1,1819,1611,0,0
602,-587,0,0,0,0,0,0,0,0,0,-1,1826,1611,0,0
609,-587,0,0,0,0,0,0,0,0,0,-1,1833,1611,0,0
616,-587,0,0,0,0,0,0,0,0,0,-1,1840,1611,0,0
623,-587,0,0,0,0,0,0,0,0,0,-1,1847,1611,0,0
630,-587,0,0,0,0,0,0,0,0,0,-1,1854,1611,0,0
637,-587,0,0,0,0,0,0,0,0,0,-1,1861,1611,0,0
644,-587,0,0,0,0,0,0,0,0,0,-1,1868,1611,0,0
651,-587,0,0,0,0,0,0,0,0,0,-1,1875,1611,0,0
658,-587,0,0,0,0,0,0,0,0,0,-1,1882,1611,0,0
665,-587,0,0,0,0,0,0,0,0,0,-1,1889,1611,0,0
672,-587,0,0,0,0,0,0,0,0,0,-1,1896,1611,0,0
679,-587,0,0,0,0,0,0,0,0,0,-1,1903,1611,0,0
686,-587,0,0,0,0,0,0,0,0,0,-1,1910,1611,0,0
693,-587,0,0,0,0,0,0,0,0,0,-1,1917,1611,0,0
700,-587,0,0,0,0,0,0,0,0,0,-1,1924,1611,0,0
707,-587,0,0,0,0,0,0,0,0,0,-1,1931,1611,0,0
714,-587,0,0,0,0,0,0,0,0,0,-1,1938,1611,0,0
721,-587,0,0,0,0,0,0,0,0,0,-1,1945,1611,0,0
728,-587,0,0,0,0,0,0,0,0,0,-1,1952,1611,0,0
735,-587,0,0,0,0,0,0,0,0,0,-1,1959,1611,0,0
742,-587,0,0,0,0,0,0,0,0,0,-1,1966,1611,0,0
749,-587,0,0,0,0,0,0,0,0,0,-1,1973,1611,0,0
756,-587,0,0,0,0,0,0,0,0,0,-1,1980,1611,0,0
763,-587,0,0,0,0,0,0,0,0,0,-1,1987,1611,0,0
770,-587,0,0,0,0,0,0,0,0,0,-1,1994,1611,0,0
777,-587,0,0,0,0,0,0,0,0,0,-1,2001,1611,0,0
784,-587,0,0,0,0,0,0,0,0,0,-1,2008,1611,0,0
791,-587,0,0,0,0,0,0,0,0,0,-1,2015,1611,0,0
798,-587,0,0,0,0,0,0,0,0,0,-1,2022,1611,0,0
805,-587,0,0,0,0,0,0,0,0,0,-1,2029,1611,0,0
812,-587,0,0,0,0,0,0,0,0,0,-1,2036,1611,0,0
-700,-594,0,0,0,0,0,0,0,0,0,-1,524,1618,0,0
-693,-594,0,0,0,0,0,0,0,0,0,-1,531,1618,0,0
-686,-594,0,0,0,0,0,0,0,0,0,-1,538,1618,0,0
-679,-594,0,0,0,0,0,0,0,0,0,-1,545,1618,0,0
-672,-594,0,0,0,0,0,0,0,0,0,-1,552,1618,0,0
-665,-594,0,0,0,0,0,0,0,0,0,-1,559,1618,0,0
-658,-594,0,0,0,0,0,0,0,0,0,-1,566,1618,0,0
-651,-594,0,0,0,0,0,0,0,0,0,-1,573,1618,0,0
-644,-594,0,0,0,0,0,0,0,0,0,-1,580,1618,0,0
-637,-594,0,0,0,0,0,0,0,0,0,-1,587,1618,0,0
-630,-594,0,0,0,0,0,0,0,0,0,-1,594,1618,0,0
-623,-594,0,0,0,0,0,0,0,0,0,-1,601,1618,0,0
-616,-594,0,0,0,0,0,0,0,0,0,-1,608,1618,0,0
-609,-594,0,0,0,0,0,0,0,0,0,-1,615,1618,0,0
-602,-594,0,0,0,0,0,0,0,0,0,-1,622,1618,0,0
-595,-594,0,0,0,0,0,0,0,0,0,-1,629,1618,0,0
-588,-594,0,0,0,0,0,0,0,0,0,-1,636,1618,0,0
-581,-594,0,0,0,0,0,0,0,0,0,-1,643,1618,0,0
-574,-594,0,0,0,0,0,0,0,0,0,-1,650,1618,0,0
-567,-594,0,0,0,0,0,0,0,0,0,-1,657,1618,0,0
-560,-594,0,0,0,0,0,0,0,0,0,-1,664,1618,0,0
-553,-594,0,0,0,0,0,0,0,0,0,-1,671,1618,0,0
-546,-594,0,0,0,0,0,0,0,0,0,-1,678,1618,0,0
-539,-594,0,0,0,0,0,0,0,0,0,-1,685,1618,0,0
-532,-594,0,0,0,0,0,0,0,0,0,-1,692,1618,0,0
-525,-594,0,0,0,0,0,0,0,0,0,-1,699,1618,0,0
-518,-594,0,0,0,0,0,0,0,0,0,-1,706,1618,0,0
-511,-594,0,0,0,0,0,0,0,0,0,-1,713,1618,0,0
-504,-594,0,0,0,0,0,0,0,0,0,-1,720,1618,0,0
-497,-594,0,0,0,0,0,0,0,0,0,-1,727,1618,0,0
-490,-594,0,0,0,0,0,0,0,0,0,-1,734,1618,0,0
-483,-594,0,0,0,0,0,0,0,0,0,-1,741,1618,0,0
-476,-594,0,0,0,0,0,0,0,0,0,-1,748,1618,0,0
-469,-594,0,0,0,0,0,0,0,0,0,-1,755,1618,0,0
-462,-594,0,0,0,0,0,0,0,0,0,-1,762,1618,0,0
-455,-594,-0.509216,-1.58411,0,0,0,0,0,0,0,-1,769,1618,-0.509245,1.58415
-448,-594,-7.71887,-0.0559082,0,0,0,0,0,0,0,-1,776,1618,-7.71885,0.055939
-441,-594,-5.78473,1.18298,0,0,0,0,0,0,0,-1,783,1618,-5.78474,-1.18295
-434,-594,-3.93628,3.06213,0,0,0,0,0,0,0,-1,790,1618,-3.93631,-3.06208
-427,-594,-3.97693,6.77759,0,0,0,0,0,0,0,-1,797,1618,-3.97695,-6.77764
-420,-594,-2.53046,7.71606,0,0,0,0,0,0,0,-1,804,1618,-2.53047,-7.71609
-413,-594,-0.860413,8.00391,0,0,0,0,0,0,0,-1,811,1618,-0.860423,-8.00389
-406,-594,2.55188,11.9194,0,0,0,0,0,0,0,-1,818,1618,2.55189,-11.9195
-399,-594,2.21539,14.1787,0,0,0,0,0,0,0,-1,825,1618,2.21538,-14.1787
-392,-594,1.95905,14.6621,-0.00258961,-0.00395124,0.00159623,-0.00153507,-0.00500578,0.583822,0.00296124,0.0424448,832,1618,1.95906,-14.6621
-385,-594,2.01587,15.05,-0.00175613,-0.00355399,0.00127077,-0.00109848,-0.00421164,0.477565,0.00252262,0.0280772,839,1618,2.01584,-15.05
-378,-594,1.91357,15.3541,-0.00109381,-0.00293685,0.00112521,-0.000560919,-0.00346973,0.442296,0.0021507,0.0122548,846,1618,1.9136,-15.3541
-371,-594,1.94666,15.6975,-0.00068536,-0.00257901,0.000802091,-0.000391288,-0.00287308,0.351415,0.0017992,0.0113188,853,1618,1.94665,-15.6975
-364,-594,1.95258,16.0273,-0.000375309,-0.00200698,0.000639688,-0.000154424,-0.00222787,0.332482,0.00143654,0.0105793,860,1618,1.95257,-16.0273
-357,-594,1.94275,16.36,3.52171e-05,-0.00161009,0.000602127,0.000232032,-0.0018069,0.315919,0.00128893,0.0108091,867,1618,1.94272,-16.3599
-350,-594,1.91217,16.7247,0.00040012,-0.00117623,0.000549383,0.000572696,-0.0013488,0.304366,0.00113914,0.015009,874,1618,1.91215,-16.7247
-343,-594,1.89728,17.0508,0.000746295,-0.000850375,0.000597787,0.0009453,-0.00104938,0.321364,0.00115215,0.0160394,881,1618,1.89729,-17.0508
-336,-594,1.88641,17.3094,0.00123091,-0.000485711,0.000742012,0.00150718,-0.000761984,0.356427,0.00133344,0.0136503,888,1618,1.88638,-17.3094
-329,-594,1.89917,17.6556,0.00176486,-0.000172014,0.00100874,0.00219479,-0.000601941,0.402889,0.00169975,0.0136468,895,1618,1.89917,-17.6556
-322,-594,1.93317,18.0037,0.00221439,7.41491e-06,0.00127408,0.00279642,-0.000574615,0.428514,0.00208241,0.0163657,902,1618,1.93315,-18.0036
-315,-594,1.92352,18.2941,0.00271547,3.56509e-05,0.00156533,0.00343605,-0.000684932,0.431418,0.00254986,0.0162397,909,1618,1.92354,-18.2941
-308,-594,1.93018,18.5865,0.00326736,4.84836e-07,0.00187159,0.00411806,-0.000850224,0.426621,0.0030683,0.0139874,916,1618,1.93016,-18.5865
-301,-594,1.91876,18.8713,0.00381569,-0.000185183,0.00214928,0.00475143,-0.00112092,0.410625,0.00359991,0.010725,923,1618,1.91874,-18.8714
-294,-594,1.9342,19.1578,0.00439597,-0.00020821,0.00247634,0.00547499,-0.00128723,0.410924,0.00414622,0.0115591,930,1618,1.93421,-19.1578
-287,-594,1.9101,19.4329,0.00496302,-0.000407189,0.00272734,0.00610521,-0.00154938,0.396601,0.00467302,0.0180812,937,1618,1.91007,-19.4329
-280,-594,1.9903,19.7593,0.00560007,-0.000597419,0.00296535,0.00679033,-0.00178767,0.381702,0.00522572,0.0218297,944,1618,1.99031,-19.7592
-273,-594,1.96912,20.0292,0.00627519,-0.000825353,0.00318717,0.00749592,-0.00204609,0.365779,0.00580086,0.0291128,951,1618,1.96909,-20.0292
-266,-594,1.89337,20.2526,0.00686975,-0.00135855,0.00337476,0.0080768,-0.00256561,0.343493,0.00641315,0.0376666,958,1618,1.89338,-20.2526
-259,-594,1.91974,20.4622,0,0,0,0,0,0,0,-1,965,1618,1.91973,-20.4622
-252,-594,2.08789,20.7058,0,0,0,0,0,0,0,-1,972,1618,2.0879,-20.7058
-245,-594,2.03802,21.536,0,0,0,0,0,0,0,-1,979,1618,2.038,-21.536
-238,-594,2.29572,21.8396,0,0,0,0,0,0,0,-1,986,1618,2.29573,-21.8396
-231,-594,1.93774,9.35388,0,0,0,0,0,0,0,-1,993,1618,1.93776,-9.35393
-224,-594,1.81824,8.62744,0,0,0,0,0,0,0,-1,1000,1618,1.81822,-8.62745
-217,-594,-8.24066,12.0752,0,0,0,0,0,0,0,-1,1007,1618,-8.24068,-12.0751
-210,-594,-5.61438,14.2119,0,0,0,0,0,0,0,-1,1014,1618,-5.6144,-14.212
-203,-594,-3.94507,15.5768,0,0,0,0,0,0,0,-1,1021,1618,-3.94506,-15.5768
-196,-594,2.78613,10.5815,0,0,0,0,0,0,0,-1,1028,1618,2.78612,-10.5815
-189,-594,2.60913,9.48865,0,0,0,0,0,0,0,-1,1035,1618,2.6091,-9.48871
-182,-594,1.2395,9.38806,0,0,0,0,0,0,0,-1,1042,1618,1.23951,-9.38804
-175,-594,0.234863,8.73792,0,0,0,0,0,0,0,-1,1049,1618,0.234812,-8.73786
-168,-594,-0.495483,8.46289,0,0,0,0,0,0,0,-1,1056,1618,-0.495513,-8.46285
-161,-594,-1.39734,8.28699,0,0,0,0,0,0,0,-1,1063,1618,-1.39729,-8.28699
-154,-594,-0.000854492,7.68445,0,0,0,0,0,0,0,-1,1070,1618,-0.000805755,-7.6845
-147,-594,0.348267,9.3385,0,0,0,0,0,0,0,-1,1077,1618,0.348237,-9.33849
-140,-594,0.675171,11.5884,0,0,0,0,0,0,0,-1,1084,1618,0.675204,-11.5884
-133,-594,0,0,0,0,0,0,0,0,0,-1,1091,1618,0,0
-126,-594,0,0,0,0,0,0,0,0,0,-1,1098,1618,0,0
-119,-594,0,0,0,0,0,0,0,0,0,-1,1105,1618,0,0
-112,-594,0,0,0,0,0,0,0,0,0,-1,1112,1618,0,0
-105,-594,0,0,0,0,0,0,0,0,0,-1,1119,1618,0,0
-98,-594,0,0,0,0,0,0,0,0,0,-1,1126,1618,0,0
-91,-594,0,0,0,0,0,0,0,0,0,-1,1133,1618,0,0
-84,-594,0,0,0,0,0,0,0,0,0,-1,1140,1618,0,0
-77,-594,0,0,0,0,0,0,0,0,0,-1,1147,1618,0,0
-70,-594,0,0,0,0,0,0,0,0,0,-1,1154,1618,0,0
-63,-594,0,0,0,0,0,0,0,0,0,-1,1161,1618,0,0
-56,-594,0,0,0,0,0,0,0,0,0,-1,1168,1618,0,0
-49,-594,0,0,0,0,0,0,0,0,0,-1,1175,1618,0,0
-42,-594,0,0,0,0,0,0,0,0,0,-1,1182,1618,0,0
-35,-594,0,0,0,0,0,0,0,0,0,-1,1189,1618,0,0
-28,-594,0,0,0,0,0,0,0,0,0,-1,1196,1618,0,0
-21,-594,0,0,0,0,0,0,0,0,0,-1,1203,1618,0,0
-14,-594,0,0,0,0,0,0,0,0,0,-1,1210,1618,0,0
-7,-594,0,0,0,0,0,0,0,0,0,-1,1217,1618,0,0
0,-594,0,0,0,0,0,0,0,0,0,-1,1224,1618,0,0
7,-594,0,0,0,0,0,0,0,0,0,-1,1231,1618,0,0
14,-594,0,0,0,0,0,0,0,0,0,-1,1238,1618,0,0
21,-594,0,0,0,0,0,0,0,0,0,-1,1245,1618,0,0
28,-594,0,0,0,0,0,0,0,0,0,-1,1252,1618,0,0
35,-594,0,0,0,0,0,0,0,0,0,-1,1259,1618,0,0
42,-594,0,0,0,0,0,0,0,0,0,-1,1266,1618,0,0
49,-594,0,0,0,0,0,0,0,0,0,-1,1273,1618,0,0
56,-594,0,0,0,0,0,0,0,0,0,-1,1280,1618,0,0
63,-594,0,0,0,0,0,0,0,0,0,-1,1287,1618,0,0
70,-594,0,0,0,0,0,0,0,0,0,-1,1294,1618,0,0
77,-594,0,0,0,0,0,0,0,0,0,-1,1301,1618,0,0
84,-594,0,0,0,0,0,0,0,0,0,-1,1308,1618,0,0
91,-594,0,0,0,0,0,0,0,0,0,-1,1315,1618,0,0
98,-594,0,0,0,0,0,0,0,0,0,-1,1322,1618,0,0
105,-594,0,0,0,0,0,0,0,0,0,-1,1329,1618,0,0
112,-594,0,0,0,0,0,0,0,0,0,-1,1336,1618,0,0
119,-594,0,0,0,0,0,0,0,0,0,-1,1343,1618,0,0
126,-594,0,0,0,0,0,0,0,0,0,-1,1350,1618,0,0
133,-594,0,0,0,0,0,0,0,0,0,-1,1357,1618,0,0
140,-594,0,0,0,0,0,0,0,0,0,-1,1364,1618,0,0
147,-594,0,0,0,0,0,0,0,0,0,-1,1371,1618,0,0
154,-594,0,0,0,0,0,0,0,0,0,-1,1378,1618,0,0
161,-594,0,0,0,0,0,0,0,0,0,-1,1385,1618,0,0
168,-594,0,0,0,0,0,0,0,0,0,-1,1392,1618,0,0
175,-594,0,0,0,0,0,0,0,0,0,-1,1399,1618,0,0
182,-594,0,0,0,0,0,0,0,0,0,-1,1406,1618,0,0
189,-594,0,0,0,0,0,0,0,0,0,-1,1413,1618,0,0
196,-594,0,0,0,0,0,0,0,0,0,-1,1420,1618,0,0
203,-594,0,0,0,0,0,0,0,0,0,-1,1427,1618,0,0
210,-594,0,0,0,0,0,0,0,0,0,-1,1434,1618,0,0
217,-594,0,0,0,0,0,0,0,0,0,-1,1441,1618,0,0
224,-594,0,0,0,0,0,0,0,0,0,-1,1448,1618,0,0
231,-594,0,0,0,0,0,0,0,0,0,-1,1455,1618,0,0
238,-594,0,0,0,0,0,0,0,0,0,-1,1462,1618,0,0
245,-594,0,0,0,0,0,0,0,0,0,-1,1469,1618,0,0
252,-594,3.03674,1.20996,0,0,0,0,0,0,0,-1,1476,1618,3.0368,-1.20999
259,-594,4.79834,1.53113,0,0,0,0,0,0,0,-1,1483,1618,4.79837,-1.53118
266,-594,3.71606,2.68152,0,0,0,0,0,0,0,-1,1490,1618,3.71609,-2.68149
273,-594,9.7655,6.33557,0,0,0,0,0,0,0,-1,1497,1618,9.76555,-6.33554
280,-594,3.13281,0.911255,0,0,0,0,0,0,0,-1,1504,1618,3.13277,-0.911207
287,-594,4.42749,1.51563,0,0,0,0,0,0,0,-1,1511,1618,4.42747,-1.51564
294,-594,5.36475,3.34937,0,0,0,0,0,0,0,-1,1518,1618,5.36475,-3.3494
301,-594,7.97144,9.04333,0,0,0,0,0,0,0,-1,1525,1618,7.9714,-9.04328
308,-594,6.30347,10.4633,0,0,0,0,0,0,0,-1,1532,1618,6.30351,-10.4633
315,-594,4.62012,11.934,0,0,0,0,0,0,0,-1,1539,1618,4.62006,-11.934
322,-594,2.91528,13.3134,0,0,0,0,0,0,0,-1,1546,1618,2.91523,-13.3133
329,-594,4.19861,9.77258,0,0,0,0,0,0,0,-1,1553,1618,4.19865,-9.77264
336,-594,10.1353,4.66528,0,0,0,0,0,0,0,-1,1560,1618,10.1353,-4.66533
343,-594,10.5729,3.71228,0,0,0,0,0,0,0,-1,1567,1618,10.5729,-3.71232
350,-594,10.219,2.98792,0,0,0,0,0,0,0,-1,1574,1618,10.219,-2.98797
357,-594,9.83154,1.96326,0,0,0,0,0,0,0,-1,1581,1618,9.8315,-1.96321
364,-594,9.74939,0.700562,0,0,0,0,0,0,0,-1,1588,1618,9.74939,-0.700615
371,-594,8.54297,14.3988,0,0,0,0,0,0,0,-1,1595,1618,8.54296,-14.3989
378,-594,8.9137,16.3073,0,0,0,0,0,0,0,-1,1602,1618,8.91369,-16.3072
385,-594,9.58142,21.5156,0,0,0,0,0,0,0,-1,1609,1618,9.58145,-21.5157
392,-594,10.2035,21.4928,0,0,0,0,0,0,0,-1,1616,1618,10.2035,-21.4928
399,-594,10.2169,21.1517,-0.00195305,-0.00275759,0.0100419,0.00769461,-0.0124052,0.765379,0.0117104,0.0437538,1623,1618,10.2169,-21.1517
406,-594,10.2653,20.8164,-0.00250666,-0.00425004,0.0103499,0.00700819,-0.0137649,0.743386,0.012203,0.0275469,1630,1618,10.2653,-20.8164
413,-594,10.2277,20.5927,-0.00257488,-0.00504863,0.010154,0.00641735,-0.0140409,0.724791,0.0120818,0.0210162,1637,1618,10.2277,-20.5926
420,-594,10.2374,20.3192,-0.0023053,-0.00485288,0.00932161,0.00582915,-0.0129873,0.717494,0.0111226,0.017831,1644,1618,10.2375,-20.3192
427,-594,10.2122,20.111,-0.00205663,-0.0045331,0.00841359,0.00520936,-0.0117991,0.712337,0.0100625,0.0124668,1651,1618,10.2121,-20.111
434,-594,10.1741,19.8373,-0.00171732,-0.00380418,0.00717226,0.00448701,-0.0100085,0.713164,0.00856899,0.0157629,1658,1618,10.1741,-19.8372
441,-594,10.1802,19.5433,-0.00128621,-0.0029827,0.00583291,0.0037598,-0.00802872,0.713192,0.00695327,0.0158333,1665,1618,10.1801,-19.5433
448,-594,10.2205,19.256,-0.000817115,-0.00224255,0.0046005,0.00312555,-0.00618522,0.708548,0.00547147,0.0154166,1672,1618,10.2205,-19.256
455,-594,10.2067,18.9573,-0.000529425,-0.00162076,0.00346147,0.00242913,-0.00457931,0.707221,0.00410931,0.0118445,1679,1618,10.2067,-18.9573
462,-594,10.196,18.6692,-0.00033388,-0.00097053,0.00231624,0.00168581,-0.00299022,0.71711,0.00273449,0.0134461,1686,1618,10.196,-18.6691
469,-594,10.1948,18.3964,-9.3591e-05,-0.000498473,0.00130703,0.00102659,-0.00161865,0.708566,0.00153993,0.0117837,1693,1618,10.1949,-18.3963
476,-594,10.194,18.1028,0.000149698,-7.53231e-05,0.000469257,0.000519744,-0.000445369,0.667738,0.000557759,0.011602,1700,1618,10.1939,-18.1028
483,-594,10.1837,17.8068,0.000271049,-3.03171e-05,4.57876e-06,0.000271119,-3.03867e-05,0.0151887,0.000191679,0.0146039,1707,1618,10.1837,-17.8068
490,-594,10.1531,17.4941,0.000326496,-7.22145e-05,-0.000329378,0.00051215,-0.000257869,-0.513264,0.000452579,0.0136583,1714,1618,10.153,-17.4941
497,-594,10.1521,17.1837,0.000230718,-0.000113561,-0.000551771,0.000636578,-0.000519421,-0.634194,0.000668558,0.0105341,1721,1618,10.1521,-17.1837
504,-594,10.1682,16.8905,-0.000156109,-0.000420679,-1.74669e-05,-0.000154961,-0.000421827,-0.0656401,0.000246382,0.0103371,1728,1618,10.1682,-16.8904
511,-594,10.1642,16.5636,-0.000703116,-0.00105486,0.000797564,-6.22633e-05,-0.00169571,0.676879,0.0011103,0.013866,1735,1618,10.1642,-16.5636
518,-594,10.1348,16.2253,-0.00144169,-0.00162735,0.00180004,0.000267909,-0.00333695,0.759636,0.0023191,0.0171414,1742,1618,10.1348,-16.2254
525,-594,10.1632,15.9047,-0.00259512,-0.00265089,0.00347255,0.000849657,-0.00609567,0.781383,0.00437459,0.0282841,1749,1618,10.1632,-15.9047
532,-594,10.1753,15.7943,-0.00448459,-0.00427745,0.0060452,0.00166507,-0.0104271,0.793963,0.00756774,0.0446062,1756,1618,10.1753,-15.7943
539,-594,10.2391,15.5515,0,0,0,0,0,0,0,-1,1763,1618,10.2391,-15.5516
546,-594,7.48645,8.54785,0,0,0,0,0,0,0,-1,1770,1618,7.48639,-8.54789
553,-594,3.69714,5.68762,0,0,0,0,0,0,0,-1,1777,1618,3.69715,-5.68764
560,-594,6.06616,4.44482,0,0,0,0,0,0,0,-1,1784,1618,6.06621,-4.44477
567,-594,5.97266,4.73303,0,0,0,0,0,0,0,-1,1791,1618,5.97271,-4.73309
574,-594,5.9906,4.96326,0,0,0,0,0,0,0,-1,1798,1618,5.99065,-4.96326
581,-594,0,0,0,0,0,0,0,0,0,-1,1805,1618,0,0
588,-594,0,0,0,0,0,0,0,0,0,-1,1812,1618,0,0
595,-594,0,0,0,0,0,0,0,0,0,-1,1819,1618,0,0
602,-594,0,0,0,0,0,0,0,0,0,-1,1826,1618,0,0
609,-594,0,0,0,0,0,0,0,0,0,-1,1833,1618,0,0
616,-594,0,0,0,0,0,0,0,0,0,-1,1840,1618,0,0
623,-594,0,0,0,0,0,0,0,0,0,-1,1847,1618,0,0
630,-594,0,0,0,0,0,0,0,0,0,-1,1854,1618,0,0
637,-594,0,0,0,0,0,0,0,0,0,-1,1861,1618,0,0
644,-594,0,0,0,0,0,0,0,0,0,-1,1868,1618,0,0
651,-594,0,0,0,0,0,0,0,0,0,-1,1875,1618,0,0
658,-594,0,0,0,0,0,0,0,0,0,-1,1882,1618,0,0
665,-594,0,0,0,0,0,0,0,0,0,-1,1889,1618,0,0
672,-594,0,0,0,0,0,0,0,0,0,-1,1896,1618,0,0
679,-594,0,0,0,0,0,0,0,0,0,-1,1903,1618,0,0
686,-594,0,0,0,0,0,0,0,0,0,-1,1910,1618,0,0
693,-594,0,0,0,0,0,0,0,0,0,-1,1917,1618,0,0
700,-594,0,0,0,0,0,0,0,0,0,-1,1924,1618,0,0
707,-594,0,0,0,0,0,0,0,0,0,-1,1931,1618,0,0
714,-594,0,0,0,0,0,0,0,0,0,-1,1938,1618,0,0
721,-594,0,0,0,0,0,0,0,0,0,-1,1945,1618,0,0
728,-594,0,0,0,0,0,0,0,0,0,-1,1952,1618,0,0
735,-594,0,0,0,0,0,0,0,0,0,-1,1959,1618,0,0
742,-594,0,0,0,0,0,0,0,0,0,-1,1966,1618,0,0
749,-594,0,0,0,0,0,0,0,0,0,-1,1973,1618,0,0
756,-594,0,0,0,0,0,0,0,0,0,-1,1980,1618,0,0
763,-594,0,0,0,0,0,0,0,0,0,-1,1987,1618,0,0
770,-594,0,0,0,0,0,0,0,0,0,-1,1994,1618,0,0
777,-594,0,0,0,0,0,0,0,0,0,-1,2001,1618,0,0
784,-594,0,0,0,0,0,0,0,0,0,-1,2008,1618,0,0
791,-594,0,0,0,0,0,0,0,0,0,-1,2015,1618,0,0
798,-594,0,0,0,0,0,0,0,0,0,-1,2022,1618,0,0
805,-594,0,0,0,0,0,0,0,0,0,-1,2029,1618,0,0
812,-594,0,0,0,0,0,0,0,0,0,-1,2036,1618,0,0
-700,-601,0,0,0,0,0,0,0,0,0,-1,524,1625,0,0
-693,-601,0,0,0,0,0,0,0,0,0,-1,531,1625,0,0
-686,-601,0,0,0,0,0,0,0,0,0,-1,538,1625,0,0
-679,-601,0,0,0,0,0,0,0,0,0,-1,545,1625,0,0
-672,-601,0,0,0,0,0,0,0,0,0,-1,552,1625,0,0
-665,-601,0,0,0,0,0,0,0,0,0,-1,559,1625,0,0
-658,-601,0,0,0,0,0,0,0,0,0,-1,566,1625,0,0
-651,-601,0,0,0,0,0,0,0,0,0,-1,573,1625,0,0
-644,-601,0,0,0,0,0,0,0,0,0,-1,580,1625,0,0
-637,-601,0,0,0,0,0,0,0,0,0,-1,587,1625,0,0
-630,-601,0,0,0,0,0,0,0,0,0,-1,594,1625,0,0
-623,-601,0,0,0,0,0,0,0,0,0,-1,601,1625,0,0
-616,-601,0,0,0,0,0,0,0,0,0,-1,608,1625,0,0
-609,-601,0,0,0,0,0,0,0,0,0,-1,615,1625,0,0
-602,-601,0,0,0,0,0,0,0,0,0,-1,622,1625,0,0
-595,-601,0,0,0,0,0,0,0,0,0,-1,629,1625,0,0
-588,-601,0,0,0,0,0,0,0,0,0,-1,636,1625,0,0
-581,-601,0,0,0,0,0,0,0,0,0,-1,643,1625,0,0
-574,-601,0,0,0,0,0,0,0,0,0,-1,650,1625,0,0
-567,-601,0,0,0,0,0,0,0,0,0,-1,657,1625,0,0
-560,-601,0,0,0,0,0,0,0,0,0,-1,664,1625,0,0
-553,-601,0,0,0,0,0,0,0,0,0,-1,671,1625,0,0
-546,-601,0,0,0,0,0,0,0,0,0,-1,678,1625,0,0
-539,-601,0,0,0,0,0,0,0,0,0,-1,685,1625,0,0
-532,-601,0,0,0,0,0,0,0,0,0,-1,692,1625,0,0
-525,-601,0,0,0,0,0,0,0,0,0,-1,699,1625,0,0
-518,-601,0,0,0,0,0,0,0,0,0,-1,706,1625,0,0
-511,-601,0,0,0,0,0,0,0,0,0,-1,713,1625,0,0
-504,-601,0,0,0,0,0,0,0,0,0,-1,720,1625,0,0
-497,-601,0,0,0,0,0,0,0,0,0,-1,727,1625,0,0
-490,-601,0,0,0,0,0,0,0,0,0,-1,734,1625,0,0
-483,-601,0,0,0,0,0,0,0,0,0,-1,741,1625,0,0
-476,-601,0,0,0,0,0,0,0,0,0,-1,748,1625,0,0
-469,-601,0,0,0,0,0,0,0,0,0,-1,755,1625,0,0
-462,-601,0,0,0,0,0,0,0,0,0,-1,762,1625,0,0
-455,-601,0,0,0,0,0,0,0,0,0,-1,769,1625,0,0
-448,-601,-7.07623,2.7616,0,0,0,0,0,0,0,-1,776,1625,-7.07626,-2.76161
-441,-601,-6.06689,3.33447,0,0,0,0,0,0,0,-1,783,1625,-6.06691,-3.33448
-434,-601,-5.02655,3.8468,0,0,0,0,0,0,0,-1,790,1625,-5.02657,-3.84674
-427,-601,-5.78601,4.2406,0,0,0,0,0,0,0,-1,797,1625,-5.786,-4.24058
-420,-601,-5.5191,5.60364,0,0,0,0,0,0,0,-1,804,1625,-5.51907,-5.60368
-413,-601,-4.30756,5.86047,0,0,0,0,0,0,0,-1,811,1625,-4.30757,-5.86046
-406,-601,-1.67493,7.20422,0,0,0,0,0,0,0,-1,818,1625,-1.67493,-7.20428
-399,-601,2.11957,14.4425,0,0,0,0,0,0,0,-1,825,1625,2.11956,-14.4425
-392,-601,2.17755,14.8052,-0.00225326,-0.00582532,0.00219909,-0.00120629,-0.00687229,0.44434,0.00423706,0.0487952,832,1625,2.17756,-14.8052
-385,-601,2.24011,15.1676,-0.00154583,-0.00511536,0.00167489,-0.000883014,-0.00577818,0.376825,0.00359412,0.0427645,839,1625,2.2401,-15.1676
-378,-601,2.2124,15.4701,-0.00107892,-0.00418111,0.00129722,-0.000607969,-0.00465206,0.348252,0.00291989,0.0323137,846,1625,2.21241,-15.4701
-371,-601,2.26385,15.688,-0.000798994,-0.00357847,0.00085214,-0.000558543,-0.00381892,0.275022,0.0023817,0.0167657,853,1625,2.26386,-15.688
-364,-601,2.26154,16.0178,-0.000546081,-0.00277845,0.000652723,-0.00036924,-0.00295529,0.264576,0.00185938,0.0111868,860,1625,2.26153,-16.0178
-357,-601,2.23724,16.3672,-0.000138875,-0.00213935,0.000566603,1.04583e-05,-0.00228869,0.257699,0.00152929,0.0105734,867,1625,2.23724,-16.3672
-350,-601,2.24213,16.7659,0.00023333,-0.00157163,0.000512949,0.000368918,-0.00170722,0.258421,0.00127898,0.0212041,874,1625,2.2421,-16.7659
-343,-601,2.20801,17.0834,0.000529132,-0.00112353,0.000556881,0.000699264,-0.00129366,0.296504,0.00116755,0.0216109,881,1625,2.20803,-17.0833
-336,-601,2.18555,17.3158,0.000882554,-0.000607098,0.000607042,0.0010986,-0.000823139,0.341914,0.00111331,0.0184269,888,1625,2.18557,-17.3158
-329,-601,2.20526,17.665,0.00136881,-0.000197901,0.00082705,0.0017246,-0.000553693,0.406263,0.00137206,0.0150147,895,1625,2.20527,-17.6651
-322,-601,2.22021,17.9973,0.00177462,6.1075e-05,0.00106665,0.00228598,-0.00045029,0.447042,0.00169415,0.0121644,902,1625,2.22022,-17.9973
-315,-601,2.22369,18.2777,0.00218084,0.000141049,0.0013001,0.00281335,-0.000491465,0.452798,0.00205904,0.0127462,909,1625,2.22368,-18.2777
-308,-601,2.22388,18.5852,0.00262044,0.000145047,0.00151314,0.00333761,-0.000572121,0.442599,0.00243826,0.0118254,916,1625,2.22387,-18.5852
-301,-601,2.22852,18.8755,0.00303403,2.75433e-06,0.00167805,0.00377959,-0.000742806,0.418104,0.00280036,0.00943838,923,1625,2.22849,-18.8755
-294,-601,2.2132,19.1736,0.0034747,4.44131e-05,0.00188625,0.004309,-0.000789883,0.416436,0.00316895,0.00949823,930,1625,2.21317,-19.1735
-287,-601,2.1972,19.4751,0.00388467,-8.43133e-05,0.00202059,0.00473231,-0.000931961,0.397206,0.00350705,0.0101388,937,1625,2.19722,-19.4751
-280,-601,2.21356,19.7754,0.00434427,-0.000223945,0.00214107,0.00519088,-0.00107055,0.376543,0.00386715,0.0116126,944,1625,2.21354,-19.7754
-273,-601,2.22937,20.0909,0.00484287,-0.000422076,0.00220107,0.00564181,-0.00122102,0.348191,0.00422741,0.0119584,951,1625,2.22938,-20.0909
-266,-601,2.27136,20.3839,0.00538798,-0.000859982,0.00234113,0.00616786,-0.00163986,0.32156,0.00475376,0.0149044,958,1625,2.27135,-20.3839
-259,-601,2.3327,20.5566,0.00597362,-0.00110055,0.00254321,0.00679301,-0.00191993,0.311686,0.00528618,0.0267252,965,1625,2.33268,-20.5567
-252,-601,2.29187,20.7834,0.00694099,-0.00118115,0.00276363,0.00779215,-0.00203231,0.298766,0.00598828,0.0430569,972,1625,2.29189,-20.7834
-245,-601,2.37482,21.3431,0.00811208,-0.00169072,0.00322161,0.00907604,-0.00265469,0.290739,0.00710293,0.043152,979,1625,2.3748,-21.3431
-238,-601,2.48566,21.4265,0,0,0,0,0,0,0,-1,986,1625,2.48567,-21.4265
-231,-601,2.66772,13.7051,0,0,0,0,0,0,0,-1,993,1625,2.6677,-13.7051
-224,-601,-0.0305176,9.13684,0,0,0,0,0,0,0,-1,1000,1625,-0.030498,-9.13681
-217,-601,3.39429,10.3898,0,0,0,0,0,0,0,-1,1007,1625,3.39431,-10.3898
-210,-601,-6.53699,15.7931,0,0,0,0,0,0,0,-1,1014,1625,-6.53697,-15.7931
-203,-601,2.69348,15.9099,0,0,0,0,0,0,0,-1,1021,1625,2.69351,-15.91
-196,-601,2.66992,16.1815,0,0,0,0,0,0,0,-1,1028,1625,2.66995,-16.1815
-189,-601,2.849,16.6105,0,0,0,0,0,0,0,-1,1035,1625,2.84902,-16.6104
-182,-601,1.82153,13.9752,0,0,0,0,0,0,0,-1,1042,1625,1.82155,-13.9752
-175,-601,0.544922,9.28687,0,0,0,0,0,0,0,-1,1049,1625,0.544879,-9.28685
-168,-601,-0.247559,8.97461,0,0,0,0,0,0,0,-1,1056,1625,-0.247598,-8.97466
-161,-601,-1.16833,8.80078,0,0,0,0,0,0,0,-1,1063,1625,-1.16837,-8.80081
-154,-601,1.12756,7.94861,0,0,0,0,0,0,0,-1,1070,1625,1.12762,-7.94855
-147,-601,1.35352,9.55432,0,0,0,0,0,0,0,-1,1077,1625,1.35351,-9.55429
-140,-601,1.72437,11.1498,0,0,0,0,0,0,0,-1,1084,1625,1.72432,-11.1498
-133,-601,2.13281,12.8347,0,0,0,0,0,0,0,-1,1091,1625,2.13287,-12.8348
-126,-601,3.09534,15.427,0,0,0,0,0,0,0,-1,1098,1625,3.0953,-15.4271
-119,-601,1.22485,9.43457,0,0,0,0,0,0,0,-1,1105,1625,1.22489,-9.43456
-112,-601,0,0,0,0,0,0,0,0,0,-1,1112,1625,0,0
-105,-601,0,0,0,0,0,0,0,0,0,-1,1119,1625,0,0
-98,-601,0,0,0,0,0,0,0,0,0,-1,1126,1625,0,0
-91,-601,0,0,0,0,0,0,0,0,0,-1,1133,1625,0,0
-84,-601,0,0,0,0,0,0,0,0,0,-1,1140,1625,0,0
-77,-601,0,0,0,0,0,0,0,0,0,-1,1147,1625,0,0
-70,-601,0,0,0,0,0,0,0,0,0,-1,1154,1625,0,0
-63,-601,0,0,0,0,0,0,0,0,0,-1,1161,1625,0,0
-56,-601,0,0,0,0,0,0,0,0,0,-1,1168,1625,0,0
-49,-601,0,0,0,0,0,0,0,0,0,-1,1175,1625,0,0
-42,-601,0,0,0,0,0,0,0,0,0,-1,1182,1625,0,0
-35,-601,0,0,0,0,0,0,0,0,0,-1,1189,1625,0,0
-28,-601,0,0,0,0,0,0,0,0,0,-1,1196,1625,0,0
-21,-601,0,0,0,0,0,0,0,0,0,-1,1203,1625,0,0
-14,-601,0,0,0,0,0,0,0,0,0,-1,1210,1625,0,0
-7,-601,0,0,0,0,0,0,0,0,0,-1,1217,1625,0,0
0,-601,0,0,0,0,0,0,0,0,0,-1,1224,1625,0,0
7,-601,0,0,0,0,0,0,0,0,0,-1,1231,1625,0,0
14,-601,0,0,0,0,0,0,0,0,0,-1,1238,1625,0,0
21,-601,0,0,0,0,0,0,0,0,0,-1,1245,1625,0,0
28,-601,0,0,0,0,0,0,0,0,0,-1,1252,1625,0,0
35,-601,0,0,0,0,0,0,0,0,0,-1,1259,1625,0,0
42,-601,0,0,0,0,0,0,0,0,0,-1,1266,1625,0,0
49,-601,0,0,0,0,0,0,0,0,0,-1,1273,1625,0,0
56,-601,0,0,0,0,0,0,0,0,0,-1,1280,1625,0,0
63,-601,0,0,0,0,0,0,0,0,0,-1,1287,1625,0,0
70,-601,0,0,0,0,0,0,0,0,0,-1,1294,1625,0,0
77,-601,0,0,0,0,0,0,0,0,0,-1,1301,1625,0,0
84,-601,0,0,0,0,0,0,0,0,0,-1,1308,1625,0,0
91,-601,0,0,0,0,0,0,0,0,0,-1,1315,1625,0,0
98,-601,0,0,0,0,0,0,0,0,0,-1,1322,1625,0,0
105,-601,0,0,0,0,0,0,0,0,0,-1,1329,1625,0,0
112,-601,0,0,0,0,0,0,0,0,0,-1,1336,1625,0,0
119,-601,0,0,0,0,0,0,0,0,0,-1,1343,1625,0,0
126,-601,0,0,0,0,0,0,0,0,0,-1,1350,1625,0,0
133,-601,0,0,0,0,0,0,0,0,0,-1,1357,1625,0,0
140,-601,0,0,0,0,0,0,0,0,0,-1,1364,1625,0,0
147,-601,0,0,0,0,0,0,0,0,0,-1,1371,1625,0,0
154,-601,0,0,0,0,0,0,0,0,0,-1,1378,1625,0,0
161,-601,0,0,0,0,0,0,0,0,0,-1,1385,1625,0,0
168,-601,0,0,0,0,0,0,0,0,0,-1,1392,1625,0,0
175,-601,0,0,0,0,0,0,0,0,0,-1,1399,1625,0,0
182,-601,0,0,0,0,0,0,0,0,0,-1,1406,1625,0,0
189,-601,0,0,0,0,0,0,0,0,0,-1,1413,1625,0,0
196,-601,0,0,0,0,0,0,0,0,0,-1,1420,1625,0,0
203,-601,0,0,0,0,0,0,0,0,0,-1,1427,1625,0,0
210,-601,0,0,0,0,0,0,0,0,0,-1,1434,1625,0,0
217,-601,0,0,0,0,0,0,0,0,0,-1,1441,1625,0,0
224,-601,0,0,0,0,0,0,0,0,0,-1,1448,1625,0,0
231,-601,-0.0371094,0.525879,0,0,0,0,0,0,0,-1,1455,1625,-0.0371518,-0.525824
238,-601,2.03369,-1.32861,0,0,0,0,0,0,0,-1,1462,1625,2.03364,1.32858
245,-601,2.71375,2.44983,0,0,0,0,0,0,0,-1,1469,1625,2.71371,-2.44979
252,-601,4.66943,2.28381,0,0,0,0,0,0,0,-1,1476,1625,4.66947,-2.28376
259,-601,6.42712,2.61987,0,0,0,0,0,0,0,-1,1483,1625,6.42711,-2.61985
266,-601,6.75317,1.68701,0,0,0,0,0,0,0,-1,1490,1625,6.75323,-1.687
273,-601,5.4314,2.92053,0,0,0,0,0,0,0,-1,1497,1625,5.43144,-2.92051
280,-601,4.64722,1.17786,0,0,0,0,0,0,0,-1,1504,1625,4.64722,-1.1779
287,-601,5.32532,2.6217,0,0,0,0,0,0,0,-1,1511,1625,5.32535,-2.62171
294,-601,5.97693,4.22693,0,0,0,0,0,0,0,-1,1518,1625,5.97697,-4.22694
301,-601,7.28162,9.50024,0,0,0,0,0,0,0,-1,1525,1625,7.28162,-9.50025
308,-601,6.53528,10.3927,0,0,0,0,0,0,0,-1,1532,1625,6.53529,-10.3927
315,-601,4.88013,11.7184,0,0,0,0,0,0,0,-1,1539,1625,4.88015,-11.7184
322,-601,3.38098,12.7864,0,0,0,0,0,0,0,-1,1546,1625,3.38104,-12.7864
329,-601,1.8772,13.8768,0,0,0,0,0,0,0,-1,1553,1625,1.87716,-13.8768
336,-601,4.67847,9.53308,0,0,0,0,0,0,0,-1,1560,1625,4.67848,-9.53309
343,-601,11.1404,3.14575,0,0,0,0,0,0,0,-1,1567,1625,11.1404,-3.1458
350,-601,10.9462,2.37769,0,0,0,0,0,0,0,-1,1574,1625,10.9461,-2.37764
357,-601,10.7518,1.6095,0,0,0,0,0,0,0,-1,1581,1625,10.7518,-1.60948
364,-601,5.33643,9.74426,0,0,0,0,0,0,0,-1,1588,1625,5.33637,-9.74429
371,-601,8.46387,16.2725,0,0,0,0,0,0,0,-1,1595,1625,8.46385,-16.2725
378,-601,10.0315,22.153,0,0,0,0,0,0,0,-1,1602,1625,10.0315,-22.153
385,-601,9.92615,21.8032,0,0,0,0,0,0,0,-1,1609,1625,9.9261,-21.8032
392,-601,9.93396,21.4458,-0.000243202,0.00249418,0.00493027,0.00624221,-0.00399124,0.920793,0.00595574,0.0429266,1616,1625,9.93393,-21.4458
399,-601,9.849,21.1141,-0.000590596,-5.73192e-05,0.00626441,0.00594612,-0.00659404,0.806667,0.00724328,0.0226101,1623,1625,9.84902,-21.1141
406,-601,9.89465,20.8584,-0.00121145,-0.00163866,0.00670208,0.00528042,-0.00813053,0.769468,0.00780089,0.013512,1630,1625,9.89461,-20.8584
413,-601,9.90955,20.5853,-0.00147957,-0.00274683,0.00678546,0.00470178,-0.00892818,0.738843,0.00799437,0.0118429,1637,1625,9.90956,-20.5853
420,-601,9.91785,20.3441,-0.00149755,-0.00298315,0.0063714,0.0041742,-0.0086549,0.727368,0.00755597,0.0103101,1644,1625,9.91788,-20.3441
427,-601,9.94006,20.083,-0.00153575,-0.0031098,0.00589722,0.00362673,-0.00827228,0.719062,0.00704226,0.0149212,1651,1625,9.94005,-20.083
434,-601,9.91833,19.8201,-0.00142845,-0.00275885,0.00505505,0.00300497,-0.00719228,0.719978,0.00605058,0.0155211,1658,1625,9.91839,-19.8201
441,-601,9.91064,19.5273,-0.00117093,-0.00229812,0.00410204,0.00240605,-0.0058751,0.717129,0.00491897,0.0167591,1665,1625,9.91068,-19.5274
448,-601,9.92944,19.2601,-0.000838809,-0.00187039,0.00320298,0.00188965,-0.00459884,0.705566,0.00385344,0.0140678,1672,1625,9.9294,-19.2602
455,-601,9.92505,18.9631,-0.000655633,-0.00149996,0.00236491,0.0013245,-0.00348009,0.697073,0.00286548,0.012142,1679,1625,9.92504,-18.9631
462,-601,9.90857,18.6711,-0.000522792,-0.00108648,0.00149671,0.000718377,-0.00232765,0.692333,0.00183862,0.0105328,1686,1625,9.90857,-18.6712
469,-601,9.90356,18.4036,-0.000318905,-0.000748357,0.000720697,0.000218373,-0.00128564,0.640614,0.00093839,0.0104763,1693,1625,9.90352,-18.4036
476,-601,9.90979,18.1232,-0.000107835,-0.000470134,9.38495e-05,-8.49679e-05,-0.000493001,0.239002,0.000304325,0.0125938,1700,1625,9.90979,-18.1232
483,-601,9.89819,17.8293,2.65176e-05,-0.000473221,-0.000252099,0.000131597,-0.0005783,-0.39492,0.000436069,0.0158019,1707,1625,9.89817,-17.8293
490,-601,9.87646,17.5177,0.000132112,-0.000494573,-0.000547195,0.00044933,-0.000811791,-0.525371,0.000738065,0.0123282,1714,1625,9.87648,-17.5177
497,-601,9.89441,17.1967,0.000106241,-0.000434053,-0.000722273,0.000607235,-0.000935046,-0.606441,0.000897116,0.00971574,1721,1625,9.89438,-17.1967
504,-601,9.9104,16.8738,-0.000161386,-0.000739416,-0.000119391,-0.000137697,-0.000763105,-0.195873,0.000469616,0.0165895,1728,1625,9.91044,-16.8738
511,-601,9.80261,16.5762,-0.000726515,-0.00127569,0.000668001,-0.000278866,-0.00172333,0.590398,0.00106814,0.0283979,1735,1625,9.80261,-16.5762
518,-601,9.74109,16.0981,-0.0014857,-0.00171028,0.00165585,6.16598e-05,-0.00325765,0.751542,0.00219261,0.0409552,1742,1625,9.74113,-16.0982
525,-601,9.86877,15.8403,0,0,0,0,0,0,0,-1,1749,1625,9.86874,-15.8404
532,-601,9.86682,15.941,0,0,0,0,0,0,0,-1,1756,1625,9.86678,-15.9411
539,-601,7.77112,11.4299,0,0,0,0,0,0,0,-1,1763,1625,7.77116,-11.4299
546,-601,6.56873,3.62354,0,0,0,0,0,0,0,-1,1770,1625,6.56867,-3.62352
553,-601,7.03015,4.25049,0,0,0,0,0,0,0,-1,1777,1625,7.03011,-4.25048
560,-601,7.50745,4.83374,0,0,0,0,0,0,0,-1,1784,1625,7.50744,-4.83376
567,-601,7.82043,3.83301,0,0,0,0,0,0,0,-1,1791,1625,7.82041,-3.83303
574,-601,0,0,0,0,0,0,0,0,0,-1,1798,1625,0,0
581,-601,0,0,0,0,0,0,0,0,0,-1,1805,1625,0,0
588,-601,0,0,0,0,0,0,0,0,0,-1,1812,1625,0,0
595,-601,0,0,0,0,0,0,0,0,0,-1,1819,1625,0,0
602,-601,0,0,0,0,0,0,0,0,0,-1,1826,1625,0,0
609,-601,0,0,0,0,0,0,0,0,0,-1,1833,1625,0,0
616,-601,0,0,0,0,0,0,0,0,0,-1,1840,1625,0,0
623,-601,0,0,0,0,0,0,0,0,0,-1,1847,1625,0,0
630,-601,0,0,0,0,0,0,0,0,0,-1,1854,1625,0,0
637,-601,0,0,0,0,0,0,0,0,0,-1,1861,1625,0,0
644,-601,0,0,0,0,0,0,0,0,0,-1,1868,1625,0,0
651,-601,0,0,0,0,0,0,0,0,0,-1,1875,1625,0,0
658,-601,0,0,0,0,0,0,0,0,0,-1,1882,1625,0,0
665,-601,0,0,0,0,0,0,0,0,0,-1,1889,1625,0,0
672,-601,0,0,0,0,0,0,0,0,0,-1,1896,1625,0,0
679,-601,0,0,0,0,0,0,0,0,0,-1,1903,1625,0,0
686,-601,0,0,0,0,0,0,0,0,0,-1,1910,1625,0,0
693,-601,0,0,0,0,0,0,0,0,0,-1,1917,1625,0,0
700,-601,0,0,0,0,0,0,0,0,0,-1,1924,1625,0,0
707,-601,0,0,0,0,0,0,0,0,0,-1,1931,1625,0,0
714,-601,0,0,0,0,0,0,0,0,0,-1,1938,1625,0,0
721,-601,0,0,0,0,0,0,0,0,0,-1,1945,1625,0,0
728,-601,0,0,0,0,0,0,0,0,0,-1,1952,1625,0,0
735,-601,0,0,0,0,0,0,0,0,0,-1,1959,1625,0,0
742,-601,0,0,0,0,0,0,0,0,0,-1,1966,1625,0,0
749,-601,0,0,0,0,0,0,0,0,0,-1,1973,1625,0,0
756,-601,0,0,0,0,0,0,0,0,0,-1,1980,1625,0,0
763,-601,0,0,0,0,0,0,0,0,0,-1,1987,1625,0,0
770,-601,0,0,0,0,0,0,0,0,0,-1,1994,1625,0,0
777,-601,0,0,0,0,0,0,0,0,0,-1,2001,1625,0,0
784,-601,0,0,0,0,0,0,0,0,0,-1,2008,1625,0,0
791,-601,0,0,0,0,0,0,0,0,0,-1,2015,1625,0,0
798,-601,0,0,0,0,0,0,0,0,0,-1,2022,1625,0,0
805,-601,0,0,0,0,0,0,0,0,0,-1,2029,1625,0,0
812,-601,0,0,0,0,0,0,0,0,0,-1,2036,1625,0,0
-700,-608,0,0,0,0,0,0,0,0,0,-1,524,1632,0,0
-693,-608,0,0,0,0,0,0,0,0,0,-1,531,1632,0,0
-686,-608,0,0,0,0,0,0,0,0,0,-1,538,1632,0,0
-679,-608,0,0,0,0,0,0,0,0,0,-1,545,1632,0,0
-672,-608,0,0,0,0,0,0,0,0,0,-1,552,1632,0,0
-665,-608,0,0,0,0,0,0,0,0,0,-1,559,1632,0,0
-658,-608,0,0,0,0,0,0,0,0,0,-1,566,1632,0,0
-651,-608,0,0,0,0,0,0,0,0,0,-1,573,1632,0,0
-644,-608,0,0,0,0,0,0,0,0,0,-1,580,1632,0,0
-637,-608,0,0,0,0,0,0,0,0,0,-1,587,1632,0,0
-630,-608,0,0,0,0,0,0,0,0,0,-1,594,1632,0,0
-623,-608,0,0,0,0,0,0,0,0,0,-1,601,1632,0,0
-616,-608,0,0,0,0,0,0,0,0,0,-1,608,1632,0,0
-609,-608,0,0,0,0,0,0,0,0,0,-1,615,1632,0,0
-602,-608,0,0,0,0,0,0,0,0,0,-1,622,1632,0,0
-595,-608,0,0,0,0,0,0,0,0,0,-1,629,1632,0,0
-588,-608,0,0,0,0,0,0,0,0,0,-1,636,1632,0,0
-581,-608,0,0,0,0,0,0,0,0,0,-1,643,1632,0,0
-574,-608,0,0,0,0,0,0,0,0,0,-1,650,1632,0,0
-567,-608,0,0,0,0,0,0,0,0,0,-1,657,1632,0,0
-560,-608,0,0,0,0,0,0,0,0,0,-1,664,1632,0,0
-553,-608,0,0,0,0,0,0,0,0,0,-1,671,1632,0,0
-546,-608,0,0,0,0,0,0,0,0,0,-1,678,1632,0,0
-539,-608,0,0,0,0,0,0,0,0,0,-1,685,1632,0,0
-532,-608,0,0,0,0,0,0,0,0,0,-1,692,1632,0,0
-525,-608,0,0,0,0,0,0,0,0,0,-1,699,1632,0,0
-518,-608,0,0,0,0,0,0,0,0,0,-1,706,1632,0,0
-511,-608,0,0,0,0,0,0,0,0,0,-1,713,1632,0,0
-504,-608,0,0,0,0,0,0,0,0,0,-1,720,1632,0,0
-497,-608,0,0,0,0,0,0,0,0,0,-1,727,1632,0,0
-490,-608,0,0,0,0,0,0,0,0,0,-1,734,1632,0,0
-483,-608,0,0,0,0,0,0,0,0,0,-1,741,1632,0,0
-476,-608,0,0,0,0,0,0,0,0,0,-1,748,1632,0,0
-469,-608,0,0,0,0,0,0,0,0,0,-1,755,1632,0,0
-462,-608,0,0,0,0,0,0,0,0,0,-1,762,1632,0,0
-455,-608,0,0,0,0,0,0,0,0,0,-1,769,1632,0,0
-448,-608,0,0,0,0,0,0,0,0,0,-1,776,1632,0,0
-441,-608,-7.34601,2.78052,0,0,0,0,0,0,0,-1,783,1632,-7.346,-2.78056
-434,-608,-6.34558,3.27405,0,0,0,0,0,0,0,-1,790,1632,-6.34555,-3.27406
-427,-608,-7.74335,4.17688,0,0,0,0,0,0,0,-1,797,1632,-7.74334,-4.17693
-420,-608,-6.82794,4.34839,0,0,0,0,0,0,0,-1,804,1632,-6.82794,-4.34838
-413,-608,-5.41919,5.66138,0,0,0,0,0,0,0,-1,811,1632,-5.41917,-5.66133
-406,-608,-4.79681,4.98999,0,0,0,0,0,0,0,-1,818,1632,-4.79684,-4.98997
-399,-608,-2.60645,6.34167,0,0,0,0,0,0,0,-1,825,1632,-2.60643,-6.34169
-392,-608,2.48175,14.8905,0,0,0,0,0,0,0,-1,832,1632,2.48176,-14.8905
-385,-608,2.53949,15.2468,0,0,0,0,0,0,0,-1,839,1632,2.53947,-15.2468
-378,-608,2.49664,15.5571,0,0,0,0,0,0,0,-1,846,1632,2.49661,-15.5571
-371,-608,2.69135,15.5879,0,0,0,0,0,0,0,-1,853,1632,2.69135,-15.5879
-364,-608,2.61725,15.9269,5.8635e-05,-0.00335264,0.00134506,0.000525183,-0.00381919,0.333875,0.00273803,0.0236661,860,1632,2.61723,-15.9269
-357,-608,2.55511,16.2887,0.000543108,-0.00232232,0.00120924,0.00098521,-0.00276442,0.350507,0.00224462,0.0176872,867,1632,2.55509,-16.2887
-350,-608,2.57513,16.7045,0.000892126,-0.00150403,0.00111181,0.00132852,-0.00194043,0.374034,0.00189832,0.0197239,874,1632,2.57516,-16.7044
-343,-608,2.54614,17.0547,0.00109098,-0.000884221,0.00109193,0.00157568,-0.00136892,0.417762,0.00170146,0.0232416,881,1632,2.54612,-17.0547
-336,-608,2.52466,17.3445,0.00127179,-0.000211084,0.000984603,0.0017629,-0.000702194,0.462679,0.00146648,0.0161288,888,1632,2.52463,-17.3445
-329,-608,2.5025,17.6974,0.00163898,0.000273637,0.00108127,0.00223506,-0.000322437,0.503818,0.00160833,0.0141444,895,1632,2.50251,-17.6974
-322,-608,2.48444,17.9987,0.0019166,0.000577737,0.00121399,0.0026335,-0.000139161,0.533427,0.00180385,0.0147449,902,1632,2.48441,-17.9987
-315,-608,2.5177,18.2701,0.00213598,0.000663347,0.00131637,0.00290798,-0.000108648,0.530401,0.00197586,0.0137029,909,1632,2.51768,-18.2702
-308,-608,2.51422,18.5903,0.00236911,0.000642258,0.00137713,0.0031311,-0.000119736,0.505389,0.00212843,0.0139066,916,1632,2.5142,-18.5904
-301,-608,2.51849,18.8903,0.00256481,0.000467645,0.00138994,0.00325734,-0.000224878,0.462239,0.00225027,0.010698,923,1632,2.51847,-18.8902
-294,-608,2.5177,19.1782,0.00280987,0.000477566,0.00146413,0.0035155,-0.000228068,0.449102,0.00242327,0.0104332,930,1632,2.51771,-19.1782
-287,-608,2.49835,19.4796,0.00302862,0.00033273,0.00149014,0.00369002,-0.000328668,0.417728,0.00257657,0.0100218,937,1632,2.49838,-19.4796
-280,-608,2.51233,19.7596,0.00331288,0.000164615,0.00151911,0.00392634,-0.000448853,0.383807,0.00277929,0.00813222,944,1632,2.51233,-19.7596
-273,-608,2.51245,20.0603,0.00369773,-5.99209e-05,0.0015296,0.00424164,-0.000603832,0.341647,0.00304903,0.00924055,951,1632,2.51244,-20.0603
-266,-608,2.53839,20.3539,0.00417591,-0.00045875,0.00163454,0.00469438,-0.000977215,0.307155,0.00350108,0.00954747,958,1632,2.53841,-20.3538
-259,-608,2.57257,20.6141,0.00476963,-0.00062775,0.0018026,0.00531629,-0.00117441,0.294447,0.00399364,0.0121652,965,1632,2.57254,-20.6141
-252,-608,2.60858,20.8855,0.00566218,-0.000656229,0.0019942,0.00623894,-0.00123299,0.281535,0.0046254,0.0248209,972,1632,2.6086,-20.8855
-245,-608,2.65594,21.2435,0.00663333,-0.000910764,0.00234371,0.00730215,-0.00157959,0.277981,0.00547117,0.0347216,979,1632,2.65596,-21.2435
-238,-608,2.71558,21.4393,0.00738313,-0.00123274,0.0026246,0.00811968,-0.00196929,0.273596,0.00617512,0.0449574,986,1632,2.71556,-21.4393
-231,-608,2.84192,21.7252,0,0,0,0,0,0,0,-1,993,1632,2.84194,-21.7252
-224,-608,2.51642,15.3452,0,0,0,0,0,0,0,-1,1000,1632,2.5164,-15.3452
-217,-608,1.04419,12.8451,0,0,0,0,0,0,0,-1,1007,1632,1.04418,-12.8451
-210,-608,2.75903,15.9414,0,0,0,0,0,0,0,-1,1014,1632,2.75903,-15.9414
-203,-608,2.76776,16.217,0,0,0,0,0,0,0,-1,1021,1632,2.76773,-16.217
-196,-608,1.53955,18.6058,0,0,0,0,0,0,0,-1,1028,1632,1.53959,-18.6058
-189,-608,1.37634,19.119,0,0,0,0,0,0,0,-1,1035,1632,1.37634,-19.1191
-182,-608,2.89221,16.7092,0,0,0,0,0,0,0,-1,1042,1632,2.89224,-16.7093
-175,-608,0.219116,15.1643,0,0,0,0,0,0,0,-1,1049,1632,0.219173,-15.1644
-168,-608,0.000366211,9.48645,0,0,0,0,0,0,0,-1,1056,1632,0.000317105,-9.48648
-161,-608,2.27832,15.4423,0,0,0,0,0,0,0,-1,1063,1632,2.27826,-15.4423
-154,-608,1.3999,16.4037,0,0,0,0,0,0,0,-1,1070,1632,1.39987,-16.4037
-147,-608,2.4386,9.50317,0,0,0,0,0,0,0,-1,1077,1632,2.43858,-9.50313
-140,-608,2.60132,10.8401,0,0,0,0,0,0,0,-1,1084,1632,2.60134,-10.8401
-133,-608,3.2312,12.4738,0,0,0,0,0,0,0,-1,1091,1632,3.23116,-12.4738
-126,-608,3.76465,13.9644,0,0,0,0,0,0,0,-1,1098,1632,3.76466,-13.9644
-119,-608,4.28906,15.4196,0,0,0,0,0,0,0,-1,1105,1632,4.28911,-15.4195
-112,-608,0.745117,10.5587,0,0,0,0,0,0,0,-1,1112,1632,0.745145,-10.5587
-105,-608,-0.252319,1.42419,0,0,0,0,0,0,0,-1,1119,1632,-0.252331,-1.42418
-98,-608,-2.8595,3.0863,0,0,0,0,0,0,0,-1,1126,1632,-2.85948,-3.08625
-91,-608,-3.71948,1.73608,0,0,0,0,0,0,0,-1,1133,1632,-3.7195,-1.73607
-84,-608,0,0,0,0,0,0,0,0,0,-1,1140,1632,0,0
-77,-608,0,0,0,0,0,0,0,0,0,-1,1147,1632,0,0
-70,-608,0,0,0,0,0,0,0,0,0,-1,1154,1632,0,0
-63,-608,0,0,0,0,0,0,0,0,0,-1,1161,1632,0,0
-56,-608,0,0,0,0,0,0,0,0,0,-1,1168,1632,0,0
-49,-608,0,0,0,0,0,0,0,0,0,-1,1175,1632,0,0
-42,-608,0,0,0,0,0,0,0,0,0,-1,1182,1632,0,0
-35,-608,0,0,0,0,0,0,0,0,0,-1,1189,1632,0,0
-28,-608,0,0,0,0,0,0,0,0,0,-1,1196,1632,0,0
-21,-608,0,0,0,0,0,0,0,0,0,-1,1203,1632,0,0
-14,-608,0,0,0,0,0,0,0,0,0,-1,1210,1632,0,0
-7,-608,0,0,0,0,0,0,0,0,0,-1,1217,1632,0,0
0,-608,0,0,0,0,0,0,0,0,0,-1,1224,1632,0,0
7,-608,0,0,0,0,0,0,0,0,0,-1,1231,1632,0,0
14,-608,0,0,0,0,0,0,0,0,0,-1,1238,1632,0,0
21,-608,0,0,0,0,0,0,0,0,0,-1,1245,1632,0,0
28,-608,0,0,0,0,0,0,0,0,0,-1,1252,1632,0,0
35,-608,0,0,0,0,0,0,0,0,0,-1,1259,1632,0,0
42,-608,0,0,0,0,0,0,0,0,0,-1,1266,1632,0,0
49,-608,0,0,0,0,0,0,0,0,0,-1,1273,1632,0,0
56,-608,0,0,0,0,0,0,0,0,0,-1,1280,1632,0,0
63,-608,0,0,0,0,0,0,0,0,0,-1,1287,1632,0,0
70,-608,0,0,0,0,0,0,0,0,0,-1,1294,1632,0,0
77,-608,0,0,0,0,0,0,0,0,0,-1,1301,1632,0,0
84,-608,0,0,0,0,0,0,0,0,0,-1,1308,1632,0,0
91,-608,0,0,0,0,0,0,0,0,0,-1,1315,1632,0,0
98,-608,0,0,0,0,0,0,0,0,0,-1,1322,1632,0,0
105,-608,0,0,0,0,0,0,0,0,0,-1,1329,1632,0,0
112,-608,0,0,0,0,0,0,0,0,0,-1,1336,1632,0,0
119,-608,0,0,0,0,0,0,0,0,0,-1,1343,1632,0,0
126,-608,0,0,0,0,0,0,0,0,0,-1,1350,1632,0,0
133,-608,0,0,0,0,0,0,0,0,0,-1,1357,1632,0,0
140,-608,0,0,0,0,0,0,0,0,0,-1,1364,1632,0,0
147,-608,0,0,0,0,0,0,0,0,0,-1,1371,1632,0,0
154,-608,0,0,0,0,0,0,0,0,0,-1,1378,1632,0,0
161,-608,0,0,0,0,0,0,0,0,0,-1,1385,1632,0,0
168,-608,0,0,0,0,0,0,0,0,0,-1,1392,1632,0,0
175,-608,0,0,0,0,0,0,0,0,0,-1,1399,1632,0,0
182,-608,0,0,0,0,0,0,0,0,0,-1,1406,1632,0,0
189,-608,0,0,0,0,0,0,0,0,0,-1,1413,1632,0,0
196,-608,0,0,0,0,0,0,0,0,0,-1,1420,1632,0,0
203,-608,0,0,0,0,0,0,0,0,0,-1,1427,1632,0,0
210,-608,5.7157,-0.333008,0,0,0,0,0,0,0,-1,1434,1632,5.71566,0.333004
217,-608,4.49402,-0.831787,0,0,0,0,0,0,0,-1,1441,1632,4.49396,0.831738
224,-608,4.18018,-1.11792,0,0,0,0,0,0,0,-1,1448,1632,4.1802,1.11796
231,-608,0.361816,0.825195,0,0,0,0,0,0,0,-1,1455,1632,0.36185,-0.825226
238,-608,2.85388,-0.28833,0,0,0,0,0,0,0,-1,1462,1632,2.85391,0.288282
245,-608,3.87537,4.02173,0,0,0,0,0,0,0,-1,1469,1632,3.87538,-4.02168
252,-608,5.66956,3.5282,0,0,0,0,0,0,0,-1,1476,1632,5.6696,-3.52815
259,-608,7.47437,3.07178,0,0,0,0,0,0,0,-1,1483,1632,7.4744,-3.07172
266,-608,9.46936,2.34766,0,0,0,0,0,0,0,-1,1490,1632,9.46932,-2.34764
273,-608,6.03003,3.34241,0,0,0,0,0,0,0,-1,1497,1632,6.02997,-3.34245
280,-608,5.72461,2.0769,0,0,0,0,0,0,0,-1,1504,1632,5.72457,-2.07688
287,-608,6.20581,3.59338,0,0,0,0,0,0,0,-1,1511,1632,6.20585,-3.59341
294,-608,6.94922,5.17151,0,0,0,0,0,0,0,-1,1518,1632,6.94925,-5.17151
301,-608,7.60083,6.68018,0,0,0,0,0,0,0,-1,1525,1632,7.60086,-6.68013
308,-608,7.64746,9.93848,0,0,0,0,0,0,0,-1,1532,1632,7.64745,-9.93842
315,-608,5.30688,11.2054,0,0,0,0,0,0,0,-1,1539,1632,5.30694,-11.2054
322,-608,5.32617,13.7581,0,0,0,0,0,0,0,-1,1546,1632,5.32613,-13.758
329,-608,7.12231,13.9607,0,0,0,0,0,0,0,-1,1553,1632,7.12231,-13.9607
336,-608,5.48633,7.82446,0,0,0,0,0,0,0,-1,1560,1632,5.48634,-7.82446
343,-608,5.47192,5.61047,0,0,0,0,0,0,0,-1,1567,1632,5.47192,-5.61045
350,-608,11.6957,1.71387,0,0,0,0,0,0,0,-1,1574,1632,11.6957,-1.71388
357,-608,3.77002,5.10046,0,0,0,0,0,0,0,-1,1581,1632,3.77002,-5.10043
364,-608,5.6925,11.2163,0,0,0,0,0,0,0,-1,1588,1632,5.69255,-11.2163
371,-608,9.03687,23.1133,0,0,0,0,0,0,0,-1,1595,1632,9.03691,-23.1133
378,-608,9.66211,21.9739,0.00176597,0.00901168,0.000509894,0.00904739,0.00173026,1.50088,0.00554556,0.0451425,1602,1632,9.6621,-21.9739
385,-608,9.68933,21.694,0.00128136,0.00573961,0.00149875,0.00619661,0.000824361,1.27483,0.00388555,0.0334334,1609,1632,9.68931,-21.694
392,-608,9.6123,21.4263,0.000590855,0.00345482,0.0026688,0.00505154,-0.00100587,1.03163,0.00374824,0.0235087,1616,1632,9.61228,-21.4262
399,-608,9.60461,21.1442,-0.000140821,0.00141165,0.00351252,0.00423269,-0.00296185,0.894146,0.00417532,0.0109581,1623,1632,9.60465,-21.1442
406,-608,9.61584,20.8596,-0.000757059,-7.22863e-05,0.00394043,0.00354061,-0.00436995,0.828735,0.00457552,0.0091051,1630,1632,9.61582,-20.8596
413,-608,9.62109,20.5886,-0.00111888,-0.00127025,0.00414231,0.00294844,-0.00533757,0.776264,0.00484976,0.00967624,1637,1632,9.62114,-20.5886
420,-608,9.62317,20.3334,-0.0012869,-0.00174104,0.00398077,0.00247327,-0.00550121,0.756908,0.0047134,0.0170061,1644,1632,9.6232,-20.3334
427,-608,9.66736,20.0629,-0.00147472,-0.00214379,0.00380264,0.00200807,-0.00562658,0.741524,0.00456992,0.0199514,1651,1632,9.66735,-20.0628
434,-608,9.67773,19.8022,-0.00149425,-0.00207188,0.00326465,0.00149434,-0.00506047,0.741279,0.00396672,0.0156259,1658,1632,9.67774,-19.8023
441,-608,9.64197,19.5376,-0.00131654,-0.00189377,0.00263028,0.00104091,-0.00425122,0.730753,0.00323739,0.013451,1665,1632,9.64202,-19.5376
448,-608,9.64331,19.27,-0.00103366,-0.00173218,0.00202594,0.000672898,-0.00343874,0.70004,0.0025466,0.0146488,1672,1632,9.6433,-19.27
455,-608,9.65857,18.9778,-0.000871143,-0.00160492,0.00148464,0.000291271,-0.00276734,0.664263,0.00194925,0.0107122,1679,1632,9.65863,-18.9778
462,-608,9.6405,18.7013,-0.000726195,-0.00143894,0.000912331,-0.000103104,-0.00206203,0.599202,0.00134164,0.010065,1686,1632,9.64051,-18.7013
469,-608,9.61316,18.4153,-0.000493387,-0.00126674,0.00040567,-0.000319628,-0.0014405,0.404683,0.000873503,0.00823961,1693,1632,9.61321,-18.4153
476,-608,9.60938,18.1249,-0.00025699,-0.00116137,2.89219e-05,-0.000256066,-0.00116229,0.0319365,0.000705176,0.00809095,1700,1632,9.60943,-18.1249
483,-608,9.61438,17.8289,-7.17518e-05,-0.00123365,-0.000171573,-4.69459e-05,-0.00125846,-0.143584,0.000823768,0.00784025,1707,1632,9.61436,-17.8288
490,-608,9.62976,17.5181,0.000102724,-0.00124525,-0.000428419,0.000227362,-0.00136988,-0.283111,0.000997716,0.00882359,1714,1632,9.62971,-17.5181
497,-608,9.64063,17.1913,0.000168583,-0.000976146,-0.00058524,0.00041482,-0.00122238,-0.39826,0.000982822,0.0172739,1721,1632,9.64062,-17.1913
504,-608,9.58472,16.8998,-0.000172997,-0.00114242,-0.000154375,-0.000149008,-0.00116641,-0.154166,0.000733001,0.0395113,1728,1632,9.58471,-16.8998
511,-608,9.50806,16.5753,-0.000708378,-0.00147696,0.000552501,-0.000419664,-0.00176568,0.481532,0.00106515,0.0494146,1735,1632,9.5081,-16.5753
518,-608,9.41748,15.8868,0,0,0,0,0,0,0,-1,1742,1632,9.41749,-15.8868
525,-608,10.2451,14.9852,0,0,0,0,0,0,0,-1,1749,1632,10.2451,-14.9853
532,-608,8.27917,11.6693,0,0,0,0,0,0,0,-1,1756,1632,8.27919,-11.6694
539,-608,9.40796,1.43457,0,0,0,0,0,0,0,-1,1763,1632,9.40801,-1.43463
546,-608,9.94031,2.1134,0,0,0,0,0,0,0,-1,1770,1632,9.94031,-2.11346
553,-608,10.363,2.81335,0,0,0,0,0,0,0,-1,1777,1632,10.3631,-2.81333
560,-608,9.23999,4.5636,0,0,0,0,0,0,0,-1,1784,1632,9.24,-4.56354
567,-608,0,0,0,0,0,0,0,0,0,-1,1791,1632,0,0
574,-608,0,0,0,0,0,0,0,0,0,-1,1798,1632,0,0
581,-608,0,0,0,0,0,0,0,0,0,-1,1805,1632,0,0
588,-608,0,0,0,0,0,0,0,0,0,-1,1812,1632,0,0
595,-608,0,0,0,0,0,0,0,0,0,-1,1819,1632,0,0
602,-608,0,0,0,0,0,0,0,0,0,-1,1826,1632,0,0
609,-608,0,0,0,0,0,0,0,0,0,-1,1833,1632,0,0
616,-608,0,0,0,0,0,0,0,0,0,-1,1840,1632,0,0
623,-608,0,0,0,0,0,0,0,0,0,-1,1847,1632,0,0
630,-608,0,0,0,0,0,0,0,0,0,-1,1854,1632,0,0
637,-608,0,0,0,0,0,0,0,0,0,-1,1861,1632,0,0
644,-608,0,0,0,0,0,0,0,0,0,-1,1868,1632,0,0
651,-608,0,0,0,0,0,0,0,0,0,-1,1875,1632,0,0
658,-608,0,0,0,0,0,0,0,0,0,-1,1882,1632,0,0
665,-608,0,0,0,0,0,0,0,0,0,-1,1889,1632,0,0
672,-608,0,0,0,0,0,0,0,0,0,-1,1896,1632,0,0
679,-608,0,0,0,0,0,0,0,0,0,-1,1903,1632,0,0
686,-608,0,0,0,0,0,0,0,0,0,-1,1910,1632,0,0
693,-608,0,0,0,0,0,0,0,0,0,-1,1917,1632,0,0
700,-608,0,0,0,0,0,0,0,0,0,-1,1924,1632,0,0
707,-608,0,0,0,0,0,0,0,0,0,-1,1931,1632,0,0
714,-608,0,0,0,0,0,0,0,0,0,-1,1938,1632,0,0
721,-608,0,0,0,0,0,0,0,0,0,-1,1945,1632,0,0
728,-608,0,0,0,0,0,0,0,0,0,-1,1952,1632,0,0
735,-608,0,0,0,0,0,0,0,0,0,-1,1959,1632,0,0
742,-608,0,0,0,0,0,0,0,0,0,-1,1966,1632,0,0
749,-608,0,0,0,0,0,0,0,0,0,-1,1973,1632,0,0
756,-608,0,0,0,0,0,0,0,0,0,-1,1980,1632,0,0
763,-608,0,0,0,0,0,0,0,0,0,-1,1987,1632,0,0
770,-608,0,0,0,0,0,0,0,0,0,-1,1994,1632,0,0
777,-608,0,0,0,0,0,0,0,0,0,-1,2001,1632,0,0
784,-608,0,0,0,0,0,0,0,0,0,-1,2008,1632,0,0
791,-608,0,0,0,0,0,0,0,0,0,-1,2015,1632,0,0
798,-608,0,0,0,0,0,0,0,0,0,-1,2022,1632,0,0
805,-608,0,0,0,0,0,0,0,0,0,-1,2029,1632,0,0
812,-608,0,0,0,0,0,0,0,0,0,-1,2036,1632,0,0
-700,-615,0,0,0,0,0,0,0,0,0,-1,524,1639,0,0
-693,-615,0,0,0,0,0,0,0,0,0,-1,531,1639,0,0
-686,-615,0,0,0,0,0,0,0,0,0,-1,538,1639,0,0
-679,-615,0,0,0,0,0,0,0,0,0,-1,545,1639,0,0
-672,-615,0,0,0,0,0,0,0,0,0,-1,552,1639,0,0
-665,-615,0,0,0,0,0,0,0,0,0,-1,559,1639,0,0
-658,-615,0,0,0,0,0,0,0,0,0,-1,566,1639,0,0
-651,-615,0,0,0,0,0,0,0,0,0,-1,573,1639,0,0
-644,-615,0,0,0,0,0,0,0,0,0,-1,580,1639,0,0
-637,-615,0,0,0,0,0,0,0,0,0,-1,587,1639,0,0
-630,-615,0,0,0,0,0,0,0,0,0,-1,594,1639,0,0
-623,-615,0,0,0,0,0,0,0,0,0,-1,601,1639,0,0
-616,-615,0,0,0,0,0,0,0,0,0,-1,608,1639,0,0
-609,-615,0,0,0,0,0,0,0,0,0,-1,615,1639,0,0
-602,-615,0,0,0,0,0,0,0,0,0,-1,622,1639,0,0
-595,-615,0,0,0,0,0,0,0,0,0,-1,629,1639,0,0
-588,-615,0,0,0,0,0,0,0,0,0,-1,636,1639,0,0
-581,-615,0,0,0,0,0,0,0,0,0,-1,643,1639,0,0
-574,-615,0,0,0,0,0,0,0,0,0,-1,650,1639,0,0
-567,-615,0,0,0,0,0,0,0,0,0,-1,657,1639,0,0
-560,-615,0,0,0,0,0,0,0,0,0,-1,664,1639,0,0
-553,-615,0,0,0,0,0,0,0,0,0,-1,671,1639,0,0
-546,-615,0,0,0,0,0,0,0,0,0,-1,678,1639,0,0
-539,-615,0,0,0,0,0,0,0,0,0,-1,685,1639,0,0
-532,-615,0,0,0,0,0,0,0,0,0,-1,692,1639,0,0
-525,-615,0,0,0,0,0,0,0,0,0,-1,699,1639,0,0
-518,-615,0,0,0,0,0,0,0,0,0,-1,706,1639,0,0
-511,-615,0,0,0,0,0,0,0,0,0,-1,713,1639,0,0
-504,-615,0,0,0,0,0,0,0,0,0,-1,720,1639,0,0
-497,-615,0,0,0,0,0,0,0,0,0,-1,727,1639,0,0
-490,-615,0,0,0,0,0,0,0,0,0,-1,734,1639,0,0
-483,-615,0,0,0,0,0,0,0,0,0,-1,741,1639,0,0
-476,-615,0,0,0,0,0,0,0,0,0,-1,748,1639,0,0
-469,-615,0,0,0,0,0,0,0,0,0,-1,755,1639,0,0
-462,-615,0,0,0,0,0,0,0,0,0,-1,762,1639,0,0
-455,-615,0,0,0,0,0,0,0,0,0,-1,769,1639,0,0
-448,-615,0,0,0,0,0,0,0,0,0,-1,776,1639,0,0
-441,-615,0,0,0,0,0,0,0,0,0,-1,783,1639,0,0
-434,-615,-7.64508,2.98596,0,0,0,0,0,0,0,-1,790,1639,-7.64505,-2.98594
-427,-615,-9.0011,2.89404,0,0,0,0,0,0,0,-1,797,1639,-9.00107,-2.89399
-420,-615,-8.07568,3.0752,0,0,0,0,0,0,0,-1,804,1639,-8.07569,-3.07514
-413,-615,-7.09149,3.396,0,0,0,0,0,0,0,-1,811,1639,-7.09147,-3.39599
-406,-615,-6.21368,3.7312,0,0,0,0,0,0,0,-1,818,1639,-6.21366,-3.73114
-399,-615,-4.84875,3.91907,0,0,0,0,0,0,0,-1,825,1639,-4.84877,-3.91901
-392,-615,1.7395,13.3127,0,0,0,0,0,0,0,-1,832,1639,1.73953,-13.3128
-385,-615,3.42297,14.9401,0,0,0,0,0,0,0,-1,839,1639,3.42296,-14.94
-378,-615,3.93677,15.6934,0,0,0,0,0,0,0,-1,846,1639,3.93678,-15.6934
-371,-615,3.01038,15.6012,0,0,0,0,0,0,0,-1,853,1639,3.01037,-15.6012
-364,-615,2.8819,16.0657,0,0,0,0,0,0,0,-1,860,1639,2.88188,-16.0657
-357,-615,2.83069,16.2898,0,0,0,0,0,0,0,-1,867,1639,2.83069,-16.2898
-350,-615,2.88647,16.7814,0.00143035,-0.00141603,0.00166948,0.00220093,-0.00218661,0.432433,0.00253315,0.0343595,874,1639,2.8865,-16.7813
-343,-615,2.85223,16.9929,0.0014136,-0.000621049,0.00160054,0.00229277,-0.00150022,0.502301,0.00220576,0.0201245,881,1639,2.85225,-16.993
-336,-615,2.85284,17.3545,0.0013579,0.000188428,0.00134998,0.00224434,-0.00069801,0.581024,0.00177524,0.0109185,888,1639,2.85286,-17.3545
-329,-615,2.8172,17.6884,0.001561,0.000736952,0.00134009,0.00255097,-0.000253027,0.636256,0.00179096,0.0104744,895,1639,2.81719,-17.6884
-322,-615,2.80902,18.007,0.0017045,0.00108856,0.00139995,0.00282995,-3.68977e-05,0.677129,0.00189905,0.0114856,902,1639,2.809,-18.007
-315,-615,2.82141,18.3145,0.00176738,0.00119329,0.00141569,0.00292483,3.58321e-05,0.685374,0.00193805,0.0134758,909,1639,2.82139,-18.3145
-308,-615,2.80048,18.6311,0.00186066,0.00116747,0.00137648,0.00293351,9.46244e-05,0.662063,0.00192491,0.0197195,916,1639,2.8005,-18.6311
-301,-615,2.81305,18.9072,0.00193843,0.000977856,0.00128843,0.00283318,8.31024e-05,0.606992,0.00186171,0.0126691,923,1639,2.81305,-18.9072
-294,-615,2.81628,19.1945,0.00210392,0.000949847,0.00127046,0.00292224,0.000131525,0.572229,0.00190583,0.0103763,930,1639,2.81631,-19.1945
-287,-615,2.79285,19.4795,0.00225882,0.000782517,0.001224,0.00295002,9.13177e-05,0.514064,0.00193696,0.00784758,937,1639,2.79285,-19.4796
-280,-615,2.80194,19.7584,0.00250212,0.000581099,0.00118879,0.00306994,1.32781e-05,0.445606,0.00204221,0.0088269,944,1639,2.80195,-19.7585
-273,-615,2.79462,20.0608,0.0028616,0.000322255,0.00112152,0.003286,-0.000102146,0.361761,0.00222549,0.0101072,951,1639,2.79459,-20.0608
-266,-615,2.79407,20.343,0.00334329,-6.17201e-05,0.0011914,0.00371875,-0.000437186,0.305294,0.00263701,0.0100765,958,1639,2.79406,-20.343
-259,-615,2.82098,20.5927,0.00388453,-0.000230723,0.00129257,0.00425684,-0.00060303,0.280444,0.00305878,0.0109857,965,1639,2.82101,-20.5927
-252,-615,2.84351,20.8656,0.00465684,-0.000272824,0.00143631,0.00504479,-0.000660777,0.263809,0.00360371,0.0122155,972,1639,2.84348,-20.8656
-245,-615,2.89008,21.1432,0.00542024,-0.000357979,0.00172081,0.00589389,-0.00083163,0.268597,0.00423378,0.0175336,979,1639,2.89007,-21.1432
-238,-615,2.92145,21.4281,0.00609409,-0.000575802,0.00196603,0.00663047,-0.00111218,0.26634,0.00483387,0.0273089,986,1639,2.92148,-21.4281
-231,-615,3.01801,21.7224,0.00681365,-0.00107724,0.00195592,0.00727186,-0.00153545,0.230117,0.00543254,0.0457539,993,1639,3.01801,-21.7224
-224,-615,3.12793,22.1998,0,0,0,0,0,0,0,-1,1000,1639,3.12795,-22.1998
-217,-615,3.60779,21.7368,0,0,0,0,0,0,0,-1,1007,1639,3.60781,-21.7369
-210,-615,2.48901,18.9324,0,0,0,0,0,0,0,-1,1014,1639,2.48902,-18.9323
-203,-615,2.13684,18.6173,0,0,0,0,0,0,0,-1,1021,1639,2.13683,-18.6173
-196,-615,4.27161,21.3264,0,0,0,0,0,0,0,-1,1028,1639,4.27165,-21.3264
-189,-615,1.8269,19.6761,0,0,0,0,0,0,0,-1,1035,1639,1.82691,-19.6761
-182,-615,1.63489,20.2278,0,0,0,0,0,0,0,-1,1042,1639,1.63492,-20.2277
-175,-615,-0.609985,13.8434,0,0,0,0,0,0,0,-1,1049,1639,-0.610016,-13.8434
-168,-615,3.85754,15.472,0,0,0,0,0,0,0,-1,1056,1639,3.85757,-15.472
-161,-615,2.15601,20.8517,0,0,0,0,0,0,0,-1,1063,1639,2.15602,-20.8516
-154,-615,1.3385,21.5508,0,0,0,0,0,0,0,-1,1070,1639,1.33852,-21.5507
-147,-615,1.52502,17.3442,0,0,0,0,0,0,0,-1,1077,1639,1.52501,-17.3442
-140,-615,3.73401,10.2349,0,0,0,0,0,0,0,-1,1084,1639,3.73402,-10.2348
-133,-615,2.6178,17.45,0,0,0,0,0,0,0,-1,1091,1639,2.61776,-17.4499
-126,-615,4.43408,12.5017,0,0,0,0,0,0,0,-1,1098,1639,4.43403,-12.5018
-119,-615,4.82983,13.9279,0,0,0,0,0,0,0,-1,1105,1639,4.82986,-13.9278
-112,-615,3.65698,14.4874,0,0,0,0,0,0,0,-1,1112,1639,3.65695,-14.4875
-105,-615,0.958496,2.45398,0,0,0,0,0,0,0,-1,1119,1639,0.958452,-2.45398
-98,-615,-0.647705,2.12109,0,0,0,0,0,0,0,-1,1126,1639,-0.647756,-2.12105
-91,-615,-3.07983,2.97375,0,0,0,0,0,0,0,-1,1133,1639,-3.07989,-2.97376
-84,-615,-2.46509,0.703247,0,0,0,0,0,0,0,-1,1140,1639,-2.46505,-0.703273
-77,-615,-3.17859,1.23755,0,0,0,0,0,0,0,-1,1147,1639,-3.17865,-1.23752
-70,-615,-4.03943,1.43335,0,0,0,0,0,0,0,-1,1154,1639,-4.03942,-1.43339
-63,-615,-4.8877,1.45544,0,0,0,0,0,0,0,-1,1161,1639,-4.88766,-1.45549
-56,-615,0,0,0,0,0,0,0,0,0,-1,1168,1639,0,0
-49,-615,0,0,0,0,0,0,0,0,0,-1,1175,1639,0,0
-42,-615,0,0,0,0,0,0,0,0,0,-1,1182,1639,0,0
-35,-615,0,0,0,0,0,0,0,0,0,-1,1189,1639,0,0
-28,-615,0,0,0,0,0,0,0,0,0,-1,1196,1639,0,0
-21,-615,0,0,0,0,0,0,0,0,0,-1,1203,1639,0,0
-14,-615,0,0,0,0,0,0,0,0,0,-1,1210,1639,0,0
-7,-615,0,0,0,0,0,0,0,0,0,-1,1217,1639,0,0
0,-615,0,0,0,0,0,0,0,0,0,-1,1224,1639,0,0
7,-615,0,0,0,0,0,0,0,0,0,-1,1231,1639,0,0
14,-615,0,0,0,0,0,0,0,0,0,-1,1238,1639,0,0
21,-615,0,0,0,0,0,0,0,0,0,-1,1245,1639,0,0
28,-615,0,0,0,0,0,0,0,0,0,-1,1252,1639,0,0
35,-615,0,0,0,0,0,0,0,0,0,-1,1259,1639,0,0
42,-615,0,0,0,0,0,0,0,0,0,-1,1266,1639,0,0
49,-615,0,0,0,0,0,0,0,0,0,-1,1273,1639,0,0
56,-615,0,0,0,0,0,0,0,0,0,-1,1280,1639,0,0
63,-615,0,0,0,0,0,0,0,0,0,-1,1287,1639,0,0
70,-615,0,0,0,0,0,0,0,0,0,-1,1294,1639,0,0
77,-615,0,0,0,0,0,0,0,0,0,-1,1301,1639,0,0
84,-615,0,0,0,0,0,0,0,0,0,-1,1308,1639,0,0
91,-615,0,0,0,0,0,0,0,0,0,-1,1315,1639,0,0
98,-615,0,0,0,0,0,0,0,0,0,-1,1322,1639,0,0
105,-615,0,0,0,0,0,0,0,0,0,-1,1329,1639,0,0
112,-615,0,0,0,0,0,0,0,0,0,-1,1336,1639,0,0
119,-615,0,0,0,0,0,0,0,0,0,-1,1343,1639,0,0
126,-615,0,0,0,0,0,0,0,0,0,-1,1350,1639,0,0
133,-615,0,0,0,0,0,0,0,0,0,-1,1357,1639,0,0
140,-615,0,0,0,0,0,0,0,0,0,-1,1364,1639,0,0
147,-615,0,0,0,0,0,0,0,0,0,-1,1371,1639,0,0
154,-615,0,0,0,0,0,0,0,0,0,-1,1378,1639,0,0
161,-615,0,0,0,0,0,0,0,0,0,-1,1385,1639,0,0
168,-615,0,0,0,0,0,0,0,0,0,-1,1392,1639,0,0
175,-615,5.39648,-2.00879,0,0,0,0,0,0,0,-1,1399,1639,5.3965,2.00881
182,-615,5.65393,-1.51025,0,0,0,0,0,0,0,-1,1406,1639,5.65388,1.51028
189,-615,5.58972,-1.35608,0,0,0,0,0,0,0,-1,1413,1639,5.58967,1.35607
196,-615,5.49915,-0.693604,0,0,0,0,0,0,0,-1,1420,1639,5.4991,0.693602
203,-615,5.33411,-0.226685,0,0,0,0,0,0,0,-1,1427,1639,5.33414,0.226689
210,-615,5.60278,0.108276,0,0,0,0,0,0,0,-1,1434,1639,5.60284,-0.10831
217,-615,6.26331,-0.307373,0,0,0,0,0,0,0,-1,1441,1639,6.26331,0.307372
224,-615,5.45422,-0.333984,0,0,0,0,0,0,0,-1,1448,1639,5.45422,0.333992
231,-615,4.92542,1.80298,0,0,0,0,0,0,0,-1,1455,1639,4.92537,-1.80297
238,-615,4.76355,1.96729,0,0,0,0,0,0,0,-1,1462,1639,4.76357,-1.96734
245,-615,4.08643,3.15906,0,0,0,0,0,0,0,-1,1469,1639,4.08638,-3.159
252,-615,6.37805,3.73889,0,0,0,0,0,0,0,-1,1476,1639,6.37806,-3.73891
259,-615,8.35974,3.16443,0,0,0,0,0,0,0,-1,1483,1639,8.35975,-3.16444
266,-615,10.3414,2.58997,0,0,0,0,0,0,0,-1,1490,1639,10.3414,-2.58996
273,-615,6.57043,1.84766,0,0,0,0,0,0,0,-1,1497,1639,6.5704,-1.84771
280,-615,7.10449,3.23438,0,0,0,0,0,0,0,-1,1504,1639,7.10447,-3.23435
287,-615,7.35779,4.68542,0,0,0,0,0,0,0,-1,1511,1639,7.35776,-4.68546
294,-615,7.63733,6.29114,0,0,0,0,0,0,0,-1,1518,1639,7.63735,-6.29109
301,-615,8.47925,11.452,0,0,0,0,0,0,0,-1,1525,1639,8.47922,-11.452
308,-615,6.8114,10.9059,0,0,0,0,0,0,0,-1,1532,1639,6.81137,-10.9058
315,-615,5.1427,14.7251,0,0,0,0,0,0,0,-1,1539,1639,5.14269,-14.7251
322,-615,7.17981,17.6864,0,0,0,0,0,0,0,-1,1546,1639,7.17985,-17.6864
329,-615,7.62134,20.4354,0,0,0,0,0,0,0,-1,1553,1639,7.62139,-20.4354
336,-615,6.45007,14.1138,0,0,0,0,0,0,0,-1,1560,1639,6.45011,-14.1138
343,-615,2.40491,6.50134,0,0,0,0,0,0,0,-1,1567,1639,2.40489,-6.50137
350,-615,6.4458,15.4594,0,0,0,0,0,0,0,-1,1574,1639,6.44578,-15.4593
357,-615,9.09302,23.407,0,0,0,0,0,0,0,-1,1581,1639,9.093,-23.407
364,-615,8.8324,22.9888,0,0,0,0,0,0,0,-1,1588,1639,8.83238,-22.9888
371,-615,9.06799,22.5878,0.00245215,0.0110387,-0.00152458,0.0113014,0.00218948,-1.40019,0.00692084,0.0484169,1595,1639,9.06805,-22.5878
378,-615,9.30359,21.8651,0.00187246,0.00818097,-0.000314057,0.00819657,0.00185686,-1.52118,0.0049626,0.0206551,1602,1639,9.30354,-21.8651
385,-615,9.33057,21.6438,0.00152266,0.0055437,0.00025614,0.00555995,0.00150641,1.50744,0.00332042,0.0119909,1609,1639,9.33051,-21.6438
392,-615,9.33215,21.3811,0.00099214,0.00369107,0.00107673,0.00406799,0.000615223,1.23407,0.00253196,0.0105909,1616,1639,9.33213,-21.3811
399,-615,9.33484,21.1229,0.00042363,0.0019867,0.0018425,0.00320657,-0.000796239,0.985982,0.0024467,0.0110198,1623,1639,9.33489,-21.123
406,-615,9.34985,20.8662,-5.44981e-05,0.000628316,0.0023566,0.00266811,-0.00209429,0.857334,0.00275622,0.0108242,1630,1639,9.34982,-20.8662
413,-615,9.35974,20.6185,-0.000361101,-0.000593523,0.00275933,0.00228446,-0.00323909,0.764353,0.00320486,0.0125144,1637,1639,9.35977,-20.6186
420,-615,9.35278,20.3678,-0.000581034,-0.00125336,0.00293349,0.00203549,-0.00386989,0.72835,0.00346387,0.0144584,1644,1639,9.3528,-20.3679
427,-615,9.37122,20.0818,-0.000830561,-0.00186748,0.00309778,0.00179185,-0.00448989,0.702484,0.00373661,0.016016,1651,1639,9.37116,-20.0818
434,-615,9.39514,19.8068,-0.000930272,-0.00203688,0.00290473,0.00147338,-0.00444053,0.691284,0.00355476,0.0142751,1658,1639,9.39509,-19.8067
441,-615,9.39014,19.5288,-0.000845802,-0.00210204,0.00258839,0.00118959,-0.00413744,0.666365,0.00322872,0.0138218,1665,1639,9.39018,-19.5288
448,-615,9.38098,19.2529,-0.000673252,-0.00216515,0.00223144,0.000933623,-0.00377203,0.624092,0.00287684,0.0145245,1672,1639,9.381,-19.2529
455,-615,9.38269,19.0021,-0.000627688,-0.00224226,0.0018958,0.000625551,-0.0034955,0.584112,0.00256441,0.0133327,1679,1639,9.38267,-19.002
462,-615,9.36182,18.7201,-0.000582682,-0.00228265,0.00148738,0.000280449,-0.00314579,0.525811,0.00219665,0.0144686,1686,1639,9.3618,-18.72
469,-615,9.33594,18.4269,-0.000444419,-0.0022237,0.00108033,6.54311e-05,-0.00273355,0.440948,0.00184456,0.0125446,1693,1639,9.33592,-18.4268
476,-615,9.32935,18.1196,-0.000290002,-0.00223989,0.000760996,-2.81637e-05,-0.00250173,0.331385,0.00165851,0.0102039,1700,1639,9.3294,-18.1196
483,-615,9.33057,17.783,-0.000123696,-0.00231185,0.000497566,-1.5868e-05,-0.00241968,0.213412,0.00160786,0.0147938,1707,1639,9.33059,-17.783
490,-615,9.34668,17.488,4.06325e-05,-0.00229836,-3.29398e-05,4.10962e-05,-0.00229883,-0.0140792,0.00154643,0.0204094,1714,1639,9.34663,-17.4881
497,-615,9.31042,17.2739,0.000177263,-0.00164019,-0.000494106,0.000302908,-0.00176584,-0.249009,0.0012901,0.0317469,1721,1639,9.31047,-17.2739
504,-615,9.0968,16.9146,0,0,0,0,0,0,0,-1,1728,1639,9.09683,-16.9145
511,-615,9.27063,16.5342,0,0,0,0,0,0,0,-1,1735,1639,9.2706,-16.5342
518,-615,13.2416,9.81812,0,0,0,0,0,0,0,-1,1742,1639,13.2416,-9.81813
525,-615,4.37524,3.90491,0,0,0,0,0,0,0,-1,1749,1639,4.37518,-3.90495
532,-615,7.3645,0.848145,0,0,0,0,0,0,0,-1,1756,1639,7.36451,-0.848093
539,-615,12.8112,-0.0476074,0,0,0,0,0,0,0,-1,1763,1639,12.8111,0.0475553
546,-615,8.33813,2.94556,0,0,0,0,0,0,0,-1,1770,1639,8.33813,-2.9455
553,-615,5.82532,-2.04199,0,0,0,0,0,0,0,-1,1777,1639,5.82534,2.04195
560,-615,0,0,0,0,0,0,0,0,0,-1,1784,1639,0,0
567,-615,0,0,0,0,0,0,0,0,0,-1,1791,1639,0,0
574,-615,0,0,0,0,0,0,0,0,0,-1,1798,1639,0,0
581,-615,0,0,0,0,0,0,0,0,0,-1,1805,1639,0,0
588,-615,0,0,0,0,0,0,0,0,0,-1,1812,1639,0,0
595,-615,0,0,0,0,0,0,0,0,0,-1,1819,1639,0,0
602,-615,0,0,0,0,0,0,0,0,0,-1,1826,1639,0,0
609,-615,0,0,0,0,0,0,0,0,0,-1,1833,1639,0,0
616,-615,0,0,0,0,0,0,0,0,0,-1,1840,1639,0,0
623,-615,0,0,0,0,0,0,0,0,0,-1,1847,1639,0,0
630,-615,0,0,0,0,0,0,0,0,0,-1,1854,1639,0,0
637,-615,0,0,0,0,0,0,0,0,0,-1,1861,1639,0,0
644,-615,0,0,0,0,0,0,0,0,0,-1,1868,1639,0,0
651,-615,0,0,0,0,0,0,0,0,0,-1,1875,1639,0,0
658,-615,0,0,0,0,0,0,0,0,0,-1,1882,1639,0,0
665,-615,0,0,0,0,0,0,0,0,0,-1,1889,1639,0,0
672,-615,0,0,0,0,0,0,0,0,0,-1,1896,1639,0,0
679,-615,0,0,0,0,0,0,0,0,0,-1,1903,1639,0,0
686,-615,0,0,0,0,0,0,0,0,0,-1,1910,1639,0,0
693,-615,0,0,0,0,0,0,0,0,0,-1,1917,1639,0,0
700,-615,0,0,0,0,0,0,0,0,0,-1,1924,1639,0,0
707,-615,0,0,0,0,0,0,0,0,0,-1,1931,1639,0,0
714,-615,0,0,0,0,0,0,0,0,0,-1,1938,1639,0,0
721,-615,0,0,0,0,0,0,0,0,0,-1,1945,1639,0,0
728,-615,0,0,0,0,0,0,0,0,0,-1,1952,1639,0,0
735,-615,0,0,0,0,0,0,0,0,0,-1,1959,1639,0,0
742,-615,0,0,0,0,0,0,0,0,0,-1,1966,1639,0,0
749,-615,0,0,0,0,0,0,0,0,0,-1,1973,1639,0,0
756,-615,0,0,0,0,0,0,0,0,0,-1,1980,1639,0,0
763,-615,0,0,0,0,0,0,0,0,0,-1,1987,1639,0,0
770,-615,0,0,0,0,0,0,0,0,0,-1,1994,1639,0,0
777,-615,0,0,0,0,0,0,0,0,0,-1,2001,1639,0,0
784,-615,0,0,0,0,0,0,0,0,0,-1,2008,1639,0,0
791,-615,0,0,0,0,0,0,0,0,0,-1,2015,1639,0,0
798,-615,0,0,0,0,0,0,0,0,0,-1,2022,1639,0,0
805,-615,0,0,0,0,0,0,0,0,0,-1,2029,1639,0,0
812,-615,0,0,0,0,0,0,0,0,0,-1,2036,1639,0,0
-700,-622,0,0,0,0,0,0,0,0,0,-1,524,1646,0,0
-693,-622,0,0,0,0,0,0,0,0,0,-1,531,1646,0,0
-686,-622,0,0,0,0,0,0,0,0,0,-1,538,1646,0,0
-679,-622,0,0,0,0,0,0,0,0,0,-1,545,1646,0,0
-672,-622,0,0,0,0,0,0,0,0,0,-1,552,1646,0,0
-665,-622,0,0,0,0,0,0,0,0,0,-1,559,1646,0,0
-658,-622,0,0,0,0,0,0,0,0,0,-1,566,1646,0,0
-651,-622,0,0,0,0,0,0,0,0,0,-1,573,1646,0,0
-644,-622,0,0,0,0,0,0,0,0,0,-1,580,1646,0,0
-637,-622,0,0,0,0,0,0,0,0,0,-1,587,1646,0,0
-630,-622,0,0,0,0,0,0,0,0,0,-1,594,1646,0,0
-623,-622,0,0,0,0,0,0,0,0,0,-1,601,1646,0,0
-616,-622,0,0,0,0,0,0,0,0,0,-1,608,1646,0,0
-609,-622,0,0,0,0,0,0,0,0,0,-1,615,1646,0,0
-602,-622,0,0,0,0,0,0,0,0,0,-1,622,1646,0,0
-595,-622,0,0,0,0,0,0,0,0,0,-1,629,1646,0,0
-588,-622,0,0,0,0,0,0,0,0,0,-1,636,1646,0,0
-581,-622,0,0,0,0,0,0,0,0,0,-1,643,1646,0,0
-574,-622,0,0,0,0,0,0,0,0,0,-1,650,1646,0,0
-567,-622,0,0,0,0,0,0,0,0,0,-1,657,1646,0,0
-560,-622,0,0,0,0,0,0,0,0,0,-1,664,1646,0,0
-553,-622,0,0,0,0,0,0,0,0,0,-1,671,1646,0,0
-546,-622,0,0,0,0,0,0,0,0,0,-1,678,1646,0,0
-539,-622,0,0,0,0,0,0,0,0,0,-1,685,1646,0,0
-532,-622,0,0,0,0,0,0,0,0,0,-1,692,1646,0,0
-525,-622,0,0,0,0,0,0,0,0,0,-1,699,1646,0,0
-518,-622,0,0,0,0,0,0,0,0,0,-1,706,1646,0,0
-511,-622,0,0,0,0,0,0,0,0,0,-1,713,1646,0,0
-504,-622,0,0,0,0,0,0,0,0,0,-1,720,1646,0,0
-497,-622,0,0,0,0,0,0,0,0,0,-1,727,1646,0,0
-490,-622,0,0,0,0,0,0,0,0,0,-1,734,1646,0,0
-483,-622,0,0,0,0,0,0,0,0,0,-1,741,1646,0,0
-476,-622,0,0,0,0,0,0,0,0,0,-1,748,1646,0,0
-469,-622,0,0,0,0,0,0,0,0,0,-1,755,1646,0,0
-462,-622,0,0,0,0,0,0,0,0,0,-1,762,1646,0,0
-455,-622,0,0,0,0,0,0,0,0,0,-1,769,1646,0,0
-448,-622,0,0,0,0,0,0,0,0,0,-1,776,1646,0,0
-441,-622,0,0,0,0,0,0,0,0,0,-1,783,1646,0,0
-434,-622,0,0,0,0,0,0,0,0,0,-1,790,1646,0,0
-427,-622,-7.62891,3.48096,0,0,0,0,0,0,0,-1,797,1646,-7.62892,-3.48092
-420,-622,-9.35791,1.77185,0,0,0,0,0,0,0,-1,804,1646,-9.35789,-1.77183
-413,-622,-8.46075,1.96777,0,0,0,0,0,0,0,-1,811,1646,-8.46074,-1.96774
-406,-622,-4.44318,2.16858,0,0,0,0,0,0,0,-1,818,1646,-4.44315,-2.16859
-399,-622,-7.06976,1.51001,0,0,0,0,0,0,0,-1,825,1646,-7.06976,-1.51005
-392,-622,3.89551,5.85376,0,0,0,0,0,0,0,-1,832,1646,3.8955,-5.85379
-385,-622,2.00543,14.0448,0,0,0,0,0,0,0,-1,839,1646,2.00544,-14.0448
-378,-622,1.49036,15.3436,0,0,0,0,0,0,0,-1,846,1646,1.49033,-15.3436
-371,-622,2.73956,15.5144,0,0,0,0,0,0,0,-1,853,1646,2.73957,-15.5144
-364,-622,2.87006,16.0958,0,0,0,0,0,0,0,-1,860,1646,2.87004,-16.0958
-357,-622,3.33746,16.6323,0,0,0,0,0,0,0,-1,867,1646,3.33746,-16.6323
-350,-622,3.17487,16.9226,0.00254134,-0.00093749,0.00271713,0.00402812,-0.00242427,0.500682,0.00376345,0.0496338,874,1646,3.17485,-16.9226
-343,-622,3.08307,17.0906,0.00226888,2.37771e-05,0.00255044,0.00393288,-0.00164022,0.578086,0.00330714,0.0266145,881,1646,3.08305,-17.0906
-336,-622,3.15363,17.3589,0.00194654,0.000918864,0.00210251,0.00359709,-0.000731684,0.665551,0.00267551,0.00934513,888,1646,3.15361,-17.3588
-329,-622,3.12878,17.6752,0.00194256,0.00146763,0.00191414,0.0036339,-0.000223716,0.723685,0.00250051,0.00862561,895,1646,3.1288,-17.6752
-322,-622,3.12189,17.9875,0.00191384,0.00178812,0.00184184,0.00369389,8.07259e-06,0.76834,0.00245991,0.0097596,902,1646,3.12191,-17.9875
-315,-622,3.1037,18.3136,0.00179103,0.00183492,0.00171487,0.00352798,9.79614e-05,0.791797,0.00232003,0.012993,909,1646,3.10368,-18.3136
-308,-622,3.10101,18.6115,0.00171074,0.00173161,0.00153487,0.00325608,0.000186268,0.788796,0.00211137,0.0136309,916,1646,3.10101,-18.6114
-301,-622,3.11157,18.903,0.00163728,0.00146895,0.00132436,0.00288015,0.000226083,0.753665,0.00184935,0.0130014,923,1646,3.11156,-18.903
-294,-622,3.09869,19.2006,0.00168425,0.00134655,0.0012054,0.00273257,0.000298233,0.715813,0.00173089,0.0102843,930,1646,3.09871,-19.2005
-287,-622,3.09875,19.4785,0.00173057,0.0011185,0.00109124,0.00255787,0.000291193,0.648688,0.00161695,0.00827306,937,1646,3.09878,-19.4785
-280,-622,3.09412,19.7544,0.00187824,0.000861568,0.000998386,0.00249026,0.000249557,0.549924,0.00158355,0.00897375,944,1646,3.09413,-19.7544
-273,-622,3.09528,20.0372,0.00214664,0.000557537,0.000861158,0.0025238,0.000180379,0.412802,0.00162575,0.0126008,951,1646,3.09529,-20.0373
-266,-622,3.07538,20.3149,0.00258957,0.000196894,0.000913757,0.00289862,-0.00011215,0.326136,0.00197086,0.0119775,958,1646,3.07536,-20.315
-259,-622,3.08911,20.6034,0.00303875,2.65429e-05,0.000961532,0.00331951,-0.00025422,0.284097,0.00230243,0.0112753,965,1646,3.08909,-20.6034
-252,-622,3.11096,20.8663,0.00367207,-1.66e-05,0.00107809,0.00396405,-0.000308584,0.264489,0.00275134,0.011776,972,1646,3.11094,-20.8663
-245,-622,3.15625,21.1174,0.00432688,-1.73148e-05,0.00128961,0.00468087,-0.000371299,0.267892,0.00325142,0.00901999,979,1646,3.15625,-21.1174
-238,-622,3.15472,21.3864,0.00496073,-0.000140159,0.0014557,0.00534693,-0.000526353,0.259323,0.00375239,0.0105051,986,1646,3.15472,-21.3863
-231,-622,3.19781,21.7018,0.00567537,-0.000538265,0.00148507,0.00601206,-0.000874955,0.222948,0.00432926,0.0165636,993,1646,3.19784,-21.7018
-224,-622,3.30634,21.8578,0.0066355,-0.000936896,0.00175544,0.00702266,-0.00132405,0.21707,0.00517984,0.0285943,1000,1646,3.30633,-21.8578
-217,-622,3.466,21.9115,0.00716771,-0.00135999,0.00266372,0.00793137,-0.00212364,0.279199,0.00611954,0.0426245,1007,1646,3.46598,-21.9115
-210,-622,3.1496,22.6183,0,0,0,0,0,0,0,-1,1014,1646,3.14961,-22.6182
-203,-622,4.21375,20.9574,0,0,0,0,0,0,0,-1,1021,1646,4.21375,-20.9574
-196,-622,4.18518,21.2491,0,0,0,0,0,0,0,-1,1028,1646,4.18521,-21.2491
-189,-622,3.27942,23.1096,0,0,0,0,0,0,0,-1,1035,1646,3.27943,-23.1096
-182,-622,2.21411,20.6752,0,0,0,0,0,0,0,-1,1042,1646,2.21416,-20.6751
-175,-622,2.56091,11.0195,0,0,0,0,0,0,0,-1,1049,1646,2.56095,-11.0195
-168,-622,4.42639,22.1844,0,0,0,0,0,0,0,-1,1056,1646,4.42636,-22.1845
-161,-622,4.21631,23.8368,0,0,0,0,0,0,0,-1,1063,1646,4.21626,-23.8368
-154,-622,3.15186,24.8818,0,0,0,0,0,0,0,-1,1070,1646,3.15184,-24.8819
-147,-622,2.47217,22.1348,0,0,0,0,0,0,0,-1,1077,1646,2.47222,-22.1348
-140,-622,3.27515,16.0353,0,0,0,0,0,0,0,-1,1084,1646,3.27519,-16.0353
-133,-622,3.09644,17.677,0,0,0,0,0,0,0,-1,1091,1646,3.09638,-17.677
-126,-622,3.5061,19.5251,0,0,0,0,0,0,0,-1,1098,1646,3.50616,-19.5252
-119,-622,4.06384,13.1715,0,0,0,0,0,0,0,-1,1105,1646,4.06379,-13.1716
-112,-622,4.33276,14.6605,0,0,0,0,0,0,0,-1,1112,1646,4.33281,-14.6605
-105,-622,0.306519,4.38159,0,0,0,0,0,0,0,-1,1119,1646,0.306536,-4.38159
-98,-622,-0.510376,3.5033,0,0,0,0,0,0,0,-1,1126,1646,-0.510393,-3.50324
-91,-622,-1.146,0.975952,0,0,0,0,0,0,0,-1,1133,1646,-1.14599,-0.97597
-84,-622,-2.04895,1.31787,0,0,0,0,0,0,0,-1,1140,1646,-2.0489,-1.31781
-77,-622,-1.80627,0.332275,0,0,0,0,0,0,0,-1,1147,1646,-1.80622,-0.33223
-70,-622,-3.65588,2.28149,0,0,0,0,0,0,0,-1,1154,1646,-3.65589,-2.28155
-63,-622,-2.49683,1.27087,0,0,0,0,0,0,0,-1,1161,1646,-2.49679,-1.27093
-56,-622,-2.44238,-0.575562,0,0,0,0,0,0,0,-1,1168,1646,-2.44242,0.575508
-49,-622,-2.41089,1.38818,0,0,0,0,0,0,0,-1,1175,1646,-2.41088,-1.38815
-42,-622,-2.71497,2.85242,0,0,0,0,0,0,0,-1,1182,1646,-2.71491,-2.85247
-35,-622,-3.0177,4.25842,0,0,0,0,0,0,0,-1,1189,1646,-3.01773,-4.25838
-28,-622,-0.896606,0.678833,0,0,0,0,0,0,0,-1,1196,1646,-0.89661,-0.678835
-21,-622,-4.38635,19.0129,0,0,0,0,0,0,0,-1,1203,1646,-4.38639,-19.0129
-14,-622,7.68481,37.1093,0,0,0,0,0,0,0,-1,1210,1646,7.6848,-37.1092
-7,-622,8.1936,36.9535,0,0,0,0,0,0,0,-1,1217,1646,8.19366,-36.9535
0,-622,0,0,0,0,0,0,0,0,0,-1,1224,1646,0,0
7,-622,0,0,0,0,0,0,0,0,0,-1,1231,1646,0,0
14,-622,0,0,0,0,0,0,0,0,0,-1,1238,1646,0,0
21,-622,0,0,0,0,0,0,0,0,0,-1,1245,1646,0,0
28,-622,0,0,0,0,0,0,0,0,0,-1,1252,1646,0,0
35,-622,0,0,0,0,0,0,0,0,0,-1,1259,1646,0,0
42,-622,0,0,0,0,0,0,0,0,0,-1,1266,1646,0,0
49,-622,0,0,0,0,0,0,0,0,0,-1,1273,1646,0,0
56,-622,0,0,0,0,0,0,0,0,0,-1,1280,1646,0,0
63,-622,0,0,0,0,0,0,0,0,0,-1,1287,1646,0,0
70,-622,0,0,0,0,0,0,0,0,0,-1,1294,1646,0,0
77,-622,0,0,0,0,0,0,0,0,0,-1,1301,1646,0,0
84,-622,0,0,0,0,0,0,0,0,0,-1,1308,1646,0,0
91,-622,0,0,0,0,0,0,0,0,0,-1,1315,1646,0,0
98,-622,0,0,0,0,0,0,0,0,0,-1,1322,1646,0,0
105,-622,0,0,0,0,0,0,0,0,0,-1,1329,1646,0,0
112,-622,0,0,0,0,0,0,0,0,0,-1,1336,1646,0,0
119,-622,0,0,0,0,0,0,0,0,0,-1,1343,1646,0,0
126,-622,20.4348,28.4711,0.190939,0.0685123,0.100494,0.247395,0.0120562,0.511847,0.161062,0.0444469,1350,1646,20.4349,-28.471
133,-622,21.8031,27.6852,0,0,0,0,0,0,0,-1,1357,1646,21.8031,-27.6852
140,-622,23.2892,26.7931,0,0,0,0,0,0,0,-1,1364,1646,23.2892,-26.7931
147,-622,24.6879,25.8821,0,0,0,0,0,0,0,-1,1371,1646,24.6879,-25.882
154,-622,5.66565,32.3445,0,0,0,0,0,0,0,-1,1378,1646,5.66559,-32.3445
161,-622,10.6884,6.46448,0,0,0,0,0,0,0,-1,1385,1646,10.6883,-6.46442
168,-622,12.2402,5.18091,0,0,0,0,0,0,0,-1,1392,1646,12.2403,-5.1809
175,-622,5.64355,-1.77075,0,0,0,0,0,0,0,-1,1399,1646,5.64351,1.77077
182,-622,5.88586,-1.32251,0,0,0,0,0,0,0,-1,1406,1646,5.88587,1.32256
189,-622,5.97986,-1.18005,0,0,0,0,0,0,0,-1,1413,1646,5.97986,1.18003
196,-622,5.85022,-0.244507,0,0,0,0,0,0,0,-1,1420,1646,5.85026,0.244478
203,-622,5.25159,0.138794,0,0,0,0,0,0,0,-1,1427,1646,5.25162,-0.138822
210,-622,6.66833,0.0397949,0,0,0,0,0,0,0,-1,1434,1646,6.6684,-0.0398278
217,-622,6.12061,0.0506592,0,0,0,0,0,0,0,-1,1441,1646,6.12058,-0.0507181
224,-622,5.57275,0.0616455,0,0,0,0,0,0,0,-1,1448,1646,5.57276,-0.0616084
231,-622,5.31348,1.3949,0,0,0,0,0,0,0,-1,1455,1646,5.31342,-1.39495
238,-622,3.76477,2.90686,0,0,0,0,0,0,0,-1,1462,1646,3.7648,-2.90686
245,-622,5.13794,2.67993,0,0,0,0,0,0,0,-1,1469,1646,5.13796,-2.67992
252,-622,6.66528,2.53992,0,0,0,0,0,0,0,-1,1476,1646,6.66522,-2.53991
259,-622,8.93787,3.31458,0,0,0,0,0,0,0,-1,1483,1646,8.93791,-3.31454
266,-622,5.72644,3.11926,0,0,0,0,0,0,0,-1,1490,1646,5.72647,-3.1192
273,-622,7.28076,3.61218,0,0,0,0,0,0,0,-1,1497,1646,7.28071,-3.61212
280,-622,8.43127,4.4447,0,0,0,0,0,0,0,-1,1504,1646,8.43123,-4.44467
287,-622,8.60315,5.94617,0,0,0,0,0,0,0,-1,1511,1646,8.60319,-5.94622
294,-622,7.62756,11.5143,0,0,0,0,0,0,0,-1,1518,1646,7.62762,-11.5143
301,-622,7.36548,11.6569,0,0,0,0,0,0,0,-1,1525,1646,7.36549,-11.6569
308,-622,7.10339,11.7994,0,0,0,0,0,0,0,-1,1532,1646,7.10335,-11.7995
315,-622,8.28687,16.5842,0,0,0,0,0,0,0,-1,1539,1646,8.28689,-16.5843
322,-622,7.43689,20.5786,0,0,0,0,0,0,0,-1,1546,1646,7.43685,-20.5786
329,-622,9.43347,23.6327,0,0,0,0,0,0,0,-1,1553,1646,9.43352,-23.6327
336,-622,8.9281,23.3528,0,0,0,0,0,0,0,-1,1560,1646,8.92809,-23.3528
343,-622,8.99377,22.879,0,0,0,0,0,0,0,-1,1567,1646,8.99375,-22.8791
350,-622,9.17529,22.8879,0,0,0,0,0,0,0,-1,1574,1646,9.17524,-22.888
357,-622,8.99475,23.0225,0.0022706,0.0135785,-0.00328363,0.0144629,0.00138626,-1.30772,0.00921467,0.0471639,1581,1646,8.99475,-23.0224
364,-622,9.01086,22.5261,0.00246085,0.0115591,-0.00258443,0.012242,0.00177797,-1.31247,0.00763794,0.0357504,1588,1646,9.01082,-22.5261
371,-622,9.08801,22.1034,0.00216071,0.00916546,-0.00154427,0.0094908,0.00183537,-1.36316,0.00581281,0.0206713,1595,1646,9.08806,-22.1034
378,-622,9.05994,21.8472,0.00178045,0.00705956,-0.000728087,0.00715814,0.00168187,-1.43622,0.00432196,0.0111431,1602,1646,9.05991,-21.8472
385,-622,9.06653,21.6337,0.00158181,0.00501797,-0.000312291,0.00504612,0.00155366,-1.48089,0.0029842,0.00946397,1609,1646,9.06657,-21.6337
392,-622,9.06262,21.4082,0.0012114,0.0034132,0.000369211,0.00347346,0.00115114,1.409,0.00204305,0.0109599,1616,1646,9.06266,-21.4082
399,-622,9.06189,21.1439,0.00077201,0.00201113,0.0010249,0.00258918,0.000193954,1.05726,0.00166524,0.0110947,1623,1646,9.06185,-21.1439
406,-622,9.08838,20.871,0.000412021,0.000786056,0.00154393,0.00215425,-0.000956172,0.84567,0.00183967,0.0134776,1630,1646,9.0884,-20.871
413,-622,9.10229,20.6273,0.00015052,-0.000404349,0.00203171,0.00192365,-0.00217748,0.717542,0.0023693,0.0159429,1637,1646,9.10227,-20.6273
420,-622,9.08887,20.3893,-0.000103256,-0.00118126,0.00239302,0.00181071,-0.00309522,0.674627,0.00286462,0.0169095,1644,1646,9.08887,-20.3892
427,-622,9.08093,20.0834,-0.000386377,-0.00192686,0.00274767,0.00169696,-0.0040102,0.648743,0.00338405,0.0137973,1651,1646,9.08092,-20.0833
434,-622,9.10815,19.7999,-0.000547407,-0.00229774,0.00279034,0.00150179,-0.00434694,0.633435,0.00350742,0.01357,1658,1646,9.10818,-19.8
441,-622,9.1189,19.5233,-0.000546225,-0.00257924,0.00271587,0.00133714,-0.0044626,0.606327,0.00350681,0.0142395,1665,1646,9.11887,-19.5233
448,-622,9.09741,19.2764,-0.000483383,-0.00286123,0.00257412,0.00116311,-0.00450773,0.569055,0.00345867,0.0137674,1672,1646,9.09736,-19.2763
455,-622,9.08044,19.0054,-0.000564559,-0.00315472,0.00244997,0.000911571,-0.00463085,0.542262,0.00343169,0.0156147,1679,1646,9.08042,-19.0054
462,-622,9.08875,18.7278,-0.000630548,-0.00344993,0.00223963,0.000606111,-0.00468659,0.504509,0.00334479,0.0164401,1686,1646,9.08878,-18.7278
469,-622,9.06067,18.4298,-0.00059972,-0.0035414,0.00197961,0.000395657,-0.00453677,0.465897,0.00316466,0.0178053,1693,1646,9.06068,-18.4298
476,-622,9.06995,18.1199,-0.000546355,-0.00372158,0.00177897,0.00025041,-0.00451835,0.421089,0.00309908,0.01791,1700,1646,9.06995,-18.1199
483,-622,8.99377,17.7969,-0.00041353,-0.00381498,0.00149702,0.000151472,-0.00437998,0.36089,0.00297177,0.0257716,1707,1646,8.99377,-17.7969
490,-622,9.03284,17.5146,-0.000265768,-0.00376978,0.000725083,-0.000121654,-0.00391389,0.196198,0.00256967,0.0339843,1714,1646,9.03289,-17.5146
497,-622,9.28833,17.2159,-2.52834e-05,-0.00260017,-7.37523e-05,-2.31726e-05,-0.00260228,-0.0286116,0.00172718,0.048967,1721,1646,9.28832,-17.2159
504,-622,9.55945,16.9115,0,0,0,0,0,0,0,-1,1728,1646,9.55941,-16.9115
511,-622,5.29004,4.14587,0,0,0,0,0,0,0,-1,1735,1646,5.29008,-4.14589
518,-622,5.6001,1.55359,0,0,0,0,0,0,0,-1,1742,1646,5.60015,-1.5536
525,-622,5.83093,2.01807,0,0,0,0,0,0,0,-1,1749,1646,5.83097,-2.01802
532,-622,5.44202,0.57373,0,0,0,0,0,0,0,-1,1756,1646,5.44196,-0.573705
539,-622,9.32129,1.06116,0,0,0,0,0,0,0,-1,1763,1646,9.32131,-1.0612
546,-622,6.50977,-3.45618,0,0,0,0,0,0,0,-1,1770,1646,6.50981,3.4562
553,-622,0,0,0,0,0,0,0,0,0,-1,1777,1646,0,0
560,-622,0,0,0,0,0,0,0,0,0,-1,1784,1646,0,0
567,-622,0,0,0,0,0,0,0,0,0,-1,1791,1646,0,0
574,-622,0,0,0,0,0,0,0,0,0,-1,1798,1646,0,0
581,-622,0,0,0,0,0,0,0,0,0,-1,1805,1646,0,0
588,-622,0,0,0,0,0,0,0,0,0,-1,1812,1646,0,0
595,-622,0,0,0,0,0,0,0,0,0,-1,1819,1646,0,0
602,-622,0,0,0,0,0,0,0,0,0,-1,1826,1646,0,0
609,-622,0,0,0,0,0,0,0,0,0,-1,1833,1646,0,0
616,-622,0,0,0,0,0,0,0,0,0,-1,1840,1646,0,0
623,-622,0,0,0,0,0,0,0,0,0,-1,1847,1646,0,0
630,-622,0,0,0,0,0,0,0,0,0,-1,1854,1646,0,0
637,-622,0,0,0,0,0,0,0,0,0,-1,1861,1646,0,0
644,-622,0,0,0,0,0,0,0,0,0,-1,1868,1646,0,0
651,-622,0,0,0,0,0,0,0,0,0,-1,1875,1646,0,0
658,-622,0,0,0,0,0,0,0,0,0,-1,1882,1646,0,0
665,-622,0,0,0,0,0,0,0,0,0,-1,1889,1646,0,0
672,-622,0,0,0,0,0,0,0,0,0,-1,1896,1646,0,0
679,-622,0,0,0,0,0,0,0,0,0,-1,1903,1646,0,0
686,-622,0,0,0,0,0,0,0,0,0,-1,1910,1646,0,0
693,-622,0,0,0,0,0,0,0,0,0,-1,1917,1646,0,0
700,-622,0,0,0,0,0,0,0,0,0,-1,1924,1646,0,0
707,-622,0,0,0,0,0,0,0,0,0,-1,1931,1646,0,0
714,-622,0,0,0,0,0,0,0,0,0,-1,1938,1646,0,0
721,-622,0,0,0,0,0,0,0,0,0,-1,1945,1646,0,0
728,-622,0,0,0,0,0,0,0,0,0,-1,1952,1646,0,0
735,-622,0,0,0,0,0,0,0,0,0,-1,1959,1646,0,0
742,-622,0,0,0,0,0,0,0,0,0,-1,1966,1646,0,0
749,-622,0,0,0,0,0,0,0,0,0,-1,1973,1646,0,0
756,-622,0,0,0,0,0,0,0,0,0,-1,1980,1646,0,0
763,-622,0,0,0,0,0,0,0,0,0,-1,1987,1646,0,0
770,-622,0,0,0,0,0,0,0,0,0,-1,1994,1646,0,0
777,-622,0,0,0,0,0,0,0,0,0,-1,2001,1646,0,0
784,-622,0,0,0,0,0,0,0,0,0,-1,2008,1646,0,0
791,-622,0,0,0,0,0,0,0,0,0,-1,2015,1646,0,0
798,-622,0,0,0,0,0,0,0,0,0,-1,2022,1646,0,0
805,-622,0,0,0,0,0,0,0,0,0,-1,2029,1646,0,0
812,-622,0,0,0,0,0,0,0,0,0,-1,2036,1646,0,0
-700,-629,0,0,0,0,0,0,0,0,0,-1,524,1653,0,0
-693,-629,0,0,0,0,0,0,0,0,0,-1,531,1653,0,0
-686,-629,0,0,0,0,0,0,0,0,0,-1,538,1653,0,0
-679,-629,0,0,0,0,0,0,0,0,0,-1,545,1653,0,0
-672,-629,0,0,0,0,0,0,0,0,0,-1,552,1653,0,0
-665,-629,0,0,0,0,0,0,0,0,0,-1,559,1653,0,0
-658,-629,0,0,0,0,0,0,0,0,0,-1,566,1653,0,0
-651,-629,0,0,0,0,0,0,0,0,0,-1,573,1653,0,0
-644,-629,0,0,0,0,0,0,0,0,0,-1,580,1653,0,0
-637,-629,0,0,0,0,0,0,0,0,0,-1,587,1653,0,0
-630,-629,0,0,0,0,0,0,0,0,0,-1,594,1653,0,0
-623,-629,0,0,0,0,0,0,0,0,0,-1,601,1653,0,0
-616,-629,0,0,0,0,0,0,0,0,0,-1,608,1653,0,0
-609,-629,0,0,0,0,0,0,0,0,0,-1,615,1653,0,0
-602,-629,0,0,0,0,0,0,0,0,0,-1,622,1653,0,0
-595,-629,0,0,0,0,0,0,0,0,0,-1,629,1653,0,0
-588,-629,0,0,0,0,0,0,0,0,0,-1,636,1653,0,0
-581,-629,0,0,0,0,0,0,0,0,0,-1,643,1653,0,0
-574,-629,0,0,0,0,0,0,0,0,0,-1,650,1653,0,0
-567,-629,0,0,0,0,0,0,0,0,0,-1,657,1653,0,0
-560,-629,0,0,0,0,0,0,0,0,0,-1,664,1653,0,0
-553,-629,0,0,0,0,0,0,0,0,0,-1,671,1653,0,0
-546,-629,0,0,0,0,0,0,0,0,0,-1,678,1653,0,0
-539,-629,0,0,0,0,0,0,0,0,0,-1,685,1653,0,0
-532,-629,0,0,0,0,0,0,0,0,0,-1,692,1653,0,0
-525,-629,0,0,0,0,0,0,0,0,0,-1,699,1653,0,0
-518,-629,0,0,0,0,0,0,0,0,0,-1,706,1653,0,0
-511,-629,0,0,0,0,0,0,0,0,0,-1,713,1653,0,0
-504,-629,0,0,0,0,0,0,0,0,0,-1,720,1653,0,0
-497,-629,0,0,0,0,0,0,0,0,0,-1,727,1653,0,0
-490,-629,0,0,0,0,0,0,0,0,0,-1,734,1653,0,0
-483,-629,0,0,0,0,0,0,0,0,0,-1,741,1653,0,0
-476,-629,0,0,0,0,0,0,0,0,0,-1,748,1653,0,0
-469,-629,0,0,0,0,0,0,0,0,0,-1,755,1653,0,0
-462,-629,0,0,0,0,0,0,0,0,0,-1,762,1653,0,0
-455,-629,0,0,0,0,0,0,0,0,0,-1,769,1653,0,0
-448,-629,0,0,0,0,0,0,0,0,0,-1,776,1653,0,0
-441,-629,0,0,0,0,0,0,0,0,0,-1,783,1653,0,0
-434,-629,0,0,0,0,0,0,0,0,0,-1,790,1653,0,0
-427,-629,0,0,0,0,0,0,0,0,0,-1,797,1653,0,0
-420,-629,-3.87103,3.37634,0,0,0,0,0,0,0,-1,804,1653,-3.87101,-3.37633
-413,-629,-5.69751,1.33582,0,0,0,0,0,0,0,-1,811,1653,-5.69754,-1.3358
-406,-629,2.85406,6.01501,0,0,0,0,0,0,0,-1,818,1653,2.85405,-6.01507
-399,-629,-0.455627,10.8687,0,0,0,0,0,0,0,-1,825,1653,-0.455625,-10.8687
-392,-629,1.15369,11.1295,0,0,0,0,0,0,0,-1,832,1653,1.1537,-11.1295
-385,-629,1.81976,11.6935,0,0,0,0,0,0,0,-1,839,1653,1.81975,-11.6935
-378,-629,2.19452,14.7941,0,0,0,0,0,0,0,-1,846,1653,2.19451,-14.7941
-371,-629,1.51514,12.7848,0,0,0,0,0,0,0,-1,853,1653,1.51513,-12.7848
-364,-629,2.88019,16.2123,0,0,0,0,0,0,0,-1,860,1653,2.8802,-16.2123
-357,-629,3.63153,16.8192,0,0,0,0,0,0,0,-1,867,1653,3.63155,-16.8192
-350,-629,3.50519,17.1648,0,0,0,0,0,0,0,-1,874,1653,3.50521,-17.1649
-343,-629,3.3407,17.2384,0.00418607,0.00132325,0.0041106,0.00710735,-0.00159803,0.617852,0.00535105,0.0436578,881,1653,3.34072,-17.2384
-336,-629,3.41199,17.369,0.00355887,0.00223039,0.00346517,0.00642289,-0.000633633,0.690701,0.00450801,0.0174032,888,1653,3.412,-17.369
-329,-629,3.44135,17.6761,0.00310059,0.0027378,0.00302494,0.00594958,-0.00011118,0.755451,0.00400396,0.0111809,895,1653,3.44133,-17.6761
-322,-629,3.44427,17.9739,0.00267484,0.00291622,0.00273577,0.00553396,5.70999e-05,0.807442,0.00367042,0.0112594,902,1653,3.44429,-17.9739
-315,-629,3.40625,18.3007,0.00215703,0.0028067,0.00239688,0.00490065,6.30778e-05,0.852749,0.00324628,0.0147063,909,1653,3.40623,-18.3007
-308,-629,3.38593,18.6199,0.00172532,0.00252849,0.00200873,0.00417539,7.8422e-05,0.884058,0.00275782,0.0121804,916,1653,3.38591,-18.6199
-301,-629,3.40186,18.9351,0.00136718,0.00209411,0.00161503,0.00338607,7.52149e-05,0.89608,0.00223273,0.0109667,923,1653,3.40188,-18.9351
-294,-629,3.40332,19.22,0.00120145,0.00178812,0.00134201,0.00286848,0.000121086,0.892995,0.00187326,0.0122041,930,1653,3.40334,-19.22
-287,-629,3.40424,19.4841,0.00108292,0.00142284,0.00111572,0.00238148,0.000124287,0.860983,0.00154789,0.00994595,937,1653,3.40422,-19.4842
-280,-629,3.39819,19.7621,0.00110301,0.001051,0.000928967,0.00200633,0.000147673,0.771404,0.00129115,0.00998142,944,1653,3.39816,-19.7621
-273,-629,3.38556,20.022,0.00125557,0.000646072,0.000685728,0.00170122,0.000200424,0.576298,0.00107359,0.0127486,951,1653,3.38554,-20.0219
-266,-629,3.36969,20.3077,0.00165931,0.000283864,0.000702628,0.00195477,-1.15952e-05,0.398058,0.00130707,0.0130924,958,1653,3.36968,-20.3077
-259,-629,3.36597,20.6152,0.00202677,9.03283e-05,0.000697596,0.0022519,-0.000134804,0.312174,0.00154816,0.0139845,965,1653,3.36599,-20.6152
-252,-629,3.39148,20.8838,0.00256992,4.06806e-05,0.000777798,0.00278997,-0.000179366,0.275704,0.00192256,0.0109487,972,1653,3.39146,-20.8838
-245,-629,3.42346,21.136,0.003181,7.64672e-05,0.00094364,0.00344532,-0.000187853,0.273108,0.00236199,0.00829109,979,1653,3.42349,-21.136
-238,-629,3.41522,21.3966,0.003789,7.32894e-05,0.00108044,0.00408032,-0.000218036,0.263372,0.00279573,0.01031,986,1653,3.41525,-21.3966
-231,-629,3.3963,21.6506,0.0044988,-0.000188838,0.00117635,0.00477744,-0.000467476,0.23258,0.00335167,0.0121065,993,1653,3.3963,-21.6506
-224,-629,3.47797,21.9427,0.00524712,-0.000389791,0.00139965,0.00557552,-0.000718194,0.230463,0.00397808,0.0139394,1000,1653,3.47795,-21.9427
-217,-629,3.45081,22.1284,0.00564965,-0.0007006,0.00206655,0.00626293,-0.00131388,0.288488,0.0046752,0.0229936,1007,1653,3.45078,-22.1285
-210,-629,3.38287,22.4537,0.00407487,-0.00092297,0.00349396,0.00587157,-0.00271967,0.474967,0.0050702,0.0472979,1014,1653,3.3829,-22.4537
-203,-629,3.52917,23.0796,0,0,0,0,0,0,0,-1,1021,1653,3.52918,-23.0795
-196,-629,3.87854,23.033,0,0,0,0,0,0,0,-1,1028,1653,3.87856,-23.033
-189,-629,3.45203,23.0674,0,0,0,0,0,0,0,-1,1035,1653,3.452,-23.0674
-182,-629,2.98425,23.4574,0,0,0,0,0,0,0,-1,1042,1653,2.98425,-23.4574
-175,-629,3.29102,19.1411,0,0,0,0,0,0,0,-1,1049,1653,3.29096,-19.1411
-168,-629,4.69922,23.7323,0,0,0,0,0,0,0,-1,1056,1653,4.69926,-23.7323
-161,-629,4.2146,23.9374,-0.030101,0.0155561,0.0175097,0.0214979,-0.0360427,1.24365,0.033573,0.0474158,1063,1653,4.21459,-23.9374
-154,-629,3.57092,24.6902,-0.0360267,0.0195368,0.0195435,0.0257223,-0.0422122,1.26427,0.0396052,0.0481818,1070,1653,3.57097,-24.6902
-147,-629,3.24341,24.6482,0,0,0,0,0,0,0,-1,1077,1653,3.24335,-24.6482
-140,-629,2.34851,19.2911,0,0,0,0,0,0,0,-1,1084,1653,2.34853,-19.2911
-133,-629,3.41248,17.6686,0,0,0,0,0,0,0,-1,1091,1653,3.41243,-17.6686
-126,-629,4.01025,19.5328,0,0,0,0,0,0,0,-1,1098,1653,4.01022,-19.5328
-119,-629,4.94177,13.5525,0,0,0,0,0,0,0,-1,1105,1653,4.94172,-13.5525
-112,-629,5.63123,15.9187,0,0,0,0,0,0,0,-1,1112,1653,5.63118,-15.9187
-105,-629,2.15881,4.38342,0,0,0,0,0,0,0,-1,1119,1653,2.15878,-4.38347
-98,-629,0.825806,4.19385,0,0,0,0,0,0,0,-1,1126,1653,0.825779,-4.1939
-91,-629,-0.452271,3.64465,0,0,0,0,0,0,0,-1,1133,1653,-0.452278,-3.6446
-84,-629,-2.6084,0.466797,0,0,0,0,0,0,0,-1,1140,1653,-2.6084,-0.466786
-77,-629,-3.50903,2.10706,0,0,0,0,0,0,0,-1,1147,1653,-3.509,-2.10707
-70,-629,-1.20886,2.52502,0,0,0,0,0,0,0,-1,1154,1653,-1.20886,-2.525
-63,-629,-0.960693,4.30212,0,0,0,0,0,0,0,-1,1161,1653,-0.960691,-4.30215
-56,-629,-1.31934,5.64343,0,0,0,0,0,0,0,-1,1168,1653,-1.31928,-5.6434
-49,-629,-2.15662,2.57458,0,0,0,0,0,0,0,-1,1175,1653,-2.15656,-2.57459
-42,-629,-2.46326,3.91467,0,0,0,0,0,0,0,-1,1182,1653,-2.4633,-3.91466
-35,-629,-2.67261,5.24292,0,0,0,0,0,0,0,-1,1189,1653,-2.67257,-5.24298
-28,-629,-0.402954,-0.866577,0,0,0,0,0,0,0,-1,1196,1653,-0.402943,0.866612
-21,-629,10.063,9.59705,0,0,0,0,0,0,0,-1,1203,1653,10.063,-9.59708
-14,-629,6.89185,36.3739,0,0,0,0,0,0,0,-1,1210,1653,6.8919,-36.3739
-7,-629,7.3186,36.1936,0,0,0,0,0,0,0,-1,1217,1653,7.31856,-36.1936
0,-629,2.67834,33.235,0,0,0,0,0,0,0,-1,1224,1653,2.6784,-33.235
7,-629,3.48621,33.0587,0.166974,0.375053,0.0862334,0.406145,0.135883,1.22475,0.238728,0.0457451,1231,1653,3.48626,-33.0587
14,-629,4.46362,32.7861,0.171169,0.361412,0.0768944,0.388605,0.143976,1.23088,0.226856,0.0439512,1238,1653,4.46365,-32.7861
21,-629,5.44031,32.9604,0.171452,0.346984,0.06933,0.371064,0.147372,1.23651,0.215739,0.0472588,1245,1653,5.44029,-32.9604
28,-629,6.66919,33.3369,0,0,0,0,0,0,0,-1,1252,1653,6.66916,-33.3369
35,-629,7.38879,33.2754,0.16646,0.312779,0.0582528,0.333138,0.146101,1.23457,0.192821,0.04463,1259,1653,7.38881,-33.2754
42,-629,8.03613,33.2874,0.160115,0.292114,0.0569511,0.313288,0.13894,1.21483,0.181262,0.0475398,1266,1653,8.0361,-33.2874
49,-629,8.85278,33.1115,0.15151,0.26962,0.0550135,0.291275,0.129856,1.19581,0.168496,0.0464216,1273,1653,8.85276,-33.1115
56,-629,9.94214,32.897,0,0,0,0,0,0,0,-1,1280,1653,9.94214,-32.897
63,-629,11.3789,31.3619,0.130545,0.224024,0.0559664,0.250201,0.104368,1.1333,0.145113,0.0457913,1287,1653,11.3789,-31.362
70,-629,12.2086,31.0426,0.118784,0.198339,0.0568076,0.227911,0.089212,1.09083,0.132614,0.0438619,1294,1653,12.2087,-31.0426
77,-629,12.7267,30.6503,0.112045,0.173966,0.0590925,0.209717,0.0762937,1.0267,0.122569,0.0424579,1301,1653,12.7266,-30.6502
84,-629,13.3752,30.3505,0.10327,0.14878,0.061297,0.191409,0.0606402,0.963127,0.112955,0.0467019,1308,1653,13.3752,-30.3505
91,-629,14.3418,30.0387,0.100066,0.124122,0.062499,0.175739,0.0484478,0.880461,0.104812,0.0456232,1315,1653,14.3417,-30.0387
98,-629,15.1049,29.8314,0,0,0,0,0,0,0,-1,1322,1653,15.1048,-29.8314
105,-629,15.83,29.5901,0,0,0,0,0,0,0,-1,1329,1653,15.8299,-29.59
112,-629,16.5547,29.3928,0,0,0,0,0,0,0,-1,1336,1653,16.5547,-29.3928
119,-629,17.3096,28.7288,0,0,0,0,0,0,0,-1,1343,1653,17.3096,-28.7287
126,-629,18.4703,27.8314,0,0,0,0,0,0,0,-1,1350,1653,18.4704,-27.8315
133,-629,19.4609,27.2716,0,0,0,0,0,0,0,-1,1357,1653,19.461,-27.2716
140,-629,20.3799,25.8257,0,0,0,0,0,0,0,-1,1364,1653,20.3799,-25.8257
147,-629,21.6472,24.7618,0,0,0,0,0,0,0,-1,1371,1653,21.6472,-24.7619
154,-629,10.8354,22.9854,0,0,0,0,0,0,0,-1,1378,1653,10.8355,-22.9854
161,-629,10.5461,6.83752,0,0,0,0,0,0,0,-1,1385,1653,10.5461,-6.83758
168,-629,12.0059,5.56348,0,0,0,0,0,0,0,-1,1392,1653,12.0059,-5.56352
175,-629,5.84485,-1.78845,0,0,0,0,0,0,0,-1,1399,1653,5.84479,1.7884
182,-629,5.99036,-1.27783,0,0,0,0,0,0,0,-1,1406,1653,5.99041,1.27778
189,-629,5.97668,-0.748535,0,0,0,0,0,0,0,-1,1413,1653,5.97671,0.748544
196,-629,4.52869,9.24695,0,0,0,0,0,0,0,-1,1420,1653,4.52869,-9.2469
203,-629,3.75085,6.88037,0,0,0,0,0,0,0,-1,1427,1653,3.75087,-6.88032
210,-629,3.5907,6.52637,0,0,0,0,0,0,0,-1,1434,1653,3.59067,-6.52642
217,-629,2.4585,4.84448,0,0,0,0,0,0,0,-1,1441,1653,2.45855,-4.84448
224,-629,1.31982,3.68481,0,0,0,0,0,0,0,-1,1448,1653,1.31986,-3.68487
231,-629,3.63025,1.73499,0,0,0,0,0,0,0,-1,1455,1653,3.6303,-1.735
238,-629,4.26428,2.11255,0,0,0,0,0,0,0,-1,1462,1653,4.26429,-2.11253
245,-629,5.61816,1.95361,0,0,0,0,0,0,0,-1,1469,1653,5.61815,-1.95359
252,-629,7.27136,2.18982,0,0,0,0,0,0,0,-1,1476,1653,7.27131,-2.18985
259,-629,8.67334,2.18628,0,0,0,0,0,0,0,-1,1483,1653,8.6733,-2.18633
266,-629,6.86475,3.72058,0,0,0,0,0,0,0,-1,1490,1653,6.86479,-3.72063
273,-629,7.9021,3.8717,0,0,0,0,0,0,0,-1,1497,1653,7.90205,-3.87171
280,-629,9.70837,4.39087,0,0,0,0,0,0,0,-1,1504,1653,9.7084,-4.39082
287,-629,9.82947,7.19348,0,0,0,0,0,0,0,-1,1511,1653,9.8295,-7.19347
294,-629,6.56555,11.6359,0,0,0,0,0,0,0,-1,1518,1653,6.5656,-11.6358
301,-629,6.93835,15.6102,0,0,0,0,0,0,0,-1,1525,1653,6.93835,-15.6103
308,-629,6.08264,12.1423,0,0,0,0,0,0,0,-1,1532,1653,6.08263,-12.1423
315,-629,6.82043,18.2764,0,0,0,0,0,0,0,-1,1539,1653,6.82049,-18.2764
322,-629,9.07251,23.7705,0,0,0,0,0,0,0,-1,1546,1653,9.07255,-23.7705
329,-629,9.047,23.5327,-0.000443114,0.0125451,-0.00159869,0.012739,-0.000636999,-1.45011,0.00871275,0.0449849,1553,1653,9.04703,-23.5327
336,-629,8.76172,23.2894,0.00022903,0.0126259,-0.00190224,0.0129112,-5.62938e-05,-1.42191,0.0086263,0.0440437,1560,1653,8.76174,-23.2894
343,-629,8.74866,22.9639,0.00075095,0.0122704,-0.00226646,0.0127002,0.000321064,-1.38335,0.00836186,0.0448858,1567,1653,8.74871,-22.9639
350,-629,8.83887,22.8416,0.00141565,0.0115029,-0.00247155,0.012076,0.000842629,-1.34298,0.00778497,0.0287309,1574,1653,8.83892,-22.8416
357,-629,8.86438,22.5385,0.00187986,0.0102705,-0.00230234,0.0108608,0.00128963,-1.31984,0.00685121,0.0160254,1581,1653,8.86437,-22.5385
364,-629,8.81848,22.2887,0.00199608,0.00892676,-0.0019529,0.00943916,0.00148368,-1.3142,0.00586115,0.0127249,1588,1653,8.81845,-22.2887
371,-629,8.82629,22.0654,0.00179412,0.00726408,-0.00132927,0.00757001,0.0014882,-1.34459,0.00463101,0.0108025,1595,1653,8.82624,-22.0654
378,-629,8.81628,21.8386,0.00153341,0.00570285,-0.000799252,0.00585081,0.00138545,-1.38775,0.00353053,0.00996595,1602,1653,8.81631,-21.8387
385,-629,8.81982,21.6218,0.00144081,0.00413637,-0.000476704,0.00421819,0.00135899,-1.40081,0.00248618,0.0116894,1609,1653,8.81978,-21.6218
392,-629,8.82605,21.3994,0.00122215,0.0026991,0.000105504,0.0027066,0.00121465,1.49984,0.00156539,0.011064,1616,1653,8.82604,-21.3994
399,-629,8.82947,21.1381,0.000893448,0.00148074,0.000704448,0.00195029,0.000423893,0.98287,0.00118446,0.0108824,1623,1653,8.82951,-21.1381
406,-629,8.84253,20.8685,0.000649052,0.000380417,0.00125205,0.00177397,-0.000744502,0.731964,0.00149398,0.013784,1630,1653,8.84249,-20.8686
413,-629,8.83423,20.6373,0.000454344,-0.000736671,0.00181654,0.0017705,-0.00205282,0.627005,0.0022094,0.0233728,1637,1653,8.83418,-20.6374
420,-629,8.82532,20.3864,0.000199487,-0.00159684,0.00235966,0.00182614,-0.00322349,0.603548,0.00295238,0.0222124,1644,1653,8.82527,-20.3864
427,-629,8.82104,20.0929,-8.19565e-05,-0.00243718,0.00291054,0.00188018,-0.00439932,0.593164,0.00372145,0.0134764,1651,1653,8.82099,-20.0928
434,-629,8.82446,19.8187,-0.000280388,-0.00299257,0.00321428,0.00185215,-0.00512512,0.585779,0.00417345,0.0105274,1658,1653,8.82442,-19.8187
441,-629,8.84351,19.5601,-0.000352089,-0.00347445,0.00340869,0.00183593,-0.00566246,0.570655,0.00451319,0.0149834,1665,1653,8.84356,-19.5601
448,-629,8.82227,19.2815,-0.000398662,-0.00396259,0.00352004,0.00176476,-0.00612601,0.551087,0.00478207,0.0144955,1672,1653,8.82232,-19.2815
455,-629,8.80127,18.9913,-0.000609427,-0.00445862,0.00364231,0.0015855,-0.00665355,0.542343,0.00504789,0.0135602,1679,1653,8.80126,-18.9913
462,-629,8.80518,18.7327,-0.000807255,-0.00503263,0.00365825,0.00130454,-0.00714442,0.523538,0.00525208,0.0165316,1686,1653,8.80518,-18.7326
469,-629,8.77417,18.4023,-0.000912075,-0.00532141,0.00357251,0.00108127,-0.00731476,0.508941,0.00527401,0.0194166,1693,1653,8.7742,-18.4023
476,-629,8.81348,18.1414,-0.000985382,-0.00571345,0.0034996,0.000873836,-0.00757267,0.488346,0.00536351,0.0275222,1700,1653,8.81349,-18.1414
483,-629,8.77002,17.8203,-0.000897178,-0.00587294,0.00317562,0.000649058,-0.00741917,0.45312,0.00517605,0.0403125,1707,1653,8.76996,-17.8203
490,-629,8.86755,17.4552,-0.000794279,-0.00588666,0.00203941,-7.8219e-05,-0.00660272,0.337665,0.00437597,0.046822,1714,1653,8.86758,-17.4552
497,-629,8.99414,17.1757,0,0,0,0,0,0,0,-1,1721,1653,8.9942,-17.1757
504,-629,7.89453,15.5316,0,0,0,0,0,0,0,-1,1728,1653,7.89447,-15.5316
511,-629,6.29138,3.40295,0,0,0,0,0,0,0,-1,1735,1653,6.29137,-3.403
518,-629,5.84387,1.41858,0,0,0,0,0,0,0,-1,1742,1653,5.84391,-1.4186
525,-629,6.4729,1.02319,0,0,0,0,0,0,0,-1,1749,1653,6.47284,-1.02316
532,-629,6.86511,0.903687,0,0,0,0,0,0,0,-1,1756,1653,6.86514,-0.903691
539,-629,6.60803,0.746704,0,0,0,0,0,0,0,-1,1763,1653,6.60809,-0.746691
546,-629,0,0,0,0,0,0,0,0,0,-1,1770,1653,0,0
553,-629,0,0,0,0,0,0,0,0,0,-1,1777,1653,0,0
560,-629,0,0,0,0,0,0,0,0,0,-1,1784,1653,0,0
567,-629,0,0,0,0,0,0,0,0,0,-1,1791,1653,0,0
574,-629,0,0,0,0,0,0,0,0,0,-1,1798,1653,0,0
581,-629,0,0,0,0,0,0,0,0,0,-1,1805,1653,0,0
588,-629,0,0,0,0,0,0,0,0,0,-1,1812,1653,0,0
595,-629,0,0,0,0,0,0,0,0,0,-1,1819,1653,0,0
602,-629,0,0,0,0,0,0,0,0,0,-1,1826,1653,0,0
609,-629,0,0,0,0,0,0,0,0,0,-1,1833,1653,0,0
616,-629,0,0,0,0,0,0,0,0,0,-1,1840,1653,0,0
623,-629,0,0,0,0,0,0,0,0,0,-1,1847,1653,0,0
630,-629,0,0,0,0,0,0,0,0,0,-1,1854,1653,0,0
637,-629,0,0,0,0,0,0,0,0,0,-1,1861,1653,0,0
644,-629,0,0,0,0,0,0,0,0,0,-1,1868,1653,0,0
651,-629,0,0,0,0,0,0,0,0,0,-1,1875,1653,0,0
658,-629,0,0,0,0,0,0,0,0,0,-1,1882,1653,0,0
665,-629,0,0,0,0,0,0,0,0,0,-1,1889,1653,0,0
672,-629,0,0,0,0,0,0,0,0,0,-1,1896,1653,0,0
679,-629,0,0,0,0,0,0,0,0,0,-1,1903,1653,0,0
686,-629,0,0,0,0,0,0,0,0,0,-1,1910,1653,0,0
693,-629,0,0,0,0,0,0,0,0,0,-1,1917,1653,0,0
700,-629,0,0,0,0,0,0,0,0,0,-1,1924,1653,0,0
707,-629,0,0,0,0,0,0,0,0,0,-1,1931,1653,0,0
714,-629,0,0,0,0,0,0,0,0,0,-1,1938,1653,0,0
721,-629,0,0,0,0,0,0,0,0,0,-1,1945,1653,0,0
728,-629,0,0,0,0,0,0,0,0,0,-1,1952,1653,0,0
735,-629,0,0,0,0,0,0,0,0,0,-1,1959,1653,0,0
742,-629,0,0,0,0,0,0,0,0,0,-1,1966,1653,0,0
749,-629,0,0,0,0,0,0,0,0,0,-1,1973,1653,0,0
756,-629,0,0,0,0,0,0,0,0,0,-1,1980,1653,0,0
763,-629,0,0,0,0,0,0,0,0,0,-1,1987,1653,0,0
770,-629,0,0,0,0,0,0,0,0,0,-1,1994,1653,0,0
777,-629,0,0,0,0,0,0,0,0,0,-1,2001,1653,0,0
784,-629,0,0,0,0,0,0,0,0,0,-1,2008,1653,0,0
791,-629,0,0,0,0,0,0,0,0,0,-1,2015,1653,0,0
798,-629,0,0,0,0,0,0,0,0,0,-1,2022,1653,0,0
805,-629,0,0,0,0,0,0,0,0,0,-1,2029,1653,0,0
812,-629,0,0,0,0,0,0,0,0,0,-1,2036,1653,0,0
-700,-636,0,0,0,0,0,0,0,0,0,-1,524,1660,0,0
-693,-636,0,0,0,0,0,0,0,0,0,-1,531,1660,0,0
-686,-636,0,0,0,0,0,0,0,0,0,-1,538,1660,0,0
-679,-636,0,0,0,0,0,0,0,0,0,-1,545,1660,0,0
-672,-636,0,0,0,0,0,0,0,0,0,-1,552,1660,0,0
-665,-636,0,0,0,0,0,0,0,0,0,-1,559,1660,0,0
-658,-636,0,0,0,0,0,0,0,0,0,-1,566,1660,0,0
-651,-636,0,0,0,0,0,0,0,0,0,-1,573,1660,0,0
-644,-636,0,0,0,0,0,0,0,0,0,-1,580,1660,0,0
-637,-636,0,0,0,0,0,0,0,0,0,-1,587,1660,0,0
-630,-636,0,0,0,0,0,0,0,0,0,-1,594,1660,0,0
-623,-636,0,0,0,0,0,0,0,0,0,-1,601,1660,0,0
-616,-636,0,0,0,0,0,0,0,0,0,-1,608,1660,0,0
-609,-636,0,0,0,0,0,0,0,0,0,-1,615,1660,0,0
-602,-636,0,0,0,0,0,0,0,0,0,-1,622,1660,0,0
-595,-636,0,0,0,0,0,0,0,0,0,-1,629,1660,0,0
-588,-636,0,0,0,0,0,0,0,0,0,-1,636,1660,0,0
-581,-636,0,0,0,0,0,0,0,0,0,-1,643,1660,0,0
-574,-636,0,0,0,0,0,0,0,0,0,-1,650,1660,0,0
-567,-636,0,0,0,0,0,0,0,0,0,-1,657,1660,0,0
-560,-636,0,0,0,0,0,0,0,0,0,-1,664,1660,0,0
-553,-636,0,0,0,0,0,0,0,0,0,-1,671,1660,0,0
-546,-636,0,0,0,0,0,0,0,0,0,-1,678,1660,0,0
-539,-636,0,0,0,0,0,0,0,0,0,-1,685,1660,0,0
-532,-636,0,0,0,0,0,0,0,0,0,-1,692,1660,0,0
-525,-636,0,0,0,0,0,0,0,0,0,-1,699,1660,0,0
-518,-636,0,0,0,0,0,0,0,0,0,-1,706,1660,0,0
-511,-636,0,0,0,0,0,0,0,0,0,-1,713,1660,0,0
-504,-636,0,0,0,0,0,0,0,0,0,-1,720,1660,0,0
-497,-636,0,0,0,0,0,0,0,0,0,-1,727,1660,0,0
-490,-636,0,0,0,0,0,0,0,0,0,-1,734,1660,0,0
-483,-636,0,0,0,0,0,0,0,0,0,-1,741,1660,0,0
-476,-636,0,0,0,0,0,0,0,0,0,-1,748,1660,0,0
-469,-636,0,0,0,0,0,0,0,0,0,-1,755,1660,0,0
-462,-636,0,0,0,0,0,0,0,0,0,-1,762,1660,0,0
-455,-636,0,0,0,0,0,0,0,0,0,-1,769,1660,0,0
-448,-636,0,0,0,0,0,0,0,0,0,-1,776,1660,0,0
-441,-636,0,0,0,0,0,0,0,0,0,-1,783,1660,0,0
-434,-636,0,0,0,0,0,0,0,0,0,-1,790,1660,0,0
-427,-636,0,0,0,0,0,0,0,0,0,-1,797,1660,0,0
-420,-636,0,0,0,0,0,0,0,0,0,-1,804,1660,0,0
-413,-636,0,0,0,0,0,0,0,0,0,-1,811,1660,0,0
-406,-636,-0.591125,10.6943,0,0,0,0,0,0,0,-1,818,1660,-0.59115,-10.6943
-399,-636,0.0766602,11.2408,0,0,0,0,0,0,0,-1,825,1660,0.076685,-11.2409
-392,-636,0.75946,11.9233,0,0,0,0,0,0,0,-1,832,1660,0.759481,-11.9233
-385,-636,1.68878,12.517,0,0,0,0,0,0,0,-1,839,1660,1.6888,-12.5169
-378,-636,2.22107,13.0013,0,0,0,0,0,0,0,-1,846,1660,2.22107,-13.0014
-371,-636,2.52185,11.9684,0,0,0,0,0,0,0,-1,853,1660,2.52184,-11.9684
-364,-636,0.864136,14.8948,0,0,0,0,0,0,0,-1,860,1660,0.86413,-14.8948
-357,-636,4.55682,15.8809,0,0,0,0,0,0,0,-1,867,1660,4.55681,-15.8808
-350,-636,2.63104,14.4946,0,0,0,0,0,0,0,-1,874,1660,2.63102,-14.4946
-343,-636,3.59064,17.1826,0,0,0,0,0,0,0,-1,881,1660,3.59063,-17.1827
-336,-636,3.66431,17.4216,0.00586533,0.00429088,0.00573592,0.0108678,-0.000711584,0.717202,0.00749366,0.0338081,888,1660,3.66434,-17.4216
-329,-636,3.73297,17.6711,0.00472338,0.00461766,0.00478665,0.00945746,-0.000116428,0.779877,0.00634414,0.0179801,895,1660,3.73295,-17.6711
-322,-636,3.7464,17.9813,0.00372948,0.00444515,0.00403075,0.00813392,4.07146e-05,0.82967,0.00540909,0.0114751,902,1660,3.74637,-17.9814
-315,-636,3.69611,18.2946,0.0027376,0.00402458,0.0032985,0.00674177,2.04092e-05,0.881731,0.00448772,0.012319,909,1660,3.69609,-18.2945
-308,-636,3.67883,18.6187,0.0019293,0.00344572,0.00256055,0.00535796,1.70569e-05,0.929341,0.0035663,0.0114722,916,1660,3.67884,-18.6187
-301,-636,3.69366,18.9436,0.00128381,0.00271839,0.00187049,0.0040044,-2.20351e-06,0.968489,0.00267034,0.0111361,923,1660,3.6937,-18.9436
-294,-636,3.68951,19.2422,0.00090807,0.00214349,0.00135847,0.00301809,3.34674e-05,0.99878,0.002001,0.0142274,930,1660,3.68954,-19.2422
-287,-636,3.68488,19.4999,0.000640721,0.00157344,0.000969502,0.00218292,3.12451e-05,1.00958,0.00144498,0.0127862,937,1660,3.68488,-19.4999
-280,-636,3.68756,19.7725,0.000558087,0.00103702,0.000666374,0.00150565,8.94583e-05,0.957892,0.000975315,0.0122382,944,1660,3.68757,-19.7724
-273,-636,3.66791,20.0266,0.000612349,0.00050039,0.000315295,0.000876595,0.000236144,0.697541,0.000523739,0.0122927,951,1660,3.66791,-20.0266
-266,-636,3.66016,20.3187,0.000994764,0.000121159,0.000321508,0.00110033,1.55924e-05,0.317256,0.000728412,0.0132566,958,1660,3.66013,-20.3188
-259,-636,3.66321,20.6356,0.00129715,-0.000111334,0.000307766,0.00136147,-0.000175647,0.206002,0.0009715,0.0143588,965,1660,3.66323,-20.6357
-252,-636,3.66248,20.8949,0.00177464,-0.000155885,0.000412978,0.00185927,-0.000240519,0.202137,0.00132697,0.0109466,972,1660,3.66246,-20.8949
-245,-636,3.67535,21.1499,0.00236263,-0.000103334,0.000600492,0.00250109,-0.000241788,0.226606,0.00175355,0.00991245,979,1660,3.67537,-21.1499
-238,-636,3.68896,21.4081,0.0029167,2.04181e-06,0.000765568,0.00310555,-0.000186807,0.24185,0.00213536,0.0108467,986,1660,3.68898,-21.4081
-231,-636,3.68579,21.6577,0.00352276,-9.77531e-05,0.000937619,0.00375117,-0.000326162,0.238951,0.00261629,0.010594,993,1660,3.6858,-21.6577
-224,-636,3.69489,21.9075,0.00411761,-0.000132379,0.00116437,0.00441571,-0.000430475,0.250631,0.00309729,0.00909436,1000,1660,3.69488,-21.9074
-217,-636,3.68597,22.201,0.00440908,-0.000301279,0.00165914,0.0049348,-0.000827004,0.306858,0.00359737,0.0139395,1007,1660,3.68596,-22.201
-210,-636,3.68207,22.452,0.00334866,-0.000441988,0.00267495,0.00473169,-0.00182502,0.47718,0.00390755,0.022017,1014,1660,3.68205,-22.452
-203,-636,3.71912,22.6923,0.00124914,0.000710375,0.00361863,0.00460839,-0.00264888,0.748245,0.0042406,0.0277578,1021,1660,3.71911,-22.6923
-196,-636,3.88037,22.8801,-0.000534563,0.00138338,0.00465377,0.00517595,-0.00432714,0.887008,0.0054939,0.030064,1028,1660,3.88036,-22.8802
-189,-636,3.86365,23.0605,-0.00320958,0.00223351,0.0058847,0.00599552,-0.00697159,1.00199,0.00749363,0.0300029,1035,1660,3.86369,-23.0605
-182,-636,3.96948,23.1766,-0.0066036,0.00384105,0.00743909,0.00770788,-0.0104704,1.09144,0.0105356,0.0465013,1042,1660,3.96946,-23.1766
-175,-636,4.69397,23.8313,0,0,0,0,0,0,0,-1,1049,1660,4.69393,-23.8313
-168,-636,4.42554,23.7758,-0.0149855,0.00848326,0.0108458,0.0127278,-0.0192301,1.19776,0.0185778,0.0491638,1056,1660,4.42553,-23.7758
-161,-636,4.23083,23.9111,-0.0193779,0.0118018,0.0124277,0.0161491,-0.0237252,1.23429,0.0231595,0.0458048,1063,1660,4.23086,-23.9112
-154,-636,3.83765,24.2039,-0.0233291,0.0148844,0.0138483,0.0193752,-0.0278199,1.25721,0.0273931,0.0464612,1070,1660,3.8376,-24.2038
-147,-636,3.41174,24.2877,0,0,0,0,0,0,0,-1,1077,1660,3.41177,-24.2878
-140,-636,4.10107,20.2935,0,0,0,0,0,0,0,-1,1084,1660,4.10111,-20.2934
-133,-636,4.68311,18.0922,0,0,0,0,0,0,0,-1,1091,1660,4.68316,-18.0921
-126,-636,3.79028,18.2225,0,0,0,0,0,0,0,-1,1098,1660,3.79025,-18.2226
-119,-636,1.8667,13.8916,0,0,0,0,0,0,0,-1,1105,1660,1.86668,-13.8916
-112,-636,-1.24963,9.7998,0,0,0,0,0,0,0,-1,1112,1660,-1.24968,-9.79978
-105,-636,3.51624,4.72791,0,0,0,0,0,0,0,-1,1119,1660,3.51618,-4.7279
-98,-636,1.54504,5.11914,0,0,0,0,0,0,0,-1,1126,1660,1.54503,-5.11912
-91,-636,-1.87964,-2.25012,0,0,0,0,0,0,0,-1,1133,1660,-1.87966,2.25016
-84,-636,-2.84143,0.133667,0,0,0,0,0,0,0,-1,1140,1660,-2.84144,-0.133701
-77,-636,-3.57349,2.45935,0,0,0,0,0,0,0,-1,1147,1660,-3.57345,-2.45939
-70,-636,-4.23682,4.82312,0,0,0,0,0,0,0,-1,1154,1660,-4.23681,-4.82307
-63,-636,-2.21033,6.97168,0,0,0,0,0,0,0,-1,1161,1660,-2.21034,-6.97165
-56,-636,-2.51917,8.80359,0,0,0,0,0,0,0,-1,1168,1660,-2.51916,-8.80361
-49,-636,-3.13,10.4113,0,0,0,0,0,0,0,-1,1175,1660,-3.12996,-10.4112
-42,-636,-2.27771,4.90173,0,0,0,0,0,0,0,-1,1182,1660,-2.27775,-4.90173
-35,-636,-2.27698,5.89685,0,0,0,0,0,0,0,-1,1189,1660,-2.27695,-5.89686
-28,-636,-1.70654,4.83936,0,0,0,0,0,0,0,-1,1196,1660,-1.70656,-4.8393
-21,-636,1.80078,23.11,0,0,0,0,0,0,0,-1,1203,1660,1.80073,-23.11
-14,-636,6.06653,35.6886,0,0,0,0,0,0,0,-1,1210,1660,6.06656,-35.6886
-7,-636,6.42151,35.4603,0,0,0,0,0,0,0,-1,1217,1660,6.42152,-35.4603
0,-636,1.62573,31.7263,0,0,0,0,0,0,0,-1,1224,1660,1.62572,-31.7263
7,-636,2.50513,31.5425,0.159515,0.343375,0.0765482,0.371073,0.131818,1.22362,0.217212,0.0479864,1231,1660,2.50515,-31.5425
14,-636,3.38867,31.3149,0.163729,0.329614,0.0682009,0.354053,0.13929,1.22671,0.205955,0.0444502,1238,1660,3.38862,-31.315
21,-636,4.41125,31.2866,0.164437,0.314874,0.0612465,0.336656,0.142655,1.22911,0.19512,0.0458274,1245,1660,4.4113,-31.2866
28,-636,5.21655,31.5385,0.162632,0.298679,0.0553098,0.318328,0.142983,1.22946,0.184103,0.0450119,1252,1660,5.21653,-31.5385
35,-636,6.2749,31.4624,0.157559,0.280904,0.0520032,0.299903,0.13856,1.22053,0.173315,0.0439579,1259,1660,6.27496,-31.4624
42,-636,7.07275,31.5039,0.149774,0.261866,0.0505791,0.281314,0.130326,1.20371,0.162563,0.0483004,1266,1660,7.07271,-31.5039
49,-636,7.74792,31.42,0.139422,0.240156,0.0476359,0.259115,0.120463,1.19203,0.149723,0.0461498,1273,1660,7.74791,-31.42
56,-636,8.91443,31.1395,0.127353,0.219323,0.0469829,0.23908,0.107596,1.17273,0.138262,0.0451845,1280,1660,8.91447,-31.1396
63,-636,10.1385,30.6489,0.115838,0.198039,0.0470231,0.219392,0.0944854,1.14454,0.127071,0.0456541,1287,1660,10.1386,-30.6489
70,-636,10.713,30.412,0.103233,0.175277,0.0469987,0.19847,0.0800392,1.11237,0.115299,0.0442463,1294,1660,10.713,-30.412
77,-636,11.5208,29.8713,0.0936906,0.152693,0.047689,0.179268,0.0671156,1.0624,0.104584,0.0441278,1301,1660,11.5208,-29.8714
84,-636,12.2278,29.4967,0.0819454,0.129711,0.0482773,0.15969,0.0519665,1.0151,0.0940517,0.0464501,1308,1660,12.2278,-29.4967
91,-636,12.8081,29.3232,0.0758646,0.106332,0.0492409,0.142642,0.0395547,0.935413,0.0850335,0.044526,1315,1660,12.8081,-29.3232
98,-636,13.3931,29.0491,0,0,0,0,0,0,0,-1,1322,1660,13.393,-29.049
105,-636,4.10474,24.1943,0,0,0,0,0,0,0,-1,1329,1660,4.10478,-24.1943
112,-636,4.25293,25.2941,0,0,0,0,0,0,0,-1,1336,1660,4.25298,-25.2941
119,-636,4.46545,26.3636,0,0,0,0,0,0,0,-1,1343,1660,4.46545,-26.3637
126,-636,16.4552,26.9675,0,0,0,0,0,0,0,-1,1350,1660,16.4553,-26.9676
133,-636,17.4456,26.3585,0,0,0,0,0,0,0,-1,1357,1660,17.4455,-26.3586
140,-636,17.5432,24.8406,0,0,0,0,0,0,0,-1,1364,1660,17.5432,-24.8406
147,-636,18.7963,23.7349,0,0,0,0,0,0,0,-1,1371,1660,18.7962,-23.7349
154,-636,6.17761,27.8953,0,0,0,0,0,0,0,-1,1378,1660,6.17759,-27.8953
161,-636,10.2961,7.13025,0,0,0,0,0,0,0,-1,1385,1660,10.2961,-7.13021
168,-636,11.7659,5.83899,0,0,0,0,0,0,0,-1,1392,1660,11.7658,-5.83899
175,-636,5.94592,-1.72888,0,0,0,0,0,0,0,-1,1399,1660,5.94598,1.72886
182,-636,5.93994,-1.11938,0,0,0,0,0,0,0,-1,1406,1660,5.93998,1.11936
189,-636,5.32544,11.9595,0,0,0,0,0,0,0,-1,1413,1660,5.32542,-11.9595
196,-636,5.3623,9.38025,0,0,0,0,0,0,0,-1,1420,1660,5.36225,-9.38027
203,-636,5.18542,9.02429,0,0,0,0,0,0,0,-1,1427,1660,5.18547,-9.0243
210,-636,4.09167,7.17041,0,0,0,0,0,0,0,-1,1434,1660,4.09173,-7.17041
217,-636,2.94897,5.28992,0,0,0,0,0,0,0,-1,1441,1660,2.94899,-5.28991
224,-636,1.49194,3.63916,0,0,0,0,0,0,0,-1,1448,1660,1.49197,-3.63918
231,-636,0.17749,2.24854,0,0,0,0,0,0,0,-1,1455,1660,0.177501,-2.24855
238,-636,-0.764648,1.00598,0,0,0,0,0,0,0,-1,1462,1660,-0.764704,-1.00595
245,-636,6.21204,1.18005,0,0,0,0,0,0,0,-1,1469,1660,6.21206,-1.18001
252,-636,7.70251,0.865723,0,0,0,0,0,0,0,-1,1476,1660,7.7025,-0.865692
259,-636,9.03601,0.787231,0,0,0,0,0,0,0,-1,1483,1660,9.03598,-0.787243
266,-636,10.1071,3.24109,0,0,0,0,0,0,0,-1,1490,1660,10.1071,-3.24103
273,-636,8.48535,5.02466,0,0,0,0,0,0,0,-1,1497,1660,8.48533,-5.02472
280,-636,8.81384,5.66992,0,0,0,0,0,0,0,-1,1504,1660,8.81381,-5.66998
287,-636,6.08606,11.49,0,0,0,0,0,0,0,-1,1511,1660,6.08606,-11.49
294,-636,6.69592,15.9669,0,0,0,0,0,0,0,-1,1518,1660,6.69595,-15.9669
301,-636,8.25903,23.0582,0,0,0,0,0,0,0,-1,1525,1660,8.25903,-23.0583
308,-636,8.72522,24.3986,0,0,0,0,0,0,0,-1,1532,1660,8.72528,-24.3986
315,-636,8.32153,24.106,0,0,0,0,0,0,0,-1,1539,1660,8.32153,-24.106
322,-636,8.60498,23.6144,0,0,0,0,0,0,0,-1,1546,1660,8.60504,-23.6144
329,-636,8.6084,23.38,0.000323086,0.00849534,-0.000617805,0.00854178,0.000276645,-1.49577,0.00560458,0.0269556,1553,1660,8.60844,-23.38
336,-636,8.59033,23.1759,0.000564268,0.00869811,-0.00090567,0.00879773,0.000464646,-1.46124,0.00571657,0.0213612,1560,1660,8.59037,-23.1759
343,-636,8.52563,23.0323,0.000790693,0.00860487,-0.00126149,0.00880347,0.000592091,-1.41464,0.00568191,0.0205902,1567,1660,8.52563,-23.0324
350,-636,8.52136,22.7955,0.00120785,0.00819002,-0.00153117,0.00851104,0.000886827,-1.36413,0.00540273,0.0120298,1574,1660,8.52141,-22.7955
357,-636,8.57117,22.5515,0.00149249,0.00747802,-0.00154051,0.00785124,0.00111928,-1.33311,0.00490383,0.00991261,1581,1660,8.57117,-22.5516
364,-636,8.58167,22.3202,0.00153779,0.00654888,-0.00139068,0.00690895,0.00117772,-1.31744,0.00426791,0.0100125,1588,1660,8.58163,-22.3202
371,-636,8.57764,22.0865,0.00143454,0.00544158,-0.00108979,0.0057188,0.00115733,-1.32171,0.00349129,0.00925731,1595,1660,8.57763,-22.0865
378,-636,8.57605,21.8428,0.0013049,0.00430609,-0.00078817,0.00450048,0.0011105,-1.32898,0.00270717,0.00977664,1602,1660,8.57609,-21.8428
385,-636,8.57983,21.5913,0.00133488,0.00314148,-0.000507958,0.0032745,0.00120185,-1.31466,0.00191269,0.0151204,1609,1660,8.57985,-21.5913
392,-636,8.59119,21.345,0.00125271,0.00182479,5.49181e-05,0.00183001,0.00124748,1.47595,0.00107956,0.0159889,1616,1660,8.59121,-21.345
399,-636,8.59375,21.1171,0.00102545,0.000729841,0.000644645,0.00153901,0.000216271,0.672707,0.000962057,0.01164,1623,1660,8.59373,-21.117
406,-636,8.60107,20.8833,0.000893181,-0.000270802,0.00125604,0.00169552,-0.00107314,0.568447,0.00161189,0.0141174,1630,1660,8.60103,-20.8832
413,-636,8.56567,20.6376,0.000758626,-0.00132306,0.00193746,0.00191713,-0.00248156,0.538909,0.00254654,0.0235325,1637,1660,8.56565,-20.6376
420,-636,8.54712,20.3671,0.000486786,-0.00228975,0.0027156,0.0021484,-0.00395136,0.549106,0.00357261,0.0232602,1644,1660,8.54717,-20.3671
427,-636,8.55554,20.1064,0.00019153,-0.00325508,0.00353533,0.0024012,-0.00546475,0.558618,0.00465481,0.0130235,1651,1660,8.55553,-20.1065
434,-636,8.54321,19.8322,-6.64132e-05,-0.00405209,0.00420626,0.00259521,-0.00671371,0.564172,0.00554707,0.0104999,1658,1660,8.54319,-19.8322
441,-636,8.56641,19.558,-0.000259957,-0.00481883,0.00478824,0.00276373,-0.00784252,0.563246,0.00635323,0.0110598,1665,1660,8.56642,-19.5579
448,-636,8.56274,19.2866,-0.000472163,-0.0056089,0.00530165,0.00285048,-0.00893154,0.559834,0.00709795,0.0127876,1672,1660,8.56279,-19.2866
455,-636,8.54346,19.0062,-0.000849446,-0.00640935,0.00583217,0.00283143,-0.0100902,0.562998,0.00784289,0.0139247,1679,1660,8.54348,-19.0062
462,-636,8.5498,18.7134,-0.00123621,-0.00741755,0.00622037,0.002619,-0.0112728,0.554831,0.00852337,0.0186657,1686,1660,8.54983,-18.7134
469,-636,8.51135,18.4044,-0.0015396,-0.00804596,0.00644547,0.00242714,-0.0120127,0.551689,0.00892817,0.0291678,1693,1660,8.51137,-18.4045
476,-636,8.35901,18.335,-0.0016732,-0.00861333,0.00645465,0.00218502,-0.0124716,0.538759,0.00913028,0.0424096,1700,1660,8.35897,-18.335
483,-636,8.4928,17.8044,0,0,0,0,0,0,0,-1,1707,1660,8.49277,-17.8045
490,-636,8.66748,17.3992,0,0,0,0,0,0,0,-1,1714,1660,8.66743,-17.3991
497,-636,8.91895,15.2521,0,0,0,0,0,0,0,-1,1721,1660,8.91892,-15.2521
504,-636,8.73218,14.8545,0,0,0,0,0,0,0,-1,1728,1660,8.73218,-14.8544
511,-636,5.65466,9.23218,0,0,0,0,0,0,0,-1,1735,1660,5.65461,-9.23216
518,-636,6.72791,1.07605,0,0,0,0,0,0,0,-1,1742,1660,6.7279,-1.0761
525,-636,7.04309,0.93335,0,0,0,0,0,0,0,-1,1749,1660,7.04308,-0.933298
532,-636,0,0,0,0,0,0,0,0,0,-1,1756,1660,0,0
539,-636,0,0,0,0,0,0,0,0,0,-1,1763,1660,0,0
546,-636,0,0,0,0,0,0,0,0,0,-1,1770,1660,0,0
553,-636,0,0,0,0,0,0,0,0,0,-1,1777,1660,0,0
560,-636,0,0,0,0,0,0,0,0,0,-1,1784,1660,0,0
567,-636,0,0,0,0,0,0,0,0,0,-1,1791,1660,0,0
574,-636,0,0,0,0,0,0,0,0,0,-1,1798,1660,0,0
581,-636,0,0,0,0,0,0,0,0,0,-1,1805,1660,0,0
588,-636,0,0,0,0,0,0,0,0,0,-1,1812,1660,0,0
595,-636,0,0,0,0,0,0,0,0,0,-1,1819,1660,0,0
602,-636,0,0,0,0,0,0,0,0,0,-1,1826,1660,0,0
609,-636,0,0,0,0,0,0,0,0,0,-1,1833,1660,0,0
616,-636,0,0,0,0,0,0,0,0,0,-1,1840,1660,0,0
623,-636,0,0,0,0,0,0,0,0,0,-1,1847,1660,0,0
630,-636,0,0,0,0,0,0,0,0,0,-1,1854,1660,0,0
637,-636,0,0,0,0,0,0,0,0,0,-1,1861,1660,0,0
644,-636,0,0,0,0,0,0,0,0,0,-1,1868,1660,0,0
651,-636,0,0,0,0,0,0,0,0,0,-1,1875,1660,0,0
658,-636,0,0,0,0,0,0,0,0,0,-1,1882,1660,0,0
665,-636,0,0,0,0,0,0,0,0,0,-1,1889,1660,0,0
672,-636,0,0,0,0,0,0,0,0,0,-1,1896,1660,0,0
679,-636,0,0,0,0,0,0,0,0,0,-1,1903,1660,0,0
686,-636,0,0,0,0,0,0,0,0,0,-1,1910,1660,0,0
693,-636,0,0,0,0,0,0,0,0,0,-1,1917,1660,0,0
700,-636,0,0,0,0,0,0,0,0,0,-1,1924,1660,0,0
707,-636,0,0,0,0,0,0,0,0,0,-1,1931,1660,0,0
714,-636,0,0,0,0,0,0,0,0,0,-1,1938,1660,0,0
721,-636,0,0,0,0,0,0,0,0,0,-1,1945,1660,0,0
728,-636,0,0,0,0,0,0,0,0,0,-1,1952,1660,0,0
735,-636,0,0,0,0,0,0,0,0,0,-1,1959,1660,0,0
742,-636,0,0,0,0,0,0,0,0,0,-1,1966,1660,0,0
749,-636,0,0,0,0,0,0,0,0,0,-1,1973,1660,0,0
756,-636,0,0,0,0,0,0,0,0,0,-1,1980,1660,0,0
763,-636,0,0,0,0,0,0,0,0,0,-1,1987,1660,0,0
770,-636,0,0,0,0,0,0,0,0,0,-1,1994,1660,0,0
777,-636,0,0,0,0,0,0,0,0,0,-1,2001,1660,0,0
784,-636,0,0,0,0,0,0,0,0,0,-1,2008,1660,0,0
791,-636,0,0,0,0,0,0,0,0,0,-1,2015,1660,0,0
798,-636,0,0,0,0,0,0,0,0,0,-1,2022,1660,0,0
805,-636,0,0,0,0,0,0,0,0,0,-1,2029,1660,0,0
812,-636,0,0,0,0,0,0,0,0,0,-1,2036,1660,0,0
-700,-643,0,0,0,0,0,0,0,0,0,-1,524,1667,0,0
-693,-643,0,0,0,0,0,0,0,0,0,-1,531,1667,0,0
-686,-643,0,0,0,0,0,0,0,0,0,-1,538,1667,0,0
-679,-643,0,0,0,0,0,0,0,0,0,-1,545,1667,0,0
-672,-643,0,0,0,0,0,0,0,0,0,-1,552,1667,0,0
-665,-643,0,0,0,0,0,0,0,0,0,-1,559,1667,0,0
-658,-643,0,0,0,0,0,0,0,0,0,-1,566,1667,0,0
-651,-643,0,0,0,0,0,0,0,0,0,-1,573,1667,0,0
-644,-643,0,0,0,0,0,0,0,0,0,-1,580,1667,0,0
-637,-643,0,0,0,0,0,0,0,0,0,-1,587,1667,0,0
-630,-643,0,0,0,0,0,0,0,0,0,-1,594,1667,0,0
-623,-643,0,0,0,0,0,0,0,0,0,-1,601,1667,0,0
-616,-643,0,0,0,0,0,0,0,0,0,-1,608,1667,0,0
-609,-643,0,0,0,0,0,0,0,0,0,-1,615,1667,0,0
-602,-643,0,0,0,0,0,0,0,0,0,-1,622,1667,0,0
-595,-643,0,0,0,0,0,0,0,0,0,-1,629,1667,0,0
-588,-643,0,0,0,0,0,0,0,0,0,-1,636,1667,0,0
-581,-643,0,0,0,0,0,0,0,0,0,-1,643,1667,0,0
-574,-643,0,0,0,0,0,0,0,0,0,-1,650,1667,0,0
-567,-643,0,0,0,0,0,0,0,0,0,-1,657,1667,0,0
-560,-643,0,0,0,0,0,0,0,0,0,-1,664,1667,0,0
-553,-643,0,0,0,0,0,0,0,0,0,-1,671,1667,0,0
-546,-643,0,0,0,0,0,0,0,0,0,-1,678,1667,0,0
-539,-643,0,0,0,0,0,0,0,0,0,-1,685,1667,0,0
-532,-643,0,0,0,0,0,0,0,0,0,-1,692,1667,0,0
-525,-643,0,0,0,0,0,0,0,0,0,-1,699,1667,0,0
-518,-643,0,0,0,0,0,0,0,0,0,-1,706,1667,0,0
-511,-643,0,0,0,0,0,0,0,0,0,-1,713,1667,0,0
-504,-643,0,0,0,0,0,0,0,0,0,-1,720,1667,0,0
-497,-643,0,0,0,0,0,0,0,0,0,-1,727,1667,0,0
-490,-643,0,0,0,0,0,0,0,0,0,-1,734,1667,0,0
-483,-643,0,0,0,0,0,0,0,0,0,-1,741,1667,0,0
-476,-643,0,0,0,0,0,0,0,0,0,-1,748,1667,0,0
-469,-643,0,0,0,0,0,0,0,0,0,-1,755,1667,0,0
-462,-643,0,0,0,0,0,0,0,0,0,-1,762,1667,0,0
-455,-643,0,0,0,0,0,0,0,0,0,-1,769,1667,0,0
-448,-643,0,0,0,0,0,0,0,0,0,-1,776,1667,0,0
-441,-643,0,0,0,0,0,0,0,0,0,-1,783,1667,0,0
-434,-643,0,0,0,0,0,0,0,0,0,-1,790,1667,0,0
-427,-643,0,0,0,0,0,0,0,0,0,-1,797,1667,0,0
-420,-643,0,0,0,0,0,0,0,0,0,-1,804,1667,0,0
-413,-643,0,0,0,0,0,0,0,0,0,-1,811,1667,0,0
-406,-643,0,0,0,0,0,0,0,0,0,-1,818,1667,0,0
-399,-643,0.589417,11.6465,0,0,0,0,0,0,0,-1,825,1667,0.58939,-11.6465
-392,-643,0.865295,12.6523,0,0,0,0,0,0,0,-1,832,1667,0.865315,-12.6523
-385,-643,1.72968,13.2692,0,0,0,0,0,0,0,-1,839,1667,1.72967,-13.2692
-378,-643,2.66522,13.8193,0,0,0,0,0,0,0,-1,846,1667,2.66524,-13.8193
-371,-643,0.466125,3.35095,0,0,0,0,0,0,0,-1,853,1667,0.466148,-3.351
-364,-643,1.69513,9.922,0,0,0,0,0,0,0,-1,860,1667,1.69511,-9.92205
-357,-643,1.14227,10.8429,0,0,0,0,0,0,0,-1,867,1667,1.14228,-10.8429
-350,-643,2.50061,9.96948,0,0,0,0,0,0,0,-1,874,1667,2.50059,-9.96954
-343,-643,2.61505,6.17407,0,0,0,0,0,0,0,-1,881,1667,2.61504,-6.17412
-336,-643,3.95117,17.4845,0,0,0,0,0,0,0,-1,888,1667,3.95119,-17.4845
-329,-643,4.01477,17.6637,0.00713732,0.00757285,0.00745186,0.0148101,-9.99607e-05,0.800005,0.00990691,0.0397027,895,1667,4.01477,-17.6637
-322,-643,4.04572,18.0095,0.0052993,0.00682234,0.00598753,0.0120966,2.50558e-05,0.848651,0.00805605,0.0281541,902,1667,4.04572,-18.0095
-315,-643,3.97162,18.2997,0.00366507,0.00587049,0.00470354,0.00959885,-6.32843e-05,0.90054,0.00642043,0.0178192,909,1667,3.97162,-18.2996
-308,-643,3.97003,18.6084,0.00235849,0.00479037,0.00351243,0.00729138,-0.000142513,0.952033,0.00490911,0.0132603,916,1667,3.97001,-18.6084
-301,-643,3.98132,18.9253,0.00135379,0.00359729,0.00246486,0.00518365,-0.000232569,0.998941,0.00353584,0.0146859,923,1667,3.98133,-18.9252
-294,-643,3.9765,19.2106,0.000702745,0.00261516,0.00166739,0.00358107,-0.000263165,1.04574,0.00247976,0.0127484,930,1667,3.97648,-19.2105
-287,-643,3.97473,19.4869,0.000252048,0.00173617,0.00108612,0.00230952,-0.000321305,1.08509,0.0016572,0.0106532,937,1667,3.97472,-19.487
-280,-643,3.96704,19.7773,4.15141e-05,0.000962196,0.000643429,0.001293,-0.000289293,1.09591,0.000972877,0.0143332,944,1667,3.96706,-19.7773
-273,-643,3.94556,20.0359,-3.49344e-05,0.00024669,0.000155584,0.000315722,-0.000103966,1.1532,0.000252378,0.0123428,951,1667,3.94558,-20.0358
-266,-643,3.92627,20.3182,0.000310414,-0.00017216,0.000125418,0.000341063,-0.000202808,0.239676,0.000317368,0.0119828,958,1667,3.92626,-20.3182
-259,-643,3.93555,20.6196,0.000530233,-0.000465773,6.3719e-05,0.000534293,-0.000469833,0.0636287,0.000580131,0.011521,965,1667,3.93554,-20.6196
-252,-643,3.93665,20.8849,0.000942197,-0.000515794,0.000153228,0.000958126,-0.000531723,0.103587,0.000871829,0.0121698,972,1667,3.93666,-20.8849
-245,-643,3.92291,21.1448,0.00153286,-0.000461592,0.000321375,0.00158336,-0.000512098,0.15588,0.00126141,0.0104368,979,1667,3.92292,-21.1448
-238,-643,3.9502,21.3993,0.00205727,-0.000268198,0.000467887,0.00214788,-0.000358807,0.191288,0.00156529,0.0131539,986,1667,3.95023,-21.3992
-231,-643,3.9306,21.6741,0.00259802,-0.000224958,0.000646353,0.00273898,-0.00036591,0.214711,0.00195938,0.0103865,993,1667,3.93062,-21.674
-224,-643,3.93652,21.9084,0.00313457,-0.000132263,0.000866764,0.0033503,-0.000347989,0.243931,0.0023581,0.00932218,1000,1667,3.93654,-21.9084
-217,-643,3.9411,22.127,0.0033773,-0.000150202,0.00123163,0.00376477,-0.000537669,0.304793,0.00270693,0.00918031,1007,1667,3.94111,-22.127
-210,-643,3.93872,22.3809,0.00270402,-0.000193246,0.00195816,0.00369115,-0.00118037,0.466929,0.00293445,0.0120297,1014,1667,3.93873,-22.3809
-203,-643,3.95422,22.6597,0.0013076,0.000640876,0.00263015,0.00362542,-0.00167695,0.722361,0.00312947,0.0140358,1021,1667,3.95419,-22.6596
-196,-643,3.98523,22.8999,0.00017048,0.00113028,0.00337171,0.00405607,-0.00275531,0.856089,0.00395638,0.0137756,1028,1667,3.98523,-22.8999
-189,-643,4.05798,23.11,-0.00158142,0.00180842,0.00424112,0.00468076,-0.00445376,0.975496,0.00527436,0.0143441,1035,1667,4.05793,-23.11
-182,-643,4.12024,23.3118,-0.00379641,0.00302813,0.00529117,0.00591189,-0.00668017,1.07179,0.00727454,0.0225185,1042,1667,4.1203,-23.3118
-175,-643,4.25281,23.5817,-0.00642023,0.00452607,0.00643882,0.00750359,-0.00939774,1.13765,0.00977839,0.0345445,1049,1667,4.25284,-23.5816
-168,-643,4.27148,23.8058,-0.00918414,0.00644637,0.00762494,0.00954981,-0.0122876,1.18426,0.0126408,0.038141,1056,1667,4.27149,-23.8057
-161,-643,4.22827,23.9048,-0.0119761,0.00888142,0.00869971,0.0120337,-0.0151284,1.22317,0.0157159,0.0425569,1063,1667,4.22831,-23.9048
-154,-643,4.14624,24.0383,-0.0144694,0.011264,0.00965773,0.0144853,-0.0176907,1.24885,0.0186075,0.0454994,1070,1667,4.14623,-24.0383
-147,-643,4.17358,24.3335,0,0,0,0,0,0,0,-1,1077,1667,4.17357,-24.3334
-140,-643,4.30322,22.9166,0,0,0,0,0,0,0,-1,1084,1667,4.30327,-22.9167
-133,-643,3.66748,21.6034,0,0,0,0,0,0,0,-1,1091,1667,3.66743,-21.6034
-126,-643,3.13904,17.689,0,0,0,0,0,0,0,-1,1098,1667,3.13909,-17.689
-119,-643,3.76282,14.1458,0,0,0,0,0,0,0,-1,1105,1667,3.76283,-14.1458
-112,-643,3.81458,16.2069,0,0,0,0,0,0,0,-1,1112,1667,3.81463,-16.2069
-105,-643,-2.23413,10.0996,0,0,0,0,0,0,0,-1,1119,1667,-2.23415,-10.0996
-98,-643,3.11035,4.68066,0,0,0,0,0,0,0,-1,1126,1667,3.11041,-4.68071
-91,-643,-1.74146,-2.5885,0,0,0,0,0,0,0,-1,1133,1667,-1.74146,2.58856
-84,-643,-3.07446,-0.199341,0,0,0,0,0,0,0,-1,1140,1667,-3.07449,0.199383
-77,-643,-3.63794,2.81165,0,0,0,0,0,0,0,-1,1147,1667,-3.63791,-2.8117
-70,-643,-3.36938,4.45203,0,0,0,0,0,0,0,-1,1154,1667,-3.36941,-4.452
-63,-643,-3.67822,6.26855,0,0,0,0,0,0,0,-1,1161,1667,-3.67823,-6.26856
-56,-643,-3.95142,8.1073,0,0,0,0,0,0,0,-1,1168,1667,-3.95139,-8.10732
-49,-643,-4.23535,9.90552,0,0,0,0,0,0,0,-1,1175,1667,-4.23537,-9.90557
-42,-643,-4.25195,10.7059,0,0,0,0,0,0,0,-1,1182,1667,-4.25192,-10.706
-35,-643,-4.10986,11.6588,0,0,0,0,0,0,0,-1,1189,1667,-4.10982,-11.6589
-28,-643,-1.38513,5.604,0,0,0,0,0,0,0,-1,1196,1667,-1.3851,-5.60403
-21,-643,1.61011,23.1276,0,0,0,0,0,0,0,-1,1203,1667,1.61011,-23.1275
-14,-643,1.96753,24.4852,0,0,0,0,0,0,0,-1,1210,1667,1.96749,-24.4852
-7,-643,0.691528,31.4104,0,0,0,0,0,0,0,-1,1217,1667,0.691491,-31.4105
0,-643,0.826294,30.5825,0,0,0,0,0,0,0,-1,1224,1667,0.826295,-30.5825
7,-643,1.45764,30.0422,0.144954,0.300593,0.0656795,0.324605,0.120941,1.2203,0.189428,0.0448339,1231,1667,1.45761,-30.0423
14,-643,2.32629,29.7518,0.148675,0.287906,0.0589638,0.309521,0.12706,1.21942,0.179654,0.0456525,1238,1667,2.32635,-29.7519
21,-643,3.28931,29.692,0.149611,0.274224,0.0532844,0.293901,0.129933,1.21704,0.170063,0.0444651,1245,1667,3.28931,-29.692
28,-643,4.21582,29.9937,0.1477,0.259208,0.0487308,0.277502,0.129405,1.21166,0.160337,0.0423233,1252,1667,4.21576,-29.9937
35,-643,5.2522,29.9012,0.142471,0.243,0.0463315,0.261096,0.124375,1.19845,0.1508,0.0429553,1259,1667,5.25219,-29.9012
42,-643,5.98059,29.8544,0,0,0,0,0,0,0,-1,1266,1667,5.9806,-29.8543
49,-643,6.48596,30.3788,0.123508,0.206418,0.0418682,0.223882,0.106044,1.17562,0.129318,0.0466861,1273,1667,6.48592,-30.3787
56,-643,7.93286,29.4037,0.111044,0.187874,0.0407396,0.205454,0.0934638,1.16342,0.11878,0.0460973,1280,1667,7.93281,-29.4037
63,-643,8.91907,29.5807,0.0992363,0.168901,0.0402087,0.187267,0.0808707,1.14234,0.108453,0.0455128,1287,1667,8.91906,-29.5806
70,-643,9.83459,29.4482,0.0866286,0.149178,0.0396641,0.168415,0.0673926,1.11924,0.0978782,0.0462206,1294,1667,9.83458,-29.4482
77,-643,10.6007,28.9827,0.0757273,0.129094,0.0392962,0.14991,0.0549112,1.08365,0.0875759,0.0466381,1301,1667,10.6008,-28.9827
84,-643,10.5674,28.9186,0.0628559,0.109136,0.0388148,0.131185,0.0408069,1.0542,0.0775212,0.0478666,1308,1667,10.5674,-28.9186
91,-643,11.0936,28.8881,0.0551578,0.0885081,0.0392854,0.114511,0.029155,0.986105,0.0687158,0.0442989,1315,1667,11.0936,-28.8881
98,-643,4.10461,23.2676,0,0,0,0,0,0,0,-1,1322,1667,4.10459,-23.2675
105,-643,4.37671,24.3645,0,0,0,0,0,0,0,-1,1329,1667,4.37668,-24.3645
112,-643,4.59314,25.4347,0.0581764,0.0355907,0.0415946,0.0899839,0.00378327,0.652844,0.0587688,0.048119,1336,1667,4.59308,-25.4347
119,-643,4.84167,26.5262,0.0683045,0.0217809,0.0444293,0.0951932,-0.00510781,0.544236,0.0652314,0.0485789,1343,1667,4.84166,-26.5263
126,-643,5.08801,27.6317,0,0,0,0,0,0,0,-1,1350,1667,5.08805,-27.6318
133,-643,13.6917,24.6147,0,0,0,0,0,0,0,-1,1357,1667,13.6916,-24.6147
140,-643,14.9586,23.5438,0,0,0,0,0,0,0,-1,1364,1667,14.9586,-23.5438
147,-643,16.2256,22.4729,0,0,0,0,0,0,0,-1,1371,1667,16.2255,-22.4729
154,-643,6.14673,27.1798,0,0,0,0,0,0,0,-1,1378,1667,6.14669,-27.1798
161,-643,5.57935,26.2754,0,0,0,0,0,0,0,-1,1385,1667,5.57931,-26.2754
168,-643,10.5563,10.9818,0,0,0,0,0,0,0,-1,1392,1667,10.5562,-10.9819
175,-643,5.88525,-1.1698,0,0,0,0,0,0,0,-1,1399,1667,5.88526,1.16977
182,-643,5.80945,-0.418701,0,0,0,0,0,0,0,-1,1406,1667,5.80949,0.418712
189,-643,5.42297,12.9208,0,0,0,0,0,0,0,-1,1413,1667,5.42298,-12.9208
196,-643,5.51953,11.2415,0,0,0,0,0,0,0,-1,1420,1667,5.51948,-11.2414
203,-643,5.60828,9.82153,0,0,0,0,0,0,0,-1,1427,1667,5.60833,-9.82148
210,-643,4.73218,7.58728,0,0,0,0,0,0,0,-1,1434,1667,4.73222,-7.58728
217,-643,3.8031,5.28955,0,0,0,0,0,0,0,-1,1441,1667,3.80305,-5.28955
224,-643,2.96436,2.97095,0,0,0,0,0,0,0,-1,1448,1667,2.96432,-2.97095
231,-643,2.13403,1.08472,0,0,0,0,0,0,0,-1,1455,1667,2.13403,-1.08467
238,-643,1.18152,-0.261963,0,0,0,0,0,0,0,-1,1462,1667,1.18152,0.26192
245,-643,-0.157471,-1.79016,0,0,0,0,0,0,0,-1,1469,1667,-0.157517,1.7901
252,-643,8.08789,0.0202637,0,0,0,0,0,0,0,-1,1476,1667,8.08791,-0.0203056
259,-643,9.02979,-0.46936,0,0,0,0,0,0,0,-1,1483,1667,9.02974,0.46933
266,-643,4.55066,5.17554,0,0,0,0,0,0,0,-1,1490,1667,4.55063,-5.17556
273,-643,4.34363,6.56836,0,0,0,0,0,0,0,-1,1497,1667,4.34363,-6.5684
280,-643,5.75854,14.5217,0,0,0,0,0,0,0,-1,1504,1667,5.75854,-14.5218
287,-643,6.81299,21.0212,0,0,0,0,0,0,0,-1,1511,1667,6.81297,-21.0212
294,-643,8.42712,24.7515,0,0,0,0,0,0,0,-1,1518,1667,8.42712,-24.7515
301,-643,8.19287,24.2787,0,0,0,0,0,0,0,-1,1525,1667,8.19291,-24.2787
308,-643,8.18481,24.0481,0,0,0,0,0,0,0,-1,1532,1667,8.18479,-24.048
315,-643,8.16089,23.8652,0.00050981,0.0045351,0.000942136,0.00474469,0.000300212,1.35189,0.00306796,0.0427039,1539,1667,8.16094,-23.8652
322,-643,8.23218,23.5803,0.000584556,0.00543742,0.000272153,0.00545264,0.000569341,1.51495,0.00346096,0.022755,1546,1667,8.23218,-23.5803
329,-643,8.28052,23.3855,0.000738344,0.00575253,-8.75434e-05,0.00575405,0.000736817,-1.55334,0.00361554,0.0129232,1553,1667,8.28054,-23.3855
336,-643,8.25366,23.2355,0.000742487,0.00595091,-0.000317372,0.00597018,0.000723219,-1.51016,0.00376229,0.0109918,1560,1667,8.25366,-23.2355
343,-643,8.27844,23.0377,0.000788971,0.00591546,-0.000623009,0.00599009,0.000714344,-1.45158,0.00377786,0.0129153,1567,1667,8.2785,-23.0377
350,-643,8.31909,22.7882,0.00101729,0.0056018,-0.000885042,0.00576673,0.000852366,-1.38656,0.00359421,0.0126838,1574,1667,8.31905,-22.7882
357,-643,8.31982,22.5616,0.00116349,0.0051926,-0.00100184,0.00542796,0.000928133,-1.34005,0.00335237,0.0109497,1581,1667,8.31988,-22.5616
364,-643,8.33105,22.3376,0.00115655,0.00451438,-0.000993785,0.00478645,0.00088447,-1.30357,0.00294082,0.00925741,1588,1667,8.33107,-22.3376
371,-643,8.33008,22.1188,0.00105711,0.00368841,-0.000858664,0.00394382,0.000801694,-1.28168,0.00240691,0.00761578,1595,1667,8.33012,-22.1188
378,-643,8.33423,21.8923,0.000955417,0.00281069,-0.000685105,0.00303626,0.00072985,-1.25273,0.00183006,0.0101958,1602,1667,8.33426,-21.8924
385,-643,8.33289,21.6381,0.00103229,0.00194721,-0.000376589,0.00208228,0.000897221,-1.22643,0.00120603,0.0163859,1609,1667,8.33284,-21.6381
392,-643,8.33557,21.368,0.00104211,0.000679541,0.000254566,0.00117335,0.000548308,0.475985,0.000677915,0.0167614,1616,1667,8.33562,-21.368
399,-643,8.33057,21.13,0.000891021,-0.000337661,0.00090939,0.00137413,-0.000820774,0.488333,0.00128058,0.0140686,1623,1667,8.33052,-21.13
406,-643,8.32874,20.88,0.000864577,-0.00128126,0.00166631,0.00177351,-0.0021902,0.499364,0.00229266,0.0133417,1630,1667,8.32873,-20.88
413,-643,8.31165,20.6385,0.000808697,-0.00230344,0.00255714,0.00224601,-0.00374075,0.512068,0.00349218,0.0196367,1637,1667,8.31161,-20.6386
420,-643,8.29041,20.3973,0.000562348,-0.00340767,0.0036703,0.00275003,-0.00559535,0.53751,0.00491067,0.0179498,1644,1667,8.29042,-20.3974
427,-643,8.30457,20.1228,0.000322272,-0.00454044,0.00487384,0.00333755,-0.00755572,0.554031,0.00644449,0.0141782,1651,1667,8.30454,-20.1228
434,-643,8.30835,19.8462,9.06852e-05,-0.00564387,0.00606074,0.00392817,-0.00948136,0.564454,0.00796021,0.0148605,1658,1667,8.30832,-19.8462
441,-643,8.30664,19.5698,-0.000149546,-0.00678797,0.00717885,0.00444029,-0.0113778,0.568856,0.00942081,0.0145749,1665,1667,8.30669,-19.5698
448,-643,8.24072,19.2792,-0.000463411,-0.00799906,0.00826163,0.00484902,-0.0133115,0.571456,0.0108578,0.0202663,1672,1667,8.24069,-19.2792
455,-643,8.22754,18.9735,-0.000957898,-0.00924379,0.00938022,0.00515355,-0.0153552,0.577446,0.0123194,0.0302603,1679,1667,8.22754,-18.9735
462,-643,8.21814,18.8348,-0.00154803,-0.0107937,0.0102174,0.00504367,-0.0173854,0.572955,0.0135872,0.0427587,1686,1667,8.21814,-18.8348
469,-643,7.92505,18.7515,-0.00205134,-0.0118802,0.01077,0.00487244,-0.018804,0.571353,0.0144369,0.0473086,1693,1667,7.92503,-18.7515
476,-643,7.90637,18.4795,0,0,0,0,0,0,0,-1,1700,1667,7.90639,-18.4794
483,-643,8.23657,17.451,0,0,0,0,0,0,0,-1,1707,1667,8.23658,-17.451
490,-643,7.37793,16.0599,0,0,0,0,0,0,0,-1,1714,1667,7.37788,-16.0599
497,-643,7.80237,15.9058,0,0,0,0,0,0,0,-1,1721,1667,7.80238,-15.9057
504,-643,7.45313,15.6337,0,0,0,0,0,0,0,-1,1728,1667,7.45312,-15.6336
511,-643,7.15686,15.3853,0,0,0,0,0,0,0,-1,1735,1667,7.15681,-15.3853
518,-643,7.40564,0.922607,0,0,0,0,0,0,0,-1,1742,1667,7.4057,-0.922598
525,-643,0,0,0,0,0,0,0,0,0,-1,1749,1667,0,0
532,-643,0,0,0,0,0,0,0,0,0,-1,1756,1667,0,0
539,-643,0,0,0,0,0,0,0,0,0,-1,1763,1667,0,0
546,-643,0,0,0,0,0,0,0,0,0,-1,1770,1667,0,0
553,-643,0,0,0,0,0,0,0,0,0,-1,1777,1667,0,0
560,-643,0,0,0,0,0,0,0,0,0,-1,1784,1667,0,0
567,-643,0,0,0,0,0,0,0,0,0,-1,1791,1667,0,0
574,-643,0,0,0,0,0,0,0,0,0,-1,1798,1667,0,0
581,-643,0,0,0,0,0,0,0,0,0,-1,1805,1667,0,0
588,-643,0,0,0,0,0,0,0,0,0,-1,1812,1667,0,0
595,-643,0,0,0,0,0,0,0,0,0,-1,1819,1667,0,0
602,-643,0,0,0,0,0,0,0,0,0,-1,1826,1667,0,0
609,-643,0,0,0,0,0,0,0,0,0,-1,1833,1667,0,0
616,-643,0,0,0,0,0,0,0,0,0,-1,1840,1667,0,0
623,-643,0,0,0,0,0,0,0,0,0,-1,1847,1667,0,0
630,-643,0,0,0,0,0,0,0,0,0,-1,1854,1667,0,0
637,-643,0,0,0,0,0,0,0,0,0,-1,1861,1667,0,0
644,-643,0,0,0,0,0,0,0,0,0,-1,1868,1667,0,0
651,-643,0,0,0,0,0,0,0,0,0,-1,1875,1667,0,0
658,-643,0,0,0,0,0,0,0,0,0,-1,1882,1667,0,0
665,-643,0,0,0,0,0,0,0,0,0,-1,1889,1667,0,0
672,-643,0,0,0,0,0,0,0,0,0,-1,1896,1667,0,0
679,-643,0,0,0,0,0,0,0,0,0,-1,1903,1667,0,0
686,-643,0,0,0,0,0,0,0,0,0,-1,1910,1667,0,0
693,-643,0,0,0,0,0,0,0,0,0,-1,1917,1667,0,0
700,-643,0,0,0,0,0,0,0,0,0,-1,1924,1667,0,0
707,-643,0,0,0,0,0,0,0,0,0,-1,1931,1667,0,0
714,-643,0,0,0,0,0,0,0,0,0,-1,1938,1667,0,0
721,-643,0,0,0,0,0,0,0,0,0,-1,1945,1667,0,0
728,-643,0,0,0,0,0,0,0,0,0,-1,1952,1667,0,0
735,-643,0,0,0,0,0,0,0,0,0,-1,1959,1667,0,0
742,-643,0,0,0,0,0,0,0,0,0,-1,1966,1667,0,0
749,-643,0,0,0,0,0,0,0,0,0,-1,1973,1667,0,0
756,-643,0,0,0,0,0,0,0,0,0,-1,1980,1667,0,0
763,-643,0,0,0,0,0,0,0,0,0,-1,1987,1667,0,0
770,-643,0,0,0,0,0,0,0,0,0,-1,1994,1667,0,0
777,-643,0,0,0,0,0,0,0,0,0,-1,2001,1667,0,0
784,-643,0,0,0,0,0,0,0,0,0,-1,2008,1667,0,0
791,-643,0,0,0,0,0,0,0,0,0,-1,2015,1667,0,0
798,-643,0,0,0,0,0,0,0,0,0,-1,2022,1667,0,0
805,-643,0,0,0,0,0,0,0,0,0,-1,2029,1667,0,0
812,-643,0,0,0,0,0,0,0,0,0,-1,2036,1667,0,0
-700,-650,0,0,0,0,0,0,0,0,0,-1,524,1674,0,0
-693,-650,0,0,0,0,0,0,0,0,0,-1,531,1674,0,0
-686,-650,0,0,0,0,0,0,0,0,0,-1,538,1674,0,0
-679,-650,0,0,0,0,0,0,0,0,0,-1,545,1674,0,0
-672,-650,0,0,0,0,0,0,0,0,0,-1,552,1674,0,0
-665,-650,0,0,0,0,0,0,0,0,0,-1,559,1674,0,0
-658,-650,0,0,0,0,0,0,0,0,0,-1,566,1674,0,0
-651,-650,0,0,0,0,0,0,0,0,0,-1,573,1674,0,0
-644,-650,0,0,0,0,0,0,0,0,0,-1,580,1674,0,0
-637,-650,0,0,0,0,0,0,0,0,0,-1,587,1674,0,0
-630,-650,0,0,0,0,0,0,0,0,0,-1,594,1674,0,0
-623,-650,0,0,0,0,0,0,0,0,0,-1,601,1674,0,0
-616,-650,0,0,0,0,0,0,0,0,0,-1,608,1674,0,0
-609,-650,0,0,0,0,0,0,0,0,0,-1,615,1674,0,0
-602,-650,0,0,0,0,0,0,0,0,0,-1,622,1674,0,0
-595,-650,0,0,0,0,0,0,0,0,0,-1,629,1674,0,0
-588,-650,0,0,0,0,0,0,0,0,0,-1,636,1674,0,0
-581,-650,0,0,0,0,0,0,0,0,0,-1,643,1674,0,0
-574,-650,0,0,0,0,0,0,0,0,0,-1,650,1674,0,0
-567,-650,0,0,0,0,0,0,0,0,0,-1,657,1674,0,0
-560,-650,0,0,0,0,0,0,0,0,0,-1,664,1674,0,0
-553,-650,0,0,0,0,0,0,0,0,0,-1,671,1674,0,0
-546,-650,0,0,0,0,0,0,0,0,0,-1,678,1674,0,0
-539,-650,0,0,0,0,0,0,0,0,0,-1,685,1674,0,0
-532,-650,0,0,0,0,0,0,0,0,0,-1,692,1674,0,0
-525,-650,0,0,0,0,0,0,0,0,0,-1,699,1674,0,0
-518,-650,0,0,0,0,0,0,0,0,0,-1,706,1674,0,0
-511,-650,0,0,0,0,0,0,0,0,0,-1,713,1674,0,0
-504,-650,0,0,0,0,0,0,0,0,0,-1,720,1674,0,0
-497,-650,0,0,0,0,0,0,0,0,0,-1,727,1674,0,0
-490,-650,0,0,0,0,0,0,0,0,0,-1,734,1674,0,0
-483,-650,0,0,0,0,0,0,0,0,0,-1,741,1674,0,0
-476,-650,0,0,0,0,0,0,0,0,0,-1,748,1674,0,0
-469,-650,0,0,0,0,0,0,0,0,0,-1,755,1674,0,0
-462,-650,0,0,0,0,0,0,0,0,0,-1,762,1674,0,0
-455,-650,0,0,0,0,0,0,0,0,0,-1,769,1674,0,0
-448,-650,0,0,0,0,0,0,0,0,0,-1,776,1674,0,0
-441,-650,0,0,0,0,0,0,0,0,0,-1,783,1674,0,0
-434,-650,0,0,0,0,0,0,0,0,0,-1,790,1674,0,0
-427,-650,0,0,0,0,0,0,0,0,0,-1,797,1674,0,0
-420,-650,0,0,0,0,0,0,0,0,0,-1,804,1674,0,0
-413,-650,0,0,0,0,0,0,0,0,0,-1,811,1674,0,0
-406,-650,0,0,0,0,0,0,0,0,0,-1,818,1674,0,0
-399,-650,0,0,0,0,0,0,0,0,0,-1,825,1674,0,0
-392,-650,5.44415,6.85669,0,0,0,0,0,0,0,-1,832,1674,5.44414,-6.85674
-385,-650,1.74451,14.0183,0,0,0,0,0,0,0,-1,839,1674,1.74453,-14.0183
-378,-650,0.997986,4.11108,0,0,0,0,0,0,0,-1,846,1674,0.998006,-4.11113
-371,-650,-1.80096,3.78625,0,0,0,0,0,0,0,-1,853,1674,-1.80094,-3.78625
-364,-650,-2.95679,2.57507,0,0,0,0,0,0,0,-1,860,1674,-2.95681,-2.57506
-357,-650,1.97833,10.8362,0,0,0,0,0,0,0,-1,867,1674,1.97835,-10.8362
-350,-650,-5.30243,0.159912,0,0,0,0,0,0,0,-1,874,1674,-5.30244,-0.159866
-343,-650,-6.21338,-1.4425,0,0,0,0,0,0,0,-1,881,1674,-6.21341,1.44248
-336,-650,4.12695,15.7001,0,0,0,0,0,0,0,-1,888,1674,4.12697,-15.7
-329,-650,4.28271,17.6575,0,0,0,0,0,0,0,-1,895,1674,4.28272,-17.6575
-322,-650,4.14587,17.9629,0,0,0,0,0,0,0,-1,902,1674,4.1459,-17.9629
-315,-650,4.18408,18.2286,0.00483303,0.00830584,0.00653586,0.013332,-0.000193149,0.915235,0.00895309,0.0408167,909,1674,4.18411,-18.2287
-308,-650,4.25836,18.5479,0.0028583,0.00644019,0.00469389,0.0096732,-0.000374699,0.967648,0.00657726,0.0239396,916,1674,4.25838,-18.5478
-301,-650,4.26849,18.9103,0.00139541,0.00455508,0.00314739,0.00649689,-0.000546395,1.018,0.0045244,0.0134136,923,1674,4.26849,-18.9103
-294,-650,4.25177,19.1986,0.000422529,0.00301088,0.00196959,0.00407344,-0.000640029,1.07607,0.00295219,0.0106553,930,1674,4.25174,-19.1986
-287,-650,4.2616,19.4879,-0.000223382,0.00171997,0.00113756,0.00224435,-0.000747764,1.13886,0.00179809,0.0132968,937,1674,4.26157,-19.4879
-280,-650,4.23328,19.7637,-0.000593929,0.000650771,0.000530376,0.000846112,-0.00078927,1.21791,0.000944378,0.0139639,944,1674,4.2333,-19.7637
-273,-650,4.2052,20.0374,-0.000806705,-0.000257086,-9.97559e-05,-0.00023954,-0.00082425,-1.39669,0.000489593,0.0127335,951,1674,4.20522,-20.0373
-266,-650,4.16895,20.3282,-0.000476669,-0.000726341,-0.00015199,-0.00040482,-0.00079819,-0.441588,0.000460851,0.0110408,958,1674,4.16892,-20.3283
-259,-650,4.19568,20.588,-0.000323916,-0.00107574,-0.000237422,-0.000255218,-0.00114444,-0.28166,0.000693719,0.0141296,965,1674,4.19566,-20.588
-252,-650,4.19379,20.864,3.48889e-05,-0.00112214,-0.000138908,5.1332e-05,-0.00113858,-0.117826,0.00077673,0.0127327,972,1674,4.19378,-20.864
-245,-650,4.19092,21.1382,0.000635406,-0.001047,3.263e-05,0.000636038,-0.00104763,0.0193852,0.000981701,0.0106549,979,1674,4.19091,-21.1382
-238,-650,4.18372,21.4063,0.00113587,-0.000738063,0.000186757,0.0011543,-0.000756494,0.0983709,0.00111114,0.0114009,986,1674,4.18369,-21.4062
-231,-650,4.17261,21.6851,0.00161537,-0.000534226,0.000383658,0.00168179,-0.000600648,0.17143,0.00136616,0.0159427,993,1674,4.17258,-21.6851
-224,-650,4.18188,21.9315,0.00212083,-0.00029979,0.00062338,0.00227193,-0.000450895,0.237811,0.00168515,0.0144942,1000,1674,4.18188,-21.9315
-217,-650,4.20026,22.1448,0.00236632,-0.000129782,0.000915667,0.0026662,-0.000429658,0.316486,0.00193664,0.0109322,1007,1674,4.20027,-22.1448
-210,-650,4.20825,22.371,0.00197183,-5.19159e-05,0.00141975,0.00270339,-0.000783483,0.475795,0.00211242,0.0104105,1014,1674,4.20827,-22.3709
-203,-650,4.22778,22.6019,0.00109494,0.000596225,0.00189921,0.00276109,-0.00106992,0.720124,0.00228254,0.0145368,1021,1674,4.2278,-22.6019
-196,-650,4.24109,22.8313,0.000416008,0.0010009,0.00242839,0.00315439,-0.00173748,0.845324,0.00286354,0.0135673,1028,1674,4.24107,-22.8313
-189,-650,4.23132,23.0573,-0.000653366,0.00154491,0.00303051,0.00366944,-0.0027779,0.959366,0.00373422,0.0110694,1035,1674,4.23138,-23.0573
-182,-650,4.27197,23.3143,-0.0020146,0.00247824,0.00371803,0.0045758,-0.00411216,1.05715,0.00501837,0.0102238,1042,1674,4.27198,-23.3143
-175,-650,4.31726,23.5283,-0.00362822,0.00360124,0.00449619,0.00575557,-0.00578255,1.12397,0.00666154,0.0146538,1049,1674,4.31731,-23.5283
-168,-650,4.32776,23.7333,-0.00532029,0.00500761,0.00528414,0.00723206,-0.00754474,1.17235,0.00853203,0.0189233,1056,1674,4.3278,-23.7333
-161,-650,4.31873,23.9417,-0.00699169,0.00677318,0.00599393,0.00901737,-0.00923587,1.21254,0.0105388,0.0278721,1063,1674,4.3187,-23.9417
-154,-650,4.35278,24.1582,-0.00845863,0.00858556,0.00662224,0.0108561,-0.0107291,1.2405,0.0124623,0.031309,1070,1674,4.35283,-24.1582
-147,-650,4.38855,24.3451,-0.00972358,0.0105872,0.00698712,0.0127587,-0.0118951,1.26948,0.0142368,0.0422958,1077,1674,4.38853,-24.345
-140,-650,4.48755,24.5743,0,0,0,0,0,0,0,-1,1084,1674,4.48758,-24.5743
-133,-650,4.1842,25.1259,0,0,0,0,0,0,0,-1,1091,1674,4.18415,-25.1258
-126,-650,4.65466,22.729,0,0,0,0,0,0,0,-1,1098,1674,4.65463,-22.729
-119,-650,5.16663,20.6232,0,0,0,0,0,0,0,-1,1105,1674,5.16665,-20.6232
-112,-650,3.86292,14.4513,0,0,0,0,0,0,0,-1,1112,1674,3.8629,-14.4513
-105,-650,4.9259,12.0626,0,0,0,0,0,0,0,-1,1119,1674,4.92591,-12.0626
-98,-650,3.3761,6.78003,0,0,0,0,0,0,0,-1,1126,1674,3.37611,-6.78009
-91,-650,3.66809,7.04443,0,0,0,0,0,0,0,-1,1133,1674,3.66806,-7.04439
-84,-650,-3.82666,-1.59521,0,0,0,0,0,0,0,-1,1140,1674,-3.82661,1.59517
-77,-650,-4.70557,1.90198,0,0,0,0,0,0,0,-1,1147,1674,-4.7056,-1.90194
-70,-650,-4.88171,3.81653,0,0,0,0,0,0,0,-1,1154,1674,-4.88176,-3.81651
-63,-650,-5.14612,5.56543,0,0,0,0,0,0,0,-1,1161,1674,-5.14612,-5.56547
-56,-650,-5.38367,7.41101,0,0,0,0,0,0,0,-1,1168,1674,-5.38361,-7.41102
-49,-650,-5.11316,8.23706,0,0,0,0,0,0,0,-1,1175,1674,-5.11317,-8.23708
-42,-650,-4.99487,9.6792,0,0,0,0,0,0,0,-1,1182,1674,-4.99484,-9.67921
-35,-650,-4.77771,11.3369,0,0,0,0,0,0,0,-1,1189,1674,-4.77769,-11.3369
-28,-650,-4.1936,13.1501,0,0,0,0,0,0,0,-1,1196,1674,-4.19358,-13.1501
-21,-650,2.76013,22.0143,0,0,0,0,0,0,0,-1,1203,1674,2.76016,-22.0143
-14,-650,-1.34912,28.3816,0,0,0,0,0,0,0,-1,1210,1674,-1.34908,-28.3816
-7,-650,-0.598145,28.4268,0.11656,0.276758,0.0663337,0.300659,0.0926594,1.22496,0.177792,0.0485136,1217,1674,-0.598189,-28.4267
0,-650,0.252686,28.2484,0.121938,0.265588,0.0605826,0.287727,0.0998002,1.22045,0.168696,0.0438174,1224,1674,0.25269,-28.2484
7,-650,0.878418,27.8427,0.127447,0.25486,0.0551475,0.275414,0.106893,1.21404,0.160332,0.0444637,1231,1674,0.878396,-27.8426
14,-650,1.58545,27.7047,0.13042,0.243736,0.0501548,0.262746,0.11141,1.2085,0.152279,0.0441215,1238,1674,1.58539,-27.7047
21,-650,2.42529,27.8435,0.131436,0.231747,0.0458516,0.249547,0.113636,1.2005,0.144267,0.044927,1245,1674,2.42531,-27.8435
28,-650,3.4071,28.3243,0.129653,0.218538,0.0426175,0.23567,0.112521,1.18858,0.13611,0.0426718,1252,1674,3.40715,-28.3243
35,-650,9.19995,27.4259,0.124763,0.204439,0.0410548,0.221807,0.107394,1.17058,0.128082,0.0462129,1259,1674,9.20001,-27.4259
42,-650,9.69604,27.6371,0.117213,0.190147,0.0401599,0.207927,0.0994337,1.15402,0.120084,0.0441175,1266,1674,9.69599,-27.6371
49,-650,10.2491,27.6698,0.106592,0.172937,0.0370236,0.189476,0.0900541,1.15069,0.109438,0.0422114,1273,1674,10.2491,-27.6698
56,-650,10.5184,27.9347,0.0946791,0.157019,0.0356386,0.173196,0.0785027,1.1447,0.10014,0.0423543,1280,1674,10.5184,-27.9347
63,-650,9.51526,28.1475,0,0,0,0,0,0,0,-1,1287,1674,9.51528,-28.1474
70,-650,9.65991,28.4128,0,0,0,0,0,0,0,-1,1294,1674,9.65992,-28.4128
77,-650,9.76855,28.2153,0.0606628,0.106668,0.0328843,0.123796,0.0435343,1.09059,0.0725147,0.0460096,1301,1674,9.76859,-28.2153
84,-650,9.92285,28.0881,0.048107,0.0899002,0.0317687,0.107029,0.0309784,1.07631,0.0635933,0.0466718,1308,1674,9.92282,-28.0881
91,-650,9.86865,27.8489,0.0401418,0.0724748,0.031785,0.0919684,0.0206481,1.02066,0.0557198,0.0479259,1315,1674,9.86871,-27.8489
98,-650,5.70813,23.7419,0.0365068,0.0571657,0.0302019,0.0787558,0.0149168,0.950169,0.0483055,0.0472354,1322,1674,5.70812,-23.7419
105,-650,4.86633,24.7158,0,0,0,0,0,0,0,-1,1329,1674,4.8663,-24.7159
112,-650,5.00818,25.6421,0.0407265,0.0282736,0.0315568,0.0666653,0.00233481,0.687995,0.0436861,0.0404613,1336,1674,5.00817,-25.6421
119,-650,5.24451,26.6976,0.04912,0.0167501,0.0335673,0.0702005,-0.00433046,0.560759,0.0483086,0.0412976,1343,1674,5.24452,-26.6976
126,-650,5.46802,27.8525,0.0641211,0.00698378,0.0373226,0.082554,-0.0114491,0.45874,0.0592224,0.0498531,1350,1674,5.46806,-27.8525
133,-650,5.68994,29.0057,0,0,0,0,0,0,0,-1,1357,1674,5.68999,-29.0058
140,-650,12.2118,22.5856,0,0,0,0,0,0,0,-1,1364,1674,12.2119,-22.5855
147,-650,6.62598,26.9521,0,0,0,0,0,0,0,-1,1371,1674,6.62596,-26.9522
154,-650,5.61963,25.6437,0,0,0,0,0,0,0,-1,1378,1674,5.61963,-25.6437
161,-650,1.92163,18.5155,0,0,0,0,0,0,0,-1,1385,1674,1.92164,-18.5155
168,-650,11.2113,7.87231,0,0,0,0,0,0,0,-1,1392,1674,11.2113,-7.87236
175,-650,5.62537,-0.230713,0,0,0,0,0,0,0,-1,1399,1674,5.62538,0.230745
182,-650,5.56006,0.421631,0,0,0,0,0,0,0,-1,1406,1674,5.56,-0.421652
189,-650,4.81543,11.0654,0,0,0,0,0,0,0,-1,1413,1674,4.81542,-11.0654
196,-650,5.39575,11.9077,0,0,0,0,0,0,0,-1,1420,1674,5.39575,-11.9078
203,-650,3.93628,11.8215,0,0,0,0,0,0,0,-1,1427,1674,3.93624,-11.8216
210,-650,5.40955,8.08594,0,0,0,0,0,0,0,-1,1434,1674,5.40958,-8.086
217,-650,5.12451,4.69739,0,0,0,0,0,0,0,-1,1441,1674,5.12451,-4.69738
224,-650,4.79041,1.45813,0,0,0,0,0,0,0,-1,1448,1674,4.79046,-1.45816
231,-650,4.04102,-0.642212,0,0,0,0,0,0,0,-1,1455,1674,4.04101,0.642209
238,-650,3.23022,-1.43396,0,0,0,0,0,0,0,-1,1462,1674,3.23023,1.43394
245,-650,1.65894,-2.55042,0,0,0,0,0,0,0,-1,1469,1674,1.65889,2.55036
252,-650,8.75342,0.355103,0,0,0,0,0,0,0,-1,1476,1674,8.75337,-0.355147
259,-650,5.61255,3.17566,0,0,0,0,0,0,0,-1,1483,1674,5.61257,-3.17572
266,-650,4.00403,6.10229,0,0,0,0,0,0,0,-1,1490,1674,4.00401,-6.10225
273,-650,5.4093,14.3718,0,0,0,0,0,0,0,-1,1497,1674,5.40929,-14.3718
280,-650,7.57703,24.5563,0,0,0,0,0,0,0,-1,1504,1674,7.57699,-24.5563
287,-650,7.91589,24.5345,0,0,0,0,0,0,0,-1,1511,1674,7.91593,-24.5345
294,-650,8.12915,24.495,0.00265644,0.00177044,0.00118518,0.00347871,0.000948167,0.606548,0.00207654,0.040875,1518,1674,8.12917,-24.495
301,-650,8.03235,24.1465,0.00209736,0.00170822,0.00128803,0.00320544,0.000600144,0.710435,0.00196766,0.0342849,1525,1674,8.03234,-24.1465
308,-650,8.02197,24.0039,0.0015626,0.00240265,0.00104916,0.00311275,0.00085251,0.975798,0.00185739,0.0242686,1532,1674,8.02193,-24.004
315,-650,8.01733,23.8544,0.00112389,0.0028373,0.000829682,0.0031732,0.000787987,1.18611,0.00190784,0.0162172,1539,1674,8.01729,-23.8543
322,-650,8.02478,23.6382,0.000984401,0.0034777,0.000401209,0.00354067,0.000921431,1.41512,0.0021211,0.0124416,1546,1674,8.02482,-23.6381
329,-650,8.05786,23.373,0.000929682,0.00372806,0.000132651,0.00373434,0.000923407,1.52353,0.00224595,0.0165468,1553,1674,8.05786,-23.3731
336,-650,8.07263,23.1946,0.000805064,0.00390107,-2.93511e-05,0.00390134,0.000804786,-1.56132,0.00237846,0.0143637,1560,1674,8.07263,-23.1945
343,-650,8.09338,23.0125,0.00074051,0.00386508,-0.000263149,0.00388709,0.000718503,-1.48736,0.00238819,0.0137703,1567,1674,8.09343,-23.0125
350,-650,8.10645,22.78,0.000827059,0.00356932,-0.000478679,0.00365047,0.000745905,-1.40285,0.00222705,0.0165913,1574,1674,8.1065,-22.7801
357,-650,8.09119,22.5548,0.000879363,0.00326697,-0.000590363,0.00340496,0.000741364,-1.34117,0.00206764,0.013597,1581,1674,8.09114,-22.5548
364,-650,8.08191,22.3424,0.000813815,0.00267597,-0.000595336,0.00285003,0.000639754,-1.28635,0.00172674,0.00876146,1588,1674,8.08191,-22.3424
371,-650,8.09106,22.1227,0.000688107,0.00196278,-0.000512646,0.00214337,0.000507518,-1.2321,0.00129337,0.0104319,1595,1674,8.09111,-22.1227
378,-650,8.08105,21.8888,0.000588248,0.0012044,-0.000384797,0.00138926,0.000403396,-1.12296,0.000825252,0.0122622,1602,1674,8.08102,-21.8888
385,-650,8.08105,21.6431,0.000688582,0.000531619,2.59645e-05,0.000692766,0.000527436,0.159751,0.000417784,0.0138549,1609,1674,8.08106,-21.6431
392,-650,8.08374,21.3934,0.000775684,-0.000784769,0.000806254,0.00111742,-0.0011265,0.400901,0.00129553,0.0172246,1616,1674,8.08376,-21.3934
399,-650,8.07361,21.1531,0.000699165,-0.00179574,0.00159215,0.00147435,-0.00257093,0.453098,0.00236398,0.0160271,1623,1674,8.07361,-21.1531
406,-650,8.07092,20.9005,0.000794609,-0.00273876,0.00255659,0.00213555,-0.0040797,0.483058,0.00364642,0.0150905,1630,1674,8.0709,-20.9005
413,-650,8.07068,20.6477,0.000851382,-0.00376166,0.00371912,0.00292115,-0.00583142,0.507835,0.00514557,0.0151413,1637,1674,8.07065,-20.6477
420,-650,8.05188,20.3873,0.00068195,-0.00499231,0.00524068,0.00380418,-0.00811454,0.537303,0.00702968,0.0153941,1644,1674,8.05184,-20.3873
427,-650,8.04065,20.1384,0.000571112,-0.00629902,0.00693334,0.00487367,-0.0106016,0.555401,0.00913637,0.0143894,1651,1674,8.04061,-20.1385
434,-650,8.03943,19.9031,0.000448762,-0.00774044,0.00878983,0.00605091,-0.0133426,0.567427,0.0114576,0.0166126,1658,1674,8.0394,-19.9031
441,-650,8.0072,19.6654,0.000233419,-0.00931949,0.0106338,0.00711425,-0.0162003,0.574314,0.0137972,0.0281398,1665,1674,8.00715,-19.6654
448,-650,7.85193,19.429,-0.000116507,-0.0110424,0.0125463,0.00810457,-0.0192635,0.580065,0.0162329,0.0457334,1672,1674,7.85187,-19.4289
455,-650,7.82935,19.0149,0,0,0,0,0,0,0,-1,1679,1674,7.82939,-19.0149
462,-650,7.77014,19.0178,0,0,0,0,0,0,0,-1,1686,1674,7.77016,-19.0178
469,-650,7.37964,19.1202,0,0,0,0,0,0,0,-1,1693,1674,7.37963,-19.1203
476,-650,7.6333,17.7002,0,0,0,0,0,0,0,-1,1700,1674,7.63332,-17.7002
483,-650,7.04602,17.5234,0,0,0,0,0,0,0,-1,1707,1674,7.04605,-17.5234
490,-650,6.9187,16.9877,0,0,0,0,0,0,0,-1,1714,1674,6.91868,-16.9877
497,-650,6.7218,16.5629,0,0,0,0,0,0,0,-1,1721,1674,6.72184,-16.5629
504,-650,6.26428,16.3641,0,0,0,0,0,0,0,-1,1728,1674,6.26426,-16.3642
511,-650,5.89343,16.0664,0,0,0,0,0,0,0,-1,1735,1674,5.89342,-16.0665
518,-650,0,0,0,0,0,0,0,0,0,-1,1742,1674,0,0
525,-650,0,0,0,0,0,0,0,0,0,-1,1749,1674,0,0
532,-650,0,0,0,0,0,0,0,0,0,-1,1756,1674,0,0
539,-650,0,0,0,0,0,0,0,0,0,-1,1763,1674,0,0
546,-650,0,0,0,0,0,0,0,0,0,-1,1770,1674,0,0
553,-650,0,0,0,0,0,0,0,0,0,-1,1777,1674,0,0
560,-650,0,0,0,0,0,0,0,0,0,-1,1784,1674,0,0
567,-650,0,0,0,0,0,0,0,0,0,-1,1791,1674,0,0
574,-650,0,0,0,0,0,0,0,0,0,-1,1798,1674,0,0
581,-650,0,0,0,0,0,0,0,0,0,-1,1805,1674,0,0
588,-650,0,0,0,0,0,0,0,0,0,-1,1812,1674,0,0
595,-650,0,0,0,0,0,0,0,0,0,-1,1819,1674,0,0
602,-650,0,0,0,0,0,0,0,0,0,-1,1826,1674,0,0
609,-650,0,0,0,0,0,0,0,0,0,-1,1833,1674,0,0
616,-650,0,0,0,0,0,0,0,0,0,-1,1840,1674,0,0
623,-650,0,0,0,0,0,0,0,0,0,-1,1847,1674,0,0
630,-650,0,0,0,0,0,0,0,0,0,-1,1854,1674,0,0
637,-650,0,0,0,0,0,0,0,0,0,-1,1861,1674,0,0
644,-650,0,0,0,0,0,0,0,0,0,-1,1868,1674,0,0
651,-650,0,0,0,0,0,0,0,0,0,-1,1875,1674,0,0
658,-650,0,0,0,0,0,0,0,0,0,-1,1882,1674,0,0
665,-650,0,0,0,0,0,0,0,0,0,-1,1889,1674,0,0
672,-650,0,0,0,0,0,0,0,0,0,-1,1896,1674,0,0
679,-650,0,0,0,0,0,0,0,0,0,-1,1903,1674,0,0
686,-650,0,0,0,0,0,0,0,0,0,-1,1910,1674,0,0
693,-650,0,0,0,0,0,0,0,0,0,-1,1917,1674,0,0
700,-650,0,0,0,0,0,0,0,0,0,-1,1924,1674,0,0
707,-650,0,0,0,0,0,0,0,0,0,-1,1931,1674,0,0
714,-650,0,0,0,0,0,0,0,0,0,-1,1938,1674,0,0
721,-650,0,0,0,0,0,0,0,0,0,-1,1945,1674,0,0
728,-650,0,0,0,0,0,0,0,0,0,-1,1952,1674,0,0
735,-650,0,0,0,0,0,0,0,0,0,-1,1959,1674,0,0
742,-650,0,0,0,0,0,0,0,0,0,-1,1966,1674,0,0
749,-650,0,0,0,0,0,0,0,0,0,-1,1973,1674,0,0
756,-650,0,0,0,0,0,0,0,0,0,-1,1980,1674,0,0
763,-650,0,0,0,0,0,0,0,0,0,-1,1987,1674,0,0
770,-650,0,0,0,0,0,0,0,0,0,-1,1994,1674,0,0
777,-650,0,0,0,0,0,0,0,0,0,-1,2001,1674,0,0
784,-650,0,0,0,0,0,0,0,0,0,-1,2008,1674,0,0
791,-650,0,0,0,0,0,0,0,0,0,-1,2015,1674,0,0
798,-650,0,0,0,0,0,0,0,0,0,-1,2022,1674,0,0
805,-650,0,0,0,0,0,0,0,0,0,-1,2029,1674,0,0
812,-650,0,0,0,0,0,0,0,0,0,-1,2036,1674,0,0
-700,-657,0,0,0,0,0,0,0,0,0,-1,524,1681,0,0
-693,-657,0,0,0,0,0,0,0,0,0,-1,531,1681,0,0
-686,-657,0,0,0,0,0,0,0,0,0,-1,538,1681,0,0
-679,-657,0,0,0,0,0,0,0,0,0,-1,545,1681,0,0
-672,-657,0,0,0,0,0,0,0,0,0,-1,552,1681,0,0
-665,-657,0,0,0,0,0,0,0,0,0,-1,559,1681,0,0
-658,-657,0,0,0,0,0,0,0,0,0,-1,566,1681,0,0
-651,-657,0,0,0,0,0,0,0,0,0,-1,573,1681,0,0
-644,-657,0,0,0,0,0,0,0,0,0,-1,580,1681,0,0
-637,-657,0,0,0,0,0,0,0,0,0,-1,587,1681,0,0
-630,-657,0,0,0,0,0,0,0,0,0,-1,594,1681,0,0
-623,-657,0,0,0,0,0,0,0,0,0,-1,601,1681,0,0
-616,-657,0,0,0,0,0,0,0,0,0,-1,608,1681,0,0
-609,-657,0,0,0,0,0,0,0,0,0,-1,615,1681,0,0
-602,-657,0,0,0,0,0,0,0,0,0,-1,622,1681,0,0
-595,-657,0,0,0,0,0,0,0,0,0,-1,629,1681,0,0
-588,-657,0,0,0,0,0,0,0,0,0,-1,636,1681,0,0
-581,-657,0,0,0,0,0,0,0,0,0,-1,643,1681,0,0
-574,-657,0,0,0,0,0,0,0,0,0,-1,650,1681,0,0
-567,-657,0,0,0,0,0,0,0,0,0,-1,657,1681,0,0
-560,-657,0,0,0,0,0,0,0,0,0,-1,664,1681,0,0
-553,-657,0,0,0,0,0,0,0,0,0,-1,671,1681,0,0
-546,-657,0,0,0,0,0,0,0,0,0,-1,678,1681,0,0
-539,-657,0,0,0,0,0,0,0,0,0,-1,685,1681,0,0
-532,-657,0,0,0,0,0,0,0,0,0,-1,692,1681,0,0
-525,-657,0,0,0,0,0,0,0,0,0,-1,699,1681,0,0
-518,-657,0,0,0,0,0,0,0,0,0,-1,706,1681,0,0
-511,-657,0,0,0,0,0,0,0,0,0,-1,713,1681,0,0
-504,-657,0,0,0,0,0,0,0,0,0,-1,720,1681,0,0
-497,-657,0,0,0,0,0,0,0,0,0,-1,727,1681,0,0
-490,-657,0,0,0,0,0,0,0,0,0,-1,734,1681,0,0
-483,-657,0,0,0,0,0,0,0,0,0,-1,741,1681,0,0
-476,-657,0,0,0,0,0,0,0,0,0,-1,748,1681,0,0
-469,-657,0,0,0,0,0,0,0,0,0,-1,755,1681,0,0
-462,-657,0,0,0,0,0,0,0,0,0,-1,762,1681,0,0
-455,-657,0,0,0,0,0,0,0,0,0,-1,769,1681,0,0
-448,-657,0,0,0,0,0,0,0,0,0,-1,776,1681,0,0
-441,-657,0,0,0,0,0,0,0,0,0,-1,783,1681,0,0
-434,-657,0,0,0,0,0,0,0,0,0,-1,790,1681,0,0
-427,-657,0,0,0,0,0,0,0,0,0,-1,797,1681,0,0
-420,-657,0,0,0,0,0,0,0,0,0,-1,804,1681,0,0
-413,-657,0,0,0,0,0,0,0,0,0,-1,811,1681,0,0
-406,-657,0,0,0,0,0,0,0,0,0,-1,818,1681,0,0
-399,-657,0,0,0,0,0,0,0,0,0,-1,825,1681,0,0
-392,-657,0,0,0,0,0,0,0,0,0,-1,832,1681,0,0
-385,-657,1.09814,6.18896,0,0,0,0,0,0,0,-1,839,1681,1.09814,-6.18894
-378,-657,0.31488,4.46753,0,0,0,0,0,0,0,-1,846,1681,0.31487,-4.46755
-371,-657,-0.519043,2.69421,0,0,0,0,0,0,0,-1,853,1681,-0.519064,-2.69422
-364,-657,-3.42017,4.18323,0,0,0,0,0,0,0,-1,860,1681,-3.42019,-4.18319
-357,-657,-4.41913,2.97168,0,0,0,0,0,0,0,-1,867,1681,-4.41913,-2.97165
-350,-657,-5.42291,1.70276,0,0,0,0,0,0,0,-1,874,1681,-5.42291,-1.70277
-343,-657,-6.51294,0.397339,0,0,0,0,0,0,0,-1,881,1681,-6.51295,-0.397335
-336,-657,3.07172,15.946,0,0,0,0,0,0,0,-1,888,1681,3.07169,-15.946
-329,-657,3.32263,16.6926,0.0145457,0.0175976,0.0162054,0.0323488,-0.00020547,0.832342,0.0216347,0.0491978,895,1681,3.32266,-16.6926
-322,-657,3.67438,17.4424,0,0,0,0,0,0,0,-1,902,1681,3.67435,-17.4424
-315,-657,4.15552,17.926,0.00627932,0.0111518,0.00879655,0.0178433,-0.000412106,0.92049,0.0120352,0.0424271,909,1681,4.1555,-17.9261
-308,-657,4.60345,18.3175,0.00344909,0.00822356,0.00604187,0.0123327,-0.000660069,0.973542,0.00845043,0.0391055,916,1681,4.60346,-18.3175
-301,-657,4.68365,18.8185,0.00141867,0.00542089,0.00383332,0.00774399,-0.000904432,1.02596,0.00548903,0.0306043,923,1681,4.68364,-18.8185
-294,-657,4.52325,19.2391,5.77531e-05,0.00321814,0.00218829,0.00433714,-0.00106125,1.0981,0.00330251,0.0174682,930,1681,4.52323,-19.2392
-287,-657,4.49689,19.5231,-0.000824618,0.00143632,0.00103937,0.00184152,-0.00122981,1.19908,0.00178492,0.0127669,937,1681,4.4969,-19.523
-280,-657,4.47644,19.7808,-0.00135465,4.54085e-05,0.000239616,8.52825e-05,-0.00139452,1.4059,0.000959373,0.0136327,944,1681,4.47642,-19.7808
-273,-657,4.46661,20.0565,-0.00169742,-0.00104832,-0.000541783,-0.000741313,-0.00200442,-1.05526,0.00117025,0.00949886,951,1681,4.46662,-20.0565
-266,-657,4.44684,20.328,-0.00136105,-0.00158454,-0.000602858,-0.000859671,-0.00208592,-0.693761,0.00121049,0.0133938,958,1681,4.44685,-20.328
-259,-657,4.45374,20.5813,-0.00124671,-0.00198437,-0.000689371,-0.000833708,-0.00239738,-0.539762,0.00140535,0.0181397,965,1681,4.45373,-20.5813
-252,-657,4.43347,20.8522,-0.000907427,-0.00201139,-0.000562513,-0.000671307,-0.00224751,-0.397423,0.0013322,0.012776,972,1681,4.43349,-20.8521
-245,-657,4.44861,21.1289,-0.00027185,-0.00190754,-0.000377063,-0.000189114,-0.00199028,-0.216,0.00126852,0.0134222,979,1681,4.44862,-21.1289
-238,-657,4.46167,21.4091,0.000221339,-0.00148519,-0.000200024,0.000244471,-0.00150832,-0.115132,0.00109617,0.0177094,986,1681,4.46165,-21.409
-231,-657,4.4574,21.6691,0.000655654,-0.00113075,3.56113e-05,0.000656364,-0.00113146,0.0199241,0.00104428,0.0191926,993,1681,4.45742,-21.6691
-224,-657,4.4292,21.9297,0.00114988,-0.000772045,0.000320387,0.00120188,-0.000824047,0.160906,0.00117643,0.0157219,1000,1681,4.42918,-21.9296
-217,-657,4.44122,22.1708,0.0014165,-0.000401131,0.000586972,0.00158957,-0.000574203,0.286731,0.00129429,0.0103792,1007,1681,4.44124,-22.1707
-210,-657,4.46027,22.4119,0.00124969,-0.000188046,0.000960148,0.00173026,-0.000668618,0.464062,0.00142949,0.0110585,1014,1681,4.46024,-22.4118
-203,-657,4.46606,22.6512,0.000752412,0.000347511,0.00132524,0.00189058,-0.000790656,0.709602,0.00159084,0.0134634,1021,1681,4.46611,-22.6512
-196,-657,4.46667,22.8613,0.000393299,0.000715895,0.00172811,0.00229022,-0.00118102,0.831932,0.00203794,0.0144507,1028,1681,4.46665,-22.8614
-189,-657,4.47241,23.0687,-0.000193857,0.00117984,0.00217017,0.00276926,-0.00178328,0.938658,0.00264888,0.0104242,1035,1681,4.47241,-23.0687
-182,-657,4.4657,23.288,-0.000974949,0.00191795,0.00261971,0.00346401,-0.00252101,1.03764,0.00346972,0.00819818,1042,1681,4.46572,-23.2879
-175,-657,4.49512,23.5024,-0.00187643,0.00278732,0.00314263,0.00436872,-0.00345783,1.10458,0.00452885,0.0102368,1049,1681,4.49508,-23.5025
-168,-657,4.495,23.7205,-0.0028422,0.00383172,0.00365099,0.00544097,-0.00445145,1.15564,0.00572091,0.0117909,1056,1681,4.49505,-23.7204
-161,-657,4.49231,23.9178,-0.00378615,0.0051186,0.00411004,0.00672561,-0.00539316,1.19808,0.00701085,0.0120491,1063,1681,4.49231,-23.9179
-154,-657,4.52441,24.1221,-0.0045691,0.00648164,0.00451295,0.00809044,-0.0061779,1.22835,0.00826247,0.0121073,1070,1681,4.52441,-24.122
-147,-657,4.5509,24.3353,-0.00519353,0.00796293,0.00471278,0.00947688,-0.00670748,1.25997,0.00938953,0.0166431,1077,1681,4.55094,-24.3354
-140,-657,4.55029,24.61,-0.00554467,0.0095875,0.0047807,0.0109713,-0.00692848,1.28904,0.0104219,0.0271887,1084,1681,4.55032,-24.6099
-133,-657,4.47021,24.9006,-0.00560773,0.0111881,0.00483848,0.0124823,-0.00690187,1.30945,0.011345,0.0400828,1091,1681,4.47021,-24.9006
-126,-657,4.43494,25.2485,0,0,0,0,0,0,0,-1,1098,1681,4.43495,-25.2486
-119,-657,4.75757,25.4208,0,0,0,0,0,0,0,-1,1105,1681,4.75757,-25.4207
-112,-657,4.6051,21.3439,0,0,0,0,0,0,0,-1,1112,1681,4.60512,-21.3438
-105,-657,3.82434,14.4906,0,0,0,0,0,0,0,-1,1119,1681,3.8244,-14.4906
-98,-657,3.78662,8.16785,0,0,0,0,0,0,0,-1,1126,1681,3.78663,-8.16786
-91,-657,3.6521,16.6017,0,0,0,0,0,0,0,-1,1133,1681,3.65215,-16.6017
-84,-657,4.08008,10.4579,0,0,0,0,0,0,0,-1,1140,1681,4.08006,-10.4579
-77,-657,-5.29846,0.396606,0,0,0,0,0,0,0,-1,1147,1681,-5.29842,-0.396573
-70,-657,-4.14893,2.14575,0,0,0,0,0,0,0,-1,1154,1681,-4.14893,-2.1458
-63,-657,-4.1239,3.177,0,0,0,0,0,0,0,-1,1161,1681,-4.12391,-3.17698
-56,-657,-6.40576,5.73987,0,0,0,0,0,0,0,-1,1168,1681,-6.40577,-5.7399
-49,-657,-5.98462,7.54053,0,0,0,0,0,0,0,-1,1175,1681,-5.98466,-7.5405
-42,-657,-5.71948,9.28955,0,0,0,0,0,0,0,-1,1182,1681,-5.71951,-9.2895
-35,-657,-5.44556,11.015,0,0,0,0,0,0,0,-1,1189,1681,-5.44555,-11.015
-28,-657,-1.3446,8.92847,0,0,0,0,0,0,0,-1,1196,1681,-1.34459,-8.92848
-21,-657,-3.22681,25.0535,0,0,0,0,0,0,0,-1,1203,1681,-3.22686,-25.0535
-14,-657,-2.46777,25.0999,0,0,0,0,0,0,0,-1,1210,1681,-2.46782,-25.0999
-7,-657,-1.875,25.45,0.101851,0.226981,0.0536849,0.246857,0.0819755,1.21622,0.145177,0.046388,1217,1681,-1.87505,-25.4499
0,-657,-0.64563,26.2903,0.105151,0.218344,0.0494148,0.236881,0.0866143,1.21192,0.138399,0.0440117,1224,1681,-0.645648,-26.2902
7,-657,6.70911,29.2108,0,0,0,0,0,0,0,-1,1231,1681,6.7091,-29.2108
14,-657,6.5177,28.7506,0,0,0,0,0,0,0,-1,1238,1681,6.51771,-28.7506
21,-657,1.56995,26.0518,0.112174,0.190474,0.0389018,0.206516,0.0961325,1.17969,0.119326,0.0435142,1245,1681,1.56995,-26.0518
28,-657,2.37964,26.6616,0.110618,0.179312,0.0368181,0.195316,0.0946137,1.16074,0.112784,0.0443496,1252,1681,2.37958,-26.6616
35,-657,7.8584,26.9921,0,0,0,0,0,0,0,-1,1259,1681,7.85837,-26.992
42,-657,8.6427,27.0027,0.0996374,0.155852,0.0354079,0.172952,0.082537,1.12088,0.0998886,0.0408588,1266,1681,8.64272,-27.0027
49,-657,9.3999,27.2678,0.0898646,0.141363,0.0326107,0.157165,0.074063,1.11958,0.0907892,0.0427534,1273,1681,9.39994,-27.2678
56,-657,9.50635,27.549,0.0790441,0.128128,0.0311352,0.143231,0.0639413,1.11916,0.0828524,0.0437872,1280,1681,9.5064,-27.5489
63,-657,9.14209,27.702,0,0,0,0,0,0,0,-1,1287,1681,9.14207,-27.702
70,-657,9.03625,27.8601,0,0,0,0,0,0,0,-1,1294,1681,9.03621,-27.8601
77,-657,9.08765,27.7439,0.0479967,0.0862271,0.0276833,0.100753,0.0334703,1.08756,0.0592519,0.043933,1301,1681,9.08761,-27.7439
84,-657,9.16748,27.5533,0.0365418,0.0725779,0.0262441,0.0863938,0.0227259,1.08622,0.0517128,0.0469826,1308,1681,9.16747,-27.5534
91,-657,7.50427,29.0542,0.0290496,0.0584201,0.0259064,0.073514,0.0139557,1.04325,0.0450833,0.0450019,1315,1681,7.50427,-29.0542
98,-657,5.9519,24.1853,0.0253912,0.0463778,0.0236695,0.0617757,0.00999334,0.994044,0.0382899,0.0477752,1322,1681,5.9519,-24.1853
105,-657,5.74438,25.0887,0.0248251,0.0337118,0.0234406,0.0531265,0.00541043,0.879065,0.033759,0.0446731,1329,1681,5.74439,-25.0888
112,-657,5.63037,25.8964,0.0281887,0.0227911,0.0239908,0.049632,0.00134771,0.729387,0.0326481,0.0431804,1336,1681,5.63036,-25.8963
119,-657,5.65991,26.9359,0.0347744,0.0134611,0.025236,0.0515115,-0.00327604,0.585616,0.0354834,0.0446424,1343,1681,5.65986,-26.936
126,-657,5.79175,28.0536,0.0458724,0.00576092,0.0279063,0.0601822,-0.00854891,0.473821,0.0432536,0.0473804,1350,1681,5.79174,-28.0535
133,-657,5.91772,29.1932,0,0,0,0,0,0,0,-1,1357,1681,5.91772,-29.1932
140,-657,5.5542,27.0444,0,0,0,0,0,0,0,-1,1364,1681,5.55417,-27.0444
147,-657,6.27441,26.3605,0,0,0,0,0,0,0,-1,1371,1681,6.27446,-26.3604
154,-657,5.33484,25.5435,0,0,0,0,0,0,0,-1,1378,1681,5.33486,-25.5434
161,-657,4.2926,24.9226,0,0,0,0,0,0,0,-1,1385,1681,4.29264,-24.9226
168,-657,5.21643,0.70105,0,0,0,0,0,0,0,-1,1392,1681,5.21648,-0.7011
175,-657,5.52771,0.649048,0,0,0,0,0,0,0,-1,1399,1681,5.52774,-0.649019
182,-657,5.73999,1.02612,0,0,0,0,0,0,0,-1,1406,1681,5.73995,-1.02611
189,-657,5.92126,1.44116,0,0,0,0,0,0,0,-1,1413,1681,5.92126,-1.44115
196,-657,4.92834,9.59021,0,0,0,0,0,0,0,-1,1420,1681,4.9284,-9.59018
203,-657,6.26343,5.16492,0,0,0,0,0,0,0,-1,1427,1681,6.26345,-5.16488
210,-657,3.9856,5.28088,0,0,0,0,0,0,0,-1,1434,1681,3.98555,-5.28084
217,-657,3.95178,5.2843,0,0,0,0,0,0,0,-1,1441,1681,3.95174,-5.28431
224,-657,6.66736,-0.250244,0,0,0,0,0,0,0,-1,1448,1681,6.66737,0.250229
231,-657,6.85498,-1.70752,0,0,0,0,0,0,0,-1,1455,1681,6.855,1.70758
238,-657,5.34143,-2.89819,0,0,0,0,0,0,0,-1,1462,1681,5.34143,2.89813
245,-657,8.66003,-0.102783,0,0,0,0,0,0,0,-1,1469,1681,8.66,0.102824
252,-657,4.78955,0.623779,0,0,0,0,0,0,0,-1,1476,1681,4.7895,-0.623826
259,-657,2.61523,4.31909,0,0,0,0,0,0,0,-1,1483,1681,2.61523,-4.31908
266,-657,5.35437,11.4742,0,0,0,0,0,0,0,-1,1490,1681,5.35441,-11.4742
273,-657,7.55798,24.558,0,0,0,0,0,0,0,-1,1497,1681,7.55798,-24.558
280,-657,7.52429,24.6409,0.00415986,0.000573589,0.000858451,0.00435475,0.000378692,0.223249,0.00278553,0.0495216,1504,1681,7.52434,-24.6408
287,-657,7.68054,24.527,0.00329349,0.000882431,0.000950447,0.0036231,0.000552822,0.333816,0.00225384,0.032028,1511,1681,7.68055,-24.527
294,-657,7.80737,24.3767,0.00268455,0.000891078,0.000998526,0.0031299,0.000445731,0.419527,0.00195503,0.0238506,1518,1681,7.80732,-24.3767
301,-657,7.75403,24.2279,0.00224394,0.000855191,0.00102891,0.00279086,0.000308275,0.488569,0.0017668,0.0169626,1525,1681,7.75405,-24.2279
308,-657,7.78992,24.0376,0.0017732,0.0013299,0.000846706,0.00242679,0.000676316,0.657381,0.00144614,0.0118251,1532,1681,7.78995,-24.0376
315,-657,7.82544,23.8352,0.00135495,0.00166056,0.000683335,0.00220796,0.000807544,0.895395,0.00129,0.0107125,1539,1681,7.8255,-23.8352
322,-657,7.86523,23.5977,0.00111877,0.00212163,0.000399745,0.00226147,0.000978932,1.23428,0.00130958,0.0136036,1546,1681,7.86518,-23.5977
329,-657,7.85767,23.3901,0.000950462,0.00230534,0.000194201,0.00233263,0.000923176,1.4312,0.00135646,0.0205295,1553,1681,7.85772,-23.3902
336,-657,7.8667,23.1757,0.000757532,0.00243645,8.47848e-05,0.00244072,0.000753261,1.52047,0.00144315,0.018448,1560,1681,7.86668,-23.1757
343,-657,7.88928,22.988,0.000629638,0.00237415,-8.79187e-05,0.00237857,0.000625218,-1.52057,0.00142382,0.0147458,1567,1681,7.88924,-22.988
350,-657,7.89099,22.7683,0.000615512,0.00204194,-0.000244361,0.00208264,0.000574812,-1.40575,0.00124198,0.0163207,1574,1681,7.89098,-22.7683
357,-657,7.87854,22.5542,0.000592462,0.00174591,-0.000317686,0.00182762,0.000510752,-1.31905,0.00108885,0.0144905,1581,1681,7.87859,-22.5542
364,-657,7.87549,22.3484,0.000477531,0.00114536,-0.000288204,0.00125254,0.000370356,-1.21477,0.000743005,0.0102597,1588,1681,7.87553,-22.3484
371,-657,7.87134,22.1288,0.000329627,0.000454883,-0.000214143,0.000615369,0.000169141,-0.927659,0.000367092,0.0149554,1595,1681,7.87131,-22.1288
378,-657,7.83667,21.8906,0.000223723,-0.000287686,-8.45581e-05,0.000237342,-0.000301304,-0.159684,0.000311717,0.0147124,1602,1681,7.83665,-21.8906
385,-657,7.81982,21.6318,0.000339379,-0.000861594,0.000483443,0.000509802,-0.00103202,0.338917,0.000907029,0.0125918,1609,1681,7.81986,-21.6319
392,-657,7.83447,21.4028,0.000499646,-0.00229323,0.00147735,0.00113609,-0.00292967,0.406773,0.0024223,0.012704,1616,1681,7.83451,-21.4029
399,-657,7.85986,21.1605,0.0005058,-0.00338758,0.00246263,0.00169824,-0.00458003,0.45094,0.00374988,0.0126466,1623,1681,7.8599,-21.1605
406,-657,7.85706,20.9136,0.000744664,-0.00442592,0.00372013,0.00268961,-0.00637087,0.481735,0.00537307,0.0146755,1630,1681,7.8571,-20.9135
413,-657,7.84448,20.6414,0.000955536,-0.00554162,0.00526594,0.00389431,-0.00848039,0.50902,0.00730626,0.0142567,1637,1681,7.84444,-20.6413
420,-657,7.82861,20.338,0.000914776,-0.00695147,0.00733205,0.00530201,-0.0113387,0.539216,0.00981598,0.016658,1644,1681,7.82864,-20.338
427,-657,7.78076,20.0577,0.00101018,-0.00849887,0.00970484,0.00706257,-0.0145513,0.557626,0.012726,0.0209915,1651,1681,7.78071,-20.0578
434,-657,7.88513,19.8682,0.00110308,-0.0103789,0.0125044,0.0091214,-0.0183972,0.570193,0.0161859,0.0272632,1658,1681,7.88508,-19.8681
441,-657,8.0321,20.1571,0.00100817,-0.0125534,0.0154066,0.0110602,-0.0226054,0.578094,0.0198142,0.046747,1665,1681,8.03216,-20.1571
448,-657,7.43567,19.5992,0,0,0,0,0,0,0,-1,1672,1681,7.43566,-19.5993
455,-657,5.12244,16.671,0,0,0,0,0,0,0,-1,1679,1681,5.12248,-16.6711
462,-657,6.51733,15.4801,0,0,0,0,0,0,0,-1,1686,1681,6.51737,-15.4801
469,-657,7.38184,17.5225,0,0,0,0,0,0,0,-1,1693,1681,7.38188,-17.5224
476,-657,7.34668,19.126,0,0,0,0,0,0,0,-1,1700,1681,7.34674,-19.1259
483,-657,6.54016,18.3916,0,0,0,0,0,0,0,-1,1707,1681,6.5401,-18.3916
490,-657,6.27075,17.7283,0,0,0,0,0,0,0,-1,1714,1681,6.2707,-17.7283
497,-657,5.48621,17.2727,0,0,0,0,0,0,0,-1,1721,1681,5.48618,-17.2728
504,-657,0,0,0,0,0,0,0,0,0,-1,1728,1681,0,0
511,-657,0,0,0,0,0,0,0,0,0,-1,1735,1681,0,0
518,-657,0,0,0,0,0,0,0,0,0,-1,1742,1681,0,0
525,-657,0,0,0,0,0,0,0,0,0,-1,1749,1681,0,0
532,-657,0,0,0,0,0,0,0,0,0,-1,1756,1681,0,0
539,-657,0,0,0,0,0,0,0,0,0,-1,1763,1681,0,0
546,-657,0,0,0,0,0,0,0,0,0,-1,1770,1681,0,0
553,-657,0,0,0,0,0,0,0,0,0,-1,1777,1681,0,0
560,-657,0,0,0,0,0,0,0,0,0,-1,1784,1681,0,0
567,-657,0,0,0,0,0,0,0,0,0,-1,1791,1681,0,0
574,-657,0,0,0,0,0,0,0,0,0,-1,1798,1681,0,0
581,-657,0,0,0,0,0,0,0,0,0,-1,1805,1681,0,0
588,-657,0,0,0,0,0,0,0,0,0,-1,1812,1681,0,0
595,-657,0,0,0,0,0,0,0,0,0,-1,1819,1681,0,0
602,-657,0,0,0,0,0,0,0,0,0,-1,1826,1681,0,0
609,-657,0,0,0,0,0,0,0,0,0,-1,1833,1681,0,0
616,-657,0,0,0,0,0,0,0,0,0,-1,1840,1681,0,0
623,-657,0,0,0,0,0,0,0,0,0,-1,1847,1681,0,0
630,-657,0,0,0,0,0,0,0,0,0,-1,1854,1681,0,0
637,-657,0,0,0,0,0,0,0,0,0,-1,1861,1681,0,0
644,-657,0,0,0,0,0,0,0,0,0,-1,1868,1681,0,0
651,-657,0,0,0,0,0,0,0,0,0,-1,1875,1681,0,0
658,-657,0,0,0,0,0,0,0,0,0,-1,1882,1681,0,0
665,-657,0,0,0,0,0,0,0,0,0,-1,1889,1681,0,0
672,-657,0,0,0,0,0,0,0,0,0,-1,1896,1681,0,0
679,-657,0,0,0,0,0,0,0,0,0,-1,1903,1681,0,0
686,-657,0,0,0,0,0,0,0,0,0,-1,1910,1681,0,0
693,-657,0,0,0,0,0,0,0,0,0,-1,1917,1681,0,0
700,-657,0,0,0,0,0,0,0,0,0,-1,1924,1681,0,0
707,-657,0,0,0,0,0,0,0,0,0,-1,1931,1681,0,0
714,-657,0,0,0,0,0,0,0,0,0,-1,1938,1681,0,0
721,-657,0,0,0,0,0,0,0,0,0,-1,1945,1681,0,0
728,-657,0,0,0,0,0,0,0,0,0,-1,1952,1681,0,0
735,-657,0,0,0,0,0,0,0,0,0,-1,1959,1681,0,0
742,-657,0,0,0,0,0,0,0,0,0,-1,1966,1681,0,0
749,-657,0,0,0,0,0,0,0,0,0,-1,1973,1681,0,0
756,-657,0,0,0,0,0,0,0,0,0,-1,1980,1681,0,0
763,-657,0,0,0,0,0,0,0,0,0,-1,1987,1681,0,0
770,-657,0,0,0,0,0,0,0,0,0,-1,1994,1681,0,0
777,-657,0,0,0,0,0,0,0,0,0,-1,2001,1681,0,0
784,-657,0,0,0,0,0,0,0,0,0,-1,2008,1681,0,0
791,-657,0,0,0,0,0,0,0,0,0,-1,2015,1681,0,0
798,-657,0,0,0,0,0,0,0,0,0,-1,2022,1681,0,0
805,-657,0,0,0,0,0,0,0,0,0,-1,2029,1681,0,0
812,-657,0,0,0,0,0,0,0,0,0,-1,2036,1681,0,0
-700,-664,0,0,0,0,0,0,0,0,0,-1,524,1688,0,0
-693,-664,0,0,0,0,0,0,0,0,0,-1,531,1688,0,0
-686,-664,0,0,0,0,0,0,0,0,0,-1,538,1688,0,0
-679,-664,0,0,0,0,0,0,0,0,0,-1,545,1688,0,0
-672,-664,0,0,0,0,0,0,0,0,0,-1,552,1688,0,0
-665,-664,0,0,0,0,0,0,0,0,0,-1,559,1688,0,0
-658,-664,0,0,0,0,0,0,0,0,0,-1,566,1688,0,0
-651,-664,0,0,0,0,0,0,0,0,0,-1,573,1688,0,0
-644,-664,0,0,0,0,0,0,0,0,0,-1,580,1688,0,0
-637,-664,0,0,0,0,0,0,0,0,0,-1,587,1688,0,0
-630,-664,0,0,0,0,0,0,0,0,0,-1,594,1688,0,0
-623,-664,0,0,0,0,0,0,0,0,0,-1,601,1688,0,0
-616,-664,0,0,0,0,0,0,0,0,0,-1,608,1688,0,0
-609,-664,0,0,0,0,0,0,0,0,0,-1,615,1688,0,0
-602,-664,0,0,0,0,0,0,0,0,0,-1,622,1688,0,0
-595,-664,0,0,0,0,0,0,0,0,0,-1,629,1688,0,0
-588,-664,0,0,0,0,0,0,0,0,0,-1,636,1688,0,0
-581,-664,0,0,0,0,0,0,0,0,0,-1,643,1688,0,0
-574,-664,0,0,0,0,0,0,0,0,0,-1,650,1688,0,0
-567,-664,0,0,0,0,0,0,0,0,0,-1,657,1688,0,0
-560,-664,0,0,0,0,0,0,0,0,0,-1,664,1688,0,0
-553,-664,0,0,0,0,0,0,0,0,0,-1,671,1688,0,0
-546,-664,0,0,0,0,0,0,0,0,0,-1,678,1688,0,0
-539,-664,0,0,0,0,0,0,0,0,0,-1,685,1688,0,0
-532,-664,0,0,0,0,0,0,0,0,0,-1,692,1688,0,0
-525,-664,0,0,0,0,0,0,0,0,0,-1,699,1688,0,0
-518,-664,0,0,0,0,0,0,0,0,0,-1,706,1688,0,0
-511,-664,0,0,0,0,0,0,0,0,0,-1,713,1688,0,0
-504,-664,0,0,0,0,0,0,0,0,0,-1,720,1688,0,0
-497,-664,0,0,0,0,0,0,0,0,0,-1,727,1688,0,0
-490,-664,0,0,0,0,0,0,0,0,0,-1,734,1688,0,0
-483,-664,0,0,0,0,0,0,0,0,0,-1,741,1688,0,0
-476,-664,0,0,0,0,0,0,0,0,0,-1,748,1688,0,0
-469,-664,0,0,0,0,0,0,0,0,0,-1,755,1688,0,0
-462,-664,0,0,0,0,0,0,0,0,0,-1,762,1688,0,0
-455,-664,0,0,0,0,0,0,0,0,0,-1,769,1688,0,0
-448,-664,0,0,0,0,0,0,0,0,0,-1,776,1688,0,0
-441,-664,0,0,0,0,0,0,0,0,0,-1,783,1688,0,0
-434,-664,0,0,0,0,0,0,0,0,0,-1,790,1688,0,0
-427,-664,0,0,0,0,0,0,0,0,0,-1,797,1688,0,0
-420,-664,0,0,0,0,0,0,0,0,0,-1,804,1688,0,0
-413,-664,0,0,0,0,0,0,0,0,0,-1,811,1688,0,0
-406,-664,0,0,0,0,0,0,0,0,0,-1,818,1688,0,0
-399,-664,0,0,0,0,0,0,0,0,0,-1,825,1688,0,0
-392,-664,0,0,0,0,0,0,0,0,0,-1,832,1688,0,0
-385,-664,0,0,0,0,0,0,0,0,0,-1,839,1688,0,0
-378,-664,0,0,0,0,0,0,0,0,0,-1,846,1688,0,0
-371,-664,-1.61676,5.92737,0,0,0,0,0,0,0,-1,853,1688,-1.61675,-5.92735
-364,-664,-3.901,5.87024,0,0,0,0,0,0,0,-1,860,1688,-3.90097,-5.87027
-357,-664,-4.81012,4.53479,0,0,0,0,0,0,0,-1,867,1688,-4.81012,-4.5348
-350,-664,-5.7193,3.19934,0,0,0,0,0,0,0,-1,874,1688,-5.71927,-3.19932
-343,-664,2.96515,14.8083,0,0,0,0,0,0,0,-1,881,1688,2.96517,-14.8083
-336,-664,2.79852,15.5814,0,0,0,0,0,0,0,-1,888,1688,2.79853,-15.5814
-329,-664,3.0072,16.3878,0,0,0,0,0,0,0,-1,895,1688,3.00721,-16.3878
-322,-664,3.79187,17.4125,0,0,0,0,0,0,0,-1,902,1688,3.79189,-17.4125
-315,-664,4.35748,17.802,0,0,0,0,0,0,0,-1,909,1688,4.35748,-17.8021
-308,-664,4.91406,18.076,0,0,0,0,0,0,0,-1,916,1688,4.91408,-18.0761
-301,-664,5.27209,18.489,0.00130323,0.00615865,0.00438329,0.00874163,-0.00127975,1.0383,0.00629783,0.0481866,923,1688,5.27211,-18.489
-294,-664,4.84467,19.1981,-0.000495763,0.00316291,0.00214918,0.00415588,-0.00148874,1.13799,0.00337801,0.0443928,930,1688,4.84468,-19.1981
-287,-664,4.8277,19.5836,-0.00160193,0.000801524,0.00064502,0.000963688,-0.0017641,1.32449,0.00159733,0.033542,937,1688,4.8277,-19.5836
-280,-664,4.70776,19.8276,-0.00228334,-0.000952938,-0.00034103,-0.000870614,-0.00236567,-1.33393,0.00138159,0.0235539,944,1688,4.70779,-19.8277
-273,-664,4.73071,20.049,-0.00273373,-0.002227,-0.00123956,-0.00121518,-0.00374555,-0.886211,0.00220649,0.0165054,951,1688,4.73069,-20.0489
-266,-664,4.71246,20.3241,-0.00235516,-0.00279233,-0.00125161,-0.00130319,-0.0038443,-0.698947,0.00225754,0.021465,958,1688,4.71248,-20.3241
-259,-664,4.7027,20.5875,-0.00224512,-0.00318324,-0.00127427,-0.00135632,-0.00407204,-0.609043,0.00239426,0.0178919,965,1688,4.70269,-20.5875
-252,-664,4.71539,20.8575,-0.00184162,-0.00311048,-0.001062,-0.00123898,-0.00371312,-0.516148,0.00218295,0.0154399,972,1688,4.71537,-20.8576
-245,-664,4.7132,21.1385,-0.00111783,-0.00289725,-0.000825163,-0.000794079,-0.003221,-0.373888,0.00193766,0.0182957,979,1688,4.7132,-21.1385
-238,-664,4.72681,21.4299,-0.000606125,-0.00230518,-0.000593544,-0.000419317,-0.00249199,-0.304918,0.00154069,0.0215875,986,1688,4.72679,-21.4299
-231,-664,4.71515,21.6792,-0.00018907,-0.00177698,-0.0002968,-0.000135407,-0.00183064,-0.17887,0.00117789,0.0191815,993,1688,4.71516,-21.6792
-224,-664,4.68976,21.9211,0.000335967,-0.00129983,4.04358e-05,0.000336966,-0.00130083,0.0246992,0.000998674,0.0135551,1000,1688,4.68978,-21.9211
-217,-664,4.6911,22.1682,0.000643975,-0.000741924,0.00029068,0.000702473,-0.000800423,0.198594,0.000868311,0.0102457,1007,1688,4.69108,-22.1683
-210,-664,4.69489,22.4219,0.000654345,-0.00041701,0.000576526,0.000905644,-0.000668309,0.411054,0.00091216,0.0117005,1014,1688,4.6949,-22.4219
-203,-664,4.67041,22.6515,0.000443371,3.41629e-05,0.000861366,0.0011241,-0.000646565,0.668792,0.00103461,0.0141425,1021,1688,4.67046,-22.6515
-196,-664,4.67676,22.8588,0.00030237,0.000372253,0.00117014,0.00150798,-0.000833354,0.800324,0.00137034,0.0144532,1028,1688,4.67675,-22.8588
-189,-664,4.69849,23.0703,3.10216e-05,0.000744385,0.00148712,0.001917,-0.00114159,0.903099,0.00178469,0.00967853,1035,1688,4.69855,-23.0703
-182,-664,4.69287,23.2842,-0.000370367,0.00132824,0.00178039,0.00245153,-0.00149365,1.00795,0.00230002,0.00921717,1042,1688,4.69285,-23.2841
-175,-664,4.71155,23.4755,-0.000823183,0.00201344,0.00213935,0.00316192,-0.00197167,1.07811,0.00299032,0.0125214,1049,1688,4.71156,-23.4755
-168,-664,4.7196,23.6898,-0.00134469,0.0028092,0.0024723,0.00396118,-0.00249667,1.13475,0.00376027,0.013775,1056,1688,4.71964,-23.6898
-161,-664,4.70667,23.8947,-0.00184211,0.00380875,0.00277484,0.00494347,-0.00297683,1.18261,0.00461954,0.010166,1063,1688,4.70669,-23.8947
-154,-664,4.73218,24.0842,-0.00219327,0.00488231,0.00303111,0.00600323,-0.00331419,1.21659,0.00545358,0.00951495,1070,1688,4.73223,-24.0842
-147,-664,4.73706,24.2947,-0.00239706,0.00602233,0.00312583,0.00705595,-0.00343068,1.25144,0.00617388,0.0105017,1077,1688,4.73702,-24.2947
-140,-664,4.77197,24.5079,-0.00243093,0.00728355,0.00310729,0.00819243,-0.0033398,1.28624,0.0068518,0.0106623,1084,1688,4.77199,-24.508
-133,-664,4.75317,24.6984,-0.00228137,0.00850912,0.00307812,0.00932544,-0.00309769,1.31156,0.00746687,0.0120163,1091,1688,4.75323,-24.6983
-126,-664,4.8418,25.0128,-0.00181034,0.0099565,0.00322558,0.0107827,-0.00263654,1.32005,0.00820967,0.0236602,1098,1688,4.84185,-25.0128
-119,-664,4.87317,25.1912,-0.0010334,0.0111085,0.00313765,0.0118714,-0.00179628,1.33229,0.00857595,0.0370449,1105,1688,4.87314,-25.1911
-112,-664,5.12341,25.2391,0,0,0,0,0,0,0,-1,1112,1688,5.12344,-25.2391
-105,-664,4.48108,21.4276,0,0,0,0,0,0,0,-1,1119,1688,4.48104,-21.4276
-98,-664,4.98584,19.8645,0,0,0,0,0,0,0,-1,1126,1688,4.98586,-19.8645
-91,-664,4.74963,24.3629,0,0,0,0,0,0,0,-1,1133,1688,4.74969,-24.363
-84,-664,3.48389,16.6913,0,0,0,0,0,0,0,-1,1140,1688,3.4839,-16.6913
-77,-664,4.52014,11.2122,0,0,0,0,0,0,0,-1,1147,1688,4.5202,-11.2122
-70,-664,4.20374,8.24524,0,0,0,0,0,0,0,-1,1154,1688,4.20379,-8.24519
-63,-664,-4.677,2.40503,0,0,0,0,0,0,0,-1,1161,1688,-4.67702,-2.40498
-56,-664,-4.66504,3.32727,0,0,0,0,0,0,0,-1,1168,1688,-4.6651,-3.32724
-49,-664,-2.54297,3.31848,0,0,0,0,0,0,0,-1,1175,1688,-2.54297,-3.31852
-42,-664,-0.359253,4.38684,0,0,0,0,0,0,0,-1,1182,1688,-0.359261,-4.38685
-35,-664,-0.705566,3.55017,0,0,0,0,0,0,0,-1,1189,1688,-0.705567,-3.55023
-28,-664,-1.54236,10.2538,0,0,0,0,0,0,0,-1,1196,1688,-1.54236,-10.2538
-21,-664,5.79749,29.1941,0,0,0,0,0,0,0,-1,1203,1688,5.79749,-29.1941
-14,-664,5.36304,26.467,0,0,0,0,0,0,0,-1,1210,1688,5.363,-26.467
-7,-664,5.52856,26.6125,0,0,0,0,0,0,0,-1,1217,1688,5.52858,-26.6126
0,-664,5.84692,28.9652,0,0,0,0,0,0,0,-1,1224,1688,5.84697,-28.9653
7,-664,6.12244,28.6732,0.090343,0.167203,0.0366578,0.181883,0.0756631,1.1899,0.105503,0.0481154,1231,1688,6.12239,-28.6732
14,-664,6.1582,28.4011,0.0920496,0.15997,0.0344052,0.174352,0.0776671,1.17484,0.100862,0.0483721,1238,1688,6.15818,-28.4011
21,-664,6.20593,28.4626,0,0,0,0,0,0,0,-1,1245,1688,6.20592,-28.4626
28,-664,6.23938,28.6824,0,0,0,0,0,0,0,-1,1252,1688,6.23938,-28.6823
35,-664,6.57129,26.4803,0,0,0,0,0,0,0,-1,1259,1688,6.57133,-26.4804
42,-664,7.75122,26.0778,0.0826163,0.124321,0.0307621,0.140632,0.0663052,1.08325,0.081238,0.0430832,1266,1688,7.75126,-26.0778
49,-664,8.52527,27.823,0.0739826,0.112522,0.0284194,0.127589,0.058916,1.08332,0.0737351,0.043435,1273,1688,8.52531,-27.823
56,-664,8.48303,27.8298,0,0,0,0,0,0,0,-1,1280,1688,8.48307,-27.8299
63,-664,8.7688,27.2567,0,0,0,0,0,0,0,-1,1287,1688,8.76886,-27.2567
70,-664,6.88208,27.2498,0,0,0,0,0,0,0,-1,1294,1688,6.88211,-27.2497
77,-664,8.22461,27.213,0.0373746,0.0679951,0.0232625,0.0805335,0.0248361,1.07644,0.0476205,0.0464615,1301,1688,8.22464,-27.2131
84,-664,7.69836,27.957,0.0274128,0.0572009,0.0217181,0.0686413,0.0159723,1.08596,0.0414749,0.0457248,1308,1688,7.69842,-27.957
91,-664,7.51392,28.2108,0.0207777,0.0461001,0.0211223,0.0580653,0.00881256,1.0554,0.0361327,0.043018,1315,1688,7.51395,-28.2109
98,-664,6.95361,27.7405,0,0,0,0,0,0,0,-1,1322,1688,6.95363,-27.7404
105,-664,6.06116,25.35,0,0,0,0,0,0,0,-1,1329,1688,6.06111,-25.35
112,-664,5.62842,26.0764,0,0,0,0,0,0,0,-1,1336,1688,5.62845,-26.0765
119,-664,5.84265,26.9053,0,0,0,0,0,0,0,-1,1343,1688,5.8427,-26.9052
126,-664,5.97498,27.8795,0,0,0,0,0,0,0,-1,1350,1688,5.97494,-27.8795
133,-664,4.7085,27.554,0,0,0,0,0,0,0,-1,1357,1688,4.70852,-27.554
140,-664,5.56067,26.9769,0,0,0,0,0,0,0,-1,1364,1688,5.56061,-26.977
147,-664,6.41272,26.3999,0,0,0,0,0,0,0,-1,1371,1688,6.4127,-26.3999
154,-664,4.76721,26.2594,0,0,0,0,0,0,0,-1,1378,1688,4.76723,-26.2594
161,-664,4.60132,1.56238,0,0,0,0,0,0,0,-1,1385,1688,4.60134,-1.56233
168,-664,5.172,1.25488,0,0,0,0,0,0,0,-1,1392,1688,5.17203,-1.25484
175,-664,5.58313,1.16467,0,0,0,0,0,0,0,-1,1399,1688,5.58317,-1.16466
182,-664,5.74268,1.41113,0,0,0,0,0,0,0,-1,1406,1688,5.74263,-1.41115
189,-664,5.87744,1.87061,0,0,0,0,0,0,0,-1,1413,1688,5.87745,-1.87065
196,-664,6.7594,5.97473,0,0,0,0,0,0,0,-1,1420,1688,6.75943,-5.97478
203,-664,5.38452,5.22034,0,0,0,0,0,0,0,-1,1427,1688,5.38453,-5.2203
210,-664,5.25549,6.45715,0,0,0,0,0,0,0,-1,1434,1688,5.25549,-6.45721
217,-664,5.72009,6.73975,0,0,0,0,0,0,0,-1,1441,1688,5.72014,-6.73972
224,-664,5.05725,7.42908,0,0,0,0,0,0,0,-1,1448,1688,5.05723,-7.42912
231,-664,5.13318,7.60864,0,0,0,0,0,0,0,-1,1455,1688,5.13313,-7.60862
238,-664,4.23193,6.45471,0,0,0,0,0,0,0,-1,1462,1688,4.23197,-6.45476
245,-664,4.42004,6.80896,0,0,0,0,0,0,0,-1,1469,1688,4.4201,-6.80901
252,-664,3.67346,6.85461,0,0,0,0,0,0,0,-1,1476,1688,3.6734,-6.85462
259,-664,4.55823,11.7435,0,0,0,0,0,0,0,-1,1483,1688,4.55826,-11.7435
266,-664,7.3136,24.5437,0,0,0,0,0,0,0,-1,1490,1688,7.31356,-24.5438
273,-664,7.5,24.7556,0,0,0,0,0,0,0,-1,1497,1688,7.50001,-24.7556
280,-664,7.48743,24.6528,0.00343628,-0.000308136,0.00072681,0.00357241,-0.000444265,0.185151,0.00254267,0.0279845,1504,1688,7.48739,-24.6528
287,-664,7.49194,24.494,0.00290982,0.000148755,0.000708511,0.00308102,-2.24393e-05,0.237082,0.00206153,0.0200948,1511,1688,7.49197,-24.494
294,-664,7.55017,24.3383,0.00245928,0.000285256,0.000704602,0.00266766,7.68689e-05,0.287555,0.00175338,0.0149388,1518,1688,7.55017,-24.3383
301,-664,7.59265,24.1823,0.00209178,0.000337154,0.000689749,0.00233045,9.84771e-05,0.333137,0.00152187,0.0102208,1525,1688,7.59262,-24.1822
308,-664,7.61829,24.009,0.00166691,0.000720806,0.000561088,0.00192775,0.000459967,0.435161,0.00116258,0.0100047,1532,1688,7.61827,-24.009
315,-664,7.63855,23.8226,0.00127943,0.000964807,0.000458557,0.00160691,0.00063733,0.620157,0.000934338,0.0112493,1539,1688,7.63859,-23.8227
322,-664,7.66882,23.6169,0.00100185,0.00127821,0.000291708,0.00146281,0.000817251,1.00659,0.000846491,0.0146082,1546,1688,7.66888,-23.6169
329,-664,7.65381,23.4233,0.000772013,0.00134936,0.000159784,0.00139063,0.000730742,1.31803,0.000803229,0.0174414,1553,1688,7.65376,-23.4234
336,-664,7.65161,23.209,0.000556239,0.00138036,0.000114339,0.00139593,0.00054067,1.43546,0.000812736,0.0151663,1560,1688,7.65166,-23.209
343,-664,7.64624,22.998,0.000394805,0.00121144,1.43539e-05,0.00121169,0.000394553,1.55323,0.000713609,0.0121208,1567,1688,7.64627,-22.998
350,-664,7.6449,22.7877,0.000309602,0.00075294,-6.18984e-05,0.00076142,0.000301122,-1.43465,0.000442796,0.0139892,1574,1688,7.64496,-22.7877
357,-664,7.63647,22.5605,0.000241779,0.000371116,-7.44378e-05,0.000405053,0.000207842,-1.14304,0.000233884,0.0134985,1581,1688,7.63644,-22.5606
364,-664,7.65039,22.3269,0.000103429,-0.000316934,9.68702e-06,0.000103652,-0.000317158,0.0230281,0.000253164,0.0113388,1588,1688,7.65035,-22.3269
371,-664,7.66418,22.1179,-4.76454e-05,-0.00105659,0.000100553,-3.77216e-05,-0.00106651,0.0983729,0.000698772,0.0146712,1595,1688,7.66418,-22.1179
378,-664,7.62842,21.8857,-0.000155071,-0.00186627,0.00025275,-0.00011852,-0.00190282,0.143619,0.00123095,0.0133521,1602,1688,7.62836,-21.8857
385,-664,7.61401,21.6479,-1.58418e-05,-0.00239663,0.00099129,0.000342859,-0.00275533,0.347194,0.00196119,0.0129963,1609,1688,7.614,-21.6479
392,-664,7.58789,21.4246,0.000241818,-0.00393571,0.00222985,0.0012084,-0.00490229,0.409028,0.0037367,0.0157906,1616,1688,7.58788,-21.4246
399,-664,7.62329,21.1571,0.000341992,-0.00517942,0.00349638,0.00203619,-0.00687362,0.451218,0.00539088,0.0134031,1623,1688,7.62328,-21.1571
406,-664,7.63,20.9076,0.000747724,-0.00639684,0.00516106,0.0034522,-0.00910132,0.482676,0.0074884,0.0157137,1630,1688,7.62996,-20.9076
413,-664,7.62976,20.6184,0.0011628,-0.00769999,0.00725034,0.00522874,-0.0117659,0.511092,0.0100509,0.0182172,1637,1688,7.62979,-20.6184
420,-664,7.61755,20.342,0.00132918,-0.00937674,0.0100805,0.00738981,-0.0154374,0.54132,0.0134495,0.0369924,1644,1688,7.61756,-20.3421
427,-664,7.59497,19.9111,0,0,0,0,0,0,0,-1,1651,1688,7.59499,-19.9112
434,-664,7.71362,19.6534,0.00220256,-0.0138007,0.0175454,0.0134848,-0.0250829,0.57146,0.0226002,0.0475723,1658,1688,7.7136,-19.6535
441,-664,7.86487,20.677,0.00239672,-0.016789,0.0219133,0.0167249,-0.0311172,0.579082,0.0280351,0.0477166,1665,1688,7.86487,-20.677
448,-664,8.24695,21.0626,0,0,0,0,0,0,0,-1,1672,1688,8.24695,-21.0626
455,-664,7.53198,11.3838,0,0,0,0,0,0,0,-1,1679,1688,7.53195,-11.3838
462,-664,4.3147,4.25439,0,0,0,0,0,0,0,-1,1686,1688,4.31467,-4.25435
469,-664,6.05469,7.49341,0,0,0,0,0,0,0,-1,1693,1688,6.05474,-7.49339
476,-664,9.76514,11.5648,0,0,0,0,0,0,0,-1,1700,1688,9.76511,-11.5648
483,-664,8.41895,10.9768,0,0,0,0,0,0,0,-1,1707,1688,8.41897,-10.9769
490,-664,3.90771,13.2842,0,0,0,0,0,0,0,-1,1714,1688,3.90776,-13.2841
497,-664,0,0,0,0,0,0,0,0,0,-1,1721,1688,0,0
504,-664,0,0,0,0,0,0,0,0,0,-1,1728,1688,0,0
511,-664,0,0,0,0,0,0,0,0,0,-1,1735,1688,0,0
518,-664,0,0,0,0,0,0,0,0,0,-1,1742,1688,0,0
525,-664,0,0,0,0,0,0,0,0,0,-1,1749,1688,0,0
532,-664,0,0,0,0,0,0,0,0,0,-1,1756,1688,0,0
539,-664,0,0,0,0,0,0,0,0,0,-1,1763,1688,0,0
546,-664,0,0,0,0,0,0,0,0,0,-1,1770,1688,0,0
553,-664,0,0,0,0,0,0,0,0,0,-1,1777,1688,0,0
560,-664,0,0,0,0,0,0,0,0,0,-1,1784,1688,0,0
567,-664,0,0,0,0,0,0,0,0,0,-1,1791,1688,0,0
574,-664,0,0,0,0,0,0,0,0,0,-1,1798,1688,0,0
581,-664,0,0,0,0,0,0,0,0,0,-1,1805,1688,0,0
588,-664,0,0,0,0,0,0,0,0,0,-1,1812,1688,0,0
595,-664,0,0,0,0,0,0,0,0,0,-1,1819,1688,0,0
602,-664,0,0,0,0,0,0,0,0,0,-1,1826,1688,0,0
609,-664,0,0,0,0,0,0,0,0,0,-1,1833,1688,0,0
616,-664,0,0,0,0,0,0,0,0,0,-1,1840,1688,0,0
623,-664,0,0,0,0,0,0,0,0,0,-1,1847,1688,0,0
630,-664,0,0,0,0,0,0,0,0,0,-1,1854,1688,0,0
637,-664,0,0,0,0,0,0,0,0,0,-1,1861,1688,0,0
644,-664,0,0,0,0,0,0,0,0,0,-1,1868,1688,0,0
651,-664,0,0,0,0,0,0,0,0,0,-1,1875,1688,0,0
658,-664,0,0,0,0,0,0,0,0,0,-1,1882,1688,0,0
665,-664,0,0,0,0,0,0,0,0,0,-1,1889,1688,0,0
672,-664,0,0,0,0,0,0,0,0,0,-1,1896,1688,0,0
679,-664,0,0,0,0,0,0,0,0,0,-1,1903,1688,0,0
686,-664,0,0,0,0,0,0,0,0,0,-1,1910,1688,0,0
693,-664,0,0,0,0,0,0,0,0,0,-1,1917,1688,0,0
700,-664,0,0,0,0,0,0,0,0,0,-1,1924,1688,0,0
707,-664,0,0,0,0,0,0,0,0,0,-1,1931,1688,0,0
714,-664,0,0,0,0,0,0,0,0,0,-1,1938,1688,0,0
721,-664,0,0,0,0,0,0,0,0,0,-1,1945,1688,0,0
728,-664,0,0,0,0,0,0,0,0,0,-1,1952,1688,0,0
735,-664,0,0,0,0,0,0,0,0,0,-1,1959,1688,0,0
742,-664,0,0,0,0,0,0,0,0,0,-1,1966,1688,0,0
749,-664,0,0,0,0,0,0,0,0,0,-1,1973,1688,0,0
756,-664,0,0,0,0,0,0,0,0,0,-1,1980,1688,0,0
763,-664,0,0,0,0,0,0,0,0,0,-1,1987,1688,0,0
770,-664,0,0,0,0,0,0,0,0,0,-1,1994,1688,0,0
777,-664,0,0,0,0,0,0,0,0,0,-1,2001,1688,0,0
784,-664,0,0,0,0,0,0,0,0,0,-1,2008,1688,0,0
791,-664,0,0,0,0,0,0,0,0,0,-1,2015,1688,0,0
798,-664,0,0,0,0,0,0,0,0,0,-1,2022,1688,0,0
805,-664,0,0,0,0,0,0,0,0,0,-1,2029,1688,0,0
812,-664,0,0,0,0,0,0,0,0,0,-1,2036,1688,0,0
-700,-671,0,0,0,0,0,0,0,0,0,-1,524,1695,0,0
-693,-671,0,0,0,0,0,0,0,0,0,-1,531,1695,0,0
-686,-671,0,0,0,0,0,0,0,0,0,-1,538,1695,0,0
-679,-671,0,0,0,0,0,0,0,0,0,-1,545,1695,0,0
-672,-671,0,0,0,0,0,0,0,0,0,-1,552,1695,0,0
-665,-671,0,0,0,0,0,0,0,0,0,-1,559,1695,0,0
-658,-671,0,0,0,0,0,0,0,0,0,-1,566,1695,0,0
-651,-671,0,0,0,0,0,0,0,0,0,-1,573,1695,0,0
-644,-671,0,0,0,0,0,0,0,0,0,-1,580,1695,0,0
-637,-671,0,0,0,0,0,0,0,0,0,-1,587,1695,0,0
-630,-671,0,0,0,0,0,0,0,0,0,-1,594,1695,0,0
-623,-671,0,0,0,0,0,0,0,0,0,-1,601,1695,0,0
-616,-671,0,0,0,0,0,0,0,0,0,-1,608,1695,0,0
-609,-671,0,0,0,0,0,0,0,0,0,-1,615,1695,0,0
-602,-671,0,0,0,0,0,0,0,0,0,-1,622,1695,0,0
-595,-671,0,0,0,0,0,0,0,0,0,-1,629,1695,0,0
-588,-671,0,0,0,0,0,0,0,0,0,-1,636,1695,0,0
-581,-671,0,0,0,0,0,0,0,0,0,-1,643,1695,0,0
-574,-671,0,0,0,0,0,0,0,0,0,-1,650,1695,0,0
-567,-671,0,0,0,0,0,0,0,0,0,-1,657,1695,0,0
-560,-671,0,0,0,0,0,0,0,0,0,-1,664,1695,0,0
-553,-671,0,0,0,0,0,0,0,0,0,-1,671,1695,0,0
-546,-671,0,0,0,0,0,0,0,0,0,-1,678,1695,0,0
-539,-671,0,0,0,0,0,0,0,0,0,-1,685,1695,0,0
-532,-671,0,0,0,0,0,0,0,0,0,-1,692,1695,0,0
-525,-671,0,0,0,0,0,0,0,0,0,-1,699,1695,0,0
-518,-671,0,0,0,0,0,0,0,0,0,-1,706,1695,0,0
-511,-671,0,0,0,0,0,0,0,0,0,-1,713,1695,0,0
-504,-671,0,0,0,0,0,0,0,0,0,-1,720,1695,0,0
-497,-671,0,0,0,0,0,0,0,0,0,-1,727,1695,0,0
-490,-671,0,0,0,0,0,0,0,0,0,-1,734,1695,0,0
-483,-671,0,0,0,0,0,0,0,0,0,-1,741,1695,0,0
-476,-671,0,0,0,0,0,0,0,0,0,-1,748,1695,0,0
-469,-671,0,0,0,0,0,0,0,0,0,-1,755,1695,0,0
-462,-671,0,0,0,0,0,0,0,0,0,-1,762,1695,0,0
-455,-671,0,0,0,0,0,0,0,0,0,-1,769,1695,0,0
-448,-671,0,0,0,0,0,0,0,0,0,-1,776,1695,0,0
-441,-671,0,0,0,0,0,0,0,0,0,-1,783,1695,0,0
-434,-671,0,0,0,0,0,0,0,0,0,-1,790,1695,0,0
-427,-671,0,0,0,0,0,0,0,0,0,-1,797,1695,0,0
-420,-671,0,0,0,0,0,0,0,0,0,-1,804,1695,0,0
-413,-671,0,0,0,0,0,0,0,0,0,-1,811,1695,0,0
-406,-671,0,0,0,0,0,0,0,0,0,-1,818,1695,0,0
-399,-671,0,0,0,0,0,0,0,0,0,-1,825,1695,0,0
-392,-671,0,0,0,0,0,0,0,0,0,-1,832,1695,0,0
-385,-671,0,0,0,0,0,0,0,0,0,-1,839,1695,0,0
-378,-671,0,0,0,0,0,0,0,0,0,-1,846,1695,0,0
-371,-671,0,0,0,0,0,0,0,0,0,-1,853,1695,0,0
-364,-671,-4.18738,7.51416,0,0,0,0,0,0,0,-1,860,1695,-4.18739,-7.51419
-357,-671,-5.02393,6.07129,0,0,0,0,0,0,0,-1,867,1695,-5.0239,-6.07135
-350,-671,-5.72333,4.58386,0,0,0,0,0,0,0,-1,874,1695,-5.72333,-4.58386
-343,-671,-6.4884,3.11353,0,0,0,0,0,0,0,-1,881,1695,-6.48839,-3.11349
-336,-671,2.55884,15.6338,0,0,0,0,0,0,0,-1,888,1695,2.55886,-15.6338
-329,-671,2.71729,16.1058,0,0,0,0,0,0,0,-1,895,1695,2.71729,-16.1058
-322,-671,3.91541,19.5708,0,0,0,0,0,0,0,-1,902,1695,3.91543,-19.5708
-315,-671,4.57422,17.7009,0,0,0,0,0,0,0,-1,909,1695,4.57422,-17.701
-308,-671,5.07489,19.746,0,0,0,0,0,0,0,-1,916,1695,5.0749,-19.7459
-301,-671,5.6554,18.2924,0,0,0,0,0,0,0,-1,923,1695,5.65542,-18.2923
-294,-671,5.14282,19.1095,0,0,0,0,0,0,0,-1,930,1695,5.14282,-19.1095
-287,-671,5.16614,19.5934,-0.00269633,-0.000341731,-0.000240921,-0.000317333,-0.00272073,-1.46987,0.00171784,0.0477885,937,1695,5.16611,-19.5934
-280,-671,5.14319,19.8779,-0.00346936,-0.00243675,-0.0013494,-0.00150825,-0.00439786,-0.968116,0.00258052,0.041595,944,1695,5.14319,-19.8779
-273,-671,4.98364,20.1104,-0.00397855,-0.00383577,-0.00229255,-0.0016135,-0.00620082,-0.800964,0.00371475,0.03551,951,1695,4.98365,-20.1103
-266,-671,5.02728,20.4192,-0.00350047,-0.00439326,-0.00217213,-0.00172934,-0.00616439,-0.684054,0.00367151,0.0264476,958,1695,5.02728,-20.4192
-259,-671,4.93536,20.6237,-0.00334449,-0.0047129,-0.00205039,-0.00186717,-0.00619023,-0.62436,0.00366649,0.0235839,965,1695,4.93536,-20.6236
-252,-671,4.94812,20.8881,-0.00284722,-0.00448282,-0.00169086,-0.00178678,-0.00554326,-0.560152,0.00326706,0.017285,972,1695,4.94811,-20.888
-245,-671,4.9726,21.1669,-0.00203061,-0.00411482,-0.00135674,-0.00136195,-0.00478349,-0.457907,0.0028458,0.0201936,979,1695,4.97258,-21.1669
-238,-671,4.979,21.4363,-0.0014933,-0.00333243,-0.00103183,-0.00103074,-0.00379499,-0.421433,0.00226595,0.0206839,986,1695,4.97898,-21.4363
-231,-671,4.94025,21.6908,-0.00104313,-0.00264883,-0.000647781,-0.00081438,-0.00287757,-0.339452,0.00171272,0.0153696,993,1695,4.94025,-21.6907
-224,-671,4.92352,21.8994,-0.000444235,-0.00208477,-0.000252779,-0.000406169,-0.00212284,-0.149466,0.00130114,0.0118811,1000,1695,4.92354,-21.8994
-217,-671,4.93054,22.1381,-9.51224e-05,-0.00136386,-1.01136e-05,-9.50418e-05,-0.00136395,-0.00797071,0.00087933,0.0122066,1007,1695,4.93052,-22.138
-210,-671,4.92505,22.3978,6.34533e-05,-0.000941385,0.000226331,0.000112079,-0.000990011,0.211627,0.000700363,0.0122411,1014,1695,4.92507,-22.3979
-203,-671,4.87585,22.5906,9.55639e-05,-0.000544874,0.000460337,0.000336103,-0.000785414,0.481508,0.000664604,0.0195979,1021,1695,4.87589,-22.5906
-196,-671,4.88904,22.8275,0.000126784,-0.000208886,0.000706849,0.000685451,-0.000767552,0.668836,0.000839338,0.015922,1028,1695,4.88903,-22.8275
-189,-671,4.93115,23.11,9.1721e-05,9.92197e-05,0.000945776,0.00104125,-0.000850313,0.78738,0.00109395,0.01209,1035,1695,4.93119,-23.11
-182,-671,4.90186,23.3024,-5.07448e-05,0.000590201,0.00114343,0.00145722,-0.000917767,0.922029,0.00138294,0.0101583,1042,1695,4.90182,-23.3023
-175,-671,4.91028,23.4858,-0.000210302,0.00117254,0.0014023,0.00204462,-0.00108238,1.01444,0.00183364,0.0126038,1049,1695,4.91026,-23.4859
-168,-671,4.91663,23.6827,-0.00047399,0.00182771,0.00162957,0.00267185,-0.00131812,1.09285,0.00234739,0.0140264,1056,1695,4.91659,-23.6828
-161,-671,4.91809,23.8904,-0.000726991,0.00268043,0.00184235,0.00348608,-0.00153264,1.15856,0.00296982,0.00979454,1063,1695,4.91804,-23.8904
-154,-671,4.92627,24.0911,-0.000842393,0.00358803,0.00201478,0.00436723,-0.00162159,1.20177,0.00357673,0.00835972,1070,1695,4.92626,-24.0911
-147,-671,4.94482,24.3087,-0.000850728,0.00449809,0.00205298,0.00519521,-0.00154784,1.24345,0.00407853,0.00972316,1077,1695,4.94485,-24.3087
-140,-671,4.98059,24.4869,-0.000744959,0.00547493,0.00200389,0.00606462,-0.00133465,1.2846,0.00455363,0.0110948,1084,1695,4.98055,-24.4869
-133,-671,4.98083,24.641,-0.000485805,0.00638735,0.00193766,0.00689597,-0.000994425,1.3141,0.00496211,0.0127508,1091,1695,4.9809,-24.641
-126,-671,5.0155,24.855,5.28305e-05,0.00744534,0.00203328,0.00796768,-0.000469508,1.31934,0.005475,0.017309,1098,1695,5.01556,-24.855
-119,-671,5.07153,25.1329,0.000734485,0.00825865,0.00192017,0.00872035,0.000272787,1.33483,0.0057248,0.0312859,1105,1695,5.07153,-25.133
-112,-671,5.10571,25.3639,0.00160172,0.00902955,0.00173549,0.00941504,0.00121623,1.35222,0.00591312,0.0457413,1112,1695,5.10568,-25.3639
-105,-671,5.07605,25.4594,0,0,0,0,0,0,0,-1,1119,1695,5.07605,-25.4594
-98,-671,4.98804,25.4899,0,0,0,0,0,0,0,-1,1126,1695,4.988,-25.4898
-91,-671,5.10632,25.5205,0,0,0,0,0,0,0,-1,1133,1695,5.1063,-25.5206
-84,-671,4.97632,24.9094,0,0,0,0,0,0,0,-1,1140,1695,4.97634,-24.9094
-77,-671,4.31763,16.489,0,0,0,0,0,0,0,-1,1147,1695,4.31757,-16.489
-70,-671,3.06067,10.7737,0,0,0,0,0,0,0,-1,1154,1695,3.0607,-10.7737
-63,-671,2.94592,6.90198,0,0,0,0,0,0,0,-1,1161,1695,2.94594,-6.90198
-56,-671,-3.07678,2.87976,0,0,0,0,0,0,0,-1,1168,1695,-3.07675,-2.87979
-49,-671,-1.05957,4.76917,0,0,0,0,0,0,0,-1,1175,1695,-1.05958,-4.76921
-42,-671,0.539307,3.7865,0,0,0,0,0,0,0,-1,1182,1695,0.539266,-3.78648
-35,-671,-0.272461,0.347534,0,0,0,0,0,0,0,-1,1189,1695,-0.272434,-0.347569
-28,-671,-10.4878,17.2009,0,0,0,0,0,0,0,-1,1196,1695,-10.4878,-17.2009
-21,-671,5.23572,26.3197,0,0,0,0,0,0,0,-1,1203,1695,5.23577,-26.3197
-14,-671,5.42322,26.4692,0.0684495,0.140418,0.0336785,0.153719,0.0551477,1.19464,0.0899225,0.0450043,1210,1695,5.42325,-26.4692
-7,-671,5.62671,26.6558,0.0692206,0.137262,0.0324358,0.150247,0.0562361,1.19002,0.0876539,0.0487767,1217,1695,5.62675,-26.6557
0,-671,6.05017,26.9006,0,0,0,0,0,0,0,-1,1224,1695,6.05017,-26.9006
7,-671,5.49548,28.156,0.0725901,0.12864,0.0288677,0.140848,0.0603814,1.17069,0.0815939,0.0481452,1231,1695,5.49543,-28.156
14,-671,5.77405,28.0946,0.0738997,0.123376,0.0275903,0.135694,0.0615811,1.15087,0.0784544,0.0486884,1238,1695,5.77401,-28.0946
21,-671,6.00293,28.1158,0.0748909,0.11734,0.0264643,0.130039,0.0621914,1.12338,0.0751019,0.0463017,1245,1695,6.00294,-28.1158
28,-671,6.16956,28.2703,0.0739694,0.110275,0.0260475,0.123872,0.0603733,1.08973,0.0715249,0.0457454,1252,1695,6.16957,-28.2703
35,-671,6.40552,26.5944,0.0711778,0.103002,0.0261614,0.117711,0.0564694,1.05862,0.0679789,0.0428477,1259,1695,6.4055,-26.5944
42,-671,7.80676,27.6621,0.0667155,0.0961883,0.0262032,0.111515,0.0513891,1.04155,0.0644488,0.044557,1266,1695,7.80676,-27.6621
49,-671,7.81274,27.4485,0.05936,0.0869104,0.0243555,0.101116,0.0451541,1.04276,0.0584906,0.0416284,1273,1695,7.81271,-27.4485
56,-671,7.69397,27.2711,0.0514286,0.0785898,0.0230143,0.0917317,0.0382867,1.05195,0.0532018,0.0415753,1280,1695,7.69398,-27.2712
63,-671,6.80273,27.1727,0,0,0,0,0,0,0,-1,1287,1695,6.80275,-27.1727
70,-671,6.66614,27.2533,0.0362693,0.0611907,0.0208959,0.0730591,0.0244008,1.05425,0.0429487,0.0470513,1294,1695,6.66618,-27.2533
77,-671,8.09558,26.822,0.0285399,0.0520928,0.0193742,0.0629889,0.0176438,1.05848,0.0375206,0.0464069,1301,1695,8.09554,-26.822
84,-671,7.68652,27.1853,0.020218,0.0437946,0.0178768,0.0534199,0.0105927,1.07688,0.0326601,0.0468063,1308,1695,7.68651,-27.1852
91,-671,7.39697,27.3502,0.0146099,0.0354031,0.0171149,0.0450317,0.00498132,1.05834,0.0285062,0.0451489,1315,1695,7.39694,-27.3502
98,-671,6.86975,27.4729,0.0115392,0.0285737,0.0145575,0.0369226,0.00319034,1.05008,0.0236235,0.0434712,1322,1695,6.86979,-27.4729
105,-671,6.2876,27.6156,0,0,0,0,0,0,0,-1,1329,1695,6.28766,-27.6156
112,-671,6.17004,25.6836,0.0125388,0.0141245,0.013551,0.0269058,-0.000242536,0.814618,0.0180186,0.0439167,1336,1695,6.17005,-25.6836
119,-671,6.20129,26.5751,0.0162428,0.00851329,0.0137267,0.0266384,-0.00188233,0.648176,0.0184185,0.0451274,1343,1695,6.20135,-26.5751
126,-671,6.89661,26.8726,0,0,0,0,0,0,0,-1,1350,1695,6.89662,-26.8725
133,-671,4.69824,27.3982,0,0,0,0,0,0,0,-1,1357,1695,4.69822,-27.3982
140,-671,5.64087,26.8761,0.0331694,-0.00234023,0.0163088,0.0395229,-0.00869375,0.371487,0.0296741,0.0454203,1364,1695,5.64084,-26.876
147,-671,6.77759,26.1022,0,0,0,0,0,0,0,-1,1371,1695,6.77758,-26.1022
154,-671,7.77783,25.4799,0,0,0,0,0,0,0,-1,1378,1695,7.77781,-25.4799
161,-671,4.49292,4.91272,0,0,0,0,0,0,0,-1,1385,1695,4.49297,-4.91273
168,-671,5.17639,6.1416,0,0,0,0,0,0,0,-1,1392,1695,5.1764,-6.14164
175,-671,5.6731,1.64685,0,0,0,0,0,0,0,-1,1399,1695,5.67313,-1.64691
182,-671,5.56812,1.71692,0,0,0,0,0,0,0,-1,1406,1695,5.56809,-1.71686
189,-671,6.98315,6.36169,0,0,0,0,0,0,0,-1,1413,1695,6.98312,-6.36175
196,-671,5.38123,5.69775,0,0,0,0,0,0,0,-1,1420,1695,5.38125,-5.69769
203,-671,5.95117,8.11658,0,0,0,0,0,0,0,-1,1427,1695,5.9512,-8.11662
210,-671,4.73596,8.39624,0,0,0,0,0,0,0,-1,1434,1695,4.736,-8.39618
217,-671,5.37097,11.863,0,0,0,0,0,0,0,-1,1441,1695,5.37094,-11.863
224,-671,5.08167,13.6694,0,0,0,0,0,0,0,-1,1448,1695,5.08165,-13.6695
231,-671,5.66663,15.3348,0,0,0,0,0,0,0,-1,1455,1695,5.66667,-15.3349
238,-671,6.32959,16.2036,0,0,0,0,0,0,0,-1,1462,1695,6.32961,-16.2037
245,-671,7.6427,24.7103,0,0,0,0,0,0,0,-1,1469,1695,7.64275,-24.7104
252,-671,7.29443,25.0145,0,0,0,0,0,0,0,-1,1476,1695,7.29441,-25.0145
259,-671,7.24829,24.8156,0,0,0,0,0,0,0,-1,1483,1695,7.24827,-24.8155
266,-671,7.31287,24.9758,0.00298207,-0.000814131,0.000712033,0.00311122,-0.000943289,0.179442,0.00244988,0.0362402,1490,1695,7.31283,-24.9759
273,-671,7.3562,24.8787,0.00296357,-0.000890487,0.000584404,0.00305024,-0.000977153,0.147226,0.00242573,0.0129867,1497,1695,7.35618,-24.8787
280,-671,7.3645,24.7278,0.00270851,-0.000682864,0.000594293,0.00280964,-0.00078399,0.168548,0.00218189,0.00960326,1504,1695,7.36448,-24.7278
287,-671,7.36316,24.4934,0.00236137,-0.000253114,0.000532288,0.00246558,-0.000357329,0.193342,0.00177486,0.0110921,1511,1695,7.36319,-24.4934
294,-671,7.37158,24.3053,0.00202203,-3.05878e-05,0.000474664,0.00212648,-0.000135038,0.216598,0.00146474,0.0115619,1518,1695,7.37163,-24.3054
301,-671,7.39868,24.1692,0.00170916,9.27735e-05,0.00041538,0.00180966,-7.72264e-06,0.237377,0.00120902,0.0109228,1525,1695,7.39874,-24.1692
308,-671,7.4104,24.0084,0.00132959,0.00042843,0.000308965,0.00142535,0.000332675,0.300533,0.000861035,0.0113952,1532,1695,7.4104,-24.0084
315,-671,7.42773,23.826,0.000986562,0.000598813,0.000239199,0.00110059,0.000484786,0.444839,0.000636924,0.0127942,1539,1695,7.42778,-23.826
322,-671,7.43176,23.6426,0.000684991,0.000751704,0.000177985,0.000899432,0.000537263,0.87803,0.000522557,0.0144754,1546,1695,7.43176,-23.6425
329,-671,7.41333,23.453,0.000422813,0.000706632,0.000121011,0.000751221,0.000378223,1.21776,0.000433721,0.013493,1553,1695,7.41339,-23.4531
336,-671,7.42786,23.2312,0.000208348,0.000618707,0.000137912,0.000660749,0.000166306,1.2749,0.000396855,0.011186,1560,1695,7.42789,-23.2312
343,-671,7.43811,22.9978,2.50466e-05,0.000321671,0.000112071,0.000359252,-1.25345e-05,1.24725,0.000243787,0.0103306,1567,1695,7.4381,-22.9978
350,-671,7.42932,22.8079,-0.000115728,-0.000298255,0.000124733,-5.24356e-05,-0.000361547,0.469565,0.000225593,0.0108821,1574,1695,7.42937,-22.8079
357,-671,7.41724,22.5554,-0.000196187,-0.000800008,0.000174599,-0.000149336,-0.000846859,0.262161,0.000521964,0.0110839,1581,1695,7.41722,-22.5554
364,-671,7.41064,22.3169,-0.00031949,-0.00160469,0.000307359,-0.000249767,-0.00167441,0.223071,0.00104304,0.0128616,1588,1695,7.4107,-22.3168
371,-671,7.41101,22.1196,-0.000437046,-0.00241538,0.000404759,-0.000357437,-0.00249498,0.194203,0.00155791,0.0145478,1595,1695,7.41098,-22.1196
378,-671,7.40259,21.8948,-0.00050106,-0.00332441,0.000561738,-0.000393401,-0.00343207,0.189357,0.00216884,0.0120413,1602,1695,7.40264,-21.8947
385,-671,7.41016,21.6305,-0.000291272,-0.0038626,0.00144723,0.000221558,-0.00437543,0.340547,0.00299354,0.0132968,1609,1695,7.41021,-21.6305
392,-671,7.35999,21.4412,0.000115834,-0.00555472,0.00293334,0.00136017,-0.00679906,0.401198,0.00504756,0.0202754,1616,1695,7.36004,-21.4411
399,-671,7.33582,21.1421,0.000385845,-0.00702086,0.0045139,0.00252116,-0.00915618,0.44186,0.00709542,0.0215899,1623,1695,7.33579,-21.1421
406,-671,7.36511,20.8621,0.00104857,-0.0085392,0.00667553,0.0044732,-0.0119638,0.474004,0.00981291,0.0356402,1630,1695,7.36513,-20.862
413,-671,7.31958,20.8033,0.00177574,-0.0102012,0.00948227,0.00700223,-0.0154277,0.503753,0.013251,0.0476255,1637,1695,7.31962,-20.8033
420,-671,7.40149,20.7928,0,0,0,0,0,0,0,-1,1644,1695,7.40145,-20.7929
427,-671,7.18433,20.2469,0,0,0,0,0,0,0,-1,1651,1695,7.18436,-20.2469
434,-671,7.55591,19.6444,0,0,0,0,0,0,0,-1,1658,1695,7.55589,-19.6444
441,-671,7.26685,21.1763,0,0,0,0,0,0,0,-1,1665,1695,7.26684,-21.1763
448,-671,7.90466,21.3672,0,0,0,0,0,0,0,-1,1672,1695,7.90463,-21.3671
455,-671,3.40137,9.28076,0,0,0,0,0,0,0,-1,1679,1695,3.40135,-9.28082
462,-671,5.86255,4.47961,0,0,0,0,0,0,0,-1,1686,1695,5.8625,-4.4796
469,-671,3.71301,3.76978,0,0,0,0,0,0,0,-1,1693,1695,3.71297,-3.76974
476,-671,3.75574,3.18848,0,0,0,0,0,0,0,-1,1700,1695,3.7558,-3.18847
483,-671,7.81824,12.1041,0,0,0,0,0,0,0,-1,1707,1695,7.81826,-12.1041
490,-671,0,0,0,0,0,0,0,0,0,-1,1714,1695,0,0
497,-671,0,0,0,0,0,0,0,0,0,-1,1721,1695,0,0
504,-671,0,0,0,0,0,0,0,0,0,-1,1728,1695,0,0
511,-671,0,0,0,0,0,0,0,0,0,-1,1735,1695,0,0
518,-671,0,0,0,0,0,0,0,0,0,-1,1742,1695,0,0
525,-671,0,0,0,0,0,0,0,0,0,-1,1749,1695,0,0
532,-671,0,0,0,0,0,0,0,0,0,-1,1756,1695,0,0
539,-671,0,0,0,0,0,0,0,0,0,-1,1763,1695,0,0
546,-671,0,0,0,0,0,0,0,0,0,-1,1770,1695,0,0
553,-671,0,0,0,0,0,0,0,0,0,-1,1777,1695,0,0
560,-671,0,0,0,0,0,0,0,0,0,-1,1784,1695,0,0
567,-671,0,0,0,0,0,0,0,0,0,-1,1791,1695,0,0
574,-671,0,0,0,0,0,0,0,0,0,-1,1798,1695,0,0
581,-671,0,0,0,0,0,0,0,0,0,-1,1805,1695,0,0
588,-671,0,0,0,0,0,0,0,0,0,-1,1812,1695,0,0
595,-671,0,0,0,0,0,0,0,0,0,-1,1819,1695,0,0
602,-671,0,0,0,0,0,0,0,0,0,-1,1826,1695,0,0
609,-671,0,0,0,0,0,0,0,0,0,-1,1833,1695,0,0
616,-671,0,0,0,0,0,0,0,0,0,-1,1840,1695,0,0
623,-671,0,0,0,0,0,0,0,0,0,-1,1847,1695,0,0
630,-671,0,0,0,0,0,0,0,0,0,-1,1854,1695,0,0
637,-671,0,0,0,0,0,0,0,0,0,-1,1861,1695,0,0
644,-671,0,0,0,0,0,0,0,0,0,-1,1868,1695,0,0
651,-671,0,0,0,0,0,0,0,0,0,-1,1875,1695,0,0
658,-671,0,0,0,0,0,0,0,0,0,-1,1882,1695,0,0
665,-671,0,0,0,0,0,0,0,0,0,-1,1889,1695,0,0
672,-671,0,0,0,0,0,0,0,0,0,-1,1896,1695,0,0
679,-671,0,0,0,0,0,0,0,0,0,-1,1903,1695,0,0
686,-671,0,0,0,0,0,0,0,0,0,-1,1910,1695,0,0
693,-671,0,0,0,0,0,0,0,0,0,-1,1917,1695,0,0
700,-671,0,0,0,0,0,0,0,0,0,-1,1924,1695,0,0
707,-671,0,0,0,0,0,0,0,0,0,-1,1931,1695,0,0
714,-671,0,0,0,0,0,0,0,0,0,-1,1938,1695,0,0
721,-671,0,0,0,0,0,0,0,0,0,-1,1945,1695,0,0
728,-671,0,0,0,0,0,0,0,0,0,-1,1952,1695,0,0
735,-671,0,0,0,0,0,0,0,0,0,-1,1959,1695,0,0
742,-671,0,0,0,0,0,0,0,0,0,-1,1966,1695,0,0
749,-671,0,0,0,0,0,0,0,0,0,-1,1973,1695,0,0
756,-671,0,0,0,0,0,0,0,0,0,-1,1980,1695,0,0
763,-671,0,0,0,0,0,0,0,0,0,-1,1987,1695,0,0
770,-671,0,0,0,0,0,0,0,0,0,-1,1994,1695,0,0
777,-671,0,0,0,0,0,0,0,0,0,-1,2001,1695,0,0
784,-671,0,0,0,0,0,0,0,0,0,-1,2008,1695,0,0
791,-671,0,0,0,0,0,0,0,0,0,-1,2015,1695,0,0
798,-671,0,0,0,0,0,0,0,0,0,-1,2022,1695,0,0
805,-671,0,0,0,0,0,0,0,0,0,-1,2029,1695,0,0
812,-671,0,0,0,0,0,0,0,0,0,-1,2036,1695,0,0
-700,-678,0,0,0,0,0,0,0,0,0,-1,524,1702,0,0
-693,-678,0,0,0,0,0,0,0,0,0,-1,531,1702,0,0
-686,-678,0,0,0,0,0,0,0,0,0,-1,538,1702,0,0
-679,-678,0,0,0,0,0,0,0,0,0,-1,545,1702,0,0
-672,-678,0,0,0,0,0,0,0,0,0,-1,552,1702,0,0
-665,-678,0,0,0,0,0,0,0,0,0,-1,559,1702,0,0
-658,-678,0,0,0,0,0,0,0,0,0,-1,566,1702,0,0
-651,-678,0,0,0,0,0,0,0,0,0,-1,573,1702,0,0
-644,-678,0,0,0,0,0,0,0,0,0,-1,580,1702,0,0
-637,-678,0,0,0,0,0,0,0,0,0,-1,587,1702,0,0
-630,-678,0,0,0,0,0,0,0,0,0,-1,594,1702,0,0
-623,-678,0,0,0,0,0,0,0,0,0,-1,601,1702,0,0
-616,-678,0,0,0,0,0,0,0,0,0,-1,608,1702,0,0
-609,-678,0,0,0,0,0,0,0,0,0,-1,615,1702,0,0
-602,-678,0,0,0,0,0,0,0,0,0,-1,622,1702,0,0
-595,-678,0,0,0,0,0,0,0,0,0,-1,629,1702,0,0
-588,-678,0,0,0,0,0,0,0,0,0,-1,636,1702,0,0
-581,-678,0,0,0,0,0,0,0,0,0,-1,643,1702,0,0
-574,-678,0,0,0,0,0,0,0,0,0,-1,650,1702,0,0
-567,-678,0,0,0,0,0,0,0,0,0,-1,657,1702,0,0
-560,-678,0,0,0,0,0,0,0,0,0,-1,664,1702,0,0
-553,-678,0,0,0,0,0,0,0,0,0,-1,671,1702,0,0
-546,-678,0,0,0,0,0,0,0,0,0,-1,678,1702,0,0
-539,-678,0,0,0,0,0,0,0,0,0,-1,685,1702,0,0
-532,-678,0,0,0,0,0,0,0,0,0,-1,692,1702,0,0
-525,-678,0,0,0,0,0,0,0,0,0,-1,699,1702,0,0
-518,-678,0,0,0,0,0,0,0,0,0,-1,706,1702,0,0
-511,-678,0,0,0,0,0,0,0,0,0,-1,713,1702,0,0
-504,-678,0,0,0,0,0,0,0,0,0,-1,720,1702,0,0
-497,-678,0,0,0,0,0,0,0,0,0,-1,727,1702,0,0
-490,-678,0,0,0,0,0,0,0,0,0,-1,734,1702,0,0
-483,-678,0,0,0,0,0,0,0,0,0,-1,741,1702,0,0
-476,-678,0,0,0,0,0,0,0,0,0,-1,748,1702,0,0
-469,-678,0,0,0,0,0,0,0,0,0,-1,755,1702,0,0
-462,-678,0,0,0,0,0,0,0,0,0,-1,762,1702,0,0
-455,-678,0,0,0,0,0,0,0,0,0,-1,769,1702,0,0
-448,-678,0,0,0,0,0,0,0,0,0,-1,776,1702,0,0
-441,-678,0,0,0,0,0,0,0,0,0,-1,783,1702,0,0
-434,-678,0,0,0,0,0,0,0,0,0,-1,790,1702,0,0
-427,-678,0,0,0,0,0,0,0,0,0,-1,797,1702,0,0
-420,-678,0,0,0,0,0,0,0,0,0,-1,804,1702,0,0
-413,-678,0,0,0,0,0,0,0,0,0,-1,811,1702,0,0
-406,-678,0,0,0,0,0,0,0,0,0,-1,818,1702,0,0
-399,-678,0,0,0,0,0,0,0,0,0,-1,825,1702,0,0
-392,-678,0,0,0,0,0,0,0,0,0,-1,832,1702,0,0
-385,-678,0,0,0,0,0,0,0,0,0,-1,839,1702,0,0
-378,-678,0,0,0,0,0,0,0,0,0,-1,846,1702,0,0
-371,-678,0,0,0,0,0,0,0,0,0,-1,853,1702,0,0
-364,-678,0,0,0,0,0,0,0,0,0,-1,860,1702,0,0
-357,-678,0,0,0,0,0,0,0,0,0,-1,867,1702,0,0
-350,-678,-5.79944,6.11865,0,0,0,0,0,0,0,-1,874,1702,-5.79942,-6.11864
-343,-678,-6.44891,4.52759,0,0,0,0,0,0,0,-1,881,1702,-6.4489,-4.52758
-336,-678,-6.91888,2.99438,0,0,0,0,0,0,0,-1,888,1702,-6.9189,-2.99435
-329,-678,-7.14575,1.29761,0,0,0,0,0,0,0,-1,895,1702,-7.14577,-1.29755
-322,-678,3.78455,20.3917,0,0,0,0,0,0,0,-1,902,1702,3.78457,-20.3917
-315,-678,4.74634,20.5468,0,0,0,0,0,0,0,-1,909,1702,4.74632,-20.5467
-308,-678,5.70428,20.3296,0,0,0,0,0,0,0,-1,916,1702,5.70429,-20.3296
-301,-678,6.60962,19.6086,0,0,0,0,0,0,0,-1,923,1702,6.60964,-19.6087
-294,-678,7.62878,18.7716,0,0,0,0,0,0,0,-1,930,1702,7.62878,-18.7717
-287,-678,5.51538,19.606,0,0,0,0,0,0,0,-1,937,1702,5.51539,-19.606
-280,-678,4.95923,20.0405,0,0,0,0,0,0,0,-1,944,1702,4.95924,-20.0405
-273,-678,5.03503,20.2787,-0.0055491,-0.00606895,-0.00392738,-0.00187305,-0.009745,-0.752355,0.00597106,0.0435833,951,1702,5.03502,-20.2787
-266,-678,5.14539,20.5175,-0.00485497,-0.00661793,-0.00352659,-0.00210136,-0.00937154,-0.662931,0.00567836,0.0353191,958,1702,5.14539,-20.5175
-259,-678,5.12323,20.7179,-0.00457536,-0.00676822,-0.00312335,-0.00236158,-0.008982,-0.616596,0.00537656,0.0252275,965,1702,5.12323,-20.7179
-252,-678,5.15021,20.8926,-0.00388722,-0.00626763,-0.00250492,-0.00230412,-0.00785073,-0.563614,0.0046597,0.0196024,972,1702,5.15018,-20.8925
-245,-678,5.20734,21.1714,-0.00293329,-0.00563902,-0.00199944,-0.00187203,-0.00670028,-0.487966,0.00399194,0.0200363,979,1702,5.20735,-21.1714
-238,-678,5.20917,21.4409,-0.0023491,-0.00459367,-0.00152303,-0.00157952,-0.00536325,-0.467873,0.00318245,0.0164286,986,1702,5.2092,-21.4409
-231,-678,5.15967,21.6901,-0.00184904,-0.00370194,-0.00101352,-0.00140235,-0.00414863,-0.415126,0.00243675,0.012916,993,1702,5.15964,-21.6901
-224,-678,5.14099,21.887,-0.0011572,-0.00300851,-0.000536931,-0.00101274,-0.00315296,-0.262812,0.00185876,0.0121307,1000,1702,5.14097,-21.887
-217,-678,5.15845,22.1328,-0.000755944,-0.00208139,-0.000282872,-0.000698099,-0.00213924,-0.201711,0.00125968,0.01376,1007,1702,5.15845,-22.1328
-210,-678,5.14746,22.4209,-0.000484253,-0.00153384,-7.36279e-05,-0.000479113,-0.00153898,-0.0696941,0.000909377,0.014935,1014,1702,5.14744,-22.4208
-203,-678,5.09705,22.5936,-0.000273366,-0.00113823,0.000126124,-0.000255349,-0.00115624,0.141895,0.000701383,0.0185911,1021,1702,5.09708,-22.5936
-196,-678,5.10315,22.8173,-0.000126109,-0.00075633,0.000323219,1.01836e-05,-0.000892623,0.39905,0.000598505,0.0179066,1028,1702,5.1031,-22.8173
-189,-678,5.12964,23.0917,1.52161e-05,-0.000479685,0.000508204,0.000333012,-0.000797481,0.558837,0.000670801,0.0104877,1035,1702,5.12969,-23.0917
-182,-678,5.12598,23.3112,5.4348e-05,-5.04422e-05,0.000640334,0.000644427,-0.000640521,0.744577,0.000741866,0.0100481,1042,1702,5.12593,-23.3112
-175,-678,5.12134,23.51,8.34719e-05,0.000464272,0.000838668,0.00113388,-0.000586137,0.89702,0.0010097,0.0110903,1049,1702,5.12133,-23.51
-168,-678,5.1261,23.7247,-2.21103e-05,0.00101155,0.00100728,0.00162685,-0.000637416,1.02243,0.00134824,0.0106956,1056,1702,5.12613,-23.7247
-161,-678,5.12061,23.9097,-0.000141512,0.00175248,0.00118367,0.00232136,-0.000710389,1.12278,0.0018309,0.00917538,1063,1702,5.12064,-23.9097
-154,-678,5.12024,24.1053,-0.000143492,0.00252113,0.00132892,0.00307059,-0.000692955,1.17873,0.00231291,0.00802654,1070,1702,5.12019,-24.1054
-147,-678,5.13147,24.3098,-8.25543e-05,0.00323848,0.00136486,0.00372741,-0.000571491,1.22681,0.00269571,0.00981611,1077,1702,5.13144,-24.3099
-140,-678,5.16675,24.491,6.20616e-05,0.00398127,0.00133407,0.00439227,-0.000348941,1.27194,0.00305115,0.0116487,1084,1702,5.16677,-24.491
-133,-678,5.17688,24.6477,0.000345462,0.00464701,0.00127231,0.00499515,-2.68361e-06,1.3037,0.003331,0.0118456,1091,1702,5.1769,-24.6477
-126,-678,5.17554,24.8402,0.000839984,0.00542013,0.0013418,0.00578427,0.000475843,1.3058,0.00370776,0.00952806,1098,1702,5.17559,-24.8402
-119,-678,5.24353,25.1249,0.0013849,0.00599748,0.00125023,0.00631455,0.00106782,1.32242,0.00390276,0.0223067,1105,1702,5.24352,-25.1249
-112,-678,5.25598,25.303,0.00204528,0.00647159,0.00111711,0.00673755,0.00177933,1.33707,0.00403167,0.0357942,1112,1702,5.25604,-25.303
-105,-678,5.28601,25.4701,0.0030076,0.00692196,0.00106733,0.00719408,0.00273549,1.32117,0.00419303,0.038669,1119,1702,5.28602,-25.4701
-98,-678,5.23279,25.4741,0.00428591,0.00685672,0.00112596,0.00728013,0.0038625,1.21111,0.0042058,0.0243016,1126,1702,5.23274,-25.4741
-91,-678,5.27783,25.5977,0.00491598,0.00715886,0.00127281,0.00773379,0.00434105,1.14653,0.00447628,0.0237292,1133,1702,5.27786,-25.5977
-84,-678,5.38367,25.8188,0,0,0,0,0,0,0,-1,1140,1702,5.38365,-25.8188
-77,-678,5.66699,26.4075,0,0,0,0,0,0,0,-1,1147,1702,5.66694,-26.4075
-70,-678,4.75891,19.6552,0,0,0,0,0,0,0,-1,1154,1702,4.75895,-19.6551
-63,-678,3.41687,11.0365,0,0,0,0,0,0,0,-1,1161,1702,3.41682,-11.0365
-56,-678,1.72388,6.13159,0,0,0,0,0,0,0,-1,1168,1702,1.72388,-6.13157
-49,-678,-0.241699,5.29895,0,0,0,0,0,0,0,-1,1175,1702,-0.241682,-5.29897
-42,-678,0.297119,3.90649,0,0,0,0,0,0,0,-1,1182,1702,0.297139,-3.90655
-35,-678,0.498413,3.64038,0,0,0,0,0,0,0,-1,1189,1702,0.498471,-3.64038
-28,-678,0.132446,3.55994,0,0,0,0,0,0,0,-1,1196,1702,0.132432,-3.55993
-21,-678,5.56592,26.629,0,0,0,0,0,0,0,-1,1203,1702,5.5659,-26.6291
-14,-678,5.64771,26.6028,0.0522343,0.101596,0.0239956,0.111338,0.0424922,1.18513,0.0648783,0.0402787,1210,1702,5.64774,-26.6028
-7,-678,5.7605,26.6969,0.0535354,0.100116,0.0239108,0.110205,0.0434466,1.17153,0.0640996,0.0443387,1217,1702,5.76053,-26.6969
0,-678,6.0072,26.9196,0.0550723,0.0978386,0.0230061,0.107864,0.0450465,1.15982,0.0625566,0.0468695,1224,1702,6.00724,-26.9196
7,-678,5.32629,26.9131,0,0,0,0,0,0,0,-1,1231,1702,5.32626,-26.9131
14,-678,5.54846,27.4613,0.057323,0.0915543,0.021532,0.101945,0.0469328,1.12121,0.0589193,0.0483026,1238,1702,5.54843,-27.4614
21,-678,5.80176,27.798,0.0582909,0.0872261,0.0210379,0.0982909,0.0472261,1.08661,0.0567627,0.0462605,1245,1702,5.8017,-27.7979
28,-678,6.05786,27.8473,0.0577153,0.0819836,0.0211349,0.0942199,0.045479,1.04599,0.0544088,0.0463002,1252,1702,6.05782,-27.8473
35,-678,6.25122,26.7664,0.055685,0.0766767,0.0215223,0.0901261,0.0422357,1.01227,0.0520684,0.040764,1259,1702,6.25119,-26.7663
42,-678,6.27466,27.1776,0.0523347,0.0718652,0.0217783,0.0859674,0.0382325,0.996157,0.0497343,0.0429537,1266,1702,6.27465,-27.1776
49,-678,6.88062,27.0552,0.0462915,0.0648416,0.0204143,0.0779891,0.0331441,0.998627,0.0451956,0.0415538,1273,1702,6.88065,-27.0551
56,-678,6.80811,26.6594,0.0398619,0.0585731,0.019233,0.0706052,0.0278298,1.01177,0.0410672,0.0432018,1280,1702,6.80809,-26.6594
63,-678,6.5354,26.8916,0.0338866,0.0520281,0.0181842,0.0632783,0.0226364,1.01675,0.0370235,0.046024,1287,1702,6.53542,-26.8916
70,-678,6.40649,27.2327,0.0276308,0.0454379,0.0173,0.055991,0.0170777,1.02305,0.0331357,0.0449746,1294,1702,6.4065,-27.2327
77,-678,6.95813,27.6536,0.0211508,0.0385313,0.0158312,0.0479006,0.0117816,1.03641,0.0288207,0.0441771,1301,1702,6.95817,-27.6536
84,-678,7.52124,26.7919,0.0143594,0.0323002,0.0144387,0.0403281,0.00633144,1.06336,0.0250432,0.0442484,1308,1702,7.52124,-26.7918
91,-678,7.3833,27.0948,0,0,0,0,0,0,0,-1,1315,1702,7.38334,-27.0948
98,-678,6.8125,27.2517,0.0068655,0.0211103,0.0110616,0.0271442,0.000831655,1.07143,0.0178254,0.0435823,1322,1702,6.81249,-27.2518
105,-678,5.07251,26.9913,0.0057322,0.0152582,0.0099438,0.0215209,-0.000530453,1.00875,0.0145273,0.0396199,1329,1702,5.07245,-26.9914
112,-678,6.61157,25.4353,0.00688756,0.00992372,0.00952683,0.0180527,-0.00124138,0.864408,0.0124695,0.040357,1336,1702,6.61157,-25.4353
119,-678,6.61255,26.1936,0.00928255,0.00551635,0.00928675,0.0168752,-0.0020763,0.685368,0.0120023,0.0410178,1343,1702,6.61254,-26.1936
126,-678,6.88843,26.6906,0.0123933,0.00178191,0.00963503,0.0180869,-0.00391169,0.533721,0.0135513,0.0452399,1350,1702,6.88841,-26.6906
133,-678,6.85278,26.8767,0,0,0,0,0,0,0,-1,1357,1702,6.85281,-26.8767
140,-678,5.75586,27.064,0,0,0,0,0,0,0,-1,1364,1702,5.75585,-27.064
147,-678,6.33142,26.9296,0,0,0,0,0,0,0,-1,1371,1702,6.33142,-26.9295
154,-678,7.24695,26.5175,0,0,0,0,0,0,0,-1,1378,1702,7.24692,-26.5174
161,-678,3.44202,4.53992,0,0,0,0,0,0,0,-1,1385,1702,3.442,-4.53996
168,-678,4.21863,5.25781,0,0,0,0,0,0,0,-1,1392,1702,4.21865,-5.25781
175,-678,5.21899,5.9635,0,0,0,0,0,0,0,-1,1399,1702,5.21894,-5.96346
182,-678,7.31262,6.75122,0,0,0,0,0,0,0,-1,1406,1702,7.3126,-6.75123
189,-678,5.96021,6.36853,0,0,0,0,0,0,0,-1,1413,1702,5.96018,-6.36851
196,-678,5.01599,8.15771,0,0,0,0,0,0,0,-1,1420,1702,5.01596,-8.15767
203,-678,4.64771,13.0559,0,0,0,0,0,0,0,-1,1427,1702,4.64766,-13.0559
210,-678,5.6532,18.5957,0,0,0,0,0,0,0,-1,1434,1702,5.65318,-18.5958
217,-678,6.88049,23.4835,0,0,0,0,0,0,0,-1,1441,1702,6.88047,-23.4835
224,-678,7.14001,26.0173,0,0,0,0,0,0,0,-1,1448,1702,7.13996,-26.0173
231,-678,7.02148,25.7249,0,0,0,0,0,0,0,-1,1455,1702,7.02152,-25.7249
238,-678,7.20984,25.761,0,0,0,0,0,0,0,-1,1462,1702,7.20979,-25.761
245,-678,7.17468,25.5781,0.00176767,-0.000166642,0.000973477,0.00217275,-0.000571729,0.394328,0.00167199,0.0461154,1469,1702,7.17462,-25.5782
252,-678,7.15515,25.3386,0.00187766,-0.000448418,0.000867608,0.00216562,-0.000736381,0.320463,0.00174189,0.0320174,1476,1702,7.15519,-25.3387
259,-678,7.16602,25.2319,0.00201666,-0.000622801,0.000772285,0.00222601,-0.00083216,0.264727,0.00182575,0.0171108,1483,1702,7.16598,-25.2319
266,-678,7.19714,25.0726,0.00211477,-0.000636699,0.000581311,0.00223255,-0.000754473,0.199895,0.00179355,0.0101642,1490,1702,7.19712,-25.0726
273,-678,7.19897,24.9164,0.00213031,-0.000667299,0.000421965,0.00219257,-0.000729559,0.14649,0.00175616,0.0100629,1497,1702,7.19898,-24.9163
280,-678,7.18689,24.7494,0.00200987,-0.000521888,0.000344554,0.00205593,-0.000567942,0.132874,0.00159402,0.0108983,1504,1702,7.18692,-24.7494
287,-678,7.20264,24.5444,0.00178754,-0.00021538,0.000268285,0.00182286,-0.000250693,0.130874,0.00130684,0.0116857,1511,1702,7.20266,-24.5444
294,-678,7.22058,24.3574,0.00153111,-1.77726e-05,0.000185046,0.00155291,-3.95734e-05,0.117272,0.00104871,0.0123515,1518,1702,7.22056,-24.3575
301,-678,7.22253,24.1895,0.00125233,9.4293e-05,0.000108708,0.00126245,8.41767e-05,0.0927918,0.000815024,0.0123499,1525,1702,7.22251,-24.1894
308,-678,7.20898,24.0065,0.000900183,0.000304083,5.33743e-05,0.000904924,0.000299342,0.0886,0.000532337,0.0135241,1532,1702,7.209,-24.0065
315,-678,7.1908,23.8153,0.000585882,0.000339843,4.17533e-05,0.000592774,0.00033295,0.163602,0.000343105,0.0144563,1539,1702,7.19076,-23.8153
322,-678,7.18018,23.6429,0.000294246,0.000364279,3.57564e-05,0.00037931,0.000279216,1.17287,0.000226988,0.0174677,1546,1702,7.18012,-23.6429
329,-678,7.17932,23.439,2.61335e-05,0.000211432,3.70163e-05,0.000218552,1.90126e-05,1.38074,0.000139796,0.0152044,1553,1702,7.17936,-23.439
336,-678,7.19873,23.2206,-0.00015982,1.49785e-05,9.973e-05,6.01865e-05,-0.000205028,1.1452,0.000160553,0.0126611,1560,1702,7.1987,-23.2206
343,-678,7.21484,23.0082,-0.000331686,-0.000382103,0.000124274,-0.00023009,-0.000483699,0.685334,0.000279374,0.0114507,1567,1702,7.21486,-23.0082
350,-678,7.22388,22.8004,-0.000498254,-0.00112437,0.000203481,-0.000437936,-0.00118469,0.288181,0.000691681,0.0115429,1574,1702,7.22382,-22.8004
357,-678,7.21936,22.5819,-0.000573494,-0.00171482,0.000298157,-0.000500299,-0.00178801,0.240733,0.00106515,0.00959041,1581,1702,7.21937,-22.582
364,-678,7.19849,22.3579,-0.000672474,-0.00260829,0.00046873,-0.00056495,-0.00271582,0.225493,0.00165469,0.0112552,1588,1702,7.1985,-22.3579
371,-678,7.17419,22.1445,-0.000755513,-0.00348902,0.000576937,-0.000638733,-0.0036058,0.199715,0.00222177,0.011988,1595,1702,7.17424,-22.1445
378,-678,7.18042,21.8752,-0.00079381,-0.00453388,0.000755153,-0.000647094,-0.0046806,0.191897,0.00292863,0.0139048,1602,1702,7.18041,-21.8753
385,-678,7.17871,21.6549,-0.000542477,-0.00513323,0.0018084,8.43147e-05,-0.00576002,0.333643,0.00386842,0.0182771,1609,1702,7.17867,-21.6549
392,-678,7.17737,21.4982,-4.87495e-06,-0.00700156,0.00359105,0.00151017,-0.00851661,0.399237,0.00624232,0.0340019,1616,1702,7.17738,-21.4982
399,-678,7.1134,21.4032,0.000421696,-0.00882692,0.00560866,0.00306659,-0.0114718,0.440649,0.008849,0.0458416,1623,1702,7.11339,-21.4031
406,-678,7.0708,21.1344,0,0,0,0,0,0,0,-1,1630,1702,7.07079,-21.1345
413,-678,7.0675,20.8914,0,0,0,0,0,0,0,-1,1637,1702,7.06746,-20.8914
420,-678,6.60071,17.4585,0,0,0,0,0,0,0,-1,1644,1702,6.60066,-17.4585
427,-678,4.57483,10.1555,0,0,0,0,0,0,0,-1,1651,1702,4.57485,-10.1555
434,-678,7.04639,19.2208,0,0,0,0,0,0,0,-1,1658,1702,7.04643,-19.2208
441,-678,6.7561,21.5529,0,0,0,0,0,0,0,-1,1665,1702,6.75608,-21.5529
448,-678,3.25525,9.74719,0,0,0,0,0,0,0,-1,1672,1702,3.25522,-9.7472
455,-678,5.44678,5.54297,0,0,0,0,0,0,0,-1,1679,1702,5.44676,-5.54294
462,-678,3.86792,2.87402,0,0,0,0,0,0,0,-1,1686,1702,3.86796,-2.87406
469,-678,2.26587,1.98755,0,0,0,0,0,0,0,-1,1693,1702,2.26592,-1.98755
476,-678,0,0,0,0,0,0,0,0,0,-1,1700,1702,0,0
483,-678,0,0,0,0,0,0,0,0,0,-1,1707,1702,0,0
490,-678,0,0,0,0,0,0,0,0,0,-1,1714,1702,0,0
497,-678,0,0,0,0,0,0,0,0,0,-1,1721,1702,0,0
504,-678,0,0,0,0,0,0,0,0,0,-1,1728,1702,0,0
511,-678,0,0,0,0,0,0,0,0,0,-1,1735,1702,0,0
518,-678,0,0,0,0,0,0,0,0,0,-1,1742,1702,0,0
525,-678,0,0,0,0,0,0,0,0,0,-1,1749,1702,0,0
532,-678,0,0,0,0,0,0,0,0,0,-1,1756,1702,0,0
539,-678,0,0,0,0,0,0,0,0,0,-1,1763,1702,0,0
546,-678,0,0,0,0,0,0,0,0,0,-1,1770,1702,0,0
553,-678,0,0,0,0,0,0,0,0,0,-1,1777,1702,0,0
560,-678,0,0,0,0,0,0,0,0,0,-1,1784,1702,0,0
567,-678,0,0,0,0,0,0,0,0,0,-1,1791,1702,0,0
574,-678,0,0,0,0,0,0,0,0,0,-1,1798,1702,0,0
581,-678,0,0,0,0,0,0,0,0,0,-1,1805,1702,0,0
588,-678,0,0,0,0,0,0,0,0,0,-1,1812,1702,0,0
595,-678,0,0,0,0,0,0,0,0,0,-1,1819,1702,0,0
602,-678,0,0,0,0,0,0,0,0,0,-1,1826,1702,0,0
609,-678,0,0,0,0,0,0,0,0,0,-1,1833,1702,0,0
616,-678,0,0,0,0,0,0,0,0,0,-1,1840,1702,0,0
623,-678,0,0,0,0,0,0,0,0,0,-1,1847,1702,0,0
630,-678,0,0,0,0,0,0,0,0,0,-1,1854,1702,0,0
637,-678,0,0,0,0,0,0,0,0,0,-1,1861,1702,0,0
644,-678,0,0,0,0,0,0,0,0,0,-1,1868,1702,0,0
651,-678,0,0,0,0,0,0,0,0,0,-1,1875,1702,0,0
658,-678,0,0,0,0,0,0,0,0,0,-1,1882,1702,0,0
665,-678,0,0,0,0,0,0,0,0,0,-1,1889,1702,0,0
672,-678,0,0,0,0,0,0,0,0,0,-1,1896,1702,0,0
679,-678,0,0,0,0,0,0,0,0,0,-1,1903,1702,0,0
686,-678,0,0,0,0,0,0,0,0,0,-1,1910,1702,0,0
693,-678,0,0,0,0,0,0,0,0,0,-1,1917,1702,0,0
700,-678,0,0,0,0,0,0,0,0,0,-1,1924,1702,0,0
707,-678,0,0,0,0,0,0,0,0,0,-1,1931,1702,0,0
714,-678,0,0,0,0,0,0,0,0,0,-1,1938,1702,0,0
721,-678,0,0,0,0,0,0,0,0,0,-1,1945,1702,0,0
728,-678,0,0,0,0,0,0,0,0,0,-1,1952,1702,0,0
735,-678,0,0,0,0,0,0,0,0,0,-1,1959,1702,0,0
742,-678,0,0,0,0,0,0,0,0,0,-1,1966,1702,0,0
749,-678,0,0,0,0,0,0,0,0,0,-1,1973,1702,0,0
756,-678,0,0,0,0,0,0,0,0,0,-1,1980,1702,0,0
763,-678,0,0,0,0,0,0,0,0,0,-1,1987,1702,0,0
770,-678,0,0,0,0,0,0,0,0,0,-1,1994,1702,0,0
777,-678,0,0,0,0,0,0,0,0,0,-1,2001,1702,0,0
784,-678,0,0,0,0,0,0,0,0,0,-1,2008,1702,0,0
791,-678,0,0,0,0,0,0,0,0,0,-1,2015,1702,0,0
798,-678,0,0,0,0,0,0,0,0,0,-1,2022,1702,0,0
805,-678,0,0,0,0,0,0,0,0,0,-1,2029,1702,0,0
812,-678,0,0,0,0,0,0,0,0,0,-1,2036,1702,0,0
-700,-685,0,0,0,0,0,0,0,0,0,-1,524,1709,0,0
-693,-685,0,0,0,0,0,0,0,0,0,-1,531,1709,0,0
-686,-685,0,0,0,0,0,0,0,0,0,-1,538,1709,0,0
-679,-685,0,0,0,0,0,0,0,0,0,-1,545,1709,0,0
-672,-685,0,0,0,0,0,0,0,0,0,-1,552,1709,0,0
-665,-685,0,0,0,0,0,0,0,0,0,-1,559,1709,0,0
-658,-685,0,0,0,0,0,0,0,0,0,-1,566,1709,0,0
-651,-685,0,0,0,0,0,0,0,0,0,-1,573,1709,0,0
-644,-685,0,0,0,0,0,0,0,0,0,-1,580,1709,0,0
-637,-685,0,0,0,0,0,0,0,0,0,-1,587,1709,0,0
-630,-685,0,0,0,0,0,0,0,0,0,-1,594,1709,0,0
-623,-685,0,0,0,0,0,0,0,0,0,-1,601,1709,0,0
-616,-685,0,0,0,0,0,0,0,0,0,-1,608,1709,0,0
-609,-685,0,0,0,0,0,0,0,0,0,-1,615,1709,0,0
-602,-685,0,0,0,0,0,0,0,0,0,-1,622,1709,0,0
-595,-685,0,0,0,0,0,0,0,0,0,-1,629,1709,0,0
-588,-685,0,0,0,0,0,0,0,0,0,-1,636,1709,0,0
-581,-685,0,0,0,0,0,0,0,0,0,-1,643,1709,0,0
-574,-685,0,0,0,0,0,0,0,0,0,-1,650,1709,0,0
-567,-685,0,0,0,0,0,0,0,0,0,-1,657,1709,0,0
-560,-685,0,0,0,0,0,0,0,0,0,-1,664,1709,0,0
-553,-685,0,0,0,0,0,0,0,0,0,-1,671,1709,0,0
-546,-685,0,0,0,0,0,0,0,0,0,-1,678,1709,0,0
-539,-685,0,0,0,0,0,0,0,0,0,-1,685,1709,0,0
-532,-685,0,0,0,0,0,0,0,0,0,-1,692,1709,0,0
-525,-685,0,0,0,0,0,0,0,0,0,-1,699,1709,0,0
-518,-685,0,0,0,0,0,0,0,0,0,-1,706,1709,0,0
-511,-685,0,0,0,0,0,0,0,0,0,-1,713,1709,0,0
-504,-685,0,0,0,0,0,0,0,0,0,-1,720,1709,0,0
-497,-685,0,0,0,0,0,0,0,0,0,-1,727,1709,0,0
-490,-685,0,0,0,0,0,0,0,0,0,-1,734,1709,0,0
-483,-685,0,0,0,0,0,0,0,0,0,-1,741,1709,0,0
-476,-685,0,0,0,0,0,0,0,0,0,-1,748,1709,0,0
-469,-685,0,0,0,0,0,0,0,0,0,-1,755,1709,0,0
-462,-685,0,0,0,0,0,0,0,0,0,-1,762,1709,0,0
-455,-685,0,0,0,0,0,0,0,0,0,-1,769,1709,0,0
-448,-685,0,0,0,0,0,0,0,0,0,-1,776,1709,0,0
-441,-685,0,0,0,0,0,0,0,0,0,-1,783,1709,0,0
-434,-685,0,0,0,0,0,0,0,0,0,-1,790,1709,0,0
-427,-685,0,0,0,0,0,0,0,0,0,-1,797,1709,0,0
-420,-685,0,0,0,0,0,0,0,0,0,-1,804,1709,0,0
-413,-685,0,0,0,0,0,0,0,0,0,-1,811,1709,0,0
-406,-685,0,0,0,0,0,0,0,0,0,-1,818,1709,0,0
-399,-685,0,0,0,0,0,0,0,0,0,-1,825,1709,0,0
-392,-685,0,0,0,0,0,0,0,0,0,-1,832,1709,0,0
-385,-685,0,0,0,0,0,0,0,0,0,-1,839,1709,0,0
-378,-685,0,0,0,0,0,0,0,0,0,-1,846,1709,0,0
-371,-685,0,0,0,0,0,0,0,0,0,-1,853,1709,0,0
-364,-685,0,0,0,0,0,0,0,0,0,-1,860,1709,0,0
-357,-685,0,0,0,0,0,0,0,0,0,-1,867,1709,0,0
-350,-685,0,0,0,0,0,0,0,0,0,-1,874,1709,0,0
-343,-685,-5.98505,6.56335,0,0,0,0,0,0,0,-1,881,1709,-5.98505,-6.56329
-336,-685,-6.51312,5.10571,0,0,0,0,0,0,0,-1,888,1709,-6.51311,-5.10575
-329,-685,-6.81384,3.34106,0,0,0,0,0,0,0,-1,895,1709,-6.81385,-3.341
-322,-685,3.83191,16.7219,0,0,0,0,0,0,0,-1,902,1709,3.8319,-16.7219
-315,-685,5.15784,21.4388,0,0,0,0,0,0,0,-1,909,1709,5.15783,-21.4389
-308,-685,6.36969,21.0303,0,0,0,0,0,0,0,-1,916,1709,6.36968,-21.0302
-301,-685,7.71271,20.1454,0,0,0,0,0,0,0,-1,923,1709,7.71272,-20.1454
-294,-685,9.35236,19.2286,0,0,0,0,0,0,0,-1,930,1709,9.35238,-19.2287
-287,-685,5.89716,20.6586,0,0,0,0,0,0,0,-1,937,1709,5.89719,-20.6586
-280,-685,5.67487,20.723,-0.00740918,-0.00787767,-0.00579157,-0.00184712,-0.0134397,-0.765186,0.00841199,0.0487034,944,1709,5.67485,-20.723
-273,-685,5.43671,20.6445,-0.00772686,-0.00911668,-0.00630607,-0.00207753,-0.014766,-0.730521,0.00922977,0.0461398,951,1709,5.43669,-20.6445
-266,-685,5.34576,20.687,-0.00675464,-0.00959818,-0.00540043,-0.00259196,-0.0137609,-0.656684,0.00844359,0.043029,958,1709,5.34575,-20.687
-259,-685,5.46729,20.8378,-0.00627124,-0.00947529,-0.00454197,-0.00305704,-0.0126895,-0.615852,0.00764711,0.0446164,965,1709,5.46729,-20.8378
-252,-685,5.54584,21.0814,-0.00521682,-0.00856934,-0.00352296,-0.00299165,-0.0107945,-0.563344,0.00643524,0.0392648,972,1709,5.54585,-21.0814
-245,-685,5.57263,21.1672,-0.00401469,-0.00756604,-0.00276624,-0.00250325,-0.00907748,-0.500065,0.00541372,0.0362075,979,1709,5.57261,-21.1672
-238,-685,5.4765,21.453,-0.00329659,-0.00619578,-0.00208295,-0.00220847,-0.0072839,-0.481403,0.00431258,0.0262414,986,1709,5.47648,-21.453
-231,-685,5.39337,21.701,-0.00263471,-0.00507756,-0.00141529,-0.00198666,-0.00572561,-0.429396,0.00335689,0.0161007,993,1709,5.39337,-21.701
-224,-685,5.38171,21.8928,-0.00175204,-0.00424777,-0.000854836,-0.00148732,-0.00451249,-0.300307,0.00265524,0.0139003,1000,1709,5.38171,-21.8928
-217,-685,5.38495,22.1663,-0.00124752,-0.00310143,-0.000585594,-0.00107804,-0.00327091,-0.281715,0.00192468,0.0108729,1007,1709,5.38495,-22.1663
-210,-685,5.3634,22.454,-0.000879425,-0.00241382,-0.000368839,-0.000795368,-0.00249787,-0.22407,0.00147351,0.014844,1014,1709,5.36341,-22.4539
-203,-685,5.34998,22.6532,-0.000516908,-0.00196901,-0.000191447,-0.000492092,-0.00199383,-0.128907,0.00119932,0.0153884,1021,1709,5.34998,-22.6532
-196,-685,5.34253,22.8512,-0.000270233,-0.00148697,-2.47916e-05,-0.000269728,-0.00148747,-0.0203642,0.000915087,0.013119,1028,1709,5.34248,-22.8512
-189,-685,5.35193,23.0702,2.87748e-05,-0.00121094,0.000123684,4.0994e-05,-0.00122316,0.0984749,0.000829443,0.00898411,1035,1709,5.35198,-23.0702
-182,-685,5.33997,23.2804,0.000211454,-0.000820146,0.000198028,0.000248162,-0.000856854,0.183286,0.000669468,0.0131589,1042,1709,5.33994,-23.2803
-175,-685,5.32776,23.5029,0.000374491,-0.00033772,0.000346777,0.000515442,-0.000478671,0.386063,0.000574082,0.0136565,1049,1709,5.32772,-23.503
-168,-685,5.33582,23.7391,0.000383126,0.000149326,0.000474517,0.000754931,-0.000222479,0.664625,0.00059156,0.0105778,1056,1709,5.33587,-23.7391
-161,-685,5.33142,23.9332,0.000355918,0.00084122,0.000619178,0.0012636,-6.64587e-05,0.972147,0.000865401,0.0110114,1063,1709,5.33144,-23.9332
-154,-685,5.33533,24.1171,0.000449751,0.00150858,0.000733518,0.00188378,7.45513e-05,1.09798,0.00123176,0.0102195,1070,1709,5.3353,-24.117
-147,-685,5.33289,24.3074,0.000554782,0.00209412,0.000762552,0.0024079,0.000240994,1.18042,0.00153127,0.00930266,1077,1709,5.33289,-24.3073
-140,-685,5.33374,24.4851,0.000715391,0.0026866,0.000751616,0.00294049,0.000461503,1.24504,0.00182604,0.0113981,1084,1709,5.33373,-24.4851
-133,-685,5.35461,24.653,0.000995194,0.00321449,0.000705049,0.00341953,0.000790152,1.28778,0.00206727,0.0102223,1091,1709,5.35459,-24.653
-126,-685,5.35681,24.8408,0.00139717,0.00383546,0.000765296,0.00405576,0.00117687,1.29052,0.00240934,0.00886337,1098,1709,5.35684,-24.8408
-119,-685,5.38159,25.0067,0.00177645,0.00430556,0.000721025,0.00449667,0.00158533,1.31169,0.00263351,0.0124382,1105,1709,5.38155,-25.0068
-112,-685,5.39331,25.1501,0.00223372,0.0046354,0.000660347,0.00480498,0.00206413,1.31941,0.00278331,0.0127651,1112,1709,5.39336,-25.1501
-105,-685,5.38086,25.3024,0.00272274,0.0048704,0.000731223,0.00509572,0.00249741,1.27188,0.00294221,0.0122574,1119,1709,5.38091,-25.3024
-98,-685,5.44165,25.4305,0.00334044,0.00489004,0.000867437,0.00527833,0.00295216,1.14992,0.00305458,0.0157222,1126,1709,5.44165,-25.4305
-91,-685,5.43835,25.5559,0.00380674,0.00498033,0.000994831,0.00554853,0.00323854,1.05186,0.00321837,0.019707,1133,1709,5.43841,-25.5559
-84,-685,5.39905,25.671,0.00446174,0.00480448,0.00118171,0.00582719,0.00343904,0.857405,0.00338252,0.0247861,1140,1709,5.3991,-25.671
-77,-685,5.58118,26.0254,0.00530451,0.00462736,0.000975567,0.00599858,0.00393328,0.618373,0.00351881,0.0389767,1147,1709,5.58122,-26.0254
-70,-685,5.8988,26.5251,0,0,0,0,0,0,0,-1,1154,1709,5.89882,-26.5252
-63,-685,5.65112,26.4916,0,0,0,0,0,0,0,-1,1161,1709,5.65112,-26.4916
-56,-685,3.93909,15.8704,0,0,0,0,0,0,0,-1,1168,1709,3.93905,-15.8704
-49,-685,3.07471,9.86011,0,0,0,0,0,0,0,-1,1175,1709,3.07467,-9.86009
-42,-685,2.70618,7.54504,0,0,0,0,0,0,0,-1,1182,1709,2.7062,-7.54504
-35,-685,2.95264,7.91516,0,0,0,0,0,0,0,-1,1189,1709,2.95262,-7.91517
-28,-685,5.72351,26.6602,0,0,0,0,0,0,0,-1,1196,1709,5.72352,-26.6602
-21,-685,5.73572,26.7437,0.034597,0.0669472,0.0172714,0.0744351,0.0271091,1.16171,0.0435003,0.0465119,1203,1709,5.73567,-26.7437
-14,-685,5.83508,26.7179,0.0377165,0.0694574,0.0159833,0.076111,0.0310628,1.17633,0.0441893,0.0286613,1210,1709,5.83511,-26.7179
-7,-685,5.8009,26.782,0.0394905,0.0692211,0.0165906,0.0766319,0.0320797,1.1507,0.0444383,0.0416483,1217,1709,5.80093,-26.7819
0,-685,5.93201,26.9364,0.0410983,0.0683394,0.0163424,0.0759931,0.0334446,1.1328,0.0439795,0.0438976,1224,1709,5.93195,-26.9364
7,-685,5.92981,27.0568,0.0421335,0.0669065,0.0159817,0.0747397,0.0343002,1.11507,0.0431995,0.0412656,1231,1709,5.92984,-27.0568
14,-685,5.80542,27.124,0.0430858,0.0647378,0.0158842,0.0731344,0.0346892,1.08452,0.0422427,0.0451492,1238,1709,5.80541,-27.124
21,-685,5.95569,27.3505,0,0,0,0,0,0,0,-1,1245,1709,5.95567,-27.3505
28,-685,6.08838,27.4255,0.0439075,0.0580471,0.0161865,0.0686404,0.0333142,0.991298,0.0396352,0.0432846,1252,1709,6.08841,-27.4256
35,-685,6.1947,27.1825,0.0425149,0.0543487,0.0167316,0.0661788,0.0306848,0.955354,0.038242,0.0462448,1259,1709,6.19474,-27.1825
42,-685,6.25488,27.3049,0.040036,0.0511391,0.0171015,0.0635675,0.0276075,0.942344,0.0368062,0.045984,1266,1709,6.25487,-27.3049
49,-685,6.3302,27.4473,0.0350332,0.0459071,0.0160814,0.0574457,0.0234945,0.948411,0.0333489,0.0461554,1273,1709,6.33018,-27.4473
56,-685,6.57568,26.9224,0.0297773,0.0412895,0.0150373,0.0516347,0.0194321,0.968188,0.0301137,0.0437675,1280,1709,6.57572,-26.9223
63,-685,6.33008,26.7433,0.0249596,0.0365073,0.0141036,0.0459732,0.0154937,0.979683,0.0270086,0.0423324,1287,1709,6.33009,-26.7432
70,-685,6.35974,27.2128,0.0198693,0.0316191,0.0133543,0.0403336,0.0111547,0.99262,0.0240492,0.0429462,1294,1709,6.3597,-27.2128
77,-685,6.5155,27.4825,0.0146097,0.026526,0.0120867,0.0340432,0.00709242,1.01439,0.0207396,0.0455787,1301,1709,6.51547,-27.4825
84,-685,6.73022,27.2893,0,0,0,0,0,0,0,-1,1308,1709,6.73019,-27.2893
91,-685,6.94067,27.2491,0,0,0,0,0,0,0,-1,1315,1709,6.94071,-27.2492
98,-685,6.69189,27.2611,0.00307494,0.0141822,0.00786303,0.0182551,-0.000997964,1.09287,0.012516,0.0429593,1322,1709,6.69192,-27.2611
105,-685,5.5719,26.9855,0.00219563,0.0100084,0.00679759,0.0139421,-0.0017381,1.04619,0.00992494,0.039519,1329,1709,5.57187,-26.9855
112,-685,6.19055,26.9097,0,0,0,0,0,0,0,-1,1336,1709,6.19056,-26.9097
119,-685,6.62524,26.285,0.00523694,0.00311823,0.00611788,0.0103865,-0.00203134,0.69967,0.00769139,0.0396966,1343,1709,6.62523,-26.2851
126,-685,6.6759,26.7219,0.00744081,0.000615817,0.00633023,0.0112198,-0.00316314,0.538188,0.00872743,0.0457968,1350,1709,6.67594,-26.7219
133,-685,6.73425,26.8606,0.0102142,-0.00169738,0.00625035,0.0128919,-0.00437515,0.404763,0.0103655,0.0491463,1357,1709,6.73427,-26.8605
140,-685,6.29272,27.0286,0,0,0,0,0,0,0,-1,1364,1709,6.29274,-27.0286
147,-685,6.43347,26.9294,0,0,0,0,0,0,0,-1,1371,1709,6.4335,-26.9294
154,-685,6.66553,27.0834,0,0,0,0,0,0,0,-1,1378,1709,6.66547,-27.0834
161,-685,6.89587,26.9038,0,0,0,0,0,0,0,-1,1385,1709,6.89584,-26.9038
168,-685,4.37524,10.8778,0,0,0,0,0,0,0,-1,1392,1709,4.37525,-10.8778
175,-685,3.97522,8.94324,0,0,0,0,0,0,0,-1,1399,1709,3.97519,-8.94328
182,-685,3.98218,9.19739,0,0,0,0,0,0,0,-1,1406,1709,3.98221,-9.1974
189,-685,4.53479,15.2343,0,0,0,0,0,0,0,-1,1413,1709,4.53474,-15.2343
196,-685,6.82019,26.6104,0,0,0,0,0,0,0,-1,1420,1709,6.8202,-26.6104
203,-685,6.89209,26.339,0,0,0,0,0,0,0,-1,1427,1709,6.89211,-26.339
210,-685,6.99536,26.1951,0,0,0,0,0,0,0,-1,1434,1709,6.99531,-26.1951
217,-685,6.953,26.0061,0,0,0,0,0,0,0,-1,1441,1709,6.953,-26.0061
224,-685,7.02307,25.9773,0.000752697,0.000137908,0.00168564,0.00215874,-0.00126814,0.695209,0.00200066,0.0281745,1448,1709,7.02305,-25.9773
231,-685,6.94812,25.7814,0.000905422,-0.00012934,0.00124609,0.00173727,-0.000961194,0.588627,0.00157929,0.0191493,1455,1709,6.94815,-25.7814
238,-685,6.98645,25.6101,0.00111908,-0.000255219,0.000963183,0.0016151,-0.000751241,0.475561,0.00139623,0.0189895,1462,1709,6.98642,-25.6101
245,-685,6.974,25.4725,0.00118868,-0.000245609,0.000818343,0.00155964,-0.000616574,0.425605,0.00129517,0.0195483,1469,1709,6.97395,-25.4726
252,-685,6.97766,25.36,0.00130599,-0.000385372,0.000645719,0.00152432,-0.000603707,0.326058,0.00126636,0.0144207,1476,1709,6.97767,-25.3599
259,-685,7.00745,25.2299,0.0014351,-0.000451402,0.000499836,0.00155935,-0.000575653,0.243644,0.00127551,0.0102134,1483,1709,7.00744,-25.2298
266,-685,7.02661,25.0768,0.0015182,-0.000406495,0.000305429,0.0015655,-0.000453801,0.153662,0.00122332,0.0103111,1490,1709,7.02662,-25.0768
273,-685,7.0332,24.9152,0.00152034,-0.000326688,0.000137597,0.00153054,-0.000336882,0.0739522,0.00114923,0.0117719,1497,1709,7.03323,-24.9152
280,-685,7.01697,24.7401,0.00147654,-0.00019011,9.84419e-06,0.0014766,-0.000190168,0.0059063,0.00105352,0.0137607,1504,1709,7.01698,-24.7401
287,-685,7.00769,24.5713,0.00132396,-1.62361e-06,-4.30776e-05,0.00132536,-3.02203e-06,-0.0324513,0.000884584,0.0120591,1511,1709,7.00768,-24.5713
294,-685,7.02124,24.4022,0.00110664,0.000171234,-0.000129745,0.0011243,0.000153571,-0.135303,0.000703951,0.0104626,1518,1709,7.02119,-24.4022
301,-685,7.0144,24.1954,0.000824729,0.000258879,-0.000208629,0.000893333,0.000190275,-0.317694,0.000543351,0.0123889,1525,1709,7.0144,-24.1954
308,-685,7.02039,23.9907,0.00047188,0.000385298,-0.000238652,0.000671135,0.000186042,-0.695675,0.000400097,0.0139126,1532,1709,7.02037,-23.9908
315,-685,7.02966,23.8167,0.000163715,0.000333114,-0.000212724,0.000477381,1.9448e-05,-0.97486,0.000311973,0.0127884,1539,1709,7.0297,-23.8166
322,-685,7.00256,23.6251,-0.000131098,0.000280704,-0.000186065,0.000352319,-0.000202713,-1.20338,0.000324305,0.0210429,1546,1709,7.00254,-23.6251
329,-685,6.98914,23.436,-0.000423114,4.93724e-05,-0.000135789,8.56168e-05,-0.000459359,-1.30996,0.000338408,0.0185939,1553,1709,6.98915,-23.436
336,-685,7.00415,23.215,-0.000605094,-0.000232796,-3.38016e-05,-0.000229752,-0.000608138,-1.48098,0.000354587,0.0123173,1560,1709,7.00417,-23.215
343,-685,7.0072,23.0004,-0.000794581,-0.000717377,4.34865e-05,-0.000697831,-0.000814127,1.14838,0.000508439,0.0114493,1567,1709,7.00724,-23.0004
350,-685,7.00159,22.7802,-0.00101319,-0.00158723,0.000209827,-0.000944675,-0.00165575,0.315635,0.000959112,0.0124168,1574,1709,7.00159,-22.7802
357,-685,7.005,22.573,-0.0011029,-0.00230701,0.000384469,-0.000990613,-0.0024193,0.284159,0.00140439,0.0100056,1581,1709,7.00506,-22.573
364,-685,6.98572,22.3593,-0.00118874,-0.00335682,0.000641941,-0.00101292,-0.00353264,0.267322,0.0021005,0.00934168,1588,1709,6.98567,-22.3592
371,-685,7.00024,22.1224,-0.00124717,-0.00441121,0.00082907,-0.00104309,-0.00461529,0.241354,0.00279482,0.0156601,1595,1709,7.0002,-22.1224
378,-685,6.94165,21.9213,-0.00127009,-0.00575716,0.00111042,-0.00101033,-0.00601692,0.229797,0.00372052,0.0249033,1602,1709,6.94163,-21.9212
385,-685,6.901,21.6931,-0.000904143,-0.00661205,0.00239701,-3.10719e-05,-0.00748512,0.349298,0.00497975,0.0434396,1609,1709,6.90101,-21.6931
392,-685,7.08044,21.6124,-0.000159477,-0.00876298,0.00458066,0.00182268,-0.0107451,0.408394,0.00784191,0.0442968,1616,1709,7.08044,-21.6124
399,-685,7.0238,21.6257,0.000422177,-0.011095,0.0071736,0.00386261,-0.0145354,0.447192,0.011202,0.0468332,1623,1709,7.02386,-21.6258
406,-685,6.92969,21.3713,0,0,0,0,0,0,0,-1,1630,1709,6.92972,-21.3714
413,-685,6.13098,16.2029,0,0,0,0,0,0,0,-1,1637,1709,6.13099,-16.2029
420,-685,4.84631,10.3781,0,0,0,0,0,0,0,-1,1644,1709,4.84634,-10.378
427,-685,6.05151,9.21155,0,0,0,0,0,0,0,-1,1651,1709,6.05156,-9.21156
434,-685,4.87769,8.91418,0,0,0,0,0,0,0,-1,1658,1709,4.87768,-8.91413
441,-685,5.62,8.75549,0,0,0,0,0,0,0,-1,1665,1709,5.61996,-8.75545
448,-685,6.4043,8.58972,0,0,0,0,0,0,0,-1,1672,1709,6.40435,-8.58971
455,-685,2.31958,4.09802,0,0,0,0,0,0,0,-1,1679,1709,2.31957,-4.09803
462,-685,0,0,0,0,0,0,0,0,0,-1,1686,1709,0,0
469,-685,0,0,0,0,0,0,0,0,0,-1,1693,1709,0,0
476,-685,0,0,0,0,0,0,0,0,0,-1,1700,1709,0,0
483,-685,0,0,0,0,0,0,0,0,0,-1,1707,1709,0,0
490,-685,0,0,0,0,0,0,0,0,0,-1,1714,1709,0,0
497,-685,0,0,0,0,0,0,0,0,0,-1,1721,1709,0,0
504,-685,0,0,0,0,0,0,0,0,0,-1,1728,1709,0,0
511,-685,0,0,0,0,0,0,0,0,0,-1,1735,1709,0,0
518,-685,0,0,0,0,0,0,0,0,0,-1,1742,1709,0,0
525,-685,0,0,0,0,0,0,0,0,0,-1,1749,1709,0,0
532,-685,0,0,0,0,0,0,0,0,0,-1,1756,1709,0,0
539,-685,0,0,0,0,0,0,0,0,0,-1,1763,1709,0,0
546,-685,0,0,0,0,0,0,0,0,0,-1,1770,1709,0,0
553,-685,0,0,0,0,0,0,0,0,0,-1,1777,1709,0,0
560,-685,0,0,0,0,0,0,0,0,0,-1,1784,1709,0,0
567,-685,0,0,0,0,0,0,0,0,0,-1,1791,1709,0,0
574,-685,0,0,0,0,0,0,0,0,0,-1,1798,1709,0,0
581,-685,0,0,0,0,0,0,0,0,0,-1,1805,1709,0,0
588,-685,0,0,0,0,0,0,0,0,0,-1,1812,1709,0,0
595,-685,0,0,0,0,0,0,0,0,0,-1,1819,1709,0,0
602,-685,0,0,0,0,0,0,0,0,0,-1,1826,1709,0,0
609,-685,0,0,0,0,0,0,0,0,0,-1,1833,1709,0,0
616,-685,0,0,0,0,0,0,0,0,0,-1,1840,1709,0,0
623,-685,0,0,0,0,0,0,0,0,0,-1,1847,1709,0,0
630,-685,0,0,0,0,0,0,0,0,0,-1,1854,1709,0,0
637,-685,0,0,0,0,0,0,0,0,0,-1,1861,1709,0,0
644,-685,0,0,0,0,0,0,0,0,0,-1,1868,1709,0,0
651,-685,0,0,0,0,0,0,0,0,0,-1,1875,1709,0,0
658,-685,0,0,0,0,0,0,0,0,0,-1,1882,1709,0,0
665,-685,0,0,0,0,0,0,0,0,0,-1,1889,1709,0,0
672,-685,0,0,0,0,0,0,0,0,0,-1,1896,1709,0,0
679,-685,0,0,0,0,0,0,0,0,0,-1,1903,1709,0,0
686,-685,0,0,0,0,0,0,0,0,0,-1,1910,1709,0,0
693,-685,0,0,0,0,0,0,0,0,0,-1,1917,1709,0,0
700,-685,0,0,0,0,0,0,0,0,0,-1,1924,1709,0,0
707,-685,0,0,0,0,0,0,0,0,0,-1,1931,1709,0,0
714,-685,0,0,0,0,0,0,0,0,0,-1,1938,1709,0,0
721,-685,0,0,0,0,0,0,0,0,0,-1,1945,1709,0,0
728,-685,0,0,0,0,0,0,0,0,0,-1,1952,1709,0,0
735,-685,0,0,0,0,0,0,0,0,0,-1,1959,1709,0,0
742,-685,0,0,0,0,0,0,0,0,0,-1,1966,1709,0,0
749,-685,0,0,0,0,0,0,0,0,0,-1,1973,1709,0,0
756,-685,0,0,0,0,0,0,0,0,0,-1,1980,1709,0,0
763,-685,0,0,0,0,0,0,0,0,0,-1,1987,1709,0,0
770,-685,0,0,0,0,0,0,0,0,0,-1,1994,1709,0,0
777,-685,0,0,0,0,0,0,0,0,0,-1,2001,1709,0,0
784,-685,0,0,0,0,0,0,0,0,0,-1,2008,1709,0,0
791,-685,0,0,0,0,0,0,0,0,0,-1,2015,1709,0,0
798,-685,0,0,0,0,0,0,0,0,0,-1,2022,1709,0,0
805,-685,0,0,0,0,0,0,0,0,0,-1,2029,1709,0,0
812,-685,0,0,0,0,0,0,0,0,0,-1,2036,1709,0,0
-700,-692,0,0,0,0,0,0,0,0,0,-1,524,1716,0,0
-693,-692,0,0,0,0,0,0,0,0,0,-1,531,1716,0,0
-686,-692,0,0,0,0,0,0,0,0,0,-1,538,1716,0,0
-679,-692,0,0,0,0,0,0,0,0,0,-1,545,1716,0,0
-672,-692,0,0,0,0,0,0,0,0,0,-1,552,1716,0,0
-665,-692,0,0,0,0,0,0,0,0,0,-1,559,1716,0,0
-658,-692,0,0,0,0,0,0,0,0,0,-1,566,1716,0,0
-651,-692,0,0,0,0,0,0,0,0,0,-1,573,1716,0,0
-644,-692,0,0,0,0,0,0,0,0,0,-1,580,1716,0,0
-637,-692,0,0,0,0,0,0,0,0,0,-1,587,1716,0,0
-630,-692,0,0,0,0,0,0,0,0,0,-1,594,1716,0,0
-623,-692,0,0,0,0,0,0,0,0,0,-1,601,1716,0,0
-616,-692,0,0,0,0,0,0,0,0,0,-1,608,1716,0,0
-609,-692,0,0,0,0,0,0,0,0,0,-1,615,1716,0,0
-602,-692,0,0,0,0,0,0,0,0,0,-1,622,1716,0,0
-595,-692,0,0,0,0,0,0,0,0,0,-1,629,1716,0,0
-588,-692,0,0,0,0,0,0,0,0,0,-1,636,1716,0,0
-581,-692,0,0,0,0,0,0,0,0,0,-1,643,1716,0,0
-574,-692,0,0,0,0,0,0,0,0,0,-1,650,1716,0,0
-567,-692,0,0,0,0,0,0,0,0,0,-1,657,1716,0,0
-560,-692,0,0,0,0,0,0,0,0,0,-1,664,1716,0,0
-553,-692,0,0,0,0,0,0,0,0,0,-1,671,1716,0,0
-546,-692,0,0,0,0,0,0,0,0,0,-1,678,1716,0,0
-539,-692,0,0,0,0,0,0,0,0,0,-1,685,1716,0,0
-532,-692,0,0,0,0,0,0,0,0,0,-1,692,1716,0,0
-525,-692,0,0,0,0,0,0,0,0,0,-1,699,1716,0,0
-518,-692,0,0,0,0,0,0,0,0,0,-1,706,1716,0,0
-511,-692,0,0,0,0,0,0,0,0,0,-1,713,1716,0,0
-504,-692,0,0,0,0,0,0,0,0,0,-1,720,1716,0,0
-497,-692,0,0,0,0,0,0,0,0,0,-1,727,1716,0,0
-490,-692,0,0,0,0,0,0,0,0,0,-1,734,1716,0,0
-483,-692,0,0,0,0,0,0,0,0,0,-1,741,1716,0,0
-476,-692,0,0,0,0,0,0,0,0,0,-1,748,1716,0,0
-469,-692,0,0,0,0,0,0,0,0,0,-1,755,1716,0,0
-462,-692,0,0,0,0,0,0,0,0,0,-1,762,1716,0,0
-455,-692,0,0,0,0,0,0,0,0,0,-1,769,1716,0,0
-448,-692,0,0,0,0,0,0,0,0,0,-1,776,1716,0,0
-441,-692,0,0,0,0,0,0,0,0,0,-1,783,1716,0,0
-434,-692,0,0,0,0,0,0,0,0,0,-1,790,1716,0,0
-427,-692,0,0,0,0,0,0,0,0,0,-1,797,1716,0,0
-420,-692,0,0,0,0,0,0,0,0,0,-1,804,1716,0,0
-413,-692,0,0,0,0,0,0,0,0,0,-1,811,1716,0,0
-406,-692,0,0,0,0,0,0,0,0,0,-1,818,1716,0,0
-399,-692,0,0,0,0,0,0,0,0,0,-1,825,1716,0,0
-392,-692,0,0,0,0,0,0,0,0,0,-1,832,1716,0,0
-385,-692,0,0,0,0,0,0,0,0,0,-1,839,1716,0,0
-378,-692,0,0,0,0,0,0,0,0,0,-1,846,1716,0,0
-371,-692,0,0,0,0,0,0,0,0,0,-1,853,1716,0,0
-364,-692,0,0,0,0,0,0,0,0,0,-1,860,1716,0,0
-357,-692,0,0,0,0,0,0,0,0,0,-1,867,1716,0,0
-350,-692,0,0,0,0,0,0,0,0,0,-1,874,1716,0,0
-343,-692,0,0,0,0,0,0,0,0,0,-1,881,1716,0,0
-336,-692,0,0,0,0,0,0,0,0,0,-1,888,1716,0,0
-329,-692,3.03107,4.10266,0,0,0,0,0,0,0,-1,895,1716,3.03105,-4.10267
-322,-692,4.43713,18.5242,0,0,0,0,0,0,0,-1,902,1716,4.43711,-18.5241
-315,-692,5.38965,17.975,0,0,0,0,0,0,0,-1,909,1716,5.38963,-17.975
-308,-692,5.86938,17.4392,0,0,0,0,0,0,0,-1,916,1716,5.86937,-17.4392
-301,-692,8.65558,20.7662,0,0,0,0,0,0,0,-1,923,1716,8.65556,-20.7663
-294,-692,6.66138,19.0796,0,0,0,0,0,0,0,-1,930,1716,6.66141,-19.0796
-287,-692,6.2439,20.583,0,0,0,0,0,0,0,-1,937,1716,6.24392,-20.5831
-280,-692,5.9989,20.6787,0,0,0,0,0,0,0,-1,944,1716,5.99889,-20.6787
-273,-692,5.82959,20.8719,0,0,0,0,0,0,0,-1,951,1716,5.82961,-20.872
-266,-692,5.70532,20.6945,0,0,0,0,0,0,0,-1,958,1716,5.70533,-20.6944
-259,-692,5.86511,20.863,0,0,0,0,0,0,0,-1,965,1716,5.86511,-20.8631
-252,-692,6.11841,20.7556,0,0,0,0,0,0,0,-1,972,1716,6.11838,-20.7556
-245,-692,6.00146,21.1115,-0.00517228,-0.00986952,-0.00376412,-0.00308417,-0.0119576,-0.506477,0.00716838,0.0493064,979,1716,6.00146,-21.1115
-238,-692,5.80243,21.4398,-0.00424621,-0.00814708,-0.00280934,-0.00277662,-0.00961667,-0.481964,0.00571501,0.0423555,986,1716,5.80243,-21.4398
-231,-692,5.71021,21.7122,-0.00330987,-0.00683704,-0.00193294,-0.00245688,-0.00769004,-0.41559,0.00453527,0.0337557,993,1716,5.71018,-21.7122
-224,-692,5.61157,21.9081,-0.00216431,-0.0058639,-0.00126574,-0.00177271,-0.0062555,-0.300042,0.00372288,0.0176571,1000,1716,5.6116,-21.908
-217,-692,5.58295,22.1674,-0.00158321,-0.00448572,-0.000943129,-0.00130368,-0.00476526,-0.288142,0.0028437,0.0121276,1007,1716,5.58298,-22.1673
-210,-692,5.58752,22.4225,-0.00118275,-0.00362919,-0.000670658,-0.00101096,-0.00380098,-0.250758,0.00227321,0.0131183,1014,1716,5.5875,-22.4225
-203,-692,5.58923,22.6383,-0.000771566,-0.00305196,-0.00047687,-0.00067586,-0.00314767,-0.198063,0.00191337,0.0149701,1021,1716,5.58919,-22.6384
-196,-692,5.57043,22.8839,-0.000517779,-0.00239853,-0.000297126,-0.000471955,-0.00244435,-0.153019,0.00149725,0.0171056,1028,1716,5.57041,-22.8839
-189,-692,5.5448,23.0492,-0.000164362,-0.00204308,-0.000131731,-0.00015517,-0.00205227,-0.0696632,0.0013195,0.00927917,1035,1716,5.54486,-23.0492
-182,-692,5.53308,23.2584,5.30387e-05,-0.00160587,-5.55633e-05,5.48977e-05,-0.00160773,-0.0334438,0.00109058,0.0136856,1042,1716,5.53303,-23.2584
-175,-692,5.52026,23.5033,0.000240705,-0.00107876,0.000102683,0.000248648,-0.0010867,0.0772024,0.000820015,0.0146664,1049,1716,5.52025,-23.5033
-168,-692,5.52612,23.7357,0.000262232,-0.000576658,0.00024562,0.000328856,-0.000643282,0.264876,0.000570966,0.0113974,1056,1716,5.52611,-23.7357
-161,-692,5.53247,23.941,0.000242905,0.000165047,0.000404168,0.000610015,-0.000202063,0.737387,0.000488175,0.0132524,1063,1716,5.53242,-23.941
-154,-692,5.53162,24.1418,0.000361227,0.000807757,0.000532942,0.00116231,6.67333e-06,0.983757,0.000772659,0.0143897,1070,1716,5.53166,-24.1418
-147,-692,5.52966,24.3152,0.000450829,0.00132334,0.000593672,0.00162381,0.000150358,1.10226,0.00103606,0.0137684,1077,1716,5.52968,-24.3151
-140,-692,5.52698,24.4797,0.000606314,0.00182564,0.000631752,0.00209393,0.000338025,1.1692,0.00129803,0.0102478,1084,1716,5.52694,-24.4798
-133,-692,5.53223,24.6549,0.000884295,0.00228457,0.000611935,0.0025143,0.000654563,1.21166,0.00150619,0.00908929,1091,1716,5.53219,-24.6549
-126,-692,5.53564,24.8351,0.00121147,0.00282625,0.000659303,0.00306124,0.00097648,1.22841,0.0018056,0.00787888,1098,1716,5.53559,-24.835
-119,-692,5.53613,25.0049,0.00147918,0.00326086,0.000647209,0.00347115,0.0012689,1.25665,0.00202807,0.0116271,1105,1716,5.53613,-25.0049
-112,-692,5.54382,25.1523,0.00180505,0.0035322,0.000631752,0.00373862,0.00159864,1.255,0.00216602,0.011149,1112,1716,5.54379,-25.1523
-105,-692,5.57764,25.3074,0.00211741,0.00369581,0.000673233,0.00394395,0.00186927,1.21766,0.00227807,0.0154715,1119,1716,5.57759,-25.3074
-98,-692,5.61768,25.4161,0.00246823,0.00375949,0.000768517,0.00411758,0.00211014,1.13476,0.00237753,0.0165558,1126,1716,5.61767,-25.4162
-91,-692,5.59619,25.5621,0.00283364,0.00377581,0.000863657,0.0042885,0.00232095,1.03507,0.00247877,0.0189465,1133,1716,5.59622,-25.5621
-84,-692,5.59705,25.7311,0.00332231,0.00363193,0.00100197,0.00449098,0.00246326,0.862045,0.00259693,0.0216271,1140,1716,5.59706,-25.7311
-77,-692,5.60388,25.9008,0.00395597,0.00353093,0.000848995,0.00461864,0.00286826,0.662759,0.00269248,0.0158911,1147,1716,5.60392,-25.9007
-70,-692,5.65869,26.1088,0.00437766,0.00342281,0.000447594,0.00455467,0.00324581,0.376579,0.00270774,0.0285866,1154,1716,5.65865,-26.1088
-63,-692,5.69519,26.1785,0.00504517,0.00241545,2.34755e-05,0.00504537,0.00241524,0.00892604,0.00291383,0.0461605,1161,1716,5.69516,-26.1785
-56,-692,5.64819,26.2213,0,0,0,0,0,0,0,-1,1168,1716,5.64822,-26.2214
-49,-692,5.6532,26.4031,0,0,0,0,0,0,0,-1,1175,1716,5.65323,-26.403
-42,-692,5.74609,26.5426,0,0,0,0,0,0,0,-1,1182,1716,5.74612,-26.5426
-35,-692,5.80896,26.7839,0,0,0,0,0,0,0,-1,1189,1716,5.80899,-26.7839
-28,-692,5.74841,26.7682,0.0195059,0.0370596,0.0098045,0.0414418,0.0151237,1.15047,0.0242157,0.0466801,1196,1716,5.74842,-26.7682
-21,-692,5.86328,26.6744,0.0225225,0.040835,0.0104535,0.0455752,0.0177823,1.14507,0.0265236,0.0310488,1203,1716,5.86333,-26.6744
-14,-692,5.86926,26.7312,0.025199,0.0432078,0.0096726,0.0474185,0.0209883,1.16022,0.0274371,0.0166559,1210,1716,5.86921,-26.7311
-7,-692,5.85181,26.8562,0.0270299,0.0437098,0.0105461,0.0488151,0.0219246,1.11995,0.028232,0.0162966,1217,1716,5.85184,-26.8562
0,-692,5.89319,26.9567,0.0285826,0.0438196,0.010729,0.0493599,0.0230423,1.09413,0.0285188,0.0189127,1224,1716,5.89316,-26.9567
7,-692,5.9364,27.0251,0.0294753,0.043325,0.0107595,0.0491954,0.0236048,1.07133,0.0284107,0.0226427,1231,1716,5.9364,-27.0252
14,-692,5.98352,27.1503,0.030271,0.0421079,0.0109337,0.0486222,0.0237566,1.03347,0.0280745,0.0250499,1238,1716,5.98353,-27.1502
21,-692,6.04651,27.1539,0.031222,0.0401318,0.0110691,0.0476088,0.023745,0.976713,0.027487,0.0269068,1245,1716,6.04648,-27.1539
28,-692,6.07568,27.119,0.0312193,0.0375756,0.0116699,0.0464923,0.0223025,0.918344,0.0268497,0.0281435,1252,1716,6.07574,-27.119
35,-692,6.09998,27.1478,0.0303302,0.0351195,0.0122784,0.0452346,0.0202151,0.881704,0.0261652,0.0266717,1259,1716,6.09995,-27.1479
42,-692,6.16919,27.2762,0.0285901,0.0330911,0.0127111,0.0437494,0.0179318,0.873015,0.0253952,0.0232323,1266,1716,6.16916,-27.2763
49,-692,6.224,27.3129,0.0245859,0.0293479,0.0120181,0.0392186,0.0147152,0.883192,0.0228767,0.0263394,1273,1716,6.22404,-27.3129
56,-692,6.25854,27.235,0.0204642,0.0261042,0.0111555,0.0347906,0.0117777,0.9092,0.0204325,0.0323073,1280,1716,6.25852,-27.2349
63,-692,6.25488,27.2633,0.0168236,0.0228883,0.0104025,0.0306914,0.00902049,0.92722,0.0182145,0.0309651,1287,1716,6.2549,-27.2633
70,-692,6.2998,27.3877,0.0129522,0.0195526,0.00982652,0.0266183,0.0058865,0.947405,0.0161451,0.0269607,1294,1716,6.29986,-27.3877
77,-692,6.38965,27.3904,0.00898767,0.0161333,0.00881396,0.022071,0.00304991,0.977956,0.0138101,0.0323351,1301,1716,6.38969,-27.3904
84,-692,6.49902,27.2479,0.00489667,0.0130385,0.00787623,0.0178336,0.000101495,1.02392,0.0118554,0.0403599,1308,1716,6.49898,-27.2479
91,-692,6.53333,27.2649,0.00220407,0.0104176,0.00716612,0.0145703,-0.00194863,1.04559,0.010424,0.0365843,1315,1716,6.53339,-27.2649
98,-692,6.47864,27.2712,0.000528764,0.00830481,0.00532256,0.0110082,-0.0021746,1.10084,0.00816081,0.0300708,1322,1716,6.4786,-27.2712
105,-692,6.30005,27.1652,2.734e-05,0.00557244,0.00439411,0.00799558,-0.00239581,1.06684,0.00628314,0.0371988,1329,1716,6.30004,-27.1652
112,-692,6.32458,27.059,0.00107189,0.00308424,0.00400473,0.00620726,-0.00205113,0.908474,0.00496517,0.0388457,1336,1716,6.3246,-27.0589
119,-692,6.43494,27.033,0.00279907,0.00124641,0.00382339,0.00592415,-0.00187867,0.685236,0.00470246,0.0330574,1343,1716,6.43492,-27.033
126,-692,6.48877,26.9917,0.00438017,-0.000310058,0.00394921,0.00662808,-0.00255796,0.517467,0.00547434,0.0334894,1350,1716,6.48877,-26.9917
133,-692,6.56567,26.9661,0.0064245,-0.00177002,0.00375721,0.00788639,-0.00323191,0.371065,0.00660399,0.0251752,1357,1716,6.5657,-26.9661
140,-692,6.5376,26.9905,0.00881801,-0.00303292,0.0036477,0.00985076,-0.00406567,0.275904,0.00826283,0.0282762,1364,1716,6.53757,-26.9905
147,-692,6.56116,26.995,0.0109167,-0.00407846,0.00396581,0.0119009,-0.00506271,0.243268,0.0100557,0.0323264,1371,1716,6.56111,-26.995
154,-692,6.55481,26.9586,0.0140545,-0.00333911,0.00552569,0.0156614,-0.00494608,0.283012,0.0124223,0.0285519,1378,1716,6.55476,-26.9586
161,-692,6.69885,26.8628,0.0143449,-0.00249936,0.00584236,0.0161729,-0.00432737,0.30324,0.0124771,0.0386357,1385,1716,6.69881,-26.8627
168,-692,6.63672,26.7778,0,0,0,0,0,0,0,-1,1392,1716,6.6367,-26.7779
175,-692,6.74475,26.6736,0,0,0,0,0,0,0,-1,1399,1716,6.74477,-26.6736
182,-692,6.71875,26.5349,0,0,0,0,0,0,0,-1,1406,1716,6.7188,-26.535
189,-692,6.80457,26.5092,0,0,0,0,0,0,0,-1,1413,1716,6.80454,-26.5092
196,-692,6.74048,26.3633,0.0024816,0.00162283,0.00207534,0.00417151,-6.7079e-05,0.683389,0.00280363,0.0353915,1420,1716,6.74052,-26.3633
203,-692,6.73865,26.2748,0.00208182,0.000876098,0.00205351,0.00361913,-0.00066122,0.642622,0.00266069,0.0215213,1427,1716,6.73864,-26.2747
210,-692,6.79089,26.1671,0.00163321,0.000517767,0.00200396,0.00315561,-0.00100463,0.649678,0.00250665,0.0177301,1434,1716,6.7909,-26.1671
217,-692,6.79492,26.04,0.00117155,0.000117578,0.00174627,0.00246861,-0.00117949,0.638855,0.00214962,0.0163869,1441,1716,6.79492,-26.0401
224,-692,6.81677,25.9489,0.000934946,4.6489e-06,0.00154945,0.00208756,-0.00114796,0.639577,0.0018941,0.0123008,1448,1716,6.8168,-25.9489
231,-692,6.80078,25.8231,0.000900349,-0.000144475,0.00115077,0.00164173,-0.000885857,0.572323,0.0014809,0.0110665,1455,1716,6.80076,-25.8231
238,-692,6.81506,25.6273,0.000945585,-0.00018152,0.000837885,0.00139181,-0.000627741,0.489352,0.00119348,0.0170218,1462,1716,6.81511,-25.6273
245,-692,6.79858,25.4822,0.000945491,-0.000115258,0.000584606,0.00120446,-0.000374226,0.416999,0.000952542,0.0196539,1469,1716,6.79857,-25.4821
252,-692,6.81702,25.3652,0.00097511,-0.000105463,0.000316767,0.00106112,-0.000191476,0.265141,0.000779123,0.0183478,1476,1716,6.81697,-25.3653
259,-692,6.84546,25.2162,0.001013,-4.18401e-05,9.44463e-05,0.00102139,-5.02298e-05,0.0885972,0.000698271,0.00987342,1483,1716,6.84542,-25.2162
266,-692,6.84863,25.0662,0.00102304,8.81609e-05,-0.000134626,0.00104204,6.91605e-05,-0.140208,0.000672828,0.00900822,1490,1716,6.84859,-25.0662
273,-692,6.84851,24.9113,0.00097575,0.000294387,-0.000321603,0.00110357,0.000166568,-0.3783,0.000686954,0.0123468,1497,1716,6.84854,-24.9113
280,-692,6.86035,24.7432,0.000897946,0.00047252,-0.000469797,0.00120094,0.000169523,-0.572818,0.000750529,0.0127871,1504,1716,6.86033,-24.7432
287,-692,6.85205,24.5858,0.000749048,0.000556332,-0.000475056,0.00113742,0.000167961,-0.685338,0.000708956,0.0114992,1511,1716,6.85208,-24.5859
294,-692,6.84546,24.4202,0.000546914,0.000691392,-0.000534925,0.00115893,7.93725e-05,-0.852515,0.000747571,0.0104808,1518,1716,6.84552,-24.4202
301,-692,6.8407,24.2321,0.000241613,0.000742081,-0.000573911,0.00111794,-0.000134245,-0.99098,0.000793834,0.0130001,1525,1716,6.84067,-24.232
308,-692,6.82849,24.0475,-0.000134576,0.00074917,-0.000543457,0.00100772,-0.00039313,-1.12673,0.000834326,0.0163864,1532,1716,6.82847,-24.0474
315,-692,6.84619,23.8408,-0.000463056,0.00062193,-0.000467322,0.00079546,-0.000636586,-1.21525,0.000828486,0.0152598,1539,1716,6.8462,-23.8408
322,-692,6.82507,23.6176,-0.000779366,0.000482845,-0.000389009,0.000593105,-0.000889626,-1.2946,0.000861742,0.0197328,1546,1716,6.82504,-23.6175
329,-692,6.79224,23.4214,-0.0011029,0.000156032,-0.000262037,0.000208395,-0.00115527,-1.37356,0.00084822,0.0173305,1553,1716,6.79223,-23.4214
336,-692,6.80383,23.2224,-0.00127513,-0.000250899,-0.000100205,-0.000241188,-0.00128484,-1.47418,0.000788559,0.0115865,1560,1716,6.80387,-23.2224
343,-692,6.82227,23.0166,-0.00147198,-0.000872949,5.50338e-05,-0.000867935,-0.00147699,1.47994,0.000857096,0.0126412,1567,1716,6.82223,-23.0166
350,-692,6.80383,22.7938,-0.00172546,-0.00193709,0.000344928,-0.00147048,-0.00219207,0.636572,0.00128998,0.014092,1574,1716,6.80388,-22.7939
357,-692,6.78638,22.563,-0.00179735,-0.00288433,0.000636226,-0.00150408,-0.00317759,0.431923,0.00183545,0.0174253,1581,1716,6.78637,-22.563
364,-692,6.7793,22.3406,-0.00183125,-0.00420166,0.00101405,-0.00145665,-0.00457626,0.353866,0.00269963,0.0240516,1588,1716,6.77934,-22.3406
371,-692,6.83496,22.166,-0.0018324,-0.00556522,0.00132168,-0.00141182,-0.0059858,0.308085,0.00361308,0.0395725,1595,1716,6.83498,-22.166
378,-692,6.80859,22.038,-0.00181954,-0.00741896,0.00175091,-0.00131712,-0.00792138,0.279439,0.00490124,0.049235,1602,1716,6.80857,-22.0379
385,-692,6.65356,21.677,0,0,0,0,0,0,0,-1,1609,1716,6.65356,-21.677
392,-692,6.66089,21.4836,0,0,0,0,0,0,0,-1,1616,1716,6.66087,-21.4837
399,-692,6.92346,21.8124,0,0,0,0,0,0,0,-1,1623,1716,6.92349,-21.8124
406,-692,4.73633,10.6808,0,0,0,0,0,0,0,-1,1630,1716,4.73637,-10.6808
413,-692,4.25085,10.5685,0,0,0,0,0,0,0,-1,1637,1716,4.2508,-10.5685
420,-692,5.48901,10.4845,0,0,0,0,0,0,0,-1,1644,1716,5.48906,-10.4845
427,-692,3.79578,8.60339,0,0,0,0,0,0,0,-1,1651,1716,3.79577,-8.6034
434,-692,4.78516,8.64636,0,0,0,0,0,0,0,-1,1658,1716,4.78512,-8.64634
441,-692,5.8208,8.74036,0,0,0,0,0,0,0,-1,1665,1716,5.82084,-8.7404
448,-692,6.73792,8.51013,0,0,0,0,0,0,0,-1,1672,1716,6.73793,-8.5101
455,-692,0,0,0,0,0,0,0,0,0,-1,1679,1716,0,0
462,-692,0,0,0,0,0,0,0,0,0,-1,1686,1716,0,0
469,-692,0,0,0,0,0,0,0,0,0,-1,1693,1716,0,0
476,-692,0,0,0,0,0,0,0,0,0,-1,1700,1716,0,0
483,-692,0,0,0,0,0,0,0,0,0,-1,1707,1716,0,0
490,-692,0,0,0,0,0,0,0,0,0,-1,1714,1716,0,0
497,-692,0,0,0,0,0,0,0,0,0,-1,1721,1716,0,0
504,-692,0,0,0,0,0,0,0,0,0,-1,1728,1716,0,0
511,-692,0,0,0,0,0,0,0,0,0,-1,1735,1716,0,0
518,-692,0,0,0,0,0,0,0,0,0,-1,1742,1716,0,0
525,-692,0,0,0,0,0,0,0,0,0,-1,1749,1716,0,0
532,-692,0,0,0,0,0,0,0,0,0,-1,1756,1716,0,0
539,-692,0,0,0,0,0,0,0,0,0,-1,1763,1716,0,0
546,-692,0,0,0,0,0,0,0,0,0,-1,1770,1716,0,0
553,-692,0,0,0,0,0,0,0,0,0,-1,1777,1716,0,0
560,-692,0,0,0,0,0,0,0,0,0,-1,1784,1716,0,0
567,-692,0,0,0,0,0,0,0,0,0,-1,1791,1716,0,0
574,-692,0,0,0,0,0,0,0,0,0,-1,1798,1716,0,0
581,-692,0,0,0,0,0,0,0,0,0,-1,1805,1716,0,0
588,-692,0,0,0,0,0,0,0,0,0,-1,1812,1716,0,0
595,-692,0,0,0,0,0,0,0,0,0,-1,1819,1716,0,0
602,-692,0,0,0,0,0,0,0,0,0,-1,1826,1716,0,0
609,-692,0,0,0,0,0,0,0,0,0,-1,1833,1716,0,0
616,-692,0,0,0,0,0,0,0,0,0,-1,1840,1716,0,0
623,-692,0,0,0,0,0,0,0,0,0,-1,1847,1716,0,0
630,-692,0,0,0,0,0,0,0,0,0,-1,1854,1716,0,0
637,-692,0,0,0,0,0,0,0,0,0,-1,1861,1716,0,0
644,-692,0,0,0,0,0,0,0,0,0,-1,1868,1716,0,0
651,-692,0,0,0,0,0,0,0,0,0,-1,1875,1716,0,0
658,-692,0,0,0,0,0,0,0,0,0,-1,1882,1716,0,0
665,-692,0,0,0,0,0,0,0,0,0,-1,1889,1716,0,0
672,-692,0,0,0,0,0,0,0,0,0,-1,1896,1716,0,0
679,-692,0,0,0,0,0,0,0,0,0,-1,1903,1716,0,0
686,-692,0,0,0,0,0,0,0,0,0,-1,1910,1716,0,0
693,-692,0,0,0,0,0,0,0,0,0,-1,1917,1716,0,0
700,-692,0,0,0,0,0,0,0,0,0,-1,1924,1716,0,0
707,-692,0,0,0,0,0,0,0,0,0,-1,1931,1716,0,0
714,-692,0,0,0,0,0,0,0,0,0,-1,1938,1716,0,0
721,-692,0,0,0,0,0,0,0,0,0,-1,1945,1716,0,0
728,-692,0,0,0,0,0,0,0,0,0,-1,1952,1716,0,0
735,-692,0,0,0,0,0,0,0,0,0,-1,1959,1716,0,0
742,-692,0,0,0,0,0,0,0,0,0,-1,1966,1716,0,0
749,-692,0,0,0,0,0,0,0,0,0,-1,1973,1716,0,0
756,-692,0,0,0,0,0,0,0,0,0,-1,1980,1716,0,0
763,-692,0,0,0,0,0,0,0,0,0,-1,1987,1716,0,0
770,-692,0,0,0,0,0,0,0,0,0,-1,1994,1716,0,0
777,-692,0,0,0,0,0,0,0,0,0,-1,2001,1716,0,0
784,-692,0,0,0,0,0,0,0,0,0,-1,2008,1716,0,0
791,-692,0,0,0,0,0,0,0,0,0,-1,2015,1716,0,0
798,-692,0,0,0,0,0,0,0,0,0,-1,2022,1716,0,0
805,-692,0,0,0,0,0,0,0,0,0,-1,2029,1716,0,0
812,-692,0,0,0,0,0,0,0,0,0,-1,2036,1716,0,0
-700,-699,0,0,0,0,0,0,0,0,0,-1,524,1723,0,0
-693,-699,0,0,0,0,0,0,0,0,0,-1,531,1723,0,0
-686,-699,0,0,0,0,0,0,0,0,0,-1,538,1723,0,0
-679,-699,0,0,0,0,0,0,0,0,0,-1,545,1723,0,0
-672,-699,0,0,0,0,0,0,0,0,0,-1,552,1723,0,0
-665,-699,0,0,0,0,0,0,0,0,0,-1,559,1723,0,0
-658,-699,0,0,0,0,0,0,0,0,0,-1,566,1723,0,0
-651,-699,0,0,0,0,0,0,0,0,0,-1,573,1723,0,0
-644,-699,0,0,0,0,0,0,0,0,0,-1,580,1723,0,0
-637,-699,0,0,0,0,0,0,0,0,0,-1,587,1723,0,0
-630,-699,0,0,0,0,0,0,0,0,0,-1,594,1723,0,0
-623,-699,0,0,0,0,0,0,0,0,0,-1,601,1723,0,0
-616,-699,0,0,0,0,0,0,0,0,0,-1,608,1723,0,0
-609,-699,0,0,0,0,0,0,0,0,0,-1,615,1723,0,0
-602,-699,0,0,0,0,0,0,0,0,0,-1,622,1723,0,0
-595,-699,0,0,0,0,0,0,0,0,0,-1,629,1723,0,0
-588,-699,0,0,0,0,0,0,0,0,0,-1,636,1723,0,0
-581,-699,0,0,0,0,0,0,0,0,0,-1,643,1723,0,0
-574,-699,0,0,0,0,0,0,0,0,0,-1,650,1723,0,0
-567,-699,0,0,0,0,0,0,0,0,0,-1,657,1723,0,0
-560,-699,0,0,0,0,0,0,0,0,0,-1,664,1723,0,0
-553,-699,0,0,0,0,0,0,0,0,0,-1,671,1723,0,0
-546,-699,0,0,0,0,0,0,0,0,0,-1,678,1723,0,0
-539,-699,0,0,0,0,0,0,0,0,0,-1,685,1723,0,0
-532,-699,0,0,0,0,0,0,0,0,0,-1,692,1723,0,0
-525,-699,0,0,0,0,0,0,0,0,0,-1,699,1723,0,0
-518,-699,0,0,0,0,0,0,0,0,0,-1,706,1723,0,0
-511,-699,0,0,0,0,0,0,0,0,0,-1,713,1723,0,0
-504,-699,0,0,0,0,0,0,0,0,0,-1,720,1723,0,0
-497,-699,0,0,0,0,0,0,0,0,0,-1,727,1723,0,0
-490,-699,0,0,0,0,0,0,0,0,0,-1,734,1723,0,0
-483,-699,0,0,0,0,0,0,0,0,0,-1,741,1723,0,0
-476,-699,0,0,0,0,0,0,0,0,0,-1,748,1723,0,0
-469,-699,0,0,0,0,0,0,0,0,0,-1,755,1723,0,0
-462,-699,0,0,0,0,0,0,0,0,0,-1,762,1723,0,0
-455,-699,0,0,0,0,0,0,0,0,0,-1,769,1723,0,0
-448,-699,0,0,0,0,0,0,0,0,0,-1,776,1723,0,0
-441,-699,0,0,0,0,0,0,0,0,0,-1,783,1723,0,0
-434,-699,0,0,0,0,0,0,0,0,0,-1,790,1723,0,0
-427,-699,0,0,0,0,0,0,0,0,0,-1,797,1723,0,0
-420,-699,0,0,0,0,0,0,0,0,0,-1,804,1723,0,0
-413,-699,0,0,0,0,0,0,0,0,0,-1,811,1723,0,0
-406,-699,0,0,0,0,0,0,0,0,0,-1,818,1723,0,0
-399,-699,0,0,0,0,0,0,0,0,0,-1,825,1723,0,0
-392,-699,0,0,0,0,0,0,0,0,0,-1,832,1723,0,0
-385,-699,0,0,0,0,0,0,0,0,0,-1,839,1723,0,0
-378,-699,0,0,0,0,0,0,0,0,0,-1,846,1723,0,0
-371,-699,0,0,0,0,0,0,0,0,0,-1,853,1723,0,0
-364,-699,0,0,0,0,0,0,0,0,0,-1,860,1723,0,0
-357,-699,0,0,0,0,0,0,0,0,0,-1,867,1723,0,0
-350,-699,0,0,0,0,0,0,0,0,0,-1,874,1723,0,0
-343,-699,0,0,0,0,0,0,0,0,0,-1,881,1723,0,0
-336,-699,0,0,0,0,0,0,0,0,0,-1,888,1723,0,0
-329,-699,0,0,0,0,0,0,0,0,0,-1,895,1723,0,0
-322,-699,0,0,0,0,0,0,0,0,0,-1,902,1723,0,0
-315,-699,6.20001,19.5193,0,0,0,0,0,0,0,-1,909,1723,6.20001,-19.5193
-308,-699,6.98151,18.9218,0,0,0,0,0,0,0,-1,916,1723,6.98151,-18.9217
-301,-699,4.72729,12.8752,0,0,0,0,0,0,0,-1,923,1723,4.72732,-12.8752
-294,-699,6.90332,19.8601,0,0,0,0,0,0,0,-1,930,1723,6.90332,-19.8601
-287,-699,7.85419,23.2396,0,0,0,0,0,0,0,-1,937,1723,7.8542,-23.2397
-280,-699,6.35376,20.6515,0,0,0,0,0,0,0,-1,944,1723,6.35377,-20.6515
-273,-699,7.61798,21.218,0,0,0,0,0,0,0,-1,951,1723,7.61796,-21.218
-266,-699,7.66718,20.9989,0,0,0,0,0,0,0,-1,958,1723,7.66718,-20.9989
-259,-699,5.39758,14.5466,0,0,0,0,0,0,0,-1,965,1723,5.39759,-14.5466
-252,-699,7.2879,20.5737,0,0,0,0,0,0,0,-1,972,1723,7.2879,-20.5738
-245,-699,6.4342,21.1134,0,0,0,0,0,0,0,-1,979,1723,6.43422,-21.1135
-238,-699,6.05792,21.5034,0,0,0,0,0,0,0,-1,986,1723,6.05794,-21.5034
-231,-699,5.94012,21.7235,-0.00382492,-0.00892763,-0.00253933,-0.0027766,-0.00997594,-0.391518,0.0059453,0.042202,993,1723,5.94014,-21.7236
-224,-699,5.66376,21.8912,-0.00228619,-0.0078138,-0.001744,-0.00178194,-0.00831804,-0.281456,0.00505714,0.0372473,1000,1723,5.66378,-21.8912
-217,-699,5.80444,22.1405,-0.00159433,-0.00618724,-0.00134781,-0.00122802,-0.00655355,-0.265369,0.00402266,0.0269668,1007,1723,5.80445,-22.1405
-210,-699,5.83032,22.3949,-0.00116633,-0.0051544,-0.000996285,-0.00093129,-0.00538944,-0.231677,0.00332627,0.0185465,1014,1723,5.83031,-22.3949
-203,-699,5.82263,22.6093,-0.00074189,-0.00443922,-0.000789528,-0.000580352,-0.00460076,-0.201816,0.00289319,0.0207075,1021,1723,5.82259,-22.6092
-196,-699,5.80493,22.8132,-0.000568655,-0.00354817,-0.000573202,-0.000462187,-0.00365464,-0.183651,0.00229791,0.0177485,1028,1723,5.80489,-22.8132
-189,-699,5.75916,23.062,-0.000252516,-0.00306442,-0.000363768,-0.000206219,-0.00311072,-0.126591,0.0020086,0.00920337,1035,1723,5.75912,-23.0621
-182,-699,5.72583,23.2655,-0.000114618,-0.00253205,-0.000260065,-8.69569e-05,-0.00255971,-0.105964,0.00167824,0.0117317,1042,1723,5.72583,-23.2655
-175,-699,5.72498,23.506,-2.39411e-05,-0.0018994,-6.12111e-05,-2.19455e-05,-0.0019014,-0.0325917,0.00126035,0.0144161,1049,1723,5.72493,-23.506
-168,-699,5.74097,23.717,-9.26913e-05,-0.001319,0.000127259,-7.96244e-05,-0.00133207,0.102321,0.000862729,0.0153531,1056,1723,5.74093,-23.7171
-161,-699,5.74341,23.9197,-0.000186355,-0.000459518,0.000324677,2.92983e-05,-0.000675171,0.5863,0.000460191,0.0131274,1063,1723,5.74338,-23.9197
-154,-699,5.7179,24.1376,-0.000110851,0.000219432,0.00048931,0.000570717,-0.000462135,0.948146,0.000597415,0.012979,1070,1723,5.71787,-24.1376
-147,-699,5.71521,24.3083,-8.87908e-05,0.00072988,0.000594946,0.00104271,-0.000401616,1.08672,0.000860826,0.0142693,1077,1723,5.71525,-24.3083
-140,-699,5.70862,24.4663,5.18967e-05,0.00120844,0.000684615,0.00152633,-0.000265988,1.13609,0.00111682,0.00989014,1084,1723,5.70857,-24.4663
-133,-699,5.70825,24.6644,0.000344988,0.00166488,0.00069148,0.0019608,4.90711e-05,1.16643,0.00129115,0.00867223,1091,1723,5.7083,-24.6644
-126,-699,5.71069,24.8333,0.000619386,0.00219661,0.00071549,0.00247282,0.000343182,1.20239,0.00154689,0.0112903,1098,1723,5.71074,-24.8333
-119,-699,5.72375,25.0037,0.000830947,0.00263847,0.000719083,0.00288964,0.000579778,1.23475,0.00176519,0.0164859,1105,1723,5.72372,-25.0036
-112,-699,5.7085,25.1726,0.00112791,0.00290678,0.000699765,0.00314905,0.000885635,1.23749,0.00187521,0.0114574,1112,1723,5.70851,-25.1726
-105,-699,5.72412,25.3314,0.00138479,0.00304501,0.000667788,0.00328027,0.00114953,1.23207,0.0019219,0.0116951,1119,1723,5.72415,-25.3314
-98,-699,5.745,25.4456,0.00162444,0.00311068,0.000705372,0.00339215,0.00134298,1.19112,0.00197255,0.0133023,1126,1723,5.74506,-25.4455
-91,-699,5.75537,25.574,0.00191351,0.0030917,0.000755262,0.00346045,0.00154477,1.11661,0.00200171,0.0195819,1133,1723,5.75537,-25.574
-84,-699,5.74512,25.7539,0.00227137,0.00299212,0.000840629,0.00354636,0.00171713,0.987897,0.00204784,0.0242556,1140,1723,5.74517,-25.7539
-77,-699,5.75232,25.8838,0.00275566,0.00293799,0.000727519,0.00358003,0.00211362,0.847727,0.00207816,0.0164093,1147,1723,5.75238,-25.8838
-70,-699,5.76196,26.028,0.00311494,0.00284058,0.000436732,0.00343553,0.00251999,0.633227,0.00205434,0.0179634,1154,1723,5.76199,-26.028
-63,-699,5.78125,26.162,0.00360077,0.00220105,0.000130263,0.00361279,0.00218903,0.0920105,0.00210139,0.0152704,1161,1723,5.78126,-26.162
-56,-699,5.7666,26.2633,0.00566632,0.00652394,0.00138296,0.00754305,0.00464721,0.93573,0.00439393,0.0103248,1168,1723,5.76657,-26.2633
-49,-699,5.77673,26.4066,0.00782976,0.0100461,0.00276518,0.0119169,0.00595896,0.975979,0.00688022,0.022562,1175,1723,5.77668,-26.4066
-42,-699,5.82861,26.4927,0.00914216,0.0135062,0.00376826,0.0156786,0.00696976,1.04784,0.0090706,0.0263509,1182,1723,5.82861,-26.4926
-35,-699,5.84741,26.579,0.0104235,0.0167076,0.00447746,0.0190355,0.00809564,1.09135,0.011031,0.025732,1189,1723,5.84741,-26.579
-28,-699,5.89514,26.67,0.0117781,0.0197956,0.00546865,0.0225674,0.0090063,1.10168,0.0131175,0.0199327,1196,1723,5.89516,-26.67
-21,-699,5.91064,26.6953,0.013645,0.0222659,0.00581081,0.0251905,0.0107205,1.10451,0.0145973,0.0134763,1203,1723,5.91067,-26.6953
-14,-699,5.90381,26.7795,0.015503,0.0236963,0.00558259,0.0265241,0.0126752,1.10193,0.0153187,0.0119685,1210,1723,5.90386,-26.7796
-7,-699,5.91846,26.8734,0.0170182,0.0243746,0.00648212,0.0281494,0.0132435,1.04346,0.0162615,0.00885602,1217,1723,5.9185,-26.8735
0,-699,5.9436,26.9631,0.0182281,0.024717,0.00709388,0.0292732,0.0136719,0.999876,0.0169131,0.010904,1224,1723,5.94356,-26.9631
7,-699,5.9823,27.0234,0.0188928,0.0246112,0.00755403,0.029829,0.0136749,0.966318,0.0172416,0.0163474,1231,1723,5.98226,-27.0234
14,-699,6.00903,27.0596,0.0194357,0.0238708,0.00801467,0.029969,0.0133375,0.920363,0.0173374,0.0170774,1238,1723,6.00902,-27.0595
21,-699,6.03931,27.0708,0.0201697,0.0225511,0.00845406,0.0298979,0.0128229,0.855361,0.0173197,0.0168626,1245,1723,6.03933,-27.0708
28,-699,6.02905,27.1064,0.0203059,0.0208914,0.00923907,0.0298424,0.0113549,0.801237,0.0173928,0.0156432,1252,1723,6.02908,-27.1064
35,-699,6.06665,27.1782,0.0198204,0.0193516,0.00991382,0.0295026,0.00966939,0.773579,0.017367,0.0131985,1259,1723,6.06663,-27.1782
42,-699,6.13794,27.2169,0.0186871,0.0181337,0.0103971,0.0288113,0.00800962,0.772094,0.017172,0.0126843,1266,1723,6.13797,-27.2169
49,-699,6.16907,27.2455,0.0156928,0.0156828,0.00997814,0.0256659,0.00570965,0.785147,0.0155606,0.0148314,1273,1723,6.16905,-27.2455
56,-699,6.20203,27.2675,0.0126932,0.0136353,0.00922865,0.0224049,0.0039236,0.810896,0.0138157,0.0149416,1280,1723,6.20203,-27.2674
63,-699,6.23267,27.2611,0.0101941,0.0118766,0.00849688,0.0195738,0.0024969,0.83474,0.0123016,0.0119899,1287,1723,6.2327,-27.2611
70,-699,6.24121,27.2737,0.0074793,0.00998493,0.00787762,0.0167087,0.000755502,0.864255,0.0108961,0.0100683,1294,1723,6.24127,-27.2737
77,-699,6.25537,27.2639,0.0047416,0.00805771,0.00690699,0.0135029,-0.000703556,0.903197,0.00924536,0.011054,1301,1723,6.25538,-27.2639
84,-699,6.26245,27.235,0.00191595,0.00628691,0.00600732,0.0104939,-0.00229109,0.959857,0.0078716,0.0136889,1308,1723,6.26243,-27.235
91,-699,6.30249,27.2417,0.000135003,0.005064,0.0051276,0.00828862,-0.00308962,1.00942,0.00679397,0.0133524,1315,1723,6.30255,-27.2417
98,-699,6.33752,27.2499,-0.00105771,0.00387695,0.00352057,0.0057087,-0.00288946,1.09104,0.00505232,0.0117154,1322,1723,6.33755,-27.2499
105,-699,6.35889,27.2299,-0.00122593,0.00240586,0.00253433,0.0037077,-0.00252777,1.09626,0.00362148,0.0161888,1329,1723,6.35884,-27.2299
112,-699,6.36987,27.1913,-0.000251469,0.00102652,0.00210892,0.00259113,-0.00181608,0.9325,0.00255758,0.0222502,1336,1723,6.36981,-27.1913
119,-699,6.37866,27.1671,0.0011513,4.91802e-05,0.00199923,0.00267403,-0.00147354,0.650919,0.00242781,0.0168698,1343,1723,6.37864,-27.1671
126,-699,6.40771,27.1106,0.00228264,-0.000811198,0.00206214,0.00331358,-0.00184214,0.463599,0.0030168,0.0182264,1350,1723,6.40767,-27.1106
133,-699,6.453,27.0542,0.00371305,-0.00164671,0.00185429,0.00429202,-0.00222569,0.302645,0.00382552,0.0157729,1357,1723,6.45299,-27.0542
140,-699,6.49194,27.0095,0.00542617,-0.00234462,0.00187133,0.00585333,-0.00277179,0.224422,0.00508455,0.0165433,1364,1723,6.49191,-27.0095
147,-699,6.49463,26.9636,0.00698042,-0.00278269,0.00219886,0.00745279,-0.00325506,0.211611,0.00633855,0.0134127,1371,1723,6.49468,-26.9636
154,-699,6.49365,26.8947,0.00928788,-0.0021947,0.00312592,0.0100837,-0.00299051,0.249291,0.00791003,0.013906,1378,1723,6.49364,-26.8947
161,-699,6.51538,26.8179,0.00950248,-0.00147186,0.00354799,0.0105496,-0.00251901,0.28699,0.00800596,0.010192,1385,1723,6.51533,-26.8178
168,-699,6.55579,26.7574,0.00806677,-0.00110332,0.00326081,0.00910805,-0.0021446,0.309097,0.00689892,0.0114521,1392,1723,6.55576,-26.7574
175,-699,6.60938,26.6904,0.00689358,-0.000200736,0.00194669,0.00739264,-0.000699803,0.250962,0.00517748,0.0138405,1399,1723,6.60939,-26.6904
182,-699,6.61609,26.5692,0.0053412,0.000793588,0.000662342,0.00543571,0.000699084,0.141724,0.00341471,0.0149128,1406,1723,6.61603,-26.5692
189,-699,6.61133,26.4651,0.00420092,0.00110272,0.000649082,0.00433141,0.000972227,0.198391,0.00262426,0.0171964,1413,1723,6.61131,-26.4651
196,-699,6.62244,26.3579,0.00182537,0.00137062,0.00139573,0.00301212,0.000183865,0.704653,0.00194969,0.0169478,1420,1723,6.62246,-26.3579
203,-699,6.62207,26.2672,0.00151706,0.000885356,0.00134319,0.00258104,-0.000178618,0.669921,0.00178321,0.013021,1427,1723,6.62202,-26.2672
210,-699,6.6283,26.1611,0.00117544,0.00065383,0.00126201,0.00220331,-0.000374042,0.683504,0.00160812,0.012472,1434,1723,6.62836,-26.1611
217,-699,6.65527,26.0499,0.000814924,0.000422509,0.00102653,0.00166383,-0.000426396,0.690969,0.00127534,0.0133028,1441,1723,6.65531,-26.0499
224,-699,6.68359,25.9319,0.000615173,0.000378025,0.000802529,0.00130784,-0.000314642,0.712053,0.000993523,0.0144729,1448,1723,6.68354,-25.9319
231,-699,6.69824,25.804,0.000518699,0.00032213,0.000470025,0.000900606,-5.97766e-05,0.682331,0.000621289,0.0114425,1455,1723,6.69822,-25.804
238,-699,6.67444,25.6467,0.000526812,0.000340683,0.000201529,0.000655727,0.000211768,0.569091,0.000386415,0.0103146,1462,1723,6.67439,-25.6468
245,-699,6.66467,25.5045,0.000555797,0.000436788,-5.24284e-05,0.000575599,0.000416986,-0.361131,0.000343301,0.0121813,1469,1723,6.66467,-25.5045
252,-699,6.66272,25.3787,0.000587396,0.000521881,-0.00031216,0.000868513,0.000240765,-0.73312,0.000517762,0.0110549,1476,1723,6.66267,-25.3787
259,-699,6.68201,25.2229,0.000607515,0.000646915,-0.000518371,0.00114596,0.00010847,-0.804391,0.000730506,0.0109484,1483,1723,6.68203,-25.2229
266,-699,6.68103,25.0664,0.000596672,0.000806177,-0.000712505,0.00142159,-1.87404e-05,-0.858385,0.000954034,0.011645,1490,1723,6.68102,-25.0664
273,-699,6.67603,24.9138,0.000530403,0.00110659,-0.000872913,0.00173772,-0.00010073,-0.944788,0.00119347,0.0111434,1497,1723,6.67604,-24.9138
280,-699,6.6842,24.7424,0.000418167,0.00132825,-0.000997782,0.00196986,-0.000223435,-0.999337,0.0013937,0.0124783,1504,1723,6.68421,-24.7425
287,-699,6.67688,24.569,0.000245415,0.00129823,-0.000928478,0.00183914,-0.0002955,-1.04328,0.00133554,0.0113623,1511,1723,6.67691,-24.569
294,-699,6.68079,24.3982,2.83174e-05,0.00139948,-0.000947862,0.00188372,-0.000455914,-1.09849,0.00143218,0.0109025,1518,1723,6.68083,-24.3982
301,-699,6.68958,24.2439,-0.000326091,0.00142215,-0.000937227,0.00182963,-0.000733564,-1.16069,0.00152429,0.0124586,1525,1723,6.68957,-24.2439
308,-699,6.68237,24.0632,-0.000749741,0.00130374,-0.000838022,0.00160232,-0.00104832,-1.22853,0.00154145,0.0178786,1532,1723,6.68243,-24.0632
315,-699,6.68359,23.8497,-0.00112658,0.00109688,-0.00069787,0.00129777,-0.00132747,-1.29051,0.00151571,0.0201554,1539,1723,6.68355,-23.8497
322,-699,6.65186,23.66,-0.00148871,0.00084409,-0.000551419,0.000967865,-0.00161249,-1.34999,0.00150518,0.0201643,1546,1723,6.65181,-23.66
329,-699,6.60071,23.4392,-0.00186485,0.000390776,-0.000323027,0.000436124,-0.0019102,-1.43132,0.00144101,0.0157867,1553,1723,6.6007,-23.4392
336,-699,6.60291,23.2373,-0.0020367,-0.000200271,-8.95264e-05,-0.000195917,-0.00204105,-1.5222,0.00130033,0.015044,1560,1723,6.6029,-23.2373
343,-699,6.64539,23.0464,-0.00225186,-0.00102226,0.000160571,-0.00100164,-0.00227248,1.44306,0.00131508,0.0207396,1567,1723,6.64539,-23.0464
350,-699,6.6189,22.7981,-0.00254319,-0.00234967,0.000606664,-0.0018321,-0.00306076,0.864478,0.00177854,0.0295925,1574,1723,6.61889,-22.7981
357,-699,6.56128,22.5848,-0.00258193,-0.00361075,0.0010453,-0.00193132,-0.00426136,0.556738,0.00246389,0.0398636,1581,1723,6.5613,-22.5848
364,-699,6.59326,22.499,-0.00253881,-0.00527922,0.00157065,-0.00182469,-0.00599334,0.426725,0.00354737,0.0455632,1588,1723,6.59325,-22.499
371,-699,6.69116,22.1732,0,0,0,0,0,0,0,-1,1595,1723,6.69119,-22.1732
378,-699,6.73901,22.0715,0,0,0,0,0,0,0,-1,1602,1723,6.73901,-22.0715
385,-699,5.66467,21.4453,0,0,0,0,0,0,0,-1,1609,1723,5.6647,-21.4453
392,-699,5.21069,16.861,0,0,0,0,0,0,0,-1,1616,1723,5.21066,-16.8609
399,-699,3.91516,9.81726,0,0,0,0,0,0,0,-1,1623,1723,3.9152,-9.81721
406,-699,5.50757,21.6672,0,0,0,0,0,0,0,-1,1630,1723,5.50755,-21.6672
413,-699,9.31396,23.2781,0,0,0,0,0,0,0,-1,1637,1723,9.31396,-23.278
420,-699,2.15076,7.65527,0,0,0,0,0,0,0,-1,1644,1723,2.15079,-7.65522
427,-699,3.36328,8.2428,0,0,0,0,0,0,0,-1,1651,1723,3.36332,-8.24283
434,-699,4.66455,8.90222,0,0,0,0,0,0,0,-1,1658,1723,4.66456,-8.90223
441,-699,0,0,0,0,0,0,0,0,0,-1,1665,1723,0,0
448,-699,0,0,0,0,0,0,0,0,0,-1,1672,1723,0,0
455,-699,0,0,0,0,0,0,0,0,0,-1,1679,1723,0,0
462,-699,0,0,0,0,0,0,0,0,0,-1,1686,1723,0,0
469,-699,0,0,0,0,0,0,0,0,0,-1,1693,1723,0,0
476,-699,0,0,0,0,0,0,0,0,0,-1,1700,1723,0,0
483,-699,0,0,0,0,0,0,0,0,0,-1,1707,1723,0,0
490,-699,0,0,0,0,0,0,0,0,0,-1,1714,1723,0,0
497,-699,0,0,0,0,0,0,0,0,0,-1,1721,1723,0,0
504,-699,0,0,0,0,0,0,0,0,0,-1,1728,1723,0,0
511,-699,0,0,0,0,0,0,0,0,0,-1,1735,1723,0,0
518,-699,0,0,0,0,0,0,0,0,0,-1,1742,1723,0,0
525,-699,0,0,0,0,0,0,0,0,0,-1,1749,1723,0,0
532,-699,0,0,0,0,0,0,0,0,0,-1,1756,1723,0,0
539,-699,0,0,0,0,0,0,0,0,0,-1,1763,1723,0,0
546,-699,0,0,0,0,0,0,0,0,0,-1,1770,1723,0,0
553,-699,0,0,0,0,0,0,0,0,0,-1,1777,1723,0,0
560,-699,0,0,0,0,0,0,0,0,0,-1,1784,1723,0,0
567,-699,0,0,0,0,0,0,0,0,0,-1,1791,1723,0,0
574,-699,0,0,0,0,0,0,0,0,0,-1,1798,1723,0,0
581,-699,0,0,0,0,0,0,0,0,0,-1,1805,1723,0,0
588,-699,0,0,0,0,0,0,0,0,0,-1,1812,1723,0,0
595,-699,0,0,0,0,0,0,0,0,0,-1,1819,1723,0,0
602,-699,0,0,0,0,0,0,0,0,0,-1,1826,1723,0,0
609,-699,0,0,0,0,0,0,0,0,0,-1,1833,1723,0,0
616,-699,0,0,0,0,0,0,0,0,0,-1,1840,1723,0,0
623,-699,0,0,0,0,0,0,0,0,0,-1,1847,1723,0,0
630,-699,0,0,0,0,0,0,0,0,0,-1,1854,1723,0,0
637,-699,0,0,0,0,0,0,0,0,0,-1,1861,1723,0,0
644,-699,0,0,0,0,0,0,0,0,0,-1,1868,1723,0,0
651,-699,0,0,0,0,0,0,0,0,0,-1,1875,1723,0,0
658,-699,0,0,0,0,0,0,0,0,0,-1,1882,1723,0,0
665,-699,0,0,0,0,0,0,0,0,0,-1,1889,1723,0,0
672,-699,0,0,0,0,0,0,0,0,0,-1,1896,1723,0,0
679,-699,0,0,0,0,0,0,0,0,0,-1,1903,1723,0,0
686,-699,0,0,0,0,0,0,0,0,0,-1,1910,1723,0,0
693,-699,0,0,0,0,0,0,0,0,0,-1,1917,1723,0,0
700,-699,0,0,0,0,0,0,0,0,0,-1,1924,1723,0,0
707,-699,0,0,0,0,0,0,0,0,0,-1,1931,1723,0,0
714,-699,0,0,0,0,0,0,0,0,0,-1,1938,1723,0,0
721,-699,0,0,0,0,0,0,0,0,0,-1,1945,1723,0,0
728,-699,0,0,0,0,0,0,0,0,0,-1,1952,1723,0,0
735,-699,0,0,0,0,0,0,0,0,0,-1,1959,1723,0,0
742,-699,0,0,0,0,0,0,0,0,0,-1,1966,1723,0,0
749,-699,0,0,0,0,0,0,0,0,0,-1,1973,1723,0,0
756,-699,0,0,0,0,0,0,0,0,0,-1,1980,1723,0,0
763,-699,0,0,0,0,0,0,0,0,0,-1,1987,1723,0,0
770,-699,0,0,0,0,0,0,0,0,0,-1,1994,1723,0,0
777,-699,0,0,0,0,0,0,0,0,0,-1,2001,1723,0,0
784,-699,0,0,0,0,0,0,0,0,0,-1,2008,1723,0,0
791,-699,0,0,0,0,0,0,0,0,0,-1,2015,1723,0,0
798,-699,0,0,0,0,0,0,0,0,0,-1,2022,1723,0,0
805,-699,0,0,0,0,0,0,0,0,0,-1,2029,1723,0,0
812,-699,0,0,0,0,0,0,0,0,0,-1,2036,1723,0,0
-700,-706,0,0,0,0,0,0,0,0,0,-1,524,1730,0,0
-693,-706,0,0,0,0,0,0,0,0,0,-1,531,1730,0,0
-686,-706,0,0,0,0,0,0,0,0,0,-1,538,1730,0,0
-679,-706,0,0,0,0,0,0,0,0,0,-1,545,1730,0,0
-672,-706,0,0,0,0,0,0,0,0,0,-1,552,1730,0,0
-665,-706,0,0,0,0,0,0,0,0,0,-1,559,1730,0,0
-658,-706,0,0,0,0,0,0,0,0,0,-1,566,1730,0,0
-651,-706,0,0,0,0,0,0,0,0,0,-1,573,1730,0,0
-644,-706,0,0,0,0,0,0,0,0,0,-1,580,1730,0,0
-637,-706,0,0,0,0,0,0,0,0,0,-1,587,1730,0,0
-630,-706,0,0,0,0,0,0,0,0,0,-1,594,1730,0,0
-623,-706,0,0,0,0,0,0,0,0,0,-1,601,1730,0,0
-616,-706,0,0,0,0,0,0,0,0,0,-1,608,1730,0,0
-609,-706,0,0,0,0,0,0,0,0,0,-1,615,1730,0,0
-602,-706,0,0,0,0,0,0,0,0,0,-1,622,1730,0,0
-595,-706,0,0,0,0,0,0,0,0,0,-1,629,1730,0,0
-588,-706,0,0,0,0,0,0,0,0,0,-1,636,1730,0,0
-581,-706,0,0,0,0,0,0,0,0,0,-1,643,1730,0,0
-574,-706,0,0,0,0,0,0,0,0,0,-1,650,1730,0,0
-567,-706,0,0,0,0,0,0,0,0,0,-1,657,1730,0,0
-560,-706,0,0,0,0,0,0,0,0,0,-1,664,1730,0,0
-553,-706,0,0,0,0,0,0,0,0,0,-1,671,1730,0,0
-546,-706,0,0,0,0,0,0,0,0,0,-1,678,1730,0,0
-539,-706,0,0,0,0,0,0,0,0,0,-1,685,1730,0,0
-532,-706,0,0,0,0,0,0,0,0,0,-1,692,1730,0,0
-525,-706,0,0,0,0,0,0,0,0,0,-1,699,1730,0,0
-518,-706,0,0,0,0,0,0,0,0,0,-1,706,1730,0,0
-511,-706,0,0,0,0,0,0,0,0,0,-1,713,1730,0,0
-504,-706,0,0,0,0,0,0,0,0,0,-1,720,1730,0,0
-497,-706,0,0,0,0,0,0,0,0,0,-1,727,1730,0,0
-490,-706,0,0,0,0,0,0,0,0,0,-1,734,1730,0,0
-483,-706,0,0,0,0,0,0,0,0,0,-1,741,1730,0,0
-476,-706,0,0,0,0,0,0,0,0,0,-1,748,1730,0,0
-469,-706,0,0,0,0,0,0,0,0,0,-1,755,1730,0,0
-462,-706,0,0,0,0,0,0,0,0,0,-1,762,1730,0,0
-455,-706,0,0,0,0,0,0,0,0,0,-1,769,1730,0,0
-448,-706,0,0,0,0,0,0,0,0,0,-1,776,1730,0,0
-441,-706,0,0,0,0,0,0,0,0,0,-1,783,1730,0,0
-434,-706,0,0,0,0,0,0,0,0,0,-1,790,1730,0,0
-427,-706,0,0,0,0,0,0,0,0,0,-1,797,1730,0,0
-420,-706,0,0,0,0,0,0,0,0,0,-1,804,1730,0,0
-413,-706,0,0,0,0,0,0,0,0,0,-1,811,1730,0,0
-406,-706,0,0,0,0,0,0,0,0,0,-1,818,1730,0,0
-399,-706,0,0,0,0,0,0,0,0,0,-1,825,1730,0,0
-392,-706,0,0,0,0,0,0,0,0,0,-1,832,1730,0,0
-385,-706,0,0,0,0,0,0,0,0,0,-1,839,1730,0,0
-378,-706,0,0,0,0,0,0,0,0,0,-1,846,1730,0,0
-371,-706,0,0,0,0,0,0,0,0,0,-1,853,1730,0,0
-364,-706,0,0,0,0,0,0,0,0,0,-1,860,1730,0,0
-357,-706,0,0,0,0,0,0,0,0,0,-1,867,1730,0,0
-350,-706,0,0,0,0,0,0,0,0,0,-1,874,1730,0,0
-343,-706,0,0,0,0,0,0,0,0,0,-1,881,1730,0,0
-336,-706,0,0,0,0,0,0,0,0,0,-1,888,1730,0,0
-329,-706,0,0,0,0,0,0,0,0,0,-1,895,1730,0,0
-322,-706,0,0,0,0,0,0,0,0,0,-1,902,1730,0,0
-315,-706,0,0,0,0,0,0,0,0,0,-1,909,1730,0,0
-308,-706,5.08191,14.6245,0,0,0,0,0,0,0,-1,916,1730,5.08188,-14.6245
-301,-706,7.45007,21.1975,0,0,0,0,0,0,0,-1,923,1730,7.45005,-21.1976
-294,-706,7.04108,20.9526,0,0,0,0,0,0,0,-1,930,1730,7.04107,-20.9527
-287,-706,6.48712,20.8536,0,0,0,0,0,0,0,-1,937,1730,6.48709,-20.8537
-280,-706,8.89893,22.106,0,0,0,0,0,0,0,-1,944,1730,8.89893,-22.1059
-273,-706,9.28308,22.4645,0,0,0,0,0,0,0,-1,951,1730,9.28307,-22.4645
-266,-706,9.66724,22.8231,0,0,0,0,0,0,0,-1,958,1730,9.66722,-22.8231
-259,-706,3.47852,20.7363,0,0,0,0,0,0,0,-1,965,1730,3.47851,-20.7364
-252,-706,3.84259,20.1979,0,0,0,0,0,0,0,-1,972,1730,3.84256,-20.1979
-245,-706,4.698,19.2992,0,0,0,0,0,0,0,-1,979,1730,4.69799,-19.2991
-238,-706,5.81995,22.8739,0,0,0,0,0,0,0,-1,986,1730,5.81995,-22.8739
-231,-706,5.97192,21.8452,0,0,0,0,0,0,0,-1,993,1730,5.9719,-21.8452
-224,-706,5.82373,22.5737,0,0,0,0,0,0,0,-1,1000,1730,5.82371,-22.5738
-217,-706,5.93561,22.5323,-0.00122796,-0.00837449,-0.00196202,-0.000724737,-0.00887771,-0.251069,0.00569229,0.0460054,1007,1730,5.93559,-22.5324
-210,-706,5.94489,22.618,-0.000777345,-0.00710047,-0.00147516,-0.000450131,-0.00742768,-0.218283,0.00480877,0.0399648,1014,1730,5.94488,-22.6181
-203,-706,5.94714,22.7384,-0.000341652,-0.0062153,-0.00121754,-9.92734e-05,-0.00645768,-0.196504,0.00427241,0.0295284,1021,1730,5.94717,-22.7384
-196,-706,6.01587,22.8748,-0.000319346,-0.0049699,-0.000905133,-0.000149392,-0.00513985,-0.185606,0.00337787,0.0225404,1028,1730,6.01589,-22.8747
-189,-706,5.97095,23.0925,-9.72294e-05,-0.00427996,-0.000595574,-1.4079e-05,-0.00436311,-0.138717,0.00290406,0.0172068,1035,1730,5.97089,-23.0925
-182,-706,5.92383,23.3241,-0.000110968,-0.00359468,-0.000423028,-6.0336e-05,-0.00364532,-0.119124,0.00241035,0.0121737,1042,1730,5.9238,-23.3241
-175,-706,5.92627,23.5327,-0.000193755,-0.00279533,-0.000142593,-0.000185962,-0.00280312,-0.0545924,0.00180995,0.0143442,1049,1730,5.9263,-23.5328
-168,-706,5.94397,23.7183,-0.000406167,-0.00208257,0.000125893,-0.000396766,-0.00209197,0.07454,0.00128301,0.0156433,1056,1730,5.94395,-23.7183
-161,-706,5.93872,23.9238,-0.000610539,-0.00105187,0.000375608,-0.000395574,-0.00126684,0.519812,0.000748399,0.0129099,1063,1730,5.93877,-23.9238
-154,-706,5.89709,24.134,-0.000610093,-0.00028911,0.000577665,0.000149944,-0.00104915,0.920895,0.000754396,0.012376,1070,1730,5.89714,-24.134
-147,-706,5.88977,24.2998,-0.000683106,0.000265642,0.000722778,0.000655813,-0.00107328,1.0758,0.00100794,0.0116077,1077,1730,5.88982,-24.2999
-140,-706,5.896,24.4923,-0.000568595,0.000773773,0.000851519,0.00118683,-0.000981649,1.11916,0.00125384,0.010435,1084,1730,5.896,-24.4923
-133,-706,5.88928,24.675,-0.000265589,0.00128101,0.000871401,0.00167276,-0.000657334,1.14831,0.00138721,0.00798441,1091,1730,5.88924,-24.675
-126,-706,5.8894,24.8459,-4.80432e-05,0.00185498,0.000855052,0.00218272,-0.000375785,1.20477,0.00159523,0.0124805,1098,1730,5.88936,-24.8459
-119,-706,5.87402,24.9846,0.00011891,0.00233585,0.000854294,0.00262685,-0.000172093,1.24249,0.00181132,0.0174586,1105,1730,5.87404,-24.9847
-112,-706,5.87769,25.1943,0.000415335,0.00263287,0.000808882,0.00289657,0.000151639,1.25566,0.00188254,0.0122417,1112,1730,5.87768,-25.1944
-105,-706,5.86938,25.3591,0.000647302,0.00277358,0.000697395,0.0029819,0.000438976,1.28051,0.00185897,0.00853687,1119,1730,5.86943,-25.3591
-98,-706,5.8844,25.4802,0.000811375,0.00285284,0.000689316,0.0030638,0.000600421,1.27381,0.00187472,0.0102909,1126,1730,5.88435,-25.4802
-91,-706,5.88916,25.6144,0.00103946,0.00279728,0.000689515,0.00303547,0.000801265,1.23818,0.00181645,0.0140796,1133,1730,5.88916,-25.6144
-84,-706,5.86755,25.7655,0.00128497,0.00273256,0.000722821,0.00303168,0.000985855,1.17843,0.00178565,0.016418,1140,1730,5.86758,-25.7655
-77,-706,5.87305,25.8846,0.00165476,0.00269694,0.000645315,0.00300528,0.00134642,1.12504,0.00173822,0.0160878,1147,1730,5.87306,-25.8846
-70,-706,5.87085,26.0372,0.00196314,0.00256405,0.000431984,0.00278979,0.0017374,1.08926,0.00162679,0.0190941,1154,1730,5.87086,-26.0372
-63,-706,5.85266,26.1537,0.00229426,0.0021326,0.000211049,0.00243943,0.00198743,0.602516,0.00149852,0.0139865,1161,1730,5.85265,-26.1537
-56,-706,5.86499,26.2529,0.00317539,0.00296726,0.000584174,0.0036647,0.00247796,0.697255,0.00215915,0.0128787,1168,1730,5.86505,-26.2529
-49,-706,5.87415,26.3916,0.00415996,0.00373072,0.00114743,0.00511267,0.00277801,0.692945,0.0029555,0.0129296,1175,1730,5.87416,-26.3916
-42,-706,5.90674,26.4614,0.00478404,0.00457976,0.00163243,0.00631753,0.00304627,0.754155,0.0036482,0.0166549,1182,1730,5.90679,-26.4615
-35,-706,5.9198,26.5399,0.00543126,0.00557177,0.00193263,0.00743542,0.00356761,0.803566,0.00429401,0.0178847,1189,1730,5.91977,-26.5399
-28,-706,5.95679,26.6315,0.00612395,0.00673606,0.00241405,0.00886338,0.00399663,0.848452,0.00512549,0.01097,1196,1730,5.95677,-26.6315
-21,-706,5.97009,26.7128,0.00669652,0.00787886,0.00253014,0.00988598,0.00468941,0.900164,0.00571017,0.0108153,1203,1730,5.9701,-26.7128
-14,-706,5.97705,26.7795,0.00735769,0.00825768,0.00280415,0.0106477,0.00496766,0.864957,0.00615204,0.0104427,1210,1730,5.97708,-26.7796
-7,-706,5.99622,26.873,0.00820726,0.00875905,0.00361237,0.012106,0.00486026,0.823512,0.00703452,0.00862088,1217,1730,5.99622,-26.8731
0,-706,6.01599,26.9657,0.00889508,0.00913358,0.00439751,0.0134135,0.0046152,0.798953,0.00786879,0.0123711,1224,1730,6.01605,-26.9657
7,-706,6.03979,27.0234,0.00920904,0.00931284,0.00508665,0.0143479,0.00417403,0.790499,0.00852174,0.0136171,1231,1730,6.03985,-27.0235
14,-706,6.04529,27.0679,0.00943343,0.00907891,0.00575314,0.015012,0.0035003,0.769998,0.00906928,0.0133905,1238,1730,6.04527,-27.0679
21,-706,6.06787,27.0878,0.00996865,0.00855253,0.00637804,0.0156778,0.00284337,0.730117,0.00964482,0.0115497,1245,1730,6.06792,-27.0877
28,-706,6.08215,27.1217,0.0102771,0.00788055,0.00722268,0.0164002,0.00175742,0.703194,0.0103973,0.0114107,1252,1730,6.08215,-27.1217
35,-706,6.10156,27.191,0.0102781,0.0073372,0.00790315,0.0168464,0.000768857,0.693421,0.0109836,0.0133513,1259,1730,6.10152,-27.1911
42,-706,6.14587,27.2408,0.00997067,0.00704286,0.00845726,0.0170898,-7.62576e-05,0.6997,0.0114187,0.0131044,1266,1730,6.14591,-27.2409
49,-706,6.17908,27.2566,0.00844674,0.00617969,0.0084601,0.0158489,-0.00122248,0.718802,0.0109961,0.0147247,1273,1730,6.17911,-27.2566
56,-706,6.19788,27.2712,0.00691467,0.00543461,0.00794679,0.0141558,-0.00180653,0.738971,0.0100934,0.0130116,1280,1730,6.19783,-27.2713
63,-706,6.21912,27.2563,0.00580769,0.00494515,0.00741733,0.0128063,-0.00205344,0.756359,0.00929789,0.0109541,1287,1730,6.21906,-27.2564
70,-706,6.21899,27.2446,0.00444907,0.00425658,0.00696311,0.0113166,-0.00261095,0.778488,0.00854868,0.0114571,1294,1730,6.21898,-27.2446
77,-706,6.22791,27.2611,0.00300504,0.00352882,0.00621877,0.00949121,-0.00295735,0.806442,0.00750993,0.0109181,1301,1730,6.22794,-27.2611
84,-706,6.2428,27.2594,0.00161266,0.00277113,0.00552914,0.0077513,-0.0033675,0.837588,0.00658366,0.00901187,1308,1730,6.24281,-27.2594
91,-706,6.2572,27.2623,0.000754547,0.00254295,0.00456387,0.00629939,-0.0030019,0.882138,0.00548144,0.0103135,1315,1730,6.25724,-27.2623
98,-706,6.28284,27.2573,-9.03166e-05,0.00197609,0.00334984,0.00444845,-0.00256268,0.934986,0.00409639,0.0143085,1322,1730,6.28284,-27.2573
105,-706,6.31775,27.2435,-0.000261002,0.00126223,0.00245947,0.0030753,-0.00207408,0.935549,0.00299167,0.0161934,1329,1730,6.31778,-27.2435
112,-706,6.31592,27.2256,0.000356921,0.000504722,0.00198968,0.00242187,-0.00156023,0.803961,0.00231694,0.0157685,1336,1730,6.31588,-27.2255
119,-706,6.3623,27.2115,0.00120502,-7.38268e-05,0.00173916,0.00241858,-0.00128739,0.609237,0.00217261,0.0135013,1343,1730,6.36231,-27.2115
126,-706,6.37622,27.15,0.00179013,-0.000613134,0.00159964,0.00258919,-0.00141219,0.463267,0.00234328,0.0142655,1350,1730,6.37626,-27.15
133,-706,6.39929,27.0619,0.00261764,-0.00109255,0.00129782,0.00302655,-0.00150146,0.305227,0.00266322,0.0117112,1357,1730,6.39932,-27.0619
140,-706,6.43286,26.9889,0.003635,-0.0014731,0.00123423,0.00391758,-0.00175568,0.225076,0.0033538,0.0114528,1364,1730,6.43285,-26.9889
147,-706,6.46997,26.9305,0.00443057,-0.00169291,0.0012894,0.004691,-0.00195334,0.199295,0.00394316,0.0192158,1371,1730,6.46993,-26.9306
154,-706,6.4812,26.8856,0.00566422,-0.0013314,0.00150321,0.00597355,-0.00164073,0.202947,0.00462728,0.0196104,1378,1730,6.48118,-26.8857
161,-706,6.45068,26.8173,0.00576884,-0.000788027,0.00190502,0.00628214,-0.00130133,0.263195,0.00468254,0.0110482,1385,1730,6.45068,-26.8172
168,-706,6.4574,26.7455,0.00475627,-0.000496748,0.00179538,0.00531126,-0.00105174,0.299804,0.00393851,0.010399,1392,1730,6.45738,-26.7455
175,-706,6.48926,26.6703,0.00398634,0.000179078,0.00111235,0.0042875,-0.000122088,0.264409,0.00289989,0.0101147,1399,1730,6.48922,-26.6702
182,-706,6.50146,26.5598,0.00307689,0.000742744,0.000494465,0.00317732,0.000642317,0.200376,0.00193988,0.011115,1406,1730,6.50149,-26.5598
189,-706,6.50012,26.444,0.00238223,0.000966794,0.000392224,0.00248365,0.000865374,0.253034,0.00145573,0.01491,1413,1730,6.50015,-26.444
196,-706,6.50391,26.3492,0.0010994,0.00113775,0.000676375,0.00179523,0.000441931,0.799568,0.00108008,0.0128567,1420,1730,6.5039,-26.3493
203,-706,6.50769,26.2806,0.000862354,0.000970322,0.000554909,0.00147387,0.000358809,0.833888,0.000887491,0.0135186,1427,1730,6.50772,-26.2806
210,-706,6.5166,26.1561,0.000617621,0.000893928,0.000414223,0.00119243,0.00031912,0.94636,0.000712802,0.0120763,1434,1730,6.5166,-26.1561
217,-706,6.51782,26.0514,0.000352521,0.000837473,0.00017009,0.000891181,0.000298813,1.26494,0.000523746,0.0125274,1441,1730,6.51779,-26.0514
224,-706,6.51465,25.9379,0.000198801,0.000875396,-9.15384e-05,0.000887562,0.000186635,-1.43867,0.000540349,0.0184067,1448,1730,6.51464,-25.9379
231,-706,6.5354,25.7786,7.67599e-05,0.000919129,-0.000386054,0.00106929,-7.33997e-05,-1.19984,0.000738543,0.014102,1455,1730,6.53537,-25.7786
238,-706,6.53369,25.6306,8.58398e-05,0.00100899,-0.000621573,0.00132163,-0.000226798,-1.10477,0.000965603,0.00897051,1462,1730,6.53373,-25.6306
245,-706,6.52063,25.4957,0.000174171,0.00115518,-0.000870015,0.00166343,-0.000334085,-1.04208,0.00123547,0.0113799,1469,1730,6.52058,-25.4958
252,-706,6.52393,25.3643,0.000234961,0.00132575,-0.00111328,0.00202005,-0.000459341,-1.01316,0.00152308,0.0112996,1476,1730,6.52397,-25.3643
259,-706,6.54138,25.2231,0.000260127,0.00152248,-0.00129148,0.00232877,-0.000546166,-1.01269,0.001763,0.0120847,1483,1730,6.5414,-25.2231
266,-706,6.53442,25.0824,0.000257135,0.00173014,-0.00145682,0.00262605,-0.000638773,-1.01944,0.00199796,0.0121573,1490,1730,6.53437,-25.0824
273,-706,6.52124,24.9291,0.000190465,0.00213872,-0.0015867,0.00302646,-0.000697271,-1.0607,0.00228579,0.0118542,1497,1730,6.52126,-24.9291
280,-706,6.50903,24.749,4.04858e-05,0.00242776,-0.00167168,0.00328821,-0.000819966,-1.09544,0.0025105,0.0105172,1504,1730,6.50908,-24.749
287,-706,6.48547,24.5671,-0.000176391,0.00229409,-0.00150018,0.00300213,-0.000884434,-1.12982,0.00235232,0.0115087,1511,1730,6.48547,-24.5672
294,-706,6.50366,24.416,-0.000434384,0.00238222,-0.00145728,0.00300049,-0.00105265,-1.16955,0.00242849,0.0111124,1518,1730,6.50372,-24.4161
301,-706,6.50903,24.2288,-0.000874448,0.00238308,-0.00137082,0.00288317,-0.00137454,-1.22099,0.0025091,0.0110583,1525,1730,6.50907,-24.2288
308,-706,6.50928,24.0319,-0.00139094,0.00208408,-0.00117314,0.00244304,-0.0017499,-1.27386,0.0024318,0.0132676,1532,1730,6.50925,-24.0319
315,-706,6.50452,23.8552,-0.0018811,0.00181491,-0.000944133,0.00204211,-0.00210831,-1.33463,0.00239635,0.0199681,1539,1730,6.50452,-23.8552
322,-706,6.46216,23.699,-0.00235219,0.00143129,-0.000696998,0.00155561,-0.00247651,-1.39429,0.00234809,0.0245867,1546,1730,6.46212,-23.6989
329,-706,6.44458,23.4202,-0.00284572,0.000831733,-0.000319592,0.000859301,-0.00287328,-1.48475,0.00225715,0.0222097,1553,1730,6.44463,-23.4202
336,-706,6.42822,23.1263,-0.00306714,-4.7213e-06,1.59787e-05,-4.63799e-06,-0.00306722,1.56558,0.00204327,0.02911,1560,1730,6.42826,-23.1264
343,-706,6.4718,23.0233,-0.00335556,-0.00109152,0.000398531,-0.00102341,-0.00342367,1.40155,0.00202924,0.0355367,1567,1730,6.47175,-23.0233
350,-706,6.36523,22.7223,-0.00369163,-0.00277696,0.00105482,-0.0020846,-0.00438399,0.989951,0.00253211,0.0394198,1574,1730,6.3652,-22.7223
357,-706,6.29456,22.4756,-0.00368921,-0.00436643,0.00166903,-0.00232479,-0.00573085,0.685318,0.00332828,0.0496625,1581,1730,6.29454,-22.4756
364,-706,6.30945,22.6155,0,0,0,0,0,0,0,-1,1588,1730,6.30947,-22.6155
371,-706,6.40771,20.4159,0,0,0,0,0,0,0,-1,1595,1730,6.40768,-20.4159
378,-706,6.01331,20.1378,0,0,0,0,0,0,0,-1,1602,1730,6.01329,-20.1379
385,-706,7.9209,18.6349,0,0,0,0,0,0,0,-1,1609,1730,7.92092,-18.6349
392,-706,5.05701,18.6085,0,0,0,0,0,0,0,-1,1616,1730,5.05699,-18.6085
399,-706,6.0332,16.6144,0,0,0,0,0,0,0,-1,1623,1730,6.03321,-16.6143
406,-706,6.04211,18.8085,0,0,0,0,0,0,0,-1,1630,1730,6.04216,-18.8085
413,-706,6.23413,20.7725,0,0,0,0,0,0,0,-1,1637,1730,6.23413,-20.7725
420,-706,6.51294,21.9171,0,0,0,0,0,0,0,-1,1644,1730,6.51292,-21.9171
427,-706,0,0,0,0,0,0,0,0,0,-1,1651,1730,0,0
434,-706,0,0,0,0,0,0,0,0,0,-1,1658,1730,0,0
441,-706,0,0,0,0,0,0,0,0,0,-1,1665,1730,0,0
448,-706,0,0,0,0,0,0,0,0,0,-1,1672,1730,0,0
455,-706,0,0,0,0,0,0,0,0,0,-1,1679,1730,0,0
462,-706,0,0,0,0,0,0,0,0,0,-1,1686,1730,0,0
469,-706,0,0,0,0,0,0,0,0,0,-1,1693,1730,0,0
476,-706,0,0,0,0,0,0,0,0,0,-1,1700,1730,0,0
483,-706,0,0,0,0,0,0,0,0,0,-1,1707,1730,0,0
490,-706,0,0,0,0,0,0,0,0,0,-1,1714,1730,0,0
497,-706,0,0,0,0,0,0,0,0,0,-1,1721,1730,0,0
504,-706,0,0,0,0,0,0,0,0,0,-1,1728,1730,0,0
511,-706,0,0,0,0,0,0,0,0,0,-1,1735,1730,0,0
518,-706,0,0,0,0,0,0,0,0,0,-1,1742,1730,0,0
525,-706,0,0,0,0,0,0,0,0,0,-1,1749,1730,0,0
532,-706,0,0,0,0,0,0,0,0,0,-1,1756,1730,0,0
539,-706,0,0,0,0,0,0,0,0,0,-1,1763,1730,0,0
546,-706,0,0,0,0,0,0,0,0,0,-1,1770,1730,0,0
553,-706,0,0,0,0,0,0,0,0,0,-1,1777,1730,0,0
560,-706,0,0,0,0,0,0,0,0,0,-1,1784,1730,0,0
567,-706,0,0,0,0,0,0,0,0,0,-1,1791,1730,0,0
574,-706,0,0,0,0,0,0,0,0,0,-1,1798,1730,0,0
581,-706,0,0,0,0,0,0,0,0,0,-1,1805,1730,0,0
588,-706,0,0,0,0,0,0,0,0,0,-1,1812,1730,0,0
595,-706,0,0,0,0,0,0,0,0,0,-1,1819,1730,0,0
602,-706,0,0,0,0,0,0,0,0,0,-1,1826,1730,0,0
609,-706,0,0,0,0,0,0,0,0,0,-1,1833,1730,0,0
616,-706,0,0,0,0,0,0,0,0,0,-1,1840,1730,0,0
623,-706,0,0,0,0,0,0,0,0,0,-1,1847,1730,0,0
630,-706,0,0,0,0,0,0,0,0,0,-1,1854,1730,0,0
637,-706,0,0,0,0,0,0,0,0,0,-1,1861,1730,0,0
644,-706,0,0,0,0,0,0,0,0,0,-1,1868,1730,0,0
651,-706,0,0,0,0,0,0,0,0,0,-1,1875,1730,0,0
658,-706,0,0,0,0,0,0,0,0,0,-1,1882,1730,0,0
665,-706,0,0,0,0,0,0,0,0,0,-1,1889,1730,0,0
672,-706,0,0,0,0,0,0,0,0,0,-1,1896,1730,0,0
679,-706,0,0,0,0,0,0,0,0,0,-1,1903,1730,0,0
686,-706,0,0,0,0,0,0,0,0,0,-1,1910,1730,0,0
693,-706,0,0,0,0,0,0,0,0,0,-1,1917,1730,0,0
700,-706,0,0,0,0,0,0,0,0,0,-1,1924,1730,0,0
707,-706,0,0,0,0,0,0,0,0,0,-1,1931,1730,0,0
714,-706,0,0,0,0,0,0,0,0,0,-1,1938,1730,0,0
721,-706,0,0,0,0,0,0,0,0,0,-1,1945,1730,0,0
728,-706,0,0,0,0,0,0,0,0,0,-1,1952,1730,0,0
735,-706,0,0,0,0,0,0,0,0,0,-1,1959,1730,0,0
742,-706,0,0,0,0,0,0,0,0,0,-1,1966,1730,0,0
749,-706,0,0,0,0,0,0,0,0,0,-1,1973,1730,0,0
756,-706,0,0,0,0,0,0,0,0,0,-1,1980,1730,0,0
763,-706,0,0,0,0,0,0,0,0,0,-1,1987,1730,0,0
770,-706,0,0,0,0,0,0,0,0,0,-1,1994,1730,0,0
777,-706,0,0,0,0,0,0,0,0,0,-1,2001,1730,0,0
784,-706,0,0,0,0,0,0,0,0,0,-1,2008,1730,0,0
791,-706,0,0,0,0,0,0,0,0,0,-1,2015,1730,0,0
798,-706,0,0,0,0,0,0,0,0,0,-1,2022,1730,0,0
805,-706,0,0,0,0,0,0,0,0,0,-1,2029,1730,0,0
812,-706,0,0,0,0,0,0,0,0,0,-1,2036,1730,0,0
-700,-713,0,0,0,0,0,0,0,0,0,-1,524,1737,0,0
-693,-713,0,0,0,0,0,0,0,0,0,-1,531,1737,0,0
-686,-713,0,0,0,0,0,0,0,0,0,-1,538,1737,0,0
-679,-713,0,0,0,0,0,0,0,0,0,-1,545,1737,0,0
-672,-713,0,0,0,0,0,0,0,0,0,-1,552,1737,0,0
-665,-713,0,0,0,0,0,0,0,0,0,-1,559,1737,0,0
-658,-713,0,0,0,0,0,0,0,0,0,-1,566,1737,0,0
-651,-713,0,0,0,0,0,0,0,0,0,-1,573,1737,0,0
-644,-713,0,0,0,0,0,0,0,0,0,-1,580,1737,0,0
-637,-713,0,0,0,0,0,0,0,0,0,-1,587,1737,0,0
-630,-713,0,0,0,0,0,0,0,0,0,-1,594,1737,0,0
-623,-713,0,0,0,0,0,0,0,0,0,-1,601,1737,0,0
-616,-713,0,0,0,0,0,0,0,0,0,-1,608,1737,0,0
-609,-713,0,0,0,0,0,0,0,0,0,-1,615,1737,0,0
-602,-713,0,0,0,0,0,0,0,0,0,-1,622,1737,0,0
-595,-713,0,0,0,0,0,0,0,0,0,-1,629,1737,0,0
-588,-713,0,0,0,0,0,0,0,0,0,-1,636,1737,0,0
-581,-713,0,0,0,0,0,0,0,0,0,-1,643,1737,0,0
-574,-713,0,0,0,0,0,0,0,0,0,-1,650,1737,0,0
-567,-713,0,0,0,0,0,0,0,0,0,-1,657,1737,0,0
-560,-713,0,0,0,0,0,0,0,0,0,-1,664,1737,0,0
-553,-713,0,0,0,0,0,0,0,0,0,-1,671,1737,0,0
-546,-713,0,0,0,0,0,0,0,0,0,-1,678,1737,0,0
-539,-713,0,0,0,0,0,0,0,0,0,-1,685,1737,0,0
-532,-713,0,0,0,0,0,0,0,0,0,-1,692,1737,0,0
-525,-713,0,0,0,0,0,0,0,0,0,-1,699,1737,0,0
-518,-713,0,0,0,0,0,0,0,0,0,-1,706,1737,0,0
-511,-713,0,0,0,0,0,0,0,0,0,-1,713,1737,0,0
-504,-713,0,0,0,0,0,0,0,0,0,-1,720,1737,0,0
-497,-713,0,0,0,0,0,0,0,0,0,-1,727,1737,0,0
-490,-713,0,0,0,0,0,0,0,0,0,-1,734,1737,0,0
-483,-713,0,0,0,0,0,0,0,0,0,-1,741,1737,0,0
-476,-713,0,0,0,0,0,0,0,0,0,-1,748,1737,0,0
-469,-713,0,0,0,0,0,0,0,0,0,-1,755,1737,0,0
-462,-713,0,0,0,0,0,0,0,0,0,-1,762,1737,0,0
-455,-713,0,0,0,0,0,0,0,0,0,-1,769,1737,0,0
-448,-713,0,0,0,0,0,0,0,0,0,-1,776,1737,0,0
-441,-713,0,0,0,0,0,0,0,0,0,-1,783,1737,0,0
-434,-713,0,0,0,0,0,0,0,0,0,-1,790,1737,0,0
-427,-713,0,0,0,0,0,0,0,0,0,-1,797,1737,0,0
-420,-713,0,0,0,0,0,0,0,0,0,-1,804,1737,0,0
-413,-713,0,0,0,0,0,0,0,0,0,-1,811,1737,0,0
-406,-713,0,0,0,0,0,0,0,0,0,-1,818,1737,0,0
-399,-713,0,0,0,0,0,0,0,0,0,-1,825,1737,0,0
-392,-713,0,0,0,0,0,0,0,0,0,-1,832,1737,0,0
-385,-713,0,0,0,0,0,0,0,0,0,-1,839,1737,0,0
-378,-713,0,0,0,0,0,0,0,0,0,-1,846,1737,0,0
-371,-713,0,0,0,0,0,0,0,0,0,-1,853,1737,0,0
-364,-713,0,0,0,0,0,0,0,0,0,-1,860,1737,0,0
-357,-713,0,0,0,0,0,0,0,0,0,-1,867,1737,0,0
-350,-713,0,0,0,0,0,0,0,0,0,-1,874,1737,0,0
-343,-713,0,0,0,0,0,0,0,0,0,-1,881,1737,0,0
-336,-713,0,0,0,0,0,0,0,0,0,-1,888,1737,0,0
-329,-713,0,0,0,0,0,0,0,0,0,-1,895,1737,0,0
-322,-713,0,0,0,0,0,0,0,0,0,-1,902,1737,0,0
-315,-713,0,0,0,0,0,0,0,0,0,-1,909,1737,0,0
-308,-713,0,0,0,0,0,0,0,0,0,-1,916,1737,0,0
-301,-713,0,0,0,0,0,0,0,0,0,-1,923,1737,0,0
-294,-713,7.17883,22.0453,0,0,0,0,0,0,0,-1,930,1737,7.17881,-22.0453
-287,-713,6.85907,21.8297,0,0,0,0,0,0,0,-1,937,1737,6.85906,-21.8298
-280,-713,6.17188,21.8059,0,0,0,0,0,0,0,-1,944,1737,6.17188,-21.8059
-273,-713,11.1981,23.8683,0,0,0,0,0,0,0,-1,951,1737,11.198,-23.8683
-266,-713,3.17981,19.8851,0,0,0,0,0,0,0,-1,958,1737,3.17983,-19.8851
-259,-713,3.5921,19.6868,0,0,0,0,0,0,0,-1,965,1737,3.59207,-19.6868
-252,-713,4.55469,20.5758,0,0,0,0,0,0,0,-1,972,1737,4.55466,-20.5758
-245,-713,3.89014,25.9825,0,0,0,0,0,0,0,-1,979,1737,3.89013,-25.9826
-238,-713,5.06873,23.7134,0,0,0,0,0,0,0,-1,986,1737,5.06872,-23.7133
-231,-713,6.10193,21.7653,0,0,0,0,0,0,0,-1,993,1737,6.10191,-21.7653
-224,-713,7.32635,19.5167,0,0,0,0,0,0,0,-1,1000,1737,7.32636,-19.5168
-217,-713,6.13898,22.7769,0,0,0,0,0,0,0,-1,1007,1737,6.13901,-22.7769
-210,-713,5.9436,22.601,0,0,0,0,0,0,0,-1,1014,1737,5.94362,-22.601
-203,-713,6.08289,22.6786,0.000554059,-0.00857419,-0.00191571,0.000939801,-0.00895993,-0.1987,0.00630993,0.0412875,1021,1737,6.08293,-22.6786
-196,-713,6.37378,22.781,0.000284945,-0.00675644,-0.00141877,0.000560065,-0.00703156,-0.191537,0.00488511,0.0424639,1028,1737,6.37377,-22.781
-189,-713,6.32751,23.0585,0.000311469,-0.00570566,-0.000924731,0.000450377,-0.00584457,-0.1491,0.00405485,0.0408062,1035,1737,6.3275,-23.0585
-182,-713,6.1532,23.2609,3.30923e-05,-0.00472643,-0.000621449,0.000112896,-0.00480623,-0.127717,0.00324244,0.0260801,1042,1737,6.15314,-23.2608
-175,-713,6.14868,23.4695,-0.00031515,-0.00365872,-0.000192557,-0.000304097,-0.00366977,-0.0573374,0.00235171,0.0243702,1049,1737,6.14873,-23.4695
-168,-713,6.26331,23.6086,-0.000718889,-0.00273807,0.000213949,-0.000696469,-0.00276049,0.104414,0.00165768,0.0314649,1056,1737,6.26335,-23.6087
-161,-713,6.1283,23.9232,-0.00105315,-0.00147365,0.000543143,-0.000680984,-0.00184582,0.600731,0.00107782,0.0166242,1063,1737,6.12829,-23.9232
-154,-713,6.06726,24.1309,-0.00113553,-0.000588869,0.000795683,-2.0878e-05,-0.00170352,0.950841,0.00112879,0.0119515,1070,1737,6.06728,-24.1308
-147,-713,6.05273,24.3136,-0.00130441,3.94144e-05,0.000982032,0.000557399,-0.00182239,1.08542,0.00143722,0.0185931,1077,1737,6.0527,-24.3135
-140,-713,6.05896,24.5093,-0.00120115,0.000601974,0.00113845,0.00115261,-0.00175179,1.1203,0.00168871,0.0175795,1084,1737,6.059,-24.5092
-133,-713,6.05371,24.6874,-0.000876807,0.00118203,0.00115319,0.00169843,-0.00139321,1.14977,0.00178786,0.0106487,1091,1737,6.05376,-24.6874
-126,-713,6.05823,24.8407,-0.000709946,0.00181701,0.00107719,0.00221387,-0.0011068,1.21781,0.00195238,0.0172003,1098,1737,6.05825,-24.8407
-119,-713,6.03284,24.9597,-0.000573207,0.0023527,0.00105229,0.00269184,-0.000912352,1.25902,0.00216377,0.0260868,1105,1737,6.03281,-24.9597
-112,-713,6.02405,25.1932,-0.000264188,0.00269671,0.0009622,0.00298192,-0.0005494,1.28263,0.00219413,0.0131116,1112,1737,6.02404,-25.1933
-105,-713,6.02991,25.3492,-5.2314e-05,0.00285802,0.000764743,0.00304673,-0.000241028,1.32886,0.00211608,0.0097686,1119,1737,6.0299,-25.3493
-98,-713,6.03613,25.4857,4.23375e-05,0.00296417,0.000707875,0.00312663,-0.000120126,1.34519,0.0021256,0.00951007,1126,1737,6.03617,-25.4858
-91,-713,6.01123,25.6156,0.000221864,0.00286968,0.000654677,0.00302271,6.88384e-05,1.34118,0.00199259,0.00947429,1133,1737,6.01117,-25.6156
-84,-713,6.00098,25.7522,0.000368218,0.00283069,0.00063961,0.00298691,0.000211995,1.33124,0.00192451,0.00845067,1140,1737,6.00094,-25.7522
-77,-713,6.00061,25.8939,0.000649099,0.00279373,0.000596138,0.0029483,0.000494532,1.3171,0.00182318,0.0124252,1147,1737,6.00063,-25.8939
-70,-713,5.98706,26.0317,0.000920016,0.00258083,0.000435965,0.00268831,0.000812531,1.32907,0.00159205,0.0150226,1154,1737,5.98705,-26.0317
-63,-713,5.98792,26.1354,0.00111247,0.00222732,0.000273654,0.00229087,0.00104892,1.34262,0.0013242,0.012647,1161,1737,5.98794,-26.1353
-56,-713,6.01196,26.2563,0.00139728,0.00185059,0.000232766,0.00194883,0.00129904,1.17145,0.00114578,0.0122515,1168,1737,6.01193,-26.2564
-49,-713,5.98486,26.3793,0.00170258,0.0015028,0.000262148,0.00188323,0.00132216,0.603367,0.00111649,0.0146422,1175,1737,5.98481,-26.3793
-42,-713,6.02124,26.4451,0.0019917,0.00142646,0.000360096,0.00216684,0.00125132,0.452679,0.00125602,0.0178133,1182,1737,6.0212,-26.4451
-35,-713,6.04883,26.5272,0.00233359,0.00151909,0.000377952,0.00248194,0.00137073,0.374051,0.00143556,0.0153733,1189,1737,6.0488,-26.5272
-28,-713,6.06274,26.6357,0.0026106,0.00158238,0.00043094,0.00276732,0.00142566,0.34881,0.00159796,0.0128889,1196,1737,6.06276,-26.6358
-21,-713,6.04053,26.7262,0.00283744,0.00177439,0.000294082,0.00291337,0.00169845,0.252678,0.00168974,0.00915402,1203,1737,6.04059,-26.7262
-14,-713,6.04346,26.7841,0.00323011,0.00175059,0.000384742,0.00332418,0.00165652,0.239795,0.00191922,0.010059,1210,1737,6.04348,-26.7841
-7,-713,6.07043,26.884,0.00373779,0.0019422,0.00080382,0.00404505,0.00163494,0.365114,0.00234966,0.00908065,1217,1737,6.07041,-26.884
0,-713,6.0863,26.942,0.00423243,0.00229714,0.0012771,0.00486706,0.0016625,0.461195,0.00285663,0.0140085,1224,1737,6.08636,-26.942
7,-713,6.10608,26.9951,0.00455118,0.00257349,0.00173245,0.00555712,0.00156754,0.526069,0.00330843,0.0164052,1231,1737,6.10609,-26.9951
14,-713,6.11353,27.0518,0.00479935,0.0026439,0.00221742,0.00618708,0.00125617,0.559195,0.00377629,0.0119263,1238,1737,6.11347,-27.0517
21,-713,6.11951,27.0984,0.00529882,0.00259789,0.00271069,0.00697682,0.000919888,0.554295,0.00437693,0.0104703,1245,1737,6.11951,-27.0984
28,-713,6.12085,27.1399,0.00569175,0.00245263,0.00337352,0.00781433,0.000330049,0.561606,0.0051031,0.0109498,1252,1737,6.12085,-27.1398
35,-713,6.13416,27.1908,0.00594586,0.0024173,0.00388053,0.00844435,-8.1195e-05,0.572042,0.00565682,0.0109558,1259,1737,6.13415,-27.1908
42,-713,6.16504,27.2369,0.00599749,0.0025314,0.00438686,0.00898122,-0.000452331,0.59728,0.00614381,0.0116041,1266,1737,6.165,-27.2369
49,-713,6.17773,27.2451,0.0051928,0.00248692,0.00466164,0.00869386,-0.00101415,0.644164,0.00616184,0.011797,1273,1737,6.17779,-27.2451
56,-713,6.1991,27.2512,0.0044023,0.0023351,0.00446712,0.00795384,-0.00121644,0.671709,0.00575108,0.011664,1280,1737,6.19911,-27.2513
63,-713,6.20715,27.2584,0.00384406,0.00220858,0.00425403,0.00735824,-0.0013056,0.690443,0.00539362,0.011977,1287,1737,6.20719,-27.2584
70,-713,6.20886,27.2467,0.00305863,0.0019121,0.00410817,0.00663334,-0.00166261,0.716074,0.00506816,0.0118347,1294,1737,6.20891,-27.2467
77,-713,6.22412,27.2584,0.00221402,0.00172753,0.00378417,0.00576275,-0.00182121,0.753303,0.00457147,0.0121914,1301,1737,6.22412,-27.2585
84,-713,6.24829,27.2849,0.00136096,0.00143713,0.00348237,0.00488162,-0.00208353,0.790866,0.00412808,0.0119114,1308,1737,6.24826,-27.2849
91,-713,6.24109,27.2834,0.000771284,0.0014611,0.00283678,0.00397386,-0.00174148,0.845893,0.00338262,0.0122184,1315,1737,6.24106,-27.2834
98,-713,6.26355,27.2418,0.000219738,0.00129011,0.00199404,0.00281954,-0.00130969,0.916505,0.00243656,0.0120449,1322,1737,6.26359,-27.2419
105,-713,6.29468,27.2175,7.88167e-05,0.000895656,0.00135658,0.00190396,-0.000929489,0.931615,0.00166783,0.0135165,1329,1737,6.29464,-27.2175
112,-713,6.30518,27.2332,0.000450453,0.00052167,0.000990774,0.00147748,-0.000505353,0.80336,0.00118976,0.0143005,1336,1737,6.30521,-27.2331
119,-713,6.32507,27.219,0.000981442,0.000228903,0.000725384,0.00142234,-0.000211994,0.546144,0.00102622,0.0148239,1343,1737,6.3251,-27.219
126,-713,6.3197,27.1707,0.00130524,-7.6601e-05,0.000548817,0.00149669,-0.000268047,0.335636,0.0010981,0.0133608,1350,1737,6.31968,-27.1707
133,-713,6.32581,27.0793,0.00178459,-0.000320496,0.000313108,0.00183018,-0.00036608,0.14457,0.00135868,0.01126,1357,1737,6.32583,-27.0793
140,-713,6.35291,27.0219,0.00231107,-0.000535064,0.000334076,0.00234976,-0.000573751,0.115291,0.0017887,0.0124028,1364,1737,6.35293,-27.0218
147,-713,6.36731,26.9469,0.00268267,-0.0006313,0.000333477,0.00271589,-0.000664524,0.0993011,0.002068,0.0143885,1371,1737,6.36729,-26.9469
154,-713,6.36206,26.8982,0.00333837,-0.000425746,0.000380638,0.00337647,-0.000463851,0.0997769,0.00242046,0.0140578,1378,1737,6.3621,-26.8983
161,-713,6.36902,26.8196,0.00322603,-8.40839e-05,0.000704981,0.00336992,-0.000227974,0.20134,0.00232633,0.0103778,1385,1737,6.36906,-26.8196
168,-713,6.36755,26.7316,0.00249984,0.000114108,0.000663513,0.00267196,-5.80088e-05,0.253808,0.00180095,0.0103667,1392,1737,6.3676,-26.7316
175,-713,6.375,26.6447,0.00197655,0.000557702,0.000348639,0.00205759,0.000476663,0.228389,0.00124367,0.0129541,1399,1737,6.37495,-26.6446
182,-713,6.37805,26.5536,0.00143192,0.000838492,1.62434e-05,0.00143236,0.000838047,0.0273451,0.000830955,0.0115134,1406,1737,6.3781,-26.5536
189,-713,6.39233,26.4343,0.000990441,0.000937883,-0.00013936,0.00110598,0.000822346,-0.692208,0.000663306,0.0114299,1413,1737,6.39236,-26.4343
196,-713,6.40161,26.3701,0.000330054,0.00100994,-0.000145392,0.00103973,0.000300267,-1.36872,0.000617883,0.0129938,1420,1737,6.40167,-26.3701
203,-713,6.41284,26.3121,0.000112186,0.0011209,-0.000323516,0.00121574,1.73449e-05,-1.28563,0.000804777,0.017558,1427,1737,6.41282,-26.3121
210,-713,6.40381,26.1617,-4.19842e-05,0.00123704,-0.000554959,0.00144426,-0.000249204,-1.21343,0.00105576,0.0138167,1434,1737,6.40376,-26.1618
217,-713,6.40393,26.0421,-0.00022476,0.00136817,-0.000837629,0.00172755,-0.000584141,-1.1655,0.00138801,0.0107563,1441,1737,6.40397,-26.0421
224,-713,6.39148,25.9272,-0.000328252,0.00151162,-0.00115029,0.00206459,-0.000881218,-1.12269,0.00174591,0.0124351,1448,1737,6.39144,-25.9273
231,-713,6.4032,25.7899,-0.000456409,0.00167099,-0.00143019,0.00238967,-0.0011751,-1.10514,0.00209756,0.0116683,1455,1737,6.40325,-25.7899
238,-713,6.40039,25.6494,-0.000423531,0.00184978,-0.00164692,0.00271421,-0.00128796,-1.08745,0.00235905,0.00867499,1462,1737,6.40039,-25.6494
245,-713,6.38452,25.5111,-0.000275451,0.00209676,-0.00190114,0.00315146,-0.00133014,-1.0643,0.00265772,0.0111967,1469,1737,6.38447,-25.5111
252,-713,6.3905,25.3622,-0.00017293,0.0023669,-0.00212911,0.00357605,-0.00138208,-1.0543,0.00295452,0.0118211,1476,1737,6.39052,-25.3622
259,-713,6.40759,25.2023,-0.000118472,0.00265597,-0.00227122,0.00393011,-0.00139261,-1.05955,0.00318735,0.0122337,1483,1737,6.40763,-25.2022
266,-713,6.39087,25.0872,-7.46557e-05,0.0029406,-0.00240401,0.00427061,-0.00140467,-1.06546,0.00341305,0.0106147,1490,1737,6.39082,-25.0872
273,-713,6.37512,24.9385,-8.95298e-05,0.0034896,-0.00249717,0.00477224,-0.00137216,-1.0963,0.00372412,0.00871135,1497,1737,6.37518,-24.9385
280,-713,6.34058,24.7534,-0.000223477,0.00388853,-0.00252676,0.00509009,-0.00142503,-1.12691,0.00395493,0.00986973,1504,1737,6.34057,-24.7534
287,-713,6.31433,24.5975,-0.000431898,0.00368606,-0.00221817,0.00465358,-0.00139941,-1.1595,0.00365917,0.011578,1511,1737,6.31429,-24.5976
294,-713,6.35217,24.4586,-0.000684162,0.00380222,-0.00207703,0.00461615,-0.00149809,-1.19732,0.00367988,0.0192728,1518,1737,6.35218,-24.4586
301,-713,6.36047,24.2544,-0.00118425,0.00379782,-0.00186757,0.00442016,-0.00180658,-1.24914,0.00369907,0.021979,1525,1737,6.36044,-24.2544
308,-713,6.35266,24.0349,-0.00179501,0.00321972,-0.00151788,0.00364337,-0.00221866,-1.29862,0.0034176,0.0215409,1532,1737,6.35265,-24.0349
315,-713,6.31079,23.8185,-0.00245358,0.00291434,-0.00115838,0.00315364,-0.00269289,-1.36707,0.00337899,0.027803,1539,1737,6.31079,-23.8185
322,-713,6.28186,23.4893,-0.00310271,0.00236755,-0.000757807,0.00247059,-0.00320575,-1.43565,0.00328638,0.038973,1546,1737,6.28183,-23.4892
329,-713,6.33386,23.4442,-0.00380596,0.00157986,-0.000155362,0.00158434,-0.00381044,-1.54198,0.00320184,0.0445905,1553,1737,6.33383,-23.4442
336,-713,6.18494,23.5676,-0.00419407,0.000397429,0.000346477,0.000423427,-0.00422007,1.4959,0.00296462,0.0440445,1560,1737,6.18492,-23.5677
343,-713,6.22461,23.1302,0,0,0,0,0,0,0,-1,1567,1737,6.22465,-23.1303
350,-713,6.05432,22.6538,0,0,0,0,0,0,0,-1,1574,1737,6.05438,-22.6538
357,-713,5.9812,22.2378,0,0,0,0,0,0,0,-1,1581,1737,5.98117,-22.2378
364,-713,7.35474,20.9537,0,0,0,0,0,0,0,-1,1588,1737,7.35472,-20.9537
371,-713,8.31555,17.5513,0,0,0,0,0,0,0,-1,1595,1737,8.31561,-17.5513
378,-713,7.02185,18.535,0,0,0,0,0,0,0,-1,1602,1737,7.02188,-18.5351
385,-713,7.81396,18.6816,0,0,0,0,0,0,0,-1,1609,1737,7.81397,-18.6817
392,-713,3.28784,13.7118,0,0,0,0,0,0,0,-1,1616,1737,3.28781,-13.7118
399,-713,2.84045,14.7314,0,0,0,0,0,0,0,-1,1623,1737,2.84046,-14.7315
406,-713,2.97656,16.4902,0,0,0,0,0,0,0,-1,1630,1737,2.97656,-16.4902
413,-713,3.24731,18.2787,0,0,0,0,0,0,0,-1,1637,1737,3.24726,-18.2787
420,-713,0,0,0,0,0,0,0,0,0,-1,1644,1737,0,0
427,-713,0,0,0,0,0,0,0,0,0,-1,1651,1737,0,0
434,-713,0,0,0,0,0,0,0,0,0,-1,1658,1737,0,0
441,-713,0,0,0,0,0,0,0,0,0,-1,1665,1737,0,0
448,-713,0,0,0,0,0,0,0,0,0,-1,1672,1737,0,0
455,-713,0,0,0,0,0,0,0,0,0,-1,1679,1737,0,0
462,-713,0,0,0,0,0,0,0,0,0,-1,1686,1737,0,0
469,-713,0,0,0,0,0,0,0,0,0,-1,1693,1737,0,0
476,-713,0,0,0,0,0,0,0,0,0,-1,1700,1737,0,0
483,-713,0,0,0,0,0,0,0,0,0,-1,1707,1737,0,0
490,-713,0,0,0,0,0,0,0,0,0,-1,1714,1737,0,0
497,-713,0,0,0,0,0,0,0,0,0,-1,1721,1737,0,0
504,-713,0,0,0,0,0,0,0,0,0,-1,1728,1737,0,0
511,-713,0,0,0,0,0,0,0,0,0,-1,1735,1737,0,0
518,-713,0,0,0,0,0,0,0,0,0,-1,1742,1737,0,0
525,-713,0,0,0,0,0,0,0,0,0,-1,1749,1737,0,0
532,-713,0,0,0,0,0,0,0,0,0,-1,1756,1737,0,0
539,-713,0,0,0,0,0,0,0,0,0,-1,1763,1737,0,0
546,-713,0,0,0,0,0,0,0,0,0,-1,1770,1737,0,0
553,-713,0,0,0,0,0,0,0,0,0,-1,1777,1737,0,0
560,-713,0,0,0,0,0,0,0,0,0,-1,1784,1737,0,0
567,-713,0,0,0,0,0,0,0,0,0,-1,1791,1737,0,0
574,-713,0,0,0,0,0,0,0,0,0,-1,1798,1737,0,0
581,-713,0,0,0,0,0,0,0,0,0,-1,1805,1737,0,0
588,-713,0,0,0,0,0,0,0,0,0,-1,1812,1737,0,0
595,-713,0,0,0,0,0,0,0,0,0,-1,1819,1737,0,0
602,-713,0,0,0,0,0,0,0,0,0,-1,1826,1737,0,0
609,-713,0,0,0,0,0,0,0,0,0,-1,1833,1737,0,0
616,-713,0,0,0,0,0,0,0,0,0,-1,1840,1737,0,0
623,-713,0,0,0,0,0,0,0,0,0,-1,1847,1737,0,0
630,-713,0,0,0,0,0,0,0,0,0,-1,1854,1737,0,0
637,-713,0,0,0,0,0,0,0,0,0,-1,1861,1737,0,0
644,-713,0,0,0,0,0,0,0,0,0,-1,1868,1737,0,0
651,-713,0,0,0,0,0,0,0,0,0,-1,1875,1737,0,0
658,-713,0,0,0,0,0,0,0,0,0,-1,1882,1737,0,0
665,-713,0,0,0,0,0,0,0,0,0,-1,1889,1737,0,0
672,-713,0,0,0,0,0,0,0,0,0,-1,1896,1737,0,0
679,-713,0,0,0,0,0,0,0,0,0,-1,1903,1737,0,0
686,-713,0,0,0,0,0,0,0,0,0,-1,1910,1737,0,0
693,-713,0,0,0,0,0,0,0,0,0,-1,1917,1737,0,0
700,-713,0,0,0,0,0,0,0,0,0,-1,1924,1737,0,0
707,-713,0,0,0,0,0,0,0,0,0,-1,1931,1737,0,0
714,-713,0,0,0,0,0,0,0,0,0,-1,1938,1737,0,0
721,-713,0,0,0,0,0,0,0,0,0,-1,1945,1737,0,0
728,-713,0,0,0,0,0,0,0,0,0,-1,1952,1737,0,0
735,-713,0,0,0,0,0,0,0,0,0,-1,1959,1737,0,0
742,-713,0,0,0,0,0,0,0,0,0,-1,1966,1737,0,0
749,-713,0,0,0,0,0,0,0,0,0,-1,1973,1737,0,0
756,-713,0,0,0,0,0,0,0,0,0,-1,1980,1737,0,0
763,-713,0,0,0,0,0,0,0,0,0,-1,1987,1737,0,0
770,-713,0,0,0,0,0,0,0,0,0,-1,1994,1737,0,0
777,-713,0,0,0,0,0,0,0,0,0,-1,2001,1737,0,0
784,-713,0,0,0,0,0,0,0,0,0,-1,2008,1737,0,0
791,-713,0,0,0,0,0,0,0,0,0,-1,2015,1737,0,0
798,-713,0,0,0,0,0,0,0,0,0,-1,2022,1737,0,0
805,-713,0,0,0,0,0,0,0,0,0,-1,2029,1737,0,0
812,-713,0,0,0,0,0,0,0,0,0,-1,2036,1737,0,0
-700,-720,0,0,0,0,0,0,0,0,0,-1,524,1744,0,0
-693,-720,0,0,0,0,0,0,0,0,0,-1,531,1744,0,0
-686,-720,0,0,0,0,0,0,0,0,0,-1,538,1744,0,0
-679,-720,0,0,0,0,0,0,0,0,0,-1,545,1744,0,0
-672,-720,0,0,0,0,0,0,0,0,0,-1,552,1744,0,0
-665,-720,0,0,0,0,0,0,0,0,0,-1,559,1744,0,0
-658,-720,0,0,0,0,0,0,0,0,0,-1,566,1744,0,0
-651,-720,0,0,0,0,0,0,0,0,0,-1,573,1744,0,0
-644,-720,0,0,0,0,0,0,0,0,0,-1,580,1744,0,0
-637,-720,0,0,0,0,0,0,0,0,0,-1,587,1744,0,0
-630,-720,0,0,0,0,0,0,0,0,0,-1,594,1744,0,0
-623,-720,0,0,0,0,0,0,0,0,0,-1,601,1744,0,0
-616,-720,0,0,0,0,0,0,0,0,0,-1,608,1744,0,0
-609,-720,0,0,0,0,0,0,0,0,0,-1,615,1744,0,0
-602,-720,0,0,0,0,0,0,0,0,0,-1,622,1744,0,0
-595,-720,0,0,0,0,0,0,0,0,0,-1,629,1744,0,0
-588,-720,0,0,0,0,0,0,0,0,0,-1,636,1744,0,0
-581,-720,0,0,0,0,0,0,0,0,0,-1,643,1744,0,0
-574,-720,0,0,0,0,0,0,0,0,0,-1,650,1744,0,0
-567,-720,0,0,0,0,0,0,0,0,0,-1,657,1744,0,0
-560,-720,0,0,0,0,0,0,0,0,0,-1,664,1744,0,0
-553,-720,0,0,0,0,0,0,0,0,0,-1,671,1744,0,0
-546,-720,0,0,0,0,0,0,0,0,0,-1,678,1744,0,0
-539,-720,0,0,0,0,0,0,0,0,0,-1,685,1744,0,0
-532,-720,0,0,0,0,0,0,0,0,0,-1,692,1744,0,0
-525,-720,0,0,0,0,0,0,0,0,0,-1,699,1744,0,0
-518,-720,0,0,0,0,0,0,0,0,0,-1,706,1744,0,0
-511,-720,0,0,0,0,0,0,0,0,0,-1,713,1744,0,0
-504,-720,0,0,0,0,0,0,0,0,0,-1,720,1744,0,0
-497,-720,0,0,0,0,0,0,0,0,0,-1,727,1744,0,0
-490,-720,0,0,0,0,0,0,0,0,0,-1,734,1744,0,0
-483,-720,0,0,0,0,0,0,0,0,0,-1,741,1744,0,0
-476,-720,0,0,0,0,0,0,0,0,0,-1,748,1744,0,0
-469,-720,0,0,0,0,0,0,0,0,0,-1,755,1744,0,0
-462,-720,0,0,0,0,0,0,0,0,0,-1,762,1744,0,0
-455,-720,0,0,0,0,0,0,0,0,0,-1,769,1744,0,0
-448,-720,0,0,0,0,0,0,0,0,0,-1,776,1744,0,0
-441,-720,0,0,0,0,0,0,0,0,0,-1,783,1744,0,0
-434,-720,0,0,0,0,0,0,0,0,0,-1,790,1744,0,0
-427,-720,0,0,0,0,0,0,0,0,0,-1,797,1744,0,0
-420,-720,0,0,0,0,0,0,0,0,0,-1,804,1744,0,0
-413,-720,0,0,0,0,0,0,0,0,0,-1,811,1744,0,0
-406,-720,0,0,0,0,0,0,0,0,0,-1,818,1744,0,0
-399,-720,0,0,0,0,0,0,0,0,0,-1,825,1744,0,0
-392,-720,0,0,0,0,0,0,0,0,0,-1,832,1744,0,0
-385,-720,0,0,0,0,0,0,0,0,0,-1,839,1744,0,0
-378,-720,0,0,0,0,0,0,0,0,0,-1,846,1744,0,0
-371,-720,0,0,0,0,0,0,0,0,0,-1,853,1744,0,0
-364,-720,0,0,0,0,0,0,0,0,0,-1,860,1744,0,0
-357,-720,0,0,0,0,0,0,0,0,0,-1,867,1744,0,0
-350,-720,0,0,0,0,0,0,0,0,0,-1,874,1744,0,0
-343,-720,0,0,0,0,0,0,0,0,0,-1,881,1744,0,0
-336,-720,0,0,0,0,0,0,0,0,0,-1,888,1744,0,0
-329,-720,0,0,0,0,0,0,0,0,0,-1,895,1744,0,0
-322,-720,0,0,0,0,0,0,0,0,0,-1,902,1744,0,0
-315,-720,0,0,0,0,0,0,0,0,0,-1,909,1744,0,0
-308,-720,0,0,0,0,0,0,0,0,0,-1,916,1744,0,0
-301,-720,0,0,0,0,0,0,0,0,0,-1,923,1744,0,0
-294,-720,0,0,0,0,0,0,0,0,0,-1,930,1744,0,0
-287,-720,0,0,0,0,0,0,0,0,0,-1,937,1744,0,0
-280,-720,6.46796,22.6417,0,0,0,0,0,0,0,-1,944,1744,6.46793,-22.6417
-273,-720,8.54633,13.262,0,0,0,0,0,0,0,-1,951,1744,8.54636,-13.2619
-266,-720,7.28027,13.3165,0,0,0,0,0,0,0,-1,958,1744,7.28026,-13.3166
-259,-720,3.70563,18.6372,0,0,0,0,0,0,0,-1,965,1744,3.70564,-18.6372
-252,-720,4.00989,18.5059,0,0,0,0,0,0,0,-1,972,1744,4.00988,-18.5058
-245,-720,4.63318,20.3199,0,0,0,0,0,0,0,-1,979,1744,4.6332,-20.32
-238,-720,5.02216,24.1455,0,0,0,0,0,0,0,-1,986,1744,5.02217,-24.1455
-231,-720,6.34106,21.7759,0,0,0,0,0,0,0,-1,993,1744,6.34103,-21.7758
-224,-720,7.65991,19.4061,0,0,0,0,0,0,0,-1,1000,1744,7.6599,-19.4061
-217,-720,7.33716,20.2433,0,0,0,0,0,0,0,-1,1007,1744,7.33715,-20.2432
-210,-720,6.97302,21.2229,0,0,0,0,0,0,0,-1,1014,1744,6.97304,-21.2229
-203,-720,6.26721,22.6066,0,0,0,0,0,0,0,-1,1021,1744,6.26724,-22.6065
-196,-720,6.73743,22.693,0,0,0,0,0,0,0,-1,1028,1744,6.73738,-22.6929
-189,-720,6.70776,23.0076,0,0,0,0,0,0,0,-1,1035,1744,6.70781,-23.0075
-182,-720,6.36145,23.4573,0.000459337,-0.00597632,-0.00093942,0.000593662,-0.00611065,-0.142024,0.00428538,0.0468209,1042,1744,6.36146,-23.4573
-175,-720,6.53589,23.6812,-0.000257109,-0.00447902,-0.00027403,-0.000239397,-0.00449673,-0.0645458,0.0029213,0.0440664,1049,1744,6.53586,-23.6812
-168,-720,6.4856,23.7799,-0.000910572,-0.00323784,0.000335385,-0.000863204,-0.0032852,0.140309,0.0019666,0.0421007,1056,1744,6.48557,-23.78
-161,-720,6.01892,23.9501,-0.0014159,-0.00163641,0.000776095,-0.00074227,-0.00231004,0.714838,0.0013618,0.0373299,1063,1744,6.01898,-23.9501
-154,-720,6.24792,24.214,-0.00161488,-0.000551353,0.00110175,0.000140247,-0.00230648,1.01024,0.00158647,0.031516,1070,1744,6.2479,-24.214
-147,-720,6.21436,24.4482,-0.00190482,0.000213035,0.00134321,0.000864529,-0.00255631,1.1192,0.00205396,0.0285361,1077,1744,6.21432,-24.4482
-140,-720,6.24573,24.5991,-0.00182057,0.000878867,0.00152433,0.00156516,-0.00250686,1.14776,0.00237184,0.0219319,1084,1744,6.24579,-24.5991
-133,-720,6.21631,24.6997,-0.00148414,0.00156436,0.00152213,0.00219423,-0.00211401,1.17845,0.00248751,0.0149548,1091,1744,6.21636,-24.6997
-126,-720,6.20544,24.8546,-0.00137505,0.00226984,0.00136989,0.00272729,-0.00183249,1.24851,0.00264943,0.0131681,1098,1744,6.20542,-24.8546
-119,-720,6.19531,25.0245,-0.00126205,0.00285957,0.00130123,0.003236,-0.00163848,1.2892,0.00286421,0.0144653,1105,1744,6.19525,-25.0246
-112,-720,6.16614,25.1737,-0.000935716,0.00324788,0.00114934,0.00354284,-0.00123067,1.31959,0.00286173,0.0132866,1112,1744,6.16615,-25.1737
-105,-720,6.15833,25.3256,-0.0007429,0.00341954,0.000865499,0.00359233,-0.000915691,1.37374,0.00275139,0.0118929,1119,1744,6.15832,-25.3255
-98,-720,6.15271,25.4661,-0.000707742,0.00353014,0.000754899,0.0036606,-0.000838197,1.39967,0.00276252,0.00952986,1126,1744,6.15274,-25.4661
-91,-720,6.13489,25.5986,-0.000561526,0.00336847,0.000643117,0.00347104,-0.000664091,1.41265,0.00256421,0.00872839,1133,1744,6.13485,-25.5987
-84,-720,6.13293,25.7485,-0.000493111,0.00331674,0.000582246,0.00340373,-0.000580108,1.42248,0.0024852,0.00915016,1140,1744,6.13292,-25.7485
-77,-720,6.13733,25.9061,-0.000264536,0.00322085,0.000573429,0.00331277,-0.000356455,1.41185,0.00233641,0.0121591,1147,1744,6.13731,-25.9062
-70,-720,6.12048,26.0293,-2.19179e-05,0.0028733,0.000449157,0.00294138,-8.9998e-05,1.42037,0.0019916,0.0107468,1154,1744,6.12043,-26.0293
-63,-720,6.10767,26.1423,3.80482e-05,0.00248807,0.000324632,0.00253035,-4.23635e-06,1.44127,0.00168831,0.00994227,1161,1744,6.10768,-26.1424
-56,-720,6.12866,26.2671,0.000200024,0.0020575,0.000347089,0.00212024,0.000137285,1.39197,0.00137003,0.0118962,1168,1744,6.12865,-26.2671
-49,-720,6.10779,26.3549,0.000402867,0.00165463,0.000353585,0.00174761,0.000309895,1.31368,0.00107674,0.0193784,1175,1744,6.10774,-26.3549
-42,-720,6.11584,26.4316,0.000645341,0.00132649,0.000358894,0.00148068,0.000491147,1.165,0.000870865,0.0225076,1182,1744,6.11589,-26.4316
-35,-720,6.14502,26.5203,0.000930794,0.00110699,0.000332254,0.00136263,0.000675155,0.91499,0.000786723,0.019185,1189,1744,6.14505,-26.5203
-28,-720,6.14319,26.6455,0.00128867,0.00086777,0.000303102,0.00144722,0.00070922,0.481948,0.000835606,0.0109256,1196,1744,6.14315,-26.6455
-21,-720,6.14087,26.7394,0.0015939,0.000748082,0.000222745,0.00164897,0.000693009,0.242389,0.00095606,0.00904033,1203,1744,6.14084,-26.7394
-14,-720,6.12891,26.7953,0.0019088,0.000612164,0.000239907,0.00195177,0.0005692,0.17721,0.00115901,0.0107785,1210,1744,6.12888,-26.7953
-7,-720,6.14001,26.8979,0.00228246,0.000665077,0.000400656,0.00237627,0.000571268,0.229995,0.00143225,0.0112178,1217,1744,6.14007,-26.8979
0,-720,6.14954,26.9794,0.00264468,0.000904931,0.000550634,0.00280431,0.000745301,0.282167,0.00167724,0.012185,1224,1744,6.1495,-26.9793
7,-720,6.16003,27.0029,0.00290721,0.00113136,0.000726469,0.00316653,0.000872041,0.342859,0.00188868,0.0150384,1231,1744,6.16008,-27.0029
14,-720,6.17395,27.0526,0.00308091,0.00126267,0.000896153,0.00344835,0.000895238,0.389107,0.00206618,0.0147805,1238,1744,6.17392,-27.0526
21,-720,6.17566,27.1116,0.00336718,0.00130561,0.00106073,0.00381548,0.00085732,0.399857,0.00231149,0.0117796,1245,1744,6.17561,-27.1115
28,-720,6.17249,27.1525,0.00357012,0.00126129,0.00129061,0.00414728,0.000684128,0.420522,0.00256738,0.0111289,1252,1744,6.17249,-27.1525
35,-720,6.17395,27.1993,0.00365503,0.0012703,0.00143607,0.00432922,0.000596105,0.438925,0.0027094,0.0110937,1259,1744,6.17398,-27.1993
42,-720,6.16614,27.228,0.00362431,0.001324,0.00162372,0.00446396,0.000484348,0.477247,0.00282838,0.0115146,1266,1744,6.16608,-27.228
49,-720,6.17749,27.2412,0.00299529,0.00128252,0.00169848,0.00404106,0.000236742,0.551894,0.0026187,0.0117429,1273,1744,6.17743,-27.2412
56,-720,6.19861,27.2633,0.0024013,0.00112136,0.0014938,0.00338644,0.000136212,0.583017,0.00221362,0.0102954,1280,1744,6.19864,-27.2633
63,-720,6.20239,27.2749,0.00200166,0.000977278,0.00134054,0.00292453,5.44123e-05,0.602917,0.0019318,0.0119361,1287,1744,6.20244,-27.2749
70,-720,6.22473,27.2661,0.00149034,0.000668755,0.00131795,0.00246004,-0.000300938,0.634324,0.00174899,0.0124015,1294,1744,6.2247,-27.2662
77,-720,6.24353,27.2692,0.000936864,0.000460715,0.00122597,0.00194766,-0.000550086,0.689496,0.00151546,0.0140608,1301,1744,6.24353,-27.2691
84,-720,6.25659,27.2522,0.000499017,0.000242124,0.00110399,0.00148201,-0.000740866,0.727485,0.00130694,0.0138258,1308,1744,6.25663,-27.2522
91,-720,6.24292,27.2576,0.000304364,0.000260396,0.00082037,0.00110304,-0.000538285,0.772002,0.00096614,0.0130933,1315,1744,6.24298,-27.2576
98,-720,6.21619,27.2479,0.000145281,0.00021666,0.000401285,0.000583839,-0.000221898,0.82975,0.000480583,0.0120502,1322,1744,6.21617,-27.2479
105,-720,6.24268,27.219,0.000211536,3.8562e-05,0.000139937,0.000289555,-3.94574e-05,0.508608,0.000207444,0.0121054,1329,1744,6.24273,-27.219
112,-720,6.26013,27.2157,0.000523612,-4.55153e-05,-5.8804e-05,0.000529624,-5.15276e-05,-0.101889,0.000371452,0.011796,1336,1744,6.26013,-27.2157
119,-720,6.27625,27.2063,0.000916699,-3.76708e-05,-0.000212766,0.000961984,-8.29558e-05,-0.20971,0.000670687,0.011496,1343,1744,6.2763,-27.2063
126,-720,6.28662,27.1459,0.0011799,-3.35748e-06,-0.000323614,0.00126262,-8.60807e-05,-0.250264,0.000871858,0.0108053,1350,1744,6.28662,-27.1459
133,-720,6.27917,27.0857,0.00148434,9.055e-05,-0.000434105,0.00160848,-3.35973e-05,-0.278549,0.00108369,0.011847,1357,1744,6.27922,-27.0857
140,-720,6.28625,27.0382,0.00176891,0.000192241,-0.000422382,0.00187493,8.62167e-05,-0.245934,0.00122223,0.0180064,1364,1744,6.2863,-27.0382
147,-720,6.28442,26.9711,0.00187672,0.000347864,-0.000448062,0.00199836,0.000226229,-0.265082,0.0012636,0.0198483,1371,1744,6.28439,-26.971
154,-720,6.27991,26.8914,0.00202122,0.000573677,-0.0004617,0.00215594,0.000438954,-0.283914,0.00131562,0.0133441,1378,1744,6.27986,-26.8913
161,-720,6.29785,26.8092,0.00175524,0.000832475,-0.000353948,0.00187537,0.000712349,-0.327191,0.00109312,0.00892923,1385,1744,6.2979,-26.8091
168,-720,6.29407,26.7305,0.00125999,0.000973228,-0.000421559,0.00156188,0.000671332,-0.621477,0.000904708,0.00935026,1392,1744,6.29406,-26.7304
175,-720,6.2865,26.6337,0.000870672,0.0011848,-0.000608038,0.00165573,0.000399739,-0.911791,0.000997637,0.0151029,1399,1744,6.28648,-26.6337
182,-720,6.28137,26.546,0.000413322,0.00125204,-0.000845424,0.0017764,-0.000111035,-1.01563,0.00122296,0.0157318,1406,1744,6.28135,-26.5461
189,-720,6.30286,26.4567,-8.1333e-05,0.00108443,-0.000921389,0.00159183,-0.00058873,-1.06743,0.00130259,0.0141591,1413,1744,6.30289,-26.4567
196,-720,6.30334,26.365,-0.00046995,0.000992886,-0.00107889,0.00156492,-0.00104198,-1.08328,0.00151516,0.015039,1420,1744,6.3033,-26.365
203,-720,6.26965,26.2572,-0.000734822,0.00133656,-0.00130021,0.00196315,-0.00136142,-1.12172,0.0019299,0.0162642,1427,1744,6.26963,-26.2572
210,-720,6.27698,26.1682,-0.000812019,0.00167962,-0.00165722,0.00250707,-0.00163947,-1.10771,0.00241141,0.0131056,1434,1744,6.27701,-26.1682
217,-720,6.28613,26.0414,-0.000929646,0.00202071,-0.00201416,0.00304213,-0.00195107,-1.10147,0.00290567,0.0122824,1441,1744,6.28613,-26.0413
224,-720,6.27026,25.9027,-0.000984453,0.00230233,-0.00239482,0.0035634,-0.00224552,-1.08611,0.00338243,0.0100645,1448,1744,6.27022,-25.9027
231,-720,6.27173,25.7749,-0.00108716,0.00260582,-0.00269846,0.00402907,-0.00251041,-1.08545,0.00380936,0.0105932,1455,1744,6.27178,-25.7749
238,-720,6.26648,25.6356,-0.000995087,0.00291079,-0.00292005,0.00447078,-0.00255507,-1.08014,0.00410633,0.00925185,1462,1744,6.26654,-25.6357
245,-720,6.26086,25.5107,-0.000757276,0.0032981,-0.00318454,0.0050457,-0.00250488,-1.06889,0.00444084,0.011019,1469,1744,6.2609,-25.5108
252,-720,6.26501,25.3724,-0.000582249,0.00369695,-0.00340089,0.0055753,-0.00246061,-1.06618,0.00475428,0.011106,1476,1744,6.26506,-25.3725
259,-720,6.25269,25.2247,-0.000467017,0.00410609,-0.00350795,0.00600691,-0.00236783,-1.07423,0.004985,0.0100978,1483,1744,6.25267,-25.2247
266,-720,6.22961,25.0745,-0.000346067,0.00449561,-0.00361027,0.00642155,-0.00227201,-1.08074,0.00520633,0.00839336,1490,1744,6.22958,-25.0744
273,-720,6.224,24.9069,-0.000286557,0.0052121,-0.003667,0.00704597,-0.00212043,-1.10707,0.00554106,0.015709,1497,1744,6.22399,-24.9069
280,-720,6.13489,24.7452,-0.000392471,0.00575765,-0.00363528,0.00744402,-0.00207885,-1.13645,0.00578158,0.0235025,1504,1744,6.13494,-24.7452
287,-720,6.09009,24.5375,-0.000581235,0.00552293,-0.00316197,0.00686554,-0.00192384,-1.16926,0.0053352,0.0381111,1511,1744,6.09006,-24.5375
294,-720,6.30237,24.2822,-0.000823688,0.00571131,-0.00288615,0.00680345,-0.00191583,-1.20904,0.00529115,0.0399604,1518,1744,6.30231,-24.2823
301,-720,6.26013,24.1086,-0.00138991,0.00571408,-0.00249234,0.00650126,-0.00217709,-1.26487,0.00521365,0.0437832,1525,1744,6.26019,-24.1087
308,-720,6.16663,23.9264,-0.00211716,0.00468259,-0.00190928,0.00518201,-0.00261659,-1.31495,0.00458301,0.0442562,1532,1744,6.16664,-23.9264
315,-720,6.17651,23.7277,0,0,0,0,0,0,0,-1,1539,1744,6.1765,-23.7276
322,-720,6.12683,23.2424,0,0,0,0,0,0,0,-1,1546,1744,6.12683,-23.2424
329,-720,6.22034,23.5405,0,0,0,0,0,0,0,-1,1553,1744,6.22037,-23.5405
336,-720,6.08862,24.0291,0,0,0,0,0,0,0,-1,1560,1744,6.08863,-24.029
343,-720,6.78552,21.3625,0,0,0,0,0,0,0,-1,1567,1744,6.78551,-21.3625
350,-720,4.0741,11.1836,0,0,0,0,0,0,0,-1,1574,1744,4.07412,-11.1836
357,-720,6.90833,21.4504,0,0,0,0,0,0,0,-1,1581,1744,6.90827,-21.4505
364,-720,6.45642,18.7834,0,0,0,0,0,0,0,-1,1588,1744,6.45637,-18.7834
371,-720,5.90027,18.6631,0,0,0,0,0,0,0,-1,1595,1744,5.90025,-18.663
378,-720,6.90405,18.7253,0,0,0,0,0,0,0,-1,1602,1744,6.90402,-18.7254
385,-720,7.54175,18.5774,0,0,0,0,0,0,0,-1,1609,1744,7.54171,-18.5774
392,-720,0.141968,12.1694,0,0,0,0,0,0,0,-1,1616,1744,0.141952,-12.1694
399,-720,-0.334595,13.7629,0,0,0,0,0,0,0,-1,1623,1744,-0.334621,-13.763
406,-720,0,0,0,0,0,0,0,0,0,-1,1630,1744,0,0
413,-720,0,0,0,0,0,0,0,0,0,-1,1637,1744,0,0
420,-720,0,0,0,0,0,0,0,0,0,-1,1644,1744,0,0
427,-720,0,0,0,0,0,0,0,0,0,-1,1651,1744,0,0
434,-720,0,0,0,0,0,0,0,0,0,-1,1658,1744,0,0
441,-720,0,0,0,0,0,0,0,0,0,-1,1665,1744,0,0
448,-720,0,0,0,0,0,0,0,0,0,-1,1672,1744,0,0
455,-720,0,0,0,0,0,0,0,0,0,-1,1679,1744,0,0
462,-720,0,0,0,0,0,0,0,0,0,-1,1686,1744,0,0
469,-720,0,0,0,0,0,0,0,0,0,-1,1693,1744,0,0
476,-720,0,0,0,0,0,0,0,0,0,-1,1700,1744,0,0
483,-720,0,0,0,0,0,0,0,0,0,-1,1707,1744,0,0
490,-720,0,0,0,0,0,0,0,0,0,-1,1714,1744,0,0
497,-720,0,0,0,0,0,0,0,0,0,-1,1721,1744,0,0
504,-720,0,0,0,0,0,0,0,0,0,-1,1728,1744,0,0
511,-720,0,0,0,0,0,0,0,0,0,-1,1735,1744,0,0
518,-720,0,0,0,0,0,0,0,0,0,-1,1742,1744,0,0
525,-720,0,0,0,0,0,0,0,0,0,-1,1749,1744,0,0
532,-720,0,0,0,0,0,0,0,0,0,-1,1756,1744,0,0
539,-720,0,0,0,0,0,0,0,0,0,-1,1763,1744,0,0
546,-720,0,0,0,0,0,0,0,0,0,-1,1770,1744,0,0
553,-720,0,0,0,0,0,0,0,0,0,-1,1777,1744,0,0
560,-720,0,0,0,0,0,0,0,0,0,-1,1784,1744,0,0
567,-720,0,0,0,0,0,0,0,0,0,-1,1791,1744,0,0
574,-720,0,0,0,0,0,0,0,0,0,-1,1798,1744,0,0
581,-720,0,0,0,0,0,0,0,0,0,-1,1805,1744,0,0
588,-720,0,0,0,0,0,0,0,0,0,-1,1812,1744,0,0
595,-720,0,0,0,0,0,0,0,0,0,-1,1819,1744,0,0
602,-720,0,0,0,0,0,0,0,0,0,-1,1826,1744,0,0
609,-720,0,0,0,0,0,0,0,0,0,-1,1833,1744,0,0
616,-720,0,0,0,0,0,0,0,0,0,-1,1840,1744,0,0
623,-720,0,0,0,0,0,0,0,0,0,-1,1847,1744,0,0
630,-720,0,0,0,0,0,0,0,0,0,-1,1854,1744,0,0
637,-720,0,0,0,0,0,0,0,0,0,-1,1861,1744,0,0
644,-720,0,0,0,0,0,0,0,0,0,-1,1868,1744,0,0
651,-720,0,0,0,0,0,0,0,0,0,-1,1875,1744,0,0
658,-720,0,0,0,0,0,0,0,0,0,-1,1882,1744,0,0
665,-720,0,0,0,0,0,0,0,0,0,-1,1889,1744,0,0
672,-720,0,0,0,0,0,0,0,0,0,-1,1896,1744,0,0
679,-720,0,0,0,0,0,0,0,0,0,-1,1903,1744,0,0
686,-720,0,0,0,0,0,0,0,0,0,-1,1910,1744,0,0
693,-720,0,0,0,0,0,0,0,0,0,-1,1917,1744,0,0
700,-720,0,0,0,0,0,0,0,0,0,-1,1924,1744,0,0
707,-720,0,0,0,0,0,0,0,0,0,-1,1931,1744,0,0
714,-720,0,0,0,0,0,0,0,0,0,-1,1938,1744,0,0
721,-720,0,0,0,0,0,0,0,0,0,-1,1945,1744,0,0
728,-720,0,0,0,0,0,0,0,0,0,-1,1952,1744,0,0
735,-720,0,0,0,0,0,0,0,0,0,-1,1959,1744,0,0
742,-720,0,0,0,0,0,0,0,0,0,-1,1966,1744,0,0
749,-720,0,0,0,0,0,0,0,0,0,-1,1973,1744,0,0
756,-720,0,0,0,0,0,0,0,0,0,-1,1980,1744,0,0
763,-720,0,0,0,0,0,0,0,0,0,-1,1987,1744,0,0
770,-720,0,0,0,0,0,0,0,0,0,-1,1994,1744,0,0
777,-720,0,0,0,0,0,0,0,0,0,-1,2001,1744,0,0
784,-720,0,0,0,0,0,0,0,0,0,-1,2008,1744,0,0
791,-720,0,0,0,0,0,0,0,0,0,-1,2015,1744,0,0
798,-720,0,0,0,0,0,0,0,0,0,-1,2022,1744,0,0
805,-720,0,0,0,0,0,0,0,0,0,-1,2029,1744,0,0
812,-720,0,0,0,0,0,0,0,0,0,-1,2036,1744,0,0
-700,-727,0,0,0,0,0,0,0,0,0,-1,524,1751,0,0
-693,-727,0,0,0,0,0,0,0,0,0,-1,531,1751,0,0
-686,-727,0,0,0,0,0,0,0,0,0,-1,538,1751,0,0
-679,-727,0,0,0,0,0,0,0,0,0,-1,545,1751,0,0
-672,-727,0,0,0,0,0,0,0,0,0,-1,552,1751,0,0
-665,-727,0,0,0,0,0,0,0,0,0,-1,559,1751,0,0
-658,-727,0,0,0,0,0,0,0,0,0,-1,566,1751,0,0
-651,-727,0,0,0,0,0,0,0,0,0,-1,573,1751,0,0
-644,-727,0,0,0,0,0,0,0,0,0,-1,580,1751,0,0
-637,-727,0,0,0,0,0,0,0,0,0,-1,587,1751,0,0
-630,-727,0,0,0,0,0,0,0,0,0,-1,594,1751,0,0
-623,-727,0,0,0,0,0,0,0,0,0,-1,601,1751,0,0
-616,-727,0,0,0,0,0,0,0,0,0,-1,608,1751,0,0
-609,-727,0,0,0,0,0,0,0,0,0,-1,615,1751,0,0
-602,-727,0,0,0,0,0,0,0,0,0,-1,622,1751,0,0
-595,-727,0,0,0,0,0,0,0,0,0,-1,629,1751,0,0
-588,-727,0,0,0,0,0,0,0,0,0,-1,636,1751,0,0
-581,-727,0,0,0,0,0,0,0,0,0,-1,643,1751,0,0
-574,-727,0,0,0,0,0,0,0,0,0,-1,650,1751,0,0
-567,-727,0,0,0,0,0,0,0,0,0,-1,657,1751,0,0
-560,-727,0,0,0,0,0,0,0,0,0,-1,664,1751,0,0
-553,-727,0,0,0,0,0,0,0,0,0,-1,671,1751,0,0
-546,-727,0,0,0,0,0,0,0,0,0,-1,678,1751,0,0
-539,-727,0,0,0,0,0,0,0,0,0,-1,685,1751,0,0
-532,-727,0,0,0,0,0,0,0,0,0,-1,692,1751,0,0
-525,-727,0,0,0,0,0,0,0,0,0,-1,699,1751,0,0
-518,-727,0,0,0,0,0,0,0,0,0,-1,706,1751,0,0
-511,-727,0,0,0,0,0,0,0,0,0,-1,713,1751,0,0
-504,-727,0,0,0,0,0,0,0,0,0,-1,720,1751,0,0
-497,-727,0,0,0,0,0,0,0,0,0,-1,727,1751,0,0
-490,-727,0,0,0,0,0,0,0,0,0,-1,734,1751,0,0
-483,-727,0,0,0,0,0,0,0,0,0,-1,741,1751,0,0
-476,-727,0,0,0,0,0,0,0,0,0,-1,748,1751,0,0
-469,-727,0,0,0,0,0,0,0,0,0,-1,755,1751,0,0
-462,-727,0,0,0,0,0,0,0,0,0,-1,762,1751,0,0
-455,-727,0,0,0,0,0,0,0,0,0,-1,769,1751,0,0
-448,-727,0,0,0,0,0,0,0,0,0,-1,776,1751,0,0
-441,-727,0,0,0,0,0,0,0,0,0,-1,783,1751,0,0
-434,-727,0,0,0,0,0,0,0,0,0,-1,790,1751,0,0
-427,-727,0,0,0,0,0,0,0,0,0,-1,797,1751,0,0
-420,-727,0,0,0,0,0,0,0,0,0,-1,804,1751,0,0
-413,-727,0,0,0,0,0,0,0,0,0,-1,811,1751,0,0
-406,-727,0,0,0,0,0,0,0,0,0,-1,818,1751,0,0
-399,-727,0,0,0,0,0,0,0,0,0,-1,825,1751,0,0
-392,-727,0,0,0,0,0,0,0,0,0,-1,832,1751,0,0
-385,-727,0,0,0,0,0,0,0,0,0,-1,839,1751,0,0
-378,-727,0,0,0,0,0,0,0,0,0,-1,846,1751,0,0
-371,-727,0,0,0,0,0,0,0,0,0,-1,853,1751,0,0
-364,-727,0,0,0,0,0,0,0,0,0,-1,860,1751,0,0
-357,-727,0,0,0,0,0,0,0,0,0,-1,867,1751,0,0
-350,-727,0,0,0,0,0,0,0,0,0,-1,874,1751,0,0
-343,-727,0,0,0,0,0,0,0,0,0,-1,881,1751,0,0
-336,-727,0,0,0,0,0,0,0,0,0,-1,888,1751,0,0
-329,-727,0,0,0,0,0,0,0,0,0,-1,895,1751,0,0
-322,-727,0,0,0,0,0,0,0,0,0,-1,902,1751,0,0
-315,-727,0,0,0,0,0,0,0,0,0,-1,909,1751,0,0
-308,-727,0,0,0,0,0,0,0,0,0,-1,916,1751,0,0
-301,-727,0,0,0,0,0,0,0,0,0,-1,923,1751,0,0
-294,-727,0,0,0,0,0,0,0,0,0,-1,930,1751,0,0
-287,-727,0,0,0,0,0,0,0,0,0,-1,937,1751,0,0
-280,-727,0,0,0,0,0,0,0,0,0,-1,944,1751,0,0
-273,-727,0,0,0,0,0,0,0,0,0,-1,951,1751,0,0
-266,-727,4.24805,7.61145,0,0,0,0,0,0,0,-1,958,1751,4.24802,-7.6115
-259,-727,3.65228,5.4082,0,0,0,0,0,0,0,-1,965,1751,3.65229,-5.40818
-252,-727,6.35193,19.5046,0,0,0,0,0,0,0,-1,972,1751,6.35193,-19.5046
-245,-727,6.6543,20.9005,0,0,0,0,0,0,0,-1,979,1751,6.65433,-20.9005
-238,-727,4.31769,18.0181,0,0,0,0,0,0,0,-1,986,1751,4.31766,-18.018
-231,-727,6.50403,21.7985,0,0,0,0,0,0,0,-1,993,1751,6.50403,-21.7985
-224,-727,5.36774,18.8488,0,0,0,0,0,0,0,-1,1000,1751,5.36772,-18.8487
-217,-727,5.94122,16.1447,0,0,0,0,0,0,0,-1,1007,1751,5.9412,-16.1446
-210,-727,6.63403,19.8335,0,0,0,0,0,0,0,-1,1014,1751,6.63405,-19.8335
-203,-727,6.70361,20.4543,0,0,0,0,0,0,0,-1,1021,1751,6.70363,-20.4544
-196,-727,6.06995,20.7059,0,0,0,0,0,0,0,-1,1028,1751,6.06989,-20.706
-189,-727,5.46509,21.0536,0,0,0,0,0,0,0,-1,1035,1751,5.46507,-21.0536
-182,-727,6.63354,23.7749,0,0,0,0,0,0,0,-1,1042,1751,6.63353,-23.7749
-175,-727,6.94751,24.0144,0,0,0,0,0,0,0,-1,1049,1751,6.94751,-24.0144
-168,-727,6.65161,24.0951,0,0,0,0,0,0,0,-1,1056,1751,6.6516,-24.0951
-161,-727,5.78406,24.2588,0,0,0,0,0,0,0,-1,1063,1751,5.78403,-24.2588
-154,-727,6.39771,24.187,0,0,0,0,0,0,0,-1,1070,1751,6.39774,-24.187
-147,-727,6.33496,24.2925,-0.00243261,0.000678445,0.00185219,0.00154165,-0.00329582,1.13468,0.00285347,0.0475759,1077,1751,6.335,-24.2925
-140,-727,6.25525,24.4061,-0.00236475,0.00153207,0.00204114,0.00240546,-0.00323814,1.16648,0.00327014,0.033096,1084,1751,6.25528,-24.4062
-133,-727,6.40454,24.5691,-0.00201743,0.00238567,0.00199763,0.00315688,-0.00278865,1.20236,0.00343485,0.025204,1091,1751,6.40451,-24.5691
-126,-727,6.30847,24.8063,-0.00196611,0.00318983,0.00174408,0.00372437,-0.00250065,1.2734,0.00361709,0.01622,1098,1751,6.30851,-24.8062
-119,-727,6.29688,25.0325,-0.00186731,0.00384566,0.00160344,0.00426492,-0.00228657,1.31504,0.00383956,0.0115442,1105,1751,6.29684,-25.0325
-112,-727,6.30188,25.1766,-0.00152806,0.00428446,0.00136877,0.00459066,-0.00183425,1.35072,0.00382152,0.0128751,1112,1751,6.30194,-25.1766
-105,-727,6.29102,25.3243,-0.00136352,0.00446119,0.00100263,0.00462894,-0.00153128,1.40502,0.00370346,0.0123066,1119,1751,6.29105,-25.3243
-98,-727,6.28992,25.4664,-0.00138571,0.0045535,0.00083444,0.00466851,-0.00150072,1.43383,0.00371503,0.0102666,1126,1751,6.28987,-25.4664
-91,-727,6.2749,25.5916,-0.00127163,0.0042944,0.00066319,0.00437233,-0.00134956,1.45383,0.00345378,0.00995783,1133,1751,6.27485,-25.5915
-84,-727,6.25781,25.7302,-0.0012748,0.0041929,0.000562392,0.00425015,-0.00133204,1.46935,0.00336647,0.0102251,1140,1751,6.25778,-25.7302
-77,-727,6.25391,25.8838,-0.00108162,0.0039929,0.000588203,0.00406018,-0.00114891,1.4569,0.00316016,0.0112998,1147,1751,6.25386,-25.8838
-70,-727,6.24744,26.0238,-0.00086791,0.0034334,0.000480383,0.0034864,-0.000920908,1.46092,0.00268442,0.0119479,1154,1751,6.2474,-26.0238
-63,-727,6.23328,26.1428,-0.000929613,0.00289767,0.00036655,0.00293246,-0.000964403,1.47617,0.00234354,0.0103148,1161,1751,6.23334,-26.1429
-56,-727,6.22095,26.2565,-0.000834376,0.00230901,0.000470829,0.00237802,-0.000903384,1.42527,0.00195725,0.0109282,1168,1751,6.22097,-26.2565
-49,-727,6.21619,26.3547,-0.000694915,0.00178124,0.000479522,0.00187086,-0.000784533,1.38604,0.00157528,0.0145664,1175,1751,6.21615,-26.3548
-42,-727,6.22815,26.4667,-0.000470903,0.00134885,0.000477298,0.00146644,-0.000588494,1.32924,0.00122198,0.0177473,1182,1751,6.22809,-26.4666
-35,-727,6.18542,26.5529,-0.000230049,0.000975655,0.000451082,0.00112573,-0.000380128,1.24961,0.000904236,0.0151984,1189,1751,6.18548,-26.5528
-28,-727,6.21277,26.6305,0.000235431,0.000501307,0.000364479,0.000756334,-1.95966e-05,0.960269,0.00051088,0.00931915,1196,1751,6.21278,-26.6304
-21,-727,6.22668,26.7302,0.00163137,0.00016654,0.000238223,0.00166914,0.000128772,0.157232,0.00107242,0.0102592,1203,1751,6.22664,-26.7302
-14,-727,6.23645,26.8018,0.00298037,5.77289e-06,-0.000104475,0.00298404,2.10793e-06,-0.0350649,0.00198866,0.0114083,1210,1751,6.23642,-26.8017
-7,-727,6.22974,26.8983,0.00389862,-6.70512e-05,-0.000201281,0.00390881,-7.7241e-05,-0.0505825,0.002632,0.0143292,1217,1751,6.22975,-26.8983
0,-727,6.21997,26.9855,0.00487506,0.000119271,-0.000386109,0.0049062,8.81276e-05,-0.0804848,0.00324182,0.0138857,1224,1751,6.22,-26.9854
7,-727,6.20569,27.019,0.00579856,0.000350333,-0.000572652,0.0058581,0.000290794,-0.103599,0.00381217,0.0138157,1231,1751,6.20572,-27.019
14,-727,6.21204,27.0731,0.00656648,0.000577795,-0.000751626,0.00665937,0.000484901,-0.122967,0.0042871,0.0147004,1238,1751,6.212,-27.0731
21,-727,6.21167,27.1365,0.0071142,0.000704448,-0.000932632,0.00724714,0.000571506,-0.141592,0.00465264,0.0130598,1245,1751,6.21165,-27.1365
28,-727,6.21753,27.1637,0.00724558,0.00080343,-0.00108101,0.00742214,0.000626871,-0.161897,0.00475294,0.0111157,1252,1751,6.21755,-27.1637
35,-727,6.22729,27.1979,0.007063,0.000868465,-0.00117794,0.00727943,0.000652032,-0.181711,0.00465087,0.0124464,1259,1751,6.22731,-27.1978
42,-727,6.20789,27.2115,0.00659225,0.000917697,-0.00118177,0.00682852,0.000681422,-0.197331,0.00434306,0.0128666,1266,1751,6.20792,-27.2116
49,-727,6.19885,27.2302,0.00553098,0.000886603,-0.00116279,0.00580583,0.000611749,-0.232115,0.00368361,0.0109494,1273,1751,6.19882,-27.2302
56,-727,6.2019,27.2676,0.00430604,0.000716748,-0.00123521,0.00469004,0.000332749,-0.301407,0.00302189,0.00939203,1280,1751,6.20193,-27.2676
63,-727,6.21082,27.2808,0.00318279,0.000576274,-0.00114041,0.00361129,0.000147767,-0.359428,0.00235982,0.011221,1287,1751,6.21076,-27.2808
70,-727,6.24561,27.2695,0.00205649,0.000216878,-0.000897881,0.00242208,-0.000148709,-0.386668,0.0016665,0.0132802,1294,1751,6.24556,-27.2696
77,-727,6.27014,27.2777,0.000998524,-6.09675e-05,-0.000629825,0.00129177,-0.00035421,-0.435746,0.00100037,0.0153608,1301,1751,6.27015,-27.2777
84,-727,6.2561,27.2579,-0.000178682,-0.000288083,-0.000455314,0.000225205,-0.00069197,-0.725615,0.000551916,0.0155991,1308,1751,6.25612,-27.2579
91,-727,6.25696,27.2178,-0.000825368,-0.000364636,-0.000219097,-0.000277084,-0.00091292,-1.19063,0.00054047,0.0159963,1315,1751,6.25697,-27.2177
98,-727,6.22339,27.2468,-0.000742262,-0.000347171,-0.000321043,-0.000167765,-0.000921669,-1.0612,0.000566861,0.0133819,1322,1751,6.22336,-27.2468
105,-727,6.22998,27.2305,-0.00056341,-0.000405063,-0.000303167,-0.000170902,-0.000797571,-0.913123,0.000484892,0.0132658,1329,1751,6.22994,-27.2304
112,-727,6.24036,27.2025,-0.000229591,-0.000296893,-0.000318522,5.70522e-05,-0.000583536,-0.73277,0.000409369,0.0119639,1336,1751,6.24041,-27.2025
119,-727,6.24561,27.173,0.000139005,-8.5295e-05,-0.000400249,0.000442519,-0.000388809,-0.648801,0.000480302,0.00909875,1343,1751,6.24561,-27.173
126,-727,6.25647,27.1235,0.00050452,0.000254869,-0.000495323,0.000890504,-0.000131115,-0.661964,0.000641854,0.0102354,1350,1751,6.2565,-27.1235
133,-727,6.25818,27.0726,0.000840538,0.000619995,-0.00059718,0.00133754,0.00012299,-0.6941,0.000853657,0.0149601,1357,1751,6.25819,-27.0727
140,-727,6.23853,27.0007,0.00108618,0.00101599,-0.000728236,0.00178017,0.000322004,-0.761324,0.00109534,0.0207855,1364,1751,6.23853,-27.0008
147,-727,6.22827,26.9628,0.00115219,0.00134849,-0.000883185,0.00213896,0.00036172,-0.840738,0.001322,0.0175031,1371,1751,6.22832,-26.9628
154,-727,6.22754,26.887,0.00110046,0.00165422,-0.00106437,0.00247713,0.000277551,-0.912644,0.00156712,0.0114685,1378,1751,6.2275,-26.8869
161,-727,6.2301,26.8046,0.000881444,0.00189305,-0.00123045,0.0027176,5.68945e-05,-0.980406,0.00179307,0.0086742,1385,1751,6.23009,-26.8045
168,-727,6.2207,26.7308,0.000672745,0.00192046,-0.00148735,0.0029095,-0.000316289,-0.983975,0.00205323,0.0104504,1392,1751,6.22065,-26.7308
175,-727,6.2312,26.6438,0.000439574,0.00194945,-0.00171987,0.00307277,-0.00068375,-0.992212,0.00231041,0.0159346,1399,1751,6.23125,-26.6438
182,-727,6.24011,26.5562,-4.3578e-05,0.00190449,-0.00203828,0.00318951,-0.00132859,-1.00829,0.00268127,0.019865,1406,1751,6.24013,-26.5562
189,-727,6.21436,26.4583,-0.000789993,0.0013934,-0.00197496,0.00255831,-0.0019549,-1.03788,0.00261345,0.0131332,1413,1751,6.21438,-26.4583
196,-727,6.19495,26.3566,-0.00130282,0.0010904,-0.00213422,0.00234058,-0.002553,-1.0409,0.00282619,0.0143359,1420,1751,6.195,-26.3566
203,-727,6.16968,26.2391,-0.00169077,0.00160751,-0.00237958,0.00285355,-0.0029368,-1.08842,0.00334318,0.0160232,1427,1751,6.16963,-26.2391
210,-727,6.16858,26.1555,-0.00170409,0.00221953,-0.00290584,0.0037638,-0.00324836,-1.08232,0.00405212,0.0147509,1434,1751,6.1686,-26.1555
217,-727,6.16492,26.0432,-0.0017764,0.00279013,-0.00338301,0.00458829,-0.00357456,-1.08225,0.00472492,0.010935,1441,1751,6.16486,-26.0432
224,-727,6.15369,25.887,-0.0017901,0.00324744,-0.00385618,0.00533458,-0.00387723,-1.0747,0.00534058,0.0117223,1448,1751,6.15364,-25.8869
231,-727,6.14185,25.7603,-0.00186559,0.00372848,-0.0042201,0.00599432,-0.00413142,-1.07805,0.00587899,0.0100918,1455,1751,6.14189,-25.7603
238,-727,6.14429,25.6176,-0.00170962,0.00419541,-0.00448152,0.00660959,-0.0041238,-1.07667,0.00625207,0.0106645,1462,1751,6.14431,-25.6176
245,-727,6.1427,25.4923,-0.00136678,0.00475204,-0.00477536,0.00736397,-0.00397871,-1.07029,0.00664521,0.0100816,1469,1751,6.14268,-25.4924
252,-727,6.13452,25.3613,-0.00108956,0.005306,-0.00499549,0.00803955,-0.00382311,-1.0701,0.00699164,0.0106999,1476,1751,6.13446,-25.3614
259,-727,6.1333,25.2092,-0.000876806,0.00585524,-0.00508074,0.00858381,-0.00360537,-1.07796,0.00723044,0.0152215,1483,1751,6.13334,-25.2093
266,-727,6.15674,25.0991,-0.000632575,0.00636399,-0.00516491,0.00910384,-0.00337242,-1.08307,0.00745222,0.0230457,1490,1751,6.15675,-25.0991
273,-727,6.26733,24.9963,-0.000452436,0.00725432,-0.00519236,0.00986694,-0.00306505,-1.10462,0.00780296,0.0430334,1497,1751,6.26733,-24.9963
280,-727,5.90332,24.7887,0,0,0,0,0,0,0,-1,1504,1751,5.90327,-24.7887
287,-727,5.8783,24.4939,0,0,0,0,0,0,0,-1,1511,1751,5.87829,-24.4938
294,-727,6.08276,24.0919,0,0,0,0,0,0,0,-1,1518,1751,6.08277,-24.0919
301,-727,6.021,24.1132,0,0,0,0,0,0,0,-1,1525,1751,6.02097,-24.1131
308,-727,5.97205,23.927,0,0,0,0,0,0,0,-1,1532,1751,5.97208,-23.927
315,-727,6.0686,23.1156,0,0,0,0,0,0,0,-1,1539,1751,6.06862,-23.1157
322,-727,5.75818,18.2477,0,0,0,0,0,0,0,-1,1546,1751,5.75815,-18.2477
329,-727,6.61853,11.6267,0,0,0,0,0,0,0,-1,1553,1751,6.61859,-11.6267
336,-727,5.55823,20.2439,0,0,0,0,0,0,0,-1,1560,1751,5.55829,-20.2438
343,-727,2.41699,8.72095,0,0,0,0,0,0,0,-1,1567,1751,2.41702,-8.72098
350,-727,3.89783,7.50195,0,0,0,0,0,0,0,-1,1574,1751,3.89782,-7.50193
357,-727,4.48462,10.2948,0,0,0,0,0,0,0,-1,1581,1751,4.48464,-10.2948
364,-727,6.96729,17.2365,0,0,0,0,0,0,0,-1,1588,1751,6.96732,-17.2365
371,-727,6.06628,16.4799,0,0,0,0,0,0,0,-1,1595,1751,6.06631,-16.4798
378,-727,6.43652,17.5544,0,0,0,0,0,0,0,-1,1602,1751,6.43657,-17.5545
385,-727,3.19275,14.7679,0,0,0,0,0,0,0,-1,1609,1751,3.19274,-14.768
392,-727,0,0,0,0,0,0,0,0,0,-1,1616,1751,0,0
399,-727,0,0,0,0,0,0,0,0,0,-1,1623,1751,0,0
406,-727,0,0,0,0,0,0,0,0,0,-1,1630,1751,0,0
413,-727,0,0,0,0,0,0,0,0,0,-1,1637,1751,0,0
420,-727,0,0,0,0,0,0,0,0,0,-1,1644,1751,0,0
427,-727,0,0,0,0,0,0,0,0,0,-1,1651,1751,0,0
434,-727,0,0,0,0,0,0,0,0,0,-1,1658,1751,0,0
441,-727,0,0,0,0,0,0,0,0,0,-1,1665,1751,0,0
448,-727,0,0,0,0,0,0,0,0,0,-1,1672,1751,0,0
455,-727,0,0,0,0,0,0,0,0,0,-1,1679,1751,0,0
462,-727,0,0,0,0,0,0,0,0,0,-1,1686,1751,0,0
469,-727,0,0,0,0,0,0,0,0,0,-1,1693,1751,0,0
476,-727,0,0,0,0,0,0,0,0,0,-1,1700,1751,0,0
483,-727,0,0,0,0,0,0,0,0,0,-1,1707,1751,0,0
490,-727,0,0,0,0,0,0,0,0,0,-1,1714,1751,0,0
497,-727,0,0,0,0,0,0,0,0,0,-1,1721,1751,0,0
504,-727,0,0,0,0,0,0,0,0,0,-1,1728,1751,0,0
511,-727,0,0,0,0,0,0,0,0,0,-1,1735,1751,0,0
518,-727,0,0,0,0,0,0,0,0,0,-1,1742,1751,0,0
525,-727,0,0,0,0,0,0,0,0,0,-1,1749,1751,0,0
532,-727,0,0,0,0,0,0,0,0,0,-1,1756,1751,0,0
539,-727,0,0,0,0,0,0,0,0,0,-1,1763,1751,0,0
546,-727,0,0,0,0,0,0,0,0,0,-1,1770,1751,0,0
553,-727,0,0,0,0,0,0,0,0,0,-1,1777,1751,0,0
560,-727,0,0,0,0,0,0,0,0,0,-1,1784,1751,0,0
567,-727,0,0,0,0,0,0,0,0,0,-1,1791,1751,0,0
574,-727,0,0,0,0,0,0,0,0,0,-1,1798,1751,0,0
581,-727,0,0,0,0,0,0,0,0,0,-1,1805,1751,0,0
588,-727,0,0,0,0,0,0,0,0,0,-1,1812,1751,0,0
595,-727,0,0,0,0,0,0,0,0,0,-1,1819,1751,0,0
602,-727,0,0,0,0,0,0,0,0,0,-1,1826,1751,0,0
609,-727,0,0,0,0,0,0,0,0,0,-1,1833,1751,0,0
616,-727,0,0,0,0,0,0,0,0,0,-1,1840,1751,0,0
623,-727,0,0,0,0,0,0,0,0,0,-1,1847,1751,0,0
630,-727,0,0,0,0,0,0,0,0,0,-1,1854,1751,0,0
637,-727,0,0,0,0,0,0,0,0,0,-1,1861,1751,0,0
644,-727,0,0,0,0,0,0,0,0,0,-1,1868,1751,0,0
651,-727,0,0,0,0,0,0,0,0,0,-1,1875,1751,0,0
658,-727,0,0,0,0,0,0,0,0,0,-1,1882,1751,0,0
665,-727,0,0,0,0,0,0,0,0,0,-1,1889,1751,0,0
672,-727,0,0,0,0,0,0,0,0,0,-1,1896,1751,0,0
679,-727,0,0,0,0,0,0,0,0,0,-1,1903,1751,0,0
686,-727,0,0,0,0,0,0,0,0,0,-1,1910,1751,0,0
693,-727,0,0,0,0,0,0,0,0,0,-1,1917,1751,0,0
700,-727,0,0,0,0,0,0,0,0,0,-1,1924,1751,0,0
707,-727,0,0,0,0,0,0,0,0,0,-1,1931,1751,0,0
714,-727,0,0,0,0,0,0,0,0,0,-1,1938,1751,0,0
721,-727,0,0,0,0,0,0,0,0,0,-1,1945,1751,0,0
728,-727,0,0,0,0,0,0,0,0,0,-1,1952,1751,0,0
735,-727,0,0,0,0,0,0,0,0,0,-1,1959,1751,0,0
742,-727,0,0,0,0,0,0,0,0,0,-1,1966,1751,0,0
749,-727,0,0,0,0,0,0,0,0,0,-1,1973,1751,0,0
756,-727,0,0,0,0,0,0,0,0,0,-1,1980,1751,0,0
763,-727,0,0,0,0,0,0,0,0,0,-1,1987,1751,0,0
770,-727,0,0,0,0,0,0,0,0,0,-1,1994,1751,0,0
777,-727,0,0,0,0,0,0,0,0,0,-1,2001,1751,0,0
784,-727,0,0,0,0,0,0,0,0,0,-1,2008,1751,0,0
791,-727,0,0,0,0,0,0,0,0,0,-1,2015,1751,0,0
798,-727,0,0,0,0,0,0,0,0,0,-1,2022,1751,0,0
805,-727,0,0,0,0,0,0,0,0,0,-1,2029,1751,0,0
812,-727,0,0,0,0,0,0,0,0,0,-1,2036,1751,0,0
-700,-734,0,0,0,0,0,0,0,0,0,-1,524,1758,0,0
-693,-734,0,0,0,0,0,0,0,0,0,-1,531,1758,0,0
-686,-734,0,0,0,0,0,0,0,0,0,-1,538,1758,0,0
-679,-734,0,0,0,0,0,0,0,0,0,-1,545,1758,0,0
-672,-734,0,0,0,0,0,0,0,0,0,-1,552,1758,0,0
-665,-734,0,0,0,0,0,0,0,0,0,-1,559,1758,0,0
-658,-734,0,0,0,0,0,0,0,0,0,-1,566,1758,0,0
-651,-734,0,0,0,0,0,0,0,0,0,-1,573,1758,0,0
-644,-734,0,0,0,0,0,0,0,0,0,-1,580,1758,0,0
-637,-734,0,0,0,0,0,0,0,0,0,-1,587,1758,0,0
-630,-734,0,0,0,0,0,0,0,0,0,-1,594,1758,0,0
-623,-734,0,0,0,0,0,0,0,0,0,-1,601,1758,0,0
-616,-734,0,0,0,0,0,0,0,0,0,-1,608,1758,0,0
-609,-734,0,0,0,0,0,0,0,0,0,-1,615,1758,0,0
-602,-734,0,0,0,0,0,0,0,0,0,-1,622,1758,0,0
-595,-734,0,0,0,0,0,0,0,0,0,-1,629,1758,0,0
-588,-734,0,0,0,0,0,0,0,0,0,-1,636,1758,0,0
-581,-734,0,0,0,0,0,0,0,0,0,-1,643,1758,0,0
-574,-734,0,0,0,0,0,0,0,0,0,-1,650,1758,0,0
-567,-734,0,0,0,0,0,0,0,0,0,-1,657,1758,0,0
-560,-734,0,0,0,0,0,0,0,0,0,-1,664,1758,0,0
-553,-734,0,0,0,0,0,0,0,0,0,-1,671,1758,0,0
-546,-734,0,0,0,0,0,0,0,0,0,-1,678,1758,0,0
-539,-734,0,0,0,0,0,0,0,0,0,-1,685,1758,0,0
-532,-734,0,0,0,0,0,0,0,0,0,-1,692,1758,0,0
-525,-734,0,0,0,0,0,0,0,0,0,-1,699,1758,0,0
-518,-734,0,0,0,0,0,0,0,0,0,-1,706,1758,0,0
-511,-734,0,0,0,0,0,0,0,0,0,-1,713,1758,0,0
-504,-734,0,0,0,0,0,0,0,0,0,-1,720,1758,0,0
-497,-734,0,0,0,0,0,0,0,0,0,-1,727,1758,0,0
-490,-734,0,0,0,0,0,0,0,0,0,-1,734,1758,0,0
-483,-734,0,0,0,0,0,0,0,0,0,-1,741,1758,0,0
-476,-734,0,0,0,0,0,0,0,0,0,-1,748,1758,0,0
-469,-734,0,0,0,0,0,0,0,0,0,-1,755,1758,0,0
-462,-734,0,0,0,0,0,0,0,0,0,-1,762,1758,0,0
-455,-734,0,0,0,0,0,0,0,0,0,-1,769,1758,0,0
-448,-734,0,0,0,0,0,0,0,0,0,-1,776,1758,0,0
-441,-734,0,0,0,0,0,0,0,0,0,-1,783,1758,0,0
-434,-734,0,0,0,0,0,0,0,0,0,-1,790,1758,0,0
-427,-734,0,0,0,0,0,0,0,0,0,-1,797,1758,0,0
-420,-734,0,0,0,0,0,0,0,0,0,-1,804,1758,0,0
-413,-734,0,0,0,0,0,0,0,0,0,-1,811,1758,0,0
-406,-734,0,0,0,0,0,0,0,0,0,-1,818,1758,0,0
-399,-734,0,0,0,0,0,0,0,0,0,-1,825,1758,0,0
-392,-734,0,0,0,0,0,0,0,0,0,-1,832,1758,0,0
-385,-734,0,0,0,0,0,0,0,0,0,-1,839,1758,0,0
-378,-734,0,0,0,0,0,0,0,0,0,-1,846,1758,0,0
-371,-734,0,0,0,0,0,0,0,0,0,-1,853,1758,0,0
-364,-734,0,0,0,0,0,0,0,0,0,-1,860,1758,0,0
-357,-734,0,0,0,0,0,0,0,0,0,-1,867,1758,0,0
-350,-734,0,0,0,0,0,0,0,0,0,-1,874,1758,0,0
-343,-734,0,0,0,0,0,0,0,0,0,-1,881,1758,0,0
-336,-734,0,0,0,0,0,0,0,0,0,-1,888,1758,0,0
-329,-734,0,0,0,0,0,0,0,0,0,-1,895,1758,0,0
-322,-734,0,0,0,0,0,0,0,0,0,-1,902,1758,0,0
-315,-734,0,0,0,0,0,0,0,0,0,-1,909,1758,0,0
-308,-734,0,0,0,0,0,0,0,0,0,-1,916,1758,0,0
-301,-734,0,0,0,0,0,0,0,0,0,-1,923,1758,0,0
-294,-734,0,0,0,0,0,0,0,0,0,-1,930,1758,0,0
-287,-734,0,0,0,0,0,0,0,0,0,-1,937,1758,0,0
-280,-734,0,0,0,0,0,0,0,0,0,-1,944,1758,0,0
-273,-734,0,0,0,0,0,0,0,0,0,-1,951,1758,0,0
-266,-734,0,0,0,0,0,0,0,0,0,-1,958,1758,0,0
-259,-734,0,0,0,0,0,0,0,0,0,-1,965,1758,0,0
-252,-734,6.93439,18.351,0,0,0,0,0,0,0,-1,972,1758,6.93438,-18.3509
-245,-734,6.95746,19.5341,0,0,0,0,0,0,0,-1,979,1758,6.95746,-19.5341
-238,-734,6.69128,15.3165,0,0,0,0,0,0,0,-1,986,1758,6.69128,-15.3166
-231,-734,7.35022,15.5492,0,0,0,0,0,0,0,-1,993,1758,7.3502,-15.5492
-224,-734,7.4632,15.9962,0,0,0,0,0,0,0,-1,1000,1758,7.46319,-15.9962
-217,-734,7.54193,16.1692,0,0,0,0,0,0,0,-1,1007,1758,7.54194,-16.1691
-210,-734,7.62262,16.1628,0,0,0,0,0,0,0,-1,1014,1758,7.6226,-16.1628
-203,-734,5.32764,21.4656,0,0,0,0,0,0,0,-1,1021,1758,5.32762,-21.4655
-196,-734,6.00171,20.7645,0,0,0,0,0,0,0,-1,1028,1758,6.00166,-20.7645
-189,-734,4.57532,20.3475,0,0,0,0,0,0,0,-1,1035,1758,4.57528,-20.3475
-182,-734,4.26477,21.6147,0,0,0,0,0,0,0,-1,1042,1758,4.26481,-21.6147
-175,-734,3.95435,22.882,0,0,0,0,0,0,0,-1,1049,1758,3.95434,-22.8819
-168,-734,4.50208,15.4194,0,0,0,0,0,0,0,-1,1056,1758,4.50212,-15.4194
-161,-734,6.17456,21.793,0,0,0,0,0,0,0,-1,1063,1758,6.1746,-21.7929
-154,-734,6.67822,23.7922,0,0,0,0,0,0,0,-1,1070,1758,6.67824,-23.7922
-147,-734,6.51379,24.1217,-0.00292818,0.00171396,0.00247787,0.00278806,-0.00400228,1.16177,0.00394125,0.04361,1077,1758,6.51385,-24.1216
-140,-734,6.45105,24.4579,-0.00286502,0.00285788,0.00264364,0.00389216,-0.0038993,1.19787,0.0044984,0.0435572,1084,1758,6.45105,-24.4579
-133,-734,6.60693,24.6736,-0.00250708,0.00394348,0.00251833,0.0048102,-0.0033738,1.23933,0.00474923,0.0453404,1091,1758,6.6069,-24.6736
-126,-734,6.37524,24.7488,-0.00251574,0.00487198,0.00211987,0.00543704,-0.0030808,1.3103,0.0049801,0.0394579,1098,1758,6.37524,-24.7488
-119,-734,6.35254,24.9539,-0.00241746,0.00560445,0.00186333,0.00601614,-0.00282915,1.35335,0.00521615,0.0336547,1105,1758,6.35251,-24.9539
-112,-734,6.42737,25.142,-0.00207375,0.00610556,0.00151359,0.00637666,-0.00234486,1.39356,0.00521163,0.028433,1112,1758,6.42738,-25.142
-105,-734,6.43335,25.3082,-0.00195214,0.00629008,0.00106665,0.00642588,-0.00208794,1.44416,0.00512373,0.0240547,1119,1758,6.43333,-25.3083
-98,-734,6.48181,25.3811,-0.00203186,0.00633777,0.000832494,0.00641977,-0.00211386,1.47261,0.0051317,0.0251507,1126,1758,6.48184,-25.3811
-91,-734,6.43933,25.5212,-0.00195531,0.00593743,0.000597023,0.00598234,-0.00200021,1.49572,0.00479607,0.0288481,1133,1758,6.43935,-25.5212
-84,-734,6.37793,25.6854,-0.0020229,0.00571164,0.000465633,0.00573957,-0.00205084,1.51088,0.00466283,0.0221523,1140,1758,6.37797,-25.6855
-77,-734,6.36304,25.8534,-0.00183838,0.00531093,0.000540024,0.00535149,-0.00187894,1.49583,0.004332,0.0189905,1147,1758,6.36305,-25.8534
-70,-734,6.32507,25.9113,-0.00165365,0.00439987,0.000457751,0.00443429,-0.00168807,1.49575,0.00365135,0.0169727,1154,1758,6.32511,-25.9113
-63,-734,6.31958,26.0369,-0.00057148,0.00449742,-0.000790741,0.00461791,-0.00069197,-1.41958,0.00333329,0.0168162,1161,1758,6.31962,-26.0369
-56,-734,6.32605,26.2286,0.000620239,0.00487728,-0.00161203,0.00541882,7.86975e-05,-1.2467,0.0035866,0.0151228,1168,1758,6.32601,-26.2287
-49,-734,6.32166,26.3677,0.00147319,0.00538994,-0.00248193,0.00659309,0.000270046,-1.11941,0.0043082,0.013098,1175,1758,6.32161,-26.3677
-42,-734,6.30493,26.4751,0.00203999,0.00598483,-0.00312823,0.00771056,0.000314262,-1.06668,0.00503889,0.0140672,1182,1758,6.30498,-26.4751
-35,-734,6.30029,26.5432,0.00240147,0.00588416,-0.0032817,0.0078579,0.000427734,-1.02932,0.005102,0.013806,1189,1758,6.30034,-26.5433
-28,-734,6.30981,26.6282,0.00317259,0.00577953,-0.00372921,0.00842651,0.000525615,-0.953526,0.00545092,0.00995575,1196,1758,6.30983,-26.6282
-21,-734,6.36206,26.7278,0.00561916,0.00568423,-0.00420648,0.0098583,0.00144508,-0.789265,0.00614739,0.0152172,1203,1758,6.36202,-26.7278
-14,-734,6.31116,26.8221,0.007749,0.00549499,-0.00478577,0.0115387,0.00170532,-0.66976,0.00719172,0.0153468,1210,1758,6.31116,-26.8221
-7,-734,6.29724,26.9011,0.00894328,0.00529065,-0.004966,0.0124081,0.00182579,-0.609192,0.00773566,0.0167668,1217,1758,6.29729,-26.9011
0,-734,6.28381,26.9745,0.0100732,0.00528626,-0.00522591,0.0134277,0.00193178,-0.570656,0.00838237,0.0161377,1224,1758,6.28382,-26.9745
7,-734,6.26599,27.0302,0.0110815,0.00525522,-0.00553883,0.0144265,0.00191016,-0.543304,0.00904843,0.0124616,1231,1758,6.26601,-27.0302
14,-734,6.2605,27.1088,0.0119369,0.00516486,-0.0057478,0.0152219,0.00187986,-0.519217,0.00958294,0.0135476,1238,1758,6.26052,-27.1087
21,-734,6.23059,27.1355,0.0123278,0.00488592,-0.00600926,0.0156748,0.00153886,-0.50819,0.00997659,0.012064,1245,1758,6.23056,-27.1354
28,-734,6.23181,27.1691,0.0119912,0.00457751,-0.00622603,0.0155303,0.00103838,-0.516891,0.0100254,0.0113966,1252,1758,6.23184,-27.1691
35,-734,6.23877,27.2117,0.0112189,0.00419273,-0.00625256,0.0148778,0.000533923,-0.529444,0.00974541,0.0148595,1259,1758,6.2388,-27.2117
42,-734,6.2478,27.2142,0.00996792,0.00388343,-0.00623751,0.0138655,-1.41892e-05,-0.558505,0.00924843,0.0122817,1266,1758,6.24785,-27.2143
49,-734,6.23279,27.2306,0.00822949,0.00340259,-0.00602167,0.0123034,-0.000671274,-0.594803,0.0084349,0.00992099,1273,1758,6.23274,-27.2306
56,-734,6.22925,27.2642,0.00616105,0.00291601,-0.00566897,0.0104351,-0.00135807,-0.646019,0.00745081,0.00913856,1280,1758,6.2292,-27.2641
63,-734,6.21973,27.2742,0.00417546,0.00244119,-0.00506115,0.00844322,-0.00182657,-0.700556,0.00632619,0.0113931,1287,1758,6.21978,-27.2742
70,-734,6.22461,27.2828,0.00235299,0.00194897,-0.00426834,0.00642409,-0.00212214,-0.761752,0.00513832,0.0125806,1294,1758,6.22465,-27.2828
77,-734,6.24353,27.3157,0.000557893,0.00139359,-0.0032623,0.00426469,-0.00231321,-0.849093,0.00385306,0.0171918,1301,1758,6.24348,-27.3156
84,-734,6.21826,27.2982,-0.00141582,0.00100049,-0.00239476,0.0024746,-0.00288993,-1.01902,0.0031003,0.0162182,1308,1758,6.21828,-27.2982
91,-734,6.22632,27.2578,-0.00251513,0.000813051,-0.00147292,0.00137128,-0.00307335,-1.20853,0.00262808,0.0173371,1315,1758,6.22627,-27.2579
98,-734,6.22949,27.2498,-0.00230954,0.000820959,-0.00100066,0.00111348,-0.00260207,-1.28639,0.00220181,0.0125569,1322,1758,6.22947,-27.2498
105,-734,6.23193,27.23,-0.00197213,0.00069448,-0.000472515,0.000775733,-0.00205338,-1.4005,0.001688,0.0139475,1329,1758,6.23194,-27.23
112,-734,6.23499,27.191,-0.00148165,0.000796645,-7.46841e-05,0.00079909,-0.00148409,-1.53806,0.00133782,0.0130632,1336,1758,6.23495,-27.1911
119,-734,6.21448,27.1497,-0.00096864,0.00105892,8.885e-06,0.00105896,-0.000968679,1.56641,0.00117105,0.0140133,1343,1758,6.21442,-27.1497
126,-734,6.22522,27.1029,-0.00036802,0.00152175,8.34703e-06,0.00152178,-0.000368057,1.56638,0.00115689,0.0165115,1350,1758,6.22518,-27.1029
133,-734,6.21179,27.0585,0.000236753,0.00196179,-0.000106217,0.00196831,0.000230238,-1.50953,0.00124259,0.0146035,1357,1758,6.21181,-27.0585
140,-734,6.18372,26.974,0.000683135,0.00243534,-0.000463648,0.00255046,0.000568014,-1.32742,0.00154615,0.0182981,1364,1758,6.18367,-26.974
147,-734,6.16907,26.9276,0.000898312,0.00267742,-0.000708961,0.00292538,0.000650354,-1.23435,0.00177367,0.0130943,1371,1758,6.16907,-26.9276
154,-734,6.16736,26.8975,0.000907106,0.00302344,-0.00115793,0.00353387,0.000396672,-1.1556,0.00223545,0.0094211,1378,1758,6.16735,-26.8975
161,-734,6.1665,26.8295,0.000843551,0.00311469,-0.00166212,0.00399212,-3.3879e-05,-1.08508,0.00267278,0.00857712,1385,1758,6.16656,-26.8295
168,-734,6.13416,26.7418,0.000669322,0.00298046,-0.00220341,0.00431293,-0.000663154,-1.0269,0.00311992,0.0129021,1392,1758,6.1342,-26.7418
175,-734,6.13867,26.6538,0.000352467,0.00289934,-0.00278644,0.00468955,-0.00143774,-0.999733,0.00369993,0.015757,1399,1758,6.13867,-26.6538
182,-734,6.16736,26.5472,-0.000133398,0.00295222,-0.00354417,0.00527482,-0.002456,-0.990683,0.00456122,0.0150979,1406,1758,6.16731,-26.5472
189,-734,6.13904,26.4484,-0.00137397,0.00198558,-0.00324324,0.00395824,-0.00334662,-1.02434,0.00422239,0.0115267,1413,1758,6.13898,-26.4484
196,-734,6.11243,26.3499,-0.00216542,0.00135938,-0.00334705,0.00337968,-0.00418571,-1.02773,0.00437614,0.0128124,1420,1758,6.11244,-26.3499
203,-734,6.13342,26.2263,-0.00278955,0.0019467,-0.00358266,0.00387316,-0.00471601,-1.07743,0.00496691,0.014217,1427,1758,6.13342,-26.2263
210,-734,6.10938,26.1278,-0.00276194,0.00289827,-0.00435016,0.0052579,-0.00512157,-1.07379,0.00599276,0.0165879,1434,1758,6.10937,-26.1278
217,-734,6.07019,26.0247,-0.00283138,0.00375824,-0.00502743,0.00647432,-0.00554746,-1.07547,0.00694765,0.0118285,1441,1758,6.07023,-26.0247
224,-734,6.06628,25.8793,-0.0028382,0.00447185,-0.00564522,0.00754199,-0.00590833,-1.07269,0.00778461,0.0113516,1448,1758,6.06623,-25.8793
231,-734,6.04309,25.7683,-0.0028973,0.00521008,-0.00612319,0.00849982,-0.00618703,-1.07779,0.00851443,0.0121829,1455,1758,6.04315,-25.7683
238,-734,6.0177,25.6316,-0.00268568,0.0059141,-0.00647869,0.00938997,-0.00616156,-1.07837,0.00904294,0.0168672,1462,1758,6.01765,-25.6316
245,-734,6.03723,25.4485,-0.00223612,0.00670952,-0.00684246,0.0104114,-0.00593798,-1.07488,0.00955636,0.0231271,1469,1758,6.03728,-25.4485
252,-734,6.03845,25.3016,-0.00183671,0.00750397,-0.00710474,0.0113359,-0.00566868,-1.07616,0.00999772,0.0276483,1476,1758,6.03849,-25.3017
259,-734,6.11646,25.2317,-0.00149728,0.00828848,-0.00720508,0.012105,-0.00531379,-1.08367,0.0103084,0.0383602,1483,1758,6.11644,-25.2316
266,-734,6.04248,25.1427,0,0,0,0,0,0,0,-1,1490,1758,6.04245,-25.1427
273,-734,6.31799,25.205,0,0,0,0,0,0,0,-1,1497,1758,6.318,-25.2049
280,-734,16.6191,7.38013,0,0,0,0,0,0,0,-1,1504,1758,16.6192,-7.38011
287,-734,5.35278,23.5217,0,0,0,0,0,0,0,-1,1511,1758,5.35275,-23.5217
294,-734,12.0439,5.7876,0,0,0,0,0,0,0,-1,1518,1758,12.044,-5.78759
301,-734,10.3586,6.69287,0,0,0,0,0,0,0,-1,1525,1758,10.3586,-6.69285
308,-734,9.00854,5.43774,0,0,0,0,0,0,0,-1,1532,1758,9.00857,-5.4377
315,-734,5.3158,17.4298,0,0,0,0,0,0,0,-1,1539,1758,5.31581,-17.4299
322,-734,9.85913,7.48096,0,0,0,0,0,0,0,-1,1546,1758,9.85916,-7.48098
329,-734,5.45972,12.4125,0,0,0,0,0,0,0,-1,1553,1758,5.45969,-12.4125
336,-734,5.92188,13.8751,0,0,0,0,0,0,0,-1,1560,1758,5.92183,-13.8751
343,-734,5.54968,5.14221,0,0,0,0,0,0,0,-1,1567,1758,5.54973,-5.14225
350,-734,5.07397,6.73242,0,0,0,0,0,0,0,-1,1574,1758,5.07402,-6.73243
357,-734,5.05542,7.19189,0,0,0,0,0,0,0,-1,1581,1758,5.05541,-7.19184
364,-734,4.43896,10.4904,0,0,0,0,0,0,0,-1,1588,1758,4.43893,-10.4904
371,-734,7.36975,17.4751,0,0,0,0,0,0,0,-1,1595,1758,7.36972,-17.4752
378,-734,0,0,0,0,0,0,0,0,0,-1,1602,1758,0,0
385,-734,0,0,0,0,0,0,0,0,0,-1,1609,1758,0,0
392,-734,0,0,0,0,0,0,0,0,0,-1,1616,1758,0,0
399,-734,0,0,0,0,0,0,0,0,0,-1,1623,1758,0,0
406,-734,0,0,0,0,0,0,0,0,0,-1,1630,1758,0,0
413,-734,0,0,0,0,0,0,0,0,0,-1,1637,1758,0,0
420,-734,0,0,0,0,0,0,0,0,0,-1,1644,1758,0,0
427,-734,0,0,0,0,0,0,0,0,0,-1,1651,1758,0,0
434,-734,0,0,0,0,0,0,0,0,0,-1,1658,1758,0,0
441,-734,0,0,0,0,0,0,0,0,0,-1,1665,1758,0,0
448,-734,0,0,0,0,0,0,0,0,0,-1,1672,1758,0,0
455,-734,0,0,0,0,0,0,0,0,0,-1,1679,1758,0,0
462,-734,0,0,0,0,0,0,0,0,0,-1,1686,1758,0,0
469,-734,0,0,0,0,0,0,0,0,0,-1,1693,1758,0,0
476,-734,0,0,0,0,0,0,0,0,0,-1,1700,1758,0,0
483,-734,0,0,0,0,0,0,0,0,0,-1,1707,1758,0,0
490,-734,0,0,0,0,0,0,0,0,0,-1,1714,1758,0,0
497,-734,0,0,0,0,0,0,0,0,0,-1,1721,1758,0,0
504,-734,0,0,0,0,0,0,0,0,0,-1,1728,1758,0,0
511,-734,0,0,0,0,0,0,0,0,0,-1,1735,1758,0,0
518,-734,0,0,0,0,0,0,0,0,0,-1,1742,1758,0,0
525,-734,0,0,0,0,0,0,0,0,0,-1,1749,1758,0,0
532,-734,0,0,0,0,0,0,0,0,0,-1,1756,1758,0,0
539,-734,0,0,0,0,0,0,0,0,0,-1,1763,1758,0,0
546,-734,0,0,0,0,0,0,0,0,0,-1,1770,1758,0,0
553,-734,0,0,0,0,0,0,0,0,0,-1,1777,1758,0,0
560,-734,0,0,0,0,0,0,0,0,0,-1,1784,1758,0,0
567,-734,0,0,0,0,0,0,0,0,0,-1,1791,1758,0,0
574,-734,0,0,0,0,0,0,0,0,0,-1,1798,1758,0,0
581,-734,0,0,0,0,0,0,0,0,0,-1,1805,1758,0,0
588,-734,0,0,0,0,0,0,0,0,0,-1,1812,1758,0,0
595,-734,0,0,0,0,0,0,0,0,0,-1,1819,1758,0,0
602,-734,0,0,0,0,0,0,0,0,0,-1,1826,1758,0,0
609,-734,0,0,0,0,0,0,0,0,0,-1,1833,1758,0,0
616,-734,0,0,0,0,0,0,0,0,0,-1,1840,1758,0,0
623,-734,0,0,0,0,0,0,0,0,0,-1,1847,1758,0,0
630,-734,0,0,0,0,0,0,0,0,0,-1,1854,1758,0,0
637,-734,0,0,0,0,0,0,0,0,0,-1,1861,1758,0,0
644,-734,0,0,0,0,0,0,0,0,0,-1,1868,1758,0,0
651,-734,0,0,0,0,0,0,0,0,0,-1,1875,1758,0,0
658,-734,0,0,0,0,0,0,0,0,0,-1,1882,1758,0,0
665,-734,0,0,0,0,0,0,0,0,0,-1,1889,1758,0,0
672,-734,0,0,0,0,0,0,0,0,0,-1,1896,1758,0,0
679,-734,0,0,0,0,0,0,0,0,0,-1,1903,1758,0,0
686,-734,0,0,0,0,0,0,0,0,0,-1,1910,1758,0,0
693,-734,0,0,0,0,0,0,0,0,0,-1,1917,1758,0,0
700,-734,0,0,0,0,0,0,0,0,0,-1,1924,1758,0,0
707,-734,0,0,0,0,0,0,0,0,0,-1,1931,1758,0,0
714,-734,0,0,0,0,0,0,0,0,0,-1,1938,1758,0,0
721,-734,0,0,0,0,0,0,0,0,0,-1,1945,1758,0,0
728,-734,0,0,0,0,0,0,0,0,0,-1,1952,1758,0,0
735,-734,0,0,0,0,0,0,0,0,0,-1,1959,1758,0,0
742,-734,0,0,0,0,0,0,0,0,0,-1,1966,1758,0,0
749,-734,0,0,0,0,0,0,0,0,0,-1,1973,1758,0,0
756,-734,0,0,0,0,0,0,0,0,0,-1,1980,1758,0,0
763,-734,0,0,0,0,0,0,0,0,0,-1,1987,1758,0,0
770,-734,0,0,0,0,0,0,0,0,0,-1,1994,1758,0,0
777,-734,0,0,0,0,0,0,0,0,0,-1,2001,1758,0,0
784,-734,0,0,0,0,0,0,0,0,0,-1,2008,1758,0,0
791,-734,0,0,0,0,0,0,0,0,0,-1,2015,1758,0,0
798,-734,0,0,0,0,0,0,0,0,0,-1,2022,1758,0,0
805,-734,0,0,0,0,0,0,0,0,0,-1,2029,1758,0,0
812,-734,0,0,0,0,0,0,0,0,0,-1,2036,1758,0,0
-700,-741,0,0,0,0,0,0,0,0,0,-1,524,1765,0,0
-693,-741,0,0,0,0,0,0,0,0,0,-1,531,1765,0,0
-686,-741,0,0,0,0,0,0,0,0,0,-1,538,1765,0,0
-679,-741,0,0,0,0,0,0,0,0,0,-1,545,1765,0,0
-672,-741,0,0,0,0,0,0,0,0,0,-1,552,1765,0,0
-665,-741,0,0,0,0,0,0,0,0,0,-1,559,1765,0,0
-658,-741,0,0,0,0,0,0,0,0,0,-1,566,1765,0,0
-651,-741,0,0,0,0,0,0,0,0,0,-1,573,1765,0,0
-644,-741,0,0,0,0,0,0,0,0,0,-1,580,1765,0,0
-637,-741,0,0,0,0,0,0,0,0,0,-1,587,1765,0,0
-630,-741,0,0,0,0,0,0,0,0,0,-1,594,1765,0,0
-623,-741,0,0,0,0,0,0,0,0,0,-1,601,1765,0,0
-616,-741,0,0,0,0,0,0,0,0,0,-1,608,1765,0,0
-609,-741,0,0,0,0,0,0,0,0,0,-1,615,1765,0,0
-602,-741,0,0,0,0,0,0,0,0,0,-1,622,1765,0,0
-595,-741,0,0,0,0,0,0,0,0,0,-1,629,1765,0,0
-588,-741,0,0,0,0,0,0,0,0,0,-1,636,1765,0,0
-581,-741,0,0,0,0,0,0,0,0,0,-1,643,1765,0,0
-574,-741,0,0,0,0,0,0,0,0,0,-1,650,1765,0,0
-567,-741,0,0,0,0,0,0,0,0,0,-1,657,1765,0,0
-560,-741,0,0,0,0,0,0,0,0,0,-1,664,1765,0,0
-553,-741,0,0,0,0,0,0,0,0,0,-1,671,1765,0,0
-546,-741,0,0,0,0,0,0,0,0,0,-1,678,1765,0,0
-539,-741,0,0,0,0,0,0,0,0,0,-1,685,1765,0,0
-532,-741,0,0,0,0,0,0,0,0,0,-1,692,1765,0,0
-525,-741,0,0,0,0,0,0,0,0,0,-1,699,1765,0,0
-518,-741,0,0,0,0,0,0,0,0,0,-1,706,1765,0,0
-511,-741,0,0,0,0,0,0,0,0,0,-1,713,1765,0,0
-504,-741,0,0,0,0,0,0,0,0,0,-1,720,1765,0,0
-497,-741,0,0,0,0,0,0,0,0,0,-1,727,1765,0,0
-490,-741,0,0,0,0,0,0,0,0,0,-1,734,1765,0,0
-483,-741,0,0,0,0,0,0,0,0,0,-1,741,1765,0,0
-476,-741,0,0,0,0,0,0,0,0,0,-1,748,1765,0,0
-469,-741,0,0,0,0,0,0,0,0,0,-1,755,1765,0,0
-462,-741,0,0,0,0,0,0,0,0,0,-1,762,1765,0,0
-455,-741,0,0,0,0,0,0,0,0,0,-1,769,1765,0,0
-448,-741,0,0,0,0,0,0,0,0,0,-1,776,1765,0,0
-441,-741,0,0,0,0,0,0,0,0,0,-1,783,1765,0,0
-434,-741,0,0,0,0,0,0,0,0,0,-1,790,1765,0,0
-427,-741,0,0,0,0,0,0,0,0,0,-1,797,1765,0,0
-420,-741,0,0,0,0,0,0,0,0,0,-1,804,1765,0,0
-413,-741,0,0,0,0,0,0,0,0,0,-1,811,1765,0,0
-406,-741,0,0,0,0,0,0,0,0,0,-1,818,1765,0,0
-399,-741,0,0,0,0,0,0,0,0,0,-1,825,1765,0,0
-392,-741,0,0,0,0,0,0,0,0,0,-1,832,1765,0,0
-385,-741,0,0,0,0,0,0,0,0,0,-1,839,1765,0,0
-378,-741,0,0,0,0,0,0,0,0,0,-1,846,1765,0,0
-371,-741,0,0,0,0,0,0,0,0,0,-1,853,1765,0,0
-364,-741,0,0,0,0,0,0,0,0,0,-1,860,1765,0,0
-357,-741,0,0,0,0,0,0,0,0,0,-1,867,1765,0,0
-350,-741,0,0,0,0,0,0,0,0,0,-1,874,1765,0,0
-343,-741,0,0,0,0,0,0,0,0,0,-1,881,1765,0,0
-336,-741,0,0,0,0,0,0,0,0,0,-1,888,1765,0,0
-329,-741,0,0,0,0,0,0,0,0,0,-1,895,1765,0,0
-322,-741,0,0,0,0,0,0,0,0,0,-1,902,1765,0,0
-315,-741,0,0,0,0,0,0,0,0,0,-1,909,1765,0,0
-308,-741,0,0,0,0,0,0,0,0,0,-1,916,1765,0,0
-301,-741,0,0,0,0,0,0,0,0,0,-1,923,1765,0,0
-294,-741,0,0,0,0,0,0,0,0,0,-1,930,1765,0,0
-287,-741,0,0,0,0,0,0,0,0,0,-1,937,1765,0,0
-280,-741,0,0,0,0,0,0,0,0,0,-1,944,1765,0,0
-273,-741,0,0,0,0,0,0,0,0,0,-1,951,1765,0,0
-266,-741,0,0,0,0,0,0,0,0,0,-1,958,1765,0,0
-259,-741,0,0,0,0,0,0,0,0,0,-1,965,1765,0,0
-252,-741,0,0,0,0,0,0,0,0,0,-1,972,1765,0,0
-245,-741,0,0,0,0,0,0,0,0,0,-1,979,1765,0,0
-238,-741,5.63202,14.9113,0,0,0,0,0,0,0,-1,986,1765,5.632,-14.9112
-231,-741,6.10602,15.245,0,0,0,0,0,0,0,-1,993,1765,6.10605,-15.245
-224,-741,6.60541,15.9323,0,0,0,0,0,0,0,-1,1000,1765,6.60538,-15.9323
-217,-741,6.99121,16.5245,0,0,0,0,0,0,0,-1,1007,1765,6.99118,-16.5245
-210,-741,5.80957,23.4917,0,0,0,0,0,0,0,-1,1014,1765,5.8096,-23.4917
-203,-741,5.50122,22.6226,0,0,0,0,0,0,0,-1,1021,1765,5.50125,-22.6225
-196,-741,5.14233,21.7794,0,0,0,0,0,0,0,-1,1028,1765,5.1423,-21.7795
-189,-741,4.28918,20.7313,0,0,0,0,0,0,0,-1,1035,1765,4.28921,-20.7314
-182,-741,3.81775,21.2374,0,0,0,0,0,0,0,-1,1042,1765,3.81779,-21.2375
-175,-741,3.34644,21.7435,0,0,0,0,0,0,0,-1,1049,1765,3.34638,-21.7435
-168,-741,5.4801,16.3933,0,0,0,0,0,0,0,-1,1056,1765,5.4801,-16.3933
-161,-741,3.73047,14.4974,0,0,0,0,0,0,0,-1,1063,1765,3.73043,-14.4974
-154,-741,2.46143,9.75415,0,0,0,0,0,0,0,-1,1070,1765,2.46145,-9.75416
-147,-741,6.54053,24.212,0,0,0,0,0,0,0,-1,1077,1765,6.54058,-24.2121
-140,-741,6.68616,24.5752,0,0,0,0,0,0,0,-1,1084,1765,6.68611,-24.5751
-133,-741,6.89343,24.9456,0,0,0,0,0,0,0,-1,1091,1765,6.89338,-24.9456
-126,-741,6.46448,24.8024,0,0,0,0,0,0,0,-1,1098,1765,6.46447,-24.8024
-119,-741,6.61987,25.1106,0,0,0,0,0,0,0,-1,1105,1765,6.61986,-25.1106
-112,-741,6.65674,25.0575,-0.00236695,0.00877568,0.00164429,0.00901325,-0.00260453,1.4273,0.0070395,0.0487395,1112,1765,6.65674,-25.0575
-105,-741,6.63818,25.2206,-0.00226722,0.00897791,0.0011693,0.00909821,-0.00238752,1.46827,0.0069984,0.0499027,1119,1765,6.63824,-25.2206
-98,-741,6.6687,25.3285,0,0,0,0,0,0,0,-1,1126,1765,6.66867,-25.3285
-91,-741,6.5177,25.4421,0,0,0,0,0,0,0,-1,1133,1765,6.51766,-25.4421
-84,-741,6.46521,25.4983,0,0,0,0,0,0,0,-1,1140,1765,6.46526,-25.4983
-77,-741,6.48743,25.5386,0,0,0,0,0,0,0,-1,1147,1765,6.48745,-25.5386
-70,-741,6.36011,25.5597,0,0,0,0,0,0,0,-1,1154,1765,6.36006,-25.5597
-63,-741,6.33508,25.8625,0,0,0,0,0,0,0,-1,1161,1765,6.33507,-25.8626
-56,-741,6.45093,26.1572,0,0,0,0,0,0,0,-1,1168,1765,6.4509,-26.1573
-49,-741,6.43274,26.4087,0,0,0,0,0,0,0,-1,1175,1765,6.4327,-26.4087
-42,-741,6.37268,26.4749,0,0,0,0,0,0,0,-1,1182,1765,6.37273,-26.4749
-35,-741,6.39026,26.5411,0.00848242,0.0172449,-0.0122253,0.0258503,-0.000122963,-0.957457,0.0172746,0.0235801,1189,1765,6.39025,-26.5411
-28,-741,6.40552,26.6479,0.00946785,0.0174925,-0.0130411,0.0271246,-0.000164234,-0.934636,0.018138,0.0143926,1196,1765,6.40548,-26.6479
-21,-741,6.43591,26.7273,0.0126384,0.0174499,-0.0135598,0.0288157,0.00127254,-0.873193,0.0188006,0.0177934,1203,1765,6.4359,-26.7273
-14,-741,6.37463,26.8093,0.0152593,0.0167415,-0.013919,0.0299391,0.00206169,-0.811996,0.0193089,0.018325,1210,1765,6.37461,-26.8093
-7,-741,6.34656,26.8646,0.0166456,0.0159521,-0.0137554,0.0300586,0.00253908,-0.772796,0.0192486,0.0150595,1217,1765,6.34656,-26.8647
0,-741,6.34302,26.9502,0.0180963,0.0152614,-0.0135747,0.0303274,0.0030303,-0.733378,0.0192877,0.0147552,1224,1765,6.34302,-26.9502
7,-741,6.32385,27.0392,0.0194006,0.0144407,-0.0135255,0.0306717,0.00316961,-0.694728,0.0194774,0.01652,1231,1765,6.32388,-27.0392
14,-741,6.31079,27.0984,0.0203543,0.0135428,-0.0132821,0.0306603,0.00323679,-0.659893,0.0194513,0.0157252,1238,1765,6.31085,-27.0984
21,-741,6.27844,27.1205,0.020735,0.0124412,-0.013173,0.0303985,0.00277779,-0.632908,0.0194061,0.0125387,1245,1765,6.2784,-27.1205
28,-741,6.255,27.1749,0.0199738,0.0112537,-0.0130576,0.0293801,0.00184745,-0.624264,0.0190009,0.0130149,1252,1765,6.25502,-27.1749
35,-741,6.26428,27.2001,0.0186514,0.00999235,-0.0127176,0.0277563,0.000887511,-0.621333,0.0182155,0.0148655,1259,1765,6.26424,-27.2001
42,-741,6.28333,27.2035,0.0166316,0.00888414,-0.012331,0.025683,-0.000167233,-0.633206,0.017178,0.0145051,1266,1765,6.28327,-27.2035
49,-741,6.25769,27.2311,0.0140432,0.00756953,-0.0116751,0.0229219,-0.00130916,-0.650174,0.0157358,0.00969355,1273,1765,6.25774,-27.2311
56,-741,6.23193,27.2585,0.0110612,0.00643629,-0.0107419,0.0197367,-0.0022392,-0.679379,0.0139642,0.00969089,1280,1765,6.23198,-27.2585
63,-741,6.21643,27.2666,0.00815217,0.00530981,-0.00947165,0.0163087,-0.00284668,-0.710931,0.011935,0.01349,1287,1765,6.21638,-27.2667
70,-741,6.20349,27.3019,0.00540418,0.00432563,-0.00791177,0.012795,-0.00306522,-0.75137,0.00971432,0.0157601,1294,1765,6.20353,-27.3019
77,-741,6.19763,27.3251,0.00273125,0.00330623,-0.00603756,0.00906314,-0.00302566,-0.809189,0.00726383,0.013396,1301,1765,6.19767,-27.325
84,-741,6.18213,27.3118,-0.000227347,0.00262871,-0.00440147,0.00582801,-0.00342665,-0.942262,0.0054028,0.0157273,1308,1765,6.18217,-27.3117
91,-741,6.18115,27.2794,-0.00198154,0.00230835,-0.00267589,0.00359287,-0.00326605,-1.12325,0.0039615,0.0128677,1315,1765,6.18119,-27.2794
98,-741,6.19019,27.2383,-0.00182242,0.00225747,-0.00153866,0.00277269,-0.00233764,-1.24768,0.00295401,0.00934528,1322,1765,6.19022,-27.2383
105,-741,6.18835,27.2094,-0.00154088,0.00202638,-0.00039273,0.00206911,-0.00158361,-1.46243,0.0021151,0.0100361,1329,1765,6.18833,-27.2093
112,-741,6.20129,27.1896,-0.00100852,0.00211484,0.000579085,0.00221875,-0.00111243,1.39325,0.00195829,0.0108092,1336,1765,6.20128,-27.1895
119,-741,6.18054,27.1395,-0.000314743,0.00241477,0.000974878,0.00272719,-0.000627172,1.26066,0.00205927,0.0140452,1343,1765,6.1805,-27.1395
126,-741,6.17273,27.0803,0.000381948,0.00293698,0.00122613,0.00343019,-0.000111254,1.18836,0.00232476,0.0195415,1350,1765,6.17274,-27.0804
133,-741,6.16064,27.047,0.00107481,0.00337001,0.00130989,0.00396391,0.000480918,1.14513,0.00249778,0.0139537,1357,1765,6.16062,-27.047
140,-741,6.12268,26.9995,0.00150746,0.00386015,0.00087949,0.00415258,0.00121503,1.2498,0.00246529,0.0104018,1364,1765,6.12272,-26.9995
147,-741,6.11731,26.9482,0.00166211,0.00392412,0.000605485,0.00407599,0.00151023,1.32503,0.00237943,0.00998214,1371,1765,6.1173,-26.9482
154,-741,6.11169,26.9097,0.00170944,0.00423252,-8.51601e-05,0.00423539,0.00170657,-1.5371,0.00246062,0.00837538,1378,1765,6.11168,-26.9096
161,-741,6.10071,26.8374,0.00168821,0.00402243,-0.000900208,0.00432927,0.00138137,-1.2423,0.00255347,0.0100931,1385,1765,6.10072,-26.8374
168,-741,6.07971,26.7588,0.00134579,0.00381061,-0.00205707,0.00497619,0.000180212,-1.05528,0.00325905,0.0237962,1392,1765,6.07968,-26.7588
175,-741,6.0188,26.668,0,0,0,0,0,0,0,-1,1399,1765,6.01883,-26.6679
182,-741,6.06458,26.5621,0,0,0,0,0,0,0,-1,1406,1765,6.06457,-26.5622
189,-741,6.0426,26.4774,0,0,0,0,0,0,0,-1,1413,1765,6.04258,-26.4774
196,-741,6.02063,26.3486,0,0,0,0,0,0,0,-1,1420,1765,6.02061,-26.3487
203,-741,6.0343,26.1809,0,0,0,0,0,0,0,-1,1427,1765,6.03434,-26.1809
210,-741,6.0166,26.0382,0,0,0,0,0,0,0,-1,1434,1765,6.01666,-26.0383
217,-741,6.03723,25.9751,0,0,0,0,0,0,0,-1,1441,1765,6.03725,-25.9751
224,-741,6.01794,25.8424,0,0,0,0,0,0,0,-1,1448,1765,6.01799,-25.8424
231,-741,6.17224,25.7943,-0.00443344,0.00715957,-0.00854949,0.0116923,-0.00896617,-1.0833,0.0119617,0.0349168,1455,1765,6.17225,-25.7943
238,-741,6.04077,25.6342,-0.00417419,0.00823709,-0.00906277,0.0130152,-0.00895234,-1.0856,0.0127551,0.0378816,1462,1765,6.04078,-25.6341
245,-741,5.93091,25.3676,-0.0036045,0.00939766,-0.00953611,0.0144379,-0.00864471,-1.08458,0.0134659,0.0436305,1469,1765,5.93085,-25.3676
252,-741,5.82751,24.8552,-0.00303935,0.010578,-0.00987421,0.0157634,-0.00822476,-1.08723,0.0140757,0.04578,1476,1765,5.82757,-24.8552
259,-741,5.60815,24.6324,0,0,0,0,0,0,0,-1,1483,1765,5.60817,-24.6324
266,-741,6.37451,25.1742,0,0,0,0,0,0,0,-1,1490,1765,6.37449,-25.1742
273,-741,17.0328,7.54468,0,0,0,0,0,0,0,-1,1497,1765,17.0328,-7.54474
280,-741,16.2363,9.84546,0,0,0,0,0,0,0,-1,1504,1765,16.2363,-9.84547
287,-741,14.5045,8.71423,0,0,0,0,0,0,0,-1,1511,1765,14.5045,-8.71429
294,-741,11.6001,7.95422,0,0,0,0,0,0,0,-1,1518,1765,11.6001,-7.95423
301,-741,11.036,7.02612,0,0,0,0,0,0,0,-1,1525,1765,11.036,-7.02617
308,-741,10.4718,6.09814,0,0,0,0,0,0,0,-1,1532,1765,10.4718,-6.0981
315,-741,9.70715,6.86963,0,0,0,0,0,0,0,-1,1539,1765,9.70712,-6.86963
322,-741,9.21252,8.54858,0,0,0,0,0,0,0,-1,1546,1765,9.21251,-8.54858
329,-741,8.5603,10.1146,0,0,0,0,0,0,0,-1,1553,1765,8.56033,-10.1146
336,-741,4.74475,14.6453,0,0,0,0,0,0,0,-1,1560,1765,4.7447,-14.6452
343,-741,5.42297,5.93701,0,0,0,0,0,0,0,-1,1567,1765,5.42296,-5.937
350,-741,4.90369,5.44666,0,0,0,0,0,0,0,-1,1574,1765,4.90368,-5.44664
357,-741,4.02063,5.16626,0,0,0,0,0,0,0,-1,1581,1765,4.02058,-5.1662
364,-741,0,0,0,0,0,0,0,0,0,-1,1588,1765,0,0
371,-741,0,0,0,0,0,0,0,0,0,-1,1595,1765,0,0
378,-741,0,0,0,0,0,0,0,0,0,-1,1602,1765,0,0
385,-741,0,0,0,0,0,0,0,0,0,-1,1609,1765,0,0
392,-741,0,0,0,0,0,0,0,0,0,-1,1616,1765,0,0
399,-741,0,0,0,0,0,0,0,0,0,-1,1623,1765,0,0
406,-741,0,0,0,0,0,0,0,0,0,-1,1630,1765,0,0
413,-741,0,0,0,0,0,0,0,0,0,-1,1637,1765,0,0
420,-741,0,0,0,0,0,0,0,0,0,-1,1644,1765,0,0
427,-741,0,0,0,0,0,0,0,0,0,-1,1651,1765,0,0
434,-741,0,0,0,0,0,0,0,0,0,-1,1658,1765,0,0
441,-741,0,0,0,0,0,0,0,0,0,-1,1665,1765,0,0
448,-741,0,0,0,0,0,0,0,0,0,-1,1672,1765,0,0
455,-741,0,0,0,0,0,0,0,0,0,-1,1679,1765,0,0
462,-741,0,0,0,0,0,0,0,0,0,-1,1686,1765,0,0
469,-741,0,0,0,0,0,0,0,0,0,-1,1693,1765,0,0
476,-741,0,0,0,0,0,0,0,0,0,-1,1700,1765,0,0
483,-741,0,0,0,0,0,0,0,0,0,-1,1707,1765,0,0
490,-741,0,0,0,0,0,0,0,0,0,-1,1714,1765,0,0
497,-741,0,0,0,0,0,0,0,0,0,-1,1721,1765,0,0
504,-741,0,0,0,0,0,0,0,0,0,-1,1728,1765,0,0
511,-741,0,0,0,0,0,0,0,0,0,-1,1735,1765,0,0
518,-741,0,0,0,0,0,0,0,0,0,-1,1742,1765,0,0
525,-741,0,0,0,0,0,0,0,0,0,-1,1749,1765,0,0
532,-741,0,0,0,0,0,0,0,0,0,-1,1756,1765,0,0
539,-741,0,0,0,0,0,0,0,0,0,-1,1763,1765,0,0
546,-741,0,0,0,0,0,0,0,0,0,-1,1770,1765,0,0
553,-741,0,0,0,0,0,0,0,0,0,-1,1777,1765,0,0
560,-741,0,0,0,0,0,0,0,0,0,-1,1784,1765,0,0
567,-741,0,0,0,0,0,0,0,0,0,-1,1791,1765,0,0
574,-741,0,0,0,0,0,0,0,0,0,-1,1798,1765,0,0
581,-741,0,0,0,0,0,0,0,0,0,-1,1805,1765,0,0
588,-741,0,0,0,0,0,0,0,0,0,-1,1812,1765,0,0
595,-741,0,0,0,0,0,0,0,0,0,-1,1819,1765,0,0
602,-741,0,0,0,0,0,0,0,0,0,-1,1826,1765,0,0
609,-741,0,0,0,0,0,0,0,0,0,-1,1833,1765,0,0
616,-741,0,0,0,0,0,0,0,0,0,-1,1840,1765,0,0
623,-741,0,0,0,0,0,0,0,0,0,-1,1847,1765,0,0
630,-741,0,0,0,0,0,0,0,0,0,-1,1854,1765,0,0
637,-741,0,0,0,0,0,0,0,0,0,-1,1861,1765,0,0
644,-741,0,0,0,0,0,0,0,0,0,-1,1868,1765,0,0
651,-741,0,0,0,0,0,0,0,0,0,-1,1875,1765,0,0
658,-741,0,0,0,0,0,0,0,0,0,-1,1882,1765,0,0
665,-741,0,0,0,0,0,0,0,0,0,-1,1889,1765,0,0
672,-741,0,0,0,0,0,0,0,0,0,-1,1896,1765,0,0
679,-741,0,0,0,0,0,0,0,0,0,-1,1903,1765,0,0
686,-741,0,0,0,0,0,0,0,0,0,-1,1910,1765,0,0
693,-741,0,0,0,0,0,0,0,0,0,-1,1917,1765,0,0
700,-741,0,0,0,0,0,0,0,0,0,-1,1924,1765,0,0
707,-741,0,0,0,0,0,0,0,0,0,-1,1931,1765,0,0
714,-741,0,0,0,0,0,0,0,0,0,-1,1938,1765,0,0
721,-741,0,0,0,0,0,0,0,0,0,-1,1945,1765,0,0
728,-741,0,0,0,0,0,0,0,0,0,-1,1952,1765,0,0
735,-741,0,0,0,0,0,0,0,0,0,-1,1959,1765,0,0
742,-741,0,0,0,0,0,0,0,0,0,-1,1966,1765,0,0
749,-741,0,0,0,0,0,0,0,0,0,-1,1973,1765,0,0
756,-741,0,0,0,0,0,0,0,0,0,-1,1980,1765,0,0
763,-741,0,0,0,0,0,0,0,0,0,-1,1987,1765,0,0
770,-741,0,0,0,0,0,0,0,0,0,-1,1994,1765,0,0
777,-741,0,0,0,0,0,0,0,0,0,-1,2001,1765,0,0
784,-741,0,0,0,0,0,0,0,0,0,-1,2008,1765,0,0
791,-741,0,0,0,0,0,0,0,0,0,-1,2015,1765,0,0
798,-741,0,0,0,0,0,0,0,0,0,-1,2022,1765,0,0
805,-741,0,0,0,0,0,0,0,0,0,-1,2029,1765,0,0
812,-741,0,0,0,0,0,0,0,0,0,-1,2036,1765,0,0
-700,-748,0,0,0,0,0,0,0,0,0,-1,524,1772,0,0
-693,-748,0,0,0,0,0,0,0,0,0,-1,531,1772,0,0
-686,-748,0,0,0,0,0,0,0,0,0,-1,538,1772,0,0
-679,-748,0,0,0,0,0,0,0,0,0,-1,545,1772,0,0
-672,-748,0,0,0,0,0,0,0,0,0,-1,552,1772,0,0
-665,-748,0,0,0,0,0,0,0,0,0,-1,559,1772,0,0
-658,-748,0,0,0,0,0,0,0,0,0,-1,566,1772,0,0
-651,-748,0,0,0,0,0,0,0,0,0,-1,573,1772,0,0
-644,-748,0,0,0,0,0,0,0,0,0,-1,580,1772,0,0
-637,-748,0,0,0,0,0,0,0,0,0,-1,587,1772,0,0
-630,-748,0,0,0,0,0,0,0,0,0,-1,594,1772,0,0
-623,-748,0,0,0,0,0,0,0,0,0,-1,601,1772,0,0
-616,-748,0,0,0,0,0,0,0,0,0,-1,608,1772,0,0
-609,-748,0,0,0,0,0,0,0,0,0,-1,615,1772,0,0
-602,-748,0,0,0,0,0,0,0,0,0,-1,622,1772,0,0
-595,-748,0,0,0,0,0,0,0,0,0,-1,629,1772,0,0
-588,-748,0,0,0,0,0,0,0,0,0,-1,636,1772,0,0
-581,-748,0,0,0,0,0,0,0,0,0,-1,643,1772,0,0
-574,-748,0,0,0,0,0,0,0,0,0,-1,650,1772,0,0
-567,-748,0,0,0,0,0,0,0,0,0,-1,657,1772,0,0
-560,-748,0,0,0,0,0,0,0,0,0,-1,664,1772,0,0
-553,-748,0,0,0,0,0,0,0,0,0,-1,671,1772,0,0
-546,-748,0,0,0,0,0,0,0,0,0,-1,678,1772,0,0
-539,-748,0,0,0,0,0,0,0,0,0,-1,685,1772,0,0
-532,-748,0,0,0,0,0,0,0,0,0,-1,692,1772,0,0
-525,-748,0,0,0,0,0,0,0,0,0,-1,699,1772,0,0
-518,-748,0,0,0,0,0,0,0,0,0,-1,706,1772,0,0
-511,-748,0,0,0,0,0,0,0,0,0,-1,713,1772,0,0
-504,-748,0,0,0,0,0,0,0,0,0,-1,720,1772,0,0
-497,-748,0,0,0,0,0,0,0,0,0,-1,727,1772,0,0
-490,-748,0,0,0,0,0,0,0,0,0,-1,734,1772,0,0
-483,-748,0,0,0,0,0,0,0,0,0,-1,741,1772,0,0
-476,-748,0,0,0,0,0,0,0,0,0,-1,748,1772,0,0
-469,-748,0,0,0,0,0,0,0,0,0,-1,755,1772,0,0
-462,-748,0,0,0,0,0,0,0,0,0,-1,762,1772,0,0
-455,-748,0,0,0,0,0,0,0,0,0,-1,769,1772,0,0
-448,-748,0,0,0,0,0,0,0,0,0,-1,776,1772,0,0
-441,-748,0,0,0,0,0,0,0,0,0,-1,783,1772,0,0
-434,-748,0,0,0,0,0,0,0,0,0,-1,790,1772,0,0
-427,-748,0,0,0,0,0,0,0,0,0,-1,797,1772,0,0
-420,-748,0,0,0,0,0,0,0,0,0,-1,804,1772,0,0
-413,-748,0,0,0,0,0,0,0,0,0,-1,811,1772,0,0
-406,-748,0,0,0,0,0,0,0,0,0,-1,818,1772,0,0
-399,-748,0,0,0,0,0,0,0,0,0,-1,825,1772,0,0
-392,-748,0,0,0,0,0,0,0,0,0,-1,832,1772,0,0
-385,-748,0,0,0,0,0,0,0,0,0,-1,839,1772,0,0
-378,-748,0,0,0,0,0,0,0,0,0,-1,846,1772,0,0
-371,-748,0,0,0,0,0,0,0,0,0,-1,853,1772,0,0
-364,-748,0,0,0,0,0,0,0,0,0,-1,860,1772,0,0
-357,-748,0,0,0,0,0,0,0,0,0,-1,867,1772,0,0
-350,-748,0,0,0,0,0,0,0,0,0,-1,874,1772,0,0
-343,-748,0,0,0,0,0,0,0,0,0,-1,881,1772,0,0
-336,-748,0,0,0,0,0,0,0,0,0,-1,888,1772,0,0
-329,-748,0,0,0,0,0,0,0,0,0,-1,895,1772,0,0
-322,-748,0,0,0,0,0,0,0,0,0,-1,902,1772,0,0
-315,-748,0,0,0,0,0,0,0,0,0,-1,909,1772,0,0
-308,-748,0,0,0,0,0,0,0,0,0,-1,916,1772,0,0
-301,-748,0,0,0,0,0,0,0,0,0,-1,923,1772,0,0
-294,-748,0,0,0,0,0,0,0,0,0,-1,930,1772,0,0
-287,-748,0,0,0,0,0,0,0,0,0,-1,937,1772,0,0
-280,-748,0,0,0,0,0,0,0,0,0,-1,944,1772,0,0
-273,-748,0,0,0,0,0,0,0,0,0,-1,951,1772,0,0
-266,-748,0,0,0,0,0,0,0,0,0,-1,958,1772,0,0
-259,-748,0,0,0,0,0,0,0,0,0,-1,965,1772,0,0
-252,-748,0,0,0,0,0,0,0,0,0,-1,972,1772,0,0
-245,-748,0,0,0,0,0,0,0,0,0,-1,979,1772,0,0
-238,-748,0,0,0,0,0,0,0,0,0,-1,986,1772,0,0
-231,-748,0,0,0,0,0,0,0,0,0,-1,993,1772,0,0
-224,-748,0,0,0,0,0,0,0,0,0,-1,1000,1772,0,0
-217,-748,6.45807,16.5496,0,0,0,0,0,0,0,-1,1007,1772,6.45805,-16.5495
-210,-748,5.46893,25.1432,0,0,0,0,0,0,0,-1,1014,1772,5.4689,-25.1432
-203,-748,5.40662,24.1573,0,0,0,0,0,0,0,-1,1021,1772,5.40657,-24.1574
-196,-748,5.15344,22.8755,0,0,0,0,0,0,0,-1,1028,1772,5.15342,-22.8754
-189,-748,4.52478,21.7634,0,0,0,0,0,0,0,-1,1035,1772,4.52475,-21.7634
-182,-748,3.94958,20.8662,0,0,0,0,0,0,0,-1,1042,1772,3.94959,-20.8662
-175,-748,3.56726,19.4518,0,0,0,0,0,0,0,-1,1049,1772,3.5673,-19.4518
-168,-748,3.04858,18.0109,0,0,0,0,0,0,0,-1,1056,1772,3.04853,-18.0108
-161,-748,3.50562,13.2729,0,0,0,0,0,0,0,-1,1063,1772,3.5056,-13.2729
-154,-748,-3.38562,10.6989,0,0,0,0,0,0,0,-1,1070,1772,-3.38564,-10.6989
-147,-748,-6.38733,11.0702,0,0,0,0,0,0,0,-1,1077,1772,-6.38731,-11.0702
-140,-748,7.7439,23.1177,0,0,0,0,0,0,0,-1,1084,1772,7.74393,-23.1177
-133,-748,7.44727,22.0308,0,0,0,0,0,0,0,-1,1091,1772,7.44728,-22.0308
-126,-748,5.98035,22.6067,0,0,0,0,0,0,0,-1,1098,1772,5.9803,-22.6067
-119,-748,6.16589,24.6422,0,0,0,0,0,0,0,-1,1105,1772,6.16593,-24.6422
-112,-748,6.91333,24.923,0,0,0,0,0,0,0,-1,1112,1772,6.91339,-24.923
-105,-748,6.83313,25.0537,0,0,0,0,0,0,0,-1,1119,1772,6.83311,-25.0537
-98,-748,6.99341,13.5935,0,0,0,0,0,0,0,-1,1126,1772,6.99343,-13.5935
-91,-748,4.85352,15.3033,0,0,0,0,0,0,0,-1,1133,1772,4.85351,-15.3033
-84,-748,-0.192017,7.26196,0,0,0,0,0,0,0,-1,1140,1772,-0.192047,-7.26201
-77,-748,4.42615,13.5537,0,0,0,0,0,0,0,-1,1147,1772,4.4261,-13.5538
-70,-748,4.46191,13.7446,0,0,0,0,0,0,0,-1,1154,1772,4.4619,-13.7446
-63,-748,4.49768,13.9355,0,0,0,0,0,0,0,-1,1161,1772,4.49769,-13.9355
-56,-748,3.05762,7.87817,0,0,0,0,0,0,0,-1,1168,1772,3.05768,-7.87822
-49,-748,3.04102,7.82471,0,0,0,0,0,0,0,-1,1175,1772,3.04096,-7.82468
-42,-748,0.793457,14.9474,0,0,0,0,0,0,0,-1,1182,1772,0.793413,-14.9474
-35,-748,6.52258,26.4984,0,0,0,0,0,0,0,-1,1189,1772,6.52253,-26.4984
-28,-748,6.46619,26.7469,0,0,0,0,0,0,0,-1,1196,1772,6.46623,-26.7469
-21,-748,6.48596,26.7631,0.0234326,0.0346723,-0.0263744,0.056019,0.00208591,-0.890368,0.0366705,0.02301,1203,1772,6.48602,-26.763
-14,-748,6.42065,26.8027,0.0257474,0.0328455,-0.0259443,0.0554824,0.00311056,-0.853374,0.0359962,0.016755,1210,1772,6.42067,-26.8027
-7,-748,6.40125,26.8562,0.026895,0.0308798,-0.0249928,0.0539595,0.00381529,-0.825173,0.0347711,0.0156324,1217,1772,6.4013,-26.8562
0,-748,6.39856,26.9321,0.0283674,0.028905,-0.0239641,0.0526018,0.00467058,-0.791006,0.0336193,0.0154514,1224,1772,6.39851,-26.9322
7,-748,6.37915,26.9862,0.0297337,0.0267348,-0.0231037,0.0513865,0.005082,-0.752993,0.0326956,0.0143759,1231,1772,6.37913,-26.9862
14,-748,6.35242,27.0641,0.0305787,0.0245285,-0.0221123,0.0498719,0.0052353,-0.717417,0.0316475,0.0147736,1238,1772,6.35248,-27.0641
21,-748,6.34619,27.1146,0.0306495,0.0221578,-0.021356,0.0481777,0.00462963,-0.687271,0.0306918,0.0111081,1245,1772,6.34614,-27.1146
28,-748,6.31018,27.168,0.0291834,0.0197069,-0.0206502,0.045632,0.00325832,-0.672624,0.0293955,0.0117928,1252,1772,6.31013,-27.168
35,-748,6.29578,27.1947,0.0268813,0.0172043,-0.0196831,0.0423119,0.00177373,-0.664877,0.0276357,0.0127461,1259,1772,6.29573,-27.1947
42,-748,6.30847,27.2074,0.0235701,0.0148796,-0.0185984,0.0383242,0.000125572,-0.67064,0.0255077,0.0140227,1266,1772,6.30845,-27.2074
49,-748,6.2887,27.2302,0.0196469,0.0124347,-0.0172884,0.0337013,-0.00161974,-0.68258,0.0230265,0.0107984,1273,1772,6.28864,-27.2302
56,-748,6.2561,27.2601,0.0148641,0.0103884,-0.0157758,0.02856,-0.00330751,-0.714942,0.0202328,0.0104381,1280,1772,6.25609,-27.2602
63,-748,6.23682,27.2603,0.0102435,0.00828912,-0.0137153,0.0230163,-0.00448372,-0.749835,0.0170366,0.0123473,1287,1772,6.23679,-27.2602
70,-748,6.22168,27.2749,0.00603081,0.00649149,-0.0112898,0.0175533,-0.00503102,-0.795598,0.0136909,0.013318,1294,1772,6.22165,-27.2748
77,-748,6.20862,27.2938,0.00202159,0.00479039,-0.00852869,0.0120463,-0.00523433,-0.865858,0.0102321,0.0119376,1301,1772,6.20865,-27.2938
84,-748,6.17078,27.3016,-0.00241511,0.00364228,-0.00610944,0.00743255,-0.00620538,-1.01552,0.00788448,0.0135048,1308,1772,6.17077,-27.3016
91,-748,6.16931,27.2811,-0.00521019,0.00302018,-0.00356456,0.00434933,-0.00653934,-1.21389,0.00632882,0.0116815,1315,1772,6.16934,-27.2811
98,-748,6.16907,27.2458,-0.00529215,0.0027863,-0.00173869,0.00314462,-0.00565047,-1.36756,0.00514609,0.0105204,1322,1772,6.16901,-27.2459
105,-748,6.15186,27.2092,-0.00510503,0.00240033,4.2249e-05,0.00240057,-0.00510526,1.56517,0.00442629,0.0119065,1329,1772,6.15191,-27.2092
112,-748,6.1637,27.1862,-0.00431252,0.00246759,0.00157871,0.00281716,-0.00466209,1.35288,0.00436172,0.0149846,1336,1772,6.16368,-27.1861
119,-748,6.14587,27.1531,-0.00299739,0.00279589,0.00242519,0.00367709,-0.00387859,1.22228,0.0043628,0.0131979,1343,1772,6.14593,-27.1531
126,-748,6.13379,27.1124,-0.00163401,0.00333238,0.0030939,0.00481636,-0.00311799,1.12356,0.00461575,0.0155484,1350,1772,6.13374,-27.1124
133,-748,6.08325,27.0667,-0.000258597,0.00371213,0.00349473,0.00574607,-0.00229254,1.04372,0.00478173,0.00929024,1357,1772,6.08331,-27.0666
140,-748,6.0697,27.01,0.000811448,0.00420047,0.00310942,0.00604712,-0.00103521,1.03488,0.00441711,0.0115496,1364,1772,6.06967,-27.01
147,-748,6.08215,26.9497,0.00155605,0.00419741,0.00279035,0.00596384,-0.000210377,1.00643,0.00404784,0.0135288,1371,1772,6.08221,-26.9498
154,-748,6.05725,26.8971,0.00200639,0.00451577,0.00191376,0.00554947,0.000972682,1.07555,0.00342182,0.0111895,1378,1772,6.05722,-26.8971
161,-748,6.02319,26.8521,0.00314192,0.00416081,0.00117176,0.00492908,0.00237366,0.990456,0.00284645,0.0178967,1385,1772,6.0232,-26.8521
168,-748,5.99341,26.8198,0,0,0,0,0,0,0,-1,1392,1772,5.99338,-26.8198
175,-748,11.6235,16.8242,0,0,0,0,0,0,0,-1,1399,1772,11.6236,-16.8242
182,-748,7.62476,10.3058,0,0,0,0,0,0,0,-1,1406,1772,7.62476,-10.3058
189,-748,6.15857,6.95898,0,0,0,0,0,0,0,-1,1413,1772,6.15862,-6.95896
196,-748,3.9425,8.46021,0,0,0,0,0,0,0,-1,1420,1772,3.9425,-8.46026
203,-748,3.9668,12.9835,0,0,0,0,0,0,0,-1,1427,1772,3.96678,-12.9836
210,-748,4.71472,16.8318,0,0,0,0,0,0,0,-1,1434,1772,4.71471,-16.8317
217,-748,5.38452,21.5551,0,0,0,0,0,0,0,-1,1441,1772,5.38455,-21.555
224,-748,5.99792,25.0667,0,0,0,0,0,0,0,-1,1448,1772,5.99793,-25.0666
231,-748,6.32971,25.7762,0,0,0,0,0,0,0,-1,1455,1772,6.32974,-25.7763
238,-748,6.09912,25.6725,0,0,0,0,0,0,0,-1,1462,1772,6.09914,-25.6725
245,-748,5.81555,25.2799,0,0,0,0,0,0,0,-1,1469,1772,5.81552,-25.2799
252,-748,5.70691,24.4492,0,0,0,0,0,0,0,-1,1476,1772,5.70692,-24.4492
259,-748,3.5614,20.4832,0,0,0,0,0,0,0,-1,1483,1772,3.56142,-20.4832
266,-748,17.9011,7.59448,0,0,0,0,0,0,0,-1,1490,1772,17.9011,-7.59452
273,-748,16.4131,7.57129,0,0,0,0,0,0,0,-1,1497,1772,16.413,-7.57125
280,-748,15.2177,7.24829,0,0,0,0,0,0,0,-1,1504,1772,15.2176,-7.24833
287,-748,14.161,8.32813,0,0,0,0,0,0,0,-1,1511,1772,14.161,-8.32808
294,-748,12.2117,7.453,0,0,0,0,0,0,0,-1,1518,1772,12.2116,-7.45297
301,-748,11.7134,7.3595,0,0,0,0,0,0,0,-1,1525,1772,11.7133,-7.35949
308,-748,9.92456,7.80225,0,0,0,0,0,0,0,-1,1532,1772,9.92453,-7.80224
315,-748,8.91541,8.29773,0,0,0,0,0,0,0,-1,1539,1772,8.91544,-8.29773
322,-748,7.83618,8.87122,0,0,0,0,0,0,0,-1,1546,1772,7.83613,-8.87124
329,-748,3.48315,14.6533,0,0,0,0,0,0,0,-1,1553,1772,3.48316,-14.6534
336,-748,3.76001,15.8163,0,0,0,0,0,0,0,-1,1560,1772,3.75995,-15.8163
343,-748,0,0,0,0,0,0,0,0,0,-1,1567,1772,0,0
350,-748,0,0,0,0,0,0,0,0,0,-1,1574,1772,0,0
357,-748,0,0,0,0,0,0,0,0,0,-1,1581,1772,0,0
364,-748,0,0,0,0,0,0,0,0,0,-1,1588,1772,0,0
371,-748,0,0,0,0,0,0,0,0,0,-1,1595,1772,0,0
378,-748,0,0,0,0,0,0,0,0,0,-1,1602,1772,0,0
385,-748,0,0,0,0,0,0,0,0,0,-1,1609,1772,0,0
392,-748,0,0,0,0,0,0,0,0,0,-1,1616,1772,0,0
399,-748,0,0,0,0,0,0,0,0,0,-1,1623,1772,0,0
406,-748,0,0,0,0,0,0,0,0,0,-1,1630,1772,0,0
413,-748,0,0,0,0,0,0,0,0,0,-1,1637,1772,0,0
420,-748,0,0,0,0,0,0,0,0,0,-1,1644,1772,0,0
427,-748,0,0,0,0,0,0,0,0,0,-1,1651,1772,0,0
434,-748,0,0,0,0,0,0,0,0,0,-1,1658,1772,0,0
441,-748,0,0,0,0,0,0,0,0,0,-1,1665,1772,0,0
448,-748,0,0,0,0,0,0,0,0,0,-1,1672,1772,0,0
455,-748,0,0,0,0,0,0,0,0,0,-1,1679,1772,0,0
462,-748,0,0,0,0,0,0,0,0,0,-1,1686,1772,0,0
469,-748,0,0,0,0,0,0,0,0,0,-1,1693,1772,0,0
476,-748,0,0,0,0,0,0,0,0,0,-1,1700,1772,0,0
483,-748,0,0,0,0,0,0,0,0,0,-1,1707,1772,0,0
490,-748,0,0,0,0,0,0,0,0,0,-1,1714,1772,0,0
497,-748,0,0,0,0,0,0,0,0,0,-1,1721,1772,0,0
504,-748,0,0,0,0,0,0,0,0,0,-1,1728,1772,0,0
511,-748,0,0,0,0,0,0,0,0,0,-1,1735,1772,0,0
518,-748,0,0,0,0,0,0,0,0,0,-1,1742,1772,0,0
525,-748,0,0,0,0,0,0,0,0,0,-1,1749,1772,0,0
532,-748,0,0,0,0,0,0,0,0,0,-1,1756,1772,0,0
539,-748,0,0,0,0,0,0,0,0,0,-1,1763,1772,0,0
546,-748,0,0,0,0,0,0,0,0,0,-1,1770,1772,0,0
553,-748,0,0,0,0,0,0,0,0,0,-1,1777,1772,0,0
560,-748,0,0,0,0,0,0,0,0,0,-1,1784,1772,0,0
567,-748,0,0,0,0,0,0,0,0,0,-1,1791,1772,0,0
574,-748,0,0,0,0,0,0,0,0,0,-1,1798,1772,0,0
581,-748,0,0,0,0,0,0,0,0,0,-1,1805,1772,0,0
588,-748,0,0,0,0,0,0,0,0,0,-1,1812,1772,0,0
595,-748,0,0,0,0,0,0,0,0,0,-1,1819,1772,0,0
602,-748,0,0,0,0,0,0,0,0,0,-1,1826,1772,0,0
609,-748,0,0,0,0,0,0,0,0,0,-1,1833,1772,0,0
616,-748,0,0,0,0,0,0,0,0,0,-1,1840,1772,0,0
623,-748,0,0,0,0,0,0,0,0,0,-1,1847,1772,0,0
630,-748,0,0,0,0,0,0,0,0,0,-1,1854,1772,0,0
637,-748,0,0,0,0,0,0,0,0,0,-1,1861,1772,0,0
644,-748,0,0,0,0,0,0,0,0,0,-1,1868,1772,0,0
651,-748,0,0,0,0,0,0,0,0,0,-1,1875,1772,0,0
658,-748,0,0,0,0,0,0,0,0,0,-1,1882,1772,0,0
665,-748,0,0,0,0,0,0,0,0,0,-1,1889,1772,0,0
672,-748,0,0,0,0,0,0,0,0,0,-1,1896,1772,0,0
679,-748,0,0,0,0,0,0,0,0,0,-1,1903,1772,0,0
686,-748,0,0,0,0,0,0,0,0,0,-1,1910,1772,0,0
693,-748,0,0,0,0,0,0,0,0,0,-1,1917,1772,0,0
700,-748,0,0,0,0,0,0,0,0,0,-1,1924,1772,0,0
707,-748,0,0,0,0,0,0,0,0,0,-1,1931,1772,0,0
714,-748,0,0,0,0,0,0,0,0,0,-1,1938,1772,0,0
721,-748,0,0,0,0,0,0,0,0,0,-1,1945,1772,0,0
728,-748,0,0,0,0,0,0,0,0,0,-1,1952,1772,0,0
735,-748,0,0,0,0,0,0,0,0,0,-1,1959,1772,0,0
742,-748,0,0,0,0,0,0,0,0,0,-1,1966,1772,0,0
749,-748,0,0,0,0,0,0,0,0,0,-1,1973,1772,0,0
756,-748,0,0,0,0,0,0,0,0,0,-1,1980,1772,0,0
763,-748,0,0,0,0,0,0,0,0,0,-1,1987,1772,0,0
770,-748,0,0,0,0,0,0,0,0,0,-1,1994,1772,0,0
777,-748,0,0,0,0,0,0,0,0,0,-1,2001,1772,0,0
784,-748,0,0,0,0,0,0,0,0,0,-1,2008,1772,0,0
791,-748,0,0,0,0,0,0,0,0,0,-1,2015,1772,0,0
798,-748,0,0,0,0,0,0,0,0,0,-1,2022,1772,0,0
805,-748,0,0,0,0,0,0,0,0,0,-1,2029,1772,0,0
812,-748,0,0,0,0,0,0,0,0,0,-1,2036,1772,0,0
-700,-755,0,0,0,0,0,0,0,0,0,-1,524,1779,0,0
-693,-755,0,0,0,0,0,0,0,0,0,-1,531,1779,0,0
-686,-755,0,0,0,0,0,0,0,0,0,-1,538,1779,0,0
-679,-755,0,0,0,0,0,0,0,0,0,-1,545,1779,0,0
-672,-755,0,0,0,0,0,0,0,0,0,-1,552,1779,0,0
-665,-755,0,0,0,0,0,0,0,0,0,-1,559,1779,0,0
-658,-755,0,0,0,0,0,0,0,0,0,-1,566,1779,0,0
-651,-755,0,0,0,0,0,0,0,0,0,-1,573,1779,0,0
-644,-755,0,0,0,0,0,0,0,0,0,-1,580,1779,0,0
-637,-755,0,0,0,0,0,0,0,0,0,-1,587,1779,0,0
-630,-755,0,0,0,0,0,0,0,0,0,-1,594,1779,0,0
-623,-755,0,0,0,0,0,0,0,0,0,-1,601,1779,0,0
-616,-755,0,0,0,0,0,0,0,0,0,-1,608,1779,0,0
-609,-755,0,0,0,0,0,0,0,0,0,-1,615,1779,0,0
-602,-755,0,0,0,0,0,0,0,0,0,-1,622,1779,0,0
-595,-755,0,0,0,0,0,0,0,0,0,-1,629,1779,0,0
-588,-755,0,0,0,0,0,0,0,0,0,-1,636,1779,0,0
-581,-755,0,0,0,0,0,0,0,0,0,-1,643,1779,0,0
-574,-755,0,0,0,0,0,0,0,0,0,-1,650,1779,0,0
-567,-755,0,0,0,0,0,0,0,0,0,-1,657,1779,0,0
-560,-755,0,0,0,0,0,0,0,0,0,-1,664,1779,0,0
-553,-755,0,0,0,0,0,0,0,0,0,-1,671,1779,0,0
-546,-755,0,0,0,0,0,0,0,0,0,-1,678,1779,0,0
-539,-755,0,0,0,0,0,0,0,0,0,-1,685,1779,0,0
-532,-755,0,0,0,0,0,0,0,0,0,-1,692,1779,0,0
-525,-755,0,0,0,0,0,0,0,0,0,-1,699,1779,0,0
-518,-755,0,0,0,0,0,0,0,0,0,-1,706,1779,0,0
-511,-755,0,0,0,0,0,0,0,0,0,-1,713,1779,0,0
-504,-755,0,0,0,0,0,0,0,0,0,-1,720,1779,0,0
-497,-755,0,0,0,0,0,0,0,0,0,-1,727,1779,0,0
-490,-755,0,0,0,0,0,0,0,0,0,-1,734,1779,0,0
-483,-755,0,0,0,0,0,0,0,0,0,-1,741,1779,0,0
-476,-755,0,0,0,0,0,0,0,0,0,-1,748,1779,0,0
-469,-755,0,0,0,0,0,0,0,0,0,-1,755,1779,0,0
-462,-755,0,0,0,0,0,0,0,0,0,-1,762,1779,0,0
-455,-755,0,0,0,0,0,0,0,0,0,-1,769,1779,0,0
-448,-755,0,0,0,0,0,0,0,0,0,-1,776,1779,0,0
-441,-755,0,0,0,0,0,0,0,0,0,-1,783,1779,0,0
-434,-755,0,0,0,0,0,0,0,0,0,-1,790,1779,0,0
-427,-755,0,0,0,0,0,0,0,0,0,-1,797,1779,0,0
-420,-755,0,0,0,0,0,0,0,0,0,-1,804,1779,0,0
-413,-755,0,0,0,0,0,0,0,0,0,-1,811,1779,0,0
-406,-755,0,0,0,0,0,0,0,0,0,-1,818,1779,0,0
-399,-755,0,0,0,0,0,0,0,0,0,-1,825,1779,0,0
-392,-755,0,0,0,0,0,0,0,0,0,-1,832,1779,0,0
-385,-755,0,0,0,0,0,0,0,0,0,-1,839,1779,0,0
-378,-755,0,0,0,0,0,0,0,0,0,-1,846,1779,0,0
-371,-755,0,0,0,0,0,0,0,0,0,-1,853,1779,0,0
-364,-755,0,0,0,0,0,0,0,0,0,-1,860,1779,0,0
-357,-755,0,0,0,0,0,0,0,0,0,-1,867,1779,0,0
-350,-755,0,0,0,0,0,0,0,0,0,-1,874,1779,0,0
-343,-755,0,0,0,0,0,0,0,0,0,-1,881,1779,0,0
-336,-755,0,0,0,0,0,0,0,0,0,-1,888,1779,0,0
-329,-755,0,0,0,0,0,0,0,0,0,-1,895,1779,0,0
-322,-755,0,0,0,0,0,0,0,0,0,-1,902,1779,0,0
-315,-755,0,0,0,0,0,0,0,0,0,-1,909,1779,0,0
-308,-755,0,0,0,0,0,0,0,0,0,-1,916,1779,0,0
-301,-755,0,0,0,0,0,0,0,0,0,-1,923,1779,0,0
-294,-755,0,0,0,0,0,0,0,0,0,-1,930,1779,0,0
-287,-755,0,0,0,0,0,0,0,0,0,-1,937,1779,0,0
-280,-755,0,0,0,0,0,0,0,0,0,-1,944,1779,0,0
-273,-755,0,0,0,0,0,0,0,0,0,-1,951,1779,0,0
-266,-755,0,0,0,0,0,0,0,0,0,-1,958,1779,0,0
-259,-755,0,0,0,0,0,0,0,0,0,-1,965,1779,0,0
-252,-755,0,0,0,0,0,0,0,0,0,-1,972,1779,0,0
-245,-755,0,0,0,0,0,0,0,0,0,-1,979,1779,0,0
-238,-755,0,0,0,0,0,0,0,0,0,-1,986,1779,0,0
-231,-755,0,0,0,0,0,0,0,0,0,-1,993,1779,0,0
-224,-755,0,0,0,0,0,0,0,0,0,-1,1000,1779,0,0
-217,-755,0,0,0,0,0,0,0,0,0,-1,1007,1779,0,0
-210,-755,0,0,0,0,0,0,0,0,0,-1,1014,1779,0,0
-203,-755,5.47998,25.527,0,0,0,0,0,0,0,-1,1021,1779,5.47993,-25.527
-196,-755,5.18445,23.9307,0,0,0,0,0,0,0,-1,1028,1779,5.1844,-23.9306
-189,-755,4.8175,22.4788,0,0,0,0,0,0,0,-1,1035,1779,4.81745,-22.4788
-182,-755,4.021,20.8032,0,0,0,0,0,0,0,-1,1042,1779,4.02094,-20.8032
-175,-755,3.79993,18.8242,0,0,0,0,0,0,0,-1,1049,1779,3.79995,-18.8242
-168,-755,3.14294,16.9865,0,0,0,0,0,0,0,-1,1056,1779,3.14291,-16.9864
-161,-755,-2.85889,11.5868,0,0,0,0,0,0,0,-1,1063,1779,-2.85887,-11.5868
-154,-755,-5.39026,8.51416,0,0,0,0,0,0,0,-1,1070,1779,-5.3903,-8.51417
-147,-755,-6.45593,10.2422,0,0,0,0,0,0,0,-1,1077,1779,-6.45594,-10.2422
-140,-755,2.32935,21.4536,0,0,0,0,0,0,0,-1,1084,1779,2.32932,-21.4536
-133,-755,2.89417,21.0964,0,0,0,0,0,0,0,-1,1091,1779,2.89422,-21.0964
-126,-755,3.26404,20.9304,0,0,0,0,0,0,0,-1,1098,1779,3.26399,-20.9305
-119,-755,5.17761,21.9325,0,0,0,0,0,0,0,-1,1105,1779,5.17761,-21.9325
-112,-755,5.40247,24.5646,0,0,0,0,0,0,0,-1,1112,1779,5.40244,-24.5646
-105,-755,6.6344,19.6062,0,0,0,0,0,0,0,-1,1119,1779,6.63439,-19.6062
-98,-755,6.32544,15.6812,0,0,0,0,0,0,0,-1,1126,1779,6.32543,-15.6812
-91,-755,5.51025,12.0438,0,0,0,0,0,0,0,-1,1133,1779,5.51022,-12.0439
-84,-755,0.169312,8.66443,0,0,0,0,0,0,0,-1,1140,1779,0.16932,-8.66446
-77,-755,-0.0491943,6.87439,0,0,0,0,0,0,0,-1,1147,1779,-0.0491385,-6.87443
-70,-755,4.5686,13.2169,0,0,0,0,0,0,0,-1,1154,1779,4.56865,-13.2169
-63,-755,-1.36316,7.3147,0,0,0,0,0,0,0,-1,1161,1779,-1.36312,-7.31473
-56,-755,0.0483398,5.06079,0,0,0,0,0,0,0,-1,1168,1779,0.0483138,-5.06084
-49,-755,-1.32263,5.33716,0,0,0,0,0,0,0,-1,1175,1779,-1.32264,-5.33718
-42,-755,-2.03613,4.01672,0,0,0,0,0,0,0,-1,1182,1779,-2.0361,-4.01671
-35,-755,-2.72498,2.37476,0,0,0,0,0,0,0,-1,1189,1779,-2.72502,-2.37473
-28,-755,6.51379,26.4341,0,0,0,0,0,0,0,-1,1196,1779,6.51377,-26.434
-21,-755,6.58508,26.7778,0,0,0,0,0,0,0,-1,1203,1779,6.58512,-26.7778
-14,-755,6.52698,26.8174,0.0370869,0.050858,-0.0397874,0.0843513,0.0035936,-0.871079,0.0550754,0.0332593,1210,1779,6.52696,-26.8174
-7,-755,6.4458,26.8716,0.0381041,0.0475074,-0.0378111,0.0809081,0.00470348,-0.847253,0.0524412,0.0229671,1217,1779,6.44583,-26.8716
0,-755,6.44971,26.9167,0.0399003,0.0441017,-0.0357084,0.0777711,0.00623086,-0.814779,0.0499003,0.0145883,1224,1779,6.44968,-26.9168
7,-755,6.44238,26.9701,0.0415898,0.040402,-0.0337786,0.0747798,0.00721209,-0.776608,0.0476315,0.0128284,1231,1779,6.44243,-26.9701
14,-755,6.40771,27.043,0.0424475,0.0366261,-0.0317853,0.0714551,0.00761855,-0.739738,0.0453112,0.0109248,1238,1779,6.40774,-27.0429
21,-755,6.3866,27.1252,0.0421681,0.0327233,-0.0301258,0.0679394,0.006952,-0.707653,0.0431626,0.0151275,1245,1779,6.3866,-27.1252
28,-755,6.36707,27.1566,0.039786,0.0287698,-0.0285861,0.0633898,0.00516596,-0.690222,0.0406475,0.0184525,1252,1779,6.36708,-27.1566
35,-755,6.34924,27.2081,0.0361802,0.024817,-0.0267824,0.0578771,0.00312019,-0.680878,0.0375878,0.0184898,1259,1779,6.34928,-27.2082
42,-755,6.34387,27.2218,0.0314149,0.0212148,-0.0249323,0.0517634,0.000866311,-0.684513,0.0342238,0.0143618,1266,1779,6.34385,-27.2218
49,-755,6.31873,27.2209,0.0259014,0.0175771,-0.0229252,0.0450392,-0.0015607,-0.695599,0.0305596,0.0101256,1273,1779,6.31869,-27.2209
56,-755,6.28857,27.2496,0.0192641,0.0145684,-0.0207826,0.037831,-0.00399847,-0.729151,0.0266537,0.00924454,1280,1779,6.28852,-27.2496
63,-755,6.27234,27.2561,0.0129221,0.0115669,-0.018012,0.0302693,-0.00578028,-0.766598,0.0223568,0.0098611,1287,1779,6.27239,-27.2561
70,-755,6.25854,27.2471,0.00720205,0.0090314,-0.0148318,0.0229767,-0.00674327,-0.816194,0.0179918,0.0119603,1294,1779,6.25858,-27.2471
77,-755,6.22974,27.2501,0.00186247,0.00667714,-0.0112653,0.0157895,-0.00724987,-0.890662,0.0136029,0.010259,1301,1779,6.22977,-27.2501
84,-755,6.19568,27.2787,-0.00399282,0.00506563,-0.00810903,0.00982459,-0.00875177,-1.04009,0.010731,0.0107037,1308,1779,6.19564,-27.2787
91,-755,6.16724,27.2552,-0.0079109,0.00409469,-0.0046979,0.00571448,-0.00953069,-1.23877,0.00889326,0.0114066,1315,1779,6.16725,-27.2552
98,-755,6.13623,27.2302,-0.00831977,0.00359735,-0.00207711,0.003949,-0.00867142,-1.40309,0.0074545,0.0128641,1322,1779,6.13628,-27.2302
105,-755,6.12964,27.2062,-0.00826571,0.00304154,0.000428883,0.00305778,-0.00828196,1.53294,0.00677464,0.0171922,1329,1779,6.12959,-27.2062
112,-755,6.13562,27.1715,-0.00717156,0.0031312,0.0026727,0.00378328,-0.00782363,1.3315,0.00683525,0.0226131,1336,1779,6.13565,-27.1715
119,-755,6.09094,27.1436,-0.0051297,0.00353513,0.00419911,0.00523615,-0.00683072,1.18591,0.00698706,0.0214566,1343,1779,6.09093,-27.1436
126,-755,6.03821,27.1644,-0.00298727,0.00406197,0.005526,0.00709171,-0.00601701,1.06928,0.00757679,0.024414,1350,1779,6.03818,-27.1644
133,-755,5.96619,27.095,-0.000786222,0.00436736,0.00640581,0.00869523,-0.00511409,0.976624,0.00806168,0.0250125,1357,1779,5.96617,-27.095
140,-755,5.92627,27.0162,0.00104307,0.00482358,0.00616773,0.00938421,-0.00351756,0.934091,0.00770126,0.0307226,1364,1779,5.92632,-27.0162
147,-755,6.09814,27.0007,0.00229605,0.00474341,0.00585448,0.00950072,-0.00246127,0.888423,0.007294,0.0335786,1371,1779,6.09809,-27.0007
154,-755,6.01245,26.9774,0.003121,0.00510746,0.00478989,0.00900601,-0.000777555,0.887629,0.00627926,0.0333592,1378,1779,6.01243,-26.9775
161,-755,5.9751,26.8982,0,0,0,0,0,0,0,-1,1385,1779,5.97515,-26.8982
168,-755,3.98181,7.35901,0,0,0,0,0,0,0,-1,1392,1779,3.98184,-7.35904
175,-755,8.17065,1.34363,0,0,0,0,0,0,0,-1,1399,1779,8.1706,-1.34368
182,-755,8.09216,2.96924,0,0,0,0,0,0,0,-1,1406,1779,8.09213,-2.9693
189,-755,8.04419,4.68042,0,0,0,0,0,0,0,-1,1413,1779,8.04419,-4.68046
196,-755,7.74841,7.4541,0,0,0,0,0,0,0,-1,1420,1779,7.74842,-7.45405
203,-755,4.80554,6.88696,0,0,0,0,0,0,0,-1,1427,1779,4.80554,-6.88697
210,-755,25.1694,7.35693,0,0,0,0,0,0,0,-1,1434,1779,25.1694,-7.35688
217,-755,5.01648,16.411,0,0,0,0,0,0,0,-1,1441,1779,5.01646,-16.411
224,-755,5.18103,22.6283,0,0,0,0,0,0,0,-1,1448,1779,5.18101,-22.6283
231,-755,6.22888,24.567,0,0,0,0,0,0,0,-1,1455,1779,6.22886,-24.567
238,-755,6.13904,24.6914,0,0,0,0,0,0,0,-1,1462,1779,6.13904,-24.6914
245,-755,5.93274,24.2697,0,0,0,0,0,0,0,-1,1469,1779,5.93275,-24.2696
252,-755,6.65991,23.8298,0,0,0,0,0,0,0,-1,1476,1779,6.65986,-23.8298
259,-755,7.58691,23.2006,0,0,0,0,0,0,0,-1,1483,1779,7.58687,-23.2005
266,-755,17.255,7.86096,0,0,0,0,0,0,0,-1,1490,1779,17.255,-7.86092
273,-755,15.7932,7.59778,0,0,0,0,0,0,0,-1,1497,1779,15.7932,-7.59777
280,-755,14.6255,7.34802,0,0,0,0,0,0,0,-1,1504,1779,14.6254,-7.34806
287,-755,13.8279,7.83105,0,0,0,0,0,0,0,-1,1511,1779,13.8279,-7.83104
294,-755,12.5695,7.96814,0,0,0,0,0,0,0,-1,1518,1779,12.5694,-7.9682
301,-755,11.2659,8.27087,0,0,0,0,0,0,0,-1,1525,1779,11.2658,-8.27087
308,-755,9.94434,8.55811,0,0,0,0,0,0,0,-1,1532,1779,9.94428,-8.55806
315,-755,8.64502,9.04492,0,0,0,0,0,0,0,-1,1539,1779,8.64497,-9.04488
322,-755,0,0,0,0,0,0,0,0,0,-1,1546,1779,0,0
329,-755,0,0,0,0,0,0,0,0,0,-1,1553,1779,0,0
336,-755,0,0,0,0,0,0,0,0,0,-1,1560,1779,0,0
343,-755,0,0,0,0,0,0,0,0,0,-1,1567,1779,0,0
350,-755,0,0,0,0,0,0,0,0,0,-1,1574,1779,0,0
357,-755,0,0,0,0,0,0,0,0,0,-1,1581,1779,0,0
364,-755,0,0,0,0,0,0,0,0,0,-1,1588,1779,0,0
371,-755,0,0,0,0,0,0,0,0,0,-1,1595,1779,0,0
378,-755,0,0,0,0,0,0,0,0,0,-1,1602,1779,0,0
385,-755,0,0,0,0,0,0,0,0,0,-1,1609,1779,0,0
392,-755,0,0,0,0,0,0,0,0,0,-1,1616,1779,0,0
399,-755,0,0,0,0,0,0,0,0,0,-1,1623,1779,0,0
406,-755,0,0,0,0,0,0,0,0,0,-1,1630,1779,0,0
413,-755,0,0,0,0,0,0,0,0,0,-1,1637,1779,0,0
420,-755,0,0,0,0,0,0,0,0,0,-1,1644,1779,0,0
427,-755,0,0,0,0,0,0,0,0,0,-1,1651,1779,0,0
434,-755,0,0,0,0,0,0,0,0,0,-1,1658,1779,0,0
441,-755,0,0,0,0,0,0,0,0,0,-1,1665,1779,0,0
448,-755,0,0,0,0,0,0,0,0,0,-1,1672,1779,0,0
455,-755,0,0,0,0,0,0,0,0,0,-1,1679,1779,0,0
462,-755,0,0,0,0,0,0,0,0,0,-1,1686,1779,0,0
469,-755,0,0,0,0,0,0,0,0,0,-1,1693,1779,0,0
476,-755,0,0,0,0,0,0,0,0,0,-1,1700,1779,0,0
483,-755,0,0,0,0,0,0,0,0,0,-1,1707,1779,0,0
490,-755,0,0,0,0,0,0,0,0,0,-1,1714,1779,0,0
497,-755,0,0,0,0,0,0,0,0,0,-1,1721,1779,0,0
504,-755,0,0,0,0,0,0,0,0,0,-1,1728,1779,0,0
511,-755,0,0,0,0,0,0,0,0,0,-1,1735,1779,0,0
518,-755,0,0,0,0,0,0,0,0,0,-1,1742,1779,0,0
525,-755,0,0,0,0,0,0,0,0,0,-1,1749,1779,0,0
532,-755,0,0,0,0,0,0,0,0,0,-1,1756,1779,0,0
539,-755,0,0,0,0,0,0,0,0,0,-1,1763,1779,0,0
546,-755,0,0,0,0,0,0,0,0,0,-1,1770,1779,0,0
553,-755,0,0,0,0,0,0,0,0,0,-1,1777,1779,0,0
560,-755,0,0,0,0,0,0,0,0,0,-1,1784,1779,0,0
567,-755,0,0,0,0,0,0,0,0,0,-1,1791,1779,0,0
574,-755,0,0,0,0,0,0,0,0,0,-1,1798,1779,0,0
581,-755,0,0,0,0,0,0,0,0,0,-1,1805,1779,0,0
588,-755,0,0,0,0,0,0,0,0,0,-1,1812,1779,0,0
595,-755,0,0,0,0,0,0,0,0,0,-1,1819,1779,0,0
602,-755,0,0,0,0,0,0,0,0,0,-1,1826,1779,0,0
609,-755,0,0,0,0,0,0,0,0,0,-1,1833,1779,0,0
616,-755,0,0,0,0,0,0,0,0,0,-1,1840,1779,0,0
623,-755,0,0,0,0,0,0,0,0,0,-1,1847,1779,0,0
630,-755,0,0,0,0,0,0,0,0,0,-1,1854,1779,0,0
637,-755,0,0,0,0,0,0,0,0,0,-1,1861,1779,0,0
644,-755,0,0,0,0,0,0,0,0,0,-1,1868,1779,0,0
651,-755,0,0,0,0,0,0,0,0,0,-1,1875,1779,0,0
658,-755,0,0,0,0,0,0,0,0,0,-1,1882,1779,0,0
665,-755,0,0,0,0,0,0,0,0,0,-1,1889,1779,0,0
672,-755,0,0,0,0,0,0,0,0,0,-1,1896,1779,0,0
679,-755,0,0,0,0,0,0,0,0,0,-1,1903,1779,0,0
686,-755,0,0,0,0,0,0,0,0,0,-1,1910,1779,0,0
693,-755,0,0,0,0,0,0,0,0,0,-1,1917,1779,0,0
700,-755,0,0,0,0,0,0,0,0,0,-1,1924,1779,0,0
707,-755,0,0,0,0,0,0,0,0,0,-1,1931,1779,0,0
714,-755,0,0,0,0,0,0,0,0,0,-1,1938,1779,0,0
721,-755,0,0,0,0,0,0,0,0,0,-1,1945,1779,0,0
728,-755,0,0,0,0,0,0,0,0,0,-1,1952,1779,0,0
735,-755,0,0,0,0,0,0,0,0,0,-1,1959,1779,0,0
742,-755,0,0,0,0,0,0,0,0,0,-1,1966,1779,0,0
749,-755,0,0,0,0,0,0,0,0,0,-1,1973,1779,0,0
756,-755,0,0,0,0,0,0,0,0,0,-1,1980,1779,0,0
763,-755,0,0,0,0,0,0,0,0,0,-1,1987,1779,0,0
770,-755,0,0,0,0,0,0,0,0,0,-1,1994,1779,0,0
777,-755,0,0,0,0,0,0,0,0,0,-1,2001,1779,0,0
784,-755,0,0,0,0,0,0,0,0,0,-1,2008,1779,0,0
791,-755,0,0,0,0,0,0,0,0,0,-1,2015,1779,0,0
798,-755,0,0,0,0,0,0,0,0,0,-1,2022,1779,0,0
805,-755,0,0,0,0,0,0,0,0,0,-1,2029,1779,0,0
812,-755,0,0,0,0,0,0,0,0,0,-1,2036,1779,0,0
-700,-762,0,0,0,0,0,0,0,0,0,-1,524,1786,0,0
-693,-762,0,0,0,0,0,0,0,0,0,-1,531,1786,0,0
-686,-762,0,0,0,0,0,0,0,0,0,-1,538,1786,0,0
-679,-762,0,0,0,0,0,0,0,0,0,-1,545,1786,0,0
-672,-762,0,0,0,0,0,0,0,0,0,-1,552,1786,0,0
-665,-762,0,0,0,0,0,0,0,0,0,-1,559,1786,0,0
-658,-762,0,0,0,0,0,0,0,0,0,-1,566,1786,0,0
-651,-762,0,0,0,0,0,0,0,0,0,-1,573,1786,0,0
-644,-762,0,0,0,0,0,0,0,0,0,-1,580,1786,0,0
-637,-762,0,0,0,0,0,0,0,0,0,-1,587,1786,0,0
-630,-762,0,0,0,0,0,0,0,0,0,-1,594,1786,0,0
-623,-762,0,0,0,0,0,0,0,0,0,-1,601,1786,0,0
-616,-762,0,0,0,0,0,0,0,0,0,-1,608,1786,0,0
-609,-762,0,0,0,0,0,0,0,0,0,-1,615,1786,0,0
-602,-762,0,0,0,0,0,0,0,0,0,-1,622,1786,0,0
-595,-762,0,0,0,0,0,0,0,0,0,-1,629,1786,0,0
-588,-762,0,0,0,0,0,0,0,0,0,-1,636,1786,0,0
-581,-762,0,0,0,0,0,0,0,0,0,-1,643,1786,0,0
-574,-762,0,0,0,0,0,0,0,0,0,-1,650,1786,0,0
-567,-762,0,0,0,0,0,0,0,0,0,-1,657,1786,0,0
-560,-762,0,0,0,0,0,0,0,0,0,-1,664,1786,0,0
-553,-762,0,0,0,0,0,0,0,0,0,-1,671,1786,0,0
-546,-762,0,0,0,0,0,0,0,0,0,-1,678,1786,0,0
-539,-762,0,0,0,0,0,0,0,0,0,-1,685,1786,0,0
-532,-762,0,0,0,0,0,0,0,0,0,-1,692,1786,0,0
-525,-762,0,0,0,0,0,0,0,0,0,-1,699,1786,0,0
-518,-762,0,0,0,0,0,0,0,0,0,-1,706,1786,0,0
-511,-762,0,0,0,0,0,0,0,0,0,-1,713,1786,0,0
-504,-762,0,0,0,0,0,0,0,0,0,-1,720,1786,0,0
-497,-762,0,0,0,0,0,0,0,0,0,-1,727,1786,0,0
-490,-762,0,0,0,0,0,0,0,0,0,-1,734,1786,0,0
-483,-762,0,0,0,0,0,0,0,0,0,-1,741,1786,0,0
-476,-762,0,0,0,0,0,0,0,0,0,-1,748,1786,0,0
-469,-762,0,0,0,0,0,0,0,0,0,-1,755,1786,0,0
-462,-762,0,0,0,0,0,0,0,0,0,-1,762,1786,0,0
-455,-762,0,0,0,0,0,0,0,0,0,-1,769,1786,0,0
-448,-762,0,0,0,0,0,0,0,0,0,-1,776,1786,0,0
-441,-762,0,0,0,0,0,0,0,0,0,-1,783,1786,0,0
-434,-762,0,0,0,0,0,0,0,0,0,-1,790,1786,0,0
-427,-762,0,0,0,0,0,0,0,0,0,-1,797,1786,0,0
-420,-762,0,0,0,0,0,0,0,0,0,-1,804,1786,0,0
-413,-762,0,0,0,0,0,0,0,0,0,-1,811,1786,0,0
-406,-762,0,0,0,0,0,0,0,0,0,-1,818,1786,0,0
-399,-762,0,0,0,0,0,0,0,0,0,-1,825,1786,0,0
-392,-762,0,0,0,0,0,0,0,0,0,-1,832,1786,0,0
-385,-762,0,0,0,0,0,0,0,0,0,-1,839,1786,0,0
-378,-762,0,0,0,0,0,0,0,0,0,-1,846,1786,0,0
-371,-762,0,0,0,0,0,0,0,0,0,-1,853,1786,0,0
-364,-762,0,0,0,0,0,0,0,0,0,-1,860,1786,0,0
-357,-762,0,0,0,0,0,0,0,0,0,-1,867,1786,0,0
-350,-762,0,0,0,0,0,0,0,0,0,-1,874,1786,0,0
-343,-762,0,0,0,0,0,0,0,0,0,-1,881,1786,0,0
-336,-762,0,0,0,0,0,0,0,0,0,-1,888,1786,0,0
-329,-762,0,0,0,0,0,0,0,0,0,-1,895,1786,0,0
-322,-762,0,0,0,0,0,0,0,0,0,-1,902,1786,0,0
-315,-762,0,0,0,0,0,0,0,0,0,-1,909,1786,0,0
-308,-762,0,0,0,0,0,0,0,0,0,-1,916,1786,0,0
-301,-762,0,0,0,0,0,0,0,0,0,-1,923,1786,0,0
-294,-762,0,0,0,0,0,0,0,0,0,-1,930,1786,0,0
-287,-762,0,0,0,0,0,0,0,0,0,-1,937,1786,0,0
-280,-762,0,0,0,0,0,0,0,0,0,-1,944,1786,0,0
-273,-762,0,0,0,0,0,0,0,0,0,-1,951,1786,0,0
-266,-762,0,0,0,0,0,0,0,0,0,-1,958,1786,0,0
-259,-762,0,0,0,0,0,0,0,0,0,-1,965,1786,0,0
-252,-762,0,0,0,0,0,0,0,0,0,-1,972,1786,0,0
-245,-762,0,0,0,0,0,0,0,0,0,-1,979,1786,0,0
-238,-762,0,0,0,0,0,0,0,0,0,-1,986,1786,0,0
-231,-762,0,0,0,0,0,0,0,0,0,-1,993,1786,0,0
-224,-762,0,0,0,0,0,0,0,0,0,-1,1000,1786,0,0
-217,-762,0,0,0,0,0,0,0,0,0,-1,1007,1786,0,0
-210,-762,0,0,0,0,0,0,0,0,0,-1,1014,1786,0,0
-203,-762,0,0,0,0,0,0,0,0,0,-1,1021,1786,0,0
-196,-762,0,0,0,0,0,0,0,0,0,-1,1028,1786,0,0
-189,-762,0,0,0,0,0,0,0,0,0,-1,1035,1786,0,0
-182,-762,4.44226,13.2462,0,0,0,0,0,0,0,-1,1042,1786,4.44227,-13.2462
-175,-762,4.3219,18.3975,0,0,0,0,0,0,0,-1,1049,1786,4.32192,-18.3974
-168,-762,-2.08618,13.0768,0,0,0,0,0,0,0,-1,1056,1786,-2.08623,-13.0768
-161,-762,-3.29077,11.9508,0,0,0,0,0,0,0,-1,1063,1786,-3.29076,-11.9508
-154,-762,-4.55823,11.1176,0,0,0,0,0,0,0,-1,1070,1786,-4.55828,-11.1175
-147,-762,-6.52454,9.41418,0,0,0,0,0,0,0,-1,1077,1786,-6.52458,-9.41419
-140,-762,4.99792,5.28589,0,0,0,0,0,0,0,-1,1084,1786,4.99793,-5.28587
-133,-762,0.689819,19.2172,0,0,0,0,0,0,0,-1,1091,1786,0.689867,-19.2171
-126,-762,1.48743,19.9288,0,0,0,0,0,0,0,-1,1098,1786,1.48738,-19.9289
-119,-762,2.65637,20.208,0,0,0,0,0,0,0,-1,1105,1786,2.65632,-20.208
-112,-762,3.09082,20.488,0,0,0,0,0,0,0,-1,1112,1786,3.09077,-20.488
-105,-762,6.20923,21.3702,0,0,0,0,0,0,0,-1,1119,1786,6.20928,-21.3703
-98,-762,5.58447,17.7201,0,0,0,0,0,0,0,-1,1126,1786,5.58445,-17.7201
-91,-762,4.74573,14.093,0,0,0,0,0,0,0,-1,1133,1786,4.74571,-14.0931
-84,-762,3.96375,10.4547,0,0,0,0,0,0,0,-1,1140,1786,3.96371,-10.4548
-77,-762,0.305054,8.49365,0,0,0,0,0,0,0,-1,1147,1786,0.305008,-8.49362
-70,-762,0.183716,6.74622,0,0,0,0,0,0,0,-1,1154,1786,0.183696,-6.74621
-63,-762,-0.883057,9.08813,0,0,0,0,0,0,0,-1,1161,1786,-0.88311,-9.08808
-56,-762,-0.578979,5.10254,0,0,0,0,0,0,0,-1,1168,1786,-0.578951,-5.10249
-49,-762,-2.04541,3.66321,0,0,0,0,0,0,0,-1,1175,1786,-2.0454,-3.66319
-42,-762,-2.23462,3.474,0,0,0,0,0,0,0,-1,1182,1786,-2.23459,-3.47399
-35,-762,-3.28992,1.68164,0,0,0,0,0,0,0,-1,1189,1786,-3.28998,-1.68164
-28,-762,-3.75378,1.37769,0,0,0,0,0,0,0,-1,1196,1786,-3.75373,-1.37767
-21,-762,7.10742,25.4987,0,0,0,0,0,0,0,-1,1203,1786,7.10743,-25.4987
-14,-762,6.63501,26.8285,0,0,0,0,0,0,0,-1,1210,1786,6.635,-26.8285
-7,-762,6.41357,26.9132,0.0507964,0.0686059,-0.0537629,0.114197,0.00520578,-0.867468,0.0744565,0.0493783,1217,1786,6.41357,-26.9133
0,-762,6.4762,26.962,0.0531454,0.0634824,-0.0504689,0.109047,0.00758105,-0.836425,0.0703072,0.0368492,1224,1786,6.47619,-26.9621
7,-762,6.47156,26.9769,0.0554414,0.0579592,-0.0473571,0.104074,0.00932649,-0.798687,0.0664923,0.0209007,1231,1786,6.47161,-26.9769
14,-762,6.40698,27.1713,0.0565246,0.0522522,-0.0441799,0.0986199,0.0101569,-0.761241,0.062636,0.0341761,1238,1786,6.40702,-27.1712
21,-762,6.37683,27.2616,0.0560108,0.0464025,-0.0413893,0.0928738,0.00953943,-0.727621,0.0589937,0.0438073,1245,1786,6.37687,-27.2616
28,-762,6.32251,27.3663,0.0527278,0.040524,-0.0387942,0.085897,0.00735476,-0.707393,0.0549773,0.0402881,1252,1786,6.32246,-27.3664
35,-762,6.77832,27.3108,0,0,0,0,0,0,0,-1,1259,1786,6.7783,-27.3108
42,-762,6.5033,27.2908,0,0,0,0,0,0,0,-1,1266,1786,6.50333,-27.2908
49,-762,6.50403,27.2487,0,0,0,0,0,0,0,-1,1273,1786,6.50401,-27.2487
56,-762,6.48853,27.303,0,0,0,0,0,0,0,-1,1280,1786,6.48852,-27.303
63,-762,6.39648,27.3629,0,0,0,0,0,0,0,-1,1287,1786,6.39652,-27.3629
70,-762,6.38611,27.5132,0,0,0,0,0,0,0,-1,1294,1786,6.38607,-27.5132
77,-762,6.22241,27.2285,0.00195957,0.00893174,-0.0144047,0.0202662,-0.00937484,-0.904121,0.0174941,0.0273195,1301,1786,6.22239,-27.2285
84,-762,6.25012,27.2487,-0.00566392,0.0066999,-0.0102215,0.0124635,-0.0114275,-1.05737,0.0137978,0.0334069,1308,1786,6.25012,-27.2486
91,-762,6.17004,27.2313,-0.0109302,0.00531358,-0.00569893,0.00711353,-0.0127302,-1.26487,0.0116087,0.0431795,1315,1786,6.16999,-27.2313
98,-762,6.15405,27.2897,-0.0117566,0.00447617,-0.00201744,0.00472314,-0.0120035,-1.44898,0.00995741,0.0446472,1322,1786,6.15408,-27.2896
105,-762,6.24634,27.3174,-0.0118762,0.00366001,0.00149428,0.00380243,-0.0120186,1.47578,0.00953601,0.0431851,1329,1786,6.24639,-27.3173
112,-762,6.12134,27.1698,-0.0104333,0.00369022,0.0047447,0.00513614,-0.0118792,1.27499,0.0100777,0.0445824,1336,1786,6.12137,-27.1698
119,-762,6.01611,27.1122,-0.00752047,0.00407749,0.00720132,0.00752444,-0.0109674,1.12437,0.0107378,0.0436992,1343,1786,6.01607,-27.1122
126,-762,5.90503,27.2336,-0.00443209,0.0044843,0.00939438,0.0104247,-0.0103724,1.00694,0.0120072,0.0443439,1350,1786,5.90502,-27.2337
133,-762,6.11768,26.8853,-0.00126194,0.00461711,0.0108732,0.0129411,-0.00958595,0.917415,0.013054,0.0459809,1357,1786,6.11764,-26.8853
140,-762,6.40186,26.615,0.00144434,0.00494183,0.0109046,0.014237,-0.00785087,0.864905,0.0129289,0.0460175,1364,1786,6.40187,-26.615
147,-762,6.56152,26.5588,0.00339786,0.00477733,0.0106737,0.0147835,-0.00660836,0.817663,0.0126477,0.0449702,1371,1786,6.56157,-26.5588
154,-762,5.92236,27.105,0,0,0,0,0,0,0,-1,1378,1786,5.92237,-27.1049
161,-762,7.93408,-0.126221,0,0,0,0,0,0,0,-1,1385,1786,7.93402,0.126232
168,-762,8.19287,0.880615,0,0,0,0,0,0,0,-1,1392,1786,8.19291,-0.880603
175,-762,8.33997,1.95947,0,0,0,0,0,0,0,-1,1399,1786,8.33997,-1.95942
182,-762,8.28418,3.56482,0,0,0,0,0,0,0,-1,1406,1786,8.28415,-3.56485
189,-762,8.21179,5.23389,0,0,0,0,0,0,0,-1,1413,1786,8.21183,-5.23383
196,-762,8.05969,6.95483,0,0,0,0,0,0,0,-1,1420,1786,8.05972,-6.9548
203,-762,24.0077,7.10425,0,0,0,0,0,0,0,-1,1427,1786,24.0077,-7.10426
210,-762,23.8073,7.6499,0,0,0,0,0,0,0,-1,1434,1786,23.8073,-7.64987
217,-762,23.3193,8.24426,0,0,0,0,0,0,0,-1,1441,1786,23.3194,-8.2442
224,-762,2.65149,20.6106,0,0,0,0,0,0,0,-1,1448,1786,2.65153,-20.6106
231,-762,5.46655,23.521,0,0,0,0,0,0,0,-1,1455,1786,5.46653,-23.521
238,-762,4.57458,23.4314,0,0,0,0,0,0,0,-1,1462,1786,4.57457,-23.4314
245,-762,5.3689,23.368,0,0,0,0,0,0,0,-1,1469,1786,5.36894,-23.368
252,-762,5.77368,22.3805,0,0,0,0,0,0,0,-1,1476,1786,5.77365,-22.3805
259,-762,17.4619,7.89832,0,0,0,0,0,0,0,-1,1483,1786,17.462,-7.89836
266,-762,16.451,7.67773,0,0,0,0,0,0,0,-1,1490,1786,16.4511,-7.67773
273,-762,15.287,7.5304,0,0,0,0,0,0,0,-1,1497,1786,15.2869,-7.53044
280,-762,14.1501,7.38379,0,0,0,0,0,0,0,-1,1504,1786,14.1502,-7.38376
287,-762,12.6891,7.99133,0,0,0,0,0,0,0,-1,1511,1786,12.6891,-7.99135
294,-762,12.6959,8.30371,0,0,0,0,0,0,0,-1,1518,1786,12.6959,-8.30368
301,-762,11.4222,8.84143,0,0,0,0,0,0,0,-1,1525,1786,11.4223,-8.84149
308,-762,0,0,0,0,0,0,0,0,0,-1,1532,1786,0,0
315,-762,0,0,0,0,0,0,0,0,0,-1,1539,1786,0,0
322,-762,0,0,0,0,0,0,0,0,0,-1,1546,1786,0,0
329,-762,0,0,0,0,0,0,0,0,0,-1,1553,1786,0,0
336,-762,0,0,0,0,0,0,0,0,0,-1,1560,1786,0,0
343,-762,0,0,0,0,0,0,0,0,0,-1,1567,1786,0,0
350,-762,0,0,0,0,0,0,0,0,0,-1,1574,1786,0,0
357,-762,0,0,0,0,0,0,0,0,0,-1,1581,1786,0,0
364,-762,0,0,0,0,0,0,0,0,0,-1,1588,1786,0,0
371,-762,0,0,0,0,0,0,0,0,0,-1,1595,1786,0,0
378,-762,0,0,0,0,0,0,0,0,0,-1,1602,1786,0,0
385,-762,0,0,0,0,0,0,0,0,0,-1,1609,1786,0,0
392,-762,0,0,0,0,0,0,0,0,0,-1,1616,1786,0,0
399,-762,0,0,0,0,0,0,0,0,0,-1,1623,1786,0,0
406,-762,0,0,0,0,0,0,0,0,0,-1,1630,1786,0,0
413,-762,0,0,0,0,0,0,0,0,0,-1,1637,1786,0,0
420,-762,0,0,0,0,0,0,0,0,0,-1,1644,1786,0,0
427,-762,0,0,0,0,0,0,0,0,0,-1,1651,1786,0,0
434,-762,0,0,0,0,0,0,0,0,0,-1,1658,1786,0,0
441,-762,0,0,0,0,0,0,0,0,0,-1,1665,1786,0,0
448,-762,0,0,0,0,0,0,0,0,0,-1,1672,1786,0,0
455,-762,0,0,0,0,0,0,0,0,0,-1,1679,1786,0,0
462,-762,0,0,0,0,0,0,0,0,0,-1,1686,1786,0,0
469,-762,0,0,0,0,0,0,0,0,0,-1,1693,1786,0,0
476,-762,0,0,0,0,0,0,0,0,0,-1,1700,1786,0,0
483,-762,0,0,0,0,0,0,0,0,0,-1,1707,1786,0,0
490,-762,0,0,0,0,0,0,0,0,0,-1,1714,1786,0,0
497,-762,0,0,0,0,0,0,0,0,0,-1,1721,1786,0,0
504,-762,0,0,0,0,0,0,0,0,0,-1,1728,1786,0,0
511,-762,0,0,0,0,0,0,0,0,0,-1,1735,1786,0,0
518,-762,0,0,0,0,0,0,0,0,0,-1,1742,1786,0,0
525,-762,0,0,0,0,0,0,0,0,0,-1,1749,1786,0,0
532,-762,0,0,0,0,0,0,0,0,0,-1,1756,1786,0,0
539,-762,0,0,0,0,0,0,0,0,0,-1,1763,1786,0,0
546,-762,0,0,0,0,0,0,0,0,0,-1,1770,1786,0,0
553,-762,0,0,0,0,0,0,0,0,0,-1,1777,1786,0,0
560,-762,0,0,0,0,0,0,0,0,0,-1,1784,1786,0,0
567,-762,0,0,0,0,0,0,0,0,0,-1,1791,1786,0,0
574,-762,0,0,0,0,0,0,0,0,0,-1,1798,1786,0,0
581,-762,0,0,0,0,0,0,0,0,0,-1,1805,1786,0,0
588,-762,0,0,0,0,0,0,0,0,0,-1,1812,1786,0,0
595,-762,0,0,0,0,0,0,0,0,0,-1,1819,1786,0,0
602,-762,0,0,0,0,0,0,0,0,0,-1,1826,1786,0,0
609,-762,0,0,0,0,0,0,0,0,0,-1,1833,1786,0,0
616,-762,0,0,0,0,0,0,0,0,0,-1,1840,1786,0,0
623,-762,0,0,0,0,0,0,0,0,0,-1,1847,1786,0,0
630,-762,0,0,0,0,0,0,0,0,0,-1,1854,1786,0,0
637,-762,0,0,0,0,0,0,0,0,0,-1,1861,1786,0,0
644,-762,0,0,0,0,0,0,0,0,0,-1,1868,1786,0,0
651,-762,0,0,0,0,0,0,0,0,0,-1,1875,1786,0,0
658,-762,0,0,0,0,0,0,0,0,0,-1,1882,1786,0,0
665,-762,0,0,0,0,0,0,0,0,0,-1,1889,1786,0,0
672,-762,0,0,0,0,0,0,0,0,0,-1,1896,1786,0,0
679,-762,0,0,0,0,0,0,0,0,0,-1,1903,1786,0,0
686,-762,0,0,0,0,0,0,0,0,0,-1,1910,1786,0,0
693,-762,0,0,0,0,0,0,0,0,0,-1,1917,1786,0,0
700,-762,0,0,0,0,0,0,0,0,0,-1,1924,1786,0,0
707,-762,0,0,0,0,0,0,0,0,0,-1,1931,1786,0,0
714,-762,0,0,0,0,0,0,0,0,0,-1,1938,1786,0,0
721,-762,0,0,0,0,0,0,0,0,0,-1,1945,1786,0,0
728,-762,0,0,0,0,0,0,0,0,0,-1,1952,1786,0,0
735,-762,0,0,0,0,0,0,0,0,0,-1,1959,1786,0,0
742,-762,0,0,0,0,0,0,0,0,0,-1,1966,1786,0,0
749,-762,0,0,0,0,0,0,0,0,0,-1,1973,1786,0,0
756,-762,0,0,0,0,0,0,0,0,0,-1,1980,1786,0,0
763,-762,0,0,0,0,0,0,0,0,0,-1,1987,1786,0,0
770,-762,0,0,0,0,0,0,0,0,0,-1,1994,1786,0,0
777,-762,0,0,0,0,0,0,0,0,0,-1,2001,1786,0,0
784,-762,0,0,0,0,0,0,0,0,0,-1,2008,1786,0,0
791,-762,0,0,0,0,0,0,0,0,0,-1,2015,1786,0,0
798,-762,0,0,0,0,0,0,0,0,0,-1,2022,1786,0,0
805,-762,0,0,0,0,0,0,0,0,0,-1,2029,1786,0,0
812,-762,0,0,0,0,0,0,0,0,0,-1,2036,1786,0,0
-700,-769,0,0,0,0,0,0,0,0,0,-1,524,1793,0,0
-693,-769,0,0,0,0,0,0,0,0,0,-1,531,1793,0,0
-686,-769,0,0,0,0,0,0,0,0,0,-1,538,1793,0,0
-679,-769,0,0,0,0,0,0,0,0,0,-1,545,1793,0,0
-672,-769,0,0,0,0,0,0,0,0,0,-1,552,1793,0,0
-665,-769,0,0,0,0,0,0,0,0,0,-1,559,1793,0,0
-658,-769,0,0,0,0,0,0,0,0,0,-1,566,1793,0,0
-651,-769,0,0,0,0,0,0,0,0,0,-1,573,1793,0,0
-644,-769,0,0,0,0,0,0,0,0,0,-1,580,1793,0,0
-637,-769,0,0,0,0,0,0,0,0,0,-1,587,1793,0,0
-630,-769,0,0,0,0,0,0,0,0,0,-1,594,1793,0,0
-623,-769,0,0,0,0,0,0,0,0,0,-1,601,1793,0,0
-616,-769,0,0,0,0,0,0,0,0,0,-1,608,1793,0,0
-609,-769,0,0,0,0,0,0,0,0,0,-1,615,1793,0,0
-602,-769,0,0,0,0,0,0,0,0,0,-1,622,1793,0,0
-595,-769,0,0,0,0,0,0,0,0,0,-1,629,1793,0,0
-588,-769,0,0,0,0,0,0,0,0,0,-1,636,1793,0,0
-581,-769,0,0,0,0,0,0,0,0,0,-1,643,1793,0,0
-574,-769,0,0,0,0,0,0,0,0,0,-1,650,1793,0,0
-567,-769,0,0,0,0,0,0,0,0,0,-1,657,1793,0,0
-560,-769,0,0,0,0,0,0,0,0,0,-1,664,1793,0,0
-553,-769,0,0,0,0,0,0,0,0,0,-1,671,1793,0,0
-546,-769,0,0,0,0,0,0,0,0,0,-1,678,1793,0,0
-539,-769,0,0,0,0,0,0,0,0,0,-1,685,1793,0,0
-532,-769,0,0,0,0,0,0,0,0,0,-1,692,1793,0,0
-525,-769,0,0,0,0,0,0,0,0,0,-1,699,1793,0,0
-518,-769,0,0,0,0,0,0,0,0,0,-1,706,1793,0,0
-511,-769,0,0,0,0,0,0,0,0,0,-1,713,1793,0,0
-504,-769,0,0,0,0,0,0,0,0,0,-1,720,1793,0,0
-497,-769,0,0,0,0,0,0,0,0,0,-1,727,1793,0,0
-490,-769,0,0,0,0,0,0,0,0,0,-1,734,1793,0,0
-483,-769,0,0,0,0,0,0,0,0,0,-1,741,1793,0,0
-476,-769,0,0,0,0,0,0,0,0,0,-1,748,1793,0,0
-469,-769,0,0,0,0,0,0,0,0,0,-1,755,1793,0,0
-462,-769,0,0,0,0,0,0,0,0,0,-1,762,1793,0,0
-455,-769,0,0,0,0,0,0,0,0,0,-1,769,1793,0,0
-448,-769,0,0,0,0,0,0,0,0,0,-1,776,1793,0,0
-441,-769,0,0,0,0,0,0,0,0,0,-1,783,1793,0,0
-434,-769,0,0,0,0,0,0,0,0,0,-1,790,1793,0,0
-427,-769,0,0,0,0,0,0,0,0,0,-1,797,1793,0,0
-420,-769,0,0,0,0,0,0,0,0,0,-1,804,1793,0,0
-413,-769,0,0,0,0,0,0,0,0,0,-1,811,1793,0,0
-406,-769,0,0,0,0,0,0,0,0,0,-1,818,1793,0,0
-399,-769,0,0,0,0,0,0,0,0,0,-1,825,1793,0,0
-392,-769,0,0,0,0,0,0,0,0,0,-1,832,1793,0,0
-385,-769,0,0,0,0,0,0,0,0,0,-1,839,1793,0,0
-378,-769,0,0,0,0,0,0,0,0,0,-1,846,1793,0,0
-371,-769,0,0,0,0,0,0,0,0,0,-1,853,1793,0,0
-364,-769,0,0,0,0,0,0,0,0,0,-1,860,1793,0,0
-357,-769,0,0,0,0,0,0,0,0,0,-1,867,1793,0,0
-350,-769,0,0,0,0,0,0,0,0,0,-1,874,1793,0,0
-343,-769,0,0,0,0,0,0,0,0,0,-1,881,1793,0,0
-336,-769,0,0,0,0,0,0,0,0,0,-1,888,1793,0,0
-329,-769,0,0,0,0,0,0,0,0,0,-1,895,1793,0,0
-322,-769,0,0,0,0,0,0,0,0,0,-1,902,1793,0,0
-315,-769,0,0,0,0,0,0,0,0,0,-1,909,1793,0,0
-308,-769,0,0,0,0,0,0,0,0,0,-1,916,1793,0,0
-301,-769,0,0,0,0,0,0,0,0,0,-1,923,1793,0,0
-294,-769,0,0,0,0,0,0,0,0,0,-1,930,1793,0,0
-287,-769,0,0,0,0,0,0,0,0,0,-1,937,1793,0,0
-280,-769,0,0,0,0,0,0,0,0,0,-1,944,1793,0,0
-273,-769,0,0,0,0,0,0,0,0,0,-1,951,1793,0,0
-266,-769,0,0,0,0,0,0,0,0,0,-1,958,1793,0,0
-259,-769,0,0,0,0,0,0,0,0,0,-1,965,1793,0,0
-252,-769,0,0,0,0,0,0,0,0,0,-1,972,1793,0,0
-245,-769,0,0,0,0,0,0,0,0,0,-1,979,1793,0,0
-238,-769,0,0,0,0,0,0,0,0,0,-1,986,1793,0,0
-231,-769,0,0,0,0,0,0,0,0,0,-1,993,1793,0,0
-224,-769,0,0,0,0,0,0,0,0,0,-1,1000,1793,0,0
-217,-769,0,0,0,0,0,0,0,0,0,-1,1007,1793,0,0
-210,-769,0,0,0,0,0,0,0,0,0,-1,1014,1793,0,0
-203,-769,0,0,0,0,0,0,0,0,0,-1,1021,1793,0,0
-196,-769,0,0,0,0,0,0,0,0,0,-1,1028,1793,0,0
-189,-769,0,0,0,0,0,0,0,0,0,-1,1035,1793,0,0
-182,-769,0,0,0,0,0,0,0,0,0,-1,1042,1793,0,0
-175,-769,0,0,0,0,0,0,0,0,0,-1,1049,1793,0,0
-168,-769,0,0,0,0,0,0,0,0,0,-1,1056,1793,0,0
-161,-769,-3.61145,12.4761,0,0,0,0,0,0,0,-1,1063,1793,-3.6114,-12.476
-154,-769,-0.813232,5.32874,0,0,0,0,0,0,0,-1,1070,1793,-0.813269,-5.32872
-147,-769,4.26587,4.7002,0,0,0,0,0,0,0,-1,1077,1793,4.26593,-4.70022
-140,-769,4.10376,5.28589,0,0,0,0,0,0,0,-1,1084,1793,4.10371,-5.28584
-133,-769,6.422,8.21777,0,0,0,0,0,0,0,-1,1091,1793,6.42198,-8.21773
-126,-769,-0.352295,19.326,0,0,0,0,0,0,0,-1,1098,1793,-0.352235,-19.326
-119,-769,6.01685,16.2577,0,0,0,0,0,0,0,-1,1105,1793,6.01689,-16.2576
-112,-769,2.77722,20.0741,0,0,0,0,0,0,0,-1,1112,1793,2.77727,-20.0741
-105,-769,4.55212,21.8363,0,0,0,0,0,0,0,-1,1119,1793,4.55214,-21.8363
-98,-769,4.71545,19.8396,0,0,0,0,0,0,0,-1,1126,1793,4.71539,-19.8396
-91,-769,3.96802,16.1481,0,0,0,0,0,0,0,-1,1133,1793,3.96803,-16.1481
-84,-769,3.2207,12.4565,0,0,0,0,0,0,0,-1,1140,1793,3.22066,-12.4565
-77,-769,2.48816,8.98486,0,0,0,0,0,0,0,-1,1147,1793,2.48815,-8.98489
-70,-769,1.04944,11.9852,0,0,0,0,0,0,0,-1,1154,1793,1.04947,-11.9852
-63,-769,-2.39709,9.60339,0,0,0,0,0,0,0,-1,1161,1793,-2.39706,-9.6034
-56,-769,-5.84363,7.22156,0,0,0,0,0,0,0,-1,1168,1793,-5.84359,-7.22157
-49,-769,-2.41443,3.95471,0,0,0,0,0,0,0,-1,1175,1793,-2.41446,-3.95471
-42,-769,-3.1991,2.64941,0,0,0,0,0,0,0,-1,1182,1793,-3.19914,-2.64944
-35,-769,-3.50183,1.73389,0,0,0,0,0,0,0,-1,1189,1793,-3.50189,-1.7339
-28,-769,-3.96985,1.14075,0,0,0,0,0,0,0,-1,1196,1793,-3.96985,-1.14078
-21,-769,4.38623,26.9254,0,0,0,0,0,0,0,-1,1203,1793,4.38623,-26.9254
-14,-769,0.886353,36.8046,0,0,0,0,0,0,0,-1,1210,1793,0.886396,-36.8046
-7,-769,6.39648,26.9427,0,0,0,0,0,0,0,-1,1217,1793,6.39652,-26.9427
0,-769,6.48059,26.9811,0,0,0,0,0,0,0,-1,1224,1793,6.48059,-26.9811
7,-769,6.5155,26.9751,0.0707518,0.0794771,-0.0635929,0.138857,0.0113721,-0.819646,0.089023,0.0444691,1231,1793,6.51544,-26.975
14,-769,6.5061,27.0063,0.0721873,0.0714428,-0.0589569,0.130773,0.0128569,-0.782241,0.0832281,0.0438866,1238,1793,6.50609,-27.0063
21,-769,6.39014,27.5621,0.0714442,0.0631772,-0.0546787,0.122145,0.012476,-0.747671,0.0776066,0.0451113,1245,1793,6.39008,-27.5621
28,-769,8.39807,27.1125,0.0671797,0.0548789,-0.050668,0.112069,0.00998938,-0.725001,0.0716157,0.0397558,1252,1793,8.39805,-27.1125
35,-769,7.66003,27.2657,0.0605745,0.0465925,-0.0463586,0.100466,0.00670072,-0.710561,0.0648594,0.0427368,1259,1793,7.66004,-27.2657
42,-769,7.19214,27.215,0,0,0,0,0,0,0,-1,1266,1793,7.19212,-27.215
49,-769,7.15369,27.0577,0.0425441,0.0318631,-0.037999,0.075576,-0.00116884,-0.715584,0.0507781,0.0499718,1273,1793,7.15372,-27.0577
56,-769,7.05737,27.035,0.0308933,0.025979,-0.0339447,0.0624697,-0.00559737,-0.749268,0.0436321,0.0444209,1280,1793,7.05741,-27.035
63,-769,6.98474,27.1389,0.0199499,0.0202849,-0.0289913,0.0491092,-0.00887442,-0.788287,0.0360634,0.043912,1287,1793,6.98479,-27.1389
70,-769,7.05725,27.4153,0.0102942,0.0155823,-0.023498,0.0365846,-0.0107081,-0.841423,0.0286344,0.0437381,1294,1793,7.05722,-27.4153
77,-769,6.83362,27.5211,0.0015963,0.011367,-0.0175755,0.0247235,-0.0117602,-0.920958,0.0215025,0.0449935,1301,1793,6.83359,-27.5211
84,-769,6.33459,27.4636,-0.00791594,0.00840034,-0.0122297,0.0149432,-0.0144588,-1.07954,0.016976,0.0475649,1308,1793,6.33461,-27.4637
91,-769,6.18835,27.1909,0,0,0,0,0,0,0,-1,1315,1793,6.18832,-27.1909
98,-769,6.15588,27.3108,0,0,0,0,0,0,0,-1,1322,1793,6.15582,-27.3108
105,-769,6.32336,27.3445,0,0,0,0,0,0,0,-1,1329,1793,6.3234,-27.3445
112,-769,6.15906,27.109,0,0,0,0,0,0,0,-1,1336,1793,6.15912,-27.109
119,-769,5.79736,27.0753,-0.0105504,0.00430546,0.0114953,0.0105638,-0.0168088,1.07224,0.0159401,0.0446606,1343,1793,5.79731,-27.0754
126,-769,5.755,27.2631,-0.00622826,0.00440067,0.0149234,0.0149277,-0.0167553,0.956455,0.0183023,0.045936,1350,1793,5.75502,-27.2631
133,-769,6.31287,26.5674,-0.00179901,0.00417058,0.0172264,0.0186689,-0.0162973,0.871181,0.0202032,0.0497005,1357,1793,6.31285,-26.5674
140,-769,6.84326,26.366,0,0,0,0,0,0,0,-1,1364,1793,6.84326,-26.366
147,-769,6.80005,26.1899,0,0,0,0,0,0,0,-1,1371,1793,6.80004,-26.19
154,-769,6.3584,24.4514,0,0,0,0,0,0,0,-1,1378,1793,6.35835,-24.4514
161,-769,6.57019,1.53223,0,0,0,0,0,0,0,-1,1385,1793,6.57019,-1.53226
168,-769,8.27637,0.756958,0,0,0,0,0,0,0,-1,1392,1793,8.27639,-0.756944
175,-769,8.47144,2.41174,0,0,0,0,0,0,0,-1,1399,1793,8.47147,-2.4118
182,-769,8.41479,4.05994,0,0,0,0,0,0,0,-1,1406,1793,8.41479,-4.05997
189,-769,8.25049,5.68433,0,0,0,0,0,0,0,-1,1413,1793,8.25054,-5.68428
196,-769,7.97729,7.42847,0,0,0,0,0,0,0,-1,1420,1793,7.9773,-7.42848
203,-769,22.0977,6.73889,0,0,0,0,0,0,0,-1,1427,1793,22.0977,-6.7389
210,-769,22.1115,7.77246,0,0,0,0,0,0,0,-1,1434,1793,22.1115,-7.77248
217,-769,22.4723,8.79102,0,0,0,0,0,0,0,-1,1441,1793,22.4723,-8.79099
224,-769,22.1348,9.35278,0,0,0,0,0,0,0,-1,1448,1793,22.1348,-9.35283
231,-769,3.13318,19.7184,0,0,0,0,0,0,0,-1,1455,1793,3.13323,-19.7184
238,-769,5.74512,18.6597,0,0,0,0,0,0,0,-1,1462,1793,5.74512,-18.6596
245,-769,5.71143,16.2483,0,0,0,0,0,0,0,-1,1469,1793,5.71137,-16.2483
252,-769,4.34961,12.5251,0,0,0,0,0,0,0,-1,1476,1793,4.34959,-12.5252
259,-769,16.4871,7.42102,0,0,0,0,0,0,0,-1,1483,1793,16.4871,-7.42104
266,-769,15.8488,7.3905,0,0,0,0,0,0,0,-1,1490,1793,15.8488,-7.39046
273,-769,14.8075,7.56152,0,0,0,0,0,0,0,-1,1497,1793,14.8075,-7.56152
280,-769,13.6519,7.43054,0,0,0,0,0,0,0,-1,1504,1793,13.6518,-7.43058
287,-769,0,0,0,0,0,0,0,0,0,-1,1511,1793,0,0
294,-769,0,0,0,0,0,0,0,0,0,-1,1518,1793,0,0
301,-769,0,0,0,0,0,0,0,0,0,-1,1525,1793,0,0
308,-769,0,0,0,0,0,0,0,0,0,-1,1532,1793,0,0
315,-769,0,0,0,0,0,0,0,0,0,-1,1539,1793,0,0
322,-769,0,0,0,0,0,0,0,0,0,-1,1546,1793,0,0
329,-769,0,0,0,0,0,0,0,0,0,-1,1553,1793,0,0
336,-769,0,0,0,0,0,0,0,0,0,-1,1560,1793,0,0
343,-769,0,0,0,0,0,0,0,0,0,-1,1567,1793,0,0
350,-769,0,0,0,0,0,0,0,0,0,-1,1574,1793,0,0
357,-769,0,0,0,0,0,0,0,0,0,-1,1581,1793,0,0
364,-769,0,0,0,0,0,0,0,0,0,-1,1588,1793,0,0
371,-769,0,0,0,0,0,0,0,0,0,-1,1595,1793,0,0
378,-769,0,0,0,0,0,0,0,0,0,-1,1602,1793,0,0
385,-769,0,0,0,0,0,0,0,0,0,-1,1609,1793,0,0
392,-769,0,0,0,0,0,0,0,0,0,-1,1616,1793,0,0
399,-769,0,0,0,0,0,0,0,0,0,-1,1623,1793,0,0
406,-769,0,0,0,0,0,0,0,0,0,-1,1630,1793,0,0
413,-769,0,0,0,0,0,0,0,0,0,-1,1637,1793,0,0
420,-769,0,0,0,0,0,0,0,0,0,-1,1644,1793,0,0
427,-769,0,0,0,0,0,0,0,0,0,-1,1651,1793,0,0
434,-769,0,0,0,0,0,0,0,0,0,-1,1658,1793,0,0
441,-769,0,0,0,0,0,0,0,0,0,-1,1665,1793,0,0
448,-769,0,0,0,0,0,0,0,0,0,-1,1672,1793,0,0
455,-769,0,0,0,0,0,0,0,0,0,-1,1679,1793,0,0
462,-769,0,0,0,0,0,0,0,0,0,-1,1686,1793,0,0
469,-769,0,0,0,0,0,0,0,0,0,-1,1693,1793,0,0
476,-769,0,0,0,0,0,0,0,0,0,-1,1700,1793,0,0
483,-769,0,0,0,0,0,0,0,0,0,-1,1707,1793,0,0
490,-769,0,0,0,0,0,0,0,0,0,-1,1714,1793,0,0
497,-769,0,0,0,0,0,0,0,0,0,-1,1721,1793,0,0
504,-769,0,0,0,0,0,0,0,0,0,-1,1728,1793,0,0
511,-769,0,0,0,0,0,0,0,0,0,-1,1735,1793,0,0
518,-769,0,0,0,0,0,0,0,0,0,-1,1742,1793,0,0
525,-769,0,0,0,0,0,0,0,0,0,-1,1749,1793,0,0
532,-769,0,0,0,0,0,0,0,0,0,-1,1756,1793,0,0
539,-769,0,0,0,0,0,0,0,0,0,-1,1763,1793,0,0
546,-769,0,0,0,0,0,0,0,0,0,-1,1770,1793,0,0
553,-769,0,0,0,0,0,0,0,0,0,-1,1777,1793,0,0
560,-769,0,0,0,0,0,0,0,0,0,-1,1784,1793,0,0
567,-769,0,0,0,0,0,0,0,0,0,-1,1791,1793,0,0
574,-769,0,0,0,0,0,0,0,0,0,-1,1798,1793,0,0
581,-769,0,0,0,0,0,0,0,0,0,-1,1805,1793,0,0
588,-769,0,0,0,0,0,0,0,0,0,-1,1812,1793,0,0
595,-769,0,0,0,0,0,0,0,0,0,-1,1819,1793,0,0
602,-769,0,0,0,0,0,0,0,0,0,-1,1826,1793,0,0
609,-769,0,0,0,0,0,0,0,0,0,-1,1833,1793,0,0
616,-769,0,0,0,0,0,0,0,0,0,-1,1840,1793,0,0
623,-769,0,0,0,0,0,0,0,0,0,-1,1847,1793,0,0
630,-769,0,0,0,0,0,0,0,0,0,-1,1854,1793,0,0
637,-769,0,0,0,0,0,0,0,0,0,-1,1861,1793,0,0
644,-769,0,0,0,0,0,0,0,0,0,-1,1868,1793,0,0
651,-769,0,0,0,0,0,0,0,0,0,-1,1875,1793,0,0
658,-769,0,0,0,0,0,0,0,0,0,-1,1882,1793,0,0
665,-769,0,0,0,0,0,0,0,0,0,-1,1889,1793,0,0
672,-769,0,0,0,0,0,0,0,0,0,-1,1896,1793,0,0
679,-769,0,0,0,0,0,0,0,0,0,-1,1903,1793,0,0
686,-769,0,0,0,0,0,0,0,0,0,-1,1910,1793,0,0
693,-769,0,0,0,0,0,0,0,0,0,-1,1917,1793,0,0
700,-769,0,0,0,0,0,0,0,0,0,-1,1924,1793,0,0
707,-769,0,0,0,0,0,0,0,0,0,-1,1931,1793,0,0
714,-769,0,0,0,0,0,0,0,0,0,-1,1938,1793,0,0
721,-769,0,0,0,0,0,0,0,0,0,-1,1945,1793,0,0
728,-769,0,0,0,0,0,0,0,0,0,-1,1952,1793,0,0
735,-769,0,0,0,0,0,0,0,0,0,-1,1959,1793,0,0
742,-769,0,0,0,0,0,0,0,0,0,-1,1966,1793,0,0
749,-769,0,0,0,0,0,0,0,0,0,-1,1973,1793,0,0
756,-769,0,0,0,0,0,0,0,0,0,-1,1980,1793,0,0
763,-769,0,0,0,0,0,0,0,0,0,-1,1987,1793,0,0
770,-769,0,0,0,0,0,0,0,0,0,-1,1994,1793,0,0
777,-769,0,0,0,0,0,0,0,0,0,-1,2001,1793,0,0
784,-769,0,0,0,0,0,0,0,0,0,-1,2008,1793,0,0
791,-769,0,0,0,0,0,0,0,0,0,-1,2015,1793,0,0
798,-769,0,0,0,0,0,0,0,0,0,-1,2022,1793,0,0
805,-769,0,0,0,0,0,0,0,0,0,-1,2029,1793,0,0
812,-769,0,0,0,0,0,0,0,0,0,-1,2036,1793,0,0
-700,-776,0,0,0,0,0,0,0,0,0,-1,524,1800,0,0
-693,-776,0,0,0,0,0,0,0,0,0,-1,531,1800,0,0
-686,-776,0,0,0,0,0,0,0,0,0,-1,538,1800,0,0
-679,-776,0,0,0,0,0,0,0,0,0,-1,545,1800,0,0
-672,-776,0,0,0,0,0,0,0,0,0,-1,552,1800,0,0
-665,-776,0,0,0,0,0,0,0,0,0,-1,559,1800,0,0
-658,-776,0,0,0,0,0,0,0,0,0,-1,566,1800,0,0
-651,-776,0,0,0,0,0,0,0,0,0,-1,573,1800,0,0
-644,-776,0,0,0,0,0,0,0,0,0,-1,580,1800,0,0
-637,-776,0,0,0,0,0,0,0,0,0,-1,587,1800,0,0
-630,-776,0,0,0,0,0,0,0,0,0,-1,594,1800,0,0
-623,-776,0,0,0,0,0,0,0,0,0,-1,601,1800,0,0
-616,-776,0,0,0,0,0,0,0,0,0,-1,608,1800,0,0
-609,-776,0,0,0,0,0,0,0,0,0,-1,615,1800,0,0
-602,-776,0,0,0,0,0,0,0,0,0,-1,622,1800,0,0
-595,-776,0,0,0,0,0,0,0,0,0,-1,629,1800,0,0
-588,-776,0,0,0,0,0,0,0,0,0,-1,636,1800,0,0
-581,-776,0,0,0,0,0,0,0,0,0,-1,643,1800,0,0
-574,-776,0,0,0,0,0,0,0,0,0,-1,650,1800,0,0
-567,-776,0,0,0,0,0,0,0,0,0,-1,657,1800,0,0
-560,-776,0,0,0,0,0,0,0,0,0,-1,664,1800,0,0
-553,-776,0,0,0,0,0,0,0,0,0,-1,671,1800,0,0
-546,-776,0,0,0,0,0,0,0,0,0,-1,678,1800,0,0
-539,-776,0,0,0,0,0,0,0,0,0,-1,685,1800,0,0
-532,-776,0,0,0,0,0,0,0,0,0,-1,692,1800,0,0
-525,-776,0,0,0,0,0,0,0,0,0,-1,699,1800,0,0
-518,-776,0,0,0,0,0,0,0,0,0,-1,706,1800,0,0
-511,-776,0,0,0,0,0,0,0,0,0,-1,713,1800,0,0
-504,-776,0,0,0,0,0,0,0,0,0,-1,720,1800,0,0
-497,-776,0,0,0,0,0,0,0,0,0,-1,727,1800,0,0
-490,-776,0,0,0,0,0,0,0,0,0,-1,734,1800,0,0
-483,-776,0,0,0,0,0,0,0,0,0,-1,741,1800,0,0
-476,-776,0,0,0,0,0,0,0,0,0,-1,748,1800,0,0
-469,-776,0,0,0,0,0,0,0,0,0,-1,755,1800,0,0
-462,-776,0,0,0,0,0,0,0,0,0,-1,762,1800,0,0
-455,-776,0,0,0,0,0,0,0,0,0,-1,769,1800,0,0
-448,-776,0,0,0,0,0,0,0,0,0,-1,776,1800,0,0
-441,-776,0,0,0,0,0,0,0,0,0,-1,783,1800,0,0
-434,-776,0,0,0,0,0,0,0,0,0,-1,790,1800,0,0
-427,-776,0,0,0,0,0,0,0,0,0,-1,797,1800,0,0
-420,-776,0,0,0,0,0,0,0,0,0,-1,804,1800,0,0
-413,-776,0,0,0,0,0,0,0,0,0,-1,811,1800,0,0
-406,-776,0,0,0,0,0,0,0,0,0,-1,818,1800,0,0
-399,-776,0,0,0,0,0,0,0,0,0,-1,825,1800,0,0
-392,-776,0,0,0,0,0,0,0,0,0,-1,832,1800,0,0
-385,-776,0,0,0,0,0,0,0,0,0,-1,839,1800,0,0
-378,-776,0,0,0,0,0,0,0,0,0,-1,846,1800,0,0
-371,-776,0,0,0,0,0,0,0,0,0,-1,853,1800,0,0
-364,-776,0,0,0,0,0,0,0,0,0,-1,860,1800,0,0
-357,-776,0,0,0,0,0,0,0,0,0,-1,867,1800,0,0
-350,-776,0,0,0,0,0,0,0,0,0,-1,874,1800,0,0
-343,-776,0,0,0,0,0,0,0,0,0,-1,881,1800,0,0
-336,-776,0,0,0,0,0,0,0,0,0,-1,888,1800,0,0
-329,-776,0,0,0,0,0,0,0,0,0,-1,895,1800,0,0
-322,-776,0,0,0,0,0,0,0,0,0,-1,902,1800,0,0
-315,-776,0,0,0,0,0,0,0,0,0,-1,909,1800,0,0
-308,-776,0,0,0,0,0,0,0,0,0,-1,916,1800,0,0
-301,-776,0,0,0,0,0,0,0,0,0,-1,923,1800,0,0
-294,-776,0,0,0,0,0,0,0,0,0,-1,930,1800,0,0
-287,-776,0,0,0,0,0,0,0,0,0,-1,937,1800,0,0
-280,-776,0,0,0,0,0,0,0,0,0,-1,944,1800,0,0
-273,-776,0,0,0,0,0,0,0,0,0,-1,951,1800,0,0
-266,-776,0,0,0,0,0,0,0,0,0,-1,958,1800,0,0
-259,-776,0,0,0,0,0,0,0,0,0,-1,965,1800,0,0
-252,-776,0,0,0,0,0,0,0,0,0,-1,972,1800,0,0
-245,-776,0,0,0,0,0,0,0,0,0,-1,979,1800,0,0
-238,-776,0,0,0,0,0,0,0,0,0,-1,986,1800,0,0
-231,-776,0,0,0,0,0,0,0,0,0,-1,993,1800,0,0
-224,-776,0,0,0,0,0,0,0,0,0,-1,1000,1800,0,0
-217,-776,0,0,0,0,0,0,0,0,0,-1,1007,1800,0,0
-210,-776,0,0,0,0,0,0,0,0,0,-1,1014,1800,0,0
-203,-776,0,0,0,0,0,0,0,0,0,-1,1021,1800,0,0
-196,-776,0,0,0,0,0,0,0,0,0,-1,1028,1800,0,0
-189,-776,0,0,0,0,0,0,0,0,0,-1,1035,1800,0,0
-182,-776,0,0,0,0,0,0,0,0,0,-1,1042,1800,0,0
-175,-776,0,0,0,0,0,0,0,0,0,-1,1049,1800,0,0
-168,-776,0,0,0,0,0,0,0,0,0,-1,1056,1800,0,0
-161,-776,0,0,0,0,0,0,0,0,0,-1,1063,1800,0,0
-154,-776,0,0,0,0,0,0,0,0,0,-1,1070,1800,0,0
-147,-776,0,0,0,0,0,0,0,0,0,-1,1077,1800,0,0
-140,-776,2.98499,5.20911,0,0,0,0,0,0,0,-1,1084,1800,2.98493,-5.2091
-133,-776,6.72363,9.35828,0,0,0,0,0,0,0,-1,1091,1800,6.72358,-9.35824
-126,-776,6.55029,13.7832,0,0,0,0,0,0,0,-1,1098,1800,6.55029,-13.7832
-119,-776,5.72107,13.7787,0,0,0,0,0,0,0,-1,1105,1800,5.72106,-13.7787
-112,-776,6.84998,20.4421,0,0,0,0,0,0,0,-1,1112,1800,6.84993,-20.4421
-105,-776,2.15039,19.7095,0,0,0,0,0,0,0,-1,1119,1800,2.1504,-19.7095
-98,-776,3.92517,21.9519,0,0,0,0,0,0,0,-1,1126,1800,3.92517,-21.9519
-91,-776,3.30225,18.134,0,0,0,0,0,0,0,-1,1133,1800,3.30222,-18.134
-84,-776,2.67932,14.3162,0,0,0,0,0,0,0,-1,1140,1800,2.67926,-14.3161
-77,-776,0.580078,11.1272,0,0,0,0,0,0,0,-1,1147,1800,0.58002,-11.1272
-70,-776,-0.562866,12.3163,0,0,0,0,0,0,0,-1,1154,1800,-0.562897,-12.3163
-63,-776,-3.96106,9.97656,0,0,0,0,0,0,0,-1,1161,1800,-3.961,-9.97654
-56,-776,-7.35913,7.63672,0,0,0,0,0,0,0,-1,1168,1800,-7.3591,-7.63676
-49,-776,-7.62952,3.1908,0,0,0,0,0,0,0,-1,1175,1800,-7.62955,-3.19076
-42,-776,-3.41272,3.0249,0,0,0,0,0,0,0,-1,1182,1800,-3.41269,-3.02488
-35,-776,-3.71753,1.63635,0,0,0,0,0,0,0,-1,1189,1800,-3.71755,-1.63631
-28,-776,-4.03979,0.716064,0,0,0,0,0,0,0,-1,1196,1800,-4.03977,-0.716055
-21,-776,0.723389,36.8937,0,0,0,0,0,0,0,-1,1203,1800,0.7234,-36.8937
-14,-776,1.87988,35.8604,0,0,0,0,0,0,0,-1,1210,1800,1.87989,-35.8603
-7,-776,3.35681,35.0873,0,0,0,0,0,0,0,-1,1217,1800,3.35681,-35.0873
0,-776,3.59729,33.578,0,0,0,0,0,0,0,-1,1224,1800,3.59735,-33.578
7,-776,6.58154,26.9545,0,0,0,0,0,0,0,-1,1231,1800,6.58149,-26.9545
14,-776,6.69019,26.9531,0,0,0,0,0,0,0,-1,1238,1800,6.69014,-26.9531
21,-776,3.98914,30.9176,0,0,0,0,0,0,0,-1,1245,1800,3.98913,-30.9176
28,-776,4.50073,30.2262,0.0825503,0.0718693,-0.0639899,0.141422,0.0129975,-0.743766,0.0902614,0.0466456,1252,1800,4.50073,-30.2262
35,-776,8.72095,27.2018,0.0741588,0.0606087,-0.0578477,0.125627,0.00914062,-0.727104,0.0808767,0.0444802,1259,1800,8.721,-27.2018
42,-776,7.84802,26.882,0,0,0,0,0,0,0,-1,1266,1800,7.84808,-26.882
49,-776,7.80151,26.8762,0.0515102,0.0406662,-0.0462423,0.0926473,-0.000470925,-0.727039,0.0619224,0.0494125,1273,1800,7.8015,-26.8762
56,-776,7.64343,26.7999,0.0367553,0.0327838,-0.0409389,0.0757566,-0.00621749,-0.761165,0.0526993,0.048396,1280,1800,7.64344,-26.7999
63,-776,7.58252,26.9257,0.0229636,0.0252907,-0.0346346,0.0587813,-0.010527,-0.80219,0.043127,0.0464334,1287,1800,7.58255,-26.9256
70,-776,7.66895,27.6614,0.0109433,0.0191838,-0.0277588,0.0431264,-0.0129994,-0.859075,0.0339247,0.0455944,1294,1800,7.66896,-27.6614
77,-776,7.45264,27.5533,0.000371141,0.0138302,-0.0205075,0.0286842,-0.0144828,-0.943937,0.025368,0.0478968,1301,1800,7.45269,-27.5534
84,-776,6.53833,27.6014,0,0,0,0,0,0,0,-1,1308,1800,6.53834,-27.6014
91,-776,6.25659,27.156,0,0,0,0,0,0,0,-1,1315,1800,6.25664,-27.156
98,-776,6.16296,27.3556,-0.0214997,0.00568554,-0.000392406,0.00569121,-0.0215054,-1.55637,0.0165632,0.0427677,1322,1800,6.16298,-27.3556
105,-776,6.03223,27.5087,-0.0221955,0.00418774,0.00576912,0.00539409,-0.0234019,1.36466,0.0176758,0.0425461,1329,1800,6.03228,-27.5086
112,-776,5.55127,27.1879,-0.019771,0.00394975,0.0118178,0.00883243,-0.0246536,1.179,0.0200396,0.0441215,1336,1800,5.55122,-27.1879
119,-776,5.49268,27.2528,-0.0143498,0.00398884,0.0173663,0.0144579,-0.0248188,1.02829,0.0229379,0.0431066,1343,1800,5.49265,-27.2528
126,-776,5.45874,27.4001,-0.00841993,0.00347709,0.0224929,0.0207948,-0.0257376,0.914669,0.026916,0.0453064,1350,1800,5.4587,-27.4001
133,-776,6.31909,26.4082,0,0,0,0,0,0,0,-1,1357,1800,6.31912,-26.4082
140,-776,0.801392,27.2898,0,0,0,0,0,0,0,-1,1364,1800,0.801428,-27.2898
147,-776,-0.116943,26.8029,0,0,0,0,0,0,0,-1,1371,1800,-0.116958,-26.8029
154,-776,6.43774,0.344116,0,0,0,0,0,0,0,-1,1378,1800,6.43776,-0.344162
161,-776,6.50293,1.1731,0,0,0,0,0,0,0,-1,1385,1800,6.5029,-1.17313
168,-776,8.44971,1.22913,0,0,0,0,0,0,0,-1,1392,1800,8.44974,-1.22915
175,-776,8.61523,2.87061,0,0,0,0,0,0,0,-1,1399,1800,8.6152,-2.87063
182,-776,8.54065,4.60645,0,0,0,0,0,0,0,-1,1406,1800,8.5407,-4.60643
189,-776,8.35303,6.28223,0,0,0,0,0,0,0,-1,1413,1800,8.35297,-6.28225
196,-776,8.0387,8.21704,0,0,0,0,0,0,0,-1,1420,1800,8.03865,-8.217
203,-776,7.91736,9.79919,0,0,0,0,0,0,0,-1,1427,1800,7.91735,-9.79922
210,-776,20.2479,7.85718,0,0,0,0,0,0,0,-1,1434,1800,20.248,-7.85719
217,-776,21.5171,9.3418,0,0,0,0,0,0,0,-1,1441,1800,21.5171,-9.34182
224,-776,3.09253,14.9313,0,0,0,0,0,0,0,-1,1448,1800,3.09254,-14.9313
231,-776,20.8671,9.21057,0,0,0,0,0,0,0,-1,1455,1800,20.867,-9.21054
238,-776,20.7511,9.05847,0,0,0,0,0,0,0,-1,1462,1800,20.7511,-9.05848
245,-776,3.80823,15.4108,0,0,0,0,0,0,0,-1,1469,1800,3.80826,-15.4108
252,-776,16.6313,6.47168,0,0,0,0,0,0,0,-1,1476,1800,16.6313,-6.47165
259,-776,14.1882,7.69055,0,0,0,0,0,0,0,-1,1483,1800,14.1882,-7.69061
266,-776,0,0,0,0,0,0,0,0,0,-1,1490,1800,0,0
273,-776,0,0,0,0,0,0,0,0,0,-1,1497,1800,0,0
280,-776,0,0,0,0,0,0,0,0,0,-1,1504,1800,0,0
287,-776,0,0,0,0,0,0,0,0,0,-1,1511,1800,0,0
294,-776,0,0,0,0,0,0,0,0,0,-1,1518,1800,0,0
301,-776,0,0,0,0,0,0,0,0,0,-1,1525,1800,0,0
308,-776,0,0,0,0,0,0,0,0,0,-1,1532,1800,0,0
315,-776,0,0,0,0,0,0,0,0,0,-1,1539,1800,0,0
322,-776,0,0,0,0,0,0,0,0,0,-1,1546,1800,0,0
329,-776,0,0,0,0,0,0,0,0,0,-1,1553,1800,0,0
336,-776,0,0,0,0,0,0,0,0,0,-1,1560,1800,0,0
343,-776,0,0,0,0,0,0,0,0,0,-1,1567,1800,0,0
350,-776,0,0,0,0,0,0,0,0,0,-1,1574,1800,0,0
357,-776,0,0,0,0,0,0,0,0,0,-1,1581,1800,0,0
364,-776,0,0,0,0,0,0,0,0,0,-1,1588,1800,0,0
371,-776,0,0,0,0,0,0,0,0,0,-1,1595,1800,0,0
378,-776,0,0,0,0,0,0,0,0,0,-1,1602,1800,0,0
385,-776,0,0,0,0,0,0,0,0,0,-1,1609,1800,0,0
392,-776,0,0,0,0,0,0,0,0,0,-1,1616,1800,0,0
399,-776,0,0,0,0,0,0,0,0,0,-1,1623,1800,0,0
406,-776,0,0,0,0,0,0,0,0,0,-1,1630,1800,0,0
413,-776,0,0,0,0,0,0,0,0,0,-1,1637,1800,0,0
420,-776,0,0,0,0,0,0,0,0,0,-1,1644,1800,0,0
427,-776,0,0,0,0,0,0,0,0,0,-1,1651,1800,0,0
434,-776,0,0,0,0,0,0,0,0,0,-1,1658,1800,0,0
441,-776,0,0,0,0,0,0,0,0,0,-1,1665,1800,0,0
448,-776,0,0,0,0,0,0,0,0,0,-1,1672,1800,0,0
455,-776,0,0,0,0,0,0,0,0,0,-1,1679,1800,0,0
462,-776,0,0,0,0,0,0,0,0,0,-1,1686,1800,0,0
469,-776,0,0,0,0,0,0,0,0,0,-1,1693,1800,0,0
476,-776,0,0,0,0,0,0,0,0,0,-1,1700,1800,0,0
483,-776,0,0,0,0,0,0,0,0,0,-1,1707,1800,0,0
490,-776,0,0,0,0,0,0,0,0,0,-1,1714,1800,0,0
497,-776,0,0,0,0,0,0,0,0,0,-1,1721,1800,0,0
504,-776,0,0,0,0,0,0,0,0,0,-1,1728,1800,0,0
511,-776,0,0,0,0,0,0,0,0,0,-1,1735,1800,0,0
518,-776,0,0,0,0,0,0,0,0,0,-1,1742,1800,0,0
525,-776,0,0,0,0,0,0,0,0,0,-1,1749,1800,0,0
532,-776,0,0,0,0,0,0,0,0,0,-1,1756,1800,0,0
539,-776,0,0,0,0,0,0,0,0,0,-1,1763,1800,0,0
546,-776,0,0,0,0,0,0,0,0,0,-1,1770,1800,0,0
553,-776,0,0,0,0,0,0,0,0,0,-1,1777,1800,0,0
560,-776,0,0,0,0,0,0,0,0,0,-1,1784,1800,0,0
567,-776,0,0,0,0,0,0,0,0,0,-1,1791,1800,0,0
574,-776,0,0,0,0,0,0,0,0,0,-1,1798,1800,0,0
581,-776,0,0,0,0,0,0,0,0,0,-1,1805,1800,0,0
588,-776,0,0,0,0,0,0,0,0,0,-1,1812,1800,0,0
595,-776,0,0,0,0,0,0,0,0,0,-1,1819,1800,0,0
602,-776,0,0,0,0,0,0,0,0,0,-1,1826,1800,0,0
609,-776,0,0,0,0,0,0,0,0,0,-1,1833,1800,0,0
616,-776,0,0,0,0,0,0,0,0,0,-1,1840,1800,0,0
623,-776,0,0,0,0,0,0,0,0,0,-1,1847,1800,0,0
630,-776,0,0,0,0,0,0,0,0,0,-1,1854,1800,0,0
637,-776,0,0,0,0,0,0,0,0,0,-1,1861,1800,0,0
644,-776,0,0,0,0,0,0,0,0,0,-1,1868,1800,0,0
651,-776,0,0,0,0,0,0,0,0,0,-1,1875,1800,0,0
658,-776,0,0,0,0,0,0,0,0,0,-1,1882,1800,0,0
665,-776,0,0,0,0,0,0,0,0,0,-1,1889,1800,0,0
672,-776,0,0,0,0,0,0,0,0,0,-1,1896,1800,0,0
679,-776,0,0,0,0,0,0,0,0,0,-1,1903,1800,0,0
686,-776,0,0,0,0,0,0,0,0,0,-1,1910,1800,0,0
693,-776,0,0,0,0,0,0,0,0,0,-1,1917,1800,0,0
700,-776,0,0,0,0,0,0,0,0,0,-1,1924,1800,0,0
707,-776,0,0,0,0,0,0,0,0,0,-1,1931,1800,0,0
714,-776,0,0,0,0,0,0,0,0,0,-1,1938,1800,0,0
721,-776,0,0,0,0,0,0,0,0,0,-1,1945,1800,0,0
728,-776,0,0,0,0,0,0,0,0,0,-1,1952,1800,0,0
735,-776,0,0,0,0,0,0,0,0,0,-1,1959,1800,0,0
742,-776,0,0,0,0,0,0,0,0,0,-1,1966,1800,0,0
749,-776,0,0,0,0,0,0,0,0,0,-1,1973,1800,0,0
756,-776,0,0,0,0,0,0,0,0,0,-1,1980,1800,0,0
763,-776,0,0,0,0,0,0,0,0,0,-1,1987,1800,0,0
770,-776,0,0,0,0,0,0,0,0,0,-1,1994,1800,0,0
777,-776,0,0,0,0,0,0,0,0,0,-1,2001,1800,0,0
784,-776,0,0,0,0,0,0,0,0,0,-1,2008,1800,0,0
791,-776,0,0,0,0,0,0,0,0,0,-1,2015,1800,0,0
798,-776,0,0,0,0,0,0,0,0,0,-1,2022,1800,0,0
805,-776,0,0,0,0,0,0,0,0,0,-1,2029,1800,0,0
812,-776,0,0,0,0,0,0,0,0,0,-1,2036,1800,0,0
-700,-783,0,0,0,0,0,0,0,0,0,-1,524,1807,0,0
-693,-783,0,0,0,0,0,0,0,0,0,-1,531,1807,0,0
-686,-783,0,0,0,0,0,0,0,0,0,-1,538,1807,0,0
-679,-783,0,0,0,0,0,0,0,0,0,-1,545,1807,0,0
-672,-783,0,0,0,0,0,0,0,0,0,-1,552,1807,0,0
-665,-783,0,0,0,0,0,0,0,0,0,-1,559,1807,0,0
-658,-783,0,0,0,0,0,0,0,0,0,-1,566,1807,0,0
-651,-783,0,0,0,0,0,0,0,0,0,-1,573,1807,0,0
-644,-783,0,0,0,0,0,0,0,0,0,-1,580,1807,0,0
-637,-783,0,0,0,0,0,0,0,0,0,-1,587,1807,0,0
-630,-783,0,0,0,0,0,0,0,0,0,-1,594,1807,0,0
-623,-783,0,0,0,0,0,0,0,0,0,-1,601,1807,0,0
-616,-783,0,0,0,0,0,0,0,0,0,-1,608,1807,0,0
-609,-783,0,0,0,0,0,0,0,0,0,-1,615,1807,0,0
-602,-783,0,0,0,0,0,0,0,0,0,-1,622,1807,0,0
-595,-783,0,0,0,0,0,0,0,0,0,-1,629,1807,0,0
-588,-783,0,0,0,0,0,0,0,0,0,-1,636,1807,0,0
-581,-783,0,0,0,0,0,0,0,0,0,-1,643,1807,0,0
-574,-783,0,0,0,0,0,0,0,0,0,-1,650,1807,0,0
-567,-783,0,0,0,0,0,0,0,0,0,-1,657,1807,0,0
-560,-783,0,0,0,0,0,0,0,0,0,-1,664,1807,0,0
-553,-783,0,0,0,0,0,0,0,0,0,-1,671,1807,0,0
-546,-783,0,0,0,0,0,0,0,0,0,-1,678,1807,0,0
-539,-783,0,0,0,0,0,0,0,0,0,-1,685,1807,0,0
-532,-783,0,0,0,0,0,0,0,0,0,-1,692,1807,0,0
-525,-783,0,0,0,0,0,0,0,0,0,-1,699,1807,0,0
-518,-783,0,0,0,0,0,0,0,0,0,-1,706,1807,0,0
-511,-783,0,0,0,0,0,0,0,0,0,-1,713,1807,0,0
-504,-783,0,0,0,0,0,0,0,0,0,-1,720,1807,0,0
-497,-783,0,0,0,0,0,0,0,0,0,-1,727,1807,0,0
-490,-783,0,0,0,0,0,0,0,0,0,-1,734,1807,0,0
-483,-783,0,0,0,0,0,0,0,0,0,-1,741,1807,0,0
-476,-783,0,0,0,0,0,0,0,0,0,-1,748,1807,0,0
-469,-783,0,0,0,0,0,0,0,0,0,-1,755,1807,0,0
-462,-783,0,0,0,0,0,0,0,0,0,-1,762,1807,0,0
-455,-783,0,0,0,0,0,0,0,0,0,-1,769,1807,0,0
-448,-783,0,0,0,0,0,0,0,0,0,-1,776,1807,0,0
-441,-783,0,0,0,0,0,0,0,0,0,-1,783,1807,0,0
-434,-783,0,0,0,0,0,0,0,0,0,-1,790,1807,0,0
-427,-783,0,0,0,0,0,0,0,0,0,-1,797,1807,0,0
-420,-783,0,0,0,0,0,0,0,0,0,-1,804,1807,0,0
-413,-783,0,0,0,0,0,0,0,0,0,-1,811,1807,0,0
-406,-783,0,0,0,0,0,0,0,0,0,-1,818,1807,0,0
-399,-783,0,0,0,0,0,0,0,0,0,-1,825,1807,0,0
-392,-783,0,0,0,0,0,0,0,0,0,-1,832,1807,0,0
-385,-783,0,0,0,0,0,0,0,0,0,-1,839,1807,0,0
-378,-783,0,0,0,0,0,0,0,0,0,-1,846,1807,0,0
-371,-783,0,0,0,0,0,0,0,0,0,-1,853,1807,0,0
-364,-783,0,0,0,0,0,0,0,0,0,-1,860,1807,0,0
-357,-783,0,0,0,0,0,0,0,0,0,-1,867,1807,0,0
-350,-783,0,0,0,0,0,0,0,0,0,-1,874,1807,0,0
-343,-783,0,0,0,0,0,0,0,0,0,-1,881,1807,0,0
-336,-783,0,0,0,0,0,0,0,0,0,-1,888,1807,0,0
-329,-783,0,0,0,0,0,0,0,0,0,-1,895,1807,0,0
-322,-783,0,0,0,0,0,0,0,0,0,-1,902,1807,0,0
-315,-783,0,0,0,0,0,0,0,0,0,-1,909,1807,0,0
-308,-783,0,0,0,0,0,0,0,0,0,-1,916,1807,0,0
-301,-783,0,0,0,0,0,0,0,0,0,-1,923,1807,0,0
-294,-783,0,0,0,0,0,0,0,0,0,-1,930,1807,0,0
-287,-783,0,0,0,0,0,0,0,0,0,-1,937,1807,0,0
-280,-783,0,0,0,0,0,0,0,0,0,-1,944,1807,0,0
-273,-783,0,0,0,0,0,0,0,0,0,-1,951,1807,0,0
-266,-783,0,0,0,0,0,0,0,0,0,-1,958,1807,0,0
-259,-783,0,0,0,0,0,0,0,0,0,-1,965,1807,0,0
-252,-783,0,0,0,0,0,0,0,0,0,-1,972,1807,0,0
-245,-783,0,0,0,0,0,0,0,0,0,-1,979,1807,0,0
-238,-783,0,0,0,0,0,0,0,0,0,-1,986,1807,0,0
-231,-783,0,0,0,0,0,0,0,0,0,-1,993,1807,0,0
-224,-783,0,0,0,0,0,0,0,0,0,-1,1000,1807,0,0
-217,-783,0,0,0,0,0,0,0,0,0,-1,1007,1807,0,0
-210,-783,0,0,0,0,0,0,0,0,0,-1,1014,1807,0,0
-203,-783,0,0,0,0,0,0,0,0,0,-1,1021,1807,0,0
-196,-783,0,0,0,0,0,0,0,0,0,-1,1028,1807,0,0
-189,-783,0,0,0,0,0,0,0,0,0,-1,1035,1807,0,0
-182,-783,0,0,0,0,0,0,0,0,0,-1,1042,1807,0,0
-175,-783,0,0,0,0,0,0,0,0,0,-1,1049,1807,0,0
-168,-783,0,0,0,0,0,0,0,0,0,-1,1056,1807,0,0
-161,-783,0,0,0,0,0,0,0,0,0,-1,1063,1807,0,0
-154,-783,0,0,0,0,0,0,0,0,0,-1,1070,1807,0,0
-147,-783,0,0,0,0,0,0,0,0,0,-1,1077,1807,0,0
-140,-783,0,0,0,0,0,0,0,0,0,-1,1084,1807,0,0
-133,-783,0,0,0,0,0,0,0,0,0,-1,1091,1807,0,0
-126,-783,0,0,0,0,0,0,0,0,0,-1,1098,1807,0,0
-119,-783,0,0,0,0,0,0,0,0,0,-1,1105,1807,0,0
-112,-783,5.33936,14.7699,0,0,0,0,0,0,0,-1,1112,1807,5.33931,-14.7699
-105,-783,6.44263,21.2224,0,0,0,0,0,0,0,-1,1119,1807,6.44263,-21.2224
-98,-783,5.54773,20.5695,0,0,0,0,0,0,0,-1,1126,1807,5.54772,-20.5695
-91,-783,2.6106,20.2491,0,0,0,0,0,0,0,-1,1133,1807,2.61056,-20.2492
-84,-783,-0.0491943,14.5743,0,0,0,0,0,0,0,-1,1140,1807,-0.0491562,-14.5743
-77,-783,0.332764,12.7788,0,0,0,0,0,0,0,-1,1147,1807,0.332743,-12.7788
-70,-783,-1.93176,5.12817,0,0,0,0,0,0,0,-1,1154,1807,-1.93171,-5.12813
-63,-783,-5.31702,10.54,0,0,0,0,0,0,0,-1,1161,1807,-5.31703,-10.54
-56,-783,-6.26135,6.9679,0,0,0,0,0,0,0,-1,1168,1807,-6.26136,-6.96785
-49,-783,-3.17688,4.59705,0,0,0,0,0,0,0,-1,1175,1807,-3.17685,-4.5971
-42,-783,-3.72876,3.1405,0,0,0,0,0,0,0,-1,1182,1807,-3.72874,-3.14055
-35,-783,-3.97046,1.59399,0,0,0,0,0,0,0,-1,1189,1807,-3.97041,-1.59401
-28,-783,-4.12195,0.270386,0,0,0,0,0,0,0,-1,1196,1807,-4.12197,-0.270408
-21,-783,1.58704,35.8234,0,0,0,0,0,0,0,-1,1203,1807,1.58702,-35.8234
-14,-783,2.86401,34.8593,0.0884676,0.163785,-0.122786,0.254558,-0.00230524,-0.934195,0.170479,0.0439569,1210,1807,2.86402,-34.8593
-7,-783,3.99768,33.8458,0.0916476,0.155518,-0.117114,0.244973,0.00219225,-0.918504,0.16259,0.045576,1217,1807,3.99765,-33.8458
0,-783,4.50757,32.6528,0.097973,0.145722,-0.110872,0.235261,0.00843471,-0.891447,0.154106,0.0465948,1224,1807,4.50756,-32.6529
7,-783,4.70422,31.9316,0.103594,0.133955,-0.103288,0.223172,0.0143771,-0.858364,0.144228,0.0472771,1231,1807,4.70421,-31.9316
14,-783,4.91687,30.3831,0,0,0,0,0,0,0,-1,1238,1807,4.9169,-30.3831
21,-783,5.36157,29.6835,0.104401,0.106036,-0.0864894,0.191712,0.0187252,-0.790125,0.122046,0.0482572,1245,1807,5.36159,-29.6835
28,-783,5.86194,28.8685,0.0980111,0.0914165,-0.0783847,0.173168,0.0162597,-0.764378,0.110425,0.0470302,1252,1807,5.86198,-28.8685
35,-783,8.04492,26.4495,0.0877107,0.0766402,-0.069978,0.152372,0.0119789,-0.74593,0.0978331,0.0463386,1259,1807,8.04496,-26.4495
42,-783,8.35059,26.4978,0.0750204,0.0633265,-0.0619606,0.131409,0.0069376,-0.738354,0.0853877,0.0448253,1266,1807,8.35056,-26.4978
49,-783,8.69031,26.3239,0.060132,0.0503962,-0.0543562,0.109838,0.000690401,-0.740739,0.0729961,0.045019,1273,1807,8.69027,-26.3239
56,-783,8.36853,26.3082,0.0419081,0.0400659,-0.047611,0.0886069,-0.00663286,-0.775726,0.0614018,0.0486059,1280,1807,8.36852,-26.3082
63,-783,8.88293,28.2004,0,0,0,0,0,0,0,-1,1287,1807,8.88291,-28.2005
70,-783,8.52881,27.8812,0.0102537,0.0226945,-0.0314581,0.0485414,-0.0155931,-0.883007,0.0386225,0.0444314,1294,1807,8.52887,-27.8812
77,-783,8.20459,27.4955,-0.00227168,0.0160844,-0.0228517,0.0315323,-0.0177196,-0.976356,0.0288059,0.0484292,1301,1807,8.20463,-27.4954
84,-783,7.87891,27.0488,0,0,0,0,0,0,0,-1,1308,1807,7.87889,-27.0489
91,-783,6.34265,27.4061,-0.0251884,0.00816693,-0.00650328,0.00939002,-0.0264115,-1.38489,0.0214346,0.0457837,1315,1807,6.34262,-27.4062
98,-783,6.0415,27.3875,-0.0283575,0.00562098,0.00154802,0.00569136,-0.0284279,1.52536,0.0211064,0.0454516,1322,1807,6.04147,-27.3874
105,-783,5.60876,27.5646,-0.0294117,0.00371101,0.00933172,0.00615912,-0.0318598,1.31424,0.0235628,0.04722,1329,1807,5.60883,-27.5645
112,-783,4.22473,26.9382,-0.0262513,0.00321699,0.0171882,0.011122,-0.0341562,1.13973,0.0272456,0.0453067,1336,1807,4.22474,-26.9382
119,-783,5.37891,27.4528,-0.0190869,0.00278775,0.025086,0.0192171,-0.0355162,0.99097,0.0320639,0.0441252,1343,1807,5.37891,-27.4528
126,-783,4.77576,27.8124,-0.0110453,0.00123618,0.0324838,0.0281546,-0.0379637,0.878816,0.0383132,0.0450203,1350,1807,4.77575,-27.8124
133,-783,4.80945,28.2247,0,0,0,0,0,0,0,-1,1357,1807,4.80945,-28.2248
140,-783,0.915405,27.3256,0,0,0,0,0,0,0,-1,1364,1807,0.915385,-27.3255
147,-783,-0.309937,27.2825,0,0,0,0,0,0,0,-1,1371,1807,-0.309948,-27.2825
154,-783,22.8251,14.2119,0,0,0,0,0,0,0,-1,1378,1807,22.8251,-14.2119
161,-783,6.57568,1.16174,0,0,0,0,0,0,0,-1,1385,1807,6.57562,-1.1617
168,-783,8.62561,1.79944,0,0,0,0,0,0,0,-1,1392,1807,8.62561,-1.79946
175,-783,8.78699,3.40857,0,0,0,0,0,0,0,-1,1399,1807,8.78697,-3.40854
182,-783,8.70984,5.14661,0,0,0,0,0,0,0,-1,1406,1807,8.70989,-5.14666
189,-783,8.55762,6.79871,0,0,0,0,0,0,0,-1,1413,1807,8.55766,-6.79872
196,-783,8.25488,8.66626,0,0,0,0,0,0,0,-1,1420,1807,8.25492,-8.66628
203,-783,7.86755,10.5735,0,0,0,0,0,0,0,-1,1427,1807,7.8676,-10.5734
210,-783,5.6969,8.99231,0,0,0,0,0,0,0,-1,1434,1807,5.69693,-8.99234
217,-783,5.28503,3.80872,0,0,0,0,0,0,0,-1,1441,1807,5.285,-3.80868
224,-783,3.22571,6.62903,0,0,0,0,0,0,0,-1,1448,1807,3.2257,-6.62907
231,-783,4.27942,4.56262,0,0,0,0,0,0,0,-1,1455,1807,4.27948,-4.56267
238,-783,0,0,0,0,0,0,0,0,0,-1,1462,1807,0,0
245,-783,0,0,0,0,0,0,0,0,0,-1,1469,1807,0,0
252,-783,0,0,0,0,0,0,0,0,0,-1,1476,1807,0,0
259,-783,0,0,0,0,0,0,0,0,0,-1,1483,1807,0,0
266,-783,0,0,0,0,0,0,0,0,0,-1,1490,1807,0,0
273,-783,0,0,0,0,0,0,0,0,0,-1,1497,1807,0,0
280,-783,0,0,0,0,0,0,0,0,0,-1,1504,1807,0,0
287,-783,0,0,0,0,0,0,0,0,0,-1,1511,1807,0,0
294,-783,0,0,0,0,0,0,0,0,0,-1,1518,1807,0,0
301,-783,0,0,0,0,0,0,0,0,0,-1,1525,1807,0,0
308,-783,0,0,0,0,0,0,0,0,0,-1,1532,1807,0,0
315,-783,0,0,0,0,0,0,0,0,0,-1,1539,1807,0,0
322,-783,0,0,0,0,0,0,0,0,0,-1,1546,1807,0,0
329,-783,0,0,0,0,0,0,0,0,0,-1,1553,1807,0,0
336,-783,0,0,0,0,0,0,0,0,0,-1,1560,1807,0,0
343,-783,0,0,0,0,0,0,0,0,0,-1,1567,1807,0,0
350,-783,0,0,0,0,0,0,0,0,0,-1,1574,1807,0,0
357,-783,0,0,0,0,0,0,0,0,0,-1,1581,1807,0,0
364,-783,0,0,0,0,0,0,0,0,0,-1,1588,1807,0,0
371,-783,0,0,0,0,0,0,0,0,0,-1,1595,1807,0,0
378,-783,0,0,0,0,0,0,0,0,0,-1,1602,1807,0,0
385,-783,0,0,0,0,0,0,0,0,0,-1,1609,1807,0,0
392,-783,0,0,0,0,0,0,0,0,0,-1,1616,1807,0,0
399,-783,0,0,0,0,0,0,0,0,0,-1,1623,1807,0,0
406,-783,0,0,0,0,0,0,0,0,0,-1,1630,1807,0,0
413,-783,0,0,0,0,0,0,0,0,0,-1,1637,1807,0,0
420,-783,0,0,0,0,0,0,0,0,0,-1,1644,1807,0,0
427,-783,0,0,0,0,0,0,0,0,0,-1,1651,1807,0,0
434,-783,0,0,0,0,0,0,0,0,0,-1,1658,1807,0,0
441,-783,0,0,0,0,0,0,0,0,0,-1,1665,1807,0,0
448,-783,0,0,0,0,0,0,0,0,0,-1,1672,1807,0,0
455,-783,0,0,0,0,0,0,0,0,0,-1,1679,1807,0,0
462,-783,0,0,0,0,0,0,0,0,0,-1,1686,1807,0,0
469,-783,0,0,0,0,0,0,0,0,0,-1,1693,1807,0,0
476,-783,0,0,0,0,0,0,0,0,0,-1,1700,1807,0,0
483,-783,0,0,0,0,0,0,0,0,0,-1,1707,1807,0,0
490,-783,0,0,0,0,0,0,0,0,0,-1,1714,1807,0,0
497,-783,0,0,0,0,0,0,0,0,0,-1,1721,1807,0,0
504,-783,0,0,0,0,0,0,0,0,0,-1,1728,1807,0,0
511,-783,0,0,0,0,0,0,0,0,0,-1,1735,1807,0,0
518,-783,0,0,0,0,0,0,0,0,0,-1,1742,1807,0,0
525,-783,0,0,0,0,0,0,0,0,0,-1,1749,1807,0,0
532,-783,0,0,0,0,0,0,0,0,0,-1,1756,1807,0,0
539,-783,0,0,0,0,0,0,0,0,0,-1,1763,1807,0,0
546,-783,0,0,0,0,0,0,0,0,0,-1,1770,1807,0,0
553,-783,0,0,0,0,0,0,0,0,0,-1,1777,1807,0,0
560,-783,0,0,0,0,0,0,0,0,0,-1,1784,1807,0,0
567,-783,0,0,0,0,0,0,0,0,0,-1,1791,1807,0,0
574,-783,0,0,0,0,0,0,0,0,0,-1,1798,1807,0,0
581,-783,0,0,0,0,0,0,0,0,0,-1,1805,1807,0,0
588,-783,0,0,0,0,0,0,0,0,0,-1,1812,1807,0,0
595,-783,0,0,0,0,0,0,0,0,0,-1,1819,1807,0,0
602,-783,0,0,0,0,0,0,0,0,0,-1,1826,1807,0,0
609,-783,0,0,0,0,0,0,0,0,0,-1,1833,1807,0,0
616,-783,0,0,0,0,0,0,0,0,0,-1,1840,1807,0,0
623,-783,0,0,0,0,0,0,0,0,0,-1,1847,1807,0,0
630,-783,0,0,0,0,0,0,0,0,0,-1,1854,1807,0,0
637,-783,0,0,0,0,0,0,0,0,0,-1,1861,1807,0,0
644,-783,0,0,0,0,0,0,0,0,0,-1,1868,1807,0,0
651,-783,0,0,0,0,0,0,0,0,0,-1,1875,1807,0,0
658,-783,0,0,0,0,0,0,0,0,0,-1,1882,1807,0,0
665,-783,0,0,0,0,0,0,0,0,0,-1,1889,1807,0,0
672,-783,0,0,0,0,0,0,0,0,0,-1,1896,1807,0,0
679,-783,0,0,0,0,0,0,0,0,0,-1,1903,1807,0,0
686,-783,0,0,0,0,0,0,0,0,0,-1,1910,1807,0,0
693,-783,0,0,0,0,0,0,0,0,0,-1,1917,1807,0,0
700,-783,0,0,0,0,0,0,0,0,0,-1,1924,1807,0,0
707,-783,0,0,0,0,0,0,0,0,0,-1,1931,1807,0,0
714,-783,0,0,0,0,0,0,0,0,0,-1,1938,1807,0,0
721,-783,0,0,0,0,0,0,0,0,0,-1,1945,1807,0,0
728,-783,0,0,0,0,0,0,0,0,0,-1,1952,1807,0,0
735,-783,0,0,0,0,0,0,0,0,0,-1,1959,1807,0,0
742,-783,0,0,0,0,0,0,0,0,0,-1,1966,1807,0,0
749,-783,0,0,0,0,0,0,0,0,0,-1,1973,1807,0,0
756,-783,0,0,0,0,0,0,0,0,0,-1,1980,1807,0,0
763,-783,0,0,0,0,0,0,0,0,0,-1,1987,1807,0,0
770,-783,0,0,0,0,0,0,0,0,0,-1,1994,1807,0,0
777,-783,0,0,0,0,0,0,0,0,0,-1,2001,1807,0,0
784,-783,0,0,0,0,0,0,0,0,0,-1,2008,1807,0,0
791,-783,0,0,0,0,0,0,0,0,0,-1,2015,1807,0,0
798,-783,0,0,0,0,0,0,0,0,0,-1,2022,1807,0,0
805,-783,0,0,0,0,0,0,0,0,0,-1,2029,1807,0,0
812,-783,0,0,0,0,0,0,0,0,0,-1,2036,1807,0,0
-700,-790,0,0,0,0,0,0,0,0,0,-1,524,1814,0,0
-693,-790,0,0,0,0,0,0,0,0,0,-1,531,1814,0,0
-686,-790,0,0,0,0,0,0,0,0,0,-1,538,1814,0,0
-679,-790,0,0,0,0,0,0,0,0,0,-1,545,1814,0,0
-672,-790,0,0,0,0,0,0,0,0,0,-1,552,1814,0,0
-665,-790,0,0,0,0,0,0,0,0,0,-1,559,1814,0,0
-658,-790,0,0,0,0,0,0,0,0,0,-1,566,1814,0,0
-651,-790,0,0,0,0,0,0,0,0,0,-1,573,1814,0,0
-644,-790,0,0,0,0,0,0,0,0,0,-1,580,1814,0,0
-637,-790,0,0,0,0,0,0,0,0,0,-1,587,1814,0,0
-630,-790,0,0,0,0,0,0,0,0,0,-1,594,1814,0,0
-623,-790,0,0,0,0,0,0,0,0,0,-1,601,1814,0,0
-616,-790,0,0,0,0,0,0,0,0,0,-1,608,1814,0,0
-609,-790,0,0,0,0,0,0,0,0,0,-1,615,1814,0,0
-602,-790,0,0,0,0,0,0,0,0,0,-1,622,1814,0,0
-595,-790,0,0,0,0,0,0,0,0,0,-1,629,1814,0,0
-588,-790,0,0,0,0,0,0,0,0,0,-1,636,1814,0,0
-581,-790,0,0,0,0,0,0,0,0,0,-1,643,1814,0,0
-574,-790,0,0,0,0,0,0,0,0,0,-1,650,1814,0,0
-567,-790,0,0,0,0,0,0,0,0,0,-1,657,1814,0,0
-560,-790,0,0,0,0,0,0,0,0,0,-1,664,1814,0,0
-553,-790,0,0,0,0,0,0,0,0,0,-1,671,1814,0,0
-546,-790,0,0,0,0,0,0,0,0,0,-1,678,1814,0,0
-539,-790,0,0,0,0,0,0,0,0,0,-1,685,1814,0,0
-532,-790,0,0,0,0,0,0,0,0,0,-1,692,1814,0,0
-525,-790,0,0,0,0,0,0,0,0,0,-1,699,1814,0,0
-518,-790,0,0,0,0,0,0,0,0,0,-1,706,1814,0,0
-511,-790,0,0,0,0,0,0,0,0,0,-1,713,1814,0,0
-504,-790,0,0,0,0,0,0,0,0,0,-1,720,1814,0,0
-497,-790,0,0,0,0,0,0,0,0,0,-1,727,1814,0,0
-490,-790,0,0,0,0,0,0,0,0,0,-1,734,1814,0,0
-483,-790,0,0,0,0,0,0,0,0,0,-1,741,1814,0,0
-476,-790,0,0,0,0,0,0,0,0,0,-1,748,1814,0,0
-469,-790,0,0,0,0,0,0,0,0,0,-1,755,1814,0,0
-462,-790,0,0,0,0,0,0,0,0,0,-1,762,1814,0,0
-455,-790,0,0,0,0,0,0,0,0,0,-1,769,1814,0,0
-448,-790,0,0,0,0,0,0,0,0,0,-1,776,1814,0,0
-441,-790,0,0,0,0,0,0,0,0,0,-1,783,1814,0,0
-434,-790,0,0,0,0,0,0,0,0,0,-1,790,1814,0,0
-427,-790,0,0,0,0,0,0,0,0,0,-1,797,1814,0,0
-420,-790,0,0,0,0,0,0,0,0,0,-1,804,1814,0,0
-413,-790,0,0,0,0,0,0,0,0,0,-1,811,1814,0,0
-406,-790,0,0,0,0,0,0,0,0,0,-1,818,1814,0,0
-399,-790,0,0,0,0,0,0,0,0,0,-1,825,1814,0,0
-392,-790,0,0,0,0,0,0,0,0,0,-1,832,1814,0,0
-385,-790,0,0,0,0,0,0,0,0,0,-1,839,1814,0,0
-378,-790,0,0,0,0,0,0,0,0,0,-1,846,1814,0,0
-371,-790,0,0,0,0,0,0,0,0,0,-1,853,1814,0,0
-364,-790,0,0,0,0,0,0,0,0,0,-1,860,1814,0,0
-357,-790,0,0,0,0,0,0,0,0,0,-1,867,1814,0,0
-350,-790,0,0,0,0,0,0,0,0,0,-1,874,1814,0,0
-343,-790,0,0,0,0,0,0,0,0,0,-1,881,1814,0,0
-336,-790,0,0,0,0,0,0,0,0,0,-1,888,1814,0,0
-329,-790,0,0,0,0,0,0,0,0,0,-1,895,1814,0,0
-322,-790,0,0,0,0,0,0,0,0,0,-1,902,1814,0,0
-315,-790,0,0,0,0,0,0,0,0,0,-1,909,1814,0,0
-308,-790,0,0,0,0,0,0,0,0,0,-1,916,1814,0,0
-301,-790,0,0,0,0,0,0,0,0,0,-1,923,1814,0,0
-294,-790,0,0,0,0,0,0,0,0,0,-1,930,1814,0,0
-287,-790,0,0,0,0,0,0,0,0,0,-1,937,1814,0,0
-280,-790,0,0,0,0,0,0,0,0,0,-1,944,1814,0,0
-273,-790,0,0,0,0,0,0,0,0,0,-1,951,1814,0,0
-266,-790,0,0,0,0,0,0,0,0,0,-1,958,1814,0,0
-259,-790,0,0,0,0,0,0,0,0,0,-1,965,1814,0,0
-252,-790,0,0,0,0,0,0,0,0,0,-1,972,1814,0,0
-245,-790,0,0,0,0,0,0,0,0,0,-1,979,1814,0,0
-238,-790,0,0,0,0,0,0,0,0,0,-1,986,1814,0,0
-231,-790,0,0,0,0,0,0,0,0,0,-1,993,1814,0,0
-224,-790,0,0,0,0,0,0,0,0,0,-1,1000,1814,0,0
-217,-790,0,0,0,0,0,0,0,0,0,-1,1007,1814,0,0
-210,-790,0,0,0,0,0,0,0,0,0,-1,1014,1814,0,0
-203,-790,0,0,0,0,0,0,0,0,0,-1,1021,1814,0,0
-196,-790,0,0,0,0,0,0,0,0,0,-1,1028,1814,0,0
-189,-790,0,0,0,0,0,0,0,0,0,-1,1035,1814,0,0
-182,-790,0,0,0,0,0,0,0,0,0,-1,1042,1814,0,0
-175,-790,0,0,0,0,0,0,0,0,0,-1,1049,1814,0,0
-168,-790,0,0,0,0,0,0,0,0,0,-1,1056,1814,0,0
-161,-790,0,0,0,0,0,0,0,0,0,-1,1063,1814,0,0
-154,-790,0,0,0,0,0,0,0,0,0,-1,1070,1814,0,0
-147,-790,0,0,0,0,0,0,0,0,0,-1,1077,1814,0,0
-140,-790,0,0,0,0,0,0,0,0,0,-1,1084,1814,0,0
-133,-790,0,0,0,0,0,0,0,0,0,-1,1091,1814,0,0
-126,-790,0,0,0,0,0,0,0,0,0,-1,1098,1814,0,0
-119,-790,0,0,0,0,0,0,0,0,0,-1,1105,1814,0,0
-112,-790,0,0,0,0,0,0,0,0,0,-1,1112,1814,0,0
-105,-790,0,0,0,0,0,0,0,0,0,-1,1119,1814,0,0
-98,-790,0,0,0,0,0,0,0,0,0,-1,1126,1814,0,0
-91,-790,0,0,0,0,0,0,0,0,0,-1,1133,1814,0,0
-84,-790,0,0,0,0,0,0,0,0,0,-1,1140,1814,0,0
-77,-790,-0.969238,5.30847,0,0,0,0,0,0,0,-1,1147,1814,-0.969277,-5.3085
-70,-790,-1.23169,4.98914,0,0,0,0,0,0,0,-1,1154,1814,-1.23163,-4.98916
-63,-790,-1.69128,4.32263,0,0,0,0,0,0,0,-1,1161,1814,-1.69128,-4.32258
-56,-790,-2.24756,3.75305,0,0,0,0,0,0,0,-1,1168,1814,-2.24758,-3.75302
-49,-790,-3.11011,3.35779,0,0,0,0,0,0,0,-1,1175,1814,-3.11006,-3.35781
-42,-790,0.593262,1.19165,0,0,0,0,0,0,0,-1,1182,1814,0.593225,-1.19165
-35,-790,0.307129,-0.20105,0,0,0,0,0,0,0,-1,1189,1814,0.307178,0.201006
-28,-790,-2.78467,0.785156,0,0,0,0,0,0,0,-1,1196,1814,-2.78471,-0.785183
-21,-790,3.09448,35.2482,0,0,0,0,0,0,0,-1,1203,1814,3.09444,-35.2482
-14,-790,3.92896,33.9513,0.0997186,0.198841,-0.14765,0.305026,-0.00646678,-0.947322,0.20554,0.045707,1210,1814,3.92897,-33.9513
-7,-790,4.62244,32.644,0.105347,0.191337,-0.142479,0.297167,-0.000483155,-0.931936,0.198273,0.0441082,1217,1814,4.62243,-32.6441
0,-790,5.23926,31.4279,0.113278,0.180505,-0.135579,0.286576,0.00720713,-0.906911,0.188694,0.0470221,1224,1814,5.23929,-31.4279
7,-790,5.6051,30.4004,0.119741,0.166519,-0.125988,0.271271,0.0149894,-0.877175,0.176064,0.0466075,1231,1814,5.60515,-30.4004
14,-790,6.12793,29.4987,0.121729,0.149737,-0.115204,0.251785,0.019681,-0.84588,0.161696,0.0443532,1238,1814,6.12788,-29.4987
21,-790,6.73022,28.4944,0.11981,0.131833,-0.104061,0.230056,0.0215874,-0.814251,0.146705,0.0442422,1245,1814,6.73028,-28.4944
28,-790,7.14209,27.4242,0.112289,0.113312,-0.0931621,0.205964,0.0196371,-0.788144,0.131254,0.0434575,1252,1814,7.1421,-27.4242
35,-790,7.8385,26.7122,0.100049,0.0945067,-0.0820389,0.179364,0.0151924,-0.768514,0.114847,0.0470521,1259,1814,7.83855,-26.7122
42,-790,8.99744,26.0707,0.0852573,0.077454,-0.0714522,0.152914,0.00979698,-0.758123,0.0988392,0.0434516,1266,1814,8.99738,-26.0707
49,-790,9.49939,25.606,0.0674962,0.0607883,-0.0615533,0.125787,0.00249764,-0.758181,0.0830379,0.0450749,1273,1814,9.49933,-25.606
56,-790,12.0803,27.1322,0.0455017,0.0474784,-0.0531926,0.0996918,-0.0067117,-0.794688,0.0688076,0.0461419,1280,1814,12.0803,-27.1321
63,-790,11.4458,27.4595,0.0249065,0.035325,-0.0438297,0.0742539,-0.0140224,-0.844546,0.0547783,0.045622,1287,1814,11.4458,-27.4595
70,-790,9.58447,27.7828,0,0,0,0,0,0,0,-1,1294,1814,9.58442,-27.7829
77,-790,9.14929,27.3008,-0.00713598,0.017732,-0.0240695,0.0323894,-0.0217934,-1.02381,0.0314812,0.0428997,1301,1814,9.14925,-27.3008
84,-790,8.85156,26.7858,-0.0219659,0.0119963,-0.0148426,0.0175687,-0.0275383,-1.21165,0.0262537,0.0441302,1308,1814,8.85159,-26.7858
91,-790,9.05725,26.8619,-0.0327996,0.00802009,-0.00518174,0.0086676,-0.0334471,-1.44648,0.0256796,0.0435387,1315,1814,9.05724,-26.8619
98,-790,5.82092,27.4009,0,0,0,0,0,0,0,-1,1322,1814,5.82086,-27.4009
105,-790,2.92053,26.4873,-0.0385379,0.00229679,0.0141327,0.0067109,-0.0429521,1.26806,0.0311139,0.045965,1329,1814,2.92051,-26.4873
112,-790,3.47546,27.0056,-0.0343843,0.001434,0.0240499,0.0135104,-0.0464607,1.10544,0.0363247,0.045966,1336,1814,3.47542,-27.0056
119,-790,3.93945,27.4637,-0.0250452,0.000240345,0.0349747,0.0247872,-0.0495921,0.958833,0.0437316,0.041906,1343,1814,3.93951,-27.4638
126,-790,4.03894,28.0571,-0.014169,-0.00293121,0.045391,0.0371873,-0.0542876,0.846979,0.0531198,0.0463118,1350,1814,4.03897,-28.0571
133,-790,4.19617,28.509,0,0,0,0,0,0,0,-1,1357,1814,4.19615,-28.5091
140,-790,2.21497,27.6647,0,0,0,0,0,0,0,-1,1364,1814,2.21491,-27.6646
147,-790,0.44043,27.7166,0,0,0,0,0,0,0,-1,1371,1814,0.440399,-27.7166
154,-790,27.679,12.5052,0,0,0,0,0,0,0,-1,1378,1814,27.6789,-12.5052
161,-790,26.6003,11.7516,0,0,0,0,0,0,0,-1,1385,1814,26.6004,-11.7516
168,-790,7.04077,2.23279,0,0,0,0,0,0,0,-1,1392,1814,7.04082,-2.23275
175,-790,9.03918,3.98535,0,0,0,0,0,0,0,-1,1399,1814,9.0392,-3.98535
182,-790,8.96997,5.67896,0,0,0,0,0,0,0,-1,1406,1814,8.97001,-5.6789
189,-790,8.59729,6.86975,0,0,0,0,0,0,0,-1,1413,1814,8.59728,-6.86972
196,-790,8.21924,9.29053,0,0,0,0,0,0,0,-1,1420,1814,8.21924,-9.29048
203,-790,0,0,0,0,0,0,0,0,0,-1,1427,1814,0,0
210,-790,0,0,0,0,0,0,0,0,0,-1,1434,1814,0,0
217,-790,0,0,0,0,0,0,0,0,0,-1,1441,1814,0,0
224,-790,0,0,0,0,0,0,0,0,0,-1,1448,1814,0,0
231,-790,0,0,0,0,0,0,0,0,0,-1,1455,1814,0,0
238,-790,0,0,0,0,0,0,0,0,0,-1,1462,1814,0,0
245,-790,0,0,0,0,0,0,0,0,0,-1,1469,1814,0,0
252,-790,0,0,0,0,0,0,0,0,0,-1,1476,1814,0,0
259,-790,0,0,0,0,0,0,0,0,0,-1,1483,1814,0,0
266,-790,0,0,0,0,0,0,0,0,0,-1,1490,1814,0,0
273,-790,0,0,0,0,0,0,0,0,0,-1,1497,1814,0,0
280,-790,0,0,0,0,0,0,0,0,0,-1,1504,1814,0,0
287,-790,0,0,0,0,0,0,0,0,0,-1,1511,1814,0,0
294,-790,0,0,0,0,0,0,0,0,0,-1,1518,1814,0,0
301,-790,0,0,0,0,0,0,0,0,0,-1,1525,1814,0,0
308,-790,0,0,0,0,0,0,0,0,0,-1,1532,1814,0,0
315,-790,0,0,0,0,0,0,0,0,0,-1,1539,1814,0,0
322,-790,0,0,0,0,0,0,0,0,0,-1,1546,1814,0,0
329,-790,0,0,0,0,0,0,0,0,0,-1,1553,1814,0,0
336,-790,0,0,0,0,0,0,0,0,0,-1,1560,1814,0,0
343,-790,0,0,0,0,0,0,0,0,0,-1,1567,1814,0,0
350,-790,0,0,0,0,0,0,0,0,0,-1,1574,1814,0,0
357,-790,0,0,0,0,0,0,0,0,0,-1,1581,1814,0,0
364,-790,0,0,0,0,0,0,0,0,0,-1,1588,1814,0,0
371,-790,0,0,0,0,0,0,0,0,0,-1,1595,1814,0,0
378,-790,0,0,0,0,0,0,0,0,0,-1,1602,1814,0,0
385,-790,0,0,0,0,0,0,0,0,0,-1,1609,1814,0,0
392,-790,0,0,0,0,0,0,0,0,0,-1,1616,1814,0,0
399,-790,0,0,0,0,0,0,0,0,0,-1,1623,1814,0,0
406,-790,0,0,0,0,0,0,0,0,0,-1,1630,1814,0,0
413,-790,0,0,0,0,0,0,0,0,0,-1,1637,1814,0,0
420,-790,0,0,0,0,0,0,0,0,0,-1,1644,1814,0,0
427,-790,0,0,0,0,0,0,0,0,0,-1,1651,1814,0,0
434,-790,0,0,0,0,0,0,0,0,0,-1,1658,1814,0,0
441,-790,0,0,0,0,0,0,0,0,0,-1,1665,1814,0,0
448,-790,0,0,0,0,0,0,0,0,0,-1,1672,1814,0,0
455,-790,0,0,0,0,0,0,0,0,0,-1,1679,1814,0,0
462,-790,0,0,0,0,0,0,0,0,0,-1,1686,1814,0,0
469,-790,0,0,0,0,0,0,0,0,0,-1,1693,1814,0,0
476,-790,0,0,0,0,0,0,0,0,0,-1,1700,1814,0,0
483,-790,0,0,0,0,0,0,0,0,0,-1,1707,1814,0,0
490,-790,0,0,0,0,0,0,0,0,0,-1,1714,1814,0,0
497,-790,0,0,0,0,0,0,0,0,0,-1,1721,1814,0,0
504,-790,0,0,0,0,0,0,0,0,0,-1,1728,1814,0,0
511,-790,0,0,0,0,0,0,0,0,0,-1,1735,1814,0,0
518,-790,0,0,0,0,0,0,0,0,0,-1,1742,1814,0,0
525,-790,0,0,0,0,0,0,0,0,0,-1,1749,1814,0,0
532,-790,0,0,0,0,0,0,0,0,0,-1,1756,1814,0,0
539,-790,0,0,0,0,0,0,0,0,0,-1,1763,1814,0,0
546,-790,0,0,0,0,0,0,0,0,0,-1,1770,1814,0,0
553,-790,0,0,0,0,0,0,0,0,0,-1,1777,1814,0,0
560,-790,0,0,0,0,0,0,0,0,0,-1,1784,1814,0,0
567,-790,0,0,0,0,0,0,0,0,0,-1,1791,1814,0,0
574,-790,0,0,0,0,0,0,0,0,0,-1,1798,1814,0,0
581,-790,0,0,0,0,0,0,0,0,0,-1,1805,1814,0,0
588,-790,0,0,0,0,0,0,0,0,0,-1,1812,1814,0,0
595,-790,0,0,0,0,0,0,0,0,0,-1,1819,1814,0,0
602,-790,0,0,0,0,0,0,0,0,0,-1,1826,1814,0,0
609,-790,0,0,0,0,0,0,0,0,0,-1,1833,1814,0,0
616,-790,0,0,0,0,0,0,0,0,0,-1,1840,1814,0,0
623,-790,0,0,0,0,0,0,0,0,0,-1,1847,1814,0,0
630,-790,0,0,0,0,0,0,0,0,0,-1,1854,1814,0,0
637,-790,0,0,0,0,0,0,0,0,0,-1,1861,1814,0,0
644,-790,0,0,0,0,0,0,0,0,0,-1,1868,1814,0,0
651,-790,0,0,0,0,0,0,0,0,0,-1,1875,1814,0,0
658,-790,0,0,0,0,0,0,0,0,0,-1,1882,1814,0,0
665,-790,0,0,0,0,0,0,0,0,0,-1,1889,1814,0,0
672,-790,0,0,0,0,0,0,0,0,0,-1,1896,1814,0,0
679,-790,0,0,0,0,0,0,0,0,0,-1,1903,1814,0,0
686,-790,0,0,0,0,0,0,0,0,0,-1,1910,1814,0,0
693,-790,0,0,0,0,0,0,0,0,0,-1,1917,1814,0,0
700,-790,0,0,0,0,0,0,0,0,0,-1,1924,1814,0,0
707,-790,0,0,0,0,0,0,0,0,0,-1,1931,1814,0,0
714,-790,0,0,0,0,0,0,0,0,0,-1,1938,1814,0,0
721,-790,0,0,0,0,0,0,0,0,0,-1,1945,1814,0,0
728,-790,0,0,0,0,0,0,0,0,0,-1,1952,1814,0,0
735,-790,0,0,0,0,0,0,0,0,0,-1,1959,1814,0,0
742,-790,0,0,0,0,0,0,0,0,0,-1,1966,1814,0,0
749,-790,0,0,0,0,0,0,0,0,0,-1,1973,1814,0,0
756,-790,0,0,0,0,0,0,0,0,0,-1,1980,1814,0,0
763,-790,0,0,0,0,0,0,0,0,0,-1,1987,1814,0,0
770,-790,0,0,0,0,0,0,0,0,0,-1,1994,1814,0,0
777,-790,0,0,0,0,0,0,0,0,0,-1,2001,1814,0,0
784,-790,0,0,0,0,0,0,0,0,0,-1,2008,1814,0,0
791,-790,0,0,0,0,0,0,0,0,0,-1,2015,1814,0,0
798,-790,0,0,0,0,0,0,0,0,0,-1,2022,1814,0,0
805,-790,0,0,0,0,0,0,0,0,0,-1,2029,1814,0,0
812,-790,0,0,0,0,0,0,0,0,0,-1,2036,1814,0,0
-700,-797,0,0,0,0,0,0,0,0,0,-1,524,1821,0,0
-693,-797,0,0,0,0,0,0,0,0,0,-1,531,1821,0,0
-686,-797,0,0,0,0,0,0,0,0,0,-1,538,1821,0,0
-679,-797,0,0,0,0,0,0,0,0,0,-1,545,1821,0,0
-672,-797,0,0,0,0,0,0,0,0,0,-1,552,1821,0,0
-665,-797,0,0,0,0,0,0,0,0,0,-1,559,1821,0,0
-658,-797,0,0,0,0,0,0,0,0,0,-1,566,1821,0,0
-651,-797,0,0,0,0,0,0,0,0,0,-1,573,1821,0,0
-644,-797,0,0,0,0,0,0,0,0,0,-1,580,1821,0,0
-637,-797,0,0,0,0,0,0,0,0,0,-1,587,1821,0,0
-630,-797,0,0,0,0,0,0,0,0,0,-1,594,1821,0,0
-623,-797,0,0,0,0,0,0,0,0,0,-1,601,1821,0,0
-616,-797,0,0,0,0,0,0,0,0,0,-1,608,1821,0,0
-609,-797,0,0,0,0,0,0,0,0,0,-1,615,1821,0,0
-602,-797,0,0,0,0,0,0,0,0,0,-1,622,1821,0,0
-595,-797,0,0,0,0,0,0,0,0,0,-1,629,1821,0,0
-588,-797,0,0,0,0,0,0,0,0,0,-1,636,1821,0,0
-581,-797,0,0,0,0,0,0,0,0,0,-1,643,1821,0,0
-574,-797,0,0,0,0,0,0,0,0,0,-1,650,1821,0,0
-567,-797,0,0,0,0,0,0,0,0,0,-1,657,1821,0,0
-560,-797,0,0,0,0,0,0,0,0,0,-1,664,1821,0,0
-553,-797,0,0,0,0,0,0,0,0,0,-1,671,1821,0,0
-546,-797,0,0,0,0,0,0,0,0,0,-1,678,1821,0,0
-539,-797,0,0,0,0,0,0,0,0,0,-1,685,1821,0,0
-532,-797,0,0,0,0,0,0,0,0,0,-1,692,1821,0,0
-525,-797,0,0,0,0,0,0,0,0,0,-1,699,1821,0,0
-518,-797,0,0,0,0,0,0,0,0,0,-1,706,1821,0,0
-511,-797,0,0,0,0,0,0,0,0,0,-1,713,1821,0,0
-504,-797,0,0,0,0,0,0,0,0,0,-1,720,1821,0,0
-497,-797,0,0,0,0,0,0,0,0,0,-1,727,1821,0,0
-490,-797,0,0,0,0,0,0,0,0,0,-1,734,1821,0,0
-483,-797,0,0,0,0,0,0,0,0,0,-1,741,1821,0,0
-476,-797,0,0,0,0,0,0,0,0,0,-1,748,1821,0,0
-469,-797,0,0,0,0,0,0,0,0,0,-1,755,1821,0,0
-462,-797,0,0,0,0,0,0,0,0,0,-1,762,1821,0,0
-455,-797,0,0,0,0,0,0,0,0,0,-1,769,1821,0,0
-448,-797,0,0,0,0,0,0,0,0,0,-1,776,1821,0,0
-441,-797,0,0,0,0,0,0,0,0,0,-1,783,1821,0,0
-434,-797,0,0,0,0,0,0,0,0,0,-1,790,1821,0,0
-427,-797,0,0,0,0,0,0,0,0,0,-1,797,1821,0,0
-420,-797,0,0,0,0,0,0,0,0,0,-1,804,1821,0,0
-413,-797,0,0,0,0,0,0,0,0,0,-1,811,1821,0,0
-406,-797,0,0,0,0,0,0,0,0,0,-1,818,1821,0,0
-399,-797,0,0,0,0,0,0,0,0,0,-1,825,1821,0,0
-392,-797,0,0,0,0,0,0,0,0,0,-1,832,1821,0,0
-385,-797,0,0,0,0,0,0,0,0,0,-1,839,1821,0,0
-378,-797,0,0,0,0,0,0,0,0,0,-1,846,1821,0,0
-371,-797,0,0,0,0,0,0,0,0,0,-1,853,1821,0,0
-364,-797,0,0,0,0,0,0,0,0,0,-1,860,1821,0,0
-357,-797,0,0,0,0,0,0,0,0,0,-1,867,1821,0,0
-350,-797,0,0,0,0,0,0,0,0,0,-1,874,1821,0,0
-343,-797,0,0,0,0,0,0,0,0,0,-1,881,1821,0,0
-336,-797,0,0,0,0,0,0,0,0,0,-1,888,1821,0,0
-329,-797,0,0,0,0,0,0,0,0,0,-1,895,1821,0,0
-322,-797,0,0,0,0,0,0,0,0,0,-1,902,1821,0,0
-315,-797,0,0,0,0,0,0,0,0,0,-1,909,1821,0,0
-308,-797,0,0,0,0,0,0,0,0,0,-1,916,1821,0,0
-301,-797,0,0,0,0,0,0,0,0,0,-1,923,1821,0,0
-294,-797,0,0,0,0,0,0,0,0,0,-1,930,1821,0,0
-287,-797,0,0,0,0,0,0,0,0,0,-1,937,1821,0,0
-280,-797,0,0,0,0,0,0,0,0,0,-1,944,1821,0,0
-273,-797,0,0,0,0,0,0,0,0,0,-1,951,1821,0,0
-266,-797,0,0,0,0,0,0,0,0,0,-1,958,1821,0,0
-259,-797,0,0,0,0,0,0,0,0,0,-1,965,1821,0,0
-252,-797,0,0,0,0,0,0,0,0,0,-1,972,1821,0,0
-245,-797,0,0,0,0,0,0,0,0,0,-1,979,1821,0,0
-238,-797,0,0,0,0,0,0,0,0,0,-1,986,1821,0,0
-231,-797,0,0,0,0,0,0,0,0,0,-1,993,1821,0,0
-224,-797,0,0,0,0,0,0,0,0,0,-1,1000,1821,0,0
-217,-797,0,0,0,0,0,0,0,0,0,-1,1007,1821,0,0
-210,-797,0,0,0,0,0,0,0,0,0,-1,1014,1821,0,0
-203,-797,0,0,0,0,0,0,0,0,0,-1,1021,1821,0,0
-196,-797,0,0,0,0,0,0,0,0,0,-1,1028,1821,0,0
-189,-797,0,0,0,0,0,0,0,0,0,-1,1035,1821,0,0
-182,-797,0,0,0,0,0,0,0,0,0,-1,1042,1821,0,0
-175,-797,0,0,0,0,0,0,0,0,0,-1,1049,1821,0,0
-168,-797,0,0,0,0,0,0,0,0,0,-1,1056,1821,0,0
-161,-797,0,0,0,0,0,0,0,0,0,-1,1063,1821,0,0
-154,-797,0,0,0,0,0,0,0,0,0,-1,1070,1821,0,0
-147,-797,0,0,0,0,0,0,0,0,0,-1,1077,1821,0,0
-140,-797,0,0,0,0,0,0,0,0,0,-1,1084,1821,0,0
-133,-797,0,0,0,0,0,0,0,0,0,-1,1091,1821,0,0
-126,-797,0,0,0,0,0,0,0,0,0,-1,1098,1821,0,0
-119,-797,0,0,0,0,0,0,0,0,0,-1,1105,1821,0,0
-112,-797,0,0,0,0,0,0,0,0,0,-1,1112,1821,0,0
-105,-797,0,0,0,0,0,0,0,0,0,-1,1119,1821,0,0
-98,-797,0,0,0,0,0,0,0,0,0,-1,1126,1821,0,0
-91,-797,0,0,0,0,0,0,0,0,0,-1,1133,1821,0,0
-84,-797,0,0,0,0,0,0,0,0,0,-1,1140,1821,0,0
-77,-797,0,0,0,0,0,0,0,0,0,-1,1147,1821,0,0
-70,-797,0,0,0,0,0,0,0,0,0,-1,1154,1821,0,0
-63,-797,0,0,0,0,0,0,0,0,0,-1,1161,1821,0,0
-56,-797,0,0,0,0,0,0,0,0,0,-1,1168,1821,0,0
-49,-797,0,0,0,0,0,0,0,0,0,-1,1175,1821,0,0
-42,-797,0.579834,0.692871,0,0,0,0,0,0,0,-1,1182,1821,0.579856,-0.692816
-35,-797,-0.185425,5.55396,0,0,0,0,0,0,0,-1,1189,1821,-0.18542,-5.55396
-28,-797,-0.310181,4.71509,0,0,0,0,0,0,0,-1,1196,1821,-0.310228,-4.71503
-21,-797,2.95679,33.5796,0,0,0,0,0,0,0,-1,1203,1821,2.9568,-33.5796
-14,-797,4.34253,32.7031,0.114992,0.237602,-0.175033,0.361755,-0.00916171,-0.953846,0.244281,0.0448648,1210,1821,4.34254,-32.7031
-7,-797,5.24109,31.4618,0.120025,0.230775,-0.170038,0.354227,-0.00342754,-0.942814,0.237302,0.0490392,1217,1821,5.24112,-31.4618
0,-797,5.9834,29.9082,0,0,0,0,0,0,0,-1,1224,1821,5.98346,-29.9082
7,-797,6.50244,28.8036,0.133611,0.202066,-0.149307,0.321019,0.014659,-0.898073,0.209297,0.0485318,1231,1821,6.50239,-28.8036
14,-797,7.24133,28.0837,0.134525,0.181712,-0.135615,0.295771,0.0204663,-0.871523,0.190725,0.041738,1238,1821,7.24133,-28.0837
21,-797,7.48108,27.5292,0.131675,0.159968,-0.121261,0.267905,0.0237378,-0.843467,0.17124,0.0422831,1245,1821,7.48114,-27.5292
28,-797,8.03906,26.6155,0.123099,0.137078,-0.106995,0.237311,0.0228661,-0.818015,0.151163,0.0419561,1252,1821,8.03909,-26.6155
35,-797,8.8092,26.0183,0.10911,0.113824,-0.0927248,0.204222,0.0187123,-0.798105,0.130359,0.0470261,1259,1821,8.80921,-26.0184
42,-797,9.61499,25.6212,0.09258,0.0924751,-0.0790802,0.171608,0.0134473,-0.785067,0.110197,0.0464611,1266,1821,9.61501,-25.6213
49,-797,10.4016,25.2101,0.0720481,0.0714001,-0.0664779,0.138203,0.00524546,-0.782961,0.0904375,0.0467196,1273,1821,10.4017,-25.2101
56,-797,12.0371,27.2968,0.0461215,0.0544761,-0.0563783,0.106832,-0.00623402,-0.822377,0.0733874,0.0420732,1280,1821,12.0372,-27.2968
63,-797,11.3812,27.6169,0.0215966,0.0393624,-0.0454716,0.0768106,-0.0158516,-0.881859,0.0572275,0.0423765,1287,1821,11.3812,-27.617
70,-797,10.8281,27.6162,0.000946333,0.0275791,-0.0342032,0.0509668,-0.0224413,-0.971036,0.0434357,0.042539,1294,1821,10.8281,-27.6161
77,-797,10.0642,27.3126,-0.0155287,0.0181879,-0.023284,0.0300759,-0.0274166,-1.09873,0.0332052,0.0412091,1301,1821,10.0642,-27.3126
84,-797,9.10742,27.213,-0.031439,0.0114251,-0.0129764,0.0150474,-0.0350613,-1.29858,0.0296895,0.0445609,1308,1821,9.10737,-27.213
91,-797,8.09924,27.304,-0.0429227,0.00654393,-0.00232852,0.0066533,-0.0430321,-1.52386,0.0311436,0.048984,1315,1821,8.09919,-27.3039
98,-797,7.07434,27.4329,0,0,0,0,0,0,0,-1,1322,1821,7.07436,-27.4329
105,-797,6.26465,27.3466,-0.0502927,-0.00059238,0.0204309,0.0067281,-0.0576132,1.22674,0.0408367,0.0475751,1329,1821,6.26459,-27.3466
112,-797,2.8208,27.048,-0.0448234,-0.00196982,0.0325564,0.0155781,-0.0623713,1.07644,0.0476305,0.0453037,1336,1821,2.82076,-27.0479
119,-797,3.14929,27.9465,-0.032825,-0.00431703,0.0472586,0.0307904,-0.0679324,0.931868,0.0583268,0.0421408,1343,1821,3.14924,-27.9465
126,-797,3.55493,28.4336,-0.018319,-0.00990402,0.0615671,0.0475992,-0.0758222,0.819515,0.0718757,0.0474588,1350,1821,3.55492,-28.4336
133,-797,3.97266,28.9105,0,0,0,0,0,0,0,-1,1357,1821,3.97263,-28.9105
140,-797,2.54675,27.574,0,0,0,0,0,0,0,-1,1364,1821,2.54678,-27.5739
147,-797,1.53137,28.7267,0,0,0,0,0,0,0,-1,1371,1821,1.53134,-28.7267
154,-797,27.7911,9.55957,0,0,0,0,0,0,0,-1,1378,1821,27.7912,-9.55956
161,-797,31.4421,8.56628,0,0,0,0,0,0,0,-1,1385,1821,31.4422,-8.56626
168,-797,0,0,0,0,0,0,0,0,0,-1,1392,1821,0,0
175,-797,0,0,0,0,0,0,0,0,0,-1,1399,1821,0,0
182,-797,0,0,0,0,0,0,0,0,0,-1,1406,1821,0,0
189,-797,0,0,0,0,0,0,0,0,0,-1,1413,1821,0,0
196,-797,0,0,0,0,0,0,0,0,0,-1,1420,1821,0,0
203,-797,0,0,0,0,0,0,0,0,0,-1,1427,1821,0,0
210,-797,0,0,0,0,0,0,0,0,0,-1,1434,1821,0,0
217,-797,0,0,0,0,0,0,0,0,0,-1,1441,1821,0,0
224,-797,0,0,0,0,0,0,0,0,0,-1,1448,1821,0,0
231,-797,0,0,0,0,0,0,0,0,0,-1,1455,1821,0,0
238,-797,0,0,0,0,0,0,0,0,0,-1,1462,1821,0,0
245,-797,0,0,0,0,0,0,0,0,0,-1,1469,1821,0,0
252,-797,0,0,0,0,0,0,0,0,0,-1,1476,1821,0,0
259,-797,0,0,0,0,0,0,0,0,0,-1,1483,1821,0,0
266,-797,0,0,0,0,0,0,0,0,0,-1,1490,1821,0,0
273,-797,0,0,0,0,0,0,0,0,0,-1,1497,1821,0,0
280,-797,0,0,0,0,0,0,0,0,0,-1,1504,1821,0,0
287,-797,0,0,0,0,0,0,0,0,0,-1,1511,1821,0,0
294,-797,0,0,0,0,0,0,0,0,0,-1,1518,1821,0,0
301,-797,0,0,0,0,0,0,0,0,0,-1,1525,1821,0,0
308,-797,0,0,0,0,0,0,0,0,0,-1,1532,1821,0,0
315,-797,0,0,0,0,0,0,0,0,0,-1,1539,1821,0,0
322,-797,0,0,0,0,0,0,0,0,0,-1,1546,1821,0,0
329,-797,0,0,0,0,0,0,0,0,0,-1,1553,1821,0,0
336,-797,0,0,0,0,0,0,0,0,0,-1,1560,1821,0,0
343,-797,0,0,0,0,0,0,0,0,0,-1,1567,1821,0,0
350,-797,0,0,0,0,0,0,0,0,0,-1,1574,1821,0,0
357,-797,0,0,0,0,0,0,0,0,0,-1,1581,1821,0,0
364,-797,0,0,0,0,0,0,0,0,0,-1,1588,1821,0,0
371,-797,0,0,0,0,0,0,0,0,0,-1,1595,1821,0,0
378,-797,0,0,0,0,0,0,0,0,0,-1,1602,1821,0,0
385,-797,0,0,0,0,0,0,0,0,0,-1,1609,1821,0,0
392,-797,0,0,0,0,0,0,0,0,0,-1,1616,1821,0,0
399,-797,0,0,0,0,0,0,0,0,0,-1,1623,1821,0,0
406,-797,0,0,0,0,0,0,0,0,0,-1,1630,1821,0,0
413,-797,0,0,0,0,0,0,0,0,0,-1,1637,1821,0,0
420,-797,0,0,0,0,0,0,0,0,0,-1,1644,1821,0,0
427,-797,0,0,0,0,0,0,0,0,0,-1,1651,1821,0,0
434,-797,0,0,0,0,0,0,0,0,0,-1,1658,1821,0,0
441,-797,0,0,0,0,0,0,0,0,0,-1,1665,1821,0,0
448,-797,0,0,0,0,0,0,0,0,0,-1,1672,1821,0,0
455,-797,0,0,0,0,0,0,0,0,0,-1,1679,1821,0,0
462,-797,0,0,0,0,0,0,0,0,0,-1,1686,1821,0,0
469,-797,0,0,0,0,0,0,0,0,0,-1,1693,1821,0,0
476,-797,0,0,0,0,0,0,0,0,0,-1,1700,1821,0,0
483,-797,0,0,0,0,0,0,0,0,0,-1,1707,1821,0,0
490,-797,0,0,0,0,0,0,0,0,0,-1,1714,1821,0,0
497,-797,0,0,0,0,0,0,0,0,0,-1,1721,1821,0,0
504,-797,0,0,0,0,0,0,0,0,0,-1,1728,1821,0,0
511,-797,0,0,0,0,0,0,0,0,0,-1,1735,1821,0,0
518,-797,0,0,0,0,0,0,0,0,0,-1,1742,1821,0,0
525,-797,0,0,0,0,0,0,0,0,0,-1,1749,1821,0,0
532,-797,0,0,0,0,0,0,0,0,0,-1,1756,1821,0,0
539,-797,0,0,0,0,0,0,0,0,0,-1,1763,1821,0,0
546,-797,0,0,0,0,0,0,0,0,0,-1,1770,1821,0,0
553,-797,0,0,0,0,0,0,0,0,0,-1,1777,1821,0,0
560,-797,0,0,0,0,0,0,0,0,0,-1,1784,1821,0,0
567,-797,0,0,0,0,0,0,0,0,0,-1,1791,1821,0,0
574,-797,0,0,0,0,0,0,0,0,0,-1,1798,1821,0,0
581,-797,0,0,0,0,0,0,0,0,0,-1,1805,1821,0,0
588,-797,0,0,0,0,0,0,0,0,0,-1,1812,1821,0,0
595,-797,0,0,0,0,0,0,0,0,0,-1,1819,1821,0,0
602,-797,0,0,0,0,0,0,0,0,0,-1,1826,1821,0,0
609,-797,0,0,0,0,0,0,0,0,0,-1,1833,1821,0,0
616,-797,0,0,0,0,0,0,0,0,0,-1,1840,1821,0,0
623,-797,0,0,0,0,0,0,0,0,0,-1,1847,1821,0,0
630,-797,0,0,0,0,0,0,0,0,0,-1,1854,1821,0,0
637,-797,0,0,0,0,0,0,0,0,0,-1,1861,1821,0,0
644,-797,0,0,0,0,0,0,0,0,0,-1,1868,1821,0,0
651,-797,0,0,0,0,0,0,0,0,0,-1,1875,1821,0,0
658,-797,0,0,0,0,0,0,0,0,0,-1,1882,1821,0,0
665,-797,0,0,0,0,0,0,0,0,0,-1,1889,1821,0,0
672,-797,0,0,0,0,0,0,0,0,0,-1,1896,1821,0,0
679,-797,0,0,0,0,0,0,0,0,0,-1,1903,1821,0,0
686,-797,0,0,0,0,0,0,0,0,0,-1,1910,1821,0,0
693,-797,0,0,0,0,0,0,0,0,0,-1,1917,1821,0,0
700,-797,0,0,0,0,0,0,0,0,0,-1,1924,1821,0,0
707,-797,0,0,0,0,0,0,0,0,0,-1,1931,1821,0,0
714,-797,0,0,0,0,0,0,0,0,0,-1,1938,1821,0,0
721,-797,0,0,0,0,0,0,0,0,0,-1,1945,1821,0,0
728,-797,0,0,0,0,0,0,0,0,0,-1,1952,1821,0,0
735,-797,0,0,0,0,0,0,0,0,0,-1,1959,1821,0,0
742,-797,0,0,0,0,0,0,0,0,0,-1,1966,1821,0,0
749,-797,0,0,0,0,0,0,0,0,0,-1,1973,1821,0,0
756,-797,0,0,0,0,0,0,0,0,0,-1,1980,1821,0,0
763,-797,0,0,0,0,0,0,0,0,0,-1,1987,1821,0,0
770,-797,0,0,0,0,0,0,0,0,0,-1,1994,1821,0,0
777,-797,0,0,0,0,0,0,0,0,0,-1,2001,1821,0,0
784,-797,0,0,0,0,0,0,0,0,0,-1,2008,1821,0,0
791,-797,0,0,0,0,0,0,0,0,0,-1,2015,1821,0,0
798,-797,0,0,0,0,0,0,0,0,0,-1,2022,1821,0,0
805,-797,0,0,0,0,0,0,0,0,0,-1,2029,1821,0,0
812,-797,0,0,0,0,0,0,0,0,0,-1,2036,1821,0,0
-700,-804,0,0,0,0,0,0,0,0,0,-1,524,1828,0,0
-693,-804,0,0,0,0,0,0,0,0,0,-1,531,1828,0,0
-686,-804,0,0,0,0,0,0,0,0,0,-1,538,1828,0,0
-679,-804,0,0,0,0,0,0,0,0,0,-1,545,1828,0,0
-672,-804,0,0,0,0,0,0,0,0,0,-1,552,1828,0,0
-665,-804,0,0,0,0,0,0,0,0,0,-1,559,1828,0,0
-658,-804,0,0,0,0,0,0,0,0,0,-1,566,1828,0,0
-651,-804,0,0,0,0,0,0,0,0,0,-1,573,1828,0,0
-644,-804,0,0,0,0,0,0,0,0,0,-1,580,1828,0,0
-637,-804,0,0,0,0,0,0,0,0,0,-1,587,1828,0,0
-630,-804,0,0,0,0,0,0,0,0,0,-1,594,1828,0,0
-623,-804,0,0,0,0,0,0,0,0,0,-1,601,1828,0,0
-616,-804,0,0,0,0,0,0,0,0,0,-1,608,1828,0,0
-609,-804,0,0,0,0,0,0,0,0,0,-1,615,1828,0,0
-602,-804,0,0,0,0,0,0,0,0,0,-1,622,1828,0,0
-595,-804,0,0,0,0,0,0,0,0,0,-1,629,1828,0,0
-588,-804,0,0,0,0,0,0,0,0,0,-1,636,1828,0,0
-581,-804,0,0,0,0,0,0,0,0,0,-1,643,1828,0,0
-574,-804,0,0,0,0,0,0,0,0,0,-1,650,1828,0,0
-567,-804,0,0,0,0,0,0,0,0,0,-1,657,1828,0,0
-560,-804,0,0,0,0,0,0,0,0,0,-1,664,1828,0,0
-553,-804,0,0,0,0,0,0,0,0,0,-1,671,1828,0,0
-546,-804,0,0,0,0,0,0,0,0,0,-1,678,1828,0,0
-539,-804,0,0,0,0,0,0,0,0,0,-1,685,1828,0,0
-532,-804,0,0,0,0,0,0,0,0,0,-1,692,1828,0,0
-525,-804,0,0,0,0,0,0,0,0,0,-1,699,1828,0,0
-518,-804,0,0,0,0,0,0,0,0,0,-1,706,1828,0,0
-511,-804,0,0,0,0,0,0,0,0,0,-1,713,1828,0,0
-504,-804,0,0,0,0,0,0,0,0,0,-1,720,1828,0,0
-497,-804,0,0,0,0,0,0,0,0,0,-1,727,1828,0,0
-490,-804,0,0,0,0,0,0,0,0,0,-1,734,1828,0,0
-483,-804,0,0,0,0,0,0,0,0,0,-1,741,1828,0,0
-476,-804,0,0,0,0,0,0,0,0,0,-1,748,1828,0,0
-469,-804,0,0,0,0,0,0,0,0,0,-1,755,1828,0,0
-462,-804,0,0,0,0,0,0,0,0,0,-1,762,1828,0,0
-455,-804,0,0,0,0,0,0,0,0,0,-1,769,1828,0,0
-448,-804,0,0,0,0,0,0,0,0,0,-1,776,1828,0,0
-441,-804,0,0,0,0,0,0,0,0,0,-1,783,1828,0,0
-434,-804,0,0,0,0,0,0,0,0,0,-1,790,1828,0,0
-427,-804,0,0,0,0,0,0,0,0,0,-1,797,1828,0,0
-420,-804,0,0,0,0,0,0,0,0,0,-1,804,1828,0,0
-413,-804,0,0,0,0,0,0,0,0,0,-1,811,1828,0,0
-406,-804,0,0,0,0,0,0,0,0,0,-1,818,1828,0,0
-399,-804,0,0,0,0,0,0,0,0,0,-1,825,1828,0,0
-392,-804,0,0,0,0,0,0,0,0,0,-1,832,1828,0,0
-385,-804,0,0,0,0,0,0,0,0,0,-1,839,1828,0,0
-378,-804,0,0,0,0,0,0,0,0,0,-1,846,1828,0,0
-371,-804,0,0,0,0,0,0,0,0,0,-1,853,1828,0,0
-364,-804,0,0,0,0,0,0,0,0,0,-1,860,1828,0,0
-357,-804,0,0,0,0,0,0,0,0,0,-1,867,1828,0,0
-350,-804,0,0,0,0,0,0,0,0,0,-1,874,1828,0,0
-343,-804,0,0,0,0,0,0,0,0,0,-1,881,1828,0,0
-336,-804,0,0,0,0,0,0,0,0,0,-1,888,1828,0,0
-329,-804,0,0,0,0,0,0,0,0,0,-1,895,1828,0,0
-322,-804,0,0,0,0,0,0,0,0,0,-1,902,1828,0,0
-315,-804,0,0,0,0,0,0,0,0,0,-1,909,1828,0,0
-308,-804,0,0,0,0,0,0,0,0,0,-1,916,1828,0,0
-301,-804,0,0,0,0,0,0,0,0,0,-1,923,1828,0,0
-294,-804,0,0,0,0,0,0,0,0,0,-1,930,1828,0,0
-287,-804,0,0,0,0,0,0,0,0,0,-1,937,1828,0,0
-280,-804,0,0,0,0,0,0,0,0,0,-1,944,1828,0,0
-273,-804,0,0,0,0,0,0,0,0,0,-1,951,1828,0,0
-266,-804,0,0,0,0,0,0,0,0,0,-1,958,1828,0,0
-259,-804,0,0,0,0,0,0,0,0,0,-1,965,1828,0,0
-252,-804,0,0,0,0,0,0,0,0,0,-1,972,1828,0,0
-245,-804,0,0,0,0,0,0,0,0,0,-1,979,1828,0,0
-238,-804,0,0,0,0,0,0,0,0,0,-1,986,1828,0,0
-231,-804,0,0,0,0,0,0,0,0,0,-1,993,1828,0,0
-224,-804,0,0,0,0,0,0,0,0,0,-1,1000,1828,0,0
-217,-804,0,0,0,0,0,0,0,0,0,-1,1007,1828,0,0
-210,-804,0,0,0,0,0,0,0,0,0,-1,1014,1828,0,0
-203,-804,0,0,0,0,0,0,0,0,0,-1,1021,1828,0,0
-196,-804,0,0,0,0,0,0,0,0,0,-1,1028,1828,0,0
-189,-804,0,0,0,0,0,0,0,0,0,-1,1035,1828,0,0
-182,-804,0,0,0,0,0,0,0,0,0,-1,1042,1828,0,0
-175,-804,0,0,0,0,0,0,0,0,0,-1,1049,1828,0,0
-168,-804,0,0,0,0,0,0,0,0,0,-1,1056,1828,0,0
-161,-804,0,0,0,0,0,0,0,0,0,-1,1063,1828,0,0
-154,-804,0,0,0,0,0,0,0,0,0,-1,1070,1828,0,0
-147,-804,0,0,0,0,0,0,0,0,0,-1,1077,1828,0,0
-140,-804,0,0,0,0,0,0,0,0,0,-1,1084,1828,0,0
-133,-804,0,0,0,0,0,0,0,0,0,-1,1091,1828,0,0
-126,-804,0,0,0,0,0,0,0,0,0,-1,1098,1828,0,0
-119,-804,0,0,0,0,0,0,0,0,0,-1,1105,1828,0,0
-112,-804,0,0,0,0,0,0,0,0,0,-1,1112,1828,0,0
-105,-804,0,0,0,0,0,0,0,0,0,-1,1119,1828,0,0
-98,-804,0,0,0,0,0,0,0,0,0,-1,1126,1828,0,0
-91,-804,0,0,0,0,0,0,0,0,0,-1,1133,1828,0,0
-84,-804,0,0,0,0,0,0,0,0,0,-1,1140,1828,0,0
-77,-804,0,0,0,0,0,0,0,0,0,-1,1147,1828,0,0
-70,-804,0,0,0,0,0,0,0,0,0,-1,1154,1828,0,0
-63,-804,0,0,0,0,0,0,0,0,0,-1,1161,1828,0,0
-56,-804,0,0,0,0,0,0,0,0,0,-1,1168,1828,0,0
-49,-804,0,0,0,0,0,0,0,0,0,-1,1175,1828,0,0
-42,-804,0,0,0,0,0,0,0,0,0,-1,1182,1828,0,0
-35,-804,0,0,0,0,0,0,0,0,0,-1,1189,1828,0,0
-28,-804,0,0,0,0,0,0,0,0,0,-1,1196,1828,0,0
-21,-804,0,0,0,0,0,0,0,0,0,-1,1203,1828,0,0
-14,-804,0,0,0,0,0,0,0,0,0,-1,1210,1828,0,0
-7,-804,0,0,0,0,0,0,0,0,0,-1,1217,1828,0,0
0,-804,0,0,0,0,0,0,0,0,0,-1,1224,1828,0,0
7,-804,0,0,0,0,0,0,0,0,0,-1,1231,1828,0,0
14,-804,0,0,0,0,0,0,0,0,0,-1,1238,1828,0,0
21,-804,0,0,0,0,0,0,0,0,0,-1,1245,1828,0,0
28,-804,0,0,0,0,0,0,0,0,0,-1,1252,1828,0,0
35,-804,9.75171,25.2517,0.110657,0.133452,-0.0992789,0.221986,0.0221236,-0.842548,0.141195,0.0452381,1259,1828,9.75172,-25.2517
42,-804,10.5953,24.6155,0.0933892,0.107337,-0.0821086,0.182767,0.0179589,-0.827764,0.116322,0.0473838,1266,1828,10.5954,-24.6155
49,-804,11.298,24.8098,0.0707116,0.0812175,-0.0664734,0.142645,0.00928387,-0.824828,0.0921582,0.0457699,1273,1828,11.298,-24.8098
56,-804,11.9363,27.4902,0.0410369,0.0599318,-0.0546702,0.105965,-0.00499617,-0.870957,0.0723662,0.0446396,1280,1828,11.9362,-27.4902
63,-804,11.452,28.0671,0.0123291,0.0413772,-0.0424803,0.0717478,-0.0180415,-0.950118,0.0548439,0.0424192,1287,1828,11.452,-28.0672
70,-804,11.2772,27.6383,-0.0116138,0.0271665,-0.0302364,0.0436959,-0.0281433,-1.07051,0.0417991,0.0434347,1294,1828,11.2772,-27.6383
77,-804,10.6538,27.3047,-0.0298835,0.0163799,-0.0189032,0.0231214,-0.036625,-1.22823,0.034787,0.0438829,1301,1828,10.6538,-27.3047
84,-804,9.57288,27.0735,-0.0458695,0.00864361,-0.00804752,0.00980681,-0.0470327,-1.42725,0.035084,0.0435176,1308,1828,9.57285,-27.0735
91,-804,0,0,0,0,0,0,0,0,0,-1,1315,1828,0,0
98,-804,0,0,0,0,0,0,0,0,0,-1,1322,1828,0,0
105,-804,0,0,0,0,0,0,0,0,0,-1,1329,1828,0,0
112,-804,0,0,0,0,0,0,0,0,0,-1,1336,1828,0,0
119,-804,0,0,0,0,0,0,0,0,0,-1,1343,1828,0,0
126,-804,0,0,0,0,0,0,0,0,0,-1,1350,1828,0,0
133,-804,0,0,0,0,0,0,0,0,0,-1,1357,1828,0,0
140,-804,0,0,0,0,0,0,0,0,0,-1,1364,1828,0,0
147,-804,0,0,0,0,0,0,0,0,0,-1,1371,1828,0,0
154,-804,0,0,0,0,0,0,0,0,0,-1,1378,1828,0,0
161,-804,0,0,0,0,0,0,0,0,0,-1,1385,1828,0,0
168,-804,0,0,0,0,0,0,0,0,0,-1,1392,1828,0,0
175,-804,0,0,0,0,0,0,0,0,0,-1,1399,1828,0,0
182,-804,0,0,0,0,0,0,0,0,0,-1,1406,1828,0,0
189,-804,0,0,0,0,0,0,0,0,0,-1,1413,1828,0,0
196,-804,0,0,0,0,0,0,0,0,0,-1,1420,1828,0,0
203,-804,0,0,0,0,0,0,0,0,0,-1,1427,1828,0,0
210,-804,0,0,0,0,0,0,0,0,0,-1,1434,1828,0,0
217,-804,0,0,0,0,0,0,0,0,0,-1,1441,1828,0,0
224,-804,0,0,0,0,0,0,0,0,0,-1,1448,1828,0,0
231,-804,0,0,0,0,0,0,0,0,0,-1,1455,1828,0,0
238,-804,0,0,0,0,0,0,0,0,0,-1,1462,1828,0,0
245,-804,0,0,0,0,0,0,0,0,0,-1,1469,1828,0,0
252,-804,0,0,0,0,0,0,0,0,0,-1,1476,1828,0,0
259,-804,0,0,0,0,0,0,0,0,0,-1,1483,1828,0,0
266,-804,0,0,0,0,0,0,0,0,0,-1,1490,1828,0,0
273,-804,0,0,0,0,0,0,0,0,0,-1,1497,1828,0,0
280,-804,0,0,0,0,0,0,0,0,0,-1,1504,1828,0,0
287,-804,0,0,0,0,0,0,0,0,0,-1,1511,1828,0,0
294,-804,0,0,0,0,0,0,0,0,0,-1,1518,1828,0,0
301,-804,0,0,0,0,0,0,0,0,0,-1,1525,1828,0,0
308,-804,0,0,0,0,0,0,0,0,0,-1,1532,1828,0,0
315,-804,0,0,0,0,0,0,0,0,0,-1,1539,1828,0,0
322,-804,0,0,0,0,0,0,0,0,0,-1,1546,1828,0,0
329,-804,0,0,0,0,0,0,0,0,0,-1,1553,1828,0,0
336,-804,0,0,0,0,0,0,0,0,0,-1,1560,1828,0,0
343,-804,0,0,0,0,0,0,0,0,0,-1,1567,1828,0,0
350,-804,0,0,0,0,0,0,0,0,0,-1,1574,1828,0,0
357,-804,0,0,0,0,0,0,0,0,0,-1,1581,1828,0,0
364,-804,0,0,0,0,0,0,0,0,0,-1,1588,1828,0,0
371,-804,0,0,0,0,0,0,0,0,0,-1,1595,1828,0,0
378,-804,0,0,0,0,0,0,0,0,0,-1,1602,1828,0,0
385,-804,0,0,0,0,0,0,0,0,0,-1,1609,1828,0,0
392,-804,0,0,0,0,0,0,0,0,0,-1,1616,1828,0,0
399,-804,0,0,0,0,0,0,0,0,0,-1,1623,1828,0,0
406,-804,0,0,0,0,0,0,0,0,0,-1,1630,1828,0,0
413,-804,0,0,0,0,0,0,0,0,0,-1,1637,1828,0,0
420,-804,0,0,0,0,0,0,0,0,0,-1,1644,1828,0,0
427,-804,0,0,0,0,0,0,0,0,0,-1,1651,1828,0,0
434,-804,0,0,0,0,0,0,0,0,0,-1,1658,1828,0,0
441,-804,0,0,0,0,0,0,0,0,0,-1,1665,1828,0,0
448,-804,0,0,0,0,0,0,0,0,0,-1,1672,1828,0,0
455,-804,0,0,0,0,0,0,0,0,0,-1,1679,1828,0,0
462,-804,0,0,0,0,0,0,0,0,0,-1,1686,1828,0,0
469,-804,0,0,0,0,0,0,0,0,0,-1,1693,1828,0,0
476,-804,0,0,0,0,0,0,0,0,0,-1,1700,1828,0,0
483,-804,0,0,0,0,0,0,0,0,0,-1,1707,1828,0,0
490,-804,0,0,0,0,0,0,0,0,0,-1,1714,1828,0,0
497,-804,0,0,0,0,0,0,0,0,0,-1,1721,1828,0,0
504,-804,0,0,0,0,0,0,0,0,0,-1,1728,1828,0,0
511,-804,0,0,0,0,0,0,0,0,0,-1,1735,1828,0,0
518,-804,0,0,0,0,0,0,0,0,0,-1,1742,1828,0,0
525,-804,0,0,0,0,0,0,0,0,0,-1,1749,1828,0,0
532,-804,0,0,0,0,0,0,0,0,0,-1,1756,1828,0,0
539,-804,0,0,0,0,0,0,0,0,0,-1,1763,1828,0,0
546,-804,0,0,0,0,0,0,0,0,0,-1,1770,1828,0,0
553,-804,0,0,0,0,0,0,0,0,0,-1,1777,1828,0,0
560,-804,0,0,0,0,0,0,0,0,0,-1,1784,1828,0,0
567,-804,0,0,0,0,0,0,0,0,0,-1,1791,1828,0,0
574,-804,0,0,0,0,0,0,0,0,0,-1,1798,1828,0,0
581,-804,0,0,0,0,0,0,0,0,0,-1,1805,1828,0,0
588,-804,0,0,0,0,0,0,0,0,0,-1,1812,1828,0,0
595,-804,0,0,0,0,0,0,0,0,0,-1,1819,1828,0,0
602,-804,0,0,0,0,0,0,0,0,0,-1,1826,1828,0,0
609,-804,0,0,0,0,0,0,0,0,0,-1,1833,1828,0,0
616,-804,0,0,0,0,0,0,0,0,0,-1,1840,1828,0,0
623,-804,0,0,0,0,0,0,0,0,0,-1,1847,1828,0,0
630,-804,0,0,0,0,0,0,0,0,0,-1,1854,1828,0,0
637,-804,0,0,0,0,0,0,0,0,0,-1,1861,1828,0,0
644,-804,0,0,0,0,0,0,0,0,0,-1,1868,1828,0,0
651,-804,0,0,0,0,0,0,0,0,0,-1,1875,1828,0,0
658,-804,0,0,0,0,0,0,0,0,0,-1,1882,1828,0,0
665,-804,0,0,0,0,0,0,0,0,0,-1,1889,1828,0,0
672,-804,0,0,0,0,0,0,0,0,0,-1,1896,1828,0,0
679,-804,0,0,0,0,0,0,0,0,0,-1,1903,1828,0,0
686,-804,0,0,0,0,0,0,0,0,0,-1,1910,1828,0,0
693,-804,0,0,0,0,0,0,0,0,0,-1,1917,1828,0,0
700,-804,0,0,0,0,0,0,0,0,0,-1,1924,1828,0,0
707,-804,0,0,0,0,0,0,0,0,0,-1,1931,1828,0,0
714,-804,0,0,0,0,0,0,0,0,0,-1,1938,1828,0,0
721,-804,0,0,0,0,0,0,0,0,0,-1,1945,1828,0,0
728,-804,0,0,0,0,0,0,0,0,0,-1,1952,1828,0,0
735,-804,0,0,0,0,0,0,0,0,0,-1,1959,1828,0,0
742,-804,0,0,0,0,0,0,0,0,0,-1,1966,1828,0,0
749,-804,0,0,0,0,0,0,0,0,0,-1,1973,1828,0,0
756,-804,0,0,0,0,0,0,0,0,0,-1,1980,1828,0,0
763,-804,0,0,0,0,0,0,0,0,0,-1,1987,1828,0,0
770,-804,0,0,0,0,0,0,0,0,0,-1,1994,1828,0,0
777,-804,0,0,0,0,0,0,0,0,0,-1,2001,1828,0,0
784,-804,0,0,0,0,0,0,0,0,0,-1,2008,1828,0,0
791,-804,0,0,0,0,0,0,0,0,0,-1,2015,1828,0,0
798,-804,0,0,0,0,0,0,0,0,0,-1,2022,1828,0,0
805,-804,0,0,0,0,0,0,0,0,0,-1,2029,1828,0,0
812,-804,0,0,0,0,0,0,0,0,0,-1,2036,1828,0,0

